 "x_c",  "y_c",  "u_c",  "v_c",  "exx",  "eyy",  "exy",  "e1",  "e2",  "gamma",  "e_vonmises",  "sigma",  "x",  "y",  "u",  "v"
-700,715,0,0,0,0,0,0,0,0,0,-1,524,309,0,0
-693,715,0,0,0,0,0,0,0,0,0,-1,531,309,0,0
-686,715,0,0,0,0,0,0,0,0,0,-1,538,309,0,0
-679,715,0,0,0,0,0,0,0,0,0,-1,545,309,0,0
-672,715,0,0,0,0,0,0,0,0,0,-1,552,309,0,0
-665,715,0,0,0,0,0,0,0,0,0,-1,559,309,0,0
-658,715,0,0,0,0,0,0,0,0,0,-1,566,309,0,0
-651,715,0,0,0,0,0,0,0,0,0,-1,573,309,0,0
-644,715,0,0,0,0,0,0,0,0,0,-1,580,309,0,0
-637,715,0,0,0,0,0,0,0,0,0,-1,587,309,0,0
-630,715,0,0,0,0,0,0,0,0,0,-1,594,309,0,0
-623,715,0,0,0,0,0,0,0,0,0,-1,601,309,0,0
-616,715,0,0,0,0,0,0,0,0,0,-1,608,309,0,0
-609,715,0,0,0,0,0,0,0,0,0,-1,615,309,0,0
-602,715,0,0,0,0,0,0,0,0,0,-1,622,309,0,0
-595,715,0,0,0,0,0,0,0,0,0,-1,629,309,0,0
-588,715,0,0,0,0,0,0,0,0,0,-1,636,309,0,0
-581,715,0,0,0,0,0,0,0,0,0,-1,643,309,0,0
-574,715,0,0,0,0,0,0,0,0,0,-1,650,309,0,0
-567,715,0,0,0,0,0,0,0,0,0,-1,657,309,0,0
-560,715,0,0,0,0,0,0,0,0,0,-1,664,309,0,0
-553,715,0,0,0,0,0,0,0,0,0,-1,671,309,0,0
-546,715,0,0,0,0,0,0,0,0,0,-1,678,309,0,0
-539,715,0,0,0,0,0,0,0,0,0,-1,685,309,0,0
-532,715,0,0,0,0,0,0,0,0,0,-1,692,309,0,0
-525,715,0,0,0,0,0,0,0,0,0,-1,699,309,0,0
-518,715,0,0,0,0,0,0,0,0,0,-1,706,309,0,0
-511,715,0,0,0,0,0,0,0,0,0,-1,713,309,0,0
-504,715,0,0,0,0,0,0,0,0,0,-1,720,309,0,0
-497,715,0,0,0,0,0,0,0,0,0,-1,727,309,0,0
-490,715,0,0,0,0,0,0,0,0,0,-1,734,309,0,0
-483,715,0,0,0,0,0,0,0,0,0,-1,741,309,0,0
-476,715,0,0,0,0,0,0,0,0,0,-1,748,309,0,0
-469,715,0,0,0,0,0,0,0,0,0,-1,755,309,0,0
-462,715,0,0,0,0,0,0,0,0,0,-1,762,309,0,0
-455,715,0,0,0,0,0,0,0,0,0,-1,769,309,0,0
-448,715,0,0,0,0,0,0,0,0,0,-1,776,309,0,0
-441,715,0,0,0,0,0,0,0,0,0,-1,783,309,0,0
-434,715,0,0,0,0,0,0,0,0,0,-1,790,309,0,0
-427,715,0,0,0,0,0,0,0,0,0,-1,797,309,0,0
-420,715,0,0,0,0,0,0,0,0,0,-1,804,309,0,0
-413,715,0,0,0,0,0,0,0,0,0,-1,811,309,0,0
-406,715,0,0,0,0,0,0,0,0,0,-1,818,309,0,0
-399,715,0,0,0,0,0,0,0,0,0,-1,825,309,0,0
-392,715,0,0,0,0,0,0,0,0,0,-1,832,309,0,0
-385,715,0,0,0,0,0,0,0,0,0,-1,839,309,0,0
-378,715,0,0,0,0,0,0,0,0,0,-1,846,309,0,0
-371,715,0,0,0,0,0,0,0,0,0,-1,853,309,0,0
-364,715,0,0,0,0,0,0,0,0,0,-1,860,309,0,0
-357,715,0,0,0,0,0,0,0,0,0,-1,867,309,0,0
-350,715,0,0,0,0,0,0,0,0,0,-1,874,309,0,0
-343,715,0,0,0,0,0,0,0,0,0,-1,881,309,0,0
-336,715,0,0,0,0,0,0,0,0,0,-1,888,309,0,0
-329,715,0,0,0,0,0,0,0,0,0,-1,895,309,0,0
-322,715,0,0,0,0,0,0,0,0,0,-1,902,309,0,0
-315,715,0,0,0,0,0,0,0,0,0,-1,909,309,0,0
-308,715,0,0,0,0,0,0,0,0,0,-1,916,309,0,0
-301,715,0,0,0,0,0,0,0,0,0,-1,923,309,0,0
-294,715,0,0,0,0,0,0,0,0,0,-1,930,309,0,0
-287,715,0,0,0,0,0,0,0,0,0,-1,937,309,0,0
-280,715,0,0,0,0,0,0,0,0,0,-1,944,309,0,0
-273,715,0,0,0,0,0,0,0,0,0,-1,951,309,0,0
-266,715,0,0,0,0,0,0,0,0,0,-1,958,309,0,0
-259,715,0,0,0,0,0,0,0,0,0,-1,965,309,0,0
-252,715,0,0,0,0,0,0,0,0,0,-1,972,309,0,0
-245,715,0,0,0,0,0,0,0,0,0,-1,979,309,0,0
-238,715,0,0,0,0,0,0,0,0,0,-1,986,309,0,0
-231,715,0,0,0,0,0,0,0,0,0,-1,993,309,0,0
-224,715,0,0,0,0,0,0,0,0,0,-1,1000,309,0,0
-217,715,0,0,0,0,0,0,0,0,0,-1,1007,309,0,0
-210,715,0,0,0,0,0,0,0,0,0,-1,1014,309,0,0
-203,715,0,0,0,0,0,0,0,0,0,-1,1021,309,0,0
-196,715,0,0,0,0,0,0,0,0,0,-1,1028,309,0,0
-189,715,0,0,0,0,0,0,0,0,0,-1,1035,309,0,0
-182,715,0,0,0,0,0,0,0,0,0,-1,1042,309,0,0
-175,715,0,0,0,0,0,0,0,0,0,-1,1049,309,0,0
-168,715,0,0,0,0,0,0,0,0,0,-1,1056,309,0,0
-161,715,0,0,0,0,0,0,0,0,0,-1,1063,309,0,0
-154,715,0,0,0,0,0,0,0,0,0,-1,1070,309,0,0
-147,715,0,0,0,0,0,0,0,0,0,-1,1077,309,0,0
-140,715,0,0,0,0,0,0,0,0,0,-1,1084,309,0,0
-133,715,0,0,0,0,0,0,0,0,0,-1,1091,309,0,0
-126,715,0,0,0,0,0,0,0,0,0,-1,1098,309,0,0
-119,715,0,0,0,0,0,0,0,0,0,-1,1105,309,0,0
-112,715,0,0,0,0,0,0,0,0,0,-1,1112,309,0,0
-105,715,0,0,0,0,0,0,0,0,0,-1,1119,309,0,0
-98,715,0,0,0,0,0,0,0,0,0,-1,1126,309,0,0
-91,715,0,0,0,0,0,0,0,0,0,-1,1133,309,0,0
-84,715,0,0,0,0,0,0,0,0,0,-1,1140,309,0,0
-77,715,0,0,0,0,0,0,0,0,0,-1,1147,309,0,0
-70,715,0,0,0,0,0,0,0,0,0,-1,1154,309,0,0
-63,715,0,0,0,0,0,0,0,0,0,-1,1161,309,0,0
-56,715,0,0,0,0,0,0,0,0,0,-1,1168,309,0,0
-49,715,0,0,0,0,0,0,0,0,0,-1,1175,309,0,0
-42,715,0,0,0,0,0,0,0,0,0,-1,1182,309,0,0
-35,715,0,0,0,0,0,0,0,0,0,-1,1189,309,0,0
-28,715,0,0,0,0,0,0,0,0,0,-1,1196,309,0,0
-21,715,0,0,0,0,0,0,0,0,0,-1,1203,309,0,0
-14,715,0,0,0,0,0,0,0,0,0,-1,1210,309,0,0
-7,715,0,0,0,0,0,0,0,0,0,-1,1217,309,0,0
0,715,0,0,0,0,0,0,0,0,0,-1,1224,309,0,0
7,715,0,0,0,0,0,0,0,0,0,-1,1231,309,0,0
14,715,0,0,0,0,0,0,0,0,0,-1,1238,309,0,0
21,715,0,0,0,0,0,0,0,0,0,-1,1245,309,0,0
28,715,0,0,0,0,0,0,0,0,0,-1,1252,309,0,0
35,715,0,0,0,0,0,0,0,0,0,-1,1259,309,0,0
42,715,0,0,0,0,0,0,0,0,0,-1,1266,309,0,0
49,715,0,0,0,0,0,0,0,0,0,-1,1273,309,0,0
56,715,0,0,0,0,0,0,0,0,0,-1,1280,309,0,0
63,715,1.53394,-5.77536,0,0,0,0,0,0,0,-1,1287,309,1.53393,5.77537
70,715,1.38806,-5.70868,0,0,0,0,0,0,0,-1,1294,309,1.388,5.70868
77,715,0,0,0,0,0,0,0,0,0,-1,1301,309,0,0
84,715,0,0,0,0,0,0,0,0,0,-1,1308,309,0,0
91,715,0,0,0,0,0,0,0,0,0,-1,1315,309,0,0
98,715,0,0,0,0,0,0,0,0,0,-1,1322,309,0,0
105,715,0,0,0,0,0,0,0,0,0,-1,1329,309,0,0
112,715,0,0,0,0,0,0,0,0,0,-1,1336,309,0,0
119,715,0,0,0,0,0,0,0,0,0,-1,1343,309,0,0
126,715,0,0,0,0,0,0,0,0,0,-1,1350,309,0,0
133,715,0,0,0,0,0,0,0,0,0,-1,1357,309,0,0
140,715,0,0,0,0,0,0,0,0,0,-1,1364,309,0,0
147,715,0,0,0,0,0,0,0,0,0,-1,1371,309,0,0
154,715,0,0,0,0,0,0,0,0,0,-1,1378,309,0,0
161,715,0,0,0,0,0,0,0,0,0,-1,1385,309,0,0
168,715,0,0,0,0,0,0,0,0,0,-1,1392,309,0,0
175,715,0,0,0,0,0,0,0,0,0,-1,1399,309,0,0
182,715,0,0,0,0,0,0,0,0,0,-1,1406,309,0,0
189,715,0,0,0,0,0,0,0,0,0,-1,1413,309,0,0
196,715,0,0,0,0,0,0,0,0,0,-1,1420,309,0,0
203,715,0,0,0,0,0,0,0,0,0,-1,1427,309,0,0
210,715,0,0,0,0,0,0,0,0,0,-1,1434,309,0,0
217,715,0,0,0,0,0,0,0,0,0,-1,1441,309,0,0
224,715,0,0,0,0,0,0,0,0,0,-1,1448,309,0,0
231,715,0,0,0,0,0,0,0,0,0,-1,1455,309,0,0
238,715,0,0,0,0,0,0,0,0,0,-1,1462,309,0,0
245,715,0,0,0,0,0,0,0,0,0,-1,1469,309,0,0
252,715,0,0,0,0,0,0,0,0,0,-1,1476,309,0,0
259,715,0,0,0,0,0,0,0,0,0,-1,1483,309,0,0
266,715,0,0,0,0,0,0,0,0,0,-1,1490,309,0,0
273,715,0,0,0,0,0,0,0,0,0,-1,1497,309,0,0
280,715,0,0,0,0,0,0,0,0,0,-1,1504,309,0,0
287,715,0,0,0,0,0,0,0,0,0,-1,1511,309,0,0
294,715,0,0,0,0,0,0,0,0,0,-1,1518,309,0,0
301,715,0,0,0,0,0,0,0,0,0,-1,1525,309,0,0
308,715,0,0,0,0,0,0,0,0,0,-1,1532,309,0,0
315,715,0,0,0,0,0,0,0,0,0,-1,1539,309,0,0
322,715,0,0,0,0,0,0,0,0,0,-1,1546,309,0,0
329,715,0,0,0,0,0,0,0,0,0,-1,1553,309,0,0
336,715,0,0,0,0,0,0,0,0,0,-1,1560,309,0,0
343,715,0,0,0,0,0,0,0,0,0,-1,1567,309,0,0
350,715,0,0,0,0,0,0,0,0,0,-1,1574,309,0,0
357,715,0,0,0,0,0,0,0,0,0,-1,1581,309,0,0
364,715,0,0,0,0,0,0,0,0,0,-1,1588,309,0,0
371,715,0,0,0,0,0,0,0,0,0,-1,1595,309,0,0
378,715,0,0,0,0,0,0,0,0,0,-1,1602,309,0,0
385,715,0,0,0,0,0,0,0,0,0,-1,1609,309,0,0
392,715,0,0,0,0,0,0,0,0,0,-1,1616,309,0,0
399,715,0,0,0,0,0,0,0,0,0,-1,1623,309,0,0
406,715,0,0,0,0,0,0,0,0,0,-1,1630,309,0,0
413,715,0,0,0,0,0,0,0,0,0,-1,1637,309,0,0
420,715,0,0,0,0,0,0,0,0,0,-1,1644,309,0,0
427,715,0,0,0,0,0,0,0,0,0,-1,1651,309,0,0
434,715,0,0,0,0,0,0,0,0,0,-1,1658,309,0,0
441,715,0,0,0,0,0,0,0,0,0,-1,1665,309,0,0
448,715,0,0,0,0,0,0,0,0,0,-1,1672,309,0,0
455,715,0,0,0,0,0,0,0,0,0,-1,1679,309,0,0
462,715,0,0,0,0,0,0,0,0,0,-1,1686,309,0,0
469,715,0,0,0,0,0,0,0,0,0,-1,1693,309,0,0
476,715,0,0,0,0,0,0,0,0,0,-1,1700,309,0,0
483,715,0,0,0,0,0,0,0,0,0,-1,1707,309,0,0
490,715,0,0,0,0,0,0,0,0,0,-1,1714,309,0,0
497,715,0,0,0,0,0,0,0,0,0,-1,1721,309,0,0
504,715,0,0,0,0,0,0,0,0,0,-1,1728,309,0,0
511,715,0,0,0,0,0,0,0,0,0,-1,1735,309,0,0
518,715,0,0,0,0,0,0,0,0,0,-1,1742,309,0,0
525,715,0,0,0,0,0,0,0,0,0,-1,1749,309,0,0
532,715,0,0,0,0,0,0,0,0,0,-1,1756,309,0,0
539,715,0,0,0,0,0,0,0,0,0,-1,1763,309,0,0
546,715,0,0,0,0,0,0,0,0,0,-1,1770,309,0,0
553,715,0,0,0,0,0,0,0,0,0,-1,1777,309,0,0
560,715,0,0,0,0,0,0,0,0,0,-1,1784,309,0,0
567,715,0,0,0,0,0,0,0,0,0,-1,1791,309,0,0
574,715,0,0,0,0,0,0,0,0,0,-1,1798,309,0,0
581,715,0,0,0,0,0,0,0,0,0,-1,1805,309,0,0
588,715,0,0,0,0,0,0,0,0,0,-1,1812,309,0,0
595,715,0,0,0,0,0,0,0,0,0,-1,1819,309,0,0
602,715,0,0,0,0,0,0,0,0,0,-1,1826,309,0,0
609,715,0,0,0,0,0,0,0,0,0,-1,1833,309,0,0
616,715,0,0,0,0,0,0,0,0,0,-1,1840,309,0,0
623,715,0,0,0,0,0,0,0,0,0,-1,1847,309,0,0
630,715,0,0,0,0,0,0,0,0,0,-1,1854,309,0,0
637,715,0,0,0,0,0,0,0,0,0,-1,1861,309,0,0
644,715,0,0,0,0,0,0,0,0,0,-1,1868,309,0,0
651,715,0,0,0,0,0,0,0,0,0,-1,1875,309,0,0
658,715,0,0,0,0,0,0,0,0,0,-1,1882,309,0,0
665,715,0,0,0,0,0,0,0,0,0,-1,1889,309,0,0
672,715,0,0,0,0,0,0,0,0,0,-1,1896,309,0,0
679,715,0,0,0,0,0,0,0,0,0,-1,1903,309,0,0
686,715,0,0,0,0,0,0,0,0,0,-1,1910,309,0,0
693,715,0,0,0,0,0,0,0,0,0,-1,1917,309,0,0
700,715,0,0,0,0,0,0,0,0,0,-1,1924,309,0,0
707,715,0,0,0,0,0,0,0,0,0,-1,1931,309,0,0
714,715,0,0,0,0,0,0,0,0,0,-1,1938,309,0,0
721,715,0,0,0,0,0,0,0,0,0,-1,1945,309,0,0
728,715,0,0,0,0,0,0,0,0,0,-1,1952,309,0,0
735,715,0,0,0,0,0,0,0,0,0,-1,1959,309,0,0
742,715,0,0,0,0,0,0,0,0,0,-1,1966,309,0,0
749,715,0,0,0,0,0,0,0,0,0,-1,1973,309,0,0
756,715,0,0,0,0,0,0,0,0,0,-1,1980,309,0,0
763,715,0,0,0,0,0,0,0,0,0,-1,1987,309,0,0
770,715,0,0,0,0,0,0,0,0,0,-1,1994,309,0,0
777,715,0,0,0,0,0,0,0,0,0,-1,2001,309,0,0
784,715,0,0,0,0,0,0,0,0,0,-1,2008,309,0,0
791,715,0,0,0,0,0,0,0,0,0,-1,2015,309,0,0
798,715,0,0,0,0,0,0,0,0,0,-1,2022,309,0,0
805,715,0,0,0,0,0,0,0,0,0,-1,2029,309,0,0
812,715,0,0,0,0,0,0,0,0,0,-1,2036,309,0,0
-700,708,0,0,0,0,0,0,0,0,0,-1,524,316,0,0
-693,708,0,0,0,0,0,0,0,0,0,-1,531,316,0,0
-686,708,0,0,0,0,0,0,0,0,0,-1,538,316,0,0
-679,708,0,0,0,0,0,0,0,0,0,-1,545,316,0,0
-672,708,0,0,0,0,0,0,0,0,0,-1,552,316,0,0
-665,708,0,0,0,0,0,0,0,0,0,-1,559,316,0,0
-658,708,0,0,0,0,0,0,0,0,0,-1,566,316,0,0
-651,708,0,0,0,0,0,0,0,0,0,-1,573,316,0,0
-644,708,0,0,0,0,0,0,0,0,0,-1,580,316,0,0
-637,708,0,0,0,0,0,0,0,0,0,-1,587,316,0,0
-630,708,0,0,0,0,0,0,0,0,0,-1,594,316,0,0
-623,708,0,0,0,0,0,0,0,0,0,-1,601,316,0,0
-616,708,0,0,0,0,0,0,0,0,0,-1,608,316,0,0
-609,708,0,0,0,0,0,0,0,0,0,-1,615,316,0,0
-602,708,0,0,0,0,0,0,0,0,0,-1,622,316,0,0
-595,708,0,0,0,0,0,0,0,0,0,-1,629,316,0,0
-588,708,0,0,0,0,0,0,0,0,0,-1,636,316,0,0
-581,708,0,0,0,0,0,0,0,0,0,-1,643,316,0,0
-574,708,0,0,0,0,0,0,0,0,0,-1,650,316,0,0
-567,708,0,0,0,0,0,0,0,0,0,-1,657,316,0,0
-560,708,0,0,0,0,0,0,0,0,0,-1,664,316,0,0
-553,708,0,0,0,0,0,0,0,0,0,-1,671,316,0,0
-546,708,0,0,0,0,0,0,0,0,0,-1,678,316,0,0
-539,708,0,0,0,0,0,0,0,0,0,-1,685,316,0,0
-532,708,0,0,0,0,0,0,0,0,0,-1,692,316,0,0
-525,708,0,0,0,0,0,0,0,0,0,-1,699,316,0,0
-518,708,0,0,0,0,0,0,0,0,0,-1,706,316,0,0
-511,708,0,0,0,0,0,0,0,0,0,-1,713,316,0,0
-504,708,0,0,0,0,0,0,0,0,0,-1,720,316,0,0
-497,708,0,0,0,0,0,0,0,0,0,-1,727,316,0,0
-490,708,0,0,0,0,0,0,0,0,0,-1,734,316,0,0
-483,708,0,0,0,0,0,0,0,0,0,-1,741,316,0,0
-476,708,0,0,0,0,0,0,0,0,0,-1,748,316,0,0
-469,708,0,0,0,0,0,0,0,0,0,-1,755,316,0,0
-462,708,0,0,0,0,0,0,0,0,0,-1,762,316,0,0
-455,708,0,0,0,0,0,0,0,0,0,-1,769,316,0,0
-448,708,0,0,0,0,0,0,0,0,0,-1,776,316,0,0
-441,708,0,0,0,0,0,0,0,0,0,-1,783,316,0,0
-434,708,0,0,0,0,0,0,0,0,0,-1,790,316,0,0
-427,708,0,0,0,0,0,0,0,0,0,-1,797,316,0,0
-420,708,0,0,0,0,0,0,0,0,0,-1,804,316,0,0
-413,708,0,0,0,0,0,0,0,0,0,-1,811,316,0,0
-406,708,0,0,0,0,0,0,0,0,0,-1,818,316,0,0
-399,708,0,0,0,0,0,0,0,0,0,-1,825,316,0,0
-392,708,0,0,0,0,0,0,0,0,0,-1,832,316,0,0
-385,708,0,0,0,0,0,0,0,0,0,-1,839,316,0,0
-378,708,0,0,0,0,0,0,0,0,0,-1,846,316,0,0
-371,708,0,0,0,0,0,0,0,0,0,-1,853,316,0,0
-364,708,0,0,0,0,0,0,0,0,0,-1,860,316,0,0
-357,708,0,0,0,0,0,0,0,0,0,-1,867,316,0,0
-350,708,0,0,0,0,0,0,0,0,0,-1,874,316,0,0
-343,708,0,0,0,0,0,0,0,0,0,-1,881,316,0,0
-336,708,0,0,0,0,0,0,0,0,0,-1,888,316,0,0
-329,708,0,0,0,0,0,0,0,0,0,-1,895,316,0,0
-322,708,0,0,0,0,0,0,0,0,0,-1,902,316,0,0
-315,708,0,0,0,0,0,0,0,0,0,-1,909,316,0,0
-308,708,0,0,0,0,0,0,0,0,0,-1,916,316,0,0
-301,708,0,0,0,0,0,0,0,0,0,-1,923,316,0,0
-294,708,0,0,0,0,0,0,0,0,0,-1,930,316,0,0
-287,708,0,0,0,0,0,0,0,0,0,-1,937,316,0,0
-280,708,0,0,0,0,0,0,0,0,0,-1,944,316,0,0
-273,708,0,0,0,0,0,0,0,0,0,-1,951,316,0,0
-266,708,0,0,0,0,0,0,0,0,0,-1,958,316,0,0
-259,708,0,0,0,0,0,0,0,0,0,-1,965,316,0,0
-252,708,0,0,0,0,0,0,0,0,0,-1,972,316,0,0
-245,708,0,0,0,0,0,0,0,0,0,-1,979,316,0,0
-238,708,0,0,0,0,0,0,0,0,0,-1,986,316,0,0
-231,708,0,0,0,0,0,0,0,0,0,-1,993,316,0,0
-224,708,0,0,0,0,0,0,0,0,0,-1,1000,316,0,0
-217,708,0,0,0,0,0,0,0,0,0,-1,1007,316,0,0
-210,708,0,0,0,0,0,0,0,0,0,-1,1014,316,0,0
-203,708,0,0,0,0,0,0,0,0,0,-1,1021,316,0,0
-196,708,0,0,0,0,0,0,0,0,0,-1,1028,316,0,0
-189,708,0,0,0,0,0,0,0,0,0,-1,1035,316,0,0
-182,708,0,0,0,0,0,0,0,0,0,-1,1042,316,0,0
-175,708,0,0,0,0,0,0,0,0,0,-1,1049,316,0,0
-168,708,0,0,0,0,0,0,0,0,0,-1,1056,316,0,0
-161,708,0,0,0,0,0,0,0,0,0,-1,1063,316,0,0
-154,708,0,0,0,0,0,0,0,0,0,-1,1070,316,0,0
-147,708,0,0,0,0,0,0,0,0,0,-1,1077,316,0,0
-140,708,0,0,0,0,0,0,0,0,0,-1,1084,316,0,0
-133,708,0,0,0,0,0,0,0,0,0,-1,1091,316,0,0
-126,708,0,0,0,0,0,0,0,0,0,-1,1098,316,0,0
-119,708,0,0,0,0,0,0,0,0,0,-1,1105,316,0,0
-112,708,0,0,0,0,0,0,0,0,0,-1,1112,316,0,0
-105,708,0,0,0,0,0,0,0,0,0,-1,1119,316,0,0
-98,708,0,0,0,0,0,0,0,0,0,-1,1126,316,0,0
-91,708,0,0,0,0,0,0,0,0,0,-1,1133,316,0,0
-84,708,0,0,0,0,0,0,0,0,0,-1,1140,316,0,0
-77,708,0,0,0,0,0,0,0,0,0,-1,1147,316,0,0
-70,708,0,0,0,0,0,0,0,0,0,-1,1154,316,0,0
-63,708,0,0,0,0,0,0,0,0,0,-1,1161,316,0,0
-56,708,0,0,0,0,0,0,0,0,0,-1,1168,316,0,0
-49,708,0,0,0,0,0,0,0,0,0,-1,1175,316,0,0
-42,708,0,0,0,0,0,0,0,0,0,-1,1182,316,0,0
-35,708,-2.71204,-6.31558,0,0,0,0,0,0,0,-1,1189,316,-2.712,6.3156
-28,708,-2.92371,-5.53253,0,0,0,0,0,0,0,-1,1196,316,-2.92375,5.53254
-21,708,-0.64563,-2.92654,0,0,0,0,0,0,0,-1,1203,316,-0.645672,2.92656
-14,708,0.621826,-3.30359,0,0,0,0,0,0,0,-1,1210,316,0.621875,3.30358
-7,708,-0.109985,-1.73834,0,0,0,0,0,0,0,-1,1217,316,-0.109982,1.73834
0,708,2.86365,-4.74854,0,0,0,0,0,0,0,-1,1224,316,2.86362,4.74853
7,708,2.94629,-3.51907,0,0,0,0,0,0,0,-1,1231,316,2.9463,3.51909
14,708,2.22986,-4.23581,0,0,0,0,0,0,0,-1,1238,316,2.22983,4.2358
21,708,1.71008,-5.73691,0,0,0,0,0,0,0,-1,1245,316,1.71006,5.7369
28,708,2.22827,-3.02426,0,0,0,0,0,0,0,-1,1252,316,2.2283,3.02425
35,708,2.25134,-3.49902,-0.000226501,0.0302956,-0.050351,0.0676475,-0.0375784,-0.932544,0.0615734,0.0464456,1259,316,2.25134,3.49903
42,708,2.54187,-4.25586,0.00405973,0.0199699,-0.0376865,0.0505317,-0.0265021,-0.889414,0.045191,0.0409538,1266,316,2.54189,4.25585
49,708,2.54968,-4.629,0.018599,0.00594125,-0.0297048,0.0426417,-0.0181014,-0.680438,0.0360114,0.0434064,1273,316,2.54967,4.629
56,708,2.57556,-5.05426,0.0402057,-0.00562732,-0.0117869,0.0430593,-0.00848092,-0.237528,0.0319111,0.0433998,1280,316,2.5755,5.05425
63,708,2.1145,-5.30078,0.0615691,-0.0161163,-0.00446657,0.061825,-0.0163723,-0.0572442,0.0476217,0.0423244,1287,316,2.1145,5.30077
70,708,4.37256,-7.28958,0,0,0,0,0,0,0,-1,1294,316,4.37259,7.28959
77,708,4.95508,-6.62946,0.0976692,-0.0372087,0.00178479,0.0976928,-0.0372323,0.0132295,0.0804638,0.0450412,1301,316,4.95513,6.62946
84,708,4.44714,-5.91711,0.109419,-0.0444573,0.003205,0.109486,-0.044524,0.0208163,0.0915165,0.0479354,1308,316,4.44714,5.91711
91,708,3.69446,-5.04874,0.120312,-0.0522366,0.00180613,0.120331,-0.0522555,0.0104658,0.102194,0.0458713,1315,316,3.69452,5.04874
98,708,2.99207,-3.98846,0.135447,-0.0547397,-0.00359997,0.135515,-0.0548078,-0.0189196,0.113128,0.0416018,1322,316,2.99207,3.98848
105,708,8.9585,0.760498,0.14377,-0.0557224,-0.0118372,0.14447,-0.0564223,-0.0590606,0.119641,0.0468197,1329,316,8.95853,-0.760499
112,708,10.5569,3.28674,0.146976,-0.0544673,-0.0209533,0.149132,-0.0566237,-0.102553,0.12273,0.0457256,1336,316,10.5569,-3.28673
119,708,1.34583,-6.30923,0.144746,-0.0514748,-0.0290605,0.14896,-0.0556882,-0.143984,0.122176,0.0420421,1343,316,1.34586,6.30923
126,708,0.503784,-6.55777,0.137336,-0.047778,-0.0369497,0.144439,-0.0548808,-0.189912,0.118887,0.0444136,1350,316,0.503822,6.55778
133,708,-0.391602,-6.12082,0.129805,-0.0445184,-0.0406996,0.138839,-0.0535525,-0.218427,0.114658,0.0471064,1357,316,-0.391609,6.12082
140,708,-0.630493,-6.07462,0.120962,-0.0411884,-0.0362098,0.12868,-0.048907,-0.21002,0.105922,0.048532,1364,316,-0.63046,6.07461
147,708,-0.73291,-6.24179,0,0,0,0,0,0,0,-1,1371,316,-0.732927,6.2418
154,708,0,0,0,0,0,0,0,0,0,-1,1378,316,0,0
161,708,0,0,0,0,0,0,0,0,0,-1,1385,316,0,0
168,708,0,0,0,0,0,0,0,0,0,-1,1392,316,0,0
175,708,0,0,0,0,0,0,0,0,0,-1,1399,316,0,0
182,708,0,0,0,0,0,0,0,0,0,-1,1406,316,0,0
189,708,0,0,0,0,0,0,0,0,0,-1,1413,316,0,0
196,708,0,0,0,0,0,0,0,0,0,-1,1420,316,0,0
203,708,0,0,0,0,0,0,0,0,0,-1,1427,316,0,0
210,708,0,0,0,0,0,0,0,0,0,-1,1434,316,0,0
217,708,0,0,0,0,0,0,0,0,0,-1,1441,316,0,0
224,708,0,0,0,0,0,0,0,0,0,-1,1448,316,0,0
231,708,0,0,0,0,0,0,0,0,0,-1,1455,316,0,0
238,708,0,0,0,0,0,0,0,0,0,-1,1462,316,0,0
245,708,0,0,0,0,0,0,0,0,0,-1,1469,316,0,0
252,708,0,0,0,0,0,0,0,0,0,-1,1476,316,0,0
259,708,0,0,0,0,0,0,0,0,0,-1,1483,316,0,0
266,708,0,0,0,0,0,0,0,0,0,-1,1490,316,0,0
273,708,0,0,0,0,0,0,0,0,0,-1,1497,316,0,0
280,708,0,0,0,0,0,0,0,0,0,-1,1504,316,0,0
287,708,0,0,0,0,0,0,0,0,0,-1,1511,316,0,0
294,708,0,0,0,0,0,0,0,0,0,-1,1518,316,0,0
301,708,0,0,0,0,0,0,0,0,0,-1,1525,316,0,0
308,708,0,0,0,0,0,0,0,0,0,-1,1532,316,0,0
315,708,0,0,0,0,0,0,0,0,0,-1,1539,316,0,0
322,708,0,0,0,0,0,0,0,0,0,-1,1546,316,0,0
329,708,0,0,0,0,0,0,0,0,0,-1,1553,316,0,0
336,708,0,0,0,0,0,0,0,0,0,-1,1560,316,0,0
343,708,0,0,0,0,0,0,0,0,0,-1,1567,316,0,0
350,708,0,0,0,0,0,0,0,0,0,-1,1574,316,0,0
357,708,0,0,0,0,0,0,0,0,0,-1,1581,316,0,0
364,708,0,0,0,0,0,0,0,0,0,-1,1588,316,0,0
371,708,0,0,0,0,0,0,0,0,0,-1,1595,316,0,0
378,708,0,0,0,0,0,0,0,0,0,-1,1602,316,0,0
385,708,0,0,0,0,0,0,0,0,0,-1,1609,316,0,0
392,708,0,0,0,0,0,0,0,0,0,-1,1616,316,0,0
399,708,0,0,0,0,0,0,0,0,0,-1,1623,316,0,0
406,708,0,0,0,0,0,0,0,0,0,-1,1630,316,0,0
413,708,0,0,0,0,0,0,0,0,0,-1,1637,316,0,0
420,708,0,0,0,0,0,0,0,0,0,-1,1644,316,0,0
427,708,0,0,0,0,0,0,0,0,0,-1,1651,316,0,0
434,708,0,0,0,0,0,0,0,0,0,-1,1658,316,0,0
441,708,0,0,0,0,0,0,0,0,0,-1,1665,316,0,0
448,708,0,0,0,0,0,0,0,0,0,-1,1672,316,0,0
455,708,0,0,0,0,0,0,0,0,0,-1,1679,316,0,0
462,708,0,0,0,0,0,0,0,0,0,-1,1686,316,0,0
469,708,0,0,0,0,0,0,0,0,0,-1,1693,316,0,0
476,708,0,0,0,0,0,0,0,0,0,-1,1700,316,0,0
483,708,0,0,0,0,0,0,0,0,0,-1,1707,316,0,0
490,708,0,0,0,0,0,0,0,0,0,-1,1714,316,0,0
497,708,0,0,0,0,0,0,0,0,0,-1,1721,316,0,0
504,708,0,0,0,0,0,0,0,0,0,-1,1728,316,0,0
511,708,0,0,0,0,0,0,0,0,0,-1,1735,316,0,0
518,708,0,0,0,0,0,0,0,0,0,-1,1742,316,0,0
525,708,0,0,0,0,0,0,0,0,0,-1,1749,316,0,0
532,708,0,0,0,0,0,0,0,0,0,-1,1756,316,0,0
539,708,0,0,0,0,0,0,0,0,0,-1,1763,316,0,0
546,708,0,0,0,0,0,0,0,0,0,-1,1770,316,0,0
553,708,0,0,0,0,0,0,0,0,0,-1,1777,316,0,0
560,708,0,0,0,0,0,0,0,0,0,-1,1784,316,0,0
567,708,0,0,0,0,0,0,0,0,0,-1,1791,316,0,0
574,708,0,0,0,0,0,0,0,0,0,-1,1798,316,0,0
581,708,0,0,0,0,0,0,0,0,0,-1,1805,316,0,0
588,708,0,0,0,0,0,0,0,0,0,-1,1812,316,0,0
595,708,0,0,0,0,0,0,0,0,0,-1,1819,316,0,0
602,708,0,0,0,0,0,0,0,0,0,-1,1826,316,0,0
609,708,0,0,0,0,0,0,0,0,0,-1,1833,316,0,0
616,708,0,0,0,0,0,0,0,0,0,-1,1840,316,0,0
623,708,0,0,0,0,0,0,0,0,0,-1,1847,316,0,0
630,708,0,0,0,0,0,0,0,0,0,-1,1854,316,0,0
637,708,0,0,0,0,0,0,0,0,0,-1,1861,316,0,0
644,708,0,0,0,0,0,0,0,0,0,-1,1868,316,0,0
651,708,0,0,0,0,0,0,0,0,0,-1,1875,316,0,0
658,708,0,0,0,0,0,0,0,0,0,-1,1882,316,0,0
665,708,0,0,0,0,0,0,0,0,0,-1,1889,316,0,0
672,708,0,0,0,0,0,0,0,0,0,-1,1896,316,0,0
679,708,0,0,0,0,0,0,0,0,0,-1,1903,316,0,0
686,708,0,0,0,0,0,0,0,0,0,-1,1910,316,0,0
693,708,0,0,0,0,0,0,0,0,0,-1,1917,316,0,0
700,708,0,0,0,0,0,0,0,0,0,-1,1924,316,0,0
707,708,0,0,0,0,0,0,0,0,0,-1,1931,316,0,0
714,708,0,0,0,0,0,0,0,0,0,-1,1938,316,0,0
721,708,0,0,0,0,0,0,0,0,0,-1,1945,316,0,0
728,708,0,0,0,0,0,0,0,0,0,-1,1952,316,0,0
735,708,0,0,0,0,0,0,0,0,0,-1,1959,316,0,0
742,708,0,0,0,0,0,0,0,0,0,-1,1966,316,0,0
749,708,0,0,0,0,0,0,0,0,0,-1,1973,316,0,0
756,708,0,0,0,0,0,0,0,0,0,-1,1980,316,0,0
763,708,0,0,0,0,0,0,0,0,0,-1,1987,316,0,0
770,708,0,0,0,0,0,0,0,0,0,-1,1994,316,0,0
777,708,0,0,0,0,0,0,0,0,0,-1,2001,316,0,0
784,708,0,0,0,0,0,0,0,0,0,-1,2008,316,0,0
791,708,0,0,0,0,0,0,0,0,0,-1,2015,316,0,0
798,708,0,0,0,0,0,0,0,0,0,-1,2022,316,0,0
805,708,0,0,0,0,0,0,0,0,0,-1,2029,316,0,0
812,708,0,0,0,0,0,0,0,0,0,-1,2036,316,0,0
-700,701,0,0,0,0,0,0,0,0,0,-1,524,323,0,0
-693,701,0,0,0,0,0,0,0,0,0,-1,531,323,0,0
-686,701,0,0,0,0,0,0,0,0,0,-1,538,323,0,0
-679,701,0,0,0,0,0,0,0,0,0,-1,545,323,0,0
-672,701,0,0,0,0,0,0,0,0,0,-1,552,323,0,0
-665,701,0,0,0,0,0,0,0,0,0,-1,559,323,0,0
-658,701,0,0,0,0,0,0,0,0,0,-1,566,323,0,0
-651,701,0,0,0,0,0,0,0,0,0,-1,573,323,0,0
-644,701,0,0,0,0,0,0,0,0,0,-1,580,323,0,0
-637,701,0,0,0,0,0,0,0,0,0,-1,587,323,0,0
-630,701,0,0,0,0,0,0,0,0,0,-1,594,323,0,0
-623,701,0,0,0,0,0,0,0,0,0,-1,601,323,0,0
-616,701,0,0,0,0,0,0,0,0,0,-1,608,323,0,0
-609,701,0,0,0,0,0,0,0,0,0,-1,615,323,0,0
-602,701,0,0,0,0,0,0,0,0,0,-1,622,323,0,0
-595,701,0,0,0,0,0,0,0,0,0,-1,629,323,0,0
-588,701,0,0,0,0,0,0,0,0,0,-1,636,323,0,0
-581,701,0,0,0,0,0,0,0,0,0,-1,643,323,0,0
-574,701,0,0,0,0,0,0,0,0,0,-1,650,323,0,0
-567,701,0,0,0,0,0,0,0,0,0,-1,657,323,0,0
-560,701,0,0,0,0,0,0,0,0,0,-1,664,323,0,0
-553,701,0,0,0,0,0,0,0,0,0,-1,671,323,0,0
-546,701,0,0,0,0,0,0,0,0,0,-1,678,323,0,0
-539,701,0,0,0,0,0,0,0,0,0,-1,685,323,0,0
-532,701,0,0,0,0,0,0,0,0,0,-1,692,323,0,0
-525,701,0,0,0,0,0,0,0,0,0,-1,699,323,0,0
-518,701,0,0,0,0,0,0,0,0,0,-1,706,323,0,0
-511,701,0,0,0,0,0,0,0,0,0,-1,713,323,0,0
-504,701,0,0,0,0,0,0,0,0,0,-1,720,323,0,0
-497,701,0,0,0,0,0,0,0,0,0,-1,727,323,0,0
-490,701,0,0,0,0,0,0,0,0,0,-1,734,323,0,0
-483,701,0,0,0,0,0,0,0,0,0,-1,741,323,0,0
-476,701,0,0,0,0,0,0,0,0,0,-1,748,323,0,0
-469,701,0,0,0,0,0,0,0,0,0,-1,755,323,0,0
-462,701,0,0,0,0,0,0,0,0,0,-1,762,323,0,0
-455,701,0,0,0,0,0,0,0,0,0,-1,769,323,0,0
-448,701,0,0,0,0,0,0,0,0,0,-1,776,323,0,0
-441,701,0,0,0,0,0,0,0,0,0,-1,783,323,0,0
-434,701,0,0,0,0,0,0,0,0,0,-1,790,323,0,0
-427,701,0,0,0,0,0,0,0,0,0,-1,797,323,0,0
-420,701,0,0,0,0,0,0,0,0,0,-1,804,323,0,0
-413,701,0,0,0,0,0,0,0,0,0,-1,811,323,0,0
-406,701,0,0,0,0,0,0,0,0,0,-1,818,323,0,0
-399,701,0,0,0,0,0,0,0,0,0,-1,825,323,0,0
-392,701,0,0,0,0,0,0,0,0,0,-1,832,323,0,0
-385,701,0,0,0,0,0,0,0,0,0,-1,839,323,0,0
-378,701,0,0,0,0,0,0,0,0,0,-1,846,323,0,0
-371,701,0,0,0,0,0,0,0,0,0,-1,853,323,0,0
-364,701,0,0,0,0,0,0,0,0,0,-1,860,323,0,0
-357,701,0,0,0,0,0,0,0,0,0,-1,867,323,0,0
-350,701,0,0,0,0,0,0,0,0,0,-1,874,323,0,0
-343,701,0,0,0,0,0,0,0,0,0,-1,881,323,0,0
-336,701,0,0,0,0,0,0,0,0,0,-1,888,323,0,0
-329,701,0,0,0,0,0,0,0,0,0,-1,895,323,0,0
-322,701,0,0,0,0,0,0,0,0,0,-1,902,323,0,0
-315,701,0,0,0,0,0,0,0,0,0,-1,909,323,0,0
-308,701,0,0,0,0,0,0,0,0,0,-1,916,323,0,0
-301,701,0,0,0,0,0,0,0,0,0,-1,923,323,0,0
-294,701,0,0,0,0,0,0,0,0,0,-1,930,323,0,0
-287,701,0,0,0,0,0,0,0,0,0,-1,937,323,0,0
-280,701,0,0,0,0,0,0,0,0,0,-1,944,323,0,0
-273,701,0,0,0,0,0,0,0,0,0,-1,951,323,0,0
-266,701,0,0,0,0,0,0,0,0,0,-1,958,323,0,0
-259,701,0,0,0,0,0,0,0,0,0,-1,965,323,0,0
-252,701,0,0,0,0,0,0,0,0,0,-1,972,323,0,0
-245,701,0,0,0,0,0,0,0,0,0,-1,979,323,0,0
-238,701,0,0,0,0,0,0,0,0,0,-1,986,323,0,0
-231,701,0,0,0,0,0,0,0,0,0,-1,993,323,0,0
-224,701,0,0,0,0,0,0,0,0,0,-1,1000,323,0,0
-217,701,0,0,0,0,0,0,0,0,0,-1,1007,323,0,0
-210,701,0,0,0,0,0,0,0,0,0,-1,1014,323,0,0
-203,701,0,0,0,0,0,0,0,0,0,-1,1021,323,0,0
-196,701,0,0,0,0,0,0,0,0,0,-1,1028,323,0,0
-189,701,0,0,0,0,0,0,0,0,0,-1,1035,323,0,0
-182,701,0,0,0,0,0,0,0,0,0,-1,1042,323,0,0
-175,701,0,0,0,0,0,0,0,0,0,-1,1049,323,0,0
-168,701,0,0,0,0,0,0,0,0,0,-1,1056,323,0,0
-161,701,0,0,0,0,0,0,0,0,0,-1,1063,323,0,0
-154,701,0,0,0,0,0,0,0,0,0,-1,1070,323,0,0
-147,701,0,0,0,0,0,0,0,0,0,-1,1077,323,0,0
-140,701,0,0,0,0,0,0,0,0,0,-1,1084,323,0,0
-133,701,0,0,0,0,0,0,0,0,0,-1,1091,323,0,0
-126,701,0,0,0,0,0,0,0,0,0,-1,1098,323,0,0
-119,701,0,0,0,0,0,0,0,0,0,-1,1105,323,0,0
-112,701,0,0,0,0,0,0,0,0,0,-1,1112,323,0,0
-105,701,0,0,0,0,0,0,0,0,0,-1,1119,323,0,0
-98,701,0,0,0,0,0,0,0,0,0,-1,1126,323,0,0
-91,701,0,0,0,0,0,0,0,0,0,-1,1133,323,0,0
-84,701,0,0,0,0,0,0,0,0,0,-1,1140,323,0,0
-77,701,0,0,0,0,0,0,0,0,0,-1,1147,323,0,0
-70,701,1.85474,3.32529,0,0,0,0,0,0,0,-1,1154,323,1.85476,-3.32529
-63,701,0.876099,3.67996,0,0,0,0,0,0,0,-1,1161,323,0.876153,-3.67996
-56,701,-0.420166,-0.101776,0,0,0,0,0,0,0,-1,1168,323,-0.420119,0.101777
-49,701,-1.09021,-0.155762,0,0,0,0,0,0,0,-1,1175,323,-1.09024,0.155768
-42,701,-0.210327,-0.299133,0,0,0,0,0,0,0,-1,1182,323,-0.210379,0.29914
-35,701,-2.9635,-7.98676,0,0,0,0,0,0,0,-1,1189,323,-2.9635,7.98676
-28,701,-2.70447,-6.22244,0,0,0,0,0,0,0,-1,1196,323,-2.70451,6.22244
-21,701,1.32251,-5.37302,0,0,0,0,0,0,0,-1,1203,323,1.32254,5.37302
-14,701,0.867798,-3.84164,0,0,0,0,0,0,0,-1,1210,323,0.867779,3.84164
-7,701,0.253052,-2.44046,0,0,0,0,0,0,0,-1,1217,323,0.253065,2.44046
0,701,3.78223,-3.07712,0,0,0,0,0,0,0,-1,1224,323,3.78217,3.07711
7,701,3.09949,-3.77563,0,0,0,0,0,0,0,-1,1231,323,3.09955,3.77563
14,701,2.37842,-4.55435,-0.0218339,0.033673,-0.0508522,0.0638523,-0.0520132,-1.03519,0.0670113,0.0451484,1238,323,2.37843,4.55434
21,701,1.56372,-5.5939,-0.0127376,0.0324242,-0.0498244,0.0645458,-0.0448592,-0.998158,0.0635049,0.0456799,1245,323,1.5637,5.5939
28,701,0.596069,-5.90662,0,0,0,0,0,0,0,-1,1252,323,0.596022,5.9066
35,701,2.77771,-3.88266,0.00053554,0.0219655,-0.0354358,0.0482709,-0.0257699,-0.932216,0.0434005,0.0461045,1259,323,2.77767,3.88267
42,701,2.77734,-4.40393,0.00346278,0.0153817,-0.0254346,0.0355457,-0.0167012,-0.900475,0.0308119,0.0454584,1266,323,2.77735,4.40394
49,701,2.77856,-4.99442,0.0142765,0.00558282,-0.0192708,0.0296846,-0.00982529,-0.674472,0.0237522,0.0459636,1273,323,2.7786,4.99442
56,701,2.91003,-5.18723,0.029954,-0.0026037,-0.00517116,0.0307556,-0.00340531,-0.15379,0.021728,0.0443127,1280,323,2.90998,5.18723
63,701,2.79626,-5.09891,0.0453441,-0.00972008,0.000429504,0.0453475,-0.00972343,0.00779942,0.0339403,0.0439603,1287,323,2.79632,5.0989
70,701,3.75696,-7.03506,0.0601279,-0.0182087,0.00184196,0.0601712,-0.018252,0.0234961,0.0473847,0.0434049,1294,323,3.75697,7.03506
77,701,3.88391,-6.01968,0.0705785,-0.0246662,0.00502922,0.0708433,-0.024931,0.0526082,0.0573741,0.0450011,1301,323,3.88386,6.01969
84,701,4.50635,-4.75925,0.0784345,-0.0296565,0.00561226,0.0787251,-0.0299471,0.0517362,0.0648145,0.043879,1308,323,4.50637,4.75924
91,701,5.33301,-3.11115,0.0863636,-0.0352602,0.00316435,0.0864459,-0.0353425,0.0259941,0.0723485,0.0442611,1315,323,5.33299,3.11113
98,701,6.45483,-1.38989,0.098099,-0.0367407,-0.00226259,0.098137,-0.0367786,-0.0167735,0.080534,0.0471931,1322,323,6.45478,1.38989
105,701,8.02148,0.859161,0.104899,-0.0373572,-0.0101175,0.105615,-0.0380731,-0.0706477,0.085959,0.0454714,1329,323,8.02145,-0.859154
112,701,9.53284,3.18793,0.10858,-0.0365065,-0.0186125,0.11093,-0.0388562,-0.125577,0.089754,0.0435126,1336,323,9.53282,-3.18792
119,701,1.09607,-6.05978,0.108811,-0.0344485,-0.0262851,0.113481,-0.0391191,-0.175851,0.0915242,0.0427908,1343,323,1.09609,6.05977
126,701,0.216553,-6.07758,0.105937,-0.0319863,-0.0336834,0.113723,-0.0397729,-0.227177,0.0919854,0.0485037,1350,323,0.216532,6.07758
133,701,-0.727295,-5.95993,0.103508,-0.0299099,-0.0378202,0.113483,-0.0398851,-0.257879,0.091883,0.0474053,1357,323,-0.727341,5.95993
140,701,-1.19458,-5.87924,0.100865,-0.0280819,-0.0356653,0.110072,-0.0372891,-0.252641,0.0884704,0.0464866,1364,323,-1.19461,5.87924
147,701,1.62598,-4.81799,0,0,0,0,0,0,0,-1,1371,323,1.62601,4.81799
154,701,2.7594,-3.37927,0,0,0,0,0,0,0,-1,1378,323,2.75938,3.37929
161,701,4.19836,-2.57111,0,0,0,0,0,0,0,-1,1385,323,4.19833,2.5711
168,701,6.88513,-0.0237427,0,0,0,0,0,0,0,-1,1392,323,6.88517,0.0237498
175,701,6.94556,0.0693054,0,0,0,0,0,0,0,-1,1399,323,6.94555,-0.0692958
182,701,8.80652,5.42807,0,0,0,0,0,0,0,-1,1406,323,8.8065,-5.42808
189,701,8.58081,4.24493,0,0,0,0,0,0,0,-1,1413,323,8.58082,-4.24494
196,701,0,0,0,0,0,0,0,0,0,-1,1420,323,0,0
203,701,0,0,0,0,0,0,0,0,0,-1,1427,323,0,0
210,701,0,0,0,0,0,0,0,0,0,-1,1434,323,0,0
217,701,0,0,0,0,0,0,0,0,0,-1,1441,323,0,0
224,701,0,0,0,0,0,0,0,0,0,-1,1448,323,0,0
231,701,0,0,0,0,0,0,0,0,0,-1,1455,323,0,0
238,701,0,0,0,0,0,0,0,0,0,-1,1462,323,0,0
245,701,0,0,0,0,0,0,0,0,0,-1,1469,323,0,0
252,701,0,0,0,0,0,0,0,0,0,-1,1476,323,0,0
259,701,0,0,0,0,0,0,0,0,0,-1,1483,323,0,0
266,701,0,0,0,0,0,0,0,0,0,-1,1490,323,0,0
273,701,0,0,0,0,0,0,0,0,0,-1,1497,323,0,0
280,701,0,0,0,0,0,0,0,0,0,-1,1504,323,0,0
287,701,0,0,0,0,0,0,0,0,0,-1,1511,323,0,0
294,701,0,0,0,0,0,0,0,0,0,-1,1518,323,0,0
301,701,0,0,0,0,0,0,0,0,0,-1,1525,323,0,0
308,701,0,0,0,0,0,0,0,0,0,-1,1532,323,0,0
315,701,0,0,0,0,0,0,0,0,0,-1,1539,323,0,0
322,701,0,0,0,0,0,0,0,0,0,-1,1546,323,0,0
329,701,0,0,0,0,0,0,0,0,0,-1,1553,323,0,0
336,701,0,0,0,0,0,0,0,0,0,-1,1560,323,0,0
343,701,0,0,0,0,0,0,0,0,0,-1,1567,323,0,0
350,701,0,0,0,0,0,0,0,0,0,-1,1574,323,0,0
357,701,0,0,0,0,0,0,0,0,0,-1,1581,323,0,0
364,701,0,0,0,0,0,0,0,0,0,-1,1588,323,0,0
371,701,0,0,0,0,0,0,0,0,0,-1,1595,323,0,0
378,701,0,0,0,0,0,0,0,0,0,-1,1602,323,0,0
385,701,0,0,0,0,0,0,0,0,0,-1,1609,323,0,0
392,701,0,0,0,0,0,0,0,0,0,-1,1616,323,0,0
399,701,0,0,0,0,0,0,0,0,0,-1,1623,323,0,0
406,701,0,0,0,0,0,0,0,0,0,-1,1630,323,0,0
413,701,0,0,0,0,0,0,0,0,0,-1,1637,323,0,0
420,701,0,0,0,0,0,0,0,0,0,-1,1644,323,0,0
427,701,0,0,0,0,0,0,0,0,0,-1,1651,323,0,0
434,701,0,0,0,0,0,0,0,0,0,-1,1658,323,0,0
441,701,0,0,0,0,0,0,0,0,0,-1,1665,323,0,0
448,701,0,0,0,0,0,0,0,0,0,-1,1672,323,0,0
455,701,0,0,0,0,0,0,0,0,0,-1,1679,323,0,0
462,701,0,0,0,0,0,0,0,0,0,-1,1686,323,0,0
469,701,0,0,0,0,0,0,0,0,0,-1,1693,323,0,0
476,701,0,0,0,0,0,0,0,0,0,-1,1700,323,0,0
483,701,0,0,0,0,0,0,0,0,0,-1,1707,323,0,0
490,701,0,0,0,0,0,0,0,0,0,-1,1714,323,0,0
497,701,0,0,0,0,0,0,0,0,0,-1,1721,323,0,0
504,701,0,0,0,0,0,0,0,0,0,-1,1728,323,0,0
511,701,0,0,0,0,0,0,0,0,0,-1,1735,323,0,0
518,701,0,0,0,0,0,0,0,0,0,-1,1742,323,0,0
525,701,0,0,0,0,0,0,0,0,0,-1,1749,323,0,0
532,701,0,0,0,0,0,0,0,0,0,-1,1756,323,0,0
539,701,0,0,0,0,0,0,0,0,0,-1,1763,323,0,0
546,701,0,0,0,0,0,0,0,0,0,-1,1770,323,0,0
553,701,0,0,0,0,0,0,0,0,0,-1,1777,323,0,0
560,701,0,0,0,0,0,0,0,0,0,-1,1784,323,0,0
567,701,0,0,0,0,0,0,0,0,0,-1,1791,323,0,0
574,701,0,0,0,0,0,0,0,0,0,-1,1798,323,0,0
581,701,0,0,0,0,0,0,0,0,0,-1,1805,323,0,0
588,701,0,0,0,0,0,0,0,0,0,-1,1812,323,0,0
595,701,0,0,0,0,0,0,0,0,0,-1,1819,323,0,0
602,701,0,0,0,0,0,0,0,0,0,-1,1826,323,0,0
609,701,0,0,0,0,0,0,0,0,0,-1,1833,323,0,0
616,701,0,0,0,0,0,0,0,0,0,-1,1840,323,0,0
623,701,0,0,0,0,0,0,0,0,0,-1,1847,323,0,0
630,701,0,0,0,0,0,0,0,0,0,-1,1854,323,0,0
637,701,0,0,0,0,0,0,0,0,0,-1,1861,323,0,0
644,701,0,0,0,0,0,0,0,0,0,-1,1868,323,0,0
651,701,0,0,0,0,0,0,0,0,0,-1,1875,323,0,0
658,701,0,0,0,0,0,0,0,0,0,-1,1882,323,0,0
665,701,0,0,0,0,0,0,0,0,0,-1,1889,323,0,0
672,701,0,0,0,0,0,0,0,0,0,-1,1896,323,0,0
679,701,0,0,0,0,0,0,0,0,0,-1,1903,323,0,0
686,701,0,0,0,0,0,0,0,0,0,-1,1910,323,0,0
693,701,0,0,0,0,0,0,0,0,0,-1,1917,323,0,0
700,701,0,0,0,0,0,0,0,0,0,-1,1924,323,0,0
707,701,0,0,0,0,0,0,0,0,0,-1,1931,323,0,0
714,701,0,0,0,0,0,0,0,0,0,-1,1938,323,0,0
721,701,0,0,0,0,0,0,0,0,0,-1,1945,323,0,0
728,701,0,0,0,0,0,0,0,0,0,-1,1952,323,0,0
735,701,0,0,0,0,0,0,0,0,0,-1,1959,323,0,0
742,701,0,0,0,0,0,0,0,0,0,-1,1966,323,0,0
749,701,0,0,0,0,0,0,0,0,0,-1,1973,323,0,0
756,701,0,0,0,0,0,0,0,0,0,-1,1980,323,0,0
763,701,0,0,0,0,0,0,0,0,0,-1,1987,323,0,0
770,701,0,0,0,0,0,0,0,0,0,-1,1994,323,0,0
777,701,0,0,0,0,0,0,0,0,0,-1,2001,323,0,0
784,701,0,0,0,0,0,0,0,0,0,-1,2008,323,0,0
791,701,0,0,0,0,0,0,0,0,0,-1,2015,323,0,0
798,701,0,0,0,0,0,0,0,0,0,-1,2022,323,0,0
805,701,0,0,0,0,0,0,0,0,0,-1,2029,323,0,0
812,701,0,0,0,0,0,0,0,0,0,-1,2036,323,0,0
-700,694,0,0,0,0,0,0,0,0,0,-1,524,330,0,0
-693,694,0,0,0,0,0,0,0,0,0,-1,531,330,0,0
-686,694,0,0,0,0,0,0,0,0,0,-1,538,330,0,0
-679,694,0,0,0,0,0,0,0,0,0,-1,545,330,0,0
-672,694,0,0,0,0,0,0,0,0,0,-1,552,330,0,0
-665,694,0,0,0,0,0,0,0,0,0,-1,559,330,0,0
-658,694,0,0,0,0,0,0,0,0,0,-1,566,330,0,0
-651,694,0,0,0,0,0,0,0,0,0,-1,573,330,0,0
-644,694,0,0,0,0,0,0,0,0,0,-1,580,330,0,0
-637,694,0,0,0,0,0,0,0,0,0,-1,587,330,0,0
-630,694,0,0,0,0,0,0,0,0,0,-1,594,330,0,0
-623,694,0,0,0,0,0,0,0,0,0,-1,601,330,0,0
-616,694,0,0,0,0,0,0,0,0,0,-1,608,330,0,0
-609,694,0,0,0,0,0,0,0,0,0,-1,615,330,0,0
-602,694,0,0,0,0,0,0,0,0,0,-1,622,330,0,0
-595,694,0,0,0,0,0,0,0,0,0,-1,629,330,0,0
-588,694,0,0,0,0,0,0,0,0,0,-1,636,330,0,0
-581,694,0,0,0,0,0,0,0,0,0,-1,643,330,0,0
-574,694,0,0,0,0,0,0,0,0,0,-1,650,330,0,0
-567,694,0,0,0,0,0,0,0,0,0,-1,657,330,0,0
-560,694,0,0,0,0,0,0,0,0,0,-1,664,330,0,0
-553,694,0,0,0,0,0,0,0,0,0,-1,671,330,0,0
-546,694,0,0,0,0,0,0,0,0,0,-1,678,330,0,0
-539,694,0,0,0,0,0,0,0,0,0,-1,685,330,0,0
-532,694,0,0,0,0,0,0,0,0,0,-1,692,330,0,0
-525,694,0,0,0,0,0,0,0,0,0,-1,699,330,0,0
-518,694,0,0,0,0,0,0,0,0,0,-1,706,330,0,0
-511,694,0,0,0,0,0,0,0,0,0,-1,713,330,0,0
-504,694,0,0,0,0,0,0,0,0,0,-1,720,330,0,0
-497,694,0,0,0,0,0,0,0,0,0,-1,727,330,0,0
-490,694,0,0,0,0,0,0,0,0,0,-1,734,330,0,0
-483,694,0,0,0,0,0,0,0,0,0,-1,741,330,0,0
-476,694,0,0,0,0,0,0,0,0,0,-1,748,330,0,0
-469,694,0,0,0,0,0,0,0,0,0,-1,755,330,0,0
-462,694,0,0,0,0,0,0,0,0,0,-1,762,330,0,0
-455,694,0,0,0,0,0,0,0,0,0,-1,769,330,0,0
-448,694,0,0,0,0,0,0,0,0,0,-1,776,330,0,0
-441,694,0,0,0,0,0,0,0,0,0,-1,783,330,0,0
-434,694,0,0,0,0,0,0,0,0,0,-1,790,330,0,0
-427,694,0,0,0,0,0,0,0,0,0,-1,797,330,0,0
-420,694,0,0,0,0,0,0,0,0,0,-1,804,330,0,0
-413,694,0,0,0,0,0,0,0,0,0,-1,811,330,0,0
-406,694,0,0,0,0,0,0,0,0,0,-1,818,330,0,0
-399,694,0,0,0,0,0,0,0,0,0,-1,825,330,0,0
-392,694,0,0,0,0,0,0,0,0,0,-1,832,330,0,0
-385,694,0,0,0,0,0,0,0,0,0,-1,839,330,0,0
-378,694,0,0,0,0,0,0,0,0,0,-1,846,330,0,0
-371,694,0,0,0,0,0,0,0,0,0,-1,853,330,0,0
-364,694,0,0,0,0,0,0,0,0,0,-1,860,330,0,0
-357,694,0,0,0,0,0,0,0,0,0,-1,867,330,0,0
-350,694,0,0,0,0,0,0,0,0,0,-1,874,330,0,0
-343,694,0,0,0,0,0,0,0,0,0,-1,881,330,0,0
-336,694,0,0,0,0,0,0,0,0,0,-1,888,330,0,0
-329,694,0,0,0,0,0,0,0,0,0,-1,895,330,0,0
-322,694,0,0,0,0,0,0,0,0,0,-1,902,330,0,0
-315,694,0,0,0,0,0,0,0,0,0,-1,909,330,0,0
-308,694,0,0,0,0,0,0,0,0,0,-1,916,330,0,0
-301,694,0,0,0,0,0,0,0,0,0,-1,923,330,0,0
-294,694,0,0,0,0,0,0,0,0,0,-1,930,330,0,0
-287,694,0,0,0,0,0,0,0,0,0,-1,937,330,0,0
-280,694,0,0,0,0,0,0,0,0,0,-1,944,330,0,0
-273,694,0,0,0,0,0,0,0,0,0,-1,951,330,0,0
-266,694,0,0,0,0,0,0,0,0,0,-1,958,330,0,0
-259,694,0,0,0,0,0,0,0,0,0,-1,965,330,0,0
-252,694,0,0,0,0,0,0,0,0,0,-1,972,330,0,0
-245,694,0,0,0,0,0,0,0,0,0,-1,979,330,0,0
-238,694,0,0,0,0,0,0,0,0,0,-1,986,330,0,0
-231,694,0,0,0,0,0,0,0,0,0,-1,993,330,0,0
-224,694,0,0,0,0,0,0,0,0,0,-1,1000,330,0,0
-217,694,0,0,0,0,0,0,0,0,0,-1,1007,330,0,0
-210,694,0,0,0,0,0,0,0,0,0,-1,1014,330,0,0
-203,694,0,0,0,0,0,0,0,0,0,-1,1021,330,0,0
-196,694,0,0,0,0,0,0,0,0,0,-1,1028,330,0,0
-189,694,0,0,0,0,0,0,0,0,0,-1,1035,330,0,0
-182,694,0,0,0,0,0,0,0,0,0,-1,1042,330,0,0
-175,694,0,0,0,0,0,0,0,0,0,-1,1049,330,0,0
-168,694,0,0,0,0,0,0,0,0,0,-1,1056,330,0,0
-161,694,0,0,0,0,0,0,0,0,0,-1,1063,330,0,0
-154,694,0,0,0,0,0,0,0,0,0,-1,1070,330,0,0
-147,694,0,0,0,0,0,0,0,0,0,-1,1077,330,0,0
-140,694,0,0,0,0,0,0,0,0,0,-1,1084,330,0,0
-133,694,0,0,0,0,0,0,0,0,0,-1,1091,330,0,0
-126,694,0,0,0,0,0,0,0,0,0,-1,1098,330,0,0
-119,694,0,0,0,0,0,0,0,0,0,-1,1105,330,0,0
-112,694,0,0,0,0,0,0,0,0,0,-1,1112,330,0,0
-105,694,3.60645,-6.16238,-0.0124227,-0.0635032,0.0884675,0.0541175,-0.130043,0.644871,0.109296,0.0480452,1119,330,3.6064,6.16239
-98,694,3.31873,-5.11679,-0.0113256,-0.0624047,0.0938006,0.0603502,-0.134081,0.652483,0.114914,0.0468899,1126,330,3.31867,5.11678
-91,694,3.34851,-3.9989,0,0,0,0,0,0,0,-1,1133,330,3.34853,3.99891
-84,694,3.43335,1.70316,0,0,0,0,0,0,0,-1,1140,330,3.43329,-1.70316
-77,694,2.14624,2.84738,0,0,0,0,0,0,0,-1,1147,330,2.14621,-2.84739
-70,694,2.43774,2.11508,0,0,0,0,0,0,0,-1,1154,330,2.43777,-2.11507
-63,694,2.01135,2.13467,0,0,0,0,0,0,0,-1,1161,330,2.0113,-2.13469
-56,694,-0.661011,-0.22757,0,0,0,0,0,0,0,-1,1168,330,-0.660971,0.227584
-49,694,-1.11426,0.0341797,0,0,0,0,0,0,0,-1,1175,330,-1.11424,-0.0341846
-42,694,-0.346313,-0.709595,0,0,0,0,0,0,0,-1,1182,330,-0.346298,0.709581
-35,694,-0.459106,-1.24713,0,0,0,0,0,0,0,-1,1189,330,-0.459142,1.24714
-28,694,-3.0719,-6.67059,0,0,0,0,0,0,0,-1,1196,330,-3.07195,6.6706
-21,694,1.61743,-5.90436,0,0,0,0,0,0,0,-1,1203,330,1.61737,5.90435
-14,694,1.13794,-4.50525,0,0,0,0,0,0,0,-1,1210,330,1.1379,4.50526
-7,694,2.45056,-5.53632,0,0,0,0,0,0,0,-1,1217,330,2.45054,5.5363
0,694,2.76001,-5.44974,0,0,0,0,0,0,0,-1,1224,330,2.75996,5.44974
7,694,3.20801,-4.8027,0,0,0,0,0,0,0,-1,1231,330,3.20797,4.8027
14,694,2.45703,-5.16333,-0.0155124,0.0234587,-0.0364547,0.0453087,-0.0373625,-1.03084,0.0478037,0.0456446,1238,330,2.45705,5.16332
21,694,1.495,-5.46341,-0.00906165,0.0228076,-0.0357074,0.0459745,-0.0322286,-0.995266,0.0453825,0.0430059,1245,330,1.49501,5.46341
28,694,0.29126,-5.74173,-0.0034788,0.0200645,-0.0309856,0.0414392,-0.0248535,-0.966931,0.0386713,0.0432384,1252,330,0.291199,5.74172
35,694,2.28894,-5.68124,0.000657472,0.015684,-0.0243625,0.0336654,-0.017324,-0.934968,0.0299384,0.0496672,1259,330,2.28895,5.68123
42,694,2.74121,-5.20038,0,0,0,0,0,0,0,-1,1266,330,2.74127,5.20037
49,694,2.88818,-5.1687,0,0,0,0,0,0,0,-1,1273,330,2.88816,5.16869
56,694,2.70374,-5.11005,0,0,0,0,0,0,0,-1,1280,330,2.70375,5.11004
63,694,2.66882,-5.05814,0,0,0,0,0,0,0,-1,1287,330,2.6688,5.05813
70,694,3.07349,-6.67239,0.0430982,-0.0111384,0.00409651,0.0434058,-0.0114461,0.0749637,0.0334126,0.0433446,1294,330,3.0735,6.67239
77,694,3.19153,-5.5202,0.0501432,-0.0154994,0.00625598,0.0507341,-0.0160903,0.094174,0.0402723,0.0455462,1301,330,3.19147,5.52019
84,694,3.86243,-4.48672,0.0553754,-0.0187866,0.00621602,0.0558928,-0.019304,0.0830446,0.0450955,0.042969,1308,330,3.86247,4.48673
91,694,1.84973,-4.40704,0.0611578,-0.0226581,0.00327544,0.0612856,-0.0227859,0.0389997,0.0502065,0.043753,1315,330,1.84968,4.40704
98,694,5.47034,-1.60788,0,0,0,0,0,0,0,-1,1322,330,5.47031,1.60788
105,694,1.6936,-4.73141,0,0,0,0,0,0,0,-1,1329,330,1.69356,4.73141
112,694,1.18274,-4.68573,0,0,0,0,0,0,0,-1,1336,330,1.18269,4.68572
119,694,0.698608,-5.49185,0.0808686,-0.0218741,-0.0231507,0.0858442,-0.0268496,-0.211699,0.0679706,0.0443488,1343,330,0.698572,5.49184
126,694,-0.202881,-5.51431,0.0806387,-0.020337,-0.0296513,0.0887019,-0.0284001,-0.265513,0.0705336,0.0460139,1350,330,-0.202895,5.51433
133,694,-1.17749,-5.43988,0.0810228,-0.0190997,-0.0336699,0.0912922,-0.0293691,-0.296041,0.0726575,0.0464086,1357,330,-1.17749,5.43988
140,694,-2.15918,-5.22116,0.0815429,-0.0181947,-0.0330065,0.0914765,-0.0281283,-0.292336,0.0722103,0.0479308,1364,330,-2.15917,5.22115
147,694,1.69617,-4.85995,0.0822338,-0.0172456,-0.0285646,0.0898524,-0.0248642,-0.260647,0.0696844,0.0452628,1371,330,1.69617,4.85995
154,694,1.8916,-4.93976,0,0,0,0,0,0,0,-1,1378,330,1.89158,4.93977
161,694,-4.06055,-5.97623,0,0,0,0,0,0,0,-1,1385,330,-4.06052,5.97624
168,694,6.77161,1.01288,0,0,0,0,0,0,0,-1,1392,330,6.77156,-1.01287
175,694,6.72839,0.473175,0,0,0,0,0,0,0,-1,1399,330,6.72838,-0.473182
182,694,8.29028,5.75238,0,0,0,0,0,0,0,-1,1406,330,8.29034,-5.75237
189,694,7.9801,4.46118,0,0,0,0,0,0,0,-1,1413,330,7.9801,-4.46118
196,694,7.39331,3.32632,0,0,0,0,0,0,0,-1,1420,330,7.39329,-3.32633
203,694,7.04492,2.20529,0,0,0,0,0,0,0,-1,1427,330,7.04496,-2.20529
210,694,6.44714,0.646912,0,0,0,0,0,0,0,-1,1434,330,6.44717,-0.646903
217,694,7.12061,-0.644958,0,0,0,0,0,0,0,-1,1441,330,7.12059,0.644961
224,694,6.74011,-1.70544,0,0,0,0,0,0,0,-1,1448,330,6.74013,1.70546
231,694,0,0,0,0,0,0,0,0,0,-1,1455,330,0,0
238,694,0,0,0,0,0,0,0,0,0,-1,1462,330,0,0
245,694,0,0,0,0,0,0,0,0,0,-1,1469,330,0,0
252,694,0,0,0,0,0,0,0,0,0,-1,1476,330,0,0
259,694,0,0,0,0,0,0,0,0,0,-1,1483,330,0,0
266,694,0,0,0,0,0,0,0,0,0,-1,1490,330,0,0
273,694,0,0,0,0,0,0,0,0,0,-1,1497,330,0,0
280,694,0,0,0,0,0,0,0,0,0,-1,1504,330,0,0
287,694,0,0,0,0,0,0,0,0,0,-1,1511,330,0,0
294,694,0,0,0,0,0,0,0,0,0,-1,1518,330,0,0
301,694,0,0,0,0,0,0,0,0,0,-1,1525,330,0,0
308,694,0,0,0,0,0,0,0,0,0,-1,1532,330,0,0
315,694,0,0,0,0,0,0,0,0,0,-1,1539,330,0,0
322,694,0,0,0,0,0,0,0,0,0,-1,1546,330,0,0
329,694,0,0,0,0,0,0,0,0,0,-1,1553,330,0,0
336,694,0,0,0,0,0,0,0,0,0,-1,1560,330,0,0
343,694,0,0,0,0,0,0,0,0,0,-1,1567,330,0,0
350,694,0,0,0,0,0,0,0,0,0,-1,1574,330,0,0
357,694,0,0,0,0,0,0,0,0,0,-1,1581,330,0,0
364,694,0,0,0,0,0,0,0,0,0,-1,1588,330,0,0
371,694,0,0,0,0,0,0,0,0,0,-1,1595,330,0,0
378,694,0,0,0,0,0,0,0,0,0,-1,1602,330,0,0
385,694,0,0,0,0,0,0,0,0,0,-1,1609,330,0,0
392,694,0,0,0,0,0,0,0,0,0,-1,1616,330,0,0
399,694,0,0,0,0,0,0,0,0,0,-1,1623,330,0,0
406,694,0,0,0,0,0,0,0,0,0,-1,1630,330,0,0
413,694,0,0,0,0,0,0,0,0,0,-1,1637,330,0,0
420,694,0,0,0,0,0,0,0,0,0,-1,1644,330,0,0
427,694,0,0,0,0,0,0,0,0,0,-1,1651,330,0,0
434,694,0,0,0,0,0,0,0,0,0,-1,1658,330,0,0
441,694,0,0,0,0,0,0,0,0,0,-1,1665,330,0,0
448,694,0,0,0,0,0,0,0,0,0,-1,1672,330,0,0
455,694,0,0,0,0,0,0,0,0,0,-1,1679,330,0,0
462,694,0,0,0,0,0,0,0,0,0,-1,1686,330,0,0
469,694,0,0,0,0,0,0,0,0,0,-1,1693,330,0,0
476,694,0,0,0,0,0,0,0,0,0,-1,1700,330,0,0
483,694,0,0,0,0,0,0,0,0,0,-1,1707,330,0,0
490,694,0,0,0,0,0,0,0,0,0,-1,1714,330,0,0
497,694,0,0,0,0,0,0,0,0,0,-1,1721,330,0,0
504,694,0,0,0,0,0,0,0,0,0,-1,1728,330,0,0
511,694,0,0,0,0,0,0,0,0,0,-1,1735,330,0,0
518,694,0,0,0,0,0,0,0,0,0,-1,1742,330,0,0
525,694,0,0,0,0,0,0,0,0,0,-1,1749,330,0,0
532,694,0,0,0,0,0,0,0,0,0,-1,1756,330,0,0
539,694,0,0,0,0,0,0,0,0,0,-1,1763,330,0,0
546,694,0,0,0,0,0,0,0,0,0,-1,1770,330,0,0
553,694,0,0,0,0,0,0,0,0,0,-1,1777,330,0,0
560,694,0,0,0,0,0,0,0,0,0,-1,1784,330,0,0
567,694,0,0,0,0,0,0,0,0,0,-1,1791,330,0,0
574,694,0,0,0,0,0,0,0,0,0,-1,1798,330,0,0
581,694,0,0,0,0,0,0,0,0,0,-1,1805,330,0,0
588,694,0,0,0,0,0,0,0,0,0,-1,1812,330,0,0
595,694,0,0,0,0,0,0,0,0,0,-1,1819,330,0,0
602,694,0,0,0,0,0,0,0,0,0,-1,1826,330,0,0
609,694,0,0,0,0,0,0,0,0,0,-1,1833,330,0,0
616,694,0,0,0,0,0,0,0,0,0,-1,1840,330,0,0
623,694,0,0,0,0,0,0,0,0,0,-1,1847,330,0,0
630,694,0,0,0,0,0,0,0,0,0,-1,1854,330,0,0
637,694,0,0,0,0,0,0,0,0,0,-1,1861,330,0,0
644,694,0,0,0,0,0,0,0,0,0,-1,1868,330,0,0
651,694,0,0,0,0,0,0,0,0,0,-1,1875,330,0,0
658,694,0,0,0,0,0,0,0,0,0,-1,1882,330,0,0
665,694,0,0,0,0,0,0,0,0,0,-1,1889,330,0,0
672,694,0,0,0,0,0,0,0,0,0,-1,1896,330,0,0
679,694,0,0,0,0,0,0,0,0,0,-1,1903,330,0,0
686,694,0,0,0,0,0,0,0,0,0,-1,1910,330,0,0
693,694,0,0,0,0,0,0,0,0,0,-1,1917,330,0,0
700,694,0,0,0,0,0,0,0,0,0,-1,1924,330,0,0
707,694,0,0,0,0,0,0,0,0,0,-1,1931,330,0,0
714,694,0,0,0,0,0,0,0,0,0,-1,1938,330,0,0
721,694,0,0,0,0,0,0,0,0,0,-1,1945,330,0,0
728,694,0,0,0,0,0,0,0,0,0,-1,1952,330,0,0
735,694,0,0,0,0,0,0,0,0,0,-1,1959,330,0,0
742,694,0,0,0,0,0,0,0,0,0,-1,1966,330,0,0
749,694,0,0,0,0,0,0,0,0,0,-1,1973,330,0,0
756,694,0,0,0,0,0,0,0,0,0,-1,1980,330,0,0
763,694,0,0,0,0,0,0,0,0,0,-1,1987,330,0,0
770,694,0,0,0,0,0,0,0,0,0,-1,1994,330,0,0
777,694,0,0,0,0,0,0,0,0,0,-1,2001,330,0,0
784,694,0,0,0,0,0,0,0,0,0,-1,2008,330,0,0
791,694,0,0,0,0,0,0,0,0,0,-1,2015,330,0,0
798,694,0,0,0,0,0,0,0,0,0,-1,2022,330,0,0
805,694,0,0,0,0,0,0,0,0,0,-1,2029,330,0,0
812,694,0,0,0,0,0,0,0,0,0,-1,2036,330,0,0
-700,687,0,0,0,0,0,0,0,0,0,-1,524,337,0,0
-693,687,0,0,0,0,0,0,0,0,0,-1,531,337,0,0
-686,687,0,0,0,0,0,0,0,0,0,-1,538,337,0,0
-679,687,0,0,0,0,0,0,0,0,0,-1,545,337,0,0
-672,687,0,0,0,0,0,0,0,0,0,-1,552,337,0,0
-665,687,0,0,0,0,0,0,0,0,0,-1,559,337,0,0
-658,687,0,0,0,0,0,0,0,0,0,-1,566,337,0,0
-651,687,0,0,0,0,0,0,0,0,0,-1,573,337,0,0
-644,687,0,0,0,0,0,0,0,0,0,-1,580,337,0,0
-637,687,0,0,0,0,0,0,0,0,0,-1,587,337,0,0
-630,687,0,0,0,0,0,0,0,0,0,-1,594,337,0,0
-623,687,0,0,0,0,0,0,0,0,0,-1,601,337,0,0
-616,687,0,0,0,0,0,0,0,0,0,-1,608,337,0,0
-609,687,0,0,0,0,0,0,0,0,0,-1,615,337,0,0
-602,687,0,0,0,0,0,0,0,0,0,-1,622,337,0,0
-595,687,0,0,0,0,0,0,0,0,0,-1,629,337,0,0
-588,687,0,0,0,0,0,0,0,0,0,-1,636,337,0,0
-581,687,0,0,0,0,0,0,0,0,0,-1,643,337,0,0
-574,687,0,0,0,0,0,0,0,0,0,-1,650,337,0,0
-567,687,0,0,0,0,0,0,0,0,0,-1,657,337,0,0
-560,687,0,0,0,0,0,0,0,0,0,-1,664,337,0,0
-553,687,0,0,0,0,0,0,0,0,0,-1,671,337,0,0
-546,687,0,0,0,0,0,0,0,0,0,-1,678,337,0,0
-539,687,0,0,0,0,0,0,0,0,0,-1,685,337,0,0
-532,687,0,0,0,0,0,0,0,0,0,-1,692,337,0,0
-525,687,0,0,0,0,0,0,0,0,0,-1,699,337,0,0
-518,687,0,0,0,0,0,0,0,0,0,-1,706,337,0,0
-511,687,0,0,0,0,0,0,0,0,0,-1,713,337,0,0
-504,687,0,0,0,0,0,0,0,0,0,-1,720,337,0,0
-497,687,0,0,0,0,0,0,0,0,0,-1,727,337,0,0
-490,687,0,0,0,0,0,0,0,0,0,-1,734,337,0,0
-483,687,0,0,0,0,0,0,0,0,0,-1,741,337,0,0
-476,687,0,0,0,0,0,0,0,0,0,-1,748,337,0,0
-469,687,0,0,0,0,0,0,0,0,0,-1,755,337,0,0
-462,687,0,0,0,0,0,0,0,0,0,-1,762,337,0,0
-455,687,0,0,0,0,0,0,0,0,0,-1,769,337,0,0
-448,687,0,0,0,0,0,0,0,0,0,-1,776,337,0,0
-441,687,0,0,0,0,0,0,0,0,0,-1,783,337,0,0
-434,687,0,0,0,0,0,0,0,0,0,-1,790,337,0,0
-427,687,0,0,0,0,0,0,0,0,0,-1,797,337,0,0
-420,687,0,0,0,0,0,0,0,0,0,-1,804,337,0,0
-413,687,0,0,0,0,0,0,0,0,0,-1,811,337,0,0
-406,687,0,0,0,0,0,0,0,0,0,-1,818,337,0,0
-399,687,0,0,0,0,0,0,0,0,0,-1,825,337,0,0
-392,687,0,0,0,0,0,0,0,0,0,-1,832,337,0,0
-385,687,0,0,0,0,0,0,0,0,0,-1,839,337,0,0
-378,687,0,0,0,0,0,0,0,0,0,-1,846,337,0,0
-371,687,0,0,0,0,0,0,0,0,0,-1,853,337,0,0
-364,687,0,0,0,0,0,0,0,0,0,-1,860,337,0,0
-357,687,0,0,0,0,0,0,0,0,0,-1,867,337,0,0
-350,687,0,0,0,0,0,0,0,0,0,-1,874,337,0,0
-343,687,0,0,0,0,0,0,0,0,0,-1,881,337,0,0
-336,687,0,0,0,0,0,0,0,0,0,-1,888,337,0,0
-329,687,0,0,0,0,0,0,0,0,0,-1,895,337,0,0
-322,687,0,0,0,0,0,0,0,0,0,-1,902,337,0,0
-315,687,0,0,0,0,0,0,0,0,0,-1,909,337,0,0
-308,687,0,0,0,0,0,0,0,0,0,-1,916,337,0,0
-301,687,0,0,0,0,0,0,0,0,0,-1,923,337,0,0
-294,687,0,0,0,0,0,0,0,0,0,-1,930,337,0,0
-287,687,0,0,0,0,0,0,0,0,0,-1,937,337,0,0
-280,687,0,0,0,0,0,0,0,0,0,-1,944,337,0,0
-273,687,0,0,0,0,0,0,0,0,0,-1,951,337,0,0
-266,687,0,0,0,0,0,0,0,0,0,-1,958,337,0,0
-259,687,0,0,0,0,0,0,0,0,0,-1,965,337,0,0
-252,687,0,0,0,0,0,0,0,0,0,-1,972,337,0,0
-245,687,0,0,0,0,0,0,0,0,0,-1,979,337,0,0
-238,687,0,0,0,0,0,0,0,0,0,-1,986,337,0,0
-231,687,0,0,0,0,0,0,0,0,0,-1,993,337,0,0
-224,687,0,0,0,0,0,0,0,0,0,-1,1000,337,0,0
-217,687,0,0,0,0,0,0,0,0,0,-1,1007,337,0,0
-210,687,0,0,0,0,0,0,0,0,0,-1,1014,337,0,0
-203,687,0,0,0,0,0,0,0,0,0,-1,1021,337,0,0
-196,687,0,0,0,0,0,0,0,0,0,-1,1028,337,0,0
-189,687,0,0,0,0,0,0,0,0,0,-1,1035,337,0,0
-182,687,0,0,0,0,0,0,0,0,0,-1,1042,337,0,0
-175,687,0,0,0,0,0,0,0,0,0,-1,1049,337,0,0
-168,687,0,0,0,0,0,0,0,0,0,-1,1056,337,0,0
-161,687,0,0,0,0,0,0,0,0,0,-1,1063,337,0,0
-154,687,0,0,0,0,0,0,0,0,0,-1,1070,337,0,0
-147,687,0,0,0,0,0,0,0,0,0,-1,1077,337,0,0
-140,687,0,0,0,0,0,0,0,0,0,-1,1084,337,0,0
-133,687,-1.63074,-5.44107,0,0,0,0,0,0,0,-1,1091,337,-1.63076,5.44108
-126,687,-0.557983,-6.85822,0,0,0,0,0,0,0,-1,1098,337,-0.558008,6.85821
-119,687,-0.499512,-6.92761,0,0,0,0,0,0,0,-1,1105,337,-0.499489,6.92762
-112,687,2.19458,-5.88892,0,0,0,0,0,0,0,-1,1112,337,2.19463,5.88892
-105,687,2.89941,-5.54526,-0.00895158,-0.0499955,0.0635793,0.0373357,-0.0962828,0.629288,0.0796078,0.0466104,1119,337,2.89935,5.54527
-98,687,2.88025,-4.7814,-0.00775849,-0.0486218,0.0679329,0.0427488,-0.0991291,0.63932,0.0840415,0.0469503,1126,337,2.8802,4.78139
-91,687,1.74792,-4.73438,0,0,0,0,0,0,0,-1,1133,337,1.74788,4.73436
-84,687,2.7146,-0.539276,0,0,0,0,0,0,0,-1,1140,337,2.7146,0.539279
-77,687,2.47009,0.790771,0,0,0,0,0,0,0,-1,1147,337,2.47007,-0.790783
-70,687,2.22559,2.12085,0,0,0,0,0,0,0,-1,1154,337,2.22553,-2.12084
-63,687,2.10571,0.914429,0,0,0,0,0,0,0,-1,1161,337,2.10575,-0.914431
-56,687,-2.34521,-1.44971,0,0,0,0,0,0,0,-1,1168,337,-2.34521,1.4497
-49,687,-1.03284,-0.0333862,0,0,0,0,0,0,0,-1,1175,337,-1.03285,0.0333943
-42,687,-4.2019,-0.405609,0,0,0,0,0,0,0,-1,1182,337,-4.20192,0.405614
-35,687,-0.2771,-0.134583,0,0,0,0,0,0,0,-1,1189,337,-0.277127,0.134571
-28,687,-1.14038,-1.39072,0,0,0,0,0,0,0,-1,1196,337,-1.14035,1.3907
-21,687,0.222778,-5.25479,0,0,0,0,0,0,0,-1,1203,337,0.222825,5.25479
-14,687,1.52478,-4.48419,0,0,0,0,0,0,0,-1,1210,337,1.52482,4.4842
-7,687,2.22241,-5.43723,0,0,0,0,0,0,0,-1,1217,337,2.22241,5.43722
0,687,2.5105,-5.35034,0,0,0,0,0,0,0,-1,1224,337,2.51045,5.35035
7,687,2.70886,-5.272,-0.0149495,0.0155325,-0.0239469,0.0286771,-0.0280941,-1.06879,0.0327774,0.0470375,1231,337,2.70884,5.27202
14,687,2.62427,-5.23926,-0.0110268,0.0158291,-0.025395,0.0311277,-0.0263254,-1.02859,0.0332092,0.0461632,1238,337,2.62428,5.23927
21,687,2.56445,-5.41388,-0.00652463,0.0155917,-0.0249006,0.0317791,-0.022712,-0.994363,0.0316053,0.0478642,1245,337,2.56449,5.41388
28,687,2.36792,-5.37732,-0.00249733,0.0137597,-0.0213031,0.0284324,-0.01717,-0.967655,0.0265949,0.0479385,1252,337,2.36789,5.37733
35,687,2.32007,-5.52939,0.000467054,0.0109622,-0.016245,0.0227862,-0.0113569,-0.941622,0.0200773,0.0488055,1259,337,2.3201,5.5294
42,687,2.25793,-5.57944,0,0,0,0,0,0,0,-1,1266,337,2.25789,5.57943
49,687,2.70886,-5.25464,0,0,0,0,0,0,0,-1,1273,337,2.7088,5.25464
56,687,2.61853,-5.22879,0.0151106,0.00077187,0.00118458,0.0152078,0.000674666,0.0818743,0.00992127,0.0462848,1280,337,2.61851,5.2288
63,687,2.60315,-5.18146,0.0228072,-0.00210503,0.00424828,0.0235117,-0.00280956,0.164344,0.01669,0.0468513,1287,337,2.60319,5.18146
70,687,2.54236,-5.16046,0,0,0,0,0,0,0,-1,1294,337,2.54237,5.16048
77,687,2.59021,-5.18454,0.0347779,-0.00887736,0.00626918,0.0356604,-0.00975981,0.139843,0.027608,0.0445141,1301,337,2.59026,5.18455
84,687,2.47791,-4.68372,0.0382508,-0.0108977,0.00579828,0.0389256,-0.0115725,0.115856,0.0305475,0.0449517,1308,337,2.47794,4.6837
91,687,2.06299,-4.328,0.0424761,-0.0134275,0.00274656,0.0426107,-0.0135621,0.0489731,0.033846,0.0447651,1315,337,2.06293,4.328
98,687,1.7179,-4.52206,0.0492867,-0.0137104,-0.0017938,0.0493377,-0.0137614,-0.0284437,0.0383118,0.0455169,1322,337,1.71792,4.52206
105,687,1.55151,-4.71747,0.053546,-0.0138591,-0.00783459,0.0544447,-0.0147578,-0.114203,0.0420872,0.0457323,1329,337,1.5515,4.71746
112,687,0.977661,-4.65445,0.0569395,-0.0135151,-0.0141672,0.0596816,-0.0162571,-0.191186,0.0461709,0.0454471,1336,337,0.977722,4.65445
119,687,0.329834,-4.89209,0.0591231,-0.0127038,-0.0199211,0.0642782,-0.0178589,-0.253222,0.0498824,0.0442806,1343,337,0.329839,4.89208
126,687,-0.72998,-4.88696,0.0602444,-0.0118266,-0.0253664,0.0682772,-0.0198594,-0.306679,0.0533838,0.0432377,1350,337,-0.730033,4.88697
133,687,-1.71924,-4.76514,0.061923,-0.0111607,-0.028977,0.0720178,-0.0212555,-0.335223,0.0564471,0.0452717,1357,337,-1.71922,4.76513
140,687,1.78308,-4.55057,0.0637576,-0.0108317,-0.0291614,0.0738051,-0.0208792,-0.331809,0.0574422,0.0453756,1364,337,1.78312,4.55057
147,687,1.84338,-4.78571,0.0656881,-0.0106527,-0.0266571,0.074075,-0.0190396,-0.304816,0.0568036,0.0449224,1371,337,1.84338,4.78571
154,687,1.94092,-4.96201,0,0,0,0,0,0,0,-1,1378,337,1.94093,4.962
161,687,6.5564,1.68158,0,0,0,0,0,0,0,-1,1385,337,6.55636,-1.68157
168,687,6.66968,1.37039,0,0,0,0,0,0,0,-1,1392,337,6.6697,-1.37039
175,687,6.64075,0.771606,0,0,0,0,0,0,0,-1,1399,337,6.64073,-0.771595
182,687,6.67249,0.289917,0,0,0,0,0,0,0,-1,1406,337,6.67247,-0.289916
189,687,7.76062,4.53635,0,0,0,0,0,0,0,-1,1413,337,7.76064,-4.53636
196,687,6.99048,3.2966,0,0,0,0,0,0,0,-1,1420,337,6.99046,-3.2966
203,687,6.36499,2.1445,0,0,0,0,0,0,0,-1,1427,337,6.36499,-2.14451
210,687,6.68066,0.674652,0,0,0,0,0,0,0,-1,1434,337,6.68062,-0.674655
217,687,5.99683,-0.630493,0,0,0,0,0,0,0,-1,1441,337,5.99684,0.630497
224,687,5.61267,-1.64349,0,0,0,0,0,0,0,-1,1448,337,5.61264,1.6435
231,687,5.31555,-2.21457,0,0,0,0,0,0,0,-1,1455,337,5.31555,2.21458
238,687,2.41968,0.627319,0,0,0,0,0,0,0,-1,1462,337,2.41965,-0.627326
245,687,2.02734,1.39944,0,0,0,0,0,0,0,-1,1469,337,2.02737,-1.39945
252,687,1.62207,1.9498,0,0,0,0,0,0,0,-1,1476,337,1.62203,-1.9498
259,687,0,0,0,0,0,0,0,0,0,-1,1483,337,0,0
266,687,0,0,0,0,0,0,0,0,0,-1,1490,337,0,0
273,687,0,0,0,0,0,0,0,0,0,-1,1497,337,0,0
280,687,0,0,0,0,0,0,0,0,0,-1,1504,337,0,0
287,687,0,0,0,0,0,0,0,0,0,-1,1511,337,0,0
294,687,0,0,0,0,0,0,0,0,0,-1,1518,337,0,0
301,687,0,0,0,0,0,0,0,0,0,-1,1525,337,0,0
308,687,0,0,0,0,0,0,0,0,0,-1,1532,337,0,0
315,687,0,0,0,0,0,0,0,0,0,-1,1539,337,0,0
322,687,0,0,0,0,0,0,0,0,0,-1,1546,337,0,0
329,687,0,0,0,0,0,0,0,0,0,-1,1553,337,0,0
336,687,0,0,0,0,0,0,0,0,0,-1,1560,337,0,0
343,687,0,0,0,0,0,0,0,0,0,-1,1567,337,0,0
350,687,0,0,0,0,0,0,0,0,0,-1,1574,337,0,0
357,687,0,0,0,0,0,0,0,0,0,-1,1581,337,0,0
364,687,0,0,0,0,0,0,0,0,0,-1,1588,337,0,0
371,687,0,0,0,0,0,0,0,0,0,-1,1595,337,0,0
378,687,0,0,0,0,0,0,0,0,0,-1,1602,337,0,0
385,687,0,0,0,0,0,0,0,0,0,-1,1609,337,0,0
392,687,0,0,0,0,0,0,0,0,0,-1,1616,337,0,0
399,687,0,0,0,0,0,0,0,0,0,-1,1623,337,0,0
406,687,0,0,0,0,0,0,0,0,0,-1,1630,337,0,0
413,687,0,0,0,0,0,0,0,0,0,-1,1637,337,0,0
420,687,0,0,0,0,0,0,0,0,0,-1,1644,337,0,0
427,687,0,0,0,0,0,0,0,0,0,-1,1651,337,0,0
434,687,0,0,0,0,0,0,0,0,0,-1,1658,337,0,0
441,687,0,0,0,0,0,0,0,0,0,-1,1665,337,0,0
448,687,0,0,0,0,0,0,0,0,0,-1,1672,337,0,0
455,687,0,0,0,0,0,0,0,0,0,-1,1679,337,0,0
462,687,0,0,0,0,0,0,0,0,0,-1,1686,337,0,0
469,687,0,0,0,0,0,0,0,0,0,-1,1693,337,0,0
476,687,0,0,0,0,0,0,0,0,0,-1,1700,337,0,0
483,687,0,0,0,0,0,0,0,0,0,-1,1707,337,0,0
490,687,0,0,0,0,0,0,0,0,0,-1,1714,337,0,0
497,687,0,0,0,0,0,0,0,0,0,-1,1721,337,0,0
504,687,0,0,0,0,0,0,0,0,0,-1,1728,337,0,0
511,687,0,0,0,0,0,0,0,0,0,-1,1735,337,0,0
518,687,0,0,0,0,0,0,0,0,0,-1,1742,337,0,0
525,687,0,0,0,0,0,0,0,0,0,-1,1749,337,0,0
532,687,0,0,0,0,0,0,0,0,0,-1,1756,337,0,0
539,687,0,0,0,0,0,0,0,0,0,-1,1763,337,0,0
546,687,0,0,0,0,0,0,0,0,0,-1,1770,337,0,0
553,687,0,0,0,0,0,0,0,0,0,-1,1777,337,0,0
560,687,0,0,0,0,0,0,0,0,0,-1,1784,337,0,0
567,687,0,0,0,0,0,0,0,0,0,-1,1791,337,0,0
574,687,0,0,0,0,0,0,0,0,0,-1,1798,337,0,0
581,687,0,0,0,0,0,0,0,0,0,-1,1805,337,0,0
588,687,0,0,0,0,0,0,0,0,0,-1,1812,337,0,0
595,687,0,0,0,0,0,0,0,0,0,-1,1819,337,0,0
602,687,0,0,0,0,0,0,0,0,0,-1,1826,337,0,0
609,687,0,0,0,0,0,0,0,0,0,-1,1833,337,0,0
616,687,0,0,0,0,0,0,0,0,0,-1,1840,337,0,0
623,687,0,0,0,0,0,0,0,0,0,-1,1847,337,0,0
630,687,0,0,0,0,0,0,0,0,0,-1,1854,337,0,0
637,687,0,0,0,0,0,0,0,0,0,-1,1861,337,0,0
644,687,0,0,0,0,0,0,0,0,0,-1,1868,337,0,0
651,687,0,0,0,0,0,0,0,0,0,-1,1875,337,0,0
658,687,0,0,0,0,0,0,0,0,0,-1,1882,337,0,0
665,687,0,0,0,0,0,0,0,0,0,-1,1889,337,0,0
672,687,0,0,0,0,0,0,0,0,0,-1,1896,337,0,0
679,687,0,0,0,0,0,0,0,0,0,-1,1903,337,0,0
686,687,0,0,0,0,0,0,0,0,0,-1,1910,337,0,0
693,687,0,0,0,0,0,0,0,0,0,-1,1917,337,0,0
700,687,0,0,0,0,0,0,0,0,0,-1,1924,337,0,0
707,687,0,0,0,0,0,0,0,0,0,-1,1931,337,0,0
714,687,0,0,0,0,0,0,0,0,0,-1,1938,337,0,0
721,687,0,0,0,0,0,0,0,0,0,-1,1945,337,0,0
728,687,0,0,0,0,0,0,0,0,0,-1,1952,337,0,0
735,687,0,0,0,0,0,0,0,0,0,-1,1959,337,0,0
742,687,0,0,0,0,0,0,0,0,0,-1,1966,337,0,0
749,687,0,0,0,0,0,0,0,0,0,-1,1973,337,0,0
756,687,0,0,0,0,0,0,0,0,0,-1,1980,337,0,0
763,687,0,0,0,0,0,0,0,0,0,-1,1987,337,0,0
770,687,0,0,0,0,0,0,0,0,0,-1,1994,337,0,0
777,687,0,0,0,0,0,0,0,0,0,-1,2001,337,0,0
784,687,0,0,0,0,0,0,0,0,0,-1,2008,337,0,0
791,687,0,0,0,0,0,0,0,0,0,-1,2015,337,0,0
798,687,0,0,0,0,0,0,0,0,0,-1,2022,337,0,0
805,687,0,0,0,0,0,0,0,0,0,-1,2029,337,0,0
812,687,0,0,0,0,0,0,0,0,0,-1,2036,337,0,0
-700,680,0,0,0,0,0,0,0,0,0,-1,524,344,0,0
-693,680,0,0,0,0,0,0,0,0,0,-1,531,344,0,0
-686,680,0,0,0,0,0,0,0,0,0,-1,538,344,0,0
-679,680,0,0,0,0,0,0,0,0,0,-1,545,344,0,0
-672,680,0,0,0,0,0,0,0,0,0,-1,552,344,0,0
-665,680,0,0,0,0,0,0,0,0,0,-1,559,344,0,0
-658,680,0,0,0,0,0,0,0,0,0,-1,566,344,0,0
-651,680,0,0,0,0,0,0,0,0,0,-1,573,344,0,0
-644,680,0,0,0,0,0,0,0,0,0,-1,580,344,0,0
-637,680,0,0,0,0,0,0,0,0,0,-1,587,344,0,0
-630,680,0,0,0,0,0,0,0,0,0,-1,594,344,0,0
-623,680,0,0,0,0,0,0,0,0,0,-1,601,344,0,0
-616,680,0,0,0,0,0,0,0,0,0,-1,608,344,0,0
-609,680,0,0,0,0,0,0,0,0,0,-1,615,344,0,0
-602,680,0,0,0,0,0,0,0,0,0,-1,622,344,0,0
-595,680,0,0,0,0,0,0,0,0,0,-1,629,344,0,0
-588,680,0,0,0,0,0,0,0,0,0,-1,636,344,0,0
-581,680,0,0,0,0,0,0,0,0,0,-1,643,344,0,0
-574,680,0,0,0,0,0,0,0,0,0,-1,650,344,0,0
-567,680,0,0,0,0,0,0,0,0,0,-1,657,344,0,0
-560,680,0,0,0,0,0,0,0,0,0,-1,664,344,0,0
-553,680,0,0,0,0,0,0,0,0,0,-1,671,344,0,0
-546,680,0,0,0,0,0,0,0,0,0,-1,678,344,0,0
-539,680,0,0,0,0,0,0,0,0,0,-1,685,344,0,0
-532,680,0,0,0,0,0,0,0,0,0,-1,692,344,0,0
-525,680,0,0,0,0,0,0,0,0,0,-1,699,344,0,0
-518,680,0,0,0,0,0,0,0,0,0,-1,706,344,0,0
-511,680,0,0,0,0,0,0,0,0,0,-1,713,344,0,0
-504,680,0,0,0,0,0,0,0,0,0,-1,720,344,0,0
-497,680,0,0,0,0,0,0,0,0,0,-1,727,344,0,0
-490,680,0,0,0,0,0,0,0,0,0,-1,734,344,0,0
-483,680,0,0,0,0,0,0,0,0,0,-1,741,344,0,0
-476,680,0,0,0,0,0,0,0,0,0,-1,748,344,0,0
-469,680,0,0,0,0,0,0,0,0,0,-1,755,344,0,0
-462,680,0,0,0,0,0,0,0,0,0,-1,762,344,0,0
-455,680,0,0,0,0,0,0,0,0,0,-1,769,344,0,0
-448,680,0,0,0,0,0,0,0,0,0,-1,776,344,0,0
-441,680,0,0,0,0,0,0,0,0,0,-1,783,344,0,0
-434,680,0,0,0,0,0,0,0,0,0,-1,790,344,0,0
-427,680,0,0,0,0,0,0,0,0,0,-1,797,344,0,0
-420,680,0,0,0,0,0,0,0,0,0,-1,804,344,0,0
-413,680,0,0,0,0,0,0,0,0,0,-1,811,344,0,0
-406,680,0,0,0,0,0,0,0,0,0,-1,818,344,0,0
-399,680,0,0,0,0,0,0,0,0,0,-1,825,344,0,0
-392,680,0,0,0,0,0,0,0,0,0,-1,832,344,0,0
-385,680,0,0,0,0,0,0,0,0,0,-1,839,344,0,0
-378,680,0,0,0,0,0,0,0,0,0,-1,846,344,0,0
-371,680,0,0,0,0,0,0,0,0,0,-1,853,344,0,0
-364,680,0,0,0,0,0,0,0,0,0,-1,860,344,0,0
-357,680,0,0,0,0,0,0,0,0,0,-1,867,344,0,0
-350,680,0,0,0,0,0,0,0,0,0,-1,874,344,0,0
-343,680,0,0,0,0,0,0,0,0,0,-1,881,344,0,0
-336,680,0,0,0,0,0,0,0,0,0,-1,888,344,0,0
-329,680,0,0,0,0,0,0,0,0,0,-1,895,344,0,0
-322,680,0,0,0,0,0,0,0,0,0,-1,902,344,0,0
-315,680,0,0,0,0,0,0,0,0,0,-1,909,344,0,0
-308,680,0,0,0,0,0,0,0,0,0,-1,916,344,0,0
-301,680,0,0,0,0,0,0,0,0,0,-1,923,344,0,0
-294,680,0,0,0,0,0,0,0,0,0,-1,930,344,0,0
-287,680,0,0,0,0,0,0,0,0,0,-1,937,344,0,0
-280,680,0,0,0,0,0,0,0,0,0,-1,944,344,0,0
-273,680,0,0,0,0,0,0,0,0,0,-1,951,344,0,0
-266,680,0,0,0,0,0,0,0,0,0,-1,958,344,0,0
-259,680,0,0,0,0,0,0,0,0,0,-1,965,344,0,0
-252,680,0,0,0,0,0,0,0,0,0,-1,972,344,0,0
-245,680,0,0,0,0,0,0,0,0,0,-1,979,344,0,0
-238,680,0,0,0,0,0,0,0,0,0,-1,986,344,0,0
-231,680,0,0,0,0,0,0,0,0,0,-1,993,344,0,0
-224,680,0,0,0,0,0,0,0,0,0,-1,1000,344,0,0
-217,680,0,0,0,0,0,0,0,0,0,-1,1007,344,0,0
-210,680,0,0,0,0,0,0,0,0,0,-1,1014,344,0,0
-203,680,0,0,0,0,0,0,0,0,0,-1,1021,344,0,0
-196,680,0,0,0,0,0,0,0,0,0,-1,1028,344,0,0
-189,680,0,0,0,0,0,0,0,0,0,-1,1035,344,0,0
-182,680,0,0,0,0,0,0,0,0,0,-1,1042,344,0,0
-175,680,0,0,0,0,0,0,0,0,0,-1,1049,344,0,0
-168,680,0,0,0,0,0,0,0,0,0,-1,1056,344,0,0
-161,680,0,0,0,0,0,0,0,0,0,-1,1063,344,0,0
-154,680,-1.22534,-3.19229,0,0,0,0,0,0,0,-1,1070,344,-1.22529,3.1923
-147,680,0.326172,-5.41754,0,0,0,0,0,0,0,-1,1077,344,0.326171,5.41755
-140,680,-0.325928,-5.32455,0,0,0,0,0,0,0,-1,1084,344,-0.325878,5.32455
-133,680,-0.816528,-5.4263,0,0,0,0,0,0,0,-1,1091,344,-0.816582,5.4263
-126,680,-1.28149,-5.42767,0,0,0,0,0,0,0,-1,1098,344,-1.2815,5.42768
-119,680,2.03369,-5.5347,0,0,0,0,0,0,0,-1,1105,344,2.03364,5.53469
-112,680,2.15015,-5.45587,-0.00850808,-0.0393814,0.0391218,0.0181124,-0.0660019,0.597486,0.0511197,0.0441881,1112,344,2.15014,5.45587
-105,680,2.18103,-5.0347,-0.00633706,-0.0380458,0.0438739,0.0244592,-0.068842,0.612018,0.0558621,0.0423277,1119,344,2.18102,5.0347
-98,680,2.14221,-5.49878,0,0,0,0,0,0,0,-1,1126,344,2.14216,5.49876
-91,680,2.19287,-4.6041,0,0,0,0,0,0,0,-1,1133,344,2.19289,4.60408
-84,680,2.24365,-3.70941,0,0,0,0,0,0,0,-1,1140,344,2.24361,3.7094
-77,680,2.80652,-1.30139,0,0,0,0,0,0,0,-1,1147,344,2.80652,1.3014
-70,680,2.62012,0.142639,0,0,0,0,0,0,0,-1,1154,344,2.62008,-0.142639
-63,680,2.06177,-0.639954,0,0,0,0,0,0,0,-1,1161,344,2.06182,0.639947
-56,680,-0.549072,-0.73291,0,0,0,0,0,0,0,-1,1168,344,-0.549091,0.732904
-49,680,-0.902832,-0.00689697,0,0,0,0,0,0,0,-1,1175,344,-0.902841,0.00689904
-42,680,-1.02368,0.618805,0,0,0,0,0,0,0,-1,1182,344,-1.0237,-0.618797
-35,680,-0.947876,-0.942719,0,0,0,0,0,0,0,-1,1189,344,-0.947842,0.942731
-28,680,-1.46118,-1.10574,0,0,0,0,0,0,0,-1,1196,344,-1.4612,1.10575
-21,680,1.6012,-3.98584,0,0,0,0,0,0,0,-1,1203,344,1.60118,3.98583
-14,680,2.80713,-5.45999,0,0,0,0,0,0,0,-1,1210,344,2.80713,5.45998
-7,680,2.84961,-5.47165,0,0,0,0,0,0,0,-1,1217,344,2.84957,5.47165
0,680,2.55615,-5.33405,0,0,0,0,0,0,0,-1,1224,344,2.55611,5.33406
7,680,2.55273,-5.29849,-0.0103753,0.00982161,-0.0157859,0.0184628,-0.0190165,-1.06995,0.0216394,0.0478621,1231,344,2.55279,5.29848
14,680,2.46521,-5.2543,-0.00782038,0.0102549,-0.0170402,0.0205058,-0.0180712,-1.02922,0.0222872,0.04502,1238,344,2.46517,5.2543
21,680,2.46899,-5.32031,-0.00474781,0.0102719,-0.0167531,0.0211213,-0.0155972,-0.996104,0.0212793,0.0429257,1245,344,2.46896,5.32032
28,680,2.38757,-5.43674,-0.00190584,0.00912086,-0.0141288,0.0187739,-0.0115589,-0.971423,0.017677,0.0396312,1252,344,2.38754,5.43674
35,680,2.30994,-5.44568,0.000174948,0.00745711,-0.010389,0.0148246,-0.00719252,-0.953947,0.0129636,0.0411094,1259,344,2.3099,5.44567
42,680,2.22144,-5.40735,0.000970579,0.00644897,-0.00613727,0.0104306,-0.00301104,-0.995293,0.00814508,0.0429354,1266,344,2.22149,5.40735
49,680,2.1947,-5.36447,0,0,0,0,0,0,0,-1,1273,344,2.19473,5.36447
56,680,2.35876,-5.27072,0.0100785,0.00155231,0.00231438,0.0106662,0.000964597,0.248683,0.00681207,0.0391784,1280,344,2.35879,5.27073
63,680,2.41003,-5.26324,0.0153625,-5.87278e-05,0.00448339,0.0165712,-0.00126744,0.263337,0.0114933,0.0391862,1287,344,2.41009,5.26324
70,680,2.35889,-5.15472,0.0203654,-0.00255808,0.00487888,0.0213606,-0.00355326,0.201218,0.0155606,0.0391504,1294,344,2.35885,5.15472
77,680,2.39941,-5.07098,0.0234054,-0.00422454,0.00560772,0.0245002,-0.0053193,0.192798,0.0183652,0.0418531,1301,344,2.39946,5.07099
84,680,2.302,-4.72433,0.0257082,-0.00533241,0.00487684,0.0264564,-0.00608058,0.152227,0.0199754,0.0441598,1308,344,2.30197,4.72435
91,680,2.12903,-4.37601,0.0288009,-0.00686262,0.00197641,0.02891,-0.00697181,0.055193,0.0219692,0.0455176,1315,344,2.12906,4.37602
98,680,1.82361,-4.37906,0.0338974,-0.0068524,-0.00191104,0.0339868,-0.00694182,-0.0467602,0.0252914,0.0436758,1322,344,1.82356,4.37906
105,680,1.40125,-4.492,0.0371699,-0.00687856,-0.00688953,0.0382223,-0.00793099,-0.151586,0.0284955,0.0439172,1329,344,1.40127,4.492
112,680,0.699463,-4.61081,0.0400915,-0.00667457,-0.0120473,0.0430125,-0.0095956,-0.237873,0.0323514,0.0461578,1336,344,0.699457,4.61081
119,680,0.0611572,-4.76404,0.0423526,-0.00623308,-0.0167206,0.0475508,-0.0114312,-0.301412,0.036119,0.0445183,1343,344,0.0611335,4.76404
126,680,1.7583,-5.39493,0.0439863,-0.00580245,-0.0210943,0.0517217,-0.0135378,-0.351478,0.0397693,0.0389865,1350,344,1.75836,5.39493
133,680,1.79102,-4.87503,0.0460242,-0.00550243,-0.0241399,0.0555665,-0.0150447,-0.37644,0.0429468,0.0415872,1357,344,1.79098,4.87505
140,680,1.91296,-4.86163,0.0481166,-0.00551643,-0.0247131,0.0577674,-0.0151672,-0.372301,0.0444387,0.0448119,1364,344,1.91294,4.86165
147,680,1.86035,-5.03055,0.0501636,-0.00574532,-0.0233275,0.0586183,-0.0142,-0.347708,0.0445726,0.0440469,1371,344,1.86039,5.03054
154,680,1.86646,-5.13644,0,0,0,0,0,0,0,-1,1378,344,1.8664,5.13644
161,680,1.6532,-5.45993,0,0,0,0,0,0,0,-1,1385,344,1.6532,5.45993
168,680,6.85046,1.69257,0,0,0,0,0,0,0,-1,1392,344,6.85045,-1.69257
175,680,6.66541,0.942078,0,0,0,0,0,0,0,-1,1399,344,6.66538,-0.942088
182,680,6.52917,0.532379,0,0,0,0,0,0,0,-1,1406,344,6.52922,-0.532385
189,680,7.55884,4.77695,0,0,0,0,0,0,0,-1,1413,344,7.55886,-4.77694
196,680,6.55627,3.35254,0,0,0,0,0,0,0,-1,1420,344,6.55622,-3.35255
203,680,5.7334,1.90753,0,0,0,0,0,0,0,-1,1427,344,5.73341,-1.90754
210,680,5.27515,0.493622,0,0,0,0,0,0,0,-1,1434,344,5.27514,-0.493632
217,680,4.82068,-0.584351,0,0,0,0,0,0,0,-1,1441,344,4.82069,0.584353
224,680,0.981079,1.23859,0,0,0,0,0,0,0,-1,1448,344,0.981029,-1.2386
231,680,2.00574,0.0394287,0,0,0,0,0,0,0,-1,1455,344,2.00573,-0.0394303
238,680,2.56909,-0.169128,0,0,0,0,0,0,0,-1,1462,344,2.56908,0.169134
245,680,2.33093,0.650116,0,0,0,0,0,0,0,-1,1469,344,2.33098,-0.650114
252,680,2.3407,0.979828,0.118075,0.0771881,-0.123055,0.222374,-0.0271104,-0.703084,0.158063,0.0468632,1476,344,2.34074,-0.979816
259,680,2.87122,1.06512,0,0,0,0,0,0,0,-1,1483,344,2.87127,-1.06513
266,680,3.72766,1.2211,0.138557,0.0889417,-0.142537,0.258429,-0.0309304,-0.699239,0.183468,0.0452079,1490,344,3.72772,-1.2211
273,680,4.63696,0.815918,0.144602,0.0940727,-0.148085,0.269562,-0.0308875,-0.700907,0.190839,0.0445915,1497,344,4.637,-0.815932
280,680,0,0,0,0,0,0,0,0,0,-1,1504,344,0,0
287,680,0,0,0,0,0,0,0,0,0,-1,1511,344,0,0
294,680,0,0,0,0,0,0,0,0,0,-1,1518,344,0,0
301,680,0,0,0,0,0,0,0,0,0,-1,1525,344,0,0
308,680,0,0,0,0,0,0,0,0,0,-1,1532,344,0,0
315,680,0,0,0,0,0,0,0,0,0,-1,1539,344,0,0
322,680,0,0,0,0,0,0,0,0,0,-1,1546,344,0,0
329,680,0,0,0,0,0,0,0,0,0,-1,1553,344,0,0
336,680,0,0,0,0,0,0,0,0,0,-1,1560,344,0,0
343,680,0,0,0,0,0,0,0,0,0,-1,1567,344,0,0
350,680,0,0,0,0,0,0,0,0,0,-1,1574,344,0,0
357,680,0,0,0,0,0,0,0,0,0,-1,1581,344,0,0
364,680,0,0,0,0,0,0,0,0,0,-1,1588,344,0,0
371,680,0,0,0,0,0,0,0,0,0,-1,1595,344,0,0
378,680,0,0,0,0,0,0,0,0,0,-1,1602,344,0,0
385,680,0,0,0,0,0,0,0,0,0,-1,1609,344,0,0
392,680,0,0,0,0,0,0,0,0,0,-1,1616,344,0,0
399,680,0,0,0,0,0,0,0,0,0,-1,1623,344,0,0
406,680,0,0,0,0,0,0,0,0,0,-1,1630,344,0,0
413,680,0,0,0,0,0,0,0,0,0,-1,1637,344,0,0
420,680,0,0,0,0,0,0,0,0,0,-1,1644,344,0,0
427,680,0,0,0,0,0,0,0,0,0,-1,1651,344,0,0
434,680,0,0,0,0,0,0,0,0,0,-1,1658,344,0,0
441,680,0,0,0,0,0,0,0,0,0,-1,1665,344,0,0
448,680,0,0,0,0,0,0,0,0,0,-1,1672,344,0,0
455,680,0,0,0,0,0,0,0,0,0,-1,1679,344,0,0
462,680,0,0,0,0,0,0,0,0,0,-1,1686,344,0,0
469,680,0,0,0,0,0,0,0,0,0,-1,1693,344,0,0
476,680,0,0,0,0,0,0,0,0,0,-1,1700,344,0,0
483,680,0,0,0,0,0,0,0,0,0,-1,1707,344,0,0
490,680,0,0,0,0,0,0,0,0,0,-1,1714,344,0,0
497,680,0,0,0,0,0,0,0,0,0,-1,1721,344,0,0
504,680,0,0,0,0,0,0,0,0,0,-1,1728,344,0,0
511,680,0,0,0,0,0,0,0,0,0,-1,1735,344,0,0
518,680,0,0,0,0,0,0,0,0,0,-1,1742,344,0,0
525,680,0,0,0,0,0,0,0,0,0,-1,1749,344,0,0
532,680,0,0,0,0,0,0,0,0,0,-1,1756,344,0,0
539,680,0,0,0,0,0,0,0,0,0,-1,1763,344,0,0
546,680,0,0,0,0,0,0,0,0,0,-1,1770,344,0,0
553,680,0,0,0,0,0,0,0,0,0,-1,1777,344,0,0
560,680,0,0,0,0,0,0,0,0,0,-1,1784,344,0,0
567,680,0,0,0,0,0,0,0,0,0,-1,1791,344,0,0
574,680,0,0,0,0,0,0,0,0,0,-1,1798,344,0,0
581,680,0,0,0,0,0,0,0,0,0,-1,1805,344,0,0
588,680,0,0,0,0,0,0,0,0,0,-1,1812,344,0,0
595,680,0,0,0,0,0,0,0,0,0,-1,1819,344,0,0
602,680,0,0,0,0,0,0,0,0,0,-1,1826,344,0,0
609,680,0,0,0,0,0,0,0,0,0,-1,1833,344,0,0
616,680,0,0,0,0,0,0,0,0,0,-1,1840,344,0,0
623,680,0,0,0,0,0,0,0,0,0,-1,1847,344,0,0
630,680,0,0,0,0,0,0,0,0,0,-1,1854,344,0,0
637,680,0,0,0,0,0,0,0,0,0,-1,1861,344,0,0
644,680,0,0,0,0,0,0,0,0,0,-1,1868,344,0,0
651,680,0,0,0,0,0,0,0,0,0,-1,1875,344,0,0
658,680,0,0,0,0,0,0,0,0,0,-1,1882,344,0,0
665,680,0,0,0,0,0,0,0,0,0,-1,1889,344,0,0
672,680,0,0,0,0,0,0,0,0,0,-1,1896,344,0,0
679,680,0,0,0,0,0,0,0,0,0,-1,1903,344,0,0
686,680,0,0,0,0,0,0,0,0,0,-1,1910,344,0,0
693,680,0,0,0,0,0,0,0,0,0,-1,1917,344,0,0
700,680,0,0,0,0,0,0,0,0,0,-1,1924,344,0,0
707,680,0,0,0,0,0,0,0,0,0,-1,1931,344,0,0
714,680,0,0,0,0,0,0,0,0,0,-1,1938,344,0,0
721,680,0,0,0,0,0,0,0,0,0,-1,1945,344,0,0
728,680,0,0,0,0,0,0,0,0,0,-1,1952,344,0,0
735,680,0,0,0,0,0,0,0,0,0,-1,1959,344,0,0
742,680,0,0,0,0,0,0,0,0,0,-1,1966,344,0,0
749,680,0,0,0,0,0,0,0,0,0,-1,1973,344,0,0
756,680,0,0,0,0,0,0,0,0,0,-1,1980,344,0,0
763,680,0,0,0,0,0,0,0,0,0,-1,1987,344,0,0
770,680,0,0,0,0,0,0,0,0,0,-1,1994,344,0,0
777,680,0,0,0,0,0,0,0,0,0,-1,2001,344,0,0
784,680,0,0,0,0,0,0,0,0,0,-1,2008,344,0,0
791,680,0,0,0,0,0,0,0,0,0,-1,2015,344,0,0
798,680,0,0,0,0,0,0,0,0,0,-1,2022,344,0,0
805,680,0,0,0,0,0,0,0,0,0,-1,2029,344,0,0
812,680,0,0,0,0,0,0,0,0,0,-1,2036,344,0,0
-700,673,0,0,0,0,0,0,0,0,0,-1,524,351,0,0
-693,673,0,0,0,0,0,0,0,0,0,-1,531,351,0,0
-686,673,0,0,0,0,0,0,0,0,0,-1,538,351,0,0
-679,673,0,0,0,0,0,0,0,0,0,-1,545,351,0,0
-672,673,0,0,0,0,0,0,0,0,0,-1,552,351,0,0
-665,673,0,0,0,0,0,0,0,0,0,-1,559,351,0,0
-658,673,0,0,0,0,0,0,0,0,0,-1,566,351,0,0
-651,673,0,0,0,0,0,0,0,0,0,-1,573,351,0,0
-644,673,0,0,0,0,0,0,0,0,0,-1,580,351,0,0
-637,673,0,0,0,0,0,0,0,0,0,-1,587,351,0,0
-630,673,0,0,0,0,0,0,0,0,0,-1,594,351,0,0
-623,673,0,0,0,0,0,0,0,0,0,-1,601,351,0,0
-616,673,0,0,0,0,0,0,0,0,0,-1,608,351,0,0
-609,673,0,0,0,0,0,0,0,0,0,-1,615,351,0,0
-602,673,0,0,0,0,0,0,0,0,0,-1,622,351,0,0
-595,673,0,0,0,0,0,0,0,0,0,-1,629,351,0,0
-588,673,0,0,0,0,0,0,0,0,0,-1,636,351,0,0
-581,673,0,0,0,0,0,0,0,0,0,-1,643,351,0,0
-574,673,0,0,0,0,0,0,0,0,0,-1,650,351,0,0
-567,673,0,0,0,0,0,0,0,0,0,-1,657,351,0,0
-560,673,0,0,0,0,0,0,0,0,0,-1,664,351,0,0
-553,673,0,0,0,0,0,0,0,0,0,-1,671,351,0,0
-546,673,0,0,0,0,0,0,0,0,0,-1,678,351,0,0
-539,673,0,0,0,0,0,0,0,0,0,-1,685,351,0,0
-532,673,0,0,0,0,0,0,0,0,0,-1,692,351,0,0
-525,673,0,0,0,0,0,0,0,0,0,-1,699,351,0,0
-518,673,0,0,0,0,0,0,0,0,0,-1,706,351,0,0
-511,673,0,0,0,0,0,0,0,0,0,-1,713,351,0,0
-504,673,0,0,0,0,0,0,0,0,0,-1,720,351,0,0
-497,673,0,0,0,0,0,0,0,0,0,-1,727,351,0,0
-490,673,0,0,0,0,0,0,0,0,0,-1,734,351,0,0
-483,673,0,0,0,0,0,0,0,0,0,-1,741,351,0,0
-476,673,0,0,0,0,0,0,0,0,0,-1,748,351,0,0
-469,673,0,0,0,0,0,0,0,0,0,-1,755,351,0,0
-462,673,0,0,0,0,0,0,0,0,0,-1,762,351,0,0
-455,673,0,0,0,0,0,0,0,0,0,-1,769,351,0,0
-448,673,0,0,0,0,0,0,0,0,0,-1,776,351,0,0
-441,673,0,0,0,0,0,0,0,0,0,-1,783,351,0,0
-434,673,0,0,0,0,0,0,0,0,0,-1,790,351,0,0
-427,673,0,0,0,0,0,0,0,0,0,-1,797,351,0,0
-420,673,0,0,0,0,0,0,0,0,0,-1,804,351,0,0
-413,673,0,0,0,0,0,0,0,0,0,-1,811,351,0,0
-406,673,0,0,0,0,0,0,0,0,0,-1,818,351,0,0
-399,673,0,0,0,0,0,0,0,0,0,-1,825,351,0,0
-392,673,0,0,0,0,0,0,0,0,0,-1,832,351,0,0
-385,673,0,0,0,0,0,0,0,0,0,-1,839,351,0,0
-378,673,0,0,0,0,0,0,0,0,0,-1,846,351,0,0
-371,673,0,0,0,0,0,0,0,0,0,-1,853,351,0,0
-364,673,0,0,0,0,0,0,0,0,0,-1,860,351,0,0
-357,673,0,0,0,0,0,0,0,0,0,-1,867,351,0,0
-350,673,0,0,0,0,0,0,0,0,0,-1,874,351,0,0
-343,673,0,0,0,0,0,0,0,0,0,-1,881,351,0,0
-336,673,0,0,0,0,0,0,0,0,0,-1,888,351,0,0
-329,673,0,0,0,0,0,0,0,0,0,-1,895,351,0,0
-322,673,0,0,0,0,0,0,0,0,0,-1,902,351,0,0
-315,673,0,0,0,0,0,0,0,0,0,-1,909,351,0,0
-308,673,0,0,0,0,0,0,0,0,0,-1,916,351,0,0
-301,673,0,0,0,0,0,0,0,0,0,-1,923,351,0,0
-294,673,0,0,0,0,0,0,0,0,0,-1,930,351,0,0
-287,673,0,0,0,0,0,0,0,0,0,-1,937,351,0,0
-280,673,0,0,0,0,0,0,0,0,0,-1,944,351,0,0
-273,673,0,0,0,0,0,0,0,0,0,-1,951,351,0,0
-266,673,0,0,0,0,0,0,0,0,0,-1,958,351,0,0
-259,673,0,0,0,0,0,0,0,0,0,-1,965,351,0,0
-252,673,0,0,0,0,0,0,0,0,0,-1,972,351,0,0
-245,673,0,0,0,0,0,0,0,0,0,-1,979,351,0,0
-238,673,0,0,0,0,0,0,0,0,0,-1,986,351,0,0
-231,673,0,0,0,0,0,0,0,0,0,-1,993,351,0,0
-224,673,0,0,0,0,0,0,0,0,0,-1,1000,351,0,0
-217,673,0,0,0,0,0,0,0,0,0,-1,1007,351,0,0
-210,673,0,0,0,0,0,0,0,0,0,-1,1014,351,0,0
-203,673,0,0,0,0,0,0,0,0,0,-1,1021,351,0,0
-196,673,0,0,0,0,0,0,0,0,0,-1,1028,351,0,0
-189,673,0,0,0,0,0,0,0,0,0,-1,1035,351,0,0
-182,673,0,0,0,0,0,0,0,0,0,-1,1042,351,0,0
-175,673,1.52429,-4.53268,0,0,0,0,0,0,0,-1,1049,351,1.52435,4.53269
-168,673,0.981812,-4.26868,0,0,0,0,0,0,0,-1,1056,351,0.981863,4.26868
-161,673,0.282959,-4.1362,0,0,0,0,0,0,0,-1,1063,351,0.282931,4.13621
-154,673,1.05261,-5.18158,0,0,0,0,0,0,0,-1,1070,351,1.05263,5.18157
-147,673,0.711182,-5.44016,-0.0153674,-0.0355065,-0.00494605,-0.0142183,-0.0366557,-0.228287,0.0213397,0.0481073,1077,351,0.711194,5.44016
-140,673,0.411133,-5.37802,-0.0183162,-0.0340536,0.00196152,-0.0180754,-0.0342944,0.122151,0.0198096,0.0459101,1084,351,0.411131,5.37801
-133,673,-0.0162354,-5.41711,0,0,0,0,0,0,0,-1,1091,351,-0.0161908,5.4171
-126,673,-0.645386,-4.77216,0,0,0,0,0,0,0,-1,1098,351,-0.645338,4.77217
-119,673,2.11133,-5.15442,0,0,0,0,0,0,0,-1,1105,351,2.11135,5.15442
-112,673,2.17908,-5.05948,0,0,0,0,0,0,0,-1,1112,351,2.17903,5.05949
-105,673,2.5321,-5.28848,0,0,0,0,0,0,0,-1,1119,351,2.53211,5.28848
-98,673,2.28833,-4.95035,0,0,0,0,0,0,0,-1,1126,351,2.28829,4.95036
-91,673,2.62903,-4.76193,0,0,0,0,0,0,0,-1,1133,351,2.62901,4.76193
-84,673,2.87012,-4.7345,0,0,0,0,0,0,0,-1,1140,351,2.87009,4.7345
-77,673,2.66382,-4.67221,0,0,0,0,0,0,0,-1,1147,351,2.6638,4.6722
-70,673,1.89136,-4.15091,0,0,0,0,0,0,0,-1,1154,351,1.89137,4.1509
-63,673,1.11719,-2.95016,0,0,0,0,0,0,0,-1,1161,351,1.11724,2.95016
-56,673,-0.416016,-0.689301,0,0,0,0,0,0,0,-1,1168,351,-0.416043,0.689298
-49,673,-0.926758,-0.115448,0,0,0,0,0,0,0,-1,1175,351,-0.926732,0.115444
-42,673,-1.15015,0.289917,0,0,0,0,0,0,0,-1,1182,351,-1.15017,-0.289932
-35,673,-0.919556,-1.00711,0,0,0,0,0,0,0,-1,1189,351,-0.919514,1.00711
-28,673,1.03564,-2.58228,0,0,0,0,0,0,0,-1,1196,351,1.0356,2.58229
-21,673,2.34094,-5.17786,0,0,0,0,0,0,0,-1,1203,351,2.34093,5.17786
-14,673,2.52795,-5.35748,-0.00979503,0.00320141,-0.00623978,0.00571217,-0.0123058,-1.18824,0.0106323,0.0458491,1210,351,2.52792,5.35749
-7,673,2.58032,-5.36182,-0.00929558,0.00397993,-0.00764336,0.00746545,-0.0127811,-1.14295,0.0118229,0.0436883,1217,351,2.58034,5.36182
0,673,2.45264,-5.28345,-0.00837352,0.00504372,-0.00892984,0.00950415,-0.0128339,-1.10755,0.0129446,0.0447381,1224,351,2.45261,5.28344
7,673,2.40759,-5.29214,-0.00713781,0.00586035,-0.00990534,0.0112084,-0.0124858,-1.07573,0.0136865,0.0436627,1231,351,2.40763,5.29213
14,673,2.32617,-5.28415,-0.00550721,0.0063057,-0.010924,0.0128178,-0.0120193,-1.03323,0.0143422,0.0372101,1238,351,2.3262,5.28415
21,673,2.33813,-5.31006,-0.00346336,0.00645923,-0.0107935,0.0133771,-0.0103812,-1.00083,0.0137532,0.023968,1245,351,2.33819,5.31006
28,673,2.32495,-5.28177,-0.00151073,0.00579491,-0.00897158,0.0118288,-0.00754462,-0.978728,0.011276,0.0166443,1252,351,2.32495,5.28176
35,673,2.32104,-5.30783,-8.719e-05,0.00490972,-0.00630727,0.00919536,-0.00437283,-0.973978,0.00799683,0.0231526,1259,351,2.32108,5.30784
42,673,2.30054,-5.31601,0.000398293,0.00464292,-0.00330156,0.00644547,-0.00140425,-1.07105,0.00483354,0.027148,1266,351,2.30057,5.316
49,673,2.26514,-5.29263,0.00298142,0.00326989,-0.00152306,0.00465553,0.00159578,-0.832608,0.00273181,0.0173143,1273,351,2.26515,5.29262
56,673,2.25476,-5.2923,0.00637854,0.00192284,0.00266231,0.00762218,0.000679199,0.437005,0.00487087,0.0140377,1280,351,2.25479,5.2923
63,673,2.25415,-5.27469,0.00991485,0.00117157,0.00414177,0.0115653,-0.000478873,0.379202,0.00787467,0.0170347,1287,351,2.25417,5.27469
70,673,2.22681,-5.21954,0.0132706,-0.000264111,0.0043246,0.0145344,-0.0015279,0.284315,0.010237,0.0268105,1294,351,2.22683,5.21955
77,673,2.19934,-5.24997,0.0152063,-0.00113897,0.00462327,0.0164234,-0.00235605,0.257409,0.0118128,0.0352382,1301,351,2.19938,5.24997
84,673,2.17908,-4.98761,0.0167362,-0.00162727,0.00378017,0.0174839,-0.00237499,0.195278,0.0125229,0.0391344,1308,351,2.1791,4.98762
91,673,2.37695,-4.95203,0.0189984,-0.00245622,0.00120074,0.0190654,-0.00252321,0.0557346,0.0136294,0.043403,1315,351,2.37695,4.95203
98,673,2.51111,-4.9361,0.0227569,-0.00229311,-0.00200048,0.0229156,-0.00245186,-0.0791905,0.0161565,0.043818,1322,351,2.51108,4.93611
105,673,1.15247,-4.20419,0,0,0,0,0,0,0,-1,1329,351,1.15253,4.20419
112,673,1.23425,-4.98947,0.0275975,-0.00214148,-0.0100022,0.0306486,-0.00519255,-0.296073,0.0223651,0.0416502,1336,351,1.23423,4.98948
119,673,2.26343,-5.16306,0.0296332,-0.0019404,-0.0136542,0.0347189,-0.00702608,-0.356545,0.0258087,0.0396096,1343,351,2.26348,5.16306
126,673,2.0415,-5.28174,0.0312812,-0.00178953,-0.0170285,0.0384817,-0.00898999,-0.400045,0.0291175,0.0354962,1350,351,2.04147,5.28173
133,673,1.9856,-5.20059,0.0331687,-0.00170772,-0.01945,0.0418531,-0.0103921,-0.41994,0.0319348,0.0371313,1357,351,1.98563,5.20059
140,673,2.15479,-5.12286,0.0350008,-0.00191306,-0.0201062,0.0438371,-0.0107493,-0.414071,0.0333897,0.0392475,1364,351,2.15481,5.12287
147,673,2.01599,-5.14789,0.0366735,-0.00234296,-0.0193095,0.0446139,-0.0102834,-0.390139,0.0336976,0.0392907,1371,351,2.01599,5.14787
154,673,1.94348,-5.06369,0.0363114,-0.00207381,-0.0166316,0.042515,-0.00827741,-0.357016,0.0314674,0.0390388,1378,351,1.94351,5.06369
161,673,1.94592,-4.9978,0,0,0,0,0,0,0,-1,1385,351,1.94598,4.99779
168,673,6.87061,1.83954,0,0,0,0,0,0,0,-1,1392,351,6.87063,-1.83953
175,673,6.6228,1.1459,0,0,0,0,0,0,0,-1,1399,351,6.62276,-1.14591
182,673,6.37244,0.796112,0,0,0,0,0,0,0,-1,1406,351,6.3724,-0.796102
189,673,6.12097,0.265472,0,0,0,0,0,0,0,-1,1413,351,6.121,-0.265482
196,673,6.02173,3.12717,0,0,0,0,0,0,0,-1,1420,351,6.02176,-3.12717
203,673,5.04456,1.6351,0,0,0,0,0,0,0,-1,1427,351,5.04455,-1.63509
210,673,4.79224,0.447479,0,0,0,0,0,0,0,-1,1434,351,4.79229,-0.447469
217,673,0.815918,0.830994,0,0,0,0,0,0,0,-1,1441,351,0.815877,-0.831003
224,673,1.86133,0.285461,0,0,0,0,0,0,0,-1,1448,351,1.86137,-0.285474
231,673,2.75854,-0.48526,0,0,0,0,0,0,0,-1,1455,351,2.75856,0.48525
238,673,3.12769,-0.776917,0,0,0,0,0,0,0,-1,1462,351,3.12769,0.776912
245,673,3.14648,-0.376709,0,0,0,0,0,0,0,-1,1469,351,3.14653,0.376697
252,673,3.44519,0.359406,0,0,0,0,0,0,0,-1,1476,351,3.44523,-0.359416
259,673,3.8075,1.05298,0,0,0,0,0,0,0,-1,1483,351,3.80754,-1.05298
266,673,5.13818,0.939301,0.108005,0.0698526,-0.109235,0.199817,-0.0219597,-0.698954,0.141102,0.0423578,1490,351,5.13816,-0.939293
273,673,6.07886,0.385895,0.11322,0.0744968,-0.113721,0.209216,-0.021499,-0.701078,0.147168,0.0412576,1497,351,6.0789,-0.385906
280,673,6.97534,-0.0820007,0.115552,0.0790623,-0.11554,0.214279,-0.0196651,-0.707091,0.149839,0.0416985,1504,351,6.97536,0.0820122
287,673,7.66968,-0.348541,0.114933,0.0838967,-0.115127,0.215584,-0.0167536,-0.718405,0.14962,0.0451876,1511,351,7.66969,0.348534
294,673,8.20996,0.28537,0,0,0,0,0,0,0,-1,1518,351,8.20993,-0.28536
301,673,0,0,0,0,0,0,0,0,0,-1,1525,351,0,0
308,673,0,0,0,0,0,0,0,0,0,-1,1532,351,0,0
315,673,0,0,0,0,0,0,0,0,0,-1,1539,351,0,0
322,673,0,0,0,0,0,0,0,0,0,-1,1546,351,0,0
329,673,0,0,0,0,0,0,0,0,0,-1,1553,351,0,0
336,673,0,0,0,0,0,0,0,0,0,-1,1560,351,0,0
343,673,0,0,0,0,0,0,0,0,0,-1,1567,351,0,0
350,673,0,0,0,0,0,0,0,0,0,-1,1574,351,0,0
357,673,0,0,0,0,0,0,0,0,0,-1,1581,351,0,0
364,673,0,0,0,0,0,0,0,0,0,-1,1588,351,0,0
371,673,0,0,0,0,0,0,0,0,0,-1,1595,351,0,0
378,673,0,0,0,0,0,0,0,0,0,-1,1602,351,0,0
385,673,0,0,0,0,0,0,0,0,0,-1,1609,351,0,0
392,673,0,0,0,0,0,0,0,0,0,-1,1616,351,0,0
399,673,0,0,0,0,0,0,0,0,0,-1,1623,351,0,0
406,673,0,0,0,0,0,0,0,0,0,-1,1630,351,0,0
413,673,0,0,0,0,0,0,0,0,0,-1,1637,351,0,0
420,673,0,0,0,0,0,0,0,0,0,-1,1644,351,0,0
427,673,0,0,0,0,0,0,0,0,0,-1,1651,351,0,0
434,673,0,0,0,0,0,0,0,0,0,-1,1658,351,0,0
441,673,0,0,0,0,0,0,0,0,0,-1,1665,351,0,0
448,673,0,0,0,0,0,0,0,0,0,-1,1672,351,0,0
455,673,0,0,0,0,0,0,0,0,0,-1,1679,351,0,0
462,673,0,0,0,0,0,0,0,0,0,-1,1686,351,0,0
469,673,0,0,0,0,0,0,0,0,0,-1,1693,351,0,0
476,673,0,0,0,0,0,0,0,0,0,-1,1700,351,0,0
483,673,0,0,0,0,0,0,0,0,0,-1,1707,351,0,0
490,673,0,0,0,0,0,0,0,0,0,-1,1714,351,0,0
497,673,0,0,0,0,0,0,0,0,0,-1,1721,351,0,0
504,673,0,0,0,0,0,0,0,0,0,-1,1728,351,0,0
511,673,0,0,0,0,0,0,0,0,0,-1,1735,351,0,0
518,673,0,0,0,0,0,0,0,0,0,-1,1742,351,0,0
525,673,0,0,0,0,0,0,0,0,0,-1,1749,351,0,0
532,673,0,0,0,0,0,0,0,0,0,-1,1756,351,0,0
539,673,0,0,0,0,0,0,0,0,0,-1,1763,351,0,0
546,673,0,0,0,0,0,0,0,0,0,-1,1770,351,0,0
553,673,0,0,0,0,0,0,0,0,0,-1,1777,351,0,0
560,673,0,0,0,0,0,0,0,0,0,-1,1784,351,0,0
567,673,0,0,0,0,0,0,0,0,0,-1,1791,351,0,0
574,673,0,0,0,0,0,0,0,0,0,-1,1798,351,0,0
581,673,0,0,0,0,0,0,0,0,0,-1,1805,351,0,0
588,673,0,0,0,0,0,0,0,0,0,-1,1812,351,0,0
595,673,0,0,0,0,0,0,0,0,0,-1,1819,351,0,0
602,673,0,0,0,0,0,0,0,0,0,-1,1826,351,0,0
609,673,0,0,0,0,0,0,0,0,0,-1,1833,351,0,0
616,673,0,0,0,0,0,0,0,0,0,-1,1840,351,0,0
623,673,0,0,0,0,0,0,0,0,0,-1,1847,351,0,0
630,673,0,0,0,0,0,0,0,0,0,-1,1854,351,0,0
637,673,0,0,0,0,0,0,0,0,0,-1,1861,351,0,0
644,673,0,0,0,0,0,0,0,0,0,-1,1868,351,0,0
651,673,0,0,0,0,0,0,0,0,0,-1,1875,351,0,0
658,673,0,0,0,0,0,0,0,0,0,-1,1882,351,0,0
665,673,0,0,0,0,0,0,0,0,0,-1,1889,351,0,0
672,673,0,0,0,0,0,0,0,0,0,-1,1896,351,0,0
679,673,0,0,0,0,0,0,0,0,0,-1,1903,351,0,0
686,673,0,0,0,0,0,0,0,0,0,-1,1910,351,0,0
693,673,0,0,0,0,0,0,0,0,0,-1,1917,351,0,0
700,673,0,0,0,0,0,0,0,0,0,-1,1924,351,0,0
707,673,0,0,0,0,0,0,0,0,0,-1,1931,351,0,0
714,673,0,0,0,0,0,0,0,0,0,-1,1938,351,0,0
721,673,0,0,0,0,0,0,0,0,0,-1,1945,351,0,0
728,673,0,0,0,0,0,0,0,0,0,-1,1952,351,0,0
735,673,0,0,0,0,0,0,0,0,0,-1,1959,351,0,0
742,673,0,0,0,0,0,0,0,0,0,-1,1966,351,0,0
749,673,0,0,0,0,0,0,0,0,0,-1,1973,351,0,0
756,673,0,0,0,0,0,0,0,0,0,-1,1980,351,0,0
763,673,0,0,0,0,0,0,0,0,0,-1,1987,351,0,0
770,673,0,0,0,0,0,0,0,0,0,-1,1994,351,0,0
777,673,0,0,0,0,0,0,0,0,0,-1,2001,351,0,0
784,673,0,0,0,0,0,0,0,0,0,-1,2008,351,0,0
791,673,0,0,0,0,0,0,0,0,0,-1,2015,351,0,0
798,673,0,0,0,0,0,0,0,0,0,-1,2022,351,0,0
805,673,0,0,0,0,0,0,0,0,0,-1,2029,351,0,0
812,673,0,0,0,0,0,0,0,0,0,-1,2036,351,0,0
-700,666,0,0,0,0,0,0,0,0,0,-1,524,358,0,0
-693,666,0,0,0,0,0,0,0,0,0,-1,531,358,0,0
-686,666,0,0,0,0,0,0,0,0,0,-1,538,358,0,0
-679,666,0,0,0,0,0,0,0,0,0,-1,545,358,0,0
-672,666,0,0,0,0,0,0,0,0,0,-1,552,358,0,0
-665,666,0,0,0,0,0,0,0,0,0,-1,559,358,0,0
-658,666,0,0,0,0,0,0,0,0,0,-1,566,358,0,0
-651,666,0,0,0,0,0,0,0,0,0,-1,573,358,0,0
-644,666,0,0,0,0,0,0,0,0,0,-1,580,358,0,0
-637,666,0,0,0,0,0,0,0,0,0,-1,587,358,0,0
-630,666,0,0,0,0,0,0,0,0,0,-1,594,358,0,0
-623,666,0,0,0,0,0,0,0,0,0,-1,601,358,0,0
-616,666,0,0,0,0,0,0,0,0,0,-1,608,358,0,0
-609,666,0,0,0,0,0,0,0,0,0,-1,615,358,0,0
-602,666,0,0,0,0,0,0,0,0,0,-1,622,358,0,0
-595,666,0,0,0,0,0,0,0,0,0,-1,629,358,0,0
-588,666,0,0,0,0,0,0,0,0,0,-1,636,358,0,0
-581,666,0,0,0,0,0,0,0,0,0,-1,643,358,0,0
-574,666,0,0,0,0,0,0,0,0,0,-1,650,358,0,0
-567,666,0,0,0,0,0,0,0,0,0,-1,657,358,0,0
-560,666,0,0,0,0,0,0,0,0,0,-1,664,358,0,0
-553,666,0,0,0,0,0,0,0,0,0,-1,671,358,0,0
-546,666,0,0,0,0,0,0,0,0,0,-1,678,358,0,0
-539,666,0,0,0,0,0,0,0,0,0,-1,685,358,0,0
-532,666,0,0,0,0,0,0,0,0,0,-1,692,358,0,0
-525,666,0,0,0,0,0,0,0,0,0,-1,699,358,0,0
-518,666,0,0,0,0,0,0,0,0,0,-1,706,358,0,0
-511,666,0,0,0,0,0,0,0,0,0,-1,713,358,0,0
-504,666,0,0,0,0,0,0,0,0,0,-1,720,358,0,0
-497,666,0,0,0,0,0,0,0,0,0,-1,727,358,0,0
-490,666,0,0,0,0,0,0,0,0,0,-1,734,358,0,0
-483,666,0,0,0,0,0,0,0,0,0,-1,741,358,0,0
-476,666,0,0,0,0,0,0,0,0,0,-1,748,358,0,0
-469,666,0,0,0,0,0,0,0,0,0,-1,755,358,0,0
-462,666,0,0,0,0,0,0,0,0,0,-1,762,358,0,0
-455,666,0,0,0,0,0,0,0,0,0,-1,769,358,0,0
-448,666,0,0,0,0,0,0,0,0,0,-1,776,358,0,0
-441,666,0,0,0,0,0,0,0,0,0,-1,783,358,0,0
-434,666,0,0,0,0,0,0,0,0,0,-1,790,358,0,0
-427,666,0,0,0,0,0,0,0,0,0,-1,797,358,0,0
-420,666,0,0,0,0,0,0,0,0,0,-1,804,358,0,0
-413,666,0,0,0,0,0,0,0,0,0,-1,811,358,0,0
-406,666,0,0,0,0,0,0,0,0,0,-1,818,358,0,0
-399,666,0,0,0,0,0,0,0,0,0,-1,825,358,0,0
-392,666,0,0,0,0,0,0,0,0,0,-1,832,358,0,0
-385,666,0,0,0,0,0,0,0,0,0,-1,839,358,0,0
-378,666,0,0,0,0,0,0,0,0,0,-1,846,358,0,0
-371,666,0,0,0,0,0,0,0,0,0,-1,853,358,0,0
-364,666,0,0,0,0,0,0,0,0,0,-1,860,358,0,0
-357,666,0,0,0,0,0,0,0,0,0,-1,867,358,0,0
-350,666,0,0,0,0,0,0,0,0,0,-1,874,358,0,0
-343,666,0,0,0,0,0,0,0,0,0,-1,881,358,0,0
-336,666,0,0,0,0,0,0,0,0,0,-1,888,358,0,0
-329,666,0,0,0,0,0,0,0,0,0,-1,895,358,0,0
-322,666,0,0,0,0,0,0,0,0,0,-1,902,358,0,0
-315,666,0,0,0,0,0,0,0,0,0,-1,909,358,0,0
-308,666,0,0,0,0,0,0,0,0,0,-1,916,358,0,0
-301,666,0,0,0,0,0,0,0,0,0,-1,923,358,0,0
-294,666,0,0,0,0,0,0,0,0,0,-1,930,358,0,0
-287,666,0,0,0,0,0,0,0,0,0,-1,937,358,0,0
-280,666,0,0,0,0,0,0,0,0,0,-1,944,358,0,0
-273,666,0,0,0,0,0,0,0,0,0,-1,951,358,0,0
-266,666,0,0,0,0,0,0,0,0,0,-1,958,358,0,0
-259,666,0,0,0,0,0,0,0,0,0,-1,965,358,0,0
-252,666,0,0,0,0,0,0,0,0,0,-1,972,358,0,0
-245,666,0,0,0,0,0,0,0,0,0,-1,979,358,0,0
-238,666,0,0,0,0,0,0,0,0,0,-1,986,358,0,0
-231,666,0,0,0,0,0,0,0,0,0,-1,993,358,0,0
-224,666,0,0,0,0,0,0,0,0,0,-1,1000,358,0,0
-217,666,0,0,0,0,0,0,0,0,0,-1,1007,358,0,0
-210,666,0,0,0,0,0,0,0,0,0,-1,1014,358,0,0
-203,666,0,0,0,0,0,0,0,0,0,-1,1021,358,0,0
-196,666,1.5387,-4.68234,0,0,0,0,0,0,0,-1,1028,358,1.53864,4.68233
-189,666,1.87915,-4.69901,0,0,0,0,0,0,0,-1,1035,358,1.87909,4.69902
-182,666,1.51025,-4.99417,0,0,0,0,0,0,0,-1,1042,358,1.5103,4.99416
-175,666,1.1864,-5.0054,0,0,0,0,0,0,0,-1,1049,358,1.18636,5.00539
-168,666,4.62891,-6.07175,0,0,0,0,0,0,0,-1,1056,358,4.62888,6.07174
-161,666,-0.22998,-4.99857,0,0,0,0,0,0,0,-1,1063,358,-0.230024,4.99855
-154,666,1.53113,-5.16849,0,0,0,0,0,0,0,-1,1070,358,1.5311,5.16848
-147,666,1.13342,-5.32245,-0.0117372,-0.0277564,-0.00756458,-0.00872971,-0.0307639,-0.378416,0.0183068,0.0496222,1077,358,1.13344,5.32244
-140,666,0.96106,-5.34268,-0.0139431,-0.026013,-0.00239101,-0.0134867,-0.0264694,-0.18861,0.015283,0.047698,1084,358,0.96101,5.34269
-133,666,0.731079,-5.17438,0,0,0,0,0,0,0,-1,1091,358,0.731088,5.17438
-126,666,0.27771,-5.12131,0,0,0,0,0,0,0,-1,1098,358,0.277724,5.1213
-119,666,2.56848,-4.70709,0,0,0,0,0,0,0,-1,1105,358,2.56842,4.7071
-112,666,2.28931,-4.76572,-0.00435853,-0.0209543,0.014846,0.00435121,-0.0296641,0.530561,0.0213746,0.0430528,1112,358,2.28928,4.7657
-105,666,2.51733,-5.18826,-0.00295625,-0.0196885,0.0177437,0.00829473,-0.0309395,0.565104,0.0238764,0.0433591,1119,358,2.51731,5.18828
-98,666,2.30188,-5.0148,-0.00196187,-0.018122,0.0199249,0.011459,-0.0315429,0.592767,0.0257139,0.0463033,1126,358,2.30192,5.0148
-91,666,2.51587,-5.00623,-0.00132874,-0.0168275,0.0215333,0.0138072,-0.0319634,0.612674,0.0271098,0.0454743,1133,358,2.51587,5.00622
-84,666,2.68787,-4.95599,-0.00132323,-0.0157235,0.0217319,0.0143702,-0.0314169,0.625431,0.027039,0.0425436,1140,358,2.68791,4.95599
-77,666,2.55371,-4.91766,-0.0018115,-0.0141745,0.0202058,0.0131372,-0.0291231,0.636955,0.0249741,0.0401362,1147,358,2.55377,4.91768
-70,666,2.32556,-4.86676,0,0,0,0,0,0,0,-1,1154,358,2.32557,4.86676
-63,666,1.47485,-3.79593,0,0,0,0,0,0,0,-1,1161,358,1.47481,3.79593
-56,666,0.424683,-2.04132,0,0,0,0,0,0,0,-1,1168,358,0.424665,2.04132
-49,666,0.754395,-2.23169,0,0,0,0,0,0,0,-1,1175,358,0.754383,2.23169
-42,666,1.34473,-3.53897,0,0,0,0,0,0,0,-1,1182,358,1.34476,3.53896
-35,666,2.10925,-5.33652,0,0,0,0,0,0,0,-1,1189,358,2.10921,5.3365
-28,666,2.29907,-5.27905,0,0,0,0,0,0,0,-1,1196,358,2.29908,5.27904
-21,666,2.32971,-5.19543,-0.00791582,-0.000304008,-0.00220427,0.000288236,-0.00850807,-1.30831,0.00577052,0.0297415,1203,358,2.32968,5.19543
-14,666,2.31665,-5.2066,-0.00613698,0.00127478,-0.00312373,0.00241568,-0.00727787,-1.22061,0.00582652,0.0244858,1210,358,2.31668,5.2066
-7,666,2.32605,-5.23386,-0.00600612,0.00180843,-0.0041387,0.00359287,-0.00779056,-1.16372,0.00671953,0.0171311,1217,358,2.3261,5.23384
0,666,2.34021,-5.24585,-0.00555636,0.00258249,-0.00512014,0.00505341,-0.00802728,-1.12118,0.00761692,0.0120819,1224,358,2.34023,5.24585
7,666,2.28638,-5.27097,-0.00483999,0.00322009,-0.00587338,0.0063131,-0.007933,-1.08608,0.00824269,0.0150551,1231,358,2.28634,5.27096
14,666,2.27246,-5.27164,-0.00382076,0.00362405,-0.00665324,0.00752542,-0.00772213,-1.04045,0.00880342,0.0141448,1238,358,2.2725,5.27163
21,666,2.28064,-5.27222,-0.00249927,0.00384081,-0.00662364,0.00801392,-0.00667238,-1.00859,0.00849092,0.0106176,1245,358,2.28058,5.27221
28,666,2.27966,-5.28418,-0.00119826,0.00350562,-0.00542041,0.00706235,-0.004755,-0.990092,0.00686597,0.0108748,1252,358,2.27964,5.28418
35,666,2.30542,-5.26822,-0.000253943,0.00311822,-0.00359446,0.0054024,-0.00253813,-1.0047,0.00468283,0.00972301,1259,358,2.30542,5.26823
42,666,2.29199,-5.27243,3.2527e-05,0.0032644,-0.00154384,0.00388335,-0.000586419,-1.1895,0.00280488,0.0116682,1266,358,2.29199,5.27244
49,666,2.24817,-5.28738,0.00169105,0.00266138,-0.000327207,0.0027614,0.00159103,-1.27412,0.00160045,0.0106553,1273,358,2.24818,5.28738
56,666,2.24719,-5.29019,0.00379979,0.00197054,0.00252867,0.00557417,0.000196167,0.611867,0.00365248,0.0119376,1280,358,2.24719,5.29019
63,666,2.24878,-5.29636,0.00609921,0.00175873,0.00349497,0.00804294,-0.000185,0.507553,0.00542468,0.0136901,1287,358,2.2488,5.29635
70,666,2.2428,-5.28741,0.00829586,0.00104715,0.00353355,0.00973331,-0.000390302,0.386357,0.00662281,0.0139188,1294,358,2.24274,5.2874
77,666,2.224,-5.28043,0.00950221,0.000687619,0.00356226,0.0107618,-0.000572,0.33988,0.00737262,0.0160602,1301,358,2.22401,5.28041
84,666,2.19202,-5.28717,0.0105235,0.000588025,0.00272397,0.0112213,-0.000109785,0.250781,0.00751773,0.0212289,1308,358,2.19207,5.28717
91,666,2.23413,-5.27515,0.0121693,0.00022162,0.000558846,0.0121954,0.000195537,0.0466386,0.00806588,0.0212613,1315,358,2.23408,5.27515
98,666,2.22009,-5.25275,0.0148886,0.000447981,-0.00197857,0.0151548,0.000181797,-0.133731,0.0100432,0.0174964,1322,358,2.2201,5.25274
105,666,2.19543,-5.21948,0.0166976,0.000519234,-0.00500112,0.0181188,-0.000901895,-0.276864,0.0123908,0.0185132,1329,358,2.19549,5.2195
112,666,2.23132,-5.1904,0.0185392,0.000581902,-0.00806684,0.0216308,-0.00250966,-0.365978,0.0153257,0.0236562,1336,358,2.23135,5.19038
119,666,2.26404,-5.15503,0.0202075,0.000646102,-0.010813,0.0250071,-0.00415344,-0.417742,0.0182144,0.0239903,1343,358,2.26405,5.15502
126,666,2.22278,-5.12314,0.0216202,0.000637549,-0.0133113,0.0280776,-0.0058198,-0.45166,0.0209298,0.023266,1350,358,2.22278,5.12315
133,666,2.16809,-5.10416,0.02314,0.000589857,-0.0151241,0.0307293,-0.00699943,-0.465089,0.0231744,0.02169,1357,358,2.16814,5.10417
140,666,2.18958,-5.14731,0.02453,0.000276013,-0.0156885,0.0322321,-0.00742609,-0.456373,0.024344,0.0208614,1364,358,2.18959,5.14731
147,666,2.16309,-5.11542,0.0256957,-0.000247391,-0.0151687,0.0326829,-0.00723453,-0.431659,0.0245579,0.0199969,1371,358,2.16305,5.11542
154,666,2.11841,-5.06268,0.0252102,-0.000187568,-0.0131648,0.0308027,-0.00578004,-0.401705,0.0227083,0.0174041,1378,358,2.11845,5.06269
161,666,2.15564,-5.06699,0.0232927,-0.000828811,-0.0122445,0.0284188,-0.00595495,-0.396479,0.0212114,0.0240138,1385,358,2.1557,5.06698
168,666,2.18445,-5.07294,0,0,0,0,0,0,0,-1,1392,358,2.18443,5.07293
175,666,2.34558,-5.2493,0,0,0,0,0,0,0,-1,1399,358,2.34559,5.24931
182,666,2.60876,-5.17068,0,0,0,0,0,0,0,-1,1406,358,2.6088,5.17068
189,666,2.51367,-4.96219,0,0,0,0,0,0,0,-1,1413,358,2.51366,4.96218
196,666,2.33508,-4.6741,0,0,0,0,0,0,0,-1,1420,358,2.33509,4.67411
203,666,2.28064,-3.88004,0,0,0,0,0,0,0,-1,1427,358,2.28059,3.88003
210,666,3.06616,-5.19147,0,0,0,0,0,0,0,-1,1434,358,3.06617,5.19146
217,666,2.11218,-4.71112,0,0,0,0,0,0,0,-1,1441,358,2.11221,4.71112
224,666,2.00708,-4.58511,0,0,0,0,0,0,0,-1,1448,358,2.00703,4.58511
231,666,1.8042,-4.23956,0,0,0,0,0,0,0,-1,1455,358,1.80416,4.23956
238,666,3.68628,-1.3847,0,0,0,0,0,0,0,-1,1462,358,3.68631,1.38469
245,666,3.96204,-1.4035,0,0,0,0,0,0,0,-1,1469,358,3.96208,1.40351
252,666,4.51208,-0.216736,0,0,0,0,0,0,0,-1,1476,358,4.51209,0.216745
259,666,5.03125,1.55597,0,0,0,0,0,0,0,-1,1483,358,5.03124,-1.55598
266,666,6.14148,0.749512,0.0814892,0.053526,-0.0809285,0.149635,-0.0146198,-0.69986,0.10497,0.0446517,1490,358,6.14144,-0.749519
273,666,7.27856,-0.0577087,0.0859487,0.0576761,-0.0845498,0.157536,-0.013911,-0.702567,0.109955,0.0428887,1497,358,7.27851,0.0577204
280,666,8.70898,-0.836975,0.0879882,0.0616822,-0.0859553,0.161791,-0.0121206,-0.709476,0.11212,0.0392584,1504,358,8.70894,0.836988
287,666,9.13269,-0.792969,0.0875878,0.0656791,-0.0855764,0.162908,-0.0096412,-0.721741,0.111958,0.0437391,1511,358,9.13274,0.792964
294,666,9.87,-1.10745,0,0,0,0,0,0,0,-1,1518,358,9.87,1.10745
301,666,2.8064,-3.51654,0,0,0,0,0,0,0,-1,1525,358,2.80635,3.51654
308,666,1.08496,-1.87576,0,0,0,0,0,0,0,-1,1532,358,1.08491,1.87575
315,666,1.76294,-0.284027,0,0,0,0,0,0,0,-1,1539,358,1.76291,0.284016
322,666,0,0,0,0,0,0,0,0,0,-1,1546,358,0,0
329,666,0,0,0,0,0,0,0,0,0,-1,1553,358,0,0
336,666,0,0,0,0,0,0,0,0,0,-1,1560,358,0,0
343,666,0,0,0,0,0,0,0,0,0,-1,1567,358,0,0
350,666,0,0,0,0,0,0,0,0,0,-1,1574,358,0,0
357,666,0,0,0,0,0,0,0,0,0,-1,1581,358,0,0
364,666,0,0,0,0,0,0,0,0,0,-1,1588,358,0,0
371,666,0,0,0,0,0,0,0,0,0,-1,1595,358,0,0
378,666,0,0,0,0,0,0,0,0,0,-1,1602,358,0,0
385,666,0,0,0,0,0,0,0,0,0,-1,1609,358,0,0
392,666,0,0,0,0,0,0,0,0,0,-1,1616,358,0,0
399,666,0,0,0,0,0,0,0,0,0,-1,1623,358,0,0
406,666,0,0,0,0,0,0,0,0,0,-1,1630,358,0,0
413,666,0,0,0,0,0,0,0,0,0,-1,1637,358,0,0
420,666,0,0,0,0,0,0,0,0,0,-1,1644,358,0,0
427,666,0,0,0,0,0,0,0,0,0,-1,1651,358,0,0
434,666,0,0,0,0,0,0,0,0,0,-1,1658,358,0,0
441,666,0,0,0,0,0,0,0,0,0,-1,1665,358,0,0
448,666,0,0,0,0,0,0,0,0,0,-1,1672,358,0,0
455,666,0,0,0,0,0,0,0,0,0,-1,1679,358,0,0
462,666,0,0,0,0,0,0,0,0,0,-1,1686,358,0,0
469,666,0,0,0,0,0,0,0,0,0,-1,1693,358,0,0
476,666,0,0,0,0,0,0,0,0,0,-1,1700,358,0,0
483,666,0,0,0,0,0,0,0,0,0,-1,1707,358,0,0
490,666,0,0,0,0,0,0,0,0,0,-1,1714,358,0,0
497,666,0,0,0,0,0,0,0,0,0,-1,1721,358,0,0
504,666,0,0,0,0,0,0,0,0,0,-1,1728,358,0,0
511,666,0,0,0,0,0,0,0,0,0,-1,1735,358,0,0
518,666,0,0,0,0,0,0,0,0,0,-1,1742,358,0,0
525,666,0,0,0,0,0,0,0,0,0,-1,1749,358,0,0
532,666,0,0,0,0,0,0,0,0,0,-1,1756,358,0,0
539,666,0,0,0,0,0,0,0,0,0,-1,1763,358,0,0
546,666,0,0,0,0,0,0,0,0,0,-1,1770,358,0,0
553,666,0,0,0,0,0,0,0,0,0,-1,1777,358,0,0
560,666,0,0,0,0,0,0,0,0,0,-1,1784,358,0,0
567,666,0,0,0,0,0,0,0,0,0,-1,1791,358,0,0
574,666,0,0,0,0,0,0,0,0,0,-1,1798,358,0,0
581,666,0,0,0,0,0,0,0,0,0,-1,1805,358,0,0
588,666,0,0,0,0,0,0,0,0,0,-1,1812,358,0,0
595,666,0,0,0,0,0,0,0,0,0,-1,1819,358,0,0
602,666,0,0,0,0,0,0,0,0,0,-1,1826,358,0,0
609,666,0,0,0,0,0,0,0,0,0,-1,1833,358,0,0
616,666,0,0,0,0,0,0,0,0,0,-1,1840,358,0,0
623,666,0,0,0,0,0,0,0,0,0,-1,1847,358,0,0
630,666,0,0,0,0,0,0,0,0,0,-1,1854,358,0,0
637,666,0,0,0,0,0,0,0,0,0,-1,1861,358,0,0
644,666,0,0,0,0,0,0,0,0,0,-1,1868,358,0,0
651,666,0,0,0,0,0,0,0,0,0,-1,1875,358,0,0
658,666,0,0,0,0,0,0,0,0,0,-1,1882,358,0,0
665,666,0,0,0,0,0,0,0,0,0,-1,1889,358,0,0
672,666,0,0,0,0,0,0,0,0,0,-1,1896,358,0,0
679,666,0,0,0,0,0,0,0,0,0,-1,1903,358,0,0
686,666,0,0,0,0,0,0,0,0,0,-1,1910,358,0,0
693,666,0,0,0,0,0,0,0,0,0,-1,1917,358,0,0
700,666,0,0,0,0,0,0,0,0,0,-1,1924,358,0,0
707,666,0,0,0,0,0,0,0,0,0,-1,1931,358,0,0
714,666,0,0,0,0,0,0,0,0,0,-1,1938,358,0,0
721,666,0,0,0,0,0,0,0,0,0,-1,1945,358,0,0
728,666,0,0,0,0,0,0,0,0,0,-1,1952,358,0,0
735,666,0,0,0,0,0,0,0,0,0,-1,1959,358,0,0
742,666,0,0,0,0,0,0,0,0,0,-1,1966,358,0,0
749,666,0,0,0,0,0,0,0,0,0,-1,1973,358,0,0
756,666,0,0,0,0,0,0,0,0,0,-1,1980,358,0,0
763,666,0,0,0,0,0,0,0,0,0,-1,1987,358,0,0
770,666,0,0,0,0,0,0,0,0,0,-1,1994,358,0,0
777,666,0,0,0,0,0,0,0,0,0,-1,2001,358,0,0
784,666,0,0,0,0,0,0,0,0,0,-1,2008,358,0,0
791,666,0,0,0,0,0,0,0,0,0,-1,2015,358,0,0
798,666,0,0,0,0,0,0,0,0,0,-1,2022,358,0,0
805,666,0,0,0,0,0,0,0,0,0,-1,2029,358,0,0
812,666,0,0,0,0,0,0,0,0,0,-1,2036,358,0,0
-700,659,0,0,0,0,0,0,0,0,0,-1,524,365,0,0
-693,659,0,0,0,0,0,0,0,0,0,-1,531,365,0,0
-686,659,0,0,0,0,0,0,0,0,0,-1,538,365,0,0
-679,659,0,0,0,0,0,0,0,0,0,-1,545,365,0,0
-672,659,0,0,0,0,0,0,0,0,0,-1,552,365,0,0
-665,659,0,0,0,0,0,0,0,0,0,-1,559,365,0,0
-658,659,0,0,0,0,0,0,0,0,0,-1,566,365,0,0
-651,659,0,0,0,0,0,0,0,0,0,-1,573,365,0,0
-644,659,0,0,0,0,0,0,0,0,0,-1,580,365,0,0
-637,659,0,0,0,0,0,0,0,0,0,-1,587,365,0,0
-630,659,0,0,0,0,0,0,0,0,0,-1,594,365,0,0
-623,659,0,0,0,0,0,0,0,0,0,-1,601,365,0,0
-616,659,0,0,0,0,0,0,0,0,0,-1,608,365,0,0
-609,659,0,0,0,0,0,0,0,0,0,-1,615,365,0,0
-602,659,0,0,0,0,0,0,0,0,0,-1,622,365,0,0
-595,659,0,0,0,0,0,0,0,0,0,-1,629,365,0,0
-588,659,0,0,0,0,0,0,0,0,0,-1,636,365,0,0
-581,659,0,0,0,0,0,0,0,0,0,-1,643,365,0,0
-574,659,0,0,0,0,0,0,0,0,0,-1,650,365,0,0
-567,659,0,0,0,0,0,0,0,0,0,-1,657,365,0,0
-560,659,0,0,0,0,0,0,0,0,0,-1,664,365,0,0
-553,659,0,0,0,0,0,0,0,0,0,-1,671,365,0,0
-546,659,0,0,0,0,0,0,0,0,0,-1,678,365,0,0
-539,659,0,0,0,0,0,0,0,0,0,-1,685,365,0,0
-532,659,0,0,0,0,0,0,0,0,0,-1,692,365,0,0
-525,659,0,0,0,0,0,0,0,0,0,-1,699,365,0,0
-518,659,0,0,0,0,0,0,0,0,0,-1,706,365,0,0
-511,659,0,0,0,0,0,0,0,0,0,-1,713,365,0,0
-504,659,0,0,0,0,0,0,0,0,0,-1,720,365,0,0
-497,659,0,0,0,0,0,0,0,0,0,-1,727,365,0,0
-490,659,0,0,0,0,0,0,0,0,0,-1,734,365,0,0
-483,659,0,0,0,0,0,0,0,0,0,-1,741,365,0,0
-476,659,0,0,0,0,0,0,0,0,0,-1,748,365,0,0
-469,659,0,0,0,0,0,0,0,0,0,-1,755,365,0,0
-462,659,0,0,0,0,0,0,0,0,0,-1,762,365,0,0
-455,659,0,0,0,0,0,0,0,0,0,-1,769,365,0,0
-448,659,0,0,0,0,0,0,0,0,0,-1,776,365,0,0
-441,659,0,0,0,0,0,0,0,0,0,-1,783,365,0,0
-434,659,0,0,0,0,0,0,0,0,0,-1,790,365,0,0
-427,659,0,0,0,0,0,0,0,0,0,-1,797,365,0,0
-420,659,0,0,0,0,0,0,0,0,0,-1,804,365,0,0
-413,659,0,0,0,0,0,0,0,0,0,-1,811,365,0,0
-406,659,0,0,0,0,0,0,0,0,0,-1,818,365,0,0
-399,659,0,0,0,0,0,0,0,0,0,-1,825,365,0,0
-392,659,0,0,0,0,0,0,0,0,0,-1,832,365,0,0
-385,659,0,0,0,0,0,0,0,0,0,-1,839,365,0,0
-378,659,0,0,0,0,0,0,0,0,0,-1,846,365,0,0
-371,659,0,0,0,0,0,0,0,0,0,-1,853,365,0,0
-364,659,0,0,0,0,0,0,0,0,0,-1,860,365,0,0
-357,659,0,0,0,0,0,0,0,0,0,-1,867,365,0,0
-350,659,0,0,0,0,0,0,0,0,0,-1,874,365,0,0
-343,659,0,0,0,0,0,0,0,0,0,-1,881,365,0,0
-336,659,0,0,0,0,0,0,0,0,0,-1,888,365,0,0
-329,659,0,0,0,0,0,0,0,0,0,-1,895,365,0,0
-322,659,0,0,0,0,0,0,0,0,0,-1,902,365,0,0
-315,659,0,0,0,0,0,0,0,0,0,-1,909,365,0,0
-308,659,0,0,0,0,0,0,0,0,0,-1,916,365,0,0
-301,659,0,0,0,0,0,0,0,0,0,-1,923,365,0,0
-294,659,0,0,0,0,0,0,0,0,0,-1,930,365,0,0
-287,659,0,0,0,0,0,0,0,0,0,-1,937,365,0,0
-280,659,0,0,0,0,0,0,0,0,0,-1,944,365,0,0
-273,659,0,0,0,0,0,0,0,0,0,-1,951,365,0,0
-266,659,0,0,0,0,0,0,0,0,0,-1,958,365,0,0
-259,659,0,0,0,0,0,0,0,0,0,-1,965,365,0,0
-252,659,0,0,0,0,0,0,0,0,0,-1,972,365,0,0
-245,659,0,0,0,0,0,0,0,0,0,-1,979,365,0,0
-238,659,0,0,0,0,0,0,0,0,0,-1,986,365,0,0
-231,659,0,0,0,0,0,0,0,0,0,-1,993,365,0,0
-224,659,0,0,0,0,0,0,0,0,0,-1,1000,365,0,0
-217,659,1.62122,-1.10727,0,0,0,0,0,0,0,-1,1007,365,1.62123,1.10728
-210,659,0.80896,-4.35596,0,0,0,0,0,0,0,-1,1014,365,0.808957,4.35596
-203,659,1.24738,-4.46973,0.0668251,-0.0256102,-0.0332295,0.0775308,-0.0363159,-0.311675,0.0671498,0.0475617,1021,365,1.24739,4.46972
-196,659,1.75391,-4.58408,0.052138,-0.0256818,-0.0299778,0.0623468,-0.0358906,-0.328228,0.0573989,0.0447851,1028,365,1.7539,4.58409
-189,659,2.15332,-4.59207,0.0381928,-0.0248714,-0.0279157,0.0487743,-0.035453,-0.36232,0.048831,0.0429439,1035,365,2.15329,4.59207
-182,659,2.59521,-4.73923,0,0,0,0,0,0,0,-1,1042,365,2.59527,4.73923
-175,659,3.7019,-5.69534,0,0,0,0,0,0,0,-1,1049,365,3.70187,5.69534
-168,659,3.9325,-5.80313,0,0,0,0,0,0,0,-1,1056,365,3.93251,5.80313
-161,659,1.92444,-5.28015,0,0,0,0,0,0,0,-1,1063,365,1.92441,5.28015
-154,659,1.83276,-5.19537,-0.00446155,-0.021733,-0.013286,0.00274864,-0.0289432,-0.497215,0.0202739,0.0463217,1070,365,1.83275,5.19537
-147,659,1.526,-4.94095,-0.00886004,-0.0210345,-0.00814905,-0.00477567,-0.0251189,-0.464613,0.0154028,0.0472625,1077,365,1.52601,4.94096
-140,659,1.12634,-4.89471,0,0,0,0,0,0,0,-1,1084,365,1.12631,4.8947
-133,659,2.31335,-4.61783,0,0,0,0,0,0,0,-1,1091,365,2.3134,4.61783
-126,659,2.46448,-4.50754,0,0,0,0,0,0,0,-1,1098,365,2.46449,4.50754
-119,659,2.50146,-4.6572,-0.00482996,-0.0160293,0.00548731,-0.00258954,-0.0182697,0.387633,0.0114149,0.0419752,1105,365,2.50144,4.6572
-112,659,2.37402,-4.80356,-0.00303076,-0.0144726,0.00798734,0.00107312,-0.0185764,0.474625,0.0127571,0.0386561,1112,365,2.37399,4.80356
-105,659,2.30798,-4.88171,-0.00194242,-0.0133407,0.0101476,0.00399692,-0.01928,0.529537,0.0143721,0.0379359,1119,365,2.30792,4.88171
-98,659,2.32971,-4.91296,-0.00110471,-0.0119342,0.0118365,0.00649677,-0.0195357,0.570877,0.0156457,0.0385526,1126,365,2.32969,4.91296
-91,659,2.37195,-4.95963,-0.000501167,-0.0107675,0.0131263,0.00845994,-0.0197286,0.59901,0.0167025,0.0406241,1133,365,2.37197,4.95963
-84,659,2.52649,-4.92642,-0.000563409,-0.00984827,0.0134176,0.00899222,-0.0194039,0.618847,0.0167578,0.0397401,1140,365,2.52644,4.92641
-77,659,2.50049,-4.95056,-0.00116988,-0.00870117,0.0122829,0.0079116,-0.0177826,0.636658,0.0151951,0.0352131,1147,365,2.50052,4.95058
-70,659,2.31921,-4.95963,-0.00131375,-0.00731241,0.010653,0.00675412,-0.0153803,0.648177,0.0130988,0.0423687,1154,365,2.31919,4.95964
-63,659,2.31604,-4.83432,0,0,0,0,0,0,0,-1,1161,365,2.31603,4.83433
-56,659,2.29407,-4.8873,0,0,0,0,0,0,0,-1,1168,365,2.29411,4.88729
-49,659,2.33191,-5.11966,0,0,0,0,0,0,0,-1,1175,365,2.33197,5.11965
-42,659,2.33484,-5.16025,0,0,0,0,0,0,0,-1,1182,365,2.33488,5.16024
-35,659,2.28101,-5.23822,-0.00347006,-0.000296854,0.0017365,0.000468725,-0.00423564,1.15556,0.00299226,0.0346608,1189,365,2.28107,5.23821
-28,659,2.32239,-5.23373,-0.00502587,-0.000440498,0.000532653,-0.000379437,-0.00508694,1.45666,0.00327215,0.0149767,1196,365,2.32239,5.23373
-21,659,2.32605,-5.21735,-0.00481145,-0.000612352,-0.000788324,-0.000469233,-0.00495456,-1.3912,0.00315827,0.0105661,1203,365,2.32606,5.21734
-14,659,2.32092,-5.22293,-0.0037978,0.000289241,-0.00132555,0.000681505,-0.00419006,-1.28308,0.00304606,0.00848775,1210,365,2.32091,5.22292
-7,659,2.30969,-5.24307,-0.00381195,0.000620052,-0.00199494,0.00138574,-0.00457763,-1.20432,0.0036036,0.0087141,1217,365,2.30969,5.24307
0,659,2.30481,-5.2536,-0.00360476,0.00113153,-0.00269102,0.00234803,-0.00482126,-1.14623,0.00422049,0.00836948,1224,365,2.30476,5.2536
7,659,2.2854,-5.26453,-0.00319778,0.00158148,-0.00325168,0.00322717,-0.00484347,-1.10228,0.00469063,0.00765549,1231,365,2.28541,5.26452
14,659,2.27563,-5.26059,-0.00257854,0.00189995,-0.00382423,0.00409229,-0.00477088,-1.05026,0.00512215,0.0100927,1238,365,2.27563,5.2606
21,659,2.28088,-5.27155,-0.00175017,0.00210965,-0.00385473,0.0044906,-0.00413112,-1.01749,0.00497919,0.0111408,1245,365,2.28088,5.27155
28,659,2.28748,-5.29138,-0.000911393,0.00196492,-0.00309884,0.00394306,-0.00288953,-1.00266,0.0039604,0.0101387,1252,365,2.28745,5.29137
35,659,2.29614,-5.28842,-0.000305626,0.00185721,-0.00188687,0.00295059,-0.00139901,-1.04561,0.00256395,0.0102805,1259,365,2.29609,5.28843
42,659,2.27527,-5.28854,-0.000140924,0.00218007,-0.000522353,0.00229221,-0.000253065,-1.35932,0.0016191,0.0108116,1266,365,2.27525,5.28855
49,659,2.26147,-5.29077,0.000882361,0.00203062,0.000308082,0.00210806,0.000804924,1.32455,0.00122837,0.0109206,1273,365,2.26144,5.29076
56,659,2.23474,-5.2861,0.00212531,0.00174691,0.00221036,0.00415455,-0.000282332,0.742703,0.00286845,0.0140429,1280,365,2.23473,5.28609
63,659,2.23022,-5.29639,0.0035721,0.00184626,0.00282808,0.00566598,-0.000247612,0.637322,0.0038625,0.0154363,1287,365,2.2302,5.29639
70,659,2.23999,-5.29562,0.00497059,0.00160239,0.002798,0.00655222,2.07622e-05,0.514492,0.00436124,0.0164897,1294,365,2.24003,5.29562
77,659,2.24023,-5.28012,0.0057087,0.00155983,0.0026938,0.00703424,0.000234285,0.457284,0.00461338,0.0155896,1301,365,2.24024,5.28012
84,659,2.22974,-5.31125,0.00639311,0.0016887,0.00194642,0.00709401,0.000987801,0.345639,0.00443688,0.0114013,1308,365,2.22979,5.31125
91,659,2.2146,-5.28442,0.00757415,0.00161331,0.00022249,0.00758244,0.00160501,0.0372562,0.00461397,0.0102498,1315,365,2.21462,5.28443
98,659,2.2301,-5.26794,0.00949395,0.00185612,-0.0017225,0.00986444,0.00148563,-0.211861,0.00614127,0.00765804,1322,365,2.23011,5.26795
105,659,2.23596,-5.23911,0.0107864,0.00194291,-0.00396921,0.0123065,0.000422727,-0.36576,0.00806715,0.00949201,1329,365,2.23593,5.2391
112,659,2.2262,-5.20743,0.0121467,0.0019817,-0.00622605,0.0151013,-0.000972934,-0.443089,0.010407,0.0115094,1336,365,2.22625,5.20741
119,659,2.22961,-5.18585,0.0134172,0.00197432,-0.00823502,0.0177232,-0.00233173,-0.481795,0.0126645,0.011808,1343,365,2.22958,5.18586
126,659,2.21716,-5.1701,0.0145103,0.00187762,-0.0100285,0.0200459,-0.00365794,-0.504363,0.0147354,0.0123881,1350,365,2.21714,5.1701
133,659,2.1936,-5.15747,0.0156254,0.00174648,-0.0113207,0.0219643,-0.00459242,-0.510441,0.0163896,0.0113239,1357,365,2.19359,5.15747
140,659,2.18396,-5.13388,0.0165762,0.00137759,-0.0117274,0.0229512,-0.00499737,-0.497914,0.0172102,0.00911671,1364,365,2.18392,5.13389
147,659,2.1875,-5.11581,0.0172817,0.000834422,-0.011324,0.0230531,-0.00493697,-0.471347,0.0172515,0.00816194,1371,365,2.18745,5.11582
154,659,2.18518,-5.09164,0.0167849,0.000717869,-0.00982115,0.0214397,-0.0039369,-0.442594,0.0157701,0.00841263,1378,365,2.18519,5.09165
161,659,2.1886,-5.0762,0.0152772,0.00020074,-0.00887493,0.0193832,-0.00390532,-0.43333,0.0144015,0.00961961,1385,365,2.1886,5.07619
168,659,2.20544,-5.07132,0.0134014,-0.000530557,-0.00621465,0.0157706,-0.00289982,-0.364229,0.0116018,0.0171815,1392,365,2.20545,5.07133
175,659,2.21167,-5.08008,0.011848,-0.000499745,-0.00280604,0.0124558,-0.0011075,-0.213295,0.00869657,0.0330622,1399,365,2.21172,5.08008
182,659,2.34375,-5.03809,0.01146,9.57132e-05,-0.000928335,0.0115353,2.03773e-05,-0.0809736,0.00768341,0.0497475,1406,365,2.34373,5.03809
189,659,2.34534,-4.94885,0.00905187,-0.000160617,0.00144185,0.00927226,-0.000381007,0.151679,0.00631234,0.0459663,1413,365,2.3453,4.94887
196,659,2.21753,-4.827,0.0023017,-0.00084295,0.00475013,0.00573296,-0.00427421,0.62557,0.00579807,0.0444976,1420,365,2.21755,4.82699
203,659,2.35388,-4.87445,0,0,0,0,0,0,0,-1,1427,365,2.35385,4.87447
210,659,2.52722,-5.01892,-0.00445983,0.00194345,0.00442259,0.00420164,-0.00671803,1.0987,0.00636003,0.0452653,1434,365,2.5272,5.01893
217,659,2.2063,-4.78171,0.00420377,0.00572493,-0.0039819,0.00901824,0.000910457,-0.879766,0.00573282,0.0461405,1441,365,2.20635,4.78171
224,659,2.1001,-4.66351,0.0144963,0.0110246,-0.0139516,0.0268197,-0.00129872,-0.723507,0.018328,0.0491593,1448,365,2.10008,4.66353
231,659,1.95923,-4.43271,0.0233181,0.0172659,-0.0237396,0.0442237,-0.00363969,-0.722006,0.0307675,0.0477954,1455,365,1.95926,4.4327
238,659,1.96765,-4.3822,0,0,0,0,0,0,0,-1,1462,365,1.96764,4.3822
245,659,2.14441,-4.80023,0,0,0,0,0,0,0,-1,1469,365,2.14442,4.80023
252,659,2.13098,-4.77151,0,0,0,0,0,0,0,-1,1476,365,2.13103,4.7715
259,659,2.33069,-3.36703,0,0,0,0,0,0,0,-1,1483,365,2.33073,3.36702
266,659,2.08325,-4.24255,0,0,0,0,0,0,0,-1,1490,365,2.0832,4.24256
273,659,2.14783,-4.41998,0,0,0,0,0,0,0,-1,1497,365,2.14778,4.41999
280,659,1.97827,-4.38763,0,0,0,0,0,0,0,-1,1504,365,1.97827,4.38763
287,659,10.5712,-1.3103,0,0,0,0,0,0,0,-1,1511,365,10.5712,1.31031
294,659,3.08447,-3.74734,0,0,0,0,0,0,0,-1,1518,365,3.08447,3.74735
301,659,3.16052,-3.2247,0,0,0,0,0,0,0,-1,1525,365,3.16047,3.22469
308,659,2.80115,-0.633514,0,0,0,0,0,0,0,-1,1532,365,2.80113,0.633519
315,659,2.56055,-0.251129,0,0,0,0,0,0,0,-1,1539,365,2.5605,0.251135
322,659,2.88672,-0.266174,0,0,0,0,0,0,0,-1,1546,365,2.88671,0.266163
329,659,3.5647,-1.00171,0,0,0,0,0,0,0,-1,1553,365,3.56475,1.0017
336,659,2.09851,-1.17941,0,0,0,0,0,0,0,-1,1560,365,2.09857,1.17942
343,659,0,0,0,0,0,0,0,0,0,-1,1567,365,0,0
350,659,0,0,0,0,0,0,0,0,0,-1,1574,365,0,0
357,659,0,0,0,0,0,0,0,0,0,-1,1581,365,0,0
364,659,0,0,0,0,0,0,0,0,0,-1,1588,365,0,0
371,659,0,0,0,0,0,0,0,0,0,-1,1595,365,0,0
378,659,0,0,0,0,0,0,0,0,0,-1,1602,365,0,0
385,659,0,0,0,0,0,0,0,0,0,-1,1609,365,0,0
392,659,0,0,0,0,0,0,0,0,0,-1,1616,365,0,0
399,659,0,0,0,0,0,0,0,0,0,-1,1623,365,0,0
406,659,0,0,0,0,0,0,0,0,0,-1,1630,365,0,0
413,659,0,0,0,0,0,0,0,0,0,-1,1637,365,0,0
420,659,0,0,0,0,0,0,0,0,0,-1,1644,365,0,0
427,659,0,0,0,0,0,0,0,0,0,-1,1651,365,0,0
434,659,0,0,0,0,0,0,0,0,0,-1,1658,365,0,0
441,659,0,0,0,0,0,0,0,0,0,-1,1665,365,0,0
448,659,0,0,0,0,0,0,0,0,0,-1,1672,365,0,0
455,659,0,0,0,0,0,0,0,0,0,-1,1679,365,0,0
462,659,0,0,0,0,0,0,0,0,0,-1,1686,365,0,0
469,659,0,0,0,0,0,0,0,0,0,-1,1693,365,0,0
476,659,0,0,0,0,0,0,0,0,0,-1,1700,365,0,0
483,659,0,0,0,0,0,0,0,0,0,-1,1707,365,0,0
490,659,0,0,0,0,0,0,0,0,0,-1,1714,365,0,0
497,659,0,0,0,0,0,0,0,0,0,-1,1721,365,0,0
504,659,0,0,0,0,0,0,0,0,0,-1,1728,365,0,0
511,659,0,0,0,0,0,0,0,0,0,-1,1735,365,0,0
518,659,0,0,0,0,0,0,0,0,0,-1,1742,365,0,0
525,659,0,0,0,0,0,0,0,0,0,-1,1749,365,0,0
532,659,0,0,0,0,0,0,0,0,0,-1,1756,365,0,0
539,659,0,0,0,0,0,0,0,0,0,-1,1763,365,0,0
546,659,0,0,0,0,0,0,0,0,0,-1,1770,365,0,0
553,659,0,0,0,0,0,0,0,0,0,-1,1777,365,0,0
560,659,0,0,0,0,0,0,0,0,0,-1,1784,365,0,0
567,659,0,0,0,0,0,0,0,0,0,-1,1791,365,0,0
574,659,0,0,0,0,0,0,0,0,0,-1,1798,365,0,0
581,659,0,0,0,0,0,0,0,0,0,-1,1805,365,0,0
588,659,0,0,0,0,0,0,0,0,0,-1,1812,365,0,0
595,659,0,0,0,0,0,0,0,0,0,-1,1819,365,0,0
602,659,0,0,0,0,0,0,0,0,0,-1,1826,365,0,0
609,659,0,0,0,0,0,0,0,0,0,-1,1833,365,0,0
616,659,0,0,0,0,0,0,0,0,0,-1,1840,365,0,0
623,659,0,0,0,0,0,0,0,0,0,-1,1847,365,0,0
630,659,0,0,0,0,0,0,0,0,0,-1,1854,365,0,0
637,659,0,0,0,0,0,0,0,0,0,-1,1861,365,0,0
644,659,0,0,0,0,0,0,0,0,0,-1,1868,365,0,0
651,659,0,0,0,0,0,0,0,0,0,-1,1875,365,0,0
658,659,0,0,0,0,0,0,0,0,0,-1,1882,365,0,0
665,659,0,0,0,0,0,0,0,0,0,-1,1889,365,0,0
672,659,0,0,0,0,0,0,0,0,0,-1,1896,365,0,0
679,659,0,0,0,0,0,0,0,0,0,-1,1903,365,0,0
686,659,0,0,0,0,0,0,0,0,0,-1,1910,365,0,0
693,659,0,0,0,0,0,0,0,0,0,-1,1917,365,0,0
700,659,0,0,0,0,0,0,0,0,0,-1,1924,365,0,0
707,659,0,0,0,0,0,0,0,0,0,-1,1931,365,0,0
714,659,0,0,0,0,0,0,0,0,0,-1,1938,365,0,0
721,659,0,0,0,0,0,0,0,0,0,-1,1945,365,0,0
728,659,0,0,0,0,0,0,0,0,0,-1,1952,365,0,0
735,659,0,0,0,0,0,0,0,0,0,-1,1959,365,0,0
742,659,0,0,0,0,0,0,0,0,0,-1,1966,365,0,0
749,659,0,0,0,0,0,0,0,0,0,-1,1973,365,0,0
756,659,0,0,0,0,0,0,0,0,0,-1,1980,365,0,0
763,659,0,0,0,0,0,0,0,0,0,-1,1987,365,0,0
770,659,0,0,0,0,0,0,0,0,0,-1,1994,365,0,0
777,659,0,0,0,0,0,0,0,0,0,-1,2001,365,0,0
784,659,0,0,0,0,0,0,0,0,0,-1,2008,365,0,0
791,659,0,0,0,0,0,0,0,0,0,-1,2015,365,0,0
798,659,0,0,0,0,0,0,0,0,0,-1,2022,365,0,0
805,659,0,0,0,0,0,0,0,0,0,-1,2029,365,0,0
812,659,0,0,0,0,0,0,0,0,0,-1,2036,365,0,0
-700,652,0,0,0,0,0,0,0,0,0,-1,524,372,0,0
-693,652,0,0,0,0,0,0,0,0,0,-1,531,372,0,0
-686,652,0,0,0,0,0,0,0,0,0,-1,538,372,0,0
-679,652,0,0,0,0,0,0,0,0,0,-1,545,372,0,0
-672,652,0,0,0,0,0,0,0,0,0,-1,552,372,0,0
-665,652,0,0,0,0,0,0,0,0,0,-1,559,372,0,0
-658,652,0,0,0,0,0,0,0,0,0,-1,566,372,0,0
-651,652,0,0,0,0,0,0,0,0,0,-1,573,372,0,0
-644,652,0,0,0,0,0,0,0,0,0,-1,580,372,0,0
-637,652,0,0,0,0,0,0,0,0,0,-1,587,372,0,0
-630,652,0,0,0,0,0,0,0,0,0,-1,594,372,0,0
-623,652,0,0,0,0,0,0,0,0,0,-1,601,372,0,0
-616,652,0,0,0,0,0,0,0,0,0,-1,608,372,0,0
-609,652,0,0,0,0,0,0,0,0,0,-1,615,372,0,0
-602,652,0,0,0,0,0,0,0,0,0,-1,622,372,0,0
-595,652,0,0,0,0,0,0,0,0,0,-1,629,372,0,0
-588,652,0,0,0,0,0,0,0,0,0,-1,636,372,0,0
-581,652,0,0,0,0,0,0,0,0,0,-1,643,372,0,0
-574,652,0,0,0,0,0,0,0,0,0,-1,650,372,0,0
-567,652,0,0,0,0,0,0,0,0,0,-1,657,372,0,0
-560,652,0,0,0,0,0,0,0,0,0,-1,664,372,0,0
-553,652,0,0,0,0,0,0,0,0,0,-1,671,372,0,0
-546,652,0,0,0,0,0,0,0,0,0,-1,678,372,0,0
-539,652,0,0,0,0,0,0,0,0,0,-1,685,372,0,0
-532,652,0,0,0,0,0,0,0,0,0,-1,692,372,0,0
-525,652,0,0,0,0,0,0,0,0,0,-1,699,372,0,0
-518,652,0,0,0,0,0,0,0,0,0,-1,706,372,0,0
-511,652,0,0,0,0,0,0,0,0,0,-1,713,372,0,0
-504,652,0,0,0,0,0,0,0,0,0,-1,720,372,0,0
-497,652,0,0,0,0,0,0,0,0,0,-1,727,372,0,0
-490,652,0,0,0,0,0,0,0,0,0,-1,734,372,0,0
-483,652,0,0,0,0,0,0,0,0,0,-1,741,372,0,0
-476,652,0,0,0,0,0,0,0,0,0,-1,748,372,0,0
-469,652,0,0,0,0,0,0,0,0,0,-1,755,372,0,0
-462,652,0,0,0,0,0,0,0,0,0,-1,762,372,0,0
-455,652,0,0,0,0,0,0,0,0,0,-1,769,372,0,0
-448,652,0,0,0,0,0,0,0,0,0,-1,776,372,0,0
-441,652,0,0,0,0,0,0,0,0,0,-1,783,372,0,0
-434,652,0,0,0,0,0,0,0,0,0,-1,790,372,0,0
-427,652,0,0,0,0,0,0,0,0,0,-1,797,372,0,0
-420,652,0,0,0,0,0,0,0,0,0,-1,804,372,0,0
-413,652,0,0,0,0,0,0,0,0,0,-1,811,372,0,0
-406,652,0,0,0,0,0,0,0,0,0,-1,818,372,0,0
-399,652,0,0,0,0,0,0,0,0,0,-1,825,372,0,0
-392,652,0,0,0,0,0,0,0,0,0,-1,832,372,0,0
-385,652,0,0,0,0,0,0,0,0,0,-1,839,372,0,0
-378,652,0,0,0,0,0,0,0,0,0,-1,846,372,0,0
-371,652,0,0,0,0,0,0,0,0,0,-1,853,372,0,0
-364,652,0,0,0,0,0,0,0,0,0,-1,860,372,0,0
-357,652,0,0,0,0,0,0,0,0,0,-1,867,372,0,0
-350,652,0,0,0,0,0,0,0,0,0,-1,874,372,0,0
-343,652,0,0,0,0,0,0,0,0,0,-1,881,372,0,0
-336,652,0,0,0,0,0,0,0,0,0,-1,888,372,0,0
-329,652,0,0,0,0,0,0,0,0,0,-1,895,372,0,0
-322,652,0,0,0,0,0,0,0,0,0,-1,902,372,0,0
-315,652,0,0,0,0,0,0,0,0,0,-1,909,372,0,0
-308,652,0,0,0,0,0,0,0,0,0,-1,916,372,0,0
-301,652,0,0,0,0,0,0,0,0,0,-1,923,372,0,0
-294,652,0,0,0,0,0,0,0,0,0,-1,930,372,0,0
-287,652,0,0,0,0,0,0,0,0,0,-1,937,372,0,0
-280,652,0,0,0,0,0,0,0,0,0,-1,944,372,0,0
-273,652,0,0,0,0,0,0,0,0,0,-1,951,372,0,0
-266,652,0,0,0,0,0,0,0,0,0,-1,958,372,0,0
-259,652,0,0,0,0,0,0,0,0,0,-1,965,372,0,0
-252,652,0,0,0,0,0,0,0,0,0,-1,972,372,0,0
-245,652,0,0,0,0,0,0,0,0,0,-1,979,372,0,0
-238,652,0,0,0,0,0,0,0,0,0,-1,986,372,0,0
-231,652,2.94147,-2.64893,0,0,0,0,0,0,0,-1,993,372,2.94147,2.64892
-224,652,1.62,-1.11423,0,0,0,0,0,0,0,-1,1000,372,1.61999,1.11423
-217,652,1.61188,-2.02399,0,0,0,0,0,0,0,-1,1007,372,1.61186,2.02397
-210,652,1.16119,-4.4455,0,0,0,0,0,0,0,-1,1014,372,1.16121,4.44549
-203,652,1.57068,-4.51511,0.0509413,-0.0213878,-0.026082,0.0593654,-0.0298119,-0.312408,0.0524205,0.0440594,1021,372,1.57068,4.5151
-196,652,2.12231,-4.49338,0.0398013,-0.0208861,-0.0233461,0.0477431,-0.0288279,-0.327897,0.0446556,0.0418916,1028,372,2.12236,4.49337
-189,652,2.56677,-4.55127,0.0291952,-0.019952,-0.0215513,0.0373068,-0.0280635,-0.359984,0.0378672,0.0401381,1035,372,2.56683,4.55127
-182,652,3.05786,-4.75937,0,0,0,0,0,0,0,-1,1042,372,3.05792,4.75938
-175,652,2.99475,-5.28278,0,0,0,0,0,0,0,-1,1049,372,2.99472,5.28277
-168,652,3.20557,-5.29443,0,0,0,0,0,0,0,-1,1056,372,3.20561,5.29443
-161,652,2.50964,-4.62781,0,0,0,0,0,0,0,-1,1063,372,2.50969,4.6278
-154,652,2.2345,-4.64133,-0.00331018,-0.0161824,-0.0108833,0.00289765,-0.0223902,-0.518371,0.0159805,0.0444411,1070,372,2.23452,4.64133
-147,652,1.8374,-4.77304,-0.0066359,-0.0154016,-0.00753704,-0.00230001,-0.0197375,-0.522043,0.0124626,0.0418947,1077,372,1.83746,4.77303
-140,652,1.54712,-4.81262,-0.00774484,-0.0138047,-0.00496372,-0.00495937,-0.0165902,-0.511375,0.00983313,0.0430413,1084,372,1.54717,4.81262
-133,652,2.28259,-4.6279,-0.00708816,-0.0132962,-0.00244671,-0.0062398,-0.0141446,-0.333764,0.00818521,0.0424218,1091,372,2.28259,4.6279
-126,652,2.26697,-4.38785,0,0,0,0,0,0,0,-1,1098,372,2.26691,4.38786
-119,652,2.43103,-4.70703,-0.00346947,-0.0110474,0.00194629,-0.00299882,-0.011518,0.237265,0.00689982,0.0322408,1105,372,2.43099,4.70703
-112,652,2.37317,-4.80801,-0.00207072,-0.0096506,0.00369706,-0.000566146,-0.0111552,0.386497,0.00725544,0.0231697,1112,372,2.37321,4.80801
-105,652,2.32715,-4.83951,-0.00124282,-0.00868555,0.00527074,0.00148789,-0.0114163,0.478014,0.00815219,0.0199511,1119,372,2.32718,4.83952
-98,652,2.32813,-4.89749,-0.000567497,-0.00748844,0.00656172,0.00339033,-0.0114463,0.542746,0.00897695,0.0220925,1126,372,2.32807,4.89751
-91,652,2.3479,-4.93347,-5.06632e-05,-0.00650366,0.00758356,0.00496424,-0.0115186,0.584268,0.00976392,0.0222852,1133,372,2.34795,4.93347
-84,652,2.40271,-4.93909,-0.000164305,-0.00578976,0.0079371,0.00544372,-0.0113978,0.615114,0.00992393,0.0189662,1140,372,2.40268,4.93909
-77,652,2.36414,-4.96805,-0.000772006,-0.00501328,0.00719411,0.00460751,-0.0103928,0.64207,0.00887254,0.0144295,1147,372,2.36415,4.96806
-70,652,2.31494,-5.00854,-0.00087166,-0.00411571,0.00616188,0.0038781,-0.00886547,0.6567,0.00754299,0.0124974,1154,372,2.31496,5.00853
-63,652,2.31189,-5.03131,-0.000732979,-0.00359924,0.00518898,0.00321714,-0.00754935,0.650663,0.00638157,0.0189006,1161,372,2.31193,5.03131
-56,652,2.29626,-5.08319,-0.00086492,-0.00298724,0.00454041,0.00273668,-0.00658884,0.670602,0.00553509,0.0222809,1168,372,2.2963,5.0832
-49,652,2.30933,-5.12192,-0.000866204,-0.00136842,0.0025698,0.00146472,-0.00369935,0.736695,0.00307312,0.0145446,1175,372,2.30935,5.1219
-42,652,2.29968,-5.14206,-0.00101234,-0.000839908,0.00172058,0.000796618,-0.00264887,0.810431,0.00208286,0.00995766,1182,372,2.29965,5.14207
-35,652,2.3092,-5.16904,-0.00215586,-0.000352707,0.00132773,0.000350617,-0.00285918,1.08366,0.0020331,0.00900149,1189,372,2.30926,5.16905
-28,652,2.3114,-5.19305,-0.00302465,-0.000458127,0.000721541,-0.000269186,-0.00321359,1.31469,0.00205854,0.00748771,1196,372,2.31145,5.19306
-21,652,2.30005,-5.21021,-0.00289295,-0.000592878,-6.55491e-06,-0.000592859,-0.00289297,-1.56795,0.00176455,0.00739973,1203,372,2.29999,5.21021
-14,652,2.3031,-5.22968,-0.00236673,-0.000192955,-0.00021645,-0.000171612,-0.00238807,-1.47251,0.00153804,0.00918829,1210,372,2.30316,5.22969
-7,652,2.30383,-5.25018,-0.00244312,-4.32212e-05,-0.000607378,0.000101741,-0.00258809,-1.33651,0.00176028,0.0120828,1217,372,2.30378,5.25018
0,652,2.28577,-5.25702,-0.00236598,0.000226819,-0.00106699,0.000609442,-0.00274861,-1.22648,0.00206574,0.012358,1224,372,2.2858,5.25701
7,652,2.25781,-5.24915,-0.00214237,0.000495526,-0.00145737,0.00114217,-0.00278902,-1.15319,0.00233512,0.012488,1231,372,2.25776,5.24915
14,652,2.26196,-5.26273,-0.00175483,0.000727122,-0.0018258,0.00169376,-0.00272147,-1.08388,0.00257205,0.0115508,1238,372,2.26195,5.26272
21,652,2.26648,-5.28064,-0.00124513,0.000883229,-0.00184133,0.00194578,-0.00230768,-1.04742,0.0024587,0.0116006,1245,372,2.26652,5.28065
28,652,2.28162,-5.30679,-0.000680193,0.000863548,-0.00138354,0.00167596,-0.00149261,-1.03984,0.0018304,0.0103542,1252,372,2.28161,5.3068
35,652,2.26587,-5.30325,-0.000234833,0.000968077,-0.000552099,0.00118305,-0.000449811,-1.19948,0.000973903,0.00992161,1259,372,2.26584,5.30325
42,652,2.24451,-5.29446,-5.57569e-05,0.00148847,0.000438673,0.00160439,-0.000171671,1.31246,0.00113117,0.0105811,1266,372,2.24453,5.29446
49,652,2.27319,-5.29898,0.000314723,0.00176147,0.00115661,0.00240228,-0.000326093,1.06485,0.00172055,0.0128633,1273,372,2.27318,5.29897
56,652,2.24072,-5.29074,0.00054353,0.00186018,0.00232292,0.00361626,-0.00121254,0.92348,0.00290076,0.0144985,1280,372,2.24071,5.29074
63,652,2.20276,-5.29819,0.00100061,0.00225768,0.00280742,0.00450606,-0.00124778,0.895523,0.00349502,0.0178663,1287,372,2.20273,5.29819
70,652,2.24365,-5.28766,0.0014213,0.00243558,0.00289644,0.00486894,-0.00101207,0.872065,0.00363065,0.0160085,1294,372,2.24363,5.28767
77,652,2.24561,-5.28958,0.0014618,0.00272615,0.00275687,0.00492239,-0.000734449,0.898104,0.00355181,0.0145096,1301,372,2.24557,5.28957
84,652,2.24475,-5.29187,0.00152382,0.00307563,0.00211755,0.00455495,4.44951e-05,0.96101,0.00302191,0.0121806,1308,372,2.24479,5.29187
91,652,2.20911,-5.28537,0.00205753,0.00321607,0.00069143,0.00353881,0.00173478,1.13408,0.00204326,0.0142429,1315,372,2.20909,5.28536
98,652,2.23621,-5.26932,0.0032233,0.00342537,-0.000834051,0.00416448,0.00248418,-0.845673,0.00241925,0.0118747,1322,372,2.23615,5.26931
105,652,2.25122,-5.23581,0.00404097,0.00347954,-0.00254999,0.00632565,0.00119486,-0.730576,0.00388062,0.0108933,1329,372,2.25121,5.23579
112,652,2.2406,-5.21289,0.00503943,0.00343451,-0.00426078,0.00857266,-9.87155e-05,-0.69232,0.00574829,0.00969582,1336,372,2.24054,5.21291
119,652,2.2312,-5.18805,0.00612461,0.00329477,-0.00578744,0.0106676,-0.0012482,-0.665509,0.0075622,0.010192,1343,372,2.23124,5.18806
126,652,2.21753,-5.17447,0.00725648,0.0030627,-0.00713049,0.012592,-0.00227283,-0.642393,0.00924587,0.0116545,1350,372,2.21755,5.17446
133,652,2.19788,-5.14743,0.00839521,0.00277913,-0.00806437,0.0141264,-0.00295211,-0.617861,0.0105404,0.0122621,1357,372,2.19782,5.14742
140,652,2.20105,-5.12817,0.00939228,0.00227701,-0.00838314,0.0149414,-0.00327215,-0.584725,0.011212,0.00953287,1364,372,2.20111,5.12817
147,652,2.20422,-5.11804,0.0101426,0.00163615,-0.00811024,0.0150472,-0.00326846,-0.543899,0.0112799,0.00876481,1371,372,2.20424,5.11804
154,652,2.20496,-5.09055,0.0103747,0.00133242,-0.0070783,0.0142525,-0.00254542,-0.501191,0.010454,0.00834994,1378,372,2.20493,5.09054
161,652,2.19641,-5.06268,0.00994763,0.000912384,-0.00594866,0.0128996,-0.00203963,-0.460642,0.00935406,0.00946274,1385,372,2.19636,5.06269
168,652,2.18188,-5.0347,0.0087286,0.000282912,-0.00409677,0.0103893,-0.00137778,-0.385123,0.00742817,0.0106195,1392,372,2.18186,5.0347
175,652,2.1853,-4.99829,0.00742925,8.02749e-05,-0.00195542,0.00791716,-0.000407632,-0.244522,0.00541909,0.00996713,1399,372,2.18526,4.9983
182,652,2.19434,-4.97241,0.00635002,0.000240099,-0.000315591,0.00636627,0.000223841,-0.0514697,0.00417157,0.0137657,1406,372,2.19432,4.9724
189,652,2.198,-4.92471,0.00410015,-8.89724e-05,0.00156985,0.00462315,-0.000611971,0.321587,0.00330503,0.0147489,1413,372,2.19794,4.92472
196,652,2.17102,-4.89734,-0.000100611,-0.000579483,0.0036876,0.00335532,-0.00403541,0.752979,0.00427306,0.0140213,1420,372,2.17097,4.89734
203,652,2.15564,-4.89655,-0.00351692,0.000229762,0.00376012,0.00255736,-0.00584452,1.01651,0.00497304,0.0158909,1427,372,2.15558,4.89654
210,652,2.2019,-4.80325,-0.00362579,0.00106738,0.00372013,0.00311918,-0.00567759,1.06677,0.00514992,0.0166924,1434,372,2.20189,4.80324
217,652,2.24036,-4.74225,0.00155148,0.00343739,-0.00134515,0.00413718,0.000851699,-1.0911,0.00252261,0.01852,1441,372,2.24037,4.74226
224,652,2.19434,-4.70676,0.00825528,0.00688612,-0.00782387,0.0154245,-0.000283062,-0.74176,0.0103786,0.0230075,1448,372,2.19439,4.70677
231,652,2.15076,-4.64432,0.0144399,0.0111315,-0.0146327,0.0275116,-0.00194017,-0.729113,0.0190208,0.0258071,1455,372,2.15079,4.64432
238,652,2.19666,-4.5787,0.0207655,0.015253,-0.0214363,0.039622,-0.0036035,-0.72146,0.0276941,0.02856,1462,372,2.19661,4.57872
245,652,2.16431,-4.61658,0.0268566,0.0186489,-0.0266558,0.0497226,-0.0042171,-0.709019,0.0346398,0.0304913,1469,372,2.1643,4.61657
252,652,2.1626,-4.56403,0.0324444,0.0220463,-0.0311991,0.0588747,-0.00438397,-0.702836,0.0407897,0.0376317,1476,372,2.16255,4.56402
259,652,2.04395,-4.27332,0,0,0,0,0,0,0,-1,1483,372,2.04399,4.27331
266,652,2.08435,-4.31769,0.0412518,0.0286736,-0.0390889,0.0745543,-0.0046289,-0.705635,0.0513155,0.0490576,1490,372,2.08439,4.31769
273,652,2.16626,-4.41309,0.0441116,0.031661,-0.0411474,0.0795019,-0.0037293,-0.710321,0.0542871,0.0486903,1497,372,2.16631,4.4131
280,652,2.0376,-4.41907,0.045388,0.0345584,-0.041802,0.0821245,-0.00217807,-0.72099,0.0554899,0.0475386,1504,372,2.03762,4.41908
287,652,1.88,-4.6044,0,0,0,0,0,0,0,-1,1511,372,1.87998,4.6044
294,652,2.76465,-3.8446,0.0431877,0.0399461,-0.0398111,0.081411,0.00172275,-0.765053,0.0537089,0.0438297,1518,372,2.76459,3.84459
301,652,2.90613,-3.27866,0.0405303,0.0425827,-0.0378308,0.0794012,0.00371174,-0.798958,0.0517413,0.0431422,1525,372,2.90612,3.27866
308,652,1.66614,-4.15048,0,0,0,0,0,0,0,-1,1532,372,1.66618,4.15047
315,652,1.77051,-4.01947,0,0,0,0,0,0,0,-1,1539,372,1.77048,4.01947
322,652,1.0907,-3.68277,0,0,0,0,0,0,0,-1,1546,372,1.09073,3.68278
329,652,3.98853,-0.777832,0,0,0,0,0,0,0,-1,1553,372,3.98851,0.77784
336,652,4.36035,-1.07068,0,0,0,0,0,0,0,-1,1560,372,4.36037,1.07066
343,652,4.18225,-6.7092,0,0,0,0,0,0,0,-1,1567,372,4.18231,6.70921
350,652,4.64563,-7.2074,0,0,0,0,0,0,0,-1,1574,372,4.6456,7.2074
357,652,0,0,0,0,0,0,0,0,0,-1,1581,372,0,0
364,652,0,0,0,0,0,0,0,0,0,-1,1588,372,0,0
371,652,0,0,0,0,0,0,0,0,0,-1,1595,372,0,0
378,652,0,0,0,0,0,0,0,0,0,-1,1602,372,0,0
385,652,0,0,0,0,0,0,0,0,0,-1,1609,372,0,0
392,652,0,0,0,0,0,0,0,0,0,-1,1616,372,0,0
399,652,0,0,0,0,0,0,0,0,0,-1,1623,372,0,0
406,652,0,0,0,0,0,0,0,0,0,-1,1630,372,0,0
413,652,0,0,0,0,0,0,0,0,0,-1,1637,372,0,0
420,652,0,0,0,0,0,0,0,0,0,-1,1644,372,0,0
427,652,0,0,0,0,0,0,0,0,0,-1,1651,372,0,0
434,652,0,0,0,0,0,0,0,0,0,-1,1658,372,0,0
441,652,0,0,0,0,0,0,0,0,0,-1,1665,372,0,0
448,652,0,0,0,0,0,0,0,0,0,-1,1672,372,0,0
455,652,0,0,0,0,0,0,0,0,0,-1,1679,372,0,0
462,652,0,0,0,0,0,0,0,0,0,-1,1686,372,0,0
469,652,0,0,0,0,0,0,0,0,0,-1,1693,372,0,0
476,652,0,0,0,0,0,0,0,0,0,-1,1700,372,0,0
483,652,0,0,0,0,0,0,0,0,0,-1,1707,372,0,0
490,652,0,0,0,0,0,0,0,0,0,-1,1714,372,0,0
497,652,0,0,0,0,0,0,0,0,0,-1,1721,372,0,0
504,652,0,0,0,0,0,0,0,0,0,-1,1728,372,0,0
511,652,0,0,0,0,0,0,0,0,0,-1,1735,372,0,0
518,652,0,0,0,0,0,0,0,0,0,-1,1742,372,0,0
525,652,0,0,0,0,0,0,0,0,0,-1,1749,372,0,0
532,652,0,0,0,0,0,0,0,0,0,-1,1756,372,0,0
539,652,0,0,0,0,0,0,0,0,0,-1,1763,372,0,0
546,652,0,0,0,0,0,0,0,0,0,-1,1770,372,0,0
553,652,0,0,0,0,0,0,0,0,0,-1,1777,372,0,0
560,652,0,0,0,0,0,0,0,0,0,-1,1784,372,0,0
567,652,0,0,0,0,0,0,0,0,0,-1,1791,372,0,0
574,652,0,0,0,0,0,0,0,0,0,-1,1798,372,0,0
581,652,0,0,0,0,0,0,0,0,0,-1,1805,372,0,0
588,652,0,0,0,0,0,0,0,0,0,-1,1812,372,0,0
595,652,0,0,0,0,0,0,0,0,0,-1,1819,372,0,0
602,652,0,0,0,0,0,0,0,0,0,-1,1826,372,0,0
609,652,0,0,0,0,0,0,0,0,0,-1,1833,372,0,0
616,652,0,0,0,0,0,0,0,0,0,-1,1840,372,0,0
623,652,0,0,0,0,0,0,0,0,0,-1,1847,372,0,0
630,652,0,0,0,0,0,0,0,0,0,-1,1854,372,0,0
637,652,0,0,0,0,0,0,0,0,0,-1,1861,372,0,0
644,652,0,0,0,0,0,0,0,0,0,-1,1868,372,0,0
651,652,0,0,0,0,0,0,0,0,0,-1,1875,372,0,0
658,652,0,0,0,0,0,0,0,0,0,-1,1882,372,0,0
665,652,0,0,0,0,0,0,0,0,0,-1,1889,372,0,0
672,652,0,0,0,0,0,0,0,0,0,-1,1896,372,0,0
679,652,0,0,0,0,0,0,0,0,0,-1,1903,372,0,0
686,652,0,0,0,0,0,0,0,0,0,-1,1910,372,0,0
693,652,0,0,0,0,0,0,0,0,0,-1,1917,372,0,0
700,652,0,0,0,0,0,0,0,0,0,-1,1924,372,0,0
707,652,0,0,0,0,0,0,0,0,0,-1,1931,372,0,0
714,652,0,0,0,0,0,0,0,0,0,-1,1938,372,0,0
721,652,0,0,0,0,0,0,0,0,0,-1,1945,372,0,0
728,652,0,0,0,0,0,0,0,0,0,-1,1952,372,0,0
735,652,0,0,0,0,0,0,0,0,0,-1,1959,372,0,0
742,652,0,0,0,0,0,0,0,0,0,-1,1966,372,0,0
749,652,0,0,0,0,0,0,0,0,0,-1,1973,372,0,0
756,652,0,0,0,0,0,0,0,0,0,-1,1980,372,0,0
763,652,0,0,0,0,0,0,0,0,0,-1,1987,372,0,0
770,652,0,0,0,0,0,0,0,0,0,-1,1994,372,0,0
777,652,0,0,0,0,0,0,0,0,0,-1,2001,372,0,0
784,652,0,0,0,0,0,0,0,0,0,-1,2008,372,0,0
791,652,0,0,0,0,0,0,0,0,0,-1,2015,372,0,0
798,652,0,0,0,0,0,0,0,0,0,-1,2022,372,0,0
805,652,0,0,0,0,0,0,0,0,0,-1,2029,372,0,0
812,652,0,0,0,0,0,0,0,0,0,-1,2036,372,0,0
-700,645,0,0,0,0,0,0,0,0,0,-1,524,379,0,0
-693,645,0,0,0,0,0,0,0,0,0,-1,531,379,0,0
-686,645,0,0,0,0,0,0,0,0,0,-1,538,379,0,0
-679,645,0,0,0,0,0,0,0,0,0,-1,545,379,0,0
-672,645,0,0,0,0,0,0,0,0,0,-1,552,379,0,0
-665,645,0,0,0,0,0,0,0,0,0,-1,559,379,0,0
-658,645,0,0,0,0,0,0,0,0,0,-1,566,379,0,0
-651,645,0,0,0,0,0,0,0,0,0,-1,573,379,0,0
-644,645,0,0,0,0,0,0,0,0,0,-1,580,379,0,0
-637,645,0,0,0,0,0,0,0,0,0,-1,587,379,0,0
-630,645,0,0,0,0,0,0,0,0,0,-1,594,379,0,0
-623,645,0,0,0,0,0,0,0,0,0,-1,601,379,0,0
-616,645,0,0,0,0,0,0,0,0,0,-1,608,379,0,0
-609,645,0,0,0,0,0,0,0,0,0,-1,615,379,0,0
-602,645,0,0,0,0,0,0,0,0,0,-1,622,379,0,0
-595,645,0,0,0,0,0,0,0,0,0,-1,629,379,0,0
-588,645,0,0,0,0,0,0,0,0,0,-1,636,379,0,0
-581,645,0,0,0,0,0,0,0,0,0,-1,643,379,0,0
-574,645,0,0,0,0,0,0,0,0,0,-1,650,379,0,0
-567,645,0,0,0,0,0,0,0,0,0,-1,657,379,0,0
-560,645,0,0,0,0,0,0,0,0,0,-1,664,379,0,0
-553,645,0,0,0,0,0,0,0,0,0,-1,671,379,0,0
-546,645,0,0,0,0,0,0,0,0,0,-1,678,379,0,0
-539,645,0,0,0,0,0,0,0,0,0,-1,685,379,0,0
-532,645,0,0,0,0,0,0,0,0,0,-1,692,379,0,0
-525,645,0,0,0,0,0,0,0,0,0,-1,699,379,0,0
-518,645,0,0,0,0,0,0,0,0,0,-1,706,379,0,0
-511,645,0,0,0,0,0,0,0,0,0,-1,713,379,0,0
-504,645,0,0,0,0,0,0,0,0,0,-1,720,379,0,0
-497,645,0,0,0,0,0,0,0,0,0,-1,727,379,0,0
-490,645,0,0,0,0,0,0,0,0,0,-1,734,379,0,0
-483,645,0,0,0,0,0,0,0,0,0,-1,741,379,0,0
-476,645,0,0,0,0,0,0,0,0,0,-1,748,379,0,0
-469,645,0,0,0,0,0,0,0,0,0,-1,755,379,0,0
-462,645,0,0,0,0,0,0,0,0,0,-1,762,379,0,0
-455,645,0,0,0,0,0,0,0,0,0,-1,769,379,0,0
-448,645,0,0,0,0,0,0,0,0,0,-1,776,379,0,0
-441,645,0,0,0,0,0,0,0,0,0,-1,783,379,0,0
-434,645,0,0,0,0,0,0,0,0,0,-1,790,379,0,0
-427,645,0,0,0,0,0,0,0,0,0,-1,797,379,0,0
-420,645,0,0,0,0,0,0,0,0,0,-1,804,379,0,0
-413,645,0,0,0,0,0,0,0,0,0,-1,811,379,0,0
-406,645,0,0,0,0,0,0,0,0,0,-1,818,379,0,0
-399,645,0,0,0,0,0,0,0,0,0,-1,825,379,0,0
-392,645,0,0,0,0,0,0,0,0,0,-1,832,379,0,0
-385,645,0,0,0,0,0,0,0,0,0,-1,839,379,0,0
-378,645,0,0,0,0,0,0,0,0,0,-1,846,379,0,0
-371,645,0,0,0,0,0,0,0,0,0,-1,853,379,0,0
-364,645,0,0,0,0,0,0,0,0,0,-1,860,379,0,0
-357,645,0,0,0,0,0,0,0,0,0,-1,867,379,0,0
-350,645,0,0,0,0,0,0,0,0,0,-1,874,379,0,0
-343,645,0,0,0,0,0,0,0,0,0,-1,881,379,0,0
-336,645,0,0,0,0,0,0,0,0,0,-1,888,379,0,0
-329,645,0,0,0,0,0,0,0,0,0,-1,895,379,0,0
-322,645,0,0,0,0,0,0,0,0,0,-1,902,379,0,0
-315,645,0,0,0,0,0,0,0,0,0,-1,909,379,0,0
-308,645,0,0,0,0,0,0,0,0,0,-1,916,379,0,0
-301,645,0,0,0,0,0,0,0,0,0,-1,923,379,0,0
-294,645,0,0,0,0,0,0,0,0,0,-1,930,379,0,0
-287,645,0,0,0,0,0,0,0,0,0,-1,937,379,0,0
-280,645,0,0,0,0,0,0,0,0,0,-1,944,379,0,0
-273,645,0,0,0,0,0,0,0,0,0,-1,951,379,0,0
-266,645,0,0,0,0,0,0,0,0,0,-1,958,379,0,0
-259,645,0,0,0,0,0,0,0,0,0,-1,965,379,0,0
-252,645,0.651733,-3.25577,0,0,0,0,0,0,0,-1,972,379,0.651726,3.25577
-245,645,1.71387,-2.78027,0,0,0,0,0,0,0,-1,979,379,1.71388,2.78028
-238,645,2.58325,-2.42017,0,0,0,0,0,0,0,-1,986,379,2.58326,2.42016
-231,645,3.45795,-2.38232,0,0,0,0,0,0,0,-1,993,379,3.45796,2.38232
-224,645,1.42303,-1.28458,0,0,0,0,0,0,0,-1,1000,379,1.42302,1.28458
-217,645,1.51923,-2.29935,0,0,0,0,0,0,0,-1,1007,379,1.51921,2.29934
-210,645,1.98999,-4.34366,0,0,0,0,0,0,0,-1,1014,379,1.98998,4.34367
-203,645,2.09857,-4.1853,0.037404,-0.0169489,-0.0198478,0.0438802,-0.023425,-0.315397,0.0394523,0.0436976,1021,379,2.09858,4.18532
-196,645,2.44275,-4.07623,0.0291514,-0.0161784,-0.0176428,0.0352087,-0.0222357,-0.330722,0.0334463,0.0430139,1028,379,2.4427,4.07625
-189,645,2.92407,-3.9097,0,0,0,0,0,0,0,-1,1035,379,2.92402,3.90969
-182,645,2.09937,-3.78888,0,0,0,0,0,0,0,-1,1042,379,2.09933,3.78887
-175,645,2.56201,-3.94153,0,0,0,0,0,0,0,-1,1049,379,2.56196,3.94153
-168,645,2.75806,-4.84592,0.00355872,-0.0130226,-0.0119348,0.00979987,-0.0192637,-0.48183,0.0170738,0.0442265,1056,379,2.7581,4.84592
-161,645,2.37915,-4.59006,-0.000102422,-0.0120244,-0.0107676,0.00624406,-0.0183709,-0.532594,0.0147752,0.0455307,1063,379,2.37915,4.59007
-154,645,2.37122,-4.5094,-0.00252801,-0.0115586,-0.00844247,0.00253079,-0.0166174,-0.539837,0.0120111,0.0388627,1070,379,2.37118,4.50941
-147,645,2.31531,-4.57224,-0.00494064,-0.0108465,-0.0063405,-0.000899176,-0.014888,-0.56747,0.00963961,0.0337303,1077,379,2.31525,4.57224
-140,645,2.18701,-4.60358,-0.00566453,-0.00952922,-0.00461638,-0.00259238,-0.0126014,-0.587186,0.00768396,0.0327682,1084,379,2.18703,4.60359
-133,645,2.34607,-4.63623,-0.00511211,-0.00914739,-0.00293178,-0.00357079,-0.0106887,-0.484018,0.00628338,0.029,1091,379,2.34611,4.63623
-126,645,2.37988,-4.68201,-0.00361572,-0.00824202,-0.00141572,-0.00321687,-0.00864087,-0.274609,0.00504276,0.0228805,1098,379,2.37983,4.68202
-119,645,2.36487,-4.75409,-0.00245617,-0.00738629,5.33734e-05,-0.00245559,-0.00738687,0.0108243,0.00434392,0.0153301,1105,379,2.36483,4.7541
-112,645,2.34851,-4.82034,-0.00138865,-0.00619242,0.00123711,-0.00108878,-0.00649229,0.23781,0.00401478,0.0112649,1112,379,2.34852,4.82035
-105,645,2.33032,-4.86032,-0.000770896,-0.00539144,0.00235574,0.000218361,-0.00638069,0.397572,0.00432842,0.0119084,1119,379,2.33029,4.86034
-98,645,2.30957,-4.90088,-0.000246013,-0.0043993,0.00332425,0.00159692,-0.00624223,0.506208,0.00478349,0.0130551,1126,379,2.30951,4.90087
-91,645,2.31604,-4.94434,0.000165354,-0.00359606,0.00411597,0.00280994,-0.00624064,0.571097,0.00534902,0.0132775,1133,379,2.31606,4.94433
-84,645,2.31628,-4.97552,2.69601e-05,-0.00305076,0.00448541,0.00323015,-0.00625395,0.620149,0.00556764,0.012615,1140,379,2.31629,4.97552
-77,645,2.28699,-5.01001,-0.000514185,-0.0025391,0.00406218,0.00265981,-0.0057131,0.663267,0.00494008,0.011403,1147,379,2.28693,5.01001
-70,645,2.2876,-5.04398,-0.000551447,-0.00197575,0.00350204,0.00231012,-0.00483732,0.685089,0.00421168,0.0108133,1154,379,2.28754,5.04398
-63,645,2.29285,-5.07425,-0.00045401,-0.0017014,0.00298153,0.00196836,-0.00412377,0.682292,0.00358993,0.0112362,1161,379,2.29288,5.07425
-56,645,2.29907,-5.07639,-0.000585285,-0.00137362,0.00265866,0.00170827,-0.00366717,0.711806,0.00317146,0.0118974,1168,379,2.29905,5.07637
-49,645,2.297,-5.10049,-0.000658529,-0.000474704,0.00159455,0.00103058,-0.00216381,0.814187,0.00188257,0.00947642,1175,379,2.297,5.10049
-42,645,2.29578,-5.14316,-0.000793744,-0.000267058,0.00120854,0.000706501,-0.0017673,0.892672,0.00147137,0.00924624,1182,379,2.29575,5.14314
-35,645,2.29968,-5.18655,-0.00123876,-0.00022712,0.00116011,0.000532647,-0.00199853,0.990978,0.0015409,0.010094,1189,379,2.29971,5.18656
-28,645,2.29126,-5.21365,-0.00146047,-0.000363861,0.000942625,0.000178329,-0.00200266,1.04882,0.00139835,0.00788227,1196,379,2.2913,5.21366
-21,645,2.27502,-5.21262,-0.00118264,-0.000525047,0.000553926,-0.000209684,-0.001498,1.05324,0.00093663,0.00908809,1203,379,2.27497,5.21261
-14,645,2.28601,-5.22223,-0.000715328,-0.000514229,0.000433996,-0.000169287,-0.00106027,0.899231,0.00065772,0.00902981,1210,379,2.28601,5.22222
-7,645,2.30225,-5.25082,-0.000674196,-0.000482782,0.000157128,-0.000394508,-0.00076247,1.05894,0.000440301,0.012178,1217,379,2.30229,5.25082
0,645,2.24268,-5.24194,-0.00061213,-0.000381468,-0.000185954,-0.000277983,-0.000715614,-1.06297,0.000416573,0.022989,1224,379,2.24272,5.24194
7,645,2.28198,-5.27493,-0.000522317,-0.000260929,-0.000505334,0.000130338,-0.000913584,-0.91194,0.000656827,0.0161307,1231,379,2.28204,5.27492
14,645,2.29944,-5.28497,-0.00042208,-0.000139133,-0.000730326,0.000463296,-0.00102451,-0.88107,0.000879119,0.0161804,1238,379,2.2994,5.28496
21,645,2.26819,-5.28226,-0.000296587,-3.42275e-05,-0.000756043,0.000601932,-0.000932746,-0.871297,0.000892882,0.011452,1245,379,2.26821,5.28227
28,645,2.26685,-5.30203,-0.000184516,-1.21949e-05,-0.000474214,0.000383622,-0.000580334,-0.875264,0.00056039,0.00948242,1252,379,2.26685,5.30202
35,645,2.25903,-5.30911,-0.000225018,0.000112283,9.85603e-05,0.000138971,-0.000251706,1.30636,0.000228666,0.00833548,1259,379,2.25898,5.30911
42,645,2.25635,-5.31845,-0.000425643,0.000499993,0.000742374,0.000912001,-0.000837651,1.06413,0.00101047,0.00858444,1266,379,2.25639,5.31845
49,645,2.27478,-5.32333,-0.000494858,0.000945797,0.00127843,0.00169287,-0.00124193,1.04195,0.00170106,0.0115881,1273,379,2.27474,5.32334
56,645,2.25891,-5.30124,-0.000741847,0.0011803,0.00193723,0.00238175,-0.0019433,1.01566,0.00250134,0.0113311,1280,379,2.25889,5.30124
63,645,2.24683,-5.28995,-0.000854895,0.00162132,0.00228275,0.00298011,-0.00221368,1.03388,0.0030095,0.0115282,1287,379,2.2468,5.28995
70,645,2.26904,-5.30005,-0.000896648,0.00201311,0.00233859,0.00331244,-0.00219598,1.06366,0.00320199,0.0149226,1294,379,2.26909,5.30004
77,645,2.27466,-5.30389,-0.00105329,0.00244715,0.0020986,0.00342958,-0.00203572,1.13296,0.00318942,0.016922,1301,379,2.27471,5.30389
84,645,2.25098,-5.28174,-0.00106556,0.00291911,0.00155308,0.00345293,-0.00159938,1.23973,0.00298167,0.0123343,1308,379,2.25099,5.28175
91,645,2.23376,-5.27817,-0.000652898,0.00322431,0.000415515,0.00326834,-0.000696928,1.46522,0.00244454,0.0132387,1315,379,2.2338,5.27816
98,645,2.24939,-5.25076,0.000265651,0.00342172,-0.000754897,0.00359299,9.43819e-05,-1.3477,0.00236449,0.0120005,1322,379,2.2494,5.25077
105,645,2.25818,-5.23206,0.00099731,0.00350546,-0.00203502,0.00464179,-0.000139018,-1.06154,0.00314189,0.00964223,1329,379,2.25824,5.23206
112,645,2.24524,-5.21097,0.00186396,0.00346332,-0.00326355,0.00602374,-0.000696458,-0.905547,0.00426697,0.00869628,1336,379,2.24522,5.21097
119,645,2.23547,-5.19141,0.00283881,0.00331512,-0.0043693,0.00745275,-0.00129882,-0.812625,0.00545324,0.00862445,1343,379,2.23548,5.1914
126,645,2.2229,-5.18326,0.00385548,0.00303896,-0.00525086,0.00871392,-0.00181949,-0.746601,0.00650121,0.0108648,1350,379,2.22289,5.18327
133,645,2.22424,-5.16293,0.00482101,0.00270577,-0.00578201,0.00964133,-0.00211455,-0.69494,0.00723613,0.0118656,1357,379,2.22425,5.16294
140,645,2.23096,-5.1246,0.00561492,0.00221671,-0.0058729,0.0100296,-0.00219793,-0.644587,0.00752676,0.0114822,1364,379,2.23098,5.12462
147,645,2.22241,-5.11389,0.00616254,0.00172414,-0.00550431,0.00987818,-0.0019915,-0.593778,0.0073399,0.011788,1371,379,2.22247,5.11388
154,645,2.23621,-5.09784,0.00637751,0.00131953,-0.00479205,0.00926696,-0.00156992,-0.542599,0.0067623,0.0106041,1378,379,2.23625,5.09785
161,645,2.21802,-5.06821,0.00617794,0.000995657,-0.00374429,0.00814022,-0.000966628,-0.482721,0.00577605,0.0126993,1385,379,2.21799,5.06822
168,645,2.21069,-5.0181,0.00544041,0.000517719,-0.00252523,0.0065054,-0.000547268,-0.399105,0.00453038,0.0149399,1392,379,2.21068,5.01809
175,645,2.24768,-4.98593,0.0044708,0.000242344,-0.00122759,0.00480135,-8.8207e-05,-0.263029,0.0032307,0.0124009,1399,379,2.24768,4.98593
182,645,2.24695,-4.96585,0.00338189,0.00022759,2.31407e-05,0.00338206,0.00022742,0.00733571,0.00218285,0.00888721,1406,379,2.24689,4.96587
189,645,2.24695,-4.92371,0.0017006,-7.89147e-05,0.00136164,0.00243742,-0.000815731,0.496002,0.00195445,0.00979262,1413,379,2.24698,4.9237
196,645,2.21521,-4.8913,-0.000811649,-0.000439836,0.00270467,0.00208531,-0.00333679,0.819712,0.00315812,0.0103953,1420,379,2.21523,4.89129
203,645,2.17981,-4.84564,-0.00254901,1.5161e-05,0.00283116,0.001841,-0.00437485,0.998008,0.00368678,0.0113924,1427,379,2.17977,4.84565
210,645,2.21057,-4.80359,-0.00269929,0.000552431,0.00286249,0.00221857,-0.00436543,1.04367,0.00386805,0.0143693,1434,379,2.21055,4.8036
217,645,2.20667,-4.77493,0.000335039,0.00203915,-0.000140219,0.00205062,0.000323578,-1.48924,0.001273,0.0126513,1441,379,2.20664,4.77493
224,645,2.17444,-4.71854,0.00450333,0.00422242,-0.00416993,0.00853516,0.000190584,-0.768563,0.00562766,0.0112974,1448,379,2.17448,4.71853
231,645,2.17603,-4.6427,0.00858991,0.00699716,-0.00864208,0.0164722,-0.000885163,-0.739453,0.0112881,0.0113863,1455,379,2.17596,4.64269
238,645,2.17493,-4.5983,0.0129939,0.0098733,-0.0133265,0.0248511,-0.00198392,-0.727122,0.0172667,0.00895861,1462,379,2.17489,4.59831
245,645,2.19043,-4.56287,0.0172725,0.0123072,-0.0167379,0.0317109,-0.00213119,-0.711773,0.0218856,0.0109844,1469,379,2.19038,4.56288
252,645,2.20959,-4.46072,0.0212095,0.0149041,-0.019694,0.0380015,-0.00188791,-0.70603,0.0259865,0.0166235,1476,379,2.20958,4.46074
259,645,2.1593,-4.40594,0.02442,0.0173191,-0.0226071,0.0437537,-0.00201462,-0.707509,0.0298633,0.0258445,1483,379,2.15933,4.40595
266,645,2.13123,-4.37198,0.0274728,0.0200174,-0.0251531,0.049173,-0.00168272,-0.711833,0.0333571,0.0241724,1490,379,2.13117,4.37199
273,645,2.14417,-4.34128,0.0295561,0.022405,-0.0265308,0.0527512,-0.000790127,-0.718416,0.0354338,0.0234157,1497,379,2.14421,4.34128
280,645,2.23352,-4.21191,0.0304328,0.0247719,-0.026865,0.054616,0.000588637,-0.732912,0.0362161,0.0380508,1504,379,2.23347,4.21191
287,645,2.15808,-4.28073,0,0,0,0,0,0,0,-1,1511,379,2.15804,4.28073
294,645,2.42078,-3.86264,0.0284716,0.0291373,-0.0251321,0.0539388,0.00367013,-0.79202,0.0348004,0.0444008,1518,379,2.42077,3.86264
301,645,2.45715,-3.19971,0.0262895,0.0312752,-0.0234935,0.0524077,0.00515695,-0.838255,0.0333527,0.0472755,1525,379,2.45711,3.1997
308,645,1.84839,-3.87012,0.0235965,0.0331339,-0.0215793,0.0504651,0.00626527,-0.894143,0.0317616,0.0484918,1532,379,1.84843,3.8701
315,645,1.9895,-3.71042,0,0,0,0,0,0,0,-1,1539,379,1.98944,3.71043
322,645,2.12439,-3.52545,0,0,0,0,0,0,0,-1,1546,379,2.12435,3.52544
329,645,0.949463,-2.78928,0,0,0,0,0,0,0,-1,1553,379,0.949479,2.78928
336,645,3.03528,-4.71533,0,0,0,0,0,0,0,-1,1560,379,3.03526,4.71533
343,645,3.48962,-5.22675,0,0,0,0,0,0,0,-1,1567,379,3.48959,5.22675
350,645,3.93213,-5.72198,0,0,0,0,0,0,0,-1,1574,379,3.9321,5.72198
357,645,1.63928,-6.465,0,0,0,0,0,0,0,-1,1581,379,1.63926,6.46499
364,645,-0.0794678,-3.22021,0,0,0,0,0,0,0,-1,1588,379,-0.0794987,3.22021
371,645,0,0,0,0,0,0,0,0,0,-1,1595,379,0,0
378,645,0,0,0,0,0,0,0,0,0,-1,1602,379,0,0
385,645,0,0,0,0,0,0,0,0,0,-1,1609,379,0,0
392,645,0,0,0,0,0,0,0,0,0,-1,1616,379,0,0
399,645,0,0,0,0,0,0,0,0,0,-1,1623,379,0,0
406,645,0,0,0,0,0,0,0,0,0,-1,1630,379,0,0
413,645,0,0,0,0,0,0,0,0,0,-1,1637,379,0,0
420,645,0,0,0,0,0,0,0,0,0,-1,1644,379,0,0
427,645,0,0,0,0,0,0,0,0,0,-1,1651,379,0,0
434,645,0,0,0,0,0,0,0,0,0,-1,1658,379,0,0
441,645,0,0,0,0,0,0,0,0,0,-1,1665,379,0,0
448,645,0,0,0,0,0,0,0,0,0,-1,1672,379,0,0
455,645,0,0,0,0,0,0,0,0,0,-1,1679,379,0,0
462,645,0,0,0,0,0,0,0,0,0,-1,1686,379,0,0
469,645,0,0,0,0,0,0,0,0,0,-1,1693,379,0,0
476,645,0,0,0,0,0,0,0,0,0,-1,1700,379,0,0
483,645,0,0,0,0,0,0,0,0,0,-1,1707,379,0,0
490,645,0,0,0,0,0,0,0,0,0,-1,1714,379,0,0
497,645,0,0,0,0,0,0,0,0,0,-1,1721,379,0,0
504,645,0,0,0,0,0,0,0,0,0,-1,1728,379,0,0
511,645,0,0,0,0,0,0,0,0,0,-1,1735,379,0,0
518,645,0,0,0,0,0,0,0,0,0,-1,1742,379,0,0
525,645,0,0,0,0,0,0,0,0,0,-1,1749,379,0,0
532,645,0,0,0,0,0,0,0,0,0,-1,1756,379,0,0
539,645,0,0,0,0,0,0,0,0,0,-1,1763,379,0,0
546,645,0,0,0,0,0,0,0,0,0,-1,1770,379,0,0
553,645,0,0,0,0,0,0,0,0,0,-1,1777,379,0,0
560,645,0,0,0,0,0,0,0,0,0,-1,1784,379,0,0
567,645,0,0,0,0,0,0,0,0,0,-1,1791,379,0,0
574,645,0,0,0,0,0,0,0,0,0,-1,1798,379,0,0
581,645,0,0,0,0,0,0,0,0,0,-1,1805,379,0,0
588,645,0,0,0,0,0,0,0,0,0,-1,1812,379,0,0
595,645,0,0,0,0,0,0,0,0,0,-1,1819,379,0,0
602,645,0,0,0,0,0,0,0,0,0,-1,1826,379,0,0
609,645,0,0,0,0,0,0,0,0,0,-1,1833,379,0,0
616,645,0,0,0,0,0,0,0,0,0,-1,1840,379,0,0
623,645,0,0,0,0,0,0,0,0,0,-1,1847,379,0,0
630,645,0,0,0,0,0,0,0,0,0,-1,1854,379,0,0
637,645,0,0,0,0,0,0,0,0,0,-1,1861,379,0,0
644,645,0,0,0,0,0,0,0,0,0,-1,1868,379,0,0
651,645,0,0,0,0,0,0,0,0,0,-1,1875,379,0,0
658,645,0,0,0,0,0,0,0,0,0,-1,1882,379,0,0
665,645,0,0,0,0,0,0,0,0,0,-1,1889,379,0,0
672,645,0,0,0,0,0,0,0,0,0,-1,1896,379,0,0
679,645,0,0,0,0,0,0,0,0,0,-1,1903,379,0,0
686,645,0,0,0,0,0,0,0,0,0,-1,1910,379,0,0
693,645,0,0,0,0,0,0,0,0,0,-1,1917,379,0,0
700,645,0,0,0,0,0,0,0,0,0,-1,1924,379,0,0
707,645,0,0,0,0,0,0,0,0,0,-1,1931,379,0,0
714,645,0,0,0,0,0,0,0,0,0,-1,1938,379,0,0
721,645,0,0,0,0,0,0,0,0,0,-1,1945,379,0,0
728,645,0,0,0,0,0,0,0,0,0,-1,1952,379,0,0
735,645,0,0,0,0,0,0,0,0,0,-1,1959,379,0,0
742,645,0,0,0,0,0,0,0,0,0,-1,1966,379,0,0
749,645,0,0,0,0,0,0,0,0,0,-1,1973,379,0,0
756,645,0,0,0,0,0,0,0,0,0,-1,1980,379,0,0
763,645,0,0,0,0,0,0,0,0,0,-1,1987,379,0,0
770,645,0,0,0,0,0,0,0,0,0,-1,1994,379,0,0
777,645,0,0,0,0,0,0,0,0,0,-1,2001,379,0,0
784,645,0,0,0,0,0,0,0,0,0,-1,2008,379,0,0
791,645,0,0,0,0,0,0,0,0,0,-1,2015,379,0,0
798,645,0,0,0,0,0,0,0,0,0,-1,2022,379,0,0
805,645,0,0,0,0,0,0,0,0,0,-1,2029,379,0,0
812,645,0,0,0,0,0,0,0,0,0,-1,2036,379,0,0
-700,638,0,0,0,0,0,0,0,0,0,-1,524,386,0,0
-693,638,0,0,0,0,0,0,0,0,0,-1,531,386,0,0
-686,638,0,0,0,0,0,0,0,0,0,-1,538,386,0,0
-679,638,0,0,0,0,0,0,0,0,0,-1,545,386,0,0
-672,638,0,0,0,0,0,0,0,0,0,-1,552,386,0,0
-665,638,0,0,0,0,0,0,0,0,0,-1,559,386,0,0
-658,638,0,0,0,0,0,0,0,0,0,-1,566,386,0,0
-651,638,0,0,0,0,0,0,0,0,0,-1,573,386,0,0
-644,638,0,0,0,0,0,0,0,0,0,-1,580,386,0,0
-637,638,0,0,0,0,0,0,0,0,0,-1,587,386,0,0
-630,638,0,0,0,0,0,0,0,0,0,-1,594,386,0,0
-623,638,0,0,0,0,0,0,0,0,0,-1,601,386,0,0
-616,638,0,0,0,0,0,0,0,0,0,-1,608,386,0,0
-609,638,0,0,0,0,0,0,0,0,0,-1,615,386,0,0
-602,638,0,0,0,0,0,0,0,0,0,-1,622,386,0,0
-595,638,0,0,0,0,0,0,0,0,0,-1,629,386,0,0
-588,638,0,0,0,0,0,0,0,0,0,-1,636,386,0,0
-581,638,0,0,0,0,0,0,0,0,0,-1,643,386,0,0
-574,638,0,0,0,0,0,0,0,0,0,-1,650,386,0,0
-567,638,0,0,0,0,0,0,0,0,0,-1,657,386,0,0
-560,638,0,0,0,0,0,0,0,0,0,-1,664,386,0,0
-553,638,0,0,0,0,0,0,0,0,0,-1,671,386,0,0
-546,638,0,0,0,0,0,0,0,0,0,-1,678,386,0,0
-539,638,0,0,0,0,0,0,0,0,0,-1,685,386,0,0
-532,638,0,0,0,0,0,0,0,0,0,-1,692,386,0,0
-525,638,0,0,0,0,0,0,0,0,0,-1,699,386,0,0
-518,638,0,0,0,0,0,0,0,0,0,-1,706,386,0,0
-511,638,0,0,0,0,0,0,0,0,0,-1,713,386,0,0
-504,638,0,0,0,0,0,0,0,0,0,-1,720,386,0,0
-497,638,0,0,0,0,0,0,0,0,0,-1,727,386,0,0
-490,638,0,0,0,0,0,0,0,0,0,-1,734,386,0,0
-483,638,0,0,0,0,0,0,0,0,0,-1,741,386,0,0
-476,638,0,0,0,0,0,0,0,0,0,-1,748,386,0,0
-469,638,0,0,0,0,0,0,0,0,0,-1,755,386,0,0
-462,638,0,0,0,0,0,0,0,0,0,-1,762,386,0,0
-455,638,0,0,0,0,0,0,0,0,0,-1,769,386,0,0
-448,638,0,0,0,0,0,0,0,0,0,-1,776,386,0,0
-441,638,0,0,0,0,0,0,0,0,0,-1,783,386,0,0
-434,638,0,0,0,0,0,0,0,0,0,-1,790,386,0,0
-427,638,0,0,0,0,0,0,0,0,0,-1,797,386,0,0
-420,638,0,0,0,0,0,0,0,0,0,-1,804,386,0,0
-413,638,0,0,0,0,0,0,0,0,0,-1,811,386,0,0
-406,638,0,0,0,0,0,0,0,0,0,-1,818,386,0,0
-399,638,0,0,0,0,0,0,0,0,0,-1,825,386,0,0
-392,638,0,0,0,0,0,0,0,0,0,-1,832,386,0,0
-385,638,0,0,0,0,0,0,0,0,0,-1,839,386,0,0
-378,638,0,0,0,0,0,0,0,0,0,-1,846,386,0,0
-371,638,0,0,0,0,0,0,0,0,0,-1,853,386,0,0
-364,638,0,0,0,0,0,0,0,0,0,-1,860,386,0,0
-357,638,0,0,0,0,0,0,0,0,0,-1,867,386,0,0
-350,638,0,0,0,0,0,0,0,0,0,-1,874,386,0,0
-343,638,0,0,0,0,0,0,0,0,0,-1,881,386,0,0
-336,638,0,0,0,0,0,0,0,0,0,-1,888,386,0,0
-329,638,0,0,0,0,0,0,0,0,0,-1,895,386,0,0
-322,638,0,0,0,0,0,0,0,0,0,-1,902,386,0,0
-315,638,0,0,0,0,0,0,0,0,0,-1,909,386,0,0
-308,638,0,0,0,0,0,0,0,0,0,-1,916,386,0,0
-301,638,0,0,0,0,0,0,0,0,0,-1,923,386,0,0
-294,638,0,0,0,0,0,0,0,0,0,-1,930,386,0,0
-287,638,0,0,0,0,0,0,0,0,0,-1,937,386,0,0
-280,638,0,0,0,0,0,0,0,0,0,-1,944,386,0,0
-273,638,0,0,0,0,0,0,0,0,0,-1,951,386,0,0
-266,638,-1.87286,-4.27911,0,0,0,0,0,0,0,-1,958,386,-1.87287,4.2791
-259,638,-0.718689,-3.6188,0,0,0,0,0,0,0,-1,965,386,-0.71871,3.61881
-252,638,0.471802,-3.26276,0,0,0,0,0,0,0,-1,972,386,0.471812,3.26276
-245,638,1.53668,-2.85278,0,0,0,0,0,0,0,-1,979,386,1.53668,2.85279
-238,638,2.33508,-2.6153,0,0,0,0,0,0,0,-1,986,386,2.33509,2.61529
-231,638,3.02954,-2.69269,0,0,0,0,0,0,0,-1,993,386,3.02956,2.69269
-224,638,1.24567,-1.89859,0,0,0,0,0,0,0,-1,1000,386,1.2457,1.89859
-217,638,1.40704,-2.92273,0,0,0,0,0,0,0,-1,1007,386,1.40701,2.92274
-210,638,1.6131,-4.00443,0,0,0,0,0,0,0,-1,1014,386,1.61307,4.00443
-203,638,2.58173,-3.67068,0,0,0,0,0,0,0,-1,1021,386,2.58175,3.67067
-196,638,2.70374,-3.59799,0.0204212,-0.011926,-0.0128587,0.0249099,-0.0164147,-0.335855,0.0240263,0.0465967,1028,386,2.70371,3.59798
-189,638,2.72925,-3.81448,0.014894,-0.0110192,-0.011706,0.0193989,-0.0155241,-0.367367,0.0202041,0.0470435,1035,386,2.72929,3.8145
-182,638,2.54297,-3.87515,0,0,0,0,0,0,0,-1,1042,386,2.54294,3.87514
-175,638,2.45947,-4.08035,0.0061394,-0.00979881,-0.00939647,0.010491,-0.0141504,-0.433704,0.0142789,0.0453776,1049,386,2.45944,4.08036
-168,638,2.45056,-4.26239,0.00237242,-0.00907656,-0.00847126,0.00687202,-0.0135762,-0.488264,0.0120154,0.033048,1056,386,2.45061,4.26239
-161,638,2.35205,-4.4368,-0.000255041,-0.00833777,-0.00763557,0.00434272,-0.0129355,-0.541999,0.0103787,0.0281105,1063,386,2.35204,4.4368
-154,638,2.34277,-4.50531,-0.00194977,-0.00779256,-0.00644594,0.00220588,-0.0119482,-0.572636,0.00879349,0.0211073,1070,386,2.34274,4.50532
-147,638,2.31628,-4.57257,-0.0035952,-0.00716895,-0.00537004,0.000277449,-0.0110416,-0.624786,0.00745527,0.0159669,1077,386,2.31623,4.57256
-140,638,2.30859,-4.60379,-0.00400942,-0.00612471,-0.00434947,-0.000590853,-0.00954328,-0.66613,0.00617466,0.0126324,1084,386,2.30864,4.60378
-133,638,2.3208,-4.67749,-0.0035179,-0.00584941,-0.00334725,-0.00113921,-0.00822809,-0.617831,0.00514785,0.0103496,1091,386,2.32086,4.67749
-126,638,2.30981,-4.72144,-0.00240685,-0.00517305,-0.00242765,-0.000995949,-0.00658395,-0.526466,0.00409786,0.0117176,1098,386,2.30986,4.72142
-119,638,2.30261,-4.76096,-0.0015421,-0.00449043,-0.00149695,-0.000915307,-0.00511723,-0.396533,0.00315101,0.0132236,1105,386,2.30256,4.76095
-112,638,2.29163,-4.82047,-0.000711706,-0.00347635,-0.000760848,-0.000516149,-0.00367191,-0.25158,0.00229532,0.0129143,1112,386,2.29167,4.82048
-105,638,2.26721,-4.86792,-0.000240906,-0.00280383,8.97422e-07,-0.000240906,-0.00280383,0.000350156,0.00179432,0.0160624,1119,386,2.26726,4.86791
-98,638,2.27319,-4.9118,0.000162227,-0.00197852,0.000713827,0.000378418,-0.00219471,0.29408,0.00160423,0.0168182,1126,386,2.27314,4.91179
-91,638,2.27527,-4.96048,0.000472523,-0.00132695,0.00132891,0.00117763,-0.00203207,0.487821,0.00187488,0.0127688,1133,386,2.27528,4.96048
-84,638,2.2522,-4.98572,0.000315606,-0.000920841,0.00172027,0.00152537,-0.00213061,0.612897,0.0021204,0.013491,1140,386,2.25216,4.98572
-77,638,2.2478,-5.00946,-0.000156679,-0.000606745,0.00158326,0.00121746,-0.00198088,0.714805,0.00186402,0.010831,1147,386,2.24783,5.00947
-70,638,2.27393,-5.03006,-0.000135149,-0.000291379,0.00143297,0.00122183,-0.00164836,0.758169,0.00166319,0.0106775,1154,386,2.27398,5.03005
-63,638,2.27856,-5.07025,-2.37377e-05,-0.000192403,0.0012801,0.0011748,-0.00139094,0.752506,0.00148308,0.0113306,1161,386,2.27853,5.07024
-56,638,2.28625,-5.10178,-9.13511e-05,-7.00474e-05,0.0012311,0.00115045,-0.00131184,0.789724,0.00142262,0.0142708,1168,386,2.28622,5.10178
-49,638,2.27783,-5.11606,-0.000135608,0.000288845,0.000861828,0.000964192,-0.000810956,0.906122,0.00102615,0.0119112,1175,386,2.27779,5.11606
-42,638,2.27014,-5.1644,-0.000166358,0.00032428,0.000794065,0.000910057,-0.000752135,0.935218,0.00096111,0.0107132,1182,386,2.27019,5.16441
-35,638,2.27881,-5.19556,-0.000223357,0.000258409,0.000758146,0.000813019,-0.000777968,0.939218,0.000918631,0.0102745,1189,386,2.27875,5.19556
-28,638,2.27673,-5.22067,-0.000118407,9.92646e-05,0.000654883,0.000654295,-0.000673437,0.867741,0.000766593,0.00948555,1196,386,2.27674,5.22066
-21,638,2.25488,-5.21094,0.000147485,-9.3559e-05,0.000511493,0.000552463,-0.000498537,0.669694,0.000607061,0.0101586,1203,386,2.25485,5.21092
-14,638,2.255,-5.21848,0.000370082,-0.000222475,0.000367928,0.000546193,-0.000398586,0.446428,0.000547683,0.0100146,1210,386,2.25494,5.21849
-7,638,2.24817,-5.27856,0.000485706,-0.000261058,0.000120432,0.000504647,-0.00028,0.156004,0.000459164,0.0153866,1217,386,2.24817,5.27857
0,638,2.25806,-5.2485,0.000561786,-0.000279289,-0.000144044,0.000585772,-0.000303275,-0.165,0.000521857,0.0289734,1224,386,2.25809,5.24849
7,638,2.24963,-5.26102,0.000624606,-0.000286524,-0.000384614,0.000765252,-0.00042717,-0.350575,0.000697608,0.0232472,1231,386,2.24965,5.26102
14,638,2.28284,-5.27484,0.000672986,-0.000321269,-0.000521277,0.000896182,-0.000544464,-0.404553,0.00083998,0.0128243,1238,386,2.2828,5.27485
21,638,2.26709,-5.29288,0.000661161,-0.00037452,-0.000611244,0.000944431,-0.00065779,-0.433968,0.000929964,0.010502,1245,386,2.26709,5.29288
28,638,2.25208,-5.29993,0.000495911,-0.00044278,-0.000488487,0.00070399,-0.00065086,-0.40269,0.000782424,0.00808462,1252,386,2.25212,5.29994
35,638,2.25867,-5.30264,0.000291806,-0.000500439,-0.000131201,0.000312968,-0.000521601,-0.159921,0.000486832,0.00941679,1259,386,2.25866,5.30265
42,638,2.28101,-5.31525,0.000131303,-0.000444523,0.000306609,0.000263989,-0.000577208,0.408418,0.000496761,0.00881461,1266,386,2.28096,5.31524
49,638,2.2804,-5.3035,5.09406e-05,-0.000200719,0.000622386,0.000560089,-0.000709867,0.685656,0.000734907,0.00750943,1273,386,2.28042,5.30348
56,638,2.26709,-5.28745,-0.000135628,-0.000113236,0.00103524,0.00091087,-0.00115973,0.790806,0.00119834,0.0101799,1280,386,2.2671,5.28743
63,638,2.27417,-5.30194,-0.00018923,0.000115685,0.00123728,0.00120987,-0.00128341,0.846699,0.00143971,0.0125778,1287,386,2.27417,5.30196
70,638,2.28516,-5.29071,-0.000117318,0.000464401,0.00114849,0.00135829,-0.00101121,0.909418,0.00137291,0.0166327,1294,386,2.28519,5.29071
77,638,2.26538,-5.30704,-8.48396e-05,0.000890899,0.000807241,0.00134624,-0.000540185,1.05721,0.00112178,0.0170165,1301,386,2.26534,5.30705
84,638,2.26257,-5.28088,0.000167231,0.00137844,0.000255271,0.00143004,0.00011563,1.37134,0.000917252,0.0123117,1308,386,2.26263,5.2809
91,638,2.27563,-5.23825,0.0004802,0.00180277,-0.000523319,0.00198479,0.000298182,-1.23607,0.00123585,0.0134557,1315,386,2.27563,5.23826
98,638,2.26733,-5.23898,0.000706694,0.00215234,-0.00139575,0.00300133,-0.00014229,-1.02432,0.00204996,0.012718,1322,386,2.26728,5.239
105,638,2.255,-5.23724,0.00106604,0.00243375,-0.00232152,0.00417004,-0.000670248,-0.928633,0.00302827,0.0100279,1329,386,2.25495,5.23725
112,638,2.2489,-5.23108,0.00141135,0.00258788,-0.00317452,0.00522818,-0.00122895,-0.877014,0.0039592,0.00922442,1336,386,2.24887,5.23107
119,638,2.24963,-5.22083,0.00169805,0.00268405,-0.00391005,0.00613206,-0.00174995,-0.84811,0.00477937,0.010859,1343,386,2.24962,5.22081
126,638,2.25024,-5.20731,0.00196973,0.00259668,-0.00435998,0.00665444,-0.00208803,-0.821286,0.00527198,0.0145686,1350,386,2.25029,5.20729
133,638,2.2594,-5.18335,0.00220681,0.00234399,-0.00455332,0.00682924,-0.00227843,-0.792929,0.00547275,0.0151728,1357,386,2.25942,5.18336
140,638,2.2511,-5.12891,0.00218076,0.00196522,-0.00444701,0.00652131,-0.00237533,-0.773283,0.00531914,0.015388,1364,386,2.25114,5.12889
147,638,2.25964,-5.10074,0.00197285,0.00160377,-0.00400169,0.00579425,-0.00221764,-0.762357,0.00477683,0.0171994,1371,386,2.25965,5.10073
154,638,2.27795,-5.09607,0.00178027,0.00113059,-0.00331392,0.00478523,-0.00187437,-0.736543,0.00396546,0.015737,1378,386,2.27801,5.09608
161,638,2.25305,-5.05957,0.00150571,0.000780842,-0.00245377,0.00362367,-0.00133712,-0.712076,0.00296379,0.0183532,1385,386,2.253,5.05957
168,638,2.2655,-5.01212,0.000992734,0.000365176,-0.00152476,0.00223567,-0.000877762,-0.683921,0.00185365,0.0227297,1392,386,2.26551,5.01213
175,638,2.30164,-4.98758,0.000377105,6.13792e-05,-0.000548785,0.000790281,-0.000351797,-0.64535,0.000675384,0.0173837,1399,386,2.30168,4.98757
182,638,2.28149,-4.9704,-0.000177272,7.10542e-06,0.000317107,0.000245153,-0.000415319,0.926858,0.000385519,0.0109549,1406,386,2.28154,4.9704
189,638,2.27795,-4.93613,-0.000990816,-0.000205654,0.00116745,0.000633453,-0.00182992,0.947595,0.00147709,0.00950585,1413,386,2.27795,4.93611
196,638,2.26794,-4.88919,-0.00182411,-0.00034575,0.00182398,0.000883135,-0.00305299,0.977913,0.00238485,0.0131591,1420,386,2.2679,4.88918
203,638,2.24304,-4.85184,-0.00189951,-4.78104e-05,0.00196381,0.00119745,-0.00314477,1.00568,0.00258966,0.020691,1427,386,2.24299,4.85184
210,638,2.2262,-4.82132,-0.00205547,0.000329628,0.00201253,0.00147641,-0.00320225,1.05286,0.0027618,0.0175191,1434,386,2.22625,4.82132
217,638,2.23047,-4.79605,-0.000353264,0.0012647,0.000309769,0.00132198,-0.000410544,1.38795,0.0010454,0.0124183,1441,386,2.23047,4.79604
224,638,2.22791,-4.74005,0.00215658,0.00260005,-0.00207147,0.00446162,0.000295005,-0.838717,0.00288112,0.0105685,1448,386,2.22787,4.74006
231,638,2.21985,-4.65851,0.00477587,0.00434459,-0.0048614,0.00942641,-0.000305951,-0.763234,0.0063887,0.0111032,1455,386,2.21984,4.65852
238,638,2.2196,-4.62418,0.00771858,0.00625783,-0.00790187,0.0149238,-0.000947346,-0.739314,0.0102795,0.0114069,1462,386,2.21955,4.62418
245,638,2.21606,-4.56091,0.0106193,0.00793453,-0.00999315,0.0193598,-0.000806012,-0.718634,0.0131834,0.0137383,1469,386,2.21609,4.56091
252,638,2.19739,-4.50421,0.0132851,0.00983312,-0.0117642,0.0234492,-0.000330978,-0.712559,0.0157443,0.0161703,1476,386,2.19738,4.50423
259,638,2.21558,-4.44861,0.0154212,0.0115826,-0.0136379,0.0272742,-0.000270411,-0.715492,0.0182736,0.0149338,1483,386,2.2156,4.44859
266,638,2.19983,-4.40305,0.0174782,0.0136105,-0.0152743,0.0309406,0.000148178,-0.722428,0.0205778,0.0112142,1490,386,2.19981,4.40305
273,638,2.19763,-4.36661,0.0188878,0.0154419,-0.0161011,0.0333579,0.000971789,-0.732097,0.0219219,0.0104553,1497,386,2.19766,4.36662
280,638,2.23706,-4.27893,0.0194178,0.0173184,-0.0161921,0.0345942,0.002142,-0.75303,0.022383,0.0182546,1504,386,2.23704,4.27892
287,638,2.32495,-4.16147,0.0189318,0.0190678,-0.0157661,0.0347661,0.00323351,-0.787554,0.0221783,0.0300597,1511,386,2.32501,4.16148
294,638,2.29419,-4.12653,0.0177245,0.0208248,-0.0147714,0.0341272,0.00442219,-0.837678,0.02143,0.0369363,1518,386,2.29425,4.12652
301,638,2.22375,-4.0105,0.0160212,0.0225689,-0.0135175,0.0332034,0.00538671,-0.904206,0.0205764,0.0452003,1525,386,2.22377,4.0105
308,638,2.16272,-3.92307,0.0139117,0.0241342,-0.0120254,0.0320896,0.00595636,-0.98635,0.0197099,0.0449491,1532,386,2.16266,3.92306
315,638,1.9458,-3.50659,0,0,0,0,0,0,0,-1,1539,386,1.9458,3.5066
322,638,1.98328,-3.56265,0,0,0,0,0,0,0,-1,1546,386,1.98325,3.56264
329,638,1.92224,-3.31912,0,0,0,0,0,0,0,-1,1553,386,1.9223,3.31914
336,638,1.43494,-3.59229,0,0,0,0,0,0,0,-1,1560,386,1.43491,3.59229
343,638,0.735962,-4.61325,0,0,0,0,0,0,0,-1,1567,386,0.736014,4.61325
350,638,2.81494,-4.29047,0,0,0,0,0,0,0,-1,1574,386,2.81494,4.29047
357,638,0.130371,-3.02618,0,0,0,0,0,0,0,-1,1581,386,0.130345,3.0262
364,638,0.275635,-3.19763,0,0,0,0,0,0,0,-1,1588,386,0.275652,3.19762
371,638,0.438721,-3.35147,-0.00825804,-0.0095587,-0.00697218,-0.00190593,-0.0159108,-0.738895,0.0100324,0.044554,1595,386,0.438775,3.35146
378,638,0.536133,-3.38794,-0.00781204,-0.0152634,-0.00615878,-0.00433971,-0.0187357,-0.513378,0.0113245,0.0476422,1602,386,0.536095,3.38793
385,638,0,0,0,0,0,0,0,0,0,-1,1609,386,0,0
392,638,0,0,0,0,0,0,0,0,0,-1,1616,386,0,0
399,638,0,0,0,0,0,0,0,0,0,-1,1623,386,0,0
406,638,0,0,0,0,0,0,0,0,0,-1,1630,386,0,0
413,638,0,0,0,0,0,0,0,0,0,-1,1637,386,0,0
420,638,0,0,0,0,0,0,0,0,0,-1,1644,386,0,0
427,638,0,0,0,0,0,0,0,0,0,-1,1651,386,0,0
434,638,0,0,0,0,0,0,0,0,0,-1,1658,386,0,0
441,638,0,0,0,0,0,0,0,0,0,-1,1665,386,0,0
448,638,0,0,0,0,0,0,0,0,0,-1,1672,386,0,0
455,638,0,0,0,0,0,0,0,0,0,-1,1679,386,0,0
462,638,0,0,0,0,0,0,0,0,0,-1,1686,386,0,0
469,638,0,0,0,0,0,0,0,0,0,-1,1693,386,0,0
476,638,0,0,0,0,0,0,0,0,0,-1,1700,386,0,0
483,638,0,0,0,0,0,0,0,0,0,-1,1707,386,0,0
490,638,0,0,0,0,0,0,0,0,0,-1,1714,386,0,0
497,638,0,0,0,0,0,0,0,0,0,-1,1721,386,0,0
504,638,0,0,0,0,0,0,0,0,0,-1,1728,386,0,0
511,638,0,0,0,0,0,0,0,0,0,-1,1735,386,0,0
518,638,0,0,0,0,0,0,0,0,0,-1,1742,386,0,0
525,638,0,0,0,0,0,0,0,0,0,-1,1749,386,0,0
532,638,0,0,0,0,0,0,0,0,0,-1,1756,386,0,0
539,638,0,0,0,0,0,0,0,0,0,-1,1763,386,0,0
546,638,0,0,0,0,0,0,0,0,0,-1,1770,386,0,0
553,638,0,0,0,0,0,0,0,0,0,-1,1777,386,0,0
560,638,0,0,0,0,0,0,0,0,0,-1,1784,386,0,0
567,638,0,0,0,0,0,0,0,0,0,-1,1791,386,0,0
574,638,0,0,0,0,0,0,0,0,0,-1,1798,386,0,0
581,638,0,0,0,0,0,0,0,0,0,-1,1805,386,0,0
588,638,0,0,0,0,0,0,0,0,0,-1,1812,386,0,0
595,638,0,0,0,0,0,0,0,0,0,-1,1819,386,0,0
602,638,0,0,0,0,0,0,0,0,0,-1,1826,386,0,0
609,638,0,0,0,0,0,0,0,0,0,-1,1833,386,0,0
616,638,0,0,0,0,0,0,0,0,0,-1,1840,386,0,0
623,638,0,0,0,0,0,0,0,0,0,-1,1847,386,0,0
630,638,0,0,0,0,0,0,0,0,0,-1,1854,386,0,0
637,638,0,0,0,0,0,0,0,0,0,-1,1861,386,0,0
644,638,0,0,0,0,0,0,0,0,0,-1,1868,386,0,0
651,638,0,0,0,0,0,0,0,0,0,-1,1875,386,0,0
658,638,0,0,0,0,0,0,0,0,0,-1,1882,386,0,0
665,638,0,0,0,0,0,0,0,0,0,-1,1889,386,0,0
672,638,0,0,0,0,0,0,0,0,0,-1,1896,386,0,0
679,638,0,0,0,0,0,0,0,0,0,-1,1903,386,0,0
686,638,0,0,0,0,0,0,0,0,0,-1,1910,386,0,0
693,638,0,0,0,0,0,0,0,0,0,-1,1917,386,0,0
700,638,0,0,0,0,0,0,0,0,0,-1,1924,386,0,0
707,638,0,0,0,0,0,0,0,0,0,-1,1931,386,0,0
714,638,0,0,0,0,0,0,0,0,0,-1,1938,386,0,0
721,638,0,0,0,0,0,0,0,0,0,-1,1945,386,0,0
728,638,0,0,0,0,0,0,0,0,0,-1,1952,386,0,0
735,638,0,0,0,0,0,0,0,0,0,-1,1959,386,0,0
742,638,0,0,0,0,0,0,0,0,0,-1,1966,386,0,0
749,638,0,0,0,0,0,0,0,0,0,-1,1973,386,0,0
756,638,0,0,0,0,0,0,0,0,0,-1,1980,386,0,0
763,638,0,0,0,0,0,0,0,0,0,-1,1987,386,0,0
770,638,0,0,0,0,0,0,0,0,0,-1,1994,386,0,0
777,638,0,0,0,0,0,0,0,0,0,-1,2001,386,0,0
784,638,0,0,0,0,0,0,0,0,0,-1,2008,386,0,0
791,638,0,0,0,0,0,0,0,0,0,-1,2015,386,0,0
798,638,0,0,0,0,0,0,0,0,0,-1,2022,386,0,0
805,638,0,0,0,0,0,0,0,0,0,-1,2029,386,0,0
812,638,0,0,0,0,0,0,0,0,0,-1,2036,386,0,0
-700,631,0,0,0,0,0,0,0,0,0,-1,524,393,0,0
-693,631,0,0,0,0,0,0,0,0,0,-1,531,393,0,0
-686,631,0,0,0,0,0,0,0,0,0,-1,538,393,0,0
-679,631,0,0,0,0,0,0,0,0,0,-1,545,393,0,0
-672,631,0,0,0,0,0,0,0,0,0,-1,552,393,0,0
-665,631,0,0,0,0,0,0,0,0,0,-1,559,393,0,0
-658,631,0,0,0,0,0,0,0,0,0,-1,566,393,0,0
-651,631,0,0,0,0,0,0,0,0,0,-1,573,393,0,0
-644,631,0,0,0,0,0,0,0,0,0,-1,580,393,0,0
-637,631,0,0,0,0,0,0,0,0,0,-1,587,393,0,0
-630,631,0,0,0,0,0,0,0,0,0,-1,594,393,0,0
-623,631,0,0,0,0,0,0,0,0,0,-1,601,393,0,0
-616,631,0,0,0,0,0,0,0,0,0,-1,608,393,0,0
-609,631,0,0,0,0,0,0,0,0,0,-1,615,393,0,0
-602,631,0,0,0,0,0,0,0,0,0,-1,622,393,0,0
-595,631,0,0,0,0,0,0,0,0,0,-1,629,393,0,0
-588,631,0,0,0,0,0,0,0,0,0,-1,636,393,0,0
-581,631,0,0,0,0,0,0,0,0,0,-1,643,393,0,0
-574,631,0,0,0,0,0,0,0,0,0,-1,650,393,0,0
-567,631,0,0,0,0,0,0,0,0,0,-1,657,393,0,0
-560,631,0,0,0,0,0,0,0,0,0,-1,664,393,0,0
-553,631,0,0,0,0,0,0,0,0,0,-1,671,393,0,0
-546,631,0,0,0,0,0,0,0,0,0,-1,678,393,0,0
-539,631,0,0,0,0,0,0,0,0,0,-1,685,393,0,0
-532,631,0,0,0,0,0,0,0,0,0,-1,692,393,0,0
-525,631,0,0,0,0,0,0,0,0,0,-1,699,393,0,0
-518,631,0,0,0,0,0,0,0,0,0,-1,706,393,0,0
-511,631,0,0,0,0,0,0,0,0,0,-1,713,393,0,0
-504,631,0,0,0,0,0,0,0,0,0,-1,720,393,0,0
-497,631,0,0,0,0,0,0,0,0,0,-1,727,393,0,0
-490,631,0,0,0,0,0,0,0,0,0,-1,734,393,0,0
-483,631,0,0,0,0,0,0,0,0,0,-1,741,393,0,0
-476,631,0,0,0,0,0,0,0,0,0,-1,748,393,0,0
-469,631,0,0,0,0,0,0,0,0,0,-1,755,393,0,0
-462,631,0,0,0,0,0,0,0,0,0,-1,762,393,0,0
-455,631,0,0,0,0,0,0,0,0,0,-1,769,393,0,0
-448,631,0,0,0,0,0,0,0,0,0,-1,776,393,0,0
-441,631,0,0,0,0,0,0,0,0,0,-1,783,393,0,0
-434,631,0,0,0,0,0,0,0,0,0,-1,790,393,0,0
-427,631,0,0,0,0,0,0,0,0,0,-1,797,393,0,0
-420,631,0,0,0,0,0,0,0,0,0,-1,804,393,0,0
-413,631,0,0,0,0,0,0,0,0,0,-1,811,393,0,0
-406,631,0,0,0,0,0,0,0,0,0,-1,818,393,0,0
-399,631,0,0,0,0,0,0,0,0,0,-1,825,393,0,0
-392,631,0,0,0,0,0,0,0,0,0,-1,832,393,0,0
-385,631,0,0,0,0,0,0,0,0,0,-1,839,393,0,0
-378,631,0,0,0,0,0,0,0,0,0,-1,846,393,0,0
-371,631,0,0,0,0,0,0,0,0,0,-1,853,393,0,0
-364,631,0,0,0,0,0,0,0,0,0,-1,860,393,0,0
-357,631,0,0,0,0,0,0,0,0,0,-1,867,393,0,0
-350,631,0,0,0,0,0,0,0,0,0,-1,874,393,0,0
-343,631,0,0,0,0,0,0,0,0,0,-1,881,393,0,0
-336,631,0,0,0,0,0,0,0,0,0,-1,888,393,0,0
-329,631,0,0,0,0,0,0,0,0,0,-1,895,393,0,0
-322,631,0,0,0,0,0,0,0,0,0,-1,902,393,0,0
-315,631,0,0,0,0,0,0,0,0,0,-1,909,393,0,0
-308,631,0,0,0,0,0,0,0,0,0,-1,916,393,0,0
-301,631,0,0,0,0,0,0,0,0,0,-1,923,393,0,0
-294,631,0,0,0,0,0,0,0,0,0,-1,930,393,0,0
-287,631,0,0,0,0,0,0,0,0,0,-1,937,393,0,0
-280,631,0.865479,-7.32532,0,0,0,0,0,0,0,-1,944,393,0.865472,7.32533
-273,631,1.74335,-6.38959,0,0,0,0,0,0,0,-1,951,393,1.74336,6.38958
-266,631,2.63336,-5.43369,0,0,0,0,0,0,0,-1,958,393,2.63337,5.4337
-259,631,2.46277,-3.78186,0,0,0,0,0,0,0,-1,965,393,2.46274,3.78186
-252,631,2.5639,-3.18323,0,0,0,0,0,0,0,-1,972,393,2.56392,3.18324
-245,631,2.31836,-2.79776,0,0,0,0,0,0,0,-1,979,393,2.31835,2.79777
-238,631,2.70282,-3.86392,0,0,0,0,0,0,0,-1,986,393,2.70282,3.86393
-231,631,2.79303,-4.21335,0,0,0,0,0,0,0,-1,993,393,2.79303,4.21335
-224,631,3.3222,-3.07343,0,0,0,0,0,0,0,-1,1000,393,3.32223,3.07341
-217,631,1.92438,-4.39774,0,0,0,0,0,0,0,-1,1007,393,1.92435,4.39773
-210,631,2.06018,-4.707,0,0,0,0,0,0,0,-1,1014,393,2.06015,4.70701
-203,631,2.54663,-4.16376,0,0,0,0,0,0,0,-1,1021,393,2.54666,4.16374
-196,631,2.6958,-3.92673,0,0,0,0,0,0,0,-1,1028,393,2.69575,3.92674
-189,631,2.5199,-3.90201,0.00989196,-0.00750134,-0.00817524,0.0131312,-0.0107406,-0.377252,0.0138054,0.0456763,1035,393,2.5199,3.90201
-182,631,2.47656,-4.03857,0.00690434,-0.0068589,-0.00727652,0.0100379,-0.00999249,-0.406642,0.0115646,0.0435351,1042,393,2.47661,4.03858
-175,631,2.3822,-4.20041,0.00400418,-0.00647437,-0.00650753,0.00711942,-0.00958962,-0.446474,0.00968204,0.031581,1049,393,2.38219,4.20042
-168,631,2.31213,-4.38345,0.00142861,-0.00594973,-0.00584006,0.00464714,-0.00916826,-0.503696,0.00811745,0.016536,1056,393,2.3121,4.38346
-161,631,2.29138,-4.46954,-0.000390643,-0.00545604,-0.00525322,0.00290854,-0.00875522,-0.560776,0.00701042,0.00901625,1063,393,2.29142,4.46955
-154,631,2.28674,-4.53625,-0.00155996,-0.00498574,-0.00465042,0.001683,-0.00822869,-0.608943,0.00612437,0.0087521,1070,393,2.28672,4.53626
-147,631,2.29016,-4.59921,-0.0026745,-0.00452589,-0.00412498,0.000627378,-0.00782777,-0.675021,0.00543971,0.00967759,1077,393,2.29011,4.59921
-140,631,2.2804,-4.64978,-0.00289797,-0.00379435,-0.00353023,0.000212411,-0.00690473,-0.722257,0.00467556,0.009171,1084,393,2.28035,4.64977
-133,631,2.2666,-4.69504,-0.00250441,-0.00367086,-0.00295592,-7.47261e-05,-0.00610054,-0.687995,0.00404235,0.00742779,1091,393,2.26663,4.69504
-126,631,2.26038,-4.72318,-0.00173532,-0.00321827,-0.00242167,5.58503e-05,-0.00500943,-0.636838,0.00335839,0.0106022,1098,393,2.26037,4.72318
-119,631,2.24707,-4.76208,-0.00113114,-0.00270917,-0.00185077,9.17778e-05,-0.00393209,-0.583905,0.00265252,0.0137903,1105,393,2.24708,4.76209
-112,631,2.22559,-4.82272,-0.000530408,-0.00188458,-0.00142028,0.000365925,-0.00278092,-0.56297,0.00198718,0.0130024,1112,393,2.22557,4.82274
-105,631,2.20703,-4.87219,-0.000205833,-0.00131923,-0.000932935,0.000323877,-0.00184894,-0.516397,0.00135356,0.0175483,1119,393,2.20703,4.8722
-98,631,2.22949,-4.91751,7.04354e-05,-0.000621759,-0.000444542,0.000287722,-0.000839046,-0.454637,0.000675999,0.0162073,1126,393,2.22951,4.9175
-91,631,2.24219,-4.96442,0.000278925,-7.00798e-05,-1.12761e-05,0.000279289,-7.04438e-05,-0.0322644,0.000213582,0.0171147,1133,393,2.24215,4.96442
-84,631,2.23071,-4.99142,0.000139785,0.000280285,0.000312324,0.000530162,-0.000110092,0.896021,0.000395282,0.0158057,1140,393,2.23072,4.99144
-77,631,2.22485,-5.00729,-0.000202234,0.000526558,0.000315911,0.000644432,-0.000320108,1.21367,0.000567274,0.00997166,1147,393,2.22488,5.00729
-70,631,2.23608,-5.01144,-5.43993e-05,0.000745144,0.000395993,0.000908069,-0.000217324,1.18047,0.000689336,0.010674,1154,393,2.23606,5.01144
-63,631,2.24463,-5.05435,0.000159168,0.000805044,0.000416483,0.00100912,-4.49114e-05,1.11518,0.000688208,0.0106251,1161,393,2.24466,5.05436
-56,631,2.25208,-5.1214,0.000228964,0.000856604,0.000473594,0.00111092,-2.53474e-05,1.078,0.000749203,0.0113724,1168,393,2.25208,5.1214
-49,631,2.24561,-5.13806,0.000328386,0.000954487,0.000406674,0.00115465,0.000128227,1.11342,0.000730781,0.00990683,1175,393,2.24559,5.13807
-42,631,2.24109,-5.14841,0.000493495,0.000968439,0.000396393,0.00119305,0.000268884,1.05527,0.000722611,0.0084664,1182,393,2.24109,5.14842
-35,631,2.2417,-5.17285,0.000605133,0.000917291,0.000300489,0.00109982,0.000422605,1.02493,0.000640627,0.00990572,1189,393,2.24174,5.17284
-28,631,2.24744,-5.17728,0.000711624,0.000762783,0.000218522,0.000957217,0.00051719,0.843661,0.000553248,0.0126491,1196,393,2.24741,5.17726
-21,631,2.24036,-5.20105,0.000910755,0.000510483,4.32911e-05,0.000915383,0.000505854,0.106513,0.000529471,0.0110748,1203,393,2.24034,5.20106
-14,631,2.21179,-5.24484,0.00107729,0.000391351,-0.00026841,0.00116983,0.000298807,-0.332023,0.000701819,0.012491,1210,393,2.21185,5.24485
-7,631,2.19617,-5.29306,0.00106705,0.000318608,-0.000614927,0.00141267,-2.70156e-05,-0.512053,0.000950915,0.0194518,1217,393,2.19617,5.29306
0,631,2.19971,-5.31213,0.000882708,0.000221279,-0.000923031,0.00153248,-0.000428495,-0.613377,0.00119048,0.0214166,1224,393,2.19966,5.31213
7,631,2.21387,-5.27045,0.000642844,0.000136232,-0.00117969,0.00159611,-0.000817036,-0.679642,0.00141723,0.0171772,1231,393,2.21388,5.27046
14,631,2.24194,-5.27209,0.00043089,-2.12476e-05,-0.00130311,0.00152739,-0.00111775,-0.699511,0.00153327,0.0101185,1238,393,2.242,5.2721
21,631,2.23608,-5.2915,0.000167347,-0.000222768,-0.00138625,0.00137219,-0.00142761,-0.715502,0.00161657,0.0123411,1245,393,2.23611,5.29149
28,631,2.21899,-5.30124,-0.000248642,-0.000407437,-0.0012573,0.000931768,-0.00158785,-0.753865,0.00147105,0.0134613,1252,393,2.21898,5.30124
35,631,2.25903,-5.29602,-0.000622847,-0.000674909,-0.000892265,0.000243766,-0.00154152,-0.770815,0.00111783,0.0123801,1259,393,2.25905,5.29601
42,631,2.28101,-5.29968,-0.000817113,-0.000869046,-0.000359835,-0.000482309,-0.00120385,-0.74938,0.000699603,0.0106276,1266,393,2.28099,5.29969
49,631,2.26196,-5.29306,-0.000811137,-0.000817038,1.944e-05,-0.000794425,-0.00083375,0.710083,0.0005432,0.00938393,1273,393,2.26202,5.29305
56,631,2.27124,-5.30344,-0.000818821,-0.000890428,0.000522241,-0.000331158,-0.00137809,0.751173,0.000830645,0.0114586,1280,393,2.27126,5.30343
63,631,2.27209,-5.33136,-0.000686659,-0.000865712,0.000870306,9.87133e-05,-0.00165108,0.734145,0.00113506,0.0138848,1287,393,2.27205,5.33137
70,631,2.27295,-5.2843,-0.000376379,-0.000566981,0.000858398,0.000391992,-0.00133535,0.730114,0.00104568,0.0143091,1294,393,2.27296,5.2843
77,631,2.27478,-5.29471,-2.24652e-05,-0.000144106,0.000584959,0.000504827,-0.000671398,0.733598,0.00068136,0.0147171,1301,393,2.27475,5.29472
84,631,2.27441,-5.29285,0.000250562,0.000403724,0.000195944,0.00053752,0.000116766,0.971687,0.000326462,0.0125698,1308,393,2.27446,5.29283
91,631,2.27502,-5.26596,0.000349804,0.000966176,-0.0003129,0.00109718,0.000218803,-1.1743,0.000670524,0.015078,1315,393,2.27506,5.26598
98,631,2.26477,-5.26361,0.000465771,0.00157258,-0.0010295,0.00218798,-0.000149636,-1.03201,0.00151101,0.0132019,1322,393,2.26475,5.26362
105,631,2.24512,-5.25644,0.000677213,0.00209278,-0.00179971,0.00331888,-0.000548889,-0.972747,0.00241642,0.0110475,1329,393,2.2451,5.25644
112,631,2.25037,-5.2482,0.000776211,0.00244388,-0.00248966,0.00423563,-0.00101554,-0.946986,0.00321616,0.0109308,1336,393,2.25042,5.2482
119,631,2.26746,-5.22791,0.000707541,0.00277654,-0.00307765,0.00498891,-0.00150482,-0.947532,0.00392491,0.0114386,1343,393,2.26751,5.2279
126,631,2.27209,-5.21545,0.000652883,0.00285597,-0.00337815,0.00530763,-0.00179878,-0.943002,0.00426634,0.016102,1350,393,2.27215,5.21546
133,631,2.26648,-5.18735,0.000631531,0.00264939,-0.00345204,0.00523692,-0.00195599,-0.927574,0.00429442,0.0172822,1357,393,2.26652,5.18736
140,631,2.27258,-5.1467,0.000373367,0.00230673,-0.00329488,0.00477381,-0.00209371,-0.928088,0.00406436,0.0184935,1364,393,2.27264,5.14669
147,631,2.29431,-5.1257,4.16876e-05,0.00190751,-0.00288995,0.0040114,-0.0020622,-0.941524,0.00356628,0.0221256,1371,393,2.29433,5.12569
154,631,2.29919,-5.09387,-0.000175516,0.00128692,-0.00223792,0.00291005,-0.00179865,-0.9433,0.00274369,0.0211989,1378,393,2.2992,5.09387
161,631,2.29675,-5.04419,-0.000316793,0.000846633,-0.00157185,0.00194096,-0.00141112,-0.962624,0.00194337,0.0233092,1385,393,2.29675,5.04419
168,631,2.31775,-4.97467,-0.000547038,0.000429133,-0.000920565,0.000983002,-0.00110091,-1.02916,0.00120379,0.0273301,1392,393,2.3177,4.97466
175,631,2.33582,-4.98779,-0.000788264,7.56664e-05,-0.000208641,0.000123415,-0.000836012,-1.34582,0.000602706,0.0201283,1399,393,2.33581,4.98778
182,631,2.29565,-4.97485,-0.00096143,1.59597e-06,0.000339202,0.000109076,-0.00106891,1.26394,0.000751608,0.0108049,1406,393,2.29562,4.97486
189,631,2.29541,-4.92233,-0.00112791,-0.000123714,0.000773464,0.000296331,-0.00154796,1.07329,0.00114362,0.0092143,1413,393,2.29547,4.92232
196,631,2.29675,-4.8981,-0.00131237,-0.000194317,0.00106358,0.000448199,-0.00195489,1.02736,0.00147553,0.0105925,1420,393,2.2968,4.89809
203,631,2.29272,-4.87766,-0.0013811,-3.24982e-05,0.00120191,0.000671344,-0.00208494,1.04103,0.00165964,0.0136472,1427,393,2.29274,4.87765
210,631,2.27942,-4.83301,-0.00152332,0.000252524,0.00126178,0.000907489,-0.00217828,1.092,0.00183124,0.015511,1434,393,2.27947,4.833
217,631,2.27808,-4.80145,-0.000658657,0.000840346,0.000388268,0.000934945,-0.000753256,1.33181,0.000976563,0.0160039,1441,393,2.27813,4.80146
224,631,2.26758,-4.75394,0.000774945,0.00161762,-0.000905888,0.00219536,0.000197203,-1.00307,0.00140247,0.0132683,1448,393,2.26763,4.75393
231,631,2.27161,-4.67349,0.0023961,0.00266517,-0.00253681,0.00507101,-9.73605e-06,-0.811889,0.00338392,0.0116942,1455,393,2.27163,4.67349
238,631,2.26001,-4.59692,0.00429454,0.00387546,-0.00439671,0.0084867,-0.000316697,-0.761587,0.00576627,0.0159729,1462,393,2.26001,4.59692
245,631,2.25537,-4.55109,0.00621426,0.00498864,-0.00560401,0.0112389,-3.59677e-05,-0.730938,0.00750459,0.0177285,1469,393,2.25531,4.55107
252,631,2.24329,-4.51828,0.00798057,0.00632534,-0.00658,0.0137848,0.000521113,-0.722838,0.00902118,0.0177932,1476,393,2.24334,4.51827
259,631,2.23425,-4.46655,0.00935018,0.00755572,-0.00771436,0.0162193,0.000686592,-0.727505,0.0105914,0.0126072,1483,393,2.23428,4.46654
266,631,2.26147,-4.4194,0.0106527,0.00903384,-0.0086924,0.0185733,0.00111327,-0.738972,0.0120283,0.0106996,1490,393,2.26143,4.41942
273,631,2.25696,-4.35565,0.0115365,0.0104015,-0.00912515,0.0201118,0.00182623,-0.754343,0.0128425,0.0124018,1497,393,2.25692,4.35566
280,631,2.25952,-4.31628,0.0118018,0.0118689,-0.00906783,0.0209032,0.00276746,-0.787246,0.0131107,0.0116115,1504,393,2.25946,4.3163
287,631,2.28528,-4.25311,0.0113264,0.0132744,-0.0087026,0.0210573,0.00354347,-0.841126,0.0130188,0.0127369,1511,393,2.28529,4.25312
294,631,2.28162,-4.15958,0.010395,0.0146909,-0.00798612,0.0208129,0.00427302,-0.91677,0.012693,0.0156499,1518,393,2.28162,4.15956
301,631,2.25525,-4.05432,0.00913859,0.0161089,-0.00710172,0.0205345,0.00471294,-1.01351,0.0124204,0.0233823,1525,393,2.25521,4.05432
308,631,2.27124,-3.95267,0.00760306,0.0174168,-0.00604949,0.0202993,0.0047206,-1.12614,0.0122659,0.0312569,1532,393,2.27127,3.95268
315,631,2.09534,-3.7179,0.00583679,0.0186422,-0.00508744,0.0204173,0.00406168,-1.23508,0.0124799,0.0354357,1539,393,2.09538,3.71788
322,631,2.12354,-3.70596,0.00255695,0.0185771,-0.00407011,0.0195518,0.0015822,-1.33573,0.0125405,0.0438066,1546,393,2.12349,3.70597
329,631,2.13342,-3.48895,-0.0010664,0.016295,-0.00219628,0.0165685,-0.00133993,-1.44689,0.0115183,0.0473618,1553,393,2.13346,3.48896
336,631,1.94287,-3.37704,-0.00420505,0.0134956,-0.00048536,0.0135089,-0.00421835,-1.5434,0.0106931,0.0460311,1560,393,1.94287,3.37705
343,631,1.68335,-3.54169,0,0,0,0,0,0,0,-1,1567,393,1.68329,3.54168
350,631,1.46765,-3.78726,0,0,0,0,0,0,0,-1,1574,393,1.46763,3.78727
357,631,0.765259,-1.73032,0,0,0,0,0,0,0,-1,1581,393,0.765241,1.73032
364,631,0.708008,-3.13675,0,0,0,0,0,0,0,-1,1588,393,0.707956,3.13674
371,631,0.864868,-3.31088,-0.0059945,-0.00528816,-0.00404428,-0.00158166,-0.009701,-0.828951,0.00600989,0.045743,1595,393,0.864922,3.31087
378,631,0.571167,-3.15372,-0.00551809,-0.00965432,-0.00329578,-0.00369529,-0.0114771,-0.505199,0.00676488,0.0426018,1602,393,0.571194,3.15371
385,631,0.405518,-2.65942,-0.0042773,-0.0139685,-0.00215935,-0.00381794,-0.0144279,-0.209607,0.00863213,0.0459577,1609,393,0.405519,2.65944
392,631,0.352295,-2.21301,0,0,0,0,0,0,0,-1,1616,393,0.352345,2.213
399,631,0,0,0,0,0,0,0,0,0,-1,1623,393,0,0
406,631,0,0,0,0,0,0,0,0,0,-1,1630,393,0,0
413,631,0,0,0,0,0,0,0,0,0,-1,1637,393,0,0
420,631,0,0,0,0,0,0,0,0,0,-1,1644,393,0,0
427,631,0,0,0,0,0,0,0,0,0,-1,1651,393,0,0
434,631,0,0,0,0,0,0,0,0,0,-1,1658,393,0,0
441,631,0,0,0,0,0,0,0,0,0,-1,1665,393,0,0
448,631,0,0,0,0,0,0,0,0,0,-1,1672,393,0,0
455,631,0,0,0,0,0,0,0,0,0,-1,1679,393,0,0
462,631,0,0,0,0,0,0,0,0,0,-1,1686,393,0,0
469,631,0,0,0,0,0,0,0,0,0,-1,1693,393,0,0
476,631,0,0,0,0,0,0,0,0,0,-1,1700,393,0,0
483,631,0,0,0,0,0,0,0,0,0,-1,1707,393,0,0
490,631,0,0,0,0,0,0,0,0,0,-1,1714,393,0,0
497,631,0,0,0,0,0,0,0,0,0,-1,1721,393,0,0
504,631,0,0,0,0,0,0,0,0,0,-1,1728,393,0,0
511,631,0,0,0,0,0,0,0,0,0,-1,1735,393,0,0
518,631,0,0,0,0,0,0,0,0,0,-1,1742,393,0,0
525,631,0,0,0,0,0,0,0,0,0,-1,1749,393,0,0
532,631,0,0,0,0,0,0,0,0,0,-1,1756,393,0,0
539,631,0,0,0,0,0,0,0,0,0,-1,1763,393,0,0
546,631,0,0,0,0,0,0,0,0,0,-1,1770,393,0,0
553,631,0,0,0,0,0,0,0,0,0,-1,1777,393,0,0
560,631,0,0,0,0,0,0,0,0,0,-1,1784,393,0,0
567,631,0,0,0,0,0,0,0,0,0,-1,1791,393,0,0
574,631,0,0,0,0,0,0,0,0,0,-1,1798,393,0,0
581,631,0,0,0,0,0,0,0,0,0,-1,1805,393,0,0
588,631,0,0,0,0,0,0,0,0,0,-1,1812,393,0,0
595,631,0,0,0,0,0,0,0,0,0,-1,1819,393,0,0
602,631,0,0,0,0,0,0,0,0,0,-1,1826,393,0,0
609,631,0,0,0,0,0,0,0,0,0,-1,1833,393,0,0
616,631,0,0,0,0,0,0,0,0,0,-1,1840,393,0,0
623,631,0,0,0,0,0,0,0,0,0,-1,1847,393,0,0
630,631,0,0,0,0,0,0,0,0,0,-1,1854,393,0,0
637,631,0,0,0,0,0,0,0,0,0,-1,1861,393,0,0
644,631,0,0,0,0,0,0,0,0,0,-1,1868,393,0,0
651,631,0,0,0,0,0,0,0,0,0,-1,1875,393,0,0
658,631,0,0,0,0,0,0,0,0,0,-1,1882,393,0,0
665,631,0,0,0,0,0,0,0,0,0,-1,1889,393,0,0
672,631,0,0,0,0,0,0,0,0,0,-1,1896,393,0,0
679,631,0,0,0,0,0,0,0,0,0,-1,1903,393,0,0
686,631,0,0,0,0,0,0,0,0,0,-1,1910,393,0,0
693,631,0,0,0,0,0,0,0,0,0,-1,1917,393,0,0
700,631,0,0,0,0,0,0,0,0,0,-1,1924,393,0,0
707,631,0,0,0,0,0,0,0,0,0,-1,1931,393,0,0
714,631,0,0,0,0,0,0,0,0,0,-1,1938,393,0,0
721,631,0,0,0,0,0,0,0,0,0,-1,1945,393,0,0
728,631,0,0,0,0,0,0,0,0,0,-1,1952,393,0,0
735,631,0,0,0,0,0,0,0,0,0,-1,1959,393,0,0
742,631,0,0,0,0,0,0,0,0,0,-1,1966,393,0,0
749,631,0,0,0,0,0,0,0,0,0,-1,1973,393,0,0
756,631,0,0,0,0,0,0,0,0,0,-1,1980,393,0,0
763,631,0,0,0,0,0,0,0,0,0,-1,1987,393,0,0
770,631,0,0,0,0,0,0,0,0,0,-1,1994,393,0,0
777,631,0,0,0,0,0,0,0,0,0,-1,2001,393,0,0
784,631,0,0,0,0,0,0,0,0,0,-1,2008,393,0,0
791,631,0,0,0,0,0,0,0,0,0,-1,2015,393,0,0
798,631,0,0,0,0,0,0,0,0,0,-1,2022,393,0,0
805,631,0,0,0,0,0,0,0,0,0,-1,2029,393,0,0
812,631,0,0,0,0,0,0,0,0,0,-1,2036,393,0,0
-700,624,0,0,0,0,0,0,0,0,0,-1,524,400,0,0
-693,624,0,0,0,0,0,0,0,0,0,-1,531,400,0,0
-686,624,0,0,0,0,0,0,0,0,0,-1,538,400,0,0
-679,624,0,0,0,0,0,0,0,0,0,-1,545,400,0,0
-672,624,0,0,0,0,0,0,0,0,0,-1,552,400,0,0
-665,624,0,0,0,0,0,0,0,0,0,-1,559,400,0,0
-658,624,0,0,0,0,0,0,0,0,0,-1,566,400,0,0
-651,624,0,0,0,0,0,0,0,0,0,-1,573,400,0,0
-644,624,0,0,0,0,0,0,0,0,0,-1,580,400,0,0
-637,624,0,0,0,0,0,0,0,0,0,-1,587,400,0,0
-630,624,0,0,0,0,0,0,0,0,0,-1,594,400,0,0
-623,624,0,0,0,0,0,0,0,0,0,-1,601,400,0,0
-616,624,0,0,0,0,0,0,0,0,0,-1,608,400,0,0
-609,624,0,0,0,0,0,0,0,0,0,-1,615,400,0,0
-602,624,0,0,0,0,0,0,0,0,0,-1,622,400,0,0
-595,624,0,0,0,0,0,0,0,0,0,-1,629,400,0,0
-588,624,0,0,0,0,0,0,0,0,0,-1,636,400,0,0
-581,624,0,0,0,0,0,0,0,0,0,-1,643,400,0,0
-574,624,0,0,0,0,0,0,0,0,0,-1,650,400,0,0
-567,624,0,0,0,0,0,0,0,0,0,-1,657,400,0,0
-560,624,0,0,0,0,0,0,0,0,0,-1,664,400,0,0
-553,624,0,0,0,0,0,0,0,0,0,-1,671,400,0,0
-546,624,0,0,0,0,0,0,0,0,0,-1,678,400,0,0
-539,624,0,0,0,0,0,0,0,0,0,-1,685,400,0,0
-532,624,0,0,0,0,0,0,0,0,0,-1,692,400,0,0
-525,624,0,0,0,0,0,0,0,0,0,-1,699,400,0,0
-518,624,0,0,0,0,0,0,0,0,0,-1,706,400,0,0
-511,624,0,0,0,0,0,0,0,0,0,-1,713,400,0,0
-504,624,0,0,0,0,0,0,0,0,0,-1,720,400,0,0
-497,624,0,0,0,0,0,0,0,0,0,-1,727,400,0,0
-490,624,0,0,0,0,0,0,0,0,0,-1,734,400,0,0
-483,624,0,0,0,0,0,0,0,0,0,-1,741,400,0,0
-476,624,0,0,0,0,0,0,0,0,0,-1,748,400,0,0
-469,624,0,0,0,0,0,0,0,0,0,-1,755,400,0,0
-462,624,0,0,0,0,0,0,0,0,0,-1,762,400,0,0
-455,624,0,0,0,0,0,0,0,0,0,-1,769,400,0,0
-448,624,0,0,0,0,0,0,0,0,0,-1,776,400,0,0
-441,624,0,0,0,0,0,0,0,0,0,-1,783,400,0,0
-434,624,0,0,0,0,0,0,0,0,0,-1,790,400,0,0
-427,624,0,0,0,0,0,0,0,0,0,-1,797,400,0,0
-420,624,0,0,0,0,0,0,0,0,0,-1,804,400,0,0
-413,624,0,0,0,0,0,0,0,0,0,-1,811,400,0,0
-406,624,0,0,0,0,0,0,0,0,0,-1,818,400,0,0
-399,624,0,0,0,0,0,0,0,0,0,-1,825,400,0,0
-392,624,0,0,0,0,0,0,0,0,0,-1,832,400,0,0
-385,624,0,0,0,0,0,0,0,0,0,-1,839,400,0,0
-378,624,0,0,0,0,0,0,0,0,0,-1,846,400,0,0
-371,624,0,0,0,0,0,0,0,0,0,-1,853,400,0,0
-364,624,0,0,0,0,0,0,0,0,0,-1,860,400,0,0
-357,624,0,0,0,0,0,0,0,0,0,-1,867,400,0,0
-350,624,0,0,0,0,0,0,0,0,0,-1,874,400,0,0
-343,624,0,0,0,0,0,0,0,0,0,-1,881,400,0,0
-336,624,0,0,0,0,0,0,0,0,0,-1,888,400,0,0
-329,624,0,0,0,0,0,0,0,0,0,-1,895,400,0,0
-322,624,0,0,0,0,0,0,0,0,0,-1,902,400,0,0
-315,624,0,0,0,0,0,0,0,0,0,-1,909,400,0,0
-308,624,0,0,0,0,0,0,0,0,0,-1,916,400,0,0
-301,624,0,0,0,0,0,0,0,0,0,-1,923,400,0,0
-294,624,-0.632935,-8.11264,0,0,0,0,0,0,0,-1,930,400,-0.632909,8.11264
-287,624,-0.0825806,-7.53577,0,0,0,0,0,0,0,-1,937,400,-0.0825765,7.53577
-280,624,0.643066,-6.69916,0,0,0,0,0,0,0,-1,944,400,0.643076,6.69915
-273,624,1.4458,-5.82748,0,0,0,0,0,0,0,-1,951,400,1.44578,5.82748
-266,624,2.21136,-2.72696,0,0,0,0,0,0,0,-1,958,400,2.21139,2.72696
-259,624,1.96564,-3.76785,0,0,0,0,0,0,0,-1,965,400,1.96561,3.76786
-252,624,2.2868,-2.76968,0,0,0,0,0,0,0,-1,972,400,2.28681,2.76969
-245,624,2.24463,-3.20242,0,0,0,0,0,0,0,-1,979,400,2.24463,3.20243
-238,624,2.35913,-3.64456,0,0,0,0,0,0,0,-1,986,400,2.3591,3.64455
-231,624,2.46143,-4.01004,0,0,0,0,0,0,0,-1,993,400,2.46145,4.01003
-224,624,2.14502,-3.92566,0,0,0,0,0,0,0,-1,1000,400,2.14505,3.92565
-217,624,2.10486,-3.99811,0.0140248,-0.00690961,-0.00904629,0.0173923,-0.0102771,-0.356354,0.01615,0.0487493,1007,400,2.10485,3.99812
-210,624,2.13763,-4.37531,0.0131473,-0.00647291,-0.00799313,0.0159914,-0.00931699,-0.341845,0.0147802,0.0439142,1014,400,2.13765,4.3753
-203,624,2.39935,-4.1467,0.0112429,-0.00596638,-0.00692785,0.0136852,-0.00840868,-0.33893,0.0128766,0.0387468,1021,400,2.39933,4.1467
-196,624,2.45898,-4.04691,0.00868042,-0.00536173,-0.00608389,0.0109496,-0.00763093,-0.357003,0.0107844,0.0349208,1028,400,2.45893,4.04691
-189,624,2.35376,-4.10754,0.00624826,-0.0047444,-0.00549976,0.00852733,-0.00702348,-0.392855,0.00899225,0.0336202,1035,400,2.35378,4.10754
-182,624,2.32996,-4.22321,0.0043305,-0.00424554,-0.00489826,0.00655248,-0.00646752,-0.425865,0.00751715,0.028182,1042,400,2.32998,4.22321
-175,624,2.27356,-4.35019,0.00246357,-0.00397724,-0.00435911,0.00466284,-0.00617651,-0.467259,0.00627841,0.0160531,1049,400,2.27353,4.35018
-168,624,2.24963,-4.43478,0.000756362,-0.00364115,-0.00388823,0.00302447,-0.00590926,-0.528069,0.00524676,0.0105195,1056,400,2.24967,4.43479
-161,624,2.23657,-4.5054,-0.00049225,-0.00333308,-0.00350196,0.0018664,-0.00569173,-0.592734,0.00454617,0.0100926,1063,400,2.23653,4.50539
-154,624,2.2301,-4.55246,-0.00128909,-0.00299224,-0.00319233,0.00116329,-0.00544462,-0.655055,0.00407327,0.00951481,1070,400,2.23006,4.55245
-147,624,2.23267,-4.60413,-0.00202125,-0.00274368,-0.00287932,0.000519425,-0.00528436,-0.722999,0.00370819,0.0103129,1077,400,2.23268,4.60411
-140,624,2.22571,-4.65231,-0.00213697,-0.00231416,-0.00250466,0.00028066,-0.00473179,-0.76772,0.00325212,0.00975765,1084,400,2.22571,4.65231
-133,624,2.22058,-4.70035,-0.00185743,-0.0023541,-0.00216466,7.30925e-05,-0.00428462,-0.728287,0.00288109,0.0102827,1091,400,2.22063,4.70034
-126,624,2.21899,-4.74518,-0.0013739,-0.0021119,-0.00183711,0.000130903,-0.0036167,-0.686287,0.00245593,0.0121859,1098,400,2.21905,4.74517
-119,624,2.18494,-4.79453,-0.00098136,-0.00179296,-0.00146182,0.000129934,-0.00290426,-0.650007,0.0019809,0.0144886,1105,400,2.18492,4.79453
-112,624,2.16638,-4.82736,-0.000573162,-0.00119163,-0.00119404,0.000351035,-0.00211583,-0.658691,0.00154095,0.0159609,1112,400,2.16638,4.82737
-105,624,2.203,-4.86578,-0.000365222,-0.000752636,-0.000879752,0.000341896,-0.00145975,-0.677036,0.00110491,0.0118848,1119,400,2.20298,4.8658
-98,624,2.21411,-4.91342,-0.000188251,-0.000177594,-0.000561916,0.000379019,-0.000744864,-0.790139,0.000660234,0.0130259,1126,400,2.21408,4.91341
-91,624,2.21265,-4.94226,-5.52005e-05,0.000302824,-0.000301547,0.000474491,-0.000226867,-1.05327,0.000413257,0.0186108,1133,400,2.21267,4.94226
-84,624,2.21252,-4.97894,-0.000156166,0.000656911,-0.000107054,0.00067077,-0.000170025,-1.44205,0.000513328,0.0170705,1140,400,2.21254,4.97893
-77,624,2.21423,-5.02887,-0.000358707,0.000927617,-8.43775e-05,0.000933128,-0.000364218,-1.50557,0.000772656,0.0121217,1147,400,2.2142,5.02887
-70,624,2.1897,-5.04248,-4.91568e-05,0.00119587,8.24817e-05,0.00120131,-5.45973e-05,1.50493,0.000819678,0.0115681,1154,400,2.18968,5.04249
-63,624,2.18628,-5.05295,0.000324983,0.00136836,0.000126347,0.00138344,0.000309901,1.45199,0.000838308,0.010798,1161,400,2.18633,5.05295
-56,624,2.21826,-5.1214,0.000583829,0.00149053,0.000177605,0.00152408,0.000550281,1.3841,0.00089118,0.00902197,1168,400,2.2183,5.1214
-49,624,2.22351,-5.14853,0.000878797,0.0015342,0.000172994,0.00157706,0.000835938,1.32794,0.000911064,0.00905891,1175,400,2.22352,5.14853
-42,624,2.22876,-5.15338,0.00131906,0.00161076,7.0238e-05,0.00162679,0.00130303,1.34639,0.000994334,0.00979363,1182,400,2.22879,5.15339
-35,624,2.22534,-5.16852,0.00157896,0.00161339,-4.05861e-05,0.00164026,0.00155209,-0.985966,0.00106533,0.0148817,1189,400,2.22528,5.16851
-28,624,2.19421,-5.19058,0.00152637,0.00145593,-0.00011823,0.00161451,0.00136778,-0.640638,0.00100425,0.0192383,1196,400,2.19425,5.19057
-21,624,2.21265,-5.21027,0.00148243,0.00110826,-0.000402845,0.00173951,0.000851178,-0.568014,0.00100438,0.0137562,1203,400,2.21265,5.21026
-14,624,2.21155,-5.22079,0.00143382,0.000949086,-0.000916668,0.00213962,0.000243283,-0.656157,0.00135263,0.0142648,1210,400,2.21153,5.22079
-7,624,2.18176,-5.21771,0.00113,0.000813502,-0.00137522,0.00235604,-0.000412539,-0.728113,0.00172473,0.0185478,1217,400,2.18175,5.21771
0,624,2.20129,-5.25369,0.000519467,0.000642808,-0.0017651,0.00234731,-0.00118504,-0.802861,0.00207588,0.0187519,1224,400,2.20132,5.2537
7,624,2.21216,-5.26196,-0.000140185,0.000520619,-0.00207882,0.00229513,-0.0019147,-0.864208,0.00243385,0.0144609,1231,400,2.21211,5.26195
14,624,2.23792,-5.27792,-0.000674954,0.000280118,-0.00221791,0.00207131,-0.00246615,-0.891434,0.00262301,0.012187,1238,400,2.23788,5.27791
21,624,2.23621,-5.27963,-0.00129803,3.63305e-05,-0.00235983,0.00182148,-0.00308318,-0.923165,0.00286277,0.0122045,1245,400,2.23623,5.27964
28,624,2.22339,-5.29617,-0.00208108,-0.000151014,-0.00227459,0.00135479,-0.00358688,-0.986023,0.0029485,0.0112882,1252,400,2.2234,5.29616
35,624,2.23596,-5.30927,-0.00278559,-0.000456135,-0.00195276,0.00065287,-0.00389459,-1.0543,0.00283915,0.0151949,1259,400,2.23601,5.30926
42,624,2.25415,-5.29965,-0.0031404,-0.000774172,-0.0013734,-0.000144554,-0.00377002,-1.14095,0.00246657,0.0167086,1266,400,2.25411,5.29965
49,624,2.27026,-5.29279,-0.00316321,-0.000801554,-0.000979058,-0.000448463,-0.0035163,-1.22467,0.00220994,0.0174852,1273,400,2.27021,5.29279
56,624,2.29443,-5.30219,-0.00303251,-0.00095257,-0.0004459,-0.000861008,-0.00312407,-1.36827,0.00186325,0.0172943,1280,400,2.29449,5.30217
63,624,2.30518,-5.30823,-0.00274043,-0.00103921,-1.55903e-05,-0.00103907,-0.00274058,-1.56163,0.00159761,0.0137923,1287,400,2.30514,5.30823
70,624,2.28149,-5.30576,-0.00222718,-0.000801185,-2.83539e-06,-0.000801179,-0.00222719,-1.56881,0.00130263,0.0128304,1294,400,2.28154,5.30575
77,624,2.27991,-5.29138,-0.00166028,-0.000362656,-0.000242016,-0.000318988,-0.00170395,-1.39228,0.00104598,0.0132692,1301,400,2.27988,5.29139
84,624,2.27917,-5.29901,-0.00119859,0.000230324,-0.000531385,0.000406272,-0.00137454,-1.25105,0.00107762,0.012211,1308,400,2.27917,5.29902
91,624,2.27808,-5.28903,-0.00100521,0.000895987,-0.000957177,0.0012944,-0.00140362,-1.17637,0.00155813,0.0126092,1315,400,2.27803,5.28903
98,624,2.26917,-5.27533,-0.000777502,0.00164579,-0.00161331,0.00245178,-0.00158349,-1.10748,0.00234767,0.0119858,1322,400,2.26915,5.27534
105,624,2.2594,-5.26855,-0.000443845,0.00229416,-0.00230735,0.00360808,-0.00175776,-1.05315,0.00315877,0.0133986,1329,400,2.25941,5.26857
112,624,2.27417,-5.25119,-0.000323844,0.00276386,-0.00293013,0.00453197,-0.00209196,-1.02786,0.00390986,0.0148916,1336,400,2.27412,5.2512
119,624,2.30505,-5.23099,-0.000503302,0.00330313,-0.00348305,0.00536903,-0.0025692,-1.03544,0.0046772,0.0146687,1343,400,2.30509,5.231
126,624,2.32178,-5.18262,-0.000606691,0.00352417,-0.00370786,0.00570306,-0.00278558,-1.03951,0.00499647,0.0169351,1350,400,2.32172,5.18262
133,624,2.30725,-5.14926,-0.00063899,0.00343382,-0.00377414,0.0056859,-0.00289107,-1.0328,0.00503879,0.0167778,1357,400,2.30726,5.14926
140,624,2.30151,-5.12927,-0.000935308,0.00321378,-0.00365218,0.00533949,-0.00306102,-1.04369,0.00490915,0.0166055,1364,400,2.30147,5.12928
147,624,2.30371,-5.11447,-0.00130497,0.00291833,-0.00331936,0.00474079,-0.00312743,-1.06869,0.00457444,0.0214467,1371,400,2.30366,5.11447
154,624,2.31848,-5.09952,-0.00150416,0.00226987,-0.00267428,0.00365587,-0.00289015,-1.09264,0.00378796,0.0239723,1378,400,2.31846,5.09952
161,624,2.33411,-5.02991,-0.00154856,0.00181707,-0.00209717,0.00282312,-0.00255461,-1.12351,0.00310612,0.0225157,1385,400,2.33409,5.02992
168,624,2.3468,-4.96802,-0.00154064,0.00136361,-0.00156472,0.0020462,-0.00222323,-1.15944,0.00246566,0.0217969,1392,400,2.34679,4.96801
175,624,2.34045,-5.00876,-0.00141427,0.00085075,-0.000868623,0.0011455,-0.00170903,-1.24365,0.00165874,0.0170819,1399,400,2.34042,5.00875
182,624,2.33301,-4.99542,-0.00116994,0.000557422,-0.000321174,0.000615206,-0.00122773,-1.39279,0.00108343,0.0109821,1406,400,2.33299,4.99542
189,624,2.328,-4.92618,-0.00104628,0.000292212,4.35401e-05,0.000293627,-0.00104769,1.53831,0.000814183,0.0097306,1413,400,2.32796,4.92617
196,624,2.32605,-4.90839,-0.000969283,5.59572e-07,0.000356032,0.000117226,-0.00108595,1.25414,0.000766037,0.0103435,1420,400,2.32608,4.90837
203,624,2.328,-4.88773,-0.000987337,-0.000136238,0.000569419,0.000149079,-0.00127265,1.1063,0.000902243,0.0141185,1427,400,2.32802,4.88773
210,624,2.35144,-4.82977,-0.00111727,2.18284e-05,0.000651811,0.000317868,-0.00141331,1.14447,0.00106411,0.016896,1434,400,2.35148,4.82977
217,624,2.34253,-4.75894,-0.00086259,0.000263176,0.00039335,0.000386997,-0.000986411,1.26583,0.000817723,0.0191486,1441,400,2.3425,4.75896
224,624,2.33032,-4.71671,-0.00024512,0.000527939,-3.98325e-05,0.000529986,-0.000247167,-1.51945,0.000458486,0.0158131,1448,400,2.3303,4.71671
231,624,2.3269,-4.69089,0.000616467,0.000996658,-0.000777431,0.0016069,6.22746e-06,-0.905304,0.00106919,0.0119574,1455,400,2.32692,4.6909
238,624,2.30566,-4.62219,0.00169041,0.00160939,-0.00170895,0.00335933,-5.95313e-05,-0.773547,0.00225966,0.0158982,1462,400,2.3057,4.62218
245,624,2.30164,-4.59512,0.00283996,0.00224329,-0.00224665,0.004808,0.00027525,-0.719388,0.00311764,0.016657,1469,400,2.30167,4.59514
252,624,2.29382,-4.54517,0.00392754,0.00311227,-0.00264116,0.00619234,0.000847466,-0.708832,0.00387674,0.0127197,1476,400,2.29383,4.54515
259,624,2.29822,-4.48663,0.00473588,0.00396588,-0.00323881,0.0076125,0.00108927,-0.72624,0.00475369,0.00934633,1483,400,2.29823,4.48665
266,624,2.31836,-4.41818,0.00548909,0.00507095,-0.00375855,0.00904439,0.00151566,-0.757614,0.00559325,0.0120692,1490,400,2.31841,4.41819
273,624,2.3197,-4.35019,0.00600947,0.00615805,-0.00394163,0.0100261,0.00214143,-0.794821,0.00609692,0.0140408,1497,400,2.31972,4.35019
280,624,2.32629,-4.31146,0.00612262,0.00739736,-0.00383114,0.0106438,0.00287619,-0.867826,0.00635782,0.01321,1504,400,2.32624,4.31145
287,624,2.31653,-4.26218,0.0057296,0.00862838,-0.00357343,0.0110352,0.00332281,-0.978062,0.00653701,0.0109607,1511,400,2.31659,4.26218
294,624,2.30298,-4.17993,0.0050828,0.00987354,-0.00313499,0.0114235,0.0035328,-1.11162,0.00675346,0.00942093,1518,400,2.30294,4.17993
301,624,2.28113,-4.09918,0.00425603,0.011119,-0.00261198,0.012,0.00337503,-1.24549,0.00714579,0.0103899,1525,400,2.28117,4.09917
308,624,2.27466,-4.01132,0.00331525,0.0123221,-0.00204382,0.0127642,0.00287317,-1.35778,0.00773178,0.0139323,1532,400,2.27471,4.01133
315,624,2.26465,-3.92227,0.00219378,0.013348,-0.00153597,0.0135557,0.00198613,-1.43643,0.00845321,0.0155936,1539,400,2.2646,3.92228
322,624,2.27454,-3.88513,0.000304102,0.0135294,-0.00133199,0.0136622,0.000171284,-1.47141,0.00905159,0.0230211,1546,400,2.27449,3.88512
329,624,2.37061,-3.79156,-0.00164989,0.0123263,-0.00071202,0.0123625,-0.00168607,-1.52003,0.00885733,0.0333921,1553,400,2.37067,3.79155
336,624,2.28247,-3.52298,-0.00353411,0.0107795,3.70016e-05,0.0107796,-0.00353421,1.56821,0.00860977,0.0339278,1560,400,2.2825,3.52298
343,624,2.22729,-3.21481,0,0,0,0,0,0,0,-1,1567,400,2.22726,3.2148
350,624,2.29749,-3.32114,0,0,0,0,0,0,0,-1,1574,400,2.29747,3.32114
357,624,2.38635,-3.24298,0,0,0,0,0,0,0,-1,1581,400,2.3863,3.243
364,624,1.29065,-3.12775,0,0,0,0,0,0,0,-1,1588,400,1.29061,3.12776
371,624,1.53503,-3.2489,0,0,0,0,0,0,0,-1,1595,400,1.53504,3.24889
378,624,1.77942,-3.37003,0,0,0,0,0,0,0,-1,1602,400,1.77948,3.37001
385,624,0.724731,-2.43875,0,0,0,0,0,0,0,-1,1609,400,0.724746,2.43875
392,624,0.673218,-2.06125,0,0,0,0,0,0,0,-1,1616,400,0.673239,2.06124
399,624,3.86841,-2.36917,0,0,0,0,0,0,0,-1,1623,400,3.86838,2.36916
406,624,4.35376,-2.6962,0,0,0,0,0,0,0,-1,1630,400,4.35373,2.69619
413,624,0,0,0,0,0,0,0,0,0,-1,1637,400,0,0
420,624,0,0,0,0,0,0,0,0,0,-1,1644,400,0,0
427,624,0,0,0,0,0,0,0,0,0,-1,1651,400,0,0
434,624,0,0,0,0,0,0,0,0,0,-1,1658,400,0,0
441,624,0,0,0,0,0,0,0,0,0,-1,1665,400,0,0
448,624,0,0,0,0,0,0,0,0,0,-1,1672,400,0,0
455,624,0,0,0,0,0,0,0,0,0,-1,1679,400,0,0
462,624,0,0,0,0,0,0,0,0,0,-1,1686,400,0,0
469,624,0,0,0,0,0,0,0,0,0,-1,1693,400,0,0
476,624,0,0,0,0,0,0,0,0,0,-1,1700,400,0,0
483,624,0,0,0,0,0,0,0,0,0,-1,1707,400,0,0
490,624,0,0,0,0,0,0,0,0,0,-1,1714,400,0,0
497,624,0,0,0,0,0,0,0,0,0,-1,1721,400,0,0
504,624,0,0,0,0,0,0,0,0,0,-1,1728,400,0,0
511,624,0,0,0,0,0,0,0,0,0,-1,1735,400,0,0
518,624,0,0,0,0,0,0,0,0,0,-1,1742,400,0,0
525,624,0,0,0,0,0,0,0,0,0,-1,1749,400,0,0
532,624,0,0,0,0,0,0,0,0,0,-1,1756,400,0,0
539,624,0,0,0,0,0,0,0,0,0,-1,1763,400,0,0
546,624,0,0,0,0,0,0,0,0,0,-1,1770,400,0,0
553,624,0,0,0,0,0,0,0,0,0,-1,1777,400,0,0
560,624,0,0,0,0,0,0,0,0,0,-1,1784,400,0,0
567,624,0,0,0,0,0,0,0,0,0,-1,1791,400,0,0
574,624,0,0,0,0,0,0,0,0,0,-1,1798,400,0,0
581,624,0,0,0,0,0,0,0,0,0,-1,1805,400,0,0
588,624,0,0,0,0,0,0,0,0,0,-1,1812,400,0,0
595,624,0,0,0,0,0,0,0,0,0,-1,1819,400,0,0
602,624,0,0,0,0,0,0,0,0,0,-1,1826,400,0,0
609,624,0,0,0,0,0,0,0,0,0,-1,1833,400,0,0
616,624,0,0,0,0,0,0,0,0,0,-1,1840,400,0,0
623,624,0,0,0,0,0,0,0,0,0,-1,1847,400,0,0
630,624,0,0,0,0,0,0,0,0,0,-1,1854,400,0,0
637,624,0,0,0,0,0,0,0,0,0,-1,1861,400,0,0
644,624,0,0,0,0,0,0,0,0,0,-1,1868,400,0,0
651,624,0,0,0,0,0,0,0,0,0,-1,1875,400,0,0
658,624,0,0,0,0,0,0,0,0,0,-1,1882,400,0,0
665,624,0,0,0,0,0,0,0,0,0,-1,1889,400,0,0
672,624,0,0,0,0,0,0,0,0,0,-1,1896,400,0,0
679,624,0,0,0,0,0,0,0,0,0,-1,1903,400,0,0
686,624,0,0,0,0,0,0,0,0,0,-1,1910,400,0,0
693,624,0,0,0,0,0,0,0,0,0,-1,1917,400,0,0
700,624,0,0,0,0,0,0,0,0,0,-1,1924,400,0,0
707,624,0,0,0,0,0,0,0,0,0,-1,1931,400,0,0
714,624,0,0,0,0,0,0,0,0,0,-1,1938,400,0,0
721,624,0,0,0,0,0,0,0,0,0,-1,1945,400,0,0
728,624,0,0,0,0,0,0,0,0,0,-1,1952,400,0,0
735,624,0,0,0,0,0,0,0,0,0,-1,1959,400,0,0
742,624,0,0,0,0,0,0,0,0,0,-1,1966,400,0,0
749,624,0,0,0,0,0,0,0,0,0,-1,1973,400,0,0
756,624,0,0,0,0,0,0,0,0,0,-1,1980,400,0,0
763,624,0,0,0,0,0,0,0,0,0,-1,1987,400,0,0
770,624,0,0,0,0,0,0,0,0,0,-1,1994,400,0,0
777,624,0,0,0,0,0,0,0,0,0,-1,2001,400,0,0
784,624,0,0,0,0,0,0,0,0,0,-1,2008,400,0,0
791,624,0,0,0,0,0,0,0,0,0,-1,2015,400,0,0
798,624,0,0,0,0,0,0,0,0,0,-1,2022,400,0,0
805,624,0,0,0,0,0,0,0,0,0,-1,2029,400,0,0
812,624,0,0,0,0,0,0,0,0,0,-1,2036,400,0,0
-700,617,0,0,0,0,0,0,0,0,0,-1,524,407,0,0
-693,617,0,0,0,0,0,0,0,0,0,-1,531,407,0,0
-686,617,0,0,0,0,0,0,0,0,0,-1,538,407,0,0
-679,617,0,0,0,0,0,0,0,0,0,-1,545,407,0,0
-672,617,0,0,0,0,0,0,0,0,0,-1,552,407,0,0
-665,617,0,0,0,0,0,0,0,0,0,-1,559,407,0,0
-658,617,0,0,0,0,0,0,0,0,0,-1,566,407,0,0
-651,617,0,0,0,0,0,0,0,0,0,-1,573,407,0,0
-644,617,0,0,0,0,0,0,0,0,0,-1,580,407,0,0
-637,617,0,0,0,0,0,0,0,0,0,-1,587,407,0,0
-630,617,0,0,0,0,0,0,0,0,0,-1,594,407,0,0
-623,617,0,0,0,0,0,0,0,0,0,-1,601,407,0,0
-616,617,0,0,0,0,0,0,0,0,0,-1,608,407,0,0
-609,617,0,0,0,0,0,0,0,0,0,-1,615,407,0,0
-602,617,0,0,0,0,0,0,0,0,0,-1,622,407,0,0
-595,617,0,0,0,0,0,0,0,0,0,-1,629,407,0,0
-588,617,0,0,0,0,0,0,0,0,0,-1,636,407,0,0
-581,617,0,0,0,0,0,0,0,0,0,-1,643,407,0,0
-574,617,0,0,0,0,0,0,0,0,0,-1,650,407,0,0
-567,617,0,0,0,0,0,0,0,0,0,-1,657,407,0,0
-560,617,0,0,0,0,0,0,0,0,0,-1,664,407,0,0
-553,617,0,0,0,0,0,0,0,0,0,-1,671,407,0,0
-546,617,0,0,0,0,0,0,0,0,0,-1,678,407,0,0
-539,617,0,0,0,0,0,0,0,0,0,-1,685,407,0,0
-532,617,0,0,0,0,0,0,0,0,0,-1,692,407,0,0
-525,617,0,0,0,0,0,0,0,0,0,-1,699,407,0,0
-518,617,0,0,0,0,0,0,0,0,0,-1,706,407,0,0
-511,617,0,0,0,0,0,0,0,0,0,-1,713,407,0,0
-504,617,0,0,0,0,0,0,0,0,0,-1,720,407,0,0
-497,617,0,0,0,0,0,0,0,0,0,-1,727,407,0,0
-490,617,0,0,0,0,0,0,0,0,0,-1,734,407,0,0
-483,617,0,0,0,0,0,0,0,0,0,-1,741,407,0,0
-476,617,0,0,0,0,0,0,0,0,0,-1,748,407,0,0
-469,617,0,0,0,0,0,0,0,0,0,-1,755,407,0,0
-462,617,0,0,0,0,0,0,0,0,0,-1,762,407,0,0
-455,617,0,0,0,0,0,0,0,0,0,-1,769,407,0,0
-448,617,0,0,0,0,0,0,0,0,0,-1,776,407,0,0
-441,617,0,0,0,0,0,0,0,0,0,-1,783,407,0,0
-434,617,0,0,0,0,0,0,0,0,0,-1,790,407,0,0
-427,617,0,0,0,0,0,0,0,0,0,-1,797,407,0,0
-420,617,0,0,0,0,0,0,0,0,0,-1,804,407,0,0
-413,617,0,0,0,0,0,0,0,0,0,-1,811,407,0,0
-406,617,0,0,0,0,0,0,0,0,0,-1,818,407,0,0
-399,617,0,0,0,0,0,0,0,0,0,-1,825,407,0,0
-392,617,0,0,0,0,0,0,0,0,0,-1,832,407,0,0
-385,617,0,0,0,0,0,0,0,0,0,-1,839,407,0,0
-378,617,0,0,0,0,0,0,0,0,0,-1,846,407,0,0
-371,617,0,0,0,0,0,0,0,0,0,-1,853,407,0,0
-364,617,0,0,0,0,0,0,0,0,0,-1,860,407,0,0
-357,617,0,0,0,0,0,0,0,0,0,-1,867,407,0,0
-350,617,0,0,0,0,0,0,0,0,0,-1,874,407,0,0
-343,617,0,0,0,0,0,0,0,0,0,-1,881,407,0,0
-336,617,0,0,0,0,0,0,0,0,0,-1,888,407,0,0
-329,617,0,0,0,0,0,0,0,0,0,-1,895,407,0,0
-322,617,0,0,0,0,0,0,0,0,0,-1,902,407,0,0
-315,617,0,0,0,0,0,0,0,0,0,-1,909,407,0,0
-308,617,0,0,0,0,0,0,0,0,0,-1,916,407,0,0
-301,617,-1.35645,-8.09796,0,0,0,0,0,0,0,-1,923,407,-1.35646,8.09797
-294,617,-0.582642,-7.89377,0,0,0,0,0,0,0,-1,930,407,-0.582615,7.89376
-287,617,-0.0737915,-7.20364,0,0,0,0,0,0,0,-1,937,407,-0.0737841,7.20364
-280,617,0.573669,-5.29178,0,0,0,0,0,0,0,-1,944,407,0.573685,5.29178
-273,617,1.01392,-5.08408,0,0,0,0,0,0,0,-1,951,407,1.01392,5.08408
-266,617,2.25836,-3.26773,0,0,0,0,0,0,0,-1,958,407,2.25834,3.26773
-259,617,1.92285,-3.61749,0,0,0,0,0,0,0,-1,965,407,1.92285,3.6175
-252,617,1.58734,-3.96725,0,0,0,0,0,0,0,-1,972,407,1.58735,3.96727
-245,617,2.25482,-2.85797,0,0,0,0,0,0,0,-1,979,407,2.2548,2.85796
-238,617,2.2923,-3.94962,0,0,0,0,0,0,0,-1,986,407,2.2923,3.94963
-231,617,2.23669,-3.76199,0.00866062,-0.00433223,-0.00738052,0.0119966,-0.00766818,-0.424511,0.0114448,0.0435243,993,407,2.23669,3.762
-224,617,2.12927,-3.91592,0.00852157,-0.00418111,-0.00679942,0.0114746,-0.00713416,-0.409729,0.0108408,0.0412048,1000,407,2.12925,3.91593
-217,617,2.21515,-3.95572,0.00831653,-0.00428701,-0.00599885,0.0107152,-0.00668572,-0.380388,0.0101358,0.0356965,1007,407,2.21517,3.95572
-210,617,2.27686,-4.07443,0.00790442,-0.00405527,-0.00526291,0.00989055,-0.0060414,-0.360858,0.00928737,0.024329,1014,407,2.27688,4.07444
-203,617,2.24554,-4.14093,0.00680225,-0.00368459,-0.00452029,0.00848172,-0.00536406,-0.355735,0.00806113,0.0187266,1021,407,2.24553,4.14094
-196,617,2.22058,-4.16983,0.00531769,-0.00321172,-0.00393816,0.00685788,-0.00475191,-0.372805,0.00673958,0.0148724,1028,407,2.22053,4.16984
-189,617,2.19348,-4.2352,0.00388071,-0.00274263,-0.00351712,0.0053999,-0.00426183,-0.407737,0.00559109,0.0126915,1035,407,2.19352,4.23521
-182,617,2.18115,-4.31314,0.00273379,-0.00234186,-0.0031316,0.00422678,-0.00383485,-0.444875,0.00465622,0.0134171,1042,407,2.18117,4.31315
-175,617,2.20703,-4.36612,0.00160495,-0.00214593,-0.00275769,0.00306449,-0.00360547,-0.486783,0.00385513,0.0112098,1049,407,2.207,4.36611
-168,617,2.2074,-4.43735,0.000521934,-0.00195021,-0.00242971,0.00201192,-0.00344019,-0.550094,0.00318358,0.00910784,1056,407,2.20735,4.43735
-161,617,2.1886,-4.51242,-0.000299699,-0.00182356,-0.00216027,0.00122907,-0.00335233,-0.615858,0.00273812,0.0106123,1063,407,2.18865,4.51241
-154,617,2.17322,-4.56241,-0.000811605,-0.00166546,-0.00197514,0.000782218,-0.00325928,-0.67896,0.00247514,0.0103689,1070,407,2.17323,4.56241
-147,617,2.18311,-4.60699,-0.0012651,-0.00163778,-0.00176853,0.00032688,-0.00322976,-0.732909,0.00226999,0.0139922,1077,407,2.18312,4.60698
-140,617,2.1947,-4.6456,-0.00130495,-0.00151688,-0.00152899,0.000121738,-0.00294357,-0.750802,0.00200419,0.0113776,1084,407,2.19465,4.64559
-133,617,2.1842,-4.6998,-0.00111778,-0.00176366,-0.00135504,-4.77275e-05,-0.00283371,-0.668418,0.00187343,0.0134423,1091,407,2.18421,4.69978
-126,617,2.17896,-4.73862,-0.000856841,-0.00175511,-0.00119756,-2.6967e-05,-0.00258498,-0.605994,0.0017144,0.0140526,1098,407,2.17891,4.73861
-119,617,2.1499,-4.78421,-0.000642635,-0.00166849,-0.000993169,-3.77616e-05,-0.00227336,-0.547035,0.00150315,0.0142746,1105,407,2.14994,4.7842
-112,617,2.14941,-4.81769,-0.000419506,-0.00133272,-0.000874263,0.000110206,-0.00186243,-0.544743,0.00127994,0.0146976,1112,407,2.14942,4.8177
-105,617,2.15857,-4.85992,-0.000346483,-0.00103775,-0.000732863,0.000118161,-0.0015024,-0.565054,0.00104322,0.0149556,1119,407,2.15851,4.85994
-98,617,2.16785,-4.92987,-0.000297241,-0.000562152,-0.00059369,0.00017859,-0.00103798,-0.675643,0.000758559,0.0125743,1126,407,2.16783,4.92988
-91,617,2.17468,-4.96527,-0.000279955,-9.58979e-05,-0.000521917,0.000342042,-0.000717895,-0.872665,0.000624648,0.0173451,1133,407,2.17464,4.96528
-84,617,2.19104,-4.9906,-0.00038937,0.000346991,-0.000469594,0.000575531,-0.000617909,-1.11786,0.000689178,0.017146,1140,407,2.19104,4.99059
-77,617,2.19653,-5.03677,-0.000504651,0.000717845,-0.000446962,0.000863828,-0.000650634,-1.25511,0.000877258,0.0127664,1147,407,2.19657,5.03676
-70,617,2.17419,-5.06433,-3.04432e-05,0.00117524,-0.000210521,0.00121094,-6.61445e-05,-1.40281,0.000830223,0.0119946,1154,407,2.17425,5.06433
-63,617,2.16345,-5.08237,0.000510513,0.00163663,-0.000172737,0.00166253,0.000484613,-1.42196,0.000987294,0.0120726,1161,407,2.16345,5.08236
-56,617,2.18982,-5.10431,0.000971797,0.00202008,-0.000131431,0.0020363,0.000955569,-1.44795,0.0011764,0.00923675,1168,407,2.18983,5.1043
-49,617,2.19446,-5.13507,0.00151196,0.00216514,-9.27155e-05,0.00217805,0.00149906,-1.43249,0.00128686,0.00904227,1175,407,2.19451,5.13506
-42,617,2.22095,-5.17722,0.00211314,0.00223417,-0.000317826,0.00249719,0.00185012,-0.879473,0.00149648,0.0122228,1182,407,2.22099,5.17723
-35,617,2.22424,-5.19162,0.00231528,0.00225198,-0.000416253,0.00270108,0.00186617,-0.747451,0.00159691,0.0165186,1189,407,2.22427,5.19162
-28,617,2.17712,-5.19833,0.00182208,0.00195303,-0.000461655,0.00235383,0.00142128,-0.855844,0.00136872,0.018282,1196,407,2.17708,5.19834
-21,617,2.19543,-5.20386,0.00127805,0.00135821,-0.000884889,0.00220392,0.000432333,-0.808029,0.00134848,0.0132598,1203,407,2.19543,5.20384
-14,617,2.19751,-5.19284,0.00077226,0.00104899,-0.00167152,0.00258786,-0.000766617,-0.826692,0.00202963,0.0146965,1210,407,2.19755,5.19283
-7,617,2.16895,-5.17767,-2.31994e-05,0.000805201,-0.00231609,0.00274384,-0.00196184,-0.873881,0.0027293,0.0177223,1217,407,2.16895,5.17768
0,617,2.19946,-5.20398,-0.00119249,0.000561192,-0.00288517,0.00269982,-0.00333112,-0.93292,0.00348832,0.0152582,1224,407,2.19944,5.20399
7,617,2.22754,-5.26599,-0.00232169,0.000420424,-0.00333694,0.00265699,-0.00455826,-0.98032,0.00421366,0.0119138,1231,407,2.22753,5.26598
14,617,2.22095,-5.27145,-0.00321522,0.000173753,-0.00356461,0.00242613,-0.0054676,-1.00727,0.00466885,0.0137483,1238,407,2.22093,5.27146
21,617,2.24719,-5.26462,-0.00417039,-1.32069e-05,-0.00380968,0.00224804,-0.00643164,-1.03513,0.00520163,0.0118386,1245,407,2.24713,5.26461
28,617,2.24841,-5.29565,-0.00526584,-8.56072e-05,-0.00380213,0.00192481,-0.00727625,-1.08441,0.00560373,0.0103155,1252,407,2.2484,5.29567
35,617,2.22998,-5.32385,-0.00628502,-0.000268124,-0.00355686,0.00138197,-0.00793512,-1.13643,0.00580582,0.0129477,1259,407,2.23001,5.32386
42,617,2.24658,-5.30252,-0.00682248,-0.000555545,-0.00294313,0.000609899,-0.00798793,-1.19375,0.00553979,0.0187735,1266,407,2.24653,5.30253
49,617,2.28247,-5.2941,-0.00686672,-0.000535032,-0.00260994,0.000402091,-0.00780384,-1.22607,0.00534164,0.018078,1273,407,2.28246,5.29409
56,617,2.32495,-5.29669,-0.00660869,-0.000656326,-0.0021262,2.51376e-05,-0.00729015,-1.26063,0.0048685,0.0130303,1280,407,2.32499,5.29669
63,617,2.27979,-5.31088,-0.00623939,-0.000733989,-0.00165519,-0.000274681,-0.0066987,-1.30011,0.00437711,0.00956719,1287,407,2.27973,5.31089
70,617,2.24036,-5.30783,-0.00551518,-0.000435294,-0.00172331,9.41437e-05,-0.00604462,-1.27273,0.00406149,0.013893,1294,407,2.24035,5.30782
77,617,2.26953,-5.28253,-0.00467039,0.000179646,-0.00209116,0.000956764,-0.00544751,-1.21499,0.00398903,0.0124469,1301,407,2.26958,5.28255
84,617,2.27979,-5.27908,-0.00400644,0.000955422,-0.00248219,0.00198395,-0.00503497,-1.17797,0.00417804,0.0101576,1308,407,2.27975,5.27907
91,617,2.29102,-5.2861,-0.00367415,0.0018361,-0.00293746,0.0031083,-0.00494635,-1.16209,0.00469054,0.00980232,1315,407,2.29098,5.28609
98,617,2.30859,-5.26959,-0.00325748,0.00276359,-0.00360092,0.00444666,-0.00494055,-1.13357,0.00542221,0.0104116,1322,407,2.30854,5.2696
105,617,2.3075,-5.25049,-0.00269916,0.00360157,-0.00430792,0.00578815,-0.00488574,-1.10111,0.00616991,0.0119621,1329,407,2.30753,5.25049
112,617,2.30286,-5.25323,-0.00245353,0.00429093,-0.00495146,0.00690944,-0.00507203,-1.08435,0.00694457,0.0160473,1336,407,2.30281,5.25324
119,617,2.31921,-5.20602,-0.00262165,0.00513022,-0.00551493,0.007995,-0.00548643,-1.0917,0.0078283,0.0184633,1343,407,2.31916,5.20602
126,617,2.33472,-5.15616,-0.00267845,0.00560864,-0.00568379,0.0084989,-0.00556871,-1.10036,0.00818046,0.0199973,1350,407,2.33467,5.15616
133,617,2.32849,-5.1413,-0.0026394,0.00572586,-0.0057075,0.00861925,-0.00553279,-1.10161,0.0082352,0.0173321,1357,407,2.3285,5.1413
140,617,2.33337,-5.12405,-0.00289757,0.00566047,-0.00552234,0.0083676,-0.0056047,-1.11501,0.00811931,0.0148658,1364,407,2.33337,5.12404
147,617,2.31567,-5.11444,-0.00327342,0.00545445,-0.00512784,0.00782392,-0.00564288,-1.13794,0.00780898,0.0185524,1371,407,2.31564,5.11443
154,617,2.31909,-5.10223,-0.00346187,0.00476304,-0.00430337,0.006603,-0.00530184,-1.16676,0.00688693,0.0218032,1378,407,2.31909,5.10223
161,617,2.35632,-5.05087,-0.00340739,0.00422141,-0.00361717,0.00566378,-0.00484975,-1.19136,0.00607605,0.0223548,1385,407,2.35631,5.05088
168,617,2.35962,-5.04608,-0.00311092,0.0035428,-0.00302175,0.00471027,-0.00427839,-1.20211,0.0051916,0.0201172,1392,407,2.35968,5.0461
175,617,2.35181,-5.04526,-0.00263521,0.00261201,-0.00207576,0.00333386,-0.00335706,-1.23613,0.00386301,0.0169266,1399,407,2.35184,5.04525
182,617,2.37488,-5.00488,-0.00194568,0.00181355,-0.00124672,0.00218943,-0.00232156,-1.27797,0.00260479,0.0117063,1406,407,2.37494,5.00488
189,617,2.37524,-4.93533,-0.0013473,0.00107829,-0.000677154,0.00125453,-0.00152354,-1.31618,0.00160642,0.0109968,1413,407,2.37527,4.93533
196,617,2.37964,-4.91855,-0.000863337,0.000290725,-0.000250916,0.000342918,-0.00091553,-1.36571,0.000751218,0.0142924,1420,407,2.37967,4.91854
203,617,2.36316,-4.89157,-0.000655763,-0.000147809,-3.94381e-05,-0.000144765,-0.000658807,-1.49377,0.000399784,0.0151986,1427,407,2.36319,4.89157
210,617,2.38477,-4.83392,-0.000725109,-3.86874e-05,9.76344e-06,-3.85486e-05,-0.000725247,1.55658,0.000471175,0.0144304,1434,407,2.3848,4.83393
217,617,2.39001,-4.75171,-0.000727132,4.04054e-05,1.37937e-05,4.06532e-05,-0.00072738,1.55283,0.000499024,0.0189385,1441,407,2.38999,4.7517
224,617,2.37781,-4.71927,-0.000500138,3.52901e-05,2.63368e-05,3.65824e-05,-0.000501431,1.52177,0.000347125,0.0185777,1448,407,2.37785,4.71927
231,617,2.37598,-4.70776,-0.000119665,0.000105388,-8.6669e-05,0.000134896,-0.000149173,-1.24264,0.000164076,0.014021,1455,407,2.37601,4.70777
238,617,2.36768,-4.66241,0.000374707,0.000262762,-0.000337791,0.000661131,-2.36619e-05,-0.703294,0.000448849,0.014349,1462,407,2.36766,4.66241
245,617,2.36902,-4.62283,0.000958206,0.000510122,-0.000412237,0.00120335,0.000264979,-0.536487,0.000730114,0.0121377,1469,407,2.36907,4.62283
252,617,2.35352,-4.55258,0.00152721,0.000946654,-0.000372939,0.00170953,0.000764338,-0.454697,0.000988835,0.0132788,1476,407,2.35354,4.5526
259,617,2.34924,-4.4866,0.00188073,0.00143627,-0.000519582,0.00222361,0.00109338,-0.583316,0.00128386,0.0122156,1483,407,2.34929,4.48659
266,617,2.36694,-4.42007,0.00216939,0.00215081,-0.000644048,0.00280421,0.00151598,-0.778186,0.00162079,0.013641,1490,407,2.36691,4.42008
273,617,2.3833,-4.35526,0.00236737,0.00291207,-0.000587666,0.00328743,0.00199201,-1.00239,0.00191215,0.0135808,1497,407,2.38333,4.35525
280,617,2.38599,-4.31293,0.00233322,0.0038663,-0.000399106,0.00396398,0.00223555,-1.33078,0.00229484,0.0124178,1504,407,2.38597,4.31292
287,617,2.36011,-4.24915,0.00199792,0.00487712,-0.000193265,0.00489004,0.00198501,-1.50407,0.00283987,0.012718,1511,407,2.36009,4.24915
294,617,2.35425,-4.18387,0.00155745,0.00593005,6.12605e-05,0.00593091,0.00155659,1.55679,0.00355069,0.0104161,1518,407,2.35423,4.18388
301,617,2.34534,-4.12158,0.00103751,0.00702842,0.000319374,0.0070454,0.00102053,1.51769,0.00439641,0.00801292,1525,407,2.34537,4.12157
308,617,2.3429,-4.052,0.000497254,0.00810579,0.000587785,0.00815094,0.000452113,1.49415,0.0052897,0.0084822,1532,407,2.34287,4.052
315,617,2.34949,-3.98184,-0.000132378,0.00903232,0.000759857,0.0090949,-0.000194951,1.48863,0.00612928,0.00920256,1539,407,2.34945,3.98184
322,617,2.36353,-3.9418,-0.00108929,0.00941386,0.000527922,0.00944033,-0.00111576,1.5207,0.00669653,0.0111837,1546,407,2.36357,3.94181
329,617,2.36523,-3.87814,-0.00202571,0.00889288,0.0004948,0.00891526,-0.00204809,1.5256,0.00673088,0.0106148,1553,407,2.3652,3.87814
336,617,2.37012,-3.73236,-0.00291659,0.00829612,0.000501941,0.00831855,-0.00293901,1.52615,0.00674238,0.0214613,1560,407,2.37016,3.73235
343,617,2.30591,-3.63135,-0.00345026,0.00749178,0.000165987,0.0074943,-0.00345277,1.55563,0.00646228,0.0380131,1567,407,2.30589,3.63136
350,617,2.33838,-3.53674,-0.00356975,0.00649693,-0.000851814,0.0065685,-0.00364132,-1.48697,0.00597485,0.0448383,1574,407,2.33844,3.53676
357,617,2.41296,-3.40967,-0.0033266,0.00415369,-0.00131912,0.0043795,-0.0035524,-1.40126,0.00458778,0.0489376,1581,407,2.41294,3.40968
364,617,2.39014,-3.46088,0,0,0,0,0,0,0,-1,1588,407,2.39016,3.46088
371,617,2.05554,-3.28079,0,0,0,0,0,0,0,-1,1595,407,2.0556,3.2808
378,617,2.20593,-3.33649,0,0,0,0,0,0,0,-1,1602,407,2.20599,3.33649
385,617,1.22119,-1.97333,0,0,0,0,0,0,0,-1,1609,407,1.22119,1.97332
392,617,3.1283,-2.2749,0,0,0,0,0,0,0,-1,1616,407,3.12834,2.27489
399,617,2.56445,-2.84402,0,0,0,0,0,0,0,-1,1623,407,2.56446,2.84404
406,617,3.02429,-3.19577,0,0,0,0,0,0,0,-1,1630,407,3.02431,3.19577
413,617,2.92786,-3.80649,0,0,0,0,0,0,0,-1,1637,407,2.92788,3.8065
420,617,3.42737,-4.47391,0,0,0,0,0,0,0,-1,1644,407,3.42737,4.47391
427,617,0,0,0,0,0,0,0,0,0,-1,1651,407,0,0
434,617,0,0,0,0,0,0,0,0,0,-1,1658,407,0,0
441,617,0,0,0,0,0,0,0,0,0,-1,1665,407,0,0
448,617,0,0,0,0,0,0,0,0,0,-1,1672,407,0,0
455,617,0,0,0,0,0,0,0,0,0,-1,1679,407,0,0
462,617,0,0,0,0,0,0,0,0,0,-1,1686,407,0,0
469,617,0,0,0,0,0,0,0,0,0,-1,1693,407,0,0
476,617,0,0,0,0,0,0,0,0,0,-1,1700,407,0,0
483,617,0,0,0,0,0,0,0,0,0,-1,1707,407,0,0
490,617,0,0,0,0,0,0,0,0,0,-1,1714,407,0,0
497,617,0,0,0,0,0,0,0,0,0,-1,1721,407,0,0
504,617,0,0,0,0,0,0,0,0,0,-1,1728,407,0,0
511,617,0,0,0,0,0,0,0,0,0,-1,1735,407,0,0
518,617,0,0,0,0,0,0,0,0,0,-1,1742,407,0,0
525,617,0,0,0,0,0,0,0,0,0,-1,1749,407,0,0
532,617,0,0,0,0,0,0,0,0,0,-1,1756,407,0,0
539,617,0,0,0,0,0,0,0,0,0,-1,1763,407,0,0
546,617,0,0,0,0,0,0,0,0,0,-1,1770,407,0,0
553,617,0,0,0,0,0,0,0,0,0,-1,1777,407,0,0
560,617,0,0,0,0,0,0,0,0,0,-1,1784,407,0,0
567,617,0,0,0,0,0,0,0,0,0,-1,1791,407,0,0
574,617,0,0,0,0,0,0,0,0,0,-1,1798,407,0,0
581,617,0,0,0,0,0,0,0,0,0,-1,1805,407,0,0
588,617,0,0,0,0,0,0,0,0,0,-1,1812,407,0,0
595,617,0,0,0,0,0,0,0,0,0,-1,1819,407,0,0
602,617,0,0,0,0,0,0,0,0,0,-1,1826,407,0,0
609,617,0,0,0,0,0,0,0,0,0,-1,1833,407,0,0
616,617,0,0,0,0,0,0,0,0,0,-1,1840,407,0,0
623,617,0,0,0,0,0,0,0,0,0,-1,1847,407,0,0
630,617,0,0,0,0,0,0,0,0,0,-1,1854,407,0,0
637,617,0,0,0,0,0,0,0,0,0,-1,1861,407,0,0
644,617,0,0,0,0,0,0,0,0,0,-1,1868,407,0,0
651,617,0,0,0,0,0,0,0,0,0,-1,1875,407,0,0
658,617,0,0,0,0,0,0,0,0,0,-1,1882,407,0,0
665,617,0,0,0,0,0,0,0,0,0,-1,1889,407,0,0
672,617,0,0,0,0,0,0,0,0,0,-1,1896,407,0,0
679,617,0,0,0,0,0,0,0,0,0,-1,1903,407,0,0
686,617,0,0,0,0,0,0,0,0,0,-1,1910,407,0,0
693,617,0,0,0,0,0,0,0,0,0,-1,1917,407,0,0
700,617,0,0,0,0,0,0,0,0,0,-1,1924,407,0,0
707,617,0,0,0,0,0,0,0,0,0,-1,1931,407,0,0
714,617,0,0,0,0,0,0,0,0,0,-1,1938,407,0,0
721,617,0,0,0,0,0,0,0,0,0,-1,1945,407,0,0
728,617,0,0,0,0,0,0,0,0,0,-1,1952,407,0,0
735,617,0,0,0,0,0,0,0,0,0,-1,1959,407,0,0
742,617,0,0,0,0,0,0,0,0,0,-1,1966,407,0,0
749,617,0,0,0,0,0,0,0,0,0,-1,1973,407,0,0
756,617,0,0,0,0,0,0,0,0,0,-1,1980,407,0,0
763,617,0,0,0,0,0,0,0,0,0,-1,1987,407,0,0
770,617,0,0,0,0,0,0,0,0,0,-1,1994,407,0,0
777,617,0,0,0,0,0,0,0,0,0,-1,2001,407,0,0
784,617,0,0,0,0,0,0,0,0,0,-1,2008,407,0,0
791,617,0,0,0,0,0,0,0,0,0,-1,2015,407,0,0
798,617,0,0,0,0,0,0,0,0,0,-1,2022,407,0,0
805,617,0,0,0,0,0,0,0,0,0,-1,2029,407,0,0
812,617,0,0,0,0,0,0,0,0,0,-1,2036,407,0,0
-700,610,0,0,0,0,0,0,0,0,0,-1,524,414,0,0
-693,610,0,0,0,0,0,0,0,0,0,-1,531,414,0,0
-686,610,0,0,0,0,0,0,0,0,0,-1,538,414,0,0
-679,610,0,0,0,0,0,0,0,0,0,-1,545,414,0,0
-672,610,0,0,0,0,0,0,0,0,0,-1,552,414,0,0
-665,610,0,0,0,0,0,0,0,0,0,-1,559,414,0,0
-658,610,0,0,0,0,0,0,0,0,0,-1,566,414,0,0
-651,610,0,0,0,0,0,0,0,0,0,-1,573,414,0,0
-644,610,0,0,0,0,0,0,0,0,0,-1,580,414,0,0
-637,610,0,0,0,0,0,0,0,0,0,-1,587,414,0,0
-630,610,0,0,0,0,0,0,0,0,0,-1,594,414,0,0
-623,610,0,0,0,0,0,0,0,0,0,-1,601,414,0,0
-616,610,0,0,0,0,0,0,0,0,0,-1,608,414,0,0
-609,610,0,0,0,0,0,0,0,0,0,-1,615,414,0,0
-602,610,0,0,0,0,0,0,0,0,0,-1,622,414,0,0
-595,610,0,0,0,0,0,0,0,0,0,-1,629,414,0,0
-588,610,0,0,0,0,0,0,0,0,0,-1,636,414,0,0
-581,610,0,0,0,0,0,0,0,0,0,-1,643,414,0,0
-574,610,0,0,0,0,0,0,0,0,0,-1,650,414,0,0
-567,610,0,0,0,0,0,0,0,0,0,-1,657,414,0,0
-560,610,0,0,0,0,0,0,0,0,0,-1,664,414,0,0
-553,610,0,0,0,0,0,0,0,0,0,-1,671,414,0,0
-546,610,0,0,0,0,0,0,0,0,0,-1,678,414,0,0
-539,610,0,0,0,0,0,0,0,0,0,-1,685,414,0,0
-532,610,0,0,0,0,0,0,0,0,0,-1,692,414,0,0
-525,610,0,0,0,0,0,0,0,0,0,-1,699,414,0,0
-518,610,0,0,0,0,0,0,0,0,0,-1,706,414,0,0
-511,610,0,0,0,0,0,0,0,0,0,-1,713,414,0,0
-504,610,0,0,0,0,0,0,0,0,0,-1,720,414,0,0
-497,610,0,0,0,0,0,0,0,0,0,-1,727,414,0,0
-490,610,0,0,0,0,0,0,0,0,0,-1,734,414,0,0
-483,610,0,0,0,0,0,0,0,0,0,-1,741,414,0,0
-476,610,0,0,0,0,0,0,0,0,0,-1,748,414,0,0
-469,610,0,0,0,0,0,0,0,0,0,-1,755,414,0,0
-462,610,0,0,0,0,0,0,0,0,0,-1,762,414,0,0
-455,610,0,0,0,0,0,0,0,0,0,-1,769,414,0,0
-448,610,0,0,0,0,0,0,0,0,0,-1,776,414,0,0
-441,610,0,0,0,0,0,0,0,0,0,-1,783,414,0,0
-434,610,0,0,0,0,0,0,0,0,0,-1,790,414,0,0
-427,610,0,0,0,0,0,0,0,0,0,-1,797,414,0,0
-420,610,0,0,0,0,0,0,0,0,0,-1,804,414,0,0
-413,610,0,0,0,0,0,0,0,0,0,-1,811,414,0,0
-406,610,0,0,0,0,0,0,0,0,0,-1,818,414,0,0
-399,610,0,0,0,0,0,0,0,0,0,-1,825,414,0,0
-392,610,0,0,0,0,0,0,0,0,0,-1,832,414,0,0
-385,610,0,0,0,0,0,0,0,0,0,-1,839,414,0,0
-378,610,0,0,0,0,0,0,0,0,0,-1,846,414,0,0
-371,610,0,0,0,0,0,0,0,0,0,-1,853,414,0,0
-364,610,0,0,0,0,0,0,0,0,0,-1,860,414,0,0
-357,610,0,0,0,0,0,0,0,0,0,-1,867,414,0,0
-350,610,0,0,0,0,0,0,0,0,0,-1,874,414,0,0
-343,610,0,0,0,0,0,0,0,0,0,-1,881,414,0,0
-336,610,0,0,0,0,0,0,0,0,0,-1,888,414,0,0
-329,610,0,0,0,0,0,0,0,0,0,-1,895,414,0,0
-322,610,0,0,0,0,0,0,0,0,0,-1,902,414,0,0
-315,610,6.01733,-0.204773,0,0,0,0,0,0,0,-1,909,414,6.01732,0.204766
-308,610,3.14618,-5.29645,0,0,0,0,0,0,0,-1,916,414,3.14616,5.29644
-301,610,-2.08014,-8.75784,0,0,0,0,0,0,0,-1,923,414,-2.08015,8.75783
-294,610,3.77795,-5.21445,0,0,0,0,0,0,0,-1,930,414,3.77798,5.21444
-287,610,0.155945,-4.73849,0,0,0,0,0,0,0,-1,937,414,0.155931,4.73851
-280,610,0.428223,-4.42426,0,0,0,0,0,0,0,-1,944,414,0.428217,4.42427
-273,610,0.744934,-4.06293,0,0,0,0,0,0,0,-1,951,414,0.74496,4.06294
-266,610,2.41345,-3.23279,0,0,0,0,0,0,0,-1,958,414,2.41344,3.23278
-259,610,1.90887,-3.48334,0,0,0,0,0,0,0,-1,965,414,1.90885,3.48335
-252,610,2.04395,-3.75198,0,0,0,0,0,0,0,-1,972,414,2.04392,3.752
-245,610,2.26514,-3.8317,0,0,0,0,0,0,0,-1,979,414,2.26512,3.83169
-238,610,2.21729,-3.8739,0.0038473,-0.00244891,-0.00534909,0.00690591,-0.00550752,-0.519426,0.00718204,0.0429477,986,414,2.21727,3.8739
-231,610,2.13397,-3.80286,0.00470311,-0.00244556,-0.00490112,0.00719481,-0.00493726,-0.470341,0.00704476,0.0306074,993,414,2.13397,3.80284
-224,610,2.12457,-3.9216,0.00461061,-0.00237975,-0.00444577,0.00677062,-0.00453975,-0.452269,0.00657225,0.0216842,1000,414,2.12459,3.92161
-217,610,2.1676,-3.98267,0.0046129,-0.00250984,-0.00387547,0.00631486,-0.0042118,-0.413805,0.00611786,0.0145346,1007,414,2.16762,3.98267
-210,610,2.17212,-4.06796,0.00449122,-0.0024031,-0.00336744,0.00586304,-0.00377492,-0.386851,0.00560784,0.0104532,1014,414,2.17212,4.06797
-203,610,2.159,-4.13434,0.00392782,-0.00211691,-0.00286499,0.00506992,-0.00325902,-0.379337,0.00484646,0.0127698,1021,414,2.15902,4.13433
-196,610,2.16333,-4.19556,0.00311701,-0.00169305,-0.00246835,0.00415827,-0.00273431,-0.399195,0.00400764,0.0130619,1028,414,2.16337,4.19555
-189,610,2.15405,-4.24258,0.0022967,-0.00127216,-0.00217928,0.00332891,-0.00230437,-0.442343,0.00327026,0.0104055,1035,414,2.15404,4.2426
-182,610,2.14844,-4.31241,0.00163791,-0.000861503,-0.00196069,0.0027133,-0.0019369,-0.501672,0.00269724,0.0109328,1042,414,2.14847,4.3124
-175,610,2.15527,-4.36203,0.000978357,-0.000661038,-0.00170418,0.00204973,-0.00173241,-0.561235,0.00218618,0.0110361,1049,414,2.15522,4.36204
-168,610,2.14746,-4.42392,0.000304136,-0.000539794,-0.00147085,0.00141236,-0.00164801,-0.645708,0.00176865,0.0102551,1056,414,2.14742,4.42393
-161,610,2.13086,-4.51007,-0.000263536,-0.000533405,-0.00126273,0.000871448,-0.00166839,-0.73217,0.00149024,0.0107766,1063,414,2.13088,4.51007
-154,610,2.13538,-4.57114,-0.000602743,-0.000497603,-0.00114415,0.000595183,-0.00169553,-0.808355,0.00137246,0.0131112,1070,414,2.13537,4.57113
-147,610,2.14343,-4.61499,-0.000870747,-0.000643307,-0.000967221,0.000216856,-0.00173091,-0.843916,0.0012326,0.0136837,1077,414,2.14344,4.615
-140,610,2.14807,-4.6395,-0.000879779,-0.000781718,-0.000795925,-3.33147e-05,-0.00162818,-0.81616,0.00107452,0.0108522,1084,414,2.14801,4.63951
-133,610,2.13989,-4.68039,-0.000783568,-0.00120749,-0.000727021,-0.000238238,-0.00175281,-0.643557,0.00109778,0.01183,1091,414,2.13991,4.6804
-126,610,2.14001,-4.72684,-0.000696622,-0.00138929,-0.000680706,-0.000279209,-0.0018067,-0.550073,0.00112303,0.0110778,1098,414,2.14003,4.72684
-119,610,2.12158,-4.78223,-0.000621638,-0.00151776,-0.000597094,-0.000323188,-0.00181621,-0.463518,0.00111875,0.0103246,1105,414,2.12158,4.78222
-112,610,2.11035,-4.81366,-0.000541872,-0.00145465,-0.00058994,-0.000252392,-0.00174413,-0.456174,0.00108842,0.0171995,1112,414,2.11032,4.81366
-105,610,2.11145,-4.85934,-0.000559828,-0.00132381,-0.00059328,-0.0002362,-0.00164744,-0.499373,0.00102864,0.0160427,1119,414,2.11148,4.85935
-98,610,2.13391,-4.92664,-0.000582486,-0.00098203,-0.000623131,-0.000127887,-0.00143663,-0.630277,0.000918097,0.0114134,1126,414,2.13396,4.92664
-91,610,2.14587,-4.95285,-0.000630219,-0.000549457,-0.000729455,0.000140734,-0.00132041,-0.813049,0.000930738,0.0126553,1133,414,2.14582,4.95286
-84,610,2.16382,-4.98148,-0.000753839,-5.40141e-05,-0.000797258,0.000466739,-0.00127459,-0.992188,0.0010408,0.0135939,1140,414,2.16376,4.98149
-77,610,2.15759,-5.03467,-0.000800733,0.000414773,-0.000795164,0.000807844,-0.0011938,-1.1117,0.00116279,0.0102468,1147,414,2.15762,5.03468
-70,610,2.15393,-5.08347,-0.000105043,0.00107596,-0.000480448,0.00124672,-0.000275805,-1.2293,0.000936718,0.0114743,1154,414,2.1539,5.08345
-63,610,2.15967,-5.10861,0.000683501,0.00183723,-0.000456243,0.00199585,0.000524886,-1.23621,0.00119468,0.0109378,1161,414,2.15967,5.10862
-56,610,2.15332,-5.1004,0.00138975,0.00251117,-0.00041267,0.00264666,0.00125426,-1.25356,0.00152874,0.00878657,1168,414,2.15338,5.1004
-49,610,2.15857,-5.12384,0.0022392,0.0028199,-0.000363774,0.00299499,0.00206411,-1.12221,0.00176994,0.0101251,1175,414,2.15859,5.12385
-42,610,2.18164,-5.17896,0.00276441,0.00273264,-0.000782514,0.0035312,0.00196585,-0.775251,0.00204311,0.0148777,1182,414,2.18159,5.17896
-35,610,2.19922,-5.21729,0.00256594,0.00258228,-0.000796016,0.00337017,0.00177805,-0.79053,0.00194675,0.0140741,1189,414,2.19926,5.21729
-28,610,2.18555,-5.2186,0.00132509,0.00176712,-0.000791349,0.00236774,0.000724472,-0.921573,0.0014009,0.0118623,1196,414,2.18553,5.21859
-21,610,2.18469,-5.20667,4.10063e-05,0.000643082,-0.00142643,0.0017999,-0.00111581,-0.889394,0.00169876,0.0108681,1203,414,2.18467,5.20666
-14,610,2.18079,-5.20151,-0.00113698,2.12753e-05,-0.00255224,0.00205927,-0.00317498,-0.896964,0.00304479,0.0123908,1210,414,2.18073,5.20151
-7,610,2.18323,-5.20023,-0.00253243,-0.000362905,-0.00345397,0.00217264,-0.00506797,-0.937552,0.00429033,0.0139798,1217,414,2.18323,5.20023
0,610,2.20203,-5.23502,-0.0042914,-0.000656915,-0.00428155,0.00217709,-0.0071254,-0.986094,0.00561837,0.0110144,1224,414,2.20198,5.235
7,610,2.21667,-5.25595,-0.00587662,-0.000770506,-0.00495524,0.00225071,-0.00889784,-1.02327,0.0068073,0.0113998,1231,414,2.21671,5.25594
14,610,2.22449,-5.26553,-0.00709685,-0.000908823,-0.00535919,0.00218537,-0.010191,-1.04719,0.00762756,0.0129069,1238,414,2.22454,5.26553
21,610,2.24719,-5.27914,-0.00831993,-0.000903608,-0.00576439,0.00224233,-0.0114659,-1.07122,0.00849063,0.0109595,1245,414,2.24722,5.27916
28,610,2.26184,-5.31091,-0.00967279,-0.000692646,-0.00590582,0.00223614,-0.0126016,-1.11042,0.0092371,0.0110436,1252,414,2.26181,5.3109
35,610,2.29077,-5.31589,-0.011003,-0.000518907,-0.00579871,0.00205595,-0.0135779,-1.15291,0.00980933,0.01455,1259,414,2.29074,5.31588
42,610,2.25269,-5.30832,-0.0117331,-0.000522363,-0.0052158,0.00152894,-0.0137844,-1.19609,0.00973936,0.0138587,1266,414,2.2527,5.30832
49,610,2.26526,-5.31381,-0.0117569,-0.000206328,-0.00502791,0.00167566,-0.0136389,-1.21263,0.00969953,0.0138265,1273,414,2.26522,5.31382
56,610,2.28662,-5.31079,-0.0112871,-7.97712e-05,-0.00467111,0.00161179,-0.0129787,-1.22335,0.00923671,0.0125759,1280,414,2.28656,5.3108
63,610,2.2489,-5.2869,-0.0106979,0.000105384,-0.00428481,0.00159847,-0.012191,-1.23549,0.0087092,0.0155056,1287,414,2.24887,5.28691
70,610,2.24084,-5.25409,-0.00961047,0.000727708,-0.0045992,0.00247759,-0.0113603,-1.20723,0.00852036,0.0212205,1294,414,2.24084,5.2541
77,610,2.26147,-5.25922,-0.00836512,0.00180324,-0.00520497,0.00399509,-0.010557,-1.17223,0.00868169,0.0273004,1301,414,2.26147,5.25923
84,610,2.30249,-5.21811,-0.00729911,0.00299128,-0.00578361,0.00558709,-0.00989492,-1.14892,0.00905315,0.0297078,1308,414,2.30251,5.21811
91,610,2.32617,-5.23657,-0.00659985,0.00420932,-0.0063386,0.00713465,-0.00952518,-1.13841,0.0096515,0.0246918,1315,414,2.32619,5.23659
98,610,2.38708,-5.26486,-0.00578693,0.00540209,-0.00707458,0.0088269,-0.00921175,-1.11995,0.0104154,0.0223524,1322,414,2.38712,5.26486
105,610,2.36011,-5.23297,-0.00480414,0.00651382,-0.00786547,0.0105445,-0.00883483,-1.09724,0.0112032,0.016906,1329,414,2.36008,5.23298
112,610,2.32947,-5.23792,-0.00427324,0.00750853,-0.0085729,0.0120194,-0.00878413,-1.08642,0.0120593,0.0117906,1336,414,2.32944,5.23793
119,610,2.2843,-5.21695,-0.00435258,0.00869808,-0.00915322,0.0134138,-0.0090683,-1.09506,0.0130606,0.0171342,1343,414,2.28426,5.21695
126,610,2.2887,-5.17099,-0.00437637,0.00947969,-0.00924423,0.0141039,-0.00900055,-1.10697,0.0134474,0.0243139,1350,414,2.28875,5.17098
133,610,2.35718,-5.16159,-0.00434649,0.00981447,-0.00914239,0.0142976,-0.0088296,-1.11489,0.0134763,0.0193506,1357,414,2.35722,5.16159
140,610,2.37292,-5.15381,-0.00468326,0.009857,-0.00877898,0.0139853,-0.00881161,-1.13123,0.0132743,0.0149007,1364,414,2.37288,5.15382
147,610,2.33813,-5.12314,-0.00523648,0.00968119,-0.00819024,0.0133,-0.00885529,-1.15475,0.0128769,0.0164008,1371,414,2.3381,5.12315
154,610,2.31946,-5.09009,-0.00558335,0.0089232,-0.00705374,0.0117875,-0.00844764,-1.18507,0.0117357,0.0212965,1378,414,2.31948,5.09009
161,610,2.3584,-5.0607,-0.00556461,0.00821704,-0.00609026,0.0105227,-0.00787024,-1.20889,0.0106559,0.0250029,1385,414,2.35838,5.06071
168,610,2.36487,-5.05234,-0.00506054,0.0070987,-0.0052654,0.00906185,-0.00702369,-1.21392,0.00931181,0.0247296,1392,414,2.36483,5.05233
175,610,2.34973,-5.02515,-0.00425791,0.00548026,-0.00383977,0.00681213,-0.00558978,-1.23692,0.00717183,0.0206703,1399,414,2.34978,5.02514
182,610,2.40735,-4.98956,-0.0030697,0.00379856,-0.002483,0.00460218,-0.00387332,-1.25779,0.00489936,0.0155256,1406,414,2.4074,4.98955
189,610,2.43689,-4.92316,-0.0019097,0.00220376,-0.00145674,0.0026674,-0.00237333,-1.26267,0.00291191,0.0137346,1413,414,2.43689,4.92316
196,610,2.40894,-4.90268,-0.000938944,0.000690264,-0.000805715,0.00102142,-0.0012701,-1.18084,0.0013256,0.0135058,1420,414,2.40889,4.90268
203,610,2.39905,-4.87546,-0.000456366,-0.00022841,-0.000540695,0.00021019,-0.000894966,-0.889277,0.000677661,0.0147025,1427,414,2.39902,4.87545
210,610,2.4137,-4.81967,-0.000455808,-0.000177238,-0.000522321,0.000224051,-0.000857096,-0.915699,0.000658903,0.0108259,1434,414,2.41375,4.81968
217,610,2.4126,-4.7879,-0.000498088,-0.000220323,-0.000459107,0.000120448,-0.00083886,-0.932275,0.00060341,0.0160031,1441,414,2.41263,4.78791
224,610,2.41296,-4.7486,-0.00038395,-0.000404692,-0.000256289,-0.000137822,-0.00065082,-0.765176,0.000396016,0.0195563,1448,414,2.41298,4.7486
231,610,2.40308,-4.70291,-0.000211121,-0.000551878,-6.95432e-05,-0.000197475,-0.000565524,-0.193765,0.000331419,0.0151846,1455,414,2.40302,4.70291
238,610,2.40674,-4.65533,9.54135e-06,-0.000672308,1.83261e-05,1.00335e-05,-0.0006728,0.0268512,0.000451915,0.01116,1462,414,2.40672,4.65532
245,610,2.42065,-4.60608,0.000239557,-0.00068062,0.000137481,0.000259659,-0.000700721,0.145185,0.000573636,0.012719,1469,414,2.42067,4.60609
252,610,2.38574,-4.53885,0.000457211,-0.000552033,0.000374682,0.000581103,-0.000675926,0.319342,0.000726434,0.0137455,1476,414,2.38572,4.53885
259,610,2.40613,-4.47473,0.000492457,-0.000306048,0.000458497,0.00070117,-0.000514761,0.427179,0.000704763,0.0122907,1483,414,2.40614,4.47474
266,610,2.43408,-4.40802,0.000444728,0.000143757,0.000531875,0.000846996,-0.000258511,0.647534,0.000667729,0.0130428,1490,414,2.43404,4.40803
273,610,2.44116,-4.3602,0.000397311,0.000678533,0.000710836,0.00126253,-0.000186688,0.883043,0.000910321,0.0103246,1497,414,2.44122,4.36021
280,610,2.43457,-4.29477,0.000244746,0.00142128,0.00092762,0.00193144,-0.000265412,1.06798,0.0013846,0.00979104,1504,414,2.43455,4.29476
287,610,2.40564,-4.22174,-4.10278e-05,0.00226381,0.00109916,0.00270394,-0.000481157,1.18992,0.00198257,0.0132188,1511,414,2.40561,4.22173
294,610,2.40894,-4.16461,-0.000326226,0.00317603,0.00124545,0.00357376,-0.000723955,1.26169,0.00265691,0.0114506,1518,414,2.40891,4.16461
301,610,2.41711,-4.12567,-0.000613068,0.00417676,0.00134961,0.00453085,-0.000967164,1.31421,0.00338927,0.0101919,1525,414,2.41709,4.12569
308,610,2.42944,-4.05844,-0.000842862,0.0051679,0.00146582,0.00550631,-0.00118127,1.3439,0.00412145,0.0122792,1532,414,2.42946,4.05844
315,610,2.43262,-3.99637,-0.00110153,0.00601875,0.00149009,0.00631801,-0.00140079,1.3726,0.00474832,0.0131241,1539,414,2.43266,3.99638
322,610,2.42175,-3.92484,-0.00143967,0.00650519,0.00113015,0.00666283,-0.00159731,1.43221,0.00505908,0.0119215,1546,414,2.4217,3.92484
329,610,2.41052,-3.85031,-0.00175547,0.00637441,0.000864021,0.00646522,-0.00184628,1.46608,0.0050396,0.0105032,1553,414,2.41053,3.85031
336,610,2.42932,-3.75098,-0.00212308,0.00626792,0.000648936,0.00631781,-0.00217297,1.49407,0.00509313,0.010306,1560,414,2.42934,3.75098
343,610,2.43445,-3.66492,-0.00235224,0.00599036,0.00031822,0.00600248,-0.00236436,1.53273,0.00498049,0.0163239,1567,414,2.43443,3.66491
350,610,2.40002,-3.65186,-0.00237678,0.00547673,-0.000234676,0.00548374,-0.00238378,-1.54095,0.00465837,0.022806,1574,414,2.40002,3.65186
357,610,2.42432,-3.58527,-0.00218371,0.00393865,-0.000363363,0.00396014,-0.0022052,-1.51172,0.00360731,0.0300869,1581,414,2.42433,3.58526
364,610,2.37573,-3.37988,-0.00193866,0.00282793,-1.92451e-05,0.00282801,-0.00193874,-1.56676,0.002768,0.0316907,1588,414,2.37577,3.3799
371,610,2.34473,-3.3696,-0.00170128,0.00142949,0.000379656,0.00147487,-0.00174666,1.45183,0.00186216,0.0390467,1595,414,2.34472,3.36961
378,610,2.28967,-3.35718,-0.00139318,0.00010116,0.000933381,0.000549591,-0.00184161,1.12292,0.00144618,0.0433269,1602,414,2.28973,3.35719
385,610,2.23511,-3.25345,0,0,0,0,0,0,0,-1,1609,414,2.23515,3.25346
392,610,2.37634,-2.6618,0,0,0,0,0,0,0,-1,1616,414,2.3764,2.66181
399,610,2.68445,-2.73322,0.000975956,-0.00252368,0.00395063,0.00354694,-0.00509467,0.576922,0.00501584,0.0483368,1623,414,2.68444,2.73321
406,610,2.91687,-2.9166,0.00171006,-0.00250244,0.00474239,0.0047929,-0.00558527,0.576416,0.00599766,0.0494711,1630,414,2.91688,2.91659
413,610,3.01929,-3.20306,0,0,0,0,0,0,0,-1,1637,414,3.01929,3.20306
420,610,4.78149,-3.64041,0,0,0,0,0,0,0,-1,1644,414,4.78152,3.64042
427,610,5.20764,-4.67545,0,0,0,0,0,0,0,-1,1651,414,5.20759,4.67545
434,610,5.39233,-5.45441,0,0,0,0,0,0,0,-1,1658,414,5.39228,5.4544
441,610,0,0,0,0,0,0,0,0,0,-1,1665,414,0,0
448,610,0,0,0,0,0,0,0,0,0,-1,1672,414,0,0
455,610,0,0,0,0,0,0,0,0,0,-1,1679,414,0,0
462,610,0,0,0,0,0,0,0,0,0,-1,1686,414,0,0
469,610,0,0,0,0,0,0,0,0,0,-1,1693,414,0,0
476,610,0,0,0,0,0,0,0,0,0,-1,1700,414,0,0
483,610,0,0,0,0,0,0,0,0,0,-1,1707,414,0,0
490,610,0,0,0,0,0,0,0,0,0,-1,1714,414,0,0
497,610,0,0,0,0,0,0,0,0,0,-1,1721,414,0,0
504,610,0,0,0,0,0,0,0,0,0,-1,1728,414,0,0
511,610,0,0,0,0,0,0,0,0,0,-1,1735,414,0,0
518,610,0,0,0,0,0,0,0,0,0,-1,1742,414,0,0
525,610,0,0,0,0,0,0,0,0,0,-1,1749,414,0,0
532,610,0,0,0,0,0,0,0,0,0,-1,1756,414,0,0
539,610,0,0,0,0,0,0,0,0,0,-1,1763,414,0,0
546,610,0,0,0,0,0,0,0,0,0,-1,1770,414,0,0
553,610,0,0,0,0,0,0,0,0,0,-1,1777,414,0,0
560,610,0,0,0,0,0,0,0,0,0,-1,1784,414,0,0
567,610,0,0,0,0,0,0,0,0,0,-1,1791,414,0,0
574,610,0,0,0,0,0,0,0,0,0,-1,1798,414,0,0
581,610,0,0,0,0,0,0,0,0,0,-1,1805,414,0,0
588,610,0,0,0,0,0,0,0,0,0,-1,1812,414,0,0
595,610,0,0,0,0,0,0,0,0,0,-1,1819,414,0,0
602,610,0,0,0,0,0,0,0,0,0,-1,1826,414,0,0
609,610,0,0,0,0,0,0,0,0,0,-1,1833,414,0,0
616,610,0,0,0,0,0,0,0,0,0,-1,1840,414,0,0
623,610,0,0,0,0,0,0,0,0,0,-1,1847,414,0,0
630,610,0,0,0,0,0,0,0,0,0,-1,1854,414,0,0
637,610,0,0,0,0,0,0,0,0,0,-1,1861,414,0,0
644,610,0,0,0,0,0,0,0,0,0,-1,1868,414,0,0
651,610,0,0,0,0,0,0,0,0,0,-1,1875,414,0,0
658,610,0,0,0,0,0,0,0,0,0,-1,1882,414,0,0
665,610,0,0,0,0,0,0,0,0,0,-1,1889,414,0,0
672,610,0,0,0,0,0,0,0,0,0,-1,1896,414,0,0
679,610,0,0,0,0,0,0,0,0,0,-1,1903,414,0,0
686,610,0,0,0,0,0,0,0,0,0,-1,1910,414,0,0
693,610,0,0,0,0,0,0,0,0,0,-1,1917,414,0,0
700,610,0,0,0,0,0,0,0,0,0,-1,1924,414,0,0
707,610,0,0,0,0,0,0,0,0,0,-1,1931,414,0,0
714,610,0,0,0,0,0,0,0,0,0,-1,1938,414,0,0
721,610,0,0,0,0,0,0,0,0,0,-1,1945,414,0,0
728,610,0,0,0,0,0,0,0,0,0,-1,1952,414,0,0
735,610,0,0,0,0,0,0,0,0,0,-1,1959,414,0,0
742,610,0,0,0,0,0,0,0,0,0,-1,1966,414,0,0
749,610,0,0,0,0,0,0,0,0,0,-1,1973,414,0,0
756,610,0,0,0,0,0,0,0,0,0,-1,1980,414,0,0
763,610,0,0,0,0,0,0,0,0,0,-1,1987,414,0,0
770,610,0,0,0,0,0,0,0,0,0,-1,1994,414,0,0
777,610,0,0,0,0,0,0,0,0,0,-1,2001,414,0,0
784,610,0,0,0,0,0,0,0,0,0,-1,2008,414,0,0
791,610,0,0,0,0,0,0,0,0,0,-1,2015,414,0,0
798,610,0,0,0,0,0,0,0,0,0,-1,2022,414,0,0
805,610,0,0,0,0,0,0,0,0,0,-1,2029,414,0,0
812,610,0,0,0,0,0,0,0,0,0,-1,2036,414,0,0
-700,603,0,0,0,0,0,0,0,0,0,-1,524,421,0,0
-693,603,0,0,0,0,0,0,0,0,0,-1,531,421,0,0
-686,603,0,0,0,0,0,0,0,0,0,-1,538,421,0,0
-679,603,0,0,0,0,0,0,0,0,0,-1,545,421,0,0
-672,603,0,0,0,0,0,0,0,0,0,-1,552,421,0,0
-665,603,0,0,0,0,0,0,0,0,0,-1,559,421,0,0
-658,603,0,0,0,0,0,0,0,0,0,-1,566,421,0,0
-651,603,0,0,0,0,0,0,0,0,0,-1,573,421,0,0
-644,603,0,0,0,0,0,0,0,0,0,-1,580,421,0,0
-637,603,0,0,0,0,0,0,0,0,0,-1,587,421,0,0
-630,603,0,0,0,0,0,0,0,0,0,-1,594,421,0,0
-623,603,0,0,0,0,0,0,0,0,0,-1,601,421,0,0
-616,603,0,0,0,0,0,0,0,0,0,-1,608,421,0,0
-609,603,0,0,0,0,0,0,0,0,0,-1,615,421,0,0
-602,603,0,0,0,0,0,0,0,0,0,-1,622,421,0,0
-595,603,0,0,0,0,0,0,0,0,0,-1,629,421,0,0
-588,603,0,0,0,0,0,0,0,0,0,-1,636,421,0,0
-581,603,0,0,0,0,0,0,0,0,0,-1,643,421,0,0
-574,603,0,0,0,0,0,0,0,0,0,-1,650,421,0,0
-567,603,0,0,0,0,0,0,0,0,0,-1,657,421,0,0
-560,603,0,0,0,0,0,0,0,0,0,-1,664,421,0,0
-553,603,0,0,0,0,0,0,0,0,0,-1,671,421,0,0
-546,603,0,0,0,0,0,0,0,0,0,-1,678,421,0,0
-539,603,0,0,0,0,0,0,0,0,0,-1,685,421,0,0
-532,603,0,0,0,0,0,0,0,0,0,-1,692,421,0,0
-525,603,0,0,0,0,0,0,0,0,0,-1,699,421,0,0
-518,603,0,0,0,0,0,0,0,0,0,-1,706,421,0,0
-511,603,0,0,0,0,0,0,0,0,0,-1,713,421,0,0
-504,603,0,0,0,0,0,0,0,0,0,-1,720,421,0,0
-497,603,0,0,0,0,0,0,0,0,0,-1,727,421,0,0
-490,603,0,0,0,0,0,0,0,0,0,-1,734,421,0,0
-483,603,0,0,0,0,0,0,0,0,0,-1,741,421,0,0
-476,603,0,0,0,0,0,0,0,0,0,-1,748,421,0,0
-469,603,0,0,0,0,0,0,0,0,0,-1,755,421,0,0
-462,603,0,0,0,0,0,0,0,0,0,-1,762,421,0,0
-455,603,0,0,0,0,0,0,0,0,0,-1,769,421,0,0
-448,603,0,0,0,0,0,0,0,0,0,-1,776,421,0,0
-441,603,0,0,0,0,0,0,0,0,0,-1,783,421,0,0
-434,603,0,0,0,0,0,0,0,0,0,-1,790,421,0,0
-427,603,0,0,0,0,0,0,0,0,0,-1,797,421,0,0
-420,603,0,0,0,0,0,0,0,0,0,-1,804,421,0,0
-413,603,0,0,0,0,0,0,0,0,0,-1,811,421,0,0
-406,603,0,0,0,0,0,0,0,0,0,-1,818,421,0,0
-399,603,0,0,0,0,0,0,0,0,0,-1,825,421,0,0
-392,603,0,0,0,0,0,0,0,0,0,-1,832,421,0,0
-385,603,0,0,0,0,0,0,0,0,0,-1,839,421,0,0
-378,603,0,0,0,0,0,0,0,0,0,-1,846,421,0,0
-371,603,0,0,0,0,0,0,0,0,0,-1,853,421,0,0
-364,603,0,0,0,0,0,0,0,0,0,-1,860,421,0,0
-357,603,0,0,0,0,0,0,0,0,0,-1,867,421,0,0
-350,603,0,0,0,0,0,0,0,0,0,-1,874,421,0,0
-343,603,0,0,0,0,0,0,0,0,0,-1,881,421,0,0
-336,603,0,0,0,0,0,0,0,0,0,-1,888,421,0,0
-329,603,-2.11981,-5.08417,0,0,0,0,0,0,0,-1,895,421,-2.11983,5.08418
-322,603,3.09723,-5.2807,0,0,0,0,0,0,0,-1,902,421,3.09723,5.2807
-315,603,3.07068,-4.88733,0,0,0,0,0,0,0,-1,909,421,3.07068,4.88733
-308,603,2.84924,-4.99579,0,0,0,0,0,0,0,-1,916,421,2.84923,4.99578
-301,603,2.96704,-4.92352,0,0,0,0,0,0,0,-1,923,421,2.96705,4.92352
-294,603,3.50146,-4.63217,0,0,0,0,0,0,0,-1,930,421,3.50148,4.63218
-287,603,1.86078,-3.27957,0,0,0,0,0,0,0,-1,937,421,1.86077,3.27957
-280,603,2.12115,-3.23929,0,0,0,0,0,0,0,-1,944,421,2.12117,3.23928
-273,603,2.09967,-3.26062,0,0,0,0,0,0,0,-1,951,421,2.09967,3.26063
-266,603,2.24292,-3.2688,-0.00160733,-0.0122947,0.0101041,0.00447909,-0.0183812,0.542162,0.0139883,0.0420388,958,421,2.2429,3.26879
-259,603,2.11017,-3.52551,-0.00195646,-0.00759053,0.00431722,0.000381509,-0.00992849,0.496329,0.00674976,0.0412035,965,421,2.11016,3.52551
-252,603,2.07312,-3.69965,-0.00119954,-0.00427656,0.000889236,-0.00096104,-0.00451506,0.262037,0.00274633,0.0341084,972,421,2.07314,3.69963
-245,603,1.96851,-3.83075,-0.000350732,-0.00271075,-0.00159893,0.000456468,-0.00351795,-0.46751,0.00251132,0.0279588,979,421,1.9685,3.83076
-238,603,2.10858,-3.77859,0.00120725,-0.00129293,-0.00347309,0.00364837,-0.00373406,-0.612649,0.00426234,0.0183115,986,421,2.10861,3.77859
-231,603,2.10413,-3.86328,0.001785,-0.00132716,-0.00302728,0.00363271,-0.00317487,-0.547998,0.00393332,0.011837,993,421,2.10415,3.86329
-224,603,2.09412,-3.93674,0.00166217,-0.00130986,-0.00262816,0.00319534,-0.00284303,-0.528096,0.00348824,0.0117713,1000,421,2.09409,3.93675
-217,603,2.1059,-3.99686,0.00174866,-0.00142334,-0.00220018,0.00287488,-0.00254956,-0.473107,0.00313368,0.0108893,1007,421,2.10588,3.99687
-210,603,2.10809,-4.06989,0.00179547,-0.00136004,-0.0018552,0.0026531,-0.00221767,-0.43302,0.00281588,0.010041,1014,421,2.10812,4.06989
-203,603,2.09937,-4.14825,0.0016229,-0.00102993,-0.00152039,0.00231415,-0.00172118,-0.426716,0.00233817,0.0156665,1021,421,2.09937,4.14827
-196,603,2.11389,-4.22455,0.00128952,-0.000579225,-0.0012643,0.00192725,-0.00121696,-0.467172,0.00183069,0.0158964,1028,421,2.11393,4.22454
-189,603,2.10352,-4.24939,0.000915225,-0.000114223,-0.00110461,0.00161915,-0.000818152,-0.567368,0.00143229,0.0125284,1035,421,2.10352,4.24939
-182,603,2.0885,-4.33109,0.000630546,0.000395542,-0.00102072,0.0015405,-0.000514413,-0.728092,0.00123472,0.00960358,1042,421,2.08851,4.33109
-175,603,2.0835,-4.40009,0.000362748,0.000656447,-0.000893656,0.00141524,-0.000396043,-0.866833,0.00109954,0.0103758,1049,421,2.08354,4.40008
-168,603,2.07751,-4.42499,8.18419e-05,0.000720196,-0.000789339,0.00125245,-0.000450409,-0.977528,0.00101885,0.0129281,1056,421,2.07752,4.42498
-161,603,2.0741,-4.495,-0.000190463,0.000613087,-0.000709199,0.00102641,-0.000603787,-1.04312,0.000951679,0.0132946,1063,421,2.07414,4.495
-154,603,2.08374,-4.57297,-0.000313503,0.000477526,-0.000707641,0.000892682,-0.000728659,-1.04023,0.000937677,0.0126636,1070,421,2.08376,4.57297
-147,603,2.09631,-4.62125,-0.000339439,0.000101891,-0.000610796,0.00053066,-0.000768208,-0.95874,0.000754071,0.0123337,1077,421,2.09631,4.62124
-140,603,2.0979,-4.64789,-0.000219268,-0.000374076,-0.000555579,0.000264273,-0.000857617,-0.716183,0.000677247,0.0100162,1084,421,2.09786,4.64789
-133,603,2.09155,-4.68213,-0.000114478,-0.00110068,-0.000631182,0.000193382,-0.00140854,-0.453801,0.00100968,0.0105556,1091,421,2.09153,4.68211
-126,603,2.0929,-4.71884,-0.000108908,-0.00156909,-0.000708552,0.000178389,-0.00185639,-0.385214,0.00130114,0.00967549,1098,421,2.09289,4.71886
-119,603,2.09717,-4.77673,-9.23731e-05,-0.00201566,-0.000745886,0.00016299,-0.00227102,-0.329854,0.00157116,0.00983487,1105,421,2.0972,4.77673
-112,603,2.0675,-4.82397,-0.000114318,-0.00230484,-0.000836168,0.000168381,-0.00258754,-0.326024,0.00178381,0.0144984,1112,421,2.0675,4.82396
-105,603,2.07483,-4.87918,-0.000218951,-0.0023673,-0.000965019,0.000150867,-0.00273712,-0.36596,0.00187705,0.0141041,1119,421,2.0748,4.87917
-98,603,2.10059,-4.90555,-0.00032466,-0.00217761,-0.00115323,0.000228156,-0.00273042,-0.447001,0.0019009,0.0112958,1126,421,2.10056,4.90555
-91,603,2.10498,-4.92758,-0.000476591,-0.00173109,-0.00139635,0.000426922,-0.0026346,-0.574301,0.00191464,0.0084162,1133,421,2.10494,4.92759
-84,603,2.11609,-4.97632,-0.000745001,-0.00109664,-0.00152322,0.000612509,-0.00245415,-0.727939,0.00187394,0.0083638,1140,421,2.11609,4.97631
-77,603,2.12964,-5.03134,-0.000886999,-0.000449093,-0.00149592,0.000843811,-0.0021799,-0.858066,0.00180166,0.00854505,1147,421,2.12965,5.03135
-70,603,2.14417,-5.10251,-0.000115809,0.000565458,-0.0009545,0.00123828,-0.000788636,-0.95679,0.0011798,0.0123401,1154,421,2.14422,5.10251
-63,603,2.13904,-5.13547,0.00078984,0.00181934,-0.00084891,0.00229737,0.000311808,-1.05794,0.00143895,0.0188534,1161,421,2.13902,5.13546
-56,603,2.08179,-5.20645,0.00176888,0.00295601,-0.000794008,0.00335379,0.0013711,-1.10637,0.00194702,0.0251572,1168,421,2.08178,5.20646
-49,603,2.03516,-5.29901,0.00303837,0.00355439,-0.000757597,0.00409671,0.00249605,-0.949521,0.00238399,0.0324811,1175,421,2.03517,5.29901
-42,603,2.1239,-5.19833,0.00291443,0.00292725,-0.00151168,0.00443254,0.00140914,-0.787518,0.00261508,0.0428199,1182,421,2.12388,5.19834
-35,603,2.10681,-5.19672,0.0018084,0.00231606,-0.00121627,0.00330471,0.000819754,-0.88827,0.00198707,0.0302392,1189,421,2.10682,5.19673
-28,603,2.08752,-5.21075,-0.000421787,0.000441588,-0.000882957,0.000992737,-0.000972936,-1.01277,0.0011349,0.0205975,1196,421,2.08756,5.21075
-21,603,2.07532,-5.2283,-0.00247047,-0.00139078,-0.00153262,-0.000305706,-0.00355554,-0.954731,0.00227532,0.0195238,1203,421,2.0753,5.22831
-14,603,2.13843,-5.21933,-0.00428979,-0.00236801,-0.00285006,-0.000321217,-0.00633658,-0.947988,0.00412149,0.0205091,1210,421,2.13846,5.21934
-7,603,2.19336,-5.24609,-0.00617885,-0.0028613,-0.00391229,-0.000270652,-0.0087695,-0.985906,0.00575823,0.0225435,1217,421,2.19333,5.24609
0,603,2.18079,-5.26657,-0.00835099,-0.00312644,-0.00496597,-0.000127587,-0.0113498,-1.02753,0.0075244,0.0260078,1224,421,2.18084,5.26658
7,603,2.22144,-5.21179,-0.0102528,-0.00310494,-0.00587312,0.000196191,-0.0135539,-1.05873,0.00910207,0.0311977,1231,421,2.22143,5.21178
14,603,2.24963,-5.19199,-0.0117097,-0.00296774,-0.00649592,0.000490878,-0.0151683,-1.08154,0.0102797,0.0270494,1238,421,2.24962,5.192
21,603,2.25269,-5.23334,-0.0131169,-0.00259058,-0.00714146,0.00101763,-0.0167251,-1.10296,0.0115043,0.0193039,1245,421,2.25273,5.23335
28,603,2.35693,-5.25903,-0.0147101,-0.00187577,-0.00759342,0.00164889,-0.0182348,-1.13622,0.0127418,0.0219439,1252,421,2.35689,5.25904
35,603,2.43188,-5.25745,-0.0163905,-0.00105432,-0.00781246,0.00222447,-0.0196693,-1.17343,0.0139137,0.0297635,1259,421,2.43194,5.25746
42,603,2.30762,-5.30264,-0.0173622,-0.000484929,-0.00745503,0.00233645,-0.0201836,-1.209,0.0142983,0.0280744,1266,421,2.30756,5.30264
49,603,2.24744,-5.30682,-0.0174589,0.000419531,-0.00758605,0.00320455,-0.0202439,-1.21895,0.0146812,0.0164553,1273,421,2.24747,5.30684
56,603,2.22986,-5.25894,-0.0166927,0.00102901,-0.00757912,0.00382825,-0.0194919,-1.217,0.0144409,0.0294769,1280,421,2.22983,5.25895
63,603,2.16638,-5.16403,-0.0157269,0.00165311,-0.00760404,0.00451029,-0.0185841,-1.21137,0.0141347,0.0382257,1287,421,2.16633,5.16403
70,603,2.20789,-5.15396,-0.014241,0.00271112,-0.00836607,0.00614449,-0.0176744,-1.18136,0.0142788,0.0409531,1294,421,2.20789,5.15396
77,603,1.91492,-5.31714,-0.012562,0.00444729,-0.00938874,0.00861062,-0.0167253,-1.15341,0.0148757,0.0448536,1301,421,1.9149,5.31714
84,603,1.89844,-5.32098,-0.0110169,0.00612506,-0.0102424,0.0109095,-0.0158014,-1.13379,0.0155076,0.0456746,1308,421,1.89839,5.32098
91,603,1.99573,-5.13205,-0.00988822,0.00783764,-0.0109571,0.0130676,-0.0151182,-1.12546,0.0162874,0.0443262,1315,421,1.99567,5.13206
98,603,2.0083,-5.29453,-0.00861749,0.00948357,-0.0117952,0.0153004,-0.0144343,-1.11264,0.0171698,0.0443116,1322,421,2.00836,5.29452
105,603,2.40503,-5.27158,-0.00714709,0.0110145,-0.0126858,0.0175346,-0.0136673,-1.09603,0.0180605,0.0371495,1329,421,2.40501,5.27157
112,603,2.43176,-5.27307,-0.0062941,0.0124869,-0.0134517,0.0195016,-0.0133088,-1.09012,0.0190552,0.0312684,1336,421,2.43181,5.27308
119,603,2.37134,-5.24005,-0.00624875,0.0142532,-0.0140175,0.0213681,-0.0133637,-1.10111,0.0202291,0.0338538,1343,421,2.37139,5.24004
126,603,2.37219,-5.15891,-0.00628932,0.0156215,-0.0139835,0.0224301,-0.0130979,-1.11768,0.0207466,0.0403233,1350,421,2.3722,5.15892
133,603,2.40149,-5.15491,-0.00635903,0.0164769,-0.0136673,0.022868,-0.0127502,-1.13338,0.0208389,0.0336717,1357,421,2.40154,5.1549
140,603,2.42822,-5.12961,-0.00684554,0.0169153,-0.0130499,0.0226826,-0.0126129,-1.15466,0.0206525,0.0207355,1364,421,2.42822,5.12961
147,603,2.34778,-5.11969,-0.00767216,0.0170012,-0.0122197,0.0220287,-0.0126997,-1.18048,0.0202902,0.0170312,1371,421,2.34784,5.11968
154,603,2.30334,-5.09125,-0.00820179,0.0164138,-0.010848,0.0205121,-0.0123001,-1.20958,0.0191409,0.0258632,1378,421,2.30336,5.09124
161,603,2.34717,-5.05405,-0.00837619,0.015675,-0.00954845,0.0190048,-0.011706,-1.23526,0.017897,0.0285575,1385,421,2.3472,5.05405
168,603,2.39453,-5.04871,-0.00788429,0.0141227,-0.00831601,0.0169117,-0.0106733,-1.24721,0.0160614,0.0269192,1392,421,2.39452,5.0487
175,603,2.45361,-4.99414,-0.00679173,0.0115928,-0.00641268,0.0136085,-0.00880751,-1.26623,0.0130405,0.0254241,1399,421,2.4536,4.99414
182,603,2.5343,-4.97046,-0.00509786,0.00842495,-0.00433388,0.00969467,-0.00636758,-1.28579,0.00933963,0.0255619,1406,421,2.53424,4.97046
189,603,2.51477,-4.88538,-0.00321935,0.00516552,-0.00253017,0.00586984,-0.00392367,-1.2993,0.00569138,0.020186,1413,421,2.51477,4.88538
196,603,2.46448,-4.84961,-0.00152737,0.00188846,-0.00132485,0.00234207,-0.00198098,-1.24092,0.00249882,0.0157895,1420,421,2.46445,4.8496
203,603,2.43823,-4.8443,-0.000569055,-0.000398677,-0.000811027,0.000331622,-0.00129935,-0.837726,0.000995365,0.00939326,1427,421,2.43824,4.84431
210,603,2.44226,-4.82181,-0.000432013,-0.000401851,-0.000882704,0.000465901,-0.00129977,-0.79394,0.00105662,0.00929029,1434,421,2.4422,4.82181
217,603,2.45349,-4.77939,-0.000380453,-0.000569112,-0.000874154,0.000404446,-0.00135401,-0.731652,0.00106344,0.0124596,1441,421,2.45347,4.77938
224,603,2.4574,-4.72986,-0.00013993,-0.000918922,-0.00064657,0.000225399,-0.00128425,-0.514306,0.000940348,0.0166144,1448,421,2.45734,4.72986
231,603,2.44678,-4.67969,0.000136336,-0.00119988,-0.000414626,0.000254538,-0.00131808,-0.277714,0.000974707,0.0144823,1455,421,2.4468,4.6797
238,603,2.44116,-4.63284,0.000444285,-0.00145654,-0.000321402,0.000497158,-0.00150942,-0.163049,0.00120664,0.0109032,1462,421,2.44112,4.63285
245,603,2.45593,-4.60522,0.000684047,-0.00157209,-0.000316085,0.000727493,-0.00161554,-0.136597,0.00138476,0.0121813,1469,421,2.45595,4.60524
252,603,2.44788,-4.55505,0.000902137,-0.00158068,-0.000192211,0.000916929,-0.00159547,-0.0768068,0.00146806,0.0102877,1476,421,2.44783,4.55504
259,603,2.44861,-4.47916,0.000892099,-0.0014121,-0.000255038,0.00091999,-0.00143999,-0.108928,0.00137352,0.0103074,1483,421,2.44857,4.47915
266,603,2.47339,-4.41089,0.000724854,-0.00103733,-0.000329437,0.000784428,-0.0010969,-0.178902,0.00109117,0.0119048,1490,421,2.47342,4.41089
273,603,2.47046,-4.37521,0.000568355,-0.000570742,-0.000273942,0.000630811,-0.000633198,-0.224158,0.000729777,0.0104582,1497,421,2.4704,4.37523
280,603,2.47693,-4.31348,0.000345206,8.4974e-05,-0.000185562,0.000441725,-1.1545e-05,-0.479633,0.000298406,0.0116229,1504,421,2.47696,4.31347
287,603,2.48083,-4.21582,4.34526e-05,0.000839541,-8.67361e-05,0.000848882,3.4112e-05,-1.46352,0.0005549,0.0111141,1511,421,2.48087,4.21583
294,603,2.4729,-4.15884,-0.000239746,0.0016512,1.76876e-05,0.00165137,-0.000239911,1.56144,0.00118898,0.0100111,1518,421,2.47294,4.15884
301,603,2.47253,-4.1138,-0.000527935,0.00255716,0.00012834,0.00256249,-0.000533264,1.52929,0.00191104,0.0113449,1525,421,2.47253,4.1138
308,603,2.48413,-4.06082,-0.000718746,0.0034306,0.000326837,0.00345619,-0.000744332,1.49267,0.00258816,0.0164902,1532,421,2.48413,4.06082
315,603,2.48962,-4.01575,-0.000892942,0.00414714,0.000485535,0.00419349,-0.00093929,1.47563,0.0031557,0.0154659,1539,421,2.48957,4.01576
322,603,2.49023,-3.92291,-0.00109552,0.00460162,0.000419957,0.00463241,-0.00112631,1.49761,0.00352422,0.0143198,1546,421,2.49029,3.9229
329,603,2.4668,-3.83472,-0.0012685,0.00459537,0.00037634,0.00461943,-0.00129256,1.50697,0.00358892,0.0107047,1553,421,2.46684,3.83471
336,603,2.46875,-3.77325,-0.00147264,0.00462413,0.000368565,0.00464633,-0.00149484,1.51064,0.00369796,0.0090277,1560,421,2.46878,3.77327
343,603,2.4856,-3.70187,-0.00158299,0.00458903,0.000294541,0.00460306,-0.00159701,1.52322,0.00371721,0.0106495,1567,421,2.48556,3.70187
350,603,2.48462,-3.62531,-0.00152058,0.00440109,9.38546e-05,0.00440258,-0.00152207,1.55495,0.0035528,0.0122626,1574,421,2.48463,3.62532
357,603,2.47449,-3.52637,-0.00133528,0.00345151,0.000173111,0.00345777,-0.00134153,1.53469,0.00285926,0.0125908,1581,421,2.47446,3.52636
364,603,2.46069,-3.43555,-0.00114924,0.00285297,0.000469431,0.0029073,-0.00120356,1.45559,0.00244041,0.0143303,1588,421,2.46066,3.43555
371,603,2.48401,-3.34677,-0.000986871,0.00206505,0.000817689,0.00227032,-0.00119214,1.32484,0.00203111,0.0185448,1595,421,2.48395,3.34678
378,603,2.48083,-3.24057,-0.000788897,0.00131327,0.00128504,0.00192234,-0.00139797,1.12819,0.00192493,0.0283449,1602,421,2.48086,3.24057
385,603,2.45984,-3.06088,-0.000303653,0.000541626,0.00185189,0.00201849,-0.00178052,0.897587,0.00219479,0.0438546,1609,421,2.45985,3.06087
392,603,2.44727,-2.87732,0.000408053,3.86758e-05,0.00277394,0.00300344,-0.00255672,0.752157,0.00321361,0.047146,1616,421,2.44728,2.87732
399,603,2.58154,-2.73175,0.00078559,0.000217215,0.00370973,0.004222,-0.0032192,0.74717,0.00430916,0.0496369,1623,421,2.58154,2.73175
406,603,2.5675,-2.69971,0.00116011,0.000657788,0.00424752,0.00516389,-0.00334599,0.755867,0.00495041,0.0493747,1630,421,2.56745,2.6997
413,603,2.38928,-2.41275,0,0,0,0,0,0,0,-1,1637,421,2.38926,2.41274
420,603,2.74866,-2.30066,0,0,0,0,0,0,0,-1,1644,421,2.74867,2.30065
427,603,7.11548,-3.35352,0,0,0,0,0,0,0,-1,1651,421,7.11549,3.35351
434,603,7.32153,-4.50525,0,0,0,0,0,0,0,-1,1658,421,7.32149,4.50525
441,603,3.18213,-0.250946,0,0,0,0,0,0,0,-1,1665,421,3.18212,0.250944
448,603,2.95667,-0.066925,0,0,0,0,0,0,0,-1,1672,421,2.95662,0.0669226
455,603,0,0,0,0,0,0,0,0,0,-1,1679,421,0,0
462,603,0,0,0,0,0,0,0,0,0,-1,1686,421,0,0
469,603,0,0,0,0,0,0,0,0,0,-1,1693,421,0,0
476,603,0,0,0,0,0,0,0,0,0,-1,1700,421,0,0
483,603,0,0,0,0,0,0,0,0,0,-1,1707,421,0,0
490,603,0,0,0,0,0,0,0,0,0,-1,1714,421,0,0
497,603,0,0,0,0,0,0,0,0,0,-1,1721,421,0,0
504,603,0,0,0,0,0,0,0,0,0,-1,1728,421,0,0
511,603,0,0,0,0,0,0,0,0,0,-1,1735,421,0,0
518,603,0,0,0,0,0,0,0,0,0,-1,1742,421,0,0
525,603,0,0,0,0,0,0,0,0,0,-1,1749,421,0,0
532,603,0,0,0,0,0,0,0,0,0,-1,1756,421,0,0
539,603,0,0,0,0,0,0,0,0,0,-1,1763,421,0,0
546,603,0,0,0,0,0,0,0,0,0,-1,1770,421,0,0
553,603,0,0,0,0,0,0,0,0,0,-1,1777,421,0,0
560,603,0,0,0,0,0,0,0,0,0,-1,1784,421,0,0
567,603,0,0,0,0,0,0,0,0,0,-1,1791,421,0,0
574,603,0,0,0,0,0,0,0,0,0,-1,1798,421,0,0
581,603,0,0,0,0,0,0,0,0,0,-1,1805,421,0,0
588,603,0,0,0,0,0,0,0,0,0,-1,1812,421,0,0
595,603,0,0,0,0,0,0,0,0,0,-1,1819,421,0,0
602,603,0,0,0,0,0,0,0,0,0,-1,1826,421,0,0
609,603,0,0,0,0,0,0,0,0,0,-1,1833,421,0,0
616,603,0,0,0,0,0,0,0,0,0,-1,1840,421,0,0
623,603,0,0,0,0,0,0,0,0,0,-1,1847,421,0,0
630,603,0,0,0,0,0,0,0,0,0,-1,1854,421,0,0
637,603,0,0,0,0,0,0,0,0,0,-1,1861,421,0,0
644,603,0,0,0,0,0,0,0,0,0,-1,1868,421,0,0
651,603,0,0,0,0,0,0,0,0,0,-1,1875,421,0,0
658,603,0,0,0,0,0,0,0,0,0,-1,1882,421,0,0
665,603,0,0,0,0,0,0,0,0,0,-1,1889,421,0,0
672,603,0,0,0,0,0,0,0,0,0,-1,1896,421,0,0
679,603,0,0,0,0,0,0,0,0,0,-1,1903,421,0,0
686,603,0,0,0,0,0,0,0,0,0,-1,1910,421,0,0
693,603,0,0,0,0,0,0,0,0,0,-1,1917,421,0,0
700,603,0,0,0,0,0,0,0,0,0,-1,1924,421,0,0
707,603,0,0,0,0,0,0,0,0,0,-1,1931,421,0,0
714,603,0,0,0,0,0,0,0,0,0,-1,1938,421,0,0
721,603,0,0,0,0,0,0,0,0,0,-1,1945,421,0,0
728,603,0,0,0,0,0,0,0,0,0,-1,1952,421,0,0
735,603,0,0,0,0,0,0,0,0,0,-1,1959,421,0,0
742,603,0,0,0,0,0,0,0,0,0,-1,1966,421,0,0
749,603,0,0,0,0,0,0,0,0,0,-1,1973,421,0,0
756,603,0,0,0,0,0,0,0,0,0,-1,1980,421,0,0
763,603,0,0,0,0,0,0,0,0,0,-1,1987,421,0,0
770,603,0,0,0,0,0,0,0,0,0,-1,1994,421,0,0
777,603,0,0,0,0,0,0,0,0,0,-1,2001,421,0,0
784,603,0,0,0,0,0,0,0,0,0,-1,2008,421,0,0
791,603,0,0,0,0,0,0,0,0,0,-1,2015,421,0,0
798,603,0,0,0,0,0,0,0,0,0,-1,2022,421,0,0
805,603,0,0,0,0,0,0,0,0,0,-1,2029,421,0,0
812,603,0,0,0,0,0,0,0,0,0,-1,2036,421,0,0
-700,596,0,0,0,0,0,0,0,0,0,-1,524,428,0,0
-693,596,0,0,0,0,0,0,0,0,0,-1,531,428,0,0
-686,596,0,0,0,0,0,0,0,0,0,-1,538,428,0,0
-679,596,0,0,0,0,0,0,0,0,0,-1,545,428,0,0
-672,596,0,0,0,0,0,0,0,0,0,-1,552,428,0,0
-665,596,0,0,0,0,0,0,0,0,0,-1,559,428,0,0
-658,596,0,0,0,0,0,0,0,0,0,-1,566,428,0,0
-651,596,0,0,0,0,0,0,0,0,0,-1,573,428,0,0
-644,596,0,0,0,0,0,0,0,0,0,-1,580,428,0,0
-637,596,0,0,0,0,0,0,0,0,0,-1,587,428,0,0
-630,596,0,0,0,0,0,0,0,0,0,-1,594,428,0,0
-623,596,0,0,0,0,0,0,0,0,0,-1,601,428,0,0
-616,596,0,0,0,0,0,0,0,0,0,-1,608,428,0,0
-609,596,0,0,0,0,0,0,0,0,0,-1,615,428,0,0
-602,596,0,0,0,0,0,0,0,0,0,-1,622,428,0,0
-595,596,0,0,0,0,0,0,0,0,0,-1,629,428,0,0
-588,596,0,0,0,0,0,0,0,0,0,-1,636,428,0,0
-581,596,0,0,0,0,0,0,0,0,0,-1,643,428,0,0
-574,596,0,0,0,0,0,0,0,0,0,-1,650,428,0,0
-567,596,0,0,0,0,0,0,0,0,0,-1,657,428,0,0
-560,596,0,0,0,0,0,0,0,0,0,-1,664,428,0,0
-553,596,0,0,0,0,0,0,0,0,0,-1,671,428,0,0
-546,596,0,0,0,0,0,0,0,0,0,-1,678,428,0,0
-539,596,0,0,0,0,0,0,0,0,0,-1,685,428,0,0
-532,596,0,0,0,0,0,0,0,0,0,-1,692,428,0,0
-525,596,0,0,0,0,0,0,0,0,0,-1,699,428,0,0
-518,596,0,0,0,0,0,0,0,0,0,-1,706,428,0,0
-511,596,0,0,0,0,0,0,0,0,0,-1,713,428,0,0
-504,596,0,0,0,0,0,0,0,0,0,-1,720,428,0,0
-497,596,0,0,0,0,0,0,0,0,0,-1,727,428,0,0
-490,596,0,0,0,0,0,0,0,0,0,-1,734,428,0,0
-483,596,0,0,0,0,0,0,0,0,0,-1,741,428,0,0
-476,596,0,0,0,0,0,0,0,0,0,-1,748,428,0,0
-469,596,0,0,0,0,0,0,0,0,0,-1,755,428,0,0
-462,596,0,0,0,0,0,0,0,0,0,-1,762,428,0,0
-455,596,0,0,0,0,0,0,0,0,0,-1,769,428,0,0
-448,596,0,0,0,0,0,0,0,0,0,-1,776,428,0,0
-441,596,0,0,0,0,0,0,0,0,0,-1,783,428,0,0
-434,596,0,0,0,0,0,0,0,0,0,-1,790,428,0,0
-427,596,0,0,0,0,0,0,0,0,0,-1,797,428,0,0
-420,596,0,0,0,0,0,0,0,0,0,-1,804,428,0,0
-413,596,0,0,0,0,0,0,0,0,0,-1,811,428,0,0
-406,596,0,0,0,0,0,0,0,0,0,-1,818,428,0,0
-399,596,0,0,0,0,0,0,0,0,0,-1,825,428,0,0
-392,596,0,0,0,0,0,0,0,0,0,-1,832,428,0,0
-385,596,0,0,0,0,0,0,0,0,0,-1,839,428,0,0
-378,596,0,0,0,0,0,0,0,0,0,-1,846,428,0,0
-371,596,0,0,0,0,0,0,0,0,0,-1,853,428,0,0
-364,596,0,0,0,0,0,0,0,0,0,-1,860,428,0,0
-357,596,0,0,0,0,0,0,0,0,0,-1,867,428,0,0
-350,596,0,0,0,0,0,0,0,0,0,-1,874,428,0,0
-343,596,0,0,0,0,0,0,0,0,0,-1,881,428,0,0
-336,596,-0.889587,-4.13867,0,0,0,0,0,0,0,-1,888,428,-0.889596,4.13868
-329,596,1.97784,-7.1785,0,0,0,0,0,0,0,-1,895,428,1.97782,7.17848
-322,596,2.52301,-6.02554,-0.0184876,-0.087843,-0.00165248,-0.0184483,-0.0878824,-0.0238082,0.0535096,0.0460624,902,428,2.52303,6.02554
-315,596,2.63092,-5.17844,-0.0117965,-0.0782295,0.0132468,-0.00925244,-0.0807735,0.189737,0.0510451,0.0465927,909,428,2.63092,5.17844
-308,596,2.43591,-4.73752,-0.00695114,-0.0679101,0.0226136,0.000521641,-0.0753829,0.319158,0.05043,0.0464971,916,428,2.4359,4.73752
-301,596,2.61316,-4.34238,-0.00314198,-0.0572957,0.0277688,0.00856601,-0.0690037,0.399007,0.0491075,0.0476636,923,428,2.61315,4.34237
-294,596,3.22314,-3.96216,0.000161554,-0.0463481,0.0292743,0.0142935,-0.06048,0.449746,0.0458336,0.0476443,930,428,3.22317,3.96217
-287,596,1.61707,-3.11649,0.00111189,-0.0356021,0.0258466,0.0144571,-0.0489473,0.47662,0.0383694,0.0498944,937,428,1.61704,3.11648
-280,596,2.05078,-3.24625,-2.05651e-05,-0.0257454,0.0191112,0.0101535,-0.0359195,0.4892,0.0279524,0.0491264,944,428,2.05078,3.24626
-273,596,2.05676,-3.34653,-0.000386976,-0.0149643,0.0138684,0.0079914,-0.0233427,0.543455,0.0188005,0.0393635,951,428,2.05679,3.34652
-266,596,2.05615,-3.39355,-0.000908045,-0.00967119,0.00791767,0.00375957,-0.0143388,0.532677,0.0110281,0.0370548,958,428,2.05613,3.39355
-259,596,2.08917,-3.5556,-0.00135705,-0.00557744,0.00346454,0.000589344,-0.00752384,0.511862,0.00522344,0.0310726,965,428,2.08919,3.55562
-252,596,2.07806,-3.65656,-0.00129127,-0.0028645,0.000905129,-0.000878708,-0.00327706,0.42767,0.00195865,0.0142947,972,428,2.07807,3.65656
-245,596,2.05615,-3.71979,-0.000964253,-0.00142026,-0.000944229,-0.000220889,-0.00216362,-0.666931,0.00137471,0.0109069,979,428,2.05615,3.71979
-238,596,2.0448,-3.79898,1.96469e-05,-0.000441709,-0.00232599,0.00212637,-0.00254844,-0.735973,0.00270267,0.0107123,986,428,2.04481,3.79897
-231,596,2.02863,-3.8743,0.000341677,-0.0004823,-0.00191501,0.00188851,-0.00202914,-0.679445,0.00226234,0.0124349,993,428,2.02862,3.87428
-224,596,2.0318,-3.95438,0.000170818,-0.000492588,-0.00155094,0.00142513,-0.0017469,-0.680049,0.00183451,0.0126735,1000,428,2.03178,3.95437
-217,596,2.04803,-4.01956,0.000271541,-0.000554837,-0.00121221,0.00113905,-0.00142234,-0.621146,0.00148183,0.0131721,1007,428,2.04801,4.01955
-210,596,2.04364,-4.08655,0.000374687,-0.000511337,-0.000944217,0.000974655,-0.0011113,-0.566052,0.00120519,0.0111166,1014,428,2.04362,4.08654
-203,596,2.03485,-4.15317,0.00039378,-0.000154866,-0.000637943,0.000813881,-0.000574967,-0.582344,0.000805797,0.0125485,1021,428,2.03483,4.15316
-196,596,2.03943,-4.21399,0.000344465,0.000303573,-0.000307345,0.000632044,1.59944e-05,-0.752185,0.000416133,0.0127101,1028,428,2.03939,4.214
-189,596,2.01538,-4.25198,0.000253692,0.000810003,-7.96305e-05,0.000821177,0.000242518,-1.43138,0.000487167,0.0102862,1035,428,2.01534,4.25198
-182,596,2.01062,-4.31839,0.00016482,0.00142284,6.17756e-05,0.00142587,0.000161794,1.52185,0.0009015,0.0103769,1042,428,2.01063,4.31839
-175,596,2.02844,-4.38992,0.000194399,0.00172535,0.000221775,0.00175683,0.00016292,1.4298,0.00112087,0.0127457,1049,428,2.02841,4.38991
-168,596,2.03186,-4.42587,0.000229282,0.00170362,0.000325205,0.00177216,0.000160736,1.36306,0.00113168,0.0155591,1056,428,2.0319,4.42587
-161,596,2.0459,-4.47,0.000215053,0.00146768,0.000352806,0.00156021,0.00012252,1.3143,0.0010018,0.0148588,1063,428,2.04585,4.46999
-154,596,2.04065,-4.54367,0.000286248,0.00113921,0.000283238,0.0012247,0.000200763,1.27768,0.000758455,0.0122532,1070,428,2.04067,4.54367
-147,596,2.04883,-4.60284,0.000484035,0.000516804,0.000298426,0.000799296,0.000201544,0.812822,0.00048,0.0120857,1077,428,2.0488,4.60285
-140,596,2.05579,-4.64871,0.000782823,-0.000302191,0.000180668,0.000812116,-0.000331483,0.160736,0.000679417,0.0119327,1084,428,2.05581,4.64872
-133,596,2.03613,-4.70761,0.000961162,-0.00138196,-0.000157958,0.000971763,-0.00139256,-0.0670095,0.00137223,0.0129717,1091,428,2.03609,4.7076
-126,596,2.04761,-4.72925,0.000972497,-0.00217394,-0.000531185,0.00105975,-0.0022612,-0.162812,0.00195873,0.0103215,1098,428,2.04758,4.72926
-119,596,2.06018,-4.77682,0.00103069,-0.0030153,-0.000851525,0.0012026,-0.00318721,-0.199206,0.00261937,0.0124322,1105,428,2.06016,4.77681
-112,596,2.05652,-4.83139,0.00101263,-0.00370265,-0.00121827,0.00130879,-0.00399881,-0.238472,0.00319284,0.0140994,1112,428,2.05656,4.8314
-105,596,2.03821,-4.88602,0.00088317,-0.00400918,-0.00162831,0.00137556,-0.00450157,-0.293651,0.00354955,0.014397,1119,428,2.03822,4.88601
-98,596,2.06543,-4.90225,0.000727453,-0.00399623,-0.0021374,0.00155101,-0.00481979,-0.367778,0.00383618,0.00959981,1126,428,2.06545,4.90224
-91,596,2.0553,-4.92657,0.000445145,-0.0035505,-0.00278923,0.00187822,-0.00498358,-0.474619,0.00409466,0.00939714,1133,428,2.05525,4.92659
-84,596,2.07739,-5.0043,-6.1501e-05,-0.00271797,-0.00293912,0.00183557,-0.00461504,-0.573175,0.00383778,0.0141811,1140,428,2.07734,5.0043
-77,596,2.10559,-5.06357,-0.000517408,-0.00184562,-0.00287621,0.00177037,-0.0041334,-0.671938,0.00349837,0.016199,1147,428,2.1056,5.06356
-70,596,2.09717,-5.16754,0.000162727,-0.000380682,-0.00196456,0.00187428,-0.00209224,-0.716682,0.00229122,0.0251324,1154,428,2.09719,5.16753
-63,596,2.13782,-5.39407,0,0,0,0,0,0,0,-1,1161,428,2.13782,5.39408
-56,596,2.00488,-5.38544,0,0,0,0,0,0,0,-1,1168,428,2.00491,5.38544
-49,596,1.83252,-5.79065,0,0,0,0,0,0,0,-1,1175,428,1.83251,5.79064
-42,596,1.99951,-5.2608,0,0,0,0,0,0,0,-1,1182,428,1.99949,5.26081
-35,596,1.89246,-5.1106,0,0,0,0,0,0,0,-1,1189,428,1.89242,5.11059
-28,596,1.93176,-5.19193,0,0,0,0,0,0,0,-1,1196,428,1.93171,5.19192
-21,596,1.71436,-5.21915,-0.00616764,-0.00410393,-0.00164344,-0.00319526,-0.00707631,-1.06573,0.0040919,0.0455769,1203,428,1.71433,5.21915
-14,596,2.40417,-5.21143,-0.00865339,-0.00538668,-0.00313162,-0.00348805,-0.010552,-1.02577,0.00620772,0.0478248,1210,428,2.40415,5.21142
-7,596,2.48621,-5.28757,-0.0110512,-0.00586986,-0.00439645,-0.00335754,-0.0135635,-1.05164,0.00815682,0.0482537,1217,428,2.48616,5.28755
0,596,2.33679,-5.24493,-0.0136229,-0.00598445,-0.005767,-0.00288667,-0.0167206,-1.07787,0.0103203,0.0468119,1224,428,2.3368,5.24493
7,596,2.57776,-5.54266,-0.0159033,-0.00574668,-0.00701328,-0.00216615,-0.0194838,-1.09876,0.0123307,0.042942,1231,428,2.57781,5.54267
14,596,2.91101,-5.35059,-0.0176717,-0.00522381,-0.0079492,-0.00135185,-0.0215437,-1.11753,0.0139337,0.0415271,1238,428,2.91102,5.35059
21,596,2.36072,-5.10834,-0.0193029,-0.00436152,-0.00888119,-0.000226742,-0.0234376,-1.13507,0.0155501,0.044034,1245,428,2.36069,5.10833
28,596,2.45093,-5.1799,-0.0211446,-0.00305369,-0.0096839,0.00115221,-0.0253505,-1.16106,0.0172972,0.0436011,1252,428,2.45095,5.1799
35,596,2.49854,-5.54239,-0.0231714,-0.00148215,-0.0102829,0.00261796,-0.0272715,-1.19139,0.0191135,0.0402784,1259,428,2.49859,5.54238
42,596,2.6344,-5.69238,-0.0244052,-0.000204181,-0.0102084,0.0035267,-0.0281361,-1.2204,0.0200367,0.0443561,1266,428,2.63446,5.69239
49,596,2.25452,-5.17703,-0.0245235,0.00138784,-0.0107218,0.005249,-0.0283847,-1.22513,0.0208937,0.0442711,1273,428,2.25448,5.17703
56,596,2.3197,-5.12762,-0.0230462,0.0025263,-0.0110927,0.00666745,-0.0271874,-1.2135,0.0207083,0.0446837,1280,428,2.31969,5.12761
63,596,2.43591,-5.01788,-0.0211916,0.00355039,-0.0115552,0.00810763,-0.0257488,-1.19514,0.0204124,0.0480879,1287,428,2.43588,5.01789
70,596,2.57385,-4.90619,0,0,0,0,0,0,0,-1,1294,428,2.57385,4.90618
77,596,1.505,-5.29462,-0.0164446,0.0073546,-0.0141825,0.0139683,-0.0230583,-1.13444,0.021591,0.0446305,1301,428,1.50506,5.29463
84,596,1.16333,-4.85727,-0.0140812,0.00945229,-0.0152813,0.0169722,-0.0216012,-1.11349,0.0223237,0.0435471,1308,428,1.16335,4.85728
91,596,1.50146,-4.92395,-0.0122328,0.0116787,-0.0161051,0.0197807,-0.0203349,-1.10469,0.0231615,0.0431536,1315,428,1.50148,4.92394
98,596,1.71545,-5.32825,-0.0102834,0.0137942,-0.0170034,0.0225893,-0.0190784,-1.09344,0.0240853,0.0489294,1322,428,1.7155,5.32826
105,596,2.37805,-5.25812,-0.00814379,0.0157621,-0.0179825,0.0254018,-0.0177835,-1.07872,0.0250621,0.0471487,1329,428,2.37802,5.25813
112,596,2.35364,-5.15237,-0.0068923,0.0177858,-0.0188033,0.0279371,-0.0170436,-1.07577,0.0262223,0.0424524,1336,428,2.35362,5.15239
119,596,3.13367,-5.00964,-0.0067892,0.0202687,-0.0193525,0.0303522,-0.0168727,-1.09045,0.0276331,0.0438165,1343,428,3.13364,5.00964
126,596,2.95239,-4.9758,-0.00700066,0.0224303,-0.0192038,0.0319085,-0.0164788,-1.11232,0.0284059,0.0470329,1350,428,2.95235,4.9758
133,596,2.67664,-5.11017,-0.00743305,0.0240914,-0.0186789,0.0327699,-0.0161116,-1.13585,0.0287628,0.0456185,1357,428,2.67659,5.11016
140,596,2.63867,-4.97308,-0.00836761,0.0252768,-0.0177938,0.0329415,-0.0160323,-1.16407,0.0288313,0.040917,1364,428,2.6387,4.97309
147,596,2.42358,-5.01132,-0.00966827,0.0259492,-0.0167168,0.0325659,-0.016285,-1.19391,0.0287215,0.0374944,1371,428,2.42362,5.01133
154,596,2.19775,-4.97015,-0.0104889,0.0258778,-0.0151962,0.0313916,-0.0160028,-1.22272,0.0278398,0.043346,1378,428,2.19771,4.97016
161,596,2.27234,-4.8931,-0.0112042,0.0254059,-0.0136476,0.0299335,-0.0157318,-1.25047,0.0267865,0.0454917,1385,428,2.2723,4.89309
168,596,2.46387,-4.9545,0,0,0,0,0,0,0,-1,1392,428,2.46388,4.95451
175,596,2.59924,-4.89807,0,0,0,0,0,0,0,-1,1399,428,2.59923,4.89806
182,596,2.61694,-4.90668,0,0,0,0,0,0,0,-1,1406,428,2.61692,4.90666
189,596,2.52881,-4.8436,0,0,0,0,0,0,0,-1,1413,428,2.52881,4.84361
196,596,2.77344,-4.95276,-0.00234483,0.00436907,-0.00208564,0.00496421,-0.00293996,-1.29283,0.00461309,0.0485691,1420,428,2.7734,4.95276
203,596,2.55347,-4.84973,-0.000641836,-0.000785235,-0.000960445,0.000249583,-0.00167665,-0.748141,0.00120958,0.0210262,1427,428,2.55341,4.84974
210,596,2.47632,-4.81882,-0.00040275,-0.000861577,-0.00112711,0.000518057,-0.00178238,-0.684999,0.00139342,0.0127299,1434,428,2.47631,4.81882
217,596,2.48315,-4.76248,-0.000295279,-0.00117907,-0.00119815,0.000539865,-0.00201421,-0.60873,0.00155433,0.0109359,1441,428,2.48311,4.76248
224,596,2.49365,-4.72504,4.05193e-05,-0.00173966,-0.000942421,0.000446739,-0.00214588,-0.406974,0.00160042,0.0117675,1448,428,2.49367,4.72505
231,596,2.50415,-4.68277,0.0003982,-0.00219248,-0.000682132,0.000566831,-0.00236111,-0.242352,0.00179313,0.0123212,1455,428,2.5042,4.68277
238,596,2.50049,-4.62952,0.000813916,-0.00258326,-0.000621785,0.000924145,-0.00269349,-0.175455,0.00217031,0.0152792,1462,428,2.50044,4.62951
245,596,2.51086,-4.58762,0.00109381,-0.00277608,-0.000738673,0.00123001,-0.00291228,-0.18234,0.00245641,0.0139133,1469,428,2.51089,4.58762
252,596,2.52563,-4.55063,0.00132798,-0.00287288,-0.000720684,0.00144818,-0.00299308,-0.165263,0.00261536,0.0102512,1476,428,2.52561,4.55061
259,596,2.52649,-4.49747,0.00127973,-0.00271492,-0.000940223,0.00148996,-0.00292515,-0.219984,0.00259357,0.00889248,1483,428,2.52649,4.49745
266,596,2.51868,-4.42142,0.00102957,-0.0023269,-0.00117359,0.0013992,-0.00269654,-0.305128,0.00240389,0.0100181,1490,428,2.51868,4.42142
273,596,2.5238,-4.37915,0.000785754,-0.00185081,-0.0012364,0.00127483,-0.00233989,-0.376678,0.00211694,0.0112945,1497,428,2.52384,4.37916
280,596,2.54114,-4.32635,0.000492104,-0.00121331,-0.00127321,0.00117177,-0.00189298,-0.490338,0.00178569,0.0119699,1504,428,2.54114,4.32634
287,596,2.54688,-4.24771,0.000161817,-0.000503633,-0.00125014,0.00112276,-0.00146457,-0.655338,0.00149813,0.0109643,1511,428,2.54687,4.2477
294,596,2.52954,-4.17926,-0.000152143,0.00027987,-0.00120738,0.00129041,-0.00116268,-0.873915,0.00141693,0.00916091,1518,428,2.52953,4.17925
301,596,2.52869,-4.11264,-0.000488504,0.00114728,-0.00112422,0.00171965,-0.00106087,-1.09988,0.00162028,0.0101506,1525,428,2.52868,4.11264
308,596,2.54541,-4.05087,-0.000693217,0.00195004,-0.00088124,0.0022169,-0.000960074,-1.27675,0.00188146,0.0152309,1532,428,2.54538,4.05086
315,596,2.53833,-4.00946,-0.00084314,0.00257358,-0.000632374,0.00268686,-0.000956426,-1.39353,0.00218111,0.014965,1539,428,2.53837,4.00946
322,596,2.54663,-3.91202,-0.000970434,0.00300254,-0.000478403,0.00305933,-0.00102723,-1.45263,0.00245469,0.0126748,1546,428,2.54658,3.91203
329,596,2.52893,-3.83231,-0.00105523,0.0030699,-0.000340482,0.00309781,-0.00108314,-1.489,0.00250555,0.00978685,1553,428,2.52897,3.83232
336,596,2.51758,-3.78775,-0.00116204,0.00317181,-0.000182738,0.0031795,-0.00116973,-1.52873,0.00259886,0.00837441,1560,428,2.51761,3.78775
343,596,2.53479,-3.72577,-0.00119725,0.00329691,-4.16432e-05,0.0032973,-0.00119764,-1.56153,0.00268787,0.011042,1567,428,2.53475,3.72576
350,596,2.54688,-3.6329,-0.00106318,0.00332475,6.30551e-05,0.00332566,-0.00106409,1.55643,0.00264416,0.0117167,1574,428,2.54682,3.63289
357,596,2.54541,-3.56223,-0.000859741,0.00279442,0.000325887,0.00282326,-0.000888577,1.48254,0.00223796,0.0091298,1581,428,2.54547,3.56223
364,596,2.53137,-3.48566,-0.000687576,0.00258266,0.000636198,0.00270207,-0.000806983,1.38527,0.00212215,0.00861364,1588,428,2.53141,3.48565
371,596,2.53284,-3.38263,-0.000553299,0.00222161,0.000967145,0.00252542,-0.000857117,1.26642,0.00203054,0.00896671,1595,428,2.53278,3.38263
378,596,2.54285,-3.27881,-0.000429434,0.00188834,0.00134618,0.00250574,-0.00104684,1.14078,0.00210794,0.0129898,1602,428,2.5429,3.2788
385,596,2.52527,-3.19888,-9.617e-05,0.00153046,0.00179522,0.00268801,-0.00125372,0.998089,0.00232544,0.0221063,1609,428,2.5253,3.19887
392,596,2.51086,-3.08936,0.00037053,0.00138631,0.00252844,0.00345736,-0.00170052,0.884514,0.00303494,0.0317044,1616,428,2.51085,3.08936
399,596,2.50549,-2.9541,0.000513778,0.00182514,0.00324299,0.00447807,-0.00213915,0.885146,0.00389919,0.0417438,1623,428,2.50552,2.95411
406,596,2.7019,-2.18994,0,0,0,0,0,0,0,-1,1630,428,2.70193,2.18995
413,596,2.72778,-2.48007,0,0,0,0,0,0,0,-1,1637,428,2.72782,2.48008
420,596,2.68811,-2.32526,0,0,0,0,0,0,0,-1,1644,428,2.68815,2.32527
427,596,2.99329,-1.90512,0,0,0,0,0,0,0,-1,1651,428,2.99327,1.90512
434,596,3.80896,-0.253998,0,0,0,0,0,0,0,-1,1658,428,3.80902,0.254004
441,596,3.86401,-0.131622,0,0,0,0,0,0,0,-1,1665,428,3.86406,0.131613
448,596,1.0769,0.0083313,0,0,0,0,0,0,0,-1,1672,428,1.07684,-0.00832231
455,596,2.00769,-1.43329,0,0,0,0,0,0,0,-1,1679,428,2.00765,1.4333
462,596,0,0,0,0,0,0,0,0,0,-1,1686,428,0,0
469,596,0,0,0,0,0,0,0,0,0,-1,1693,428,0,0
476,596,0,0,0,0,0,0,0,0,0,-1,1700,428,0,0
483,596,0,0,0,0,0,0,0,0,0,-1,1707,428,0,0
490,596,0,0,0,0,0,0,0,0,0,-1,1714,428,0,0
497,596,0,0,0,0,0,0,0,0,0,-1,1721,428,0,0
504,596,0,0,0,0,0,0,0,0,0,-1,1728,428,0,0
511,596,0,0,0,0,0,0,0,0,0,-1,1735,428,0,0
518,596,0,0,0,0,0,0,0,0,0,-1,1742,428,0,0
525,596,0,0,0,0,0,0,0,0,0,-1,1749,428,0,0
532,596,0,0,0,0,0,0,0,0,0,-1,1756,428,0,0
539,596,0,0,0,0,0,0,0,0,0,-1,1763,428,0,0
546,596,0,0,0,0,0,0,0,0,0,-1,1770,428,0,0
553,596,0,0,0,0,0,0,0,0,0,-1,1777,428,0,0
560,596,0,0,0,0,0,0,0,0,0,-1,1784,428,0,0
567,596,0,0,0,0,0,0,0,0,0,-1,1791,428,0,0
574,596,0,0,0,0,0,0,0,0,0,-1,1798,428,0,0
581,596,0,0,0,0,0,0,0,0,0,-1,1805,428,0,0
588,596,0,0,0,0,0,0,0,0,0,-1,1812,428,0,0
595,596,0,0,0,0,0,0,0,0,0,-1,1819,428,0,0
602,596,0,0,0,0,0,0,0,0,0,-1,1826,428,0,0
609,596,0,0,0,0,0,0,0,0,0,-1,1833,428,0,0
616,596,0,0,0,0,0,0,0,0,0,-1,1840,428,0,0
623,596,0,0,0,0,0,0,0,0,0,-1,1847,428,0,0
630,596,0,0,0,0,0,0,0,0,0,-1,1854,428,0,0
637,596,0,0,0,0,0,0,0,0,0,-1,1861,428,0,0
644,596,0,0,0,0,0,0,0,0,0,-1,1868,428,0,0
651,596,0,0,0,0,0,0,0,0,0,-1,1875,428,0,0
658,596,0,0,0,0,0,0,0,0,0,-1,1882,428,0,0
665,596,0,0,0,0,0,0,0,0,0,-1,1889,428,0,0
672,596,0,0,0,0,0,0,0,0,0,-1,1896,428,0,0
679,596,0,0,0,0,0,0,0,0,0,-1,1903,428,0,0
686,596,0,0,0,0,0,0,0,0,0,-1,1910,428,0,0
693,596,0,0,0,0,0,0,0,0,0,-1,1917,428,0,0
700,596,0,0,0,0,0,0,0,0,0,-1,1924,428,0,0
707,596,0,0,0,0,0,0,0,0,0,-1,1931,428,0,0
714,596,0,0,0,0,0,0,0,0,0,-1,1938,428,0,0
721,596,0,0,0,0,0,0,0,0,0,-1,1945,428,0,0
728,596,0,0,0,0,0,0,0,0,0,-1,1952,428,0,0
735,596,0,0,0,0,0,0,0,0,0,-1,1959,428,0,0
742,596,0,0,0,0,0,0,0,0,0,-1,1966,428,0,0
749,596,0,0,0,0,0,0,0,0,0,-1,1973,428,0,0
756,596,0,0,0,0,0,0,0,0,0,-1,1980,428,0,0
763,596,0,0,0,0,0,0,0,0,0,-1,1987,428,0,0
770,596,0,0,0,0,0,0,0,0,0,-1,1994,428,0,0
777,596,0,0,0,0,0,0,0,0,0,-1,2001,428,0,0
784,596,0,0,0,0,0,0,0,0,0,-1,2008,428,0,0
791,596,0,0,0,0,0,0,0,0,0,-1,2015,428,0,0
798,596,0,0,0,0,0,0,0,0,0,-1,2022,428,0,0
805,596,0,0,0,0,0,0,0,0,0,-1,2029,428,0,0
812,596,0,0,0,0,0,0,0,0,0,-1,2036,428,0,0
-700,589,0,0,0,0,0,0,0,0,0,-1,524,435,0,0
-693,589,0,0,0,0,0,0,0,0,0,-1,531,435,0,0
-686,589,0,0,0,0,0,0,0,0,0,-1,538,435,0,0
-679,589,0,0,0,0,0,0,0,0,0,-1,545,435,0,0
-672,589,0,0,0,0,0,0,0,0,0,-1,552,435,0,0
-665,589,0,0,0,0,0,0,0,0,0,-1,559,435,0,0
-658,589,0,0,0,0,0,0,0,0,0,-1,566,435,0,0
-651,589,0,0,0,0,0,0,0,0,0,-1,573,435,0,0
-644,589,0,0,0,0,0,0,0,0,0,-1,580,435,0,0
-637,589,0,0,0,0,0,0,0,0,0,-1,587,435,0,0
-630,589,0,0,0,0,0,0,0,0,0,-1,594,435,0,0
-623,589,0,0,0,0,0,0,0,0,0,-1,601,435,0,0
-616,589,0,0,0,0,0,0,0,0,0,-1,608,435,0,0
-609,589,0,0,0,0,0,0,0,0,0,-1,615,435,0,0
-602,589,0,0,0,0,0,0,0,0,0,-1,622,435,0,0
-595,589,0,0,0,0,0,0,0,0,0,-1,629,435,0,0
-588,589,0,0,0,0,0,0,0,0,0,-1,636,435,0,0
-581,589,0,0,0,0,0,0,0,0,0,-1,643,435,0,0
-574,589,0,0,0,0,0,0,0,0,0,-1,650,435,0,0
-567,589,0,0,0,0,0,0,0,0,0,-1,657,435,0,0
-560,589,0,0,0,0,0,0,0,0,0,-1,664,435,0,0
-553,589,0,0,0,0,0,0,0,0,0,-1,671,435,0,0
-546,589,0,0,0,0,0,0,0,0,0,-1,678,435,0,0
-539,589,0,0,0,0,0,0,0,0,0,-1,685,435,0,0
-532,589,0,0,0,0,0,0,0,0,0,-1,692,435,0,0
-525,589,0,0,0,0,0,0,0,0,0,-1,699,435,0,0
-518,589,0,0,0,0,0,0,0,0,0,-1,706,435,0,0
-511,589,0,0,0,0,0,0,0,0,0,-1,713,435,0,0
-504,589,0,0,0,0,0,0,0,0,0,-1,720,435,0,0
-497,589,0,0,0,0,0,0,0,0,0,-1,727,435,0,0
-490,589,0,0,0,0,0,0,0,0,0,-1,734,435,0,0
-483,589,0,0,0,0,0,0,0,0,0,-1,741,435,0,0
-476,589,0,0,0,0,0,0,0,0,0,-1,748,435,0,0
-469,589,0,0,0,0,0,0,0,0,0,-1,755,435,0,0
-462,589,0,0,0,0,0,0,0,0,0,-1,762,435,0,0
-455,589,0,0,0,0,0,0,0,0,0,-1,769,435,0,0
-448,589,0,0,0,0,0,0,0,0,0,-1,776,435,0,0
-441,589,0,0,0,0,0,0,0,0,0,-1,783,435,0,0
-434,589,0,0,0,0,0,0,0,0,0,-1,790,435,0,0
-427,589,0,0,0,0,0,0,0,0,0,-1,797,435,0,0
-420,589,0,0,0,0,0,0,0,0,0,-1,804,435,0,0
-413,589,0,0,0,0,0,0,0,0,0,-1,811,435,0,0
-406,589,0,0,0,0,0,0,0,0,0,-1,818,435,0,0
-399,589,0,0,0,0,0,0,0,0,0,-1,825,435,0,0
-392,589,0,0,0,0,0,0,0,0,0,-1,832,435,0,0
-385,589,0,0,0,0,0,0,0,0,0,-1,839,435,0,0
-378,589,0,0,0,0,0,0,0,0,0,-1,846,435,0,0
-371,589,0,0,0,0,0,0,0,0,0,-1,853,435,0,0
-364,589,0,0,0,0,0,0,0,0,0,-1,860,435,0,0
-357,589,0,0,0,0,0,0,0,0,0,-1,867,435,0,0
-350,589,2.36981,-2.73932,-0.0557625,-0.0743233,-0.132233,0.0675155,-0.197601,-0.750365,0.159089,0.0422696,874,435,2.36979,2.73933
-343,589,1.6026,-3.31091,-0.045106,-0.0792799,-0.0912543,0.0306473,-0.155033,-0.692847,0.114941,0.0442016,881,435,1.60258,3.31092
-336,589,1.24719,-8.48535,0,0,0,0,0,0,0,-1,888,435,1.24718,8.48535
-329,589,1.55505,-7.47778,-0.0252438,-0.0774597,-0.0311059,-0.0107414,-0.091962,-0.436266,0.0580597,0.0452824,895,435,1.55505,7.47778
-322,589,1.86877,-6.44962,-0.0173127,-0.0723645,-0.0105408,-0.0153635,-0.0743138,-0.182857,0.0452983,0.0429714,902,435,1.86876,6.44961
-315,589,2.12909,-5.41608,-0.0115414,-0.0646827,0.00409738,-0.0112273,-0.0649968,0.0765008,0.0401159,0.0444268,909,435,2.12908,5.41608
-308,589,2.20239,-4.4292,-0.00714694,-0.0563677,0.0140235,-0.00343188,-0.0600827,0.258967,0.0389616,0.0477889,916,435,2.20239,4.4292
-301,589,2.57355,-3.96054,-0.00351292,-0.0475268,0.0197087,0.00402226,-0.055062,0.36518,0.0381196,0.0456788,923,435,2.57357,3.96054
-294,589,1.43262,-2.07587,-0.000293506,-0.0382573,0.0219826,0.00976848,-0.0483193,0.42926,0.0359146,0.046075,930,435,1.43262,2.07586
-287,589,1.50525,-2.85373,0.000735762,-0.0291166,0.0195223,0.0103842,-0.038765,0.459017,0.0299117,0.0422902,937,435,1.50526,2.85374
-280,589,2.00195,-3.24884,5.43022e-05,-0.02088,0.0144477,0.00742803,-0.0282537,0.471913,0.021739,0.0325563,944,435,2.00196,3.24885
-273,589,1.99878,-3.42371,-6.58115e-05,-0.0119573,0.010524,0.00607591,-0.018099,0.528267,0.0145214,0.0185466,951,435,1.99878,3.42371
-266,589,1.99982,-3.4809,-0.000450211,-0.00746943,0.00608923,0.00306842,-0.0109881,0.523969,0.00853408,0.015761,958,435,1.99985,3.48091
-259,589,2.00824,-3.54636,-0.000906465,-0.0040101,0.0027082,0.000663013,-0.00557958,0.525231,0.00395927,0.0137478,965,435,2.00824,3.54637
-252,589,1.99548,-3.63925,-0.00105231,-0.00183935,0.000785573,-0.000567201,-0.00232445,0.553201,0.00139942,0.00934774,972,435,1.99549,3.63926
-245,589,1.99146,-3.72095,-0.000944284,-0.000600093,-0.000612515,-0.000135956,-0.00140842,-0.92235,0.000897069,0.00946969,979,435,1.99147,3.72095
-238,589,1.98651,-3.80417,-0.000236976,5.93506e-05,-0.00163867,0.00155654,-0.00173416,-0.830484,0.00190081,0.0122532,986,435,1.98654,3.80417
-231,589,1.97583,-3.86612,-3.25016e-05,-4.84493e-06,-0.0012527,0.00123411,-0.00127145,-0.790917,0.00144664,0.0133325,993,435,1.97584,3.86612
-224,589,1.96204,-3.95691,-0.000136636,-2.67531e-05,-0.000941849,0.000861756,-0.00102514,-0.814532,0.00109076,0.0131855,1000,435,1.96203,3.95691
-217,589,1.97656,-4.03705,0.000104553,1.58534e-05,-0.000717608,0.00077918,-0.000658773,-0.754536,0.000831172,0.0139186,1007,435,1.97655,4.03705
-210,589,1.97333,-4.09116,0.000382125,9.73055e-05,-0.000546077,0.000804056,-0.000324625,-0.657845,0.000670954,0.012997,1014,435,1.97332,4.09115
-203,589,1.96906,-4.1409,0.000611822,0.000516831,-0.000287869,0.000856087,0.000272565,-0.70364,0.000505014,0.00921467,1021,435,1.96908,4.14089
-196,589,1.95618,-4.19931,0.0008319,0.0010216,9.9123e-05,0.00106394,0.000789556,1.16708,0.000637818,0.0115905,1028,435,1.95618,4.1993
-189,589,1.93982,-4.28171,0.0010431,0.00158992,0.000330093,0.00174512,0.000887887,1.13127,0.0010076,0.0148683,1035,435,1.93987,4.28172
-182,589,1.9552,-4.31378,0.00119632,0.00233934,0.000495189,0.00252403,0.00101163,1.21381,0.00146678,0.0119757,1042,435,1.95518,4.31379
-175,589,1.97388,-4.36612,0.00146052,0.00270155,0.000648924,0.00297889,0.00118319,1.16691,0.00173194,0.0150411,1049,435,1.9739,4.36611
-168,589,1.98938,-4.43167,0.00169832,0.00259808,0.000730652,0.00300625,0.00129015,1.06135,0.00174145,0.0129608,1056,435,1.9894,4.43167
-161,589,2.0033,-4.47495,0.00178342,0.00223104,0.000708733,0.00275046,0.001264,0.938339,0.00158971,0.0120688,1063,435,2.0033,4.47493
-154,589,1.99646,-4.52438,0.00188134,0.00170407,0.000584783,0.00238417,0.00120124,0.710183,0.00137651,0.0119866,1070,435,1.99644,4.52439
-147,589,1.99695,-4.58707,0.00211312,0.00082744,0.000574635,0.00233251,0.000608044,0.364718,0.00139715,0.0120351,1077,435,1.99691,4.58707
-140,589,2.00269,-4.65359,0.00242252,-0.000345633,0.000347723,0.00246553,-0.000388644,0.123069,0.00178737,0.0125883,1084,435,2.00267,4.65359
-133,589,1.99841,-4.70111,0.00250946,-0.0018282,-0.00017647,0.00251662,-0.00183537,-0.0405938,0.00252286,0.0125304,1091,435,1.99836,4.7011
-126,589,2.01062,-4.74933,0.00229835,-0.00299123,-0.000783612,0.002412,-0.00310488,-0.144022,0.00319353,0.0103799,1098,435,2.01062,4.74932
-119,589,2.02222,-4.79321,0.00220355,-0.00433929,-0.00131692,0.00245866,-0.00459441,-0.191353,0.00413386,0.015873,1105,435,2.02222,4.79323
-112,589,1.99719,-4.8486,0.00217669,-0.0055026,-0.00194331,0.00264045,-0.00596637,-0.234264,0.00509132,0.0166627,1112,435,1.99725,4.84859
-105,589,1.97937,-4.90927,0.00200398,-0.00611529,-0.00263917,0.00278644,-0.00689775,-0.288223,0.00575667,0.0164486,1119,435,1.97942,4.90928
-98,589,2.00122,-4.92084,0.00177812,-0.00633245,-0.00348673,0.00307098,-0.0076253,-0.355077,0.00635936,0.0172073,1126,435,2.00123,4.92083
-91,589,2.07715,-4.90234,0.00133496,-0.00589983,-0.00454403,0.00352564,-0.00809051,-0.449226,0.00687704,0.0219421,1133,435,2.07717,4.90235
-84,589,2.16504,-4.96829,0.000527977,-0.00485176,-0.00475388,0.00330023,-0.00762401,-0.527942,0.00646969,0.0320086,1140,435,2.16499,4.96828
-77,589,2.09546,-5.07553,-0.000247719,-0.00373184,-0.00469465,0.00301767,-0.00699722,-0.607736,0.00593231,0.0407301,1147,435,2.09546,5.07552
-70,589,2.10657,-5.16873,0,0,0,0,0,0,0,-1,1154,435,2.10653,5.16874
-63,589,0.880127,-5.50586,0,0,0,0,0,0,0,-1,1161,435,0.880186,5.50587
-56,589,-2.78052,-7.28082,0,0,0,0,0,0,0,-1,1168,435,-2.78053,7.28082
-49,589,-0.525757,-2.76703,0,0,0,0,0,0,0,-1,1175,435,-0.525771,2.76702
-42,589,-2.7738,-2.87921,0,0,0,0,0,0,0,-1,1182,435,-2.77383,2.87922
-35,589,-2.55225,-3.27551,0,0,0,0,0,0,0,-1,1189,435,-2.55223,3.27552
-28,589,-0.0632324,-3.42938,0,0,0,0,0,0,0,-1,1196,435,-0.063241,3.42938
-21,589,1.39124,-5.16635,0,0,0,0,0,0,0,-1,1203,435,1.39129,5.16635
-14,589,2.63049,-5.19424,0,0,0,0,0,0,0,-1,1210,435,2.63044,5.19424
-7,589,2.75354,-5.31348,0,0,0,0,0,0,0,-1,1217,435,2.75355,5.31348
0,589,2.52942,-5.21933,0,0,0,0,0,0,0,-1,1224,435,2.52941,5.21933
7,589,2.89551,-5.83545,0,0,0,0,0,0,0,-1,1231,435,2.89556,5.83545
14,589,3.54102,-5.49185,0,0,0,0,0,0,0,-1,1238,435,3.54107,5.49187
21,589,2.45068,-4.99609,0,0,0,0,0,0,0,-1,1245,435,2.45063,4.9961
28,589,2.53149,-5.0972,0,0,0,0,0,0,0,-1,1252,435,2.53148,5.09721
35,589,2.40942,-5.96887,-0.0313154,-0.00215219,-0.013084,0.00285737,-0.0363249,-1.20514,0.0252231,0.044531,1259,435,2.40942,5.96888
42,589,3.52148,-5.30148,-0.032852,0.000197463,-0.0134999,0.00501081,-0.0376654,-1.2283,0.0269363,0.0468029,1266,435,3.52145,5.30147
49,589,2.255,-5.08621,0,0,0,0,0,0,0,-1,1273,435,2.25504,5.0862
56,589,2.24695,-5.06619,-0.0307781,0.00463982,-0.0155049,0.0104683,-0.0366065,-1.21123,0.0285411,0.0440532,1280,435,2.24695,5.06619
63,589,2.19824,-4.73001,-0.0280616,0.00624783,-0.016545,0.0129263,-0.0347401,-1.18714,0.0284646,0.0461182,1287,435,2.19824,4.73
70,589,2.31921,-4.32794,-0.0250375,0.00828572,-0.0183316,0.0163962,-0.033148,-1.15425,0.0291443,0.0428088,1294,435,2.31924,4.32794
77,589,1.45325,-5.13077,-0.0217677,0.01133,-0.0201587,0.0208626,-0.0313003,-1.12908,0.0303165,0.0456074,1301,435,1.4533,5.13078
84,589,1.15027,-4.56012,0,0,0,0,0,0,0,-1,1308,435,1.15021,4.56013
91,589,1.04785,-4.78452,0,0,0,0,0,0,0,-1,1315,435,1.0478,4.78451
98,589,4.87439,-5.76563,0,0,0,0,0,0,0,-1,1322,435,4.87435,5.76563
105,589,2.30493,-5.28101,0,0,0,0,0,0,0,-1,1329,435,2.30489,5.28101
112,589,2.26025,-5.11948,0,0,0,0,0,0,0,-1,1336,435,2.26023,5.11948
119,589,3.85303,-5.00317,-0.00837009,0.0275305,-0.025622,0.0408644,-0.021704,-1.09096,0.0366841,0.0409063,1343,435,3.85308,5.00317
126,589,3.599,-4.96872,-0.00870556,0.0305965,-0.0252769,0.0429625,-0.0210715,-1.11581,0.0376833,0.0458957,1350,435,3.59905,4.96873
133,589,2.96558,-5.13187,0,0,0,0,0,0,0,-1,1357,435,2.96557,5.13186
140,589,2.83044,-4.72922,-0.0109675,0.03532,-0.0231349,0.0449002,-0.0205477,-1.17819,0.0386485,0.0472321,1364,435,2.8305,4.72921
147,589,2.74304,-4.5397,-0.0127368,0.0367414,-0.0217182,0.0449219,-0.0209174,-1.21056,0.0388454,0.0437211,1371,435,2.74298,4.5397
154,589,3.21643,-4.43906,0,0,0,0,0,0,0,-1,1378,435,3.21647,4.43905
161,589,3.76941,-4.8183,0,0,0,0,0,0,0,-1,1385,435,3.76935,4.8183
168,589,4.63037,-4.23593,0,0,0,0,0,0,0,-1,1392,435,4.63035,4.23592
175,589,5.50916,-4.05252,0,0,0,0,0,0,0,-1,1399,435,5.50911,4.05253
182,589,3.8136,-2.45389,0,0,0,0,0,0,0,-1,1406,435,3.81363,2.4539
189,589,3.69983,-3.68149,0,0,0,0,0,0,0,-1,1413,435,3.69987,3.68147
196,589,3.31055,-5.31677,0,0,0,0,0,0,0,-1,1420,435,3.31059,5.31678
203,589,2.66443,-4.85172,0,0,0,0,0,0,0,-1,1427,435,2.66439,4.85172
210,589,2.49524,-4.85062,-0.000763998,-0.00186696,-0.00104075,-0.000137643,-0.00249332,-0.541763,0.00161828,0.0322661,1434,435,2.49524,4.85061
217,589,2.53455,-4.79181,-0.00101382,-0.00270807,-0.000915495,-0.000613647,-0.00310825,-0.412083,0.00190092,0.0241483,1441,435,2.53454,4.79181
224,589,2.56592,-4.77396,-0.0007097,-0.00367251,-0.000505126,-0.000625949,-0.00375626,-0.164307,0.0023238,0.0210319,1448,435,2.56586,4.77395
231,589,2.58521,-4.73474,-0.000363066,-0.00444653,-0.000124567,-0.00035927,-0.00445032,-0.0304674,0.00285467,0.0180388,1455,435,2.58523,4.73474
238,589,2.58093,-4.67117,0.000100053,-0.00505405,-7.35259e-05,0.000101102,-0.0050551,-0.0142616,0.00340427,0.0187613,1462,435,2.58093,4.67117
245,589,2.55396,-4.55164,0.000387281,-0.00533112,-0.000265783,0.000399608,-0.00534345,-0.0463454,0.0037027,0.0172304,1469,435,2.5539,4.55165
252,589,2.57739,-4.52209,0.000607096,-0.00543896,-0.000348291,0.000627093,-0.00545896,-0.0573534,0.00386533,0.0122406,1476,435,2.57738,4.52211
259,589,2.58508,-4.49847,0.000548912,-0.00520605,-0.000825848,0.000665078,-0.00532222,-0.139746,0.00378934,0.00902053,1483,435,2.58507,4.49848
266,589,2.58569,-4.42542,0.000303783,-0.0046712,-0.0013116,0.000628393,-0.00499581,-0.242616,0.00355854,0.00956801,1490,435,2.58566,4.42542
273,589,2.60559,-4.37598,0.00010062,-0.00404486,-0.00157734,0.00063254,-0.00457678,-0.32525,0.00328241,0.0114095,1497,435,2.60559,4.37597
280,589,2.61377,-4.32602,-0.000124007,-0.00318485,-0.00185917,0.000753623,-0.00406248,-0.441042,0.00299134,0.0118351,1504,435,2.61377,4.32602
287,589,2.60693,-4.27097,-0.00035107,-0.0023765,-0.00197376,0.000854618,-0.00358219,-0.548366,0.00271816,0.0108234,1511,435,2.60698,4.27096
294,589,2.58728,-4.19666,-0.000555717,-0.00146358,-0.00206146,0.0011012,-0.0031205,-0.677028,0.00252863,0.00962843,1518,435,2.58723,4.19667
301,589,2.5918,-4.13071,-0.000829542,-0.000499126,-0.00206772,0.00140998,-0.00273864,-0.825263,0.00243581,0.0102692,1525,435,2.59181,4.13071
308,589,2.61035,-4.06323,-0.000965161,0.000355805,-0.00182714,0.00163818,-0.00224753,-0.958833,0.00225259,0.010046,1532,435,2.61029,4.06323
315,589,2.61328,-3.98553,-0.000993743,0.0010085,-0.00156175,0.00186245,-0.0018477,-1.07042,0.00214206,0.00983471,1539,435,2.6133,3.98553
322,589,2.6228,-3.91574,-0.00100711,0.00148072,-0.0012525,0.00200205,-0.00152844,-1.17638,0.00204443,0.0106429,1546,435,2.62282,3.91574
329,589,2.62256,-3.84985,-0.0010081,0.00162014,-0.000954229,0.00193005,-0.00131801,-1.25677,0.00188633,0.00977573,1553,435,2.62255,3.84985
336,589,2.60364,-3.79834,-0.00102051,0.0017955,-0.000659003,0.00194209,-0.0011671,-1.35192,0.00181358,0.00927103,1560,435,2.6037,3.79835
343,589,2.60181,-3.71918,-0.00100076,0.00202691,-0.000361395,0.00206945,-0.0010433,-1.45363,0.00182941,0.0108631,1567,435,2.60184,3.71919
350,589,2.60303,-3.61734,-0.000823906,0.00221086,-6.67066e-05,0.00221233,-0.000825371,-1.54883,0.00181373,0.016443,1574,435,2.60297,3.61734
357,589,2.61768,-3.56174,-0.000627714,0.00202436,0.000256507,0.00204894,-0.000652296,1.47526,0.00162756,0.013476,1581,435,2.61771,3.56174
364,589,2.6272,-3.48279,-0.000445321,0.00207312,0.000582437,0.0022013,-0.000573497,1.35418,0.00169142,0.0106167,1588,435,2.62726,3.48278
371,589,2.61438,-3.37488,-0.000303083,0.00198913,0.000915545,0.00230992,-0.000623872,1.23378,0.00178463,0.0107802,1595,435,2.61442,3.37487
378,589,2.6156,-3.30045,-0.00021677,0.00193102,0.00123099,0.00249071,-0.000776459,1.14407,0.00197095,0.0123294,1602,435,2.61564,3.30043
385,589,2.61682,-3.2193,1.18493e-06,0.00187374,0.001585,0.00277834,-0.000903415,1.05218,0.00221563,0.0138138,1609,435,2.61683,3.21931
392,589,2.59998,-3.13098,0.0002807,0.00196706,0.00217691,0.00345838,-0.00121062,0.970166,0.00279783,0.0147033,1616,435,2.59997,3.13099
399,589,2.57874,-3.06979,0.000267382,0.00253938,0.00272296,0.0043538,-0.00154704,0.983018,0.00353298,0.0199553,1623,435,2.57873,3.06981
406,589,2.53064,-2.94714,0.000211858,0.00326597,0.00288959,0.00500719,-0.00152936,1.02848,0.00394792,0.0419028,1630,435,2.53066,2.94713
413,589,2.77563,-2.62122,0,0,0,0,0,0,0,-1,1637,435,2.77565,2.62123
420,589,2.8595,-2.65002,0,0,0,0,0,0,0,-1,1644,435,2.85949,2.65001
427,589,2.67603,-2.54367,0,0,0,0,0,0,0,-1,1651,435,2.67597,2.54366
434,589,2.52161,-2.48523,0,0,0,0,0,0,0,-1,1658,435,2.5216,2.48524
441,589,2.3501,-2.17392,0,0,0,0,0,0,0,-1,1665,435,2.35005,2.17391
448,589,2.15015,-2.34396,0,0,0,0,0,0,0,-1,1672,435,2.15012,2.34397
455,589,1.85754,-2.03967,0,0,0,0,0,0,0,-1,1679,435,1.85752,2.03968
462,589,2.43884,-3.34125,0.0330434,0.00842816,-0.01432,0.0396181,0.00185355,-0.430414,0.0258164,0.0482461,1686,435,2.43885,3.34124
469,589,3.09204,-4.87302,0,0,0,0,0,0,0,-1,1693,435,3.0921,4.873
476,589,0,0,0,0,0,0,0,0,0,-1,1700,435,0,0
483,589,0,0,0,0,0,0,0,0,0,-1,1707,435,0,0
490,589,0,0,0,0,0,0,0,0,0,-1,1714,435,0,0
497,589,0,0,0,0,0,0,0,0,0,-1,1721,435,0,0
504,589,0,0,0,0,0,0,0,0,0,-1,1728,435,0,0
511,589,0,0,0,0,0,0,0,0,0,-1,1735,435,0,0
518,589,0,0,0,0,0,0,0,0,0,-1,1742,435,0,0
525,589,0,0,0,0,0,0,0,0,0,-1,1749,435,0,0
532,589,0,0,0,0,0,0,0,0,0,-1,1756,435,0,0
539,589,0,0,0,0,0,0,0,0,0,-1,1763,435,0,0
546,589,0,0,0,0,0,0,0,0,0,-1,1770,435,0,0
553,589,0,0,0,0,0,0,0,0,0,-1,1777,435,0,0
560,589,0,0,0,0,0,0,0,0,0,-1,1784,435,0,0
567,589,0,0,0,0,0,0,0,0,0,-1,1791,435,0,0
574,589,0,0,0,0,0,0,0,0,0,-1,1798,435,0,0
581,589,0,0,0,0,0,0,0,0,0,-1,1805,435,0,0
588,589,0,0,0,0,0,0,0,0,0,-1,1812,435,0,0
595,589,0,0,0,0,0,0,0,0,0,-1,1819,435,0,0
602,589,0,0,0,0,0,0,0,0,0,-1,1826,435,0,0
609,589,0,0,0,0,0,0,0,0,0,-1,1833,435,0,0
616,589,0,0,0,0,0,0,0,0,0,-1,1840,435,0,0
623,589,0,0,0,0,0,0,0,0,0,-1,1847,435,0,0
630,589,0,0,0,0,0,0,0,0,0,-1,1854,435,0,0
637,589,0,0,0,0,0,0,0,0,0,-1,1861,435,0,0
644,589,0,0,0,0,0,0,0,0,0,-1,1868,435,0,0
651,589,0,0,0,0,0,0,0,0,0,-1,1875,435,0,0
658,589,0,0,0,0,0,0,0,0,0,-1,1882,435,0,0
665,589,0,0,0,0,0,0,0,0,0,-1,1889,435,0,0
672,589,0,0,0,0,0,0,0,0,0,-1,1896,435,0,0
679,589,0,0,0,0,0,0,0,0,0,-1,1903,435,0,0
686,589,0,0,0,0,0,0,0,0,0,-1,1910,435,0,0
693,589,0,0,0,0,0,0,0,0,0,-1,1917,435,0,0
700,589,0,0,0,0,0,0,0,0,0,-1,1924,435,0,0
707,589,0,0,0,0,0,0,0,0,0,-1,1931,435,0,0
714,589,0,0,0,0,0,0,0,0,0,-1,1938,435,0,0
721,589,0,0,0,0,0,0,0,0,0,-1,1945,435,0,0
728,589,0,0,0,0,0,0,0,0,0,-1,1952,435,0,0
735,589,0,0,0,0,0,0,0,0,0,-1,1959,435,0,0
742,589,0,0,0,0,0,0,0,0,0,-1,1966,435,0,0
749,589,0,0,0,0,0,0,0,0,0,-1,1973,435,0,0
756,589,0,0,0,0,0,0,0,0,0,-1,1980,435,0,0
763,589,0,0,0,0,0,0,0,0,0,-1,1987,435,0,0
770,589,0,0,0,0,0,0,0,0,0,-1,1994,435,0,0
777,589,0,0,0,0,0,0,0,0,0,-1,2001,435,0,0
784,589,0,0,0,0,0,0,0,0,0,-1,2008,435,0,0
791,589,0,0,0,0,0,0,0,0,0,-1,2015,435,0,0
798,589,0,0,0,0,0,0,0,0,0,-1,2022,435,0,0
805,589,0,0,0,0,0,0,0,0,0,-1,2029,435,0,0
812,589,0,0,0,0,0,0,0,0,0,-1,2036,435,0,0
-700,582,0,0,0,0,0,0,0,0,0,-1,524,442,0,0
-693,582,0,0,0,0,0,0,0,0,0,-1,531,442,0,0
-686,582,0,0,0,0,0,0,0,0,0,-1,538,442,0,0
-679,582,0,0,0,0,0,0,0,0,0,-1,545,442,0,0
-672,582,0,0,0,0,0,0,0,0,0,-1,552,442,0,0
-665,582,0,0,0,0,0,0,0,0,0,-1,559,442,0,0
-658,582,0,0,0,0,0,0,0,0,0,-1,566,442,0,0
-651,582,0,0,0,0,0,0,0,0,0,-1,573,442,0,0
-644,582,0,0,0,0,0,0,0,0,0,-1,580,442,0,0
-637,582,0,0,0,0,0,0,0,0,0,-1,587,442,0,0
-630,582,0,0,0,0,0,0,0,0,0,-1,594,442,0,0
-623,582,0,0,0,0,0,0,0,0,0,-1,601,442,0,0
-616,582,0,0,0,0,0,0,0,0,0,-1,608,442,0,0
-609,582,0,0,0,0,0,0,0,0,0,-1,615,442,0,0
-602,582,0,0,0,0,0,0,0,0,0,-1,622,442,0,0
-595,582,0,0,0,0,0,0,0,0,0,-1,629,442,0,0
-588,582,0,0,0,0,0,0,0,0,0,-1,636,442,0,0
-581,582,0,0,0,0,0,0,0,0,0,-1,643,442,0,0
-574,582,0,0,0,0,0,0,0,0,0,-1,650,442,0,0
-567,582,0,0,0,0,0,0,0,0,0,-1,657,442,0,0
-560,582,0,0,0,0,0,0,0,0,0,-1,664,442,0,0
-553,582,0,0,0,0,0,0,0,0,0,-1,671,442,0,0
-546,582,0,0,0,0,0,0,0,0,0,-1,678,442,0,0
-539,582,0,0,0,0,0,0,0,0,0,-1,685,442,0,0
-532,582,0,0,0,0,0,0,0,0,0,-1,692,442,0,0
-525,582,0,0,0,0,0,0,0,0,0,-1,699,442,0,0
-518,582,0,0,0,0,0,0,0,0,0,-1,706,442,0,0
-511,582,0,0,0,0,0,0,0,0,0,-1,713,442,0,0
-504,582,0,0,0,0,0,0,0,0,0,-1,720,442,0,0
-497,582,0,0,0,0,0,0,0,0,0,-1,727,442,0,0
-490,582,0,0,0,0,0,0,0,0,0,-1,734,442,0,0
-483,582,0,0,0,0,0,0,0,0,0,-1,741,442,0,0
-476,582,0,0,0,0,0,0,0,0,0,-1,748,442,0,0
-469,582,0,0,0,0,0,0,0,0,0,-1,755,442,0,0
-462,582,0,0,0,0,0,0,0,0,0,-1,762,442,0,0
-455,582,0,0,0,0,0,0,0,0,0,-1,769,442,0,0
-448,582,0,0,0,0,0,0,0,0,0,-1,776,442,0,0
-441,582,0,0,0,0,0,0,0,0,0,-1,783,442,0,0
-434,582,0,0,0,0,0,0,0,0,0,-1,790,442,0,0
-427,582,0,0,0,0,0,0,0,0,0,-1,797,442,0,0
-420,582,0,0,0,0,0,0,0,0,0,-1,804,442,0,0
-413,582,0,0,0,0,0,0,0,0,0,-1,811,442,0,0
-406,582,0,0,0,0,0,0,0,0,0,-1,818,442,0,0
-399,582,0,0,0,0,0,0,0,0,0,-1,825,442,0,0
-392,582,0,0,0,0,0,0,0,0,0,-1,832,442,0,0
-385,582,0,0,0,0,0,0,0,0,0,-1,839,442,0,0
-378,582,0,0,0,0,0,0,0,0,0,-1,846,442,0,0
-371,582,0,0,0,0,0,0,0,0,0,-1,853,442,0,0
-364,582,0,0,0,0,0,0,0,0,0,-1,860,442,0,0
-357,582,4.37585,-0.911743,-0.0522288,-0.0506856,-0.157958,0.106503,-0.209417,-0.787841,0.185594,0.0436233,867,442,4.37584,0.911745
-350,582,3.70825,-1.99304,-0.0446634,-0.0579919,-0.120723,0.0695787,-0.172234,-0.757825,0.143743,0.0429696,874,442,3.70825,1.99303
-343,582,2.80402,-2.78122,-0.0369948,-0.0627665,-0.085915,0.0369953,-0.136757,-0.710961,0.105684,0.0451727,881,442,2.80401,2.78121
-336,582,2.38269,-3.31662,0,0,0,0,0,0,0,-1,888,442,2.38266,3.31661
-329,582,2.021,-3.3952,-0.0216767,-0.0621824,-0.0331443,-0.00308724,-0.0807718,-0.511145,0.0528489,0.0487345,895,442,2.02099,3.39522
-322,582,1.28656,-3.22195,-0.0152413,-0.0581497,-0.0149024,-0.0105733,-0.0628177,-0.303551,0.0388368,0.0449219,902,442,1.28657,3.22195
-315,582,1.68195,-3.57339,-0.0104504,-0.0520588,-0.00130728,-0.0104094,-0.0520999,-0.0313774,0.0318359,0.0440309,909,442,1.68193,3.57339
-308,582,2.04364,-3.70197,-0.00668121,-0.0454544,0.00824536,-0.00500063,-0.047135,0.201068,0.0298962,0.0468352,916,442,2.04364,3.70198
-301,582,2.23834,-3.55008,-0.00347041,-0.0382694,0.0137465,0.00130461,-0.0430444,0.334323,0.0291409,0.044944,923,442,2.23833,3.55009
-294,582,2.23724,-3.37729,-0.000567812,-0.030657,0.01623,0.00651792,-0.0377428,0.411641,0.0275923,0.041921,930,442,2.23725,3.37728
-287,582,1.93774,-3.18588,0.000414267,-0.0231859,0.0144641,0.00728105,-0.0300527,0.443242,0.0228521,0.0346341,937,442,1.93774,3.18588
-280,582,1.94385,-3.28937,5.37201e-05,-0.0165469,0.0107108,0.00530395,-0.0217972,0.45576,0.0165846,0.0160742,944,442,1.94386,3.28937
-273,582,1.9328,-3.40479,0.000107093,-0.00936059,0.00782937,0.00452248,-0.013776,0.513491,0.0110057,0.0102281,951,442,1.93281,3.40479
-266,582,1.93127,-3.49414,-0.000140557,-0.00566918,0.00457446,0.00243995,-0.00824969,0.513613,0.00646837,0.00918579,958,442,1.93128,3.49413
-259,582,1.92993,-3.58148,-0.000548891,-0.00284105,0.00204844,0.000652287,-0.00404222,0.530349,0.00293649,0.00810351,965,442,1.92996,3.5815
-252,582,1.91327,-3.65878,-0.000722904,-0.00121896,0.000592053,-0.000329024,-0.00161284,0.58704,0.00098406,0.00815284,972,442,1.91328,3.65878
-245,582,1.92035,-3.72559,-0.00069499,-0.000251531,-0.000435647,1.55668e-05,-0.000962088,-1.0208,0.000646644,0.0110306,979,442,1.92037,3.7256
-238,582,1.92181,-3.78247,-0.000184235,0.000143529,-0.00116181,0.00115296,-0.00119367,-0.855464,0.0013549,0.0143336,986,442,1.92184,3.78248
-231,582,1.9306,-3.86447,3.66789e-05,3.38953e-05,-0.00078601,0.000821299,-0.000750724,-0.784513,0.000907913,0.0112783,993,442,1.93059,3.86448
-224,582,1.92365,-3.9469,6.09504e-05,2.43708e-06,-0.00051252,0.000545048,-0.00048166,-0.756887,0.000593147,0.00950929,1000,442,1.92363,3.94691
-217,582,1.92029,-4.00708,0.000338264,8.30604e-05,-0.000323121,0.000558065,-0.000136741,-0.597345,0.000425021,0.0112691,1007,442,1.92031,4.00709
-210,582,1.91962,-4.07108,0.000661985,0.000190775,-0.00017868,0.000722076,0.000130684,-0.324423,0.000444277,0.0117766,1014,442,1.9196,4.07108
-203,582,1.92859,-4.13797,0.00094058,0.000695319,0.000103213,0.000978234,0.000657665,0.349815,0.000575853,0.00970342,1021,442,1.92862,4.13796
-196,582,1.91431,-4.19379,0.00124161,0.00127486,0.000631977,0.00189043,0.000626039,0.798552,0.00111199,0.0142148,1028,442,1.91433,4.19378
-189,582,1.89478,-4.26962,0.0015867,0.00193908,0.00091537,0.00269506,0.000830718,0.880474,0.00159368,0.0187445,1035,442,1.89481,4.26964
-182,582,1.91968,-4.34088,0.00185691,0.00288619,0.00116291,0.00364325,0.00109985,0.993718,0.00215777,0.013221,1042,442,1.91969,4.34088
-175,582,1.92822,-4.37234,0.00230552,0.00335817,0.00133493,0.00426679,0.00139691,0.973177,0.00251189,0.0119714,1049,442,1.92827,4.37233
-168,582,1.93481,-4.44699,0.00277268,0.00320561,0.00138906,0.00439497,0.00158331,0.862693,0.00257026,0.0104264,1056,442,1.93485,4.44699
-161,582,1.93958,-4.50504,0.00304247,0.00275529,0.00129381,0.00420064,0.00159712,0.730133,0.00244833,0.0116848,1063,442,1.93958,4.50504
-154,582,1.93921,-4.53317,0.00330247,0.00208375,0.00105776,0.00391384,0.00147238,0.524074,0.00228263,0.0117987,1070,442,1.93923,4.53316
-147,582,1.9469,-4.57397,0.00372819,0.00100585,0.00095815,0.0040316,0.000702433,0.306675,0.00248688,0.0118206,1077,442,1.9469,4.57397
-140,582,1.94641,-4.6265,0.00425594,-0.000510858,0.000519642,0.00431193,-0.000566848,0.107333,0.003081,0.0113388,1084,442,1.94646,4.62651
-133,582,1.9679,-4.6857,0.00441774,-0.00247224,-0.000308238,0.00443151,-0.002486,-0.0446183,0.00404613,0.0130239,1091,442,1.96784,4.68571
-126,582,1.97791,-4.72214,0.00417035,-0.00410512,-0.00127498,0.00436233,-0.0042971,-0.149452,0.00499957,0.0118891,1098,442,1.97789,4.72213
-119,582,1.94653,-4.73355,0.00408594,-0.00608308,-0.00214981,0.00452175,-0.00651888,-0.200009,0.00640898,0.0165204,1105,442,1.94655,4.73356
-112,582,1.86658,-4.80511,0.00413547,-0.00783294,-0.00315852,0.00491787,-0.00861534,-0.242824,0.00791001,0.0259235,1112,442,1.86652,4.80513
-105,582,1.77783,-4.83792,0.00396156,-0.00886941,-0.00424732,0.00524011,-0.010148,-0.292397,0.00903368,0.033367,1119,442,1.77784,4.83794
-98,582,1.93652,-4.91507,0.00368635,-0.0094502,-0.00556956,0.00572983,-0.0114937,-0.351651,0.0101279,0.0357375,1126,442,1.93653,4.91508
-91,582,2.23584,-4.80716,0,0,0,0,0,0,0,-1,1133,442,2.23581,4.80717
-84,582,2.28345,-4.91617,0.00188808,-0.00787151,-0.00757041,0.00601514,-0.0119986,-0.499118,0.0105897,0.0445259,1140,442,2.28345,4.91618
-77,582,2.03625,-5.35898,0.000722638,-0.00646666,-0.00755446,0.00549408,-0.0112381,-0.563335,0.00984824,0.0487225,1147,442,2.03621,5.35899
-70,582,1.35327,-5.6824,0,0,0,0,0,0,0,-1,1154,442,1.35333,5.68242
-63,582,-2.57678,-4.54684,0,0,0,0,0,0,0,-1,1161,442,-2.57682,4.54684
-56,582,-3.20764,-7.2876,0,0,0,0,0,0,0,-1,1168,442,-3.20768,7.28759
-49,582,-3.88672,-10.1064,0,0,0,0,0,0,0,-1,1175,442,-3.88678,10.1064
-42,582,-0.948975,1.13968,0,0,0,0,0,0,0,-1,1182,442,-0.949003,-1.13969
-35,582,-2.58435,-3.86911,0,0,0,0,0,0,0,-1,1189,442,-2.58437,3.86912
-28,582,-0.825317,-3.45941,0,0,0,0,0,0,0,-1,1196,442,-0.825377,3.45942
-21,582,0.661255,-4.53201,0,0,0,0,0,0,0,-1,1203,442,0.661247,4.53202
-14,582,2.42603,-5.8447,0,0,0,0,0,0,0,-1,1210,442,2.42608,5.84469
-7,582,3.99341,-6.97519,0,0,0,0,0,0,0,-1,1217,442,3.99342,6.97517
0,582,6.19958,-4.82642,0,0,0,0,0,0,0,-1,1224,442,6.19958,4.82643
7,582,5.92407,-4.70648,0,0,0,0,0,0,0,-1,1231,442,5.92409,4.70647
14,582,6.88586,-3.85855,0,0,0,0,0,0,0,-1,1238,442,6.88582,3.85854
21,582,5.99182,-4.24973,-0.0356382,-0.0106988,-0.0122476,-0.00569005,-0.040647,-1.18259,0.0254145,0.0445923,1245,442,5.9918,4.24974
28,582,4.95227,-4.70428,-0.0379317,-0.00734931,-0.0142311,-0.00175166,-0.0435294,-1.19604,0.0284537,0.0430884,1252,442,4.95227,4.70429
35,582,4.37805,-5.13913,-0.0406825,-0.00320228,-0.016166,0.002807,-0.0466918,-1.2149,0.0321045,0.0443116,1259,442,4.37806,5.13914
42,582,3.52246,-5.21353,-0.0425683,0.000660049,-0.0173293,0.00674927,-0.0486575,-1.23289,0.0349063,0.0445533,1266,442,3.5225,5.21352
49,582,2.66016,-5.21729,-0.0427347,0.00456855,-0.0191997,0.0113805,-0.0495466,-1.22986,0.0374061,0.0431052,1273,442,2.6601,5.21729
56,582,2.10303,-5.26221,-0.0395349,0.00737646,-0.0208591,0.0153098,-0.0474683,-1.20736,0.0377969,0.0418582,1280,442,2.10301,5.26222
63,582,2.24622,-4.50357,0,0,0,0,0,0,0,-1,1287,442,2.2462,4.50358
70,582,2.60413,-3.66074,0,0,0,0,0,0,0,-1,1294,442,2.60417,3.66074
77,582,1.39819,-5.10626,0,0,0,0,0,0,0,-1,1301,442,1.39815,5.10625
84,582,6.01794,-7.52063,0,0,0,0,0,0,0,-1,1308,442,6.01792,7.52063
91,582,5.72925,-6.99823,0,0,0,0,0,0,0,-1,1315,442,5.72928,6.99823
98,582,5.36792,-6.43802,0,0,0,0,0,0,0,-1,1322,442,5.36789,6.43802
105,582,5.06213,-5.90704,-0.0123012,0.0284454,-0.0317972,0.0458363,-0.0296921,-1.07031,0.0439371,0.0451301,1329,442,5.06212,5.90704
112,582,4.92712,-5.72736,-0.00996014,0.0317539,-0.0325188,0.0495296,-0.0277358,-1.07055,0.0451969,0.0434657,1336,442,4.92709,5.72736
119,582,4.52332,-5.47458,-0.00947867,0.0359549,-0.0327958,0.0531332,-0.0266569,-1.08829,0.0469046,0.0410641,1343,442,4.52332,5.47458
126,582,4.30591,-5.45813,-0.0100033,0.0401754,-0.0321677,0.0558812,-0.0257091,-1.1166,0.0481678,0.0433137,1350,442,4.30593,5.45812
133,582,4.03589,-5.47388,-0.0114442,0.0441203,-0.0308492,0.0578535,-0.0251773,-1.15197,0.0491597,0.046681,1357,442,4.03584,5.47386
140,582,3.44739,-5.80478,-0.0136578,0.0475701,-0.0290498,0.0591593,-0.0252469,-1.1912,0.0500259,0.0469153,1364,442,3.44734,5.80477
147,582,3.30408,-5.51392,-0.0160334,0.0501091,-0.0272022,0.0598592,-0.0257835,-1.22663,0.0507337,0.0483365,1371,442,3.30403,5.51391
154,582,3.4054,-5.23364,0,0,0,0,0,0,0,-1,1378,442,3.40534,5.23365
161,582,3.84619,-5.65671,0,0,0,0,0,0,0,-1,1385,442,3.84624,5.65671
168,582,4.51733,-5.80917,0,0,0,0,0,0,0,-1,1392,442,4.51737,5.80918
175,582,6.50549,-2.00424,0,0,0,0,0,0,0,-1,1399,442,6.50546,2.00425
182,582,5.18958,-2.18652,0,0,0,0,0,0,0,-1,1406,442,5.1896,2.18652
189,582,6.19751,-0.880951,0,0,0,0,0,0,0,-1,1413,442,6.19754,0.88096
196,582,4.87354,-2.22327,0,0,0,0,0,0,0,-1,1420,442,4.87348,2.22325
203,582,3.11401,-4.48257,0,0,0,0,0,0,0,-1,1427,442,3.11404,4.48259
210,582,2.5752,-4.6138,0,0,0,0,0,0,0,-1,1434,442,2.57521,4.6138
217,582,2.64905,-4.83575,-0.00311461,-0.00558322,0.000271455,-0.00308511,-0.00561272,0.10824,0.00324583,0.0432098,1441,442,2.64905,4.83576
224,582,2.58093,-4.79297,-0.00298806,-0.0071021,0.000954639,-0.00277734,-0.00731283,0.217254,0.00426254,0.0430832,1448,442,2.58093,4.79296
231,582,2.64783,-4.8024,-0.00272695,-0.00825697,0.00154019,-0.00232692,-0.008657,0.254112,0.00517318,0.0393012,1455,442,2.64778,4.80239
238,582,2.53613,-4.67166,-0.00220767,-0.00906822,0.00160493,-0.00185079,-0.00942511,0.218808,0.00576635,0.0345018,1462,442,2.53613,4.67166
245,582,2.58496,-4.61606,-0.0018903,-0.00937078,0.00130303,-0.00166982,-0.00959126,0.167617,0.00591664,0.0286307,1469,442,2.58492,4.61606
252,582,2.64795,-4.53424,-0.00162111,-0.0093421,0.00107928,-0.00147308,-0.00949013,0.136305,0.00589737,0.0164634,1476,442,2.64793,4.53424
259,582,2.63171,-4.50757,-0.00158483,-0.00890118,0.000223472,-0.00157801,-0.008908,0.0305063,0.0054888,0.0127984,1483,442,2.63171,4.50756
266,582,2.64014,-4.44476,-0.00190348,-0.00789,-0.000704369,-0.00182173,-0.00797176,-0.115557,0.00482333,0.0108859,1490,442,2.64011,4.44477
273,582,2.66675,-4.38559,-0.00213325,-0.0067716,-0.00135235,-0.00176776,-0.00713709,-0.263957,0.00429192,0.010668,1497,442,2.66674,4.38558
280,582,2.66907,-4.33365,-0.00231376,-0.00522078,-0.00211209,-0.00120336,-0.00633118,-0.484021,0.00388233,0.0105626,1504,442,2.66907,4.33364
287,582,2.66687,-4.26883,-0.00240725,-0.00400213,-0.00255281,-0.000530232,-0.00587916,-0.634012,0.00375519,0.0106073,1511,442,2.6669,4.26882
294,582,2.65784,-4.19589,-0.00249555,-0.00268494,-0.00292898,0.000340263,-0.00552075,-0.769238,0.00379901,0.00875696,1518,442,2.65783,4.19588
301,582,2.66541,-4.13934,-0.00270206,-0.00140856,-0.00317179,0.00118175,-0.00529236,-0.885972,0.00398106,0.00965827,1525,442,2.66546,4.13935
308,582,2.68933,-4.06232,-0.00273903,-0.000324713,-0.00304256,0.00174142,-0.00480516,-0.974252,0.0039152,0.0124925,1532,442,2.68938,4.06233
315,582,2.68823,-3.98572,-0.00255261,0.00050452,-0.0028843,0.00224026,-0.00428835,-1.02906,0.00383062,0.0132286,1539,442,2.68827,3.98571
322,582,2.68359,-3.91708,-0.00233923,0.0010473,-0.00249899,0.00237266,-0.00366459,-1.08316,0.00351211,0.0103375,1546,442,2.68356,3.91709
329,582,2.69324,-3.86795,-0.00215039,0.0011731,-0.00201622,0.00212412,-0.00310141,-1.13006,0.0030345,0.0098865,1553,442,2.69323,3.86795
336,582,2.68481,-3.80151,-0.00194597,0.00131373,-0.00154402,0.00192896,-0.00256121,-1.19162,0.00260095,0.0104894,1560,442,2.68485,3.80151
343,582,2.67188,-3.6882,-0.00172868,0.00150971,-0.00104332,0.00181674,-0.0020357,-1.2846,0.0022254,0.0129713,1567,442,2.67188,3.68819
350,582,2.6748,-3.61285,-0.00137298,0.00169091,-0.000557229,0.0017891,-0.00147118,-1.39637,0.00188531,0.0156481,1574,442,2.67477,3.61286
357,582,2.68811,-3.548,-0.00101744,0.00164532,-0.000111701,0.00164999,-0.00102212,-1.52895,0.00155687,0.0137165,1581,442,2.68806,3.548
364,582,2.6936,-3.46884,-0.00068808,0.00178693,0.000348624,0.0018351,-0.000736249,1.4335,0.00152909,0.0109821,1588,442,2.69364,3.46883
371,582,2.68066,-3.38147,-0.000427046,0.0018022,0.000761107,0.00203727,-0.000662115,1.27124,0.0016245,0.0147676,1595,442,2.6807,3.38148
378,582,2.66357,-3.31412,-0.000300271,0.0018672,0.00108406,0.00231633,-0.000749398,1.17802,0.00184545,0.0158265,1602,442,2.66357,3.31412
385,582,2.66541,-3.22986,-0.000120968,0.00194539,0.00141731,0.00266613,-0.000841705,1.10035,0.00211458,0.0111136,1609,442,2.66543,3.22985
392,582,2.6593,-3.14032,7.62881e-05,0.00217936,0.00191127,0.00330926,-0.00105361,1.03689,0.00262873,0.00948002,1616,442,2.65935,3.14033
399,582,2.6532,-3.05225,-1.60722e-06,0.00276986,0.00235166,0.00411369,-0.00134544,1.05164,0.00328413,0.0112811,1623,442,2.65322,3.05225
406,582,2.64087,-2.93994,-0.000148068,0.00348758,0.00243377,0.00470747,-0.00136796,1.10616,0.00368005,0.0164674,1630,442,2.64088,2.93996
413,582,2.73254,-2.79962,0.00118948,0.00258067,0.000806119,0.00294982,0.000820328,1.14136,0.0017581,0.028223,1637,442,2.73248,2.79962
420,582,2.75671,-2.7739,0.00200955,0.00250158,-0.00033462,0.00267089,0.00184024,-1.10238,0.00157833,0.0354012,1644,442,2.75672,2.77389
427,582,2.63782,-2.69626,0.00336177,0.00225876,-0.0019931,0.00487826,0.000742268,-0.650421,0.00303516,0.0361351,1651,442,2.63787,2.69624
434,582,2.58386,-2.6012,0.00530927,0.00185913,-0.00461356,0.00850973,-0.00134133,-0.606489,0.00616906,0.0493222,1658,442,2.58391,2.60119
441,582,2.6084,-2.53632,0,0,0,0,0,0,0,-1,1665,442,2.60836,2.53632
448,582,2.2915,-1.84406,0,0,0,0,0,0,0,-1,1672,442,2.29152,1.84404
455,582,2.34814,-1.86688,0,0,0,0,0,0,0,-1,1679,442,2.34818,1.86687
462,582,2.60632,-3.0159,0,0,0,0,0,0,0,-1,1686,442,2.60634,3.0159
469,582,2.87708,-4.01364,0,0,0,0,0,0,0,-1,1693,442,2.87704,4.01363
476,582,3.4502,-2.64041,0,0,0,0,0,0,0,-1,1700,442,3.45022,2.64043
483,582,0,0,0,0,0,0,0,0,0,-1,1707,442,0,0
490,582,0,0,0,0,0,0,0,0,0,-1,1714,442,0,0
497,582,0,0,0,0,0,0,0,0,0,-1,1721,442,0,0
504,582,0,0,0,0,0,0,0,0,0,-1,1728,442,0,0
511,582,0,0,0,0,0,0,0,0,0,-1,1735,442,0,0
518,582,0,0,0,0,0,0,0,0,0,-1,1742,442,0,0
525,582,0,0,0,0,0,0,0,0,0,-1,1749,442,0,0
532,582,0,0,0,0,0,0,0,0,0,-1,1756,442,0,0
539,582,0,0,0,0,0,0,0,0,0,-1,1763,442,0,0
546,582,0,0,0,0,0,0,0,0,0,-1,1770,442,0,0
553,582,0,0,0,0,0,0,0,0,0,-1,1777,442,0,0
560,582,0,0,0,0,0,0,0,0,0,-1,1784,442,0,0
567,582,0,0,0,0,0,0,0,0,0,-1,1791,442,0,0
574,582,0,0,0,0,0,0,0,0,0,-1,1798,442,0,0
581,582,0,0,0,0,0,0,0,0,0,-1,1805,442,0,0
588,582,0,0,0,0,0,0,0,0,0,-1,1812,442,0,0
595,582,0,0,0,0,0,0,0,0,0,-1,1819,442,0,0
602,582,0,0,0,0,0,0,0,0,0,-1,1826,442,0,0
609,582,0,0,0,0,0,0,0,0,0,-1,1833,442,0,0
616,582,0,0,0,0,0,0,0,0,0,-1,1840,442,0,0
623,582,0,0,0,0,0,0,0,0,0,-1,1847,442,0,0
630,582,0,0,0,0,0,0,0,0,0,-1,1854,442,0,0
637,582,0,0,0,0,0,0,0,0,0,-1,1861,442,0,0
644,582,0,0,0,0,0,0,0,0,0,-1,1868,442,0,0
651,582,0,0,0,0,0,0,0,0,0,-1,1875,442,0,0
658,582,0,0,0,0,0,0,0,0,0,-1,1882,442,0,0
665,582,0,0,0,0,0,0,0,0,0,-1,1889,442,0,0
672,582,0,0,0,0,0,0,0,0,0,-1,1896,442,0,0
679,582,0,0,0,0,0,0,0,0,0,-1,1903,442,0,0
686,582,0,0,0,0,0,0,0,0,0,-1,1910,442,0,0
693,582,0,0,0,0,0,0,0,0,0,-1,1917,442,0,0
700,582,0,0,0,0,0,0,0,0,0,-1,1924,442,0,0
707,582,0,0,0,0,0,0,0,0,0,-1,1931,442,0,0
714,582,0,0,0,0,0,0,0,0,0,-1,1938,442,0,0
721,582,0,0,0,0,0,0,0,0,0,-1,1945,442,0,0
728,582,0,0,0,0,0,0,0,0,0,-1,1952,442,0,0
735,582,0,0,0,0,0,0,0,0,0,-1,1959,442,0,0
742,582,0,0,0,0,0,0,0,0,0,-1,1966,442,0,0
749,582,0,0,0,0,0,0,0,0,0,-1,1973,442,0,0
756,582,0,0,0,0,0,0,0,0,0,-1,1980,442,0,0
763,582,0,0,0,0,0,0,0,0,0,-1,1987,442,0,0
770,582,0,0,0,0,0,0,0,0,0,-1,1994,442,0,0
777,582,0,0,0,0,0,0,0,0,0,-1,2001,442,0,0
784,582,0,0,0,0,0,0,0,0,0,-1,2008,442,0,0
791,582,0,0,0,0,0,0,0,0,0,-1,2015,442,0,0
798,582,0,0,0,0,0,0,0,0,0,-1,2022,442,0,0
805,582,0,0,0,0,0,0,0,0,0,-1,2029,442,0,0
812,582,0,0,0,0,0,0,0,0,0,-1,2036,442,0,0
-700,575,0,0,0,0,0,0,0,0,0,-1,524,449,0,0
-693,575,0,0,0,0,0,0,0,0,0,-1,531,449,0,0
-686,575,0,0,0,0,0,0,0,0,0,-1,538,449,0,0
-679,575,0,0,0,0,0,0,0,0,0,-1,545,449,0,0
-672,575,0,0,0,0,0,0,0,0,0,-1,552,449,0,0
-665,575,0,0,0,0,0,0,0,0,0,-1,559,449,0,0
-658,575,0,0,0,0,0,0,0,0,0,-1,566,449,0,0
-651,575,0,0,0,0,0,0,0,0,0,-1,573,449,0,0
-644,575,0,0,0,0,0,0,0,0,0,-1,580,449,0,0
-637,575,0,0,0,0,0,0,0,0,0,-1,587,449,0,0
-630,575,0,0,0,0,0,0,0,0,0,-1,594,449,0,0
-623,575,0,0,0,0,0,0,0,0,0,-1,601,449,0,0
-616,575,0,0,0,0,0,0,0,0,0,-1,608,449,0,0
-609,575,0,0,0,0,0,0,0,0,0,-1,615,449,0,0
-602,575,0,0,0,0,0,0,0,0,0,-1,622,449,0,0
-595,575,0,0,0,0,0,0,0,0,0,-1,629,449,0,0
-588,575,0,0,0,0,0,0,0,0,0,-1,636,449,0,0
-581,575,0,0,0,0,0,0,0,0,0,-1,643,449,0,0
-574,575,0,0,0,0,0,0,0,0,0,-1,650,449,0,0
-567,575,0,0,0,0,0,0,0,0,0,-1,657,449,0,0
-560,575,0,0,0,0,0,0,0,0,0,-1,664,449,0,0
-553,575,0,0,0,0,0,0,0,0,0,-1,671,449,0,0
-546,575,0,0,0,0,0,0,0,0,0,-1,678,449,0,0
-539,575,0,0,0,0,0,0,0,0,0,-1,685,449,0,0
-532,575,0,0,0,0,0,0,0,0,0,-1,692,449,0,0
-525,575,0,0,0,0,0,0,0,0,0,-1,699,449,0,0
-518,575,0,0,0,0,0,0,0,0,0,-1,706,449,0,0
-511,575,0,0,0,0,0,0,0,0,0,-1,713,449,0,0
-504,575,0,0,0,0,0,0,0,0,0,-1,720,449,0,0
-497,575,0,0,0,0,0,0,0,0,0,-1,727,449,0,0
-490,575,0,0,0,0,0,0,0,0,0,-1,734,449,0,0
-483,575,0,0,0,0,0,0,0,0,0,-1,741,449,0,0
-476,575,0,0,0,0,0,0,0,0,0,-1,748,449,0,0
-469,575,0,0,0,0,0,0,0,0,0,-1,755,449,0,0
-462,575,0,0,0,0,0,0,0,0,0,-1,762,449,0,0
-455,575,0,0,0,0,0,0,0,0,0,-1,769,449,0,0
-448,575,0,0,0,0,0,0,0,0,0,-1,776,449,0,0
-441,575,0,0,0,0,0,0,0,0,0,-1,783,449,0,0
-434,575,0,0,0,0,0,0,0,0,0,-1,790,449,0,0
-427,575,0,0,0,0,0,0,0,0,0,-1,797,449,0,0
-420,575,0,0,0,0,0,0,0,0,0,-1,804,449,0,0
-413,575,0,0,0,0,0,0,0,0,0,-1,811,449,0,0
-406,575,0,0,0,0,0,0,0,0,0,-1,818,449,0,0
-399,575,0,0,0,0,0,0,0,0,0,-1,825,449,0,0
-392,575,0,0,0,0,0,0,0,0,0,-1,832,449,0,0
-385,575,0,0,0,0,0,0,0,0,0,-1,839,449,0,0
-378,575,0,0,0,0,0,0,0,0,0,-1,846,449,0,0
-371,575,7.11908,1.93396,0,0,0,0,0,0,0,-1,853,449,7.11908,-1.93397
-364,575,6.76569,0.701233,-0.041699,-0.0262045,-0.160056,0.126291,-0.194195,-0.809581,0.186412,0.0456673,860,449,6.76568,-0.701236
-357,575,6.33093,-0.444946,-0.0390459,-0.0363333,-0.133656,0.0959736,-0.171353,-0.790472,0.156373,0.0460122,867,449,6.33091,0.444938
-350,575,5.57928,-1.62518,-0.0344244,-0.0436122,-0.104746,0.0658285,-0.143865,-0.763484,0.12383,0.0469716,874,449,5.57926,1.62517
-343,575,4.00647,-2.25958,0,0,0,0,0,0,0,-1,881,449,4.00647,2.25958
-336,575,2.43066,-3.17538,0,0,0,0,0,0,0,-1,888,449,2.43068,3.1754
-329,575,2.09668,-3.26178,-0.0177489,-0.0487632,-0.0318617,0.00217892,-0.068691,-0.558922,0.0465373,0.0493134,895,449,2.09666,3.26178
-322,575,1.73102,-3.36588,-0.0127016,-0.0455915,-0.0161685,-0.00608447,-0.0522086,-0.388461,0.0329653,0.045637,902,449,1.73103,3.36588
-315,575,1.26599,-2.58664,0,0,0,0,0,0,0,-1,909,449,1.26598,2.58663
-308,575,1.65735,-2.73157,0,0,0,0,0,0,0,-1,916,449,1.65733,2.73157
-301,575,1.86694,-3.12177,-0.00316451,-0.0299591,0.00938773,-0.000202803,-0.0329208,0.305604,0.0218799,0.0318167,923,449,1.86692,3.12176
-294,575,1.87384,-3.19809,-0.000693305,-0.0238871,0.0117609,0.00422667,-0.028807,0.39621,0.0207575,0.0226944,930,449,1.87384,3.1981
-287,575,1.87744,-3.25528,0.000180864,-0.0179947,0.0105027,0.00498173,-0.0227956,0.428749,0.0171012,0.0157064,937,449,1.87742,3.25528
-280,575,1.87036,-3.32242,4.77821e-05,-0.0128115,0.00778865,0.00371781,-0.0164815,0.440345,0.0124139,0.0122777,944,449,1.87038,3.3224
-273,575,1.86591,-3.4118,0.000223186,-0.00715944,0.00571818,0.003338,-0.0102743,0.498781,0.00819208,0.01104,951,449,1.86589,3.41181
-266,575,1.87659,-3.50772,0.000102857,-0.00419611,0.00336749,0.0019484,-0.00604165,0.501343,0.00481061,0.0117827,958,449,1.87658,3.50772
-259,575,1.85968,-3.58902,-0.000232939,-0.00194477,0.00152777,0.000662337,-0.00284004,0.530063,0.00214845,0.0119152,965,449,1.85967,3.58901
-252,575,1.83044,-3.66531,-0.000423604,-0.000768047,0.000460336,-0.000104328,-0.00108732,0.606398,0.00069273,0.0107575,972,449,1.83047,3.66532
-245,575,1.83838,-3.72525,-0.000489115,-8.99159e-05,-0.000284646,5.81389e-05,-0.000637169,-1.09117,0.000445426,0.0132511,979,449,1.83837,3.72524
-238,575,1.83856,-3.78528,-0.000144428,0.000105841,-0.000760466,0.000751399,-0.000789986,-0.866942,0.000890012,0.0134684,986,449,1.83855,3.78527
-231,575,1.84344,-3.86414,0.000115168,-7.56875e-05,-0.000384928,0.00041632,-0.00037684,-0.663893,0.00045812,0.0116384,993,449,1.84347,3.86414
-224,575,1.84424,-3.95062,0.000288298,-0.000134215,-0.000139358,0.000330122,-0.00017604,-0.291568,0.000296712,0.0118038,1000,449,1.84422,3.95063
-217,575,1.84296,-4.01373,0.000617282,-7.8902e-05,3.87751e-05,0.000619435,-8.1055e-05,0.0554679,0.000442457,0.0102019,1007,449,1.84296,4.01373
-210,575,1.86865,-4.06842,0.00101051,1.18651e-05,0.000173841,0.0010399,-1.75313e-05,0.167515,0.000699186,0.00894918,1014,449,1.86868,4.06843
-203,575,1.87622,-4.13593,0.00136542,0.000592737,0.000508332,0.00161756,0.000340594,0.460459,0.000984676,0.0109422,1021,449,1.87625,4.13591
-196,575,1.87817,-4.19168,0.00177583,0.00126277,0.00123628,0.00278192,0.000256689,0.683099,0.00177524,0.0127209,1028,449,1.87822,4.19167
-189,575,1.85962,-4.25629,0.00228725,0.00206126,0.00161565,0.00379385,0.000554654,0.750486,0.00236612,0.0131584,1035,449,1.85958,4.2563
-182,575,1.8656,-4.32895,0.0027138,0.00327066,0.00200434,0.00501581,0.000968641,0.854413,0.00307232,0.0122702,1042,449,1.86561,4.32896
-175,575,1.88232,-4.38638,0.00341501,0.00391107,0.00222391,0.00590074,0.00142534,0.840934,0.00355526,0.0110405,1049,449,1.88233,4.38638
-168,575,1.88232,-4.44946,0.00419687,0.00374796,0.00226139,0.00624492,0.00169991,0.735932,0.00372815,0.0103542,1056,449,1.88227,4.44947
-161,575,1.88062,-4.50955,0.00474586,0.00326291,0.00208075,0.0062133,0.00179547,0.614239,0.00369221,0.0134693,1063,449,1.88066,4.50954
-154,575,1.88257,-4.55554,0.00527918,0.00250914,0.00169304,0.00608155,0.00170677,0.442569,0.00362206,0.0144856,1070,449,1.88256,4.55554
-147,575,1.88879,-4.57214,0.00604019,0.00129063,0.00144746,0.00644655,0.000884267,0.273693,0.00403537,0.0136416,1077,449,1.88881,4.57214
-140,575,1.87109,-4.58362,0.00695494,-0.00058843,0.000713752,0.00702188,-0.000655371,0.093514,0.0049143,0.0209501,1084,449,1.87113,4.58363
-133,575,1.91309,-4.67523,0.00726888,-0.00316159,-0.000553612,0.00729819,-0.00319089,-0.0528783,0.00620871,0.0320508,1091,449,1.91303,4.67523
-126,575,1.86646,-4.61481,0.00703397,-0.00542356,-0.00204331,0.00736056,-0.00575015,-0.158492,0.00758848,0.0358319,1098,449,1.86647,4.6148
-119,575,1.7832,-4.43506,0.00703271,-0.00824384,-0.00341972,0.00776329,-0.00897442,-0.210473,0.00967195,0.0375783,1105,449,1.78326,4.43505
-112,575,1.61084,-4.5575,0.00727842,-0.0107917,-0.00500037,0.00856983,-0.0120831,-0.252741,0.0119813,0.0429479,1112,449,1.61085,4.55748
-105,575,1.44409,-4.73715,0.00718501,-0.0124319,-0.00667846,0.00924279,-0.0144897,-0.298891,0.0138131,0.0439688,1119,449,1.44408,4.73715
-98,575,1.34924,-4.70871,0.00692117,-0.0135228,-0.00869307,0.0101178,-0.0167194,-0.352372,0.0156499,0.0455202,1126,449,1.34924,4.70871
-91,575,1.3584,-4.71643,0,0,0,0,0,0,0,-1,1133,449,1.35834,4.71643
-84,575,2.36816,-4.8732,0,0,0,0,0,0,0,-1,1140,449,2.36817,4.8732
-77,575,1.68909,-5.71152,0,0,0,0,0,0,0,-1,1147,449,1.68913,5.71152
-70,575,0.34436,-4.61652,0,0,0,0,0,0,0,-1,1154,449,0.344417,4.61652
-63,575,-2.47046,-4.48483,0,0,0,0,0,0,0,-1,1161,449,-2.47047,4.48483
-56,575,-3.30078,-7.13327,0,0,0,0,0,0,0,-1,1168,449,-3.30081,7.13328
-49,575,-4.01001,-9.81332,0,0,0,0,0,0,0,-1,1175,449,-4.01003,9.81333
-42,575,-0.830322,0.773499,0,0,0,0,0,0,0,-1,1182,449,-0.83038,-0.77351
-35,575,-0.62085,0.205139,0,0,0,0,0,0,0,-1,1189,449,-0.620855,-0.205126
-28,575,0.49292,-3.87988,0,0,0,0,0,0,0,-1,1196,449,0.492941,3.87989
-21,575,-0.0906982,-4.49985,0,0,0,0,0,0,0,-1,1203,449,-0.0907478,4.49984
-14,575,1.51086,-5.83063,0,0,0,0,0,0,0,-1,1210,449,1.51092,5.83061
-7,575,4.77844,-2.8447,0,0,0,0,0,0,0,-1,1217,449,4.77839,2.8447
0,575,6.39087,-4.26251,0,0,0,0,0,0,0,-1,1224,449,6.39088,4.26253
7,575,6.06714,-4.16275,-0.0401345,-0.0226943,-0.00830239,-0.0193741,-0.0434548,-1.19036,0.0251376,0.0458967,1231,449,6.06712,4.16276
14,575,6.30518,-3.8317,-0.043051,-0.0195877,-0.0110926,-0.0151739,-0.0474649,-1.19209,0.0279916,0.0438173,1238,449,6.30512,3.83168
21,575,5.6366,-4.40594,-0.0453746,-0.0157618,-0.0135957,-0.0104667,-0.0506697,-1.1994,0.0308878,0.0429553,1245,449,5.63661,4.40594
28,575,4.92188,-4.7038,-0.047907,-0.0108646,-0.0164808,-0.00459367,-0.0541779,-1.20721,0.0346889,0.0407426,1252,449,4.9219,4.70378
35,575,4.19019,-5.02917,-0.051046,-0.00476737,-0.0194426,0.00231652,-0.0581299,-1.2214,0.0395481,0.041065,1259,449,4.19017,5.02919
42,575,3.49988,-5.08719,-0.0533263,0.00110422,-0.021651,0.00866591,-0.060888,-1.23479,0.0437675,0.0424316,1266,449,3.49991,5.08719
49,575,2.73645,-5.18054,-0.0535304,0.00672217,-0.0245406,0.0154525,-0.0622607,-1.22901,0.0475033,0.0428763,1273,449,2.73646,5.18055
56,575,2.2135,-5.48254,-0.0490547,0.0106987,-0.0271319,0.0211798,-0.0595359,-1.20215,0.0483233,0.0424822,1280,449,2.21351,5.48255
63,575,1.66772,-5.77097,0,0,0,0,0,0,0,-1,1287,449,1.66767,5.77096
70,575,1.24243,-5.76242,-0.0386791,0.0171805,-0.0330662,0.032534,-0.0540327,-1.13609,0.0504904,0.0425362,1294,449,1.24247,5.76241
77,575,0.65625,-6.07352,-0.0333599,0.0219649,-0.0358089,0.0395517,-0.0509467,-1.11427,0.0523871,0.0433023,1301,449,0.656213,6.07352
84,575,-0.126953,-6.72864,-0.0278469,0.0254555,-0.0375842,0.0448788,-0.0472701,-1.0938,0.0532082,0.0430435,1308,449,-0.126907,6.72863
91,575,6.60913,-7.70953,0,0,0,0,0,0,0,-1,1315,449,6.60909,7.70953
98,575,6.22058,-7.06985,0,0,0,0,0,0,0,-1,1322,449,6.22061,7.06987
105,575,4.703,-5.73355,-0.0134182,0.0360473,-0.0402434,0.0585506,-0.0359215,-1.06093,0.0550626,0.0394843,1329,449,4.70301,5.73354
112,575,5.0061,-5.77667,-0.0103911,0.0401461,-0.0407712,0.062844,-0.033089,-1.06281,0.056268,0.0410347,1336,449,5.00607,5.77666
119,575,5.12646,-5.98755,-0.00963825,0.0454312,-0.040766,0.0670902,-0.0312973,-1.08242,0.0580435,0.0425001,1343,449,5.1265,5.98756
126,575,4.95349,-6.0376,-0.0104531,0.0510741,-0.0397505,0.0705748,-0.0299538,-1.11471,0.0595988,0.0441519,1350,449,4.95345,6.03761
133,575,4.37708,-6.09558,-0.0128027,0.0567727,-0.0378233,0.0733735,-0.0294036,-1.15721,0.0611217,0.0465805,1357,449,4.37704,6.09558
140,575,3.93164,-6.20917,-0.0162326,0.0620952,-0.035352,0.0756909,-0.0298283,-1.20365,0.0628104,0.0473334,1364,449,3.93163,6.20918
147,575,3.80908,-6.07944,-0.0194127,0.0661536,-0.0329357,0.0773627,-0.0306218,-1.24276,0.0642622,0.0483892,1371,449,3.80904,6.07945
154,575,3.65039,-5.96924,0,0,0,0,0,0,0,-1,1378,449,3.65037,5.96924
161,575,3.9231,-6.49512,0,0,0,0,0,0,0,-1,1385,449,3.92312,6.49513
168,575,5.30933,-2.13431,0,0,0,0,0,0,0,-1,1392,449,5.30937,2.13431
175,575,4.32617,1.93634,0,0,0,0,0,0,0,-1,1399,449,4.32612,-1.93634
182,575,6.3147,-2.88345,0,0,0,0,0,0,0,-1,1406,449,6.31466,2.88346
189,575,6.10449,-1.30817,0,0,0,0,0,0,0,-1,1413,449,6.10455,1.30817
196,575,5.79895,0.818359,0,0,0,0,0,0,0,-1,1420,449,5.79895,-0.81837
203,575,3.29724,-1.46378,0,0,0,0,0,0,0,-1,1427,449,3.29722,1.46377
210,575,2.37549,-4.02621,0,0,0,0,0,0,0,-1,1434,449,2.37543,4.02621
217,575,2.91272,-4.89639,0,0,0,0,0,0,0,-1,1441,449,2.91271,4.89639
224,575,2.61218,-4.89188,0,0,0,0,0,0,0,-1,1448,449,2.61222,4.89187
231,575,2.71558,-4.97293,0,0,0,0,0,0,0,-1,1455,449,2.71555,4.97292
238,575,2.19788,-4.32669,0,0,0,0,0,0,0,-1,1462,449,2.19786,4.32668
245,575,2.46448,-4.29388,-0.00500496,-0.0144863,0.0034402,-0.00388825,-0.015603,0.313876,0.00937856,0.0435464,1469,449,2.46453,4.29387
252,575,2.65259,-4.24008,-0.00460807,-0.0142466,0.00299126,-0.00375522,-0.0150995,0.277746,0.00907731,0.0363996,1476,449,2.65264,4.24007
259,575,2.66248,-4.29153,-0.00443238,-0.0134852,0.00163228,-0.00414707,-0.0137705,0.173049,0.00815728,0.0346556,1483,449,2.66247,4.29154
266,575,2.76392,-4.42453,-0.00503646,-0.0115174,3.20423e-05,-0.0050363,-0.0115175,0.00494394,0.00666707,0.0289186,1490,449,2.76393,4.42454
273,575,2.72559,-4.39938,-0.00550895,-0.00952007,-0.00115771,-0.00519879,-0.00983023,-0.261762,0.00567863,0.0198322,1497,449,2.72554,4.39938
280,575,2.72034,-4.32059,-0.0056587,-0.0070453,-0.00249449,-0.00376296,-0.00894104,-0.649853,0.00518362,0.0144552,1504,449,2.72031,4.3206
287,575,2.72095,-4.26166,-0.00567638,-0.00522562,-0.00334276,-0.00210065,-0.00880135,-0.819059,0.00530777,0.0118203,1511,449,2.72101,4.26165
294,575,2.72424,-4.19031,-0.00568047,-0.00334684,-0.00405655,-0.000292631,-0.00873468,-0.925436,0.00572807,0.0104387,1518,449,2.7242,4.1903
301,575,2.73718,-4.13712,-0.00578838,-0.00168093,-0.00454228,0.00125034,-0.00871964,-0.997712,0.00627156,0.00982695,1525,449,2.73723,4.13711
308,575,2.7583,-4.07303,-0.00562946,-0.000325037,-0.00447551,0.0022251,-0.0081796,-1.05288,0.00632657,0.01025,1532,449,2.7583,4.07304
315,575,2.75293,-4.00027,-0.00511425,0.000635125,-0.00442585,0.00303794,-0.00751707,-1.07342,0.00627417,0.0106427,1539,449,2.7529,4.00028
322,575,2.755,-3.92053,-0.00452654,0.00114539,-0.00398527,0.00320075,-0.0065819,-1.09464,0.00575937,0.00969485,1546,449,2.75495,3.92053
329,575,2.75598,-3.87729,-0.00396129,0.00110802,-0.00331423,0.00274572,-0.00559899,-1.11184,0.0049108,0.00983597,1553,449,2.75601,3.87729
336,575,2.74988,-3.80035,-0.0033624,0.00109731,-0.00267927,0.00235324,-0.00461834,-1.13245,0.00409525,0.0113618,1560,449,2.74989,3.80035
343,575,2.75439,-3.68289,-0.00279008,0.00115477,-0.00200924,0.00199793,-0.00363324,-1.17347,0.00329654,0.0117232,1567,449,2.75437,3.68288
350,575,2.75378,-3.61136,-0.00209463,0.00123463,-0.00137557,0.00172944,-0.00258945,-1.22549,0.00250994,0.0108745,1574,449,2.75376,3.61135
357,575,2.75928,-3.55334,-0.00143405,0.00120958,-0.000852575,0.00146069,-0.00168515,-1.28437,0.00181779,0.0109327,1581,449,2.75922,3.55336
364,575,2.75146,-3.47241,-0.000848667,0.00139264,-0.000289248,0.00142936,-0.000885393,-1.4445,0.00134867,0.0108504,1588,449,2.75151,3.4724
371,575,2.7384,-3.40894,-0.000344206,0.00144305,0.000180522,0.0014611,-0.000362257,1.47113,0.00111462,0.0192604,1595,449,2.73843,3.40894
378,575,2.74731,-3.33017,-7.95653e-05,0.00159358,0.000505954,0.00173468,-0.000220665,1.29883,0.00123659,0.0180404,1602,449,2.74735,3.33018
385,575,2.74158,-3.23013,0.000112174,0.00175186,0.000847084,0.00211087,-0.000246836,1.16993,0.00149633,0.0113816,1609,449,2.74163,3.23012
392,575,2.73767,-3.14606,0.00025641,0.00210389,0.00126857,0.0027494,-0.000389107,1.10009,0.00197545,0.00890498,1616,449,2.73767,3.14606
399,575,2.7467,-3.07132,0.000154426,0.00268333,0.00167458,0.00351722,-0.000679471,1.10877,0.00260106,0.00947468,1623,449,2.74673,3.07131
406,575,2.75085,-2.97769,-1.88507e-05,0.00337088,0.00177938,0.00413341,-0.000781375,1.16594,0.00304961,0.0104963,1630,449,2.75082,2.9777
413,575,2.74109,-2.91064,0.00085278,0.00276922,0.000618241,0.00295135,0.000670646,1.2843,0.00178648,0.0110678,1637,449,2.74111,2.91064
420,575,2.73218,-2.80704,0.00130503,0.00278675,-0.000213356,0.00281686,0.00127492,-1.4306,0.00162875,0.0119512,1644,449,2.73213,2.80703
427,575,2.67944,-2.73398,0.00198706,0.00267234,-0.00145468,0.00382419,0.000835212,-0.901062,0.00232168,0.0154454,1651,449,2.6795,2.73398
434,575,2.64844,-2.69214,0.00300847,0.00242947,-0.00318647,0.00591856,-0.000480625,-0.740096,0.00411528,0.0217908,1658,449,2.64845,2.69213
441,575,2.77563,-2.36047,0.0048472,0.00347248,-0.00289803,0.00713827,0.00118141,-0.668959,0.00441801,0.0378303,1665,449,2.77558,2.36046
448,575,2.58289,-2.0441,0.00724755,0.00723134,-0.00117944,0.00841891,0.00605998,-0.781962,0.00501478,0.0491715,1672,449,2.58285,2.04409
455,575,2.51501,-1.98605,0.00991217,0.00954839,-0.000523705,0.0102847,0.00917589,-0.618259,0.00651836,0.0498544,1679,449,2.51506,1.98604
462,575,2.64294,-2.70407,0.013863,0.014297,0.00112341,0.0152241,0.0129358,0.880792,0.00947917,0.0455073,1686,449,2.64293,2.70408
469,575,2.90356,-3.67056,0,0,0,0,0,0,0,-1,1693,449,2.90359,3.67056
476,575,3.16943,-4.586,0,0,0,0,0,0,0,-1,1700,449,3.16946,4.58601
483,575,3.8009,-3.04572,0,0,0,0,0,0,0,-1,1707,449,3.80084,3.04572
490,575,1.47498,0.261841,0,0,0,0,0,0,0,-1,1714,449,1.47496,-0.261852
497,575,0,0,0,0,0,0,0,0,0,-1,1721,449,0,0
504,575,0,0,0,0,0,0,0,0,0,-1,1728,449,0,0
511,575,0,0,0,0,0,0,0,0,0,-1,1735,449,0,0
518,575,0,0,0,0,0,0,0,0,0,-1,1742,449,0,0
525,575,0,0,0,0,0,0,0,0,0,-1,1749,449,0,0
532,575,0,0,0,0,0,0,0,0,0,-1,1756,449,0,0
539,575,0,0,0,0,0,0,0,0,0,-1,1763,449,0,0
546,575,0,0,0,0,0,0,0,0,0,-1,1770,449,0,0
553,575,0,0,0,0,0,0,0,0,0,-1,1777,449,0,0
560,575,0,0,0,0,0,0,0,0,0,-1,1784,449,0,0
567,575,0,0,0,0,0,0,0,0,0,-1,1791,449,0,0
574,575,0,0,0,0,0,0,0,0,0,-1,1798,449,0,0
581,575,0,0,0,0,0,0,0,0,0,-1,1805,449,0,0
588,575,0,0,0,0,0,0,0,0,0,-1,1812,449,0,0
595,575,0,0,0,0,0,0,0,0,0,-1,1819,449,0,0
602,575,0,0,0,0,0,0,0,0,0,-1,1826,449,0,0
609,575,0,0,0,0,0,0,0,0,0,-1,1833,449,0,0
616,575,0,0,0,0,0,0,0,0,0,-1,1840,449,0,0
623,575,0,0,0,0,0,0,0,0,0,-1,1847,449,0,0
630,575,0,0,0,0,0,0,0,0,0,-1,1854,449,0,0
637,575,0,0,0,0,0,0,0,0,0,-1,1861,449,0,0
644,575,0,0,0,0,0,0,0,0,0,-1,1868,449,0,0
651,575,0,0,0,0,0,0,0,0,0,-1,1875,449,0,0
658,575,0,0,0,0,0,0,0,0,0,-1,1882,449,0,0
665,575,0,0,0,0,0,0,0,0,0,-1,1889,449,0,0
672,575,0,0,0,0,0,0,0,0,0,-1,1896,449,0,0
679,575,0,0,0,0,0,0,0,0,0,-1,1903,449,0,0
686,575,0,0,0,0,0,0,0,0,0,-1,1910,449,0,0
693,575,0,0,0,0,0,0,0,0,0,-1,1917,449,0,0
700,575,0,0,0,0,0,0,0,0,0,-1,1924,449,0,0
707,575,0,0,0,0,0,0,0,0,0,-1,1931,449,0,0
714,575,0,0,0,0,0,0,0,0,0,-1,1938,449,0,0
721,575,0,0,0,0,0,0,0,0,0,-1,1945,449,0,0
728,575,0,0,0,0,0,0,0,0,0,-1,1952,449,0,0
735,575,0,0,0,0,0,0,0,0,0,-1,1959,449,0,0
742,575,0,0,0,0,0,0,0,0,0,-1,1966,449,0,0
749,575,0,0,0,0,0,0,0,0,0,-1,1973,449,0,0
756,575,0,0,0,0,0,0,0,0,0,-1,1980,449,0,0
763,575,0,0,0,0,0,0,0,0,0,-1,1987,449,0,0
770,575,0,0,0,0,0,0,0,0,0,-1,1994,449,0,0
777,575,0,0,0,0,0,0,0,0,0,-1,2001,449,0,0
784,575,0,0,0,0,0,0,0,0,0,-1,2008,449,0,0
791,575,0,0,0,0,0,0,0,0,0,-1,2015,449,0,0
798,575,0,0,0,0,0,0,0,0,0,-1,2022,449,0,0
805,575,0,0,0,0,0,0,0,0,0,-1,2029,449,0,0
812,575,0,0,0,0,0,0,0,0,0,-1,2036,449,0,0
-700,568,0,0,0,0,0,0,0,0,0,-1,524,456,0,0
-693,568,0,0,0,0,0,0,0,0,0,-1,531,456,0,0
-686,568,0,0,0,0,0,0,0,0,0,-1,538,456,0,0
-679,568,0,0,0,0,0,0,0,0,0,-1,545,456,0,0
-672,568,0,0,0,0,0,0,0,0,0,-1,552,456,0,0
-665,568,0,0,0,0,0,0,0,0,0,-1,559,456,0,0
-658,568,0,0,0,0,0,0,0,0,0,-1,566,456,0,0
-651,568,0,0,0,0,0,0,0,0,0,-1,573,456,0,0
-644,568,0,0,0,0,0,0,0,0,0,-1,580,456,0,0
-637,568,0,0,0,0,0,0,0,0,0,-1,587,456,0,0
-630,568,0,0,0,0,0,0,0,0,0,-1,594,456,0,0
-623,568,0,0,0,0,0,0,0,0,0,-1,601,456,0,0
-616,568,0,0,0,0,0,0,0,0,0,-1,608,456,0,0
-609,568,0,0,0,0,0,0,0,0,0,-1,615,456,0,0
-602,568,0,0,0,0,0,0,0,0,0,-1,622,456,0,0
-595,568,0,0,0,0,0,0,0,0,0,-1,629,456,0,0
-588,568,0,0,0,0,0,0,0,0,0,-1,636,456,0,0
-581,568,0,0,0,0,0,0,0,0,0,-1,643,456,0,0
-574,568,0,0,0,0,0,0,0,0,0,-1,650,456,0,0
-567,568,0,0,0,0,0,0,0,0,0,-1,657,456,0,0
-560,568,0,0,0,0,0,0,0,0,0,-1,664,456,0,0
-553,568,0,0,0,0,0,0,0,0,0,-1,671,456,0,0
-546,568,0,0,0,0,0,0,0,0,0,-1,678,456,0,0
-539,568,0,0,0,0,0,0,0,0,0,-1,685,456,0,0
-532,568,0,0,0,0,0,0,0,0,0,-1,692,456,0,0
-525,568,0,0,0,0,0,0,0,0,0,-1,699,456,0,0
-518,568,0,0,0,0,0,0,0,0,0,-1,706,456,0,0
-511,568,0,0,0,0,0,0,0,0,0,-1,713,456,0,0
-504,568,0,0,0,0,0,0,0,0,0,-1,720,456,0,0
-497,568,0,0,0,0,0,0,0,0,0,-1,727,456,0,0
-490,568,0,0,0,0,0,0,0,0,0,-1,734,456,0,0
-483,568,0,0,0,0,0,0,0,0,0,-1,741,456,0,0
-476,568,0,0,0,0,0,0,0,0,0,-1,748,456,0,0
-469,568,0,0,0,0,0,0,0,0,0,-1,755,456,0,0
-462,568,0,0,0,0,0,0,0,0,0,-1,762,456,0,0
-455,568,0,0,0,0,0,0,0,0,0,-1,769,456,0,0
-448,568,0,0,0,0,0,0,0,0,0,-1,776,456,0,0
-441,568,0,0,0,0,0,0,0,0,0,-1,783,456,0,0
-434,568,0,0,0,0,0,0,0,0,0,-1,790,456,0,0
-427,568,0,0,0,0,0,0,0,0,0,-1,797,456,0,0
-420,568,0,0,0,0,0,0,0,0,0,-1,804,456,0,0
-413,568,0,0,0,0,0,0,0,0,0,-1,811,456,0,0
-406,568,0,0,0,0,0,0,0,0,0,-1,818,456,0,0
-399,568,0,0,0,0,0,0,0,0,0,-1,825,456,0,0
-392,568,0,0,0,0,0,0,0,0,0,-1,832,456,0,0
-385,568,0,0,0,0,0,0,0,0,0,-1,839,456,0,0
-378,568,9.10223,3.41309,0,0,0,0,0,0,0,-1,846,456,9.10221,-3.41307
-371,568,8.73132,2.26819,-0.0290695,-0.00130108,-0.143973,0.129456,-0.159826,-0.833468,0.167324,0.0490388,853,456,8.7313,-2.2682
-364,568,8.45947,1.08051,-0.0290233,-0.0140404,-0.127512,0.1062,-0.149264,-0.81474,0.148189,0.045583,860,456,8.4595,-1.08051
-357,568,8.33801,-0.295349,-0.028073,-0.0245096,-0.108733,0.0824559,-0.135039,-0.793591,0.126788,0.0442036,867,456,8.33801,0.295358
-350,568,7.41046,-1.40714,-0.0254793,-0.0316749,-0.086965,0.058443,-0.115597,-0.767595,0.102272,0.0490404,874,456,7.41046,1.40712
-343,568,2.6842,-2.37466,0,0,0,0,0,0,0,-1,881,456,2.6842,2.37467
-336,568,2.53925,-2.62619,0,0,0,0,0,0,0,-1,888,456,2.53926,2.62618
-329,568,1.86859,-3.0303,0,0,0,0,0,0,0,-1,895,456,1.86857,3.03031
-322,568,1.77899,-3.17627,-0.0100648,-0.0348258,-0.0154937,-0.00261267,-0.0422779,-0.448312,0.027356,0.0420097,902,456,1.77897,3.17628
-315,568,1.63,-3.21426,-0.00717514,-0.0311081,-0.00528503,-0.00606003,-0.0322233,-0.207945,0.0197742,0.0356434,909,456,1.63001,3.21427
-308,568,1.78485,-3.03006,-0.00480563,-0.027188,0.00210152,-0.00461003,-0.0273836,0.0928111,0.0169296,0.0246411,916,456,1.78483,3.03007
-301,568,1.79767,-3.10205,-0.00270837,-0.0227727,0.00625703,-0.000917047,-0.024564,0.278831,0.016079,0.0135817,923,456,1.79767,3.10205
-294,568,1.79651,-3.16019,-0.000703477,-0.0180631,0.00834087,0.00265453,-0.0214211,0.382743,0.0152429,0.0106763,930,456,1.7965,3.16018
-287,568,1.79858,-3.25092,3.40258e-05,-0.0135571,0.00743847,0.0033137,-0.0168368,0.415267,0.0124766,0.00983648,937,456,1.79859,3.25092
-280,568,1.79297,-3.3389,5.59371e-05,-0.00961428,0.00551051,0.00255185,-0.0121102,0.425294,0.00904488,0.0105995,944,456,1.79294,3.3389
-273,568,1.78931,-3.41876,0.000309995,-0.00528396,0.0040477,0.00243308,-0.00740704,0.483067,0.00591818,0.0116662,951,456,1.78928,3.41875
-266,568,1.79279,-3.50616,0.000293859,-0.00296943,0.00240685,0.00156999,-0.00424556,0.487522,0.00347404,0.0115806,958,456,1.79277,3.50615
-259,568,1.79016,-3.58777,3.28019e-05,-0.0012301,0.00114116,0.000705563,-0.00190286,0.532695,0.00155796,0.0127971,965,456,1.79017,3.58778
-252,568,1.77307,-3.65833,-0.000182529,-0.000432316,0.000401788,0.000113329,-0.000728174,0.634711,0.000527301,0.0120888,972,456,1.77307,3.65831
-245,568,1.77307,-3.72284,-0.000366466,-2.17089e-06,-9.17072e-05,1.96128e-05,-0.000388249,-1.33758,0.000265612,0.0133036,979,456,1.77305,3.72285
-238,568,1.7771,-3.78418,-0.000192696,6.03537e-05,-0.000340757,0.000297318,-0.00042966,-0.963161,0.000422033,0.0122202,986,456,1.7771,3.78418
-231,568,1.78107,-3.85739,0.000120716,-0.000164767,3.98039e-05,0.000126162,-0.000170213,0.135972,0.000171741,0.0106762,993,456,1.78108,3.85739
-224,568,1.77356,-3.93829,0.000464342,-0.000220056,0.000249714,0.000545767,-0.000301481,0.315202,0.00049589,0.0125511,1000,456,1.77358,3.9383
-217,568,1.78168,-4.00906,0.000869298,-0.000159617,0.000410823,0.0010132,-0.000303523,0.33693,0.000796168,0.0109629,1007,456,1.78165,4.00906
-210,568,1.77753,-4.07605,0.00138019,-6.33905e-05,0.000527639,0.00155248,-0.000235683,0.31562,0.00112183,0.0108173,1014,456,1.77754,4.07606
-203,568,1.78424,-4.13989,0.00187075,0.000632784,0.000928963,0.00236806,0.000135473,0.491518,0.00153554,0.00948399,1021,456,1.78422,4.1399
-196,568,1.79797,-4.18555,0.00246801,0.00143578,0.00191706,0.00393721,-3.34184e-05,0.653904,0.00263602,0.0114271,1028,456,1.798,4.18555
-189,568,1.81018,-4.23596,0.00324118,0.00241924,0.00244967,0.00531411,0.000346306,0.702289,0.00343313,0.0114525,1035,456,1.81013,4.23597
-182,568,1.80432,-4.30701,0.00392899,0.00395235,0.00306739,0.00700808,0.000873258,0.787302,0.00440988,0.0136424,1042,456,1.80437,4.30699
-175,568,1.81311,-4.38309,0.00501901,0.00479486,0.00339306,0.00830185,0.00151203,0.768889,0.00510574,0.0119101,1049,456,1.81313,4.3831
-168,568,1.82397,-4.43079,0.00626308,0.00461452,0.00343928,0.00897547,0.00190213,0.667784,0.00546116,0.0150305,1056,456,1.82396,4.43077
-161,568,1.8125,-4.48404,0.00721674,0.00407178,0.00318716,0.00919822,0.00209029,0.556229,0.00556775,0.0217332,1063,456,1.81245,4.48403
-154,568,1.82739,-4.60294,0.00815629,0.00321559,0.00264118,0.00930235,0.00206952,0.409403,0.00563975,0.0283544,1070,456,1.82744,4.60293
-147,568,1.80591,-4.64627,0.009404,0.00179208,0.00216647,0.00997741,0.00121867,0.258744,0.00628489,0.0337903,1077,456,1.80586,4.64627
-140,568,1.81348,-4.72659,0.0108871,-0.000555138,0.000999604,0.0109737,-0.000641808,0.0864882,0.00753886,0.0400809,1084,456,1.81353,4.7266
-133,568,1.78882,-5.1756,0.0114541,-0.00392949,-0.000896987,0.0115062,-0.00398161,-0.0580459,0.00928702,0.043164,1091,456,1.78885,5.1756
-126,568,1.72485,-4.43182,0,0,0,0,0,0,0,-1,1098,456,1.72491,4.43184
-119,568,1.54663,-4.01373,0.0114594,-0.0109332,-0.00524543,0.0126272,-0.012101,-0.219064,0.0142779,0.0497263,1105,456,1.5466,4.01373
-112,568,1.7019,-4.11487,0.0120698,-0.0145099,-0.00767589,0.0141273,-0.0165673,-0.261884,0.0177402,0.048119,1112,456,1.70187,4.11487
-105,568,1.66138,-4.50061,0.0121913,-0.0169558,-0.0102277,0.0154221,-0.0201866,-0.305965,0.0206199,0.0467202,1119,456,1.66139,4.50061
-98,568,1.8446,-4.67645,0,0,0,0,0,0,0,-1,1126,456,1.84466,4.67644
-91,568,2.40723,-4.1507,0,0,0,0,0,0,0,-1,1133,456,2.40726,4.1507
-84,568,2.5575,-3.91891,0,0,0,0,0,0,0,-1,1140,456,2.55747,3.91891
-77,568,2.33936,-3.99716,0,0,0,0,0,0,0,-1,1147,456,2.3394,3.99716
-70,568,-0.269165,-4.77054,0,0,0,0,0,0,0,-1,1154,456,-0.269147,4.77055
-63,568,-2.21362,-4.18729,0,0,0,0,0,0,0,-1,1161,456,-2.21362,4.1873
-56,568,-3.10315,-6.87314,0,0,0,0,0,0,0,-1,1168,456,-3.10316,6.87315
-49,568,-1.05188,-7.59601,0,0,0,0,0,0,0,-1,1175,456,-1.05193,7.59599
-42,568,-0.664795,0.521973,0,0,0,0,0,0,0,-1,1182,456,-0.664829,-0.521984
-35,568,-0.153076,-1.67731,0,0,0,0,0,0,0,-1,1189,456,-0.153068,1.67731
-28,568,1.25439,-4.48798,0,0,0,0,0,0,0,-1,1196,456,1.2544,4.48797
-21,568,6.09729,-1.56949,0,0,0,0,0,0,0,-1,1203,456,6.09725,1.56949
-14,568,5.32117,-2.1713,0,0,0,0,0,0,0,-1,1210,456,5.32113,2.1713
-7,568,-3.27454,-7.27118,0,0,0,0,0,0,0,-1,1217,456,-3.27451,7.27119
0,568,6.60913,-3.76059,0,0,0,0,0,0,0,-1,1224,456,6.60909,3.76058
7,568,6.12805,-3.83136,-0.049516,-0.0323523,-0.00742804,-0.0295841,-0.0522842,-1.21407,0.0302734,0.0462831,1231,456,6.12803,3.83137
14,568,5.62671,-4.02502,-0.0530893,-0.0278621,-0.0112115,-0.0235996,-0.0573517,-1.20749,0.0332845,0.0452116,1238,456,5.62669,4.02503
21,568,5.12524,-4.32507,-0.0557649,-0.0224608,-0.0145564,-0.0169954,-0.0612302,-1.21162,0.0364987,0.0436851,1245,456,5.12521,4.32506
28,568,4.70178,-4.61771,-0.0585342,-0.0155814,-0.0185935,-0.00865093,-0.0654647,-1.21401,0.0410644,0.0417357,1252,456,4.70177,4.61772
35,568,4.22339,-4.93036,-0.0620618,-0.00700999,-0.0228566,0.0012426,-0.0703144,-1.2243,0.0472959,0.0398504,1259,456,4.2234,4.93037
42,568,3.53186,-5.14935,-0.0647661,0.00140837,-0.026435,0.0106717,-0.0740295,-1.23375,0.0532678,0.0422415,1266,456,3.53186,5.14934
49,568,3.05383,-5.44516,-0.0650331,0.0091318,-0.0305778,0.0201129,-0.0760142,-1.22602,0.0585437,0.044129,1273,456,3.05387,5.44515
56,568,2.50085,-5.7717,-0.0589344,0.0145133,-0.0342884,0.0280322,-0.0724534,-1.19524,0.0598751,0.0450249,1280,456,2.50084,5.77169
63,568,2.01147,-6.08829,-0.0517563,0.0185399,-0.0381595,0.0352718,-0.0684882,-1.15757,0.0609205,0.0447344,1287,456,2.01149,6.0883
70,568,1.52722,-6.33081,-0.0454455,0.0226974,-0.042231,0.0428875,-0.0656357,-1.12483,0.0631131,0.0447368,1294,456,1.52725,6.33081
77,568,0.922729,-6.60999,-0.0387944,0.0285037,-0.045463,0.0514157,-0.0617063,-1.10398,0.065401,0.0458432,1301,456,0.922766,6.61
84,568,0.230835,-7.20325,-0.0316329,0.0322972,-0.0473893,0.0574942,-0.05683,-1.08211,0.0660055,0.0458122,1308,456,0.230842,7.20324
91,568,-0.621338,-8.12146,0,0,0,0,0,0,0,-1,1315,456,-0.6213,8.12145
98,568,5.29248,-5.5351,-0.0189767,0.0403859,-0.0488921,0.0679009,-0.0464917,-1.0582,0.0664291,0.0406867,1322,456,5.29243,5.53511
105,568,5.61377,-5.51257,-0.0130104,0.0442451,-0.0496009,0.0728869,-0.0416522,-1.04713,0.0669438,0.0435736,1329,456,5.61372,5.51257
112,568,5.95996,-6.35852,0,0,0,0,0,0,0,-1,1336,456,5.95991,6.35852
119,568,5.83423,-6.30835,-0.00818142,0.055758,-0.049395,0.0826264,-0.0350498,-1.07261,0.0697668,0.0446769,1343,456,5.83419,6.30834
126,568,5.65503,-6.29434,-0.00944715,0.0630942,-0.0478723,0.0868845,-0.0332374,-1.10959,0.0716208,0.0445868,1350,456,5.65502,6.29435
133,568,5.1416,-6.54279,-0.0131091,0.071035,-0.0451641,0.0906869,-0.0327611,-1.16038,0.0738419,0.0460636,1357,456,5.14159,6.54278
140,568,4.41431,-6.70358,-0.0184181,0.0788871,-0.0418302,0.0943971,-0.0339282,-1.21573,0.0767815,0.0478825,1364,456,4.41436,6.70359
147,568,4.17261,-6.14212,-0.0227509,0.0849391,-0.0386483,0.0973736,-0.0351854,-1.25952,0.0792906,0.0453376,1371,456,4.17256,6.14213
154,568,3.70532,-5.69727,0,0,0,0,0,0,0,-1,1378,456,3.70536,5.69725
161,568,9.55701,-8.28436,0,0,0,0,0,0,0,-1,1385,456,9.55706,8.28437
168,568,10.033,-8.54889,0,0,0,0,0,0,0,-1,1392,456,10.033,8.5489
175,568,6.39026,-5.55472,0,0,0,0,0,0,0,-1,1399,456,6.39023,5.55471
182,568,6.35095,-3.63361,0,0,0,0,0,0,0,-1,1406,456,6.35093,3.63359
189,568,6.17493,-1.70911,0,0,0,0,0,0,0,-1,1413,456,6.17497,1.70911
196,568,6.04724,0.200836,0,0,0,0,0,0,0,-1,1420,456,6.04724,-0.200835
203,568,5.9281,2.08649,0,0,0,0,0,0,0,-1,1427,456,5.92812,-2.08648
210,568,1.46216,-2.50446,0,0,0,0,0,0,0,-1,1434,456,1.46219,2.50446
217,568,3.05212,-4.82349,0,0,0,0,0,0,0,-1,1441,456,3.05213,4.82348
224,568,1.82434,-4.63495,0,0,0,0,0,0,0,-1,1448,456,1.82429,4.63496
231,568,2.02234,-4.78796,0,0,0,0,0,0,0,-1,1455,456,2.02238,4.78796
238,568,2.44202,-4.55914,0,0,0,0,0,0,0,-1,1462,456,2.44199,4.55914
245,568,2.45435,-4.10678,0,0,0,0,0,0,0,-1,1469,456,2.45432,4.10677
252,568,2.99548,-3.68317,0,0,0,0,0,0,0,-1,1476,456,2.99546,3.68317
259,568,2.68616,-4.06717,0,0,0,0,0,0,0,-1,1483,456,2.68619,4.06716
266,568,3.35144,-3.77905,0,0,0,0,0,0,0,-1,1490,456,3.35141,3.77906
273,568,2.62549,-4.52805,0,0,0,0,0,0,0,-1,1497,456,2.62548,4.52804
280,568,2.72681,-4.34991,-0.010448,-0.00958951,-0.00229694,-0.00768204,-0.0123554,-0.87777,0.00720357,0.0424047,1504,456,2.72684,4.3499
287,568,2.80627,-4.28937,-0.010206,-0.00688314,-0.00376473,-0.00442953,-0.0126596,-0.993202,0.00741801,0.0265735,1511,456,2.80622,4.28936
294,568,2.83044,-4.21091,-0.00996708,-0.00415817,-0.00503154,-0.00125296,-0.0128723,-1.04716,0.00819586,0.0225768,1518,456,2.83046,4.21092
301,568,2.81311,-4.12738,-0.00982201,-0.00189499,-0.00593538,0.00127859,-0.0129956,-1.07978,0.00911985,0.0169195,1525,456,2.81317,4.12739
308,568,2.82507,-4.05219,-0.00933979,-0.000114379,-0.00605936,0.00288822,-0.0123424,-1.11073,0.00934104,0.0106227,1532,456,2.82508,4.0522
315,568,2.81982,-3.99338,-0.00846902,0.00109153,-0.00634214,0.00425316,-0.0116306,-1.10834,0.00949452,0.0075081,1539,456,2.81983,3.99338
322,568,2.82642,-3.92917,-0.0075355,0.0015955,-0.00601668,0.00458276,-0.0105228,-1.10995,0.00894312,0.00924359,1546,456,2.82647,3.92917
329,568,2.84241,-3.86896,-0.00665326,0.0013231,-0.00520355,0.00389103,-0.00922119,-1.11237,0.00777604,0.00994767,1553,456,2.84244,3.86896
336,568,2.84253,-3.7847,-0.00574073,0.00105961,-0.00443085,0.00324456,-0.00792568,-1.11267,0.00663522,0.0107274,1560,456,2.84257,3.78471
343,568,2.85229,-3.6886,-0.00490481,0.000866817,-0.00361583,0.00260725,-0.00664524,-1.12219,0.00550889,0.011056,1567,456,2.85232,3.6886
350,568,2.84253,-3.63614,-0.0039265,0.000720697,-0.00284667,0.00207169,-0.00527749,-1.12768,0.00437555,0.0097577,1574,456,2.84251,3.63614
357,568,2.82813,-3.57779,-0.00299377,0.00059314,-0.00223061,0.00166187,-0.0040625,-1.12399,0.00340046,0.00909297,1581,456,2.82812,3.57779
364,568,2.83948,-3.48712,-0.00216869,0.000703064,-0.00152596,0.00136249,-0.00282812,-1.16289,0.00246828,0.0114003,1588,456,2.83948,3.48713
371,568,2.81873,-3.38058,-0.00137776,0.000662469,-0.000932491,0.00102445,-0.00173973,-1.20052,0.00161361,0.0209601,1595,456,2.81877,3.38058
378,568,2.83862,-3.30258,-0.000884366,0.000799459,-0.000512987,0.000943434,-0.00102834,-1.29718,0.00113876,0.018639,1602,456,2.83862,3.30257
385,568,2.84473,-3.23602,-0.000560037,0.000948137,-5.1057e-05,0.000949863,-0.000561763,-1.53699,0.000882274,0.00879053,1609,456,2.84475,3.23602
392,568,2.82031,-3.14731,-0.00031055,0.00139685,0.000420247,0.00149468,-0.000408381,1.34208,0.00115686,0.00954944,1616,456,2.82035,3.14731
399,568,2.80518,-3.08359,-0.000278746,0.00196732,0.000889052,0.00227664,-0.00058806,1.23598,0.00174708,0.015881,1623,456,2.80519,3.0836
406,568,2.82751,-3.00238,-0.000319429,0.00264051,0.00110381,0.0030068,-0.000685726,1.25038,0.00226793,0.0148571,1630,456,2.82756,3.00239
413,568,2.82825,-2.91034,0.000322714,0.00229348,0.000371203,0.00236108,0.000255115,1.39066,0.00149628,0.0107991,1637,456,2.82825,2.91034
420,568,2.83032,-2.81631,0.000616355,0.00242619,-0.000158032,0.00243989,0.000602659,-1.48435,0.00146755,0.00886657,1644,456,2.83036,2.81631
427,568,2.81433,-2.70901,0.000991985,0.00244972,-0.000996969,0.00295584,0.000485864,-1.10104,0.00183023,0.0100773,1651,456,2.81429,2.70903
434,568,2.80188,-2.63672,0.0015427,0.00240093,-0.00212104,0.00413583,-0.000192201,-0.885208,0.00282347,0.0126802,1658,456,2.80193,2.63673
441,568,2.87,-2.57263,0.00272768,0.00357396,-0.00146631,0.00467696,0.00162468,-0.92587,0.00274186,0.0202694,1665,456,2.86994,2.57264
448,568,2.77771,-2.276,0.00432262,0.00711393,0.000413157,0.0071738,0.00426275,1.42689,0.00416623,0.0404003,1672,456,2.77775,2.276
455,568,2.64612,-2.10709,0.00607851,0.00939455,0.00147322,0.0099545,0.00551856,1.20757,0.00575855,0.0473861,1679,456,2.64607,2.10709
462,568,2.58594,-1.98233,0.00902981,0.0134204,0.00323485,0.0151345,0.00731569,1.08352,0.00873953,0.0468203,1686,456,2.58592,1.98232
469,568,2.55066,-2.00708,0,0,0,0,0,0,0,-1,1693,456,2.55067,2.00708
476,568,2.74524,-1.98895,0,0,0,0,0,0,0,-1,1700,456,2.74521,1.98894
483,568,1.74609,-1.91055,0,0,0,0,0,0,0,-1,1707,456,1.74611,1.91054
490,568,1.89539,-0.293549,0.0283418,0.0500627,0.0262142,0.0675771,0.0108274,0.981783,0.0419111,0.048148,1714,456,1.89542,0.293546
497,568,1.8114,1.48486,0.0356574,0.064305,0.0339139,0.086796,0.0131665,0.985213,0.0540128,0.0458213,1721,456,1.8114,-1.48486
504,568,0,0,0,0,0,0,0,0,0,-1,1728,456,0,0
511,568,0,0,0,0,0,0,0,0,0,-1,1735,456,0,0
518,568,0,0,0,0,0,0,0,0,0,-1,1742,456,0,0
525,568,0,0,0,0,0,0,0,0,0,-1,1749,456,0,0
532,568,0,0,0,0,0,0,0,0,0,-1,1756,456,0,0
539,568,0,0,0,0,0,0,0,0,0,-1,1763,456,0,0
546,568,0,0,0,0,0,0,0,0,0,-1,1770,456,0,0
553,568,0,0,0,0,0,0,0,0,0,-1,1777,456,0,0
560,568,0,0,0,0,0,0,0,0,0,-1,1784,456,0,0
567,568,0,0,0,0,0,0,0,0,0,-1,1791,456,0,0
574,568,0,0,0,0,0,0,0,0,0,-1,1798,456,0,0
581,568,0,0,0,0,0,0,0,0,0,-1,1805,456,0,0
588,568,0,0,0,0,0,0,0,0,0,-1,1812,456,0,0
595,568,0,0,0,0,0,0,0,0,0,-1,1819,456,0,0
602,568,0,0,0,0,0,0,0,0,0,-1,1826,456,0,0
609,568,0,0,0,0,0,0,0,0,0,-1,1833,456,0,0
616,568,0,0,0,0,0,0,0,0,0,-1,1840,456,0,0
623,568,0,0,0,0,0,0,0,0,0,-1,1847,456,0,0
630,568,0,0,0,0,0,0,0,0,0,-1,1854,456,0,0
637,568,0,0,0,0,0,0,0,0,0,-1,1861,456,0,0
644,568,0,0,0,0,0,0,0,0,0,-1,1868,456,0,0
651,568,0,0,0,0,0,0,0,0,0,-1,1875,456,0,0
658,568,0,0,0,0,0,0,0,0,0,-1,1882,456,0,0
665,568,0,0,0,0,0,0,0,0,0,-1,1889,456,0,0
672,568,0,0,0,0,0,0,0,0,0,-1,1896,456,0,0
679,568,0,0,0,0,0,0,0,0,0,-1,1903,456,0,0
686,568,0,0,0,0,0,0,0,0,0,-1,1910,456,0,0
693,568,0,0,0,0,0,0,0,0,0,-1,1917,456,0,0
700,568,0,0,0,0,0,0,0,0,0,-1,1924,456,0,0
707,568,0,0,0,0,0,0,0,0,0,-1,1931,456,0,0
714,568,0,0,0,0,0,0,0,0,0,-1,1938,456,0,0
721,568,0,0,0,0,0,0,0,0,0,-1,1945,456,0,0
728,568,0,0,0,0,0,0,0,0,0,-1,1952,456,0,0
735,568,0,0,0,0,0,0,0,0,0,-1,1959,456,0,0
742,568,0,0,0,0,0,0,0,0,0,-1,1966,456,0,0
749,568,0,0,0,0,0,0,0,0,0,-1,1973,456,0,0
756,568,0,0,0,0,0,0,0,0,0,-1,1980,456,0,0
763,568,0,0,0,0,0,0,0,0,0,-1,1987,456,0,0
770,568,0,0,0,0,0,0,0,0,0,-1,1994,456,0,0
777,568,0,0,0,0,0,0,0,0,0,-1,2001,456,0,0
784,568,0,0,0,0,0,0,0,0,0,-1,2008,456,0,0
791,568,0,0,0,0,0,0,0,0,0,-1,2015,456,0,0
798,568,0,0,0,0,0,0,0,0,0,-1,2022,456,0,0
805,568,0,0,0,0,0,0,0,0,0,-1,2029,456,0,0
812,568,0,0,0,0,0,0,0,0,0,-1,2036,456,0,0
-700,561,0,0,0,0,0,0,0,0,0,-1,524,463,0,0
-693,561,0,0,0,0,0,0,0,0,0,-1,531,463,0,0
-686,561,0,0,0,0,0,0,0,0,0,-1,538,463,0,0
-679,561,0,0,0,0,0,0,0,0,0,-1,545,463,0,0
-672,561,0,0,0,0,0,0,0,0,0,-1,552,463,0,0
-665,561,0,0,0,0,0,0,0,0,0,-1,559,463,0,0
-658,561,0,0,0,0,0,0,0,0,0,-1,566,463,0,0
-651,561,0,0,0,0,0,0,0,0,0,-1,573,463,0,0
-644,561,0,0,0,0,0,0,0,0,0,-1,580,463,0,0
-637,561,0,0,0,0,0,0,0,0,0,-1,587,463,0,0
-630,561,0,0,0,0,0,0,0,0,0,-1,594,463,0,0
-623,561,0,0,0,0,0,0,0,0,0,-1,601,463,0,0
-616,561,0,0,0,0,0,0,0,0,0,-1,608,463,0,0
-609,561,0,0,0,0,0,0,0,0,0,-1,615,463,0,0
-602,561,0,0,0,0,0,0,0,0,0,-1,622,463,0,0
-595,561,0,0,0,0,0,0,0,0,0,-1,629,463,0,0
-588,561,0,0,0,0,0,0,0,0,0,-1,636,463,0,0
-581,561,0,0,0,0,0,0,0,0,0,-1,643,463,0,0
-574,561,0,0,0,0,0,0,0,0,0,-1,650,463,0,0
-567,561,0,0,0,0,0,0,0,0,0,-1,657,463,0,0
-560,561,0,0,0,0,0,0,0,0,0,-1,664,463,0,0
-553,561,0,0,0,0,0,0,0,0,0,-1,671,463,0,0
-546,561,0,0,0,0,0,0,0,0,0,-1,678,463,0,0
-539,561,0,0,0,0,0,0,0,0,0,-1,685,463,0,0
-532,561,0,0,0,0,0,0,0,0,0,-1,692,463,0,0
-525,561,0,0,0,0,0,0,0,0,0,-1,699,463,0,0
-518,561,0,0,0,0,0,0,0,0,0,-1,706,463,0,0
-511,561,0,0,0,0,0,0,0,0,0,-1,713,463,0,0
-504,561,0,0,0,0,0,0,0,0,0,-1,720,463,0,0
-497,561,0,0,0,0,0,0,0,0,0,-1,727,463,0,0
-490,561,0,0,0,0,0,0,0,0,0,-1,734,463,0,0
-483,561,0,0,0,0,0,0,0,0,0,-1,741,463,0,0
-476,561,0,0,0,0,0,0,0,0,0,-1,748,463,0,0
-469,561,0,0,0,0,0,0,0,0,0,-1,755,463,0,0
-462,561,0,0,0,0,0,0,0,0,0,-1,762,463,0,0
-455,561,0,0,0,0,0,0,0,0,0,-1,769,463,0,0
-448,561,0,0,0,0,0,0,0,0,0,-1,776,463,0,0
-441,561,0,0,0,0,0,0,0,0,0,-1,783,463,0,0
-434,561,0,0,0,0,0,0,0,0,0,-1,790,463,0,0
-427,561,0,0,0,0,0,0,0,0,0,-1,797,463,0,0
-420,561,0,0,0,0,0,0,0,0,0,-1,804,463,0,0
-413,561,0,0,0,0,0,0,0,0,0,-1,811,463,0,0
-406,561,0,0,0,0,0,0,0,0,0,-1,818,463,0,0
-399,561,0,0,0,0,0,0,0,0,0,-1,825,463,0,0
-392,561,-0.328491,-3.57574,0,0,0,0,0,0,0,-1,832,463,-0.328468,3.57576
-385,561,-0.499695,-3.64307,0,0,0,0,0,0,0,-1,839,463,-0.499719,3.64308
-378,561,10.7891,3.90057,0,0,0,0,0,0,0,-1,846,463,10.7891,-3.90058
-371,561,10.3776,2.77673,-0.0182919,0.0085914,-0.110797,0.106759,-0.11646,-0.845762,0.128916,0.0465233,853,463,10.3776,-2.77674
-364,561,10.521,1.24005,-0.019076,-0.00448151,-0.0993551,0.087844,-0.111401,-0.822055,0.115302,0.0441849,860,463,10.521,-1.24005
-357,561,1.59808,-2.76538,0,0,0,0,0,0,0,-1,867,463,1.59806,2.76538
-350,561,1.71588,-2.73682,0,0,0,0,0,0,0,-1,874,463,1.7159,2.73681
-343,561,2.14795,-2.57785,-0.0158779,-0.0262525,-0.0526545,0.0318442,-0.0739747,-0.736299,0.0626878,0.0461315,881,463,2.14793,2.57784
-336,561,2.06787,-2.69034,-0.0131816,-0.028184,-0.0372031,0.017269,-0.0586346,-0.685918,0.045941,0.0446603,888,463,2.06785,2.69034
-329,561,1.73938,-2.91296,-0.0103106,-0.0278083,-0.0241676,0.00664298,-0.0447619,-0.611732,0.0322842,0.0357088,895,463,1.73936,2.91296
-322,561,1.6908,-2.90408,-0.00757575,-0.0258631,-0.0136997,-0.000248577,-0.0331903,-0.491131,0.0220445,0.0275404,902,463,1.69082,2.90408
-315,561,1.72296,-2.92627,-0.00549204,-0.0230393,-0.00535233,-0.00398831,-0.024543,-0.273887,0.0152079,0.0190673,909,463,1.72296,2.92626
-308,561,1.72491,-2.98364,-0.0037537,-0.0201396,0.000727922,-0.00372142,-0.0201718,0.0443074,0.0123951,0.0140634,916,463,1.72492,2.98364
-301,561,1.71985,-3.09222,-0.00219404,-0.0167982,0.00407828,-0.00113234,-0.0178599,0.254676,0.0115477,0.0110674,923,463,1.71988,3.09223
-294,561,1.71423,-3.1705,-0.000653705,-0.013239,0.00578056,0.00159837,-0.0154911,0.371504,0.0108993,0.0097875,930,463,1.71421,3.17052
-287,561,1.71619,-3.26089,-7.51656e-05,-0.00989855,0.00511987,0.00210806,-0.0120818,0.403074,0.00884137,0.00920996,937,463,1.7162,3.2609
-280,561,1.70447,-3.33624,3.86259e-05,-0.006994,0.00378378,0.00168772,-0.00864309,0.41101,0.00639926,0.0123999,944,463,1.70449,3.33625
-273,561,1.71411,-3.40363,0.000325927,-0.00379464,0.00277539,0.00172217,-0.00519089,0.466108,0.00415536,0.0149063,951,463,1.71414,3.40362
-266,561,1.71692,-3.49033,0.000391751,-0.00205954,0.0016494,0.00122103,-0.00288882,0.465867,0.00243708,0.00962884,958,463,1.71694,3.49034
-259,561,1.71228,-3.56024,0.000231846,-0.000804236,0.000832206,0.000694077,-0.00126647,0.507002,0.00114789,0.010294,965,463,1.71225,3.56024
-252,561,1.71497,-3.64493,3.5587e-07,-0.000420796,0.000415578,0.000255664,-0.000676104,0.550899,0.000555912,0.013826,972,463,1.71497,3.64492
-245,561,1.71082,-3.72961,-0.000343198,-0.000353728,0.000220407,-0.000127993,-0.000568933,0.773456,0.00034464,0.0155857,979,463,1.71081,3.7296
-238,561,1.71558,-3.80072,-0.000395305,-0.00062821,0.000302905,-0.000187238,-0.000836277,0.601882,0.000506769,0.0125165,986,463,1.71555,3.80073
-231,561,1.72009,-3.87228,-8.39666e-05,-0.00110365,0.00081198,0.000364967,-0.00155259,0.505057,0.00117575,0.0105661,993,463,1.72008,3.87228
-224,561,1.71063,-3.93082,0.0003313,-0.00140348,0.00113759,0.000894466,-0.00196664,0.459679,0.00169008,0.0109451,1000,463,1.7106,3.93081
-217,561,1.71698,-3.99011,0.000704153,-0.00164759,0.0014692,0.00141009,-0.00235353,0.447921,0.00219557,0.0112831,1007,463,1.71699,3.99011
-210,561,1.72278,-4.06543,0.00122831,-0.0019027,0.00178139,0.00203433,-0.00270873,0.424905,0.00274762,0.0116771,1014,463,1.72275,4.06544
-203,561,1.71704,-4.13614,0.00175596,-0.00141146,0.00243271,0.00307504,-0.00273054,0.496857,0.00335382,0.0126136,1021,463,1.71705,4.13615
-196,561,1.7113,-4.19864,0.00247179,-0.000710174,0.00383729,0.00503485,-0.00327323,0.588879,0.00483248,0.0125264,1028,463,1.71125,4.19863
-189,561,1.71497,-4.24103,0.00346166,0.000272127,0.00468087,0.00681198,-0.00307818,0.621216,0.00584415,0.0150286,1035,463,1.71502,4.24102
-182,561,1.73584,-4.32132,0.0044188,0.00201422,0.00566731,0.00900995,-0.00257692,0.680875,0.00702496,0.0176402,1042,463,1.73584,4.32133
-175,561,1.78894,-4.37653,0.00600219,0.00306869,0.00613186,0.0108403,-0.00176941,0.668003,0.00788313,0.0256647,1049,463,1.789,4.37652
-168,561,1.85608,-4.44507,0.00789312,0.0029723,0.00612343,0.012032,-0.00116654,0.594368,0.00843707,0.0369807,1056,463,1.85608,4.44506
-161,561,1.8584,-4.59134,0.00950179,0.00259796,0.00565551,0.0126756,-0.000575871,0.511396,0.00864877,0.0394495,1063,463,1.85838,4.59133
-154,561,1.76416,-4.78687,0.0111687,0.00191562,0.00478657,0.0131992,-0.000114882,0.4012,0.00883798,0.0429584,1070,463,1.76413,4.78687
-147,561,1.55359,-4.78024,0.0134506,0.000891835,0.00377993,0.0145005,-0.000158074,0.270929,0.00972011,0.0470867,1077,463,1.55359,4.78024
-140,561,1.77795,-4.87399,0.0161593,-0.0012437,0.00177955,0.0163394,-0.00142381,0.100864,0.0113972,0.0494536,1084,463,1.77799,4.874
-133,561,1.72546,-4.95419,0,0,0,0,0,0,0,-1,1091,463,1.72543,4.9542
-126,561,1.11816,-2.83429,0,0,0,0,0,0,0,-1,1098,463,1.11815,2.83428
-119,561,1.59131,-3.53241,0,0,0,0,0,0,0,-1,1105,463,1.5913,3.53242
-112,561,2.06445,-4.23056,0,0,0,0,0,0,0,-1,1112,463,2.06446,4.23057
-105,561,2.00024,-4.14777,0,0,0,0,0,0,0,-1,1119,463,2.00018,4.14776
-98,561,2.0647,-4.40195,0,0,0,0,0,0,0,-1,1126,463,2.06475,4.40194
-91,561,2.61096,-3.39169,0,0,0,0,0,0,0,-1,1133,463,2.61097,3.39168
-84,561,2.46777,-3.72562,0,0,0,0,0,0,0,-1,1140,463,2.46779,3.72561
-77,561,-1.66919,-4.00705,0,0,0,0,0,0,0,-1,1147,463,-1.66921,4.00704
-70,561,-1.0249,-5.23816,0,0,0,0,0,0,0,-1,1154,463,-1.02493,5.23816
-63,561,-1.8916,-3.63199,0,0,0,0,0,0,0,-1,1161,463,-1.89166,3.632
-56,561,-2.36279,-6.02319,0,0,0,0,0,0,0,-1,1168,463,-2.36277,6.02318
-49,561,-3.99707,-7.50055,0,0,0,0,0,0,0,-1,1175,463,-3.9971,7.50054
-42,561,-1.72644,-5.63065,0,0,0,0,0,0,0,-1,1182,463,-1.72648,5.63064
-35,561,-1.65674,-4.87994,0,0,0,0,0,0,0,-1,1189,463,-1.6567,4.87993
-28,561,-1.91418,-3.86896,0,0,0,0,0,0,0,-1,1196,463,-1.91414,3.86895
-21,561,2.21448,-4.48065,0,0,0,0,0,0,0,-1,1203,463,2.21452,4.48066
-14,561,5.21375,-2.62619,0,0,0,0,0,0,0,-1,1210,463,5.21379,2.6262
-7,561,4.58923,-2.94617,0,0,0,0,0,0,0,-1,1217,463,4.58927,2.94616
0,561,6.77283,-3.51932,0,0,0,0,0,0,0,-1,1224,463,6.77284,3.51931
7,561,6.17188,-3.5704,-0.0588713,-0.0445482,-0.00560235,-0.0426172,-0.0608023,-1.23887,0.0360365,0.044835,1231,463,6.17185,3.5704
14,561,5.5553,-3.69849,-0.0633417,-0.0384228,-0.0106074,-0.034519,-0.0672455,-1.21816,0.0388288,0.043311,1238,463,5.5553,3.69849
21,561,5.19421,-3.58112,-0.0663751,-0.0311024,-0.0149909,-0.0255921,-0.0718854,-1.21855,0.0420728,0.0447406,1245,463,5.1942,3.58112
28,561,5.05457,-4.3237,-0.0692888,-0.0217383,-0.0204732,-0.0141381,-0.0768889,-1.21534,0.0472569,0.0438843,1252,463,5.05455,4.3237
35,561,4.38391,-4.80829,-0.0731486,-0.0101194,-0.0263317,-0.000566658,-0.0827014,-1.22278,0.0549464,0.0418906,1259,463,4.38396,4.80827
42,561,3.82397,-5.33527,-0.0762604,0.00137549,-0.0316149,0.0126208,-0.0875057,-1.22905,0.0629671,0.0446612,1266,463,3.82394,5.33525
49,561,3.39038,-5.61667,-0.0766335,0.0115664,-0.0372246,0.0251767,-0.0902438,-1.22027,0.0700789,0.0449212,1273,463,3.39037,5.61668
56,561,2.73584,-5.76471,-0.068475,0.0185728,-0.0422323,0.0356946,-0.0855968,-1.18563,0.0719761,0.0431883,1280,463,2.7359,5.76472
63,561,2.16846,-6.35501,-0.0590259,0.0235875,-0.0474652,0.0452029,-0.0806413,-1.14347,0.0736102,0.045301,1287,463,2.16849,6.355
70,561,1.73877,-6.66608,-0.0512682,0.0286634,-0.0525625,0.0547286,-0.0773333,-1.11044,0.0766173,0.0479873,1294,463,1.73879,6.66609
77,561,1.16785,-7.07431,-0.0430032,0.0356149,-0.0563155,0.0649837,-0.0723719,-1.09009,0.0793405,0.048356,1301,463,1.16782,7.07431
84,561,0.257813,-7.84604,-0.0336606,0.0394933,-0.0583201,0.0717575,-0.0659248,-1.06548,0.0795147,0.0446444,1308,463,0.257816,7.84605
91,561,-0.48584,-8.53067,0,0,0,0,0,0,0,-1,1315,463,-0.485889,8.53066
98,561,6.28345,-5.27402,-0.0171775,0.0483296,-0.0593519,0.0833658,-0.0522137,-1.03753,0.0789626,0.0471084,1322,463,6.28346,5.27403
105,561,6.62048,-5.36618,-0.00994702,0.0526849,-0.0597083,0.0887913,-0.0460533,-1.02692,0.0791452,0.0494503,1329,463,6.62048,5.36619
112,561,6.6792,-6.65387,0,0,0,0,0,0,0,-1,1336,463,6.67916,6.65386
119,561,6.53015,-6.67889,-0.00409746,0.0666146,-0.0584658,0.0995835,-0.0370664,-1.05734,0.0816006,0.046315,1343,463,6.5301,6.67889
126,561,6.39905,-6.90689,-0.00607359,0.0759321,-0.0563143,0.104589,-0.0347309,-1.10007,0.0837394,0.0445925,1350,463,6.39905,6.9069
133,561,6.25598,-7.04611,-0.0115901,0.0866833,-0.0526497,0.109563,-0.0344701,-1.16085,0.0868433,0.049564,1357,463,6.25595,7.0461
140,561,6.31787,-7.06235,0,0,0,0,0,0,0,-1,1364,463,6.3179,7.06236
147,561,4.44824,-6.38538,0,0,0,0,0,0,0,-1,1371,463,4.4482,6.38537
154,561,5.73474,-7.21899,0,0,0,0,0,0,0,-1,1378,463,5.73472,7.21899
161,561,5.56274,-7.20282,0,0,0,0,0,0,0,-1,1385,463,5.56276,7.20282
168,561,10.0298,-8.21884,0,0,0,0,0,0,0,-1,1392,463,10.0298,8.21885
175,561,6.37012,-5.92093,0,0,0,0,0,0,0,-1,1399,463,6.37014,5.92094
182,561,6.45703,-4.02127,0,0,0,0,0,0,0,-1,1406,463,6.45704,4.02127
189,561,6.50854,-2.08685,0,0,0,0,0,0,0,-1,1413,463,6.50851,2.08686
196,561,6.44775,-0.27182,0,0,0,0,0,0,0,-1,1420,463,6.44773,0.271814
203,561,6.18591,1.1301,0,0,0,0,0,0,0,-1,1427,463,6.18592,-1.13009
210,561,5.68713,2.68427,0,0,0,0,0,0,0,-1,1434,463,5.6871,-2.68425
217,561,1.68311,-3.16107,0,0,0,0,0,0,0,-1,1441,463,1.68312,3.16106
224,561,2.85315,-4.85867,0,0,0,0,0,0,0,-1,1448,463,2.85319,4.85866
231,561,2.51672,-5.02112,0,0,0,0,0,0,0,-1,1455,463,2.51671,5.02113
238,561,2.18018,-5.18359,0,0,0,0,0,0,0,-1,1462,463,2.18023,5.18359
245,561,2.22754,-3.52792,0,0,0,0,0,0,0,-1,1469,463,2.22758,3.52793
252,561,3.39636,-3.0676,0,0,0,0,0,0,0,-1,1476,463,3.39632,3.06761
259,561,4.12524,-3.08737,0,0,0,0,0,0,0,-1,1483,463,4.12523,3.08737
266,561,3.77258,-3.24902,0,0,0,0,0,0,0,-1,1490,463,3.77255,3.24904
273,561,3.14978,-3.4491,0,0,0,0,0,0,0,-1,1497,463,3.14983,3.44911
280,561,2.7334,-4.38919,0,0,0,0,0,0,0,-1,1504,463,2.73339,4.3892
287,561,3.12683,-4.21664,-0.0169376,-0.0087285,-0.00365331,-0.00733814,-0.0183279,-1.20715,0.0106514,0.0484264,1511,463,3.1268,4.21664
294,561,3.33093,-4.17172,-0.0163816,-0.00481019,-0.00576403,-0.00242899,-0.0187628,-1.17904,0.0117826,0.0387337,1518,463,3.33091,4.17174
301,561,3.03345,-4.11118,-0.01583,-0.00167442,-0.00732988,0.00143711,-0.0189415,-1.16935,0.013133,0.0357129,1525,463,3.03341,4.11117
308,561,2.87305,-4.02673,-0.0148257,0.000773104,-0.00780723,0.00400926,-0.0180619,-1.17785,0.0135765,0.02168,1532,463,2.87303,4.02674
315,561,2.87866,-4.0177,-0.0134632,0.00239912,-0.00866755,0.00621656,-0.0172807,-1.15593,0.0140585,0.0141132,1539,463,2.87867,4.0177
322,561,2.88452,-3.9556,-0.0120459,0.00290136,-0.00858173,0.0068076,-0.0159521,-1.14364,0.0134892,0.0147362,1546,463,2.88458,3.95558
329,561,2.91199,-3.86874,-0.0106523,0.00224284,-0.00755929,0.00573076,-0.0141402,-1.1385,0.01181,0.0114496,1553,463,2.91197,3.86875
336,561,2.93652,-3.76422,-0.00924187,0.00157711,-0.00653174,0.00464855,-0.0123133,-1.13124,0.0101207,0.0103829,1560,463,2.93647,3.76421
343,561,2.9281,-3.70319,-0.00798647,0.000986126,-0.00549363,0.00359256,-0.0105929,-1.1278,0.00851591,0.00982518,1567,463,2.92806,3.70319
350,561,2.92017,-3.64374,-0.00659143,0.000464357,-0.00453476,0.00268191,-0.00880898,-1.11598,0.00694152,0.00919159,1574,463,2.92017,3.64373
357,561,2.90222,-3.56525,-0.00527519,0.000125102,-0.00377977,0.00207011,-0.0072202,-1.09555,0.00563178,0.00905529,1581,463,2.90222,3.56526
364,561,2.90601,-3.4975,-0.00411606,7.54213e-05,-0.00289949,0.00155727,-0.00559791,-1.09833,0.00434507,0.00895142,1588,463,2.90603,3.4975
371,561,2.90869,-3.38916,-0.00293306,-0.000135363,-0.0021505,0.00103122,-0.00409964,-1.07375,0.0031339,0.0155039,1595,463,2.90866,3.38917
378,561,2.91138,-3.3085,-0.00211773,-6.21369e-05,-0.00161219,0.000822009,-0.00300188,-1.06917,0.00232422,0.0109721,1602,463,2.91138,3.3085
385,561,2.94214,-3.2229,-0.00158232,3.85756e-05,-0.00101573,0.000527567,-0.00207131,-1.12213,0.00158625,0.00890006,1609,463,2.94212,3.22291
392,561,2.9187,-3.1264,-0.00114595,0.000574994,-0.000493564,0.000706498,-0.00127746,-1.31041,0.00116114,0.0119353,1616,463,2.91865,3.12639
399,561,2.92737,-3.05234,-0.000910755,0.00114843,4.36844e-05,0.00114936,-0.000911681,1.54959,0.00119258,0.0188938,1623,463,2.92731,3.05232
406,561,2.93323,-2.97623,-0.000758357,0.00182367,0.000377163,0.00187764,-0.000812322,1.42868,0.00159313,0.0178598,1630,463,2.93329,2.97622
413,561,2.92981,-2.9075,-0.000195168,0.00169113,-3.50405e-06,0.00169114,-0.000195175,-1.56894,0.00119779,0.0156963,1637,463,2.92975,2.90751
420,561,2.90991,-2.83578,0.000105306,0.00193559,-0.00024139,0.00196689,7.40054e-05,-1.44185,0.0012873,0.0120962,1644,463,2.90995,2.83579
427,561,2.91333,-2.72058,0.000366595,0.00207029,-0.000730984,0.00234094,9.59536e-05,-1.2162,0.00152964,0.0088458,1651,463,2.91333,2.72057
434,561,2.91089,-2.62808,0.000668122,0.0021204,-0.001385,0.00295807,-0.000169547,-1.02684,0.00203092,0.00984567,1658,463,2.91089,2.62809
441,561,2.92188,-2.54791,0.00143868,0.0032848,-0.000565021,0.003444,0.00127948,-1.29616,0.00201016,0.0130432,1665,463,2.92187,2.54793
448,561,2.94177,-2.4343,0.00251461,0.00643929,0.00123471,0.00679542,0.00215849,1.28999,0.00400937,0.0188901,1672,463,2.94177,2.43428
455,561,2.82776,-2.24869,0.00366882,0.0084245,0.00232273,0.00937069,0.00272262,1.18396,0.00556616,0.0336424,1679,463,2.8278,2.24868
462,561,2.76904,-2.19595,0.00590403,0.0116472,0.00377893,0.0135218,0.00402941,1.1103,0.00801636,0.0320533,1686,463,2.76907,2.19596
469,561,2.82324,-2.13342,0.00903593,0.0167816,0.00627881,0.0202859,0.00553162,1.06174,0.0121088,0.023073,1693,463,2.82319,2.13342
476,561,2.84875,-2.04468,0.0124307,0.0230335,0.0100278,0.029075,0.00638923,1.02856,0.0176435,0.0426985,1700,463,2.84879,2.04467
483,561,2.24329,-2.15173,0,0,0,0,0,0,0,-1,1707,463,2.24333,2.15174
490,561,2.33154,-0.655731,0.0217397,0.0403322,0.0194654,0.0526073,0.0094646,1.00817,0.032381,0.0467325,1714,463,2.33156,0.655724
497,561,2.35852,0.805267,0.0280875,0.0509127,0.0239461,0.0660267,0.0129735,1.00777,0.0403938,0.0431457,1721,463,2.35847,-0.805258
504,561,2.25171,2.18304,0,0,0,0,0,0,0,-1,1728,463,2.25172,-2.18304
511,561,0,0,0,0,0,0,0,0,0,-1,1735,463,0,0
518,561,0,0,0,0,0,0,0,0,0,-1,1742,463,0,0
525,561,0,0,0,0,0,0,0,0,0,-1,1749,463,0,0
532,561,0,0,0,0,0,0,0,0,0,-1,1756,463,0,0
539,561,0,0,0,0,0,0,0,0,0,-1,1763,463,0,0
546,561,0,0,0,0,0,0,0,0,0,-1,1770,463,0,0
553,561,0,0,0,0,0,0,0,0,0,-1,1777,463,0,0
560,561,0,0,0,0,0,0,0,0,0,-1,1784,463,0,0
567,561,0,0,0,0,0,0,0,0,0,-1,1791,463,0,0
574,561,0,0,0,0,0,0,0,0,0,-1,1798,463,0,0
581,561,0,0,0,0,0,0,0,0,0,-1,1805,463,0,0
588,561,0,0,0,0,0,0,0,0,0,-1,1812,463,0,0
595,561,0,0,0,0,0,0,0,0,0,-1,1819,463,0,0
602,561,0,0,0,0,0,0,0,0,0,-1,1826,463,0,0
609,561,0,0,0,0,0,0,0,0,0,-1,1833,463,0,0
616,561,0,0,0,0,0,0,0,0,0,-1,1840,463,0,0
623,561,0,0,0,0,0,0,0,0,0,-1,1847,463,0,0
630,561,0,0,0,0,0,0,0,0,0,-1,1854,463,0,0
637,561,0,0,0,0,0,0,0,0,0,-1,1861,463,0,0
644,561,0,0,0,0,0,0,0,0,0,-1,1868,463,0,0
651,561,0,0,0,0,0,0,0,0,0,-1,1875,463,0,0
658,561,0,0,0,0,0,0,0,0,0,-1,1882,463,0,0
665,561,0,0,0,0,0,0,0,0,0,-1,1889,463,0,0
672,561,0,0,0,0,0,0,0,0,0,-1,1896,463,0,0
679,561,0,0,0,0,0,0,0,0,0,-1,1903,463,0,0
686,561,0,0,0,0,0,0,0,0,0,-1,1910,463,0,0
693,561,0,0,0,0,0,0,0,0,0,-1,1917,463,0,0
700,561,0,0,0,0,0,0,0,0,0,-1,1924,463,0,0
707,561,0,0,0,0,0,0,0,0,0,-1,1931,463,0,0
714,561,0,0,0,0,0,0,0,0,0,-1,1938,463,0,0
721,561,0,0,0,0,0,0,0,0,0,-1,1945,463,0,0
728,561,0,0,0,0,0,0,0,0,0,-1,1952,463,0,0
735,561,0,0,0,0,0,0,0,0,0,-1,1959,463,0,0
742,561,0,0,0,0,0,0,0,0,0,-1,1966,463,0,0
749,561,0,0,0,0,0,0,0,0,0,-1,1973,463,0,0
756,561,0,0,0,0,0,0,0,0,0,-1,1980,463,0,0
763,561,0,0,0,0,0,0,0,0,0,-1,1987,463,0,0
770,561,0,0,0,0,0,0,0,0,0,-1,1994,463,0,0
777,561,0,0,0,0,0,0,0,0,0,-1,2001,463,0,0
784,561,0,0,0,0,0,0,0,0,0,-1,2008,463,0,0
791,561,0,0,0,0,0,0,0,0,0,-1,2015,463,0,0
798,561,0,0,0,0,0,0,0,0,0,-1,2022,463,0,0
805,561,0,0,0,0,0,0,0,0,0,-1,2029,463,0,0
812,561,0,0,0,0,0,0,0,0,0,-1,2036,463,0,0
-700,554,0,0,0,0,0,0,0,0,0,-1,524,470,0,0
-693,554,0,0,0,0,0,0,0,0,0,-1,531,470,0,0
-686,554,0,0,0,0,0,0,0,0,0,-1,538,470,0,0
-679,554,0,0,0,0,0,0,0,0,0,-1,545,470,0,0
-672,554,0,0,0,0,0,0,0,0,0,-1,552,470,0,0
-665,554,0,0,0,0,0,0,0,0,0,-1,559,470,0,0
-658,554,0,0,0,0,0,0,0,0,0,-1,566,470,0,0
-651,554,0,0,0,0,0,0,0,0,0,-1,573,470,0,0
-644,554,0,0,0,0,0,0,0,0,0,-1,580,470,0,0
-637,554,0,0,0,0,0,0,0,0,0,-1,587,470,0,0
-630,554,0,0,0,0,0,0,0,0,0,-1,594,470,0,0
-623,554,0,0,0,0,0,0,0,0,0,-1,601,470,0,0
-616,554,0,0,0,0,0,0,0,0,0,-1,608,470,0,0
-609,554,0,0,0,0,0,0,0,0,0,-1,615,470,0,0
-602,554,0,0,0,0,0,0,0,0,0,-1,622,470,0,0
-595,554,0,0,0,0,0,0,0,0,0,-1,629,470,0,0
-588,554,0,0,0,0,0,0,0,0,0,-1,636,470,0,0
-581,554,0,0,0,0,0,0,0,0,0,-1,643,470,0,0
-574,554,0,0,0,0,0,0,0,0,0,-1,650,470,0,0
-567,554,0,0,0,0,0,0,0,0,0,-1,657,470,0,0
-560,554,0,0,0,0,0,0,0,0,0,-1,664,470,0,0
-553,554,0,0,0,0,0,0,0,0,0,-1,671,470,0,0
-546,554,0,0,0,0,0,0,0,0,0,-1,678,470,0,0
-539,554,0,0,0,0,0,0,0,0,0,-1,685,470,0,0
-532,554,0,0,0,0,0,0,0,0,0,-1,692,470,0,0
-525,554,0,0,0,0,0,0,0,0,0,-1,699,470,0,0
-518,554,0,0,0,0,0,0,0,0,0,-1,706,470,0,0
-511,554,0,0,0,0,0,0,0,0,0,-1,713,470,0,0
-504,554,0,0,0,0,0,0,0,0,0,-1,720,470,0,0
-497,554,0,0,0,0,0,0,0,0,0,-1,727,470,0,0
-490,554,0,0,0,0,0,0,0,0,0,-1,734,470,0,0
-483,554,0,0,0,0,0,0,0,0,0,-1,741,470,0,0
-476,554,0,0,0,0,0,0,0,0,0,-1,748,470,0,0
-469,554,0,0,0,0,0,0,0,0,0,-1,755,470,0,0
-462,554,0,0,0,0,0,0,0,0,0,-1,762,470,0,0
-455,554,0,0,0,0,0,0,0,0,0,-1,769,470,0,0
-448,554,0,0,0,0,0,0,0,0,0,-1,776,470,0,0
-441,554,0,0,0,0,0,0,0,0,0,-1,783,470,0,0
-434,554,0,0,0,0,0,0,0,0,0,-1,790,470,0,0
-427,554,0,0,0,0,0,0,0,0,0,-1,797,470,0,0
-420,554,0,0,0,0,0,0,0,0,0,-1,804,470,0,0
-413,554,0,0,0,0,0,0,0,0,0,-1,811,470,0,0
-406,554,0,0,0,0,0,0,0,0,0,-1,818,470,0,0
-399,554,-0.429688,-3.46472,0,0,0,0,0,0,0,-1,825,470,-0.429685,3.46473
-392,554,-0.209045,-3.42386,0,0,0,0,0,0,0,-1,832,470,-0.209051,3.42387
-385,554,-0.30957,-3.37216,0,0,0,0,0,0,0,-1,839,470,-0.309572,3.37217
-378,554,-0.0873413,-3.12946,0,0,0,0,0,0,0,-1,846,470,-0.0873294,3.12945
-371,554,12.0375,3.3172,0,0,0,0,0,0,0,-1,853,470,12.0375,-3.3172
-364,554,1.30304,-2.77011,0,0,0,0,0,0,0,-1,860,470,1.30305,2.77011
-357,554,1.4118,-2.78558,-0.0124372,-0.00753358,-0.0652971,0.0553578,-0.0753285,-0.804163,0.0757449,0.0493944,867,470,1.41181,2.78558
-350,554,1.53961,-2.75275,-0.0120579,-0.0140895,-0.0536047,0.0405406,-0.066688,-0.775924,0.062519,0.0486034,874,470,1.53961,2.75274
-343,554,1.63763,-2.70325,-0.0108314,-0.0182241,-0.041052,0.0266903,-0.0557458,-0.740499,0.0485699,0.0407931,881,470,1.6376,2.70325
-336,554,1.65417,-2.68909,-0.00911365,-0.0202201,-0.0294095,0.0152623,-0.0445961,-0.692085,0.0359159,0.0296315,888,470,1.65415,2.68909
-329,554,1.63446,-2.77634,-0.0072546,-0.0201337,-0.0194704,0.00681352,-0.0342018,-0.625693,0.0253791,0.0159271,895,470,1.63447,2.77633
-322,554,1.64117,-2.8526,-0.00539555,-0.0186805,-0.0113708,0.00113075,-0.0252068,-0.521048,0.0171939,0.00986964,902,470,1.64115,2.8526
-315,554,1.64337,-2.93396,-0.0039927,-0.0166166,-0.00481225,-0.00236749,-0.0182418,-0.325696,0.0114539,0.0102049,909,470,1.6434,2.93396
-308,554,1.61981,-3.0177,-0.00279148,-0.0145582,-1.18459e-05,-0.00279147,-0.0145582,-0.00100672,0.00892177,0.0127354,916,470,1.61981,3.01769
-301,554,1.63641,-3.10284,-0.00170173,-0.0121168,0.00255994,-0.00110653,-0.012712,0.228446,0.00813097,0.01273,923,470,1.63641,3.10285
-294,554,1.62311,-3.18973,-0.000583657,-0.00952179,0.00384813,0.000844788,-0.0109502,0.35544,0.00759743,0.0102466,930,470,1.62313,3.18973
-287,554,1.62408,-3.27448,-0.000153009,-0.0071365,0.0033355,0.0011841,-0.00847361,0.381258,0.00608232,0.0109328,937,470,1.62406,3.27448
-280,554,1.63098,-3.32739,-4.38417e-07,-0.00506382,0.00240538,0.000960053,-0.00602431,0.37991,0.00437151,0.0115844,944,470,1.63099,3.32739
-273,554,1.64032,-3.39197,0.000289765,-0.00278183,0.00170408,0.00104799,-0.00354005,0.418646,0.00277611,0.014019,951,470,1.64034,3.39196
-266,554,1.64905,-3.4808,0.000467097,-0.00160395,0.00102017,0.000885211,-0.00202206,0.388966,0.00172076,0.0110751,958,470,1.64904,3.4808
-259,554,1.6178,-3.56732,0.000454878,-0.000865451,0.000664923,0.000731697,-0.00114227,0.394495,0.00109056,0.0109979,965,470,1.61783,3.56733
-252,554,1.61249,-3.63123,0.000227669,-0.000996107,0.000673547,0.000525766,-0.0012942,0.416665,0.00108153,0.0134206,972,470,1.61248,3.63123
-245,554,1.62885,-3.70059,-0.000311236,-0.00146705,0.000936523,0.000211334,-0.00198962,0.508956,0.00140218,0.014943,979,470,1.62883,3.7006
-238,554,1.63983,-3.78305,-0.0006633,-0.00235408,0.00158238,0.000285355,-0.00330274,0.540061,0.00230285,0.0113982,986,470,1.63983,3.78305
-231,554,1.6424,-3.86987,-0.000425635,-0.00332384,0.00247084,0.000989693,-0.00473917,0.520188,0.00353582,0.00976923,993,470,1.6424,3.86988
-224,554,1.63916,-3.92148,-6.56855e-05,-0.00414493,0.00316948,0.00166373,-0.00587434,0.499495,0.00457283,0.00999576,1000,470,1.63915,3.92147
-217,554,1.6535,-3.9783,0.000127452,-0.00501536,0.00394855,0.00226807,-0.00715598,0.496779,0.00567969,0.0104907,1007,470,1.65351,3.97831
-210,554,1.66687,-4.06693,0.000477865,-0.00597627,0.00472385,0.0029717,-0.0084701,0.485736,0.00685547,0.0126872,1014,470,1.6669,4.06692
-203,554,1.65436,-4.14468,0.000861993,-0.00599492,0.00578789,0.00416064,-0.00929357,0.51801,0.007954,0.0180944,1021,470,1.65435,4.14469
-196,554,1.64819,-4.20059,0.00152277,-0.00562714,0.00770814,0.00644463,-0.010549,0.568267,0.0099062,0.0244769,1028,470,1.64823,4.20059
-189,554,1.65833,-4.25861,0.00254746,-0.00486061,0.00898617,0.00856305,-0.0108762,0.589912,0.0112497,0.0316717,1035,470,1.65838,4.25859
-182,554,1.68604,-4.3447,0.00362083,-0.00309658,0.0104394,0.0112286,-0.0107043,0.629761,0.0126641,0.0384362,1042,470,1.68609,4.34469
-175,554,1.73486,-4.41891,0.00563952,-0.00192308,0.0110371,0.0135251,-0.00980863,0.620364,0.0135285,0.043002,1049,470,1.73489,4.41891
-168,554,1.86938,-4.66327,0.00823151,-0.00196186,0.0108741,0.0151441,-0.00887444,0.566251,0.0140237,0.0491573,1056,470,1.86941,4.66326
-161,554,1.90869,-4.72852,0,0,0,0,0,0,0,-1,1063,470,1.90874,4.72851
-154,554,1.66333,-5.22049,0.0133245,-0.00217543,0.00841953,0.0170179,-0.00586882,0.413391,0.0137263,0.0433614,1070,470,1.66336,5.2205
-147,554,1.42249,-4.90356,0.0173364,-0.00222053,0.00657965,0.0193439,-0.00422809,0.296143,0.0145121,0.0470441,1077,470,1.42254,4.90356
-140,554,1.7572,-4.95154,0,0,0,0,0,0,0,-1,1084,470,1.75723,4.95154
-133,554,1.08862,-1.61462,0,0,0,0,0,0,0,-1,1091,470,1.08865,1.61462
-126,554,1.58984,-2.30936,0.025837,-0.0113345,-0.00642826,0.0269172,-0.0124148,-0.166496,0.0232172,0.0449749,1098,470,1.58984,2.30935
-119,554,1.96179,-2.96863,0.0265601,-0.0181338,-0.0109425,0.0290954,-0.0206691,-0.227672,0.0288685,0.0426298,1105,470,1.96178,2.96864
-112,554,2.56299,-3.34402,0.0285736,-0.0244938,-0.0163141,0.0331877,-0.029108,-0.275632,0.0359921,0.0431479,1112,470,2.56297,3.34401
-105,554,2.14355,-3.48364,0,0,0,0,0,0,0,-1,1119,470,2.1435,3.48366
-98,554,1.54797,-3.53961,0,0,0,0,0,0,0,-1,1126,470,1.54803,3.53962
-91,554,0.976929,-3.59302,0,0,0,0,0,0,0,-1,1133,470,0.976909,3.59301
-84,554,-1.27747,-2.86209,0,0,0,0,0,0,0,-1,1140,470,-1.27743,2.86209
-77,554,-1.60229,-4.39719,0,0,0,0,0,0,0,-1,1147,470,-1.60228,4.39718
-70,554,-1.92712,-5.93228,0,0,0,0,0,0,0,-1,1154,470,-1.92713,5.93227
-63,554,-1.73059,-3.7392,0,0,0,0,0,0,0,-1,1161,470,-1.73053,3.73921
-56,554,-2.54346,-6.21951,0,0,0,0,0,0,0,-1,1168,470,-2.54345,6.21952
-49,554,-3.11011,-8.82794,0,0,0,0,0,0,0,-1,1175,470,-3.11007,8.82793
-42,554,-2.15833,-5.60507,0,0,0,0,0,0,0,-1,1182,470,-2.15835,5.60506
-35,554,-2.40173,-4.59482,0,0,0,0,0,0,0,-1,1189,470,-2.40169,4.59481
-28,554,-0.760132,-1.65555,0,0,0,0,0,0,0,-1,1196,470,-0.760095,1.65556
-21,554,-0.326904,-1.55664,0,0,0,0,0,0,0,-1,1203,470,-0.326898,1.55664
-14,554,0.0753174,-1.46579,0,0,0,0,0,0,0,-1,1210,470,0.0753386,1.46579
-7,554,2.07837,-2.513,0,0,0,0,0,0,0,-1,1217,470,2.07841,2.513
0,554,6.79346,-3.16299,0,0,0,0,0,0,0,-1,1224,470,6.79349,3.16299
7,554,6.16211,-3.19177,-0.0677731,-0.0600308,-0.00261292,-0.0592315,-0.0685724,-1.27393,0.0429413,0.045281,1231,470,6.16216,3.19176
14,554,5.49414,-3.36655,-0.0732429,-0.051948,-0.0090592,-0.0486156,-0.0765754,-1.21831,0.0447438,0.0464716,1238,470,5.49412,3.36654
21,554,5.453,-2.60519,-0.0763375,-0.0422904,-0.0146676,-0.0368431,-0.0817848,-1.2152,0.0472956,0.0429077,1245,470,5.45299,2.60519
28,554,5.40125,-3.7742,0,0,0,0,0,0,0,-1,1252,470,5.4012,3.7742
35,554,4.52441,-4.66983,0,0,0,0,0,0,0,-1,1259,470,4.5244,4.66982
42,554,4.09949,-5.52066,0,0,0,0,0,0,0,-1,1266,470,4.09952,5.52065
49,554,3.62878,-5.87549,0,0,0,0,0,0,0,-1,1273,470,3.62884,5.87548
56,554,2.88806,-6.05835,0,0,0,0,0,0,0,-1,1280,470,2.88802,6.05836
63,554,2.26941,-6.54214,-0.0639549,0.0283435,-0.0572019,0.0556913,-0.0913026,-1.12483,0.0856931,0.0427728,1287,470,2.26945,6.54216
70,554,1.88281,-6.83484,-0.054621,0.0346027,-0.0635111,0.0676045,-0.0876228,-1.09157,0.0898686,0.0459744,1294,470,1.88285,6.83485
77,554,1.71179,-7.53934,-0.0443657,0.0429142,-0.0678276,0.0799279,-0.0813795,-1.07126,0.0931321,0.0425183,1301,470,1.71181,7.53933
84,554,0.249878,-8.61639,-0.0319982,0.0464996,-0.0698075,0.0873354,-0.072834,-1.0415,0.0926001,0.0417778,1308,470,0.24983,8.61639
91,554,-0.710083,-9.52045,0,0,0,0,0,0,0,-1,1315,470,-0.710123,9.52045
98,554,7.25842,-5.06995,0,0,0,0,0,0,0,-1,1322,470,7.25843,5.06993
105,554,7.65894,-5.23593,-0.00222988,0.0607874,-0.0699584,0.106005,-0.0474478,-0.996988,0.090721,0.0493973,1329,470,7.65895,5.23593
112,554,8.34631,-5.5824,0.00290622,0.0681091,-0.0689706,0.111795,-0.0407799,-1.00618,0.0912145,0.0442926,1336,470,8.34637,5.58239
119,554,7.19946,-7.10947,0,0,0,0,0,0,0,-1,1343,470,7.19947,7.10948
126,554,7.23804,-7.95059,0.00122675,0.089035,-0.0645238,0.123175,-0.0329133,-1.08413,0.0950075,0.0421134,1350,470,7.23809,7.95059
133,554,6.94556,-7.94626,-0.00682509,0.103169,-0.0598005,0.129417,-0.0330732,-1.15719,0.0991584,0.0472246,1357,470,6.9455,7.94625
140,554,6.68835,-7.89008,-0.0192358,0.118955,-0.0541872,0.137669,-0.0379495,-1.23827,0.106703,0.0489101,1364,470,6.68834,7.89008
147,554,6.52136,-7.81879,-0.0285528,0.131481,-0.0487596,0.145167,-0.0422385,-1.29716,0.113508,0.0484169,1371,470,6.52138,7.81878
154,554,6.22693,-7.7605,0,0,0,0,0,0,0,-1,1378,470,6.22697,7.76049
161,554,5.94421,-7.72125,0,0,0,0,0,0,0,-1,1385,470,5.94423,7.72126
168,554,8.65881,-7.85886,0,0,0,0,0,0,0,-1,1392,470,8.65876,7.85886
175,554,8.69434,-7.64786,0,0,0,0,0,0,0,-1,1399,470,8.69436,7.64786
182,554,6.71106,-4.50217,0,0,0,0,0,0,0,-1,1406,470,6.71107,4.50215
189,554,6.90479,-2.50348,0,0,0,0,0,0,0,-1,1413,470,6.90477,2.50348
196,554,6.96216,-0.740906,0,0,0,0,0,0,0,-1,1420,470,6.96214,0.740912
203,554,6.43518,0.414154,0,0,0,0,0,0,0,-1,1427,470,6.43523,-0.414141
210,554,6.21167,1.96707,0,0,0,0,0,0,0,-1,1434,470,6.21165,-1.96706
217,554,5.64551,3.4989,0,0,0,0,0,0,0,-1,1441,470,5.64555,-3.49891
224,554,2.37061,-4.02945,0,0,0,0,0,0,0,-1,1448,470,2.37062,4.02944
231,554,3.25073,-5.29642,0,0,0,0,0,0,0,-1,1455,470,3.25078,5.29642
238,554,4.28625,-3.25253,0,0,0,0,0,0,0,-1,1462,470,4.28622,3.25252
245,554,4.0752,-2.90033,0,0,0,0,0,0,0,-1,1469,470,4.07515,2.90032
252,554,3.52112,-0.934998,0,0,0,0,0,0,0,-1,1476,470,3.52113,0.934996
259,554,5.05798,-2.50488,0,0,0,0,0,0,0,-1,1483,470,5.05797,2.50489
266,554,3.0592,-2.71716,0,0,0,0,0,0,0,-1,1490,470,3.05923,2.71718
273,554,2.58521,-3.06876,0,0,0,0,0,0,0,-1,1497,470,2.58524,3.06874
280,554,2.83301,-0.991699,0,0,0,0,0,0,0,-1,1504,470,2.83303,0.991704
287,554,3.54126,-4.12277,0,0,0,0,0,0,0,-1,1511,470,3.54123,4.12277
294,554,3.96558,-4.02518,0,0,0,0,0,0,0,-1,1518,470,3.96555,4.02517
301,554,3.25281,-4.05246,0,0,0,0,0,0,0,-1,1525,470,3.25284,4.05246
308,554,3.63757,-3.78702,-0.0225398,0.00242892,-0.0096265,0.00570936,-0.0258202,-1.24237,0.0193987,0.045973,1532,470,3.63754,3.78703
315,554,3.35596,-3.96524,-0.0205222,0.00470602,-0.0114075,0.00909914,-0.0249154,-1.20319,0.0203336,0.0383077,1539,470,3.35596,3.96525
322,554,2.97534,-3.88528,-0.0183675,0.00527326,-0.0117737,0.0101365,-0.0232307,-1.17909,0.0197528,0.0330029,1546,470,2.97538,3.88528
329,554,2.97595,-3.82236,-0.0161335,0.00403072,-0.0104934,0.00850062,-0.0206034,-1.1681,0.0172807,0.0176032,1553,470,2.9759,3.82235
336,554,2.98669,-3.77158,-0.0138822,0.00278659,-0.00914122,0.00682248,-0.0179181,-1.15503,0.0147551,0.00962497,1560,470,2.98666,3.77157
343,554,2.97461,-3.70999,-0.011907,0.00164772,-0.00781363,0.00521375,-0.015473,-1.14265,0.0124234,0.00931115,1567,470,2.97461,3.70999
350,554,2.9895,-3.63483,-0.00975003,0.00059124,-0.00664332,0.00383899,-0.0129978,-1.11609,0.0101888,0.00916376,1574,470,2.98953,3.63484
357,554,2.9939,-3.55533,-0.00780206,-0.000111851,-0.00566777,0.00289202,-0.0108059,-1.08344,0.00833688,0.00998052,1581,470,2.99391,3.55531
364,554,2.98462,-3.49243,-0.00615536,-0.000397048,-0.00458101,0.00213445,-0.00868686,-1.06595,0.00661846,0.00901479,1588,470,2.98464,3.49243
371,554,2.98669,-3.40967,-0.00445463,-0.000853252,-0.003642,0.0014089,-0.00671678,-1.01499,0.00501391,0.00856979,1595,470,2.98669,3.40967
378,554,2.99841,-3.31448,-0.00325903,-0.000884122,-0.00294807,0.00110666,-0.00524981,-0.976853,0.00392116,0.00978445,1602,470,2.99837,3.3145
385,554,3.01868,-3.22473,-0.00251605,-0.000859832,-0.00218478,0.000648518,-0.0040244,-0.96655,0.00292318,0.00927471,1609,470,3.01867,3.22474
392,554,3.01904,-3.13028,-0.00193166,-0.000240141,-0.00158019,0.000706388,-0.00287818,-1.03111,0.00219252,0.0118627,1616,470,3.019,3.13028
399,554,3.02185,-3.0369,-0.00154738,0.000348118,-0.000934051,0.000731039,-0.0019303,-1.18174,0.00158767,0.0165445,1623,470,3.02182,3.0369
406,554,3.02197,-2.9675,-0.00125906,0.001036,-0.000448836,0.00112065,-0.00134372,-1.38438,0.00142475,0.0161088,1630,470,3.02202,2.96749
413,554,3.00183,-2.88361,-0.000742275,0.00107501,-0.000522307,0.00121443,-0.000881696,-1.30995,0.00121527,0.014734,1637,470,3.00189,2.88362
420,554,3.00977,-2.81253,-0.000382531,0.00144118,-0.000474159,0.0015571,-0.000498443,-1.33104,0.00123812,0.0149082,1644,470,3.00974,2.81253
427,554,3.00842,-2.73218,-0.000126686,0.00168319,-0.000657894,0.00189707,-0.000340558,-1.25649,0.00139218,0.00991,1651,470,3.00844,2.73217
434,554,2.98682,-2.64539,5.02287e-05,0.00179056,-0.000965513,0.00222016,-0.000379377,-1.15215,0.00162143,0.00932391,1658,470,2.98687,2.6454
441,554,2.99768,-2.54214,0.00058146,0.00287666,-0.000129639,0.00288396,0.000574161,-1.51455,0.0017627,0.0105026,1665,470,2.99771,2.54214
448,554,3.01196,-2.44345,0.00134077,0.00557954,0.00147044,0.00603969,0.000880618,1.26752,0.00376739,0.0116126,1672,470,3.01196,2.44345
455,554,3.00159,-2.34723,0.00215913,0.00719163,0.0024281,0.00817212,0.00117864,1.18701,0.0051008,0.0129325,1679,470,3.00162,2.34722
462,554,2.99097,-2.24844,0.00391269,0.00955584,0.00352714,0.0112511,0.0022174,1.12276,0.00688174,0.015424,1686,470,2.99095,2.24845
469,554,2.96814,-2.16489,0.00638681,0.0135436,0.00517112,0.0162537,0.0036767,1.08807,0.0098419,0.0207911,1693,470,2.96812,2.16488
476,554,2.93848,-2.07626,0.00904107,0.0182643,0.00768168,0.0226123,0.00469304,1.05573,0.0137796,0.0393638,1700,470,2.93853,2.07628
483,554,2.90625,-1.98618,0,0,0,0,0,0,0,-1,1707,470,2.90626,1.98618
490,554,2.67346,-1.15057,0.0166705,0.0309737,0.013468,0.0390711,0.00857313,1.02947,0.023712,0.043867,1714,470,2.6735,1.15056
497,554,2.828,-0.2341,0.0220098,0.038511,0.015731,0.0480238,0.0124971,1.02692,0.0287697,0.0448101,1721,470,2.82806,0.234102
504,554,2.95776,0.168793,0,0,0,0,0,0,0,-1,1728,470,2.95782,-0.168779
511,554,0.746948,-1.97702,0,0,0,0,0,0,0,-1,1735,470,0.746911,1.97702
518,554,1.41772,-1.1611,0,0,0,0,0,0,0,-1,1742,470,1.41775,1.16111
525,554,0,0,0,0,0,0,0,0,0,-1,1749,470,0,0
532,554,0,0,0,0,0,0,0,0,0,-1,1756,470,0,0
539,554,0,0,0,0,0,0,0,0,0,-1,1763,470,0,0
546,554,0,0,0,0,0,0,0,0,0,-1,1770,470,0,0
553,554,0,0,0,0,0,0,0,0,0,-1,1777,470,0,0
560,554,0,0,0,0,0,0,0,0,0,-1,1784,470,0,0
567,554,0,0,0,0,0,0,0,0,0,-1,1791,470,0,0
574,554,0,0,0,0,0,0,0,0,0,-1,1798,470,0,0
581,554,0,0,0,0,0,0,0,0,0,-1,1805,470,0,0
588,554,0,0,0,0,0,0,0,0,0,-1,1812,470,0,0
595,554,0,0,0,0,0,0,0,0,0,-1,1819,470,0,0
602,554,0,0,0,0,0,0,0,0,0,-1,1826,470,0,0
609,554,0,0,0,0,0,0,0,0,0,-1,1833,470,0,0
616,554,0,0,0,0,0,0,0,0,0,-1,1840,470,0,0
623,554,0,0,0,0,0,0,0,0,0,-1,1847,470,0,0
630,554,0,0,0,0,0,0,0,0,0,-1,1854,470,0,0
637,554,0,0,0,0,0,0,0,0,0,-1,1861,470,0,0
644,554,0,0,0,0,0,0,0,0,0,-1,1868,470,0,0
651,554,0,0,0,0,0,0,0,0,0,-1,1875,470,0,0
658,554,0,0,0,0,0,0,0,0,0,-1,1882,470,0,0
665,554,0,0,0,0,0,0,0,0,0,-1,1889,470,0,0
672,554,0,0,0,0,0,0,0,0,0,-1,1896,470,0,0
679,554,0,0,0,0,0,0,0,0,0,-1,1903,470,0,0
686,554,0,0,0,0,0,0,0,0,0,-1,1910,470,0,0
693,554,0,0,0,0,0,0,0,0,0,-1,1917,470,0,0
700,554,0,0,0,0,0,0,0,0,0,-1,1924,470,0,0
707,554,0,0,0,0,0,0,0,0,0,-1,1931,470,0,0
714,554,0,0,0,0,0,0,0,0,0,-1,1938,470,0,0
721,554,0,0,0,0,0,0,0,0,0,-1,1945,470,0,0
728,554,0,0,0,0,0,0,0,0,0,-1,1952,470,0,0
735,554,0,0,0,0,0,0,0,0,0,-1,1959,470,0,0
742,554,0,0,0,0,0,0,0,0,0,-1,1966,470,0,0
749,554,0,0,0,0,0,0,0,0,0,-1,1973,470,0,0
756,554,0,0,0,0,0,0,0,0,0,-1,1980,470,0,0
763,554,0,0,0,0,0,0,0,0,0,-1,1987,470,0,0
770,554,0,0,0,0,0,0,0,0,0,-1,1994,470,0,0
777,554,0,0,0,0,0,0,0,0,0,-1,2001,470,0,0
784,554,0,0,0,0,0,0,0,0,0,-1,2008,470,0,0
791,554,0,0,0,0,0,0,0,0,0,-1,2015,470,0,0
798,554,0,0,0,0,0,0,0,0,0,-1,2022,470,0,0
805,554,0,0,0,0,0,0,0,0,0,-1,2029,470,0,0
812,554,0,0,0,0,0,0,0,0,0,-1,2036,470,0,0
-700,547,0,0,0,0,0,0,0,0,0,-1,524,477,0,0
-693,547,0,0,0,0,0,0,0,0,0,-1,531,477,0,0
-686,547,0,0,0,0,0,0,0,0,0,-1,538,477,0,0
-679,547,0,0,0,0,0,0,0,0,0,-1,545,477,0,0
-672,547,0,0,0,0,0,0,0,0,0,-1,552,477,0,0
-665,547,0,0,0,0,0,0,0,0,0,-1,559,477,0,0
-658,547,0,0,0,0,0,0,0,0,0,-1,566,477,0,0
-651,547,0,0,0,0,0,0,0,0,0,-1,573,477,0,0
-644,547,0,0,0,0,0,0,0,0,0,-1,580,477,0,0
-637,547,0,0,0,0,0,0,0,0,0,-1,587,477,0,0
-630,547,0,0,0,0,0,0,0,0,0,-1,594,477,0,0
-623,547,0,0,0,0,0,0,0,0,0,-1,601,477,0,0
-616,547,0,0,0,0,0,0,0,0,0,-1,608,477,0,0
-609,547,0,0,0,0,0,0,0,0,0,-1,615,477,0,0
-602,547,0,0,0,0,0,0,0,0,0,-1,622,477,0,0
-595,547,0,0,0,0,0,0,0,0,0,-1,629,477,0,0
-588,547,0,0,0,0,0,0,0,0,0,-1,636,477,0,0
-581,547,0,0,0,0,0,0,0,0,0,-1,643,477,0,0
-574,547,0,0,0,0,0,0,0,0,0,-1,650,477,0,0
-567,547,0,0,0,0,0,0,0,0,0,-1,657,477,0,0
-560,547,0,0,0,0,0,0,0,0,0,-1,664,477,0,0
-553,547,0,0,0,0,0,0,0,0,0,-1,671,477,0,0
-546,547,0,0,0,0,0,0,0,0,0,-1,678,477,0,0
-539,547,0,0,0,0,0,0,0,0,0,-1,685,477,0,0
-532,547,0,0,0,0,0,0,0,0,0,-1,692,477,0,0
-525,547,0,0,0,0,0,0,0,0,0,-1,699,477,0,0
-518,547,0,0,0,0,0,0,0,0,0,-1,706,477,0,0
-511,547,0,0,0,0,0,0,0,0,0,-1,713,477,0,0
-504,547,0,0,0,0,0,0,0,0,0,-1,720,477,0,0
-497,547,0,0,0,0,0,0,0,0,0,-1,727,477,0,0
-490,547,0,0,0,0,0,0,0,0,0,-1,734,477,0,0
-483,547,0,0,0,0,0,0,0,0,0,-1,741,477,0,0
-476,547,0,0,0,0,0,0,0,0,0,-1,748,477,0,0
-469,547,0,0,0,0,0,0,0,0,0,-1,755,477,0,0
-462,547,0,0,0,0,0,0,0,0,0,-1,762,477,0,0
-455,547,0,0,0,0,0,0,0,0,0,-1,769,477,0,0
-448,547,0,0,0,0,0,0,0,0,0,-1,776,477,0,0
-441,547,0,0,0,0,0,0,0,0,0,-1,783,477,0,0
-434,547,0,0,0,0,0,0,0,0,0,-1,790,477,0,0
-427,547,0,0,0,0,0,0,0,0,0,-1,797,477,0,0
-420,547,0,0,0,0,0,0,0,0,0,-1,804,477,0,0
-413,547,0,0,0,0,0,0,0,0,0,-1,811,477,0,0
-406,547,-0.315918,-2.55258,0,0,0,0,0,0,0,-1,818,477,-0.315904,2.55257
-399,547,-0.110107,-2.83432,0,0,0,0,0,0,0,-1,825,477,-0.110118,2.83432
-392,547,1.32318,1.22638,0,0,0,0,0,0,0,-1,832,477,1.32321,-1.22639
-385,547,-0.196472,-3.01077,0,0,0,0,0,0,0,-1,839,477,-0.196456,3.01077
-378,547,0.0646973,-2.71725,0,0,0,0,0,0,0,-1,846,477,0.064724,2.71725
-371,547,0.655762,-2.52762,0,0,0,0,0,0,0,-1,853,477,0.655768,2.52761
-364,547,0.12854,-1.91037,0,0,0,0,0,0,0,-1,860,477,0.128513,1.91038
-357,547,0.72699,-2.3613,-0.00726872,-0.0017751,-0.0476048,0.0431621,-0.0522059,-0.814216,0.0551432,0.0463559,867,477,0.727011,2.3613
-350,547,1.3396,-2.61981,-0.00748986,-0.00797111,-0.0395537,0.031824,-0.047285,-0.782356,0.0459634,0.0455355,874,477,1.33961,2.61982
-343,547,1.53564,-2.61069,-0.00690602,-0.0119093,-0.030663,0.0213572,-0.0401725,-0.744696,0.0360736,0.033374,881,477,1.53566,2.61067
-336,547,1.57739,-2.66879,-0.0058838,-0.0139614,-0.0222386,0.0126798,-0.032525,-0.695571,0.0269243,0.0140314,888,477,1.57738,2.6688
-329,547,1.57184,-2.75583,-0.00475289,-0.0141512,-0.0149685,0.0062367,-0.0251408,-0.633301,0.0191805,0.00877307,895,477,1.57182,2.75583
-322,547,1.57111,-2.84769,-0.00355367,-0.0131496,-0.00895566,0.0018083,-0.0185116,-0.539481,0.0129859,0.00992236,902,477,1.5711,2.84768
-315,547,1.5658,-2.93564,-0.00265459,-0.0117477,-0.00399646,-0.00114781,-0.0132545,-0.360546,0.00847968,0.00970472,909,477,1.56577,2.93563
-308,547,1.53528,-3.01773,-0.0018505,-0.0104007,-0.00035164,-0.00183606,-0.0104152,-0.0410341,0.00641954,0.0113645,916,477,1.53525,3.01774
-301,547,1.5542,-3.09912,-0.00111051,-0.00872232,0.00153587,-0.000812288,-0.00902053,0.191781,0.00576204,0.0109071,923,477,1.55419,3.09911
-294,547,1.5517,-3.17514,-0.000258357,-0.00692026,0.0025428,0.000601282,-0.0077799,0.326006,0.0053982,0.00869207,930,477,1.5517,3.17513
-287,547,1.54242,-3.2496,0.000170293,-0.00529845,0.00228932,0.00100212,-0.00613028,0.348519,0.00445859,0.010628,937,477,1.5424,3.2496
-280,547,1.55353,-3.32516,0.000518745,-0.00391556,0.00190253,0.00122313,-0.00461994,0.354588,0.00355845,0.0130452,944,477,1.55354,3.32516
-273,547,1.55621,-3.40695,0.00104984,-0.0024087,0.00175033,0.00178106,-0.00313993,0.395726,0.00287702,0.0124567,951,477,1.55621,3.40696
-266,547,1.55334,-3.49887,0.00160908,-0.00176146,0.00178837,0.00238112,-0.00253351,0.407534,0.00283792,0.0118781,958,477,1.55335,3.49886
-259,547,1.54254,-3.57074,0.00200304,-0.00153833,0.00223899,0.0030869,-0.00262218,0.450833,0.00329978,0.0105815,965,477,1.54256,3.57075
-252,547,1.55121,-3.64133,0.00197563,-0.00227431,0.00304878,0.00356691,-0.0038656,0.481047,0.00429232,0.0105174,972,477,1.55122,3.64134
-245,547,1.57288,-3.73254,0.00137537,-0.00343018,0.00408987,0.00371606,-0.00577086,0.519811,0.00551993,0.0119438,979,477,1.57285,3.73255
-238,547,1.57611,-3.79123,0.000925406,-0.00502131,0.00552593,0.00422714,-0.00832304,0.538578,0.00737336,0.00849427,986,477,1.57613,3.79122
-231,547,1.57983,-3.86972,0.00110071,-0.00663726,0.00704058,0.00526533,-0.0108019,0.534158,0.00945821,0.00795357,993,477,1.57982,3.86973
-224,547,1.57715,-3.92303,0.00130323,-0.00815513,0.0082526,0.00608565,-0.0129375,0.525213,0.011218,0.010046,1000,477,1.57717,3.92305
-217,547,1.58966,-3.98724,0.00115884,-0.00984542,0.00951058,0.00664418,-0.0153308,0.523158,0.0130135,0.0135641,1007,477,1.58968,3.98725
-210,547,1.58844,-4.07397,0.00107691,-0.0116945,0.0106464,0.00710585,-0.0177234,0.515263,0.0147656,0.0208508,1014,477,1.58842,4.07399
-203,547,1.56244,-4.07291,0.0010069,-0.0124181,0.0119444,0.00799572,-0.019407,0.529401,0.0162718,0.0316492,1021,477,1.56241,4.07291
-196,547,1.48572,-4.14621,0.00128619,-0.0125624,0.01419,0.0101512,-0.0214274,0.55841,0.0186153,0.0398164,1028,477,1.48576,4.14622
-189,547,1.2146,-4.36652,0.00190698,-0.0122934,0.0156856,0.0120246,-0.0224109,0.572868,0.0201805,0.0440863,1035,477,1.21461,4.36652
-182,547,1.6355,-4.39609,0.00267453,-0.0107851,0.017487,0.014682,-0.0227926,0.60171,0.0218042,0.0494097,1042,477,1.63551,4.3961
-175,547,1.69739,-4.51321,0.00478087,-0.00966719,0.0180421,0.0169915,-0.0218778,0.594974,0.0225002,0.0490409,1049,477,1.69734,4.51323
-168,547,1.80615,-4.62137,0,0,0,0,0,0,0,-1,1056,477,1.8062,4.62135
-161,547,1.28149,-5.75876,0,0,0,0,0,0,0,-1,1063,477,1.28151,5.75876
-154,547,1.32349,-5.48407,0.0146716,-0.00945288,0.0135776,0.0207711,-0.0155524,0.422215,0.0210434,0.0447526,1070,477,1.32354,5.48407
-147,547,1.44531,-5.01852,0.0212355,-0.00799987,0.0106269,0.0246901,-0.0114545,0.314305,0.0213293,0.0416779,1077,477,1.4453,5.01851
-140,547,0.465088,-0.841583,0,0,0,0,0,0,0,-1,1084,477,0.465126,0.841584
-133,547,1.04749,-1.39929,0,0,0,0,0,0,0,-1,1091,477,1.04746,1.39929
-126,547,1.68176,-2.02292,0.0372718,-0.0139603,-0.00852274,0.0386524,-0.0153409,-0.160595,0.0321269,0.048427,1098,477,1.68175,2.02292
-119,547,2.14124,-2.61795,0.0382581,-0.0224627,-0.0148134,0.0416792,-0.0258838,-0.226969,0.0393613,0.0459033,1105,477,2.1412,2.61796
-112,547,2.47754,-3.23123,0.04137,-0.0306001,-0.022566,0.0478602,-0.0370903,-0.280052,0.0491774,0.0433505,1112,477,2.47748,3.23124
-105,547,2.23486,-3.15341,0,0,0,0,0,0,0,-1,1119,477,2.23487,3.15342
-98,547,1.6239,-3.19864,0,0,0,0,0,0,0,-1,1126,477,1.62385,3.19864
-91,547,-0.766113,-2.6398,0,0,0,0,0,0,0,-1,1133,477,-0.76608,2.63982
-84,547,-1.31519,-3.76511,0,0,0,0,0,0,0,-1,1140,477,-1.31518,3.76511
-77,547,-1.52344,-4.90811,0,0,0,0,0,0,0,-1,1147,477,-1.52342,4.90812
-70,547,-1.72351,-6.21451,0,0,0,0,0,0,0,-1,1154,477,-1.72348,6.21451
-63,547,-1.73267,-3.77069,0,0,0,0,0,0,0,-1,1161,477,-1.73272,3.77068
-56,547,-2.73999,-6.61508,0,0,0,0,0,0,0,-1,1168,477,-2.73998,6.61508
-49,547,-3.46021,-9.27921,0,0,0,0,0,0,0,-1,1175,477,-3.4602,9.27922
-42,547,-2.41736,-5.53012,0,0,0,0,0,0,0,-1,1182,477,-2.41734,5.53011
-35,547,-2.96838,-4.45734,0,0,0,0,0,0,0,-1,1189,477,-2.96839,4.45734
-28,547,-0.869141,-1.29901,0,0,0,0,0,0,0,-1,1196,477,-0.869135,1.29901
-21,547,-0.411865,-1.11679,0,0,0,0,0,0,0,-1,1203,477,-0.411879,1.11679
-14,547,-0.275513,-0.974152,0,0,0,0,0,0,0,-1,1210,477,-0.275491,0.974154
-7,547,0.854004,-1.66354,0,0,0,0,0,0,0,-1,1217,477,0.853963,1.66354
0,547,1.96411,-2.05548,0,0,0,0,0,0,0,-1,1224,477,1.96411,2.05547
7,547,6.13269,-2.79733,0,0,0,0,0,0,0,-1,1231,477,6.13266,2.79733
14,547,0,0,0,0,0,0,0,0,0,-1,1238,477,0,0
21,547,0,0,0,0,0,0,0,0,0,-1,1245,477,0,0
28,547,0,0,0,0,0,0,0,0,0,-1,1252,477,0,0
35,547,0,0,0,0,0,0,0,0,0,-1,1259,477,0,0
42,547,0,0,0,0,0,0,0,0,0,-1,1266,477,0,0
49,547,0,0,0,0,0,0,0,0,0,-1,1273,477,0,0
56,547,0,0,0,0,0,0,0,0,0,-1,1280,477,0,0
63,547,0,0,0,0,0,0,0,0,0,-1,1287,477,0,0
70,547,0,0,0,0,0,0,0,0,0,-1,1294,477,0,0
77,547,0,0,0,0,0,0,0,0,0,-1,1301,477,0,0
84,547,0,0,0,0,0,0,0,0,0,-1,1308,477,0,0
91,547,0,0,0,0,0,0,0,0,0,-1,1315,477,0,0
98,547,0,0,0,0,0,0,0,0,0,-1,1322,477,0,0
105,547,8.3739,-5.33694,0.0147947,0.0659338,-0.0789607,0.123362,-0.0426333,-0.941983,0.0995435,0.0463647,1329,477,8.37392,5.33695
112,547,9.60168,-5.05652,0.0200291,0.0748236,-0.0772125,0.129355,-0.0345027,-0.955883,0.0997472,0.0446137,1336,477,9.60163,5.05652
119,547,10.8652,-4.47214,0,0,0,0,0,0,0,-1,1343,477,10.8652,4.47215
126,547,8.13135,-8.88376,0,0,0,0,0,0,0,-1,1350,477,8.13129,8.88375
133,547,7.79944,-8.86206,0,0,0,0,0,0,0,-1,1357,477,7.79945,8.86205
140,547,7.47229,-8.87387,-0.0130631,0.138882,-0.0596579,0.159506,-0.0336871,-1.23795,0.119164,0.0447196,1364,477,7.47223,8.87386
147,547,7.32422,-8.84818,-0.0284812,0.157385,-0.0530806,0.171476,-0.042572,-1.31132,0.130837,0.0471567,1371,477,7.32423,8.84817
154,547,7.07861,-8.76062,0,0,0,0,0,0,0,-1,1378,477,7.07864,8.76061
161,547,9.08484,-7.883,0,0,0,0,0,0,0,-1,1385,477,9.08488,7.88299
168,547,7.45508,-8.04251,0,0,0,0,0,0,0,-1,1392,477,7.4551,8.04253
175,547,3.35034,-0.26532,0,0,0,0,0,0,0,-1,1399,477,3.3503,0.265306
182,547,4.26038,3.72672,0,0,0,0,0,0,0,-1,1406,477,4.26039,-3.7267
189,547,3.40454,1.28671,0,0,0,0,0,0,0,-1,1413,477,3.40457,-1.28673
196,547,3.53931,1.87793,0,0,0,0,0,0,0,-1,1420,477,3.53928,-1.87794
203,547,6.49414,-0.425842,0,0,0,0,0,0,0,-1,1427,477,6.4941,0.425844
210,547,4.82092,0.53595,0,0,0,0,0,0,0,-1,1434,477,4.82096,-0.535942
217,547,4.68579,0.480072,0,0,0,0,0,0,0,-1,1441,477,4.68577,-0.480069
224,547,4.55615,0.739807,0,0,0,0,0,0,0,-1,1448,477,4.55613,-0.73981
231,547,5.90869,-3.57721,0,0,0,0,0,0,0,-1,1455,477,5.90871,3.57722
238,547,5.50049,-3.15356,0,0,0,0,0,0,0,-1,1462,477,5.50045,3.15356
245,547,5.13708,-2.65213,0,0,0,0,0,0,0,-1,1469,477,5.13708,2.65212
252,547,3.73511,-0.645233,0,0,0,0,0,0,0,-1,1476,477,3.73515,0.645237
259,547,5.86816,-3.20816,0,0,0,0,0,0,0,-1,1483,477,5.86815,3.20816
266,547,5.40222,-2.45731,0,0,0,0,0,0,0,-1,1490,477,5.40221,2.45732
273,547,3.05737,0.495789,0,0,0,0,0,0,0,-1,1497,477,3.05742,-0.49578
280,547,2.0885,1.47797,0,0,0,0,0,0,0,-1,1504,477,2.08848,-1.47795
287,547,2.31177,-2.21716,0,0,0,0,0,0,0,-1,1511,477,2.31174,2.21717
294,547,2.4823,-3.03659,0,0,0,0,0,0,0,-1,1518,477,2.48229,3.0366
301,547,4.72119,-3.93454,0,0,0,0,0,0,0,-1,1525,477,4.72119,3.93453
308,547,4.41553,-3.68094,0,0,0,0,0,0,0,-1,1532,477,4.41557,3.68094
315,547,4.0636,-4.05048,0,0,0,0,0,0,0,-1,1539,477,4.06361,4.05047
322,547,3.06506,-3.81815,0,0,0,0,0,0,0,-1,1546,477,3.06506,3.81815
329,547,3.02917,-3.75079,-0.0237146,0.0067867,-0.0141762,0.0123579,-0.0292857,-1.19634,0.0246962,0.0375193,1553,477,3.02917,3.75079
336,547,3.05334,-3.75238,-0.0203052,0.00470019,-0.0124501,0.00984181,-0.0254468,-1.17915,0.0210274,0.0260356,1560,477,3.05331,3.75238
343,547,3.05603,-3.72876,-0.0174217,0.00256501,-0.0108158,0.00729743,-0.0221541,-1.15835,0.0177103,0.0203153,1567,477,3.05598,3.72875
350,547,3.07495,-3.66446,-0.014391,0.000646676,-0.00938405,0.00515253,-0.0188969,-1.12315,0.0146212,0.0148775,1574,477,3.0749,3.66446
357,547,3.0802,-3.57635,-0.011502,-0.000765225,-0.00811805,0.00359891,-0.0158662,-1.07753,0.011959,0.011276,1581,477,3.0802,3.57637
364,547,3.06689,-3.4892,-0.00906318,-0.00147924,-0.00686181,0.00256866,-0.0131111,-1.03782,0.00971085,0.0104587,1588,477,3.06688,3.48919
371,547,3.08337,-3.40167,-0.00668587,-0.00238447,-0.0057179,0.00157384,-0.0106442,-0.965281,0.00767471,0.00943948,1595,477,3.08332,3.40167
378,547,3.10059,-3.31207,-0.00493946,-0.00263906,-0.00485179,0.00119701,-0.00877553,-0.901783,0.00628745,0.0102212,1602,477,3.10063,3.31208
385,547,3.09277,-3.23425,-0.00383655,-0.00274341,-0.00390085,0.000648977,-0.00722894,-0.855003,0.00504954,0.0104983,1609,477,3.09277,3.23425
392,547,3.09485,-3.15451,-0.00295165,-0.00203209,-0.00319287,0.000733937,-0.00571767,-0.856908,0.0040785,0.0102565,1616,477,3.09489,3.15452
399,547,3.08716,-3.07153,-0.00226984,-0.00137071,-0.00240685,0.000628205,-0.00426876,-0.877727,0.00307669,0.0117512,1623,477,3.08711,3.07154
406,547,3.08496,-2.97787,-0.00172847,-0.000585691,-0.00173899,0.000673379,-0.00298754,-0.944129,0.00225,0.0120998,1630,477,3.08501,2.97787
413,547,3.07666,-2.87836,-0.00112592,-0.000303018,-0.00151922,0.000859481,-0.00228842,-0.917641,0.00187882,0.0118123,1637,477,3.07667,2.87836
420,547,3.09167,-2.80078,-0.000606099,0.000299613,-0.00116293,0.00109475,-0.00140124,-0.971069,0.00144468,0.0134662,1644,477,3.09173,2.80077
427,547,3.08716,-2.72769,-0.000273787,0.000769996,-0.00102532,0.0013986,-0.000902392,-1.02081,0.00133874,0.0121055,1651,477,3.08721,2.72769
434,547,3.06396,-2.64655,-0.000148313,0.0010553,-0.00100198,0.00162231,-0.000715328,-1.05583,0.00138308,0.00857356,1658,477,3.06393,2.64656
441,547,3.07605,-2.5419,0.000211013,0.0021373,-0.000162471,0.00215091,0.000197405,-1.48724,0.00137288,0.00938395,1665,477,3.07602,2.54189
448,547,3.0791,-2.43884,0.000745769,0.00448865,0.00125644,0.0048713,0.000363115,1.27517,0.00313352,0.0108387,1672,477,3.07907,2.43884
455,547,3.07605,-2.34076,0.00125269,0.00580857,0.00210961,0.00663538,0.000425878,1.19727,0.00428868,0.0112609,1679,477,3.07606,2.34076
462,547,3.06836,-2.25381,0.00258941,0.00748562,0.00288434,0.00882072,0.00125431,1.13728,0.00551017,0.0103991,1686,477,3.06839,2.2538
469,547,3.06946,-2.19131,0.00457595,0.0104256,0.00387374,0.0123547,0.00264686,1.10876,0.00751125,0.0167127,1693,477,3.06945,2.19133
476,547,3.09106,-2.09393,0.00660821,0.0138032,0.00543598,0.0167243,0.00368712,1.07771,0.0101463,0.0310821,1700,477,3.09103,2.09395
483,547,3.08899,-1.93567,0.00930605,0.017937,0.00712387,0.0219506,0.0052925,1.05773,0.0132273,0.0452392,1707,477,3.08901,1.93567
490,547,2.99829,-1.43192,0.0127082,0.0226887,0.00860337,0.0276443,0.00775256,1.0482,0.0164654,0.0439942,1714,477,2.9983,1.43191
497,547,2.85901,-0.82605,0.0170659,0.0278183,0.00946423,0.0333268,0.0115575,1.0437,0.01954,0.0473631,1721,477,2.85898,0.826056
504,547,2.73315,-0.236938,0,0,0,0,0,0,0,-1,1728,477,2.73312,0.236953
511,547,1.6499,-2.26639,0.0294475,0.0393301,0.00824695,0.0440028,0.0247748,1.0553,0.0254722,0.047279,1735,477,1.64989,2.2664
518,547,2.30981,-1.45175,0.0374779,0.0463673,0.00574301,0.0491847,0.0346606,1.11472,0.0291793,0.0487536,1742,477,2.30979,1.45177
525,547,2.9104,-0.642883,0,0,0,0,0,0,0,-1,1749,477,2.91044,0.642875
532,547,0,0,0,0,0,0,0,0,0,-1,1756,477,0,0
539,547,0,0,0,0,0,0,0,0,0,-1,1763,477,0,0
546,547,0,0,0,0,0,0,0,0,0,-1,1770,477,0,0
553,547,0,0,0,0,0,0,0,0,0,-1,1777,477,0,0
560,547,0,0,0,0,0,0,0,0,0,-1,1784,477,0,0
567,547,0,0,0,0,0,0,0,0,0,-1,1791,477,0,0
574,547,0,0,0,0,0,0,0,0,0,-1,1798,477,0,0
581,547,0,0,0,0,0,0,0,0,0,-1,1805,477,0,0
588,547,0,0,0,0,0,0,0,0,0,-1,1812,477,0,0
595,547,0,0,0,0,0,0,0,0,0,-1,1819,477,0,0
602,547,0,0,0,0,0,0,0,0,0,-1,1826,477,0,0
609,547,0,0,0,0,0,0,0,0,0,-1,1833,477,0,0
616,547,0,0,0,0,0,0,0,0,0,-1,1840,477,0,0
623,547,0,0,0,0,0,0,0,0,0,-1,1847,477,0,0
630,547,0,0,0,0,0,0,0,0,0,-1,1854,477,0,0
637,547,0,0,0,0,0,0,0,0,0,-1,1861,477,0,0
644,547,0,0,0,0,0,0,0,0,0,-1,1868,477,0,0
651,547,0,0,0,0,0,0,0,0,0,-1,1875,477,0,0
658,547,0,0,0,0,0,0,0,0,0,-1,1882,477,0,0
665,547,0,0,0,0,0,0,0,0,0,-1,1889,477,0,0
672,547,0,0,0,0,0,0,0,0,0,-1,1896,477,0,0
679,547,0,0,0,0,0,0,0,0,0,-1,1903,477,0,0
686,547,0,0,0,0,0,0,0,0,0,-1,1910,477,0,0
693,547,0,0,0,0,0,0,0,0,0,-1,1917,477,0,0
700,547,0,0,0,0,0,0,0,0,0,-1,1924,477,0,0
707,547,0,0,0,0,0,0,0,0,0,-1,1931,477,0,0
714,547,0,0,0,0,0,0,0,0,0,-1,1938,477,0,0
721,547,0,0,0,0,0,0,0,0,0,-1,1945,477,0,0
728,547,0,0,0,0,0,0,0,0,0,-1,1952,477,0,0
735,547,0,0,0,0,0,0,0,0,0,-1,1959,477,0,0
742,547,0,0,0,0,0,0,0,0,0,-1,1966,477,0,0
749,547,0,0,0,0,0,0,0,0,0,-1,1973,477,0,0
756,547,0,0,0,0,0,0,0,0,0,-1,1980,477,0,0
763,547,0,0,0,0,0,0,0,0,0,-1,1987,477,0,0
770,547,0,0,0,0,0,0,0,0,0,-1,1994,477,0,0
777,547,0,0,0,0,0,0,0,0,0,-1,2001,477,0,0
784,547,0,0,0,0,0,0,0,0,0,-1,2008,477,0,0
791,547,0,0,0,0,0,0,0,0,0,-1,2015,477,0,0
798,547,0,0,0,0,0,0,0,0,0,-1,2022,477,0,0
805,547,0,0,0,0,0,0,0,0,0,-1,2029,477,0,0
812,547,0,0,0,0,0,0,0,0,0,-1,2036,477,0,0
-700,540,0,0,0,0,0,0,0,0,0,-1,524,484,0,0
-693,540,0,0,0,0,0,0,0,0,0,-1,531,484,0,0
-686,540,0,0,0,0,0,0,0,0,0,-1,538,484,0,0
-679,540,0,0,0,0,0,0,0,0,0,-1,545,484,0,0
-672,540,0,0,0,0,0,0,0,0,0,-1,552,484,0,0
-665,540,0,0,0,0,0,0,0,0,0,-1,559,484,0,0
-658,540,0,0,0,0,0,0,0,0,0,-1,566,484,0,0
-651,540,0,0,0,0,0,0,0,0,0,-1,573,484,0,0
-644,540,0,0,0,0,0,0,0,0,0,-1,580,484,0,0
-637,540,0,0,0,0,0,0,0,0,0,-1,587,484,0,0
-630,540,0,0,0,0,0,0,0,0,0,-1,594,484,0,0
-623,540,0,0,0,0,0,0,0,0,0,-1,601,484,0,0
-616,540,0,0,0,0,0,0,0,0,0,-1,608,484,0,0
-609,540,0,0,0,0,0,0,0,0,0,-1,615,484,0,0
-602,540,0,0,0,0,0,0,0,0,0,-1,622,484,0,0
-595,540,0,0,0,0,0,0,0,0,0,-1,629,484,0,0
-588,540,0,0,0,0,0,0,0,0,0,-1,636,484,0,0
-581,540,0,0,0,0,0,0,0,0,0,-1,643,484,0,0
-574,540,0,0,0,0,0,0,0,0,0,-1,650,484,0,0
-567,540,0,0,0,0,0,0,0,0,0,-1,657,484,0,0
-560,540,0,0,0,0,0,0,0,0,0,-1,664,484,0,0
-553,540,0,0,0,0,0,0,0,0,0,-1,671,484,0,0
-546,540,0,0,0,0,0,0,0,0,0,-1,678,484,0,0
-539,540,0,0,0,0,0,0,0,0,0,-1,685,484,0,0
-532,540,0,0,0,0,0,0,0,0,0,-1,692,484,0,0
-525,540,0,0,0,0,0,0,0,0,0,-1,699,484,0,0
-518,540,0,0,0,0,0,0,0,0,0,-1,706,484,0,0
-511,540,0,0,0,0,0,0,0,0,0,-1,713,484,0,0
-504,540,0,0,0,0,0,0,0,0,0,-1,720,484,0,0
-497,540,0,0,0,0,0,0,0,0,0,-1,727,484,0,0
-490,540,0,0,0,0,0,0,0,0,0,-1,734,484,0,0
-483,540,0,0,0,0,0,0,0,0,0,-1,741,484,0,0
-476,540,0,0,0,0,0,0,0,0,0,-1,748,484,0,0
-469,540,0,0,0,0,0,0,0,0,0,-1,755,484,0,0
-462,540,0,0,0,0,0,0,0,0,0,-1,762,484,0,0
-455,540,0,0,0,0,0,0,0,0,0,-1,769,484,0,0
-448,540,0,0,0,0,0,0,0,0,0,-1,776,484,0,0
-441,540,0,0,0,0,0,0,0,0,0,-1,783,484,0,0
-434,540,0,0,0,0,0,0,0,0,0,-1,790,484,0,0
-427,540,0,0,0,0,0,0,0,0,0,-1,797,484,0,0
-420,540,1.45117,-0.818146,0,0,0,0,0,0,0,-1,804,484,1.45117,0.818153
-413,540,1.66138,-0.587433,0,0,0,0,0,0,0,-1,811,484,1.66139,0.587447
-406,540,1.56561,-0.416382,0,0,0,0,0,0,0,-1,818,484,1.56561,0.416368
-399,540,1.59735,0.149231,0,0,0,0,0,0,0,-1,825,484,1.59734,-0.149222
-392,540,1.30359,0.466125,0,0,0,0,0,0,0,-1,832,484,1.30357,-0.466129
-385,540,2.03009,-0.303955,0,0,0,0,0,0,0,-1,839,484,2.03009,0.303952
-378,540,0.237366,-2.68738,0,0,0,0,0,0,0,-1,846,484,0.237365,2.68736
-371,540,1.01532,-1.69012,0,0,0,0,0,0,0,-1,853,484,1.01534,1.69013
-364,540,1.67444,-2.03693,0,0,0,0,0,0,0,-1,860,484,1.67446,2.03693
-357,540,1.56525,-2.24805,-0.0037248,0.00204809,-0.0337975,0.0330822,-0.0347589,-0.827997,0.0391721,0.0422543,867,484,1.56528,2.24805
-350,540,1.39288,-2.49411,-0.00438413,-0.00378476,-0.0286586,0.0245757,-0.0327446,-0.790627,0.0332057,0.0271312,874,484,1.39288,2.49411
-343,540,1.45514,-2.58698,-0.00423463,-0.0074563,-0.0227907,0.0170021,-0.028693,-0.750117,0.0266684,0.0126114,881,484,1.45511,2.58697
-336,540,1.46948,-2.68573,-0.00367753,-0.00950099,-0.0170032,0.0106615,-0.02384,-0.700598,0.020398,0.0106898,888,484,1.4695,2.68574
-329,540,1.47681,-2.76297,-0.00306604,-0.00987351,-0.0118863,0.00589429,-0.0188338,-0.645951,0.0149141,0.0100066,895,484,1.47681,2.76297
-322,540,1.48016,-2.85309,-0.00234058,-0.00916542,-0.0075511,0.00253335,-0.0140394,-0.573178,0.0103083,0.0135064,902,484,1.48017,2.85308
-315,540,1.47113,-2.93646,-0.00181011,-0.00815081,-0.00389685,4.31384e-05,-0.0100041,-0.443919,0.0066838,0.0122409,909,484,1.47112,2.93646
-308,540,1.45007,-3.00073,-0.00129671,-0.00721656,-0.0011707,-0.0010736,-0.00743966,-0.188318,0.00464346,0.012052,916,484,1.4501,3.00072
-301,540,1.45197,-3.08432,-0.000814479,-0.00602979,0.00022979,-0.000804374,-0.00603989,0.0439472,0.00378705,0.0125174,923,484,1.45199,3.08433
-294,540,1.48663,-3.17374,-2.83368e-05,-0.00475863,0.00120763,0.000262131,-0.0050491,0.236044,0.00345676,0.0111189,930,484,1.48661,3.17373
-287,540,1.49384,-3.25476,0.000595749,-0.00372193,0.00144867,0.00103676,-0.00416294,0.295513,0.00317777,0.00818822,937,484,1.49381,3.25476
-280,540,1.48486,-3.34348,0.00135048,-0.0029479,0.00188347,0.00205899,-0.00365641,0.3598,0.00334248,0.00992224,944,484,1.48483,3.34348
-273,540,1.4856,-3.4314,0.00243769,-0.00219438,0.00266427,0.00365186,-0.00340855,0.427603,0.00407713,0.0125013,951,484,1.4856,3.4314
-266,540,1.48053,-3.51419,0.00367321,-0.00210863,0.0037559,0.00552193,-0.00395735,0.457402,0.00549765,0.0134028,958,484,1.48055,3.5142
-259,540,1.47992,-3.5788,0.0046942,-0.00253548,0.00542065,0.00759477,-0.00543604,0.491328,0.00755768,0.0119888,965,484,1.47992,3.57879
-252,540,1.49231,-3.66309,0.00503321,-0.00407881,0.0074077,0.00917382,-0.00821942,0.509697,0.010047,0.0114484,972,484,1.49231,3.6631
-245,540,1.50702,-3.75662,0.00457388,-0.00601932,0.00942913,0.0100922,-0.0115376,0.529497,0.0124973,0.0124104,979,484,1.50701,3.75661
-238,540,1.49652,-3.81226,0.0040698,-0.00849293,0.0118709,0.0112188,-0.0156419,0.542055,0.015578,0.00886199,986,484,1.49655,3.81224
-231,540,1.4967,-3.86316,0.00411522,-0.0108929,0.0141585,0.0126353,-0.019413,0.541717,0.0186405,0.010904,993,484,1.4967,3.86316
-224,540,1.52069,-3.90945,0.0039901,-0.0132543,0.0159683,0.0135153,-0.0227795,0.537848,0.0211812,0.016272,1000,484,1.52068,3.90945
-217,540,1.56152,-3.9653,0.00327366,-0.0159087,0.0177117,0.0138243,-0.0264594,0.537244,0.0236361,0.0260916,1007,484,1.56151,3.96531
-210,540,1.60608,-4.01953,0.00244279,-0.0187985,0.0191534,0.013723,-0.0300787,0.532251,0.02587,0.0375272,1014,484,1.60605,4.01953
-203,540,1.51306,-3.98529,0.00158469,-0.0204419,0.0206148,0.0139436,-0.0328008,0.540065,0.0277103,0.0397629,1021,484,1.51305,3.9853
-196,540,1.30212,-4.00714,0.00117738,-0.0213466,0.0231481,0.0156577,-0.0358269,0.558995,0.0304755,0.0435178,1028,484,1.30208,4.00714
-189,540,1.10083,-4.02109,0,0,0,0,0,0,0,-1,1035,484,1.10082,4.02107
-182,540,0.43457,-4.08197,0.00111903,-0.0210315,0.0271064,0.0193255,-0.039238,0.591455,0.034457,0.0483291,1042,484,0.434595,4.08196
-175,540,1.53027,-4.66525,0.0030078,-0.0203485,0.0276064,0.0213045,-0.0386452,0.5853,0.0350913,0.0467603,1049,484,1.53022,4.66526
-168,540,1.74231,-4.82834,0,0,0,0,0,0,0,-1,1056,484,1.74235,4.82832
-161,540,1.74414,-4.66376,0,0,0,0,0,0,0,-1,1063,484,1.7442,4.66375
-154,540,1.00854,-5.70746,0,0,0,0,0,0,0,-1,1070,484,1.00855,5.70745
-147,540,0.701538,-5.28195,0,0,0,0,0,0,0,-1,1077,484,0.701512,5.28195
-140,540,1.08008,-0.482605,0,0,0,0,0,0,0,-1,1084,484,1.08002,0.482591
-133,540,1.4071,-0.960175,0,0,0,0,0,0,0,-1,1091,484,1.40715,0.960174
-126,540,1.78943,-1.73938,0,0,0,0,0,0,0,-1,1098,484,1.78942,1.73938
-119,540,2.2854,-2.44662,0,0,0,0,0,0,0,-1,1105,484,2.28536,2.44661
-112,540,2.65173,-3.42639,0,0,0,0,0,0,0,-1,1112,484,2.65174,3.42639
-105,540,1.73462,-4.61615,0,0,0,0,0,0,0,-1,1119,484,1.73465,4.61616
-98,540,0.73877,-3.08093,0,0,0,0,0,0,0,-1,1126,484,0.738754,3.08092
-91,540,2.76001,5.21078,0,0,0,0,0,0,0,-1,1133,484,2.76,-5.2108
-84,540,-1.29541,-4.51187,0,0,0,0,0,0,0,-1,1140,484,-1.29539,4.51187
-77,540,-1.41833,-5.41217,0,0,0,0,0,0,0,-1,1147,484,-1.41833,5.41218
-70,540,-0.937378,-1.29056,0,0,0,0,0,0,0,-1,1154,484,-0.937377,1.29056
-63,540,-2.03137,-3.6257,0,0,0,0,0,0,0,-1,1161,484,-2.03131,3.62569
-56,540,-3.00745,-6.49261,0,0,0,0,0,0,0,-1,1168,484,-3.00739,6.49261
-49,540,-3.58325,-9.16943,0,0,0,0,0,0,0,-1,1175,484,-3.58326,9.16944
-42,540,0,0,0,0,0,0,0,0,0,-1,1182,484,0,0
-35,540,0,0,0,0,0,0,0,0,0,-1,1189,484,0,0
-28,540,0,0,0,0,0,0,0,0,0,-1,1196,484,0,0
-21,540,0,0,0,0,0,0,0,0,0,-1,1203,484,0,0
-14,540,0,0,0,0,0,0,0,0,0,-1,1210,484,0,0
-7,540,0,0,0,0,0,0,0,0,0,-1,1217,484,0,0
0,540,0,0,0,0,0,0,0,0,0,-1,1224,484,0,0
7,540,0,0,0,0,0,0,0,0,0,-1,1231,484,0,0
14,540,0,0,0,0,0,0,0,0,0,-1,1238,484,0,0
21,540,0,0,0,0,0,0,0,0,0,-1,1245,484,0,0
28,540,0,0,0,0,0,0,0,0,0,-1,1252,484,0,0
35,540,0,0,0,0,0,0,0,0,0,-1,1259,484,0,0
42,540,0,0,0,0,0,0,0,0,0,-1,1266,484,0,0
49,540,0,0,0,0,0,0,0,0,0,-1,1273,484,0,0
56,540,0,0,0,0,0,0,0,0,0,-1,1280,484,0,0
63,540,0,0,0,0,0,0,0,0,0,-1,1287,484,0,0
70,540,0,0,0,0,0,0,0,0,0,-1,1294,484,0,0
77,540,0,0,0,0,0,0,0,0,0,-1,1301,484,0,0
84,540,0,0,0,0,0,0,0,0,0,-1,1308,484,0,0
91,540,0,0,0,0,0,0,0,0,0,-1,1315,484,0,0
98,540,0,0,0,0,0,0,0,0,0,-1,1322,484,0,0
105,540,0,0,0,0,0,0,0,0,0,-1,1329,484,0,0
112,540,0,0,0,0,0,0,0,0,0,-1,1336,484,0,0
119,540,0,0,0,0,0,0,0,0,0,-1,1343,484,0,0
126,540,0,0,0,0,0,0,0,0,0,-1,1350,484,0,0
133,540,0,0,0,0,0,0,0,0,0,-1,1357,484,0,0
140,540,0,0,0,0,0,0,0,0,0,-1,1364,484,0,0
147,540,0,0,0,0,0,0,0,0,0,-1,1371,484,0,0
154,540,0,0,0,0,0,0,0,0,0,-1,1378,484,0,0
161,540,0,0,0,0,0,0,0,0,0,-1,1385,484,0,0
168,540,3.05078,-0.0010376,0,0,0,0,0,0,0,-1,1392,484,3.05084,0.00102554
175,540,3.37708,0.617035,0,0,0,0,0,0,0,-1,1399,484,3.37707,-0.617046
182,540,3.32678,1.23267,0,0,0,0,0,0,0,-1,1406,484,3.32678,-1.23266
189,540,3.5813,2.15619,0,0,0,0,0,0,0,-1,1413,484,3.58129,-2.1562
196,540,1.84448,-0.801483,0,0,0,0,0,0,0,-1,1420,484,1.84446,0.80148
203,540,4.14648,0.702087,0,0,0,0,0,0,0,-1,1427,484,4.14645,-0.702089
210,540,4.50671,-0.56076,0,0,0,0,0,0,0,-1,1434,484,4.50667,0.560771
217,540,5.00452,-0.278717,0,0,0,0,0,0,0,-1,1441,484,5.00452,0.278709
224,540,6.44458,-2.83527,0,0,0,0,0,0,0,-1,1448,484,6.44457,2.83525
231,540,6.9231,-3.10504,0,0,0,0,0,0,0,-1,1455,484,6.92307,3.10505
238,540,6.4823,-2.58365,0,0,0,0,0,0,0,-1,1462,484,6.48225,2.58363
245,540,6.02087,-1.97916,0,0,0,0,0,0,0,-1,1469,484,6.02088,1.97915
252,540,6.50647,-3.56006,0,0,0,0,0,0,0,-1,1476,484,6.50649,3.56006
259,540,6.01941,-2.798,-0.0499297,-0.0557291,0.0317395,-0.0209577,-0.084701,0.739845,0.0509394,0.0411185,1483,484,6.01941,2.79801
266,540,5.5332,-2.02853,-0.0514471,-0.0449944,0.0236442,-0.0243574,-0.0720841,0.853207,0.0423405,0.0468647,1490,484,5.53323,2.02855
273,540,5.06787,-1.28137,0,0,0,0,0,0,0,-1,1497,484,5.06786,1.28136
280,540,1.62903,-2.14609,0,0,0,0,0,0,0,-1,1504,484,1.62906,2.1461
287,540,1.97156,-2.45053,0,0,0,0,0,0,0,-1,1511,484,1.97159,2.45053
294,540,2.44165,-2.6185,0,0,0,0,0,0,0,-1,1518,484,2.44167,2.6185
301,540,4.36169,-2.54272,0,0,0,0,0,0,0,-1,1525,484,4.36165,2.54272
308,540,5.55054,-4.60034,0,0,0,0,0,0,0,-1,1532,484,5.55051,4.60033
315,540,4.68359,-4.43109,0,0,0,0,0,0,0,-1,1539,484,4.68357,4.43108
322,540,3.81665,-4.26181,0,0,0,0,0,0,0,-1,1546,484,3.81662,4.26182
329,540,3.01038,-3.60904,-0.0335223,0.0103185,-0.0187717,0.0172578,-0.0404616,-1.21671,0.0342101,0.0462826,1553,484,3.01039,3.60902
336,540,2.86206,-3.50604,-0.0283554,0.00671582,-0.0168017,0.0134659,-0.0351054,-1.18878,0.0289555,0.0459004,1560,484,2.86211,3.50604
343,540,2.42224,-3.27615,0,0,0,0,0,0,0,-1,1567,484,2.42226,3.27615
350,540,3.23499,-3.47903,-0.0199379,-0.000284708,-0.0133178,0.00643942,-0.026662,-1.10324,0.0202651,0.0338904,1574,484,3.23501,3.47903
357,540,3.19031,-3.49155,-0.0159743,-0.00269797,-0.0117788,0.00418443,-0.0228567,-1.042,0.0168072,0.0217606,1581,484,3.19036,3.49155
364,540,3.13,-3.44907,-0.0126627,-0.00399698,-0.0103035,0.00284758,-0.0195073,-0.984436,0.0140506,0.0133745,1588,484,3.12997,3.44907
371,540,3.14453,-3.38126,-0.00954508,-0.00548098,-0.00893949,0.00165451,-0.0166806,-0.897155,0.0117109,0.0115628,1595,484,3.14455,3.38125
378,540,3.17346,-3.30838,-0.00724162,-0.00597232,-0.00784343,0.0012621,-0.014476,-0.825767,0.0100977,0.0109442,1602,484,3.17343,3.30838
385,540,3.1759,-3.23318,-0.0057975,-0.00612545,-0.00660698,0.000647542,-0.0125705,-0.772991,0.0086043,0.0125451,1609,484,3.17587,3.23318
392,540,3.16296,-3.14508,-0.00462587,-0.00520375,-0.00566185,0.000754408,-0.010584,-0.759904,0.00732045,0.0114659,1616,484,3.16291,3.14509
399,540,3.16553,-3.07303,-0.00364503,-0.00431427,-0.00459791,0.000630422,-0.00858972,-0.749074,0.00594777,0.0150793,1623,484,3.16555,3.07301
406,540,3.16028,-3.0015,-0.00283218,-0.00327545,-0.00363295,0.00058589,-0.00669352,-0.754932,0.00466991,0.0154565,1630,484,3.16025,3.0015
413,540,3.14771,-2.90369,-0.00207014,-0.00261314,-0.0030534,0.000723803,-0.00540708,-0.741056,0.00386863,0.0108775,1637,484,3.14776,2.9037
420,540,3.16431,-2.79898,-0.00131417,-0.00163454,-0.0023215,0.000852661,-0.00380137,-0.750953,0.00286114,0.0100852,1644,484,3.16435,2.79898
427,540,3.1593,-2.71518,-0.000800111,-0.000794302,-0.00181954,0.00102234,-0.00261675,-0.786196,0.00216721,0.0113426,1651,484,3.15933,2.71517
434,540,3.13513,-2.62585,-0.000590333,-0.000164338,-0.00144292,0.00108122,-0.00183589,-0.858677,0.00170287,0.0138101,1658,484,3.13513,2.62587
441,540,3.14417,-2.52798,-0.000250668,0.00102448,-0.000566187,0.00123959,-0.000465778,-1.20771,0.00101782,0.0176606,1665,484,3.14414,2.52798
448,540,3.16821,-2.4292,0.000236452,0.00317861,0.000723112,0.00334673,6.83347e-05,1.34236,0.00220873,0.0115414,1672,484,3.16822,2.4292
455,540,3.16895,-2.32852,0.000634286,0.00434939,0.00150994,0.00488567,9.80101e-05,1.22953,0.00322494,0.0105607,1679,484,3.16896,2.32852
462,540,3.16345,-2.22751,0.00166288,0.00558041,0.00203689,0.00644754,0.000795754,1.16832,0.00405919,0.00995903,1686,484,3.16343,2.2275
469,540,3.16431,-2.17676,0.00322271,0.00763945,0.00262934,0.00886479,0.00199738,1.1347,0.00536937,0.0125235,1693,484,3.16426,2.17675
476,540,3.17773,-2.13159,0.00481256,0.00994468,0.00353259,0.0117448,0.0030124,1.09951,0.00704385,0.015837,1700,484,3.17772,2.1316
483,540,3.16785,-2.03064,0.00691446,0.0127,0.00438399,0.0150596,0.00455485,1.07703,0.00891799,0.0236965,1707,484,3.16786,2.03065
490,540,3.07178,-1.62527,0.00958393,0.0157915,0.00494586,0.0185268,0.00684861,1.06561,0.0108169,0.0397512,1714,484,3.07172,1.62527
497,540,2.91602,-1.23276,0,0,0,0,0,0,0,-1,1721,484,2.91604,1.23275
504,540,2.65918,-2.32703,0.017684,0.0226499,0.00433656,0.025164,0.0151699,1.0454,0.0146305,0.0447663,1728,484,2.65922,2.32702
511,540,2.70093,-2.40396,0.0235055,0.026148,0.00302736,0.0281299,0.0215236,0.991156,0.016985,0.0441424,1735,484,2.70091,2.40397
518,540,2.96484,-2.35611,0.0304909,0.0305218,0.00100034,0.0315068,0.0295059,0.793124,0.0203703,0.0459936,1742,484,2.96487,2.3561
525,540,3.14722,-2.3598,0,0,0,0,0,0,0,-1,1749,484,3.14726,2.3598
532,540,2.84265,-1.07925,0,0,0,0,0,0,0,-1,1756,484,2.84269,1.07927
539,540,0,0,0,0,0,0,0,0,0,-1,1763,484,0,0
546,540,0,0,0,0,0,0,0,0,0,-1,1770,484,0,0
553,540,0,0,0,0,0,0,0,0,0,-1,1777,484,0,0
560,540,0,0,0,0,0,0,0,0,0,-1,1784,484,0,0
567,540,0,0,0,0,0,0,0,0,0,-1,1791,484,0,0
574,540,0,0,0,0,0,0,0,0,0,-1,1798,484,0,0
581,540,0,0,0,0,0,0,0,0,0,-1,1805,484,0,0
588,540,0,0,0,0,0,0,0,0,0,-1,1812,484,0,0
595,540,0,0,0,0,0,0,0,0,0,-1,1819,484,0,0
602,540,0,0,0,0,0,0,0,0,0,-1,1826,484,0,0
609,540,0,0,0,0,0,0,0,0,0,-1,1833,484,0,0
616,540,0,0,0,0,0,0,0,0,0,-1,1840,484,0,0
623,540,0,0,0,0,0,0,0,0,0,-1,1847,484,0,0
630,540,0,0,0,0,0,0,0,0,0,-1,1854,484,0,0
637,540,0,0,0,0,0,0,0,0,0,-1,1861,484,0,0
644,540,0,0,0,0,0,0,0,0,0,-1,1868,484,0,0
651,540,0,0,0,0,0,0,0,0,0,-1,1875,484,0,0
658,540,0,0,0,0,0,0,0,0,0,-1,1882,484,0,0
665,540,0,0,0,0,0,0,0,0,0,-1,1889,484,0,0
672,540,0,0,0,0,0,0,0,0,0,-1,1896,484,0,0
679,540,0,0,0,0,0,0,0,0,0,-1,1903,484,0,0
686,540,0,0,0,0,0,0,0,0,0,-1,1910,484,0,0
693,540,0,0,0,0,0,0,0,0,0,-1,1917,484,0,0
700,540,0,0,0,0,0,0,0,0,0,-1,1924,484,0,0
707,540,0,0,0,0,0,0,0,0,0,-1,1931,484,0,0
714,540,0,0,0,0,0,0,0,0,0,-1,1938,484,0,0
721,540,0,0,0,0,0,0,0,0,0,-1,1945,484,0,0
728,540,0,0,0,0,0,0,0,0,0,-1,1952,484,0,0
735,540,0,0,0,0,0,0,0,0,0,-1,1959,484,0,0
742,540,0,0,0,0,0,0,0,0,0,-1,1966,484,0,0
749,540,0,0,0,0,0,0,0,0,0,-1,1973,484,0,0
756,540,0,0,0,0,0,0,0,0,0,-1,1980,484,0,0
763,540,0,0,0,0,0,0,0,0,0,-1,1987,484,0,0
770,540,0,0,0,0,0,0,0,0,0,-1,1994,484,0,0
777,540,0,0,0,0,0,0,0,0,0,-1,2001,484,0,0
784,540,0,0,0,0,0,0,0,0,0,-1,2008,484,0,0
791,540,0,0,0,0,0,0,0,0,0,-1,2015,484,0,0
798,540,0,0,0,0,0,0,0,0,0,-1,2022,484,0,0
805,540,0,0,0,0,0,0,0,0,0,-1,2029,484,0,0
812,540,0,0,0,0,0,0,0,0,0,-1,2036,484,0,0
-700,533,0,0,0,0,0,0,0,0,0,-1,524,491,0,0
-693,533,0,0,0,0,0,0,0,0,0,-1,531,491,0,0
-686,533,0,0,0,0,0,0,0,0,0,-1,538,491,0,0
-679,533,0,0,0,0,0,0,0,0,0,-1,545,491,0,0
-672,533,0,0,0,0,0,0,0,0,0,-1,552,491,0,0
-665,533,0,0,0,0,0,0,0,0,0,-1,559,491,0,0
-658,533,0,0,0,0,0,0,0,0,0,-1,566,491,0,0
-651,533,0,0,0,0,0,0,0,0,0,-1,573,491,0,0
-644,533,0,0,0,0,0,0,0,0,0,-1,580,491,0,0
-637,533,0,0,0,0,0,0,0,0,0,-1,587,491,0,0
-630,533,0,0,0,0,0,0,0,0,0,-1,594,491,0,0
-623,533,0,0,0,0,0,0,0,0,0,-1,601,491,0,0
-616,533,0,0,0,0,0,0,0,0,0,-1,608,491,0,0
-609,533,0,0,0,0,0,0,0,0,0,-1,615,491,0,0
-602,533,0,0,0,0,0,0,0,0,0,-1,622,491,0,0
-595,533,0,0,0,0,0,0,0,0,0,-1,629,491,0,0
-588,533,0,0,0,0,0,0,0,0,0,-1,636,491,0,0
-581,533,0,0,0,0,0,0,0,0,0,-1,643,491,0,0
-574,533,0,0,0,0,0,0,0,0,0,-1,650,491,0,0
-567,533,0,0,0,0,0,0,0,0,0,-1,657,491,0,0
-560,533,0,0,0,0,0,0,0,0,0,-1,664,491,0,0
-553,533,0,0,0,0,0,0,0,0,0,-1,671,491,0,0
-546,533,0,0,0,0,0,0,0,0,0,-1,678,491,0,0
-539,533,0,0,0,0,0,0,0,0,0,-1,685,491,0,0
-532,533,0,0,0,0,0,0,0,0,0,-1,692,491,0,0
-525,533,0,0,0,0,0,0,0,0,0,-1,699,491,0,0
-518,533,0,0,0,0,0,0,0,0,0,-1,706,491,0,0
-511,533,0,0,0,0,0,0,0,0,0,-1,713,491,0,0
-504,533,0,0,0,0,0,0,0,0,0,-1,720,491,0,0
-497,533,0,0,0,0,0,0,0,0,0,-1,727,491,0,0
-490,533,0,0,0,0,0,0,0,0,0,-1,734,491,0,0
-483,533,0,0,0,0,0,0,0,0,0,-1,741,491,0,0
-476,533,0,0,0,0,0,0,0,0,0,-1,748,491,0,0
-469,533,0,0,0,0,0,0,0,0,0,-1,755,491,0,0
-462,533,0,0,0,0,0,0,0,0,0,-1,762,491,0,0
-455,533,0,0,0,0,0,0,0,0,0,-1,769,491,0,0
-448,533,0,0,0,0,0,0,0,0,0,-1,776,491,0,0
-441,533,0,0,0,0,0,0,0,0,0,-1,783,491,0,0
-434,533,0,0,0,0,0,0,0,0,0,-1,790,491,0,0
-427,533,-0.871216,-1.91257,0,0,0,0,0,0,0,-1,797,491,-0.871198,1.91256
-420,533,0.766479,-1.65564,0,0,0,0,0,0,0,-1,804,491,0.766499,1.65563
-413,533,1.30725,-1.29114,0.0324533,0.0971315,0.0045342,0.0974478,0.032137,1.50115,0.0573379,0.0485847,811,491,1.30724,1.29115
-406,533,1.38654,-1.23001,0.0241563,0.0842962,-0.00502656,0.0847135,0.0237391,-1.48798,0.0504596,0.0459066,818,491,1.38654,1.23001
-399,533,1.47235,-0.711731,0.0167027,0.0709703,-0.013186,0.0740046,0.0136684,-1.34462,0.0454703,0.0447674,825,491,1.47237,0.711734
-392,533,1.32709,-0.222015,0.0117683,0.0577622,-0.0187263,0.0644222,0.00510834,-1.2291,0.0413506,0.0464976,832,491,1.32706,0.222021
-385,533,1.72986,-0.782959,0.00692672,0.046772,-0.0228764,0.0571849,-0.00348615,-1.14364,0.0393368,0.0484563,839,491,1.72985,0.782959
-378,533,1.46332,-0.301117,0,0,0,0,0,0,0,-1,846,491,1.46333,0.301126
-371,533,1.25134,-1.97467,0,0,0,0,0,0,0,-1,853,491,1.25137,1.97466
-364,533,1.34412,-2.18243,0.00082217,0.0145039,-0.0242769,0.0328853,-0.0175592,-0.92273,0.0295688,0.0397836,860,491,1.34411,2.18244
-357,533,1.43304,-2.37988,-0.000965212,0.0064564,-0.0226603,0.0257077,-0.0202165,-0.866557,0.0265775,0.0211014,867,491,1.43306,2.37987
-350,533,1.38428,-2.46732,-0.00188844,0.00121632,-0.0196483,0.0193734,-0.0200456,-0.824821,0.0227597,0.0110484,874,491,1.38429,2.46732
-343,533,1.41217,-2.58145,-0.00208189,-0.00221123,-0.0159621,0.0138156,-0.0181088,-0.783372,0.018487,0.0100259,881,491,1.41219,2.58146
-336,533,1.39252,-2.68637,-0.00197383,-0.00428883,-0.0121322,0.00905601,-0.0153187,-0.737839,0.0142267,0.013594,888,491,1.39253,2.68636
-329,533,1.39355,-2.77213,-0.00182186,-0.00497802,-0.00867557,0.00541798,-0.0122179,-0.695432,0.0104313,0.0136541,895,491,1.39353,2.77213
-322,533,1.38751,-2.84818,-0.00153756,-0.00479893,-0.00567904,0.00274028,-0.00907676,-0.645589,0.00714204,0.0113288,902,491,1.38753,2.84817
-315,533,1.37744,-2.94287,-0.00135613,-0.00441784,-0.00310662,0.000576332,-0.00635031,-0.556474,0.00443814,0.0119871,909,491,1.37745,2.94289
-308,533,1.37354,-3.00958,-0.00111593,-0.004181,-0.00118134,-0.000713466,-0.00458347,-0.328355,0.00284777,0.0117608,916,491,1.37352,3.00958
-301,533,1.36853,-3.08472,-0.000861468,-0.00377026,-0.000225061,-0.000844157,-0.00378757,-0.076764,0.00229598,0.0132643,923,491,1.36851,3.08473
-294,533,1.39294,-3.17288,-0.000130039,-0.00325405,0.000671366,8.12998e-06,-0.00339222,0.202969,0.0022642,0.0114955,930,491,1.39292,3.17287
-287,533,1.40552,-3.26154,0.000772761,-0.00298442,0.00147044,0.00127981,-0.00349148,0.332063,0.00285165,0.00862555,937,491,1.40551,3.26153
-280,533,1.4173,-3.35852,0.00208361,-0.00297628,0.00286784,0.00337794,-0.00427062,0.423958,0.00442591,0.00871072,944,491,1.41731,3.35853
-273,533,1.41003,-3.43277,0.00395816,-0.00314271,0.00486417,0.00642983,-0.00561437,0.470137,0.00695904,0.0124775,951,491,1.41002,3.43276
-266,533,1.40338,-3.51038,0.00606588,-0.0037469,0.00724021,0.00990553,-0.00758656,0.487611,0.0101286,0.0118358,958,491,1.4034,3.51038
-259,533,1.39716,-3.58502,0.00788345,-0.00487305,0.0102909,0.0136124,-0.010602,0.507974,0.0140162,0.0113378,965,491,1.39713,3.58502
-252,533,1.39642,-3.68158,0.00870988,-0.00726252,0.0135725,0.0164715,-0.0150241,0.519471,0.0181904,0.0125671,972,491,1.39641,3.68158
-245,533,1.43353,-3.76849,0.00847803,-0.0100534,0.016733,0.0183394,-0.0199148,0.532543,0.0220923,0.0171286,979,491,1.43351,3.7685
-238,533,1.44141,-3.7731,0.00796436,-0.0134332,0.0202066,0.0201298,-0.0255986,0.541926,0.0264641,0.0173103,986,491,1.44139,3.7731
-231,533,1.49225,-3.81189,0.00788827,-0.0166702,0.0233108,0.0219562,-0.0307382,0.542985,0.0305636,0.0247303,993,491,1.49222,3.81189
-224,533,1.52911,-3.89612,0.00736304,-0.0199485,0.0257337,0.0228398,-0.0354252,0.541463,0.0338999,0.0359781,1000,491,1.52913,3.89612
-217,533,1.63141,-3.9296,0.00595509,-0.0236493,0.0278995,0.0227359,-0.0404301,0.541503,0.0369428,0.040322,1007,491,1.63142,3.92958
-210,533,1.65149,-3.92957,0.00414238,-0.0276992,0.0295129,0.0217549,-0.0453117,0.538044,0.0395091,0.0444709,1014,491,1.65151,3.92957
-203,533,1.46777,-3.97623,0.00220537,-0.0304761,0.0310167,0.0209225,-0.0491933,0.542955,0.0415638,0.0434653,1021,491,1.46779,3.97622
-196,533,1.21533,-4.03265,0.000818784,-0.0324108,0.0337759,0.0218452,-0.0534372,0.556819,0.0447218,0.0461179,1028,491,1.21531,4.03264
-189,533,0.787598,-4.00598,0,0,0,0,0,0,0,-1,1035,491,0.787653,4.00598
-182,533,0.481079,-3.98984,0,0,0,0,0,0,0,-1,1042,491,0.48112,3.98985
-175,533,0.210571,-3.99771,0,0,0,0,0,0,0,-1,1049,491,0.210532,3.9977
-168,533,0.187988,-5.05408,0,0,0,0,0,0,0,-1,1056,491,0.188036,5.05407
-161,533,0.292603,-4.53375,0,0,0,0,0,0,0,-1,1063,491,0.292611,4.53376
-154,533,0.537354,-4.18689,0,0,0,0,0,0,0,-1,1070,491,0.53735,4.1869
-147,533,-0.234009,-5.58566,0,0,0,0,0,0,0,-1,1077,491,-0.23407,5.58566
-140,533,1.34595,-3.13318,0,0,0,0,0,0,0,-1,1084,491,1.34593,3.13316
-133,533,2.9054,-1.69144,0,0,0,0,0,0,0,-1,1091,491,2.90538,1.69145
-126,533,2.89612,-2.59003,0,0,0,0,0,0,0,-1,1098,491,2.89608,2.59003
-119,533,2.87903,-3.47372,0,0,0,0,0,0,0,-1,1105,491,2.87905,3.47373
-112,533,1.69788,-3.8486,0,0,0,0,0,0,0,-1,1112,491,1.69793,3.84862
-105,533,3.84839,1.12769,0,0,0,0,0,0,0,-1,1119,491,3.84843,-1.12769
-98,533,-1.39392,-5.16367,0,0,0,0,0,0,0,-1,1126,491,-1.39394,5.16367
-91,533,0.487061,-3.47952,0,0,0,0,0,0,0,-1,1133,491,0.487096,3.47952
-84,533,0.911743,3.35458,0,0,0,0,0,0,0,-1,1140,491,0.911703,-3.35458
-77,533,0,0,0,0,0,0,0,0,0,-1,1147,491,0,0
-70,533,0,0,0,0,0,0,0,0,0,-1,1154,491,0,0
-63,533,0,0,0,0,0,0,0,0,0,-1,1161,491,0,0
-56,533,0,0,0,0,0,0,0,0,0,-1,1168,491,0,0
-49,533,0,0,0,0,0,0,0,0,0,-1,1175,491,0,0
-42,533,0,0,0,0,0,0,0,0,0,-1,1182,491,0,0
-35,533,0,0,0,0,0,0,0,0,0,-1,1189,491,0,0
-28,533,0,0,0,0,0,0,0,0,0,-1,1196,491,0,0
-21,533,0,0,0,0,0,0,0,0,0,-1,1203,491,0,0
-14,533,0,0,0,0,0,0,0,0,0,-1,1210,491,0,0
-7,533,0,0,0,0,0,0,0,0,0,-1,1217,491,0,0
0,533,0,0,0,0,0,0,0,0,0,-1,1224,491,0,0
7,533,0,0,0,0,0,0,0,0,0,-1,1231,491,0,0
14,533,0,0,0,0,0,0,0,0,0,-1,1238,491,0,0
21,533,0,0,0,0,0,0,0,0,0,-1,1245,491,0,0
28,533,0,0,0,0,0,0,0,0,0,-1,1252,491,0,0
35,533,0,0,0,0,0,0,0,0,0,-1,1259,491,0,0
42,533,0,0,0,0,0,0,0,0,0,-1,1266,491,0,0
49,533,0,0,0,0,0,0,0,0,0,-1,1273,491,0,0
56,533,0,0,0,0,0,0,0,0,0,-1,1280,491,0,0
63,533,0,0,0,0,0,0,0,0,0,-1,1287,491,0,0
70,533,0,0,0,0,0,0,0,0,0,-1,1294,491,0,0
77,533,0,0,0,0,0,0,0,0,0,-1,1301,491,0,0
84,533,0,0,0,0,0,0,0,0,0,-1,1308,491,0,0
91,533,0,0,0,0,0,0,0,0,0,-1,1315,491,0,0
98,533,0,0,0,0,0,0,0,0,0,-1,1322,491,0,0
105,533,0,0,0,0,0,0,0,0,0,-1,1329,491,0,0
112,533,0,0,0,0,0,0,0,0,0,-1,1336,491,0,0
119,533,0,0,0,0,0,0,0,0,0,-1,1343,491,0,0
126,533,0,0,0,0,0,0,0,0,0,-1,1350,491,0,0
133,533,0,0,0,0,0,0,0,0,0,-1,1357,491,0,0
140,533,0,0,0,0,0,0,0,0,0,-1,1364,491,0,0
147,533,0,0,0,0,0,0,0,0,0,-1,1371,491,0,0
154,533,0,0,0,0,0,0,0,0,0,-1,1378,491,0,0
161,533,0,0,0,0,0,0,0,0,0,-1,1385,491,0,0
168,533,0,0,0,0,0,0,0,0,0,-1,1392,491,0,0
175,533,0,0,0,0,0,0,0,0,0,-1,1399,491,0,0
182,533,0,0,0,0,0,0,0,0,0,-1,1406,491,0,0
189,533,0,0,0,0,0,0,0,0,0,-1,1413,491,0,0
196,533,0,0,0,0,0,0,0,0,0,-1,1420,491,0,0
203,533,3.7887,1.16193,0,0,0,0,0,0,0,-1,1427,491,3.78872,-1.16193
210,533,5.09558,-0.216034,0,0,0,0,0,0,0,-1,1434,491,5.09559,0.216028
217,533,6.91614,-2.46814,0,0,0,0,0,0,0,-1,1441,491,6.91618,2.46814
224,533,7.23621,-2.1857,0,0,0,0,0,0,0,-1,1448,491,7.23621,2.1857
231,533,7.23474,-1.92282,0,0,0,0,0,0,0,-1,1455,491,7.2347,1.92282
238,533,7.23535,-1.67258,0,0,0,0,0,0,0,-1,1462,491,7.23539,1.67258
245,533,6.86682,-1.2301,0,0,0,0,0,0,0,-1,1469,491,6.86686,1.23011
252,533,6.63354,-3.07825,0,0,0,0,0,0,0,-1,1476,491,6.6335,3.07824
259,533,6.16431,-2.35037,-0.0629511,-0.0648602,0.0412591,-0.0226355,-0.105176,0.773833,0.0639222,0.0430354,1483,491,6.1643,2.35037
266,533,5.68884,-1.6214,-0.0653408,-0.0515395,0.0315881,-0.0261071,-0.0907733,0.892937,0.0539611,0.0489899,1490,491,5.68885,1.6214
273,533,5.21399,-0.864227,0,0,0,0,0,0,0,-1,1497,491,5.21403,0.864227
280,533,1.41089,-1.97946,0,0,0,0,0,0,0,-1,1504,491,1.41087,1.97946
287,533,1.6814,-2.44443,0,0,0,0,0,0,0,-1,1511,491,1.6814,2.44444
294,533,2.2384,-2.57626,0,0,0,0,0,0,0,-1,1518,491,2.23839,2.57625
301,533,3.39941,-4.0817,0,0,0,0,0,0,0,-1,1525,491,3.3994,4.08171
308,533,6.10754,-4.88348,0,0,0,0,0,0,0,-1,1532,491,6.10752,4.88348
315,533,5.2749,-4.70587,-0.0582848,0.0201839,-0.0217616,0.0258149,-0.0639158,-1.31759,0.0533401,0.0467169,1539,491,5.27487,4.70586
322,533,4.56482,-4.54892,-0.0538208,0.021252,-0.0260353,0.0293973,-0.0619661,-1.26759,0.0538543,0.044555,1546,491,4.56477,4.54892
329,533,4.06897,-4.31836,-0.0453008,0.0144841,-0.0243067,0.0231192,-0.0539359,-1.22945,0.0456583,0.0427188,1553,491,4.06897,4.31835
336,533,2.34485,-3.17831,0,0,0,0,0,0,0,-1,1560,491,2.34482,3.17831
343,533,3.98877,-3.66251,0,0,0,0,0,0,0,-1,1567,491,3.98874,3.66251
350,533,3.61511,-3.38831,-0.0257792,-0.00294329,-0.0180449,0.00699264,-0.0357151,-1.06748,0.0264509,0.0466692,1574,491,3.61513,3.3883
357,533,3.44019,-3.42105,-0.0205279,-0.00648625,-0.0161663,0.00411795,-0.0311321,-0.990253,0.0222547,0.0366781,1581,491,3.44023,3.42105
364,533,3.28088,-3.42792,-0.0161841,-0.00841976,-0.0144142,0.00262587,-0.0272297,-0.916942,0.0190887,0.0271395,1588,491,3.28092,3.42791
371,533,3.20264,-3.37177,-0.0122325,-0.0104264,-0.0127553,0.00145782,-0.0241167,-0.820738,0.0165851,0.021135,1595,491,3.20258,3.37177
378,533,3.20813,-3.30704,-0.00932898,-0.0110233,-0.0113463,0.00120173,-0.021554,-0.748136,0.0147862,0.0164155,1602,491,3.2081,3.30703
385,533,3.24512,-3.242,-0.00753029,-0.0110266,-0.00975246,0.000629464,-0.0191863,-0.696714,0.0130058,0.0166408,1609,491,3.24511,3.24199
392,533,3.22437,-3.14835,-0.00607984,-0.0096656,-0.00847916,0.000793921,-0.0165394,-0.68121,0.0113002,0.0124921,1616,491,3.22433,3.14833
399,533,3.2478,-3.0831,-0.00482868,-0.00830459,-0.00706982,0.000713662,-0.0138469,-0.664874,0.00947814,0.0111383,1623,491,3.24776,3.08309
406,533,3.24731,-3.0097,-0.00377609,-0.00678774,-0.00576137,0.000672991,-0.0112368,-0.657575,0.00772532,0.0134036,1630,491,3.24727,3.00969
413,533,3.24426,-2.90305,-0.00289918,-0.00553509,-0.00475451,0.000716666,-0.00915093,-0.650192,0.006353,0.0113538,1637,491,3.24423,2.90305
420,533,3.24976,-2.79657,-0.00195951,-0.00400686,-0.00359853,0.000758118,-0.00672449,-0.646824,0.00475588,0.0104037,1644,491,3.24977,2.79658
427,533,3.26318,-2.69824,-0.0013222,-0.00264027,-0.00268929,0.00078763,-0.00475009,-0.665237,0.00345929,0.0118252,1651,491,3.26323,2.69825
434,533,3.25049,-2.61444,-0.00112141,-0.00151413,-0.0019221,0.000614331,-0.00324987,-0.734495,0.00239773,0.0117009,1658,491,3.25048,2.61445
441,533,3.25269,-2.52448,-0.000832099,-7.90554e-05,-0.000951503,0.000567714,-0.00147887,-0.973801,0.00122001,0.0146876,1665,491,3.25271,2.52447
448,533,3.27271,-2.44473,-0.000375415,0.0020195,0.00030644,0.00205809,-0.000414003,1.44553,0.00152886,0.0158861,1672,491,3.27265,2.44474
455,533,3.2644,-2.34357,-6.5996e-05,0.00317336,0.00112511,0.00352579,-0.000418431,1.26723,0.0025017,0.0152402,1679,491,3.2644,2.34355
462,533,3.25305,-2.20148,0.000672787,0.00410938,0.00153868,0.00469761,8.45566e-05,1.20564,0.00310394,0.0142606,1686,491,3.25308,2.20149
469,533,3.2677,-2.15543,0.0018598,0.00548702,0.00191917,0.00631394,0.00103288,1.16396,0.00391073,0.00951836,1693,491,3.26767,2.15543
476,533,3.28174,-2.09201,0.00312041,0.00701598,0.00241489,0.0081707,0.00196569,1.12477,0.00492446,0.0100198,1700,491,3.28176,2.09203
483,533,3.26831,-1.97498,0.00476078,0.00875101,0.00274713,0.0101511,0.00336072,1.09946,0.00597118,0.0117756,1707,491,3.26828,1.97498
490,533,3.25671,-1.87241,0.0068348,0.0105918,0.00274568,0.0120401,0.00538651,1.08541,0.00696418,0.025373,1714,491,3.2567,1.8724
497,533,3.2594,-1.8017,0.00957763,0.012518,0.00231597,0.0137911,0.00830462,1.06821,0.00801749,0.0389042,1721,491,3.25941,1.80168
504,533,3.22766,-2.06073,0.0133203,0.0146223,0.00143455,0.0155466,0.012396,0.998396,0.00949017,0.0383554,1728,491,3.22764,2.06072
511,533,3.32568,-2.27396,0.0183419,0.0163758,0.000455398,0.0184423,0.0162754,0.216905,0.01164,0.042635,1735,491,3.32565,2.27395
518,533,3.46106,-2.49475,0.0250474,0.0193639,-0.000407803,0.0250765,0.0193348,-0.0712652,0.0151704,0.0476892,1742,491,3.4611,2.49475
525,533,3.5863,-2.66714,0,0,0,0,0,0,0,-1,1749,491,3.58628,2.66714
532,533,3.24243,0.0737,0,0,0,0,0,0,0,-1,1756,491,3.24239,-0.0737072
539,533,3.61609,1.62427,0,0,0,0,0,0,0,-1,1763,491,3.61606,-1.62426
546,533,3.59607,1.65799,0,0,0,0,0,0,0,-1,1770,491,3.59605,-1.658
553,533,0,0,0,0,0,0,0,0,0,-1,1777,491,0,0
560,533,0,0,0,0,0,0,0,0,0,-1,1784,491,0,0
567,533,0,0,0,0,0,0,0,0,0,-1,1791,491,0,0
574,533,0,0,0,0,0,0,0,0,0,-1,1798,491,0,0
581,533,0,0,0,0,0,0,0,0,0,-1,1805,491,0,0
588,533,0,0,0,0,0,0,0,0,0,-1,1812,491,0,0
595,533,0,0,0,0,0,0,0,0,0,-1,1819,491,0,0
602,533,0,0,0,0,0,0,0,0,0,-1,1826,491,0,0
609,533,0,0,0,0,0,0,0,0,0,-1,1833,491,0,0
616,533,0,0,0,0,0,0,0,0,0,-1,1840,491,0,0
623,533,0,0,0,0,0,0,0,0,0,-1,1847,491,0,0
630,533,0,0,0,0,0,0,0,0,0,-1,1854,491,0,0
637,533,0,0,0,0,0,0,0,0,0,-1,1861,491,0,0
644,533,0,0,0,0,0,0,0,0,0,-1,1868,491,0,0
651,533,0,0,0,0,0,0,0,0,0,-1,1875,491,0,0
658,533,0,0,0,0,0,0,0,0,0,-1,1882,491,0,0
665,533,0,0,0,0,0,0,0,0,0,-1,1889,491,0,0
672,533,0,0,0,0,0,0,0,0,0,-1,1896,491,0,0
679,533,0,0,0,0,0,0,0,0,0,-1,1903,491,0,0
686,533,0,0,0,0,0,0,0,0,0,-1,1910,491,0,0
693,533,0,0,0,0,0,0,0,0,0,-1,1917,491,0,0
700,533,0,0,0,0,0,0,0,0,0,-1,1924,491,0,0
707,533,0,0,0,0,0,0,0,0,0,-1,1931,491,0,0
714,533,0,0,0,0,0,0,0,0,0,-1,1938,491,0,0
721,533,0,0,0,0,0,0,0,0,0,-1,1945,491,0,0
728,533,0,0,0,0,0,0,0,0,0,-1,1952,491,0,0
735,533,0,0,0,0,0,0,0,0,0,-1,1959,491,0,0
742,533,0,0,0,0,0,0,0,0,0,-1,1966,491,0,0
749,533,0,0,0,0,0,0,0,0,0,-1,1973,491,0,0
756,533,0,0,0,0,0,0,0,0,0,-1,1980,491,0,0
763,533,0,0,0,0,0,0,0,0,0,-1,1987,491,0,0
770,533,0,0,0,0,0,0,0,0,0,-1,1994,491,0,0
777,533,0,0,0,0,0,0,0,0,0,-1,2001,491,0,0
784,533,0,0,0,0,0,0,0,0,0,-1,2008,491,0,0
791,533,0,0,0,0,0,0,0,0,0,-1,2015,491,0,0
798,533,0,0,0,0,0,0,0,0,0,-1,2022,491,0,0
805,533,0,0,0,0,0,0,0,0,0,-1,2029,491,0,0
812,533,0,0,0,0,0,0,0,0,0,-1,2036,491,0,0
-700,526,0,0,0,0,0,0,0,0,0,-1,524,498,0,0
-693,526,0,0,0,0,0,0,0,0,0,-1,531,498,0,0
-686,526,0,0,0,0,0,0,0,0,0,-1,538,498,0,0
-679,526,0,0,0,0,0,0,0,0,0,-1,545,498,0,0
-672,526,0,0,0,0,0,0,0,0,0,-1,552,498,0,0
-665,526,0,0,0,0,0,0,0,0,0,-1,559,498,0,0
-658,526,0,0,0,0,0,0,0,0,0,-1,566,498,0,0
-651,526,0,0,0,0,0,0,0,0,0,-1,573,498,0,0
-644,526,0,0,0,0,0,0,0,0,0,-1,580,498,0,0
-637,526,0,0,0,0,0,0,0,0,0,-1,587,498,0,0
-630,526,0,0,0,0,0,0,0,0,0,-1,594,498,0,0
-623,526,0,0,0,0,0,0,0,0,0,-1,601,498,0,0
-616,526,0,0,0,0,0,0,0,0,0,-1,608,498,0,0
-609,526,0,0,0,0,0,0,0,0,0,-1,615,498,0,0
-602,526,0,0,0,0,0,0,0,0,0,-1,622,498,0,0
-595,526,0,0,0,0,0,0,0,0,0,-1,629,498,0,0
-588,526,0,0,0,0,0,0,0,0,0,-1,636,498,0,0
-581,526,0,0,0,0,0,0,0,0,0,-1,643,498,0,0
-574,526,0,0,0,0,0,0,0,0,0,-1,650,498,0,0
-567,526,0,0,0,0,0,0,0,0,0,-1,657,498,0,0
-560,526,0,0,0,0,0,0,0,0,0,-1,664,498,0,0
-553,526,0,0,0,0,0,0,0,0,0,-1,671,498,0,0
-546,526,0,0,0,0,0,0,0,0,0,-1,678,498,0,0
-539,526,0,0,0,0,0,0,0,0,0,-1,685,498,0,0
-532,526,0,0,0,0,0,0,0,0,0,-1,692,498,0,0
-525,526,0,0,0,0,0,0,0,0,0,-1,699,498,0,0
-518,526,0,0,0,0,0,0,0,0,0,-1,706,498,0,0
-511,526,0,0,0,0,0,0,0,0,0,-1,713,498,0,0
-504,526,0,0,0,0,0,0,0,0,0,-1,720,498,0,0
-497,526,0,0,0,0,0,0,0,0,0,-1,727,498,0,0
-490,526,0,0,0,0,0,0,0,0,0,-1,734,498,0,0
-483,526,0,0,0,0,0,0,0,0,0,-1,741,498,0,0
-476,526,0,0,0,0,0,0,0,0,0,-1,748,498,0,0
-469,526,0,0,0,0,0,0,0,0,0,-1,755,498,0,0
-462,526,0,0,0,0,0,0,0,0,0,-1,762,498,0,0
-455,526,0,0,0,0,0,0,0,0,0,-1,769,498,0,0
-448,526,0,0,0,0,0,0,0,0,0,-1,776,498,0,0
-441,526,0,0,0,0,0,0,0,0,0,-1,783,498,0,0
-434,526,1.50348,-2.73892,0,0,0,0,0,0,0,-1,790,498,1.50346,2.73893
-427,526,-0.106812,-2.66321,0,0,0,0,0,0,0,-1,797,498,-0.106787,2.66321
-420,526,0.279602,-2.31296,0.0423346,0.0890678,0.0146962,0.0933051,0.0380972,1.29008,0.0541708,0.0474233,804,498,0.279591,2.31296
-413,526,0.649475,-1.96619,0.0321825,0.0837148,0.00803836,0.0849395,0.0309577,1.41959,0.0496368,0.0459484,811,498,0.649463,1.9662
-406,526,1.07434,-1.75836,0.0236977,0.0744722,0.0031765,0.0746702,0.0234997,1.50856,0.0440865,0.0411876,818,498,1.07435,1.75835
-399,526,1.48529,-1.52917,0.0168838,0.0638274,-0.00208731,0.0639201,0.0167912,-1.52645,0.0382647,0.0484177,825,498,1.48532,1.52918
-392,526,1.64679,-1.52325,0.0125361,0.0526944,-0.006483,0.0537151,0.0115155,-1.41464,0.0326555,0.0479759,832,498,1.64676,1.52325
-385,526,1.40955,-1.2587,0.00825409,0.04306,-0.010035,0.045746,0.00556813,-1.30927,0.0288211,0.0492711,839,498,1.40952,1.25869
-378,526,1.36658,-2.12033,0,0,0,0,0,0,0,-1,846,498,1.36659,2.12032
-371,526,1.3299,-2.19318,0.00484591,0.0241362,-0.0132973,0.0309181,-0.00193597,-1.09917,0.0212868,0.0366509,853,498,1.32989,2.19317
-364,526,1.32568,-2.2919,0.00303763,0.0155872,-0.0135065,0.0242054,-0.00558049,-1.00285,0.0182832,0.0196584,860,498,1.32566,2.29189
-357,526,1.29358,-2.38327,0.00128326,0.00857341,-0.0130485,0.0184764,-0.0086197,-0.921601,0.0159852,0.0131664,867,498,1.29359,2.38326
-350,526,1.31323,-2.47028,0.000239793,0.00399235,-0.0115249,0.0137927,-0.00956054,-0.866091,0.0135566,0.0112293,874,498,1.31322,2.47026
-343,526,1.32745,-2.5701,-0.000174939,0.000848339,-0.00939015,0.00974077,-0.00906737,-0.812615,0.0108612,0.0147102,881,498,1.32748,2.57008
-336,526,1.30695,-2.67776,-0.000364858,-0.00117433,-0.00705993,0.00630193,-0.00784112,-0.756765,0.00818159,0.0146069,888,498,1.30695,2.67778
-329,526,1.29889,-2.76685,-0.000557116,-0.00208398,-0.00490309,0.00364162,-0.00628272,-0.708166,0.00579706,0.015148,895,498,1.29888,2.76685
-322,526,1.30133,-2.83051,-0.000661888,-0.00233369,-0.00300857,0.00162475,-0.00462033,-0.649896,0.00374131,0.0101192,902,498,1.30133,2.8305
-315,526,1.30304,-2.93405,-0.000812278,-0.00246744,-0.00138071,-3.01226e-05,-0.0032496,-0.515413,0.00215643,0.00868734,909,498,1.30307,2.93404
-308,526,1.30609,-3.02429,-0.000852745,-0.00280394,-0.000216211,-0.000829074,-0.00282761,-0.109047,0.00167842,0.00829715,916,498,1.30606,3.0243
-301,526,1.29816,-3.09668,-0.000852571,-0.00306684,0.000224255,-0.000830088,-0.00308933,0.0999249,0.00184615,0.00941383,923,498,1.29813,3.09667
-294,526,1.2962,-3.17786,-6.90983e-05,-0.0031162,0.00108013,0.000274937,-0.00346024,0.308354,0.00240372,0.00874134,930,498,1.2962,3.17786
-287,526,1.29291,-3.26434,0.00122949,-0.00337422,0.0024134,0.00226275,-0.00440749,0.404525,0.00391686,0.00861804,937,498,1.29292,3.26434
-280,526,1.29895,-3.34232,0.00320552,-0.00390589,0.00474173,0.00557662,-0.00627699,0.463688,0.00684767,0.0117228,944,498,1.29896,3.34232
-273,526,1.32452,-3.41611,0.0060309,-0.00468743,0.00796211,0.0102694,-0.00892597,0.489182,0.0110915,0.0105152,951,498,1.3245,3.41609
-266,526,1.31842,-3.48129,0.00921008,-0.00585478,0.0116745,0.0155713,-0.012216,0.498901,0.0160819,0.00959082,958,498,1.31843,3.48129
-259,526,1.31714,-3.56473,0.0119115,-0.00761022,0.0162038,0.0210672,-0.0167659,0.514314,0.02189,0.0161236,965,498,1.31712,3.56473
-252,526,1.28748,-3.6304,0.0132375,-0.010933,0.0208612,0.0252612,-0.0229567,0.522861,0.0278492,0.0287416,972,498,1.28745,3.63041
-245,526,1.32379,-3.75757,0.0132964,-0.014623,0.0252259,0.0281676,-0.0294942,0.532677,0.033294,0.0394082,979,498,1.32379,3.75757
-238,526,1.36902,-3.83521,0.0126824,-0.0190153,0.0297442,0.0305368,-0.0368696,0.540613,0.0389743,0.038379,986,498,1.36903,3.8352
-231,526,1.34863,-3.93387,0.0123069,-0.0232072,0.0337273,0.0326661,-0.0435664,0.543092,0.0441625,0.0403826,993,498,1.34861,3.93386
-224,526,1.46747,-4.08658,0.0111353,-0.027592,0.0368105,0.0333644,-0.0498212,0.543268,0.0483395,0.0436837,1000,498,1.46749,4.08657
-217,526,1.60223,-3.84293,0,0,0,0,0,0,0,-1,1007,498,1.60221,3.84292
-210,526,1.19714,-3.85696,0.00549015,-0.0381008,0.0411238,0.0302372,-0.0628478,0.54172,0.054831,0.0499318,1014,498,1.19714,3.85695
-203,526,1.16656,-3.86823,0.00196669,-0.0424392,0.0426154,0.0278162,-0.0682888,0.545242,0.0571028,0.0481971,1021,498,1.16658,3.86821
-196,526,0.901611,-4.06146,-0.000867725,-0.0458556,0.0455748,0.0274619,-0.0741853,0.556157,0.0607175,0.0484735,1028,498,0.901572,4.06147
-189,526,0.749634,-3.85196,0,0,0,0,0,0,0,-1,1035,498,0.749595,3.85197
-182,526,0.454712,-3.86063,0,0,0,0,0,0,0,-1,1042,498,0.45474,3.86062
-175,526,-1.96082,-2.14377,0,0,0,0,0,0,0,-1,1049,498,-1.96081,2.14378
-168,526,-2.60059,-2.88141,0,0,0,0,0,0,0,-1,1056,498,-2.60054,2.8814
-161,526,-1.18848,-4.76038,0,0,0,0,0,0,0,-1,1063,498,-1.18846,4.76039
-154,526,-1.23254,-3.56442,0,0,0,0,0,0,0,-1,1070,498,-1.23259,3.56443
-147,526,-3.31079,-2.06256,0,0,0,0,0,0,0,-1,1077,498,-3.31081,2.06256
-140,526,3.77466,0.0353699,0,0,0,0,0,0,0,-1,1084,498,3.77461,-0.0353646
-133,526,3.5448,-0.995819,0,0,0,0,0,0,0,-1,1091,498,3.54482,0.99583
-126,526,3.42529,-2.36053,0,0,0,0,0,0,0,-1,1098,498,3.42523,2.36052
-119,526,2.7771,-0.764099,0,0,0,0,0,0,0,-1,1105,498,2.7771,0.764107
-112,526,2.57715,-1.1893,0,0,0,0,0,0,0,-1,1112,498,2.57718,1.1893
-105,526,0,0,0,0,0,0,0,0,0,-1,1119,498,0,0
-98,526,0,0,0,0,0,0,0,0,0,-1,1126,498,0,0
-91,526,0,0,0,0,0,0,0,0,0,-1,1133,498,0,0
-84,526,0,0,0,0,0,0,0,0,0,-1,1140,498,0,0
-77,526,0,0,0,0,0,0,0,0,0,-1,1147,498,0,0
-70,526,0,0,0,0,0,0,0,0,0,-1,1154,498,0,0
-63,526,0,0,0,0,0,0,0,0,0,-1,1161,498,0,0
-56,526,0,0,0,0,0,0,0,0,0,-1,1168,498,0,0
-49,526,0,0,0,0,0,0,0,0,0,-1,1175,498,0,0
-42,526,0,0,0,0,0,0,0,0,0,-1,1182,498,0,0
-35,526,0,0,0,0,0,0,0,0,0,-1,1189,498,0,0
-28,526,0,0,0,0,0,0,0,0,0,-1,1196,498,0,0
-21,526,0,0,0,0,0,0,0,0,0,-1,1203,498,0,0
-14,526,0,0,0,0,0,0,0,0,0,-1,1210,498,0,0
-7,526,0,0,0,0,0,0,0,0,0,-1,1217,498,0,0
0,526,0,0,0,0,0,0,0,0,0,-1,1224,498,0,0
7,526,0,0,0,0,0,0,0,0,0,-1,1231,498,0,0
14,526,0,0,0,0,0,0,0,0,0,-1,1238,498,0,0
21,526,0,0,0,0,0,0,0,0,0,-1,1245,498,0,0
28,526,0,0,0,0,0,0,0,0,0,-1,1252,498,0,0
35,526,0,0,0,0,0,0,0,0,0,-1,1259,498,0,0
42,526,0,0,0,0,0,0,0,0,0,-1,1266,498,0,0
49,526,0,0,0,0,0,0,0,0,0,-1,1273,498,0,0
56,526,0,0,0,0,0,0,0,0,0,-1,1280,498,0,0
63,526,0,0,0,0,0,0,0,0,0,-1,1287,498,0,0
70,526,0,0,0,0,0,0,0,0,0,-1,1294,498,0,0
77,526,0,0,0,0,0,0,0,0,0,-1,1301,498,0,0
84,526,0,0,0,0,0,0,0,0,0,-1,1308,498,0,0
91,526,0,0,0,0,0,0,0,0,0,-1,1315,498,0,0
98,526,0,0,0,0,0,0,0,0,0,-1,1322,498,0,0
105,526,0,0,0,0,0,0,0,0,0,-1,1329,498,0,0
112,526,0,0,0,0,0,0,0,0,0,-1,1336,498,0,0
119,526,0,0,0,0,0,0,0,0,0,-1,1343,498,0,0
126,526,0,0,0,0,0,0,0,0,0,-1,1350,498,0,0
133,526,0,0,0,0,0,0,0,0,0,-1,1357,498,0,0
140,526,0,0,0,0,0,0,0,0,0,-1,1364,498,0,0
147,526,0,0,0,0,0,0,0,0,0,-1,1371,498,0,0
154,526,0,0,0,0,0,0,0,0,0,-1,1378,498,0,0
161,526,0,0,0,0,0,0,0,0,0,-1,1385,498,0,0
168,526,0,0,0,0,0,0,0,0,0,-1,1392,498,0,0
175,526,0,0,0,0,0,0,0,0,0,-1,1399,498,0,0
182,526,0,0,0,0,0,0,0,0,0,-1,1406,498,0,0
189,526,0,0,0,0,0,0,0,0,0,-1,1413,498,0,0
196,526,0,0,0,0,0,0,0,0,0,-1,1420,498,0,0
203,526,0,0,0,0,0,0,0,0,0,-1,1427,498,0,0
210,526,0,0,0,0,0,0,0,0,0,-1,1434,498,0,0
217,526,0,0,0,0,0,0,0,0,0,-1,1441,498,0,0
224,526,0,0,0,0,0,0,0,0,0,-1,1448,498,0,0
231,526,7.93237,-1.30618,0,0,0,0,0,0,0,-1,1455,498,7.93238,1.30618
238,526,7.97717,-1.08197,0,0,0,0,0,0,0,-1,1462,498,7.97723,1.08196
245,526,7.2793,-0.792938,0,0,0,0,0,0,0,-1,1469,498,7.27931,0.792926
252,526,6.73523,-2.23608,0,0,0,0,0,0,0,-1,1476,498,6.73525,2.23608
259,526,6.22949,-1.84967,0,0,0,0,0,0,0,-1,1483,498,6.22953,1.84968
266,526,5.72375,-1.46329,0,0,0,0,0,0,0,-1,1490,498,5.72381,1.46328
273,526,4.33984,0.49173,0,0,0,0,0,0,0,-1,1497,498,4.33979,-0.491727
280,526,1.4585,-1.59897,0,0,0,0,0,0,0,-1,1504,498,1.45846,1.59895
287,526,1.46411,-2.40134,0,0,0,0,0,0,0,-1,1511,498,1.46406,2.40133
294,526,5.57471,-4.59085,0,0,0,0,0,0,0,-1,1518,498,5.57466,4.59084
301,526,4.42786,-3.99677,0,0,0,0,0,0,0,-1,1525,498,4.42788,3.99676
308,526,6.64746,-5.11526,0,0,0,0,0,0,0,-1,1532,498,6.64747,5.11528
315,526,5.84216,-4.97894,-0.0772006,0.028952,-0.0255994,0.034803,-0.0830515,-1.3461,0.0699182,0.0486845,1539,498,5.84213,4.97895
322,526,5.07043,-4.81915,-0.0726081,0.0303672,-0.0323683,0.0396964,-0.0819372,-1.29018,0.0716228,0.0483699,1546,498,5.07038,4.81915
329,526,4.43848,-4.71616,0,0,0,0,0,0,0,-1,1553,498,4.43846,4.71616
336,526,3.5083,-2.1221,0,0,0,0,0,0,0,-1,1560,498,3.50832,2.12209
343,526,3.31665,-2.69696,0,0,0,0,0,0,0,-1,1567,498,3.31667,2.69696
350,526,3.78613,-3.24048,0,0,0,0,0,0,0,-1,1574,498,3.78619,3.24048
357,526,3.49463,-3.64703,-0.0265387,-0.0115801,-0.0199724,0.00226748,-0.0403863,-0.964557,0.027711,0.046061,1581,498,3.49457,3.64703
364,526,3.46423,-3.47067,-0.0210766,-0.0141278,-0.0179852,0.000715494,-0.0359199,-0.880813,0.0241886,0.0432141,1588,498,3.46426,3.47067
371,526,3.50842,-3.25809,-0.0162155,-0.0166195,-0.0160913,-0.000324953,-0.0325101,-0.779121,0.0215659,0.0409274,1595,498,3.50841,3.2581
378,526,3.37854,-3.36899,-0.0125947,-0.0172456,-0.0144474,-0.000286776,-0.0295536,-0.705602,0.0196075,0.0419708,1602,498,3.37855,3.369
385,526,3.401,-3.37192,-0.010281,-0.0169601,-0.0125857,-0.00059934,-0.0266418,-0.655712,0.0175648,0.0327369,1609,498,3.40098,3.37193
392,526,3.35901,-3.1701,-0.00836854,-0.015046,-0.0110737,-0.000141202,-0.0232733,-0.638982,0.0154687,0.0185404,1616,498,3.35896,3.17011
399,526,3.31458,-3.08115,-0.0066842,-0.0130854,-0.00942425,6.80937e-05,-0.0198377,-0.621702,0.0132479,0.0121492,1623,498,3.31452,3.08113
406,526,3.34705,-2.9776,-0.00525121,-0.0109166,-0.00785772,0.000268832,-0.0164366,-0.612401,0.0110484,0.0113358,1630,498,3.3471,2.9776
413,526,3.35437,-2.88351,-0.00406282,-0.00897362,-0.00657599,0.000501229,-0.0135377,-0.60672,0.00919674,0.012872,1637,498,3.35431,2.88351
420,526,3.33423,-2.79285,-0.00279978,-0.00680543,-0.00510233,0.000678729,-0.0102839,-0.598372,0.00709304,0.0123345,1644,498,3.33425,2.79284
427,526,3.35132,-2.69711,-0.00189367,-0.0048392,-0.00388743,0.000790627,-0.00752349,-0.604326,0.0052989,0.012059,1651,498,3.35133,2.69711
434,526,3.34998,-2.59485,-0.00152094,-0.00315616,-0.0028638,0.000639682,-0.00531678,-0.646348,0.00377585,0.0114132,1658,498,3.34992,2.59484
441,526,3.3468,-2.5159,-0.00112146,-0.00137184,-0.0018685,0.00062604,-0.00311934,-0.751948,0.00231661,0.0111832,1665,498,3.34675,2.51589
448,526,3.35474,-2.44183,-0.000559921,0.000752886,-0.000639747,0.00101308,-0.00082011,-1.18452,0.00106034,0.0105531,1672,498,3.35479,2.44182
455,526,3.34363,-2.37906,-0.000204985,0.00198017,0.000228395,0.00200379,-0.000228602,1.46776,0.00141822,0.0128259,1679,498,3.34367,2.37906
462,526,3.35413,-2.2645,0.000339025,0.00275066,0.000597607,0.00289063,0.00019906,1.34073,0.00186428,0.010041,1686,498,3.35414,2.2645
469,526,3.37134,-2.17419,0.00122902,0.00359406,0.000895656,0.00389496,0.000928114,1.24668,0.0023492,0.00723653,1693,498,3.37131,2.1742
476,526,3.37585,-2.08157,0.00225604,0.00455513,0.00115829,0.00503748,0.00177369,1.1762,0.0029505,0.00935057,1700,498,3.37582,2.08158
483,526,3.36926,-1.9675,0.00350944,0.00554738,0.0012154,0.00611444,0.00294238,1.13425,0.00353101,0.0101931,1707,498,3.36924,1.96749
490,526,3.38086,-1.83926,0.00505719,0.00651233,0.000958653,0.00698824,0.00458128,1.11,0.00409925,0.0129189,1714,498,3.38091,1.83927
497,526,3.36621,-1.7655,0.00713274,0.00749566,0.000393951,0.00774793,0.00688047,1.00122,0.00490179,0.0185748,1721,498,3.36621,1.76551
504,526,3.3252,-1.70096,0.010051,0.00861704,-0.00045205,0.0101816,0.00848642,-0.281273,0.00629916,0.0260656,1728,498,3.32523,1.70096
511,526,3.37561,-1.70685,0.0141851,0.0093083,-0.00105816,0.0144048,0.0090886,-0.204718,0.00841112,0.0368897,1735,498,3.37559,1.70686
518,526,3.43372,-2.19971,0.0199127,0.0115298,-0.00102919,0.0200372,0.0114053,-0.120391,0.0116054,0.044137,1742,498,3.43368,2.19971
525,526,3.44507,-2.5867,0,0,0,0,0,0,0,-1,1749,498,3.44504,2.58671
532,526,3.54285,-2.81274,0,0,0,0,0,0,0,-1,1756,498,3.54284,2.81273
539,526,3.29407,0.932312,0,0,0,0,0,0,0,-1,1763,498,3.2941,-0.93232
546,526,3.36731,1.07721,0,0,0,0,0,0,0,-1,1770,498,3.36735,-1.07719
553,526,3.40796,1.37137,0,0,0,0,0,0,0,-1,1777,498,3.40792,-1.37138
560,526,0,0,0,0,0,0,0,0,0,-1,1784,498,0,0
567,526,0,0,0,0,0,0,0,0,0,-1,1791,498,0,0
574,526,0,0,0,0,0,0,0,0,0,-1,1798,498,0,0
581,526,0,0,0,0,0,0,0,0,0,-1,1805,498,0,0
588,526,0,0,0,0,0,0,0,0,0,-1,1812,498,0,0
595,526,0,0,0,0,0,0,0,0,0,-1,1819,498,0,0
602,526,0,0,0,0,0,0,0,0,0,-1,1826,498,0,0
609,526,0,0,0,0,0,0,0,0,0,-1,1833,498,0,0
616,526,0,0,0,0,0,0,0,0,0,-1,1840,498,0,0
623,526,0,0,0,0,0,0,0,0,0,-1,1847,498,0,0
630,526,0,0,0,0,0,0,0,0,0,-1,1854,498,0,0
637,526,0,0,0,0,0,0,0,0,0,-1,1861,498,0,0
644,526,0,0,0,0,0,0,0,0,0,-1,1868,498,0,0
651,526,0,0,0,0,0,0,0,0,0,-1,1875,498,0,0
658,526,0,0,0,0,0,0,0,0,0,-1,1882,498,0,0
665,526,0,0,0,0,0,0,0,0,0,-1,1889,498,0,0
672,526,0,0,0,0,0,0,0,0,0,-1,1896,498,0,0
679,526,0,0,0,0,0,0,0,0,0,-1,1903,498,0,0
686,526,0,0,0,0,0,0,0,0,0,-1,1910,498,0,0
693,526,0,0,0,0,0,0,0,0,0,-1,1917,498,0,0
700,526,0,0,0,0,0,0,0,0,0,-1,1924,498,0,0
707,526,0,0,0,0,0,0,0,0,0,-1,1931,498,0,0
714,526,0,0,0,0,0,0,0,0,0,-1,1938,498,0,0
721,526,0,0,0,0,0,0,0,0,0,-1,1945,498,0,0
728,526,0,0,0,0,0,0,0,0,0,-1,1952,498,0,0
735,526,0,0,0,0,0,0,0,0,0,-1,1959,498,0,0
742,526,0,0,0,0,0,0,0,0,0,-1,1966,498,0,0
749,526,0,0,0,0,0,0,0,0,0,-1,1973,498,0,0
756,526,0,0,0,0,0,0,0,0,0,-1,1980,498,0,0
763,526,0,0,0,0,0,0,0,0,0,-1,1987,498,0,0
770,526,0,0,0,0,0,0,0,0,0,-1,1994,498,0,0
777,526,0,0,0,0,0,0,0,0,0,-1,2001,498,0,0
784,526,0,0,0,0,0,0,0,0,0,-1,2008,498,0,0
791,526,0,0,0,0,0,0,0,0,0,-1,2015,498,0,0
798,526,0,0,0,0,0,0,0,0,0,-1,2022,498,0,0
805,526,0,0,0,0,0,0,0,0,0,-1,2029,498,0,0
812,526,0,0,0,0,0,0,0,0,0,-1,2036,498,0,0
-700,519,0,0,0,0,0,0,0,0,0,-1,524,505,0,0
-693,519,0,0,0,0,0,0,0,0,0,-1,531,505,0,0
-686,519,0,0,0,0,0,0,0,0,0,-1,538,505,0,0
-679,519,0,0,0,0,0,0,0,0,0,-1,545,505,0,0
-672,519,0,0,0,0,0,0,0,0,0,-1,552,505,0,0
-665,519,0,0,0,0,0,0,0,0,0,-1,559,505,0,0
-658,519,0,0,0,0,0,0,0,0,0,-1,566,505,0,0
-651,519,0,0,0,0,0,0,0,0,0,-1,573,505,0,0
-644,519,0,0,0,0,0,0,0,0,0,-1,580,505,0,0
-637,519,0,0,0,0,0,0,0,0,0,-1,587,505,0,0
-630,519,0,0,0,0,0,0,0,0,0,-1,594,505,0,0
-623,519,0,0,0,0,0,0,0,0,0,-1,601,505,0,0
-616,519,0,0,0,0,0,0,0,0,0,-1,608,505,0,0
-609,519,0,0,0,0,0,0,0,0,0,-1,615,505,0,0
-602,519,0,0,0,0,0,0,0,0,0,-1,622,505,0,0
-595,519,0,0,0,0,0,0,0,0,0,-1,629,505,0,0
-588,519,0,0,0,0,0,0,0,0,0,-1,636,505,0,0
-581,519,0,0,0,0,0,0,0,0,0,-1,643,505,0,0
-574,519,0,0,0,0,0,0,0,0,0,-1,650,505,0,0
-567,519,0,0,0,0,0,0,0,0,0,-1,657,505,0,0
-560,519,0,0,0,0,0,0,0,0,0,-1,664,505,0,0
-553,519,0,0,0,0,0,0,0,0,0,-1,671,505,0,0
-546,519,0,0,0,0,0,0,0,0,0,-1,678,505,0,0
-539,519,0,0,0,0,0,0,0,0,0,-1,685,505,0,0
-532,519,0,0,0,0,0,0,0,0,0,-1,692,505,0,0
-525,519,0,0,0,0,0,0,0,0,0,-1,699,505,0,0
-518,519,0,0,0,0,0,0,0,0,0,-1,706,505,0,0
-511,519,0,0,0,0,0,0,0,0,0,-1,713,505,0,0
-504,519,0,0,0,0,0,0,0,0,0,-1,720,505,0,0
-497,519,0,0,0,0,0,0,0,0,0,-1,727,505,0,0
-490,519,0,0,0,0,0,0,0,0,0,-1,734,505,0,0
-483,519,0,0,0,0,0,0,0,0,0,-1,741,505,0,0
-476,519,0,0,0,0,0,0,0,0,0,-1,748,505,0,0
-469,519,0,0,0,0,0,0,0,0,0,-1,755,505,0,0
-462,519,0,0,0,0,0,0,0,0,0,-1,762,505,0,0
-455,519,0,0,0,0,0,0,0,0,0,-1,769,505,0,0
-448,519,0,0,0,0,0,0,0,0,0,-1,776,505,0,0
-441,519,-0.28363,-1.57944,0.098933,0.0655519,-0.006524,0.100163,0.0643222,-0.18631,0.0586031,0.0447824,783,505,-0.283612,1.57944
-434,519,0.77887,-2.16077,0,0,0,0,0,0,0,-1,790,505,0.778862,2.16078
-427,519,1.44006,-2.5531,0.0568969,0.0743204,0.00900908,0.0781409,0.0530764,1.16971,0.0460708,0.0486627,797,505,1.44003,2.55309
-420,519,0.0172119,-3.25082,0.042271,0.0731637,0.0100965,0.0761708,0.0392639,1.28133,0.0439843,0.0498402,804,505,0.0172239,3.25084
-413,519,0.619019,-2.88489,0.0314426,0.0696572,0.00842678,0.0714329,0.0296669,1.36311,0.0414385,0.0435734,811,505,0.619033,2.88488
-406,519,1.06659,-2.71487,0.0226092,0.0628947,0.00698123,0.0640702,0.0214337,1.40398,0.0376601,0.0427069,818,505,1.06659,2.71487
-399,519,1.44647,-2.29834,0.0160594,0.0546035,0.00435596,0.0550896,0.0155733,1.45965,0.0327921,0.0478423,825,505,1.44646,2.29834
-392,519,1.29248,-1.78983,0.0119342,0.0454497,0.00124689,0.0454961,0.0118879,1.53366,0.0272467,0.0475437,832,505,1.29249,1.78983
-385,519,1.22015,-1.74551,0.00813215,0.0373838,-0.00148221,0.0374588,0.00805724,-1.5203,0.0227671,0.046035,839,505,1.22015,1.7455
-378,519,1.21368,-2.07297,0.0063315,0.0285505,-0.00388343,0.0292097,0.00567232,-1.40266,0.0178848,0.0340274,846,505,1.21366,2.07296
-371,519,1.2298,-2.17859,0.00532211,0.0215007,-0.00489728,0.0228676,0.00395519,-1.29861,0.0141126,0.017559,853,505,1.22977,2.17859
-364,519,1.22583,-2.27756,0.00373478,0.0141474,-0.00558306,0.016575,0.00130721,-1.16065,0.0106411,0.0103099,860,505,1.2258,2.27756
-357,519,1.23022,-2.38666,0.00213052,0.0080433,-0.00581675,0.0116118,-0.00143803,-1.02051,0.00826239,0.00948516,867,505,1.2302,2.38665
-350,519,1.22845,-2.47202,0.00109336,0.00401311,-0.00527373,0.0080253,-0.00291883,-0.920427,0.00654385,0.0115822,874,505,1.22848,2.47203
-343,519,1.23004,-2.56833,0.00059019,0.0012105,-0.00423504,0.00514673,-0.00334603,-0.821951,0.0049399,0.0137363,881,505,1.23004,2.56832
-336,519,1.21436,-2.66739,0.000254065,-0.00066065,-0.00300917,0.00284043,-0.00324702,-0.709981,0.0035172,0.0130395,888,505,1.21433,2.6674
-329,519,1.21429,-2.75424,-0.000105844,-0.00165352,-0.00182726,0.00110469,-0.00286405,-0.585101,0.00236521,0.0121314,895,505,1.21427,2.75425
-322,519,1.23529,-2.84702,-0.000430167,-0.00213195,-0.000792084,-0.000118555,-0.00244356,-0.37481,0.001591,0.0102638,902,505,1.2353,2.84701
-315,519,1.24359,-2.95047,-0.000779892,-0.0025194,6.06949e-05,-0.000777777,-0.00252152,0.0348355,0.00149098,0.00885965,909,505,1.24362,2.95048
-308,519,1.2262,-3.0314,-0.00100093,-0.00310426,0.000556366,-0.000862827,-0.00324236,0.243301,0.00193905,0.00783625,916,505,1.22619,3.03141
-301,519,1.21387,-3.11124,-0.00114696,-0.00369364,0.000630087,-0.000999597,-0.00384101,0.229751,0.00230102,0.0113472,923,505,1.21386,3.11122
-294,519,1.21161,-3.18237,-8.75336e-05,-0.0039202,0.00168291,0.00054653,-0.00455427,0.360318,0.00323379,0.0135826,930,505,1.21162,3.18238
-287,519,1.18719,-3.28091,0.00189311,-0.00442721,0.00386411,0.00372474,-0.00625885,0.442641,0.00582559,0.0098479,937,505,1.1872,3.28091
-280,519,1.19055,-3.36453,0.00487359,-0.00541557,0.007533,0.00885112,-0.0093931,0.485806,0.0105349,0.0121336,944,505,1.19053,3.36454
-273,519,1.2348,-3.42853,0.00906541,-0.00684154,0.0124601,0.0158941,-0.0136702,0.501339,0.017085,0.0150955,951,505,1.23481,3.42853
-266,519,1.21558,-3.48749,0.0136456,-0.00865264,0.0179092,0.0235925,-0.0185995,0.506985,0.0244164,0.0218387,958,505,1.21557,3.4875
-259,519,1.25031,-3.5217,0.017361,-0.011146,0.0242206,0.0312109,-0.0249959,0.519444,0.032517,0.0396815,965,505,1.25033,3.5217
-252,519,1.20306,-3.67145,0,0,0,0,0,0,0,-1,972,505,1.20308,3.67144
-245,519,1.23297,-3.79153,0,0,0,0,0,0,0,-1,979,505,1.23298,3.79154
-238,519,1.27777,-3.9245,0,0,0,0,0,0,0,-1,986,505,1.27775,3.92449
-231,519,1.1969,-4.03369,0,0,0,0,0,0,0,-1,993,505,1.19689,4.03368
-224,519,1.07251,-4.40805,0,0,0,0,0,0,0,-1,1000,505,1.07253,4.40804
-217,519,1.33008,-3.42258,0,0,0,0,0,0,0,-1,1007,505,1.3301,3.42258
-210,519,0.698608,-3.70654,0,0,0,0,0,0,0,-1,1014,505,0.698605,3.70653
-203,519,0.898438,-3.44669,0,0,0,0,0,0,0,-1,1021,505,0.898452,3.44667
-196,519,0.559448,-4.04382,0,0,0,0,0,0,0,-1,1028,505,0.559505,4.04383
-189,519,0.818237,-3.96115,0,0,0,0,0,0,0,-1,1035,505,0.818293,3.96115
-182,519,-1.4231,-1.17984,0,0,0,0,0,0,0,-1,1042,505,-1.42313,1.17985
-175,519,-2.08533,-1.89734,0,0,0,0,0,0,0,-1,1049,505,-2.08538,1.89734
-168,519,-2.74158,-2.58661,0,0,0,0,0,0,0,-1,1056,505,-2.74163,2.58662
-161,519,-2.07092,-5.41849,0,0,0,0,0,0,0,-1,1063,505,-2.07094,5.41848
-154,519,-2.32422,-4.48334,0,0,0,0,0,0,0,-1,1070,505,-2.32424,4.48333
-147,519,4.86804,1.50809,0,0,0,0,0,0,0,-1,1077,505,4.86802,-1.5081
-140,519,4.60083,0.485077,0,0,0,0,0,0,0,-1,1084,505,4.60082,-0.48508
-133,519,4.29602,-0.444275,0,0,0,0,0,0,0,-1,1091,505,4.29599,0.444265
-126,519,0,0,0,0,0,0,0,0,0,-1,1098,505,0,0
-119,519,0,0,0,0,0,0,0,0,0,-1,1105,505,0,0
-112,519,0,0,0,0,0,0,0,0,0,-1,1112,505,0,0
-105,519,0,0,0,0,0,0,0,0,0,-1,1119,505,0,0
-98,519,0,0,0,0,0,0,0,0,0,-1,1126,505,0,0
-91,519,0,0,0,0,0,0,0,0,0,-1,1133,505,0,0
-84,519,0,0,0,0,0,0,0,0,0,-1,1140,505,0,0
-77,519,0,0,0,0,0,0,0,0,0,-1,1147,505,0,0
-70,519,0,0,0,0,0,0,0,0,0,-1,1154,505,0,0
-63,519,0,0,0,0,0,0,0,0,0,-1,1161,505,0,0
-56,519,0,0,0,0,0,0,0,0,0,-1,1168,505,0,0
-49,519,0,0,0,0,0,0,0,0,0,-1,1175,505,0,0
-42,519,0,0,0,0,0,0,0,0,0,-1,1182,505,0,0
-35,519,0,0,0,0,0,0,0,0,0,-1,1189,505,0,0
-28,519,0,0,0,0,0,0,0,0,0,-1,1196,505,0,0
-21,519,0,0,0,0,0,0,0,0,0,-1,1203,505,0,0
-14,519,0,0,0,0,0,0,0,0,0,-1,1210,505,0,0
-7,519,0,0,0,0,0,0,0,0,0,-1,1217,505,0,0
0,519,0,0,0,0,0,0,0,0,0,-1,1224,505,0,0
7,519,0,0,0,0,0,0,0,0,0,-1,1231,505,0,0
14,519,0,0,0,0,0,0,0,0,0,-1,1238,505,0,0
21,519,0,0,0,0,0,0,0,0,0,-1,1245,505,0,0
28,519,0,0,0,0,0,0,0,0,0,-1,1252,505,0,0
35,519,0,0,0,0,0,0,0,0,0,-1,1259,505,0,0
42,519,0,0,0,0,0,0,0,0,0,-1,1266,505,0,0
49,519,0,0,0,0,0,0,0,0,0,-1,1273,505,0,0
56,519,0,0,0,0,0,0,0,0,0,-1,1280,505,0,0
63,519,0,0,0,0,0,0,0,0,0,-1,1287,505,0,0
70,519,0,0,0,0,0,0,0,0,0,-1,1294,505,0,0
77,519,0,0,0,0,0,0,0,0,0,-1,1301,505,0,0
84,519,0,0,0,0,0,0,0,0,0,-1,1308,505,0,0
91,519,0,0,0,0,0,0,0,0,0,-1,1315,505,0,0
98,519,0,0,0,0,0,0,0,0,0,-1,1322,505,0,0
105,519,0,0,0,0,0,0,0,0,0,-1,1329,505,0,0
112,519,0,0,0,0,0,0,0,0,0,-1,1336,505,0,0
119,519,0,0,0,0,0,0,0,0,0,-1,1343,505,0,0
126,519,0,0,0,0,0,0,0,0,0,-1,1350,505,0,0
133,519,0,0,0,0,0,0,0,0,0,-1,1357,505,0,0
140,519,0,0,0,0,0,0,0,0,0,-1,1364,505,0,0
147,519,0,0,0,0,0,0,0,0,0,-1,1371,505,0,0
154,519,0,0,0,0,0,0,0,0,0,-1,1378,505,0,0
161,519,0,0,0,0,0,0,0,0,0,-1,1385,505,0,0
168,519,0,0,0,0,0,0,0,0,0,-1,1392,505,0,0
175,519,0,0,0,0,0,0,0,0,0,-1,1399,505,0,0
182,519,0,0,0,0,0,0,0,0,0,-1,1406,505,0,0
189,519,0,0,0,0,0,0,0,0,0,-1,1413,505,0,0
196,519,0,0,0,0,0,0,0,0,0,-1,1420,505,0,0
203,519,0,0,0,0,0,0,0,0,0,-1,1427,505,0,0
210,519,0,0,0,0,0,0,0,0,0,-1,1434,505,0,0
217,519,0,0,0,0,0,0,0,0,0,-1,1441,505,0,0
224,519,0,0,0,0,0,0,0,0,0,-1,1448,505,0,0
231,519,0,0,0,0,0,0,0,0,0,-1,1455,505,0,0
238,519,0,0,0,0,0,0,0,0,0,-1,1462,505,0,0
245,519,0,0,0,0,0,0,0,0,0,-1,1469,505,0,0
252,519,5.26208,0.0938416,0,0,0,0,0,0,0,-1,1476,505,5.26207,-0.0938493
259,519,6.14246,-1.36441,0,0,0,0,0,0,0,-1,1483,505,6.14241,1.36441
266,519,5.31909,-0.400787,0,0,0,0,0,0,0,-1,1490,505,5.31912,0.400773
273,519,4.02393,0.325531,0,0,0,0,0,0,0,-1,1497,505,4.0239,-0.325522
280,519,4.68848,0.53006,0,0,0,0,0,0,0,-1,1504,505,4.68842,-0.530073
287,519,7.9519,-3.80801,0,0,0,0,0,0,0,-1,1511,505,7.95193,3.808
294,519,6.92273,-3.38889,0,0,0,0,0,0,0,-1,1518,505,6.92268,3.38888
301,519,5.35669,-2.92661,0,0,0,0,0,0,0,-1,1525,505,5.35675,2.9266
308,519,7.37549,-5.64529,0,0,0,0,0,0,0,-1,1532,505,7.3755,5.64529
315,519,6.60913,-5.50388,0,0,0,0,0,0,0,-1,1539,505,6.60909,5.50389
322,519,5.84302,-5.45117,0,0,0,0,0,0,0,-1,1546,505,5.84303,5.45116
329,519,4.92407,0.62384,0,0,0,0,0,0,0,-1,1553,505,4.92403,-0.623832
336,519,3.10095,-0.329285,0,0,0,0,0,0,0,-1,1560,505,3.1009,0.329283
343,519,2.49146,-2.31119,0,0,0,0,0,0,0,-1,1567,505,2.49145,2.31119
350,519,3.47729,-2.22516,0,0,0,0,0,0,0,-1,1574,505,3.47726,2.22515
357,519,5.17725,-2.82745,0,0,0,0,0,0,0,-1,1581,505,5.17728,2.82744
364,519,4.73499,-2.79358,-0.0229501,-0.018696,-0.0216886,0.000969559,-0.0426157,-0.834278,0.0287391,0.0457589,1588,505,4.73499,2.79358
371,519,4.14294,-2.93353,-0.0173144,-0.0215384,-0.0197776,0.000463672,-0.0393165,-0.732207,0.0263669,0.0425974,1595,505,4.14295,2.93352
378,519,3.68713,-3.44434,-0.0131803,-0.0221863,-0.0181126,0.000980631,-0.0363473,-0.663562,0.0245649,0.0433892,1602,505,3.68713,3.44434
385,519,3.72437,-3.34436,-0.0105824,-0.0216678,-0.0161763,0.000974406,-0.0332246,-0.620346,0.0224816,0.0403599,1609,505,3.72442,3.34435
392,519,3.52209,-3.08698,-0.00849075,-0.0193571,-0.0145468,0.0016044,-0.0294523,-0.606672,0.0201909,0.0315831,1616,505,3.52211,3.08696
399,519,3.40112,-3.02112,-0.00669367,-0.0169464,-0.0127336,0.00190673,-0.0255469,-0.594031,0.0177011,0.0210627,1623,505,3.40115,3.02111
406,519,3.43018,-2.9682,-0.00521537,-0.0142935,-0.0109247,0.00207571,-0.0215846,-0.588506,0.0151292,0.0162498,1630,505,3.43016,2.96821
413,519,3.44775,-2.87463,-0.00404189,-0.0117922,-0.00930469,0.00216233,-0.0179965,-0.588084,0.0127795,0.0126945,1637,505,3.44781,2.87463
420,519,3.42444,-2.784,-0.00279482,-0.00910628,-0.0074288,0.00212074,-0.0140218,-0.584549,0.0101291,0.0140506,1644,505,3.42439,2.78398
427,519,3.44983,-2.72119,-0.00191308,-0.00665424,-0.00577007,0.00195439,-0.0105217,-0.59049,0.00774854,0.0126842,1651,505,3.44986,2.72119
434,519,3.46362,-2.63229,-0.00159217,-0.00449423,-0.00435471,0.0015469,-0.0076333,-0.624578,0.00567521,0.0120727,1658,505,3.46358,2.6323
441,519,3.45105,-2.53107,-0.0012758,-0.00236012,-0.00312107,0.00134985,-0.00498577,-0.699401,0.00385343,0.0122951,1665,505,3.45109,2.53106
448,519,3.44177,-2.43945,-0.000751831,-0.000173232,-0.00165989,0.00122238,-0.00214745,-0.871676,0.00196986,0.00998857,1672,505,3.4418,2.43946
455,519,3.43848,-2.37384,-0.000420331,0.00118397,-0.000531748,0.00134421,-0.000580575,-1.2781,0.00114006,0.0106332,1679,505,3.43851,2.37383
462,519,3.45068,-2.27829,-0.000101153,0.00185741,-1.3314e-05,0.0018575,-0.000101243,-1.564,0.00127342,0.0102179,1686,505,3.45065,2.27827
469,519,3.4613,-2.16818,0.000546859,0.00235911,0.00033559,0.00241926,0.000486711,1.39345,0.00147757,0.00973288,1693,505,3.46126,2.16817
476,519,3.45862,-2.05115,0.00144001,0.00299192,0.000516621,0.00314816,0.00128376,1.2771,0.00182787,0.0118324,1700,505,3.45867,2.05114
483,519,3.47388,-1.95856,0.00243016,0.00350907,0.000456622,0.00367638,0.00226285,1.21958,0.00214136,0.0140169,1707,505,3.47382,1.95856
490,519,3.47107,-1.83081,0.00360433,0.003902,0.000101259,0.00393318,0.00357315,1.27209,0.00251073,0.0113576,1714,505,3.47103,1.83081
497,519,3.45288,-1.74387,0.00519131,0.00427159,-0.000476353,0.00539355,0.00406934,-0.401506,0.00324563,0.0118456,1721,505,3.45289,1.74386
504,519,3.43054,-1.65918,0.0075017,0.00475299,-0.00122276,0.00796691,0.00428778,-0.363547,0.00460417,0.0119874,1728,505,3.43049,1.65918
511,519,3.4613,-1.55084,0.0109255,0.00467814,-0.00155014,0.011289,0.00431465,-0.230322,0.00657774,0.0173366,1735,505,3.46125,1.55084
518,519,3.4519,-1.55252,0.0157942,0.00613299,-0.00103832,0.0159045,0.00602266,-0.105863,0.00927213,0.0354972,1742,505,3.45191,1.55252
525,519,3.46362,-1.53534,0,0,0,0,0,0,0,-1,1749,505,3.46366,1.53534
532,519,4.08069,-1.47287,0,0,0,0,0,0,0,-1,1756,505,4.08074,1.47287
539,519,3.30005,0.0229797,0,0,0,0,0,0,0,-1,1763,505,3.30008,-0.0229869
546,519,4.21216,-0.197266,0,0,0,0,0,0,0,-1,1770,505,4.21214,0.197268
553,519,3.19775,0.933197,0,0,0,0,0,0,0,-1,1777,505,3.19775,-0.933203
560,519,3.70044,-0.529205,0,0,0,0,0,0,0,-1,1784,505,3.70046,0.529212
567,519,0,0,0,0,0,0,0,0,0,-1,1791,505,0,0
574,519,0,0,0,0,0,0,0,0,0,-1,1798,505,0,0
581,519,0,0,0,0,0,0,0,0,0,-1,1805,505,0,0
588,519,0,0,0,0,0,0,0,0,0,-1,1812,505,0,0
595,519,0,0,0,0,0,0,0,0,0,-1,1819,505,0,0
602,519,0,0,0,0,0,0,0,0,0,-1,1826,505,0,0
609,519,0,0,0,0,0,0,0,0,0,-1,1833,505,0,0
616,519,0,0,0,0,0,0,0,0,0,-1,1840,505,0,0
623,519,0,0,0,0,0,0,0,0,0,-1,1847,505,0,0
630,519,0,0,0,0,0,0,0,0,0,-1,1854,505,0,0
637,519,0,0,0,0,0,0,0,0,0,-1,1861,505,0,0
644,519,0,0,0,0,0,0,0,0,0,-1,1868,505,0,0
651,519,0,0,0,0,0,0,0,0,0,-1,1875,505,0,0
658,519,0,0,0,0,0,0,0,0,0,-1,1882,505,0,0
665,519,0,0,0,0,0,0,0,0,0,-1,1889,505,0,0
672,519,0,0,0,0,0,0,0,0,0,-1,1896,505,0,0
679,519,0,0,0,0,0,0,0,0,0,-1,1903,505,0,0
686,519,0,0,0,0,0,0,0,0,0,-1,1910,505,0,0
693,519,0,0,0,0,0,0,0,0,0,-1,1917,505,0,0
700,519,0,0,0,0,0,0,0,0,0,-1,1924,505,0,0
707,519,0,0,0,0,0,0,0,0,0,-1,1931,505,0,0
714,519,0,0,0,0,0,0,0,0,0,-1,1938,505,0,0
721,519,0,0,0,0,0,0,0,0,0,-1,1945,505,0,0
728,519,0,0,0,0,0,0,0,0,0,-1,1952,505,0,0
735,519,0,0,0,0,0,0,0,0,0,-1,1959,505,0,0
742,519,0,0,0,0,0,0,0,0,0,-1,1966,505,0,0
749,519,0,0,0,0,0,0,0,0,0,-1,1973,505,0,0
756,519,0,0,0,0,0,0,0,0,0,-1,1980,505,0,0
763,519,0,0,0,0,0,0,0,0,0,-1,1987,505,0,0
770,519,0,0,0,0,0,0,0,0,0,-1,1994,505,0,0
777,519,0,0,0,0,0,0,0,0,0,-1,2001,505,0,0
784,519,0,0,0,0,0,0,0,0,0,-1,2008,505,0,0
791,519,0,0,0,0,0,0,0,0,0,-1,2015,505,0,0
798,519,0,0,0,0,0,0,0,0,0,-1,2022,505,0,0
805,519,0,0,0,0,0,0,0,0,0,-1,2029,505,0,0
812,519,0,0,0,0,0,0,0,0,0,-1,2036,505,0,0
-700,512,0,0,0,0,0,0,0,0,0,-1,524,512,0,0
-693,512,0,0,0,0,0,0,0,0,0,-1,531,512,0,0
-686,512,0,0,0,0,0,0,0,0,0,-1,538,512,0,0
-679,512,0,0,0,0,0,0,0,0,0,-1,545,512,0,0
-672,512,0,0,0,0,0,0,0,0,0,-1,552,512,0,0
-665,512,0,0,0,0,0,0,0,0,0,-1,559,512,0,0
-658,512,0,0,0,0,0,0,0,0,0,-1,566,512,0,0
-651,512,0,0,0,0,0,0,0,0,0,-1,573,512,0,0
-644,512,0,0,0,0,0,0,0,0,0,-1,580,512,0,0
-637,512,0,0,0,0,0,0,0,0,0,-1,587,512,0,0
-630,512,0,0,0,0,0,0,0,0,0,-1,594,512,0,0
-623,512,0,0,0,0,0,0,0,0,0,-1,601,512,0,0
-616,512,0,0,0,0,0,0,0,0,0,-1,608,512,0,0
-609,512,0,0,0,0,0,0,0,0,0,-1,615,512,0,0
-602,512,0,0,0,0,0,0,0,0,0,-1,622,512,0,0
-595,512,0,0,0,0,0,0,0,0,0,-1,629,512,0,0
-588,512,0,0,0,0,0,0,0,0,0,-1,636,512,0,0
-581,512,0,0,0,0,0,0,0,0,0,-1,643,512,0,0
-574,512,0,0,0,0,0,0,0,0,0,-1,650,512,0,0
-567,512,0,0,0,0,0,0,0,0,0,-1,657,512,0,0
-560,512,0,0,0,0,0,0,0,0,0,-1,664,512,0,0
-553,512,0,0,0,0,0,0,0,0,0,-1,671,512,0,0
-546,512,0,0,0,0,0,0,0,0,0,-1,678,512,0,0
-539,512,0,0,0,0,0,0,0,0,0,-1,685,512,0,0
-532,512,0,0,0,0,0,0,0,0,0,-1,692,512,0,0
-525,512,0,0,0,0,0,0,0,0,0,-1,699,512,0,0
-518,512,0,0,0,0,0,0,0,0,0,-1,706,512,0,0
-511,512,0,0,0,0,0,0,0,0,0,-1,713,512,0,0
-504,512,0,0,0,0,0,0,0,0,0,-1,720,512,0,0
-497,512,0,0,0,0,0,0,0,0,0,-1,727,512,0,0
-490,512,0,0,0,0,0,0,0,0,0,-1,734,512,0,0
-483,512,0,0,0,0,0,0,0,0,0,-1,741,512,0,0
-476,512,0,0,0,0,0,0,0,0,0,-1,748,512,0,0
-469,512,0,0,0,0,0,0,0,0,0,-1,755,512,0,0
-462,512,0,0,0,0,0,0,0,0,0,-1,762,512,0,0
-455,512,0,0,0,0,0,0,0,0,0,-1,769,512,0,0
-448,512,-2.12622,-0.295105,0,0,0,0,0,0,0,-1,776,512,-2.12625,0.295129
-441,512,-1.24774,-0.624512,0,0,0,0,0,0,0,-1,783,512,-1.24774,0.624536
-434,512,0.535767,-1.47144,0,0,0,0,0,0,0,-1,790,512,0.535747,1.47143
-427,512,0.999512,-1.79492,0,0,0,0,0,0,0,-1,797,512,0.999488,1.79492
-420,512,0.667603,-4.88483,0,0,0,0,0,0,0,-1,804,512,0.667623,4.88482
-413,512,0.747559,-4.73029,0,0,0,0,0,0,0,-1,811,512,0.747548,4.73027
-406,512,0.901672,-4.1004,0,0,0,0,0,0,0,-1,818,512,0.901643,4.10041
-399,512,1.25635,-3.06323,0,0,0,0,0,0,0,-1,825,512,1.25637,3.06322
-392,512,1.21368,-2.09644,0.010654,0.0375207,0.00555382,0.0386235,0.00955117,1.37478,0.0232293,0.0335679,832,512,1.21371,2.09641
-385,512,1.17902,-2.01117,0.00726164,0.0310521,0.0037001,0.0316143,0.00669946,1.42001,0.0192359,0.0186224,839,512,1.17904,2.01117
-378,512,1.14374,-2.08936,0.00572843,0.0239907,0.00168149,0.0241442,0.0055749,1.47974,0.0145971,0.0153188,846,512,1.14374,2.08933
-371,512,1.13849,-2.18829,0.00483982,0.0182852,0.000679109,0.0183194,0.0048056,1.52046,0.0109678,0.0118635,853,512,1.13848,2.18828
-364,512,1.15381,-2.30402,0.00347032,0.0122246,-0.000220026,0.0122302,0.0034648,-1.54568,0.00727879,0.00904998,860,512,1.15382,2.30403
-357,512,1.15326,-2.40106,0.00203681,0.00714189,-0.00087507,0.00728772,0.00189097,-1.40566,0.00436684,0.0100926,867,512,1.15327,2.40106
-350,512,1.14587,-2.49792,0.00104099,0.00374643,-0.000966285,0.00405611,0.000731318,-1.26066,0.00249627,0.0108924,874,512,1.14588,2.49792
-343,512,1.14038,-2.59979,0.000488004,0.00138761,-0.000699163,0.00176917,0.000106452,-1.07124,0.00114561,0.010679,881,512,1.14041,2.59977
-336,512,1.13702,-2.69189,5.03799e-05,-0.000237915,-0.000275655,0.000217302,-0.000404837,-0.544488,0.000364591,0.0102011,888,512,1.13703,2.69189
-329,512,1.13409,-2.76495,-0.000418969,-0.00125935,0.000202357,-0.000372782,-0.00130554,0.224403,0.00077652,0.0109804,895,512,1.13406,2.76496
-322,512,1.14636,-2.85278,-0.000888032,-0.00197271,0.000622523,-0.000604741,-0.002256,0.427062,0.00134841,0.00982698,902,512,1.14637,2.85276
-315,512,1.15979,-2.94409,-0.00137308,-0.00264622,0.000913903,-0.000895901,-0.0031234,0.481198,0.00185712,0.010015,909,512,1.15979,2.94409
-308,512,1.14612,-3.03345,-0.00168713,-0.00352795,0.00102126,-0.00123272,-0.00398235,0.418645,0.00235416,0.0101358,916,512,1.14614,3.03345
-301,512,1.14893,-3.1084,-0.00189448,-0.00453445,0.000932676,-0.00159822,-0.00483071,0.307564,0.00284172,0.0136786,923,512,1.14895,3.10842
-294,512,1.13239,-3.19531,-0.000300931,-0.00497358,0.00249354,0.000779786,-0.00605429,0.408969,0.00431965,0.0145675,930,512,1.13236,3.19529
-287,512,1.07635,-3.2655,0.00270171,-0.00583009,0.00590742,0.00572248,-0.00885086,0.472688,0.00847829,0.0156994,937,512,1.07634,3.26548
-280,512,1.13611,-3.35468,0.00711784,-0.00746298,0.0114607,0.0134104,-0.0137555,0.502119,0.0156847,0.0174585,944,512,1.13608,3.35466
-273,512,1.23926,-3.31525,0.0131187,-0.00977926,0.0186593,0.0235614,-0.020222,0.510226,0.0253029,0.0317729,951,512,1.23924,3.31524
-266,512,1.0528,-3.40332,0.0193718,-0.0123127,0.0261934,0.0341412,-0.0270821,0.513421,0.0354255,0.0389967,958,512,1.05278,3.40332
-259,512,1.11218,-3.59668,0,0,0,0,0,0,0,-1,965,512,1.11215,3.59666
-252,512,1.45941,-3.43475,0,0,0,0,0,0,0,-1,972,512,1.45938,3.43475
-245,512,1.14343,-2.39392,0,0,0,0,0,0,0,-1,979,512,1.14341,2.39392
-238,512,1.7641,-3.2525,0,0,0,0,0,0,0,-1,986,512,1.76408,3.25249
-231,512,1.09058,-3.56824,0,0,0,0,0,0,0,-1,993,512,1.0906,3.56821
-224,512,1.37024,-2.87103,0,0,0,0,0,0,0,-1,1000,512,1.37021,2.87103
-217,512,-0.21167,-4.0495,0,0,0,0,0,0,0,-1,1007,512,-0.211676,4.04949
-210,512,0.736145,-2.94818,0,0,0,0,0,0,0,-1,1014,512,0.73612,2.94816
-203,512,0.504333,-2.85754,0.000602378,-0.0717994,0.0709203,0.0440268,-0.115224,0.549414,0.0949569,0.0449757,1021,512,0.504344,2.85757
-196,512,0.255615,-2.76794,-0.0076325,-0.0797679,0.0735549,0.0382217,-0.125622,0.557449,0.0989799,0.044079,1028,512,0.255596,2.76796
-189,512,-0.15625,-2.61322,-0.0149955,-0.0870526,0.0766759,0.0336946,-0.135743,0.565767,0.10357,0.0481974,1035,512,-0.156302,2.6132
-182,512,-0.449463,-2.19202,0,0,0,0,0,0,0,-1,1042,512,-0.449425,2.19202
-175,512,-2.26782,-1.52118,0,0,0,0,0,0,0,-1,1049,512,-2.26783,1.52121
-168,512,-3.00073,-2.10339,0,0,0,0,0,0,0,-1,1056,512,-3.00078,2.10336
-161,512,-3.17346,-6.24316,0,0,0,0,0,0,0,-1,1063,512,-3.1735,6.24315
-154,512,3.11609,3.08133,0,0,0,0,0,0,0,-1,1070,512,3.11606,-3.08132
-147,512,0,0,0,0,0,0,0,0,0,-1,1077,512,0,0
-140,512,0,0,0,0,0,0,0,0,0,-1,1084,512,0,0
-133,512,0,0,0,0,0,0,0,0,0,-1,1091,512,0,0
-126,512,0,0,0,0,0,0,0,0,0,-1,1098,512,0,0
-119,512,0,0,0,0,0,0,0,0,0,-1,1105,512,0,0
-112,512,0,0,0,0,0,0,0,0,0,-1,1112,512,0,0
-105,512,0,0,0,0,0,0,0,0,0,-1,1119,512,0,0
-98,512,0,0,0,0,0,0,0,0,0,-1,1126,512,0,0
-91,512,0,0,0,0,0,0,0,0,0,-1,1133,512,0,0
-84,512,0,0,0,0,0,0,0,0,0,-1,1140,512,0,0
-77,512,0,0,0,0,0,0,0,0,0,-1,1147,512,0,0
-70,512,0,0,0,0,0,0,0,0,0,-1,1154,512,0,0
-63,512,0,0,0,0,0,0,0,0,0,-1,1161,512,0,0
-56,512,0,0,0,0,0,0,0,0,0,-1,1168,512,0,0
-49,512,0,0,0,0,0,0,0,0,0,-1,1175,512,0,0
-42,512,0,0,0,0,0,0,0,0,0,-1,1182,512,0,0
-35,512,0,0,0,0,0,0,0,0,0,-1,1189,512,0,0
-28,512,0,0,0,0,0,0,0,0,0,-1,1196,512,0,0
-21,512,0,0,0,0,0,0,0,0,0,-1,1203,512,0,0
-14,512,0,0,0,0,0,0,0,0,0,-1,1210,512,0,0
-7,512,0,0,0,0,0,0,0,0,0,-1,1217,512,0,0
0,512,0,0,0,0,0,0,0,0,0,-1,1224,512,0,0
7,512,0,0,0,0,0,0,0,0,0,-1,1231,512,0,0
14,512,0,0,0,0,0,0,0,0,0,-1,1238,512,0,0
21,512,0,0,0,0,0,0,0,0,0,-1,1245,512,0,0
28,512,0,0,0,0,0,0,0,0,0,-1,1252,512,0,0
35,512,0,0,0,0,0,0,0,0,0,-1,1259,512,0,0
42,512,0,0,0,0,0,0,0,0,0,-1,1266,512,0,0
49,512,0,0,0,0,0,0,0,0,0,-1,1273,512,0,0
56,512,0,0,0,0,0,0,0,0,0,-1,1280,512,0,0
63,512,0,0,0,0,0,0,0,0,0,-1,1287,512,0,0
70,512,0,0,0,0,0,0,0,0,0,-1,1294,512,0,0
77,512,0,0,0,0,0,0,0,0,0,-1,1301,512,0,0
84,512,0,0,0,0,0,0,0,0,0,-1,1308,512,0,0
91,512,0,0,0,0,0,0,0,0,0,-1,1315,512,0,0
98,512,0,0,0,0,0,0,0,0,0,-1,1322,512,0,0
105,512,0,0,0,0,0,0,0,0,0,-1,1329,512,0,0
112,512,0,0,0,0,0,0,0,0,0,-1,1336,512,0,0
119,512,0,0,0,0,0,0,0,0,0,-1,1343,512,0,0
126,512,0,0,0,0,0,0,0,0,0,-1,1350,512,0,0
133,512,0,0,0,0,0,0,0,0,0,-1,1357,512,0,0
140,512,0,0,0,0,0,0,0,0,0,-1,1364,512,0,0
147,512,0,0,0,0,0,0,0,0,0,-1,1371,512,0,0
154,512,0,0,0,0,0,0,0,0,0,-1,1378,512,0,0
161,512,0,0,0,0,0,0,0,0,0,-1,1385,512,0,0
168,512,0,0,0,0,0,0,0,0,0,-1,1392,512,0,0
175,512,0,0,0,0,0,0,0,0,0,-1,1399,512,0,0
182,512,0,0,0,0,0,0,0,0,0,-1,1406,512,0,0
189,512,0,0,0,0,0,0,0,0,0,-1,1413,512,0,0
196,512,0,0,0,0,0,0,0,0,0,-1,1420,512,0,0
203,512,0,0,0,0,0,0,0,0,0,-1,1427,512,0,0
210,512,0,0,0,0,0,0,0,0,0,-1,1434,512,0,0
217,512,0,0,0,0,0,0,0,0,0,-1,1441,512,0,0
224,512,0,0,0,0,0,0,0,0,0,-1,1448,512,0,0
231,512,0,0,0,0,0,0,0,0,0,-1,1455,512,0,0
238,512,0,0,0,0,0,0,0,0,0,-1,1462,512,0,0
245,512,0,0,0,0,0,0,0,0,0,-1,1469,512,0,0
252,512,0,0,0,0,0,0,0,0,0,-1,1476,512,0,0
259,512,0,0,0,0,0,0,0,0,0,-1,1483,512,0,0
266,512,0,0,0,0,0,0,0,0,0,-1,1490,512,0,0
273,512,4.00745,0.618622,0,0,0,0,0,0,0,-1,1497,512,4.00747,-0.618611
280,512,4.49609,0.649841,0,0,0,0,0,0,0,-1,1504,512,4.49612,-0.649834
287,512,4.77234,0.458069,0,0,0,0,0,0,0,-1,1511,512,4.77233,-0.458083
294,512,8.54956,-2.36273,0,0,0,0,0,0,0,-1,1518,512,8.54952,2.36274
301,512,6.302,-1.69092,0,0,0,0,0,0,0,-1,1525,512,6.30196,1.69093
308,512,8.2439,-6.22754,0,0,0,0,0,0,0,-1,1532,512,8.24394,6.22757
315,512,7.53687,-6.04211,0,0,0,0,0,0,0,-1,1539,512,7.53691,6.04211
322,512,6.82983,-5.85663,0,0,0,0,0,0,0,-1,1546,512,6.82988,5.85666
329,512,4.38147,-0.329651,0,0,0,0,0,0,0,-1,1553,512,4.38144,0.329662
336,512,4.41467,-0.741455,0,0,0,0,0,0,0,-1,1560,512,4.41467,0.741442
343,512,4.44727,-1.21667,0,0,0,0,0,0,0,-1,1567,512,4.44732,1.21666
350,512,4.55469,-1.65082,0,0,0,0,0,0,0,-1,1574,512,4.5547,1.65083
357,512,5.79993,-2.67456,0,0,0,0,0,0,0,-1,1581,512,5.79991,2.67454
364,512,5.37585,-2.6402,-0.0233741,-0.0229816,-0.0264628,0.00328567,-0.0496413,-0.789107,0.034242,0.0479227,1588,512,5.37591,2.64021
371,512,4.71985,-2.73364,-0.0169279,-0.0261951,-0.0245923,0.00346351,-0.0465865,-0.692281,0.0322742,0.0436896,1595,512,4.71979,2.73364
378,512,3.90564,-3.55017,0,0,0,0,0,0,0,-1,1602,512,3.90559,3.55018
385,512,3.6521,-3.34528,-0.00938978,-0.026082,-0.0209643,0.00482869,-0.0403005,-0.59596,0.0286127,0.0468231,1609,512,3.65206,3.34528
392,512,3.59473,-2.94293,-0.00714307,-0.0233477,-0.019219,0.00561167,-0.0361024,-0.585914,0.0261404,0.04696,1616,512,3.59469,2.94291
399,512,3.53979,-2.85461,-0.00530891,-0.0204381,-0.0172236,0.00593809,-0.0316851,-0.57848,0.0233558,0.0393225,1623,512,3.53974,2.8546
406,512,3.51965,-2.96027,-0.00391825,-0.0172747,-0.0151294,0.00594131,-0.0271343,-0.577556,0.020361,0.0281459,1630,512,3.51962,2.96028
413,512,3.50696,-2.90039,-0.00291464,-0.0142414,-0.0131055,0.00569881,-0.0228549,-0.581447,0.0174492,0.0200663,1637,512,3.50692,2.90041
420,512,3.5387,-2.81708,-0.00188561,-0.0110933,-0.0107482,0.00520321,-0.0181821,-0.583051,0.0141777,0.0155614,1644,512,3.53864,2.81708
427,512,3.54126,-2.73877,-0.0012339,-0.00822691,-0.00853622,0.00449417,-0.013955,-0.591017,0.0111086,0.0141053,1651,512,3.54121,2.7388
434,512,3.54797,-2.65118,-0.00111248,-0.00561228,-0.00661538,0.00362513,-0.0103499,-0.621483,0.00837408,0.0107953,1658,512,3.54799,2.65119
441,512,3.55127,-2.55225,-0.000982283,-0.00313205,-0.0050121,0.0030689,-0.00718323,-0.679769,0.00607587,0.0122112,1665,512,3.55133,2.55223
448,512,3.53467,-2.45355,-0.000635326,-0.000924843,-0.00314224,0.00236549,-0.00392566,-0.76238,0.00366924,0.00923262,1672,512,3.53461,2.45355
455,512,3.54041,-2.34967,-0.000428998,0.000539885,-0.00161062,0.00173735,-0.00162646,-0.931484,0.00194244,0.0089232,1679,512,3.54044,2.34969
462,512,3.54932,-2.25525,-0.000418884,0.00105597,-0.000843696,0.00143908,-0.000802003,-1.14454,0.0013112,0.00943517,1686,512,3.54933,2.25526
469,512,3.54236,-2.15594,3.71164e-05,0.0012719,-0.000436933,0.00141087,-0.000101854,-1.26286,0.000976303,0.0102178,1693,512,3.54239,2.15595
476,512,3.54028,-2.05243,0.000855238,0.00165383,-0.000334261,0.00177527,0.000733796,-1.22231,0.00103007,0.0128668,1700,512,3.54033,2.05241
483,512,3.55566,-1.94049,0.00164222,0.00180467,-0.000496871,0.00222691,0.00121998,-0.866416,0.00128767,0.0128649,1707,512,3.55561,1.94052
490,512,3.55945,-1.84113,0.00251271,0.00177802,-0.000932508,0.00314762,0.00114311,-0.597766,0.00183982,0.0103484,1714,512,3.55947,1.84114
497,512,3.55957,-1.74951,0.00371343,0.00172018,-0.00151047,0.00452644,0.000907175,-0.493777,0.00276529,0.0109193,1721,512,3.55961,1.74952
504,512,3.5448,-1.64227,0.00554842,0.00178138,-0.00215618,0.0065279,0.0008019,-0.426396,0.00411079,0.0114626,1728,512,3.54483,1.64227
511,512,3.52417,-1.52081,0.00840006,0.00122998,-0.00224609,0.00904555,0.000584489,-0.279845,0.00584529,0.0121629,1735,512,3.52412,1.5208
518,512,3.56665,-1.42761,0.012546,0.00222203,-0.00140413,0.0127335,0.00203447,-0.132794,0.0078987,0.0159957,1742,512,3.5666,1.42759
525,512,3.55884,-1.41229,0.0174492,0.00305628,-0.000374435,0.017459,0.00304655,-0.0259918,0.0107684,0.0380482,1749,512,3.5589,1.41228
532,512,3.68518,-1.00909,0,0,0,0,0,0,0,-1,1756,512,3.68518,1.0091
539,512,4.24194,-1.33661,0,0,0,0,0,0,0,-1,1763,512,4.2419,1.33661
546,512,3.99451,-0.41803,0,0,0,0,0,0,0,-1,1770,512,3.99455,0.41804
553,512,3.37317,-0.731201,0,0,0,0,0,0,0,-1,1777,512,3.37316,0.731226
560,512,2.98169,0.971375,0,0,0,0,0,0,0,-1,1784,512,2.98171,-0.971387
567,512,3.79871,-0.752075,0,0,0,0,0,0,0,-1,1791,512,3.79875,0.752089
574,512,0,0,0,0,0,0,0,0,0,-1,1798,512,0,0
581,512,0,0,0,0,0,0,0,0,0,-1,1805,512,0,0
588,512,0,0,0,0,0,0,0,0,0,-1,1812,512,0,0
595,512,0,0,0,0,0,0,0,0,0,-1,1819,512,0,0
602,512,0,0,0,0,0,0,0,0,0,-1,1826,512,0,0
609,512,0,0,0,0,0,0,0,0,0,-1,1833,512,0,0
616,512,0,0,0,0,0,0,0,0,0,-1,1840,512,0,0
623,512,0,0,0,0,0,0,0,0,0,-1,1847,512,0,0
630,512,0,0,0,0,0,0,0,0,0,-1,1854,512,0,0
637,512,0,0,0,0,0,0,0,0,0,-1,1861,512,0,0
644,512,0,0,0,0,0,0,0,0,0,-1,1868,512,0,0
651,512,0,0,0,0,0,0,0,0,0,-1,1875,512,0,0
658,512,0,0,0,0,0,0,0,0,0,-1,1882,512,0,0
665,512,0,0,0,0,0,0,0,0,0,-1,1889,512,0,0
672,512,0,0,0,0,0,0,0,0,0,-1,1896,512,0,0
679,512,0,0,0,0,0,0,0,0,0,-1,1903,512,0,0
686,512,0,0,0,0,0,0,0,0,0,-1,1910,512,0,0
693,512,0,0,0,0,0,0,0,0,0,-1,1917,512,0,0
700,512,0,0,0,0,0,0,0,0,0,-1,1924,512,0,0
707,512,0,0,0,0,0,0,0,0,0,-1,1931,512,0,0
714,512,0,0,0,0,0,0,0,0,0,-1,1938,512,0,0
721,512,0,0,0,0,0,0,0,0,0,-1,1945,512,0,0
728,512,0,0,0,0,0,0,0,0,0,-1,1952,512,0,0
735,512,0,0,0,0,0,0,0,0,0,-1,1959,512,0,0
742,512,0,0,0,0,0,0,0,0,0,-1,1966,512,0,0
749,512,0,0,0,0,0,0,0,0,0,-1,1973,512,0,0
756,512,0,0,0,0,0,0,0,0,0,-1,1980,512,0,0
763,512,0,0,0,0,0,0,0,0,0,-1,1987,512,0,0
770,512,0,0,0,0,0,0,0,0,0,-1,1994,512,0,0
777,512,0,0,0,0,0,0,0,0,0,-1,2001,512,0,0
784,512,0,0,0,0,0,0,0,0,0,-1,2008,512,0,0
791,512,0,0,0,0,0,0,0,0,0,-1,2015,512,0,0
798,512,0,0,0,0,0,0,0,0,0,-1,2022,512,0,0
805,512,0,0,0,0,0,0,0,0,0,-1,2029,512,0,0
812,512,0,0,0,0,0,0,0,0,0,-1,2036,512,0,0
-700,505,0,0,0,0,0,0,0,0,0,-1,524,519,0,0
-693,505,0,0,0,0,0,0,0,0,0,-1,531,519,0,0
-686,505,0,0,0,0,0,0,0,0,0,-1,538,519,0,0
-679,505,0,0,0,0,0,0,0,0,0,-1,545,519,0,0
-672,505,0,0,0,0,0,0,0,0,0,-1,552,519,0,0
-665,505,0,0,0,0,0,0,0,0,0,-1,559,519,0,0
-658,505,0,0,0,0,0,0,0,0,0,-1,566,519,0,0
-651,505,0,0,0,0,0,0,0,0,0,-1,573,519,0,0
-644,505,0,0,0,0,0,0,0,0,0,-1,580,519,0,0
-637,505,0,0,0,0,0,0,0,0,0,-1,587,519,0,0
-630,505,0,0,0,0,0,0,0,0,0,-1,594,519,0,0
-623,505,0,0,0,0,0,0,0,0,0,-1,601,519,0,0
-616,505,0,0,0,0,0,0,0,0,0,-1,608,519,0,0
-609,505,0,0,0,0,0,0,0,0,0,-1,615,519,0,0
-602,505,0,0,0,0,0,0,0,0,0,-1,622,519,0,0
-595,505,0,0,0,0,0,0,0,0,0,-1,629,519,0,0
-588,505,0,0,0,0,0,0,0,0,0,-1,636,519,0,0
-581,505,0,0,0,0,0,0,0,0,0,-1,643,519,0,0
-574,505,0,0,0,0,0,0,0,0,0,-1,650,519,0,0
-567,505,0,0,0,0,0,0,0,0,0,-1,657,519,0,0
-560,505,0,0,0,0,0,0,0,0,0,-1,664,519,0,0
-553,505,0,0,0,0,0,0,0,0,0,-1,671,519,0,0
-546,505,0,0,0,0,0,0,0,0,0,-1,678,519,0,0
-539,505,0,0,0,0,0,0,0,0,0,-1,685,519,0,0
-532,505,0,0,0,0,0,0,0,0,0,-1,692,519,0,0
-525,505,0,0,0,0,0,0,0,0,0,-1,699,519,0,0
-518,505,0,0,0,0,0,0,0,0,0,-1,706,519,0,0
-511,505,0,0,0,0,0,0,0,0,0,-1,713,519,0,0
-504,505,0,0,0,0,0,0,0,0,0,-1,720,519,0,0
-497,505,0,0,0,0,0,0,0,0,0,-1,727,519,0,0
-490,505,0,0,0,0,0,0,0,0,0,-1,734,519,0,0
-483,505,0,0,0,0,0,0,0,0,0,-1,741,519,0,0
-476,505,0,0,0,0,0,0,0,0,0,-1,748,519,0,0
-469,505,0,0,0,0,0,0,0,0,0,-1,755,519,0,0
-462,505,0,0,0,0,0,0,0,0,0,-1,762,519,0,0
-455,505,-4.48938,0.0753784,0,0,0,0,0,0,0,-1,769,519,-4.48941,-0.0753752
-448,505,-2.9964,0.680908,0,0,0,0,0,0,0,-1,776,519,-2.99642,-0.680936
-441,505,-2.08862,0.318665,0,0,0,0,0,0,0,-1,783,519,-2.0886,-0.318667
-434,505,1.37213,-1.7699,0,0,0,0,0,0,0,-1,790,519,1.37215,1.76989
-427,505,0.66571,-1.17902,0.0531788,0.0476163,-0.0024209,0.0540849,0.0467103,-0.35812,0.0338671,0.0441345,797,519,0.66571,1.17902
-420,505,1.08191,-1.15332,0.0387759,0.0463291,0.00226574,0.0469566,0.0381484,1.30061,0.0288205,0.0434188,804,519,1.0819,1.15333
-413,505,1.31519,-1.10632,0.0278937,0.0438314,0.00485859,0.0451958,0.0265293,1.29704,0.0262251,0.044233,811,519,1.31518,1.10632
-406,505,1.50842,-1.55267,0.0188165,0.0397972,0.00672952,0.0417701,0.0168435,1.28561,0.024266,0.0464708,818,519,1.50845,1.55265
-399,505,1.18549,-1.82959,0.0123678,0.0347996,0.00715013,0.0368848,0.0102825,1.28703,0.0219793,0.0419395,825,519,1.18549,1.82959
-392,505,1.06976,-1.97095,0.00847591,0.0292395,0.0061193,0.0309088,0.00680667,1.30449,0.0187533,0.0194028,832,519,1.06978,1.97092
-385,505,1.05878,-2.01788,0.00539147,0.0243114,0.00490469,0.0255073,0.0041956,1.33164,0.0157932,0.00861576,839,519,1.05877,2.0179
-378,505,1.05084,-2.10449,0.00405791,0.0190082,0.00325171,0.0196849,0.00338128,1.36564,0.012154,0.0104259,846,519,1.05086,2.10448
-371,505,1.05005,-2.21655,0.00323297,0.0146006,0.00241202,0.0150912,0.00274235,1.37013,0.0092827,0.0135625,853,519,1.05006,2.21652
-364,505,1.04785,-2.31476,0.00209902,0.00984061,0.00156051,0.0101433,0.00179629,1.37919,0.0062501,0.0142792,860,519,1.04787,2.31473
-357,505,1.05548,-2.40576,0.000916572,0.00583574,0.000846539,0.00597734,0.000774967,1.40506,0.00375333,0.0113954,867,519,1.05545,2.40577
-350,505,1.04749,-2.49646,5.43328e-05,0.00310332,0.000584739,0.00321162,-5.39626e-05,1.38767,0.00215929,0.0108603,874,519,1.04746,2.49644
-343,505,1.04504,-2.60004,-0.000441188,0.00122039,0.000594628,0.00141126,-0.000632061,1.26019,0.00120797,0.00831484,881,519,1.04504,2.60004
-336,505,1.04669,-2.68115,-0.000878188,-0.000138534,0.000735136,0.000314558,-0.00133128,1.01845,0.00100885,0.00946083,888,519,1.04671,2.68118
-329,505,1.03723,-2.73969,-0.00136703,-0.00116343,0.000998886,-0.000261168,-0.00226929,0.836179,0.00143375,0.012157,895,519,1.03722,2.73967
-322,505,1.00757,-2.81708,-0.00190538,-0.00210258,0.00124741,-0.000752683,-0.00325528,0.745958,0.00196787,0.0138964,902,519,1.00758,2.81709
-315,505,1.0293,-2.92761,-0.00248234,-0.00304634,0.00140731,-0.00132905,-0.00419963,0.686517,0.00247851,0.0119106,909,519,1.02932,2.92762
-308,505,1.05542,-3.03833,-0.00289384,-0.00425514,0.00148485,-0.00194106,-0.00520791,0.570491,0.00303909,0.0110454,916,519,1.05542,3.03834
-301,505,1.06659,-3.12183,-0.00318726,-0.00572975,0.00140904,-0.00256075,-0.00635626,0.418381,0.0036928,0.014212,923,519,1.06657,3.1218
-294,505,1.03119,-3.14087,-0.000871873,-0.00635207,0.00373523,0.00102053,-0.00824447,0.468943,0.00586616,0.0198402,930,519,1.03117,3.14085
-287,505,0.969055,-3.258,0.00354898,-0.00760183,0.00882063,0.00840854,-0.0124614,0.503559,0.0121248,0.0274611,937,519,0.96907,3.25801
-280,505,1.04596,-3.17474,0.00987878,-0.0100111,0.0168161,0.0194705,-0.0196029,0.518364,0.0225591,0.038214,944,519,1.04593,3.17474
-273,505,1.01752,-3.08691,0.0182137,-0.0135166,0.0267967,0.0334896,-0.0287925,0.51812,0.0359926,0.0413105,951,519,1.01749,3.08693
-266,505,0.924377,-3.4118,0.0263226,-0.0168509,0.0366125,0.0472384,-0.0377666,0.519029,0.0491791,0.0481377,958,519,0.924368,3.41178
-259,505,0.674438,-3.67151,0,0,0,0,0,0,0,-1,965,519,0.674429,3.67151
-252,505,4.34509,-0.342651,0,0,0,0,0,0,0,-1,972,519,4.34511,0.34265
-245,505,-2.45905,-8.09656,0,0,0,0,0,0,0,-1,979,519,-2.45902,8.09657
-238,505,-1.86255,-6.94867,0,0,0,0,0,0,0,-1,986,519,-1.86255,6.94867
-231,505,-1.47906,-6.07666,0,0,0,0,0,0,0,-1,993,519,-1.47904,6.07663
-224,505,-0.781006,-4.32111,0,0,0,0,0,0,0,-1,1000,519,-0.781015,4.32109
-217,505,-0.519531,-3.44568,0.024137,-0.0654627,0.0871045,0.0772872,-0.118613,0.547878,0.113939,0.04933,1007,519,-0.519516,3.44565
-210,505,-0.210144,-2.58313,0.0127963,-0.0771204,0.0876702,0.0663636,-0.130688,0.548476,0.115771,0.0465419,1014,519,-0.210173,2.5831
-203,505,-0.168274,-1.94922,-0.000770391,-0.0892016,0.0874842,0.053037,-0.143009,0.551414,0.117093,0.0437676,1021,519,-0.168261,1.9492
-196,505,-0.613525,-1.50043,-0.0137391,-0.100778,0.0893813,0.0421546,-0.156671,0.558844,0.120973,0.0450309,1028,519,-0.613542,1.50045
-189,505,-1.49365,-1.23364,-0.0258534,-0.111444,0.0924188,0.0331977,-0.170495,0.568569,0.126193,0.0463525,1035,519,-1.4937,1.23362
-182,505,-2.33765,-1.0022,0,0,0,0,0,0,0,-1,1042,519,-2.33764,1.00219
-175,505,-2.28027,-1.08063,0,0,0,0,0,0,0,-1,1049,519,-2.2803,1.08064
-168,505,0,0,0,0,0,0,0,0,0,-1,1056,519,0,0
-161,505,0,0,0,0,0,0,0,0,0,-1,1063,519,0,0
-154,505,0,0,0,0,0,0,0,0,0,-1,1070,519,0,0
-147,505,0,0,0,0,0,0,0,0,0,-1,1077,519,0,0
-140,505,0,0,0,0,0,0,0,0,0,-1,1084,519,0,0
-133,505,0,0,0,0,0,0,0,0,0,-1,1091,519,0,0
-126,505,0,0,0,0,0,0,0,0,0,-1,1098,519,0,0
-119,505,0,0,0,0,0,0,0,0,0,-1,1105,519,0,0
-112,505,0,0,0,0,0,0,0,0,0,-1,1112,519,0,0
-105,505,0,0,0,0,0,0,0,0,0,-1,1119,519,0,0
-98,505,0,0,0,0,0,0,0,0,0,-1,1126,519,0,0
-91,505,0,0,0,0,0,0,0,0,0,-1,1133,519,0,0
-84,505,0,0,0,0,0,0,0,0,0,-1,1140,519,0,0
-77,505,0,0,0,0,0,0,0,0,0,-1,1147,519,0,0
-70,505,0,0,0,0,0,0,0,0,0,-1,1154,519,0,0
-63,505,0,0,0,0,0,0,0,0,0,-1,1161,519,0,0
-56,505,0,0,0,0,0,0,0,0,0,-1,1168,519,0,0
-49,505,0,0,0,0,0,0,0,0,0,-1,1175,519,0,0
-42,505,0,0,0,0,0,0,0,0,0,-1,1182,519,0,0
-35,505,0,0,0,0,0,0,0,0,0,-1,1189,519,0,0
-28,505,0,0,0,0,0,0,0,0,0,-1,1196,519,0,0
-21,505,0,0,0,0,0,0,0,0,0,-1,1203,519,0,0
-14,505,0,0,0,0,0,0,0,0,0,-1,1210,519,0,0
-7,505,0,0,0,0,0,0,0,0,0,-1,1217,519,0,0
0,505,0,0,0,0,0,0,0,0,0,-1,1224,519,0,0
7,505,0,0,0,0,0,0,0,0,0,-1,1231,519,0,0
14,505,0,0,0,0,0,0,0,0,0,-1,1238,519,0,0
21,505,0,0,0,0,0,0,0,0,0,-1,1245,519,0,0
28,505,0,0,0,0,0,0,0,0,0,-1,1252,519,0,0
35,505,0,0,0,0,0,0,0,0,0,-1,1259,519,0,0
42,505,0,0,0,0,0,0,0,0,0,-1,1266,519,0,0
49,505,0,0,0,0,0,0,0,0,0,-1,1273,519,0,0
56,505,0,0,0,0,0,0,0,0,0,-1,1280,519,0,0
63,505,0,0,0,0,0,0,0,0,0,-1,1287,519,0,0
70,505,0,0,0,0,0,0,0,0,0,-1,1294,519,0,0
77,505,0,0,0,0,0,0,0,0,0,-1,1301,519,0,0
84,505,0,0,0,0,0,0,0,0,0,-1,1308,519,0,0
91,505,0,0,0,0,0,0,0,0,0,-1,1315,519,0,0
98,505,0,0,0,0,0,0,0,0,0,-1,1322,519,0,0
105,505,0,0,0,0,0,0,0,0,0,-1,1329,519,0,0
112,505,0,0,0,0,0,0,0,0,0,-1,1336,519,0,0
119,505,0,0,0,0,0,0,0,0,0,-1,1343,519,0,0
126,505,0,0,0,0,0,0,0,0,0,-1,1350,519,0,0
133,505,0,0,0,0,0,0,0,0,0,-1,1357,519,0,0
140,505,0,0,0,0,0,0,0,0,0,-1,1364,519,0,0
147,505,0,0,0,0,0,0,0,0,0,-1,1371,519,0,0
154,505,0,0,0,0,0,0,0,0,0,-1,1378,519,0,0
161,505,0,0,0,0,0,0,0,0,0,-1,1385,519,0,0
168,505,0,0,0,0,0,0,0,0,0,-1,1392,519,0,0
175,505,0,0,0,0,0,0,0,0,0,-1,1399,519,0,0
182,505,0,0,0,0,0,0,0,0,0,-1,1406,519,0,0
189,505,0,0,0,0,0,0,0,0,0,-1,1413,519,0,0
196,505,0,0,0,0,0,0,0,0,0,-1,1420,519,0,0
203,505,0,0,0,0,0,0,0,0,0,-1,1427,519,0,0
210,505,0,0,0,0,0,0,0,0,0,-1,1434,519,0,0
217,505,0,0,0,0,0,0,0,0,0,-1,1441,519,0,0
224,505,0,0,0,0,0,0,0,0,0,-1,1448,519,0,0
231,505,0,0,0,0,0,0,0,0,0,-1,1455,519,0,0
238,505,0,0,0,0,0,0,0,0,0,-1,1462,519,0,0
245,505,0,0,0,0,0,0,0,0,0,-1,1469,519,0,0
252,505,0,0,0,0,0,0,0,0,0,-1,1476,519,0,0
259,505,0,0,0,0,0,0,0,0,0,-1,1483,519,0,0
266,505,0,0,0,0,0,0,0,0,0,-1,1490,519,0,0
273,505,0,0,0,0,0,0,0,0,0,-1,1497,519,0,0
280,505,0,0,0,0,0,0,0,0,0,-1,1504,519,0,0
287,505,4.39478,0.499512,0,0,0,0,0,0,0,-1,1511,519,4.39476,-0.499506
294,505,4.88867,0.0822754,0,0,0,0,0,0,0,-1,1518,519,4.88871,-0.0822748
301,505,4.82153,-0.0704346,0,0,0,0,0,0,0,-1,1525,519,4.82156,0.0704312
308,505,4.67761,-0.29187,0,0,0,0,0,0,0,-1,1532,519,4.67762,0.291845
315,505,8.44055,-6.54352,0,0,0,0,0,0,0,-1,1539,519,8.44059,6.54349
322,505,4.78955,-0.594116,0,0,0,0,0,0,0,-1,1546,519,4.78957,0.594096
329,505,5.16321,0.434631,0,0,0,0,0,0,0,-1,1553,519,5.16316,-0.434614
336,505,4.94495,-0.920471,0,0,0,0,0,0,0,-1,1560,519,4.945,0.920495
343,505,5.01855,-1.4823,0,0,0,0,0,0,0,-1,1567,519,5.01851,1.48227
350,505,5.33154,-1.77838,0,0,0,0,0,0,0,-1,1574,519,5.33152,1.77838
357,505,5.56567,-1.9425,0,0,0,0,0,0,0,-1,1581,519,5.56562,1.94248
364,505,5.85205,-2.6579,0,0,0,0,0,0,0,-1,1588,519,5.85211,2.65788
371,505,5.09424,-2.71271,0,0,0,0,0,0,0,-1,1595,519,5.0942,2.7127
378,505,3.41187,-3.75433,0,0,0,0,0,0,0,-1,1602,519,3.41183,3.75431
385,505,3.32593,-3.27197,0,0,0,0,0,0,0,-1,1609,519,3.32599,3.27197
392,505,3.65771,-2.77222,0,0,0,0,0,0,0,-1,1616,519,3.65774,2.77223
399,505,3.66187,-2.51276,-0.0040914,-0.0250807,-0.0217161,0.00953293,-0.038705,-0.560313,0.029499,0.0499524,1623,519,3.66181,2.51277
406,505,3.97522,-3.23816,-0.00276533,-0.0211958,-0.0194737,0.00956343,-0.0335246,-0.564402,0.0261276,0.040435,1630,519,3.97517,3.23815
413,505,3.72754,-2.94324,-0.00191736,-0.017422,-0.017129,0.00913195,-0.0284714,-0.572897,0.0226471,0.0380021,1637,519,3.72754,2.94323
420,505,3.72205,-2.86145,-0.0011393,-0.0136317,-0.0143364,0.00825251,-0.0230236,-0.579953,0.0187165,0.0281537,1644,519,3.72209,2.86144
427,505,3.65247,-2.73669,-0.000736294,-0.0101912,-0.0115699,0.00703466,-0.0179622,-0.591448,0.0148845,0.0141297,1651,519,3.65242,2.73672
434,505,3.63416,-2.63702,-0.000785602,-0.00695858,-0.00916707,0.00580063,-0.0135448,-0.623012,0.0114635,0.00945642,1658,519,3.63414,2.63703
441,505,3.63049,-2.5365,-0.000836369,-0.00389887,-0.00708198,0.00487801,-0.00961325,-0.678928,0.00851412,0.00954945,1665,519,3.63048,2.53652
448,505,3.63477,-2.43475,-0.000653198,-0.00148432,-0.00459569,0.00354568,-0.0056832,-0.740309,0.00537573,0.0105578,1672,519,3.63482,2.43475
455,505,3.64343,-2.34631,-0.000541689,0.000236125,-0.00247707,0.00235463,-0.0026602,-0.863264,0.0028971,0.0111674,1679,519,3.64341,2.34633
462,505,3.63904,-2.25525,-0.00082686,0.000672669,-0.00130032,0.00142389,-0.00157809,-1.04692,0.00173396,0.0102928,1686,519,3.63909,2.25525
469,505,3.63403,-2.16248,-0.00052278,0.000695688,-0.000716802,0.00102718,-0.000854275,-1.13763,0.00108779,0.0100182,1693,519,3.63403,2.16248
476,505,3.6377,-2.0647,0.000278715,0.000932564,-0.000571433,0.00126398,-5.27034e-05,-1.04523,0.000860761,0.0106269,1700,519,3.63763,2.06469
483,505,3.64844,-1.96045,0.000928894,0.000832924,-0.000723034,0.00160553,0.000156285,-0.752264,0.00102225,0.0125293,1707,519,3.64844,1.96043
490,505,3.64954,-1.84741,0.00158061,0.000530585,-0.00113787,0.00230875,-0.000197554,-0.569252,0.00160907,0.0116504,1714,519,3.6495,1.84739
497,505,3.65381,-1.76416,0.00250424,0.00019958,-0.00164868,0.00336338,-0.000659558,-0.480391,0.00249138,0.0108124,1721,519,3.6538,1.76414
504,505,3.6366,-1.65179,0.00398879,7.60093e-06,-0.00215815,0.00493419,-0.000937799,-0.412881,0.00364252,0.01127,1728,519,3.63654,1.65177
511,505,3.6189,-1.54449,0.00640427,-0.000780874,-0.00203709,0.00694163,-0.00131823,-0.257911,0.005124,0.0130012,1735,519,3.61891,1.54451
518,505,3.6792,-1.49847,0.00999987,1.25134e-06,-0.000957029,0.0100906,-8.95271e-05,-0.094572,0.00675714,0.0204458,1742,519,3.67916,1.49848
525,505,3.62256,-1.42242,0.0141316,0.000548051,0.000280219,0.0141374,0.000542272,0.0206176,0.00924947,0.0279571,1749,519,3.62251,1.42245
532,505,3.7218,-1.20862,0.0215849,0.00322687,0.00393078,0.0223912,0.00242063,0.202304,0.0141896,0.0447389,1756,519,3.72174,1.20863
539,505,3.77295,-1.02228,0,0,0,0,0,0,0,-1,1763,519,3.77295,1.02228
546,505,3.89648,-1.0498,0,0,0,0,0,0,0,-1,1770,519,3.89647,1.04981
553,505,3.77063,-0.875244,0,0,0,0,0,0,0,-1,1777,519,3.77058,0.875248
560,505,3.85461,-0.681396,0,0,0,0,0,0,0,-1,1784,519,3.85466,0.681379
567,505,3.62988,-1.17944,0,0,0,0,0,0,0,-1,1791,519,3.62989,1.17946
574,505,3.76465,-1.20721,0,0,0,0,0,0,0,-1,1798,519,3.76463,1.2072
581,505,0,0,0,0,0,0,0,0,0,-1,1805,519,0,0
588,505,0,0,0,0,0,0,0,0,0,-1,1812,519,0,0
595,505,0,0,0,0,0,0,0,0,0,-1,1819,519,0,0
602,505,0,0,0,0,0,0,0,0,0,-1,1826,519,0,0
609,505,0,0,0,0,0,0,0,0,0,-1,1833,519,0,0
616,505,0,0,0,0,0,0,0,0,0,-1,1840,519,0,0
623,505,0,0,0,0,0,0,0,0,0,-1,1847,519,0,0
630,505,0,0,0,0,0,0,0,0,0,-1,1854,519,0,0
637,505,0,0,0,0,0,0,0,0,0,-1,1861,519,0,0
644,505,0,0,0,0,0,0,0,0,0,-1,1868,519,0,0
651,505,0,0,0,0,0,0,0,0,0,-1,1875,519,0,0
658,505,0,0,0,0,0,0,0,0,0,-1,1882,519,0,0
665,505,0,0,0,0,0,0,0,0,0,-1,1889,519,0,0
672,505,0,0,0,0,0,0,0,0,0,-1,1896,519,0,0
679,505,0,0,0,0,0,0,0,0,0,-1,1903,519,0,0
686,505,0,0,0,0,0,0,0,0,0,-1,1910,519,0,0
693,505,0,0,0,0,0,0,0,0,0,-1,1917,519,0,0
700,505,0,0,0,0,0,0,0,0,0,-1,1924,519,0,0
707,505,0,0,0,0,0,0,0,0,0,-1,1931,519,0,0
714,505,0,0,0,0,0,0,0,0,0,-1,1938,519,0,0
721,505,0,0,0,0,0,0,0,0,0,-1,1945,519,0,0
728,505,0,0,0,0,0,0,0,0,0,-1,1952,519,0,0
735,505,0,0,0,0,0,0,0,0,0,-1,1959,519,0,0
742,505,0,0,0,0,0,0,0,0,0,-1,1966,519,0,0
749,505,0,0,0,0,0,0,0,0,0,-1,1973,519,0,0
756,505,0,0,0,0,0,0,0,0,0,-1,1980,519,0,0
763,505,0,0,0,0,0,0,0,0,0,-1,1987,519,0,0
770,505,0,0,0,0,0,0,0,0,0,-1,1994,519,0,0
777,505,0,0,0,0,0,0,0,0,0,-1,2001,519,0,0
784,505,0,0,0,0,0,0,0,0,0,-1,2008,519,0,0
791,505,0,0,0,0,0,0,0,0,0,-1,2015,519,0,0
798,505,0,0,0,0,0,0,0,0,0,-1,2022,519,0,0
805,505,0,0,0,0,0,0,0,0,0,-1,2029,519,0,0
812,505,0,0,0,0,0,0,0,0,0,-1,2036,519,0,0
-700,498,0,0,0,0,0,0,0,0,0,-1,524,526,0,0
-693,498,0,0,0,0,0,0,0,0,0,-1,531,526,0,0
-686,498,0,0,0,0,0,0,0,0,0,-1,538,526,0,0
-679,498,0,0,0,0,0,0,0,0,0,-1,545,526,0,0
-672,498,0,0,0,0,0,0,0,0,0,-1,552,526,0,0
-665,498,0,0,0,0,0,0,0,0,0,-1,559,526,0,0
-658,498,0,0,0,0,0,0,0,0,0,-1,566,526,0,0
-651,498,0,0,0,0,0,0,0,0,0,-1,573,526,0,0
-644,498,0,0,0,0,0,0,0,0,0,-1,580,526,0,0
-637,498,0,0,0,0,0,0,0,0,0,-1,587,526,0,0
-630,498,0,0,0,0,0,0,0,0,0,-1,594,526,0,0
-623,498,0,0,0,0,0,0,0,0,0,-1,601,526,0,0
-616,498,0,0,0,0,0,0,0,0,0,-1,608,526,0,0
-609,498,0,0,0,0,0,0,0,0,0,-1,615,526,0,0
-602,498,0,0,0,0,0,0,0,0,0,-1,622,526,0,0
-595,498,0,0,0,0,0,0,0,0,0,-1,629,526,0,0
-588,498,0,0,0,0,0,0,0,0,0,-1,636,526,0,0
-581,498,0,0,0,0,0,0,0,0,0,-1,643,526,0,0
-574,498,0,0,0,0,0,0,0,0,0,-1,650,526,0,0
-567,498,0,0,0,0,0,0,0,0,0,-1,657,526,0,0
-560,498,0,0,0,0,0,0,0,0,0,-1,664,526,0,0
-553,498,0,0,0,0,0,0,0,0,0,-1,671,526,0,0
-546,498,0,0,0,0,0,0,0,0,0,-1,678,526,0,0
-539,498,0,0,0,0,0,0,0,0,0,-1,685,526,0,0
-532,498,0,0,0,0,0,0,0,0,0,-1,692,526,0,0
-525,498,0,0,0,0,0,0,0,0,0,-1,699,526,0,0
-518,498,0,0,0,0,0,0,0,0,0,-1,706,526,0,0
-511,498,0,0,0,0,0,0,0,0,0,-1,713,526,0,0
-504,498,0,0,0,0,0,0,0,0,0,-1,720,526,0,0
-497,498,0,0,0,0,0,0,0,0,0,-1,727,526,0,0
-490,498,0,0,0,0,0,0,0,0,0,-1,734,526,0,0
-483,498,0,0,0,0,0,0,0,0,0,-1,741,526,0,0
-476,498,0,0,0,0,0,0,0,0,0,-1,748,526,0,0
-469,498,0,0,0,0,0,0,0,0,0,-1,755,526,0,0
-462,498,-4.52905,-0.354126,0.170131,0.0428938,-0.0634966,0.196396,0.0166283,-0.39222,0.125755,0.0419087,762,526,-4.52906,0.354103
-455,498,-3.49274,-0.310974,0.139183,0.0405934,-0.0473397,0.158233,0.0215433,-0.382584,0.0990914,0.0412691,769,526,-3.49271,0.311002
-448,498,-2.07019,-0.412048,0,0,0,0,0,0,0,-1,776,526,-2.07022,0.41206
-441,498,0.834778,-1.97266,0,0,0,0,0,0,0,-1,783,526,0.834772,1.97265
-434,498,0.847534,-1.85858,0.0661053,0.0384283,-0.012684,0.0710387,0.0334948,-0.370948,0.0410364,0.0477675,790,526,0.847529,1.85859
-427,498,0.908142,-1.7359,0.0490754,0.0372083,-0.00588918,0.0515018,0.0347818,-0.390822,0.030338,0.0449141,797,526,0.908172,1.73591
-420,498,0.898193,-1.4585,0.0356586,0.0354861,-0.00115521,0.0367308,0.0344139,-0.74813,0.0237526,0.044084,804,526,0.898184,1.45847
-413,498,0.97113,-1.35449,0.0254675,0.0330335,0.0016902,0.0333939,0.0251071,1.36071,0.0200787,0.0411142,811,526,0.97116,1.35451
-406,498,1.04028,-1.59747,0.0167761,0.0298505,0.00398106,0.0309673,0.0156593,1.2973,0.0178794,0.0379439,818,526,1.04028,1.59748
-399,498,0.989319,-1.80463,0.0105795,0.0259835,0.00487112,0.0273946,0.00916843,1.28883,0.0161019,0.0240506,825,526,0.989305,1.80461
-392,498,0.95575,-1.93567,0.00686383,0.0218013,0.00429633,0.0229489,0.00571628,1.30979,0.0137944,0.0111012,832,526,0.955772,1.93569
-385,498,0.95459,-2.01685,0.00404506,0.0181636,0.00350365,0.0189852,0.00322341,1.34045,0.0117309,0.00766367,839,526,0.954613,2.01687
-378,498,0.958008,-2.10162,0.00277614,0.0143792,0.00221163,0.0147865,0.00236888,1.38869,0.00917059,0.00941071,846,526,0.958012,2.10162
-371,498,0.964417,-2.20874,0.00189339,0.0110942,0.00165861,0.0113841,0.00160353,1.39778,0.00711537,0.0152836,853,526,0.964387,2.20874
-364,498,0.953857,-2.31427,0.000839948,0.00750248,0.00109289,0.00767717,0.000665256,1.41229,0.0049114,0.0158509,860,526,0.953853,2.31425
-357,498,0.967651,-2.4082,-0.00025247,0.00448716,0.000657874,0.00457678,-0.00034209,1.4354,0.00317137,0.0106366,867,526,0.967641,2.40819
-350,498,0.954773,-2.49841,-0.00114219,0.00232844,0.000644942,0.00244442,-0.00125816,1.39288,0.00217395,0.0105224,874,526,0.954799,2.49844
-343,498,0.952332,-2.59741,-0.00172823,0.00084524,0.000861455,0.00110699,-0.00198998,1.27582,0.0018121,0.0107478,881,526,0.952357,2.59738
-336,498,0.948792,-2.68524,-0.00227958,-0.000314712,0.00116033,0.000223228,-0.00281752,1.13668,0.00195701,0.0131741,888,526,0.948778,2.68526
-329,498,0.947327,-2.72949,-0.00286476,-0.0013839,0.00158619,-0.000373833,-0.00387483,1.00377,0.00246806,0.0173856,895,526,0.947343,2.72947
-322,498,0.939209,-2.82703,-0.00350499,-0.00258734,0.00195552,-0.00103754,-0.00505479,0.900629,0.00308277,0.0176528,902,526,0.939202,2.82702
-315,498,0.921997,-2.92761,-0.00419581,-0.00383335,0.00222807,-0.00177915,-0.00625001,0.825979,0.00371832,0.0145156,909,526,0.921978,2.92759
-308,498,0.961243,-3.03979,-0.00471326,-0.00542835,0.00239021,-0.002654,-0.00748761,0.711155,0.0043836,0.0119487,916,526,0.96125,3.03979
-301,498,1.01886,-3.16211,-0.00510599,-0.00740214,0.00231676,-0.00366843,-0.00883969,0.555357,0.00512813,0.0173664,923,526,1.01884,3.16212
-294,498,1.0144,-3.133,-0.00174343,-0.00810352,0.00564067,0.00155185,-0.0113988,0.528721,0.00816579,0.0330823,930,526,1.01442,3.13299
-287,498,1.29224,-2.97504,0.00471067,-0.0096878,0.0128758,0.0122632,-0.0172403,0.530485,0.0171145,0.0417621,937,526,1.29222,2.97501
-280,498,1.31592,-2.91248,0.0133628,-0.0130673,0.0239112,0.0274678,-0.0271723,0.532952,0.0315466,0.0471516,944,526,1.31589,2.91247
-273,498,1.26367,-2.86194,0.0242506,-0.0180345,0.0370302,0.0457489,-0.0395328,0.526004,0.049281,0.0495212,951,526,1.26367,2.86193
-266,498,0.861633,-3.32556,0,0,0,0,0,0,0,-1,958,526,0.861616,3.32558
-259,498,3.44623,-1.39209,0,0,0,0,0,0,0,-1,965,526,3.44625,1.3921
-252,498,-3.56366,-9.69098,0,0,0,0,0,0,0,-1,972,526,-3.56365,9.69096
-245,498,-3.04266,-8.32965,0.0507414,-0.0409124,0.0840105,0.100611,-0.0907823,0.535711,0.11055,0.049737,979,526,-3.04267,8.32962
-238,498,-2.46466,-7.05884,0.0506957,-0.0484859,0.0926934,0.10623,-0.10402,0.539772,0.12139,0.0499643,986,526,-2.46466,7.05885
-231,498,-1.86462,-5.63544,0.0483996,-0.0563535,0.100012,0.10892,-0.116874,0.544184,0.130389,0.0492678,993,526,-1.8646,5.63544
-224,498,-1.44775,-4.09613,0.0426541,-0.0658392,0.105023,0.106613,-0.129798,0.54701,0.136711,0.0491645,1000,526,-1.44775,4.09615
-217,498,-0.847656,-2.8786,0.03275,-0.0774923,0.107691,0.098607,-0.143349,0.548859,0.140487,0.0482029,1007,526,-0.847643,2.87858
-210,498,-0.618347,-2.02039,0.0170661,-0.0919999,0.107326,0.082919,-0.157853,0.550343,0.141236,0.0459031,1014,526,-0.618354,2.0204
-203,498,-0.655579,-0.981201,-0.00227452,-0.108111,0.105872,0.0631678,-0.173553,0.553642,0.141537,0.0420152,1021,526,-0.655552,0.981202
-196,498,-1.38757,-0.446411,-0.0217565,-0.124472,0.10632,0.0449606,-0.191189,0.560402,0.144792,0.0467313,1028,526,-1.38763,0.446416
-189,498,-2.24341,-0.18573,0,0,0,0,0,0,0,-1,1035,526,-2.24345,0.185749
-182,498,0,0,0,0,0,0,0,0,0,-1,1042,526,0,0
-175,498,0,0,0,0,0,0,0,0,0,-1,1049,526,0,0
-168,498,0,0,0,0,0,0,0,0,0,-1,1056,526,0,0
-161,498,0,0,0,0,0,0,0,0,0,-1,1063,526,0,0
-154,498,0,0,0,0,0,0,0,0,0,-1,1070,526,0,0
-147,498,0,0,0,0,0,0,0,0,0,-1,1077,526,0,0
-140,498,0,0,0,0,0,0,0,0,0,-1,1084,526,0,0
-133,498,0,0,0,0,0,0,0,0,0,-1,1091,526,0,0
-126,498,0,0,0,0,0,0,0,0,0,-1,1098,526,0,0
-119,498,0,0,0,0,0,0,0,0,0,-1,1105,526,0,0
-112,498,0,0,0,0,0,0,0,0,0,-1,1112,526,0,0
-105,498,0,0,0,0,0,0,0,0,0,-1,1119,526,0,0
-98,498,0,0,0,0,0,0,0,0,0,-1,1126,526,0,0
-91,498,0,0,0,0,0,0,0,0,0,-1,1133,526,0,0
-84,498,0,0,0,0,0,0,0,0,0,-1,1140,526,0,0
-77,498,0,0,0,0,0,0,0,0,0,-1,1147,526,0,0
-70,498,0,0,0,0,0,0,0,0,0,-1,1154,526,0,0
-63,498,0,0,0,0,0,0,0,0,0,-1,1161,526,0,0
-56,498,0,0,0,0,0,0,0,0,0,-1,1168,526,0,0
-49,498,0,0,0,0,0,0,0,0,0,-1,1175,526,0,0
-42,498,0,0,0,0,0,0,0,0,0,-1,1182,526,0,0
-35,498,0,0,0,0,0,0,0,0,0,-1,1189,526,0,0
-28,498,0,0,0,0,0,0,0,0,0,-1,1196,526,0,0
-21,498,0,0,0,0,0,0,0,0,0,-1,1203,526,0,0
-14,498,0,0,0,0,0,0,0,0,0,-1,1210,526,0,0
-7,498,0,0,0,0,0,0,0,0,0,-1,1217,526,0,0
0,498,0,0,0,0,0,0,0,0,0,-1,1224,526,0,0
7,498,0,0,0,0,0,0,0,0,0,-1,1231,526,0,0
14,498,0,0,0,0,0,0,0,0,0,-1,1238,526,0,0
21,498,0,0,0,0,0,0,0,0,0,-1,1245,526,0,0
28,498,0,0,0,0,0,0,0,0,0,-1,1252,526,0,0
35,498,0,0,0,0,0,0,0,0,0,-1,1259,526,0,0
42,498,0,0,0,0,0,0,0,0,0,-1,1266,526,0,0
49,498,0,0,0,0,0,0,0,0,0,-1,1273,526,0,0
56,498,0,0,0,0,0,0,0,0,0,-1,1280,526,0,0
63,498,0,0,0,0,0,0,0,0,0,-1,1287,526,0,0
70,498,0,0,0,0,0,0,0,0,0,-1,1294,526,0,0
77,498,0,0,0,0,0,0,0,0,0,-1,1301,526,0,0
84,498,0,0,0,0,0,0,0,0,0,-1,1308,526,0,0
91,498,0,0,0,0,0,0,0,0,0,-1,1315,526,0,0
98,498,0,0,0,0,0,0,0,0,0,-1,1322,526,0,0
105,498,0,0,0,0,0,0,0,0,0,-1,1329,526,0,0
112,498,0,0,0,0,0,0,0,0,0,-1,1336,526,0,0
119,498,0,0,0,0,0,0,0,0,0,-1,1343,526,0,0
126,498,0,0,0,0,0,0,0,0,0,-1,1350,526,0,0
133,498,0,0,0,0,0,0,0,0,0,-1,1357,526,0,0
140,498,0,0,0,0,0,0,0,0,0,-1,1364,526,0,0
147,498,0,0,0,0,0,0,0,0,0,-1,1371,526,0,0
154,498,0,0,0,0,0,0,0,0,0,-1,1378,526,0,0
161,498,0,0,0,0,0,0,0,0,0,-1,1385,526,0,0
168,498,0,0,0,0,0,0,0,0,0,-1,1392,526,0,0
175,498,0,0,0,0,0,0,0,0,0,-1,1399,526,0,0
182,498,0,0,0,0,0,0,0,0,0,-1,1406,526,0,0
189,498,0,0,0,0,0,0,0,0,0,-1,1413,526,0,0
196,498,0,0,0,0,0,0,0,0,0,-1,1420,526,0,0
203,498,0,0,0,0,0,0,0,0,0,-1,1427,526,0,0
210,498,0,0,0,0,0,0,0,0,0,-1,1434,526,0,0
217,498,0,0,0,0,0,0,0,0,0,-1,1441,526,0,0
224,498,0,0,0,0,0,0,0,0,0,-1,1448,526,0,0
231,498,0,0,0,0,0,0,0,0,0,-1,1455,526,0,0
238,498,0,0,0,0,0,0,0,0,0,-1,1462,526,0,0
245,498,0,0,0,0,0,0,0,0,0,-1,1469,526,0,0
252,498,0,0,0,0,0,0,0,0,0,-1,1476,526,0,0
259,498,0,0,0,0,0,0,0,0,0,-1,1483,526,0,0
266,498,0,0,0,0,0,0,0,0,0,-1,1490,526,0,0
273,498,0,0,0,0,0,0,0,0,0,-1,1497,526,0,0
280,498,0,0,0,0,0,0,0,0,0,-1,1504,526,0,0
287,498,0,0,0,0,0,0,0,0,0,-1,1511,526,0,0
294,498,0,0,0,0,0,0,0,0,0,-1,1518,526,0,0
301,498,0,0,0,0,0,0,0,0,0,-1,1525,526,0,0
308,498,4.77942,-0.293884,0,0,0,0,0,0,0,-1,1532,526,4.77939,0.293899
315,498,4.56091,-0.564148,0,0,0,0,0,0,0,-1,1539,526,4.56097,0.564142
322,498,4.52344,-0.447266,0,0,0,0,0,0,0,-1,1546,526,4.52341,0.447295
329,498,4.63232,-0.156982,0,0,0,0,0,0,0,-1,1553,526,4.63238,0.156991
336,498,5.22644,0.0925903,0,0,0,0,0,0,0,-1,1560,526,5.22648,-0.0926188
343,498,6.22607,-1.67615,0,0,0,0,0,0,0,-1,1567,526,6.22605,1.67617
350,498,6.19373,-1.59906,0,0,0,0,0,0,0,-1,1574,526,6.19367,1.59906
357,498,6.21472,-1.58929,0,0,0,0,0,0,0,-1,1581,526,6.21476,1.58927
364,498,5.73547,-1.2019,0,0,0,0,0,0,0,-1,1588,526,5.73547,1.20192
371,498,3.27087,-4.55334,0,0,0,0,0,0,0,-1,1595,526,3.27089,4.55332
378,498,3.25427,-3.75934,0,0,0,0,0,0,0,-1,1602,526,3.25429,3.75937
385,498,3.05933,-3.18561,0,0,0,0,0,0,0,-1,1609,526,3.05932,3.18561
392,498,4.16162,-1.96472,-0.00333611,-0.0332084,-0.0284183,0.013832,-0.0503766,-0.543446,0.039021,0.0458975,1616,526,4.16156,1.96474
399,498,3.52332,-2.29681,-0.00135656,-0.0288865,-0.0266467,0.0148705,-0.0451135,-0.546989,0.0360692,0.0470846,1623,526,3.5233,2.29679
406,498,2.92029,-2.29529,-0.000178438,-0.0242527,-0.0244078,0.0149991,-0.0394302,-0.556316,0.0324628,0.0449164,1630,526,2.9203,2.29531
413,498,4.68652,-2.93152,0.000379326,-0.0197577,-0.0218284,0.0143494,-0.0337278,-0.569311,0.0284991,0.0478458,1637,526,4.68658,2.93153
420,498,4.07434,-2.80225,0.000659574,-0.015436,-0.0186518,0.0129257,-0.0277021,-0.581726,0.0239681,0.045749,1644,526,4.07437,2.80224
427,498,3.78345,-2.79059,0.000558105,-0.011585,-0.0153151,0.0109612,-0.0219881,-0.59668,0.0193751,0.0314802,1651,526,3.78347,2.79059
434,498,3.77295,-2.62775,0.000186357,-0.00783229,-0.0124287,0.00923637,-0.0168823,-0.629374,0.0152935,0.0158717,1658,526,3.77292,2.62774
441,498,3.72327,-2.52783,-0.000214447,-0.00416974,-0.00974758,0.00775408,-0.0121383,-0.685314,0.0115775,0.0088595,1665,526,3.72325,2.52786
448,498,3.73474,-2.43243,-0.000441946,-0.00155467,-0.0063793,0.00540521,-0.00740183,-0.741902,0.00742404,0.0100562,1672,526,3.73478,2.43246
455,498,3.73291,-2.34467,-0.00058629,0.000443373,-0.00342408,0.00339111,-0.00353402,-0.860017,0.00399851,0.0139859,1679,526,3.73295,2.34469
462,498,3.72986,-2.26514,-0.00127886,0.000758817,-0.00162293,0.00165621,-0.00217625,-1.0657,0.00221945,0.0143811,1686,526,3.72985,2.26516
469,498,3.74036,-2.1684,-0.00108518,0.000681726,-0.000791286,0.000984285,-0.00138774,-1.20559,0.00137608,0.0122993,1693,526,3.74031,2.16837
476,498,3.74841,-2.05823,-0.000252211,0.000861116,-0.000534108,0.00107591,-0.000467004,-1.18844,0.000913632,0.00999647,1700,526,3.74838,2.05823
483,498,3.73853,-1.94666,0.000307419,0.000592573,-0.000613086,0.00107944,-0.00017945,-0.899646,0.0007863,0.00944512,1707,526,3.73847,1.94662
490,498,3.72974,-1.8634,0.000800126,0.000113648,-0.000950469,0.00146743,-0.00055366,-0.612122,0.00120598,0.0113791,1714,526,3.72968,1.86339
497,498,3.74854,-1.77405,0.00151616,-0.00038136,-0.00135699,0.00222316,-0.00108837,-0.480315,0.00194897,0.0108947,1721,526,3.74853,1.77403
504,498,3.7356,-1.66553,0.00272693,-0.000716018,-0.00171482,0.00343529,-0.00142438,-0.391731,0.00288469,0.0130253,1728,526,3.73554,1.66555
511,498,3.72461,-1.54584,0.00478803,-0.00157991,-0.00141657,0.00508894,-0.00188082,-0.209306,0.00416366,0.0149037,1735,526,3.72456,1.54581
518,498,3.78223,-1.46832,0.00792588,-0.000891567,-0.000172212,0.00792925,-0.000894929,-0.0195209,0.00560832,0.0158577,1742,526,3.78221,1.46831
525,498,3.75427,-1.40112,0.0114497,-0.0004471,0.00119127,0.0115678,-0.000565212,0.0988259,0.00790702,0.0208607,1749,526,3.7543,1.40115
532,498,3.74255,-1.33942,0.0177599,0.00181336,0.00459955,0.0189915,0.000581803,0.261619,0.0124716,0.0295086,1756,526,3.74249,1.33944
539,498,3.82678,-1.23547,0.0252793,0.00441984,0.00886682,0.028539,0.00116017,0.35229,0.0186513,0.0384761,1763,526,3.82678,1.23549
546,498,3.95642,-1.09729,0.0354474,0.00852093,0.0151562,0.0422565,0.00171177,0.422243,0.0276181,0.0457273,1770,526,3.95643,1.09727
553,498,4.17944,-0.974609,0.0488524,0.0146428,0.0240411,0.0612527,0.00224249,0.476203,0.0401085,0.0496366,1777,526,4.17941,0.974623
560,498,5.05273,-1.5401,0,0,0,0,0,0,0,-1,1784,526,5.05269,1.5401
567,498,3.24536,-1.49268,0,0,0,0,0,0,0,-1,1791,526,3.2454,1.4927
574,498,3.88,0.0286255,0,0,0,0,0,0,0,-1,1798,526,3.87999,-0.0286535
581,498,10.8722,2.58551,0,0,0,0,0,0,0,-1,1805,526,10.8723,-2.58551
588,498,0,0,0,0,0,0,0,0,0,-1,1812,526,0,0
595,498,0,0,0,0,0,0,0,0,0,-1,1819,526,0,0
602,498,0,0,0,0,0,0,0,0,0,-1,1826,526,0,0
609,498,0,0,0,0,0,0,0,0,0,-1,1833,526,0,0
616,498,0,0,0,0,0,0,0,0,0,-1,1840,526,0,0
623,498,0,0,0,0,0,0,0,0,0,-1,1847,526,0,0
630,498,0,0,0,0,0,0,0,0,0,-1,1854,526,0,0
637,498,0,0,0,0,0,0,0,0,0,-1,1861,526,0,0
644,498,0,0,0,0,0,0,0,0,0,-1,1868,526,0,0
651,498,0,0,0,0,0,0,0,0,0,-1,1875,526,0,0
658,498,0,0,0,0,0,0,0,0,0,-1,1882,526,0,0
665,498,0,0,0,0,0,0,0,0,0,-1,1889,526,0,0
672,498,0,0,0,0,0,0,0,0,0,-1,1896,526,0,0
679,498,0,0,0,0,0,0,0,0,0,-1,1903,526,0,0
686,498,0,0,0,0,0,0,0,0,0,-1,1910,526,0,0
693,498,0,0,0,0,0,0,0,0,0,-1,1917,526,0,0
700,498,0,0,0,0,0,0,0,0,0,-1,1924,526,0,0
707,498,0,0,0,0,0,0,0,0,0,-1,1931,526,0,0
714,498,0,0,0,0,0,0,0,0,0,-1,1938,526,0,0
721,498,0,0,0,0,0,0,0,0,0,-1,1945,526,0,0
728,498,0,0,0,0,0,0,0,0,0,-1,1952,526,0,0
735,498,0,0,0,0,0,0,0,0,0,-1,1959,526,0,0
742,498,0,0,0,0,0,0,0,0,0,-1,1966,526,0,0
749,498,0,0,0,0,0,0,0,0,0,-1,1973,526,0,0
756,498,0,0,0,0,0,0,0,0,0,-1,1980,526,0,0
763,498,0,0,0,0,0,0,0,0,0,-1,1987,526,0,0
770,498,0,0,0,0,0,0,0,0,0,-1,1994,526,0,0
777,498,0,0,0,0,0,0,0,0,0,-1,2001,526,0,0
784,498,0,0,0,0,0,0,0,0,0,-1,2008,526,0,0
791,498,0,0,0,0,0,0,0,0,0,-1,2015,526,0,0
798,498,0,0,0,0,0,0,0,0,0,-1,2022,526,0,0
805,498,0,0,0,0,0,0,0,0,0,-1,2029,526,0,0
812,498,0,0,0,0,0,0,0,0,0,-1,2036,526,0,0
-700,491,0,0,0,0,0,0,0,0,0,-1,524,533,0,0
-693,491,0,0,0,0,0,0,0,0,0,-1,531,533,0,0
-686,491,0,0,0,0,0,0,0,0,0,-1,538,533,0,0
-679,491,0,0,0,0,0,0,0,0,0,-1,545,533,0,0
-672,491,0,0,0,0,0,0,0,0,0,-1,552,533,0,0
-665,491,0,0,0,0,0,0,0,0,0,-1,559,533,0,0
-658,491,0,0,0,0,0,0,0,0,0,-1,566,533,0,0
-651,491,0,0,0,0,0,0,0,0,0,-1,573,533,0,0
-644,491,0,0,0,0,0,0,0,0,0,-1,580,533,0,0
-637,491,0,0,0,0,0,0,0,0,0,-1,587,533,0,0
-630,491,0,0,0,0,0,0,0,0,0,-1,594,533,0,0
-623,491,0,0,0,0,0,0,0,0,0,-1,601,533,0,0
-616,491,0,0,0,0,0,0,0,0,0,-1,608,533,0,0
-609,491,0,0,0,0,0,0,0,0,0,-1,615,533,0,0
-602,491,0,0,0,0,0,0,0,0,0,-1,622,533,0,0
-595,491,0,0,0,0,0,0,0,0,0,-1,629,533,0,0
-588,491,0,0,0,0,0,0,0,0,0,-1,636,533,0,0
-581,491,0,0,0,0,0,0,0,0,0,-1,643,533,0,0
-574,491,0,0,0,0,0,0,0,0,0,-1,650,533,0,0
-567,491,0,0,0,0,0,0,0,0,0,-1,657,533,0,0
-560,491,0,0,0,0,0,0,0,0,0,-1,664,533,0,0
-553,491,0,0,0,0,0,0,0,0,0,-1,671,533,0,0
-546,491,0,0,0,0,0,0,0,0,0,-1,678,533,0,0
-539,491,0,0,0,0,0,0,0,0,0,-1,685,533,0,0
-532,491,0,0,0,0,0,0,0,0,0,-1,692,533,0,0
-525,491,0,0,0,0,0,0,0,0,0,-1,699,533,0,0
-518,491,0,0,0,0,0,0,0,0,0,-1,706,533,0,0
-511,491,0,0,0,0,0,0,0,0,0,-1,713,533,0,0
-504,491,0,0,0,0,0,0,0,0,0,-1,720,533,0,0
-497,491,0,0,0,0,0,0,0,0,0,-1,727,533,0,0
-490,491,0,0,0,0,0,0,0,0,0,-1,734,533,0,0
-483,491,0,0,0,0,0,0,0,0,0,-1,741,533,0,0
-476,491,0,0,0,0,0,0,0,0,0,-1,748,533,0,0
-469,491,-5.23584,-1.13409,0,0,0,0,0,0,0,-1,755,533,-5.23584,1.13408
-462,491,-3.60437,-0.771118,0.153262,0.0420706,-0.0562262,0.176738,0.018595,-0.395518,0.112142,0.0416199,762,533,-3.60436,0.771117
-455,491,-2.53998,-0.629883,0.125464,0.0377123,-0.0435444,0.143404,0.0197723,-0.390803,0.0897409,0.0407828,769,533,-2.53999,0.629899
-448,491,-1.44,-0.616943,0.100231,0.0348374,-0.0318096,0.113151,0.0219169,-0.385824,0.0692936,0.0401685,776,533,-1.44003,0.616941
-441,491,-0.0955811,-0.699463,0.0780538,0.0328127,-0.0218217,0.0868637,0.0240028,-0.383713,0.0517965,0.0427841,783,533,-0.0955902,0.699455
-434,491,0.0244141,-1.88287,0.059411,0.0307958,-0.014029,0.0651414,0.0250655,-0.387784,0.0379408,0.0441174,790,533,0.0244265,1.88287
-427,491,0.347656,-0.427917,0.0439701,0.0287643,-0.00788687,0.047322,0.0254125,-0.401865,0.0273463,0.0423987,797,533,0.347665,0.427907
-420,491,0.585205,-1.32697,0.0317842,0.0267508,-0.00339436,0.0334931,0.0250419,-0.466396,0.0201125,0.0420553,804,533,0.585197,1.32695
-413,491,0.748047,-1.60168,0.0225756,0.0244601,-0.000510679,0.0245896,0.0224461,-1.32246,0.0157273,0.0327392,811,533,0.748044,1.60168
-406,491,0.877136,-1.73962,0.0145863,0.0218824,0.00198335,0.0223867,0.014082,1.32181,0.0130676,0.0175377,818,533,0.877144,1.73962
-399,491,0.863342,-1.83264,0.00884495,0.0188576,0.00315685,0.0197698,0.00793275,1.2895,0.0114881,0.0100451,825,533,0.86332,1.83266
-392,491,0.850586,-1.92261,0.00539666,0.0157048,0.00295834,0.0164935,0.00460799,1.31026,0.00982666,0.00866956,832,533,0.850616,1.92263
-385,491,0.854919,-2.01642,0.00286547,0.0130442,0.00251953,0.0136337,0.00227595,1.34095,0.00843346,0.00821484,839,533,0.854925,2.01643
-378,491,0.860291,-2.10114,0.00165244,0.0104266,0.00156295,0.0106967,0.00138234,1.39967,0.00671791,0.0120865,846,533,0.860311,2.10113
-371,491,0.866882,-2.20398,0.000723625,0.00802888,0.00126265,0.00824096,0.000511544,1.40438,0.00533164,0.0135587,853,533,0.866886,2.20399
-364,491,0.872437,-2.30212,-0.000264325,0.00542528,0.000942934,0.00557748,-0.000416526,1.41077,0.00386465,0.0133206,860,533,0.872441,2.30215
-357,491,0.869629,-2.39099,-0.0012777,0.00329,0.000746082,0.00340877,-0.00139648,1.41292,0.00285425,0.0116921,867,533,0.869638,2.39102
-350,491,0.867615,-2.4837,-0.00220158,0.00164337,0.000941356,0.00186147,-0.00241969,1.34313,0.00247872,0.013886,874,533,0.867612,2.48371
-343,491,0.867249,-2.57892,-0.00288529,0.000541215,0.00131783,0.000989423,-0.0033335,1.24296,0.00261529,0.021931,881,533,0.867265,2.57889
-336,491,0.850647,-2.67548,-0.00356753,-0.000424954,0.00174393,0.000351148,-0.00434363,1.15208,0.00301962,0.0216362,888,533,0.850663,2.67548
-329,491,0.853149,-2.75494,-0.00428446,-0.00152638,0.00230099,-0.000222829,-0.00558801,1.05536,0.00365333,0.0223806,895,533,0.853129,2.75496
-322,491,0.863342,-2.83105,-0.00507677,-0.00299638,0.00276868,-0.00107894,-0.00699421,0.96509,0.00434801,0.0210258,902,533,0.863316,2.83106
-315,491,0.828064,-2.90704,-0.00596336,-0.00458726,0.00315356,-0.00204756,-0.00850306,0.892806,0.00512441,0.014086,909,533,0.828053,2.90702
-308,491,0.893372,-3.05225,-0.00671758,-0.00665246,0.00343249,-0.00325238,-0.0101177,0.790141,0.00596428,0.0240582,916,533,0.89339,3.05223
-301,491,0.681458,-3.06952,-0.00748598,-0.00925361,0.00348108,-0.00477828,-0.0119613,0.66108,0.00695224,0.0390001,923,533,0.681463,3.0695
-294,491,0.924805,-3.19373,0,0,0,0,0,0,0,-1,930,533,0.924779,3.19375
-287,491,1.90698,-2.85577,0,0,0,0,0,0,0,-1,937,533,1.907,2.85579
-280,491,1.61285,-2.59253,0,0,0,0,0,0,0,-1,944,533,1.61287,2.59252
-273,491,1.62872,-2.80334,0,0,0,0,0,0,0,-1,951,533,1.62871,2.80336
-266,491,3.15729,-1.98157,0,0,0,0,0,0,0,-1,958,533,3.15726,1.98158
-259,491,-4.68933,-11.4571,0,0,0,0,0,0,0,-1,965,533,-4.68931,11.4571
-252,491,-4.1532,-10.0505,0,0,0,0,0,0,0,-1,972,533,-4.1532,10.0505
-245,491,-3.62323,-8.57849,0.0663259,-0.0483817,0.105737,0.129263,-0.111319,0.536897,0.139029,0.0484226,979,533,-3.62325,8.57849
-238,491,-2.64246,-7.159,0.0672783,-0.0560594,0.11571,0.136727,-0.125508,0.540564,0.151448,0.0477565,986,533,-2.64245,7.15902
-231,491,-2.26215,-5.24615,0.0645571,-0.0646666,0.123955,0.139729,-0.139838,0.545145,0.161408,0.0442613,993,533,-2.26213,5.24615
-224,491,-1.7019,-3.53949,0.0571958,-0.0755516,0.129243,0.136112,-0.154468,0.548181,0.167878,0.0471607,1000,533,-1.70192,3.53947
-217,491,-1.14972,-2.27649,0,0,0,0,0,0,0,-1,1007,533,-1.14974,2.27651
-210,491,-1.01709,-1.40356,0.0232052,-0.107193,0.129756,0.103222,-0.18721,0.552586,0.170002,0.0459268,1014,533,-1.01708,1.40357
-203,491,-1.33301,-0.0892334,-0.00315347,-0.12768,0.126697,0.0757528,-0.206586,0.557012,0.168741,0.0411575,1021,533,-1.33302,0.0892062
-196,491,0,0,0,0,0,0,0,0,0,-1,1028,533,0,0
-189,491,0,0,0,0,0,0,0,0,0,-1,1035,533,0,0
-182,491,0,0,0,0,0,0,0,0,0,-1,1042,533,0,0
-175,491,0,0,0,0,0,0,0,0,0,-1,1049,533,0,0
-168,491,0,0,0,0,0,0,0,0,0,-1,1056,533,0,0
-161,491,0,0,0,0,0,0,0,0,0,-1,1063,533,0,0
-154,491,0,0,0,0,0,0,0,0,0,-1,1070,533,0,0
-147,491,0,0,0,0,0,0,0,0,0,-1,1077,533,0,0
-140,491,0,0,0,0,0,0,0,0,0,-1,1084,533,0,0
-133,491,0,0,0,0,0,0,0,0,0,-1,1091,533,0,0
-126,491,0,0,0,0,0,0,0,0,0,-1,1098,533,0,0
-119,491,0,0,0,0,0,0,0,0,0,-1,1105,533,0,0
-112,491,0,0,0,0,0,0,0,0,0,-1,1112,533,0,0
-105,491,0,0,0,0,0,0,0,0,0,-1,1119,533,0,0
-98,491,0,0,0,0,0,0,0,0,0,-1,1126,533,0,0
-91,491,0,0,0,0,0,0,0,0,0,-1,1133,533,0,0
-84,491,0,0,0,0,0,0,0,0,0,-1,1140,533,0,0
-77,491,0,0,0,0,0,0,0,0,0,-1,1147,533,0,0
-70,491,0,0,0,0,0,0,0,0,0,-1,1154,533,0,0
-63,491,0,0,0,0,0,0,0,0,0,-1,1161,533,0,0
-56,491,0,0,0,0,0,0,0,0,0,-1,1168,533,0,0
-49,491,0,0,0,0,0,0,0,0,0,-1,1175,533,0,0
-42,491,0,0,0,0,0,0,0,0,0,-1,1182,533,0,0
-35,491,0,0,0,0,0,0,0,0,0,-1,1189,533,0,0
-28,491,0,0,0,0,0,0,0,0,0,-1,1196,533,0,0
-21,491,0,0,0,0,0,0,0,0,0,-1,1203,533,0,0
-14,491,0,0,0,0,0,0,0,0,0,-1,1210,533,0,0
-7,491,0,0,0,0,0,0,0,0,0,-1,1217,533,0,0
0,491,0,0,0,0,0,0,0,0,0,-1,1224,533,0,0
7,491,0,0,0,0,0,0,0,0,0,-1,1231,533,0,0
14,491,0,0,0,0,0,0,0,0,0,-1,1238,533,0,0
21,491,0,0,0,0,0,0,0,0,0,-1,1245,533,0,0
28,491,0,0,0,0,0,0,0,0,0,-1,1252,533,0,0
35,491,0,0,0,0,0,0,0,0,0,-1,1259,533,0,0
42,491,0,0,0,0,0,0,0,0,0,-1,1266,533,0,0
49,491,0,0,0,0,0,0,0,0,0,-1,1273,533,0,0
56,491,0,0,0,0,0,0,0,0,0,-1,1280,533,0,0
63,491,0,0,0,0,0,0,0,0,0,-1,1287,533,0,0
70,491,0,0,0,0,0,0,0,0,0,-1,1294,533,0,0
77,491,0,0,0,0,0,0,0,0,0,-1,1301,533,0,0
84,491,0,0,0,0,0,0,0,0,0,-1,1308,533,0,0
91,491,0,0,0,0,0,0,0,0,0,-1,1315,533,0,0
98,491,0,0,0,0,0,0,0,0,0,-1,1322,533,0,0
105,491,0,0,0,0,0,0,0,0,0,-1,1329,533,0,0
112,491,0,0,0,0,0,0,0,0,0,-1,1336,533,0,0
119,491,0,0,0,0,0,0,0,0,0,-1,1343,533,0,0
126,491,0,0,0,0,0,0,0,0,0,-1,1350,533,0,0
133,491,0,0,0,0,0,0,0,0,0,-1,1357,533,0,0
140,491,0,0,0,0,0,0,0,0,0,-1,1364,533,0,0
147,491,0,0,0,0,0,0,0,0,0,-1,1371,533,0,0
154,491,0,0,0,0,0,0,0,0,0,-1,1378,533,0,0
161,491,0,0,0,0,0,0,0,0,0,-1,1385,533,0,0
168,491,0,0,0,0,0,0,0,0,0,-1,1392,533,0,0
175,491,0,0,0,0,0,0,0,0,0,-1,1399,533,0,0
182,491,0,0,0,0,0,0,0,0,0,-1,1406,533,0,0
189,491,0,0,0,0,0,0,0,0,0,-1,1413,533,0,0
196,491,0,0,0,0,0,0,0,0,0,-1,1420,533,0,0
203,491,0,0,0,0,0,0,0,0,0,-1,1427,533,0,0
210,491,0,0,0,0,0,0,0,0,0,-1,1434,533,0,0
217,491,0,0,0,0,0,0,0,0,0,-1,1441,533,0,0
224,491,0,0,0,0,0,0,0,0,0,-1,1448,533,0,0
231,491,0,0,0,0,0,0,0,0,0,-1,1455,533,0,0
238,491,0,0,0,0,0,0,0,0,0,-1,1462,533,0,0
245,491,0,0,0,0,0,0,0,0,0,-1,1469,533,0,0
252,491,0,0,0,0,0,0,0,0,0,-1,1476,533,0,0
259,491,0,0,0,0,0,0,0,0,0,-1,1483,533,0,0
266,491,0,0,0,0,0,0,0,0,0,-1,1490,533,0,0
273,491,0,0,0,0,0,0,0,0,0,-1,1497,533,0,0
280,491,0,0,0,0,0,0,0,0,0,-1,1504,533,0,0
287,491,0,0,0,0,0,0,0,0,0,-1,1511,533,0,0
294,491,0,0,0,0,0,0,0,0,0,-1,1518,533,0,0
301,491,0,0,0,0,0,0,0,0,0,-1,1525,533,0,0
308,491,0,0,0,0,0,0,0,0,0,-1,1532,533,0,0
315,491,0,0,0,0,0,0,0,0,0,-1,1539,533,0,0
322,491,4.26331,-0.734314,0,0,0,0,0,0,0,-1,1546,533,4.26326,0.734324
329,491,4.25354,-0.783752,0,0,0,0,0,0,0,-1,1553,533,4.25359,0.783734
336,491,4.81604,-0.722107,0,0,0,0,0,0,0,-1,1560,533,4.81605,0.722115
343,491,6.14478,-1.44281,0,0,0,0,0,0,0,-1,1567,533,6.14474,1.44281
350,491,6.36353,-1.30792,0,0,0,0,0,0,0,-1,1574,533,6.36352,1.3079
357,491,6.69482,-1.06018,0,0,0,0,0,0,0,-1,1581,533,6.69489,1.06018
364,491,7.10815,-0.729858,0,0,0,0,0,0,0,-1,1588,533,7.10813,0.729843
371,491,4.24487,0.45575,0,0,0,0,0,0,0,-1,1595,533,4.24489,-0.455759
378,491,4.34949,0.000793457,-0.00647407,-0.0429242,-0.0340465,0.0139184,-0.0633167,-0.539655,0.0475348,0.048561,1602,533,4.34951,-0.000773868
385,491,4.42029,-0.489563,-0.00198282,-0.0407703,-0.0337661,0.0175627,-0.0603158,-0.524723,0.0471675,0.0449855,1609,533,4.42028,0.489548
392,491,4.36914,-1.12408,0.00127765,-0.0360754,-0.0332427,0.020731,-0.0555287,-0.529461,0.0455309,0.0422258,1616,533,4.36912,1.12411
399,491,3.91394,-1.67444,0.00340968,-0.030838,-0.0319471,0.0225328,-0.0499611,-0.539381,0.0428414,0.0436373,1623,533,3.91391,1.67443
406,491,3.44031,-1.7489,0.00441235,-0.0254036,-0.0298763,0.0228937,-0.0438849,-0.553979,0.0391844,0.0456466,1630,533,3.44036,1.74888
413,491,5.37537,-2.86084,0,0,0,0,0,0,0,-1,1637,533,5.37541,2.86084
420,491,4.39905,-2.30676,0.00408448,-0.0156474,-0.0236801,0.0198717,-0.0314346,-0.588016,0.0298714,0.0481651,1644,533,4.39909,2.30677
427,491,4.09766,-2.638,0.00315318,-0.0117527,-0.0197873,0.0168445,-0.0254441,-0.605288,0.024583,0.0439788,1651,533,4.0977,2.63801
434,491,3.9209,-2.66162,0.00226909,-0.007773,-0.0164727,0.014469,-0.0199729,-0.637466,0.0199695,0.0311526,1658,533,3.92087,2.66163
441,491,3.82568,-2.59149,0.00123306,-0.00362753,-0.0131358,0.0121615,-0.0145559,-0.693926,0.015446,0.0192457,1665,533,3.82574,2.59149
448,491,3.8374,-2.43964,0.000137326,-0.00102569,-0.00857774,0.00815324,-0.00904161,-0.751554,0.00993187,0.0117418,1672,533,3.83735,2.43963
455,491,3.8241,-2.33661,-0.000587324,0.00114138,-0.00450464,0.00486385,-0.00430979,-0.880186,0.00529962,0.0112667,1679,533,3.82408,2.33659
462,491,3.83765,-2.26172,-0.00183685,0.00118298,-0.00185121,0.00206197,-0.00271583,-1.1275,0.00276706,0.013912,1686,533,3.83764,2.26173
469,491,3.84985,-2.15961,-0.0016598,0.00110931,-0.000754043,0.00130133,-0.00185181,-1.32145,0.00182969,0.0130304,1693,533,3.84983,2.15959
476,491,3.84717,-2.04669,-0.000757286,0.00124605,-0.000384606,0.00131735,-0.000828586,-1.38749,0.00124962,0.00988106,1700,533,3.84721,2.0467
483,491,3.84277,-1.948,-0.000272161,0.000787327,-0.000405102,0.000924468,-0.000409303,-1.24437,0.000788968,0.0124532,1707,533,3.84282,1.94798
490,491,3.83643,-1.87622,6.03305e-05,9.81427e-05,-0.000686189,0.000765686,-0.000607213,-0.799171,0.000794402,0.011154,1714,533,3.83641,1.87625
497,491,3.84448,-1.79266,0.000546609,-0.000609356,-0.00102249,0.00114317,-0.00120592,-0.528154,0.00135641,0.01125,1721,533,3.84451,1.79267
504,491,3.84412,-1.67798,0.00144491,-0.00114828,-0.00127786,0.00196878,-0.00167215,-0.389061,0.00210441,0.0128242,1728,533,3.84407,1.67801
511,491,3.82581,-1.54291,0.0031023,-0.00212748,-0.000888561,0.00324915,-0.00227432,-0.163783,0.00320549,0.0119727,1735,533,3.82585,1.54293
518,491,3.84424,-1.45239,0.00573974,-0.00162011,0.000402937,0.00576173,-0.0016421,0.0545308,0.00448976,0.00921994,1742,533,3.8442,1.45239
525,491,3.85583,-1.36572,0.00867031,-0.00131887,0.00178335,0.00897914,-0.0016277,0.171473,0.00659595,0.00922933,1749,533,3.85578,1.36571
532,491,3.86877,-1.26837,0.0139015,0.000532247,0.00485491,0.0154785,-0.00104474,0.314073,0.0106843,0.0134765,1756,533,3.8688,1.26835
539,491,3.88855,-1.21149,0.0200662,0.00268541,0.00863758,0.0236286,-0.000876971,0.391175,0.0160527,0.0198289,1763,533,3.88856,1.21147
546,491,3.95325,-1.13422,0.028285,0.00610874,0.0140501,0.0350952,-0.000701491,0.451342,0.0236341,0.0331493,1770,533,3.95329,1.13422
553,491,4.40698,-1.19177,0.0389742,0.0112003,0.0215099,0.0506904,-0.000515878,0.498757,0.0339669,0.0429048,1777,533,4.40695,1.19175
560,491,4.97986,-1.43225,0.0528217,0.0188952,0.0316175,0.0717391,-2.21692e-05,0.539183,0.0478334,0.0462027,1784,533,4.97985,1.43224
567,491,5.59595,-1.44067,0,0,0,0,0,0,0,-1,1791,533,5.59593,1.44066
574,491,8.0719,1.58325,0,0,0,0,0,0,0,-1,1798,533,8.07195,-1.58326
581,491,9.44812,1.60931,0.116848,0.0608336,0.07992,0.173526,0.00415565,0.616863,0.114324,0.0444423,1805,533,9.44808,-1.60933
588,491,10.7474,1.84772,0,0,0,0,0,0,0,-1,1812,533,10.7474,-1.8477
595,491,0,0,0,0,0,0,0,0,0,-1,1819,533,0,0
602,491,0,0,0,0,0,0,0,0,0,-1,1826,533,0,0
609,491,0,0,0,0,0,0,0,0,0,-1,1833,533,0,0
616,491,0,0,0,0,0,0,0,0,0,-1,1840,533,0,0
623,491,0,0,0,0,0,0,0,0,0,-1,1847,533,0,0
630,491,0,0,0,0,0,0,0,0,0,-1,1854,533,0,0
637,491,0,0,0,0,0,0,0,0,0,-1,1861,533,0,0
644,491,0,0,0,0,0,0,0,0,0,-1,1868,533,0,0
651,491,0,0,0,0,0,0,0,0,0,-1,1875,533,0,0
658,491,0,0,0,0,0,0,0,0,0,-1,1882,533,0,0
665,491,0,0,0,0,0,0,0,0,0,-1,1889,533,0,0
672,491,0,0,0,0,0,0,0,0,0,-1,1896,533,0,0
679,491,0,0,0,0,0,0,0,0,0,-1,1903,533,0,0
686,491,0,0,0,0,0,0,0,0,0,-1,1910,533,0,0
693,491,0,0,0,0,0,0,0,0,0,-1,1917,533,0,0
700,491,0,0,0,0,0,0,0,0,0,-1,1924,533,0,0
707,491,0,0,0,0,0,0,0,0,0,-1,1931,533,0,0
714,491,0,0,0,0,0,0,0,0,0,-1,1938,533,0,0
721,491,0,0,0,0,0,0,0,0,0,-1,1945,533,0,0
728,491,0,0,0,0,0,0,0,0,0,-1,1952,533,0,0
735,491,0,0,0,0,0,0,0,0,0,-1,1959,533,0,0
742,491,0,0,0,0,0,0,0,0,0,-1,1966,533,0,0
749,491,0,0,0,0,0,0,0,0,0,-1,1973,533,0,0
756,491,0,0,0,0,0,0,0,0,0,-1,1980,533,0,0
763,491,0,0,0,0,0,0,0,0,0,-1,1987,533,0,0
770,491,0,0,0,0,0,0,0,0,0,-1,1994,533,0,0
777,491,0,0,0,0,0,0,0,0,0,-1,2001,533,0,0
784,491,0,0,0,0,0,0,0,0,0,-1,2008,533,0,0
791,491,0,0,0,0,0,0,0,0,0,-1,2015,533,0,0
798,491,0,0,0,0,0,0,0,0,0,-1,2022,533,0,0
805,491,0,0,0,0,0,0,0,0,0,-1,2029,533,0,0
812,491,0,0,0,0,0,0,0,0,0,-1,2036,533,0,0
-700,484,0,0,0,0,0,0,0,0,0,-1,524,540,0,0
-693,484,0,0,0,0,0,0,0,0,0,-1,531,540,0,0
-686,484,0,0,0,0,0,0,0,0,0,-1,538,540,0,0
-679,484,0,0,0,0,0,0,0,0,0,-1,545,540,0,0
-672,484,0,0,0,0,0,0,0,0,0,-1,552,540,0,0
-665,484,0,0,0,0,0,0,0,0,0,-1,559,540,0,0
-658,484,0,0,0,0,0,0,0,0,0,-1,566,540,0,0
-651,484,0,0,0,0,0,0,0,0,0,-1,573,540,0,0
-644,484,0,0,0,0,0,0,0,0,0,-1,580,540,0,0
-637,484,0,0,0,0,0,0,0,0,0,-1,587,540,0,0
-630,484,0,0,0,0,0,0,0,0,0,-1,594,540,0,0
-623,484,0,0,0,0,0,0,0,0,0,-1,601,540,0,0
-616,484,0,0,0,0,0,0,0,0,0,-1,608,540,0,0
-609,484,0,0,0,0,0,0,0,0,0,-1,615,540,0,0
-602,484,0,0,0,0,0,0,0,0,0,-1,622,540,0,0
-595,484,0,0,0,0,0,0,0,0,0,-1,629,540,0,0
-588,484,0,0,0,0,0,0,0,0,0,-1,636,540,0,0
-581,484,0,0,0,0,0,0,0,0,0,-1,643,540,0,0
-574,484,0,0,0,0,0,0,0,0,0,-1,650,540,0,0
-567,484,0,0,0,0,0,0,0,0,0,-1,657,540,0,0
-560,484,0,0,0,0,0,0,0,0,0,-1,664,540,0,0
-553,484,0,0,0,0,0,0,0,0,0,-1,671,540,0,0
-546,484,0,0,0,0,0,0,0,0,0,-1,678,540,0,0
-539,484,0,0,0,0,0,0,0,0,0,-1,685,540,0,0
-532,484,0,0,0,0,0,0,0,0,0,-1,692,540,0,0
-525,484,0,0,0,0,0,0,0,0,0,-1,699,540,0,0
-518,484,0,0,0,0,0,0,0,0,0,-1,706,540,0,0
-511,484,0,0,0,0,0,0,0,0,0,-1,713,540,0,0
-504,484,0,0,0,0,0,0,0,0,0,-1,720,540,0,0
-497,484,0,0,0,0,0,0,0,0,0,-1,727,540,0,0
-490,484,0,0,0,0,0,0,0,0,0,-1,734,540,0,0
-483,484,0,0,0,0,0,0,0,0,0,-1,741,540,0,0
-476,484,-5.88806,-1.06555,0,0,0,0,0,0,0,-1,748,540,-5.88804,1.06557
-469,484,-4.18713,-1.02136,0,0,0,0,0,0,0,-1,755,540,-4.18714,1.02136
-462,484,-2.72552,-0.947266,0.134748,0.0390279,-0.0494193,0.155683,0.0180921,-0.400714,0.0983146,0.044089,762,540,-2.7255,0.947265
-455,484,-1.776,-0.914307,0.109997,0.0336998,-0.0391669,0.126523,0.0171733,-0.399285,0.0792471,0.0441499,769,540,-1.77599,0.914313
-448,484,-0.843201,-1.00861,0.0876387,0.0298539,-0.0293948,0.099963,0.0175295,-0.397008,0.0616355,0.0415421,776,540,-0.843173,1.00863
-441,484,0.211548,-1.14685,0.068083,0.0269597,-0.0208504,0.0768048,0.0182379,-0.396185,0.0463362,0.0421824,783,540,0.211536,1.14688
-434,484,0.458984,-0.783569,0,0,0,0,0,0,0,-1,790,540,0.45897,0.783581
-427,484,0.517395,-1.06952,0.0380906,0.0219464,-0.00872818,0.0419071,0.0181298,-0.412215,0.0242682,0.0377648,797,540,0.517388,1.06954
-420,484,0.726135,-1.49139,0.0274342,0.0198468,-0.00463088,0.0296269,0.0176541,-0.442224,0.0172096,0.0285475,804,540,0.72611,1.49137
-413,484,0.766479,-1.62549,0.0194284,0.0178078,-0.00189053,0.0206749,0.0165612,-0.582932,0.0126372,0.0161803,811,540,0.766505,1.62551
-406,484,0.782227,-1.73651,0.0124538,0.0157302,0.000591243,0.0158337,0.0123503,1.39762,0.00960751,0.0104708,818,540,0.782206,1.73652
-399,484,0.745239,-1.81805,0.0074112,0.0133517,0.00187347,0.0138932,0.00686972,1.28944,0.0080214,0.0135791,825,540,0.745228,1.81807
-392,484,0.741028,-1.90826,0.00438102,0.0109664,0.00194054,0.0114957,0.00385174,1.30452,0.00675637,0.0155631,832,540,0.741055,1.90827
-385,484,0.757202,-2.01849,0.00222329,0.00904283,0.00176187,0.00947112,0.001795,1.33233,0.00580894,0.011716,839,540,0.757201,2.01847
-378,484,0.771729,-2.11731,0.00111052,0.00729666,0.00110108,0.0074868,0.000920382,1.3998,0.00471445,0.0122356,846,540,0.771701,2.11729
-371,484,0.767944,-2.21277,0.000178456,0.00557831,0.0010143,0.00576255,-5.78351e-06,1.39111,0.00384363,0.0144425,853,540,0.767946,2.21276
-364,484,0.760498,-2.29541,-0.000772413,0.0037682,0.000903625,0.00394142,-0.000945635,1.3814,0.00299304,0.011597,860,540,0.760474,2.29538
-357,484,0.765259,-2.39075,-0.00178664,0.00236341,0.000916906,0.00255697,-0.00198019,1.36276,0.00262658,0.0121066,867,540,0.765271,2.39074
-350,484,0.771973,-2.47974,-0.0028686,0.00113283,0.00130353,0.00152001,-0.00325578,1.28207,0.00281736,0.0136761,874,540,0.771989,2.47974
-343,484,0.766113,-2.55865,-0.00383279,0.0003546,0.00183321,0.00104375,-0.00452194,1.21122,0.00341611,0.0210132,881,540,0.766106,2.55865
-336,484,0.791077,-2.65906,-0.00486544,-0.000447634,0.00240231,0.000606946,-0.00592002,1.15714,0.00416377,0.0230032,888,540,0.791048,2.65904
-329,484,0.786377,-2.74023,-0.00596155,-0.00157029,0.0031095,4.0628e-05,-0.00757247,1.0928,0.00506191,0.0237702,895,540,0.786349,2.74023
-322,484,0.832336,-2.8501,-0.00714074,-0.00329399,0.00370446,-0.00104335,-0.00939138,1.02484,0.00594374,0.0238613,902,540,0.832331,2.85012
-315,484,0.758179,-2.89075,-0.00846965,-0.0052754,0.00424476,-0.00233724,-0.0114078,0.965335,0.00695823,0.0259365,909,540,0.758166,2.89076
-308,484,0.62738,-2.90143,-0.00975045,-0.00789454,0.00470949,-0.00402245,-0.0136225,0.882672,0.00808174,0.0371599,916,540,0.627408,2.90144
-301,484,0.37854,-3.03711,-0.0109329,-0.0112344,0.00501561,-0.00606578,-0.0161015,0.770377,0.00938993,0.043865,923,540,0.378529,3.03713
-294,484,0.245972,-3.19482,0,0,0,0,0,0,0,-1,930,540,0.246002,3.19482
-287,484,2.19708,-2.6759,0,0,0,0,0,0,0,-1,937,540,2.1971,2.67587
-280,484,2.66742,-1.6795,0,0,0,0,0,0,0,-1,944,540,2.6674,1.67949
-273,484,2.53125,-2.22296,0,0,0,0,0,0,0,-1,951,540,2.53128,2.22295
-266,484,2.6778,-2.72058,0,0,0,0,0,0,0,-1,958,540,2.6778,2.72061
-259,484,2.41718,-2.59894,0,0,0,0,0,0,0,-1,965,540,2.41717,2.59892
-252,484,-4.61578,-10.3231,0,0,0,0,0,0,0,-1,972,540,-4.61579,10.3231
-245,484,-3.05927,-8.37335,0,0,0,0,0,0,0,-1,979,540,-3.05929,8.37337
-238,484,-3.08539,-6.61719,0.0888557,-0.0626984,0.142932,0.174856,-0.148698,0.541656,0.187007,0.0473043,986,540,-3.08541,6.61717
-231,484,-2.8877,-4.73975,0.086429,-0.0719612,0.152094,0.178711,-0.164244,0.545364,0.198064,0.0466806,993,540,-2.8877,4.73977
-224,484,-2.44275,-2.80133,0.0779361,-0.0842395,0.157389,0.173898,-0.180202,0.547529,0.20445,0.045569,1000,540,-2.44276,2.80133
-217,484,-2.07257,-0.877014,0,0,0,0,0,0,0,-1,1007,540,-2.07257,0.876997
-210,484,0,0,0,0,0,0,0,0,0,-1,1014,540,0,0
-203,484,0,0,0,0,0,0,0,0,0,-1,1021,540,0,0
-196,484,0,0,0,0,0,0,0,0,0,-1,1028,540,0,0
-189,484,0,0,0,0,0,0,0,0,0,-1,1035,540,0,0
-182,484,0,0,0,0,0,0,0,0,0,-1,1042,540,0,0
-175,484,0,0,0,0,0,0,0,0,0,-1,1049,540,0,0
-168,484,0,0,0,0,0,0,0,0,0,-1,1056,540,0,0
-161,484,0,0,0,0,0,0,0,0,0,-1,1063,540,0,0
-154,484,0,0,0,0,0,0,0,0,0,-1,1070,540,0,0
-147,484,0,0,0,0,0,0,0,0,0,-1,1077,540,0,0
-140,484,0,0,0,0,0,0,0,0,0,-1,1084,540,0,0
-133,484,0,0,0,0,0,0,0,0,0,-1,1091,540,0,0
-126,484,0,0,0,0,0,0,0,0,0,-1,1098,540,0,0
-119,484,0,0,0,0,0,0,0,0,0,-1,1105,540,0,0
-112,484,0,0,0,0,0,0,0,0,0,-1,1112,540,0,0
-105,484,0,0,0,0,0,0,0,0,0,-1,1119,540,0,0
-98,484,0,0,0,0,0,0,0,0,0,-1,1126,540,0,0
-91,484,0,0,0,0,0,0,0,0,0,-1,1133,540,0,0
-84,484,0,0,0,0,0,0,0,0,0,-1,1140,540,0,0
-77,484,0,0,0,0,0,0,0,0,0,-1,1147,540,0,0
-70,484,0,0,0,0,0,0,0,0,0,-1,1154,540,0,0
-63,484,0,0,0,0,0,0,0,0,0,-1,1161,540,0,0
-56,484,0,0,0,0,0,0,0,0,0,-1,1168,540,0,0
-49,484,0,0,0,0,0,0,0,0,0,-1,1175,540,0,0
-42,484,0,0,0,0,0,0,0,0,0,-1,1182,540,0,0
-35,484,0,0,0,0,0,0,0,0,0,-1,1189,540,0,0
-28,484,0,0,0,0,0,0,0,0,0,-1,1196,540,0,0
-21,484,0,0,0,0,0,0,0,0,0,-1,1203,540,0,0
-14,484,0,0,0,0,0,0,0,0,0,-1,1210,540,0,0
-7,484,0,0,0,0,0,0,0,0,0,-1,1217,540,0,0
0,484,0,0,0,0,0,0,0,0,0,-1,1224,540,0,0
7,484,0,0,0,0,0,0,0,0,0,-1,1231,540,0,0
14,484,0,0,0,0,0,0,0,0,0,-1,1238,540,0,0
21,484,0,0,0,0,0,0,0,0,0,-1,1245,540,0,0
28,484,0,0,0,0,0,0,0,0,0,-1,1252,540,0,0
35,484,0,0,0,0,0,0,0,0,0,-1,1259,540,0,0
42,484,0,0,0,0,0,0,0,0,0,-1,1266,540,0,0
49,484,0,0,0,0,0,0,0,0,0,-1,1273,540,0,0
56,484,0,0,0,0,0,0,0,0,0,-1,1280,540,0,0
63,484,0,0,0,0,0,0,0,0,0,-1,1287,540,0,0
70,484,0,0,0,0,0,0,0,0,0,-1,1294,540,0,0
77,484,0,0,0,0,0,0,0,0,0,-1,1301,540,0,0
84,484,0,0,0,0,0,0,0,0,0,-1,1308,540,0,0
91,484,0,0,0,0,0,0,0,0,0,-1,1315,540,0,0
98,484,0,0,0,0,0,0,0,0,0,-1,1322,540,0,0
105,484,0,0,0,0,0,0,0,0,0,-1,1329,540,0,0
112,484,0,0,0,0,0,0,0,0,0,-1,1336,540,0,0
119,484,0,0,0,0,0,0,0,0,0,-1,1343,540,0,0
126,484,0,0,0,0,0,0,0,0,0,-1,1350,540,0,0
133,484,0,0,0,0,0,0,0,0,0,-1,1357,540,0,0
140,484,0,0,0,0,0,0,0,0,0,-1,1364,540,0,0
147,484,0,0,0,0,0,0,0,0,0,-1,1371,540,0,0
154,484,0,0,0,0,0,0,0,0,0,-1,1378,540,0,0
161,484,0,0,0,0,0,0,0,0,0,-1,1385,540,0,0
168,484,0,0,0,0,0,0,0,0,0,-1,1392,540,0,0
175,484,0,0,0,0,0,0,0,0,0,-1,1399,540,0,0
182,484,0,0,0,0,0,0,0,0,0,-1,1406,540,0,0
189,484,0,0,0,0,0,0,0,0,0,-1,1413,540,0,0
196,484,0,0,0,0,0,0,0,0,0,-1,1420,540,0,0
203,484,0,0,0,0,0,0,0,0,0,-1,1427,540,0,0
210,484,0,0,0,0,0,0,0,0,0,-1,1434,540,0,0
217,484,0,0,0,0,0,0,0,0,0,-1,1441,540,0,0
224,484,0,0,0,0,0,0,0,0,0,-1,1448,540,0,0
231,484,0,0,0,0,0,0,0,0,0,-1,1455,540,0,0
238,484,0,0,0,0,0,0,0,0,0,-1,1462,540,0,0
245,484,0,0,0,0,0,0,0,0,0,-1,1469,540,0,0
252,484,0,0,0,0,0,0,0,0,0,-1,1476,540,0,0
259,484,0,0,0,0,0,0,0,0,0,-1,1483,540,0,0
266,484,0,0,0,0,0,0,0,0,0,-1,1490,540,0,0
273,484,0,0,0,0,0,0,0,0,0,-1,1497,540,0,0
280,484,0,0,0,0,0,0,0,0,0,-1,1504,540,0,0
287,484,0,0,0,0,0,0,0,0,0,-1,1511,540,0,0
294,484,0,0,0,0,0,0,0,0,0,-1,1518,540,0,0
301,484,0,0,0,0,0,0,0,0,0,-1,1525,540,0,0
308,484,0,0,0,0,0,0,0,0,0,-1,1532,540,0,0
315,484,0,0,0,0,0,0,0,0,0,-1,1539,540,0,0
322,484,0,0,0,0,0,0,0,0,0,-1,1546,540,0,0
329,484,0,0,0,0,0,0,0,0,0,-1,1553,540,0,0
336,484,4.38708,-1.64136,0,0,0,0,0,0,0,-1,1560,540,4.38704,1.64138
343,484,7.57996,-1.05457,0,0,0,0,0,0,0,-1,1567,540,7.57995,1.05454
350,484,6.31775,-0.979492,0,0,0,0,0,0,0,-1,1574,540,6.31773,0.979463
357,484,4.61755,-1.65894,0,0,0,0,0,0,0,-1,1581,540,4.61751,1.65895
364,484,4.29675,1.45862,0,0,0,0,0,0,0,-1,1588,540,4.29681,-1.45861
371,484,4.41711,0.993225,0,0,0,0,0,0,0,-1,1595,540,4.41713,-0.993208
378,484,4.56323,0.655151,-0.00134806,-0.0458451,-0.0360882,0.0187986,-0.0659917,-0.509165,0.0514192,0.0456805,1602,540,4.56321,-0.655151
385,484,4.93689,-0.00872803,0.00440806,-0.0421529,-0.0375145,0.0252787,-0.0630235,-0.507693,0.0525108,0.0474302,1609,540,4.93689,0.00870207
392,484,4.80225,-0.319885,0.00845711,-0.0361119,-0.0381742,0.0303752,-0.05803,-0.521203,0.0518665,0.0494792,1616,540,4.80227,0.319904
399,484,4.4801,-0.679382,0.010888,-0.0296306,-0.0376434,0.0333776,-0.0521201,-0.538532,0.0497559,0.0472836,1623,540,4.48005,0.679394
406,484,4.05811,-0.843811,0,0,0,0,0,0,0,-1,1630,540,4.05805,0.843799
413,484,4.4895,-1.08673,0,0,0,0,0,0,0,-1,1637,540,4.48952,1.08674
420,484,4.50012,-2.11255,0,0,0,0,0,0,0,-1,1644,540,4.50012,2.11256
427,484,4.47327,-2.48547,0,0,0,0,0,0,0,-1,1651,540,4.47325,2.48547
434,484,4.17456,-2.67505,0,0,0,0,0,0,0,-1,1658,540,4.17456,2.67502
441,484,3.9397,-2.67755,0.00457914,-0.00194011,-0.0184129,0.0200187,-0.0173796,-0.697791,0.0216098,0.049932,1665,540,3.9397,2.67753
448,484,3.88684,-2.47461,0.00235865,0.000110121,-0.0126036,0.0138881,-0.0114193,-0.740915,0.0146344,0.0355306,1672,540,3.88689,2.47462
455,484,3.89771,-2.34308,0.000791207,0.00211003,-0.00737272,0.00885277,-0.00595153,-0.829999,0.0086018,0.0189428,1679,540,3.8977,2.34311
462,484,3.92651,-2.26715,-0.00126083,0.0015734,-0.00370114,0.00411945,-0.00380688,-0.968231,0.00457745,0.0139618,1686,540,3.92655,2.26713
469,484,3.94666,-2.15887,-0.00109755,0.00162531,-0.002189,0.00284171,-0.00231395,-1.0636,0.00298182,0.0151782,1693,540,3.94664,2.15889
476,484,3.96008,-2.04541,-0.000167851,0.00181255,-0.00147242,0.00259675,-0.000952057,-1.08141,0.00212099,0.0132578,1700,540,3.96005,2.04544
483,484,3.95923,-1.95789,0.000202455,0.00128661,-0.00115309,0.00201868,-0.000529619,-1.00512,0.00155273,0.010374,1707,540,3.95927,1.9579
490,484,3.95886,-1.88074,0.000347608,0.000549615,-0.00106891,0.00152228,-0.000625056,-0.832505,0.00127533,0.0113917,1714,540,3.95888,1.88073
497,484,3.94409,-1.78943,0.000587925,-0.000197093,-0.00104363,0.00131041,-0.000919583,-0.605531,0.00129406,0.0134952,1721,540,3.94404,1.78944
504,484,3.9425,-1.66803,0.00116355,-0.000767995,-0.000945596,0.0015494,-0.00115384,-0.387421,0.00156627,0.0159664,1728,540,3.94253,1.66805
511,484,3.94434,-1.54468,0.00241285,-0.0016706,-0.000304297,0.0024354,-0.00169315,-0.0739752,0.00239643,0.0183136,1735,540,3.94428,1.54465
518,484,3.93567,-1.4563,0.00454941,-0.00122078,0.00110608,0.00475417,-0.00142554,0.183048,0.0037364,0.0146721,1742,540,3.93573,1.4563
525,484,3.95789,-1.35712,0.00692562,-0.000923706,0.00252695,0.00766877,-0.00166685,0.286025,0.00574925,0.0119309,1749,540,3.95793,1.35713
532,484,3.96802,-1.26123,0.0111425,0.000618199,0.00519604,0.0132756,-0.00151485,0.389538,0.00939614,0.0144375,1756,540,3.96802,1.26122
539,484,3.94592,-1.13635,0.0161163,0.0024396,0.00837378,0.0200892,-0.00153331,0.442996,0.0139321,0.0178112,1763,540,3.94592,1.13637
546,484,3.94263,-1.07184,0.02258,0.00526728,0.0127984,0.0293746,-0.00152731,0.488056,0.0201115,0.019357,1770,540,3.94266,1.07184
553,484,4.01843,-1.02545,0.0309237,0.00927524,0.0187261,0.0417289,-0.00152995,0.523345,0.028343,0.0326455,1777,540,4.01839,1.02544
560,484,4.41504,-0.730225,0.0414536,0.0151622,0.0264395,0.0578351,-0.00121927,0.554696,0.0389695,0.0420538,1784,540,4.41503,0.730227
567,484,5.3678,0.626587,0.0544921,0.023164,0.0363192,0.0783812,-0.000725016,0.581805,0.0524974,0.0426831,1791,540,5.36775,-0.626591
574,484,6.60352,0.715271,0,0,0,0,0,0,0,-1,1798,540,6.60351,-0.715248
581,484,7.99219,0.738525,0,0,0,0,0,0,0,-1,1805,540,7.99215,-0.738554
588,484,9.349,0.772827,0,0,0,0,0,0,0,-1,1812,540,9.34906,-0.772847
595,484,8.27734,2.00696,0,0,0,0,0,0,0,-1,1819,540,8.27737,-2.00697
602,484,0,0,0,0,0,0,0,0,0,-1,1826,540,0,0
609,484,0,0,0,0,0,0,0,0,0,-1,1833,540,0,0
616,484,0,0,0,0,0,0,0,0,0,-1,1840,540,0,0
623,484,0,0,0,0,0,0,0,0,0,-1,1847,540,0,0
630,484,0,0,0,0,0,0,0,0,0,-1,1854,540,0,0
637,484,0,0,0,0,0,0,0,0,0,-1,1861,540,0,0
644,484,0,0,0,0,0,0,0,0,0,-1,1868,540,0,0
651,484,0,0,0,0,0,0,0,0,0,-1,1875,540,0,0
658,484,0,0,0,0,0,0,0,0,0,-1,1882,540,0,0
665,484,0,0,0,0,0,0,0,0,0,-1,1889,540,0,0
672,484,0,0,0,0,0,0,0,0,0,-1,1896,540,0,0
679,484,0,0,0,0,0,0,0,0,0,-1,1903,540,0,0
686,484,0,0,0,0,0,0,0,0,0,-1,1910,540,0,0
693,484,0,0,0,0,0,0,0,0,0,-1,1917,540,0,0
700,484,0,0,0,0,0,0,0,0,0,-1,1924,540,0,0
707,484,0,0,0,0,0,0,0,0,0,-1,1931,540,0,0
714,484,0,0,0,0,0,0,0,0,0,-1,1938,540,0,0
721,484,0,0,0,0,0,0,0,0,0,-1,1945,540,0,0
728,484,0,0,0,0,0,0,0,0,0,-1,1952,540,0,0
735,484,0,0,0,0,0,0,0,0,0,-1,1959,540,0,0
742,484,0,0,0,0,0,0,0,0,0,-1,1966,540,0,0
749,484,0,0,0,0,0,0,0,0,0,-1,1973,540,0,0
756,484,0,0,0,0,0,0,0,0,0,-1,1980,540,0,0
763,484,0,0,0,0,0,0,0,0,0,-1,1987,540,0,0
770,484,0,0,0,0,0,0,0,0,0,-1,1994,540,0,0
777,484,0,0,0,0,0,0,0,0,0,-1,2001,540,0,0
784,484,0,0,0,0,0,0,0,0,0,-1,2008,540,0,0
791,484,0,0,0,0,0,0,0,0,0,-1,2015,540,0,0
798,484,0,0,0,0,0,0,0,0,0,-1,2022,540,0,0
805,484,0,0,0,0,0,0,0,0,0,-1,2029,540,0,0
812,484,0,0,0,0,0,0,0,0,0,-1,2036,540,0,0
-700,477,0,0,0,0,0,0,0,0,0,-1,524,547,0,0
-693,477,0,0,0,0,0,0,0,0,0,-1,531,547,0,0
-686,477,0,0,0,0,0,0,0,0,0,-1,538,547,0,0
-679,477,0,0,0,0,0,0,0,0,0,-1,545,547,0,0
-672,477,0,0,0,0,0,0,0,0,0,-1,552,547,0,0
-665,477,0,0,0,0,0,0,0,0,0,-1,559,547,0,0
-658,477,0,0,0,0,0,0,0,0,0,-1,566,547,0,0
-651,477,0,0,0,0,0,0,0,0,0,-1,573,547,0,0
-644,477,0,0,0,0,0,0,0,0,0,-1,580,547,0,0
-637,477,0,0,0,0,0,0,0,0,0,-1,587,547,0,0
-630,477,0,0,0,0,0,0,0,0,0,-1,594,547,0,0
-623,477,0,0,0,0,0,0,0,0,0,-1,601,547,0,0
-616,477,0,0,0,0,0,0,0,0,0,-1,608,547,0,0
-609,477,0,0,0,0,0,0,0,0,0,-1,615,547,0,0
-602,477,0,0,0,0,0,0,0,0,0,-1,622,547,0,0
-595,477,0,0,0,0,0,0,0,0,0,-1,629,547,0,0
-588,477,0,0,0,0,0,0,0,0,0,-1,636,547,0,0
-581,477,0,0,0,0,0,0,0,0,0,-1,643,547,0,0
-574,477,0,0,0,0,0,0,0,0,0,-1,650,547,0,0
-567,477,0,0,0,0,0,0,0,0,0,-1,657,547,0,0
-560,477,0,0,0,0,0,0,0,0,0,-1,664,547,0,0
-553,477,0,0,0,0,0,0,0,0,0,-1,671,547,0,0
-546,477,0,0,0,0,0,0,0,0,0,-1,678,547,0,0
-539,477,0,0,0,0,0,0,0,0,0,-1,685,547,0,0
-532,477,0,0,0,0,0,0,0,0,0,-1,692,547,0,0
-525,477,0,0,0,0,0,0,0,0,0,-1,699,547,0,0
-518,477,0,0,0,0,0,0,0,0,0,-1,706,547,0,0
-511,477,0,0,0,0,0,0,0,0,0,-1,713,547,0,0
-504,477,0,0,0,0,0,0,0,0,0,-1,720,547,0,0
-497,477,0,0,0,0,0,0,0,0,0,-1,727,547,0,0
-490,477,0,0,0,0,0,0,0,0,0,-1,734,547,0,0
-483,477,-1.12231,-0.590027,0,0,0,0,0,0,0,-1,741,547,-1.1223,0.590037
-476,477,-1.61005,-1.30035,0,0,0,0,0,0,0,-1,748,547,-1.61007,1.30037
-469,477,-2.91589,-0.820435,0,0,0,0,0,0,0,-1,755,547,-2.91592,0.820442
-462,477,-1.67853,-0.778748,0.114424,0.0348323,-0.0416094,0.132204,0.0170516,-0.403837,0.0830381,0.0446117,762,547,-1.67851,0.778761
-455,477,-0.616699,-1.02118,0.0932981,0.0292307,-0.0337127,0.107769,0.0147595,-0.405465,0.0674667,0.043181,769,547,-0.616675,1.0212
-448,477,0.458557,-1.21362,0,0,0,0,0,0,0,-1,776,547,0.458585,1.21365
-441,477,0.543457,-1.26898,0.0577028,0.0214741,-0.0190297,0.0658613,0.0133156,-0.405019,0.0402107,0.0448901,783,547,0.543431,1.26896
-434,477,0.645569,-1.34076,0.0437491,0.0185167,-0.0135062,0.049615,0.0126509,-0.409727,0.0297696,0.0351898,790,547,0.645583,1.34077
-427,477,0.651306,-1.41217,0.0321931,0.0159009,-0.00893633,0.036139,0.011955,-0.415812,0.0212593,0.0184367,797,547,0.651294,1.41216
-420,477,0.642456,-1.4928,0.0231064,0.0138152,-0.00532385,0.0255266,0.0113951,-0.426663,0.014766,0.0152106,804,547,0.642458,1.49281
-413,477,0.654297,-1.61884,0.0163221,0.0120489,-0.00279912,0.0177069,0.0106641,-0.459414,0.0102941,0.0133733,811,547,0.654276,1.61883
-406,477,0.658813,-1.70966,0.0103313,0.0103837,-0.000454813,0.0108131,0.00990194,-0.814166,0.00692501,0.0100049,818,547,0.658844,1.70966
-399,477,0.65155,-1.82715,0.00595277,0.00855046,0.00084236,0.0087997,0.00570353,1.28312,0.00515431,0.0167784,825,547,0.651552,1.82714
-392,477,0.655762,-1.92401,0.00330276,0.00683594,0.00110192,0.00715143,0.00298727,1.29194,0.00414748,0.0160517,832,547,0.655735,1.92401
-385,477,0.667664,-1.99255,0.00146392,0.00560355,0.00111727,0.00588585,0.00118162,1.32331,0.00359534,0.0139289,839,547,0.667645,1.99254
-378,477,0.670959,-2.11346,0.000432749,0.00464799,0.000706811,0.00476335,0.000317388,1.40901,0.00307523,0.0123497,846,547,0.670933,2.11347
-371,477,0.67334,-2.2019,-0.000481472,0.00361673,0.000795225,0.00376562,-0.00063037,1.3857,0.00274477,0.012475,853,547,0.673318,2.20192
-364,477,0.67334,-2.27814,-0.00140486,0.00259068,0.000855683,0.00276622,-0.0015804,1.36846,0.00254046,0.0128413,860,547,0.673361,2.27816
-357,477,0.657043,-2.37451,-0.00243808,0.00192657,0.0010559,0.0021686,-0.0026801,1.34548,0.00280459,0.0108061,867,547,0.657054,2.37449
-350,477,0.6698,-2.47125,-0.0036896,0.00113373,0.00162214,0.00162852,-0.00418439,1.27474,0.00346253,0.010061,874,547,0.669785,2.47126
-343,477,0.68573,-2.56683,-0.00496305,0.000675067,0.00231146,0.00150155,-0.00578953,1.22741,0.00444555,0.0176794,881,547,0.685718,2.56685
-336,477,0.705261,-2.67566,-0.0064095,-4.21845e-05,0.00307944,0.00120345,-0.00765513,1.18642,0.00554825,0.0214276,888,547,0.705239,2.67567
-329,477,0.706238,-2.84259,-0.00801279,-0.00123099,0.00401249,0.000631514,-0.0098753,1.13622,0.00680381,0.0299025,895,547,0.706215,2.84258
-322,477,0.597839,-2.75629,-0.00970036,-0.0032275,0.00482073,-0.000657564,-0.0122703,1.08102,0.00797006,0.03494,902,547,0.59784,2.7563
-315,477,0.563477,-2.72552,-0.0116707,-0.00571334,0.00561761,-0.00233354,-0.0150505,1.02917,0.00935333,0.0406093,909,547,0.563463,2.7255
-308,477,0.515076,-2.93854,-0.0138156,-0.00904886,0.00638263,-0.00461912,-0.0182453,0.964088,0.0109535,0.0433228,916,547,0.515077,2.93851
-301,477,0.295227,-2.54791,-0.0156975,-0.0132707,0.00703119,-0.007349,-0.0216192,0.870845,0.0126933,0.0491209,923,547,0.295208,2.54792
-294,477,-0.00396729,-2.4649,0,0,0,0,0,0,0,-1,930,547,-0.00396777,2.4649
-287,477,3.54364,2.15399,0,0,0,0,0,0,0,-1,937,547,3.54362,-2.15396
-280,477,1.97308,-0.954163,0,0,0,0,0,0,0,-1,944,547,1.9731,0.954178
-273,477,2.11621,-3.76709,0,0,0,0,0,0,0,-1,951,547,2.11619,3.76706
-266,477,2.04669,-3.42389,0,0,0,0,0,0,0,-1,958,547,2.04671,3.42391
-259,477,1.8042,-3.24603,0,0,0,0,0,0,0,-1,965,547,1.80419,3.24601
-252,477,1.73175,-3.15027,0,0,0,0,0,0,0,-1,972,547,1.73172,3.15029
-245,477,1.30811,-3.43146,0,0,0,0,0,0,0,-1,979,547,1.30809,3.43145
-238,477,-3.39209,-5.5061,0,0,0,0,0,0,0,-1,986,547,-3.39206,5.50613
-231,477,-3.29913,-3.87903,0,0,0,0,0,0,0,-1,993,547,-3.29913,3.87903
-224,477,0,0,0,0,0,0,0,0,0,-1,1000,547,0,0
-217,477,0,0,0,0,0,0,0,0,0,-1,1007,547,0,0
-210,477,0,0,0,0,0,0,0,0,0,-1,1014,547,0,0
-203,477,0,0,0,0,0,0,0,0,0,-1,1021,547,0,0
-196,477,0,0,0,0,0,0,0,0,0,-1,1028,547,0,0
-189,477,0,0,0,0,0,0,0,0,0,-1,1035,547,0,0
-182,477,0,0,0,0,0,0,0,0,0,-1,1042,547,0,0
-175,477,0,0,0,0,0,0,0,0,0,-1,1049,547,0,0
-168,477,0,0,0,0,0,0,0,0,0,-1,1056,547,0,0
-161,477,0,0,0,0,0,0,0,0,0,-1,1063,547,0,0
-154,477,0,0,0,0,0,0,0,0,0,-1,1070,547,0,0
-147,477,0,0,0,0,0,0,0,0,0,-1,1077,547,0,0
-140,477,0,0,0,0,0,0,0,0,0,-1,1084,547,0,0
-133,477,0,0,0,0,0,0,0,0,0,-1,1091,547,0,0
-126,477,0,0,0,0,0,0,0,0,0,-1,1098,547,0,0
-119,477,0,0,0,0,0,0,0,0,0,-1,1105,547,0,0
-112,477,0,0,0,0,0,0,0,0,0,-1,1112,547,0,0
-105,477,0,0,0,0,0,0,0,0,0,-1,1119,547,0,0
-98,477,0,0,0,0,0,0,0,0,0,-1,1126,547,0,0
-91,477,0,0,0,0,0,0,0,0,0,-1,1133,547,0,0
-84,477,0,0,0,0,0,0,0,0,0,-1,1140,547,0,0
-77,477,0,0,0,0,0,0,0,0,0,-1,1147,547,0,0
-70,477,0,0,0,0,0,0,0,0,0,-1,1154,547,0,0
-63,477,0,0,0,0,0,0,0,0,0,-1,1161,547,0,0
-56,477,0,0,0,0,0,0,0,0,0,-1,1168,547,0,0
-49,477,0,0,0,0,0,0,0,0,0,-1,1175,547,0,0
-42,477,0,0,0,0,0,0,0,0,0,-1,1182,547,0,0
-35,477,0,0,0,0,0,0,0,0,0,-1,1189,547,0,0
-28,477,0,0,0,0,0,0,0,0,0,-1,1196,547,0,0
-21,477,0,0,0,0,0,0,0,0,0,-1,1203,547,0,0
-14,477,0,0,0,0,0,0,0,0,0,-1,1210,547,0,0
-7,477,0,0,0,0,0,0,0,0,0,-1,1217,547,0,0
0,477,0,0,0,0,0,0,0,0,0,-1,1224,547,0,0
7,477,0,0,0,0,0,0,0,0,0,-1,1231,547,0,0
14,477,0,0,0,0,0,0,0,0,0,-1,1238,547,0,0
21,477,0,0,0,0,0,0,0,0,0,-1,1245,547,0,0
28,477,0,0,0,0,0,0,0,0,0,-1,1252,547,0,0
35,477,0,0,0,0,0,0,0,0,0,-1,1259,547,0,0
42,477,0,0,0,0,0,0,0,0,0,-1,1266,547,0,0
49,477,0,0,0,0,0,0,0,0,0,-1,1273,547,0,0
56,477,0,0,0,0,0,0,0,0,0,-1,1280,547,0,0
63,477,0,0,0,0,0,0,0,0,0,-1,1287,547,0,0
70,477,0,0,0,0,0,0,0,0,0,-1,1294,547,0,0
77,477,0,0,0,0,0,0,0,0,0,-1,1301,547,0,0
84,477,0,0,0,0,0,0,0,0,0,-1,1308,547,0,0
91,477,0,0,0,0,0,0,0,0,0,-1,1315,547,0,0
98,477,0,0,0,0,0,0,0,0,0,-1,1322,547,0,0
105,477,0,0,0,0,0,0,0,0,0,-1,1329,547,0,0
112,477,0,0,0,0,0,0,0,0,0,-1,1336,547,0,0
119,477,0,0,0,0,0,0,0,0,0,-1,1343,547,0,0
126,477,0,0,0,0,0,0,0,0,0,-1,1350,547,0,0
133,477,0,0,0,0,0,0,0,0,0,-1,1357,547,0,0
140,477,0,0,0,0,0,0,0,0,0,-1,1364,547,0,0
147,477,0,0,0,0,0,0,0,0,0,-1,1371,547,0,0
154,477,0,0,0,0,0,0,0,0,0,-1,1378,547,0,0
161,477,0,0,0,0,0,0,0,0,0,-1,1385,547,0,0
168,477,0,0,0,0,0,0,0,0,0,-1,1392,547,0,0
175,477,0,0,0,0,0,0,0,0,0,-1,1399,547,0,0
182,477,0,0,0,0,0,0,0,0,0,-1,1406,547,0,0
189,477,0,0,0,0,0,0,0,0,0,-1,1413,547,0,0
196,477,0,0,0,0,0,0,0,0,0,-1,1420,547,0,0
203,477,0,0,0,0,0,0,0,0,0,-1,1427,547,0,0
210,477,0,0,0,0,0,0,0,0,0,-1,1434,547,0,0
217,477,0,0,0,0,0,0,0,0,0,-1,1441,547,0,0
224,477,0,0,0,0,0,0,0,0,0,-1,1448,547,0,0
231,477,0,0,0,0,0,0,0,0,0,-1,1455,547,0,0
238,477,0,0,0,0,0,0,0,0,0,-1,1462,547,0,0
245,477,0,0,0,0,0,0,0,0,0,-1,1469,547,0,0
252,477,0,0,0,0,0,0,0,0,0,-1,1476,547,0,0
259,477,0,0,0,0,0,0,0,0,0,-1,1483,547,0,0
266,477,0,0,0,0,0,0,0,0,0,-1,1490,547,0,0
273,477,0,0,0,0,0,0,0,0,0,-1,1497,547,0,0
280,477,0,0,0,0,0,0,0,0,0,-1,1504,547,0,0
287,477,0,0,0,0,0,0,0,0,0,-1,1511,547,0,0
294,477,0,0,0,0,0,0,0,0,0,-1,1518,547,0,0
301,477,0,0,0,0,0,0,0,0,0,-1,1525,547,0,0
308,477,0,0,0,0,0,0,0,0,0,-1,1532,547,0,0
315,477,0,0,0,0,0,0,0,0,0,-1,1539,547,0,0
322,477,0,0,0,0,0,0,0,0,0,-1,1546,547,0,0
329,477,0,0,0,0,0,0,0,0,0,-1,1553,547,0,0
336,477,0,0,0,0,0,0,0,0,0,-1,1560,547,0,0
343,477,0,0,0,0,0,0,0,0,0,-1,1567,547,0,0
350,477,1.7699,-3.32275,0,0,0,0,0,0,0,-1,1574,547,1.7699,3.32272
357,477,3.36414,-2.15326,0,0,0,0,0,0,0,-1,1581,547,3.36413,2.15328
364,477,6.83801,-3.94391,0,0,0,0,0,0,0,-1,1588,547,6.83804,3.94388
371,477,4.56909,1.61237,0,0,0,0,0,0,0,-1,1595,547,4.56911,-1.61236
378,477,4.46594,1.19788,0.00631512,-0.047446,-0.0366168,0.0248587,-0.0659896,-0.468773,0.0542135,0.0442074,1602,547,4.46597,-1.19789
385,477,4.04797,1.44519,0.0138872,-0.0400243,-0.0409503,0.0359573,-0.0620945,-0.49432,0.0572768,0.0450606,1609,547,4.04795,-1.4452
392,477,5.2981,0.297913,0,0,0,0,0,0,0,-1,1616,547,5.29814,-0.297938
399,477,4.9519,0.154419,0,0,0,0,0,0,0,-1,1623,547,4.95186,-0.154446
406,477,4.82495,2.7475,0,0,0,0,0,0,0,-1,1630,547,4.825,-2.74752
413,477,4.88171,-0.336426,0,0,0,0,0,0,0,-1,1637,547,4.88169,0.336398
420,477,3.34875,0.102722,0,0,0,0,0,0,0,-1,1644,547,3.34871,-0.1027
427,477,1.66772,-0.373108,0,0,0,0,0,0,0,-1,1651,547,1.66768,0.373104
434,477,3.76978,-2.30798,0,0,0,0,0,0,0,-1,1658,547,3.76974,2.30801
441,477,4.05444,-2.80402,0,0,0,0,0,0,0,-1,1665,547,4.05444,2.804
448,477,3.91589,-2.54291,0,0,0,0,0,0,0,-1,1672,547,3.9159,2.54289
455,477,4.0072,-2.33893,0.000866009,0.00333323,-0.0134514,0.0156075,-0.0114082,-0.831125,0.0156602,0.0431512,1679,547,4.00722,2.33891
462,477,4.04163,-2.31757,-0.00233813,0.00171235,-0.00841362,0.00834105,-0.00896683,-0.903506,0.00999488,0.0285905,1686,547,4.04159,2.31758
469,477,4.04834,-2.16284,-0.00204808,0.00185132,-0.0060926,0.00629858,-0.00649534,-0.940255,0.00738686,0.0175031,1693,547,4.04833,2.16286
476,477,4.05188,-2.06635,-0.000956426,0.00212295,-0.00462399,0.00545686,-0.00429033,-0.946113,0.00564096,0.0136624,1700,547,4.05187,2.06634
483,477,4.07141,-1.96576,-0.000507325,0.00160731,-0.00358211,0.00428489,-0.0031849,-0.928906,0.00432825,0.00940655,1707,547,4.07138,1.96575
490,477,4.0658,-1.8656,-0.000314837,0.000926313,-0.00280499,0.00317855,-0.00256708,-0.894265,0.0033235,0.0103537,1714,547,4.06582,1.8656
497,477,4.05542,-1.75507,-7.37207e-05,0.000249797,-0.00216403,0.0022581,-0.00208203,-0.822703,0.00250646,0.0129821,1721,547,4.05548,1.75506
504,477,4.0481,-1.63275,0.000429597,-0.000248427,-0.00153674,0.00166428,-0.00148311,-0.676835,0.00181815,0.0173277,1728,547,4.04813,1.63277
511,477,4.05933,-1.54919,0.00149565,-0.000973311,-0.000565184,0.00161888,-0.00109654,-0.214674,0.00157739,0.0217078,1735,547,4.0593,1.54917
518,477,4.06421,-1.47131,0.00332837,-0.000545428,0.000971953,0.00355856,-0.000775617,0.232547,0.00266875,0.0187202,1742,547,4.0642,1.47134
525,477,4.06677,-1.34778,0.0053488,-0.000212586,0.002428,0.00625964,-0.00112343,0.358895,0.00459359,0.0152604,1749,547,4.06682,1.3478
532,477,4.05676,-1.2804,0.00870859,0.00107575,0.00476501,0.0109971,-0.00121277,0.447746,0.0077673,0.0176371,1756,547,4.05673,1.28037
539,477,4.03369,-1.11542,0.0126239,0.00256057,0.0073533,0.0165022,-0.00131781,0.485353,0.011466,0.0154111,1763,547,4.03368,1.11543
546,477,4.03345,-1.0166,0.017629,0.00483037,0.0108414,0.0238188,-0.00135949,0.518783,0.0163512,0.0162917,1770,547,4.0335,1.0166
553,477,4.04565,-0.9375,0.0238688,0.00792175,0.0153596,0.0332012,-0.00141065,0.545985,0.022619,0.0157023,1777,547,4.04561,0.937512
560,477,4.03186,-0.730652,0.0315215,0.0122505,0.0210948,0.0450773,-0.00130526,0.571164,0.0304959,0.0297486,1784,547,4.03188,0.73064
567,477,4.38489,-0.230896,0.0409157,0.0179284,0.0283022,0.0599691,-0.00112496,0.59252,0.0403596,0.0398101,1791,547,4.38489,0.230889
574,477,4.55969,0.126343,0,0,0,0,0,0,0,-1,1798,547,4.55964,-0.126322
581,477,6.5459,-0.142761,0,0,0,0,0,0,0,-1,1805,547,6.54585,0.142781
588,477,5.11475,1.14142,0,0,0,0,0,0,0,-1,1812,547,5.11469,-1.14143
595,477,5.60376,1.28961,0,0,0,0,0,0,0,-1,1819,547,5.60381,-1.28964
602,477,6.5271,-0.964417,0,0,0,0,0,0,0,-1,1826,547,6.52706,0.964427
609,477,0,0,0,0,0,0,0,0,0,-1,1833,547,0,0
616,477,0,0,0,0,0,0,0,0,0,-1,1840,547,0,0
623,477,0,0,0,0,0,0,0,0,0,-1,1847,547,0,0
630,477,0,0,0,0,0,0,0,0,0,-1,1854,547,0,0
637,477,0,0,0,0,0,0,0,0,0,-1,1861,547,0,0
644,477,0,0,0,0,0,0,0,0,0,-1,1868,547,0,0
651,477,0,0,0,0,0,0,0,0,0,-1,1875,547,0,0
658,477,0,0,0,0,0,0,0,0,0,-1,1882,547,0,0
665,477,0,0,0,0,0,0,0,0,0,-1,1889,547,0,0
672,477,0,0,0,0,0,0,0,0,0,-1,1896,547,0,0
679,477,0,0,0,0,0,0,0,0,0,-1,1903,547,0,0
686,477,0,0,0,0,0,0,0,0,0,-1,1910,547,0,0
693,477,0,0,0,0,0,0,0,0,0,-1,1917,547,0,0
700,477,0,0,0,0,0,0,0,0,0,-1,1924,547,0,0
707,477,0,0,0,0,0,0,0,0,0,-1,1931,547,0,0
714,477,0,0,0,0,0,0,0,0,0,-1,1938,547,0,0
721,477,0,0,0,0,0,0,0,0,0,-1,1945,547,0,0
728,477,0,0,0,0,0,0,0,0,0,-1,1952,547,0,0
735,477,0,0,0,0,0,0,0,0,0,-1,1959,547,0,0
742,477,0,0,0,0,0,0,0,0,0,-1,1966,547,0,0
749,477,0,0,0,0,0,0,0,0,0,-1,1973,547,0,0
756,477,0,0,0,0,0,0,0,0,0,-1,1980,547,0,0
763,477,0,0,0,0,0,0,0,0,0,-1,1987,547,0,0
770,477,0,0,0,0,0,0,0,0,0,-1,1994,547,0,0
777,477,0,0,0,0,0,0,0,0,0,-1,2001,547,0,0
784,477,0,0,0,0,0,0,0,0,0,-1,2008,547,0,0
791,477,0,0,0,0,0,0,0,0,0,-1,2015,547,0,0
798,477,0,0,0,0,0,0,0,0,0,-1,2022,547,0,0
805,477,0,0,0,0,0,0,0,0,0,-1,2029,547,0,0
812,477,0,0,0,0,0,0,0,0,0,-1,2036,547,0,0
-700,470,0,0,0,0,0,0,0,0,0,-1,524,554,0,0
-693,470,0,0,0,0,0,0,0,0,0,-1,531,554,0,0
-686,470,0,0,0,0,0,0,0,0,0,-1,538,554,0,0
-679,470,0,0,0,0,0,0,0,0,0,-1,545,554,0,0
-672,470,0,0,0,0,0,0,0,0,0,-1,552,554,0,0
-665,470,0,0,0,0,0,0,0,0,0,-1,559,554,0,0
-658,470,0,0,0,0,0,0,0,0,0,-1,566,554,0,0
-651,470,0,0,0,0,0,0,0,0,0,-1,573,554,0,0
-644,470,0,0,0,0,0,0,0,0,0,-1,580,554,0,0
-637,470,0,0,0,0,0,0,0,0,0,-1,587,554,0,0
-630,470,0,0,0,0,0,0,0,0,0,-1,594,554,0,0
-623,470,0,0,0,0,0,0,0,0,0,-1,601,554,0,0
-616,470,0,0,0,0,0,0,0,0,0,-1,608,554,0,0
-609,470,0,0,0,0,0,0,0,0,0,-1,615,554,0,0
-602,470,0,0,0,0,0,0,0,0,0,-1,622,554,0,0
-595,470,0,0,0,0,0,0,0,0,0,-1,629,554,0,0
-588,470,0,0,0,0,0,0,0,0,0,-1,636,554,0,0
-581,470,0,0,0,0,0,0,0,0,0,-1,643,554,0,0
-574,470,0,0,0,0,0,0,0,0,0,-1,650,554,0,0
-567,470,0,0,0,0,0,0,0,0,0,-1,657,554,0,0
-560,470,0,0,0,0,0,0,0,0,0,-1,664,554,0,0
-553,470,0,0,0,0,0,0,0,0,0,-1,671,554,0,0
-546,470,0,0,0,0,0,0,0,0,0,-1,678,554,0,0
-539,470,0,0,0,0,0,0,0,0,0,-1,685,554,0,0
-532,470,0,0,0,0,0,0,0,0,0,-1,692,554,0,0
-525,470,0,0,0,0,0,0,0,0,0,-1,699,554,0,0
-518,470,0,0,0,0,0,0,0,0,0,-1,706,554,0,0
-511,470,0,0,0,0,0,0,0,0,0,-1,713,554,0,0
-504,470,0,0,0,0,0,0,0,0,0,-1,720,554,0,0
-497,470,0,0,0,0,0,0,0,0,0,-1,727,554,0,0
-490,470,-0.54126,-0.104248,0,0,0,0,0,0,0,-1,734,554,-0.541261,0.104242
-483,470,-0.776794,-0.508057,0,0,0,0,0,0,0,-1,741,554,-0.776818,0.508067
-476,470,-0.925598,-0.62384,0,0,0,0,0,0,0,-1,748,554,-0.925609,0.623835
-469,470,-1.12653,-0.669861,0,0,0,0,0,0,0,-1,755,554,-1.12651,0.66986
-462,470,-0.375549,-0.779602,0,0,0,0,0,0,0,-1,762,554,-0.375537,0.779584
-455,470,0.38562,-0.716248,0,0,0,0,0,0,0,-1,769,554,0.385621,0.716247
-448,470,0.462341,-1.17242,0,0,0,0,0,0,0,-1,776,554,0.462314,1.1724
-441,470,0.526794,-1.25342,0.0472398,0.0165624,-0.0167029,0.0545784,0.00922373,-0.413974,0.033734,0.0398697,783,554,0.526764,1.25342
-434,470,0.581665,-1.34424,0.0356701,0.0135325,-0.0123349,0.0411744,0.00802826,-0.419721,0.0252034,0.0210204,790,554,0.581643,1.34424
-427,470,0.566162,-1.42346,0.026047,0.0109424,-0.00860308,0.0299424,0.00704697,-0.425175,0.0180764,0.0106828,797,554,0.566187,1.42345
-420,470,0.572083,-1.52417,0.0185064,0.00905634,-0.00551651,0.0210448,0.00651791,-0.431264,0.01244,0.0115722,804,554,0.572112,1.52416
-413,470,0.572083,-1.62299,0.0129639,0.00764024,-0.00329404,0.0145371,0.00606697,-0.445577,0.00843116,0.0119903,811,554,0.572107,1.62301
-406,470,0.554871,-1.69806,0.00801681,0.00639902,-0.00118883,0.00864584,0.00576999,-0.486669,0.00508404,0.00915933,818,554,0.554842,1.69807
-399,470,0.583862,-1.81781,0.00438181,0.00508356,1.7311e-05,0.00508399,0.00438138,1.54615,0.00318109,0.0121959,825,554,0.583839,1.8178
-392,470,0.580811,-1.92529,0.00217829,0.00396259,0.000388807,0.00404364,0.00209725,1.3653,0.00233514,0.0140379,832,554,0.580829,1.92531
-385,470,0.582031,-1.99438,0.000699024,0.00333398,0.000530465,0.00343676,0.000596241,1.37941,0.00212056,0.010818,839,554,0.582048,1.99441
-378,470,0.592957,-2.1142,-0.000245217,0.00303176,0.000346082,0.00306791,-0.000281368,1.46672,0.00214522,0.0151823,846,554,0.592952,2.11422
-371,470,0.601501,-2.19049,-0.00113882,0.002586,0.000592828,0.00267807,-0.0012309,1.41671,0.00230782,0.0125898,853,554,0.60149,2.19052
-364,470,0.608215,-2.27356,-0.00208178,0.00221493,0.000820776,0.00236638,-0.00223323,1.38833,0.00265596,0.0120895,860,554,0.608234,2.27357
-357,470,0.588745,-2.37451,-0.00323295,0.00211406,0.00119917,0.00237068,-0.00348957,1.35998,0.00340391,0.0131124,867,554,0.588723,2.37449
-350,470,0.58551,-2.47205,-0.00478118,0.00160739,0.00195697,0.00215919,-0.00533299,1.29596,0.0044531,0.00967186,874,554,0.585529,2.47203
-343,470,0.621399,-2.58685,-0.00652063,0.00131856,0.00284369,0.00224147,-0.00744353,1.25698,0.00585433,0.0178863,881,554,0.621408,2.58688
-336,470,0.517761,-2.71155,-0.00852406,0.000586064,0.00385834,0.00200054,-0.00993853,1.21941,0.00738344,0.0250895,888,554,0.517784,2.71156
-329,470,0.381592,-2.82001,-0.0107162,-0.000739287,0.00502709,0.00135438,-0.0128098,1.17617,0.00902528,0.0343059,895,554,0.381598,2.82002
-322,470,0.258911,-2.71008,-0.0130827,-0.00301624,0.00612308,-0.000123207,-0.0159757,1.12941,0.0106096,0.0399771,902,554,0.258886,2.71009
-315,470,0.390625,-2.56134,0,0,0,0,0,0,0,-1,909,554,0.390649,2.56134
-308,470,0.437439,-2.99664,0,0,0,0,0,0,0,-1,916,554,0.437411,2.99663
-301,470,0.56134,-2.57202,0,0,0,0,0,0,0,-1,923,554,0.561329,2.57205
-294,470,2.47375,1.89734,0,0,0,0,0,0,0,-1,930,554,2.47375,-1.89732
-287,470,2.45172,0.4823,0,0,0,0,0,0,0,-1,937,554,2.45169,-0.482285
-280,470,1.42999,-2.01953,0,0,0,0,0,0,0,-1,944,554,1.43,2.01952
-273,470,1.05981,-2.39728,0,0,0,0,0,0,0,-1,951,554,1.05983,2.39727
-266,470,1.61761,-2.7876,0,0,0,0,0,0,0,-1,958,554,1.61764,2.78761
-259,470,1.46301,-3.27332,0,0,0,0,0,0,0,-1,965,554,1.46301,3.2733
-252,470,1.34393,-3.74951,0,0,0,0,0,0,0,-1,972,554,1.34393,3.7495
-245,470,1.2428,-4.10791,0,0,0,0,0,0,0,-1,979,554,1.24283,4.10792
-238,470,0,0,0,0,0,0,0,0,0,-1,986,554,0,0
-231,470,0,0,0,0,0,0,0,0,0,-1,993,554,0,0
-224,470,0,0,0,0,0,0,0,0,0,-1,1000,554,0,0
-217,470,0,0,0,0,0,0,0,0,0,-1,1007,554,0,0
-210,470,0,0,0,0,0,0,0,0,0,-1,1014,554,0,0
-203,470,0,0,0,0,0,0,0,0,0,-1,1021,554,0,0
-196,470,0,0,0,0,0,0,0,0,0,-1,1028,554,0,0
-189,470,0,0,0,0,0,0,0,0,0,-1,1035,554,0,0
-182,470,0,0,0,0,0,0,0,0,0,-1,1042,554,0,0
-175,470,0,0,0,0,0,0,0,0,0,-1,1049,554,0,0
-168,470,0,0,0,0,0,0,0,0,0,-1,1056,554,0,0
-161,470,0,0,0,0,0,0,0,0,0,-1,1063,554,0,0
-154,470,0,0,0,0,0,0,0,0,0,-1,1070,554,0,0
-147,470,0,0,0,0,0,0,0,0,0,-1,1077,554,0,0
-140,470,0,0,0,0,0,0,0,0,0,-1,1084,554,0,0
-133,470,0,0,0,0,0,0,0,0,0,-1,1091,554,0,0
-126,470,0,0,0,0,0,0,0,0,0,-1,1098,554,0,0
-119,470,0,0,0,0,0,0,0,0,0,-1,1105,554,0,0
-112,470,0,0,0,0,0,0,0,0,0,-1,1112,554,0,0
-105,470,0,0,0,0,0,0,0,0,0,-1,1119,554,0,0
-98,470,0,0,0,0,0,0,0,0,0,-1,1126,554,0,0
-91,470,0,0,0,0,0,0,0,0,0,-1,1133,554,0,0
-84,470,0,0,0,0,0,0,0,0,0,-1,1140,554,0,0
-77,470,0,0,0,0,0,0,0,0,0,-1,1147,554,0,0
-70,470,0,0,0,0,0,0,0,0,0,-1,1154,554,0,0
-63,470,0,0,0,0,0,0,0,0,0,-1,1161,554,0,0
-56,470,0,0,0,0,0,0,0,0,0,-1,1168,554,0,0
-49,470,0,0,0,0,0,0,0,0,0,-1,1175,554,0,0
-42,470,0,0,0,0,0,0,0,0,0,-1,1182,554,0,0
-35,470,0,0,0,0,0,0,0,0,0,-1,1189,554,0,0
-28,470,0,0,0,0,0,0,0,0,0,-1,1196,554,0,0
-21,470,0,0,0,0,0,0,0,0,0,-1,1203,554,0,0
-14,470,0,0,0,0,0,0,0,0,0,-1,1210,554,0,0
-7,470,0,0,0,0,0,0,0,0,0,-1,1217,554,0,0
0,470,0,0,0,0,0,0,0,0,0,-1,1224,554,0,0
7,470,0,0,0,0,0,0,0,0,0,-1,1231,554,0,0
14,470,0,0,0,0,0,0,0,0,0,-1,1238,554,0,0
21,470,0,0,0,0,0,0,0,0,0,-1,1245,554,0,0
28,470,0,0,0,0,0,0,0,0,0,-1,1252,554,0,0
35,470,0,0,0,0,0,0,0,0,0,-1,1259,554,0,0
42,470,0,0,0,0,0,0,0,0,0,-1,1266,554,0,0
49,470,0,0,0,0,0,0,0,0,0,-1,1273,554,0,0
56,470,0,0,0,0,0,0,0,0,0,-1,1280,554,0,0
63,470,0,0,0,0,0,0,0,0,0,-1,1287,554,0,0
70,470,0,0,0,0,0,0,0,0,0,-1,1294,554,0,0
77,470,0,0,0,0,0,0,0,0,0,-1,1301,554,0,0
84,470,0,0,0,0,0,0,0,0,0,-1,1308,554,0,0
91,470,0,0,0,0,0,0,0,0,0,-1,1315,554,0,0
98,470,0,0,0,0,0,0,0,0,0,-1,1322,554,0,0
105,470,0,0,0,0,0,0,0,0,0,-1,1329,554,0,0
112,470,0,0,0,0,0,0,0,0,0,-1,1336,554,0,0
119,470,0,0,0,0,0,0,0,0,0,-1,1343,554,0,0
126,470,0,0,0,0,0,0,0,0,0,-1,1350,554,0,0
133,470,0,0,0,0,0,0,0,0,0,-1,1357,554,0,0
140,470,0,0,0,0,0,0,0,0,0,-1,1364,554,0,0
147,470,0,0,0,0,0,0,0,0,0,-1,1371,554,0,0
154,470,0,0,0,0,0,0,0,0,0,-1,1378,554,0,0
161,470,0,0,0,0,0,0,0,0,0,-1,1385,554,0,0
168,470,0,0,0,0,0,0,0,0,0,-1,1392,554,0,0
175,470,0,0,0,0,0,0,0,0,0,-1,1399,554,0,0
182,470,0,0,0,0,0,0,0,0,0,-1,1406,554,0,0
189,470,0,0,0,0,0,0,0,0,0,-1,1413,554,0,0
196,470,0,0,0,0,0,0,0,0,0,-1,1420,554,0,0
203,470,0,0,0,0,0,0,0,0,0,-1,1427,554,0,0
210,470,0,0,0,0,0,0,0,0,0,-1,1434,554,0,0
217,470,0,0,0,0,0,0,0,0,0,-1,1441,554,0,0
224,470,0,0,0,0,0,0,0,0,0,-1,1448,554,0,0
231,470,0,0,0,0,0,0,0,0,0,-1,1455,554,0,0
238,470,0,0,0,0,0,0,0,0,0,-1,1462,554,0,0
245,470,0,0,0,0,0,0,0,0,0,-1,1469,554,0,0
252,470,0,0,0,0,0,0,0,0,0,-1,1476,554,0,0
259,470,0,0,0,0,0,0,0,0,0,-1,1483,554,0,0
266,470,0,0,0,0,0,0,0,0,0,-1,1490,554,0,0
273,470,0,0,0,0,0,0,0,0,0,-1,1497,554,0,0
280,470,0,0,0,0,0,0,0,0,0,-1,1504,554,0,0
287,470,0,0,0,0,0,0,0,0,0,-1,1511,554,0,0
294,470,0,0,0,0,0,0,0,0,0,-1,1518,554,0,0
301,470,0,0,0,0,0,0,0,0,0,-1,1525,554,0,0
308,470,0,0,0,0,0,0,0,0,0,-1,1532,554,0,0
315,470,0,0,0,0,0,0,0,0,0,-1,1539,554,0,0
322,470,0,0,0,0,0,0,0,0,0,-1,1546,554,0,0
329,470,0,0,0,0,0,0,0,0,0,-1,1553,554,0,0
336,470,0,0,0,0,0,0,0,0,0,-1,1560,554,0,0
343,470,0,0,0,0,0,0,0,0,0,-1,1567,554,0,0
350,470,0,0,0,0,0,0,0,0,0,-1,1574,554,0,0
357,470,0,0,0,0,0,0,0,0,0,-1,1581,554,0,0
364,470,4.33923,-1.47015,0,0,0,0,0,0,0,-1,1588,554,4.33929,1.47016
371,470,4.59888,0.870422,0,0,0,0,0,0,0,-1,1595,554,4.59891,-0.870447
378,470,4.51685,1.35657,0.0173221,-0.0426926,-0.0366618,0.0346912,-0.0600617,-0.44244,0.0553554,0.0463613,1602,554,4.51689,-1.35657
385,470,4.28381,1.80804,0.0279116,-0.0310544,-0.0446535,0.0519374,-0.0550801,-0.493621,0.0617955,0.0467373,1609,554,4.28375,-1.80807
392,470,4.94617,2.02283,0.0351147,-0.0189648,-0.049642,0.0646034,-0.0484536,-0.536017,0.0654951,0.0478943,1616,554,4.94617,-2.02281
399,470,5.53198,2.06842,0.039063,-0.00804336,-0.0515445,0.0721807,-0.0411611,-0.57109,0.0662498,0.0465439,1623,554,5.53193,-2.06843
406,470,6.02173,1.99487,0.0395228,0.000117793,-0.0505283,0.074054,-0.0344134,-0.5995,0.0640025,0.0482424,1630,554,6.02173,-1.99488
413,470,6.55383,1.99207,0,0,0,0,0,0,0,-1,1637,554,6.5538,-1.99208
420,470,4.47095,0.845703,0,0,0,0,0,0,0,-1,1644,554,4.47098,-0.845718
427,470,3.51038,1.19684,0,0,0,0,0,0,0,-1,1651,554,3.51039,-1.19684
434,470,3.31775,-1.37427,0,0,0,0,0,0,0,-1,1658,554,3.31781,1.37426
441,470,2.55457,-2.05902,0,0,0,0,0,0,0,-1,1665,554,2.55461,2.05904
448,470,3.27258,-2.64032,0,0,0,0,0,0,0,-1,1672,554,3.27257,2.64029
455,470,4.04309,-2.67999,0,0,0,0,0,0,0,-1,1679,554,4.0431,2.68
462,470,4.8136,-2.71973,0,0,0,0,0,0,0,-1,1686,554,4.81364,2.71972
469,470,4.23132,-2.21069,-0.0023715,0.00181531,-0.0104022,0.0103326,-0.0108888,-0.884695,0.0122536,0.0355518,1693,554,4.23136,2.21067
476,470,4.11694,-2.07391,-0.00122281,0.00216735,-0.00806731,0.00871574,-0.00777119,-0.88895,0.00952394,0.0189716,1700,554,4.11698,2.07392
483,470,4.15503,-1.97235,-0.000790078,0.00170051,-0.00626913,0.00684684,-0.0059364,-0.883441,0.00738664,0.0110064,1707,554,4.15504,1.97233
490,470,4.1521,-1.86237,-0.000635819,0.00110254,-0.00482307,0.00513412,-0.0046674,-0.874548,0.00566105,0.0108568,1714,554,4.15208,1.86238
497,470,4.16589,-1.75439,-0.000479063,0.000515381,-0.00362443,0.00367654,-0.00364022,-0.853566,0.00422435,0.0117273,1721,554,4.16589,1.75437
504,470,4.17676,-1.66235,-0.000130675,9.94048e-05,-0.00254841,0.00253537,-0.00256664,-0.807954,0.00294567,0.0175933,1728,554,4.17673,1.66238
511,470,4.17249,-1.59119,0.000673923,-0.000440593,-0.00134942,0.00157662,-0.00134329,-0.589583,0.0016876,0.0243495,1735,554,4.17245,1.59118
518,470,4.1842,-1.49194,0.00214217,-9.65338e-05,0.000213311,0.00216231,-0.000116678,0.0941544,0.00148197,0.0239,1742,554,4.18415,1.49195
525,470,4.15771,-1.3421,0.00380784,0.00022748,0.00165943,0.00445865,-0.000423332,0.373756,0.00312313,0.0145793,1749,554,4.15767,1.34208
532,470,4.1449,-1.22504,0.00639861,0.00126481,0.00375257,0.00837822,-0.000714796,0.485432,0.00583835,0.0124346,1756,554,4.14493,1.22502
539,470,4.14453,-1.13635,0.00943203,0.00238869,0.00589073,0.0127735,-0.000952787,0.515986,0.00885038,0.0131533,1763,554,4.14456,1.13636
546,470,4.15076,-1.05286,0.0132863,0.0041509,0.00862698,0.0184802,-0.00104298,0.541926,0.0126821,0.0128903,1770,554,4.15072,1.05287
553,470,4.15466,-0.95343,0.0179308,0.00649466,0.0120688,0.0255676,-0.00114215,0.564169,0.0174383,0.0101878,1777,554,4.15462,0.953433
560,470,4.1615,-0.822632,0.023453,0.00962007,0.0162855,0.0342299,-0.00115683,0.584589,0.0232152,0.011926,1784,554,4.16155,0.822602
567,470,4.15723,-0.709656,0.0301433,0.0135334,0.0214264,0.0448181,-0.00114127,0.600511,0.0302663,0.0158243,1791,554,4.15725,0.709653
574,470,4.34937,-0.425171,0.0383064,0.0186307,0.0275221,0.0576961,-0.000759047,0.613749,0.0387196,0.0427248,1798,554,4.34934,0.425149
581,470,4.65894,-0.0887451,0,0,0,0,0,0,0,-1,1805,554,4.65897,0.088729
588,470,2.47473,0.399658,0,0,0,0,0,0,0,-1,1812,554,2.47479,-0.399679
595,470,4.72192,3.44116,0,0,0,0,0,0,0,-1,1819,554,4.72191,-3.44116
602,470,6.85071,3.97211,0,0,0,0,0,0,0,-1,1826,554,6.85065,-3.97208
609,470,7.37634,-0.10376,0,0,0,0,0,0,0,-1,1833,554,7.37635,0.103752
616,470,0,0,0,0,0,0,0,0,0,-1,1840,554,0,0
623,470,0,0,0,0,0,0,0,0,0,-1,1847,554,0,0
630,470,0,0,0,0,0,0,0,0,0,-1,1854,554,0,0
637,470,0,0,0,0,0,0,0,0,0,-1,1861,554,0,0
644,470,0,0,0,0,0,0,0,0,0,-1,1868,554,0,0
651,470,0,0,0,0,0,0,0,0,0,-1,1875,554,0,0
658,470,0,0,0,0,0,0,0,0,0,-1,1882,554,0,0
665,470,0,0,0,0,0,0,0,0,0,-1,1889,554,0,0
672,470,0,0,0,0,0,0,0,0,0,-1,1896,554,0,0
679,470,0,0,0,0,0,0,0,0,0,-1,1903,554,0,0
686,470,0,0,0,0,0,0,0,0,0,-1,1910,554,0,0
693,470,0,0,0,0,0,0,0,0,0,-1,1917,554,0,0
700,470,0,0,0,0,0,0,0,0,0,-1,1924,554,0,0
707,470,0,0,0,0,0,0,0,0,0,-1,1931,554,0,0
714,470,0,0,0,0,0,0,0,0,0,-1,1938,554,0,0
721,470,0,0,0,0,0,0,0,0,0,-1,1945,554,0,0
728,470,0,0,0,0,0,0,0,0,0,-1,1952,554,0,0
735,470,0,0,0,0,0,0,0,0,0,-1,1959,554,0,0
742,470,0,0,0,0,0,0,0,0,0,-1,1966,554,0,0
749,470,0,0,0,0,0,0,0,0,0,-1,1973,554,0,0
756,470,0,0,0,0,0,0,0,0,0,-1,1980,554,0,0
763,470,0,0,0,0,0,0,0,0,0,-1,1987,554,0,0
770,470,0,0,0,0,0,0,0,0,0,-1,1994,554,0,0
777,470,0,0,0,0,0,0,0,0,0,-1,2001,554,0,0
784,470,0,0,0,0,0,0,0,0,0,-1,2008,554,0,0
791,470,0,0,0,0,0,0,0,0,0,-1,2015,554,0,0
798,470,0,0,0,0,0,0,0,0,0,-1,2022,554,0,0
805,470,0,0,0,0,0,0,0,0,0,-1,2029,554,0,0
812,470,0,0,0,0,0,0,0,0,0,-1,2036,554,0,0
-700,463,0,0,0,0,0,0,0,0,0,-1,524,561,0,0
-693,463,0,0,0,0,0,0,0,0,0,-1,531,561,0,0
-686,463,0,0,0,0,0,0,0,0,0,-1,538,561,0,0
-679,463,0,0,0,0,0,0,0,0,0,-1,545,561,0,0
-672,463,0,0,0,0,0,0,0,0,0,-1,552,561,0,0
-665,463,0,0,0,0,0,0,0,0,0,-1,559,561,0,0
-658,463,0,0,0,0,0,0,0,0,0,-1,566,561,0,0
-651,463,0,0,0,0,0,0,0,0,0,-1,573,561,0,0
-644,463,0,0,0,0,0,0,0,0,0,-1,580,561,0,0
-637,463,0,0,0,0,0,0,0,0,0,-1,587,561,0,0
-630,463,0,0,0,0,0,0,0,0,0,-1,594,561,0,0
-623,463,0,0,0,0,0,0,0,0,0,-1,601,561,0,0
-616,463,0,0,0,0,0,0,0,0,0,-1,608,561,0,0
-609,463,0,0,0,0,0,0,0,0,0,-1,615,561,0,0
-602,463,0,0,0,0,0,0,0,0,0,-1,622,561,0,0
-595,463,0,0,0,0,0,0,0,0,0,-1,629,561,0,0
-588,463,0,0,0,0,0,0,0,0,0,-1,636,561,0,0
-581,463,0,0,0,0,0,0,0,0,0,-1,643,561,0,0
-574,463,0,0,0,0,0,0,0,0,0,-1,650,561,0,0
-567,463,0,0,0,0,0,0,0,0,0,-1,657,561,0,0
-560,463,0,0,0,0,0,0,0,0,0,-1,664,561,0,0
-553,463,0,0,0,0,0,0,0,0,0,-1,671,561,0,0
-546,463,0,0,0,0,0,0,0,0,0,-1,678,561,0,0
-539,463,0,0,0,0,0,0,0,0,0,-1,685,561,0,0
-532,463,0,0,0,0,0,0,0,0,0,-1,692,561,0,0
-525,463,0,0,0,0,0,0,0,0,0,-1,699,561,0,0
-518,463,0,0,0,0,0,0,0,0,0,-1,706,561,0,0
-511,463,0,0,0,0,0,0,0,0,0,-1,713,561,0,0
-504,463,0,0,0,0,0,0,0,0,0,-1,720,561,0,0
-497,463,0.109375,0.190918,0,0,0,0,0,0,0,-1,727,561,0.109371,-0.190913
-490,463,-0.229553,0.0065918,0,0,0,0,0,0,0,-1,734,561,-0.229581,-0.00659356
-483,463,-0.381836,-0.334717,0,0,0,0,0,0,0,-1,741,561,-0.381845,0.334736
-476,463,-0.57959,-0.632568,0,0,0,0,0,0,0,-1,748,561,-0.579615,0.632573
-469,463,-1.31635,-0.782776,0,0,0,0,0,0,0,-1,755,561,-1.31636,0.782786
-462,463,0.243774,-0.671265,0,0,0,0,0,0,0,-1,762,561,0.243772,0.671272
-455,463,0.344727,-0.836243,0.0627183,0.0216373,-0.0231751,0.0731454,0.0112102,-0.422796,0.0454897,0.0483253,769,561,0.344722,0.836229
-448,463,0.456665,-1.01147,0.0495708,0.0171506,-0.0185609,0.0580037,0.0087178,-0.426452,0.0361156,0.0409232,776,561,0.45666,1.01148
-441,463,0.538513,-1.20258,0.038304,0.013507,-0.0142288,0.0447783,0.00703266,-0.427015,0.027806,0.0264917,783,561,0.538498,1.20257
-434,463,0.484314,-1.32037,0.0288634,0.0104282,-0.0107797,0.0338291,0.00546251,-0.431679,0.0209704,0.0110499,790,561,0.48434,1.3204
-427,463,0.481934,-1.41821,0.0209535,0.00784575,-0.00775277,0.0245514,0.00424784,-0.434501,0.0151515,0.00933302,797,561,0.481945,1.41819
-420,463,0.503967,-1.51282,0.014768,0.00605757,-0.00513666,0.0171473,0.00367831,-0.43377,0.010424,0.00951624,804,561,0.503989,1.51284
-413,463,0.503845,-1.61316,0.0103134,0.00486631,-0.00318987,0.0117843,0.00339546,-0.432046,0.00700429,0.00888935,811,561,0.503825,1.61315
-406,463,0.475769,-1.70557,0.00627761,0.00394948,-0.00130034,0.0068588,0.00336829,-0.420319,0.00396014,0.00822167,818,561,0.475776,1.70559
-399,463,0.481628,-1.81268,0.00327231,0.00311406,-0.000158609,0.00337044,0.00301594,-0.554022,0.00213861,0.00885096,825,561,0.481628,1.81271
-392,463,0.489197,-1.91229,0.00142987,0.00264694,0.000363269,0.00274712,0.00132969,1.30171,0.00158632,0.00921177,832,561,0.489222,1.91229
-385,463,0.471375,-2.0191,0.000253075,0.00265481,0.000699039,0.00284345,6.44324e-05,1.30721,0.00187452,0.0103439,839,561,0.471399,2.01908
-378,463,0.485229,-2.13422,-0.000647542,0.00311887,0.000798242,0.00328106,-0.000809734,1.37034,0.00250136,0.0112439,846,561,0.485256,2.13419
-371,463,0.506287,-2.22083,-0.0015122,0.00350533,0.00128998,0.00381755,-0.00182443,1.33333,0.00332446,0.0107946,853,561,0.506284,2.22085
-364,463,0.51593,-2.28656,-0.0024053,0.00408729,0.00178374,0.00454506,-0.00286308,1.31958,0.00431369,0.0130245,860,561,0.515905,2.28653
-357,463,0.516846,-2.38483,-0.00357681,0.0049115,0.00244524,0.00556551,-0.00423082,1.30945,0.00567339,0.0155646,867,561,0.516828,2.38482
-350,463,0.482666,-2.48663,-0.00526551,0.00520948,0.00348195,0.00626129,-0.00631732,1.27744,0.00726229,0.0159062,874,561,0.482659,2.48664
-343,463,0.528687,-2.57617,-0.00723821,0.00573794,0.00463503,0.00722348,-0.00872375,1.26064,0.00922071,0.0283362,881,561,0.528693,2.57616
-336,463,0.385986,-2.94617,-0.00949909,0.00582867,0.00594143,0.00786199,-0.0115324,1.24106,0.011264,0.0367802,888,561,0.385991,2.94617
-329,463,0.261047,-2.97064,-0.0119665,0.00516406,0.00744046,0.00794446,-0.0147469,1.21318,0.0132957,0.0443662,895,561,0.261058,2.97065
-322,463,-0.193298,-2.77026,0,0,0,0,0,0,0,-1,902,561,-0.19327,2.77025
-315,463,-0.992249,-3.14685,0,0,0,0,0,0,0,-1,909,561,-0.992276,3.14688
-308,463,0.516724,-1.89032,0,0,0,0,0,0,0,-1,916,561,0.516702,1.89029
-301,463,-0.147766,-2.15967,0,0,0,0,0,0,0,-1,923,561,-0.147757,2.15969
-294,463,-0.588501,-2.72858,0,0,0,0,0,0,0,-1,930,561,-0.588521,2.7286
-287,463,0.828125,0.731262,0,0,0,0,0,0,0,-1,937,561,0.828131,-0.731245
-280,463,0.106445,-1.46454,0,0,0,0,0,0,0,-1,944,561,0.106471,1.46455
-273,463,-0.118408,-2.26611,0,0,0,0,0,0,0,-1,951,561,-0.118403,2.26614
-266,463,-0.36261,-3.09674,0,0,0,0,0,0,0,-1,958,561,-0.362581,3.09673
-259,463,1.29675,-3.47339,0,0,0,0,0,0,0,-1,965,561,1.29678,3.47338
-252,463,0,0,0,0,0,0,0,0,0,-1,972,561,0,0
-245,463,0,0,0,0,0,0,0,0,0,-1,979,561,0,0
-238,463,0,0,0,0,0,0,0,0,0,-1,986,561,0,0
-231,463,0,0,0,0,0,0,0,0,0,-1,993,561,0,0
-224,463,0,0,0,0,0,0,0,0,0,-1,1000,561,0,0
-217,463,0,0,0,0,0,0,0,0,0,-1,1007,561,0,0
-210,463,0,0,0,0,0,0,0,0,0,-1,1014,561,0,0
-203,463,0,0,0,0,0,0,0,0,0,-1,1021,561,0,0
-196,463,0,0,0,0,0,0,0,0,0,-1,1028,561,0,0
-189,463,0,0,0,0,0,0,0,0,0,-1,1035,561,0,0
-182,463,0,0,0,0,0,0,0,0,0,-1,1042,561,0,0
-175,463,0,0,0,0,0,0,0,0,0,-1,1049,561,0,0
-168,463,0,0,0,0,0,0,0,0,0,-1,1056,561,0,0
-161,463,0,0,0,0,0,0,0,0,0,-1,1063,561,0,0
-154,463,0,0,0,0,0,0,0,0,0,-1,1070,561,0,0
-147,463,0,0,0,0,0,0,0,0,0,-1,1077,561,0,0
-140,463,0,0,0,0,0,0,0,0,0,-1,1084,561,0,0
-133,463,0,0,0,0,0,0,0,0,0,-1,1091,561,0,0
-126,463,0,0,0,0,0,0,0,0,0,-1,1098,561,0,0
-119,463,0,0,0,0,0,0,0,0,0,-1,1105,561,0,0
-112,463,0,0,0,0,0,0,0,0,0,-1,1112,561,0,0
-105,463,0,0,0,0,0,0,0,0,0,-1,1119,561,0,0
-98,463,0,0,0,0,0,0,0,0,0,-1,1126,561,0,0
-91,463,0,0,0,0,0,0,0,0,0,-1,1133,561,0,0
-84,463,0,0,0,0,0,0,0,0,0,-1,1140,561,0,0
-77,463,0,0,0,0,0,0,0,0,0,-1,1147,561,0,0
-70,463,0,0,0,0,0,0,0,0,0,-1,1154,561,0,0
-63,463,0,0,0,0,0,0,0,0,0,-1,1161,561,0,0
-56,463,0,0,0,0,0,0,0,0,0,-1,1168,561,0,0
-49,463,0,0,0,0,0,0,0,0,0,-1,1175,561,0,0
-42,463,0,0,0,0,0,0,0,0,0,-1,1182,561,0,0
-35,463,0,0,0,0,0,0,0,0,0,-1,1189,561,0,0
-28,463,0,0,0,0,0,0,0,0,0,-1,1196,561,0,0
-21,463,0,0,0,0,0,0,0,0,0,-1,1203,561,0,0
-14,463,0,0,0,0,0,0,0,0,0,-1,1210,561,0,0
-7,463,0,0,0,0,0,0,0,0,0,-1,1217,561,0,0
0,463,0,0,0,0,0,0,0,0,0,-1,1224,561,0,0
7,463,0,0,0,0,0,0,0,0,0,-1,1231,561,0,0
14,463,0,0,0,0,0,0,0,0,0,-1,1238,561,0,0
21,463,0,0,0,0,0,0,0,0,0,-1,1245,561,0,0
28,463,0,0,0,0,0,0,0,0,0,-1,1252,561,0,0
35,463,0,0,0,0,0,0,0,0,0,-1,1259,561,0,0
42,463,0,0,0,0,0,0,0,0,0,-1,1266,561,0,0
49,463,0,0,0,0,0,0,0,0,0,-1,1273,561,0,0
56,463,0,0,0,0,0,0,0,0,0,-1,1280,561,0,0
63,463,0,0,0,0,0,0,0,0,0,-1,1287,561,0,0
70,463,0,0,0,0,0,0,0,0,0,-1,1294,561,0,0
77,463,0,0,0,0,0,0,0,0,0,-1,1301,561,0,0
84,463,0,0,0,0,0,0,0,0,0,-1,1308,561,0,0
91,463,0,0,0,0,0,0,0,0,0,-1,1315,561,0,0
98,463,0,0,0,0,0,0,0,0,0,-1,1322,561,0,0
105,463,0,0,0,0,0,0,0,0,0,-1,1329,561,0,0
112,463,0,0,0,0,0,0,0,0,0,-1,1336,561,0,0
119,463,0,0,0,0,0,0,0,0,0,-1,1343,561,0,0
126,463,0,0,0,0,0,0,0,0,0,-1,1350,561,0,0
133,463,0,0,0,0,0,0,0,0,0,-1,1357,561,0,0
140,463,0,0,0,0,0,0,0,0,0,-1,1364,561,0,0
147,463,0,0,0,0,0,0,0,0,0,-1,1371,561,0,0
154,463,0,0,0,0,0,0,0,0,0,-1,1378,561,0,0
161,463,0,0,0,0,0,0,0,0,0,-1,1385,561,0,0
168,463,0,0,0,0,0,0,0,0,0,-1,1392,561,0,0
175,463,0,0,0,0,0,0,0,0,0,-1,1399,561,0,0
182,463,0,0,0,0,0,0,0,0,0,-1,1406,561,0,0
189,463,0,0,0,0,0,0,0,0,0,-1,1413,561,0,0
196,463,0,0,0,0,0,0,0,0,0,-1,1420,561,0,0
203,463,0,0,0,0,0,0,0,0,0,-1,1427,561,0,0
210,463,0,0,0,0,0,0,0,0,0,-1,1434,561,0,0
217,463,0,0,0,0,0,0,0,0,0,-1,1441,561,0,0
224,463,0,0,0,0,0,0,0,0,0,-1,1448,561,0,0
231,463,0,0,0,0,0,0,0,0,0,-1,1455,561,0,0
238,463,0,0,0,0,0,0,0,0,0,-1,1462,561,0,0
245,463,0,0,0,0,0,0,0,0,0,-1,1469,561,0,0
252,463,0,0,0,0,0,0,0,0,0,-1,1476,561,0,0
259,463,0,0,0,0,0,0,0,0,0,-1,1483,561,0,0
266,463,0,0,0,0,0,0,0,0,0,-1,1490,561,0,0
273,463,0,0,0,0,0,0,0,0,0,-1,1497,561,0,0
280,463,0,0,0,0,0,0,0,0,0,-1,1504,561,0,0
287,463,0,0,0,0,0,0,0,0,0,-1,1511,561,0,0
294,463,0,0,0,0,0,0,0,0,0,-1,1518,561,0,0
301,463,0,0,0,0,0,0,0,0,0,-1,1525,561,0,0
308,463,0,0,0,0,0,0,0,0,0,-1,1532,561,0,0
315,463,0,0,0,0,0,0,0,0,0,-1,1539,561,0,0
322,463,0,0,0,0,0,0,0,0,0,-1,1546,561,0,0
329,463,0,0,0,0,0,0,0,0,0,-1,1553,561,0,0
336,463,0,0,0,0,0,0,0,0,0,-1,1560,561,0,0
343,463,0,0,0,0,0,0,0,0,0,-1,1567,561,0,0
350,463,0,0,0,0,0,0,0,0,0,-1,1574,561,0,0
357,463,0,0,0,0,0,0,0,0,0,-1,1581,561,0,0
364,463,0,0,0,0,0,0,0,0,0,-1,1588,561,0,0
371,463,4.03943,-0.628967,0,0,0,0,0,0,0,-1,1595,561,4.03947,0.628998
378,463,4.74292,1.83234,0,0,0,0,0,0,0,-1,1602,561,4.74292,-1.83231
385,463,4.66187,2.20508,0,0,0,0,0,0,0,-1,1609,561,4.66191,-2.2051
392,463,5.92212,1.8623,0.0575959,0.00733063,-0.0585932,0.0962191,-0.0312926,-0.582799,0.0767341,0.0486822,1616,561,5.92213,-1.86229
399,463,6.44202,1.83813,0.0624241,0.0211466,-0.0620991,0.107224,-0.0236536,-0.624965,0.0805338,0.0445926,1623,561,6.44197,-1.83814
406,463,7.28088,1.38538,0.0624257,0.029412,-0.0609206,0.109036,-0.0171985,-0.653096,0.0790497,0.0428885,1630,561,7.28091,-1.38537
413,463,8.05847,1.82239,0,0,0,0,0,0,0,-1,1637,561,8.05851,-1.82241
420,463,8.849,2.26611,0,0,0,0,0,0,0,-1,1644,561,8.84899,-2.26613
427,463,5.12207,1.69183,0,0,0,0,0,0,0,-1,1651,561,5.12206,-1.69184
434,463,4.59814,1.81995,0,0,0,0,0,0,0,-1,1658,561,4.59812,-1.81994
441,463,1.76392,-5.99225,0,0,0,0,0,0,0,-1,1665,561,1.7639,5.99225
448,463,2.49939,-4.30536,0,0,0,0,0,0,0,-1,1672,561,2.49941,4.30536
455,463,4.40295,-3.02557,0,0,0,0,0,0,0,-1,1679,561,4.40299,3.02558
462,463,3.94836,-2.12842,0,0,0,0,0,0,0,-1,1686,561,3.94835,2.12843
469,463,4.42517,-2.26263,0,0,0,0,0,0,0,-1,1693,561,4.42522,2.26265
476,463,4.2251,-2.12335,-0.00151924,0.00207204,-0.0132819,0.0136791,-0.0131263,-0.852588,0.0154772,0.0413484,1700,561,4.22514,2.12337
483,463,4.18274,-2.07471,-0.00113747,0.00163881,-0.0103056,0.0106493,-0.010148,-0.852344,0.0120085,0.0207869,1707,561,4.18272,2.07471
490,463,4.25891,-1.89758,-0.00103478,0.00105717,-0.00784886,0.00792944,-0.00790705,-0.85164,0.0091432,0.0136152,1714,561,4.25885,1.89755
497,463,4.27515,-1.76581,-0.000956726,0.000497432,-0.00583186,0.00564736,-0.00610666,-0.847415,0.00678791,0.0113196,1721,561,4.27514,1.76581
504,463,4.27258,-1.65924,-0.000749472,0.000111298,-0.00412016,0.00382349,-0.00446167,-0.837439,0.00478817,0.0151065,1728,561,4.27257,1.65926
511,463,4.27197,-1.58258,-0.000192522,-0.000288821,-0.00257369,0.00233347,-0.00281481,-0.776045,0.00297669,0.0220153,1735,561,4.27202,1.58257
518,463,4.29785,-1.46661,0.00092389,-8.31263e-05,-0.000914898,0.00146468,-0.000623917,-0.533845,0.00123799,0.0224563,1742,561,4.29787,1.46659
525,463,4.2583,-1.33813,0.00227474,0.000207373,0.000575851,0.00242431,5.77954e-05,0.254134,0.00159729,0.0173882,1749,561,4.25834,1.33814
532,463,4.25305,-1.24268,0.00420919,0.00103541,0.00254039,0.0056176,-0.000372996,0.506219,0.00387538,0.0148707,1756,561,4.25299,1.24266
539,463,4.26868,-1.13995,0.00651854,0.00183499,0.00432129,0.00909179,-0.000738264,0.53709,0.00632167,0.0145063,1763,561,4.26864,1.13998
546,463,4.27271,-1.05493,0.00947203,0.00319735,0.00642541,0.0134851,-0.000815752,0.558288,0.00927397,0.0114965,1770,561,4.27269,1.05494
553,463,4.2655,-0.937195,0.0129164,0.00497134,0.00900753,0.0187885,-0.000900733,0.577715,0.0128365,0.0102285,1777,561,4.26546,0.937224
560,463,4.25854,-0.795593,0.0168967,0.00721099,0.012059,0.0250489,-0.00094123,0.594457,0.0170217,0.010584,1784,561,4.2585,0.795593
567,463,4.22217,-0.705627,0.0216614,0.00987089,0.0156761,0.0325142,-0.000981841,0.605545,0.0220107,0.0118435,1791,561,4.2222,0.705609
574,463,4.2113,-0.667297,0.027434,0.0133565,0.0199762,0.0415752,-0.000784747,0.616012,0.0279821,0.0308871,1798,561,4.2113,0.667267
581,463,4.24524,-0.469849,0,0,0,0,0,0,0,-1,1805,561,4.24522,0.469871
588,463,1.97424,2.16016,0,0,0,0,0,0,0,-1,1812,561,1.97422,-2.16013
595,463,4.26587,2.69269,0,0,0,0,0,0,0,-1,1819,561,4.26581,-2.69271
602,463,6.21997,3.05847,0,0,0,0,0,0,0,-1,1826,561,6.21995,-3.05845
609,463,8.16919,3.32605,0,0,0,0,0,0,0,-1,1833,561,8.1692,-3.32604
616,463,7.24524,0.95166,0,0,0,0,0,0,0,-1,1840,561,7.24518,-0.951655
623,463,0,0,0,0,0,0,0,0,0,-1,1847,561,0,0
630,463,0,0,0,0,0,0,0,0,0,-1,1854,561,0,0
637,463,0,0,0,0,0,0,0,0,0,-1,1861,561,0,0
644,463,0,0,0,0,0,0,0,0,0,-1,1868,561,0,0
651,463,0,0,0,0,0,0,0,0,0,-1,1875,561,0,0
658,463,0,0,0,0,0,0,0,0,0,-1,1882,561,0,0
665,463,0,0,0,0,0,0,0,0,0,-1,1889,561,0,0
672,463,0,0,0,0,0,0,0,0,0,-1,1896,561,0,0
679,463,0,0,0,0,0,0,0,0,0,-1,1903,561,0,0
686,463,0,0,0,0,0,0,0,0,0,-1,1910,561,0,0
693,463,0,0,0,0,0,0,0,0,0,-1,1917,561,0,0
700,463,0,0,0,0,0,0,0,0,0,-1,1924,561,0,0
707,463,0,0,0,0,0,0,0,0,0,-1,1931,561,0,0
714,463,0,0,0,0,0,0,0,0,0,-1,1938,561,0,0
721,463,0,0,0,0,0,0,0,0,0,-1,1945,561,0,0
728,463,0,0,0,0,0,0,0,0,0,-1,1952,561,0,0
735,463,0,0,0,0,0,0,0,0,0,-1,1959,561,0,0
742,463,0,0,0,0,0,0,0,0,0,-1,1966,561,0,0
749,463,0,0,0,0,0,0,0,0,0,-1,1973,561,0,0
756,463,0,0,0,0,0,0,0,0,0,-1,1980,561,0,0
763,463,0,0,0,0,0,0,0,0,0,-1,1987,561,0,0
770,463,0,0,0,0,0,0,0,0,0,-1,1994,561,0,0
777,463,0,0,0,0,0,0,0,0,0,-1,2001,561,0,0
784,463,0,0,0,0,0,0,0,0,0,-1,2008,561,0,0
791,463,0,0,0,0,0,0,0,0,0,-1,2015,561,0,0
798,463,0,0,0,0,0,0,0,0,0,-1,2022,561,0,0
805,463,0,0,0,0,0,0,0,0,0,-1,2029,561,0,0
812,463,0,0,0,0,0,0,0,0,0,-1,2036,561,0,0
-700,456,0,0,0,0,0,0,0,0,0,-1,524,568,0,0
-693,456,0,0,0,0,0,0,0,0,0,-1,531,568,0,0
-686,456,0,0,0,0,0,0,0,0,0,-1,538,568,0,0
-679,456,0,0,0,0,0,0,0,0,0,-1,545,568,0,0
-672,456,0,0,0,0,0,0,0,0,0,-1,552,568,0,0
-665,456,0,0,0,0,0,0,0,0,0,-1,559,568,0,0
-658,456,0,0,0,0,0,0,0,0,0,-1,566,568,0,0
-651,456,0,0,0,0,0,0,0,0,0,-1,573,568,0,0
-644,456,0,0,0,0,0,0,0,0,0,-1,580,568,0,0
-637,456,0,0,0,0,0,0,0,0,0,-1,587,568,0,0
-630,456,0,0,0,0,0,0,0,0,0,-1,594,568,0,0
-623,456,0,0,0,0,0,0,0,0,0,-1,601,568,0,0
-616,456,0,0,0,0,0,0,0,0,0,-1,608,568,0,0
-609,456,0,0,0,0,0,0,0,0,0,-1,615,568,0,0
-602,456,0,0,0,0,0,0,0,0,0,-1,622,568,0,0
-595,456,0,0,0,0,0,0,0,0,0,-1,629,568,0,0
-588,456,0,0,0,0,0,0,0,0,0,-1,636,568,0,0
-581,456,0,0,0,0,0,0,0,0,0,-1,643,568,0,0
-574,456,0,0,0,0,0,0,0,0,0,-1,650,568,0,0
-567,456,0,0,0,0,0,0,0,0,0,-1,657,568,0,0
-560,456,0,0,0,0,0,0,0,0,0,-1,664,568,0,0
-553,456,0,0,0,0,0,0,0,0,0,-1,671,568,0,0
-546,456,0,0,0,0,0,0,0,0,0,-1,678,568,0,0
-539,456,0,0,0,0,0,0,0,0,0,-1,685,568,0,0
-532,456,0,0,0,0,0,0,0,0,0,-1,692,568,0,0
-525,456,0,0,0,0,0,0,0,0,0,-1,699,568,0,0
-518,456,0,0,0,0,0,0,0,0,0,-1,706,568,0,0
-511,456,0,0,0,0,0,0,0,0,0,-1,713,568,0,0
-504,456,-0.0686035,-6.91498,0,0,0,0,0,0,0,-1,720,568,-0.0685922,6.915
-497,456,-0.242554,0.536255,0,0,0,0,0,0,0,-1,727,568,-0.242564,-0.53627
-490,456,-2.95111,0.0456543,0,0,0,0,0,0,0,-1,734,568,-2.95113,-0.0456799
-483,456,-1.70422,1.02448,0,0,0,0,0,0,0,-1,741,568,-1.70422,-1.02445
-476,456,-0.183044,-0.631531,0,0,0,0,0,0,0,-1,748,568,-0.18302,0.631513
-469,456,-0.491455,-0.653259,0,0,0,0,0,0,0,-1,755,568,-0.491435,0.653265
-462,456,-0.193848,-0.806091,0.0610944,0.0227583,-0.0210731,0.070413,0.0134397,-0.416352,0.0431653,0.0491941,762,568,-0.19382,0.806119
-455,456,0.121521,-0.921448,0.0488377,0.0177846,-0.0177493,0.0568931,0.00972913,-0.426048,0.0351376,0.0453591,769,568,0.121538,0.921427
-448,456,0.40509,-1.04889,0.0382269,0.0138134,-0.01431,0.0448292,0.00721113,-0.432275,0.027796,0.0296525,776,568,0.405095,1.04891
-441,456,0.410889,-1.21924,0.0292981,0.0106407,-0.0110555,0.0344348,0.00550399,-0.434954,0.0213596,0.0135754,783,568,0.410916,1.21924
-434,456,0.384033,-1.33563,0.0218365,0.00800236,-0.00849945,0.0258778,0.00396103,-0.443841,0.0160948,0.00896036,790,568,0.384035,1.3356
-427,456,0.378235,-1.42511,0.0155621,0.00584532,-0.00618925,0.0185721,0.00283538,-0.452642,0.0115528,0.00859704,797,568,0.378256,1.4251
-420,456,0.396362,-1.51294,0.0107154,0.00444296,-0.00408035,0.0127256,0.00243282,-0.457742,0.00780029,0.0089956,804,568,0.396374,1.51295
-413,456,0.398621,-1.61646,0.00736473,0.00364401,-0.00246381,0.00859166,0.00241709,-0.462028,0.00511608,0.0084462,811,568,0.398607,1.61644
-406,456,0.376709,-1.71234,0.00429847,0.00312965,-0.000875784,0.00476693,0.00266119,-0.491178,0.00275841,0.00824935,818,568,0.376695,1.71232
-399,456,0.381531,-1.8028,0.0019838,0.00279392,0.000112948,0.00280937,0.00196835,1.43483,0.00166495,0.00885402,825,568,0.381517,1.80279
-392,456,0.398376,-1.8999,0.00054746,0.00292589,0.000688807,0.00311097,0.000362379,1.3083,0.00196436,0.00855354,832,568,0.398346,1.89991
-385,456,0.384705,-2.01178,-0.000365642,0.00346322,0.00111318,0.00376333,-0.000665755,1.30746,0.00275772,0.00943374,839,568,0.384709,2.01176
-378,456,0.37439,-2.13037,-0.00115441,0.00450988,0.00140266,0.0048382,-0.00148272,1.34087,0.00381694,0.0105998,846,568,0.374387,2.13038
-371,456,0.378479,-2.2215,-0.00187107,0.00565575,0.00203109,0.00616886,-0.00238417,1.32335,0.0050967,0.0110412,853,568,0.378452,2.22152
-364,456,0.394226,-2.30426,-0.00263006,0.00716542,0.00266492,0.00784348,-0.00330813,1.32164,0.00661349,0.0144085,860,568,0.394223,2.30426
-357,456,0.390259,-2.40045,-0.0036796,0.00909857,0.00347755,0.00998367,-0.0045647,1.32157,0.00859154,0.0166417,867,568,0.390268,2.40045
-350,456,0.392639,-2.50085,-0.00526117,0.0106588,0.00465801,0.0119215,-0.0065239,1.30607,0.0108004,0.0292191,874,568,0.392633,2.50086
-343,456,0.392029,-2.80682,-0.00714163,0.0126743,0.00597154,0.0143347,-0.00880203,1.29959,0.0134847,0.04212,881,568,0.392007,2.80682
-336,456,0.531921,-2.99963,0,0,0,0,0,0,0,-1,888,568,0.531927,2.99963
-329,456,0.306091,-3.18195,-0.0115513,0.0152674,0.00912612,0.0180783,-0.0143622,1.27201,0.0187704,0.0464716,895,568,0.306103,3.18192
-322,456,-0.155762,-3.20984,0,0,0,0,0,0,0,-1,902,568,-0.155762,3.20986
-315,456,-1.13202,-3.43848,0,0,0,0,0,0,0,-1,909,568,-1.132,3.4385
-308,456,-1.76788,-3.78638,0,0,0,0,0,0,0,-1,916,568,-1.76787,3.78636
-301,456,0.876404,-2.396,0,0,0,0,0,0,0,-1,923,568,0.876421,2.39601
-294,456,-0.481079,2.50659,0,0,0,0,0,0,0,-1,930,568,-0.481098,-2.5066
-287,456,-0.328125,0.711243,0,0,0,0,0,0,0,-1,937,568,-0.328109,-0.711256
-280,456,-0.659973,-1.91644,0,0,0,0,0,0,0,-1,944,568,-0.659995,1.91647
-273,456,-1.42322,-2.75708,0,0,0,0,0,0,0,-1,951,568,-1.42324,2.75707
-266,456,-1.52106,-3.52063,0,0,0,0,0,0,0,-1,958,568,-1.52106,3.52061
-259,456,0,0,0,0,0,0,0,0,0,-1,965,568,0,0
-252,456,0,0,0,0,0,0,0,0,0,-1,972,568,0,0
-245,456,0,0,0,0,0,0,0,0,0,-1,979,568,0,0
-238,456,0,0,0,0,0,0,0,0,0,-1,986,568,0,0
-231,456,0,0,0,0,0,0,0,0,0,-1,993,568,0,0
-224,456,0,0,0,0,0,0,0,0,0,-1,1000,568,0,0
-217,456,0,0,0,0,0,0,0,0,0,-1,1007,568,0,0
-210,456,0,0,0,0,0,0,0,0,0,-1,1014,568,0,0
-203,456,0,0,0,0,0,0,0,0,0,-1,1021,568,0,0
-196,456,0,0,0,0,0,0,0,0,0,-1,1028,568,0,0
-189,456,0,0,0,0,0,0,0,0,0,-1,1035,568,0,0
-182,456,0,0,0,0,0,0,0,0,0,-1,1042,568,0,0
-175,456,0,0,0,0,0,0,0,0,0,-1,1049,568,0,0
-168,456,0,0,0,0,0,0,0,0,0,-1,1056,568,0,0
-161,456,0,0,0,0,0,0,0,0,0,-1,1063,568,0,0
-154,456,0,0,0,0,0,0,0,0,0,-1,1070,568,0,0
-147,456,0,0,0,0,0,0,0,0,0,-1,1077,568,0,0
-140,456,0,0,0,0,0,0,0,0,0,-1,1084,568,0,0
-133,456,0,0,0,0,0,0,0,0,0,-1,1091,568,0,0
-126,456,0,0,0,0,0,0,0,0,0,-1,1098,568,0,0
-119,456,0,0,0,0,0,0,0,0,0,-1,1105,568,0,0
-112,456,0,0,0,0,0,0,0,0,0,-1,1112,568,0,0
-105,456,0,0,0,0,0,0,0,0,0,-1,1119,568,0,0
-98,456,0,0,0,0,0,0,0,0,0,-1,1126,568,0,0
-91,456,0,0,0,0,0,0,0,0,0,-1,1133,568,0,0
-84,456,0,0,0,0,0,0,0,0,0,-1,1140,568,0,0
-77,456,0,0,0,0,0,0,0,0,0,-1,1147,568,0,0
-70,456,0,0,0,0,0,0,0,0,0,-1,1154,568,0,0
-63,456,0,0,0,0,0,0,0,0,0,-1,1161,568,0,0
-56,456,0,0,0,0,0,0,0,0,0,-1,1168,568,0,0
-49,456,0,0,0,0,0,0,0,0,0,-1,1175,568,0,0
-42,456,0,0,0,0,0,0,0,0,0,-1,1182,568,0,0
-35,456,0,0,0,0,0,0,0,0,0,-1,1189,568,0,0
-28,456,0,0,0,0,0,0,0,0,0,-1,1196,568,0,0
-21,456,0,0,0,0,0,0,0,0,0,-1,1203,568,0,0
-14,456,0,0,0,0,0,0,0,0,0,-1,1210,568,0,0
-7,456,0,0,0,0,0,0,0,0,0,-1,1217,568,0,0
0,456,0,0,0,0,0,0,0,0,0,-1,1224,568,0,0
7,456,0,0,0,0,0,0,0,0,0,-1,1231,568,0,0
14,456,0,0,0,0,0,0,0,0,0,-1,1238,568,0,0
21,456,0,0,0,0,0,0,0,0,0,-1,1245,568,0,0
28,456,0,0,0,0,0,0,0,0,0,-1,1252,568,0,0
35,456,0,0,0,0,0,0,0,0,0,-1,1259,568,0,0
42,456,0,0,0,0,0,0,0,0,0,-1,1266,568,0,0
49,456,0,0,0,0,0,0,0,0,0,-1,1273,568,0,0
56,456,0,0,0,0,0,0,0,0,0,-1,1280,568,0,0
63,456,0,0,0,0,0,0,0,0,0,-1,1287,568,0,0
70,456,0,0,0,0,0,0,0,0,0,-1,1294,568,0,0
77,456,0,0,0,0,0,0,0,0,0,-1,1301,568,0,0
84,456,0,0,0,0,0,0,0,0,0,-1,1308,568,0,0
91,456,0,0,0,0,0,0,0,0,0,-1,1315,568,0,0
98,456,0,0,0,0,0,0,0,0,0,-1,1322,568,0,0
105,456,0,0,0,0,0,0,0,0,0,-1,1329,568,0,0
112,456,0,0,0,0,0,0,0,0,0,-1,1336,568,0,0
119,456,0,0,0,0,0,0,0,0,0,-1,1343,568,0,0
126,456,0,0,0,0,0,0,0,0,0,-1,1350,568,0,0
133,456,0,0,0,0,0,0,0,0,0,-1,1357,568,0,0
140,456,0,0,0,0,0,0,0,0,0,-1,1364,568,0,0
147,456,0,0,0,0,0,0,0,0,0,-1,1371,568,0,0
154,456,0,0,0,0,0,0,0,0,0,-1,1378,568,0,0
161,456,0,0,0,0,0,0,0,0,0,-1,1385,568,0,0
168,456,0,0,0,0,0,0,0,0,0,-1,1392,568,0,0
175,456,0,0,0,0,0,0,0,0,0,-1,1399,568,0,0
182,456,0,0,0,0,0,0,0,0,0,-1,1406,568,0,0
189,456,0,0,0,0,0,0,0,0,0,-1,1413,568,0,0
196,456,0,0,0,0,0,0,0,0,0,-1,1420,568,0,0
203,456,0,0,0,0,0,0,0,0,0,-1,1427,568,0,0
210,456,0,0,0,0,0,0,0,0,0,-1,1434,568,0,0
217,456,0,0,0,0,0,0,0,0,0,-1,1441,568,0,0
224,456,0,0,0,0,0,0,0,0,0,-1,1448,568,0,0
231,456,0,0,0,0,0,0,0,0,0,-1,1455,568,0,0
238,456,0,0,0,0,0,0,0,0,0,-1,1462,568,0,0
245,456,0,0,0,0,0,0,0,0,0,-1,1469,568,0,0
252,456,0,0,0,0,0,0,0,0,0,-1,1476,568,0,0
259,456,0,0,0,0,0,0,0,0,0,-1,1483,568,0,0
266,456,0,0,0,0,0,0,0,0,0,-1,1490,568,0,0
273,456,0,0,0,0,0,0,0,0,0,-1,1497,568,0,0
280,456,0,0,0,0,0,0,0,0,0,-1,1504,568,0,0
287,456,0,0,0,0,0,0,0,0,0,-1,1511,568,0,0
294,456,0,0,0,0,0,0,0,0,0,-1,1518,568,0,0
301,456,0,0,0,0,0,0,0,0,0,-1,1525,568,0,0
308,456,0,0,0,0,0,0,0,0,0,-1,1532,568,0,0
315,456,0,0,0,0,0,0,0,0,0,-1,1539,568,0,0
322,456,0,0,0,0,0,0,0,0,0,-1,1546,568,0,0
329,456,0,0,0,0,0,0,0,0,0,-1,1553,568,0,0
336,456,0,0,0,0,0,0,0,0,0,-1,1560,568,0,0
343,456,0,0,0,0,0,0,0,0,0,-1,1567,568,0,0
350,456,0,0,0,0,0,0,0,0,0,-1,1574,568,0,0
357,456,0,0,0,0,0,0,0,0,0,-1,1581,568,0,0
364,456,0,0,0,0,0,0,0,0,0,-1,1588,568,0,0
371,456,0,0,0,0,0,0,0,0,0,-1,1595,568,0,0
378,456,0,0,0,0,0,0,0,0,0,-1,1602,568,0,0
385,456,4.8717,2.28223,0,0,0,0,0,0,0,-1,1609,568,4.87165,-2.28224
392,456,6.82703,1.66443,0,0,0,0,0,0,0,-1,1616,568,6.82698,-1.66445
399,456,7.36169,1.25775,0,0,0,0,0,0,0,-1,1623,568,7.36169,-1.25774
406,456,8.68738,0.641418,0,0,0,0,0,0,0,-1,1630,568,8.68737,-0.64144
413,456,9.55115,1.49933,0,0,0,0,0,0,0,-1,1637,568,9.55119,-1.49933
420,456,6.33875,1.88824,0,0,0,0,0,0,0,-1,1644,568,6.33876,-1.88827
427,456,6.21375,2.02905,0,0,0,0,0,0,0,-1,1651,568,6.21372,-2.02904
434,456,3.0719,-4.86285,0,0,0,0,0,0,0,-1,1658,568,3.07184,4.86287
441,456,2.90344,-4.70459,0,0,0,0,0,0,0,-1,1665,568,2.90346,4.7046
448,456,3.06995,-4.93689,0,0,0,0,0,0,0,-1,1672,568,3.06991,4.93687
455,456,3.46582,-3.43701,0,0,0,0,0,0,0,-1,1679,568,3.46585,3.43698
462,456,4.68445,-4.45831,0,0,0,0,0,0,0,-1,1686,568,4.68439,4.45833
469,456,4.66418,-3.18976,0,0,0,0,0,0,0,-1,1693,568,4.66423,3.18973
476,456,4.53699,-1.93524,0,0,0,0,0,0,0,-1,1700,568,4.53693,1.93521
483,456,4.177,-2.26324,0,0,0,0,0,0,0,-1,1707,568,4.17703,2.26327
490,456,4.43677,-2.04163,0.000473452,0.00182578,-0.0142458,0.0154115,-0.0131122,-0.809112,0.016486,0.0365063,1714,568,4.43676,2.04164
497,456,4.39014,-1.80219,-0.000156763,0.000989049,-0.0105668,0.0109984,-0.0101662,-0.81248,0.0122225,0.0173023,1721,568,4.3901,1.80221
504,456,4.3645,-1.66211,-0.000508745,0.000367048,-0.00748568,0.00742763,-0.00756933,-0.814614,0.00865863,0.0103906,1728,568,4.36452,1.66212
511,456,4.36206,-1.54175,-0.000619102,-6.46213e-05,-0.00490543,0.0045714,-0.00525512,-0.813627,0.00567792,0.0133585,1735,568,4.36208,1.54176
518,456,4.38855,-1.42749,5.62324e-05,-0.000153939,-0.00273698,0.00269014,-0.00278785,-0.76621,0.00316289,0.0153096,1742,568,4.3885,1.42748
525,456,4.38501,-1.33203,0.000995956,-6.83018e-05,-0.000869203,0.00148298,-0.000555327,-0.510726,0.00121677,0.0156756,1749,568,4.38497,1.33201
532,456,4.3634,-1.23938,0.00232364,0.000549967,0.00125022,0.00296962,-9.60126e-05,0.476913,0.00201251,0.015278,1756,568,4.36338,1.23936
539,456,4.37305,-1.13464,0.00401939,0.00105675,0.00287749,0.00577446,-0.00069832,0.547691,0.00410227,0.0169652,1763,568,4.37306,1.13466
546,456,4.39075,-1.04803,0.00628434,0.00214414,0.00448514,0.00915405,-0.000725577,0.569191,0.00635838,0.0175287,1770,568,4.39074,1.04802
553,456,4.38892,-0.924683,0.008837,0.00353733,0.00642218,0.0131345,-0.000760211,0.589735,0.00902045,0.0116669,1777,568,4.38889,0.924653
560,456,4.37378,-0.807312,0.0117181,0.00517585,0.00863478,0.0176806,-0.000786657,0.604336,0.0120578,0.00987848,1784,568,4.37378,0.807287
567,456,4.36584,-0.700378,0.0151231,0.00700823,0.0111931,0.0229715,-0.000840175,0.611517,0.015602,0.010069,1791,568,4.36581,0.700386
574,456,4.32654,-0.635315,0.0192472,0.00943678,0.01426,0.029422,-0.000738052,0.619745,0.0198653,0.0211225,1798,568,4.32654,0.635326
581,456,4.27856,-0.477478,0.023594,0.0122546,0.01782,0.0366245,-0.000775898,0.63138,0.024679,0.0434692,1805,568,4.27861,0.477472
588,456,4.53748,-0.291931,0,0,0,0,0,0,0,-1,1812,568,4.53752,0.291913
595,456,5.06018,0.0344849,0,0,0,0,0,0,0,-1,1819,568,5.06022,-0.0344574
602,456,5.43872,0.186157,0,0,0,0,0,0,0,-1,1826,568,5.43875,-0.186176
609,456,7.40393,2.35181,0,0,0,0,0,0,0,-1,1833,568,7.40388,-2.35179
616,456,7.79626,3.70068,0,0,0,0,0,0,0,-1,1840,568,7.79627,-3.70071
623,456,6.69336,2.3103,0,0,0,0,0,0,0,-1,1847,568,6.6934,-2.31029
630,456,0,0,0,0,0,0,0,0,0,-1,1854,568,0,0
637,456,0,0,0,0,0,0,0,0,0,-1,1861,568,0,0
644,456,0,0,0,0,0,0,0,0,0,-1,1868,568,0,0
651,456,0,0,0,0,0,0,0,0,0,-1,1875,568,0,0
658,456,0,0,0,0,0,0,0,0,0,-1,1882,568,0,0
665,456,0,0,0,0,0,0,0,0,0,-1,1889,568,0,0
672,456,0,0,0,0,0,0,0,0,0,-1,1896,568,0,0
679,456,0,0,0,0,0,0,0,0,0,-1,1903,568,0,0
686,456,0,0,0,0,0,0,0,0,0,-1,1910,568,0,0
693,456,0,0,0,0,0,0,0,0,0,-1,1917,568,0,0
700,456,0,0,0,0,0,0,0,0,0,-1,1924,568,0,0
707,456,0,0,0,0,0,0,0,0,0,-1,1931,568,0,0
714,456,0,0,0,0,0,0,0,0,0,-1,1938,568,0,0
721,456,0,0,0,0,0,0,0,0,0,-1,1945,568,0,0
728,456,0,0,0,0,0,0,0,0,0,-1,1952,568,0,0
735,456,0,0,0,0,0,0,0,0,0,-1,1959,568,0,0
742,456,0,0,0,0,0,0,0,0,0,-1,1966,568,0,0
749,456,0,0,0,0,0,0,0,0,0,-1,1973,568,0,0
756,456,0,0,0,0,0,0,0,0,0,-1,1980,568,0,0
763,456,0,0,0,0,0,0,0,0,0,-1,1987,568,0,0
770,456,0,0,0,0,0,0,0,0,0,-1,1994,568,0,0
777,456,0,0,0,0,0,0,0,0,0,-1,2001,568,0,0
784,456,0,0,0,0,0,0,0,0,0,-1,2008,568,0,0
791,456,0,0,0,0,0,0,0,0,0,-1,2015,568,0,0
798,456,0,0,0,0,0,0,0,0,0,-1,2022,568,0,0
805,456,0,0,0,0,0,0,0,0,0,-1,2029,568,0,0
812,456,0,0,0,0,0,0,0,0,0,-1,2036,568,0,0
-700,449,0,0,0,0,0,0,0,0,0,-1,524,575,0,0
-693,449,0,0,0,0,0,0,0,0,0,-1,531,575,0,0
-686,449,0,0,0,0,0,0,0,0,0,-1,538,575,0,0
-679,449,0,0,0,0,0,0,0,0,0,-1,545,575,0,0
-672,449,0,0,0,0,0,0,0,0,0,-1,552,575,0,0
-665,449,0,0,0,0,0,0,0,0,0,-1,559,575,0,0
-658,449,0,0,0,0,0,0,0,0,0,-1,566,575,0,0
-651,449,0,0,0,0,0,0,0,0,0,-1,573,575,0,0
-644,449,0,0,0,0,0,0,0,0,0,-1,580,575,0,0
-637,449,0,0,0,0,0,0,0,0,0,-1,587,575,0,0
-630,449,0,0,0,0,0,0,0,0,0,-1,594,575,0,0
-623,449,0,0,0,0,0,0,0,0,0,-1,601,575,0,0
-616,449,0,0,0,0,0,0,0,0,0,-1,608,575,0,0
-609,449,0,0,0,0,0,0,0,0,0,-1,615,575,0,0
-602,449,0,0,0,0,0,0,0,0,0,-1,622,575,0,0
-595,449,0,0,0,0,0,0,0,0,0,-1,629,575,0,0
-588,449,0,0,0,0,0,0,0,0,0,-1,636,575,0,0
-581,449,0,0,0,0,0,0,0,0,0,-1,643,575,0,0
-574,449,0,0,0,0,0,0,0,0,0,-1,650,575,0,0
-567,449,0,0,0,0,0,0,0,0,0,-1,657,575,0,0
-560,449,0,0,0,0,0,0,0,0,0,-1,664,575,0,0
-553,449,0,0,0,0,0,0,0,0,0,-1,671,575,0,0
-546,449,0,0,0,0,0,0,0,0,0,-1,678,575,0,0
-539,449,0,0,0,0,0,0,0,0,0,-1,685,575,0,0
-532,449,0,0,0,0,0,0,0,0,0,-1,692,575,0,0
-525,449,0,0,0,0,0,0,0,0,0,-1,699,575,0,0
-518,449,0,0,0,0,0,0,0,0,0,-1,706,575,0,0
-511,449,0.125427,-5.26575,0,0,0,0,0,0,0,-1,713,575,0.125457,5.26575
-504,449,-0.275757,-6.81616,0,0,0,0,0,0,0,-1,720,575,-0.275783,6.81614
-497,449,-2.15637,0.265808,0,0,0,0,0,0,0,-1,727,575,-2.15635,-0.265838
-490,449,-2.23102,-0.0199585,0.0994011,0.0414102,-0.0304536,0.112455,0.0283562,-0.40496,0.0675325,0.049669,734,575,-2.231,0.0199314
-483,449,-1.48932,0.427429,0.0839996,0.0356223,-0.0248815,0.0945122,0.0251097,-0.399758,0.0565288,0.0472162,741,575,-1.48929,-0.427452
-476,449,-0.323792,0.575134,0,0,0,0,0,0,0,-1,748,575,-0.32382,-0.575159
-469,449,0.156189,0.281555,0,0,0,0,0,0,0,-1,755,575,0.156197,-0.281556
-462,449,0.130188,-0.485229,0.0464319,0.0182932,-0.0155859,0.0533594,0.0113657,-0.418247,0.0324547,0.0428862,762,575,0.130198,0.485209
-455,449,0.174805,-1.02454,0.0368932,0.0140499,-0.0133063,0.0430076,0.00793555,-0.430734,0.0264267,0.0357047,769,575,0.174796,1.02453
-448,449,0.292236,-1.13031,0.0288256,0.0106936,-0.0108933,0.033932,0.00558725,-0.438346,0.0210081,0.0195066,776,575,0.292242,1.13029
-441,449,0.297119,-1.24976,0.0219809,0.00800305,-0.00849086,0.0259893,0.00399471,-0.44106,0.01616,0.0132939,783,575,0.297144,1.24976
-434,449,0.274719,-1.34467,0.0161201,0.0057791,-0.00657621,0.019315,0.00258416,-0.45225,0.0121076,0.011655,790,575,0.27471,1.34465
-427,449,0.272461,-1.43402,0.0111471,0.00399226,-0.00477443,0.0135357,0.00160369,-0.463876,0.00853956,0.0123913,797,575,0.272482,1.43402
-420,449,0.287354,-1.51489,0.00735765,0.00290953,-0.00302698,0.00888979,0.00137738,-0.468565,0.00552493,0.0128636,804,575,0.287371,1.51487
-413,449,0.292297,-1.62646,0.00487025,0.00244658,-0.00163904,0.0056968,0.00162004,-0.467072,0.00338946,0.00983813,811,575,0.292319,1.62649
-406,449,0.279053,-1.73358,0.00258336,0.002295,-0.00027596,0.00275054,0.00212783,-0.544669,0.00166539,0.00828281,818,575,0.27907,1.73358
-399,449,0.280273,-1.81512,0.000851024,0.00244816,0.000611265,0.00265525,0.000643929,1.24414,0.00159933,0.00816953,825,575,0.28029,1.81511
-392,449,0.302856,-1.90833,-0.00022371,0.0031855,0.00125647,0.00359854,-0.000636747,1.2532,0.00263703,0.00933772,832,575,0.302867,1.90831
-385,449,0.302612,-1.99811,-0.000879569,0.00430007,0.0017834,0.00485472,-0.00143422,1.26927,0.00380573,0.00991355,839,575,0.302632,1.99809
-378,449,0.270752,-2.09479,-0.00154746,0.00599902,0.00227484,0.00663171,-0.00218015,1.29953,0.00529951,0.00944404,846,575,0.270778,2.09478
-371,449,0.253052,-2.20239,-0.00211642,0.00799746,0.00306719,0.00885493,-0.00297389,1.29819,0.00710516,0.0101242,853,575,0.253037,2.20238
-364,449,0.314636,-2.30756,-0.00276818,0.0105191,0.00387374,0.011566,-0.00381504,1.30686,0.00924843,0.0189289,860,575,0.314609,2.30758
-357,449,0.385864,-2.37793,-0.0037398,0.0136481,0.00487053,0.0149194,-0.00501114,1.31547,0.0119715,0.0308283,867,575,0.385864,2.37796
-350,449,0.367798,-2.4519,-0.0052596,0.0165898,0.00622189,0.0182373,-0.00690714,1.31194,0.0150004,0.0436066,874,575,0.367788,2.45189
-343,449,-0.277954,-2.41248,-0.00710078,0.0202048,0.00773991,0.0222462,-0.00914209,1.31293,0.018641,0.0477307,881,575,-0.277948,2.41246
-336,449,-0.84491,-2.64563,0,0,0,0,0,0,0,-1,888,575,-0.844879,2.64562
-329,449,0.369873,-3.45026,0,0,0,0,0,0,0,-1,895,575,0.369875,3.45024
-322,449,-0.219177,-3.67053,0,0,0,0,0,0,0,-1,902,575,-0.219188,3.67054
-315,449,-1.27173,-3.7301,0,0,0,0,0,0,0,-1,909,575,-1.27172,3.73013
-308,449,0.850647,-2.39966,0,0,0,0,0,0,0,-1,916,575,0.850659,2.39967
-301,449,-1.91193,4.51648,0,0,0,0,0,0,0,-1,923,575,-1.91191,-4.51645
-294,449,-1.80945,1.75592,0,0,0,0,0,0,0,-1,930,575,-1.80945,-1.75595
-287,449,-1.51166,0.437561,0,0,0,0,0,0,0,-1,937,575,-1.51164,-0.437574
-280,449,-1.1792,-0.357605,0,0,0,0,0,0,0,-1,944,575,-1.17921,0.357613
-273,449,0,0,0,0,0,0,0,0,0,-1,951,575,0,0
-266,449,0,0,0,0,0,0,0,0,0,-1,958,575,0,0
-259,449,0,0,0,0,0,0,0,0,0,-1,965,575,0,0
-252,449,0,0,0,0,0,0,0,0,0,-1,972,575,0,0
-245,449,0,0,0,0,0,0,0,0,0,-1,979,575,0,0
-238,449,0,0,0,0,0,0,0,0,0,-1,986,575,0,0
-231,449,0,0,0,0,0,0,0,0,0,-1,993,575,0,0
-224,449,0,0,0,0,0,0,0,0,0,-1,1000,575,0,0
-217,449,0,0,0,0,0,0,0,0,0,-1,1007,575,0,0
-210,449,0,0,0,0,0,0,0,0,0,-1,1014,575,0,0
-203,449,0,0,0,0,0,0,0,0,0,-1,1021,575,0,0
-196,449,0,0,0,0,0,0,0,0,0,-1,1028,575,0,0
-189,449,0,0,0,0,0,0,0,0,0,-1,1035,575,0,0
-182,449,0,0,0,0,0,0,0,0,0,-1,1042,575,0,0
-175,449,0,0,0,0,0,0,0,0,0,-1,1049,575,0,0
-168,449,0,0,0,0,0,0,0,0,0,-1,1056,575,0,0
-161,449,0,0,0,0,0,0,0,0,0,-1,1063,575,0,0
-154,449,0,0,0,0,0,0,0,0,0,-1,1070,575,0,0
-147,449,0,0,0,0,0,0,0,0,0,-1,1077,575,0,0
-140,449,0,0,0,0,0,0,0,0,0,-1,1084,575,0,0
-133,449,0,0,0,0,0,0,0,0,0,-1,1091,575,0,0
-126,449,0,0,0,0,0,0,0,0,0,-1,1098,575,0,0
-119,449,0,0,0,0,0,0,0,0,0,-1,1105,575,0,0
-112,449,0,0,0,0,0,0,0,0,0,-1,1112,575,0,0
-105,449,0,0,0,0,0,0,0,0,0,-1,1119,575,0,0
-98,449,0,0,0,0,0,0,0,0,0,-1,1126,575,0,0
-91,449,0,0,0,0,0,0,0,0,0,-1,1133,575,0,0
-84,449,0,0,0,0,0,0,0,0,0,-1,1140,575,0,0
-77,449,0,0,0,0,0,0,0,0,0,-1,1147,575,0,0
-70,449,0,0,0,0,0,0,0,0,0,-1,1154,575,0,0
-63,449,0,0,0,0,0,0,0,0,0,-1,1161,575,0,0
-56,449,0,0,0,0,0,0,0,0,0,-1,1168,575,0,0
-49,449,0,0,0,0,0,0,0,0,0,-1,1175,575,0,0
-42,449,0,0,0,0,0,0,0,0,0,-1,1182,575,0,0
-35,449,0,0,0,0,0,0,0,0,0,-1,1189,575,0,0
-28,449,0,0,0,0,0,0,0,0,0,-1,1196,575,0,0
-21,449,0,0,0,0,0,0,0,0,0,-1,1203,575,0,0
-14,449,0,0,0,0,0,0,0,0,0,-1,1210,575,0,0
-7,449,0,0,0,0,0,0,0,0,0,-1,1217,575,0,0
0,449,0,0,0,0,0,0,0,0,0,-1,1224,575,0,0
7,449,0,0,0,0,0,0,0,0,0,-1,1231,575,0,0
14,449,0,0,0,0,0,0,0,0,0,-1,1238,575,0,0
21,449,0,0,0,0,0,0,0,0,0,-1,1245,575,0,0
28,449,0,0,0,0,0,0,0,0,0,-1,1252,575,0,0
35,449,0,0,0,0,0,0,0,0,0,-1,1259,575,0,0
42,449,0,0,0,0,0,0,0,0,0,-1,1266,575,0,0
49,449,0,0,0,0,0,0,0,0,0,-1,1273,575,0,0
56,449,0,0,0,0,0,0,0,0,0,-1,1280,575,0,0
63,449,0,0,0,0,0,0,0,0,0,-1,1287,575,0,0
70,449,0,0,0,0,0,0,0,0,0,-1,1294,575,0,0
77,449,0,0,0,0,0,0,0,0,0,-1,1301,575,0,0
84,449,0,0,0,0,0,0,0,0,0,-1,1308,575,0,0
91,449,0,0,0,0,0,0,0,0,0,-1,1315,575,0,0
98,449,0,0,0,0,0,0,0,0,0,-1,1322,575,0,0
105,449,0,0,0,0,0,0,0,0,0,-1,1329,575,0,0
112,449,0,0,0,0,0,0,0,0,0,-1,1336,575,0,0
119,449,0,0,0,0,0,0,0,0,0,-1,1343,575,0,0
126,449,0,0,0,0,0,0,0,0,0,-1,1350,575,0,0
133,449,0,0,0,0,0,0,0,0,0,-1,1357,575,0,0
140,449,0,0,0,0,0,0,0,0,0,-1,1364,575,0,0
147,449,0,0,0,0,0,0,0,0,0,-1,1371,575,0,0
154,449,0,0,0,0,0,0,0,0,0,-1,1378,575,0,0
161,449,0,0,0,0,0,0,0,0,0,-1,1385,575,0,0
168,449,0,0,0,0,0,0,0,0,0,-1,1392,575,0,0
175,449,0,0,0,0,0,0,0,0,0,-1,1399,575,0,0
182,449,0,0,0,0,0,0,0,0,0,-1,1406,575,0,0
189,449,0,0,0,0,0,0,0,0,0,-1,1413,575,0,0
196,449,0,0,0,0,0,0,0,0,0,-1,1420,575,0,0
203,449,0,0,0,0,0,0,0,0,0,-1,1427,575,0,0
210,449,0,0,0,0,0,0,0,0,0,-1,1434,575,0,0
217,449,0,0,0,0,0,0,0,0,0,-1,1441,575,0,0
224,449,0,0,0,0,0,0,0,0,0,-1,1448,575,0,0
231,449,0,0,0,0,0,0,0,0,0,-1,1455,575,0,0
238,449,0,0,0,0,0,0,0,0,0,-1,1462,575,0,0
245,449,0,0,0,0,0,0,0,0,0,-1,1469,575,0,0
252,449,0,0,0,0,0,0,0,0,0,-1,1476,575,0,0
259,449,0,0,0,0,0,0,0,0,0,-1,1483,575,0,0
266,449,0,0,0,0,0,0,0,0,0,-1,1490,575,0,0
273,449,0,0,0,0,0,0,0,0,0,-1,1497,575,0,0
280,449,0,0,0,0,0,0,0,0,0,-1,1504,575,0,0
287,449,0,0,0,0,0,0,0,0,0,-1,1511,575,0,0
294,449,0,0,0,0,0,0,0,0,0,-1,1518,575,0,0
301,449,0,0,0,0,0,0,0,0,0,-1,1525,575,0,0
308,449,0,0,0,0,0,0,0,0,0,-1,1532,575,0,0
315,449,0,0,0,0,0,0,0,0,0,-1,1539,575,0,0
322,449,0,0,0,0,0,0,0,0,0,-1,1546,575,0,0
329,449,0,0,0,0,0,0,0,0,0,-1,1553,575,0,0
336,449,0,0,0,0,0,0,0,0,0,-1,1560,575,0,0
343,449,0,0,0,0,0,0,0,0,0,-1,1567,575,0,0
350,449,0,0,0,0,0,0,0,0,0,-1,1574,575,0,0
357,449,0,0,0,0,0,0,0,0,0,-1,1581,575,0,0
364,449,0,0,0,0,0,0,0,0,0,-1,1588,575,0,0
371,449,0,0,0,0,0,0,0,0,0,-1,1595,575,0,0
378,449,0,0,0,0,0,0,0,0,0,-1,1602,575,0,0
385,449,0,0,0,0,0,0,0,0,0,-1,1609,575,0,0
392,449,4.58215,3.81702,0,0,0,0,0,0,0,-1,1616,575,4.58219,-3.81704
399,449,4.58838,4.90125,0,0,0,0,0,0,0,-1,1623,575,4.58832,-4.90126
406,449,6.0885,2.41937,0,0,0,0,0,0,0,-1,1630,575,6.08846,-2.41938
413,449,6.79773,1.49658,0,0,0,0,0,0,0,-1,1637,575,6.79772,-1.49658
420,449,4.70264,2.21893,0,0,0,0,0,0,0,-1,1644,575,4.70263,-2.21894
427,449,8.96924,-4.53351,0,0,0,0,0,0,0,-1,1651,575,8.96925,4.53353
434,449,4.12927,-7.06952,0,0,0,0,0,0,0,-1,1658,575,4.12932,7.06952
441,449,3.89856,-6.06458,0,0,0,0,0,0,0,-1,1665,575,3.89855,6.06459
448,449,4.03198,-5.18207,0,0,0,0,0,0,0,-1,1672,575,4.03197,5.18207
455,449,4.21948,-4.09467,0,0,0,0,0,0,0,-1,1679,575,4.21952,4.09465
462,449,4.23181,-2.96924,0,0,0,0,0,0,0,-1,1686,575,4.23185,2.96926
469,449,4.51672,-2.95135,0,0,0,0,0,0,0,-1,1693,575,4.51672,2.95135
476,449,4.75879,-1.75,0,0,0,0,0,0,0,-1,1700,575,4.75884,1.75001
483,449,4.87878,-1.73126,0,0,0,0,0,0,0,-1,1707,575,4.87875,1.73128
490,449,4.48071,-2.09418,0,0,0,0,0,0,0,-1,1714,575,4.48069,2.09417
497,449,4.59045,-1.72119,0.00120871,0.00165266,-0.0164662,0.0178984,-0.015037,-0.792138,0.0190392,0.0357634,1721,575,4.59048,1.72119
504,449,4.44788,-1.68127,0.000223247,0.000705769,-0.0119112,0.0123782,-0.0114492,-0.795524,0.0137602,0.0188352,1728,575,4.44786,1.68127
511,449,4.46619,-1.55475,-0.000577589,0.000130904,-0.00812874,0.00791312,-0.0083598,-0.807174,0.00939635,0.0100989,1735,575,4.46621,1.55473
518,449,4.48157,-1.44293,-0.000450045,-0.000276349,-0.00518223,0.00481977,-0.00554616,-0.793777,0.00598967,0.01229,1742,575,4.48152,1.44291
525,449,4.47705,-1.34802,-8.18104e-06,-0.000479188,-0.00271139,0.00247791,-0.00296528,-0.742078,0.00314683,0.0123421,1749,575,4.47709,1.34799
532,449,4.46497,-1.25287,0.000735593,-5.24136e-05,-0.000165355,0.000768885,-8.57053e-05,-0.198678,0.000543416,0.00994876,1756,575,4.46501,1.25286
539,449,4.44702,-1.1347,0.00188689,0.00020424,0.00153551,0.00279646,-0.000705328,0.534779,0.00213854,0.0117189,1763,575,4.44708,1.13469
546,449,4.46643,-1.03125,0.0036577,0.00110496,0.00277158,0.00543268,-0.000670027,0.569614,0.00386454,0.0189702,1770,575,4.46645,1.03125
553,449,4.46936,-0.919067,0.00557819,0.0022448,0.00424186,0.00846904,-0.000646052,0.598206,0.00587323,0.0142591,1777,575,4.46936,0.919046
560,449,4.47485,-0.830322,0.00771469,0.00348029,0.00586742,0.0118352,-0.000640231,0.612249,0.00811197,0.0133471,1784,575,4.47483,0.830307
567,449,4.46387,-0.720398,0.0102036,0.00478085,0.00769337,0.0156494,-0.000664963,0.61598,0.0106615,0.00938075,1791,575,4.46386,0.720423
574,449,4.46423,-0.595886,0.0131988,0.00652304,0.00993812,0.0203446,-0.000622749,0.623383,0.0137754,0.0133667,1798,575,4.46423,0.595877
581,449,4.4585,-0.484131,0.0161399,0.0084811,0.0124981,0.0253821,-0.000761052,0.636739,0.0171807,0.0250599,1805,575,4.45852,0.484141
588,449,4.51416,-0.403687,0.0193118,0.0107373,0.0152314,0.0308478,-0.00079878,0.648211,0.0208366,0.0378219,1812,575,4.51416,0.403713
595,449,4.875,-0.21991,0.0225925,0.0131671,0.0182432,0.0367219,-0.000962317,0.658999,0.0248082,0.0457779,1819,575,4.87497,0.219907
602,449,5.1261,-0.124695,0.0261146,0.0161736,0.0218935,0.0435948,-0.00130652,0.673774,0.0295083,0.0483537,1826,575,5.12607,0.124668
609,449,5.46973,0.000366211,0,0,0,0,0,0,0,-1,1833,575,5.46974,-0.000389206
616,449,6.62366,1.67096,0,0,0,0,0,0,0,-1,1840,575,6.6236,-1.67094
623,449,6.99927,1.11633,0,0,0,0,0,0,0,-1,1847,575,6.99927,-1.11631
630,449,5.87805,1.35144,0,0,0,0,0,0,0,-1,1854,575,5.87803,-1.35144
637,449,0,0,0,0,0,0,0,0,0,-1,1861,575,0,0
644,449,0,0,0,0,0,0,0,0,0,-1,1868,575,0,0
651,449,0,0,0,0,0,0,0,0,0,-1,1875,575,0,0
658,449,0,0,0,0,0,0,0,0,0,-1,1882,575,0,0
665,449,0,0,0,0,0,0,0,0,0,-1,1889,575,0,0
672,449,0,0,0,0,0,0,0,0,0,-1,1896,575,0,0
679,449,0,0,0,0,0,0,0,0,0,-1,1903,575,0,0
686,449,0,0,0,0,0,0,0,0,0,-1,1910,575,0,0
693,449,0,0,0,0,0,0,0,0,0,-1,1917,575,0,0
700,449,0,0,0,0,0,0,0,0,0,-1,1924,575,0,0
707,449,0,0,0,0,0,0,0,0,0,-1,1931,575,0,0
714,449,0,0,0,0,0,0,0,0,0,-1,1938,575,0,0
721,449,0,0,0,0,0,0,0,0,0,-1,1945,575,0,0
728,449,0,0,0,0,0,0,0,0,0,-1,1952,575,0,0
735,449,0,0,0,0,0,0,0,0,0,-1,1959,575,0,0
742,449,0,0,0,0,0,0,0,0,0,-1,1966,575,0,0
749,449,0,0,0,0,0,0,0,0,0,-1,1973,575,0,0
756,449,0,0,0,0,0,0,0,0,0,-1,1980,575,0,0
763,449,0,0,0,0,0,0,0,0,0,-1,1987,575,0,0
770,449,0,0,0,0,0,0,0,0,0,-1,1994,575,0,0
777,449,0,0,0,0,0,0,0,0,0,-1,2001,575,0,0
784,449,0,0,0,0,0,0,0,0,0,-1,2008,575,0,0
791,449,0,0,0,0,0,0,0,0,0,-1,2015,575,0,0
798,449,0,0,0,0,0,0,0,0,0,-1,2022,575,0,0
805,449,0,0,0,0,0,0,0,0,0,-1,2029,575,0,0
812,449,0,0,0,0,0,0,0,0,0,-1,2036,575,0,0
-700,442,0,0,0,0,0,0,0,0,0,-1,524,582,0,0
-693,442,0,0,0,0,0,0,0,0,0,-1,531,582,0,0
-686,442,0,0,0,0,0,0,0,0,0,-1,538,582,0,0
-679,442,0,0,0,0,0,0,0,0,0,-1,545,582,0,0
-672,442,0,0,0,0,0,0,0,0,0,-1,552,582,0,0
-665,442,0,0,0,0,0,0,0,0,0,-1,559,582,0,0
-658,442,0,0,0,0,0,0,0,0,0,-1,566,582,0,0
-651,442,0,0,0,0,0,0,0,0,0,-1,573,582,0,0
-644,442,0,0,0,0,0,0,0,0,0,-1,580,582,0,0
-637,442,0,0,0,0,0,0,0,0,0,-1,587,582,0,0
-630,442,0,0,0,0,0,0,0,0,0,-1,594,582,0,0
-623,442,0,0,0,0,0,0,0,0,0,-1,601,582,0,0
-616,442,0,0,0,0,0,0,0,0,0,-1,608,582,0,0
-609,442,0,0,0,0,0,0,0,0,0,-1,615,582,0,0
-602,442,0,0,0,0,0,0,0,0,0,-1,622,582,0,0
-595,442,0,0,0,0,0,0,0,0,0,-1,629,582,0,0
-588,442,0,0,0,0,0,0,0,0,0,-1,636,582,0,0
-581,442,0,0,0,0,0,0,0,0,0,-1,643,582,0,0
-574,442,0,0,0,0,0,0,0,0,0,-1,650,582,0,0
-567,442,0,0,0,0,0,0,0,0,0,-1,657,582,0,0
-560,442,0,0,0,0,0,0,0,0,0,-1,664,582,0,0
-553,442,0,0,0,0,0,0,0,0,0,-1,671,582,0,0
-546,442,0,0,0,0,0,0,0,0,0,-1,678,582,0,0
-539,442,0,0,0,0,0,0,0,0,0,-1,685,582,0,0
-532,442,0,0,0,0,0,0,0,0,0,-1,692,582,0,0
-525,442,0,0,0,0,0,0,0,0,0,-1,699,582,0,0
-518,442,-0.126404,-3.20679,0,0,0,0,0,0,0,-1,706,582,-0.126424,3.20681
-511,442,-0.031311,-4.81323,0,0,0,0,0,0,0,-1,713,582,-0.0312987,4.81323
-504,442,-2.5697,-0.552979,0,0,0,0,0,0,0,-1,720,582,-2.56969,0.552966
-497,442,-2.37347,-0.425354,0,0,0,0,0,0,0,-1,727,582,-2.37347,0.42536
-490,442,-2.03333,-0.361023,0.0794793,0.0331938,-0.0250452,0.0904371,0.022236,-0.412429,0.0544155,0.0468826,734,582,-2.03331,0.360995
-483,442,-1.41931,-0.162659,0.0652494,0.0282519,-0.0195374,0.0736563,0.019845,-0.406349,0.0440069,0.0439457,741,582,-1.41929,0.162642
-476,442,-0.445313,-0.0135498,0.0528698,0.0233491,-0.0156109,0.0595936,0.0166253,-0.406698,0.0355092,0.0426504,748,582,-0.445298,0.0135635
-469,442,0.229248,-0.701233,0,0,0,0,0,0,0,-1,755,582,0.229227,0.701261
-462,442,0.202515,-0.888977,0.0340673,0.014405,-0.0111974,0.0391369,0.00933543,-0.425138,0.0236031,0.0342052,762,582,0.202499,0.888984
-455,442,0.166016,-1.04791,0.0268571,0.0109402,-0.00973649,0.0314739,0.00632343,-0.442772,0.0192246,0.0201775,769,582,0.165986,1.0479
-448,442,0.199402,-1.13922,0.0209011,0.00821376,-0.00812102,0.0248624,0.00425243,-0.45383,0.015355,0.0128751,776,582,0.199412,1.13923
-441,442,0.184509,-1.22864,0.0157846,0.00599333,-0.00638485,0.0189347,0.00284325,-0.458328,0.0117902,0.0135299,783,582,0.184493,1.22864
-434,442,0.180664,-1.32556,0.0112383,0.00415884,-0.00495739,0.01379,0.00160715,-0.475357,0.0087072,0.012072,790,582,0.180692,1.32557
-427,442,0.162476,-1.44116,0.00731889,0.00269593,-0.00353413,0.00923033,0.0007845,-0.495791,0.00590943,0.0126403,797,582,0.162453,1.44115
-420,442,0.182251,-1.53357,0.0043733,0.00185324,-0.00204524,0.00551549,0.000711051,-0.509318,0.00346439,0.0135175,804,582,0.182252,1.53354
-413,442,0.196289,-1.62854,0.00255111,0.00162445,-0.000793323,0.00300649,0.00116906,-0.521097,0.00175004,0.0110989,811,582,0.196272,1.62854
-406,442,0.18811,-1.74915,0.00090088,0.00177087,0.00041654,0.00193814,0.000733607,1.18893,0.00112994,0.00843764,818,582,0.18814,1.74913
-399,442,0.192566,-1.84564,-0.000353064,0.00238541,0.00127503,0.00288713,-0.000854793,1.1959,0.00226413,0.00816481,825,582,0.192538,1.84564
-392,442,0.202942,-1.91693,-0.00114071,0.003766,0.00205602,0.00451361,-0.00188833,1.22204,0.00379834,0.0102483,832,582,0.202933,1.91694
-385,442,0.198486,-1.99554,-0.00157637,0.00552108,0.00275738,0.00646642,-0.00252171,1.24051,0.00535329,0.0113012,839,582,0.198466,1.99555
-378,442,0.185669,-2.07782,-0.00208005,0.00801094,0.00349484,0.00910311,-0.00317222,1.2679,0.00735774,0.0115438,846,582,0.185648,2.07783
-371,442,0.187317,-2.16528,-0.00240681,0.0111014,0.00448051,0.0124524,-0.00375782,1.27794,0.00979742,0.0215292,853,582,0.187346,2.1653
-364,442,0.249817,-2.29761,-0.00276903,0.0149937,0.00546646,0.0165412,-0.00431651,1.29493,0.012713,0.0371457,860,582,0.249834,2.29763
-357,442,0.415344,-2.51813,-0.00342166,0.0197482,0.0066368,0.0215146,-0.00518805,1.31068,0.0163492,0.0474378,867,582,0.415333,2.5181
-350,442,0.315735,-2.40131,0,0,0,0,0,0,0,-1,874,582,0.315706,2.40128
-343,442,-0.485474,-1.85193,0,0,0,0,0,0,0,-1,881,582,-0.485446,1.8519
-336,442,0.204224,-2.23785,0,0,0,0,0,0,0,-1,888,582,0.204202,2.23783
-329,442,-2.1344,-2.30487,0,0,0,0,0,0,0,-1,895,582,-2.1344,2.30488
-322,442,-2.90216,-1.99756,0,0,0,0,0,0,0,-1,902,582,-2.90217,1.99758
-315,442,0.921936,-2.362,0,0,0,0,0,0,0,-1,909,582,0.921916,2.36199
-308,442,1.0802,-1.77789,0,0,0,0,0,0,0,-1,916,582,1.08019,1.77792
-301,442,-2.40161,-3.76801,0,0,0,0,0,0,0,-1,923,582,-2.40161,3.76802
-294,442,-3.0968,1.90643,0,0,0,0,0,0,0,-1,930,582,-3.09678,-1.90641
-287,442,-2.55713,-0.143311,0,0,0,0,0,0,0,-1,937,582,-2.55711,0.143336
-280,442,0,0,0,0,0,0,0,0,0,-1,944,582,0,0
-273,442,0,0,0,0,0,0,0,0,0,-1,951,582,0,0
-266,442,0,0,0,0,0,0,0,0,0,-1,958,582,0,0
-259,442,0,0,0,0,0,0,0,0,0,-1,965,582,0,0
-252,442,0,0,0,0,0,0,0,0,0,-1,972,582,0,0
-245,442,0,0,0,0,0,0,0,0,0,-1,979,582,0,0
-238,442,0,0,0,0,0,0,0,0,0,-1,986,582,0,0
-231,442,0,0,0,0,0,0,0,0,0,-1,993,582,0,0
-224,442,0,0,0,0,0,0,0,0,0,-1,1000,582,0,0
-217,442,0,0,0,0,0,0,0,0,0,-1,1007,582,0,0
-210,442,0,0,0,0,0,0,0,0,0,-1,1014,582,0,0
-203,442,0,0,0,0,0,0,0,0,0,-1,1021,582,0,0
-196,442,0,0,0,0,0,0,0,0,0,-1,1028,582,0,0
-189,442,0,0,0,0,0,0,0,0,0,-1,1035,582,0,0
-182,442,0,0,0,0,0,0,0,0,0,-1,1042,582,0,0
-175,442,0,0,0,0,0,0,0,0,0,-1,1049,582,0,0
-168,442,0,0,0,0,0,0,0,0,0,-1,1056,582,0,0
-161,442,0,0,0,0,0,0,0,0,0,-1,1063,582,0,0
-154,442,0,0,0,0,0,0,0,0,0,-1,1070,582,0,0
-147,442,0,0,0,0,0,0,0,0,0,-1,1077,582,0,0
-140,442,0,0,0,0,0,0,0,0,0,-1,1084,582,0,0
-133,442,0,0,0,0,0,0,0,0,0,-1,1091,582,0,0
-126,442,0,0,0,0,0,0,0,0,0,-1,1098,582,0,0
-119,442,0,0,0,0,0,0,0,0,0,-1,1105,582,0,0
-112,442,0,0,0,0,0,0,0,0,0,-1,1112,582,0,0
-105,442,0,0,0,0,0,0,0,0,0,-1,1119,582,0,0
-98,442,0,0,0,0,0,0,0,0,0,-1,1126,582,0,0
-91,442,0,0,0,0,0,0,0,0,0,-1,1133,582,0,0
-84,442,0,0,0,0,0,0,0,0,0,-1,1140,582,0,0
-77,442,0,0,0,0,0,0,0,0,0,-1,1147,582,0,0
-70,442,0,0,0,0,0,0,0,0,0,-1,1154,582,0,0
-63,442,0,0,0,0,0,0,0,0,0,-1,1161,582,0,0
-56,442,0,0,0,0,0,0,0,0,0,-1,1168,582,0,0
-49,442,0,0,0,0,0,0,0,0,0,-1,1175,582,0,0
-42,442,0,0,0,0,0,0,0,0,0,-1,1182,582,0,0
-35,442,0,0,0,0,0,0,0,0,0,-1,1189,582,0,0
-28,442,0,0,0,0,0,0,0,0,0,-1,1196,582,0,0
-21,442,0,0,0,0,0,0,0,0,0,-1,1203,582,0,0
-14,442,0,0,0,0,0,0,0,0,0,-1,1210,582,0,0
-7,442,0,0,0,0,0,0,0,0,0,-1,1217,582,0,0
0,442,0,0,0,0,0,0,0,0,0,-1,1224,582,0,0
7,442,0,0,0,0,0,0,0,0,0,-1,1231,582,0,0
14,442,0,0,0,0,0,0,0,0,0,-1,1238,582,0,0
21,442,0,0,0,0,0,0,0,0,0,-1,1245,582,0,0
28,442,0,0,0,0,0,0,0,0,0,-1,1252,582,0,0
35,442,0,0,0,0,0,0,0,0,0,-1,1259,582,0,0
42,442,0,0,0,0,0,0,0,0,0,-1,1266,582,0,0
49,442,0,0,0,0,0,0,0,0,0,-1,1273,582,0,0
56,442,0,0,0,0,0,0,0,0,0,-1,1280,582,0,0
63,442,0,0,0,0,0,0,0,0,0,-1,1287,582,0,0
70,442,0,0,0,0,0,0,0,0,0,-1,1294,582,0,0
77,442,0,0,0,0,0,0,0,0,0,-1,1301,582,0,0
84,442,0,0,0,0,0,0,0,0,0,-1,1308,582,0,0
91,442,0,0,0,0,0,0,0,0,0,-1,1315,582,0,0
98,442,0,0,0,0,0,0,0,0,0,-1,1322,582,0,0
105,442,0,0,0,0,0,0,0,0,0,-1,1329,582,0,0
112,442,0,0,0,0,0,0,0,0,0,-1,1336,582,0,0
119,442,0,0,0,0,0,0,0,0,0,-1,1343,582,0,0
126,442,0,0,0,0,0,0,0,0,0,-1,1350,582,0,0
133,442,0,0,0,0,0,0,0,0,0,-1,1357,582,0,0
140,442,0,0,0,0,0,0,0,0,0,-1,1364,582,0,0
147,442,0,0,0,0,0,0,0,0,0,-1,1371,582,0,0
154,442,0,0,0,0,0,0,0,0,0,-1,1378,582,0,0
161,442,0,0,0,0,0,0,0,0,0,-1,1385,582,0,0
168,442,0,0,0,0,0,0,0,0,0,-1,1392,582,0,0
175,442,0,0,0,0,0,0,0,0,0,-1,1399,582,0,0
182,442,0,0,0,0,0,0,0,0,0,-1,1406,582,0,0
189,442,0,0,0,0,0,0,0,0,0,-1,1413,582,0,0
196,442,0,0,0,0,0,0,0,0,0,-1,1420,582,0,0
203,442,0,0,0,0,0,0,0,0,0,-1,1427,582,0,0
210,442,0,0,0,0,0,0,0,0,0,-1,1434,582,0,0
217,442,0,0,0,0,0,0,0,0,0,-1,1441,582,0,0
224,442,0,0,0,0,0,0,0,0,0,-1,1448,582,0,0
231,442,0,0,0,0,0,0,0,0,0,-1,1455,582,0,0
238,442,0,0,0,0,0,0,0,0,0,-1,1462,582,0,0
245,442,0,0,0,0,0,0,0,0,0,-1,1469,582,0,0
252,442,0,0,0,0,0,0,0,0,0,-1,1476,582,0,0
259,442,0,0,0,0,0,0,0,0,0,-1,1483,582,0,0
266,442,0,0,0,0,0,0,0,0,0,-1,1490,582,0,0
273,442,0,0,0,0,0,0,0,0,0,-1,1497,582,0,0
280,442,0,0,0,0,0,0,0,0,0,-1,1504,582,0,0
287,442,0,0,0,0,0,0,0,0,0,-1,1511,582,0,0
294,442,0,0,0,0,0,0,0,0,0,-1,1518,582,0,0
301,442,0,0,0,0,0,0,0,0,0,-1,1525,582,0,0
308,442,0,0,0,0,0,0,0,0,0,-1,1532,582,0,0
315,442,0,0,0,0,0,0,0,0,0,-1,1539,582,0,0
322,442,0,0,0,0,0,0,0,0,0,-1,1546,582,0,0
329,442,0,0,0,0,0,0,0,0,0,-1,1553,582,0,0
336,442,0,0,0,0,0,0,0,0,0,-1,1560,582,0,0
343,442,0,0,0,0,0,0,0,0,0,-1,1567,582,0,0
350,442,0,0,0,0,0,0,0,0,0,-1,1574,582,0,0
357,442,0,0,0,0,0,0,0,0,0,-1,1581,582,0,0
364,442,0,0,0,0,0,0,0,0,0,-1,1588,582,0,0
371,442,0,0,0,0,0,0,0,0,0,-1,1595,582,0,0
378,442,0,0,0,0,0,0,0,0,0,-1,1602,582,0,0
385,442,0,0,0,0,0,0,0,0,0,-1,1609,582,0,0
392,442,0,0,0,0,0,0,0,0,0,-1,1616,582,0,0
399,442,0,0,0,0,0,0,0,0,0,-1,1623,582,0,0
406,442,3.7196,2.52588,0,0,0,0,0,0,0,-1,1630,582,3.71965,-2.52587
413,442,3.66699,2.87408,0,0,0,0,0,0,0,-1,1637,582,3.66703,-2.87408
420,442,4.69055,3.09448,0,0,0,0,0,0,0,-1,1644,582,4.69054,-3.0945
427,442,2.44519,-1.35358,0,0,0,0,0,0,0,-1,1651,582,2.44514,1.35361
434,442,8.45898,-3.86719,0,0,0,0,0,0,0,-1,1658,582,8.45904,3.86719
441,442,4.89368,-7.42456,0,0,0,0,0,0,0,-1,1665,582,4.89365,7.42457
448,442,4.7749,-5.88562,0,0,0,0,0,0,0,-1,1672,582,4.7749,5.8856
455,442,4.87024,-4.60687,0,0,0,0,0,0,0,-1,1679,582,4.87019,4.60686
462,442,5.02307,-3.72821,0,0,0,0,0,0,0,-1,1686,582,5.02311,3.7282
469,442,5.12976,-2.98834,0,0,0,0,0,0,0,-1,1693,582,5.12971,2.98834
476,442,5.4624,1.76947,0,0,0,0,0,0,0,-1,1700,582,5.46234,-1.76944
483,442,5.98486,1.87042,0,0,0,0,0,0,0,-1,1707,582,5.98492,-1.87045
490,442,4.81091,-1.82758,0,0,0,0,0,0,0,-1,1714,582,4.8109,1.82756
497,442,4.78674,-1.63135,0.00446574,0.00194009,-0.0230018,0.0262393,-0.0198335,-0.757975,0.0266857,0.0464275,1721,582,4.78671,1.63134
504,442,4.64478,-1.60681,0.00239075,0.000764812,-0.0172033,0.0188003,-0.0156448,-0.761787,0.0199147,0.0321772,1728,582,4.64481,1.60681
511,442,4.54028,-1.56647,0.000461406,6.34643e-05,-0.0121844,0.0124485,-0.0119236,-0.777234,0.0140723,0.013987,1735,582,4.5403,1.56646
518,442,4.58362,-1.45013,-0.000309192,-0.000630883,-0.00826765,0.00779918,-0.00873925,-0.775672,0.00955361,0.010315,1742,582,4.58363,1.45015
525,442,4.58276,-1.35663,-0.000727872,-0.00116276,-0.00498628,0.00404571,-0.00593634,-0.763608,0.00579749,0.00990727,1749,582,4.58274,1.35665
532,442,4.60205,-1.26447,-0.000690181,-0.000919857,-0.0017268,0.0009256,-0.00253564,-0.752195,0.00206916,0.00993834,1756,582,4.60204,1.26448
539,442,4.57715,-1.13416,-6.81699e-05,-0.000821247,0.000306368,4.07221e-05,-0.000930139,0.341503,0.000634103,0.0104695,1763,582,4.57711,1.13414
546,442,4.5658,-1.01276,0.00139358,-1.18423e-06,0.00131739,0.00218679,-0.00079439,0.541966,0.00178266,0.0128981,1770,582,4.56579,1.01274
553,442,4.56653,-0.923767,0.00291855,0.00101295,0.00249808,0.00463936,-0.000707865,0.603208,0.00335386,0.0143183,1777,582,4.56658,0.923772
560,442,4.5835,-0.823059,0.00461872,0.00202657,0.00376316,0.00730274,-0.000657452,0.619554,0.00510178,0.01554,1784,582,4.58351,0.823038
567,442,4.55493,-0.706482,0.00655125,0.00303201,0.00513189,0.0102168,-0.000633546,0.620239,0.00703191,0.0106451,1791,582,4.55496,0.706457
574,442,4.57556,-0.611267,0.00884814,0.00437371,0.00686523,0.0138315,-0.000609639,0.627886,0.00943077,0.0117939,1798,582,4.57554,0.611292
581,442,4.60986,-0.497681,0.0109247,0.00584393,0.00879891,0.0175426,-0.000773975,0.644861,0.0119614,0.0133795,1805,582,4.60986,0.497659
588,442,4.57446,-0.414246,0.0130424,0.00744026,0.0107184,0.0213196,-0.000837,0.65759,0.0145001,0.0162486,1812,582,4.5744,0.414218
595,442,4.55493,-0.308533,0.0148734,0.00902407,0.012638,0.0249207,-0.00102323,0.671691,0.0169652,0.0307374,1819,582,4.55497,0.308519
602,442,4.89636,-0.224609,0.0164474,0.0111357,0.0149182,0.0289443,-0.00136119,0.697307,0.0197655,0.043169,1826,582,4.89641,0.224615
609,442,5.06055,-0.0805664,0,0,0,0,0,0,0,-1,1833,582,5.06059,0.0805534
616,442,5.69983,-0.121155,0,0,0,0,0,0,0,-1,1840,582,5.69982,0.121137
623,442,6.01685,-0.329407,0,0,0,0,0,0,0,-1,1847,582,6.0169,0.329402
630,442,6.40735,-0.248657,0,0,0,0,0,0,0,-1,1854,582,6.4073,0.24863
637,442,5.87805,1.84027,0,0,0,0,0,0,0,-1,1861,582,5.87807,-1.84025
644,442,0,0,0,0,0,0,0,0,0,-1,1868,582,0,0
651,442,0,0,0,0,0,0,0,0,0,-1,1875,582,0,0
658,442,0,0,0,0,0,0,0,0,0,-1,1882,582,0,0
665,442,0,0,0,0,0,0,0,0,0,-1,1889,582,0,0
672,442,0,0,0,0,0,0,0,0,0,-1,1896,582,0,0
679,442,0,0,0,0,0,0,0,0,0,-1,1903,582,0,0
686,442,0,0,0,0,0,0,0,0,0,-1,1910,582,0,0
693,442,0,0,0,0,0,0,0,0,0,-1,1917,582,0,0
700,442,0,0,0,0,0,0,0,0,0,-1,1924,582,0,0
707,442,0,0,0,0,0,0,0,0,0,-1,1931,582,0,0
714,442,0,0,0,0,0,0,0,0,0,-1,1938,582,0,0
721,442,0,0,0,0,0,0,0,0,0,-1,1945,582,0,0
728,442,0,0,0,0,0,0,0,0,0,-1,1952,582,0,0
735,442,0,0,0,0,0,0,0,0,0,-1,1959,582,0,0
742,442,0,0,0,0,0,0,0,0,0,-1,1966,582,0,0
749,442,0,0,0,0,0,0,0,0,0,-1,1973,582,0,0
756,442,0,0,0,0,0,0,0,0,0,-1,1980,582,0,0
763,442,0,0,0,0,0,0,0,0,0,-1,1987,582,0,0
770,442,0,0,0,0,0,0,0,0,0,-1,1994,582,0,0
777,442,0,0,0,0,0,0,0,0,0,-1,2001,582,0,0
784,442,0,0,0,0,0,0,0,0,0,-1,2008,582,0,0
791,442,0,0,0,0,0,0,0,0,0,-1,2015,582,0,0
798,442,0,0,0,0,0,0,0,0,0,-1,2022,582,0,0
805,442,0,0,0,0,0,0,0,0,0,-1,2029,582,0,0
812,442,0,0,0,0,0,0,0,0,0,-1,2036,582,0,0
-700,435,0,0,0,0,0,0,0,0,0,-1,524,589,0,0
-693,435,0,0,0,0,0,0,0,0,0,-1,531,589,0,0
-686,435,0,0,0,0,0,0,0,0,0,-1,538,589,0,0
-679,435,0,0,0,0,0,0,0,0,0,-1,545,589,0,0
-672,435,0,0,0,0,0,0,0,0,0,-1,552,589,0,0
-665,435,0,0,0,0,0,0,0,0,0,-1,559,589,0,0
-658,435,0,0,0,0,0,0,0,0,0,-1,566,589,0,0
-651,435,0,0,0,0,0,0,0,0,0,-1,573,589,0,0
-644,435,0,0,0,0,0,0,0,0,0,-1,580,589,0,0
-637,435,0,0,0,0,0,0,0,0,0,-1,587,589,0,0
-630,435,0,0,0,0,0,0,0,0,0,-1,594,589,0,0
-623,435,0,0,0,0,0,0,0,0,0,-1,601,589,0,0
-616,435,0,0,0,0,0,0,0,0,0,-1,608,589,0,0
-609,435,0,0,0,0,0,0,0,0,0,-1,615,589,0,0
-602,435,0,0,0,0,0,0,0,0,0,-1,622,589,0,0
-595,435,0,0,0,0,0,0,0,0,0,-1,629,589,0,0
-588,435,0,0,0,0,0,0,0,0,0,-1,636,589,0,0
-581,435,0,0,0,0,0,0,0,0,0,-1,643,589,0,0
-574,435,0,0,0,0,0,0,0,0,0,-1,650,589,0,0
-567,435,0,0,0,0,0,0,0,0,0,-1,657,589,0,0
-560,435,0,0,0,0,0,0,0,0,0,-1,664,589,0,0
-553,435,0,0,0,0,0,0,0,0,0,-1,671,589,0,0
-546,435,0,0,0,0,0,0,0,0,0,-1,678,589,0,0
-539,435,0,0,0,0,0,0,0,0,0,-1,685,589,0,0
-532,435,0,0,0,0,0,0,0,0,0,-1,692,589,0,0
-525,435,0.0474243,-2.50568,0,0,0,0,0,0,0,-1,699,589,0.047415,2.50567
-518,435,-0.233276,-2.91571,0,0,0,0,0,0,0,-1,706,589,-0.233267,2.91568
-511,435,-0.171082,-3.72546,0,0,0,0,0,0,0,-1,713,589,-0.171086,3.72546
-504,435,-0.284546,-0.455383,0,0,0,0,0,0,0,-1,720,589,-0.284534,0.45536
-497,435,-2.59058,-1.11658,0,0,0,0,0,0,0,-1,727,589,-2.59059,1.11656
-490,435,-2.43329,-0.808777,0,0,0,0,0,0,0,-1,734,589,-2.43327,0.808787
-483,435,-0.587891,-0.341797,0,0,0,0,0,0,0,-1,741,589,-0.58791,0.341771
-476,435,-0.294739,-0.489563,0.0372948,0.0181223,-0.0114088,0.0426101,0.012807,-0.435994,0.0252449,0.0413371,748,589,-0.294749,0.489563
-469,435,0.0184937,-0.738586,0.0290681,0.0149137,-0.00894005,0.0333932,0.0105886,-0.45059,0.0197049,0.0279731,755,589,0.0185155,0.738609
-462,435,0.100159,-0.899963,0.02299,0.0109286,-0.00759678,0.0266588,0.00725976,-0.449908,0.0159145,0.0142133,762,589,0.100161,0.899943
-455,435,0.0752563,-1.01233,0.0177426,0.00807947,-0.00660769,0.0210967,0.00472534,-0.469717,0.0127839,0.0120099,769,589,0.0752264,1.01231
-448,435,0.0871582,-1.13287,0.013528,0.00587795,-0.00549921,0.0164017,0.00300432,-0.481528,0.0100833,0.0118114,776,589,0.0871384,1.13287
-441,435,0.0845947,-1.22797,0.00983889,0.0040462,-0.00422722,0.0120668,0.00181827,-0.485048,0.00751217,0.0102519,783,589,0.0845713,1.22798
-434,435,0.0787964,-1.30536,0.00640054,0.00256321,-0.00314646,0.00816718,0.000796571,-0.511606,0.00519964,0.0118619,790,589,0.0787896,1.30537
-427,435,0.0728149,-1.4314,0.00341142,0.00140775,-0.00200832,0.00465392,0.000165259,-0.554037,0.00304902,0.00987574,797,589,0.0728087,1.43142
-420,435,0.0985107,-1.52753,0.00125908,0.000788684,-0.000739627,0.0018,0.000247759,-0.631457,0.00112653,0.010113,804,589,0.0985176,1.52753
-413,435,0.0977173,-1.62366,7.52088e-05,0.000771305,0.000386104,0.000943078,-9.65641e-05,1.1522,0.000663254,0.0104933,811,589,0.0977382,1.62367
-406,435,0.0904541,-1.74896,-0.000984068,0.00120406,0.00145817,0.00193297,-0.00171298,1.10724,0.00210627,0.00985306,818,589,0.0904728,1.74895
-399,435,0.0912476,-1.84027,-0.00176305,0.00234104,0.00229328,0.00336633,-0.00278834,1.15037,0.00355862,0.00838517,825,589,0.0912345,1.84026
-392,435,0.0931396,-1.91504,-0.00217545,0.00453886,0.00317484,0.00580232,-0.00343891,1.19205,0.00539328,0.00944396,832,589,0.0931191,1.91503
-385,435,0.0841675,-2.01654,-0.00233526,0.00709203,0.00404723,0.00859116,-0.00383439,1.21606,0.00734703,0.0111667,839,589,0.0841836,2.01655
-378,435,0.0855103,-2.08246,-0.00257619,0.0105842,0.00500815,0.0122732,-0.00426524,1.24551,0.0099146,0.0177905,846,589,0.0854993,2.08248
-371,435,0.0170288,-2.20129,-0.00253387,0.0150867,0.00617209,0.0170336,-0.00448071,1.26525,0.0131071,0.0361293,853,589,0.0170461,2.20127
-364,435,0.182007,-2.34021,-0.00242948,0.0207527,0.00736964,0.0228972,-0.00457393,1.28763,0.0169958,0.0444414,860,589,0.181995,2.34022
-357,435,0.427673,-2.66248,0,0,0,0,0,0,0,-1,867,589,0.427645,2.6625
-350,435,0.644592,-2.28174,0,0,0,0,0,0,0,-1,874,589,0.644567,2.28173
-343,435,-0.785706,-2.49414,0,0,0,0,0,0,0,-1,881,589,-0.785727,2.49415
-336,435,-1.73907,-2.94812,0,0,0,0,0,0,0,-1,888,589,-1.73909,2.94814
-329,435,-2.60339,-2.24646,0,0,0,0,0,0,0,-1,895,589,-2.6034,2.24646
-322,435,-3.5188,-1.74097,0,0,0,0,0,0,0,-1,902,589,-3.51877,1.74099
-315,435,-4.17291,-1.46002,0,0,0,0,0,0,0,-1,909,589,-4.17292,1.46003
-308,435,-4.84741,-1.23492,0,0,0,0,0,0,0,-1,916,589,-4.84741,1.23493
-301,435,-1.97314,0.755493,0,0,0,0,0,0,0,-1,923,589,-1.97312,-0.755488
-294,435,-2.33508,1.51563,0,0,0,0,0,0,0,-1,930,589,-2.33511,-1.51564
-287,435,0,0,0,0,0,0,0,0,0,-1,937,589,0,0
-280,435,0,0,0,0,0,0,0,0,0,-1,944,589,0,0
-273,435,0,0,0,0,0,0,0,0,0,-1,951,589,0,0
-266,435,0,0,0,0,0,0,0,0,0,-1,958,589,0,0
-259,435,0,0,0,0,0,0,0,0,0,-1,965,589,0,0
-252,435,0,0,0,0,0,0,0,0,0,-1,972,589,0,0
-245,435,0,0,0,0,0,0,0,0,0,-1,979,589,0,0
-238,435,0,0,0,0,0,0,0,0,0,-1,986,589,0,0
-231,435,0,0,0,0,0,0,0,0,0,-1,993,589,0,0
-224,435,0,0,0,0,0,0,0,0,0,-1,1000,589,0,0
-217,435,0,0,0,0,0,0,0,0,0,-1,1007,589,0,0
-210,435,0,0,0,0,0,0,0,0,0,-1,1014,589,0,0
-203,435,0,0,0,0,0,0,0,0,0,-1,1021,589,0,0
-196,435,0,0,0,0,0,0,0,0,0,-1,1028,589,0,0
-189,435,0,0,0,0,0,0,0,0,0,-1,1035,589,0,0
-182,435,0,0,0,0,0,0,0,0,0,-1,1042,589,0,0
-175,435,0,0,0,0,0,0,0,0,0,-1,1049,589,0,0
-168,435,0,0,0,0,0,0,0,0,0,-1,1056,589,0,0
-161,435,0,0,0,0,0,0,0,0,0,-1,1063,589,0,0
-154,435,0,0,0,0,0,0,0,0,0,-1,1070,589,0,0
-147,435,0,0,0,0,0,0,0,0,0,-1,1077,589,0,0
-140,435,0,0,0,0,0,0,0,0,0,-1,1084,589,0,0
-133,435,0,0,0,0,0,0,0,0,0,-1,1091,589,0,0
-126,435,0,0,0,0,0,0,0,0,0,-1,1098,589,0,0
-119,435,0,0,0,0,0,0,0,0,0,-1,1105,589,0,0
-112,435,0,0,0,0,0,0,0,0,0,-1,1112,589,0,0
-105,435,0,0,0,0,0,0,0,0,0,-1,1119,589,0,0
-98,435,0,0,0,0,0,0,0,0,0,-1,1126,589,0,0
-91,435,0,0,0,0,0,0,0,0,0,-1,1133,589,0,0
-84,435,0,0,0,0,0,0,0,0,0,-1,1140,589,0,0
-77,435,0,0,0,0,0,0,0,0,0,-1,1147,589,0,0
-70,435,0,0,0,0,0,0,0,0,0,-1,1154,589,0,0
-63,435,0,0,0,0,0,0,0,0,0,-1,1161,589,0,0
-56,435,0,0,0,0,0,0,0,0,0,-1,1168,589,0,0
-49,435,0,0,0,0,0,0,0,0,0,-1,1175,589,0,0
-42,435,0,0,0,0,0,0,0,0,0,-1,1182,589,0,0
-35,435,0,0,0,0,0,0,0,0,0,-1,1189,589,0,0
-28,435,0,0,0,0,0,0,0,0,0,-1,1196,589,0,0
-21,435,0,0,0,0,0,0,0,0,0,-1,1203,589,0,0
-14,435,0,0,0,0,0,0,0,0,0,-1,1210,589,0,0
-7,435,0,0,0,0,0,0,0,0,0,-1,1217,589,0,0
0,435,0,0,0,0,0,0,0,0,0,-1,1224,589,0,0
7,435,0,0,0,0,0,0,0,0,0,-1,1231,589,0,0
14,435,0,0,0,0,0,0,0,0,0,-1,1238,589,0,0
21,435,0,0,0,0,0,0,0,0,0,-1,1245,589,0,0
28,435,0,0,0,0,0,0,0,0,0,-1,1252,589,0,0
35,435,0,0,0,0,0,0,0,0,0,-1,1259,589,0,0
42,435,0,0,0,0,0,0,0,0,0,-1,1266,589,0,0
49,435,0,0,0,0,0,0,0,0,0,-1,1273,589,0,0
56,435,0,0,0,0,0,0,0,0,0,-1,1280,589,0,0
63,435,0,0,0,0,0,0,0,0,0,-1,1287,589,0,0
70,435,0,0,0,0,0,0,0,0,0,-1,1294,589,0,0
77,435,0,0,0,0,0,0,0,0,0,-1,1301,589,0,0
84,435,0,0,0,0,0,0,0,0,0,-1,1308,589,0,0
91,435,0,0,0,0,0,0,0,0,0,-1,1315,589,0,0
98,435,0,0,0,0,0,0,0,0,0,-1,1322,589,0,0
105,435,0,0,0,0,0,0,0,0,0,-1,1329,589,0,0
112,435,0,0,0,0,0,0,0,0,0,-1,1336,589,0,0
119,435,0,0,0,0,0,0,0,0,0,-1,1343,589,0,0
126,435,0,0,0,0,0,0,0,0,0,-1,1350,589,0,0
133,435,0,0,0,0,0,0,0,0,0,-1,1357,589,0,0
140,435,0,0,0,0,0,0,0,0,0,-1,1364,589,0,0
147,435,0,0,0,0,0,0,0,0,0,-1,1371,589,0,0
154,435,0,0,0,0,0,0,0,0,0,-1,1378,589,0,0
161,435,0,0,0,0,0,0,0,0,0,-1,1385,589,0,0
168,435,0,0,0,0,0,0,0,0,0,-1,1392,589,0,0
175,435,0,0,0,0,0,0,0,0,0,-1,1399,589,0,0
182,435,0,0,0,0,0,0,0,0,0,-1,1406,589,0,0
189,435,0,0,0,0,0,0,0,0,0,-1,1413,589,0,0
196,435,0,0,0,0,0,0,0,0,0,-1,1420,589,0,0
203,435,0,0,0,0,0,0,0,0,0,-1,1427,589,0,0
210,435,0,0,0,0,0,0,0,0,0,-1,1434,589,0,0
217,435,0,0,0,0,0,0,0,0,0,-1,1441,589,0,0
224,435,0,0,0,0,0,0,0,0,0,-1,1448,589,0,0
231,435,0,0,0,0,0,0,0,0,0,-1,1455,589,0,0
238,435,0,0,0,0,0,0,0,0,0,-1,1462,589,0,0
245,435,0,0,0,0,0,0,0,0,0,-1,1469,589,0,0
252,435,0,0,0,0,0,0,0,0,0,-1,1476,589,0,0
259,435,0,0,0,0,0,0,0,0,0,-1,1483,589,0,0
266,435,0,0,0,0,0,0,0,0,0,-1,1490,589,0,0
273,435,0,0,0,0,0,0,0,0,0,-1,1497,589,0,0
280,435,0,0,0,0,0,0,0,0,0,-1,1504,589,0,0
287,435,0,0,0,0,0,0,0,0,0,-1,1511,589,0,0
294,435,0,0,0,0,0,0,0,0,0,-1,1518,589,0,0
301,435,0,0,0,0,0,0,0,0,0,-1,1525,589,0,0
308,435,0,0,0,0,0,0,0,0,0,-1,1532,589,0,0
315,435,0,0,0,0,0,0,0,0,0,-1,1539,589,0,0
322,435,0,0,0,0,0,0,0,0,0,-1,1546,589,0,0
329,435,0,0,0,0,0,0,0,0,0,-1,1553,589,0,0
336,435,0,0,0,0,0,0,0,0,0,-1,1560,589,0,0
343,435,0,0,0,0,0,0,0,0,0,-1,1567,589,0,0
350,435,0,0,0,0,0,0,0,0,0,-1,1574,589,0,0
357,435,0,0,0,0,0,0,0,0,0,-1,1581,589,0,0
364,435,0,0,0,0,0,0,0,0,0,-1,1588,589,0,0
371,435,0,0,0,0,0,0,0,0,0,-1,1595,589,0,0
378,435,0,0,0,0,0,0,0,0,0,-1,1602,589,0,0
385,435,0,0,0,0,0,0,0,0,0,-1,1609,589,0,0
392,435,0,0,0,0,0,0,0,0,0,-1,1616,589,0,0
399,435,0,0,0,0,0,0,0,0,0,-1,1623,589,0,0
406,435,0,0,0,0,0,0,0,0,0,-1,1630,589,0,0
413,435,3.62073,3.42682,0,0,0,0,0,0,0,-1,1637,589,3.62069,-3.4268
420,435,3.6062,3.71564,0,0,0,0,0,0,0,-1,1644,589,3.60616,-3.71562
427,435,3.11963,0.640198,0,0,0,0,0,0,0,-1,1651,589,3.11967,-0.640192
434,435,2.72107,-1.34802,0,0,0,0,0,0,0,-1,1658,589,2.7211,1.34803
441,435,7.33191,-1.57452,0,0,0,0,0,0,0,-1,1665,589,7.33193,1.57452
448,435,7.4585,-0.00292969,0,0,0,0,0,0,0,-1,1672,589,7.45848,0.00294131
455,435,5.49915,-5.047,0,0,0,0,0,0,0,-1,1679,589,5.49914,5.04703
462,435,5.60669,-4.71466,0,0,0,0,0,0,0,-1,1686,589,5.60675,4.71469
469,435,5.87708,1.22351,0,0,0,0,0,0,0,-1,1693,589,5.87703,-1.22351
476,435,6.14136,1.37714,0.0211978,0.00829306,-0.0514625,0.0666109,-0.03712,-0.723033,0.0606905,0.0456919,1700,589,6.14138,-1.37712
483,435,6.49243,1.36169,0.0168885,0.00634712,-0.0443471,0.056277,-0.0330414,-0.72625,0.0521464,0.0478119,1707,589,6.49242,-1.36171
490,435,4.38391,-1.36218,0,0,0,0,0,0,0,-1,1714,589,4.38389,1.3622
497,435,4.58264,-1.50446,0.0088942,0.00249736,-0.029929,0.0357952,-0.0244036,-0.732167,0.0349626,0.0496944,1721,589,4.5826,1.50445
504,435,4.89282,-1.5694,0.00556873,0.000985503,-0.023187,0.0265771,-0.0200229,-0.736142,0.026993,0.0418823,1728,589,4.8928,1.56937
511,435,4.57654,-1.5177,0.00231714,6.55931e-06,-0.0170756,0.0182765,-0.0159528,-0.751621,0.0197775,0.0269878,1735,589,4.5766,1.5177
518,435,4.68054,-1.44806,0.000391014,-0.0010613,-0.0121148,0.0118014,-0.0124717,-0.755464,0.0140159,0.0113417,1742,589,4.68053,1.44803
525,435,4.69165,-1.34509,-0.0012582,-0.00204533,-0.00785077,0.00620886,-0.0095124,-0.760354,0.00914323,0.0112249,1749,589,4.69166,1.3451
532,435,4.71106,-1.24091,-0.0021076,-0.00201826,-0.0035809,0.00151825,-0.00564411,-0.791635,0.00435789,0.0134745,1756,589,4.71102,1.2409
539,435,4.70691,-1.11664,-0.00198839,-0.00199639,-0.00107121,-0.000921172,-0.00306361,-0.78353,0.00181502,0.0144689,1763,589,4.70691,1.11666
546,435,4.68445,-1.01721,-0.00084744,-0.00112035,-0.000231879,-0.000714845,-0.00125294,-0.519448,0.000725782,0.0131798,1770,589,4.6845,1.01724
553,435,4.68359,-0.918884,0.000290341,-0.000125419,0.000717273,0.00082925,-0.000664329,0.644353,0.000864069,0.00986589,1777,589,4.68354,0.918886
560,435,4.67871,-0.815918,0.00157685,0.000764804,0.00169318,0.00291201,-0.000570351,0.66772,0.00215674,0.00992922,1784,589,4.6787,0.815932
567,435,4.68567,-0.697388,0.00299192,0.00156246,0.00269234,0.00506279,-0.000508401,0.655656,0.00355679,0.00960989,1791,589,4.68562,0.697365
574,435,4.68225,-0.60614,0.00466896,0.00258183,0.004007,0.00776605,-0.000515264,0.65801,0.00535739,0.0100546,1798,589,4.68226,0.606114
581,435,4.66309,-0.508362,0.00604063,0.00365656,0.00544678,0.0104243,-0.000727099,0.677671,0.00720414,0.0164706,1805,589,4.66304,0.508358
588,435,4.65698,-0.400024,0.00733171,0.00470103,0.00673718,0.0128807,-0.000848013,0.688993,0.00888333,0.0171875,1812,589,4.657,0.400012
595,435,4.6355,-0.295776,0.00812273,0.00562291,0.00783551,0.0148074,-0.00106175,0.706305,0.0102439,0.0187708,1819,589,4.63548,0.29576
602,435,4.57568,-0.151855,0.00859824,0.00698941,0.00905658,0.0168861,-0.00129841,0.741104,0.0117142,0.0385909,1826,589,4.57566,0.151839
609,435,4.76758,-0.482361,0,0,0,0,0,0,0,-1,1833,589,4.76763,0.482349
616,435,4.80713,-1.92474,0,0,0,0,0,0,0,-1,1840,589,4.80718,1.92475
623,435,5.10889,-2.32782,0,0,0,0,0,0,0,-1,1847,589,5.10892,2.32784
630,435,4.72742,-0.87561,0,0,0,0,0,0,0,-1,1854,589,4.7274,0.875636
637,435,5.05286,1.48792,0,0,0,0,0,0,0,-1,1861,589,5.05291,-1.48792
644,435,0,0,0,0,0,0,0,0,0,-1,1868,589,0,0
651,435,0,0,0,0,0,0,0,0,0,-1,1875,589,0,0
658,435,0,0,0,0,0,0,0,0,0,-1,1882,589,0,0
665,435,0,0,0,0,0,0,0,0,0,-1,1889,589,0,0
672,435,0,0,0,0,0,0,0,0,0,-1,1896,589,0,0
679,435,0,0,0,0,0,0,0,0,0,-1,1903,589,0,0
686,435,0,0,0,0,0,0,0,0,0,-1,1910,589,0,0
693,435,0,0,0,0,0,0,0,0,0,-1,1917,589,0,0
700,435,0,0,0,0,0,0,0,0,0,-1,1924,589,0,0
707,435,0,0,0,0,0,0,0,0,0,-1,1931,589,0,0
714,435,0,0,0,0,0,0,0,0,0,-1,1938,589,0,0
721,435,0,0,0,0,0,0,0,0,0,-1,1945,589,0,0
728,435,0,0,0,0,0,0,0,0,0,-1,1952,589,0,0
735,435,0,0,0,0,0,0,0,0,0,-1,1959,589,0,0
742,435,0,0,0,0,0,0,0,0,0,-1,1966,589,0,0
749,435,0,0,0,0,0,0,0,0,0,-1,1973,589,0,0
756,435,0,0,0,0,0,0,0,0,0,-1,1980,589,0,0
763,435,0,0,0,0,0,0,0,0,0,-1,1987,589,0,0
770,435,0,0,0,0,0,0,0,0,0,-1,1994,589,0,0
777,435,0,0,0,0,0,0,0,0,0,-1,2001,589,0,0
784,435,0,0,0,0,0,0,0,0,0,-1,2008,589,0,0
791,435,0,0,0,0,0,0,0,0,0,-1,2015,589,0,0
798,435,0,0,0,0,0,0,0,0,0,-1,2022,589,0,0
805,435,0,0,0,0,0,0,0,0,0,-1,2029,589,0,0
812,435,0,0,0,0,0,0,0,0,0,-1,2036,589,0,0
-700,428,0,0,0,0,0,0,0,0,0,-1,524,596,0,0
-693,428,0,0,0,0,0,0,0,0,0,-1,531,596,0,0
-686,428,0,0,0,0,0,0,0,0,0,-1,538,596,0,0
-679,428,0,0,0,0,0,0,0,0,0,-1,545,596,0,0
-672,428,0,0,0,0,0,0,0,0,0,-1,552,596,0,0
-665,428,0,0,0,0,0,0,0,0,0,-1,559,596,0,0
-658,428,0,0,0,0,0,0,0,0,0,-1,566,596,0,0
-651,428,0,0,0,0,0,0,0,0,0,-1,573,596,0,0
-644,428,0,0,0,0,0,0,0,0,0,-1,580,596,0,0
-637,428,0,0,0,0,0,0,0,0,0,-1,587,596,0,0
-630,428,0,0,0,0,0,0,0,0,0,-1,594,596,0,0
-623,428,0,0,0,0,0,0,0,0,0,-1,601,596,0,0
-616,428,0,0,0,0,0,0,0,0,0,-1,608,596,0,0
-609,428,0,0,0,0,0,0,0,0,0,-1,615,596,0,0
-602,428,0,0,0,0,0,0,0,0,0,-1,622,596,0,0
-595,428,0,0,0,0,0,0,0,0,0,-1,629,596,0,0
-588,428,0,0,0,0,0,0,0,0,0,-1,636,596,0,0
-581,428,0,0,0,0,0,0,0,0,0,-1,643,596,0,0
-574,428,0,0,0,0,0,0,0,0,0,-1,650,596,0,0
-567,428,0,0,0,0,0,0,0,0,0,-1,657,596,0,0
-560,428,0,0,0,0,0,0,0,0,0,-1,664,596,0,0
-553,428,0,0,0,0,0,0,0,0,0,-1,671,596,0,0
-546,428,0,0,0,0,0,0,0,0,0,-1,678,596,0,0
-539,428,0,0,0,0,0,0,0,0,0,-1,685,596,0,0
-532,428,0,0,0,0,0,0,0,0,0,-1,692,596,0,0
-525,428,-0.153137,-1.5069,0,0,0,0,0,0,0,-1,699,596,-0.153152,1.50688
-518,428,-0.247437,-2.3147,0,0,0,0,0,0,0,-1,706,596,-0.247436,2.31472
-511,428,-0.292175,-3.08929,0,0,0,0,0,0,0,-1,713,596,-0.292156,3.08926
-504,428,-0.88269,-3.50092,0,0,0,0,0,0,0,-1,720,596,-0.882701,3.50092
-497,428,-0.282349,-0.554993,0,0,0,0,0,0,0,-1,727,596,-0.282346,0.554977
-490,428,-0.40271,-0.386719,0.0452454,0.0207749,-0.0169828,0.0539414,0.0120789,-0.473238,0.0326872,0.0439898,734,596,-0.402709,0.386709
-483,428,-0.330078,-0.513062,0.0343224,0.0171297,-0.0118174,0.0403393,0.0111128,-0.470949,0.0240598,0.0407374,741,596,-0.330067,0.513053
-476,428,-0.17981,-0.651245,0.025567,0.0138921,-0.00814866,0.0297533,0.00970579,-0.474586,0.0175206,0.0325168,748,596,-0.179811,0.651259
-469,428,-0.0223999,-0.786804,0.0191114,0.0114558,-0.00576028,0.0221998,0.00836749,-0.492141,0.0129458,0.0179087,755,596,-0.0223953,0.786807
-462,428,0.0137329,-0.888367,0.0147987,0.00808402,-0.00458315,0.0171226,0.00576007,-0.469283,0.0100606,0.0145073,762,596,0.0137411,0.888383
-455,428,-0.0186768,-1.02026,0.0110967,0.00570199,-0.00386162,0.0131098,0.00368896,-0.480536,0.00780636,0.0112608,769,596,-0.0186638,1.02029
-448,428,-0.041687,-1.12793,0.00823892,0.00388239,-0.00307895,0.00983222,0.00228908,-0.477537,0.00594066,0.00988737,776,596,-0.0416698,1.12793
-441,428,-0.0378418,-1.22473,0.00562096,0.00230985,-0.00213258,0.00666518,0.00126564,-0.455332,0.00408742,0.0119905,783,596,-0.0378534,1.2247
-434,428,-0.0250244,-1.33307,0.00299462,0.00109266,-0.00129276,0.0036485,0.000438777,-0.468281,0.00230007,0.00970548,790,596,-0.0250287,1.33307
-427,428,-0.0108032,-1.45007,0.000671703,0.000181804,-0.000364056,0.000865544,-1.20369e-05,-0.489268,0.000581083,0.010738,797,596,-0.0107857,1.45005
-420,428,0.00616455,-1.5354,-0.000922091,-0.00027332,0.000725814,0.000197299,-0.00139271,0.995546,0.00100074,0.0113017,804,596,0.00616978,1.53537
-413,428,0.0192871,-1.61401,-0.00170954,-0.000141765,0.00175566,0.00099706,-0.00284837,0.995364,0.00230433,0.0129991,811,596,0.0193073,1.61402
-406,428,0.00762939,-1.72021,-0.00243314,0.000545226,0.00272595,0.00216224,-0.00405016,1.0354,0.00364152,0.0144839,818,596,0.00760659,1.72019
-399,428,-0.00909424,-1.82111,-0.00294598,0.00225141,0.00357413,0.00407173,-0.00476629,1.09973,0.00510788,0.0124093,825,596,-0.00911842,1.82108
-392,428,-0.00866699,-1.91034,-0.00312441,0.00541109,0.00457429,0.00739937,-0.00511269,1.16077,0.00726394,0.0104242,832,596,-0.00866422,1.91031
-385,428,-0.0311279,-2.02631,-0.003111,0.00890254,0.00564329,0.0111376,-0.00534608,1.19369,0.00971069,0.0151632,839,596,-0.0311069,2.02632
-378,428,-0.100464,-2.18866,-0.00305275,0.0136435,0.00682643,0.0160792,-0.00548847,1.22807,0.0129429,0.032079,846,596,-0.100448,2.18869
-371,428,-0.232544,-2.51678,-0.00254478,0.0198448,0.00819379,0.022523,-0.00522304,1.25488,0.0170255,0.0420572,853,596,-0.232563,2.51677
-364,428,-0.103149,-2.57013,-0.00177669,0.0276912,0.00958025,0.030532,-0.00461746,1.28253,0.0220555,0.0474141,860,596,-0.103159,2.57011
-357,428,0.387695,-2.58374,0,0,0,0,0,0,0,-1,867,596,0.387688,2.58374
-350,428,1.88336,-1.62885,0,0,0,0,0,0,0,-1,874,596,1.88333,1.62885
-343,428,-0.0567017,-4.80994,0,0,0,0,0,0,0,-1,881,596,-0.0567096,4.80996
-336,428,-2.36725,-3.2923,0,0,0,0,0,0,0,-1,888,596,-2.36728,3.29228
-329,428,-3.21655,-2.43268,0,0,0,0,0,0,0,-1,895,596,-3.21656,2.4327
-322,428,-3.94324,-1.41754,0,0,0,0,0,0,0,-1,902,596,-3.94326,1.41755
-315,428,-4.57172,-1.22052,0,0,0,0,0,0,0,-1,909,596,-4.57171,1.22052
-308,428,-5.26538,-1.1521,0,0,0,0,0,0,0,-1,916,596,-5.26539,1.15209
-301,428,0,0,0,0,0,0,0,0,0,-1,923,596,0,0
-294,428,0,0,0,0,0,0,0,0,0,-1,930,596,0,0
-287,428,0,0,0,0,0,0,0,0,0,-1,937,596,0,0
-280,428,0,0,0,0,0,0,0,0,0,-1,944,596,0,0
-273,428,0,0,0,0,0,0,0,0,0,-1,951,596,0,0
-266,428,0,0,0,0,0,0,0,0,0,-1,958,596,0,0
-259,428,0,0,0,0,0,0,0,0,0,-1,965,596,0,0
-252,428,0,0,0,0,0,0,0,0,0,-1,972,596,0,0
-245,428,0,0,0,0,0,0,0,0,0,-1,979,596,0,0
-238,428,0,0,0,0,0,0,0,0,0,-1,986,596,0,0
-231,428,0,0,0,0,0,0,0,0,0,-1,993,596,0,0
-224,428,0,0,0,0,0,0,0,0,0,-1,1000,596,0,0
-217,428,0,0,0,0,0,0,0,0,0,-1,1007,596,0,0
-210,428,0,0,0,0,0,0,0,0,0,-1,1014,596,0,0
-203,428,0,0,0,0,0,0,0,0,0,-1,1021,596,0,0
-196,428,0,0,0,0,0,0,0,0,0,-1,1028,596,0,0
-189,428,0,0,0,0,0,0,0,0,0,-1,1035,596,0,0
-182,428,0,0,0,0,0,0,0,0,0,-1,1042,596,0,0
-175,428,0,0,0,0,0,0,0,0,0,-1,1049,596,0,0
-168,428,0,0,0,0,0,0,0,0,0,-1,1056,596,0,0
-161,428,0,0,0,0,0,0,0,0,0,-1,1063,596,0,0
-154,428,0,0,0,0,0,0,0,0,0,-1,1070,596,0,0
-147,428,0,0,0,0,0,0,0,0,0,-1,1077,596,0,0
-140,428,0,0,0,0,0,0,0,0,0,-1,1084,596,0,0
-133,428,0,0,0,0,0,0,0,0,0,-1,1091,596,0,0
-126,428,0,0,0,0,0,0,0,0,0,-1,1098,596,0,0
-119,428,0,0,0,0,0,0,0,0,0,-1,1105,596,0,0
-112,428,0,0,0,0,0,0,0,0,0,-1,1112,596,0,0
-105,428,0,0,0,0,0,0,0,0,0,-1,1119,596,0,0
-98,428,0,0,0,0,0,0,0,0,0,-1,1126,596,0,0
-91,428,0,0,0,0,0,0,0,0,0,-1,1133,596,0,0
-84,428,0,0,0,0,0,0,0,0,0,-1,1140,596,0,0
-77,428,0,0,0,0,0,0,0,0,0,-1,1147,596,0,0
-70,428,0,0,0,0,0,0,0,0,0,-1,1154,596,0,0
-63,428,0,0,0,0,0,0,0,0,0,-1,1161,596,0,0
-56,428,0,0,0,0,0,0,0,0,0,-1,1168,596,0,0
-49,428,0,0,0,0,0,0,0,0,0,-1,1175,596,0,0
-42,428,0,0,0,0,0,0,0,0,0,-1,1182,596,0,0
-35,428,0,0,0,0,0,0,0,0,0,-1,1189,596,0,0
-28,428,0,0,0,0,0,0,0,0,0,-1,1196,596,0,0
-21,428,0,0,0,0,0,0,0,0,0,-1,1203,596,0,0
-14,428,0,0,0,0,0,0,0,0,0,-1,1210,596,0,0
-7,428,0,0,0,0,0,0,0,0,0,-1,1217,596,0,0
0,428,0,0,0,0,0,0,0,0,0,-1,1224,596,0,0
7,428,0,0,0,0,0,0,0,0,0,-1,1231,596,0,0
14,428,0,0,0,0,0,0,0,0,0,-1,1238,596,0,0
21,428,0,0,0,0,0,0,0,0,0,-1,1245,596,0,0
28,428,0,0,0,0,0,0,0,0,0,-1,1252,596,0,0
35,428,0,0,0,0,0,0,0,0,0,-1,1259,596,0,0
42,428,0,0,0,0,0,0,0,0,0,-1,1266,596,0,0
49,428,0,0,0,0,0,0,0,0,0,-1,1273,596,0,0
56,428,0,0,0,0,0,0,0,0,0,-1,1280,596,0,0
63,428,0,0,0,0,0,0,0,0,0,-1,1287,596,0,0
70,428,0,0,0,0,0,0,0,0,0,-1,1294,596,0,0
77,428,0,0,0,0,0,0,0,0,0,-1,1301,596,0,0
84,428,0,0,0,0,0,0,0,0,0,-1,1308,596,0,0
91,428,0,0,0,0,0,0,0,0,0,-1,1315,596,0,0
98,428,0,0,0,0,0,0,0,0,0,-1,1322,596,0,0
105,428,0,0,0,0,0,0,0,0,0,-1,1329,596,0,0
112,428,0,0,0,0,0,0,0,0,0,-1,1336,596,0,0
119,428,0,0,0,0,0,0,0,0,0,-1,1343,596,0,0
126,428,0,0,0,0,0,0,0,0,0,-1,1350,596,0,0
133,428,0,0,0,0,0,0,0,0,0,-1,1357,596,0,0
140,428,0,0,0,0,0,0,0,0,0,-1,1364,596,0,0
147,428,0,0,0,0,0,0,0,0,0,-1,1371,596,0,0
154,428,0,0,0,0,0,0,0,0,0,-1,1378,596,0,0
161,428,0,0,0,0,0,0,0,0,0,-1,1385,596,0,0
168,428,0,0,0,0,0,0,0,0,0,-1,1392,596,0,0
175,428,0,0,0,0,0,0,0,0,0,-1,1399,596,0,0
182,428,0,0,0,0,0,0,0,0,0,-1,1406,596,0,0
189,428,0,0,0,0,0,0,0,0,0,-1,1413,596,0,0
196,428,0,0,0,0,0,0,0,0,0,-1,1420,596,0,0
203,428,0,0,0,0,0,0,0,0,0,-1,1427,596,0,0
210,428,0,0,0,0,0,0,0,0,0,-1,1434,596,0,0
217,428,0,0,0,0,0,0,0,0,0,-1,1441,596,0,0
224,428,0,0,0,0,0,0,0,0,0,-1,1448,596,0,0
231,428,0,0,0,0,0,0,0,0,0,-1,1455,596,0,0
238,428,0,0,0,0,0,0,0,0,0,-1,1462,596,0,0
245,428,0,0,0,0,0,0,0,0,0,-1,1469,596,0,0
252,428,0,0,0,0,0,0,0,0,0,-1,1476,596,0,0
259,428,0,0,0,0,0,0,0,0,0,-1,1483,596,0,0
266,428,0,0,0,0,0,0,0,0,0,-1,1490,596,0,0
273,428,0,0,0,0,0,0,0,0,0,-1,1497,596,0,0
280,428,0,0,0,0,0,0,0,0,0,-1,1504,596,0,0
287,428,0,0,0,0,0,0,0,0,0,-1,1511,596,0,0
294,428,0,0,0,0,0,0,0,0,0,-1,1518,596,0,0
301,428,0,0,0,0,0,0,0,0,0,-1,1525,596,0,0
308,428,0,0,0,0,0,0,0,0,0,-1,1532,596,0,0
315,428,0,0,0,0,0,0,0,0,0,-1,1539,596,0,0
322,428,0,0,0,0,0,0,0,0,0,-1,1546,596,0,0
329,428,0,0,0,0,0,0,0,0,0,-1,1553,596,0,0
336,428,0,0,0,0,0,0,0,0,0,-1,1560,596,0,0
343,428,0,0,0,0,0,0,0,0,0,-1,1567,596,0,0
350,428,0,0,0,0,0,0,0,0,0,-1,1574,596,0,0
357,428,0,0,0,0,0,0,0,0,0,-1,1581,596,0,0
364,428,0,0,0,0,0,0,0,0,0,-1,1588,596,0,0
371,428,0,0,0,0,0,0,0,0,0,-1,1595,596,0,0
378,428,0,0,0,0,0,0,0,0,0,-1,1602,596,0,0
385,428,0,0,0,0,0,0,0,0,0,-1,1609,596,0,0
392,428,0,0,0,0,0,0,0,0,0,-1,1616,596,0,0
399,428,0,0,0,0,0,0,0,0,0,-1,1623,596,0,0
406,428,0,0,0,0,0,0,0,0,0,-1,1630,596,0,0
413,428,0,0,0,0,0,0,0,0,0,-1,1637,596,0,0
420,428,2.95886,0.551819,0,0,0,0,0,0,0,-1,1644,596,2.9589,-0.551797
427,428,3.19385,0.384705,0,0,0,0,0,0,0,-1,1651,596,3.19383,-0.384692
434,428,8.18152,1.80432,0,0,0,0,0,0,0,-1,1658,596,8.18148,-1.80434
441,428,8.17993,0.607483,0,0,0,0,0,0,0,-1,1665,596,8.17997,-0.607513
448,428,7.84338,-0.385986,0,0,0,0,0,0,0,-1,1672,596,7.84336,0.385978
455,428,6.64038,2.1123,0,0,0,0,0,0,0,-1,1679,596,6.64037,-2.11229
462,428,4.84106,4.12341,0,0,0,0,0,0,0,-1,1686,596,4.84107,-4.12339
469,428,7.83789,3.10083,0,0,0,0,0,0,0,-1,1693,596,7.83785,-3.10086
476,428,7.61255,1.73956,0.0272693,0.00974461,-0.0608246,0.0799595,-0.0429456,-0.713861,0.0720239,0.0465544,1700,596,7.61252,-1.73958
483,428,7.22766,1.05121,0.0225049,0.00752594,-0.0526154,0.0681612,-0.0381303,-0.714701,0.0621785,0.0418939,1707,596,7.2277,-1.05121
490,428,6.81091,0.481445,0,0,0,0,0,0,0,-1,1714,596,6.81086,-0.48144
497,428,5.20496,-1.66681,0,0,0,0,0,0,0,-1,1721,596,5.20493,1.66679
504,428,4.90247,-1.48627,0.00876405,0.00132102,-0.0294178,0.0346947,-0.0246097,-0.72248,0.0344041,0.0432874,1728,596,4.90244,1.48628
511,428,4.59082,-1.26929,0.00441774,0.000148438,-0.02232,0.024705,-0.0201388,-0.737724,0.0259353,0.0460912,1735,596,4.59087,1.26927
518,428,4.79736,-1.4256,0.00157678,-0.00123238,-0.0162507,0.0164835,-0.0161391,-0.742289,0.0188351,0.0352231,1742,596,4.79735,1.42559
525,428,4.7478,-1.36224,-0.00121013,-0.00278499,-0.0108992,0.00893008,-0.0129252,-0.749338,0.0126882,0.020585,1749,596,4.74777,1.36222
532,428,4.78748,-1.20874,-0.00295991,-0.0030437,-0.0053861,0.00238446,-0.00838807,-0.781509,0.00653355,0.0170591,1756,596,4.78743,1.20871
539,428,4.80469,-1.12024,-0.00337409,-0.00309866,-0.00216566,-0.00106634,-0.00540641,-0.817151,0.00330665,0.0195343,1763,596,4.80472,1.12021
546,428,4.79724,-1.03107,-0.0024346,-0.00215292,-0.00153421,-0.000753105,-0.00383442,-0.83117,0.00234589,0.0156896,1770,596,4.79727,1.03108
553,428,4.80701,-0.928772,-0.00153394,-0.00115049,-0.000815483,-0.0005045,-0.00217994,-0.900853,0.00131772,0.0108288,1777,596,4.80703,0.928785
560,428,4.8158,-0.816711,-0.00044317,-0.000316072,-5.95781e-05,-0.000292512,-0.000466731,-1.19422,0.000272337,0.0125731,1784,596,4.81581,0.816689
567,428,4.81433,-0.723145,0.000727571,0.000399669,0.000713392,0.00129561,-0.000168369,0.67245,0.000924985,0.0116504,1791,596,4.81432,0.723174
574,428,4.80359,-0.625366,0.00211981,0.00127129,0.00180714,0.00355183,-0.000160718,0.670102,0.00242323,0.0129997,1798,596,4.80363,0.625348
581,428,4.776,-0.509521,0.00320572,0.00219152,0.00301931,0.00576022,-0.000362976,0.702198,0.00396668,0.0119873,1805,596,4.77602,0.509513
588,428,4.75879,-0.395508,0.00416881,0.00300798,0.0040432,0.00767305,-0.00049626,0.714108,0.00528855,0.0154578,1812,596,4.75884,0.39552
595,428,4.75891,-0.288269,0.0045968,0.00374877,0.00481761,0.00900902,-0.000663456,0.741504,0.00623893,0.00985194,1819,596,4.75896,0.288254
602,428,4.7417,-0.17572,0.00462139,0.00481711,0.00561972,0.0103398,-0.000901324,0.794104,0.00721245,0.0208226,1826,596,4.74175,0.175697
609,428,4.73608,-0.0581665,0.00457262,0.00621535,0.00672254,0.0121665,-0.00137854,0.846187,0.0086074,0.0488882,1833,596,4.73614,0.0581502
616,428,4.8092,0.10022,0,0,0,0,0,0,0,-1,1840,596,4.80926,-0.10019
623,428,5.59119,0.429077,0,0,0,0,0,0,0,-1,1847,596,5.59114,-0.429095
630,428,4.94434,0.773193,0,0,0,0,0,0,0,-1,1854,596,4.9443,-0.773171
637,428,3.95435,1.90857,0,0,0,0,0,0,0,-1,1861,596,3.95439,-1.90858
644,428,5.75476,0.888977,0,0,0,0,0,0,0,-1,1868,596,5.75472,-0.888955
651,428,0,0,0,0,0,0,0,0,0,-1,1875,596,0,0
658,428,0,0,0,0,0,0,0,0,0,-1,1882,596,0,0
665,428,0,0,0,0,0,0,0,0,0,-1,1889,596,0,0
672,428,0,0,0,0,0,0,0,0,0,-1,1896,596,0,0
679,428,0,0,0,0,0,0,0,0,0,-1,1903,596,0,0
686,428,0,0,0,0,0,0,0,0,0,-1,1910,596,0,0
693,428,0,0,0,0,0,0,0,0,0,-1,1917,596,0,0
700,428,0,0,0,0,0,0,0,0,0,-1,1924,596,0,0
707,428,0,0,0,0,0,0,0,0,0,-1,1931,596,0,0
714,428,0,0,0,0,0,0,0,0,0,-1,1938,596,0,0
721,428,0,0,0,0,0,0,0,0,0,-1,1945,596,0,0
728,428,0,0,0,0,0,0,0,0,0,-1,1952,596,0,0
735,428,0,0,0,0,0,0,0,0,0,-1,1959,596,0,0
742,428,0,0,0,0,0,0,0,0,0,-1,1966,596,0,0
749,428,0,0,0,0,0,0,0,0,0,-1,1973,596,0,0
756,428,0,0,0,0,0,0,0,0,0,-1,1980,596,0,0
763,428,0,0,0,0,0,0,0,0,0,-1,1987,596,0,0
770,428,0,0,0,0,0,0,0,0,0,-1,1994,596,0,0
777,428,0,0,0,0,0,0,0,0,0,-1,2001,596,0,0
784,428,0,0,0,0,0,0,0,0,0,-1,2008,596,0,0
791,428,0,0,0,0,0,0,0,0,0,-1,2015,596,0,0
798,428,0,0,0,0,0,0,0,0,0,-1,2022,596,0,0
805,428,0,0,0,0,0,0,0,0,0,-1,2029,596,0,0
812,428,0,0,0,0,0,0,0,0,0,-1,2036,596,0,0
-700,421,0,0,0,0,0,0,0,0,0,-1,524,603,0,0
-693,421,0,0,0,0,0,0,0,0,0,-1,531,603,0,0
-686,421,0,0,0,0,0,0,0,0,0,-1,538,603,0,0
-679,421,0,0,0,0,0,0,0,0,0,-1,545,603,0,0
-672,421,0,0,0,0,0,0,0,0,0,-1,552,603,0,0
-665,421,0,0,0,0,0,0,0,0,0,-1,559,603,0,0
-658,421,0,0,0,0,0,0,0,0,0,-1,566,603,0,0
-651,421,0,0,0,0,0,0,0,0,0,-1,573,603,0,0
-644,421,0,0,0,0,0,0,0,0,0,-1,580,603,0,0
-637,421,0,0,0,0,0,0,0,0,0,-1,587,603,0,0
-630,421,0,0,0,0,0,0,0,0,0,-1,594,603,0,0
-623,421,0,0,0,0,0,0,0,0,0,-1,601,603,0,0
-616,421,0,0,0,0,0,0,0,0,0,-1,608,603,0,0
-609,421,0,0,0,0,0,0,0,0,0,-1,615,603,0,0
-602,421,0,0,0,0,0,0,0,0,0,-1,622,603,0,0
-595,421,0,0,0,0,0,0,0,0,0,-1,629,603,0,0
-588,421,0,0,0,0,0,0,0,0,0,-1,636,603,0,0
-581,421,0,0,0,0,0,0,0,0,0,-1,643,603,0,0
-574,421,0,0,0,0,0,0,0,0,0,-1,650,603,0,0
-567,421,0,0,0,0,0,0,0,0,0,-1,657,603,0,0
-560,421,0,0,0,0,0,0,0,0,0,-1,664,603,0,0
-553,421,0,0,0,0,0,0,0,0,0,-1,671,603,0,0
-546,421,0,0,0,0,0,0,0,0,0,-1,678,603,0,0
-539,421,0,0,0,0,0,0,0,0,0,-1,685,603,0,0
-532,421,-0.797546,-0.344849,0,0,0,0,0,0,0,-1,692,603,-0.797528,0.344847
-525,421,-0.586426,-1.34576,0,0,0,0,0,0,0,-1,699,603,-0.58641,1.34577
-518,421,-0.469238,-1.49878,0,0,0,0,0,0,0,-1,706,603,-0.46922,1.4988
-511,421,-0.587463,-2.31647,0,0,0,0,0,0,0,-1,713,603,-0.587443,2.31647
-504,421,-0.716858,-3.13232,0,0,0,0,0,0,0,-1,720,603,-0.716864,3.13232
-497,421,-0.0894165,-0.316162,0,0,0,0,0,0,0,-1,727,603,-0.0893914,0.316171
-490,421,-0.211243,-0.42395,0.0333092,0.0157418,-0.0138844,0.040955,0.00809593,-0.503363,0.0250448,0.040435,734,603,-0.211259,0.423933
-483,421,-0.184753,-0.511475,0.0242206,0.0128517,-0.00907157,0.0292416,0.00783069,-0.505516,0.017479,0.0312539,741,603,-0.184764,0.511495
-476,421,-0.161316,-0.678772,0.0172056,0.0104258,-0.00572878,0.0204723,0.0071591,-0.518241,0.0119964,0.0175887,748,603,-0.1613,0.678772
-469,421,-0.102539,-0.802551,0.0123193,0.00876746,-0.00353535,0.0144997,0.00658705,-0.552642,0.00838308,0.0156048,755,603,-0.102518,0.802555
-462,421,-0.0834351,-0.923828,0.00941575,0.00600702,-0.002502,0.0107387,0.00468403,-0.486399,0.00621682,0.0174494,762,603,-0.0834165,0.923805
-455,421,-0.0960083,-1.03436,0.00691853,0.00407238,-0.00194272,0.00790363,0.00308728,-0.46929,0.00459941,0.017492,769,603,-0.0960067,1.03439
-448,421,-0.146729,-1.12701,0.00505946,0.00259313,-0.00135696,0.00565988,0.00199271,-0.416579,0.00331506,0.0167483,776,603,-0.146716,1.127
-441,421,-0.147278,-1.23737,0.00316509,0.00121384,-0.00061052,0.00334037,0.00103856,-0.279577,0.001974,0.0126659,783,603,-0.147274,1.23734
-434,421,-0.123779,-1.34546,0.00104624,0.000185983,0.000104319,0.00105871,0.000173514,0.118968,0.000655665,0.00939693,790,603,-0.12375,1.34548
-427,421,-0.105347,-1.43787,-0.000913571,-0.000577129,0.000947675,0.00021714,-0.00170784,0.873238,0.00121741,0.00962759,797,603,-0.105343,1.43789
-420,421,-0.0974731,-1.53217,-0.00223868,-0.000985856,0.00198509,0.000469311,-0.00369385,0.938233,0.00263298,0.0117806,804,603,-0.0974517,1.53214
-413,421,-0.0889893,-1.6203,-0.00291738,-0.000848855,0.0030514,0.0013388,-0.00510504,0.948795,0.00392646,0.0136826,811,603,-0.0889659,1.62028
-406,421,-0.100525,-1.73016,-0.00359771,-2.06143e-05,0.00406835,0.00263498,-0.00625331,0.992494,0.00527149,0.0175948,818,603,-0.100554,1.73014
-399,421,-0.102905,-1.83759,-0.00407643,0.00218879,0.00506878,0.00501485,-0.00690249,1.06218,0.00690919,0.0150798,825,603,-0.102929,1.83756
-392,421,-0.127502,-1.90027,-0.00412246,0.00636718,0.00627112,0.00929764,-0.00705291,1.13365,0.0094696,0.0145946,832,603,-0.127483,1.90026
-385,421,-0.210938,-2.02197,-0.00396963,0.0108709,0.00760089,0.014073,-0.0071717,1.17209,0.0124795,0.0307368,839,603,-0.210914,2.02196
-378,421,-0.446899,-2.30115,-0.00354722,0.0170233,0.00901211,0.020413,-0.00693693,1.21104,0.016417,0.0425746,846,603,-0.446873,2.30114
-371,421,-0.352966,-2.73596,0,0,0,0,0,0,0,-1,853,603,-0.352965,2.73599
-364,421,-0.491455,-2.68781,0,0,0,0,0,0,0,-1,860,603,-0.491425,2.68783
-357,421,-0.179382,-2.34454,0,0,0,0,0,0,0,-1,867,603,-0.179359,2.34457
-350,421,-0.134949,-2.13391,0,0,0,0,0,0,0,-1,874,603,-0.134966,2.13389
-343,421,0.0397949,-2.02704,0,0,0,0,0,0,0,-1,881,603,0.039803,2.02702
-336,421,-4.78381,-1.46234,0,0,0,0,0,0,0,-1,888,603,-4.78379,1.46232
-329,421,-4.50134,-1.49469,0,0,0,0,0,0,0,-1,895,603,-4.50137,1.49468
-322,421,-4.26563,-1.38239,0,0,0,0,0,0,0,-1,902,603,-4.26559,1.3824
-315,421,-4.47821,-1.26733,0,0,0,0,0,0,0,-1,909,603,-4.47824,1.26732
-308,421,0,0,0,0,0,0,0,0,0,-1,916,603,0,0
-301,421,0,0,0,0,0,0,0,0,0,-1,923,603,0,0
-294,421,0,0,0,0,0,0,0,0,0,-1,930,603,0,0
-287,421,0,0,0,0,0,0,0,0,0,-1,937,603,0,0
-280,421,0,0,0,0,0,0,0,0,0,-1,944,603,0,0
-273,421,0,0,0,0,0,0,0,0,0,-1,951,603,0,0
-266,421,0,0,0,0,0,0,0,0,0,-1,958,603,0,0
-259,421,0,0,0,0,0,0,0,0,0,-1,965,603,0,0
-252,421,0,0,0,0,0,0,0,0,0,-1,972,603,0,0
-245,421,0,0,0,0,0,0,0,0,0,-1,979,603,0,0
-238,421,0,0,0,0,0,0,0,0,0,-1,986,603,0,0
-231,421,0,0,0,0,0,0,0,0,0,-1,993,603,0,0
-224,421,0,0,0,0,0,0,0,0,0,-1,1000,603,0,0
-217,421,0,0,0,0,0,0,0,0,0,-1,1007,603,0,0
-210,421,0,0,0,0,0,0,0,0,0,-1,1014,603,0,0
-203,421,0,0,0,0,0,0,0,0,0,-1,1021,603,0,0
-196,421,0,0,0,0,0,0,0,0,0,-1,1028,603,0,0
-189,421,0,0,0,0,0,0,0,0,0,-1,1035,603,0,0
-182,421,0,0,0,0,0,0,0,0,0,-1,1042,603,0,0
-175,421,0,0,0,0,0,0,0,0,0,-1,1049,603,0,0
-168,421,0,0,0,0,0,0,0,0,0,-1,1056,603,0,0
-161,421,0,0,0,0,0,0,0,0,0,-1,1063,603,0,0
-154,421,0,0,0,0,0,0,0,0,0,-1,1070,603,0,0
-147,421,0,0,0,0,0,0,0,0,0,-1,1077,603,0,0
-140,421,0,0,0,0,0,0,0,0,0,-1,1084,603,0,0
-133,421,0,0,0,0,0,0,0,0,0,-1,1091,603,0,0
-126,421,0,0,0,0,0,0,0,0,0,-1,1098,603,0,0
-119,421,0,0,0,0,0,0,0,0,0,-1,1105,603,0,0
-112,421,0,0,0,0,0,0,0,0,0,-1,1112,603,0,0
-105,421,0,0,0,0,0,0,0,0,0,-1,1119,603,0,0
-98,421,0,0,0,0,0,0,0,0,0,-1,1126,603,0,0
-91,421,0,0,0,0,0,0,0,0,0,-1,1133,603,0,0
-84,421,0,0,0,0,0,0,0,0,0,-1,1140,603,0,0
-77,421,0,0,0,0,0,0,0,0,0,-1,1147,603,0,0
-70,421,0,0,0,0,0,0,0,0,0,-1,1154,603,0,0
-63,421,0,0,0,0,0,0,0,0,0,-1,1161,603,0,0
-56,421,0,0,0,0,0,0,0,0,0,-1,1168,603,0,0
-49,421,0,0,0,0,0,0,0,0,0,-1,1175,603,0,0
-42,421,0,0,0,0,0,0,0,0,0,-1,1182,603,0,0
-35,421,0,0,0,0,0,0,0,0,0,-1,1189,603,0,0
-28,421,0,0,0,0,0,0,0,0,0,-1,1196,603,0,0
-21,421,0,0,0,0,0,0,0,0,0,-1,1203,603,0,0
-14,421,0,0,0,0,0,0,0,0,0,-1,1210,603,0,0
-7,421,0,0,0,0,0,0,0,0,0,-1,1217,603,0,0
0,421,0,0,0,0,0,0,0,0,0,-1,1224,603,0,0
7,421,0,0,0,0,0,0,0,0,0,-1,1231,603,0,0
14,421,0,0,0,0,0,0,0,0,0,-1,1238,603,0,0
21,421,0,0,0,0,0,0,0,0,0,-1,1245,603,0,0
28,421,0,0,0,0,0,0,0,0,0,-1,1252,603,0,0
35,421,0,0,0,0,0,0,0,0,0,-1,1259,603,0,0
42,421,0,0,0,0,0,0,0,0,0,-1,1266,603,0,0
49,421,0,0,0,0,0,0,0,0,0,-1,1273,603,0,0
56,421,0,0,0,0,0,0,0,0,0,-1,1280,603,0,0
63,421,0,0,0,0,0,0,0,0,0,-1,1287,603,0,0
70,421,0,0,0,0,0,0,0,0,0,-1,1294,603,0,0
77,421,0,0,0,0,0,0,0,0,0,-1,1301,603,0,0
84,421,0,0,0,0,0,0,0,0,0,-1,1308,603,0,0
91,421,0,0,0,0,0,0,0,0,0,-1,1315,603,0,0
98,421,0,0,0,0,0,0,0,0,0,-1,1322,603,0,0
105,421,0,0,0,0,0,0,0,0,0,-1,1329,603,0,0
112,421,0,0,0,0,0,0,0,0,0,-1,1336,603,0,0
119,421,0,0,0,0,0,0,0,0,0,-1,1343,603,0,0
126,421,0,0,0,0,0,0,0,0,0,-1,1350,603,0,0
133,421,0,0,0,0,0,0,0,0,0,-1,1357,603,0,0
140,421,0,0,0,0,0,0,0,0,0,-1,1364,603,0,0
147,421,0,0,0,0,0,0,0,0,0,-1,1371,603,0,0
154,421,0,0,0,0,0,0,0,0,0,-1,1378,603,0,0
161,421,0,0,0,0,0,0,0,0,0,-1,1385,603,0,0
168,421,0,0,0,0,0,0,0,0,0,-1,1392,603,0,0
175,421,0,0,0,0,0,0,0,0,0,-1,1399,603,0,0
182,421,0,0,0,0,0,0,0,0,0,-1,1406,603,0,0
189,421,0,0,0,0,0,0,0,0,0,-1,1413,603,0,0
196,421,0,0,0,0,0,0,0,0,0,-1,1420,603,0,0
203,421,0,0,0,0,0,0,0,0,0,-1,1427,603,0,0
210,421,0,0,0,0,0,0,0,0,0,-1,1434,603,0,0
217,421,0,0,0,0,0,0,0,0,0,-1,1441,603,0,0
224,421,0,0,0,0,0,0,0,0,0,-1,1448,603,0,0
231,421,0,0,0,0,0,0,0,0,0,-1,1455,603,0,0
238,421,0,0,0,0,0,0,0,0,0,-1,1462,603,0,0
245,421,0,0,0,0,0,0,0,0,0,-1,1469,603,0,0
252,421,0,0,0,0,0,0,0,0,0,-1,1476,603,0,0
259,421,0,0,0,0,0,0,0,0,0,-1,1483,603,0,0
266,421,0,0,0,0,0,0,0,0,0,-1,1490,603,0,0
273,421,0,0,0,0,0,0,0,0,0,-1,1497,603,0,0
280,421,0,0,0,0,0,0,0,0,0,-1,1504,603,0,0
287,421,0,0,0,0,0,0,0,0,0,-1,1511,603,0,0
294,421,0,0,0,0,0,0,0,0,0,-1,1518,603,0,0
301,421,0,0,0,0,0,0,0,0,0,-1,1525,603,0,0
308,421,0,0,0,0,0,0,0,0,0,-1,1532,603,0,0
315,421,0,0,0,0,0,0,0,0,0,-1,1539,603,0,0
322,421,0,0,0,0,0,0,0,0,0,-1,1546,603,0,0
329,421,0,0,0,0,0,0,0,0,0,-1,1553,603,0,0
336,421,0,0,0,0,0,0,0,0,0,-1,1560,603,0,0
343,421,0,0,0,0,0,0,0,0,0,-1,1567,603,0,0
350,421,0,0,0,0,0,0,0,0,0,-1,1574,603,0,0
357,421,0,0,0,0,0,0,0,0,0,-1,1581,603,0,0
364,421,0,0,0,0,0,0,0,0,0,-1,1588,603,0,0
371,421,0,0,0,0,0,0,0,0,0,-1,1595,603,0,0
378,421,0,0,0,0,0,0,0,0,0,-1,1602,603,0,0
385,421,0,0,0,0,0,0,0,0,0,-1,1609,603,0,0
392,421,0,0,0,0,0,0,0,0,0,-1,1616,603,0,0
399,421,0,0,0,0,0,0,0,0,0,-1,1623,603,0,0
406,421,0,0,0,0,0,0,0,0,0,-1,1630,603,0,0
413,421,0,0,0,0,0,0,0,0,0,-1,1637,603,0,0
420,421,0,0,0,0,0,0,0,0,0,-1,1644,603,0,0
427,421,0,0,0,0,0,0,0,0,0,-1,1651,603,0,0
434,421,3.68176,-0.0327759,0,0,0,0,0,0,0,-1,1658,603,3.6818,0.0328037
441,421,8.06689,0.527832,0,0,0,0,0,0,0,-1,1665,603,8.06693,-0.527851
448,421,6.93921,0.802246,0,0,0,0,0,0,0,-1,1672,603,6.93923,-0.802251
455,421,7.29456,2.14825,0,0,0,0,0,0,0,-1,1679,603,7.29461,-2.14827
462,421,7.86902,3.53174,0,0,0,0,0,0,0,-1,1686,603,7.869,-3.53173
469,421,8.06604,2.81213,0,0,0,0,0,0,0,-1,1693,603,8.06606,-2.81212
476,421,8.26306,2.09253,0,0,0,0,0,0,0,-1,1700,603,8.26312,-2.09251
483,421,8.05322,0.798096,0,0,0,0,0,0,0,-1,1707,603,8.05323,-0.7981
490,421,7.51233,0.213074,0,0,0,0,0,0,0,-1,1714,603,7.51235,-0.213043
497,421,4.57788,-0.339661,0,0,0,0,0,0,0,-1,1721,603,4.57785,0.339636
504,421,4.90564,-1.38379,0,0,0,0,0,0,0,-1,1728,603,4.90565,1.38376
511,421,4.71826,-1.08893,0,0,0,0,0,0,0,-1,1735,603,4.7183,1.08895
518,421,5.31555,-1.25397,0,0,0,0,0,0,0,-1,1742,603,5.31554,1.25398
525,421,4.99658,-1.28473,-0.000803356,-0.00340412,-0.0144453,0.0124,-0.0166075,-0.740509,0.0168061,0.0407537,1749,603,4.99662,1.28475
532,421,4.86523,-1.24738,-0.00367185,-0.004043,-0.00738436,0.00352926,-0.0112441,-0.772836,0.00890866,0.0240864,1756,603,4.8652,1.2474
539,421,4.90015,-1.14929,-0.00457329,-0.00411311,-0.00306104,-0.00127352,-0.00741287,-0.822911,0.00457685,0.0193869,1763,603,4.90009,1.1493
546,421,4.89624,-1.03534,-0.00351412,-0.00304258,-0.00243217,-0.000834778,-0.00572192,-0.833715,0.00356905,0.012299,1770,603,4.89618,1.03534
553,421,4.91687,-0.922668,-0.00256012,-0.00198839,-0.00176173,-0.00048948,-0.00405903,-0.865829,0.00255851,0.011567,1777,603,4.91683,0.922678
560,421,4.91162,-0.798828,-0.00141141,-0.00115472,-0.00104962,-0.000225622,-0.00234051,-0.846236,0.00149083,0.0145043,1784,603,4.91157,0.798822
567,421,4.89844,-0.720825,-0.000278972,-0.000459974,-0.000344008,-1.37598e-05,-0.000725186,-0.656773,0.000478937,0.0165727,1791,603,4.89847,0.720798
574,421,4.90027,-0.623657,0.000983437,0.000316631,0.000639526,0.00137125,-7.11808e-05,0.545116,0.000938793,0.0180632,1798,603,4.90031,0.623669
581,421,4.88403,-0.497742,0.00190332,0.00113625,0.00170616,0.00326852,-0.000228946,0.67484,0.0022592,0.0162796,1805,603,4.88408,0.497732
588,421,4.87,-0.386719,0.00263069,0.00179482,0.00253847,0.0047854,-0.00035989,0.70381,0.00331674,0.011466,1812,603,4.87005,0.386724
595,421,4.88879,-0.278381,0.00282152,0.00246581,0.00310605,0.00575481,-0.000467475,0.7568,0.00400147,0.0138525,1819,603,4.88876,0.278391
602,421,4.87964,-0.198914,0.00251674,0.00334199,0.00359697,0.00654992,-0.000691189,0.842506,0.0046143,0.0140539,1826,603,4.87961,0.198901
609,421,4.8147,-0.0905151,0.0020674,0.00449125,0.00432741,0.00777324,-0.00121458,0.921929,0.00563085,0.0256555,1833,603,4.81467,0.0905169
616,421,4.90857,-0.0813599,0.000838415,0.00597549,0.00497379,0.00900481,-0.0021909,1.02374,0.00685129,0.042654,1840,603,4.9086,0.0813771
623,421,5.45654,0.246399,-0.00147724,0.00764988,0.00528772,0.010071,-0.00389838,1.14141,0.00832355,0.0471311,1847,603,5.45656,-0.246376
630,421,5.50122,0.691101,0,0,0,0,0,0,0,-1,1854,603,5.50128,-0.691128
637,421,3.74512,1.65405,0,0,0,0,0,0,0,-1,1861,603,3.74517,-1.65407
644,421,3.58081,0.354675,0,0,0,0,0,0,0,-1,1868,603,3.58082,-0.354704
651,421,3.28687,3.66351,0,0,0,0,0,0,0,-1,1875,603,3.28688,-3.66353
658,421,0,0,0,0,0,0,0,0,0,-1,1882,603,0,0
665,421,0,0,0,0,0,0,0,0,0,-1,1889,603,0,0
672,421,0,0,0,0,0,0,0,0,0,-1,1896,603,0,0
679,421,0,0,0,0,0,0,0,0,0,-1,1903,603,0,0
686,421,0,0,0,0,0,0,0,0,0,-1,1910,603,0,0
693,421,0,0,0,0,0,0,0,0,0,-1,1917,603,0,0
700,421,0,0,0,0,0,0,0,0,0,-1,1924,603,0,0
707,421,0,0,0,0,0,0,0,0,0,-1,1931,603,0,0
714,421,0,0,0,0,0,0,0,0,0,-1,1938,603,0,0
721,421,0,0,0,0,0,0,0,0,0,-1,1945,603,0,0
728,421,0,0,0,0,0,0,0,0,0,-1,1952,603,0,0
735,421,0,0,0,0,0,0,0,0,0,-1,1959,603,0,0
742,421,0,0,0,0,0,0,0,0,0,-1,1966,603,0,0
749,421,0,0,0,0,0,0,0,0,0,-1,1973,603,0,0
756,421,0,0,0,0,0,0,0,0,0,-1,1980,603,0,0
763,421,0,0,0,0,0,0,0,0,0,-1,1987,603,0,0
770,421,0,0,0,0,0,0,0,0,0,-1,1994,603,0,0
777,421,0,0,0,0,0,0,0,0,0,-1,2001,603,0,0
784,421,0,0,0,0,0,0,0,0,0,-1,2008,603,0,0
791,421,0,0,0,0,0,0,0,0,0,-1,2015,603,0,0
798,421,0,0,0,0,0,0,0,0,0,-1,2022,603,0,0
805,421,0,0,0,0,0,0,0,0,0,-1,2029,603,0,0
812,421,0,0,0,0,0,0,0,0,0,-1,2036,603,0,0
-700,414,0,0,0,0,0,0,0,0,0,-1,524,610,0,0
-693,414,0,0,0,0,0,0,0,0,0,-1,531,610,0,0
-686,414,0,0,0,0,0,0,0,0,0,-1,538,610,0,0
-679,414,0,0,0,0,0,0,0,0,0,-1,545,610,0,0
-672,414,0,0,0,0,0,0,0,0,0,-1,552,610,0,0
-665,414,0,0,0,0,0,0,0,0,0,-1,559,610,0,0
-658,414,0,0,0,0,0,0,0,0,0,-1,566,610,0,0
-651,414,0,0,0,0,0,0,0,0,0,-1,573,610,0,0
-644,414,0,0,0,0,0,0,0,0,0,-1,580,610,0,0
-637,414,0,0,0,0,0,0,0,0,0,-1,587,610,0,0
-630,414,0,0,0,0,0,0,0,0,0,-1,594,610,0,0
-623,414,0,0,0,0,0,0,0,0,0,-1,601,610,0,0
-616,414,0,0,0,0,0,0,0,0,0,-1,608,610,0,0
-609,414,0,0,0,0,0,0,0,0,0,-1,615,610,0,0
-602,414,0,0,0,0,0,0,0,0,0,-1,622,610,0,0
-595,414,0,0,0,0,0,0,0,0,0,-1,629,610,0,0
-588,414,0,0,0,0,0,0,0,0,0,-1,636,610,0,0
-581,414,0,0,0,0,0,0,0,0,0,-1,643,610,0,0
-574,414,0,0,0,0,0,0,0,0,0,-1,650,610,0,0
-567,414,0,0,0,0,0,0,0,0,0,-1,657,610,0,0
-560,414,0,0,0,0,0,0,0,0,0,-1,664,610,0,0
-553,414,0,0,0,0,0,0,0,0,0,-1,671,610,0,0
-546,414,0,0,0,0,0,0,0,0,0,-1,678,610,0,0
-539,414,-1.12897,0.453796,0.126152,0.0284347,-0.0903976,0.180049,-0.0254632,-0.537644,0.129359,0.0469133,685,610,-1.12899,-0.45377
-532,414,-0.570435,-0.301697,0.107517,0.0291836,-0.073736,0.151843,-0.0151425,-0.541261,0.106635,0.0453648,692,610,-0.570458,0.301711
-525,414,0.12738,-1.30988,0.0907117,0.0280537,-0.0596213,0.126734,-0.00796867,-0.543492,0.0872669,0.0481658,699,610,0.127394,1.30989
-518,414,0.726074,-2.22052,0,0,0,0,0,0,0,-1,706,610,0.726059,2.22053
-511,414,-0.315063,-0.962769,0,0,0,0,0,0,0,-1,713,610,-0.31505,0.962754
-504,414,-0.085083,-0.503296,0,0,0,0,0,0,0,-1,720,610,-0.0850763,0.503272
-497,414,-0.105957,-0.372742,0,0,0,0,0,0,0,-1,727,610,-0.105954,0.372754
-490,414,-0.129395,-0.41925,0.0247376,0.0113408,-0.0118966,0.0316919,0.00438641,-0.528994,0.0198282,0.0314774,734,610,-0.129418,0.419241
-483,414,-0.210815,-0.588745,0.0173663,0.00916522,-0.00766407,0.0219579,0.00457369,-0.539757,0.0133772,0.0132934,741,610,-0.210792,0.588774
-476,414,-0.231628,-0.703308,0.0118475,0.00746237,-0.00473918,0.0148767,0.00443312,-0.568739,0.00881964,0.00893112,748,610,-0.231653,0.703295
-469,414,-0.215881,-0.81842,0.0081761,0.00643345,-0.00272719,0.0101678,0.00444177,-0.630776,0.00588595,0.0110581,755,610,-0.215893,0.81843
-462,414,-0.212585,-0.955322,0.00621974,0.00423007,-0.00171841,0.00721051,0.0032393,-0.523006,0.00417013,0.0209614,762,610,-0.212573,0.955352
-455,414,-0.204102,-1.06696,0.00447331,0.00269338,-0.00111897,0.00501307,0.00215362,-0.449451,0.00290385,0.0228113,769,610,-0.204128,1.06696
-448,414,-0.233521,-1.13129,0.00319011,0.00152962,-0.000503557,0.00333089,0.00138885,-0.272598,0.00193191,0.0207021,776,610,-0.233496,1.1313
-441,414,-0.249695,-1.22412,0.00165404,0.000334093,0.000268313,0.00170649,0.000281636,0.193071,0.00105637,0.0146298,783,610,-0.249687,1.22413
-434,414,-0.215454,-1.34357,-0.0002416,-0.000521939,0.00104809,0.000675653,-0.00143919,0.718924,0.00124725,0.0089559,790,610,-0.21545,1.34354
-427,414,-0.203186,-1.43848,-0.00209051,-0.00116001,0.00198898,0.000417409,-0.00366793,0.900289,0.00259563,0.00987719,797,610,-0.203195,1.43845
-420,414,-0.206299,-1.53357,-0.00335288,-0.00155408,0.00314075,0.000813512,-0.00572047,0.924849,0.00411173,0.0103159,804,610,-0.20627,1.53355
-413,414,-0.209839,-1.63947,-0.00409265,-0.00146898,0.00439091,0.00180187,-0.0073635,0.930558,0.00560698,0.0108683,811,610,-0.209849,1.63948
-406,414,-0.2005,-1.76715,-0.00488354,-0.000546903,0.00559939,0.00328934,-0.00871979,0.970128,0.00716587,0.0144981,818,610,-0.200521,1.76716
-399,414,-0.213074,-1.81763,-0.0053909,0.00215664,0.00684277,0.00619727,-0.00943153,1.03739,0.00908746,0.0193227,825,610,-0.213052,1.81765
-392,414,-0.227966,-1.88147,-0.00526274,0.00744979,0.00829374,0.0115428,-0.00935579,1.11235,0.0120878,0.0263338,832,610,-0.227986,1.8815
-385,414,-0.470581,-2.20343,-0.00492186,0.0130379,0.00991759,0.017437,-0.00932096,1.15331,0.0156838,0.0416483,839,610,-0.470591,2.20345
-378,414,-0.926575,-2.40942,-0.00405814,0.0206722,0.011562,0.0252357,-0.00862158,1.19487,0.0203168,0.0454612,846,610,-0.926596,2.40943
-371,414,-0.785461,-2.70148,-0.002268,0.0308695,0.013193,0.0354804,-0.0068789,1.23457,0.0262487,0.0425914,853,610,-0.785443,2.70148
-364,414,-0.532959,-2.75726,0.000346755,0.04398,0.014754,0.0485006,-0.00417378,1.27348,0.033811,0.043621,860,610,-0.532939,2.75723
-357,414,-0.545227,-2.75262,0.0036077,0.0596781,0.0160183,0.0639316,-0.000645779,1.31125,0.042838,0.0467183,867,610,-0.545234,2.75261
-350,414,-0.638916,-2.92126,0.00694304,0.0783742,0.0169035,0.0821723,0.00314494,1.34977,0.0537639,0.0467252,874,610,-0.638944,2.92126
-343,414,-0.451294,-3.07715,0.0102628,0.100119,0.0174035,0.103372,0.00700983,1.38601,0.0667006,0.0470619,881,610,-0.451285,3.07714
-336,414,-0.0945435,-3.47839,0,0,0,0,0,0,0,-1,888,610,-0.0945377,3.47838
-329,414,-4.73792,-1.55701,0,0,0,0,0,0,0,-1,895,610,-4.73793,1.557
-322,414,-4.42236,-1.29163,0,0,0,0,0,0,0,-1,902,610,-4.42238,1.2916
-315,414,0,0,0,0,0,0,0,0,0,-1,909,610,0,0
-308,414,0,0,0,0,0,0,0,0,0,-1,916,610,0,0
-301,414,0,0,0,0,0,0,0,0,0,-1,923,610,0,0
-294,414,0,0,0,0,0,0,0,0,0,-1,930,610,0,0
-287,414,0,0,0,0,0,0,0,0,0,-1,937,610,0,0
-280,414,0,0,0,0,0,0,0,0,0,-1,944,610,0,0
-273,414,0,0,0,0,0,0,0,0,0,-1,951,610,0,0
-266,414,0,0,0,0,0,0,0,0,0,-1,958,610,0,0
-259,414,0,0,0,0,0,0,0,0,0,-1,965,610,0,0
-252,414,0,0,0,0,0,0,0,0,0,-1,972,610,0,0
-245,414,0,0,0,0,0,0,0,0,0,-1,979,610,0,0
-238,414,0,0,0,0,0,0,0,0,0,-1,986,610,0,0
-231,414,0,0,0,0,0,0,0,0,0,-1,993,610,0,0
-224,414,0,0,0,0,0,0,0,0,0,-1,1000,610,0,0
-217,414,0,0,0,0,0,0,0,0,0,-1,1007,610,0,0
-210,414,0,0,0,0,0,0,0,0,0,-1,1014,610,0,0
-203,414,0,0,0,0,0,0,0,0,0,-1,1021,610,0,0
-196,414,0,0,0,0,0,0,0,0,0,-1,1028,610,0,0
-189,414,0,0,0,0,0,0,0,0,0,-1,1035,610,0,0
-182,414,0,0,0,0,0,0,0,0,0,-1,1042,610,0,0
-175,414,0,0,0,0,0,0,0,0,0,-1,1049,610,0,0
-168,414,0,0,0,0,0,0,0,0,0,-1,1056,610,0,0
-161,414,0,0,0,0,0,0,0,0,0,-1,1063,610,0,0
-154,414,0,0,0,0,0,0,0,0,0,-1,1070,610,0,0
-147,414,0,0,0,0,0,0,0,0,0,-1,1077,610,0,0
-140,414,0,0,0,0,0,0,0,0,0,-1,1084,610,0,0
-133,414,0,0,0,0,0,0,0,0,0,-1,1091,610,0,0
-126,414,0,0,0,0,0,0,0,0,0,-1,1098,610,0,0
-119,414,0,0,0,0,0,0,0,0,0,-1,1105,610,0,0
-112,414,0,0,0,0,0,0,0,0,0,-1,1112,610,0,0
-105,414,0,0,0,0,0,0,0,0,0,-1,1119,610,0,0
-98,414,0,0,0,0,0,0,0,0,0,-1,1126,610,0,0
-91,414,0,0,0,0,0,0,0,0,0,-1,1133,610,0,0
-84,414,0,0,0,0,0,0,0,0,0,-1,1140,610,0,0
-77,414,0,0,0,0,0,0,0,0,0,-1,1147,610,0,0
-70,414,0,0,0,0,0,0,0,0,0,-1,1154,610,0,0
-63,414,0,0,0,0,0,0,0,0,0,-1,1161,610,0,0
-56,414,0,0,0,0,0,0,0,0,0,-1,1168,610,0,0
-49,414,0,0,0,0,0,0,0,0,0,-1,1175,610,0,0
-42,414,0,0,0,0,0,0,0,0,0,-1,1182,610,0,0
-35,414,0,0,0,0,0,0,0,0,0,-1,1189,610,0,0
-28,414,0,0,0,0,0,0,0,0,0,-1,1196,610,0,0
-21,414,0,0,0,0,0,0,0,0,0,-1,1203,610,0,0
-14,414,0,0,0,0,0,0,0,0,0,-1,1210,610,0,0
-7,414,0,0,0,0,0,0,0,0,0,-1,1217,610,0,0
0,414,0,0,0,0,0,0,0,0,0,-1,1224,610,0,0
7,414,0,0,0,0,0,0,0,0,0,-1,1231,610,0,0
14,414,0,0,0,0,0,0,0,0,0,-1,1238,610,0,0
21,414,0,0,0,0,0,0,0,0,0,-1,1245,610,0,0
28,414,0,0,0,0,0,0,0,0,0,-1,1252,610,0,0
35,414,0,0,0,0,0,0,0,0,0,-1,1259,610,0,0
42,414,0,0,0,0,0,0,0,0,0,-1,1266,610,0,0
49,414,0,0,0,0,0,0,0,0,0,-1,1273,610,0,0
56,414,0,0,0,0,0,0,0,0,0,-1,1280,610,0,0
63,414,0,0,0,0,0,0,0,0,0,-1,1287,610,0,0
70,414,0,0,0,0,0,0,0,0,0,-1,1294,610,0,0
77,414,0,0,0,0,0,0,0,0,0,-1,1301,610,0,0
84,414,0,0,0,0,0,0,0,0,0,-1,1308,610,0,0
91,414,0,0,0,0,0,0,0,0,0,-1,1315,610,0,0
98,414,0,0,0,0,0,0,0,0,0,-1,1322,610,0,0
105,414,0,0,0,0,0,0,0,0,0,-1,1329,610,0,0
112,414,0,0,0,0,0,0,0,0,0,-1,1336,610,0,0
119,414,0,0,0,0,0,0,0,0,0,-1,1343,610,0,0
126,414,0,0,0,0,0,0,0,0,0,-1,1350,610,0,0
133,414,0,0,0,0,0,0,0,0,0,-1,1357,610,0,0
140,414,0,0,0,0,0,0,0,0,0,-1,1364,610,0,0
147,414,0,0,0,0,0,0,0,0,0,-1,1371,610,0,0
154,414,0,0,0,0,0,0,0,0,0,-1,1378,610,0,0
161,414,0,0,0,0,0,0,0,0,0,-1,1385,610,0,0
168,414,0,0,0,0,0,0,0,0,0,-1,1392,610,0,0
175,414,0,0,0,0,0,0,0,0,0,-1,1399,610,0,0
182,414,0,0,0,0,0,0,0,0,0,-1,1406,610,0,0
189,414,0,0,0,0,0,0,0,0,0,-1,1413,610,0,0
196,414,0,0,0,0,0,0,0,0,0,-1,1420,610,0,0
203,414,0,0,0,0,0,0,0,0,0,-1,1427,610,0,0
210,414,0,0,0,0,0,0,0,0,0,-1,1434,610,0,0
217,414,0,0,0,0,0,0,0,0,0,-1,1441,610,0,0
224,414,0,0,0,0,0,0,0,0,0,-1,1448,610,0,0
231,414,0,0,0,0,0,0,0,0,0,-1,1455,610,0,0
238,414,0,0,0,0,0,0,0,0,0,-1,1462,610,0,0
245,414,0,0,0,0,0,0,0,0,0,-1,1469,610,0,0
252,414,0,0,0,0,0,0,0,0,0,-1,1476,610,0,0
259,414,0,0,0,0,0,0,0,0,0,-1,1483,610,0,0
266,414,0,0,0,0,0,0,0,0,0,-1,1490,610,0,0
273,414,0,0,0,0,0,0,0,0,0,-1,1497,610,0,0
280,414,0,0,0,0,0,0,0,0,0,-1,1504,610,0,0
287,414,0,0,0,0,0,0,0,0,0,-1,1511,610,0,0
294,414,0,0,0,0,0,0,0,0,0,-1,1518,610,0,0
301,414,0,0,0,0,0,0,0,0,0,-1,1525,610,0,0
308,414,0,0,0,0,0,0,0,0,0,-1,1532,610,0,0
315,414,0,0,0,0,0,0,0,0,0,-1,1539,610,0,0
322,414,0,0,0,0,0,0,0,0,0,-1,1546,610,0,0
329,414,0,0,0,0,0,0,0,0,0,-1,1553,610,0,0
336,414,0,0,0,0,0,0,0,0,0,-1,1560,610,0,0
343,414,0,0,0,0,0,0,0,0,0,-1,1567,610,0,0
350,414,0,0,0,0,0,0,0,0,0,-1,1574,610,0,0
357,414,0,0,0,0,0,0,0,0,0,-1,1581,610,0,0
364,414,0,0,0,0,0,0,0,0,0,-1,1588,610,0,0
371,414,0,0,0,0,0,0,0,0,0,-1,1595,610,0,0
378,414,0,0,0,0,0,0,0,0,0,-1,1602,610,0,0
385,414,0,0,0,0,0,0,0,0,0,-1,1609,610,0,0
392,414,0,0,0,0,0,0,0,0,0,-1,1616,610,0,0
399,414,0,0,0,0,0,0,0,0,0,-1,1623,610,0,0
406,414,0,0,0,0,0,0,0,0,0,-1,1630,610,0,0
413,414,0,0,0,0,0,0,0,0,0,-1,1637,610,0,0
420,414,0,0,0,0,0,0,0,0,0,-1,1644,610,0,0
427,414,0,0,0,0,0,0,0,0,0,-1,1651,610,0,0
434,414,0,0,0,0,0,0,0,0,0,-1,1658,610,0,0
441,414,7.84375,0.584412,0,0,0,0,0,0,0,-1,1665,610,7.84379,-0.584394
448,414,7.40808,1.25446,0,0,0,0,0,0,0,-1,1672,610,7.40807,-1.25446
455,414,6.3512,1.73846,0,0,0,0,0,0,0,-1,1679,610,6.3512,-1.73847
462,414,8.18103,3.22113,0,0,0,0,0,0,0,-1,1686,610,8.18108,-3.22112
469,414,8.38513,2.49579,0,0,0,0,0,0,0,-1,1693,610,8.38516,-2.49576
476,414,8.64099,1.71161,0,0,0,0,0,0,0,-1,1700,610,8.64097,-1.71164
483,414,8.62744,0.687622,0,0,0,0,0,0,0,-1,1707,610,8.62749,-0.687615
490,414,8.38831,-0.0302734,0,0,0,0,0,0,0,-1,1714,610,8.38835,0.0302913
497,414,4.71094,-0.110046,0,0,0,0,0,0,0,-1,1721,610,4.71089,0.110024
504,414,4.68005,0.02771,0,0,0,0,0,0,0,-1,1728,610,4.68006,-0.0277179
511,414,4.88281,-0.81781,0,0,0,0,0,0,0,-1,1735,610,4.88278,0.817809
518,414,5.05566,-0.973083,0,0,0,0,0,0,0,-1,1742,610,5.05566,0.973055
525,414,5.21558,-1.12189,0,0,0,0,0,0,0,-1,1749,610,5.21556,1.12187
532,414,5.14771,-1.43555,-0.00464194,-0.00526857,-0.0100171,0.00506672,-0.0149772,-0.769764,0.0120347,0.047202,1756,610,5.14772,1.43553
539,414,4.98999,-1.17853,-0.00622394,-0.00525093,-0.00421401,-0.00149543,-0.00997944,-0.842869,0.00621475,0.0219737,1763,610,4.99,1.17852
546,414,4.99231,-1.02643,-0.00488701,-0.00390586,-0.0033997,-0.000961528,-0.00783135,-0.857053,0.00493173,0.0111978,1770,610,4.99233,1.02645
553,414,5.0022,-0.929077,-0.00373458,-0.00268384,-0.00261731,-0.000539692,-0.00587873,-0.884446,0.00375222,0.0102365,1777,610,5.00221,0.929107
560,414,4.99683,-0.800049,-0.0024187,-0.00174732,-0.00181226,-0.000239921,-0.0039261,-0.876977,0.0025412,0.0118136,1784,610,4.99677,0.800078
567,414,4.98755,-0.688293,-0.0012299,-0.00098604,-0.00105734,-4.36242e-05,-0.00217231,-0.842803,0.00143389,0.020276,1791,610,4.98754,0.688273
574,414,4.98022,-0.591187,-2.73314e-06,-0.000243402,-0.000107882,3.8546e-05,-0.000284681,-0.365445,0.000203854,0.0191953,1798,610,4.98022,0.591209
581,414,4.99011,-0.486694,0.000863036,0.000523472,0.0008713,0.00158094,-0.000194433,0.689174,0.00112439,0.0161196,1805,610,4.99013,0.48671
588,414,4.99939,-0.385864,0.00147852,0.00107954,0.0015713,0.00286294,-0.000304883,0.722256,0.00201795,0.0153506,1812,610,4.99942,0.385835
595,414,5.00684,-0.269165,0.00159938,0.0017305,0.00201136,0.00367737,-0.000347482,0.80169,0.00257523,0.0193252,1819,610,5.00684,0.269173
602,414,5.02698,-0.161804,0.00114909,0.00247162,0.00227626,0.00418072,-0.000560016,0.926759,0.00299134,0.0215102,1826,610,5.02697,0.161833
609,414,4.97131,-0.0818481,0.000491175,0.00340656,0.00271526,0.00503067,-0.00113293,1.03174,0.00378832,0.0164292,1833,610,4.97128,0.0818618
616,414,5.01306,-0.0661011,-0.000887552,0.00457353,0.00298695,0.00588993,-0.00220395,1.15569,0.00483183,0.0266732,1840,610,5.01302,0.0661048
623,414,5.26941,-0.057251,-0.0032458,0.0060252,0.00295254,0.00688564,-0.00410624,1.28723,0.00641344,0.0382481,1847,610,5.26944,0.0572247
630,414,5.13354,0.530762,-0.00687183,0.00755377,0.00246796,0.0079643,-0.00728237,1.40596,0.00880561,0.0462664,1854,610,5.1335,-0.530755
637,414,3.96448,-0.171692,0,0,0,0,0,0,0,-1,1861,610,3.96451,0.171718
644,414,3.80115,0.324402,0,0,0,0,0,0,0,-1,1868,610,3.80111,-0.324413
651,414,3.6377,0.820557,0,0,0,0,0,0,0,-1,1875,610,3.6377,-0.820543
658,414,2.29761,3.87323,0,0,0,0,0,0,0,-1,1882,610,2.29758,-3.87325
665,414,0,0,0,0,0,0,0,0,0,-1,1889,610,0,0
672,414,0,0,0,0,0,0,0,0,0,-1,1896,610,0,0
679,414,0,0,0,0,0,0,0,0,0,-1,1903,610,0,0
686,414,0,0,0,0,0,0,0,0,0,-1,1910,610,0,0
693,414,0,0,0,0,0,0,0,0,0,-1,1917,610,0,0
700,414,0,0,0,0,0,0,0,0,0,-1,1924,610,0,0
707,414,0,0,0,0,0,0,0,0,0,-1,1931,610,0,0
714,414,0,0,0,0,0,0,0,0,0,-1,1938,610,0,0
721,414,0,0,0,0,0,0,0,0,0,-1,1945,610,0,0
728,414,0,0,0,0,0,0,0,0,0,-1,1952,610,0,0
735,414,0,0,0,0,0,0,0,0,0,-1,1959,610,0,0
742,414,0,0,0,0,0,0,0,0,0,-1,1966,610,0,0
749,414,0,0,0,0,0,0,0,0,0,-1,1973,610,0,0
756,414,0,0,0,0,0,0,0,0,0,-1,1980,610,0,0
763,414,0,0,0,0,0,0,0,0,0,-1,1987,610,0,0
770,414,0,0,0,0,0,0,0,0,0,-1,1994,610,0,0
777,414,0,0,0,0,0,0,0,0,0,-1,2001,610,0,0
784,414,0,0,0,0,0,0,0,0,0,-1,2008,610,0,0
791,414,0,0,0,0,0,0,0,0,0,-1,2015,610,0,0
798,414,0,0,0,0,0,0,0,0,0,-1,2022,610,0,0
805,414,0,0,0,0,0,0,0,0,0,-1,2029,610,0,0
812,414,0,0,0,0,0,0,0,0,0,-1,2036,610,0,0
-700,407,0,0,0,0,0,0,0,0,0,-1,524,617,0,0
-693,407,0,0,0,0,0,0,0,0,0,-1,531,617,0,0
-686,407,0,0,0,0,0,0,0,0,0,-1,538,617,0,0
-679,407,0,0,0,0,0,0,0,0,0,-1,545,617,0,0
-672,407,0,0,0,0,0,0,0,0,0,-1,552,617,0,0
-665,407,0,0,0,0,0,0,0,0,0,-1,559,617,0,0
-658,407,0,0,0,0,0,0,0,0,0,-1,566,617,0,0
-651,407,0,0,0,0,0,0,0,0,0,-1,573,617,0,0
-644,407,0,0,0,0,0,0,0,0,0,-1,580,617,0,0
-637,407,0,0,0,0,0,0,0,0,0,-1,587,617,0,0
-630,407,0,0,0,0,0,0,0,0,0,-1,594,617,0,0
-623,407,0,0,0,0,0,0,0,0,0,-1,601,617,0,0
-616,407,0,0,0,0,0,0,0,0,0,-1,608,617,0,0
-609,407,0,0,0,0,0,0,0,0,0,-1,615,617,0,0
-602,407,0,0,0,0,0,0,0,0,0,-1,622,617,0,0
-595,407,0,0,0,0,0,0,0,0,0,-1,629,617,0,0
-588,407,0,0,0,0,0,0,0,0,0,-1,636,617,0,0
-581,407,0,0,0,0,0,0,0,0,0,-1,643,617,0,0
-574,407,0,0,0,0,0,0,0,0,0,-1,650,617,0,0
-567,407,0,0,0,0,0,0,0,0,0,-1,657,617,0,0
-560,407,0,0,0,0,0,0,0,0,0,-1,664,617,0,0
-553,407,0,0,0,0,0,0,0,0,0,-1,671,617,0,0
-546,407,-1.64258,0.884705,0,0,0,0,0,0,0,-1,678,617,-1.64257,-0.884695
-539,407,-1.00677,0.267761,0.113898,0.0330447,-0.0840881,0.166773,-0.0198298,-0.561326,0.118347,0.0450301,685,617,-1.0068,-0.267766
-532,407,-0.291443,-0.439636,0.0942843,0.0292468,-0.0676551,0.13683,-0.013299,-0.561372,0.0959607,0.0450693,692,617,-0.291444,0.439626
-525,407,0.29425,-1.177,0.0772746,0.0255313,-0.0537831,0.111085,-0.0082792,-0.561217,0.076965,0.0469639,699,617,0.294276,1.177
-518,407,0.604858,-1.92609,0.0616913,0.0214462,-0.0416213,0.0877992,-0.00466166,-0.560231,0.0601469,0.0480648,706,617,0.604836,1.92607
-511,407,1.63696,-0.986938,0,0,0,0,0,0,0,-1,713,617,1.63696,0.98691
-504,407,0.921692,-0.865967,0,0,0,0,0,0,0,-1,720,617,0.921663,0.865971
-497,407,-0.308594,-0.74762,0,0,0,0,0,0,0,-1,727,617,-0.308622,0.747592
-490,407,-0.329529,-0.555725,0.0180299,0.00789514,-0.00973727,0.0239394,0.0019856,-0.545477,0.0153407,0.0182783,734,617,-0.32952,0.555699
-483,407,-0.313232,-0.6203,0.0121346,0.00631823,-0.00619639,0.0160713,0.0023815,-0.56599,0.0100152,0.0102797,741,617,-0.313244,0.62028
-476,407,-0.303528,-0.703674,0.0077743,0.00514736,-0.00371954,0.0104055,0.00251619,-0.61567,0.0062689,0.00878347,748,617,-0.303533,0.703676
-469,407,-0.301147,-0.806885,0.0049862,0.00447062,-0.00193963,0.00668509,0.00277173,-0.719333,0.00387836,0.0116656,755,617,-0.301164,0.806867
-462,407,-0.317322,-0.934265,0.00366024,0.00261851,-0.000982153,0.0042511,0.00202766,-0.54159,0.00245524,0.0189514,762,617,-0.317343,0.934258
-455,407,-0.318115,-1.04803,0.00241229,0.0012889,-0.000333929,0.00250405,0.00119713,-0.268182,0.00144618,0.0203575,769,617,-0.318095,1.04806
-448,407,-0.313599,-1.1156,0.00150729,0.000290591,0.000334357,0.00159312,0.000204762,0.251273,0.00100083,0.0173183,776,617,-0.313616,1.11559
-441,407,-0.335571,-1.19122,0.000207324,-0.00082714,0.00115863,0.000958931,-0.00157875,0.575463,0.00147962,0.0132696,783,617,-0.335586,1.1912
-434,407,-0.322754,-1.32086,-0.00154418,-0.00159935,0.00203269,0.000461109,-0.00360464,0.778613,0.00257062,0.0097114,790,617,-0.322739,1.32086
-427,407,-0.312683,-1.43658,-0.00333938,-0.00217798,0.0031067,0.000401828,-0.00591919,0.877791,0.00408666,0.0102306,797,617,-0.312696,1.4366
-420,407,-0.310913,-1.53271,-0.00458209,-0.00259304,0.00442004,0.000942983,-0.00811811,0.896057,0.00575222,0.0101879,804,617,-0.31091,1.53271
-413,407,-0.296326,-1.6225,-0.00541805,-0.00258499,0.00591029,0.00207615,-0.0100792,0.903016,0.00750781,0.0100195,811,617,-0.296322,1.62249
-406,407,-0.288513,-1.69141,-0.00635421,-0.00156465,0.00738376,0.00380297,-0.0117218,0.942211,0.00934384,0.0184359,818,617,-0.288508,1.69141
-399,407,-0.302979,-1.67834,-0.00690948,0.00168654,0.00892392,0.00729354,-0.0125165,1.00982,0.0115691,0.0354874,825,617,-0.30296,1.67833
-392,407,-0.304321,-1.79932,-0.00656705,0.008256,0.010661,0.0138286,-0.0121397,1.08915,0.0150034,0.0463495,832,617,-0.304349,1.79931
-385,407,-0.732361,-2.43414,-0.00597399,0.0151016,0.0126394,0.0210198,-0.0118922,1.13288,0.0192437,0.048403,839,617,-0.732353,2.43416
-378,407,-1.37177,-2.37903,-0.00463318,0.0242617,0.0145138,0.030293,-0.0106645,1.17695,0.0245353,0.0464641,846,617,-1.37176,2.37905
-371,407,-1.46606,-2.48383,-0.00220902,0.0364312,0.0162557,0.0423601,-0.00813796,1.22106,0.0313073,0.0456487,853,617,-1.46605,2.48385
-364,407,-1.23395,-2.69592,0.00133321,0.052217,0.0178793,0.0578711,-0.00432086,1.26451,0.0400987,0.0458217,860,617,-1.23396,2.69591
-357,407,-1.17059,-3.10681,0.00601611,0.0708867,0.0190525,0.0760685,0.000834279,1.30524,0.0504365,0.0447125,867,617,-1.17061,3.10679
-350,407,-1.18158,-3.76581,0.0111075,0.0931765,0.0197068,0.0976633,0.00662067,1.34693,0.063018,0.0482002,874,617,-1.18161,3.76579
-343,407,-0.944946,-4.26233,0.0166543,0.119198,0.0199262,0.122934,0.0129184,1.38546,0.0780072,0.0494068,881,617,-0.944976,4.26232
-336,407,-0.683228,-4.89105,0,0,0,0,0,0,0,-1,888,617,-0.683211,4.89108
-329,407,-0.549561,-0.736267,0,0,0,0,0,0,0,-1,895,617,-0.549544,0.736255
-322,407,0,0,0,0,0,0,0,0,0,-1,902,617,0,0
-315,407,0,0,0,0,0,0,0,0,0,-1,909,617,0,0
-308,407,0,0,0,0,0,0,0,0,0,-1,916,617,0,0
-301,407,0,0,0,0,0,0,0,0,0,-1,923,617,0,0
-294,407,0,0,0,0,0,0,0,0,0,-1,930,617,0,0
-287,407,0,0,0,0,0,0,0,0,0,-1,937,617,0,0
-280,407,0,0,0,0,0,0,0,0,0,-1,944,617,0,0
-273,407,0,0,0,0,0,0,0,0,0,-1,951,617,0,0
-266,407,0,0,0,0,0,0,0,0,0,-1,958,617,0,0
-259,407,0,0,0,0,0,0,0,0,0,-1,965,617,0,0
-252,407,0,0,0,0,0,0,0,0,0,-1,972,617,0,0
-245,407,0,0,0,0,0,0,0,0,0,-1,979,617,0,0
-238,407,0,0,0,0,0,0,0,0,0,-1,986,617,0,0
-231,407,0,0,0,0,0,0,0,0,0,-1,993,617,0,0
-224,407,0,0,0,0,0,0,0,0,0,-1,1000,617,0,0
-217,407,0,0,0,0,0,0,0,0,0,-1,1007,617,0,0
-210,407,0,0,0,0,0,0,0,0,0,-1,1014,617,0,0
-203,407,0,0,0,0,0,0,0,0,0,-1,1021,617,0,0
-196,407,0,0,0,0,0,0,0,0,0,-1,1028,617,0,0
-189,407,0,0,0,0,0,0,0,0,0,-1,1035,617,0,0
-182,407,0,0,0,0,0,0,0,0,0,-1,1042,617,0,0
-175,407,0,0,0,0,0,0,0,0,0,-1,1049,617,0,0
-168,407,0,0,0,0,0,0,0,0,0,-1,1056,617,0,0
-161,407,0,0,0,0,0,0,0,0,0,-1,1063,617,0,0
-154,407,0,0,0,0,0,0,0,0,0,-1,1070,617,0,0
-147,407,0,0,0,0,0,0,0,0,0,-1,1077,617,0,0
-140,407,0,0,0,0,0,0,0,0,0,-1,1084,617,0,0
-133,407,0,0,0,0,0,0,0,0,0,-1,1091,617,0,0
-126,407,0,0,0,0,0,0,0,0,0,-1,1098,617,0,0
-119,407,0,0,0,0,0,0,0,0,0,-1,1105,617,0,0
-112,407,0,0,0,0,0,0,0,0,0,-1,1112,617,0,0
-105,407,0,0,0,0,0,0,0,0,0,-1,1119,617,0,0
-98,407,0,0,0,0,0,0,0,0,0,-1,1126,617,0,0
-91,407,0,0,0,0,0,0,0,0,0,-1,1133,617,0,0
-84,407,0,0,0,0,0,0,0,0,0,-1,1140,617,0,0
-77,407,0,0,0,0,0,0,0,0,0,-1,1147,617,0,0
-70,407,0,0,0,0,0,0,0,0,0,-1,1154,617,0,0
-63,407,0,0,0,0,0,0,0,0,0,-1,1161,617,0,0
-56,407,0,0,0,0,0,0,0,0,0,-1,1168,617,0,0
-49,407,0,0,0,0,0,0,0,0,0,-1,1175,617,0,0
-42,407,0,0,0,0,0,0,0,0,0,-1,1182,617,0,0
-35,407,0,0,0,0,0,0,0,0,0,-1,1189,617,0,0
-28,407,0,0,0,0,0,0,0,0,0,-1,1196,617,0,0
-21,407,0,0,0,0,0,0,0,0,0,-1,1203,617,0,0
-14,407,0,0,0,0,0,0,0,0,0,-1,1210,617,0,0
-7,407,0,0,0,0,0,0,0,0,0,-1,1217,617,0,0
0,407,0,0,0,0,0,0,0,0,0,-1,1224,617,0,0
7,407,0,0,0,0,0,0,0,0,0,-1,1231,617,0,0
14,407,0,0,0,0,0,0,0,0,0,-1,1238,617,0,0
21,407,0,0,0,0,0,0,0,0,0,-1,1245,617,0,0
28,407,0,0,0,0,0,0,0,0,0,-1,1252,617,0,0
35,407,0,0,0,0,0,0,0,0,0,-1,1259,617,0,0
42,407,0,0,0,0,0,0,0,0,0,-1,1266,617,0,0
49,407,0,0,0,0,0,0,0,0,0,-1,1273,617,0,0
56,407,0,0,0,0,0,0,0,0,0,-1,1280,617,0,0
63,407,0,0,0,0,0,0,0,0,0,-1,1287,617,0,0
70,407,0,0,0,0,0,0,0,0,0,-1,1294,617,0,0
77,407,0,0,0,0,0,0,0,0,0,-1,1301,617,0,0
84,407,0,0,0,0,0,0,0,0,0,-1,1308,617,0,0
91,407,0,0,0,0,0,0,0,0,0,-1,1315,617,0,0
98,407,0,0,0,0,0,0,0,0,0,-1,1322,617,0,0
105,407,0,0,0,0,0,0,0,0,0,-1,1329,617,0,0
112,407,0,0,0,0,0,0,0,0,0,-1,1336,617,0,0
119,407,0,0,0,0,0,0,0,0,0,-1,1343,617,0,0
126,407,0,0,0,0,0,0,0,0,0,-1,1350,617,0,0
133,407,0,0,0,0,0,0,0,0,0,-1,1357,617,0,0
140,407,0,0,0,0,0,0,0,0,0,-1,1364,617,0,0
147,407,0,0,0,0,0,0,0,0,0,-1,1371,617,0,0
154,407,0,0,0,0,0,0,0,0,0,-1,1378,617,0,0
161,407,0,0,0,0,0,0,0,0,0,-1,1385,617,0,0
168,407,0,0,0,0,0,0,0,0,0,-1,1392,617,0,0
175,407,0,0,0,0,0,0,0,0,0,-1,1399,617,0,0
182,407,0,0,0,0,0,0,0,0,0,-1,1406,617,0,0
189,407,0,0,0,0,0,0,0,0,0,-1,1413,617,0,0
196,407,0,0,0,0,0,0,0,0,0,-1,1420,617,0,0
203,407,0,0,0,0,0,0,0,0,0,-1,1427,617,0,0
210,407,0,0,0,0,0,0,0,0,0,-1,1434,617,0,0
217,407,0,0,0,0,0,0,0,0,0,-1,1441,617,0,0
224,407,0,0,0,0,0,0,0,0,0,-1,1448,617,0,0
231,407,0,0,0,0,0,0,0,0,0,-1,1455,617,0,0
238,407,0,0,0,0,0,0,0,0,0,-1,1462,617,0,0
245,407,0,0,0,0,0,0,0,0,0,-1,1469,617,0,0
252,407,0,0,0,0,0,0,0,0,0,-1,1476,617,0,0
259,407,0,0,0,0,0,0,0,0,0,-1,1483,617,0,0
266,407,0,0,0,0,0,0,0,0,0,-1,1490,617,0,0
273,407,0,0,0,0,0,0,0,0,0,-1,1497,617,0,0
280,407,0,0,0,0,0,0,0,0,0,-1,1504,617,0,0
287,407,0,0,0,0,0,0,0,0,0,-1,1511,617,0,0
294,407,0,0,0,0,0,0,0,0,0,-1,1518,617,0,0
301,407,0,0,0,0,0,0,0,0,0,-1,1525,617,0,0
308,407,0,0,0,0,0,0,0,0,0,-1,1532,617,0,0
315,407,0,0,0,0,0,0,0,0,0,-1,1539,617,0,0
322,407,0,0,0,0,0,0,0,0,0,-1,1546,617,0,0
329,407,0,0,0,0,0,0,0,0,0,-1,1553,617,0,0
336,407,0,0,0,0,0,0,0,0,0,-1,1560,617,0,0
343,407,0,0,0,0,0,0,0,0,0,-1,1567,617,0,0
350,407,0,0,0,0,0,0,0,0,0,-1,1574,617,0,0
357,407,0,0,0,0,0,0,0,0,0,-1,1581,617,0,0
364,407,0,0,0,0,0,0,0,0,0,-1,1588,617,0,0
371,407,0,0,0,0,0,0,0,0,0,-1,1595,617,0,0
378,407,0,0,0,0,0,0,0,0,0,-1,1602,617,0,0
385,407,0,0,0,0,0,0,0,0,0,-1,1609,617,0,0
392,407,0,0,0,0,0,0,0,0,0,-1,1616,617,0,0
399,407,0,0,0,0,0,0,0,0,0,-1,1623,617,0,0
406,407,0,0,0,0,0,0,0,0,0,-1,1630,617,0,0
413,407,0,0,0,0,0,0,0,0,0,-1,1637,617,0,0
420,407,0,0,0,0,0,0,0,0,0,-1,1644,617,0,0
427,407,0,0,0,0,0,0,0,0,0,-1,1651,617,0,0
434,407,0,0,0,0,0,0,0,0,0,-1,1658,617,0,0
441,407,0,0,0,0,0,0,0,0,0,-1,1665,617,0,0
448,407,7.02893,2.13843,0,0,0,0,0,0,0,-1,1672,617,7.02899,-2.13844
455,407,7.55237,2.29242,0.0721038,0.00506662,-0.112202,0.155687,-0.0785163,-0.64025,0.137642,0.0403659,1679,617,7.55236,-2.29244
462,407,8.2926,2.46173,0,0,0,0,0,0,0,-1,1686,617,8.29261,-2.46174
469,407,8.71509,2.22681,0.0525681,0.0140283,-0.0923833,0.12767,-0.0610734,-0.682579,0.111209,0.0463257,1693,617,8.71511,-2.22681
476,407,8.89917,1.47766,0.0485961,0.0125026,-0.0794637,0.112036,-0.0509379,-0.673739,0.0962721,0.0480789,1700,617,8.89914,-1.47768
483,407,9.02612,0.682983,0.0448776,0.0107826,-0.0687507,0.0986629,-0.0430027,-0.663868,0.0838686,0.0467828,1707,617,9.02608,-0.683004
490,407,9.12659,0.000671387,0,0,0,0,0,0,0,-1,1714,617,9.12653,-0.000675931
497,407,7.76819,0.855835,0,0,0,0,0,0,0,-1,1721,617,7.7682,-0.855865
504,407,4.69336,0.160706,0,0,0,0,0,0,0,-1,1728,617,4.69337,-0.1607
511,407,5.24072,3.72565,0,0,0,0,0,0,0,-1,1735,617,5.24071,-3.72563
518,407,6.09534,1.9411,0,0,0,0,0,0,0,-1,1742,617,6.09532,-1.94113
525,407,5.72534,-1.35986,0,0,0,0,0,0,0,-1,1749,617,5.72529,1.35988
532,407,5.58044,-1.56647,0,0,0,0,0,0,0,-1,1756,617,5.58042,1.56646
539,407,5.11621,-1.11328,-0.00850953,-0.0069437,-0.00585313,-0.00182135,-0.0136319,-0.851883,0.00854574,0.0290104,1763,617,5.11626,1.11331
546,407,5.0946,-1.01788,-0.00669861,-0.00511967,-0.00468365,-0.00115942,-0.0106589,-0.868893,0.00675269,0.0109068,1770,617,5.09456,1.0179
553,407,5.09363,-0.918274,-0.00518465,-0.00357851,-0.00364764,-0.000646588,-0.00811657,-0.89375,0.00520891,0.0117225,1777,617,5.09363,0.918254
560,407,5.09265,-0.805969,-0.00358944,-0.00241734,-0.00263943,-0.000299683,-0.0057071,-0.894644,0.00370888,0.012432,1784,617,5.0926,0.805989
567,407,5.07471,-0.717896,-0.00225483,-0.00148547,-0.00174297,-8.52325e-05,-0.00365507,-0.89401,0.0024088,0.0241458,1791,617,5.07475,0.717871
574,407,5.09485,-0.623108,-0.000979591,-0.000694708,-0.000764479,-5.95137e-05,-0.00161479,-0.877505,0.00105724,0.0221934,1798,617,5.09481,0.623091
581,407,5.10742,-0.479248,-6.74346e-05,9.09724e-05,0.00018498,0.000212993,-0.000189455,0.987675,0.000232486,0.0153902,1805,617,5.10741,0.479267
588,407,5.10522,-0.383423,0.000541701,0.000630374,0.000829101,0.00141632,-0.000244248,0.812111,0.00103528,0.0102644,1812,617,5.10522,0.383405
595,407,5.11401,-0.269836,0.000719063,0.00132551,0.00123711,0.00229601,-0.000251439,0.905582,0.001621,0.0189315,1819,617,5.11397,0.269849
602,407,5.1217,-0.163147,0.000264672,0.00198455,0.00138317,0.00275331,-0.000504091,1.06351,0.0020246,0.0160984,1826,617,5.12167,0.163118
609,407,5.10352,-0.0623169,-0.000459197,0.00275184,0.00163763,0.00343969,-0.00114704,1.17315,0.00275622,0.0122453,1833,617,5.10351,0.0623061
616,407,5.13708,0.104614,-0.00183561,0.00364261,0.00166322,0.00410803,-0.00230103,1.29794,0.00374898,0.0159185,1840,617,5.13712,-0.1046
623,407,5.09827,0.189758,0,0,0,0,0,0,0,-1,1847,617,5.09825,-0.189777
630,407,4.79944,0.252441,-0.00737282,0.00582677,0.000653643,0.00585906,-0.00740511,1.52144,0.00767539,0.0432531,1854,617,4.79944,-0.252453
637,407,4.60632,0.309631,-0.0115771,0.00697282,-0.00107113,0.00703446,-0.0116388,-1.51331,0.0108897,0.0480839,1861,617,4.60636,-0.309642
644,407,4.15955,0.338745,-0.0164996,0.00748291,-0.00431752,0.00823651,-0.0172532,-1.39799,0.0150202,0.0499572,1868,617,4.1595,-0.33872
651,407,3.87329,0.79071,0,0,0,0,0,0,0,-1,1875,617,3.87334,-0.790704
658,407,4.44519,-2.73022,0,0,0,0,0,0,0,-1,1882,617,4.44519,2.73025
665,407,5.76123,0.375061,0,0,0,0,0,0,0,-1,1889,617,5.76118,-0.37509
672,407,0,0,0,0,0,0,0,0,0,-1,1896,617,0,0
679,407,0,0,0,0,0,0,0,0,0,-1,1903,617,0,0
686,407,0,0,0,0,0,0,0,0,0,-1,1910,617,0,0
693,407,0,0,0,0,0,0,0,0,0,-1,1917,617,0,0
700,407,0,0,0,0,0,0,0,0,0,-1,1924,617,0,0
707,407,0,0,0,0,0,0,0,0,0,-1,1931,617,0,0
714,407,0,0,0,0,0,0,0,0,0,-1,1938,617,0,0
721,407,0,0,0,0,0,0,0,0,0,-1,1945,617,0,0
728,407,0,0,0,0,0,0,0,0,0,-1,1952,617,0,0
735,407,0,0,0,0,0,0,0,0,0,-1,1959,617,0,0
742,407,0,0,0,0,0,0,0,0,0,-1,1966,617,0,0
749,407,0,0,0,0,0,0,0,0,0,-1,1973,617,0,0
756,407,0,0,0,0,0,0,0,0,0,-1,1980,617,0,0
763,407,0,0,0,0,0,0,0,0,0,-1,1987,617,0,0
770,407,0,0,0,0,0,0,0,0,0,-1,1994,617,0,0
777,407,0,0,0,0,0,0,0,0,0,-1,2001,617,0,0
784,407,0,0,0,0,0,0,0,0,0,-1,2008,617,0,0
791,407,0,0,0,0,0,0,0,0,0,-1,2015,617,0,0
798,407,0,0,0,0,0,0,0,0,0,-1,2022,617,0,0
805,407,0,0,0,0,0,0,0,0,0,-1,2029,617,0,0
812,407,0,0,0,0,0,0,0,0,0,-1,2036,617,0,0
-700,400,0,0,0,0,0,0,0,0,0,-1,524,624,0,0
-693,400,0,0,0,0,0,0,0,0,0,-1,531,624,0,0
-686,400,0,0,0,0,0,0,0,0,0,-1,538,624,0,0
-679,400,0,0,0,0,0,0,0,0,0,-1,545,624,0,0
-672,400,0,0,0,0,0,0,0,0,0,-1,552,624,0,0
-665,400,0,0,0,0,0,0,0,0,0,-1,559,624,0,0
-658,400,0,0,0,0,0,0,0,0,0,-1,566,624,0,0
-651,400,0,0,0,0,0,0,0,0,0,-1,573,624,0,0
-644,400,0,0,0,0,0,0,0,0,0,-1,580,624,0,0
-637,400,0,0,0,0,0,0,0,0,0,-1,587,624,0,0
-630,400,0,0,0,0,0,0,0,0,0,-1,594,624,0,0
-623,400,0,0,0,0,0,0,0,0,0,-1,601,624,0,0
-616,400,0,0,0,0,0,0,0,0,0,-1,608,624,0,0
-609,400,0,0,0,0,0,0,0,0,0,-1,615,624,0,0
-602,400,0,0,0,0,0,0,0,0,0,-1,622,624,0,0
-595,400,0,0,0,0,0,0,0,0,0,-1,629,624,0,0
-588,400,0,0,0,0,0,0,0,0,0,-1,636,624,0,0
-581,400,0,0,0,0,0,0,0,0,0,-1,643,624,0,0
-574,400,0,0,0,0,0,0,0,0,0,-1,650,624,0,0
-567,400,0,0,0,0,0,0,0,0,0,-1,657,624,0,0
-560,400,0,0,0,0,0,0,0,0,0,-1,664,624,0,0
-553,400,0,0,0,0,0,0,0,0,0,-1,671,624,0,0
-546,400,-1.85498,0.891174,0,0,0,0,0,0,0,-1,678,624,-1.85501,-0.891169
-539,400,-1.03278,0.145508,0,0,0,0,0,0,0,-1,685,624,-1.03278,-0.145519
-532,400,-0.545776,-0.424072,0,0,0,0,0,0,0,-1,692,624,-0.545778,0.424072
-525,400,0.519836,-1.43372,0.065346,0.0230073,-0.0467357,0.0954832,-0.0071299,-0.572742,0.0661603,0.0467119,699,624,0.519821,1.43373
-518,400,0.819458,-2.41467,0.050882,0.0181273,-0.0357344,0.0738133,-0.004804,-0.570528,0.0508858,0.0469412,706,624,0.819481,2.41464
-511,400,0.778137,-0.697021,0,0,0,0,0,0,0,-1,713,624,0.778159,0.696995
-504,400,0.316711,-0.572998,0.0271496,0.00973708,-0.0180681,0.0384997,-0.00161298,-0.560884,0.0262206,0.0443806,720,624,0.316707,0.573008
-497,400,-0.398315,-0.53241,0.0176996,0.00658896,-0.011203,0.0246491,-0.000360492,-0.555226,0.0165542,0.029395,727,624,-0.398288,0.5324
-490,400,-0.430908,-0.540955,0.012601,0.00535684,-0.00759123,0.01739,0.00056785,-0.562801,0.0114088,0.0153203,734,624,-0.430901,0.54095
-483,400,-0.424133,-0.616211,0.00796452,0.00422414,-0.00467521,0.0111297,0.00105893,-0.595135,0.00709324,0.0145099,741,624,-0.424142,0.616219
-476,400,-0.404968,-0.69397,0.00459993,0.00339306,-0.00262271,0.00668773,0.00130526,-0.672326,0.00409337,0.0123262,748,624,-0.404983,0.693965
-469,400,-0.415283,-0.793335,0.00254915,0.00285585,-0.00108097,0.00379429,0.00161071,-0.855859,0.00219894,0.0134117,755,624,-0.415301,0.793319
-462,400,-0.403809,-0.913391,0.00171993,0.00118465,-0.000179734,0.00177468,0.0011299,-0.295689,0.00103729,0.0183766,762,624,-0.40382,0.913364
-455,400,-0.395203,-1.00214,0.000884372,-0.000105973,0.000527817,0.00111293,-0.000334531,0.408649,0.000875045,0.0191195,769,624,-0.395182,1.00216
-448,400,-0.42627,-1.08862,0.000287716,-0.00109008,0.001274,0.00104715,-0.00184951,0.537547,0.00169364,0.0149673,776,624,-0.426282,1.08862
-441,400,-0.429993,-1.19452,-0.000796045,-0.00225121,0.00217418,0.000769066,-0.00381632,0.623932,0.00283555,0.0141096,783,624,-0.429965,1.19453
-434,400,-0.426086,-1.30444,-0.00240832,-0.00305009,0.00316773,0.000454737,-0.00591315,0.734921,0.00410209,0.0107351,790,624,-0.426066,1.30443
-427,400,-0.421509,-1.41443,-0.00415555,-0.00365963,0.00440532,0.000504704,-0.00831988,0.813512,0.00572225,0.00928587,797,624,-0.421496,1.41446
-420,400,-0.393921,-1.52161,-0.0054003,-0.00414829,0.00592467,0.00118336,-0.0107319,0.838033,0.00757994,0.00967227,804,624,-0.39392,1.52159
-413,400,-0.36676,-1.58185,-0.00636197,-0.00424608,0.00770954,0.00247777,-0.0130858,0.853585,0.00965635,0.0178801,811,624,-0.366763,1.58182
-406,400,-0.549133,-1.60687,-0.00751576,-0.0030897,0.00953778,0.00448843,-0.0150939,0.899395,0.0118457,0.0313392,818,624,-0.549108,1.60688
-399,400,-0.419006,-1.5849,-0.00819823,0.000763837,0.0114189,0.0085495,-0.0159839,0.972376,0.0143795,0.0443888,825,624,-0.41898,1.58492
-392,400,-0.379944,-1.71191,0,0,0,0,0,0,0,-1,832,624,-0.379959,1.71193
-385,400,-0.988831,-2.54047,0,0,0,0,0,0,0,-1,839,624,-0.988836,2.54047
-378,400,-1.797,-2.22809,0,0,0,0,0,0,0,-1,846,624,-1.79698,2.22811
-371,400,-1.927,-2.20447,0,0,0,0,0,0,0,-1,853,624,-1.927,2.20447
-364,400,-1.79364,-2.6134,0,0,0,0,0,0,0,-1,860,624,-1.79362,2.61339
-357,400,-1.81964,-2.91675,0,0,0,0,0,0,0,-1,867,624,-1.81964,2.91673
-350,400,-1.86914,-3.97443,0,0,0,0,0,0,0,-1,874,624,-1.86916,3.97444
-343,400,-1.2868,-4.4472,0,0,0,0,0,0,0,-1,881,624,-1.28681,4.44721
-336,400,0,0,0,0,0,0,0,0,0,-1,888,624,0,0
-329,400,0,0,0,0,0,0,0,0,0,-1,895,624,0,0
-322,400,0,0,0,0,0,0,0,0,0,-1,902,624,0,0
-315,400,0,0,0,0,0,0,0,0,0,-1,909,624,0,0
-308,400,0,0,0,0,0,0,0,0,0,-1,916,624,0,0
-301,400,0,0,0,0,0,0,0,0,0,-1,923,624,0,0
-294,400,0,0,0,0,0,0,0,0,0,-1,930,624,0,0
-287,400,0,0,0,0,0,0,0,0,0,-1,937,624,0,0
-280,400,0,0,0,0,0,0,0,0,0,-1,944,624,0,0
-273,400,0,0,0,0,0,0,0,0,0,-1,951,624,0,0
-266,400,0,0,0,0,0,0,0,0,0,-1,958,624,0,0
-259,400,0,0,0,0,0,0,0,0,0,-1,965,624,0,0
-252,400,0,0,0,0,0,0,0,0,0,-1,972,624,0,0
-245,400,0,0,0,0,0,0,0,0,0,-1,979,624,0,0
-238,400,0,0,0,0,0,0,0,0,0,-1,986,624,0,0
-231,400,0,0,0,0,0,0,0,0,0,-1,993,624,0,0
-224,400,0,0,0,0,0,0,0,0,0,-1,1000,624,0,0
-217,400,0,0,0,0,0,0,0,0,0,-1,1007,624,0,0
-210,400,0,0,0,0,0,0,0,0,0,-1,1014,624,0,0
-203,400,0,0,0,0,0,0,0,0,0,-1,1021,624,0,0
-196,400,0,0,0,0,0,0,0,0,0,-1,1028,624,0,0
-189,400,0,0,0,0,0,0,0,0,0,-1,1035,624,0,0
-182,400,0,0,0,0,0,0,0,0,0,-1,1042,624,0,0
-175,400,0,0,0,0,0,0,0,0,0,-1,1049,624,0,0
-168,400,0,0,0,0,0,0,0,0,0,-1,1056,624,0,0
-161,400,0,0,0,0,0,0,0,0,0,-1,1063,624,0,0
-154,400,0,0,0,0,0,0,0,0,0,-1,1070,624,0,0
-147,400,0,0,0,0,0,0,0,0,0,-1,1077,624,0,0
-140,400,0,0,0,0,0,0,0,0,0,-1,1084,624,0,0
-133,400,0,0,0,0,0,0,0,0,0,-1,1091,624,0,0
-126,400,0,0,0,0,0,0,0,0,0,-1,1098,624,0,0
-119,400,0,0,0,0,0,0,0,0,0,-1,1105,624,0,0
-112,400,0,0,0,0,0,0,0,0,0,-1,1112,624,0,0
-105,400,0,0,0,0,0,0,0,0,0,-1,1119,624,0,0
-98,400,0,0,0,0,0,0,0,0,0,-1,1126,624,0,0
-91,400,0,0,0,0,0,0,0,0,0,-1,1133,624,0,0
-84,400,0,0,0,0,0,0,0,0,0,-1,1140,624,0,0
-77,400,0,0,0,0,0,0,0,0,0,-1,1147,624,0,0
-70,400,0,0,0,0,0,0,0,0,0,-1,1154,624,0,0
-63,400,0,0,0,0,0,0,0,0,0,-1,1161,624,0,0
-56,400,0,0,0,0,0,0,0,0,0,-1,1168,624,0,0
-49,400,0,0,0,0,0,0,0,0,0,-1,1175,624,0,0
-42,400,0,0,0,0,0,0,0,0,0,-1,1182,624,0,0
-35,400,0,0,0,0,0,0,0,0,0,-1,1189,624,0,0
-28,400,0,0,0,0,0,0,0,0,0,-1,1196,624,0,0
-21,400,0,0,0,0,0,0,0,0,0,-1,1203,624,0,0
-14,400,0,0,0,0,0,0,0,0,0,-1,1210,624,0,0
-7,400,0,0,0,0,0,0,0,0,0,-1,1217,624,0,0
0,400,0,0,0,0,0,0,0,0,0,-1,1224,624,0,0
7,400,0,0,0,0,0,0,0,0,0,-1,1231,624,0,0
14,400,0,0,0,0,0,0,0,0,0,-1,1238,624,0,0
21,400,0,0,0,0,0,0,0,0,0,-1,1245,624,0,0
28,400,0,0,0,0,0,0,0,0,0,-1,1252,624,0,0
35,400,0,0,0,0,0,0,0,0,0,-1,1259,624,0,0
42,400,0,0,0,0,0,0,0,0,0,-1,1266,624,0,0
49,400,0,0,0,0,0,0,0,0,0,-1,1273,624,0,0
56,400,0,0,0,0,0,0,0,0,0,-1,1280,624,0,0
63,400,0,0,0,0,0,0,0,0,0,-1,1287,624,0,0
70,400,0,0,0,0,0,0,0,0,0,-1,1294,624,0,0
77,400,0,0,0,0,0,0,0,0,0,-1,1301,624,0,0
84,400,0,0,0,0,0,0,0,0,0,-1,1308,624,0,0
91,400,0,0,0,0,0,0,0,0,0,-1,1315,624,0,0
98,400,0,0,0,0,0,0,0,0,0,-1,1322,624,0,0
105,400,0,0,0,0,0,0,0,0,0,-1,1329,624,0,0
112,400,0,0,0,0,0,0,0,0,0,-1,1336,624,0,0
119,400,0,0,0,0,0,0,0,0,0,-1,1343,624,0,0
126,400,0,0,0,0,0,0,0,0,0,-1,1350,624,0,0
133,400,0,0,0,0,0,0,0,0,0,-1,1357,624,0,0
140,400,0,0,0,0,0,0,0,0,0,-1,1364,624,0,0
147,400,0,0,0,0,0,0,0,0,0,-1,1371,624,0,0
154,400,0,0,0,0,0,0,0,0,0,-1,1378,624,0,0
161,400,0,0,0,0,0,0,0,0,0,-1,1385,624,0,0
168,400,0,0,0,0,0,0,0,0,0,-1,1392,624,0,0
175,400,0,0,0,0,0,0,0,0,0,-1,1399,624,0,0
182,400,0,0,0,0,0,0,0,0,0,-1,1406,624,0,0
189,400,0,0,0,0,0,0,0,0,0,-1,1413,624,0,0
196,400,0,0,0,0,0,0,0,0,0,-1,1420,624,0,0
203,400,0,0,0,0,0,0,0,0,0,-1,1427,624,0,0
210,400,0,0,0,0,0,0,0,0,0,-1,1434,624,0,0
217,400,0,0,0,0,0,0,0,0,0,-1,1441,624,0,0
224,400,0,0,0,0,0,0,0,0,0,-1,1448,624,0,0
231,400,0,0,0,0,0,0,0,0,0,-1,1455,624,0,0
238,400,0,0,0,0,0,0,0,0,0,-1,1462,624,0,0
245,400,0,0,0,0,0,0,0,0,0,-1,1469,624,0,0
252,400,0,0,0,0,0,0,0,0,0,-1,1476,624,0,0
259,400,0,0,0,0,0,0,0,0,0,-1,1483,624,0,0
266,400,0,0,0,0,0,0,0,0,0,-1,1490,624,0,0
273,400,0,0,0,0,0,0,0,0,0,-1,1497,624,0,0
280,400,0,0,0,0,0,0,0,0,0,-1,1504,624,0,0
287,400,0,0,0,0,0,0,0,0,0,-1,1511,624,0,0
294,400,0,0,0,0,0,0,0,0,0,-1,1518,624,0,0
301,400,0,0,0,0,0,0,0,0,0,-1,1525,624,0,0
308,400,0,0,0,0,0,0,0,0,0,-1,1532,624,0,0
315,400,0,0,0,0,0,0,0,0,0,-1,1539,624,0,0
322,400,0,0,0,0,0,0,0,0,0,-1,1546,624,0,0
329,400,0,0,0,0,0,0,0,0,0,-1,1553,624,0,0
336,400,0,0,0,0,0,0,0,0,0,-1,1560,624,0,0
343,400,0,0,0,0,0,0,0,0,0,-1,1567,624,0,0
350,400,0,0,0,0,0,0,0,0,0,-1,1574,624,0,0
357,400,0,0,0,0,0,0,0,0,0,-1,1581,624,0,0
364,400,0,0,0,0,0,0,0,0,0,-1,1588,624,0,0
371,400,0,0,0,0,0,0,0,0,0,-1,1595,624,0,0
378,400,0,0,0,0,0,0,0,0,0,-1,1602,624,0,0
385,400,0,0,0,0,0,0,0,0,0,-1,1609,624,0,0
392,400,0,0,0,0,0,0,0,0,0,-1,1616,624,0,0
399,400,0,0,0,0,0,0,0,0,0,-1,1623,624,0,0
406,400,0,0,0,0,0,0,0,0,0,-1,1630,624,0,0
413,400,0,0,0,0,0,0,0,0,0,-1,1637,624,0,0
420,400,0,0,0,0,0,0,0,0,0,-1,1644,624,0,0
427,400,0,0,0,0,0,0,0,0,0,-1,1651,624,0,0
434,400,0,0,0,0,0,0,0,0,0,-1,1658,624,0,0
441,400,0,0,0,0,0,0,0,0,0,-1,1665,624,0,0
448,400,0,0,0,0,0,0,0,0,0,-1,1672,624,0,0
455,400,8.91309,2.75885,0,0,0,0,0,0,0,-1,1679,624,8.91312,-2.75885
462,400,8.90356,2.37878,0,0,0,0,0,0,0,-1,1686,624,8.90353,-2.37878
469,400,9.14429,1.76849,0.0643892,0.0153326,-0.0916572,0.134743,-0.0550215,-0.654657,0.112738,0.0418546,1693,624,9.14432,-1.76847
476,400,9.23254,1.25995,0.060595,0.013417,-0.0799601,0.120373,-0.0463609,-0.641962,0.0993749,0.0423957,1700,624,9.23252,-1.25994
483,400,9.59766,0.562439,0.0568891,0.0120808,-0.0699472,0.107933,-0.0389627,-0.63041,0.0878709,0.0430675,1707,624,9.59771,-0.56242
490,400,9.92578,-0.213745,0,0,0,0,0,0,0,-1,1714,624,9.92579,0.21376
497,400,9.19141,0.175232,0,0,0,0,0,0,0,-1,1721,624,9.19138,-0.175209
504,400,9.23438,0.00823975,0,0,0,0,0,0,0,-1,1728,624,9.23436,-0.00823766
511,400,6.16687,3.3501,0,0,0,0,0,0,0,-1,1735,624,6.16682,-3.35007
518,400,6.55237,1.74994,0,0,0,0,0,0,0,-1,1742,624,6.55236,-1.74993
525,400,6.99731,1.08783,0,0,0,0,0,0,0,-1,1749,624,6.99736,-1.08785
532,400,5.30908,-1.01331,0,0,0,0,0,0,0,-1,1756,624,5.30906,1.01333
539,400,5.29504,-1.01849,-0.0117592,-0.00892994,-0.00830093,-0.00192397,-0.0187652,-0.869797,0.0119207,0.0319388,1763,624,5.29505,1.01849
546,400,5.21045,-1.02063,-0.00932216,-0.00643744,-0.0066224,-0.00110215,-0.0146574,-0.892623,0.00942575,0.0124919,1770,624,5.21042,1.02062
553,400,5.19128,-0.89801,-0.00730223,-0.00447504,-0.00521841,-0.000482153,-0.0112951,-0.917667,0.00737462,0.0107912,1777,624,5.19129,0.897992
560,400,5.19983,-0.785583,-0.0053311,-0.00302411,-0.00392626,-8.5406e-05,-0.0082698,-0.928273,0.00548495,0.012286,1784,624,5.1998,0.785596
567,400,5.20361,-0.707886,-0.0037685,-0.00188821,-0.00282086,0.000145055,-0.00580176,-0.946251,0.00391709,0.0171898,1791,624,5.20356,0.707867
574,400,5.21619,-0.616211,-0.0023515,-0.001042,-0.00175228,0.000173859,-0.00356736,-0.964194,0.00243826,0.0186908,1798,624,5.21618,0.616231
581,400,5.19934,-0.488342,-0.00127405,-0.000245665,-0.000755544,0.000154058,-0.00167377,-1.08418,0.00117058,0.0153056,1805,624,5.19935,0.488357
588,400,5.19312,-0.382996,-0.000541275,0.000282921,-6.2351e-05,0.000287611,-0.000545965,-1.49572,0.00048891,0.0116481,1812,624,5.19309,0.382993
595,400,5.21265,-0.282593,-0.000168963,0.00101202,0.00042997,0.00115198,-0.000308919,1.25611,0.000889034,0.011346,1819,624,5.21261,0.282611
602,400,5.2179,-0.179321,-0.000463759,0.00158833,0.00059407,0.0017479,-0.000623332,1.30838,0.00141942,0.0111134,1826,624,5.21785,0.179347
609,400,5.1897,-0.0567017,-0.00107555,0.0022124,0.000812117,0.00240205,-0.0012652,1.34138,0.00215093,0.0120383,1833,624,5.18971,0.056721
616,400,5.19812,0.0583496,-0.00225607,0.00286525,0.000754679,0.00297414,-0.00236497,1.42749,0.00308922,0.01607,1840,624,5.19818,-0.0583768
623,400,5.29358,0.193848,-0.00410159,0.00365423,0.000403756,0.00367519,-0.00412256,1.51892,0.0045045,0.0247131,1847,624,5.29356,-0.193849
630,400,5.11426,0.283997,-0.00688623,0.00446101,-0.000406515,0.00447555,-0.00690077,-1.53503,0.00661769,0.031551,1854,624,5.11428,-0.284007
637,400,4.79822,0.345398,-0.0101784,0.00528206,-0.00229887,0.00561665,-0.0105129,-1.42627,0.00945436,0.0439511,1861,624,4.79823,-0.345425
644,400,4.57349,0.412109,-0.0134954,0.00550153,-0.00558388,0.00702125,-0.0150152,-1.30507,0.0129988,0.0473681,1868,624,4.57353,-0.41209
651,400,4.24915,0.616943,-0.0175153,0.00568738,-0.00982546,0.00928903,-0.021117,-1.21944,0.0179922,0.0463602,1875,624,4.2492,-0.616943
658,400,3.96252,0.825256,0,0,0,0,0,0,0,-1,1882,624,3.96256,-0.825271
665,400,4.87756,-1.81354,0,0,0,0,0,0,0,-1,1889,624,4.87758,1.81351
672,400,0,0,0,0,0,0,0,0,0,-1,1896,624,0,0
679,400,0,0,0,0,0,0,0,0,0,-1,1903,624,0,0
686,400,0,0,0,0,0,0,0,0,0,-1,1910,624,0,0
693,400,0,0,0,0,0,0,0,0,0,-1,1917,624,0,0
700,400,0,0,0,0,0,0,0,0,0,-1,1924,624,0,0
707,400,0,0,0,0,0,0,0,0,0,-1,1931,624,0,0
714,400,0,0,0,0,0,0,0,0,0,-1,1938,624,0,0
721,400,0,0,0,0,0,0,0,0,0,-1,1945,624,0,0
728,400,0,0,0,0,0,0,0,0,0,-1,1952,624,0,0
735,400,0,0,0,0,0,0,0,0,0,-1,1959,624,0,0
742,400,0,0,0,0,0,0,0,0,0,-1,1966,624,0,0
749,400,0,0,0,0,0,0,0,0,0,-1,1973,624,0,0
756,400,0,0,0,0,0,0,0,0,0,-1,1980,624,0,0
763,400,0,0,0,0,0,0,0,0,0,-1,1987,624,0,0
770,400,0,0,0,0,0,0,0,0,0,-1,1994,624,0,0
777,400,0,0,0,0,0,0,0,0,0,-1,2001,624,0,0
784,400,0,0,0,0,0,0,0,0,0,-1,2008,624,0,0
791,400,0,0,0,0,0,0,0,0,0,-1,2015,624,0,0
798,400,0,0,0,0,0,0,0,0,0,-1,2022,624,0,0
805,400,0,0,0,0,0,0,0,0,0,-1,2029,624,0,0
812,400,0,0,0,0,0,0,0,0,0,-1,2036,624,0,0
-700,393,0,0,0,0,0,0,0,0,0,-1,524,631,0,0
-693,393,0,0,0,0,0,0,0,0,0,-1,531,631,0,0
-686,393,0,0,0,0,0,0,0,0,0,-1,538,631,0,0
-679,393,0,0,0,0,0,0,0,0,0,-1,545,631,0,0
-672,393,0,0,0,0,0,0,0,0,0,-1,552,631,0,0
-665,393,0,0,0,0,0,0,0,0,0,-1,559,631,0,0
-658,393,0,0,0,0,0,0,0,0,0,-1,566,631,0,0
-651,393,0,0,0,0,0,0,0,0,0,-1,573,631,0,0
-644,393,0,0,0,0,0,0,0,0,0,-1,580,631,0,0
-637,393,0,0,0,0,0,0,0,0,0,-1,587,631,0,0
-630,393,0,0,0,0,0,0,0,0,0,-1,594,631,0,0
-623,393,0,0,0,0,0,0,0,0,0,-1,601,631,0,0
-616,393,0,0,0,0,0,0,0,0,0,-1,608,631,0,0
-609,393,0,0,0,0,0,0,0,0,0,-1,615,631,0,0
-602,393,0,0,0,0,0,0,0,0,0,-1,622,631,0,0
-595,393,0,0,0,0,0,0,0,0,0,-1,629,631,0,0
-588,393,0,0,0,0,0,0,0,0,0,-1,636,631,0,0
-581,393,0,0,0,0,0,0,0,0,0,-1,643,631,0,0
-574,393,0,0,0,0,0,0,0,0,0,-1,650,631,0,0
-567,393,0,0,0,0,0,0,0,0,0,-1,657,631,0,0
-560,393,0,0,0,0,0,0,0,0,0,-1,664,631,0,0
-553,393,-2.79456,0.511475,0,0,0,0,0,0,0,-1,671,631,-2.79456,-0.511482
-546,393,-1.84534,0.201233,0,0,0,0,0,0,0,-1,678,631,-1.84534,-0.201251
-539,393,-1.1062,-0.182495,0.0882579,0.0354315,-0.0654894,0.13246,-0.00877056,-0.593715,0.0913706,0.047302,685,631,-1.1062,0.18249
-532,393,-0.350647,-0.55072,0.0698396,0.0267467,-0.051635,0.104243,-0.00765708,-0.58774,0.0721834,0.0454135,692,631,-0.350645,0.550734
-525,393,0.404846,-0.934753,0.054391,0.020245,-0.0400094,0.0808179,-0.00618188,-0.583733,0.056053,0.047866,699,631,0.404846,0.934749
-518,393,1.20892,-1.32428,0,0,0,0,0,0,0,-1,706,631,1.20895,1.3243
-511,393,-0.693359,0.115784,0,0,0,0,0,0,0,-1,713,631,-0.693372,-0.115789
-504,393,-0.376648,-0.315247,0.0201147,0.00643391,-0.0146025,0.0293996,-0.00285091,-0.566356,0.0206158,0.0378905,720,631,-0.376631,0.315224
-497,393,-0.539063,-0.376404,0.0118819,0.00367066,-0.00863079,0.0173338,-0.00178126,-0.563391,0.0121931,0.0198014,727,631,-0.539088,0.376418
-490,393,-0.52533,-0.517517,0.00805804,0.00285844,-0.00578707,0.0118025,-0.000885978,-0.574286,0.00817965,0.013722,734,631,-0.52532,0.517499
-483,393,-0.519653,-0.603271,0.00456166,0.00206256,-0.00339152,0.0069265,-0.000302275,-0.608898,0.00472165,0.0171661,741,631,-0.519634,0.603252
-476,393,-0.50824,-0.69104,0.0021412,0.00148581,-0.00165688,0.00350248,0.000124527,-0.687769,0.00229461,0.0145908,748,631,-0.508217,0.69103
-469,393,-0.506165,-0.787659,0.000820755,0.00102205,-0.000273157,0.00121252,0.000630294,-0.961914,0.00070023,0.012325,755,631,-0.506144,0.787659
-462,393,-0.502136,-0.914246,0.000509972,-0.000491475,0.000639395,0.000821376,-0.000802878,0.453216,0.000937784,0.0145895,762,631,-0.502149,0.914254
-455,393,-0.509766,-1.01917,0.000118632,-0.00175714,0.00146718,0.000922086,-0.00256059,0.501011,0.00208358,0.0140295,769,631,-0.509791,1.01916
-448,393,-0.538574,-1.13147,-0.000175417,-0.00276038,0.00235451,0.00121804,-0.00415383,0.534385,0.00325218,0.013747,776,631,-0.538593,1.13144
-441,393,-0.535706,-1.22668,-0.00103991,-0.0039914,0.00338241,0.00117467,-0.00620599,0.579697,0.00457938,0.0124584,783,631,-0.535676,1.22666
-434,393,-0.518066,-1.29962,-0.00253032,-0.00487485,0.00452889,0.000975555,-0.00838073,0.658757,0.00593911,0.0105731,790,631,-0.518056,1.29962
-427,393,-0.497742,-1.41492,-0.00430008,-0.00560498,0.00594343,0.0010266,-0.0109317,0.730729,0.00765296,0.0121428,797,631,-0.497751,1.41489
-420,393,-0.477966,-1.49146,-0.00561723,-0.00622919,0.00770239,0.00178526,-0.0136317,0.765546,0.00973758,0.01817,804,631,-0.477965,1.49143
-413,393,-0.603516,-1.41437,-0.00675661,-0.0064775,0.00982149,0.00320542,-0.0164395,0.792502,0.0121697,0.0318195,811,631,-0.603502,1.41438
-406,393,-1.06146,-1.35419,-0.00813054,-0.00524941,0.0120927,0.00548818,-0.0188681,0.844682,0.0147525,0.0412547,818,631,-1.06144,1.35421
-399,393,-1.04657,-1.67932,-0.00895283,-0.000751555,0.0143163,0.0100398,-0.0197442,0.924879,0.0174974,0.0461484,825,631,-1.04659,1.67932
-392,393,-0.802979,-2.27826,0,0,0,0,0,0,0,-1,832,631,-0.803003,2.27827
-385,393,1.6618,-1.7121,0,0,0,0,0,0,0,-1,839,631,1.6618,1.71207
-378,393,0.769409,-2.71588,0,0,0,0,0,0,0,-1,846,631,0.769384,2.71591
-371,393,-0.17218,-3.43622,0,0,0,0,0,0,0,-1,853,631,-0.172195,3.43621
-364,393,-2.31848,-2.61304,0,0,0,0,0,0,0,-1,860,631,-2.31847,2.61303
-357,393,-1.84821,-4.28015,0,0,0,0,0,0,0,-1,867,631,-1.84823,4.28018
-350,393,-2.38123,-3.80634,0,0,0,0,0,0,0,-1,874,631,-2.38121,3.80631
-343,393,0,0,0,0,0,0,0,0,0,-1,881,631,0,0
-336,393,0,0,0,0,0,0,0,0,0,-1,888,631,0,0
-329,393,0,0,0,0,0,0,0,0,0,-1,895,631,0,0
-322,393,0,0,0,0,0,0,0,0,0,-1,902,631,0,0
-315,393,0,0,0,0,0,0,0,0,0,-1,909,631,0,0
-308,393,0,0,0,0,0,0,0,0,0,-1,916,631,0,0
-301,393,0,0,0,0,0,0,0,0,0,-1,923,631,0,0
-294,393,0,0,0,0,0,0,0,0,0,-1,930,631,0,0
-287,393,0,0,0,0,0,0,0,0,0,-1,937,631,0,0
-280,393,0,0,0,0,0,0,0,0,0,-1,944,631,0,0
-273,393,0,0,0,0,0,0,0,0,0,-1,951,631,0,0
-266,393,0,0,0,0,0,0,0,0,0,-1,958,631,0,0
-259,393,0,0,0,0,0,0,0,0,0,-1,965,631,0,0
-252,393,0,0,0,0,0,0,0,0,0,-1,972,631,0,0
-245,393,0,0,0,0,0,0,0,0,0,-1,979,631,0,0
-238,393,0,0,0,0,0,0,0,0,0,-1,986,631,0,0
-231,393,0,0,0,0,0,0,0,0,0,-1,993,631,0,0
-224,393,0,0,0,0,0,0,0,0,0,-1,1000,631,0,0
-217,393,0,0,0,0,0,0,0,0,0,-1,1007,631,0,0
-210,393,0,0,0,0,0,0,0,0,0,-1,1014,631,0,0
-203,393,0,0,0,0,0,0,0,0,0,-1,1021,631,0,0
-196,393,0,0,0,0,0,0,0,0,0,-1,1028,631,0,0
-189,393,0,0,0,0,0,0,0,0,0,-1,1035,631,0,0
-182,393,0,0,0,0,0,0,0,0,0,-1,1042,631,0,0
-175,393,0,0,0,0,0,0,0,0,0,-1,1049,631,0,0
-168,393,0,0,0,0,0,0,0,0,0,-1,1056,631,0,0
-161,393,0,0,0,0,0,0,0,0,0,-1,1063,631,0,0
-154,393,0,0,0,0,0,0,0,0,0,-1,1070,631,0,0
-147,393,0,0,0,0,0,0,0,0,0,-1,1077,631,0,0
-140,393,0,0,0,0,0,0,0,0,0,-1,1084,631,0,0
-133,393,0,0,0,0,0,0,0,0,0,-1,1091,631,0,0
-126,393,0,0,0,0,0,0,0,0,0,-1,1098,631,0,0
-119,393,0,0,0,0,0,0,0,0,0,-1,1105,631,0,0
-112,393,0,0,0,0,0,0,0,0,0,-1,1112,631,0,0
-105,393,0,0,0,0,0,0,0,0,0,-1,1119,631,0,0
-98,393,0,0,0,0,0,0,0,0,0,-1,1126,631,0,0
-91,393,0,0,0,0,0,0,0,0,0,-1,1133,631,0,0
-84,393,0,0,0,0,0,0,0,0,0,-1,1140,631,0,0
-77,393,0,0,0,0,0,0,0,0,0,-1,1147,631,0,0
-70,393,0,0,0,0,0,0,0,0,0,-1,1154,631,0,0
-63,393,0,0,0,0,0,0,0,0,0,-1,1161,631,0,0
-56,393,0,0,0,0,0,0,0,0,0,-1,1168,631,0,0
-49,393,0,0,0,0,0,0,0,0,0,-1,1175,631,0,0
-42,393,0,0,0,0,0,0,0,0,0,-1,1182,631,0,0
-35,393,0,0,0,0,0,0,0,0,0,-1,1189,631,0,0
-28,393,0,0,0,0,0,0,0,0,0,-1,1196,631,0,0
-21,393,0,0,0,0,0,0,0,0,0,-1,1203,631,0,0
-14,393,0,0,0,0,0,0,0,0,0,-1,1210,631,0,0
-7,393,0,0,0,0,0,0,0,0,0,-1,1217,631,0,0
0,393,0,0,0,0,0,0,0,0,0,-1,1224,631,0,0
7,393,0,0,0,0,0,0,0,0,0,-1,1231,631,0,0
14,393,0,0,0,0,0,0,0,0,0,-1,1238,631,0,0
21,393,0,0,0,0,0,0,0,0,0,-1,1245,631,0,0
28,393,0,0,0,0,0,0,0,0,0,-1,1252,631,0,0
35,393,0,0,0,0,0,0,0,0,0,-1,1259,631,0,0
42,393,0,0,0,0,0,0,0,0,0,-1,1266,631,0,0
49,393,0,0,0,0,0,0,0,0,0,-1,1273,631,0,0
56,393,0,0,0,0,0,0,0,0,0,-1,1280,631,0,0
63,393,0,0,0,0,0,0,0,0,0,-1,1287,631,0,0
70,393,0,0,0,0,0,0,0,0,0,-1,1294,631,0,0
77,393,0,0,0,0,0,0,0,0,0,-1,1301,631,0,0
84,393,0,0,0,0,0,0,0,0,0,-1,1308,631,0,0
91,393,0,0,0,0,0,0,0,0,0,-1,1315,631,0,0
98,393,0,0,0,0,0,0,0,0,0,-1,1322,631,0,0
105,393,0,0,0,0,0,0,0,0,0,-1,1329,631,0,0
112,393,0,0,0,0,0,0,0,0,0,-1,1336,631,0,0
119,393,0,0,0,0,0,0,0,0,0,-1,1343,631,0,0
126,393,0,0,0,0,0,0,0,0,0,-1,1350,631,0,0
133,393,0,0,0,0,0,0,0,0,0,-1,1357,631,0,0
140,393,0,0,0,0,0,0,0,0,0,-1,1364,631,0,0
147,393,0,0,0,0,0,0,0,0,0,-1,1371,631,0,0
154,393,0,0,0,0,0,0,0,0,0,-1,1378,631,0,0
161,393,0,0,0,0,0,0,0,0,0,-1,1385,631,0,0
168,393,0,0,0,0,0,0,0,0,0,-1,1392,631,0,0
175,393,0,0,0,0,0,0,0,0,0,-1,1399,631,0,0
182,393,0,0,0,0,0,0,0,0,0,-1,1406,631,0,0
189,393,0,0,0,0,0,0,0,0,0,-1,1413,631,0,0
196,393,0,0,0,0,0,0,0,0,0,-1,1420,631,0,0
203,393,0,0,0,0,0,0,0,0,0,-1,1427,631,0,0
210,393,0,0,0,0,0,0,0,0,0,-1,1434,631,0,0
217,393,0,0,0,0,0,0,0,0,0,-1,1441,631,0,0
224,393,0,0,0,0,0,0,0,0,0,-1,1448,631,0,0
231,393,0,0,0,0,0,0,0,0,0,-1,1455,631,0,0
238,393,0,0,0,0,0,0,0,0,0,-1,1462,631,0,0
245,393,0,0,0,0,0,0,0,0,0,-1,1469,631,0,0
252,393,0,0,0,0,0,0,0,0,0,-1,1476,631,0,0
259,393,0,0,0,0,0,0,0,0,0,-1,1483,631,0,0
266,393,0,0,0,0,0,0,0,0,0,-1,1490,631,0,0
273,393,0,0,0,0,0,0,0,0,0,-1,1497,631,0,0
280,393,0,0,0,0,0,0,0,0,0,-1,1504,631,0,0
287,393,0,0,0,0,0,0,0,0,0,-1,1511,631,0,0
294,393,0,0,0,0,0,0,0,0,0,-1,1518,631,0,0
301,393,0,0,0,0,0,0,0,0,0,-1,1525,631,0,0
308,393,0,0,0,0,0,0,0,0,0,-1,1532,631,0,0
315,393,0,0,0,0,0,0,0,0,0,-1,1539,631,0,0
322,393,0,0,0,0,0,0,0,0,0,-1,1546,631,0,0
329,393,0,0,0,0,0,0,0,0,0,-1,1553,631,0,0
336,393,0,0,0,0,0,0,0,0,0,-1,1560,631,0,0
343,393,0,0,0,0,0,0,0,0,0,-1,1567,631,0,0
350,393,0,0,0,0,0,0,0,0,0,-1,1574,631,0,0
357,393,0,0,0,0,0,0,0,0,0,-1,1581,631,0,0
364,393,0,0,0,0,0,0,0,0,0,-1,1588,631,0,0
371,393,0,0,0,0,0,0,0,0,0,-1,1595,631,0,0
378,393,0,0,0,0,0,0,0,0,0,-1,1602,631,0,0
385,393,0,0,0,0,0,0,0,0,0,-1,1609,631,0,0
392,393,0,0,0,0,0,0,0,0,0,-1,1616,631,0,0
399,393,0,0,0,0,0,0,0,0,0,-1,1623,631,0,0
406,393,0,0,0,0,0,0,0,0,0,-1,1630,631,0,0
413,393,0,0,0,0,0,0,0,0,0,-1,1637,631,0,0
420,393,0,0,0,0,0,0,0,0,0,-1,1644,631,0,0
427,393,0,0,0,0,0,0,0,0,0,-1,1651,631,0,0
434,393,0,0,0,0,0,0,0,0,0,-1,1658,631,0,0
441,393,0,0,0,0,0,0,0,0,0,-1,1665,631,0,0
448,393,0,0,0,0,0,0,0,0,0,-1,1672,631,0,0
455,393,0,0,0,0,0,0,0,0,0,-1,1679,631,0,0
462,393,8.51099,1.89502,0,0,0,0,0,0,0,-1,1686,631,8.51103,-1.89504
469,393,9.39465,1.51703,0.0791153,0.0164516,-0.0895479,0.142654,-0.0470876,-0.61711,0.114085,0.0428961,1693,631,9.39465,-1.51703
476,393,9.95569,1.185,0.0751221,0.0138394,-0.0795307,0.12971,-0.0407484,-0.601523,0.102785,0.042871,1700,631,9.95575,-1.18497
483,393,10.5267,0.887329,0.0712377,0.0125709,-0.0703814,0.118154,-0.0343452,-0.587955,0.0923711,0.0436007,1707,631,10.5267,-0.887321
490,393,10.9303,0.761414,0,0,0,0,0,0,0,-1,1714,631,10.9303,-0.761386
497,393,11.417,0.635925,0,0,0,0,0,0,0,-1,1721,631,11.417,-0.635942
504,393,9.41907,0.0309448,0,0,0,0,0,0,0,-1,1728,631,9.4191,-0.0309724
511,393,9.66565,-0.375977,0,0,0,0,0,0,0,-1,1735,631,9.66571,0.375949
518,393,7.01599,1.62482,0,0,0,0,0,0,0,-1,1742,631,7.01597,-1.62483
525,393,6.38904,-0.246643,0,0,0,0,0,0,0,-1,1749,631,6.38902,0.246645
532,393,5.87708,-0.508484,0,0,0,0,0,0,0,-1,1756,631,5.87704,0.508498
539,393,5.68201,-0.713562,-0.0160603,-0.0112142,-0.0111666,-0.00221086,-0.0250637,-0.892237,0.0160231,0.0455421,1763,631,5.68207,0.713548
546,393,5.34973,-0.926514,-0.012828,-0.00798407,-0.00882036,-0.00125922,-0.0195529,-0.919391,0.0126365,0.0244697,1770,631,5.34967,0.92652
553,393,5.3114,-0.914063,-0.0101985,-0.00551222,-0.00695106,-0.000519982,-0.0151907,-0.947961,0.00995833,0.0131115,1777,631,5.31143,0.914044
560,393,5.32764,-0.793152,-0.00781573,-0.00373624,-0.00532896,-6.99908e-05,-0.011482,-0.968179,0.00763143,0.0127058,1784,631,5.32762,0.793164
567,393,5.3252,-0.691711,-0.00600221,-0.00238921,-0.00399741,0.000190938,-0.00858236,-0.997622,0.00578627,0.0139042,1791,631,5.32518,0.691691
574,393,5.30359,-0.602966,-0.00440959,-0.00149512,-0.00284366,0.000242949,-0.00614766,-1.02218,0.00418177,0.0149209,1798,631,5.30364,0.602938
581,393,5.28992,-0.487488,-0.0031096,-0.000697639,-0.00180354,0.000265974,-0.00407321,-1.08009,0.00280833,0.0135135,1805,631,5.28996,0.4875
588,393,5.29932,-0.37616,-0.00218145,-0.000168245,-0.0010573,0.000284994,-0.00263469,-1.16582,0.00185876,0.0141229,1812,631,5.29938,0.376186
595,393,5.33264,-0.280151,-0.00154438,0.000591463,-0.000475945,0.00069272,-0.00164564,-1.36117,0.00138692,0.0122668,1819,631,5.33261,0.280179
602,393,5.33313,-0.183044,-0.00157819,0.00110925,-0.000267827,0.00113568,-0.00160462,-1.47243,0.00158982,0.0141181,1826,631,5.33311,0.183024
609,393,5.3175,-0.0678101,-0.00194822,0.00164193,-4.43012e-05,0.00164247,-0.00194877,-1.55846,0.00207592,0.0147097,1833,631,5.3175,0.0678388
616,393,5.30908,0.0499268,-0.002796,0.00213567,-0.00011348,0.00213828,-0.00279861,-1.5478,0.0028588,0.0151924,1840,631,5.30909,-0.0499206
623,393,5.31555,0.197327,-0.00415477,0.00273112,-0.000431095,0.002758,-0.00418165,-1.50851,0.00403462,0.0168829,1847,631,5.31552,-0.197321
630,393,5.3396,0.338379,-0.00622427,0.00335908,-0.00113593,0.00349189,-0.00635708,-1.45441,0.00576595,0.0227668,1854,631,5.33965,-0.338368
637,393,5.04077,0.355225,-0.00856285,0.0038885,-0.00294778,0.00455111,-0.00922546,-1.34969,0.00810508,0.0348339,1861,631,5.04082,-0.355202
644,393,5.21912,0.403625,-0.0107322,0.00382803,-0.00608531,0.00603638,-0.0129405,-1.22268,0.0111954,0.0407199,1868,631,5.21912,-0.403601
651,393,4.55115,0.568176,-0.0131789,0.00374181,-0.00993145,0.00832796,-0.017765,-1.13819,0.0153897,0.0428305,1875,631,4.55118,-0.568183
658,393,4.16748,0.776245,0,0,0,0,0,0,0,-1,1882,631,4.16743,-0.776234
665,393,5.12207,-1.39587,0,0,0,0,0,0,0,-1,1889,631,5.12202,1.39587
672,393,4.72107,-1.92938,0,0,0,0,0,0,0,-1,1896,631,4.72112,1.92938
679,393,0,0,0,0,0,0,0,0,0,-1,1903,631,0,0
686,393,0,0,0,0,0,0,0,0,0,-1,1910,631,0,0
693,393,0,0,0,0,0,0,0,0,0,-1,1917,631,0,0
700,393,0,0,0,0,0,0,0,0,0,-1,1924,631,0,0
707,393,0,0,0,0,0,0,0,0,0,-1,1931,631,0,0
714,393,0,0,0,0,0,0,0,0,0,-1,1938,631,0,0
721,393,0,0,0,0,0,0,0,0,0,-1,1945,631,0,0
728,393,0,0,0,0,0,0,0,0,0,-1,1952,631,0,0
735,393,0,0,0,0,0,0,0,0,0,-1,1959,631,0,0
742,393,0,0,0,0,0,0,0,0,0,-1,1966,631,0,0
749,393,0,0,0,0,0,0,0,0,0,-1,1973,631,0,0
756,393,0,0,0,0,0,0,0,0,0,-1,1980,631,0,0
763,393,0,0,0,0,0,0,0,0,0,-1,1987,631,0,0
770,393,0,0,0,0,0,0,0,0,0,-1,1994,631,0,0
777,393,0,0,0,0,0,0,0,0,0,-1,2001,631,0,0
784,393,0,0,0,0,0,0,0,0,0,-1,2008,631,0,0
791,393,0,0,0,0,0,0,0,0,0,-1,2015,631,0,0
798,393,0,0,0,0,0,0,0,0,0,-1,2022,631,0,0
805,393,0,0,0,0,0,0,0,0,0,-1,2029,631,0,0
812,393,0,0,0,0,0,0,0,0,0,-1,2036,631,0,0
-700,386,0,0,0,0,0,0,0,0,0,-1,524,638,0,0
-693,386,0,0,0,0,0,0,0,0,0,-1,531,638,0,0
-686,386,0,0,0,0,0,0,0,0,0,-1,538,638,0,0
-679,386,0,0,0,0,0,0,0,0,0,-1,545,638,0,0
-672,386,0,0,0,0,0,0,0,0,0,-1,552,638,0,0
-665,386,0,0,0,0,0,0,0,0,0,-1,559,638,0,0
-658,386,0,0,0,0,0,0,0,0,0,-1,566,638,0,0
-651,386,0,0,0,0,0,0,0,0,0,-1,573,638,0,0
-644,386,0,0,0,0,0,0,0,0,0,-1,580,638,0,0
-637,386,0,0,0,0,0,0,0,0,0,-1,587,638,0,0
-630,386,0,0,0,0,0,0,0,0,0,-1,594,638,0,0
-623,386,0,0,0,0,0,0,0,0,0,-1,601,638,0,0
-616,386,0,0,0,0,0,0,0,0,0,-1,608,638,0,0
-609,386,0,0,0,0,0,0,0,0,0,-1,615,638,0,0
-602,386,0,0,0,0,0,0,0,0,0,-1,622,638,0,0
-595,386,0,0,0,0,0,0,0,0,0,-1,629,638,0,0
-588,386,0,0,0,0,0,0,0,0,0,-1,636,638,0,0
-581,386,0,0,0,0,0,0,0,0,0,-1,643,638,0,0
-574,386,0,0,0,0,0,0,0,0,0,-1,650,638,0,0
-567,386,0,0,0,0,0,0,0,0,0,-1,657,638,0,0
-560,386,-3.02307,1.09631,0.142987,0.0816768,-0.109397,0.225943,-0.00127896,-0.648792,0.151057,0.0436352,664,638,-3.02306,-1.09634
-553,386,-2.15283,0.549133,0.118483,0.0631251,-0.08893,0.183942,-0.00233395,-0.634528,0.123413,0.0459901,671,638,-2.15285,-0.549116
-546,386,-1.48224,0.134949,0.0958932,0.047135,-0.0709849,0.146569,-0.00354053,-0.619988,0.0989138,0.0473515,678,638,-1.48226,-0.13492
-539,386,-0.9552,-0.428772,0.0760039,0.0345927,-0.0558968,0.114907,-0.00431021,-0.608021,0.0780809,0.042399,685,638,-0.95517,0.428798
-532,386,-0.233704,-0.69397,0.058993,0.0249879,-0.0433755,0.0885793,-0.00459847,-0.598609,0.0606438,0.0422978,692,638,-0.233698,0.693977
-525,386,0.651062,-0.72406,0.0447256,0.0178489,-0.0330593,0.0669735,-0.00439899,-0.592353,0.0461852,0.044315,699,638,0.651087,0.724032
-518,386,-0.517578,0.0427856,0.032904,0.0125024,-0.0246152,0.0493484,-0.00394198,-0.588965,0.0342885,0.0484585,706,638,-0.517578,-0.0427584
-511,386,-0.651367,-0.015625,0.0233434,0.0093343,-0.017968,0.0356239,-0.00294622,-0.599542,0.0247898,0.0410646,713,638,-0.651364,0.0156247
-504,386,-0.622253,-0.282654,0.0144222,0.00376789,-0.0111759,0.0214757,-0.00328558,-0.562995,0.0155286,0.020127,720,638,-0.622266,0.282655
-497,386,-0.629822,-0.411377,0.00737177,0.0013175,-0.00617918,0.0112255,-0.0025362,-0.557634,0.00845678,0.0107185,727,638,-0.629836,0.411351
-490,386,-0.613892,-0.521362,0.00466747,0.000781649,-0.00408812,0.00725088,-0.00180177,-0.563569,0.00553317,0.0119045,734,638,-0.613879,0.521337
-483,386,-0.60321,-0.623474,0.00216048,0.000218746,-0.00218738,0.00358277,-0.00120355,-0.576535,0.00287493,0.0148102,741,638,-0.60319,0.623452
-476,386,-0.603638,-0.719055,0.000554744,-0.000198529,-0.000737255,0.001006,-0.000649781,-0.549248,0.00096331,0.0142177,748,638,-0.60364,0.719059
-469,386,-0.607849,-0.805847,-0.000128182,-0.00067779,0.000512868,0.000178865,-0.000984837,0.539453,0.000723587,0.0116004,755,638,-0.607845,0.805872
-462,386,-0.59668,-0.918518,1.79485e-05,-0.00207249,0.00147275,0.000778681,-0.00283322,0.476792,0.00219491,0.0111131,762,638,-0.596675,0.918538
-455,386,-0.611267,-1.03986,6.19119e-05,-0.0034161,0.00247295,0.00134608,-0.00470027,0.478959,0.00366554,0.0122497,769,638,-0.611272,1.03983
-448,386,-0.62561,-1.14087,7.82247e-05,-0.00453979,0.00357923,0.00202861,-0.00649017,0.498932,0.00513825,0.0122415,776,638,-0.625596,1.14087
-441,386,-0.618347,-1.21399,-0.000511326,-0.00596856,0.00481854,0.00229754,-0.00877743,0.527772,0.0067491,0.0120428,783,638,-0.61837,1.21398
-434,386,-0.600098,-1.3114,-0.00180838,-0.00715471,0.00618804,0.00225921,-0.0112223,0.581511,0.00833726,0.0154676,790,638,-0.600124,1.31142
-427,386,-0.579773,-1.41235,-0.00353328,-0.00832187,0.00783423,0.00226436,-0.0141195,0.637096,0.0102515,0.0268439,797,638,-0.579772,1.41235
-420,386,-0.691528,-1.3465,-0.00495159,-0.00951879,0.00984425,0.00287046,-0.0173408,0.671427,0.0126266,0.0327337,804,638,-0.691554,1.34651
-413,386,-0.816956,-1.35242,-0.00614122,-0.0103855,0.0122565,0.00417549,-0.0207022,0.699677,0.0153833,0.0442389,811,638,-0.816926,1.35242
-406,386,-0.952759,-1.3313,0,0,0,0,0,0,0,-1,818,638,-0.952736,1.33132
-399,386,-1.68097,-1.74622,0,0,0,0,0,0,0,-1,825,638,-1.681,1.7462
-392,386,-2.1842,-1.21539,0,0,0,0,0,0,0,-1,832,638,-2.18422,1.21538
-385,386,1.44916,-3.29254,0,0,0,0,0,0,0,-1,839,638,1.44917,3.29251
-378,386,0.180969,-3.6073,0,0,0,0,0,0,0,-1,846,638,0.180998,3.6073
-371,386,-0.823792,-4.27209,0,0,0,0,0,0,0,-1,853,638,-0.823798,4.2721
-364,386,-1.84961,-4.96948,0,0,0,0,0,0,0,-1,860,638,-1.84961,4.96946
-357,386,-2.5058,-4.91699,0,0,0,0,0,0,0,-1,867,638,-2.50581,4.91698
-350,386,0,0,0,0,0,0,0,0,0,-1,874,638,0,0
-343,386,0,0,0,0,0,0,0,0,0,-1,881,638,0,0
-336,386,0,0,0,0,0,0,0,0,0,-1,888,638,0,0
-329,386,0,0,0,0,0,0,0,0,0,-1,895,638,0,0
-322,386,0,0,0,0,0,0,0,0,0,-1,902,638,0,0
-315,386,0,0,0,0,0,0,0,0,0,-1,909,638,0,0
-308,386,0,0,0,0,0,0,0,0,0,-1,916,638,0,0
-301,386,0,0,0,0,0,0,0,0,0,-1,923,638,0,0
-294,386,0,0,0,0,0,0,0,0,0,-1,930,638,0,0
-287,386,0,0,0,0,0,0,0,0,0,-1,937,638,0,0
-280,386,0,0,0,0,0,0,0,0,0,-1,944,638,0,0
-273,386,0,0,0,0,0,0,0,0,0,-1,951,638,0,0
-266,386,0,0,0,0,0,0,0,0,0,-1,958,638,0,0
-259,386,0,0,0,0,0,0,0,0,0,-1,965,638,0,0
-252,386,0,0,0,0,0,0,0,0,0,-1,972,638,0,0
-245,386,0,0,0,0,0,0,0,0,0,-1,979,638,0,0
-238,386,0,0,0,0,0,0,0,0,0,-1,986,638,0,0
-231,386,0,0,0,0,0,0,0,0,0,-1,993,638,0,0
-224,386,0,0,0,0,0,0,0,0,0,-1,1000,638,0,0
-217,386,0,0,0,0,0,0,0,0,0,-1,1007,638,0,0
-210,386,0,0,0,0,0,0,0,0,0,-1,1014,638,0,0
-203,386,0,0,0,0,0,0,0,0,0,-1,1021,638,0,0
-196,386,0,0,0,0,0,0,0,0,0,-1,1028,638,0,0
-189,386,0,0,0,0,0,0,0,0,0,-1,1035,638,0,0
-182,386,0,0,0,0,0,0,0,0,0,-1,1042,638,0,0
-175,386,0,0,0,0,0,0,0,0,0,-1,1049,638,0,0
-168,386,0,0,0,0,0,0,0,0,0,-1,1056,638,0,0
-161,386,0,0,0,0,0,0,0,0,0,-1,1063,638,0,0
-154,386,0,0,0,0,0,0,0,0,0,-1,1070,638,0,0
-147,386,0,0,0,0,0,0,0,0,0,-1,1077,638,0,0
-140,386,0,0,0,0,0,0,0,0,0,-1,1084,638,0,0
-133,386,0,0,0,0,0,0,0,0,0,-1,1091,638,0,0
-126,386,0,0,0,0,0,0,0,0,0,-1,1098,638,0,0
-119,386,0,0,0,0,0,0,0,0,0,-1,1105,638,0,0
-112,386,0,0,0,0,0,0,0,0,0,-1,1112,638,0,0
-105,386,0,0,0,0,0,0,0,0,0,-1,1119,638,0,0
-98,386,0,0,0,0,0,0,0,0,0,-1,1126,638,0,0
-91,386,0,0,0,0,0,0,0,0,0,-1,1133,638,0,0
-84,386,0,0,0,0,0,0,0,0,0,-1,1140,638,0,0
-77,386,0,0,0,0,0,0,0,0,0,-1,1147,638,0,0
-70,386,0,0,0,0,0,0,0,0,0,-1,1154,638,0,0
-63,386,0,0,0,0,0,0,0,0,0,-1,1161,638,0,0
-56,386,0,0,0,0,0,0,0,0,0,-1,1168,638,0,0
-49,386,0,0,0,0,0,0,0,0,0,-1,1175,638,0,0
-42,386,0,0,0,0,0,0,0,0,0,-1,1182,638,0,0
-35,386,0,0,0,0,0,0,0,0,0,-1,1189,638,0,0
-28,386,0,0,0,0,0,0,0,0,0,-1,1196,638,0,0
-21,386,0,0,0,0,0,0,0,0,0,-1,1203,638,0,0
-14,386,0,0,0,0,0,0,0,0,0,-1,1210,638,0,0
-7,386,0,0,0,0,0,0,0,0,0,-1,1217,638,0,0
0,386,0,0,0,0,0,0,0,0,0,-1,1224,638,0,0
7,386,0,0,0,0,0,0,0,0,0,-1,1231,638,0,0
14,386,0,0,0,0,0,0,0,0,0,-1,1238,638,0,0
21,386,0,0,0,0,0,0,0,0,0,-1,1245,638,0,0
28,386,0,0,0,0,0,0,0,0,0,-1,1252,638,0,0
35,386,0,0,0,0,0,0,0,0,0,-1,1259,638,0,0
42,386,0,0,0,0,0,0,0,0,0,-1,1266,638,0,0
49,386,0,0,0,0,0,0,0,0,0,-1,1273,638,0,0
56,386,0,0,0,0,0,0,0,0,0,-1,1280,638,0,0
63,386,0,0,0,0,0,0,0,0,0,-1,1287,638,0,0
70,386,0,0,0,0,0,0,0,0,0,-1,1294,638,0,0
77,386,0,0,0,0,0,0,0,0,0,-1,1301,638,0,0
84,386,0,0,0,0,0,0,0,0,0,-1,1308,638,0,0
91,386,0,0,0,0,0,0,0,0,0,-1,1315,638,0,0
98,386,0,0,0,0,0,0,0,0,0,-1,1322,638,0,0
105,386,0,0,0,0,0,0,0,0,0,-1,1329,638,0,0
112,386,0,0,0,0,0,0,0,0,0,-1,1336,638,0,0
119,386,0,0,0,0,0,0,0,0,0,-1,1343,638,0,0
126,386,0,0,0,0,0,0,0,0,0,-1,1350,638,0,0
133,386,0,0,0,0,0,0,0,0,0,-1,1357,638,0,0
140,386,0,0,0,0,0,0,0,0,0,-1,1364,638,0,0
147,386,0,0,0,0,0,0,0,0,0,-1,1371,638,0,0
154,386,0,0,0,0,0,0,0,0,0,-1,1378,638,0,0
161,386,0,0,0,0,0,0,0,0,0,-1,1385,638,0,0
168,386,0,0,0,0,0,0,0,0,0,-1,1392,638,0,0
175,386,0,0,0,0,0,0,0,0,0,-1,1399,638,0,0
182,386,0,0,0,0,0,0,0,0,0,-1,1406,638,0,0
189,386,0,0,0,0,0,0,0,0,0,-1,1413,638,0,0
196,386,0,0,0,0,0,0,0,0,0,-1,1420,638,0,0
203,386,0,0,0,0,0,0,0,0,0,-1,1427,638,0,0
210,386,0,0,0,0,0,0,0,0,0,-1,1434,638,0,0
217,386,0,0,0,0,0,0,0,0,0,-1,1441,638,0,0
224,386,0,0,0,0,0,0,0,0,0,-1,1448,638,0,0
231,386,0,0,0,0,0,0,0,0,0,-1,1455,638,0,0
238,386,0,0,0,0,0,0,0,0,0,-1,1462,638,0,0
245,386,0,0,0,0,0,0,0,0,0,-1,1469,638,0,0
252,386,0,0,0,0,0,0,0,0,0,-1,1476,638,0,0
259,386,0,0,0,0,0,0,0,0,0,-1,1483,638,0,0
266,386,0,0,0,0,0,0,0,0,0,-1,1490,638,0,0
273,386,0,0,0,0,0,0,0,0,0,-1,1497,638,0,0
280,386,0,0,0,0,0,0,0,0,0,-1,1504,638,0,0
287,386,0,0,0,0,0,0,0,0,0,-1,1511,638,0,0
294,386,0,0,0,0,0,0,0,0,0,-1,1518,638,0,0
301,386,0,0,0,0,0,0,0,0,0,-1,1525,638,0,0
308,386,0,0,0,0,0,0,0,0,0,-1,1532,638,0,0
315,386,0,0,0,0,0,0,0,0,0,-1,1539,638,0,0
322,386,0,0,0,0,0,0,0,0,0,-1,1546,638,0,0
329,386,0,0,0,0,0,0,0,0,0,-1,1553,638,0,0
336,386,0,0,0,0,0,0,0,0,0,-1,1560,638,0,0
343,386,0,0,0,0,0,0,0,0,0,-1,1567,638,0,0
350,386,0,0,0,0,0,0,0,0,0,-1,1574,638,0,0
357,386,0,0,0,0,0,0,0,0,0,-1,1581,638,0,0
364,386,0,0,0,0,0,0,0,0,0,-1,1588,638,0,0
371,386,0,0,0,0,0,0,0,0,0,-1,1595,638,0,0
378,386,0,0,0,0,0,0,0,0,0,-1,1602,638,0,0
385,386,0,0,0,0,0,0,0,0,0,-1,1609,638,0,0
392,386,0,0,0,0,0,0,0,0,0,-1,1616,638,0,0
399,386,0,0,0,0,0,0,0,0,0,-1,1623,638,0,0
406,386,0,0,0,0,0,0,0,0,0,-1,1630,638,0,0
413,386,0,0,0,0,0,0,0,0,0,-1,1637,638,0,0
420,386,0,0,0,0,0,0,0,0,0,-1,1644,638,0,0
427,386,0,0,0,0,0,0,0,0,0,-1,1651,638,0,0
434,386,0,0,0,0,0,0,0,0,0,-1,1658,638,0,0
441,386,0,0,0,0,0,0,0,0,0,-1,1665,638,0,0
448,386,0,0,0,0,0,0,0,0,0,-1,1672,638,0,0
455,386,0,0,0,0,0,0,0,0,0,-1,1679,638,0,0
462,386,0,0,0,0,0,0,0,0,0,-1,1686,638,0,0
469,386,9.84692,1.55804,0.0963652,0.0164273,-0.0862669,0.151472,-0.03868,-0.568461,0.116044,0.0413869,1693,638,9.84691,-1.55807
476,386,10.6145,0.986511,0.0918584,0.0131663,-0.0782826,0.140127,-0.035102,-0.552529,0.107054,0.0448262,1700,638,10.6145,-0.986529
483,386,11.4113,0.732971,0,0,0,0,0,0,0,-1,1707,638,11.4112,-0.732958
490,386,11.7062,0.746155,0,0,0,0,0,0,0,-1,1714,638,11.7062,-0.746154
497,386,9.22656,0.492859,0,0,0,0,0,0,0,-1,1721,638,9.22662,-0.492879
504,386,9.57019,0.102173,0,0,0,0,0,0,0,-1,1728,638,9.5702,-0.102167
511,386,9.86548,-0.337952,0,0,0,0,0,0,0,-1,1735,638,9.86548,0.337931
518,386,7.41553,1.75238,0,0,0,0,0,0,0,-1,1742,638,7.41547,-1.75238
525,386,7.1554,0.0178833,0,0,0,0,0,0,0,-1,1749,638,7.15536,-0.0179045
532,386,6.22546,0.665894,0,0,0,0,0,0,0,-1,1756,638,6.22546,-0.665914
539,386,5.93433,-0.144592,-0.0223463,-0.0145847,-0.0146864,-0.00327504,-0.033656,-0.914567,0.0214292,0.0458879,1763,638,5.93438,0.144569
546,386,5.47998,-0.695129,-0.0180845,-0.0104343,-0.0115215,-0.00211948,-0.0263993,-0.945671,0.0169373,0.0410531,1770,638,5.48002,0.695121
553,386,5.42529,-0.880737,-0.0145561,-0.00732375,-0.00900084,-0.00123984,-0.02064,-0.97641,0.0133659,0.0331724,1777,638,5.42532,0.880726
560,386,5.4458,-0.757935,-0.0115117,-0.00510682,-0.00696402,-0.000644206,-0.0159744,-1.00091,0.0104415,0.0240337,1784,638,5.44575,0.757915
567,386,5.42505,-0.662048,-0.00919998,-0.00345472,-0.00533872,-0.000264849,-0.0123899,-1.03222,0.00817305,0.0173962,1791,638,5.42506,0.662034
574,386,5.4408,-0.576233,-0.00718451,-0.0024088,-0.00404073,-0.000103111,-0.0094902,-1.05227,0.00629271,0.0140786,1798,638,5.44076,0.576263
581,386,5.42834,-0.48877,-0.00542935,-0.00150994,-0.0028996,3.00885e-05,-0.00696938,-1.08257,0.00465631,0.0136666,1805,638,5.42838,0.488761
588,386,5.42871,-0.380737,-0.00409743,-0.000871848,-0.00203915,0.000115213,-0.00508449,-1.11999,0.00342871,0.012062,1812,638,5.42867,0.380749
595,386,5.42456,-0.286072,-0.00303747,-4.05092e-06,-0.001318,0.000488599,-0.00353012,-1.21309,0.00253205,0.0129441,1819,638,5.42452,0.286047
602,386,5.4303,-0.180359,-0.00266293,0.000541833,-0.0010084,0.000832731,-0.00295383,-1.28995,0.00229766,0.0151976,1826,638,5.43024,0.180348
609,386,5.4458,-0.0661011,-0.00266241,0.00107217,-0.000725992,0.00120834,-0.00279858,-1.38539,0.00237335,0.0147901,1833,638,5.44574,0.0660964
616,386,5.43433,0.0396729,-0.00309408,0.00149778,-0.000741792,0.00161464,-0.00321093,-1.41454,0.0028364,0.0115216,1840,638,5.43432,-0.0396678
623,386,5.41003,0.166809,-0.00394185,0.00198052,-0.000965448,0.00213393,-0.00409526,-1.41321,0.00365537,0.00991563,1847,638,5.41009,-0.166804
630,386,5.43811,0.279175,-0.0052953,0.00248742,-0.00147802,0.00275866,-0.00556654,-1.3893,0.00489683,0.0155502,1854,638,5.43805,-0.27919
637,386,5.42261,0.363525,-0.00678973,0.00279998,-0.00309298,0.00371102,-0.00770076,-1.28435,0.00672148,0.0232534,1861,638,5.42262,-0.36351
644,386,5.37427,0.374268,-0.00787199,0.00261271,-0.00589918,0.00526229,-0.0105216,-1.14865,0.00927991,0.0338062,1868,638,5.37432,-0.374241
651,386,5.57043,0.412109,-0.00891764,0.00241148,-0.00920171,0.00755241,-0.0140586,-1.0613,0.0126642,0.0427198,1875,638,5.57041,-0.412106
658,386,5.7666,1.02881,0,0,0,0,0,0,0,-1,1882,638,5.76663,-1.02881
665,386,5.36182,-0.960327,0,0,0,0,0,0,0,-1,1889,638,5.36185,0.960335
672,386,5.40625,-1.35907,0,0,0,0,0,0,0,-1,1896,638,5.4063,1.35905
679,386,4.98572,-1.73218,0,0,0,0,0,0,0,-1,1903,638,4.98572,1.73217
686,386,0,0,0,0,0,0,0,0,0,-1,1910,638,0,0
693,386,0,0,0,0,0,0,0,0,0,-1,1917,638,0,0
700,386,0,0,0,0,0,0,0,0,0,-1,1924,638,0,0
707,386,0,0,0,0,0,0,0,0,0,-1,1931,638,0,0
714,386,0,0,0,0,0,0,0,0,0,-1,1938,638,0,0
721,386,0,0,0,0,0,0,0,0,0,-1,1945,638,0,0
728,386,0,0,0,0,0,0,0,0,0,-1,1952,638,0,0
735,386,0,0,0,0,0,0,0,0,0,-1,1959,638,0,0
742,386,0,0,0,0,0,0,0,0,0,-1,1966,638,0,0
749,386,0,0,0,0,0,0,0,0,0,-1,1973,638,0,0
756,386,0,0,0,0,0,0,0,0,0,-1,1980,638,0,0
763,386,0,0,0,0,0,0,0,0,0,-1,1987,638,0,0
770,386,0,0,0,0,0,0,0,0,0,-1,1994,638,0,0
777,386,0,0,0,0,0,0,0,0,0,-1,2001,638,0,0
784,386,0,0,0,0,0,0,0,0,0,-1,2008,638,0,0
791,386,0,0,0,0,0,0,0,0,0,-1,2015,638,0,0
798,386,0,0,0,0,0,0,0,0,0,-1,2022,638,0,0
805,386,0,0,0,0,0,0,0,0,0,-1,2029,638,0,0
812,386,0,0,0,0,0,0,0,0,0,-1,2036,638,0,0
-700,379,0,0,0,0,0,0,0,0,0,-1,524,645,0,0
-693,379,0,0,0,0,0,0,0,0,0,-1,531,645,0,0
-686,379,0,0,0,0,0,0,0,0,0,-1,538,645,0,0
-679,379,0,0,0,0,0,0,0,0,0,-1,545,645,0,0
-672,379,0,0,0,0,0,0,0,0,0,-1,552,645,0,0
-665,379,0,0,0,0,0,0,0,0,0,-1,559,645,0,0
-658,379,0,0,0,0,0,0,0,0,0,-1,566,645,0,0
-651,379,0,0,0,0,0,0,0,0,0,-1,573,645,0,0
-644,379,0,0,0,0,0,0,0,0,0,-1,580,645,0,0
-637,379,0,0,0,0,0,0,0,0,0,-1,587,645,0,0
-630,379,0,0,0,0,0,0,0,0,0,-1,594,645,0,0
-623,379,0,0,0,0,0,0,0,0,0,-1,601,645,0,0
-616,379,0,0,0,0,0,0,0,0,0,-1,608,645,0,0
-609,379,0,0,0,0,0,0,0,0,0,-1,615,645,0,0
-602,379,0,0,0,0,0,0,0,0,0,-1,622,645,0,0
-595,379,0,0,0,0,0,0,0,0,0,-1,629,645,0,0
-588,379,0,0,0,0,0,0,0,0,0,-1,636,645,0,0
-581,379,0,0,0,0,0,0,0,0,0,-1,643,645,0,0
-574,379,0,0,0,0,0,0,0,0,0,-1,650,645,0,0
-567,379,-2.74762,2.44989,0.147681,0.0939746,-0.111077,0.235105,0.00655082,-0.666797,0.154599,0.0461841,657,645,-2.7476,-2.4499
-560,379,-2.62213,1.62921,0.124387,0.0765631,-0.0922405,0.195765,0.00518563,-0.658572,0.128816,0.0462141,664,645,-2.62214,-1.62919
-553,379,-0.9953,0.131104,0.102467,0.0597382,-0.0750057,0.159091,0.00311338,-0.646655,0.105039,0.0434549,671,645,-0.995303,-0.131112
-546,379,-0.850464,-0.221924,0.0822268,0.0447128,-0.0594975,0.125854,0.00108566,-0.632701,0.0835431,0.0427457,678,645,-0.850464,0.221927
-539,379,-0.748657,-0.715881,0.0645026,0.032567,-0.0463569,0.0975647,-0.000495095,-0.619535,0.0652088,0.0426024,685,645,-0.748685,0.715871
-532,379,-0.501465,-1.06738,0,0,0,0,0,0,0,-1,692,645,-0.501482,1.06738
-525,379,-0.722168,0.167236,0,0,0,0,0,0,0,-1,699,645,-0.722182,-0.167265
-518,379,-0.665527,-0.0402832,0.0264208,0.0106742,-0.0190562,0.0391661,-0.00207114,-0.589497,0.0268278,0.0389021,706,645,-0.665547,0.0403028
-511,379,-0.662903,-0.242676,0.0182538,0.00765494,-0.0135246,0.0274802,-0.00157145,-0.598674,0.0188658,0.0229101,713,645,-0.662916,0.242653
-504,379,-0.699463,-0.346497,0.0107253,0.00217757,-0.00776057,0.0153111,-0.00240814,-0.533701,0.0110975,0.0116558,720,645,-0.699439,0.346526
-497,379,-0.714355,-0.41571,0.00492089,5.54062e-05,-0.00371942,0.00693251,-0.00195621,-0.495784,0.00539332,0.00918254,727,645,-0.714363,0.415715
-490,379,-0.689758,-0.513428,0.00314492,-0.000300359,-0.00232779,0.00431816,-0.0014736,-0.466853,0.00347571,0.0106319,734,645,-0.689777,0.513457
-483,379,-0.677429,-0.623474,0.00143691,-0.000758503,-0.0009072,0.00176327,-0.00108487,-0.345332,0.00165985,0.0124686,741,645,-0.677403,0.623452
-476,379,-0.687988,-0.706848,0.000391557,-0.00119194,0.000250667,0.00043029,-0.00123067,0.153308,0.000995378,0.0125559,748,645,-0.688012,0.706863
-469,379,-0.698059,-0.803162,6.07651e-05,-0.00188916,0.00132556,0.000731301,-0.0025597,0.468317,0.00199541,0.0119176,755,645,-0.698036,0.803152
-462,379,-0.710571,-0.924194,0.000308612,-0.00344642,0.00225679,0.00136677,-0.00450458,0.438441,0.00354752,0.0095486,762,645,-0.71059,0.924222
-455,379,-0.722046,-1.02972,0.000423979,-0.00519673,0.00334635,0.00198354,-0.00675629,0.436119,0.0052908,0.00979045,769,645,-0.722032,1.0297
-448,379,-0.703552,-1.10962,0.000466342,-0.00678319,0.00460354,0.00270089,-0.00901773,0.451897,0.00708583,0.0109001,776,645,-0.703565,1.10959
-441,379,-0.695557,-1.21533,-7.76378e-05,-0.00880551,0.00598741,0.00296741,-0.0118506,0.470484,0.00905309,0.0120483,783,645,-0.69554,1.21531
-434,379,-0.653687,-1.32428,-0.00132088,-0.0107868,0.00751449,0.00282696,-0.0149346,0.504361,0.0110203,0.0243546,790,645,-0.653668,1.32428
-427,379,-0.773743,-1.21381,-0.00304921,-0.0129659,0.00929738,0.00252937,-0.0185444,0.540431,0.0132866,0.0345773,797,645,-0.773757,1.21379
-420,379,-0.858276,-1.1535,-0.00462929,-0.0154611,0.0114063,0.00258158,-0.0226719,0.563749,0.0160445,0.0422792,804,645,-0.858251,1.1535
-413,379,-1.01892,-1.31018,0,0,0,0,0,0,0,-1,811,645,-1.01893,1.3102
-406,379,-0.335754,-1.08691,0,0,0,0,0,0,0,-1,818,645,-0.335784,1.08691
-399,379,-2.93536,-1.40118,0,0,0,0,0,0,0,-1,825,645,-2.93534,1.40119
-392,379,-3.69464,-0.90387,0,0,0,0,0,0,0,-1,832,645,-3.69465,0.903879
-385,379,-1.17145,-0.135071,0,0,0,0,0,0,0,-1,839,645,-1.17142,0.135047
-378,379,-0.589417,0.49353,0,0,0,0,0,0,0,-1,846,645,-0.589428,-0.493505
-371,379,-0.203186,0.779541,0,0,0,0,0,0,0,-1,853,645,-0.203164,-0.779567
-364,379,-0.0760498,1.09424,0,0,0,0,0,0,0,-1,860,645,-0.0760722,-1.09426
-357,379,0,0,0,0,0,0,0,0,0,-1,867,645,0,0
-350,379,0,0,0,0,0,0,0,0,0,-1,874,645,0,0
-343,379,0,0,0,0,0,0,0,0,0,-1,881,645,0,0
-336,379,0,0,0,0,0,0,0,0,0,-1,888,645,0,0
-329,379,0,0,0,0,0,0,0,0,0,-1,895,645,0,0
-322,379,0,0,0,0,0,0,0,0,0,-1,902,645,0,0
-315,379,0,0,0,0,0,0,0,0,0,-1,909,645,0,0
-308,379,0,0,0,0,0,0,0,0,0,-1,916,645,0,0
-301,379,0,0,0,0,0,0,0,0,0,-1,923,645,0,0
-294,379,0,0,0,0,0,0,0,0,0,-1,930,645,0,0
-287,379,0,0,0,0,0,0,0,0,0,-1,937,645,0,0
-280,379,0,0,0,0,0,0,0,0,0,-1,944,645,0,0
-273,379,0,0,0,0,0,0,0,0,0,-1,951,645,0,0
-266,379,0,0,0,0,0,0,0,0,0,-1,958,645,0,0
-259,379,0,0,0,0,0,0,0,0,0,-1,965,645,0,0
-252,379,0,0,0,0,0,0,0,0,0,-1,972,645,0,0
-245,379,0,0,0,0,0,0,0,0,0,-1,979,645,0,0
-238,379,0,0,0,0,0,0,0,0,0,-1,986,645,0,0
-231,379,0,0,0,0,0,0,0,0,0,-1,993,645,0,0
-224,379,0,0,0,0,0,0,0,0,0,-1,1000,645,0,0
-217,379,0,0,0,0,0,0,0,0,0,-1,1007,645,0,0
-210,379,0,0,0,0,0,0,0,0,0,-1,1014,645,0,0
-203,379,0,0,0,0,0,0,0,0,0,-1,1021,645,0,0
-196,379,0,0,0,0,0,0,0,0,0,-1,1028,645,0,0
-189,379,0,0,0,0,0,0,0,0,0,-1,1035,645,0,0
-182,379,0,0,0,0,0,0,0,0,0,-1,1042,645,0,0
-175,379,0,0,0,0,0,0,0,0,0,-1,1049,645,0,0
-168,379,0,0,0,0,0,0,0,0,0,-1,1056,645,0,0
-161,379,0,0,0,0,0,0,0,0,0,-1,1063,645,0,0
-154,379,0,0,0,0,0,0,0,0,0,-1,1070,645,0,0
-147,379,0,0,0,0,0,0,0,0,0,-1,1077,645,0,0
-140,379,0,0,0,0,0,0,0,0,0,-1,1084,645,0,0
-133,379,0,0,0,0,0,0,0,0,0,-1,1091,645,0,0
-126,379,0,0,0,0,0,0,0,0,0,-1,1098,645,0,0
-119,379,0,0,0,0,0,0,0,0,0,-1,1105,645,0,0
-112,379,0,0,0,0,0,0,0,0,0,-1,1112,645,0,0
-105,379,0,0,0,0,0,0,0,0,0,-1,1119,645,0,0
-98,379,0,0,0,0,0,0,0,0,0,-1,1126,645,0,0
-91,379,0,0,0,0,0,0,0,0,0,-1,1133,645,0,0
-84,379,0,0,0,0,0,0,0,0,0,-1,1140,645,0,0
-77,379,0,0,0,0,0,0,0,0,0,-1,1147,645,0,0
-70,379,0,0,0,0,0,0,0,0,0,-1,1154,645,0,0
-63,379,0,0,0,0,0,0,0,0,0,-1,1161,645,0,0
-56,379,0,0,0,0,0,0,0,0,0,-1,1168,645,0,0
-49,379,0,0,0,0,0,0,0,0,0,-1,1175,645,0,0
-42,379,0,0,0,0,0,0,0,0,0,-1,1182,645,0,0
-35,379,0,0,0,0,0,0,0,0,0,-1,1189,645,0,0
-28,379,0,0,0,0,0,0,0,0,0,-1,1196,645,0,0
-21,379,0,0,0,0,0,0,0,0,0,-1,1203,645,0,0
-14,379,0,0,0,0,0,0,0,0,0,-1,1210,645,0,0
-7,379,0,0,0,0,0,0,0,0,0,-1,1217,645,0,0
0,379,0,0,0,0,0,0,0,0,0,-1,1224,645,0,0
7,379,0,0,0,0,0,0,0,0,0,-1,1231,645,0,0
14,379,0,0,0,0,0,0,0,0,0,-1,1238,645,0,0
21,379,0,0,0,0,0,0,0,0,0,-1,1245,645,0,0
28,379,0,0,0,0,0,0,0,0,0,-1,1252,645,0,0
35,379,0,0,0,0,0,0,0,0,0,-1,1259,645,0,0
42,379,0,0,0,0,0,0,0,0,0,-1,1266,645,0,0
49,379,0,0,0,0,0,0,0,0,0,-1,1273,645,0,0
56,379,0,0,0,0,0,0,0,0,0,-1,1280,645,0,0
63,379,0,0,0,0,0,0,0,0,0,-1,1287,645,0,0
70,379,0,0,0,0,0,0,0,0,0,-1,1294,645,0,0
77,379,0,0,0,0,0,0,0,0,0,-1,1301,645,0,0
84,379,0,0,0,0,0,0,0,0,0,-1,1308,645,0,0
91,379,0,0,0,0,0,0,0,0,0,-1,1315,645,0,0
98,379,0,0,0,0,0,0,0,0,0,-1,1322,645,0,0
105,379,0,0,0,0,0,0,0,0,0,-1,1329,645,0,0
112,379,0,0,0,0,0,0,0,0,0,-1,1336,645,0,0
119,379,0,0,0,0,0,0,0,0,0,-1,1343,645,0,0
126,379,0,0,0,0,0,0,0,0,0,-1,1350,645,0,0
133,379,0,0,0,0,0,0,0,0,0,-1,1357,645,0,0
140,379,0,0,0,0,0,0,0,0,0,-1,1364,645,0,0
147,379,0,0,0,0,0,0,0,0,0,-1,1371,645,0,0
154,379,0,0,0,0,0,0,0,0,0,-1,1378,645,0,0
161,379,0,0,0,0,0,0,0,0,0,-1,1385,645,0,0
168,379,0,0,0,0,0,0,0,0,0,-1,1392,645,0,0
175,379,0,0,0,0,0,0,0,0,0,-1,1399,645,0,0
182,379,0,0,0,0,0,0,0,0,0,-1,1406,645,0,0
189,379,0,0,0,0,0,0,0,0,0,-1,1413,645,0,0
196,379,0,0,0,0,0,0,0,0,0,-1,1420,645,0,0
203,379,0,0,0,0,0,0,0,0,0,-1,1427,645,0,0
210,379,0,0,0,0,0,0,0,0,0,-1,1434,645,0,0
217,379,0,0,0,0,0,0,0,0,0,-1,1441,645,0,0
224,379,0,0,0,0,0,0,0,0,0,-1,1448,645,0,0
231,379,0,0,0,0,0,0,0,0,0,-1,1455,645,0,0
238,379,0,0,0,0,0,0,0,0,0,-1,1462,645,0,0
245,379,0,0,0,0,0,0,0,0,0,-1,1469,645,0,0
252,379,0,0,0,0,0,0,0,0,0,-1,1476,645,0,0
259,379,0,0,0,0,0,0,0,0,0,-1,1483,645,0,0
266,379,0,0,0,0,0,0,0,0,0,-1,1490,645,0,0
273,379,0,0,0,0,0,0,0,0,0,-1,1497,645,0,0
280,379,0,0,0,0,0,0,0,0,0,-1,1504,645,0,0
287,379,0,0,0,0,0,0,0,0,0,-1,1511,645,0,0
294,379,0,0,0,0,0,0,0,0,0,-1,1518,645,0,0
301,379,0,0,0,0,0,0,0,0,0,-1,1525,645,0,0
308,379,0,0,0,0,0,0,0,0,0,-1,1532,645,0,0
315,379,0,0,0,0,0,0,0,0,0,-1,1539,645,0,0
322,379,0,0,0,0,0,0,0,0,0,-1,1546,645,0,0
329,379,0,0,0,0,0,0,0,0,0,-1,1553,645,0,0
336,379,0,0,0,0,0,0,0,0,0,-1,1560,645,0,0
343,379,0,0,0,0,0,0,0,0,0,-1,1567,645,0,0
350,379,0,0,0,0,0,0,0,0,0,-1,1574,645,0,0
357,379,0,0,0,0,0,0,0,0,0,-1,1581,645,0,0
364,379,0,0,0,0,0,0,0,0,0,-1,1588,645,0,0
371,379,0,0,0,0,0,0,0,0,0,-1,1595,645,0,0
378,379,0,0,0,0,0,0,0,0,0,-1,1602,645,0,0
385,379,0,0,0,0,0,0,0,0,0,-1,1609,645,0,0
392,379,0,0,0,0,0,0,0,0,0,-1,1616,645,0,0
399,379,0,0,0,0,0,0,0,0,0,-1,1623,645,0,0
406,379,0,0,0,0,0,0,0,0,0,-1,1630,645,0,0
413,379,0,0,0,0,0,0,0,0,0,-1,1637,645,0,0
420,379,0,0,0,0,0,0,0,0,0,-1,1644,645,0,0
427,379,0,0,0,0,0,0,0,0,0,-1,1651,645,0,0
434,379,0,0,0,0,0,0,0,0,0,-1,1658,645,0,0
441,379,0,0,0,0,0,0,0,0,0,-1,1665,645,0,0
448,379,0,0,0,0,0,0,0,0,0,-1,1672,645,0,0
455,379,0,0,0,0,0,0,0,0,0,-1,1679,645,0,0
462,379,0,0,0,0,0,0,0,0,0,-1,1686,645,0,0
469,379,0,0,0,0,0,0,0,0,0,-1,1693,645,0,0
476,379,11.1787,0.830383,0,0,0,0,0,0,0,-1,1700,645,11.1787,-0.830365
483,379,12.0006,0.537842,0,0,0,0,0,0,0,-1,1707,645,12.0006,-0.537835
490,379,8.99048,1.00043,0,0,0,0,0,0,0,-1,1714,645,8.99054,-1.00043
497,379,9.3186,0.672791,0,0,0,0,0,0,0,-1,1721,645,9.31859,-0.672821
504,379,9.65283,0.240662,0,0,0,0,0,0,0,-1,1728,645,9.65284,-0.240655
511,379,8.14343,1.59912,0,0,0,0,0,0,0,-1,1735,645,8.14347,-1.59912
518,379,7.63489,1.71973,0,0,0,0,0,0,0,-1,1742,645,7.63492,-1.71972
525,379,6.03711,1.10352,0,0,0,0,0,0,0,-1,1749,645,6.03711,-1.10351
532,379,6.474,1.47742,0,0,0,0,0,0,0,-1,1756,645,6.47397,-1.47744
539,379,5.99927,0.113831,0,0,0,0,0,0,0,-1,1763,645,5.99925,-0.113844
546,379,5.46277,-0.596497,0,0,0,0,0,0,0,-1,1770,645,5.46273,0.596491
553,379,5.63977,-0.961365,0,0,0,0,0,0,0,-1,1777,645,5.63981,0.961344
560,379,5.55811,-0.76001,-0.0140828,-0.0066262,-0.00638288,-0.0029625,-0.0177464,-1.04972,0.0109775,0.0319356,1784,645,5.55816,0.760001
567,379,5.47034,-0.639221,-0.011492,-0.00477733,-0.0051302,-0.00200353,-0.0142658,-1.07514,0.008918,0.0180745,1791,645,5.47037,0.639239
574,379,5.55115,-0.573181,-0.00922053,-0.00354945,-0.0041457,-0.00136233,-0.0114076,-1.08534,0.00719411,0.0131475,1798,645,5.55117,0.57321
581,379,5.55798,-0.495544,-0.00717122,-0.00250267,-0.00322552,-0.00085539,-0.0088185,-1.09862,0.00561563,0.0146145,1805,645,5.55793,0.495548
588,379,5.54065,-0.408447,-0.00555327,-0.00170922,-0.00247447,-0.000498007,-0.00676448,-1.1156,0.00435316,0.0159671,1812,645,5.54059,0.408437
595,379,5.52478,-0.300049,-0.00412674,-0.000744055,-0.00178799,2.58123e-05,-0.00489661,-1.16421,0.00327305,0.0138982,1819,645,5.52475,0.300055
602,379,5.53784,-0.187195,-0.00342056,-0.000118841,-0.00144588,0.000424817,-0.00396422,-1.21115,0.0027952,0.0143448,1826,645,5.5378,0.187173
609,379,5.55396,-0.0739136,-0.00311231,0.000448881,-0.00114833,0.000787053,-0.00345048,-1.2844,0.00260264,0.0134615,1833,645,5.55391,0.0739192
616,379,5.54663,0.0413818,-0.00320838,0.000867543,-0.00113655,0.00116304,-0.00350388,-1.31643,0.00280515,0.0109626,1840,645,5.54668,-0.0413951
623,379,5.53333,0.161804,-0.0036286,0.00126891,-0.00127366,0.00158034,-0.00394003,-1.33099,0.00328281,0.0109256,1847,645,5.53338,-0.16179
630,379,5.51953,0.259705,-0.00432816,0.0017213,-0.00157583,0.00210717,-0.00471403,-1.33065,0.00403295,0.0123699,1854,645,5.51948,-0.259718
637,379,5.53662,0.353394,-0.00507779,0.00197233,-0.00297364,0.00305906,-0.00616452,-1.22042,0.00542491,0.0134971,1861,645,5.53667,-0.353396
644,379,5.58142,0.502686,-0.00536889,0.00181307,-0.00545059,0.00474927,-0.00830508,-1.07668,0.00762956,0.0209798,1868,645,5.58143,-0.502711
651,379,5.71448,0.380371,-0.00542164,0.00171423,-0.00822318,0.00711015,-0.0108176,-0.990085,0.0104241,0.0435242,1875,645,5.71447,-0.380386
658,379,5.76807,0.893494,-0.00476302,0.0014305,-0.0122165,0.0109366,-0.0142691,-0.909529,0.0145948,0.0477473,1882,645,5.76806,-0.893495
665,379,5.81909,1.31964,0,0,0,0,0,0,0,-1,1889,645,5.81904,-1.31962
672,379,5.98157,-0.849854,0,0,0,0,0,0,0,-1,1896,645,5.98155,0.849846
679,379,5.30298,-0.899902,0,0,0,0,0,0,0,-1,1903,645,5.303,0.899891
686,379,0,0,0,0,0,0,0,0,0,-1,1910,645,0,0
693,379,0,0,0,0,0,0,0,0,0,-1,1917,645,0,0
700,379,0,0,0,0,0,0,0,0,0,-1,1924,645,0,0
707,379,0,0,0,0,0,0,0,0,0,-1,1931,645,0,0
714,379,0,0,0,0,0,0,0,0,0,-1,1938,645,0,0
721,379,0,0,0,0,0,0,0,0,0,-1,1945,645,0,0
728,379,0,0,0,0,0,0,0,0,0,-1,1952,645,0,0
735,379,0,0,0,0,0,0,0,0,0,-1,1959,645,0,0
742,379,0,0,0,0,0,0,0,0,0,-1,1966,645,0,0
749,379,0,0,0,0,0,0,0,0,0,-1,1973,645,0,0
756,379,0,0,0,0,0,0,0,0,0,-1,1980,645,0,0
763,379,0,0,0,0,0,0,0,0,0,-1,1987,645,0,0
770,379,0,0,0,0,0,0,0,0,0,-1,1994,645,0,0
777,379,0,0,0,0,0,0,0,0,0,-1,2001,645,0,0
784,379,0,0,0,0,0,0,0,0,0,-1,2008,645,0,0
791,379,0,0,0,0,0,0,0,0,0,-1,2015,645,0,0
798,379,0,0,0,0,0,0,0,0,0,-1,2022,645,0,0
805,379,0,0,0,0,0,0,0,0,0,-1,2029,645,0,0
812,379,0,0,0,0,0,0,0,0,0,-1,2036,645,0,0
-700,372,0,0,0,0,0,0,0,0,0,-1,524,652,0,0
-693,372,0,0,0,0,0,0,0,0,0,-1,531,652,0,0
-686,372,0,0,0,0,0,0,0,0,0,-1,538,652,0,0
-679,372,0,0,0,0,0,0,0,0,0,-1,545,652,0,0
-672,372,0,0,0,0,0,0,0,0,0,-1,552,652,0,0
-665,372,0,0,0,0,0,0,0,0,0,-1,559,652,0,0
-658,372,0,0,0,0,0,0,0,0,0,-1,566,652,0,0
-651,372,0,0,0,0,0,0,0,0,0,-1,573,652,0,0
-644,372,0,0,0,0,0,0,0,0,0,-1,580,652,0,0
-637,372,0,0,0,0,0,0,0,0,0,-1,587,652,0,0
-630,372,0,0,0,0,0,0,0,0,0,-1,594,652,0,0
-623,372,0,0,0,0,0,0,0,0,0,-1,601,652,0,0
-616,372,0,0,0,0,0,0,0,0,0,-1,608,652,0,0
-609,372,0,0,0,0,0,0,0,0,0,-1,615,652,0,0
-602,372,0,0,0,0,0,0,0,0,0,-1,622,652,0,0
-595,372,0,0,0,0,0,0,0,0,0,-1,629,652,0,0
-588,372,0,0,0,0,0,0,0,0,0,-1,636,652,0,0
-581,372,0,0,0,0,0,0,0,0,0,-1,643,652,0,0
-574,372,0,0,0,0,0,0,0,0,0,-1,650,652,0,0
-567,372,-3.13904,3.12292,0.126026,0.0857066,-0.0920796,0.200127,0.0116058,-0.677629,0.129723,0.0467048,657,652,-3.13906,-3.12294
-560,372,-2.47449,2.14111,0.106275,0.070186,-0.0768762,0.167196,0.00926509,-0.670123,0.108508,0.0486604,664,652,-2.47446,-2.14111
-553,372,0.0614624,-1.30511,0.0871565,0.0548814,-0.0623286,0.135403,0.00663511,-0.658724,0.08814,0.0443762,671,652,0.0614533,1.3051
-546,372,0.0391235,-0.793518,0,0,0,0,0,0,0,-1,678,652,0.039146,0.793514
-539,372,-0.479126,-0.705383,0.0539705,0.0296408,-0.0377953,0.0815104,0.00210081,-0.629703,0.0536537,0.0423785,685,652,-0.479139,0.70539
-532,372,-0.563538,-0.779419,0.0407051,0.0205957,-0.0283159,0.0606985,0.000602312,-0.614798,0.0402664,0.0448955,692,652,-0.563553,0.779399
-525,372,-0.916748,-0.41864,0.029705,0.0137149,-0.0204733,0.0436889,-0.00026904,-0.599248,0.029216,0.0417153,699,652,-0.916762,0.418649
-518,372,-0.774658,-0.0640869,0.0209413,0.00887078,-0.0143667,0.0304889,-0.000676895,-0.586548,0.0205553,0.0254812,706,652,-0.774641,0.0640822
-511,372,-0.802856,-0.256775,0.0140677,0.00607365,-0.00982172,0.0206746,-0.000533205,-0.592153,0.0139642,0.0126124,713,652,-0.802881,0.256771
-504,372,-0.825562,-0.341736,0.00784851,0.000856297,-0.00501034,0.0104619,-0.00175712,-0.480781,0.00762808,0.00978474,720,652,-0.825576,0.341726
-497,372,-0.825378,-0.421875,0.0032142,-0.000989222,-0.00178267,0.00386842,-0.00164343,-0.351724,0.00326755,0.0105749,727,652,-0.825399,0.421863
-490,372,-0.805054,-0.503601,0.00221165,-0.00128029,-0.000907108,0.00243323,-0.00150187,-0.23958,0.00229305,0.0119078,734,652,-0.805027,0.503592
-483,372,-0.802429,-0.597473,0.00118245,-0.00176582,0.000167809,0.00119197,-0.00177534,0.0566739,0.00172418,0.0120581,741,652,-0.802409,0.597453
-476,372,-0.799072,-0.689392,0.000579733,-0.00235017,0.00117279,0.000991351,-0.00276179,0.337542,0.0022458,0.0126416,748,652,-0.799093,0.689391
-469,372,-0.807678,-0.790405,0.000487574,-0.00338276,0.00220347,0.00148501,-0.00438019,0.425068,0.00352111,0.010532,755,652,-0.80765,0.790411
-462,372,-0.807922,-0.921265,0.000719343,-0.0053067,0.00320484,0.0021051,-0.00669246,0.408119,0.00530445,0.0093683,762,652,-0.807922,0.921254
-455,372,-0.817505,-1.02673,0.000766916,-0.00757938,0.00446534,0.00270559,-0.00951806,0.409605,0.00741367,0.00965875,769,652,-0.817492,1.02672
-448,372,-0.806641,-1.10748,0.000625408,-0.00976294,0.00596675,0.00334208,-0.0124796,0.427255,0.00962908,0.00968327,776,652,-0.806624,1.10747
-441,372,-0.776245,-1.28662,-0.000166125,-0.0124706,0.00761393,0.0034705,-0.0161072,0.445591,0.0120626,0.0172459,783,652,-0.776258,1.28661
-434,372,-0.9104,-1.29419,-0.00173016,-0.0152851,0.00942465,0.00310091,-0.0201162,0.473676,0.0145549,0.0301677,790,652,-0.910391,1.29419
-427,372,-0.949768,-1.0069,-0.00391598,-0.0184149,0.0114548,0.00239063,-0.0247216,0.503276,0.017333,0.0396705,797,652,-0.949772,1.00689
-420,372,-0.997986,-0.930847,-0.00615894,-0.0220061,0.013705,0.00174812,-0.0299132,0.523297,0.0205496,0.0455735,804,652,-0.998007,0.930865
-413,372,-1.07239,-1.02173,0,0,0,0,0,0,0,-1,811,652,-1.07239,1.02171
-406,372,-0.885437,-0.583923,0,0,0,0,0,0,0,-1,818,652,-0.885437,0.5839
-399,372,-2.89606,-0.880859,0,0,0,0,0,0,0,-1,825,652,-2.89607,0.880868
-392,372,-3.11639,-0.411865,0,0,0,0,0,0,0,-1,832,652,-3.11639,0.411872
-385,372,-3.28528,0.0510864,0,0,0,0,0,0,0,-1,839,652,-3.28526,-0.0511117
-378,372,-0.278625,0.965454,0,0,0,0,0,0,0,-1,846,652,-0.278648,-0.965475
-371,372,0.345459,-0.0944824,0,0,0,0,0,0,0,-1,853,652,0.345477,0.0944616
-364,372,0,0,0,0,0,0,0,0,0,-1,860,652,0,0
-357,372,0,0,0,0,0,0,0,0,0,-1,867,652,0,0
-350,372,0,0,0,0,0,0,0,0,0,-1,874,652,0,0
-343,372,0,0,0,0,0,0,0,0,0,-1,881,652,0,0
-336,372,0,0,0,0,0,0,0,0,0,-1,888,652,0,0
-329,372,0,0,0,0,0,0,0,0,0,-1,895,652,0,0
-322,372,0,0,0,0,0,0,0,0,0,-1,902,652,0,0
-315,372,0,0,0,0,0,0,0,0,0,-1,909,652,0,0
-308,372,0,0,0,0,0,0,0,0,0,-1,916,652,0,0
-301,372,0,0,0,0,0,0,0,0,0,-1,923,652,0,0
-294,372,0,0,0,0,0,0,0,0,0,-1,930,652,0,0
-287,372,0,0,0,0,0,0,0,0,0,-1,937,652,0,0
-280,372,0,0,0,0,0,0,0,0,0,-1,944,652,0,0
-273,372,0,0,0,0,0,0,0,0,0,-1,951,652,0,0
-266,372,0,0,0,0,0,0,0,0,0,-1,958,652,0,0
-259,372,0,0,0,0,0,0,0,0,0,-1,965,652,0,0
-252,372,0,0,0,0,0,0,0,0,0,-1,972,652,0,0
-245,372,0,0,0,0,0,0,0,0,0,-1,979,652,0,0
-238,372,0,0,0,0,0,0,0,0,0,-1,986,652,0,0
-231,372,0,0,0,0,0,0,0,0,0,-1,993,652,0,0
-224,372,0,0,0,0,0,0,0,0,0,-1,1000,652,0,0
-217,372,0,0,0,0,0,0,0,0,0,-1,1007,652,0,0
-210,372,0,0,0,0,0,0,0,0,0,-1,1014,652,0,0
-203,372,0,0,0,0,0,0,0,0,0,-1,1021,652,0,0
-196,372,0,0,0,0,0,0,0,0,0,-1,1028,652,0,0
-189,372,0,0,0,0,0,0,0,0,0,-1,1035,652,0,0
-182,372,0,0,0,0,0,0,0,0,0,-1,1042,652,0,0
-175,372,0,0,0,0,0,0,0,0,0,-1,1049,652,0,0
-168,372,0,0,0,0,0,0,0,0,0,-1,1056,652,0,0
-161,372,0,0,0,0,0,0,0,0,0,-1,1063,652,0,0
-154,372,0,0,0,0,0,0,0,0,0,-1,1070,652,0,0
-147,372,0,0,0,0,0,0,0,0,0,-1,1077,652,0,0
-140,372,0,0,0,0,0,0,0,0,0,-1,1084,652,0,0
-133,372,0,0,0,0,0,0,0,0,0,-1,1091,652,0,0
-126,372,0,0,0,0,0,0,0,0,0,-1,1098,652,0,0
-119,372,0,0,0,0,0,0,0,0,0,-1,1105,652,0,0
-112,372,0,0,0,0,0,0,0,0,0,-1,1112,652,0,0
-105,372,0,0,0,0,0,0,0,0,0,-1,1119,652,0,0
-98,372,0,0,0,0,0,0,0,0,0,-1,1126,652,0,0
-91,372,0,0,0,0,0,0,0,0,0,-1,1133,652,0,0
-84,372,0,0,0,0,0,0,0,0,0,-1,1140,652,0,0
-77,372,0,0,0,0,0,0,0,0,0,-1,1147,652,0,0
-70,372,0,0,0,0,0,0,0,0,0,-1,1154,652,0,0
-63,372,0,0,0,0,0,0,0,0,0,-1,1161,652,0,0
-56,372,0,0,0,0,0,0,0,0,0,-1,1168,652,0,0
-49,372,0,0,0,0,0,0,0,0,0,-1,1175,652,0,0
-42,372,0,0,0,0,0,0,0,0,0,-1,1182,652,0,0
-35,372,0,0,0,0,0,0,0,0,0,-1,1189,652,0,0
-28,372,0,0,0,0,0,0,0,0,0,-1,1196,652,0,0
-21,372,0,0,0,0,0,0,0,0,0,-1,1203,652,0,0
-14,372,0,0,0,0,0,0,0,0,0,-1,1210,652,0,0
-7,372,0,0,0,0,0,0,0,0,0,-1,1217,652,0,0
0,372,0,0,0,0,0,0,0,0,0,-1,1224,652,0,0
7,372,0,0,0,0,0,0,0,0,0,-1,1231,652,0,0
14,372,0,0,0,0,0,0,0,0,0,-1,1238,652,0,0
21,372,0,0,0,0,0,0,0,0,0,-1,1245,652,0,0
28,372,0,0,0,0,0,0,0,0,0,-1,1252,652,0,0
35,372,0,0,0,0,0,0,0,0,0,-1,1259,652,0,0
42,372,0,0,0,0,0,0,0,0,0,-1,1266,652,0,0
49,372,0,0,0,0,0,0,0,0,0,-1,1273,652,0,0
56,372,0,0,0,0,0,0,0,0,0,-1,1280,652,0,0
63,372,0,0,0,0,0,0,0,0,0,-1,1287,652,0,0
70,372,0,0,0,0,0,0,0,0,0,-1,1294,652,0,0
77,372,0,0,0,0,0,0,0,0,0,-1,1301,652,0,0
84,372,0,0,0,0,0,0,0,0,0,-1,1308,652,0,0
91,372,0,0,0,0,0,0,0,0,0,-1,1315,652,0,0
98,372,0,0,0,0,0,0,0,0,0,-1,1322,652,0,0
105,372,0,0,0,0,0,0,0,0,0,-1,1329,652,0,0
112,372,0,0,0,0,0,0,0,0,0,-1,1336,652,0,0
119,372,0,0,0,0,0,0,0,0,0,-1,1343,652,0,0
126,372,0,0,0,0,0,0,0,0,0,-1,1350,652,0,0
133,372,0,0,0,0,0,0,0,0,0,-1,1357,652,0,0
140,372,0,0,0,0,0,0,0,0,0,-1,1364,652,0,0
147,372,0,0,0,0,0,0,0,0,0,-1,1371,652,0,0
154,372,0,0,0,0,0,0,0,0,0,-1,1378,652,0,0
161,372,0,0,0,0,0,0,0,0,0,-1,1385,652,0,0
168,372,0,0,0,0,0,0,0,0,0,-1,1392,652,0,0
175,372,0,0,0,0,0,0,0,0,0,-1,1399,652,0,0
182,372,0,0,0,0,0,0,0,0,0,-1,1406,652,0,0
189,372,0,0,0,0,0,0,0,0,0,-1,1413,652,0,0
196,372,0,0,0,0,0,0,0,0,0,-1,1420,652,0,0
203,372,0,0,0,0,0,0,0,0,0,-1,1427,652,0,0
210,372,0,0,0,0,0,0,0,0,0,-1,1434,652,0,0
217,372,0,0,0,0,0,0,0,0,0,-1,1441,652,0,0
224,372,0,0,0,0,0,0,0,0,0,-1,1448,652,0,0
231,372,0,0,0,0,0,0,0,0,0,-1,1455,652,0,0
238,372,0,0,0,0,0,0,0,0,0,-1,1462,652,0,0
245,372,0,0,0,0,0,0,0,0,0,-1,1469,652,0,0
252,372,0,0,0,0,0,0,0,0,0,-1,1476,652,0,0
259,372,0,0,0,0,0,0,0,0,0,-1,1483,652,0,0
266,372,0,0,0,0,0,0,0,0,0,-1,1490,652,0,0
273,372,0,0,0,0,0,0,0,0,0,-1,1497,652,0,0
280,372,0,0,0,0,0,0,0,0,0,-1,1504,652,0,0
287,372,0,0,0,0,0,0,0,0,0,-1,1511,652,0,0
294,372,0,0,0,0,0,0,0,0,0,-1,1518,652,0,0
301,372,0,0,0,0,0,0,0,0,0,-1,1525,652,0,0
308,372,0,0,0,0,0,0,0,0,0,-1,1532,652,0,0
315,372,0,0,0,0,0,0,0,0,0,-1,1539,652,0,0
322,372,0,0,0,0,0,0,0,0,0,-1,1546,652,0,0
329,372,0,0,0,0,0,0,0,0,0,-1,1553,652,0,0
336,372,0,0,0,0,0,0,0,0,0,-1,1560,652,0,0
343,372,0,0,0,0,0,0,0,0,0,-1,1567,652,0,0
350,372,0,0,0,0,0,0,0,0,0,-1,1574,652,0,0
357,372,0,0,0,0,0,0,0,0,0,-1,1581,652,0,0
364,372,0,0,0,0,0,0,0,0,0,-1,1588,652,0,0
371,372,0,0,0,0,0,0,0,0,0,-1,1595,652,0,0
378,372,0,0,0,0,0,0,0,0,0,-1,1602,652,0,0
385,372,0,0,0,0,0,0,0,0,0,-1,1609,652,0,0
392,372,0,0,0,0,0,0,0,0,0,-1,1616,652,0,0
399,372,0,0,0,0,0,0,0,0,0,-1,1623,652,0,0
406,372,0,0,0,0,0,0,0,0,0,-1,1630,652,0,0
413,372,0,0,0,0,0,0,0,0,0,-1,1637,652,0,0
420,372,0,0,0,0,0,0,0,0,0,-1,1644,652,0,0
427,372,0,0,0,0,0,0,0,0,0,-1,1651,652,0,0
434,372,0,0,0,0,0,0,0,0,0,-1,1658,652,0,0
441,372,0,0,0,0,0,0,0,0,0,-1,1665,652,0,0
448,372,0,0,0,0,0,0,0,0,0,-1,1672,652,0,0
455,372,0,0,0,0,0,0,0,0,0,-1,1679,652,0,0
462,372,0,0,0,0,0,0,0,0,0,-1,1686,652,0,0
469,372,0,0,0,0,0,0,0,0,0,-1,1693,652,0,0
476,372,0,0,0,0,0,0,0,0,0,-1,1700,652,0,0
483,372,8.74182,1.53125,0,0,0,0,0,0,0,-1,1707,652,8.74186,-1.53126
490,372,9.04468,1.08044,0,0,0,0,0,0,0,-1,1714,652,9.04465,-1.08047
497,372,9.38538,0.571838,0,0,0,0,0,0,0,-1,1721,652,9.38538,-0.571853
504,372,8.07935,1.38403,0,0,0,0,0,0,0,-1,1728,652,8.07936,-1.38406
511,372,8.1665,1.63776,0,0,0,0,0,0,0,-1,1735,652,8.16651,-1.63775
518,372,7.828,1.62689,0,0,0,0,0,0,0,-1,1742,652,7.82803,-1.6269
525,372,6.00818,1.52496,0,0,0,0,0,0,0,-1,1749,652,6.00816,-1.52496
532,372,6.94177,1.96899,0,0,0,0,0,0,0,-1,1756,652,6.94178,-1.96899
539,372,6.04651,0.328857,0,0,0,0,0,0,0,-1,1763,652,6.04656,-0.328846
546,372,5.05432,-1.883,0,0,0,0,0,0,0,-1,1770,652,5.0543,1.883
553,372,5.24133,-1.34265,0,0,0,0,0,0,0,-1,1777,652,5.24131,1.34266
560,372,5.5282,-0.970581,-0.017129,-0.00975242,-0.00321733,-0.00854636,-0.0183351,-1.21214,0.0105939,0.0386229,1784,652,5.52818,0.970571
567,372,5.58728,-0.681946,-0.0142967,-0.00755685,-0.00318906,-0.0062871,-0.0155664,-1.19188,0.00904245,0.018892,1791,652,5.58731,0.681971
574,372,5.65051,-0.575867,-0.0117659,-0.00586715,-0.00310966,-0.00453064,-0.0131024,-1.16487,0.00768366,0.0138442,1798,652,5.65048,0.575838
581,372,5.64575,-0.509216,-0.00942282,-0.00440527,-0.00282679,-0.00313453,-0.0106936,-1.14833,0.00634764,0.0145155,1805,652,5.64572,0.509219
588,372,5.64526,-0.411804,-0.00741784,-0.00324548,-0.00250077,-0.00207498,-0.00858834,-1.13303,0.00517449,0.0145988,1812,652,5.64529,0.411831
595,372,5.64929,-0.283264,-0.00556902,-0.00203527,-0.00202543,-0.00111436,-0.00648993,-1.14406,0.00400716,0.0136011,1819,652,5.64926,0.283288
602,372,5.66345,-0.165588,-0.00447926,-0.00116261,-0.00172635,-0.000427125,-0.00521475,-1.16805,0.00334323,0.012893,1826,652,5.66346,0.165569
609,372,5.6676,-0.0545654,-0.00381253,-0.000382068,-0.00149111,0.00017546,-0.00437006,-1.21299,0.00297359,0.0117396,1833,652,5.6676,0.0545772
616,372,5.6582,0.0490723,-0.00353006,0.000146587,-0.00143834,0.00064241,-0.00402588,-1.23883,0.0029217,0.0115071,1840,652,5.65818,-0.0490545
623,372,5.65027,0.15332,-0.00352143,0.000550324,-0.00149548,0.00104056,-0.00401167,-1.25402,0.00308046,0.0111271,1847,652,5.65033,-0.153301
630,372,5.62622,0.253784,-0.00360787,0.00100771,-0.00158274,0.0014983,-0.00409847,-1.27022,0.00334552,0.0158382,1854,652,5.62625,-0.253806
637,372,5.60803,0.340393,-0.00373145,0.00124961,-0.00275712,0.00247451,-0.00495635,-1.15272,0.00436924,0.0197887,1861,652,5.60801,-0.340365
644,372,5.67993,0.488037,-0.00343221,0.00115887,-0.00490615,0.00427995,-0.00655329,-1.00421,0.00630031,0.0163582,1868,652,5.67993,-0.488012
651,372,5.75085,0.674133,-0.00276385,0.00117287,-0.0071861,0.00665532,-0.0082463,-0.919075,0.00861978,0.0350346,1875,652,5.75086,-0.674109
658,372,5.75134,0.761719,-0.00139633,0.00119473,-0.0104779,0.0104568,-0.0106584,-0.846908,0.0121911,0.0427893,1882,652,5.75138,-0.761728
665,372,5.83716,1.03564,0,0,0,0,0,0,0,-1,1889,652,5.83712,-1.03565
672,372,4.53589,1.211,0,0,0,0,0,0,0,-1,1896,652,4.53592,-1.21099
679,372,3.52222,1.11084,0,0,0,0,0,0,0,-1,1903,652,3.52221,-1.11082
686,372,3.48193,0.763916,0,0,0,0,0,0,0,-1,1910,652,3.48196,-0.76391
693,372,0,0,0,0,0,0,0,0,0,-1,1917,652,0,0
700,372,0,0,0,0,0,0,0,0,0,-1,1924,652,0,0
707,372,0,0,0,0,0,0,0,0,0,-1,1931,652,0,0
714,372,0,0,0,0,0,0,0,0,0,-1,1938,652,0,0
721,372,0,0,0,0,0,0,0,0,0,-1,1945,652,0,0
728,372,0,0,0,0,0,0,0,0,0,-1,1952,652,0,0
735,372,0,0,0,0,0,0,0,0,0,-1,1959,652,0,0
742,372,0,0,0,0,0,0,0,0,0,-1,1966,652,0,0
749,372,0,0,0,0,0,0,0,0,0,-1,1973,652,0,0
756,372,0,0,0,0,0,0,0,0,0,-1,1980,652,0,0
763,372,0,0,0,0,0,0,0,0,0,-1,1987,652,0,0
770,372,0,0,0,0,0,0,0,0,0,-1,1994,652,0,0
777,372,0,0,0,0,0,0,0,0,0,-1,2001,652,0,0
784,372,0,0,0,0,0,0,0,0,0,-1,2008,652,0,0
791,372,0,0,0,0,0,0,0,0,0,-1,2015,652,0,0
798,372,0,0,0,0,0,0,0,0,0,-1,2022,652,0,0
805,372,0,0,0,0,0,0,0,0,0,-1,2029,652,0,0
812,372,0,0,0,0,0,0,0,0,0,-1,2036,652,0,0
-700,365,0,0,0,0,0,0,0,0,0,-1,524,659,0,0
-693,365,0,0,0,0,0,0,0,0,0,-1,531,659,0,0
-686,365,0,0,0,0,0,0,0,0,0,-1,538,659,0,0
-679,365,0,0,0,0,0,0,0,0,0,-1,545,659,0,0
-672,365,0,0,0,0,0,0,0,0,0,-1,552,659,0,0
-665,365,0,0,0,0,0,0,0,0,0,-1,559,659,0,0
-658,365,0,0,0,0,0,0,0,0,0,-1,566,659,0,0
-651,365,0,0,0,0,0,0,0,0,0,-1,573,659,0,0
-644,365,0,0,0,0,0,0,0,0,0,-1,580,659,0,0
-637,365,0,0,0,0,0,0,0,0,0,-1,587,659,0,0
-630,365,0,0,0,0,0,0,0,0,0,-1,594,659,0,0
-623,365,0,0,0,0,0,0,0,0,0,-1,601,659,0,0
-616,365,0,0,0,0,0,0,0,0,0,-1,608,659,0,0
-609,365,0,0,0,0,0,0,0,0,0,-1,615,659,0,0
-602,365,0,0,0,0,0,0,0,0,0,-1,622,659,0,0
-595,365,0,0,0,0,0,0,0,0,0,-1,629,659,0,0
-588,365,0,0,0,0,0,0,0,0,0,-1,636,659,0,0
-581,365,0,0,0,0,0,0,0,0,0,-1,643,659,0,0
-574,365,0.54071,2.47491,0,0,0,0,0,0,0,-1,650,659,0.540685,-2.47494
-567,365,0.0288086,-2.23193,0,0,0,0,0,0,0,-1,657,659,0.0287843,2.23194
-560,365,0.0703125,-2.05316,0.087754,0.0629981,-0.0628738,0.139457,0.0112953,-0.688206,0.0894441,0.0474483,664,659,0.0703313,2.05319
-553,365,-0.0568848,-1.69836,0.0717164,0.049124,-0.0507763,0.112438,0.00840259,-0.675946,0.0723206,0.0432077,671,659,-0.0568632,1.69838
-546,365,-0.178345,-1.20868,0.0567377,0.0364977,-0.0395557,0.0874474,0.00578795,-0.660164,0.0564679,0.0410936,678,659,-0.17832,1.20868
-539,365,-0.45752,-0.611267,0.043862,0.0261766,-0.0302272,0.0665134,0.00352528,-0.643098,0.0432151,0.0434516,685,659,-0.457533,0.611281
-532,365,-0.801025,-0.489624,0.0326929,0.017859,-0.0222653,0.0487441,0.00180778,-0.624621,0.0319106,0.0450578,692,659,-0.801009,0.489635
-525,365,-0.948608,-0.225647,0.0234314,0.0115148,-0.0156027,0.0341748,0.000771428,-0.603006,0.0225304,0.0364009,699,659,-0.948614,0.225659
-518,365,-0.865112,-0.135864,0.0161968,0.00707458,-0.010471,0.0230569,0.000214449,-0.579993,0.0153003,0.019833,706,659,-0.86513,0.13584
-511,365,-0.901611,-0.24408,0.0105861,0.00450361,-0.00676958,0.0149662,0.000123498,-0.574284,0.00993654,0.0159862,713,659,-0.901617,0.244101
-504,365,-0.911377,-0.349609,0.00564292,-0.000371999,-0.00282441,0.00676124,-0.00149032,-0.37701,0.0050777,0.0123519,720,659,-0.911354,0.349587
-497,365,-0.922791,-0.428345,0.00213494,-0.00202275,-0.000268083,0.00215215,-0.00203997,-0.0641248,0.00242061,0.0125345,727,659,-0.922818,0.428365
-490,365,-0.922424,-0.510925,0.00176752,-0.00237781,0.000300387,0.00178918,-0.00239946,0.0719629,0.00242685,0.0132359,734,659,-0.922424,0.510955
-483,365,-0.919983,-0.607178,0.00131869,-0.0030251,0.0011973,0.00162685,-0.00333326,0.251909,0.00291966,0.012131,741,659,-0.919974,0.607158
-476,365,-0.898254,-0.709656,0.00104691,-0.00388413,0.00222988,0.00190572,-0.00474294,0.367627,0.00395339,0.0113871,748,659,-0.898239,0.709653
-469,365,-0.894287,-0.814514,0.00105954,-0.00532544,0.00341032,0.00253847,-0.00680438,0.409188,0.00557838,0.0110743,755,659,-0.894307,0.814522
-462,365,-0.904907,-0.929749,0.00118678,-0.00766814,0.00464108,0.00317352,-0.00965488,0.404475,0.00771515,0.0120067,762,659,-0.904919,0.929732
-455,365,-0.907898,-1.03375,0.00103419,-0.0104815,0.0061953,0.00373416,-0.0131815,0.41099,0.0102614,0.0125558,769,659,-0.907895,1.03373
-448,365,-0.88147,-1.13165,0.000532638,-0.0132389,0.00805883,0.0042468,-0.0169531,0.431865,0.0129519,0.0121867,776,659,-0.881487,1.13168
-441,365,-0.98291,-1.26715,-0.000733813,-0.0165286,0.0100858,0.00417864,-0.021441,0.453248,0.0158713,0.027583,783,659,-0.982898,1.26716
-434,365,-1.06372,-1.37518,-0.00287611,-0.0199902,0.0122755,0.00353053,-0.0263969,0.481016,0.0188851,0.0382751,790,659,-1.06372,1.37517
-427,365,-1.14178,-1.23273,-0.00575302,-0.0237753,0.0146076,0.0023993,-0.0319276,0.50903,0.0221282,0.0441476,797,659,-1.14179,1.23274
-420,365,-1.2182,-0.75531,0,0,0,0,0,0,0,-1,804,659,-1.21821,0.75529
-413,365,-1.26013,0.567688,0,0,0,0,0,0,0,-1,811,659,-1.26011,-0.567694
-406,365,-1.75067,-0.934448,0,0,0,0,0,0,0,-1,818,659,-1.7507,0.934424
-399,365,-2.2157,-0.419006,0,0,0,0,0,0,0,-1,825,659,-2.2157,0.418985
-392,365,-2.58752,0.0137329,0,0,0,0,0,0,0,-1,832,659,-2.58755,-0.013742
-385,365,-2.83105,0.515381,0,0,0,0,0,0,0,-1,839,659,-2.83105,-0.515355
-378,365,-3.09857,1.0976,0,0,0,0,0,0,0,-1,846,659,-3.09856,-1.09759
-371,365,0,0,0,0,0,0,0,0,0,-1,853,659,0,0
-364,365,0,0,0,0,0,0,0,0,0,-1,860,659,0,0
-357,365,0,0,0,0,0,0,0,0,0,-1,867,659,0,0
-350,365,0,0,0,0,0,0,0,0,0,-1,874,659,0,0
-343,365,0,0,0,0,0,0,0,0,0,-1,881,659,0,0
-336,365,0,0,0,0,0,0,0,0,0,-1,888,659,0,0
-329,365,0,0,0,0,0,0,0,0,0,-1,895,659,0,0
-322,365,0,0,0,0,0,0,0,0,0,-1,902,659,0,0
-315,365,0,0,0,0,0,0,0,0,0,-1,909,659,0,0
-308,365,0,0,0,0,0,0,0,0,0,-1,916,659,0,0
-301,365,0,0,0,0,0,0,0,0,0,-1,923,659,0,0
-294,365,0,0,0,0,0,0,0,0,0,-1,930,659,0,0
-287,365,0,0,0,0,0,0,0,0,0,-1,937,659,0,0
-280,365,0,0,0,0,0,0,0,0,0,-1,944,659,0,0
-273,365,0,0,0,0,0,0,0,0,0,-1,951,659,0,0
-266,365,0,0,0,0,0,0,0,0,0,-1,958,659,0,0
-259,365,0,0,0,0,0,0,0,0,0,-1,965,659,0,0
-252,365,0,0,0,0,0,0,0,0,0,-1,972,659,0,0
-245,365,0,0,0,0,0,0,0,0,0,-1,979,659,0,0
-238,365,0,0,0,0,0,0,0,0,0,-1,986,659,0,0
-231,365,0,0,0,0,0,0,0,0,0,-1,993,659,0,0
-224,365,0,0,0,0,0,0,0,0,0,-1,1000,659,0,0
-217,365,0,0,0,0,0,0,0,0,0,-1,1007,659,0,0
-210,365,0,0,0,0,0,0,0,0,0,-1,1014,659,0,0
-203,365,0,0,0,0,0,0,0,0,0,-1,1021,659,0,0
-196,365,0,0,0,0,0,0,0,0,0,-1,1028,659,0,0
-189,365,0,0,0,0,0,0,0,0,0,-1,1035,659,0,0
-182,365,0,0,0,0,0,0,0,0,0,-1,1042,659,0,0
-175,365,0,0,0,0,0,0,0,0,0,-1,1049,659,0,0
-168,365,0,0,0,0,0,0,0,0,0,-1,1056,659,0,0
-161,365,0,0,0,0,0,0,0,0,0,-1,1063,659,0,0
-154,365,0,0,0,0,0,0,0,0,0,-1,1070,659,0,0
-147,365,0,0,0,0,0,0,0,0,0,-1,1077,659,0,0
-140,365,0,0,0,0,0,0,0,0,0,-1,1084,659,0,0
-133,365,0,0,0,0,0,0,0,0,0,-1,1091,659,0,0
-126,365,0,0,0,0,0,0,0,0,0,-1,1098,659,0,0
-119,365,0,0,0,0,0,0,0,0,0,-1,1105,659,0,0
-112,365,0,0,0,0,0,0,0,0,0,-1,1112,659,0,0
-105,365,0,0,0,0,0,0,0,0,0,-1,1119,659,0,0
-98,365,0,0,0,0,0,0,0,0,0,-1,1126,659,0,0
-91,365,0,0,0,0,0,0,0,0,0,-1,1133,659,0,0
-84,365,0,0,0,0,0,0,0,0,0,-1,1140,659,0,0
-77,365,0,0,0,0,0,0,0,0,0,-1,1147,659,0,0
-70,365,0,0,0,0,0,0,0,0,0,-1,1154,659,0,0
-63,365,0,0,0,0,0,0,0,0,0,-1,1161,659,0,0
-56,365,0,0,0,0,0,0,0,0,0,-1,1168,659,0,0
-49,365,0,0,0,0,0,0,0,0,0,-1,1175,659,0,0
-42,365,0,0,0,0,0,0,0,0,0,-1,1182,659,0,0
-35,365,0,0,0,0,0,0,0,0,0,-1,1189,659,0,0
-28,365,0,0,0,0,0,0,0,0,0,-1,1196,659,0,0
-21,365,0,0,0,0,0,0,0,0,0,-1,1203,659,0,0
-14,365,0,0,0,0,0,0,0,0,0,-1,1210,659,0,0
-7,365,0,0,0,0,0,0,0,0,0,-1,1217,659,0,0
0,365,0,0,0,0,0,0,0,0,0,-1,1224,659,0,0
7,365,0,0,0,0,0,0,0,0,0,-1,1231,659,0,0
14,365,0,0,0,0,0,0,0,0,0,-1,1238,659,0,0
21,365,0,0,0,0,0,0,0,0,0,-1,1245,659,0,0
28,365,0,0,0,0,0,0,0,0,0,-1,1252,659,0,0
35,365,0,0,0,0,0,0,0,0,0,-1,1259,659,0,0
42,365,0,0,0,0,0,0,0,0,0,-1,1266,659,0,0
49,365,0,0,0,0,0,0,0,0,0,-1,1273,659,0,0
56,365,0,0,0,0,0,0,0,0,0,-1,1280,659,0,0
63,365,0,0,0,0,0,0,0,0,0,-1,1287,659,0,0
70,365,0,0,0,0,0,0,0,0,0,-1,1294,659,0,0
77,365,0,0,0,0,0,0,0,0,0,-1,1301,659,0,0
84,365,0,0,0,0,0,0,0,0,0,-1,1308,659,0,0
91,365,0,0,0,0,0,0,0,0,0,-1,1315,659,0,0
98,365,0,0,0,0,0,0,0,0,0,-1,1322,659,0,0
105,365,0,0,0,0,0,0,0,0,0,-1,1329,659,0,0
112,365,0,0,0,0,0,0,0,0,0,-1,1336,659,0,0
119,365,0,0,0,0,0,0,0,0,0,-1,1343,659,0,0
126,365,0,0,0,0,0,0,0,0,0,-1,1350,659,0,0
133,365,0,0,0,0,0,0,0,0,0,-1,1357,659,0,0
140,365,0,0,0,0,0,0,0,0,0,-1,1364,659,0,0
147,365,0,0,0,0,0,0,0,0,0,-1,1371,659,0,0
154,365,0,0,0,0,0,0,0,0,0,-1,1378,659,0,0
161,365,0,0,0,0,0,0,0,0,0,-1,1385,659,0,0
168,365,0,0,0,0,0,0,0,0,0,-1,1392,659,0,0
175,365,0,0,0,0,0,0,0,0,0,-1,1399,659,0,0
182,365,0,0,0,0,0,0,0,0,0,-1,1406,659,0,0
189,365,0,0,0,0,0,0,0,0,0,-1,1413,659,0,0
196,365,0,0,0,0,0,0,0,0,0,-1,1420,659,0,0
203,365,0,0,0,0,0,0,0,0,0,-1,1427,659,0,0
210,365,0,0,0,0,0,0,0,0,0,-1,1434,659,0,0
217,365,0,0,0,0,0,0,0,0,0,-1,1441,659,0,0
224,365,0,0,0,0,0,0,0,0,0,-1,1448,659,0,0
231,365,0,0,0,0,0,0,0,0,0,-1,1455,659,0,0
238,365,0,0,0,0,0,0,0,0,0,-1,1462,659,0,0
245,365,0,0,0,0,0,0,0,0,0,-1,1469,659,0,0
252,365,0,0,0,0,0,0,0,0,0,-1,1476,659,0,0
259,365,0,0,0,0,0,0,0,0,0,-1,1483,659,0,0
266,365,0,0,0,0,0,0,0,0,0,-1,1490,659,0,0
273,365,0,0,0,0,0,0,0,0,0,-1,1497,659,0,0
280,365,0,0,0,0,0,0,0,0,0,-1,1504,659,0,0
287,365,0,0,0,0,0,0,0,0,0,-1,1511,659,0,0
294,365,0,0,0,0,0,0,0,0,0,-1,1518,659,0,0
301,365,0,0,0,0,0,0,0,0,0,-1,1525,659,0,0
308,365,0,0,0,0,0,0,0,0,0,-1,1532,659,0,0
315,365,0,0,0,0,0,0,0,0,0,-1,1539,659,0,0
322,365,0,0,0,0,0,0,0,0,0,-1,1546,659,0,0
329,365,0,0,0,0,0,0,0,0,0,-1,1553,659,0,0
336,365,0,0,0,0,0,0,0,0,0,-1,1560,659,0,0
343,365,0,0,0,0,0,0,0,0,0,-1,1567,659,0,0
350,365,0,0,0,0,0,0,0,0,0,-1,1574,659,0,0
357,365,0,0,0,0,0,0,0,0,0,-1,1581,659,0,0
364,365,0,0,0,0,0,0,0,0,0,-1,1588,659,0,0
371,365,0,0,0,0,0,0,0,0,0,-1,1595,659,0,0
378,365,0,0,0,0,0,0,0,0,0,-1,1602,659,0,0
385,365,0,0,0,0,0,0,0,0,0,-1,1609,659,0,0
392,365,0,0,0,0,0,0,0,0,0,-1,1616,659,0,0
399,365,0,0,0,0,0,0,0,0,0,-1,1623,659,0,0
406,365,0,0,0,0,0,0,0,0,0,-1,1630,659,0,0
413,365,0,0,0,0,0,0,0,0,0,-1,1637,659,0,0
420,365,0,0,0,0,0,0,0,0,0,-1,1644,659,0,0
427,365,0,0,0,0,0,0,0,0,0,-1,1651,659,0,0
434,365,0,0,0,0,0,0,0,0,0,-1,1658,659,0,0
441,365,0,0,0,0,0,0,0,0,0,-1,1665,659,0,0
448,365,0,0,0,0,0,0,0,0,0,-1,1672,659,0,0
455,365,0,0,0,0,0,0,0,0,0,-1,1679,659,0,0
462,365,0,0,0,0,0,0,0,0,0,-1,1686,659,0,0
469,365,0,0,0,0,0,0,0,0,0,-1,1693,659,0,0
476,365,0,0,0,0,0,0,0,0,0,-1,1700,659,0,0
483,365,0,0,0,0,0,0,0,0,0,-1,1707,659,0,0
490,365,8.39551,0.471252,0,0,0,0,0,0,0,-1,1714,659,8.39551,-0.471241
497,365,8.08691,0.845642,0,0,0,0,0,0,0,-1,1721,659,8.08686,-0.845631
504,365,7.88904,1.84399,0,0,0,0,0,0,0,-1,1728,659,7.889,-1.84397
511,365,8.10657,1.68164,0,0,0,0,0,0,0,-1,1735,659,8.10662,-1.68165
518,365,8.21545,1.41815,0,0,0,0,0,0,0,-1,1742,659,8.2155,-1.41813
525,365,8.55664,0.847412,0,0,0,0,0,0,0,-1,1749,659,8.55664,-0.847409
532,365,6.79712,1.73083,0,0,0,0,0,0,0,-1,1756,659,6.79706,-1.73081
539,365,6.00134,0.652222,0,0,0,0,0,0,0,-1,1763,659,6.00139,-0.652194
546,365,5.20569,-0.426392,0,0,0,0,0,0,0,-1,1770,659,5.20571,0.426419
553,365,5.16943,-1.91748,0,0,0,0,0,0,0,-1,1777,659,5.16948,1.91751
560,365,5.67798,-1.30634,0,0,0,0,0,0,0,-1,1784,659,5.678,1.30635
567,365,5.94006,-0.931213,-0.0155509,-0.0105236,-0.00191285,-0.0098785,-0.0161959,-1.24555,0.00942576,0.0410868,1791,659,5.94009,0.931235
574,365,5.81628,-0.619385,-0.0130649,-0.00859522,-0.00249899,-0.00747754,-0.0141826,-1.15023,0.00819239,0.0248084,1798,659,5.81628,0.6194
581,365,5.74158,-0.501343,-0.0107548,-0.00677951,-0.00273683,-0.00538471,-0.0121496,-1.09947,0.00702965,0.0145989,1805,659,5.74155,0.501322
588,365,5.74231,-0.401367,-0.00862054,-0.0052383,-0.00278015,-0.00367532,-0.0101835,-1.05864,0.00595481,0.011596,1812,659,5.74234,0.40135
595,365,5.75757,-0.261963,-0.0065674,-0.0037177,-0.0024839,-0.00227899,-0.00800611,-1.0458,0.00476309,0.0124728,1819,659,5.75751,0.261972
602,365,5.76575,-0.141052,-0.00531703,-0.00247093,-0.00216133,-0.00130623,-0.00648173,-1.07653,0.00395825,0.0130269,1826,659,5.76569,0.141026
609,365,5.75305,-0.0558472,-0.00446799,-0.0013925,-0.00192244,-0.000468455,-0.00539204,-1.12274,0.00344916,0.0124478,1833,659,5.7531,0.0558181
616,365,5.76868,0.0408325,-0.0039789,-0.000658931,-0.00180566,0.000133829,-0.00477166,-1.15709,0.00322664,0.0133966,1840,659,5.76867,-0.0408062
623,365,5.77527,0.155151,-0.00373444,-0.000159891,-0.00178395,0.000578073,-0.0044724,-1.17856,0.00319179,0.0101902,1847,659,5.77523,-0.155133
630,365,5.7511,0.253906,-0.0033733,0.00034494,-0.00166397,0.000980841,-0.0040092,-1.20576,0.00305273,0.0146893,1854,659,5.75111,-0.253876
637,365,5.71716,0.339417,-0.00303689,0.000562874,-0.00261523,0.00193773,-0.00441175,-1.08679,0.00375749,0.0205391,1861,659,5.71711,-0.339412
644,365,5.74158,0.441101,-0.00235989,0.000477382,-0.00444373,0.00372343,-0.00560594,-0.939907,0.00542274,0.01406,1868,659,5.74153,-0.441102
651,365,5.80798,0.586609,-0.00117636,0.000464621,-0.0063086,0.00600586,-0.0067176,-0.850065,0.00734972,0.020409,1875,659,5.808,-0.586622
658,365,5.68298,0.589783,0.0008572,0.000721274,-0.00904857,0.00983806,-0.00825959,-0.781643,0.0104619,0.0356911,1882,659,5.68303,-0.589761
665,365,5.60254,0.623535,0.00397109,0.00118336,-0.0124665,0.0151214,-0.00996695,-0.729725,0.0145863,0.0487588,1889,659,5.60252,-0.623557
672,365,5.04102,0.595886,0,0,0,0,0,0,0,-1,1896,659,5.04097,-0.59589
679,365,4.41138,1.06134,0,0,0,0,0,0,0,-1,1903,659,4.41135,-1.06131
686,365,4.4137,0.776062,0.0222069,0.00259061,-0.0302608,0.0442094,-0.0194119,-0.62868,0.0376503,0.0462216,1910,659,4.41375,-0.776056
693,365,4.42456,0.473938,0.03167,0.00387681,-0.0382061,0.0584283,-0.0228815,-0.610973,0.0484165,0.0454018,1917,659,4.42457,-0.473948
700,365,0,0,0,0,0,0,0,0,0,-1,1924,659,0,0
707,365,0,0,0,0,0,0,0,0,0,-1,1931,659,0,0
714,365,0,0,0,0,0,0,0,0,0,-1,1938,659,0,0
721,365,0,0,0,0,0,0,0,0,0,-1,1945,659,0,0
728,365,0,0,0,0,0,0,0,0,0,-1,1952,659,0,0
735,365,0,0,0,0,0,0,0,0,0,-1,1959,659,0,0
742,365,0,0,0,0,0,0,0,0,0,-1,1966,659,0,0
749,365,0,0,0,0,0,0,0,0,0,-1,1973,659,0,0
756,365,0,0,0,0,0,0,0,0,0,-1,1980,659,0,0
763,365,0,0,0,0,0,0,0,0,0,-1,1987,659,0,0
770,365,0,0,0,0,0,0,0,0,0,-1,1994,659,0,0
777,365,0,0,0,0,0,0,0,0,0,-1,2001,659,0,0
784,365,0,0,0,0,0,0,0,0,0,-1,2008,659,0,0
791,365,0,0,0,0,0,0,0,0,0,-1,2015,659,0,0
798,365,0,0,0,0,0,0,0,0,0,-1,2022,659,0,0
805,365,0,0,0,0,0,0,0,0,0,-1,2029,659,0,0
812,365,0,0,0,0,0,0,0,0,0,-1,2036,659,0,0
-700,358,0,0,0,0,0,0,0,0,0,-1,524,666,0,0
-693,358,0,0,0,0,0,0,0,0,0,-1,531,666,0,0
-686,358,0,0,0,0,0,0,0,0,0,-1,538,666,0,0
-679,358,0,0,0,0,0,0,0,0,0,-1,545,666,0,0
-672,358,0,0,0,0,0,0,0,0,0,-1,552,666,0,0
-665,358,0,0,0,0,0,0,0,0,0,-1,559,666,0,0
-658,358,0,0,0,0,0,0,0,0,0,-1,566,666,0,0
-651,358,0,0,0,0,0,0,0,0,0,-1,573,666,0,0
-644,358,0,0,0,0,0,0,0,0,0,-1,580,666,0,0
-637,358,0,0,0,0,0,0,0,0,0,-1,587,666,0,0
-630,358,0,0,0,0,0,0,0,0,0,-1,594,666,0,0
-623,358,0,0,0,0,0,0,0,0,0,-1,601,666,0,0
-616,358,0,0,0,0,0,0,0,0,0,-1,608,666,0,0
-609,358,0,0,0,0,0,0,0,0,0,-1,615,666,0,0
-602,358,0,0,0,0,0,0,0,0,0,-1,622,666,0,0
-595,358,0,0,0,0,0,0,0,0,0,-1,629,666,0,0
-588,358,0,0,0,0,0,0,0,0,0,-1,636,666,0,0
-581,358,0.454834,1.75812,0,0,0,0,0,0,0,-1,643,666,0.454863,-1.7581
-574,358,0.134644,1.41541,0,0,0,0,0,0,0,-1,650,666,0.134638,-1.41543
-567,358,-0.171326,1.039,0,0,0,0,0,0,0,-1,657,666,-0.171333,-1.039
-560,358,0.181091,-2.29181,0,0,0,0,0,0,0,-1,664,666,0.181074,2.29178
-553,358,-0.170471,-2.09015,0,0,0,0,0,0,0,-1,671,666,-0.170467,2.09014
-546,358,-0.421997,-1.58081,0.0442693,0.0317917,-0.0305227,0.0691843,0.00687668,-0.684588,0.0440101,0.0459212,678,666,-0.421999,1.58079
-539,358,-1.20728,-0.0631714,0.0338914,0.0226296,-0.0230846,0.0520219,0.0044991,-0.665771,0.0332831,0.0469234,685,666,-1.20725,0.0631798
-532,358,-1.12396,-0.0941772,0.024892,0.0151761,-0.0166531,0.0373812,0.00268684,-0.643479,0.0240752,0.0390025,692,666,-1.12396,0.0941649
-525,358,-1.0094,-0.0784912,0.017478,0.00945391,-0.0111996,0.0253625,0.00156938,-0.613404,0.0164103,0.0238765,699,666,-1.00941,0.078491
-518,358,-0.965454,-0.103943,0.0117348,0.00542312,-0.00696708,0.0162274,0.000930453,-0.57274,0.0105219,0.0179645,706,666,-0.965452,0.103931
-511,358,-0.994324,-0.228699,0.00732951,0.00303443,-0.00397456,0.00969961,0.00066433,-0.537707,0.00625673,0.0149054,713,666,-0.994312,0.228722
-504,358,-1.00507,-0.336304,0.00355062,-0.00149061,-0.000789647,0.00367142,-0.0016114,-0.151796,0.00312638,0.0112723,720,666,-1.00506,0.336308
-497,358,-1.00256,-0.429565,0.00107772,-0.0030356,0.00119835,0.00140137,-0.00335925,0.263789,0.00282497,0.0111432,727,666,-1.00257,0.429588
-490,358,-0.997131,-0.519104,0.00125035,-0.00353354,0.00157453,0.00172206,-0.00400525,0.291081,0.00339312,0.0102303,734,666,-0.997114,0.519128
-483,358,-1.01941,-0.602722,0.00133094,-0.00441818,0.00237465,0.00218493,-0.00527216,0.345225,0.00442663,0.00967939,741,666,-1.01941,0.602718
-476,358,-0.99469,-0.699036,0.00136721,-0.00560685,0.00350479,0.00282416,-0.0070638,0.393969,0.00588113,0.0102928,748,666,-0.994718,0.699058
-469,358,-0.988525,-0.815674,0.00148861,-0.00747804,0.00490818,0.00365287,-0.0096423,0.415303,0.00793136,0.0117578,755,666,-0.988538,0.815668
-462,358,-1.00793,-0.928223,0.00151073,-0.0102876,0.00642044,0.00433064,-0.0131075,0.413843,0.0104844,0.0148365,762,666,-1.00792,0.928199
-455,358,-0.998657,-1.03192,0.00120089,-0.0136895,0.00825959,0.00487559,-0.0173642,0.418605,0.0134981,0.0150649,769,666,-0.998657,1.03195
-448,358,-0.938416,-1.138,0.000410128,-0.0170905,0.0104483,0.0052883,-0.0219687,0.436806,0.0166902,0.02718,776,666,-0.938424,1.13802
-441,358,-1.13531,-0.99707,-0.00121519,-0.0210583,0.0127647,0.00503036,-0.0273039,0.455037,0.0200904,0.0435138,783,666,-1.13534,0.997098
-434,358,-1.328,-0.905151,0,0,0,0,0,0,0,-1,790,666,-1.32798,0.905177
-427,358,-1.29108,-1.54871,0,0,0,0,0,0,0,-1,797,666,-1.29108,1.54868
-420,358,0.181824,0.704102,0,0,0,0,0,0,0,-1,804,666,0.181853,-0.704116
-413,358,0.0325317,0.161072,0,0,0,0,0,0,0,-1,811,666,0.0325501,-0.161098
-406,358,-0.505615,0.0419312,0,0,0,0,0,0,0,-1,818,666,-0.50561,-0.0419371
-399,358,-1.31213,0.190735,0,0,0,0,0,0,0,-1,825,666,-1.31215,-0.190763
-392,358,-1.84033,0.909485,0,0,0,0,0,0,0,-1,832,666,-1.84031,-0.909514
-385,358,-2.18787,1.63947,0,0,0,0,0,0,0,-1,839,666,-2.18789,-1.63945
-378,358,0,0,0,0,0,0,0,0,0,-1,846,666,0,0
-371,358,0,0,0,0,0,0,0,0,0,-1,853,666,0,0
-364,358,0,0,0,0,0,0,0,0,0,-1,860,666,0,0
-357,358,0,0,0,0,0,0,0,0,0,-1,867,666,0,0
-350,358,0,0,0,0,0,0,0,0,0,-1,874,666,0,0
-343,358,0,0,0,0,0,0,0,0,0,-1,881,666,0,0
-336,358,0,0,0,0,0,0,0,0,0,-1,888,666,0,0
-329,358,0,0,0,0,0,0,0,0,0,-1,895,666,0,0
-322,358,0,0,0,0,0,0,0,0,0,-1,902,666,0,0
-315,358,0,0,0,0,0,0,0,0,0,-1,909,666,0,0
-308,358,0,0,0,0,0,0,0,0,0,-1,916,666,0,0
-301,358,0,0,0,0,0,0,0,0,0,-1,923,666,0,0
-294,358,0,0,0,0,0,0,0,0,0,-1,930,666,0,0
-287,358,0,0,0,0,0,0,0,0,0,-1,937,666,0,0
-280,358,0,0,0,0,0,0,0,0,0,-1,944,666,0,0
-273,358,0,0,0,0,0,0,0,0,0,-1,951,666,0,0
-266,358,0,0,0,0,0,0,0,0,0,-1,958,666,0,0
-259,358,0,0,0,0,0,0,0,0,0,-1,965,666,0,0
-252,358,0,0,0,0,0,0,0,0,0,-1,972,666,0,0
-245,358,0,0,0,0,0,0,0,0,0,-1,979,666,0,0
-238,358,0,0,0,0,0,0,0,0,0,-1,986,666,0,0
-231,358,0,0,0,0,0,0,0,0,0,-1,993,666,0,0
-224,358,0,0,0,0,0,0,0,0,0,-1,1000,666,0,0
-217,358,0,0,0,0,0,0,0,0,0,-1,1007,666,0,0
-210,358,0,0,0,0,0,0,0,0,0,-1,1014,666,0,0
-203,358,0,0,0,0,0,0,0,0,0,-1,1021,666,0,0
-196,358,0,0,0,0,0,0,0,0,0,-1,1028,666,0,0
-189,358,0,0,0,0,0,0,0,0,0,-1,1035,666,0,0
-182,358,0,0,0,0,0,0,0,0,0,-1,1042,666,0,0
-175,358,0,0,0,0,0,0,0,0,0,-1,1049,666,0,0
-168,358,0,0,0,0,0,0,0,0,0,-1,1056,666,0,0
-161,358,0,0,0,0,0,0,0,0,0,-1,1063,666,0,0
-154,358,0,0,0,0,0,0,0,0,0,-1,1070,666,0,0
-147,358,0,0,0,0,0,0,0,0,0,-1,1077,666,0,0
-140,358,0,0,0,0,0,0,0,0,0,-1,1084,666,0,0
-133,358,0,0,0,0,0,0,0,0,0,-1,1091,666,0,0
-126,358,0,0,0,0,0,0,0,0,0,-1,1098,666,0,0
-119,358,0,0,0,0,0,0,0,0,0,-1,1105,666,0,0
-112,358,0,0,0,0,0,0,0,0,0,-1,1112,666,0,0
-105,358,0,0,0,0,0,0,0,0,0,-1,1119,666,0,0
-98,358,0,0,0,0,0,0,0,0,0,-1,1126,666,0,0
-91,358,0,0,0,0,0,0,0,0,0,-1,1133,666,0,0
-84,358,0,0,0,0,0,0,0,0,0,-1,1140,666,0,0
-77,358,0,0,0,0,0,0,0,0,0,-1,1147,666,0,0
-70,358,0,0,0,0,0,0,0,0,0,-1,1154,666,0,0
-63,358,0,0,0,0,0,0,0,0,0,-1,1161,666,0,0
-56,358,0,0,0,0,0,0,0,0,0,-1,1168,666,0,0
-49,358,0,0,0,0,0,0,0,0,0,-1,1175,666,0,0
-42,358,0,0,0,0,0,0,0,0,0,-1,1182,666,0,0
-35,358,0,0,0,0,0,0,0,0,0,-1,1189,666,0,0
-28,358,0,0,0,0,0,0,0,0,0,-1,1196,666,0,0
-21,358,0,0,0,0,0,0,0,0,0,-1,1203,666,0,0
-14,358,0,0,0,0,0,0,0,0,0,-1,1210,666,0,0
-7,358,0,0,0,0,0,0,0,0,0,-1,1217,666,0,0
0,358,0,0,0,0,0,0,0,0,0,-1,1224,666,0,0
7,358,0,0,0,0,0,0,0,0,0,-1,1231,666,0,0
14,358,0,0,0,0,0,0,0,0,0,-1,1238,666,0,0
21,358,0,0,0,0,0,0,0,0,0,-1,1245,666,0,0
28,358,0,0,0,0,0,0,0,0,0,-1,1252,666,0,0
35,358,0,0,0,0,0,0,0,0,0,-1,1259,666,0,0
42,358,0,0,0,0,0,0,0,0,0,-1,1266,666,0,0
49,358,0,0,0,0,0,0,0,0,0,-1,1273,666,0,0
56,358,0,0,0,0,0,0,0,0,0,-1,1280,666,0,0
63,358,0,0,0,0,0,0,0,0,0,-1,1287,666,0,0
70,358,0,0,0,0,0,0,0,0,0,-1,1294,666,0,0
77,358,0,0,0,0,0,0,0,0,0,-1,1301,666,0,0
84,358,0,0,0,0,0,0,0,0,0,-1,1308,666,0,0
91,358,0,0,0,0,0,0,0,0,0,-1,1315,666,0,0
98,358,0,0,0,0,0,0,0,0,0,-1,1322,666,0,0
105,358,0,0,0,0,0,0,0,0,0,-1,1329,666,0,0
112,358,0,0,0,0,0,0,0,0,0,-1,1336,666,0,0
119,358,0,0,0,0,0,0,0,0,0,-1,1343,666,0,0
126,358,0,0,0,0,0,0,0,0,0,-1,1350,666,0,0
133,358,0,0,0,0,0,0,0,0,0,-1,1357,666,0,0
140,358,0,0,0,0,0,0,0,0,0,-1,1364,666,0,0
147,358,0,0,0,0,0,0,0,0,0,-1,1371,666,0,0
154,358,0,0,0,0,0,0,0,0,0,-1,1378,666,0,0
161,358,0,0,0,0,0,0,0,0,0,-1,1385,666,0,0
168,358,0,0,0,0,0,0,0,0,0,-1,1392,666,0,0
175,358,0,0,0,0,0,0,0,0,0,-1,1399,666,0,0
182,358,0,0,0,0,0,0,0,0,0,-1,1406,666,0,0
189,358,0,0,0,0,0,0,0,0,0,-1,1413,666,0,0
196,358,0,0,0,0,0,0,0,0,0,-1,1420,666,0,0
203,358,0,0,0,0,0,0,0,0,0,-1,1427,666,0,0
210,358,0,0,0,0,0,0,0,0,0,-1,1434,666,0,0
217,358,0,0,0,0,0,0,0,0,0,-1,1441,666,0,0
224,358,0,0,0,0,0,0,0,0,0,-1,1448,666,0,0
231,358,0,0,0,0,0,0,0,0,0,-1,1455,666,0,0
238,358,0,0,0,0,0,0,0,0,0,-1,1462,666,0,0
245,358,0,0,0,0,0,0,0,0,0,-1,1469,666,0,0
252,358,0,0,0,0,0,0,0,0,0,-1,1476,666,0,0
259,358,0,0,0,0,0,0,0,0,0,-1,1483,666,0,0
266,358,0,0,0,0,0,0,0,0,0,-1,1490,666,0,0
273,358,0,0,0,0,0,0,0,0,0,-1,1497,666,0,0
280,358,0,0,0,0,0,0,0,0,0,-1,1504,666,0,0
287,358,0,0,0,0,0,0,0,0,0,-1,1511,666,0,0
294,358,0,0,0,0,0,0,0,0,0,-1,1518,666,0,0
301,358,0,0,0,0,0,0,0,0,0,-1,1525,666,0,0
308,358,0,0,0,0,0,0,0,0,0,-1,1532,666,0,0
315,358,0,0,0,0,0,0,0,0,0,-1,1539,666,0,0
322,358,0,0,0,0,0,0,0,0,0,-1,1546,666,0,0
329,358,0,0,0,0,0,0,0,0,0,-1,1553,666,0,0
336,358,0,0,0,0,0,0,0,0,0,-1,1560,666,0,0
343,358,0,0,0,0,0,0,0,0,0,-1,1567,666,0,0
350,358,0,0,0,0,0,0,0,0,0,-1,1574,666,0,0
357,358,0,0,0,0,0,0,0,0,0,-1,1581,666,0,0
364,358,0,0,0,0,0,0,0,0,0,-1,1588,666,0,0
371,358,0,0,0,0,0,0,0,0,0,-1,1595,666,0,0
378,358,0,0,0,0,0,0,0,0,0,-1,1602,666,0,0
385,358,0,0,0,0,0,0,0,0,0,-1,1609,666,0,0
392,358,0,0,0,0,0,0,0,0,0,-1,1616,666,0,0
399,358,0,0,0,0,0,0,0,0,0,-1,1623,666,0,0
406,358,0,0,0,0,0,0,0,0,0,-1,1630,666,0,0
413,358,0,0,0,0,0,0,0,0,0,-1,1637,666,0,0
420,358,0,0,0,0,0,0,0,0,0,-1,1644,666,0,0
427,358,0,0,0,0,0,0,0,0,0,-1,1651,666,0,0
434,358,0,0,0,0,0,0,0,0,0,-1,1658,666,0,0
441,358,0,0,0,0,0,0,0,0,0,-1,1665,666,0,0
448,358,0,0,0,0,0,0,0,0,0,-1,1672,666,0,0
455,358,0,0,0,0,0,0,0,0,0,-1,1679,666,0,0
462,358,0,0,0,0,0,0,0,0,0,-1,1686,666,0,0
469,358,0,0,0,0,0,0,0,0,0,-1,1693,666,0,0
476,358,0,0,0,0,0,0,0,0,0,-1,1700,666,0,0
483,358,0,0,0,0,0,0,0,0,0,-1,1707,666,0,0
490,358,0,0,0,0,0,0,0,0,0,-1,1714,666,0,0
497,358,8.57239,1.1322,0,0,0,0,0,0,0,-1,1721,666,8.57234,-1.13219
504,358,8.74414,1.59308,0,0,0,0,0,0,0,-1,1728,666,8.74416,-1.59305
511,358,8.69727,1.48901,0,0,0,0,0,0,0,-1,1735,666,8.69728,-1.48904
518,358,8.45923,1.96106,0,0,0,0,0,0,0,-1,1742,666,8.45919,-1.96105
525,358,8.69385,1.1557,0,0,0,0,0,0,0,-1,1749,666,8.69385,-1.15567
532,358,6.75464,1.73303,0,0,0,0,0,0,0,-1,1756,666,6.75466,-1.73303
539,358,6.11401,1.17273,0,0,0,0,0,0,0,-1,1763,666,6.11399,-1.17276
546,358,5.47327,0.612488,0,0,0,0,0,0,0,-1,1770,666,5.47332,-0.61249
553,358,8.73596,-0.0992432,0,0,0,0,0,0,0,-1,1777,666,8.73599,0.0992645
560,358,5.66284,-1.5849,0,0,0,0,0,0,0,-1,1784,666,5.66285,1.58487
567,358,6.32446,-1.20917,0,0,0,0,0,0,0,-1,1791,666,6.32451,1.20915
574,358,6.13098,-0.592896,-0.0119554,-0.0113258,-0.00117889,-0.0104204,-0.0128608,-0.91587,0.0078873,0.0457514,1798,666,6.13096,0.592925
581,358,5.82959,-0.46936,-0.010244,-0.00929572,-0.00203971,-0.00767576,-0.0118639,-0.899593,0.00694759,0.0219123,1805,666,5.82959,0.469363
588,358,5.82166,-0.399048,-0.00845579,-0.00743116,-0.00258067,-0.00531244,-0.0105745,-0.883384,0.00610522,0.011819,1812,666,5.82169,0.399041
595,358,5.85144,-0.268555,-0.00658678,-0.00564036,-0.00267853,-0.00339356,-0.00883357,-0.872829,0.00514548,0.0107858,1819,666,5.85146,0.268554
602,358,5.84973,-0.146851,-0.00545631,-0.00389965,-0.00249747,-0.00206204,-0.00729392,-0.936452,0.00434168,0.0114817,1826,666,5.84969,0.146862
609,358,5.83691,-0.0703125,-0.00459024,-0.00244735,-0.00230133,-0.000980268,-0.00605733,-1.00326,0.00375436,0.0137872,1833,666,5.83692,0.0703217
616,358,5.85632,0.0460205,-0.00406117,-0.00148123,-0.00214754,-0.000266019,-0.00527639,-1.05586,0.00343236,0.0137781,1840,666,5.85631,-0.0460292
623,358,5.87622,0.149475,-0.00366418,-0.000790858,-0.00208503,0.000304546,-0.00475958,-1.08706,0.00327929,0.0138021,1847,666,5.87624,-0.14949
630,358,5.86438,0.22876,-0.00292842,-0.000188702,-0.00178687,0.000692972,-0.0038101,-1.11243,0.00279979,0.0170781,1854,666,5.86442,-0.228754
637,358,5.85278,0.327759,-0.00220703,2.38003e-05,-0.00252723,0.00167082,-0.00385405,-0.99322,0.00327175,0.0242357,1861,666,5.85277,-0.327742
644,358,5.84131,0.419128,-0.00127831,-4.09594e-05,-0.00403782,0.00342531,-0.00474458,-0.861417,0.00473734,0.0193328,1868,666,5.84127,-0.419122
651,358,5.87488,0.563477,0.000192459,-5.9175e-05,-0.00551206,0.00558014,-0.00544685,-0.773987,0.00636659,0.0164374,1875,666,5.87487,-0.563498
658,358,5.77405,0.681274,0.00251749,0.000334038,-0.00770547,0.00920818,-0.00635666,-0.715026,0.00903649,0.0241698,1882,666,5.77401,-0.681305
665,358,5.57776,0.63208,0.00580531,0.000841307,-0.0103368,0.0139539,-0.00730731,-0.667572,0.0124735,0.0377157,1889,666,5.57771,-0.632084
672,358,5.41882,0.736328,0.0103913,0.00139467,-0.0139159,0.0205179,-0.00873191,-0.629074,0.0173383,0.0498184,1896,666,5.41879,-0.736309
679,358,5.53589,0.92572,0,0,0,0,0,0,0,-1,1903,666,5.53591,-0.925707
686,358,5.28796,0.87323,0.0246366,0.0038004,-0.0232843,0.0397272,-0.0112902,-0.575041,0.0309426,0.0454139,1910,666,5.28792,-0.873201
693,358,5.57031,1.01508,0.0344925,0.00618622,-0.0287956,0.0524251,-0.0117464,-0.556985,0.0394528,0.0458187,1917,666,5.57027,-1.01508
700,358,0,0,0,0,0,0,0,0,0,-1,1924,666,0,0
707,358,0,0,0,0,0,0,0,0,0,-1,1931,666,0,0
714,358,0,0,0,0,0,0,0,0,0,-1,1938,666,0,0
721,358,0,0,0,0,0,0,0,0,0,-1,1945,666,0,0
728,358,0,0,0,0,0,0,0,0,0,-1,1952,666,0,0
735,358,0,0,0,0,0,0,0,0,0,-1,1959,666,0,0
742,358,0,0,0,0,0,0,0,0,0,-1,1966,666,0,0
749,358,0,0,0,0,0,0,0,0,0,-1,1973,666,0,0
756,358,0,0,0,0,0,0,0,0,0,-1,1980,666,0,0
763,358,0,0,0,0,0,0,0,0,0,-1,1987,666,0,0
770,358,0,0,0,0,0,0,0,0,0,-1,1994,666,0,0
777,358,0,0,0,0,0,0,0,0,0,-1,2001,666,0,0
784,358,0,0,0,0,0,0,0,0,0,-1,2008,666,0,0
791,358,0,0,0,0,0,0,0,0,0,-1,2015,666,0,0
798,358,0,0,0,0,0,0,0,0,0,-1,2022,666,0,0
805,358,0,0,0,0,0,0,0,0,0,-1,2029,666,0,0
812,358,0,0,0,0,0,0,0,0,0,-1,2036,666,0,0
-700,351,0,0,0,0,0,0,0,0,0,-1,524,673,0,0
-693,351,0,0,0,0,0,0,0,0,0,-1,531,673,0,0
-686,351,0,0,0,0,0,0,0,0,0,-1,538,673,0,0
-679,351,0,0,0,0,0,0,0,0,0,-1,545,673,0,0
-672,351,0,0,0,0,0,0,0,0,0,-1,552,673,0,0
-665,351,0,0,0,0,0,0,0,0,0,-1,559,673,0,0
-658,351,0,0,0,0,0,0,0,0,0,-1,566,673,0,0
-651,351,0,0,0,0,0,0,0,0,0,-1,573,673,0,0
-644,351,0,0,0,0,0,0,0,0,0,-1,580,673,0,0
-637,351,0,0,0,0,0,0,0,0,0,-1,587,673,0,0
-630,351,0,0,0,0,0,0,0,0,0,-1,594,673,0,0
-623,351,0,0,0,0,0,0,0,0,0,-1,601,673,0,0
-616,351,0,0,0,0,0,0,0,0,0,-1,608,673,0,0
-609,351,0,0,0,0,0,0,0,0,0,-1,615,673,0,0
-602,351,0,0,0,0,0,0,0,0,0,-1,622,673,0,0
-595,351,0,0,0,0,0,0,0,0,0,-1,629,673,0,0
-588,351,0,0,0,0,0,0,0,0,0,-1,636,673,0,0
-581,351,0.00152588,-0.141052,0,0,0,0,0,0,0,-1,643,673,0.0015422,0.141062
-574,351,-0.234619,0.378357,0,0,0,0,0,0,0,-1,650,673,-0.234621,-0.378378
-567,351,-0.515015,0.00933838,0,0,0,0,0,0,0,-1,657,673,-0.515001,-0.0093175
-560,351,-0.763123,0.112488,0,0,0,0,0,0,0,-1,664,673,-0.763127,-0.112481
-553,351,-0.599426,0.516541,0,0,0,0,0,0,0,-1,671,673,-0.599452,-0.516548
-546,351,-0.878906,0.432556,0.0331847,0.0265303,-0.0223672,0.0524708,0.00724417,-0.711564,0.0328333,0.0443862,678,673,-0.878904,-0.432552
-539,351,-1.02594,0.317688,0.0250541,0.0186177,-0.0166861,0.0388296,0.00484226,-0.690134,0.0244328,0.0445758,685,673,-1.02592,-0.317698
-532,351,-1.08258,0.156738,0.0180702,0.0121717,-0.0117517,0.0272371,0.00300481,-0.662456,0.017244,0.0282282,692,673,-1.08259,-0.15676
-525,351,-1.08917,-0.0321655,0.0124223,0.00718898,-0.00751145,0.0177598,0.00185148,-0.617793,0.0112735,0.015609,699,673,-1.08916,0.0321717
-518,351,-1.09467,-0.113159,0.00803828,0.0036686,-0.00413687,0.0105318,0.00117506,-0.542446,0.00666415,0.0114408,706,673,-1.09465,0.113167
-511,351,-1.08185,-0.215454,0.00470048,0.0014817,-0.00175067,0.00546911,0.000713067,-0.41371,0.00343316,0.011221,713,673,-1.08187,0.215482
-504,351,-1.10449,-0.334229,0.00195202,-0.00256241,0.000754093,0.00207465,-0.00268505,0.161212,0.00275554,0.00995537,720,673,-1.10449,0.334234
-497,351,-1.09741,-0.433655,0.00035916,-0.00403255,0.00232151,0.0013588,-0.00503219,0.406603,0.0038877,0.00980998,727,673,-1.09738,0.43368
-490,351,-1.09576,-0.528625,0.00087978,-0.00474573,0.00267838,0.001951,-0.00581696,0.380466,0.0046663,0.00918997,734,673,-1.09576,0.528633
-483,351,-1.1051,-0.605103,0.00131792,-0.00593776,0.00353886,0.0027581,-0.00737793,0.386491,0.00605126,0.0114794,741,673,-1.10507,0.605104
-476,351,-1.10919,-0.694275,0.00148236,-0.00750771,0.00491902,0.00365081,-0.00967616,0.415203,0.00795214,0.0110861,748,673,-1.10919,0.694262
-469,351,-1.09741,-0.792847,0.00153655,-0.00980652,0.00669241,0.0046374,-0.0129074,0.43389,0.0104979,0.0124915,755,673,-1.09739,0.792875
-462,351,-1.08777,-0.907776,0.00134017,-0.0131371,0.00857079,0.00532009,-0.0171171,0.434731,0.0135378,0.0145886,762,673,-1.08777,0.907779
-455,351,-1.08624,-1.04834,0.000757074,-0.0171264,0.0107341,0.00578587,-0.0221552,0.438121,0.0170296,0.0175369,769,673,-1.08627,1.04837
-448,351,-1.0683,-0.847534,-0.000450017,-0.0211287,0.0132622,0.00602693,-0.0276056,0.454306,0.0207072,0.0372089,776,673,-1.06832,0.847509
-441,351,-0.740784,-0.365112,-0.00254396,-0.025676,0.0158565,0.00551658,-0.0337365,0.4703,0.0245375,0.044329,783,673,-0.740785,0.365113
-434,351,-0.571289,-0.0196533,0,0,0,0,0,0,0,-1,790,673,-0.571262,0.0196369
-427,351,-4.70874,2.35449,0,0,0,0,0,0,0,-1,797,673,-4.70875,-2.35451
-420,351,-1.44067,-2.05365,0,0,0,0,0,0,0,-1,804,673,-1.44065,2.05367
-413,351,-1.75708,-2.3288,0,0,0,0,0,0,0,-1,811,673,-1.75707,2.32878
-406,351,-1.86316,-2.58105,0,0,0,0,0,0,0,-1,818,673,-1.86313,2.58106
-399,351,-2.13049,-2.76965,0,0,0,0,0,0,0,-1,825,673,-2.1305,2.76965
-392,351,-1.02197,0.877136,0,0,0,0,0,0,0,-1,832,673,-1.02195,-0.877143
-385,351,-1.47205,1.04437,0,0,0,0,0,0,0,-1,839,673,-1.47207,-1.04435
-378,351,0,0,0,0,0,0,0,0,0,-1,846,673,0,0
-371,351,0,0,0,0,0,0,0,0,0,-1,853,673,0,0
-364,351,0,0,0,0,0,0,0,0,0,-1,860,673,0,0
-357,351,0,0,0,0,0,0,0,0,0,-1,867,673,0,0
-350,351,0,0,0,0,0,0,0,0,0,-1,874,673,0,0
-343,351,0,0,0,0,0,0,0,0,0,-1,881,673,0,0
-336,351,0,0,0,0,0,0,0,0,0,-1,888,673,0,0
-329,351,0,0,0,0,0,0,0,0,0,-1,895,673,0,0
-322,351,0,0,0,0,0,0,0,0,0,-1,902,673,0,0
-315,351,0,0,0,0,0,0,0,0,0,-1,909,673,0,0
-308,351,0,0,0,0,0,0,0,0,0,-1,916,673,0,0
-301,351,0,0,0,0,0,0,0,0,0,-1,923,673,0,0
-294,351,0,0,0,0,0,0,0,0,0,-1,930,673,0,0
-287,351,0,0,0,0,0,0,0,0,0,-1,937,673,0,0
-280,351,0,0,0,0,0,0,0,0,0,-1,944,673,0,0
-273,351,0,0,0,0,0,0,0,0,0,-1,951,673,0,0
-266,351,0,0,0,0,0,0,0,0,0,-1,958,673,0,0
-259,351,0,0,0,0,0,0,0,0,0,-1,965,673,0,0
-252,351,0,0,0,0,0,0,0,0,0,-1,972,673,0,0
-245,351,0,0,0,0,0,0,0,0,0,-1,979,673,0,0
-238,351,0,0,0,0,0,0,0,0,0,-1,986,673,0,0
-231,351,0,0,0,0,0,0,0,0,0,-1,993,673,0,0
-224,351,0,0,0,0,0,0,0,0,0,-1,1000,673,0,0
-217,351,0,0,0,0,0,0,0,0,0,-1,1007,673,0,0
-210,351,0,0,0,0,0,0,0,0,0,-1,1014,673,0,0
-203,351,0,0,0,0,0,0,0,0,0,-1,1021,673,0,0
-196,351,0,0,0,0,0,0,0,0,0,-1,1028,673,0,0
-189,351,0,0,0,0,0,0,0,0,0,-1,1035,673,0,0
-182,351,0,0,0,0,0,0,0,0,0,-1,1042,673,0,0
-175,351,0,0,0,0,0,0,0,0,0,-1,1049,673,0,0
-168,351,0,0,0,0,0,0,0,0,0,-1,1056,673,0,0
-161,351,0,0,0,0,0,0,0,0,0,-1,1063,673,0,0
-154,351,0,0,0,0,0,0,0,0,0,-1,1070,673,0,0
-147,351,0,0,0,0,0,0,0,0,0,-1,1077,673,0,0
-140,351,0,0,0,0,0,0,0,0,0,-1,1084,673,0,0
-133,351,0,0,0,0,0,0,0,0,0,-1,1091,673,0,0
-126,351,0,0,0,0,0,0,0,0,0,-1,1098,673,0,0
-119,351,0,0,0,0,0,0,0,0,0,-1,1105,673,0,0
-112,351,0,0,0,0,0,0,0,0,0,-1,1112,673,0,0
-105,351,0,0,0,0,0,0,0,0,0,-1,1119,673,0,0
-98,351,0,0,0,0,0,0,0,0,0,-1,1126,673,0,0
-91,351,0,0,0,0,0,0,0,0,0,-1,1133,673,0,0
-84,351,0,0,0,0,0,0,0,0,0,-1,1140,673,0,0
-77,351,0,0,0,0,0,0,0,0,0,-1,1147,673,0,0
-70,351,0,0,0,0,0,0,0,0,0,-1,1154,673,0,0
-63,351,0,0,0,0,0,0,0,0,0,-1,1161,673,0,0
-56,351,0,0,0,0,0,0,0,0,0,-1,1168,673,0,0
-49,351,0,0,0,0,0,0,0,0,0,-1,1175,673,0,0
-42,351,0,0,0,0,0,0,0,0,0,-1,1182,673,0,0
-35,351,0,0,0,0,0,0,0,0,0,-1,1189,673,0,0
-28,351,0,0,0,0,0,0,0,0,0,-1,1196,673,0,0
-21,351,0,0,0,0,0,0,0,0,0,-1,1203,673,0,0
-14,351,0,0,0,0,0,0,0,0,0,-1,1210,673,0,0
-7,351,0,0,0,0,0,0,0,0,0,-1,1217,673,0,0
0,351,0,0,0,0,0,0,0,0,0,-1,1224,673,0,0
7,351,0,0,0,0,0,0,0,0,0,-1,1231,673,0,0
14,351,0,0,0,0,0,0,0,0,0,-1,1238,673,0,0
21,351,0,0,0,0,0,0,0,0,0,-1,1245,673,0,0
28,351,0,0,0,0,0,0,0,0,0,-1,1252,673,0,0
35,351,0,0,0,0,0,0,0,0,0,-1,1259,673,0,0
42,351,0,0,0,0,0,0,0,0,0,-1,1266,673,0,0
49,351,0,0,0,0,0,0,0,0,0,-1,1273,673,0,0
56,351,0,0,0,0,0,0,0,0,0,-1,1280,673,0,0
63,351,0,0,0,0,0,0,0,0,0,-1,1287,673,0,0
70,351,0,0,0,0,0,0,0,0,0,-1,1294,673,0,0
77,351,0,0,0,0,0,0,0,0,0,-1,1301,673,0,0
84,351,0,0,0,0,0,0,0,0,0,-1,1308,673,0,0
91,351,0,0,0,0,0,0,0,0,0,-1,1315,673,0,0
98,351,0,0,0,0,0,0,0,0,0,-1,1322,673,0,0
105,351,0,0,0,0,0,0,0,0,0,-1,1329,673,0,0
112,351,0,0,0,0,0,0,0,0,0,-1,1336,673,0,0
119,351,0,0,0,0,0,0,0,0,0,-1,1343,673,0,0
126,351,0,0,0,0,0,0,0,0,0,-1,1350,673,0,0
133,351,0,0,0,0,0,0,0,0,0,-1,1357,673,0,0
140,351,0,0,0,0,0,0,0,0,0,-1,1364,673,0,0
147,351,0,0,0,0,0,0,0,0,0,-1,1371,673,0,0
154,351,0,0,0,0,0,0,0,0,0,-1,1378,673,0,0
161,351,0,0,0,0,0,0,0,0,0,-1,1385,673,0,0
168,351,0,0,0,0,0,0,0,0,0,-1,1392,673,0,0
175,351,0,0,0,0,0,0,0,0,0,-1,1399,673,0,0
182,351,0,0,0,0,0,0,0,0,0,-1,1406,673,0,0
189,351,0,0,0,0,0,0,0,0,0,-1,1413,673,0,0
196,351,0,0,0,0,0,0,0,0,0,-1,1420,673,0,0
203,351,0,0,0,0,0,0,0,0,0,-1,1427,673,0,0
210,351,0,0,0,0,0,0,0,0,0,-1,1434,673,0,0
217,351,0,0,0,0,0,0,0,0,0,-1,1441,673,0,0
224,351,0,0,0,0,0,0,0,0,0,-1,1448,673,0,0
231,351,0,0,0,0,0,0,0,0,0,-1,1455,673,0,0
238,351,0,0,0,0,0,0,0,0,0,-1,1462,673,0,0
245,351,0,0,0,0,0,0,0,0,0,-1,1469,673,0,0
252,351,0,0,0,0,0,0,0,0,0,-1,1476,673,0,0
259,351,0,0,0,0,0,0,0,0,0,-1,1483,673,0,0
266,351,0,0,0,0,0,0,0,0,0,-1,1490,673,0,0
273,351,0,0,0,0,0,0,0,0,0,-1,1497,673,0,0
280,351,0,0,0,0,0,0,0,0,0,-1,1504,673,0,0
287,351,0,0,0,0,0,0,0,0,0,-1,1511,673,0,0
294,351,0,0,0,0,0,0,0,0,0,-1,1518,673,0,0
301,351,0,0,0,0,0,0,0,0,0,-1,1525,673,0,0
308,351,0,0,0,0,0,0,0,0,0,-1,1532,673,0,0
315,351,0,0,0,0,0,0,0,0,0,-1,1539,673,0,0
322,351,0,0,0,0,0,0,0,0,0,-1,1546,673,0,0
329,351,0,0,0,0,0,0,0,0,0,-1,1553,673,0,0
336,351,0,0,0,0,0,0,0,0,0,-1,1560,673,0,0
343,351,0,0,0,0,0,0,0,0,0,-1,1567,673,0,0
350,351,0,0,0,0,0,0,0,0,0,-1,1574,673,0,0
357,351,0,0,0,0,0,0,0,0,0,-1,1581,673,0,0
364,351,0,0,0,0,0,0,0,0,0,-1,1588,673,0,0
371,351,0,0,0,0,0,0,0,0,0,-1,1595,673,0,0
378,351,0,0,0,0,0,0,0,0,0,-1,1602,673,0,0
385,351,0,0,0,0,0,0,0,0,0,-1,1609,673,0,0
392,351,0,0,0,0,0,0,0,0,0,-1,1616,673,0,0
399,351,0,0,0,0,0,0,0,0,0,-1,1623,673,0,0
406,351,0,0,0,0,0,0,0,0,0,-1,1630,673,0,0
413,351,0,0,0,0,0,0,0,0,0,-1,1637,673,0,0
420,351,0,0,0,0,0,0,0,0,0,-1,1644,673,0,0
427,351,0,0,0,0,0,0,0,0,0,-1,1651,673,0,0
434,351,0,0,0,0,0,0,0,0,0,-1,1658,673,0,0
441,351,0,0,0,0,0,0,0,0,0,-1,1665,673,0,0
448,351,0,0,0,0,0,0,0,0,0,-1,1672,673,0,0
455,351,0,0,0,0,0,0,0,0,0,-1,1679,673,0,0
462,351,0,0,0,0,0,0,0,0,0,-1,1686,673,0,0
469,351,0,0,0,0,0,0,0,0,0,-1,1693,673,0,0
476,351,0,0,0,0,0,0,0,0,0,-1,1700,673,0,0
483,351,0,0,0,0,0,0,0,0,0,-1,1707,673,0,0
490,351,0,0,0,0,0,0,0,0,0,-1,1714,673,0,0
497,351,0,0,0,0,0,0,0,0,0,-1,1721,673,0,0
504,351,8.12622,0.780396,0,0,0,0,0,0,0,-1,1728,673,8.12626,-0.780414
511,351,7.57483,1.17456,0,0,0,0,0,0,0,-1,1735,673,7.57483,-1.17457
518,351,7.30286,1.68811,0,0,0,0,0,0,0,-1,1742,673,7.3029,-1.68809
525,351,5.87061,2.34265,0,0,0,0,0,0,0,-1,1749,673,5.87058,-2.34264
532,351,9.65112,0.561829,0,0,0,0,0,0,0,-1,1756,673,9.6511,-0.561829
539,351,6.19226,1.33435,0,0,0,0,0,0,0,-1,1763,673,6.19222,-1.33438
546,351,9.31689,0.358521,0,0,0,0,0,0,0,-1,1770,673,9.31687,-0.358548
553,351,6.55298,0.993408,0,0,0,0,0,0,0,-1,1777,673,6.55295,-0.993379
560,351,8.18201,-0.493958,0,0,0,0,0,0,0,-1,1784,673,8.18203,0.493973
567,351,7.25684,-0.0175781,0,0,0,0,0,0,0,-1,1791,673,7.25683,0.0175911
574,351,6.70593,-0.132446,-0.00999651,-0.0134258,0.00120511,-0.00961538,-0.013807,0.30631,0.00817391,0.0487715,1798,673,6.70599,0.13246
581,351,6.22559,-0.400085,-0.00868961,-0.0115568,-0.000396833,-0.0086357,-0.0116107,-0.135023,0.00696396,0.0383118,1805,673,6.22556,0.400105
588,351,5.90991,-0.358276,-0.00723881,-0.0096738,-0.00158515,-0.00645755,-0.0104551,-0.457918,0.00609167,0.0197194,1812,673,5.90991,0.358304
595,351,5.93115,-0.277893,-0.0056737,-0.00777834,-0.0022473,-0.00424454,-0.0092075,-0.566431,0.00532135,0.013137,1819,673,5.93113,0.277893
602,351,5.92578,-0.165161,-0.00486147,-0.00555491,-0.00242224,-0.00276127,-0.00765512,-0.714311,0.00447649,0.0167813,1826,673,5.92574,0.165182
609,351,5.95874,-0.0773926,-0.00421293,-0.00369405,-0.00241949,-0.00152013,-0.00638685,-0.838809,0.00385249,0.0160498,1833,673,5.95872,0.077371
616,351,5.97876,0.0426636,-0.00382786,-0.00242022,-0.00230741,-0.000711673,-0.00553641,-0.933429,0.00347807,0.0146237,1840,673,5.97876,-0.0426386
623,351,5.96948,0.133789,-0.00334777,-0.00139962,-0.00216803,3.10852e-06,-0.0047505,-0.99653,0.00316803,0.0159157,1847,673,5.96953,-0.133788
630,351,5.9585,0.21814,-0.00239208,-0.000550915,-0.00164858,0.000416696,-0.00335969,-1.04004,0.00239083,0.0256715,1854,673,5.95846,-0.218158
637,351,5.95398,0.331238,-0.00133695,-0.000255217,-0.00212538,0.00139704,-0.0029892,-0.909994,0.00258741,0.0292354,1861,673,5.95394,-0.331254
644,351,5.92944,0.41333,-0.000225151,-0.000223016,-0.00330399,0.00307991,-0.00352807,-0.78556,0.00381804,0.0205148,1868,673,5.92945,-0.413312
651,351,5.94092,0.534973,0.00144992,-0.000161953,-0.00442579,0.00514255,-0.00385459,-0.695335,0.00521221,0.014361,1875,673,5.94095,-0.534948
658,351,5.93591,0.70636,0.00395319,0.000369972,-0.00614083,0.00855843,-0.00423526,-0.643461,0.0075257,0.0172739,1882,673,5.93591,-0.706361
665,351,5.83508,0.763428,0.00726873,0.000885272,-0.00808835,0.0127723,-0.00461831,-0.597473,0.0104019,0.0236231,1889,673,5.83502,-0.763457
672,351,5.80981,0.867126,0.0118038,0.00153627,-0.0107777,0.018608,-0.00526792,-0.563131,0.0144842,0.0300569,1896,673,5.80983,-0.867106
679,351,5.85217,0.811096,0.0178971,0.00265721,-0.0139256,0.0261512,-0.00559687,-0.535056,0.0195684,0.0369406,1903,673,5.85213,-0.811072
686,351,5.88501,0.705444,0.0257954,0.00445484,-0.017388,0.0355261,-0.00527582,-0.510198,0.0256243,0.0427951,1910,673,5.88502,-0.705474
693,351,6.13306,0.843201,0.0355843,0.00725456,-0.0209336,0.0466951,-0.00385619,-0.487954,0.0324918,0.0434267,1917,673,6.133,-0.843178
700,351,6.69604,1.09027,0,0,0,0,0,0,0,-1,1924,673,6.69608,-1.09027
707,351,0,0,0,0,0,0,0,0,0,-1,1931,673,0,0
714,351,0,0,0,0,0,0,0,0,0,-1,1938,673,0,0
721,351,0,0,0,0,0,0,0,0,0,-1,1945,673,0,0
728,351,0,0,0,0,0,0,0,0,0,-1,1952,673,0,0
735,351,0,0,0,0,0,0,0,0,0,-1,1959,673,0,0
742,351,0,0,0,0,0,0,0,0,0,-1,1966,673,0,0
749,351,0,0,0,0,0,0,0,0,0,-1,1973,673,0,0
756,351,0,0,0,0,0,0,0,0,0,-1,1980,673,0,0
763,351,0,0,0,0,0,0,0,0,0,-1,1987,673,0,0
770,351,0,0,0,0,0,0,0,0,0,-1,1994,673,0,0
777,351,0,0,0,0,0,0,0,0,0,-1,2001,673,0,0
784,351,0,0,0,0,0,0,0,0,0,-1,2008,673,0,0
791,351,0,0,0,0,0,0,0,0,0,-1,2015,673,0,0
798,351,0,0,0,0,0,0,0,0,0,-1,2022,673,0,0
805,351,0,0,0,0,0,0,0,0,0,-1,2029,673,0,0
812,351,0,0,0,0,0,0,0,0,0,-1,2036,673,0,0
-700,344,0,0,0,0,0,0,0,0,0,-1,524,680,0,0
-693,344,0,0,0,0,0,0,0,0,0,-1,531,680,0,0
-686,344,0,0,0,0,0,0,0,0,0,-1,538,680,0,0
-679,344,0,0,0,0,0,0,0,0,0,-1,545,680,0,0
-672,344,0,0,0,0,0,0,0,0,0,-1,552,680,0,0
-665,344,0,0,0,0,0,0,0,0,0,-1,559,680,0,0
-658,344,0,0,0,0,0,0,0,0,0,-1,566,680,0,0
-651,344,0,0,0,0,0,0,0,0,0,-1,573,680,0,0
-644,344,0,0,0,0,0,0,0,0,0,-1,580,680,0,0
-637,344,0,0,0,0,0,0,0,0,0,-1,587,680,0,0
-630,344,0,0,0,0,0,0,0,0,0,-1,594,680,0,0
-623,344,0,0,0,0,0,0,0,0,0,-1,601,680,0,0
-616,344,0,0,0,0,0,0,0,0,0,-1,608,680,0,0
-609,344,0,0,0,0,0,0,0,0,0,-1,615,680,0,0
-602,344,0,0,0,0,0,0,0,0,0,-1,622,680,0,0
-595,344,0,0,0,0,0,0,0,0,0,-1,629,680,0,0
-588,344,2.01636,0.270142,0,0,0,0,0,0,0,-1,636,680,2.01634,-0.270157
-581,344,2.18042,0.389709,0,0,0,0,0,0,0,-1,643,680,2.18045,-0.389737
-574,344,-2.60388,1.47284,0,0,0,0,0,0,0,-1,650,680,-2.6039,-1.47285
-567,344,-2.20483,1.14191,0,0,0,0,0,0,0,-1,657,680,-2.20486,-1.14192
-560,344,-1.88086,1.0097,0,0,0,0,0,0,0,-1,664,680,-1.88084,-1.00968
-553,344,-0.545959,0.673584,0,0,0,0,0,0,0,-1,671,680,-0.545941,-0.673588
-546,344,-1.10553,0.466431,0,0,0,0,0,0,0,-1,678,680,-1.10551,-0.466443
-539,344,-1.12726,0.28186,0.0184113,0.0148383,-0.0117874,0.0285468,0.00470283,-0.710191,0.0176734,0.0394092,685,680,-1.12728,-0.281848
-532,344,-1.15002,0.112244,0.0132288,0.00949205,-0.0081413,0.0197134,0.00300749,-0.672604,0.0122633,0.0187069,692,680,-1.15005,-0.112272
-525,344,-1.19769,-0.0202026,0.00909798,0.00536725,-0.00489735,0.0124732,0.00199204,-0.603435,0.00773741,0.0147538,699,680,-1.19769,0.020195
-518,344,-1.19928,-0.139526,0.00581823,0.0024052,-0.00215985,0.00686437,0.00135905,-0.451059,0.00419723,0.018887,706,680,-1.19931,0.139499
-511,344,-1.17834,-0.22876,0.0033032,0.000433641,-0.000149814,0.003311,0.000425841,-0.0520195,0.00207997,0.0166797,713,680,-1.17835,0.228785
-504,344,-1.18481,-0.349121,0.00132708,-0.00309254,0.00189261,0.00202678,-0.00379224,0.354116,0.00341077,0.0166416,720,680,-1.18484,0.349123
-497,344,-1.20349,-0.446228,0.000328817,-0.00456649,0.00328292,0.00197611,-0.00621378,0.465068,0.00493491,0.0141384,727,680,-1.20347,0.446235
-490,344,-1.21112,-0.538635,0.000906416,-0.0055894,0.0038508,0.00269612,-0.0073791,0.435062,0.00602274,0.0126633,734,680,-1.21115,0.538628
-483,344,-1.19818,-0.618774,0.00140142,-0.00716678,0.00497237,0.00368071,-0.00944606,0.429809,0.00781861,0.0132109,741,680,-1.19817,0.618781
-476,344,-1.20953,-0.709656,0.00146169,-0.00918571,0.00674786,0.00473307,-0.0124571,0.451416,0.0102533,0.0136194,748,680,-1.2095,0.709675
-469,344,-1.2066,-0.819946,0.00128054,-0.0119531,0.00899128,0.00582731,-0.0164998,0.468186,0.0133725,0.0106239,755,680,-1.20663,0.819967
-462,344,-1.19989,-0.933472,0.000766048,-0.0159029,0.0112601,0.00644061,-0.0215774,0.466806,0.0169449,0.0132584,762,680,-1.19986,0.933443
-455,344,-1.26917,-0.899109,-0.000151716,-0.0205447,0.0136898,0.00672159,-0.027418,0.465307,0.020883,0.0282109,769,680,-1.26914,0.899092
-448,344,-0.818359,-0.323059,-0.00180796,-0.0252015,0.0164107,0.00664786,-0.0336573,0.475782,0.0249511,0.0405496,776,680,-0.818363,0.323055
-441,344,-0.458984,0.153015,-0.00439442,-0.030309,0.0190237,0.00566551,-0.0403689,0.48643,0.0289863,0.0463845,783,680,-0.45901,-0.153
-434,344,-0.220764,0.457031,0,0,0,0,0,0,0,-1,790,680,-0.220762,-0.457016
-427,344,-5.01569,2.55927,0,0,0,0,0,0,0,-1,797,680,-5.01567,-2.55929
-420,344,-5.86578,3.39716,0,0,0,0,0,0,0,-1,804,680,-5.86579,-3.39714
-413,344,-0.815002,-1.43298,0,0,0,0,0,0,0,-1,811,680,-0.815005,1.433
-406,344,-7.01642,1.99182,0,0,0,0,0,0,0,-1,818,680,-7.01642,-1.99184
-399,344,-6.83264,2.19141,0,0,0,0,0,0,0,-1,825,680,-6.83261,-2.1914
-392,344,-1.07068,-2.47003,0,0,0,0,0,0,0,-1,832,680,-1.07066,2.47005
-385,344,0,0,0,0,0,0,0,0,0,-1,839,680,0,0
-378,344,0,0,0,0,0,0,0,0,0,-1,846,680,0,0
-371,344,0,0,0,0,0,0,0,0,0,-1,853,680,0,0
-364,344,0,0,0,0,0,0,0,0,0,-1,860,680,0,0
-357,344,0,0,0,0,0,0,0,0,0,-1,867,680,0,0
-350,344,0,0,0,0,0,0,0,0,0,-1,874,680,0,0
-343,344,0,0,0,0,0,0,0,0,0,-1,881,680,0,0
-336,344,0,0,0,0,0,0,0,0,0,-1,888,680,0,0
-329,344,0,0,0,0,0,0,0,0,0,-1,895,680,0,0
-322,344,0,0,0,0,0,0,0,0,0,-1,902,680,0,0
-315,344,0,0,0,0,0,0,0,0,0,-1,909,680,0,0
-308,344,0,0,0,0,0,0,0,0,0,-1,916,680,0,0
-301,344,0,0,0,0,0,0,0,0,0,-1,923,680,0,0
-294,344,0,0,0,0,0,0,0,0,0,-1,930,680,0,0
-287,344,0,0,0,0,0,0,0,0,0,-1,937,680,0,0
-280,344,0,0,0,0,0,0,0,0,0,-1,944,680,0,0
-273,344,0,0,0,0,0,0,0,0,0,-1,951,680,0,0
-266,344,0,0,0,0,0,0,0,0,0,-1,958,680,0,0
-259,344,0,0,0,0,0,0,0,0,0,-1,965,680,0,0
-252,344,0,0,0,0,0,0,0,0,0,-1,972,680,0,0
-245,344,0,0,0,0,0,0,0,0,0,-1,979,680,0,0
-238,344,0,0,0,0,0,0,0,0,0,-1,986,680,0,0
-231,344,0,0,0,0,0,0,0,0,0,-1,993,680,0,0
-224,344,0,0,0,0,0,0,0,0,0,-1,1000,680,0,0
-217,344,0,0,0,0,0,0,0,0,0,-1,1007,680,0,0
-210,344,0,0,0,0,0,0,0,0,0,-1,1014,680,0,0
-203,344,0,0,0,0,0,0,0,0,0,-1,1021,680,0,0
-196,344,0,0,0,0,0,0,0,0,0,-1,1028,680,0,0
-189,344,0,0,0,0,0,0,0,0,0,-1,1035,680,0,0
-182,344,0,0,0,0,0,0,0,0,0,-1,1042,680,0,0
-175,344,0,0,0,0,0,0,0,0,0,-1,1049,680,0,0
-168,344,0,0,0,0,0,0,0,0,0,-1,1056,680,0,0
-161,344,0,0,0,0,0,0,0,0,0,-1,1063,680,0,0
-154,344,0,0,0,0,0,0,0,0,0,-1,1070,680,0,0
-147,344,0,0,0,0,0,0,0,0,0,-1,1077,680,0,0
-140,344,0,0,0,0,0,0,0,0,0,-1,1084,680,0,0
-133,344,0,0,0,0,0,0,0,0,0,-1,1091,680,0,0
-126,344,0,0,0,0,0,0,0,0,0,-1,1098,680,0,0
-119,344,0,0,0,0,0,0,0,0,0,-1,1105,680,0,0
-112,344,0,0,0,0,0,0,0,0,0,-1,1112,680,0,0
-105,344,0,0,0,0,0,0,0,0,0,-1,1119,680,0,0
-98,344,0,0,0,0,0,0,0,0,0,-1,1126,680,0,0
-91,344,0,0,0,0,0,0,0,0,0,-1,1133,680,0,0
-84,344,0,0,0,0,0,0,0,0,0,-1,1140,680,0,0
-77,344,0,0,0,0,0,0,0,0,0,-1,1147,680,0,0
-70,344,0,0,0,0,0,0,0,0,0,-1,1154,680,0,0
-63,344,0,0,0,0,0,0,0,0,0,-1,1161,680,0,0
-56,344,0,0,0,0,0,0,0,0,0,-1,1168,680,0,0
-49,344,0,0,0,0,0,0,0,0,0,-1,1175,680,0,0
-42,344,0,0,0,0,0,0,0,0,0,-1,1182,680,0,0
-35,344,0,0,0,0,0,0,0,0,0,-1,1189,680,0,0
-28,344,0,0,0,0,0,0,0,0,0,-1,1196,680,0,0
-21,344,0,0,0,0,0,0,0,0,0,-1,1203,680,0,0
-14,344,0,0,0,0,0,0,0,0,0,-1,1210,680,0,0
-7,344,0,0,0,0,0,0,0,0,0,-1,1217,680,0,0
0,344,0,0,0,0,0,0,0,0,0,-1,1224,680,0,0
7,344,0,0,0,0,0,0,0,0,0,-1,1231,680,0,0
14,344,0,0,0,0,0,0,0,0,0,-1,1238,680,0,0
21,344,0,0,0,0,0,0,0,0,0,-1,1245,680,0,0
28,344,0,0,0,0,0,0,0,0,0,-1,1252,680,0,0
35,344,0,0,0,0,0,0,0,0,0,-1,1259,680,0,0
42,344,0,0,0,0,0,0,0,0,0,-1,1266,680,0,0
49,344,0,0,0,0,0,0,0,0,0,-1,1273,680,0,0
56,344,0,0,0,0,0,0,0,0,0,-1,1280,680,0,0
63,344,0,0,0,0,0,0,0,0,0,-1,1287,680,0,0
70,344,0,0,0,0,0,0,0,0,0,-1,1294,680,0,0
77,344,0,0,0,0,0,0,0,0,0,-1,1301,680,0,0
84,344,0,0,0,0,0,0,0,0,0,-1,1308,680,0,0
91,344,0,0,0,0,0,0,0,0,0,-1,1315,680,0,0
98,344,0,0,0,0,0,0,0,0,0,-1,1322,680,0,0
105,344,0,0,0,0,0,0,0,0,0,-1,1329,680,0,0
112,344,0,0,0,0,0,0,0,0,0,-1,1336,680,0,0
119,344,0,0,0,0,0,0,0,0,0,-1,1343,680,0,0
126,344,0,0,0,0,0,0,0,0,0,-1,1350,680,0,0
133,344,0,0,0,0,0,0,0,0,0,-1,1357,680,0,0
140,344,0,0,0,0,0,0,0,0,0,-1,1364,680,0,0
147,344,0,0,0,0,0,0,0,0,0,-1,1371,680,0,0
154,344,0,0,0,0,0,0,0,0,0,-1,1378,680,0,0
161,344,0,0,0,0,0,0,0,0,0,-1,1385,680,0,0
168,344,0,0,0,0,0,0,0,0,0,-1,1392,680,0,0
175,344,0,0,0,0,0,0,0,0,0,-1,1399,680,0,0
182,344,0,0,0,0,0,0,0,0,0,-1,1406,680,0,0
189,344,0,0,0,0,0,0,0,0,0,-1,1413,680,0,0
196,344,0,0,0,0,0,0,0,0,0,-1,1420,680,0,0
203,344,0,0,0,0,0,0,0,0,0,-1,1427,680,0,0
210,344,0,0,0,0,0,0,0,0,0,-1,1434,680,0,0
217,344,0,0,0,0,0,0,0,0,0,-1,1441,680,0,0
224,344,0,0,0,0,0,0,0,0,0,-1,1448,680,0,0
231,344,0,0,0,0,0,0,0,0,0,-1,1455,680,0,0
238,344,0,0,0,0,0,0,0,0,0,-1,1462,680,0,0
245,344,0,0,0,0,0,0,0,0,0,-1,1469,680,0,0
252,344,0,0,0,0,0,0,0,0,0,-1,1476,680,0,0
259,344,0,0,0,0,0,0,0,0,0,-1,1483,680,0,0
266,344,0,0,0,0,0,0,0,0,0,-1,1490,680,0,0
273,344,0,0,0,0,0,0,0,0,0,-1,1497,680,0,0
280,344,0,0,0,0,0,0,0,0,0,-1,1504,680,0,0
287,344,0,0,0,0,0,0,0,0,0,-1,1511,680,0,0
294,344,0,0,0,0,0,0,0,0,0,-1,1518,680,0,0
301,344,0,0,0,0,0,0,0,0,0,-1,1525,680,0,0
308,344,0,0,0,0,0,0,0,0,0,-1,1532,680,0,0
315,344,0,0,0,0,0,0,0,0,0,-1,1539,680,0,0
322,344,0,0,0,0,0,0,0,0,0,-1,1546,680,0,0
329,344,0,0,0,0,0,0,0,0,0,-1,1553,680,0,0
336,344,0,0,0,0,0,0,0,0,0,-1,1560,680,0,0
343,344,0,0,0,0,0,0,0,0,0,-1,1567,680,0,0
350,344,0,0,0,0,0,0,0,0,0,-1,1574,680,0,0
357,344,0,0,0,0,0,0,0,0,0,-1,1581,680,0,0
364,344,0,0,0,0,0,0,0,0,0,-1,1588,680,0,0
371,344,0,0,0,0,0,0,0,0,0,-1,1595,680,0,0
378,344,0,0,0,0,0,0,0,0,0,-1,1602,680,0,0
385,344,0,0,0,0,0,0,0,0,0,-1,1609,680,0,0
392,344,0,0,0,0,0,0,0,0,0,-1,1616,680,0,0
399,344,0,0,0,0,0,0,0,0,0,-1,1623,680,0,0
406,344,0,0,0,0,0,0,0,0,0,-1,1630,680,0,0
413,344,0,0,0,0,0,0,0,0,0,-1,1637,680,0,0
420,344,0,0,0,0,0,0,0,0,0,-1,1644,680,0,0
427,344,0,0,0,0,0,0,0,0,0,-1,1651,680,0,0
434,344,0,0,0,0,0,0,0,0,0,-1,1658,680,0,0
441,344,0,0,0,0,0,0,0,0,0,-1,1665,680,0,0
448,344,0,0,0,0,0,0,0,0,0,-1,1672,680,0,0
455,344,0,0,0,0,0,0,0,0,0,-1,1679,680,0,0
462,344,0,0,0,0,0,0,0,0,0,-1,1686,680,0,0
469,344,0,0,0,0,0,0,0,0,0,-1,1693,680,0,0
476,344,0,0,0,0,0,0,0,0,0,-1,1700,680,0,0
483,344,0,0,0,0,0,0,0,0,0,-1,1707,680,0,0
490,344,0,0,0,0,0,0,0,0,0,-1,1714,680,0,0
497,344,0,0,0,0,0,0,0,0,0,-1,1721,680,0,0
504,344,0,0,0,0,0,0,0,0,0,-1,1728,680,0,0
511,344,6.86853,1.04401,0,0,0,0,0,0,0,-1,1735,680,6.86848,-1.04401
518,344,6.34937,1.73895,0,0,0,0,0,0,0,-1,1742,680,6.34935,-1.73896
525,344,5.93665,2.15881,0,0,0,0,0,0,0,-1,1749,680,5.93659,-2.15881
532,344,5.81677,2.56415,0,0,0,0,0,0,0,-1,1756,680,5.81678,-2.56413
539,344,5.00879,3.49573,0,0,0,0,0,0,0,-1,1763,680,5.00876,-3.49573
546,344,9.45667,0.190369,0,0,0,0,0,0,0,-1,1770,680,9.45672,-0.19036
553,344,7.83325,0.931396,0,0,0,0,0,0,0,-1,1777,680,7.83325,-0.931411
560,344,8.45764,-0.252869,0,0,0,0,0,0,0,-1,1784,680,8.45764,0.252854
567,344,7.80444,-0.293823,0,0,0,0,0,0,0,-1,1791,680,7.80441,0.293852
574,344,7.276,-0.464355,-0.008732,-0.0141804,0.00303275,-0.00737958,-0.0155328,0.419471,0.00897159,0.0471283,1798,680,7.27605,0.464384
581,344,6.76587,-0.376282,-0.00751587,-0.0126979,0.000915261,-0.00735897,-0.0128548,0.169782,0.00744764,0.0422943,1805,680,6.76584,0.376265
588,344,6.27686,-0.262573,-0.00624458,-0.0110805,-0.000771666,-0.00612443,-0.0112006,-0.154462,0.0064761,0.0377032,1812,680,6.27681,0.262577
595,344,6.08435,-0.23877,-0.00495815,-0.00940133,-0.00197076,-0.00421,-0.0101495,-0.362819,0.0058881,0.0224012,1819,680,6.08436,0.238777
602,344,6.10242,-0.155212,-0.00451655,-0.00699785,-0.00256138,-0.00291117,-0.00860323,-0.559865,0.00505283,0.0199962,1826,680,6.10246,0.155191
609,344,6.08411,-0.0693359,-0.00418624,-0.00492981,-0.00279946,-0.00173399,-0.00738206,-0.719381,0.00445726,0.0155065,1833,680,6.08406,0.0693633
616,344,6.07983,0.0408936,-0.00406234,-0.00346876,-0.00276082,-0.000988828,-0.00654228,-0.838943,0.00407213,0.0211882,1840,680,6.07981,-0.0408933
623,344,6.05139,0.148682,-0.00359619,-0.00217768,-0.00254592,-0.00024407,-0.0055298,-0.921245,0.00360793,0.0200716,1847,680,6.05133,-0.148703
630,344,6.04456,0.217712,-0.00243893,-0.00104081,-0.00177829,0.000170891,-0.00365063,-0.972674,0.00249267,0.0263338,1854,680,6.04462,-0.2177
637,344,6.05774,0.316956,-0.00105661,-0.000625285,-0.00195362,0.00112454,-0.00280644,-0.840372,0.00233777,0.0245595,1861,680,6.05771,-0.316954
644,344,6.05481,0.416992,0.000239149,-0.000479271,-0.00277681,0.00267989,-0.00292001,-0.721075,0.00323409,0.0155245,1868,680,6.05483,-0.416975
651,344,6.05457,0.546265,0.00210258,-0.000330779,-0.00354128,0.00463036,-0.00285856,-0.61993,0.00436388,0.010476,1875,680,6.05456,-0.546255
658,344,6.05237,0.693237,0.00476365,0.000363173,-0.00479391,0.00783813,-0.0027113,-0.570256,0.00632593,0.0147313,1882,680,6.05233,-0.693237
665,344,6.04968,0.812744,0.00808272,0.000872886,-0.00617322,0.0116265,-0.00267091,-0.521127,0.00877782,0.0202449,1889,680,6.04964,-0.812717
672,344,6.03772,0.851196,0.0124834,0.0015816,-0.0081818,0.0168638,-0.00279878,-0.49155,0.0122822,0.0146135,1896,680,6.0377,-0.851191
679,344,6.06567,0.817444,0.0183375,0.00275458,-0.0104271,0.0235626,-0.00247056,-0.464535,0.0165934,0.0304733,1903,680,6.06572,-0.817419
686,344,6.2561,0.795105,0.0259246,0.0045935,-0.0127893,0.0319119,-0.00139385,-0.437848,0.0217541,0.0439161,1910,680,6.25616,-0.795124
693,344,6.56055,0.912354,0,0,0,0,0,0,0,-1,1917,680,6.56054,-0.912364
700,344,7.36084,1.02399,0,0,0,0,0,0,0,-1,1924,680,7.36081,-1.02396
707,344,7.77942,1.29535,0,0,0,0,0,0,0,-1,1931,680,7.77946,-1.29537
714,344,0,0,0,0,0,0,0,0,0,-1,1938,680,0,0
721,344,0,0,0,0,0,0,0,0,0,-1,1945,680,0,0
728,344,0,0,0,0,0,0,0,0,0,-1,1952,680,0,0
735,344,0,0,0,0,0,0,0,0,0,-1,1959,680,0,0
742,344,0,0,0,0,0,0,0,0,0,-1,1966,680,0,0
749,344,0,0,0,0,0,0,0,0,0,-1,1973,680,0,0
756,344,0,0,0,0,0,0,0,0,0,-1,1980,680,0,0
763,344,0,0,0,0,0,0,0,0,0,-1,1987,680,0,0
770,344,0,0,0,0,0,0,0,0,0,-1,1994,680,0,0
777,344,0,0,0,0,0,0,0,0,0,-1,2001,680,0,0
784,344,0,0,0,0,0,0,0,0,0,-1,2008,680,0,0
791,344,0,0,0,0,0,0,0,0,0,-1,2015,680,0,0
798,344,0,0,0,0,0,0,0,0,0,-1,2022,680,0,0
805,344,0,0,0,0,0,0,0,0,0,-1,2029,680,0,0
812,344,0,0,0,0,0,0,0,0,0,-1,2036,680,0,0
-700,337,0,0,0,0,0,0,0,0,0,-1,524,687,0,0
-693,337,0,0,0,0,0,0,0,0,0,-1,531,687,0,0
-686,337,0,0,0,0,0,0,0,0,0,-1,538,687,0,0
-679,337,0,0,0,0,0,0,0,0,0,-1,545,687,0,0
-672,337,0,0,0,0,0,0,0,0,0,-1,552,687,0,0
-665,337,0,0,0,0,0,0,0,0,0,-1,559,687,0,0
-658,337,0,0,0,0,0,0,0,0,0,-1,566,687,0,0
-651,337,0,0,0,0,0,0,0,0,0,-1,573,687,0,0
-644,337,0,0,0,0,0,0,0,0,0,-1,580,687,0,0
-637,337,0,0,0,0,0,0,0,0,0,-1,587,687,0,0
-630,337,0,0,0,0,0,0,0,0,0,-1,594,687,0,0
-623,337,0,0,0,0,0,0,0,0,0,-1,601,687,0,0
-616,337,0,0,0,0,0,0,0,0,0,-1,608,687,0,0
-609,337,0,0,0,0,0,0,0,0,0,-1,615,687,0,0
-602,337,0,0,0,0,0,0,0,0,0,-1,622,687,0,0
-595,337,0,0,0,0,0,0,0,0,0,-1,629,687,0,0
-588,337,1.36176,0.450806,0,0,0,0,0,0,0,-1,636,687,1.36177,-0.450786
-581,337,-2.80762,1.84283,0,0,0,0,0,0,0,-1,643,687,-2.80763,-1.84285
-574,337,-2.45276,1.26678,0.040248,0.0470013,-0.0244637,0.0683203,0.018929,-0.853979,0.0407307,0.0490594,650,687,-2.45277,-1.26677
-567,337,-2.14355,0.877991,0.0341925,0.0392563,-0.022201,0.0590693,0.0143795,-0.842175,0.0355688,0.0478512,657,687,-2.14355,-0.877966
-560,337,-1.86115,0.732178,0.0279837,0.0313191,-0.018761,0.0484864,0.0108164,-0.829727,0.0293899,0.0440743,664,687,-1.86112,-0.732189
-553,337,-1.08209,0.626221,0.0220357,0.0237913,-0.0148593,0.0377987,0.00802827,-0.8149,0.022995,0.044995,671,687,-1.0821,-0.6262
-546,337,-1.16339,0.392029,0.0166553,0.0171498,-0.0110521,0.0279574,0.0058477,-0.796581,0.0170271,0.0407632,678,687,-1.16342,-0.392026
-539,337,-1.23401,0.225586,0.0122439,0.0117479,-0.00814217,0.0201418,0.00384993,-0.770175,0.0123463,0.0247976,685,687,-1.23398,-0.225599
-532,337,-1.28442,0.0651245,0.00857528,0.00734991,-0.00549633,0.013493,0.00243223,-0.729891,0.00830416,0.0130776,692,687,-1.28441,-0.0651012
-525,337,-1.30249,-0.0476685,0.00574824,0.00398617,-0.00302111,0.00801416,0.00172025,-0.64352,0.00487167,0.0135509,699,687,-1.30247,0.0476598
-518,337,-1.3064,-0.153931,0.00342553,0.00145545,-0.000720988,0.00366119,0.00121978,-0.315921,0.00215266,0.0216584,706,687,-1.30642,0.153933
-511,337,-1.28455,-0.24585,0.00164425,-0.00036567,0.00109193,0.00212329,-0.000844709,0.413425,0.00176578,0.0223135,713,687,-1.28456,0.245834
-504,337,-1.2688,-0.348145,0.000362964,-0.00344561,0.00284485,0.00188205,-0.00496469,0.490458,0.00408434,0.0221182,720,687,-1.26883,0.34812
-497,337,-1.28333,-0.439758,-0.000103372,-0.00498537,0.00422517,0.00233523,-0.00742398,0.523457,0.00588427,0.0156995,727,687,-1.28334,0.43974
-490,337,-1.31091,-0.53186,0.000512617,-0.00637045,0.00514607,0.0032619,-0.00911973,0.49067,0.00741041,0.0132433,734,687,-1.31094,0.531848
-483,337,-1.2926,-0.632507,0.00106768,-0.00836967,0.00665539,0.00450744,-0.0118094,0.477028,0.00972991,0.0133084,741,687,-1.29259,0.632489
-476,337,-1.28436,-0.723083,0.000987296,-0.0108474,0.00892933,0.005782,-0.0156421,0.492777,0.0127984,0.0117084,748,687,-1.28435,0.723064
-469,337,-1.28802,-0.842346,0.000498068,-0.0140249,0.0117259,0.00702883,-0.0205557,0.508164,0.0165519,0.0115285,755,687,-1.28801,0.842343
-462,337,-1.32385,-0.90332,-0.000361809,-0.0185555,0.0143907,0.00756621,-0.0264835,0.503542,0.0206452,0.0248549,762,687,-1.32384,0.903308
-455,337,-1.47131,-0.845093,-0.0016324,-0.0237657,0.0170707,0.00764496,-0.0330431,0.497814,0.0249703,0.0416211,769,687,-1.47128,0.845098
-448,337,-0.801758,-0.0141602,-0.00374416,-0.0290021,0.0199494,0.00723767,-0.039984,0.503214,0.0293674,0.048195,776,687,-0.801777,0.0141387
-441,337,-0.305786,0.607422,0,0,0,0,0,0,0,-1,783,687,-0.305759,-0.60743
-434,337,-4.95874,2.01715,0,0,0,0,0,0,0,-1,790,687,-4.95875,-2.01716
-427,337,-5.35492,2.60938,0,0,0,0,0,0,0,-1,797,687,-5.35495,-2.6094
-420,337,-5.69989,3.0282,0,0,0,0,0,0,0,-1,804,687,-5.69991,-3.02822
-413,337,-7.07654,2.37476,0,0,0,0,0,0,0,-1,811,687,-7.07651,-2.37475
-406,337,-7.00787,2.66266,-0.0324949,-0.0693907,0.0235084,-0.0210602,-0.0808254,0.452716,0.0484152,0.0462488,818,687,-7.0079,-2.66267
-399,337,-6.93903,2.78589,0,0,0,0,0,0,0,-1,825,687,-6.93903,-2.78587
-392,337,0,0,0,0,0,0,0,0,0,-1,832,687,0,0
-385,337,0,0,0,0,0,0,0,0,0,-1,839,687,0,0
-378,337,0,0,0,0,0,0,0,0,0,-1,846,687,0,0
-371,337,0,0,0,0,0,0,0,0,0,-1,853,687,0,0
-364,337,0,0,0,0,0,0,0,0,0,-1,860,687,0,0
-357,337,0,0,0,0,0,0,0,0,0,-1,867,687,0,0
-350,337,0,0,0,0,0,0,0,0,0,-1,874,687,0,0
-343,337,0,0,0,0,0,0,0,0,0,-1,881,687,0,0
-336,337,0,0,0,0,0,0,0,0,0,-1,888,687,0,0
-329,337,0,0,0,0,0,0,0,0,0,-1,895,687,0,0
-322,337,0,0,0,0,0,0,0,0,0,-1,902,687,0,0
-315,337,0,0,0,0,0,0,0,0,0,-1,909,687,0,0
-308,337,0,0,0,0,0,0,0,0,0,-1,916,687,0,0
-301,337,0,0,0,0,0,0,0,0,0,-1,923,687,0,0
-294,337,0,0,0,0,0,0,0,0,0,-1,930,687,0,0
-287,337,0,0,0,0,0,0,0,0,0,-1,937,687,0,0
-280,337,0,0,0,0,0,0,0,0,0,-1,944,687,0,0
-273,337,0,0,0,0,0,0,0,0,0,-1,951,687,0,0
-266,337,0,0,0,0,0,0,0,0,0,-1,958,687,0,0
-259,337,0,0,0,0,0,0,0,0,0,-1,965,687,0,0
-252,337,0,0,0,0,0,0,0,0,0,-1,972,687,0,0
-245,337,0,0,0,0,0,0,0,0,0,-1,979,687,0,0
-238,337,0,0,0,0,0,0,0,0,0,-1,986,687,0,0
-231,337,0,0,0,0,0,0,0,0,0,-1,993,687,0,0
-224,337,0,0,0,0,0,0,0,0,0,-1,1000,687,0,0
-217,337,0,0,0,0,0,0,0,0,0,-1,1007,687,0,0
-210,337,0,0,0,0,0,0,0,0,0,-1,1014,687,0,0
-203,337,0,0,0,0,0,0,0,0,0,-1,1021,687,0,0
-196,337,0,0,0,0,0,0,0,0,0,-1,1028,687,0,0
-189,337,0,0,0,0,0,0,0,0,0,-1,1035,687,0,0
-182,337,0,0,0,0,0,0,0,0,0,-1,1042,687,0,0
-175,337,0,0,0,0,0,0,0,0,0,-1,1049,687,0,0
-168,337,0,0,0,0,0,0,0,0,0,-1,1056,687,0,0
-161,337,0,0,0,0,0,0,0,0,0,-1,1063,687,0,0
-154,337,0,0,0,0,0,0,0,0,0,-1,1070,687,0,0
-147,337,0,0,0,0,0,0,0,0,0,-1,1077,687,0,0
-140,337,0,0,0,0,0,0,0,0,0,-1,1084,687,0,0
-133,337,0,0,0,0,0,0,0,0,0,-1,1091,687,0,0
-126,337,0,0,0,0,0,0,0,0,0,-1,1098,687,0,0
-119,337,0,0,0,0,0,0,0,0,0,-1,1105,687,0,0
-112,337,0,0,0,0,0,0,0,0,0,-1,1112,687,0,0
-105,337,0,0,0,0,0,0,0,0,0,-1,1119,687,0,0
-98,337,0,0,0,0,0,0,0,0,0,-1,1126,687,0,0
-91,337,0,0,0,0,0,0,0,0,0,-1,1133,687,0,0
-84,337,0,0,0,0,0,0,0,0,0,-1,1140,687,0,0
-77,337,0,0,0,0,0,0,0,0,0,-1,1147,687,0,0
-70,337,0,0,0,0,0,0,0,0,0,-1,1154,687,0,0
-63,337,0,0,0,0,0,0,0,0,0,-1,1161,687,0,0
-56,337,0,0,0,0,0,0,0,0,0,-1,1168,687,0,0
-49,337,0,0,0,0,0,0,0,0,0,-1,1175,687,0,0
-42,337,0,0,0,0,0,0,0,0,0,-1,1182,687,0,0
-35,337,0,0,0,0,0,0,0,0,0,-1,1189,687,0,0
-28,337,0,0,0,0,0,0,0,0,0,-1,1196,687,0,0
-21,337,0,0,0,0,0,0,0,0,0,-1,1203,687,0,0
-14,337,0,0,0,0,0,0,0,0,0,-1,1210,687,0,0
-7,337,0,0,0,0,0,0,0,0,0,-1,1217,687,0,0
0,337,0,0,0,0,0,0,0,0,0,-1,1224,687,0,0
7,337,0,0,0,0,0,0,0,0,0,-1,1231,687,0,0
14,337,0,0,0,0,0,0,0,0,0,-1,1238,687,0,0
21,337,0,0,0,0,0,0,0,0,0,-1,1245,687,0,0
28,337,0,0,0,0,0,0,0,0,0,-1,1252,687,0,0
35,337,0,0,0,0,0,0,0,0,0,-1,1259,687,0,0
42,337,0,0,0,0,0,0,0,0,0,-1,1266,687,0,0
49,337,0,0,0,0,0,0,0,0,0,-1,1273,687,0,0
56,337,0,0,0,0,0,0,0,0,0,-1,1280,687,0,0
63,337,0,0,0,0,0,0,0,0,0,-1,1287,687,0,0
70,337,0,0,0,0,0,0,0,0,0,-1,1294,687,0,0
77,337,0,0,0,0,0,0,0,0,0,-1,1301,687,0,0
84,337,0,0,0,0,0,0,0,0,0,-1,1308,687,0,0
91,337,0,0,0,0,0,0,0,0,0,-1,1315,687,0,0
98,337,0,0,0,0,0,0,0,0,0,-1,1322,687,0,0
105,337,0,0,0,0,0,0,0,0,0,-1,1329,687,0,0
112,337,0,0,0,0,0,0,0,0,0,-1,1336,687,0,0
119,337,0,0,0,0,0,0,0,0,0,-1,1343,687,0,0
126,337,0,0,0,0,0,0,0,0,0,-1,1350,687,0,0
133,337,0,0,0,0,0,0,0,0,0,-1,1357,687,0,0
140,337,0,0,0,0,0,0,0,0,0,-1,1364,687,0,0
147,337,0,0,0,0,0,0,0,0,0,-1,1371,687,0,0
154,337,0,0,0,0,0,0,0,0,0,-1,1378,687,0,0
161,337,0,0,0,0,0,0,0,0,0,-1,1385,687,0,0
168,337,0,0,0,0,0,0,0,0,0,-1,1392,687,0,0
175,337,0,0,0,0,0,0,0,0,0,-1,1399,687,0,0
182,337,0,0,0,0,0,0,0,0,0,-1,1406,687,0,0
189,337,0,0,0,0,0,0,0,0,0,-1,1413,687,0,0
196,337,0,0,0,0,0,0,0,0,0,-1,1420,687,0,0
203,337,0,0,0,0,0,0,0,0,0,-1,1427,687,0,0
210,337,0,0,0,0,0,0,0,0,0,-1,1434,687,0,0
217,337,0,0,0,0,0,0,0,0,0,-1,1441,687,0,0
224,337,0,0,0,0,0,0,0,0,0,-1,1448,687,0,0
231,337,0,0,0,0,0,0,0,0,0,-1,1455,687,0,0
238,337,0,0,0,0,0,0,0,0,0,-1,1462,687,0,0
245,337,0,0,0,0,0,0,0,0,0,-1,1469,687,0,0
252,337,0,0,0,0,0,0,0,0,0,-1,1476,687,0,0
259,337,0,0,0,0,0,0,0,0,0,-1,1483,687,0,0
266,337,0,0,0,0,0,0,0,0,0,-1,1490,687,0,0
273,337,0,0,0,0,0,0,0,0,0,-1,1497,687,0,0
280,337,0,0,0,0,0,0,0,0,0,-1,1504,687,0,0
287,337,0,0,0,0,0,0,0,0,0,-1,1511,687,0,0
294,337,0,0,0,0,0,0,0,0,0,-1,1518,687,0,0
301,337,0,0,0,0,0,0,0,0,0,-1,1525,687,0,0
308,337,0,0,0,0,0,0,0,0,0,-1,1532,687,0,0
315,337,0,0,0,0,0,0,0,0,0,-1,1539,687,0,0
322,337,0,0,0,0,0,0,0,0,0,-1,1546,687,0,0
329,337,0,0,0,0,0,0,0,0,0,-1,1553,687,0,0
336,337,0,0,0,0,0,0,0,0,0,-1,1560,687,0,0
343,337,0,0,0,0,0,0,0,0,0,-1,1567,687,0,0
350,337,0,0,0,0,0,0,0,0,0,-1,1574,687,0,0
357,337,0,0,0,0,0,0,0,0,0,-1,1581,687,0,0
364,337,0,0,0,0,0,0,0,0,0,-1,1588,687,0,0
371,337,0,0,0,0,0,0,0,0,0,-1,1595,687,0,0
378,337,0,0,0,0,0,0,0,0,0,-1,1602,687,0,0
385,337,0,0,0,0,0,0,0,0,0,-1,1609,687,0,0
392,337,0,0,0,0,0,0,0,0,0,-1,1616,687,0,0
399,337,0,0,0,0,0,0,0,0,0,-1,1623,687,0,0
406,337,0,0,0,0,0,0,0,0,0,-1,1630,687,0,0
413,337,0,0,0,0,0,0,0,0,0,-1,1637,687,0,0
420,337,0,0,0,0,0,0,0,0,0,-1,1644,687,0,0
427,337,0,0,0,0,0,0,0,0,0,-1,1651,687,0,0
434,337,0,0,0,0,0,0,0,0,0,-1,1658,687,0,0
441,337,0,0,0,0,0,0,0,0,0,-1,1665,687,0,0
448,337,0,0,0,0,0,0,0,0,0,-1,1672,687,0,0
455,337,0,0,0,0,0,0,0,0,0,-1,1679,687,0,0
462,337,0,0,0,0,0,0,0,0,0,-1,1686,687,0,0
469,337,0,0,0,0,0,0,0,0,0,-1,1693,687,0,0
476,337,0,0,0,0,0,0,0,0,0,-1,1700,687,0,0
483,337,0,0,0,0,0,0,0,0,0,-1,1707,687,0,0
490,337,0,0,0,0,0,0,0,0,0,-1,1714,687,0,0
497,337,0,0,0,0,0,0,0,0,0,-1,1721,687,0,0
504,337,0,0,0,0,0,0,0,0,0,-1,1728,687,0,0
511,337,0,0,0,0,0,0,0,0,0,-1,1735,687,0,0
518,337,6.15027,1.59155,0,0,0,0,0,0,0,-1,1742,687,6.15025,-1.59153
525,337,6.073,1.89526,0,0,0,0,0,0,0,-1,1749,687,6.07302,-1.89529
532,337,5.23633,2.93414,0,0,0,0,0,0,0,-1,1756,687,5.23638,-2.93416
539,337,9.22656,0.447693,0,0,0,0,0,0,0,-1,1763,687,9.22653,-0.44769
546,337,9.03003,1.05548,0,0,0,0,0,0,0,-1,1770,687,9.03007,-1.05547
553,337,7.82397,1.37354,0,0,0,0,0,0,0,-1,1777,687,7.82397,-1.37356
560,337,13.5161,-0.422668,0,0,0,0,0,0,0,-1,1784,687,13.5161,0.422647
567,337,8.18579,-0.113953,0,0,0,0,0,0,0,-1,1791,687,8.18573,0.113953
574,337,7.67468,-0.0505371,-0.00652646,-0.0148062,0.00389028,-0.00498541,-0.0163472,0.377163,0.00967445,0.0468358,1798,687,7.67465,0.0505153
581,337,7.01306,0.00286865,-0.00550351,-0.0135748,0.0012277,-0.0053209,-0.0137574,0.147658,0.00801048,0.0466291,1805,687,7.013,-0.00287374
588,337,6.36292,-0.050293,0,0,0,0,0,0,0,-1,1812,687,6.36292,0.0502748
595,337,6.32935,-0.156494,-0.00370963,-0.0107787,-0.00259608,-0.00285867,-0.0116297,-0.316749,0.00699765,0.0476191,1819,687,6.32936,0.156474
602,337,6.17017,-0.179199,-0.00388047,-0.00835471,-0.00355871,-0.00191412,-0.0103211,-0.504795,0.00633973,0.0215739,1826,687,6.17021,0.179184
609,337,6.17493,-0.0548706,-0.0041305,-0.00625614,-0.00398676,-0.00106733,-0.00931932,-0.655134,0.00588943,0.0170822,1833,687,6.1749,0.0548864
616,337,6.16895,0.0466919,-0.00450465,-0.00471316,-0.00394679,-0.00066074,-0.00855707,-0.772194,0.00549771,0.0157789,1840,687,6.1689,-0.0466881
623,337,6.1748,0.135559,-0.00422615,-0.00316955,-0.00354308,-0.000115603,-0.0072801,-0.859406,0.00481533,0.0151493,1847,687,6.17476,-0.135587
630,337,6.1814,0.233154,-0.00300285,-0.00173346,-0.00243922,0.000152286,-0.00488859,-0.912678,0.00331099,0.0196138,1854,687,6.18138,-0.23318
637,337,6.20422,0.338745,-0.00133226,-0.001186,-0.00220477,0.000946852,-0.00346511,-0.801977,0.002682,0.0164373,1861,687,6.20419,-0.338733
644,337,6.18579,0.459045,0.000137921,-0.000911222,-0.00258452,0.00225057,-0.00302387,-0.685275,0.00305609,0.0104071,1868,687,6.18577,-0.459066
651,337,6.1637,0.557129,0.0021553,-0.000656405,-0.00294526,0.00401303,-0.00251414,-0.562726,0.00380144,0.00916253,1875,687,6.16375,-0.557154
658,337,6.17017,0.652893,0.00490719,0.000201318,-0.00373605,0.0069695,-0.00186099,-0.504379,0.00537515,0.0103222,1882,687,6.17021,-0.652872
665,337,6.17969,0.753845,0.00816858,0.00072166,-0.00461331,0.0103736,-0.00148335,-0.445867,0.0074595,0.0124951,1889,687,6.17966,-0.753874
672,337,6.15552,0.852722,0.0124012,0.00148566,-0.0060557,0.0150957,-0.00120879,-0.418642,0.0104899,0.0122535,1896,687,6.15555,-0.852724
679,337,6.1001,0.947021,0.0179398,0.002533,-0.00767388,0.0211098,-0.000637005,-0.39174,0.0142903,0.0295481,1903,687,6.10004,-0.94702
686,337,6.29346,1.15735,0.0250963,0.00394354,-0.00936817,0.0286487,0.00039114,-0.362446,0.0189701,0.0424063,1910,687,6.2935,-1.15733
693,337,6.60413,1.237,0.0340243,0.00611504,-0.0109561,0.0378114,0.002328,-0.332801,0.0244685,0.0418051,1917,687,6.60417,-1.237
700,337,7.15125,1.22461,0.0448512,0.00901417,-0.0123053,0.0486696,0.00519576,-0.300885,0.0308606,0.0415917,1924,687,7.1512,-1.22459
707,337,7.56799,1.2619,0,0,0,0,0,0,0,-1,1931,687,7.56805,-1.26189
714,337,0,0,0,0,0,0,0,0,0,-1,1938,687,0,0
721,337,0,0,0,0,0,0,0,0,0,-1,1945,687,0,0
728,337,0,0,0,0,0,0,0,0,0,-1,1952,687,0,0
735,337,0,0,0,0,0,0,0,0,0,-1,1959,687,0,0
742,337,0,0,0,0,0,0,0,0,0,-1,1966,687,0,0
749,337,0,0,0,0,0,0,0,0,0,-1,1973,687,0,0
756,337,0,0,0,0,0,0,0,0,0,-1,1980,687,0,0
763,337,0,0,0,0,0,0,0,0,0,-1,1987,687,0,0
770,337,0,0,0,0,0,0,0,0,0,-1,1994,687,0,0
777,337,0,0,0,0,0,0,0,0,0,-1,2001,687,0,0
784,337,0,0,0,0,0,0,0,0,0,-1,2008,687,0,0
791,337,0,0,0,0,0,0,0,0,0,-1,2015,687,0,0
798,337,0,0,0,0,0,0,0,0,0,-1,2022,687,0,0
805,337,0,0,0,0,0,0,0,0,0,-1,2029,687,0,0
812,337,0,0,0,0,0,0,0,0,0,-1,2036,687,0,0
-700,330,0,0,0,0,0,0,0,0,0,-1,524,694,0,0
-693,330,0,0,0,0,0,0,0,0,0,-1,531,694,0,0
-686,330,0,0,0,0,0,0,0,0,0,-1,538,694,0,0
-679,330,0,0,0,0,0,0,0,0,0,-1,545,694,0,0
-672,330,0,0,0,0,0,0,0,0,0,-1,552,694,0,0
-665,330,0,0,0,0,0,0,0,0,0,-1,559,694,0,0
-658,330,0,0,0,0,0,0,0,0,0,-1,566,694,0,0
-651,330,0,0,0,0,0,0,0,0,0,-1,573,694,0,0
-644,330,0,0,0,0,0,0,0,0,0,-1,580,694,0,0
-637,330,0,0,0,0,0,0,0,0,0,-1,587,694,0,0
-630,330,0,0,0,0,0,0,0,0,0,-1,594,694,0,0
-623,330,0,0,0,0,0,0,0,0,0,-1,601,694,0,0
-616,330,0,0,0,0,0,0,0,0,0,-1,608,694,0,0
-609,330,0,0,0,0,0,0,0,0,0,-1,615,694,0,0
-602,330,0,0,0,0,0,0,0,0,0,-1,622,694,0,0
-595,330,0.26709,0.467407,0.0328502,0.0494626,-0.00506208,0.0508836,0.0314293,-1.29713,0.0296476,0.0469675,629,694,0.267088,-0.467394
-588,330,0.605896,0.597778,0.0321847,0.048588,-0.0118039,0.0547599,0.0260129,-1.08902,0.0316288,0.0453082,636,694,0.60587,-0.597776
-581,330,-2.91394,1.91608,0,0,0,0,0,0,0,-1,643,694,-2.91394,-1.9161
-574,330,-2.54913,1.32141,0.025934,0.0387099,-0.0152511,0.0488568,0.0157871,-0.983725,0.0287898,0.0452248,650,694,-2.54916,-1.3214
-567,330,-2.11743,0.516907,0.0218373,0.0320895,-0.0140649,0.0419333,0.0119935,-0.960146,0.0249383,0.0429803,657,694,-2.11743,-0.516889
-560,330,-1.81366,0.412842,0.0176323,0.0253653,-0.0119107,0.0340214,0.00897622,-0.942346,0.0203595,0.0366896,664,694,-1.81365,-0.412828
-553,330,-1.48761,0.423584,0.013686,0.0191556,-0.00932998,0.0261434,0.0066983,-0.927965,0.0156805,0.0325761,671,694,-1.48758,-0.423571
-546,330,-1.33948,0.276733,0.0101291,0.013604,-0.00679673,0.0188818,0.00485125,-0.910533,0.0113227,0.023014,678,694,-1.33946,-0.276718
-539,330,-1.34424,0.152771,0.00724752,0.00906175,-0.00490954,0.0131473,0.003162,-0.876751,0.00792401,0.0107172,685,694,-1.34424,-0.152773
-532,330,-1.39001,0.0515747,0.0049558,0.0053537,-0.00311214,0.00827324,0.00203626,-0.817319,0.00497757,0.00979998,692,694,-1.38999,-0.0515553
-525,330,-1.40485,-0.0612183,0.00330454,0.00259614,-0.00131254,0.00430983,0.00159085,-0.653608,0.00251654,0.0105535,699,694,-1.40484,0.0612283
-518,330,-1.4129,-0.136658,0.00181463,0.000398671,0.000610749,0.00204167,0.000171638,0.3559,0.00130766,0.0141372,706,694,-1.41292,0.136676
-511,330,-1.39294,-0.220398,0.000389924,-0.0011157,0.00230148,0.00205858,-0.00278436,0.627333,0.00280652,0.0186448,713,694,-1.39292,0.220416
-504,330,-1.3786,-0.337891,-0.000619511,-0.00372093,0.00382736,0.00195935,-0.0062998,0.592923,0.00498308,0.0167915,720,694,-1.37858,0.337914
-497,330,-1.39844,-0.422119,-0.00102702,-0.0050041,0.00526941,0.00261658,-0.0086477,0.604973,0.00680708,0.0125193,727,694,-1.39844,0.422095
-490,330,-1.37909,-0.532288,-0.000908344,-0.00633247,0.0065563,0.00347469,-0.0107155,0.589286,0.00854084,0.012663,734,694,-1.37909,0.532277
-483,330,-1.37463,-0.62738,-0.00101969,-0.00817143,0.00845411,0.0045837,-0.0137748,0.585321,0.0110332,0.0122362,741,694,-1.37463,0.627357
-476,330,-1.37604,-0.72052,-0.00195487,-0.0103848,0.0111326,0.00573395,-0.0180736,0.60443,0.0143475,0.0145305,748,694,-1.37604,0.720509
-469,330,-1.31769,-0.752625,-0.00340238,-0.0131417,0.0143135,0.00684719,-0.0233913,0.621433,0.0183085,0.0220696,755,694,-1.31768,0.752618
-462,330,-1.40845,-0.751526,-0.0051173,-0.0174019,0.0171805,0.00698585,-0.029505,0.613721,0.0223653,0.038654,762,694,-1.40847,0.751505
-455,330,-1.47375,-0.779907,-0.00709718,-0.0224231,0.0199662,0.00662602,-0.0361464,0.602167,0.0265829,0.0434109,769,694,-1.47376,0.779914
-448,330,-0.810669,0.208191,0,0,0,0,0,0,0,-1,776,694,-0.810691,-0.2082
-441,330,-2.07544,-0.900208,0,0,0,0,0,0,0,-1,783,694,-2.07542,0.900231
-434,330,-2.33093,-1.328,0,0,0,0,0,0,0,-1,790,694,-2.33096,1.32799
-427,330,-5.60846,2.8905,0,0,0,0,0,0,0,-1,797,694,-5.60844,-2.8905
-420,330,-5.93842,3.255,0,0,0,0,0,0,0,-1,804,694,-5.93844,-3.25502
-413,330,-6.93243,3.14069,-0.0293819,-0.0643882,0.0276095,-0.014195,-0.0795752,0.502892,0.0490086,0.04967,811,694,-6.9324,-3.14066
-406,330,-7.05261,3.35175,-0.035307,-0.0755404,0.0258169,-0.0226946,-0.0881528,0.454432,0.0528535,0.0461654,818,694,-7.05261,-3.35176
-399,330,0,0,0,0,0,0,0,0,0,-1,825,694,0,0
-392,330,0,0,0,0,0,0,0,0,0,-1,832,694,0,0
-385,330,0,0,0,0,0,0,0,0,0,-1,839,694,0,0
-378,330,0,0,0,0,0,0,0,0,0,-1,846,694,0,0
-371,330,0,0,0,0,0,0,0,0,0,-1,853,694,0,0
-364,330,0,0,0,0,0,0,0,0,0,-1,860,694,0,0
-357,330,0,0,0,0,0,0,0,0,0,-1,867,694,0,0
-350,330,0,0,0,0,0,0,0,0,0,-1,874,694,0,0
-343,330,0,0,0,0,0,0,0,0,0,-1,881,694,0,0
-336,330,0,0,0,0,0,0,0,0,0,-1,888,694,0,0
-329,330,0,0,0,0,0,0,0,0,0,-1,895,694,0,0
-322,330,0,0,0,0,0,0,0,0,0,-1,902,694,0,0
-315,330,0,0,0,0,0,0,0,0,0,-1,909,694,0,0
-308,330,0,0,0,0,0,0,0,0,0,-1,916,694,0,0
-301,330,0,0,0,0,0,0,0,0,0,-1,923,694,0,0
-294,330,0,0,0,0,0,0,0,0,0,-1,930,694,0,0
-287,330,0,0,0,0,0,0,0,0,0,-1,937,694,0,0
-280,330,0,0,0,0,0,0,0,0,0,-1,944,694,0,0
-273,330,0,0,0,0,0,0,0,0,0,-1,951,694,0,0
-266,330,0,0,0,0,0,0,0,0,0,-1,958,694,0,0
-259,330,0,0,0,0,0,0,0,0,0,-1,965,694,0,0
-252,330,0,0,0,0,0,0,0,0,0,-1,972,694,0,0
-245,330,0,0,0,0,0,0,0,0,0,-1,979,694,0,0
-238,330,0,0,0,0,0,0,0,0,0,-1,986,694,0,0
-231,330,0,0,0,0,0,0,0,0,0,-1,993,694,0,0
-224,330,0,0,0,0,0,0,0,0,0,-1,1000,694,0,0
-217,330,0,0,0,0,0,0,0,0,0,-1,1007,694,0,0
-210,330,0,0,0,0,0,0,0,0,0,-1,1014,694,0,0
-203,330,0,0,0,0,0,0,0,0,0,-1,1021,694,0,0
-196,330,0,0,0,0,0,0,0,0,0,-1,1028,694,0,0
-189,330,0,0,0,0,0,0,0,0,0,-1,1035,694,0,0
-182,330,0,0,0,0,0,0,0,0,0,-1,1042,694,0,0
-175,330,0,0,0,0,0,0,0,0,0,-1,1049,694,0,0
-168,330,0,0,0,0,0,0,0,0,0,-1,1056,694,0,0
-161,330,0,0,0,0,0,0,0,0,0,-1,1063,694,0,0
-154,330,0,0,0,0,0,0,0,0,0,-1,1070,694,0,0
-147,330,0,0,0,0,0,0,0,0,0,-1,1077,694,0,0
-140,330,0,0,0,0,0,0,0,0,0,-1,1084,694,0,0
-133,330,0,0,0,0,0,0,0,0,0,-1,1091,694,0,0
-126,330,0,0,0,0,0,0,0,0,0,-1,1098,694,0,0
-119,330,0,0,0,0,0,0,0,0,0,-1,1105,694,0,0
-112,330,0,0,0,0,0,0,0,0,0,-1,1112,694,0,0
-105,330,0,0,0,0,0,0,0,0,0,-1,1119,694,0,0
-98,330,0,0,0,0,0,0,0,0,0,-1,1126,694,0,0
-91,330,0,0,0,0,0,0,0,0,0,-1,1133,694,0,0
-84,330,0,0,0,0,0,0,0,0,0,-1,1140,694,0,0
-77,330,0,0,0,0,0,0,0,0,0,-1,1147,694,0,0
-70,330,0,0,0,0,0,0,0,0,0,-1,1154,694,0,0
-63,330,0,0,0,0,0,0,0,0,0,-1,1161,694,0,0
-56,330,0,0,0,0,0,0,0,0,0,-1,1168,694,0,0
-49,330,0,0,0,0,0,0,0,0,0,-1,1175,694,0,0
-42,330,0,0,0,0,0,0,0,0,0,-1,1182,694,0,0
-35,330,0,0,0,0,0,0,0,0,0,-1,1189,694,0,0
-28,330,0,0,0,0,0,0,0,0,0,-1,1196,694,0,0
-21,330,0,0,0,0,0,0,0,0,0,-1,1203,694,0,0
-14,330,0,0,0,0,0,0,0,0,0,-1,1210,694,0,0
-7,330,0,0,0,0,0,0,0,0,0,-1,1217,694,0,0
0,330,0,0,0,0,0,0,0,0,0,-1,1224,694,0,0
7,330,0,0,0,0,0,0,0,0,0,-1,1231,694,0,0
14,330,0,0,0,0,0,0,0,0,0,-1,1238,694,0,0
21,330,0,0,0,0,0,0,0,0,0,-1,1245,694,0,0
28,330,0,0,0,0,0,0,0,0,0,-1,1252,694,0,0
35,330,0,0,0,0,0,0,0,0,0,-1,1259,694,0,0
42,330,0,0,0,0,0,0,0,0,0,-1,1266,694,0,0
49,330,0,0,0,0,0,0,0,0,0,-1,1273,694,0,0
56,330,0,0,0,0,0,0,0,0,0,-1,1280,694,0,0
63,330,0,0,0,0,0,0,0,0,0,-1,1287,694,0,0
70,330,0,0,0,0,0,0,0,0,0,-1,1294,694,0,0
77,330,0,0,0,0,0,0,0,0,0,-1,1301,694,0,0
84,330,0,0,0,0,0,0,0,0,0,-1,1308,694,0,0
91,330,0,0,0,0,0,0,0,0,0,-1,1315,694,0,0
98,330,0,0,0,0,0,0,0,0,0,-1,1322,694,0,0
105,330,0,0,0,0,0,0,0,0,0,-1,1329,694,0,0
112,330,0,0,0,0,0,0,0,0,0,-1,1336,694,0,0
119,330,0,0,0,0,0,0,0,0,0,-1,1343,694,0,0
126,330,0,0,0,0,0,0,0,0,0,-1,1350,694,0,0
133,330,0,0,0,0,0,0,0,0,0,-1,1357,694,0,0
140,330,0,0,0,0,0,0,0,0,0,-1,1364,694,0,0
147,330,0,0,0,0,0,0,0,0,0,-1,1371,694,0,0
154,330,0,0,0,0,0,0,0,0,0,-1,1378,694,0,0
161,330,0,0,0,0,0,0,0,0,0,-1,1385,694,0,0
168,330,0,0,0,0,0,0,0,0,0,-1,1392,694,0,0
175,330,0,0,0,0,0,0,0,0,0,-1,1399,694,0,0
182,330,0,0,0,0,0,0,0,0,0,-1,1406,694,0,0
189,330,0,0,0,0,0,0,0,0,0,-1,1413,694,0,0
196,330,0,0,0,0,0,0,0,0,0,-1,1420,694,0,0
203,330,0,0,0,0,0,0,0,0,0,-1,1427,694,0,0
210,330,0,0,0,0,0,0,0,0,0,-1,1434,694,0,0
217,330,0,0,0,0,0,0,0,0,0,-1,1441,694,0,0
224,330,0,0,0,0,0,0,0,0,0,-1,1448,694,0,0
231,330,0,0,0,0,0,0,0,0,0,-1,1455,694,0,0
238,330,0,0,0,0,0,0,0,0,0,-1,1462,694,0,0
245,330,0,0,0,0,0,0,0,0,0,-1,1469,694,0,0
252,330,0,0,0,0,0,0,0,0,0,-1,1476,694,0,0
259,330,0,0,0,0,0,0,0,0,0,-1,1483,694,0,0
266,330,0,0,0,0,0,0,0,0,0,-1,1490,694,0,0
273,330,0,0,0,0,0,0,0,0,0,-1,1497,694,0,0
280,330,0,0,0,0,0,0,0,0,0,-1,1504,694,0,0
287,330,0,0,0,0,0,0,0,0,0,-1,1511,694,0,0
294,330,0,0,0,0,0,0,0,0,0,-1,1518,694,0,0
301,330,0,0,0,0,0,0,0,0,0,-1,1525,694,0,0
308,330,0,0,0,0,0,0,0,0,0,-1,1532,694,0,0
315,330,0,0,0,0,0,0,0,0,0,-1,1539,694,0,0
322,330,0,0,0,0,0,0,0,0,0,-1,1546,694,0,0
329,330,0,0,0,0,0,0,0,0,0,-1,1553,694,0,0
336,330,0,0,0,0,0,0,0,0,0,-1,1560,694,0,0
343,330,0,0,0,0,0,0,0,0,0,-1,1567,694,0,0
350,330,0,0,0,0,0,0,0,0,0,-1,1574,694,0,0
357,330,0,0,0,0,0,0,0,0,0,-1,1581,694,0,0
364,330,0,0,0,0,0,0,0,0,0,-1,1588,694,0,0
371,330,0,0,0,0,0,0,0,0,0,-1,1595,694,0,0
378,330,0,0,0,0,0,0,0,0,0,-1,1602,694,0,0
385,330,0,0,0,0,0,0,0,0,0,-1,1609,694,0,0
392,330,0,0,0,0,0,0,0,0,0,-1,1616,694,0,0
399,330,0,0,0,0,0,0,0,0,0,-1,1623,694,0,0
406,330,0,0,0,0,0,0,0,0,0,-1,1630,694,0,0
413,330,0,0,0,0,0,0,0,0,0,-1,1637,694,0,0
420,330,0,0,0,0,0,0,0,0,0,-1,1644,694,0,0
427,330,0,0,0,0,0,0,0,0,0,-1,1651,694,0,0
434,330,0,0,0,0,0,0,0,0,0,-1,1658,694,0,0
441,330,0,0,0,0,0,0,0,0,0,-1,1665,694,0,0
448,330,0,0,0,0,0,0,0,0,0,-1,1672,694,0,0
455,330,0,0,0,0,0,0,0,0,0,-1,1679,694,0,0
462,330,0,0,0,0,0,0,0,0,0,-1,1686,694,0,0
469,330,0,0,0,0,0,0,0,0,0,-1,1693,694,0,0
476,330,0,0,0,0,0,0,0,0,0,-1,1700,694,0,0
483,330,0,0,0,0,0,0,0,0,0,-1,1707,694,0,0
490,330,0,0,0,0,0,0,0,0,0,-1,1714,694,0,0
497,330,0,0,0,0,0,0,0,0,0,-1,1721,694,0,0
504,330,0,0,0,0,0,0,0,0,0,-1,1728,694,0,0
511,330,0,0,0,0,0,0,0,0,0,-1,1735,694,0,0
518,330,0,0,0,0,0,0,0,0,0,-1,1742,694,0,0
525,330,6.19141,1.6792,0,0,0,0,0,0,0,-1,1749,694,6.19139,-1.67921
532,330,10.2664,-0.483887,0,0,0,0,0,0,0,-1,1756,694,10.2664,0.483914
539,330,9.41626,0.0290527,-0.0551368,-0.00336136,0.0333908,0.0130016,-0.0714998,1.11515,0.0525394,0.0456749,1763,694,9.41629,-0.0290707
546,330,8.87134,0.571228,0,0,0,0,0,0,0,-1,1770,694,8.87131,-0.571227
553,330,12.8523,-0.0484619,0,0,0,0,0,0,0,-1,1777,694,12.8522,0.0484603
560,330,13.5266,0.0446167,-0.0115809,-0.0158923,0.0140611,0.000488732,-0.027962,0.709335,0.0188063,0.0488463,1784,694,13.5266,-0.0445918
567,330,13.8365,0.124329,-0.00542544,-0.0163554,0.00876871,-0.000558125,-0.0212227,0.506734,0.0139661,0.0491722,1791,694,13.8365,-0.124334
574,330,8.26758,-0.167542,0,0,0,0,0,0,0,-1,1798,694,8.26764,0.167555
581,330,7.17395,0.285156,0,0,0,0,0,0,0,-1,1805,694,7.17389,-0.285184
588,330,8.76538,0.421631,0,0,0,0,0,0,0,-1,1812,694,8.76532,-0.421634
595,330,6.57385,-0.219971,0,0,0,0,0,0,0,-1,1819,694,6.57388,0.219987
602,330,6.35364,-0.11853,-0.00198774,-0.00998256,-0.00464014,0.00013941,-0.0121097,-0.429837,0.00812001,0.0401319,1826,694,6.35367,0.118511
609,330,6.2196,-0.0713501,-0.00317334,-0.00790173,-0.00528579,0.000252889,-0.011328,-0.575106,0.00763767,0.0175718,1833,694,6.2196,0.0713804
616,330,6.26099,0.0343018,-0.00445487,-0.00635746,-0.00533083,8.88435e-06,-0.0108212,-0.697102,0.00721711,0.010275,1840,694,6.26098,-0.0343106
623,330,6.27771,0.127075,-0.00483624,-0.00452354,-0.00481726,0.000139902,-0.00949968,-0.801621,0.00638027,0.0118193,1847,694,6.27774,-0.127099
630,330,6.29871,0.245422,-0.00404111,-0.00271129,-0.00345363,0.000140855,-0.00689325,-0.880497,0.00464316,0.0123505,1854,694,6.2987,-0.245427
637,330,6.3114,0.351135,-0.00237502,-0.0019439,-0.00283026,0.000679001,-0.00499792,-0.823406,0.00357981,0.011678,1861,694,6.31145,-0.351118
644,330,6.27563,0.454407,-0.000860753,-0.00147366,-0.00276101,0.00161076,-0.00394517,-0.730128,0.00330075,0.00804071,1868,694,6.27566,-0.45441
651,330,6.27612,0.556274,0.00126539,-0.00107583,-0.00273268,0.00306763,-0.00287808,-0.583035,0.00343334,0.0107711,1875,694,6.27615,-0.55627
658,330,6.27808,0.650757,0.00405582,-9.49188e-05,-0.00308121,0.00569542,-0.00173452,-0.48902,0.00448827,0.0108122,1882,694,6.27808,-0.650771
665,330,6.25854,0.754395,0.00720911,0.000403031,-0.00352288,0.00870416,-0.00109203,-0.40135,0.00619893,0.0101207,1889,694,6.25854,-0.754401
672,330,6.24304,0.869568,0.0112485,0.00118899,-0.00446745,0.0129461,-0.000508547,-0.363129,0.00880514,0.0114638,1896,694,6.24305,-0.869588
679,330,6.23035,0.975342,0.0164242,0.00199347,-0.00559881,0.0183416,7.60239e-05,-0.329955,0.0122025,0.0231314,1903,694,6.23032,-0.975331
686,330,6.33289,1.09393,0.0230394,0.00282777,-0.00683993,0.0251365,0.000730629,-0.297503,0.0165195,0.0378623,1910,694,6.33284,-1.09396
693,330,6.51379,1.08661,0.0312781,0.00420337,-0.00800109,0.0334658,0.00201567,-0.266902,0.0216699,0.0447183,1917,694,6.51379,-1.08661
700,330,7.01221,1.15308,0.0413037,0.00583024,-0.00904997,0.0434791,0.00365482,-0.235903,0.0278479,0.0443076,1924,694,7.01225,-1.15309
707,330,7.51611,1.22711,0.0531274,0.00755927,-0.00993527,0.0551994,0.00548729,-0.205601,0.0351137,0.0419997,1931,694,7.51615,-1.22711
714,330,7.89648,1.39612,0.0666423,0.00903026,-0.0107137,0.0685701,0.00710243,-0.178036,0.0435394,0.0449691,1938,694,7.89654,-1.3961
721,330,0,0,0,0,0,0,0,0,0,-1,1945,694,0,0
728,330,0,0,0,0,0,0,0,0,0,-1,1952,694,0,0
735,330,0,0,0,0,0,0,0,0,0,-1,1959,694,0,0
742,330,0,0,0,0,0,0,0,0,0,-1,1966,694,0,0
749,330,0,0,0,0,0,0,0,0,0,-1,1973,694,0,0
756,330,0,0,0,0,0,0,0,0,0,-1,1980,694,0,0
763,330,0,0,0,0,0,0,0,0,0,-1,1987,694,0,0
770,330,0,0,0,0,0,0,0,0,0,-1,1994,694,0,0
777,330,0,0,0,0,0,0,0,0,0,-1,2001,694,0,0
784,330,0,0,0,0,0,0,0,0,0,-1,2008,694,0,0
791,330,0,0,0,0,0,0,0,0,0,-1,2015,694,0,0
798,330,0,0,0,0,0,0,0,0,0,-1,2022,694,0,0
805,330,0,0,0,0,0,0,0,0,0,-1,2029,694,0,0
812,330,0,0,0,0,0,0,0,0,0,-1,2036,694,0,0
-700,323,0,0,0,0,0,0,0,0,0,-1,524,701,0,0
-693,323,0,0,0,0,0,0,0,0,0,-1,531,701,0,0
-686,323,0,0,0,0,0,0,0,0,0,-1,538,701,0,0
-679,323,0,0,0,0,0,0,0,0,0,-1,545,701,0,0
-672,323,0,0,0,0,0,0,0,0,0,-1,552,701,0,0
-665,323,0,0,0,0,0,0,0,0,0,-1,559,701,0,0
-658,323,0,0,0,0,0,0,0,0,0,-1,566,701,0,0
-651,323,0,0,0,0,0,0,0,0,0,-1,573,701,0,0
-644,323,0,0,0,0,0,0,0,0,0,-1,580,701,0,0
-637,323,0,0,0,0,0,0,0,0,0,-1,587,701,0,0
-630,323,0,0,0,0,0,0,0,0,0,-1,594,701,0,0
-623,323,0,0,0,0,0,0,0,0,0,-1,601,701,0,0
-616,323,0,0,0,0,0,0,0,0,0,-1,608,701,0,0
-609,323,0,0,0,0,0,0,0,0,0,-1,615,701,0,0
-602,323,0.0461426,0.0909424,0,0,0,0,0,0,0,-1,622,701,0.0461141,-0.0909609
-595,323,0.120728,0.353149,0.0176871,0.0423824,0.00180295,0.0425134,0.0175562,1.4983,0.0246688,0.04673,629,701,0.120719,-0.353174
-588,323,0.180115,0.63269,0.0180609,0.0413202,-0.00412038,0.0420286,0.0173525,-1.40055,0.0243877,0.0460111,636,701,0.18014,-0.632719
-581,323,-3.07123,1.98938,0,0,0,0,0,0,0,-1,643,701,-3.07124,-1.9894
-574,323,-2.66595,1.3374,0.0146483,0.0321664,-0.00795483,0.0352395,0.0115752,-1.20214,0.0207408,0.0431427,650,701,-2.66593,-1.33742
-567,323,-2.2829,0.654724,0.0122027,0.0263162,-0.00755924,0.0296006,0.00891825,-1.16091,0.017534,0.0433679,657,701,-2.2829,-0.654703
-560,323,-1.80786,0.302002,0.00968679,0.0204959,-0.00639021,0.0234606,0.00672212,-1.13641,0.0139504,0.0408544,664,701,-1.80784,-0.302019
-553,323,-1.57861,0.296204,0.00738252,0.0152738,-0.00486068,0.0175887,0.00506762,-1.12633,0.0104543,0.0232583,671,701,-1.57859,-0.296184
-546,323,-1.48792,0.248779,0.00532328,0.0106402,-0.00334227,0.0122524,0.00371113,-1.12137,0.00725482,0.00978447,678,701,-1.48789,-0.248775
-539,323,-1.4837,0.158081,0.00365823,0.0068301,-0.00222311,0.00797499,0.00251334,-1.09522,0.00470808,0.0100965,685,701,-1.48369,-0.158076
-532,323,-1.49506,0.0516968,0.00243024,0.00370249,-0.00102657,0.00427406,0.00185868,-1.06277,0.00247459,0.00924585,692,701,-1.49504,-0.0516969
-525,323,-1.50397,-0.0497437,0.0016262,0.00148101,0.00029686,0.00185921,0.001248,0.665483,0.0010942,0.00752345,699,701,-1.50397,0.0497182
-518,323,-1.51337,-0.126099,0.000736461,-0.000419058,0.00197805,0.0022194,-0.001902,0.643308,0.00238184,0.00967136,706,701,-1.51337,0.126121
-511,323,-1.52588,-0.211182,-0.000399849,-0.00165526,0.00374283,0.00276755,-0.00482266,0.702317,0.00443543,0.0130084,713,701,-1.52591,0.211186
-504,323,-1.51373,-0.319519,-0.00118384,-0.00378684,0.00521573,0.00289033,-0.007861,0.663128,0.00642461,0.0133762,720,701,-1.51375,0.319539
-497,323,-1.49524,-0.428894,-0.00154441,-0.00481627,0.00686409,0.00387601,-0.0102367,0.668415,0.00841931,0.0112173,727,701,-1.49521,0.428889
-490,323,-1.4953,-0.538513,-0.0018139,-0.00607152,0.00862457,0.0049407,-0.0128261,0.664401,0.0105891,0.0123215,734,701,-1.4953,0.538492
-483,323,-1.48444,-0.628967,-0.00232761,-0.00768313,0.0109516,0.00626887,-0.0162796,0.665497,0.0134392,0.013297,741,701,-1.48446,0.628938
-476,323,-1.40411,-0.731018,-0.00372489,-0.00952516,0.0139835,0.007656,-0.0209061,0.683149,0.0170715,0.0188675,748,701,-1.4041,0.731018
-469,323,-1.31494,-0.578857,-0.00566398,-0.011756,0.0174219,0.00897621,-0.0263962,0.698854,0.0212317,0.0433113,755,701,-1.31497,0.578833
-462,323,-1.4212,-0.509766,-0.00782698,-0.0155496,0.020317,0.00899239,-0.032369,0.691491,0.0251192,0.046351,762,701,-1.42121,0.509774
-455,323,-1.40747,-0.512268,-0.0101905,-0.0201251,0.0229962,0.0083688,-0.0386844,0.67903,0.0289848,0.0465901,769,701,-1.40748,0.512267
-448,323,-1.38232,-0.499207,0,0,0,0,0,0,0,-1,776,701,-1.38229,0.499235
-441,323,-1.55811,-0.458923,0,0,0,0,0,0,0,-1,783,701,-1.55809,0.458947
-434,323,-1.70862,-0.783752,0,0,0,0,0,0,0,-1,790,701,-1.70861,0.783736
-427,323,-6.02631,3.10107,-0.0253617,-0.0443841,0.0304741,-0.00294901,-0.0667968,0.634134,0.0435815,0.0432888,797,701,-6.02629,-3.10108
-420,323,-6.53857,3.64099,-0.0298015,-0.0536165,0.0307005,-0.0087802,-0.0746378,0.6004,0.0471054,0.0440459,804,701,-6.53855,-3.64102
-413,323,-6.76349,3.93213,-0.0345596,-0.064163,0.0299312,-0.0159702,-0.0827525,0.55577,0.0506905,0.0449272,811,701,-6.76348,-3.93216
-406,323,0,0,0,0,0,0,0,0,0,-1,818,701,0,0
-399,323,0,0,0,0,0,0,0,0,0,-1,825,701,0,0
-392,323,0,0,0,0,0,0,0,0,0,-1,832,701,0,0
-385,323,0,0,0,0,0,0,0,0,0,-1,839,701,0,0
-378,323,0,0,0,0,0,0,0,0,0,-1,846,701,0,0
-371,323,0,0,0,0,0,0,0,0,0,-1,853,701,0,0
-364,323,0,0,0,0,0,0,0,0,0,-1,860,701,0,0
-357,323,0,0,0,0,0,0,0,0,0,-1,867,701,0,0
-350,323,0,0,0,0,0,0,0,0,0,-1,874,701,0,0
-343,323,0,0,0,0,0,0,0,0,0,-1,881,701,0,0
-336,323,0,0,0,0,0,0,0,0,0,-1,888,701,0,0
-329,323,0,0,0,0,0,0,0,0,0,-1,895,701,0,0
-322,323,0,0,0,0,0,0,0,0,0,-1,902,701,0,0
-315,323,0,0,0,0,0,0,0,0,0,-1,909,701,0,0
-308,323,0,0,0,0,0,0,0,0,0,-1,916,701,0,0
-301,323,0,0,0,0,0,0,0,0,0,-1,923,701,0,0
-294,323,0,0,0,0,0,0,0,0,0,-1,930,701,0,0
-287,323,0,0,0,0,0,0,0,0,0,-1,937,701,0,0
-280,323,0,0,0,0,0,0,0,0,0,-1,944,701,0,0
-273,323,0,0,0,0,0,0,0,0,0,-1,951,701,0,0
-266,323,0,0,0,0,0,0,0,0,0,-1,958,701,0,0
-259,323,0,0,0,0,0,0,0,0,0,-1,965,701,0,0
-252,323,0,0,0,0,0,0,0,0,0,-1,972,701,0,0
-245,323,0,0,0,0,0,0,0,0,0,-1,979,701,0,0
-238,323,0,0,0,0,0,0,0,0,0,-1,986,701,0,0
-231,323,0,0,0,0,0,0,0,0,0,-1,993,701,0,0
-224,323,0,0,0,0,0,0,0,0,0,-1,1000,701,0,0
-217,323,0,0,0,0,0,0,0,0,0,-1,1007,701,0,0
-210,323,0,0,0,0,0,0,0,0,0,-1,1014,701,0,0
-203,323,0,0,0,0,0,0,0,0,0,-1,1021,701,0,0
-196,323,0,0,0,0,0,0,0,0,0,-1,1028,701,0,0
-189,323,0,0,0,0,0,0,0,0,0,-1,1035,701,0,0
-182,323,0,0,0,0,0,0,0,0,0,-1,1042,701,0,0
-175,323,0,0,0,0,0,0,0,0,0,-1,1049,701,0,0
-168,323,0,0,0,0,0,0,0,0,0,-1,1056,701,0,0
-161,323,0,0,0,0,0,0,0,0,0,-1,1063,701,0,0
-154,323,0,0,0,0,0,0,0,0,0,-1,1070,701,0,0
-147,323,0,0,0,0,0,0,0,0,0,-1,1077,701,0,0
-140,323,0,0,0,0,0,0,0,0,0,-1,1084,701,0,0
-133,323,0,0,0,0,0,0,0,0,0,-1,1091,701,0,0
-126,323,0,0,0,0,0,0,0,0,0,-1,1098,701,0,0
-119,323,0,0,0,0,0,0,0,0,0,-1,1105,701,0,0
-112,323,0,0,0,0,0,0,0,0,0,-1,1112,701,0,0
-105,323,0,0,0,0,0,0,0,0,0,-1,1119,701,0,0
-98,323,0,0,0,0,0,0,0,0,0,-1,1126,701,0,0
-91,323,0,0,0,0,0,0,0,0,0,-1,1133,701,0,0
-84,323,0,0,0,0,0,0,0,0,0,-1,1140,701,0,0
-77,323,0,0,0,0,0,0,0,0,0,-1,1147,701,0,0
-70,323,0,0,0,0,0,0,0,0,0,-1,1154,701,0,0
-63,323,0,0,0,0,0,0,0,0,0,-1,1161,701,0,0
-56,323,0,0,0,0,0,0,0,0,0,-1,1168,701,0,0
-49,323,0,0,0,0,0,0,0,0,0,-1,1175,701,0,0
-42,323,0,0,0,0,0,0,0,0,0,-1,1182,701,0,0
-35,323,0,0,0,0,0,0,0,0,0,-1,1189,701,0,0
-28,323,0,0,0,0,0,0,0,0,0,-1,1196,701,0,0
-21,323,0,0,0,0,0,0,0,0,0,-1,1203,701,0,0
-14,323,0,0,0,0,0,0,0,0,0,-1,1210,701,0,0
-7,323,0,0,0,0,0,0,0,0,0,-1,1217,701,0,0
0,323,0,0,0,0,0,0,0,0,0,-1,1224,701,0,0
7,323,0,0,0,0,0,0,0,0,0,-1,1231,701,0,0
14,323,0,0,0,0,0,0,0,0,0,-1,1238,701,0,0
21,323,0,0,0,0,0,0,0,0,0,-1,1245,701,0,0
28,323,0,0,0,0,0,0,0,0,0,-1,1252,701,0,0
35,323,0,0,0,0,0,0,0,0,0,-1,1259,701,0,0
42,323,0,0,0,0,0,0,0,0,0,-1,1266,701,0,0
49,323,0,0,0,0,0,0,0,0,0,-1,1273,701,0,0
56,323,0,0,0,0,0,0,0,0,0,-1,1280,701,0,0
63,323,0,0,0,0,0,0,0,0,0,-1,1287,701,0,0
70,323,0,0,0,0,0,0,0,0,0,-1,1294,701,0,0
77,323,0,0,0,0,0,0,0,0,0,-1,1301,701,0,0
84,323,0,0,0,0,0,0,0,0,0,-1,1308,701,0,0
91,323,0,0,0,0,0,0,0,0,0,-1,1315,701,0,0
98,323,0,0,0,0,0,0,0,0,0,-1,1322,701,0,0
105,323,0,0,0,0,0,0,0,0,0,-1,1329,701,0,0
112,323,0,0,0,0,0,0,0,0,0,-1,1336,701,0,0
119,323,0,0,0,0,0,0,0,0,0,-1,1343,701,0,0
126,323,0,0,0,0,0,0,0,0,0,-1,1350,701,0,0
133,323,0,0,0,0,0,0,0,0,0,-1,1357,701,0,0
140,323,0,0,0,0,0,0,0,0,0,-1,1364,701,0,0
147,323,0,0,0,0,0,0,0,0,0,-1,1371,701,0,0
154,323,0,0,0,0,0,0,0,0,0,-1,1378,701,0,0
161,323,0,0,0,0,0,0,0,0,0,-1,1385,701,0,0
168,323,0,0,0,0,0,0,0,0,0,-1,1392,701,0,0
175,323,0,0,0,0,0,0,0,0,0,-1,1399,701,0,0
182,323,0,0,0,0,0,0,0,0,0,-1,1406,701,0,0
189,323,0,0,0,0,0,0,0,0,0,-1,1413,701,0,0
196,323,0,0,0,0,0,0,0,0,0,-1,1420,701,0,0
203,323,0,0,0,0,0,0,0,0,0,-1,1427,701,0,0
210,323,0,0,0,0,0,0,0,0,0,-1,1434,701,0,0
217,323,0,0,0,0,0,0,0,0,0,-1,1441,701,0,0
224,323,0,0,0,0,0,0,0,0,0,-1,1448,701,0,0
231,323,0,0,0,0,0,0,0,0,0,-1,1455,701,0,0
238,323,0,0,0,0,0,0,0,0,0,-1,1462,701,0,0
245,323,0,0,0,0,0,0,0,0,0,-1,1469,701,0,0
252,323,0,0,0,0,0,0,0,0,0,-1,1476,701,0,0
259,323,0,0,0,0,0,0,0,0,0,-1,1483,701,0,0
266,323,0,0,0,0,0,0,0,0,0,-1,1490,701,0,0
273,323,0,0,0,0,0,0,0,0,0,-1,1497,701,0,0
280,323,0,0,0,0,0,0,0,0,0,-1,1504,701,0,0
287,323,0,0,0,0,0,0,0,0,0,-1,1511,701,0,0
294,323,0,0,0,0,0,0,0,0,0,-1,1518,701,0,0
301,323,0,0,0,0,0,0,0,0,0,-1,1525,701,0,0
308,323,0,0,0,0,0,0,0,0,0,-1,1532,701,0,0
315,323,0,0,0,0,0,0,0,0,0,-1,1539,701,0,0
322,323,0,0,0,0,0,0,0,0,0,-1,1546,701,0,0
329,323,0,0,0,0,0,0,0,0,0,-1,1553,701,0,0
336,323,0,0,0,0,0,0,0,0,0,-1,1560,701,0,0
343,323,0,0,0,0,0,0,0,0,0,-1,1567,701,0,0
350,323,0,0,0,0,0,0,0,0,0,-1,1574,701,0,0
357,323,0,0,0,0,0,0,0,0,0,-1,1581,701,0,0
364,323,0,0,0,0,0,0,0,0,0,-1,1588,701,0,0
371,323,0,0,0,0,0,0,0,0,0,-1,1595,701,0,0
378,323,0,0,0,0,0,0,0,0,0,-1,1602,701,0,0
385,323,0,0,0,0,0,0,0,0,0,-1,1609,701,0,0
392,323,0,0,0,0,0,0,0,0,0,-1,1616,701,0,0
399,323,0,0,0,0,0,0,0,0,0,-1,1623,701,0,0
406,323,0,0,0,0,0,0,0,0,0,-1,1630,701,0,0
413,323,0,0,0,0,0,0,0,0,0,-1,1637,701,0,0
420,323,0,0,0,0,0,0,0,0,0,-1,1644,701,0,0
427,323,0,0,0,0,0,0,0,0,0,-1,1651,701,0,0
434,323,0,0,0,0,0,0,0,0,0,-1,1658,701,0,0
441,323,0,0,0,0,0,0,0,0,0,-1,1665,701,0,0
448,323,0,0,0,0,0,0,0,0,0,-1,1672,701,0,0
455,323,0,0,0,0,0,0,0,0,0,-1,1679,701,0,0
462,323,0,0,0,0,0,0,0,0,0,-1,1686,701,0,0
469,323,0,0,0,0,0,0,0,0,0,-1,1693,701,0,0
476,323,0,0,0,0,0,0,0,0,0,-1,1700,701,0,0
483,323,0,0,0,0,0,0,0,0,0,-1,1707,701,0,0
490,323,0,0,0,0,0,0,0,0,0,-1,1714,701,0,0
497,323,0,0,0,0,0,0,0,0,0,-1,1721,701,0,0
504,323,0,0,0,0,0,0,0,0,0,-1,1728,701,0,0
511,323,0,0,0,0,0,0,0,0,0,-1,1735,701,0,0
518,323,0,0,0,0,0,0,0,0,0,-1,1742,701,0,0
525,323,0,0,0,0,0,0,0,0,0,-1,1749,701,0,0
532,323,10.208,-0.630737,-0.0693777,-0.00214297,0.0393829,0.0160194,-0.0875401,1.13869,0.0643678,0.0446118,1756,701,10.2081,0.630718
539,323,9.65369,-0.190613,-0.0513002,-0.00702906,0.0340352,0.0114356,-0.0697648,1.07372,0.050753,0.0460474,1763,701,9.65369,0.190633
546,323,12.8168,0.972656,0,0,0,0,0,0,0,-1,1770,701,12.8168,-0.972643
553,323,12.9633,0.73291,-0.0188172,-0.0155384,0.0208317,0.00371834,-0.038074,0.824666,0.0267085,0.0449374,1777,701,12.9632,-0.732921
560,323,13.0566,0.587891,-0.00746962,-0.0174334,0.0143694,0.00275698,-0.02766,0.618532,0.0194243,0.0461789,1784,701,13.0567,-0.587892
567,323,12.9366,0.368164,-0.000691046,-0.0176003,0.00900703,0.00320777,-0.0214991,0.408512,0.0155129,0.0447902,1791,701,12.9367,-0.368178
574,323,13.2224,-0.707397,0,0,0,0,0,0,0,-1,1798,701,13.2224,0.707409
581,323,9.28247,0.563904,0,0,0,0,0,0,0,-1,1805,701,9.28246,-0.563886
588,323,9.46301,0.0319824,0,0,0,0,0,0,0,-1,1812,701,9.46298,-0.031972
595,323,6.61353,0.165833,0,0,0,0,0,0,0,-1,1819,701,6.61356,-0.165852
602,323,6.5238,0.0370483,0.00190157,-0.0113847,-0.00498065,0.00356133,-0.0130444,-0.321669,0.010095,0.0480008,1826,701,6.52381,-0.0370229
609,323,6.31384,-0.0169067,-0.000238679,-0.00940527,-0.00588724,0.00263901,-0.012283,-0.454648,0.00919541,0.0288445,1833,701,6.31388,0.0169058
616,323,6.37415,0.0375366,-0.0026103,-0.00795535,-0.00619209,0.00146138,-0.012027,-0.581673,0.0085469,0.0125148,1840,701,6.37411,-0.0375242
623,323,6.396,0.141541,-0.0040402,-0.00587736,-0.00576442,0.000878373,-0.0107959,-0.706386,0.00750722,0.0118007,1847,701,6.39602,-0.14156
630,323,6.40271,0.261047,-0.00417614,-0.00363465,-0.00435239,0.000455404,-0.00826619,-0.816461,0.0056687,0.0126861,1854,701,6.40266,-0.261023
637,323,6.40881,0.359558,-0.00292725,-0.00261594,-0.00351082,0.00074267,-0.00628586,-0.807552,0.0044588,0.0102689,1861,701,6.40881,-0.359563
644,323,6.40417,0.452148,-0.00163522,-0.00193672,-0.00314174,0.00135938,-0.00493132,-0.761425,0.00382212,0.00790914,1868,701,6.40423,-0.452176
651,323,6.3783,0.571655,0.000393984,-0.00141976,-0.0028621,0.00248945,-0.00351522,-0.631974,0.00348362,0.00917968,1875,701,6.37829,-0.571649
658,323,6.36145,0.68042,0.00312811,-0.000393135,-0.00286886,0.00473352,-0.00199854,-0.510182,0.00399224,0.0103949,1882,701,6.36143,-0.68039
665,323,6.35144,0.763,0.00609443,2.36433e-05,-0.00300062,0.00732721,-0.00120914,-0.389819,0.00533373,0.009798,1889,701,6.35138,-0.762991
672,323,6.3501,0.870972,0.00981728,0.000741459,-0.00362857,0.0110896,-0.000530892,-0.337252,0.00757625,0.00930175,1896,701,6.3501,-0.871
679,323,6.34094,0.960876,0.0145032,0.00128579,-0.00444127,0.0158569,-6.79074e-05,-0.295854,0.010594,0.0172998,1903,701,6.34093,-0.96085
686,323,6.3905,0.780396,0.0203966,0.00154741,-0.00543246,0.0218502,9.38354e-05,-0.261448,0.0145356,0.0375395,1910,701,6.39049,-0.78042
693,323,6.4519,0.598267,0.0276842,0.00212319,-0.00642883,0.02921,0.000597358,-0.23303,0.0192773,0.0483763,1917,701,6.45186,-0.598295
700,323,6.8916,0.645935,0.036593,0.00258916,-0.0074651,0.0381597,0.00102249,-0.206865,0.0251059,0.0446912,1924,701,6.89164,-0.645931
707,323,7.40588,0.832642,0.0471704,0.00268817,-0.00856906,0.048764,0.00109451,-0.183877,0.0321507,0.0440946,1931,701,7.40583,-0.832614
714,323,7.70532,0.940552,0.0594258,0.00197104,-0.00987778,0.0610766,0.000320254,-0.165591,0.0406114,0.0425969,1938,701,7.70533,-0.940572
721,323,0,0,0,0,0,0,0,0,0,-1,1945,701,0,0
728,323,0,0,0,0,0,0,0,0,0,-1,1952,701,0,0
735,323,0,0,0,0,0,0,0,0,0,-1,1959,701,0,0
742,323,0,0,0,0,0,0,0,0,0,-1,1966,701,0,0
749,323,0,0,0,0,0,0,0,0,0,-1,1973,701,0,0
756,323,0,0,0,0,0,0,0,0,0,-1,1980,701,0,0
763,323,0,0,0,0,0,0,0,0,0,-1,1987,701,0,0
770,323,0,0,0,0,0,0,0,0,0,-1,1994,701,0,0
777,323,0,0,0,0,0,0,0,0,0,-1,2001,701,0,0
784,323,0,0,0,0,0,0,0,0,0,-1,2008,701,0,0
791,323,0,0,0,0,0,0,0,0,0,-1,2015,701,0,0
798,323,0,0,0,0,0,0,0,0,0,-1,2022,701,0,0
805,323,0,0,0,0,0,0,0,0,0,-1,2029,701,0,0
812,323,0,0,0,0,0,0,0,0,0,-1,2036,701,0,0
-700,316,0,0,0,0,0,0,0,0,0,-1,524,708,0,0
-693,316,0,0,0,0,0,0,0,0,0,-1,531,708,0,0
-686,316,0,0,0,0,0,0,0,0,0,-1,538,708,0,0
-679,316,0,0,0,0,0,0,0,0,0,-1,545,708,0,0
-672,316,0,0,0,0,0,0,0,0,0,-1,552,708,0,0
-665,316,0,0,0,0,0,0,0,0,0,-1,559,708,0,0
-658,316,0,0,0,0,0,0,0,0,0,-1,566,708,0,0
-651,316,0,0,0,0,0,0,0,0,0,-1,573,708,0,0
-644,316,0,0,0,0,0,0,0,0,0,-1,580,708,0,0
-637,316,0,0,0,0,0,0,0,0,0,-1,587,708,0,0
-630,316,0,0,0,0,0,0,0,0,0,-1,594,708,0,0
-623,316,0,0,0,0,0,0,0,0,0,-1,601,708,0,0
-616,316,0,0,0,0,0,0,0,0,0,-1,608,708,0,0
-609,316,0,0,0,0,0,0,0,0,0,-1,615,708,0,0
-602,316,-0.277222,-0.353882,0,0,0,0,0,0,0,-1,622,708,-0.277252,0.353891
-595,316,0.3078,0.141968,0.00483993,0.0337486,0.00620016,0.0350223,0.00356627,1.36819,0.0222549,0.0496728,629,708,0.307775,-0.14198
-588,316,0.220825,0.41626,0.0046831,0.0321626,0.00187553,0.03229,0.00455568,1.50296,0.0201802,0.0486838,636,708,0.220802,-0.41627
-581,316,-1.36768,0.581665,0,0,0,0,0,0,0,-1,643,708,-1.36769,-0.581689
-574,316,-1.39264,0.42865,0.00282326,0.0239667,-0.00155039,0.0240797,0.00271018,-1.49799,0.0152304,0.0486191,650,708,-1.39266,-0.428664
-567,316,-1.4715,0.264282,0.00184901,0.0191923,-0.00176589,0.0193703,0.00167104,-1.47035,0.0123941,0.0471949,657,708,-1.47152,-0.264295
-560,316,-1.59027,0.316895,0.00102633,0.0146457,-0.00147722,0.0148041,0.000867951,-1.46399,0.0095932,0.0413559,664,708,-1.59028,-0.316873
-553,316,-1.58002,0.335327,0.000463545,0.0107654,-0.00093238,0.0108491,0.000379839,-1.48126,0.00710949,0.0240636,671,708,-1.58003,-0.335349
-546,316,-1.6123,0.265503,3.36015e-05,0.00734639,-0.000376914,0.00736577,1.42262e-05,-1.51944,0.00490577,0.014462,678,708,-1.61228,-0.265503
-539,316,-1.60693,0.144653,-0.000298901,0.00449499,2.80556e-05,0.00449515,-0.000299065,1.56494,0.00310127,0.0118902,685,708,-1.60692,-0.144663
-532,316,-1.6062,0.0545044,-0.000349792,0.00212283,0.00064654,0.00228169,-0.000508643,1.32987,0.00171599,0.00997336,692,708,-1.60622,-0.0544787
-525,316,-1.59894,-0.0213013,-0.000454109,0.000579193,0.00157821,0.00172317,-0.00159808,0.943583,0.00191798,0.00875857,699,708,-1.59896,0.0213306
-518,316,-1.60254,-0.128601,-0.00081423,-0.000906586,0.00302773,0.00216768,-0.00388849,0.777773,0.00354327,0.0091485,706,708,-1.60251,0.128605
-511,316,-1.60992,-0.230225,-0.00183986,-0.00177085,0.00487906,0.00307382,-0.00668454,0.788934,0.00576111,0.0103254,713,708,-1.60994,0.230195
-504,316,-1.60657,-0.331177,-0.00271052,-0.00334161,0.00637697,0.00335871,-0.00941084,0.760677,0.00764353,0.0131933,720,708,-1.60656,0.331153
-497,316,-1.58557,-0.428772,-0.00341708,-0.00416328,0.00837333,0.00459146,-0.0121718,0.763134,0.0100027,0.0118522,727,708,-1.58559,0.428777
-490,316,-1.59943,-0.547668,-0.00459939,-0.00532813,0.0107603,0.00580272,-0.0157302,0.768473,0.0128649,0.0125241,734,708,-1.59946,0.547638
-483,316,-1.53766,-0.661743,-0.0061501,-0.00669116,0.0136864,0.00726844,-0.0201097,0.775516,0.0163761,0.0185895,741,708,-1.53769,0.661737
-476,316,-1.45642,-0.665955,-0.00860705,-0.00817682,0.0172258,0.00883519,-0.0256191,0.791642,0.0206639,0.041234,748,708,-1.45642,0.665968
-469,316,-1.5835,-0.296387,-0.0115472,-0.00990085,0.0210562,0.0103483,-0.0317963,0.804935,0.0253608,0.0486887,755,708,-1.58348,0.296369
-462,316,-1.62067,0.0603027,-0.014518,-0.0132313,0.0240953,0.0102292,-0.0379785,0.798745,0.0293295,0.0454125,762,708,-1.62065,-0.0602847
-455,316,-1.32184,0.272644,-0.0174481,-0.0172962,0.0267577,0.0093856,-0.0441299,0.786817,0.0329965,0.0484219,769,708,-1.32182,-0.272627
-448,316,-0.996582,0.359619,0,0,0,0,0,0,0,-1,776,708,-0.996561,-0.359639
-441,316,-5.56256,1.88855,-0.0247255,-0.0266297,0.0312504,0.00558726,-0.0569425,0.770169,0.0399545,0.0426243,783,708,-5.56256,-1.88853
-434,316,-5.93359,2.37207,0,0,0,0,0,0,0,-1,790,708,-5.93359,-2.37207
-427,316,-6.29413,3.17242,-0.0331642,-0.0398657,0.0331983,-0.00314799,-0.0698819,0.735103,0.0455749,0.0411858,797,708,-6.29414,-3.17241
-420,316,-6.7865,3.8288,-0.0369607,-0.0488689,0.0330683,-0.00931479,-0.0765148,0.696325,0.0482059,0.0412781,804,708,-6.7865,-3.82878
-413,316,0,0,0,0,0,0,0,0,0,-1,811,708,0,0
-406,316,0,0,0,0,0,0,0,0,0,-1,818,708,0,0
-399,316,0,0,0,0,0,0,0,0,0,-1,825,708,0,0
-392,316,0,0,0,0,0,0,0,0,0,-1,832,708,0,0
-385,316,0,0,0,0,0,0,0,0,0,-1,839,708,0,0
-378,316,0,0,0,0,0,0,0,0,0,-1,846,708,0,0
-371,316,0,0,0,0,0,0,0,0,0,-1,853,708,0,0
-364,316,0,0,0,0,0,0,0,0,0,-1,860,708,0,0
-357,316,0,0,0,0,0,0,0,0,0,-1,867,708,0,0
-350,316,0,0,0,0,0,0,0,0,0,-1,874,708,0,0
-343,316,0,0,0,0,0,0,0,0,0,-1,881,708,0,0
-336,316,0,0,0,0,0,0,0,0,0,-1,888,708,0,0
-329,316,0,0,0,0,0,0,0,0,0,-1,895,708,0,0
-322,316,0,0,0,0,0,0,0,0,0,-1,902,708,0,0
-315,316,0,0,0,0,0,0,0,0,0,-1,909,708,0,0
-308,316,0,0,0,0,0,0,0,0,0,-1,916,708,0,0
-301,316,0,0,0,0,0,0,0,0,0,-1,923,708,0,0
-294,316,0,0,0,0,0,0,0,0,0,-1,930,708,0,0
-287,316,0,0,0,0,0,0,0,0,0,-1,937,708,0,0
-280,316,0,0,0,0,0,0,0,0,0,-1,944,708,0,0
-273,316,0,0,0,0,0,0,0,0,0,-1,951,708,0,0
-266,316,0,0,0,0,0,0,0,0,0,-1,958,708,0,0
-259,316,0,0,0,0,0,0,0,0,0,-1,965,708,0,0
-252,316,0,0,0,0,0,0,0,0,0,-1,972,708,0,0
-245,316,0,0,0,0,0,0,0,0,0,-1,979,708,0,0
-238,316,0,0,0,0,0,0,0,0,0,-1,986,708,0,0
-231,316,0,0,0,0,0,0,0,0,0,-1,993,708,0,0
-224,316,0,0,0,0,0,0,0,0,0,-1,1000,708,0,0
-217,316,0,0,0,0,0,0,0,0,0,-1,1007,708,0,0
-210,316,0,0,0,0,0,0,0,0,0,-1,1014,708,0,0
-203,316,0,0,0,0,0,0,0,0,0,-1,1021,708,0,0
-196,316,0,0,0,0,0,0,0,0,0,-1,1028,708,0,0
-189,316,0,0,0,0,0,0,0,0,0,-1,1035,708,0,0
-182,316,0,0,0,0,0,0,0,0,0,-1,1042,708,0,0
-175,316,0,0,0,0,0,0,0,0,0,-1,1049,708,0,0
-168,316,0,0,0,0,0,0,0,0,0,-1,1056,708,0,0
-161,316,0,0,0,0,0,0,0,0,0,-1,1063,708,0,0
-154,316,0,0,0,0,0,0,0,0,0,-1,1070,708,0,0
-147,316,0,0,0,0,0,0,0,0,0,-1,1077,708,0,0
-140,316,0,0,0,0,0,0,0,0,0,-1,1084,708,0,0
-133,316,0,0,0,0,0,0,0,0,0,-1,1091,708,0,0
-126,316,0,0,0,0,0,0,0,0,0,-1,1098,708,0,0
-119,316,0,0,0,0,0,0,0,0,0,-1,1105,708,0,0
-112,316,0,0,0,0,0,0,0,0,0,-1,1112,708,0,0
-105,316,0,0,0,0,0,0,0,0,0,-1,1119,708,0,0
-98,316,0,0,0,0,0,0,0,0,0,-1,1126,708,0,0
-91,316,0,0,0,0,0,0,0,0,0,-1,1133,708,0,0
-84,316,0,0,0,0,0,0,0,0,0,-1,1140,708,0,0
-77,316,0,0,0,0,0,0,0,0,0,-1,1147,708,0,0
-70,316,0,0,0,0,0,0,0,0,0,-1,1154,708,0,0
-63,316,0,0,0,0,0,0,0,0,0,-1,1161,708,0,0
-56,316,0,0,0,0,0,0,0,0,0,-1,1168,708,0,0
-49,316,0,0,0,0,0,0,0,0,0,-1,1175,708,0,0
-42,316,0,0,0,0,0,0,0,0,0,-1,1182,708,0,0
-35,316,0,0,0,0,0,0,0,0,0,-1,1189,708,0,0
-28,316,0,0,0,0,0,0,0,0,0,-1,1196,708,0,0
-21,316,0,0,0,0,0,0,0,0,0,-1,1203,708,0,0
-14,316,0,0,0,0,0,0,0,0,0,-1,1210,708,0,0
-7,316,0,0,0,0,0,0,0,0,0,-1,1217,708,0,0
0,316,0,0,0,0,0,0,0,0,0,-1,1224,708,0,0
7,316,0,0,0,0,0,0,0,0,0,-1,1231,708,0,0
14,316,0,0,0,0,0,0,0,0,0,-1,1238,708,0,0
21,316,0,0,0,0,0,0,0,0,0,-1,1245,708,0,0
28,316,0,0,0,0,0,0,0,0,0,-1,1252,708,0,0
35,316,0,0,0,0,0,0,0,0,0,-1,1259,708,0,0
42,316,0,0,0,0,0,0,0,0,0,-1,1266,708,0,0
49,316,0,0,0,0,0,0,0,0,0,-1,1273,708,0,0
56,316,0,0,0,0,0,0,0,0,0,-1,1280,708,0,0
63,316,0,0,0,0,0,0,0,0,0,-1,1287,708,0,0
70,316,0,0,0,0,0,0,0,0,0,-1,1294,708,0,0
77,316,0,0,0,0,0,0,0,0,0,-1,1301,708,0,0
84,316,0,0,0,0,0,0,0,0,0,-1,1308,708,0,0
91,316,0,0,0,0,0,0,0,0,0,-1,1315,708,0,0
98,316,0,0,0,0,0,0,0,0,0,-1,1322,708,0,0
105,316,0,0,0,0,0,0,0,0,0,-1,1329,708,0,0
112,316,0,0,0,0,0,0,0,0,0,-1,1336,708,0,0
119,316,0,0,0,0,0,0,0,0,0,-1,1343,708,0,0
126,316,0,0,0,0,0,0,0,0,0,-1,1350,708,0,0
133,316,0,0,0,0,0,0,0,0,0,-1,1357,708,0,0
140,316,0,0,0,0,0,0,0,0,0,-1,1364,708,0,0
147,316,0,0,0,0,0,0,0,0,0,-1,1371,708,0,0
154,316,0,0,0,0,0,0,0,0,0,-1,1378,708,0,0
161,316,0,0,0,0,0,0,0,0,0,-1,1385,708,0,0
168,316,0,0,0,0,0,0,0,0,0,-1,1392,708,0,0
175,316,0,0,0,0,0,0,0,0,0,-1,1399,708,0,0
182,316,0,0,0,0,0,0,0,0,0,-1,1406,708,0,0
189,316,0,0,0,0,0,0,0,0,0,-1,1413,708,0,0
196,316,0,0,0,0,0,0,0,0,0,-1,1420,708,0,0
203,316,0,0,0,0,0,0,0,0,0,-1,1427,708,0,0
210,316,0,0,0,0,0,0,0,0,0,-1,1434,708,0,0
217,316,0,0,0,0,0,0,0,0,0,-1,1441,708,0,0
224,316,0,0,0,0,0,0,0,0,0,-1,1448,708,0,0
231,316,0,0,0,0,0,0,0,0,0,-1,1455,708,0,0
238,316,0,0,0,0,0,0,0,0,0,-1,1462,708,0,0
245,316,0,0,0,0,0,0,0,0,0,-1,1469,708,0,0
252,316,0,0,0,0,0,0,0,0,0,-1,1476,708,0,0
259,316,0,0,0,0,0,0,0,0,0,-1,1483,708,0,0
266,316,0,0,0,0,0,0,0,0,0,-1,1490,708,0,0
273,316,0,0,0,0,0,0,0,0,0,-1,1497,708,0,0
280,316,0,0,0,0,0,0,0,0,0,-1,1504,708,0,0
287,316,0,0,0,0,0,0,0,0,0,-1,1511,708,0,0
294,316,0,0,0,0,0,0,0,0,0,-1,1518,708,0,0
301,316,0,0,0,0,0,0,0,0,0,-1,1525,708,0,0
308,316,0,0,0,0,0,0,0,0,0,-1,1532,708,0,0
315,316,0,0,0,0,0,0,0,0,0,-1,1539,708,0,0
322,316,0,0,0,0,0,0,0,0,0,-1,1546,708,0,0
329,316,0,0,0,0,0,0,0,0,0,-1,1553,708,0,0
336,316,0,0,0,0,0,0,0,0,0,-1,1560,708,0,0
343,316,0,0,0,0,0,0,0,0,0,-1,1567,708,0,0
350,316,0,0,0,0,0,0,0,0,0,-1,1574,708,0,0
357,316,0,0,0,0,0,0,0,0,0,-1,1581,708,0,0
364,316,0,0,0,0,0,0,0,0,0,-1,1588,708,0,0
371,316,0,0,0,0,0,0,0,0,0,-1,1595,708,0,0
378,316,0,0,0,0,0,0,0,0,0,-1,1602,708,0,0
385,316,0,0,0,0,0,0,0,0,0,-1,1609,708,0,0
392,316,0,0,0,0,0,0,0,0,0,-1,1616,708,0,0
399,316,0,0,0,0,0,0,0,0,0,-1,1623,708,0,0
406,316,0,0,0,0,0,0,0,0,0,-1,1630,708,0,0
413,316,0,0,0,0,0,0,0,0,0,-1,1637,708,0,0
420,316,0,0,0,0,0,0,0,0,0,-1,1644,708,0,0
427,316,0,0,0,0,0,0,0,0,0,-1,1651,708,0,0
434,316,0,0,0,0,0,0,0,0,0,-1,1658,708,0,0
441,316,0,0,0,0,0,0,0,0,0,-1,1665,708,0,0
448,316,0,0,0,0,0,0,0,0,0,-1,1672,708,0,0
455,316,0,0,0,0,0,0,0,0,0,-1,1679,708,0,0
462,316,0,0,0,0,0,0,0,0,0,-1,1686,708,0,0
469,316,0,0,0,0,0,0,0,0,0,-1,1693,708,0,0
476,316,0,0,0,0,0,0,0,0,0,-1,1700,708,0,0
483,316,0,0,0,0,0,0,0,0,0,-1,1707,708,0,0
490,316,0,0,0,0,0,0,0,0,0,-1,1714,708,0,0
497,316,0,0,0,0,0,0,0,0,0,-1,1721,708,0,0
504,316,0,0,0,0,0,0,0,0,0,-1,1728,708,0,0
511,316,0,0,0,0,0,0,0,0,0,-1,1735,708,0,0
518,316,0,0,0,0,0,0,0,0,0,-1,1742,708,0,0
525,316,0,0,0,0,0,0,0,0,0,-1,1749,708,0,0
532,316,10.3436,-0.608643,-0.0638495,-0.00235463,0.0389531,0.016524,-0.0827281,1.1195,0.0614057,0.0465315,1756,708,10.3436,0.608669
539,316,9.91455,-0.146545,-0.0454228,-0.0076721,0.0333662,0.0117877,-0.0648826,1.04281,0.0476726,0.0466227,1763,708,9.91451,0.146525
546,316,9.86707,0.541626,0,0,0,0,0,0,0,-1,1770,708,9.86713,-0.541614
553,316,11.6592,1.5658,0,0,0,0,0,0,0,-1,1777,708,11.6592,-1.56578
560,316,11.4229,2.60547,0,0,0,0,0,0,0,-1,1784,708,11.4228,-2.60545
567,316,12.005,0.892395,0.00559177,-0.0184519,0.00892679,0.00854365,-0.0214038,0.319357,0.0178136,0.0425992,1791,708,12.005,-0.892384
574,316,12.3625,-0.164124,0.00838606,-0.017971,0.00474937,0.00921575,-0.0188007,0.172949,0.0164878,0.0452635,1798,708,12.3625,0.164151
581,316,12.8071,-1.15674,0,0,0,0,0,0,0,-1,1805,708,12.8071,1.15673
588,316,9.43494,0.86853,0,0,0,0,0,0,0,-1,1812,708,9.43494,-0.868527
595,316,7.9762,1.88098,0,0,0,0,0,0,0,-1,1819,708,7.97621,-1.88095
602,316,6.32458,0.0543213,0,0,0,0,0,0,0,-1,1826,708,6.32458,-0.0542979
609,316,6.41162,0.0526733,0.00258514,-0.0106264,-0.00587176,0.00481757,-0.0128589,-0.363319,0.0105516,0.0435338,1833,708,6.41162,-0.0526436
616,316,6.48523,0.0367432,-0.000893483,-0.00930704,-0.00633352,0.00250306,-0.0127036,-0.492249,0.00941498,0.0143288,1840,708,6.48526,-0.0367626
623,316,6.49963,0.152222,-0.00345458,-0.00708368,-0.00599684,0.000996226,-0.0115345,-0.638485,0.00804233,0.010026,1847,708,6.49957,-0.152226
630,316,6.49219,0.248535,-0.00463074,-0.00451978,-0.00465964,8.47103e-05,-0.00923524,-0.791351,0.00618526,0.0114143,1854,708,6.49225,-0.248523
637,316,6.50049,0.36908,-0.00396919,-0.00328276,-0.00376644,0.000156062,-0.00740802,-0.830835,0.00499151,0.0111654,1861,708,6.50055,-0.369107
644,316,6.52002,0.474121,-0.00289753,-0.00240799,-0.0032258,0.000582309,-0.00588783,-0.823265,0.00413302,0.0112498,1868,708,6.52006,-0.474147
651,316,6.47815,0.585266,-0.000912553,-0.00179638,-0.00280304,0.00148319,-0.00419213,-0.707214,0.00339879,0.0115646,1875,708,6.47813,-0.585274
658,316,6.42749,0.692444,0.00185265,-0.00076937,-0.00255498,0.00341334,-0.00233006,-0.548355,0.00333556,0.0159966,1882,708,6.42743,-0.692448
665,316,6.45984,0.779785,0.00472492,-0.00043452,-0.00248464,0.00572687,-0.00143648,-0.383313,0.00437605,0.0134232,1889,708,6.45988,-0.779816
672,316,6.48657,0.864929,0.00822987,0.000232678,-0.00293015,0.00918855,-0.000725997,-0.316199,0.00638148,0.0115029,1896,708,6.4866,-0.86495
679,316,6.47961,0.97345,0.0124947,0.000524069,-0.00358829,0.0134879,-0.000469144,-0.270032,0.00915232,0.0170077,1903,708,6.47955,-0.973458
686,316,6.43628,0.977173,0.017661,0.000249983,-0.00447773,0.0187451,-0.00083409,-0.237533,0.0127839,0.0293049,1910,708,6.43627,-0.977196
693,316,6.53442,0.80127,0.0239771,8.84789e-05,-0.00548456,0.0251761,-0.00111053,-0.21523,0.0171662,0.04496,1917,708,6.53447,-0.801262
700,316,6.59924,0.748474,0.0317589,-0.000479721,-0.00668763,0.0330911,-0.00181196,-0.196635,0.0226889,0.0483796,1924,708,6.59929,-0.748473
707,316,7.62549,0.185547,0.0410973,-0.00179575,-0.00817205,0.0426015,-0.00329995,-0.182029,0.0295624,0.0465841,1931,708,7.62549,-0.185526
714,316,7.54797,0.472717,0,0,0,0,0,0,0,-1,1938,708,7.54803,-0.472718
721,316,6.56189,0.0825195,0,0,0,0,0,0,0,-1,1945,708,6.56186,-0.082521
728,316,0,0,0,0,0,0,0,0,0,-1,1952,708,0,0
735,316,0,0,0,0,0,0,0,0,0,-1,1959,708,0,0
742,316,0,0,0,0,0,0,0,0,0,-1,1966,708,0,0
749,316,0,0,0,0,0,0,0,0,0,-1,1973,708,0,0
756,316,0,0,0,0,0,0,0,0,0,-1,1980,708,0,0
763,316,0,0,0,0,0,0,0,0,0,-1,1987,708,0,0
770,316,0,0,0,0,0,0,0,0,0,-1,1994,708,0,0
777,316,0,0,0,0,0,0,0,0,0,-1,2001,708,0,0
784,316,0,0,0,0,0,0,0,0,0,-1,2008,708,0,0
791,316,0,0,0,0,0,0,0,0,0,-1,2015,708,0,0
798,316,0,0,0,0,0,0,0,0,0,-1,2022,708,0,0
805,316,0,0,0,0,0,0,0,0,0,-1,2029,708,0,0
812,316,0,0,0,0,0,0,0,0,0,-1,2036,708,0,0
-700,309,0,0,0,0,0,0,0,0,0,-1,524,715,0,0
-693,309,0,0,0,0,0,0,0,0,0,-1,531,715,0,0
-686,309,0,0,0,0,0,0,0,0,0,-1,538,715,0,0
-679,309,0,0,0,0,0,0,0,0,0,-1,545,715,0,0
-672,309,0,0,0,0,0,0,0,0,0,-1,552,715,0,0
-665,309,0,0,0,0,0,0,0,0,0,-1,559,715,0,0
-658,309,0,0,0,0,0,0,0,0,0,-1,566,715,0,0
-651,309,0,0,0,0,0,0,0,0,0,-1,573,715,0,0
-644,309,0,0,0,0,0,0,0,0,0,-1,580,715,0,0
-637,309,0,0,0,0,0,0,0,0,0,-1,587,715,0,0
-630,309,0,0,0,0,0,0,0,0,0,-1,594,715,0,0
-623,309,0,0,0,0,0,0,0,0,0,-1,601,715,0,0
-616,309,0,0,0,0,0,0,0,0,0,-1,608,715,0,0
-609,309,0.27594,-0.578979,0,0,0,0,0,0,0,-1,615,715,0.275949,0.578977
-602,309,0.321167,-0.460144,0,0,0,0,0,0,0,-1,622,715,0.321143,0.460151
-595,309,0.297302,-0.247131,0.00289563,0.0247293,0.00518648,0.0258987,0.00172624,1.34904,0.0167201,0.0473304,629,715,0.29732,0.247106
-588,309,0.369812,-0.052124,0.0014726,0.0226848,0.00256582,0.0229907,0.00116665,1.45212,0.0149535,0.0474545,636,715,0.369803,0.0521043
-581,309,0.138184,0.0494385,0.000545071,0.0192924,0.000788207,0.0193255,0.000511991,1.52885,0.0127164,0.048065,643,715,0.138199,-0.0494274
-574,309,-0.304077,0.277771,-2.82866e-05,0.0154655,-0.000272349,0.0154702,-3.30731e-05,-1.55323,0.0103245,0.0468937,650,715,-0.304047,-0.277741
-567,309,-0.815063,0.437866,-0.000484894,0.0119462,-0.000687747,0.0119841,-0.000522828,-1.5157,0.00816928,0.0422025,657,715,-0.815077,-0.43784
-560,309,-1.39722,0.27594,-0.000614048,0.00858249,-0.000782779,0.00864864,-0.0006802,-1.48649,0.00600535,0.038353,664,715,-1.39719,-0.275916
-553,309,-1.67981,0.34491,-0.000580024,0.00600976,-0.000583516,0.00606103,-0.000631294,-1.48316,0.00426671,0.0234407,671,715,-1.67982,-0.344937
-546,309,-1.69635,0.25885,-0.000554479,0.0038158,-0.000296225,0.00383578,-0.000574466,-1.50343,0.00276862,0.0140507,678,715,-1.69636,-0.258844
-539,309,-1.69409,0.132568,-0.000507349,0.00194308,1.86308e-05,0.00194322,-0.00050749,1.56319,0.00149367,0.0135218,685,715,-1.69411,-0.13259
-532,309,-1.69501,0.0531616,-0.000289378,0.000356147,0.00067561,0.000782133,-0.000715364,1.00824,0.000864867,0.011302,692,715,-1.69499,-0.0531541
-525,309,-1.71301,-0.0180664,-0.000398669,-0.000465069,0.00174334,0.00131178,-0.00217552,0.775877,0.00203388,0.0145321,699,715,-1.71299,0.0180883
-518,309,-1.71887,-0.130981,-0.000699767,-0.00146711,0.00333181,0.00227039,-0.00443726,0.728073,0.00393945,0.0144982,706,715,-1.71888,0.130957
-511,309,-1.70343,-0.229431,-0.00199781,-0.00180371,0.0055559,0.00365599,-0.00745751,0.794131,0.00654031,0.0117606,713,715,-1.70345,0.229414
-504,309,-1.67938,-0.319519,-0.00327663,-0.00275014,0.00737952,0.00437083,-0.0103976,0.803227,0.00876002,0.00940471,720,715,-1.67939,0.319518
-497,309,-1.6795,-0.42395,-0.00449864,-0.00327255,0.00988702,0.00602041,-0.0137916,0.816361,0.0117281,0.0128238,727,715,-1.67949,0.423924
-490,309,-1.66486,-0.519714,-0.00647396,-0.00411127,0.0128482,0.00760979,-0.018195,0.831242,0.0153105,0.015916,734,715,-1.66485,0.519705
-483,309,-1.54877,-0.433105,-0.00897925,-0.00494307,0.0162913,0.00945466,-0.023377,0.847022,0.0195152,0.0306855,741,715,-1.54875,0.433119
-476,309,-1.54016,-0.164612,-0.0124578,-0.00576369,0.020215,0.0113795,-0.029601,0.86744,0.0244273,0.03957,748,715,-1.54017,0.164639
-469,309,-1.98303,-0.221497,-0.0164419,-0.00663864,0.0242868,0.0132362,-0.0363167,0.884972,0.0296258,0.0487142,755,715,-1.98301,0.221506
-462,309,-2.09521,-0.0324097,-0.0203264,-0.0090789,0.0273644,0.0132337,-0.042639,0.886744,0.0337143,0.0470524,762,715,-2.09523,0.0323947
-455,309,-1.81451,0.241882,0,0,0,0,0,0,0,-1,769,715,-1.81452,-0.241859
-448,309,-5.20715,1.35938,0,0,0,0,0,0,0,-1,776,715,-5.20715,-1.35938
-441,309,-5.60565,2.03284,0,0,0,0,0,0,0,-1,783,715,-5.60565,-2.03282
-434,309,-5.70575,2.19415,0,0,0,0,0,0,0,-1,790,715,-5.70574,-2.19418
-427,309,-6.35211,3.43561,0,0,0,0,0,0,0,-1,797,715,-6.35212,-3.43559
-420,309,-6.9024,3.86926,0,0,0,0,0,0,0,-1,804,715,-6.90238,-3.86926
-413,309,0,0,0,0,0,0,0,0,0,-1,811,715,0,0
-406,309,0,0,0,0,0,0,0,0,0,-1,818,715,0,0
-399,309,0,0,0,0,0,0,0,0,0,-1,825,715,0,0
-392,309,0,0,0,0,0,0,0,0,0,-1,832,715,0,0
-385,309,0,0,0,0,0,0,0,0,0,-1,839,715,0,0
-378,309,0,0,0,0,0,0,0,0,0,-1,846,715,0,0
-371,309,0,0,0,0,0,0,0,0,0,-1,853,715,0,0
-364,309,0,0,0,0,0,0,0,0,0,-1,860,715,0,0
-357,309,0,0,0,0,0,0,0,0,0,-1,867,715,0,0
-350,309,0,0,0,0,0,0,0,0,0,-1,874,715,0,0
-343,309,0,0,0,0,0,0,0,0,0,-1,881,715,0,0
-336,309,0,0,0,0,0,0,0,0,0,-1,888,715,0,0
-329,309,0,0,0,0,0,0,0,0,0,-1,895,715,0,0
-322,309,0,0,0,0,0,0,0,0,0,-1,902,715,0,0
-315,309,0,0,0,0,0,0,0,0,0,-1,909,715,0,0
-308,309,0,0,0,0,0,0,0,0,0,-1,916,715,0,0
-301,309,0,0,0,0,0,0,0,0,0,-1,923,715,0,0
-294,309,0,0,0,0,0,0,0,0,0,-1,930,715,0,0
-287,309,0,0,0,0,0,0,0,0,0,-1,937,715,0,0
-280,309,0,0,0,0,0,0,0,0,0,-1,944,715,0,0
-273,309,0,0,0,0,0,0,0,0,0,-1,951,715,0,0
-266,309,0,0,0,0,0,0,0,0,0,-1,958,715,0,0
-259,309,0,0,0,0,0,0,0,0,0,-1,965,715,0,0
-252,309,0,0,0,0,0,0,0,0,0,-1,972,715,0,0
-245,309,0,0,0,0,0,0,0,0,0,-1,979,715,0,0
-238,309,0,0,0,0,0,0,0,0,0,-1,986,715,0,0
-231,309,0,0,0,0,0,0,0,0,0,-1,993,715,0,0
-224,309,0,0,0,0,0,0,0,0,0,-1,1000,715,0,0
-217,309,0,0,0,0,0,0,0,0,0,-1,1007,715,0,0
-210,309,0,0,0,0,0,0,0,0,0,-1,1014,715,0,0
-203,309,0,0,0,0,0,0,0,0,0,-1,1021,715,0,0
-196,309,0,0,0,0,0,0,0,0,0,-1,1028,715,0,0
-189,309,0,0,0,0,0,0,0,0,0,-1,1035,715,0,0
-182,309,0,0,0,0,0,0,0,0,0,-1,1042,715,0,0
-175,309,0,0,0,0,0,0,0,0,0,-1,1049,715,0,0
-168,309,0,0,0,0,0,0,0,0,0,-1,1056,715,0,0
-161,309,0,0,0,0,0,0,0,0,0,-1,1063,715,0,0
-154,309,0,0,0,0,0,0,0,0,0,-1,1070,715,0,0
-147,309,0,0,0,0,0,0,0,0,0,-1,1077,715,0,0
-140,309,0,0,0,0,0,0,0,0,0,-1,1084,715,0,0
-133,309,0,0,0,0,0,0,0,0,0,-1,1091,715,0,0
-126,309,0,0,0,0,0,0,0,0,0,-1,1098,715,0,0
-119,309,0,0,0,0,0,0,0,0,0,-1,1105,715,0,0
-112,309,0,0,0,0,0,0,0,0,0,-1,1112,715,0,0
-105,309,0,0,0,0,0,0,0,0,0,-1,1119,715,0,0
-98,309,0,0,0,0,0,0,0,0,0,-1,1126,715,0,0
-91,309,0,0,0,0,0,0,0,0,0,-1,1133,715,0,0
-84,309,0,0,0,0,0,0,0,0,0,-1,1140,715,0,0
-77,309,0,0,0,0,0,0,0,0,0,-1,1147,715,0,0
-70,309,0,0,0,0,0,0,0,0,0,-1,1154,715,0,0
-63,309,0,0,0,0,0,0,0,0,0,-1,1161,715,0,0
-56,309,0,0,0,0,0,0,0,0,0,-1,1168,715,0,0
-49,309,0,0,0,0,0,0,0,0,0,-1,1175,715,0,0
-42,309,0,0,0,0,0,0,0,0,0,-1,1182,715,0,0
-35,309,0,0,0,0,0,0,0,0,0,-1,1189,715,0,0
-28,309,0,0,0,0,0,0,0,0,0,-1,1196,715,0,0
-21,309,0,0,0,0,0,0,0,0,0,-1,1203,715,0,0
-14,309,0,0,0,0,0,0,0,0,0,-1,1210,715,0,0
-7,309,0,0,0,0,0,0,0,0,0,-1,1217,715,0,0
0,309,0,0,0,0,0,0,0,0,0,-1,1224,715,0,0
7,309,0,0,0,0,0,0,0,0,0,-1,1231,715,0,0
14,309,0,0,0,0,0,0,0,0,0,-1,1238,715,0,0
21,309,0,0,0,0,0,0,0,0,0,-1,1245,715,0,0
28,309,0,0,0,0,0,0,0,0,0,-1,1252,715,0,0
35,309,0,0,0,0,0,0,0,0,0,-1,1259,715,0,0
42,309,0,0,0,0,0,0,0,0,0,-1,1266,715,0,0
49,309,0,0,0,0,0,0,0,0,0,-1,1273,715,0,0
56,309,0,0,0,0,0,0,0,0,0,-1,1280,715,0,0
63,309,0,0,0,0,0,0,0,0,0,-1,1287,715,0,0
70,309,0,0,0,0,0,0,0,0,0,-1,1294,715,0,0
77,309,0,0,0,0,0,0,0,0,0,-1,1301,715,0,0
84,309,0,0,0,0,0,0,0,0,0,-1,1308,715,0,0
91,309,0,0,0,0,0,0,0,0,0,-1,1315,715,0,0
98,309,0,0,0,0,0,0,0,0,0,-1,1322,715,0,0
105,309,0,0,0,0,0,0,0,0,0,-1,1329,715,0,0
112,309,0,0,0,0,0,0,0,0,0,-1,1336,715,0,0
119,309,0,0,0,0,0,0,0,0,0,-1,1343,715,0,0
126,309,0,0,0,0,0,0,0,0,0,-1,1350,715,0,0
133,309,0,0,0,0,0,0,0,0,0,-1,1357,715,0,0
140,309,0,0,0,0,0,0,0,0,0,-1,1364,715,0,0
147,309,0,0,0,0,0,0,0,0,0,-1,1371,715,0,0
154,309,0,0,0,0,0,0,0,0,0,-1,1378,715,0,0
161,309,0,0,0,0,0,0,0,0,0,-1,1385,715,0,0
168,309,0,0,0,0,0,0,0,0,0,-1,1392,715,0,0
175,309,0,0,0,0,0,0,0,0,0,-1,1399,715,0,0
182,309,0,0,0,0,0,0,0,0,0,-1,1406,715,0,0
189,309,0,0,0,0,0,0,0,0,0,-1,1413,715,0,0
196,309,0,0,0,0,0,0,0,0,0,-1,1420,715,0,0
203,309,0,0,0,0,0,0,0,0,0,-1,1427,715,0,0
210,309,0,0,0,0,0,0,0,0,0,-1,1434,715,0,0
217,309,0,0,0,0,0,0,0,0,0,-1,1441,715,0,0
224,309,0,0,0,0,0,0,0,0,0,-1,1448,715,0,0
231,309,0,0,0,0,0,0,0,0,0,-1,1455,715,0,0
238,309,0,0,0,0,0,0,0,0,0,-1,1462,715,0,0
245,309,0,0,0,0,0,0,0,0,0,-1,1469,715,0,0
252,309,0,0,0,0,0,0,0,0,0,-1,1476,715,0,0
259,309,0,0,0,0,0,0,0,0,0,-1,1483,715,0,0
266,309,0,0,0,0,0,0,0,0,0,-1,1490,715,0,0
273,309,0,0,0,0,0,0,0,0,0,-1,1497,715,0,0
280,309,0,0,0,0,0,0,0,0,0,-1,1504,715,0,0
287,309,0,0,0,0,0,0,0,0,0,-1,1511,715,0,0
294,309,0,0,0,0,0,0,0,0,0,-1,1518,715,0,0
301,309,0,0,0,0,0,0,0,0,0,-1,1525,715,0,0
308,309,0,0,0,0,0,0,0,0,0,-1,1532,715,0,0
315,309,0,0,0,0,0,0,0,0,0,-1,1539,715,0,0
322,309,0,0,0,0,0,0,0,0,0,-1,1546,715,0,0
329,309,0,0,0,0,0,0,0,0,0,-1,1553,715,0,0
336,309,0,0,0,0,0,0,0,0,0,-1,1560,715,0,0
343,309,0,0,0,0,0,0,0,0,0,-1,1567,715,0,0
350,309,0,0,0,0,0,0,0,0,0,-1,1574,715,0,0
357,309,0,0,0,0,0,0,0,0,0,-1,1581,715,0,0
364,309,0,0,0,0,0,0,0,0,0,-1,1588,715,0,0
371,309,0,0,0,0,0,0,0,0,0,-1,1595,715,0,0
378,309,0,0,0,0,0,0,0,0,0,-1,1602,715,0,0
385,309,0,0,0,0,0,0,0,0,0,-1,1609,715,0,0
392,309,0,0,0,0,0,0,0,0,0,-1,1616,715,0,0
399,309,0,0,0,0,0,0,0,0,0,-1,1623,715,0,0
406,309,0,0,0,0,0,0,0,0,0,-1,1630,715,0,0
413,309,0,0,0,0,0,0,0,0,0,-1,1637,715,0,0
420,309,0,0,0,0,0,0,0,0,0,-1,1644,715,0,0
427,309,0,0,0,0,0,0,0,0,0,-1,1651,715,0,0
434,309,0,0,0,0,0,0,0,0,0,-1,1658,715,0,0
441,309,0,0,0,0,0,0,0,0,0,-1,1665,715,0,0
448,309,0,0,0,0,0,0,0,0,0,-1,1672,715,0,0
455,309,0,0,0,0,0,0,0,0,0,-1,1679,715,0,0
462,309,0,0,0,0,0,0,0,0,0,-1,1686,715,0,0
469,309,0,0,0,0,0,0,0,0,0,-1,1693,715,0,0
476,309,0,0,0,0,0,0,0,0,0,-1,1700,715,0,0
483,309,0,0,0,0,0,0,0,0,0,-1,1707,715,0,0
490,309,0,0,0,0,0,0,0,0,0,-1,1714,715,0,0
497,309,0,0,0,0,0,0,0,0,0,-1,1721,715,0,0
504,309,0,0,0,0,0,0,0,0,0,-1,1728,715,0,0
511,309,0,0,0,0,0,0,0,0,0,-1,1735,715,0,0
518,309,0,0,0,0,0,0,0,0,0,-1,1742,715,0,0
525,309,0,0,0,0,0,0,0,0,0,-1,1749,715,0,0
532,309,0,0,0,0,0,0,0,0,0,-1,1756,715,0,0
539,309,10.1228,-0.0421753,-0.0383186,-0.00440631,0.0320145,0.0148651,-0.05759,1.02894,0.0441898,0.0458732,1763,715,10.1228,0.0421675
546,309,9.93848,0.775269,-0.0201075,-0.0105651,0.0255169,0.0106228,-0.0412954,0.877822,0.0316707,0.0445128,1770,715,9.93842,-0.775293
553,309,9.58606,1.64539,0,0,0,0,0,0,0,-1,1777,715,9.58603,-1.64539
560,309,10.7462,2.24481,0.0074813,-0.0176932,0.0136257,0.0134439,-0.0236558,0.412496,0.0216883,0.0452973,1784,715,10.7463,-2.24478
567,309,11.3131,1.43414,0.0133927,-0.018685,0.00880264,0.0156495,-0.0209418,0.250974,0.0211995,0.0440844,1791,715,11.3132,-1.43414
574,309,11.7518,0.421875,0.015363,-0.0189049,0.00498065,0.0160722,-0.0196142,0.141446,0.0206373,0.0415171,1798,715,11.7518,-0.421873
581,309,12.3674,-0.591125,0,0,0,0,0,0,0,-1,1805,715,12.3674,0.591139
588,309,9.36389,1.89374,0,0,0,0,0,0,0,-1,1812,715,9.3639,-1.89374
595,309,8.28943,2.20905,0,0,0,0,0,0,0,-1,1819,715,8.28941,-2.20907
602,309,6.60376,-0.267273,0,0,0,0,0,0,0,-1,1826,715,6.6038,0.267262
609,309,6.60449,-0.117371,0.00640601,-0.0132917,-0.00502634,0.00761446,-0.0145002,-0.235946,0.0129725,0.0454007,1833,715,6.60449,0.117379
616,309,6.5968,0.0233765,0.00208914,-0.0121887,-0.00562605,0.00403959,-0.0141392,-0.333716,0.0110222,0.019593,1840,715,6.59684,-0.0233521
623,309,6.5896,0.156311,-0.00155599,-0.00976129,-0.00544394,0.00115812,-0.0124754,-0.462492,0.00872862,0.0099884,1847,715,6.58956,-0.156298
630,309,6.56799,0.248474,-0.00395065,-0.00666781,-0.00437847,-0.000724833,-0.00989363,-0.634965,0.00636791,0.00960308,1854,715,6.56801,-0.248467
637,309,6.5531,0.352539,-0.00411943,-0.00487585,-0.00360574,-0.000872113,-0.00812316,-0.733144,0.00514941,0.0124045,1861,715,6.55315,-0.352537
644,309,6.57703,0.471436,-0.00355951,-0.00347787,-0.00302268,-0.000495739,-0.00654164,-0.79215,0.0042056,0.0139344,1868,715,6.57698,-0.471417
651,309,6.59656,0.576904,-0.00184315,-0.00250337,-0.00252863,0.000376824,-0.00472335,-0.720491,0.00328173,0.0134275,1875,715,6.59656,-0.576879
658,309,6.57507,0.678162,0.000775565,-0.00125542,-0.00208356,0.00207793,-0.00255779,-0.558646,0.00268121,0.0182044,1882,715,6.57507,-0.678185
665,309,6.6001,0.780396,0.00348396,-0.000760071,-0.00189946,0.00420991,-0.00148602,-0.365057,0.00341159,0.0154515,1889,715,6.60012,-0.78039
672,309,6.59778,0.86261,0.00680215,-0.000103194,-0.00215585,0.00741994,-0.000720981,-0.279084,0.00520363,0.0134211,1896,715,6.59775,-0.862631
679,309,6.5929,0.979126,0.0107303,-0.000120041,-0.00267271,0.0113529,-0.000742669,-0.228875,0.00782792,0.0143316,1903,715,6.59294,-0.979103
686,309,6.56641,1.0813,0.0152999,-0.00088195,-0.00348425,0.0160182,-0.00160028,-0.203318,0.0112502,0.0195112,1910,715,6.56637,-1.08132
693,309,6.51428,1.21399,0.0207967,-0.00173792,-0.00451553,0.0216679,-0.00260907,-0.190582,0.0153888,0.0323166,1917,715,6.51433,-1.21402
700,309,6.505,1.36993,0.0276388,-0.00327299,-0.00588625,0.0287218,-0.00435591,-0.181941,0.0207528,0.0481418,1924,715,6.50501,-1.36992
707,309,7.66089,-0.638184,0,0,0,0,0,0,0,-1,1931,715,7.66086,0.63817
714,309,6.63794,0.807373,0.0458829,-0.0102001,-0.0101837,0.0476748,-0.0119921,-0.174177,0.0364443,0.0480546,1938,715,6.63792,-0.807399
721,309,6.77429,0.942871,0,0,0,0,0,0,0,-1,1945,715,6.77427,-0.942845
728,309,0,0,0,0,0,0,0,0,0,-1,1952,715,0,0
735,309,0,0,0,0,0,0,0,0,0,-1,1959,715,0,0
742,309,0,0,0,0,0,0,0,0,0,-1,1966,715,0,0
749,309,0,0,0,0,0,0,0,0,0,-1,1973,715,0,0
756,309,0,0,0,0,0,0,0,0,0,-1,1980,715,0,0
763,309,0,0,0,0,0,0,0,0,0,-1,1987,715,0,0
770,309,0,0,0,0,0,0,0,0,0,-1,1994,715,0,0
777,309,0,0,0,0,0,0,0,0,0,-1,2001,715,0,0
784,309,0,0,0,0,0,0,0,0,0,-1,2008,715,0,0
791,309,0,0,0,0,0,0,0,0,0,-1,2015,715,0,0
798,309,0,0,0,0,0,0,0,0,0,-1,2022,715,0,0
805,309,0,0,0,0,0,0,0,0,0,-1,2029,715,0,0
812,309,0,0,0,0,0,0,0,0,0,-1,2036,715,0,0
-700,302,0,0,0,0,0,0,0,0,0,-1,524,722,0,0
-693,302,0,0,0,0,0,0,0,0,0,-1,531,722,0,0
-686,302,0,0,0,0,0,0,0,0,0,-1,538,722,0,0
-679,302,0,0,0,0,0,0,0,0,0,-1,545,722,0,0
-672,302,0,0,0,0,0,0,0,0,0,-1,552,722,0,0
-665,302,0,0,0,0,0,0,0,0,0,-1,559,722,0,0
-658,302,0,0,0,0,0,0,0,0,0,-1,566,722,0,0
-651,302,0,0,0,0,0,0,0,0,0,-1,573,722,0,0
-644,302,0,0,0,0,0,0,0,0,0,-1,580,722,0,0
-637,302,0,0,0,0,0,0,0,0,0,-1,587,722,0,0
-630,302,0,0,0,0,0,0,0,0,0,-1,594,722,0,0
-623,302,0,0,0,0,0,0,0,0,0,-1,601,722,0,0
-616,302,0,0,0,0,0,0,0,0,0,-1,608,722,0,0
-609,302,0.593811,-0.605896,0,0,0,0,0,0,0,-1,615,722,0.593824,0.605921
-602,302,0.75415,-0.391907,0,0,0,0,0,0,0,-1,622,722,0.754165,0.391921
-595,302,0.222717,-0.633911,0,0,0,0,0,0,0,-1,629,722,0.222742,0.633935
-588,302,0.292542,-0.43103,0,0,0,0,0,0,0,-1,636,722,0.292514,0.431028
-581,302,-0.159607,-0.21344,-0.00166963,0.0160226,0.00137977,0.0161295,-0.00177659,1.49343,0.0113915,0.04561,643,722,-0.159619,0.213436
-574,302,-0.516235,-0.0341797,-0.00213724,0.0131375,0.000378029,0.0131468,-0.00214659,1.54607,0.00956075,0.0441396,650,722,-0.516246,0.0341736
-567,302,-1.14001,0.278992,-0.00232407,0.0105046,-0.000147783,0.0105063,-0.00232577,-1.55928,0.00789448,0.0407215,657,722,-1.14001,-0.278982
-560,302,-1.65668,0.324097,-0.00204783,0.00779786,-0.000475592,0.00782078,-0.00207075,-1.52264,0.00602393,0.0315754,664,722,-1.65669,-0.32411
-553,302,-1.79382,0.343567,-0.00161782,0.00575916,-0.000479232,0.00579016,-0.00164882,-1.5062,0.0045113,0.0147682,671,722,-1.79384,-0.343573
-546,302,-1.79175,0.214844,-0.0012771,0.00392413,-0.000311395,0.00394271,-0.00129568,-1.51121,0.00315046,0.0143244,678,722,-1.79175,-0.214851
-539,302,-1.80273,0.137268,-0.000902146,0.0023167,3.30808e-05,0.00231704,-0.000902486,1.56052,0.00191767,0.0141579,685,722,-1.80274,-0.137255
-532,302,-1.8241,0.0629883,-0.000431416,0.000741308,0.000884296,0.00121598,-0.000906091,1.07816,0.00122953,0.0137523,692,722,-1.8241,-0.0630007
-525,302,-1.81543,-0.0430298,-0.000580914,-4.42271e-05,0.00221151,0.00191516,-0.0025403,0.845773,0.00258079,0.0187479,699,722,-1.81544,0.0430279
-518,302,-1.83765,-0.130127,-0.000793323,-0.00107704,0.00403241,0.00309973,-0.00497009,0.767816,0.00470064,0.0182042,706,722,-1.83763,0.130124
-511,302,-1.79016,-0.206055,-0.00231216,-0.00125135,0.00668022,0.00491949,-0.008483,0.825015,0.00782858,0.00968128,713,722,-1.79014,0.206051
-504,302,-1.78241,-0.303833,-0.00393167,-0.0021273,0.00893751,0.00595345,-0.0120124,0.8357,0.0105674,0.00910524,720,722,-1.78242,0.303806
-497,302,-1.78394,-0.4021,-0.0055621,-0.00235489,0.0119179,0.00806682,-0.0159838,0.852273,0.0141342,0.0133079,727,722,-1.78393,0.402105
-490,302,-1.7243,-0.492188,-0.00818854,-0.00277053,0.0154021,0.010159,-0.021118,0.872451,0.0184236,0.0194312,734,722,-1.72429,0.492181
-483,302,-1.53607,-0.0473633,0,0,0,0,0,0,0,-1,741,722,-1.53605,0.0473473
-476,302,-1.53339,0.391907,0,0,0,0,0,0,0,-1,748,722,-1.53342,-0.391923
-469,302,-2.28546,-0.0183105,0,0,0,0,0,0,0,-1,755,722,-2.28543,0.0183378
-462,302,-4.18213,0.76532,-0.0252113,-0.00367901,0.0302595,0.0176726,-0.0465629,0.956311,0.0383163,0.045157,762,722,-4.18213,-0.765301
-455,302,-4.62848,1.13306,0,0,0,0,0,0,0,-1,769,722,-4.62849,-1.13303
-448,302,-5.25647,1.39374,-0.033932,-0.00709336,0.0341826,0.0162096,-0.057235,0.972444,0.0445538,0.0431531,776,722,-5.25644,-1.39375
-441,302,-5.53119,1.95502,0,0,0,0,0,0,0,-1,783,722,-5.53116,-1.95505
-434,302,-5.55853,2.25714,0,0,0,0,0,0,0,-1,790,722,-5.55851,-2.25715
-427,302,-5.64667,2.50134,0,0,0,0,0,0,0,-1,797,722,-5.64669,-2.50133
-420,302,0,0,0,0,0,0,0,0,0,-1,804,722,0,0
-413,302,0,0,0,0,0,0,0,0,0,-1,811,722,0,0
-406,302,0,0,0,0,0,0,0,0,0,-1,818,722,0,0
-399,302,0,0,0,0,0,0,0,0,0,-1,825,722,0,0
-392,302,0,0,0,0,0,0,0,0,0,-1,832,722,0,0
-385,302,0,0,0,0,0,0,0,0,0,-1,839,722,0,0
-378,302,0,0,0,0,0,0,0,0,0,-1,846,722,0,0
-371,302,0,0,0,0,0,0,0,0,0,-1,853,722,0,0
-364,302,0,0,0,0,0,0,0,0,0,-1,860,722,0,0
-357,302,0,0,0,0,0,0,0,0,0,-1,867,722,0,0
-350,302,0,0,0,0,0,0,0,0,0,-1,874,722,0,0
-343,302,0,0,0,0,0,0,0,0,0,-1,881,722,0,0
-336,302,0,0,0,0,0,0,0,0,0,-1,888,722,0,0
-329,302,0,0,0,0,0,0,0,0,0,-1,895,722,0,0
-322,302,0,0,0,0,0,0,0,0,0,-1,902,722,0,0
-315,302,0,0,0,0,0,0,0,0,0,-1,909,722,0,0
-308,302,0,0,0,0,0,0,0,0,0,-1,916,722,0,0
-301,302,0,0,0,0,0,0,0,0,0,-1,923,722,0,0
-294,302,0,0,0,0,0,0,0,0,0,-1,930,722,0,0
-287,302,0,0,0,0,0,0,0,0,0,-1,937,722,0,0
-280,302,0,0,0,0,0,0,0,0,0,-1,944,722,0,0
-273,302,0,0,0,0,0,0,0,0,0,-1,951,722,0,0
-266,302,0,0,0,0,0,0,0,0,0,-1,958,722,0,0
-259,302,0,0,0,0,0,0,0,0,0,-1,965,722,0,0
-252,302,0,0,0,0,0,0,0,0,0,-1,972,722,0,0
-245,302,0,0,0,0,0,0,0,0,0,-1,979,722,0,0
-238,302,0,0,0,0,0,0,0,0,0,-1,986,722,0,0
-231,302,0,0,0,0,0,0,0,0,0,-1,993,722,0,0
-224,302,0,0,0,0,0,0,0,0,0,-1,1000,722,0,0
-217,302,0,0,0,0,0,0,0,0,0,-1,1007,722,0,0
-210,302,0,0,0,0,0,0,0,0,0,-1,1014,722,0,0
-203,302,0,0,0,0,0,0,0,0,0,-1,1021,722,0,0
-196,302,0,0,0,0,0,0,0,0,0,-1,1028,722,0,0
-189,302,0,0,0,0,0,0,0,0,0,-1,1035,722,0,0
-182,302,0,0,0,0,0,0,0,0,0,-1,1042,722,0,0
-175,302,0,0,0,0,0,0,0,0,0,-1,1049,722,0,0
-168,302,0,0,0,0,0,0,0,0,0,-1,1056,722,0,0
-161,302,0,0,0,0,0,0,0,0,0,-1,1063,722,0,0
-154,302,0,0,0,0,0,0,0,0,0,-1,1070,722,0,0
-147,302,0,0,0,0,0,0,0,0,0,-1,1077,722,0,0
-140,302,0,0,0,0,0,0,0,0,0,-1,1084,722,0,0
-133,302,0,0,0,0,0,0,0,0,0,-1,1091,722,0,0
-126,302,0,0,0,0,0,0,0,0,0,-1,1098,722,0,0
-119,302,0,0,0,0,0,0,0,0,0,-1,1105,722,0,0
-112,302,0,0,0,0,0,0,0,0,0,-1,1112,722,0,0
-105,302,0,0,0,0,0,0,0,0,0,-1,1119,722,0,0
-98,302,0,0,0,0,0,0,0,0,0,-1,1126,722,0,0
-91,302,0,0,0,0,0,0,0,0,0,-1,1133,722,0,0
-84,302,0,0,0,0,0,0,0,0,0,-1,1140,722,0,0
-77,302,0,0,0,0,0,0,0,0,0,-1,1147,722,0,0
-70,302,0,0,0,0,0,0,0,0,0,-1,1154,722,0,0
-63,302,0,0,0,0,0,0,0,0,0,-1,1161,722,0,0
-56,302,0,0,0,0,0,0,0,0,0,-1,1168,722,0,0
-49,302,0,0,0,0,0,0,0,0,0,-1,1175,722,0,0
-42,302,0,0,0,0,0,0,0,0,0,-1,1182,722,0,0
-35,302,0,0,0,0,0,0,0,0,0,-1,1189,722,0,0
-28,302,0,0,0,0,0,0,0,0,0,-1,1196,722,0,0
-21,302,0,0,0,0,0,0,0,0,0,-1,1203,722,0,0
-14,302,0,0,0,0,0,0,0,0,0,-1,1210,722,0,0
-7,302,0,0,0,0,0,0,0,0,0,-1,1217,722,0,0
0,302,0,0,0,0,0,0,0,0,0,-1,1224,722,0,0
7,302,0,0,0,0,0,0,0,0,0,-1,1231,722,0,0
14,302,0,0,0,0,0,0,0,0,0,-1,1238,722,0,0
21,302,0,0,0,0,0,0,0,0,0,-1,1245,722,0,0
28,302,0,0,0,0,0,0,0,0,0,-1,1252,722,0,0
35,302,0,0,0,0,0,0,0,0,0,-1,1259,722,0,0
42,302,0,0,0,0,0,0,0,0,0,-1,1266,722,0,0
49,302,0,0,0,0,0,0,0,0,0,-1,1273,722,0,0
56,302,0,0,0,0,0,0,0,0,0,-1,1280,722,0,0
63,302,0,0,0,0,0,0,0,0,0,-1,1287,722,0,0
70,302,0,0,0,0,0,0,0,0,0,-1,1294,722,0,0
77,302,0,0,0,0,0,0,0,0,0,-1,1301,722,0,0
84,302,0,0,0,0,0,0,0,0,0,-1,1308,722,0,0
91,302,0,0,0,0,0,0,0,0,0,-1,1315,722,0,0
98,302,0,0,0,0,0,0,0,0,0,-1,1322,722,0,0
105,302,0,0,0,0,0,0,0,0,0,-1,1329,722,0,0
112,302,0,0,0,0,0,0,0,0,0,-1,1336,722,0,0
119,302,0,0,0,0,0,0,0,0,0,-1,1343,722,0,0
126,302,0,0,0,0,0,0,0,0,0,-1,1350,722,0,0
133,302,0,0,0,0,0,0,0,0,0,-1,1357,722,0,0
140,302,0,0,0,0,0,0,0,0,0,-1,1364,722,0,0
147,302,0,0,0,0,0,0,0,0,0,-1,1371,722,0,0
154,302,0,0,0,0,0,0,0,0,0,-1,1378,722,0,0
161,302,0,0,0,0,0,0,0,0,0,-1,1385,722,0,0
168,302,0,0,0,0,0,0,0,0,0,-1,1392,722,0,0
175,302,0,0,0,0,0,0,0,0,0,-1,1399,722,0,0
182,302,0,0,0,0,0,0,0,0,0,-1,1406,722,0,0
189,302,0,0,0,0,0,0,0,0,0,-1,1413,722,0,0
196,302,0,0,0,0,0,0,0,0,0,-1,1420,722,0,0
203,302,0,0,0,0,0,0,0,0,0,-1,1427,722,0,0
210,302,0,0,0,0,0,0,0,0,0,-1,1434,722,0,0
217,302,0,0,0,0,0,0,0,0,0,-1,1441,722,0,0
224,302,0,0,0,0,0,0,0,0,0,-1,1448,722,0,0
231,302,0,0,0,0,0,0,0,0,0,-1,1455,722,0,0
238,302,0,0,0,0,0,0,0,0,0,-1,1462,722,0,0
245,302,0,0,0,0,0,0,0,0,0,-1,1469,722,0,0
252,302,0,0,0,0,0,0,0,0,0,-1,1476,722,0,0
259,302,0,0,0,0,0,0,0,0,0,-1,1483,722,0,0
266,302,0,0,0,0,0,0,0,0,0,-1,1490,722,0,0
273,302,0,0,0,0,0,0,0,0,0,-1,1497,722,0,0
280,302,0,0,0,0,0,0,0,0,0,-1,1504,722,0,0
287,302,0,0,0,0,0,0,0,0,0,-1,1511,722,0,0
294,302,0,0,0,0,0,0,0,0,0,-1,1518,722,0,0
301,302,0,0,0,0,0,0,0,0,0,-1,1525,722,0,0
308,302,0,0,0,0,0,0,0,0,0,-1,1532,722,0,0
315,302,0,0,0,0,0,0,0,0,0,-1,1539,722,0,0
322,302,0,0,0,0,0,0,0,0,0,-1,1546,722,0,0
329,302,0,0,0,0,0,0,0,0,0,-1,1553,722,0,0
336,302,0,0,0,0,0,0,0,0,0,-1,1560,722,0,0
343,302,0,0,0,0,0,0,0,0,0,-1,1567,722,0,0
350,302,0,0,0,0,0,0,0,0,0,-1,1574,722,0,0
357,302,0,0,0,0,0,0,0,0,0,-1,1581,722,0,0
364,302,0,0,0,0,0,0,0,0,0,-1,1588,722,0,0
371,302,0,0,0,0,0,0,0,0,0,-1,1595,722,0,0
378,302,0,0,0,0,0,0,0,0,0,-1,1602,722,0,0
385,302,0,0,0,0,0,0,0,0,0,-1,1609,722,0,0
392,302,0,0,0,0,0,0,0,0,0,-1,1616,722,0,0
399,302,0,0,0,0,0,0,0,0,0,-1,1623,722,0,0
406,302,0,0,0,0,0,0,0,0,0,-1,1630,722,0,0
413,302,0,0,0,0,0,0,0,0,0,-1,1637,722,0,0
420,302,0,0,0,0,0,0,0,0,0,-1,1644,722,0,0
427,302,0,0,0,0,0,0,0,0,0,-1,1651,722,0,0
434,302,0,0,0,0,0,0,0,0,0,-1,1658,722,0,0
441,302,0,0,0,0,0,0,0,0,0,-1,1665,722,0,0
448,302,0,0,0,0,0,0,0,0,0,-1,1672,722,0,0
455,302,0,0,0,0,0,0,0,0,0,-1,1679,722,0,0
462,302,0,0,0,0,0,0,0,0,0,-1,1686,722,0,0
469,302,0,0,0,0,0,0,0,0,0,-1,1693,722,0,0
476,302,0,0,0,0,0,0,0,0,0,-1,1700,722,0,0
483,302,0,0,0,0,0,0,0,0,0,-1,1707,722,0,0
490,302,0,0,0,0,0,0,0,0,0,-1,1714,722,0,0
497,302,0,0,0,0,0,0,0,0,0,-1,1721,722,0,0
504,302,0,0,0,0,0,0,0,0,0,-1,1728,722,0,0
511,302,0,0,0,0,0,0,0,0,0,-1,1735,722,0,0
518,302,0,0,0,0,0,0,0,0,0,-1,1742,722,0,0
525,302,0,0,0,0,0,0,0,0,0,-1,1749,722,0,0
532,302,0,0,0,0,0,0,0,0,0,-1,1756,722,0,0
539,302,0,0,0,0,0,0,0,0,0,-1,1763,722,0,0
546,302,9.89233,1.17242,-0.0140036,-0.00606688,0.0236234,0.0139192,-0.0339896,0.868613,0.0284577,0.0459954,1770,722,9.89237,-1.17242
553,302,9.53186,1.64264,0.00454714,-0.0123802,0.0183429,0.0162849,-0.024118,0.569245,0.0234722,0.0462638,1777,722,9.53185,-1.64266
560,302,10.0847,1.88556,0.0159049,-0.0162493,0.0133684,0.0207369,-0.0210813,0.346834,0.024144,0.0443897,1784,722,10.0847,-1.88555
567,302,9.7738,1.71234,0,0,0,0,0,0,0,-1,1791,722,9.77386,-1.71232
574,302,11.1631,0.959839,0.0218227,-0.0195774,0.00577686,0.0226136,-0.0203683,0.136075,0.0248269,0.0430591,1798,722,11.163,-0.959861
581,302,12.0923,0.343689,0,0,0,0,0,0,0,-1,1805,722,12.0922,-0.343678
588,302,13.0504,0.0113525,0,0,0,0,0,0,0,-1,1812,722,13.0504,-0.0113513
595,302,8.69629,2.44214,0,0,0,0,0,0,0,-1,1819,722,8.69627,-2.44213
602,302,8.25269,1.73853,0,0,0,0,0,0,0,-1,1826,722,8.25263,-1.7385
609,302,6.70044,-0.127319,0,0,0,0,0,0,0,-1,1833,722,6.7004,0.127326
616,302,6.6792,0.0172729,0.00328671,-0.0145271,-0.00420166,0.004228,-0.0154684,-0.220389,0.0119731,0.035877,1840,722,6.67919,-0.0172587
623,302,6.67407,0.158813,-0.00112402,-0.0119986,-0.00420467,0.000312074,-0.0134347,-0.329125,0.00906225,0.0131001,1847,722,6.67408,-0.15882
630,302,6.65222,0.259766,-0.00437676,-0.00849865,-0.00354612,-0.00233618,-0.0105392,-0.522164,0.00639137,0.00989569,1854,722,6.65225,-0.259751
637,302,6.62646,0.355896,-0.00510953,-0.00618628,-0.00307102,-0.00253005,-0.00876576,-0.698626,0.00520947,0.013084,1861,722,6.62645,-0.35587
644,302,6.65771,0.475098,-0.00485891,-0.00431544,-0.00265168,-0.00192161,-0.00725274,-0.836459,0.00433886,0.0156653,1868,722,6.65768,-0.475123
651,302,6.69482,0.575745,-0.00322351,-0.003008,-0.00226361,-0.000849589,-0.00538193,-0.809182,0.00334096,0.0155699,1875,722,6.69478,-0.575716
658,302,6.70776,0.663208,-0.00058585,-0.00158371,-0.00181227,0.00079492,-0.00296448,-0.651073,0.0022878,0.0151865,1882,722,6.70776,-0.663186
665,302,6.68665,0.765625,0.00206179,-0.000966722,-0.0016063,0.00275506,-0.00165999,-0.407443,0.00257503,0.0134327,1889,722,6.6866,-0.765644
672,302,6.68042,0.849548,0.00518191,-0.000422937,-0.00177799,0.00569834,-0.00093937,-0.282681,0.00414763,0.0110475,1896,722,6.68043,-0.84956
679,302,6.69214,0.972107,0.00877889,-0.000776358,-0.00226593,0.009289,-0.00128647,-0.22143,0.00666302,0.00906686,1903,722,6.69216,-0.972086
686,302,6.69043,1.05634,0.0127459,-0.0020547,-0.00304989,0.0133497,-0.00265855,-0.19546,0.00990563,0.0121087,1910,722,6.69043,-1.05631
693,302,6.60938,1.13971,0.0173791,-0.00354644,-0.00414723,0.0181711,-0.0043384,-0.188691,0.0137896,0.0229789,1917,722,6.60932,-1.13972
700,302,6.67188,1.20929,0.0232341,-0.00591624,-0.0056717,0.0242987,-0.00698088,-0.185552,0.0189594,0.0429085,1924,722,6.67186,-1.2093
707,302,6.66406,1.27991,0.0304779,-0.00958538,-0.00771228,0.0319112,-0.0110187,-0.183757,0.0257454,0.0476433,1931,722,6.66402,-1.27991
714,302,6.83118,1.70819,0.0393051,-0.0151263,-0.0104463,0.0412411,-0.0170622,-0.183247,0.0346129,0.0461592,1938,722,6.83113,-1.70819
721,302,6.91382,1.9447,0,0,0,0,0,0,0,-1,1945,722,6.9138,-1.94468
728,302,7.14734,0.852539,0,0,0,0,0,0,0,-1,1952,722,7.14729,-0.852557
735,302,0,0,0,0,0,0,0,0,0,-1,1959,722,0,0
742,302,0,0,0,0,0,0,0,0,0,-1,1966,722,0,0
749,302,0,0,0,0,0,0,0,0,0,-1,1973,722,0,0
756,302,0,0,0,0,0,0,0,0,0,-1,1980,722,0,0
763,302,0,0,0,0,0,0,0,0,0,-1,1987,722,0,0
770,302,0,0,0,0,0,0,0,0,0,-1,1994,722,0,0
777,302,0,0,0,0,0,0,0,0,0,-1,2001,722,0,0
784,302,0,0,0,0,0,0,0,0,0,-1,2008,722,0,0
791,302,0,0,0,0,0,0,0,0,0,-1,2015,722,0,0
798,302,0,0,0,0,0,0,0,0,0,-1,2022,722,0,0
805,302,0,0,0,0,0,0,0,0,0,-1,2029,722,0,0
812,302,0,0,0,0,0,0,0,0,0,-1,2036,722,0,0
-700,295,0,0,0,0,0,0,0,0,0,-1,524,729,0,0
-693,295,0,0,0,0,0,0,0,0,0,-1,531,729,0,0
-686,295,0,0,0,0,0,0,0,0,0,-1,538,729,0,0
-679,295,0,0,0,0,0,0,0,0,0,-1,545,729,0,0
-672,295,0,0,0,0,0,0,0,0,0,-1,552,729,0,0
-665,295,0,0,0,0,0,0,0,0,0,-1,559,729,0,0
-658,295,0,0,0,0,0,0,0,0,0,-1,566,729,0,0
-651,295,0,0,0,0,0,0,0,0,0,-1,573,729,0,0
-644,295,0,0,0,0,0,0,0,0,0,-1,580,729,0,0
-637,295,0,0,0,0,0,0,0,0,0,-1,587,729,0,0
-630,295,0,0,0,0,0,0,0,0,0,-1,594,729,0,0
-623,295,0,0,0,0,0,0,0,0,0,-1,601,729,0,0
-616,295,-0.479675,-0.81366,0,0,0,0,0,0,0,-1,608,729,-0.479667,0.813668
-609,295,0.295898,-0.408081,0,0,0,0,0,0,0,-1,615,729,0.295926,0.40811
-602,295,-1.77509,0.961426,0,0,0,0,0,0,0,-1,622,729,-1.77512,-0.961403
-595,295,-1.62433,0.88501,0,0,0,0,0,0,0,-1,629,729,-1.6243,-0.88499
-588,295,-1.69666,0.676575,0,0,0,0,0,0,0,-1,636,729,-1.69669,-0.676556
-581,295,-1.74774,0.800903,0,0,0,0,0,0,0,-1,643,729,-1.74772,-0.800928
-574,295,-1.74048,0.692749,-0.00275135,0.0100887,0.000947556,0.0101582,-0.0028209,1.49753,0.00788255,0.0481814,650,729,-1.74046,-0.692763
-567,295,-1.77124,0.432068,-0.00321628,0.00873344,0.000600708,0.00876356,-0.0032464,1.5207,0.00717369,0.0370568,657,729,-1.77127,-0.432073
-560,295,-1.87976,0.387085,-0.00295676,0.00684576,0.000263409,0.00685283,-0.00296384,1.54395,0.00581402,0.018167,664,729,-1.87979,-0.387068
-553,295,-1.85681,0.291504,-0.00240032,0.00530333,0.000179458,0.00530751,-0.0024045,1.54752,0.00455647,0.0148018,671,729,-1.85682,-0.291498
-546,295,-1.89349,0.21405,-0.00193976,0.0038122,0.000276553,0.00382547,-0.00195303,1.52286,0.0033941,0.0194362,678,729,-1.89348,-0.214068
-539,295,-1.90546,0.16626,-0.00144753,0.00249151,0.000682591,0.00260644,-0.00156246,1.40399,0.00243194,0.0182096,685,729,-1.90547,-0.166268
-532,295,-1.91864,0.0709839,-0.000899098,0.000948823,0.00171967,0.00197704,-0.00192731,1.03191,0.00225424,0.0155198,692,729,-1.91865,-0.0710033
-525,295,-1.89917,-0.0352173,-0.00123335,0.000233329,0.00325053,0.00283221,-0.00383223,0.896344,0.00386213,0.0151588,699,729,-1.89917,0.0352168
-518,295,-1.88605,-0.125916,-0.00148632,-0.000793495,0.00523198,0.00410353,-0.00638334,0.818455,0.00610211,0.0105644,706,729,-1.88606,0.12592
-511,295,-1.87451,-0.207947,-0.00331257,-0.000769125,0.00820231,0.00625946,-0.0103412,0.862308,0.00968046,0.00829788,713,729,-1.87453,0.207969
-504,295,-1.88263,-0.306763,-0.00536643,-0.00152337,0.0108151,0.00753956,-0.0144294,0.873316,0.01289,0.0101436,720,729,-1.88266,0.306736
-497,295,-1.90063,-0.383484,-0.00746759,-0.00141162,0.0141576,0.0100382,-0.0189174,0.89075,0.0169775,0.0147969,727,729,-1.90065,0.383484
-490,295,-1.82977,-0.335754,-0.0108038,-0.00133976,0.0180191,0.0125584,-0.0247019,0.913804,0.0218897,0.0314835,734,729,-1.82978,0.335755
-483,295,-1.79224,0.2276,-0.0148709,-0.000736782,0.0220893,0.0153884,-0.0309961,0.940218,0.0272808,0.0477689,741,729,-1.79222,-0.227594
-476,295,-2.06726,1.22156,-0.0198545,0.000277334,0.0261851,0.0182646,-0.0378418,0.968897,0.0330438,0.0451267,748,729,-2.06725,-1.22154
-469,295,-2.71161,1.20789,0,0,0,0,0,0,0,-1,755,729,-2.71158,-1.20789
-462,295,-3.65326,1.10815,0,0,0,0,0,0,0,-1,762,729,-3.65325,-1.10814
-455,295,-4.64789,1.24835,0,0,0,0,0,0,0,-1,769,729,-4.64786,-1.24836
-448,295,-5.30072,1.43256,0,0,0,0,0,0,0,-1,776,729,-5.30074,-1.43258
-441,295,-5.92163,1.89417,0,0,0,0,0,0,0,-1,783,729,-5.92161,-1.89416
-434,295,-5.1264,1.4375,0,0,0,0,0,0,0,-1,790,729,-5.12642,-1.43749
-427,295,0,0,0,0,0,0,0,0,0,-1,797,729,0,0
-420,295,0,0,0,0,0,0,0,0,0,-1,804,729,0,0
-413,295,0,0,0,0,0,0,0,0,0,-1,811,729,0,0
-406,295,0,0,0,0,0,0,0,0,0,-1,818,729,0,0
-399,295,0,0,0,0,0,0,0,0,0,-1,825,729,0,0
-392,295,0,0,0,0,0,0,0,0,0,-1,832,729,0,0
-385,295,0,0,0,0,0,0,0,0,0,-1,839,729,0,0
-378,295,0,0,0,0,0,0,0,0,0,-1,846,729,0,0
-371,295,0,0,0,0,0,0,0,0,0,-1,853,729,0,0
-364,295,0,0,0,0,0,0,0,0,0,-1,860,729,0,0
-357,295,0,0,0,0,0,0,0,0,0,-1,867,729,0,0
-350,295,0,0,0,0,0,0,0,0,0,-1,874,729,0,0
-343,295,0,0,0,0,0,0,0,0,0,-1,881,729,0,0
-336,295,0,0,0,0,0,0,0,0,0,-1,888,729,0,0
-329,295,0,0,0,0,0,0,0,0,0,-1,895,729,0,0
-322,295,0,0,0,0,0,0,0,0,0,-1,902,729,0,0
-315,295,0,0,0,0,0,0,0,0,0,-1,909,729,0,0
-308,295,0,0,0,0,0,0,0,0,0,-1,916,729,0,0
-301,295,0,0,0,0,0,0,0,0,0,-1,923,729,0,0
-294,295,0,0,0,0,0,0,0,0,0,-1,930,729,0,0
-287,295,0,0,0,0,0,0,0,0,0,-1,937,729,0,0
-280,295,0,0,0,0,0,0,0,0,0,-1,944,729,0,0
-273,295,0,0,0,0,0,0,0,0,0,-1,951,729,0,0
-266,295,0,0,0,0,0,0,0,0,0,-1,958,729,0,0
-259,295,0,0,0,0,0,0,0,0,0,-1,965,729,0,0
-252,295,0,0,0,0,0,0,0,0,0,-1,972,729,0,0
-245,295,0,0,0,0,0,0,0,0,0,-1,979,729,0,0
-238,295,0,0,0,0,0,0,0,0,0,-1,986,729,0,0
-231,295,0,0,0,0,0,0,0,0,0,-1,993,729,0,0
-224,295,0,0,0,0,0,0,0,0,0,-1,1000,729,0,0
-217,295,0,0,0,0,0,0,0,0,0,-1,1007,729,0,0
-210,295,0,0,0,0,0,0,0,0,0,-1,1014,729,0,0
-203,295,0,0,0,0,0,0,0,0,0,-1,1021,729,0,0
-196,295,0,0,0,0,0,0,0,0,0,-1,1028,729,0,0
-189,295,0,0,0,0,0,0,0,0,0,-1,1035,729,0,0
-182,295,0,0,0,0,0,0,0,0,0,-1,1042,729,0,0
-175,295,0,0,0,0,0,0,0,0,0,-1,1049,729,0,0
-168,295,0,0,0,0,0,0,0,0,0,-1,1056,729,0,0
-161,295,0,0,0,0,0,0,0,0,0,-1,1063,729,0,0
-154,295,0,0,0,0,0,0,0,0,0,-1,1070,729,0,0
-147,295,0,0,0,0,0,0,0,0,0,-1,1077,729,0,0
-140,295,0,0,0,0,0,0,0,0,0,-1,1084,729,0,0
-133,295,0,0,0,0,0,0,0,0,0,-1,1091,729,0,0
-126,295,0,0,0,0,0,0,0,0,0,-1,1098,729,0,0
-119,295,0,0,0,0,0,0,0,0,0,-1,1105,729,0,0
-112,295,0,0,0,0,0,0,0,0,0,-1,1112,729,0,0
-105,295,0,0,0,0,0,0,0,0,0,-1,1119,729,0,0
-98,295,0,0,0,0,0,0,0,0,0,-1,1126,729,0,0
-91,295,0,0,0,0,0,0,0,0,0,-1,1133,729,0,0
-84,295,0,0,0,0,0,0,0,0,0,-1,1140,729,0,0
-77,295,0,0,0,0,0,0,0,0,0,-1,1147,729,0,0
-70,295,0,0,0,0,0,0,0,0,0,-1,1154,729,0,0
-63,295,0,0,0,0,0,0,0,0,0,-1,1161,729,0,0
-56,295,0,0,0,0,0,0,0,0,0,-1,1168,729,0,0
-49,295,0,0,0,0,0,0,0,0,0,-1,1175,729,0,0
-42,295,0,0,0,0,0,0,0,0,0,-1,1182,729,0,0
-35,295,0,0,0,0,0,0,0,0,0,-1,1189,729,0,0
-28,295,0,0,0,0,0,0,0,0,0,-1,1196,729,0,0
-21,295,0,0,0,0,0,0,0,0,0,-1,1203,729,0,0
-14,295,0,0,0,0,0,0,0,0,0,-1,1210,729,0,0
-7,295,0,0,0,0,0,0,0,0,0,-1,1217,729,0,0
0,295,0,0,0,0,0,0,0,0,0,-1,1224,729,0,0
7,295,0,0,0,0,0,0,0,0,0,-1,1231,729,0,0
14,295,0,0,0,0,0,0,0,0,0,-1,1238,729,0,0
21,295,0,0,0,0,0,0,0,0,0,-1,1245,729,0,0
28,295,0,0,0,0,0,0,0,0,0,-1,1252,729,0,0
35,295,0,0,0,0,0,0,0,0,0,-1,1259,729,0,0
42,295,0,0,0,0,0,0,0,0,0,-1,1266,729,0,0
49,295,0,0,0,0,0,0,0,0,0,-1,1273,729,0,0
56,295,0,0,0,0,0,0,0,0,0,-1,1280,729,0,0
63,295,0,0,0,0,0,0,0,0,0,-1,1287,729,0,0
70,295,0,0,0,0,0,0,0,0,0,-1,1294,729,0,0
77,295,0,0,0,0,0,0,0,0,0,-1,1301,729,0,0
84,295,0,0,0,0,0,0,0,0,0,-1,1308,729,0,0
91,295,0,0,0,0,0,0,0,0,0,-1,1315,729,0,0
98,295,0,0,0,0,0,0,0,0,0,-1,1322,729,0,0
105,295,0,0,0,0,0,0,0,0,0,-1,1329,729,0,0
112,295,0,0,0,0,0,0,0,0,0,-1,1336,729,0,0
119,295,0,0,0,0,0,0,0,0,0,-1,1343,729,0,0
126,295,0,0,0,0,0,0,0,0,0,-1,1350,729,0,0
133,295,0,0,0,0,0,0,0,0,0,-1,1357,729,0,0
140,295,0,0,0,0,0,0,0,0,0,-1,1364,729,0,0
147,295,0,0,0,0,0,0,0,0,0,-1,1371,729,0,0
154,295,0,0,0,0,0,0,0,0,0,-1,1378,729,0,0
161,295,0,0,0,0,0,0,0,0,0,-1,1385,729,0,0
168,295,0,0,0,0,0,0,0,0,0,-1,1392,729,0,0
175,295,0,0,0,0,0,0,0,0,0,-1,1399,729,0,0
182,295,0,0,0,0,0,0,0,0,0,-1,1406,729,0,0
189,295,0,0,0,0,0,0,0,0,0,-1,1413,729,0,0
196,295,0,0,0,0,0,0,0,0,0,-1,1420,729,0,0
203,295,0,0,0,0,0,0,0,0,0,-1,1427,729,0,0
210,295,0,0,0,0,0,0,0,0,0,-1,1434,729,0,0
217,295,0,0,0,0,0,0,0,0,0,-1,1441,729,0,0
224,295,0,0,0,0,0,0,0,0,0,-1,1448,729,0,0
231,295,0,0,0,0,0,0,0,0,0,-1,1455,729,0,0
238,295,0,0,0,0,0,0,0,0,0,-1,1462,729,0,0
245,295,0,0,0,0,0,0,0,0,0,-1,1469,729,0,0
252,295,0,0,0,0,0,0,0,0,0,-1,1476,729,0,0
259,295,0,0,0,0,0,0,0,0,0,-1,1483,729,0,0
266,295,0,0,0,0,0,0,0,0,0,-1,1490,729,0,0
273,295,0,0,0,0,0,0,0,0,0,-1,1497,729,0,0
280,295,0,0,0,0,0,0,0,0,0,-1,1504,729,0,0
287,295,0,0,0,0,0,0,0,0,0,-1,1511,729,0,0
294,295,0,0,0,0,0,0,0,0,0,-1,1518,729,0,0
301,295,0,0,0,0,0,0,0,0,0,-1,1525,729,0,0
308,295,0,0,0,0,0,0,0,0,0,-1,1532,729,0,0
315,295,0,0,0,0,0,0,0,0,0,-1,1539,729,0,0
322,295,0,0,0,0,0,0,0,0,0,-1,1546,729,0,0
329,295,0,0,0,0,0,0,0,0,0,-1,1553,729,0,0
336,295,0,0,0,0,0,0,0,0,0,-1,1560,729,0,0
343,295,0,0,0,0,0,0,0,0,0,-1,1567,729,0,0
350,295,0,0,0,0,0,0,0,0,0,-1,1574,729,0,0
357,295,0,0,0,0,0,0,0,0,0,-1,1581,729,0,0
364,295,0,0,0,0,0,0,0,0,0,-1,1588,729,0,0
371,295,0,0,0,0,0,0,0,0,0,-1,1595,729,0,0
378,295,0,0,0,0,0,0,0,0,0,-1,1602,729,0,0
385,295,0,0,0,0,0,0,0,0,0,-1,1609,729,0,0
392,295,0,0,0,0,0,0,0,0,0,-1,1616,729,0,0
399,295,0,0,0,0,0,0,0,0,0,-1,1623,729,0,0
406,295,0,0,0,0,0,0,0,0,0,-1,1630,729,0,0
413,295,0,0,0,0,0,0,0,0,0,-1,1637,729,0,0
420,295,0,0,0,0,0,0,0,0,0,-1,1644,729,0,0
427,295,0,0,0,0,0,0,0,0,0,-1,1651,729,0,0
434,295,0,0,0,0,0,0,0,0,0,-1,1658,729,0,0
441,295,0,0,0,0,0,0,0,0,0,-1,1665,729,0,0
448,295,0,0,0,0,0,0,0,0,0,-1,1672,729,0,0
455,295,0,0,0,0,0,0,0,0,0,-1,1679,729,0,0
462,295,0,0,0,0,0,0,0,0,0,-1,1686,729,0,0
469,295,0,0,0,0,0,0,0,0,0,-1,1693,729,0,0
476,295,0,0,0,0,0,0,0,0,0,-1,1700,729,0,0
483,295,0,0,0,0,0,0,0,0,0,-1,1707,729,0,0
490,295,0,0,0,0,0,0,0,0,0,-1,1714,729,0,0
497,295,0,0,0,0,0,0,0,0,0,-1,1721,729,0,0
504,295,0,0,0,0,0,0,0,0,0,-1,1728,729,0,0
511,295,0,0,0,0,0,0,0,0,0,-1,1735,729,0,0
518,295,0,0,0,0,0,0,0,0,0,-1,1742,729,0,0
525,295,0,0,0,0,0,0,0,0,0,-1,1749,729,0,0
532,295,0,0,0,0,0,0,0,0,0,-1,1756,729,0,0
539,295,0,0,0,0,0,0,0,0,0,-1,1763,729,0,0
546,295,9.73315,1.38947,-0.0145595,4.43614e-05,0.0203621,0.0143742,-0.0288894,0.957558,0.0254425,0.0397201,1770,729,9.7332,-1.38949
553,295,9.41309,1.54724,0.00844356,-0.00869869,0.0169246,0.0188436,-0.0190987,0.551008,0.0219062,0.0433223,1777,729,9.41305,-1.54727
560,295,9.45679,1.49719,0.0221798,-0.0146599,0.0131652,0.0264009,-0.018881,0.310272,0.0262635,0.0446692,1784,729,9.45684,-1.49719
567,295,9.63232,1.46655,0.0281509,-0.0181453,0.00962594,0.0300726,-0.0200669,0.197044,0.0291396,0.0476674,1791,729,9.63235,-1.46657
574,295,9.75183,1.61298,0,0,0,0,0,0,0,-1,1798,729,9.75181,-1.61299
581,295,11.4651,1.1076,0,0,0,0,0,0,0,-1,1805,729,11.4651,-1.10763
588,295,8.80359,1.96552,0,0,0,0,0,0,0,-1,1812,729,8.80362,-1.96551
595,295,8.02637,1.27765,0,0,0,0,0,0,0,-1,1819,729,8.02633,-1.27764
602,295,8.14111,1.63525,0,0,0,0,0,0,0,-1,1826,729,8.14113,-1.63523
609,295,7.76416,0.817932,0,0,0,0,0,0,0,-1,1833,729,7.76413,-0.817922
616,295,7.35034,0.507568,0.00499386,-0.0167058,-0.00303891,0.0054114,-0.0171234,-0.136545,0.0135836,0.0493849,1840,729,7.35028,-0.507588
623,295,6.76123,0.165527,-0.000171142,-0.0141733,-0.00320974,0.00052957,-0.014874,-0.214936,0.0100971,0.0240893,1847,729,6.76122,-0.165506
630,295,6.75061,0.288269,-0.00437174,-0.010394,-0.00294286,-0.00317249,-0.0115933,-0.386964,0.00691823,0.010942,1854,729,6.75056,-0.2883
637,295,6.75293,0.37677,-0.00589417,-0.00765973,-0.00274829,-0.00389036,-0.00966354,-0.629997,0.00561444,0.012429,1861,729,6.75293,-0.376748
644,295,6.76062,0.47522,-0.00614396,-0.00537519,-0.00248806,-0.003242,-0.00827715,-0.862039,0.00481605,0.0127896,1868,729,6.76058,-0.475194
651,295,6.77405,0.588501,-0.00473647,-0.00374533,-0.00220901,-0.00197698,-0.00650482,-0.895742,0.00385061,0.0131293,1875,729,6.77411,-0.588508
658,295,6.77087,0.684204,-0.00211097,-0.0021559,-0.00172387,-0.000409424,-0.00385745,-0.778883,0.00244661,0.0119736,1882,729,6.77083,-0.684187
665,295,6.77319,0.743408,0.000480257,-0.00135758,-0.00151823,0.001336,-0.00221333,-0.513261,0.00206997,0.011054,1889,729,6.77318,-0.743431
672,295,6.77649,0.834656,0.00344376,-0.000862706,-0.00162677,0.0039892,-0.00140814,-0.323507,0.00323274,0.0114197,1896,729,6.77654,-0.834669
679,295,6.77771,0.965271,0.00679347,-0.00139579,-0.00208972,0.00729589,-0.00189821,-0.235949,0.00560486,0.00841576,1903,729,6.77766,-0.965242
686,295,6.78076,1.04254,0.0102698,-0.00300607,-0.00283472,0.0108497,-0.00358602,-0.201803,0.00867904,0.00838691,1910,729,6.78079,-1.04253
693,295,6.77844,1.10992,0.0141541,-0.00487855,-0.00396575,0.0149474,-0.00567181,-0.197423,0.0122995,0.0167314,1917,729,6.77839,-1.10991
700,295,6.82471,1.20087,0.0191246,-0.00772932,-0.00557573,0.0202362,-0.008841,-0.196798,0.0172121,0.0317386,1924,729,6.82469,-1.20088
707,295,6.8252,1.5896,0.0253886,-0.0119567,-0.00771495,0.0269196,-0.0134878,-0.195903,0.023755,0.0402702,1931,729,6.82525,-1.58959
714,295,7.10217,2.12927,0.0331734,-0.0180908,-0.0105199,0.0352482,-0.0201656,-0.194728,0.0323858,0.0424211,1938,729,7.10217,-2.12927
721,295,7.46191,1.51599,0.0427576,-0.0268084,-0.0141598,0.0455294,-0.0295802,-0.193302,0.0436892,0.0466446,1945,729,7.46186,-1.51598
728,295,7.77051,0.928345,0,0,0,0,0,0,0,-1,1952,729,7.77047,-0.928325
735,295,0,0,0,0,0,0,0,0,0,-1,1959,729,0,0
742,295,0,0,0,0,0,0,0,0,0,-1,1966,729,0,0
749,295,0,0,0,0,0,0,0,0,0,-1,1973,729,0,0
756,295,0,0,0,0,0,0,0,0,0,-1,1980,729,0,0
763,295,0,0,0,0,0,0,0,0,0,-1,1987,729,0,0
770,295,0,0,0,0,0,0,0,0,0,-1,1994,729,0,0
777,295,0,0,0,0,0,0,0,0,0,-1,2001,729,0,0
784,295,0,0,0,0,0,0,0,0,0,-1,2008,729,0,0
791,295,0,0,0,0,0,0,0,0,0,-1,2015,729,0,0
798,295,0,0,0,0,0,0,0,0,0,-1,2022,729,0,0
805,295,0,0,0,0,0,0,0,0,0,-1,2029,729,0,0
812,295,0,0,0,0,0,0,0,0,0,-1,2036,729,0,0
-700,288,0,0,0,0,0,0,0,0,0,-1,524,736,0,0
-693,288,0,0,0,0,0,0,0,0,0,-1,531,736,0,0
-686,288,0,0,0,0,0,0,0,0,0,-1,538,736,0,0
-679,288,0,0,0,0,0,0,0,0,0,-1,545,736,0,0
-672,288,0,0,0,0,0,0,0,0,0,-1,552,736,0,0
-665,288,0,0,0,0,0,0,0,0,0,-1,559,736,0,0
-658,288,0,0,0,0,0,0,0,0,0,-1,566,736,0,0
-651,288,0,0,0,0,0,0,0,0,0,-1,573,736,0,0
-644,288,0,0,0,0,0,0,0,0,0,-1,580,736,0,0
-637,288,0,0,0,0,0,0,0,0,0,-1,587,736,0,0
-630,288,0,0,0,0,0,0,0,0,0,-1,594,736,0,0
-623,288,0,0,0,0,0,0,0,0,0,-1,601,736,0,0
-616,288,-3.77063,-4.3161,0,0,0,0,0,0,0,-1,608,736,-3.77063,4.31611
-609,288,-2.17065,0.104187,0,0,0,0,0,0,0,-1,615,736,-2.17063,-0.104163
-602,288,-2.26111,-0.635559,0,0,0,0,0,0,0,-1,622,736,-2.2611,0.635585
-595,288,-1.92786,0.479614,0,0,0,0,0,0,0,-1,629,736,-1.92787,-0.479619
-588,288,-1.86902,0.45343,0,0,0,0,0,0,0,-1,636,736,-1.86903,-0.453427
-581,288,-1.88147,0.563232,-0.00158759,0.00679847,0.00171547,0.00713582,-0.00192495,1.37662,0.00551206,0.0478908,643,736,-1.88149,-0.563234
-574,288,-1.85229,0.565491,-0.00280523,0.0065478,0.00137806,0.00674662,-0.00300405,1.42751,0.00576612,0.0345551,650,736,-1.85229,-0.565498
-567,288,-1.92169,0.467957,-0.00357266,0.0063006,0.00117591,0.00643872,-0.00371078,1.45387,0.00592995,0.0203325,657,736,-1.92169,-0.467937
-560,288,-1.98419,0.384277,-0.00342624,0.00511726,0.000844641,0.00519996,-0.00350894,1.47319,0.00505959,0.0111497,664,736,-1.98418,-0.384272
-553,288,-1.97778,0.320313,-0.00280626,0.0039694,0.000712353,0.00404348,-0.00288034,1.46717,0.00401623,0.015238,671,736,-1.97776,-0.320334
-546,288,-1.98328,0.257751,-0.00224595,0.00282001,0.000762032,0.00293216,-0.0023581,1.42468,0.00306032,0.0177874,678,736,-1.98326,-0.257727
-539,288,-1.96576,0.163879,-0.00165194,0.00184078,0.00122719,0.00222885,-0.00204,1.26452,0.00246543,0.0160555,685,736,-1.96577,-0.163882
-532,288,-1.95001,0.0533447,-0.00103143,0.000468534,0.00242352,0.00225546,-0.00281835,0.935454,0.00293537,0.0120643,692,736,-1.95002,-0.0533724
-525,288,-1.95142,-0.0532227,-0.00153344,-1.36025e-05,0.00412711,0.00342296,-0.00497001,0.876443,0.00487305,0.0122931,699,736,-1.95144,0.053246
-518,288,-1.97821,-0.142273,-0.0017804,-0.000845192,0.00621173,0.00491651,-0.0075421,0.822966,0.00724603,0.0116823,706,736,-1.97819,0.14229
-511,288,-1.97412,-0.226257,-0.0038198,-0.00044037,0.00937789,0.00739882,-0.011659,0.874532,0.0110943,0.00851645,713,736,-1.97411,0.226234
-504,288,-1.95868,-0.312073,-0.0062153,-0.000872038,0.0122015,0.00894685,-0.0160342,0.893177,0.014615,0.00959051,720,736,-1.95869,0.312058
-497,288,-1.95862,-0.356628,-0.00868166,-0.000284948,0.0157098,0.0117778,-0.0207444,0.915969,0.0190131,0.017284,727,736,-1.95862,0.356604
-490,288,-1.99646,-0.059082,-0.012571,0.000374394,0.0196899,0.0146281,-0.0268248,0.944201,0.0242757,0.0408121,734,736,-1.99646,0.0591073
-483,288,-2.06091,0.283997,-0.0172386,0.00167985,0.0236938,0.0177329,-0.0332916,0.975318,0.029912,0.0443797,741,736,-2.06092,-0.283984
-476,288,-2.21112,0.820923,-0.0227023,0.00350301,0.0274572,0.0208237,-0.040023,1.00802,0.035708,0.0456492,748,736,-2.2111,-0.820947
-469,288,-2.27509,1.28345,0,0,0,0,0,0,0,-1,755,736,-2.2751,-1.28342
-462,288,-3.11182,1.44537,0,0,0,0,0,0,0,-1,762,736,-3.11181,-1.44539
-455,288,-5.88629,0.673218,0,0,0,0,0,0,0,-1,769,736,-5.88628,-0.673241
-448,288,-5.33038,1.50189,0,0,0,0,0,0,0,-1,776,736,-5.33038,-1.5019
-441,288,-2.37939,0.0610352,0,0,0,0,0,0,0,-1,783,736,-2.37937,-0.061048
-434,288,-4.76099,0.757202,0,0,0,0,0,0,0,-1,790,736,-4.76097,-0.757179
-427,288,0,0,0,0,0,0,0,0,0,-1,797,736,0,0
-420,288,0,0,0,0,0,0,0,0,0,-1,804,736,0,0
-413,288,0,0,0,0,0,0,0,0,0,-1,811,736,0,0
-406,288,0,0,0,0,0,0,0,0,0,-1,818,736,0,0
-399,288,0,0,0,0,0,0,0,0,0,-1,825,736,0,0
-392,288,0,0,0,0,0,0,0,0,0,-1,832,736,0,0
-385,288,0,0,0,0,0,0,0,0,0,-1,839,736,0,0
-378,288,0,0,0,0,0,0,0,0,0,-1,846,736,0,0
-371,288,0,0,0,0,0,0,0,0,0,-1,853,736,0,0
-364,288,0,0,0,0,0,0,0,0,0,-1,860,736,0,0
-357,288,0,0,0,0,0,0,0,0,0,-1,867,736,0,0
-350,288,0,0,0,0,0,0,0,0,0,-1,874,736,0,0
-343,288,0,0,0,0,0,0,0,0,0,-1,881,736,0,0
-336,288,0,0,0,0,0,0,0,0,0,-1,888,736,0,0
-329,288,0,0,0,0,0,0,0,0,0,-1,895,736,0,0
-322,288,0,0,0,0,0,0,0,0,0,-1,902,736,0,0
-315,288,0,0,0,0,0,0,0,0,0,-1,909,736,0,0
-308,288,0,0,0,0,0,0,0,0,0,-1,916,736,0,0
-301,288,0,0,0,0,0,0,0,0,0,-1,923,736,0,0
-294,288,0,0,0,0,0,0,0,0,0,-1,930,736,0,0
-287,288,0,0,0,0,0,0,0,0,0,-1,937,736,0,0
-280,288,0,0,0,0,0,0,0,0,0,-1,944,736,0,0
-273,288,0,0,0,0,0,0,0,0,0,-1,951,736,0,0
-266,288,0,0,0,0,0,0,0,0,0,-1,958,736,0,0
-259,288,0,0,0,0,0,0,0,0,0,-1,965,736,0,0
-252,288,0,0,0,0,0,0,0,0,0,-1,972,736,0,0
-245,288,0,0,0,0,0,0,0,0,0,-1,979,736,0,0
-238,288,0,0,0,0,0,0,0,0,0,-1,986,736,0,0
-231,288,0,0,0,0,0,0,0,0,0,-1,993,736,0,0
-224,288,0,0,0,0,0,0,0,0,0,-1,1000,736,0,0
-217,288,0,0,0,0,0,0,0,0,0,-1,1007,736,0,0
-210,288,0,0,0,0,0,0,0,0,0,-1,1014,736,0,0
-203,288,0,0,0,0,0,0,0,0,0,-1,1021,736,0,0
-196,288,0,0,0,0,0,0,0,0,0,-1,1028,736,0,0
-189,288,0,0,0,0,0,0,0,0,0,-1,1035,736,0,0
-182,288,0,0,0,0,0,0,0,0,0,-1,1042,736,0,0
-175,288,0,0,0,0,0,0,0,0,0,-1,1049,736,0,0
-168,288,0,0,0,0,0,0,0,0,0,-1,1056,736,0,0
-161,288,0,0,0,0,0,0,0,0,0,-1,1063,736,0,0
-154,288,0,0,0,0,0,0,0,0,0,-1,1070,736,0,0
-147,288,0,0,0,0,0,0,0,0,0,-1,1077,736,0,0
-140,288,0,0,0,0,0,0,0,0,0,-1,1084,736,0,0
-133,288,0,0,0,0,0,0,0,0,0,-1,1091,736,0,0
-126,288,0,0,0,0,0,0,0,0,0,-1,1098,736,0,0
-119,288,0,0,0,0,0,0,0,0,0,-1,1105,736,0,0
-112,288,0,0,0,0,0,0,0,0,0,-1,1112,736,0,0
-105,288,0,0,0,0,0,0,0,0,0,-1,1119,736,0,0
-98,288,0,0,0,0,0,0,0,0,0,-1,1126,736,0,0
-91,288,0,0,0,0,0,0,0,0,0,-1,1133,736,0,0
-84,288,0,0,0,0,0,0,0,0,0,-1,1140,736,0,0
-77,288,0,0,0,0,0,0,0,0,0,-1,1147,736,0,0
-70,288,0,0,0,0,0,0,0,0,0,-1,1154,736,0,0
-63,288,0,0,0,0,0,0,0,0,0,-1,1161,736,0,0
-56,288,0,0,0,0,0,0,0,0,0,-1,1168,736,0,0
-49,288,0,0,0,0,0,0,0,0,0,-1,1175,736,0,0
-42,288,0,0,0,0,0,0,0,0,0,-1,1182,736,0,0
-35,288,0,0,0,0,0,0,0,0,0,-1,1189,736,0,0
-28,288,0,0,0,0,0,0,0,0,0,-1,1196,736,0,0
-21,288,0,0,0,0,0,0,0,0,0,-1,1203,736,0,0
-14,288,0,0,0,0,0,0,0,0,0,-1,1210,736,0,0
-7,288,0,0,0,0,0,0,0,0,0,-1,1217,736,0,0
0,288,0,0,0,0,0,0,0,0,0,-1,1224,736,0,0
7,288,0,0,0,0,0,0,0,0,0,-1,1231,736,0,0
14,288,0,0,0,0,0,0,0,0,0,-1,1238,736,0,0
21,288,0,0,0,0,0,0,0,0,0,-1,1245,736,0,0
28,288,0,0,0,0,0,0,0,0,0,-1,1252,736,0,0
35,288,0,0,0,0,0,0,0,0,0,-1,1259,736,0,0
42,288,0,0,0,0,0,0,0,0,0,-1,1266,736,0,0
49,288,0,0,0,0,0,0,0,0,0,-1,1273,736,0,0
56,288,0,0,0,0,0,0,0,0,0,-1,1280,736,0,0
63,288,0,0,0,0,0,0,0,0,0,-1,1287,736,0,0
70,288,0,0,0,0,0,0,0,0,0,-1,1294,736,0,0
77,288,0,0,0,0,0,0,0,0,0,-1,1301,736,0,0
84,288,0,0,0,0,0,0,0,0,0,-1,1308,736,0,0
91,288,0,0,0,0,0,0,0,0,0,-1,1315,736,0,0
98,288,0,0,0,0,0,0,0,0,0,-1,1322,736,0,0
105,288,0,0,0,0,0,0,0,0,0,-1,1329,736,0,0
112,288,0,0,0,0,0,0,0,0,0,-1,1336,736,0,0
119,288,0,0,0,0,0,0,0,0,0,-1,1343,736,0,0
126,288,0,0,0,0,0,0,0,0,0,-1,1350,736,0,0
133,288,0,0,0,0,0,0,0,0,0,-1,1357,736,0,0
140,288,0,0,0,0,0,0,0,0,0,-1,1364,736,0,0
147,288,0,0,0,0,0,0,0,0,0,-1,1371,736,0,0
154,288,0,0,0,0,0,0,0,0,0,-1,1378,736,0,0
161,288,0,0,0,0,0,0,0,0,0,-1,1385,736,0,0
168,288,0,0,0,0,0,0,0,0,0,-1,1392,736,0,0
175,288,0,0,0,0,0,0,0,0,0,-1,1399,736,0,0
182,288,0,0,0,0,0,0,0,0,0,-1,1406,736,0,0
189,288,0,0,0,0,0,0,0,0,0,-1,1413,736,0,0
196,288,0,0,0,0,0,0,0,0,0,-1,1420,736,0,0
203,288,0,0,0,0,0,0,0,0,0,-1,1427,736,0,0
210,288,0,0,0,0,0,0,0,0,0,-1,1434,736,0,0
217,288,0,0,0,0,0,0,0,0,0,-1,1441,736,0,0
224,288,0,0,0,0,0,0,0,0,0,-1,1448,736,0,0
231,288,0,0,0,0,0,0,0,0,0,-1,1455,736,0,0
238,288,0,0,0,0,0,0,0,0,0,-1,1462,736,0,0
245,288,0,0,0,0,0,0,0,0,0,-1,1469,736,0,0
252,288,0,0,0,0,0,0,0,0,0,-1,1476,736,0,0
259,288,0,0,0,0,0,0,0,0,0,-1,1483,736,0,0
266,288,0,0,0,0,0,0,0,0,0,-1,1490,736,0,0
273,288,0,0,0,0,0,0,0,0,0,-1,1497,736,0,0
280,288,0,0,0,0,0,0,0,0,0,-1,1504,736,0,0
287,288,0,0,0,0,0,0,0,0,0,-1,1511,736,0,0
294,288,0,0,0,0,0,0,0,0,0,-1,1518,736,0,0
301,288,0,0,0,0,0,0,0,0,0,-1,1525,736,0,0
308,288,0,0,0,0,0,0,0,0,0,-1,1532,736,0,0
315,288,0,0,0,0,0,0,0,0,0,-1,1539,736,0,0
322,288,0,0,0,0,0,0,0,0,0,-1,1546,736,0,0
329,288,0,0,0,0,0,0,0,0,0,-1,1553,736,0,0
336,288,0,0,0,0,0,0,0,0,0,-1,1560,736,0,0
343,288,0,0,0,0,0,0,0,0,0,-1,1567,736,0,0
350,288,0,0,0,0,0,0,0,0,0,-1,1574,736,0,0
357,288,0,0,0,0,0,0,0,0,0,-1,1581,736,0,0
364,288,0,0,0,0,0,0,0,0,0,-1,1588,736,0,0
371,288,0,0,0,0,0,0,0,0,0,-1,1595,736,0,0
378,288,0,0,0,0,0,0,0,0,0,-1,1602,736,0,0
385,288,0,0,0,0,0,0,0,0,0,-1,1609,736,0,0
392,288,0,0,0,0,0,0,0,0,0,-1,1616,736,0,0
399,288,0,0,0,0,0,0,0,0,0,-1,1623,736,0,0
406,288,0,0,0,0,0,0,0,0,0,-1,1630,736,0,0
413,288,0,0,0,0,0,0,0,0,0,-1,1637,736,0,0
420,288,0,0,0,0,0,0,0,0,0,-1,1644,736,0,0
427,288,0,0,0,0,0,0,0,0,0,-1,1651,736,0,0
434,288,0,0,0,0,0,0,0,0,0,-1,1658,736,0,0
441,288,0,0,0,0,0,0,0,0,0,-1,1665,736,0,0
448,288,0,0,0,0,0,0,0,0,0,-1,1672,736,0,0
455,288,0,0,0,0,0,0,0,0,0,-1,1679,736,0,0
462,288,0,0,0,0,0,0,0,0,0,-1,1686,736,0,0
469,288,0,0,0,0,0,0,0,0,0,-1,1693,736,0,0
476,288,0,0,0,0,0,0,0,0,0,-1,1700,736,0,0
483,288,0,0,0,0,0,0,0,0,0,-1,1707,736,0,0
490,288,0,0,0,0,0,0,0,0,0,-1,1714,736,0,0
497,288,0,0,0,0,0,0,0,0,0,-1,1721,736,0,0
504,288,0,0,0,0,0,0,0,0,0,-1,1728,736,0,0
511,288,0,0,0,0,0,0,0,0,0,-1,1735,736,0,0
518,288,0,0,0,0,0,0,0,0,0,-1,1742,736,0,0
525,288,0,0,0,0,0,0,0,0,0,-1,1749,736,0,0
532,288,0,0,0,0,0,0,0,0,0,-1,1756,736,0,0
539,288,0,0,0,0,0,0,0,0,0,-1,1763,736,0,0
546,288,0,0,0,0,0,0,0,0,0,-1,1770,736,0,0
553,288,9.42908,1.46124,0.00469545,-0.00434374,0.0149459,0.0157901,-0.0154384,0.638571,0.0180302,0.0408711,1777,736,9.42912,-1.46124
560,288,9.48376,1.41064,0.0240694,-0.012512,0.0126511,0.0280183,-0.0164609,0.302556,0.0259675,0.0412224,1784,736,9.48374,-1.41065
567,288,9.64685,0.940735,0.0326568,-0.0173282,0.0101486,0.0346387,-0.0193101,0.192863,0.0315637,0.046466,1791,736,9.64683,-0.940747
574,288,10.2312,0.509155,0,0,0,0,0,0,0,-1,1798,736,10.2312,-0.509178
581,288,11.079,0.140198,0,0,0,0,0,0,0,-1,1805,736,11.079,-0.140218
588,288,8.74219,0.719116,0,0,0,0,0,0,0,-1,1812,736,8.74218,-0.71913
595,288,8.41772,1.01672,0,0,0,0,0,0,0,-1,1819,736,8.41768,-1.0167
602,288,8.0885,1.33167,0.0176653,-0.0201503,-9.91321e-05,0.0176655,-0.0201506,-0.00262144,0.0218488,0.0437873,1826,736,8.0885,-1.33169
609,288,8.14917,1.06482,0.0117317,-0.0191259,-0.00124644,0.011782,-0.0191762,-0.0403056,0.0180429,0.0454345,1833,736,8.14922,-1.06483
616,288,7.82776,0.745483,0.00569548,-0.018384,-0.00209975,0.00587721,-0.0185657,-0.0863326,0.0147323,0.0475487,1840,736,7.82777,-0.745482
623,288,7.02124,0.432556,-1.76311e-05,-0.0159483,-0.00242042,0.000341995,-0.016308,-0.147501,0.0109877,0.0406806,1847,736,7.02124,-0.432582
630,288,6.85608,0.331299,-0.00485337,-0.0121594,-0.0024878,-0.00408669,-0.012926,-0.298941,0.00762915,0.0181867,1854,736,6.85609,-0.331279
637,288,6.85754,0.378662,-0.00701843,-0.00923904,-0.00257047,-0.00532872,-0.0109287,-0.581528,0.00631036,0.0103182,1861,736,6.85749,-0.378646
644,288,6.87671,0.469788,-0.00770597,-0.00668247,-0.00251481,-0.00462787,-0.00976057,-0.885775,0.00563778,0.010015,1868,736,6.87676,-0.469769
651,288,6.87769,0.584106,-0.00649321,-0.00476181,-0.0023897,-0.00308583,-0.00816918,-0.959177,0.00476325,0.0107156,1875,736,6.87769,-0.584107
658,288,6.86304,0.692627,-0.00384702,-0.00294082,-0.00193561,-0.00140599,-0.00538186,-0.900371,0.00322313,0.0155902,1882,736,6.86306,-0.692629
665,288,6.8678,0.761169,-0.00125116,-0.00184115,-0.00175132,0.000229838,-0.00332215,-0.701962,0.00229522,0.0161698,1889,736,6.86776,-0.761159
672,288,6.87512,0.827576,0.0016433,-0.00128624,-0.00177525,0.00248007,-0.00212301,-0.440467,0.00266025,0.0118488,1896,736,6.87518,-0.827551
679,288,6.87695,0.955811,0.00487439,-0.00179647,-0.00218218,0.00552481,-0.0024469,-0.289676,0.00471543,0.00897865,1903,736,6.877,-0.955796
686,288,6.88232,1.03619,0.00796698,-0.00349729,-0.00284002,0.00863195,-0.00416227,-0.230003,0.00753551,0.00777301,1910,736,6.88236,-1.03622
693,288,6.89709,1.11481,0.011218,-0.00550414,-0.00392959,0.0120954,-0.00638153,-0.219675,0.0108363,0.0111166,1917,736,6.89704,-1.11483
700,288,6.93872,1.17487,0.0154106,-0.00853721,-0.00551037,0.0166177,-0.00974429,-0.215651,0.0153916,0.0224558,1924,736,6.93873,-1.17489
707,288,6.84619,1.14819,0.0207512,-0.0129547,-0.00759624,0.0223841,-0.0145876,-0.211733,0.0215032,0.0383855,1931,736,6.8462,-1.14821
714,288,6.64783,1.20679,0,0,0,0,0,0,0,-1,1938,736,6.6478,-1.20677
721,288,7.59485,1.59863,0.0360098,-0.0279545,-0.0136086,0.0387847,-0.0307294,-0.201149,0.0402237,0.0489694,1945,736,7.59487,-1.59863
728,288,7.95496,0.948303,0.0465983,-0.0398806,-0.0176751,0.0500714,-0.0433536,-0.194023,0.0539854,0.0489186,1952,736,7.95492,-0.948306
735,288,8.4436,0.268799,0.0596397,-0.0559034,-0.0225192,0.0638735,-0.0601372,-0.18584,0.0716085,0.0452468,1959,736,8.44363,-0.268826
742,288,0,0,0,0,0,0,0,0,0,-1,1966,736,0,0
749,288,0,0,0,0,0,0,0,0,0,-1,1973,736,0,0
756,288,0,0,0,0,0,0,0,0,0,-1,1980,736,0,0
763,288,0,0,0,0,0,0,0,0,0,-1,1987,736,0,0
770,288,0,0,0,0,0,0,0,0,0,-1,1994,736,0,0
777,288,0,0,0,0,0,0,0,0,0,-1,2001,736,0,0
784,288,0,0,0,0,0,0,0,0,0,-1,2008,736,0,0
791,288,0,0,0,0,0,0,0,0,0,-1,2015,736,0,0
798,288,0,0,0,0,0,0,0,0,0,-1,2022,736,0,0
805,288,0,0,0,0,0,0,0,0,0,-1,2029,736,0,0
812,288,0,0,0,0,0,0,0,0,0,-1,2036,736,0,0
-700,281,0,0,0,0,0,0,0,0,0,-1,524,743,0,0
-693,281,0,0,0,0,0,0,0,0,0,-1,531,743,0,0
-686,281,0,0,0,0,0,0,0,0,0,-1,538,743,0,0
-679,281,0,0,0,0,0,0,0,0,0,-1,545,743,0,0
-672,281,0,0,0,0,0,0,0,0,0,-1,552,743,0,0
-665,281,0,0,0,0,0,0,0,0,0,-1,559,743,0,0
-658,281,0,0,0,0,0,0,0,0,0,-1,566,743,0,0
-651,281,0,0,0,0,0,0,0,0,0,-1,573,743,0,0
-644,281,0,0,0,0,0,0,0,0,0,-1,580,743,0,0
-637,281,0,0,0,0,0,0,0,0,0,-1,587,743,0,0
-630,281,0,0,0,0,0,0,0,0,0,-1,594,743,0,0
-623,281,-1.98981,2.21021,0,0,0,0,0,0,0,-1,601,743,-1.98984,-2.21018
-616,281,-1.9082,0.505798,0,0,0,0,0,0,0,-1,608,743,-1.9082,-0.505827
-609,281,-2.31873,0.45697,0.0216488,-0.019597,-0.00630071,0.0225898,-0.0205381,-0.148257,0.0249093,0.04836,615,743,-2.31874,-0.457001
-602,281,-2.59033,-0.0679321,0,0,0,0,0,0,0,-1,622,743,-2.59032,0.0679601
-595,281,-2.85541,-0.333496,0,0,0,0,0,0,0,-1,629,743,-2.85543,0.333503
-588,281,-2.03418,0.257629,0,0,0,0,0,0,0,-1,636,743,-2.03416,-0.257601
-581,281,-1.84198,0.573364,-0.00081879,0.00211537,0.00167075,0.00287174,-0.00157516,1.14569,0.00260354,0.0427164,643,743,-1.84201,-0.573357
-574,281,-1.95313,0.539612,-0.00273828,0.00296338,0.0017994,0.00348376,-0.00325866,1.28928,0.00389346,0.0252373,650,743,-1.9531,-0.539592
-567,281,-2.0744,0.500366,-0.00385642,0.0037893,0.00167117,0.00413862,-0.00420574,1.36474,0.00481767,0.0121926,657,743,-2.07437,-0.500365
-560,281,-2.08075,0.416565,-0.00382371,0.00334014,0.00130764,0.00357136,-0.00405493,1.39578,0.00440599,0.00819189,664,743,-2.08077,-0.416538
-553,281,-2.08191,0.341614,-0.00314878,0.00261032,0.0011408,0.00282806,-0.00336652,1.38219,0.00358095,0.0125513,671,743,-2.0819,-0.341617
-546,281,-2.078,0.265503,-0.0024389,0.00174609,0.001186,0.00205883,-0.00275164,1.31298,0.00278691,0.01419,678,743,-2.078,-0.26549
-539,281,-2.04913,0.148804,-0.00168354,0.00104744,0.00173451,0.00188946,-0.00252556,1.11886,0.00255781,0.0124738,685,743,-2.04915,-0.148814
-532,281,-2.03656,0.0429077,-0.00092298,-0.000169456,0.00309513,0.00257176,-0.00366419,0.845964,0.00361869,0.0101493,692,743,-2.03658,-0.0429111
-525,281,-2.05328,-0.0463867,-0.00146208,-0.000474483,0.00496915,0.00402534,-0.00596191,0.834922,0.00580216,0.0116745,699,743,-2.05329,0.0463713
-518,281,-2.07037,-0.140625,-0.00159629,-0.00113428,0.00716266,0.0058011,-0.00853167,0.801518,0.00832494,0.0117213,706,743,-2.07036,0.140647
-511,281,-2.07587,-0.236389,-0.0036754,-0.000410157,0.0104659,0.00854967,-0.0126352,0.862772,0.0123067,0.0104725,713,743,-2.07585,0.236407
-504,281,-2.04688,-0.30188,-0.00625319,-0.000543693,0.0134497,0.0103509,-0.0171478,0.889973,0.0160372,0.0116471,720,743,-2.04685,0.301867
-497,281,-1.99628,-0.393372,-0.0089927,0.000428472,0.0170039,0.0133622,-0.0219264,0.920524,0.0205729,0.0291812,727,743,-1.99628,0.393398
-490,281,-1.97546,0.0539551,-0.0132194,0.00151868,0.0209307,0.0163396,-0.0280404,0.954657,0.0259179,0.0411853,734,743,-1.97543,-0.0539852
-483,281,-1.93298,0.61499,-0.0183299,0.00337047,0.0246998,0.0194982,-0.0344576,0.992351,0.031548,0.0418702,741,743,-1.93301,-0.614987
-476,281,-2.19049,0.288818,-0.0241659,0.00583954,0.0279817,0.0225868,-0.0409131,1.03148,0.0371671,0.046843,748,743,-2.19049,-0.288795
-469,281,-2.12952,0.816711,0,0,0,0,0,0,0,-1,755,743,-2.12955,-0.816686
-462,281,-1.84894,1.492,-0.035145,0.0110942,0.0311885,0.0267978,-0.0508486,1.10435,0.0455404,0.0464586,762,743,-1.84895,-1.492
-455,281,-5.49463,0.502075,-0.0390588,0.0134004,0.0306758,0.0275317,-0.0531901,1.13911,0.047383,0.0401785,769,743,-5.49464,-0.502103
-448,281,-5.06219,1.0592,-0.0414004,0.0152818,0.0287027,0.0272776,-0.0533961,1.17493,0.0473837,0.0416495,776,743,-5.06217,-1.05919
-441,281,-5.04486,1.46558,0,0,0,0,0,0,0,-1,783,743,-5.04489,-1.46559
-434,281,0,0,0,0,0,0,0,0,0,-1,790,743,0,0
-427,281,0,0,0,0,0,0,0,0,0,-1,797,743,0,0
-420,281,0,0,0,0,0,0,0,0,0,-1,804,743,0,0
-413,281,0,0,0,0,0,0,0,0,0,-1,811,743,0,0
-406,281,0,0,0,0,0,0,0,0,0,-1,818,743,0,0
-399,281,0,0,0,0,0,0,0,0,0,-1,825,743,0,0
-392,281,0,0,0,0,0,0,0,0,0,-1,832,743,0,0
-385,281,0,0,0,0,0,0,0,0,0,-1,839,743,0,0
-378,281,0,0,0,0,0,0,0,0,0,-1,846,743,0,0
-371,281,0,0,0,0,0,0,0,0,0,-1,853,743,0,0
-364,281,0,0,0,0,0,0,0,0,0,-1,860,743,0,0
-357,281,0,0,0,0,0,0,0,0,0,-1,867,743,0,0
-350,281,0,0,0,0,0,0,0,0,0,-1,874,743,0,0
-343,281,0,0,0,0,0,0,0,0,0,-1,881,743,0,0
-336,281,0,0,0,0,0,0,0,0,0,-1,888,743,0,0
-329,281,0,0,0,0,0,0,0,0,0,-1,895,743,0,0
-322,281,0,0,0,0,0,0,0,0,0,-1,902,743,0,0
-315,281,0,0,0,0,0,0,0,0,0,-1,909,743,0,0
-308,281,0,0,0,0,0,0,0,0,0,-1,916,743,0,0
-301,281,0,0,0,0,0,0,0,0,0,-1,923,743,0,0
-294,281,0,0,0,0,0,0,0,0,0,-1,930,743,0,0
-287,281,0,0,0,0,0,0,0,0,0,-1,937,743,0,0
-280,281,0,0,0,0,0,0,0,0,0,-1,944,743,0,0
-273,281,0,0,0,0,0,0,0,0,0,-1,951,743,0,0
-266,281,0,0,0,0,0,0,0,0,0,-1,958,743,0,0
-259,281,0,0,0,0,0,0,0,0,0,-1,965,743,0,0
-252,281,0,0,0,0,0,0,0,0,0,-1,972,743,0,0
-245,281,0,0,0,0,0,0,0,0,0,-1,979,743,0,0
-238,281,0,0,0,0,0,0,0,0,0,-1,986,743,0,0
-231,281,0,0,0,0,0,0,0,0,0,-1,993,743,0,0
-224,281,0,0,0,0,0,0,0,0,0,-1,1000,743,0,0
-217,281,0,0,0,0,0,0,0,0,0,-1,1007,743,0,0
-210,281,0,0,0,0,0,0,0,0,0,-1,1014,743,0,0
-203,281,0,0,0,0,0,0,0,0,0,-1,1021,743,0,0
-196,281,0,0,0,0,0,0,0,0,0,-1,1028,743,0,0
-189,281,0,0,0,0,0,0,0,0,0,-1,1035,743,0,0
-182,281,0,0,0,0,0,0,0,0,0,-1,1042,743,0,0
-175,281,0,0,0,0,0,0,0,0,0,-1,1049,743,0,0
-168,281,0,0,0,0,0,0,0,0,0,-1,1056,743,0,0
-161,281,0,0,0,0,0,0,0,0,0,-1,1063,743,0,0
-154,281,0,0,0,0,0,0,0,0,0,-1,1070,743,0,0
-147,281,0,0,0,0,0,0,0,0,0,-1,1077,743,0,0
-140,281,0,0,0,0,0,0,0,0,0,-1,1084,743,0,0
-133,281,0,0,0,0,0,0,0,0,0,-1,1091,743,0,0
-126,281,0,0,0,0,0,0,0,0,0,-1,1098,743,0,0
-119,281,0,0,0,0,0,0,0,0,0,-1,1105,743,0,0
-112,281,0,0,0,0,0,0,0,0,0,-1,1112,743,0,0
-105,281,0,0,0,0,0,0,0,0,0,-1,1119,743,0,0
-98,281,0,0,0,0,0,0,0,0,0,-1,1126,743,0,0
-91,281,0,0,0,0,0,0,0,0,0,-1,1133,743,0,0
-84,281,0,0,0,0,0,0,0,0,0,-1,1140,743,0,0
-77,281,0,0,0,0,0,0,0,0,0,-1,1147,743,0,0
-70,281,0,0,0,0,0,0,0,0,0,-1,1154,743,0,0
-63,281,0,0,0,0,0,0,0,0,0,-1,1161,743,0,0
-56,281,0,0,0,0,0,0,0,0,0,-1,1168,743,0,0
-49,281,0,0,0,0,0,0,0,0,0,-1,1175,743,0,0
-42,281,0,0,0,0,0,0,0,0,0,-1,1182,743,0,0
-35,281,0,0,0,0,0,0,0,0,0,-1,1189,743,0,0
-28,281,0,0,0,0,0,0,0,0,0,-1,1196,743,0,0
-21,281,0,0,0,0,0,0,0,0,0,-1,1203,743,0,0
-14,281,0,0,0,0,0,0,0,0,0,-1,1210,743,0,0
-7,281,0,0,0,0,0,0,0,0,0,-1,1217,743,0,0
0,281,0,0,0,0,0,0,0,0,0,-1,1224,743,0,0
7,281,0,0,0,0,0,0,0,0,0,-1,1231,743,0,0
14,281,0,0,0,0,0,0,0,0,0,-1,1238,743,0,0
21,281,0,0,0,0,0,0,0,0,0,-1,1245,743,0,0
28,281,0,0,0,0,0,0,0,0,0,-1,1252,743,0,0
35,281,0,0,0,0,0,0,0,0,0,-1,1259,743,0,0
42,281,0,0,0,0,0,0,0,0,0,-1,1266,743,0,0
49,281,0,0,0,0,0,0,0,0,0,-1,1273,743,0,0
56,281,0,0,0,0,0,0,0,0,0,-1,1280,743,0,0
63,281,0,0,0,0,0,0,0,0,0,-1,1287,743,0,0
70,281,0,0,0,0,0,0,0,0,0,-1,1294,743,0,0
77,281,0,0,0,0,0,0,0,0,0,-1,1301,743,0,0
84,281,0,0,0,0,0,0,0,0,0,-1,1308,743,0,0
91,281,0,0,0,0,0,0,0,0,0,-1,1315,743,0,0
98,281,0,0,0,0,0,0,0,0,0,-1,1322,743,0,0
105,281,0,0,0,0,0,0,0,0,0,-1,1329,743,0,0
112,281,0,0,0,0,0,0,0,0,0,-1,1336,743,0,0
119,281,0,0,0,0,0,0,0,0,0,-1,1343,743,0,0
126,281,0,0,0,0,0,0,0,0,0,-1,1350,743,0,0
133,281,0,0,0,0,0,0,0,0,0,-1,1357,743,0,0
140,281,0,0,0,0,0,0,0,0,0,-1,1364,743,0,0
147,281,0,0,0,0,0,0,0,0,0,-1,1371,743,0,0
154,281,0,0,0,0,0,0,0,0,0,-1,1378,743,0,0
161,281,0,0,0,0,0,0,0,0,0,-1,1385,743,0,0
168,281,0,0,0,0,0,0,0,0,0,-1,1392,743,0,0
175,281,0,0,0,0,0,0,0,0,0,-1,1399,743,0,0
182,281,0,0,0,0,0,0,0,0,0,-1,1406,743,0,0
189,281,0,0,0,0,0,0,0,0,0,-1,1413,743,0,0
196,281,0,0,0,0,0,0,0,0,0,-1,1420,743,0,0
203,281,0,0,0,0,0,0,0,0,0,-1,1427,743,0,0
210,281,0,0,0,0,0,0,0,0,0,-1,1434,743,0,0
217,281,0,0,0,0,0,0,0,0,0,-1,1441,743,0,0
224,281,0,0,0,0,0,0,0,0,0,-1,1448,743,0,0
231,281,0,0,0,0,0,0,0,0,0,-1,1455,743,0,0
238,281,0,0,0,0,0,0,0,0,0,-1,1462,743,0,0
245,281,0,0,0,0,0,0,0,0,0,-1,1469,743,0,0
252,281,0,0,0,0,0,0,0,0,0,-1,1476,743,0,0
259,281,0,0,0,0,0,0,0,0,0,-1,1483,743,0,0
266,281,0,0,0,0,0,0,0,0,0,-1,1490,743,0,0
273,281,0,0,0,0,0,0,0,0,0,-1,1497,743,0,0
280,281,0,0,0,0,0,0,0,0,0,-1,1504,743,0,0
287,281,0,0,0,0,0,0,0,0,0,-1,1511,743,0,0
294,281,0,0,0,0,0,0,0,0,0,-1,1518,743,0,0
301,281,0,0,0,0,0,0,0,0,0,-1,1525,743,0,0
308,281,0,0,0,0,0,0,0,0,0,-1,1532,743,0,0
315,281,0,0,0,0,0,0,0,0,0,-1,1539,743,0,0
322,281,0,0,0,0,0,0,0,0,0,-1,1546,743,0,0
329,281,0,0,0,0,0,0,0,0,0,-1,1553,743,0,0
336,281,0,0,0,0,0,0,0,0,0,-1,1560,743,0,0
343,281,0,0,0,0,0,0,0,0,0,-1,1567,743,0,0
350,281,0,0,0,0,0,0,0,0,0,-1,1574,743,0,0
357,281,0,0,0,0,0,0,0,0,0,-1,1581,743,0,0
364,281,0,0,0,0,0,0,0,0,0,-1,1588,743,0,0
371,281,0,0,0,0,0,0,0,0,0,-1,1595,743,0,0
378,281,0,0,0,0,0,0,0,0,0,-1,1602,743,0,0
385,281,0,0,0,0,0,0,0,0,0,-1,1609,743,0,0
392,281,0,0,0,0,0,0,0,0,0,-1,1616,743,0,0
399,281,0,0,0,0,0,0,0,0,0,-1,1623,743,0,0
406,281,0,0,0,0,0,0,0,0,0,-1,1630,743,0,0
413,281,0,0,0,0,0,0,0,0,0,-1,1637,743,0,0
420,281,0,0,0,0,0,0,0,0,0,-1,1644,743,0,0
427,281,0,0,0,0,0,0,0,0,0,-1,1651,743,0,0
434,281,0,0,0,0,0,0,0,0,0,-1,1658,743,0,0
441,281,0,0,0,0,0,0,0,0,0,-1,1665,743,0,0
448,281,0,0,0,0,0,0,0,0,0,-1,1672,743,0,0
455,281,0,0,0,0,0,0,0,0,0,-1,1679,743,0,0
462,281,0,0,0,0,0,0,0,0,0,-1,1686,743,0,0
469,281,0,0,0,0,0,0,0,0,0,-1,1693,743,0,0
476,281,0,0,0,0,0,0,0,0,0,-1,1700,743,0,0
483,281,0,0,0,0,0,0,0,0,0,-1,1707,743,0,0
490,281,0,0,0,0,0,0,0,0,0,-1,1714,743,0,0
497,281,0,0,0,0,0,0,0,0,0,-1,1721,743,0,0
504,281,0,0,0,0,0,0,0,0,0,-1,1728,743,0,0
511,281,0,0,0,0,0,0,0,0,0,-1,1735,743,0,0
518,281,0,0,0,0,0,0,0,0,0,-1,1742,743,0,0
525,281,0,0,0,0,0,0,0,0,0,-1,1749,743,0,0
532,281,0,0,0,0,0,0,0,0,0,-1,1756,743,0,0
539,281,0,0,0,0,0,0,0,0,0,-1,1763,743,0,0
546,281,0,0,0,0,0,0,0,0,0,-1,1770,743,0,0
553,281,0,0,0,0,0,0,0,0,0,-1,1777,743,0,0
560,281,9.58008,1.45691,0.02063,-0.00992915,0.0116118,0.0245416,-0.0138407,0.324922,0.0224453,0.0390489,1784,743,9.58002,-1.45693
567,281,9.58557,1.2348,0.0346496,-0.0158104,0.0106633,0.0368105,-0.0179713,0.199937,0.0322457,0.0403706,1791,743,9.58559,-1.23483
574,281,10.0635,0.914063,0.0370205,-0.0198407,0.00868893,0.0383186,-0.0211388,0.148302,0.0348021,0.0476028,1798,743,10.0634,-0.914061
581,281,10.8298,0.470825,0.0341263,-0.0217186,0.00661397,0.034899,-0.0224913,0.116291,0.0333914,0.0459337,1805,743,10.8298,-0.47082
588,281,11.4574,0.0703125,0.0300055,-0.0224211,0.00464541,0.030414,-0.0228295,0.0876973,0.0308439,0.041372,1812,743,11.4574,-0.0703011
595,281,8.87073,0.905823,0,0,0,0,0,0,0,-1,1819,743,8.87073,-0.905826
602,281,8.67639,1.10614,0.0193271,-0.0213135,0.0012789,0.0193673,-0.0213537,0.031427,0.0235196,0.0446531,1826,743,8.67639,-1.10613
609,281,8.60266,1.19757,0.0127607,-0.020425,0.000107314,0.0127611,-0.0204254,0.0032337,0.0193298,0.0481563,1833,743,8.6026,-1.19756
616,281,8.16077,1.30029,0.00633825,-0.0196877,-0.000808609,0.00636335,-0.0197128,-0.0310294,0.0156989,0.0469115,1840,743,8.16074,-1.30029
623,281,7.4751,1.07117,0.000242798,-0.0173465,-0.00129241,0.000337253,-0.0174409,-0.0729553,0.0117413,0.0457028,1847,743,7.47504,-1.07114
630,281,6.97119,0.367004,-0.00502697,-0.0136859,-0.00169329,-0.00470762,-0.0140052,-0.18641,0.00822941,0.0330795,1854,743,6.97114,-0.367022
637,281,6.96326,0.366211,-0.007743,-0.010688,-0.00207185,-0.00667368,-0.0117573,-0.47646,0.00680873,0.0128269,1861,743,6.96331,-0.366183
644,281,6.97839,0.466736,-0.00890329,-0.0079946,-0.00226772,-0.00613616,-0.0107617,-0.884266,0.00623365,0.0102205,1868,743,6.97834,-0.466748
651,281,6.97937,0.576477,-0.00802749,-0.00584724,-0.00238765,-0.00431263,-0.0095621,-0.999549,0.00552951,0.0112824,1875,743,6.97943,-0.576459
658,281,6.96997,0.67804,-0.0054685,-0.00380269,-0.00207961,-0.0023954,-0.00687579,-0.975871,0.00403012,0.0194724,1882,743,6.96991,-0.678013
665,281,6.98462,0.725342,-0.00293082,-0.00238777,-0.00199222,-0.000648656,-0.00466993,-0.853128,0.00292118,0.0208151,1889,743,6.98467,-0.725338
672,281,6.95605,0.851196,-0.00016779,-0.00176901,-0.00199554,0.00118176,-0.00311855,-0.594628,0.00256535,0.0107936,1896,743,6.95605,-0.851216
679,281,6.97205,0.968811,0.00294355,-0.00221614,-0.00237725,0.00387183,-0.00314442,-0.372275,0.00405808,0.01376,1903,743,6.97207,-0.968833
686,281,6.97229,1.03351,0.00572455,-0.00386419,-0.00291794,0.0065427,-0.00468234,-0.273366,0.00651038,0.0108694,1910,743,6.97226,-1.03351
693,281,6.96692,1.12421,0.00845079,-0.00571731,-0.00388801,0.0094476,-0.00671413,-0.250976,0.00937536,0.00971908,1917,743,6.96696,-1.12418
700,281,6.97729,1.1897,0.0119861,-0.00861439,-0.0053294,0.0132832,-0.00991146,-0.238737,0.0134385,0.0163732,1924,743,6.97727,-1.18969
707,281,6.9115,1.19727,0.0165175,-0.0127609,-0.00719047,0.0181881,-0.0144315,-0.228283,0.0188745,0.0325429,1931,743,6.91152,-1.19724
714,281,6.79138,1.22565,0.0223285,-0.0184979,-0.00947909,0.024422,-0.0205914,-0.217366,0.0260198,0.0448279,1938,743,6.79143,-1.22566
721,281,6.71375,1.23016,0,0,0,0,0,0,0,-1,1945,743,6.71376,-1.23018
728,281,7.9353,1.40161,0.0392565,-0.0365481,-0.0154199,0.0422731,-0.0395647,-0.193192,0.0472577,0.0487134,1952,743,7.9353,-1.4016
735,281,8.34558,1.18463,0.0511409,-0.0498983,-0.0189417,0.0545752,-0.0533325,-0.179358,0.0623019,0.0466319,1959,743,8.34556,-1.18462
742,281,0,0,0,0,0,0,0,0,0,-1,1966,743,0,0
749,281,0,0,0,0,0,0,0,0,0,-1,1973,743,0,0
756,281,0,0,0,0,0,0,0,0,0,-1,1980,743,0,0
763,281,0,0,0,0,0,0,0,0,0,-1,1987,743,0,0
770,281,0,0,0,0,0,0,0,0,0,-1,1994,743,0,0
777,281,0,0,0,0,0,0,0,0,0,-1,2001,743,0,0
784,281,0,0,0,0,0,0,0,0,0,-1,2008,743,0,0
791,281,0,0,0,0,0,0,0,0,0,-1,2015,743,0,0
798,281,0,0,0,0,0,0,0,0,0,-1,2022,743,0,0
805,281,0,0,0,0,0,0,0,0,0,-1,2029,743,0,0
812,281,0,0,0,0,0,0,0,0,0,-1,2036,743,0,0
-700,274,0,0,0,0,0,0,0,0,0,-1,524,750,0,0
-693,274,0,0,0,0,0,0,0,0,0,-1,531,750,0,0
-686,274,0,0,0,0,0,0,0,0,0,-1,538,750,0,0
-679,274,0,0,0,0,0,0,0,0,0,-1,545,750,0,0
-672,274,0,0,0,0,0,0,0,0,0,-1,552,750,0,0
-665,274,0,0,0,0,0,0,0,0,0,-1,559,750,0,0
-658,274,0,0,0,0,0,0,0,0,0,-1,566,750,0,0
-651,274,0,0,0,0,0,0,0,0,0,-1,573,750,0,0
-644,274,0,0,0,0,0,0,0,0,0,-1,580,750,0,0
-637,274,0,0,0,0,0,0,0,0,0,-1,587,750,0,0
-630,274,0,0,0,0,0,0,0,0,0,-1,594,750,0,0
-623,274,-2.77069,2.56042,0,0,0,0,0,0,0,-1,601,750,-2.77068,-2.56044
-616,274,-2.21716,0.941589,0,0,0,0,0,0,0,-1,608,750,-2.21714,-0.941619
-609,274,-2.47864,0.876709,0,0,0,0,0,0,0,-1,615,750,-2.47863,-0.876723
-602,274,-2.74011,0.811829,0,0,0,0,0,0,0,-1,622,750,-2.74011,-0.811827
-595,274,-2.42181,0.0176392,0,0,0,0,0,0,0,-1,629,750,-2.42179,-0.0176347
-588,274,-2.25708,0.316528,0,0,0,0,0,0,0,-1,636,750,-2.2571,-0.3165
-581,274,-2.00854,0.668213,-0.00068998,-0.00144481,0.00129876,0.000285093,-0.00241989,0.643994,0.0017162,0.0366881,643,750,-2.00852,-0.668215
-574,274,-2.09125,0.59552,-0.00257684,0.00018335,0.00183839,0.00110202,-0.00349552,1.10738,0.0027717,0.0180834,650,750,-2.09127,-0.595495
-567,274,-2.17426,0.50769,-0.00378675,0.00181789,0.0018347,0.00236506,-0.00433393,1.28096,0.00392295,0.016552,657,750,-2.17428,-0.507684
-560,274,-2.16376,0.422546,-0.00383581,0.00202817,0.00149418,0.00238694,-0.00419458,1.33514,0.00384732,0.0146558,664,750,-2.16376,-0.422525
-553,274,-2.14301,0.329346,-0.00314883,0.0016363,0.00138992,0.00201072,-0.00352326,1.30765,0.00323458,0.00893556,671,750,-2.14302,-0.329347
-546,274,-2.15155,0.225464,-0.00234301,0.000956791,0.00152313,0.00155235,-0.00293857,1.19806,0.00263368,0.0101646,678,750,-2.15154,-0.225434
-539,274,-2.14795,0.134277,-0.00145543,0.000446115,0.00222179,0.00191201,-0.00292133,0.987573,0.00281074,0.0106366,685,750,-2.14792,-0.134254
-532,274,-2.13983,0.065979,-0.000601796,-0.000707216,0.00379653,0.00314239,-0.0044514,0.778457,0.00440593,0.010013,692,750,-2.13981,-0.0660005
-525,274,-2.13904,-0.020813,-0.00120348,-0.000960725,0.00584852,0.00476768,-0.00693189,0.795774,0.00679316,0.00986555,699,750,-2.13902,0.0207945
-518,274,-2.14215,-0.113708,-0.00126792,-0.00154233,0.00813684,0.00673287,-0.00954312,0.776968,0.00944353,0.0113616,706,750,-2.14213,0.113718
-511,274,-2.1413,-0.223145,-0.00329519,-0.000665996,0.0114979,0.00959225,-0.0135534,0.842318,0.0134282,0.0108947,713,750,-2.14129,0.223125
-504,274,-2.13043,-0.295288,-0.0058826,-0.000604733,0.0145954,0.0115884,-0.0180758,0.874835,0.0172626,0.0177763,720,750,-2.13043,0.295319
-497,274,-2.14038,-0.33667,-0.00858772,0.000567787,0.0181176,0.014677,-0.0226969,0.909143,0.0217428,0.0391017,727,750,-2.14038,0.336677
-490,274,-2.49963,0.558533,-0.012806,0.00193069,0.0218951,0.0176641,-0.0285393,0.94771,0.0269208,0.0410449,734,750,-2.49966,-0.558508
-483,274,-2.41608,1.23547,-0.0179296,0.00414206,0.0253681,0.0207708,-0.0345583,0.990565,0.0322732,0.0423664,741,750,-2.41605,-1.23547
-476,274,-2.13776,-0.258484,0,0,0,0,0,0,0,-1,748,750,-2.13775,0.258492
-469,274,-2.37189,-0.0463257,0,0,0,0,0,0,0,-1,755,750,-2.37191,0.0463535
-462,274,-5.27246,0.53833,-0.0345627,0.0142614,0.029928,0.028471,-0.0487723,1.12752,0.0451069,0.0420563,762,750,-5.27243,-0.53833
-455,274,-5.19037,0.510193,-0.0383714,0.0184905,0.0283007,0.030175,-0.0500559,1.17925,0.046793,0.0385079,769,750,-5.19036,-0.510168
-448,274,-4.98364,0.446838,-0.0396571,0.0224478,0.0244946,0.0309459,-0.0481552,1.23686,0.0460279,0.0417996,776,750,-4.98364,-0.446847
-441,274,0,0,0,0,0,0,0,0,0,-1,783,750,0,0
-434,274,0,0,0,0,0,0,0,0,0,-1,790,750,0,0
-427,274,0,0,0,0,0,0,0,0,0,-1,797,750,0,0
-420,274,0,0,0,0,0,0,0,0,0,-1,804,750,0,0
-413,274,0,0,0,0,0,0,0,0,0,-1,811,750,0,0
-406,274,0,0,0,0,0,0,0,0,0,-1,818,750,0,0
-399,274,0,0,0,0,0,0,0,0,0,-1,825,750,0,0
-392,274,0,0,0,0,0,0,0,0,0,-1,832,750,0,0
-385,274,0,0,0,0,0,0,0,0,0,-1,839,750,0,0
-378,274,0,0,0,0,0,0,0,0,0,-1,846,750,0,0
-371,274,0,0,0,0,0,0,0,0,0,-1,853,750,0,0
-364,274,0,0,0,0,0,0,0,0,0,-1,860,750,0,0
-357,274,0,0,0,0,0,0,0,0,0,-1,867,750,0,0
-350,274,0,0,0,0,0,0,0,0,0,-1,874,750,0,0
-343,274,0,0,0,0,0,0,0,0,0,-1,881,750,0,0
-336,274,0,0,0,0,0,0,0,0,0,-1,888,750,0,0
-329,274,0,0,0,0,0,0,0,0,0,-1,895,750,0,0
-322,274,0,0,0,0,0,0,0,0,0,-1,902,750,0,0
-315,274,0,0,0,0,0,0,0,0,0,-1,909,750,0,0
-308,274,0,0,0,0,0,0,0,0,0,-1,916,750,0,0
-301,274,0,0,0,0,0,0,0,0,0,-1,923,750,0,0
-294,274,0,0,0,0,0,0,0,0,0,-1,930,750,0,0
-287,274,0,0,0,0,0,0,0,0,0,-1,937,750,0,0
-280,274,0,0,0,0,0,0,0,0,0,-1,944,750,0,0
-273,274,0,0,0,0,0,0,0,0,0,-1,951,750,0,0
-266,274,0,0,0,0,0,0,0,0,0,-1,958,750,0,0
-259,274,0,0,0,0,0,0,0,0,0,-1,965,750,0,0
-252,274,0,0,0,0,0,0,0,0,0,-1,972,750,0,0
-245,274,0,0,0,0,0,0,0,0,0,-1,979,750,0,0
-238,274,0,0,0,0,0,0,0,0,0,-1,986,750,0,0
-231,274,0,0,0,0,0,0,0,0,0,-1,993,750,0,0
-224,274,0,0,0,0,0,0,0,0,0,-1,1000,750,0,0
-217,274,0,0,0,0,0,0,0,0,0,-1,1007,750,0,0
-210,274,0,0,0,0,0,0,0,0,0,-1,1014,750,0,0
-203,274,0,0,0,0,0,0,0,0,0,-1,1021,750,0,0
-196,274,0,0,0,0,0,0,0,0,0,-1,1028,750,0,0
-189,274,0,0,0,0,0,0,0,0,0,-1,1035,750,0,0
-182,274,0,0,0,0,0,0,0,0,0,-1,1042,750,0,0
-175,274,0,0,0,0,0,0,0,0,0,-1,1049,750,0,0
-168,274,0,0,0,0,0,0,0,0,0,-1,1056,750,0,0
-161,274,0,0,0,0,0,0,0,0,0,-1,1063,750,0,0
-154,274,0,0,0,0,0,0,0,0,0,-1,1070,750,0,0
-147,274,0,0,0,0,0,0,0,0,0,-1,1077,750,0,0
-140,274,0,0,0,0,0,0,0,0,0,-1,1084,750,0,0
-133,274,0,0,0,0,0,0,0,0,0,-1,1091,750,0,0
-126,274,0,0,0,0,0,0,0,0,0,-1,1098,750,0,0
-119,274,0,0,0,0,0,0,0,0,0,-1,1105,750,0,0
-112,274,0,0,0,0,0,0,0,0,0,-1,1112,750,0,0
-105,274,0,0,0,0,0,0,0,0,0,-1,1119,750,0,0
-98,274,0,0,0,0,0,0,0,0,0,-1,1126,750,0,0
-91,274,0,0,0,0,0,0,0,0,0,-1,1133,750,0,0
-84,274,0,0,0,0,0,0,0,0,0,-1,1140,750,0,0
-77,274,0,0,0,0,0,0,0,0,0,-1,1147,750,0,0
-70,274,0,0,0,0,0,0,0,0,0,-1,1154,750,0,0
-63,274,0,0,0,0,0,0,0,0,0,-1,1161,750,0,0
-56,274,0,0,0,0,0,0,0,0,0,-1,1168,750,0,0
-49,274,0,0,0,0,0,0,0,0,0,-1,1175,750,0,0
-42,274,0,0,0,0,0,0,0,0,0,-1,1182,750,0,0
-35,274,0,0,0,0,0,0,0,0,0,-1,1189,750,0,0
-28,274,0,0,0,0,0,0,0,0,0,-1,1196,750,0,0
-21,274,0,0,0,0,0,0,0,0,0,-1,1203,750,0,0
-14,274,0,0,0,0,0,0,0,0,0,-1,1210,750,0,0
-7,274,0,0,0,0,0,0,0,0,0,-1,1217,750,0,0
0,274,0,0,0,0,0,0,0,0,0,-1,1224,750,0,0
7,274,0,0,0,0,0,0,0,0,0,-1,1231,750,0,0
14,274,0,0,0,0,0,0,0,0,0,-1,1238,750,0,0
21,274,0,0,0,0,0,0,0,0,0,-1,1245,750,0,0
28,274,0,0,0,0,0,0,0,0,0,-1,1252,750,0,0
35,274,0,0,0,0,0,0,0,0,0,-1,1259,750,0,0
42,274,0,0,0,0,0,0,0,0,0,-1,1266,750,0,0
49,274,0,0,0,0,0,0,0,0,0,-1,1273,750,0,0
56,274,0,0,0,0,0,0,0,0,0,-1,1280,750,0,0
63,274,0,0,0,0,0,0,0,0,0,-1,1287,750,0,0
70,274,0,0,0,0,0,0,0,0,0,-1,1294,750,0,0
77,274,0,0,0,0,0,0,0,0,0,-1,1301,750,0,0
84,274,0,0,0,0,0,0,0,0,0,-1,1308,750,0,0
91,274,0,0,0,0,0,0,0,0,0,-1,1315,750,0,0
98,274,0,0,0,0,0,0,0,0,0,-1,1322,750,0,0
105,274,0,0,0,0,0,0,0,0,0,-1,1329,750,0,0
112,274,0,0,0,0,0,0,0,0,0,-1,1336,750,0,0
119,274,0,0,0,0,0,0,0,0,0,-1,1343,750,0,0
126,274,0,0,0,0,0,0,0,0,0,-1,1350,750,0,0
133,274,0,0,0,0,0,0,0,0,0,-1,1357,750,0,0
140,274,0,0,0,0,0,0,0,0,0,-1,1364,750,0,0
147,274,0,0,0,0,0,0,0,0,0,-1,1371,750,0,0
154,274,0,0,0,0,0,0,0,0,0,-1,1378,750,0,0
161,274,0,0,0,0,0,0,0,0,0,-1,1385,750,0,0
168,274,0,0,0,0,0,0,0,0,0,-1,1392,750,0,0
175,274,0,0,0,0,0,0,0,0,0,-1,1399,750,0,0
182,274,0,0,0,0,0,0,0,0,0,-1,1406,750,0,0
189,274,0,0,0,0,0,0,0,0,0,-1,1413,750,0,0
196,274,0,0,0,0,0,0,0,0,0,-1,1420,750,0,0
203,274,0,0,0,0,0,0,0,0,0,-1,1427,750,0,0
210,274,0,0,0,0,0,0,0,0,0,-1,1434,750,0,0
217,274,0,0,0,0,0,0,0,0,0,-1,1441,750,0,0
224,274,0,0,0,0,0,0,0,0,0,-1,1448,750,0,0
231,274,0,0,0,0,0,0,0,0,0,-1,1455,750,0,0
238,274,0,0,0,0,0,0,0,0,0,-1,1462,750,0,0
245,274,0,0,0,0,0,0,0,0,0,-1,1469,750,0,0
252,274,0,0,0,0,0,0,0,0,0,-1,1476,750,0,0
259,274,0,0,0,0,0,0,0,0,0,-1,1483,750,0,0
266,274,0,0,0,0,0,0,0,0,0,-1,1490,750,0,0
273,274,0,0,0,0,0,0,0,0,0,-1,1497,750,0,0
280,274,0,0,0,0,0,0,0,0,0,-1,1504,750,0,0
287,274,0,0,0,0,0,0,0,0,0,-1,1511,750,0,0
294,274,0,0,0,0,0,0,0,0,0,-1,1518,750,0,0
301,274,0,0,0,0,0,0,0,0,0,-1,1525,750,0,0
308,274,0,0,0,0,0,0,0,0,0,-1,1532,750,0,0
315,274,0,0,0,0,0,0,0,0,0,-1,1539,750,0,0
322,274,0,0,0,0,0,0,0,0,0,-1,1546,750,0,0
329,274,0,0,0,0,0,0,0,0,0,-1,1553,750,0,0
336,274,0,0,0,0,0,0,0,0,0,-1,1560,750,0,0
343,274,0,0,0,0,0,0,0,0,0,-1,1567,750,0,0
350,274,0,0,0,0,0,0,0,0,0,-1,1574,750,0,0
357,274,0,0,0,0,0,0,0,0,0,-1,1581,750,0,0
364,274,0,0,0,0,0,0,0,0,0,-1,1588,750,0,0
371,274,0,0,0,0,0,0,0,0,0,-1,1595,750,0,0
378,274,0,0,0,0,0,0,0,0,0,-1,1602,750,0,0
385,274,0,0,0,0,0,0,0,0,0,-1,1609,750,0,0
392,274,0,0,0,0,0,0,0,0,0,-1,1616,750,0,0
399,274,0,0,0,0,0,0,0,0,0,-1,1623,750,0,0
406,274,0,0,0,0,0,0,0,0,0,-1,1630,750,0,0
413,274,0,0,0,0,0,0,0,0,0,-1,1637,750,0,0
420,274,0,0,0,0,0,0,0,0,0,-1,1644,750,0,0
427,274,0,0,0,0,0,0,0,0,0,-1,1651,750,0,0
434,274,0,0,0,0,0,0,0,0,0,-1,1658,750,0,0
441,274,0,0,0,0,0,0,0,0,0,-1,1665,750,0,0
448,274,0,0,0,0,0,0,0,0,0,-1,1672,750,0,0
455,274,0,0,0,0,0,0,0,0,0,-1,1679,750,0,0
462,274,0,0,0,0,0,0,0,0,0,-1,1686,750,0,0
469,274,0,0,0,0,0,0,0,0,0,-1,1693,750,0,0
476,274,0,0,0,0,0,0,0,0,0,-1,1700,750,0,0
483,274,0,0,0,0,0,0,0,0,0,-1,1707,750,0,0
490,274,0,0,0,0,0,0,0,0,0,-1,1714,750,0,0
497,274,0,0,0,0,0,0,0,0,0,-1,1721,750,0,0
504,274,0,0,0,0,0,0,0,0,0,-1,1728,750,0,0
511,274,0,0,0,0,0,0,0,0,0,-1,1735,750,0,0
518,274,0,0,0,0,0,0,0,0,0,-1,1742,750,0,0
525,274,0,0,0,0,0,0,0,0,0,-1,1749,750,0,0
532,274,0,0,0,0,0,0,0,0,0,-1,1756,750,0,0
539,274,0,0,0,0,0,0,0,0,0,-1,1763,750,0,0
546,274,0,0,0,0,0,0,0,0,0,-1,1770,750,0,0
553,274,0,0,0,0,0,0,0,0,0,-1,1777,750,0,0
560,274,9.54114,1.44366,0.0144554,-0.00683426,0.0106756,0.0188864,-0.0112653,0.393421,0.0175925,0.0396949,1784,750,9.54118,-1.44368
567,274,9.521,1.51068,0.0336556,-0.0135373,0.010831,0.0360227,-0.0159044,0.21516,0.0307209,0.0386059,1791,750,9.52102,-1.51066
574,274,9.7981,1.23022,0.0387425,-0.0184819,0.00922891,0.0401941,-0.0199335,0.156008,0.0353655,0.0454627,1798,750,9.79807,-1.23022
581,274,10.5022,0.735596,0.0362404,-0.0214555,0.00748915,0.0371966,-0.0224118,0.127,0.034766,0.0441672,1805,750,10.5022,-0.735608
588,274,11.3696,0.297607,0.0315442,-0.0228437,0.00572582,0.0321405,-0.02344,0.103762,0.0322202,0.0423716,1812,750,11.3696,-0.297586
595,274,12.1971,0.597961,0.025566,-0.023113,0.00414404,0.0259162,-0.0234633,0.0843215,0.028521,0.0474729,1819,750,12.1972,-0.597983
602,274,9.27307,0.881592,0,0,0,0,0,0,0,-1,1826,750,9.27304,-0.881609
609,274,9.099,1.17383,0,0,0,0,0,0,0,-1,1833,750,9.09903,-1.17381
616,274,8.41174,1.55817,0,0,0,0,0,0,0,-1,1840,750,8.41171,-1.55816
623,274,7.16626,0.650879,0,0,0,0,0,0,0,-1,1847,750,7.16621,-0.650888
630,274,7.12451,0.490051,-0.00541471,-0.0146982,-0.00074786,-0.00535485,-0.0147581,-0.0798716,0.00862677,0.0395713,1854,750,7.12451,-0.490036
637,274,7.06482,0.348877,-0.00827715,-0.0116864,-0.00140576,-0.00777227,-0.0121913,-0.344804,0.00712684,0.0124051,1861,750,7.06486,-0.34885
644,274,7.06958,0.446655,-0.00978742,-0.00900916,-0.00186559,-0.00749255,-0.011304,-0.888215,0.00664073,0.0109071,1868,750,7.06958,-0.446654
651,274,7.07092,0.546326,-0.00924767,-0.00676046,-0.00225645,-0.00542761,-0.0105805,-1.03725,0.00610935,0.0129411,1875,750,7.07086,-0.546337
658,274,7.07312,0.654236,-0.00680455,-0.00458575,-0.00216031,-0.00326663,-0.00812367,-1.02261,0.00472007,0.0160239,1882,750,7.07309,-0.654247
665,274,7.06873,0.766541,-0.00433251,-0.00293444,-0.00220895,-0.00131655,-0.00595039,-0.93864,0.00360903,0.0162607,1889,750,7.06872,-0.766529
672,274,7.0741,0.874817,-0.00169104,-0.00234771,-0.00218494,0.0001901,-0.00422885,-0.710821,0.00288469,0.013434,1896,750,7.07411,-0.874832
679,274,7.08655,0.961853,0.00132046,-0.00277772,-0.00252995,0.00252705,-0.00398431,-0.445014,0.00379059,0.0127746,1903,750,7.08657,-0.961853
686,274,7.08081,1.03265,0.00384562,-0.00440616,-0.00295539,0.0047949,-0.00535544,-0.310792,0.00586328,0.0122623,1910,750,7.08082,-1.03265
693,274,7.06946,1.15778,0.00612967,-0.00614601,-0.00381856,0.00722055,-0.0072369,-0.278268,0.00834702,0.010972,1917,750,7.06945,-1.1578
700,274,7.06067,1.25787,0.00910852,-0.00891649,-0.00514064,0.0104715,-0.0102795,-0.259181,0.0119808,0.0126037,1924,750,7.06066,-1.25785
707,274,7.03955,1.28204,0.0129318,-0.0127874,-0.00681533,0.0146262,-0.0144817,-0.243671,0.0168056,0.0185787,1931,750,7.0396,-1.28203
714,274,7.01599,1.28381,0.017877,-0.0179965,-0.00882083,0.0199286,-0.0200481,-0.228522,0.0230806,0.037124,1938,750,7.01605,-1.28383
721,274,6.66125,1.06763,0.0243165,-0.0248215,-0.0111399,0.026724,-0.027229,-0.212845,0.0311503,0.046007,1945,750,6.66121,-1.06763
728,274,6.61926,0.742615,0,0,0,0,0,0,0,-1,1952,750,6.61926,-0.742595
735,274,8.46033,1.35693,0,0,0,0,0,0,0,-1,1959,750,8.46037,-1.35691
742,274,7.55872,2.1524,0,0,0,0,0,0,0,-1,1966,750,7.55876,-2.15241
749,274,0,0,0,0,0,0,0,0,0,-1,1973,750,0,0
756,274,0,0,0,0,0,0,0,0,0,-1,1980,750,0,0
763,274,0,0,0,0,0,0,0,0,0,-1,1987,750,0,0
770,274,0,0,0,0,0,0,0,0,0,-1,1994,750,0,0
777,274,0,0,0,0,0,0,0,0,0,-1,2001,750,0,0
784,274,0,0,0,0,0,0,0,0,0,-1,2008,750,0,0
791,274,0,0,0,0,0,0,0,0,0,-1,2015,750,0,0
798,274,0,0,0,0,0,0,0,0,0,-1,2022,750,0,0
805,274,0,0,0,0,0,0,0,0,0,-1,2029,750,0,0
812,274,0,0,0,0,0,0,0,0,0,-1,2036,750,0,0
-700,267,0,0,0,0,0,0,0,0,0,-1,524,757,0,0
-693,267,0,0,0,0,0,0,0,0,0,-1,531,757,0,0
-686,267,0,0,0,0,0,0,0,0,0,-1,538,757,0,0
-679,267,0,0,0,0,0,0,0,0,0,-1,545,757,0,0
-672,267,0,0,0,0,0,0,0,0,0,-1,552,757,0,0
-665,267,0,0,0,0,0,0,0,0,0,-1,559,757,0,0
-658,267,0,0,0,0,0,0,0,0,0,-1,566,757,0,0
-651,267,0,0,0,0,0,0,0,0,0,-1,573,757,0,0
-644,267,0,0,0,0,0,0,0,0,0,-1,580,757,0,0
-637,267,0,0,0,0,0,0,0,0,0,-1,587,757,0,0
-630,267,-4.16803,0.977478,0,0,0,0,0,0,0,-1,594,757,-4.168,-0.977462
-623,267,-3.74756,0.845764,0,0,0,0,0,0,0,-1,601,757,-3.74755,-0.845787
-616,267,-2.88141,1.20789,0,0,0,0,0,0,0,-1,608,757,-2.88142,-1.20787
-609,267,-2.62183,1.17938,0,0,0,0,0,0,0,-1,615,757,-2.62182,-1.17938
-602,267,-2.49036,1.24786,0,0,0,0,0,0,0,-1,622,757,-2.49038,-1.24785
-595,267,-2.39069,1.18182,0,0,0,0,0,0,0,-1,629,757,-2.39071,-1.18184
-588,267,-2.07874,0.783691,0,0,0,0,0,0,0,-1,636,757,-2.07876,-0.783688
-581,267,-2.16364,0.705322,0.000161199,-0.00415074,0.00113846,0.00044332,-0.00443286,0.242917,0.00311355,0.0266602,643,757,-2.16362,-0.705297
-574,267,-2.24182,0.593384,-0.00173448,-0.00208068,0.00206055,0.000160228,-0.00397538,0.743494,0.00270525,0.0134624,650,757,-2.24182,-0.593361
-567,267,-2.24036,0.494873,-0.00307746,0.000146032,0.00220174,0.00126291,-0.00419434,1.10135,0.00329878,0.0202434,657,757,-2.24039,-0.494851
-560,267,-2.23248,0.414246,-0.00331356,0.000930141,0.00187324,0.00163871,-0.00402213,1.20917,0.00336346,0.0208092,664,757,-2.23246,-0.414254
-553,267,-2.24951,0.344666,-0.00271924,0.000863529,0.00181243,0.00162047,-0.00347618,1.17518,0.00300686,0.0162686,671,757,-2.24951,-0.344645
-546,267,-2.23962,0.22522,-0.00191588,0.000417337,0.00201628,0.00158018,-0.00307873,1.04766,0.00273581,0.0103324,678,757,-2.23964,-0.225194
-539,267,-2.22784,0.131042,-0.00101713,0.000133573,0.0028289,0.00244503,-0.00332859,0.885721,0.00334639,0.00926156,685,757,-2.22787,-0.131037
-532,267,-2.22394,0.0721436,-0.000183246,-0.000915513,0.00456173,0.00402702,-0.00512578,0.745353,0.00529705,0.00892957,692,757,-2.22396,-0.0721299
-525,267,-2.23724,-0.00292969,-0.000865081,-0.00113635,0.00671124,0.0057119,-0.00771333,0.775295,0.00777971,0.00859897,699,757,-2.23722,0.00291474
-518,267,-2.24371,-0.106689,-0.000910377,-0.00164603,0.00900248,0.00773179,-0.0102882,0.76498,0.0104387,0.00988832,706,757,-2.2437,0.106695
-511,267,-2.22052,-0.214783,-0.00281568,-0.000741185,0.0122611,0.0105265,-0.0140833,0.827596,0.0142579,0.0138908,713,757,-2.22053,0.214807
-504,267,-2.21912,-0.312073,-0.005319,-0.000577962,0.0153064,0.0125403,-0.0184373,0.862224,0.0179927,0.0266764,720,757,-2.21914,0.312092
-497,267,-2.21008,-0.37262,-0.00790907,0.00062119,0.0186286,0.0154667,-0.0227545,0.897937,0.0222003,0.0436627,727,757,-2.2101,0.37264
-490,267,-2.13123,-0.419006,-0.011991,0.00207755,0.0220938,0.0182299,-0.0281433,0.939516,0.0269767,0.0484092,734,757,-2.13121,0.419009
-483,267,-2.07037,-0.530579,0,0,0,0,0,0,0,-1,741,757,-2.07035,0.530601
-476,267,0.907898,-1.80426,-0.0226894,0.00776608,0.0274123,0.0238963,-0.0388196,1.03893,0.0365491,0.0448625,748,757,0.907923,1.80429
-469,267,-4.5672,0.463196,0,0,0,0,0,0,0,-1,755,757,-4.5672,-0.463178
-462,267,-4.86316,0.475403,0,0,0,0,0,0,0,-1,762,757,-4.86318,-0.475379
-455,267,-5.15332,0.506531,0,0,0,0,0,0,0,-1,769,757,-5.1533,-0.506506
-448,267,-4.80426,0.619934,0,0,0,0,0,0,0,-1,776,757,-4.80425,-0.619908
-441,267,0,0,0,0,0,0,0,0,0,-1,783,757,0,0
-434,267,0,0,0,0,0,0,0,0,0,-1,790,757,0,0
-427,267,0,0,0,0,0,0,0,0,0,-1,797,757,0,0
-420,267,0,0,0,0,0,0,0,0,0,-1,804,757,0,0
-413,267,0,0,0,0,0,0,0,0,0,-1,811,757,0,0
-406,267,0,0,0,0,0,0,0,0,0,-1,818,757,0,0
-399,267,0,0,0,0,0,0,0,0,0,-1,825,757,0,0
-392,267,0,0,0,0,0,0,0,0,0,-1,832,757,0,0
-385,267,0,0,0,0,0,0,0,0,0,-1,839,757,0,0
-378,267,0,0,0,0,0,0,0,0,0,-1,846,757,0,0
-371,267,0,0,0,0,0,0,0,0,0,-1,853,757,0,0
-364,267,0,0,0,0,0,0,0,0,0,-1,860,757,0,0
-357,267,0,0,0,0,0,0,0,0,0,-1,867,757,0,0
-350,267,0,0,0,0,0,0,0,0,0,-1,874,757,0,0
-343,267,0,0,0,0,0,0,0,0,0,-1,881,757,0,0
-336,267,0,0,0,0,0,0,0,0,0,-1,888,757,0,0
-329,267,0,0,0,0,0,0,0,0,0,-1,895,757,0,0
-322,267,0,0,0,0,0,0,0,0,0,-1,902,757,0,0
-315,267,0,0,0,0,0,0,0,0,0,-1,909,757,0,0
-308,267,0,0,0,0,0,0,0,0,0,-1,916,757,0,0
-301,267,0,0,0,0,0,0,0,0,0,-1,923,757,0,0
-294,267,0,0,0,0,0,0,0,0,0,-1,930,757,0,0
-287,267,0,0,0,0,0,0,0,0,0,-1,937,757,0,0
-280,267,0,0,0,0,0,0,0,0,0,-1,944,757,0,0
-273,267,0,0,0,0,0,0,0,0,0,-1,951,757,0,0
-266,267,0,0,0,0,0,0,0,0,0,-1,958,757,0,0
-259,267,0,0,0,0,0,0,0,0,0,-1,965,757,0,0
-252,267,0,0,0,0,0,0,0,0,0,-1,972,757,0,0
-245,267,0,0,0,0,0,0,0,0,0,-1,979,757,0,0
-238,267,0,0,0,0,0,0,0,0,0,-1,986,757,0,0
-231,267,0,0,0,0,0,0,0,0,0,-1,993,757,0,0
-224,267,0,0,0,0,0,0,0,0,0,-1,1000,757,0,0
-217,267,0,0,0,0,0,0,0,0,0,-1,1007,757,0,0
-210,267,0,0,0,0,0,0,0,0,0,-1,1014,757,0,0
-203,267,0,0,0,0,0,0,0,0,0,-1,1021,757,0,0
-196,267,0,0,0,0,0,0,0,0,0,-1,1028,757,0,0
-189,267,0,0,0,0,0,0,0,0,0,-1,1035,757,0,0
-182,267,0,0,0,0,0,0,0,0,0,-1,1042,757,0,0
-175,267,0,0,0,0,0,0,0,0,0,-1,1049,757,0,0
-168,267,0,0,0,0,0,0,0,0,0,-1,1056,757,0,0
-161,267,0,0,0,0,0,0,0,0,0,-1,1063,757,0,0
-154,267,0,0,0,0,0,0,0,0,0,-1,1070,757,0,0
-147,267,0,0,0,0,0,0,0,0,0,-1,1077,757,0,0
-140,267,0,0,0,0,0,0,0,0,0,-1,1084,757,0,0
-133,267,0,0,0,0,0,0,0,0,0,-1,1091,757,0,0
-126,267,0,0,0,0,0,0,0,0,0,-1,1098,757,0,0
-119,267,0,0,0,0,0,0,0,0,0,-1,1105,757,0,0
-112,267,0,0,0,0,0,0,0,0,0,-1,1112,757,0,0
-105,267,0,0,0,0,0,0,0,0,0,-1,1119,757,0,0
-98,267,0,0,0,0,0,0,0,0,0,-1,1126,757,0,0
-91,267,0,0,0,0,0,0,0,0,0,-1,1133,757,0,0
-84,267,0,0,0,0,0,0,0,0,0,-1,1140,757,0,0
-77,267,0,0,0,0,0,0,0,0,0,-1,1147,757,0,0
-70,267,0,0,0,0,0,0,0,0,0,-1,1154,757,0,0
-63,267,0,0,0,0,0,0,0,0,0,-1,1161,757,0,0
-56,267,0,0,0,0,0,0,0,0,0,-1,1168,757,0,0
-49,267,0,0,0,0,0,0,0,0,0,-1,1175,757,0,0
-42,267,0,0,0,0,0,0,0,0,0,-1,1182,757,0,0
-35,267,0,0,0,0,0,0,0,0,0,-1,1189,757,0,0
-28,267,0,0,0,0,0,0,0,0,0,-1,1196,757,0,0
-21,267,0,0,0,0,0,0,0,0,0,-1,1203,757,0,0
-14,267,0,0,0,0,0,0,0,0,0,-1,1210,757,0,0
-7,267,0,0,0,0,0,0,0,0,0,-1,1217,757,0,0
0,267,0,0,0,0,0,0,0,0,0,-1,1224,757,0,0
7,267,0,0,0,0,0,0,0,0,0,-1,1231,757,0,0
14,267,0,0,0,0,0,0,0,0,0,-1,1238,757,0,0
21,267,0,0,0,0,0,0,0,0,0,-1,1245,757,0,0
28,267,0,0,0,0,0,0,0,0,0,-1,1252,757,0,0
35,267,0,0,0,0,0,0,0,0,0,-1,1259,757,0,0
42,267,0,0,0,0,0,0,0,0,0,-1,1266,757,0,0
49,267,0,0,0,0,0,0,0,0,0,-1,1273,757,0,0
56,267,0,0,0,0,0,0,0,0,0,-1,1280,757,0,0
63,267,0,0,0,0,0,0,0,0,0,-1,1287,757,0,0
70,267,0,0,0,0,0,0,0,0,0,-1,1294,757,0,0
77,267,0,0,0,0,0,0,0,0,0,-1,1301,757,0,0
84,267,0,0,0,0,0,0,0,0,0,-1,1308,757,0,0
91,267,0,0,0,0,0,0,0,0,0,-1,1315,757,0,0
98,267,0,0,0,0,0,0,0,0,0,-1,1322,757,0,0
105,267,0,0,0,0,0,0,0,0,0,-1,1329,757,0,0
112,267,0,0,0,0,0,0,0,0,0,-1,1336,757,0,0
119,267,0,0,0,0,0,0,0,0,0,-1,1343,757,0,0
126,267,0,0,0,0,0,0,0,0,0,-1,1350,757,0,0
133,267,0,0,0,0,0,0,0,0,0,-1,1357,757,0,0
140,267,0,0,0,0,0,0,0,0,0,-1,1364,757,0,0
147,267,0,0,0,0,0,0,0,0,0,-1,1371,757,0,0
154,267,0,0,0,0,0,0,0,0,0,-1,1378,757,0,0
161,267,0,0,0,0,0,0,0,0,0,-1,1385,757,0,0
168,267,0,0,0,0,0,0,0,0,0,-1,1392,757,0,0
175,267,0,0,0,0,0,0,0,0,0,-1,1399,757,0,0
182,267,0,0,0,0,0,0,0,0,0,-1,1406,757,0,0
189,267,0,0,0,0,0,0,0,0,0,-1,1413,757,0,0
196,267,0,0,0,0,0,0,0,0,0,-1,1420,757,0,0
203,267,0,0,0,0,0,0,0,0,0,-1,1427,757,0,0
210,267,0,0,0,0,0,0,0,0,0,-1,1434,757,0,0
217,267,0,0,0,0,0,0,0,0,0,-1,1441,757,0,0
224,267,0,0,0,0,0,0,0,0,0,-1,1448,757,0,0
231,267,0,0,0,0,0,0,0,0,0,-1,1455,757,0,0
238,267,0,0,0,0,0,0,0,0,0,-1,1462,757,0,0
245,267,0,0,0,0,0,0,0,0,0,-1,1469,757,0,0
252,267,0,0,0,0,0,0,0,0,0,-1,1476,757,0,0
259,267,0,0,0,0,0,0,0,0,0,-1,1483,757,0,0
266,267,0,0,0,0,0,0,0,0,0,-1,1490,757,0,0
273,267,0,0,0,0,0,0,0,0,0,-1,1497,757,0,0
280,267,0,0,0,0,0,0,0,0,0,-1,1504,757,0,0
287,267,0,0,0,0,0,0,0,0,0,-1,1511,757,0,0
294,267,0,0,0,0,0,0,0,0,0,-1,1518,757,0,0
301,267,0,0,0,0,0,0,0,0,0,-1,1525,757,0,0
308,267,0,0,0,0,0,0,0,0,0,-1,1532,757,0,0
315,267,0,0,0,0,0,0,0,0,0,-1,1539,757,0,0
322,267,0,0,0,0,0,0,0,0,0,-1,1546,757,0,0
329,267,0,0,0,0,0,0,0,0,0,-1,1553,757,0,0
336,267,0,0,0,0,0,0,0,0,0,-1,1560,757,0,0
343,267,0,0,0,0,0,0,0,0,0,-1,1567,757,0,0
350,267,0,0,0,0,0,0,0,0,0,-1,1574,757,0,0
357,267,0,0,0,0,0,0,0,0,0,-1,1581,757,0,0
364,267,0,0,0,0,0,0,0,0,0,-1,1588,757,0,0
371,267,0,0,0,0,0,0,0,0,0,-1,1595,757,0,0
378,267,0,0,0,0,0,0,0,0,0,-1,1602,757,0,0
385,267,0,0,0,0,0,0,0,0,0,-1,1609,757,0,0
392,267,0,0,0,0,0,0,0,0,0,-1,1616,757,0,0
399,267,0,0,0,0,0,0,0,0,0,-1,1623,757,0,0
406,267,0,0,0,0,0,0,0,0,0,-1,1630,757,0,0
413,267,0,0,0,0,0,0,0,0,0,-1,1637,757,0,0
420,267,0,0,0,0,0,0,0,0,0,-1,1644,757,0,0
427,267,0,0,0,0,0,0,0,0,0,-1,1651,757,0,0
434,267,0,0,0,0,0,0,0,0,0,-1,1658,757,0,0
441,267,0,0,0,0,0,0,0,0,0,-1,1665,757,0,0
448,267,0,0,0,0,0,0,0,0,0,-1,1672,757,0,0
455,267,0,0,0,0,0,0,0,0,0,-1,1679,757,0,0
462,267,0,0,0,0,0,0,0,0,0,-1,1686,757,0,0
469,267,0,0,0,0,0,0,0,0,0,-1,1693,757,0,0
476,267,0,0,0,0,0,0,0,0,0,-1,1700,757,0,0
483,267,0,0,0,0,0,0,0,0,0,-1,1707,757,0,0
490,267,0,0,0,0,0,0,0,0,0,-1,1714,757,0,0
497,267,0,0,0,0,0,0,0,0,0,-1,1721,757,0,0
504,267,0,0,0,0,0,0,0,0,0,-1,1728,757,0,0
511,267,0,0,0,0,0,0,0,0,0,-1,1735,757,0,0
518,267,0,0,0,0,0,0,0,0,0,-1,1742,757,0,0
525,267,0,0,0,0,0,0,0,0,0,-1,1749,757,0,0
532,267,0,0,0,0,0,0,0,0,0,-1,1756,757,0,0
539,267,0,0,0,0,0,0,0,0,0,-1,1763,757,0,0
546,267,0,0,0,0,0,0,0,0,0,-1,1770,757,0,0
553,267,0,0,0,0,0,0,0,0,0,-1,1777,757,0,0
560,267,0,0,0,0,0,0,0,0,0,-1,1784,757,0,0
567,267,9.48401,1.4635,0,0,0,0,0,0,0,-1,1791,757,9.48406,-1.46347
574,267,9.4906,1.33319,0,0,0,0,0,0,0,-1,1798,757,9.49061,-1.33318
581,267,10.1425,0.993225,0.038462,-0.0202277,0.00811871,0.0395644,-0.02133,0.134957,0.0356789,0.0421709,1805,757,10.1425,-0.993248
588,267,11.043,0.831299,0.0329834,-0.0225217,0.00682083,0.0338093,-0.0233476,0.120498,0.0331833,0.0456506,1812,757,11.043,-0.831308
595,267,11.9058,0.748901,0.0259898,-0.0233213,0.00547314,0.02659,-0.0239214,0.109221,0.0291764,0.0486837,1819,757,11.9058,-0.748913
602,267,12.4584,0.480591,0,0,0,0,0,0,0,-1,1826,757,12.4584,-0.480578
609,267,9.07605,1.8988,0,0,0,0,0,0,0,-1,1833,757,9.0761,-1.8988
616,267,8.54016,1.79785,0,0,0,0,0,0,0,-1,1840,757,8.54013,-1.79787
623,267,8.42627,-0.519165,-0.00118547,-0.0187002,0.00101646,-0.00112667,-0.018759,0.0577759,0.0121479,0.0470342,1847,757,8.42629,0.519174
630,267,7.18152,0.612183,-0.00588882,-0.0153222,2.64204e-05,-0.00588874,-0.0153222,0.00280071,0.00892486,0.0375154,1854,757,7.18151,-0.612171
637,267,7.1449,0.363281,-0.00869005,-0.0123575,-0.000853339,-0.00850121,-0.0125463,-0.217776,0.00739435,0.0238999,1861,757,7.1449,-0.363305
644,267,7.15637,0.435181,-0.0103667,-0.00974677,-0.0015103,-0.00851497,-0.0115985,-0.886615,0.00693684,0.0116309,1868,757,7.15637,-0.435162
651,267,7.15344,0.536255,-0.0101269,-0.00749108,-0.0021102,-0.00632106,-0.0112969,-1.06453,0.00653768,0.0141094,1875,757,7.1534,-0.536239
658,267,7.16687,0.66272,-0.00784091,-0.00521945,-0.00221086,-0.00395998,-0.00910038,-1.05297,0.00526882,0.014927,1882,757,7.16684,-0.662703
665,267,7.17908,0.784729,-0.00544437,-0.00332787,-0.00235694,-0.00180251,-0.00696973,-0.996406,0.00417735,0.0152122,1889,757,7.17911,-0.784718
672,267,7.17517,0.868713,-0.00291094,-0.00271517,-0.00224825,-0.000562679,-0.00506343,-0.807154,0.00320457,0.0133715,1896,757,7.17514,-0.868699
679,267,7.16296,0.954529,4.45269e-05,-0.00299329,-0.00248823,0.00144082,-0.00438958,-0.511369,0.00350675,0.0126659,1903,757,7.16295,-0.954528
686,267,7.17004,1.0498,0.00238456,-0.0044541,-0.00272463,0.00333735,-0.00540689,-0.336403,0.0050954,0.0111623,1910,757,7.17001,-1.04982
693,267,7.17432,1.16278,0.00432481,-0.00595312,-0.00339516,0.00534507,-0.00697338,-0.29192,0.00713274,0.0113544,1917,757,7.17437,-1.16278
700,267,7.16516,1.25543,0.00685937,-0.00844624,-0.00450412,0.00808646,-0.00967333,-0.265982,0.0102673,0.0135997,1924,757,7.16516,-1.25541
707,267,7.15015,1.32233,0.0100108,-0.0118599,-0.00585168,0.011478,-0.0133271,-0.245672,0.0143345,0.0136173,1931,757,7.15015,-1.32232
714,267,7.15991,1.34106,0.0140702,-0.0163389,-0.0074173,0.015783,-0.0180517,-0.226933,0.0195491,0.0277304,1938,757,7.15996,-1.34109
721,267,7.18835,1.31195,0.0193544,-0.0220378,-0.00912984,0.0212787,-0.0239621,-0.20773,0.0261351,0.0470555,1945,757,7.1884,-1.31198
728,267,7.20862,1.32025,0,0,0,0,0,0,0,-1,1952,757,7.20862,-1.32023
735,267,7.69543,2.30054,0,0,0,0,0,0,0,-1,1959,757,7.69542,-2.30051
742,267,7.599,2.22363,0,0,0,0,0,0,0,-1,1966,757,7.59895,-2.22365
749,267,0,0,0,0,0,0,0,0,0,-1,1973,757,0,0
756,267,0,0,0,0,0,0,0,0,0,-1,1980,757,0,0
763,267,0,0,0,0,0,0,0,0,0,-1,1987,757,0,0
770,267,0,0,0,0,0,0,0,0,0,-1,1994,757,0,0
777,267,0,0,0,0,0,0,0,0,0,-1,2001,757,0,0
784,267,0,0,0,0,0,0,0,0,0,-1,2008,757,0,0
791,267,0,0,0,0,0,0,0,0,0,-1,2015,757,0,0
798,267,0,0,0,0,0,0,0,0,0,-1,2022,757,0,0
805,267,0,0,0,0,0,0,0,0,0,-1,2029,757,0,0
812,267,0,0,0,0,0,0,0,0,0,-1,2036,757,0,0
-700,260,0,0,0,0,0,0,0,0,0,-1,524,764,0,0
-693,260,0,0,0,0,0,0,0,0,0,-1,531,764,0,0
-686,260,0,0,0,0,0,0,0,0,0,-1,538,764,0,0
-679,260,0,0,0,0,0,0,0,0,0,-1,545,764,0,0
-672,260,0,0,0,0,0,0,0,0,0,-1,552,764,0,0
-665,260,0,0,0,0,0,0,0,0,0,-1,559,764,0,0
-658,260,0,0,0,0,0,0,0,0,0,-1,566,764,0,0
-651,260,0,0,0,0,0,0,0,0,0,-1,573,764,0,0
-644,260,0,0,0,0,0,0,0,0,0,-1,580,764,0,0
-637,260,0,0,0,0,0,0,0,0,0,-1,587,764,0,0
-630,260,-4.0332,1.89282,0,0,0,0,0,0,0,-1,594,764,-4.03319,-1.8928
-623,260,-3.59302,1.51959,0.0311211,-0.0405248,-0.0351176,0.0454632,-0.0548669,-0.387728,0.0580103,0.0447504,601,764,-3.59303,-1.5196
-616,260,-3.25507,1.21826,0,0,0,0,0,0,0,-1,608,764,-3.25504,-1.21825
-609,260,-2.82251,1.2251,0,0,0,0,0,0,0,-1,615,764,-2.8225,-1.22507
-602,260,-2.69556,1.19623,0.0120974,-0.0197141,-0.00862207,0.014284,-0.0219007,-0.248368,0.021045,0.0475586,622,764,-2.69558,-1.19621
-595,260,-2.54749,1.13013,0.00787666,-0.0142879,-0.0039722,0.00856703,-0.0149782,-0.172082,0.0137608,0.0455895,629,764,-2.5475,-1.13013
-588,260,-2.23688,0.784546,0.00442823,-0.0098179,-0.00072209,0.00446473,-0.00985441,-0.0505142,0.00846012,0.0396484,636,764,-2.23687,-0.784572
-581,260,-2.29089,0.671753,0.00211677,-0.00624263,0.000949107,0.00222318,-0.00634903,0.111645,0.0051367,0.0216094,643,764,-2.29087,-0.671756
-574,260,-2.33026,0.581299,0.000131293,-0.00391537,0.00214173,0.0010543,-0.00483837,0.406909,0.00362843,0.0148197,650,764,-2.33029,-0.581312
-567,260,-2.32806,0.508057,-0.00146042,-0.00127982,0.00237211,0.00100371,-0.00374395,0.804423,0.00288925,0.0154194,657,764,-2.32806,-0.508033
-560,260,-2.32306,0.426636,-0.00203018,-3.79681e-05,0.00206773,0.00126108,-0.00332923,1.00986,0.00273842,0.0174161,664,764,-2.32308,-0.426617
-553,260,-2.33179,0.345642,-0.00166328,0.000150843,0.00208016,0.0015131,-0.00302554,0.990996,0.00266844,0.0162921,671,764,-2.33179,-0.345636
-546,260,-2.32672,0.242065,-0.00100623,-0.000132239,0.00238277,0.00185328,-0.00299174,0.876089,0.0028229,0.0109683,678,764,-2.32673,-0.242044
-539,260,-2.32495,0.157776,-0.000233822,-0.000271583,0.0033129,0.00306025,-0.00356565,0.782549,0.00382917,0.0100665,685,764,-2.32494,-0.157765
-532,260,-2.32544,0.0613403,0.000463211,-0.00127053,0.00516537,0.00483394,-0.00564126,0.702261,0.00605385,0.0109709,692,764,-2.32546,-0.0613106
-525,260,-2.34473,-0.0222778,-0.000278061,-0.00153479,0.00733008,0.00645054,-0.00826339,0.742641,0.00851655,0.0106685,699,764,-2.34472,0.0222556
-518,260,-2.33716,-0.102417,-0.000310838,-0.00203009,0.00952502,0.00839327,-0.0107342,0.740395,0.0110708,0.0115562,706,764,-2.33716,0.102391
-511,260,-2.29773,-0.192749,-0.00198562,-0.0012483,0.0125152,0.0109036,-0.0141375,0.800122,0.0144977,0.0189289,713,764,-2.2977,0.192757
-504,260,-2.29382,-0.363708,-0.0042708,-0.00106046,0.0153372,0.0127554,-0.0180866,0.837538,0.0178951,0.0354441,720,764,-2.29382,0.363725
-497,260,-2.08899,-0.446411,-0.00665122,4.25632e-05,0.0183091,0.0153082,-0.0219169,0.8758,0.0216045,0.0465617,727,764,-2.089,0.446401
-490,260,-1.71643,-0.576294,-0.0104976,0.00153632,0.0213375,0.017689,-0.0266503,0.922825,0.025773,0.0465405,734,764,-1.71646,0.576283
-483,260,-1.37537,-0.930237,0,0,0,0,0,0,0,-1,741,764,-1.37536,0.930216
-476,260,-0.413025,-1.33582,0,0,0,0,0,0,0,-1,748,764,-0.413009,1.33583
-469,260,-0.292114,-0.309204,0,0,0,0,0,0,0,-1,755,764,-0.292108,0.309216
-462,260,-4.68671,0.54895,0,0,0,0,0,0,0,-1,762,764,-4.68671,-0.548943
-455,260,-4.84857,0.613525,0,0,0,0,0,0,0,-1,769,764,-4.84858,-0.613549
-448,260,0,0,0,0,0,0,0,0,0,-1,776,764,0,0
-441,260,0,0,0,0,0,0,0,0,0,-1,783,764,0,0
-434,260,0,0,0,0,0,0,0,0,0,-1,790,764,0,0
-427,260,0,0,0,0,0,0,0,0,0,-1,797,764,0,0
-420,260,0,0,0,0,0,0,0,0,0,-1,804,764,0,0
-413,260,0,0,0,0,0,0,0,0,0,-1,811,764,0,0
-406,260,0,0,0,0,0,0,0,0,0,-1,818,764,0,0
-399,260,0,0,0,0,0,0,0,0,0,-1,825,764,0,0
-392,260,0,0,0,0,0,0,0,0,0,-1,832,764,0,0
-385,260,0,0,0,0,0,0,0,0,0,-1,839,764,0,0
-378,260,0,0,0,0,0,0,0,0,0,-1,846,764,0,0
-371,260,0,0,0,0,0,0,0,0,0,-1,853,764,0,0
-364,260,0,0,0,0,0,0,0,0,0,-1,860,764,0,0
-357,260,0,0,0,0,0,0,0,0,0,-1,867,764,0,0
-350,260,0,0,0,0,0,0,0,0,0,-1,874,764,0,0
-343,260,0,0,0,0,0,0,0,0,0,-1,881,764,0,0
-336,260,0,0,0,0,0,0,0,0,0,-1,888,764,0,0
-329,260,0,0,0,0,0,0,0,0,0,-1,895,764,0,0
-322,260,0,0,0,0,0,0,0,0,0,-1,902,764,0,0
-315,260,0,0,0,0,0,0,0,0,0,-1,909,764,0,0
-308,260,0,0,0,0,0,0,0,0,0,-1,916,764,0,0
-301,260,0,0,0,0,0,0,0,0,0,-1,923,764,0,0
-294,260,0,0,0,0,0,0,0,0,0,-1,930,764,0,0
-287,260,0,0,0,0,0,0,0,0,0,-1,937,764,0,0
-280,260,0,0,0,0,0,0,0,0,0,-1,944,764,0,0
-273,260,0,0,0,0,0,0,0,0,0,-1,951,764,0,0
-266,260,0,0,0,0,0,0,0,0,0,-1,958,764,0,0
-259,260,0,0,0,0,0,0,0,0,0,-1,965,764,0,0
-252,260,0,0,0,0,0,0,0,0,0,-1,972,764,0,0
-245,260,0,0,0,0,0,0,0,0,0,-1,979,764,0,0
-238,260,0,0,0,0,0,0,0,0,0,-1,986,764,0,0
-231,260,0,0,0,0,0,0,0,0,0,-1,993,764,0,0
-224,260,0,0,0,0,0,0,0,0,0,-1,1000,764,0,0
-217,260,0,0,0,0,0,0,0,0,0,-1,1007,764,0,0
-210,260,0,0,0,0,0,0,0,0,0,-1,1014,764,0,0
-203,260,0,0,0,0,0,0,0,0,0,-1,1021,764,0,0
-196,260,0,0,0,0,0,0,0,0,0,-1,1028,764,0,0
-189,260,0,0,0,0,0,0,0,0,0,-1,1035,764,0,0
-182,260,0,0,0,0,0,0,0,0,0,-1,1042,764,0,0
-175,260,0,0,0,0,0,0,0,0,0,-1,1049,764,0,0
-168,260,0,0,0,0,0,0,0,0,0,-1,1056,764,0,0
-161,260,0,0,0,0,0,0,0,0,0,-1,1063,764,0,0
-154,260,0,0,0,0,0,0,0,0,0,-1,1070,764,0,0
-147,260,0,0,0,0,0,0,0,0,0,-1,1077,764,0,0
-140,260,0,0,0,0,0,0,0,0,0,-1,1084,764,0,0
-133,260,0,0,0,0,0,0,0,0,0,-1,1091,764,0,0
-126,260,0,0,0,0,0,0,0,0,0,-1,1098,764,0,0
-119,260,0,0,0,0,0,0,0,0,0,-1,1105,764,0,0
-112,260,0,0,0,0,0,0,0,0,0,-1,1112,764,0,0
-105,260,0,0,0,0,0,0,0,0,0,-1,1119,764,0,0
-98,260,0,0,0,0,0,0,0,0,0,-1,1126,764,0,0
-91,260,0,0,0,0,0,0,0,0,0,-1,1133,764,0,0
-84,260,0,0,0,0,0,0,0,0,0,-1,1140,764,0,0
-77,260,0,0,0,0,0,0,0,0,0,-1,1147,764,0,0
-70,260,0,0,0,0,0,0,0,0,0,-1,1154,764,0,0
-63,260,0,0,0,0,0,0,0,0,0,-1,1161,764,0,0
-56,260,0,0,0,0,0,0,0,0,0,-1,1168,764,0,0
-49,260,0,0,0,0,0,0,0,0,0,-1,1175,764,0,0
-42,260,0,0,0,0,0,0,0,0,0,-1,1182,764,0,0
-35,260,0,0,0,0,0,0,0,0,0,-1,1189,764,0,0
-28,260,0,0,0,0,0,0,0,0,0,-1,1196,764,0,0
-21,260,0,0,0,0,0,0,0,0,0,-1,1203,764,0,0
-14,260,0,0,0,0,0,0,0,0,0,-1,1210,764,0,0
-7,260,0,0,0,0,0,0,0,0,0,-1,1217,764,0,0
0,260,0,0,0,0,0,0,0,0,0,-1,1224,764,0,0
7,260,0,0,0,0,0,0,0,0,0,-1,1231,764,0,0
14,260,0,0,0,0,0,0,0,0,0,-1,1238,764,0,0
21,260,0,0,0,0,0,0,0,0,0,-1,1245,764,0,0
28,260,0,0,0,0,0,0,0,0,0,-1,1252,764,0,0
35,260,0,0,0,0,0,0,0,0,0,-1,1259,764,0,0
42,260,0,0,0,0,0,0,0,0,0,-1,1266,764,0,0
49,260,0,0,0,0,0,0,0,0,0,-1,1273,764,0,0
56,260,0,0,0,0,0,0,0,0,0,-1,1280,764,0,0
63,260,0,0,0,0,0,0,0,0,0,-1,1287,764,0,0
70,260,0,0,0,0,0,0,0,0,0,-1,1294,764,0,0
77,260,0,0,0,0,0,0,0,0,0,-1,1301,764,0,0
84,260,0,0,0,0,0,0,0,0,0,-1,1308,764,0,0
91,260,0,0,0,0,0,0,0,0,0,-1,1315,764,0,0
98,260,0,0,0,0,0,0,0,0,0,-1,1322,764,0,0
105,260,0,0,0,0,0,0,0,0,0,-1,1329,764,0,0
112,260,0,0,0,0,0,0,0,0,0,-1,1336,764,0,0
119,260,0,0,0,0,0,0,0,0,0,-1,1343,764,0,0
126,260,0,0,0,0,0,0,0,0,0,-1,1350,764,0,0
133,260,0,0,0,0,0,0,0,0,0,-1,1357,764,0,0
140,260,0,0,0,0,0,0,0,0,0,-1,1364,764,0,0
147,260,0,0,0,0,0,0,0,0,0,-1,1371,764,0,0
154,260,0,0,0,0,0,0,0,0,0,-1,1378,764,0,0
161,260,0,0,0,0,0,0,0,0,0,-1,1385,764,0,0
168,260,0,0,0,0,0,0,0,0,0,-1,1392,764,0,0
175,260,0,0,0,0,0,0,0,0,0,-1,1399,764,0,0
182,260,0,0,0,0,0,0,0,0,0,-1,1406,764,0,0
189,260,0,0,0,0,0,0,0,0,0,-1,1413,764,0,0
196,260,0,0,0,0,0,0,0,0,0,-1,1420,764,0,0
203,260,0,0,0,0,0,0,0,0,0,-1,1427,764,0,0
210,260,0,0,0,0,0,0,0,0,0,-1,1434,764,0,0
217,260,0,0,0,0,0,0,0,0,0,-1,1441,764,0,0
224,260,0,0,0,0,0,0,0,0,0,-1,1448,764,0,0
231,260,0,0,0,0,0,0,0,0,0,-1,1455,764,0,0
238,260,0,0,0,0,0,0,0,0,0,-1,1462,764,0,0
245,260,0,0,0,0,0,0,0,0,0,-1,1469,764,0,0
252,260,0,0,0,0,0,0,0,0,0,-1,1476,764,0,0
259,260,0,0,0,0,0,0,0,0,0,-1,1483,764,0,0
266,260,0,0,0,0,0,0,0,0,0,-1,1490,764,0,0
273,260,0,0,0,0,0,0,0,0,0,-1,1497,764,0,0
280,260,0,0,0,0,0,0,0,0,0,-1,1504,764,0,0
287,260,0,0,0,0,0,0,0,0,0,-1,1511,764,0,0
294,260,0,0,0,0,0,0,0,0,0,-1,1518,764,0,0
301,260,0,0,0,0,0,0,0,0,0,-1,1525,764,0,0
308,260,0,0,0,0,0,0,0,0,0,-1,1532,764,0,0
315,260,0,0,0,0,0,0,0,0,0,-1,1539,764,0,0
322,260,0,0,0,0,0,0,0,0,0,-1,1546,764,0,0
329,260,0,0,0,0,0,0,0,0,0,-1,1553,764,0,0
336,260,0,0,0,0,0,0,0,0,0,-1,1560,764,0,0
343,260,0,0,0,0,0,0,0,0,0,-1,1567,764,0,0
350,260,0,0,0,0,0,0,0,0,0,-1,1574,764,0,0
357,260,0,0,0,0,0,0,0,0,0,-1,1581,764,0,0
364,260,0,0,0,0,0,0,0,0,0,-1,1588,764,0,0
371,260,0,0,0,0,0,0,0,0,0,-1,1595,764,0,0
378,260,0,0,0,0,0,0,0,0,0,-1,1602,764,0,0
385,260,0,0,0,0,0,0,0,0,0,-1,1609,764,0,0
392,260,0,0,0,0,0,0,0,0,0,-1,1616,764,0,0
399,260,0,0,0,0,0,0,0,0,0,-1,1623,764,0,0
406,260,0,0,0,0,0,0,0,0,0,-1,1630,764,0,0
413,260,0,0,0,0,0,0,0,0,0,-1,1637,764,0,0
420,260,0,0,0,0,0,0,0,0,0,-1,1644,764,0,0
427,260,0,0,0,0,0,0,0,0,0,-1,1651,764,0,0
434,260,0,0,0,0,0,0,0,0,0,-1,1658,764,0,0
441,260,0,0,0,0,0,0,0,0,0,-1,1665,764,0,0
448,260,0,0,0,0,0,0,0,0,0,-1,1672,764,0,0
455,260,0,0,0,0,0,0,0,0,0,-1,1679,764,0,0
462,260,0,0,0,0,0,0,0,0,0,-1,1686,764,0,0
469,260,0,0,0,0,0,0,0,0,0,-1,1693,764,0,0
476,260,0,0,0,0,0,0,0,0,0,-1,1700,764,0,0
483,260,0,0,0,0,0,0,0,0,0,-1,1707,764,0,0
490,260,0,0,0,0,0,0,0,0,0,-1,1714,764,0,0
497,260,0,0,0,0,0,0,0,0,0,-1,1721,764,0,0
504,260,0,0,0,0,0,0,0,0,0,-1,1728,764,0,0
511,260,0,0,0,0,0,0,0,0,0,-1,1735,764,0,0
518,260,0,0,0,0,0,0,0,0,0,-1,1742,764,0,0
525,260,0,0,0,0,0,0,0,0,0,-1,1749,764,0,0
532,260,0,0,0,0,0,0,0,0,0,-1,1756,764,0,0
539,260,0,0,0,0,0,0,0,0,0,-1,1763,764,0,0
546,260,0,0,0,0,0,0,0,0,0,-1,1770,764,0,0
553,260,0,0,0,0,0,0,0,0,0,-1,1777,764,0,0
560,260,0,0,0,0,0,0,0,0,0,-1,1784,764,0,0
567,260,0,0,0,0,0,0,0,0,0,-1,1791,764,0,0
574,260,9.24524,1.28522,0,0,0,0,0,0,0,-1,1798,764,9.24522,-1.28524
581,260,9.97266,1.22382,0,0,0,0,0,0,0,-1,1805,764,9.97263,-1.22381
588,260,10.6277,0.955017,0.032699,-0.0213203,0.00822545,0.0339237,-0.022545,0.147807,0.0328221,0.0435779,1812,764,10.6277,-0.955003
595,260,11.2296,0.629822,0.0249582,-0.0227573,0.00703306,0.0259732,-0.0237724,0.143336,0.02873,0.0444563,1819,764,11.2296,-0.629832
602,260,11.7961,-0.315186,0.0172915,-0.0227299,0.00556257,0.0180502,-0.0234887,0.135567,0.0240509,0.0416598,1826,764,11.7961,0.315171
609,260,12.0863,-1.18823,0.00963286,-0.0220596,0.00421236,0.0101832,-0.02261,0.129909,0.019381,0.0410081,1833,764,12.0863,1.18821
616,260,7.76355,-0.843933,0,0,0,0,0,0,0,-1,1840,764,7.76357,0.843939
623,260,8.23889,-0.673096,0,0,0,0,0,0,0,-1,1847,764,8.23893,0.673077
630,260,7.23279,0.227783,0,0,0,0,0,0,0,-1,1854,764,7.23278,-0.227778
637,260,7.26489,0.322266,-0.00897436,-0.0126609,-0.000527379,-0.0089004,-0.0127348,-0.139334,0.00754389,0.042299,1861,764,7.26488,-0.322262
644,260,7.28479,0.405212,-0.0106116,-0.0101888,-0.00129699,-0.00908605,-0.0117143,-0.866184,0.00709754,0.0227881,1868,764,7.28485,-0.405184
651,260,7.27942,0.52356,-0.0105939,-0.00800235,-0.00202187,-0.00689667,-0.0116996,-1.07037,0.00679072,0.0131968,1875,764,7.27938,-0.523543
658,260,7.26074,0.678955,-0.00854826,-0.0056975,-0.00225914,-0.00445166,-0.0097941,-1.06683,0.00566242,0.0151325,1882,764,7.2607,-0.678935
665,260,7.27539,0.801392,-0.00628913,-0.00357728,-0.00244726,-0.00213542,-0.00773099,-1.03838,0.0046101,0.0147311,1889,764,7.2754,-0.801386
672,260,7.26306,0.874146,-0.00391638,-0.00284118,-0.00220684,-0.0011074,-0.00565016,-0.904875,0.00345727,0.0132929,1896,764,7.26309,-0.874146
679,260,7.24365,0.953857,-0.00105858,-0.0027935,-0.00226865,0.000502799,-0.00435488,-0.602792,0.00308454,0.0125808,1903,764,7.24367,-0.953863
686,260,7.24646,1.05188,0.00109676,-0.00388398,-0.00223987,0.00195586,-0.00474308,-0.366245,0.00397766,0.011709,1910,764,7.24648,-1.05187
693,260,7.25293,1.14172,0.00272554,-0.00491775,-0.0026163,0.00353531,-0.00572752,-0.300158,0.00539759,0.0116032,1917,764,7.25295,-1.14172
700,260,7.24878,1.23547,0.00486222,-0.00690483,-0.00339316,0.00577056,-0.00781316,-0.261563,0.00787207,0.0124556,1924,764,7.2488,-1.23549
707,260,7.23499,1.32361,0.00742969,-0.00965135,-0.00431439,0.00845758,-0.0106792,-0.233886,0.0110734,0.0139085,1931,764,7.23494,-1.32359
714,260,7.26331,1.37793,0.0106917,-0.0131963,-0.00535426,0.011837,-0.0143415,-0.210711,0.0151372,0.0237579,1938,764,7.26327,-1.37794
721,260,7.52124,0.901245,0.0149354,-0.0176152,-0.00642326,0.016157,-0.0188368,-0.187949,0.0202234,0.039617,1945,764,7.52128,-0.901229
728,260,7.84656,0.390625,0.020419,-0.0229446,-0.00738691,0.0216428,-0.0241684,-0.164181,0.0264625,0.0456771,1952,764,7.84656,-0.390602
735,260,8.14343,-0.0119629,0,0,0,0,0,0,0,-1,1959,764,8.14341,0.0119685
742,260,7.63757,2.31812,0,0,0,0,0,0,0,-1,1966,764,7.63763,-2.31809
749,260,7.44885,2.15393,0,0,0,0,0,0,0,-1,1973,764,7.44888,-2.15396
756,260,0,0,0,0,0,0,0,0,0,-1,1980,764,0,0
763,260,0,0,0,0,0,0,0,0,0,-1,1987,764,0,0
770,260,0,0,0,0,0,0,0,0,0,-1,1994,764,0,0
777,260,0,0,0,0,0,0,0,0,0,-1,2001,764,0,0
784,260,0,0,0,0,0,0,0,0,0,-1,2008,764,0,0
791,260,0,0,0,0,0,0,0,0,0,-1,2015,764,0,0
798,260,0,0,0,0,0,0,0,0,0,-1,2022,764,0,0
805,260,0,0,0,0,0,0,0,0,0,-1,2029,764,0,0
812,260,0,0,0,0,0,0,0,0,0,-1,2036,764,0,0
-700,253,0,0,0,0,0,0,0,0,0,-1,524,771,0,0
-693,253,0,0,0,0,0,0,0,0,0,-1,531,771,0,0
-686,253,0,0,0,0,0,0,0,0,0,-1,538,771,0,0
-679,253,0,0,0,0,0,0,0,0,0,-1,545,771,0,0
-672,253,0,0,0,0,0,0,0,0,0,-1,552,771,0,0
-665,253,0,0,0,0,0,0,0,0,0,-1,559,771,0,0
-658,253,0,0,0,0,0,0,0,0,0,-1,566,771,0,0
-651,253,0,0,0,0,0,0,0,0,0,-1,573,771,0,0
-644,253,0,0,0,0,0,0,0,0,0,-1,580,771,0,0
-637,253,-4.83185,4.64264,0,0,0,0,0,0,0,-1,587,771,-4.83185,-4.64266
-630,253,-3.66608,2.51941,0,0,0,0,0,0,0,-1,594,771,-3.6661,-2.5194
-623,253,-3.42999,2.22894,0,0,0,0,0,0,0,-1,601,771,-3.43002,-2.22892
-616,253,-3.09961,1.79346,0,0,0,0,0,0,0,-1,608,771,-3.09963,-1.79348
-609,253,-3.03137,1.18866,0,0,0,0,0,0,0,-1,615,771,-3.03137,-1.18869
-602,253,-2.85419,1.10492,0.0139887,-0.0200382,-0.00993495,0.0166771,-0.0227265,-0.264266,0.0228389,0.0459161,622,771,-2.85421,-1.1049
-595,253,-2.66003,1.02325,0.00993587,-0.0150227,-0.00517647,0.0109669,-0.0160537,-0.196602,0.0156922,0.041791,629,771,-2.66005,-1.02324
-588,253,-2.50183,0.84137,0.00655991,-0.0107224,-0.00181195,0.00674784,-0.0109103,-0.103347,0.0102889,0.0333308,636,771,-2.50184,-0.841379
-581,253,-2.40198,0.661011,0.0042551,-0.00729052,6.28056e-05,0.00425544,-0.00729086,0.00543956,0.00674261,0.0194799,643,771,-2.40198,-0.660994
-574,253,-2.42761,0.5755,0.00211687,-0.00494404,0.00154324,0.00243943,-0.00526659,0.206047,0.00454779,0.0174586,650,771,-2.42763,-0.575473
-567,253,-2.44128,0.493774,0.000296452,-0.0022133,0.001963,0.0013714,-0.00328825,0.501003,0.00276508,0.0148474,657,771,-2.4413,-0.493757
-560,253,-2.41229,0.424011,-0.000605074,-0.000779359,0.00183496,0.00114481,-0.00252925,0.761671,0.00217084,0.0121216,664,771,-2.41231,-0.424015
-553,253,-2.40497,0.347656,-0.000519833,-0.000511086,0.00205774,0.00154228,-0.0025732,0.786461,0.0024008,0.0125577,671,771,-2.405,-0.347628
-546,253,-2.42603,0.276917,-9.59229e-05,-0.000782215,0.00257728,0.00216095,-0.00303909,0.719216,0.00301648,0.0113284,678,771,-2.42602,-0.276917
-539,253,-2.43488,0.170105,0.000474108,-0.00091286,0.00369657,0.00354168,-0.00398044,0.692675,0.00434536,0.0115456,685,771,-2.43485,-0.170123
-532,253,-2.43036,0.0561523,0.000987645,-0.00193002,0.00565757,0.00537144,-0.00631381,0.659219,0.00675379,0.0143752,692,771,-2.43036,-0.0561773
-525,253,-2.43073,-0.036377,0.000251262,-0.00226371,0.007814,0.00690831,-0.00892076,0.705619,0.00916351,0.0116396,699,771,-2.43075,0.036381
-518,253,-2.42401,-0.0860596,0.000269006,-0.00276569,0.0099002,0.00876747,-0.0112642,0.709358,0.0115952,0.0142129,706,771,-2.424,0.0860869
-511,253,-2.51184,-0.182861,-0.00106291,-0.00213606,0.0125385,0.0109505,-0.0141495,0.764014,0.0145306,0.0300611,713,771,-2.51183,0.18289
-504,253,-2.73834,-0.300171,-0.0029181,-0.00200379,0.0150264,0.0125724,-0.0174943,0.800605,0.0174364,0.0393036,720,771,-2.73834,0.300146
-497,253,-2.87634,-0.453369,-0.0048925,-0.00105163,0.017551,0.0146837,-0.0206279,0.839891,0.0204832,0.0445387,727,771,-2.87637,0.453384
-490,253,-2.24518,-0.623962,-0.0081763,0.000299524,0.020005,0.0165106,-0.0243873,0.889776,0.0237579,0.0452369,734,771,-2.2452,0.62397
-483,253,-1.91333,-0.958984,-0.0124648,0.00257906,0.0219167,0.0182287,-0.0281144,0.950702,0.0269584,0.0482019,741,771,-1.91334,0.959012
-476,253,-1.75702,-0.643677,0,0,0,0,0,0,0,-1,748,771,-1.757,0.643704
-469,253,-1.73535,0.012207,0,0,0,0,0,0,0,-1,755,771,-1.73533,-0.0122122
-462,253,-4.63855,0.715393,-0.0282785,0.0175716,0.0193624,0.0246542,-0.0353612,1.22012,0.0348332,0.0427521,762,771,-4.63855,-0.715399
-455,253,-4.59558,0.772766,0,0,0,0,0,0,0,-1,769,771,-4.59557,-0.772762
-448,253,0,0,0,0,0,0,0,0,0,-1,776,771,0,0
-441,253,0,0,0,0,0,0,0,0,0,-1,783,771,0,0
-434,253,0,0,0,0,0,0,0,0,0,-1,790,771,0,0
-427,253,0,0,0,0,0,0,0,0,0,-1,797,771,0,0
-420,253,0,0,0,0,0,0,0,0,0,-1,804,771,0,0
-413,253,0,0,0,0,0,0,0,0,0,-1,811,771,0,0
-406,253,0,0,0,0,0,0,0,0,0,-1,818,771,0,0
-399,253,0,0,0,0,0,0,0,0,0,-1,825,771,0,0
-392,253,0,0,0,0,0,0,0,0,0,-1,832,771,0,0
-385,253,0,0,0,0,0,0,0,0,0,-1,839,771,0,0
-378,253,0,0,0,0,0,0,0,0,0,-1,846,771,0,0
-371,253,0,0,0,0,0,0,0,0,0,-1,853,771,0,0
-364,253,0,0,0,0,0,0,0,0,0,-1,860,771,0,0
-357,253,0,0,0,0,0,0,0,0,0,-1,867,771,0,0
-350,253,0,0,0,0,0,0,0,0,0,-1,874,771,0,0
-343,253,0,0,0,0,0,0,0,0,0,-1,881,771,0,0
-336,253,0,0,0,0,0,0,0,0,0,-1,888,771,0,0
-329,253,0,0,0,0,0,0,0,0,0,-1,895,771,0,0
-322,253,0,0,0,0,0,0,0,0,0,-1,902,771,0,0
-315,253,0,0,0,0,0,0,0,0,0,-1,909,771,0,0
-308,253,0,0,0,0,0,0,0,0,0,-1,916,771,0,0
-301,253,0,0,0,0,0,0,0,0,0,-1,923,771,0,0
-294,253,0,0,0,0,0,0,0,0,0,-1,930,771,0,0
-287,253,0,0,0,0,0,0,0,0,0,-1,937,771,0,0
-280,253,0,0,0,0,0,0,0,0,0,-1,944,771,0,0
-273,253,0,0,0,0,0,0,0,0,0,-1,951,771,0,0
-266,253,0,0,0,0,0,0,0,0,0,-1,958,771,0,0
-259,253,0,0,0,0,0,0,0,0,0,-1,965,771,0,0
-252,253,0,0,0,0,0,0,0,0,0,-1,972,771,0,0
-245,253,0,0,0,0,0,0,0,0,0,-1,979,771,0,0
-238,253,0,0,0,0,0,0,0,0,0,-1,986,771,0,0
-231,253,0,0,0,0,0,0,0,0,0,-1,993,771,0,0
-224,253,0,0,0,0,0,0,0,0,0,-1,1000,771,0,0
-217,253,0,0,0,0,0,0,0,0,0,-1,1007,771,0,0
-210,253,0,0,0,0,0,0,0,0,0,-1,1014,771,0,0
-203,253,0,0,0,0,0,0,0,0,0,-1,1021,771,0,0
-196,253,0,0,0,0,0,0,0,0,0,-1,1028,771,0,0
-189,253,0,0,0,0,0,0,0,0,0,-1,1035,771,0,0
-182,253,0,0,0,0,0,0,0,0,0,-1,1042,771,0,0
-175,253,0,0,0,0,0,0,0,0,0,-1,1049,771,0,0
-168,253,0,0,0,0,0,0,0,0,0,-1,1056,771,0,0
-161,253,0,0,0,0,0,0,0,0,0,-1,1063,771,0,0
-154,253,0,0,0,0,0,0,0,0,0,-1,1070,771,0,0
-147,253,0,0,0,0,0,0,0,0,0,-1,1077,771,0,0
-140,253,0,0,0,0,0,0,0,0,0,-1,1084,771,0,0
-133,253,0,0,0,0,0,0,0,0,0,-1,1091,771,0,0
-126,253,0,0,0,0,0,0,0,0,0,-1,1098,771,0,0
-119,253,0,0,0,0,0,0,0,0,0,-1,1105,771,0,0
-112,253,0,0,0,0,0,0,0,0,0,-1,1112,771,0,0
-105,253,0,0,0,0,0,0,0,0,0,-1,1119,771,0,0
-98,253,0,0,0,0,0,0,0,0,0,-1,1126,771,0,0
-91,253,0,0,0,0,0,0,0,0,0,-1,1133,771,0,0
-84,253,0,0,0,0,0,0,0,0,0,-1,1140,771,0,0
-77,253,0,0,0,0,0,0,0,0,0,-1,1147,771,0,0
-70,253,0,0,0,0,0,0,0,0,0,-1,1154,771,0,0
-63,253,0,0,0,0,0,0,0,0,0,-1,1161,771,0,0
-56,253,0,0,0,0,0,0,0,0,0,-1,1168,771,0,0
-49,253,0,0,0,0,0,0,0,0,0,-1,1175,771,0,0
-42,253,0,0,0,0,0,0,0,0,0,-1,1182,771,0,0
-35,253,0,0,0,0,0,0,0,0,0,-1,1189,771,0,0
-28,253,0,0,0,0,0,0,0,0,0,-1,1196,771,0,0
-21,253,0,0,0,0,0,0,0,0,0,-1,1203,771,0,0
-14,253,0,0,0,0,0,0,0,0,0,-1,1210,771,0,0
-7,253,0,0,0,0,0,0,0,0,0,-1,1217,771,0,0
0,253,0,0,0,0,0,0,0,0,0,-1,1224,771,0,0
7,253,0,0,0,0,0,0,0,0,0,-1,1231,771,0,0
14,253,0,0,0,0,0,0,0,0,0,-1,1238,771,0,0
21,253,0,0,0,0,0,0,0,0,0,-1,1245,771,0,0
28,253,0,0,0,0,0,0,0,0,0,-1,1252,771,0,0
35,253,0,0,0,0,0,0,0,0,0,-1,1259,771,0,0
42,253,0,0,0,0,0,0,0,0,0,-1,1266,771,0,0
49,253,0,0,0,0,0,0,0,0,0,-1,1273,771,0,0
56,253,0,0,0,0,0,0,0,0,0,-1,1280,771,0,0
63,253,0,0,0,0,0,0,0,0,0,-1,1287,771,0,0
70,253,0,0,0,0,0,0,0,0,0,-1,1294,771,0,0
77,253,0,0,0,0,0,0,0,0,0,-1,1301,771,0,0
84,253,0,0,0,0,0,0,0,0,0,-1,1308,771,0,0
91,253,0,0,0,0,0,0,0,0,0,-1,1315,771,0,0
98,253,0,0,0,0,0,0,0,0,0,-1,1322,771,0,0
105,253,0,0,0,0,0,0,0,0,0,-1,1329,771,0,0
112,253,0,0,0,0,0,0,0,0,0,-1,1336,771,0,0
119,253,0,0,0,0,0,0,0,0,0,-1,1343,771,0,0
126,253,0,0,0,0,0,0,0,0,0,-1,1350,771,0,0
133,253,0,0,0,0,0,0,0,0,0,-1,1357,771,0,0
140,253,0,0,0,0,0,0,0,0,0,-1,1364,771,0,0
147,253,0,0,0,0,0,0,0,0,0,-1,1371,771,0,0
154,253,0,0,0,0,0,0,0,0,0,-1,1378,771,0,0
161,253,0,0,0,0,0,0,0,0,0,-1,1385,771,0,0
168,253,0,0,0,0,0,0,0,0,0,-1,1392,771,0,0
175,253,0,0,0,0,0,0,0,0,0,-1,1399,771,0,0
182,253,0,0,0,0,0,0,0,0,0,-1,1406,771,0,0
189,253,0,0,0,0,0,0,0,0,0,-1,1413,771,0,0
196,253,0,0,0,0,0,0,0,0,0,-1,1420,771,0,0
203,253,0,0,0,0,0,0,0,0,0,-1,1427,771,0,0
210,253,0,0,0,0,0,0,0,0,0,-1,1434,771,0,0
217,253,0,0,0,0,0,0,0,0,0,-1,1441,771,0,0
224,253,0,0,0,0,0,0,0,0,0,-1,1448,771,0,0
231,253,0,0,0,0,0,0,0,0,0,-1,1455,771,0,0
238,253,0,0,0,0,0,0,0,0,0,-1,1462,771,0,0
245,253,0,0,0,0,0,0,0,0,0,-1,1469,771,0,0
252,253,0,0,0,0,0,0,0,0,0,-1,1476,771,0,0
259,253,0,0,0,0,0,0,0,0,0,-1,1483,771,0,0
266,253,0,0,0,0,0,0,0,0,0,-1,1490,771,0,0
273,253,0,0,0,0,0,0,0,0,0,-1,1497,771,0,0
280,253,0,0,0,0,0,0,0,0,0,-1,1504,771,0,0
287,253,0,0,0,0,0,0,0,0,0,-1,1511,771,0,0
294,253,0,0,0,0,0,0,0,0,0,-1,1518,771,0,0
301,253,0,0,0,0,0,0,0,0,0,-1,1525,771,0,0
308,253,0,0,0,0,0,0,0,0,0,-1,1532,771,0,0
315,253,0,0,0,0,0,0,0,0,0,-1,1539,771,0,0
322,253,0,0,0,0,0,0,0,0,0,-1,1546,771,0,0
329,253,0,0,0,0,0,0,0,0,0,-1,1553,771,0,0
336,253,0,0,0,0,0,0,0,0,0,-1,1560,771,0,0
343,253,0,0,0,0,0,0,0,0,0,-1,1567,771,0,0
350,253,0,0,0,0,0,0,0,0,0,-1,1574,771,0,0
357,253,0,0,0,0,0,0,0,0,0,-1,1581,771,0,0
364,253,0,0,0,0,0,0,0,0,0,-1,1588,771,0,0
371,253,0,0,0,0,0,0,0,0,0,-1,1595,771,0,0
378,253,0,0,0,0,0,0,0,0,0,-1,1602,771,0,0
385,253,0,0,0,0,0,0,0,0,0,-1,1609,771,0,0
392,253,0,0,0,0,0,0,0,0,0,-1,1616,771,0,0
399,253,0,0,0,0,0,0,0,0,0,-1,1623,771,0,0
406,253,0,0,0,0,0,0,0,0,0,-1,1630,771,0,0
413,253,0,0,0,0,0,0,0,0,0,-1,1637,771,0,0
420,253,0,0,0,0,0,0,0,0,0,-1,1644,771,0,0
427,253,0,0,0,0,0,0,0,0,0,-1,1651,771,0,0
434,253,0,0,0,0,0,0,0,0,0,-1,1658,771,0,0
441,253,0,0,0,0,0,0,0,0,0,-1,1665,771,0,0
448,253,0,0,0,0,0,0,0,0,0,-1,1672,771,0,0
455,253,0,0,0,0,0,0,0,0,0,-1,1679,771,0,0
462,253,0,0,0,0,0,0,0,0,0,-1,1686,771,0,0
469,253,0,0,0,0,0,0,0,0,0,-1,1693,771,0,0
476,253,0,0,0,0,0,0,0,0,0,-1,1700,771,0,0
483,253,0,0,0,0,0,0,0,0,0,-1,1707,771,0,0
490,253,0,0,0,0,0,0,0,0,0,-1,1714,771,0,0
497,253,0,0,0,0,0,0,0,0,0,-1,1721,771,0,0
504,253,0,0,0,0,0,0,0,0,0,-1,1728,771,0,0
511,253,0,0,0,0,0,0,0,0,0,-1,1735,771,0,0
518,253,0,0,0,0,0,0,0,0,0,-1,1742,771,0,0
525,253,0,0,0,0,0,0,0,0,0,-1,1749,771,0,0
532,253,0,0,0,0,0,0,0,0,0,-1,1756,771,0,0
539,253,0,0,0,0,0,0,0,0,0,-1,1763,771,0,0
546,253,0,0,0,0,0,0,0,0,0,-1,1770,771,0,0
553,253,0,0,0,0,0,0,0,0,0,-1,1777,771,0,0
560,253,0,0,0,0,0,0,0,0,0,-1,1784,771,0,0
567,253,0,0,0,0,0,0,0,0,0,-1,1791,771,0,0
574,253,9.18237,1.22809,0,0,0,0,0,0,0,-1,1798,771,9.18237,-1.22809
581,253,9.62024,1.2757,0,0,0,0,0,0,0,-1,1805,771,9.6202,-1.27567
588,253,10.0649,1.05353,0.0319574,-0.0193104,0.00892918,0.0334681,-0.020821,0.167595,0.031626,0.0438749,1812,771,10.065,-1.05352
595,253,10.5353,0.837463,0.0236846,-0.0214685,0.00803914,0.0250732,-0.0228571,0.171042,0.0276824,0.0433669,1819,771,10.5353,-0.837468
602,253,10.3766,0.663147,0.0155487,-0.0219134,0.0065937,0.0166754,-0.0230401,0.169237,0.0230277,0.0427106,1826,771,10.3766,-0.663151
609,253,9.33936,1.83588,0.00787279,-0.0213758,0.0050214,0.00871085,-0.0222139,0.165373,0.018413,0.0423304,1833,771,9.33936,-1.83585
616,253,8.05505,-0.637024,0,0,0,0,0,0,0,-1,1840,771,8.0551,0.637028
623,253,8.07971,-0.437744,-0.00335569,-0.0179897,0.00199728,-0.00308799,-0.0182573,0.133236,0.011284,0.0493,1847,771,8.07972,0.437762
630,253,7.41479,0.945557,-0.00693761,-0.0152101,0.000588458,-0.00689596,-0.0152518,0.0706601,0.00881905,0.0475712,1854,771,7.4148,-0.945572
637,253,7.3916,0.347107,-0.00913636,-0.0126072,-0.000517955,-0.00906072,-0.0126828,-0.145023,0.00754351,0.0460966,1861,771,7.39155,-0.347131
644,253,7.39551,0.305725,-0.0106408,-0.0103631,-0.00134398,-0.00915084,-0.0118531,-0.836868,0.00717304,0.0373492,1868,771,7.39556,-0.305696
651,253,7.39771,0.502991,-0.0107356,-0.00833508,-0.00212877,-0.00709152,-0.0119792,-1.0421,0.0069551,0.0218784,1875,771,7.39776,-0.503013
658,253,7.37561,0.680542,-0.00893108,-0.00613475,-0.00249786,-0.00467037,-0.0103955,-1.04055,0.00601211,0.0173244,1882,771,7.37555,-0.680521
665,253,7.34192,0.799683,-0.00683852,-0.00391489,-0.00272886,-0.00228097,-0.00847244,-1.03129,0.00506226,0.0193483,1889,771,7.34187,-0.799676
672,253,7.33484,0.86145,-0.00458713,-0.00307036,-0.00240411,-0.00130786,-0.00634963,-0.938185,0.00387149,0.0163574,1896,771,7.33478,-0.861459
679,253,7.35535,0.931946,-0.00176386,-0.00265329,-0.00231938,0.000153058,-0.00457021,-0.690678,0.00309909,0.0133419,1903,771,7.35529,-0.931944
686,253,7.35364,1.03412,0.000347518,-0.00327832,-0.00207952,0.00129342,-0.00422422,-0.426892,0.00333205,0.0156404,1910,771,7.3536,-1.03409
693,253,7.33142,1.13873,0.00188825,-0.00373573,-0.0022139,0.00265518,-0.00450266,-0.333476,0.00417821,0.0149963,1917,771,7.33144,-1.13871
700,253,7.3291,1.2226,0.00386172,-0.0050763,-0.00270583,0.00461703,-0.00583161,-0.272215,0.0060461,0.0146586,1924,771,7.32912,-1.22259
707,253,7.32971,1.30316,0.00608339,-0.00703112,-0.00325997,0.00684904,-0.00779678,-0.230685,0.00846167,0.0152514,1931,771,7.32969,-1.30315
714,253,7.34802,1.39288,0.00876683,-0.00954764,-0.00385466,0.00954505,-0.0103259,-0.199214,0.0114754,0.0194739,1938,771,7.34802,-1.39291
721,253,7.39893,1.41321,0.0121316,-0.0126547,-0.00440277,0.0128904,-0.0134135,-0.170677,0.0151875,0.0315408,1945,771,7.39887,-1.41323
728,253,7.62073,1.45996,0.0164,-0.0163155,-0.00474468,0.0170742,-0.0169897,-0.141155,0.0196668,0.0402203,1952,771,7.62078,-1.45999
735,253,7.94092,1.5257,0.02171,-0.0204018,-0.004662,0.02222,-0.0209117,-0.108948,0.0249059,0.0435427,1959,771,7.94091,-1.5257
742,253,8.49915,1.27802,0,0,0,0,0,0,0,-1,1966,771,8.49911,-1.278
749,253,7.4408,2.18036,0,0,0,0,0,0,0,-1,1973,771,7.44078,-2.18039
756,253,0,0,0,0,0,0,0,0,0,-1,1980,771,0,0
763,253,0,0,0,0,0,0,0,0,0,-1,1987,771,0,0
770,253,0,0,0,0,0,0,0,0,0,-1,1994,771,0,0
777,253,0,0,0,0,0,0,0,0,0,-1,2001,771,0,0
784,253,0,0,0,0,0,0,0,0,0,-1,2008,771,0,0
791,253,0,0,0,0,0,0,0,0,0,-1,2015,771,0,0
798,253,0,0,0,0,0,0,0,0,0,-1,2022,771,0,0
805,253,0,0,0,0,0,0,0,0,0,-1,2029,771,0,0
812,253,0,0,0,0,0,0,0,0,0,-1,2036,771,0,0
-700,246,0,0,0,0,0,0,0,0,0,-1,524,778,0,0
-693,246,0,0,0,0,0,0,0,0,0,-1,531,778,0,0
-686,246,0,0,0,0,0,0,0,0,0,-1,538,778,0,0
-679,246,0,0,0,0,0,0,0,0,0,-1,545,778,0,0
-672,246,0,0,0,0,0,0,0,0,0,-1,552,778,0,0
-665,246,0,0,0,0,0,0,0,0,0,-1,559,778,0,0
-658,246,0,0,0,0,0,0,0,0,0,-1,566,778,0,0
-651,246,0,0,0,0,0,0,0,0,0,-1,573,778,0,0
-644,246,0,0,0,0,0,0,0,0,0,-1,580,778,0,0
-637,246,-4.50183,4.55304,0,0,0,0,0,0,0,-1,587,778,-4.50182,-4.55305
-630,246,-2.63031,0.692749,0,0,0,0,0,0,0,-1,594,778,-2.63028,-0.692778
-623,246,-2.38129,-0.0288696,0.0362027,-0.0322236,-0.0338742,0.0501352,-0.0461561,-0.39021,0.0556096,0.0495024,601,778,-2.38128,0.0288682
-616,246,-2.03998,-0.601135,0.0276636,-0.0276215,-0.0238928,0.0365584,-0.0365163,-0.356383,0.0421897,0.047505,608,778,-2.03998,0.601141
-609,246,-1.59979,-1.1181,0,0,0,0,0,0,0,-1,615,778,-1.59981,1.1181
-602,246,-3.02264,1.03131,0,0,0,0,0,0,0,-1,622,778,-3.02263,-1.03133
-595,246,-2.81647,0.848755,0.010153,-0.0134636,-0.00637734,0.0117651,-0.0150757,-0.247595,0.0155357,0.0401275,629,778,-2.8165,-0.848742
-588,246,-2.53088,0.723999,0.00741562,-0.00963108,-0.00296148,0.00791545,-0.0101309,-0.167203,0.0104452,0.0265203,636,778,-2.53091,-0.723993
-581,246,-2.50348,0.665405,0.00529733,-0.00670667,-0.00088574,0.00536233,-0.00677167,-0.0732583,0.0070213,0.0150487,643,778,-2.50349,-0.665377
-574,246,-2.50531,0.558838,0.00318318,-0.00476884,0.000815326,0.00326592,-0.00485158,0.101129,0.00471635,0.0168847,650,778,-2.5053,-0.558844
-567,246,-2.52545,0.487305,0.00129985,-0.00235013,0.00141694,0.00178534,-0.00283561,0.330095,0.00269078,0.0151549,657,778,-2.52546,-0.487288
-560,246,-2.50031,0.396851,0.000230628,-0.00103602,0.00154108,0.00126344,-0.00206884,0.590438,0.00194254,0.0129437,664,778,-2.50032,-0.396825
-553,246,-2.4939,0.32373,0.000162101,-0.000893725,0.00206516,0.00176575,-0.00249738,0.660264,0.00247337,0.0137106,671,778,-2.4939,-0.323753
-546,246,-2.50952,0.261047,0.000433415,-0.00129172,0.00286927,0.00256696,-0.00342527,0.639384,0.00347143,0.0113178,678,778,-2.50951,-0.261067
-539,246,-2.49573,0.154724,0.000871552,-0.00152219,0.0042098,0.00405132,-0.00470196,0.6469,0.00505836,0.0107915,685,778,-2.49575,-0.154703
-532,246,-2.49957,0.0534668,0.00132074,-0.0026141,0.00625425,0.00590972,-0.00720308,0.633012,0.00758295,0.012324,692,778,-2.49955,-0.0534424
-525,246,-2.51691,-0.00732422,0.000717029,-0.00308908,0.00833766,0.00736606,-0.00973811,0.673196,0.0099067,0.0129489,699,778,-2.51694,0.00731732
-518,246,-2.51514,-0.0739746,0.000847307,-0.00364723,0.0102765,0.00911939,-0.0119193,0.677752,0.0121825,0.0188256,706,778,-2.51516,0.0739912
-511,246,-2.83289,-0.267456,-2.28874e-05,-0.0032347,0.012545,0.0110186,-0.0142762,0.721739,0.0146443,0.0373837,713,778,-2.83286,0.267439
-504,246,-3.20929,-0.360779,-0.00133407,-0.00322155,0.0146498,0.0124023,-0.016958,0.753233,0.0170191,0.041335,720,778,-3.20927,0.360771
-497,246,-3.38806,-0.36676,0,0,0,0,0,0,0,-1,727,778,-3.38808,0.366744
-490,246,-2.88104,-0.644287,-0.00534088,-0.00140497,0.0185121,0.0152435,-0.0219894,0.838352,0.0216137,0.0494418,734,778,-2.88103,0.644296
-483,246,-3.17035,-0.262756,-0.008827,0.000528141,0.0197248,0.0161224,-0.0244213,0.901818,0.0235708,0.0481373,741,778,-3.17032,0.262738
-476,246,-2.89075,0.290466,0,0,0,0,0,0,0,-1,748,778,-2.89075,-0.290492
-469,246,-4.70282,0.652832,-0.0182747,0.00793654,0.0185057,0.0175073,-0.0278455,1.0935,0.0264103,0.0398374,755,778,-4.70282,-0.652833
-462,246,-4.63531,0.740173,-0.0225053,0.0140774,0.0145209,0.0191405,-0.0275684,1.2353,0.0271133,0.0456768,762,778,-4.63533,-0.740185
-455,246,0,0,0,0,0,0,0,0,0,-1,769,778,0,0
-448,246,0,0,0,0,0,0,0,0,0,-1,776,778,0,0
-441,246,0,0,0,0,0,0,0,0,0,-1,783,778,0,0
-434,246,0,0,0,0,0,0,0,0,0,-1,790,778,0,0
-427,246,0,0,0,0,0,0,0,0,0,-1,797,778,0,0
-420,246,0,0,0,0,0,0,0,0,0,-1,804,778,0,0
-413,246,0,0,0,0,0,0,0,0,0,-1,811,778,0,0
-406,246,0,0,0,0,0,0,0,0,0,-1,818,778,0,0
-399,246,0,0,0,0,0,0,0,0,0,-1,825,778,0,0
-392,246,0,0,0,0,0,0,0,0,0,-1,832,778,0,0
-385,246,0,0,0,0,0,0,0,0,0,-1,839,778,0,0
-378,246,0,0,0,0,0,0,0,0,0,-1,846,778,0,0
-371,246,0,0,0,0,0,0,0,0,0,-1,853,778,0,0
-364,246,0,0,0,0,0,0,0,0,0,-1,860,778,0,0
-357,246,0,0,0,0,0,0,0,0,0,-1,867,778,0,0
-350,246,0,0,0,0,0,0,0,0,0,-1,874,778,0,0
-343,246,0,0,0,0,0,0,0,0,0,-1,881,778,0,0
-336,246,0,0,0,0,0,0,0,0,0,-1,888,778,0,0
-329,246,0,0,0,0,0,0,0,0,0,-1,895,778,0,0
-322,246,0,0,0,0,0,0,0,0,0,-1,902,778,0,0
-315,246,0,0,0,0,0,0,0,0,0,-1,909,778,0,0
-308,246,0,0,0,0,0,0,0,0,0,-1,916,778,0,0
-301,246,0,0,0,0,0,0,0,0,0,-1,923,778,0,0
-294,246,0,0,0,0,0,0,0,0,0,-1,930,778,0,0
-287,246,0,0,0,0,0,0,0,0,0,-1,937,778,0,0
-280,246,0,0,0,0,0,0,0,0,0,-1,944,778,0,0
-273,246,0,0,0,0,0,0,0,0,0,-1,951,778,0,0
-266,246,0,0,0,0,0,0,0,0,0,-1,958,778,0,0
-259,246,0,0,0,0,0,0,0,0,0,-1,965,778,0,0
-252,246,0,0,0,0,0,0,0,0,0,-1,972,778,0,0
-245,246,0,0,0,0,0,0,0,0,0,-1,979,778,0,0
-238,246,0,0,0,0,0,0,0,0,0,-1,986,778,0,0
-231,246,0,0,0,0,0,0,0,0,0,-1,993,778,0,0
-224,246,0,0,0,0,0,0,0,0,0,-1,1000,778,0,0
-217,246,0,0,0,0,0,0,0,0,0,-1,1007,778,0,0
-210,246,0,0,0,0,0,0,0,0,0,-1,1014,778,0,0
-203,246,0,0,0,0,0,0,0,0,0,-1,1021,778,0,0
-196,246,0,0,0,0,0,0,0,0,0,-1,1028,778,0,0
-189,246,0,0,0,0,0,0,0,0,0,-1,1035,778,0,0
-182,246,0,0,0,0,0,0,0,0,0,-1,1042,778,0,0
-175,246,0,0,0,0,0,0,0,0,0,-1,1049,778,0,0
-168,246,0,0,0,0,0,0,0,0,0,-1,1056,778,0,0
-161,246,0,0,0,0,0,0,0,0,0,-1,1063,778,0,0
-154,246,0,0,0,0,0,0,0,0,0,-1,1070,778,0,0
-147,246,0,0,0,0,0,0,0,0,0,-1,1077,778,0,0
-140,246,0,0,0,0,0,0,0,0,0,-1,1084,778,0,0
-133,246,0,0,0,0,0,0,0,0,0,-1,1091,778,0,0
-126,246,0,0,0,0,0,0,0,0,0,-1,1098,778,0,0
-119,246,0,0,0,0,0,0,0,0,0,-1,1105,778,0,0
-112,246,0,0,0,0,0,0,0,0,0,-1,1112,778,0,0
-105,246,0,0,0,0,0,0,0,0,0,-1,1119,778,0,0
-98,246,0,0,0,0,0,0,0,0,0,-1,1126,778,0,0
-91,246,0,0,0,0,0,0,0,0,0,-1,1133,778,0,0
-84,246,0,0,0,0,0,0,0,0,0,-1,1140,778,0,0
-77,246,0,0,0,0,0,0,0,0,0,-1,1147,778,0,0
-70,246,0,0,0,0,0,0,0,0,0,-1,1154,778,0,0
-63,246,0,0,0,0,0,0,0,0,0,-1,1161,778,0,0
-56,246,0,0,0,0,0,0,0,0,0,-1,1168,778,0,0
-49,246,0,0,0,0,0,0,0,0,0,-1,1175,778,0,0
-42,246,0,0,0,0,0,0,0,0,0,-1,1182,778,0,0
-35,246,0,0,0,0,0,0,0,0,0,-1,1189,778,0,0
-28,246,0,0,0,0,0,0,0,0,0,-1,1196,778,0,0
-21,246,0,0,0,0,0,0,0,0,0,-1,1203,778,0,0
-14,246,0,0,0,0,0,0,0,0,0,-1,1210,778,0,0
-7,246,0,0,0,0,0,0,0,0,0,-1,1217,778,0,0
0,246,0,0,0,0,0,0,0,0,0,-1,1224,778,0,0
7,246,0,0,0,0,0,0,0,0,0,-1,1231,778,0,0
14,246,0,0,0,0,0,0,0,0,0,-1,1238,778,0,0
21,246,0,0,0,0,0,0,0,0,0,-1,1245,778,0,0
28,246,0,0,0,0,0,0,0,0,0,-1,1252,778,0,0
35,246,0,0,0,0,0,0,0,0,0,-1,1259,778,0,0
42,246,0,0,0,0,0,0,0,0,0,-1,1266,778,0,0
49,246,0,0,0,0,0,0,0,0,0,-1,1273,778,0,0
56,246,0,0,0,0,0,0,0,0,0,-1,1280,778,0,0
63,246,0,0,0,0,0,0,0,0,0,-1,1287,778,0,0
70,246,0,0,0,0,0,0,0,0,0,-1,1294,778,0,0
77,246,0,0,0,0,0,0,0,0,0,-1,1301,778,0,0
84,246,0,0,0,0,0,0,0,0,0,-1,1308,778,0,0
91,246,0,0,0,0,0,0,0,0,0,-1,1315,778,0,0
98,246,0,0,0,0,0,0,0,0,0,-1,1322,778,0,0
105,246,0,0,0,0,0,0,0,0,0,-1,1329,778,0,0
112,246,0,0,0,0,0,0,0,0,0,-1,1336,778,0,0
119,246,0,0,0,0,0,0,0,0,0,-1,1343,778,0,0
126,246,0,0,0,0,0,0,0,0,0,-1,1350,778,0,0
133,246,0,0,0,0,0,0,0,0,0,-1,1357,778,0,0
140,246,0,0,0,0,0,0,0,0,0,-1,1364,778,0,0
147,246,0,0,0,0,0,0,0,0,0,-1,1371,778,0,0
154,246,0,0,0,0,0,0,0,0,0,-1,1378,778,0,0
161,246,0,0,0,0,0,0,0,0,0,-1,1385,778,0,0
168,246,0,0,0,0,0,0,0,0,0,-1,1392,778,0,0
175,246,0,0,0,0,0,0,0,0,0,-1,1399,778,0,0
182,246,0,0,0,0,0,0,0,0,0,-1,1406,778,0,0
189,246,0,0,0,0,0,0,0,0,0,-1,1413,778,0,0
196,246,0,0,0,0,0,0,0,0,0,-1,1420,778,0,0
203,246,0,0,0,0,0,0,0,0,0,-1,1427,778,0,0
210,246,0,0,0,0,0,0,0,0,0,-1,1434,778,0,0
217,246,0,0,0,0,0,0,0,0,0,-1,1441,778,0,0
224,246,0,0,0,0,0,0,0,0,0,-1,1448,778,0,0
231,246,0,0,0,0,0,0,0,0,0,-1,1455,778,0,0
238,246,0,0,0,0,0,0,0,0,0,-1,1462,778,0,0
245,246,0,0,0,0,0,0,0,0,0,-1,1469,778,0,0
252,246,0,0,0,0,0,0,0,0,0,-1,1476,778,0,0
259,246,0,0,0,0,0,0,0,0,0,-1,1483,778,0,0
266,246,0,0,0,0,0,0,0,0,0,-1,1490,778,0,0
273,246,0,0,0,0,0,0,0,0,0,-1,1497,778,0,0
280,246,0,0,0,0,0,0,0,0,0,-1,1504,778,0,0
287,246,0,0,0,0,0,0,0,0,0,-1,1511,778,0,0
294,246,0,0,0,0,0,0,0,0,0,-1,1518,778,0,0
301,246,0,0,0,0,0,0,0,0,0,-1,1525,778,0,0
308,246,0,0,0,0,0,0,0,0,0,-1,1532,778,0,0
315,246,0,0,0,0,0,0,0,0,0,-1,1539,778,0,0
322,246,0,0,0,0,0,0,0,0,0,-1,1546,778,0,0
329,246,0,0,0,0,0,0,0,0,0,-1,1553,778,0,0
336,246,0,0,0,0,0,0,0,0,0,-1,1560,778,0,0
343,246,0,0,0,0,0,0,0,0,0,-1,1567,778,0,0
350,246,0,0,0,0,0,0,0,0,0,-1,1574,778,0,0
357,246,0,0,0,0,0,0,0,0,0,-1,1581,778,0,0
364,246,0,0,0,0,0,0,0,0,0,-1,1588,778,0,0
371,246,0,0,0,0,0,0,0,0,0,-1,1595,778,0,0
378,246,0,0,0,0,0,0,0,0,0,-1,1602,778,0,0
385,246,0,0,0,0,0,0,0,0,0,-1,1609,778,0,0
392,246,0,0,0,0,0,0,0,0,0,-1,1616,778,0,0
399,246,0,0,0,0,0,0,0,0,0,-1,1623,778,0,0
406,246,0,0,0,0,0,0,0,0,0,-1,1630,778,0,0
413,246,0,0,0,0,0,0,0,0,0,-1,1637,778,0,0
420,246,0,0,0,0,0,0,0,0,0,-1,1644,778,0,0
427,246,0,0,0,0,0,0,0,0,0,-1,1651,778,0,0
434,246,0,0,0,0,0,0,0,0,0,-1,1658,778,0,0
441,246,0,0,0,0,0,0,0,0,0,-1,1665,778,0,0
448,246,0,0,0,0,0,0,0,0,0,-1,1672,778,0,0
455,246,0,0,0,0,0,0,0,0,0,-1,1679,778,0,0
462,246,0,0,0,0,0,0,0,0,0,-1,1686,778,0,0
469,246,0,0,0,0,0,0,0,0,0,-1,1693,778,0,0
476,246,0,0,0,0,0,0,0,0,0,-1,1700,778,0,0
483,246,0,0,0,0,0,0,0,0,0,-1,1707,778,0,0
490,246,0,0,0,0,0,0,0,0,0,-1,1714,778,0,0
497,246,0,0,0,0,0,0,0,0,0,-1,1721,778,0,0
504,246,0,0,0,0,0,0,0,0,0,-1,1728,778,0,0
511,246,0,0,0,0,0,0,0,0,0,-1,1735,778,0,0
518,246,0,0,0,0,0,0,0,0,0,-1,1742,778,0,0
525,246,0,0,0,0,0,0,0,0,0,-1,1749,778,0,0
532,246,0,0,0,0,0,0,0,0,0,-1,1756,778,0,0
539,246,0,0,0,0,0,0,0,0,0,-1,1763,778,0,0
546,246,0,0,0,0,0,0,0,0,0,-1,1770,778,0,0
553,246,0,0,0,0,0,0,0,0,0,-1,1777,778,0,0
560,246,0,0,0,0,0,0,0,0,0,-1,1784,778,0,0
567,246,0,0,0,0,0,0,0,0,0,-1,1791,778,0,0
574,246,0,0,0,0,0,0,0,0,0,-1,1798,778,0,0
581,246,9.7749,1.29254,0.0373858,-0.0117015,0.00700407,0.0383656,-0.0126813,0.138992,0.0306903,0.0380537,1805,778,9.77495,-1.29255
588,246,9.6814,1.24023,0.0305032,-0.0167438,0.00842337,0.0319601,-0.0182006,0.171257,0.0293212,0.044655,1812,778,9.6814,-1.24022
595,246,9.97192,1.14893,0.0220567,-0.019361,0.00799819,0.0235476,-0.0208518,0.184286,0.0256498,0.0409658,1819,778,9.97193,-1.14891
602,246,9.36548,1.66602,0,0,0,0,0,0,0,-1,1826,778,9.3655,-1.66602
609,246,9.47375,1.7348,0,0,0,0,0,0,0,-1,1833,778,9.47374,-1.73483
616,246,8.81323,-0.130737,0,0,0,0,0,0,0,-1,1840,778,8.81328,0.130726
623,246,8.4939,0.0262451,-0.00442545,-0.0166627,0.00184478,-0.00415339,-0.0169348,0.146417,0.0101915,0.0475881,1847,778,8.49392,-0.026269
630,246,8.1814,0.135925,-0.00749535,-0.0143106,0.000382172,-0.00747399,-0.014332,0.0558428,0.00827711,0.045868,1854,778,8.18139,-0.135936
637,246,7.67749,0.203613,0,0,0,0,0,0,0,-1,1861,778,7.67749,-0.203588
644,246,7.59412,0.392883,-0.0108106,-0.0101127,-0.00153981,-0.0088828,-0.0120405,-0.896826,0.00720877,0.0451377,1868,778,7.59412,-0.392892
651,246,7.47473,0.570801,-0.0110305,-0.00833894,-0.00230754,-0.00701342,-0.012356,-1.04939,0.00715547,0.0286373,1875,778,7.47478,-0.570818
658,246,7.45056,0.698425,-0.00957435,-0.00637209,-0.00274537,-0.00479507,-0.0111514,-1.04939,0.00645924,0.0186264,1882,778,7.4506,-0.698453
665,246,7.41614,0.796387,-0.007769,-0.00428069,-0.00299465,-0.0025593,-0.00949039,-1.0491,0.00566975,0.0203378,1889,778,7.41619,-0.796375
672,246,7.42029,0.878479,-0.00569485,-0.00343845,-0.00262133,-0.00171284,-0.00742046,-0.988612,0.00448637,0.0205545,1896,778,7.4203,-0.878462
679,246,7.48096,0.91449,-0.00294151,-0.00276217,-0.00240105,-0.000449111,-0.00525457,-0.804063,0.00336335,0.0206981,1903,778,7.48098,-0.91451
686,246,7.46997,1.0083,-0.000833173,-0.00301098,-0.00198612,0.000342959,-0.00418711,-0.534646,0.00291247,0.0213188,1910,778,7.47003,-1.0083
693,246,7.44983,1.13251,0.000725962,-0.00300734,-0.00190184,0.00152415,-0.00380553,-0.397367,0.00316967,0.0165766,1917,778,7.44987,-1.13252
700,246,7.44031,1.21735,0.00265823,-0.00385395,-0.00212987,0.00329296,-0.00448868,-0.289633,0.00451038,0.0141913,1924,778,7.44035,-1.21736
707,246,7.43689,1.31171,0.00467414,-0.00517747,-0.00235391,0.00520768,-0.00571101,-0.222895,0.00630614,0.0134113,1931,778,7.43694,-1.31172
714,246,7.43176,1.40436,0.00693019,-0.0068879,-0.00257846,0.00739565,-0.00735337,-0.178596,0.00851536,0.0125104,1938,778,7.43182,-1.40436
721,246,7.43237,1.47589,0.0095463,-0.00900074,-0.00272584,0.00993861,-0.00939306,-0.142943,0.0111626,0.0162676,1945,778,7.43236,-1.47589
728,246,7.5603,1.57623,0.0127153,-0.0114518,-0.00263695,0.0129997,-0.0117361,-0.107429,0.0142875,0.0336977,1952,778,7.56031,-1.57623
735,246,7.78857,1.70862,0.0166103,-0.0141109,-0.00208948,0.0167517,-0.0142524,-0.0675993,0.0179196,0.0463613,1959,778,7.78863,-1.70861
742,246,7.95911,1.83264,0,0,0,0,0,0,0,-1,1966,778,7.95911,-1.83264
749,246,7.43188,2.24677,0,0,0,0,0,0,0,-1,1973,778,7.43191,-2.24677
756,246,7.45581,2.14447,0,0,0,0,0,0,0,-1,1980,778,7.45578,-2.14449
763,246,0,0,0,0,0,0,0,0,0,-1,1987,778,0,0
770,246,0,0,0,0,0,0,0,0,0,-1,1994,778,0,0
777,246,0,0,0,0,0,0,0,0,0,-1,2001,778,0,0
784,246,0,0,0,0,0,0,0,0,0,-1,2008,778,0,0
791,246,0,0,0,0,0,0,0,0,0,-1,2015,778,0,0
798,246,0,0,0,0,0,0,0,0,0,-1,2022,778,0,0
805,246,0,0,0,0,0,0,0,0,0,-1,2029,778,0,0
812,246,0,0,0,0,0,0,0,0,0,-1,2036,778,0,0
-700,239,0,0,0,0,0,0,0,0,0,-1,524,785,0,0
-693,239,0,0,0,0,0,0,0,0,0,-1,531,785,0,0
-686,239,0,0,0,0,0,0,0,0,0,-1,538,785,0,0
-679,239,0,0,0,0,0,0,0,0,0,-1,545,785,0,0
-672,239,0,0,0,0,0,0,0,0,0,-1,552,785,0,0
-665,239,0,0,0,0,0,0,0,0,0,-1,559,785,0,0
-658,239,0,0,0,0,0,0,0,0,0,-1,566,785,0,0
-651,239,0,0,0,0,0,0,0,0,0,-1,573,785,0,0
-644,239,0,0,0,0,0,0,0,0,0,-1,580,785,0,0
-637,239,-4.30225,4.13306,0,0,0,0,0,0,0,-1,587,785,-4.30225,-4.13307
-630,239,-3.28064,1.2395,0,0,0,0,0,0,0,-1,594,785,-3.28066,-1.23948
-623,239,-2.88434,0.715454,0.0322373,-0.0250465,-0.0311031,0.0458773,-0.0386865,-0.413285,0.0488817,0.0459659,601,785,-2.88432,-0.715444
-616,239,-2.42578,0.236267,0.0239818,-0.0218767,-0.0223812,0.0330942,-0.0309891,-0.386651,0.0370052,0.0471451,608,785,-2.42577,-0.236266
-609,239,-1.92133,0.202698,0,0,0,0,0,0,0,-1,615,785,-1.92134,-0.202724
-602,239,-2.29358,0.517578,0.0111802,-0.0139301,-0.0103443,0.0148926,-0.0176426,-0.344575,0.0188066,0.0438558,622,785,-2.29356,-0.517601
-595,239,-2.68719,0.707825,0.00808755,-0.0112085,-0.00673548,0.010206,-0.013327,-0.304732,0.0136266,0.0379542,629,785,-2.68719,-0.707841
-588,239,-2.573,0.732605,0.0061126,-0.00796487,-0.00332347,0.00685778,-0.00871004,-0.220568,0.00900927,0.0177957,636,785,-2.57299,-0.732634
-581,239,-2.57526,0.653015,0.00459997,-0.00573667,-0.00111391,0.00471865,-0.00585535,-0.10614,0.00611664,0.0108765,643,785,-2.57527,-0.652999
-574,239,-2.59143,0.558411,0.00291797,-0.00434468,0.000753497,0.00299532,-0.00442203,0.102298,0.00430873,0.01078,650,785,-2.59142,-0.558389
-567,239,-2.61145,0.470886,0.00119093,-0.00225346,0.00144845,0.00171906,-0.00278159,0.349638,0.00262248,0.0116164,657,785,-2.61147,-0.47087
-560,239,-2.60437,0.382324,0.000186476,-0.00109806,0.00170769,0.00136868,-0.00228027,0.605528,0.00212852,0.0125529,664,785,-2.60436,-0.382296
-553,239,-2.59644,0.310425,0.000158321,-0.00105279,0.00241532,0.00204284,-0.00293731,0.662573,0.00289071,0.0139296,671,785,-2.59645,-0.310421
-546,239,-2.59387,0.23877,0.000442962,-0.00152669,0.00338201,0.00298062,-0.00406435,0.643719,0.00408342,0.0144089,678,785,-2.59387,-0.238795
-539,239,-2.58478,0.138855,0.000889347,-0.00181898,0.00481259,0.00453466,-0.00546429,0.648254,0.00578121,0.0148036,685,785,-2.5848,-0.13885
-532,239,-2.5686,0.0530396,0.00138306,-0.0029268,0.0067931,0.00635484,-0.00789857,0.631807,0.00824528,0.0116045,692,785,-2.56862,-0.0530669
-525,239,-2.58612,-0.00323486,0.00104366,-0.00356075,0.00869288,0.00773403,-0.0102511,0.655951,0.0104176,0.0136393,699,785,-2.58614,0.00325292
-518,239,-2.58026,-0.0685425,0.00135291,-0.00419311,0.0104162,0.00935889,-0.0121991,0.655305,0.0124825,0.0332314,706,785,-2.58027,0.068546
-511,239,-3.70526,-0.589905,0,0,0,0,0,0,0,-1,713,785,-3.70528,0.589876
-504,239,-3.40997,-0.607483,9.45652e-05,-0.0042573,0.0140175,0.012104,-0.0162668,0.708398,0.0164386,0.0415969,720,785,-3.40998,0.607456
-497,239,-3.16211,-0.70752,0,0,0,0,0,0,0,-1,727,785,-3.16208,0.707532
-490,239,-3.8056,-0.481018,0,0,0,0,0,0,0,-1,734,785,-3.80559,0.481009
-483,239,-3.90436,0.110046,0,0,0,0,0,0,0,-1,741,785,-3.90434,-0.110024
-476,239,-4.67999,0.694641,-0.00893624,0.000142041,0.0166673,0.0128772,-0.0216714,0.918343,0.0201609,0.0417984,748,785,-4.67998,-0.694615
-469,239,-4.61609,0.727722,-0.0130657,0.00317856,0.0144965,0.0116733,-0.0215603,1.04075,0.0194684,0.0421011,755,785,-4.61606,-0.727724
-462,239,-4.59662,0.781555,-0.0163829,0.00796226,0.00979606,0.0114145,-0.0198351,1.23198,0.018259,0.0449708,762,785,-4.5966,-0.781538
-455,239,0,0,0,0,0,0,0,0,0,-1,769,785,0,0
-448,239,0,0,0,0,0,0,0,0,0,-1,776,785,0,0
-441,239,0,0,0,0,0,0,0,0,0,-1,783,785,0,0
-434,239,0,0,0,0,0,0,0,0,0,-1,790,785,0,0
-427,239,0,0,0,0,0,0,0,0,0,-1,797,785,0,0
-420,239,0,0,0,0,0,0,0,0,0,-1,804,785,0,0
-413,239,0,0,0,0,0,0,0,0,0,-1,811,785,0,0
-406,239,0,0,0,0,0,0,0,0,0,-1,818,785,0,0
-399,239,0,0,0,0,0,0,0,0,0,-1,825,785,0,0
-392,239,0,0,0,0,0,0,0,0,0,-1,832,785,0,0
-385,239,0,0,0,0,0,0,0,0,0,-1,839,785,0,0
-378,239,0,0,0,0,0,0,0,0,0,-1,846,785,0,0
-371,239,0,0,0,0,0,0,0,0,0,-1,853,785,0,0
-364,239,0,0,0,0,0,0,0,0,0,-1,860,785,0,0
-357,239,0,0,0,0,0,0,0,0,0,-1,867,785,0,0
-350,239,0,0,0,0,0,0,0,0,0,-1,874,785,0,0
-343,239,0,0,0,0,0,0,0,0,0,-1,881,785,0,0
-336,239,0,0,0,0,0,0,0,0,0,-1,888,785,0,0
-329,239,0,0,0,0,0,0,0,0,0,-1,895,785,0,0
-322,239,0,0,0,0,0,0,0,0,0,-1,902,785,0,0
-315,239,0,0,0,0,0,0,0,0,0,-1,909,785,0,0
-308,239,0,0,0,0,0,0,0,0,0,-1,916,785,0,0
-301,239,0,0,0,0,0,0,0,0,0,-1,923,785,0,0
-294,239,0,0,0,0,0,0,0,0,0,-1,930,785,0,0
-287,239,0,0,0,0,0,0,0,0,0,-1,937,785,0,0
-280,239,0,0,0,0,0,0,0,0,0,-1,944,785,0,0
-273,239,0,0,0,0,0,0,0,0,0,-1,951,785,0,0
-266,239,0,0,0,0,0,0,0,0,0,-1,958,785,0,0
-259,239,0,0,0,0,0,0,0,0,0,-1,965,785,0,0
-252,239,0,0,0,0,0,0,0,0,0,-1,972,785,0,0
-245,239,0,0,0,0,0,0,0,0,0,-1,979,785,0,0
-238,239,0,0,0,0,0,0,0,0,0,-1,986,785,0,0
-231,239,0,0,0,0,0,0,0,0,0,-1,993,785,0,0
-224,239,0,0,0,0,0,0,0,0,0,-1,1000,785,0,0
-217,239,0,0,0,0,0,0,0,0,0,-1,1007,785,0,0
-210,239,0,0,0,0,0,0,0,0,0,-1,1014,785,0,0
-203,239,0,0,0,0,0,0,0,0,0,-1,1021,785,0,0
-196,239,0,0,0,0,0,0,0,0,0,-1,1028,785,0,0
-189,239,0,0,0,0,0,0,0,0,0,-1,1035,785,0,0
-182,239,0,0,0,0,0,0,0,0,0,-1,1042,785,0,0
-175,239,0,0,0,0,0,0,0,0,0,-1,1049,785,0,0
-168,239,0,0,0,0,0,0,0,0,0,-1,1056,785,0,0
-161,239,0,0,0,0,0,0,0,0,0,-1,1063,785,0,0
-154,239,0,0,0,0,0,0,0,0,0,-1,1070,785,0,0
-147,239,0,0,0,0,0,0,0,0,0,-1,1077,785,0,0
-140,239,0,0,0,0,0,0,0,0,0,-1,1084,785,0,0
-133,239,0,0,0,0,0,0,0,0,0,-1,1091,785,0,0
-126,239,0,0,0,0,0,0,0,0,0,-1,1098,785,0,0
-119,239,0,0,0,0,0,0,0,0,0,-1,1105,785,0,0
-112,239,0,0,0,0,0,0,0,0,0,-1,1112,785,0,0
-105,239,0,0,0,0,0,0,0,0,0,-1,1119,785,0,0
-98,239,0,0,0,0,0,0,0,0,0,-1,1126,785,0,0
-91,239,0,0,0,0,0,0,0,0,0,-1,1133,785,0,0
-84,239,0,0,0,0,0,0,0,0,0,-1,1140,785,0,0
-77,239,0,0,0,0,0,0,0,0,0,-1,1147,785,0,0
-70,239,0,0,0,0,0,0,0,0,0,-1,1154,785,0,0
-63,239,0,0,0,0,0,0,0,0,0,-1,1161,785,0,0
-56,239,0,0,0,0,0,0,0,0,0,-1,1168,785,0,0
-49,239,0,0,0,0,0,0,0,0,0,-1,1175,785,0,0
-42,239,0,0,0,0,0,0,0,0,0,-1,1182,785,0,0
-35,239,0,0,0,0,0,0,0,0,0,-1,1189,785,0,0
-28,239,0,0,0,0,0,0,0,0,0,-1,1196,785,0,0
-21,239,0,0,0,0,0,0,0,0,0,-1,1203,785,0,0
-14,239,0,0,0,0,0,0,0,0,0,-1,1210,785,0,0
-7,239,0,0,0,0,0,0,0,0,0,-1,1217,785,0,0
0,239,0,0,0,0,0,0,0,0,0,-1,1224,785,0,0
7,239,0,0,0,0,0,0,0,0,0,-1,1231,785,0,0
14,239,0,0,0,0,0,0,0,0,0,-1,1238,785,0,0
21,239,0,0,0,0,0,0,0,0,0,-1,1245,785,0,0
28,239,0,0,0,0,0,0,0,0,0,-1,1252,785,0,0
35,239,0,0,0,0,0,0,0,0,0,-1,1259,785,0,0
42,239,0,0,0,0,0,0,0,0,0,-1,1266,785,0,0
49,239,0,0,0,0,0,0,0,0,0,-1,1273,785,0,0
56,239,0,0,0,0,0,0,0,0,0,-1,1280,785,0,0
63,239,0,0,0,0,0,0,0,0,0,-1,1287,785,0,0
70,239,0,0,0,0,0,0,0,0,0,-1,1294,785,0,0
77,239,0,0,0,0,0,0,0,0,0,-1,1301,785,0,0
84,239,0,0,0,0,0,0,0,0,0,-1,1308,785,0,0
91,239,0,0,0,0,0,0,0,0,0,-1,1315,785,0,0
98,239,0,0,0,0,0,0,0,0,0,-1,1322,785,0,0
105,239,0,0,0,0,0,0,0,0,0,-1,1329,785,0,0
112,239,0,0,0,0,0,0,0,0,0,-1,1336,785,0,0
119,239,0,0,0,0,0,0,0,0,0,-1,1343,785,0,0
126,239,0,0,0,0,0,0,0,0,0,-1,1350,785,0,0
133,239,0,0,0,0,0,0,0,0,0,-1,1357,785,0,0
140,239,0,0,0,0,0,0,0,0,0,-1,1364,785,0,0
147,239,0,0,0,0,0,0,0,0,0,-1,1371,785,0,0
154,239,0,0,0,0,0,0,0,0,0,-1,1378,785,0,0
161,239,0,0,0,0,0,0,0,0,0,-1,1385,785,0,0
168,239,0,0,0,0,0,0,0,0,0,-1,1392,785,0,0
175,239,0,0,0,0,0,0,0,0,0,-1,1399,785,0,0
182,239,0,0,0,0,0,0,0,0,0,-1,1406,785,0,0
189,239,0,0,0,0,0,0,0,0,0,-1,1413,785,0,0
196,239,0,0,0,0,0,0,0,0,0,-1,1420,785,0,0
203,239,0,0,0,0,0,0,0,0,0,-1,1427,785,0,0
210,239,0,0,0,0,0,0,0,0,0,-1,1434,785,0,0
217,239,0,0,0,0,0,0,0,0,0,-1,1441,785,0,0
224,239,0,0,0,0,0,0,0,0,0,-1,1448,785,0,0
231,239,0,0,0,0,0,0,0,0,0,-1,1455,785,0,0
238,239,0,0,0,0,0,0,0,0,0,-1,1462,785,0,0
245,239,0,0,0,0,0,0,0,0,0,-1,1469,785,0,0
252,239,0,0,0,0,0,0,0,0,0,-1,1476,785,0,0
259,239,0,0,0,0,0,0,0,0,0,-1,1483,785,0,0
266,239,0,0,0,0,0,0,0,0,0,-1,1490,785,0,0
273,239,0,0,0,0,0,0,0,0,0,-1,1497,785,0,0
280,239,0,0,0,0,0,0,0,0,0,-1,1504,785,0,0
287,239,0,0,0,0,0,0,0,0,0,-1,1511,785,0,0
294,239,0,0,0,0,0,0,0,0,0,-1,1518,785,0,0
301,239,0,0,0,0,0,0,0,0,0,-1,1525,785,0,0
308,239,0,0,0,0,0,0,0,0,0,-1,1532,785,0,0
315,239,0,0,0,0,0,0,0,0,0,-1,1539,785,0,0
322,239,0,0,0,0,0,0,0,0,0,-1,1546,785,0,0
329,239,0,0,0,0,0,0,0,0,0,-1,1553,785,0,0
336,239,0,0,0,0,0,0,0,0,0,-1,1560,785,0,0
343,239,0,0,0,0,0,0,0,0,0,-1,1567,785,0,0
350,239,0,0,0,0,0,0,0,0,0,-1,1574,785,0,0
357,239,0,0,0,0,0,0,0,0,0,-1,1581,785,0,0
364,239,0,0,0,0,0,0,0,0,0,-1,1588,785,0,0
371,239,0,0,0,0,0,0,0,0,0,-1,1595,785,0,0
378,239,0,0,0,0,0,0,0,0,0,-1,1602,785,0,0
385,239,0,0,0,0,0,0,0,0,0,-1,1609,785,0,0
392,239,0,0,0,0,0,0,0,0,0,-1,1616,785,0,0
399,239,0,0,0,0,0,0,0,0,0,-1,1623,785,0,0
406,239,0,0,0,0,0,0,0,0,0,-1,1630,785,0,0
413,239,0,0,0,0,0,0,0,0,0,-1,1637,785,0,0
420,239,0,0,0,0,0,0,0,0,0,-1,1644,785,0,0
427,239,0,0,0,0,0,0,0,0,0,-1,1651,785,0,0
434,239,0,0,0,0,0,0,0,0,0,-1,1658,785,0,0
441,239,0,0,0,0,0,0,0,0,0,-1,1665,785,0,0
448,239,0,0,0,0,0,0,0,0,0,-1,1672,785,0,0
455,239,0,0,0,0,0,0,0,0,0,-1,1679,785,0,0
462,239,0,0,0,0,0,0,0,0,0,-1,1686,785,0,0
469,239,0,0,0,0,0,0,0,0,0,-1,1693,785,0,0
476,239,0,0,0,0,0,0,0,0,0,-1,1700,785,0,0
483,239,0,0,0,0,0,0,0,0,0,-1,1707,785,0,0
490,239,0,0,0,0,0,0,0,0,0,-1,1714,785,0,0
497,239,0,0,0,0,0,0,0,0,0,-1,1721,785,0,0
504,239,0,0,0,0,0,0,0,0,0,-1,1728,785,0,0
511,239,0,0,0,0,0,0,0,0,0,-1,1735,785,0,0
518,239,0,0,0,0,0,0,0,0,0,-1,1742,785,0,0
525,239,0,0,0,0,0,0,0,0,0,-1,1749,785,0,0
532,239,0,0,0,0,0,0,0,0,0,-1,1756,785,0,0
539,239,0,0,0,0,0,0,0,0,0,-1,1763,785,0,0
546,239,0,0,0,0,0,0,0,0,0,-1,1770,785,0,0
553,239,0,0,0,0,0,0,0,0,0,-1,1777,785,0,0
560,239,0,0,0,0,0,0,0,0,0,-1,1784,785,0,0
567,239,0,0,0,0,0,0,0,0,0,-1,1791,785,0,0
574,239,0,0,0,0,0,0,0,0,0,-1,1798,785,0,0
581,239,9.61768,1.50818,0.0371004,-0.00950601,0.0054423,0.0377275,-0.0101331,0.114715,0.029123,0.0367729,1805,785,9.61763,-1.5082
588,239,9.59424,1.4281,0.029524,-0.0144334,0.0078884,0.0308967,-0.0158061,0.172296,0.0274291,0.0398644,1812,785,9.5942,-1.42812
595,239,9.66968,1.26758,0.020987,-0.0171457,0.00780817,0.0225239,-0.0186826,0.194346,0.023825,0.0360892,1819,785,9.6697,-1.2676
602,239,9.62549,1.41925,0.0125281,-0.0180893,0.00665061,0.0139104,-0.0194715,0.204917,0.019362,0.0382514,1826,785,9.62548,-1.41928
609,239,9.64209,1.54028,0.00513146,-0.0177811,0.0049747,0.00616493,-0.0188145,0.204833,0.0150257,0.045082,1833,785,9.64207,-1.54029
616,239,9.77979,1.58362,-0.000565676,-0.0167862,0.00321365,4.78178e-05,-0.0173997,0.188633,0.0116157,0.0498478,1840,785,9.77975,-1.58364
623,239,9.08936,0.637024,-0.00481696,-0.0151586,0.00153731,-0.00459327,-0.0153823,0.144491,0.00911795,0.0467542,1847,785,9.08934,-0.637054
630,239,8.25842,0.588745,-0.00762921,-0.0132252,8.03521e-05,-0.00762805,-0.0132264,0.0143548,0.00766618,0.044536,1854,785,8.25839,-0.588715
637,239,8.36499,0.747131,-0.00940428,-0.0112928,-0.00101051,-0.00896551,-0.0117315,-0.409643,0.00708144,0.0452093,1861,785,8.36504,-0.747115
644,239,8.19678,0.757751,-0.0107104,-0.00964196,-0.00178578,-0.00831222,-0.0120402,-0.930742,0.00711737,0.0460858,1868,785,8.19674,-0.757777
651,239,7.72729,0.66687,-0.0110602,-0.00808416,-0.00251878,-0.0066467,-0.0124977,-1.0522,0.0072204,0.0350897,1875,785,7.72727,-0.666874
658,239,7.52747,0.731445,-0.0100061,-0.00637412,-0.00300173,-0.0046818,-0.0116984,-1.05743,0.00679876,0.0168891,1882,785,7.52745,-0.731471
665,239,7.52563,0.809998,-0.00858224,-0.00447844,-0.00325695,-0.00268092,-0.0103798,-1.06649,0.00622181,0.0128906,1889,785,7.52569,-0.810026
672,239,7.53589,0.882202,-0.00682678,-0.00365884,-0.00287978,-0.00195615,-0.00852946,-1.03683,0.00515938,0.0180877,1896,785,7.53586,-0.882183
679,239,7.57019,0.937561,-0.00425816,-0.00282387,-0.00254082,-0.000900931,-0.0061811,-0.922945,0.00385567,0.0195613,1903,785,7.57013,-0.93758
686,239,7.56885,1.03168,-0.00220261,-0.00278937,-0.00197029,-0.00050398,-0.004488,-0.711491,0.00283896,0.0217217,1910,785,7.56887,-1.03167
693,239,7.55115,1.14587,-0.00064093,-0.00246568,-0.00166418,0.000344571,-0.00345118,-0.534652,0.00242382,0.0152844,1917,785,7.55119,-1.14586
700,239,7.54016,1.23303,0.00123103,-0.00293296,-0.00158718,0.00176702,-0.00346895,-0.325675,0.00307576,0.0116786,1924,785,7.54022,-1.23302
707,239,7.52649,1.31238,0.00302061,-0.0037212,-0.00140047,0.00329996,-0.00400055,-0.19688,0.00422141,0.0102843,1931,785,7.52653,-1.31236
714,239,7.52405,1.3949,0.00486918,-0.00476113,-0.00119654,0.00501562,-0.00490757,-0.121781,0.00572927,0.00969371,1938,785,7.52408,-1.3949
721,239,7.52234,1.46423,0.00702545,-0.00569931,-0.000830562,0.00707944,-0.0057533,-0.0649043,0.00742216,0.0169168,1945,785,7.52239,-1.46425
728,239,7.47937,1.49969,0.00973975,-0.00625791,-0.000206925,0.00974243,-0.00626058,-0.0129318,0.00931196,0.0335219,1952,785,7.47936,-1.49971
735,239,7.50439,1.76062,0.0131396,-0.0064622,0.000939203,0.0131845,-0.00650709,0.0477682,0.0115848,0.044555,1959,785,7.50442,-1.7606
742,239,7.44141,2.01208,0,0,0,0,0,0,0,-1,1966,785,7.44135,-2.01207
749,239,7.43787,2.28894,0,0,0,0,0,0,0,-1,1973,785,7.43781,-2.28893
756,239,7.18127,2.26843,0,0,0,0,0,0,0,-1,1980,785,7.18125,-2.26843
763,239,0,0,0,0,0,0,0,0,0,-1,1987,785,0,0
770,239,0,0,0,0,0,0,0,0,0,-1,1994,785,0,0
777,239,0,0,0,0,0,0,0,0,0,-1,2001,785,0,0
784,239,0,0,0,0,0,0,0,0,0,-1,2008,785,0,0
791,239,0,0,0,0,0,0,0,0,0,-1,2015,785,0,0
798,239,0,0,0,0,0,0,0,0,0,-1,2022,785,0,0
805,239,0,0,0,0,0,0,0,0,0,-1,2029,785,0,0
812,239,0,0,0,0,0,0,0,0,0,-1,2036,785,0,0
-700,232,0,0,0,0,0,0,0,0,0,-1,524,792,0,0
-693,232,0,0,0,0,0,0,0,0,0,-1,531,792,0,0
-686,232,0,0,0,0,0,0,0,0,0,-1,538,792,0,0
-679,232,0,0,0,0,0,0,0,0,0,-1,545,792,0,0
-672,232,0,0,0,0,0,0,0,0,0,-1,552,792,0,0
-665,232,0,0,0,0,0,0,0,0,0,-1,559,792,0,0
-658,232,0,0,0,0,0,0,0,0,0,-1,566,792,0,0
-651,232,0,0,0,0,0,0,0,0,0,-1,573,792,0,0
-644,232,-3.79382,5.21356,0.0800387,-0.011931,-0.056315,0.106759,-0.0386509,-0.443018,0.0869677,0.0473266,580,792,-3.79382,-5.21357
-637,232,-3.86829,3.90906,0,0,0,0,0,0,0,-1,587,792,-3.86826,-3.90904
-630,232,-4.03241,2.66266,0.0385581,-0.0177571,-0.0373277,0.0571574,-0.0363564,-0.462264,0.0544336,0.0440499,594,792,-4.03242,-2.66269
-623,232,-3.10046,1.5639,0.0276556,-0.0174403,-0.0284758,0.0414296,-0.0312143,-0.450528,0.0420789,0.0445646,601,792,-3.10047,-1.56388
-616,232,-2.78821,1.08301,0.0200706,-0.0159181,-0.0208612,0.0296259,-0.0254734,-0.429524,0.0318417,0.046016,608,792,-2.7882,-1.08298
-609,232,-2.47589,0.785767,0.0146083,-0.0136792,-0.0146218,0.0208076,-0.0198785,-0.401008,0.0234922,0.0461779,615,792,-2.4759,-0.785774
-602,232,-2.41553,0.571228,0.00846818,-0.0106661,-0.00998759,0.0127315,-0.0149294,-0.403448,0.0159868,0.044753,622,792,-2.41552,-0.571253
-595,232,-2.71405,0.734009,0.00610437,-0.00906773,-0.00676182,0.00868052,-0.0116439,-0.364007,0.0117758,0.0330237,629,792,-2.71403,-0.734016
-588,232,-2.67834,0.715515,0.00483284,-0.00649923,-0.00342239,0.00578622,-0.00745261,-0.271684,0.0076636,0.0119455,636,792,-2.67835,-0.715532
-581,232,-2.65375,0.64032,0.00381218,-0.00500576,-0.001153,0.00396045,-0.00515403,-0.127892,0.00527726,0.00827539,643,792,-2.65372,-0.640336
-574,232,-2.66058,0.560059,0.00249132,-0.00413532,0.000862442,0.00260173,-0.00424573,0.127322,0.00399118,0.00764916,650,792,-2.66058,-0.560055
-567,232,-2.69495,0.479675,0.00099093,-0.00233649,0.00164302,0.00166548,-0.00301104,0.389571,0.00273699,0.00861446,657,792,-2.69492,-0.479701
-560,232,-2.69971,0.392212,0.000141799,-0.00137647,0.00199808,0.00152009,-0.00275476,0.603854,0.00250217,0.0111064,664,792,-2.69973,-0.392209
-553,232,-2.69684,0.31427,0.000197128,-0.00139743,0.00281339,0.00232403,-0.00352433,0.647325,0.00340017,0.0120928,671,792,-2.69684,-0.314287
-546,232,-2.67657,0.240417,0.000498512,-0.00186043,0.00384917,0.00334486,-0.00470678,0.636729,0.00467073,0.0194541,678,792,-2.67657,-0.240412
-539,232,-2.64972,0.143372,0.000947253,-0.00210655,0.00526958,0.00490668,-0.00606598,0.644381,0.00634685,0.0228817,685,792,-2.64972,-0.143344
-532,232,-2.65344,0.0670166,0.00147046,-0.00308695,0.00710862,0.00665668,-0.00827316,0.630295,0.00863657,0.0135059,692,792,-2.65345,-0.0670074
-525,232,-2.66882,0.0266724,0.00134954,-0.00373275,0.00877815,0.00794696,-0.0103302,0.644507,0.0105822,0.0210336,699,792,-2.66881,-0.0266679
-518,232,-4.74561,-0.52771,0,0,0,0,0,0,0,-1,706,792,-4.74563,0.527685
-511,232,-4.17072,-0.63739,0.00161639,-0.00426665,0.0118522,0.0108866,-0.0135369,0.663764,0.0141286,0.0438456,713,792,-4.17069,0.637364
-504,232,-3.60681,-0.728149,0.00117407,-0.00448443,0.0131934,0.0118382,-0.0151485,0.679776,0.0156198,0.0434647,720,792,-3.60684,0.728169
-497,232,-3.245,-0.959717,0,0,0,0,0,0,0,-1,727,792,-3.24497,0.959737
-490,232,-4.4314,-0.348877,0,0,0,0,0,0,0,-1,734,792,-4.43142,0.348888
-483,232,-4.53754,0.793213,-0.00281202,-0.00321717,0.0147839,0.0117707,-0.0177999,0.778547,0.0171905,0.0442207,741,792,-4.53754,-0.793188
-476,232,-4.56519,0.676636,-0.00565401,-0.0018702,0.0135652,0.00993441,-0.0174586,0.854685,0.016013,0.0385733,748,792,-4.5652,-0.676649
-469,232,-4.53461,0.76001,-0.00904558,-0.000135124,0.0105955,0.0069037,-0.0160844,0.984418,0.0136204,0.0350524,755,792,-4.53462,-0.760007
-462,232,0,0,0,0,0,0,0,0,0,-1,762,792,0,0
-455,232,0,0,0,0,0,0,0,0,0,-1,769,792,0,0
-448,232,0,0,0,0,0,0,0,0,0,-1,776,792,0,0
-441,232,0,0,0,0,0,0,0,0,0,-1,783,792,0,0
-434,232,0,0,0,0,0,0,0,0,0,-1,790,792,0,0
-427,232,0,0,0,0,0,0,0,0,0,-1,797,792,0,0
-420,232,0,0,0,0,0,0,0,0,0,-1,804,792,0,0
-413,232,0,0,0,0,0,0,0,0,0,-1,811,792,0,0
-406,232,0,0,0,0,0,0,0,0,0,-1,818,792,0,0
-399,232,0,0,0,0,0,0,0,0,0,-1,825,792,0,0
-392,232,0,0,0,0,0,0,0,0,0,-1,832,792,0,0
-385,232,0,0,0,0,0,0,0,0,0,-1,839,792,0,0
-378,232,0,0,0,0,0,0,0,0,0,-1,846,792,0,0
-371,232,0,0,0,0,0,0,0,0,0,-1,853,792,0,0
-364,232,0,0,0,0,0,0,0,0,0,-1,860,792,0,0
-357,232,0,0,0,0,0,0,0,0,0,-1,867,792,0,0
-350,232,0,0,0,0,0,0,0,0,0,-1,874,792,0,0
-343,232,0,0,0,0,0,0,0,0,0,-1,881,792,0,0
-336,232,0,0,0,0,0,0,0,0,0,-1,888,792,0,0
-329,232,0,0,0,0,0,0,0,0,0,-1,895,792,0,0
-322,232,0,0,0,0,0,0,0,0,0,-1,902,792,0,0
-315,232,0,0,0,0,0,0,0,0,0,-1,909,792,0,0
-308,232,0,0,0,0,0,0,0,0,0,-1,916,792,0,0
-301,232,0,0,0,0,0,0,0,0,0,-1,923,792,0,0
-294,232,0,0,0,0,0,0,0,0,0,-1,930,792,0,0
-287,232,0,0,0,0,0,0,0,0,0,-1,937,792,0,0
-280,232,0,0,0,0,0,0,0,0,0,-1,944,792,0,0
-273,232,0,0,0,0,0,0,0,0,0,-1,951,792,0,0
-266,232,0,0,0,0,0,0,0,0,0,-1,958,792,0,0
-259,232,0,0,0,0,0,0,0,0,0,-1,965,792,0,0
-252,232,0,0,0,0,0,0,0,0,0,-1,972,792,0,0
-245,232,0,0,0,0,0,0,0,0,0,-1,979,792,0,0
-238,232,0,0,0,0,0,0,0,0,0,-1,986,792,0,0
-231,232,0,0,0,0,0,0,0,0,0,-1,993,792,0,0
-224,232,0,0,0,0,0,0,0,0,0,-1,1000,792,0,0
-217,232,0,0,0,0,0,0,0,0,0,-1,1007,792,0,0
-210,232,0,0,0,0,0,0,0,0,0,-1,1014,792,0,0
-203,232,0,0,0,0,0,0,0,0,0,-1,1021,792,0,0
-196,232,0,0,0,0,0,0,0,0,0,-1,1028,792,0,0
-189,232,0,0,0,0,0,0,0,0,0,-1,1035,792,0,0
-182,232,0,0,0,0,0,0,0,0,0,-1,1042,792,0,0
-175,232,0,0,0,0,0,0,0,0,0,-1,1049,792,0,0
-168,232,0,0,0,0,0,0,0,0,0,-1,1056,792,0,0
-161,232,0,0,0,0,0,0,0,0,0,-1,1063,792,0,0
-154,232,0,0,0,0,0,0,0,0,0,-1,1070,792,0,0
-147,232,0,0,0,0,0,0,0,0,0,-1,1077,792,0,0
-140,232,0,0,0,0,0,0,0,0,0,-1,1084,792,0,0
-133,232,0,0,0,0,0,0,0,0,0,-1,1091,792,0,0
-126,232,0,0,0,0,0,0,0,0,0,-1,1098,792,0,0
-119,232,0,0,0,0,0,0,0,0,0,-1,1105,792,0,0
-112,232,0,0,0,0,0,0,0,0,0,-1,1112,792,0,0
-105,232,0,0,0,0,0,0,0,0,0,-1,1119,792,0,0
-98,232,0,0,0,0,0,0,0,0,0,-1,1126,792,0,0
-91,232,0,0,0,0,0,0,0,0,0,-1,1133,792,0,0
-84,232,0,0,0,0,0,0,0,0,0,-1,1140,792,0,0
-77,232,0,0,0,0,0,0,0,0,0,-1,1147,792,0,0
-70,232,0,0,0,0,0,0,0,0,0,-1,1154,792,0,0
-63,232,0,0,0,0,0,0,0,0,0,-1,1161,792,0,0
-56,232,0,0,0,0,0,0,0,0,0,-1,1168,792,0,0
-49,232,0,0,0,0,0,0,0,0,0,-1,1175,792,0,0
-42,232,0,0,0,0,0,0,0,0,0,-1,1182,792,0,0
-35,232,0,0,0,0,0,0,0,0,0,-1,1189,792,0,0
-28,232,0,0,0,0,0,0,0,0,0,-1,1196,792,0,0
-21,232,0,0,0,0,0,0,0,0,0,-1,1203,792,0,0
-14,232,0,0,0,0,0,0,0,0,0,-1,1210,792,0,0
-7,232,0,0,0,0,0,0,0,0,0,-1,1217,792,0,0
0,232,0,0,0,0,0,0,0,0,0,-1,1224,792,0,0
7,232,0,0,0,0,0,0,0,0,0,-1,1231,792,0,0
14,232,0,0,0,0,0,0,0,0,0,-1,1238,792,0,0
21,232,0,0,0,0,0,0,0,0,0,-1,1245,792,0,0
28,232,0,0,0,0,0,0,0,0,0,-1,1252,792,0,0
35,232,0,0,0,0,0,0,0,0,0,-1,1259,792,0,0
42,232,0,0,0,0,0,0,0,0,0,-1,1266,792,0,0
49,232,0,0,0,0,0,0,0,0,0,-1,1273,792,0,0
56,232,0,0,0,0,0,0,0,0,0,-1,1280,792,0,0
63,232,0,0,0,0,0,0,0,0,0,-1,1287,792,0,0
70,232,0,0,0,0,0,0,0,0,0,-1,1294,792,0,0
77,232,0,0,0,0,0,0,0,0,0,-1,1301,792,0,0
84,232,0,0,0,0,0,0,0,0,0,-1,1308,792,0,0
91,232,0,0,0,0,0,0,0,0,0,-1,1315,792,0,0
98,232,0,0,0,0,0,0,0,0,0,-1,1322,792,0,0
105,232,0,0,0,0,0,0,0,0,0,-1,1329,792,0,0
112,232,0,0,0,0,0,0,0,0,0,-1,1336,792,0,0
119,232,0,0,0,0,0,0,0,0,0,-1,1343,792,0,0
126,232,0,0,0,0,0,0,0,0,0,-1,1350,792,0,0
133,232,0,0,0,0,0,0,0,0,0,-1,1357,792,0,0
140,232,0,0,0,0,0,0,0,0,0,-1,1364,792,0,0
147,232,0,0,0,0,0,0,0,0,0,-1,1371,792,0,0
154,232,0,0,0,0,0,0,0,0,0,-1,1378,792,0,0
161,232,0,0,0,0,0,0,0,0,0,-1,1385,792,0,0
168,232,0,0,0,0,0,0,0,0,0,-1,1392,792,0,0
175,232,0,0,0,0,0,0,0,0,0,-1,1399,792,0,0
182,232,0,0,0,0,0,0,0,0,0,-1,1406,792,0,0
189,232,0,0,0,0,0,0,0,0,0,-1,1413,792,0,0
196,232,0,0,0,0,0,0,0,0,0,-1,1420,792,0,0
203,232,0,0,0,0,0,0,0,0,0,-1,1427,792,0,0
210,232,0,0,0,0,0,0,0,0,0,-1,1434,792,0,0
217,232,0,0,0,0,0,0,0,0,0,-1,1441,792,0,0
224,232,0,0,0,0,0,0,0,0,0,-1,1448,792,0,0
231,232,0,0,0,0,0,0,0,0,0,-1,1455,792,0,0
238,232,0,0,0,0,0,0,0,0,0,-1,1462,792,0,0
245,232,0,0,0,0,0,0,0,0,0,-1,1469,792,0,0
252,232,0,0,0,0,0,0,0,0,0,-1,1476,792,0,0
259,232,0,0,0,0,0,0,0,0,0,-1,1483,792,0,0
266,232,0,0,0,0,0,0,0,0,0,-1,1490,792,0,0
273,232,0,0,0,0,0,0,0,0,0,-1,1497,792,0,0
280,232,0,0,0,0,0,0,0,0,0,-1,1504,792,0,0
287,232,0,0,0,0,0,0,0,0,0,-1,1511,792,0,0
294,232,0,0,0,0,0,0,0,0,0,-1,1518,792,0,0
301,232,0,0,0,0,0,0,0,0,0,-1,1525,792,0,0
308,232,0,0,0,0,0,0,0,0,0,-1,1532,792,0,0
315,232,0,0,0,0,0,0,0,0,0,-1,1539,792,0,0
322,232,0,0,0,0,0,0,0,0,0,-1,1546,792,0,0
329,232,0,0,0,0,0,0,0,0,0,-1,1553,792,0,0
336,232,0,0,0,0,0,0,0,0,0,-1,1560,792,0,0
343,232,0,0,0,0,0,0,0,0,0,-1,1567,792,0,0
350,232,0,0,0,0,0,0,0,0,0,-1,1574,792,0,0
357,232,0,0,0,0,0,0,0,0,0,-1,1581,792,0,0
364,232,0,0,0,0,0,0,0,0,0,-1,1588,792,0,0
371,232,0,0,0,0,0,0,0,0,0,-1,1595,792,0,0
378,232,0,0,0,0,0,0,0,0,0,-1,1602,792,0,0
385,232,0,0,0,0,0,0,0,0,0,-1,1609,792,0,0
392,232,0,0,0,0,0,0,0,0,0,-1,1616,792,0,0
399,232,0,0,0,0,0,0,0,0,0,-1,1623,792,0,0
406,232,0,0,0,0,0,0,0,0,0,-1,1630,792,0,0
413,232,0,0,0,0,0,0,0,0,0,-1,1637,792,0,0
420,232,0,0,0,0,0,0,0,0,0,-1,1644,792,0,0
427,232,0,0,0,0,0,0,0,0,0,-1,1651,792,0,0
434,232,0,0,0,0,0,0,0,0,0,-1,1658,792,0,0
441,232,0,0,0,0,0,0,0,0,0,-1,1665,792,0,0
448,232,0,0,0,0,0,0,0,0,0,-1,1672,792,0,0
455,232,0,0,0,0,0,0,0,0,0,-1,1679,792,0,0
462,232,0,0,0,0,0,0,0,0,0,-1,1686,792,0,0
469,232,0,0,0,0,0,0,0,0,0,-1,1693,792,0,0
476,232,0,0,0,0,0,0,0,0,0,-1,1700,792,0,0
483,232,0,0,0,0,0,0,0,0,0,-1,1707,792,0,0
490,232,0,0,0,0,0,0,0,0,0,-1,1714,792,0,0
497,232,0,0,0,0,0,0,0,0,0,-1,1721,792,0,0
504,232,0,0,0,0,0,0,0,0,0,-1,1728,792,0,0
511,232,0,0,0,0,0,0,0,0,0,-1,1735,792,0,0
518,232,0,0,0,0,0,0,0,0,0,-1,1742,792,0,0
525,232,0,0,0,0,0,0,0,0,0,-1,1749,792,0,0
532,232,0,0,0,0,0,0,0,0,0,-1,1756,792,0,0
539,232,0,0,0,0,0,0,0,0,0,-1,1763,792,0,0
546,232,0,0,0,0,0,0,0,0,0,-1,1770,792,0,0
553,232,0,0,0,0,0,0,0,0,0,-1,1777,792,0,0
560,232,0,0,0,0,0,0,0,0,0,-1,1784,792,0,0
567,232,0,0,0,0,0,0,0,0,0,-1,1791,792,0,0
574,232,0,0,0,0,0,0,0,0,0,-1,1798,792,0,0
581,232,0,0,0,0,0,0,0,0,0,-1,1805,792,0,0
588,232,9.52844,1.47125,0.0267106,-0.0107397,0.00745066,0.0281385,-0.0121675,0.189346,0.0238719,0.0388142,1812,792,9.52848,-1.47124
595,232,9.54004,1.28302,0.0190539,-0.0138125,0.0076963,0.0207668,-0.0155255,0.218999,0.0210261,0.0366545,1819,792,9.54006,-1.28303
602,232,9.55872,1.34296,0.0114087,-0.0152135,0.00671075,0.0130046,-0.0168095,0.23348,0.0172598,0.0342827,1826,792,9.55869,-1.34296
609,232,9.68628,1.36542,0.00457249,-0.0152656,0.00501105,0.00576642,-0.0164595,0.233898,0.013318,0.0377514,1833,792,9.68631,-1.36542
616,232,9.85425,1.36536,-0.000754304,-0.0146222,0.00315084,-7.19889e-05,-0.0153045,0.213257,0.0101791,0.0419514,1840,792,9.85428,-1.36534
623,232,9.32336,0.92041,0,0,0,0,0,0,0,-1,1847,792,9.3234,-0.920392
630,232,8.67444,1.21564,-0.00728409,-0.0118045,-9.49439e-05,-0.0072821,-0.0118065,-0.0209909,0.0068782,0.0475026,1854,792,8.67439,-1.21562
637,232,8.57788,1.1272,-0.00892111,-0.0101905,-0.00119561,-0.00820217,-0.0109094,-0.541387,0.00655948,0.0474425,1861,792,8.5779,-1.12718
644,232,8.31189,0.879639,-0.0101359,-0.00880355,-0.00196632,-0.00739361,-0.0115458,-0.948723,0.00675297,0.044529,1868,792,8.31194,-0.879612
651,232,7.92773,0.768005,-0.010549,-0.00745542,-0.00267772,-0.00590985,-0.0120946,-1.04731,0.00698342,0.0381137,1875,792,7.92771,-0.767977
658,232,7.64014,0.731201,-0.00979702,-0.00598236,-0.00320765,-0.00415781,-0.0116216,-1.05362,0.00679961,0.0211366,1882,792,7.64008,-0.731193
665,232,7.62244,0.787964,-0.00874041,-0.00437361,-0.00350031,-0.00243156,-0.0106825,-1.06426,0.00646538,0.0111716,1889,792,7.62249,-0.787954
672,232,7.61865,0.857971,-0.00735092,-0.0036462,-0.00314543,-0.00184822,-0.00914889,-1.05151,0.00558605,0.0164568,1896,792,7.61861,-0.858
679,232,7.64136,0.947144,-0.00510309,-0.0027507,-0.00270525,-0.000977012,-0.00687678,-0.990462,0.00429604,0.017564,1903,792,7.64133,-0.947138
686,232,7.64111,1.05688,-0.00321681,-0.00246007,-0.00199294,-0.000809899,-0.00486698,-0.87921,0.00301121,0.0175965,1910,792,7.64107,-1.05689
693,232,7.63293,1.15326,-0.00173015,-0.00189091,-0.00148169,-0.000326666,-0.0032944,-0.758302,0.00209588,0.0104509,1917,792,7.63289,-1.15325
700,232,7.64612,1.22827,-4.9463e-06,-0.00199495,-0.00110981,0.000490594,-0.00249049,-0.419945,0.00184572,0.0121083,1924,792,7.64607,-1.22826
707,232,7.6438,1.31647,0.00146235,-0.00223646,-0.000548737,0.00154204,-0.00231615,-0.144218,0.00224242,0.0118739,1931,792,7.6438,-1.31647
714,232,7.63123,1.4071,0.00286283,-0.00250697,1.76937e-05,0.00286289,-0.00250703,0.00329499,0.0031026,0.0123584,1938,792,7.63118,-1.40711
721,232,7.6228,1.45581,0.00461607,-0.00216732,0.000824141,0.00471476,-0.00226601,0.119184,0.00411218,0.0156931,1945,792,7.62286,-1.45584
728,232,7.53369,1.50397,0.00701729,-0.000627057,0.00197702,0.00749833,-0.00110809,0.238676,0.00540624,0.0288665,1952,792,7.53373,-1.50395
735,232,7.52234,1.81262,0.00996261,0.00175927,0.00365812,0.0113569,0.00036498,0.36415,0.00745258,0.0416498,1959,792,7.52233,-1.81264
742,232,7.67017,2.29224,0.0144096,0.00648492,0.00612823,0.0177449,0.00314962,0.498418,0.0109323,0.0456733,1966,792,7.67013,-2.29222
749,232,7.66089,2.54767,0,0,0,0,0,0,0,-1,1973,792,7.66087,-2.54769
756,232,7.5946,2.75189,0,0,0,0,0,0,0,-1,1980,792,7.59456,-2.7519
763,232,7.58386,2.96002,0,0,0,0,0,0,0,-1,1987,792,7.58382,-2.96005
770,232,0,0,0,0,0,0,0,0,0,-1,1994,792,0,0
777,232,0,0,0,0,0,0,0,0,0,-1,2001,792,0,0
784,232,0,0,0,0,0,0,0,0,0,-1,2008,792,0,0
791,232,0,0,0,0,0,0,0,0,0,-1,2015,792,0,0
798,232,0,0,0,0,0,0,0,0,0,-1,2022,792,0,0
805,232,0,0,0,0,0,0,0,0,0,-1,2029,792,0,0
812,232,0,0,0,0,0,0,0,0,0,-1,2036,792,0,0
-700,225,0,0,0,0,0,0,0,0,0,-1,524,799,0,0
-693,225,0,0,0,0,0,0,0,0,0,-1,531,799,0,0
-686,225,0,0,0,0,0,0,0,0,0,-1,538,799,0,0
-679,225,0,0,0,0,0,0,0,0,0,-1,545,799,0,0
-672,225,0,0,0,0,0,0,0,0,0,-1,552,799,0,0
-665,225,0,0,0,0,0,0,0,0,0,-1,559,799,0,0
-658,225,0,0,0,0,0,0,0,0,0,-1,566,799,0,0
-651,225,0,0,0,0,0,0,0,0,0,-1,573,799,0,0
-644,225,-3.44208,4.81903,0,0,0,0,0,0,0,-1,580,799,-3.44206,-4.81902
-637,225,-3.2088,3.39203,0,0,0,0,0,0,0,-1,587,799,-3.20879,-3.39204
-630,225,-3.47339,2.62012,0.034392,-0.0117589,-0.0323031,0.051015,-0.0283819,-0.475255,0.0464565,0.0468913,594,799,-3.47336,-2.62012
-623,225,-3.58258,1.98315,0.0238035,-0.0118659,-0.025346,0.0369607,-0.0250231,-0.478813,0.0360069,0.0482649,601,799,-3.58256,-1.98316
-616,225,-3.3703,1.71582,0.01673,-0.011169,-0.0189957,0.0263479,-0.020787,-0.468694,0.0272764,0.0483652,608,799,-3.37032,-1.71585
-609,225,-3.04205,1.46002,0.0119056,-0.00982863,-0.0135778,0.0184296,-0.0163526,-0.447917,0.0200935,0.0496337,615,799,-3.04203,-1.46002
-602,225,-2.81665,0.923767,0.00602181,-0.0075888,-0.00949342,0.0108971,-0.0124641,-0.474427,0.0134977,0.0487056,622,799,-2.81666,-0.923743
-595,225,-2.78973,0.747131,0.00427306,-0.00695287,-0.0066994,0.00740008,-0.0100799,-0.436705,0.0101315,0.0279092,629,799,-2.78971,-0.747152
-588,225,-2.76111,0.714294,0.00361935,-0.00498323,-0.00342694,0.00481761,-0.00618149,-0.33637,0.00636658,0.0127911,636,799,-2.76112,-0.714307
-581,225,-2.74268,0.644409,0.00298151,-0.00412778,-0.00108068,0.00314216,-0.00428842,-0.14757,0.00430703,0.0108143,643,799,-2.74265,-0.644402
-574,225,-2.72974,0.55542,0.0019713,-0.00379971,0.00104894,0.00215604,-0.00398445,0.174335,0.00359722,0.00791886,650,799,-2.72975,-0.555401
-567,225,-2.742,0.466919,0.000639932,-0.00234406,0.00194418,0.00159863,-0.00330276,0.458121,0.00288627,0.00946907,657,799,-2.74201,-0.466898
-560,225,-2.76093,0.38855,-0.000119665,-0.0016597,0.00244182,0.00167067,-0.00345004,0.63266,0.00301535,0.0100763,664,799,-2.7609,-0.388553
-553,225,-2.76459,0.304993,-6.73099e-05,-0.00179217,0.00336407,0.00254312,-0.0044026,0.659918,0.00405773,0.0104619,671,799,-2.76458,-0.305019
-546,225,-2.75366,0.239075,0.000166638,-0.00222543,0.00445982,0.00358802,-0.00564681,0.654391,0.00537571,0.0181987,678,799,-2.75369,-0.239054
-539,225,-2.73871,0.162903,0.00055559,-0.00238643,0.0058371,0.00510418,-0.00693502,0.661963,0.00697758,0.0201869,685,799,-2.73873,-0.162894
-532,225,-2.76471,0.0919189,0.00108515,-0.00317376,0.00750464,0.0067566,-0.00884522,0.647156,0.00903458,0.0133739,692,799,-2.76474,-0.091892
-525,225,-2.78339,0.13208,0.0011525,-0.00375499,0.00895793,0.00798667,-0.0105892,0.651718,0.0107598,0.0318652,699,799,-2.78336,-0.132081
-518,225,-4.91876,0.224426,0,0,0,0,0,0,0,-1,706,799,-4.91877,-0.224398
-511,225,-4.71338,-0.160767,0.0020694,-0.00433234,0.0114814,0.0107877,-0.0130507,0.649456,0.0137838,0.0435536,713,799,-4.71338,0.160782
-504,225,-4.36548,-0.363159,0.00227473,-0.00458553,0.0125321,0.0118376,-0.0141484,0.651816,0.0150228,0.0466122,720,799,-4.36547,0.363179
-497,225,-4.18085,0.0395508,0,0,0,0,0,0,0,-1,727,799,-4.18084,-0.039569
-490,225,-4.0321,0.353821,0,0,0,0,0,0,0,-1,734,799,-4.03211,-0.353797
-483,225,-4.54102,0.726807,0.000897344,-0.00494406,0.0127444,0.0110514,-0.0150981,0.672755,0.0151576,0.0335709,741,799,-4.54099,-0.726816
-476,225,-4.52533,0.699402,-0.000648845,-0.00498079,0.0110032,0.00839958,-0.0140292,0.688216,0.0130845,0.033306,748,799,-4.52531,-0.699398
-469,225,-4.54816,0.757996,-0.00262281,-0.00554348,0.00737378,0.00343385,-0.0116001,0.687641,0.00909671,0.0355371,755,799,-4.54816,-0.758012
-462,225,0,0,0,0,0,0,0,0,0,-1,762,799,0,0
-455,225,0,0,0,0,0,0,0,0,0,-1,769,799,0,0
-448,225,0,0,0,0,0,0,0,0,0,-1,776,799,0,0
-441,225,0,0,0,0,0,0,0,0,0,-1,783,799,0,0
-434,225,0,0,0,0,0,0,0,0,0,-1,790,799,0,0
-427,225,0,0,0,0,0,0,0,0,0,-1,797,799,0,0
-420,225,0,0,0,0,0,0,0,0,0,-1,804,799,0,0
-413,225,0,0,0,0,0,0,0,0,0,-1,811,799,0,0
-406,225,0,0,0,0,0,0,0,0,0,-1,818,799,0,0
-399,225,0,0,0,0,0,0,0,0,0,-1,825,799,0,0
-392,225,0,0,0,0,0,0,0,0,0,-1,832,799,0,0
-385,225,0,0,0,0,0,0,0,0,0,-1,839,799,0,0
-378,225,0,0,0,0,0,0,0,0,0,-1,846,799,0,0
-371,225,0,0,0,0,0,0,0,0,0,-1,853,799,0,0
-364,225,0,0,0,0,0,0,0,0,0,-1,860,799,0,0
-357,225,0,0,0,0,0,0,0,0,0,-1,867,799,0,0
-350,225,0,0,0,0,0,0,0,0,0,-1,874,799,0,0
-343,225,0,0,0,0,0,0,0,0,0,-1,881,799,0,0
-336,225,0,0,0,0,0,0,0,0,0,-1,888,799,0,0
-329,225,0,0,0,0,0,0,0,0,0,-1,895,799,0,0
-322,225,0,0,0,0,0,0,0,0,0,-1,902,799,0,0
-315,225,0,0,0,0,0,0,0,0,0,-1,909,799,0,0
-308,225,0,0,0,0,0,0,0,0,0,-1,916,799,0,0
-301,225,0,0,0,0,0,0,0,0,0,-1,923,799,0,0
-294,225,0,0,0,0,0,0,0,0,0,-1,930,799,0,0
-287,225,0,0,0,0,0,0,0,0,0,-1,937,799,0,0
-280,225,0,0,0,0,0,0,0,0,0,-1,944,799,0,0
-273,225,0,0,0,0,0,0,0,0,0,-1,951,799,0,0
-266,225,0,0,0,0,0,0,0,0,0,-1,958,799,0,0
-259,225,0,0,0,0,0,0,0,0,0,-1,965,799,0,0
-252,225,0,0,0,0,0,0,0,0,0,-1,972,799,0,0
-245,225,0,0,0,0,0,0,0,0,0,-1,979,799,0,0
-238,225,0,0,0,0,0,0,0,0,0,-1,986,799,0,0
-231,225,0,0,0,0,0,0,0,0,0,-1,993,799,0,0
-224,225,0,0,0,0,0,0,0,0,0,-1,1000,799,0,0
-217,225,0,0,0,0,0,0,0,0,0,-1,1007,799,0,0
-210,225,0,0,0,0,0,0,0,0,0,-1,1014,799,0,0
-203,225,0,0,0,0,0,0,0,0,0,-1,1021,799,0,0
-196,225,0,0,0,0,0,0,0,0,0,-1,1028,799,0,0
-189,225,0,0,0,0,0,0,0,0,0,-1,1035,799,0,0
-182,225,0,0,0,0,0,0,0,0,0,-1,1042,799,0,0
-175,225,0,0,0,0,0,0,0,0,0,-1,1049,799,0,0
-168,225,0,0,0,0,0,0,0,0,0,-1,1056,799,0,0
-161,225,0,0,0,0,0,0,0,0,0,-1,1063,799,0,0
-154,225,0,0,0,0,0,0,0,0,0,-1,1070,799,0,0
-147,225,0,0,0,0,0,0,0,0,0,-1,1077,799,0,0
-140,225,0,0,0,0,0,0,0,0,0,-1,1084,799,0,0
-133,225,0,0,0,0,0,0,0,0,0,-1,1091,799,0,0
-126,225,0,0,0,0,0,0,0,0,0,-1,1098,799,0,0
-119,225,0,0,0,0,0,0,0,0,0,-1,1105,799,0,0
-112,225,0,0,0,0,0,0,0,0,0,-1,1112,799,0,0
-105,225,0,0,0,0,0,0,0,0,0,-1,1119,799,0,0
-98,225,0,0,0,0,0,0,0,0,0,-1,1126,799,0,0
-91,225,0,0,0,0,0,0,0,0,0,-1,1133,799,0,0
-84,225,0,0,0,0,0,0,0,0,0,-1,1140,799,0,0
-77,225,0,0,0,0,0,0,0,0,0,-1,1147,799,0,0
-70,225,0,0,0,0,0,0,0,0,0,-1,1154,799,0,0
-63,225,0,0,0,0,0,0,0,0,0,-1,1161,799,0,0
-56,225,0,0,0,0,0,0,0,0,0,-1,1168,799,0,0
-49,225,0,0,0,0,0,0,0,0,0,-1,1175,799,0,0
-42,225,0,0,0,0,0,0,0,0,0,-1,1182,799,0,0
-35,225,0,0,0,0,0,0,0,0,0,-1,1189,799,0,0
-28,225,0,0,0,0,0,0,0,0,0,-1,1196,799,0,0
-21,225,0,0,0,0,0,0,0,0,0,-1,1203,799,0,0
-14,225,0,0,0,0,0,0,0,0,0,-1,1210,799,0,0
-7,225,0,0,0,0,0,0,0,0,0,-1,1217,799,0,0
0,225,0,0,0,0,0,0,0,0,0,-1,1224,799,0,0
7,225,0,0,0,0,0,0,0,0,0,-1,1231,799,0,0
14,225,0,0,0,0,0,0,0,0,0,-1,1238,799,0,0
21,225,0,0,0,0,0,0,0,0,0,-1,1245,799,0,0
28,225,0,0,0,0,0,0,0,0,0,-1,1252,799,0,0
35,225,0,0,0,0,0,0,0,0,0,-1,1259,799,0,0
42,225,0,0,0,0,0,0,0,0,0,-1,1266,799,0,0
49,225,0,0,0,0,0,0,0,0,0,-1,1273,799,0,0
56,225,0,0,0,0,0,0,0,0,0,-1,1280,799,0,0
63,225,0,0,0,0,0,0,0,0,0,-1,1287,799,0,0
70,225,0,0,0,0,0,0,0,0,0,-1,1294,799,0,0
77,225,0,0,0,0,0,0,0,0,0,-1,1301,799,0,0
84,225,0,0,0,0,0,0,0,0,0,-1,1308,799,0,0
91,225,0,0,0,0,0,0,0,0,0,-1,1315,799,0,0
98,225,0,0,0,0,0,0,0,0,0,-1,1322,799,0,0
105,225,0,0,0,0,0,0,0,0,0,-1,1329,799,0,0
112,225,0,0,0,0,0,0,0,0,0,-1,1336,799,0,0
119,225,0,0,0,0,0,0,0,0,0,-1,1343,799,0,0
126,225,0,0,0,0,0,0,0,0,0,-1,1350,799,0,0
133,225,0,0,0,0,0,0,0,0,0,-1,1357,799,0,0
140,225,0,0,0,0,0,0,0,0,0,-1,1364,799,0,0
147,225,0,0,0,0,0,0,0,0,0,-1,1371,799,0,0
154,225,0,0,0,0,0,0,0,0,0,-1,1378,799,0,0
161,225,0,0,0,0,0,0,0,0,0,-1,1385,799,0,0
168,225,0,0,0,0,0,0,0,0,0,-1,1392,799,0,0
175,225,0,0,0,0,0,0,0,0,0,-1,1399,799,0,0
182,225,0,0,0,0,0,0,0,0,0,-1,1406,799,0,0
189,225,0,0,0,0,0,0,0,0,0,-1,1413,799,0,0
196,225,0,0,0,0,0,0,0,0,0,-1,1420,799,0,0
203,225,0,0,0,0,0,0,0,0,0,-1,1427,799,0,0
210,225,0,0,0,0,0,0,0,0,0,-1,1434,799,0,0
217,225,0,0,0,0,0,0,0,0,0,-1,1441,799,0,0
224,225,0,0,0,0,0,0,0,0,0,-1,1448,799,0,0
231,225,0,0,0,0,0,0,0,0,0,-1,1455,799,0,0
238,225,0,0,0,0,0,0,0,0,0,-1,1462,799,0,0
245,225,0,0,0,0,0,0,0,0,0,-1,1469,799,0,0
252,225,0,0,0,0,0,0,0,0,0,-1,1476,799,0,0
259,225,0,0,0,0,0,0,0,0,0,-1,1483,799,0,0
266,225,0,0,0,0,0,0,0,0,0,-1,1490,799,0,0
273,225,0,0,0,0,0,0,0,0,0,-1,1497,799,0,0
280,225,0,0,0,0,0,0,0,0,0,-1,1504,799,0,0
287,225,0,0,0,0,0,0,0,0,0,-1,1511,799,0,0
294,225,0,0,0,0,0,0,0,0,0,-1,1518,799,0,0
301,225,0,0,0,0,0,0,0,0,0,-1,1525,799,0,0
308,225,0,0,0,0,0,0,0,0,0,-1,1532,799,0,0
315,225,0,0,0,0,0,0,0,0,0,-1,1539,799,0,0
322,225,0,0,0,0,0,0,0,0,0,-1,1546,799,0,0
329,225,0,0,0,0,0,0,0,0,0,-1,1553,799,0,0
336,225,0,0,0,0,0,0,0,0,0,-1,1560,799,0,0
343,225,0,0,0,0,0,0,0,0,0,-1,1567,799,0,0
350,225,0,0,0,0,0,0,0,0,0,-1,1574,799,0,0
357,225,0,0,0,0,0,0,0,0,0,-1,1581,799,0,0
364,225,0,0,0,0,0,0,0,0,0,-1,1588,799,0,0
371,225,0,0,0,0,0,0,0,0,0,-1,1595,799,0,0
378,225,0,0,0,0,0,0,0,0,0,-1,1602,799,0,0
385,225,0,0,0,0,0,0,0,0,0,-1,1609,799,0,0
392,225,0,0,0,0,0,0,0,0,0,-1,1616,799,0,0
399,225,0,0,0,0,0,0,0,0,0,-1,1623,799,0,0
406,225,0,0,0,0,0,0,0,0,0,-1,1630,799,0,0
413,225,0,0,0,0,0,0,0,0,0,-1,1637,799,0,0
420,225,0,0,0,0,0,0,0,0,0,-1,1644,799,0,0
427,225,0,0,0,0,0,0,0,0,0,-1,1651,799,0,0
434,225,0,0,0,0,0,0,0,0,0,-1,1658,799,0,0
441,225,0,0,0,0,0,0,0,0,0,-1,1665,799,0,0
448,225,0,0,0,0,0,0,0,0,0,-1,1672,799,0,0
455,225,0,0,0,0,0,0,0,0,0,-1,1679,799,0,0
462,225,0,0,0,0,0,0,0,0,0,-1,1686,799,0,0
469,225,0,0,0,0,0,0,0,0,0,-1,1693,799,0,0
476,225,0,0,0,0,0,0,0,0,0,-1,1700,799,0,0
483,225,0,0,0,0,0,0,0,0,0,-1,1707,799,0,0
490,225,0,0,0,0,0,0,0,0,0,-1,1714,799,0,0
497,225,0,0,0,0,0,0,0,0,0,-1,1721,799,0,0
504,225,0,0,0,0,0,0,0,0,0,-1,1728,799,0,0
511,225,0,0,0,0,0,0,0,0,0,-1,1735,799,0,0
518,225,0,0,0,0,0,0,0,0,0,-1,1742,799,0,0
525,225,0,0,0,0,0,0,0,0,0,-1,1749,799,0,0
532,225,0,0,0,0,0,0,0,0,0,-1,1756,799,0,0
539,225,0,0,0,0,0,0,0,0,0,-1,1763,799,0,0
546,225,0,0,0,0,0,0,0,0,0,-1,1770,799,0,0
553,225,0,0,0,0,0,0,0,0,0,-1,1777,799,0,0
560,225,0,0,0,0,0,0,0,0,0,-1,1784,799,0,0
567,225,0,0,0,0,0,0,0,0,0,-1,1791,799,0,0
574,225,0,0,0,0,0,0,0,0,0,-1,1798,799,0,0
581,225,0,0,0,0,0,0,0,0,0,-1,1805,799,0,0
588,225,9.5957,1.34918,0.0215456,-0.00578509,0.00677873,0.0231345,-0.00737402,0.230242,0.0183809,0.0383319,1812,799,9.59576,-1.34918
595,225,9.59375,1.38177,0.0156355,-0.00938994,0.00716787,0.0175431,-0.0112976,0.260107,0.0167808,0.0337335,1819,799,9.59376,-1.38179
602,225,9.5863,1.33392,0.00945598,-0.0114538,0.00635543,0.0112361,-0.0132339,0.273101,0.0141435,0.031366,1826,799,9.58636,-1.33392
609,225,9.61975,1.31812,0.00369806,-0.0121276,0.00474896,0.00501374,-0.0134433,0.270268,0.0110204,0.0304885,1833,799,9.61972,-1.31813
616,225,9.66565,1.34418,-0.00101466,-0.0119783,0.00287359,-0.000307147,-0.0126858,0.24141,0.00835673,0.0350182,1840,799,9.66567,-1.34419
623,225,9.68652,1.37524,-0.00460806,-0.011202,0.00107319,-0.00443779,-0.0113722,0.157346,0.0066183,0.0379669,1847,799,9.68655,-1.37524
630,225,9.34143,1.63916,0,0,0,0,0,0,0,-1,1854,799,9.3414,-1.63914
637,225,9.37573,0.979614,0,0,0,0,0,0,0,-1,1861,799,9.37574,-0.979605
644,225,6.70276,1.40704,0,0,0,0,0,0,0,-1,1868,799,6.70274,-1.40705
651,225,6.66577,1.07379,0,0,0,0,0,0,0,-1,1875,799,6.66574,-1.0738
658,225,7.78772,0.796265,-0.00988562,-0.00542405,-0.00344046,-0.00355445,-0.0117552,-1.07302,0.00696135,0.0312508,1882,799,7.78773,-0.796274
665,225,7.71582,0.785217,-0.00919946,-0.00412003,-0.00373725,-0.00214121,-0.0111783,-1.08384,0.00685091,0.0122215,1889,799,7.71578,-0.785188
672,225,7.70654,0.868652,-0.00816147,-0.00350566,-0.00345313,-0.00166904,-0.00999809,-1.08198,0.00618458,0.0162225,1896,799,7.70655,-0.86864
679,225,7.70935,0.960754,-0.00625166,-0.00263655,-0.00299708,-0.000944134,-0.00794407,-1.05675,0.00501107,0.0170141,1903,799,7.7093,-0.960755
686,225,7.70679,1.06696,-0.00449585,-0.00217711,-0.00223557,-0.000818166,-0.00585479,-1.02461,0.00366108,0.010738,1910,799,7.70683,-1.06694
693,225,7.71008,1.14117,-0.00296615,-0.00145469,-0.00161197,-0.00043009,-0.00399075,-1.0046,0.00252936,0.0100626,1917,799,7.71004,-1.14119
700,225,7.71338,1.22791,-0.00121535,-0.00130511,-0.00106481,-0.000194476,-0.00232598,-0.764335,0.00149007,0.0113407,1924,799,7.71333,-1.2279
707,225,7.71509,1.32153,0.000171652,-0.0011415,-0.000287733,0.000231932,-0.00120178,-0.206512,0.000888647,0.0114731,1931,799,7.71512,-1.32153
714,225,7.72192,1.40881,0.00140046,-0.000841829,0.000443646,0.00148505,-0.000926416,0.188401,0.00140466,0.01254,1938,799,7.72193,-1.40883
721,225,7.73181,1.46759,0.0029939,0.000451706,0.00140511,0.00361754,-0.00017193,0.417715,0.002471,0.013494,1945,799,7.7318,-1.46761
728,225,7.73901,1.53259,0.00507295,0.00365171,0.0026979,0.00715225,0.00157241,0.656624,0.00434004,0.0222655,1952,799,7.73896,-1.53262
735,225,7.75476,1.60144,0.00742682,0.00784856,0.00439903,0.0120418,0.00323361,0.809348,0.00719636,0.040587,1959,799,7.75473,-1.60144
742,225,7.80273,1.62689,0.0112625,0.0149686,0.00681286,0.020176,0.00605521,0.918183,0.0119548,0.047514,1966,799,7.80276,-1.62687
749,225,7.85889,2.82471,0,0,0,0,0,0,0,-1,1973,799,7.85894,-2.82472
756,225,7.77686,3.04584,0,0,0,0,0,0,0,-1,1980,799,7.77684,-3.04582
763,225,7.34595,2.15228,0,0,0,0,0,0,0,-1,1987,799,7.34594,-2.1523
770,225,0,0,0,0,0,0,0,0,0,-1,1994,799,0,0
777,225,0,0,0,0,0,0,0,0,0,-1,2001,799,0,0
784,225,0,0,0,0,0,0,0,0,0,-1,2008,799,0,0
791,225,0,0,0,0,0,0,0,0,0,-1,2015,799,0,0
798,225,0,0,0,0,0,0,0,0,0,-1,2022,799,0,0
805,225,0,0,0,0,0,0,0,0,0,-1,2029,799,0,0
812,225,0,0,0,0,0,0,0,0,0,-1,2036,799,0,0
-700,218,0,0,0,0,0,0,0,0,0,-1,524,806,0,0
-693,218,0,0,0,0,0,0,0,0,0,-1,531,806,0,0
-686,218,0,0,0,0,0,0,0,0,0,-1,538,806,0,0
-679,218,0,0,0,0,0,0,0,0,0,-1,545,806,0,0
-672,218,0,0,0,0,0,0,0,0,0,-1,552,806,0,0
-665,218,0,0,0,0,0,0,0,0,0,-1,559,806,0,0
-658,218,0,0,0,0,0,0,0,0,0,-1,566,806,0,0
-651,218,-1.27264,5.21606,0,0,0,0,0,0,0,-1,573,806,-1.27261,-5.21608
-644,218,-1.97388,4.02234,0,0,0,0,0,0,0,-1,580,806,-1.97385,-4.02231
-637,218,-2.37842,3.33075,0.0453168,-0.00784025,-0.0311811,0.0597099,-0.0222334,-0.432458,0.0489315,0.0482228,587,806,-2.37843,-3.33073
-630,218,-2.76544,2.56628,0.0295242,-0.00781772,-0.0267409,0.0434673,-0.0217608,-0.480633,0.0383483,0.0479536,594,806,-2.76545,-2.56626
-623,218,-3.21075,1.74762,0.01933,-0.00771333,-0.0216986,0.0313752,-0.0197585,-0.506761,0.0297749,0.0482147,601,806,-3.21076,-1.74759
-616,218,-3.91791,2.35059,0,0,0,0,0,0,0,-1,608,806,-3.91792,-2.35059
-609,218,-2.88702,0.897095,0,0,0,0,0,0,0,-1,615,806,-2.88701,-0.897101
-602,218,-2.89209,0.845642,0.00317513,-0.00483102,-0.00880297,0.00884247,-0.0104984,-0.572003,0.0111801,0.0403883,622,806,-2.89207,-0.845651
-595,218,-2.87799,0.786011,0.00205581,-0.00498692,-0.00648079,0.00591013,-0.00884124,-0.536535,0.00857256,0.0174887,629,806,-2.87798,-0.786001
-588,218,-2.85358,0.740479,0.00202222,-0.00355377,-0.0032983,0.00355299,-0.00508453,-0.434523,0.00501294,0.011778,636,806,-2.85355,-0.740482
-581,218,-2.84222,0.663513,0.00178858,-0.0032836,-0.000910585,0.00194709,-0.00344212,-0.172358,0.00315112,0.0107458,643,806,-2.8422,-0.663529
-574,218,-2.83203,0.577515,0.0011143,-0.00345189,0.00130063,0.00145879,-0.00379637,0.258913,0.00313253,0.00883108,650,806,-2.83201,-0.577509
-567,218,-2.83716,0.479248,-4.90166e-05,-0.00235473,0.00229507,0.00136648,-0.00377022,0.552648,0.00307201,0.0144935,657,806,-2.83717,-0.479268
-560,218,-2.8443,0.401306,-0.000731472,-0.00190641,0.0029124,0.00165212,-0.00429,0.685877,0.00354157,0.0158394,664,806,-2.84428,-0.401301
-553,218,-2.80975,0.304199,-0.000709442,-0.00208237,0.00389161,0.00255579,-0.0053476,0.698098,0.00465695,0.0173787,671,806,-2.80974,-0.30418
-546,218,-2.82855,0.22583,-0.00056751,-0.00245999,0.00495848,0.00353421,-0.00656171,0.691116,0.0059156,0.014375,678,806,-2.82855,-0.225811
-539,218,-2.83496,0.149475,-0.000225511,-0.00260053,0.00622416,0.00492341,-0.00774945,0.691136,0.00737707,0.0143653,685,806,-2.83494,-0.14949
-532,218,-2.88446,0.111816,0.000310744,-0.00321667,0.00762595,0.00637428,-0.00928021,0.671758,0.00908988,0.015084,692,806,-2.88443,-0.111833
-525,218,-2.93323,0.204407,0.000549507,-0.00368147,0.00880103,0.00748573,-0.0106177,0.667452,0.010504,0.0408563,699,806,-2.93321,-0.204378
-518,218,-2.81287,0.262634,0.00114548,-0.00391505,0.00977982,0.00871705,-0.0114866,0.658812,0.0117011,0.0456564,706,806,-2.81286,-0.262627
-511,218,-5.3714,0.0483398,0,0,0,0,0,0,0,-1,713,806,-5.37142,-0.0483334
-504,218,-5.26599,0.0491333,0,0,0,0,0,0,0,-1,720,806,-5.26599,-0.0491308
-497,218,-5.05811,0.184937,0,0,0,0,0,0,0,-1,727,806,-5.05812,-0.18493
-490,218,-4.43433,0.79834,0.00186751,-0.00448688,0.010986,0.0101265,-0.0127459,0.644636,0.0132342,0.0337856,734,806,-4.43431,-0.798316
-483,218,-4.52136,0.759949,0.000948647,-0.00472233,0.0097475,0.00826469,-0.0120384,0.643857,0.0117893,0.0309105,741,806,-4.52136,-0.759961
-476,218,-4.54083,0.806824,-0.000974954,-0.00522764,0.0075092,0.00470315,-0.0109057,0.647427,0.00924593,0.0357656,748,806,-4.54085,-0.806835
-469,218,0,0,0,0,0,0,0,0,0,-1,755,806,0,0
-462,218,0,0,0,0,0,0,0,0,0,-1,762,806,0,0
-455,218,0,0,0,0,0,0,0,0,0,-1,769,806,0,0
-448,218,0,0,0,0,0,0,0,0,0,-1,776,806,0,0
-441,218,0,0,0,0,0,0,0,0,0,-1,783,806,0,0
-434,218,0,0,0,0,0,0,0,0,0,-1,790,806,0,0
-427,218,0,0,0,0,0,0,0,0,0,-1,797,806,0,0
-420,218,0,0,0,0,0,0,0,0,0,-1,804,806,0,0
-413,218,0,0,0,0,0,0,0,0,0,-1,811,806,0,0
-406,218,0,0,0,0,0,0,0,0,0,-1,818,806,0,0
-399,218,0,0,0,0,0,0,0,0,0,-1,825,806,0,0
-392,218,0,0,0,0,0,0,0,0,0,-1,832,806,0,0
-385,218,0,0,0,0,0,0,0,0,0,-1,839,806,0,0
-378,218,0,0,0,0,0,0,0,0,0,-1,846,806,0,0
-371,218,0,0,0,0,0,0,0,0,0,-1,853,806,0,0
-364,218,0,0,0,0,0,0,0,0,0,-1,860,806,0,0
-357,218,0,0,0,0,0,0,0,0,0,-1,867,806,0,0
-350,218,0,0,0,0,0,0,0,0,0,-1,874,806,0,0
-343,218,0,0,0,0,0,0,0,0,0,-1,881,806,0,0
-336,218,0,0,0,0,0,0,0,0,0,-1,888,806,0,0
-329,218,0,0,0,0,0,0,0,0,0,-1,895,806,0,0
-322,218,0,0,0,0,0,0,0,0,0,-1,902,806,0,0
-315,218,0,0,0,0,0,0,0,0,0,-1,909,806,0,0
-308,218,0,0,0,0,0,0,0,0,0,-1,916,806,0,0
-301,218,0,0,0,0,0,0,0,0,0,-1,923,806,0,0
-294,218,0,0,0,0,0,0,0,0,0,-1,930,806,0,0
-287,218,0,0,0,0,0,0,0,0,0,-1,937,806,0,0
-280,218,0,0,0,0,0,0,0,0,0,-1,944,806,0,0
-273,218,0,0,0,0,0,0,0,0,0,-1,951,806,0,0
-266,218,0,0,0,0,0,0,0,0,0,-1,958,806,0,0
-259,218,0,0,0,0,0,0,0,0,0,-1,965,806,0,0
-252,218,0,0,0,0,0,0,0,0,0,-1,972,806,0,0
-245,218,0,0,0,0,0,0,0,0,0,-1,979,806,0,0
-238,218,0,0,0,0,0,0,0,0,0,-1,986,806,0,0
-231,218,0,0,0,0,0,0,0,0,0,-1,993,806,0,0
-224,218,0,0,0,0,0,0,0,0,0,-1,1000,806,0,0
-217,218,0,0,0,0,0,0,0,0,0,-1,1007,806,0,0
-210,218,0,0,0,0,0,0,0,0,0,-1,1014,806,0,0
-203,218,0,0,0,0,0,0,0,0,0,-1,1021,806,0,0
-196,218,0,0,0,0,0,0,0,0,0,-1,1028,806,0,0
-189,218,0,0,0,0,0,0,0,0,0,-1,1035,806,0,0
-182,218,0,0,0,0,0,0,0,0,0,-1,1042,806,0,0
-175,218,0,0,0,0,0,0,0,0,0,-1,1049,806,0,0
-168,218,0,0,0,0,0,0,0,0,0,-1,1056,806,0,0
-161,218,0,0,0,0,0,0,0,0,0,-1,1063,806,0,0
-154,218,0,0,0,0,0,0,0,0,0,-1,1070,806,0,0
-147,218,0,0,0,0,0,0,0,0,0,-1,1077,806,0,0
-140,218,0,0,0,0,0,0,0,0,0,-1,1084,806,0,0
-133,218,0,0,0,0,0,0,0,0,0,-1,1091,806,0,0
-126,218,0,0,0,0,0,0,0,0,0,-1,1098,806,0,0
-119,218,0,0,0,0,0,0,0,0,0,-1,1105,806,0,0
-112,218,0,0,0,0,0,0,0,0,0,-1,1112,806,0,0
-105,218,0,0,0,0,0,0,0,0,0,-1,1119,806,0,0
-98,218,0,0,0,0,0,0,0,0,0,-1,1126,806,0,0
-91,218,0,0,0,0,0,0,0,0,0,-1,1133,806,0,0
-84,218,0,0,0,0,0,0,0,0,0,-1,1140,806,0,0
-77,218,0,0,0,0,0,0,0,0,0,-1,1147,806,0,0
-70,218,0,0,0,0,0,0,0,0,0,-1,1154,806,0,0
-63,218,0,0,0,0,0,0,0,0,0,-1,1161,806,0,0
-56,218,0,0,0,0,0,0,0,0,0,-1,1168,806,0,0
-49,218,0,0,0,0,0,0,0,0,0,-1,1175,806,0,0
-42,218,0,0,0,0,0,0,0,0,0,-1,1182,806,0,0
-35,218,0,0,0,0,0,0,0,0,0,-1,1189,806,0,0
-28,218,0,0,0,0,0,0,0,0,0,-1,1196,806,0,0
-21,218,0,0,0,0,0,0,0,0,0,-1,1203,806,0,0
-14,218,0,0,0,0,0,0,0,0,0,-1,1210,806,0,0
-7,218,0,0,0,0,0,0,0,0,0,-1,1217,806,0,0
0,218,0,0,0,0,0,0,0,0,0,-1,1224,806,0,0
7,218,0,0,0,0,0,0,0,0,0,-1,1231,806,0,0
14,218,0,0,0,0,0,0,0,0,0,-1,1238,806,0,0
21,218,0,0,0,0,0,0,0,0,0,-1,1245,806,0,0
28,218,0,0,0,0,0,0,0,0,0,-1,1252,806,0,0
35,218,0,0,0,0,0,0,0,0,0,-1,1259,806,0,0
42,218,0,0,0,0,0,0,0,0,0,-1,1266,806,0,0
49,218,0,0,0,0,0,0,0,0,0,-1,1273,806,0,0
56,218,0,0,0,0,0,0,0,0,0,-1,1280,806,0,0
63,218,0,0,0,0,0,0,0,0,0,-1,1287,806,0,0
70,218,0,0,0,0,0,0,0,0,0,-1,1294,806,0,0
77,218,0,0,0,0,0,0,0,0,0,-1,1301,806,0,0
84,218,0,0,0,0,0,0,0,0,0,-1,1308,806,0,0
91,218,0,0,0,0,0,0,0,0,0,-1,1315,806,0,0
98,218,0,0,0,0,0,0,0,0,0,-1,1322,806,0,0
105,218,0,0,0,0,0,0,0,0,0,-1,1329,806,0,0
112,218,0,0,0,0,0,0,0,0,0,-1,1336,806,0,0
119,218,0,0,0,0,0,0,0,0,0,-1,1343,806,0,0
126,218,0,0,0,0,0,0,0,0,0,-1,1350,806,0,0
133,218,0,0,0,0,0,0,0,0,0,-1,1357,806,0,0
140,218,0,0,0,0,0,0,0,0,0,-1,1364,806,0,0
147,218,0,0,0,0,0,0,0,0,0,-1,1371,806,0,0
154,218,0,0,0,0,0,0,0,0,0,-1,1378,806,0,0
161,218,0,0,0,0,0,0,0,0,0,-1,1385,806,0,0
168,218,0,0,0,0,0,0,0,0,0,-1,1392,806,0,0
175,218,0,0,0,0,0,0,0,0,0,-1,1399,806,0,0
182,218,0,0,0,0,0,0,0,0,0,-1,1406,806,0,0
189,218,0,0,0,0,0,0,0,0,0,-1,1413,806,0,0
196,218,0,0,0,0,0,0,0,0,0,-1,1420,806,0,0
203,218,0,0,0,0,0,0,0,0,0,-1,1427,806,0,0
210,218,0,0,0,0,0,0,0,0,0,-1,1434,806,0,0
217,218,0,0,0,0,0,0,0,0,0,-1,1441,806,0,0
224,218,0,0,0,0,0,0,0,0,0,-1,1448,806,0,0
231,218,0,0,0,0,0,0,0,0,0,-1,1455,806,0,0
238,218,0,0,0,0,0,0,0,0,0,-1,1462,806,0,0
245,218,0,0,0,0,0,0,0,0,0,-1,1469,806,0,0
252,218,0,0,0,0,0,0,0,0,0,-1,1476,806,0,0
259,218,0,0,0,0,0,0,0,0,0,-1,1483,806,0,0
266,218,0,0,0,0,0,0,0,0,0,-1,1490,806,0,0
273,218,0,0,0,0,0,0,0,0,0,-1,1497,806,0,0
280,218,0,0,0,0,0,0,0,0,0,-1,1504,806,0,0
287,218,0,0,0,0,0,0,0,0,0,-1,1511,806,0,0
294,218,0,0,0,0,0,0,0,0,0,-1,1518,806,0,0
301,218,0,0,0,0,0,0,0,0,0,-1,1525,806,0,0
308,218,0,0,0,0,0,0,0,0,0,-1,1532,806,0,0
315,218,0,0,0,0,0,0,0,0,0,-1,1539,806,0,0
322,218,0,0,0,0,0,0,0,0,0,-1,1546,806,0,0
329,218,0,0,0,0,0,0,0,0,0,-1,1553,806,0,0
336,218,0,0,0,0,0,0,0,0,0,-1,1560,806,0,0
343,218,0,0,0,0,0,0,0,0,0,-1,1567,806,0,0
350,218,0,0,0,0,0,0,0,0,0,-1,1574,806,0,0
357,218,0,0,0,0,0,0,0,0,0,-1,1581,806,0,0
364,218,0,0,0,0,0,0,0,0,0,-1,1588,806,0,0
371,218,0,0,0,0,0,0,0,0,0,-1,1595,806,0,0
378,218,0,0,0,0,0,0,0,0,0,-1,1602,806,0,0
385,218,0,0,0,0,0,0,0,0,0,-1,1609,806,0,0
392,218,0,0,0,0,0,0,0,0,0,-1,1616,806,0,0
399,218,0,0,0,0,0,0,0,0,0,-1,1623,806,0,0
406,218,0,0,0,0,0,0,0,0,0,-1,1630,806,0,0
413,218,0,0,0,0,0,0,0,0,0,-1,1637,806,0,0
420,218,0,0,0,0,0,0,0,0,0,-1,1644,806,0,0
427,218,0,0,0,0,0,0,0,0,0,-1,1651,806,0,0
434,218,0,0,0,0,0,0,0,0,0,-1,1658,806,0,0
441,218,0,0,0,0,0,0,0,0,0,-1,1665,806,0,0
448,218,0,0,0,0,0,0,0,0,0,-1,1672,806,0,0
455,218,0,0,0,0,0,0,0,0,0,-1,1679,806,0,0
462,218,0,0,0,0,0,0,0,0,0,-1,1686,806,0,0
469,218,0,0,0,0,0,0,0,0,0,-1,1693,806,0,0
476,218,0,0,0,0,0,0,0,0,0,-1,1700,806,0,0
483,218,0,0,0,0,0,0,0,0,0,-1,1707,806,0,0
490,218,0,0,0,0,0,0,0,0,0,-1,1714,806,0,0
497,218,0,0,0,0,0,0,0,0,0,-1,1721,806,0,0
504,218,0,0,0,0,0,0,0,0,0,-1,1728,806,0,0
511,218,0,0,0,0,0,0,0,0,0,-1,1735,806,0,0
518,218,0,0,0,0,0,0,0,0,0,-1,1742,806,0,0
525,218,0,0,0,0,0,0,0,0,0,-1,1749,806,0,0
532,218,0,0,0,0,0,0,0,0,0,-1,1756,806,0,0
539,218,0,0,0,0,0,0,0,0,0,-1,1763,806,0,0
546,218,0,0,0,0,0,0,0,0,0,-1,1770,806,0,0
553,218,0,0,0,0,0,0,0,0,0,-1,1777,806,0,0
560,218,0,0,0,0,0,0,0,0,0,-1,1784,806,0,0
567,218,0,0,0,0,0,0,0,0,0,-1,1791,806,0,0
574,218,0,0,0,0,0,0,0,0,0,-1,1798,806,0,0
581,218,0,0,0,0,0,0,0,0,0,-1,1805,806,0,0
588,218,0,0,0,0,0,0,0,0,0,-1,1812,806,0,0
595,218,9.66016,1.45996,0.0124018,-0.00485424,0.00616024,0.0143753,-0.00682769,0.310024,0.0124974,0.0364683,1819,806,9.6601,-1.45993
602,218,9.62903,1.44104,0.00728737,-0.00746631,0.00515744,0.00891148,-0.00909041,0.305074,0.0103936,0.033239,1826,806,9.62898,-1.44103
609,218,9.57556,1.42468,0.00246656,-0.00880699,0.00358099,0.00350786,-0.00984829,0.282983,0.00799557,0.0297918,1833,806,9.57551,-1.4247
616,218,9.5863,1.3725,-0.00157083,-0.00925946,0.00179631,-0.00117186,-0.00965844,0.218559,0.00608606,0.0306966,1840,806,9.58626,-1.37247
623,218,9.63721,1.33258,-0.0047774,-0.0090462,9.33002e-05,-0.00477537,-0.00904823,0.0218424,0.00522669,0.0360745,1847,806,9.63724,-1.3326
630,218,9.64832,1.31146,-0.00696505,-0.00845551,-0.00125642,-0.00624948,-0.00917108,-0.517719,0.00540988,0.0400658,1854,806,9.6483,-1.31147
637,218,7.93787,1.27643,0,0,0,0,0,0,0,-1,1861,806,7.93783,-1.27645
644,218,7.73535,1.01636,0,0,0,0,0,0,0,-1,1868,806,7.7354,-1.01638
651,218,7.39075,0.777832,0,0,0,0,0,0,0,-1,1875,806,7.39072,-0.777808
658,218,7.42529,0.664551,0,0,0,0,0,0,0,-1,1882,806,7.42529,-0.66456
665,218,7.81934,0.827881,-0.00941339,-0.00391867,-0.00404196,-0.00177876,-0.0115533,-1.08389,0.00718308,0.0245661,1889,806,7.81938,-0.827885
672,218,7.80847,0.883911,-0.00864712,-0.00335969,-0.00376884,-0.00139978,-0.010607,-1.09125,0.00665402,0.0110561,1896,806,7.80847,-0.883893
679,218,7.80933,0.970764,-0.00705669,-0.00254796,-0.00327115,-0.000829599,-0.00877505,-1.08711,0.00559405,0.0107298,1903,806,7.80928,-0.970746
686,218,7.80469,1.04578,-0.0054497,-0.00203144,-0.00247752,-0.000730719,-0.00675042,-1.08734,0.00427756,0.0102151,1910,806,7.80471,-1.0458
693,218,7.80042,1.13312,-0.0039092,-0.00126424,-0.00177037,-0.000376932,-0.00479651,-1.10619,0.00307973,0.0109365,1917,806,7.80046,-1.1331
700,218,7.79126,1.22418,-0.00213527,-0.000996897,-0.00108278,-0.000342816,-0.00278935,-1.02738,0.00175648,0.00945942,1924,806,7.79122,-1.22418
707,218,7.7854,1.31427,-0.000763466,-0.000614779,-0.000136244,-0.000533915,-0.00084433,-1.03515,0.000493134,0.00777842,1931,806,7.78541,-1.31429
714,218,7.81067,1.40814,0.000443937,-2.25585e-05,0.000736934,0.000983655,-0.000562277,0.632131,0.000903529,0.0101478,1938,806,7.81073,-1.40814
721,218,7.83667,1.46155,0.00214905,0.00178457,0.0018316,0.00380745,0.000126163,0.735813,0.00249731,0.0130097,1945,806,7.83667,-1.46152
728,218,7.86816,1.52698,0.00431851,0.00574061,0.00322692,0.00833389,0.00172523,0.89384,0.00507947,0.018776,1952,806,7.86814,-1.52699
735,218,7.87903,1.61224,0.00653842,0.0106542,0.00490833,0.0139186,0.00327403,0.983899,0.00840307,0.033052,1959,806,7.87908,-1.61222
742,218,7.81958,1.63055,0.0102452,0.0186407,0.00723948,0.0228114,0.00607451,1.04813,0.0136413,0.0445529,1966,806,7.81963,-1.63058
749,218,7.62915,1.83997,0,0,0,0,0,0,0,-1,1973,806,7.62918,-1.83996
756,218,7.45313,1.95587,0.0261921,0.0493637,0.0141277,0.0560487,0.0195071,1.12883,0.0328542,0.0492141,1980,806,7.45307,-1.95586
763,218,7.31775,2.14032,0,0,0,0,0,0,0,-1,1987,806,7.31772,-2.14033
770,218,0,0,0,0,0,0,0,0,0,-1,1994,806,0,0
777,218,0,0,0,0,0,0,0,0,0,-1,2001,806,0,0
784,218,0,0,0,0,0,0,0,0,0,-1,2008,806,0,0
791,218,0,0,0,0,0,0,0,0,0,-1,2015,806,0,0
798,218,0,0,0,0,0,0,0,0,0,-1,2022,806,0,0
805,218,0,0,0,0,0,0,0,0,0,-1,2029,806,0,0
812,218,0,0,0,0,0,0,0,0,0,-1,2036,806,0,0
-700,211,0,0,0,0,0,0,0,0,0,-1,524,813,0,0
-693,211,0,0,0,0,0,0,0,0,0,-1,531,813,0,0
-686,211,0,0,0,0,0,0,0,0,0,-1,538,813,0,0
-679,211,0,0,0,0,0,0,0,0,0,-1,545,813,0,0
-672,211,0,0,0,0,0,0,0,0,0,-1,552,813,0,0
-665,211,0,0,0,0,0,0,0,0,0,-1,559,813,0,0
-658,211,0,0,0,0,0,0,0,0,0,-1,566,813,0,0
-651,211,-0.431519,4.55499,0.0976704,-0.0135917,-0.022584,0.10208,-0.0180011,-0.192817,0.0747793,0.0453363,573,813,-0.431511,-4.55497
-644,211,-0.907043,3.84656,0,0,0,0,0,0,0,-1,580,813,-0.907048,-3.84656
-637,211,-1.38715,3.20117,0.0402383,-0.0067069,-0.0242684,0.0505284,-0.016997,-0.401033,0.0405564,0.0460802,587,813,-1.38715,-3.20117
-630,211,-2.57806,1.72577,0.0251828,-0.00546737,-0.0217776,0.0364871,-0.0167717,-0.478793,0.0314434,0.0446205,594,813,-2.57809,-1.72578
-623,211,-2.88605,1.435,0.0155283,-0.00485826,-0.0183005,0.0262829,-0.0156128,-0.531299,0.0244486,0.0437228,601,813,-2.88606,-1.43502
-616,211,-2.84698,1.01172,0,0,0,0,0,0,0,-1,608,813,-2.84697,-1.0117
-609,211,-2.86078,0.895447,0.00598817,-0.00386801,-0.0108519,0.0129785,-0.0108584,-0.57226,0.0137804,0.0381872,615,813,-2.86075,-0.895432
-602,211,-2.91711,0.795349,0.000808388,-0.00251133,-0.0079961,0.00731509,-0.00901803,-0.68306,0.009447,0.0194008,622,813,-2.91714,-0.795329
-595,211,-2.93518,0.773926,0.000150189,-0.00323703,-0.00612883,0.00481511,-0.00790195,-0.650595,0.00741395,0.0102216,629,813,-2.9352,-0.77392
-588,211,-2.92023,0.722778,0.000587179,-0.00224167,-0.00307806,0.00256024,-0.00421473,-0.570028,0.00395022,0.0105527,636,813,-2.92025,-0.722807
-581,211,-2.91974,0.655884,0.000674233,-0.00243944,-0.00072006,0.000832688,-0.0025979,-0.216606,0.0020662,0.0106349,643,813,-2.91972,-0.655895
-574,211,-2.93597,0.582764,0.000307655,-0.00302765,0.00150894,0.000888997,-0.00360899,0.367739,0.00275064,0.0110859,650,813,-2.93595,-0.582779
-567,211,-2.93958,0.497192,-0.000658334,-0.00225841,0.00256444,0.00122797,-0.00414471,0.634196,0.00325072,0.0174045,657,813,-2.93955,-0.49722
-560,211,-2.9444,0.410095,-0.00120721,-0.0020205,0.00325461,0.00166605,-0.00489377,0.723248,0.00393717,0.0210661,664,813,-2.94443,-0.410121
-553,211,-2.91284,0.319824,-0.00117773,-0.00220792,0.00422143,0.00255991,-0.00594556,0.724688,0.00503865,0.0177745,671,813,-2.91285,-0.319847
-546,211,-2.91693,0.269531,-0.00111725,-0.00250638,0.00522349,0.00345765,-0.00708128,0.719301,0.00620338,0.0184438,678,813,-2.91693,-0.269522
-539,211,-2.94299,0.179688,-0.000839377,-0.00261916,0.00641952,0.00475164,-0.00821017,0.716526,0.00757179,0.0122354,685,813,-2.943,-0.179665
-532,211,-3.04144,0.242615,-0.000314812,-0.00312879,0.00763907,0.00604576,-0.00948936,0.694327,0.00904236,0.0319107,692,813,-3.04142,-0.242602
-525,211,-3.02795,0.315796,0,0,0,0,0,0,0,-1,699,813,-3.02795,-0.315773
-518,211,-3.45459,-0.160889,0,0,0,0,0,0,0,-1,706,813,-3.4546,0.160861
-511,211,-4.36194,0.0408325,0,0,0,0,0,0,0,-1,713,813,-4.36193,-0.0408611
-504,211,-4.4729,0.771423,0.00282256,-0.00347427,0.00994529,0.0101059,-0.0107576,0.632103,0.0120475,0.0457549,720,813,-4.47288,-0.771453
-497,211,-4.37347,0.899536,0.00343483,-0.00328656,0.00964249,0.0102855,-0.0101372,0.617716,0.0117912,0.0479694,727,813,-4.3735,-0.89954
-490,211,-4.3891,0.902527,0.00369944,-0.00300429,0.00861299,0.00958979,-0.00889464,0.599833,0.0106745,0.034424,734,813,-4.38912,-0.902536
-483,211,-4.45618,0.871521,0.00319181,-0.00265757,0.00666958,0.00754978,-0.00701554,0.578769,0.00841118,0.0315706,741,813,-4.4562,-0.871532
-476,211,-4.46454,1.02252,0.00122851,-0.00238242,0.00369687,0.00353723,-0.00469114,0.558245,0.0047662,0.0369082,748,813,-4.46454,-1.02249
-469,211,0,0,0,0,0,0,0,0,0,-1,755,813,0,0
-462,211,0,0,0,0,0,0,0,0,0,-1,762,813,0,0
-455,211,0,0,0,0,0,0,0,0,0,-1,769,813,0,0
-448,211,0,0,0,0,0,0,0,0,0,-1,776,813,0,0
-441,211,0,0,0,0,0,0,0,0,0,-1,783,813,0,0
-434,211,0,0,0,0,0,0,0,0,0,-1,790,813,0,0
-427,211,0,0,0,0,0,0,0,0,0,-1,797,813,0,0
-420,211,0,0,0,0,0,0,0,0,0,-1,804,813,0,0
-413,211,0,0,0,0,0,0,0,0,0,-1,811,813,0,0
-406,211,0,0,0,0,0,0,0,0,0,-1,818,813,0,0
-399,211,0,0,0,0,0,0,0,0,0,-1,825,813,0,0
-392,211,0,0,0,0,0,0,0,0,0,-1,832,813,0,0
-385,211,0,0,0,0,0,0,0,0,0,-1,839,813,0,0
-378,211,0,0,0,0,0,0,0,0,0,-1,846,813,0,0
-371,211,0,0,0,0,0,0,0,0,0,-1,853,813,0,0
-364,211,0,0,0,0,0,0,0,0,0,-1,860,813,0,0
-357,211,0,0,0,0,0,0,0,0,0,-1,867,813,0,0
-350,211,0,0,0,0,0,0,0,0,0,-1,874,813,0,0
-343,211,0,0,0,0,0,0,0,0,0,-1,881,813,0,0
-336,211,0,0,0,0,0,0,0,0,0,-1,888,813,0,0
-329,211,0,0,0,0,0,0,0,0,0,-1,895,813,0,0
-322,211,0,0,0,0,0,0,0,0,0,-1,902,813,0,0
-315,211,0,0,0,0,0,0,0,0,0,-1,909,813,0,0
-308,211,0,0,0,0,0,0,0,0,0,-1,916,813,0,0
-301,211,0,0,0,0,0,0,0,0,0,-1,923,813,0,0
-294,211,0,0,0,0,0,0,0,0,0,-1,930,813,0,0
-287,211,0,0,0,0,0,0,0,0,0,-1,937,813,0,0
-280,211,0,0,0,0,0,0,0,0,0,-1,944,813,0,0
-273,211,0,0,0,0,0,0,0,0,0,-1,951,813,0,0
-266,211,0,0,0,0,0,0,0,0,0,-1,958,813,0,0
-259,211,0,0,0,0,0,0,0,0,0,-1,965,813,0,0
-252,211,0,0,0,0,0,0,0,0,0,-1,972,813,0,0
-245,211,0,0,0,0,0,0,0,0,0,-1,979,813,0,0
-238,211,0,0,0,0,0,0,0,0,0,-1,986,813,0,0
-231,211,0,0,0,0,0,0,0,0,0,-1,993,813,0,0
-224,211,0,0,0,0,0,0,0,0,0,-1,1000,813,0,0
-217,211,0,0,0,0,0,0,0,0,0,-1,1007,813,0,0
-210,211,0,0,0,0,0,0,0,0,0,-1,1014,813,0,0
-203,211,0,0,0,0,0,0,0,0,0,-1,1021,813,0,0
-196,211,0,0,0,0,0,0,0,0,0,-1,1028,813,0,0
-189,211,0,0,0,0,0,0,0,0,0,-1,1035,813,0,0
-182,211,0,0,0,0,0,0,0,0,0,-1,1042,813,0,0
-175,211,0,0,0,0,0,0,0,0,0,-1,1049,813,0,0
-168,211,0,0,0,0,0,0,0,0,0,-1,1056,813,0,0
-161,211,0,0,0,0,0,0,0,0,0,-1,1063,813,0,0
-154,211,0,0,0,0,0,0,0,0,0,-1,1070,813,0,0
-147,211,0,0,0,0,0,0,0,0,0,-1,1077,813,0,0
-140,211,0,0,0,0,0,0,0,0,0,-1,1084,813,0,0
-133,211,0,0,0,0,0,0,0,0,0,-1,1091,813,0,0
-126,211,0,0,0,0,0,0,0,0,0,-1,1098,813,0,0
-119,211,0,0,0,0,0,0,0,0,0,-1,1105,813,0,0
-112,211,0,0,0,0,0,0,0,0,0,-1,1112,813,0,0
-105,211,0,0,0,0,0,0,0,0,0,-1,1119,813,0,0
-98,211,0,0,0,0,0,0,0,0,0,-1,1126,813,0,0
-91,211,0,0,0,0,0,0,0,0,0,-1,1133,813,0,0
-84,211,0,0,0,0,0,0,0,0,0,-1,1140,813,0,0
-77,211,0,0,0,0,0,0,0,0,0,-1,1147,813,0,0
-70,211,0,0,0,0,0,0,0,0,0,-1,1154,813,0,0
-63,211,0,0,0,0,0,0,0,0,0,-1,1161,813,0,0
-56,211,0,0,0,0,0,0,0,0,0,-1,1168,813,0,0
-49,211,0,0,0,0,0,0,0,0,0,-1,1175,813,0,0
-42,211,0,0,0,0,0,0,0,0,0,-1,1182,813,0,0
-35,211,0,0,0,0,0,0,0,0,0,-1,1189,813,0,0
-28,211,0,0,0,0,0,0,0,0,0,-1,1196,813,0,0
-21,211,0,0,0,0,0,0,0,0,0,-1,1203,813,0,0
-14,211,0,0,0,0,0,0,0,0,0,-1,1210,813,0,0
-7,211,0,0,0,0,0,0,0,0,0,-1,1217,813,0,0
0,211,0,0,0,0,0,0,0,0,0,-1,1224,813,0,0
7,211,0,0,0,0,0,0,0,0,0,-1,1231,813,0,0
14,211,0,0,0,0,0,0,0,0,0,-1,1238,813,0,0
21,211,0,0,0,0,0,0,0,0,0,-1,1245,813,0,0
28,211,0,0,0,0,0,0,0,0,0,-1,1252,813,0,0
35,211,0,0,0,0,0,0,0,0,0,-1,1259,813,0,0
42,211,0,0,0,0,0,0,0,0,0,-1,1266,813,0,0
49,211,0,0,0,0,0,0,0,0,0,-1,1273,813,0,0
56,211,0,0,0,0,0,0,0,0,0,-1,1280,813,0,0
63,211,0,0,0,0,0,0,0,0,0,-1,1287,813,0,0
70,211,0,0,0,0,0,0,0,0,0,-1,1294,813,0,0
77,211,0,0,0,0,0,0,0,0,0,-1,1301,813,0,0
84,211,0,0,0,0,0,0,0,0,0,-1,1308,813,0,0
91,211,0,0,0,0,0,0,0,0,0,-1,1315,813,0,0
98,211,0,0,0,0,0,0,0,0,0,-1,1322,813,0,0
105,211,0,0,0,0,0,0,0,0,0,-1,1329,813,0,0
112,211,0,0,0,0,0,0,0,0,0,-1,1336,813,0,0
119,211,0,0,0,0,0,0,0,0,0,-1,1343,813,0,0
126,211,0,0,0,0,0,0,0,0,0,-1,1350,813,0,0
133,211,0,0,0,0,0,0,0,0,0,-1,1357,813,0,0
140,211,0,0,0,0,0,0,0,0,0,-1,1364,813,0,0
147,211,0,0,0,0,0,0,0,0,0,-1,1371,813,0,0
154,211,0,0,0,0,0,0,0,0,0,-1,1378,813,0,0
161,211,0,0,0,0,0,0,0,0,0,-1,1385,813,0,0
168,211,0,0,0,0,0,0,0,0,0,-1,1392,813,0,0
175,211,0,0,0,0,0,0,0,0,0,-1,1399,813,0,0
182,211,0,0,0,0,0,0,0,0,0,-1,1406,813,0,0
189,211,0,0,0,0,0,0,0,0,0,-1,1413,813,0,0
196,211,0,0,0,0,0,0,0,0,0,-1,1420,813,0,0
203,211,0,0,0,0,0,0,0,0,0,-1,1427,813,0,0
210,211,0,0,0,0,0,0,0,0,0,-1,1434,813,0,0
217,211,0,0,0,0,0,0,0,0,0,-1,1441,813,0,0
224,211,0,0,0,0,0,0,0,0,0,-1,1448,813,0,0
231,211,0,0,0,0,0,0,0,0,0,-1,1455,813,0,0
238,211,0,0,0,0,0,0,0,0,0,-1,1462,813,0,0
245,211,0,0,0,0,0,0,0,0,0,-1,1469,813,0,0
252,211,0,0,0,0,0,0,0,0,0,-1,1476,813,0,0
259,211,0,0,0,0,0,0,0,0,0,-1,1483,813,0,0
266,211,0,0,0,0,0,0,0,0,0,-1,1490,813,0,0
273,211,0,0,0,0,0,0,0,0,0,-1,1497,813,0,0
280,211,0,0,0,0,0,0,0,0,0,-1,1504,813,0,0
287,211,0,0,0,0,0,0,0,0,0,-1,1511,813,0,0
294,211,0,0,0,0,0,0,0,0,0,-1,1518,813,0,0
301,211,0,0,0,0,0,0,0,0,0,-1,1525,813,0,0
308,211,0,0,0,0,0,0,0,0,0,-1,1532,813,0,0
315,211,0,0,0,0,0,0,0,0,0,-1,1539,813,0,0
322,211,0,0,0,0,0,0,0,0,0,-1,1546,813,0,0
329,211,0,0,0,0,0,0,0,0,0,-1,1553,813,0,0
336,211,0,0,0,0,0,0,0,0,0,-1,1560,813,0,0
343,211,0,0,0,0,0,0,0,0,0,-1,1567,813,0,0
350,211,0,0,0,0,0,0,0,0,0,-1,1574,813,0,0
357,211,0,0,0,0,0,0,0,0,0,-1,1581,813,0,0
364,211,0,0,0,0,0,0,0,0,0,-1,1588,813,0,0
371,211,0,0,0,0,0,0,0,0,0,-1,1595,813,0,0
378,211,0,0,0,0,0,0,0,0,0,-1,1602,813,0,0
385,211,0,0,0,0,0,0,0,0,0,-1,1609,813,0,0
392,211,0,0,0,0,0,0,0,0,0,-1,1616,813,0,0
399,211,0,0,0,0,0,0,0,0,0,-1,1623,813,0,0
406,211,0,0,0,0,0,0,0,0,0,-1,1630,813,0,0
413,211,0,0,0,0,0,0,0,0,0,-1,1637,813,0,0
420,211,0,0,0,0,0,0,0,0,0,-1,1644,813,0,0
427,211,0,0,0,0,0,0,0,0,0,-1,1651,813,0,0
434,211,0,0,0,0,0,0,0,0,0,-1,1658,813,0,0
441,211,0,0,0,0,0,0,0,0,0,-1,1665,813,0,0
448,211,0,0,0,0,0,0,0,0,0,-1,1672,813,0,0
455,211,0,0,0,0,0,0,0,0,0,-1,1679,813,0,0
462,211,0,0,0,0,0,0,0,0,0,-1,1686,813,0,0
469,211,0,0,0,0,0,0,0,0,0,-1,1693,813,0,0
476,211,0,0,0,0,0,0,0,0,0,-1,1700,813,0,0
483,211,0,0,0,0,0,0,0,0,0,-1,1707,813,0,0
490,211,0,0,0,0,0,0,0,0,0,-1,1714,813,0,0
497,211,0,0,0,0,0,0,0,0,0,-1,1721,813,0,0
504,211,0,0,0,0,0,0,0,0,0,-1,1728,813,0,0
511,211,0,0,0,0,0,0,0,0,0,-1,1735,813,0,0
518,211,0,0,0,0,0,0,0,0,0,-1,1742,813,0,0
525,211,0,0,0,0,0,0,0,0,0,-1,1749,813,0,0
532,211,0,0,0,0,0,0,0,0,0,-1,1756,813,0,0
539,211,0,0,0,0,0,0,0,0,0,-1,1763,813,0,0
546,211,0,0,0,0,0,0,0,0,0,-1,1770,813,0,0
553,211,0,0,0,0,0,0,0,0,0,-1,1777,813,0,0
560,211,0,0,0,0,0,0,0,0,0,-1,1784,813,0,0
567,211,0,0,0,0,0,0,0,0,0,-1,1791,813,0,0
574,211,0,0,0,0,0,0,0,0,0,-1,1798,813,0,0
581,211,0,0,0,0,0,0,0,0,0,-1,1805,813,0,0
588,211,0,0,0,0,0,0,0,0,0,-1,1812,813,0,0
595,211,9.64465,1.40472,0.008973,-0.000368488,0.00525675,0.0113343,-0.00272976,0.422179,0.00861154,0.0384787,1819,813,9.64459,-1.4047
602,211,9.64807,1.51172,0.0056345,-0.00365076,0.00404147,0.00714715,-0.00516342,0.358142,0.0071382,0.0372408,1826,813,9.64808,-1.51172
609,211,9.62158,1.4931,0.00211886,-0.00566533,0.00246352,0.002833,-0.00637946,0.282149,0.0054486,0.037368,1833,813,9.62157,-1.49309
616,211,9.66577,1.40704,-0.00103775,-0.00671878,0.000771691,-0.000934796,-0.00682174,0.132635,0.00427047,0.0302179,1840,813,9.66579,-1.40705
623,211,9.68335,1.33252,-0.00391028,-0.00702078,-0.000850552,-0.00369289,-0.00723817,-0.250226,0.00417925,0.0312783,1847,813,9.68336,-1.33254
630,211,9.70667,1.27185,-0.00607262,-0.00684068,-0.00210981,-0.00431217,-0.00860112,-0.695374,0.00496587,0.0366627,1854,813,9.70661,-1.27183
637,211,9.71301,1.26044,-0.00754073,-0.00631453,-0.00298116,-0.00388408,-0.00997118,-0.886813,0.00580351,0.039496,1861,813,9.71298,-1.26046
644,211,8.74829,0.961731,0,0,0,0,0,0,0,-1,1868,813,8.74833,-0.961745
651,211,8.18127,0.686218,0,0,0,0,0,0,0,-1,1875,813,8.1813,-0.686194
658,211,7.82104,0.416138,0,0,0,0,0,0,0,-1,1882,813,7.82105,-0.416145
665,211,7.90625,0.77594,-0.00930598,-0.00355923,-0.00437675,-0.00119694,-0.0116683,-1.07587,0.00741215,0.0367865,1889,813,7.90626,-0.77595
672,211,7.88159,0.885681,-0.00887711,-0.00308668,-0.00410482,-0.000958766,-0.011005,-1.09254,0.0070389,0.0146382,1896,813,7.88165,-0.885712
679,211,7.88806,0.974121,-0.0077397,-0.00237457,-0.00354337,-0.000612859,-0.00950142,-1.1094,0.00614019,0.0111712,1903,813,7.88801,-0.974142
686,211,7.90088,1.06256,-0.0063774,-0.00188327,-0.00275403,-0.0005759,-0.00768477,-1.12758,0.00494241,0.00945869,1910,813,7.9009,-1.06255
693,211,7.90039,1.13757,-0.0048942,-0.00116657,-0.00203196,-0.000273091,-0.00578768,-1.15653,0.00377072,0.0105868,1917,813,7.90034,-1.1376
700,211,7.86401,1.21185,-0.00319079,-0.000867944,-0.0012735,-0.000305792,-0.00375294,-1.1551,0.00240651,0.0131006,1924,813,7.86402,-1.21186
707,211,7.89038,1.32764,-0.00188513,-0.000373794,-0.000247552,-0.000334279,-0.00192464,-1.41251,0.00118746,0.0197428,1931,813,7.89033,-1.32762
714,211,7.88293,1.41864,-0.000727894,0.000353591,0.00070388,0.000700458,-0.00107476,1.11293,0.00103249,0.0217952,1938,813,7.8829,-1.41866
721,211,7.90112,1.43909,0.00103462,0.0024577,0.00187672,0.00375324,-0.000260919,0.966596,0.00259351,0.0167514,1945,813,7.90113,-1.4391
728,211,7.92859,1.50824,0.0032384,0.00677412,0.00328949,0.0087407,0.00127182,1.03197,0.00545286,0.0158857,1952,813,7.92859,-1.50825
735,211,7.90808,1.60547,0.00530788,0.0117183,0.00482087,0.0143023,0.00272396,1.07877,0.00876903,0.0243353,1959,813,7.90804,-1.60545
742,211,7.85339,1.63379,0.00871068,0.0195366,0.00689756,0.0228915,0.00535571,1.11809,0.013826,0.0420795,1966,813,7.85339,-1.63381
749,211,7.8092,1.67181,0,0,0,0,0,0,0,-1,1973,813,7.80923,-1.6718
756,211,7.45972,1.98181,0,0,0,0,0,0,0,-1,1980,813,7.45974,-1.98183
763,211,7.28076,2.0282,0,0,0,0,0,0,0,-1,1987,813,7.28079,-2.02823
770,211,7.54541,1.18695,0,0,0,0,0,0,0,-1,1994,813,7.54547,-1.18694
777,211,0,0,0,0,0,0,0,0,0,-1,2001,813,0,0
784,211,0,0,0,0,0,0,0,0,0,-1,2008,813,0,0
791,211,0,0,0,0,0,0,0,0,0,-1,2015,813,0,0
798,211,0,0,0,0,0,0,0,0,0,-1,2022,813,0,0
805,211,0,0,0,0,0,0,0,0,0,-1,2029,813,0,0
812,211,0,0,0,0,0,0,0,0,0,-1,2036,813,0,0
-700,204,0,0,0,0,0,0,0,0,0,-1,524,820,0,0
-693,204,0,0,0,0,0,0,0,0,0,-1,531,820,0,0
-686,204,0,0,0,0,0,0,0,0,0,-1,538,820,0,0
-679,204,0,0,0,0,0,0,0,0,0,-1,545,820,0,0
-672,204,0,0,0,0,0,0,0,0,0,-1,552,820,0,0
-665,204,0,0,0,0,0,0,0,0,0,-1,559,820,0,0
-658,204,0,0,0,0,0,0,0,0,0,-1,566,820,0,0
-651,204,0.665405,3.60748,0,0,0,0,0,0,0,-1,573,820,0.665388,-3.60748
-644,204,0.151489,3.43359,0,0,0,0,0,0,0,-1,580,820,0.151489,-3.43362
-637,204,-2.75867,1.995,0.03634,-0.00644641,-0.0189812,0.0435467,-0.0136531,-0.362864,0.0344949,0.0490321,587,820,-2.75866,-1.99499
-630,204,-2.60876,1.49323,0.0221018,-0.00415061,-0.0177668,0.0310653,-0.0131141,-0.467249,0.0261995,0.0440343,594,820,-2.60875,-1.49324
-623,204,-2.67609,1.01379,0.0129069,-0.00299188,-0.0153972,0.0222857,-0.0123706,-0.547101,0.02028,0.0385199,601,820,-2.6761,-1.01382
-616,204,-2.86713,0.863403,0.00723757,-0.0024664,-0.0124901,0.015785,-0.0110139,-0.600136,0.0155539,0.039863,608,820,-2.86714,-0.863395
-609,204,-2.97278,0.980835,0.00403707,-0.00189655,-0.00954045,0.0110614,-0.00892084,-0.634652,0.0115588,0.0340372,615,820,-2.9728,-0.980812
-602,204,-2.98114,0.858215,-0.000923559,-0.000695836,-0.00714927,0.00634047,-0.00795987,-0.793361,0.00827393,0.014499,622,820,-2.98114,-0.858218
-595,204,-2.98816,0.796631,-0.00143059,-0.00176417,-0.00566855,0.00407362,-0.00726838,-0.770691,0.00663433,0.0128694,629,820,-2.98814,-0.796644
-588,204,-2.99097,0.715576,-0.000770324,-0.00116916,-0.00279259,0.00182996,-0.00376945,-0.749754,0.00329683,0.0113984,636,820,-2.99097,-0.715602
-581,204,-2.9809,0.652649,-0.000457377,-0.00173717,-0.000482704,-0.000295731,-0.00189881,-0.32314,0.00117972,0.0117701,643,820,-2.98087,-0.652624
-574,204,-3.01056,0.568115,-0.000577112,-0.00265863,0.00174238,0.000411674,-0.00364742,0.516174,0.00257981,0.0125614,650,820,-3.01055,-0.568142
-567,204,-2.9942,0.486328,-0.0013624,-0.00218102,0.00282677,0.00108454,-0.00462796,0.713499,0.00350323,0.0127873,657,820,-2.9942,-0.486356
-560,204,-2.99475,0.40625,-0.00179408,-0.00211092,0.00355698,0.001608,-0.005513,0.763144,0.00431245,0.012964,664,820,-2.99474,-0.40628
-553,204,-2.98419,0.334229,-0.00178301,-0.00229103,0.00448949,0.00245965,-0.00653369,0.757139,0.00536696,0.0090851,671,820,-2.98417,-0.334203
-546,204,-2.99963,0.288147,-0.001819,-0.00248962,0.00540917,0.00326524,-0.00757387,0.754443,0.00642066,0.0114847,678,820,-2.99961,-0.288141
-539,204,-3.02844,0.206604,-0.00163191,-0.00247687,0.00648817,0.00444752,-0.0085563,0.752886,0.00763166,0.0192879,685,820,-3.02844,-0.206589
-532,204,-3.16626,0.403076,-0.00114203,-0.00281744,0.00750668,0.00557355,-0.00953302,0.729831,0.00882107,0.0445768,692,820,-3.16626,-0.403094
-525,204,-3.19513,0.596558,-0.000526915,-0.0029892,0.0082008,0.00653464,-0.0100508,0.710892,0.00964704,0.0470977,699,820,-3.19515,-0.596574
-518,204,-3.58691,0.624634,0,0,0,0,0,0,0,-1,706,820,-3.58691,-0.624605
-511,204,-4.12988,0.757385,0,0,0,0,0,0,0,-1,713,820,-4.12986,-0.757389
-504,204,-4.4129,0.860596,0.00179383,-0.00216125,0.00889138,0.00892492,-0.00929235,0.675974,0.0105185,0.0449721,720,820,-4.41293,-0.860622
-497,204,-4.40723,0.897766,0.00241513,-0.00151994,0.00822823,0.00890779,-0.00801261,0.668042,0.00977356,0.0394953,727,820,-4.40724,-0.897793
-490,204,-4.45343,0.835449,0.00268879,-0.000661139,0.0067812,0.00799882,-0.00597117,0.664321,0.00809385,0.0358781,734,820,-4.45343,-0.83547
-483,204,-4.40546,0.969727,0.00209833,0.000425027,0.00441458,0.00575484,-0.00323148,0.691749,0.00525599,0.0410367,741,820,-4.40545,-0.969722
-476,204,0,0,0,0,0,0,0,0,0,-1,748,820,0,0
-469,204,0,0,0,0,0,0,0,0,0,-1,755,820,0,0
-462,204,0,0,0,0,0,0,0,0,0,-1,762,820,0,0
-455,204,0,0,0,0,0,0,0,0,0,-1,769,820,0,0
-448,204,0,0,0,0,0,0,0,0,0,-1,776,820,0,0
-441,204,0,0,0,0,0,0,0,0,0,-1,783,820,0,0
-434,204,0,0,0,0,0,0,0,0,0,-1,790,820,0,0
-427,204,0,0,0,0,0,0,0,0,0,-1,797,820,0,0
-420,204,0,0,0,0,0,0,0,0,0,-1,804,820,0,0
-413,204,0,0,0,0,0,0,0,0,0,-1,811,820,0,0
-406,204,0,0,0,0,0,0,0,0,0,-1,818,820,0,0
-399,204,0,0,0,0,0,0,0,0,0,-1,825,820,0,0
-392,204,0,0,0,0,0,0,0,0,0,-1,832,820,0,0
-385,204,0,0,0,0,0,0,0,0,0,-1,839,820,0,0
-378,204,0,0,0,0,0,0,0,0,0,-1,846,820,0,0
-371,204,0,0,0,0,0,0,0,0,0,-1,853,820,0,0
-364,204,0,0,0,0,0,0,0,0,0,-1,860,820,0,0
-357,204,0,0,0,0,0,0,0,0,0,-1,867,820,0,0
-350,204,0,0,0,0,0,0,0,0,0,-1,874,820,0,0
-343,204,0,0,0,0,0,0,0,0,0,-1,881,820,0,0
-336,204,0,0,0,0,0,0,0,0,0,-1,888,820,0,0
-329,204,0,0,0,0,0,0,0,0,0,-1,895,820,0,0
-322,204,0,0,0,0,0,0,0,0,0,-1,902,820,0,0
-315,204,0,0,0,0,0,0,0,0,0,-1,909,820,0,0
-308,204,0,0,0,0,0,0,0,0,0,-1,916,820,0,0
-301,204,0,0,0,0,0,0,0,0,0,-1,923,820,0,0
-294,204,0,0,0,0,0,0,0,0,0,-1,930,820,0,0
-287,204,0,0,0,0,0,0,0,0,0,-1,937,820,0,0
-280,204,0,0,0,0,0,0,0,0,0,-1,944,820,0,0
-273,204,0,0,0,0,0,0,0,0,0,-1,951,820,0,0
-266,204,0,0,0,0,0,0,0,0,0,-1,958,820,0,0
-259,204,0,0,0,0,0,0,0,0,0,-1,965,820,0,0
-252,204,0,0,0,0,0,0,0,0,0,-1,972,820,0,0
-245,204,0,0,0,0,0,0,0,0,0,-1,979,820,0,0
-238,204,0,0,0,0,0,0,0,0,0,-1,986,820,0,0
-231,204,0,0,0,0,0,0,0,0,0,-1,993,820,0,0
-224,204,0,0,0,0,0,0,0,0,0,-1,1000,820,0,0
-217,204,0,0,0,0,0,0,0,0,0,-1,1007,820,0,0
-210,204,0,0,0,0,0,0,0,0,0,-1,1014,820,0,0
-203,204,0,0,0,0,0,0,0,0,0,-1,1021,820,0,0
-196,204,0,0,0,0,0,0,0,0,0,-1,1028,820,0,0
-189,204,0,0,0,0,0,0,0,0,0,-1,1035,820,0,0
-182,204,0,0,0,0,0,0,0,0,0,-1,1042,820,0,0
-175,204,0,0,0,0,0,0,0,0,0,-1,1049,820,0,0
-168,204,0,0,0,0,0,0,0,0,0,-1,1056,820,0,0
-161,204,0,0,0,0,0,0,0,0,0,-1,1063,820,0,0
-154,204,0,0,0,0,0,0,0,0,0,-1,1070,820,0,0
-147,204,0,0,0,0,0,0,0,0,0,-1,1077,820,0,0
-140,204,0,0,0,0,0,0,0,0,0,-1,1084,820,0,0
-133,204,0,0,0,0,0,0,0,0,0,-1,1091,820,0,0
-126,204,0,0,0,0,0,0,0,0,0,-1,1098,820,0,0
-119,204,0,0,0,0,0,0,0,0,0,-1,1105,820,0,0
-112,204,0,0,0,0,0,0,0,0,0,-1,1112,820,0,0
-105,204,0,0,0,0,0,0,0,0,0,-1,1119,820,0,0
-98,204,0,0,0,0,0,0,0,0,0,-1,1126,820,0,0
-91,204,0,0,0,0,0,0,0,0,0,-1,1133,820,0,0
-84,204,0,0,0,0,0,0,0,0,0,-1,1140,820,0,0
-77,204,0,0,0,0,0,0,0,0,0,-1,1147,820,0,0
-70,204,0,0,0,0,0,0,0,0,0,-1,1154,820,0,0
-63,204,0,0,0,0,0,0,0,0,0,-1,1161,820,0,0
-56,204,0,0,0,0,0,0,0,0,0,-1,1168,820,0,0
-49,204,0,0,0,0,0,0,0,0,0,-1,1175,820,0,0
-42,204,0,0,0,0,0,0,0,0,0,-1,1182,820,0,0
-35,204,0,0,0,0,0,0,0,0,0,-1,1189,820,0,0
-28,204,0,0,0,0,0,0,0,0,0,-1,1196,820,0,0
-21,204,0,0,0,0,0,0,0,0,0,-1,1203,820,0,0
-14,204,0,0,0,0,0,0,0,0,0,-1,1210,820,0,0
-7,204,0,0,0,0,0,0,0,0,0,-1,1217,820,0,0
0,204,0,0,0,0,0,0,0,0,0,-1,1224,820,0,0
7,204,0,0,0,0,0,0,0,0,0,-1,1231,820,0,0
14,204,0,0,0,0,0,0,0,0,0,-1,1238,820,0,0
21,204,0,0,0,0,0,0,0,0,0,-1,1245,820,0,0
28,204,0,0,0,0,0,0,0,0,0,-1,1252,820,0,0
35,204,0,0,0,0,0,0,0,0,0,-1,1259,820,0,0
42,204,0,0,0,0,0,0,0,0,0,-1,1266,820,0,0
49,204,0,0,0,0,0,0,0,0,0,-1,1273,820,0,0
56,204,0,0,0,0,0,0,0,0,0,-1,1280,820,0,0
63,204,0,0,0,0,0,0,0,0,0,-1,1287,820,0,0
70,204,0,0,0,0,0,0,0,0,0,-1,1294,820,0,0
77,204,0,0,0,0,0,0,0,0,0,-1,1301,820,0,0
84,204,0,0,0,0,0,0,0,0,0,-1,1308,820,0,0
91,204,0,0,0,0,0,0,0,0,0,-1,1315,820,0,0
98,204,0,0,0,0,0,0,0,0,0,-1,1322,820,0,0
105,204,0,0,0,0,0,0,0,0,0,-1,1329,820,0,0
112,204,0,0,0,0,0,0,0,0,0,-1,1336,820,0,0
119,204,0,0,0,0,0,0,0,0,0,-1,1343,820,0,0
126,204,0,0,0,0,0,0,0,0,0,-1,1350,820,0,0
133,204,0,0,0,0,0,0,0,0,0,-1,1357,820,0,0
140,204,0,0,0,0,0,0,0,0,0,-1,1364,820,0,0
147,204,0,0,0,0,0,0,0,0,0,-1,1371,820,0,0
154,204,0,0,0,0,0,0,0,0,0,-1,1378,820,0,0
161,204,0,0,0,0,0,0,0,0,0,-1,1385,820,0,0
168,204,0,0,0,0,0,0,0,0,0,-1,1392,820,0,0
175,204,0,0,0,0,0,0,0,0,0,-1,1399,820,0,0
182,204,0,0,0,0,0,0,0,0,0,-1,1406,820,0,0
189,204,0,0,0,0,0,0,0,0,0,-1,1413,820,0,0
196,204,0,0,0,0,0,0,0,0,0,-1,1420,820,0,0
203,204,0,0,0,0,0,0,0,0,0,-1,1427,820,0,0
210,204,0,0,0,0,0,0,0,0,0,-1,1434,820,0,0
217,204,0,0,0,0,0,0,0,0,0,-1,1441,820,0,0
224,204,0,0,0,0,0,0,0,0,0,-1,1448,820,0,0
231,204,0,0,0,0,0,0,0,0,0,-1,1455,820,0,0
238,204,0,0,0,0,0,0,0,0,0,-1,1462,820,0,0
245,204,0,0,0,0,0,0,0,0,0,-1,1469,820,0,0
252,204,0,0,0,0,0,0,0,0,0,-1,1476,820,0,0
259,204,0,0,0,0,0,0,0,0,0,-1,1483,820,0,0
266,204,0,0,0,0,0,0,0,0,0,-1,1490,820,0,0
273,204,0,0,0,0,0,0,0,0,0,-1,1497,820,0,0
280,204,0,0,0,0,0,0,0,0,0,-1,1504,820,0,0
287,204,0,0,0,0,0,0,0,0,0,-1,1511,820,0,0
294,204,0,0,0,0,0,0,0,0,0,-1,1518,820,0,0
301,204,0,0,0,0,0,0,0,0,0,-1,1525,820,0,0
308,204,0,0,0,0,0,0,0,0,0,-1,1532,820,0,0
315,204,0,0,0,0,0,0,0,0,0,-1,1539,820,0,0
322,204,0,0,0,0,0,0,0,0,0,-1,1546,820,0,0
329,204,0,0,0,0,0,0,0,0,0,-1,1553,820,0,0
336,204,0,0,0,0,0,0,0,0,0,-1,1560,820,0,0
343,204,0,0,0,0,0,0,0,0,0,-1,1567,820,0,0
350,204,0,0,0,0,0,0,0,0,0,-1,1574,820,0,0
357,204,0,0,0,0,0,0,0,0,0,-1,1581,820,0,0
364,204,0,0,0,0,0,0,0,0,0,-1,1588,820,0,0
371,204,0,0,0,0,0,0,0,0,0,-1,1595,820,0,0
378,204,0,0,0,0,0,0,0,0,0,-1,1602,820,0,0
385,204,0,0,0,0,0,0,0,0,0,-1,1609,820,0,0
392,204,0,0,0,0,0,0,0,0,0,-1,1616,820,0,0
399,204,0,0,0,0,0,0,0,0,0,-1,1623,820,0,0
406,204,0,0,0,0,0,0,0,0,0,-1,1630,820,0,0
413,204,0,0,0,0,0,0,0,0,0,-1,1637,820,0,0
420,204,0,0,0,0,0,0,0,0,0,-1,1644,820,0,0
427,204,0,0,0,0,0,0,0,0,0,-1,1651,820,0,0
434,204,0,0,0,0,0,0,0,0,0,-1,1658,820,0,0
441,204,0,0,0,0,0,0,0,0,0,-1,1665,820,0,0
448,204,0,0,0,0,0,0,0,0,0,-1,1672,820,0,0
455,204,0,0,0,0,0,0,0,0,0,-1,1679,820,0,0
462,204,0,0,0,0,0,0,0,0,0,-1,1686,820,0,0
469,204,0,0,0,0,0,0,0,0,0,-1,1693,820,0,0
476,204,0,0,0,0,0,0,0,0,0,-1,1700,820,0,0
483,204,0,0,0,0,0,0,0,0,0,-1,1707,820,0,0
490,204,0,0,0,0,0,0,0,0,0,-1,1714,820,0,0
497,204,0,0,0,0,0,0,0,0,0,-1,1721,820,0,0
504,204,0,0,0,0,0,0,0,0,0,-1,1728,820,0,0
511,204,0,0,0,0,0,0,0,0,0,-1,1735,820,0,0
518,204,0,0,0,0,0,0,0,0,0,-1,1742,820,0,0
525,204,0,0,0,0,0,0,0,0,0,-1,1749,820,0,0
532,204,0,0,0,0,0,0,0,0,0,-1,1756,820,0,0
539,204,0,0,0,0,0,0,0,0,0,-1,1763,820,0,0
546,204,0,0,0,0,0,0,0,0,0,-1,1770,820,0,0
553,204,0,0,0,0,0,0,0,0,0,-1,1777,820,0,0
560,204,0,0,0,0,0,0,0,0,0,-1,1784,820,0,0
567,204,0,0,0,0,0,0,0,0,0,-1,1791,820,0,0
574,204,0,0,0,0,0,0,0,0,0,-1,1798,820,0,0
581,204,0,0,0,0,0,0,0,0,0,-1,1805,820,0,0
588,204,0,0,0,0,0,0,0,0,0,-1,1812,820,0,0
595,204,0,0,0,0,0,0,0,0,0,-1,1819,820,0,0
602,204,9.6377,1.3902,0.00521826,-0.000565854,0.00305494,0.00653294,-0.00188054,0.40639,0.00509907,0.0384051,1826,820,9.63764,-1.3902
609,204,9.66479,1.41211,0.00208596,-0.00248611,0.00143409,0.00249854,-0.00289869,0.280135,0.00311895,0.0401984,1833,820,9.6648,-1.41211
616,204,9.66516,1.45319,-0.000636319,-0.00374543,-0.000123119,-0.000631451,-0.0037503,-0.0395169,0.00231856,0.0371276,1840,820,9.66518,-1.4532
623,204,9.59985,1.42828,-0.00340632,-0.0044879,-0.00160723,-0.00225134,-0.00564288,-0.623111,0.00328001,0.0276512,1847,820,9.59986,-1.42829
630,204,9.61658,1.36151,-0.00569268,-0.00478333,-0.00275385,-0.00244688,-0.00802913,-0.867212,0.00475198,0.0257312,1854,820,9.61655,-1.36151
637,204,9.63232,1.32648,-0.00736089,-0.00469602,-0.00352466,-0.00226035,-0.00979656,-0.966111,0.00592314,0.0322967,1861,820,9.63231,-1.32646
644,204,9.60071,1.32062,-0.00858491,-0.00451326,-0.003987,-0.0020724,-0.0110258,-1.02145,0.00676635,0.0381786,1868,820,9.60072,-1.32063
651,204,8.95313,0.608032,0,0,0,0,0,0,0,-1,1875,820,8.95309,-0.608009
658,204,8.48962,0.751099,0,0,0,0,0,0,0,-1,1882,820,8.48961,-0.751069
665,204,8.22168,0.820557,-0.00966169,-0.00330801,-0.00448712,-0.000986974,-0.0119827,-1.09343,0.00768065,0.0433296,1889,820,8.2217,-0.820579
672,204,7.97534,0.893372,-0.00948131,-0.00290288,-0.00424719,-0.000820176,-0.011564,-1.11488,0.00745101,0.0206267,1896,820,7.97535,-0.893384
679,204,7.97009,0.953369,-0.00865661,-0.00225523,-0.00372056,-0.000548068,-0.0103638,-1.14061,0.00673393,0.0126773,1903,820,7.97005,-0.953358
686,204,7.9801,1.06537,-0.00749842,-0.00177069,-0.00297691,-0.000503724,-0.00876538,-1.16842,0.00568312,0.00956475,1910,820,7.98011,-1.06537
693,204,7.96411,1.14032,-0.00610014,-0.00108037,-0.00226207,-0.000211423,-0.00696908,-1.20404,0.00457721,0.0147975,1917,820,7.96407,-1.14033
700,204,7.96448,1.22754,-0.00449325,-0.000702261,-0.00146538,-0.000201873,-0.00499364,-1.24174,0.00326388,0.0158188,1924,820,7.9645,-1.22756
707,204,7.95581,1.32855,-0.00326057,-4.83099e-05,-0.000390751,-1.46101e-06,-0.00330742,-1.45147,0.00220446,0.0141848,1931,820,7.95577,-1.32857
714,204,7.96985,1.41547,-0.00212901,0.000871784,0.000626616,0.000997375,-0.0022546,1.37299,0.00192373,0.0229349,1938,820,7.96989,-1.41546
721,204,7.96619,1.43988,-0.000259333,0.00328587,0.00186734,0.00408797,-0.00106143,1.16509,0.00313952,0.0218781,1945,820,7.96624,-1.43988
728,204,7.95569,1.51398,0.00203348,0.00789868,0.0033174,0.00939386,0.000538291,1.14735,0.00609108,0.0137028,1952,820,7.95565,-1.51401
735,204,7.94348,1.60913,0.0039823,0.0128009,0.00473797,0.0148638,0.00191932,1.16014,0.00933545,0.0151708,1959,820,7.94343,-1.6091
742,204,7.94238,1.63654,0.00705579,0.0203916,0.00661319,0.0231149,0.00433246,1.18016,0.014188,0.0291414,1966,820,7.94238,-1.63656
749,204,7.95837,1.69128,0,0,0,0,0,0,0,-1,1973,820,7.95833,-1.69128
756,204,7.50208,1.96021,0,0,0,0,0,0,0,-1,1980,820,7.50207,-1.96021
763,204,7.92517,-0.142944,0,0,0,0,0,0,0,-1,1987,820,7.92513,0.142938
770,204,7.09448,0.836121,0,0,0,0,0,0,0,-1,1994,820,7.09448,-0.836128
777,204,0,0,0,0,0,0,0,0,0,-1,2001,820,0,0
784,204,0,0,0,0,0,0,0,0,0,-1,2008,820,0,0
791,204,0,0,0,0,0,0,0,0,0,-1,2015,820,0,0
798,204,0,0,0,0,0,0,0,0,0,-1,2022,820,0,0
805,204,0,0,0,0,0,0,0,0,0,-1,2029,820,0,0
812,204,0,0,0,0,0,0,0,0,0,-1,2036,820,0,0
-700,197,0,0,0,0,0,0,0,0,0,-1,524,827,0,0
-693,197,0,0,0,0,0,0,0,0,0,-1,531,827,0,0
-686,197,0,0,0,0,0,0,0,0,0,-1,538,827,0,0
-679,197,0,0,0,0,0,0,0,0,0,-1,545,827,0,0
-672,197,0,0,0,0,0,0,0,0,0,-1,552,827,0,0
-665,197,0,0,0,0,0,0,0,0,0,-1,559,827,0,0
-658,197,-3.63043,1.83411,0.116575,-0.0339721,-0.00299205,0.116635,-0.0340315,-0.019864,0.0912411,0.0423589,566,827,-3.63041,-1.83413
-651,197,1.33105,3.29681,0.0786164,-0.0213089,-0.0103352,0.0796741,-0.0223667,-0.101991,0.0619329,0.0452239,573,827,1.33107,-3.2968
-644,197,-2.67633,2.93793,0.0513992,-0.012901,-0.0140712,0.0543437,-0.0158455,-0.206277,0.0425071,0.0470114,580,827,-2.67636,-2.93795
-637,197,-2.49933,2.55981,0.0323209,-0.00748556,-0.01528,0.0375098,-0.0126745,-0.327372,0.0301334,0.0469168,587,827,-2.49934,-2.55978
-630,197,-3.11072,0.595032,0,0,0,0,0,0,0,-1,594,827,-3.11071,-0.595007
-623,197,-2.93274,0.533203,0.0108472,-0.00240833,-0.0130582,0.0188633,-0.0104245,-0.550561,0.0171417,0.0397489,601,827,-2.93274,-0.533217
-616,197,-2.83221,0.650757,0.00559079,-0.00154102,-0.0107943,0.0133929,-0.00934317,-0.625866,0.0131959,0.0416799,608,827,-2.8322,-0.650743
-609,197,-2.9657,0.848511,0.0026836,-0.000818822,-0.00836316,0.00947693,-0.00761215,-0.682191,0.00988594,0.0324546,615,827,-2.96573,-0.848518
-602,197,-3.05981,0.848389,-0.00200404,0.000395655,-0.00631554,0.00562431,-0.0072327,-0.879271,0.00744234,0.0165343,622,827,-3.05984,-0.848401
-595,197,-3.0589,0.792908,-0.00248534,-0.000781306,-0.00509786,0.00353525,-0.0068019,-0.868199,0.00606667,0.0153703,629,827,-3.05891,-0.792924
-588,197,-3.05225,0.712402,-0.00179363,-0.000510343,-0.00241719,0.00134891,-0.00365288,-0.915131,0.00298817,0.0164804,636,827,-3.05223,-0.712409
-581,197,-3.06915,0.653931,-0.00141706,-0.00132691,-0.000195673,-0.00117119,-0.00157278,-0.898598,0.000943588,0.0106984,643,827,-3.06914,-0.653921
-574,197,-3.07111,0.577698,-0.00139945,-0.00245612,0.00198846,0.000129666,-0.00398523,0.655548,0.00270108,0.0121621,650,827,-3.07108,-0.57772
-567,197,-3.07697,0.459534,-0.00206305,-0.00216064,0.00309634,0.000984883,-0.00520857,0.777519,0.00384298,0.0134282,657,827,-3.07694,-0.459545
-560,197,-3.09308,0.401367,-0.00238797,-0.00221776,0.00384678,0.00154485,-0.00615058,0.796458,0.00470073,0.0122891,664,827,-3.09307,-0.40137
-553,197,-3.06342,0.353455,-0.00236851,-0.00233167,0.0047169,0.00236685,-0.00706702,0.787351,0.0056675,0.0101748,671,827,-3.0634,-0.353428
-546,197,-3.04907,0.272827,-0.00244964,-0.00239641,0.00552044,0.00309748,-0.00794353,0.787809,0.00657602,0.0166577,678,827,-3.0491,-0.272846
-539,197,-3.12451,0.280457,-0.00230658,-0.00221963,0.00644636,0.0041834,-0.00870961,0.78877,0.00759514,0.0348226,685,827,-3.12448,-0.280463
-532,197,-3.25238,0.725891,-0.00182836,-0.00228798,0.00719951,0.00514501,-0.00926134,0.769444,0.00842993,0.0454038,692,827,-3.25239,-0.725867
-525,197,-3.35437,1.15411,-0.00123097,-0.00219439,0.00767384,0.00597626,-0.00940162,0.754053,0.00895154,0.0463152,699,827,-3.35436,-1.15412
-518,197,-3.6413,1.00427,0,0,0,0,0,0,0,-1,706,827,-3.6413,-1.00427
-511,197,-4.44971,0.787415,0.000301125,-0.00109626,0.00790162,0.00753488,-0.00833001,0.741301,0.00916343,0.0421261,713,827,-4.44968,-0.787426
-504,197,-4.40778,1.01117,0.00106604,-0.000167382,0.00745194,0.00792675,-0.00702809,0.744113,0.00863937,0.0385485,720,827,-4.40776,-1.01118
-497,197,-4.4837,0.916199,0.00168305,0.0010785,0.00642637,0.00781425,-0.0050527,0.761897,0.00748555,0.0394927,727,827,-4.48368,-0.916207
-490,197,-4.57635,0.651428,0.00189037,0.00267224,0.00468011,0.00697772,-0.00241511,0.827067,0.00563218,0.0399788,734,827,-4.57638,-0.651436
-483,197,-4.27643,1.07355,0.00102444,0.00462357,0.00230627,0.0057493,-0.000101286,1.1167,0.00386707,0.045466,741,827,-4.27641,-1.07352
-476,197,0,0,0,0,0,0,0,0,0,-1,748,827,0,0
-469,197,0,0,0,0,0,0,0,0,0,-1,755,827,0,0
-462,197,0,0,0,0,0,0,0,0,0,-1,762,827,0,0
-455,197,0,0,0,0,0,0,0,0,0,-1,769,827,0,0
-448,197,0,0,0,0,0,0,0,0,0,-1,776,827,0,0
-441,197,0,0,0,0,0,0,0,0,0,-1,783,827,0,0
-434,197,0,0,0,0,0,0,0,0,0,-1,790,827,0,0
-427,197,0,0,0,0,0,0,0,0,0,-1,797,827,0,0
-420,197,0,0,0,0,0,0,0,0,0,-1,804,827,0,0
-413,197,0,0,0,0,0,0,0,0,0,-1,811,827,0,0
-406,197,0,0,0,0,0,0,0,0,0,-1,818,827,0,0
-399,197,0,0,0,0,0,0,0,0,0,-1,825,827,0,0
-392,197,0,0,0,0,0,0,0,0,0,-1,832,827,0,0
-385,197,0,0,0,0,0,0,0,0,0,-1,839,827,0,0
-378,197,0,0,0,0,0,0,0,0,0,-1,846,827,0,0
-371,197,0,0,0,0,0,0,0,0,0,-1,853,827,0,0
-364,197,0,0,0,0,0,0,0,0,0,-1,860,827,0,0
-357,197,0,0,0,0,0,0,0,0,0,-1,867,827,0,0
-350,197,0,0,0,0,0,0,0,0,0,-1,874,827,0,0
-343,197,0,0,0,0,0,0,0,0,0,-1,881,827,0,0
-336,197,0,0,0,0,0,0,0,0,0,-1,888,827,0,0
-329,197,0,0,0,0,0,0,0,0,0,-1,895,827,0,0
-322,197,0,0,0,0,0,0,0,0,0,-1,902,827,0,0
-315,197,0,0,0,0,0,0,0,0,0,-1,909,827,0,0
-308,197,0,0,0,0,0,0,0,0,0,-1,916,827,0,0
-301,197,0,0,0,0,0,0,0,0,0,-1,923,827,0,0
-294,197,0,0,0,0,0,0,0,0,0,-1,930,827,0,0
-287,197,0,0,0,0,0,0,0,0,0,-1,937,827,0,0
-280,197,0,0,0,0,0,0,0,0,0,-1,944,827,0,0
-273,197,0,0,0,0,0,0,0,0,0,-1,951,827,0,0
-266,197,0,0,0,0,0,0,0,0,0,-1,958,827,0,0
-259,197,0,0,0,0,0,0,0,0,0,-1,965,827,0,0
-252,197,0,0,0,0,0,0,0,0,0,-1,972,827,0,0
-245,197,0,0,0,0,0,0,0,0,0,-1,979,827,0,0
-238,197,0,0,0,0,0,0,0,0,0,-1,986,827,0,0
-231,197,0,0,0,0,0,0,0,0,0,-1,993,827,0,0
-224,197,0,0,0,0,0,0,0,0,0,-1,1000,827,0,0
-217,197,0,0,0,0,0,0,0,0,0,-1,1007,827,0,0
-210,197,0,0,0,0,0,0,0,0,0,-1,1014,827,0,0
-203,197,0,0,0,0,0,0,0,0,0,-1,1021,827,0,0
-196,197,0,0,0,0,0,0,0,0,0,-1,1028,827,0,0
-189,197,0,0,0,0,0,0,0,0,0,-1,1035,827,0,0
-182,197,0,0,0,0,0,0,0,0,0,-1,1042,827,0,0
-175,197,0,0,0,0,0,0,0,0,0,-1,1049,827,0,0
-168,197,0,0,0,0,0,0,0,0,0,-1,1056,827,0,0
-161,197,0,0,0,0,0,0,0,0,0,-1,1063,827,0,0
-154,197,0,0,0,0,0,0,0,0,0,-1,1070,827,0,0
-147,197,0,0,0,0,0,0,0,0,0,-1,1077,827,0,0
-140,197,0,0,0,0,0,0,0,0,0,-1,1084,827,0,0
-133,197,0,0,0,0,0,0,0,0,0,-1,1091,827,0,0
-126,197,0,0,0,0,0,0,0,0,0,-1,1098,827,0,0
-119,197,0,0,0,0,0,0,0,0,0,-1,1105,827,0,0
-112,197,0,0,0,0,0,0,0,0,0,-1,1112,827,0,0
-105,197,0,0,0,0,0,0,0,0,0,-1,1119,827,0,0
-98,197,0,0,0,0,0,0,0,0,0,-1,1126,827,0,0
-91,197,0,0,0,0,0,0,0,0,0,-1,1133,827,0,0
-84,197,0,0,0,0,0,0,0,0,0,-1,1140,827,0,0
-77,197,0,0,0,0,0,0,0,0,0,-1,1147,827,0,0
-70,197,0,0,0,0,0,0,0,0,0,-1,1154,827,0,0
-63,197,0,0,0,0,0,0,0,0,0,-1,1161,827,0,0
-56,197,0,0,0,0,0,0,0,0,0,-1,1168,827,0,0
-49,197,0,0,0,0,0,0,0,0,0,-1,1175,827,0,0
-42,197,0,0,0,0,0,0,0,0,0,-1,1182,827,0,0
-35,197,0,0,0,0,0,0,0,0,0,-1,1189,827,0,0
-28,197,0,0,0,0,0,0,0,0,0,-1,1196,827,0,0
-21,197,0,0,0,0,0,0,0,0,0,-1,1203,827,0,0
-14,197,0,0,0,0,0,0,0,0,0,-1,1210,827,0,0
-7,197,0,0,0,0,0,0,0,0,0,-1,1217,827,0,0
0,197,0,0,0,0,0,0,0,0,0,-1,1224,827,0,0
7,197,0,0,0,0,0,0,0,0,0,-1,1231,827,0,0
14,197,0,0,0,0,0,0,0,0,0,-1,1238,827,0,0
21,197,0,0,0,0,0,0,0,0,0,-1,1245,827,0,0
28,197,0,0,0,0,0,0,0,0,0,-1,1252,827,0,0
35,197,0,0,0,0,0,0,0,0,0,-1,1259,827,0,0
42,197,0,0,0,0,0,0,0,0,0,-1,1266,827,0,0
49,197,0,0,0,0,0,0,0,0,0,-1,1273,827,0,0
56,197,0,0,0,0,0,0,0,0,0,-1,1280,827,0,0
63,197,0,0,0,0,0,0,0,0,0,-1,1287,827,0,0
70,197,0,0,0,0,0,0,0,0,0,-1,1294,827,0,0
77,197,0,0,0,0,0,0,0,0,0,-1,1301,827,0,0
84,197,0,0,0,0,0,0,0,0,0,-1,1308,827,0,0
91,197,0,0,0,0,0,0,0,0,0,-1,1315,827,0,0
98,197,0,0,0,0,0,0,0,0,0,-1,1322,827,0,0
105,197,0,0,0,0,0,0,0,0,0,-1,1329,827,0,0
112,197,0,0,0,0,0,0,0,0,0,-1,1336,827,0,0
119,197,0,0,0,0,0,0,0,0,0,-1,1343,827,0,0
126,197,0,0,0,0,0,0,0,0,0,-1,1350,827,0,0
133,197,0,0,0,0,0,0,0,0,0,-1,1357,827,0,0
140,197,0,0,0,0,0,0,0,0,0,-1,1364,827,0,0
147,197,0,0,0,0,0,0,0,0,0,-1,1371,827,0,0
154,197,0,0,0,0,0,0,0,0,0,-1,1378,827,0,0
161,197,0,0,0,0,0,0,0,0,0,-1,1385,827,0,0
168,197,0,0,0,0,0,0,0,0,0,-1,1392,827,0,0
175,197,0,0,0,0,0,0,0,0,0,-1,1399,827,0,0
182,197,0,0,0,0,0,0,0,0,0,-1,1406,827,0,0
189,197,0,0,0,0,0,0,0,0,0,-1,1413,827,0,0
196,197,0,0,0,0,0,0,0,0,0,-1,1420,827,0,0
203,197,0,0,0,0,0,0,0,0,0,-1,1427,827,0,0
210,197,0,0,0,0,0,0,0,0,0,-1,1434,827,0,0
217,197,0,0,0,0,0,0,0,0,0,-1,1441,827,0,0
224,197,0,0,0,0,0,0,0,0,0,-1,1448,827,0,0
231,197,0,0,0,0,0,0,0,0,0,-1,1455,827,0,0
238,197,0,0,0,0,0,0,0,0,0,-1,1462,827,0,0
245,197,0,0,0,0,0,0,0,0,0,-1,1469,827,0,0
252,197,0,0,0,0,0,0,0,0,0,-1,1476,827,0,0
259,197,0,0,0,0,0,0,0,0,0,-1,1483,827,0,0
266,197,0,0,0,0,0,0,0,0,0,-1,1490,827,0,0
273,197,0,0,0,0,0,0,0,0,0,-1,1497,827,0,0
280,197,0,0,0,0,0,0,0,0,0,-1,1504,827,0,0
287,197,0,0,0,0,0,0,0,0,0,-1,1511,827,0,0
294,197,0,0,0,0,0,0,0,0,0,-1,1518,827,0,0
301,197,0,0,0,0,0,0,0,0,0,-1,1525,827,0,0
308,197,0,0,0,0,0,0,0,0,0,-1,1532,827,0,0
315,197,0,0,0,0,0,0,0,0,0,-1,1539,827,0,0
322,197,0,0,0,0,0,0,0,0,0,-1,1546,827,0,0
329,197,0,0,0,0,0,0,0,0,0,-1,1553,827,0,0
336,197,0,0,0,0,0,0,0,0,0,-1,1560,827,0,0
343,197,0,0,0,0,0,0,0,0,0,-1,1567,827,0,0
350,197,0,0,0,0,0,0,0,0,0,-1,1574,827,0,0
357,197,0,0,0,0,0,0,0,0,0,-1,1581,827,0,0
364,197,0,0,0,0,0,0,0,0,0,-1,1588,827,0,0
371,197,0,0,0,0,0,0,0,0,0,-1,1595,827,0,0
378,197,0,0,0,0,0,0,0,0,0,-1,1602,827,0,0
385,197,0,0,0,0,0,0,0,0,0,-1,1609,827,0,0
392,197,0,0,0,0,0,0,0,0,0,-1,1616,827,0,0
399,197,0,0,0,0,0,0,0,0,0,-1,1623,827,0,0
406,197,0,0,0,0,0,0,0,0,0,-1,1630,827,0,0
413,197,0,0,0,0,0,0,0,0,0,-1,1637,827,0,0
420,197,0,0,0,0,0,0,0,0,0,-1,1644,827,0,0
427,197,0,0,0,0,0,0,0,0,0,-1,1651,827,0,0
434,197,0,0,0,0,0,0,0,0,0,-1,1658,827,0,0
441,197,0,0,0,0,0,0,0,0,0,-1,1665,827,0,0
448,197,0,0,0,0,0,0,0,0,0,-1,1672,827,0,0
455,197,0,0,0,0,0,0,0,0,0,-1,1679,827,0,0
462,197,0,0,0,0,0,0,0,0,0,-1,1686,827,0,0
469,197,0,0,0,0,0,0,0,0,0,-1,1693,827,0,0
476,197,0,0,0,0,0,0,0,0,0,-1,1700,827,0,0
483,197,0,0,0,0,0,0,0,0,0,-1,1707,827,0,0
490,197,0,0,0,0,0,0,0,0,0,-1,1714,827,0,0
497,197,0,0,0,0,0,0,0,0,0,-1,1721,827,0,0
504,197,0,0,0,0,0,0,0,0,0,-1,1728,827,0,0
511,197,0,0,0,0,0,0,0,0,0,-1,1735,827,0,0
518,197,0,0,0,0,0,0,0,0,0,-1,1742,827,0,0
525,197,0,0,0,0,0,0,0,0,0,-1,1749,827,0,0
532,197,0,0,0,0,0,0,0,0,0,-1,1756,827,0,0
539,197,0,0,0,0,0,0,0,0,0,-1,1763,827,0,0
546,197,0,0,0,0,0,0,0,0,0,-1,1770,827,0,0
553,197,0,0,0,0,0,0,0,0,0,-1,1777,827,0,0
560,197,0,0,0,0,0,0,0,0,0,-1,1784,827,0,0
567,197,0,0,0,0,0,0,0,0,0,-1,1791,827,0,0
574,197,0,0,0,0,0,0,0,0,0,-1,1798,827,0,0
581,197,0,0,0,0,0,0,0,0,0,-1,1805,827,0,0
588,197,0,0,0,0,0,0,0,0,0,-1,1812,827,0,0
595,197,0,0,0,0,0,0,0,0,0,-1,1819,827,0,0
602,197,9.5675,1.36285,0.00541231,0.00216589,0.00225665,0.0065689,0.0010093,0.473617,0.00408461,0.0399089,1826,827,9.56756,-1.36283
609,197,9.6051,1.37463,0.00304402,2.59465e-06,0.000663975,0.00318265,-0.000136039,0.205836,0.00216854,0.0401782,1833,827,9.60514,-1.37461
616,197,9.68164,1.38171,0.00100002,-0.00152478,-0.000738825,0.00120033,-0.00172509,-0.264754,0.00169802,0.0401909,1840,827,9.6817,-1.38173
623,197,9.61121,1.36591,-0.0016509,-0.00268968,-0.00209488,-1.19861e-05,-0.00432859,-0.663882,0.00288174,0.0347715,1847,827,9.6112,-1.36588
630,197,9.60254,1.3374,-0.00420196,-0.00336835,-0.00317098,-0.000586897,-0.00698341,-0.850746,0.00447283,0.0287171,1854,827,9.6025,-1.3374
637,197,9.62256,1.32098,-0.00628036,-0.00361556,-0.00389145,-0.000834724,-0.00906119,-0.950338,0.00578267,0.0277302,1861,827,9.6225,-1.32096
644,197,9.62524,1.3446,-0.00782724,-0.00368538,-0.00430802,-0.000976369,-0.0105363,-1.00945,0.00672239,0.0345724,1868,827,9.62525,-1.3446
651,197,9.39307,1.63007,-0.00887276,-0.00353581,-0.00456262,-0.000918621,-0.01149,-1.05,0.00737286,0.0429689,1875,827,9.39311,-1.63004
658,197,9.59314,1.33612,0,0,0,0,0,0,0,-1,1882,827,9.59313,-1.33612
665,197,9.01819,1.15796,-0.00984273,-0.00309531,-0.00464044,-0.000731806,-0.0122062,-1.09971,0.00790485,0.0442926,1889,827,9.01824,-1.15794
672,197,8.19849,0.959717,-0.00988089,-0.00273005,-0.00443814,-0.000606289,-0.0120047,-1.12447,0.00780885,0.0305124,1896,827,8.19853,-0.95969
679,197,8.09119,0.987244,-0.00935999,-0.00219479,-0.00391673,-0.0004693,-0.0110855,-1.15584,0.00723896,0.0142934,1903,827,8.0912,-0.987273
686,197,8.05847,1.05621,-0.00839969,-0.00166933,-0.00324797,-0.000357571,-0.00971145,-1.18696,0.00635846,0.010901,1910,827,8.05852,-1.05618
693,197,8.03381,1.15765,-0.00708158,-0.00104945,-0.00258324,-9.44003e-05,-0.00803663,-1.21667,0.00532656,0.0146385,1917,827,8.03376,-1.15767
700,197,8.02429,1.23474,-0.00557686,-0.000649087,-0.00180259,-6.00934e-05,-0.00616585,-1.25498,0.00409068,0.0199287,1924,827,8.02424,-1.23471
707,197,8.05774,1.32446,-0.00440773,8.90854e-05,-0.000756959,0.000213087,-0.00453173,-1.40842,0.00309463,0.00844812,1931,827,8.05768,-1.32443
714,197,8.04211,1.40491,-0.00327035,0.00110978,0.000239134,0.00112279,-0.00328337,1.51642,0.00264388,0.0108942,1938,827,8.04215,-1.40489
721,197,8.03687,1.4649,-0.00127508,0.00367873,0.00146195,0.004078,-0.00167434,1.30419,0.0034164,0.0116318,1945,827,8.03681,-1.46492
728,197,8.0271,1.5517,0.00114541,0.00835453,0.00289803,0.00937506,0.000124887,1.23221,0.00620883,0.0106555,1952,827,8.02715,-1.5517
735,197,8.01501,1.6192,0.00309598,0.0130059,0.00410051,0.0144826,0.00161931,1.22514,0.00916309,0.0110703,1959,827,8.01502,-1.61923
742,197,8.01233,1.69025,0.005954,0.0199749,0.00548272,0.0218642,0.00406464,1.23894,0.0134279,0.0194231,1966,827,8.01236,-1.69027
749,197,8.02576,1.83246,0.0105497,0.0298972,0.00729325,0.0323384,0.00810842,1.24779,0.0194286,0.0450677,1973,827,8.02578,-1.83246
756,197,8.0155,1.9729,0,0,0,0,0,0,0,-1,1980,827,8.01545,-1.9729
763,197,8.37952,-1.27838,0,0,0,0,0,0,0,-1,1987,827,8.37955,1.27835
770,197,6.8822,5.51611,0,0,0,0,0,0,0,-1,1994,827,6.88223,-5.51613
777,197,0,0,0,0,0,0,0,0,0,-1,2001,827,0,0
784,197,0,0,0,0,0,0,0,0,0,-1,2008,827,0,0
791,197,0,0,0,0,0,0,0,0,0,-1,2015,827,0,0
798,197,0,0,0,0,0,0,0,0,0,-1,2022,827,0,0
805,197,0,0,0,0,0,0,0,0,0,-1,2029,827,0,0
812,197,0,0,0,0,0,0,0,0,0,-1,2036,827,0,0
-700,190,0,0,0,0,0,0,0,0,0,-1,524,834,0,0
-693,190,0,0,0,0,0,0,0,0,0,-1,531,834,0,0
-686,190,0,0,0,0,0,0,0,0,0,-1,538,834,0,0
-679,190,0,0,0,0,0,0,0,0,0,-1,545,834,0,0
-672,190,0,0,0,0,0,0,0,0,0,-1,552,834,0,0
-665,190,0,0,0,0,0,0,0,0,0,-1,559,834,0,0
-658,190,-3.36926,2.97339,0.0997385,-0.0383873,-0.00132897,0.0997513,-0.0384001,-0.00962028,0.0823417,0.0459155,566,834,-3.36925,-2.97337
-651,190,-2.57837,3.58197,0.0685401,-0.0245446,-0.00782009,0.0691925,-0.025197,-0.0832331,0.0564345,0.0448945,573,834,-2.5784,-3.58196
-644,190,-2.05627,4.17334,0.0454501,-0.0148839,-0.0113212,0.0475044,-0.0169383,-0.17951,0.0385759,0.0456123,580,834,-2.05625,-4.17334
-637,190,-2.04095,3.53571,0.028777,-0.00834552,-0.0126665,0.0326871,-0.0122556,-0.299413,0.0268265,0.0481833,587,834,-2.04094,-3.5357
-630,190,-3.61951,2.83893,0.0171139,-0.00417963,-0.0124576,0.0228545,-0.0099202,-0.431807,0.0194074,0.0466806,594,834,-3.61953,-2.83892
-623,190,-3.198,0.987976,0,0,0,0,0,0,0,-1,601,834,-3.19797,-0.987971
-616,190,-3.16553,0.867065,0.00438148,-0.000466779,-0.00943185,0.0116957,-0.00778104,-0.659613,0.0113204,0.0436945,608,834,-3.1655,-0.867062
-609,190,-3.12048,0.862061,0.00166417,0.00040603,-0.00737438,0.00843627,-0.00636607,-0.742849,0.00857395,0.0231869,615,834,-3.1205,-0.86207
-602,190,-3.12451,0.825867,-0.00274969,0.0015916,-0.00551144,0.00534444,-0.00650253,-0.972992,0.00685074,0.014349,622,834,-3.12449,-0.825895
-595,190,-3.13971,0.774963,-0.00328607,0.000308487,-0.00441468,0.00327771,-0.0062553,-0.97871,0.00559267,0.0172856,629,834,-3.13971,-0.774976
-588,190,-3.15393,0.703369,-0.00266008,0.000182563,-0.00190918,0.00114139,-0.00361891,-1.10537,0.00286976,0.0142205,636,834,-3.15391,-0.703349
-581,190,-3.14508,0.643799,-0.00232877,-0.000924233,0.000213084,-0.000892617,-0.00236038,1.4235,0.00137619,0.0100254,643,834,-3.14511,-0.643793
-574,190,-3.13123,0.5625,-0.00227033,-0.00222441,0.00231757,7.03118e-05,-0.00456505,0.790351,0.00306707,0.00990713,650,834,-3.13125,-0.56247
-567,190,-3.13531,0.476501,-0.00283389,-0.00212324,0.00342086,0.000960703,-0.00591783,0.837147,0.00430137,0.0114332,657,834,-3.13532,-0.476514
-560,190,-3.16162,0.410461,-0.00304933,-0.00230051,0.00416369,0.00150557,-0.00685542,0.830239,0.00514608,0.0133157,664,834,-3.1616,-0.410445
-553,190,-3.14819,0.347778,-0.00300153,-0.00232724,0.0049547,0.00230177,-0.00763055,0.819369,0.00600323,0.0118069,671,834,-3.14818,-0.347752
-546,190,-3.13416,0.261536,-0.0030778,-0.00224598,0.00565616,0.00300954,-0.00833332,0.822098,0.00678498,0.0222273,678,834,-3.13413,-0.261565
-539,190,-3.09845,0.179932,-0.00283423,-0.00188782,0.0064052,0.00406163,-0.00878368,0.82227,0.00758144,0.0379808,685,834,-3.09847,-0.179912
-532,190,-3.33899,0.471802,-0.00220899,-0.00167148,0.00690811,0.0049731,-0.00885357,0.804841,0.00808695,0.0468822,692,834,-3.339,-0.47183
-525,190,-3.85681,0.848572,0,0,0,0,0,0,0,-1,699,834,-3.85683,-0.848584
-518,190,-4.49689,0.759094,-0.000546762,-0.000461412,0.00715887,0.00665491,-0.00766309,0.788379,0.00827333,0.0478679,706,834,-4.49687,-0.7591
-511,190,-4.44623,0.781372,0.000481815,0.000673233,0.00679742,0.00737562,-0.00622057,0.792438,0.0078592,0.0425407,713,834,-4.44623,-0.781346
-504,190,-4.38794,1.13336,0.00146422,0.00219319,0.00596952,0.00780935,-0.00415194,0.815889,0.00701264,0.0419535,720,834,-4.38791,-1.13339
-497,190,-4.28497,1.32697,0,0,0,0,0,0,0,-1,727,834,-4.28498,-1.32696
-490,190,-4.35931,1.40021,0,0,0,0,0,0,0,-1,734,834,-4.35934,-1.40019
-483,190,0,0,0,0,0,0,0,0,0,-1,741,834,0,0
-476,190,0,0,0,0,0,0,0,0,0,-1,748,834,0,0
-469,190,0,0,0,0,0,0,0,0,0,-1,755,834,0,0
-462,190,0,0,0,0,0,0,0,0,0,-1,762,834,0,0
-455,190,0,0,0,0,0,0,0,0,0,-1,769,834,0,0
-448,190,0,0,0,0,0,0,0,0,0,-1,776,834,0,0
-441,190,0,0,0,0,0,0,0,0,0,-1,783,834,0,0
-434,190,0,0,0,0,0,0,0,0,0,-1,790,834,0,0
-427,190,0,0,0,0,0,0,0,0,0,-1,797,834,0,0
-420,190,0,0,0,0,0,0,0,0,0,-1,804,834,0,0
-413,190,0,0,0,0,0,0,0,0,0,-1,811,834,0,0
-406,190,0,0,0,0,0,0,0,0,0,-1,818,834,0,0
-399,190,0,0,0,0,0,0,0,0,0,-1,825,834,0,0
-392,190,0,0,0,0,0,0,0,0,0,-1,832,834,0,0
-385,190,0,0,0,0,0,0,0,0,0,-1,839,834,0,0
-378,190,0,0,0,0,0,0,0,0,0,-1,846,834,0,0
-371,190,0,0,0,0,0,0,0,0,0,-1,853,834,0,0
-364,190,0,0,0,0,0,0,0,0,0,-1,860,834,0,0
-357,190,0,0,0,0,0,0,0,0,0,-1,867,834,0,0
-350,190,0,0,0,0,0,0,0,0,0,-1,874,834,0,0
-343,190,0,0,0,0,0,0,0,0,0,-1,881,834,0,0
-336,190,0,0,0,0,0,0,0,0,0,-1,888,834,0,0
-329,190,0,0,0,0,0,0,0,0,0,-1,895,834,0,0
-322,190,0,0,0,0,0,0,0,0,0,-1,902,834,0,0
-315,190,0,0,0,0,0,0,0,0,0,-1,909,834,0,0
-308,190,0,0,0,0,0,0,0,0,0,-1,916,834,0,0
-301,190,0,0,0,0,0,0,0,0,0,-1,923,834,0,0
-294,190,0,0,0,0,0,0,0,0,0,-1,930,834,0,0
-287,190,0,0,0,0,0,0,0,0,0,-1,937,834,0,0
-280,190,0,0,0,0,0,0,0,0,0,-1,944,834,0,0
-273,190,0,0,0,0,0,0,0,0,0,-1,951,834,0,0
-266,190,0,0,0,0,0,0,0,0,0,-1,958,834,0,0
-259,190,0,0,0,0,0,0,0,0,0,-1,965,834,0,0
-252,190,0,0,0,0,0,0,0,0,0,-1,972,834,0,0
-245,190,0,0,0,0,0,0,0,0,0,-1,979,834,0,0
-238,190,0,0,0,0,0,0,0,0,0,-1,986,834,0,0
-231,190,0,0,0,0,0,0,0,0,0,-1,993,834,0,0
-224,190,0,0,0,0,0,0,0,0,0,-1,1000,834,0,0
-217,190,0,0,0,0,0,0,0,0,0,-1,1007,834,0,0
-210,190,0,0,0,0,0,0,0,0,0,-1,1014,834,0,0
-203,190,0,0,0,0,0,0,0,0,0,-1,1021,834,0,0
-196,190,0,0,0,0,0,0,0,0,0,-1,1028,834,0,0
-189,190,0,0,0,0,0,0,0,0,0,-1,1035,834,0,0
-182,190,0,0,0,0,0,0,0,0,0,-1,1042,834,0,0
-175,190,0,0,0,0,0,0,0,0,0,-1,1049,834,0,0
-168,190,0,0,0,0,0,0,0,0,0,-1,1056,834,0,0
-161,190,0,0,0,0,0,0,0,0,0,-1,1063,834,0,0
-154,190,0,0,0,0,0,0,0,0,0,-1,1070,834,0,0
-147,190,0,0,0,0,0,0,0,0,0,-1,1077,834,0,0
-140,190,0,0,0,0,0,0,0,0,0,-1,1084,834,0,0
-133,190,0,0,0,0,0,0,0,0,0,-1,1091,834,0,0
-126,190,0,0,0,0,0,0,0,0,0,-1,1098,834,0,0
-119,190,0,0,0,0,0,0,0,0,0,-1,1105,834,0,0
-112,190,0,0,0,0,0,0,0,0,0,-1,1112,834,0,0
-105,190,0,0,0,0,0,0,0,0,0,-1,1119,834,0,0
-98,190,0,0,0,0,0,0,0,0,0,-1,1126,834,0,0
-91,190,0,0,0,0,0,0,0,0,0,-1,1133,834,0,0
-84,190,0,0,0,0,0,0,0,0,0,-1,1140,834,0,0
-77,190,0,0,0,0,0,0,0,0,0,-1,1147,834,0,0
-70,190,0,0,0,0,0,0,0,0,0,-1,1154,834,0,0
-63,190,0,0,0,0,0,0,0,0,0,-1,1161,834,0,0
-56,190,0,0,0,0,0,0,0,0,0,-1,1168,834,0,0
-49,190,0,0,0,0,0,0,0,0,0,-1,1175,834,0,0
-42,190,0,0,0,0,0,0,0,0,0,-1,1182,834,0,0
-35,190,0,0,0,0,0,0,0,0,0,-1,1189,834,0,0
-28,190,0,0,0,0,0,0,0,0,0,-1,1196,834,0,0
-21,190,0,0,0,0,0,0,0,0,0,-1,1203,834,0,0
-14,190,0,0,0,0,0,0,0,0,0,-1,1210,834,0,0
-7,190,0,0,0,0,0,0,0,0,0,-1,1217,834,0,0
0,190,0,0,0,0,0,0,0,0,0,-1,1224,834,0,0
7,190,0,0,0,0,0,0,0,0,0,-1,1231,834,0,0
14,190,0,0,0,0,0,0,0,0,0,-1,1238,834,0,0
21,190,0,0,0,0,0,0,0,0,0,-1,1245,834,0,0
28,190,0,0,0,0,0,0,0,0,0,-1,1252,834,0,0
35,190,0,0,0,0,0,0,0,0,0,-1,1259,834,0,0
42,190,0,0,0,0,0,0,0,0,0,-1,1266,834,0,0
49,190,0,0,0,0,0,0,0,0,0,-1,1273,834,0,0
56,190,0,0,0,0,0,0,0,0,0,-1,1280,834,0,0
63,190,0,0,0,0,0,0,0,0,0,-1,1287,834,0,0
70,190,0,0,0,0,0,0,0,0,0,-1,1294,834,0,0
77,190,0,0,0,0,0,0,0,0,0,-1,1301,834,0,0
84,190,0,0,0,0,0,0,0,0,0,-1,1308,834,0,0
91,190,0,0,0,0,0,0,0,0,0,-1,1315,834,0,0
98,190,0,0,0,0,0,0,0,0,0,-1,1322,834,0,0
105,190,0,0,0,0,0,0,0,0,0,-1,1329,834,0,0
112,190,0,0,0,0,0,0,0,0,0,-1,1336,834,0,0
119,190,0,0,0,0,0,0,0,0,0,-1,1343,834,0,0
126,190,0,0,0,0,0,0,0,0,0,-1,1350,834,0,0
133,190,0,0,0,0,0,0,0,0,0,-1,1357,834,0,0
140,190,0,0,0,0,0,0,0,0,0,-1,1364,834,0,0
147,190,0,0,0,0,0,0,0,0,0,-1,1371,834,0,0
154,190,0,0,0,0,0,0,0,0,0,-1,1378,834,0,0
161,190,0,0,0,0,0,0,0,0,0,-1,1385,834,0,0
168,190,0,0,0,0,0,0,0,0,0,-1,1392,834,0,0
175,190,0,0,0,0,0,0,0,0,0,-1,1399,834,0,0
182,190,0,0,0,0,0,0,0,0,0,-1,1406,834,0,0
189,190,0,0,0,0,0,0,0,0,0,-1,1413,834,0,0
196,190,0,0,0,0,0,0,0,0,0,-1,1420,834,0,0
203,190,0,0,0,0,0,0,0,0,0,-1,1427,834,0,0
210,190,0,0,0,0,0,0,0,0,0,-1,1434,834,0,0
217,190,0,0,0,0,0,0,0,0,0,-1,1441,834,0,0
224,190,0,0,0,0,0,0,0,0,0,-1,1448,834,0,0
231,190,0,0,0,0,0,0,0,0,0,-1,1455,834,0,0
238,190,0,0,0,0,0,0,0,0,0,-1,1462,834,0,0
245,190,0,0,0,0,0,0,0,0,0,-1,1469,834,0,0
252,190,0,0,0,0,0,0,0,0,0,-1,1476,834,0,0
259,190,0,0,0,0,0,0,0,0,0,-1,1483,834,0,0
266,190,0,0,0,0,0,0,0,0,0,-1,1490,834,0,0
273,190,0,0,0,0,0,0,0,0,0,-1,1497,834,0,0
280,190,0,0,0,0,0,0,0,0,0,-1,1504,834,0,0
287,190,0,0,0,0,0,0,0,0,0,-1,1511,834,0,0
294,190,0,0,0,0,0,0,0,0,0,-1,1518,834,0,0
301,190,0,0,0,0,0,0,0,0,0,-1,1525,834,0,0
308,190,0,0,0,0,0,0,0,0,0,-1,1532,834,0,0
315,190,0,0,0,0,0,0,0,0,0,-1,1539,834,0,0
322,190,0,0,0,0,0,0,0,0,0,-1,1546,834,0,0
329,190,0,0,0,0,0,0,0,0,0,-1,1553,834,0,0
336,190,0,0,0,0,0,0,0,0,0,-1,1560,834,0,0
343,190,0,0,0,0,0,0,0,0,0,-1,1567,834,0,0
350,190,0,0,0,0,0,0,0,0,0,-1,1574,834,0,0
357,190,0,0,0,0,0,0,0,0,0,-1,1581,834,0,0
364,190,0,0,0,0,0,0,0,0,0,-1,1588,834,0,0
371,190,0,0,0,0,0,0,0,0,0,-1,1595,834,0,0
378,190,0,0,0,0,0,0,0,0,0,-1,1602,834,0,0
385,190,0,0,0,0,0,0,0,0,0,-1,1609,834,0,0
392,190,0,0,0,0,0,0,0,0,0,-1,1616,834,0,0
399,190,0,0,0,0,0,0,0,0,0,-1,1623,834,0,0
406,190,0,0,0,0,0,0,0,0,0,-1,1630,834,0,0
413,190,0,0,0,0,0,0,0,0,0,-1,1637,834,0,0
420,190,0,0,0,0,0,0,0,0,0,-1,1644,834,0,0
427,190,0,0,0,0,0,0,0,0,0,-1,1651,834,0,0
434,190,0,0,0,0,0,0,0,0,0,-1,1658,834,0,0
441,190,0,0,0,0,0,0,0,0,0,-1,1665,834,0,0
448,190,0,0,0,0,0,0,0,0,0,-1,1672,834,0,0
455,190,0,0,0,0,0,0,0,0,0,-1,1679,834,0,0
462,190,0,0,0,0,0,0,0,0,0,-1,1686,834,0,0
469,190,0,0,0,0,0,0,0,0,0,-1,1693,834,0,0
476,190,0,0,0,0,0,0,0,0,0,-1,1700,834,0,0
483,190,0,0,0,0,0,0,0,0,0,-1,1707,834,0,0
490,190,0,0,0,0,0,0,0,0,0,-1,1714,834,0,0
497,190,0,0,0,0,0,0,0,0,0,-1,1721,834,0,0
504,190,0,0,0,0,0,0,0,0,0,-1,1728,834,0,0
511,190,0,0,0,0,0,0,0,0,0,-1,1735,834,0,0
518,190,0,0,0,0,0,0,0,0,0,-1,1742,834,0,0
525,190,0,0,0,0,0,0,0,0,0,-1,1749,834,0,0
532,190,0,0,0,0,0,0,0,0,0,-1,1756,834,0,0
539,190,0,0,0,0,0,0,0,0,0,-1,1763,834,0,0
546,190,0,0,0,0,0,0,0,0,0,-1,1770,834,0,0
553,190,0,0,0,0,0,0,0,0,0,-1,1777,834,0,0
560,190,0,0,0,0,0,0,0,0,0,-1,1784,834,0,0
567,190,0,0,0,0,0,0,0,0,0,-1,1791,834,0,0
574,190,0,0,0,0,0,0,0,0,0,-1,1798,834,0,0
581,190,0,0,0,0,0,0,0,0,0,-1,1805,834,0,0
588,190,0,0,0,0,0,0,0,0,0,-1,1812,834,0,0
595,190,0,0,0,0,0,0,0,0,0,-1,1819,834,0,0
602,190,9.64661,1.33142,0.0050041,0.00335763,0.00173829,0.00610424,0.00225749,0.564251,0.00356388,0.0401489,1826,834,9.6466,-1.33142
609,190,9.65222,1.44244,0.00305192,0.00117384,0.000538603,0.00319542,0.00103034,0.260378,0.00188325,0.0386816,1833,834,9.65217,-1.44246
616,190,9.7832,1.56763,0.00180674,-0.000178298,-0.000554765,0.00195126,-0.000322819,-0.254843,0.00142072,0.0394423,1840,834,9.78322,-1.56761
623,190,9.69958,1.56049,-0.000485743,-0.00140551,-0.00178132,0.000894097,-0.00278535,-0.659071,0.0022159,0.0365507,1847,834,9.69962,-1.56051
630,190,9.63696,1.3139,-0.00308983,-0.00217418,-0.00288739,0.000291454,-0.00555547,-0.864024,0.00380452,0.0392717,1854,834,9.6369,-1.31391
637,190,9.61938,1.31525,-0.00541422,-0.00256404,-0.00368419,-3.89265e-05,-0.00793933,-0.969942,0.00527996,0.0352503,1861,834,9.61944,-1.31522
644,190,9.60803,1.38232,-0.00719929,-0.00275631,-0.00419918,-0.000227214,-0.00972839,-1.0287,0.0064112,0.0290858,1868,834,9.60802,-1.3823
651,190,9.60413,1.46918,-0.00844724,-0.00274952,-0.00451276,-0.000261617,-0.0109351,-1.06695,0.00720447,0.0407263,1875,834,9.60418,-1.46917
658,190,9.63293,1.33923,-0.00927003,-0.00269053,-0.00466085,-0.000275375,-0.0116852,-1.09271,0.00769997,0.0431849,1882,834,9.63291,-1.33921
665,190,9.05859,1.40472,-0.0097585,-0.00253082,-0.00470806,-0.000209541,-0.0120798,-1.11273,0.00798426,0.0426267,1889,834,9.05853,-1.40473
672,190,8.323,1.08612,-0.00995255,-0.00227341,-0.00455261,-0.000157435,-0.0120685,-1.13572,0.00799372,0.0380755,1896,834,8.32295,-1.08614
679,190,8.16064,1.03845,-0.00964719,-0.00193223,-0.00410765,-0.000154732,-0.0114247,-1.1624,0.00756541,0.019175,1903,834,8.16066,-1.03846
686,190,8.12708,1.07745,-0.00884837,-0.0015048,-0.00350756,-9.8696e-05,-0.0102545,-1.18953,0.00680366,0.0102892,1910,834,8.12704,-1.07744
693,190,8.1106,1.14825,-0.00761929,-0.00101138,-0.00287207,6.24382e-05,-0.00869311,-1.21301,0.00581633,0.0119845,1917,834,8.11059,-1.14827
700,190,8.10608,1.24164,-0.00624582,-0.000680664,-0.00211596,3.24759e-05,-0.00695896,-1.24572,0.00465017,0.0112538,1924,834,8.10607,-1.24162
707,190,8.12854,1.32098,-0.00515981,2.28636e-05,-0.00111454,0.000252383,-0.00538933,-1.3677,0.0036799,0.011939,1931,834,8.12849,-1.32095
714,190,8.13672,1.38586,-0.00402764,0.000990639,-0.000144805,0.000994814,-0.00403182,-1.54197,0.00307362,0.010679,1938,834,8.13675,-1.38589
721,190,8.1217,1.46973,-0.00196504,0.00349375,0.00105631,0.00369102,-0.00216231,1.38617,0.00341763,0.0103191,1945,834,8.1217,-1.46974
728,190,8.11108,1.53094,0.000519501,0.00793185,0.00247852,0.00868425,-0.00023289,1.27607,0.00586867,0.0128197,1952,834,8.11106,-1.53096
735,190,8.13025,1.58185,0.0024596,0.0121672,0.0035602,0.0133329,0.0012939,1.25437,0.00849021,0.0115662,1959,834,8.13031,-1.58187
742,190,8.10852,1.73303,0.00510083,0.0184401,0.00470947,0.0199352,0.00360571,1.26339,0.0122662,0.0151276,1966,834,8.10857,-1.73302
749,190,8.0675,2.30872,0.00918688,0.0272832,0.00621626,0.0292128,0.00725729,1.26982,0.0175632,0.0370023,1973,834,8.06745,-2.30873
756,190,7.83411,2.84424,0.0154743,0.0392422,0.00793912,0.0416501,0.0130663,1.27632,0.0245967,0.0472059,1980,834,7.83409,-2.84425
763,190,6.52429,3.31879,0,0,0,0,0,0,0,-1,1987,834,6.52428,-3.31877
770,190,7.46985,4.49158,0.037128,0.0749127,0.0115937,0.0781864,0.0338543,1.29559,0.0452759,0.0475399,1994,834,7.46986,-4.49158
777,190,8.28955,5.09039,0.0538414,0.0995817,0.0132299,0.103133,0.0502905,1.30857,0.0595497,0.0464166,2001,834,8.28959,-5.09041
784,190,0,0,0,0,0,0,0,0,0,-1,2008,834,0,0
791,190,0,0,0,0,0,0,0,0,0,-1,2015,834,0,0
798,190,0,0,0,0,0,0,0,0,0,-1,2022,834,0,0
805,190,0,0,0,0,0,0,0,0,0,-1,2029,834,0,0
812,190,0,0,0,0,0,0,0,0,0,-1,2036,834,0,0
-700,183,0,0,0,0,0,0,0,0,0,-1,524,841,0,0
-693,183,0,0,0,0,0,0,0,0,0,-1,531,841,0,0
-686,183,0,0,0,0,0,0,0,0,0,-1,538,841,0,0
-679,183,0,0,0,0,0,0,0,0,0,-1,545,841,0,0
-672,183,0,0,0,0,0,0,0,0,0,-1,552,841,0,0
-665,183,0,0,0,0,0,0,0,0,0,-1,559,841,0,0
-658,183,-5.30457,0.676636,0,0,0,0,0,0,0,-1,566,841,-5.30455,-0.676651
-651,183,-2.27051,4.70007,0,0,0,0,0,0,0,-1,573,841,-2.27053,-4.70006
-644,183,-4.34949,3.34418,0,0,0,0,0,0,0,-1,580,841,-4.3495,-3.34415
-637,183,-3.32129,2.91736,0.0250064,-0.0093744,-0.0104215,0.0279187,-0.0122867,-0.272498,0.0237902,0.0454952,587,841,-3.32127,-2.91738
-630,183,-3.35944,2.38641,0.0147836,-0.00450877,-0.0103942,0.019318,-0.00904316,-0.411353,0.0167287,0.044731,594,841,-3.35944,-2.38641
-623,183,-3.25903,0.957458,0.00786354,-0.00156909,-0.00946846,0.0137253,-0.00743084,-0.554332,0.0123934,0.0494275,601,841,-3.25906,-0.957437
-616,183,-3.24011,0.921387,0.00338873,0.00014451,-0.00812754,0.0100545,-0.00652121,-0.686901,0.00964216,0.0406398,608,841,-3.24014,-0.921398
-609,183,-3.21906,0.883728,0.000919028,0.00123893,-0.00641446,0.00749544,-0.00533748,-0.797864,0.00744392,0.0157624,615,841,-3.21905,-0.883752
-602,183,-3.20892,0.83429,-0.00306029,0.00237909,-0.00470041,0.00508992,-0.00577112,-1.04767,0.00627474,0.0104458,622,841,-3.20892,-0.834274
-595,183,-3.20819,0.776123,-0.00365337,0.0010862,-0.00369555,0.00310652,-0.00567368,-1.0705,0.00514097,0.0108051,629,841,-3.2082,-0.7761
-588,183,-3.21545,0.70929,-0.00318963,0.000651731,-0.00142062,0.00112002,-0.00365792,-1.25238,0.00288535,0.0101973,636,841,-3.21546,-0.709275
-581,183,-3.22589,0.627747,-0.00297769,-0.000621505,0.00056575,-0.000492702,-0.00310649,1.34694,0.00192786,0.0105741,643,841,-3.22591,-0.627748
-574,183,-3.21277,0.554565,-0.00298331,-0.00197868,0.00254775,0.000115796,-0.00507779,0.88273,0.00342444,0.0110949,650,841,-3.21279,-0.554596
-567,183,-3.18848,0.497559,-0.00353779,-0.00200336,0.00360838,0.000918462,-0.00645962,0.890149,0.00464295,0.0124551,657,841,-3.1885,-0.497587
-560,183,-3.23633,0.444702,-0.00374514,-0.00224233,0.00431143,0.00138268,-0.00737016,0.871673,0.0054333,0.0136947,664,841,-3.23631,-0.444697
-553,183,-3.21661,0.326477,-0.00380636,-0.00220359,0.00501614,0.00207478,-0.00808473,0.864609,0.00619827,0.0123079,671,841,-3.21663,-0.326478
-546,183,-3.17438,0.264526,-0.0039735,-0.00201636,0.00561157,0.00270133,-0.00869118,0.871722,0.00687383,0.0272739,678,841,-3.17438,-0.264543
-539,183,-3.0033,0.165039,-0.00377807,-0.00152594,0.00623564,0.00368449,-0.0089885,0.874728,0.00752734,0.0411517,685,841,-3.00332,-0.165016
-532,183,-2.81531,0.0820313,0,0,0,0,0,0,0,-1,692,841,-2.81529,-0.0820175
-525,183,-4.39496,0.92981,-0.00238937,-0.000465593,0.00671517,0.00535623,-0.00821119,0.856535,0.00789075,0.0459221,699,841,-4.39497,-0.929826
-518,183,-4.53046,0.692932,-0.00138445,0.000656077,0.00654559,0.00626044,-0.00698882,0.862711,0.00765332,0.0476492,706,841,-4.53047,-0.692921
-511,183,-4.41266,0.734253,-0.000187404,0.00220576,0.00599406,0.00712151,-0.00510316,0.883917,0.00708991,0.0413616,713,841,-4.41265,-0.734231
-504,183,-4.20691,0.92627,0.00104178,0.00425741,0.00494984,0.00785402,-0.00255483,0.942433,0.00626377,0.0414782,720,841,-4.20689,-0.92625
-497,183,-4.40662,0.99115,0.00203755,0.00685759,0.00338967,0.00860666,0.000288474,1.09443,0.00564408,0.0421454,727,841,-4.40664,-0.991153
-490,183,-4.42853,0.999084,0.00227186,0.010103,0.00133169,0.0103233,0.0020516,1.40688,0.00631047,0.0407841,734,841,-4.42853,-0.999071
-483,183,0,0,0,0,0,0,0,0,0,-1,741,841,0,0
-476,183,0,0,0,0,0,0,0,0,0,-1,748,841,0,0
-469,183,0,0,0,0,0,0,0,0,0,-1,755,841,0,0
-462,183,0,0,0,0,0,0,0,0,0,-1,762,841,0,0
-455,183,0,0,0,0,0,0,0,0,0,-1,769,841,0,0
-448,183,0,0,0,0,0,0,0,0,0,-1,776,841,0,0
-441,183,0,0,0,0,0,0,0,0,0,-1,783,841,0,0
-434,183,0,0,0,0,0,0,0,0,0,-1,790,841,0,0
-427,183,0,0,0,0,0,0,0,0,0,-1,797,841,0,0
-420,183,0,0,0,0,0,0,0,0,0,-1,804,841,0,0
-413,183,0,0,0,0,0,0,0,0,0,-1,811,841,0,0
-406,183,0,0,0,0,0,0,0,0,0,-1,818,841,0,0
-399,183,0,0,0,0,0,0,0,0,0,-1,825,841,0,0
-392,183,0,0,0,0,0,0,0,0,0,-1,832,841,0,0
-385,183,0,0,0,0,0,0,0,0,0,-1,839,841,0,0
-378,183,0,0,0,0,0,0,0,0,0,-1,846,841,0,0
-371,183,0,0,0,0,0,0,0,0,0,-1,853,841,0,0
-364,183,0,0,0,0,0,0,0,0,0,-1,860,841,0,0
-357,183,0,0,0,0,0,0,0,0,0,-1,867,841,0,0
-350,183,0,0,0,0,0,0,0,0,0,-1,874,841,0,0
-343,183,0,0,0,0,0,0,0,0,0,-1,881,841,0,0
-336,183,0,0,0,0,0,0,0,0,0,-1,888,841,0,0
-329,183,0,0,0,0,0,0,0,0,0,-1,895,841,0,0
-322,183,0,0,0,0,0,0,0,0,0,-1,902,841,0,0
-315,183,0,0,0,0,0,0,0,0,0,-1,909,841,0,0
-308,183,0,0,0,0,0,0,0,0,0,-1,916,841,0,0
-301,183,0,0,0,0,0,0,0,0,0,-1,923,841,0,0
-294,183,0,0,0,0,0,0,0,0,0,-1,930,841,0,0
-287,183,0,0,0,0,0,0,0,0,0,-1,937,841,0,0
-280,183,0,0,0,0,0,0,0,0,0,-1,944,841,0,0
-273,183,0,0,0,0,0,0,0,0,0,-1,951,841,0,0
-266,183,0,0,0,0,0,0,0,0,0,-1,958,841,0,0
-259,183,0,0,0,0,0,0,0,0,0,-1,965,841,0,0
-252,183,0,0,0,0,0,0,0,0,0,-1,972,841,0,0
-245,183,0,0,0,0,0,0,0,0,0,-1,979,841,0,0
-238,183,0,0,0,0,0,0,0,0,0,-1,986,841,0,0
-231,183,0,0,0,0,0,0,0,0,0,-1,993,841,0,0
-224,183,0,0,0,0,0,0,0,0,0,-1,1000,841,0,0
-217,183,0,0,0,0,0,0,0,0,0,-1,1007,841,0,0
-210,183,0,0,0,0,0,0,0,0,0,-1,1014,841,0,0
-203,183,0,0,0,0,0,0,0,0,0,-1,1021,841,0,0
-196,183,0,0,0,0,0,0,0,0,0,-1,1028,841,0,0
-189,183,0,0,0,0,0,0,0,0,0,-1,1035,841,0,0
-182,183,0,0,0,0,0,0,0,0,0,-1,1042,841,0,0
-175,183,0,0,0,0,0,0,0,0,0,-1,1049,841,0,0
-168,183,0,0,0,0,0,0,0,0,0,-1,1056,841,0,0
-161,183,0,0,0,0,0,0,0,0,0,-1,1063,841,0,0
-154,183,0,0,0,0,0,0,0,0,0,-1,1070,841,0,0
-147,183,0,0,0,0,0,0,0,0,0,-1,1077,841,0,0
-140,183,0,0,0,0,0,0,0,0,0,-1,1084,841,0,0
-133,183,0,0,0,0,0,0,0,0,0,-1,1091,841,0,0
-126,183,0,0,0,0,0,0,0,0,0,-1,1098,841,0,0
-119,183,0,0,0,0,0,0,0,0,0,-1,1105,841,0,0
-112,183,0,0,0,0,0,0,0,0,0,-1,1112,841,0,0
-105,183,0,0,0,0,0,0,0,0,0,-1,1119,841,0,0
-98,183,0,0,0,0,0,0,0,0,0,-1,1126,841,0,0
-91,183,0,0,0,0,0,0,0,0,0,-1,1133,841,0,0
-84,183,0,0,0,0,0,0,0,0,0,-1,1140,841,0,0
-77,183,0,0,0,0,0,0,0,0,0,-1,1147,841,0,0
-70,183,0,0,0,0,0,0,0,0,0,-1,1154,841,0,0
-63,183,0,0,0,0,0,0,0,0,0,-1,1161,841,0,0
-56,183,0,0,0,0,0,0,0,0,0,-1,1168,841,0,0
-49,183,0,0,0,0,0,0,0,0,0,-1,1175,841,0,0
-42,183,0,0,0,0,0,0,0,0,0,-1,1182,841,0,0
-35,183,0,0,0,0,0,0,0,0,0,-1,1189,841,0,0
-28,183,0,0,0,0,0,0,0,0,0,-1,1196,841,0,0
-21,183,0,0,0,0,0,0,0,0,0,-1,1203,841,0,0
-14,183,0,0,0,0,0,0,0,0,0,-1,1210,841,0,0
-7,183,0,0,0,0,0,0,0,0,0,-1,1217,841,0,0
0,183,0,0,0,0,0,0,0,0,0,-1,1224,841,0,0
7,183,0,0,0,0,0,0,0,0,0,-1,1231,841,0,0
14,183,0,0,0,0,0,0,0,0,0,-1,1238,841,0,0
21,183,0,0,0,0,0,0,0,0,0,-1,1245,841,0,0
28,183,0,0,0,0,0,0,0,0,0,-1,1252,841,0,0
35,183,0,0,0,0,0,0,0,0,0,-1,1259,841,0,0
42,183,0,0,0,0,0,0,0,0,0,-1,1266,841,0,0
49,183,0,0,0,0,0,0,0,0,0,-1,1273,841,0,0
56,183,0,0,0,0,0,0,0,0,0,-1,1280,841,0,0
63,183,0,0,0,0,0,0,0,0,0,-1,1287,841,0,0
70,183,0,0,0,0,0,0,0,0,0,-1,1294,841,0,0
77,183,0,0,0,0,0,0,0,0,0,-1,1301,841,0,0
84,183,0,0,0,0,0,0,0,0,0,-1,1308,841,0,0
91,183,0,0,0,0,0,0,0,0,0,-1,1315,841,0,0
98,183,0,0,0,0,0,0,0,0,0,-1,1322,841,0,0
105,183,0,0,0,0,0,0,0,0,0,-1,1329,841,0,0
112,183,0,0,0,0,0,0,0,0,0,-1,1336,841,0,0
119,183,0,0,0,0,0,0,0,0,0,-1,1343,841,0,0
126,183,0,0,0,0,0,0,0,0,0,-1,1350,841,0,0
133,183,0,0,0,0,0,0,0,0,0,-1,1357,841,0,0
140,183,0,0,0,0,0,0,0,0,0,-1,1364,841,0,0
147,183,0,0,0,0,0,0,0,0,0,-1,1371,841,0,0
154,183,0,0,0,0,0,0,0,0,0,-1,1378,841,0,0
161,183,0,0,0,0,0,0,0,0,0,-1,1385,841,0,0
168,183,0,0,0,0,0,0,0,0,0,-1,1392,841,0,0
175,183,0,0,0,0,0,0,0,0,0,-1,1399,841,0,0
182,183,0,0,0,0,0,0,0,0,0,-1,1406,841,0,0
189,183,0,0,0,0,0,0,0,0,0,-1,1413,841,0,0
196,183,0,0,0,0,0,0,0,0,0,-1,1420,841,0,0
203,183,0,0,0,0,0,0,0,0,0,-1,1427,841,0,0
210,183,0,0,0,0,0,0,0,0,0,-1,1434,841,0,0
217,183,0,0,0,0,0,0,0,0,0,-1,1441,841,0,0
224,183,0,0,0,0,0,0,0,0,0,-1,1448,841,0,0
231,183,0,0,0,0,0,0,0,0,0,-1,1455,841,0,0
238,183,0,0,0,0,0,0,0,0,0,-1,1462,841,0,0
245,183,0,0,0,0,0,0,0,0,0,-1,1469,841,0,0
252,183,0,0,0,0,0,0,0,0,0,-1,1476,841,0,0
259,183,0,0,0,0,0,0,0,0,0,-1,1483,841,0,0
266,183,0,0,0,0,0,0,0,0,0,-1,1490,841,0,0
273,183,0,0,0,0,0,0,0,0,0,-1,1497,841,0,0
280,183,0,0,0,0,0,0,0,0,0,-1,1504,841,0,0
287,183,0,0,0,0,0,0,0,0,0,-1,1511,841,0,0
294,183,0,0,0,0,0,0,0,0,0,-1,1518,841,0,0
301,183,0,0,0,0,0,0,0,0,0,-1,1525,841,0,0
308,183,0,0,0,0,0,0,0,0,0,-1,1532,841,0,0
315,183,0,0,0,0,0,0,0,0,0,-1,1539,841,0,0
322,183,0,0,0,0,0,0,0,0,0,-1,1546,841,0,0
329,183,0,0,0,0,0,0,0,0,0,-1,1553,841,0,0
336,183,0,0,0,0,0,0,0,0,0,-1,1560,841,0,0
343,183,0,0,0,0,0,0,0,0,0,-1,1567,841,0,0
350,183,0,0,0,0,0,0,0,0,0,-1,1574,841,0,0
357,183,0,0,0,0,0,0,0,0,0,-1,1581,841,0,0
364,183,0,0,0,0,0,0,0,0,0,-1,1588,841,0,0
371,183,0,0,0,0,0,0,0,0,0,-1,1595,841,0,0
378,183,0,0,0,0,0,0,0,0,0,-1,1602,841,0,0
385,183,0,0,0,0,0,0,0,0,0,-1,1609,841,0,0
392,183,0,0,0,0,0,0,0,0,0,-1,1616,841,0,0
399,183,0,0,0,0,0,0,0,0,0,-1,1623,841,0,0
406,183,0,0,0,0,0,0,0,0,0,-1,1630,841,0,0
413,183,0,0,0,0,0,0,0,0,0,-1,1637,841,0,0
420,183,0,0,0,0,0,0,0,0,0,-1,1644,841,0,0
427,183,0,0,0,0,0,0,0,0,0,-1,1651,841,0,0
434,183,0,0,0,0,0,0,0,0,0,-1,1658,841,0,0
441,183,0,0,0,0,0,0,0,0,0,-1,1665,841,0,0
448,183,0,0,0,0,0,0,0,0,0,-1,1672,841,0,0
455,183,0,0,0,0,0,0,0,0,0,-1,1679,841,0,0
462,183,0,0,0,0,0,0,0,0,0,-1,1686,841,0,0
469,183,0,0,0,0,0,0,0,0,0,-1,1693,841,0,0
476,183,0,0,0,0,0,0,0,0,0,-1,1700,841,0,0
483,183,0,0,0,0,0,0,0,0,0,-1,1707,841,0,0
490,183,0,0,0,0,0,0,0,0,0,-1,1714,841,0,0
497,183,0,0,0,0,0,0,0,0,0,-1,1721,841,0,0
504,183,0,0,0,0,0,0,0,0,0,-1,1728,841,0,0
511,183,0,0,0,0,0,0,0,0,0,-1,1735,841,0,0
518,183,0,0,0,0,0,0,0,0,0,-1,1742,841,0,0
525,183,0,0,0,0,0,0,0,0,0,-1,1749,841,0,0
532,183,0,0,0,0,0,0,0,0,0,-1,1756,841,0,0
539,183,0,0,0,0,0,0,0,0,0,-1,1763,841,0,0
546,183,0,0,0,0,0,0,0,0,0,-1,1770,841,0,0
553,183,0,0,0,0,0,0,0,0,0,-1,1777,841,0,0
560,183,0,0,0,0,0,0,0,0,0,-1,1784,841,0,0
567,183,0,0,0,0,0,0,0,0,0,-1,1791,841,0,0
574,183,0,0,0,0,0,0,0,0,0,-1,1798,841,0,0
581,183,0,0,0,0,0,0,0,0,0,-1,1805,841,0,0
588,183,0,0,0,0,0,0,0,0,0,-1,1812,841,0,0
595,183,0,0,0,0,0,0,0,0,0,-1,1819,841,0,0
602,183,0,0,0,0,0,0,0,0,0,-1,1826,841,0,0
609,183,9.62634,1.55176,0.00255132,0.000913556,0.000329202,0.00261501,0.000849861,0.191121,0.0015403,0.0384525,1833,841,9.62639,-1.55175
616,183,9.62292,1.79462,0.00242053,0.000282418,-0.000279975,0.00245658,0.000246365,-0.128069,0.00156209,0.0399988,1840,841,9.62288,-1.79463
623,183,9.67798,1.7738,0.000782328,-0.000622144,-0.00123125,0.00149753,-0.00133734,-0.526235,0.00163758,0.0407547,1847,841,9.67797,-1.77382
630,183,9.6687,1.54468,-0.00167508,-0.00120903,-0.00229162,0.000861386,-0.00374549,-0.836067,0.00282819,0.0381532,1854,841,9.66876,-1.54469
637,183,9.61023,1.32104,-0.0041476,-0.00157964,-0.00314896,0.00053705,-0.00626429,-0.978982,0.00436623,0.0354619,1861,841,9.61027,-1.32106
644,183,9.57922,1.37976,-0.00619349,-0.00180593,-0.00377753,0.000368638,-0.00836805,-1.04847,0.00570555,0.030011,1868,841,9.57917,-1.37974
651,183,9.6012,1.38196,-0.00771416,-0.00189236,-0.00418288,0.000292795,-0.00989932,-1.08939,0.00669928,0.026618,1875,841,9.60119,-1.38198
658,183,9.83801,1.15344,-0.00877293,-0.00193052,-0.00441009,0.000229808,-0.0109333,-1.11529,0.00736664,0.0429679,1882,841,9.83797,-1.15347
665,183,8.7699,0.951538,0,0,0,0,0,0,0,-1,1889,841,8.76994,-0.951567
672,183,8.46387,0.956909,-0.00984204,-0.00173254,-0.00444413,0.000228631,-0.0118032,-1.15521,0.00794611,0.0418037,1896,841,8.46383,-0.956885
679,183,8.22205,0.990723,-0.00977628,-0.0015787,-0.00410705,0.000124913,-0.0114799,-1.17759,0.00769524,0.0286218,1903,841,8.222,-0.990738
686,183,8.21021,1.06677,-0.00914613,-0.00131542,-0.00359191,8.25906e-05,-0.0105441,-1.19963,0.00705711,0.013026,1910,841,8.21016,-1.06679
693,183,8.21265,1.15649,-0.00802965,-0.000952512,-0.00300925,0.00015403,-0.00913619,-1.21843,0.00614278,0.0112855,1917,841,8.21266,-1.15652
700,183,8.19995,1.23138,-0.00679733,-0.00068786,-0.00230326,8.31592e-05,-0.00756835,-1.24777,0.00507351,0.0147156,1924,841,8.19996,-1.23139
707,183,8.20825,1.31793,-0.00577095,-3.88467e-05,-0.00138708,0.000279163,-0.00608896,-1.34543,0.00415549,0.0118165,1931,841,8.2083,-1.31791
714,183,8.22693,1.3728,-0.0046005,0.000843193,-0.000469861,0.00088345,-0.00464075,-1.48533,0.0034265,0.0156089,1938,841,8.22691,-1.37282
721,183,8.19055,1.4433,-0.00247502,0.00320208,0.000671958,0.00328053,-0.00255347,1.45457,0.00337697,0.0147802,1945,841,8.19057,-1.44329
728,183,8.18286,1.52588,7.1724e-05,0.00727667,0.00204327,0.00781578,-0.000467394,1.31283,0.0053731,0.0129653,1952,841,8.18287,-1.52587
735,183,8.20776,1.58069,0.002065,0.0110096,0.00299237,0.0119183,0.00115624,1.27596,0.00758955,0.0115976,1959,841,8.20774,-1.58067
742,183,8.2196,1.68042,0.00455693,0.0164886,0.00388975,0.0176447,0.00340088,1.28191,0.0108093,0.0104798,1966,841,8.21963,-1.68043
749,183,8.14294,2.07928,0.00813859,0.0241119,0.00507834,0.0255897,0.00666077,1.28761,0.0153297,0.030386,1973,841,8.14299,-2.07927
756,183,7.71802,2.53308,0.0135287,0.0342268,0.00636818,0.0360292,0.0117263,1.29499,0.0212197,0.0437114,1980,841,7.71805,-2.5331
763,183,7.24023,2.73285,0.0212934,0.0472246,0.00764232,0.0493093,0.0192087,1.30449,0.0286993,0.0471824,1987,841,7.24027,-2.73283
770,183,7.84033,3.45807,0.0318482,0.0633655,0.00873265,0.0656234,0.0295904,1.31778,0.0379485,0.047756,1994,841,7.84038,-3.45804
777,183,8.83496,4.03223,0.0457315,0.0826717,0.00933984,0.0848988,0.0435043,1.33671,0.0490214,0.0446264,2001,841,8.83501,-4.03225
784,183,0,0,0,0,0,0,0,0,0,-1,2008,841,0,0
791,183,0,0,0,0,0,0,0,0,0,-1,2015,841,0,0
798,183,0,0,0,0,0,0,0,0,0,-1,2022,841,0,0
805,183,0,0,0,0,0,0,0,0,0,-1,2029,841,0,0
812,183,0,0,0,0,0,0,0,0,0,-1,2036,841,0,0
-700,176,0,0,0,0,0,0,0,0,0,-1,524,848,0,0
-693,176,0,0,0,0,0,0,0,0,0,-1,531,848,0,0
-686,176,0,0,0,0,0,0,0,0,0,-1,538,848,0,0
-679,176,0,0,0,0,0,0,0,0,0,-1,545,848,0,0
-672,176,0,0,0,0,0,0,0,0,0,-1,552,848,0,0
-665,176,-5.17261,1.45093,0.0998945,-0.0649482,0.00508292,0.100051,-0.0651048,0.030796,0.0960617,0.0448327,559,848,-5.17262,-1.45093
-658,176,-5.1983,1.15833,0.0728536,-0.0449238,-0.00112086,0.0728642,-0.0449345,-0.00951566,0.0686454,0.0495874,566,848,-5.19828,-1.15834
-651,176,-5.27802,0.907166,0,0,0,0,0,0,0,-1,573,848,-5.278,-0.907146
-644,176,-3.62982,3.0766,0,0,0,0,0,0,0,-1,580,848,-3.62985,-3.07658
-637,176,-3.05035,2.2901,0,0,0,0,0,0,0,-1,587,848,-3.05032,-2.29009
-630,176,-3.3443,2.06714,0.0127683,-0.00518569,-0.00816871,0.0159286,-0.008346,-0.369145,0.014241,0.043721,594,848,-3.34429,-2.06715
-623,176,-3.46869,1.75116,0.00650767,-0.00176336,-0.0074937,0.0109312,-0.00618693,-0.533261,0.0100089,0.0431609,601,848,-3.46866,-1.75118
-616,176,-3.24628,0.900146,0.00236922,0.00041448,-0.00657679,0.00804087,-0.00525717,-0.711634,0.00773349,0.0279066,608,848,-3.2463,-0.900159
-609,176,-3.28687,0.888,-6.91771e-05,0.00178465,-0.00510429,0.0060455,-0.00433003,-0.875217,0.00601754,0.0112818,615,848,-3.28687,-0.887972
-602,176,-3.29608,0.821289,-0.00354978,0.00291093,-0.00360488,0.00452107,-0.00515992,-1.15073,0.00559338,0.0120074,622,848,-3.29611,-0.821276
-595,176,-3.29114,0.769043,-0.00416172,0.00167815,-0.00278574,0.00279385,-0.00527743,-1.18985,0.00473292,0.0111917,629,848,-3.29112,-0.769049
-588,176,-3.26965,0.702454,-0.00384962,0.00100788,-0.000868641,0.00115854,-0.00400028,-1.39906,0.00312545,0.0109899,636,848,-3.26964,-0.702479
-581,176,-3.28265,0.635803,-0.00374195,-0.000337567,0.00093978,-9.53719e-05,-0.00398415,1.31857,0.00262488,0.0108058,643,848,-3.28265,-0.635795
-574,176,-3.28638,0.565735,-0.00376152,-0.00168536,0.00273581,0.000202694,-0.00564958,0.966728,0.00383573,0.0127052,650,848,-3.28637,-0.565764
-567,176,-3.26447,0.525208,-0.00429166,-0.00180054,0.00371888,0.000875827,-0.00696803,0.946991,0.00496312,0.0142658,657,848,-3.26449,-0.525202
-560,176,-3.32379,0.444397,-0.00455041,-0.00205383,0.00434468,0.00121834,-0.00782257,0.925287,0.005665,0.0121184,664,848,-3.32382,-0.444398
-553,176,-3.2774,0.332886,-0.00472475,-0.00195321,0.00494286,0.00179446,-0.00847242,0.922068,0.00633177,0.0210237,671,848,-3.27742,-0.332886
-546,176,-3.26636,0.336121,-0.00497204,-0.00166682,0.00540155,0.00232927,-0.00896813,0.933852,0.00688774,0.0339482,678,848,-3.26633,-0.336113
-539,176,-3.69659,0.50946,-0.004843,-0.00105331,0.005861,0.00321154,-0.00910784,0.941744,0.00737916,0.0353809,685,848,-3.69659,-0.509473
-532,176,-3.99292,0.710449,0,0,0,0,0,0,0,-1,692,848,-3.99293,-0.710438
-525,176,-4.51355,0.70874,-0.00346264,0.000450961,0.00597364,0.00478013,-0.00779181,0.943677,0.00732751,0.0443807,699,848,-4.51352,-0.708732
-518,176,-4.49054,0.732239,-0.00236602,0.00186837,0.00558164,0.00572087,-0.00621852,0.966672,0.00689521,0.04103,706,848,-4.49057,-0.732257
-511,176,-4.34363,0.795105,-0.000970547,0.00377416,0.00479769,0.00675399,-0.00395038,1.01501,0.00625043,0.0402117,713,848,-4.34365,-0.795077
-504,176,-4.25854,0.729614,0.000594059,0.00623629,0.00355149,0.00795079,-0.00112043,1.12104,0.00571076,0.041668,720,848,-4.25853,-0.729607
-497,176,-4.55518,0.699524,0.00198457,0.00922478,0.00195767,0.00972021,0.00148914,1.32293,0.00604521,0.0421859,727,848,-4.55518,-0.699539
-490,176,-4.61377,0.789001,0.00275521,0.0127919,9.30198e-05,0.0127928,0.00275435,1.56153,0.00777475,0.040506,734,848,-4.61379,-0.789009
-483,176,0,0,0,0,0,0,0,0,0,-1,741,848,0,0
-476,176,0,0,0,0,0,0,0,0,0,-1,748,848,0,0
-469,176,0,0,0,0,0,0,0,0,0,-1,755,848,0,0
-462,176,0,0,0,0,0,0,0,0,0,-1,762,848,0,0
-455,176,0,0,0,0,0,0,0,0,0,-1,769,848,0,0
-448,176,0,0,0,0,0,0,0,0,0,-1,776,848,0,0
-441,176,0,0,0,0,0,0,0,0,0,-1,783,848,0,0
-434,176,0,0,0,0,0,0,0,0,0,-1,790,848,0,0
-427,176,0,0,0,0,0,0,0,0,0,-1,797,848,0,0
-420,176,0,0,0,0,0,0,0,0,0,-1,804,848,0,0
-413,176,0,0,0,0,0,0,0,0,0,-1,811,848,0,0
-406,176,0,0,0,0,0,0,0,0,0,-1,818,848,0,0
-399,176,0,0,0,0,0,0,0,0,0,-1,825,848,0,0
-392,176,0,0,0,0,0,0,0,0,0,-1,832,848,0,0
-385,176,0,0,0,0,0,0,0,0,0,-1,839,848,0,0
-378,176,0,0,0,0,0,0,0,0,0,-1,846,848,0,0
-371,176,0,0,0,0,0,0,0,0,0,-1,853,848,0,0
-364,176,0,0,0,0,0,0,0,0,0,-1,860,848,0,0
-357,176,0,0,0,0,0,0,0,0,0,-1,867,848,0,0
-350,176,0,0,0,0,0,0,0,0,0,-1,874,848,0,0
-343,176,0,0,0,0,0,0,0,0,0,-1,881,848,0,0
-336,176,0,0,0,0,0,0,0,0,0,-1,888,848,0,0
-329,176,0,0,0,0,0,0,0,0,0,-1,895,848,0,0
-322,176,0,0,0,0,0,0,0,0,0,-1,902,848,0,0
-315,176,0,0,0,0,0,0,0,0,0,-1,909,848,0,0
-308,176,0,0,0,0,0,0,0,0,0,-1,916,848,0,0
-301,176,0,0,0,0,0,0,0,0,0,-1,923,848,0,0
-294,176,0,0,0,0,0,0,0,0,0,-1,930,848,0,0
-287,176,0,0,0,0,0,0,0,0,0,-1,937,848,0,0
-280,176,0,0,0,0,0,0,0,0,0,-1,944,848,0,0
-273,176,0,0,0,0,0,0,0,0,0,-1,951,848,0,0
-266,176,0,0,0,0,0,0,0,0,0,-1,958,848,0,0
-259,176,0,0,0,0,0,0,0,0,0,-1,965,848,0,0
-252,176,0,0,0,0,0,0,0,0,0,-1,972,848,0,0
-245,176,0,0,0,0,0,0,0,0,0,-1,979,848,0,0
-238,176,0,0,0,0,0,0,0,0,0,-1,986,848,0,0
-231,176,0,0,0,0,0,0,0,0,0,-1,993,848,0,0
-224,176,0,0,0,0,0,0,0,0,0,-1,1000,848,0,0
-217,176,0,0,0,0,0,0,0,0,0,-1,1007,848,0,0
-210,176,0,0,0,0,0,0,0,0,0,-1,1014,848,0,0
-203,176,0,0,0,0,0,0,0,0,0,-1,1021,848,0,0
-196,176,0,0,0,0,0,0,0,0,0,-1,1028,848,0,0
-189,176,0,0,0,0,0,0,0,0,0,-1,1035,848,0,0
-182,176,0,0,0,0,0,0,0,0,0,-1,1042,848,0,0
-175,176,0,0,0,0,0,0,0,0,0,-1,1049,848,0,0
-168,176,0,0,0,0,0,0,0,0,0,-1,1056,848,0,0
-161,176,0,0,0,0,0,0,0,0,0,-1,1063,848,0,0
-154,176,0,0,0,0,0,0,0,0,0,-1,1070,848,0,0
-147,176,0,0,0,0,0,0,0,0,0,-1,1077,848,0,0
-140,176,0,0,0,0,0,0,0,0,0,-1,1084,848,0,0
-133,176,0,0,0,0,0,0,0,0,0,-1,1091,848,0,0
-126,176,0,0,0,0,0,0,0,0,0,-1,1098,848,0,0
-119,176,0,0,0,0,0,0,0,0,0,-1,1105,848,0,0
-112,176,0,0,0,0,0,0,0,0,0,-1,1112,848,0,0
-105,176,0,0,0,0,0,0,0,0,0,-1,1119,848,0,0
-98,176,0,0,0,0,0,0,0,0,0,-1,1126,848,0,0
-91,176,0,0,0,0,0,0,0,0,0,-1,1133,848,0,0
-84,176,0,0,0,0,0,0,0,0,0,-1,1140,848,0,0
-77,176,0,0,0,0,0,0,0,0,0,-1,1147,848,0,0
-70,176,0,0,0,0,0,0,0,0,0,-1,1154,848,0,0
-63,176,0,0,0,0,0,0,0,0,0,-1,1161,848,0,0
-56,176,0,0,0,0,0,0,0,0,0,-1,1168,848,0,0
-49,176,0,0,0,0,0,0,0,0,0,-1,1175,848,0,0
-42,176,0,0,0,0,0,0,0,0,0,-1,1182,848,0,0
-35,176,0,0,0,0,0,0,0,0,0,-1,1189,848,0,0
-28,176,0,0,0,0,0,0,0,0,0,-1,1196,848,0,0
-21,176,0,0,0,0,0,0,0,0,0,-1,1203,848,0,0
-14,176,0,0,0,0,0,0,0,0,0,-1,1210,848,0,0
-7,176,0,0,0,0,0,0,0,0,0,-1,1217,848,0,0
0,176,0,0,0,0,0,0,0,0,0,-1,1224,848,0,0
7,176,0,0,0,0,0,0,0,0,0,-1,1231,848,0,0
14,176,0,0,0,0,0,0,0,0,0,-1,1238,848,0,0
21,176,0,0,0,0,0,0,0,0,0,-1,1245,848,0,0
28,176,0,0,0,0,0,0,0,0,0,-1,1252,848,0,0
35,176,0,0,0,0,0,0,0,0,0,-1,1259,848,0,0
42,176,0,0,0,0,0,0,0,0,0,-1,1266,848,0,0
49,176,0,0,0,0,0,0,0,0,0,-1,1273,848,0,0
56,176,0,0,0,0,0,0,0,0,0,-1,1280,848,0,0
63,176,0,0,0,0,0,0,0,0,0,-1,1287,848,0,0
70,176,0,0,0,0,0,0,0,0,0,-1,1294,848,0,0
77,176,0,0,0,0,0,0,0,0,0,-1,1301,848,0,0
84,176,0,0,0,0,0,0,0,0,0,-1,1308,848,0,0
91,176,0,0,0,0,0,0,0,0,0,-1,1315,848,0,0
98,176,0,0,0,0,0,0,0,0,0,-1,1322,848,0,0
105,176,0,0,0,0,0,0,0,0,0,-1,1329,848,0,0
112,176,0,0,0,0,0,0,0,0,0,-1,1336,848,0,0
119,176,0,0,0,0,0,0,0,0,0,-1,1343,848,0,0
126,176,0,0,0,0,0,0,0,0,0,-1,1350,848,0,0
133,176,0,0,0,0,0,0,0,0,0,-1,1357,848,0,0
140,176,0,0,0,0,0,0,0,0,0,-1,1364,848,0,0
147,176,0,0,0,0,0,0,0,0,0,-1,1371,848,0,0
154,176,0,0,0,0,0,0,0,0,0,-1,1378,848,0,0
161,176,0,0,0,0,0,0,0,0,0,-1,1385,848,0,0
168,176,0,0,0,0,0,0,0,0,0,-1,1392,848,0,0
175,176,0,0,0,0,0,0,0,0,0,-1,1399,848,0,0
182,176,0,0,0,0,0,0,0,0,0,-1,1406,848,0,0
189,176,0,0,0,0,0,0,0,0,0,-1,1413,848,0,0
196,176,0,0,0,0,0,0,0,0,0,-1,1420,848,0,0
203,176,0,0,0,0,0,0,0,0,0,-1,1427,848,0,0
210,176,0,0,0,0,0,0,0,0,0,-1,1434,848,0,0
217,176,0,0,0,0,0,0,0,0,0,-1,1441,848,0,0
224,176,0,0,0,0,0,0,0,0,0,-1,1448,848,0,0
231,176,0,0,0,0,0,0,0,0,0,-1,1455,848,0,0
238,176,0,0,0,0,0,0,0,0,0,-1,1462,848,0,0
245,176,0,0,0,0,0,0,0,0,0,-1,1469,848,0,0
252,176,0,0,0,0,0,0,0,0,0,-1,1476,848,0,0
259,176,0,0,0,0,0,0,0,0,0,-1,1483,848,0,0
266,176,0,0,0,0,0,0,0,0,0,-1,1490,848,0,0
273,176,0,0,0,0,0,0,0,0,0,-1,1497,848,0,0
280,176,0,0,0,0,0,0,0,0,0,-1,1504,848,0,0
287,176,0,0,0,0,0,0,0,0,0,-1,1511,848,0,0
294,176,0,0,0,0,0,0,0,0,0,-1,1518,848,0,0
301,176,0,0,0,0,0,0,0,0,0,-1,1525,848,0,0
308,176,0,0,0,0,0,0,0,0,0,-1,1532,848,0,0
315,176,0,0,0,0,0,0,0,0,0,-1,1539,848,0,0
322,176,0,0,0,0,0,0,0,0,0,-1,1546,848,0,0
329,176,0,0,0,0,0,0,0,0,0,-1,1553,848,0,0
336,176,0,0,0,0,0,0,0,0,0,-1,1560,848,0,0
343,176,0,0,0,0,0,0,0,0,0,-1,1567,848,0,0
350,176,0,0,0,0,0,0,0,0,0,-1,1574,848,0,0
357,176,0,0,0,0,0,0,0,0,0,-1,1581,848,0,0
364,176,0,0,0,0,0,0,0,0,0,-1,1588,848,0,0
371,176,0,0,0,0,0,0,0,0,0,-1,1595,848,0,0
378,176,0,0,0,0,0,0,0,0,0,-1,1602,848,0,0
385,176,0,0,0,0,0,0,0,0,0,-1,1609,848,0,0
392,176,0,0,0,0,0,0,0,0,0,-1,1616,848,0,0
399,176,0,0,0,0,0,0,0,0,0,-1,1623,848,0,0
406,176,0,0,0,0,0,0,0,0,0,-1,1630,848,0,0
413,176,0,0,0,0,0,0,0,0,0,-1,1637,848,0,0
420,176,0,0,0,0,0,0,0,0,0,-1,1644,848,0,0
427,176,0,0,0,0,0,0,0,0,0,-1,1651,848,0,0
434,176,0,0,0,0,0,0,0,0,0,-1,1658,848,0,0
441,176,0,0,0,0,0,0,0,0,0,-1,1665,848,0,0
448,176,0,0,0,0,0,0,0,0,0,-1,1672,848,0,0
455,176,0,0,0,0,0,0,0,0,0,-1,1679,848,0,0
462,176,0,0,0,0,0,0,0,0,0,-1,1686,848,0,0
469,176,0,0,0,0,0,0,0,0,0,-1,1693,848,0,0
476,176,0,0,0,0,0,0,0,0,0,-1,1700,848,0,0
483,176,0,0,0,0,0,0,0,0,0,-1,1707,848,0,0
490,176,0,0,0,0,0,0,0,0,0,-1,1714,848,0,0
497,176,0,0,0,0,0,0,0,0,0,-1,1721,848,0,0
504,176,0,0,0,0,0,0,0,0,0,-1,1728,848,0,0
511,176,0,0,0,0,0,0,0,0,0,-1,1735,848,0,0
518,176,0,0,0,0,0,0,0,0,0,-1,1742,848,0,0
525,176,0,0,0,0,0,0,0,0,0,-1,1749,848,0,0
532,176,0,0,0,0,0,0,0,0,0,-1,1756,848,0,0
539,176,0,0,0,0,0,0,0,0,0,-1,1763,848,0,0
546,176,0,0,0,0,0,0,0,0,0,-1,1770,848,0,0
553,176,0,0,0,0,0,0,0,0,0,-1,1777,848,0,0
560,176,0,0,0,0,0,0,0,0,0,-1,1784,848,0,0
567,176,0,0,0,0,0,0,0,0,0,-1,1791,848,0,0
574,176,0,0,0,0,0,0,0,0,0,-1,1798,848,0,0
581,176,0,0,0,0,0,0,0,0,0,-1,1805,848,0,0
588,176,0,0,0,0,0,0,0,0,0,-1,1812,848,0,0
595,176,0,0,0,0,0,0,0,0,0,-1,1819,848,0,0
602,176,0,0,0,0,0,0,0,0,0,-1,1826,848,0,0
609,176,9.63879,1.42975,0.00176105,0.000372342,0.000266871,0.00181057,0.000322822,0.183469,0.00111512,0.0397268,1833,848,9.63874,-1.42978
616,176,9.50208,1.47876,0.00234721,0.000469217,-0.000195534,0.00236736,0.000449075,-0.102652,0.00145188,0.0413171,1840,848,9.50208,-1.47876
623,176,9.57947,1.61523,0.00134433,-0.000134354,-0.00099588,0.00184531,-0.000635336,-0.466088,0.00148791,0.0416796,1847,848,9.57952,-1.61525
630,176,9.74036,1.51001,-0.00082805,-0.000542473,-0.00203598,0.00135572,-0.00272624,-0.820407,0.00240059,0.0376664,1854,848,9.74041,-1.51002
637,176,9.66321,1.31219,-0.00328567,-0.00087962,-0.00292945,0.0010842,-0.00524949,-0.980232,0.00391148,0.0329486,1861,848,9.66323,-1.31222
644,176,9.56665,1.27716,-0.00548169,-0.00113497,-0.00362694,0.00091993,-0.00753659,-1.05532,0.00535743,0.0323653,1868,848,9.56666,-1.27718
651,176,9.54419,1.36169,-0.00718505,-0.00131004,-0.00407881,0.000778944,-0.00927404,-1.09747,0.00645802,0.0306311,1875,848,9.54418,-1.36172
658,176,9.68384,1.2594,-0.00840312,-0.00143678,-0.00433412,0.000640357,-0.0104803,-1.12388,0.00720978,0.0339858,1882,848,9.68386,-1.25939
665,176,9.83093,1.09192,-0.00921025,-0.00147994,-0.00446178,0.000558029,-0.0112482,-1.14233,0.00769158,0.0450368,1889,848,9.83093,-1.09193
672,176,9.02869,0.912781,-0.00972423,-0.00142363,-0.00437602,0.0004572,-0.0116051,-1.16486,0.00789352,0.0471227,1896,848,9.02867,-0.912808
679,176,8.37927,0.876465,-0.00980383,-0.00136641,-0.0040645,0.000273008,-0.0114432,-1.1874,0.00772144,0.0384886,1903,848,8.37922,-0.87649
686,176,8.31274,1.06726,-0.00933091,-0.00124645,-0.00362524,0.000141055,-0.0107184,-1.20526,0.00719309,0.0164877,1910,848,8.31279,-1.06728
693,176,8.29565,1.16724,-0.00836701,-0.00102052,-0.00309529,0.000109733,-0.00949726,-1.22069,0.0063684,0.0098808,1917,848,8.29567,-1.16724
700,176,8.31555,1.23926,-0.00728377,-0.000812274,-0.00241325,-1.14604e-05,-0.00808459,-1.25039,0.00538591,0.0142821,1924,848,8.31558,-1.23926
707,176,8.3125,1.31659,-0.00631956,-0.000228652,-0.00160297,0.00016745,-0.00671566,-1.32854,0.00453396,0.0136892,1931,848,8.31244,-1.31657
714,176,8.31299,1.38812,-0.00512968,0.000535179,-0.000767811,0.000637403,-0.00523191,-1.43844,0.00371866,0.0124799,1938,848,8.31295,-1.38815
721,176,8.29114,1.4502,-0.00298263,0.00265412,0.000268801,0.00266691,-0.00299542,1.52325,0.00327098,0.0118385,1945,848,8.29114,-1.45019
728,176,8.27979,1.52832,-0.000413317,0.00623003,0.00154999,0.00657387,-0.000757154,1.3525,0.00465553,0.013953,1952,848,8.2798,-1.52833
735,176,8.28198,1.58545,0.00165351,0.00934875,0.00235187,0.0100106,0.000991647,1.29647,0.00636898,0.0130355,1959,848,8.28196,-1.58543
742,176,8.2926,1.64465,0.00405131,0.013918,0.00298838,0.0147525,0.00321679,1.29848,0.00895739,0.014985,1966,848,8.29266,-1.64466
749,176,8.2478,1.7995,0.00719633,0.0201961,0.00385492,0.0212532,0.00613917,1.30314,0.01263,0.024507,1973,848,8.24778,-1.79947
756,176,8.1189,2.03278,0.0117616,0.02836,0.00469863,0.0295978,0.0105238,1.31322,0.0173243,0.0419299,1980,848,8.11896,-2.03275
763,176,7.91003,2.3147,0.018259,0.0386049,0.00540406,0.0399512,0.0169127,1.32664,0.023156,0.0465907,1987,848,7.91005,-2.31469
770,176,7.97571,2.72516,0.0270005,0.0509501,0.00575478,0.0522611,0.0256895,1.3468,0.0301744,0.04655,1994,848,7.97569,-2.72516
777,176,8.02747,2.54114,0.038318,0.0651327,0.00537736,0.0661709,0.0372798,1.38008,0.038306,0.0449115,2001,848,8.02745,-2.54113
784,176,0,0,0,0,0,0,0,0,0,-1,2008,848,0,0
791,176,0,0,0,0,0,0,0,0,0,-1,2015,848,0,0
798,176,0,0,0,0,0,0,0,0,0,-1,2022,848,0,0
805,176,0,0,0,0,0,0,0,0,0,-1,2029,848,0,0
812,176,0,0,0,0,0,0,0,0,0,-1,2036,848,0,0
-700,169,0,0,0,0,0,0,0,0,0,-1,524,855,0,0
-693,169,0,0,0,0,0,0,0,0,0,-1,531,855,0,0
-686,169,0,0,0,0,0,0,0,0,0,-1,538,855,0,0
-679,169,0,0,0,0,0,0,0,0,0,-1,545,855,0,0
-672,169,0,0,0,0,0,0,0,0,0,-1,552,855,0,0
-665,169,-5.07446,1.93054,0.0810318,-0.0660914,0.00176298,0.0810529,-0.0661125,0.0119807,0.0851118,0.0439347,559,855,-5.07447,-1.93054
-658,169,-5.17804,1.95819,0.0605735,-0.0465341,-0.00215215,0.0606168,-0.0465773,-0.0200825,0.0620652,0.048659,566,855,-5.17804,-1.95817
-651,169,-5.30414,2.5191,0,0,0,0,0,0,0,-1,573,855,-5.30413,-2.51908
-644,169,-2.78735,2.8006,0,0,0,0,0,0,0,-1,580,855,-2.78738,-2.80059
-637,169,-3.00531,2.06378,0.0193647,-0.011693,-0.00654359,0.0206871,-0.0130154,-0.199401,0.0196255,0.0435379,587,855,-3.00533,-2.06378
-630,169,-3.3205,1.80017,0.0114612,-0.00589988,-0.00645806,0.0136,-0.00803868,-0.319815,0.0126299,0.0470543,594,855,-3.3205,-1.80017
-623,169,-3.28809,1.09247,0,0,0,0,0,0,0,-1,601,855,-3.28809,-1.09247
-616,169,-3.35205,0.904968,0.00215171,0.000410582,-0.0052527,0.0066055,-0.00404321,-0.703276,0.00620708,0.0206392,608,855,-3.35203,-0.904941
-609,169,-3.36096,0.889648,-0.000354979,0.00199258,-0.00398528,0.00497335,-0.00333575,-0.928613,0.00482821,0.012826,615,855,-3.36098,-0.889665
-602,169,-3.37915,0.818054,-0.00345921,0.00302539,-0.00258443,0.00392938,-0.0043632,-1.23431,0.00478991,0.0128451,622,855,-3.37917,-0.81804
-595,169,-3.36182,0.744263,-0.00427056,0.00189446,-0.00186951,0.00241707,-0.00479318,-1.29821,0.00423752,0.0115502,629,855,-3.36184,-0.744244
-588,169,-3.32941,0.68396,-0.00429674,0.00102813,-0.000261562,0.00104094,-0.00430956,-1.52183,0.00327562,0.00953208,636,855,-3.3294,-0.683983
-581,169,-3.34308,0.632996,-0.00441054,-0.0003096,0.00134206,9.05532e-05,-0.00481069,1.28103,0.00323774,0.0100305,643,855,-3.34306,-0.633004
-574,169,-3.375,0.57019,-0.00457407,-0.00155756,0.002941,0.000239382,-0.00637101,1.02233,0.00432934,0.0123324,650,855,-3.37497,-0.570213
-567,169,-3.34143,0.531677,-0.00510153,-0.00167825,0.00380955,0.00078652,-0.00756629,0.996535,0.00532576,0.0129898,657,855,-3.34141,-0.531657
-560,169,-3.36652,0.460388,-0.00535352,-0.00190639,0.00432943,0.00102994,-0.00828985,0.974834,0.00589992,0.0120026,664,855,-3.36655,-0.460384
-553,169,-3.33466,0.370605,-0.00554194,-0.00171781,0.00478589,0.00152383,-0.00878359,0.975445,0.00642419,0.0199815,671,855,-3.33468,-0.370623
-546,169,-3.64862,0.488892,-0.0057735,-0.00133622,0.00508217,0.00199048,-0.0091002,0.991206,0.0068277,0.029155,678,855,-3.64859,-0.488921
-539,169,-4.14618,0.618164,-0.00561637,-0.000615123,0.0053503,0.00279009,-0.00902158,1.004,0.0071288,0.0346323,685,855,-4.14615,-0.618151
-532,169,-4.48859,0.717468,-0.00498934,0.000162707,0.00533845,0.00351416,-0.00834079,1.01019,0.00703101,0.0368183,692,855,-4.48861,-0.717488
-525,169,-4.47437,0.756897,-0.00408107,0.00133309,0.00501693,0.0043267,-0.00707468,1.03281,0.00664602,0.0435769,699,855,-4.47438,-0.756898
-518,169,-4.46265,0.81604,-0.00280194,0.00304255,0.00435872,0.00536797,-0.00512736,1.0807,0.00606001,0.0416858,706,855,-4.46262,-0.816052
-511,169,-4.40021,0.838928,-0.0011373,0.00529957,0.0032992,0.00669015,-0.00252788,1.1719,0.00549991,0.0428054,713,855,-4.40023,-0.8389
-504,169,-4.48035,0.521729,0.000739143,0.00817063,0.00183503,0.00859905,0.000310722,1.34144,0.00563198,0.0428231,720,855,-4.48035,-0.52175
-497,169,-4.62427,0.426025,0.0023192,0.0115089,0.00030006,0.0115186,0.00230942,1.53819,0.00703677,0.0421358,727,855,-4.62424,-0.426036
-490,169,0,0,0,0,0,0,0,0,0,-1,734,855,0,0
-483,169,0,0,0,0,0,0,0,0,0,-1,741,855,0,0
-476,169,0,0,0,0,0,0,0,0,0,-1,748,855,0,0
-469,169,0,0,0,0,0,0,0,0,0,-1,755,855,0,0
-462,169,0,0,0,0,0,0,0,0,0,-1,762,855,0,0
-455,169,0,0,0,0,0,0,0,0,0,-1,769,855,0,0
-448,169,0,0,0,0,0,0,0,0,0,-1,776,855,0,0
-441,169,0,0,0,0,0,0,0,0,0,-1,783,855,0,0
-434,169,0,0,0,0,0,0,0,0,0,-1,790,855,0,0
-427,169,0,0,0,0,0,0,0,0,0,-1,797,855,0,0
-420,169,0,0,0,0,0,0,0,0,0,-1,804,855,0,0
-413,169,0,0,0,0,0,0,0,0,0,-1,811,855,0,0
-406,169,0,0,0,0,0,0,0,0,0,-1,818,855,0,0
-399,169,0,0,0,0,0,0,0,0,0,-1,825,855,0,0
-392,169,0,0,0,0,0,0,0,0,0,-1,832,855,0,0
-385,169,0,0,0,0,0,0,0,0,0,-1,839,855,0,0
-378,169,0,0,0,0,0,0,0,0,0,-1,846,855,0,0
-371,169,0,0,0,0,0,0,0,0,0,-1,853,855,0,0
-364,169,0,0,0,0,0,0,0,0,0,-1,860,855,0,0
-357,169,0,0,0,0,0,0,0,0,0,-1,867,855,0,0
-350,169,0,0,0,0,0,0,0,0,0,-1,874,855,0,0
-343,169,0,0,0,0,0,0,0,0,0,-1,881,855,0,0
-336,169,0,0,0,0,0,0,0,0,0,-1,888,855,0,0
-329,169,0,0,0,0,0,0,0,0,0,-1,895,855,0,0
-322,169,0,0,0,0,0,0,0,0,0,-1,902,855,0,0
-315,169,0,0,0,0,0,0,0,0,0,-1,909,855,0,0
-308,169,0,0,0,0,0,0,0,0,0,-1,916,855,0,0
-301,169,0,0,0,0,0,0,0,0,0,-1,923,855,0,0
-294,169,0,0,0,0,0,0,0,0,0,-1,930,855,0,0
-287,169,0,0,0,0,0,0,0,0,0,-1,937,855,0,0
-280,169,0,0,0,0,0,0,0,0,0,-1,944,855,0,0
-273,169,0,0,0,0,0,0,0,0,0,-1,951,855,0,0
-266,169,0,0,0,0,0,0,0,0,0,-1,958,855,0,0
-259,169,0,0,0,0,0,0,0,0,0,-1,965,855,0,0
-252,169,0,0,0,0,0,0,0,0,0,-1,972,855,0,0
-245,169,0,0,0,0,0,0,0,0,0,-1,979,855,0,0
-238,169,0,0,0,0,0,0,0,0,0,-1,986,855,0,0
-231,169,0,0,0,0,0,0,0,0,0,-1,993,855,0,0
-224,169,0,0,0,0,0,0,0,0,0,-1,1000,855,0,0
-217,169,0,0,0,0,0,0,0,0,0,-1,1007,855,0,0
-210,169,0,0,0,0,0,0,0,0,0,-1,1014,855,0,0
-203,169,0,0,0,0,0,0,0,0,0,-1,1021,855,0,0
-196,169,0,0,0,0,0,0,0,0,0,-1,1028,855,0,0
-189,169,0,0,0,0,0,0,0,0,0,-1,1035,855,0,0
-182,169,0,0,0,0,0,0,0,0,0,-1,1042,855,0,0
-175,169,0,0,0,0,0,0,0,0,0,-1,1049,855,0,0
-168,169,0,0,0,0,0,0,0,0,0,-1,1056,855,0,0
-161,169,0,0,0,0,0,0,0,0,0,-1,1063,855,0,0
-154,169,0,0,0,0,0,0,0,0,0,-1,1070,855,0,0
-147,169,0,0,0,0,0,0,0,0,0,-1,1077,855,0,0
-140,169,0,0,0,0,0,0,0,0,0,-1,1084,855,0,0
-133,169,0,0,0,0,0,0,0,0,0,-1,1091,855,0,0
-126,169,0,0,0,0,0,0,0,0,0,-1,1098,855,0,0
-119,169,0,0,0,0,0,0,0,0,0,-1,1105,855,0,0
-112,169,0,0,0,0,0,0,0,0,0,-1,1112,855,0,0
-105,169,0,0,0,0,0,0,0,0,0,-1,1119,855,0,0
-98,169,0,0,0,0,0,0,0,0,0,-1,1126,855,0,0
-91,169,0,0,0,0,0,0,0,0,0,-1,1133,855,0,0
-84,169,0,0,0,0,0,0,0,0,0,-1,1140,855,0,0
-77,169,0,0,0,0,0,0,0,0,0,-1,1147,855,0,0
-70,169,0,0,0,0,0,0,0,0,0,-1,1154,855,0,0
-63,169,0,0,0,0,0,0,0,0,0,-1,1161,855,0,0
-56,169,0,0,0,0,0,0,0,0,0,-1,1168,855,0,0
-49,169,0,0,0,0,0,0,0,0,0,-1,1175,855,0,0
-42,169,0,0,0,0,0,0,0,0,0,-1,1182,855,0,0
-35,169,0,0,0,0,0,0,0,0,0,-1,1189,855,0,0
-28,169,0,0,0,0,0,0,0,0,0,-1,1196,855,0,0
-21,169,0,0,0,0,0,0,0,0,0,-1,1203,855,0,0
-14,169,0,0,0,0,0,0,0,0,0,-1,1210,855,0,0
-7,169,0,0,0,0,0,0,0,0,0,-1,1217,855,0,0
0,169,0,0,0,0,0,0,0,0,0,-1,1224,855,0,0
7,169,0,0,0,0,0,0,0,0,0,-1,1231,855,0,0
14,169,0,0,0,0,0,0,0,0,0,-1,1238,855,0,0
21,169,0,0,0,0,0,0,0,0,0,-1,1245,855,0,0
28,169,0,0,0,0,0,0,0,0,0,-1,1252,855,0,0
35,169,0,0,0,0,0,0,0,0,0,-1,1259,855,0,0
42,169,0,0,0,0,0,0,0,0,0,-1,1266,855,0,0
49,169,0,0,0,0,0,0,0,0,0,-1,1273,855,0,0
56,169,0,0,0,0,0,0,0,0,0,-1,1280,855,0,0
63,169,0,0,0,0,0,0,0,0,0,-1,1287,855,0,0
70,169,0,0,0,0,0,0,0,0,0,-1,1294,855,0,0
77,169,0,0,0,0,0,0,0,0,0,-1,1301,855,0,0
84,169,0,0,0,0,0,0,0,0,0,-1,1308,855,0,0
91,169,0,0,0,0,0,0,0,0,0,-1,1315,855,0,0
98,169,0,0,0,0,0,0,0,0,0,-1,1322,855,0,0
105,169,0,0,0,0,0,0,0,0,0,-1,1329,855,0,0
112,169,0,0,0,0,0,0,0,0,0,-1,1336,855,0,0
119,169,0,0,0,0,0,0,0,0,0,-1,1343,855,0,0
126,169,0,0,0,0,0,0,0,0,0,-1,1350,855,0,0
133,169,0,0,0,0,0,0,0,0,0,-1,1357,855,0,0
140,169,0,0,0,0,0,0,0,0,0,-1,1364,855,0,0
147,169,0,0,0,0,0,0,0,0,0,-1,1371,855,0,0
154,169,0,0,0,0,0,0,0,0,0,-1,1378,855,0,0
161,169,0,0,0,0,0,0,0,0,0,-1,1385,855,0,0
168,169,0,0,0,0,0,0,0,0,0,-1,1392,855,0,0
175,169,0,0,0,0,0,0,0,0,0,-1,1399,855,0,0
182,169,0,0,0,0,0,0,0,0,0,-1,1406,855,0,0
189,169,0,0,0,0,0,0,0,0,0,-1,1413,855,0,0
196,169,0,0,0,0,0,0,0,0,0,-1,1420,855,0,0
203,169,0,0,0,0,0,0,0,0,0,-1,1427,855,0,0
210,169,0,0,0,0,0,0,0,0,0,-1,1434,855,0,0
217,169,0,0,0,0,0,0,0,0,0,-1,1441,855,0,0
224,169,0,0,0,0,0,0,0,0,0,-1,1448,855,0,0
231,169,0,0,0,0,0,0,0,0,0,-1,1455,855,0,0
238,169,0,0,0,0,0,0,0,0,0,-1,1462,855,0,0
245,169,0,0,0,0,0,0,0,0,0,-1,1469,855,0,0
252,169,0,0,0,0,0,0,0,0,0,-1,1476,855,0,0
259,169,0,0,0,0,0,0,0,0,0,-1,1483,855,0,0
266,169,0,0,0,0,0,0,0,0,0,-1,1490,855,0,0
273,169,0,0,0,0,0,0,0,0,0,-1,1497,855,0,0
280,169,0,0,0,0,0,0,0,0,0,-1,1504,855,0,0
287,169,0,0,0,0,0,0,0,0,0,-1,1511,855,0,0
294,169,0,0,0,0,0,0,0,0,0,-1,1518,855,0,0
301,169,0,0,0,0,0,0,0,0,0,-1,1525,855,0,0
308,169,0,0,0,0,0,0,0,0,0,-1,1532,855,0,0
315,169,0,0,0,0,0,0,0,0,0,-1,1539,855,0,0
322,169,0,0,0,0,0,0,0,0,0,-1,1546,855,0,0
329,169,0,0,0,0,0,0,0,0,0,-1,1553,855,0,0
336,169,0,0,0,0,0,0,0,0,0,-1,1560,855,0,0
343,169,0,0,0,0,0,0,0,0,0,-1,1567,855,0,0
350,169,0,0,0,0,0,0,0,0,0,-1,1574,855,0,0
357,169,0,0,0,0,0,0,0,0,0,-1,1581,855,0,0
364,169,0,0,0,0,0,0,0,0,0,-1,1588,855,0,0
371,169,0,0,0,0,0,0,0,0,0,-1,1595,855,0,0
378,169,0,0,0,0,0,0,0,0,0,-1,1602,855,0,0
385,169,0,0,0,0,0,0,0,0,0,-1,1609,855,0,0
392,169,0,0,0,0,0,0,0,0,0,-1,1616,855,0,0
399,169,0,0,0,0,0,0,0,0,0,-1,1623,855,0,0
406,169,0,0,0,0,0,0,0,0,0,-1,1630,855,0,0
413,169,0,0,0,0,0,0,0,0,0,-1,1637,855,0,0
420,169,0,0,0,0,0,0,0,0,0,-1,1644,855,0,0
427,169,0,0,0,0,0,0,0,0,0,-1,1651,855,0,0
434,169,0,0,0,0,0,0,0,0,0,-1,1658,855,0,0
441,169,0,0,0,0,0,0,0,0,0,-1,1665,855,0,0
448,169,0,0,0,0,0,0,0,0,0,-1,1672,855,0,0
455,169,0,0,0,0,0,0,0,0,0,-1,1679,855,0,0
462,169,0,0,0,0,0,0,0,0,0,-1,1686,855,0,0
469,169,0,0,0,0,0,0,0,0,0,-1,1693,855,0,0
476,169,0,0,0,0,0,0,0,0,0,-1,1700,855,0,0
483,169,0,0,0,0,0,0,0,0,0,-1,1707,855,0,0
490,169,0,0,0,0,0,0,0,0,0,-1,1714,855,0,0
497,169,0,0,0,0,0,0,0,0,0,-1,1721,855,0,0
504,169,0,0,0,0,0,0,0,0,0,-1,1728,855,0,0
511,169,0,0,0,0,0,0,0,0,0,-1,1735,855,0,0
518,169,0,0,0,0,0,0,0,0,0,-1,1742,855,0,0
525,169,0,0,0,0,0,0,0,0,0,-1,1749,855,0,0
532,169,0,0,0,0,0,0,0,0,0,-1,1756,855,0,0
539,169,0,0,0,0,0,0,0,0,0,-1,1763,855,0,0
546,169,0,0,0,0,0,0,0,0,0,-1,1770,855,0,0
553,169,0,0,0,0,0,0,0,0,0,-1,1777,855,0,0
560,169,0,0,0,0,0,0,0,0,0,-1,1784,855,0,0
567,169,0,0,0,0,0,0,0,0,0,-1,1791,855,0,0
574,169,0,0,0,0,0,0,0,0,0,-1,1798,855,0,0
581,169,0,0,0,0,0,0,0,0,0,-1,1805,855,0,0
588,169,0,0,0,0,0,0,0,0,0,-1,1812,855,0,0
595,169,0,0,0,0,0,0,0,0,0,-1,1819,855,0,0
602,169,0,0,0,0,0,0,0,0,0,-1,1826,855,0,0
609,169,0,0,0,0,0,0,0,0,0,-1,1833,855,0,0
616,169,9.47083,1.54376,0.00252706,0.000577427,-0.000311822,0.00257572,0.000528769,-0.154796,0.00157084,0.0445039,1840,855,9.47082,-1.54374
623,169,9.64417,1.54364,0.00190655,-4.15141e-05,-0.000977218,0.00231226,-0.000447225,-0.393515,0.00171019,0.0464005,1847,855,9.64418,-1.54366
630,169,9.83862,1.65356,-2.93057e-05,-0.000450994,-0.0019438,0.00171505,-0.00219535,-0.731374,0.00226334,0.04291,1854,855,9.83866,-1.65353
637,169,9.71106,1.40448,-0.002469,-0.000833453,-0.00281587,0.00128099,-0.00458344,-0.926719,0.00356028,0.0373017,1861,855,9.71104,-1.40449
644,169,9.53809,1.30194,-0.00482853,-0.00111937,-0.0035264,0.00101039,-0.00695829,-1.02748,0.00500974,0.0355247,1868,855,9.53813,-1.30193
651,169,9.52002,1.35535,-0.00673665,-0.00134021,-0.00399778,0.000784711,-0.00886156,-1.08225,0.00618589,0.033409,1875,855,9.52004,-1.35538
658,169,9.65002,1.27661,-0.00812558,-0.00148976,-0.00426354,0.000594767,-0.0102101,-1.11605,0.0070134,0.0315496,1882,855,9.65,-1.27661
665,169,9.80139,1.09052,-0.00906415,-0.00155084,-0.00438578,0.00046724,-0.0110822,-1.13954,0.00754872,0.0454507,1889,855,9.80134,-1.09054
672,169,9.09644,1.03589,0,0,0,0,0,0,0,-1,1896,855,9.09643,-1.03589
679,169,8.7019,1.07373,-0.00986904,-0.00144636,-0.00399761,0.000148866,-0.0114643,-1.19111,0.00769295,0.0445152,1903,855,8.70188,-1.0737
686,169,8.36035,1.08484,-0.00952648,-0.00133959,-0.00360965,2.46074e-05,-0.0108907,-1.20946,0.00726867,0.0195673,1910,855,8.3604,-1.08481
693,169,8.36707,1.18536,-0.00869258,-0.00113394,-0.00311435,-1.60742e-05,-0.00981045,-1.22618,0.00653495,0.0110199,1917,855,8.36709,-1.18534
700,169,8.37549,1.27063,-0.00772834,-0.000904041,-0.00247765,-9.93749e-05,-0.008533,-1.25677,0.00565583,0.0119679,1924,855,8.37554,-1.27066
707,169,8.38037,1.3277,-0.0068139,-0.00035092,-0.00174738,9.12612e-05,-0.00725608,-1.32295,0.00486809,0.0137503,1931,855,8.38036,-1.32769
714,169,8.36401,1.38055,-0.00562639,0.000318267,-0.000974693,0.000474,-0.00578212,-1.41236,0.00402207,0.0139266,1938,855,8.36405,-1.38053
721,169,8.34839,1.46436,-0.00353944,0.00216759,-1.86457e-05,0.00216766,-0.0035395,-1.56753,0.00332661,0.0153925,1945,855,8.34841,-1.46436
728,169,8.35339,1.539,-0.00102039,0.00521028,0.00118236,0.00542711,-0.00123722,1.38943,0.00409328,0.0123687,1952,855,8.35335,-1.53898
735,169,8.35876,1.59802,0.00114117,0.00768227,0.00189396,0.00819108,0.000632355,1.30834,0.00526261,0.0177073,1959,855,8.3588,-1.59801
742,169,8.36487,1.67859,0.00353658,0.0112336,0.00235663,0.0118978,0.00287235,1.29607,0.00716886,0.0131132,1966,855,8.3649,-1.67858
749,169,8.35754,1.75281,0.00640838,0.0159401,0.00301959,0.0168161,0.00553231,1.28842,0.00989627,0.0211874,1973,855,8.35752,-1.7528
756,169,8.31982,1.86737,0.0103496,0.0219512,0.00354361,0.0229479,0.00935283,1.29661,0.0133242,0.0438123,1980,855,8.31988,-1.86739
763,169,8.33875,1.97046,0,0,0,0,0,0,0,-1,1987,855,8.3387,-1.97046
770,169,8.4325,1.74042,0,0,0,0,0,0,0,-1,1994,855,8.43252,-1.74044
777,169,8.12427,1.99646,0,0,0,0,0,0,0,-1,2001,855,8.12429,-1.99645
784,169,8.49792,1.63293,0,0,0,0,0,0,0,-1,2008,855,8.49788,-1.6329
791,169,0,0,0,0,0,0,0,0,0,-1,2015,855,0,0
798,169,0,0,0,0,0,0,0,0,0,-1,2022,855,0,0
805,169,0,0,0,0,0,0,0,0,0,-1,2029,855,0,0
812,169,0,0,0,0,0,0,0,0,0,-1,2036,855,0,0
-700,162,0,0,0,0,0,0,0,0,0,-1,524,862,0,0
-693,162,0,0,0,0,0,0,0,0,0,-1,531,862,0,0
-686,162,0,0,0,0,0,0,0,0,0,-1,538,862,0,0
-679,162,0,0,0,0,0,0,0,0,0,-1,545,862,0,0
-672,162,0,0,0,0,0,0,0,0,0,-1,552,862,0,0
-665,162,-4.86731,2.35925,0.0688615,-0.0658993,-0.000297424,0.0688622,-0.0659,-0.00220703,0.0778112,0.0452613,559,862,-4.86729,-2.35926
-658,162,-5.01923,2.09711,0.0529386,-0.0470151,-0.00242053,0.0529972,-0.0470737,-0.0241976,0.0578097,0.0469696,566,862,-5.01925,-2.09711
-651,162,-4.95209,1.50592,0,0,0,0,0,0,0,-1,573,862,-4.9521,-1.50589
-644,162,-3.04352,2.099,0,0,0,0,0,0,0,-1,580,862,-3.04352,-2.09898
-637,162,-3.03754,1.80518,0.018608,-0.0128062,-0.00455238,0.0192544,-0.0134526,-0.14105,0.0189822,0.0440745,587,862,-3.03754,-1.80516
-630,162,-3.22046,1.49817,0.0115799,-0.00697793,-0.00438118,0.0125622,-0.00796025,-0.220566,0.0119475,0.0421761,594,862,-3.22044,-1.49817
-623,162,-3.33887,1.07782,0.00660769,-0.00310006,-0.0039439,0.00800797,-0.00450034,-0.341166,0.00731571,0.0336467,601,862,-3.33884,-1.0778
-616,162,-3.4093,0.955933,0.00283377,-0.000323061,-0.00358145,0.0051692,-0.00265849,-0.577843,0.00459616,0.0184287,608,862,-3.40929,-0.955916
-609,162,-3.42139,0.911499,0.000104229,0.00139339,-0.00253263,0.00336218,-0.00186456,-0.910008,0.00305867,0.0123823,615,862,-3.42137,-0.911477
-602,162,-3.43848,0.831787,-0.0027587,0.00233489,-0.00128082,0.00263882,-0.00306264,-1.33781,0.00329477,0.0109689,622,862,-3.43848,-0.831762
-595,162,-3.41333,0.760193,-0.0039336,0.00143953,-0.000748453,0.00154183,-0.00403591,-1.43495,0.00332589,0.0107864,629,862,-3.41334,-0.760185
-588,162,-3.39777,0.694214,-0.00442212,0.000567384,0.00044993,0.000607632,-0.00446237,1.48158,0.00319676,0.0109556,636,862,-3.39777,-0.694193
-581,162,-3.43396,0.616699,-0.0048403,-0.000611211,0.00175102,1.96693e-05,-0.00547118,1.22498,0.00365403,0.0124734,643,862,-3.43394,-0.616721
-574,162,-3.47729,0.539429,-0.00520539,-0.00162557,0.00311042,0.000173179,-0.00700414,1.04649,0.00472821,0.0167579,650,862,-3.47727,-0.539425
-567,162,-3.45282,0.495911,-0.00576757,-0.00169187,0.00379934,0.000581636,-0.00804109,1.03156,0.00556474,0.0183861,657,862,-3.45284,-0.495915
-560,162,-3.44019,0.404663,-0.00597937,-0.00185949,0.00419162,0.000751012,-0.00858987,1.01379,0.00599262,0.0132793,664,862,-3.44017,-0.404648
-553,162,-3.47668,0.368835,0,0,0,0,0,0,0,-1,671,862,-3.47668,-0.368851
-546,162,-3.89917,0.472412,0,0,0,0,0,0,0,-1,678,862,-3.89918,-0.472403
-539,162,-4.32166,0.575928,0,0,0,0,0,0,0,-1,685,862,-4.32168,-0.575954
-532,162,-4.44714,0.706177,-0.00525307,0.000481178,0.00459125,0.003027,-0.00779889,1.06451,0.00644955,0.0363184,692,862,-4.44717,-0.706173
-525,162,-4.44153,0.820374,-0.00412812,0.00183149,0.00406286,0.00389015,-0.00618678,1.1018,0.00586807,0.041247,699,862,-4.44152,-0.820345
-518,162,-4.52417,0.844177,-0.00255417,0.00376414,0.0031774,0.00508562,-0.00387566,1.17666,0.00518949,0.0428257,706,862,-4.52417,-0.844161
-511,162,-4.47473,0.690063,-0.000516827,0.00637486,0.00188839,0.00685837,-0.00100034,1.32014,0.00493957,0.0451493,713,862,-4.4747,-0.690051
-504,162,-4.37311,0.453491,0.00167108,0.0097897,0.000277962,0.0097992,0.00166157,1.53661,0.00605541,0.0453248,720,862,-4.3731,-0.45351
-497,162,-4.39349,0.481873,0.00327548,0.0138296,-0.00105543,0.0139341,0.00317097,-1.4721,0.00843355,0.0449947,727,862,-4.3935,-0.481901
-490,162,0,0,0,0,0,0,0,0,0,-1,734,862,0,0
-483,162,0,0,0,0,0,0,0,0,0,-1,741,862,0,0
-476,162,0,0,0,0,0,0,0,0,0,-1,748,862,0,0
-469,162,0,0,0,0,0,0,0,0,0,-1,755,862,0,0
-462,162,0,0,0,0,0,0,0,0,0,-1,762,862,0,0
-455,162,0,0,0,0,0,0,0,0,0,-1,769,862,0,0
-448,162,0,0,0,0,0,0,0,0,0,-1,776,862,0,0
-441,162,0,0,0,0,0,0,0,0,0,-1,783,862,0,0
-434,162,0,0,0,0,0,0,0,0,0,-1,790,862,0,0
-427,162,0,0,0,0,0,0,0,0,0,-1,797,862,0,0
-420,162,0,0,0,0,0,0,0,0,0,-1,804,862,0,0
-413,162,0,0,0,0,0,0,0,0,0,-1,811,862,0,0
-406,162,0,0,0,0,0,0,0,0,0,-1,818,862,0,0
-399,162,0,0,0,0,0,0,0,0,0,-1,825,862,0,0
-392,162,0,0,0,0,0,0,0,0,0,-1,832,862,0,0
-385,162,0,0,0,0,0,0,0,0,0,-1,839,862,0,0
-378,162,0,0,0,0,0,0,0,0,0,-1,846,862,0,0
-371,162,0,0,0,0,0,0,0,0,0,-1,853,862,0,0
-364,162,0,0,0,0,0,0,0,0,0,-1,860,862,0,0
-357,162,0,0,0,0,0,0,0,0,0,-1,867,862,0,0
-350,162,0,0,0,0,0,0,0,0,0,-1,874,862,0,0
-343,162,0,0,0,0,0,0,0,0,0,-1,881,862,0,0
-336,162,0,0,0,0,0,0,0,0,0,-1,888,862,0,0
-329,162,0,0,0,0,0,0,0,0,0,-1,895,862,0,0
-322,162,0,0,0,0,0,0,0,0,0,-1,902,862,0,0
-315,162,0,0,0,0,0,0,0,0,0,-1,909,862,0,0
-308,162,0,0,0,0,0,0,0,0,0,-1,916,862,0,0
-301,162,0,0,0,0,0,0,0,0,0,-1,923,862,0,0
-294,162,0,0,0,0,0,0,0,0,0,-1,930,862,0,0
-287,162,0,0,0,0,0,0,0,0,0,-1,937,862,0,0
-280,162,0,0,0,0,0,0,0,0,0,-1,944,862,0,0
-273,162,0,0,0,0,0,0,0,0,0,-1,951,862,0,0
-266,162,0,0,0,0,0,0,0,0,0,-1,958,862,0,0
-259,162,0,0,0,0,0,0,0,0,0,-1,965,862,0,0
-252,162,0,0,0,0,0,0,0,0,0,-1,972,862,0,0
-245,162,0,0,0,0,0,0,0,0,0,-1,979,862,0,0
-238,162,0,0,0,0,0,0,0,0,0,-1,986,862,0,0
-231,162,0,0,0,0,0,0,0,0,0,-1,993,862,0,0
-224,162,0,0,0,0,0,0,0,0,0,-1,1000,862,0,0
-217,162,0,0,0,0,0,0,0,0,0,-1,1007,862,0,0
-210,162,0,0,0,0,0,0,0,0,0,-1,1014,862,0,0
-203,162,0,0,0,0,0,0,0,0,0,-1,1021,862,0,0
-196,162,0,0,0,0,0,0,0,0,0,-1,1028,862,0,0
-189,162,0,0,0,0,0,0,0,0,0,-1,1035,862,0,0
-182,162,0,0,0,0,0,0,0,0,0,-1,1042,862,0,0
-175,162,0,0,0,0,0,0,0,0,0,-1,1049,862,0,0
-168,162,0,0,0,0,0,0,0,0,0,-1,1056,862,0,0
-161,162,0,0,0,0,0,0,0,0,0,-1,1063,862,0,0
-154,162,0,0,0,0,0,0,0,0,0,-1,1070,862,0,0
-147,162,0,0,0,0,0,0,0,0,0,-1,1077,862,0,0
-140,162,0,0,0,0,0,0,0,0,0,-1,1084,862,0,0
-133,162,0,0,0,0,0,0,0,0,0,-1,1091,862,0,0
-126,162,0,0,0,0,0,0,0,0,0,-1,1098,862,0,0
-119,162,0,0,0,0,0,0,0,0,0,-1,1105,862,0,0
-112,162,0,0,0,0,0,0,0,0,0,-1,1112,862,0,0
-105,162,0,0,0,0,0,0,0,0,0,-1,1119,862,0,0
-98,162,0,0,0,0,0,0,0,0,0,-1,1126,862,0,0
-91,162,0,0,0,0,0,0,0,0,0,-1,1133,862,0,0
-84,162,0,0,0,0,0,0,0,0,0,-1,1140,862,0,0
-77,162,0,0,0,0,0,0,0,0,0,-1,1147,862,0,0
-70,162,0,0,0,0,0,0,0,0,0,-1,1154,862,0,0
-63,162,0,0,0,0,0,0,0,0,0,-1,1161,862,0,0
-56,162,0,0,0,0,0,0,0,0,0,-1,1168,862,0,0
-49,162,0,0,0,0,0,0,0,0,0,-1,1175,862,0,0
-42,162,0,0,0,0,0,0,0,0,0,-1,1182,862,0,0
-35,162,0,0,0,0,0,0,0,0,0,-1,1189,862,0,0
-28,162,0,0,0,0,0,0,0,0,0,-1,1196,862,0,0
-21,162,0,0,0,0,0,0,0,0,0,-1,1203,862,0,0
-14,162,0,0,0,0,0,0,0,0,0,-1,1210,862,0,0
-7,162,0,0,0,0,0,0,0,0,0,-1,1217,862,0,0
0,162,0,0,0,0,0,0,0,0,0,-1,1224,862,0,0
7,162,0,0,0,0,0,0,0,0,0,-1,1231,862,0,0
14,162,0,0,0,0,0,0,0,0,0,-1,1238,862,0,0
21,162,0,0,0,0,0,0,0,0,0,-1,1245,862,0,0
28,162,0,0,0,0,0,0,0,0,0,-1,1252,862,0,0
35,162,0,0,0,0,0,0,0,0,0,-1,1259,862,0,0
42,162,0,0,0,0,0,0,0,0,0,-1,1266,862,0,0
49,162,0,0,0,0,0,0,0,0,0,-1,1273,862,0,0
56,162,0,0,0,0,0,0,0,0,0,-1,1280,862,0,0
63,162,0,0,0,0,0,0,0,0,0,-1,1287,862,0,0
70,162,0,0,0,0,0,0,0,0,0,-1,1294,862,0,0
77,162,0,0,0,0,0,0,0,0,0,-1,1301,862,0,0
84,162,0,0,0,0,0,0,0,0,0,-1,1308,862,0,0
91,162,0,0,0,0,0,0,0,0,0,-1,1315,862,0,0
98,162,0,0,0,0,0,0,0,0,0,-1,1322,862,0,0
105,162,0,0,0,0,0,0,0,0,0,-1,1329,862,0,0
112,162,0,0,0,0,0,0,0,0,0,-1,1336,862,0,0
119,162,0,0,0,0,0,0,0,0,0,-1,1343,862,0,0
126,162,0,0,0,0,0,0,0,0,0,-1,1350,862,0,0
133,162,0,0,0,0,0,0,0,0,0,-1,1357,862,0,0
140,162,0,0,0,0,0,0,0,0,0,-1,1364,862,0,0
147,162,0,0,0,0,0,0,0,0,0,-1,1371,862,0,0
154,162,0,0,0,0,0,0,0,0,0,-1,1378,862,0,0
161,162,0,0,0,0,0,0,0,0,0,-1,1385,862,0,0
168,162,0,0,0,0,0,0,0,0,0,-1,1392,862,0,0
175,162,0,0,0,0,0,0,0,0,0,-1,1399,862,0,0
182,162,0,0,0,0,0,0,0,0,0,-1,1406,862,0,0
189,162,0,0,0,0,0,0,0,0,0,-1,1413,862,0,0
196,162,0,0,0,0,0,0,0,0,0,-1,1420,862,0,0
203,162,0,0,0,0,0,0,0,0,0,-1,1427,862,0,0
210,162,0,0,0,0,0,0,0,0,0,-1,1434,862,0,0
217,162,0,0,0,0,0,0,0,0,0,-1,1441,862,0,0
224,162,0,0,0,0,0,0,0,0,0,-1,1448,862,0,0
231,162,0,0,0,0,0,0,0,0,0,-1,1455,862,0,0
238,162,0,0,0,0,0,0,0,0,0,-1,1462,862,0,0
245,162,0,0,0,0,0,0,0,0,0,-1,1469,862,0,0
252,162,0,0,0,0,0,0,0,0,0,-1,1476,862,0,0
259,162,0,0,0,0,0,0,0,0,0,-1,1483,862,0,0
266,162,0,0,0,0,0,0,0,0,0,-1,1490,862,0,0
273,162,0,0,0,0,0,0,0,0,0,-1,1497,862,0,0
280,162,0,0,0,0,0,0,0,0,0,-1,1504,862,0,0
287,162,0,0,0,0,0,0,0,0,0,-1,1511,862,0,0
294,162,0,0,0,0,0,0,0,0,0,-1,1518,862,0,0
301,162,0,0,0,0,0,0,0,0,0,-1,1525,862,0,0
308,162,0,0,0,0,0,0,0,0,0,-1,1532,862,0,0
315,162,0,0,0,0,0,0,0,0,0,-1,1539,862,0,0
322,162,0,0,0,0,0,0,0,0,0,-1,1546,862,0,0
329,162,0,0,0,0,0,0,0,0,0,-1,1553,862,0,0
336,162,0,0,0,0,0,0,0,0,0,-1,1560,862,0,0
343,162,0,0,0,0,0,0,0,0,0,-1,1567,862,0,0
350,162,0,0,0,0,0,0,0,0,0,-1,1574,862,0,0
357,162,0,0,0,0,0,0,0,0,0,-1,1581,862,0,0
364,162,0,0,0,0,0,0,0,0,0,-1,1588,862,0,0
371,162,0,0,0,0,0,0,0,0,0,-1,1595,862,0,0
378,162,0,0,0,0,0,0,0,0,0,-1,1602,862,0,0
385,162,0,0,0,0,0,0,0,0,0,-1,1609,862,0,0
392,162,0,0,0,0,0,0,0,0,0,-1,1616,862,0,0
399,162,0,0,0,0,0,0,0,0,0,-1,1623,862,0,0
406,162,0,0,0,0,0,0,0,0,0,-1,1630,862,0,0
413,162,0,0,0,0,0,0,0,0,0,-1,1637,862,0,0
420,162,0,0,0,0,0,0,0,0,0,-1,1644,862,0,0
427,162,0,0,0,0,0,0,0,0,0,-1,1651,862,0,0
434,162,0,0,0,0,0,0,0,0,0,-1,1658,862,0,0
441,162,0,0,0,0,0,0,0,0,0,-1,1665,862,0,0
448,162,0,0,0,0,0,0,0,0,0,-1,1672,862,0,0
455,162,0,0,0,0,0,0,0,0,0,-1,1679,862,0,0
462,162,0,0,0,0,0,0,0,0,0,-1,1686,862,0,0
469,162,0,0,0,0,0,0,0,0,0,-1,1693,862,0,0
476,162,0,0,0,0,0,0,0,0,0,-1,1700,862,0,0
483,162,0,0,0,0,0,0,0,0,0,-1,1707,862,0,0
490,162,0,0,0,0,0,0,0,0,0,-1,1714,862,0,0
497,162,0,0,0,0,0,0,0,0,0,-1,1721,862,0,0
504,162,0,0,0,0,0,0,0,0,0,-1,1728,862,0,0
511,162,0,0,0,0,0,0,0,0,0,-1,1735,862,0,0
518,162,0,0,0,0,0,0,0,0,0,-1,1742,862,0,0
525,162,0,0,0,0,0,0,0,0,0,-1,1749,862,0,0
532,162,0,0,0,0,0,0,0,0,0,-1,1756,862,0,0
539,162,0,0,0,0,0,0,0,0,0,-1,1763,862,0,0
546,162,0,0,0,0,0,0,0,0,0,-1,1770,862,0,0
553,162,0,0,0,0,0,0,0,0,0,-1,1777,862,0,0
560,162,0,0,0,0,0,0,0,0,0,-1,1784,862,0,0
567,162,0,0,0,0,0,0,0,0,0,-1,1791,862,0,0
574,162,0,0,0,0,0,0,0,0,0,-1,1798,862,0,0
581,162,0,0,0,0,0,0,0,0,0,-1,1805,862,0,0
588,162,0,0,0,0,0,0,0,0,0,-1,1812,862,0,0
595,162,0,0,0,0,0,0,0,0,0,-1,1819,862,0,0
602,162,0,0,0,0,0,0,0,0,0,-1,1826,862,0,0
609,162,0,0,0,0,0,0,0,0,0,-1,1833,862,0,0
616,162,9.52026,1.46014,0.00265909,0.000646284,-0.000245268,0.00268855,0.000616828,-0.119524,0.00162623,0.043804,1840,862,9.52027,-1.46017
623,162,9.62317,1.44598,0.00231629,-1.09382e-05,-0.000780259,0.00255367,-0.000248325,-0.295343,0.00179097,0.0454859,1847,862,9.62319,-1.44597
630,162,9.79858,1.40424,0.000682171,-0.000444184,-0.00164794,0.00186051,-0.00162252,-0.620747,0.00201249,0.0436876,1854,862,9.79857,-1.40426
637,162,9.70679,1.46307,-0.00161251,-0.000883823,-0.00248845,0.00126681,-0.00376314,-0.858089,0.00302091,0.0411582,1861,862,9.70685,-1.46305
644,162,9.58374,1.28461,-0.00404061,-0.0012147,-0.00320847,0.000878152,-0.00613347,-0.992812,0.00441093,0.0369719,1868,862,9.58377,-1.28458
651,162,9.59082,1.30164,-0.00613215,-0.00145685,-0.00372106,0.000599922,-0.00818892,-1.06585,0.00566984,0.0334737,1875,862,9.59079,-1.30162
658,162,9.69214,1.25671,-0.00770204,-0.00161432,-0.00402395,0.000387343,-0.0097037,-1.1092,0.00660204,0.0336664,1882,862,9.69218,-1.25668
665,162,9.70056,1.1944,-0.0087929,-0.00167415,-0.00417256,0.00025095,-0.010718,-1.13853,0.00723043,0.0415292,1889,862,9.70057,-1.19439
672,162,9.38818,1.31476,0,0,0,0,0,0,0,-1,1896,862,9.38813,-1.31473
679,162,8.93079,1.24158,0,0,0,0,0,0,0,-1,1903,862,8.9308,-1.24156
686,162,8.47351,1.1684,0,0,0,0,0,0,0,-1,1910,862,8.47347,-1.16838
693,162,8.43335,1.21222,-0.00893306,-0.00117721,-0.00311667,-7.99983e-05,-0.0100303,-1.2323,0.00666034,0.0150544,1917,862,8.43333,-1.21225
700,162,8.44348,1.26721,-0.00808632,-0.00090124,-0.00253952,-9.42927e-05,-0.00889326,-1.26313,0.00589766,0.0153516,1924,862,8.44348,-1.2672
707,162,8.45483,1.31531,-0.00720835,-0.00035049,-0.00190308,0.00014222,-0.00770106,-1.31746,0.00518209,0.0111743,1931,862,8.45483,-1.31534
714,162,8.46509,1.35663,-0.00602157,0.000249601,-0.00121804,0.000477869,-0.00624984,-1.38554,0.00433464,0.0148471,1938,862,8.46509,-1.3566
721,162,8.41833,1.49146,-0.00400361,0.00184615,-0.000382562,0.00187107,-0.00402852,-1.50577,0.00348122,0.028409,1945,862,8.41828,-1.49143
728,162,8.37207,1.56311,-0.00154274,0.00440842,0.000681689,0.00448551,-0.00161983,1.45819,0.00365206,0.0220739,1952,862,8.37201,-1.56309
735,162,8.41956,1.61316,0.000724241,0.00635155,0.00128488,0.00663105,0.000444746,1.35661,0.00428016,0.0110488,1959,862,8.4196,-1.61315
742,162,8.44397,1.6756,0.00319372,0.00909538,0.00159526,0.00949899,0.00279012,1.32299,0.00563766,0.0119877,1966,862,8.44402,-1.6756
749,162,8.42188,1.73822,0.00594923,0.0125936,0.00212263,0.0132138,0.00532902,1.28652,0.0076764,0.0154757,1973,862,8.42184,-1.73821
756,162,8.3938,1.80414,0.00947169,0.0169732,0.00242977,0.0176914,0.00875344,1.28338,0.0102143,0.0353806,1980,862,8.3938,-1.80416
763,162,8.82605,1.50323,0.0142899,0.0220654,0.00252604,0.0228139,0.0135414,1.2827,0.0132483,0.0449461,1987,862,8.82605,-1.50325
770,162,8.43945,1.78326,0.0207127,0.0276423,0.00226374,0.0283163,0.0200387,1.28143,0.0168119,0.0472458,1994,862,8.43946,-1.78325
777,162,8.21851,2.06818,0.0289053,0.0332767,0.00140344,0.0336885,0.0284936,1.2854,0.0209432,0.0466291,2001,862,8.2185,-2.06816
784,162,8.37402,2.0733,0.0392714,0.0382366,-0.000456785,0.0394442,0.0380639,-0.361641,0.0258483,0.0438564,2008,862,8.37404,-2.07331
791,162,0,0,0,0,0,0,0,0,0,-1,2015,862,0,0
798,162,0,0,0,0,0,0,0,0,0,-1,2022,862,0,0
805,162,0,0,0,0,0,0,0,0,0,-1,2029,862,0,0
812,162,0,0,0,0,0,0,0,0,0,-1,2036,862,0,0
-700,155,0,0,0,0,0,0,0,0,0,-1,524,869,0,0
-693,155,0,0,0,0,0,0,0,0,0,-1,531,869,0,0
-686,155,0,0,0,0,0,0,0,0,0,-1,538,869,0,0
-679,155,0,0,0,0,0,0,0,0,0,-1,545,869,0,0
-672,155,0,0,0,0,0,0,0,0,0,-1,552,869,0,0
-665,155,-4.66217,2.76691,0,0,0,0,0,0,0,-1,559,869,-4.66216,-2.76693
-658,155,-4.43982,2.35681,0.0481527,-0.0483211,-0.00169492,0.0481825,-0.0483509,-0.0175615,0.0557336,0.0438181,566,869,-4.43981,-2.3568
-651,155,-4.42395,1.86847,0.0364966,-0.033781,-0.00233575,0.0365741,-0.0338586,-0.0331872,0.0406744,0.0471376,573,869,-4.42398,-1.86846
-644,155,-3.19568,2.20197,0.0265415,-0.0225599,-0.00265914,0.0266851,-0.0227035,-0.0539457,0.0285454,0.0464072,580,869,-3.19566,-2.20196
-637,155,-3.22717,1.59235,0.0183618,-0.0141839,-0.00272852,0.018589,-0.014411,-0.0830641,0.0191034,0.0454984,587,869,-3.22717,-1.59235
-630,155,-3.23669,1.14606,0.0119291,-0.00821584,-0.00259787,0.0122587,-0.00854546,-0.126208,0.0120749,0.0395128,594,869,-3.23667,-1.14604
-623,155,-3.41913,1.01398,0.00728483,-0.00414718,-0.0023254,0.00773974,-0.00460209,-0.193187,0.0072019,0.0246129,601,869,-3.41912,-1.014
-616,155,-3.46777,0.972656,0.00350682,-0.00109439,-0.00222167,0.00440443,-0.001992,-0.383973,0.00377952,0.0136588,608,869,-3.46778,-0.972634
-609,155,-3.47235,0.9104,0.000514875,0.000767917,-0.00135567,0.00200295,-0.000720161,-0.831927,0.0016293,0.0124311,615,869,-3.47238,-0.910381
-602,155,-3.48145,0.827698,-0.00216771,0.00163581,-0.000231041,0.00164979,-0.00218169,-1.51035,0.00221921,0.0112987,622,869,-3.48145,-0.827677
-595,155,-3.49017,0.753052,-0.00366218,0.0010437,0.000121651,0.00104684,-0.00366532,1.54497,0.00285715,0.0104206,629,869,-3.49017,-0.753036
-588,155,-3.47864,0.687561,-0.00451931,0.000225926,0.000968744,0.000416076,-0.00470946,1.37698,0.00328712,0.0120018,636,869,-3.47863,-0.687549
-581,155,-3.51642,0.626221,-0.00521555,-0.000746524,0.00202896,3.71973e-05,-0.00599928,1.20218,0.00401197,0.0158798,643,869,-3.5164,-0.626251
-574,155,-3.54333,0.563599,-0.00574124,-0.00154153,0.00318298,0.000171853,-0.00745462,1.07698,0.00502801,0.0206652,650,869,-3.54332,-0.563622
-567,155,-3.51086,0.463013,-0.00629347,-0.00152177,0.00375171,0.00053846,-0.0083537,1.06861,0.00575702,0.0209838,657,869,-3.51084,-0.463012
-560,155,-3.49969,0.386902,-0.00648433,-0.00161915,0.00405244,0.000674757,-0.00877824,1.05571,0.00608955,0.0203419,664,869,-3.49969,-0.386879
-553,155,-3.54553,0.435547,-0.00661863,-0.00128148,0.00431606,0.00112435,-0.00902447,1.06228,0.00642398,0.0318886,671,869,-3.54555,-0.435518
-546,155,-3.99994,0.598145,0,0,0,0,0,0,0,-1,678,869,-3.99997,-0.598159
-539,155,-4.40143,0.712524,0,0,0,0,0,0,0,-1,685,869,-4.40144,-0.71251
-532,155,-4.46582,0.604187,-0.00537833,0.00101112,0.0039276,0.00287923,-0.00724644,1.12683,0.00602458,0.0352078,692,869,-4.46581,-0.604196
-525,155,-4.39069,0.751221,-0.00403915,0.00250474,0.00319555,0.00380632,-0.00534074,1.184,0.00530577,0.0392524,699,869,-4.39069,-0.751195
-518,155,-4.41211,0.841248,-0.00217739,0.00458645,0.00207201,0.00517071,-0.00276165,1.29595,0.00464962,0.04244,706,869,-4.41208,-0.841261
-511,155,-4.35126,0.686279,0.000169231,0.00741619,0.000524202,0.00745391,0.00013151,1.49896,0.00492602,0.0425008,713,869,-4.35126,-0.686302
-504,155,-4.2265,0.429138,0,0,0,0,0,0,0,-1,720,869,-4.22649,-0.429109
-497,155,0,0,0,0,0,0,0,0,0,-1,727,869,0,0
-490,155,0,0,0,0,0,0,0,0,0,-1,734,869,0,0
-483,155,0,0,0,0,0,0,0,0,0,-1,741,869,0,0
-476,155,0,0,0,0,0,0,0,0,0,-1,748,869,0,0
-469,155,0,0,0,0,0,0,0,0,0,-1,755,869,0,0
-462,155,0,0,0,0,0,0,0,0,0,-1,762,869,0,0
-455,155,0,0,0,0,0,0,0,0,0,-1,769,869,0,0
-448,155,0,0,0,0,0,0,0,0,0,-1,776,869,0,0
-441,155,0,0,0,0,0,0,0,0,0,-1,783,869,0,0
-434,155,0,0,0,0,0,0,0,0,0,-1,790,869,0,0
-427,155,0,0,0,0,0,0,0,0,0,-1,797,869,0,0
-420,155,0,0,0,0,0,0,0,0,0,-1,804,869,0,0
-413,155,0,0,0,0,0,0,0,0,0,-1,811,869,0,0
-406,155,0,0,0,0,0,0,0,0,0,-1,818,869,0,0
-399,155,0,0,0,0,0,0,0,0,0,-1,825,869,0,0
-392,155,0,0,0,0,0,0,0,0,0,-1,832,869,0,0
-385,155,0,0,0,0,0,0,0,0,0,-1,839,869,0,0
-378,155,0,0,0,0,0,0,0,0,0,-1,846,869,0,0
-371,155,0,0,0,0,0,0,0,0,0,-1,853,869,0,0
-364,155,0,0,0,0,0,0,0,0,0,-1,860,869,0,0
-357,155,0,0,0,0,0,0,0,0,0,-1,867,869,0,0
-350,155,0,0,0,0,0,0,0,0,0,-1,874,869,0,0
-343,155,0,0,0,0,0,0,0,0,0,-1,881,869,0,0
-336,155,0,0,0,0,0,0,0,0,0,-1,888,869,0,0
-329,155,0,0,0,0,0,0,0,0,0,-1,895,869,0,0
-322,155,0,0,0,0,0,0,0,0,0,-1,902,869,0,0
-315,155,0,0,0,0,0,0,0,0,0,-1,909,869,0,0
-308,155,0,0,0,0,0,0,0,0,0,-1,916,869,0,0
-301,155,0,0,0,0,0,0,0,0,0,-1,923,869,0,0
-294,155,0,0,0,0,0,0,0,0,0,-1,930,869,0,0
-287,155,0,0,0,0,0,0,0,0,0,-1,937,869,0,0
-280,155,0,0,0,0,0,0,0,0,0,-1,944,869,0,0
-273,155,0,0,0,0,0,0,0,0,0,-1,951,869,0,0
-266,155,0,0,0,0,0,0,0,0,0,-1,958,869,0,0
-259,155,0,0,0,0,0,0,0,0,0,-1,965,869,0,0
-252,155,0,0,0,0,0,0,0,0,0,-1,972,869,0,0
-245,155,0,0,0,0,0,0,0,0,0,-1,979,869,0,0
-238,155,0,0,0,0,0,0,0,0,0,-1,986,869,0,0
-231,155,0,0,0,0,0,0,0,0,0,-1,993,869,0,0
-224,155,0,0,0,0,0,0,0,0,0,-1,1000,869,0,0
-217,155,0,0,0,0,0,0,0,0,0,-1,1007,869,0,0
-210,155,0,0,0,0,0,0,0,0,0,-1,1014,869,0,0
-203,155,0,0,0,0,0,0,0,0,0,-1,1021,869,0,0
-196,155,0,0,0,0,0,0,0,0,0,-1,1028,869,0,0
-189,155,0,0,0,0,0,0,0,0,0,-1,1035,869,0,0
-182,155,0,0,0,0,0,0,0,0,0,-1,1042,869,0,0
-175,155,0,0,0,0,0,0,0,0,0,-1,1049,869,0,0
-168,155,0,0,0,0,0,0,0,0,0,-1,1056,869,0,0
-161,155,0,0,0,0,0,0,0,0,0,-1,1063,869,0,0
-154,155,0,0,0,0,0,0,0,0,0,-1,1070,869,0,0
-147,155,0,0,0,0,0,0,0,0,0,-1,1077,869,0,0
-140,155,0,0,0,0,0,0,0,0,0,-1,1084,869,0,0
-133,155,0,0,0,0,0,0,0,0,0,-1,1091,869,0,0
-126,155,0,0,0,0,0,0,0,0,0,-1,1098,869,0,0
-119,155,0,0,0,0,0,0,0,0,0,-1,1105,869,0,0
-112,155,0,0,0,0,0,0,0,0,0,-1,1112,869,0,0
-105,155,0,0,0,0,0,0,0,0,0,-1,1119,869,0,0
-98,155,0,0,0,0,0,0,0,0,0,-1,1126,869,0,0
-91,155,0,0,0,0,0,0,0,0,0,-1,1133,869,0,0
-84,155,0,0,0,0,0,0,0,0,0,-1,1140,869,0,0
-77,155,0,0,0,0,0,0,0,0,0,-1,1147,869,0,0
-70,155,0,0,0,0,0,0,0,0,0,-1,1154,869,0,0
-63,155,0,0,0,0,0,0,0,0,0,-1,1161,869,0,0
-56,155,0,0,0,0,0,0,0,0,0,-1,1168,869,0,0
-49,155,0,0,0,0,0,0,0,0,0,-1,1175,869,0,0
-42,155,0,0,0,0,0,0,0,0,0,-1,1182,869,0,0
-35,155,0,0,0,0,0,0,0,0,0,-1,1189,869,0,0
-28,155,0,0,0,0,0,0,0,0,0,-1,1196,869,0,0
-21,155,0,0,0,0,0,0,0,0,0,-1,1203,869,0,0
-14,155,0,0,0,0,0,0,0,0,0,-1,1210,869,0,0
-7,155,0,0,0,0,0,0,0,0,0,-1,1217,869,0,0
0,155,0,0,0,0,0,0,0,0,0,-1,1224,869,0,0
7,155,0,0,0,0,0,0,0,0,0,-1,1231,869,0,0
14,155,0,0,0,0,0,0,0,0,0,-1,1238,869,0,0
21,155,0,0,0,0,0,0,0,0,0,-1,1245,869,0,0
28,155,0,0,0,0,0,0,0,0,0,-1,1252,869,0,0
35,155,0,0,0,0,0,0,0,0,0,-1,1259,869,0,0
42,155,0,0,0,0,0,0,0,0,0,-1,1266,869,0,0
49,155,0,0,0,0,0,0,0,0,0,-1,1273,869,0,0
56,155,0,0,0,0,0,0,0,0,0,-1,1280,869,0,0
63,155,0,0,0,0,0,0,0,0,0,-1,1287,869,0,0
70,155,0,0,0,0,0,0,0,0,0,-1,1294,869,0,0
77,155,0,0,0,0,0,0,0,0,0,-1,1301,869,0,0
84,155,0,0,0,0,0,0,0,0,0,-1,1308,869,0,0
91,155,0,0,0,0,0,0,0,0,0,-1,1315,869,0,0
98,155,0,0,0,0,0,0,0,0,0,-1,1322,869,0,0
105,155,0,0,0,0,0,0,0,0,0,-1,1329,869,0,0
112,155,0,0,0,0,0,0,0,0,0,-1,1336,869,0,0
119,155,0,0,0,0,0,0,0,0,0,-1,1343,869,0,0
126,155,0,0,0,0,0,0,0,0,0,-1,1350,869,0,0
133,155,0,0,0,0,0,0,0,0,0,-1,1357,869,0,0
140,155,0,0,0,0,0,0,0,0,0,-1,1364,869,0,0
147,155,0,0,0,0,0,0,0,0,0,-1,1371,869,0,0
154,155,0,0,0,0,0,0,0,0,0,-1,1378,869,0,0
161,155,0,0,0,0,0,0,0,0,0,-1,1385,869,0,0
168,155,0,0,0,0,0,0,0,0,0,-1,1392,869,0,0
175,155,0,0,0,0,0,0,0,0,0,-1,1399,869,0,0
182,155,0,0,0,0,0,0,0,0,0,-1,1406,869,0,0
189,155,0,0,0,0,0,0,0,0,0,-1,1413,869,0,0
196,155,0,0,0,0,0,0,0,0,0,-1,1420,869,0,0
203,155,0,0,0,0,0,0,0,0,0,-1,1427,869,0,0
210,155,0,0,0,0,0,0,0,0,0,-1,1434,869,0,0
217,155,0,0,0,0,0,0,0,0,0,-1,1441,869,0,0
224,155,0,0,0,0,0,0,0,0,0,-1,1448,869,0,0
231,155,0,0,0,0,0,0,0,0,0,-1,1455,869,0,0
238,155,0,0,0,0,0,0,0,0,0,-1,1462,869,0,0
245,155,0,0,0,0,0,0,0,0,0,-1,1469,869,0,0
252,155,0,0,0,0,0,0,0,0,0,-1,1476,869,0,0
259,155,0,0,0,0,0,0,0,0,0,-1,1483,869,0,0
266,155,0,0,0,0,0,0,0,0,0,-1,1490,869,0,0
273,155,0,0,0,0,0,0,0,0,0,-1,1497,869,0,0
280,155,0,0,0,0,0,0,0,0,0,-1,1504,869,0,0
287,155,0,0,0,0,0,0,0,0,0,-1,1511,869,0,0
294,155,0,0,0,0,0,0,0,0,0,-1,1518,869,0,0
301,155,0,0,0,0,0,0,0,0,0,-1,1525,869,0,0
308,155,0,0,0,0,0,0,0,0,0,-1,1532,869,0,0
315,155,0,0,0,0,0,0,0,0,0,-1,1539,869,0,0
322,155,0,0,0,0,0,0,0,0,0,-1,1546,869,0,0
329,155,0,0,0,0,0,0,0,0,0,-1,1553,869,0,0
336,155,0,0,0,0,0,0,0,0,0,-1,1560,869,0,0
343,155,0,0,0,0,0,0,0,0,0,-1,1567,869,0,0
350,155,0,0,0,0,0,0,0,0,0,-1,1574,869,0,0
357,155,0,0,0,0,0,0,0,0,0,-1,1581,869,0,0
364,155,0,0,0,0,0,0,0,0,0,-1,1588,869,0,0
371,155,0,0,0,0,0,0,0,0,0,-1,1595,869,0,0
378,155,0,0,0,0,0,0,0,0,0,-1,1602,869,0,0
385,155,0,0,0,0,0,0,0,0,0,-1,1609,869,0,0
392,155,0,0,0,0,0,0,0,0,0,-1,1616,869,0,0
399,155,0,0,0,0,0,0,0,0,0,-1,1623,869,0,0
406,155,0,0,0,0,0,0,0,0,0,-1,1630,869,0,0
413,155,0,0,0,0,0,0,0,0,0,-1,1637,869,0,0
420,155,0,0,0,0,0,0,0,0,0,-1,1644,869,0,0
427,155,0,0,0,0,0,0,0,0,0,-1,1651,869,0,0
434,155,0,0,0,0,0,0,0,0,0,-1,1658,869,0,0
441,155,0,0,0,0,0,0,0,0,0,-1,1665,869,0,0
448,155,0,0,0,0,0,0,0,0,0,-1,1672,869,0,0
455,155,0,0,0,0,0,0,0,0,0,-1,1679,869,0,0
462,155,0,0,0,0,0,0,0,0,0,-1,1686,869,0,0
469,155,0,0,0,0,0,0,0,0,0,-1,1693,869,0,0
476,155,0,0,0,0,0,0,0,0,0,-1,1700,869,0,0
483,155,0,0,0,0,0,0,0,0,0,-1,1707,869,0,0
490,155,0,0,0,0,0,0,0,0,0,-1,1714,869,0,0
497,155,0,0,0,0,0,0,0,0,0,-1,1721,869,0,0
504,155,0,0,0,0,0,0,0,0,0,-1,1728,869,0,0
511,155,0,0,0,0,0,0,0,0,0,-1,1735,869,0,0
518,155,0,0,0,0,0,0,0,0,0,-1,1742,869,0,0
525,155,0,0,0,0,0,0,0,0,0,-1,1749,869,0,0
532,155,0,0,0,0,0,0,0,0,0,-1,1756,869,0,0
539,155,0,0,0,0,0,0,0,0,0,-1,1763,869,0,0
546,155,0,0,0,0,0,0,0,0,0,-1,1770,869,0,0
553,155,0,0,0,0,0,0,0,0,0,-1,1777,869,0,0
560,155,0,0,0,0,0,0,0,0,0,-1,1784,869,0,0
567,155,0,0,0,0,0,0,0,0,0,-1,1791,869,0,0
574,155,0,0,0,0,0,0,0,0,0,-1,1798,869,0,0
581,155,0,0,0,0,0,0,0,0,0,-1,1805,869,0,0
588,155,0,0,0,0,0,0,0,0,0,-1,1812,869,0,0
595,155,0,0,0,0,0,0,0,0,0,-1,1819,869,0,0
602,155,0,0,0,0,0,0,0,0,0,-1,1826,869,0,0
609,155,0,0,0,0,0,0,0,0,0,-1,1833,869,0,0
616,155,9.68347,1.57013,0.00262427,0.000926864,-4.40833e-05,0.00262541,0.000925719,-0.0259477,0.00153758,0.0453083,1840,869,9.68353,-1.57011
623,155,9.62878,1.44873,0.00247718,0.000303232,-0.000467364,0.0025734,0.000207015,-0.203035,0.00165093,0.0418199,1847,869,9.6288,-1.4487
630,155,9.63831,1.33948,0.0011926,-0.000134617,-0.0012144,0.00191287,-0.000854892,-0.535341,0.00163642,0.0426341,1854,869,9.63831,-1.33946
637,155,9.59277,1.29053,-0.000837117,-0.000638722,-0.00200944,0.00127397,-0.00274981,-0.810061,0.00237464,0.0405996,1861,869,9.59282,-1.29056
644,155,9.51318,1.34808,-0.00321564,-0.00105004,-0.00272485,0.00079927,-0.00506495,-0.974521,0.00367217,0.0361391,1868,869,9.51319,-1.34808
651,155,9.51367,1.30017,-0.00542056,-0.00134538,-0.00327722,0.00047604,-0.00724198,-1.06353,0.00499423,0.0327644,1875,869,9.51366,-1.30017
658,155,9.62585,1.29333,-0.00715353,-0.0015403,-0.00363212,0.000243228,-0.00893706,-1.11434,0.00604075,0.0279361,1882,869,9.62588,-1.29336
665,155,9.64648,1.29474,-0.00839079,-0.00162879,-0.0038319,0.000100455,-0.01012,-1.14688,0.00678042,0.0329785,1889,869,9.64649,-1.29475
672,155,9.68408,1.26581,-0.00927785,-0.00158746,-0.00381769,-1.41431e-05,-0.0108512,-1.17989,0.0072294,0.0401412,1896,869,9.68403,-1.26579
679,155,9.36072,1.24152,-0.0097012,-0.00152059,-0.00364221,-0.000134008,-0.0110878,-1.20704,0.00734759,0.0393675,1903,869,9.36072,-1.24154
686,155,8.83984,1.27997,-0.00963616,-0.00140006,-0.00342376,-0.000162698,-0.0108735,-1.224,0.0071954,0.0284829,1910,869,8.83989,-1.27996
693,155,8.49829,1.20825,-0.00908176,-0.00117002,-0.00306242,-0.000123151,-0.0101286,-1.24141,0.00671174,0.0149653,1917,869,8.49829,-1.20825
700,155,8.51721,1.24481,-0.00835613,-0.000885181,-0.00255474,-9.51178e-05,-0.00914619,-1.27087,0.006066,0.0141934,1924,869,8.51725,-1.24478
707,155,8.55518,1.34265,-0.00753764,-0.000353595,-0.00201021,0.000170637,-0.00806187,-1.31569,0.00543235,0.0101714,1931,869,8.55518,-1.34265
714,155,8.56348,1.36993,-0.00637888,0.00018486,-0.00142023,0.000478983,-0.006673,-1.36659,0.00461662,0.0176385,1938,869,8.56347,-1.36995
721,155,8.48767,1.45227,-0.00446291,0.00151776,-0.000726704,0.00160479,-0.00454994,-1.4516,0.00368655,0.0250328,1945,869,8.48762,-1.45227
728,155,8.4491,1.54254,-0.00210761,0.0035697,0.000179033,0.00357534,-0.00211325,1.5393,0.00332027,0.0190282,1952,869,8.4491,-1.54254
735,155,8.48474,1.59937,0.000212649,0.0050127,0.000672011,0.00510501,0.000120342,1.43429,0.00336394,0.0141967,1959,869,8.4848,-1.59934
742,155,8.52405,1.66754,0.00273126,0.00702354,0.000862806,0.00719048,0.00256432,1.37967,0.00420793,0.0154936,1966,869,8.52407,-1.66756
749,155,8.50793,1.72552,0.00539286,0.00951119,0.00132787,0.00990221,0.00500184,1.28442,0.00571714,0.0133412,1973,869,8.50792,-1.7255
756,155,8.51807,1.79333,0.00857272,0.0125526,0.00150658,0.0130585,0.00806673,1.24678,0.00760871,0.0227032,1980,869,8.51808,-1.79333
763,155,8.60938,1.77716,0.0127569,0.0159772,0.0015209,0.0165819,0.0121522,1.19234,0.00991361,0.0391024,1987,869,8.60932,-1.77718
770,155,8.5304,1.87726,0.0182997,0.0195834,0.0013062,0.0203969,0.0174862,1.01376,0.012739,0.0437029,1994,869,8.53035,-1.87728
777,155,8.52637,2.09552,0.0253395,0.0230501,0.00073374,0.0255545,0.0228351,0.285008,0.0162061,0.0436646,2001,869,8.52641,-2.09552
784,155,8.58215,2.34833,0.0341468,0.0258683,-0.000429627,0.034169,0.0258461,-0.0517116,0.0205741,0.0410431,2008,869,8.58214,-2.34831
791,155,0,0,0,0,0,0,0,0,0,-1,2015,869,0,0
798,155,0,0,0,0,0,0,0,0,0,-1,2022,869,0,0
805,155,0,0,0,0,0,0,0,0,0,-1,2029,869,0,0
812,155,0,0,0,0,0,0,0,0,0,-1,2036,869,0,0
-700,148,0,0,0,0,0,0,0,0,0,-1,524,876,0,0
-693,148,0,0,0,0,0,0,0,0,0,-1,531,876,0,0
-686,148,0,0,0,0,0,0,0,0,0,-1,538,876,0,0
-679,148,0,0,0,0,0,0,0,0,0,-1,545,876,0,0
-672,148,-4.5752,3.63898,0,0,0,0,0,0,0,-1,552,876,-4.57519,-3.63897
-665,148,-4.35419,3.20361,0.0531211,-0.0629243,0.00121131,0.0531337,-0.062937,0.0104367,0.0670931,0.0483409,559,876,-4.35417,-3.20363
-658,148,-4.16998,2.78027,0.0423122,-0.0459061,-0.000160685,0.0423125,-0.0459064,-0.00182143,0.0509473,0.0462701,566,876,-4.16996,-2.78027
-651,148,-3.92639,2.33716,0.0324669,-0.0323557,-0.000916547,0.0324798,-0.0323687,-0.0141355,0.0374403,0.0427487,573,876,-3.9264,-2.33716
-644,148,-3.66492,1.95135,0.0239098,-0.0218139,-0.00130882,0.0239473,-0.0218513,-0.0285933,0.026451,0.0432452,580,876,-3.66494,-1.95136
-637,148,-3.42456,1.58136,0.0167598,-0.0138974,-0.00145421,0.0168286,-0.0139662,-0.0472932,0.017805,0.0452449,587,876,-3.42455,-1.58136
-630,148,-3.28009,1.02252,0.0110593,-0.00822466,-0.00143188,0.011165,-0.0083304,-0.073714,0.0112953,0.0393737,594,876,-3.28012,-1.02253
-623,148,-3.45575,0.966614,0.00692716,-0.00438169,-0.00142476,0.0071039,-0.00455843,-0.123417,0.0067865,0.0202732,601,876,-3.45576,-0.9666
-616,148,-3.51349,0.935913,0.00332772,-0.00123421,-0.00142051,0.00373388,-0.00164037,-0.278496,0.00318033,0.0115567,608,876,-3.51351,-0.935938
-609,148,-3.51086,0.878113,0.00021504,0.000584606,-0.000629961,0.00105633,-0.000256679,-0.928059,0.00080356,0.0109764,615,876,-3.51085,-0.878085
-602,148,-3.51917,0.805908,-0.00219365,0.00125402,0.000433815,0.00130777,-0.0022474,1.44753,0.00207634,0.0110719,622,876,-3.51917,-0.805937
-595,148,-3.53931,0.735718,-0.00377532,0.000764731,0.000726915,0.000878279,-0.00388887,1.41584,0.00292956,0.00947082,629,876,-3.53932,-0.735744
-588,148,-3.55597,0.668701,-0.00481627,-9.94757e-06,0.00130251,0.000320336,-0.00514655,1.32246,0.00354264,0.012819,636,876,-3.55595,-0.668718
-581,148,-3.57434,0.61908,-0.0056137,-0.000833985,0.00219843,2.33857e-05,-0.00647107,1.19895,0.00432187,0.0178782,643,876,-3.57431,-0.619087
-574,148,-3.52722,0.5802,-0.00621495,-0.00141588,0.00317376,0.000163344,-0.00779417,1.10908,0.00525141,0.0229845,650,876,-3.52724,-0.58023
-567,148,-3.55017,0.46344,-0.00674318,-0.0013143,0.00363685,0.000509412,-0.0085669,1.10599,0.00588842,0.0278088,657,876,-3.5502,-0.463461
-560,148,-3.53033,0.368042,-0.006915,-0.00132484,0.00384255,0.00063167,-0.00887151,1.09984,0.00613575,0.0279606,664,876,-3.53031,-0.36803
-553,148,-3.81921,0.611145,-0.0069877,-0.000902666,0.00401802,0.0010948,-0.00898517,1.10945,0.0063864,0.0366875,671,876,-3.81922,-0.611155
-546,148,-4.10229,0.705811,0,0,0,0,0,0,0,-1,678,876,-4.10231,-0.705796
-539,148,-4.46448,0.696472,-0.0063726,0.000478869,0.00372013,0.00211031,-0.00800404,1.15751,0.00616113,0.0368535,685,876,-4.46449,-0.696474
-532,148,-4.48804,0.652344,-0.00526596,0.00155366,0.00315767,0.00279118,-0.00650348,1.19728,0.0055071,0.0360666,692,876,-4.48801,-0.65235
-525,148,-4.38904,0.767883,-0.00368763,0.00306824,0.00221687,0.00373072,-0.00435011,1.28041,0.00467004,0.0380094,699,876,-4.38904,-0.767901
-518,148,-4.33215,0.782227,-0.00152723,0.00512599,0.000855243,0.00523417,-0.0016354,1.44498,0.00414359,0.0429911,706,876,-4.33213,-0.782205
-511,148,-4.25507,0.795288,0.00107042,0.00787212,-0.000938166,0.00799915,0.000943387,-1.43621,0.00504777,0.0427417,713,876,-4.25505,-0.795269
-504,148,-4.24042,0.905579,0.00327759,0.0114227,-0.00284226,0.0123165,0.00238384,-1.26614,0.007543,0.0449943,720,876,-4.24042,-0.90555
-497,148,0,0,0,0,0,0,0,0,0,-1,727,876,0,0
-490,148,0,0,0,0,0,0,0,0,0,-1,734,876,0,0
-483,148,0,0,0,0,0,0,0,0,0,-1,741,876,0,0
-476,148,0,0,0,0,0,0,0,0,0,-1,748,876,0,0
-469,148,0,0,0,0,0,0,0,0,0,-1,755,876,0,0
-462,148,0,0,0,0,0,0,0,0,0,-1,762,876,0,0
-455,148,0,0,0,0,0,0,0,0,0,-1,769,876,0,0
-448,148,0,0,0,0,0,0,0,0,0,-1,776,876,0,0
-441,148,0,0,0,0,0,0,0,0,0,-1,783,876,0,0
-434,148,0,0,0,0,0,0,0,0,0,-1,790,876,0,0
-427,148,0,0,0,0,0,0,0,0,0,-1,797,876,0,0
-420,148,0,0,0,0,0,0,0,0,0,-1,804,876,0,0
-413,148,0,0,0,0,0,0,0,0,0,-1,811,876,0,0
-406,148,0,0,0,0,0,0,0,0,0,-1,818,876,0,0
-399,148,0,0,0,0,0,0,0,0,0,-1,825,876,0,0
-392,148,0,0,0,0,0,0,0,0,0,-1,832,876,0,0
-385,148,0,0,0,0,0,0,0,0,0,-1,839,876,0,0
-378,148,0,0,0,0,0,0,0,0,0,-1,846,876,0,0
-371,148,0,0,0,0,0,0,0,0,0,-1,853,876,0,0
-364,148,0,0,0,0,0,0,0,0,0,-1,860,876,0,0
-357,148,0,0,0,0,0,0,0,0,0,-1,867,876,0,0
-350,148,0,0,0,0,0,0,0,0,0,-1,874,876,0,0
-343,148,0,0,0,0,0,0,0,0,0,-1,881,876,0,0
-336,148,0,0,0,0,0,0,0,0,0,-1,888,876,0,0
-329,148,0,0,0,0,0,0,0,0,0,-1,895,876,0,0
-322,148,0,0,0,0,0,0,0,0,0,-1,902,876,0,0
-315,148,0,0,0,0,0,0,0,0,0,-1,909,876,0,0
-308,148,0,0,0,0,0,0,0,0,0,-1,916,876,0,0
-301,148,0,0,0,0,0,0,0,0,0,-1,923,876,0,0
-294,148,0,0,0,0,0,0,0,0,0,-1,930,876,0,0
-287,148,0,0,0,0,0,0,0,0,0,-1,937,876,0,0
-280,148,0,0,0,0,0,0,0,0,0,-1,944,876,0,0
-273,148,0,0,0,0,0,0,0,0,0,-1,951,876,0,0
-266,148,0,0,0,0,0,0,0,0,0,-1,958,876,0,0
-259,148,0,0,0,0,0,0,0,0,0,-1,965,876,0,0
-252,148,0,0,0,0,0,0,0,0,0,-1,972,876,0,0
-245,148,0,0,0,0,0,0,0,0,0,-1,979,876,0,0
-238,148,0,0,0,0,0,0,0,0,0,-1,986,876,0,0
-231,148,0,0,0,0,0,0,0,0,0,-1,993,876,0,0
-224,148,0,0,0,0,0,0,0,0,0,-1,1000,876,0,0
-217,148,0,0,0,0,0,0,0,0,0,-1,1007,876,0,0
-210,148,0,0,0,0,0,0,0,0,0,-1,1014,876,0,0
-203,148,0,0,0,0,0,0,0,0,0,-1,1021,876,0,0
-196,148,0,0,0,0,0,0,0,0,0,-1,1028,876,0,0
-189,148,0,0,0,0,0,0,0,0,0,-1,1035,876,0,0
-182,148,0,0,0,0,0,0,0,0,0,-1,1042,876,0,0
-175,148,0,0,0,0,0,0,0,0,0,-1,1049,876,0,0
-168,148,0,0,0,0,0,0,0,0,0,-1,1056,876,0,0
-161,148,0,0,0,0,0,0,0,0,0,-1,1063,876,0,0
-154,148,0,0,0,0,0,0,0,0,0,-1,1070,876,0,0
-147,148,0,0,0,0,0,0,0,0,0,-1,1077,876,0,0
-140,148,0,0,0,0,0,0,0,0,0,-1,1084,876,0,0
-133,148,0,0,0,0,0,0,0,0,0,-1,1091,876,0,0
-126,148,0,0,0,0,0,0,0,0,0,-1,1098,876,0,0
-119,148,0,0,0,0,0,0,0,0,0,-1,1105,876,0,0
-112,148,0,0,0,0,0,0,0,0,0,-1,1112,876,0,0
-105,148,0,0,0,0,0,0,0,0,0,-1,1119,876,0,0
-98,148,0,0,0,0,0,0,0,0,0,-1,1126,876,0,0
-91,148,0,0,0,0,0,0,0,0,0,-1,1133,876,0,0
-84,148,0,0,0,0,0,0,0,0,0,-1,1140,876,0,0
-77,148,0,0,0,0,0,0,0,0,0,-1,1147,876,0,0
-70,148,0,0,0,0,0,0,0,0,0,-1,1154,876,0,0
-63,148,0,0,0,0,0,0,0,0,0,-1,1161,876,0,0
-56,148,0,0,0,0,0,0,0,0,0,-1,1168,876,0,0
-49,148,0,0,0,0,0,0,0,0,0,-1,1175,876,0,0
-42,148,0,0,0,0,0,0,0,0,0,-1,1182,876,0,0
-35,148,0,0,0,0,0,0,0,0,0,-1,1189,876,0,0
-28,148,0,0,0,0,0,0,0,0,0,-1,1196,876,0,0
-21,148,0,0,0,0,0,0,0,0,0,-1,1203,876,0,0
-14,148,0,0,0,0,0,0,0,0,0,-1,1210,876,0,0
-7,148,0,0,0,0,0,0,0,0,0,-1,1217,876,0,0
0,148,0,0,0,0,0,0,0,0,0,-1,1224,876,0,0
7,148,0,0,0,0,0,0,0,0,0,-1,1231,876,0,0
14,148,0,0,0,0,0,0,0,0,0,-1,1238,876,0,0
21,148,0,0,0,0,0,0,0,0,0,-1,1245,876,0,0
28,148,0,0,0,0,0,0,0,0,0,-1,1252,876,0,0
35,148,0,0,0,0,0,0,0,0,0,-1,1259,876,0,0
42,148,0,0,0,0,0,0,0,0,0,-1,1266,876,0,0
49,148,0,0,0,0,0,0,0,0,0,-1,1273,876,0,0
56,148,0,0,0,0,0,0,0,0,0,-1,1280,876,0,0
63,148,0,0,0,0,0,0,0,0,0,-1,1287,876,0,0
70,148,0,0,0,0,0,0,0,0,0,-1,1294,876,0,0
77,148,0,0,0,0,0,0,0,0,0,-1,1301,876,0,0
84,148,0,0,0,0,0,0,0,0,0,-1,1308,876,0,0
91,148,0,0,0,0,0,0,0,0,0,-1,1315,876,0,0
98,148,0,0,0,0,0,0,0,0,0,-1,1322,876,0,0
105,148,0,0,0,0,0,0,0,0,0,-1,1329,876,0,0
112,148,0,0,0,0,0,0,0,0,0,-1,1336,876,0,0
119,148,0,0,0,0,0,0,0,0,0,-1,1343,876,0,0
126,148,0,0,0,0,0,0,0,0,0,-1,1350,876,0,0
133,148,0,0,0,0,0,0,0,0,0,-1,1357,876,0,0
140,148,0,0,0,0,0,0,0,0,0,-1,1364,876,0,0
147,148,0,0,0,0,0,0,0,0,0,-1,1371,876,0,0
154,148,0,0,0,0,0,0,0,0,0,-1,1378,876,0,0
161,148,0,0,0,0,0,0,0,0,0,-1,1385,876,0,0
168,148,0,0,0,0,0,0,0,0,0,-1,1392,876,0,0
175,148,0,0,0,0,0,0,0,0,0,-1,1399,876,0,0
182,148,0,0,0,0,0,0,0,0,0,-1,1406,876,0,0
189,148,0,0,0,0,0,0,0,0,0,-1,1413,876,0,0
196,148,0,0,0,0,0,0,0,0,0,-1,1420,876,0,0
203,148,0,0,0,0,0,0,0,0,0,-1,1427,876,0,0
210,148,0,0,0,0,0,0,0,0,0,-1,1434,876,0,0
217,148,0,0,0,0,0,0,0,0,0,-1,1441,876,0,0
224,148,0,0,0,0,0,0,0,0,0,-1,1448,876,0,0
231,148,0,0,0,0,0,0,0,0,0,-1,1455,876,0,0
238,148,0,0,0,0,0,0,0,0,0,-1,1462,876,0,0
245,148,0,0,0,0,0,0,0,0,0,-1,1469,876,0,0
252,148,0,0,0,0,0,0,0,0,0,-1,1476,876,0,0
259,148,0,0,0,0,0,0,0,0,0,-1,1483,876,0,0
266,148,0,0,0,0,0,0,0,0,0,-1,1490,876,0,0
273,148,0,0,0,0,0,0,0,0,0,-1,1497,876,0,0
280,148,0,0,0,0,0,0,0,0,0,-1,1504,876,0,0
287,148,0,0,0,0,0,0,0,0,0,-1,1511,876,0,0
294,148,0,0,0,0,0,0,0,0,0,-1,1518,876,0,0
301,148,0,0,0,0,0,0,0,0,0,-1,1525,876,0,0
308,148,0,0,0,0,0,0,0,0,0,-1,1532,876,0,0
315,148,0,0,0,0,0,0,0,0,0,-1,1539,876,0,0
322,148,0,0,0,0,0,0,0,0,0,-1,1546,876,0,0
329,148,0,0,0,0,0,0,0,0,0,-1,1553,876,0,0
336,148,0,0,0,0,0,0,0,0,0,-1,1560,876,0,0
343,148,0,0,0,0,0,0,0,0,0,-1,1567,876,0,0
350,148,0,0,0,0,0,0,0,0,0,-1,1574,876,0,0
357,148,0,0,0,0,0,0,0,0,0,-1,1581,876,0,0
364,148,0,0,0,0,0,0,0,0,0,-1,1588,876,0,0
371,148,0,0,0,0,0,0,0,0,0,-1,1595,876,0,0
378,148,0,0,0,0,0,0,0,0,0,-1,1602,876,0,0
385,148,0,0,0,0,0,0,0,0,0,-1,1609,876,0,0
392,148,0,0,0,0,0,0,0,0,0,-1,1616,876,0,0
399,148,0,0,0,0,0,0,0,0,0,-1,1623,876,0,0
406,148,0,0,0,0,0,0,0,0,0,-1,1630,876,0,0
413,148,0,0,0,0,0,0,0,0,0,-1,1637,876,0,0
420,148,0,0,0,0,0,0,0,0,0,-1,1644,876,0,0
427,148,0,0,0,0,0,0,0,0,0,-1,1651,876,0,0
434,148,0,0,0,0,0,0,0,0,0,-1,1658,876,0,0
441,148,0,0,0,0,0,0,0,0,0,-1,1665,876,0,0
448,148,0,0,0,0,0,0,0,0,0,-1,1672,876,0,0
455,148,0,0,0,0,0,0,0,0,0,-1,1679,876,0,0
462,148,0,0,0,0,0,0,0,0,0,-1,1686,876,0,0
469,148,0,0,0,0,0,0,0,0,0,-1,1693,876,0,0
476,148,0,0,0,0,0,0,0,0,0,-1,1700,876,0,0
483,148,0,0,0,0,0,0,0,0,0,-1,1707,876,0,0
490,148,0,0,0,0,0,0,0,0,0,-1,1714,876,0,0
497,148,0,0,0,0,0,0,0,0,0,-1,1721,876,0,0
504,148,0,0,0,0,0,0,0,0,0,-1,1728,876,0,0
511,148,0,0,0,0,0,0,0,0,0,-1,1735,876,0,0
518,148,0,0,0,0,0,0,0,0,0,-1,1742,876,0,0
525,148,0,0,0,0,0,0,0,0,0,-1,1749,876,0,0
532,148,0,0,0,0,0,0,0,0,0,-1,1756,876,0,0
539,148,0,0,0,0,0,0,0,0,0,-1,1763,876,0,0
546,148,0,0,0,0,0,0,0,0,0,-1,1770,876,0,0
553,148,0,0,0,0,0,0,0,0,0,-1,1777,876,0,0
560,148,0,0,0,0,0,0,0,0,0,-1,1784,876,0,0
567,148,0,0,0,0,0,0,0,0,0,-1,1791,876,0,0
574,148,0,0,0,0,0,0,0,0,0,-1,1798,876,0,0
581,148,0,0,0,0,0,0,0,0,0,-1,1805,876,0,0
588,148,0,0,0,0,0,0,0,0,0,-1,1812,876,0,0
595,148,0,0,0,0,0,0,0,0,0,-1,1819,876,0,0
602,148,0,0,0,0,0,0,0,0,0,-1,1826,876,0,0
609,148,0,0,0,0,0,0,0,0,0,-1,1833,876,0,0
616,148,0,0,0,0,0,0,0,0,0,-1,1840,876,0,0
623,148,9.79309,1.52173,0.00243883,0.000510272,-0.000279006,0.00247839,0.000470719,-0.140825,0.00151985,0.039801,1847,876,9.79315,-1.52171
630,148,9.70898,1.31201,0.00153282,8.71706e-05,-0.000823971,0.00190608,-0.00028609,-0.425348,0.00137603,0.0418688,1854,876,9.70895,-1.312
637,148,9.52332,1.44946,-0.00013175,-0.000437289,-0.00149833,0.00122158,-0.00179062,-0.734594,0.00174941,0.0378355,1861,876,9.52335,-1.44947
644,148,9.43628,1.43304,-0.0023408,-0.000902228,-0.00214398,0.000639901,-0.00388293,-0.947244,0.00282617,0.0355277,1868,876,9.43632,-1.43302
651,148,9.41467,1.43359,-0.00457176,-0.00123475,-0.00270596,0.000275755,-0.00608226,-1.06167,0.00414982,0.0350308,1875,876,9.41467,-1.43359
658,148,9.51172,1.40662,-0.00643164,-0.00144709,-0.0030976,3.63821e-05,-0.00791511,-1.12416,0.00528891,0.0315794,1882,876,9.51171,-1.40661
665,148,9.57935,1.3548,-0.00780539,-0.00155176,-0.00334515,-9.95956e-05,-0.00925755,-1.16124,0.00613877,0.0244277,1889,876,9.57937,-1.35478
672,148,9.63013,1.29767,-0.0088261,-0.00152271,-0.00339385,-0.000189115,-0.0101597,-1.19639,0.00671098,0.0296208,1896,876,9.63015,-1.29765
679,148,9.62134,1.33929,-0.00938635,-0.00146099,-0.00329951,-0.000267157,-0.0105802,-1.22363,0.00696611,0.0426164,1903,876,9.62129,-1.3393
686,148,8.98926,1.30438,-0.00948281,-0.00134968,-0.00317701,-0.000255781,-0.0105767,-1.23919,0.00696744,0.0330133,1910,876,8.98926,-1.30438
693,148,8.38684,1.19055,0,0,0,0,0,0,0,-1,1917,876,8.38679,-1.19055
700,148,8.57568,1.27539,-0.00851141,-0.000862036,-0.00246894,-0.000134374,-0.00923907,-1.28418,0.00611508,0.0131734,1924,876,8.57566,-1.2754
707,148,8.6134,1.36176,-0.00775906,-0.000365271,-0.00202679,0.000153865,-0.00827819,-1.32005,0.00557079,0.0108049,1931,876,8.6134,-1.36177
714,148,8.60791,1.40399,-0.00664792,0.00012283,-0.00154079,0.000456972,-0.00698206,-1.35724,0.00481427,0.0106768,1938,876,8.60796,-1.40399
721,148,8.55957,1.45563,-0.00487499,0.00120217,-0.000992679,0.00136021,-0.00503303,-1.41292,0.00388887,0.0157234,1945,876,8.55961,-1.45561
728,148,8.55115,1.52515,-0.00265706,0.00278323,-0.000240724,0.00279386,-0.00266769,-1.52666,0.00315351,0.0193641,1952,876,8.55111,-1.52513
735,148,8.57068,1.60254,-0.000308338,0.00383653,0.000157766,0.00384252,-0.000314334,1.53281,0.00267263,0.016685,1959,876,8.57073,-1.60251
742,148,8.59521,1.69025,0.00226098,0.00533911,0.000252474,0.00535968,0.00224041,1.4895,0.00310825,0.0175055,1966,876,8.59527,-1.69023
749,148,8.58911,1.74542,0.00487694,0.00712055,0.000680862,0.00731101,0.00468649,1.29805,0.0042766,0.0158028,1973,876,8.58906,-1.7454
756,148,8.58643,1.79755,0.00783139,0.00926126,0.000775563,0.00960114,0.00749152,1.15777,0.00582629,0.0203388,1980,876,8.58637,-1.79752
763,148,8.57007,1.7489,0.0115211,0.0116363,0.000750184,0.0123311,0.0108263,0.823686,0.00776787,0.0391282,1987,876,8.57001,-1.7489
770,148,8.68494,1.92706,0.016328,0.0140951,0.000612152,0.0164848,0.0139382,0.250763,0.0102471,0.0429064,1994,876,8.68492,-1.92704
777,148,8.7478,2.13641,0.022388,0.0164125,0.00031099,0.0224041,0.0163963,0.0518571,0.0133905,0.0457609,2001,876,8.7478,-2.13641
784,148,9.02649,2.7334,0.0298503,0.0182393,-0.000268148,0.0298565,0.0182331,-0.0230778,0.0173779,0.0442798,2008,876,9.0265,-2.73337
791,148,9.1665,1.20996,0.0389296,0.0190286,-0.00121996,0.0390041,0.018954,-0.0609968,0.022522,0.0446588,2015,876,9.16646,-1.20998
798,148,0,0,0,0,0,0,0,0,0,-1,2022,876,0,0
805,148,0,0,0,0,0,0,0,0,0,-1,2029,876,0,0
812,148,0,0,0,0,0,0,0,0,0,-1,2036,876,0,0
-700,141,0,0,0,0,0,0,0,0,0,-1,524,883,0,0
-693,141,0,0,0,0,0,0,0,0,0,-1,531,883,0,0
-686,141,0,0,0,0,0,0,0,0,0,-1,538,883,0,0
-679,141,0,0,0,0,0,0,0,0,0,-1,545,883,0,0
-672,141,-4.82562,2.57831,0.0582535,-0.0810764,0.007246,0.0586294,-0.0814522,0.0518197,0.0812332,0.0444304,552,883,-4.82563,-2.5783
-665,141,-4.3136,3.13129,0.0478042,-0.0599912,0.00411652,0.0479612,-0.0601482,0.0381143,0.062549,0.0464786,559,883,-4.31361,-3.13129
-658,141,-3.82446,3.23926,0.0378489,-0.043224,0.00208667,0.0379026,-0.0432777,0.0257154,0.0469037,0.0480399,566,883,-3.82444,-3.23927
-651,141,-3.54706,2.8075,0.0288935,-0.0299993,0.000824109,0.028905,-0.0300109,0.0139897,0.0340171,0.0430441,573,883,-3.54708,-2.80748
-644,141,-3.30249,2.37341,0,0,0,0,0,0,0,-1,580,883,-3.3025,-2.3734
-637,141,-3.72052,1.33264,0.0148251,-0.0122977,-0.000335555,0.0148293,-0.0123018,-0.0123692,0.0156868,0.0437327,587,883,-3.72051,-1.33267
-630,141,-3.34186,0.954651,0.00983186,-0.00675816,-0.000481439,0.00984582,-0.00677212,-0.0289873,0.00964893,0.037776,594,883,-3.34188,-0.954664
-623,141,-3.52771,0.934814,0.00606008,-0.00341439,-0.000808792,0.00612863,-0.00348294,-0.0845502,0.00561888,0.0198848,601,883,-3.52768,-0.934791
-616,141,-3.56476,0.916016,0.00245977,-0.000537282,-0.0010093,0.00276797,-0.000845483,-0.296368,0.00218243,0.0113263,608,883,-3.56477,-0.916046
-609,141,-3.57794,0.86676,-0.000514015,0.00102431,-0.000234993,0.00105941,-0.000549112,-1.42254,0.000944131,0.012135,615,883,-3.57797,-0.866736
-602,141,-3.5943,0.806335,-0.00218842,0.00126202,0.000822911,0.00144823,-0.00237463,1.34826,0.00222863,0.0114988,622,883,-3.59432,-0.806342
-595,141,-3.61108,0.744202,-0.00379536,0.000740239,0.0011782,0.00102803,-0.00408315,1.33122,0.00312172,0.0101647,629,883,-3.61108,-0.744191
-588,141,-3.659,0.702942,-0.00509318,-0.000146912,0.00148846,0.000266457,-0.00550655,1.29991,0.003763,0.0136981,636,883,-3.65897,-0.702945
-581,141,-3.65277,0.657349,-0.00597448,-0.000954931,0.00221199,-0.000119281,-0.00681013,1.20959,0.00450085,0.018502,643,883,-3.65275,-0.657364
-574,141,-3.5791,0.628906,-0.00663537,-0.00137794,0.00303243,6.54534e-06,-0.00801986,1.1425,0.00534876,0.0220673,650,883,-3.57911,-0.628909
-567,141,-3.60706,0.539246,-0.00711884,-0.00121608,0.00342121,0.000350869,-0.00868579,1.1413,0.00591096,0.0273665,657,883,-3.60703,-0.539229
-560,141,-3.66943,0.4646,-0.00727683,-0.00117346,0.0035476,0.000454412,-0.0089047,1.14059,0.00609359,0.0308106,664,883,-3.66945,-0.464615
-553,141,-3.99902,0.705322,-0.00728727,-0.000686423,0.00363776,0.000924986,-0.00889868,1.15381,0.00626359,0.0414188,671,883,-3.999,-0.705329
-546,141,-4.35529,0.788452,0,0,0,0,0,0,0,-1,678,883,-4.35531,-0.788472
-539,141,-4.43066,0.703491,-0.00636952,0.000797932,0.00309736,0.00195095,-0.00752253,1.21443,0.00577622,0.0307059,685,883,-4.43069,-0.703519
-532,141,-4.49213,0.736755,-0.00511211,0.00196279,0.00237836,0.00268798,-0.00583731,1.27484,0.00503278,0.0301266,692,883,-4.49214,-0.736735
-525,141,-4.547,0.812317,-0.0033259,0.00354009,0.00128619,0.00377312,-0.00355893,1.39156,0.00423377,0.0378439,699,883,-4.54697,-0.812293
-518,141,-4.63287,0.726196,-0.000937122,0.00564036,-0.000226742,0.00564817,-0.000944929,-1.53638,0.00411673,0.0418451,706,883,-4.63285,-0.726203
-511,141,-4.48718,0.662842,0.00172956,0.00838628,-0.00212784,0.00900833,0.00110752,-1.28639,0.00567253,0.0401172,713,883,-4.48719,-0.662813
-504,141,-4.33331,0.699402,0.00346554,0.0118496,-0.00395722,0.0134224,0.00189279,-1.1925,0.00838881,0.0423324,720,883,-4.3333,-0.699386
-497,141,0,0,0,0,0,0,0,0,0,-1,727,883,0,0
-490,141,0,0,0,0,0,0,0,0,0,-1,734,883,0,0
-483,141,0,0,0,0,0,0,0,0,0,-1,741,883,0,0
-476,141,0,0,0,0,0,0,0,0,0,-1,748,883,0,0
-469,141,0,0,0,0,0,0,0,0,0,-1,755,883,0,0
-462,141,0,0,0,0,0,0,0,0,0,-1,762,883,0,0
-455,141,0,0,0,0,0,0,0,0,0,-1,769,883,0,0
-448,141,0,0,0,0,0,0,0,0,0,-1,776,883,0,0
-441,141,0,0,0,0,0,0,0,0,0,-1,783,883,0,0
-434,141,0,0,0,0,0,0,0,0,0,-1,790,883,0,0
-427,141,0,0,0,0,0,0,0,0,0,-1,797,883,0,0
-420,141,0,0,0,0,0,0,0,0,0,-1,804,883,0,0
-413,141,0,0,0,0,0,0,0,0,0,-1,811,883,0,0
-406,141,0,0,0,0,0,0,0,0,0,-1,818,883,0,0
-399,141,0,0,0,0,0,0,0,0,0,-1,825,883,0,0
-392,141,0,0,0,0,0,0,0,0,0,-1,832,883,0,0
-385,141,0,0,0,0,0,0,0,0,0,-1,839,883,0,0
-378,141,0,0,0,0,0,0,0,0,0,-1,846,883,0,0
-371,141,0,0,0,0,0,0,0,0,0,-1,853,883,0,0
-364,141,0,0,0,0,0,0,0,0,0,-1,860,883,0,0
-357,141,0,0,0,0,0,0,0,0,0,-1,867,883,0,0
-350,141,0,0,0,0,0,0,0,0,0,-1,874,883,0,0
-343,141,0,0,0,0,0,0,0,0,0,-1,881,883,0,0
-336,141,0,0,0,0,0,0,0,0,0,-1,888,883,0,0
-329,141,0,0,0,0,0,0,0,0,0,-1,895,883,0,0
-322,141,0,0,0,0,0,0,0,0,0,-1,902,883,0,0
-315,141,0,0,0,0,0,0,0,0,0,-1,909,883,0,0
-308,141,0,0,0,0,0,0,0,0,0,-1,916,883,0,0
-301,141,0,0,0,0,0,0,0,0,0,-1,923,883,0,0
-294,141,0,0,0,0,0,0,0,0,0,-1,930,883,0,0
-287,141,0,0,0,0,0,0,0,0,0,-1,937,883,0,0
-280,141,0,0,0,0,0,0,0,0,0,-1,944,883,0,0
-273,141,0,0,0,0,0,0,0,0,0,-1,951,883,0,0
-266,141,0,0,0,0,0,0,0,0,0,-1,958,883,0,0
-259,141,0,0,0,0,0,0,0,0,0,-1,965,883,0,0
-252,141,0,0,0,0,0,0,0,0,0,-1,972,883,0,0
-245,141,0,0,0,0,0,0,0,0,0,-1,979,883,0,0
-238,141,0,0,0,0,0,0,0,0,0,-1,986,883,0,0
-231,141,0,0,0,0,0,0,0,0,0,-1,993,883,0,0
-224,141,0,0,0,0,0,0,0,0,0,-1,1000,883,0,0
-217,141,0,0,0,0,0,0,0,0,0,-1,1007,883,0,0
-210,141,0,0,0,0,0,0,0,0,0,-1,1014,883,0,0
-203,141,0,0,0,0,0,0,0,0,0,-1,1021,883,0,0
-196,141,0,0,0,0,0,0,0,0,0,-1,1028,883,0,0
-189,141,0,0,0,0,0,0,0,0,0,-1,1035,883,0,0
-182,141,0,0,0,0,0,0,0,0,0,-1,1042,883,0,0
-175,141,0,0,0,0,0,0,0,0,0,-1,1049,883,0,0
-168,141,0,0,0,0,0,0,0,0,0,-1,1056,883,0,0
-161,141,0,0,0,0,0,0,0,0,0,-1,1063,883,0,0
-154,141,0,0,0,0,0,0,0,0,0,-1,1070,883,0,0
-147,141,0,0,0,0,0,0,0,0,0,-1,1077,883,0,0
-140,141,0,0,0,0,0,0,0,0,0,-1,1084,883,0,0
-133,141,0,0,0,0,0,0,0,0,0,-1,1091,883,0,0
-126,141,0,0,0,0,0,0,0,0,0,-1,1098,883,0,0
-119,141,0,0,0,0,0,0,0,0,0,-1,1105,883,0,0
-112,141,0,0,0,0,0,0,0,0,0,-1,1112,883,0,0
-105,141,0,0,0,0,0,0,0,0,0,-1,1119,883,0,0
-98,141,0,0,0,0,0,0,0,0,0,-1,1126,883,0,0
-91,141,0,0,0,0,0,0,0,0,0,-1,1133,883,0,0
-84,141,0,0,0,0,0,0,0,0,0,-1,1140,883,0,0
-77,141,0,0,0,0,0,0,0,0,0,-1,1147,883,0,0
-70,141,0,0,0,0,0,0,0,0,0,-1,1154,883,0,0
-63,141,0,0,0,0,0,0,0,0,0,-1,1161,883,0,0
-56,141,0,0,0,0,0,0,0,0,0,-1,1168,883,0,0
-49,141,0,0,0,0,0,0,0,0,0,-1,1175,883,0,0
-42,141,0,0,0,0,0,0,0,0,0,-1,1182,883,0,0
-35,141,0,0,0,0,0,0,0,0,0,-1,1189,883,0,0
-28,141,0,0,0,0,0,0,0,0,0,-1,1196,883,0,0
-21,141,0,0,0,0,0,0,0,0,0,-1,1203,883,0,0
-14,141,0,0,0,0,0,0,0,0,0,-1,1210,883,0,0
-7,141,0,0,0,0,0,0,0,0,0,-1,1217,883,0,0
0,141,0,0,0,0,0,0,0,0,0,-1,1224,883,0,0
7,141,0,0,0,0,0,0,0,0,0,-1,1231,883,0,0
14,141,0,0,0,0,0,0,0,0,0,-1,1238,883,0,0
21,141,0,0,0,0,0,0,0,0,0,-1,1245,883,0,0
28,141,0,0,0,0,0,0,0,0,0,-1,1252,883,0,0
35,141,0,0,0,0,0,0,0,0,0,-1,1259,883,0,0
42,141,0,0,0,0,0,0,0,0,0,-1,1266,883,0,0
49,141,0,0,0,0,0,0,0,0,0,-1,1273,883,0,0
56,141,0,0,0,0,0,0,0,0,0,-1,1280,883,0,0
63,141,0,0,0,0,0,0,0,0,0,-1,1287,883,0,0
70,141,0,0,0,0,0,0,0,0,0,-1,1294,883,0,0
77,141,0,0,0,0,0,0,0,0,0,-1,1301,883,0,0
84,141,0,0,0,0,0,0,0,0,0,-1,1308,883,0,0
91,141,0,0,0,0,0,0,0,0,0,-1,1315,883,0,0
98,141,0,0,0,0,0,0,0,0,0,-1,1322,883,0,0
105,141,0,0,0,0,0,0,0,0,0,-1,1329,883,0,0
112,141,0,0,0,0,0,0,0,0,0,-1,1336,883,0,0
119,141,0,0,0,0,0,0,0,0,0,-1,1343,883,0,0
126,141,0,0,0,0,0,0,0,0,0,-1,1350,883,0,0
133,141,0,0,0,0,0,0,0,0,0,-1,1357,883,0,0
140,141,0,0,0,0,0,0,0,0,0,-1,1364,883,0,0
147,141,0,0,0,0,0,0,0,0,0,-1,1371,883,0,0
154,141,0,0,0,0,0,0,0,0,0,-1,1378,883,0,0
161,141,0,0,0,0,0,0,0,0,0,-1,1385,883,0,0
168,141,0,0,0,0,0,0,0,0,0,-1,1392,883,0,0
175,141,0,0,0,0,0,0,0,0,0,-1,1399,883,0,0
182,141,0,0,0,0,0,0,0,0,0,-1,1406,883,0,0
189,141,0,0,0,0,0,0,0,0,0,-1,1413,883,0,0
196,141,0,0,0,0,0,0,0,0,0,-1,1420,883,0,0
203,141,0,0,0,0,0,0,0,0,0,-1,1427,883,0,0
210,141,0,0,0,0,0,0,0,0,0,-1,1434,883,0,0
217,141,0,0,0,0,0,0,0,0,0,-1,1441,883,0,0
224,141,0,0,0,0,0,0,0,0,0,-1,1448,883,0,0
231,141,0,0,0,0,0,0,0,0,0,-1,1455,883,0,0
238,141,0,0,0,0,0,0,0,0,0,-1,1462,883,0,0
245,141,0,0,0,0,0,0,0,0,0,-1,1469,883,0,0
252,141,0,0,0,0,0,0,0,0,0,-1,1476,883,0,0
259,141,0,0,0,0,0,0,0,0,0,-1,1483,883,0,0
266,141,0,0,0,0,0,0,0,0,0,-1,1490,883,0,0
273,141,0,0,0,0,0,0,0,0,0,-1,1497,883,0,0
280,141,0,0,0,0,0,0,0,0,0,-1,1504,883,0,0
287,141,0,0,0,0,0,0,0,0,0,-1,1511,883,0,0
294,141,0,0,0,0,0,0,0,0,0,-1,1518,883,0,0
301,141,0,0,0,0,0,0,0,0,0,-1,1525,883,0,0
308,141,0,0,0,0,0,0,0,0,0,-1,1532,883,0,0
315,141,0,0,0,0,0,0,0,0,0,-1,1539,883,0,0
322,141,0,0,0,0,0,0,0,0,0,-1,1546,883,0,0
329,141,0,0,0,0,0,0,0,0,0,-1,1553,883,0,0
336,141,0,0,0,0,0,0,0,0,0,-1,1560,883,0,0
343,141,0,0,0,0,0,0,0,0,0,-1,1567,883,0,0
350,141,0,0,0,0,0,0,0,0,0,-1,1574,883,0,0
357,141,0,0,0,0,0,0,0,0,0,-1,1581,883,0,0
364,141,0,0,0,0,0,0,0,0,0,-1,1588,883,0,0
371,141,0,0,0,0,0,0,0,0,0,-1,1595,883,0,0
378,141,0,0,0,0,0,0,0,0,0,-1,1602,883,0,0
385,141,0,0,0,0,0,0,0,0,0,-1,1609,883,0,0
392,141,0,0,0,0,0,0,0,0,0,-1,1616,883,0,0
399,141,0,0,0,0,0,0,0,0,0,-1,1623,883,0,0
406,141,0,0,0,0,0,0,0,0,0,-1,1630,883,0,0
413,141,0,0,0,0,0,0,0,0,0,-1,1637,883,0,0
420,141,0,0,0,0,0,0,0,0,0,-1,1644,883,0,0
427,141,0,0,0,0,0,0,0,0,0,-1,1651,883,0,0
434,141,0,0,0,0,0,0,0,0,0,-1,1658,883,0,0
441,141,0,0,0,0,0,0,0,0,0,-1,1665,883,0,0
448,141,0,0,0,0,0,0,0,0,0,-1,1672,883,0,0
455,141,0,0,0,0,0,0,0,0,0,-1,1679,883,0,0
462,141,0,0,0,0,0,0,0,0,0,-1,1686,883,0,0
469,141,0,0,0,0,0,0,0,0,0,-1,1693,883,0,0
476,141,0,0,0,0,0,0,0,0,0,-1,1700,883,0,0
483,141,0,0,0,0,0,0,0,0,0,-1,1707,883,0,0
490,141,0,0,0,0,0,0,0,0,0,-1,1714,883,0,0
497,141,0,0,0,0,0,0,0,0,0,-1,1721,883,0,0
504,141,0,0,0,0,0,0,0,0,0,-1,1728,883,0,0
511,141,0,0,0,0,0,0,0,0,0,-1,1735,883,0,0
518,141,0,0,0,0,0,0,0,0,0,-1,1742,883,0,0
525,141,0,0,0,0,0,0,0,0,0,-1,1749,883,0,0
532,141,0,0,0,0,0,0,0,0,0,-1,1756,883,0,0
539,141,0,0,0,0,0,0,0,0,0,-1,1763,883,0,0
546,141,0,0,0,0,0,0,0,0,0,-1,1770,883,0,0
553,141,0,0,0,0,0,0,0,0,0,-1,1777,883,0,0
560,141,0,0,0,0,0,0,0,0,0,-1,1784,883,0,0
567,141,0,0,0,0,0,0,0,0,0,-1,1791,883,0,0
574,141,0,0,0,0,0,0,0,0,0,-1,1798,883,0,0
581,141,0,0,0,0,0,0,0,0,0,-1,1805,883,0,0
588,141,0,0,0,0,0,0,0,0,0,-1,1812,883,0,0
595,141,0,0,0,0,0,0,0,0,0,-1,1819,883,0,0
602,141,0,0,0,0,0,0,0,0,0,-1,1826,883,0,0
609,141,0,0,0,0,0,0,0,0,0,-1,1833,883,0,0
616,141,0,0,0,0,0,0,0,0,0,-1,1840,883,0,0
623,141,9.83704,1.37061,0.0019341,0.000216437,0.000165717,0.00194994,0.000200595,0.0953065,0.00123852,0.0423775,1847,883,9.83708,-1.37059
630,141,9.80493,1.28723,0.0015185,-0.000170867,-0.000259108,0.00155735,-0.000209715,-0.14882,0.00111473,0.0465962,1854,883,9.80496,-1.28724
637,141,9.68921,1.33032,0.000401449,-0.000643157,-0.000863666,0.000888463,-0.00113017,-0.513445,0.00116824,0.0449305,1861,883,9.68921,-1.33033
644,141,9.62402,1.44073,-0.00142334,-0.00108479,-0.00146302,0.000218721,-0.00272685,-0.842993,0.00189502,0.0413515,1868,883,9.62398,-1.44074
651,141,9.66895,1.45618,-0.00351407,-0.00137524,-0.00205455,-0.000128442,-0.00476087,-1.02536,0.00313198,0.0383583,1875,883,9.6689,-1.45617
658,141,9.69348,1.39392,-0.00540814,-0.00153862,-0.00250271,-0.000310022,-0.00663674,-1.11445,0.00432486,0.0350094,1882,883,9.69346,-1.3939
665,141,9.56982,1.35553,-0.00687303,-0.00160329,-0.00280851,-0.00038715,-0.00808917,-1.16215,0.00526848,0.0262046,1889,883,9.56979,-1.35554
672,141,9.58691,1.36108,-0.00801434,-0.00154361,-0.00292944,-0.000414429,-0.00914352,-1.20289,0.00596234,0.0232295,1896,883,9.58694,-1.36107
679,141,9.59509,1.32758,-0.0087319,-0.00145512,-0.00291751,-0.000429844,-0.00975717,-1.23286,0.00636634,0.0285251,1903,883,9.59507,-1.3276
686,141,9.60876,1.29089,0,0,0,0,0,0,0,-1,1910,883,9.60882,-1.2909
693,141,8.70166,1.30316,-0.00887463,-0.00108287,-0.00267823,-0.000251084,-0.00970641,-1.26967,0.00638889,0.0293641,1917,883,8.7017,-1.30316
700,141,8.63354,1.29358,-0.00845649,-0.000790481,-0.00233382,-0.000135874,-0.0091111,-1.29734,0.00602929,0.0139424,1924,883,8.63353,-1.29356
707,141,8.65271,1.31287,-0.00780711,-0.000317635,-0.00198718,0.000176961,-0.00830171,-1.32686,0.00559439,0.0117811,1931,883,8.65272,-1.31286
714,141,8.63367,1.3728,-0.00677172,0.00012041,-0.00159658,0.000472296,-0.0071236,-1.35386,0.00491407,0.0120189,1938,883,8.6337,-1.37281
721,141,8.64807,1.45856,-0.00519288,0.00099981,-0.00118385,0.00121841,-0.00541148,-1.3882,0.00407496,0.0115781,1945,883,8.64811,-1.45857
728,141,8.63965,1.51233,-0.00313235,0.00221849,-0.000601062,0.00228518,-0.00319903,-1.4603,0.00318093,0.0141611,1952,883,8.63968,-1.51235
735,141,8.63489,1.61133,-0.000731945,0.00302531,-0.000334878,0.00305493,-0.000761559,-1.48259,0.00233229,0.0136656,1959,883,8.63489,-1.6113
742,141,8.65002,1.6875,0.00198197,0.00422229,-0.000370097,0.00428185,0.00192242,-1.41124,0.00247641,0.0143031,1966,883,8.65005,-1.68748
749,141,8.64966,1.73792,0.00470825,0.00555277,-1.79787e-05,0.00555315,0.00470787,-1.54952,0.00345498,0.0135498,1973,883,8.64968,-1.73792
756,141,8.61511,1.8103,0.00768871,0.00713525,-4.99764e-05,0.00769319,0.00713078,-0.0893359,0.00495198,0.0192405,1980,883,8.61514,-1.81029
763,141,8.61206,1.7688,0.0112277,0.0088729,-0.000177546,0.011241,0.00885959,-0.0748326,0.00683983,0.0401313,1987,883,8.61209,-1.7688
770,141,8.66614,1.95984,0.0157303,0.0106463,-0.000326021,0.0157512,0.0106255,-0.0637779,0.00927688,0.044145,1994,883,8.66608,-1.95986
777,141,8.72644,2.23462,0.0213627,0.012279,-0.000472897,0.0213873,0.0122545,-0.0518731,0.0123917,0.0481195,2001,883,8.72638,-2.23461
784,141,8.81665,2.46124,0,0,0,0,0,0,0,-1,2008,883,8.81663,-2.46127
791,141,9.32312,1.53455,0,0,0,0,0,0,0,-1,2015,883,9.32311,-1.53456
798,141,0,0,0,0,0,0,0,0,0,-1,2022,883,0,0
805,141,0,0,0,0,0,0,0,0,0,-1,2029,883,0,0
812,141,0,0,0,0,0,0,0,0,0,-1,2036,883,0,0
-700,134,0,0,0,0,0,0,0,0,0,-1,524,890,0,0
-693,134,0,0,0,0,0,0,0,0,0,-1,531,890,0,0
-686,134,0,0,0,0,0,0,0,0,0,-1,538,890,0,0
-679,134,0,0,0,0,0,0,0,0,0,-1,545,890,0,0
-672,134,-5.01477,3.30664,0.0575147,-0.0775399,0.00772668,0.0579553,-0.0779805,0.0569638,0.0787659,0.0431201,552,890,-5.01479,-3.30664
-665,134,-4.56165,3.84747,0.0483001,-0.0569717,0.00603442,0.0486449,-0.0573165,0.0570731,0.0612451,0.0450127,559,890,-4.56163,-3.84747
-658,134,-3.49518,3.70966,0,0,0,0,0,0,0,-1,566,890,-3.49517,-3.70965
-651,134,-3.20447,3.30566,0,0,0,0,0,0,0,-1,573,890,-3.20445,-3.30566
-644,134,-3.19891,0.589905,0.0228189,-0.0182033,0.00268165,0.0229935,-0.0183779,0.0650019,0.0239353,0.0437443,580,890,-3.1989,-0.58988
-637,134,-3.43219,0.608887,0.0163862,-0.0110762,0.00200825,0.0165323,-0.0112223,0.0726125,0.0161215,0.0453358,587,890,-3.43216,-0.608916
-630,134,-3.45251,0.917725,0.0113255,-0.00567261,0.0016756,0.0114891,-0.00583621,0.0973273,0.0101787,0.0393533,594,890,-3.45252,-0.917714
-623,134,-3.60779,0.959839,0.00727481,-0.00265108,0.000889136,0.00735383,-0.0027301,0.0886372,0.00602251,0.0201069,601,890,-3.60778,-0.959863
-616,134,-3.65448,0.902405,0.00324035,-7.35252e-05,0.000230829,0.00325636,-8.95263e-05,0.0692099,0.00220135,0.0109403,608,890,-3.65447,-0.90239
-609,134,-3.68262,0.85675,-9.81684e-05,0.00129279,0.000751541,0.00162127,-0.000426656,1.15873,0.00124763,0.0104688,615,890,-3.6826,-0.856757
-602,134,-3.6803,0.796631,-0.0019596,0.00122877,0.00152786,0.0018427,-0.00257353,1.18872,0.00256132,0.0111229,622,890,-3.68032,-0.796629
-595,134,-3.66742,0.766113,-0.0037271,0.000651314,0.00168457,0.00122442,-0.00430021,1.24287,0.00335037,0.0107479,629,890,-3.66741,-0.76609
-588,134,-3.71362,0.738281,-0.00516289,-0.000237534,0.00172117,0.000304318,-0.00570474,1.2658,0.00390855,0.0173071,636,890,-3.71362,-0.738285
-581,134,-3.69623,0.639893,-0.00617649,-0.000971277,0.00225936,-0.000127398,-0.00702037,1.21334,0.00463836,0.0219228,643,890,-3.69621,-0.639865
-574,134,-3.68829,0.587769,-0.00695652,-0.00127943,0.00290199,-5.8556e-05,-0.00817739,1.17257,0.00543218,0.0227903,650,890,-3.6883,-0.587798
-567,134,-3.66754,0.539001,-0.00740083,-0.00113124,0.00320765,0.00021905,-0.00875112,1.17235,0.00590845,0.0207003,657,890,-3.66755,-0.538985
-560,134,-3.83612,0.629761,-0.00753138,-0.00107215,0.00326505,0.000290724,-0.00889425,1.17537,0.00602874,0.0323647,664,890,-3.8361,-0.629756
-553,134,-4.28906,0.781921,-0.00746421,-0.000582088,0.00326939,0.00072341,-0.0087697,1.19089,0.00610192,0.0432944,671,890,-4.28904,-0.781895
-546,134,-4.39435,0.718994,-0.00711787,3.70796e-05,0.00299819,0.00112731,-0.0082081,1.22203,0.00588395,0.0273082,678,890,-4.39433,-0.718987
-539,134,-4.41168,0.720642,-0.00622762,0.00094574,0.00250717,0.00173515,-0.00701703,1.26576,0.00535101,0.0184499,685,890,-4.41166,-0.720668
-532,134,-4.48254,0.799622,-0.00477183,0.00215327,0.00166644,0.00253341,-0.00515197,1.34652,0.00452219,0.0236004,692,890,-4.48252,-0.799633
-525,134,-4.64899,0.768127,-0.00275396,0.00378138,0.000448536,0.00381202,-0.0027846,1.50259,0.00382393,0.0358976,699,890,-4.64897,-0.768122
-518,134,-4.73804,0.676941,-0.000116352,0.00593964,-0.00117916,0.00616113,-0.000337844,-1.38512,0.00422454,0.0407079,706,890,-4.73802,-0.67697
-511,134,-4.62164,0.611572,0.00263273,0.00873987,-0.00311978,0.0100518,0.00132083,-1.17274,0.00630717,0.0415576,713,890,-4.62163,-0.611553
-504,134,0,0,0,0,0,0,0,0,0,-1,720,890,0,0
-497,134,0,0,0,0,0,0,0,0,0,-1,727,890,0,0
-490,134,0,0,0,0,0,0,0,0,0,-1,734,890,0,0
-483,134,0,0,0,0,0,0,0,0,0,-1,741,890,0,0
-476,134,0,0,0,0,0,0,0,0,0,-1,748,890,0,0
-469,134,0,0,0,0,0,0,0,0,0,-1,755,890,0,0
-462,134,0,0,0,0,0,0,0,0,0,-1,762,890,0,0
-455,134,0,0,0,0,0,0,0,0,0,-1,769,890,0,0
-448,134,0,0,0,0,0,0,0,0,0,-1,776,890,0,0
-441,134,0,0,0,0,0,0,0,0,0,-1,783,890,0,0
-434,134,0,0,0,0,0,0,0,0,0,-1,790,890,0,0
-427,134,0,0,0,0,0,0,0,0,0,-1,797,890,0,0
-420,134,0,0,0,0,0,0,0,0,0,-1,804,890,0,0
-413,134,0,0,0,0,0,0,0,0,0,-1,811,890,0,0
-406,134,0,0,0,0,0,0,0,0,0,-1,818,890,0,0
-399,134,0,0,0,0,0,0,0,0,0,-1,825,890,0,0
-392,134,0,0,0,0,0,0,0,0,0,-1,832,890,0,0
-385,134,0,0,0,0,0,0,0,0,0,-1,839,890,0,0
-378,134,0,0,0,0,0,0,0,0,0,-1,846,890,0,0
-371,134,0,0,0,0,0,0,0,0,0,-1,853,890,0,0
-364,134,0,0,0,0,0,0,0,0,0,-1,860,890,0,0
-357,134,0,0,0,0,0,0,0,0,0,-1,867,890,0,0
-350,134,0,0,0,0,0,0,0,0,0,-1,874,890,0,0
-343,134,0,0,0,0,0,0,0,0,0,-1,881,890,0,0
-336,134,0,0,0,0,0,0,0,0,0,-1,888,890,0,0
-329,134,0,0,0,0,0,0,0,0,0,-1,895,890,0,0
-322,134,0,0,0,0,0,0,0,0,0,-1,902,890,0,0
-315,134,0,0,0,0,0,0,0,0,0,-1,909,890,0,0
-308,134,0,0,0,0,0,0,0,0,0,-1,916,890,0,0
-301,134,0,0,0,0,0,0,0,0,0,-1,923,890,0,0
-294,134,0,0,0,0,0,0,0,0,0,-1,930,890,0,0
-287,134,0,0,0,0,0,0,0,0,0,-1,937,890,0,0
-280,134,0,0,0,0,0,0,0,0,0,-1,944,890,0,0
-273,134,0,0,0,0,0,0,0,0,0,-1,951,890,0,0
-266,134,0,0,0,0,0,0,0,0,0,-1,958,890,0,0
-259,134,0,0,0,0,0,0,0,0,0,-1,965,890,0,0
-252,134,0,0,0,0,0,0,0,0,0,-1,972,890,0,0
-245,134,0,0,0,0,0,0,0,0,0,-1,979,890,0,0
-238,134,0,0,0,0,0,0,0,0,0,-1,986,890,0,0
-231,134,0,0,0,0,0,0,0,0,0,-1,993,890,0,0
-224,134,0,0,0,0,0,0,0,0,0,-1,1000,890,0,0
-217,134,0,0,0,0,0,0,0,0,0,-1,1007,890,0,0
-210,134,0,0,0,0,0,0,0,0,0,-1,1014,890,0,0
-203,134,0,0,0,0,0,0,0,0,0,-1,1021,890,0,0
-196,134,0,0,0,0,0,0,0,0,0,-1,1028,890,0,0
-189,134,0,0,0,0,0,0,0,0,0,-1,1035,890,0,0
-182,134,0,0,0,0,0,0,0,0,0,-1,1042,890,0,0
-175,134,0,0,0,0,0,0,0,0,0,-1,1049,890,0,0
-168,134,0,0,0,0,0,0,0,0,0,-1,1056,890,0,0
-161,134,0,0,0,0,0,0,0,0,0,-1,1063,890,0,0
-154,134,0,0,0,0,0,0,0,0,0,-1,1070,890,0,0
-147,134,0,0,0,0,0,0,0,0,0,-1,1077,890,0,0
-140,134,0,0,0,0,0,0,0,0,0,-1,1084,890,0,0
-133,134,0,0,0,0,0,0,0,0,0,-1,1091,890,0,0
-126,134,0,0,0,0,0,0,0,0,0,-1,1098,890,0,0
-119,134,0,0,0,0,0,0,0,0,0,-1,1105,890,0,0
-112,134,0,0,0,0,0,0,0,0,0,-1,1112,890,0,0
-105,134,0,0,0,0,0,0,0,0,0,-1,1119,890,0,0
-98,134,0,0,0,0,0,0,0,0,0,-1,1126,890,0,0
-91,134,0,0,0,0,0,0,0,0,0,-1,1133,890,0,0
-84,134,0,0,0,0,0,0,0,0,0,-1,1140,890,0,0
-77,134,0,0,0,0,0,0,0,0,0,-1,1147,890,0,0
-70,134,0,0,0,0,0,0,0,0,0,-1,1154,890,0,0
-63,134,0,0,0,0,0,0,0,0,0,-1,1161,890,0,0
-56,134,0,0,0,0,0,0,0,0,0,-1,1168,890,0,0
-49,134,0,0,0,0,0,0,0,0,0,-1,1175,890,0,0
-42,134,0,0,0,0,0,0,0,0,0,-1,1182,890,0,0
-35,134,0,0,0,0,0,0,0,0,0,-1,1189,890,0,0
-28,134,0,0,0,0,0,0,0,0,0,-1,1196,890,0,0
-21,134,0,0,0,0,0,0,0,0,0,-1,1203,890,0,0
-14,134,0,0,0,0,0,0,0,0,0,-1,1210,890,0,0
-7,134,0,0,0,0,0,0,0,0,0,-1,1217,890,0,0
0,134,0,0,0,0,0,0,0,0,0,-1,1224,890,0,0
7,134,0,0,0,0,0,0,0,0,0,-1,1231,890,0,0
14,134,0,0,0,0,0,0,0,0,0,-1,1238,890,0,0
21,134,0,0,0,0,0,0,0,0,0,-1,1245,890,0,0
28,134,0,0,0,0,0,0,0,0,0,-1,1252,890,0,0
35,134,0,0,0,0,0,0,0,0,0,-1,1259,890,0,0
42,134,0,0,0,0,0,0,0,0,0,-1,1266,890,0,0
49,134,0,0,0,0,0,0,0,0,0,-1,1273,890,0,0
56,134,0,0,0,0,0,0,0,0,0,-1,1280,890,0,0
63,134,0,0,0,0,0,0,0,0,0,-1,1287,890,0,0
70,134,0,0,0,0,0,0,0,0,0,-1,1294,890,0,0
77,134,0,0,0,0,0,0,0,0,0,-1,1301,890,0,0
84,134,0,0,0,0,0,0,0,0,0,-1,1308,890,0,0
91,134,0,0,0,0,0,0,0,0,0,-1,1315,890,0,0
98,134,0,0,0,0,0,0,0,0,0,-1,1322,890,0,0
105,134,0,0,0,0,0,0,0,0,0,-1,1329,890,0,0
112,134,0,0,0,0,0,0,0,0,0,-1,1336,890,0,0
119,134,0,0,0,0,0,0,0,0,0,-1,1343,890,0,0
126,134,0,0,0,0,0,0,0,0,0,-1,1350,890,0,0
133,134,0,0,0,0,0,0,0,0,0,-1,1357,890,0,0
140,134,0,0,0,0,0,0,0,0,0,-1,1364,890,0,0
147,134,0,0,0,0,0,0,0,0,0,-1,1371,890,0,0
154,134,0,0,0,0,0,0,0,0,0,-1,1378,890,0,0
161,134,0,0,0,0,0,0,0,0,0,-1,1385,890,0,0
168,134,0,0,0,0,0,0,0,0,0,-1,1392,890,0,0
175,134,0,0,0,0,0,0,0,0,0,-1,1399,890,0,0
182,134,0,0,0,0,0,0,0,0,0,-1,1406,890,0,0
189,134,0,0,0,0,0,0,0,0,0,-1,1413,890,0,0
196,134,0,0,0,0,0,0,0,0,0,-1,1420,890,0,0
203,134,0,0,0,0,0,0,0,0,0,-1,1427,890,0,0
210,134,0,0,0,0,0,0,0,0,0,-1,1434,890,0,0
217,134,0,0,0,0,0,0,0,0,0,-1,1441,890,0,0
224,134,0,0,0,0,0,0,0,0,0,-1,1448,890,0,0
231,134,0,0,0,0,0,0,0,0,0,-1,1455,890,0,0
238,134,0,0,0,0,0,0,0,0,0,-1,1462,890,0,0
245,134,0,0,0,0,0,0,0,0,0,-1,1469,890,0,0
252,134,0,0,0,0,0,0,0,0,0,-1,1476,890,0,0
259,134,0,0,0,0,0,0,0,0,0,-1,1483,890,0,0
266,134,0,0,0,0,0,0,0,0,0,-1,1490,890,0,0
273,134,0,0,0,0,0,0,0,0,0,-1,1497,890,0,0
280,134,0,0,0,0,0,0,0,0,0,-1,1504,890,0,0
287,134,0,0,0,0,0,0,0,0,0,-1,1511,890,0,0
294,134,0,0,0,0,0,0,0,0,0,-1,1518,890,0,0
301,134,0,0,0,0,0,0,0,0,0,-1,1525,890,0,0
308,134,0,0,0,0,0,0,0,0,0,-1,1532,890,0,0
315,134,0,0,0,0,0,0,0,0,0,-1,1539,890,0,0
322,134,0,0,0,0,0,0,0,0,0,-1,1546,890,0,0
329,134,0,0,0,0,0,0,0,0,0,-1,1553,890,0,0
336,134,0,0,0,0,0,0,0,0,0,-1,1560,890,0,0
343,134,0,0,0,0,0,0,0,0,0,-1,1567,890,0,0
350,134,0,0,0,0,0,0,0,0,0,-1,1574,890,0,0
357,134,0,0,0,0,0,0,0,0,0,-1,1581,890,0,0
364,134,0,0,0,0,0,0,0,0,0,-1,1588,890,0,0
371,134,0,0,0,0,0,0,0,0,0,-1,1595,890,0,0
378,134,0,0,0,0,0,0,0,0,0,-1,1602,890,0,0
385,134,0,0,0,0,0,0,0,0,0,-1,1609,890,0,0
392,134,0,0,0,0,0,0,0,0,0,-1,1616,890,0,0
399,134,0,0,0,0,0,0,0,0,0,-1,1623,890,0,0
406,134,0,0,0,0,0,0,0,0,0,-1,1630,890,0,0
413,134,0,0,0,0,0,0,0,0,0,-1,1637,890,0,0
420,134,0,0,0,0,0,0,0,0,0,-1,1644,890,0,0
427,134,0,0,0,0,0,0,0,0,0,-1,1651,890,0,0
434,134,0,0,0,0,0,0,0,0,0,-1,1658,890,0,0
441,134,0,0,0,0,0,0,0,0,0,-1,1665,890,0,0
448,134,0,0,0,0,0,0,0,0,0,-1,1672,890,0,0
455,134,0,0,0,0,0,0,0,0,0,-1,1679,890,0,0
462,134,0,0,0,0,0,0,0,0,0,-1,1686,890,0,0
469,134,0,0,0,0,0,0,0,0,0,-1,1693,890,0,0
476,134,0,0,0,0,0,0,0,0,0,-1,1700,890,0,0
483,134,0,0,0,0,0,0,0,0,0,-1,1707,890,0,0
490,134,0,0,0,0,0,0,0,0,0,-1,1714,890,0,0
497,134,0,0,0,0,0,0,0,0,0,-1,1721,890,0,0
504,134,0,0,0,0,0,0,0,0,0,-1,1728,890,0,0
511,134,0,0,0,0,0,0,0,0,0,-1,1735,890,0,0
518,134,0,0,0,0,0,0,0,0,0,-1,1742,890,0,0
525,134,0,0,0,0,0,0,0,0,0,-1,1749,890,0,0
532,134,0,0,0,0,0,0,0,0,0,-1,1756,890,0,0
539,134,0,0,0,0,0,0,0,0,0,-1,1763,890,0,0
546,134,0,0,0,0,0,0,0,0,0,-1,1770,890,0,0
553,134,0,0,0,0,0,0,0,0,0,-1,1777,890,0,0
560,134,0,0,0,0,0,0,0,0,0,-1,1784,890,0,0
567,134,0,0,0,0,0,0,0,0,0,-1,1791,890,0,0
574,134,0,0,0,0,0,0,0,0,0,-1,1798,890,0,0
581,134,0,0,0,0,0,0,0,0,0,-1,1805,890,0,0
588,134,0,0,0,0,0,0,0,0,0,-1,1812,890,0,0
595,134,0,0,0,0,0,0,0,0,0,-1,1819,890,0,0
602,134,0,0,0,0,0,0,0,0,0,-1,1826,890,0,0
609,134,0,0,0,0,0,0,0,0,0,-1,1833,890,0,0
616,134,0,0,0,0,0,0,0,0,0,-1,1840,890,0,0
623,134,9.71301,1.47394,0.00128029,0.000624553,-0.000244458,0.00136139,0.00054345,-0.320339,0.000791309,0.0441726,1847,890,9.71304,-1.47394
630,134,9.70117,1.49945,0.00118383,0.000151195,-0.000324446,0.0012773,5.77177e-05,-0.280516,0.000832963,0.0442053,1854,890,9.70115,-1.49944
637,134,9.77185,1.50348,0.000542277,-0.000383058,-0.000671877,0.00089538,-0.00073616,-0.483875,0.000943464,0.0439946,1861,890,9.77186,-1.50347
644,134,9.80884,1.4317,-0.000868808,-0.000912827,-0.00106454,0.000173948,-0.00195558,-0.775062,0.0013654,0.0432749,1868,890,9.80888,-1.43173
651,134,9.77673,1.33978,-0.0027589,-0.00125732,-0.00156698,-0.000270554,-0.00374566,-1.00881,0.00241199,0.0437855,1875,890,9.77679,-1.33981
658,134,9.67273,1.37506,-0.00464929,-0.0014564,-0.00199154,-0.000500415,-0.00560527,-1.12326,0.00358171,0.0371328,1882,890,9.67279,-1.37505
665,134,9.62622,1.33514,-0.00617464,-0.00155078,-0.00230388,-0.000598836,-0.00712658,-1.17897,0.00456455,0.0296085,1889,890,9.62619,-1.33514
672,134,9.63623,1.32581,-0.00739879,-0.00151777,-0.00246348,-0.000622224,-0.00829434,-1.22212,0.00533426,0.0234207,1896,890,9.63628,-1.32578
679,134,9.61353,1.29547,-0.00824819,-0.00144106,-0.00251983,-0.000609795,-0.00907945,-1.25215,0.00586029,0.0207871,1903,890,9.61355,-1.29547
686,134,9.6167,1.27148,0,0,0,0,0,0,0,-1,1910,890,9.61673,-1.27148
693,134,9.04321,1.24738,-0.00874475,-0.00107399,-0.00241402,-0.000377517,-0.00944122,-1.28991,0.00617216,0.0256062,1917,890,9.04322,-1.24736
700,134,8.65967,1.27283,-0.00846238,-0.000807534,-0.00216608,-0.000237108,-0.0090328,-1.3133,0.00594441,0.0163793,1924,890,8.65969,-1.27281
707,134,8.64685,1.27631,-0.00787312,-0.000408455,-0.00195257,7.14348e-05,-0.00835301,-1.3298,0.00559264,0.0154111,1931,890,8.64684,-1.27628
714,134,8.67102,1.36798,-0.00689146,-3.60584e-05,-0.00168147,0.000354155,-0.00728167,-1.34277,0.0049767,0.0143463,1938,890,8.67108,-1.36798
721,134,8.72449,1.46509,-0.00547629,0.000589579,-0.00141684,0.000904199,-0.00579091,-1.35228,0.00419462,0.0138508,1945,890,8.72445,-1.46506
728,134,8.7179,1.53424,-0.00361017,0.0014015,-0.0010359,0.00160718,-0.00381584,-1.3748,0.00321637,0.0145345,1952,890,8.71794,-1.53421
735,134,8.71277,1.60016,-0.00124147,0.00190595,-0.000907356,0.00214879,-0.00148432,-1.30929,0.00210924,0.0184118,1959,890,8.71275,-1.60017
742,134,8.69775,1.65735,0.00148157,0.0026534,-0.00100871,0.00323401,0.000900954,-1.04851,0.00192721,0.0129332,1966,890,8.69772,-1.65735
749,134,8.69934,1.71124,0.00419549,0.00345325,-0.000685555,0.00460393,0.00304481,-0.537314,0.00270382,0.0118964,1973,890,8.69931,-1.71125
756,134,8.69421,1.78857,0.00707037,0.00436664,-0.000751009,0.00726497,0.00417204,-0.253541,0.00420983,0.0156356,1980,890,8.69419,-1.78859
763,134,8.69507,1.84955,0.0103026,0.00533713,-0.000842388,0.0104417,0.00519812,-0.163554,0.00602851,0.0365451,1987,890,8.69508,-1.84952
770,134,8.69751,1.91956,0.0142984,0.00627326,-0.000825027,0.0143824,0.00618932,-0.101392,0.00833048,0.0449314,1994,890,8.69754,-1.91956
777,134,8.72046,2.00201,0,0,0,0,0,0,0,-1,2001,890,8.72048,-2.002
784,134,9.63196,1.34485,0,0,0,0,0,0,0,-1,2008,890,9.632,-1.34484
791,134,9.42908,1.62384,0,0,0,0,0,0,0,-1,2015,890,9.42909,-1.62386
798,134,0,0,0,0,0,0,0,0,0,-1,2022,890,0,0
805,134,0,0,0,0,0,0,0,0,0,-1,2029,890,0,0
812,134,0,0,0,0,0,0,0,0,0,-1,2036,890,0,0
-700,127,0,0,0,0,0,0,0,0,0,-1,524,897,0,0
-693,127,0,0,0,0,0,0,0,0,0,-1,531,897,0,0
-686,127,0,0,0,0,0,0,0,0,0,-1,538,897,0,0
-679,127,-5.03137,3.758,0,0,0,0,0,0,0,-1,545,897,-5.03136,-3.75802
-672,127,-5.14709,4.0799,0.0575345,-0.0778542,0.00927244,0.0581666,-0.0784863,0.068064,0.0791868,0.0466626,552,897,-5.14712,-4.07987
-665,127,-4.65179,4.78656,0.0489864,-0.057874,0.00840933,0.0496441,-0.0585317,0.0780543,0.0625255,0.0469753,559,897,-4.65182,-4.78658
-658,127,-3.45007,-0.491882,0,0,0,0,0,0,0,-1,566,897,-3.4501,0.491904
-651,127,-3.42053,0.0684204,0.0315397,-0.0290772,0.0063456,0.0321968,-0.0297344,0.103193,0.0357654,0.0421748,573,897,-3.42052,-0.0683955
-644,127,-3.52551,0.573425,0.0238848,-0.0192663,0.0053221,0.0245316,-0.019913,0.120922,0.0257062,0.0422376,580,897,-3.52551,-0.573427
-637,127,-3.60205,0.955627,0.0173142,-0.0120014,0.00435128,0.0179464,-0.0126337,0.144286,0.017744,0.0416765,587,897,-3.60202,-0.955617
-630,127,-3.62762,1.00281,0.0121826,-0.0062951,0.00376768,0.0129213,-0.00703382,0.19361,0.011687,0.0312735,594,897,-3.62764,-1.00282
-623,127,-3.68372,0.939209,0.00788768,-0.00309231,0.00256048,0.00845541,-0.00366005,0.2182,0.00717518,0.0135768,601,897,-3.6837,-0.939189
-616,127,-3.7157,0.909607,0.00349103,-0.000392027,0.00155409,0.00403642,-0.00093741,0.337507,0.00305179,0.0102064,608,897,-3.71567,-0.909616
-609,127,-3.73718,0.857361,-8.6007e-05,0.00107721,0.00181445,0.00240099,-0.00140978,0.940497,0.00222482,0.0128089,615,897,-3.73719,-0.857378
-602,127,-3.73633,0.795715,-0.00210508,0.000991318,0.00222469,0.0021535,-0.00326726,1.08939,0.00315162,0.0132922,622,897,-3.73635,-0.795694
-595,127,-3.70856,0.749878,-0.00394657,0.000501509,0.00208842,0.00132834,-0.00477341,1.19382,0.00370529,0.0119452,629,897,-3.70855,-0.749906
-588,127,-3.72449,0.728088,-0.0054082,-0.000233996,0.00190418,0.000391222,-0.00603341,1.25355,0.00415882,0.0165589,636,897,-3.72447,-0.728067
-581,127,-3.76593,0.630859,-0.00642623,-0.000807337,0.00229225,9.15374e-06,-0.00724272,1.22861,0.00483154,0.0226095,643,897,-3.7659,-0.63085
-574,127,-3.75348,0.601257,-0.00719025,-0.00102118,0.00276261,3.51002e-05,-0.00824653,1.2056,0.00550942,0.0220345,650,897,-3.75346,-0.601269
-567,127,-3.71484,0.56897,-0.00759575,-0.000884594,0.00297658,0.000245352,-0.0087257,1.20799,0.00590062,0.0299599,657,897,-3.71483,-0.568967
-560,127,-4.01117,0.636292,-0.00771262,-0.000764094,0.00296832,0.000331266,-0.00880798,1.21728,0.00598546,0.0314307,664,897,-4.01116,-0.636275
-553,127,-4.44232,0.668823,-0.00756451,-0.000256935,0.00290478,0.000757032,-0.00857848,1.23495,0.0059873,0.0364526,671,897,-4.44233,-0.668818
-546,127,-4.39935,0.721863,-0.00706005,0.000370694,0.00255664,0.00116536,-0.00785471,1.26944,0.00566502,0.0226142,678,897,-4.39937,-0.721843
-539,127,-4.4035,0.723083,-0.00597779,0.00126961,0.00196304,0.00176716,-0.00647535,1.32256,0.00501092,0.0204995,685,897,-4.4035,-0.723105
-532,127,-4.40247,0.762451,-0.00429298,0.0024649,0.00102678,0.00261747,-0.00444554,1.42329,0.00412311,0.0171783,692,897,-4.40249,-0.762421
-525,127,-4.50201,0.832336,-0.00199112,0.00404119,-0.000295576,0.00405564,-0.00200557,-1.52195,0.00356554,0.0337575,699,897,-4.50202,-0.832315
-518,127,-4.59216,0.804382,0.000940778,0.00608438,-0.00202585,0.00678645,0.000238708,-1.23719,0.00444687,0.0388615,706,897,-4.59216,-0.804367
-511,127,-4.71313,0.735962,0.00377312,0.00866516,-0.00400974,0.0109161,0.00152223,-1.05928,0.00682677,0.0390239,713,897,-4.71313,-0.735967
-504,127,0,0,0,0,0,0,0,0,0,-1,720,897,0,0
-497,127,0,0,0,0,0,0,0,0,0,-1,727,897,0,0
-490,127,0,0,0,0,0,0,0,0,0,-1,734,897,0,0
-483,127,0,0,0,0,0,0,0,0,0,-1,741,897,0,0
-476,127,0,0,0,0,0,0,0,0,0,-1,748,897,0,0
-469,127,0,0,0,0,0,0,0,0,0,-1,755,897,0,0
-462,127,0,0,0,0,0,0,0,0,0,-1,762,897,0,0
-455,127,0,0,0,0,0,0,0,0,0,-1,769,897,0,0
-448,127,0,0,0,0,0,0,0,0,0,-1,776,897,0,0
-441,127,0,0,0,0,0,0,0,0,0,-1,783,897,0,0
-434,127,0,0,0,0,0,0,0,0,0,-1,790,897,0,0
-427,127,0,0,0,0,0,0,0,0,0,-1,797,897,0,0
-420,127,0,0,0,0,0,0,0,0,0,-1,804,897,0,0
-413,127,0,0,0,0,0,0,0,0,0,-1,811,897,0,0
-406,127,0,0,0,0,0,0,0,0,0,-1,818,897,0,0
-399,127,0,0,0,0,0,0,0,0,0,-1,825,897,0,0
-392,127,0,0,0,0,0,0,0,0,0,-1,832,897,0,0
-385,127,0,0,0,0,0,0,0,0,0,-1,839,897,0,0
-378,127,0,0,0,0,0,0,0,0,0,-1,846,897,0,0
-371,127,0,0,0,0,0,0,0,0,0,-1,853,897,0,0
-364,127,0,0,0,0,0,0,0,0,0,-1,860,897,0,0
-357,127,0,0,0,0,0,0,0,0,0,-1,867,897,0,0
-350,127,0,0,0,0,0,0,0,0,0,-1,874,897,0,0
-343,127,0,0,0,0,0,0,0,0,0,-1,881,897,0,0
-336,127,0,0,0,0,0,0,0,0,0,-1,888,897,0,0
-329,127,0,0,0,0,0,0,0,0,0,-1,895,897,0,0
-322,127,0,0,0,0,0,0,0,0,0,-1,902,897,0,0
-315,127,0,0,0,0,0,0,0,0,0,-1,909,897,0,0
-308,127,0,0,0,0,0,0,0,0,0,-1,916,897,0,0
-301,127,0,0,0,0,0,0,0,0,0,-1,923,897,0,0
-294,127,0,0,0,0,0,0,0,0,0,-1,930,897,0,0
-287,127,0,0,0,0,0,0,0,0,0,-1,937,897,0,0
-280,127,0,0,0,0,0,0,0,0,0,-1,944,897,0,0
-273,127,0,0,0,0,0,0,0,0,0,-1,951,897,0,0
-266,127,0,0,0,0,0,0,0,0,0,-1,958,897,0,0
-259,127,0,0,0,0,0,0,0,0,0,-1,965,897,0,0
-252,127,0,0,0,0,0,0,0,0,0,-1,972,897,0,0
-245,127,0,0,0,0,0,0,0,0,0,-1,979,897,0,0
-238,127,0,0,0,0,0,0,0,0,0,-1,986,897,0,0
-231,127,0,0,0,0,0,0,0,0,0,-1,993,897,0,0
-224,127,0,0,0,0,0,0,0,0,0,-1,1000,897,0,0
-217,127,0,0,0,0,0,0,0,0,0,-1,1007,897,0,0
-210,127,0,0,0,0,0,0,0,0,0,-1,1014,897,0,0
-203,127,0,0,0,0,0,0,0,0,0,-1,1021,897,0,0
-196,127,0,0,0,0,0,0,0,0,0,-1,1028,897,0,0
-189,127,0,0,0,0,0,0,0,0,0,-1,1035,897,0,0
-182,127,0,0,0,0,0,0,0,0,0,-1,1042,897,0,0
-175,127,0,0,0,0,0,0,0,0,0,-1,1049,897,0,0
-168,127,0,0,0,0,0,0,0,0,0,-1,1056,897,0,0
-161,127,0,0,0,0,0,0,0,0,0,-1,1063,897,0,0
-154,127,0,0,0,0,0,0,0,0,0,-1,1070,897,0,0
-147,127,0,0,0,0,0,0,0,0,0,-1,1077,897,0,0
-140,127,0,0,0,0,0,0,0,0,0,-1,1084,897,0,0
-133,127,0,0,0,0,0,0,0,0,0,-1,1091,897,0,0
-126,127,0,0,0,0,0,0,0,0,0,-1,1098,897,0,0
-119,127,0,0,0,0,0,0,0,0,0,-1,1105,897,0,0
-112,127,0,0,0,0,0,0,0,0,0,-1,1112,897,0,0
-105,127,0,0,0,0,0,0,0,0,0,-1,1119,897,0,0
-98,127,0,0,0,0,0,0,0,0,0,-1,1126,897,0,0
-91,127,0,0,0,0,0,0,0,0,0,-1,1133,897,0,0
-84,127,0,0,0,0,0,0,0,0,0,-1,1140,897,0,0
-77,127,0,0,0,0,0,0,0,0,0,-1,1147,897,0,0
-70,127,0,0,0,0,0,0,0,0,0,-1,1154,897,0,0
-63,127,0,0,0,0,0,0,0,0,0,-1,1161,897,0,0
-56,127,0,0,0,0,0,0,0,0,0,-1,1168,897,0,0
-49,127,0,0,0,0,0,0,0,0,0,-1,1175,897,0,0
-42,127,0,0,0,0,0,0,0,0,0,-1,1182,897,0,0
-35,127,0,0,0,0,0,0,0,0,0,-1,1189,897,0,0
-28,127,0,0,0,0,0,0,0,0,0,-1,1196,897,0,0
-21,127,0,0,0,0,0,0,0,0,0,-1,1203,897,0,0
-14,127,0,0,0,0,0,0,0,0,0,-1,1210,897,0,0
-7,127,0,0,0,0,0,0,0,0,0,-1,1217,897,0,0
0,127,0,0,0,0,0,0,0,0,0,-1,1224,897,0,0
7,127,0,0,0,0,0,0,0,0,0,-1,1231,897,0,0
14,127,0,0,0,0,0,0,0,0,0,-1,1238,897,0,0
21,127,0,0,0,0,0,0,0,0,0,-1,1245,897,0,0
28,127,0,0,0,0,0,0,0,0,0,-1,1252,897,0,0
35,127,0,0,0,0,0,0,0,0,0,-1,1259,897,0,0
42,127,0,0,0,0,0,0,0,0,0,-1,1266,897,0,0
49,127,0,0,0,0,0,0,0,0,0,-1,1273,897,0,0
56,127,0,0,0,0,0,0,0,0,0,-1,1280,897,0,0
63,127,0,0,0,0,0,0,0,0,0,-1,1287,897,0,0
70,127,0,0,0,0,0,0,0,0,0,-1,1294,897,0,0
77,127,0,0,0,0,0,0,0,0,0,-1,1301,897,0,0
84,127,0,0,0,0,0,0,0,0,0,-1,1308,897,0,0
91,127,0,0,0,0,0,0,0,0,0,-1,1315,897,0,0
98,127,0,0,0,0,0,0,0,0,0,-1,1322,897,0,0
105,127,0,0,0,0,0,0,0,0,0,-1,1329,897,0,0
112,127,0,0,0,0,0,0,0,0,0,-1,1336,897,0,0
119,127,0,0,0,0,0,0,0,0,0,-1,1343,897,0,0
126,127,0,0,0,0,0,0,0,0,0,-1,1350,897,0,0
133,127,0,0,0,0,0,0,0,0,0,-1,1357,897,0,0
140,127,0,0,0,0,0,0,0,0,0,-1,1364,897,0,0
147,127,0,0,0,0,0,0,0,0,0,-1,1371,897,0,0
154,127,0,0,0,0,0,0,0,0,0,-1,1378,897,0,0
161,127,0,0,0,0,0,0,0,0,0,-1,1385,897,0,0
168,127,0,0,0,0,0,0,0,0,0,-1,1392,897,0,0
175,127,0,0,0,0,0,0,0,0,0,-1,1399,897,0,0
182,127,0,0,0,0,0,0,0,0,0,-1,1406,897,0,0
189,127,0,0,0,0,0,0,0,0,0,-1,1413,897,0,0
196,127,0,0,0,0,0,0,0,0,0,-1,1420,897,0,0
203,127,0,0,0,0,0,0,0,0,0,-1,1427,897,0,0
210,127,0,0,0,0,0,0,0,0,0,-1,1434,897,0,0
217,127,0,0,0,0,0,0,0,0,0,-1,1441,897,0,0
224,127,0,0,0,0,0,0,0,0,0,-1,1448,897,0,0
231,127,0,0,0,0,0,0,0,0,0,-1,1455,897,0,0
238,127,0,0,0,0,0,0,0,0,0,-1,1462,897,0,0
245,127,0,0,0,0,0,0,0,0,0,-1,1469,897,0,0
252,127,0,0,0,0,0,0,0,0,0,-1,1476,897,0,0
259,127,0,0,0,0,0,0,0,0,0,-1,1483,897,0,0
266,127,0,0,0,0,0,0,0,0,0,-1,1490,897,0,0
273,127,0,0,0,0,0,0,0,0,0,-1,1497,897,0,0
280,127,0,0,0,0,0,0,0,0,0,-1,1504,897,0,0
287,127,0,0,0,0,0,0,0,0,0,-1,1511,897,0,0
294,127,0,0,0,0,0,0,0,0,0,-1,1518,897,0,0
301,127,0,0,0,0,0,0,0,0,0,-1,1525,897,0,0
308,127,0,0,0,0,0,0,0,0,0,-1,1532,897,0,0
315,127,0,0,0,0,0,0,0,0,0,-1,1539,897,0,0
322,127,0,0,0,0,0,0,0,0,0,-1,1546,897,0,0
329,127,0,0,0,0,0,0,0,0,0,-1,1553,897,0,0
336,127,0,0,0,0,0,0,0,0,0,-1,1560,897,0,0
343,127,0,0,0,0,0,0,0,0,0,-1,1567,897,0,0
350,127,0,0,0,0,0,0,0,0,0,-1,1574,897,0,0
357,127,0,0,0,0,0,0,0,0,0,-1,1581,897,0,0
364,127,0,0,0,0,0,0,0,0,0,-1,1588,897,0,0
371,127,0,0,0,0,0,0,0,0,0,-1,1595,897,0,0
378,127,0,0,0,0,0,0,0,0,0,-1,1602,897,0,0
385,127,0,0,0,0,0,0,0,0,0,-1,1609,897,0,0
392,127,0,0,0,0,0,0,0,0,0,-1,1616,897,0,0
399,127,0,0,0,0,0,0,0,0,0,-1,1623,897,0,0
406,127,0,0,0,0,0,0,0,0,0,-1,1630,897,0,0
413,127,0,0,0,0,0,0,0,0,0,-1,1637,897,0,0
420,127,0,0,0,0,0,0,0,0,0,-1,1644,897,0,0
427,127,0,0,0,0,0,0,0,0,0,-1,1651,897,0,0
434,127,0,0,0,0,0,0,0,0,0,-1,1658,897,0,0
441,127,0,0,0,0,0,0,0,0,0,-1,1665,897,0,0
448,127,0,0,0,0,0,0,0,0,0,-1,1672,897,0,0
455,127,0,0,0,0,0,0,0,0,0,-1,1679,897,0,0
462,127,0,0,0,0,0,0,0,0,0,-1,1686,897,0,0
469,127,0,0,0,0,0,0,0,0,0,-1,1693,897,0,0
476,127,0,0,0,0,0,0,0,0,0,-1,1700,897,0,0
483,127,0,0,0,0,0,0,0,0,0,-1,1707,897,0,0
490,127,0,0,0,0,0,0,0,0,0,-1,1714,897,0,0
497,127,0,0,0,0,0,0,0,0,0,-1,1721,897,0,0
504,127,0,0,0,0,0,0,0,0,0,-1,1728,897,0,0
511,127,0,0,0,0,0,0,0,0,0,-1,1735,897,0,0
518,127,0,0,0,0,0,0,0,0,0,-1,1742,897,0,0
525,127,0,0,0,0,0,0,0,0,0,-1,1749,897,0,0
532,127,0,0,0,0,0,0,0,0,0,-1,1756,897,0,0
539,127,0,0,0,0,0,0,0,0,0,-1,1763,897,0,0
546,127,0,0,0,0,0,0,0,0,0,-1,1770,897,0,0
553,127,0,0,0,0,0,0,0,0,0,-1,1777,897,0,0
560,127,0,0,0,0,0,0,0,0,0,-1,1784,897,0,0
567,127,0,0,0,0,0,0,0,0,0,-1,1791,897,0,0
574,127,0,0,0,0,0,0,0,0,0,-1,1798,897,0,0
581,127,0,0,0,0,0,0,0,0,0,-1,1805,897,0,0
588,127,0,0,0,0,0,0,0,0,0,-1,1812,897,0,0
595,127,0,0,0,0,0,0,0,0,0,-1,1819,897,0,0
602,127,0,0,0,0,0,0,0,0,0,-1,1826,897,0,0
609,127,0,0,0,0,0,0,0,0,0,-1,1833,897,0,0
616,127,0,0,0,0,0,0,0,0,0,-1,1840,897,0,0
623,127,0,0,0,0,0,0,0,0,0,-1,1847,897,0,0
630,127,9.52612,1.46832,0.000665119,0.000876709,-0.000659885,0.00143923,0.000102602,-0.864883,0.000927177,0.0400461,1854,897,9.52609,-1.46835
637,127,9.57825,1.52087,0.000241805,0.000226887,-0.000699846,0.000934231,-0.00046554,-0.78007,0.000823121,0.0400835,1861,897,9.57828,-1.52088
644,127,9.70508,1.28467,-0.000856101,-0.000448306,-0.000846842,0.000218839,-0.00152325,-0.903537,0.00109575,0.0419645,1868,897,9.70504,-1.28464
651,127,9.53821,1.3078,-0.00254665,-0.000903307,-0.00122609,-0.00024902,-0.00320093,-1.0806,0.00205598,0.0452929,1875,897,9.53819,-1.30781
658,127,9.44849,1.41394,-0.0044021,-0.00119005,-0.0016061,-0.00052476,-0.00506739,-1.17809,0.00321763,0.0423531,1882,897,9.44845,-1.41397
665,127,9.59875,1.35309,-0.00596179,-0.0013491,-0.00190858,-0.000661802,-0.00664909,-1.22514,0.00422942,0.0362114,1889,897,9.59879,-1.3531
672,127,9.63733,1.28265,-0.00721639,-0.00136601,-0.002092,-0.000694922,-0.00788748,-1.26038,0.00504267,0.0320327,1896,897,9.63729,-1.28263
679,127,9.64185,1.23694,-0.00812647,-0.00132216,-0.00220002,-0.000672808,-0.00877583,-1.28379,0.00563967,0.0266107,1903,897,9.64188,-1.23692
686,127,9.68701,1.19745,-0.00869867,-0.00123347,-0.00232029,-0.000571062,-0.00936107,-1.29271,0.00605934,0.0270511,1910,897,9.68696,-1.19745
693,127,9.17981,1.23126,-0.00881136,-0.00102959,-0.00219532,-0.000452991,-0.00938796,-1.31395,0.00611324,0.0273352,1917,897,9.17977,-1.23127
700,127,8.75012,1.23334,-0.00858911,-0.00082047,-0.00201653,-0.000328223,-0.00908135,-1.33137,0.00594785,0.0194261,1924,897,8.75016,-1.23333
707,127,8.69348,1.29547,-0.00800477,-0.000513692,-0.0018852,-6.60177e-05,-0.00845245,-1.33765,0.00561309,0.0191576,1931,897,8.69344,-1.29544
714,127,8.71912,1.37683,-0.00701861,-0.000251704,-0.00168496,0.000144639,-0.00741496,-1.33977,0.00499222,0.0162515,1938,897,8.71907,-1.37683
721,127,8.79626,1.47363,-0.00568909,0.000174915,-0.00152591,0.000548218,-0.00606239,-1.33087,0.00423617,0.0126627,1945,897,8.79626,-1.47363
728,127,8.78723,1.53271,-0.00398465,0.000636721,-0.00132145,0.000987894,-0.00433582,-1.31105,0.00326997,0.0125858,1952,897,8.78718,-1.53274
735,127,8.77698,1.58893,-0.00166513,0.000921776,-0.00129867,0.00146124,-0.00220459,-1.17709,0.00213092,0.0193807,1959,897,8.77703,-1.58893
742,127,8.75806,1.6391,0.00105228,0.00139911,-0.00145113,0.00268715,-0.000235759,-0.844868,0.00187497,0.0160848,1966,897,8.75803,-1.63909
749,127,8.75293,1.68878,0.00377565,0.00188945,-0.00115482,0.00432354,0.00134157,-0.442989,0.00255538,0.0115895,1973,897,8.75291,-1.6888
756,127,8.75537,1.75195,0.00662637,0.00243531,-0.00126827,0.00698028,0.0020814,-0.272127,0.00413805,0.0141174,1980,897,8.75539,-1.75197
763,127,8.77124,1.78778,0.00969453,0.00304769,-0.00136609,0.00996434,0.00277788,-0.194997,0.00593763,0.0221397,1987,897,8.77118,-1.78781
770,127,9.01587,1.42059,0.0133608,0.00367835,-0.00127537,0.0135259,0.00351318,-0.128795,0.00810416,0.0394395,1994,897,9.01589,-1.42062
777,127,9.24756,1.06073,0,0,0,0,0,0,0,-1,2001,897,9.24751,-1.06072
784,127,9.37549,1.66113,0,0,0,0,0,0,0,-1,2008,897,9.37548,-1.66111
791,127,9.50977,1.65656,0,0,0,0,0,0,0,-1,2015,897,9.50982,-1.65655
798,127,0,0,0,0,0,0,0,0,0,-1,2022,897,0,0
805,127,0,0,0,0,0,0,0,0,0,-1,2029,897,0,0
812,127,0,0,0,0,0,0,0,0,0,-1,2036,897,0,0
-700,120,0,0,0,0,0,0,0,0,0,-1,524,904,0,0
-693,120,0,0,0,0,0,0,0,0,0,-1,531,904,0,0
-686,120,0,0,0,0,0,0,0,0,0,-1,538,904,0,0
-679,120,-4.57379,4.8717,0.0641702,-0.101151,0.010842,0.0648782,-0.101859,0.0652092,0.0970517,0.043045,545,904,-4.5738,-4.87168
-672,120,-4.96606,5.04108,0.0584136,-0.0777253,0.0107813,0.0592621,-0.0785739,0.0785409,0.0798396,0.0439689,552,904,-4.96606,-5.04107
-665,120,-4.58264,5.67499,0.050283,-0.058331,0.0101619,0.0512256,-0.0592735,0.0924902,0.0638531,0.0485178,559,904,-4.58262,-5.675
-658,120,-4.03198,6.20819,0,0,0,0,0,0,0,-1,566,904,-4.03196,-6.20821
-651,120,-3.75989,-0.118591,0.0329953,-0.0297706,0.00823054,0.0340566,-0.0308319,0.128243,0.0374788,0.0438707,573,904,-3.75986,0.118572
-644,120,-3.89429,0.342224,0.0252069,-0.0198884,0.00710682,0.0263004,-0.0209819,0.152667,0.027356,0.0423124,580,904,-3.89432,-0.342198
-637,120,-3.66614,1.06219,0.0184387,-0.0125181,0.00595587,0.019545,-0.0136244,0.183661,0.0192518,0.0381947,587,904,-3.66613,-1.06221
-630,120,-3.72119,0.995178,0.0132125,-0.00656167,0.00525178,0.0145208,-0.00786992,0.244138,0.013116,0.0208722,594,904,-3.72121,-0.995199
-623,120,-3.76855,0.93927,0.0086152,-0.00328331,0.00373263,0.0096892,-0.00435731,0.280165,0.00830223,0.0107057,601,904,-3.76853,-0.93929
-616,120,-3.76984,0.898621,0.00376917,-0.000461407,0.00249808,0.00492724,-0.00161947,0.434092,0.00393728,0.0110731,608,904,-3.76985,-0.898629
-609,120,-3.78558,0.849548,9.60908e-06,0.000973355,0.00261252,0.00314807,-0.00216511,0.876597,0.00308502,0.012964,615,904,-3.78561,-0.849576
-602,120,-3.79529,0.802246,-0.00213425,0.000765162,0.00273136,0.00240771,-0.00377679,1.02937,0.00359967,0.01215,622,904,-3.7953,-0.802257
-595,120,-3.76202,0.762085,-0.00402949,0.000332639,0.00233502,0.00134678,-0.00504364,1.16106,0.00388986,0.0150925,629,904,-3.76202,-0.762074
-588,120,-3.77924,0.704529,-0.00542755,-0.000291494,0.0019678,0.000375754,-0.0060948,1.24388,0.00419406,0.0196884,636,904,-3.77923,-0.704554
-581,120,-3.84192,0.642578,-0.0063929,-0.000772648,0.00219025,-1.99124e-05,-0.00714564,1.23977,0.00475713,0.0230005,643,904,-3.84195,-0.64258
-574,120,-3.79242,0.600037,-0.00712019,-0.000891322,0.00250839,-6.79307e-06,-0.00800472,1.23178,0.00533422,0.0194618,650,904,-3.79245,-0.600047
-567,120,-3.81793,0.612732,-0.00746386,-0.000733259,0.00261474,0.000163144,-0.00836026,1.24053,0.00562868,0.0349252,657,904,-3.81791,-0.612747
-560,120,-4.19843,0.706055,-0.00751437,-0.000532167,0.00251318,0.000278344,-0.00832488,1.25882,0.00564499,0.0463542,664,904,-4.19841,-0.706065
-553,120,-4.5274,0.829773,0,0,0,0,0,0,0,-1,671,904,-4.52739,-0.829779
-546,120,-4.37781,0.800598,-0.00657762,0.000692864,0.00194687,0.00118137,-0.00706613,1.32495,0.00514991,0.0318476,678,904,-4.37783,-0.800581
-539,120,-4.34363,0.753357,-0.00532804,0.00162076,0.00127831,0.00184845,-0.00555574,1.39452,0.00444985,0.0258365,685,904,-4.34361,-0.753377
-532,120,-4.27887,0.723206,-0.00349285,0.00283195,0.000306193,0.00284674,-0.00350763,1.52254,0.00367531,0.0270755,692,904,-4.27887,-0.723233
-525,120,-4.45581,0.76593,-0.00105419,0.00436646,-0.00101719,0.00455105,-0.00123878,-1.39128,0.00352038,0.0345961,699,904,-4.45582,-0.765918
-518,120,-4.50018,0.875061,0.00191371,0.00626153,-0.00268465,0.00754207,0.000633164,-1.12573,0.00483084,0.037762,706,904,-4.50015,-0.875036
-511,120,-4.60162,0.820129,0.00443393,0.00851437,-0.00446509,0.0113833,0.00156502,-0.999698,0.00712471,0.0382434,713,904,-4.6016,-0.820147
-504,120,0,0,0,0,0,0,0,0,0,-1,720,904,0,0
-497,120,0,0,0,0,0,0,0,0,0,-1,727,904,0,0
-490,120,0,0,0,0,0,0,0,0,0,-1,734,904,0,0
-483,120,0,0,0,0,0,0,0,0,0,-1,741,904,0,0
-476,120,0,0,0,0,0,0,0,0,0,-1,748,904,0,0
-469,120,0,0,0,0,0,0,0,0,0,-1,755,904,0,0
-462,120,0,0,0,0,0,0,0,0,0,-1,762,904,0,0
-455,120,0,0,0,0,0,0,0,0,0,-1,769,904,0,0
-448,120,0,0,0,0,0,0,0,0,0,-1,776,904,0,0
-441,120,0,0,0,0,0,0,0,0,0,-1,783,904,0,0
-434,120,0,0,0,0,0,0,0,0,0,-1,790,904,0,0
-427,120,0,0,0,0,0,0,0,0,0,-1,797,904,0,0
-420,120,0,0,0,0,0,0,0,0,0,-1,804,904,0,0
-413,120,0,0,0,0,0,0,0,0,0,-1,811,904,0,0
-406,120,0,0,0,0,0,0,0,0,0,-1,818,904,0,0
-399,120,0,0,0,0,0,0,0,0,0,-1,825,904,0,0
-392,120,0,0,0,0,0,0,0,0,0,-1,832,904,0,0
-385,120,0,0,0,0,0,0,0,0,0,-1,839,904,0,0
-378,120,0,0,0,0,0,0,0,0,0,-1,846,904,0,0
-371,120,0,0,0,0,0,0,0,0,0,-1,853,904,0,0
-364,120,0,0,0,0,0,0,0,0,0,-1,860,904,0,0
-357,120,0,0,0,0,0,0,0,0,0,-1,867,904,0,0
-350,120,0,0,0,0,0,0,0,0,0,-1,874,904,0,0
-343,120,0,0,0,0,0,0,0,0,0,-1,881,904,0,0
-336,120,0,0,0,0,0,0,0,0,0,-1,888,904,0,0
-329,120,0,0,0,0,0,0,0,0,0,-1,895,904,0,0
-322,120,0,0,0,0,0,0,0,0,0,-1,902,904,0,0
-315,120,0,0,0,0,0,0,0,0,0,-1,909,904,0,0
-308,120,0,0,0,0,0,0,0,0,0,-1,916,904,0,0
-301,120,0,0,0,0,0,0,0,0,0,-1,923,904,0,0
-294,120,0,0,0,0,0,0,0,0,0,-1,930,904,0,0
-287,120,0,0,0,0,0,0,0,0,0,-1,937,904,0,0
-280,120,0,0,0,0,0,0,0,0,0,-1,944,904,0,0
-273,120,0,0,0,0,0,0,0,0,0,-1,951,904,0,0
-266,120,0,0,0,0,0,0,0,0,0,-1,958,904,0,0
-259,120,0,0,0,0,0,0,0,0,0,-1,965,904,0,0
-252,120,0,0,0,0,0,0,0,0,0,-1,972,904,0,0
-245,120,0,0,0,0,0,0,0,0,0,-1,979,904,0,0
-238,120,0,0,0,0,0,0,0,0,0,-1,986,904,0,0
-231,120,0,0,0,0,0,0,0,0,0,-1,993,904,0,0
-224,120,0,0,0,0,0,0,0,0,0,-1,1000,904,0,0
-217,120,0,0,0,0,0,0,0,0,0,-1,1007,904,0,0
-210,120,0,0,0,0,0,0,0,0,0,-1,1014,904,0,0
-203,120,0,0,0,0,0,0,0,0,0,-1,1021,904,0,0
-196,120,0,0,0,0,0,0,0,0,0,-1,1028,904,0,0
-189,120,0,0,0,0,0,0,0,0,0,-1,1035,904,0,0
-182,120,0,0,0,0,0,0,0,0,0,-1,1042,904,0,0
-175,120,0,0,0,0,0,0,0,0,0,-1,1049,904,0,0
-168,120,0,0,0,0,0,0,0,0,0,-1,1056,904,0,0
-161,120,0,0,0,0,0,0,0,0,0,-1,1063,904,0,0
-154,120,0,0,0,0,0,0,0,0,0,-1,1070,904,0,0
-147,120,0,0,0,0,0,0,0,0,0,-1,1077,904,0,0
-140,120,0,0,0,0,0,0,0,0,0,-1,1084,904,0,0
-133,120,0,0,0,0,0,0,0,0,0,-1,1091,904,0,0
-126,120,0,0,0,0,0,0,0,0,0,-1,1098,904,0,0
-119,120,0,0,0,0,0,0,0,0,0,-1,1105,904,0,0
-112,120,0,0,0,0,0,0,0,0,0,-1,1112,904,0,0
-105,120,0,0,0,0,0,0,0,0,0,-1,1119,904,0,0
-98,120,0,0,0,0,0,0,0,0,0,-1,1126,904,0,0
-91,120,0,0,0,0,0,0,0,0,0,-1,1133,904,0,0
-84,120,0,0,0,0,0,0,0,0,0,-1,1140,904,0,0
-77,120,0,0,0,0,0,0,0,0,0,-1,1147,904,0,0
-70,120,0,0,0,0,0,0,0,0,0,-1,1154,904,0,0
-63,120,0,0,0,0,0,0,0,0,0,-1,1161,904,0,0
-56,120,0,0,0,0,0,0,0,0,0,-1,1168,904,0,0
-49,120,0,0,0,0,0,0,0,0,0,-1,1175,904,0,0
-42,120,0,0,0,0,0,0,0,0,0,-1,1182,904,0,0
-35,120,0,0,0,0,0,0,0,0,0,-1,1189,904,0,0
-28,120,0,0,0,0,0,0,0,0,0,-1,1196,904,0,0
-21,120,0,0,0,0,0,0,0,0,0,-1,1203,904,0,0
-14,120,0,0,0,0,0,0,0,0,0,-1,1210,904,0,0
-7,120,0,0,0,0,0,0,0,0,0,-1,1217,904,0,0
0,120,0,0,0,0,0,0,0,0,0,-1,1224,904,0,0
7,120,0,0,0,0,0,0,0,0,0,-1,1231,904,0,0
14,120,0,0,0,0,0,0,0,0,0,-1,1238,904,0,0
21,120,0,0,0,0,0,0,0,0,0,-1,1245,904,0,0
28,120,0,0,0,0,0,0,0,0,0,-1,1252,904,0,0
35,120,0,0,0,0,0,0,0,0,0,-1,1259,904,0,0
42,120,0,0,0,0,0,0,0,0,0,-1,1266,904,0,0
49,120,0,0,0,0,0,0,0,0,0,-1,1273,904,0,0
56,120,0,0,0,0,0,0,0,0,0,-1,1280,904,0,0
63,120,0,0,0,0,0,0,0,0,0,-1,1287,904,0,0
70,120,0,0,0,0,0,0,0,0,0,-1,1294,904,0,0
77,120,0,0,0,0,0,0,0,0,0,-1,1301,904,0,0
84,120,0,0,0,0,0,0,0,0,0,-1,1308,904,0,0
91,120,0,0,0,0,0,0,0,0,0,-1,1315,904,0,0
98,120,0,0,0,0,0,0,0,0,0,-1,1322,904,0,0
105,120,0,0,0,0,0,0,0,0,0,-1,1329,904,0,0
112,120,0,0,0,0,0,0,0,0,0,-1,1336,904,0,0
119,120,0,0,0,0,0,0,0,0,0,-1,1343,904,0,0
126,120,0,0,0,0,0,0,0,0,0,-1,1350,904,0,0
133,120,0,0,0,0,0,0,0,0,0,-1,1357,904,0,0
140,120,0,0,0,0,0,0,0,0,0,-1,1364,904,0,0
147,120,0,0,0,0,0,0,0,0,0,-1,1371,904,0,0
154,120,0,0,0,0,0,0,0,0,0,-1,1378,904,0,0
161,120,0,0,0,0,0,0,0,0,0,-1,1385,904,0,0
168,120,0,0,0,0,0,0,0,0,0,-1,1392,904,0,0
175,120,0,0,0,0,0,0,0,0,0,-1,1399,904,0,0
182,120,0,0,0,0,0,0,0,0,0,-1,1406,904,0,0
189,120,0,0,0,0,0,0,0,0,0,-1,1413,904,0,0
196,120,0,0,0,0,0,0,0,0,0,-1,1420,904,0,0
203,120,0,0,0,0,0,0,0,0,0,-1,1427,904,0,0
210,120,0,0,0,0,0,0,0,0,0,-1,1434,904,0,0
217,120,0,0,0,0,0,0,0,0,0,-1,1441,904,0,0
224,120,0,0,0,0,0,0,0,0,0,-1,1448,904,0,0
231,120,0,0,0,0,0,0,0,0,0,-1,1455,904,0,0
238,120,0,0,0,0,0,0,0,0,0,-1,1462,904,0,0
245,120,0,0,0,0,0,0,0,0,0,-1,1469,904,0,0
252,120,0,0,0,0,0,0,0,0,0,-1,1476,904,0,0
259,120,0,0,0,0,0,0,0,0,0,-1,1483,904,0,0
266,120,0,0,0,0,0,0,0,0,0,-1,1490,904,0,0
273,120,0,0,0,0,0,0,0,0,0,-1,1497,904,0,0
280,120,0,0,0,0,0,0,0,0,0,-1,1504,904,0,0
287,120,0,0,0,0,0,0,0,0,0,-1,1511,904,0,0
294,120,0,0,0,0,0,0,0,0,0,-1,1518,904,0,0
301,120,0,0,0,0,0,0,0,0,0,-1,1525,904,0,0
308,120,0,0,0,0,0,0,0,0,0,-1,1532,904,0,0
315,120,0,0,0,0,0,0,0,0,0,-1,1539,904,0,0
322,120,0,0,0,0,0,0,0,0,0,-1,1546,904,0,0
329,120,0,0,0,0,0,0,0,0,0,-1,1553,904,0,0
336,120,0,0,0,0,0,0,0,0,0,-1,1560,904,0,0
343,120,0,0,0,0,0,0,0,0,0,-1,1567,904,0,0
350,120,0,0,0,0,0,0,0,0,0,-1,1574,904,0,0
357,120,0,0,0,0,0,0,0,0,0,-1,1581,904,0,0
364,120,0,0,0,0,0,0,0,0,0,-1,1588,904,0,0
371,120,0,0,0,0,0,0,0,0,0,-1,1595,904,0,0
378,120,0,0,0,0,0,0,0,0,0,-1,1602,904,0,0
385,120,0,0,0,0,0,0,0,0,0,-1,1609,904,0,0
392,120,0,0,0,0,0,0,0,0,0,-1,1616,904,0,0
399,120,0,0,0,0,0,0,0,0,0,-1,1623,904,0,0
406,120,0,0,0,0,0,0,0,0,0,-1,1630,904,0,0
413,120,0,0,0,0,0,0,0,0,0,-1,1637,904,0,0
420,120,0,0,0,0,0,0,0,0,0,-1,1644,904,0,0
427,120,0,0,0,0,0,0,0,0,0,-1,1651,904,0,0
434,120,0,0,0,0,0,0,0,0,0,-1,1658,904,0,0
441,120,0,0,0,0,0,0,0,0,0,-1,1665,904,0,0
448,120,0,0,0,0,0,0,0,0,0,-1,1672,904,0,0
455,120,0,0,0,0,0,0,0,0,0,-1,1679,904,0,0
462,120,0,0,0,0,0,0,0,0,0,-1,1686,904,0,0
469,120,0,0,0,0,0,0,0,0,0,-1,1693,904,0,0
476,120,0,0,0,0,0,0,0,0,0,-1,1700,904,0,0
483,120,0,0,0,0,0,0,0,0,0,-1,1707,904,0,0
490,120,0,0,0,0,0,0,0,0,0,-1,1714,904,0,0
497,120,0,0,0,0,0,0,0,0,0,-1,1721,904,0,0
504,120,0,0,0,0,0,0,0,0,0,-1,1728,904,0,0
511,120,0,0,0,0,0,0,0,0,0,-1,1735,904,0,0
518,120,0,0,0,0,0,0,0,0,0,-1,1742,904,0,0
525,120,0,0,0,0,0,0,0,0,0,-1,1749,904,0,0
532,120,0,0,0,0,0,0,0,0,0,-1,1756,904,0,0
539,120,0,0,0,0,0,0,0,0,0,-1,1763,904,0,0
546,120,0,0,0,0,0,0,0,0,0,-1,1770,904,0,0
553,120,0,0,0,0,0,0,0,0,0,-1,1777,904,0,0
560,120,0,0,0,0,0,0,0,0,0,-1,1784,904,0,0
567,120,0,0,0,0,0,0,0,0,0,-1,1791,904,0,0
574,120,0,0,0,0,0,0,0,0,0,-1,1798,904,0,0
581,120,0,0,0,0,0,0,0,0,0,-1,1805,904,0,0
588,120,0,0,0,0,0,0,0,0,0,-1,1812,904,0,0
595,120,0,0,0,0,0,0,0,0,0,-1,1819,904,0,0
602,120,0,0,0,0,0,0,0,0,0,-1,1826,904,0,0
609,120,0,0,0,0,0,0,0,0,0,-1,1833,904,0,0
616,120,0,0,0,0,0,0,0,0,0,-1,1840,904,0,0
623,120,0,0,0,0,0,0,0,0,0,-1,1847,904,0,0
630,120,9.604,1.35553,-0.000150645,0.00128629,-0.000860355,0.00168872,-0.000553073,-1.13328,0.00134852,0.0396484,1854,904,9.60399,-1.3555
637,120,9.72437,1.50671,-0.000251587,0.00066791,-0.000660939,0.00101328,-0.000596954,-1.08928,0.000939967,0.0423927,1861,904,9.72438,-1.50671
644,120,9.71362,1.32007,-0.000860248,-2.50235e-05,-0.000612386,0.00029859,-0.00118386,-1.08465,0.000905336,0.0429411,1868,904,9.71357,-1.32007
651,120,9.62561,1.33246,-0.00215926,-0.000499822,-0.000886146,-0.000115585,-0.00254349,-1.16166,0.00165848,0.0458093,1875,904,9.6256,-1.33247
658,120,9.61108,1.36334,-0.00383507,-0.000806362,-0.0012215,-0.000375121,-0.00426631,-1.23141,0.00272777,0.0441847,1882,904,9.61114,-1.36332
665,120,9.5968,1.48096,-0.00535838,-0.00097925,-0.0015184,-0.000504283,-0.00583334,-1.26763,0.00373218,0.0381977,1889,904,9.59676,-1.48093
672,120,9.61768,1.33405,-0.00661326,-0.00102477,-0.00171997,-0.000537846,-0.00710019,-1.29491,0.00456475,0.0369512,1896,904,9.61762,-1.33406
679,120,9.60071,1.20251,-0.00757865,-0.00100625,-0.00186291,-0.000514941,-0.00806995,-1.31294,0.0052168,0.0336398,1903,904,9.60076,-1.20251
686,120,9.61426,1.2619,-0.00826828,-0.000954953,-0.00203336,-0.000427632,-0.0087956,-1.31705,0.00572651,0.0199254,1910,904,9.61422,-1.26189
693,120,9.40222,1.27795,-0.0085056,-0.00081578,-0.00193544,-0.000356127,-0.00896525,-1.33762,0.00586173,0.0320001,1917,904,9.40223,-1.27795
700,120,8.9696,1.27826,-0.00842028,-0.000662214,-0.00180851,-0.000261339,-0.00882115,-1.35266,0.00579562,0.0203535,1924,904,8.96966,-1.27824
707,120,8.79028,1.34607,-0.00795463,-0.000440908,-0.00172937,-6.19828e-05,-0.00833355,-1.35509,0.00553516,0.0180854,1931,904,8.79027,-1.34609
714,120,8.84204,1.41608,-0.00704402,-0.000281887,-0.00157466,6.68152e-05,-0.00739273,-1.35287,0.00495091,0.0157634,1938,904,8.84198,-1.41609
721,120,8.85352,1.46387,-0.00579037,-1.02565e-06,-0.00148538,0.000357834,-0.00614923,-1.33374,0.00422382,0.0130529,1945,904,8.85348,-1.46389
728,120,8.8479,1.52618,-0.00417777,0.000175776,-0.00141094,0.000593052,-0.00459504,-1.28325,0.00327897,0.009316,1952,904,8.84788,-1.52617
735,120,8.82056,1.58319,-0.00188243,0.00029884,-0.00144737,0.00102048,-0.00260408,-1.10828,0.00215819,0.0120715,1959,904,8.82056,-1.58319
742,120,8.80786,1.63458,0.000860965,0.000590946,-0.00159824,0.00232989,-0.000877975,-0.743261,0.00191425,0.0123639,1966,904,8.80783,-1.63461
749,120,8.81323,1.67834,0.00369072,0.000912412,-0.00129514,0.00420081,0.000402322,-0.375194,0.00267653,0.00979249,1973,904,8.81322,-1.67833
756,120,8.80688,1.73218,0.0066972,0.00124325,-0.0014033,0.00703709,0.000903362,-0.237629,0.00442114,0.0116618,1980,904,8.80688,-1.73218
763,120,8.78906,1.77179,0.00985253,0.00167229,-0.00145925,0.010105,0.00141977,-0.171349,0.00631685,0.0196784,1987,904,8.78901,-1.7718
770,120,8.80298,1.69714,0.0134801,0.00219939,-0.00126865,0.013621,0.00205847,-0.110621,0.00847821,0.0398682,1994,904,8.80303,-1.69712
777,120,8.84497,1.60327,0,0,0,0,0,0,0,-1,2001,904,8.845,-1.60328
784,120,9.23499,1.83447,0.0231558,0.00363447,0.000658574,0.023178,0.00361228,0.0336851,0.0143997,0.0490303,2008,904,9.23504,-1.83447
791,120,9.6864,2.0213,0.0291348,0.00462002,0.00293308,0.0294808,0.00427397,0.117437,0.0183955,0.0418944,2015,904,9.68644,-2.02133
798,120,9.96851,2.17993,0.0358284,0.00589918,0.00671294,0.0372651,0.00446248,0.210839,0.0234976,0.0447677,2022,904,9.96846,-2.17991
805,120,0,0,0,0,0,0,0,0,0,-1,2029,904,0,0
812,120,0,0,0,0,0,0,0,0,0,-1,2036,904,0,0
-700,113,0,0,0,0,0,0,0,0,0,-1,524,911,0,0
-693,113,0,0,0,0,0,0,0,0,0,-1,531,911,0,0
-686,113,0,0,0,0,0,0,0,0,0,-1,538,911,0,0
-679,113,-4.46655,5.48297,0,0,0,0,0,0,0,-1,545,911,-4.46657,-5.48299
-672,113,-4.77405,5.66376,0,0,0,0,0,0,0,-1,552,911,-4.77404,-5.66374
-665,113,-4.51593,6.58154,0,0,0,0,0,0,0,-1,559,911,-4.51596,-6.58153
-658,113,-4.81879,-0.485229,0.0423483,-0.0426187,0.0108733,0.0437177,-0.0439881,0.125281,0.050637,0.0458026,566,911,-4.8188,0.485226
-651,113,-4.8537,-0.0856934,0.0339617,-0.0301547,0.00971778,0.0354022,-0.0315952,0.147163,0.0387018,0.0458971,573,911,-4.85368,0.0857159
-644,113,-4.19189,0.512329,0.02619,-0.0203802,0.00842146,0.0276661,-0.0218563,0.173515,0.0286573,0.0426429,580,911,-4.19192,-0.512323
-637,113,-3.92908,0.943848,0.0193528,-0.0130351,0.00706616,0.0208274,-0.0145096,0.20572,0.0205102,0.0325753,587,911,-3.92908,-0.943838
-630,113,-3.81049,0.992126,0.0141292,-0.00689265,0.00626968,0.0158571,-0.00862053,0.268918,0.0143366,0.0145155,594,911,-3.8105,-0.99214
-623,113,-3.81744,0.940857,0.00928583,-0.00355842,0.00449654,0.0107035,-0.0049761,0.305418,0.00925175,0.00996016,601,911,-3.81747,-0.940841
-616,113,-3.82007,0.882019,0.00408836,-0.000774258,0.00306543,0.00556961,-0.00225551,0.450126,0.00465093,0.00952611,608,911,-3.82005,-0.882041
-609,113,-3.82574,0.853271,0.000246615,0.000606736,0.00305163,0.00348362,-0.00263027,0.814866,0.00354129,0.0106186,615,911,-3.82577,-0.853247
-602,113,-3.84216,0.817505,-0.00198715,0.000363151,0.00292675,0.00234187,-0.00396587,0.976307,0.00368179,0.0136671,622,911,-3.84216,-0.817481
-595,113,-3.83905,0.788635,-0.00390177,-2.06405e-05,0.00235393,0.0010895,-0.0050119,1.13012,0.00375746,0.0166666,629,911,-3.83904,-0.788616
-588,113,-3.83868,0.731873,-0.00525405,-0.000534737,0.00187907,0.000122041,-0.00591083,1.23455,0.00398185,0.0166806,636,911,-3.83871,-0.731898
-581,113,-3.84467,0.686829,-0.00616749,-0.00090935,0.00196803,-0.000254342,-0.00682249,1.2495,0.00446596,0.0175882,643,911,-3.84465,-0.686857
-574,113,-3.79779,0.616333,-0.00683979,-0.000930481,0.00216378,-0.000222906,-0.00754737,1.25475,0.00495895,0.0165258,650,911,-3.79781,-0.61636
-567,113,-3.98633,0.629639,-0.00711327,-0.000700871,0.00219141,-2.35147e-05,-0.00779063,1.27102,0.00518593,0.0300013,657,911,-3.98634,-0.62964
-560,113,-4.41498,0.647034,-0.00707499,-0.000443826,0.00202552,0.000125926,-0.00764475,1.29659,0.00513899,0.0439217,664,911,-4.41495,-0.647033
-553,113,-4.43103,0.756958,-0.0066774,0.000147689,0.00181547,0.000600554,-0.00713026,1.32634,0.00496581,0.0372332,671,911,-4.43105,-0.756933
-546,113,-4.40637,0.846924,-0.00584034,0.000896704,0.00137665,0.00116715,-0.00611079,1.37681,0.0045135,0.0351429,678,911,-4.4064,-0.846934
-539,113,-4.28522,0.752991,-0.0044511,0.00190982,0.000720791,0.00199048,-0.00453176,1.45936,0.00385972,0.0358825,685,911,-4.2852,-0.752989
-532,113,-4.16736,0.619446,-0.00252148,0.00320477,-0.000176743,0.00321022,-0.00252693,-1.53997,0.00332017,0.0365057,692,911,-4.16737,-0.619435
-525,113,-4.33704,0.68335,-5.63033e-05,0.00480382,-0.00133847,0.00514806,-0.000400536,-1.31907,0.00357304,0.0358903,699,911,-4.33706,-0.683356
-518,113,-4.39508,0.741821,0.00273637,0.00671366,-0.00270241,0.00808026,0.00136976,-1.1026,0.00499328,0.0400681,706,911,-4.39507,-0.741823
-511,113,-4.31403,0.777832,0.00462661,0.00890054,-0.00392547,0.011233,0.00229413,-1.03466,0.00685318,0.0427461,713,911,-4.31403,-0.777828
-504,113,0,0,0,0,0,0,0,0,0,-1,720,911,0,0
-497,113,0,0,0,0,0,0,0,0,0,-1,727,911,0,0
-490,113,0,0,0,0,0,0,0,0,0,-1,734,911,0,0
-483,113,0,0,0,0,0,0,0,0,0,-1,741,911,0,0
-476,113,0,0,0,0,0,0,0,0,0,-1,748,911,0,0
-469,113,0,0,0,0,0,0,0,0,0,-1,755,911,0,0
-462,113,0,0,0,0,0,0,0,0,0,-1,762,911,0,0
-455,113,0,0,0,0,0,0,0,0,0,-1,769,911,0,0
-448,113,0,0,0,0,0,0,0,0,0,-1,776,911,0,0
-441,113,0,0,0,0,0,0,0,0,0,-1,783,911,0,0
-434,113,0,0,0,0,0,0,0,0,0,-1,790,911,0,0
-427,113,0,0,0,0,0,0,0,0,0,-1,797,911,0,0
-420,113,0,0,0,0,0,0,0,0,0,-1,804,911,0,0
-413,113,0,0,0,0,0,0,0,0,0,-1,811,911,0,0
-406,113,0,0,0,0,0,0,0,0,0,-1,818,911,0,0
-399,113,0,0,0,0,0,0,0,0,0,-1,825,911,0,0
-392,113,0,0,0,0,0,0,0,0,0,-1,832,911,0,0
-385,113,0,0,0,0,0,0,0,0,0,-1,839,911,0,0
-378,113,0,0,0,0,0,0,0,0,0,-1,846,911,0,0
-371,113,0,0,0,0,0,0,0,0,0,-1,853,911,0,0
-364,113,0,0,0,0,0,0,0,0,0,-1,860,911,0,0
-357,113,0,0,0,0,0,0,0,0,0,-1,867,911,0,0
-350,113,0,0,0,0,0,0,0,0,0,-1,874,911,0,0
-343,113,0,0,0,0,0,0,0,0,0,-1,881,911,0,0
-336,113,0,0,0,0,0,0,0,0,0,-1,888,911,0,0
-329,113,0,0,0,0,0,0,0,0,0,-1,895,911,0,0
-322,113,0,0,0,0,0,0,0,0,0,-1,902,911,0,0
-315,113,0,0,0,0,0,0,0,0,0,-1,909,911,0,0
-308,113,0,0,0,0,0,0,0,0,0,-1,916,911,0,0
-301,113,0,0,0,0,0,0,0,0,0,-1,923,911,0,0
-294,113,0,0,0,0,0,0,0,0,0,-1,930,911,0,0
-287,113,0,0,0,0,0,0,0,0,0,-1,937,911,0,0
-280,113,0,0,0,0,0,0,0,0,0,-1,944,911,0,0
-273,113,0,0,0,0,0,0,0,0,0,-1,951,911,0,0
-266,113,0,0,0,0,0,0,0,0,0,-1,958,911,0,0
-259,113,0,0,0,0,0,0,0,0,0,-1,965,911,0,0
-252,113,0,0,0,0,0,0,0,0,0,-1,972,911,0,0
-245,113,0,0,0,0,0,0,0,0,0,-1,979,911,0,0
-238,113,0,0,0,0,0,0,0,0,0,-1,986,911,0,0
-231,113,0,0,0,0,0,0,0,0,0,-1,993,911,0,0
-224,113,0,0,0,0,0,0,0,0,0,-1,1000,911,0,0
-217,113,0,0,0,0,0,0,0,0,0,-1,1007,911,0,0
-210,113,0,0,0,0,0,0,0,0,0,-1,1014,911,0,0
-203,113,0,0,0,0,0,0,0,0,0,-1,1021,911,0,0
-196,113,0,0,0,0,0,0,0,0,0,-1,1028,911,0,0
-189,113,0,0,0,0,0,0,0,0,0,-1,1035,911,0,0
-182,113,0,0,0,0,0,0,0,0,0,-1,1042,911,0,0
-175,113,0,0,0,0,0,0,0,0,0,-1,1049,911,0,0
-168,113,0,0,0,0,0,0,0,0,0,-1,1056,911,0,0
-161,113,0,0,0,0,0,0,0,0,0,-1,1063,911,0,0
-154,113,0,0,0,0,0,0,0,0,0,-1,1070,911,0,0
-147,113,0,0,0,0,0,0,0,0,0,-1,1077,911,0,0
-140,113,0,0,0,0,0,0,0,0,0,-1,1084,911,0,0
-133,113,0,0,0,0,0,0,0,0,0,-1,1091,911,0,0
-126,113,0,0,0,0,0,0,0,0,0,-1,1098,911,0,0
-119,113,0,0,0,0,0,0,0,0,0,-1,1105,911,0,0
-112,113,0,0,0,0,0,0,0,0,0,-1,1112,911,0,0
-105,113,0,0,0,0,0,0,0,0,0,-1,1119,911,0,0
-98,113,0,0,0,0,0,0,0,0,0,-1,1126,911,0,0
-91,113,0,0,0,0,0,0,0,0,0,-1,1133,911,0,0
-84,113,0,0,0,0,0,0,0,0,0,-1,1140,911,0,0
-77,113,0,0,0,0,0,0,0,0,0,-1,1147,911,0,0
-70,113,0,0,0,0,0,0,0,0,0,-1,1154,911,0,0
-63,113,0,0,0,0,0,0,0,0,0,-1,1161,911,0,0
-56,113,0,0,0,0,0,0,0,0,0,-1,1168,911,0,0
-49,113,0,0,0,0,0,0,0,0,0,-1,1175,911,0,0
-42,113,0,0,0,0,0,0,0,0,0,-1,1182,911,0,0
-35,113,0,0,0,0,0,0,0,0,0,-1,1189,911,0,0
-28,113,0,0,0,0,0,0,0,0,0,-1,1196,911,0,0
-21,113,0,0,0,0,0,0,0,0,0,-1,1203,911,0,0
-14,113,0,0,0,0,0,0,0,0,0,-1,1210,911,0,0
-7,113,0,0,0,0,0,0,0,0,0,-1,1217,911,0,0
0,113,0,0,0,0,0,0,0,0,0,-1,1224,911,0,0
7,113,0,0,0,0,0,0,0,0,0,-1,1231,911,0,0
14,113,0,0,0,0,0,0,0,0,0,-1,1238,911,0,0
21,113,0,0,0,0,0,0,0,0,0,-1,1245,911,0,0
28,113,0,0,0,0,0,0,0,0,0,-1,1252,911,0,0
35,113,0,0,0,0,0,0,0,0,0,-1,1259,911,0,0
42,113,0,0,0,0,0,0,0,0,0,-1,1266,911,0,0
49,113,0,0,0,0,0,0,0,0,0,-1,1273,911,0,0
56,113,0,0,0,0,0,0,0,0,0,-1,1280,911,0,0
63,113,0,0,0,0,0,0,0,0,0,-1,1287,911,0,0
70,113,0,0,0,0,0,0,0,0,0,-1,1294,911,0,0
77,113,0,0,0,0,0,0,0,0,0,-1,1301,911,0,0
84,113,0,0,0,0,0,0,0,0,0,-1,1308,911,0,0
91,113,0,0,0,0,0,0,0,0,0,-1,1315,911,0,0
98,113,0,0,0,0,0,0,0,0,0,-1,1322,911,0,0
105,113,0,0,0,0,0,0,0,0,0,-1,1329,911,0,0
112,113,0,0,0,0,0,0,0,0,0,-1,1336,911,0,0
119,113,0,0,0,0,0,0,0,0,0,-1,1343,911,0,0
126,113,0,0,0,0,0,0,0,0,0,-1,1350,911,0,0
133,113,0,0,0,0,0,0,0,0,0,-1,1357,911,0,0
140,113,0,0,0,0,0,0,0,0,0,-1,1364,911,0,0
147,113,0,0,0,0,0,0,0,0,0,-1,1371,911,0,0
154,113,0,0,0,0,0,0,0,0,0,-1,1378,911,0,0
161,113,0,0,0,0,0,0,0,0,0,-1,1385,911,0,0
168,113,0,0,0,0,0,0,0,0,0,-1,1392,911,0,0
175,113,0,0,0,0,0,0,0,0,0,-1,1399,911,0,0
182,113,0,0,0,0,0,0,0,0,0,-1,1406,911,0,0
189,113,0,0,0,0,0,0,0,0,0,-1,1413,911,0,0
196,113,0,0,0,0,0,0,0,0,0,-1,1420,911,0,0
203,113,0,0,0,0,0,0,0,0,0,-1,1427,911,0,0
210,113,0,0,0,0,0,0,0,0,0,-1,1434,911,0,0
217,113,0,0,0,0,0,0,0,0,0,-1,1441,911,0,0
224,113,0,0,0,0,0,0,0,0,0,-1,1448,911,0,0
231,113,0,0,0,0,0,0,0,0,0,-1,1455,911,0,0
238,113,0,0,0,0,0,0,0,0,0,-1,1462,911,0,0
245,113,0,0,0,0,0,0,0,0,0,-1,1469,911,0,0
252,113,0,0,0,0,0,0,0,0,0,-1,1476,911,0,0
259,113,0,0,0,0,0,0,0,0,0,-1,1483,911,0,0
266,113,0,0,0,0,0,0,0,0,0,-1,1490,911,0,0
273,113,0,0,0,0,0,0,0,0,0,-1,1497,911,0,0
280,113,0,0,0,0,0,0,0,0,0,-1,1504,911,0,0
287,113,0,0,0,0,0,0,0,0,0,-1,1511,911,0,0
294,113,0,0,0,0,0,0,0,0,0,-1,1518,911,0,0
301,113,0,0,0,0,0,0,0,0,0,-1,1525,911,0,0
308,113,0,0,0,0,0,0,0,0,0,-1,1532,911,0,0
315,113,0,0,0,0,0,0,0,0,0,-1,1539,911,0,0
322,113,0,0,0,0,0,0,0,0,0,-1,1546,911,0,0
329,113,0,0,0,0,0,0,0,0,0,-1,1553,911,0,0
336,113,0,0,0,0,0,0,0,0,0,-1,1560,911,0,0
343,113,0,0,0,0,0,0,0,0,0,-1,1567,911,0,0
350,113,0,0,0,0,0,0,0,0,0,-1,1574,911,0,0
357,113,0,0,0,0,0,0,0,0,0,-1,1581,911,0,0
364,113,0,0,0,0,0,0,0,0,0,-1,1588,911,0,0
371,113,0,0,0,0,0,0,0,0,0,-1,1595,911,0,0
378,113,0,0,0,0,0,0,0,0,0,-1,1602,911,0,0
385,113,0,0,0,0,0,0,0,0,0,-1,1609,911,0,0
392,113,0,0,0,0,0,0,0,0,0,-1,1616,911,0,0
399,113,0,0,0,0,0,0,0,0,0,-1,1623,911,0,0
406,113,0,0,0,0,0,0,0,0,0,-1,1630,911,0,0
413,113,0,0,0,0,0,0,0,0,0,-1,1637,911,0,0
420,113,0,0,0,0,0,0,0,0,0,-1,1644,911,0,0
427,113,0,0,0,0,0,0,0,0,0,-1,1651,911,0,0
434,113,0,0,0,0,0,0,0,0,0,-1,1658,911,0,0
441,113,0,0,0,0,0,0,0,0,0,-1,1665,911,0,0
448,113,0,0,0,0,0,0,0,0,0,-1,1672,911,0,0
455,113,0,0,0,0,0,0,0,0,0,-1,1679,911,0,0
462,113,0,0,0,0,0,0,0,0,0,-1,1686,911,0,0
469,113,0,0,0,0,0,0,0,0,0,-1,1693,911,0,0
476,113,0,0,0,0,0,0,0,0,0,-1,1700,911,0,0
483,113,0,0,0,0,0,0,0,0,0,-1,1707,911,0,0
490,113,0,0,0,0,0,0,0,0,0,-1,1714,911,0,0
497,113,0,0,0,0,0,0,0,0,0,-1,1721,911,0,0
504,113,0,0,0,0,0,0,0,0,0,-1,1728,911,0,0
511,113,0,0,0,0,0,0,0,0,0,-1,1735,911,0,0
518,113,0,0,0,0,0,0,0,0,0,-1,1742,911,0,0
525,113,0,0,0,0,0,0,0,0,0,-1,1749,911,0,0
532,113,0,0,0,0,0,0,0,0,0,-1,1756,911,0,0
539,113,0,0,0,0,0,0,0,0,0,-1,1763,911,0,0
546,113,0,0,0,0,0,0,0,0,0,-1,1770,911,0,0
553,113,0,0,0,0,0,0,0,0,0,-1,1777,911,0,0
560,113,0,0,0,0,0,0,0,0,0,-1,1784,911,0,0
567,113,0,0,0,0,0,0,0,0,0,-1,1791,911,0,0
574,113,0,0,0,0,0,0,0,0,0,-1,1798,911,0,0
581,113,0,0,0,0,0,0,0,0,0,-1,1805,911,0,0
588,113,0,0,0,0,0,0,0,0,0,-1,1812,911,0,0
595,113,0,0,0,0,0,0,0,0,0,-1,1819,911,0,0
602,113,0,0,0,0,0,0,0,0,0,-1,1826,911,0,0
609,113,0,0,0,0,0,0,0,0,0,-1,1833,911,0,0
616,113,0,0,0,0,0,0,0,0,0,-1,1840,911,0,0
623,113,0,0,0,0,0,0,0,0,0,-1,1847,911,0,0
630,113,9.65784,1.45538,-0.000576099,0.00186968,-0.00114695,0.00232338,-0.0010298,-1.19411,0.0019834,0.038825,1854,911,9.65781,-1.45538
637,113,9.72644,1.58228,-0.000556148,0.00123366,-0.00074159,0.001501,-0.000823488,-1.2248,0.00136091,0.0400159,1861,911,9.72646,-1.58226
644,113,9.70483,1.65967,-0.00084289,0.00050831,-0.000511976,0.000680386,-0.00101497,-1.24656,0.000985145,0.0388039,1868,911,9.70488,-1.65964
651,113,9.73999,1.42035,-0.00184273,6.30392e-07,-0.000672748,0.000220039,-0.00206214,-1.25554,0.00145367,0.0439608,1875,911,9.73999,-1.42037
658,113,9.76587,1.29456,-0.00338927,-0.000341103,-0.000949421,-6.95721e-05,-0.0036608,-1.29224,0.00241767,0.0448546,1882,911,9.76589,-1.29455
665,113,9.67786,1.42926,-0.00490343,-0.000560024,-0.00122511,-0.000238298,-0.00522515,-1.31399,0.00340678,0.0369076,1889,911,9.67782,-1.42926
672,113,9.55701,1.44745,-0.00617843,-0.000657509,-0.00143097,-0.000308656,-0.00652729,-1.33167,0.00425237,0.0358988,1896,911,9.55702,-1.44744
679,113,9.54675,1.33087,-0.00720611,-0.000684084,-0.00158713,-0.000318366,-0.00757183,-1.34432,0.00494518,0.0290764,1903,911,9.54672,-1.33087
686,113,9.58044,1.29956,-0.00799205,-0.000682343,-0.00177732,-0.000273108,-0.00840129,-1.34449,0.00551208,0.0270811,1910,911,9.58038,-1.29957
693,113,9.65588,1.24164,-0.00831796,-0.000618704,-0.0016834,-0.000266731,-0.00866993,-1.36468,0.00569313,0.0349809,1917,911,9.65586,-1.24161
700,113,9.22961,1.3006,-0.00835111,-0.000534834,-0.00159402,-0.000222255,-0.00866369,-1.37716,0.00570315,0.034411,1924,911,9.22958,-1.3006
707,113,8.87329,1.34064,-0.00798998,-0.000379081,-0.00155476,-7.37258e-05,-0.00829533,-1.37686,0.00550581,0.0196603,1931,911,8.87326,-1.34062
714,113,8.89771,1.39551,-0.00714699,-0.000257999,-0.00144678,3.35088e-05,-0.0074385,-1.37197,0.00497021,0.0159675,1938,911,8.89769,-1.39552
721,113,8.89697,1.45575,-0.00594492,-1.61918e-05,-0.00141382,0.000303698,-0.00626481,-1.34828,0.00428137,0.0146644,1945,911,8.89694,-1.45577
728,113,8.89282,1.52521,-0.00441811,0.000123634,-0.00140985,0.000525688,-0.00482017,-1.29299,0.00340224,0.0143824,1952,911,8.89284,-1.52524
735,113,8.87512,1.57672,-0.00222016,0.000280143,-0.00149681,0.000980201,-0.00292022,-1.13332,0.00234292,0.014045,1959,911,8.8751,-1.57669
742,113,8.86609,1.62476,0.000430483,0.000624333,-0.00163321,0.00216349,-0.00110868,-0.815037,0.00192163,0.011488,1966,911,8.8661,-1.62476
749,113,8.87756,1.68567,0.00324455,0.00107589,-0.00133473,0.0038799,0.000440544,-0.444271,0.00245297,0.00858537,1973,911,8.87762,-1.68569
756,113,8.88599,1.73724,0.00629539,0.00156072,-0.00142463,0.00669099,0.00116511,-0.270866,0.00412748,0.0097607,1980,911,8.88603,-1.73725
763,113,8.86914,1.78772,0.00944879,0.00221748,-0.00142953,0.00972113,0.00194514,-0.188255,0.00593951,0.0185692,1987,911,8.8691,-1.78774
770,113,8.85547,1.82635,0.0129379,0.0030737,-0.00114604,0.0130693,0.0029423,-0.114157,0.00791649,0.0399705,1994,911,8.85546,-1.82633
777,113,8.88501,1.83472,0.0171396,0.00418466,-0.00035636,0.0171494,0.00417486,-0.0274798,0.0103266,0.0488988,2001,911,8.88503,-1.83474
784,113,9.08313,2.00629,0.0220633,0.00562778,0.00119482,0.0221497,0.00554138,0.0721918,0.0133096,0.0442019,2008,911,9.08307,-2.00631
791,113,9.50574,2.41235,0.0276536,0.00750524,0.00385536,0.0283661,0.00679272,0.182751,0.0171023,0.041148,2015,911,9.50576,-2.41236
798,113,9.8042,2.70825,0.033868,0.00999447,0.00818587,0.0364051,0.00745729,0.300556,0.0222057,0.0427567,2022,911,9.80421,-2.70824
805,113,0,0,0,0,0,0,0,0,0,-1,2029,911,0,0
812,113,0,0,0,0,0,0,0,0,0,-1,2036,911,0,0
-700,106,0,0,0,0,0,0,0,0,0,-1,524,918,0,0
-693,106,0,0,0,0,0,0,0,0,0,-1,531,918,0,0
-686,106,0,0,0,0,0,0,0,0,0,-1,538,918,0,0
-679,106,-4.58197,6.2655,0,0,0,0,0,0,0,-1,545,918,-4.58199,-6.2655
-672,106,-3.10962,-1.71588,0,0,0,0,0,0,0,-1,552,918,-3.10961,1.7159
-665,106,-3.90234,-0.995361,0,0,0,0,0,0,0,-1,559,918,-3.90235,0.995364
-658,106,-3.93091,-0.571655,0.0428277,-0.0428338,0.0117348,0.0444062,-0.0444123,0.133709,0.0512794,0.0454881,566,918,-3.9309,0.571673
-651,106,-4.0116,-0.120117,0.0345955,-0.0305388,0.0105576,0.0362641,-0.0322073,0.156744,0.0395551,0.0434576,573,918,-4.01161,0.120108
-644,106,-4.11243,0.568909,0.0268803,-0.0208357,0.00919096,0.0285895,-0.0225448,0.183857,0.0295911,0.042257,580,918,-4.11241,-0.568906
-637,106,-3.91827,0.994385,0.0200258,-0.0134999,0.00773813,0.0217257,-0.0151998,0.216239,0.0214296,0.0266473,587,918,-3.91829,-0.994373
-630,106,-3.86688,0.987488,0.014833,-0.00719435,0.00692986,0.0168318,-0.00919313,0.280809,0.0152397,0.0102737,594,918,-3.86688,-0.987486
-623,106,-3.84485,0.934387,0.00979194,-0.00376078,0.00504613,0.0114644,-0.00543323,0.320039,0.00996084,0.00861103,601,918,-3.84483,-0.934371
-616,106,-3.85046,0.876892,0.0043242,-0.000994906,0.00349705,0.00605812,-0.00272883,0.460301,0.00519311,0.00914499,608,918,-3.85048,-0.876903
-609,106,-3.86566,0.852173,0.00048649,0.000378301,0.00337658,0.00380941,-0.00294462,0.777389,0.00391008,0.00975509,615,918,-3.86569,-0.852191
-602,106,-3.87921,0.815308,-0.00179276,0.000165877,0.00301997,0.00236134,-0.00398823,0.942189,0.00370582,0.0110997,622,918,-3.8792,-0.815322
-595,106,-3.9115,0.773865,-0.00374657,-0.000177309,0.00233351,0.000975778,-0.00489966,1.11185,0.00363561,0.0147684,629,918,-3.91148,-0.773844
-588,106,-3.91028,0.721069,-0.00508079,-0.000600628,0.0018082,3.8102e-05,-0.00571952,1.23124,0.00382578,0.01483,636,918,-3.91025,-0.721079
-581,106,-3.86804,0.682373,-0.00594973,-0.000882271,0.00178937,-0.000314126,-0.00651788,1.26335,0.00424442,0.0130123,643,918,-3.86803,-0.682346
-574,106,-3.85229,0.634399,-0.00657344,-0.000821802,0.00188362,-0.000259836,-0.00713541,1.28086,0.00467274,0.015261,650,918,-3.85227,-0.634371
-567,106,-4.07788,0.71228,-0.00681806,-0.000536446,0.00184892,-3.26422e-05,-0.00732186,1.30477,0.0048704,0.025761,657,918,-4.07788,-0.71225
-560,106,-4.40936,0.822754,-0.00673813,-0.0002355,0.00163991,0.000154662,-0.0071283,1.33722,0.00480458,0.0319757,664,918,-4.40938,-0.822726
-553,106,-4.4212,0.820801,-0.00627041,0.000385027,0.00138852,0.000663097,-0.00654848,1.37315,0.00460264,0.0331476,671,918,-4.42123,-0.820815
-546,106,-4.37061,0.69574,-0.00533784,0.00120935,0.000950872,0.00134465,-0.00547314,1.42945,0.00416988,0.0362772,678,918,-4.37058,-0.695759
-539,106,-4.32782,0.628052,-0.00385935,0.00231007,0.000330525,0.00232773,-0.003877,1.51743,0.00361934,0.0395423,685,918,-4.32782,-0.628072
-532,106,-4.15765,0.522949,-0.00186762,0.00371665,-0.000475809,0.0037569,-0.00190787,-1.4864,0.00332813,0.0399192,692,918,-4.15765,-0.52298
-525,106,-4.27533,0.637817,0.000600424,0.00544625,-0.00146427,0.00585434,0.000192332,-1.29899,0.00384039,0.0382552,699,918,-4.27536,-0.637805
-518,106,-4.30225,0.585693,0.0031836,0.0075071,-0.0025221,0.00866712,0.00202359,-1.13971,0.00523557,0.039831,706,918,-4.30227,-0.585721
-511,106,0,0,0,0,0,0,0,0,0,-1,713,918,0,0
-504,106,0,0,0,0,0,0,0,0,0,-1,720,918,0,0
-497,106,0,0,0,0,0,0,0,0,0,-1,727,918,0,0
-490,106,0,0,0,0,0,0,0,0,0,-1,734,918,0,0
-483,106,0,0,0,0,0,0,0,0,0,-1,741,918,0,0
-476,106,0,0,0,0,0,0,0,0,0,-1,748,918,0,0
-469,106,0,0,0,0,0,0,0,0,0,-1,755,918,0,0
-462,106,0,0,0,0,0,0,0,0,0,-1,762,918,0,0
-455,106,0,0,0,0,0,0,0,0,0,-1,769,918,0,0
-448,106,0,0,0,0,0,0,0,0,0,-1,776,918,0,0
-441,106,0,0,0,0,0,0,0,0,0,-1,783,918,0,0
-434,106,0,0,0,0,0,0,0,0,0,-1,790,918,0,0
-427,106,0,0,0,0,0,0,0,0,0,-1,797,918,0,0
-420,106,0,0,0,0,0,0,0,0,0,-1,804,918,0,0
-413,106,0,0,0,0,0,0,0,0,0,-1,811,918,0,0
-406,106,0,0,0,0,0,0,0,0,0,-1,818,918,0,0
-399,106,0,0,0,0,0,0,0,0,0,-1,825,918,0,0
-392,106,0,0,0,0,0,0,0,0,0,-1,832,918,0,0
-385,106,0,0,0,0,0,0,0,0,0,-1,839,918,0,0
-378,106,0,0,0,0,0,0,0,0,0,-1,846,918,0,0
-371,106,0,0,0,0,0,0,0,0,0,-1,853,918,0,0
-364,106,0,0,0,0,0,0,0,0,0,-1,860,918,0,0
-357,106,0,0,0,0,0,0,0,0,0,-1,867,918,0,0
-350,106,0,0,0,0,0,0,0,0,0,-1,874,918,0,0
-343,106,0,0,0,0,0,0,0,0,0,-1,881,918,0,0
-336,106,0,0,0,0,0,0,0,0,0,-1,888,918,0,0
-329,106,0,0,0,0,0,0,0,0,0,-1,895,918,0,0
-322,106,0,0,0,0,0,0,0,0,0,-1,902,918,0,0
-315,106,0,0,0,0,0,0,0,0,0,-1,909,918,0,0
-308,106,0,0,0,0,0,0,0,0,0,-1,916,918,0,0
-301,106,0,0,0,0,0,0,0,0,0,-1,923,918,0,0
-294,106,0,0,0,0,0,0,0,0,0,-1,930,918,0,0
-287,106,0,0,0,0,0,0,0,0,0,-1,937,918,0,0
-280,106,0,0,0,0,0,0,0,0,0,-1,944,918,0,0
-273,106,0,0,0,0,0,0,0,0,0,-1,951,918,0,0
-266,106,0,0,0,0,0,0,0,0,0,-1,958,918,0,0
-259,106,0,0,0,0,0,0,0,0,0,-1,965,918,0,0
-252,106,0,0,0,0,0,0,0,0,0,-1,972,918,0,0
-245,106,0,0,0,0,0,0,0,0,0,-1,979,918,0,0
-238,106,0,0,0,0,0,0,0,0,0,-1,986,918,0,0
-231,106,0,0,0,0,0,0,0,0,0,-1,993,918,0,0
-224,106,0,0,0,0,0,0,0,0,0,-1,1000,918,0,0
-217,106,0,0,0,0,0,0,0,0,0,-1,1007,918,0,0
-210,106,0,0,0,0,0,0,0,0,0,-1,1014,918,0,0
-203,106,0,0,0,0,0,0,0,0,0,-1,1021,918,0,0
-196,106,0,0,0,0,0,0,0,0,0,-1,1028,918,0,0
-189,106,0,0,0,0,0,0,0,0,0,-1,1035,918,0,0
-182,106,0,0,0,0,0,0,0,0,0,-1,1042,918,0,0
-175,106,0,0,0,0,0,0,0,0,0,-1,1049,918,0,0
-168,106,0,0,0,0,0,0,0,0,0,-1,1056,918,0,0
-161,106,0,0,0,0,0,0,0,0,0,-1,1063,918,0,0
-154,106,0,0,0,0,0,0,0,0,0,-1,1070,918,0,0
-147,106,0,0,0,0,0,0,0,0,0,-1,1077,918,0,0
-140,106,0,0,0,0,0,0,0,0,0,-1,1084,918,0,0
-133,106,0,0,0,0,0,0,0,0,0,-1,1091,918,0,0
-126,106,0,0,0,0,0,0,0,0,0,-1,1098,918,0,0
-119,106,0,0,0,0,0,0,0,0,0,-1,1105,918,0,0
-112,106,0,0,0,0,0,0,0,0,0,-1,1112,918,0,0
-105,106,0,0,0,0,0,0,0,0,0,-1,1119,918,0,0
-98,106,0,0,0,0,0,0,0,0,0,-1,1126,918,0,0
-91,106,0,0,0,0,0,0,0,0,0,-1,1133,918,0,0
-84,106,0,0,0,0,0,0,0,0,0,-1,1140,918,0,0
-77,106,0,0,0,0,0,0,0,0,0,-1,1147,918,0,0
-70,106,0,0,0,0,0,0,0,0,0,-1,1154,918,0,0
-63,106,0,0,0,0,0,0,0,0,0,-1,1161,918,0,0
-56,106,0,0,0,0,0,0,0,0,0,-1,1168,918,0,0
-49,106,0,0,0,0,0,0,0,0,0,-1,1175,918,0,0
-42,106,0,0,0,0,0,0,0,0,0,-1,1182,918,0,0
-35,106,0,0,0,0,0,0,0,0,0,-1,1189,918,0,0
-28,106,0,0,0,0,0,0,0,0,0,-1,1196,918,0,0
-21,106,0,0,0,0,0,0,0,0,0,-1,1203,918,0,0
-14,106,0,0,0,0,0,0,0,0,0,-1,1210,918,0,0
-7,106,0,0,0,0,0,0,0,0,0,-1,1217,918,0,0
0,106,0,0,0,0,0,0,0,0,0,-1,1224,918,0,0
7,106,0,0,0,0,0,0,0,0,0,-1,1231,918,0,0
14,106,0,0,0,0,0,0,0,0,0,-1,1238,918,0,0
21,106,0,0,0,0,0,0,0,0,0,-1,1245,918,0,0
28,106,0,0,0,0,0,0,0,0,0,-1,1252,918,0,0
35,106,0,0,0,0,0,0,0,0,0,-1,1259,918,0,0
42,106,0,0,0,0,0,0,0,0,0,-1,1266,918,0,0
49,106,0,0,0,0,0,0,0,0,0,-1,1273,918,0,0
56,106,0,0,0,0,0,0,0,0,0,-1,1280,918,0,0
63,106,0,0,0,0,0,0,0,0,0,-1,1287,918,0,0
70,106,0,0,0,0,0,0,0,0,0,-1,1294,918,0,0
77,106,0,0,0,0,0,0,0,0,0,-1,1301,918,0,0
84,106,0,0,0,0,0,0,0,0,0,-1,1308,918,0,0
91,106,0,0,0,0,0,0,0,0,0,-1,1315,918,0,0
98,106,0,0,0,0,0,0,0,0,0,-1,1322,918,0,0
105,106,0,0,0,0,0,0,0,0,0,-1,1329,918,0,0
112,106,0,0,0,0,0,0,0,0,0,-1,1336,918,0,0
119,106,0,0,0,0,0,0,0,0,0,-1,1343,918,0,0
126,106,0,0,0,0,0,0,0,0,0,-1,1350,918,0,0
133,106,0,0,0,0,0,0,0,0,0,-1,1357,918,0,0
140,106,0,0,0,0,0,0,0,0,0,-1,1364,918,0,0
147,106,0,0,0,0,0,0,0,0,0,-1,1371,918,0,0
154,106,0,0,0,0,0,0,0,0,0,-1,1378,918,0,0
161,106,0,0,0,0,0,0,0,0,0,-1,1385,918,0,0
168,106,0,0,0,0,0,0,0,0,0,-1,1392,918,0,0
175,106,0,0,0,0,0,0,0,0,0,-1,1399,918,0,0
182,106,0,0,0,0,0,0,0,0,0,-1,1406,918,0,0
189,106,0,0,0,0,0,0,0,0,0,-1,1413,918,0,0
196,106,0,0,0,0,0,0,0,0,0,-1,1420,918,0,0
203,106,0,0,0,0,0,0,0,0,0,-1,1427,918,0,0
210,106,0,0,0,0,0,0,0,0,0,-1,1434,918,0,0
217,106,0,0,0,0,0,0,0,0,0,-1,1441,918,0,0
224,106,0,0,0,0,0,0,0,0,0,-1,1448,918,0,0
231,106,0,0,0,0,0,0,0,0,0,-1,1455,918,0,0
238,106,0,0,0,0,0,0,0,0,0,-1,1462,918,0,0
245,106,0,0,0,0,0,0,0,0,0,-1,1469,918,0,0
252,106,0,0,0,0,0,0,0,0,0,-1,1476,918,0,0
259,106,0,0,0,0,0,0,0,0,0,-1,1483,918,0,0
266,106,0,0,0,0,0,0,0,0,0,-1,1490,918,0,0
273,106,0,0,0,0,0,0,0,0,0,-1,1497,918,0,0
280,106,0,0,0,0,0,0,0,0,0,-1,1504,918,0,0
287,106,0,0,0,0,0,0,0,0,0,-1,1511,918,0,0
294,106,0,0,0,0,0,0,0,0,0,-1,1518,918,0,0
301,106,0,0,0,0,0,0,0,0,0,-1,1525,918,0,0
308,106,0,0,0,0,0,0,0,0,0,-1,1532,918,0,0
315,106,0,0,0,0,0,0,0,0,0,-1,1539,918,0,0
322,106,0,0,0,0,0,0,0,0,0,-1,1546,918,0,0
329,106,0,0,0,0,0,0,0,0,0,-1,1553,918,0,0
336,106,0,0,0,0,0,0,0,0,0,-1,1560,918,0,0
343,106,0,0,0,0,0,0,0,0,0,-1,1567,918,0,0
350,106,0,0,0,0,0,0,0,0,0,-1,1574,918,0,0
357,106,0,0,0,0,0,0,0,0,0,-1,1581,918,0,0
364,106,0,0,0,0,0,0,0,0,0,-1,1588,918,0,0
371,106,0,0,0,0,0,0,0,0,0,-1,1595,918,0,0
378,106,0,0,0,0,0,0,0,0,0,-1,1602,918,0,0
385,106,0,0,0,0,0,0,0,0,0,-1,1609,918,0,0
392,106,0,0,0,0,0,0,0,0,0,-1,1616,918,0,0
399,106,0,0,0,0,0,0,0,0,0,-1,1623,918,0,0
406,106,0,0,0,0,0,0,0,0,0,-1,1630,918,0,0
413,106,0,0,0,0,0,0,0,0,0,-1,1637,918,0,0
420,106,0,0,0,0,0,0,0,0,0,-1,1644,918,0,0
427,106,0,0,0,0,0,0,0,0,0,-1,1651,918,0,0
434,106,0,0,0,0,0,0,0,0,0,-1,1658,918,0,0
441,106,0,0,0,0,0,0,0,0,0,-1,1665,918,0,0
448,106,0,0,0,0,0,0,0,0,0,-1,1672,918,0,0
455,106,0,0,0,0,0,0,0,0,0,-1,1679,918,0,0
462,106,0,0,0,0,0,0,0,0,0,-1,1686,918,0,0
469,106,0,0,0,0,0,0,0,0,0,-1,1693,918,0,0
476,106,0,0,0,0,0,0,0,0,0,-1,1700,918,0,0
483,106,0,0,0,0,0,0,0,0,0,-1,1707,918,0,0
490,106,0,0,0,0,0,0,0,0,0,-1,1714,918,0,0
497,106,0,0,0,0,0,0,0,0,0,-1,1721,918,0,0
504,106,0,0,0,0,0,0,0,0,0,-1,1728,918,0,0
511,106,0,0,0,0,0,0,0,0,0,-1,1735,918,0,0
518,106,0,0,0,0,0,0,0,0,0,-1,1742,918,0,0
525,106,0,0,0,0,0,0,0,0,0,-1,1749,918,0,0
532,106,0,0,0,0,0,0,0,0,0,-1,1756,918,0,0
539,106,0,0,0,0,0,0,0,0,0,-1,1763,918,0,0
546,106,0,0,0,0,0,0,0,0,0,-1,1770,918,0,0
553,106,0,0,0,0,0,0,0,0,0,-1,1777,918,0,0
560,106,0,0,0,0,0,0,0,0,0,-1,1784,918,0,0
567,106,0,0,0,0,0,0,0,0,0,-1,1791,918,0,0
574,106,0,0,0,0,0,0,0,0,0,-1,1798,918,0,0
581,106,0,0,0,0,0,0,0,0,0,-1,1805,918,0,0
588,106,0,0,0,0,0,0,0,0,0,-1,1812,918,0,0
595,106,0,0,0,0,0,0,0,0,0,-1,1819,918,0,0
602,106,0,0,0,0,0,0,0,0,0,-1,1826,918,0,0
609,106,0,0,0,0,0,0,0,0,0,-1,1833,918,0,0
616,106,0,0,0,0,0,0,0,0,0,-1,1840,918,0,0
623,106,0,0,0,0,0,0,0,0,0,-1,1847,918,0,0
630,106,9.57898,1.3916,-0.00113351,0.00260621,-0.00151998,0.00314606,-0.00167336,-1.22952,0.00282547,0.039273,1854,918,9.57897,-1.39159
637,106,9.61548,1.53741,-0.000979065,0.0018853,-0.000909002,0.00214942,-0.00124318,-1.28803,0.00198187,0.0394205,1861,918,9.6155,-1.53744
644,106,9.6416,1.5473,-0.000971309,0.00109201,-0.000512731,0.0012124,-0.0010917,-1.34018,0.00133088,0.0369097,1868,918,9.64157,-1.54732
651,106,9.6228,1.55023,-0.00162611,0.000513288,-0.000544852,0.000644055,-0.00175688,-1.33525,0.00143495,0.0391974,1875,918,9.62281,-1.55026
658,106,9.6864,1.32684,-0.00297018,9.85492e-05,-0.000730193,0.000263436,-0.00313507,-1.34871,0.00218316,0.0411066,1882,918,9.68641,-1.32684
665,106,9.59119,1.34753,-0.00443184,-0.000199415,-0.000950937,4.42355e-06,-0.00463568,-1.35964,0.00309193,0.0390828,1889,918,9.5912,-1.34754
672,106,9.49194,1.59265,-0.00571077,-0.000379816,-0.00113637,-0.000147691,-0.00594289,-1.3693,0.00391363,0.0385287,1896,918,9.49197,-1.59264
679,106,9.54419,1.49274,-0.0067885,-0.000478535,-0.00128042,-0.000228612,-0.00703842,-1.37803,0.00461796,0.0311325,1903,918,9.54422,-1.49275
686,106,9.57385,1.34937,-0.00765478,-0.000537165,-0.0014606,-0.000249097,-0.00794285,-1.37607,0.00521418,0.0321894,1910,918,9.5739,-1.34935
693,106,9.66553,1.1192,-0.00804725,-0.00055159,-0.00135124,-0.000315441,-0.0082834,-1.39778,0.00542018,0.0270393,1917,918,9.66558,-1.11919
700,106,9.54968,1.14514,-0.00819092,-0.000536315,-0.00129937,-0.000321762,-0.00840548,-1.40715,0.00549953,0.0431722,1924,918,9.54973,-1.14514
707,106,8.99451,1.34827,-0.00795918,-0.000430343,-0.0013005,-0.00021203,-0.0081775,-1.40448,0.00538238,0.0258315,1931,918,8.99445,-1.34824
714,106,8.92395,1.40424,-0.00721043,-0.000310915,-0.00123741,-9.57025e-05,-0.00742564,-1.3986,0.00491883,0.0151045,1938,918,8.924,-1.40423
721,106,8.94885,1.45734,-0.00607405,-7.91792e-05,-0.0012575,0.000173912,-0.00632714,-1.37218,0.00427724,0.0143796,1945,918,8.94885,-1.45732
728,106,8.97156,1.52838,-0.00463476,6.42961e-05,-0.00132933,0.000414287,-0.00498475,-1.31336,0.00346952,0.0138473,1952,918,8.9715,-1.52839
735,106,8.95276,1.57538,-0.00254132,0.000320248,-0.00146584,0.000937837,-0.00315891,-1.17205,0.00247842,0.0131124,1959,918,8.9528,-1.57535
742,106,8.93054,1.61993,-7.27379e-06,0.000742598,-0.00161118,0.00202189,-0.00128657,-0.899718,0.0019258,0.0105772,1966,918,8.93059,-1.61994
749,106,8.93274,1.6723,0.00271596,0.00130365,-0.00133437,0.00351951,0.000500105,-0.542029,0.00219868,0.00860777,1973,918,8.93276,-1.6723
756,106,8.93738,1.71503,0.00571626,0.00191765,-0.00140919,0.00618195,0.00145197,-0.319165,0.00373266,0.00921186,1980,918,8.93744,-1.71502
763,106,8.93127,1.77423,0.00879842,0.00273451,-0.00137594,0.00909602,0.0024369,-0.213011,0.00543691,0.0163067,1987,918,8.93128,-1.77425
770,106,9.01746,1.71747,0.0120739,0.00378234,-0.00102548,0.0121988,0.0036574,-0.121244,0.0072287,0.0357618,1994,918,9.01742,-1.71748
777,106,9.19714,1.51624,0.0159106,0.00511516,-0.000138812,0.0159124,0.00511337,-0.0128555,0.00938048,0.0430277,2001,918,9.19716,-1.51621
784,106,9.28113,1.48578,0.020323,0.00680725,0.00155747,0.0205002,0.0066301,0.113256,0.0120793,0.0437546,2008,918,9.28108,-1.48578
791,106,9.43616,1.53778,0.0252095,0.00893861,0.00440485,0.0263254,0.00782267,0.248124,0.0156103,0.0453972,2015,918,9.43616,-1.53777
798,106,9.51025,2.04028,0.0304637,0.0116408,0.00894712,0.0340379,0.00806663,0.380055,0.0205381,0.0443666,2022,918,9.51026,-2.04028
805,106,0,0,0,0,0,0,0,0,0,-1,2029,918,0,0
812,106,0,0,0,0,0,0,0,0,0,-1,2036,918,0,0
-700,99,0,0,0,0,0,0,0,0,0,-1,524,925,0,0
-693,99,0,0,0,0,0,0,0,0,0,-1,531,925,0,0
-686,99,0,0,0,0,0,0,0,0,0,-1,538,925,0,0
-679,99,-2.86798,-1.62573,0.0601239,-0.0958478,0.0112323,0.0609286,-0.0966526,0.0715232,0.0917555,0.0465247,545,925,-2.86797,1.62572
-672,99,-2.75867,-1.2771,0.055511,-0.0752646,0.0122049,0.0566403,-0.0763939,0.0922656,0.0770891,0.0471057,552,925,-2.75868,1.27708
-665,99,-2.94843,-0.998718,0,0,0,0,0,0,0,-1,559,925,-2.94844,0.998693
-658,99,-2.97797,-0.764038,0,0,0,0,0,0,0,-1,566,925,-2.97796,0.764023
-651,99,-5.04651,0.783936,0,0,0,0,0,0,0,-1,573,925,-5.04652,-0.783948
-644,99,-3.81183,0.525513,0,0,0,0,0,0,0,-1,580,925,-3.81181,-0.525504
-637,99,-3.91418,0.999146,0.0194283,-0.0140845,0.00781476,0.021161,-0.0158172,0.218194,0.0214235,0.0284348,587,925,-3.91421,-0.999176
-630,99,-3.90887,0.968689,0.0145155,-0.00763601,0.00709387,0.0165925,-0.00971302,0.284829,0.0153597,0.0119132,594,925,-3.90885,-0.968695
-623,99,-3.90814,0.923401,0.00955904,-0.00404915,0.00522855,0.0113359,-0.00582605,0.3276,0.0100773,0.00672753,601,925,-3.90814,-0.923405
-616,99,-3.91418,0.880798,0.00407642,-0.00125466,0.00364149,0.0059237,-0.00310194,0.46946,0.00529516,0.00813619,608,925,-3.91419,-0.880794
-609,99,-3.9184,0.844543,0.000438555,0.000178551,0.00347765,0.00378863,-0.00317153,0.766716,0.00402371,0.0090605,615,925,-3.91839,-0.844547
-602,99,-3.91858,0.825195,-0.00174506,3.19057e-05,0.00293182,0.00220691,-0.00392006,0.932524,0.00358321,0.00907724,622,925,-3.91861,-0.82522
-595,99,-3.94275,0.791199,-0.00360096,-0.00024186,0.00216838,0.000821356,-0.00466418,1.11492,0.00341631,0.0125099,629,925,-3.94277,-0.791206
-588,99,-3.94495,0.735413,-0.0048216,-0.000552719,0.00163954,4.29782e-06,-0.00537861,1.24329,0.00358718,0.0116725,636,925,-3.94493,-0.735411
-581,99,-3.90613,0.676819,-0.00560124,-0.000743933,0.00151729,-0.000308933,-0.00603624,1.29159,0.00392523,0.0102854,643,925,-3.90613,-0.676833
-574,99,-3.93835,0.623474,-0.00615821,-0.000599286,0.00151477,-0.00021332,-0.00654418,1.3213,0.00429345,0.0127885,650,925,-3.93838,-0.623493
-567,99,-4.13055,0.625488,-0.00636143,-0.000247176,0.0014132,6.36606e-05,-0.00667226,1.35429,0.00446955,0.0267161,657,925,-4.13057,-0.625488
-560,99,-4.40125,0.764893,-0.00623388,0.000125304,0.00114657,0.000325715,-0.00643429,1.39775,0.00440212,0.0311097,664,925,-4.40124,-0.764898
-553,99,-4.40576,0.75238,-0.00571063,0.000792288,0.000825892,0.00089554,-0.00581389,1.44642,0.00420634,0.0357145,671,925,-4.40579,-0.752358
-546,99,-4.43121,0.5802,-0.00473617,0.00167662,0.000351913,0.00169588,-0.00475542,1.51614,0.00386176,0.0400545,678,925,-4.43123,-0.580213
-539,99,-4.44727,0.417908,-0.00325529,0.00284239,-0.000265428,0.00285392,-0.00326682,-1.52738,0.00353649,0.0399291,685,925,-4.44726,-0.417934
-532,99,-4.29517,0.438293,-0.00132155,0.00432319,-0.00101896,0.0045015,-0.00149986,-1.39756,0.00360645,0.0430622,692,925,-4.29517,-0.4383
-525,99,-4.26215,1.06085,0,0,0,0,0,0,0,-1,699,925,-4.26217,-1.06086
-518,99,-4.3313,0.80957,0,0,0,0,0,0,0,-1,706,925,-4.33129,-0.809577
-511,99,0,0,0,0,0,0,0,0,0,-1,713,925,0,0
-504,99,0,0,0,0,0,0,0,0,0,-1,720,925,0,0
-497,99,0,0,0,0,0,0,0,0,0,-1,727,925,0,0
-490,99,0,0,0,0,0,0,0,0,0,-1,734,925,0,0
-483,99,0,0,0,0,0,0,0,0,0,-1,741,925,0,0
-476,99,0,0,0,0,0,0,0,0,0,-1,748,925,0,0
-469,99,0,0,0,0,0,0,0,0,0,-1,755,925,0,0
-462,99,0,0,0,0,0,0,0,0,0,-1,762,925,0,0
-455,99,0,0,0,0,0,0,0,0,0,-1,769,925,0,0
-448,99,0,0,0,0,0,0,0,0,0,-1,776,925,0,0
-441,99,0,0,0,0,0,0,0,0,0,-1,783,925,0,0
-434,99,0,0,0,0,0,0,0,0,0,-1,790,925,0,0
-427,99,0,0,0,0,0,0,0,0,0,-1,797,925,0,0
-420,99,0,0,0,0,0,0,0,0,0,-1,804,925,0,0
-413,99,0,0,0,0,0,0,0,0,0,-1,811,925,0,0
-406,99,0,0,0,0,0,0,0,0,0,-1,818,925,0,0
-399,99,0,0,0,0,0,0,0,0,0,-1,825,925,0,0
-392,99,0,0,0,0,0,0,0,0,0,-1,832,925,0,0
-385,99,0,0,0,0,0,0,0,0,0,-1,839,925,0,0
-378,99,0,0,0,0,0,0,0,0,0,-1,846,925,0,0
-371,99,0,0,0,0,0,0,0,0,0,-1,853,925,0,0
-364,99,0,0,0,0,0,0,0,0,0,-1,860,925,0,0
-357,99,0,0,0,0,0,0,0,0,0,-1,867,925,0,0
-350,99,0,0,0,0,0,0,0,0,0,-1,874,925,0,0
-343,99,0,0,0,0,0,0,0,0,0,-1,881,925,0,0
-336,99,0,0,0,0,0,0,0,0,0,-1,888,925,0,0
-329,99,0,0,0,0,0,0,0,0,0,-1,895,925,0,0
-322,99,0,0,0,0,0,0,0,0,0,-1,902,925,0,0
-315,99,0,0,0,0,0,0,0,0,0,-1,909,925,0,0
-308,99,0,0,0,0,0,0,0,0,0,-1,916,925,0,0
-301,99,0,0,0,0,0,0,0,0,0,-1,923,925,0,0
-294,99,0,0,0,0,0,0,0,0,0,-1,930,925,0,0
-287,99,0,0,0,0,0,0,0,0,0,-1,937,925,0,0
-280,99,0,0,0,0,0,0,0,0,0,-1,944,925,0,0
-273,99,0,0,0,0,0,0,0,0,0,-1,951,925,0,0
-266,99,0,0,0,0,0,0,0,0,0,-1,958,925,0,0
-259,99,0,0,0,0,0,0,0,0,0,-1,965,925,0,0
-252,99,0,0,0,0,0,0,0,0,0,-1,972,925,0,0
-245,99,0,0,0,0,0,0,0,0,0,-1,979,925,0,0
-238,99,0,0,0,0,0,0,0,0,0,-1,986,925,0,0
-231,99,0,0,0,0,0,0,0,0,0,-1,993,925,0,0
-224,99,0,0,0,0,0,0,0,0,0,-1,1000,925,0,0
-217,99,0,0,0,0,0,0,0,0,0,-1,1007,925,0,0
-210,99,0,0,0,0,0,0,0,0,0,-1,1014,925,0,0
-203,99,0,0,0,0,0,0,0,0,0,-1,1021,925,0,0
-196,99,0,0,0,0,0,0,0,0,0,-1,1028,925,0,0
-189,99,0,0,0,0,0,0,0,0,0,-1,1035,925,0,0
-182,99,0,0,0,0,0,0,0,0,0,-1,1042,925,0,0
-175,99,0,0,0,0,0,0,0,0,0,-1,1049,925,0,0
-168,99,0,0,0,0,0,0,0,0,0,-1,1056,925,0,0
-161,99,0,0,0,0,0,0,0,0,0,-1,1063,925,0,0
-154,99,0,0,0,0,0,0,0,0,0,-1,1070,925,0,0
-147,99,0,0,0,0,0,0,0,0,0,-1,1077,925,0,0
-140,99,0,0,0,0,0,0,0,0,0,-1,1084,925,0,0
-133,99,0,0,0,0,0,0,0,0,0,-1,1091,925,0,0
-126,99,0,0,0,0,0,0,0,0,0,-1,1098,925,0,0
-119,99,0,0,0,0,0,0,0,0,0,-1,1105,925,0,0
-112,99,0,0,0,0,0,0,0,0,0,-1,1112,925,0,0
-105,99,0,0,0,0,0,0,0,0,0,-1,1119,925,0,0
-98,99,0,0,0,0,0,0,0,0,0,-1,1126,925,0,0
-91,99,0,0,0,0,0,0,0,0,0,-1,1133,925,0,0
-84,99,0,0,0,0,0,0,0,0,0,-1,1140,925,0,0
-77,99,0,0,0,0,0,0,0,0,0,-1,1147,925,0,0
-70,99,0,0,0,0,0,0,0,0,0,-1,1154,925,0,0
-63,99,0,0,0,0,0,0,0,0,0,-1,1161,925,0,0
-56,99,0,0,0,0,0,0,0,0,0,-1,1168,925,0,0
-49,99,0,0,0,0,0,0,0,0,0,-1,1175,925,0,0
-42,99,0,0,0,0,0,0,0,0,0,-1,1182,925,0,0
-35,99,0,0,0,0,0,0,0,0,0,-1,1189,925,0,0
-28,99,0,0,0,0,0,0,0,0,0,-1,1196,925,0,0
-21,99,0,0,0,0,0,0,0,0,0,-1,1203,925,0,0
-14,99,0,0,0,0,0,0,0,0,0,-1,1210,925,0,0
-7,99,0,0,0,0,0,0,0,0,0,-1,1217,925,0,0
0,99,0,0,0,0,0,0,0,0,0,-1,1224,925,0,0
7,99,0,0,0,0,0,0,0,0,0,-1,1231,925,0,0
14,99,0,0,0,0,0,0,0,0,0,-1,1238,925,0,0
21,99,0,0,0,0,0,0,0,0,0,-1,1245,925,0,0
28,99,0,0,0,0,0,0,0,0,0,-1,1252,925,0,0
35,99,0,0,0,0,0,0,0,0,0,-1,1259,925,0,0
42,99,0,0,0,0,0,0,0,0,0,-1,1266,925,0,0
49,99,0,0,0,0,0,0,0,0,0,-1,1273,925,0,0
56,99,0,0,0,0,0,0,0,0,0,-1,1280,925,0,0
63,99,0,0,0,0,0,0,0,0,0,-1,1287,925,0,0
70,99,0,0,0,0,0,0,0,0,0,-1,1294,925,0,0
77,99,0,0,0,0,0,0,0,0,0,-1,1301,925,0,0
84,99,0,0,0,0,0,0,0,0,0,-1,1308,925,0,0
91,99,0,0,0,0,0,0,0,0,0,-1,1315,925,0,0
98,99,0,0,0,0,0,0,0,0,0,-1,1322,925,0,0
105,99,0,0,0,0,0,0,0,0,0,-1,1329,925,0,0
112,99,0,0,0,0,0,0,0,0,0,-1,1336,925,0,0
119,99,0,0,0,0,0,0,0,0,0,-1,1343,925,0,0
126,99,0,0,0,0,0,0,0,0,0,-1,1350,925,0,0
133,99,0,0,0,0,0,0,0,0,0,-1,1357,925,0,0
140,99,0,0,0,0,0,0,0,0,0,-1,1364,925,0,0
147,99,0,0,0,0,0,0,0,0,0,-1,1371,925,0,0
154,99,0,0,0,0,0,0,0,0,0,-1,1378,925,0,0
161,99,0,0,0,0,0,0,0,0,0,-1,1385,925,0,0
168,99,0,0,0,0,0,0,0,0,0,-1,1392,925,0,0
175,99,0,0,0,0,0,0,0,0,0,-1,1399,925,0,0
182,99,0,0,0,0,0,0,0,0,0,-1,1406,925,0,0
189,99,0,0,0,0,0,0,0,0,0,-1,1413,925,0,0
196,99,0,0,0,0,0,0,0,0,0,-1,1420,925,0,0
203,99,0,0,0,0,0,0,0,0,0,-1,1427,925,0,0
210,99,0,0,0,0,0,0,0,0,0,-1,1434,925,0,0
217,99,0,0,0,0,0,0,0,0,0,-1,1441,925,0,0
224,99,0,0,0,0,0,0,0,0,0,-1,1448,925,0,0
231,99,0,0,0,0,0,0,0,0,0,-1,1455,925,0,0
238,99,0,0,0,0,0,0,0,0,0,-1,1462,925,0,0
245,99,0,0,0,0,0,0,0,0,0,-1,1469,925,0,0
252,99,0,0,0,0,0,0,0,0,0,-1,1476,925,0,0
259,99,0,0,0,0,0,0,0,0,0,-1,1483,925,0,0
266,99,0,0,0,0,0,0,0,0,0,-1,1490,925,0,0
273,99,0,0,0,0,0,0,0,0,0,-1,1497,925,0,0
280,99,0,0,0,0,0,0,0,0,0,-1,1504,925,0,0
287,99,0,0,0,0,0,0,0,0,0,-1,1511,925,0,0
294,99,0,0,0,0,0,0,0,0,0,-1,1518,925,0,0
301,99,0,0,0,0,0,0,0,0,0,-1,1525,925,0,0
308,99,0,0,0,0,0,0,0,0,0,-1,1532,925,0,0
315,99,0,0,0,0,0,0,0,0,0,-1,1539,925,0,0
322,99,0,0,0,0,0,0,0,0,0,-1,1546,925,0,0
329,99,0,0,0,0,0,0,0,0,0,-1,1553,925,0,0
336,99,0,0,0,0,0,0,0,0,0,-1,1560,925,0,0
343,99,0,0,0,0,0,0,0,0,0,-1,1567,925,0,0
350,99,0,0,0,0,0,0,0,0,0,-1,1574,925,0,0
357,99,0,0,0,0,0,0,0,0,0,-1,1581,925,0,0
364,99,0,0,0,0,0,0,0,0,0,-1,1588,925,0,0
371,99,0,0,0,0,0,0,0,0,0,-1,1595,925,0,0
378,99,0,0,0,0,0,0,0,0,0,-1,1602,925,0,0
385,99,0,0,0,0,0,0,0,0,0,-1,1609,925,0,0
392,99,0,0,0,0,0,0,0,0,0,-1,1616,925,0,0
399,99,0,0,0,0,0,0,0,0,0,-1,1623,925,0,0
406,99,0,0,0,0,0,0,0,0,0,-1,1630,925,0,0
413,99,0,0,0,0,0,0,0,0,0,-1,1637,925,0,0
420,99,0,0,0,0,0,0,0,0,0,-1,1644,925,0,0
427,99,0,0,0,0,0,0,0,0,0,-1,1651,925,0,0
434,99,0,0,0,0,0,0,0,0,0,-1,1658,925,0,0
441,99,0,0,0,0,0,0,0,0,0,-1,1665,925,0,0
448,99,0,0,0,0,0,0,0,0,0,-1,1672,925,0,0
455,99,0,0,0,0,0,0,0,0,0,-1,1679,925,0,0
462,99,0,0,0,0,0,0,0,0,0,-1,1686,925,0,0
469,99,0,0,0,0,0,0,0,0,0,-1,1693,925,0,0
476,99,0,0,0,0,0,0,0,0,0,-1,1700,925,0,0
483,99,0,0,0,0,0,0,0,0,0,-1,1707,925,0,0
490,99,0,0,0,0,0,0,0,0,0,-1,1714,925,0,0
497,99,0,0,0,0,0,0,0,0,0,-1,1721,925,0,0
504,99,0,0,0,0,0,0,0,0,0,-1,1728,925,0,0
511,99,0,0,0,0,0,0,0,0,0,-1,1735,925,0,0
518,99,0,0,0,0,0,0,0,0,0,-1,1742,925,0,0
525,99,0,0,0,0,0,0,0,0,0,-1,1749,925,0,0
532,99,0,0,0,0,0,0,0,0,0,-1,1756,925,0,0
539,99,0,0,0,0,0,0,0,0,0,-1,1763,925,0,0
546,99,0,0,0,0,0,0,0,0,0,-1,1770,925,0,0
553,99,0,0,0,0,0,0,0,0,0,-1,1777,925,0,0
560,99,0,0,0,0,0,0,0,0,0,-1,1784,925,0,0
567,99,0,0,0,0,0,0,0,0,0,-1,1791,925,0,0
574,99,0,0,0,0,0,0,0,0,0,-1,1798,925,0,0
581,99,0,0,0,0,0,0,0,0,0,-1,1805,925,0,0
588,99,0,0,0,0,0,0,0,0,0,-1,1812,925,0,0
595,99,0,0,0,0,0,0,0,0,0,-1,1819,925,0,0
602,99,0,0,0,0,0,0,0,0,0,-1,1826,925,0,0
609,99,0,0,0,0,0,0,0,0,0,-1,1833,925,0,0
616,99,0,0,0,0,0,0,0,0,0,-1,1840,925,0,0
623,99,0,0,0,0,0,0,0,0,0,-1,1847,925,0,0
630,99,0,0,0,0,0,0,0,0,0,-1,1854,925,0,0
637,99,9.61841,1.25031,-0.00153443,0.00245832,-0.00100826,0.00269848,-0.00177459,-1.33696,0.00260083,0.0427841,1861,925,9.61839,-1.25031
644,99,9.68103,1.20099,-0.00122586,0.0015842,-0.000496701,0.00166941,-0.00131108,-1.40089,0.00172493,0.0365331,1868,925,9.68103,-1.20096
651,99,9.64807,1.44196,-0.00145074,0.00094411,-0.000420968,0.00101595,-0.00152258,-1.40176,0.00147532,0.0359751,1875,925,9.6481,-1.44193
658,99,9.47156,1.58881,-0.00247417,0.000482836,-0.000511006,0.000568654,-0.00255999,-1.40441,0.00192442,0.0389221,1882,925,9.4716,-1.58884
665,99,9.39343,1.49298,-0.00378123,0.000149199,-0.000661697,0.000257607,-0.00388964,-1.40841,0.00268309,0.0395213,1889,925,9.39339,-1.493
672,99,9.47827,1.4212,-0.00499928,-7.71982e-05,-0.000812815,5.35538e-05,-0.00513003,-1.4113,0.00343801,0.0408154,1896,925,9.47823,-1.42122
679,99,9.61096,1.45416,-0.0060736,-0.000214996,-0.000932383,-7.01889e-05,-0.00621841,-1.41672,0.00412241,0.0376835,1903,925,9.61102,-1.45414
686,99,9.61523,1.35974,-0.00697676,-0.000309549,-0.00109472,-0.000134403,-0.00715191,-1.41215,0.00472377,0.0326742,1910,925,9.61527,-1.35977
693,99,9.61096,1.20844,-0.00741661,-0.00037743,-0.000968335,-0.000246652,-0.00754739,-1.43655,0.00495142,0.0291146,1917,925,9.61093,-1.20846
700,99,9.65088,1.20734,-0.00767613,-0.000395523,-0.00095494,-0.000272355,-0.0077993,-1.44252,0.00511117,0.0401312,1924,925,9.65085,-1.20734
707,99,9.1355,1.32562,-0.00759867,-0.000324495,-0.00101105,-0.000186583,-0.00773658,-1.43523,0.00509666,0.0305225,1931,925,9.13549,-1.32563
714,99,8.98975,1.41614,-0.00699736,-0.000225455,-0.000988299,-8.41694e-05,-0.00713865,-1.4288,0.00473129,0.0138309,1938,925,8.98971,-1.41611
721,99,8.9884,1.46466,-0.00600406,-1.29983e-05,-0.00105129,0.000166124,-0.00618318,-1.40203,0.0041786,0.0164038,1945,925,8.98845,-1.46469
728,99,9.03003,1.52502,-0.00470527,0.0001042,-0.00120364,0.000388609,-0.00498968,-1.33876,0.00346326,0.0137475,1952,925,9.02998,-1.52505
735,99,9.00818,1.56824,-0.00278095,0.000404211,-0.00141415,0.000941449,-0.00331819,-1.20773,0.00258376,0.0118926,1959,925,9.00813,-1.56822
742,99,8.97949,1.60529,-0.000445461,0.000825708,-0.00158476,0.00189759,-0.00151734,-0.976108,0.00197568,0.0108341,1966,925,8.97946,-1.60531
749,99,8.97253,1.65454,0.00209262,0.00140822,-0.00137446,0.00316684,0.000334001,-0.663393,0.00200917,0.00940633,1973,925,8.97258,-1.65451
756,99,8.97424,1.6944,0.00494175,0.00204136,-0.00148774,0.00556916,0.00141395,-0.399087,0.00334267,0.010233,1980,925,8.97421,-1.6944
763,99,8.99414,1.74011,0.00786783,0.00288083,-0.00148794,0.00827803,0.00247062,-0.269005,0.00490704,0.0123808,1987,925,8.99411,-1.74014
770,99,9.0603,1.79272,0.0108501,0.0039463,-0.00118402,0.0110475,0.00374888,-0.165215,0.00648711,0.0260273,1994,925,9.06025,-1.79274
777,99,9.21033,1.7038,0.0142235,0.00527679,-0.000378988,0.0142395,0.00526076,-0.0422599,0.00831406,0.0402644,2001,925,9.21034,-1.7038
784,99,9.29041,1.61658,0.0180191,0.0069196,0.00119217,0.0181457,0.00679299,0.1058,0.0105861,0.0420517,2008,925,9.29043,-1.61658
791,99,9.31726,1.62585,0.0221161,0.00891644,0.00383562,0.0231497,0.00788281,0.263229,0.0135903,0.0450451,2015,925,9.31721,-1.62587
798,99,9.23291,1.66589,0.0263718,0.0113397,0.00802435,0.0298503,0.00786112,0.409047,0.017866,0.0471206,2022,925,9.23292,-1.66591
805,99,0,0,0,0,0,0,0,0,0,-1,2029,925,0,0
812,99,0,0,0,0,0,0,0,0,0,-1,2036,925,0,0
-700,92,0,0,0,0,0,0,0,0,0,-1,524,932,0,0
-693,92,0,0,0,0,0,0,0,0,0,-1,531,932,0,0
-686,92,-5.30023,-2.18701,0.0568852,-0.117244,0.00563356,0.0570673,-0.117426,0.0323076,0.102733,0.0430359,538,932,-5.30026,2.18703
-679,92,-5.32324,-1.82996,0.0570795,-0.094246,0.00886071,0.0575966,-0.094763,0.0582885,0.088833,0.0446169,545,932,-5.32325,1.82994
-672,92,-2.19501,-0.528931,0.0529158,-0.0744491,0.0102501,0.0537355,-0.0752688,0.0797941,0.0748257,0.0462493,552,932,-2.19498,0.528948
-665,92,-2.17639,-0.363525,0,0,0,0,0,0,0,-1,559,932,-2.1764,0.36353
-658,92,-4.88306,-0.14209,0,0,0,0,0,0,0,-1,566,932,-4.88306,0.14211
-651,92,-4.72278,0.537964,0.0320784,-0.031356,0.00942535,0.0334492,-0.0327269,0.144429,0.0382075,0.0498537,573,932,-4.72275,-0.53796
-644,92,-4.33661,1.08856,0.0251043,-0.0218627,0.00835224,0.0265454,-0.0233037,0.170856,0.0288007,0.0449783,580,932,-4.33663,-1.08857
-637,92,-3.95697,0.990967,0.0188274,-0.0145604,0.00712864,0.0202858,-0.0160188,0.20179,0.0210086,0.0255409,587,932,-3.95699,-0.990973
-630,92,-3.95068,0.948608,0.014145,-0.00806541,0.00659582,0.0159561,-0.00987649,0.267976,0.0150515,0.0119954,594,932,-3.95071,-0.948605
-623,92,-3.953,0.916504,0.00928697,-0.00434883,0.0049171,0.0108751,-0.00593698,0.312408,0.00984505,0.00820886,601,932,-3.953,-0.916528
-616,92,-3.96106,0.873291,0.00387201,-0.00151404,0.00343938,0.00554725,-0.00318928,0.453255,0.00510491,0.00774681,608,932,-3.96105,-0.873321
-609,92,-3.96271,0.836121,0.000456875,-1.51137e-06,0.00330943,0.00354504,-0.00308967,0.750826,0.00383356,0.00786048,615,932,-3.96269,-0.836126
-602,92,-3.95264,0.812195,-0.00162042,-4.82177e-05,0.00268269,0.00196118,-0.00362981,0.927921,0.00327553,0.00807283,622,932,-3.95265,-0.812182
-595,92,-3.93719,0.778748,-0.00338033,-0.000236997,0.00190732,0.000662773,-0.0042801,1.13001,0.00309805,0.0129778,629,932,-3.93719,-0.778758
-588,92,-3.94427,0.734802,-0.00445454,-0.000456097,0.00141616,-5.3409e-06,-0.00490529,1.26264,0.00326842,0.0147968,636,932,-3.94425,-0.734808
-581,92,-3.94794,0.665894,-0.0051004,-0.00058331,0.00122181,-0.000274009,-0.0054097,1.32285,0.00351869,0.0132184,643,932,-3.94794,-0.665896
-574,92,-4.0448,0.634827,-0.00560279,-0.000409269,0.00112373,-0.000176555,-0.0058355,1.36659,0.00383284,0.0172339,650,932,-4.04477,-0.634803
-567,92,-4.23645,0.683533,-0.005761,-2.77297e-05,0.000951589,0.000126085,-0.00591482,1.41054,0.0039859,0.0306346,657,932,-4.23645,-0.683512
-560,92,-4.33636,0.750793,-0.00560249,0.000364567,0.000611625,0.000426614,-0.00566454,1.4697,0.0039263,0.0365427,664,932,-4.33638,-0.750814
-553,92,-4.43732,0.685791,-0.00508404,0.000996061,0.000204716,0.00100295,-0.00509092,1.53718,0.00377296,0.0382744,671,932,-4.43733,-0.685819
-546,92,-4.53033,0.624695,-0.00416809,0.00183673,-0.000335587,0.00185542,-0.00418678,-1.51514,0.00357398,0.039617,678,932,-4.53035,-0.624676
-539,92,-4.56378,0.655212,-0.00283679,0.00292789,-0.00100723,0.00309882,-0.00300771,-1.4027,0.00352574,0.0405241,685,932,-4.56381,-0.655201
-532,92,-4.29767,0.742676,-0.00117601,0.0042992,-0.00180092,0.00483845,-0.00171526,-1.27986,0.00392439,0.0446947,692,932,-4.29769,-0.742692
-525,92,-4.27637,0.911987,0.000649366,0.00594553,-0.00268378,0.00706773,-0.000472835,-1.17475,0.00487708,0.0415165,699,932,-4.27636,-0.912006
-518,92,-4.33539,1.00879,0.00199507,0.0078754,-0.00350101,0.00950706,0.000363405,-1.13467,0.00622045,0.0401581,706,932,-4.3354,-1.00879
-511,92,0,0,0,0,0,0,0,0,0,-1,713,932,0,0
-504,92,0,0,0,0,0,0,0,0,0,-1,720,932,0,0
-497,92,0,0,0,0,0,0,0,0,0,-1,727,932,0,0
-490,92,0,0,0,0,0,0,0,0,0,-1,734,932,0,0
-483,92,0,0,0,0,0,0,0,0,0,-1,741,932,0,0
-476,92,0,0,0,0,0,0,0,0,0,-1,748,932,0,0
-469,92,0,0,0,0,0,0,0,0,0,-1,755,932,0,0
-462,92,0,0,0,0,0,0,0,0,0,-1,762,932,0,0
-455,92,0,0,0,0,0,0,0,0,0,-1,769,932,0,0
-448,92,0,0,0,0,0,0,0,0,0,-1,776,932,0,0
-441,92,0,0,0,0,0,0,0,0,0,-1,783,932,0,0
-434,92,0,0,0,0,0,0,0,0,0,-1,790,932,0,0
-427,92,0,0,0,0,0,0,0,0,0,-1,797,932,0,0
-420,92,0,0,0,0,0,0,0,0,0,-1,804,932,0,0
-413,92,0,0,0,0,0,0,0,0,0,-1,811,932,0,0
-406,92,0,0,0,0,0,0,0,0,0,-1,818,932,0,0
-399,92,0,0,0,0,0,0,0,0,0,-1,825,932,0,0
-392,92,0,0,0,0,0,0,0,0,0,-1,832,932,0,0
-385,92,0,0,0,0,0,0,0,0,0,-1,839,932,0,0
-378,92,0,0,0,0,0,0,0,0,0,-1,846,932,0,0
-371,92,0,0,0,0,0,0,0,0,0,-1,853,932,0,0
-364,92,0,0,0,0,0,0,0,0,0,-1,860,932,0,0
-357,92,0,0,0,0,0,0,0,0,0,-1,867,932,0,0
-350,92,0,0,0,0,0,0,0,0,0,-1,874,932,0,0
-343,92,0,0,0,0,0,0,0,0,0,-1,881,932,0,0
-336,92,0,0,0,0,0,0,0,0,0,-1,888,932,0,0
-329,92,0,0,0,0,0,0,0,0,0,-1,895,932,0,0
-322,92,0,0,0,0,0,0,0,0,0,-1,902,932,0,0
-315,92,0,0,0,0,0,0,0,0,0,-1,909,932,0,0
-308,92,0,0,0,0,0,0,0,0,0,-1,916,932,0,0
-301,92,0,0,0,0,0,0,0,0,0,-1,923,932,0,0
-294,92,0,0,0,0,0,0,0,0,0,-1,930,932,0,0
-287,92,0,0,0,0,0,0,0,0,0,-1,937,932,0,0
-280,92,0,0,0,0,0,0,0,0,0,-1,944,932,0,0
-273,92,0,0,0,0,0,0,0,0,0,-1,951,932,0,0
-266,92,0,0,0,0,0,0,0,0,0,-1,958,932,0,0
-259,92,0,0,0,0,0,0,0,0,0,-1,965,932,0,0
-252,92,0,0,0,0,0,0,0,0,0,-1,972,932,0,0
-245,92,0,0,0,0,0,0,0,0,0,-1,979,932,0,0
-238,92,0,0,0,0,0,0,0,0,0,-1,986,932,0,0
-231,92,0,0,0,0,0,0,0,0,0,-1,993,932,0,0
-224,92,0,0,0,0,0,0,0,0,0,-1,1000,932,0,0
-217,92,0,0,0,0,0,0,0,0,0,-1,1007,932,0,0
-210,92,0,0,0,0,0,0,0,0,0,-1,1014,932,0,0
-203,92,0,0,0,0,0,0,0,0,0,-1,1021,932,0,0
-196,92,0,0,0,0,0,0,0,0,0,-1,1028,932,0,0
-189,92,0,0,0,0,0,0,0,0,0,-1,1035,932,0,0
-182,92,0,0,0,0,0,0,0,0,0,-1,1042,932,0,0
-175,92,0,0,0,0,0,0,0,0,0,-1,1049,932,0,0
-168,92,0,0,0,0,0,0,0,0,0,-1,1056,932,0,0
-161,92,0,0,0,0,0,0,0,0,0,-1,1063,932,0,0
-154,92,0,0,0,0,0,0,0,0,0,-1,1070,932,0,0
-147,92,0,0,0,0,0,0,0,0,0,-1,1077,932,0,0
-140,92,0,0,0,0,0,0,0,0,0,-1,1084,932,0,0
-133,92,0,0,0,0,0,0,0,0,0,-1,1091,932,0,0
-126,92,0,0,0,0,0,0,0,0,0,-1,1098,932,0,0
-119,92,0,0,0,0,0,0,0,0,0,-1,1105,932,0,0
-112,92,0,0,0,0,0,0,0,0,0,-1,1112,932,0,0
-105,92,0,0,0,0,0,0,0,0,0,-1,1119,932,0,0
-98,92,0,0,0,0,0,0,0,0,0,-1,1126,932,0,0
-91,92,0,0,0,0,0,0,0,0,0,-1,1133,932,0,0
-84,92,0,0,0,0,0,0,0,0,0,-1,1140,932,0,0
-77,92,0,0,0,0,0,0,0,0,0,-1,1147,932,0,0
-70,92,0,0,0,0,0,0,0,0,0,-1,1154,932,0,0
-63,92,0,0,0,0,0,0,0,0,0,-1,1161,932,0,0
-56,92,0,0,0,0,0,0,0,0,0,-1,1168,932,0,0
-49,92,0,0,0,0,0,0,0,0,0,-1,1175,932,0,0
-42,92,0,0,0,0,0,0,0,0,0,-1,1182,932,0,0
-35,92,0,0,0,0,0,0,0,0,0,-1,1189,932,0,0
-28,92,0,0,0,0,0,0,0,0,0,-1,1196,932,0,0
-21,92,0,0,0,0,0,0,0,0,0,-1,1203,932,0,0
-14,92,0,0,0,0,0,0,0,0,0,-1,1210,932,0,0
-7,92,0,0,0,0,0,0,0,0,0,-1,1217,932,0,0
0,92,0,0,0,0,0,0,0,0,0,-1,1224,932,0,0
7,92,0,0,0,0,0,0,0,0,0,-1,1231,932,0,0
14,92,0,0,0,0,0,0,0,0,0,-1,1238,932,0,0
21,92,0,0,0,0,0,0,0,0,0,-1,1245,932,0,0
28,92,0,0,0,0,0,0,0,0,0,-1,1252,932,0,0
35,92,0,0,0,0,0,0,0,0,0,-1,1259,932,0,0
42,92,0,0,0,0,0,0,0,0,0,-1,1266,932,0,0
49,92,0,0,0,0,0,0,0,0,0,-1,1273,932,0,0
56,92,0,0,0,0,0,0,0,0,0,-1,1280,932,0,0
63,92,0,0,0,0,0,0,0,0,0,-1,1287,932,0,0
70,92,0,0,0,0,0,0,0,0,0,-1,1294,932,0,0
77,92,0,0,0,0,0,0,0,0,0,-1,1301,932,0,0
84,92,0,0,0,0,0,0,0,0,0,-1,1308,932,0,0
91,92,0,0,0,0,0,0,0,0,0,-1,1315,932,0,0
98,92,0,0,0,0,0,0,0,0,0,-1,1322,932,0,0
105,92,0,0,0,0,0,0,0,0,0,-1,1329,932,0,0
112,92,0,0,0,0,0,0,0,0,0,-1,1336,932,0,0
119,92,0,0,0,0,0,0,0,0,0,-1,1343,932,0,0
126,92,0,0,0,0,0,0,0,0,0,-1,1350,932,0,0
133,92,0,0,0,0,0,0,0,0,0,-1,1357,932,0,0
140,92,0,0,0,0,0,0,0,0,0,-1,1364,932,0,0
147,92,0,0,0,0,0,0,0,0,0,-1,1371,932,0,0
154,92,0,0,0,0,0,0,0,0,0,-1,1378,932,0,0
161,92,0,0,0,0,0,0,0,0,0,-1,1385,932,0,0
168,92,0,0,0,0,0,0,0,0,0,-1,1392,932,0,0
175,92,0,0,0,0,0,0,0,0,0,-1,1399,932,0,0
182,92,0,0,0,0,0,0,0,0,0,-1,1406,932,0,0
189,92,0,0,0,0,0,0,0,0,0,-1,1413,932,0,0
196,92,0,0,0,0,0,0,0,0,0,-1,1420,932,0,0
203,92,0,0,0,0,0,0,0,0,0,-1,1427,932,0,0
210,92,0,0,0,0,0,0,0,0,0,-1,1434,932,0,0
217,92,0,0,0,0,0,0,0,0,0,-1,1441,932,0,0
224,92,0,0,0,0,0,0,0,0,0,-1,1448,932,0,0
231,92,0,0,0,0,0,0,0,0,0,-1,1455,932,0,0
238,92,0,0,0,0,0,0,0,0,0,-1,1462,932,0,0
245,92,0,0,0,0,0,0,0,0,0,-1,1469,932,0,0
252,92,0,0,0,0,0,0,0,0,0,-1,1476,932,0,0
259,92,0,0,0,0,0,0,0,0,0,-1,1483,932,0,0
266,92,0,0,0,0,0,0,0,0,0,-1,1490,932,0,0
273,92,0,0,0,0,0,0,0,0,0,-1,1497,932,0,0
280,92,0,0,0,0,0,0,0,0,0,-1,1504,932,0,0
287,92,0,0,0,0,0,0,0,0,0,-1,1511,932,0,0
294,92,0,0,0,0,0,0,0,0,0,-1,1518,932,0,0
301,92,0,0,0,0,0,0,0,0,0,-1,1525,932,0,0
308,92,0,0,0,0,0,0,0,0,0,-1,1532,932,0,0
315,92,0,0,0,0,0,0,0,0,0,-1,1539,932,0,0
322,92,0,0,0,0,0,0,0,0,0,-1,1546,932,0,0
329,92,0,0,0,0,0,0,0,0,0,-1,1553,932,0,0
336,92,0,0,0,0,0,0,0,0,0,-1,1560,932,0,0
343,92,0,0,0,0,0,0,0,0,0,-1,1567,932,0,0
350,92,0,0,0,0,0,0,0,0,0,-1,1574,932,0,0
357,92,0,0,0,0,0,0,0,0,0,-1,1581,932,0,0
364,92,0,0,0,0,0,0,0,0,0,-1,1588,932,0,0
371,92,0,0,0,0,0,0,0,0,0,-1,1595,932,0,0
378,92,0,0,0,0,0,0,0,0,0,-1,1602,932,0,0
385,92,0,0,0,0,0,0,0,0,0,-1,1609,932,0,0
392,92,0,0,0,0,0,0,0,0,0,-1,1616,932,0,0
399,92,0,0,0,0,0,0,0,0,0,-1,1623,932,0,0
406,92,0,0,0,0,0,0,0,0,0,-1,1630,932,0,0
413,92,0,0,0,0,0,0,0,0,0,-1,1637,932,0,0
420,92,0,0,0,0,0,0,0,0,0,-1,1644,932,0,0
427,92,0,0,0,0,0,0,0,0,0,-1,1651,932,0,0
434,92,0,0,0,0,0,0,0,0,0,-1,1658,932,0,0
441,92,0,0,0,0,0,0,0,0,0,-1,1665,932,0,0
448,92,0,0,0,0,0,0,0,0,0,-1,1672,932,0,0
455,92,0,0,0,0,0,0,0,0,0,-1,1679,932,0,0
462,92,0,0,0,0,0,0,0,0,0,-1,1686,932,0,0
469,92,0,0,0,0,0,0,0,0,0,-1,1693,932,0,0
476,92,0,0,0,0,0,0,0,0,0,-1,1700,932,0,0
483,92,0,0,0,0,0,0,0,0,0,-1,1707,932,0,0
490,92,0,0,0,0,0,0,0,0,0,-1,1714,932,0,0
497,92,0,0,0,0,0,0,0,0,0,-1,1721,932,0,0
504,92,0,0,0,0,0,0,0,0,0,-1,1728,932,0,0
511,92,0,0,0,0,0,0,0,0,0,-1,1735,932,0,0
518,92,0,0,0,0,0,0,0,0,0,-1,1742,932,0,0
525,92,0,0,0,0,0,0,0,0,0,-1,1749,932,0,0
532,92,0,0,0,0,0,0,0,0,0,-1,1756,932,0,0
539,92,0,0,0,0,0,0,0,0,0,-1,1763,932,0,0
546,92,0,0,0,0,0,0,0,0,0,-1,1770,932,0,0
553,92,0,0,0,0,0,0,0,0,0,-1,1777,932,0,0
560,92,0,0,0,0,0,0,0,0,0,-1,1784,932,0,0
567,92,0,0,0,0,0,0,0,0,0,-1,1791,932,0,0
574,92,0,0,0,0,0,0,0,0,0,-1,1798,932,0,0
581,92,0,0,0,0,0,0,0,0,0,-1,1805,932,0,0
588,92,0,0,0,0,0,0,0,0,0,-1,1812,932,0,0
595,92,0,0,0,0,0,0,0,0,0,-1,1819,932,0,0
602,92,0,0,0,0,0,0,0,0,0,-1,1826,932,0,0
609,92,0,0,0,0,0,0,0,0,0,-1,1833,932,0,0
616,92,0,0,0,0,0,0,0,0,0,-1,1840,932,0,0
623,92,0,0,0,0,0,0,0,0,0,-1,1847,932,0,0
630,92,0,0,0,0,0,0,0,0,0,-1,1854,932,0,0
637,92,9.60498,1.23853,-0.0019945,0.00254858,-0.00122067,0.00285578,-0.00230171,-1.32425,0.0029834,0.0461046,1861,932,9.60494,-1.23852
644,92,9.68054,1.12109,-0.00146299,0.00165944,-0.00053843,0.00174968,-0.00155323,-1.40474,0.00190806,0.038863,1868,932,9.68051,-1.12109
651,92,9.64856,1.50427,-0.00133802,0.00101291,-0.000341255,0.00106144,-0.00138655,-1.42952,0.0014175,0.0377776,1875,932,9.64855,-1.50425
658,92,9.35962,1.87292,-0.00205287,0.000552207,-0.000331432,0.000593712,-0.00209437,-1.44621,0.00163059,0.0422058,1882,932,9.35959,-1.87295
665,92,9.20923,1.70386,-0.00319344,0.000228431,-0.000413078,0.00027759,-0.0032426,-1.45235,0.00225995,0.0425275,1889,932,9.20917,-1.70385
672,92,9.47327,1.22205,-0.00433772,1.00818e-05,-0.000520468,7.15181e-05,-0.00439916,-1.4533,0.0029569,0.0428682,1896,932,9.47321,-1.22203
679,92,9.62854,1.38409,-0.00540011,-0.000122245,-0.000620313,-5.03187e-05,-0.00547204,-1.45536,0.00363137,0.0402768,1903,932,9.62851,-1.38407
686,92,9.61682,1.32037,-0.00632157,-0.00021616,-0.000763461,-0.00012214,-0.00641559,-1.44826,0.00423694,0.0324416,1910,932,9.61682,-1.32037
693,92,9.6095,1.29694,-0.0067896,-0.00030627,-0.000629665,-0.000245683,-0.00685019,-1.47487,0.00448714,0.0268266,1917,932,9.60947,-1.29691
700,92,9.61438,1.27032,-0.00713898,-0.000314955,-0.000655861,-0.000252492,-0.00720144,-1.47584,0.00471905,0.0366995,1924,932,9.61437,-1.2703
707,92,9.23645,1.32794,-0.00720092,-0.000252314,-0.000760516,-0.000170051,-0.00728319,-1.46305,0.00479978,0.0338244,1931,932,9.23639,-1.32797
714,92,9.01843,1.4162,-0.00674818,-0.00016529,-0.000763573,-7.78812e-05,-0.00683559,-1.45682,0.00453132,0.0196049,1938,932,9.01844,-1.41621
721,92,9.0509,1.49725,-0.00590496,4.27383e-05,-0.000853617,0.000162825,-0.00602505,-1.43103,0.00407206,0.0209953,1945,932,9.05092,-1.49724
728,92,9.0343,1.5564,-0.004752,0.000134636,-0.00107676,0.000361377,-0.00497875,-1.36325,0.00344595,0.0155883,1952,932,9.03433,-1.55638
735,92,9.00964,1.57275,-0.00304134,0.000442908,-0.00132861,0.00089172,-0.00349015,-1.24503,0.00267404,0.0142951,1959,932,9.00961,-1.57278
742,92,9.01563,1.5918,-0.000986525,0.000828113,-0.00146635,0.00164515,-0.00180356,-1.06245,0.00199181,0.01544,1966,932,9.01559,-1.5918
749,92,9.03296,1.65594,0.00127391,0.00137408,-0.0013019,0.00262686,2.11356e-05,-0.804623,0.00174424,0.0132161,1973,932,9.03294,-1.65596
756,92,9.02014,1.71484,0.0038554,0.00196291,-0.00140633,0.00460419,0.00121412,-0.489265,0.00275541,0.0129026,1980,932,9.02008,-1.71487
763,92,9.06201,1.76697,0.00652932,0.00275284,-0.00135623,0.00696591,0.00231626,-0.311435,0.00409629,0.0148502,1987,932,9.06196,-1.76696
770,92,9.09216,1.81561,0.00913821,0.00375295,-0.000999513,0.00931774,0.00357342,-0.177719,0.00542805,0.023691,1994,932,9.09215,-1.81562
777,92,9.19971,1.54675,0.011989,0.00499843,-0.000147076,0.0119921,0.00499534,-0.0210268,0.00695569,0.0394811,2001,932,9.19968,-1.54672
784,92,9.50073,0.94696,0.0151579,0.00652035,0.00145689,0.015397,0.00628124,0.162677,0.00893952,0.0436707,2008,932,9.50072,-0.946983
791,92,9.94348,0.291443,0.0185911,0.00834784,0.00408156,0.0200185,0.0069204,0.336432,0.0117397,0.0406526,2015,932,9.94352,-0.291456
798,92,10.3143,-0.171082,0,0,0,0,0,0,0,-1,2022,932,10.3144,0.171075
805,92,0,0,0,0,0,0,0,0,0,-1,2029,932,0,0
812,92,0,0,0,0,0,0,0,0,0,-1,2036,932,0,0
-700,85,0,0,0,0,0,0,0,0,0,-1,524,939,0,0
-693,85,0,0,0,0,0,0,0,0,0,-1,531,939,0,0
-686,85,-4.69025,1.0401,0.049962,-0.107921,0.00202484,0.049988,-0.107947,0.0128221,0.0932081,0.0427489,538,939,-4.69028,-1.04009
-679,85,-5.47925,-1.57294,0.0510724,-0.087747,0.00541796,0.0512835,-0.0879582,0.0389499,0.0813154,0.043408,545,939,-5.47922,1.57293
-672,85,-5.27222,-1.39197,0.0479053,-0.0699154,0.0071073,0.0483325,-0.0703426,0.0600329,0.0689088,0.0438538,552,939,-5.27223,1.39195
-665,85,-5.02625,-1.10858,0.0425778,-0.0544014,0.00776832,0.0431961,-0.0550197,0.079428,0.0568417,0.0439029,559,939,-5.02622,1.10857
-658,85,-4.21527,-0.731262,0.0362509,-0.0411424,0.00778424,0.0370261,-0.0419176,0.0992556,0.0456073,0.0480863,566,939,-4.21525,0.731246
-651,85,-4.37817,0.330627,0.0296714,-0.0300787,0.00736016,0.0305647,-0.030972,0.120777,0.0355285,0.0415029,573,939,-4.37818,-0.330637
-644,85,-4.05231,0.869507,0.0233355,-0.0211364,0.00664264,0.0243065,-0.0221074,0.145147,0.0268071,0.0342268,580,939,-4.05233,-0.869496
-637,85,-3.97205,0.978638,0.0176207,-0.0142963,0.00577683,0.0186341,-0.0153097,0.173659,0.0196287,0.0175503,587,939,-3.97205,-0.978646
-630,85,-3.98456,0.932312,0.0133349,-0.00803505,0.00552891,0.0146806,-0.00938077,0.238754,0.0140037,0.0110701,594,939,-3.98457,-0.932337
-623,85,-3.98657,0.898254,0.00873134,-0.00433932,0.00416874,0.00994772,-0.00555569,0.283903,0.00906983,0.00938438,601,939,-3.98656,-0.898257
-616,85,-4.00269,0.871338,0.00356344,-0.00161352,0.00290964,0.00486934,-0.00291942,0.421872,0.00454357,0.00887861,608,939,-4.00267,-0.871321
-609,85,-4.02277,0.836182,0.00043828,-0.000105777,0.00292092,0.00309981,-0.00276731,0.738967,0.0033892,0.0104182,615,939,-4.02276,-0.836193
-602,85,-4.01642,0.80835,-0.00150255,-5.26517e-05,0.00231224,0.00164562,-0.00320082,0.937308,0.00284571,0.0140584,622,939,-4.01641,-0.808333
-595,85,-3.96893,0.784241,-0.0031351,-0.00018074,0.00159414,0.000515403,-0.00383124,1.15907,0.00274215,0.0147488,629,939,-3.96892,-0.784255
-588,85,-3.97919,0.740845,-0.00402794,-0.000335404,0.00117029,4.25801e-06,-0.0043676,1.28832,0.00291316,0.0142111,636,939,-3.97922,-0.740836
-581,85,-3.99231,0.670044,-0.00449226,-0.000405209,0.000947054,-0.000196423,-0.00470105,1.35381,0.00307065,0.0144312,643,939,-3.99229,-0.670053
-574,85,-4.11194,0.703735,-0.00488911,-0.000260091,0.000796281,-0.000126944,-0.00502226,1.40512,0.00330667,0.0220378,650,939,-4.11192,-0.703739
-567,85,-4.29443,0.793884,-0.00495821,0.000104727,0.000596662,0.000174093,-0.00502757,1.45506,0.00341123,0.0332274,657,939,-4.29445,-0.793893
-560,85,-4.24384,0.757324,-0.00473272,0.000452945,0.000241295,0.000464149,-0.00474393,1.5244,0.00332814,0.03726,664,939,-4.24385,-0.757339
-553,85,-4.36511,0.757385,-0.00419157,0.000974501,-0.00017552,0.000980458,-0.00419752,-1.53687,0.00317602,0.0401099,671,939,-4.36513,-0.757407
-546,85,-4.50269,0.699646,-0.00330652,0.00166683,-0.00069766,0.00176284,-0.00340253,-1.43403,0.0030319,0.0398613,678,939,-4.50266,-0.699676
-539,85,-4.56219,0.654236,-0.00210666,0.00254863,-0.00132916,0.00290139,-0.00245942,-1.31137,0.00309857,0.039238,685,939,-4.56217,-0.654235
-532,85,-4.43048,0.71582,-0.000724504,0.00364082,-0.00205622,0.00445683,-0.00154051,-1.19301,0.00359644,0.0404459,692,939,-4.43048,-0.715809
-525,85,-4.30957,0.711365,0.000568047,0.00491354,-0.00284216,0.00631833,-0.000836737,-1.11175,0.00451704,0.039503,699,939,-4.30955,-0.711377
-518,85,-4.32214,0.795471,0.000989173,0.00635712,-0.00357933,0.008147,-0.000800701,-1.1071,0.00571695,0.0378391,706,939,-4.32214,-0.795456
-511,85,0,0,0,0,0,0,0,0,0,-1,713,939,0,0
-504,85,0,0,0,0,0,0,0,0,0,-1,720,939,0,0
-497,85,0,0,0,0,0,0,0,0,0,-1,727,939,0,0
-490,85,0,0,0,0,0,0,0,0,0,-1,734,939,0,0
-483,85,0,0,0,0,0,0,0,0,0,-1,741,939,0,0
-476,85,0,0,0,0,0,0,0,0,0,-1,748,939,0,0
-469,85,0,0,0,0,0,0,0,0,0,-1,755,939,0,0
-462,85,0,0,0,0,0,0,0,0,0,-1,762,939,0,0
-455,85,0,0,0,0,0,0,0,0,0,-1,769,939,0,0
-448,85,0,0,0,0,0,0,0,0,0,-1,776,939,0,0
-441,85,0,0,0,0,0,0,0,0,0,-1,783,939,0,0
-434,85,0,0,0,0,0,0,0,0,0,-1,790,939,0,0
-427,85,0,0,0,0,0,0,0,0,0,-1,797,939,0,0
-420,85,0,0,0,0,0,0,0,0,0,-1,804,939,0,0
-413,85,0,0,0,0,0,0,0,0,0,-1,811,939,0,0
-406,85,0,0,0,0,0,0,0,0,0,-1,818,939,0,0
-399,85,0,0,0,0,0,0,0,0,0,-1,825,939,0,0
-392,85,0,0,0,0,0,0,0,0,0,-1,832,939,0,0
-385,85,0,0,0,0,0,0,0,0,0,-1,839,939,0,0
-378,85,0,0,0,0,0,0,0,0,0,-1,846,939,0,0
-371,85,0,0,0,0,0,0,0,0,0,-1,853,939,0,0
-364,85,0,0,0,0,0,0,0,0,0,-1,860,939,0,0
-357,85,0,0,0,0,0,0,0,0,0,-1,867,939,0,0
-350,85,0,0,0,0,0,0,0,0,0,-1,874,939,0,0
-343,85,0,0,0,0,0,0,0,0,0,-1,881,939,0,0
-336,85,0,0,0,0,0,0,0,0,0,-1,888,939,0,0
-329,85,0,0,0,0,0,0,0,0,0,-1,895,939,0,0
-322,85,0,0,0,0,0,0,0,0,0,-1,902,939,0,0
-315,85,0,0,0,0,0,0,0,0,0,-1,909,939,0,0
-308,85,0,0,0,0,0,0,0,0,0,-1,916,939,0,0
-301,85,0,0,0,0,0,0,0,0,0,-1,923,939,0,0
-294,85,0,0,0,0,0,0,0,0,0,-1,930,939,0,0
-287,85,0,0,0,0,0,0,0,0,0,-1,937,939,0,0
-280,85,0,0,0,0,0,0,0,0,0,-1,944,939,0,0
-273,85,0,0,0,0,0,0,0,0,0,-1,951,939,0,0
-266,85,0,0,0,0,0,0,0,0,0,-1,958,939,0,0
-259,85,0,0,0,0,0,0,0,0,0,-1,965,939,0,0
-252,85,0,0,0,0,0,0,0,0,0,-1,972,939,0,0
-245,85,0,0,0,0,0,0,0,0,0,-1,979,939,0,0
-238,85,0,0,0,0,0,0,0,0,0,-1,986,939,0,0
-231,85,0,0,0,0,0,0,0,0,0,-1,993,939,0,0
-224,85,0,0,0,0,0,0,0,0,0,-1,1000,939,0,0
-217,85,0,0,0,0,0,0,0,0,0,-1,1007,939,0,0
-210,85,0,0,0,0,0,0,0,0,0,-1,1014,939,0,0
-203,85,0,0,0,0,0,0,0,0,0,-1,1021,939,0,0
-196,85,0,0,0,0,0,0,0,0,0,-1,1028,939,0,0
-189,85,0,0,0,0,0,0,0,0,0,-1,1035,939,0,0
-182,85,0,0,0,0,0,0,0,0,0,-1,1042,939,0,0
-175,85,0,0,0,0,0,0,0,0,0,-1,1049,939,0,0
-168,85,0,0,0,0,0,0,0,0,0,-1,1056,939,0,0
-161,85,0,0,0,0,0,0,0,0,0,-1,1063,939,0,0
-154,85,0,0,0,0,0,0,0,0,0,-1,1070,939,0,0
-147,85,0,0,0,0,0,0,0,0,0,-1,1077,939,0,0
-140,85,0,0,0,0,0,0,0,0,0,-1,1084,939,0,0
-133,85,0,0,0,0,0,0,0,0,0,-1,1091,939,0,0
-126,85,0,0,0,0,0,0,0,0,0,-1,1098,939,0,0
-119,85,0,0,0,0,0,0,0,0,0,-1,1105,939,0,0
-112,85,0,0,0,0,0,0,0,0,0,-1,1112,939,0,0
-105,85,0,0,0,0,0,0,0,0,0,-1,1119,939,0,0
-98,85,0,0,0,0,0,0,0,0,0,-1,1126,939,0,0
-91,85,0,0,0,0,0,0,0,0,0,-1,1133,939,0,0
-84,85,0,0,0,0,0,0,0,0,0,-1,1140,939,0,0
-77,85,0,0,0,0,0,0,0,0,0,-1,1147,939,0,0
-70,85,0,0,0,0,0,0,0,0,0,-1,1154,939,0,0
-63,85,0,0,0,0,0,0,0,0,0,-1,1161,939,0,0
-56,85,0,0,0,0,0,0,0,0,0,-1,1168,939,0,0
-49,85,0,0,0,0,0,0,0,0,0,-1,1175,939,0,0
-42,85,0,0,0,0,0,0,0,0,0,-1,1182,939,0,0
-35,85,0,0,0,0,0,0,0,0,0,-1,1189,939,0,0
-28,85,0,0,0,0,0,0,0,0,0,-1,1196,939,0,0
-21,85,0,0,0,0,0,0,0,0,0,-1,1203,939,0,0
-14,85,0,0,0,0,0,0,0,0,0,-1,1210,939,0,0
-7,85,0,0,0,0,0,0,0,0,0,-1,1217,939,0,0
0,85,0,0,0,0,0,0,0,0,0,-1,1224,939,0,0
7,85,0,0,0,0,0,0,0,0,0,-1,1231,939,0,0
14,85,0,0,0,0,0,0,0,0,0,-1,1238,939,0,0
21,85,0,0,0,0,0,0,0,0,0,-1,1245,939,0,0
28,85,0,0,0,0,0,0,0,0,0,-1,1252,939,0,0
35,85,0,0,0,0,0,0,0,0,0,-1,1259,939,0,0
42,85,0,0,0,0,0,0,0,0,0,-1,1266,939,0,0
49,85,0,0,0,0,0,0,0,0,0,-1,1273,939,0,0
56,85,0,0,0,0,0,0,0,0,0,-1,1280,939,0,0
63,85,0,0,0,0,0,0,0,0,0,-1,1287,939,0,0
70,85,0,0,0,0,0,0,0,0,0,-1,1294,939,0,0
77,85,0,0,0,0,0,0,0,0,0,-1,1301,939,0,0
84,85,0,0,0,0,0,0,0,0,0,-1,1308,939,0,0
91,85,0,0,0,0,0,0,0,0,0,-1,1315,939,0,0
98,85,0,0,0,0,0,0,0,0,0,-1,1322,939,0,0
105,85,0,0,0,0,0,0,0,0,0,-1,1329,939,0,0
112,85,0,0,0,0,0,0,0,0,0,-1,1336,939,0,0
119,85,0,0,0,0,0,0,0,0,0,-1,1343,939,0,0
126,85,0,0,0,0,0,0,0,0,0,-1,1350,939,0,0
133,85,0,0,0,0,0,0,0,0,0,-1,1357,939,0,0
140,85,0,0,0,0,0,0,0,0,0,-1,1364,939,0,0
147,85,0,0,0,0,0,0,0,0,0,-1,1371,939,0,0
154,85,0,0,0,0,0,0,0,0,0,-1,1378,939,0,0
161,85,0,0,0,0,0,0,0,0,0,-1,1385,939,0,0
168,85,0,0,0,0,0,0,0,0,0,-1,1392,939,0,0
175,85,0,0,0,0,0,0,0,0,0,-1,1399,939,0,0
182,85,0,0,0,0,0,0,0,0,0,-1,1406,939,0,0
189,85,0,0,0,0,0,0,0,0,0,-1,1413,939,0,0
196,85,0,0,0,0,0,0,0,0,0,-1,1420,939,0,0
203,85,0,0,0,0,0,0,0,0,0,-1,1427,939,0,0
210,85,0,0,0,0,0,0,0,0,0,-1,1434,939,0,0
217,85,0,0,0,0,0,0,0,0,0,-1,1441,939,0,0
224,85,0,0,0,0,0,0,0,0,0,-1,1448,939,0,0
231,85,0,0,0,0,0,0,0,0,0,-1,1455,939,0,0
238,85,0,0,0,0,0,0,0,0,0,-1,1462,939,0,0
245,85,0,0,0,0,0,0,0,0,0,-1,1469,939,0,0
252,85,0,0,0,0,0,0,0,0,0,-1,1476,939,0,0
259,85,0,0,0,0,0,0,0,0,0,-1,1483,939,0,0
266,85,0,0,0,0,0,0,0,0,0,-1,1490,939,0,0
273,85,0,0,0,0,0,0,0,0,0,-1,1497,939,0,0
280,85,0,0,0,0,0,0,0,0,0,-1,1504,939,0,0
287,85,0,0,0,0,0,0,0,0,0,-1,1511,939,0,0
294,85,0,0,0,0,0,0,0,0,0,-1,1518,939,0,0
301,85,0,0,0,0,0,0,0,0,0,-1,1525,939,0,0
308,85,0,0,0,0,0,0,0,0,0,-1,1532,939,0,0
315,85,0,0,0,0,0,0,0,0,0,-1,1539,939,0,0
322,85,0,0,0,0,0,0,0,0,0,-1,1546,939,0,0
329,85,0,0,0,0,0,0,0,0,0,-1,1553,939,0,0
336,85,0,0,0,0,0,0,0,0,0,-1,1560,939,0,0
343,85,0,0,0,0,0,0,0,0,0,-1,1567,939,0,0
350,85,0,0,0,0,0,0,0,0,0,-1,1574,939,0,0
357,85,0,0,0,0,0,0,0,0,0,-1,1581,939,0,0
364,85,0,0,0,0,0,0,0,0,0,-1,1588,939,0,0
371,85,0,0,0,0,0,0,0,0,0,-1,1595,939,0,0
378,85,0,0,0,0,0,0,0,0,0,-1,1602,939,0,0
385,85,0,0,0,0,0,0,0,0,0,-1,1609,939,0,0
392,85,0,0,0,0,0,0,0,0,0,-1,1616,939,0,0
399,85,0,0,0,0,0,0,0,0,0,-1,1623,939,0,0
406,85,0,0,0,0,0,0,0,0,0,-1,1630,939,0,0
413,85,0,0,0,0,0,0,0,0,0,-1,1637,939,0,0
420,85,0,0,0,0,0,0,0,0,0,-1,1644,939,0,0
427,85,0,0,0,0,0,0,0,0,0,-1,1651,939,0,0
434,85,0,0,0,0,0,0,0,0,0,-1,1658,939,0,0
441,85,0,0,0,0,0,0,0,0,0,-1,1665,939,0,0
448,85,0,0,0,0,0,0,0,0,0,-1,1672,939,0,0
455,85,0,0,0,0,0,0,0,0,0,-1,1679,939,0,0
462,85,0,0,0,0,0,0,0,0,0,-1,1686,939,0,0
469,85,0,0,0,0,0,0,0,0,0,-1,1693,939,0,0
476,85,0,0,0,0,0,0,0,0,0,-1,1700,939,0,0
483,85,0,0,0,0,0,0,0,0,0,-1,1707,939,0,0
490,85,0,0,0,0,0,0,0,0,0,-1,1714,939,0,0
497,85,0,0,0,0,0,0,0,0,0,-1,1721,939,0,0
504,85,0,0,0,0,0,0,0,0,0,-1,1728,939,0,0
511,85,0,0,0,0,0,0,0,0,0,-1,1735,939,0,0
518,85,0,0,0,0,0,0,0,0,0,-1,1742,939,0,0
525,85,0,0,0,0,0,0,0,0,0,-1,1749,939,0,0
532,85,0,0,0,0,0,0,0,0,0,-1,1756,939,0,0
539,85,0,0,0,0,0,0,0,0,0,-1,1763,939,0,0
546,85,0,0,0,0,0,0,0,0,0,-1,1770,939,0,0
553,85,0,0,0,0,0,0,0,0,0,-1,1777,939,0,0
560,85,0,0,0,0,0,0,0,0,0,-1,1784,939,0,0
567,85,0,0,0,0,0,0,0,0,0,-1,1791,939,0,0
574,85,0,0,0,0,0,0,0,0,0,-1,1798,939,0,0
581,85,0,0,0,0,0,0,0,0,0,-1,1805,939,0,0
588,85,0,0,0,0,0,0,0,0,0,-1,1812,939,0,0
595,85,0,0,0,0,0,0,0,0,0,-1,1819,939,0,0
602,85,0,0,0,0,0,0,0,0,0,-1,1826,939,0,0
609,85,0,0,0,0,0,0,0,0,0,-1,1833,939,0,0
616,85,0,0,0,0,0,0,0,0,0,-1,1840,939,0,0
623,85,0,0,0,0,0,0,0,0,0,-1,1847,939,0,0
630,85,0,0,0,0,0,0,0,0,0,-1,1854,939,0,0
637,85,9.71289,2.00085,-0.00232113,0.00285683,-0.00155677,0.00328883,-0.00275314,-1.30011,0.0034929,0.048877,1861,939,9.71289,-2.00086
644,85,9.48328,1.26685,-0.00167251,0.00182774,-0.000699677,0.00196242,-0.00180719,-1.38064,0.002177,0.0424502,1868,939,9.48332,-1.26685
651,85,9.651,1.39612,-0.00129418,0.00105994,-0.000361183,0.00111411,-0.00134835,-1.42193,0.00142384,0.0414797,1875,939,9.65103,-1.39613
658,85,9.5365,1.61346,-0.00174446,0.000514219,-0.000235397,0.000538491,-0.00176873,-1.46805,0.00139377,0.0414024,1882,939,9.53655,-1.61347
665,85,9.58411,1.16107,0,0,0,0,0,0,0,-1,1889,939,9.58407,-1.16109
672,85,9.51685,1.18036,-0.00382594,-0.000102044,-0.000279922,-8.11198e-05,-0.00384686,-1.49619,0.00253797,0.0437226,1896,939,9.51687,-1.18034
679,85,9.53711,1.33936,-0.00487537,-0.000242319,-0.000336021,-0.000218075,-0.00489961,-1.49877,0.0031962,0.0403959,1903,939,9.53709,-1.33934
686,85,9.55115,1.35321,-0.00580083,-0.000337111,-0.000443509,-0.000301344,-0.0058366,-1.49033,0.00379461,0.0350173,1910,939,9.55114,-1.35323
693,85,9.58472,1.30298,-0.00628067,-0.000434273,-0.00030239,-0.000418675,-0.00629627,-1.51926,0.00406515,0.0304025,1917,939,9.58475,-1.30298
700,85,9.5968,1.26904,-0.00668659,-0.000415202,-0.000355265,-0.000395141,-0.00670665,-1.51439,0.00434538,0.0295618,1924,939,9.59677,-1.26905
707,85,9.36511,1.32642,-0.00686194,-0.000334233,-0.000494985,-0.000296912,-0.00689926,-1.49554,0.0045038,0.0358699,1931,939,9.36514,-1.32643
714,85,9.00806,1.4212,-0.00654223,-0.000239103,-0.000515871,-0.000197162,-0.00658417,-1.48967,0.00432522,0.027673,1938,939,9.00801,-1.42117
721,85,9.09277,1.48535,-0.00582539,-1.44008e-05,-0.000620519,5.11219e-05,-0.00589091,-1.46559,0.00394443,0.0202234,1945,939,9.09276,-1.48534
728,85,9.09216,1.55438,-0.00478541,7.5689e-05,-0.000890011,0.000233516,-0.00494324,-1.39529,0.00337602,0.0163655,1952,939,9.0922,-1.55436
735,85,9.04541,1.57288,-0.00324107,0.000359013,-0.0012039,0.000724502,-0.00360656,-1.27605,0.00267873,0.016518,1959,939,9.04536,-1.57287
742,85,9.07654,1.60553,-0.00142352,0.00066781,-0.00137272,0.00134777,-0.00210348,-1.11089,0.00200844,0.0145208,1966,939,9.07652,-1.60555
749,85,9.09106,1.66101,0.000550797,0.00111552,-0.00133103,0.00219381,-0.000527492,-0.889917,0.00166643,0.0124551,1973,939,9.09103,-1.66103
756,85,9.06873,1.71796,0.00283846,0.00157036,-0.00152391,0.00385496,0.000553865,-0.588258,0.00240669,0.0123503,1980,939,9.06876,-1.71797
763,85,9.08435,1.78131,0.00524844,0.00218862,-0.0015598,0.00590338,0.00153368,-0.397535,0.00353699,0.0124657,1987,939,9.0844,-1.78131
770,85,9.10742,1.79224,0.00750705,0.00295615,-0.00135165,0.00787823,0.00258497,-0.268004,0.00463722,0.0173148,1994,939,9.10738,-1.79224
777,85,9.19324,1.52277,0.00985412,0.00391378,-0.000729637,0.00994243,0.00382547,-0.120442,0.00579086,0.0379565,2001,939,9.19326,-1.52275
784,85,9.35181,1.14948,0.012399,0.00509038,0.000532407,0.0124376,0.0050518,0.0723374,0.00722287,0.0449113,2008,939,9.35176,-1.14948
791,85,9.44495,1.12427,0.0151487,0.00652146,0.00265707,0.0159014,0.00576879,0.27604,0.00929519,0.0474784,2015,939,9.44498,-1.12426
798,85,9.54248,1.05292,0,0,0,0,0,0,0,-1,2022,939,9.54245,-1.05292
805,85,8.50586,2.75085,0,0,0,0,0,0,0,-1,2029,939,8.50587,-2.75087
812,85,0,0,0,0,0,0,0,0,0,-1,2036,939,0,0
-700,78,0,0,0,0,0,0,0,0,0,-1,524,946,0,0
-693,78,0,0,0,0,0,0,0,0,0,-1,531,946,0,0
-686,78,-4.54755,1.17328,0.0409751,-0.0954286,-1.88651e-05,0.0409751,-0.0954286,-0.000138304,0.0808174,0.0419908,538,946,-4.54756,-1.17328
-679,78,-4.64734,0.874146,0.0439504,-0.0786352,0.00263069,0.0440068,-0.0786916,0.0214469,0.0717772,0.0461266,545,946,-4.64734,-0.874142
-672,78,-5.38153,-0.958374,0.0424294,-0.0632663,0.00404124,0.0425837,-0.0634206,0.0381604,0.0615945,0.0454909,552,946,-5.38152,0.958404
-665,78,-4.94183,-0.79895,0.0384891,-0.0496168,0.00469718,0.0387388,-0.0498665,0.0531123,0.0512906,0.0452151,559,946,-4.94184,0.798944
-658,78,-4.53308,-0.376526,0.0332952,-0.037791,0.00487494,0.033628,-0.0381237,0.0681526,0.041453,0.0452836,566,946,-4.53307,0.376525
-651,78,-4.2179,0.269226,0.0276196,-0.0278238,0.00472158,0.0280188,-0.028223,0.084351,0.0324713,0.0410285,573,946,-4.21792,-0.269203
-644,78,-4.00262,0.965149,0.0219802,-0.0197012,0.00434629,0.0224286,-0.0201496,0.102801,0.0245943,0.0256024,580,946,-4.00264,-0.965128
-637,78,-4.00745,0.968811,0.0168607,-0.0135524,0.00384437,0.0173391,-0.0140309,0.123811,0.018145,0.0130728,587,946,-4.00742,-0.968802
-630,78,-4.01532,0.918701,0.012927,-0.0077585,0.00390502,0.0136396,-0.00847114,0.180507,0.0128814,0.0129187,594,946,-4.01532,-0.918671
-623,78,-4.02814,0.881775,0.00858979,-0.00418604,0.00297236,0.00924747,-0.00484371,0.217756,0.00826692,0.0118969,601,946,-4.02815,-0.881773
-616,78,-4.03668,0.86554,0.00361564,-0.0016316,0.00201526,0.00430029,-0.00231625,0.3275,0.00387689,0.0102199,608,946,-4.03667,-0.86553
-609,78,-4.03906,0.83783,0.00062636,-0.00020747,0.00226526,0.00251276,-0.00209387,0.694393,0.0026633,0.010139,615,946,-4.03906,-0.837804
-602,78,-4.03943,0.803772,-0.00124979,-5.17004e-05,0.00181696,0.00126242,-0.00256391,0.944635,0.00225133,0.012941,622,946,-4.03945,-0.803753
-595,78,-4.01245,0.761597,-0.00279217,-0.00012737,0.00124957,0.000366897,-0.00328643,1.19413,0.00232293,0.0132431,629,946,-4.01244,-0.761626
-588,78,-4.0152,0.7547,-0.00352174,-0.00026177,0.000930567,-1.48407e-05,-0.00376867,1.31142,0.00250751,0.0116072,636,946,-4.01518,-0.754699
-581,78,-4.04645,0.719055,-0.00384237,-0.000338142,0.00074129,-0.00018778,-0.00399273,1.37067,0.00260149,0.0151092,643,946,-4.04643,-0.719055
-574,78,-4.18457,0.71875,-0.0041416,-0.000276754,0.000597592,-0.000186462,-0.00423189,1.42084,0.0027612,0.0213883,650,946,-4.18458,-0.718761
-567,78,-4.35638,0.738281,-0.00411175,2.84058e-05,0.000420131,7.06094e-05,-0.00415396,1.47068,0.00279314,0.0309253,657,946,-4.35638,-0.738289
-560,78,-4.24573,0.76239,-0.00380829,0.000294822,0.000119056,0.000298274,-0.00381174,1.54181,0.00264619,0.0327796,664,946,-4.24571,-0.762361
-553,78,-4.29773,0.701233,-0.00321536,0.0006868,-0.00021137,0.000698216,-0.00322677,-1.51684,0.00241776,0.0396789,671,946,-4.29774,-0.701224
-546,78,-4.4303,0.640015,-0.00233874,0.00120595,-0.000598573,0.0013043,-0.00243708,-1.40795,0.00219285,0.0404535,678,946,-4.43033,-0.640022
-539,78,-4.40802,0.659424,-0.00122964,0.0018678,-0.00104158,0.00218547,-0.00154731,-1.27477,0.00216559,0.0373742,685,946,-4.40802,-0.659413
-532,78,-4.28625,0.725891,-5.86867e-05,0.0026934,-0.00151231,0.003362,-0.000727287,-1.15453,0.00251901,0.0387798,692,946,-4.28625,-0.725864
-525,78,-4.28412,0.598511,0.000824003,0.00364965,-0.001965,0.00465702,-0.000183361,-1.09708,0.00316757,0.0403634,699,946,-4.28413,-0.59852
-518,78,-4.26978,0.640503,0.000569102,0.00473009,-0.00235505,0.005792,-0.000492814,-1.14719,0.00403565,0.0409509,706,946,-4.26979,-0.640505
-511,78,0,0,0,0,0,0,0,0,0,-1,713,946,0,0
-504,78,0,0,0,0,0,0,0,0,0,-1,720,946,0,0
-497,78,0,0,0,0,0,0,0,0,0,-1,727,946,0,0
-490,78,0,0,0,0,0,0,0,0,0,-1,734,946,0,0
-483,78,0,0,0,0,0,0,0,0,0,-1,741,946,0,0
-476,78,0,0,0,0,0,0,0,0,0,-1,748,946,0,0
-469,78,0,0,0,0,0,0,0,0,0,-1,755,946,0,0
-462,78,0,0,0,0,0,0,0,0,0,-1,762,946,0,0
-455,78,0,0,0,0,0,0,0,0,0,-1,769,946,0,0
-448,78,0,0,0,0,0,0,0,0,0,-1,776,946,0,0
-441,78,0,0,0,0,0,0,0,0,0,-1,783,946,0,0
-434,78,0,0,0,0,0,0,0,0,0,-1,790,946,0,0
-427,78,0,0,0,0,0,0,0,0,0,-1,797,946,0,0
-420,78,0,0,0,0,0,0,0,0,0,-1,804,946,0,0
-413,78,0,0,0,0,0,0,0,0,0,-1,811,946,0,0
-406,78,0,0,0,0,0,0,0,0,0,-1,818,946,0,0
-399,78,0,0,0,0,0,0,0,0,0,-1,825,946,0,0
-392,78,0,0,0,0,0,0,0,0,0,-1,832,946,0,0
-385,78,0,0,0,0,0,0,0,0,0,-1,839,946,0,0
-378,78,0,0,0,0,0,0,0,0,0,-1,846,946,0,0
-371,78,0,0,0,0,0,0,0,0,0,-1,853,946,0,0
-364,78,0,0,0,0,0,0,0,0,0,-1,860,946,0,0
-357,78,0,0,0,0,0,0,0,0,0,-1,867,946,0,0
-350,78,0,0,0,0,0,0,0,0,0,-1,874,946,0,0
-343,78,0,0,0,0,0,0,0,0,0,-1,881,946,0,0
-336,78,0,0,0,0,0,0,0,0,0,-1,888,946,0,0
-329,78,0,0,0,0,0,0,0,0,0,-1,895,946,0,0
-322,78,0,0,0,0,0,0,0,0,0,-1,902,946,0,0
-315,78,0,0,0,0,0,0,0,0,0,-1,909,946,0,0
-308,78,0,0,0,0,0,0,0,0,0,-1,916,946,0,0
-301,78,0,0,0,0,0,0,0,0,0,-1,923,946,0,0
-294,78,0,0,0,0,0,0,0,0,0,-1,930,946,0,0
-287,78,0,0,0,0,0,0,0,0,0,-1,937,946,0,0
-280,78,0,0,0,0,0,0,0,0,0,-1,944,946,0,0
-273,78,0,0,0,0,0,0,0,0,0,-1,951,946,0,0
-266,78,0,0,0,0,0,0,0,0,0,-1,958,946,0,0
-259,78,0,0,0,0,0,0,0,0,0,-1,965,946,0,0
-252,78,0,0,0,0,0,0,0,0,0,-1,972,946,0,0
-245,78,0,0,0,0,0,0,0,0,0,-1,979,946,0,0
-238,78,0,0,0,0,0,0,0,0,0,-1,986,946,0,0
-231,78,0,0,0,0,0,0,0,0,0,-1,993,946,0,0
-224,78,0,0,0,0,0,0,0,0,0,-1,1000,946,0,0
-217,78,0,0,0,0,0,0,0,0,0,-1,1007,946,0,0
-210,78,0,0,0,0,0,0,0,0,0,-1,1014,946,0,0
-203,78,0,0,0,0,0,0,0,0,0,-1,1021,946,0,0
-196,78,0,0,0,0,0,0,0,0,0,-1,1028,946,0,0
-189,78,0,0,0,0,0,0,0,0,0,-1,1035,946,0,0
-182,78,0,0,0,0,0,0,0,0,0,-1,1042,946,0,0
-175,78,0,0,0,0,0,0,0,0,0,-1,1049,946,0,0
-168,78,0,0,0,0,0,0,0,0,0,-1,1056,946,0,0
-161,78,0,0,0,0,0,0,0,0,0,-1,1063,946,0,0
-154,78,0,0,0,0,0,0,0,0,0,-1,1070,946,0,0
-147,78,0,0,0,0,0,0,0,0,0,-1,1077,946,0,0
-140,78,0,0,0,0,0,0,0,0,0,-1,1084,946,0,0
-133,78,0,0,0,0,0,0,0,0,0,-1,1091,946,0,0
-126,78,0,0,0,0,0,0,0,0,0,-1,1098,946,0,0
-119,78,0,0,0,0,0,0,0,0,0,-1,1105,946,0,0
-112,78,0,0,0,0,0,0,0,0,0,-1,1112,946,0,0
-105,78,0,0,0,0,0,0,0,0,0,-1,1119,946,0,0
-98,78,0,0,0,0,0,0,0,0,0,-1,1126,946,0,0
-91,78,0,0,0,0,0,0,0,0,0,-1,1133,946,0,0
-84,78,0,0,0,0,0,0,0,0,0,-1,1140,946,0,0
-77,78,0,0,0,0,0,0,0,0,0,-1,1147,946,0,0
-70,78,0,0,0,0,0,0,0,0,0,-1,1154,946,0,0
-63,78,0,0,0,0,0,0,0,0,0,-1,1161,946,0,0
-56,78,0,0,0,0,0,0,0,0,0,-1,1168,946,0,0
-49,78,0,0,0,0,0,0,0,0,0,-1,1175,946,0,0
-42,78,0,0,0,0,0,0,0,0,0,-1,1182,946,0,0
-35,78,0,0,0,0,0,0,0,0,0,-1,1189,946,0,0
-28,78,0,0,0,0,0,0,0,0,0,-1,1196,946,0,0
-21,78,0,0,0,0,0,0,0,0,0,-1,1203,946,0,0
-14,78,0,0,0,0,0,0,0,0,0,-1,1210,946,0,0
-7,78,0,0,0,0,0,0,0,0,0,-1,1217,946,0,0
0,78,0,0,0,0,0,0,0,0,0,-1,1224,946,0,0
7,78,0,0,0,0,0,0,0,0,0,-1,1231,946,0,0
14,78,0,0,0,0,0,0,0,0,0,-1,1238,946,0,0
21,78,0,0,0,0,0,0,0,0,0,-1,1245,946,0,0
28,78,0,0,0,0,0,0,0,0,0,-1,1252,946,0,0
35,78,0,0,0,0,0,0,0,0,0,-1,1259,946,0,0
42,78,0,0,0,0,0,0,0,0,0,-1,1266,946,0,0
49,78,0,0,0,0,0,0,0,0,0,-1,1273,946,0,0
56,78,0,0,0,0,0,0,0,0,0,-1,1280,946,0,0
63,78,0,0,0,0,0,0,0,0,0,-1,1287,946,0,0
70,78,0,0,0,0,0,0,0,0,0,-1,1294,946,0,0
77,78,0,0,0,0,0,0,0,0,0,-1,1301,946,0,0
84,78,0,0,0,0,0,0,0,0,0,-1,1308,946,0,0
91,78,0,0,0,0,0,0,0,0,0,-1,1315,946,0,0
98,78,0,0,0,0,0,0,0,0,0,-1,1322,946,0,0
105,78,0,0,0,0,0,0,0,0,0,-1,1329,946,0,0
112,78,0,0,0,0,0,0,0,0,0,-1,1336,946,0,0
119,78,0,0,0,0,0,0,0,0,0,-1,1343,946,0,0
126,78,0,0,0,0,0,0,0,0,0,-1,1350,946,0,0
133,78,0,0,0,0,0,0,0,0,0,-1,1357,946,0,0
140,78,0,0,0,0,0,0,0,0,0,-1,1364,946,0,0
147,78,0,0,0,0,0,0,0,0,0,-1,1371,946,0,0
154,78,0,0,0,0,0,0,0,0,0,-1,1378,946,0,0
161,78,0,0,0,0,0,0,0,0,0,-1,1385,946,0,0
168,78,0,0,0,0,0,0,0,0,0,-1,1392,946,0,0
175,78,0,0,0,0,0,0,0,0,0,-1,1399,946,0,0
182,78,0,0,0,0,0,0,0,0,0,-1,1406,946,0,0
189,78,0,0,0,0,0,0,0,0,0,-1,1413,946,0,0
196,78,0,0,0,0,0,0,0,0,0,-1,1420,946,0,0
203,78,0,0,0,0,0,0,0,0,0,-1,1427,946,0,0
210,78,0,0,0,0,0,0,0,0,0,-1,1434,946,0,0
217,78,0,0,0,0,0,0,0,0,0,-1,1441,946,0,0
224,78,0,0,0,0,0,0,0,0,0,-1,1448,946,0,0
231,78,0,0,0,0,0,0,0,0,0,-1,1455,946,0,0
238,78,0,0,0,0,0,0,0,0,0,-1,1462,946,0,0
245,78,0,0,0,0,0,0,0,0,0,-1,1469,946,0,0
252,78,0,0,0,0,0,0,0,0,0,-1,1476,946,0,0
259,78,0,0,0,0,0,0,0,0,0,-1,1483,946,0,0
266,78,0,0,0,0,0,0,0,0,0,-1,1490,946,0,0
273,78,0,0,0,0,0,0,0,0,0,-1,1497,946,0,0
280,78,0,0,0,0,0,0,0,0,0,-1,1504,946,0,0
287,78,0,0,0,0,0,0,0,0,0,-1,1511,946,0,0
294,78,0,0,0,0,0,0,0,0,0,-1,1518,946,0,0
301,78,0,0,0,0,0,0,0,0,0,-1,1525,946,0,0
308,78,0,0,0,0,0,0,0,0,0,-1,1532,946,0,0
315,78,0,0,0,0,0,0,0,0,0,-1,1539,946,0,0
322,78,0,0,0,0,0,0,0,0,0,-1,1546,946,0,0
329,78,0,0,0,0,0,0,0,0,0,-1,1553,946,0,0
336,78,0,0,0,0,0,0,0,0,0,-1,1560,946,0,0
343,78,0,0,0,0,0,0,0,0,0,-1,1567,946,0,0
350,78,0,0,0,0,0,0,0,0,0,-1,1574,946,0,0
357,78,0,0,0,0,0,0,0,0,0,-1,1581,946,0,0
364,78,0,0,0,0,0,0,0,0,0,-1,1588,946,0,0
371,78,0,0,0,0,0,0,0,0,0,-1,1595,946,0,0
378,78,0,0,0,0,0,0,0,0,0,-1,1602,946,0,0
385,78,0,0,0,0,0,0,0,0,0,-1,1609,946,0,0
392,78,0,0,0,0,0,0,0,0,0,-1,1616,946,0,0
399,78,0,0,0,0,0,0,0,0,0,-1,1623,946,0,0
406,78,0,0,0,0,0,0,0,0,0,-1,1630,946,0,0
413,78,0,0,0,0,0,0,0,0,0,-1,1637,946,0,0
420,78,0,0,0,0,0,0,0,0,0,-1,1644,946,0,0
427,78,0,0,0,0,0,0,0,0,0,-1,1651,946,0,0
434,78,0,0,0,0,0,0,0,0,0,-1,1658,946,0,0
441,78,0,0,0,0,0,0,0,0,0,-1,1665,946,0,0
448,78,0,0,0,0,0,0,0,0,0,-1,1672,946,0,0
455,78,0,0,0,0,0,0,0,0,0,-1,1679,946,0,0
462,78,0,0,0,0,0,0,0,0,0,-1,1686,946,0,0
469,78,0,0,0,0,0,0,0,0,0,-1,1693,946,0,0
476,78,0,0,0,0,0,0,0,0,0,-1,1700,946,0,0
483,78,0,0,0,0,0,0,0,0,0,-1,1707,946,0,0
490,78,0,0,0,0,0,0,0,0,0,-1,1714,946,0,0
497,78,0,0,0,0,0,0,0,0,0,-1,1721,946,0,0
504,78,0,0,0,0,0,0,0,0,0,-1,1728,946,0,0
511,78,0,0,0,0,0,0,0,0,0,-1,1735,946,0,0
518,78,0,0,0,0,0,0,0,0,0,-1,1742,946,0,0
525,78,0,0,0,0,0,0,0,0,0,-1,1749,946,0,0
532,78,0,0,0,0,0,0,0,0,0,-1,1756,946,0,0
539,78,0,0,0,0,0,0,0,0,0,-1,1763,946,0,0
546,78,0,0,0,0,0,0,0,0,0,-1,1770,946,0,0
553,78,0,0,0,0,0,0,0,0,0,-1,1777,946,0,0
560,78,0,0,0,0,0,0,0,0,0,-1,1784,946,0,0
567,78,0,0,0,0,0,0,0,0,0,-1,1791,946,0,0
574,78,0,0,0,0,0,0,0,0,0,-1,1798,946,0,0
581,78,0,0,0,0,0,0,0,0,0,-1,1805,946,0,0
588,78,0,0,0,0,0,0,0,0,0,-1,1812,946,0,0
595,78,0,0,0,0,0,0,0,0,0,-1,1819,946,0,0
602,78,0,0,0,0,0,0,0,0,0,-1,1826,946,0,0
609,78,0,0,0,0,0,0,0,0,0,-1,1833,946,0,0
616,78,0,0,0,0,0,0,0,0,0,-1,1840,946,0,0
623,78,0,0,0,0,0,0,0,0,0,-1,1847,946,0,0
630,78,0,0,0,0,0,0,0,0,0,-1,1854,946,0,0
637,78,9.8457,1.64233,-0.00278418,0.00358096,-0.00194736,0.00412947,-0.00333269,-1.29624,0.00431646,0.0454847,1861,946,9.84566,-1.64234
644,78,9.45923,1.19641,-0.00200252,0.00231559,-0.000950027,0.00251536,-0.00220229,-1.36353,0.00272574,0.0426009,1868,946,9.45927,-1.19642
651,78,9.60022,1.23822,-0.00134143,0.00137811,-0.00050968,0.0014705,-0.00143381,-1.39149,0.00167685,0.0411421,1875,946,9.60024,-1.23822
658,78,9.68567,1.37207,-0.00146153,0.000710175,-0.000287527,0.000747598,-0.00149895,-1.44137,0.00132101,0.0393524,1882,946,9.68572,-1.37206
665,78,9.69556,1.2923,-0.00223753,0.000262059,-0.000196334,0.000277386,-0.00225286,-1.49289,0.00160239,0.040891,1889,946,9.69555,-1.29229
672,78,9.55969,1.31061,-0.00321978,-2.56579e-05,-0.000172591,-1.63593e-05,-0.00322908,-1.51697,0.00214729,0.0426304,1896,946,9.55969,-1.31063
679,78,9.45532,1.38318,-0.00421947,-0.000198004,-0.000160108,-0.00019164,-0.00422584,-1.53107,0.00275557,0.0403242,1903,946,9.45529,-1.38316
686,78,9.52271,1.35699,-0.00511789,-0.000306006,-0.000206701,-0.000297144,-0.00512675,-1.52795,0.00332322,0.0368167,1910,946,9.52275,-1.35697
693,78,9.56775,1.27509,-0.00560024,-0.000423117,-4.55526e-05,-0.000422716,-0.00560065,-1.562,0.00360114,0.031871,1917,946,9.56776,-1.2751
700,78,9.56799,1.26581,-0.00605491,-0.000394382,-0.000102358,-0.000392532,-0.00605676,-1.55272,0.00391357,0.0278786,1924,946,9.568,-1.2658
707,78,9.5116,1.41724,-0.00635875,-0.000315057,-0.000240899,-0.00030547,-0.00636834,-1.53102,0.00414749,0.0348638,1931,946,9.51165,-1.41725
714,78,9.19373,1.43726,-0.00620381,-0.000230704,-0.000254091,-0.000219915,-0.0062146,-1.52836,0.00407174,0.0230859,1938,946,9.19369,-1.43725
721,78,9.13281,1.48035,-0.0056373,-3.2431e-05,-0.000344077,-1.13875e-05,-0.00565834,-1.50971,0.00376844,0.0176781,1945,946,9.13281,-1.48033
728,78,9.17603,1.54852,-0.00473005,2.25946e-05,-0.000617691,0.000101563,-0.00480901,-1.44364,0.00324039,0.0201168,1952,946,9.17607,-1.5485
735,78,9.13489,1.60132,-0.00341323,0.000237388,-0.00096745,0.000477923,-0.00365376,-1.32711,0.00260978,0.0149078,1959,946,9.13485,-1.60133
742,78,9.15076,1.62451,-0.0018757,0.000415937,-0.00116199,0.000902024,-0.00236179,-1.17459,0.00194617,0.0134745,1966,946,9.15076,-1.62451
749,78,9.14197,1.66449,-0.000168166,0.000696364,-0.00121316,0.00155197,-0.00102377,-0.956542,0.00149749,0.0122245,1973,946,9.14194,-1.66448
756,78,9.12,1.70093,0.0018249,0.000954214,-0.00147,0.00292267,-0.000143553,-0.641437,0.00199802,0.0132306,1980,946,9.12001,-1.70091
763,78,9.12537,1.75879,0.00400706,0.00131541,-0.00157965,0.00473645,0.000586013,-0.432577,0.00298156,0.012131,1987,946,9.12536,-1.75876
770,78,9.13477,1.77545,0.00600539,0.0017497,-0.00149913,0.00648046,0.00127464,-0.30688,0.00396433,0.0156305,1994,946,9.13476,-1.77543
777,78,9.05676,1.70227,0.00800586,0.00230243,-0.00108045,0.00820368,0.00210461,-0.181083,0.00491999,0.0356432,2001,946,9.05682,-1.70227
784,78,8.94629,1.63788,0,0,0,0,0,0,0,-1,2008,946,8.94632,-1.63787
791,78,9.20239,1.13727,0,0,0,0,0,0,0,-1,2015,946,9.20235,-1.13725
798,78,7.96985,1.80798,0,0,0,0,0,0,0,-1,2022,946,7.96986,-1.808
805,78,7.65198,1.60291,0,0,0,0,0,0,0,-1,2029,946,7.65192,-1.60293
812,78,0,0,0,0,0,0,0,0,0,-1,2036,946,0,0
-700,71,0,0,0,0,0,0,0,0,0,-1,524,953,0,0
-693,71,0,0,0,0,0,0,0,0,0,-1,531,953,0,0
-686,71,-4.44849,1.59705,0.029535,-0.0804433,0.000410025,0.0295365,-0.0804448,0.00372816,0.0657262,0.0414262,538,953,-4.44851,-1.59703
-679,71,-4.54492,1.58972,0.0342145,-0.0674289,0.00153754,0.0342377,-0.0674522,0.0151222,0.0597455,0.0437098,545,953,-4.54493,-1.58975
-672,71,-4.56268,1.76581,0.0344541,-0.0549392,0.00210027,0.0345034,-0.0549885,0.0234774,0.0521174,0.0448135,552,953,-4.56266,-1.76581
-665,71,-2.9162,2.94501,0.0321568,-0.0435123,0.00233509,0.0322288,-0.0435843,0.0308202,0.0439341,0.0451971,559,953,-2.91617,-2.94502
-658,71,-4.88977,-0.290955,0.0284156,-0.0334036,0.00237955,0.0285071,-0.033495,0.0384163,0.0358355,0.0445039,566,953,-4.88976,0.290929
-651,71,-3.92126,1.05902,0.0239741,-0.0247521,0.00229592,0.0240821,-0.02486,0.04698,0.0282579,0.0462254,573,953,-3.92125,-1.05901
-644,71,-4.0072,1.00281,0.0193443,-0.0176191,0.00213308,0.019467,-0.0177418,0.0574537,0.0214902,0.0313997,580,953,-4.00723,-1.00281
-637,71,-4.05347,0.980103,0.0151186,-0.0123131,0.0018933,0.0152486,-0.0124431,0.0685855,0.0160152,0.013567,587,953,-4.05349,-0.980126
-630,71,-4.07416,0.924133,0.011754,-0.00712622,0.0021952,0.0120058,-0.00737809,0.11424,0.0112971,0.0126212,594,953,-4.07417,-0.924108
-623,71,-4.08813,0.879578,0.00790352,-0.00377906,0.00166747,0.00813686,-0.0040124,0.139033,0.00714784,0.0121892,601,953,-4.08815,-0.87957
-616,71,-4.08698,0.855408,0.00333577,-0.00142351,0.00105824,0.00356047,-0.00164821,0.209222,0.00307404,0.012114,608,953,-4.08695,-0.855394
-609,71,-4.07196,0.834106,0.000684387,-0.000133157,0.00148266,0.0018136,-0.00126237,0.650889,0.00178539,0.0128843,615,953,-4.07197,-0.834081
-602,71,-4.05237,0.778687,-0.00106974,1.32779e-05,0.00129958,0.000879656,-0.00193612,0.982799,0.00166339,0.0135675,622,953,-4.05236,-0.778715
-595,71,-4.06476,0.742859,-0.00248291,-2.36288e-05,0.000928472,0.000287534,-0.00279407,1.24743,0.00196558,0.0145526,629,953,-4.06476,-0.742842
-588,71,-4.07813,0.735901,-0.00302949,-0.000148435,0.000720421,2.16665e-05,-0.00319959,1.33893,0.00214032,0.0147729,636,953,-4.07813,-0.735927
-581,71,-4.12067,0.783691,-0.00322199,-0.000259496,0.000582492,-0.00014908,-0.00333241,1.38346,0.00217362,0.0204306,643,953,-4.12069,-0.783661
-574,71,-4.26099,0.772705,-0.00345018,-0.000278793,0.000434291,-0.000220396,-0.00350858,1.43713,0.00226916,0.0265408,650,953,-4.26099,-0.772705
-567,71,-4.34076,0.708496,-0.00334201,-4.84512e-05,0.000285722,-2.38481e-05,-0.00336662,1.4849,0.0022365,0.0206584,657,953,-4.34074,-0.708476
-560,71,-4.33136,0.774719,-0.0029828,0.000126409,5.1433e-05,0.000127259,-0.00298365,1.55426,0.00203285,0.0276248,664,953,-4.33136,-0.774713
-553,71,-4.40247,0.730835,-0.0023828,0.000383331,-0.000184365,0.000395565,-0.00239504,-1.50454,0.00174357,0.0377541,671,953,-4.40248,-0.730817
-546,71,-4.41315,0.66864,-0.00156008,0.00073323,-0.000433076,0.000812288,-0.00163914,-1.39023,0.00144192,0.0387286,678,953,-4.41316,-0.668623
-539,71,-4.34192,0.652527,-0.000576869,0.00119407,-0.000689786,0.00143104,-0.000813834,-1.23989,0.0013123,0.0381151,685,953,-4.3419,-0.652501
-532,71,-4.27594,0.623779,0.000373701,0.00179593,-0.000913897,0.00224279,-7.31521e-05,-1.11602,0.00152016,0.041635,692,953,-4.27594,-0.62377
-525,71,-4.38843,0.593872,0.000888346,0.00252736,-0.00105145,0.00304095,0.000374757,-1.11643,0.00191464,0.0432586,699,953,-4.38841,-0.593871
-518,71,0,0,0,0,0,0,0,0,0,-1,706,953,0,0
-511,71,0,0,0,0,0,0,0,0,0,-1,713,953,0,0
-504,71,0,0,0,0,0,0,0,0,0,-1,720,953,0,0
-497,71,0,0,0,0,0,0,0,0,0,-1,727,953,0,0
-490,71,0,0,0,0,0,0,0,0,0,-1,734,953,0,0
-483,71,0,0,0,0,0,0,0,0,0,-1,741,953,0,0
-476,71,0,0,0,0,0,0,0,0,0,-1,748,953,0,0
-469,71,0,0,0,0,0,0,0,0,0,-1,755,953,0,0
-462,71,0,0,0,0,0,0,0,0,0,-1,762,953,0,0
-455,71,0,0,0,0,0,0,0,0,0,-1,769,953,0,0
-448,71,0,0,0,0,0,0,0,0,0,-1,776,953,0,0
-441,71,0,0,0,0,0,0,0,0,0,-1,783,953,0,0
-434,71,0,0,0,0,0,0,0,0,0,-1,790,953,0,0
-427,71,0,0,0,0,0,0,0,0,0,-1,797,953,0,0
-420,71,0,0,0,0,0,0,0,0,0,-1,804,953,0,0
-413,71,0,0,0,0,0,0,0,0,0,-1,811,953,0,0
-406,71,0,0,0,0,0,0,0,0,0,-1,818,953,0,0
-399,71,0,0,0,0,0,0,0,0,0,-1,825,953,0,0
-392,71,0,0,0,0,0,0,0,0,0,-1,832,953,0,0
-385,71,0,0,0,0,0,0,0,0,0,-1,839,953,0,0
-378,71,0,0,0,0,0,0,0,0,0,-1,846,953,0,0
-371,71,0,0,0,0,0,0,0,0,0,-1,853,953,0,0
-364,71,0,0,0,0,0,0,0,0,0,-1,860,953,0,0
-357,71,0,0,0,0,0,0,0,0,0,-1,867,953,0,0
-350,71,0,0,0,0,0,0,0,0,0,-1,874,953,0,0
-343,71,0,0,0,0,0,0,0,0,0,-1,881,953,0,0
-336,71,0,0,0,0,0,0,0,0,0,-1,888,953,0,0
-329,71,0,0,0,0,0,0,0,0,0,-1,895,953,0,0
-322,71,0,0,0,0,0,0,0,0,0,-1,902,953,0,0
-315,71,0,0,0,0,0,0,0,0,0,-1,909,953,0,0
-308,71,0,0,0,0,0,0,0,0,0,-1,916,953,0,0
-301,71,0,0,0,0,0,0,0,0,0,-1,923,953,0,0
-294,71,0,0,0,0,0,0,0,0,0,-1,930,953,0,0
-287,71,0,0,0,0,0,0,0,0,0,-1,937,953,0,0
-280,71,0,0,0,0,0,0,0,0,0,-1,944,953,0,0
-273,71,0,0,0,0,0,0,0,0,0,-1,951,953,0,0
-266,71,0,0,0,0,0,0,0,0,0,-1,958,953,0,0
-259,71,0,0,0,0,0,0,0,0,0,-1,965,953,0,0
-252,71,0,0,0,0,0,0,0,0,0,-1,972,953,0,0
-245,71,0,0,0,0,0,0,0,0,0,-1,979,953,0,0
-238,71,0,0,0,0,0,0,0,0,0,-1,986,953,0,0
-231,71,0,0,0,0,0,0,0,0,0,-1,993,953,0,0
-224,71,0,0,0,0,0,0,0,0,0,-1,1000,953,0,0
-217,71,0,0,0,0,0,0,0,0,0,-1,1007,953,0,0
-210,71,0,0,0,0,0,0,0,0,0,-1,1014,953,0,0
-203,71,0,0,0,0,0,0,0,0,0,-1,1021,953,0,0
-196,71,0,0,0,0,0,0,0,0,0,-1,1028,953,0,0
-189,71,0,0,0,0,0,0,0,0,0,-1,1035,953,0,0
-182,71,0,0,0,0,0,0,0,0,0,-1,1042,953,0,0
-175,71,0,0,0,0,0,0,0,0,0,-1,1049,953,0,0
-168,71,0,0,0,0,0,0,0,0,0,-1,1056,953,0,0
-161,71,0,0,0,0,0,0,0,0,0,-1,1063,953,0,0
-154,71,0,0,0,0,0,0,0,0,0,-1,1070,953,0,0
-147,71,0,0,0,0,0,0,0,0,0,-1,1077,953,0,0
-140,71,0,0,0,0,0,0,0,0,0,-1,1084,953,0,0
-133,71,0,0,0,0,0,0,0,0,0,-1,1091,953,0,0
-126,71,0,0,0,0,0,0,0,0,0,-1,1098,953,0,0
-119,71,0,0,0,0,0,0,0,0,0,-1,1105,953,0,0
-112,71,0,0,0,0,0,0,0,0,0,-1,1112,953,0,0
-105,71,0,0,0,0,0,0,0,0,0,-1,1119,953,0,0
-98,71,0,0,0,0,0,0,0,0,0,-1,1126,953,0,0
-91,71,0,0,0,0,0,0,0,0,0,-1,1133,953,0,0
-84,71,0,0,0,0,0,0,0,0,0,-1,1140,953,0,0
-77,71,0,0,0,0,0,0,0,0,0,-1,1147,953,0,0
-70,71,0,0,0,0,0,0,0,0,0,-1,1154,953,0,0
-63,71,0,0,0,0,0,0,0,0,0,-1,1161,953,0,0
-56,71,0,0,0,0,0,0,0,0,0,-1,1168,953,0,0
-49,71,0,0,0,0,0,0,0,0,0,-1,1175,953,0,0
-42,71,0,0,0,0,0,0,0,0,0,-1,1182,953,0,0
-35,71,0,0,0,0,0,0,0,0,0,-1,1189,953,0,0
-28,71,0,0,0,0,0,0,0,0,0,-1,1196,953,0,0
-21,71,0,0,0,0,0,0,0,0,0,-1,1203,953,0,0
-14,71,0,0,0,0,0,0,0,0,0,-1,1210,953,0,0
-7,71,0,0,0,0,0,0,0,0,0,-1,1217,953,0,0
0,71,0,0,0,0,0,0,0,0,0,-1,1224,953,0,0
7,71,0,0,0,0,0,0,0,0,0,-1,1231,953,0,0
14,71,0,0,0,0,0,0,0,0,0,-1,1238,953,0,0
21,71,0,0,0,0,0,0,0,0,0,-1,1245,953,0,0
28,71,0,0,0,0,0,0,0,0,0,-1,1252,953,0,0
35,71,0,0,0,0,0,0,0,0,0,-1,1259,953,0,0
42,71,0,0,0,0,0,0,0,0,0,-1,1266,953,0,0
49,71,0,0,0,0,0,0,0,0,0,-1,1273,953,0,0
56,71,0,0,0,0,0,0,0,0,0,-1,1280,953,0,0
63,71,0,0,0,0,0,0,0,0,0,-1,1287,953,0,0
70,71,0,0,0,0,0,0,0,0,0,-1,1294,953,0,0
77,71,0,0,0,0,0,0,0,0,0,-1,1301,953,0,0
84,71,0,0,0,0,0,0,0,0,0,-1,1308,953,0,0
91,71,0,0,0,0,0,0,0,0,0,-1,1315,953,0,0
98,71,0,0,0,0,0,0,0,0,0,-1,1322,953,0,0
105,71,0,0,0,0,0,0,0,0,0,-1,1329,953,0,0
112,71,0,0,0,0,0,0,0,0,0,-1,1336,953,0,0
119,71,0,0,0,0,0,0,0,0,0,-1,1343,953,0,0
126,71,0,0,0,0,0,0,0,0,0,-1,1350,953,0,0
133,71,0,0,0,0,0,0,0,0,0,-1,1357,953,0,0
140,71,0,0,0,0,0,0,0,0,0,-1,1364,953,0,0
147,71,0,0,0,0,0,0,0,0,0,-1,1371,953,0,0
154,71,0,0,0,0,0,0,0,0,0,-1,1378,953,0,0
161,71,0,0,0,0,0,0,0,0,0,-1,1385,953,0,0
168,71,0,0,0,0,0,0,0,0,0,-1,1392,953,0,0
175,71,0,0,0,0,0,0,0,0,0,-1,1399,953,0,0
182,71,0,0,0,0,0,0,0,0,0,-1,1406,953,0,0
189,71,0,0,0,0,0,0,0,0,0,-1,1413,953,0,0
196,71,0,0,0,0,0,0,0,0,0,-1,1420,953,0,0
203,71,0,0,0,0,0,0,0,0,0,-1,1427,953,0,0
210,71,0,0,0,0,0,0,0,0,0,-1,1434,953,0,0
217,71,0,0,0,0,0,0,0,0,0,-1,1441,953,0,0
224,71,0,0,0,0,0,0,0,0,0,-1,1448,953,0,0
231,71,0,0,0,0,0,0,0,0,0,-1,1455,953,0,0
238,71,0,0,0,0,0,0,0,0,0,-1,1462,953,0,0
245,71,0,0,0,0,0,0,0,0,0,-1,1469,953,0,0
252,71,0,0,0,0,0,0,0,0,0,-1,1476,953,0,0
259,71,0,0,0,0,0,0,0,0,0,-1,1483,953,0,0
266,71,0,0,0,0,0,0,0,0,0,-1,1490,953,0,0
273,71,0,0,0,0,0,0,0,0,0,-1,1497,953,0,0
280,71,0,0,0,0,0,0,0,0,0,-1,1504,953,0,0
287,71,0,0,0,0,0,0,0,0,0,-1,1511,953,0,0
294,71,0,0,0,0,0,0,0,0,0,-1,1518,953,0,0
301,71,0,0,0,0,0,0,0,0,0,-1,1525,953,0,0
308,71,0,0,0,0,0,0,0,0,0,-1,1532,953,0,0
315,71,0,0,0,0,0,0,0,0,0,-1,1539,953,0,0
322,71,0,0,0,0,0,0,0,0,0,-1,1546,953,0,0
329,71,0,0,0,0,0,0,0,0,0,-1,1553,953,0,0
336,71,0,0,0,0,0,0,0,0,0,-1,1560,953,0,0
343,71,0,0,0,0,0,0,0,0,0,-1,1567,953,0,0
350,71,0,0,0,0,0,0,0,0,0,-1,1574,953,0,0
357,71,0,0,0,0,0,0,0,0,0,-1,1581,953,0,0
364,71,0,0,0,0,0,0,0,0,0,-1,1588,953,0,0
371,71,0,0,0,0,0,0,0,0,0,-1,1595,953,0,0
378,71,0,0,0,0,0,0,0,0,0,-1,1602,953,0,0
385,71,0,0,0,0,0,0,0,0,0,-1,1609,953,0,0
392,71,0,0,0,0,0,0,0,0,0,-1,1616,953,0,0
399,71,0,0,0,0,0,0,0,0,0,-1,1623,953,0,0
406,71,0,0,0,0,0,0,0,0,0,-1,1630,953,0,0
413,71,0,0,0,0,0,0,0,0,0,-1,1637,953,0,0
420,71,0,0,0,0,0,0,0,0,0,-1,1644,953,0,0
427,71,0,0,0,0,0,0,0,0,0,-1,1651,953,0,0
434,71,0,0,0,0,0,0,0,0,0,-1,1658,953,0,0
441,71,0,0,0,0,0,0,0,0,0,-1,1665,953,0,0
448,71,0,0,0,0,0,0,0,0,0,-1,1672,953,0,0
455,71,0,0,0,0,0,0,0,0,0,-1,1679,953,0,0
462,71,0,0,0,0,0,0,0,0,0,-1,1686,953,0,0
469,71,0,0,0,0,0,0,0,0,0,-1,1693,953,0,0
476,71,0,0,0,0,0,0,0,0,0,-1,1700,953,0,0
483,71,0,0,0,0,0,0,0,0,0,-1,1707,953,0,0
490,71,0,0,0,0,0,0,0,0,0,-1,1714,953,0,0
497,71,0,0,0,0,0,0,0,0,0,-1,1721,953,0,0
504,71,0,0,0,0,0,0,0,0,0,-1,1728,953,0,0
511,71,0,0,0,0,0,0,0,0,0,-1,1735,953,0,0
518,71,0,0,0,0,0,0,0,0,0,-1,1742,953,0,0
525,71,0,0,0,0,0,0,0,0,0,-1,1749,953,0,0
532,71,0,0,0,0,0,0,0,0,0,-1,1756,953,0,0
539,71,0,0,0,0,0,0,0,0,0,-1,1763,953,0,0
546,71,0,0,0,0,0,0,0,0,0,-1,1770,953,0,0
553,71,0,0,0,0,0,0,0,0,0,-1,1777,953,0,0
560,71,0,0,0,0,0,0,0,0,0,-1,1784,953,0,0
567,71,0,0,0,0,0,0,0,0,0,-1,1791,953,0,0
574,71,0,0,0,0,0,0,0,0,0,-1,1798,953,0,0
581,71,0,0,0,0,0,0,0,0,0,-1,1805,953,0,0
588,71,0,0,0,0,0,0,0,0,0,-1,1812,953,0,0
595,71,0,0,0,0,0,0,0,0,0,-1,1819,953,0,0
602,71,0,0,0,0,0,0,0,0,0,-1,1826,953,0,0
609,71,0,0,0,0,0,0,0,0,0,-1,1833,953,0,0
616,71,0,0,0,0,0,0,0,0,0,-1,1840,953,0,0
623,71,0,0,0,0,0,0,0,0,0,-1,1847,953,0,0
630,71,0,0,0,0,0,0,0,0,0,-1,1854,953,0,0
637,71,9.72693,1.34943,-0.0029316,0.00339846,-0.00175994,0.00385487,-0.00338801,-1.31705,0.00418458,0.0403155,1861,953,9.72692,-1.34945
644,71,9.51074,1.25427,-0.00212077,0.00221409,-0.000849586,0.00237465,-0.00228134,-1.38401,0.00268832,0.0404188,1868,953,9.51075,-1.2543
651,71,9.61365,1.20447,-0.00130081,0.00134883,-0.000465419,0.0014282,-0.00138019,-1.40188,0.00162151,0.0381322,1875,953,9.61367,-1.20447
658,71,9.80737,1.24597,-0.00117286,0.000729185,-0.000251936,0.000761989,-0.00120566,-1.44132,0.00114561,0.0389562,1882,953,9.80734,-1.24597
665,71,9.74463,1.26929,-0.00174723,0.000321998,-0.000138501,0.000331227,-0.00175646,-1.50426,0.00129557,0.0416554,1889,953,9.7446,-1.26926
672,71,9.60791,1.30176,-0.00262073,6.84059e-05,-8.26045e-05,7.09409e-05,-0.00262326,-1.54012,0.00177296,0.0416208,1896,953,9.60796,-1.30173
679,71,9.52271,1.29401,-0.00356218,-8.35954e-05,-2.7062e-05,-8.33848e-05,-0.00356239,-1.56302,0.00234763,0.0400048,1903,953,9.52275,-1.294
686,71,9.54919,1.18188,-0.0044195,-0.000175885,-2.09687e-05,-0.000175781,-0.0044196,-1.56586,0.00288959,0.0361674,1910,953,9.54914,-1.18187
693,71,9.57495,1.16101,-0.00490025,-0.000298718,0.000153827,-0.000293581,-0.00490539,1.53742,0.00317692,0.0316763,1917,953,9.57494,-1.16101
700,71,9.56384,1.23938,-0.00538268,-0.00026676,0.000102353,-0.000264713,-0.00538473,1.5508,0.00350491,0.0357627,1924,953,9.5639,-1.2394
707,71,9.56799,1.37988,-0.00579723,-0.00020253,-1.52281e-05,-0.000202489,-0.00579727,-1.56807,0.00379915,0.028203,1931,953,9.56799,-1.37991
714,71,9.33911,1.48157,-0.00580171,-0.000136626,-4.63486e-06,-0.000136622,-0.00580171,-1.56998,0.00382308,0.0247738,1938,953,9.3391,-1.48154
721,71,9.22107,1.50226,-0.00539323,2.62946e-05,-5.31311e-05,2.68153e-05,-0.00539375,-1.56099,0.0036048,0.0176846,1945,953,9.22111,-1.50228
728,71,9.18909,1.56586,-0.00463337,5.08932e-05,-0.00030348,7.04727e-05,-0.00465295,-1.50637,0.00312572,0.0179422,1952,953,9.18913,-1.56589
735,71,9.16357,1.60547,-0.00355403,0.000206766,-0.000660638,0.000319441,-0.00366671,-1.40187,0.00255761,0.0123725,1959,953,9.16362,-1.6055
742,71,9.20544,1.63287,-0.00232185,0.000255213,-0.000878603,0.000526251,-0.00259289,-1.27157,0.0019281,0.0129494,1966,953,9.20541,-1.63286
749,71,9.21045,1.66565,-0.000917916,0.000358116,-0.000996485,0.000903336,-0.00146313,-1.07015,0.00137897,0.0148248,1973,953,9.21043,-1.66565
756,71,9.18274,1.70758,0.000774066,0.000376622,-0.00130022,0.00189066,-0.000739973,-0.709566,0.00156648,0.0148088,1980,953,9.18274,-1.70759
763,71,9.18262,1.76465,0.00274078,0.000390207,-0.00146037,0.00344006,-0.000309066,-0.446571,0.00240303,0.0128735,1987,953,9.18265,-1.76464
770,71,9.16333,1.75757,0.00453535,0.000387002,-0.00148986,0.00501497,-9.26214e-05,-0.311448,0.00337461,0.014366,1994,953,9.16337,-1.75755
777,71,9.15271,1.69104,0.00631536,0.000360466,-0.00125286,0.00656821,0.000107613,-0.199146,0.00434338,0.0326919,2001,953,9.15273,-1.69107
784,71,9.22205,1.70685,0.00825825,0.000302576,-0.000584851,0.00830102,0.000259812,-0.0729908,0.00544947,0.0404577,2008,953,9.22199,-1.70684
791,71,9.17139,1.66724,0.010536,0.000221579,0.000661416,0.0105782,0.000179339,0.0637774,0.00699312,0.0392868,2015,953,9.17135,-1.66726
798,71,8.92285,1.38232,0,0,0,0,0,0,0,-1,2022,953,8.92289,-1.38232
805,71,9.6134,1.00671,0,0,0,0,0,0,0,-1,2029,953,9.61345,-1.0067
812,71,0,0,0,0,0,0,0,0,0,-1,2036,953,0,0
-700,64,0,0,0,0,0,0,0,0,0,-1,524,960,0,0
-693,64,0,0,0,0,0,0,0,0,0,-1,531,960,0,0
-686,64,-4.44763,1.99701,0.0214766,-0.0658193,-0.000122206,0.0214768,-0.0658194,-0.0013999,0.0525232,0.042355,538,960,-4.44761,-1.99703
-679,64,-4.3338,2.1817,0.0272308,-0.0559038,-0.0002582,0.0272316,-0.0559046,-0.00310577,0.048941,0.0418668,545,960,-4.3338,-2.18168
-672,64,-3.65759,2.33746,0,0,0,0,0,0,0,-1,552,960,-3.65761,-2.33747
-665,64,-3.28351,2.36932,0,0,0,0,0,0,0,-1,559,960,-3.28354,-2.36932
-658,64,-4.28662,1.51398,0,0,0,0,0,0,0,-1,566,960,-4.28662,-1.51397
-651,64,-4.11169,1.31653,0.0210648,-0.0210449,-0.000284523,0.0210667,-0.0210468,-0.0067563,0.0243143,0.0438478,573,960,-4.1117,-1.31653
-644,64,-4.00134,0.993042,0.017137,-0.0150157,-0.000161066,0.0171378,-0.0150165,-0.00500925,0.0185777,0.0301435,580,960,-4.00134,-0.993015
-637,64,-4.09686,0.967773,0.0135403,-0.010624,-7.53153e-05,0.0135406,-0.0106242,-0.00311676,0.0139854,0.0144943,587,960,-4.09687,-0.967776
-630,64,-4.1297,0.920898,0.0106387,-0.00616962,0.000464448,0.0106515,-0.00618245,0.0276039,0.00983259,0.012274,594,960,-4.12967,-0.920873
-623,64,-4.13947,0.875549,0.00719703,-0.00321886,0.000343726,0.00720836,-0.00323019,0.0329523,0.00617087,0.012749,601,960,-4.13949,-0.875565
-616,64,-4.14471,0.858398,0.00301816,-0.00114469,7.69473e-05,0.00301958,-0.00114612,0.0184758,0.00248482,0.015869,608,960,-4.14473,-0.8584
-609,64,-4.12994,0.850159,0.000593899,-3.67916e-05,0.000745379,0.00108789,-0.000530787,0.585282,0.000952817,0.0151638,615,960,-4.12992,-0.850161
-602,64,-4.10938,0.806763,-0.000975195,5.19129e-05,0.000788434,0.000479298,-0.00140258,1.07406,0.00112925,0.0151823,622,960,-4.10941,-0.806766
-595,64,-4.11957,0.74939,-0.00219572,3.68122e-05,0.00060182,0.000188709,-0.00234762,1.32356,0.00163162,0.0155741,629,960,-4.11959,-0.749376
-588,64,-4.13086,0.755371,-0.00254694,-6.7433e-05,0.000500185,2.96659e-05,-0.00264404,1.37906,0.00177266,0.0188274,636,960,-4.13085,-0.755363
-581,64,-4.17444,0.903076,-0.0026447,-0.000173153,0.000423723,-0.000102528,-0.00271533,1.40564,0.00177703,0.024676,643,960,-4.17446,-0.903098
-574,64,-4.2619,0.946106,-0.00283157,-0.000276228,0.000279932,-0.000245922,-0.00286188,1.46295,0.00183146,0.0296038,650,960,-4.26193,-0.946077
-567,64,-4.30438,0.763123,-0.0026902,-0.000142197,0.000169485,-0.000130973,-0.00270143,1.50467,0.00175892,0.0241766,657,960,-4.30441,-0.763127
-560,64,-4.34894,0.922913,-0.00234487,-8.02693e-05,1.71271e-05,-8.01398e-05,-0.002345,1.56323,0.00153731,0.0327899,664,960,-4.34895,-0.922907
-553,64,-4.35004,0.842163,-0.00182916,1.75488e-05,-0.000117512,2.49965e-05,-0.00183661,-1.5075,0.00123282,0.0367098,671,960,-4.35002,-0.842187
-546,64,-4.33679,0.701904,-0.00117442,0.00015808,-0.000231518,0.00019716,-0.0012135,-1.40358,0.000882098,0.0388478,678,960,-4.33681,-0.701878
-539,64,-4.32843,0.617188,-0.000456505,0.000354196,-0.000321182,0.000466017,-0.000568326,-1.23576,0.000598152,0.0411556,685,960,-4.32846,-0.617208
-532,64,-4.44934,0.65979,0.000104823,0.000634274,-0.000335971,0.000797282,-5.81849e-05,-1.11907,0.00055194,0.0415895,692,960,-4.44937,-0.659803
-525,64,-4.43646,0.683533,5.64601e-05,0.000994977,-0.000210076,0.00103985,1.15831e-05,-1.36034,0.000689408,0.0428728,699,960,-4.43648,-0.683531
-518,64,0,0,0,0,0,0,0,0,0,-1,706,960,0,0
-511,64,0,0,0,0,0,0,0,0,0,-1,713,960,0,0
-504,64,0,0,0,0,0,0,0,0,0,-1,720,960,0,0
-497,64,0,0,0,0,0,0,0,0,0,-1,727,960,0,0
-490,64,0,0,0,0,0,0,0,0,0,-1,734,960,0,0
-483,64,0,0,0,0,0,0,0,0,0,-1,741,960,0,0
-476,64,0,0,0,0,0,0,0,0,0,-1,748,960,0,0
-469,64,0,0,0,0,0,0,0,0,0,-1,755,960,0,0
-462,64,0,0,0,0,0,0,0,0,0,-1,762,960,0,0
-455,64,0,0,0,0,0,0,0,0,0,-1,769,960,0,0
-448,64,0,0,0,0,0,0,0,0,0,-1,776,960,0,0
-441,64,0,0,0,0,0,0,0,0,0,-1,783,960,0,0
-434,64,0,0,0,0,0,0,0,0,0,-1,790,960,0,0
-427,64,0,0,0,0,0,0,0,0,0,-1,797,960,0,0
-420,64,0,0,0,0,0,0,0,0,0,-1,804,960,0,0
-413,64,0,0,0,0,0,0,0,0,0,-1,811,960,0,0
-406,64,0,0,0,0,0,0,0,0,0,-1,818,960,0,0
-399,64,0,0,0,0,0,0,0,0,0,-1,825,960,0,0
-392,64,0,0,0,0,0,0,0,0,0,-1,832,960,0,0
-385,64,0,0,0,0,0,0,0,0,0,-1,839,960,0,0
-378,64,0,0,0,0,0,0,0,0,0,-1,846,960,0,0
-371,64,0,0,0,0,0,0,0,0,0,-1,853,960,0,0
-364,64,0,0,0,0,0,0,0,0,0,-1,860,960,0,0
-357,64,0,0,0,0,0,0,0,0,0,-1,867,960,0,0
-350,64,0,0,0,0,0,0,0,0,0,-1,874,960,0,0
-343,64,0,0,0,0,0,0,0,0,0,-1,881,960,0,0
-336,64,0,0,0,0,0,0,0,0,0,-1,888,960,0,0
-329,64,0,0,0,0,0,0,0,0,0,-1,895,960,0,0
-322,64,0,0,0,0,0,0,0,0,0,-1,902,960,0,0
-315,64,0,0,0,0,0,0,0,0,0,-1,909,960,0,0
-308,64,0,0,0,0,0,0,0,0,0,-1,916,960,0,0
-301,64,0,0,0,0,0,0,0,0,0,-1,923,960,0,0
-294,64,0,0,0,0,0,0,0,0,0,-1,930,960,0,0
-287,64,0,0,0,0,0,0,0,0,0,-1,937,960,0,0
-280,64,0,0,0,0,0,0,0,0,0,-1,944,960,0,0
-273,64,0,0,0,0,0,0,0,0,0,-1,951,960,0,0
-266,64,0,0,0,0,0,0,0,0,0,-1,958,960,0,0
-259,64,0,0,0,0,0,0,0,0,0,-1,965,960,0,0
-252,64,0,0,0,0,0,0,0,0,0,-1,972,960,0,0
-245,64,0,0,0,0,0,0,0,0,0,-1,979,960,0,0
-238,64,0,0,0,0,0,0,0,0,0,-1,986,960,0,0
-231,64,0,0,0,0,0,0,0,0,0,-1,993,960,0,0
-224,64,0,0,0,0,0,0,0,0,0,-1,1000,960,0,0
-217,64,0,0,0,0,0,0,0,0,0,-1,1007,960,0,0
-210,64,0,0,0,0,0,0,0,0,0,-1,1014,960,0,0
-203,64,0,0,0,0,0,0,0,0,0,-1,1021,960,0,0
-196,64,0,0,0,0,0,0,0,0,0,-1,1028,960,0,0
-189,64,0,0,0,0,0,0,0,0,0,-1,1035,960,0,0
-182,64,0,0,0,0,0,0,0,0,0,-1,1042,960,0,0
-175,64,0,0,0,0,0,0,0,0,0,-1,1049,960,0,0
-168,64,0,0,0,0,0,0,0,0,0,-1,1056,960,0,0
-161,64,0,0,0,0,0,0,0,0,0,-1,1063,960,0,0
-154,64,0,0,0,0,0,0,0,0,0,-1,1070,960,0,0
-147,64,0,0,0,0,0,0,0,0,0,-1,1077,960,0,0
-140,64,0,0,0,0,0,0,0,0,0,-1,1084,960,0,0
-133,64,0,0,0,0,0,0,0,0,0,-1,1091,960,0,0
-126,64,0,0,0,0,0,0,0,0,0,-1,1098,960,0,0
-119,64,0,0,0,0,0,0,0,0,0,-1,1105,960,0,0
-112,64,0,0,0,0,0,0,0,0,0,-1,1112,960,0,0
-105,64,0,0,0,0,0,0,0,0,0,-1,1119,960,0,0
-98,64,0,0,0,0,0,0,0,0,0,-1,1126,960,0,0
-91,64,0,0,0,0,0,0,0,0,0,-1,1133,960,0,0
-84,64,0,0,0,0,0,0,0,0,0,-1,1140,960,0,0
-77,64,0,0,0,0,0,0,0,0,0,-1,1147,960,0,0
-70,64,0,0,0,0,0,0,0,0,0,-1,1154,960,0,0
-63,64,0,0,0,0,0,0,0,0,0,-1,1161,960,0,0
-56,64,0,0,0,0,0,0,0,0,0,-1,1168,960,0,0
-49,64,0,0,0,0,0,0,0,0,0,-1,1175,960,0,0
-42,64,0,0,0,0,0,0,0,0,0,-1,1182,960,0,0
-35,64,0,0,0,0,0,0,0,0,0,-1,1189,960,0,0
-28,64,0,0,0,0,0,0,0,0,0,-1,1196,960,0,0
-21,64,0,0,0,0,0,0,0,0,0,-1,1203,960,0,0
-14,64,0,0,0,0,0,0,0,0,0,-1,1210,960,0,0
-7,64,0,0,0,0,0,0,0,0,0,-1,1217,960,0,0
0,64,0,0,0,0,0,0,0,0,0,-1,1224,960,0,0
7,64,0,0,0,0,0,0,0,0,0,-1,1231,960,0,0
14,64,0,0,0,0,0,0,0,0,0,-1,1238,960,0,0
21,64,0,0,0,0,0,0,0,0,0,-1,1245,960,0,0
28,64,0,0,0,0,0,0,0,0,0,-1,1252,960,0,0
35,64,0,0,0,0,0,0,0,0,0,-1,1259,960,0,0
42,64,0,0,0,0,0,0,0,0,0,-1,1266,960,0,0
49,64,0,0,0,0,0,0,0,0,0,-1,1273,960,0,0
56,64,0,0,0,0,0,0,0,0,0,-1,1280,960,0,0
63,64,0,0,0,0,0,0,0,0,0,-1,1287,960,0,0
70,64,0,0,0,0,0,0,0,0,0,-1,1294,960,0,0
77,64,0,0,0,0,0,0,0,0,0,-1,1301,960,0,0
84,64,0,0,0,0,0,0,0,0,0,-1,1308,960,0,0
91,64,0,0,0,0,0,0,0,0,0,-1,1315,960,0,0
98,64,0,0,0,0,0,0,0,0,0,-1,1322,960,0,0
105,64,0,0,0,0,0,0,0,0,0,-1,1329,960,0,0
112,64,0,0,0,0,0,0,0,0,0,-1,1336,960,0,0
119,64,0,0,0,0,0,0,0,0,0,-1,1343,960,0,0
126,64,0,0,0,0,0,0,0,0,0,-1,1350,960,0,0
133,64,0,0,0,0,0,0,0,0,0,-1,1357,960,0,0
140,64,0,0,0,0,0,0,0,0,0,-1,1364,960,0,0
147,64,0,0,0,0,0,0,0,0,0,-1,1371,960,0,0
154,64,0,0,0,0,0,0,0,0,0,-1,1378,960,0,0
161,64,0,0,0,0,0,0,0,0,0,-1,1385,960,0,0
168,64,0,0,0,0,0,0,0,0,0,-1,1392,960,0,0
175,64,0,0,0,0,0,0,0,0,0,-1,1399,960,0,0
182,64,0,0,0,0,0,0,0,0,0,-1,1406,960,0,0
189,64,0,0,0,0,0,0,0,0,0,-1,1413,960,0,0
196,64,0,0,0,0,0,0,0,0,0,-1,1420,960,0,0
203,64,0,0,0,0,0,0,0,0,0,-1,1427,960,0,0
210,64,0,0,0,0,0,0,0,0,0,-1,1434,960,0,0
217,64,0,0,0,0,0,0,0,0,0,-1,1441,960,0,0
224,64,0,0,0,0,0,0,0,0,0,-1,1448,960,0,0
231,64,0,0,0,0,0,0,0,0,0,-1,1455,960,0,0
238,64,0,0,0,0,0,0,0,0,0,-1,1462,960,0,0
245,64,0,0,0,0,0,0,0,0,0,-1,1469,960,0,0
252,64,0,0,0,0,0,0,0,0,0,-1,1476,960,0,0
259,64,0,0,0,0,0,0,0,0,0,-1,1483,960,0,0
266,64,0,0,0,0,0,0,0,0,0,-1,1490,960,0,0
273,64,0,0,0,0,0,0,0,0,0,-1,1497,960,0,0
280,64,0,0,0,0,0,0,0,0,0,-1,1504,960,0,0
287,64,0,0,0,0,0,0,0,0,0,-1,1511,960,0,0
294,64,0,0,0,0,0,0,0,0,0,-1,1518,960,0,0
301,64,0,0,0,0,0,0,0,0,0,-1,1525,960,0,0
308,64,0,0,0,0,0,0,0,0,0,-1,1532,960,0,0
315,64,0,0,0,0,0,0,0,0,0,-1,1539,960,0,0
322,64,0,0,0,0,0,0,0,0,0,-1,1546,960,0,0
329,64,0,0,0,0,0,0,0,0,0,-1,1553,960,0,0
336,64,0,0,0,0,0,0,0,0,0,-1,1560,960,0,0
343,64,0,0,0,0,0,0,0,0,0,-1,1567,960,0,0
350,64,0,0,0,0,0,0,0,0,0,-1,1574,960,0,0
357,64,0,0,0,0,0,0,0,0,0,-1,1581,960,0,0
364,64,0,0,0,0,0,0,0,0,0,-1,1588,960,0,0
371,64,0,0,0,0,0,0,0,0,0,-1,1595,960,0,0
378,64,0,0,0,0,0,0,0,0,0,-1,1602,960,0,0
385,64,0,0,0,0,0,0,0,0,0,-1,1609,960,0,0
392,64,0,0,0,0,0,0,0,0,0,-1,1616,960,0,0
399,64,0,0,0,0,0,0,0,0,0,-1,1623,960,0,0
406,64,0,0,0,0,0,0,0,0,0,-1,1630,960,0,0
413,64,0,0,0,0,0,0,0,0,0,-1,1637,960,0,0
420,64,0,0,0,0,0,0,0,0,0,-1,1644,960,0,0
427,64,0,0,0,0,0,0,0,0,0,-1,1651,960,0,0
434,64,0,0,0,0,0,0,0,0,0,-1,1658,960,0,0
441,64,0,0,0,0,0,0,0,0,0,-1,1665,960,0,0
448,64,0,0,0,0,0,0,0,0,0,-1,1672,960,0,0
455,64,0,0,0,0,0,0,0,0,0,-1,1679,960,0,0
462,64,0,0,0,0,0,0,0,0,0,-1,1686,960,0,0
469,64,0,0,0,0,0,0,0,0,0,-1,1693,960,0,0
476,64,0,0,0,0,0,0,0,0,0,-1,1700,960,0,0
483,64,0,0,0,0,0,0,0,0,0,-1,1707,960,0,0
490,64,0,0,0,0,0,0,0,0,0,-1,1714,960,0,0
497,64,0,0,0,0,0,0,0,0,0,-1,1721,960,0,0
504,64,0,0,0,0,0,0,0,0,0,-1,1728,960,0,0
511,64,0,0,0,0,0,0,0,0,0,-1,1735,960,0,0
518,64,0,0,0,0,0,0,0,0,0,-1,1742,960,0,0
525,64,0,0,0,0,0,0,0,0,0,-1,1749,960,0,0
532,64,0,0,0,0,0,0,0,0,0,-1,1756,960,0,0
539,64,0,0,0,0,0,0,0,0,0,-1,1763,960,0,0
546,64,0,0,0,0,0,0,0,0,0,-1,1770,960,0,0
553,64,0,0,0,0,0,0,0,0,0,-1,1777,960,0,0
560,64,0,0,0,0,0,0,0,0,0,-1,1784,960,0,0
567,64,0,0,0,0,0,0,0,0,0,-1,1791,960,0,0
574,64,0,0,0,0,0,0,0,0,0,-1,1798,960,0,0
581,64,0,0,0,0,0,0,0,0,0,-1,1805,960,0,0
588,64,0,0,0,0,0,0,0,0,0,-1,1812,960,0,0
595,64,0,0,0,0,0,0,0,0,0,-1,1819,960,0,0
602,64,0,0,0,0,0,0,0,0,0,-1,1826,960,0,0
609,64,0,0,0,0,0,0,0,0,0,-1,1833,960,0,0
616,64,0,0,0,0,0,0,0,0,0,-1,1840,960,0,0
623,64,0,0,0,0,0,0,0,0,0,-1,1847,960,0,0
630,64,0,0,0,0,0,0,0,0,0,-1,1854,960,0,0
637,64,0,0,0,0,0,0,0,0,0,-1,1861,960,0,0
644,64,9.46509,1.35858,-0.00146153,0.00208912,-0.000498376,0.00215775,-0.00153016,-1.43396,0.00213947,0.0403353,1868,960,9.46505,-1.35857
651,64,9.64685,1.3468,-0.000751154,0.00131425,-0.000249848,0.00134404,-0.000780948,-1.45211,0.00124114,0.0378733,1875,960,9.64681,-1.34682
658,64,9.78259,1.24292,-0.000583683,0.00075156,-0.000106221,0.000759957,-0.00059208,-1.49191,0.000782603,0.0371259,1882,960,9.78264,-1.24294
665,64,9.7345,1.33154,-0.0010841,0.000390233,-1.62639e-05,0.000390412,-0.00108427,-1.55977,0.000882267,0.0411184,1889,960,9.73447,-1.33155
672,64,9.7135,1.21136,-0.00193186,0.000174873,4.29149e-05,0.000175747,-0.00193273,1.55044,0.00135088,0.0439083,1896,960,9.71353,-1.21134
679,64,9.60413,1.12872,-0.002875,4.74259e-05,0.000121317,5.24535e-05,-0.00288002,1.52938,0.00193774,0.0412005,1903,960,9.60408,-1.12875
686,64,9.56018,1.16052,-0.00372431,-2.78264e-05,0.000167113,-2.02869e-05,-0.00373185,1.52571,0.00248116,0.0364966,1910,960,9.56021,-1.16053
693,64,9.58936,1.23083,-0.00423513,-0.000144163,0.000346843,-0.000114965,-0.00426433,1.48681,0.00280535,0.0319848,1917,960,9.58941,-1.23084
700,64,9.61108,1.29938,-0.00476025,-0.000105589,0.000300979,-8.62079e-05,-0.00477963,1.50649,0.00315808,0.0310004,1924,960,9.61105,-1.29939
707,64,9.60901,1.34528,-0.00526309,-4.50571e-05,0.000209031,-3.66967e-05,-0.00527145,1.53082,0.00350213,0.0321767,1931,960,9.60897,-1.34527
714,64,9.49121,1.40948,-0.00539442,1.18093e-05,0.000238006,2.2267e-05,-0.00540488,1.52689,0.0036107,0.031291,1938,960,9.49117,-1.40948
721,64,9.26526,1.50403,-0.00510151,0.000161856,0.000210859,0.00017029,-0.00510994,1.53082,0.00346479,0.0189529,1945,960,9.26524,-1.50402
728,64,9.20056,1.55505,-0.00445912,0.000178304,-2.79342e-05,0.000178472,-0.00445929,-1.56477,0.0030341,0.0137499,1952,960,9.20053,-1.55507
735,64,9.1875,1.61877,-0.00360774,0.0003123,-0.00041241,0.000355218,-0.00365066,-1.4671,0.00256041,0.0156141,1959,960,9.18752,-1.61874
742,64,9.25635,1.65479,-0.00265049,0.000314432,-0.000683468,0.000464399,-0.00280045,-1.3548,0.00203947,0.0143159,1966,960,9.25632,-1.65476
749,64,9.25024,1.66516,-0.00152133,0.000355343,-0.000911857,0.000725424,-0.00189141,-1.18525,0.00156002,0.0126177,1973,960,9.25021,-1.66517
756,64,9.23083,1.70758,-0.000131598,0.000233533,-0.00130973,0.00137336,-0.00127143,-0.854648,0.00152735,0.0137421,1980,960,9.23083,-1.70758
763,64,9.23157,1.7608,0.00158417,2.87181e-05,-0.00156691,0.00255575,-0.00094286,-0.555039,0.00209025,0.0132951,1987,960,9.23161,-1.76081
770,64,9.18762,1.77454,0.0031327,-0.000218949,-0.00175471,0.00388327,-0.000969518,-0.404194,0.00296533,0.0135174,1994,960,9.18764,-1.77456
777,64,9.14587,1.81201,0.00463241,-0.000574239,-0.00173501,0.0051576,-0.00109942,-0.29393,0.00385746,0.0300325,2001,960,9.14589,-1.81199
784,64,9.18018,1.8833,0.00625084,-0.00106995,-0.00136722,0.00649784,-0.00131696,-0.178735,0.00483109,0.0415469,2008,960,9.18019,-1.8833
791,64,9.13086,1.91718,0.00821763,-0.0017111,-0.000527825,0.00824561,-0.00173908,-0.0529624,0.00615916,0.0448735,2015,960,9.1308,-1.91719
798,64,8.98755,1.91791,0,0,0,0,0,0,0,-1,2022,960,8.98755,-1.91792
805,64,9.43921,0.952698,0,0,0,0,0,0,0,-1,2029,960,9.43923,-0.95272
812,64,0,0,0,0,0,0,0,0,0,-1,2036,960,0,0
-700,57,0,0,0,0,0,0,0,0,0,-1,524,967,0,0
-693,57,0,0,0,0,0,0,0,0,0,-1,531,967,0,0
-686,57,-4.19824,3.49524,0,0,0,0,0,0,0,-1,538,967,-4.19827,-3.49524
-679,57,-4.31012,2.8186,0.0182275,-0.0438036,-0.00199863,0.0182918,-0.043868,-0.0321753,0.0368867,0.0444992,545,967,-4.31012,-2.81861
-672,57,-3.88873,2.58929,0.0209454,-0.0365237,-0.00247391,0.0210517,-0.03663,-0.0429417,0.033705,0.0482559,552,967,-3.88874,-2.58928
-665,57,-3.66956,2.15784,0,0,0,0,0,0,0,-1,559,967,-3.66958,-2.15783
-658,57,-4.61829,1.01971,0,0,0,0,0,0,0,-1,566,967,-4.61827,-1.0197
-651,57,-4.39801,0.914368,0.0170312,-0.0171948,-0.0022715,0.0171813,-0.0173449,-0.0659819,0.0199338,0.0448662,573,967,-4.39802,-0.914373
-644,57,-4.09204,0.868286,0.0140482,-0.0123441,-0.00190364,0.0141848,-0.0124807,-0.0716344,0.0154058,0.0281793,580,967,-4.09205,-0.868262
-637,57,-4.12622,0.924805,0.0113061,-0.00888812,-0.00154983,0.0114243,-0.00900637,-0.0761521,0.0118232,0.0138688,587,967,-4.12622,-0.924816
-630,57,-4.15271,0.90033,0.00899158,-0.00520996,-0.000847562,0.00904198,-0.00526036,-0.0594,0.00835312,0.0121185,594,967,-4.15269,-0.900329
-623,57,-4.15289,0.872742,0.00615089,-0.00269259,-0.000634266,0.00619615,-0.00273785,-0.0712354,0.00528529,0.0117598,601,967,-4.15289,-0.872766
-616,57,-4.14771,0.863831,0.00251753,-0.000930795,-0.000638901,0.0026321,-0.00104536,-0.177435,0.00218807,0.0135035,608,967,-4.14769,-0.863844
-609,57,-4.159,0.848938,0.000354057,3.32568e-05,0.000170772,0.000427946,-4.06318e-05,0.408353,0.00029976,0.0136656,615,967,-4.15902,-0.848948
-602,57,-4.15198,0.815125,-0.000980338,7.52147e-05,0.000385884,0.000201238,-0.00110636,1.25513,0.000812999,0.0106835,622,967,-4.15196,-0.815143
-595,57,-4.14734,0.779907,-0.00194902,4.92628e-05,0.000327653,0.000101616,-0.00200137,1.41235,0.00136938,0.0110763,629,967,-4.14731,-0.779917
-588,57,-4.17572,0.766846,-0.00209334,-5.1929e-05,0.000296975,-9.60391e-06,-0.00213567,1.42923,0.00142059,0.0143845,636,967,-4.17575,-0.766849
-581,57,-4.23053,0.873474,-0.00210499,-0.000145472,0.000267442,-0.000109626,-0.00214084,1.43756,0.00139212,0.0235202,643,967,-4.23052,-0.873462
-574,57,-4.28717,0.889526,-0.00225481,-0.000327847,0.000130281,-0.000319078,-0.00226358,1.50359,0.00141474,0.0284526,650,967,-4.28716,-0.889545
-567,57,-4.29559,0.773743,-0.00210231,-0.000290435,4.9713e-05,-0.000289073,-0.00210367,1.54339,0.00131671,0.0313128,657,967,-4.2956,-0.773733
-560,57,-4.31812,1.00861,-0.00181424,-0.000340777,-3.72593e-05,-0.000339835,-0.00181518,-1.54553,0.00111425,0.0399443,664,967,-4.31809,-1.0086
-553,57,-4.17432,0.799561,-0.00142883,-0.000402758,-9.09401e-05,-0.00039476,-0.00143683,-1.48308,0.000857157,0.0388415,671,967,-4.17429,-0.799567
-546,57,-4.25909,0.704773,-0.00100452,-0.000486165,-9.86074e-05,-0.000468041,-0.00102264,-1.38902,0.000591126,0.0400845,678,967,-4.25911,-0.704798
-539,57,-4.32135,0.683777,-0.000635966,-0.000596876,-5.7979e-05,-0.000555236,-0.000677606,-0.947968,0.000416976,0.0424157,685,967,-4.32137,-0.68379
-532,57,-4.38855,0.680237,-0.000590759,-0.000728043,9.43914e-05,-0.00054269,-0.000776112,0.471021,0.000459794,0.0392602,692,967,-4.38854,-0.680266
-525,57,-4.35083,0.69342,-0.00138356,-0.00090065,0.000441894,-0.000638546,-0.00164566,1.03544,0.000958033,0.0398786,699,967,-4.35084,-0.693397
-518,57,0,0,0,0,0,0,0,0,0,-1,706,967,0,0
-511,57,0,0,0,0,0,0,0,0,0,-1,713,967,0,0
-504,57,0,0,0,0,0,0,0,0,0,-1,720,967,0,0
-497,57,0,0,0,0,0,0,0,0,0,-1,727,967,0,0
-490,57,0,0,0,0,0,0,0,0,0,-1,734,967,0,0
-483,57,0,0,0,0,0,0,0,0,0,-1,741,967,0,0
-476,57,0,0,0,0,0,0,0,0,0,-1,748,967,0,0
-469,57,0,0,0,0,0,0,0,0,0,-1,755,967,0,0
-462,57,0,0,0,0,0,0,0,0,0,-1,762,967,0,0
-455,57,0,0,0,0,0,0,0,0,0,-1,769,967,0,0
-448,57,0,0,0,0,0,0,0,0,0,-1,776,967,0,0
-441,57,0,0,0,0,0,0,0,0,0,-1,783,967,0,0
-434,57,0,0,0,0,0,0,0,0,0,-1,790,967,0,0
-427,57,0,0,0,0,0,0,0,0,0,-1,797,967,0,0
-420,57,0,0,0,0,0,0,0,0,0,-1,804,967,0,0
-413,57,0,0,0,0,0,0,0,0,0,-1,811,967,0,0
-406,57,0,0,0,0,0,0,0,0,0,-1,818,967,0,0
-399,57,0,0,0,0,0,0,0,0,0,-1,825,967,0,0
-392,57,0,0,0,0,0,0,0,0,0,-1,832,967,0,0
-385,57,0,0,0,0,0,0,0,0,0,-1,839,967,0,0
-378,57,0,0,0,0,0,0,0,0,0,-1,846,967,0,0
-371,57,0,0,0,0,0,0,0,0,0,-1,853,967,0,0
-364,57,0,0,0,0,0,0,0,0,0,-1,860,967,0,0
-357,57,0,0,0,0,0,0,0,0,0,-1,867,967,0,0
-350,57,0,0,0,0,0,0,0,0,0,-1,874,967,0,0
-343,57,0,0,0,0,0,0,0,0,0,-1,881,967,0,0
-336,57,0,0,0,0,0,0,0,0,0,-1,888,967,0,0
-329,57,0,0,0,0,0,0,0,0,0,-1,895,967,0,0
-322,57,0,0,0,0,0,0,0,0,0,-1,902,967,0,0
-315,57,0,0,0,0,0,0,0,0,0,-1,909,967,0,0
-308,57,0,0,0,0,0,0,0,0,0,-1,916,967,0,0
-301,57,0,0,0,0,0,0,0,0,0,-1,923,967,0,0
-294,57,0,0,0,0,0,0,0,0,0,-1,930,967,0,0
-287,57,0,0,0,0,0,0,0,0,0,-1,937,967,0,0
-280,57,0,0,0,0,0,0,0,0,0,-1,944,967,0,0
-273,57,0,0,0,0,0,0,0,0,0,-1,951,967,0,0
-266,57,0,0,0,0,0,0,0,0,0,-1,958,967,0,0
-259,57,0,0,0,0,0,0,0,0,0,-1,965,967,0,0
-252,57,0,0,0,0,0,0,0,0,0,-1,972,967,0,0
-245,57,0,0,0,0,0,0,0,0,0,-1,979,967,0,0
-238,57,0,0,0,0,0,0,0,0,0,-1,986,967,0,0
-231,57,0,0,0,0,0,0,0,0,0,-1,993,967,0,0
-224,57,0,0,0,0,0,0,0,0,0,-1,1000,967,0,0
-217,57,0,0,0,0,0,0,0,0,0,-1,1007,967,0,0
-210,57,0,0,0,0,0,0,0,0,0,-1,1014,967,0,0
-203,57,0,0,0,0,0,0,0,0,0,-1,1021,967,0,0
-196,57,0,0,0,0,0,0,0,0,0,-1,1028,967,0,0
-189,57,0,0,0,0,0,0,0,0,0,-1,1035,967,0,0
-182,57,0,0,0,0,0,0,0,0,0,-1,1042,967,0,0
-175,57,0,0,0,0,0,0,0,0,0,-1,1049,967,0,0
-168,57,0,0,0,0,0,0,0,0,0,-1,1056,967,0,0
-161,57,0,0,0,0,0,0,0,0,0,-1,1063,967,0,0
-154,57,0,0,0,0,0,0,0,0,0,-1,1070,967,0,0
-147,57,0,0,0,0,0,0,0,0,0,-1,1077,967,0,0
-140,57,0,0,0,0,0,0,0,0,0,-1,1084,967,0,0
-133,57,0,0,0,0,0,0,0,0,0,-1,1091,967,0,0
-126,57,0,0,0,0,0,0,0,0,0,-1,1098,967,0,0
-119,57,0,0,0,0,0,0,0,0,0,-1,1105,967,0,0
-112,57,0,0,0,0,0,0,0,0,0,-1,1112,967,0,0
-105,57,0,0,0,0,0,0,0,0,0,-1,1119,967,0,0
-98,57,0,0,0,0,0,0,0,0,0,-1,1126,967,0,0
-91,57,0,0,0,0,0,0,0,0,0,-1,1133,967,0,0
-84,57,0,0,0,0,0,0,0,0,0,-1,1140,967,0,0
-77,57,0,0,0,0,0,0,0,0,0,-1,1147,967,0,0
-70,57,0,0,0,0,0,0,0,0,0,-1,1154,967,0,0
-63,57,0,0,0,0,0,0,0,0,0,-1,1161,967,0,0
-56,57,0,0,0,0,0,0,0,0,0,-1,1168,967,0,0
-49,57,0,0,0,0,0,0,0,0,0,-1,1175,967,0,0
-42,57,0,0,0,0,0,0,0,0,0,-1,1182,967,0,0
-35,57,0,0,0,0,0,0,0,0,0,-1,1189,967,0,0
-28,57,0,0,0,0,0,0,0,0,0,-1,1196,967,0,0
-21,57,0,0,0,0,0,0,0,0,0,-1,1203,967,0,0
-14,57,0,0,0,0,0,0,0,0,0,-1,1210,967,0,0
-7,57,0,0,0,0,0,0,0,0,0,-1,1217,967,0,0
0,57,0,0,0,0,0,0,0,0,0,-1,1224,967,0,0
7,57,0,0,0,0,0,0,0,0,0,-1,1231,967,0,0
14,57,0,0,0,0,0,0,0,0,0,-1,1238,967,0,0
21,57,0,0,0,0,0,0,0,0,0,-1,1245,967,0,0
28,57,0,0,0,0,0,0,0,0,0,-1,1252,967,0,0
35,57,0,0,0,0,0,0,0,0,0,-1,1259,967,0,0
42,57,0,0,0,0,0,0,0,0,0,-1,1266,967,0,0
49,57,0,0,0,0,0,0,0,0,0,-1,1273,967,0,0
56,57,0,0,0,0,0,0,0,0,0,-1,1280,967,0,0
63,57,0,0,0,0,0,0,0,0,0,-1,1287,967,0,0
70,57,0,0,0,0,0,0,0,0,0,-1,1294,967,0,0
77,57,0,0,0,0,0,0,0,0,0,-1,1301,967,0,0
84,57,0,0,0,0,0,0,0,0,0,-1,1308,967,0,0
91,57,0,0,0,0,0,0,0,0,0,-1,1315,967,0,0
98,57,0,0,0,0,0,0,0,0,0,-1,1322,967,0,0
105,57,0,0,0,0,0,0,0,0,0,-1,1329,967,0,0
112,57,0,0,0,0,0,0,0,0,0,-1,1336,967,0,0
119,57,0,0,0,0,0,0,0,0,0,-1,1343,967,0,0
126,57,0,0,0,0,0,0,0,0,0,-1,1350,967,0,0
133,57,0,0,0,0,0,0,0,0,0,-1,1357,967,0,0
140,57,0,0,0,0,0,0,0,0,0,-1,1364,967,0,0
147,57,0,0,0,0,0,0,0,0,0,-1,1371,967,0,0
154,57,0,0,0,0,0,0,0,0,0,-1,1378,967,0,0
161,57,0,0,0,0,0,0,0,0,0,-1,1385,967,0,0
168,57,0,0,0,0,0,0,0,0,0,-1,1392,967,0,0
175,57,0,0,0,0,0,0,0,0,0,-1,1399,967,0,0
182,57,0,0,0,0,0,0,0,0,0,-1,1406,967,0,0
189,57,0,0,0,0,0,0,0,0,0,-1,1413,967,0,0
196,57,0,0,0,0,0,0,0,0,0,-1,1420,967,0,0
203,57,0,0,0,0,0,0,0,0,0,-1,1427,967,0,0
210,57,0,0,0,0,0,0,0,0,0,-1,1434,967,0,0
217,57,0,0,0,0,0,0,0,0,0,-1,1441,967,0,0
224,57,0,0,0,0,0,0,0,0,0,-1,1448,967,0,0
231,57,0,0,0,0,0,0,0,0,0,-1,1455,967,0,0
238,57,0,0,0,0,0,0,0,0,0,-1,1462,967,0,0
245,57,0,0,0,0,0,0,0,0,0,-1,1469,967,0,0
252,57,0,0,0,0,0,0,0,0,0,-1,1476,967,0,0
259,57,0,0,0,0,0,0,0,0,0,-1,1483,967,0,0
266,57,0,0,0,0,0,0,0,0,0,-1,1490,967,0,0
273,57,0,0,0,0,0,0,0,0,0,-1,1497,967,0,0
280,57,0,0,0,0,0,0,0,0,0,-1,1504,967,0,0
287,57,0,0,0,0,0,0,0,0,0,-1,1511,967,0,0
294,57,0,0,0,0,0,0,0,0,0,-1,1518,967,0,0
301,57,0,0,0,0,0,0,0,0,0,-1,1525,967,0,0
308,57,0,0,0,0,0,0,0,0,0,-1,1532,967,0,0
315,57,0,0,0,0,0,0,0,0,0,-1,1539,967,0,0
322,57,0,0,0,0,0,0,0,0,0,-1,1546,967,0,0
329,57,0,0,0,0,0,0,0,0,0,-1,1553,967,0,0
336,57,0,0,0,0,0,0,0,0,0,-1,1560,967,0,0
343,57,0,0,0,0,0,0,0,0,0,-1,1567,967,0,0
350,57,0,0,0,0,0,0,0,0,0,-1,1574,967,0,0
357,57,0,0,0,0,0,0,0,0,0,-1,1581,967,0,0
364,57,0,0,0,0,0,0,0,0,0,-1,1588,967,0,0
371,57,0,0,0,0,0,0,0,0,0,-1,1595,967,0,0
378,57,0,0,0,0,0,0,0,0,0,-1,1602,967,0,0
385,57,0,0,0,0,0,0,0,0,0,-1,1609,967,0,0
392,57,0,0,0,0,0,0,0,0,0,-1,1616,967,0,0
399,57,0,0,0,0,0,0,0,0,0,-1,1623,967,0,0
406,57,0,0,0,0,0,0,0,0,0,-1,1630,967,0,0
413,57,0,0,0,0,0,0,0,0,0,-1,1637,967,0,0
420,57,0,0,0,0,0,0,0,0,0,-1,1644,967,0,0
427,57,0,0,0,0,0,0,0,0,0,-1,1651,967,0,0
434,57,0,0,0,0,0,0,0,0,0,-1,1658,967,0,0
441,57,0,0,0,0,0,0,0,0,0,-1,1665,967,0,0
448,57,0,0,0,0,0,0,0,0,0,-1,1672,967,0,0
455,57,0,0,0,0,0,0,0,0,0,-1,1679,967,0,0
462,57,0,0,0,0,0,0,0,0,0,-1,1686,967,0,0
469,57,0,0,0,0,0,0,0,0,0,-1,1693,967,0,0
476,57,0,0,0,0,0,0,0,0,0,-1,1700,967,0,0
483,57,0,0,0,0,0,0,0,0,0,-1,1707,967,0,0
490,57,0,0,0,0,0,0,0,0,0,-1,1714,967,0,0
497,57,0,0,0,0,0,0,0,0,0,-1,1721,967,0,0
504,57,0,0,0,0,0,0,0,0,0,-1,1728,967,0,0
511,57,0,0,0,0,0,0,0,0,0,-1,1735,967,0,0
518,57,0,0,0,0,0,0,0,0,0,-1,1742,967,0,0
525,57,0,0,0,0,0,0,0,0,0,-1,1749,967,0,0
532,57,0,0,0,0,0,0,0,0,0,-1,1756,967,0,0
539,57,0,0,0,0,0,0,0,0,0,-1,1763,967,0,0
546,57,0,0,0,0,0,0,0,0,0,-1,1770,967,0,0
553,57,0,0,0,0,0,0,0,0,0,-1,1777,967,0,0
560,57,0,0,0,0,0,0,0,0,0,-1,1784,967,0,0
567,57,0,0,0,0,0,0,0,0,0,-1,1791,967,0,0
574,57,0,0,0,0,0,0,0,0,0,-1,1798,967,0,0
581,57,0,0,0,0,0,0,0,0,0,-1,1805,967,0,0
588,57,0,0,0,0,0,0,0,0,0,-1,1812,967,0,0
595,57,0,0,0,0,0,0,0,0,0,-1,1819,967,0,0
602,57,0,0,0,0,0,0,0,0,0,-1,1826,967,0,0
609,57,0,0,0,0,0,0,0,0,0,-1,1833,967,0,0
616,57,0,0,0,0,0,0,0,0,0,-1,1840,967,0,0
623,57,0,0,0,0,0,0,0,0,0,-1,1847,967,0,0
630,57,0,0,0,0,0,0,0,0,0,-1,1854,967,0,0
637,57,0,0,0,0,0,0,0,0,0,-1,1861,967,0,0
644,57,9.60364,1.16113,-0.000245169,0.00218917,-0.000234332,0.00221152,-0.00026752,-1.4757,0.00157113,0.0409131,1868,967,9.6037,-1.16112
651,57,9.65063,1.27728,0.000153886,0.00146477,-0.000116993,0.00147513,0.000143527,-1.48248,0.000939242,0.0341131,1875,967,9.65069,-1.27726
658,57,9.66797,1.31793,0.000195028,0.000900177,-3.96158e-05,0.000902396,0.000192809,-1.51485,0.000548737,0.0333208,1882,967,9.66797,-1.31792
665,57,9.66479,1.17786,-0.000325979,0.00053303,3.2668e-05,0.000534271,-0.00032722,1.53284,0.000502147,0.0414091,1889,967,9.66474,-1.17784
672,57,9.75269,1.11603,-0.00119907,0.000312601,0.000108509,0.000320351,-0.00120682,1.4995,0.000929911,0.0433263,1896,967,9.75273,-1.11601
679,57,9.68652,1.27295,-0.00218173,0.000175815,0.000223646,0.000196843,-0.00220275,1.47705,0.00153832,0.0404841,1903,967,9.68649,-1.27297
686,57,9.54895,1.30188,-0.00305345,9.14028e-05,0.000321283,0.00012389,-0.00308594,1.47002,0.00209981,0.0400516,1910,967,9.5489,-1.30185
693,57,9.56262,1.30042,-0.00361358,-2.71313e-05,0.000519005,4.64652e-05,-0.00368718,1.42993,0.00247375,0.0329832,1917,967,9.56264,-1.30041
700,57,9.62341,1.32153,-0.00417916,1.5595e-05,0.000492787,7.27084e-05,-0.00423627,1.45541,0.00284873,0.0250861,1924,967,9.62339,-1.32155
707,57,9.59985,1.40619,-0.00475162,5.57967e-05,0.00043637,9.50852e-05,-0.00479091,1.481,0.0032261,0.0342568,1931,967,9.59981,-1.40619
714,57,9.5437,1.5484,-0.00499324,0.000100261,0.00049173,0.000147298,-0.00504028,1.47543,0.00341035,0.0383264,1938,967,9.54375,-1.54838
721,57,9.32532,1.48456,-0.00480841,0.000235079,0.000495402,0.000283279,-0.00485661,1.47381,0.00333618,0.0223459,1945,967,9.32526,-1.48455
728,57,9.23425,1.5506,-0.00428736,0.000226696,0.000279061,0.000243882,-0.00430455,1.50929,0.00295435,0.0186243,1952,967,9.23426,-1.5506
735,57,9.2301,1.62476,-0.00362384,0.00030146,-0.000122302,0.000305267,-0.00362765,-1.53968,0.00252634,0.0187534,1959,967,9.23014,-1.62476
742,57,9.27454,1.66193,-0.00288911,0.00020826,-0.000436462,0.000268589,-0.00294944,-1.43345,0.00206166,0.0152723,1966,967,9.27449,-1.66195
749,57,9.28101,1.68024,-0.00197529,9.00464e-05,-0.000747921,0.000332443,-0.00221768,-1.25738,0.00160082,0.01363,1973,967,9.28097,-1.68022
756,57,9.25525,1.70013,-0.000835094,-0.000248382,-0.00121238,0.000705628,-0.0017891,-0.9041,0.00148492,0.0107329,1980,967,9.25521,-1.70015
763,57,9.2489,1.7265,0.000669707,-0.000773185,-0.00153789,0.00164696,-0.00175044,-0.566081,0.00196179,0.0112245,1987,967,9.24885,-1.72651
770,57,9.24194,1.74939,0.00203357,-0.00141571,-0.00184667,0.0028357,-0.00221784,-0.409777,0.00292492,0.011415,1994,967,9.24194,-1.74938
777,57,9.20874,1.84363,0.00334666,-0.00228387,-0.00199227,0.00398029,-0.0029175,-0.307927,0.00399816,0.0268575,2001,967,9.20877,-1.84363
784,57,9.13074,1.98303,0.0047371,-0.00344226,-0.00185821,0.00513946,-0.00384462,-0.21324,0.00520489,0.0449036,2008,967,9.1308,-1.98301
791,57,9.05347,2.12006,0,0,0,0,0,0,0,-1,2015,967,9.05341,-2.12003
798,57,9.45447,0.824097,0.00871846,-0.00668978,-0.000352609,0.00872652,-0.00669785,-0.0228685,0.0089309,0.0483215,2022,967,9.45447,-0.824108
805,57,9.39758,0.946594,0.011394,-0.0086453,0.00138001,0.0114886,-0.00873988,0.0684347,0.0117148,0.0491328,2029,967,9.3976,-0.946609
812,57,0,0,0,0,0,0,0,0,0,-1,2036,967,0,0
-700,50,0,0,0,0,0,0,0,0,0,-1,524,974,0,0
-693,50,-4.74078,3.99695,0,0,0,0,0,0,0,-1,531,974,-4.74079,-3.99695
-686,50,-4.58752,3.52081,0,0,0,0,0,0,0,-1,538,974,-4.5875,-3.52083
-679,50,-4.20679,3.01385,0.00947489,-0.0317945,-0.00310252,0.00970683,-0.0320265,-0.0746184,0.0252172,0.0452284,545,974,-4.20679,-3.01383
-672,50,-4.21161,2.7843,0.0135754,-0.0268782,-0.00386799,0.0139419,-0.0272447,-0.0944751,0.024189,0.0460718,552,974,-4.21163,-2.7843
-665,50,-4.24792,2.10895,0,0,0,0,0,0,0,-1,559,974,-4.24791,-2.10894
-658,50,-4.06555,0.641541,0,0,0,0,0,0,0,-1,566,974,-4.06556,-0.641541
-651,50,-4.11896,0.707703,0.0134565,-0.0130309,-0.00366101,0.0139532,-0.0135276,-0.13485,0.0158667,0.0463878,573,974,-4.11893,-0.707701
-644,50,-4.14789,0.830505,0.0114035,-0.00940396,-0.00313158,0.0118645,-0.00986506,-0.14619,0.0125633,0.025216,580,974,-4.14789,-0.830477
-637,50,-4.16638,0.892639,0.00948557,-0.00691374,-0.00259479,0.00988634,-0.00731451,-0.15324,0.00996785,0.012329,587,974,-4.16635,-0.892668
-630,50,-4.15601,0.891907,0.0077348,-0.00404616,-0.00179494,0.0080022,-0.00431357,-0.14789,0.00721604,0.00928787,594,974,-4.15598,-0.891891
-623,50,-4.14917,0.879211,0.00541114,-0.00204477,-0.00135963,0.00565134,-0.00228497,-0.174861,0.00471743,0.0103888,601,974,-4.14916,-0.879186
-616,50,-4.15222,0.861267,0.00224369,-0.000642737,-0.00117379,0.00266076,-0.0010598,-0.341404,0.00221336,0.0107616,608,974,-4.15223,-0.861272
-609,50,-4.17212,0.844482,0.000295606,0.000141614,-0.000281196,0.000510157,-7.29369e-05,-0.651765,0.000366842,0.00988937,615,974,-4.17214,-0.844469
-602,50,-4.17828,0.804199,-0.000847559,0.000120704,9.11224e-05,0.000129205,-0.00085606,1.47778,0.000618291,0.0108037,622,974,-4.17829,-0.804172
-595,50,-4.16742,0.790161,-0.00162508,7.9797e-05,0.000119003,8.80635e-05,-0.00163334,1.50144,0.0011194,0.0107087,629,974,-4.16743,-0.790168
-588,50,-4.18848,0.784241,-0.00162771,-2.11161e-05,0.000134704,-9.90019e-06,-0.00163893,1.48772,0.00108933,0.0110708,636,974,-4.18849,-0.784269
-581,50,-4.27026,0.788269,-0.00158085,-0.000107713,0.000139829,-9.45583e-05,-0.00159401,1.47699,0.0010326,0.02013,643,974,-4.27024,-0.78826
-574,50,-4.30255,0.723022,-0.00170434,-0.000362639,1.39405e-05,-0.000362494,-0.00170449,1.56041,0.00103683,0.026963,650,974,-4.30254,-0.723007
-567,50,-4.29187,0.748169,-0.00155011,-0.00040575,-3.3382e-05,-0.000404777,-0.00155108,-1.54166,0.000929002,0.0374126,657,974,-4.29187,-0.74815
-560,50,-4.24054,0.593018,-0.00132109,-0.00056044,-7.03308e-05,-0.000553992,-0.00132754,-1.47937,0.00076994,0.0435094,664,974,-4.24054,-0.593044
-553,50,-4.22498,0.597595,-0.00107273,-0.000777949,-5.99257e-05,-0.000766232,-0.00108444,-1.37771,0.000643668,0.0389366,671,974,-4.22495,-0.597609
-546,50,-4.20386,0.740723,-0.000881059,-0.00108226,7.88895e-06,-0.000880751,-0.00108257,0.0391284,0.000664734,0.0377474,678,974,-4.20385,-0.740694
-539,50,-4.27594,0.828247,0,0,0,0,0,0,0,-1,685,974,-4.27593,-0.828255
-532,50,-4.26208,0.62384,-0.00131118,-0.00204808,0.000371084,-0.0011567,-0.00220256,0.394482,0.00127219,0.0410756,692,974,-4.26211,-0.623851
-525,50,-4.35077,0.499695,-0.00279482,-0.0027629,0.000815407,-0.0019633,-0.00359442,0.795181,0.00207819,0.0409634,699,974,-4.35075,-0.499701
-518,50,0,0,0,0,0,0,0,0,0,-1,706,974,0,0
-511,50,0,0,0,0,0,0,0,0,0,-1,713,974,0,0
-504,50,0,0,0,0,0,0,0,0,0,-1,720,974,0,0
-497,50,0,0,0,0,0,0,0,0,0,-1,727,974,0,0
-490,50,0,0,0,0,0,0,0,0,0,-1,734,974,0,0
-483,50,0,0,0,0,0,0,0,0,0,-1,741,974,0,0
-476,50,0,0,0,0,0,0,0,0,0,-1,748,974,0,0
-469,50,0,0,0,0,0,0,0,0,0,-1,755,974,0,0
-462,50,0,0,0,0,0,0,0,0,0,-1,762,974,0,0
-455,50,0,0,0,0,0,0,0,0,0,-1,769,974,0,0
-448,50,0,0,0,0,0,0,0,0,0,-1,776,974,0,0
-441,50,0,0,0,0,0,0,0,0,0,-1,783,974,0,0
-434,50,0,0,0,0,0,0,0,0,0,-1,790,974,0,0
-427,50,0,0,0,0,0,0,0,0,0,-1,797,974,0,0
-420,50,0,0,0,0,0,0,0,0,0,-1,804,974,0,0
-413,50,0,0,0,0,0,0,0,0,0,-1,811,974,0,0
-406,50,0,0,0,0,0,0,0,0,0,-1,818,974,0,0
-399,50,0,0,0,0,0,0,0,0,0,-1,825,974,0,0
-392,50,0,0,0,0,0,0,0,0,0,-1,832,974,0,0
-385,50,0,0,0,0,0,0,0,0,0,-1,839,974,0,0
-378,50,0,0,0,0,0,0,0,0,0,-1,846,974,0,0
-371,50,0,0,0,0,0,0,0,0,0,-1,853,974,0,0
-364,50,0,0,0,0,0,0,0,0,0,-1,860,974,0,0
-357,50,0,0,0,0,0,0,0,0,0,-1,867,974,0,0
-350,50,0,0,0,0,0,0,0,0,0,-1,874,974,0,0
-343,50,0,0,0,0,0,0,0,0,0,-1,881,974,0,0
-336,50,0,0,0,0,0,0,0,0,0,-1,888,974,0,0
-329,50,0,0,0,0,0,0,0,0,0,-1,895,974,0,0
-322,50,0,0,0,0,0,0,0,0,0,-1,902,974,0,0
-315,50,0,0,0,0,0,0,0,0,0,-1,909,974,0,0
-308,50,0,0,0,0,0,0,0,0,0,-1,916,974,0,0
-301,50,0,0,0,0,0,0,0,0,0,-1,923,974,0,0
-294,50,0,0,0,0,0,0,0,0,0,-1,930,974,0,0
-287,50,0,0,0,0,0,0,0,0,0,-1,937,974,0,0
-280,50,0,0,0,0,0,0,0,0,0,-1,944,974,0,0
-273,50,0,0,0,0,0,0,0,0,0,-1,951,974,0,0
-266,50,0,0,0,0,0,0,0,0,0,-1,958,974,0,0
-259,50,0,0,0,0,0,0,0,0,0,-1,965,974,0,0
-252,50,0,0,0,0,0,0,0,0,0,-1,972,974,0,0
-245,50,0,0,0,0,0,0,0,0,0,-1,979,974,0,0
-238,50,0,0,0,0,0,0,0,0,0,-1,986,974,0,0
-231,50,0,0,0,0,0,0,0,0,0,-1,993,974,0,0
-224,50,0,0,0,0,0,0,0,0,0,-1,1000,974,0,0
-217,50,0,0,0,0,0,0,0,0,0,-1,1007,974,0,0
-210,50,0,0,0,0,0,0,0,0,0,-1,1014,974,0,0
-203,50,0,0,0,0,0,0,0,0,0,-1,1021,974,0,0
-196,50,0,0,0,0,0,0,0,0,0,-1,1028,974,0,0
-189,50,0,0,0,0,0,0,0,0,0,-1,1035,974,0,0
-182,50,0,0,0,0,0,0,0,0,0,-1,1042,974,0,0
-175,50,0,0,0,0,0,0,0,0,0,-1,1049,974,0,0
-168,50,0,0,0,0,0,0,0,0,0,-1,1056,974,0,0
-161,50,0,0,0,0,0,0,0,0,0,-1,1063,974,0,0
-154,50,0,0,0,0,0,0,0,0,0,-1,1070,974,0,0
-147,50,0,0,0,0,0,0,0,0,0,-1,1077,974,0,0
-140,50,0,0,0,0,0,0,0,0,0,-1,1084,974,0,0
-133,50,0,0,0,0,0,0,0,0,0,-1,1091,974,0,0
-126,50,0,0,0,0,0,0,0,0,0,-1,1098,974,0,0
-119,50,0,0,0,0,0,0,0,0,0,-1,1105,974,0,0
-112,50,0,0,0,0,0,0,0,0,0,-1,1112,974,0,0
-105,50,0,0,0,0,0,0,0,0,0,-1,1119,974,0,0
-98,50,0,0,0,0,0,0,0,0,0,-1,1126,974,0,0
-91,50,0,0,0,0,0,0,0,0,0,-1,1133,974,0,0
-84,50,0,0,0,0,0,0,0,0,0,-1,1140,974,0,0
-77,50,0,0,0,0,0,0,0,0,0,-1,1147,974,0,0
-70,50,0,0,0,0,0,0,0,0,0,-1,1154,974,0,0
-63,50,0,0,0,0,0,0,0,0,0,-1,1161,974,0,0
-56,50,0,0,0,0,0,0,0,0,0,-1,1168,974,0,0
-49,50,0,0,0,0,0,0,0,0,0,-1,1175,974,0,0
-42,50,0,0,0,0,0,0,0,0,0,-1,1182,974,0,0
-35,50,0,0,0,0,0,0,0,0,0,-1,1189,974,0,0
-28,50,0,0,0,0,0,0,0,0,0,-1,1196,974,0,0
-21,50,0,0,0,0,0,0,0,0,0,-1,1203,974,0,0
-14,50,0,0,0,0,0,0,0,0,0,-1,1210,974,0,0
-7,50,0,0,0,0,0,0,0,0,0,-1,1217,974,0,0
0,50,0,0,0,0,0,0,0,0,0,-1,1224,974,0,0
7,50,0,0,0,0,0,0,0,0,0,-1,1231,974,0,0
14,50,0,0,0,0,0,0,0,0,0,-1,1238,974,0,0
21,50,0,0,0,0,0,0,0,0,0,-1,1245,974,0,0
28,50,0,0,0,0,0,0,0,0,0,-1,1252,974,0,0
35,50,0,0,0,0,0,0,0,0,0,-1,1259,974,0,0
42,50,0,0,0,0,0,0,0,0,0,-1,1266,974,0,0
49,50,0,0,0,0,0,0,0,0,0,-1,1273,974,0,0
56,50,0,0,0,0,0,0,0,0,0,-1,1280,974,0,0
63,50,0,0,0,0,0,0,0,0,0,-1,1287,974,0,0
70,50,0,0,0,0,0,0,0,0,0,-1,1294,974,0,0
77,50,0,0,0,0,0,0,0,0,0,-1,1301,974,0,0
84,50,0,0,0,0,0,0,0,0,0,-1,1308,974,0,0
91,50,0,0,0,0,0,0,0,0,0,-1,1315,974,0,0
98,50,0,0,0,0,0,0,0,0,0,-1,1322,974,0,0
105,50,0,0,0,0,0,0,0,0,0,-1,1329,974,0,0
112,50,0,0,0,0,0,0,0,0,0,-1,1336,974,0,0
119,50,0,0,0,0,0,0,0,0,0,-1,1343,974,0,0
126,50,0,0,0,0,0,0,0,0,0,-1,1350,974,0,0
133,50,0,0,0,0,0,0,0,0,0,-1,1357,974,0,0
140,50,0,0,0,0,0,0,0,0,0,-1,1364,974,0,0
147,50,0,0,0,0,0,0,0,0,0,-1,1371,974,0,0
154,50,0,0,0,0,0,0,0,0,0,-1,1378,974,0,0
161,50,0,0,0,0,0,0,0,0,0,-1,1385,974,0,0
168,50,0,0,0,0,0,0,0,0,0,-1,1392,974,0,0
175,50,0,0,0,0,0,0,0,0,0,-1,1399,974,0,0
182,50,0,0,0,0,0,0,0,0,0,-1,1406,974,0,0
189,50,0,0,0,0,0,0,0,0,0,-1,1413,974,0,0
196,50,0,0,0,0,0,0,0,0,0,-1,1420,974,0,0
203,50,0,0,0,0,0,0,0,0,0,-1,1427,974,0,0
210,50,0,0,0,0,0,0,0,0,0,-1,1434,974,0,0
217,50,0,0,0,0,0,0,0,0,0,-1,1441,974,0,0
224,50,0,0,0,0,0,0,0,0,0,-1,1448,974,0,0
231,50,0,0,0,0,0,0,0,0,0,-1,1455,974,0,0
238,50,0,0,0,0,0,0,0,0,0,-1,1462,974,0,0
245,50,0,0,0,0,0,0,0,0,0,-1,1469,974,0,0
252,50,0,0,0,0,0,0,0,0,0,-1,1476,974,0,0
259,50,0,0,0,0,0,0,0,0,0,-1,1483,974,0,0
266,50,0,0,0,0,0,0,0,0,0,-1,1490,974,0,0
273,50,0,0,0,0,0,0,0,0,0,-1,1497,974,0,0
280,50,0,0,0,0,0,0,0,0,0,-1,1504,974,0,0
287,50,0,0,0,0,0,0,0,0,0,-1,1511,974,0,0
294,50,0,0,0,0,0,0,0,0,0,-1,1518,974,0,0
301,50,0,0,0,0,0,0,0,0,0,-1,1525,974,0,0
308,50,0,0,0,0,0,0,0,0,0,-1,1532,974,0,0
315,50,0,0,0,0,0,0,0,0,0,-1,1539,974,0,0
322,50,0,0,0,0,0,0,0,0,0,-1,1546,974,0,0
329,50,0,0,0,0,0,0,0,0,0,-1,1553,974,0,0
336,50,0,0,0,0,0,0,0,0,0,-1,1560,974,0,0
343,50,0,0,0,0,0,0,0,0,0,-1,1567,974,0,0
350,50,0,0,0,0,0,0,0,0,0,-1,1574,974,0,0
357,50,0,0,0,0,0,0,0,0,0,-1,1581,974,0,0
364,50,0,0,0,0,0,0,0,0,0,-1,1588,974,0,0
371,50,0,0,0,0,0,0,0,0,0,-1,1595,974,0,0
378,50,0,0,0,0,0,0,0,0,0,-1,1602,974,0,0
385,50,0,0,0,0,0,0,0,0,0,-1,1609,974,0,0
392,50,0,0,0,0,0,0,0,0,0,-1,1616,974,0,0
399,50,0,0,0,0,0,0,0,0,0,-1,1623,974,0,0
406,50,0,0,0,0,0,0,0,0,0,-1,1630,974,0,0
413,50,0,0,0,0,0,0,0,0,0,-1,1637,974,0,0
420,50,0,0,0,0,0,0,0,0,0,-1,1644,974,0,0
427,50,0,0,0,0,0,0,0,0,0,-1,1651,974,0,0
434,50,0,0,0,0,0,0,0,0,0,-1,1658,974,0,0
441,50,0,0,0,0,0,0,0,0,0,-1,1665,974,0,0
448,50,0,0,0,0,0,0,0,0,0,-1,1672,974,0,0
455,50,0,0,0,0,0,0,0,0,0,-1,1679,974,0,0
462,50,0,0,0,0,0,0,0,0,0,-1,1686,974,0,0
469,50,0,0,0,0,0,0,0,0,0,-1,1693,974,0,0
476,50,0,0,0,0,0,0,0,0,0,-1,1700,974,0,0
483,50,0,0,0,0,0,0,0,0,0,-1,1707,974,0,0
490,50,0,0,0,0,0,0,0,0,0,-1,1714,974,0,0
497,50,0,0,0,0,0,0,0,0,0,-1,1721,974,0,0
504,50,0,0,0,0,0,0,0,0,0,-1,1728,974,0,0
511,50,0,0,0,0,0,0,0,0,0,-1,1735,974,0,0
518,50,0,0,0,0,0,0,0,0,0,-1,1742,974,0,0
525,50,0,0,0,0,0,0,0,0,0,-1,1749,974,0,0
532,50,0,0,0,0,0,0,0,0,0,-1,1756,974,0,0
539,50,0,0,0,0,0,0,0,0,0,-1,1763,974,0,0
546,50,0,0,0,0,0,0,0,0,0,-1,1770,974,0,0
553,50,0,0,0,0,0,0,0,0,0,-1,1777,974,0,0
560,50,0,0,0,0,0,0,0,0,0,-1,1784,974,0,0
567,50,0,0,0,0,0,0,0,0,0,-1,1791,974,0,0
574,50,0,0,0,0,0,0,0,0,0,-1,1798,974,0,0
581,50,0,0,0,0,0,0,0,0,0,-1,1805,974,0,0
588,50,0,0,0,0,0,0,0,0,0,-1,1812,974,0,0
595,50,0,0,0,0,0,0,0,0,0,-1,1819,974,0,0
602,50,0,0,0,0,0,0,0,0,0,-1,1826,974,0,0
609,50,0,0,0,0,0,0,0,0,0,-1,1833,974,0,0
616,50,0,0,0,0,0,0,0,0,0,-1,1840,974,0,0
623,50,0,0,0,0,0,0,0,0,0,-1,1847,974,0,0
630,50,0,0,0,0,0,0,0,0,0,-1,1854,974,0,0
637,50,0,0,0,0,0,0,0,0,0,-1,1861,974,0,0
644,50,9.58911,1.17395,0.00100914,0.00191757,1.5612e-05,0.00191783,0.00100887,1.55362,0.00110776,0.0370309,1868,974,9.58905,-1.17396
651,50,9.47925,1.36932,0.00103525,0.00135923,7.87572e-06,0.00135943,0.00103506,1.54651,0.000819837,0.031011,1875,974,9.47925,-1.36932
658,50,9.57275,1.4397,0.000871898,0.000870635,1.0651e-05,0.000881936,0.000860597,0.7558,0.000580975,0.0342421,1882,974,9.57279,-1.43971
665,50,9.67908,1.15637,0.000293649,0.00054284,5.6762e-05,0.000555161,0.000281329,1.35706,0.000320532,0.0388545,1889,974,9.67906,-1.15637
672,50,9.72375,1.09015,-0.000609452,0.000347835,0.000151926,0.000371368,-0.000632984,1.41712,0.000586384,0.0382449,1896,974,9.72379,-1.09015
679,50,9.61365,1.3786,-0.00162533,0.000220521,0.000309066,0.000270896,-0.0016757,1.40923,0.00121752,0.0373748,1903,974,9.61362,-1.37858
686,50,9.4729,1.44708,-0.00250992,0.000144525,0.000461836,0.000222583,-0.00258798,1.40336,0.00180409,0.0406953,1910,974,9.47284,-1.44709
693,50,9.47473,1.34863,-0.00310637,4.20688e-05,0.000677092,0.000181506,-0.00324581,1.3677,0.00222684,0.0375481,1917,974,9.47469,-1.34862
700,50,9.59082,1.31934,-0.0036841,9.83955e-05,0.000677133,0.00021596,-0.00380167,1.39889,0.00260941,0.0221505,1924,974,9.59085,-1.31932
707,50,9.60901,1.3963,-0.00429379,0.000116741,0.000665878,0.000215079,-0.00439213,1.42417,0.00300235,0.0303183,1931,974,9.60903,-1.39632
714,50,9.57129,1.50165,-0.00461933,0.000132816,0.000748969,0.000248064,-0.00473458,1.41812,0.00324224,0.0344484,1938,974,9.57133,-1.50164
721,50,9.37744,1.50751,-0.00452677,0.00024971,0.000790201,0.000377043,-0.0046541,1.41103,0.00323575,0.0241215,1945,974,9.37748,-1.50749
728,50,9.28528,1.54297,-0.00410609,0.000261476,0.000600429,0.000342516,-0.00418713,1.43664,0.00291231,0.0181186,1952,974,9.28526,-1.54299
735,50,9.29187,1.60889,-0.00359123,0.000312068,0.000194378,0.000321724,-0.00360088,1.52116,0.0025147,0.0170599,1959,974,9.29191,-1.60889
742,50,9.29321,1.63513,-0.00303157,0.000162109,-0.000152253,0.000169351,-0.00303882,-1.52327,0.00208462,0.0145257,1966,974,9.29319,-1.63511
749,50,9.29126,1.63538,-0.00225608,-9.09659e-05,-0.000519937,2.74202e-05,-0.00237446,-1.34692,0.00159219,0.0158113,1973,974,9.29123,-1.63537
756,50,9.28064,1.67413,-0.00128139,-0.000608376,-0.0010157,0.000125107,-0.00201488,-0.945361,0.00138684,0.0117561,1980,974,9.28062,-1.67411
763,50,9.26489,1.71497,9.25484e-05,-0.00140673,-0.00137555,0.000909465,-0.00222364,-0.53591,0.00186119,0.0111169,1987,974,9.26483,-1.71497
770,50,9.2699,1.7301,0.00138939,-0.00239701,-0.00176757,0.00208627,-0.00309389,-0.375547,0.00300957,0.0110099,1994,974,9.26989,-1.73012
777,50,9.29797,1.75934,0.00269634,-0.00373327,-0.0020221,0.00327941,-0.00431634,-0.280734,0.00439901,0.0221417,2001,974,9.29795,-1.75931
784,50,9.31567,1.80377,0.00409675,-0.00552042,-0.00204221,0.00451244,-0.00593611,-0.200809,0.00605111,0.041091,2008,974,9.31567,-1.80377
791,50,9.34167,1.84827,0,0,0,0,0,0,0,-1,2015,974,9.34163,-1.84825
798,50,9.36536,1.06671,0.00825086,-0.0106605,-0.00108336,0.00831272,-0.0107224,-0.0570376,0.0110192,0.046538,2022,974,9.3654,-1.06671
805,50,9.3429,0.949829,0.0111831,-0.0139826,0.000182099,0.0111844,-0.013984,0.00723548,0.0145609,0.0431926,2029,974,9.34294,-0.949857
812,50,0,0,0,0,0,0,0,0,0,-1,2036,974,0,0
-700,43,0,0,0,0,0,0,0,0,0,-1,524,981,0,0
-693,43,-4.21234,3.63196,0,0,0,0,0,0,0,-1,531,981,-4.21236,-3.63194
-686,43,-4.98419,3.8551,0,0,0,0,0,0,0,-1,538,981,-4.9842,-3.85512
-679,43,-4.74664,3.3725,0.00334021,-0.0235849,-0.00529688,0.00434476,-0.0245895,-0.187425,0.0180167,0.0469635,545,981,-4.74662,-3.37249
-672,43,-4.51184,2.94788,0.00805276,-0.0200022,-0.00590909,0.00924656,-0.021196,-0.199345,0.0180217,0.049277,552,981,-4.51185,-2.94786
-665,43,-4.39404,2.40137,0.0103463,-0.0163492,-0.00598606,0.0116272,-0.01763,-0.21079,0.0170098,0.0495471,559,981,-4.39401,-2.40138
-658,43,-4.20337,1.763,0.0109203,-0.0128577,-0.00565885,0.0121983,-0.0141357,-0.222122,0.0152177,0.0484975,566,981,-4.2034,-1.76302
-651,43,-4.07751,1.22864,0.0103282,-0.00969597,-0.00505522,0.0115321,-0.0108998,-0.233784,0.0129528,0.041134,573,981,-4.07751,-1.22863
-644,43,-4.19293,0.941162,0.0089976,-0.00697901,-0.00428936,0.0100764,-0.00805777,-0.246386,0.0104913,0.0176291,580,981,-4.19295,-0.941133
-637,43,-4.19196,0.924438,0.00777383,-0.00520616,-0.00354477,0.0086788,-0.00611112,-0.249957,0.00858175,0.010124,587,981,-4.19196,-0.924458
-630,43,-4.16858,0.90509,0.00649173,-0.00300664,-0.00261609,0.0071646,-0.00367951,-0.251748,0.00636772,0.0108729,594,981,-4.16858,-0.905119
-623,43,-4.17047,0.874695,0.00460675,-0.00143936,-0.00187682,0.00514197,-0.00197458,-0.277799,0.00424222,0.0115778,601,981,-4.17048,-0.874679
-616,43,-4.17334,0.861389,0.00192469,-0.00042434,-0.00157256,0.00271293,-0.00121259,-0.464647,0.00232092,0.0101516,608,981,-4.17337,-0.861368
-609,43,-4.18256,0.85675,0.000230763,0.000333913,-0.000702987,0.000987214,-0.000422538,-0.822015,0.000835401,0.0116423,615,981,-4.18253,-0.856755
-602,43,-4.19525,0.823486,-0.000699747,0.000231831,-0.000179995,0.000265399,-0.000733315,-1.38642,0.000597331,0.0152313,622,981,-4.19525,-0.823477
-595,43,-4.18738,0.796082,-0.00128662,0.000181033,-6.55606e-05,0.000183956,-0.00128954,-1.52624,0.000927119,0.0135909,629,981,-4.1874,-0.796102
-588,43,-4.19019,0.787109,-0.00117946,0.000103375,-2.89415e-05,0.000104028,-0.00118011,-1.54825,0.00082361,0.0122789,636,981,-4.19016,-0.787127
-581,43,-4.26813,0.791748,-0.00109687,4.26927e-05,8.82799e-06,4.2761e-05,-0.00109694,1.56305,0.000745953,0.0186374,643,981,-4.26814,-0.791777
-574,43,-4.28253,0.713196,-0.00119364,-0.000254356,-9.09601e-05,-0.000245628,-0.00120236,-1.47514,0.000733539,0.0281652,650,981,-4.28255,-0.71318
-567,43,-4.26044,0.734375,-0.00103996,-0.000359698,-9.36043e-05,-0.000347053,-0.0010526,-1.43652,0.000619356,0.0394755,657,981,-4.26046,-0.734391
-560,43,-4.22681,0.626404,-0.000870474,-0.000600565,-6.67365e-05,-0.000584965,-0.000886074,-1.34117,0.000520252,0.0415003,664,981,-4.2268,-0.626425
-553,43,-4.29224,0.552551,-0.000758455,-0.000959288,1.99713e-05,-0.000756488,-0.000961254,0.0981613,0.000584658,0.0389703,671,981,-4.29224,-0.552528
-546,43,-4.1673,0.576538,-0.00079919,-0.00147796,0.000173686,-0.000757329,-0.00151982,0.236509,0.00087747,0.0407605,678,981,-4.16731,-0.576527
-539,43,-3.87781,0.728149,-0.00111809,-0.00221222,0.000384898,-0.000996252,-0.00233405,0.306558,0.00135237,0.0423911,685,981,-3.87783,-0.728134
-532,43,-3.65411,0.742004,-0.0020697,-0.00320884,0.000710444,-0.0017287,-0.00354984,0.447508,0.00204973,0.047629,692,981,-3.65409,-0.742032
-525,43,-4.22131,0.461609,-0.00422918,-0.00454281,0.00123411,-0.00314196,-0.00563003,0.722203,0.0032578,0.0482985,699,981,-4.22131,-0.461613
-518,43,0,0,0,0,0,0,0,0,0,-1,706,981,0,0
-511,43,0,0,0,0,0,0,0,0,0,-1,713,981,0,0
-504,43,0,0,0,0,0,0,0,0,0,-1,720,981,0,0
-497,43,0,0,0,0,0,0,0,0,0,-1,727,981,0,0
-490,43,0,0,0,0,0,0,0,0,0,-1,734,981,0,0
-483,43,0,0,0,0,0,0,0,0,0,-1,741,981,0,0
-476,43,0,0,0,0,0,0,0,0,0,-1,748,981,0,0
-469,43,0,0,0,0,0,0,0,0,0,-1,755,981,0,0
-462,43,0,0,0,0,0,0,0,0,0,-1,762,981,0,0
-455,43,0,0,0,0,0,0,0,0,0,-1,769,981,0,0
-448,43,0,0,0,0,0,0,0,0,0,-1,776,981,0,0
-441,43,0,0,0,0,0,0,0,0,0,-1,783,981,0,0
-434,43,0,0,0,0,0,0,0,0,0,-1,790,981,0,0
-427,43,0,0,0,0,0,0,0,0,0,-1,797,981,0,0
-420,43,0,0,0,0,0,0,0,0,0,-1,804,981,0,0
-413,43,0,0,0,0,0,0,0,0,0,-1,811,981,0,0
-406,43,0,0,0,0,0,0,0,0,0,-1,818,981,0,0
-399,43,0,0,0,0,0,0,0,0,0,-1,825,981,0,0
-392,43,0,0,0,0,0,0,0,0,0,-1,832,981,0,0
-385,43,0,0,0,0,0,0,0,0,0,-1,839,981,0,0
-378,43,0,0,0,0,0,0,0,0,0,-1,846,981,0,0
-371,43,0,0,0,0,0,0,0,0,0,-1,853,981,0,0
-364,43,0,0,0,0,0,0,0,0,0,-1,860,981,0,0
-357,43,0,0,0,0,0,0,0,0,0,-1,867,981,0,0
-350,43,0,0,0,0,0,0,0,0,0,-1,874,981,0,0
-343,43,0,0,0,0,0,0,0,0,0,-1,881,981,0,0
-336,43,0,0,0,0,0,0,0,0,0,-1,888,981,0,0
-329,43,0,0,0,0,0,0,0,0,0,-1,895,981,0,0
-322,43,0,0,0,0,0,0,0,0,0,-1,902,981,0,0
-315,43,0,0,0,0,0,0,0,0,0,-1,909,981,0,0
-308,43,0,0,0,0,0,0,0,0,0,-1,916,981,0,0
-301,43,0,0,0,0,0,0,0,0,0,-1,923,981,0,0
-294,43,0,0,0,0,0,0,0,0,0,-1,930,981,0,0
-287,43,0,0,0,0,0,0,0,0,0,-1,937,981,0,0
-280,43,0,0,0,0,0,0,0,0,0,-1,944,981,0,0
-273,43,0,0,0,0,0,0,0,0,0,-1,951,981,0,0
-266,43,0,0,0,0,0,0,0,0,0,-1,958,981,0,0
-259,43,0,0,0,0,0,0,0,0,0,-1,965,981,0,0
-252,43,0,0,0,0,0,0,0,0,0,-1,972,981,0,0
-245,43,0,0,0,0,0,0,0,0,0,-1,979,981,0,0
-238,43,0,0,0,0,0,0,0,0,0,-1,986,981,0,0
-231,43,0,0,0,0,0,0,0,0,0,-1,993,981,0,0
-224,43,0,0,0,0,0,0,0,0,0,-1,1000,981,0,0
-217,43,0,0,0,0,0,0,0,0,0,-1,1007,981,0,0
-210,43,0,0,0,0,0,0,0,0,0,-1,1014,981,0,0
-203,43,0,0,0,0,0,0,0,0,0,-1,1021,981,0,0
-196,43,0,0,0,0,0,0,0,0,0,-1,1028,981,0,0
-189,43,0,0,0,0,0,0,0,0,0,-1,1035,981,0,0
-182,43,0,0,0,0,0,0,0,0,0,-1,1042,981,0,0
-175,43,0,0,0,0,0,0,0,0,0,-1,1049,981,0,0
-168,43,0,0,0,0,0,0,0,0,0,-1,1056,981,0,0
-161,43,0,0,0,0,0,0,0,0,0,-1,1063,981,0,0
-154,43,0,0,0,0,0,0,0,0,0,-1,1070,981,0,0
-147,43,0,0,0,0,0,0,0,0,0,-1,1077,981,0,0
-140,43,0,0,0,0,0,0,0,0,0,-1,1084,981,0,0
-133,43,0,0,0,0,0,0,0,0,0,-1,1091,981,0,0
-126,43,0,0,0,0,0,0,0,0,0,-1,1098,981,0,0
-119,43,0,0,0,0,0,0,0,0,0,-1,1105,981,0,0
-112,43,0,0,0,0,0,0,0,0,0,-1,1112,981,0,0
-105,43,0,0,0,0,0,0,0,0,0,-1,1119,981,0,0
-98,43,0,0,0,0,0,0,0,0,0,-1,1126,981,0,0
-91,43,0,0,0,0,0,0,0,0,0,-1,1133,981,0,0
-84,43,0,0,0,0,0,0,0,0,0,-1,1140,981,0,0
-77,43,0,0,0,0,0,0,0,0,0,-1,1147,981,0,0
-70,43,0,0,0,0,0,0,0,0,0,-1,1154,981,0,0
-63,43,0,0,0,0,0,0,0,0,0,-1,1161,981,0,0
-56,43,0,0,0,0,0,0,0,0,0,-1,1168,981,0,0
-49,43,0,0,0,0,0,0,0,0,0,-1,1175,981,0,0
-42,43,0,0,0,0,0,0,0,0,0,-1,1182,981,0,0
-35,43,0,0,0,0,0,0,0,0,0,-1,1189,981,0,0
-28,43,0,0,0,0,0,0,0,0,0,-1,1196,981,0,0
-21,43,0,0,0,0,0,0,0,0,0,-1,1203,981,0,0
-14,43,0,0,0,0,0,0,0,0,0,-1,1210,981,0,0
-7,43,0,0,0,0,0,0,0,0,0,-1,1217,981,0,0
0,43,0,0,0,0,0,0,0,0,0,-1,1224,981,0,0
7,43,0,0,0,0,0,0,0,0,0,-1,1231,981,0,0
14,43,0,0,0,0,0,0,0,0,0,-1,1238,981,0,0
21,43,0,0,0,0,0,0,0,0,0,-1,1245,981,0,0
28,43,0,0,0,0,0,0,0,0,0,-1,1252,981,0,0
35,43,0,0,0,0,0,0,0,0,0,-1,1259,981,0,0
42,43,0,0,0,0,0,0,0,0,0,-1,1266,981,0,0
49,43,0,0,0,0,0,0,0,0,0,-1,1273,981,0,0
56,43,0,0,0,0,0,0,0,0,0,-1,1280,981,0,0
63,43,0,0,0,0,0,0,0,0,0,-1,1287,981,0,0
70,43,0,0,0,0,0,0,0,0,0,-1,1294,981,0,0
77,43,0,0,0,0,0,0,0,0,0,-1,1301,981,0,0
84,43,0,0,0,0,0,0,0,0,0,-1,1308,981,0,0
91,43,0,0,0,0,0,0,0,0,0,-1,1315,981,0,0
98,43,0,0,0,0,0,0,0,0,0,-1,1322,981,0,0
105,43,0,0,0,0,0,0,0,0,0,-1,1329,981,0,0
112,43,0,0,0,0,0,0,0,0,0,-1,1336,981,0,0
119,43,0,0,0,0,0,0,0,0,0,-1,1343,981,0,0
126,43,0,0,0,0,0,0,0,0,0,-1,1350,981,0,0
133,43,0,0,0,0,0,0,0,0,0,-1,1357,981,0,0
140,43,0,0,0,0,0,0,0,0,0,-1,1364,981,0,0
147,43,0,0,0,0,0,0,0,0,0,-1,1371,981,0,0
154,43,0,0,0,0,0,0,0,0,0,-1,1378,981,0,0
161,43,0,0,0,0,0,0,0,0,0,-1,1385,981,0,0
168,43,0,0,0,0,0,0,0,0,0,-1,1392,981,0,0
175,43,0,0,0,0,0,0,0,0,0,-1,1399,981,0,0
182,43,0,0,0,0,0,0,0,0,0,-1,1406,981,0,0
189,43,0,0,0,0,0,0,0,0,0,-1,1413,981,0,0
196,43,0,0,0,0,0,0,0,0,0,-1,1420,981,0,0
203,43,0,0,0,0,0,0,0,0,0,-1,1427,981,0,0
210,43,0,0,0,0,0,0,0,0,0,-1,1434,981,0,0
217,43,0,0,0,0,0,0,0,0,0,-1,1441,981,0,0
224,43,0,0,0,0,0,0,0,0,0,-1,1448,981,0,0
231,43,0,0,0,0,0,0,0,0,0,-1,1455,981,0,0
238,43,0,0,0,0,0,0,0,0,0,-1,1462,981,0,0
245,43,0,0,0,0,0,0,0,0,0,-1,1469,981,0,0
252,43,0,0,0,0,0,0,0,0,0,-1,1476,981,0,0
259,43,0,0,0,0,0,0,0,0,0,-1,1483,981,0,0
266,43,0,0,0,0,0,0,0,0,0,-1,1490,981,0,0
273,43,0,0,0,0,0,0,0,0,0,-1,1497,981,0,0
280,43,0,0,0,0,0,0,0,0,0,-1,1504,981,0,0
287,43,0,0,0,0,0,0,0,0,0,-1,1511,981,0,0
294,43,0,0,0,0,0,0,0,0,0,-1,1518,981,0,0
301,43,0,0,0,0,0,0,0,0,0,-1,1525,981,0,0
308,43,0,0,0,0,0,0,0,0,0,-1,1532,981,0,0
315,43,0,0,0,0,0,0,0,0,0,-1,1539,981,0,0
322,43,0,0,0,0,0,0,0,0,0,-1,1546,981,0,0
329,43,0,0,0,0,0,0,0,0,0,-1,1553,981,0,0
336,43,0,0,0,0,0,0,0,0,0,-1,1560,981,0,0
343,43,0,0,0,0,0,0,0,0,0,-1,1567,981,0,0
350,43,0,0,0,0,0,0,0,0,0,-1,1574,981,0,0
357,43,0,0,0,0,0,0,0,0,0,-1,1581,981,0,0
364,43,0,0,0,0,0,0,0,0,0,-1,1588,981,0,0
371,43,0,0,0,0,0,0,0,0,0,-1,1595,981,0,0
378,43,0,0,0,0,0,0,0,0,0,-1,1602,981,0,0
385,43,0,0,0,0,0,0,0,0,0,-1,1609,981,0,0
392,43,0,0,0,0,0,0,0,0,0,-1,1616,981,0,0
399,43,0,0,0,0,0,0,0,0,0,-1,1623,981,0,0
406,43,0,0,0,0,0,0,0,0,0,-1,1630,981,0,0
413,43,0,0,0,0,0,0,0,0,0,-1,1637,981,0,0
420,43,0,0,0,0,0,0,0,0,0,-1,1644,981,0,0
427,43,0,0,0,0,0,0,0,0,0,-1,1651,981,0,0
434,43,0,0,0,0,0,0,0,0,0,-1,1658,981,0,0
441,43,0,0,0,0,0,0,0,0,0,-1,1665,981,0,0
448,43,0,0,0,0,0,0,0,0,0,-1,1672,981,0,0
455,43,0,0,0,0,0,0,0,0,0,-1,1679,981,0,0
462,43,0,0,0,0,0,0,0,0,0,-1,1686,981,0,0
469,43,0,0,0,0,0,0,0,0,0,-1,1693,981,0,0
476,43,0,0,0,0,0,0,0,0,0,-1,1700,981,0,0
483,43,0,0,0,0,0,0,0,0,0,-1,1707,981,0,0
490,43,0,0,0,0,0,0,0,0,0,-1,1714,981,0,0
497,43,0,0,0,0,0,0,0,0,0,-1,1721,981,0,0
504,43,0,0,0,0,0,0,0,0,0,-1,1728,981,0,0
511,43,0,0,0,0,0,0,0,0,0,-1,1735,981,0,0
518,43,0,0,0,0,0,0,0,0,0,-1,1742,981,0,0
525,43,0,0,0,0,0,0,0,0,0,-1,1749,981,0,0
532,43,0,0,0,0,0,0,0,0,0,-1,1756,981,0,0
539,43,0,0,0,0,0,0,0,0,0,-1,1763,981,0,0
546,43,0,0,0,0,0,0,0,0,0,-1,1770,981,0,0
553,43,0,0,0,0,0,0,0,0,0,-1,1777,981,0,0
560,43,0,0,0,0,0,0,0,0,0,-1,1784,981,0,0
567,43,0,0,0,0,0,0,0,0,0,-1,1791,981,0,0
574,43,0,0,0,0,0,0,0,0,0,-1,1798,981,0,0
581,43,0,0,0,0,0,0,0,0,0,-1,1805,981,0,0
588,43,0,0,0,0,0,0,0,0,0,-1,1812,981,0,0
595,43,0,0,0,0,0,0,0,0,0,-1,1819,981,0,0
602,43,0,0,0,0,0,0,0,0,0,-1,1826,981,0,0
609,43,0,0,0,0,0,0,0,0,0,-1,1833,981,0,0
616,43,0,0,0,0,0,0,0,0,0,-1,1840,981,0,0
623,43,0,0,0,0,0,0,0,0,0,-1,1847,981,0,0
630,43,0,0,0,0,0,0,0,0,0,-1,1854,981,0,0
637,43,0,0,0,0,0,0,0,0,0,-1,1861,981,0,0
644,43,9.56128,1.35663,0.00264786,0.00171763,0.000317273,0.00274577,0.00161973,0.299319,0.00159379,0.0378369,1868,981,9.56133,-1.35662
651,43,9.43921,1.50281,0.00212371,0.00129661,0.000156004,0.00215215,0.00126816,0.180363,0.00124913,0.0364307,1875,981,9.43921,-1.50283
658,43,9.60693,1.55908,0.00160914,0.000890344,6.2144e-05,0.00161447,0.000885011,0.0856093,0.000933557,0.0360607,1882,981,9.60698,-1.55908
665,43,9.68762,1.32166,0.000878136,0.00059796,5.92156e-05,0.000890137,0.000585958,0.199961,0.000522434,0.0359203,1889,981,9.68767,-1.32163
672,43,9.62146,1.2066,-9.5682e-05,0.000419464,0.000159416,0.000464806,-0.000141024,1.29369,0.000366048,0.0374215,1896,981,9.62151,-1.20663
679,43,9.48682,1.25592,-0.00115907,0.000293587,0.000348153,0.000372717,-0.0012382,1.34731,0.000973777,0.0397169,1903,981,9.48679,-1.25593
686,43,9.47681,1.35895,-0.00205878,0.000213203,0.00053892,0.000334554,-0.00218013,1.34931,0.00157681,0.0418095,1910,981,9.47676,-1.35895
693,43,9.56555,1.29553,-0.00268271,0.00011825,0.000768751,0.00031537,-0.00287983,1.31979,0.00203318,0.0372047,1917,981,9.56555,-1.2955
700,43,9.58948,1.26013,-0.00326145,0.000172859,0.000800965,0.000350478,-0.00343907,1.35257,0.00241802,0.0314819,1924,981,9.58946,-1.26011
707,43,9.6001,1.31439,-0.00389084,0.0001693,0.000852883,0.000341182,-0.00406273,1.37193,0.00282908,0.0294323,1931,981,9.60008,-1.31438
714,43,9.61511,1.34027,-0.00427354,0.000154512,0.000964141,0.000355331,-0.00447436,1.36544,0.00310813,0.033245,1938,981,9.61513,-1.34029
721,43,9.52551,1.43848,-0.00423568,0.000246255,0.00102127,0.000467993,-0.00445742,1.35699,0.00313926,0.0286597,1945,981,9.52554,-1.43847
728,43,9.37939,1.53662,-0.00388087,0.000292275,0.000845228,0.000456968,-0.00404557,1.37836,0.00286155,0.0151822,1952,981,9.37935,-1.53661
735,43,9.35632,1.59631,-0.00349087,0.000332625,0.000436188,0.000381754,-0.00354,1.45864,0.002497,0.0120899,1959,981,9.35627,-1.5963
742,43,9.34485,1.61237,-0.00310359,0.000140618,6.18181e-05,0.000141796,-0.00310477,1.55175,0.00211869,0.0147364,1966,981,9.34485,-1.61234
749,43,9.32764,1.62372,-0.00244273,-0.000189087,-0.000332283,-0.000141115,-0.0024907,-1.42742,0.00161548,0.0166815,1973,981,9.32762,-1.6237
756,43,9.3186,1.65851,-0.00159419,-0.000834014,-0.000845437,-0.000287157,-0.00214105,-0.99665,0.00134193,0.0150841,1980,981,9.31866,-1.65848
763,43,9.29211,1.68835,-0.000326396,-0.00182224,-0.00121964,0.000356383,-0.00250502,-0.510352,0.0018006,0.0169065,1987,981,9.29212,-1.68835
770,43,9.29944,1.70428,0.000922092,-0.00305154,-0.00165667,0.00152217,-0.00365162,-0.347517,0.00307026,0.0147925,1994,981,9.29947,-1.70429
777,43,9.31848,1.69757,0.00226863,-0.00472487,-0.00195169,0.00277643,-0.00523266,-0.254538,0.00469597,0.0191027,2001,981,9.31845,-1.69759
784,43,9.37146,1.49561,0.00375941,-0.00697094,-0.00200468,0.0041217,-0.00733323,-0.178792,0.00669958,0.0377822,2008,981,9.37148,-1.4956
791,43,9.44189,1.30725,0,0,0,0,0,0,0,-1,2015,981,9.44184,-1.30723
798,43,9.44055,1.18921,0.00836456,-0.0135217,-0.00112765,0.0084225,-0.0135796,-0.0513419,0.0128187,0.0421161,2022,981,9.4405,-1.18918
805,43,9.37463,1.03491,0.0117816,-0.0178773,6.64353e-05,0.0117817,-0.0178775,0.00223996,0.0172439,0.0413197,2029,981,9.37461,-1.03494
812,43,9.61646,0.985779,0.0160315,-0.0228643,0.00213477,0.0161483,-0.0229811,0.0546653,0.0227059,0.0457916,2036,981,9.61645,-0.985795
-700,36,0,0,0,0,0,0,0,0,0,-1,524,988,0,0
-693,36,-4.43622,3.71008,-0.0259175,-0.0177717,-0.00524433,-0.0152045,-0.0284847,-1.11556,0.0164582,0.0434932,531,988,-4.43619,-3.71007
-686,36,-4.60706,3.3811,-0.0128477,-0.0174419,-0.00759051,-0.00721432,-0.0230753,-0.638465,0.0136307,0.0424193,538,988,-4.60707,-3.3811
-679,36,-5.03748,3.12457,-0.00450189,-0.0157969,-0.00855186,9.89549e-05,-0.0203977,-0.493578,0.0136316,0.0440435,545,988,-5.03746,-3.12459
-672,36,-4.80579,3.06616,0.000803891,-0.0135888,-0.00872518,0.00491755,-0.0177025,-0.440564,0.0137374,0.0499765,552,988,-4.8058,-3.06615
-665,36,-4.52716,2.58752,0.00393459,-0.0111978,-0.00835476,0.00764002,-0.0149032,-0.417445,0.0132386,0.0470845,559,988,-4.52718,-2.58755
-658,36,-4.2428,2.06592,0.00546523,-0.00884299,-0.00760213,0.00875016,-0.0121279,-0.407875,0.0121064,0.04649,566,988,-4.24282,-2.06592
-651,36,-4.16028,0.993164,0.00585954,-0.00667816,-0.0066104,0.0087009,-0.00951952,-0.405956,0.0105231,0.0377639,573,988,-4.1603,-0.99315
-644,36,-4.21906,0.943298,0.00548007,-0.00480317,-0.00550782,0.00787319,-0.00719629,-0.409886,0.0087033,0.018007,580,988,-4.21904,-0.943326
-637,36,-4.22656,0.93103,0.00509765,-0.00360299,-0.00449629,0.00700368,-0.00550902,-0.400948,0.00724137,0.0115454,587,988,-4.22656,-0.931049
-630,36,-4.20667,0.909973,0.00445674,-0.00211696,-0.00337529,0.00588114,-0.00354137,-0.399336,0.00549572,0.0115167,594,988,-4.20665,-0.909944
-623,36,-4.20398,0.869934,0.00328521,-0.000966252,-0.00237693,0.00434829,-0.00202933,-0.420565,0.00376238,0.0125814,601,988,-4.20395,-0.869925
-616,36,-4.20367,0.849182,0.00140531,-0.000255327,-0.00187109,0.00262204,-0.00147205,-0.57657,0.0023946,0.00989887,608,988,-4.20368,-0.849185
-609,36,-4.2052,0.848022,3.90245e-05,0.000444576,-0.00108121,0.00134186,-0.000858264,-0.878094,0.00128043,0.0138169,615,988,-4.20523,-0.848016
-602,36,-4.2077,0.833191,-0.000648727,0.000248442,-0.000450516,0.000435619,-0.000835904,-1.17702,0.000746141,0.019363,622,988,-4.20773,-0.833181
-595,36,-4.19055,0.805542,-0.00101539,0.000194758,-0.000266811,0.000250973,-0.00107161,-1.36314,0.00081111,0.0208343,629,988,-4.19056,-0.805517
-588,36,-4.2262,0.788574,-0.000792374,0.000147976,-0.000223575,0.000198426,-0.000842824,-1.34886,0.000638388,0.019071,636,988,-4.2262,-0.788554
-581,36,-4.2724,0.793335,-0.00068013,0.000119807,-0.000146426,0.000145768,-0.000706091,-1.39533,0.000526092,0.0230287,643,988,-4.27243,-0.79333
-574,36,-4.27917,0.706848,-0.000760552,-0.000219591,-0.000209861,-0.000147725,-0.000832418,-1.24087,0.000512845,0.0282833,650,988,-4.2792,-0.706872
-567,36,-4.28876,0.59552,-0.000627634,-0.000390625,-0.000154777,-0.000314196,-0.000704063,-1.11212,0.000407273,0.0357489,657,988,-4.28874,-0.595523
-560,36,-4.19916,0.488342,-0.000538536,-0.000703719,-4.39828e-05,-0.000527555,-0.0007147,-0.244667,0.00042795,0.0393615,664,988,-4.19914,-0.48837
-553,36,-4.28375,0.514954,-0.000580701,-0.00118072,0.000144153,-0.000547866,-0.00121356,0.22396,0.000701748,0.0420596,671,988,-4.28377,-0.514935
-546,36,-4.37341,0.538269,-0.000867304,-0.00188537,0.000413717,-0.000720383,-0.00203229,0.341233,0.0011898,0.043186,678,988,-4.37342,-0.53829
-539,36,-4.0741,0.723938,-0.00153757,-0.00290503,0.000747491,-0.00120827,-0.00323433,0.414959,0.00188713,0.0419962,685,988,-4.07411,-0.723929
-532,36,-3.64337,1.00659,-0.00298831,-0.00432634,0.00119532,-0.00228752,-0.00502713,0.53027,0.00290633,0.048003,692,988,-3.64335,-1.00659
-525,36,-3.83765,0.910706,-0.0058188,-0.00627642,0.00183903,-0.00419439,-0.00790082,0.723507,0.00456444,0.04995,699,988,-3.83766,-0.910695
-518,36,0,0,0,0,0,0,0,0,0,-1,706,988,0,0
-511,36,0,0,0,0,0,0,0,0,0,-1,713,988,0,0
-504,36,0,0,0,0,0,0,0,0,0,-1,720,988,0,0
-497,36,0,0,0,0,0,0,0,0,0,-1,727,988,0,0
-490,36,0,0,0,0,0,0,0,0,0,-1,734,988,0,0
-483,36,0,0,0,0,0,0,0,0,0,-1,741,988,0,0
-476,36,0,0,0,0,0,0,0,0,0,-1,748,988,0,0
-469,36,0,0,0,0,0,0,0,0,0,-1,755,988,0,0
-462,36,0,0,0,0,0,0,0,0,0,-1,762,988,0,0
-455,36,0,0,0,0,0,0,0,0,0,-1,769,988,0,0
-448,36,0,0,0,0,0,0,0,0,0,-1,776,988,0,0
-441,36,0,0,0,0,0,0,0,0,0,-1,783,988,0,0
-434,36,0,0,0,0,0,0,0,0,0,-1,790,988,0,0
-427,36,0,0,0,0,0,0,0,0,0,-1,797,988,0,0
-420,36,0,0,0,0,0,0,0,0,0,-1,804,988,0,0
-413,36,0,0,0,0,0,0,0,0,0,-1,811,988,0,0
-406,36,0,0,0,0,0,0,0,0,0,-1,818,988,0,0
-399,36,0,0,0,0,0,0,0,0,0,-1,825,988,0,0
-392,36,0,0,0,0,0,0,0,0,0,-1,832,988,0,0
-385,36,0,0,0,0,0,0,0,0,0,-1,839,988,0,0
-378,36,0,0,0,0,0,0,0,0,0,-1,846,988,0,0
-371,36,0,0,0,0,0,0,0,0,0,-1,853,988,0,0
-364,36,0,0,0,0,0,0,0,0,0,-1,860,988,0,0
-357,36,0,0,0,0,0,0,0,0,0,-1,867,988,0,0
-350,36,0,0,0,0,0,0,0,0,0,-1,874,988,0,0
-343,36,0,0,0,0,0,0,0,0,0,-1,881,988,0,0
-336,36,0,0,0,0,0,0,0,0,0,-1,888,988,0,0
-329,36,0,0,0,0,0,0,0,0,0,-1,895,988,0,0
-322,36,0,0,0,0,0,0,0,0,0,-1,902,988,0,0
-315,36,0,0,0,0,0,0,0,0,0,-1,909,988,0,0
-308,36,0,0,0,0,0,0,0,0,0,-1,916,988,0,0
-301,36,0,0,0,0,0,0,0,0,0,-1,923,988,0,0
-294,36,0,0,0,0,0,0,0,0,0,-1,930,988,0,0
-287,36,0,0,0,0,0,0,0,0,0,-1,937,988,0,0
-280,36,0,0,0,0,0,0,0,0,0,-1,944,988,0,0
-273,36,0,0,0,0,0,0,0,0,0,-1,951,988,0,0
-266,36,0,0,0,0,0,0,0,0,0,-1,958,988,0,0
-259,36,0,0,0,0,0,0,0,0,0,-1,965,988,0,0
-252,36,0,0,0,0,0,0,0,0,0,-1,972,988,0,0
-245,36,0,0,0,0,0,0,0,0,0,-1,979,988,0,0
-238,36,0,0,0,0,0,0,0,0,0,-1,986,988,0,0
-231,36,0,0,0,0,0,0,0,0,0,-1,993,988,0,0
-224,36,0,0,0,0,0,0,0,0,0,-1,1000,988,0,0
-217,36,0,0,0,0,0,0,0,0,0,-1,1007,988,0,0
-210,36,0,0,0,0,0,0,0,0,0,-1,1014,988,0,0
-203,36,0,0,0,0,0,0,0,0,0,-1,1021,988,0,0
-196,36,0,0,0,0,0,0,0,0,0,-1,1028,988,0,0
-189,36,0,0,0,0,0,0,0,0,0,-1,1035,988,0,0
-182,36,0,0,0,0,0,0,0,0,0,-1,1042,988,0,0
-175,36,0,0,0,0,0,0,0,0,0,-1,1049,988,0,0
-168,36,0,0,0,0,0,0,0,0,0,-1,1056,988,0,0
-161,36,0,0,0,0,0,0,0,0,0,-1,1063,988,0,0
-154,36,0,0,0,0,0,0,0,0,0,-1,1070,988,0,0
-147,36,0,0,0,0,0,0,0,0,0,-1,1077,988,0,0
-140,36,0,0,0,0,0,0,0,0,0,-1,1084,988,0,0
-133,36,0,0,0,0,0,0,0,0,0,-1,1091,988,0,0
-126,36,0,0,0,0,0,0,0,0,0,-1,1098,988,0,0
-119,36,0,0,0,0,0,0,0,0,0,-1,1105,988,0,0
-112,36,0,0,0,0,0,0,0,0,0,-1,1112,988,0,0
-105,36,0,0,0,0,0,0,0,0,0,-1,1119,988,0,0
-98,36,0,0,0,0,0,0,0,0,0,-1,1126,988,0,0
-91,36,0,0,0,0,0,0,0,0,0,-1,1133,988,0,0
-84,36,0,0,0,0,0,0,0,0,0,-1,1140,988,0,0
-77,36,0,0,0,0,0,0,0,0,0,-1,1147,988,0,0
-70,36,0,0,0,0,0,0,0,0,0,-1,1154,988,0,0
-63,36,0,0,0,0,0,0,0,0,0,-1,1161,988,0,0
-56,36,0,0,0,0,0,0,0,0,0,-1,1168,988,0,0
-49,36,0,0,0,0,0,0,0,0,0,-1,1175,988,0,0
-42,36,0,0,0,0,0,0,0,0,0,-1,1182,988,0,0
-35,36,0,0,0,0,0,0,0,0,0,-1,1189,988,0,0
-28,36,0,0,0,0,0,0,0,0,0,-1,1196,988,0,0
-21,36,0,0,0,0,0,0,0,0,0,-1,1203,988,0,0
-14,36,0,0,0,0,0,0,0,0,0,-1,1210,988,0,0
-7,36,0,0,0,0,0,0,0,0,0,-1,1217,988,0,0
0,36,0,0,0,0,0,0,0,0,0,-1,1224,988,0,0
7,36,0,0,0,0,0,0,0,0,0,-1,1231,988,0,0
14,36,0,0,0,0,0,0,0,0,0,-1,1238,988,0,0
21,36,0,0,0,0,0,0,0,0,0,-1,1245,988,0,0
28,36,0,0,0,0,0,0,0,0,0,-1,1252,988,0,0
35,36,0,0,0,0,0,0,0,0,0,-1,1259,988,0,0
42,36,0,0,0,0,0,0,0,0,0,-1,1266,988,0,0
49,36,0,0,0,0,0,0,0,0,0,-1,1273,988,0,0
56,36,0,0,0,0,0,0,0,0,0,-1,1280,988,0,0
63,36,0,0,0,0,0,0,0,0,0,-1,1287,988,0,0
70,36,0,0,0,0,0,0,0,0,0,-1,1294,988,0,0
77,36,0,0,0,0,0,0,0,0,0,-1,1301,988,0,0
84,36,0,0,0,0,0,0,0,0,0,-1,1308,988,0,0
91,36,0,0,0,0,0,0,0,0,0,-1,1315,988,0,0
98,36,0,0,0,0,0,0,0,0,0,-1,1322,988,0,0
105,36,0,0,0,0,0,0,0,0,0,-1,1329,988,0,0
112,36,0,0,0,0,0,0,0,0,0,-1,1336,988,0,0
119,36,0,0,0,0,0,0,0,0,0,-1,1343,988,0,0
126,36,0,0,0,0,0,0,0,0,0,-1,1350,988,0,0
133,36,0,0,0,0,0,0,0,0,0,-1,1357,988,0,0
140,36,0,0,0,0,0,0,0,0,0,-1,1364,988,0,0
147,36,0,0,0,0,0,0,0,0,0,-1,1371,988,0,0
154,36,0,0,0,0,0,0,0,0,0,-1,1378,988,0,0
161,36,0,0,0,0,0,0,0,0,0,-1,1385,988,0,0
168,36,0,0,0,0,0,0,0,0,0,-1,1392,988,0,0
175,36,0,0,0,0,0,0,0,0,0,-1,1399,988,0,0
182,36,0,0,0,0,0,0,0,0,0,-1,1406,988,0,0
189,36,0,0,0,0,0,0,0,0,0,-1,1413,988,0,0
196,36,0,0,0,0,0,0,0,0,0,-1,1420,988,0,0
203,36,0,0,0,0,0,0,0,0,0,-1,1427,988,0,0
210,36,0,0,0,0,0,0,0,0,0,-1,1434,988,0,0
217,36,0,0,0,0,0,0,0,0,0,-1,1441,988,0,0
224,36,0,0,0,0,0,0,0,0,0,-1,1448,988,0,0
231,36,0,0,0,0,0,0,0,0,0,-1,1455,988,0,0
238,36,0,0,0,0,0,0,0,0,0,-1,1462,988,0,0
245,36,0,0,0,0,0,0,0,0,0,-1,1469,988,0,0
252,36,0,0,0,0,0,0,0,0,0,-1,1476,988,0,0
259,36,0,0,0,0,0,0,0,0,0,-1,1483,988,0,0
266,36,0,0,0,0,0,0,0,0,0,-1,1490,988,0,0
273,36,0,0,0,0,0,0,0,0,0,-1,1497,988,0,0
280,36,0,0,0,0,0,0,0,0,0,-1,1504,988,0,0
287,36,0,0,0,0,0,0,0,0,0,-1,1511,988,0,0
294,36,0,0,0,0,0,0,0,0,0,-1,1518,988,0,0
301,36,0,0,0,0,0,0,0,0,0,-1,1525,988,0,0
308,36,0,0,0,0,0,0,0,0,0,-1,1532,988,0,0
315,36,0,0,0,0,0,0,0,0,0,-1,1539,988,0,0
322,36,0,0,0,0,0,0,0,0,0,-1,1546,988,0,0
329,36,0,0,0,0,0,0,0,0,0,-1,1553,988,0,0
336,36,0,0,0,0,0,0,0,0,0,-1,1560,988,0,0
343,36,0,0,0,0,0,0,0,0,0,-1,1567,988,0,0
350,36,0,0,0,0,0,0,0,0,0,-1,1574,988,0,0
357,36,0,0,0,0,0,0,0,0,0,-1,1581,988,0,0
364,36,0,0,0,0,0,0,0,0,0,-1,1588,988,0,0
371,36,0,0,0,0,0,0,0,0,0,-1,1595,988,0,0
378,36,0,0,0,0,0,0,0,0,0,-1,1602,988,0,0
385,36,0,0,0,0,0,0,0,0,0,-1,1609,988,0,0
392,36,0,0,0,0,0,0,0,0,0,-1,1616,988,0,0
399,36,0,0,0,0,0,0,0,0,0,-1,1623,988,0,0
406,36,0,0,0,0,0,0,0,0,0,-1,1630,988,0,0
413,36,0,0,0,0,0,0,0,0,0,-1,1637,988,0,0
420,36,0,0,0,0,0,0,0,0,0,-1,1644,988,0,0
427,36,0,0,0,0,0,0,0,0,0,-1,1651,988,0,0
434,36,0,0,0,0,0,0,0,0,0,-1,1658,988,0,0
441,36,0,0,0,0,0,0,0,0,0,-1,1665,988,0,0
448,36,0,0,0,0,0,0,0,0,0,-1,1672,988,0,0
455,36,0,0,0,0,0,0,0,0,0,-1,1679,988,0,0
462,36,0,0,0,0,0,0,0,0,0,-1,1686,988,0,0
469,36,0,0,0,0,0,0,0,0,0,-1,1693,988,0,0
476,36,0,0,0,0,0,0,0,0,0,-1,1700,988,0,0
483,36,0,0,0,0,0,0,0,0,0,-1,1707,988,0,0
490,36,0,0,0,0,0,0,0,0,0,-1,1714,988,0,0
497,36,0,0,0,0,0,0,0,0,0,-1,1721,988,0,0
504,36,0,0,0,0,0,0,0,0,0,-1,1728,988,0,0
511,36,0,0,0,0,0,0,0,0,0,-1,1735,988,0,0
518,36,0,0,0,0,0,0,0,0,0,-1,1742,988,0,0
525,36,0,0,0,0,0,0,0,0,0,-1,1749,988,0,0
532,36,0,0,0,0,0,0,0,0,0,-1,1756,988,0,0
539,36,0,0,0,0,0,0,0,0,0,-1,1763,988,0,0
546,36,0,0,0,0,0,0,0,0,0,-1,1770,988,0,0
553,36,0,0,0,0,0,0,0,0,0,-1,1777,988,0,0
560,36,0,0,0,0,0,0,0,0,0,-1,1784,988,0,0
567,36,0,0,0,0,0,0,0,0,0,-1,1791,988,0,0
574,36,0,0,0,0,0,0,0,0,0,-1,1798,988,0,0
581,36,0,0,0,0,0,0,0,0,0,-1,1805,988,0,0
588,36,0,0,0,0,0,0,0,0,0,-1,1812,988,0,0
595,36,0,0,0,0,0,0,0,0,0,-1,1819,988,0,0
602,36,0,0,0,0,0,0,0,0,0,-1,1826,988,0,0
609,36,0,0,0,0,0,0,0,0,0,-1,1833,988,0,0
616,36,0,0,0,0,0,0,0,0,0,-1,1840,988,0,0
623,36,0,0,0,0,0,0,0,0,0,-1,1847,988,0,0
630,36,0,0,0,0,0,0,0,0,0,-1,1854,988,0,0
637,36,0,0,0,0,0,0,0,0,0,-1,1861,988,0,0
644,36,9.52441,1.47961,0.00409049,0.00211788,0.000664031,0.00429319,0.00191518,0.296274,0.00248347,0.04205,1868,988,9.52437,-1.47964
651,36,9.453,1.49744,0.0030297,0.00163123,0.000384428,0.00312841,0.00153252,0.251338,0.00180631,0.0412427,1875,988,9.45295,-1.49746
658,36,9.62891,1.53015,0.00216922,0.00118237,0.000202577,0.00220919,0.00114241,0.194786,0.00127572,0.0372307,1882,988,9.62891,-1.53018
665,36,9.67322,1.5119,0.00128597,0.00085115,0.000141453,0.00132793,0.000809183,0.28841,0.000772771,0.0352719,1889,988,9.67321,-1.51189
672,36,9.54468,1.45966,0.000262924,0.000640776,0.000227729,0.000747745,0.000155955,1.13167,0.000455499,0.0382287,1896,988,9.54469,-1.45969
679,36,9.42749,1.43549,-0.000821842,0.000488846,0.000427425,0.000615913,-0.00094891,1.28183,0.000910244,0.0415761,1903,988,9.42752,-1.43549
686,36,9.49243,1.42645,-0.00171846,0.000384513,0.00063835,0.000563114,-0.00189706,1.29799,0.00148835,0.0402113,1910,988,9.49239,-1.42647
693,36,9.64624,1.33582,-0.00235372,0.00025983,0.000870427,0.000523184,-0.00261707,1.27699,0.00194273,0.0386854,1917,988,9.64618,-1.33583
700,36,9.63782,1.31433,-0.00292369,0.000294997,0.000930408,0.00054459,-0.00317329,1.30871,0.00231847,0.0322718,1924,988,9.63778,-1.31435
707,36,9.60889,1.2655,-0.00354409,0.00027284,0.00103723,0.000536492,-0.00380774,1.32188,0.00273492,0.0251563,1931,988,9.6089,-1.26553
714,36,9.65198,1.25446,-0.00395517,0.000244288,0.00116138,0.000544073,-0.00425495,1.31818,0.0030343,0.0299811,1938,988,9.65196,-1.25447
721,36,9.53528,1.44708,-0.00394935,0.000298071,0.00122321,0.000625156,-0.00427643,1.30951,0.00308056,0.0332278,1945,988,9.53528,-1.4471
728,36,9.44714,1.55334,-0.00365214,0.000345289,0.00107145,0.000614364,-0.00392122,1.32475,0.00284116,0.016533,1952,988,9.44719,-1.55334
735,36,9.36011,1.60956,-0.00339652,0.00036432,0.000691605,0.000487471,-0.00351967,1.39458,0.00252468,0.0152853,1959,988,9.36009,-1.60955
742,36,9.3667,1.62286,-0.00321766,0.000150185,0.000321001,0.000180508,-0.00324798,1.47661,0.00222793,0.013625,1966,988,9.3667,-1.62284
749,36,9.37598,1.63391,-0.00273745,-0.000194074,-5.79208e-05,-0.000192756,-0.00273877,-1.54804,0.0017651,0.0146397,1973,988,9.37603,-1.63393
756,36,9.35718,1.65759,-0.00209208,-0.000896665,-0.000549638,-0.000682365,-0.00230638,-1.19903,0.00136808,0.0119358,1980,988,9.35714,-1.65758
763,36,9.33142,1.68579,-0.00103788,-0.00197468,-0.000903689,-0.000488413,-0.00252414,-0.546301,0.00154589,0.0141603,1987,988,9.33136,-1.68582
770,36,9.3479,1.69159,-7.95045e-06,-0.00328772,-0.0013352,0.000466873,-0.00376254,-0.341672,0.00267759,0.0133426,1994,988,9.34795,-1.69157
777,36,9.33875,1.73456,0.00116425,-0.00508401,-0.00162278,0.00156058,-0.00548034,-0.239537,0.00426989,0.0199394,2001,988,9.33869,-1.73454
784,36,9.36487,1.5213,0.00249406,-0.00749857,-0.00166593,0.00276448,-0.00776899,-0.16092,0.00630614,0.0375728,2008,988,9.3649,-1.52128
791,36,9.42615,1.32257,0.00430874,-0.0106505,-0.00141896,0.00444215,-0.0107839,-0.0937406,0.00904138,0.04265,2015,988,9.42617,-1.32256
798,36,9.49048,1.18707,0.00692284,-0.0146204,-0.000829005,0.0069547,-0.0146523,-0.0384052,0.0127359,0.0432784,2022,988,9.49054,-1.18709
805,36,9.32678,0.999817,0.0104869,-0.0194591,0.000269675,0.0104894,-0.0194616,0.00900437,0.0175489,0.0447072,2029,988,9.32676,-0.999791
812,36,9.38953,0.937561,0.0151809,-0.0251593,0.00214858,0.015295,-0.0252735,0.0530614,0.0236572,0.0471782,2036,988,9.38948,-0.937585
-700,29,0,0,0,0,0,0,0,0,0,-1,524,995,0,0
-693,29,-4.48712,3.22479,-0.0274338,-0.00890112,-0.00421237,-0.0079886,-0.0283463,-1.35746,0.0168771,0.0433058,531,995,-4.4871,-3.22478
-686,29,-4.99274,3.4118,-0.0155237,-0.00920502,-0.00702619,-0.00466054,-0.0200682,-0.99668,0.0121275,0.0413679,538,995,-4.99273,-3.41178
-679,29,-5.6344,3.12225,-0.00764162,-0.00848602,-0.0083169,0.000263788,-0.0163914,-0.760038,0.0110166,0.0429281,545,995,-5.63441,-3.12225
-672,29,-6.17017,2.91437,-0.00240484,-0.0073135,-0.0087118,0.00419175,-0.0139101,-0.648094,0.0109416,0.0445515,552,995,-6.17014,-2.91437
-665,29,-4.57996,2.4447,0.000900524,-0.00597337,-0.00849182,0.00662456,-0.0116974,-0.593107,0.0107125,0.0440231,559,995,-4.57997,-2.44473
-658,29,-4.31061,2.26367,0.00275197,-0.00462908,-0.00783685,0.00772379,-0.0096009,-0.565341,0.010022,0.0444307,566,995,-4.3106,-2.26369
-651,29,-4.15814,0.887573,0.00354308,-0.00339624,-0.00690098,0.00779754,-0.0076507,-0.552464,0.00891918,0.0374398,573,995,-4.15814,-0.887543
-644,29,-4.22247,0.899536,0.00359143,-0.00234652,-0.00582584,0.00716121,-0.00591629,-0.549741,0.00756169,0.0173746,580,995,-4.22248,-0.899536
-637,29,-4.23969,0.903503,0.00363238,-0.00172788,-0.00480497,0.00645415,-0.00454965,-0.530999,0.00638468,0.0116179,587,995,-4.23969,-0.903498
-630,29,-4.23047,0.898499,0.00332781,-0.000854657,-0.00373266,0.00551513,-0.00304198,-0.530058,0.00500876,0.0104275,594,995,-4.23047,-0.898507
-623,29,-4.21674,0.88385,0.00247173,-0.000287854,-0.00272976,0.0041506,-0.00196672,-0.551394,0.00360608,0.0105575,601,995,-4.21671,-0.883859
-616,29,-4.23523,0.857605,0.000997196,1.55252e-05,-0.00213879,0.00270075,-0.00168803,-0.672605,0.00255625,0.0118781,608,995,-4.23523,-0.857575
-609,29,-4.2536,0.83783,-2.23679e-05,0.000506167,-0.00141156,0.00167799,-0.00119419,-0.877935,0.00166607,0.0171704,615,995,-4.25361,-0.837808
-602,29,-4.23041,0.83905,-0.000495859,0.000133675,-0.000678052,0.000566459,-0.000928643,-1.00271,0.000871599,0.0203684,622,995,-4.23042,-0.839061
-595,29,-4.21661,0.810547,-0.000716505,2.65917e-05,-0.000452412,0.00024047,-0.000930383,-1.12918,0.00071404,0.0204818,629,995,-4.2166,-0.810532
-588,29,-4.25671,0.776306,-0.000442729,-8.96523e-05,-0.00039422,0.000165753,-0.000698134,-0.995917,0.000529395,0.0240129,636,995,-4.25669,-0.77631
-581,29,-4.28296,0.761719,-0.000330317,-0.000165856,-0.000260893,2.54592e-05,-0.000521631,-0.938064,0.000356544,0.0366577,643,995,-4.28298,-0.761717
-574,29,-4.28796,0.734802,-0.00039954,-0.000592161,-0.000269548,-0.000209613,-0.000782088,-0.613814,0.000467458,0.0327164,650,995,-4.28796,-0.734806
-567,29,-4.3042,0.670105,-0.000306085,-0.000882354,-0.000141203,-0.000273346,-0.000915093,-0.227832,0.000542413,0.0318529,657,995,-4.30422,-0.67009
-560,29,-4.27979,0.60321,-0.000312345,-0.00131455,6.92927e-05,-0.000307576,-0.00131932,0.0687045,0.000797053,0.0383954,664,995,-4.27977,-0.60322
-553,29,-4.32159,0.530396,-0.000518215,-0.00193138,0.0003788,-0.000423082,-0.00202651,0.246055,0.00123439,0.0425636,671,995,-4.32158,-0.530385
-546,29,-4.47479,0.562683,-0.00105333,-0.00280573,0.00079135,-0.00074887,-0.00311019,0.36728,0.00187438,0.0415108,678,995,-4.47479,-0.562653
-539,29,-4.35828,0.597778,-0.00206822,-0.00404056,0.00128143,-0.00143742,-0.00467136,0.457437,0.00276269,0.0402005,685,995,-4.3583,-0.597765
-532,29,-3.95856,1.14325,-0.0039937,-0.00573704,0.00189627,-0.00277835,-0.00695238,0.569962,0.00404083,0.0459536,692,995,-3.95858,-1.14324
-525,29,-3.94293,1.31915,-0.00744443,-0.00803523,0.00272814,-0.00499574,-0.0104839,0.731469,0.00605512,0.046948,699,995,-3.94292,-1.31914
-518,29,0,0,0,0,0,0,0,0,0,-1,706,995,0,0
-511,29,0,0,0,0,0,0,0,0,0,-1,713,995,0,0
-504,29,0,0,0,0,0,0,0,0,0,-1,720,995,0,0
-497,29,0,0,0,0,0,0,0,0,0,-1,727,995,0,0
-490,29,0,0,0,0,0,0,0,0,0,-1,734,995,0,0
-483,29,0,0,0,0,0,0,0,0,0,-1,741,995,0,0
-476,29,0,0,0,0,0,0,0,0,0,-1,748,995,0,0
-469,29,0,0,0,0,0,0,0,0,0,-1,755,995,0,0
-462,29,0,0,0,0,0,0,0,0,0,-1,762,995,0,0
-455,29,0,0,0,0,0,0,0,0,0,-1,769,995,0,0
-448,29,0,0,0,0,0,0,0,0,0,-1,776,995,0,0
-441,29,0,0,0,0,0,0,0,0,0,-1,783,995,0,0
-434,29,0,0,0,0,0,0,0,0,0,-1,790,995,0,0
-427,29,0,0,0,0,0,0,0,0,0,-1,797,995,0,0
-420,29,0,0,0,0,0,0,0,0,0,-1,804,995,0,0
-413,29,0,0,0,0,0,0,0,0,0,-1,811,995,0,0
-406,29,0,0,0,0,0,0,0,0,0,-1,818,995,0,0
-399,29,0,0,0,0,0,0,0,0,0,-1,825,995,0,0
-392,29,0,0,0,0,0,0,0,0,0,-1,832,995,0,0
-385,29,0,0,0,0,0,0,0,0,0,-1,839,995,0,0
-378,29,0,0,0,0,0,0,0,0,0,-1,846,995,0,0
-371,29,0,0,0,0,0,0,0,0,0,-1,853,995,0,0
-364,29,0,0,0,0,0,0,0,0,0,-1,860,995,0,0
-357,29,0,0,0,0,0,0,0,0,0,-1,867,995,0,0
-350,29,0,0,0,0,0,0,0,0,0,-1,874,995,0,0
-343,29,0,0,0,0,0,0,0,0,0,-1,881,995,0,0
-336,29,0,0,0,0,0,0,0,0,0,-1,888,995,0,0
-329,29,0,0,0,0,0,0,0,0,0,-1,895,995,0,0
-322,29,0,0,0,0,0,0,0,0,0,-1,902,995,0,0
-315,29,0,0,0,0,0,0,0,0,0,-1,909,995,0,0
-308,29,0,0,0,0,0,0,0,0,0,-1,916,995,0,0
-301,29,0,0,0,0,0,0,0,0,0,-1,923,995,0,0
-294,29,0,0,0,0,0,0,0,0,0,-1,930,995,0,0
-287,29,0,0,0,0,0,0,0,0,0,-1,937,995,0,0
-280,29,0,0,0,0,0,0,0,0,0,-1,944,995,0,0
-273,29,0,0,0,0,0,0,0,0,0,-1,951,995,0,0
-266,29,0,0,0,0,0,0,0,0,0,-1,958,995,0,0
-259,29,0,0,0,0,0,0,0,0,0,-1,965,995,0,0
-252,29,0,0,0,0,0,0,0,0,0,-1,972,995,0,0
-245,29,0,0,0,0,0,0,0,0,0,-1,979,995,0,0
-238,29,0,0,0,0,0,0,0,0,0,-1,986,995,0,0
-231,29,0,0,0,0,0,0,0,0,0,-1,993,995,0,0
-224,29,0,0,0,0,0,0,0,0,0,-1,1000,995,0,0
-217,29,0,0,0,0,0,0,0,0,0,-1,1007,995,0,0
-210,29,0,0,0,0,0,0,0,0,0,-1,1014,995,0,0
-203,29,0,0,0,0,0,0,0,0,0,-1,1021,995,0,0
-196,29,0,0,0,0,0,0,0,0,0,-1,1028,995,0,0
-189,29,0,0,0,0,0,0,0,0,0,-1,1035,995,0,0
-182,29,0,0,0,0,0,0,0,0,0,-1,1042,995,0,0
-175,29,0,0,0,0,0,0,0,0,0,-1,1049,995,0,0
-168,29,0,0,0,0,0,0,0,0,0,-1,1056,995,0,0
-161,29,0,0,0,0,0,0,0,0,0,-1,1063,995,0,0
-154,29,0,0,0,0,0,0,0,0,0,-1,1070,995,0,0
-147,29,0,0,0,0,0,0,0,0,0,-1,1077,995,0,0
-140,29,0,0,0,0,0,0,0,0,0,-1,1084,995,0,0
-133,29,0,0,0,0,0,0,0,0,0,-1,1091,995,0,0
-126,29,0,0,0,0,0,0,0,0,0,-1,1098,995,0,0
-119,29,0,0,0,0,0,0,0,0,0,-1,1105,995,0,0
-112,29,0,0,0,0,0,0,0,0,0,-1,1112,995,0,0
-105,29,0,0,0,0,0,0,0,0,0,-1,1119,995,0,0
-98,29,0,0,0,0,0,0,0,0,0,-1,1126,995,0,0
-91,29,0,0,0,0,0,0,0,0,0,-1,1133,995,0,0
-84,29,0,0,0,0,0,0,0,0,0,-1,1140,995,0,0
-77,29,0,0,0,0,0,0,0,0,0,-1,1147,995,0,0
-70,29,0,0,0,0,0,0,0,0,0,-1,1154,995,0,0
-63,29,0,0,0,0,0,0,0,0,0,-1,1161,995,0,0
-56,29,0,0,0,0,0,0,0,0,0,-1,1168,995,0,0
-49,29,0,0,0,0,0,0,0,0,0,-1,1175,995,0,0
-42,29,0,0,0,0,0,0,0,0,0,-1,1182,995,0,0
-35,29,0,0,0,0,0,0,0,0,0,-1,1189,995,0,0
-28,29,0,0,0,0,0,0,0,0,0,-1,1196,995,0,0
-21,29,0,0,0,0,0,0,0,0,0,-1,1203,995,0,0
-14,29,0,0,0,0,0,0,0,0,0,-1,1210,995,0,0
-7,29,0,0,0,0,0,0,0,0,0,-1,1217,995,0,0
0,29,0,0,0,0,0,0,0,0,0,-1,1224,995,0,0
7,29,0,0,0,0,0,0,0,0,0,-1,1231,995,0,0
14,29,0,0,0,0,0,0,0,0,0,-1,1238,995,0,0
21,29,0,0,0,0,0,0,0,0,0,-1,1245,995,0,0
28,29,0,0,0,0,0,0,0,0,0,-1,1252,995,0,0
35,29,0,0,0,0,0,0,0,0,0,-1,1259,995,0,0
42,29,0,0,0,0,0,0,0,0,0,-1,1266,995,0,0
49,29,0,0,0,0,0,0,0,0,0,-1,1273,995,0,0
56,29,0,0,0,0,0,0,0,0,0,-1,1280,995,0,0
63,29,0,0,0,0,0,0,0,0,0,-1,1287,995,0,0
70,29,0,0,0,0,0,0,0,0,0,-1,1294,995,0,0
77,29,0,0,0,0,0,0,0,0,0,-1,1301,995,0,0
84,29,0,0,0,0,0,0,0,0,0,-1,1308,995,0,0
91,29,0,0,0,0,0,0,0,0,0,-1,1315,995,0,0
98,29,0,0,0,0,0,0,0,0,0,-1,1322,995,0,0
105,29,0,0,0,0,0,0,0,0,0,-1,1329,995,0,0
112,29,0,0,0,0,0,0,0,0,0,-1,1336,995,0,0
119,29,0,0,0,0,0,0,0,0,0,-1,1343,995,0,0
126,29,0,0,0,0,0,0,0,0,0,-1,1350,995,0,0
133,29,0,0,0,0,0,0,0,0,0,-1,1357,995,0,0
140,29,0,0,0,0,0,0,0,0,0,-1,1364,995,0,0
147,29,0,0,0,0,0,0,0,0,0,-1,1371,995,0,0
154,29,0,0,0,0,0,0,0,0,0,-1,1378,995,0,0
161,29,0,0,0,0,0,0,0,0,0,-1,1385,995,0,0
168,29,0,0,0,0,0,0,0,0,0,-1,1392,995,0,0
175,29,0,0,0,0,0,0,0,0,0,-1,1399,995,0,0
182,29,0,0,0,0,0,0,0,0,0,-1,1406,995,0,0
189,29,0,0,0,0,0,0,0,0,0,-1,1413,995,0,0
196,29,0,0,0,0,0,0,0,0,0,-1,1420,995,0,0
203,29,0,0,0,0,0,0,0,0,0,-1,1427,995,0,0
210,29,0,0,0,0,0,0,0,0,0,-1,1434,995,0,0
217,29,0,0,0,0,0,0,0,0,0,-1,1441,995,0,0
224,29,0,0,0,0,0,0,0,0,0,-1,1448,995,0,0
231,29,0,0,0,0,0,0,0,0,0,-1,1455,995,0,0
238,29,0,0,0,0,0,0,0,0,0,-1,1462,995,0,0
245,29,0,0,0,0,0,0,0,0,0,-1,1469,995,0,0
252,29,0,0,0,0,0,0,0,0,0,-1,1476,995,0,0
259,29,0,0,0,0,0,0,0,0,0,-1,1483,995,0,0
266,29,0,0,0,0,0,0,0,0,0,-1,1490,995,0,0
273,29,0,0,0,0,0,0,0,0,0,-1,1497,995,0,0
280,29,0,0,0,0,0,0,0,0,0,-1,1504,995,0,0
287,29,0,0,0,0,0,0,0,0,0,-1,1511,995,0,0
294,29,0,0,0,0,0,0,0,0,0,-1,1518,995,0,0
301,29,0,0,0,0,0,0,0,0,0,-1,1525,995,0,0
308,29,0,0,0,0,0,0,0,0,0,-1,1532,995,0,0
315,29,0,0,0,0,0,0,0,0,0,-1,1539,995,0,0
322,29,0,0,0,0,0,0,0,0,0,-1,1546,995,0,0
329,29,0,0,0,0,0,0,0,0,0,-1,1553,995,0,0
336,29,0,0,0,0,0,0,0,0,0,-1,1560,995,0,0
343,29,0,0,0,0,0,0,0,0,0,-1,1567,995,0,0
350,29,0,0,0,0,0,0,0,0,0,-1,1574,995,0,0
357,29,0,0,0,0,0,0,0,0,0,-1,1581,995,0,0
364,29,0,0,0,0,0,0,0,0,0,-1,1588,995,0,0
371,29,0,0,0,0,0,0,0,0,0,-1,1595,995,0,0
378,29,0,0,0,0,0,0,0,0,0,-1,1602,995,0,0
385,29,0,0,0,0,0,0,0,0,0,-1,1609,995,0,0
392,29,0,0,0,0,0,0,0,0,0,-1,1616,995,0,0
399,29,0,0,0,0,0,0,0,0,0,-1,1623,995,0,0
406,29,0,0,0,0,0,0,0,0,0,-1,1630,995,0,0
413,29,0,0,0,0,0,0,0,0,0,-1,1637,995,0,0
420,29,0,0,0,0,0,0,0,0,0,-1,1644,995,0,0
427,29,0,0,0,0,0,0,0,0,0,-1,1651,995,0,0
434,29,0,0,0,0,0,0,0,0,0,-1,1658,995,0,0
441,29,0,0,0,0,0,0,0,0,0,-1,1665,995,0,0
448,29,0,0,0,0,0,0,0,0,0,-1,1672,995,0,0
455,29,0,0,0,0,0,0,0,0,0,-1,1679,995,0,0
462,29,0,0,0,0,0,0,0,0,0,-1,1686,995,0,0
469,29,0,0,0,0,0,0,0,0,0,-1,1693,995,0,0
476,29,0,0,0,0,0,0,0,0,0,-1,1700,995,0,0
483,29,0,0,0,0,0,0,0,0,0,-1,1707,995,0,0
490,29,0,0,0,0,0,0,0,0,0,-1,1714,995,0,0
497,29,0,0,0,0,0,0,0,0,0,-1,1721,995,0,0
504,29,0,0,0,0,0,0,0,0,0,-1,1728,995,0,0
511,29,0,0,0,0,0,0,0,0,0,-1,1735,995,0,0
518,29,0,0,0,0,0,0,0,0,0,-1,1742,995,0,0
525,29,0,0,0,0,0,0,0,0,0,-1,1749,995,0,0
532,29,0,0,0,0,0,0,0,0,0,-1,1756,995,0,0
539,29,0,0,0,0,0,0,0,0,0,-1,1763,995,0,0
546,29,0,0,0,0,0,0,0,0,0,-1,1770,995,0,0
553,29,0,0,0,0,0,0,0,0,0,-1,1777,995,0,0
560,29,0,0,0,0,0,0,0,0,0,-1,1784,995,0,0
567,29,0,0,0,0,0,0,0,0,0,-1,1791,995,0,0
574,29,0,0,0,0,0,0,0,0,0,-1,1798,995,0,0
581,29,0,0,0,0,0,0,0,0,0,-1,1805,995,0,0
588,29,0,0,0,0,0,0,0,0,0,-1,1812,995,0,0
595,29,0,0,0,0,0,0,0,0,0,-1,1819,995,0,0
602,29,0,0,0,0,0,0,0,0,0,-1,1826,995,0,0
609,29,0,0,0,0,0,0,0,0,0,-1,1833,995,0,0
616,29,0,0,0,0,0,0,0,0,0,-1,1840,995,0,0
623,29,0,0,0,0,0,0,0,0,0,-1,1847,995,0,0
630,29,0,0,0,0,0,0,0,0,0,-1,1854,995,0,0
637,29,0,0,0,0,0,0,0,0,0,-1,1861,995,0,0
644,29,9.49341,1.4054,0.00526388,0.00165187,0.0014174,0.00575367,0.00116207,0.33271,0.00351308,0.0422588,1868,995,9.49347,-1.40542
651,29,9.38818,1.49799,0.00371687,0.00131338,0.000839224,0.00398089,0.00104935,0.304805,0.00238246,0.0438008,1875,995,9.38822,-1.49801
658,29,9.55603,1.34912,0.00254338,0.000986292,0.000463985,0.00267116,0.000858517,0.268724,0.00157465,0.0423811,1882,995,9.55601,-1.34913
665,29,9.72546,1.54059,0.00153712,0.000752792,0.000274744,0.00162378,0.000666127,0.305559,0.000942516,0.039468,1889,995,9.72547,-1.54056
672,29,9.63953,1.50311,0.000502852,0.000617934,0.000308072,0.000873792,0.000246993,0.877723,0.000520127,0.0379315,1896,995,9.63948,-1.50312
679,29,9.53979,1.45825,-0.000573892,0.000521194,0.000502492,0.000716821,-0.000769519,1.19954,0.000858318,0.0392168,1903,995,9.53976,-1.45827
686,29,9.495,1.45703,-0.00144869,0.000453461,0.000732408,0.000702788,-0.00169802,1.24268,0.00142525,0.0375331,1910,995,9.49495,-1.457
693,29,9.60437,1.43109,-0.0020909,0.000356745,0.000962931,0.000690156,-0.00242431,1.23747,0.00188877,0.0353693,1917,995,9.60438,-1.43107
700,29,9.6272,1.34601,-0.00264453,0.000391501,0.00105482,0.000722,-0.00297503,1.26716,0.00226275,0.0307658,1924,995,9.62723,-1.346
707,29,9.61389,1.18646,0,0,0,0,0,0,0,-1,1931,995,9.61388,-1.18648
714,29,9.65088,1.26105,-0.00362503,0.000343167,0.0013732,0.00077202,-0.00405389,1.26809,0.0029933,0.0249063,1938,995,9.65094,-1.26102
721,29,9.53064,1.44879,-0.00365362,0.000369679,0.00144589,0.000835395,-0.00411934,1.25919,0.0030629,0.0267426,1945,995,9.53059,-1.4488
728,29,9.44312,1.53839,-0.00341506,0.000410309,0.00131895,0.000820983,-0.00382574,1.26895,0.00286365,0.0172665,1952,995,9.4431,-1.53839
735,29,9.38391,1.61548,-0.00324408,0.000430989,0.000943071,0.000658864,-0.00347196,1.33371,0.00256265,0.013769,1959,995,9.38394,-1.61548
742,29,9.36951,1.62201,-0.00319417,0.000274435,0.000498516,0.000344661,-0.0032644,1.43085,0.00229978,0.0117935,1966,995,9.36953,-1.62201
749,29,9.39014,1.63654,-0.00285718,-4.47229e-05,5.21873e-05,-4.37548e-05,-0.00285815,1.55225,0.00189102,0.0124846,1973,995,9.39013,-1.63653
756,29,9.39697,1.67194,-0.00237216,-0.000763417,-0.000529796,-0.000604618,-0.00253096,-1.27958,0.00152622,0.0112224,1980,995,9.39701,-1.67196
763,29,9.37952,1.69727,-0.00149926,-0.00185825,-0.000994171,-0.00066851,-0.002689,-0.696088,0.00161658,0.0110975,1987,995,9.37951,-1.69728
770,29,9.35962,1.70917,-0.000669075,-0.00317214,-0.00158881,0.000101928,-0.00394314,-0.451795,0.00266339,0.012634,1994,995,9.3596,-1.70915
777,29,9.37585,1.7652,0.000324709,-0.00501078,-0.00207425,0.00103622,-0.00572229,-0.330445,0.00420307,0.0201944,2001,995,9.37583,-1.76518
784,29,9.35693,1.50696,0.00145505,-0.00753875,-0.0023438,0.0020292,-0.0081129,-0.240233,0.00619675,0.0385366,2008,995,9.35698,-1.50697
791,29,8.70081,1.09137,0.00304342,-0.0109197,-0.00235865,0.00343108,-0.0113074,-0.1629,0.00890507,0.0412772,2015,995,8.70085,-1.09138
798,29,9.3374,1.08618,0.00543955,-0.0152952,-0.00207074,0.00564433,-0.0154999,-0.0985709,0.012642,0.0425506,2022,995,9.33737,-1.08619
805,29,9.38049,0.925781,0,0,0,0,0,0,0,-1,2029,995,9.38051,-0.925786
812,29,9.06812,0.782471,0,0,0,0,0,0,0,-1,2036,995,9.06816,-0.782452
-700,22,0,0,0,0,0,0,0,0,0,-1,524,1002,0,0
-693,22,-5.12561,2.79523,-0.0288471,-0.00066571,-0.0044213,1.16546e-05,-0.0295244,-1.41877,0.0196868,0.0451761,531,1002,-5.12558,-2.7952
-686,22,-5.63947,2.84082,-0.018035,-0.000955225,-0.00689353,0.00147987,-0.0204701,-1.23123,0.0141658,0.0432109,538,1002,-5.63945,-2.8408
-679,22,-6.28436,2.83167,-0.0106189,-0.00078342,-0.00798174,0.00367394,-0.0150762,-1.06149,0.0114732,0.045484,545,1002,-6.28438,-2.83168
-672,22,-6.73138,2.85272,0,0,0,0,0,0,0,-1,552,1002,-6.73136,-2.8527
-665,22,-4.68951,2.47937,0,0,0,0,0,0,0,-1,559,1002,-4.68954,-2.4794
-658,22,-4.36279,2.26038,0.000124026,0.000248901,-0.00737003,0.00755676,-0.00718383,-0.789634,0.00851139,0.0463068,566,1002,-4.36278,-2.26036
-651,22,-4.46375,0.801453,0.00130511,0.000484797,-0.00649704,0.00740493,-0.00561503,-0.753875,0.00754071,0.0356556,573,1002,-4.46377,-0.80143
-644,22,-4.20508,0.91803,0.00183649,0.000554826,-0.00557233,0.00680472,-0.0044134,-0.728148,0.00652565,0.0159747,580,1002,-4.20508,-0.918046
-637,22,-4.22638,0.898743,0.00228082,0.000524983,-0.00460073,0.00608664,-0.00328084,-0.691121,0.00548859,0.0113463,587,1002,-4.22638,-0.898757
-630,22,-4.23944,0.895508,0.00230584,0.000765821,-0.00356235,0.00518045,-0.00210879,-0.67896,0.00433121,0.0103085,594,1002,-4.23944,-0.895511
-623,22,-4.2373,0.884521,0.0017106,0.000694102,-0.00264571,0.00389643,-0.00149173,-0.690503,0.00321247,0.00962385,601,1002,-4.23732,-0.884539
-616,22,-4.25537,0.864685,0.000641758,0.000390202,-0.00217108,0.0026907,-0.00165874,-0.756464,0.00253461,0.0147604,608,1002,-4.25534,-0.864691
-609,22,-4.29468,0.844299,-4.41099e-05,0.00064172,-0.00159656,0.00193177,-0.00133416,-0.891183,0.00189608,0.0226639,615,1002,-4.29465,-0.844303
-602,22,-4.33569,0.834045,-0.000334286,0.000156371,-0.000836449,0.000782727,-0.000960641,-0.928046,0.00100828,0.0234045,622,1002,-4.33571,-0.834039
-595,22,-4.30634,0.788696,-0.000439586,-3.05238e-06,-0.000597914,0.000415188,-0.000857826,-0.960407,0.000749639,0.0215857,629,1002,-4.30634,-0.788713
-588,22,-4.27106,0.700134,-0.000178709,-0.000173127,-0.000532509,0.000356598,-0.000708434,-0.788019,0.000625981,0.0264841,636,1002,-4.27107,-0.70015
-581,22,-4.29559,0.692871,-0.000104603,-0.00025936,-0.000361332,0.000187543,-0.000551506,-0.679917,0.000443602,0.0381465,643,1002,-4.29556,-0.692891
-574,22,-4.29077,0.750305,-0.000185601,-0.000704045,-0.000320424,-3.26731e-05,-0.000856973,-0.445297,0.000560742,0.0342675,650,1002,-4.29075,-0.750333
-567,22,-4.24316,0.736755,-0.000175718,-0.00104504,-0.000133437,-0.000155697,-0.00106506,-0.148929,0.000664252,0.0314388,657,1002,-4.24318,-0.736768
-560,22,-4.27386,0.798584,-0.000321368,-0.00152897,0.000151779,-0.000302584,-0.00154776,0.123135,0.000947227,0.0373907,664,1002,-4.27384,-0.79859
-553,22,-4.34479,0.667114,-0.000734829,-0.00221467,0.00055062,-0.000552435,-0.00239707,0.319876,0.00144943,0.0403919,671,1002,-4.34477,-0.667122
-546,22,-4.41278,0.634583,-0.00155813,-0.00318144,0.00107088,-0.00102607,-0.0037135,0.461118,0.00221436,0.0401473,678,1002,-4.41279,-0.634609
-539,22,-4.29993,0.741943,-0.00294688,-0.00454549,0.00167889,-0.00188673,-0.00560564,0.563229,0.00329354,0.04084,685,1002,-4.29992,-0.741955
-532,22,-4.30438,1.091,-0.00535374,-0.00641801,0.00241596,-0.003412,-0.00835975,0.677,0.00485357,0.0444426,692,1002,-4.30437,-1.091
-525,22,0,0,0,0,0,0,0,0,0,-1,699,1002,0,0
-518,22,0,0,0,0,0,0,0,0,0,-1,706,1002,0,0
-511,22,0,0,0,0,0,0,0,0,0,-1,713,1002,0,0
-504,22,0,0,0,0,0,0,0,0,0,-1,720,1002,0,0
-497,22,0,0,0,0,0,0,0,0,0,-1,727,1002,0,0
-490,22,0,0,0,0,0,0,0,0,0,-1,734,1002,0,0
-483,22,0,0,0,0,0,0,0,0,0,-1,741,1002,0,0
-476,22,0,0,0,0,0,0,0,0,0,-1,748,1002,0,0
-469,22,0,0,0,0,0,0,0,0,0,-1,755,1002,0,0
-462,22,0,0,0,0,0,0,0,0,0,-1,762,1002,0,0
-455,22,0,0,0,0,0,0,0,0,0,-1,769,1002,0,0
-448,22,0,0,0,0,0,0,0,0,0,-1,776,1002,0,0
-441,22,0,0,0,0,0,0,0,0,0,-1,783,1002,0,0
-434,22,0,0,0,0,0,0,0,0,0,-1,790,1002,0,0
-427,22,0,0,0,0,0,0,0,0,0,-1,797,1002,0,0
-420,22,0,0,0,0,0,0,0,0,0,-1,804,1002,0,0
-413,22,0,0,0,0,0,0,0,0,0,-1,811,1002,0,0
-406,22,0,0,0,0,0,0,0,0,0,-1,818,1002,0,0
-399,22,0,0,0,0,0,0,0,0,0,-1,825,1002,0,0
-392,22,0,0,0,0,0,0,0,0,0,-1,832,1002,0,0
-385,22,0,0,0,0,0,0,0,0,0,-1,839,1002,0,0
-378,22,0,0,0,0,0,0,0,0,0,-1,846,1002,0,0
-371,22,0,0,0,0,0,0,0,0,0,-1,853,1002,0,0
-364,22,0,0,0,0,0,0,0,0,0,-1,860,1002,0,0
-357,22,0,0,0,0,0,0,0,0,0,-1,867,1002,0,0
-350,22,0,0,0,0,0,0,0,0,0,-1,874,1002,0,0
-343,22,0,0,0,0,0,0,0,0,0,-1,881,1002,0,0
-336,22,0,0,0,0,0,0,0,0,0,-1,888,1002,0,0
-329,22,0,0,0,0,0,0,0,0,0,-1,895,1002,0,0
-322,22,0,0,0,0,0,0,0,0,0,-1,902,1002,0,0
-315,22,0,0,0,0,0,0,0,0,0,-1,909,1002,0,0
-308,22,0,0,0,0,0,0,0,0,0,-1,916,1002,0,0
-301,22,0,0,0,0,0,0,0,0,0,-1,923,1002,0,0
-294,22,0,0,0,0,0,0,0,0,0,-1,930,1002,0,0
-287,22,0,0,0,0,0,0,0,0,0,-1,937,1002,0,0
-280,22,0,0,0,0,0,0,0,0,0,-1,944,1002,0,0
-273,22,0,0,0,0,0,0,0,0,0,-1,951,1002,0,0
-266,22,0,0,0,0,0,0,0,0,0,-1,958,1002,0,0
-259,22,0,0,0,0,0,0,0,0,0,-1,965,1002,0,0
-252,22,0,0,0,0,0,0,0,0,0,-1,972,1002,0,0
-245,22,0,0,0,0,0,0,0,0,0,-1,979,1002,0,0
-238,22,0,0,0,0,0,0,0,0,0,-1,986,1002,0,0
-231,22,0,0,0,0,0,0,0,0,0,-1,993,1002,0,0
-224,22,0,0,0,0,0,0,0,0,0,-1,1000,1002,0,0
-217,22,0,0,0,0,0,0,0,0,0,-1,1007,1002,0,0
-210,22,0,0,0,0,0,0,0,0,0,-1,1014,1002,0,0
-203,22,0,0,0,0,0,0,0,0,0,-1,1021,1002,0,0
-196,22,0,0,0,0,0,0,0,0,0,-1,1028,1002,0,0
-189,22,0,0,0,0,0,0,0,0,0,-1,1035,1002,0,0
-182,22,0,0,0,0,0,0,0,0,0,-1,1042,1002,0,0
-175,22,0,0,0,0,0,0,0,0,0,-1,1049,1002,0,0
-168,22,0,0,0,0,0,0,0,0,0,-1,1056,1002,0,0
-161,22,0,0,0,0,0,0,0,0,0,-1,1063,1002,0,0
-154,22,0,0,0,0,0,0,0,0,0,-1,1070,1002,0,0
-147,22,0,0,0,0,0,0,0,0,0,-1,1077,1002,0,0
-140,22,0,0,0,0,0,0,0,0,0,-1,1084,1002,0,0
-133,22,0,0,0,0,0,0,0,0,0,-1,1091,1002,0,0
-126,22,0,0,0,0,0,0,0,0,0,-1,1098,1002,0,0
-119,22,0,0,0,0,0,0,0,0,0,-1,1105,1002,0,0
-112,22,0,0,0,0,0,0,0,0,0,-1,1112,1002,0,0
-105,22,0,0,0,0,0,0,0,0,0,-1,1119,1002,0,0
-98,22,0,0,0,0,0,0,0,0,0,-1,1126,1002,0,0
-91,22,0,0,0,0,0,0,0,0,0,-1,1133,1002,0,0
-84,22,0,0,0,0,0,0,0,0,0,-1,1140,1002,0,0
-77,22,0,0,0,0,0,0,0,0,0,-1,1147,1002,0,0
-70,22,0,0,0,0,0,0,0,0,0,-1,1154,1002,0,0
-63,22,0,0,0,0,0,0,0,0,0,-1,1161,1002,0,0
-56,22,0,0,0,0,0,0,0,0,0,-1,1168,1002,0,0
-49,22,0,0,0,0,0,0,0,0,0,-1,1175,1002,0,0
-42,22,0,0,0,0,0,0,0,0,0,-1,1182,1002,0,0
-35,22,0,0,0,0,0,0,0,0,0,-1,1189,1002,0,0
-28,22,0,0,0,0,0,0,0,0,0,-1,1196,1002,0,0
-21,22,0,0,0,0,0,0,0,0,0,-1,1203,1002,0,0
-14,22,0,0,0,0,0,0,0,0,0,-1,1210,1002,0,0
-7,22,0,0,0,0,0,0,0,0,0,-1,1217,1002,0,0
0,22,0,0,0,0,0,0,0,0,0,-1,1224,1002,0,0
7,22,0,0,0,0,0,0,0,0,0,-1,1231,1002,0,0
14,22,0,0,0,0,0,0,0,0,0,-1,1238,1002,0,0
21,22,0,0,0,0,0,0,0,0,0,-1,1245,1002,0,0
28,22,0,0,0,0,0,0,0,0,0,-1,1252,1002,0,0
35,22,0,0,0,0,0,0,0,0,0,-1,1259,1002,0,0
42,22,0,0,0,0,0,0,0,0,0,-1,1266,1002,0,0
49,22,0,0,0,0,0,0,0,0,0,-1,1273,1002,0,0
56,22,0,0,0,0,0,0,0,0,0,-1,1280,1002,0,0
63,22,0,0,0,0,0,0,0,0,0,-1,1287,1002,0,0
70,22,0,0,0,0,0,0,0,0,0,-1,1294,1002,0,0
77,22,0,0,0,0,0,0,0,0,0,-1,1301,1002,0,0
84,22,0,0,0,0,0,0,0,0,0,-1,1308,1002,0,0
91,22,0,0,0,0,0,0,0,0,0,-1,1315,1002,0,0
98,22,0,0,0,0,0,0,0,0,0,-1,1322,1002,0,0
105,22,0,0,0,0,0,0,0,0,0,-1,1329,1002,0,0
112,22,0,0,0,0,0,0,0,0,0,-1,1336,1002,0,0
119,22,0,0,0,0,0,0,0,0,0,-1,1343,1002,0,0
126,22,0,0,0,0,0,0,0,0,0,-1,1350,1002,0,0
133,22,0,0,0,0,0,0,0,0,0,-1,1357,1002,0,0
140,22,0,0,0,0,0,0,0,0,0,-1,1364,1002,0,0
147,22,0,0,0,0,0,0,0,0,0,-1,1371,1002,0,0
154,22,0,0,0,0,0,0,0,0,0,-1,1378,1002,0,0
161,22,0,0,0,0,0,0,0,0,0,-1,1385,1002,0,0
168,22,0,0,0,0,0,0,0,0,0,-1,1392,1002,0,0
175,22,0,0,0,0,0,0,0,0,0,-1,1399,1002,0,0
182,22,0,0,0,0,0,0,0,0,0,-1,1406,1002,0,0
189,22,0,0,0,0,0,0,0,0,0,-1,1413,1002,0,0
196,22,0,0,0,0,0,0,0,0,0,-1,1420,1002,0,0
203,22,0,0,0,0,0,0,0,0,0,-1,1427,1002,0,0
210,22,0,0,0,0,0,0,0,0,0,-1,1434,1002,0,0
217,22,0,0,0,0,0,0,0,0,0,-1,1441,1002,0,0
224,22,0,0,0,0,0,0,0,0,0,-1,1448,1002,0,0
231,22,0,0,0,0,0,0,0,0,0,-1,1455,1002,0,0
238,22,0,0,0,0,0,0,0,0,0,-1,1462,1002,0,0
245,22,0,0,0,0,0,0,0,0,0,-1,1469,1002,0,0
252,22,0,0,0,0,0,0,0,0,0,-1,1476,1002,0,0
259,22,0,0,0,0,0,0,0,0,0,-1,1483,1002,0,0
266,22,0,0,0,0,0,0,0,0,0,-1,1490,1002,0,0
273,22,0,0,0,0,0,0,0,0,0,-1,1497,1002,0,0
280,22,0,0,0,0,0,0,0,0,0,-1,1504,1002,0,0
287,22,0,0,0,0,0,0,0,0,0,-1,1511,1002,0,0
294,22,0,0,0,0,0,0,0,0,0,-1,1518,1002,0,0
301,22,0,0,0,0,0,0,0,0,0,-1,1525,1002,0,0
308,22,0,0,0,0,0,0,0,0,0,-1,1532,1002,0,0
315,22,0,0,0,0,0,0,0,0,0,-1,1539,1002,0,0
322,22,0,0,0,0,0,0,0,0,0,-1,1546,1002,0,0
329,22,0,0,0,0,0,0,0,0,0,-1,1553,1002,0,0
336,22,0,0,0,0,0,0,0,0,0,-1,1560,1002,0,0
343,22,0,0,0,0,0,0,0,0,0,-1,1567,1002,0,0
350,22,0,0,0,0,0,0,0,0,0,-1,1574,1002,0,0
357,22,0,0,0,0,0,0,0,0,0,-1,1581,1002,0,0
364,22,0,0,0,0,0,0,0,0,0,-1,1588,1002,0,0
371,22,0,0,0,0,0,0,0,0,0,-1,1595,1002,0,0
378,22,0,0,0,0,0,0,0,0,0,-1,1602,1002,0,0
385,22,0,0,0,0,0,0,0,0,0,-1,1609,1002,0,0
392,22,0,0,0,0,0,0,0,0,0,-1,1616,1002,0,0
399,22,0,0,0,0,0,0,0,0,0,-1,1623,1002,0,0
406,22,0,0,0,0,0,0,0,0,0,-1,1630,1002,0,0
413,22,0,0,0,0,0,0,0,0,0,-1,1637,1002,0,0
420,22,0,0,0,0,0,0,0,0,0,-1,1644,1002,0,0
427,22,0,0,0,0,0,0,0,0,0,-1,1651,1002,0,0
434,22,0,0,0,0,0,0,0,0,0,-1,1658,1002,0,0
441,22,0,0,0,0,0,0,0,0,0,-1,1665,1002,0,0
448,22,0,0,0,0,0,0,0,0,0,-1,1672,1002,0,0
455,22,0,0,0,0,0,0,0,0,0,-1,1679,1002,0,0
462,22,0,0,0,0,0,0,0,0,0,-1,1686,1002,0,0
469,22,0,0,0,0,0,0,0,0,0,-1,1693,1002,0,0
476,22,0,0,0,0,0,0,0,0,0,-1,1700,1002,0,0
483,22,0,0,0,0,0,0,0,0,0,-1,1707,1002,0,0
490,22,0,0,0,0,0,0,0,0,0,-1,1714,1002,0,0
497,22,0,0,0,0,0,0,0,0,0,-1,1721,1002,0,0
504,22,0,0,0,0,0,0,0,0,0,-1,1728,1002,0,0
511,22,0,0,0,0,0,0,0,0,0,-1,1735,1002,0,0
518,22,0,0,0,0,0,0,0,0,0,-1,1742,1002,0,0
525,22,0,0,0,0,0,0,0,0,0,-1,1749,1002,0,0
532,22,0,0,0,0,0,0,0,0,0,-1,1756,1002,0,0
539,22,0,0,0,0,0,0,0,0,0,-1,1763,1002,0,0
546,22,0,0,0,0,0,0,0,0,0,-1,1770,1002,0,0
553,22,0,0,0,0,0,0,0,0,0,-1,1777,1002,0,0
560,22,0,0,0,0,0,0,0,0,0,-1,1784,1002,0,0
567,22,0,0,0,0,0,0,0,0,0,-1,1791,1002,0,0
574,22,0,0,0,0,0,0,0,0,0,-1,1798,1002,0,0
581,22,0,0,0,0,0,0,0,0,0,-1,1805,1002,0,0
588,22,0,0,0,0,0,0,0,0,0,-1,1812,1002,0,0
595,22,0,0,0,0,0,0,0,0,0,-1,1819,1002,0,0
602,22,0,0,0,0,0,0,0,0,0,-1,1826,1002,0,0
609,22,0,0,0,0,0,0,0,0,0,-1,1833,1002,0,0
616,22,0,0,0,0,0,0,0,0,0,-1,1840,1002,0,0
623,22,0,0,0,0,0,0,0,0,0,-1,1847,1002,0,0
630,22,0,0,0,0,0,0,0,0,0,-1,1854,1002,0,0
637,22,0,0,0,0,0,0,0,0,0,-1,1861,1002,0,0
644,22,9.4762,1.21185,0.00615954,0.000413773,0.00143788,0.00649928,7.40318e-05,0.232024,0.00430839,0.0395027,1868,1002,9.47622,-1.21183
651,22,9.41589,1.31281,0.00415243,0.000465972,0.000842824,0.00433598,0.000282419,0.214435,0.00280126,0.0430818,1875,1002,9.41588,-1.3128
658,22,9.62805,1.45612,0.00269409,0.000418065,0.000459282,0.00278328,0.000328881,0.191795,0.00175619,0.0426723,1882,1002,9.62801,-1.45612
665,22,9.73511,1.48883,0.00158016,0.000373567,0.000255991,0.00163223,0.000321503,0.200647,0.00099839,0.0404059,1889,1002,9.73508,-1.48886
672,22,9.63806,1.28662,0.000566493,0.000364824,0.000307053,0.000788844,0.000142473,0.626749,0.000485425,0.0382517,1896,1002,9.6381,-1.28665
679,22,9.61609,1.28339,-0.000468663,0.000350854,0.000536948,0.000616533,-0.000734342,1.11132,0.000780916,0.0385197,1903,1002,9.61612,-1.2834
686,22,9.61243,1.29669,-0.00129493,0.00033574,0.000807129,0.000667674,-0.00162687,1.18063,0.00136279,0.0383267,1910,1002,9.61246,-1.29667
693,22,9.57007,1.37952,-0.00191865,0.000301232,0.00106532,0.000729757,-0.00234718,1.18835,0.00185648,0.0357641,1917,1002,9.57003,-1.3795
700,22,9.57703,1.34015,-0.00244203,0.00033773,0.00119502,0.000780834,-0.00288514,1.21572,0.00222975,0.0304298,1924,1002,9.57707,-1.34016
707,22,9.54858,1.28833,-0.0029413,0.000318605,0.00142025,0.00085056,-0.00347326,1.21242,0.00264501,0.0306074,1931,1002,9.5486,-1.28835
714,22,9.58789,1.36768,-0.00330882,0.000291979,0.00158557,0.000890636,-0.00390748,1.20978,0.00294707,0.0275847,1938,1002,9.58795,-1.36767
721,22,9.60254,1.42401,-0.0033518,0.000311158,0.00166043,0.00095179,-0.00399244,1.20257,0.00302915,0.0262623,1945,1002,9.60258,-1.42404
728,22,9.42102,1.54779,-0.00315241,0.000353104,0.00154884,0.000939377,-0.00373868,1.20894,0.00285752,0.0167987,1952,1002,9.42105,-1.5478
735,22,9.40405,1.62305,-0.00302985,0.00036882,0.00118474,0.000741042,-0.00340208,1.26638,0.0025512,0.014111,1959,1002,9.4041,-1.62307
742,22,9.40186,1.63391,-0.00305778,0.000195774,0.000704435,0.000341744,-0.00320375,1.36647,0.00225838,0.0141704,1966,1002,9.4019,-1.63394
749,22,9.39722,1.6402,-0.00282359,-0.000174771,0.000207227,-0.000158657,-0.0028397,1.49319,0.00184253,0.011624,1973,1002,9.39724,-1.64019
756,22,9.39783,1.66016,-0.00245639,-0.00102492,-0.00045839,-0.000890719,-0.0025906,-1.28598,0.00151981,0.0163437,1980,1002,9.39783,-1.66017
763,22,9.37122,1.71283,-0.00174516,-0.00224854,-0.00102353,-0.000942827,-0.00305087,-0.66484,0.00180374,0.0167748,1987,1002,9.37116,-1.71281
770,22,9.37854,1.71326,-0.00110073,-0.00373991,-0.00176741,-0.000214635,-0.00462601,-0.464729,0.00301501,0.0111051,1994,1002,9.37854,-1.71326
777,22,9.36353,1.72986,-0.000290878,-0.0058477,-0.00244489,0.000631662,-0.00677024,-0.360816,0.0047381,0.0188831,2001,1002,9.36352,-1.72989
784,22,9.31616,1.76062,0.000610762,-0.00876752,-0.00294877,0.00146087,-0.00961762,-0.280682,0.00695007,0.0399052,2008,1002,9.31611,-1.76063
791,22,9.19824,1.51587,0.00190297,-0.012699,-0.0032619,0.00259851,-0.0133946,-0.210085,0.00991009,0.0439587,2015,1002,9.19821,-1.51586
798,22,9.16882,1.28955,0.00395346,-0.0178274,-0.00335009,0.00445708,-0.018331,-0.149215,0.0139458,0.0422969,2022,1002,9.16884,-1.28957
805,22,9.48022,1.59595,0.00699513,-0.0243573,-0.00305725,0.00729047,-0.0246527,-0.0963036,0.0193291,0.0429253,2029,1002,9.48018,-1.59594
812,22,9.76697,1.78625,0.0112797,-0.0325001,-0.00210961,0.0113811,-0.0326016,-0.0480384,0.0263602,0.0422715,2036,1002,9.76693,-1.78625
-700,15,0,0,0,0,0,0,0,0,0,-1,524,1009,0,0
-693,15,-6.40558,3.61426,0,0,0,0,0,0,0,-1,531,1009,-6.40557,-3.61426
-686,15,-5.94464,2.63049,-0.0178974,0.00507696,-0.00815463,0.00767712,-0.0204975,-1.26213,0.0168186,0.0445155,538,1009,-5.94462,-2.6305
-679,15,-6.47528,2.48279,-0.0116331,0.00509482,-0.00861043,0.00873483,-0.0152732,-1.17084,0.0140313,0.0463387,545,1009,-6.47528,-2.48278
-672,15,-7.08063,2.0918,0,0,0,0,0,0,0,-1,552,1009,-7.08063,-2.09182
-665,15,-4.40259,1.19849,0,0,0,0,0,0,0,-1,559,1009,-4.40258,-1.19846
-658,15,-4.15399,0.905273,-0.00175879,0.00426565,-0.00704229,0.00891289,-0.00640603,-0.98749,0.00888377,0.0429423,566,1009,-4.15402,-0.905301
-651,15,-4.18121,0.895874,-0.000416125,0.00374073,-0.00608328,0.00809084,-0.00476624,-0.950012,0.00750531,0.0351488,573,1009,-4.1812,-0.895856
-644,15,-4.22168,0.895325,0.000350516,0.00301674,-0.0052231,0.00707417,-0.00370692,-0.910347,0.00632485,0.0150335,580,1009,-4.22167,-0.895327
-637,15,-4.2334,0.906067,0.00105265,0.00251654,-0.00424765,0.00609485,-0.00252566,-0.870719,0.00511728,0.0118848,587,1009,-4.23339,-0.90606
-630,15,-4.23694,0.902954,0.00134021,0.00220797,-0.00320043,0.00500379,-0.00145561,-0.852773,0.00391239,0.0102292,594,1009,-4.23694,-0.902947
-623,15,-4.25348,0.894775,0.000986173,0.00166638,-0.0023422,0.00369304,-0.00104048,-0.857498,0.00287237,0.00902868,601,1009,-4.25347,-0.894785
-616,15,-4.28156,0.865356,0.000359663,0.000798328,-0.00201321,0.00260412,-0.00144613,-0.839657,0.00237006,0.0133489,608,1009,-4.28157,-0.865342
-609,15,-4.28253,0.844299,-2.0519e-05,0.000917255,-0.00165839,0.00217177,-0.00127503,-0.92317,0.00201234,0.0195995,615,1009,-4.28253,-0.844316
-602,15,-4.30762,0.841858,-0.000174562,0.000370457,-0.000949456,0.00108574,-0.000889842,-0.92515,0.00114247,0.0196086,622,1009,-4.30761,-0.841872
-595,15,-4.29553,0.746033,-0.000193622,0.000233687,-0.000700433,0.000752327,-0.000712261,-0.933432,0.000845686,0.0186115,629,1009,-4.29553,-0.746051
-588,15,-4.2605,0.657532,2.34827e-05,8.30719e-05,-0.000650512,0.000704471,-0.000597916,-0.808283,0.000752772,0.0244188,636,1009,-4.26053,-0.657524
-581,15,-4.30554,0.625732,5.35067e-05,5.38374e-05,-0.000478646,0.000532319,-0.000424974,-0.785571,0.00055385,0.0332003,643,1009,-4.30553,-0.625742
-574,15,-4.31628,0.720886,-3.87698e-05,-0.000306036,-0.000403545,0.000252693,-0.000597499,-0.625507,0.000504135,0.0308338,650,1009,-4.31629,-0.720892
-567,15,-4.28381,0.786072,-0.000114557,-0.000581748,-0.000190668,-4.66213e-05,-0.000649684,-0.34228,0.000418449,0.0334211,657,1009,-4.2838,-0.78607
-560,15,-4.23755,0.839905,-0.000391704,-0.00100457,0.000117778,-0.00036985,-0.00102642,0.183471,0.000600264,0.0402143,664,1009,-4.23753,-0.839929
-553,15,-4.29041,0.84668,-0.000986603,-0.00163811,0.00052844,-0.00069158,-0.00193313,0.509186,0.00113105,0.0402527,671,1009,-4.2904,-0.846702
-546,15,-4.2088,0.850281,-0.00204326,-0.00256606,0.00104215,-0.00123023,-0.0033791,0.662519,0.00197481,0.0380285,678,1009,-4.20882,-0.850267
-539,15,-4.24677,0.6297,-0.0037036,-0.0039113,0.00160712,-0.00219698,-0.00541792,0.753134,0.0031466,0.039804,685,1009,-4.24679,-0.629729
-532,15,-4.56122,0.8302,-0.00641324,-0.00578512,0.00223641,-0.00384083,-0.00835753,0.855157,0.00483048,0.0437052,692,1009,-4.56124,-0.830182
-525,15,0,0,0,0,0,0,0,0,0,-1,699,1009,0,0
-518,15,0,0,0,0,0,0,0,0,0,-1,706,1009,0,0
-511,15,0,0,0,0,0,0,0,0,0,-1,713,1009,0,0
-504,15,0,0,0,0,0,0,0,0,0,-1,720,1009,0,0
-497,15,0,0,0,0,0,0,0,0,0,-1,727,1009,0,0
-490,15,0,0,0,0,0,0,0,0,0,-1,734,1009,0,0
-483,15,0,0,0,0,0,0,0,0,0,-1,741,1009,0,0
-476,15,0,0,0,0,0,0,0,0,0,-1,748,1009,0,0
-469,15,0,0,0,0,0,0,0,0,0,-1,755,1009,0,0
-462,15,0,0,0,0,0,0,0,0,0,-1,762,1009,0,0
-455,15,0,0,0,0,0,0,0,0,0,-1,769,1009,0,0
-448,15,0,0,0,0,0,0,0,0,0,-1,776,1009,0,0
-441,15,0,0,0,0,0,0,0,0,0,-1,783,1009,0,0
-434,15,0,0,0,0,0,0,0,0,0,-1,790,1009,0,0
-427,15,0,0,0,0,0,0,0,0,0,-1,797,1009,0,0
-420,15,0,0,0,0,0,0,0,0,0,-1,804,1009,0,0
-413,15,0,0,0,0,0,0,0,0,0,-1,811,1009,0,0
-406,15,0,0,0,0,0,0,0,0,0,-1,818,1009,0,0
-399,15,0,0,0,0,0,0,0,0,0,-1,825,1009,0,0
-392,15,0,0,0,0,0,0,0,0,0,-1,832,1009,0,0
-385,15,0,0,0,0,0,0,0,0,0,-1,839,1009,0,0
-378,15,0,0,0,0,0,0,0,0,0,-1,846,1009,0,0
-371,15,0,0,0,0,0,0,0,0,0,-1,853,1009,0,0
-364,15,0,0,0,0,0,0,0,0,0,-1,860,1009,0,0
-357,15,0,0,0,0,0,0,0,0,0,-1,867,1009,0,0
-350,15,0,0,0,0,0,0,0,0,0,-1,874,1009,0,0
-343,15,0,0,0,0,0,0,0,0,0,-1,881,1009,0,0
-336,15,0,0,0,0,0,0,0,0,0,-1,888,1009,0,0
-329,15,0,0,0,0,0,0,0,0,0,-1,895,1009,0,0
-322,15,0,0,0,0,0,0,0,0,0,-1,902,1009,0,0
-315,15,0,0,0,0,0,0,0,0,0,-1,909,1009,0,0
-308,15,0,0,0,0,0,0,0,0,0,-1,916,1009,0,0
-301,15,0,0,0,0,0,0,0,0,0,-1,923,1009,0,0
-294,15,0,0,0,0,0,0,0,0,0,-1,930,1009,0,0
-287,15,0,0,0,0,0,0,0,0,0,-1,937,1009,0,0
-280,15,0,0,0,0,0,0,0,0,0,-1,944,1009,0,0
-273,15,0,0,0,0,0,0,0,0,0,-1,951,1009,0,0
-266,15,0,0,0,0,0,0,0,0,0,-1,958,1009,0,0
-259,15,0,0,0,0,0,0,0,0,0,-1,965,1009,0,0
-252,15,0,0,0,0,0,0,0,0,0,-1,972,1009,0,0
-245,15,0,0,0,0,0,0,0,0,0,-1,979,1009,0,0
-238,15,0,0,0,0,0,0,0,0,0,-1,986,1009,0,0
-231,15,0,0,0,0,0,0,0,0,0,-1,993,1009,0,0
-224,15,0,0,0,0,0,0,0,0,0,-1,1000,1009,0,0
-217,15,0,0,0,0,0,0,0,0,0,-1,1007,1009,0,0
-210,15,0,0,0,0,0,0,0,0,0,-1,1014,1009,0,0
-203,15,0,0,0,0,0,0,0,0,0,-1,1021,1009,0,0
-196,15,0,0,0,0,0,0,0,0,0,-1,1028,1009,0,0
-189,15,0,0,0,0,0,0,0,0,0,-1,1035,1009,0,0
-182,15,0,0,0,0,0,0,0,0,0,-1,1042,1009,0,0
-175,15,0,0,0,0,0,0,0,0,0,-1,1049,1009,0,0
-168,15,0,0,0,0,0,0,0,0,0,-1,1056,1009,0,0
-161,15,0,0,0,0,0,0,0,0,0,-1,1063,1009,0,0
-154,15,0,0,0,0,0,0,0,0,0,-1,1070,1009,0,0
-147,15,0,0,0,0,0,0,0,0,0,-1,1077,1009,0,0
-140,15,0,0,0,0,0,0,0,0,0,-1,1084,1009,0,0
-133,15,0,0,0,0,0,0,0,0,0,-1,1091,1009,0,0
-126,15,0,0,0,0,0,0,0,0,0,-1,1098,1009,0,0
-119,15,0,0,0,0,0,0,0,0,0,-1,1105,1009,0,0
-112,15,0,0,0,0,0,0,0,0,0,-1,1112,1009,0,0
-105,15,0,0,0,0,0,0,0,0,0,-1,1119,1009,0,0
-98,15,0,0,0,0,0,0,0,0,0,-1,1126,1009,0,0
-91,15,0,0,0,0,0,0,0,0,0,-1,1133,1009,0,0
-84,15,0,0,0,0,0,0,0,0,0,-1,1140,1009,0,0
-77,15,0,0,0,0,0,0,0,0,0,-1,1147,1009,0,0
-70,15,0,0,0,0,0,0,0,0,0,-1,1154,1009,0,0
-63,15,0,0,0,0,0,0,0,0,0,-1,1161,1009,0,0
-56,15,0,0,0,0,0,0,0,0,0,-1,1168,1009,0,0
-49,15,0,0,0,0,0,0,0,0,0,-1,1175,1009,0,0
-42,15,0,0,0,0,0,0,0,0,0,-1,1182,1009,0,0
-35,15,0,0,0,0,0,0,0,0,0,-1,1189,1009,0,0
-28,15,0,0,0,0,0,0,0,0,0,-1,1196,1009,0,0
-21,15,0,0,0,0,0,0,0,0,0,-1,1203,1009,0,0
-14,15,0,0,0,0,0,0,0,0,0,-1,1210,1009,0,0
-7,15,0,0,0,0,0,0,0,0,0,-1,1217,1009,0,0
0,15,0,0,0,0,0,0,0,0,0,-1,1224,1009,0,0
7,15,0,0,0,0,0,0,0,0,0,-1,1231,1009,0,0
14,15,0,0,0,0,0,0,0,0,0,-1,1238,1009,0,0
21,15,0,0,0,0,0,0,0,0,0,-1,1245,1009,0,0
28,15,0,0,0,0,0,0,0,0,0,-1,1252,1009,0,0
35,15,0,0,0,0,0,0,0,0,0,-1,1259,1009,0,0
42,15,0,0,0,0,0,0,0,0,0,-1,1266,1009,0,0
49,15,0,0,0,0,0,0,0,0,0,-1,1273,1009,0,0
56,15,0,0,0,0,0,0,0,0,0,-1,1280,1009,0,0
63,15,0,0,0,0,0,0,0,0,0,-1,1287,1009,0,0
70,15,0,0,0,0,0,0,0,0,0,-1,1294,1009,0,0
77,15,0,0,0,0,0,0,0,0,0,-1,1301,1009,0,0
84,15,0,0,0,0,0,0,0,0,0,-1,1308,1009,0,0
91,15,0,0,0,0,0,0,0,0,0,-1,1315,1009,0,0
98,15,0,0,0,0,0,0,0,0,0,-1,1322,1009,0,0
105,15,0,0,0,0,0,0,0,0,0,-1,1329,1009,0,0
112,15,0,0,0,0,0,0,0,0,0,-1,1336,1009,0,0
119,15,0,0,0,0,0,0,0,0,0,-1,1343,1009,0,0
126,15,0,0,0,0,0,0,0,0,0,-1,1350,1009,0,0
133,15,0,0,0,0,0,0,0,0,0,-1,1357,1009,0,0
140,15,0,0,0,0,0,0,0,0,0,-1,1364,1009,0,0
147,15,0,0,0,0,0,0,0,0,0,-1,1371,1009,0,0
154,15,0,0,0,0,0,0,0,0,0,-1,1378,1009,0,0
161,15,0,0,0,0,0,0,0,0,0,-1,1385,1009,0,0
168,15,0,0,0,0,0,0,0,0,0,-1,1392,1009,0,0
175,15,0,0,0,0,0,0,0,0,0,-1,1399,1009,0,0
182,15,0,0,0,0,0,0,0,0,0,-1,1406,1009,0,0
189,15,0,0,0,0,0,0,0,0,0,-1,1413,1009,0,0
196,15,0,0,0,0,0,0,0,0,0,-1,1420,1009,0,0
203,15,0,0,0,0,0,0,0,0,0,-1,1427,1009,0,0
210,15,0,0,0,0,0,0,0,0,0,-1,1434,1009,0,0
217,15,0,0,0,0,0,0,0,0,0,-1,1441,1009,0,0
224,15,0,0,0,0,0,0,0,0,0,-1,1448,1009,0,0
231,15,0,0,0,0,0,0,0,0,0,-1,1455,1009,0,0
238,15,0,0,0,0,0,0,0,0,0,-1,1462,1009,0,0
245,15,0,0,0,0,0,0,0,0,0,-1,1469,1009,0,0
252,15,0,0,0,0,0,0,0,0,0,-1,1476,1009,0,0
259,15,0,0,0,0,0,0,0,0,0,-1,1483,1009,0,0
266,15,0,0,0,0,0,0,0,0,0,-1,1490,1009,0,0
273,15,0,0,0,0,0,0,0,0,0,-1,1497,1009,0,0
280,15,0,0,0,0,0,0,0,0,0,-1,1504,1009,0,0
287,15,0,0,0,0,0,0,0,0,0,-1,1511,1009,0,0
294,15,0,0,0,0,0,0,0,0,0,-1,1518,1009,0,0
301,15,0,0,0,0,0,0,0,0,0,-1,1525,1009,0,0
308,15,0,0,0,0,0,0,0,0,0,-1,1532,1009,0,0
315,15,0,0,0,0,0,0,0,0,0,-1,1539,1009,0,0
322,15,0,0,0,0,0,0,0,0,0,-1,1546,1009,0,0
329,15,0,0,0,0,0,0,0,0,0,-1,1553,1009,0,0
336,15,0,0,0,0,0,0,0,0,0,-1,1560,1009,0,0
343,15,0,0,0,0,0,0,0,0,0,-1,1567,1009,0,0
350,15,0,0,0,0,0,0,0,0,0,-1,1574,1009,0,0
357,15,0,0,0,0,0,0,0,0,0,-1,1581,1009,0,0
364,15,0,0,0,0,0,0,0,0,0,-1,1588,1009,0,0
371,15,0,0,0,0,0,0,0,0,0,-1,1595,1009,0,0
378,15,0,0,0,0,0,0,0,0,0,-1,1602,1009,0,0
385,15,0,0,0,0,0,0,0,0,0,-1,1609,1009,0,0
392,15,0,0,0,0,0,0,0,0,0,-1,1616,1009,0,0
399,15,0,0,0,0,0,0,0,0,0,-1,1623,1009,0,0
406,15,0,0,0,0,0,0,0,0,0,-1,1630,1009,0,0
413,15,0,0,0,0,0,0,0,0,0,-1,1637,1009,0,0
420,15,0,0,0,0,0,0,0,0,0,-1,1644,1009,0,0
427,15,0,0,0,0,0,0,0,0,0,-1,1651,1009,0,0
434,15,0,0,0,0,0,0,0,0,0,-1,1658,1009,0,0
441,15,0,0,0,0,0,0,0,0,0,-1,1665,1009,0,0
448,15,0,0,0,0,0,0,0,0,0,-1,1672,1009,0,0
455,15,0,0,0,0,0,0,0,0,0,-1,1679,1009,0,0
462,15,0,0,0,0,0,0,0,0,0,-1,1686,1009,0,0
469,15,0,0,0,0,0,0,0,0,0,-1,1693,1009,0,0
476,15,0,0,0,0,0,0,0,0,0,-1,1700,1009,0,0
483,15,0,0,0,0,0,0,0,0,0,-1,1707,1009,0,0
490,15,0,0,0,0,0,0,0,0,0,-1,1714,1009,0,0
497,15,0,0,0,0,0,0,0,0,0,-1,1721,1009,0,0
504,15,0,0,0,0,0,0,0,0,0,-1,1728,1009,0,0
511,15,0,0,0,0,0,0,0,0,0,-1,1735,1009,0,0
518,15,0,0,0,0,0,0,0,0,0,-1,1742,1009,0,0
525,15,0,0,0,0,0,0,0,0,0,-1,1749,1009,0,0
532,15,0,0,0,0,0,0,0,0,0,-1,1756,1009,0,0
539,15,0,0,0,0,0,0,0,0,0,-1,1763,1009,0,0
546,15,0,0,0,0,0,0,0,0,0,-1,1770,1009,0,0
553,15,0,0,0,0,0,0,0,0,0,-1,1777,1009,0,0
560,15,0,0,0,0,0,0,0,0,0,-1,1784,1009,0,0
567,15,0,0,0,0,0,0,0,0,0,-1,1791,1009,0,0
574,15,0,0,0,0,0,0,0,0,0,-1,1798,1009,0,0
581,15,0,0,0,0,0,0,0,0,0,-1,1805,1009,0,0
588,15,0,0,0,0,0,0,0,0,0,-1,1812,1009,0,0
595,15,0,0,0,0,0,0,0,0,0,-1,1819,1009,0,0
602,15,0,0,0,0,0,0,0,0,0,-1,1826,1009,0,0
609,15,0,0,0,0,0,0,0,0,0,-1,1833,1009,0,0
616,15,0,0,0,0,0,0,0,0,0,-1,1840,1009,0,0
623,15,0,0,0,0,0,0,0,0,0,-1,1847,1009,0,0
630,15,0,0,0,0,0,0,0,0,0,-1,1854,1009,0,0
637,15,0,0,0,0,0,0,0,0,0,-1,1861,1009,0,0
644,15,9.37622,1.3457,0.00631977,-3.3236e-05,0.000901277,0.00644515,-0.000158622,0.138233,0.00435061,0.0389403,1868,1009,9.37625,-1.34572
651,15,9.62854,1.41473,0.00408954,0.000217164,0.000488236,0.00415015,0.000156555,0.123507,0.00271608,0.0395752,1875,1009,9.62856,-1.41471
658,15,9.72546,1.45355,0.00250357,0.000316681,0.00023133,0.00252777,0.000292479,0.104243,0.00159664,0.0399323,1882,1009,9.72551,-1.45357
665,15,9.69678,1.34937,0.00137235,0.000353248,9.5044e-05,0.00138113,0.00034446,0.0922033,0.000830111,0.038792,1889,1009,9.69677,-1.34935
672,15,9.64624,1.27588,0.000441261,0.000379359,0.000208059,0.000620658,0.000199961,0.711559,0.000365813,0.0364063,1896,1009,9.6463,-1.27585
679,15,9.67786,1.29242,-0.000505068,0.00037542,0.000498651,0.000600358,-0.000730006,1.14703,0.000769301,0.0388088,1903,1009,9.67788,-1.29241
686,15,9.69031,1.19049,-0.00125589,0.000353887,0.000821759,0.000699273,-0.00160128,1.17291,0.00136183,0.0447562,1910,1009,9.69033,-1.1905
693,15,9.57654,1.28479,-0.00182702,0.000323622,0.00112934,0.000807702,-0.0023111,1.16585,0.00186908,0.0406221,1917,1009,9.57652,-1.28478
700,15,9.59998,1.34149,-0.00230534,0.000327002,0.00130443,0.000863892,-0.00284223,1.18034,0.00223905,0.0296608,1924,1009,9.60003,-1.3415
707,15,9.57117,1.39758,-0.00272431,0.000273229,0.00157027,0.000945186,-0.00339627,1.16645,0.00263634,0.0293075,1931,1009,9.57121,-1.39761
714,15,9.56323,1.38654,-0.00303826,0.000229863,0.00175164,0.000991297,-0.0037997,1.16074,0.0029202,0.031768,1938,1009,9.56318,-1.38652
721,15,9.64465,1.4234,-0.00309161,0.000229415,0.00183282,0.00104206,-0.00390425,1.15346,0.00301091,0.0289221,1945,1009,9.64467,-1.4234
728,15,9.38574,1.57654,-0.00294025,0.00026626,0.00174162,0.00103021,-0.0037042,1.15743,0.00287507,0.0228746,1952,1009,9.38574,-1.57654
735,15,9.41577,1.61548,-0.00286772,0.000293108,0.00139765,0.000822462,-0.00339707,1.20874,0.00258289,0.015765,1959,1009,9.41576,-1.61548
742,15,9.41284,1.63678,-0.00296624,0.000126862,0.000900287,0.000369819,-0.00320919,1.30721,0.00227279,0.015384,1966,1009,9.41283,-1.63676
749,15,9.41321,1.64465,-0.00284789,-0.000254476,0.000369583,-0.000202835,-0.00289953,1.43197,0.00186908,0.0097131,1973,1009,9.4132,-1.64467
756,15,9.41138,1.66357,-0.00261738,-0.00115097,-0.000352925,-0.00107045,-0.0026979,-1.34649,0.00156866,0.0116484,1980,1009,9.41137,-1.66358
763,15,9.40417,1.69513,-0.00209717,-0.00241815,-0.000996122,-0.00124869,-0.00326663,-0.705527,0.00190334,0.0115049,1987,1009,9.4042,-1.69515
770,15,9.40015,1.69446,-0.00168524,-0.00398266,-0.00185317,-0.00065363,-0.00501426,-0.50795,0.00314767,0.0108813,1994,1009,9.40009,-1.69448
777,15,9.37207,1.69031,-0.00113808,-0.00624033,-0.00268061,1.13221e-05,-0.00738973,-0.405071,0.00493026,0.0194865,2001,1009,9.37204,-1.6903
784,15,9.35718,1.65594,-0.000561802,-0.00941904,-0.00337251,0.000576129,-0.010557,-0.325418,0.00723767,0.0389231,2008,1009,9.35721,-1.65592
791,15,9.36633,1.63165,0.000321376,-0.0137553,-0.00394179,0.00135001,-0.0147839,-0.255262,0.0103354,0.0472819,2015,1009,9.36638,-1.63164
798,15,9.39514,1.58936,0,0,0,0,0,0,0,-1,2022,1009,9.39511,-1.58934
805,15,9.75391,2.11548,0.00435409,-0.0268955,-0.00451505,0.00499336,-0.0275347,-0.140652,0.0202274,0.0456961,2029,1009,9.75393,-2.11551
812,15,9.8678,2.29742,0.00800016,-0.036286,-0.00413045,0.00838211,-0.036668,-0.0922074,0.0276659,0.0440226,2036,1009,9.86777,-2.29743
-700,8,0,0,0,0,0,0,0,0,0,-1,524,1016,0,0
-693,8,-5.92029,3.69427,-0.0204775,0.00716591,-0.00925042,0.00997579,-0.0232874,-1.2759,0.0197105,0.0455512,531,1016,-5.92029,-3.6943
-686,8,-6.08032,3.12909,-0.0142555,0.00750997,-0.00992413,0.0113555,-0.0181011,-1.20112,0.0171548,0.0451714,538,1016,-6.08034,-3.12906
-679,8,-6.39526,2.38361,-0.0096941,0.00748844,-0.00965086,0.0118181,-0.0140237,-1.14909,0.0149378,0.0449914,545,1016,-6.39523,-2.3836
-672,8,-6.67719,1.60815,-0.00631133,0.00717109,-0.00890203,0.0115963,-0.0107366,-1.10947,0.0128971,0.0459886,552,1016,-6.67718,-1.60817
-665,8,-6.76019,0.989075,0,0,0,0,0,0,0,-1,559,1016,-6.76018,-0.989079
-658,8,-4.18945,0.871948,-0.00211765,0.00589218,-0.0068033,0.00978184,-0.00600731,-1.05142,0.00920229,0.0332482,566,1016,-4.18948,-0.871945
-651,8,-4.19629,0.86792,-0.000980512,0.0050443,-0.00568114,0.00846229,-0.0043985,-1.02917,0.00754773,0.0175232,573,1016,-4.19628,-0.867931
-644,8,-4.23279,0.883667,-0.000332897,0.00394433,-0.00483629,0.00709376,-0.00348233,-0.993573,0.00622364,0.0127391,580,1016,-4.23282,-0.883652
-637,8,-4.23547,0.899841,0.000334585,0.00331238,-0.00382237,0.0059256,-0.00227863,-0.971119,0.00489022,0.0112647,587,1016,-4.23546,-0.899832
-630,8,-4.24005,0.883484,0.000721818,0.00277189,-0.00276011,0.00469115,-0.00119744,-0.963193,0.00359371,0.010805,594,1016,-4.24003,-0.883484
-623,8,-4.25549,0.87207,0.000489224,0.00202186,-0.00197783,0.00337664,-0.000865551,-0.970221,0.00258831,0.0130444,601,1016,-4.25546,-0.87205
-616,8,-4.25671,0.870911,0.000153315,0.000944758,-0.00178641,0.00237875,-0.00128068,-0.894397,0.00214424,0.0121731,608,1016,-4.25671,-0.870909
-609,8,-4.25116,0.860229,9.54692e-06,0.00104413,-0.00162849,0.00223552,-0.00118184,-0.939183,0.00200403,0.0142995,615,1016,-4.25114,-0.860212
-602,8,-4.26495,0.83252,-3.79852e-05,0.000480162,-0.00100425,0.00125822,-0.000816039,-0.911635,0.00120661,0.0209025,622,1016,-4.26495,-0.832491
-595,8,-4.2373,0.717957,-1.14364e-05,0.000414209,-0.000791487,0.00102099,-0.000618214,-0.916737,0.000955869,0.019646,629,1016,-4.23729,-0.717965
-588,8,-4.25098,0.676819,0.000164252,0.000297803,-0.000759899,0.000993855,-0.0005318,-0.829223,0.000894202,0.0213013,636,1016,-4.251,-0.676847
-581,8,-4.29895,0.713562,0.000144204,0.000314756,-0.000590176,0.000825785,-0.000366825,-0.857148,0.000705344,0.0266595,643,1016,-4.29895,-0.713559
-574,8,-4.35754,0.801758,2.80893e-05,5.1376e-05,-0.000474246,0.000514122,-0.000434656,-0.797671,0.000548417,0.0321859,650,1016,-4.35756,-0.801727
-567,8,-4.35687,0.821106,-0.000137431,-0.000148525,-0.000229806,8.68944e-05,-0.000372851,-0.773332,0.00028203,0.0379523,657,1016,-4.3569,-0.821115
-560,8,-4.20514,1.02002,-0.000547619,-0.000489785,0.000102863,-0.000411852,-0.000625552,0.922423,0.000367153,0.0418023,664,1016,-4.20516,-1.02003
-553,8,-4.112,1.02228,-0.0013241,-0.00103726,0.000519203,-0.000642031,-0.00171932,0.920153,0.0010032,0.0395674,671,1016,-4.11203,-1.02229
-546,8,-4.04999,0.841736,-0.00261587,-0.00187658,0.00100808,-0.00117251,-0.00331994,0.961128,0.00194412,0.0369286,678,1016,-4.04997,-0.841742
-539,8,-4.27411,0.502991,-0.00455707,-0.00313632,0.00149319,-0.00219314,-0.00550025,1.00743,0.00319721,0.0382062,685,1016,-4.27409,-0.50299
-532,8,-4.42615,0.574829,-0.00758362,-0.00492633,0.00194145,-0.00390242,-0.00860753,1.08547,0.00497676,0.0429049,692,1016,-4.42617,-0.574823
-525,8,0,0,0,0,0,0,0,0,0,-1,699,1016,0,0
-518,8,0,0,0,0,0,0,0,0,0,-1,706,1016,0,0
-511,8,0,0,0,0,0,0,0,0,0,-1,713,1016,0,0
-504,8,0,0,0,0,0,0,0,0,0,-1,720,1016,0,0
-497,8,0,0,0,0,0,0,0,0,0,-1,727,1016,0,0
-490,8,0,0,0,0,0,0,0,0,0,-1,734,1016,0,0
-483,8,0,0,0,0,0,0,0,0,0,-1,741,1016,0,0
-476,8,0,0,0,0,0,0,0,0,0,-1,748,1016,0,0
-469,8,0,0,0,0,0,0,0,0,0,-1,755,1016,0,0
-462,8,0,0,0,0,0,0,0,0,0,-1,762,1016,0,0
-455,8,0,0,0,0,0,0,0,0,0,-1,769,1016,0,0
-448,8,0,0,0,0,0,0,0,0,0,-1,776,1016,0,0
-441,8,0,0,0,0,0,0,0,0,0,-1,783,1016,0,0
-434,8,0,0,0,0,0,0,0,0,0,-1,790,1016,0,0
-427,8,0,0,0,0,0,0,0,0,0,-1,797,1016,0,0
-420,8,0,0,0,0,0,0,0,0,0,-1,804,1016,0,0
-413,8,0,0,0,0,0,0,0,0,0,-1,811,1016,0,0
-406,8,0,0,0,0,0,0,0,0,0,-1,818,1016,0,0
-399,8,0,0,0,0,0,0,0,0,0,-1,825,1016,0,0
-392,8,0,0,0,0,0,0,0,0,0,-1,832,1016,0,0
-385,8,0,0,0,0,0,0,0,0,0,-1,839,1016,0,0
-378,8,0,0,0,0,0,0,0,0,0,-1,846,1016,0,0
-371,8,0,0,0,0,0,0,0,0,0,-1,853,1016,0,0
-364,8,0,0,0,0,0,0,0,0,0,-1,860,1016,0,0
-357,8,0,0,0,0,0,0,0,0,0,-1,867,1016,0,0
-350,8,0,0,0,0,0,0,0,0,0,-1,874,1016,0,0
-343,8,0,0,0,0,0,0,0,0,0,-1,881,1016,0,0
-336,8,0,0,0,0,0,0,0,0,0,-1,888,1016,0,0
-329,8,0,0,0,0,0,0,0,0,0,-1,895,1016,0,0
-322,8,0,0,0,0,0,0,0,0,0,-1,902,1016,0,0
-315,8,0,0,0,0,0,0,0,0,0,-1,909,1016,0,0
-308,8,0,0,0,0,0,0,0,0,0,-1,916,1016,0,0
-301,8,0,0,0,0,0,0,0,0,0,-1,923,1016,0,0
-294,8,0,0,0,0,0,0,0,0,0,-1,930,1016,0,0
-287,8,0,0,0,0,0,0,0,0,0,-1,937,1016,0,0
-280,8,0,0,0,0,0,0,0,0,0,-1,944,1016,0,0
-273,8,0,0,0,0,0,0,0,0,0,-1,951,1016,0,0
-266,8,0,0,0,0,0,0,0,0,0,-1,958,1016,0,0
-259,8,0,0,0,0,0,0,0,0,0,-1,965,1016,0,0
-252,8,0,0,0,0,0,0,0,0,0,-1,972,1016,0,0
-245,8,0,0,0,0,0,0,0,0,0,-1,979,1016,0,0
-238,8,0,0,0,0,0,0,0,0,0,-1,986,1016,0,0
-231,8,0,0,0,0,0,0,0,0,0,-1,993,1016,0,0
-224,8,0,0,0,0,0,0,0,0,0,-1,1000,1016,0,0
-217,8,0,0,0,0,0,0,0,0,0,-1,1007,1016,0,0
-210,8,0,0,0,0,0,0,0,0,0,-1,1014,1016,0,0
-203,8,0,0,0,0,0,0,0,0,0,-1,1021,1016,0,0
-196,8,0,0,0,0,0,0,0,0,0,-1,1028,1016,0,0
-189,8,0,0,0,0,0,0,0,0,0,-1,1035,1016,0,0
-182,8,0,0,0,0,0,0,0,0,0,-1,1042,1016,0,0
-175,8,0,0,0,0,0,0,0,0,0,-1,1049,1016,0,0
-168,8,0,0,0,0,0,0,0,0,0,-1,1056,1016,0,0
-161,8,0,0,0,0,0,0,0,0,0,-1,1063,1016,0,0
-154,8,0,0,0,0,0,0,0,0,0,-1,1070,1016,0,0
-147,8,0,0,0,0,0,0,0,0,0,-1,1077,1016,0,0
-140,8,0,0,0,0,0,0,0,0,0,-1,1084,1016,0,0
-133,8,0,0,0,0,0,0,0,0,0,-1,1091,1016,0,0
-126,8,0,0,0,0,0,0,0,0,0,-1,1098,1016,0,0
-119,8,0,0,0,0,0,0,0,0,0,-1,1105,1016,0,0
-112,8,0,0,0,0,0,0,0,0,0,-1,1112,1016,0,0
-105,8,0,0,0,0,0,0,0,0,0,-1,1119,1016,0,0
-98,8,0,0,0,0,0,0,0,0,0,-1,1126,1016,0,0
-91,8,0,0,0,0,0,0,0,0,0,-1,1133,1016,0,0
-84,8,0,0,0,0,0,0,0,0,0,-1,1140,1016,0,0
-77,8,0,0,0,0,0,0,0,0,0,-1,1147,1016,0,0
-70,8,0,0,0,0,0,0,0,0,0,-1,1154,1016,0,0
-63,8,0,0,0,0,0,0,0,0,0,-1,1161,1016,0,0
-56,8,0,0,0,0,0,0,0,0,0,-1,1168,1016,0,0
-49,8,0,0,0,0,0,0,0,0,0,-1,1175,1016,0,0
-42,8,0,0,0,0,0,0,0,0,0,-1,1182,1016,0,0
-35,8,0,0,0,0,0,0,0,0,0,-1,1189,1016,0,0
-28,8,0,0,0,0,0,0,0,0,0,-1,1196,1016,0,0
-21,8,0,0,0,0,0,0,0,0,0,-1,1203,1016,0,0
-14,8,0,0,0,0,0,0,0,0,0,-1,1210,1016,0,0
-7,8,0,0,0,0,0,0,0,0,0,-1,1217,1016,0,0
0,8,0,0,0,0,0,0,0,0,0,-1,1224,1016,0,0
7,8,0,0,0,0,0,0,0,0,0,-1,1231,1016,0,0
14,8,0,0,0,0,0,0,0,0,0,-1,1238,1016,0,0
21,8,0,0,0,0,0,0,0,0,0,-1,1245,1016,0,0
28,8,0,0,0,0,0,0,0,0,0,-1,1252,1016,0,0
35,8,0,0,0,0,0,0,0,0,0,-1,1259,1016,0,0
42,8,0,0,0,0,0,0,0,0,0,-1,1266,1016,0,0
49,8,0,0,0,0,0,0,0,0,0,-1,1273,1016,0,0
56,8,0,0,0,0,0,0,0,0,0,-1,1280,1016,0,0
63,8,0,0,0,0,0,0,0,0,0,-1,1287,1016,0,0
70,8,0,0,0,0,0,0,0,0,0,-1,1294,1016,0,0
77,8,0,0,0,0,0,0,0,0,0,-1,1301,1016,0,0
84,8,0,0,0,0,0,0,0,0,0,-1,1308,1016,0,0
91,8,0,0,0,0,0,0,0,0,0,-1,1315,1016,0,0
98,8,0,0,0,0,0,0,0,0,0,-1,1322,1016,0,0
105,8,0,0,0,0,0,0,0,0,0,-1,1329,1016,0,0
112,8,0,0,0,0,0,0,0,0,0,-1,1336,1016,0,0
119,8,0,0,0,0,0,0,0,0,0,-1,1343,1016,0,0
126,8,0,0,0,0,0,0,0,0,0,-1,1350,1016,0,0
133,8,0,0,0,0,0,0,0,0,0,-1,1357,1016,0,0
140,8,0,0,0,0,0,0,0,0,0,-1,1364,1016,0,0
147,8,0,0,0,0,0,0,0,0,0,-1,1371,1016,0,0
154,8,0,0,0,0,0,0,0,0,0,-1,1378,1016,0,0
161,8,0,0,0,0,0,0,0,0,0,-1,1385,1016,0,0
168,8,0,0,0,0,0,0,0,0,0,-1,1392,1016,0,0
175,8,0,0,0,0,0,0,0,0,0,-1,1399,1016,0,0
182,8,0,0,0,0,0,0,0,0,0,-1,1406,1016,0,0
189,8,0,0,0,0,0,0,0,0,0,-1,1413,1016,0,0
196,8,0,0,0,0,0,0,0,0,0,-1,1420,1016,0,0
203,8,0,0,0,0,0,0,0,0,0,-1,1427,1016,0,0
210,8,0,0,0,0,0,0,0,0,0,-1,1434,1016,0,0
217,8,0,0,0,0,0,0,0,0,0,-1,1441,1016,0,0
224,8,0,0,0,0,0,0,0,0,0,-1,1448,1016,0,0
231,8,0,0,0,0,0,0,0,0,0,-1,1455,1016,0,0
238,8,0,0,0,0,0,0,0,0,0,-1,1462,1016,0,0
245,8,0,0,0,0,0,0,0,0,0,-1,1469,1016,0,0
252,8,0,0,0,0,0,0,0,0,0,-1,1476,1016,0,0
259,8,0,0,0,0,0,0,0,0,0,-1,1483,1016,0,0
266,8,0,0,0,0,0,0,0,0,0,-1,1490,1016,0,0
273,8,0,0,0,0,0,0,0,0,0,-1,1497,1016,0,0
280,8,0,0,0,0,0,0,0,0,0,-1,1504,1016,0,0
287,8,0,0,0,0,0,0,0,0,0,-1,1511,1016,0,0
294,8,0,0,0,0,0,0,0,0,0,-1,1518,1016,0,0
301,8,0,0,0,0,0,0,0,0,0,-1,1525,1016,0,0
308,8,0,0,0,0,0,0,0,0,0,-1,1532,1016,0,0
315,8,0,0,0,0,0,0,0,0,0,-1,1539,1016,0,0
322,8,0,0,0,0,0,0,0,0,0,-1,1546,1016,0,0
329,8,0,0,0,0,0,0,0,0,0,-1,1553,1016,0,0
336,8,0,0,0,0,0,0,0,0,0,-1,1560,1016,0,0
343,8,0,0,0,0,0,0,0,0,0,-1,1567,1016,0,0
350,8,0,0,0,0,0,0,0,0,0,-1,1574,1016,0,0
357,8,0,0,0,0,0,0,0,0,0,-1,1581,1016,0,0
364,8,0,0,0,0,0,0,0,0,0,-1,1588,1016,0,0
371,8,0,0,0,0,0,0,0,0,0,-1,1595,1016,0,0
378,8,0,0,0,0,0,0,0,0,0,-1,1602,1016,0,0
385,8,0,0,0,0,0,0,0,0,0,-1,1609,1016,0,0
392,8,0,0,0,0,0,0,0,0,0,-1,1616,1016,0,0
399,8,0,0,0,0,0,0,0,0,0,-1,1623,1016,0,0
406,8,0,0,0,0,0,0,0,0,0,-1,1630,1016,0,0
413,8,0,0,0,0,0,0,0,0,0,-1,1637,1016,0,0
420,8,0,0,0,0,0,0,0,0,0,-1,1644,1016,0,0
427,8,0,0,0,0,0,0,0,0,0,-1,1651,1016,0,0
434,8,0,0,0,0,0,0,0,0,0,-1,1658,1016,0,0
441,8,0,0,0,0,0,0,0,0,0,-1,1665,1016,0,0
448,8,0,0,0,0,0,0,0,0,0,-1,1672,1016,0,0
455,8,0,0,0,0,0,0,0,0,0,-1,1679,1016,0,0
462,8,0,0,0,0,0,0,0,0,0,-1,1686,1016,0,0
469,8,0,0,0,0,0,0,0,0,0,-1,1693,1016,0,0
476,8,0,0,0,0,0,0,0,0,0,-1,1700,1016,0,0
483,8,0,0,0,0,0,0,0,0,0,-1,1707,1016,0,0
490,8,0,0,0,0,0,0,0,0,0,-1,1714,1016,0,0
497,8,0,0,0,0,0,0,0,0,0,-1,1721,1016,0,0
504,8,0,0,0,0,0,0,0,0,0,-1,1728,1016,0,0
511,8,0,0,0,0,0,0,0,0,0,-1,1735,1016,0,0
518,8,0,0,0,0,0,0,0,0,0,-1,1742,1016,0,0
525,8,0,0,0,0,0,0,0,0,0,-1,1749,1016,0,0
532,8,0,0,0,0,0,0,0,0,0,-1,1756,1016,0,0
539,8,0,0,0,0,0,0,0,0,0,-1,1763,1016,0,0
546,8,0,0,0,0,0,0,0,0,0,-1,1770,1016,0,0
553,8,0,0,0,0,0,0,0,0,0,-1,1777,1016,0,0
560,8,0,0,0,0,0,0,0,0,0,-1,1784,1016,0,0
567,8,0,0,0,0,0,0,0,0,0,-1,1791,1016,0,0
574,8,0,0,0,0,0,0,0,0,0,-1,1798,1016,0,0
581,8,0,0,0,0,0,0,0,0,0,-1,1805,1016,0,0
588,8,0,0,0,0,0,0,0,0,0,-1,1812,1016,0,0
595,8,0,0,0,0,0,0,0,0,0,-1,1819,1016,0,0
602,8,0,0,0,0,0,0,0,0,0,-1,1826,1016,0,0
609,8,0,0,0,0,0,0,0,0,0,-1,1833,1016,0,0
616,8,0,0,0,0,0,0,0,0,0,-1,1840,1016,0,0
623,8,0,0,0,0,0,0,0,0,0,-1,1847,1016,0,0
630,8,0,0,0,0,0,0,0,0,0,-1,1854,1016,0,0
637,8,0,0,0,0,0,0,0,0,0,-1,1861,1016,0,0
644,8,9.37866,1.42047,0.00522901,2.34838e-05,0.000625928,0.00530321,-5.07219e-05,0.118002,0.0035525,0.0410158,1868,1016,9.3787,-1.42047
651,8,9.64783,1.41156,0.00319001,0.000419084,0.00037113,0.00323885,0.000370237,0.130865,0.00204701,0.0382196,1875,1016,9.6478,-1.41154
658,8,9.69434,1.38025,0.0017582,0.000619969,0.000218252,0.00179862,0.000579555,0.183098,0.00106008,0.0382667,1882,1016,9.69436,-1.38024
665,8,9.60767,1.1499,0.000787706,0.000710391,0.0001267,0.000881515,0.000616583,0.637328,0.000522267,0.0375945,1889,1016,9.60766,-1.14993
672,8,9.66589,1.21637,5.33446e-05,0.000739947,0.000271634,0.000834414,-4.11224e-05,1.23611,0.000570478,0.0363031,1896,1016,9.66593,-1.21637
679,8,9.7655,1.23322,-0.000723426,0.000706658,0.000594276,0.000921373,-0.000938142,1.22409,0.00107361,0.0382006,1903,1016,9.7655,-1.23324
686,8,9.63208,1.24207,-0.00134758,0.000633052,0.000943622,0.00101063,-0.00172517,1.19017,0.00159737,0.0421333,1910,1016,9.63202,-1.24204
693,8,9.62573,1.24139,-0.00181568,0.000536525,0.00127424,0.00109447,-0.00237362,1.15808,0.00204719,0.0388228,1917,1016,9.62569,-1.24142
700,8,9.61804,1.37738,-0.00221767,0.000477674,0.00147856,0.00113059,-0.00287059,1.15496,0.00238178,0.0292,1924,1016,9.61807,-1.3774
707,8,9.58496,1.31543,-0.00254599,0.00035843,0.00175947,0.00118759,-0.00337515,1.13041,0.00273336,0.0254904,1931,1016,9.58499,-1.31543
714,8,9.59155,1.30475,-0.00280041,0.000252016,0.00193874,0.0011932,-0.00374159,1.11885,0.00297304,0.0292914,1938,1016,9.59161,-1.30472
721,8,9.69775,1.38507,-0.00285458,0.000195797,0.00200929,0.00119319,-0.00385198,1.11004,0.00304468,0.0292193,1945,1016,9.69781,-1.38506
728,8,9.44543,1.57062,-0.00273862,0.00019823,0.00191619,0.00114394,-0.00368433,1.11233,0.00291338,0.0208026,1952,1016,9.4454,-1.5706
735,8,9.3938,1.60724,-0.00270276,0.000207903,0.00157677,0.000898311,-0.00339316,1.15808,0.00261352,0.0176895,1959,1016,9.3938,-1.60721
742,8,9.40393,1.62561,-0.00286598,3.83531e-05,0.00101387,0.000357267,-0.00318489,1.26604,0.00225182,0.0155721,1966,1016,9.40388,-1.62559
749,8,9.41833,1.63995,-0.00286711,-0.000341468,0.000410329,-0.000276476,-0.0029321,1.41371,0.00186941,0.0106218,1973,1016,9.41834,-1.63994
756,8,9.4408,1.66827,-0.00278732,-0.00124821,-0.000416584,-0.00114269,-0.00289284,-1.32272,0.00168241,0.0130337,1980,1016,9.44086,-1.66826
763,8,9.44043,1.68152,-0.00248271,-0.00250734,-0.00120095,-0.00129401,-0.00369603,-0.780271,0.00216563,0.0134317,1987,1016,9.44037,-1.68152
770,8,9.43018,1.67993,-0.00233552,-0.00408713,-0.00224099,-0.000805278,-0.00561738,-0.599118,0.00350744,0.0148697,1994,1016,9.43014,-1.67991
777,8,9.41187,1.70398,-0.00211267,-0.00641806,-0.00330223,-0.000323437,-0.00820729,-0.496546,0.00536696,0.0181459,2001,1016,9.41188,-1.70399
784,8,9.4165,1.73291,-0.00195216,-0.00976082,-0.00428125,-6.22738e-05,-0.0116507,-0.415706,0.00774646,0.0356085,2008,1016,9.41646,-1.7329
791,8,9.42542,1.63263,0,0,0,0,0,0,0,-1,2015,1016,9.42542,-1.63262
798,8,9.43372,1.30133,0,0,0,0,0,0,0,-1,2022,1016,9.43377,-1.30136
805,8,9.21033,0.963013,0,0,0,0,0,0,0,-1,2029,1016,9.2103,-0.963014
812,8,9.95422,2.90063,0,0,0,0,0,0,0,-1,2036,1016,9.9542,-2.90065
-700,1,0,0,0,0,0,0,0,0,0,-1,524,1023,0,0
-693,1,-5.74286,3.97711,-0.0145952,0.00911524,-0.0109686,0.0134111,-0.018891,-1.19751,0.0187389,0.042384,531,1023,-5.74285,-3.97713
-686,1,-6.05298,3.33429,-0.0106917,0.00952867,-0.0108432,0.0142438,-0.0154069,-1.16061,0.0171233,0.0462171,538,1023,-6.05299,-3.3343
-679,1,-6.46362,2.47083,0,0,0,0,0,0,0,-1,545,1023,-6.46362,-2.4708
-672,1,-7.13031,1.07904,0,0,0,0,0,0,0,-1,552,1023,-7.1303,-1.07904
-665,1,-6.60608,0.0759888,0,0,0,0,0,0,0,-1,559,1023,-6.60609,-0.0760177
-658,1,-4.2453,0.899048,-0.0023958,0.00709703,-0.00619388,0.010154,-0.00545276,-1.11233,0.00914581,0.0306479,566,1023,-4.24533,-0.899076
-651,1,-4.245,0.896729,-0.00147347,0.00598239,-0.00499526,0.00848744,-0.00397852,-1.10596,0.00735248,0.0129685,573,1023,-4.24502,-0.896742
-644,1,-4.24756,0.888367,-0.0009099,0.00458126,-0.0042247,0.00687416,-0.0032028,-1.07355,0.00594525,0.0124689,580,1023,-4.24757,-0.888373
-637,1,-4.24915,0.860535,-0.000332324,0.00383339,-0.00322721,0.00559152,-0.00209046,-1.07197,0.00458616,0.0110743,587,1023,-4.24913,-0.860554
-630,1,-4.25348,0.832336,0.000119458,0.00312271,-0.00221634,0.00429822,-0.00105605,-1.08314,0.00327475,0.0129878,594,1023,-4.25351,-0.832362
-623,1,-4.27081,0.847168,6.09558e-06,0.0022245,-0.00156962,0.00303729,-0.000806687,-1.09299,0.00234056,0.0132442,601,1023,-4.27083,-0.847194
-616,1,-4.25757,0.851074,-4.54328e-05,0.000976666,-0.00153025,0.00207895,-0.00114771,-0.946558,0.0018886,0.0149654,608,1023,-4.25755,-0.851047
-609,1,-4.2439,0.842102,1.01001e-05,0.00101675,-0.00157652,0.00216834,-0.0011415,-0.939915,0.00194135,0.0150994,615,1023,-4.24388,-0.842105
-602,1,-4.26062,0.831726,4.73787e-05,0.00043959,-0.00106985,0.00133116,-0.000844189,-0.876043,0.00126638,0.0126703,622,1023,-4.26062,-0.831717
-595,1,-4.26154,0.824097,0.000118026,0.000444129,-0.000904729,0.00120038,-0.000638227,-0.874552,0.00107793,0.0130827,629,1023,-4.26156,-0.824075
-588,1,-4.27399,0.793152,0.000240473,0.000349293,-0.000885987,0.00118254,-0.000592773,-0.816066,0.00104366,0.0194547,636,1023,-4.27401,-0.793179
-581,1,-4.31073,0.795349,0.000151772,0.000398392,-0.000714633,0.00100027,-0.000450112,-0.870832,0.000857227,0.0258635,643,1023,-4.31075,-0.795323
-574,1,-4.3349,0.899475,-9.33003e-06,0.000222466,-0.000555963,0.000674483,-0.000461347,-0.888158,0.000659609,0.0346964,650,1023,-4.33492,-0.899505
-567,1,-4.28497,0.822815,-0.000282525,0.000101232,-0.000271331,0.000241675,-0.000422969,-1.09316,0.000388462,0.0409519,657,1023,-4.28499,-0.822792
-560,1,-4.12451,0.79303,-0.000840382,-0.000140578,0.000102315,-0.000125926,-0.000855034,1.42856,0.000533029,0.0418326,664,1023,-4.12451,-0.793025
-553,1,-4.00739,0.936035,-0.00180954,-0.000566588,0.000551171,-0.000357388,-0.00201874,1.20804,0.00124393,0.0396732,671,1023,-4.00739,-0.936007
-546,1,-4.02948,0.808167,-0.00334338,-0.00126051,0.00105546,-0.000819178,-0.00378471,1.17475,0.00229925,0.0399242,678,1023,-4.02946,-0.808165
-539,1,-4.2215,0.57373,-0.00556959,-0.0023533,0.00151548,-0.00175174,-0.00617115,1.19293,0.00367221,0.0400418,685,1023,-4.22147,-0.573713
-532,1,-4.30713,0.453064,-0.00890233,-0.00394965,0.00184483,-0.00333801,-0.00951398,1.25065,0.00557376,0.0422498,692,1023,-4.30715,-0.453036
-525,1,0,0,0,0,0,0,0,0,0,-1,699,1023,0,0
-518,1,0,0,0,0,0,0,0,0,0,-1,706,1023,0,0
-511,1,0,0,0,0,0,0,0,0,0,-1,713,1023,0,0
-504,1,0,0,0,0,0,0,0,0,0,-1,720,1023,0,0
-497,1,0,0,0,0,0,0,0,0,0,-1,727,1023,0,0
-490,1,0,0,0,0,0,0,0,0,0,-1,734,1023,0,0
-483,1,0,0,0,0,0,0,0,0,0,-1,741,1023,0,0
-476,1,0,0,0,0,0,0,0,0,0,-1,748,1023,0,0
-469,1,0,0,0,0,0,0,0,0,0,-1,755,1023,0,0
-462,1,0,0,0,0,0,0,0,0,0,-1,762,1023,0,0
-455,1,0,0,0,0,0,0,0,0,0,-1,769,1023,0,0
-448,1,0,0,0,0,0,0,0,0,0,-1,776,1023,0,0
-441,1,0,0,0,0,0,0,0,0,0,-1,783,1023,0,0
-434,1,0,0,0,0,0,0,0,0,0,-1,790,1023,0,0
-427,1,0,0,0,0,0,0,0,0,0,-1,797,1023,0,0
-420,1,0,0,0,0,0,0,0,0,0,-1,804,1023,0,0
-413,1,0,0,0,0,0,0,0,0,0,-1,811,1023,0,0
-406,1,0,0,0,0,0,0,0,0,0,-1,818,1023,0,0
-399,1,0,0,0,0,0,0,0,0,0,-1,825,1023,0,0
-392,1,0,0,0,0,0,0,0,0,0,-1,832,1023,0,0
-385,1,0,0,0,0,0,0,0,0,0,-1,839,1023,0,0
-378,1,0,0,0,0,0,0,0,0,0,-1,846,1023,0,0
-371,1,0,0,0,0,0,0,0,0,0,-1,853,1023,0,0
-364,1,0,0,0,0,0,0,0,0,0,-1,860,1023,0,0
-357,1,0,0,0,0,0,0,0,0,0,-1,867,1023,0,0
-350,1,0,0,0,0,0,0,0,0,0,-1,874,1023,0,0
-343,1,0,0,0,0,0,0,0,0,0,-1,881,1023,0,0
-336,1,0,0,0,0,0,0,0,0,0,-1,888,1023,0,0
-329,1,0,0,0,0,0,0,0,0,0,-1,895,1023,0,0
-322,1,0,0,0,0,0,0,0,0,0,-1,902,1023,0,0
-315,1,0,0,0,0,0,0,0,0,0,-1,909,1023,0,0
-308,1,0,0,0,0,0,0,0,0,0,-1,916,1023,0,0
-301,1,0,0,0,0,0,0,0,0,0,-1,923,1023,0,0
-294,1,0,0,0,0,0,0,0,0,0,-1,930,1023,0,0
-287,1,0,0,0,0,0,0,0,0,0,-1,937,1023,0,0
-280,1,0,0,0,0,0,0,0,0,0,-1,944,1023,0,0
-273,1,0,0,0,0,0,0,0,0,0,-1,951,1023,0,0
-266,1,0,0,0,0,0,0,0,0,0,-1,958,1023,0,0
-259,1,0,0,0,0,0,0,0,0,0,-1,965,1023,0,0
-252,1,0,0,0,0,0,0,0,0,0,-1,972,1023,0,0
-245,1,0,0,0,0,0,0,0,0,0,-1,979,1023,0,0
-238,1,0,0,0,0,0,0,0,0,0,-1,986,1023,0,0
-231,1,0,0,0,0,0,0,0,0,0,-1,993,1023,0,0
-224,1,0,0,0,0,0,0,0,0,0,-1,1000,1023,0,0
-217,1,0,0,0,0,0,0,0,0,0,-1,1007,1023,0,0
-210,1,0,0,0,0,0,0,0,0,0,-1,1014,1023,0,0
-203,1,0,0,0,0,0,0,0,0,0,-1,1021,1023,0,0
-196,1,0,0,0,0,0,0,0,0,0,-1,1028,1023,0,0
-189,1,0,0,0,0,0,0,0,0,0,-1,1035,1023,0,0
-182,1,0,0,0,0,0,0,0,0,0,-1,1042,1023,0,0
-175,1,0,0,0,0,0,0,0,0,0,-1,1049,1023,0,0
-168,1,0,0,0,0,0,0,0,0,0,-1,1056,1023,0,0
-161,1,0,0,0,0,0,0,0,0,0,-1,1063,1023,0,0
-154,1,0,0,0,0,0,0,0,0,0,-1,1070,1023,0,0
-147,1,0,0,0,0,0,0,0,0,0,-1,1077,1023,0,0
-140,1,0,0,0,0,0,0,0,0,0,-1,1084,1023,0,0
-133,1,0,0,0,0,0,0,0,0,0,-1,1091,1023,0,0
-126,1,0,0,0,0,0,0,0,0,0,-1,1098,1023,0,0
-119,1,0,0,0,0,0,0,0,0,0,-1,1105,1023,0,0
-112,1,0,0,0,0,0,0,0,0,0,-1,1112,1023,0,0
-105,1,0,0,0,0,0,0,0,0,0,-1,1119,1023,0,0
-98,1,0,0,0,0,0,0,0,0,0,-1,1126,1023,0,0
-91,1,0,0,0,0,0,0,0,0,0,-1,1133,1023,0,0
-84,1,0,0,0,0,0,0,0,0,0,-1,1140,1023,0,0
-77,1,0,0,0,0,0,0,0,0,0,-1,1147,1023,0,0
-70,1,0,0,0,0,0,0,0,0,0,-1,1154,1023,0,0
-63,1,0,0,0,0,0,0,0,0,0,-1,1161,1023,0,0
-56,1,0,0,0,0,0,0,0,0,0,-1,1168,1023,0,0
-49,1,0,0,0,0,0,0,0,0,0,-1,1175,1023,0,0
-42,1,0,0,0,0,0,0,0,0,0,-1,1182,1023,0,0
-35,1,0,0,0,0,0,0,0,0,0,-1,1189,1023,0,0
-28,1,0,0,0,0,0,0,0,0,0,-1,1196,1023,0,0
-21,1,0,0,0,0,0,0,0,0,0,-1,1203,1023,0,0
-14,1,0,0,0,0,0,0,0,0,0,-1,1210,1023,0,0
-7,1,0,0,0,0,0,0,0,0,0,-1,1217,1023,0,0
0,1,0,0,0,0,0,0,0,0,0,-1,1224,1023,0,0
7,1,0,0,0,0,0,0,0,0,0,-1,1231,1023,0,0
14,1,0,0,0,0,0,0,0,0,0,-1,1238,1023,0,0
21,1,0,0,0,0,0,0,0,0,0,-1,1245,1023,0,0
28,1,0,0,0,0,0,0,0,0,0,-1,1252,1023,0,0
35,1,0,0,0,0,0,0,0,0,0,-1,1259,1023,0,0
42,1,0,0,0,0,0,0,0,0,0,-1,1266,1023,0,0
49,1,0,0,0,0,0,0,0,0,0,-1,1273,1023,0,0
56,1,0,0,0,0,0,0,0,0,0,-1,1280,1023,0,0
63,1,0,0,0,0,0,0,0,0,0,-1,1287,1023,0,0
70,1,0,0,0,0,0,0,0,0,0,-1,1294,1023,0,0
77,1,0,0,0,0,0,0,0,0,0,-1,1301,1023,0,0
84,1,0,0,0,0,0,0,0,0,0,-1,1308,1023,0,0
91,1,0,0,0,0,0,0,0,0,0,-1,1315,1023,0,0
98,1,0,0,0,0,0,0,0,0,0,-1,1322,1023,0,0
105,1,0,0,0,0,0,0,0,0,0,-1,1329,1023,0,0
112,1,0,0,0,0,0,0,0,0,0,-1,1336,1023,0,0
119,1,0,0,0,0,0,0,0,0,0,-1,1343,1023,0,0
126,1,0,0,0,0,0,0,0,0,0,-1,1350,1023,0,0
133,1,0,0,0,0,0,0,0,0,0,-1,1357,1023,0,0
140,1,0,0,0,0,0,0,0,0,0,-1,1364,1023,0,0
147,1,0,0,0,0,0,0,0,0,0,-1,1371,1023,0,0
154,1,0,0,0,0,0,0,0,0,0,-1,1378,1023,0,0
161,1,0,0,0,0,0,0,0,0,0,-1,1385,1023,0,0
168,1,0,0,0,0,0,0,0,0,0,-1,1392,1023,0,0
175,1,0,0,0,0,0,0,0,0,0,-1,1399,1023,0,0
182,1,0,0,0,0,0,0,0,0,0,-1,1406,1023,0,0
189,1,0,0,0,0,0,0,0,0,0,-1,1413,1023,0,0
196,1,0,0,0,0,0,0,0,0,0,-1,1420,1023,0,0
203,1,0,0,0,0,0,0,0,0,0,-1,1427,1023,0,0
210,1,0,0,0,0,0,0,0,0,0,-1,1434,1023,0,0
217,1,0,0,0,0,0,0,0,0,0,-1,1441,1023,0,0
224,1,0,0,0,0,0,0,0,0,0,-1,1448,1023,0,0
231,1,0,0,0,0,0,0,0,0,0,-1,1455,1023,0,0
238,1,0,0,0,0,0,0,0,0,0,-1,1462,1023,0,0
245,1,0,0,0,0,0,0,0,0,0,-1,1469,1023,0,0
252,1,0,0,0,0,0,0,0,0,0,-1,1476,1023,0,0
259,1,0,0,0,0,0,0,0,0,0,-1,1483,1023,0,0
266,1,0,0,0,0,0,0,0,0,0,-1,1490,1023,0,0
273,1,0,0,0,0,0,0,0,0,0,-1,1497,1023,0,0
280,1,0,0,0,0,0,0,0,0,0,-1,1504,1023,0,0
287,1,0,0,0,0,0,0,0,0,0,-1,1511,1023,0,0
294,1,0,0,0,0,0,0,0,0,0,-1,1518,1023,0,0
301,1,0,0,0,0,0,0,0,0,0,-1,1525,1023,0,0
308,1,0,0,0,0,0,0,0,0,0,-1,1532,1023,0,0
315,1,0,0,0,0,0,0,0,0,0,-1,1539,1023,0,0
322,1,0,0,0,0,0,0,0,0,0,-1,1546,1023,0,0
329,1,0,0,0,0,0,0,0,0,0,-1,1553,1023,0,0
336,1,0,0,0,0,0,0,0,0,0,-1,1560,1023,0,0
343,1,0,0,0,0,0,0,0,0,0,-1,1567,1023,0,0
350,1,0,0,0,0,0,0,0,0,0,-1,1574,1023,0,0
357,1,0,0,0,0,0,0,0,0,0,-1,1581,1023,0,0
364,1,0,0,0,0,0,0,0,0,0,-1,1588,1023,0,0
371,1,0,0,0,0,0,0,0,0,0,-1,1595,1023,0,0
378,1,0,0,0,0,0,0,0,0,0,-1,1602,1023,0,0
385,1,0,0,0,0,0,0,0,0,0,-1,1609,1023,0,0
392,1,0,0,0,0,0,0,0,0,0,-1,1616,1023,0,0
399,1,0,0,0,0,0,0,0,0,0,-1,1623,1023,0,0
406,1,0,0,0,0,0,0,0,0,0,-1,1630,1023,0,0
413,1,0,0,0,0,0,0,0,0,0,-1,1637,1023,0,0
420,1,0,0,0,0,0,0,0,0,0,-1,1644,1023,0,0
427,1,0,0,0,0,0,0,0,0,0,-1,1651,1023,0,0
434,1,0,0,0,0,0,0,0,0,0,-1,1658,1023,0,0
441,1,0,0,0,0,0,0,0,0,0,-1,1665,1023,0,0
448,1,0,0,0,0,0,0,0,0,0,-1,1672,1023,0,0
455,1,0,0,0,0,0,0,0,0,0,-1,1679,1023,0,0
462,1,0,0,0,0,0,0,0,0,0,-1,1686,1023,0,0
469,1,0,0,0,0,0,0,0,0,0,-1,1693,1023,0,0
476,1,0,0,0,0,0,0,0,0,0,-1,1700,1023,0,0
483,1,0,0,0,0,0,0,0,0,0,-1,1707,1023,0,0
490,1,0,0,0,0,0,0,0,0,0,-1,1714,1023,0,0
497,1,0,0,0,0,0,0,0,0,0,-1,1721,1023,0,0
504,1,0,0,0,0,0,0,0,0,0,-1,1728,1023,0,0
511,1,0,0,0,0,0,0,0,0,0,-1,1735,1023,0,0
518,1,0,0,0,0,0,0,0,0,0,-1,1742,1023,0,0
525,1,0,0,0,0,0,0,0,0,0,-1,1749,1023,0,0
532,1,0,0,0,0,0,0,0,0,0,-1,1756,1023,0,0
539,1,0,0,0,0,0,0,0,0,0,-1,1763,1023,0,0
546,1,0,0,0,0,0,0,0,0,0,-1,1770,1023,0,0
553,1,0,0,0,0,0,0,0,0,0,-1,1777,1023,0,0
560,1,0,0,0,0,0,0,0,0,0,-1,1784,1023,0,0
567,1,0,0,0,0,0,0,0,0,0,-1,1791,1023,0,0
574,1,0,0,0,0,0,0,0,0,0,-1,1798,1023,0,0
581,1,0,0,0,0,0,0,0,0,0,-1,1805,1023,0,0
588,1,0,0,0,0,0,0,0,0,0,-1,1812,1023,0,0
595,1,0,0,0,0,0,0,0,0,0,-1,1819,1023,0,0
602,1,0,0,0,0,0,0,0,0,0,-1,1826,1023,0,0
609,1,0,0,0,0,0,0,0,0,0,-1,1833,1023,0,0
616,1,0,0,0,0,0,0,0,0,0,-1,1840,1023,0,0
623,1,0,0,0,0,0,0,0,0,0,-1,1847,1023,0,0
630,1,0,0,0,0,0,0,0,0,0,-1,1854,1023,0,0
637,1,0,0,0,0,0,0,0,0,0,-1,1861,1023,0,0
644,1,0,0,0,0,0,0,0,0,0,-1,1868,1023,0,0
651,1,9.61829,1.13184,0.00212604,0.000132064,9.06631e-05,0.00213015,0.00012795,0.0453439,0.00137943,0.0382888,1875,1023,9.61826,-1.13186
658,1,9.6731,1.14124,0.00092478,0.000507857,7.52897e-05,0.000937959,0.000494677,0.173295,0.000541802,0.0390567,1882,1023,9.67311,-1.14124
665,1,9.65674,1.16339,0.000162504,0.000720944,5.54382e-05,0.000726394,0.000157054,1.4728,0.000441327,0.0392287,1889,1023,9.65668,-1.16341
672,1,9.72083,1.18005,-0.000355888,0.000813005,0.000253136,0.000865469,-0.000408353,1.36643,0.00075106,0.0395004,1896,1023,9.72085,-1.18003
679,1,9.62073,1.22711,-0.000950041,0.000800301,0.000626134,0.00100122,-0.00115096,1.26029,0.00124356,0.039262,1903,1023,9.62079,-1.22714
686,1,9.50891,1.30212,-0.00144059,0.000717154,0.00101686,0.00112084,-0.00184427,1.19289,0.00172881,0.0387625,1910,1023,9.50894,-1.30213
693,1,9.58044,1.44946,-0.00180555,0.000590289,0.00137947,0.00121938,-0.00243464,1.14294,0.00214819,0.0344219,1917,1023,9.58047,-1.44948
700,1,9.57458,1.41632,-0.00213756,0.000496834,0.00162161,0.0012688,-0.00290953,1.12649,0.00247358,0.028611,1924,1023,9.57461,-1.4163
707,1,9.56128,1.26746,-0.00237505,0.000344997,0.00192408,0.00134119,-0.00337124,1.09305,0.00280361,0.0266336,1931,1023,9.5613,-1.26749
714,1,9.57495,1.24005,-0.0025692,0.000198682,0.00210156,0.00133106,-0.00370157,1.07657,0.00301112,0.0283259,1938,1023,9.57496,-1.24002
721,1,9.63586,1.40765,-0.00262558,0.000110932,0.00215654,0.00129665,-0.0038113,1.06809,0.00306589,0.028347,1945,1023,9.63581,-1.40766
728,1,9.453,1.58893,-0.00254064,8.8384e-05,0.00206358,0.00122056,-0.00367282,1.06899,0.00294107,0.0183431,1952,1023,9.45304,-1.58894
735,1,9.42175,1.62042,-0.0025024,6.54376e-05,0.0017325,0.000937904,-0.00337486,1.10428,0.00261913,0.0163201,1959,1023,9.42178,-1.62044
742,1,9.42126,1.6264,-0.00264648,-0.000148197,0.00112387,0.000282971,-0.00307765,1.20447,0.0021523,0.015196,1966,1023,9.42123,-1.62641
749,1,9.42236,1.64832,-0.00270307,-0.000530605,0.000444528,-0.000443165,-0.00279051,1.37657,0.00173162,0.013307,1973,1023,9.42239,-1.64831
756,1,9.43591,1.65997,-0.00269341,-0.00146034,-0.000486215,-0.00129169,-0.00286207,-1.23691,0.00165502,0.0134663,1980,1023,9.43589,-1.65996
763,1,9.45532,1.67133,-0.00250062,-0.00271995,-0.0014117,-0.00119433,-0.00402624,-0.746633,0.00238778,0.0137956,1987,1023,9.45537,-1.6713
770,1,9.4386,1.6806,-0.002482,-0.00434096,-0.00263375,-0.000618532,-0.00620442,-0.615765,0.0039463,0.0136726,1994,1023,9.4386,-1.6806
777,1,9.43091,1.71198,-0.0024381,-0.0067653,-0.00393155,-0.000114135,-0.00908927,-0.533855,0.00602183,0.015336,2001,1023,9.43088,-1.71199
784,1,9.44019,1.71765,-0.00253828,-0.0102774,-0.00521455,8.56249e-05,-0.0129013,-0.466196,0.00862954,0.0349736,2008,1023,9.44013,-1.71763
791,1,9.46228,1.71667,0,0,0,0,0,0,0,-1,2015,1023,9.46223,-1.71668
798,1,9.40369,0.501404,0,0,0,0,0,0,0,-1,2022,1023,9.40366,-0.501412
805,1,9.00452,0.785095,0,0,0,0,0,0,0,-1,2029,1023,9.00446,-0.78512
812,1,8.92151,0.905396,0,0,0,0,0,0,0,-1,2036,1023,8.92153,-0.905418
-700,-6,0,0,0,0,0,0,0,0,0,-1,524,1030,0,0
-693,-6,-5.771,4.23596,-0.0078398,0.0125981,-0.011452,0.0177276,-0.0129693,-1.14968,0.0177937,0.0427351,531,1030,-5.77097,-4.23602
-686,-6,-5.97693,3.72937,-0.00614903,0.0127318,-0.01086,0.017681,-0.0110982,-1.14319,0.0167599,0.0424383,538,1030,-5.97694,-3.72936
-679,-6,-5.35016,2.82043,-0.00478712,0.0122499,-0.00964254,0.0165978,-0.00913498,-1.14719,0.0150636,0.0476486,545,1030,-5.35017,-2.82048
-672,-6,-7.66083,0.807251,0,0,0,0,0,0,0,-1,552,1030,-7.66086,-0.807242
-665,-6,-4.23389,0.705811,-0.00267422,0.0101536,-0.00673797,0.0130423,-0.00556292,-1.16578,0.0110272,0.0430085,559,1030,-4.23389,-0.705855
-658,-6,-4.11243,0.905518,-0.00190322,0.00877189,-0.00536953,0.0110054,-0.00413675,-1.1766,0.00903718,0.0368255,566,1030,-4.11245,-0.905472
-651,-6,-4.24597,0.838135,-0.00130459,0.00729789,-0.00416454,0.00898363,-0.00299034,-1.18617,0.00719605,0.0314055,573,1030,-4.24599,-0.838151
-644,-6,-4.26044,0.83313,-0.000947371,0.00551983,-0.00351878,0.00706514,-0.00249268,-1.15699,0.00572483,0.0257373,580,1030,-4.26042,-0.833179
-637,-6,-4.2597,0.853516,-0.000534798,0.00457278,-0.00257052,0.00564244,-0.00160446,-1.17647,0.00439517,0.0145014,587,1030,-4.25969,-0.853549
-630,-6,-4.25354,0.841919,-0.000118267,0.00361435,-0.00164593,0.00423646,-0.00074037,-1.20943,0.0031007,0.0120529,594,1030,-4.25354,-0.841976
-623,-6,-4.25952,0.843262,-0.0002203,0.00255221,-0.00114988,0.00296704,-0.000635133,-1.22457,0.00222023,0.0125732,601,1030,-4.25952,-0.843219
-616,-6,-4.25677,0.855347,-8.71508e-05,0.00111124,-0.00125468,0.00190246,-0.000878368,-1.00817,0.0016414,0.0135828,608,1030,-4.25675,-0.855349
-609,-6,-4.24921,0.844482,0.000129198,0.00101522,-0.00147895,0.00211608,-0.000971664,-0.930917,0.00182307,0.0157261,615,1030,-4.24921,-0.844458
-602,-6,-4.2702,0.851807,0.000225123,0.000415711,-0.0011107,0.0014352,-0.000794368,-0.828191,0.00130485,0.0122241,622,1030,-4.27019,-0.851836
-595,-6,-4.25458,0.855713,0.000298391,0.000446249,-0.00100245,0.00137749,-0.000632853,-0.822206,0.00118692,0.0128367,629,1030,-4.25459,-0.855693
-588,-6,-4.26196,0.779419,0.000357777,0.000354782,-0.000999006,0.00135529,-0.000642728,-0.784649,0.00117775,0.0147574,636,1030,-4.26196,-0.779411
-581,-6,-4.32397,0.771973,0.000210836,0.000424867,-0.000836173,0.00116084,-0.000525142,-0.849043,0.000996202,0.0222744,643,1030,-4.32396,-0.772022
-574,-6,-4.35278,0.817871,1.99658e-05,0.000326093,-0.00064635,0.000837256,-0.000491197,-0.901662,0.000775609,0.0308566,650,1030,-4.35281,-0.817832
-567,-6,-4.375,0.708862,-0.000344603,0.000272382,-0.000338107,0.000421584,-0.000493805,-1.15521,0.000529048,0.0419576,657,1030,-4.37498,-0.708869
-560,-6,-4.23071,0.5177,-0.00102525,0.000113584,5.68123e-05,0.000116411,-0.00102807,1.52107,0.000727299,0.0451386,664,1030,-4.23074,-0.517728
-553,-6,-3.94916,0.768188,-0.00215107,-0.000213367,0.000518284,-8.34503e-05,-0.00228099,1.32519,0.00149362,0.042748,671,1030,-3.94916,-0.768164
-546,-6,-4.07959,0.796997,-0.00387594,-0.000792782,0.0010222,-0.000484666,-0.00418406,1.27804,0.00264267,0.0426881,678,1030,-4.0796,-0.796946
-539,-6,-4.24207,0.755249,-0.00631729,-0.001761,0.00144992,-0.00133874,-0.00673955,1.2874,0.00411994,0.0422388,685,1030,-4.24208,-0.755286
-532,-6,-4.22369,0.623413,-0.00984795,-0.0032285,0.00166146,-0.00283488,-0.0102416,1.33818,0.00610619,0.04444,692,1030,-4.22372,-0.62341
-525,-6,0,0,0,0,0,0,0,0,0,-1,699,1030,0,0
-518,-6,0,0,0,0,0,0,0,0,0,-1,706,1030,0,0
-511,-6,0,0,0,0,0,0,0,0,0,-1,713,1030,0,0
-504,-6,0,0,0,0,0,0,0,0,0,-1,720,1030,0,0
-497,-6,0,0,0,0,0,0,0,0,0,-1,727,1030,0,0
-490,-6,0,0,0,0,0,0,0,0,0,-1,734,1030,0,0
-483,-6,0,0,0,0,0,0,0,0,0,-1,741,1030,0,0
-476,-6,0,0,0,0,0,0,0,0,0,-1,748,1030,0,0
-469,-6,0,0,0,0,0,0,0,0,0,-1,755,1030,0,0
-462,-6,0,0,0,0,0,0,0,0,0,-1,762,1030,0,0
-455,-6,0,0,0,0,0,0,0,0,0,-1,769,1030,0,0
-448,-6,0,0,0,0,0,0,0,0,0,-1,776,1030,0,0
-441,-6,0,0,0,0,0,0,0,0,0,-1,783,1030,0,0
-434,-6,0,0,0,0,0,0,0,0,0,-1,790,1030,0,0
-427,-6,0,0,0,0,0,0,0,0,0,-1,797,1030,0,0
-420,-6,0,0,0,0,0,0,0,0,0,-1,804,1030,0,0
-413,-6,0,0,0,0,0,0,0,0,0,-1,811,1030,0,0
-406,-6,0,0,0,0,0,0,0,0,0,-1,818,1030,0,0
-399,-6,0,0,0,0,0,0,0,0,0,-1,825,1030,0,0
-392,-6,0,0,0,0,0,0,0,0,0,-1,832,1030,0,0
-385,-6,0,0,0,0,0,0,0,0,0,-1,839,1030,0,0
-378,-6,0,0,0,0,0,0,0,0,0,-1,846,1030,0,0
-371,-6,0,0,0,0,0,0,0,0,0,-1,853,1030,0,0
-364,-6,0,0,0,0,0,0,0,0,0,-1,860,1030,0,0
-357,-6,0,0,0,0,0,0,0,0,0,-1,867,1030,0,0
-350,-6,0,0,0,0,0,0,0,0,0,-1,874,1030,0,0
-343,-6,0,0,0,0,0,0,0,0,0,-1,881,1030,0,0
-336,-6,0,0,0,0,0,0,0,0,0,-1,888,1030,0,0
-329,-6,0,0,0,0,0,0,0,0,0,-1,895,1030,0,0
-322,-6,0,0,0,0,0,0,0,0,0,-1,902,1030,0,0
-315,-6,0,0,0,0,0,0,0,0,0,-1,909,1030,0,0
-308,-6,0,0,0,0,0,0,0,0,0,-1,916,1030,0,0
-301,-6,0,0,0,0,0,0,0,0,0,-1,923,1030,0,0
-294,-6,0,0,0,0,0,0,0,0,0,-1,930,1030,0,0
-287,-6,0,0,0,0,0,0,0,0,0,-1,937,1030,0,0
-280,-6,0,0,0,0,0,0,0,0,0,-1,944,1030,0,0
-273,-6,0,0,0,0,0,0,0,0,0,-1,951,1030,0,0
-266,-6,0,0,0,0,0,0,0,0,0,-1,958,1030,0,0
-259,-6,0,0,0,0,0,0,0,0,0,-1,965,1030,0,0
-252,-6,0,0,0,0,0,0,0,0,0,-1,972,1030,0,0
-245,-6,0,0,0,0,0,0,0,0,0,-1,979,1030,0,0
-238,-6,0,0,0,0,0,0,0,0,0,-1,986,1030,0,0
-231,-6,0,0,0,0,0,0,0,0,0,-1,993,1030,0,0
-224,-6,0,0,0,0,0,0,0,0,0,-1,1000,1030,0,0
-217,-6,0,0,0,0,0,0,0,0,0,-1,1007,1030,0,0
-210,-6,0,0,0,0,0,0,0,0,0,-1,1014,1030,0,0
-203,-6,0,0,0,0,0,0,0,0,0,-1,1021,1030,0,0
-196,-6,0,0,0,0,0,0,0,0,0,-1,1028,1030,0,0
-189,-6,0,0,0,0,0,0,0,0,0,-1,1035,1030,0,0
-182,-6,0,0,0,0,0,0,0,0,0,-1,1042,1030,0,0
-175,-6,0,0,0,0,0,0,0,0,0,-1,1049,1030,0,0
-168,-6,0,0,0,0,0,0,0,0,0,-1,1056,1030,0,0
-161,-6,0,0,0,0,0,0,0,0,0,-1,1063,1030,0,0
-154,-6,0,0,0,0,0,0,0,0,0,-1,1070,1030,0,0
-147,-6,0,0,0,0,0,0,0,0,0,-1,1077,1030,0,0
-140,-6,0,0,0,0,0,0,0,0,0,-1,1084,1030,0,0
-133,-6,0,0,0,0,0,0,0,0,0,-1,1091,1030,0,0
-126,-6,0,0,0,0,0,0,0,0,0,-1,1098,1030,0,0
-119,-6,0,0,0,0,0,0,0,0,0,-1,1105,1030,0,0
-112,-6,0,0,0,0,0,0,0,0,0,-1,1112,1030,0,0
-105,-6,0,0,0,0,0,0,0,0,0,-1,1119,1030,0,0
-98,-6,0,0,0,0,0,0,0,0,0,-1,1126,1030,0,0
-91,-6,0,0,0,0,0,0,0,0,0,-1,1133,1030,0,0
-84,-6,0,0,0,0,0,0,0,0,0,-1,1140,1030,0,0
-77,-6,0,0,0,0,0,0,0,0,0,-1,1147,1030,0,0
-70,-6,0,0,0,0,0,0,0,0,0,-1,1154,1030,0,0
-63,-6,0,0,0,0,0,0,0,0,0,-1,1161,1030,0,0
-56,-6,0,0,0,0,0,0,0,0,0,-1,1168,1030,0,0
-49,-6,0,0,0,0,0,0,0,0,0,-1,1175,1030,0,0
-42,-6,0,0,0,0,0,0,0,0,0,-1,1182,1030,0,0
-35,-6,0,0,0,0,0,0,0,0,0,-1,1189,1030,0,0
-28,-6,0,0,0,0,0,0,0,0,0,-1,1196,1030,0,0
-21,-6,0,0,0,0,0,0,0,0,0,-1,1203,1030,0,0
-14,-6,0,0,0,0,0,0,0,0,0,-1,1210,1030,0,0
-7,-6,0,0,0,0,0,0,0,0,0,-1,1217,1030,0,0
0,-6,0,0,0,0,0,0,0,0,0,-1,1224,1030,0,0
7,-6,0,0,0,0,0,0,0,0,0,-1,1231,1030,0,0
14,-6,0,0,0,0,0,0,0,0,0,-1,1238,1030,0,0
21,-6,0,0,0,0,0,0,0,0,0,-1,1245,1030,0,0
28,-6,0,0,0,0,0,0,0,0,0,-1,1252,1030,0,0
35,-6,0,0,0,0,0,0,0,0,0,-1,1259,1030,0,0
42,-6,0,0,0,0,0,0,0,0,0,-1,1266,1030,0,0
49,-6,0,0,0,0,0,0,0,0,0,-1,1273,1030,0,0
56,-6,0,0,0,0,0,0,0,0,0,-1,1280,1030,0,0
63,-6,0,0,0,0,0,0,0,0,0,-1,1287,1030,0,0
70,-6,0,0,0,0,0,0,0,0,0,-1,1294,1030,0,0
77,-6,0,0,0,0,0,0,0,0,0,-1,1301,1030,0,0
84,-6,0,0,0,0,0,0,0,0,0,-1,1308,1030,0,0
91,-6,0,0,0,0,0,0,0,0,0,-1,1315,1030,0,0
98,-6,0,0,0,0,0,0,0,0,0,-1,1322,1030,0,0
105,-6,0,0,0,0,0,0,0,0,0,-1,1329,1030,0,0
112,-6,0,0,0,0,0,0,0,0,0,-1,1336,1030,0,0
119,-6,0,0,0,0,0,0,0,0,0,-1,1343,1030,0,0
126,-6,0,0,0,0,0,0,0,0,0,-1,1350,1030,0,0
133,-6,0,0,0,0,0,0,0,0,0,-1,1357,1030,0,0
140,-6,0,0,0,0,0,0,0,0,0,-1,1364,1030,0,0
147,-6,0,0,0,0,0,0,0,0,0,-1,1371,1030,0,0
154,-6,0,0,0,0,0,0,0,0,0,-1,1378,1030,0,0
161,-6,0,0,0,0,0,0,0,0,0,-1,1385,1030,0,0
168,-6,0,0,0,0,0,0,0,0,0,-1,1392,1030,0,0
175,-6,0,0,0,0,0,0,0,0,0,-1,1399,1030,0,0
182,-6,0,0,0,0,0,0,0,0,0,-1,1406,1030,0,0
189,-6,0,0,0,0,0,0,0,0,0,-1,1413,1030,0,0
196,-6,0,0,0,0,0,0,0,0,0,-1,1420,1030,0,0
203,-6,0,0,0,0,0,0,0,0,0,-1,1427,1030,0,0
210,-6,0,0,0,0,0,0,0,0,0,-1,1434,1030,0,0
217,-6,0,0,0,0,0,0,0,0,0,-1,1441,1030,0,0
224,-6,0,0,0,0,0,0,0,0,0,-1,1448,1030,0,0
231,-6,0,0,0,0,0,0,0,0,0,-1,1455,1030,0,0
238,-6,0,0,0,0,0,0,0,0,0,-1,1462,1030,0,0
245,-6,0,0,0,0,0,0,0,0,0,-1,1469,1030,0,0
252,-6,0,0,0,0,0,0,0,0,0,-1,1476,1030,0,0
259,-6,0,0,0,0,0,0,0,0,0,-1,1483,1030,0,0
266,-6,0,0,0,0,0,0,0,0,0,-1,1490,1030,0,0
273,-6,0,0,0,0,0,0,0,0,0,-1,1497,1030,0,0
280,-6,0,0,0,0,0,0,0,0,0,-1,1504,1030,0,0
287,-6,0,0,0,0,0,0,0,0,0,-1,1511,1030,0,0
294,-6,0,0,0,0,0,0,0,0,0,-1,1518,1030,0,0
301,-6,0,0,0,0,0,0,0,0,0,-1,1525,1030,0,0
308,-6,0,0,0,0,0,0,0,0,0,-1,1532,1030,0,0
315,-6,0,0,0,0,0,0,0,0,0,-1,1539,1030,0,0
322,-6,0,0,0,0,0,0,0,0,0,-1,1546,1030,0,0
329,-6,0,0,0,0,0,0,0,0,0,-1,1553,1030,0,0
336,-6,0,0,0,0,0,0,0,0,0,-1,1560,1030,0,0
343,-6,0,0,0,0,0,0,0,0,0,-1,1567,1030,0,0
350,-6,0,0,0,0,0,0,0,0,0,-1,1574,1030,0,0
357,-6,0,0,0,0,0,0,0,0,0,-1,1581,1030,0,0
364,-6,0,0,0,0,0,0,0,0,0,-1,1588,1030,0,0
371,-6,0,0,0,0,0,0,0,0,0,-1,1595,1030,0,0
378,-6,0,0,0,0,0,0,0,0,0,-1,1602,1030,0,0
385,-6,0,0,0,0,0,0,0,0,0,-1,1609,1030,0,0
392,-6,0,0,0,0,0,0,0,0,0,-1,1616,1030,0,0
399,-6,0,0,0,0,0,0,0,0,0,-1,1623,1030,0,0
406,-6,0,0,0,0,0,0,0,0,0,-1,1630,1030,0,0
413,-6,0,0,0,0,0,0,0,0,0,-1,1637,1030,0,0
420,-6,0,0,0,0,0,0,0,0,0,-1,1644,1030,0,0
427,-6,0,0,0,0,0,0,0,0,0,-1,1651,1030,0,0
434,-6,0,0,0,0,0,0,0,0,0,-1,1658,1030,0,0
441,-6,0,0,0,0,0,0,0,0,0,-1,1665,1030,0,0
448,-6,0,0,0,0,0,0,0,0,0,-1,1672,1030,0,0
455,-6,0,0,0,0,0,0,0,0,0,-1,1679,1030,0,0
462,-6,0,0,0,0,0,0,0,0,0,-1,1686,1030,0,0
469,-6,0,0,0,0,0,0,0,0,0,-1,1693,1030,0,0
476,-6,0,0,0,0,0,0,0,0,0,-1,1700,1030,0,0
483,-6,0,0,0,0,0,0,0,0,0,-1,1707,1030,0,0
490,-6,0,0,0,0,0,0,0,0,0,-1,1714,1030,0,0
497,-6,0,0,0,0,0,0,0,0,0,-1,1721,1030,0,0
504,-6,0,0,0,0,0,0,0,0,0,-1,1728,1030,0,0
511,-6,0,0,0,0,0,0,0,0,0,-1,1735,1030,0,0
518,-6,0,0,0,0,0,0,0,0,0,-1,1742,1030,0,0
525,-6,0,0,0,0,0,0,0,0,0,-1,1749,1030,0,0
532,-6,0,0,0,0,0,0,0,0,0,-1,1756,1030,0,0
539,-6,0,0,0,0,0,0,0,0,0,-1,1763,1030,0,0
546,-6,0,0,0,0,0,0,0,0,0,-1,1770,1030,0,0
553,-6,0,0,0,0,0,0,0,0,0,-1,1777,1030,0,0
560,-6,0,0,0,0,0,0,0,0,0,-1,1784,1030,0,0
567,-6,0,0,0,0,0,0,0,0,0,-1,1791,1030,0,0
574,-6,0,0,0,0,0,0,0,0,0,-1,1798,1030,0,0
581,-6,0,0,0,0,0,0,0,0,0,-1,1805,1030,0,0
588,-6,0,0,0,0,0,0,0,0,0,-1,1812,1030,0,0
595,-6,0,0,0,0,0,0,0,0,0,-1,1819,1030,0,0
602,-6,0,0,0,0,0,0,0,0,0,-1,1826,1030,0,0
609,-6,0,0,0,0,0,0,0,0,0,-1,1833,1030,0,0
616,-6,0,0,0,0,0,0,0,0,0,-1,1840,1030,0,0
623,-6,0,0,0,0,0,0,0,0,0,-1,1847,1030,0,0
630,-6,0,0,0,0,0,0,0,0,0,-1,1854,1030,0,0
637,-6,0,0,0,0,0,0,0,0,0,-1,1861,1030,0,0
644,-6,0,0,0,0,0,0,0,0,0,-1,1868,1030,0,0
651,-6,9.69971,1.16357,0.00118966,3.18742e-05,-0.000252035,0.00124215,-2.0611e-05,-0.205312,0.000835054,0.0364157,1875,1030,9.69976,-1.16353
658,-6,9.76318,0.974365,0.000237615,0.00041944,-0.000149134,0.000503187,0.000153868,-1.05912,0.000297731,0.0409561,1882,1030,9.76317,-0.974359
665,-6,9.78809,1.08081,-0.000324756,0.000647172,-9.43374e-05,0.000656244,-0.000333828,-1.47493,0.000581634,0.0416939,1889,1030,9.78813,-1.08076
672,-6,9.7605,1.24365,-0.000657128,0.000734392,0.000163241,0.000753285,-0.000676021,1.45557,0.000825612,0.0402393,1896,1030,9.76046,-1.24362
679,-6,9.53918,1.28638,-0.00110196,0.000710545,0.000595344,0.000888603,-0.00128001,1.28018,0.00125883,0.041226,1903,1030,9.53918,-1.28633
686,-6,9.36377,1.37708,-0.00149093,0.000613434,0.00103835,0.00103951,-0.00191701,1.18141,0.00173183,0.0394039,1910,1030,9.36376,-1.3771
693,-6,9.50586,1.46887,-0.00178224,0.000470098,0.00144423,0.00117534,-0.00248748,1.11654,0.00215949,0.0348225,1917,1030,9.50587,-1.46883
700,-6,9.59741,1.40918,-0.00206952,0.000349981,0.00173713,0.0012571,-0.00297664,1.08955,0.00251065,0.0281962,1924,1030,9.59737,-1.40918
707,-6,9.55481,1.34314,-0.00223562,0.000189538,0.00206051,0.00136779,-0.00341387,1.05135,0.00284369,0.0283428,1931,1030,9.55481,-1.34312
714,-6,9.60071,1.17529,-0.00237887,3.90783e-05,0.00224197,0.00137726,-0.00371706,1.03267,0.00304286,0.0361323,1938,1030,9.60072,-1.17535
721,-6,9.59119,1.34595,-0.00244671,-5.08212e-05,0.00228894,0.0013347,-0.00383223,1.02648,0.00309712,0.034095,1945,1030,9.59123,-1.34597
728,-6,9.46497,1.60425,-0.0024012,-7.12783e-05,0.00220948,0.00126155,-0.00373402,1.028,0.00299964,0.0238428,1952,1030,9.46495,-1.6043
735,-6,9.44458,1.61853,-0.00237348,-9.99014e-05,0.00191656,0.000991645,-0.00346502,1.05308,0.00270192,0.0160413,1959,1030,9.44453,-1.6185
742,-6,9.44519,1.64001,-0.00251331,-0.000335165,0.0013078,0.000277648,-0.00312612,1.1326,0.00218253,0.0133885,1966,1030,9.4452,-1.63998
749,-6,9.44482,1.66943,-0.00262847,-0.000736882,0.000597849,-0.00056377,-0.00280158,1.28895,0.00171104,0.0131231,1973,1030,9.4448,-1.66943
756,-6,9.46936,1.66431,-0.00271262,-0.00164738,-0.000369634,-0.00153168,-0.00282832,-1.26746,0.00163481,0.0141235,1980,1030,9.46937,-1.66425
763,-6,9.46387,1.651,-0.00267974,-0.00281346,-0.00137015,-0.00137481,-0.00411838,-0.76102,0.00242113,0.0120367,1987,1030,9.46387,-1.65096
770,-6,9.43848,1.66736,-0.0028465,-0.00437038,-0.00267359,-0.000828394,-0.00638849,-0.646585,0.00401147,0.0107196,1994,1030,9.43847,-1.66736
777,-6,9.43384,1.68274,-0.00305641,-0.00670047,-0.00409162,-0.000399475,-0.0093574,-0.575926,0.00610947,0.0144189,2001,1030,9.43389,-1.6827
784,-6,9.46216,1.6825,-0.00350458,-0.0100528,-0.00555356,-0.000331844,-0.0132255,-0.519048,0.00870851,0.0360376,2008,1030,9.46221,-1.68254
791,-6,9.18799,1.39319,-0.00396631,-0.0146718,-0.00716697,-0.000373817,-0.0182643,-0.464652,0.0120535,0.0467461,2015,1030,9.18804,-1.39325
798,-6,8.78638,1.29968,0,0,0,0,0,0,0,-1,2022,1030,8.78633,-1.29972
805,-6,8.77893,0.836304,0,0,0,0,0,0,0,-1,2029,1030,8.77894,-0.836305
812,-6,8.61023,0.870117,0,0,0,0,0,0,0,-1,2036,1030,8.61028,-0.870122
-700,-13,0,0,0,0,0,0,0,0,0,-1,524,1037,0,0
-693,-13,-6.21295,5.14612,-0.00147427,0.0170555,-0.00981744,0.0212895,-0.00570828,-1.16362,0.0164297,0.0496907,531,1037,-6.21296,-5.14615
-686,-13,-5.83551,4.23621,-0.00189333,0.0165397,-0.00911037,0.0202825,-0.00563609,-1.18099,0.0157404,0.0448354,538,1037,-5.83551,-4.23616
-679,-13,-5.18701,3.0824,-0.00203271,0.0154767,-0.00786895,0.0184934,-0.00504937,-1.20471,0.0143121,0.0467353,545,1037,-5.18703,-3.08237
-672,-13,-4.90521,2.38269,-0.00195188,0.0140525,-0.00645681,0.0163326,-0.00423198,-1.23134,0.0125394,0.0444286,552,1037,-4.9052,-2.38272
-665,-13,-5.14667,2.94995,-0.00172241,0.0123866,-0.0050755,0.0140227,-0.00335851,-1.25896,0.0106461,0.0461491,559,1037,-5.14666,-2.94991
-658,-13,-3.96655,0.903687,0,0,0,0,0,0,0,-1,566,1037,-3.96656,-0.903699
-651,-13,-4.06171,0.744019,-0.00114101,0.00871562,-0.00278728,0.00944921,-0.0018746,-1.31344,0.00700842,0.041492,573,1037,-4.0617,-0.743967
-644,-13,-4.25421,0.80542,-0.000980536,0.00655184,-0.0023867,0.00724441,-0.00167311,-1.28837,0.00547322,0.028946,580,1037,-4.25419,-0.805465
-637,-13,-4.25415,0.833984,-0.000739653,0.00534893,-0.00158805,0.00573824,-0.00112896,-1.33039,0.00425207,0.0185386,587,1037,-4.25417,-0.83402
-630,-13,-4.25397,0.849731,-0.000348989,0.00414063,-0.000872538,0.00430424,-0.000512601,-1.38544,0.00305473,0.0122446,594,1037,-4.25394,-0.849741
-623,-13,-4.25122,0.863403,-0.000416859,0.00290631,-0.000610483,0.00301491,-0.000525459,-1.39475,0.00220605,0.0109971,601,1037,-4.25122,-0.863355
-616,-13,-4.2439,0.85791,-0.00013823,0.00127642,-0.000902097,0.00171543,-0.000577242,-1.11788,0.00137697,0.0112706,608,1037,-4.24388,-0.857935
-609,-13,-4.2525,0.836548,0.00018891,0.00101774,-0.00131518,0.00198226,-0.000775602,-0.938025,0.00164227,0.0167526,615,1037,-4.25252,-0.836497
-602,-13,-4.26794,0.849609,0.00031656,0.00039633,-0.00110054,0.00145771,-0.000744819,-0.803511,0.00129364,0.0110833,622,1037,-4.26793,-0.849657
-595,-13,-4.24622,0.854858,0.000363567,0.000453856,-0.00105504,0.00146472,-0.000647297,-0.80678,0.00124945,0.0130744,629,1037,-4.24619,-0.854816
-588,-13,-4.19116,0.759888,0.000334109,0.000369589,-0.00106933,0.00142133,-0.000717632,-0.793692,0.00125701,0.0212559,636,1037,-4.19118,-0.759828
-581,-13,-4.25171,0.688965,0.000120421,0.000452239,-0.000920782,0.00122194,-0.00064928,-0.874533,0.00109708,0.0224064,643,1037,-4.25172,-0.688946
-574,-13,-4.27692,0.650146,-9.33871e-05,0.000438992,-0.000692842,0.00091502,-0.000569415,-0.968804,0.000864747,0.0337893,650,1037,-4.2769,-0.650124
-567,-13,-4.27612,0.598145,-0.000536672,0.000453226,-0.000357075,0.000568586,-0.000652032,-1.25831,0.000705273,0.0436825,657,1037,-4.27614,-0.598187
-560,-13,-4.18347,0.461304,-0.00130205,0.000379722,6.1788e-05,0.000381989,-0.00130431,1.53412,0.00102098,0.0477595,664,1037,-4.18345,-0.461331
-553,-13,-3.96881,0.423706,-0.00251279,0.000158861,0.00053801,0.000263134,-0.00261706,1.37936,0.00183871,0.0447067,671,1037,-3.96884,-0.423679
-546,-13,-4.20313,0.815796,-0.00430681,-0.000287763,0.00104392,-3.27872e-05,-0.00456178,1.33124,0.00303032,0.0403804,678,1037,-4.20315,-0.815834
-539,-13,-4.2124,1.06458,0,0,0,0,0,0,0,-1,685,1037,-4.21238,-1.06456
-532,-13,-4.05896,0.878296,0,0,0,0,0,0,0,-1,692,1037,-4.05898,-0.878325
-525,-13,0,0,0,0,0,0,0,0,0,-1,699,1037,0,0
-518,-13,0,0,0,0,0,0,0,0,0,-1,706,1037,0,0
-511,-13,0,0,0,0,0,0,0,0,0,-1,713,1037,0,0
-504,-13,0,0,0,0,0,0,0,0,0,-1,720,1037,0,0
-497,-13,0,0,0,0,0,0,0,0,0,-1,727,1037,0,0
-490,-13,0,0,0,0,0,0,0,0,0,-1,734,1037,0,0
-483,-13,0,0,0,0,0,0,0,0,0,-1,741,1037,0,0
-476,-13,0,0,0,0,0,0,0,0,0,-1,748,1037,0,0
-469,-13,0,0,0,0,0,0,0,0,0,-1,755,1037,0,0
-462,-13,0,0,0,0,0,0,0,0,0,-1,762,1037,0,0
-455,-13,0,0,0,0,0,0,0,0,0,-1,769,1037,0,0
-448,-13,0,0,0,0,0,0,0,0,0,-1,776,1037,0,0
-441,-13,0,0,0,0,0,0,0,0,0,-1,783,1037,0,0
-434,-13,0,0,0,0,0,0,0,0,0,-1,790,1037,0,0
-427,-13,0,0,0,0,0,0,0,0,0,-1,797,1037,0,0
-420,-13,0,0,0,0,0,0,0,0,0,-1,804,1037,0,0
-413,-13,0,0,0,0,0,0,0,0,0,-1,811,1037,0,0
-406,-13,0,0,0,0,0,0,0,0,0,-1,818,1037,0,0
-399,-13,0,0,0,0,0,0,0,0,0,-1,825,1037,0,0
-392,-13,0,0,0,0,0,0,0,0,0,-1,832,1037,0,0
-385,-13,0,0,0,0,0,0,0,0,0,-1,839,1037,0,0
-378,-13,0,0,0,0,0,0,0,0,0,-1,846,1037,0,0
-371,-13,0,0,0,0,0,0,0,0,0,-1,853,1037,0,0
-364,-13,0,0,0,0,0,0,0,0,0,-1,860,1037,0,0
-357,-13,0,0,0,0,0,0,0,0,0,-1,867,1037,0,0
-350,-13,0,0,0,0,0,0,0,0,0,-1,874,1037,0,0
-343,-13,0,0,0,0,0,0,0,0,0,-1,881,1037,0,0
-336,-13,0,0,0,0,0,0,0,0,0,-1,888,1037,0,0
-329,-13,0,0,0,0,0,0,0,0,0,-1,895,1037,0,0
-322,-13,0,0,0,0,0,0,0,0,0,-1,902,1037,0,0
-315,-13,0,0,0,0,0,0,0,0,0,-1,909,1037,0,0
-308,-13,0,0,0,0,0,0,0,0,0,-1,916,1037,0,0
-301,-13,0,0,0,0,0,0,0,0,0,-1,923,1037,0,0
-294,-13,0,0,0,0,0,0,0,0,0,-1,930,1037,0,0
-287,-13,0,0,0,0,0,0,0,0,0,-1,937,1037,0,0
-280,-13,0,0,0,0,0,0,0,0,0,-1,944,1037,0,0
-273,-13,0,0,0,0,0,0,0,0,0,-1,951,1037,0,0
-266,-13,0,0,0,0,0,0,0,0,0,-1,958,1037,0,0
-259,-13,0,0,0,0,0,0,0,0,0,-1,965,1037,0,0
-252,-13,0,0,0,0,0,0,0,0,0,-1,972,1037,0,0
-245,-13,0,0,0,0,0,0,0,0,0,-1,979,1037,0,0
-238,-13,0,0,0,0,0,0,0,0,0,-1,986,1037,0,0
-231,-13,0,0,0,0,0,0,0,0,0,-1,993,1037,0,0
-224,-13,0,0,0,0,0,0,0,0,0,-1,1000,1037,0,0
-217,-13,0,0,0,0,0,0,0,0,0,-1,1007,1037,0,0
-210,-13,0,0,0,0,0,0,0,0,0,-1,1014,1037,0,0
-203,-13,0,0,0,0,0,0,0,0,0,-1,1021,1037,0,0
-196,-13,0,0,0,0,0,0,0,0,0,-1,1028,1037,0,0
-189,-13,0,0,0,0,0,0,0,0,0,-1,1035,1037,0,0
-182,-13,0,0,0,0,0,0,0,0,0,-1,1042,1037,0,0
-175,-13,0,0,0,0,0,0,0,0,0,-1,1049,1037,0,0
-168,-13,0,0,0,0,0,0,0,0,0,-1,1056,1037,0,0
-161,-13,0,0,0,0,0,0,0,0,0,-1,1063,1037,0,0
-154,-13,0,0,0,0,0,0,0,0,0,-1,1070,1037,0,0
-147,-13,0,0,0,0,0,0,0,0,0,-1,1077,1037,0,0
-140,-13,0,0,0,0,0,0,0,0,0,-1,1084,1037,0,0
-133,-13,0,0,0,0,0,0,0,0,0,-1,1091,1037,0,0
-126,-13,0,0,0,0,0,0,0,0,0,-1,1098,1037,0,0
-119,-13,0,0,0,0,0,0,0,0,0,-1,1105,1037,0,0
-112,-13,0,0,0,0,0,0,0,0,0,-1,1112,1037,0,0
-105,-13,0,0,0,0,0,0,0,0,0,-1,1119,1037,0,0
-98,-13,0,0,0,0,0,0,0,0,0,-1,1126,1037,0,0
-91,-13,0,0,0,0,0,0,0,0,0,-1,1133,1037,0,0
-84,-13,0,0,0,0,0,0,0,0,0,-1,1140,1037,0,0
-77,-13,0,0,0,0,0,0,0,0,0,-1,1147,1037,0,0
-70,-13,0,0,0,0,0,0,0,0,0,-1,1154,1037,0,0
-63,-13,0,0,0,0,0,0,0,0,0,-1,1161,1037,0,0
-56,-13,0,0,0,0,0,0,0,0,0,-1,1168,1037,0,0
-49,-13,0,0,0,0,0,0,0,0,0,-1,1175,1037,0,0
-42,-13,0,0,0,0,0,0,0,0,0,-1,1182,1037,0,0
-35,-13,0,0,0,0,0,0,0,0,0,-1,1189,1037,0,0
-28,-13,0,0,0,0,0,0,0,0,0,-1,1196,1037,0,0
-21,-13,0,0,0,0,0,0,0,0,0,-1,1203,1037,0,0
-14,-13,0,0,0,0,0,0,0,0,0,-1,1210,1037,0,0
-7,-13,0,0,0,0,0,0,0,0,0,-1,1217,1037,0,0
0,-13,0,0,0,0,0,0,0,0,0,-1,1224,1037,0,0
7,-13,0,0,0,0,0,0,0,0,0,-1,1231,1037,0,0
14,-13,0,0,0,0,0,0,0,0,0,-1,1238,1037,0,0
21,-13,0,0,0,0,0,0,0,0,0,-1,1245,1037,0,0
28,-13,0,0,0,0,0,0,0,0,0,-1,1252,1037,0,0
35,-13,0,0,0,0,0,0,0,0,0,-1,1259,1037,0,0
42,-13,0,0,0,0,0,0,0,0,0,-1,1266,1037,0,0
49,-13,0,0,0,0,0,0,0,0,0,-1,1273,1037,0,0
56,-13,0,0,0,0,0,0,0,0,0,-1,1280,1037,0,0
63,-13,0,0,0,0,0,0,0,0,0,-1,1287,1037,0,0
70,-13,0,0,0,0,0,0,0,0,0,-1,1294,1037,0,0
77,-13,0,0,0,0,0,0,0,0,0,-1,1301,1037,0,0
84,-13,0,0,0,0,0,0,0,0,0,-1,1308,1037,0,0
91,-13,0,0,0,0,0,0,0,0,0,-1,1315,1037,0,0
98,-13,0,0,0,0,0,0,0,0,0,-1,1322,1037,0,0
105,-13,0,0,0,0,0,0,0,0,0,-1,1329,1037,0,0
112,-13,0,0,0,0,0,0,0,0,0,-1,1336,1037,0,0
119,-13,0,0,0,0,0,0,0,0,0,-1,1343,1037,0,0
126,-13,0,0,0,0,0,0,0,0,0,-1,1350,1037,0,0
133,-13,0,0,0,0,0,0,0,0,0,-1,1357,1037,0,0
140,-13,0,0,0,0,0,0,0,0,0,-1,1364,1037,0,0
147,-13,0,0,0,0,0,0,0,0,0,-1,1371,1037,0,0
154,-13,0,0,0,0,0,0,0,0,0,-1,1378,1037,0,0
161,-13,0,0,0,0,0,0,0,0,0,-1,1385,1037,0,0
168,-13,0,0,0,0,0,0,0,0,0,-1,1392,1037,0,0
175,-13,0,0,0,0,0,0,0,0,0,-1,1399,1037,0,0
182,-13,0,0,0,0,0,0,0,0,0,-1,1406,1037,0,0
189,-13,0,0,0,0,0,0,0,0,0,-1,1413,1037,0,0
196,-13,0,0,0,0,0,0,0,0,0,-1,1420,1037,0,0
203,-13,0,0,0,0,0,0,0,0,0,-1,1427,1037,0,0
210,-13,0,0,0,0,0,0,0,0,0,-1,1434,1037,0,0
217,-13,0,0,0,0,0,0,0,0,0,-1,1441,1037,0,0
224,-13,0,0,0,0,0,0,0,0,0,-1,1448,1037,0,0
231,-13,0,0,0,0,0,0,0,0,0,-1,1455,1037,0,0
238,-13,0,0,0,0,0,0,0,0,0,-1,1462,1037,0,0
245,-13,0,0,0,0,0,0,0,0,0,-1,1469,1037,0,0
252,-13,0,0,0,0,0,0,0,0,0,-1,1476,1037,0,0
259,-13,0,0,0,0,0,0,0,0,0,-1,1483,1037,0,0
266,-13,0,0,0,0,0,0,0,0,0,-1,1490,1037,0,0
273,-13,0,0,0,0,0,0,0,0,0,-1,1497,1037,0,0
280,-13,0,0,0,0,0,0,0,0,0,-1,1504,1037,0,0
287,-13,0,0,0,0,0,0,0,0,0,-1,1511,1037,0,0
294,-13,0,0,0,0,0,0,0,0,0,-1,1518,1037,0,0
301,-13,0,0,0,0,0,0,0,0,0,-1,1525,1037,0,0
308,-13,0,0,0,0,0,0,0,0,0,-1,1532,1037,0,0
315,-13,0,0,0,0,0,0,0,0,0,-1,1539,1037,0,0
322,-13,0,0,0,0,0,0,0,0,0,-1,1546,1037,0,0
329,-13,0,0,0,0,0,0,0,0,0,-1,1553,1037,0,0
336,-13,0,0,0,0,0,0,0,0,0,-1,1560,1037,0,0
343,-13,0,0,0,0,0,0,0,0,0,-1,1567,1037,0,0
350,-13,0,0,0,0,0,0,0,0,0,-1,1574,1037,0,0
357,-13,0,0,0,0,0,0,0,0,0,-1,1581,1037,0,0
364,-13,0,0,0,0,0,0,0,0,0,-1,1588,1037,0,0
371,-13,0,0,0,0,0,0,0,0,0,-1,1595,1037,0,0
378,-13,0,0,0,0,0,0,0,0,0,-1,1602,1037,0,0
385,-13,0,0,0,0,0,0,0,0,0,-1,1609,1037,0,0
392,-13,0,0,0,0,0,0,0,0,0,-1,1616,1037,0,0
399,-13,0,0,0,0,0,0,0,0,0,-1,1623,1037,0,0
406,-13,0,0,0,0,0,0,0,0,0,-1,1630,1037,0,0
413,-13,0,0,0,0,0,0,0,0,0,-1,1637,1037,0,0
420,-13,0,0,0,0,0,0,0,0,0,-1,1644,1037,0,0
427,-13,0,0,0,0,0,0,0,0,0,-1,1651,1037,0,0
434,-13,0,0,0,0,0,0,0,0,0,-1,1658,1037,0,0
441,-13,0,0,0,0,0,0,0,0,0,-1,1665,1037,0,0
448,-13,0,0,0,0,0,0,0,0,0,-1,1672,1037,0,0
455,-13,0,0,0,0,0,0,0,0,0,-1,1679,1037,0,0
462,-13,0,0,0,0,0,0,0,0,0,-1,1686,1037,0,0
469,-13,0,0,0,0,0,0,0,0,0,-1,1693,1037,0,0
476,-13,0,0,0,0,0,0,0,0,0,-1,1700,1037,0,0
483,-13,0,0,0,0,0,0,0,0,0,-1,1707,1037,0,0
490,-13,0,0,0,0,0,0,0,0,0,-1,1714,1037,0,0
497,-13,0,0,0,0,0,0,0,0,0,-1,1721,1037,0,0
504,-13,0,0,0,0,0,0,0,0,0,-1,1728,1037,0,0
511,-13,0,0,0,0,0,0,0,0,0,-1,1735,1037,0,0
518,-13,0,0,0,0,0,0,0,0,0,-1,1742,1037,0,0
525,-13,0,0,0,0,0,0,0,0,0,-1,1749,1037,0,0
532,-13,0,0,0,0,0,0,0,0,0,-1,1756,1037,0,0
539,-13,0,0,0,0,0,0,0,0,0,-1,1763,1037,0,0
546,-13,0,0,0,0,0,0,0,0,0,-1,1770,1037,0,0
553,-13,0,0,0,0,0,0,0,0,0,-1,1777,1037,0,0
560,-13,0,0,0,0,0,0,0,0,0,-1,1784,1037,0,0
567,-13,0,0,0,0,0,0,0,0,0,-1,1791,1037,0,0
574,-13,0,0,0,0,0,0,0,0,0,-1,1798,1037,0,0
581,-13,0,0,0,0,0,0,0,0,0,-1,1805,1037,0,0
588,-13,0,0,0,0,0,0,0,0,0,-1,1812,1037,0,0
595,-13,0,0,0,0,0,0,0,0,0,-1,1819,1037,0,0
602,-13,0,0,0,0,0,0,0,0,0,-1,1826,1037,0,0
609,-13,0,0,0,0,0,0,0,0,0,-1,1833,1037,0,0
616,-13,0,0,0,0,0,0,0,0,0,-1,1840,1037,0,0
623,-13,0,0,0,0,0,0,0,0,0,-1,1847,1037,0,0
630,-13,0,0,0,0,0,0,0,0,0,-1,1854,1037,0,0
637,-13,0,0,0,0,0,0,0,0,0,-1,1861,1037,0,0
644,-13,0,0,0,0,0,0,0,0,0,-1,1868,1037,0,0
651,-13,9.7854,1.15845,0.000402622,0.000110506,-0.000738531,0.0010094,-0.000496271,-0.687774,0.000885967,0.0381494,1875,1037,9.78545,-1.15848
658,-13,9.70935,1.13452,-0.000316328,0.000483682,-0.000463462,0.000695886,-0.000528532,-1.14142,0.000709116,0.0435815,1882,1037,9.70935,-1.13448
665,-13,9.70752,1.1864,-0.000699871,0.000717536,-0.00028145,0.000771377,-0.000753712,-1.38178,0.00088053,0.0427375,1889,1037,9.70751,-1.18644
672,-13,9.65613,1.21924,-0.00088029,0.000800019,7.40382e-05,0.000803275,-0.000883546,1.52685,0.000974254,0.0364815,1896,1037,9.65614,-1.21927
679,-13,9.53101,1.26526,-0.00120611,0.000765859,0.000586804,0.000927265,-0.00136752,1.30238,0.001333,0.0374675,1903,1037,9.53096,-1.26525
686,-13,9.43994,1.4176,-0.00151827,0.00065444,0.00109235,0.00110867,-0.0019725,1.17672,0.00180207,0.0412069,1910,1037,9.43989,-1.41757
693,-13,9.56885,1.45056,-0.00175679,0.000493279,0.00154313,0.00127795,-0.00254146,1.10038,0.002245,0.0388938,1917,1037,9.56885,-1.45053
700,-13,9.63379,1.29211,-0.00200921,0.000341012,0.00188138,0.00138412,-0.00305232,1.06455,0.00262104,0.0335134,1924,1037,9.63378,-1.29215
707,-13,9.59021,1.35315,-0.00212808,0.000167309,0.00221975,0.00151852,-0.00347929,1.02399,0.00295858,0.0313249,1931,1037,9.59025,-1.35319
714,-13,9.59131,1.37659,-0.00223262,8.78715e-06,0.00240348,0.00154,-0.00376383,1.00355,0.00315062,0.0316562,1938,1037,9.59129,-1.37662
721,-13,9.55542,1.46387,-0.00231061,-9.37493e-05,0.00243917,0.00147703,-0.00388139,0.998664,0.00319581,0.0343445,1945,1037,9.55545,-1.46381
728,-13,9.50293,1.62634,-0.00230212,-0.00012503,0.00235902,0.00138448,-0.00381163,1.00156,0.00310716,0.024837,1952,1037,9.50292,-1.6264
735,-13,9.45032,1.63977,-0.00227352,-0.000155005,0.00209744,0.00113548,-0.00356401,1.01923,0.00283143,0.0177722,1959,1037,9.45029,-1.63982
742,-13,9.43811,1.66174,-0.00237487,-0.000389882,0.00147762,0.000397627,-0.00316237,1.08113,0.00225252,0.010797,1966,1037,9.43807,-1.66176
749,-13,9.45215,1.65784,-0.0025082,-0.000782304,0.000672833,-0.000551002,-0.00273951,1.23968,0.00167319,0.0157274,1973,1037,9.45215,-1.6579
756,-13,9.47839,1.63672,-0.00264484,-0.00161594,-0.000358154,-0.00150354,-0.00275724,-1.26672,0.00159407,0.0132434,1980,1037,9.47835,-1.63667
763,-13,9.47266,1.64307,-0.00272824,-0.00260942,-0.00149573,-0.00117192,-0.00416574,-0.805247,0.00248058,0.0124494,1987,1037,9.47268,-1.64302
770,-13,9.45337,1.65002,-0.00301626,-0.00399402,-0.00295643,-0.000508565,-0.00650171,-0.703459,0.00417529,0.0111902,1994,1037,9.45332,-1.65003
777,-13,9.43909,1.6521,-0.00340904,-0.0060833,-0.00460544,4.94495e-05,-0.00954179,-0.644114,0.00637774,0.0117212,2001,1037,9.43913,-1.6521
784,-13,9.43848,1.65234,-0.00412117,-0.00909108,-0.00640025,0.000259608,-0.0134719,-0.600226,0.00906901,0.0259055,2008,1037,9.43851,-1.65237
791,-13,9.18188,1.42334,-0.00495434,-0.0132183,-0.00847868,0.0003456,-0.0185183,-0.558665,0.0124623,0.0406671,2015,1037,9.18191,-1.42338
798,-13,8.92737,1.2644,-0.00557902,-0.0186718,-0.0108833,0.000575025,-0.0248258,-0.514635,0.0167455,0.0469832,2022,1037,8.92743,-1.26445
805,-13,8.71399,1.17444,-0.00576754,-0.0256318,-0.0135262,0.00108141,-0.0324808,-0.468713,0.0220232,0.0449657,2029,1037,8.71401,-1.17446
812,-13,8.53589,1.09021,0,0,0,0,0,0,0,-1,2036,1037,8.53586,-1.09025
-700,-20,-2.61285,2.81335,0,0,0,0,0,0,0,-1,524,1044,-2.61283,-2.81338
-693,-20,-6.24298,5.66797,0,0,0,0,0,0,0,-1,531,1044,-6.24298,-5.66802
-686,-20,-5.56647,4.5293,0,0,0,0,0,0,0,-1,538,1044,-5.5665,-4.52931
-679,-20,-3.95758,2.20715,0,0,0,0,0,0,0,-1,545,1044,-3.95757,-2.20711
-672,-20,-4.52026,2.0166,0.000958028,0.0158625,-0.00524337,0.0175223,-0.000701748,-1.26423,0.0119223,0.045957,552,1044,-4.52027,-2.01656
-665,-20,-4.88336,2.35266,0.000302057,0.013773,-0.00392791,0.0148346,-0.000759589,-1.30682,0.0101524,0.0462289,559,1044,-4.88335,-2.35267
-658,-20,-4.16864,0.615845,0,0,0,0,0,0,0,-1,566,1044,-4.16866,-0.615874
-651,-20,-4.21649,0.716553,-0.000276866,0.00946276,-0.00180476,0.00978643,-0.000600534,-1.39334,0.0067334,0.0387391,573,1044,-4.2165,-0.716596
-644,-20,-4.24603,0.791626,-0.000480069,0.00702624,-0.00156715,0.00734028,-0.000794116,-1.37302,0.00517856,0.0240811,580,1044,-4.24606,-0.791685
-637,-20,-4.25366,0.805908,-0.000552445,0.00564247,-0.00088211,0.00576562,-0.000675602,-1.43208,0.0040876,0.0164886,587,1044,-4.25364,-0.805909
-630,-20,-4.25903,0.847168,-0.000334464,0.00428799,-0.000327143,0.00431103,-0.000357502,-1.50049,0.00300029,0.014079,594,1044,-4.25902,-0.847158
-623,-20,-4.25659,0.859253,-0.000477769,0.00299768,-0.000243417,0.00301465,-0.000494735,-1.50121,0.00219336,0.012835,601,1044,-4.25662,-0.85927
-616,-20,-4.24268,0.857544,-0.000158522,0.00133493,-0.00064306,0.00157366,-0.000397253,-1.21532,0.00120358,0.0124621,608,1044,-4.24268,-0.857567
-609,-20,-4.23914,0.86438,0.000205797,0.00101306,-0.00119021,0.00186622,-0.000647366,-0.948874,0.00150702,0.0148822,615,1044,-4.23911,-0.864357
-602,-20,-4.25177,0.859863,0.000349903,0.000467673,-0.00112997,0.00154029,-0.000722718,-0.81143,0.00133467,0.0108246,622,1044,-4.25179,-0.85987
-595,-20,-4.25189,0.843262,0.000385393,0.000626116,-0.0011553,0.00166731,-0.000655796,-0.837302,0.00138297,0.0109154,629,1044,-4.25188,-0.843265
-588,-20,-4.24017,0.761475,0.000294012,0.000609597,-0.0011907,0.00165292,-0.00074931,-0.851274,0.00141926,0.0178862,636,1044,-4.24017,-0.761456
-581,-20,-4.2348,0.732788,3.65391e-05,0.000761201,-0.00108889,0.00154646,-0.000748722,-0.946012,0.00135154,0.0285457,643,1044,-4.23478,-0.732839
-574,-20,-4.25525,0.721802,-0.000213824,0.000897005,-0.000873611,0.00137681,-0.00069363,-1.06855,0.00121687,0.0380593,650,1044,-4.25522,-0.72183
-567,-20,-4.25708,0.775391,-0.000713365,0.00104044,-0.000561551,0.00120483,-0.000877759,-1.286,0.00120732,0.0458247,657,1044,-4.25706,-0.775435
-560,-20,-4.1001,0.828491,-0.00154022,0.00111534,-0.000183723,0.00112799,-0.00155288,-1.50205,0.00155427,0.047164,664,1044,-4.10011,-0.828513
-553,-20,-4.04175,0.761353,-0.00282119,0.00106424,0.000222238,0.00107691,-0.00283386,1.51385,0.0023326,0.0430359,671,1044,-4.04172,-0.761323
-546,-20,-4.13513,0.722656,-0.00469305,0.000813573,0.000618328,0.000882149,-0.00476163,1.46034,0.00350566,0.0421656,678,1044,-4.13515,-0.722716
-539,-20,-4.22211,0.737549,-0.007245,0.000237828,0.000841971,0.000331398,-0.00733857,1.46012,0.0050065,0.0436389,685,1044,-4.22213,-0.737589
-532,-20,-4.22278,0.851929,-0.0107436,-0.000763418,0.000613954,-0.000725791,-0.0107812,1.50959,0.0069582,0.0419922,692,1044,-4.2228,-0.85192
-525,-20,0,0,0,0,0,0,0,0,0,-1,699,1044,0,0
-518,-20,0,0,0,0,0,0,0,0,0,-1,706,1044,0,0
-511,-20,0,0,0,0,0,0,0,0,0,-1,713,1044,0,0
-504,-20,0,0,0,0,0,0,0,0,0,-1,720,1044,0,0
-497,-20,0,0,0,0,0,0,0,0,0,-1,727,1044,0,0
-490,-20,0,0,0,0,0,0,0,0,0,-1,734,1044,0,0
-483,-20,0,0,0,0,0,0,0,0,0,-1,741,1044,0,0
-476,-20,0,0,0,0,0,0,0,0,0,-1,748,1044,0,0
-469,-20,0,0,0,0,0,0,0,0,0,-1,755,1044,0,0
-462,-20,0,0,0,0,0,0,0,0,0,-1,762,1044,0,0
-455,-20,0,0,0,0,0,0,0,0,0,-1,769,1044,0,0
-448,-20,0,0,0,0,0,0,0,0,0,-1,776,1044,0,0
-441,-20,0,0,0,0,0,0,0,0,0,-1,783,1044,0,0
-434,-20,0,0,0,0,0,0,0,0,0,-1,790,1044,0,0
-427,-20,0,0,0,0,0,0,0,0,0,-1,797,1044,0,0
-420,-20,0,0,0,0,0,0,0,0,0,-1,804,1044,0,0
-413,-20,0,0,0,0,0,0,0,0,0,-1,811,1044,0,0
-406,-20,0,0,0,0,0,0,0,0,0,-1,818,1044,0,0
-399,-20,0,0,0,0,0,0,0,0,0,-1,825,1044,0,0
-392,-20,0,0,0,0,0,0,0,0,0,-1,832,1044,0,0
-385,-20,0,0,0,0,0,0,0,0,0,-1,839,1044,0,0
-378,-20,0,0,0,0,0,0,0,0,0,-1,846,1044,0,0
-371,-20,0,0,0,0,0,0,0,0,0,-1,853,1044,0,0
-364,-20,0,0,0,0,0,0,0,0,0,-1,860,1044,0,0
-357,-20,0,0,0,0,0,0,0,0,0,-1,867,1044,0,0
-350,-20,0,0,0,0,0,0,0,0,0,-1,874,1044,0,0
-343,-20,0,0,0,0,0,0,0,0,0,-1,881,1044,0,0
-336,-20,0,0,0,0,0,0,0,0,0,-1,888,1044,0,0
-329,-20,0,0,0,0,0,0,0,0,0,-1,895,1044,0,0
-322,-20,0,0,0,0,0,0,0,0,0,-1,902,1044,0,0
-315,-20,0,0,0,0,0,0,0,0,0,-1,909,1044,0,0
-308,-20,0,0,0,0,0,0,0,0,0,-1,916,1044,0,0
-301,-20,0,0,0,0,0,0,0,0,0,-1,923,1044,0,0
-294,-20,0,0,0,0,0,0,0,0,0,-1,930,1044,0,0
-287,-20,0,0,0,0,0,0,0,0,0,-1,937,1044,0,0
-280,-20,0,0,0,0,0,0,0,0,0,-1,944,1044,0,0
-273,-20,0,0,0,0,0,0,0,0,0,-1,951,1044,0,0
-266,-20,0,0,0,0,0,0,0,0,0,-1,958,1044,0,0
-259,-20,0,0,0,0,0,0,0,0,0,-1,965,1044,0,0
-252,-20,0,0,0,0,0,0,0,0,0,-1,972,1044,0,0
-245,-20,0,0,0,0,0,0,0,0,0,-1,979,1044,0,0
-238,-20,0,0,0,0,0,0,0,0,0,-1,986,1044,0,0
-231,-20,0,0,0,0,0,0,0,0,0,-1,993,1044,0,0
-224,-20,0,0,0,0,0,0,0,0,0,-1,1000,1044,0,0
-217,-20,0,0,0,0,0,0,0,0,0,-1,1007,1044,0,0
-210,-20,0,0,0,0,0,0,0,0,0,-1,1014,1044,0,0
-203,-20,0,0,0,0,0,0,0,0,0,-1,1021,1044,0,0
-196,-20,0,0,0,0,0,0,0,0,0,-1,1028,1044,0,0
-189,-20,0,0,0,0,0,0,0,0,0,-1,1035,1044,0,0
-182,-20,0,0,0,0,0,0,0,0,0,-1,1042,1044,0,0
-175,-20,0,0,0,0,0,0,0,0,0,-1,1049,1044,0,0
-168,-20,0,0,0,0,0,0,0,0,0,-1,1056,1044,0,0
-161,-20,0,0,0,0,0,0,0,0,0,-1,1063,1044,0,0
-154,-20,0,0,0,0,0,0,0,0,0,-1,1070,1044,0,0
-147,-20,0,0,0,0,0,0,0,0,0,-1,1077,1044,0,0
-140,-20,0,0,0,0,0,0,0,0,0,-1,1084,1044,0,0
-133,-20,0,0,0,0,0,0,0,0,0,-1,1091,1044,0,0
-126,-20,0,0,0,0,0,0,0,0,0,-1,1098,1044,0,0
-119,-20,0,0,0,0,0,0,0,0,0,-1,1105,1044,0,0
-112,-20,0,0,0,0,0,0,0,0,0,-1,1112,1044,0,0
-105,-20,0,0,0,0,0,0,0,0,0,-1,1119,1044,0,0
-98,-20,0,0,0,0,0,0,0,0,0,-1,1126,1044,0,0
-91,-20,0,0,0,0,0,0,0,0,0,-1,1133,1044,0,0
-84,-20,0,0,0,0,0,0,0,0,0,-1,1140,1044,0,0
-77,-20,0,0,0,0,0,0,0,0,0,-1,1147,1044,0,0
-70,-20,0,0,0,0,0,0,0,0,0,-1,1154,1044,0,0
-63,-20,0,0,0,0,0,0,0,0,0,-1,1161,1044,0,0
-56,-20,0,0,0,0,0,0,0,0,0,-1,1168,1044,0,0
-49,-20,0,0,0,0,0,0,0,0,0,-1,1175,1044,0,0
-42,-20,0,0,0,0,0,0,0,0,0,-1,1182,1044,0,0
-35,-20,0,0,0,0,0,0,0,0,0,-1,1189,1044,0,0
-28,-20,0,0,0,0,0,0,0,0,0,-1,1196,1044,0,0
-21,-20,0,0,0,0,0,0,0,0,0,-1,1203,1044,0,0
-14,-20,0,0,0,0,0,0,0,0,0,-1,1210,1044,0,0
-7,-20,0,0,0,0,0,0,0,0,0,-1,1217,1044,0,0
0,-20,0,0,0,0,0,0,0,0,0,-1,1224,1044,0,0
7,-20,0,0,0,0,0,0,0,0,0,-1,1231,1044,0,0
14,-20,0,0,0,0,0,0,0,0,0,-1,1238,1044,0,0
21,-20,0,0,0,0,0,0,0,0,0,-1,1245,1044,0,0
28,-20,0,0,0,0,0,0,0,0,0,-1,1252,1044,0,0
35,-20,0,0,0,0,0,0,0,0,0,-1,1259,1044,0,0
42,-20,0,0,0,0,0,0,0,0,0,-1,1266,1044,0,0
49,-20,0,0,0,0,0,0,0,0,0,-1,1273,1044,0,0
56,-20,0,0,0,0,0,0,0,0,0,-1,1280,1044,0,0
63,-20,0,0,0,0,0,0,0,0,0,-1,1287,1044,0,0
70,-20,0,0,0,0,0,0,0,0,0,-1,1294,1044,0,0
77,-20,0,0,0,0,0,0,0,0,0,-1,1301,1044,0,0
84,-20,0,0,0,0,0,0,0,0,0,-1,1308,1044,0,0
91,-20,0,0,0,0,0,0,0,0,0,-1,1315,1044,0,0
98,-20,0,0,0,0,0,0,0,0,0,-1,1322,1044,0,0
105,-20,0,0,0,0,0,0,0,0,0,-1,1329,1044,0,0
112,-20,0,0,0,0,0,0,0,0,0,-1,1336,1044,0,0
119,-20,0,0,0,0,0,0,0,0,0,-1,1343,1044,0,0
126,-20,0,0,0,0,0,0,0,0,0,-1,1350,1044,0,0
133,-20,0,0,0,0,0,0,0,0,0,-1,1357,1044,0,0
140,-20,0,0,0,0,0,0,0,0,0,-1,1364,1044,0,0
147,-20,0,0,0,0,0,0,0,0,0,-1,1371,1044,0,0
154,-20,0,0,0,0,0,0,0,0,0,-1,1378,1044,0,0
161,-20,0,0,0,0,0,0,0,0,0,-1,1385,1044,0,0
168,-20,0,0,0,0,0,0,0,0,0,-1,1392,1044,0,0
175,-20,0,0,0,0,0,0,0,0,0,-1,1399,1044,0,0
182,-20,0,0,0,0,0,0,0,0,0,-1,1406,1044,0,0
189,-20,0,0,0,0,0,0,0,0,0,-1,1413,1044,0,0
196,-20,0,0,0,0,0,0,0,0,0,-1,1420,1044,0,0
203,-20,0,0,0,0,0,0,0,0,0,-1,1427,1044,0,0
210,-20,0,0,0,0,0,0,0,0,0,-1,1434,1044,0,0
217,-20,0,0,0,0,0,0,0,0,0,-1,1441,1044,0,0
224,-20,0,0,0,0,0,0,0,0,0,-1,1448,1044,0,0
231,-20,0,0,0,0,0,0,0,0,0,-1,1455,1044,0,0
238,-20,0,0,0,0,0,0,0,0,0,-1,1462,1044,0,0
245,-20,0,0,0,0,0,0,0,0,0,-1,1469,1044,0,0
252,-20,0,0,0,0,0,0,0,0,0,-1,1476,1044,0,0
259,-20,0,0,0,0,0,0,0,0,0,-1,1483,1044,0,0
266,-20,0,0,0,0,0,0,0,0,0,-1,1490,1044,0,0
273,-20,0,0,0,0,0,0,0,0,0,-1,1497,1044,0,0
280,-20,0,0,0,0,0,0,0,0,0,-1,1504,1044,0,0
287,-20,0,0,0,0,0,0,0,0,0,-1,1511,1044,0,0
294,-20,0,0,0,0,0,0,0,0,0,-1,1518,1044,0,0
301,-20,0,0,0,0,0,0,0,0,0,-1,1525,1044,0,0
308,-20,0,0,0,0,0,0,0,0,0,-1,1532,1044,0,0
315,-20,0,0,0,0,0,0,0,0,0,-1,1539,1044,0,0
322,-20,0,0,0,0,0,0,0,0,0,-1,1546,1044,0,0
329,-20,0,0,0,0,0,0,0,0,0,-1,1553,1044,0,0
336,-20,0,0,0,0,0,0,0,0,0,-1,1560,1044,0,0
343,-20,0,0,0,0,0,0,0,0,0,-1,1567,1044,0,0
350,-20,0,0,0,0,0,0,0,0,0,-1,1574,1044,0,0
357,-20,0,0,0,0,0,0,0,0,0,-1,1581,1044,0,0
364,-20,0,0,0,0,0,0,0,0,0,-1,1588,1044,0,0
371,-20,0,0,0,0,0,0,0,0,0,-1,1595,1044,0,0
378,-20,0,0,0,0,0,0,0,0,0,-1,1602,1044,0,0
385,-20,0,0,0,0,0,0,0,0,0,-1,1609,1044,0,0
392,-20,0,0,0,0,0,0,0,0,0,-1,1616,1044,0,0
399,-20,0,0,0,0,0,0,0,0,0,-1,1623,1044,0,0
406,-20,0,0,0,0,0,0,0,0,0,-1,1630,1044,0,0
413,-20,0,0,0,0,0,0,0,0,0,-1,1637,1044,0,0
420,-20,0,0,0,0,0,0,0,0,0,-1,1644,1044,0,0
427,-20,0,0,0,0,0,0,0,0,0,-1,1651,1044,0,0
434,-20,0,0,0,0,0,0,0,0,0,-1,1658,1044,0,0
441,-20,0,0,0,0,0,0,0,0,0,-1,1665,1044,0,0
448,-20,0,0,0,0,0,0,0,0,0,-1,1672,1044,0,0
455,-20,0,0,0,0,0,0,0,0,0,-1,1679,1044,0,0
462,-20,0,0,0,0,0,0,0,0,0,-1,1686,1044,0,0
469,-20,0,0,0,0,0,0,0,0,0,-1,1693,1044,0,0
476,-20,0,0,0,0,0,0,0,0,0,-1,1700,1044,0,0
483,-20,0,0,0,0,0,0,0,0,0,-1,1707,1044,0,0
490,-20,0,0,0,0,0,0,0,0,0,-1,1714,1044,0,0
497,-20,0,0,0,0,0,0,0,0,0,-1,1721,1044,0,0
504,-20,0,0,0,0,0,0,0,0,0,-1,1728,1044,0,0
511,-20,0,0,0,0,0,0,0,0,0,-1,1735,1044,0,0
518,-20,0,0,0,0,0,0,0,0,0,-1,1742,1044,0,0
525,-20,0,0,0,0,0,0,0,0,0,-1,1749,1044,0,0
532,-20,0,0,0,0,0,0,0,0,0,-1,1756,1044,0,0
539,-20,0,0,0,0,0,0,0,0,0,-1,1763,1044,0,0
546,-20,0,0,0,0,0,0,0,0,0,-1,1770,1044,0,0
553,-20,0,0,0,0,0,0,0,0,0,-1,1777,1044,0,0
560,-20,0,0,0,0,0,0,0,0,0,-1,1784,1044,0,0
567,-20,0,0,0,0,0,0,0,0,0,-1,1791,1044,0,0
574,-20,0,0,0,0,0,0,0,0,0,-1,1798,1044,0,0
581,-20,0,0,0,0,0,0,0,0,0,-1,1805,1044,0,0
588,-20,0,0,0,0,0,0,0,0,0,-1,1812,1044,0,0
595,-20,0,0,0,0,0,0,0,0,0,-1,1819,1044,0,0
602,-20,0,0,0,0,0,0,0,0,0,-1,1826,1044,0,0
609,-20,0,0,0,0,0,0,0,0,0,-1,1833,1044,0,0
616,-20,0,0,0,0,0,0,0,0,0,-1,1840,1044,0,0
623,-20,0,0,0,0,0,0,0,0,0,-1,1847,1044,0,0
630,-20,0,0,0,0,0,0,0,0,0,-1,1854,1044,0,0
637,-20,0,0,0,0,0,0,0,0,0,-1,1861,1044,0,0
644,-20,0,0,0,0,0,0,0,0,0,-1,1868,1044,0,0
651,-20,9.83447,1.34473,-0.000517226,-0.000349352,-0.00090919,0.000479767,-0.00134635,-0.831428,0.00109316,0.0409328,1875,1044,9.83452,-1.34472
658,-20,9.62695,1.2019,-0.000955818,0.000163289,-0.000590774,0.000417439,-0.00120997,-1.16453,0.000976016,0.0432898,1882,1044,9.62701,-1.20187
665,-20,9.55713,1.23315,-0.00112511,0.00052554,-0.000357088,0.000599477,-0.00119905,-1.36662,0.00105744,0.039814,1889,1044,9.55716,-1.23311
672,-20,9.57654,1.28674,-0.00113522,0.00070083,4.89384e-05,0.000702133,-0.00113652,1.54417,0.00107138,0.0252522,1896,1044,9.57648,-1.2867
679,-20,9.55457,1.28882,-0.00133368,0.000729122,0.000608863,0.000895428,-0.00149999,1.30416,0.0013976,0.0290218,1903,1044,9.55462,-1.28879
686,-20,9.59229,1.31763,-0.00156305,0.000657729,0.00115581,0.00115011,-0.00205543,1.16808,0.00187516,0.0395257,1910,1044,9.59229,-1.31761
693,-20,9.62439,1.21252,-0.00174975,0.000517871,0.00163757,0.00137583,-0.00260771,1.08819,0.00233627,0.0416151,1917,1044,9.62436,-1.21249
700,-20,9.53735,1.25867,-0.00196271,0.00036673,0.00200764,0.00152304,-0.00311902,1.04824,0.00273238,0.0366962,1924,1044,9.53736,-1.25872
707,-20,9.57117,1.26392,-0.00204992,0.000200119,0.00234977,0.0016803,-0.00353011,1.00866,0.00307078,0.0321504,1931,1044,9.57114,-1.26387
714,-20,9.58948,1.33191,-0.00212952,5.2201e-05,0.00253342,0.00171963,-0.00379695,0.988695,0.0032594,0.0281473,1938,1044,9.58947,-1.33186
721,-20,9.5896,1.41248,-0.00221043,-5.70325e-05,0.00255909,0.00164264,-0.0039101,0.984524,0.00329376,0.0216159,1945,1044,9.58956,-1.41245
728,-20,9.51233,1.53455,-0.00222584,-9.93346e-05,0.00247637,0.00153239,-0.00385757,0.988177,0.00320696,0.0170158,1952,1044,9.51238,-1.53456
735,-20,9.43494,1.62195,-0.00215397,-0.000129752,0.00223901,0.00131528,-0.003599,0.99767,0.0029376,0.0156315,1959,1044,9.43495,-1.62191
742,-20,9.45361,1.66113,-0.00210958,-0.000363344,0.00158333,0.000571652,-0.00304457,1.03737,0.00224466,0.0144069,1966,1044,9.45362,-1.66118
749,-20,9.46948,1.64709,-0.00219043,-0.000706275,0.000678989,-0.000442517,-0.00245419,1.20028,0.00151039,0.0159307,1973,1044,9.46951,-1.6471
756,-20,9.47314,1.62805,-0.00241462,-0.00142091,-0.000418941,-0.00126786,-0.00256767,-1.22053,0.00148248,0.0128225,1980,1044,9.4732,-1.62803
763,-20,9.46472,1.62939,-0.00255532,-0.00222602,-0.00169092,-0.000691752,-0.00408958,-0.833931,0.00252756,0.0143418,1987,1044,9.46471,-1.62943
770,-20,9.46741,1.64648,-0.00294453,-0.00340304,-0.0033022,0.000136368,-0.00648394,-0.750742,0.00436879,0.0133187,1994,1044,9.46743,-1.64653
777,-20,9.42896,1.66956,-0.00356583,-0.00521819,-0.00516407,0.000837732,-0.00962175,-0.706077,0.0067112,0.0121087,2001,1044,9.42893,-1.6695
784,-20,9.43481,1.68542,-0.00470471,-0.00786533,-0.00726042,0.0011454,-0.0137154,-0.678239,0.00954835,0.0161595,2008,1044,9.43481,-1.68547
791,-20,9.31323,1.63586,-0.00625781,-0.0115258,-0.00974876,0.00120652,-0.0189902,-0.653454,0.0130808,0.0338885,2015,1044,9.31322,-1.63591
798,-20,8.91418,1.29236,-0.00800885,-0.0163976,-0.0126873,0.00115941,-0.0255658,-0.625756,0.0174432,0.0433545,2022,1044,8.91414,-1.29232
805,-20,8.53467,1.16028,-0.00986815,-0.0226592,-0.0159905,0.000958333,-0.0334857,-0.595163,0.02265,0.0426178,2029,1044,8.53472,-1.16032
812,-20,8.4386,1.04907,0,0,0,0,0,0,0,-1,2036,1044,8.43864,-1.04901
-700,-27,-2.71857,2.16907,0.0198183,0.028455,-0.00426835,0.0302085,0.0180649,-1.18101,0.0175522,0.049476,524,1051,-2.71858,-2.1691
-693,-27,-3.39325,1.92407,0.0140369,0.0257961,-0.00587428,0.0282277,0.0116053,-1.17832,0.0163829,0.0469913,531,1051,-3.39328,-1.92407
-686,-27,-3.65936,1.48364,0.00963753,0.0230336,-0.00586478,0.0252384,0.0074328,-1.21121,0.014976,0.0474663,538,1051,-3.65935,-1.48369
-679,-27,-3.93726,1.38196,0,0,0,0,0,0,0,-1,545,1051,-3.93724,-1.38198
-672,-27,-4.3681,1.52954,0.00403222,0.0176248,-0.0039505,0.0186895,0.00296746,-1.30753,0.0115978,0.045084,552,1051,-4.36809,-1.5295
-665,-27,-4.73859,1.77344,0.00239106,0.0149844,-0.00278046,0.015571,0.00180449,-1.36288,0.00983448,0.0451534,559,1051,-4.7386,-1.77339
-658,-27,-4.62372,1.56641,0,0,0,0,0,0,0,-1,566,1051,-4.62375,-1.56641
-651,-27,-4.30383,0.779175,0.000573812,0.0099523,-0.000908524,0.0100395,0.000486611,-1.47511,0.00653684,0.0326641,573,1051,-4.30384,-0.779182
-644,-27,-4.25128,0.794434,-1.70206e-06,0.00726699,-0.000836167,0.00736194,-9.66515e-05,-1.45773,0.00494049,0.0147404,580,1051,-4.25128,-0.794433
-637,-27,-4.24835,0.796265,-0.000396463,0.00568875,-0.000262745,0.00570008,-0.000407787,-1.52773,0.00394302,0.0120345,587,1051,-4.24833,-0.796248
-630,-27,-4.2757,0.860474,-0.000317633,0.00423441,9.63794e-05,0.00423645,-0.000319672,1.54964,0.00293666,0.0171735,594,1051,-4.27569,-0.860418
-623,-27,-4.26477,0.866699,-0.000515283,0.00294044,-1.75369e-05,0.00294053,-0.000515372,-1.56572,0.0021528,0.0149853,601,1051,-4.26478,-0.866658
-616,-27,-4.22766,0.859741,-0.000173188,0.0013387,-0.000505572,0.00149218,-0.000326669,-1.27606,0.00111968,0.0120826,608,1051,-4.22765,-0.859703
-609,-27,-4.24213,0.87207,0.000236073,0.000996348,-0.00115336,0.0018306,-0.000598184,-0.944587,0.0014612,0.0136163,615,1051,-4.24215,-0.87212
-602,-27,-4.23297,0.892944,0.000383727,0.000579167,-0.00123396,0.00171927,-0.000756379,-0.824912,0.00146491,0.011532,622,1051,-4.23295,-0.892935
-595,-27,-4.23712,0.881104,0.000411518,0.000844198,-0.00131228,0.00195785,-0.000702135,-0.867092,0.00159176,0.00915319,629,1051,-4.2371,-0.881078
-588,-27,-4.24152,0.78125,0.000282551,0.000933716,-0.00136113,0.00200766,-0.000791389,-0.902793,0.00166611,0.014706,636,1051,-4.24155,-0.781278
-581,-27,-4.18481,0.719604,-2.90981e-06,0.00118403,-0.00130872,0.00202755,-0.000846435,-0.998267,0.00170537,0.0212069,643,1051,-4.1848,-0.719644
-574,-27,-4.22711,0.77063,-0.000291159,0.00148913,-0.00112368,0.00203252,-0.000834548,-1.12037,0.00170279,0.0334982,650,1051,-4.22713,-0.770577
-567,-27,-4.23047,0.950073,-0.000834133,0.00178913,-0.000840156,0.00203513,-0.00108014,-1.28595,0.00182656,0.0440229,657,1051,-4.23046,-0.950034
-560,-27,-4.20581,1.22754,-0.00171346,0.00203365,-0.000512648,0.00210252,-0.00178233,-1.43725,0.00224545,0.0470984,664,1051,-4.20579,-1.22751
-553,-27,-4.20325,0.988647,-0.00306573,0.0021626,-0.000196793,0.00217,-0.00307313,-1.53323,0.00304206,0.0426575,671,1051,-4.20325,-0.988673
-546,-27,-4.02063,0.818237,0,0,0,0,0,0,0,-1,678,1051,-4.02063,-0.818229
-539,-27,-4.25177,0.977173,-0.00773349,0.00171128,-4.88823e-06,0.00171128,-0.00773349,-1.57028,0.0058107,0.0465194,685,1051,-4.25175,-0.977186
-532,-27,-4.39636,0.973511,-0.0114311,0.000890213,-0.000751785,0.000935914,-0.0114768,-1.51008,0.0079815,0.0438145,692,1051,-4.39636,-0.973461
-525,-27,0,0,0,0,0,0,0,0,0,-1,699,1051,0,0
-518,-27,0,0,0,0,0,0,0,0,0,-1,706,1051,0,0
-511,-27,0,0,0,0,0,0,0,0,0,-1,713,1051,0,0
-504,-27,0,0,0,0,0,0,0,0,0,-1,720,1051,0,0
-497,-27,0,0,0,0,0,0,0,0,0,-1,727,1051,0,0
-490,-27,0,0,0,0,0,0,0,0,0,-1,734,1051,0,0
-483,-27,0,0,0,0,0,0,0,0,0,-1,741,1051,0,0
-476,-27,0,0,0,0,0,0,0,0,0,-1,748,1051,0,0
-469,-27,0,0,0,0,0,0,0,0,0,-1,755,1051,0,0
-462,-27,0,0,0,0,0,0,0,0,0,-1,762,1051,0,0
-455,-27,0,0,0,0,0,0,0,0,0,-1,769,1051,0,0
-448,-27,0,0,0,0,0,0,0,0,0,-1,776,1051,0,0
-441,-27,0,0,0,0,0,0,0,0,0,-1,783,1051,0,0
-434,-27,0,0,0,0,0,0,0,0,0,-1,790,1051,0,0
-427,-27,0,0,0,0,0,0,0,0,0,-1,797,1051,0,0
-420,-27,0,0,0,0,0,0,0,0,0,-1,804,1051,0,0
-413,-27,0,0,0,0,0,0,0,0,0,-1,811,1051,0,0
-406,-27,0,0,0,0,0,0,0,0,0,-1,818,1051,0,0
-399,-27,0,0,0,0,0,0,0,0,0,-1,825,1051,0,0
-392,-27,0,0,0,0,0,0,0,0,0,-1,832,1051,0,0
-385,-27,0,0,0,0,0,0,0,0,0,-1,839,1051,0,0
-378,-27,0,0,0,0,0,0,0,0,0,-1,846,1051,0,0
-371,-27,0,0,0,0,0,0,0,0,0,-1,853,1051,0,0
-364,-27,0,0,0,0,0,0,0,0,0,-1,860,1051,0,0
-357,-27,0,0,0,0,0,0,0,0,0,-1,867,1051,0,0
-350,-27,0,0,0,0,0,0,0,0,0,-1,874,1051,0,0
-343,-27,0,0,0,0,0,0,0,0,0,-1,881,1051,0,0
-336,-27,0,0,0,0,0,0,0,0,0,-1,888,1051,0,0
-329,-27,0,0,0,0,0,0,0,0,0,-1,895,1051,0,0
-322,-27,0,0,0,0,0,0,0,0,0,-1,902,1051,0,0
-315,-27,0,0,0,0,0,0,0,0,0,-1,909,1051,0,0
-308,-27,0,0,0,0,0,0,0,0,0,-1,916,1051,0,0
-301,-27,0,0,0,0,0,0,0,0,0,-1,923,1051,0,0
-294,-27,0,0,0,0,0,0,0,0,0,-1,930,1051,0,0
-287,-27,0,0,0,0,0,0,0,0,0,-1,937,1051,0,0
-280,-27,0,0,0,0,0,0,0,0,0,-1,944,1051,0,0
-273,-27,0,0,0,0,0,0,0,0,0,-1,951,1051,0,0
-266,-27,0,0,0,0,0,0,0,0,0,-1,958,1051,0,0
-259,-27,0,0,0,0,0,0,0,0,0,-1,965,1051,0,0
-252,-27,0,0,0,0,0,0,0,0,0,-1,972,1051,0,0
-245,-27,0,0,0,0,0,0,0,0,0,-1,979,1051,0,0
-238,-27,0,0,0,0,0,0,0,0,0,-1,986,1051,0,0
-231,-27,0,0,0,0,0,0,0,0,0,-1,993,1051,0,0
-224,-27,0,0,0,0,0,0,0,0,0,-1,1000,1051,0,0
-217,-27,0,0,0,0,0,0,0,0,0,-1,1007,1051,0,0
-210,-27,0,0,0,0,0,0,0,0,0,-1,1014,1051,0,0
-203,-27,0,0,0,0,0,0,0,0,0,-1,1021,1051,0,0
-196,-27,0,0,0,0,0,0,0,0,0,-1,1028,1051,0,0
-189,-27,0,0,0,0,0,0,0,0,0,-1,1035,1051,0,0
-182,-27,0,0,0,0,0,0,0,0,0,-1,1042,1051,0,0
-175,-27,0,0,0,0,0,0,0,0,0,-1,1049,1051,0,0
-168,-27,0,0,0,0,0,0,0,0,0,-1,1056,1051,0,0
-161,-27,0,0,0,0,0,0,0,0,0,-1,1063,1051,0,0
-154,-27,0,0,0,0,0,0,0,0,0,-1,1070,1051,0,0
-147,-27,0,0,0,0,0,0,0,0,0,-1,1077,1051,0,0
-140,-27,0,0,0,0,0,0,0,0,0,-1,1084,1051,0,0
-133,-27,0,0,0,0,0,0,0,0,0,-1,1091,1051,0,0
-126,-27,0,0,0,0,0,0,0,0,0,-1,1098,1051,0,0
-119,-27,0,0,0,0,0,0,0,0,0,-1,1105,1051,0,0
-112,-27,0,0,0,0,0,0,0,0,0,-1,1112,1051,0,0
-105,-27,0,0,0,0,0,0,0,0,0,-1,1119,1051,0,0
-98,-27,0,0,0,0,0,0,0,0,0,-1,1126,1051,0,0
-91,-27,0,0,0,0,0,0,0,0,0,-1,1133,1051,0,0
-84,-27,0,0,0,0,0,0,0,0,0,-1,1140,1051,0,0
-77,-27,0,0,0,0,0,0,0,0,0,-1,1147,1051,0,0
-70,-27,0,0,0,0,0,0,0,0,0,-1,1154,1051,0,0
-63,-27,0,0,0,0,0,0,0,0,0,-1,1161,1051,0,0
-56,-27,0,0,0,0,0,0,0,0,0,-1,1168,1051,0,0
-49,-27,0,0,0,0,0,0,0,0,0,-1,1175,1051,0,0
-42,-27,0,0,0,0,0,0,0,0,0,-1,1182,1051,0,0
-35,-27,0,0,0,0,0,0,0,0,0,-1,1189,1051,0,0
-28,-27,0,0,0,0,0,0,0,0,0,-1,1196,1051,0,0
-21,-27,0,0,0,0,0,0,0,0,0,-1,1203,1051,0,0
-14,-27,0,0,0,0,0,0,0,0,0,-1,1210,1051,0,0
-7,-27,0,0,0,0,0,0,0,0,0,-1,1217,1051,0,0
0,-27,0,0,0,0,0,0,0,0,0,-1,1224,1051,0,0
7,-27,0,0,0,0,0,0,0,0,0,-1,1231,1051,0,0
14,-27,0,0,0,0,0,0,0,0,0,-1,1238,1051,0,0
21,-27,0,0,0,0,0,0,0,0,0,-1,1245,1051,0,0
28,-27,0,0,0,0,0,0,0,0,0,-1,1252,1051,0,0
35,-27,0,0,0,0,0,0,0,0,0,-1,1259,1051,0,0
42,-27,0,0,0,0,0,0,0,0,0,-1,1266,1051,0,0
49,-27,0,0,0,0,0,0,0,0,0,-1,1273,1051,0,0
56,-27,0,0,0,0,0,0,0,0,0,-1,1280,1051,0,0
63,-27,0,0,0,0,0,0,0,0,0,-1,1287,1051,0,0
70,-27,0,0,0,0,0,0,0,0,0,-1,1294,1051,0,0
77,-27,0,0,0,0,0,0,0,0,0,-1,1301,1051,0,0
84,-27,0,0,0,0,0,0,0,0,0,-1,1308,1051,0,0
91,-27,0,0,0,0,0,0,0,0,0,-1,1315,1051,0,0
98,-27,0,0,0,0,0,0,0,0,0,-1,1322,1051,0,0
105,-27,0,0,0,0,0,0,0,0,0,-1,1329,1051,0,0
112,-27,0,0,0,0,0,0,0,0,0,-1,1336,1051,0,0
119,-27,0,0,0,0,0,0,0,0,0,-1,1343,1051,0,0
126,-27,0,0,0,0,0,0,0,0,0,-1,1350,1051,0,0
133,-27,0,0,0,0,0,0,0,0,0,-1,1357,1051,0,0
140,-27,0,0,0,0,0,0,0,0,0,-1,1364,1051,0,0
147,-27,0,0,0,0,0,0,0,0,0,-1,1371,1051,0,0
154,-27,0,0,0,0,0,0,0,0,0,-1,1378,1051,0,0
161,-27,0,0,0,0,0,0,0,0,0,-1,1385,1051,0,0
168,-27,0,0,0,0,0,0,0,0,0,-1,1392,1051,0,0
175,-27,0,0,0,0,0,0,0,0,0,-1,1399,1051,0,0
182,-27,0,0,0,0,0,0,0,0,0,-1,1406,1051,0,0
189,-27,0,0,0,0,0,0,0,0,0,-1,1413,1051,0,0
196,-27,0,0,0,0,0,0,0,0,0,-1,1420,1051,0,0
203,-27,0,0,0,0,0,0,0,0,0,-1,1427,1051,0,0
210,-27,0,0,0,0,0,0,0,0,0,-1,1434,1051,0,0
217,-27,0,0,0,0,0,0,0,0,0,-1,1441,1051,0,0
224,-27,0,0,0,0,0,0,0,0,0,-1,1448,1051,0,0
231,-27,0,0,0,0,0,0,0,0,0,-1,1455,1051,0,0
238,-27,0,0,0,0,0,0,0,0,0,-1,1462,1051,0,0
245,-27,0,0,0,0,0,0,0,0,0,-1,1469,1051,0,0
252,-27,0,0,0,0,0,0,0,0,0,-1,1476,1051,0,0
259,-27,0,0,0,0,0,0,0,0,0,-1,1483,1051,0,0
266,-27,0,0,0,0,0,0,0,0,0,-1,1490,1051,0,0
273,-27,0,0,0,0,0,0,0,0,0,-1,1497,1051,0,0
280,-27,0,0,0,0,0,0,0,0,0,-1,1504,1051,0,0
287,-27,0,0,0,0,0,0,0,0,0,-1,1511,1051,0,0
294,-27,0,0,0,0,0,0,0,0,0,-1,1518,1051,0,0
301,-27,0,0,0,0,0,0,0,0,0,-1,1525,1051,0,0
308,-27,0,0,0,0,0,0,0,0,0,-1,1532,1051,0,0
315,-27,0,0,0,0,0,0,0,0,0,-1,1539,1051,0,0
322,-27,0,0,0,0,0,0,0,0,0,-1,1546,1051,0,0
329,-27,0,0,0,0,0,0,0,0,0,-1,1553,1051,0,0
336,-27,0,0,0,0,0,0,0,0,0,-1,1560,1051,0,0
343,-27,0,0,0,0,0,0,0,0,0,-1,1567,1051,0,0
350,-27,0,0,0,0,0,0,0,0,0,-1,1574,1051,0,0
357,-27,0,0,0,0,0,0,0,0,0,-1,1581,1051,0,0
364,-27,0,0,0,0,0,0,0,0,0,-1,1588,1051,0,0
371,-27,0,0,0,0,0,0,0,0,0,-1,1595,1051,0,0
378,-27,0,0,0,0,0,0,0,0,0,-1,1602,1051,0,0
385,-27,0,0,0,0,0,0,0,0,0,-1,1609,1051,0,0
392,-27,0,0,0,0,0,0,0,0,0,-1,1616,1051,0,0
399,-27,0,0,0,0,0,0,0,0,0,-1,1623,1051,0,0
406,-27,0,0,0,0,0,0,0,0,0,-1,1630,1051,0,0
413,-27,0,0,0,0,0,0,0,0,0,-1,1637,1051,0,0
420,-27,0,0,0,0,0,0,0,0,0,-1,1644,1051,0,0
427,-27,0,0,0,0,0,0,0,0,0,-1,1651,1051,0,0
434,-27,0,0,0,0,0,0,0,0,0,-1,1658,1051,0,0
441,-27,0,0,0,0,0,0,0,0,0,-1,1665,1051,0,0
448,-27,0,0,0,0,0,0,0,0,0,-1,1672,1051,0,0
455,-27,0,0,0,0,0,0,0,0,0,-1,1679,1051,0,0
462,-27,0,0,0,0,0,0,0,0,0,-1,1686,1051,0,0
469,-27,0,0,0,0,0,0,0,0,0,-1,1693,1051,0,0
476,-27,0,0,0,0,0,0,0,0,0,-1,1700,1051,0,0
483,-27,0,0,0,0,0,0,0,0,0,-1,1707,1051,0,0
490,-27,0,0,0,0,0,0,0,0,0,-1,1714,1051,0,0
497,-27,0,0,0,0,0,0,0,0,0,-1,1721,1051,0,0
504,-27,0,0,0,0,0,0,0,0,0,-1,1728,1051,0,0
511,-27,0,0,0,0,0,0,0,0,0,-1,1735,1051,0,0
518,-27,0,0,0,0,0,0,0,0,0,-1,1742,1051,0,0
525,-27,0,0,0,0,0,0,0,0,0,-1,1749,1051,0,0
532,-27,0,0,0,0,0,0,0,0,0,-1,1756,1051,0,0
539,-27,0,0,0,0,0,0,0,0,0,-1,1763,1051,0,0
546,-27,0,0,0,0,0,0,0,0,0,-1,1770,1051,0,0
553,-27,0,0,0,0,0,0,0,0,0,-1,1777,1051,0,0
560,-27,0,0,0,0,0,0,0,0,0,-1,1784,1051,0,0
567,-27,0,0,0,0,0,0,0,0,0,-1,1791,1051,0,0
574,-27,0,0,0,0,0,0,0,0,0,-1,1798,1051,0,0
581,-27,0,0,0,0,0,0,0,0,0,-1,1805,1051,0,0
588,-27,0,0,0,0,0,0,0,0,0,-1,1812,1051,0,0
595,-27,0,0,0,0,0,0,0,0,0,-1,1819,1051,0,0
602,-27,0,0,0,0,0,0,0,0,0,-1,1826,1051,0,0
609,-27,0,0,0,0,0,0,0,0,0,-1,1833,1051,0,0
616,-27,0,0,0,0,0,0,0,0,0,-1,1840,1051,0,0
623,-27,0,0,0,0,0,0,0,0,0,-1,1847,1051,0,0
630,-27,0,0,0,0,0,0,0,0,0,-1,1854,1051,0,0
637,-27,0,0,0,0,0,0,0,0,0,-1,1861,1051,0,0
644,-27,0,0,0,0,0,0,0,0,0,-1,1868,1051,0,0
651,-27,9.82935,1.50415,-0.0013741,-0.00104123,-0.00104225,-0.000152211,-0.00226312,-0.864575,0.00146066,0.0410161,1875,1051,9.82934,-1.50411
658,-27,9.6665,1.3335,-0.00150675,-0.000408006,-0.000720404,-5.1402e-05,-0.00186335,-1.11115,0.00122546,0.0419595,1882,1051,9.66656,-1.33348
665,-27,9.58948,1.39185,-0.00145074,5.77849e-05,-0.000454228,0.000183997,-0.00157695,-1.29977,0.00111769,0.0378905,1889,1051,9.58942,-1.3918
672,-27,9.55762,1.39587,-0.00129306,0.000320887,-7.13525e-06,0.000320918,-0.00129309,-1.56638,0.000986587,0.0276158,1896,1051,9.55763,-1.39589
679,-27,9.56848,1.35217,-0.00137741,0.000416022,0.000595756,0.000595887,-0.00155727,1.27759,0.00128377,0.0291578,1903,1051,9.56843,-1.35215
686,-27,9.60632,1.28967,-0.00154108,0.000402216,0.00118356,0.000961881,-0.00210074,1.12909,0.0018085,0.0414622,1910,1051,9.60634,-1.2897
693,-27,9.58179,1.19958,-0.00169363,0.000311602,0.00170033,0.00128291,-0.00266493,1.05179,0.00232538,0.0422737,1917,1051,9.58178,-1.19953
700,-27,9.47144,1.24939,-0.001885,0.000201658,0.00210558,0.00150822,-0.00319157,1.01542,0.00277084,0.0379149,1924,1051,9.47143,-1.24944
707,-27,9.54346,1.28235,-0.00196548,8.15303e-05,0.0024517,0.00171479,-0.00359873,0.983135,0.00313138,0.025677,1931,1051,9.54344,-1.28232
714,-27,9.5979,1.34326,-0.00203687,-3.17357e-05,0.00263794,0.00178773,-0.00385634,0.966996,0.00333076,0.0242224,1938,1051,9.59796,-1.34324
721,-27,9.60718,1.45032,-0.00212351,-0.000120341,0.00265931,0.00171975,-0.0039636,0.965499,0.00336545,0.0251379,1945,1051,9.6072,-1.45033
728,-27,9.52637,1.57031,-0.00216194,-0.000143,0.00257421,0.00161259,-0.00391753,0.972257,0.00328396,0.0219314,1952,1051,9.52637,-1.5703
735,-27,9.4491,1.63416,-0.00201029,-0.000130234,0.00235502,0.00146544,-0.00360596,0.975289,0.00301365,0.0172053,1959,1051,9.4491,-1.63419
742,-27,9.47742,1.65186,-0.00175937,-0.00028492,0.00170305,0.00083362,-0.00287791,0.989664,0.00224859,0.0169468,1966,1051,9.47748,-1.65183
749,-27,9.48132,1.64478,-0.00168519,-0.000473288,0.000726365,-0.000133309,-0.00202517,1.13303,0.00130794,0.011506,1973,1051,9.48131,-1.64481
756,-27,9.47241,1.65344,-0.0018023,-0.000980565,-0.000401327,-0.000817084,-0.00196578,-1.18397,0.00114032,0.0110199,1980,1051,9.47246,-1.65349
763,-27,9.46484,1.63647,-0.00179804,-0.00146784,-0.00172868,0.000103602,-0.00336949,-0.833007,0.00228164,0.0126201,1987,1051,9.46481,-1.63652
770,-27,9.44043,1.64392,-0.00201314,-0.00225442,-0.00339853,0.00126689,-0.00553445,-0.767656,0.00417648,0.0145227,1994,1051,9.44039,-1.64398
777,-27,9.40466,1.67786,-0.00249995,-0.00352281,-0.00535072,0.00236373,-0.00838648,-0.737752,0.00652325,0.0148626,2001,1051,9.40465,-1.67782
784,-27,9.39185,1.71362,-0.00360581,-0.00543006,-0.00758854,0.00312523,-0.0121611,-0.725586,0.00932537,0.0223075,2008,1051,9.39184,-1.71366
791,-27,9.34119,1.76111,-0.00532204,-0.00809883,-0.010286,0.0036688,-0.0170897,-0.718314,0.0127926,0.0414006,2015,1051,9.34115,-1.76107
798,-27,9.27258,1.79199,-0.00755209,-0.0116736,-0.0135172,0.00406052,-0.0232862,-0.709753,0.0170397,0.0472986,2022,1051,9.27262,-1.79196
805,-27,9.24438,1.87585,-0.0103809,-0.0162737,-0.0172203,0.00414327,-0.0307979,-0.70067,0.0220432,0.0465886,2029,1051,9.24443,-1.87585
812,-27,9.21436,1.8866,0,0,0,0,0,0,0,-1,2036,1051,9.21438,-1.88664
-700,-34,-4.08502,1.69153,0.028684,0.0350384,-0.000542987,0.0350845,0.0286379,-1.48616,0.0215644,0.0444723,524,1058,-4.08502,-1.69151
-693,-34,-3.65002,1.31616,0.0214285,0.0304543,-0.00270542,0.0312031,0.0206797,-1.30078,0.0183304,0.0442647,531,1058,-3.65004,-1.31614
-686,-34,-3.75671,0.913574,0.0156331,0.0262866,-0.00317024,0.0271586,0.0147611,-1.30237,0.0156998,0.0467259,538,1058,-3.7567,-0.913625
-679,-34,-3.91687,0.556885,0,0,0,0,0,0,0,-1,545,1058,-3.9169,-0.556845
-672,-34,-4.30774,0.861328,0.00772166,0.0190318,-0.00193345,0.0193532,0.00740027,-1.40608,0.0112762,0.045015,552,1058,-4.30776,-0.861359
-665,-34,-4.39972,1.13367,0.00517646,0.0158014,-0.0010376,0.0159018,0.00507608,-1.47435,0.00937881,0.0451605,559,1058,-4.39975,-1.13367
-658,-34,-4.31958,1.15479,0.00332431,0.012804,-0.000254652,0.0128109,0.00331748,-1.54396,0.00767751,0.0399672,566,1058,-4.3196,-1.15484
-651,-34,-4.18207,0.834351,0.00203722,0.0100626,0.000311467,0.0100747,0.00202515,1.53206,0.00615353,0.026887,573,1058,-4.18208,-0.834308
-644,-34,-4.22546,0.779663,0.000994941,0.00719595,0.000138433,0.00719904,0.000991852,1.54849,0.00450529,0.0104385,580,1058,-4.22547,-0.779693
-637,-34,-4.24377,0.801636,0.000207125,0.00544323,0.000493502,0.00548934,0.000161018,1.47764,0.00360709,0.010656,587,1058,-4.24379,-0.801633
-630,-34,-4.25543,0.841064,5.62996e-05,0.00395508,0.000561292,0.00403428,-2.28984e-05,1.43062,0.00269719,0.0134745,594,1058,-4.25545,-0.841015
-623,-34,-4.25739,0.84021,-0.000287766,0.00269022,0.000205093,0.00270428,-0.000301824,1.50236,0.00191142,0.0117299,601,1058,-4.25739,-0.840231
-616,-34,-4.23383,0.857666,-7.60732e-05,0.00117269,-0.000415164,0.00129811,-0.000201501,-1.2774,0.000939804,0.0177057,608,1058,-4.23383,-0.857683
-609,-34,-4.25006,0.859253,0.000254051,0.000796658,-0.001124,0.00168163,-0.000630924,-0.90382,0.00138033,0.0190039,615,1058,-4.25007,-0.859287
-602,-34,-4.24701,0.866455,0.000368413,0.000507048,-0.00135202,0.00179152,-0.000916063,-0.81101,0.00159023,0.0150633,622,1058,-4.24701,-0.866431
-595,-34,-4.22876,0.893188,0.000376085,0.000811295,-0.00146731,0.00207704,-0.000889664,-0.859013,0.00175796,0.0114996,629,1058,-4.22877,-0.89318
-588,-34,-4.229,0.799194,0.000235409,0.000969811,-0.00151866,0.00216503,-0.000959815,-0.904018,0.00184832,0.0189777,636,1058,-4.22901,-0.799166
-581,-34,-4.18018,0.710205,-5.00309e-05,0.00126841,-0.00150093,0.00224851,-0.00103013,-0.992319,0.001936,0.0225219,643,1058,-4.1802,-0.710248
-574,-34,-4.21234,0.648804,-0.000340152,0.00165174,-0.00131415,0.0023047,-0.000993119,-1.10965,0.00195355,0.0339055,650,1058,-4.21236,-0.648746
-567,-34,-4.25964,0.62439,-0.000867527,0.00204864,-0.00102433,0.00237249,-0.00119137,-1.26459,0.00209492,0.0410731,657,1058,-4.25961,-0.62441
-560,-34,-4.26361,0.661743,-0.00170792,0.00240667,-0.000696859,0.00252148,-0.00182273,-1.4075,0.00251893,0.041237,664,1058,-4.26364,-0.661694
-553,-34,-4.13678,0.70166,-0.00299611,0.00265992,-0.000398141,0.00268781,-0.003024,-1.50086,0.00329961,0.0423164,671,1058,-4.13679,-0.701688
-546,-34,-4.2583,1.09766,-0.00486731,0.0027193,-0.000209106,0.00272506,-0.00487307,-1.54326,0.00444483,0.0469646,678,1058,-4.25831,-1.09765
-539,-34,-4.30896,1.11145,-0.00743673,0.0024443,-0.000376782,0.00245865,-0.00745108,-1.53274,0.00595849,0.0460424,685,1058,-4.30895,-1.11147
-532,-34,-4.38092,0.775146,-0.0109666,0.00167152,-0.00141933,0.00182896,-0.011124,-1.46032,0.00809484,0.0438132,692,1058,-4.38094,-0.775152
-525,-34,0,0,0,0,0,0,0,0,0,-1,699,1058,0,0
-518,-34,0,0,0,0,0,0,0,0,0,-1,706,1058,0,0
-511,-34,0,0,0,0,0,0,0,0,0,-1,713,1058,0,0
-504,-34,0,0,0,0,0,0,0,0,0,-1,720,1058,0,0
-497,-34,0,0,0,0,0,0,0,0,0,-1,727,1058,0,0
-490,-34,0,0,0,0,0,0,0,0,0,-1,734,1058,0,0
-483,-34,0,0,0,0,0,0,0,0,0,-1,741,1058,0,0
-476,-34,0,0,0,0,0,0,0,0,0,-1,748,1058,0,0
-469,-34,0,0,0,0,0,0,0,0,0,-1,755,1058,0,0
-462,-34,0,0,0,0,0,0,0,0,0,-1,762,1058,0,0
-455,-34,0,0,0,0,0,0,0,0,0,-1,769,1058,0,0
-448,-34,0,0,0,0,0,0,0,0,0,-1,776,1058,0,0
-441,-34,0,0,0,0,0,0,0,0,0,-1,783,1058,0,0
-434,-34,0,0,0,0,0,0,0,0,0,-1,790,1058,0,0
-427,-34,0,0,0,0,0,0,0,0,0,-1,797,1058,0,0
-420,-34,0,0,0,0,0,0,0,0,0,-1,804,1058,0,0
-413,-34,0,0,0,0,0,0,0,0,0,-1,811,1058,0,0
-406,-34,0,0,0,0,0,0,0,0,0,-1,818,1058,0,0
-399,-34,0,0,0,0,0,0,0,0,0,-1,825,1058,0,0
-392,-34,0,0,0,0,0,0,0,0,0,-1,832,1058,0,0
-385,-34,0,0,0,0,0,0,0,0,0,-1,839,1058,0,0
-378,-34,0,0,0,0,0,0,0,0,0,-1,846,1058,0,0
-371,-34,0,0,0,0,0,0,0,0,0,-1,853,1058,0,0
-364,-34,0,0,0,0,0,0,0,0,0,-1,860,1058,0,0
-357,-34,0,0,0,0,0,0,0,0,0,-1,867,1058,0,0
-350,-34,0,0,0,0,0,0,0,0,0,-1,874,1058,0,0
-343,-34,0,0,0,0,0,0,0,0,0,-1,881,1058,0,0
-336,-34,0,0,0,0,0,0,0,0,0,-1,888,1058,0,0
-329,-34,0,0,0,0,0,0,0,0,0,-1,895,1058,0,0
-322,-34,0,0,0,0,0,0,0,0,0,-1,902,1058,0,0
-315,-34,0,0,0,0,0,0,0,0,0,-1,909,1058,0,0
-308,-34,0,0,0,0,0,0,0,0,0,-1,916,1058,0,0
-301,-34,0,0,0,0,0,0,0,0,0,-1,923,1058,0,0
-294,-34,0,0,0,0,0,0,0,0,0,-1,930,1058,0,0
-287,-34,0,0,0,0,0,0,0,0,0,-1,937,1058,0,0
-280,-34,0,0,0,0,0,0,0,0,0,-1,944,1058,0,0
-273,-34,0,0,0,0,0,0,0,0,0,-1,951,1058,0,0
-266,-34,0,0,0,0,0,0,0,0,0,-1,958,1058,0,0
-259,-34,0,0,0,0,0,0,0,0,0,-1,965,1058,0,0
-252,-34,0,0,0,0,0,0,0,0,0,-1,972,1058,0,0
-245,-34,0,0,0,0,0,0,0,0,0,-1,979,1058,0,0
-238,-34,0,0,0,0,0,0,0,0,0,-1,986,1058,0,0
-231,-34,0,0,0,0,0,0,0,0,0,-1,993,1058,0,0
-224,-34,0,0,0,0,0,0,0,0,0,-1,1000,1058,0,0
-217,-34,0,0,0,0,0,0,0,0,0,-1,1007,1058,0,0
-210,-34,0,0,0,0,0,0,0,0,0,-1,1014,1058,0,0
-203,-34,0,0,0,0,0,0,0,0,0,-1,1021,1058,0,0
-196,-34,0,0,0,0,0,0,0,0,0,-1,1028,1058,0,0
-189,-34,0,0,0,0,0,0,0,0,0,-1,1035,1058,0,0
-182,-34,0,0,0,0,0,0,0,0,0,-1,1042,1058,0,0
-175,-34,0,0,0,0,0,0,0,0,0,-1,1049,1058,0,0
-168,-34,0,0,0,0,0,0,0,0,0,-1,1056,1058,0,0
-161,-34,0,0,0,0,0,0,0,0,0,-1,1063,1058,0,0
-154,-34,0,0,0,0,0,0,0,0,0,-1,1070,1058,0,0
-147,-34,0,0,0,0,0,0,0,0,0,-1,1077,1058,0,0
-140,-34,0,0,0,0,0,0,0,0,0,-1,1084,1058,0,0
-133,-34,0,0,0,0,0,0,0,0,0,-1,1091,1058,0,0
-126,-34,0,0,0,0,0,0,0,0,0,-1,1098,1058,0,0
-119,-34,0,0,0,0,0,0,0,0,0,-1,1105,1058,0,0
-112,-34,0,0,0,0,0,0,0,0,0,-1,1112,1058,0,0
-105,-34,0,0,0,0,0,0,0,0,0,-1,1119,1058,0,0
-98,-34,0,0,0,0,0,0,0,0,0,-1,1126,1058,0,0
-91,-34,0,0,0,0,0,0,0,0,0,-1,1133,1058,0,0
-84,-34,0,0,0,0,0,0,0,0,0,-1,1140,1058,0,0
-77,-34,0,0,0,0,0,0,0,0,0,-1,1147,1058,0,0
-70,-34,0,0,0,0,0,0,0,0,0,-1,1154,1058,0,0
-63,-34,0,0,0,0,0,0,0,0,0,-1,1161,1058,0,0
-56,-34,0,0,0,0,0,0,0,0,0,-1,1168,1058,0,0
-49,-34,0,0,0,0,0,0,0,0,0,-1,1175,1058,0,0
-42,-34,0,0,0,0,0,0,0,0,0,-1,1182,1058,0,0
-35,-34,0,0,0,0,0,0,0,0,0,-1,1189,1058,0,0
-28,-34,0,0,0,0,0,0,0,0,0,-1,1196,1058,0,0
-21,-34,0,0,0,0,0,0,0,0,0,-1,1203,1058,0,0
-14,-34,0,0,0,0,0,0,0,0,0,-1,1210,1058,0,0
-7,-34,0,0,0,0,0,0,0,0,0,-1,1217,1058,0,0
0,-34,0,0,0,0,0,0,0,0,0,-1,1224,1058,0,0
7,-34,0,0,0,0,0,0,0,0,0,-1,1231,1058,0,0
14,-34,0,0,0,0,0,0,0,0,0,-1,1238,1058,0,0
21,-34,0,0,0,0,0,0,0,0,0,-1,1245,1058,0,0
28,-34,0,0,0,0,0,0,0,0,0,-1,1252,1058,0,0
35,-34,0,0,0,0,0,0,0,0,0,-1,1259,1058,0,0
42,-34,0,0,0,0,0,0,0,0,0,-1,1266,1058,0,0
49,-34,0,0,0,0,0,0,0,0,0,-1,1273,1058,0,0
56,-34,0,0,0,0,0,0,0,0,0,-1,1280,1058,0,0
63,-34,0,0,0,0,0,0,0,0,0,-1,1287,1058,0,0
70,-34,0,0,0,0,0,0,0,0,0,-1,1294,1058,0,0
77,-34,0,0,0,0,0,0,0,0,0,-1,1301,1058,0,0
84,-34,0,0,0,0,0,0,0,0,0,-1,1308,1058,0,0
91,-34,0,0,0,0,0,0,0,0,0,-1,1315,1058,0,0
98,-34,0,0,0,0,0,0,0,0,0,-1,1322,1058,0,0
105,-34,0,0,0,0,0,0,0,0,0,-1,1329,1058,0,0
112,-34,0,0,0,0,0,0,0,0,0,-1,1336,1058,0,0
119,-34,0,0,0,0,0,0,0,0,0,-1,1343,1058,0,0
126,-34,0,0,0,0,0,0,0,0,0,-1,1350,1058,0,0
133,-34,0,0,0,0,0,0,0,0,0,-1,1357,1058,0,0
140,-34,0,0,0,0,0,0,0,0,0,-1,1364,1058,0,0
147,-34,0,0,0,0,0,0,0,0,0,-1,1371,1058,0,0
154,-34,0,0,0,0,0,0,0,0,0,-1,1378,1058,0,0
161,-34,0,0,0,0,0,0,0,0,0,-1,1385,1058,0,0
168,-34,0,0,0,0,0,0,0,0,0,-1,1392,1058,0,0
175,-34,0,0,0,0,0,0,0,0,0,-1,1399,1058,0,0
182,-34,0,0,0,0,0,0,0,0,0,-1,1406,1058,0,0
189,-34,0,0,0,0,0,0,0,0,0,-1,1413,1058,0,0
196,-34,0,0,0,0,0,0,0,0,0,-1,1420,1058,0,0
203,-34,0,0,0,0,0,0,0,0,0,-1,1427,1058,0,0
210,-34,0,0,0,0,0,0,0,0,0,-1,1434,1058,0,0
217,-34,0,0,0,0,0,0,0,0,0,-1,1441,1058,0,0
224,-34,0,0,0,0,0,0,0,0,0,-1,1448,1058,0,0
231,-34,0,0,0,0,0,0,0,0,0,-1,1455,1058,0,0
238,-34,0,0,0,0,0,0,0,0,0,-1,1462,1058,0,0
245,-34,0,0,0,0,0,0,0,0,0,-1,1469,1058,0,0
252,-34,0,0,0,0,0,0,0,0,0,-1,1476,1058,0,0
259,-34,0,0,0,0,0,0,0,0,0,-1,1483,1058,0,0
266,-34,0,0,0,0,0,0,0,0,0,-1,1490,1058,0,0
273,-34,0,0,0,0,0,0,0,0,0,-1,1497,1058,0,0
280,-34,0,0,0,0,0,0,0,0,0,-1,1504,1058,0,0
287,-34,0,0,0,0,0,0,0,0,0,-1,1511,1058,0,0
294,-34,0,0,0,0,0,0,0,0,0,-1,1518,1058,0,0
301,-34,0,0,0,0,0,0,0,0,0,-1,1525,1058,0,0
308,-34,0,0,0,0,0,0,0,0,0,-1,1532,1058,0,0
315,-34,0,0,0,0,0,0,0,0,0,-1,1539,1058,0,0
322,-34,0,0,0,0,0,0,0,0,0,-1,1546,1058,0,0
329,-34,0,0,0,0,0,0,0,0,0,-1,1553,1058,0,0
336,-34,0,0,0,0,0,0,0,0,0,-1,1560,1058,0,0
343,-34,0,0,0,0,0,0,0,0,0,-1,1567,1058,0,0
350,-34,0,0,0,0,0,0,0,0,0,-1,1574,1058,0,0
357,-34,0,0,0,0,0,0,0,0,0,-1,1581,1058,0,0
364,-34,0,0,0,0,0,0,0,0,0,-1,1588,1058,0,0
371,-34,0,0,0,0,0,0,0,0,0,-1,1595,1058,0,0
378,-34,0,0,0,0,0,0,0,0,0,-1,1602,1058,0,0
385,-34,0,0,0,0,0,0,0,0,0,-1,1609,1058,0,0
392,-34,0,0,0,0,0,0,0,0,0,-1,1616,1058,0,0
399,-34,0,0,0,0,0,0,0,0,0,-1,1623,1058,0,0
406,-34,0,0,0,0,0,0,0,0,0,-1,1630,1058,0,0
413,-34,0,0,0,0,0,0,0,0,0,-1,1637,1058,0,0
420,-34,0,0,0,0,0,0,0,0,0,-1,1644,1058,0,0
427,-34,0,0,0,0,0,0,0,0,0,-1,1651,1058,0,0
434,-34,0,0,0,0,0,0,0,0,0,-1,1658,1058,0,0
441,-34,0,0,0,0,0,0,0,0,0,-1,1665,1058,0,0
448,-34,0,0,0,0,0,0,0,0,0,-1,1672,1058,0,0
455,-34,0,0,0,0,0,0,0,0,0,-1,1679,1058,0,0
462,-34,0,0,0,0,0,0,0,0,0,-1,1686,1058,0,0
469,-34,0,0,0,0,0,0,0,0,0,-1,1693,1058,0,0
476,-34,0,0,0,0,0,0,0,0,0,-1,1700,1058,0,0
483,-34,0,0,0,0,0,0,0,0,0,-1,1707,1058,0,0
490,-34,0,0,0,0,0,0,0,0,0,-1,1714,1058,0,0
497,-34,0,0,0,0,0,0,0,0,0,-1,1721,1058,0,0
504,-34,0,0,0,0,0,0,0,0,0,-1,1728,1058,0,0
511,-34,0,0,0,0,0,0,0,0,0,-1,1735,1058,0,0
518,-34,0,0,0,0,0,0,0,0,0,-1,1742,1058,0,0
525,-34,0,0,0,0,0,0,0,0,0,-1,1749,1058,0,0
532,-34,0,0,0,0,0,0,0,0,0,-1,1756,1058,0,0
539,-34,0,0,0,0,0,0,0,0,0,-1,1763,1058,0,0
546,-34,0,0,0,0,0,0,0,0,0,-1,1770,1058,0,0
553,-34,0,0,0,0,0,0,0,0,0,-1,1777,1058,0,0
560,-34,0,0,0,0,0,0,0,0,0,-1,1784,1058,0,0
567,-34,0,0,0,0,0,0,0,0,0,-1,1791,1058,0,0
574,-34,0,0,0,0,0,0,0,0,0,-1,1798,1058,0,0
581,-34,0,0,0,0,0,0,0,0,0,-1,1805,1058,0,0
588,-34,0,0,0,0,0,0,0,0,0,-1,1812,1058,0,0
595,-34,0,0,0,0,0,0,0,0,0,-1,1819,1058,0,0
602,-34,0,0,0,0,0,0,0,0,0,-1,1826,1058,0,0
609,-34,0,0,0,0,0,0,0,0,0,-1,1833,1058,0,0
616,-34,0,0,0,0,0,0,0,0,0,-1,1840,1058,0,0
623,-34,0,0,0,0,0,0,0,0,0,-1,1847,1058,0,0
630,-34,0,0,0,0,0,0,0,0,0,-1,1854,1058,0,0
637,-34,0,0,0,0,0,0,0,0,0,-1,1861,1058,0,0
644,-34,0,0,0,0,0,0,0,0,0,-1,1868,1058,0,0
651,-34,9.7511,1.48682,-0.00179562,-0.00101017,-0.000798794,-0.000512782,-0.00229301,-1.01387,0.00138965,0.0398955,1875,1058,9.75108,-1.48679
658,-34,9.72705,1.4696,-0.00172209,-0.000561812,-0.000643846,-0.000275291,-0.00200861,-1.1521,0.00125739,0.0435333,1882,1058,9.72708,-1.46956
665,-34,9.60327,1.51563,-0.00151167,-0.000181961,-0.00045251,-4.25788e-05,-0.00165105,-1.272,0.00108679,0.0430356,1889,1058,9.60332,-1.51565
672,-34,9.6488,1.39075,-0.00126895,4.83873e-05,-1.27234e-05,4.85102e-05,-0.00126907,-1.56114,0.000862671,0.0371647,1896,1058,9.64883,-1.39079
679,-34,9.73767,1.43506,-0.00130989,0.000135857,0.000607602,0.000357297,-0.00153133,1.22131,0.0011585,0.036085,1903,1058,9.73763,-1.43505
686,-34,9.69739,1.33081,-0.00146185,0.000136039,0.00122217,0.000797236,-0.00212304,1.07489,0.00174298,0.0419564,1910,1058,9.69744,-1.33083
693,-34,9.64929,1.09656,-0.00162356,7.47887e-05,0.00176861,0.00118752,-0.00273629,1.00921,0.00232349,0.0443404,1917,1058,9.64927,-1.09651
700,-34,9.55554,1.22119,-0.00183025,-9.73631e-06,0.00219569,0.0014569,-0.00329689,0.981898,0.0028123,0.0394264,1924,1058,9.55556,-1.22115
707,-34,9.55469,1.297,-0.00193184,-8.41438e-05,0.00254903,0.00170329,-0.00371927,0.959251,0.00320202,0.0259571,1931,1058,9.55464,-1.29698
714,-34,9.58289,1.37244,-0.00200883,-0.000153497,0.00275054,0.0018216,-0.00398393,0.948042,0.00342844,0.0228031,1938,1058,9.58286,-1.3724
721,-34,9.61365,1.5022,-0.00210216,-0.000214127,0.00277217,0.00177035,-0.00408664,0.949507,0.00346856,0.030612,1945,1058,9.61369,-1.50221
728,-34,9.53003,1.61987,-0.00215307,-0.000211149,0.00267645,0.00166502,-0.00402924,0.959405,0.00338072,0.0237383,1952,1058,9.53001,-1.61991
735,-34,9.43958,1.65967,-0.00193052,-0.000150054,0.00245954,0.00157541,-0.00365598,0.959039,0.00309894,0.0148374,1959,1058,9.43955,-1.65969
742,-34,9.44275,1.63354,-0.00145832,-0.000216648,0.0018297,0.00109467,-0.00276965,0.948959,0.00229986,0.0145786,1966,1058,9.44269,-1.63354
749,-34,9.46448,1.64453,-0.00117966,-0.000252685,0.000790553,0.00020023,-0.00163257,1.05053,0.0011609,0.0117978,1973,1058,9.46442,-1.64459
756,-34,9.48621,1.66992,-0.00117508,-0.000510862,-0.000351797,-0.000359176,-0.00132676,-1.16371,0.000792399,0.00936311,1980,1058,9.48615,-1.66997
763,-34,9.45508,1.65417,-0.00101563,-0.000633294,-0.00173363,0.000919673,-0.00256859,-0.840311,0.00208761,0.00973422,1987,1058,9.45503,-1.65421
770,-34,9.40466,1.6416,-0.00103878,-0.000963738,-0.00344877,0.00244771,-0.00445023,-0.790838,0.00403808,0.0149756,1994,1058,9.40462,-1.64159
777,-34,9.37866,1.68225,-0.00141025,-0.00157606,-0.00546476,0.00397223,-0.00695854,-0.777813,0.00638891,0.0165796,2001,1058,9.37864,-1.68221
784,-34,9.31018,1.76416,-0.0025499,-0.00258144,-0.00782202,0.00525637,-0.0103877,-0.78439,0.00919264,0.032894,2008,1058,9.31013,-1.76414
791,-34,9.20984,1.85339,0,0,0,0,0,0,0,-1,2015,1058,9.20981,-1.8534
798,-34,9.27808,1.85815,0,0,0,0,0,0,0,-1,2022,1058,9.27809,-1.85811
805,-34,9.27185,1.97534,0,0,0,0,0,0,0,-1,2029,1058,9.27184,-1.97536
812,-34,9.63281,1.10278,0,0,0,0,0,0,0,-1,2036,1058,9.63276,-1.10274
-700,-41,-4.76318,1.3208,0.0314706,0.0336704,0.00304132,0.0358046,0.0293364,0.958908,0.0220324,0.0442599,524,1065,-4.76317,-1.32075
-693,-41,-4.01843,0.974487,0.0238207,0.0289436,0.000402346,0.028975,0.0237893,1.49289,0.0178411,0.0421608,531,1065,-4.01845,-0.974545
-686,-41,-3.78461,0.285767,0,0,0,0,0,0,0,-1,538,1065,-3.78458,-0.285796
-679,-41,-4.35577,0.182251,0,0,0,0,0,0,0,-1,545,1065,-4.35577,-0.182295
-672,-41,-4.27997,0.308105,0.00926478,0.0177595,-0.000164595,0.0177627,0.00926159,-1.55143,0.0102584,0.0432645,552,1065,-4.27997,-0.308154
-665,-41,-4.24042,0.452515,0.00647313,0.0146489,0.00034405,0.0146633,0.00645868,1.52881,0.00848586,0.0412902,559,1065,-4.2404,-0.452535
-658,-41,-4.11475,0.657959,0.00439003,0.011781,0.000784961,0.0118634,0.00430758,1.46615,0.0069344,0.0384501,566,1065,-4.11475,-0.657981
-651,-41,-4.12219,0.76062,0.00289281,0.00918149,0.00106692,0.00935757,0.00271673,1.40723,0.00555869,0.0255813,573,1065,-4.12221,-0.760632
-644,-41,-4.21674,0.77832,0.00164392,0.00646522,0.000697711,0.00656416,0.00154498,1.42993,0.00396281,0.0108817,580,1065,-4.21676,-0.778345
-637,-41,-4.23254,0.801025,0.0006783,0.00473621,0.000830371,0.00489956,0.000514957,1.37656,0.00310897,0.0112179,587,1065,-4.23254,-0.801034
-630,-41,-4.24548,0.827271,0.000390622,0.00342366,0.000677058,0.00356794,0.000246347,1.36085,0.00230091,0.0110299,594,1065,-4.2455,-0.82731
-623,-41,-4.23584,0.81311,-1.16357e-05,0.00232773,0.000176213,0.00234093,-2.48345e-05,1.49603,0.00156897,0.0101849,601,1065,-4.23581,-0.813058
-616,-41,-4.23761,0.820435,8.69675e-05,0.000998715,-0.00046896,0.00119686,-0.00011118,-1.17102,0.000837433,0.0141781,608,1065,-4.23761,-0.820379
-609,-41,-4.21954,0.856323,0.000279822,0.000604995,-0.00118349,0.00163701,-0.000752198,-0.85366,0.00141059,0.0199663,615,1065,-4.21952,-0.856383
-602,-41,-4.23236,0.864868,0.000327612,0.000411296,-0.00147933,0.00184937,-0.00111046,-0.799537,0.00172652,0.0122699,622,1065,-4.23236,-0.864828
-595,-41,-4.22888,0.894165,0.000295448,0.000728937,-0.00162132,0.00214794,-0.00112355,-0.851846,0.00191941,0.0125897,629,1065,-4.22886,-0.894113
-588,-41,-4.24255,0.778198,0.0001486,0.00092379,-0.00168059,0.00226091,-0.00118851,-0.898731,0.00202335,0.021485,636,1065,-4.24258,-0.778243
-581,-41,-4.22522,0.677124,-0.00010966,0.00123124,-0.00168172,0.00237123,-0.00124965,-0.975077,0.00212368,0.0336007,643,1065,-4.22523,-0.677113
-574,-41,-4.29443,0.464111,-0.0003737,0.00164377,-0.00149286,0.00243674,-0.00116668,-1.08252,0.00212307,0.0372157,650,1065,-4.29446,-0.464172
-567,-41,-4.31525,0.429199,-0.000838197,0.00208325,-0.00118648,0.0025044,-0.00125935,-1.22971,0.00221227,0.0423553,657,1065,-4.31526,-0.429146
-560,-41,-4.24646,0.556641,-0.00156747,0.00249531,-0.000827902,0.00265754,-0.0017297,-1.3773,0.00255179,0.0409291,664,1065,-4.24645,-0.556607
-553,-41,-4.18652,0.72522,-0.00268672,0.0028124,-0.000483545,0.0028546,-0.00272892,-1.48376,0.00322392,0.0420707,671,1065,-4.18655,-0.725189
-546,-41,-4.1582,0.952759,-0.00431084,0.00294213,-0.000236566,0.00294984,-0.00431855,-1.53823,0.00422113,0.043169,678,1065,-4.15821,-0.952719
-539,-41,-4.263,0.903687,-0.00654139,0.00273899,-0.000341744,0.00275156,-0.00655396,-1.53404,0.00552003,0.040512,685,1065,-4.26299,-0.903657
-532,-41,-4.37195,0.726196,-0.00963645,0.00200731,-0.00139544,0.00217221,-0.00980135,-1.45317,0.00736585,0.0377732,692,1065,-4.37193,-0.726247
-525,-41,0,0,0,0,0,0,0,0,0,-1,699,1065,0,0
-518,-41,0,0,0,0,0,0,0,0,0,-1,706,1065,0,0
-511,-41,0,0,0,0,0,0,0,0,0,-1,713,1065,0,0
-504,-41,0,0,0,0,0,0,0,0,0,-1,720,1065,0,0
-497,-41,0,0,0,0,0,0,0,0,0,-1,727,1065,0,0
-490,-41,0,0,0,0,0,0,0,0,0,-1,734,1065,0,0
-483,-41,0,0,0,0,0,0,0,0,0,-1,741,1065,0,0
-476,-41,0,0,0,0,0,0,0,0,0,-1,748,1065,0,0
-469,-41,0,0,0,0,0,0,0,0,0,-1,755,1065,0,0
-462,-41,0,0,0,0,0,0,0,0,0,-1,762,1065,0,0
-455,-41,0,0,0,0,0,0,0,0,0,-1,769,1065,0,0
-448,-41,0,0,0,0,0,0,0,0,0,-1,776,1065,0,0
-441,-41,0,0,0,0,0,0,0,0,0,-1,783,1065,0,0
-434,-41,0,0,0,0,0,0,0,0,0,-1,790,1065,0,0
-427,-41,0,0,0,0,0,0,0,0,0,-1,797,1065,0,0
-420,-41,0,0,0,0,0,0,0,0,0,-1,804,1065,0,0
-413,-41,0,0,0,0,0,0,0,0,0,-1,811,1065,0,0
-406,-41,0,0,0,0,0,0,0,0,0,-1,818,1065,0,0
-399,-41,0,0,0,0,0,0,0,0,0,-1,825,1065,0,0
-392,-41,0,0,0,0,0,0,0,0,0,-1,832,1065,0,0
-385,-41,0,0,0,0,0,0,0,0,0,-1,839,1065,0,0
-378,-41,0,0,0,0,0,0,0,0,0,-1,846,1065,0,0
-371,-41,0,0,0,0,0,0,0,0,0,-1,853,1065,0,0
-364,-41,0,0,0,0,0,0,0,0,0,-1,860,1065,0,0
-357,-41,0,0,0,0,0,0,0,0,0,-1,867,1065,0,0
-350,-41,0,0,0,0,0,0,0,0,0,-1,874,1065,0,0
-343,-41,0,0,0,0,0,0,0,0,0,-1,881,1065,0,0
-336,-41,0,0,0,0,0,0,0,0,0,-1,888,1065,0,0
-329,-41,0,0,0,0,0,0,0,0,0,-1,895,1065,0,0
-322,-41,0,0,0,0,0,0,0,0,0,-1,902,1065,0,0
-315,-41,0,0,0,0,0,0,0,0,0,-1,909,1065,0,0
-308,-41,0,0,0,0,0,0,0,0,0,-1,916,1065,0,0
-301,-41,0,0,0,0,0,0,0,0,0,-1,923,1065,0,0
-294,-41,0,0,0,0,0,0,0,0,0,-1,930,1065,0,0
-287,-41,0,0,0,0,0,0,0,0,0,-1,937,1065,0,0
-280,-41,0,0,0,0,0,0,0,0,0,-1,944,1065,0,0
-273,-41,0,0,0,0,0,0,0,0,0,-1,951,1065,0,0
-266,-41,0,0,0,0,0,0,0,0,0,-1,958,1065,0,0
-259,-41,0,0,0,0,0,0,0,0,0,-1,965,1065,0,0
-252,-41,0,0,0,0,0,0,0,0,0,-1,972,1065,0,0
-245,-41,0,0,0,0,0,0,0,0,0,-1,979,1065,0,0
-238,-41,0,0,0,0,0,0,0,0,0,-1,986,1065,0,0
-231,-41,0,0,0,0,0,0,0,0,0,-1,993,1065,0,0
-224,-41,0,0,0,0,0,0,0,0,0,-1,1000,1065,0,0
-217,-41,0,0,0,0,0,0,0,0,0,-1,1007,1065,0,0
-210,-41,0,0,0,0,0,0,0,0,0,-1,1014,1065,0,0
-203,-41,0,0,0,0,0,0,0,0,0,-1,1021,1065,0,0
-196,-41,0,0,0,0,0,0,0,0,0,-1,1028,1065,0,0
-189,-41,0,0,0,0,0,0,0,0,0,-1,1035,1065,0,0
-182,-41,0,0,0,0,0,0,0,0,0,-1,1042,1065,0,0
-175,-41,0,0,0,0,0,0,0,0,0,-1,1049,1065,0,0
-168,-41,0,0,0,0,0,0,0,0,0,-1,1056,1065,0,0
-161,-41,0,0,0,0,0,0,0,0,0,-1,1063,1065,0,0
-154,-41,0,0,0,0,0,0,0,0,0,-1,1070,1065,0,0
-147,-41,0,0,0,0,0,0,0,0,0,-1,1077,1065,0,0
-140,-41,0,0,0,0,0,0,0,0,0,-1,1084,1065,0,0
-133,-41,0,0,0,0,0,0,0,0,0,-1,1091,1065,0,0
-126,-41,0,0,0,0,0,0,0,0,0,-1,1098,1065,0,0
-119,-41,0,0,0,0,0,0,0,0,0,-1,1105,1065,0,0
-112,-41,0,0,0,0,0,0,0,0,0,-1,1112,1065,0,0
-105,-41,0,0,0,0,0,0,0,0,0,-1,1119,1065,0,0
-98,-41,0,0,0,0,0,0,0,0,0,-1,1126,1065,0,0
-91,-41,0,0,0,0,0,0,0,0,0,-1,1133,1065,0,0
-84,-41,0,0,0,0,0,0,0,0,0,-1,1140,1065,0,0
-77,-41,0,0,0,0,0,0,0,0,0,-1,1147,1065,0,0
-70,-41,0,0,0,0,0,0,0,0,0,-1,1154,1065,0,0
-63,-41,0,0,0,0,0,0,0,0,0,-1,1161,1065,0,0
-56,-41,0,0,0,0,0,0,0,0,0,-1,1168,1065,0,0
-49,-41,0,0,0,0,0,0,0,0,0,-1,1175,1065,0,0
-42,-41,0,0,0,0,0,0,0,0,0,-1,1182,1065,0,0
-35,-41,0,0,0,0,0,0,0,0,0,-1,1189,1065,0,0
-28,-41,0,0,0,0,0,0,0,0,0,-1,1196,1065,0,0
-21,-41,0,0,0,0,0,0,0,0,0,-1,1203,1065,0,0
-14,-41,0,0,0,0,0,0,0,0,0,-1,1210,1065,0,0
-7,-41,0,0,0,0,0,0,0,0,0,-1,1217,1065,0,0
0,-41,0,0,0,0,0,0,0,0,0,-1,1224,1065,0,0
7,-41,0,0,0,0,0,0,0,0,0,-1,1231,1065,0,0
14,-41,0,0,0,0,0,0,0,0,0,-1,1238,1065,0,0
21,-41,0,0,0,0,0,0,0,0,0,-1,1245,1065,0,0
28,-41,0,0,0,0,0,0,0,0,0,-1,1252,1065,0,0
35,-41,0,0,0,0,0,0,0,0,0,-1,1259,1065,0,0
42,-41,0,0,0,0,0,0,0,0,0,-1,1266,1065,0,0
49,-41,0,0,0,0,0,0,0,0,0,-1,1273,1065,0,0
56,-41,0,0,0,0,0,0,0,0,0,-1,1280,1065,0,0
63,-41,0,0,0,0,0,0,0,0,0,-1,1287,1065,0,0
70,-41,0,0,0,0,0,0,0,0,0,-1,1294,1065,0,0
77,-41,0,0,0,0,0,0,0,0,0,-1,1301,1065,0,0
84,-41,0,0,0,0,0,0,0,0,0,-1,1308,1065,0,0
91,-41,0,0,0,0,0,0,0,0,0,-1,1315,1065,0,0
98,-41,0,0,0,0,0,0,0,0,0,-1,1322,1065,0,0
105,-41,0,0,0,0,0,0,0,0,0,-1,1329,1065,0,0
112,-41,0,0,0,0,0,0,0,0,0,-1,1336,1065,0,0
119,-41,0,0,0,0,0,0,0,0,0,-1,1343,1065,0,0
126,-41,0,0,0,0,0,0,0,0,0,-1,1350,1065,0,0
133,-41,0,0,0,0,0,0,0,0,0,-1,1357,1065,0,0
140,-41,0,0,0,0,0,0,0,0,0,-1,1364,1065,0,0
147,-41,0,0,0,0,0,0,0,0,0,-1,1371,1065,0,0
154,-41,0,0,0,0,0,0,0,0,0,-1,1378,1065,0,0
161,-41,0,0,0,0,0,0,0,0,0,-1,1385,1065,0,0
168,-41,0,0,0,0,0,0,0,0,0,-1,1392,1065,0,0
175,-41,0,0,0,0,0,0,0,0,0,-1,1399,1065,0,0
182,-41,0,0,0,0,0,0,0,0,0,-1,1406,1065,0,0
189,-41,0,0,0,0,0,0,0,0,0,-1,1413,1065,0,0
196,-41,0,0,0,0,0,0,0,0,0,-1,1420,1065,0,0
203,-41,0,0,0,0,0,0,0,0,0,-1,1427,1065,0,0
210,-41,0,0,0,0,0,0,0,0,0,-1,1434,1065,0,0
217,-41,0,0,0,0,0,0,0,0,0,-1,1441,1065,0,0
224,-41,0,0,0,0,0,0,0,0,0,-1,1448,1065,0,0
231,-41,0,0,0,0,0,0,0,0,0,-1,1455,1065,0,0
238,-41,0,0,0,0,0,0,0,0,0,-1,1462,1065,0,0
245,-41,0,0,0,0,0,0,0,0,0,-1,1469,1065,0,0
252,-41,0,0,0,0,0,0,0,0,0,-1,1476,1065,0,0
259,-41,0,0,0,0,0,0,0,0,0,-1,1483,1065,0,0
266,-41,0,0,0,0,0,0,0,0,0,-1,1490,1065,0,0
273,-41,0,0,0,0,0,0,0,0,0,-1,1497,1065,0,0
280,-41,0,0,0,0,0,0,0,0,0,-1,1504,1065,0,0
287,-41,0,0,0,0,0,0,0,0,0,-1,1511,1065,0,0
294,-41,0,0,0,0,0,0,0,0,0,-1,1518,1065,0,0
301,-41,0,0,0,0,0,0,0,0,0,-1,1525,1065,0,0
308,-41,0,0,0,0,0,0,0,0,0,-1,1532,1065,0,0
315,-41,0,0,0,0,0,0,0,0,0,-1,1539,1065,0,0
322,-41,0,0,0,0,0,0,0,0,0,-1,1546,1065,0,0
329,-41,0,0,0,0,0,0,0,0,0,-1,1553,1065,0,0
336,-41,0,0,0,0,0,0,0,0,0,-1,1560,1065,0,0
343,-41,0,0,0,0,0,0,0,0,0,-1,1567,1065,0,0
350,-41,0,0,0,0,0,0,0,0,0,-1,1574,1065,0,0
357,-41,0,0,0,0,0,0,0,0,0,-1,1581,1065,0,0
364,-41,0,0,0,0,0,0,0,0,0,-1,1588,1065,0,0
371,-41,0,0,0,0,0,0,0,0,0,-1,1595,1065,0,0
378,-41,0,0,0,0,0,0,0,0,0,-1,1602,1065,0,0
385,-41,0,0,0,0,0,0,0,0,0,-1,1609,1065,0,0
392,-41,0,0,0,0,0,0,0,0,0,-1,1616,1065,0,0
399,-41,0,0,0,0,0,0,0,0,0,-1,1623,1065,0,0
406,-41,0,0,0,0,0,0,0,0,0,-1,1630,1065,0,0
413,-41,0,0,0,0,0,0,0,0,0,-1,1637,1065,0,0
420,-41,0,0,0,0,0,0,0,0,0,-1,1644,1065,0,0
427,-41,0,0,0,0,0,0,0,0,0,-1,1651,1065,0,0
434,-41,0,0,0,0,0,0,0,0,0,-1,1658,1065,0,0
441,-41,0,0,0,0,0,0,0,0,0,-1,1665,1065,0,0
448,-41,0,0,0,0,0,0,0,0,0,-1,1672,1065,0,0
455,-41,0,0,0,0,0,0,0,0,0,-1,1679,1065,0,0
462,-41,0,0,0,0,0,0,0,0,0,-1,1686,1065,0,0
469,-41,0,0,0,0,0,0,0,0,0,-1,1693,1065,0,0
476,-41,0,0,0,0,0,0,0,0,0,-1,1700,1065,0,0
483,-41,0,0,0,0,0,0,0,0,0,-1,1707,1065,0,0
490,-41,0,0,0,0,0,0,0,0,0,-1,1714,1065,0,0
497,-41,0,0,0,0,0,0,0,0,0,-1,1721,1065,0,0
504,-41,0,0,0,0,0,0,0,0,0,-1,1728,1065,0,0
511,-41,0,0,0,0,0,0,0,0,0,-1,1735,1065,0,0
518,-41,0,0,0,0,0,0,0,0,0,-1,1742,1065,0,0
525,-41,0,0,0,0,0,0,0,0,0,-1,1749,1065,0,0
532,-41,0,0,0,0,0,0,0,0,0,-1,1756,1065,0,0
539,-41,0,0,0,0,0,0,0,0,0,-1,1763,1065,0,0
546,-41,0,0,0,0,0,0,0,0,0,-1,1770,1065,0,0
553,-41,0,0,0,0,0,0,0,0,0,-1,1777,1065,0,0
560,-41,0,0,0,0,0,0,0,0,0,-1,1784,1065,0,0
567,-41,0,0,0,0,0,0,0,0,0,-1,1791,1065,0,0
574,-41,0,0,0,0,0,0,0,0,0,-1,1798,1065,0,0
581,-41,0,0,0,0,0,0,0,0,0,-1,1805,1065,0,0
588,-41,0,0,0,0,0,0,0,0,0,-1,1812,1065,0,0
595,-41,0,0,0,0,0,0,0,0,0,-1,1819,1065,0,0
602,-41,0,0,0,0,0,0,0,0,0,-1,1826,1065,0,0
609,-41,0,0,0,0,0,0,0,0,0,-1,1833,1065,0,0
616,-41,0,0,0,0,0,0,0,0,0,-1,1840,1065,0,0
623,-41,0,0,0,0,0,0,0,0,0,-1,1847,1065,0,0
630,-41,0,0,0,0,0,0,0,0,0,-1,1854,1065,0,0
637,-41,0,0,0,0,0,0,0,0,0,-1,1861,1065,0,0
644,-41,0,0,0,0,0,0,0,0,0,-1,1868,1065,0,0
651,-41,9.64502,1.29224,-0.0020212,-0.000694358,-0.000127417,-0.000682232,-0.00203333,-1.47592,0.00119493,0.0357188,1875,1065,9.64505,-1.29223
658,-41,9.61328,1.43347,-0.0017375,-0.000458926,-0.000304759,-0.00039,-0.00180643,-1.34837,0.00109763,0.0387539,1882,1065,9.61325,-1.43342
665,-41,9.63037,1.38269,-0.00140481,-0.000212193,-0.000302494,-0.000139856,-0.00147714,-1.33607,0.000941611,0.0425441,1889,1065,9.63033,-1.38266
672,-41,9.6554,1.28894,-0.00112449,-7.19006e-05,6.34615e-05,-6.80884e-05,-0.00112831,1.5108,0.000730566,0.041906,1896,1065,9.65535,-1.28897
679,-41,9.70227,1.37683,-0.00116744,-4.07109e-05,0.000658242,0.000262333,-0.00147048,1.13934,0.00107845,0.0408011,1903,1065,9.70229,-1.37687
686,-41,9.68701,1.21399,-0.00134283,-6.86639e-05,0.00127255,0.000717372,-0.00212887,1.01748,0.00170931,0.0435106,1910,1065,9.68698,-1.21395
693,-41,9.61133,1.0979,-0.00154195,-0.000136198,0.00183234,0.00112345,-0.00280159,0.968541,0.00233414,0.0467498,1917,1065,9.61137,-1.09793
700,-41,9.5896,1.2229,-0.00177838,-0.000222953,0.0022635,0.00139271,-0.00339405,0.950875,0.00284301,0.0395364,1924,1065,9.58966,-1.22285
707,-41,9.59058,1.27332,-0.0019259,-0.000279337,0.00261717,0.00164098,-0.00384622,0.937783,0.0032522,0.0281353,1931,1065,9.59056,-1.27334
714,-41,9.5708,1.38391,-0.00202777,-0.000320646,0.00284116,0.0017924,-0.00414082,0.931322,0.00351385,0.0176601,1938,1065,9.57075,-1.38393
721,-41,9.60474,1.54578,-0.00212447,-0.000356638,0.00287711,0.00176927,-0.00425038,0.934433,0.0035725,0.0292987,1945,1065,9.60477,-1.54579
728,-41,9.50037,1.64063,-0.00218216,-0.000322328,0.00277162,0.00167121,-0.0041757,0.947254,0.00347742,0.0226708,1952,1065,9.50035,-1.64059
735,-41,9.41858,1.67017,-0.00189483,-0.000216553,0.00255454,0.00163314,-0.00374453,0.94409,0.00318357,0.0156462,1959,1065,9.41852,-1.67016
742,-41,9.40662,1.66089,-0.0012109,-0.000211299,0.00194313,0.00129527,-0.00271748,0.911277,0.00236477,0.01312,1966,1065,9.40663,-1.6609
749,-41,9.45313,1.66418,-0.000720378,-0.000114738,0.000880409,0.000513474,-0.00134859,0.951037,0.00111052,0.0123952,1973,1065,9.45309,-1.66419
756,-41,9.47327,1.66711,-0.000595941,-0.000143685,-0.000230998,-4.6558e-05,-0.000693069,-1.17277,0.000447335,0.0123456,1980,1065,9.47324,-1.66712
763,-41,9.45154,1.6571,-0.000292071,4.32033e-05,-0.00159276,0.00147712,-0.00172599,-0.83783,0.00185118,0.0106348,1987,1065,9.45149,-1.65716
770,-41,9.41431,1.65417,-0.0001215,0.000105087,-0.00326233,0.00325609,-0.0032725,-0.802755,0.00376929,0.011855,1994,1065,9.41437,-1.65412
777,-41,9.40369,1.64697,-0.000352031,5.17235e-05,-0.00519875,0.00505251,-0.00535282,-0.804804,0.00600835,0.0136819,2001,1065,9.40367,-1.64698
784,-41,9.36084,1.65356,-0.0014564,-0.000176216,-0.00746076,0.00667186,-0.00830447,-0.828191,0.0086637,0.0258585,2008,1065,9.36085,-1.6536
791,-41,9.37939,1.49976,-0.00365496,-0.000571397,-0.0102611,0.00826306,-0.0124894,-0.859968,0.012064,0.0447584,2015,1065,9.37937,-1.49979
798,-41,9.47803,1.32153,0,0,0,0,0,0,0,-1,2022,1065,9.47803,-1.32147
805,-41,9.56714,1.27917,0,0,0,0,0,0,0,-1,2029,1065,9.56711,-1.27921
812,-41,9.92175,1.33911,0,0,0,0,0,0,0,-1,2036,1065,9.92174,-1.33917
-700,-48,-4.67627,0.979858,0,0,0,0,0,0,0,-1,524,1072,-4.67625,-0.979914
-693,-48,-4.18036,0.734131,0.0247446,0.0220485,0.00270984,0.0264232,0.0203699,0.554585,0.0159844,0.0456328,531,1072,-4.18035,-0.734165
-686,-48,-3.70776,0.504883,0,0,0,0,0,0,0,-1,538,1072,-3.70778,-0.504937
-679,-48,-3.42206,0.182739,0,0,0,0,0,0,0,-1,545,1072,-3.42208,-0.182729
-672,-48,-4.68933,0.213501,0,0,0,0,0,0,0,-1,552,1072,-4.68934,-0.213559
-665,-48,-4.48883,0.310425,0.00782384,0.0110143,0.0015139,0.0116183,0.00721983,1.19118,0.00677345,0.0430394,559,1072,-4.48885,-0.310444
-658,-48,-4.30756,0.52002,0.0056294,0.0087996,0.00161854,0.00947994,0.00494906,1.17288,0.00547502,0.042006,566,1072,-4.30758,-0.520079
-651,-48,-4.19452,0.699219,0.00397578,0.0068044,0.00161922,0.00754001,0.00324017,1.14437,0.00436753,0.0287223,573,1072,-4.19451,-0.699216
-644,-48,-4.21545,0.7771,0.00254929,0.00464477,0.00108671,0.00510656,0.0020875,1.16897,0.00296458,0.0123658,580,1072,-4.21546,-0.777069
-637,-48,-4.19928,0.791504,0.00139174,0.00325298,0.00098392,0.00367667,0.000968051,1.16418,0.00220059,0.012192,587,1072,-4.19928,-0.791514
-630,-48,-4.19556,0.814697,0.000950678,0.00239232,0.000619769,0.00262212,0.000720869,1.21571,0.00156418,0.0141493,594,1072,-4.19558,-0.814642
-623,-48,-4.1875,0.817871,0.000441491,0.0016653,8.87641e-06,0.00166536,0.000441426,1.56354,0.00099625,0.00989212,601,1072,-4.18753,-0.817865
-616,-48,-4.19629,0.834595,0.000332412,0.000717448,-0.000619852,0.00117399,-0.00012413,-0.935969,0.000827148,0.00925152,608,1072,-4.19631,-0.834642
-609,-48,-4.21307,0.849121,0.000333795,0.000450524,-0.00130449,0.00169795,-0.000913631,-0.807754,0.00153029,0.0107283,615,1072,-4.21306,-0.849065
-602,-48,-4.22449,0.870972,0.000257665,0.000358213,-0.00164364,0.00195235,-0.00133647,-0.800687,0.00190987,0.010621,622,1072,-4.22449,-0.870986
-595,-48,-4.21405,0.917114,0.000164084,0.000687607,-0.00180367,0.00224841,-0.00139672,-0.857459,0.00212358,0.01314,629,1072,-4.21406,-0.917155
-588,-48,-4.22406,0.792725,1.41258e-05,0.000911269,-0.0018602,0.00237621,-0.00145082,-0.90371,0.00223097,0.0266924,636,1072,-4.22409,-0.792707
-581,-48,-4.20978,0.564331,-0.00021544,0.00122542,-0.00186076,0.00250035,-0.00149036,-0.970098,0.0023285,0.0386965,643,1072,-4.20977,-0.5643
-574,-48,-4.1687,0.530029,-0.000452277,0.00165227,-0.00165817,0.00256387,-0.00136388,-1.06813,0.00230269,0.0398763,650,1072,-4.16867,-0.530062
-567,-48,-4.24261,0.379883,-0.000850079,0.00211312,-0.00131566,0.00261296,-0.00134992,-1.20772,0.00232638,0.0430696,657,1072,-4.24263,-0.379884
-560,-48,-4.25507,0.578003,-0.00146215,0.00255579,-0.000893669,0.00274559,-0.00165195,-1.36152,0.00256496,0.0419764,664,1072,-4.25507,-0.578009
-553,-48,-4.25964,0.658325,-0.00240099,0.00291707,-0.000453675,0.00295549,-0.00243941,-1.4863,0.0031195,0.0411205,671,1072,-4.25966,-0.65831
-546,-48,-4.09772,0.812744,-0.00375834,0.00310915,-7.38435e-05,0.00310994,-0.00375913,-1.56005,0.00397176,0.0423297,678,1072,-4.09773,-0.812803
-539,-48,-4.25623,0.721802,-0.00561309,0.00299806,-4.12867e-06,0.00299806,-0.00561309,-1.57032,0.00504749,0.0393428,685,1072,-4.2562,-0.721763
-532,-48,-4.42731,0.819336,-0.00822552,0.002376,-0.000897266,0.00245141,-0.00830092,-1.48696,0.00650687,0.0367177,692,1072,-4.42731,-0.819304
-525,-48,0,0,0,0,0,0,0,0,0,-1,699,1072,0,0
-518,-48,0,0,0,0,0,0,0,0,0,-1,706,1072,0,0
-511,-48,0,0,0,0,0,0,0,0,0,-1,713,1072,0,0
-504,-48,0,0,0,0,0,0,0,0,0,-1,720,1072,0,0
-497,-48,0,0,0,0,0,0,0,0,0,-1,727,1072,0,0
-490,-48,0,0,0,0,0,0,0,0,0,-1,734,1072,0,0
-483,-48,0,0,0,0,0,0,0,0,0,-1,741,1072,0,0
-476,-48,0,0,0,0,0,0,0,0,0,-1,748,1072,0,0
-469,-48,0,0,0,0,0,0,0,0,0,-1,755,1072,0,0
-462,-48,0,0,0,0,0,0,0,0,0,-1,762,1072,0,0
-455,-48,0,0,0,0,0,0,0,0,0,-1,769,1072,0,0
-448,-48,0,0,0,0,0,0,0,0,0,-1,776,1072,0,0
-441,-48,0,0,0,0,0,0,0,0,0,-1,783,1072,0,0
-434,-48,0,0,0,0,0,0,0,0,0,-1,790,1072,0,0
-427,-48,0,0,0,0,0,0,0,0,0,-1,797,1072,0,0
-420,-48,0,0,0,0,0,0,0,0,0,-1,804,1072,0,0
-413,-48,0,0,0,0,0,0,0,0,0,-1,811,1072,0,0
-406,-48,0,0,0,0,0,0,0,0,0,-1,818,1072,0,0
-399,-48,0,0,0,0,0,0,0,0,0,-1,825,1072,0,0
-392,-48,0,0,0,0,0,0,0,0,0,-1,832,1072,0,0
-385,-48,0,0,0,0,0,0,0,0,0,-1,839,1072,0,0
-378,-48,0,0,0,0,0,0,0,0,0,-1,846,1072,0,0
-371,-48,0,0,0,0,0,0,0,0,0,-1,853,1072,0,0
-364,-48,0,0,0,0,0,0,0,0,0,-1,860,1072,0,0
-357,-48,0,0,0,0,0,0,0,0,0,-1,867,1072,0,0
-350,-48,0,0,0,0,0,0,0,0,0,-1,874,1072,0,0
-343,-48,0,0,0,0,0,0,0,0,0,-1,881,1072,0,0
-336,-48,0,0,0,0,0,0,0,0,0,-1,888,1072,0,0
-329,-48,0,0,0,0,0,0,0,0,0,-1,895,1072,0,0
-322,-48,0,0,0,0,0,0,0,0,0,-1,902,1072,0,0
-315,-48,0,0,0,0,0,0,0,0,0,-1,909,1072,0,0
-308,-48,0,0,0,0,0,0,0,0,0,-1,916,1072,0,0
-301,-48,0,0,0,0,0,0,0,0,0,-1,923,1072,0,0
-294,-48,0,0,0,0,0,0,0,0,0,-1,930,1072,0,0
-287,-48,0,0,0,0,0,0,0,0,0,-1,937,1072,0,0
-280,-48,0,0,0,0,0,0,0,0,0,-1,944,1072,0,0
-273,-48,0,0,0,0,0,0,0,0,0,-1,951,1072,0,0
-266,-48,0,0,0,0,0,0,0,0,0,-1,958,1072,0,0
-259,-48,0,0,0,0,0,0,0,0,0,-1,965,1072,0,0
-252,-48,0,0,0,0,0,0,0,0,0,-1,972,1072,0,0
-245,-48,0,0,0,0,0,0,0,0,0,-1,979,1072,0,0
-238,-48,0,0,0,0,0,0,0,0,0,-1,986,1072,0,0
-231,-48,0,0,0,0,0,0,0,0,0,-1,993,1072,0,0
-224,-48,0,0,0,0,0,0,0,0,0,-1,1000,1072,0,0
-217,-48,0,0,0,0,0,0,0,0,0,-1,1007,1072,0,0
-210,-48,0,0,0,0,0,0,0,0,0,-1,1014,1072,0,0
-203,-48,0,0,0,0,0,0,0,0,0,-1,1021,1072,0,0
-196,-48,0,0,0,0,0,0,0,0,0,-1,1028,1072,0,0
-189,-48,0,0,0,0,0,0,0,0,0,-1,1035,1072,0,0
-182,-48,0,0,0,0,0,0,0,0,0,-1,1042,1072,0,0
-175,-48,0,0,0,0,0,0,0,0,0,-1,1049,1072,0,0
-168,-48,0,0,0,0,0,0,0,0,0,-1,1056,1072,0,0
-161,-48,0,0,0,0,0,0,0,0,0,-1,1063,1072,0,0
-154,-48,0,0,0,0,0,0,0,0,0,-1,1070,1072,0,0
-147,-48,0,0,0,0,0,0,0,0,0,-1,1077,1072,0,0
-140,-48,0,0,0,0,0,0,0,0,0,-1,1084,1072,0,0
-133,-48,0,0,0,0,0,0,0,0,0,-1,1091,1072,0,0
-126,-48,0,0,0,0,0,0,0,0,0,-1,1098,1072,0,0
-119,-48,0,0,0,0,0,0,0,0,0,-1,1105,1072,0,0
-112,-48,0,0,0,0,0,0,0,0,0,-1,1112,1072,0,0
-105,-48,0,0,0,0,0,0,0,0,0,-1,1119,1072,0,0
-98,-48,0,0,0,0,0,0,0,0,0,-1,1126,1072,0,0
-91,-48,0,0,0,0,0,0,0,0,0,-1,1133,1072,0,0
-84,-48,0,0,0,0,0,0,0,0,0,-1,1140,1072,0,0
-77,-48,0,0,0,0,0,0,0,0,0,-1,1147,1072,0,0
-70,-48,0,0,0,0,0,0,0,0,0,-1,1154,1072,0,0
-63,-48,0,0,0,0,0,0,0,0,0,-1,1161,1072,0,0
-56,-48,0,0,0,0,0,0,0,0,0,-1,1168,1072,0,0
-49,-48,0,0,0,0,0,0,0,0,0,-1,1175,1072,0,0
-42,-48,0,0,0,0,0,0,0,0,0,-1,1182,1072,0,0
-35,-48,0,0,0,0,0,0,0,0,0,-1,1189,1072,0,0
-28,-48,0,0,0,0,0,0,0,0,0,-1,1196,1072,0,0
-21,-48,0,0,0,0,0,0,0,0,0,-1,1203,1072,0,0
-14,-48,0,0,0,0,0,0,0,0,0,-1,1210,1072,0,0
-7,-48,0,0,0,0,0,0,0,0,0,-1,1217,1072,0,0
0,-48,0,0,0,0,0,0,0,0,0,-1,1224,1072,0,0
7,-48,0,0,0,0,0,0,0,0,0,-1,1231,1072,0,0
14,-48,0,0,0,0,0,0,0,0,0,-1,1238,1072,0,0
21,-48,0,0,0,0,0,0,0,0,0,-1,1245,1072,0,0
28,-48,0,0,0,0,0,0,0,0,0,-1,1252,1072,0,0
35,-48,0,0,0,0,0,0,0,0,0,-1,1259,1072,0,0
42,-48,0,0,0,0,0,0,0,0,0,-1,1266,1072,0,0
49,-48,0,0,0,0,0,0,0,0,0,-1,1273,1072,0,0
56,-48,0,0,0,0,0,0,0,0,0,-1,1280,1072,0,0
63,-48,0,0,0,0,0,0,0,0,0,-1,1287,1072,0,0
70,-48,0,0,0,0,0,0,0,0,0,-1,1294,1072,0,0
77,-48,0,0,0,0,0,0,0,0,0,-1,1301,1072,0,0
84,-48,0,0,0,0,0,0,0,0,0,-1,1308,1072,0,0
91,-48,0,0,0,0,0,0,0,0,0,-1,1315,1072,0,0
98,-48,0,0,0,0,0,0,0,0,0,-1,1322,1072,0,0
105,-48,0,0,0,0,0,0,0,0,0,-1,1329,1072,0,0
112,-48,0,0,0,0,0,0,0,0,0,-1,1336,1072,0,0
119,-48,0,0,0,0,0,0,0,0,0,-1,1343,1072,0,0
126,-48,0,0,0,0,0,0,0,0,0,-1,1350,1072,0,0
133,-48,0,0,0,0,0,0,0,0,0,-1,1357,1072,0,0
140,-48,0,0,0,0,0,0,0,0,0,-1,1364,1072,0,0
147,-48,0,0,0,0,0,0,0,0,0,-1,1371,1072,0,0
154,-48,0,0,0,0,0,0,0,0,0,-1,1378,1072,0,0
161,-48,0,0,0,0,0,0,0,0,0,-1,1385,1072,0,0
168,-48,0,0,0,0,0,0,0,0,0,-1,1392,1072,0,0
175,-48,0,0,0,0,0,0,0,0,0,-1,1399,1072,0,0
182,-48,0,0,0,0,0,0,0,0,0,-1,1406,1072,0,0
189,-48,0,0,0,0,0,0,0,0,0,-1,1413,1072,0,0
196,-48,0,0,0,0,0,0,0,0,0,-1,1420,1072,0,0
203,-48,0,0,0,0,0,0,0,0,0,-1,1427,1072,0,0
210,-48,0,0,0,0,0,0,0,0,0,-1,1434,1072,0,0
217,-48,0,0,0,0,0,0,0,0,0,-1,1441,1072,0,0
224,-48,0,0,0,0,0,0,0,0,0,-1,1448,1072,0,0
231,-48,0,0,0,0,0,0,0,0,0,-1,1455,1072,0,0
238,-48,0,0,0,0,0,0,0,0,0,-1,1462,1072,0,0
245,-48,0,0,0,0,0,0,0,0,0,-1,1469,1072,0,0
252,-48,0,0,0,0,0,0,0,0,0,-1,1476,1072,0,0
259,-48,0,0,0,0,0,0,0,0,0,-1,1483,1072,0,0
266,-48,0,0,0,0,0,0,0,0,0,-1,1490,1072,0,0
273,-48,0,0,0,0,0,0,0,0,0,-1,1497,1072,0,0
280,-48,0,0,0,0,0,0,0,0,0,-1,1504,1072,0,0
287,-48,0,0,0,0,0,0,0,0,0,-1,1511,1072,0,0
294,-48,0,0,0,0,0,0,0,0,0,-1,1518,1072,0,0
301,-48,0,0,0,0,0,0,0,0,0,-1,1525,1072,0,0
308,-48,0,0,0,0,0,0,0,0,0,-1,1532,1072,0,0
315,-48,0,0,0,0,0,0,0,0,0,-1,1539,1072,0,0
322,-48,0,0,0,0,0,0,0,0,0,-1,1546,1072,0,0
329,-48,0,0,0,0,0,0,0,0,0,-1,1553,1072,0,0
336,-48,0,0,0,0,0,0,0,0,0,-1,1560,1072,0,0
343,-48,0,0,0,0,0,0,0,0,0,-1,1567,1072,0,0
350,-48,0,0,0,0,0,0,0,0,0,-1,1574,1072,0,0
357,-48,0,0,0,0,0,0,0,0,0,-1,1581,1072,0,0
364,-48,0,0,0,0,0,0,0,0,0,-1,1588,1072,0,0
371,-48,0,0,0,0,0,0,0,0,0,-1,1595,1072,0,0
378,-48,0,0,0,0,0,0,0,0,0,-1,1602,1072,0,0
385,-48,0,0,0,0,0,0,0,0,0,-1,1609,1072,0,0
392,-48,0,0,0,0,0,0,0,0,0,-1,1616,1072,0,0
399,-48,0,0,0,0,0,0,0,0,0,-1,1623,1072,0,0
406,-48,0,0,0,0,0,0,0,0,0,-1,1630,1072,0,0
413,-48,0,0,0,0,0,0,0,0,0,-1,1637,1072,0,0
420,-48,0,0,0,0,0,0,0,0,0,-1,1644,1072,0,0
427,-48,0,0,0,0,0,0,0,0,0,-1,1651,1072,0,0
434,-48,0,0,0,0,0,0,0,0,0,-1,1658,1072,0,0
441,-48,0,0,0,0,0,0,0,0,0,-1,1665,1072,0,0
448,-48,0,0,0,0,0,0,0,0,0,-1,1672,1072,0,0
455,-48,0,0,0,0,0,0,0,0,0,-1,1679,1072,0,0
462,-48,0,0,0,0,0,0,0,0,0,-1,1686,1072,0,0
469,-48,0,0,0,0,0,0,0,0,0,-1,1693,1072,0,0
476,-48,0,0,0,0,0,0,0,0,0,-1,1700,1072,0,0
483,-48,0,0,0,0,0,0,0,0,0,-1,1707,1072,0,0
490,-48,0,0,0,0,0,0,0,0,0,-1,1714,1072,0,0
497,-48,0,0,0,0,0,0,0,0,0,-1,1721,1072,0,0
504,-48,0,0,0,0,0,0,0,0,0,-1,1728,1072,0,0
511,-48,0,0,0,0,0,0,0,0,0,-1,1735,1072,0,0
518,-48,0,0,0,0,0,0,0,0,0,-1,1742,1072,0,0
525,-48,0,0,0,0,0,0,0,0,0,-1,1749,1072,0,0
532,-48,0,0,0,0,0,0,0,0,0,-1,1756,1072,0,0
539,-48,0,0,0,0,0,0,0,0,0,-1,1763,1072,0,0
546,-48,0,0,0,0,0,0,0,0,0,-1,1770,1072,0,0
553,-48,0,0,0,0,0,0,0,0,0,-1,1777,1072,0,0
560,-48,0,0,0,0,0,0,0,0,0,-1,1784,1072,0,0
567,-48,0,0,0,0,0,0,0,0,0,-1,1791,1072,0,0
574,-48,0,0,0,0,0,0,0,0,0,-1,1798,1072,0,0
581,-48,0,0,0,0,0,0,0,0,0,-1,1805,1072,0,0
588,-48,0,0,0,0,0,0,0,0,0,-1,1812,1072,0,0
595,-48,0,0,0,0,0,0,0,0,0,-1,1819,1072,0,0
602,-48,0,0,0,0,0,0,0,0,0,-1,1826,1072,0,0
609,-48,0,0,0,0,0,0,0,0,0,-1,1833,1072,0,0
616,-48,0,0,0,0,0,0,0,0,0,-1,1840,1072,0,0
623,-48,0,0,0,0,0,0,0,0,0,-1,1847,1072,0,0
630,-48,0,0,0,0,0,0,0,0,0,-1,1854,1072,0,0
637,-48,0,0,0,0,0,0,0,0,0,-1,1861,1072,0,0
644,-48,0,0,0,0,0,0,0,0,0,-1,1868,1072,0,0
651,-48,9.55627,1.31104,-0.00190077,-0.00125624,0.000505866,-0.000978706,-0.0021783,1.06901,0.0012598,0.0315388,1875,1072,9.55628,-1.31105
658,-48,9.45801,1.28662,-0.00149971,-0.00095282,1.49902e-06,-0.000952816,-0.00149971,1.56806,0.000876367,0.0363017,1882,1072,9.45796,-1.28668
665,-48,9.4397,1.13147,-0.00112955,-0.000653221,-0.000175973,-0.000595263,-0.00118751,-1.25262,0.000685609,0.0421983,1889,1072,9.43965,-1.13144
672,-48,9.50842,1.06653,-0.000884342,-0.000474699,0.000122027,-0.000441104,-0.000917937,1.30214,0.000530105,0.0399321,1896,1072,9.50836,-1.06648
679,-48,9.51965,1.14294,-0.000983168,-0.000406015,0.000691185,5.4417e-05,-0.0014436,0.983153,0.000981042,0.0414235,1903,1072,9.51971,-1.14298
686,-48,9.55676,0.994995,-0.00121731,-0.000392989,0.00130443,0.000562848,-0.00217315,0.93842,0.00166834,0.045528,1910,1072,9.55672,-0.995005
693,-48,9.60083,1.23462,-0.00147793,-0.000419496,0.00187896,0.00100335,-0.00290078,0.922669,0.00234111,0.0436939,1917,1072,9.60082,-1.23462
700,-48,9.62756,1.38611,-0.00176145,-0.000464941,0.0023105,0.00128653,-0.00351292,0.922166,0.00286862,0.0349991,1924,1072,9.62762,-1.38616
707,-48,9.61584,1.27625,-0.0019681,-0.000480396,0.00267345,0.00155076,-0.00399925,0.921084,0.00330661,0.0278767,1931,1072,9.61585,-1.27619
714,-48,9.5708,1.45398,-0.00210127,-0.000485149,0.00292056,0.00173708,-0.00432349,0.920362,0.00360372,0.0246987,1938,1072,9.57075,-1.45402
721,-48,9.54224,1.6178,-0.00219519,-0.000485975,0.00296535,0.00174546,-0.00442663,0.925695,0.00367382,0.0306552,1945,1072,9.54223,-1.61776
728,-48,9.40002,1.69775,-0.00224586,-0.000412912,0.00284933,0.00166371,-0.00432248,0.940996,0.00356795,0.0210612,1952,1072,9.4,-1.69771
735,-48,9.422,1.70923,-0.00189391,-0.000266976,0.00263245,0.00167482,-0.00383571,0.935252,0.00326203,0.0172692,1959,1072,9.42201,-1.70918
742,-48,9.42212,1.69299,-0.00101414,-0.000200023,0.00204151,0.00147462,-0.00268878,0.883803,0.00243757,0.0135971,1966,1072,9.42211,-1.69296
749,-48,9.44507,1.65112,-0.000317102,2.94158e-05,0.000966489,0.000838054,-0.00112574,0.874089,0.00113784,0.0118581,1973,1072,9.44508,-1.65117
756,-48,9.46423,1.64282,-6.46038e-05,0.000181512,-0.000104556,0.000219933,-0.000103024,-1.21865,0.000190488,0.0115335,1980,1072,9.46417,-1.64278
763,-48,9.45239,1.65015,0.00038472,0.000570187,-0.0014083,0.0018888,-0.000933891,-0.818275,0.00166047,0.0119363,1987,1072,9.45234,-1.65009
770,-48,9.44592,1.63245,0.000772947,0.000913018,-0.00299041,0.00383421,-0.00214824,-0.797106,0.00349939,0.0118491,1994,1072,9.44587,-1.63242
777,-48,9.43384,1.60657,0.000755773,0.00124529,-0.00477602,0.00578282,-0.00378176,-0.810999,0.00556225,0.0104114,2001,1072,9.43387,-1.60654
784,-48,9.43921,1.56177,-0.000155686,0.00154017,-0.00682331,0.00756804,-0.00618355,-0.847216,0.00795289,0.0228739,2008,1072,9.43925,-1.56178
791,-48,10.0486,1.39038,-0.00223733,0.00184123,-0.00932412,0.00934647,-0.00974257,-0.893058,0.0110219,0.0387836,2015,1072,10.0486,-1.39036
798,-48,10.5039,1.17175,0,0,0,0,0,0,0,-1,2022,1072,10.5039,-1.17171
805,-48,9.29468,2.19678,0,0,0,0,0,0,0,-1,2029,1072,9.29474,-2.19683
812,-48,9.12866,2.17078,0,0,0,0,0,0,0,-1,2036,1072,9.12866,-2.1708
-700,-55,-7.01764,-1.65063,0,0,0,0,0,0,0,-1,524,1079,-7.01763,1.65068
-693,-55,-4.40405,0.409668,0,0,0,0,0,0,0,-1,531,1079,-4.40408,-0.409668
-686,-55,-3.96228,0.18042,0,0,0,0,0,0,0,-1,538,1079,-3.96229,-0.180451
-679,-55,-5.36432,0.722534,0,0,0,0,0,0,0,-1,545,1079,-5.3643,-0.722509
-672,-55,-4.54169,0.00646973,0,0,0,0,0,0,0,-1,552,1079,-4.54168,-0.00644619
-665,-55,-4.4281,0.219116,0.00880245,0.00604489,0.00155074,0.00949872,0.00534862,0.422015,0.00549862,0.048089,559,1079,-4.42812,-0.219095
-658,-55,-4.38385,0.481445,0.00655155,0.00476657,0.00149254,0.00739809,0.00392004,0.515936,0.00427383,0.0481766,566,1079,-4.38387,-0.481401
-651,-55,-4.26154,0.657715,0.00480362,0.00364009,0.00139456,0.0057329,0.00271081,0.58779,0.00331152,0.0350785,573,1079,-4.26155,-0.657754
-644,-55,-4.19586,0.7677,0.00326719,0.00228718,0.00087874,0.00378331,0.00177106,0.53106,0.00218578,0.0135539,580,1079,-4.19584,-0.767639
-637,-55,-4.18182,0.776489,0.00197007,0.00144202,0.000686092,0.00244119,0.000970907,0.601722,0.00141921,0.0109429,587,1079,-4.18185,-0.776548
-630,-55,-4.16333,0.80835,0.00138792,0.00112257,0.000235148,0.00152524,0.000985247,0.528545,0.000893018,0.0139808,594,1079,-4.1633,-0.808372
-623,-55,-4.16022,0.830322,0.000805795,0.000802546,-0.000348873,0.00115305,0.000455294,-0.78307,0.0006706,0.014464,601,1079,-4.16024,-0.830357
-616,-55,-4.16345,0.854004,0.000532181,0.000283835,-0.000888987,0.00130563,-0.000489609,-0.716008,0.00107158,0.0129397,608,1079,-4.16343,-0.853959
-609,-55,-4.2027,0.874268,0.000362484,0.000216797,-0.00151492,0.00180631,-0.00122703,-0.761375,0.00176191,0.0125815,615,1079,-4.20271,-0.874279
-602,-55,-4.22418,0.892822,0.000179936,0.000218515,-0.00187592,0.00207525,-0.00167679,-0.790539,0.00217031,0.0121466,622,1079,-4.22421,-0.892764
-595,-55,-4.19531,0.939331,2.96659e-05,0.000526763,-0.00204297,0.00233624,-0.00177981,-0.845931,0.00238363,0.0134085,629,1079,-4.19531,-0.939271
-588,-55,-4.17981,0.807617,-0.000121766,0.000775694,-0.00209835,0.00247276,-0.00181883,-0.890736,0.00248732,0.0253998,636,1079,-4.17979,-0.807561
-581,-55,-4.14667,0.509888,-0.00031361,0.00111384,-0.00209353,0.00261196,-0.00181173,-0.949679,0.00256791,0.038153,643,1079,-4.14668,-0.509902
-574,-55,-4.08228,0.522339,-0.000505603,0.00156656,-0.00187133,0.00266948,-0.00160853,-1.03822,0.0024951,0.0388598,650,1079,-4.08225,-0.522392
-567,-55,-4.07465,0.433228,0,0,0,0,0,0,0,-1,657,1079,-4.07464,-0.433192
-560,-55,-4.32233,0.686523,-0.00130305,0.00262432,-0.000982459,0.00285637,-0.0015351,-1.33885,0.00257339,0.0402892,664,1079,-4.32231,-0.68657
-553,-55,-4.24615,0.746094,-0.00204818,0.00313525,-0.000415527,0.00316835,-0.00208127,-1.49131,0.00305246,0.0417672,671,1079,-4.24612,-0.746112
-546,-55,-4.17188,0.616455,-0.00312444,0.00354291,0.000148995,0.00354624,-0.00312777,1.54846,0.00385576,0.0418453,678,1079,-4.17185,-0.616462
-539,-55,-4.19861,0.644165,-0.00458855,0.00373694,0.000484071,0.00376499,-0.0046166,1.51291,0.00484743,0.0398355,685,1079,-4.19862,-0.644172
-532,-55,-4.34869,0.620239,-0.00670428,0.00349969,-7.33297e-05,0.00350022,-0.00670481,-1.56361,0.00598793,0.0382572,692,1079,-4.34869,-0.620201
-525,-55,0,0,0,0,0,0,0,0,0,-1,699,1079,0,0
-518,-55,0,0,0,0,0,0,0,0,0,-1,706,1079,0,0
-511,-55,0,0,0,0,0,0,0,0,0,-1,713,1079,0,0
-504,-55,0,0,0,0,0,0,0,0,0,-1,720,1079,0,0
-497,-55,0,0,0,0,0,0,0,0,0,-1,727,1079,0,0
-490,-55,0,0,0,0,0,0,0,0,0,-1,734,1079,0,0
-483,-55,0,0,0,0,0,0,0,0,0,-1,741,1079,0,0
-476,-55,0,0,0,0,0,0,0,0,0,-1,748,1079,0,0
-469,-55,0,0,0,0,0,0,0,0,0,-1,755,1079,0,0
-462,-55,0,0,0,0,0,0,0,0,0,-1,762,1079,0,0
-455,-55,0,0,0,0,0,0,0,0,0,-1,769,1079,0,0
-448,-55,0,0,0,0,0,0,0,0,0,-1,776,1079,0,0
-441,-55,0,0,0,0,0,0,0,0,0,-1,783,1079,0,0
-434,-55,0,0,0,0,0,0,0,0,0,-1,790,1079,0,0
-427,-55,0,0,0,0,0,0,0,0,0,-1,797,1079,0,0
-420,-55,0,0,0,0,0,0,0,0,0,-1,804,1079,0,0
-413,-55,0,0,0,0,0,0,0,0,0,-1,811,1079,0,0
-406,-55,0,0,0,0,0,0,0,0,0,-1,818,1079,0,0
-399,-55,0,0,0,0,0,0,0,0,0,-1,825,1079,0,0
-392,-55,0,0,0,0,0,0,0,0,0,-1,832,1079,0,0
-385,-55,0,0,0,0,0,0,0,0,0,-1,839,1079,0,0
-378,-55,0,0,0,0,0,0,0,0,0,-1,846,1079,0,0
-371,-55,0,0,0,0,0,0,0,0,0,-1,853,1079,0,0
-364,-55,0,0,0,0,0,0,0,0,0,-1,860,1079,0,0
-357,-55,0,0,0,0,0,0,0,0,0,-1,867,1079,0,0
-350,-55,0,0,0,0,0,0,0,0,0,-1,874,1079,0,0
-343,-55,0,0,0,0,0,0,0,0,0,-1,881,1079,0,0
-336,-55,0,0,0,0,0,0,0,0,0,-1,888,1079,0,0
-329,-55,0,0,0,0,0,0,0,0,0,-1,895,1079,0,0
-322,-55,0,0,0,0,0,0,0,0,0,-1,902,1079,0,0
-315,-55,0,0,0,0,0,0,0,0,0,-1,909,1079,0,0
-308,-55,0,0,0,0,0,0,0,0,0,-1,916,1079,0,0
-301,-55,0,0,0,0,0,0,0,0,0,-1,923,1079,0,0
-294,-55,0,0,0,0,0,0,0,0,0,-1,930,1079,0,0
-287,-55,0,0,0,0,0,0,0,0,0,-1,937,1079,0,0
-280,-55,0,0,0,0,0,0,0,0,0,-1,944,1079,0,0
-273,-55,0,0,0,0,0,0,0,0,0,-1,951,1079,0,0
-266,-55,0,0,0,0,0,0,0,0,0,-1,958,1079,0,0
-259,-55,0,0,0,0,0,0,0,0,0,-1,965,1079,0,0
-252,-55,0,0,0,0,0,0,0,0,0,-1,972,1079,0,0
-245,-55,0,0,0,0,0,0,0,0,0,-1,979,1079,0,0
-238,-55,0,0,0,0,0,0,0,0,0,-1,986,1079,0,0
-231,-55,0,0,0,0,0,0,0,0,0,-1,993,1079,0,0
-224,-55,0,0,0,0,0,0,0,0,0,-1,1000,1079,0,0
-217,-55,0,0,0,0,0,0,0,0,0,-1,1007,1079,0,0
-210,-55,0,0,0,0,0,0,0,0,0,-1,1014,1079,0,0
-203,-55,0,0,0,0,0,0,0,0,0,-1,1021,1079,0,0
-196,-55,0,0,0,0,0,0,0,0,0,-1,1028,1079,0,0
-189,-55,0,0,0,0,0,0,0,0,0,-1,1035,1079,0,0
-182,-55,0,0,0,0,0,0,0,0,0,-1,1042,1079,0,0
-175,-55,0,0,0,0,0,0,0,0,0,-1,1049,1079,0,0
-168,-55,0,0,0,0,0,0,0,0,0,-1,1056,1079,0,0
-161,-55,0,0,0,0,0,0,0,0,0,-1,1063,1079,0,0
-154,-55,0,0,0,0,0,0,0,0,0,-1,1070,1079,0,0
-147,-55,0,0,0,0,0,0,0,0,0,-1,1077,1079,0,0
-140,-55,0,0,0,0,0,0,0,0,0,-1,1084,1079,0,0
-133,-55,0,0,0,0,0,0,0,0,0,-1,1091,1079,0,0
-126,-55,0,0,0,0,0,0,0,0,0,-1,1098,1079,0,0
-119,-55,0,0,0,0,0,0,0,0,0,-1,1105,1079,0,0
-112,-55,0,0,0,0,0,0,0,0,0,-1,1112,1079,0,0
-105,-55,0,0,0,0,0,0,0,0,0,-1,1119,1079,0,0
-98,-55,0,0,0,0,0,0,0,0,0,-1,1126,1079,0,0
-91,-55,0,0,0,0,0,0,0,0,0,-1,1133,1079,0,0
-84,-55,0,0,0,0,0,0,0,0,0,-1,1140,1079,0,0
-77,-55,0,0,0,0,0,0,0,0,0,-1,1147,1079,0,0
-70,-55,0,0,0,0,0,0,0,0,0,-1,1154,1079,0,0
-63,-55,0,0,0,0,0,0,0,0,0,-1,1161,1079,0,0
-56,-55,0,0,0,0,0,0,0,0,0,-1,1168,1079,0,0
-49,-55,0,0,0,0,0,0,0,0,0,-1,1175,1079,0,0
-42,-55,0,0,0,0,0,0,0,0,0,-1,1182,1079,0,0
-35,-55,0,0,0,0,0,0,0,0,0,-1,1189,1079,0,0
-28,-55,0,0,0,0,0,0,0,0,0,-1,1196,1079,0,0
-21,-55,0,0,0,0,0,0,0,0,0,-1,1203,1079,0,0
-14,-55,0,0,0,0,0,0,0,0,0,-1,1210,1079,0,0
-7,-55,0,0,0,0,0,0,0,0,0,-1,1217,1079,0,0
0,-55,0,0,0,0,0,0,0,0,0,-1,1224,1079,0,0
7,-55,0,0,0,0,0,0,0,0,0,-1,1231,1079,0,0
14,-55,0,0,0,0,0,0,0,0,0,-1,1238,1079,0,0
21,-55,0,0,0,0,0,0,0,0,0,-1,1245,1079,0,0
28,-55,0,0,0,0,0,0,0,0,0,-1,1252,1079,0,0
35,-55,0,0,0,0,0,0,0,0,0,-1,1259,1079,0,0
42,-55,0,0,0,0,0,0,0,0,0,-1,1266,1079,0,0
49,-55,0,0,0,0,0,0,0,0,0,-1,1273,1079,0,0
56,-55,0,0,0,0,0,0,0,0,0,-1,1280,1079,0,0
63,-55,0,0,0,0,0,0,0,0,0,-1,1287,1079,0,0
70,-55,0,0,0,0,0,0,0,0,0,-1,1294,1079,0,0
77,-55,0,0,0,0,0,0,0,0,0,-1,1301,1079,0,0
84,-55,0,0,0,0,0,0,0,0,0,-1,1308,1079,0,0
91,-55,0,0,0,0,0,0,0,0,0,-1,1315,1079,0,0
98,-55,0,0,0,0,0,0,0,0,0,-1,1322,1079,0,0
105,-55,0,0,0,0,0,0,0,0,0,-1,1329,1079,0,0
112,-55,0,0,0,0,0,0,0,0,0,-1,1336,1079,0,0
119,-55,0,0,0,0,0,0,0,0,0,-1,1343,1079,0,0
126,-55,0,0,0,0,0,0,0,0,0,-1,1350,1079,0,0
133,-55,0,0,0,0,0,0,0,0,0,-1,1357,1079,0,0
140,-55,0,0,0,0,0,0,0,0,0,-1,1364,1079,0,0
147,-55,0,0,0,0,0,0,0,0,0,-1,1371,1079,0,0
154,-55,0,0,0,0,0,0,0,0,0,-1,1378,1079,0,0
161,-55,0,0,0,0,0,0,0,0,0,-1,1385,1079,0,0
168,-55,0,0,0,0,0,0,0,0,0,-1,1392,1079,0,0
175,-55,0,0,0,0,0,0,0,0,0,-1,1399,1079,0,0
182,-55,0,0,0,0,0,0,0,0,0,-1,1406,1079,0,0
189,-55,0,0,0,0,0,0,0,0,0,-1,1413,1079,0,0
196,-55,0,0,0,0,0,0,0,0,0,-1,1420,1079,0,0
203,-55,0,0,0,0,0,0,0,0,0,-1,1427,1079,0,0
210,-55,0,0,0,0,0,0,0,0,0,-1,1434,1079,0,0
217,-55,0,0,0,0,0,0,0,0,0,-1,1441,1079,0,0
224,-55,0,0,0,0,0,0,0,0,0,-1,1448,1079,0,0
231,-55,0,0,0,0,0,0,0,0,0,-1,1455,1079,0,0
238,-55,0,0,0,0,0,0,0,0,0,-1,1462,1079,0,0
245,-55,0,0,0,0,0,0,0,0,0,-1,1469,1079,0,0
252,-55,0,0,0,0,0,0,0,0,0,-1,1476,1079,0,0
259,-55,0,0,0,0,0,0,0,0,0,-1,1483,1079,0,0
266,-55,0,0,0,0,0,0,0,0,0,-1,1490,1079,0,0
273,-55,0,0,0,0,0,0,0,0,0,-1,1497,1079,0,0
280,-55,0,0,0,0,0,0,0,0,0,-1,1504,1079,0,0
287,-55,0,0,0,0,0,0,0,0,0,-1,1511,1079,0,0
294,-55,0,0,0,0,0,0,0,0,0,-1,1518,1079,0,0
301,-55,0,0,0,0,0,0,0,0,0,-1,1525,1079,0,0
308,-55,0,0,0,0,0,0,0,0,0,-1,1532,1079,0,0
315,-55,0,0,0,0,0,0,0,0,0,-1,1539,1079,0,0
322,-55,0,0,0,0,0,0,0,0,0,-1,1546,1079,0,0
329,-55,0,0,0,0,0,0,0,0,0,-1,1553,1079,0,0
336,-55,0,0,0,0,0,0,0,0,0,-1,1560,1079,0,0
343,-55,0,0,0,0,0,0,0,0,0,-1,1567,1079,0,0
350,-55,0,0,0,0,0,0,0,0,0,-1,1574,1079,0,0
357,-55,0,0,0,0,0,0,0,0,0,-1,1581,1079,0,0
364,-55,0,0,0,0,0,0,0,0,0,-1,1588,1079,0,0
371,-55,0,0,0,0,0,0,0,0,0,-1,1595,1079,0,0
378,-55,0,0,0,0,0,0,0,0,0,-1,1602,1079,0,0
385,-55,0,0,0,0,0,0,0,0,0,-1,1609,1079,0,0
392,-55,0,0,0,0,0,0,0,0,0,-1,1616,1079,0,0
399,-55,0,0,0,0,0,0,0,0,0,-1,1623,1079,0,0
406,-55,0,0,0,0,0,0,0,0,0,-1,1630,1079,0,0
413,-55,0,0,0,0,0,0,0,0,0,-1,1637,1079,0,0
420,-55,0,0,0,0,0,0,0,0,0,-1,1644,1079,0,0
427,-55,0,0,0,0,0,0,0,0,0,-1,1651,1079,0,0
434,-55,0,0,0,0,0,0,0,0,0,-1,1658,1079,0,0
441,-55,0,0,0,0,0,0,0,0,0,-1,1665,1079,0,0
448,-55,0,0,0,0,0,0,0,0,0,-1,1672,1079,0,0
455,-55,0,0,0,0,0,0,0,0,0,-1,1679,1079,0,0
462,-55,0,0,0,0,0,0,0,0,0,-1,1686,1079,0,0
469,-55,0,0,0,0,0,0,0,0,0,-1,1693,1079,0,0
476,-55,0,0,0,0,0,0,0,0,0,-1,1700,1079,0,0
483,-55,0,0,0,0,0,0,0,0,0,-1,1707,1079,0,0
490,-55,0,0,0,0,0,0,0,0,0,-1,1714,1079,0,0
497,-55,0,0,0,0,0,0,0,0,0,-1,1721,1079,0,0
504,-55,0,0,0,0,0,0,0,0,0,-1,1728,1079,0,0
511,-55,0,0,0,0,0,0,0,0,0,-1,1735,1079,0,0
518,-55,0,0,0,0,0,0,0,0,0,-1,1742,1079,0,0
525,-55,0,0,0,0,0,0,0,0,0,-1,1749,1079,0,0
532,-55,0,0,0,0,0,0,0,0,0,-1,1756,1079,0,0
539,-55,0,0,0,0,0,0,0,0,0,-1,1763,1079,0,0
546,-55,0,0,0,0,0,0,0,0,0,-1,1770,1079,0,0
553,-55,0,0,0,0,0,0,0,0,0,-1,1777,1079,0,0
560,-55,0,0,0,0,0,0,0,0,0,-1,1784,1079,0,0
567,-55,0,0,0,0,0,0,0,0,0,-1,1791,1079,0,0
574,-55,0,0,0,0,0,0,0,0,0,-1,1798,1079,0,0
581,-55,0,0,0,0,0,0,0,0,0,-1,1805,1079,0,0
588,-55,0,0,0,0,0,0,0,0,0,-1,1812,1079,0,0
595,-55,0,0,0,0,0,0,0,0,0,-1,1819,1079,0,0
602,-55,0,0,0,0,0,0,0,0,0,-1,1826,1079,0,0
609,-55,0,0,0,0,0,0,0,0,0,-1,1833,1079,0,0
616,-55,0,0,0,0,0,0,0,0,0,-1,1840,1079,0,0
623,-55,0,0,0,0,0,0,0,0,0,-1,1847,1079,0,0
630,-55,0,0,0,0,0,0,0,0,0,-1,1854,1079,0,0
637,-55,0,0,0,0,0,0,0,0,0,-1,1861,1079,0,0
644,-55,0,0,0,0,0,0,0,0,0,-1,1868,1079,0,0
651,-55,9.39636,1.35034,-0.000690783,-0.00185534,0.000947081,-0.000161302,-0.00238482,0.509778,0.00153893,0.0344895,1875,1079,9.39639,-1.3503
658,-55,9.39343,1.3606,-0.000555715,-0.00143536,0.000152007,-0.000530188,-0.00146089,0.166379,0.000853943,0.0346438,1882,1079,9.39345,-1.36061
665,-55,9.40845,1.27991,-0.000415099,-0.00106279,-0.000173743,-0.000371436,-0.00110645,-0.246209,0.000650206,0.0386552,1889,1079,9.40847,-1.2799
672,-55,9.48511,1.39246,-0.000395715,-0.000834692,7.87235e-05,-0.000382024,-0.000848383,0.172188,0.00049062,0.0364954,1896,1079,9.48506,-1.3924
679,-55,9.49329,1.20605,-0.000675388,-0.000723388,0.000636439,-6.24968e-05,-0.00133628,0.766552,0.000870768,0.0369488,1903,1079,9.49325,-1.2061
686,-55,9.61694,1.03992,-0.00104949,-0.000669436,0.00126304,0.00041779,-0.00213671,0.860064,0.00158223,0.0422878,1910,1079,9.61694,-1.03986
693,-55,9.72339,1.36206,-0.00142116,-0.000655814,0.00186736,0.000867683,-0.00294466,0.886463,0.00230737,0.0406851,1917,1079,9.72337,-1.3621
700,-55,9.68542,1.37976,-0.00179689,-0.000656636,0.00231074,0.00115327,-0.0036068,0.906348,0.00286733,0.0352595,1924,1079,9.68545,-1.37977
707,-55,9.61206,1.33154,-0.00207621,-0.000635167,0.00269589,0.00143483,-0.00414621,0.91598,0.00334656,0.029077,1931,1079,9.61201,-1.33152
714,-55,9.59326,1.43848,-0.00224002,-0.000600314,0.00297682,0.00166749,-0.00450782,0.919773,0.00368888,0.0302044,1938,1079,9.5933,-1.43852
721,-55,9.53894,1.6084,-0.00233078,-0.000572553,0.00304143,0.00171427,-0.0046176,0.926086,0.00378164,0.030203,1945,1079,9.53893,-1.60844
728,-55,9.38782,1.69238,-0.0023664,-0.000478977,0.00292481,0.0016506,-0.00449598,0.941454,0.00367329,0.0201073,1952,1079,9.38788,-1.69237
735,-55,9.42114,1.6781,-0.00194451,-0.000307226,0.00271413,0.00170904,-0.00396077,0.93187,0.00335842,0.0164661,1959,1079,9.42109,-1.67815
742,-55,9.43054,1.67505,-0.000889582,-0.000175877,0.00215148,0.00164814,-0.0027136,0.867582,0.00254317,0.0151825,1966,1079,9.4305,-1.67507
749,-55,9.43066,1.6355,-8.66072e-06,0.000181979,0.00107697,0.00116783,-0.000994517,0.829537,0.00124977,0.0106828,1973,1079,9.43064,-1.63545
756,-55,9.44861,1.6272,0.000344628,0.000496073,4.67464e-05,0.00050934,0.000331361,1.29426,0.000298479,0.0105292,1980,1079,9.44864,-1.62716
763,-55,9.44739,1.64526,0.000872381,0.00103327,-0.00121527,0.00217076,-0.000265101,-0.818448,0.00154315,0.013784,1987,1079,9.44733,-1.64523
770,-55,9.45471,1.62024,0.00140899,0.00160096,-0.00272175,0.00422842,-0.00121847,-0.803023,0.00330094,0.0139022,1994,1079,9.45465,-1.62019
777,-55,9.44031,1.60352,0.00151521,0.00224104,-0.004378,0.00627115,-0.00251489,-0.826751,0.00522487,0.0120087,2001,1079,9.44026,-1.60352
784,-55,9.48499,1.62097,0.000689706,0.0029443,-0.00625073,0.00816857,-0.00453457,-0.874612,0.00743352,0.0275947,2008,1079,9.48494,-1.62095
791,-55,9.60474,1.75989,-0.00139403,0.0037746,-0.00852202,0.0100955,-0.00771497,-0.932617,0.0103135,0.0426407,2015,1079,9.60475,-1.75989
798,-55,9.70422,1.87451,0,0,0,0,0,0,0,-1,2022,1079,9.70426,-1.87453
805,-55,9.37341,2.01123,-0.0111588,0.00590199,-0.0144322,0.0141363,-0.0193932,-1.05231,0.0194374,0.0486376,2029,1079,9.37345,-2.01118
812,-55,9.25195,2.04114,-0.0206365,0.00725947,-0.0179407,0.0160363,-0.0294133,-1.11582,0.0266165,0.0474613,2036,1079,9.25196,-2.04116
-700,-62,-7.42542,-1.45593,0,0,0,0,0,0,0,-1,524,1086,-7.42539,1.45591
-693,-62,-5.547,0.103516,0,0,0,0,0,0,0,-1,531,1086,-5.54699,-0.103525
-686,-62,-5.07697,0.151855,0.0184415,0.00314804,0.00164292,0.018616,0.00297354,0.105818,0.0115478,0.0495351,538,1086,-5.07696,-0.151845
-679,-62,-5.13281,0.609619,0.0143821,0.0032217,0.000885571,0.0144519,0.00315187,0.0786931,0.00877477,0.0492351,545,1086,-5.13281,-0.60965
-672,-62,-4.84869,0.524658,0,0,0,0,0,0,0,-1,552,1086,-4.8487,-0.524611
-665,-62,-4.39514,0.0344238,0.00866789,0.00266767,0.000396561,0.00869399,0.00264157,0.0657101,0.00514663,0.046644,559,1086,-4.39514,-0.0344662
-658,-62,-4.34564,0.428955,0.00665184,0.00223653,0.000342619,0.00667827,0.0022101,0.0769839,0.00392848,0.0465857,566,1086,-4.34562,-0.428934
-651,-62,-4.17517,0.708496,0.00504413,0.0017869,0.000324564,0.00507616,0.00175487,0.0983555,0.00297687,0.0364235,573,1086,-4.17514,-0.708437
-644,-62,-4.17657,0.751221,0.00357732,0.00102969,1.94514e-06,0.00357732,0.00102969,0.000763509,0.00212644,0.0112964,580,1086,-4.17656,-0.751182
-637,-62,-4.17395,0.769897,0.00228852,0.000519258,-8.91245e-05,0.00229299,0.00051478,-0.0502046,0.00138923,0.00973599,587,1086,-4.17397,-0.769858
-630,-62,-4.16522,0.806274,0.00167459,0.000526676,-0.000480634,0.00184925,0.00035201,-0.348569,0.00113386,0.0119849,594,1086,-4.16519,-0.806272
-623,-62,-4.15192,0.84436,0.00109579,0.000391416,-0.000955778,0.00176221,-0.000274997,-0.608876,0.00127638,0.0133947,601,1086,-4.15194,-0.844396
-616,-62,-4.15283,0.853149,0.000698207,0.000118084,-0.00132137,0.00176098,-0.000944686,-0.677354,0.00158564,0.0127384,608,1086,-4.15285,-0.853183
-609,-62,-4.17126,0.889771,0.000385242,9.32031e-06,-0.0017749,0.0019821,-0.00158754,-0.732645,0.00206513,0.0121385,615,1086,-4.17127,-0.88972
-602,-62,-4.18372,0.903076,9.67042e-05,-4.73901e-06,-0.00209865,0.00214525,-0.00205328,-0.773316,0.00242422,0.0128658,622,1086,-4.18372,-0.903083
-595,-62,-4.15216,0.932617,-0.000131168,0.000228374,-0.00227121,0.00232691,-0.00222971,-0.824892,0.00263097,0.0152185,629,1086,-4.15217,-0.932666
-588,-62,-4.16663,0.869873,-0.000304315,0.000453501,-0.00234525,0.00245026,-0.00230107,-0.865488,0.00274363,0.0221343,636,1086,-4.16662,-0.869816
-581,-62,-4.18109,0.765991,-0.000476864,0.000776824,-0.00234323,0.00257561,-0.00227565,-0.916094,0.00280266,0.0329704,643,1086,-4.1811,-0.766015
-574,-62,-4.16437,0.638428,-0.000651276,0.00120101,-0.0021113,0.00258036,-0.00203063,-0.99209,0.00266846,0.0351867,650,1086,-4.16437,-0.638432
-567,-62,-4.26361,0.660889,-0.00092434,0.00172283,-0.00170296,0.00255608,-0.00175759,-1.11575,0.00250468,0.0352556,657,1086,-4.26362,-0.660935
-560,-62,-4.33643,0.748169,-0.00132165,0.00231811,-0.00114117,0.00264631,-0.00164985,-1.29076,0.00250253,0.0363541,664,1086,-4.33645,-0.748172
-553,-62,-4.24445,0.847412,-0.00192722,0.00295553,-0.000465961,0.0029996,-0.00197129,-1.4765,0.00289034,0.0377043,671,1086,-4.24447,-0.847379
-546,-62,-4.16962,0.679932,-0.00278402,0.00358736,0.000273278,0.00359906,-0.00279572,1.52801,0.00370173,0.0346416,678,1086,-4.16962,-0.679953
-539,-62,-4.27429,0.730469,-0.00392171,0.00414291,0.000890759,0.00424012,-0.00401893,1.46209,0.00476894,0.0386517,685,1086,-4.27432,-0.730441
-532,-62,-4.34894,0.791382,-0.00559869,0.00443013,0.000742633,0.00448482,-0.00565338,1.49728,0.00586624,0.0423112,692,1086,-4.34891,-0.791427
-525,-62,0,0,0,0,0,0,0,0,0,-1,699,1086,0,0
-518,-62,0,0,0,0,0,0,0,0,0,-1,706,1086,0,0
-511,-62,0,0,0,0,0,0,0,0,0,-1,713,1086,0,0
-504,-62,0,0,0,0,0,0,0,0,0,-1,720,1086,0,0
-497,-62,0,0,0,0,0,0,0,0,0,-1,727,1086,0,0
-490,-62,0,0,0,0,0,0,0,0,0,-1,734,1086,0,0
-483,-62,0,0,0,0,0,0,0,0,0,-1,741,1086,0,0
-476,-62,0,0,0,0,0,0,0,0,0,-1,748,1086,0,0
-469,-62,0,0,0,0,0,0,0,0,0,-1,755,1086,0,0
-462,-62,0,0,0,0,0,0,0,0,0,-1,762,1086,0,0
-455,-62,0,0,0,0,0,0,0,0,0,-1,769,1086,0,0
-448,-62,0,0,0,0,0,0,0,0,0,-1,776,1086,0,0
-441,-62,0,0,0,0,0,0,0,0,0,-1,783,1086,0,0
-434,-62,0,0,0,0,0,0,0,0,0,-1,790,1086,0,0
-427,-62,0,0,0,0,0,0,0,0,0,-1,797,1086,0,0
-420,-62,0,0,0,0,0,0,0,0,0,-1,804,1086,0,0
-413,-62,0,0,0,0,0,0,0,0,0,-1,811,1086,0,0
-406,-62,0,0,0,0,0,0,0,0,0,-1,818,1086,0,0
-399,-62,0,0,0,0,0,0,0,0,0,-1,825,1086,0,0
-392,-62,0,0,0,0,0,0,0,0,0,-1,832,1086,0,0
-385,-62,0,0,0,0,0,0,0,0,0,-1,839,1086,0,0
-378,-62,0,0,0,0,0,0,0,0,0,-1,846,1086,0,0
-371,-62,0,0,0,0,0,0,0,0,0,-1,853,1086,0,0
-364,-62,0,0,0,0,0,0,0,0,0,-1,860,1086,0,0
-357,-62,0,0,0,0,0,0,0,0,0,-1,867,1086,0,0
-350,-62,0,0,0,0,0,0,0,0,0,-1,874,1086,0,0
-343,-62,0,0,0,0,0,0,0,0,0,-1,881,1086,0,0
-336,-62,0,0,0,0,0,0,0,0,0,-1,888,1086,0,0
-329,-62,0,0,0,0,0,0,0,0,0,-1,895,1086,0,0
-322,-62,0,0,0,0,0,0,0,0,0,-1,902,1086,0,0
-315,-62,0,0,0,0,0,0,0,0,0,-1,909,1086,0,0
-308,-62,0,0,0,0,0,0,0,0,0,-1,916,1086,0,0
-301,-62,0,0,0,0,0,0,0,0,0,-1,923,1086,0,0
-294,-62,0,0,0,0,0,0,0,0,0,-1,930,1086,0,0
-287,-62,0,0,0,0,0,0,0,0,0,-1,937,1086,0,0
-280,-62,0,0,0,0,0,0,0,0,0,-1,944,1086,0,0
-273,-62,0,0,0,0,0,0,0,0,0,-1,951,1086,0,0
-266,-62,0,0,0,0,0,0,0,0,0,-1,958,1086,0,0
-259,-62,0,0,0,0,0,0,0,0,0,-1,965,1086,0,0
-252,-62,0,0,0,0,0,0,0,0,0,-1,972,1086,0,0
-245,-62,0,0,0,0,0,0,0,0,0,-1,979,1086,0,0
-238,-62,0,0,0,0,0,0,0,0,0,-1,986,1086,0,0
-231,-62,0,0,0,0,0,0,0,0,0,-1,993,1086,0,0
-224,-62,0,0,0,0,0,0,0,0,0,-1,1000,1086,0,0
-217,-62,0,0,0,0,0,0,0,0,0,-1,1007,1086,0,0
-210,-62,0,0,0,0,0,0,0,0,0,-1,1014,1086,0,0
-203,-62,0,0,0,0,0,0,0,0,0,-1,1021,1086,0,0
-196,-62,0,0,0,0,0,0,0,0,0,-1,1028,1086,0,0
-189,-62,0,0,0,0,0,0,0,0,0,-1,1035,1086,0,0
-182,-62,0,0,0,0,0,0,0,0,0,-1,1042,1086,0,0
-175,-62,0,0,0,0,0,0,0,0,0,-1,1049,1086,0,0
-168,-62,0,0,0,0,0,0,0,0,0,-1,1056,1086,0,0
-161,-62,0,0,0,0,0,0,0,0,0,-1,1063,1086,0,0
-154,-62,0,0,0,0,0,0,0,0,0,-1,1070,1086,0,0
-147,-62,0,0,0,0,0,0,0,0,0,-1,1077,1086,0,0
-140,-62,0,0,0,0,0,0,0,0,0,-1,1084,1086,0,0
-133,-62,0,0,0,0,0,0,0,0,0,-1,1091,1086,0,0
-126,-62,0,0,0,0,0,0,0,0,0,-1,1098,1086,0,0
-119,-62,0,0,0,0,0,0,0,0,0,-1,1105,1086,0,0
-112,-62,0,0,0,0,0,0,0,0,0,-1,1112,1086,0,0
-105,-62,0,0,0,0,0,0,0,0,0,-1,1119,1086,0,0
-98,-62,0,0,0,0,0,0,0,0,0,-1,1126,1086,0,0
-91,-62,0,0,0,0,0,0,0,0,0,-1,1133,1086,0,0
-84,-62,0,0,0,0,0,0,0,0,0,-1,1140,1086,0,0
-77,-62,0,0,0,0,0,0,0,0,0,-1,1147,1086,0,0
-70,-62,0,0,0,0,0,0,0,0,0,-1,1154,1086,0,0
-63,-62,0,0,0,0,0,0,0,0,0,-1,1161,1086,0,0
-56,-62,0,0,0,0,0,0,0,0,0,-1,1168,1086,0,0
-49,-62,0,0,0,0,0,0,0,0,0,-1,1175,1086,0,0
-42,-62,0,0,0,0,0,0,0,0,0,-1,1182,1086,0,0
-35,-62,0,0,0,0,0,0,0,0,0,-1,1189,1086,0,0
-28,-62,0,0,0,0,0,0,0,0,0,-1,1196,1086,0,0
-21,-62,0,0,0,0,0,0,0,0,0,-1,1203,1086,0,0
-14,-62,0,0,0,0,0,0,0,0,0,-1,1210,1086,0,0
-7,-62,0,0,0,0,0,0,0,0,0,-1,1217,1086,0,0
0,-62,0,0,0,0,0,0,0,0,0,-1,1224,1086,0,0
7,-62,0,0,0,0,0,0,0,0,0,-1,1231,1086,0,0
14,-62,0,0,0,0,0,0,0,0,0,-1,1238,1086,0,0
21,-62,0,0,0,0,0,0,0,0,0,-1,1245,1086,0,0
28,-62,0,0,0,0,0,0,0,0,0,-1,1252,1086,0,0
35,-62,0,0,0,0,0,0,0,0,0,-1,1259,1086,0,0
42,-62,0,0,0,0,0,0,0,0,0,-1,1266,1086,0,0
49,-62,0,0,0,0,0,0,0,0,0,-1,1273,1086,0,0
56,-62,0,0,0,0,0,0,0,0,0,-1,1280,1086,0,0
63,-62,0,0,0,0,0,0,0,0,0,-1,1287,1086,0,0
70,-62,0,0,0,0,0,0,0,0,0,-1,1294,1086,0,0
77,-62,0,0,0,0,0,0,0,0,0,-1,1301,1086,0,0
84,-62,0,0,0,0,0,0,0,0,0,-1,1308,1086,0,0
91,-62,0,0,0,0,0,0,0,0,0,-1,1315,1086,0,0
98,-62,0,0,0,0,0,0,0,0,0,-1,1322,1086,0,0
105,-62,0,0,0,0,0,0,0,0,0,-1,1329,1086,0,0
112,-62,0,0,0,0,0,0,0,0,0,-1,1336,1086,0,0
119,-62,0,0,0,0,0,0,0,0,0,-1,1343,1086,0,0
126,-62,0,0,0,0,0,0,0,0,0,-1,1350,1086,0,0
133,-62,0,0,0,0,0,0,0,0,0,-1,1357,1086,0,0
140,-62,0,0,0,0,0,0,0,0,0,-1,1364,1086,0,0
147,-62,0,0,0,0,0,0,0,0,0,-1,1371,1086,0,0
154,-62,0,0,0,0,0,0,0,0,0,-1,1378,1086,0,0
161,-62,0,0,0,0,0,0,0,0,0,-1,1385,1086,0,0
168,-62,0,0,0,0,0,0,0,0,0,-1,1392,1086,0,0
175,-62,0,0,0,0,0,0,0,0,0,-1,1399,1086,0,0
182,-62,0,0,0,0,0,0,0,0,0,-1,1406,1086,0,0
189,-62,0,0,0,0,0,0,0,0,0,-1,1413,1086,0,0
196,-62,0,0,0,0,0,0,0,0,0,-1,1420,1086,0,0
203,-62,0,0,0,0,0,0,0,0,0,-1,1427,1086,0,0
210,-62,0,0,0,0,0,0,0,0,0,-1,1434,1086,0,0
217,-62,0,0,0,0,0,0,0,0,0,-1,1441,1086,0,0
224,-62,0,0,0,0,0,0,0,0,0,-1,1448,1086,0,0
231,-62,0,0,0,0,0,0,0,0,0,-1,1455,1086,0,0
238,-62,0,0,0,0,0,0,0,0,0,-1,1462,1086,0,0
245,-62,0,0,0,0,0,0,0,0,0,-1,1469,1086,0,0
252,-62,0,0,0,0,0,0,0,0,0,-1,1476,1086,0,0
259,-62,0,0,0,0,0,0,0,0,0,-1,1483,1086,0,0
266,-62,0,0,0,0,0,0,0,0,0,-1,1490,1086,0,0
273,-62,0,0,0,0,0,0,0,0,0,-1,1497,1086,0,0
280,-62,0,0,0,0,0,0,0,0,0,-1,1504,1086,0,0
287,-62,0,0,0,0,0,0,0,0,0,-1,1511,1086,0,0
294,-62,0,0,0,0,0,0,0,0,0,-1,1518,1086,0,0
301,-62,0,0,0,0,0,0,0,0,0,-1,1525,1086,0,0
308,-62,0,0,0,0,0,0,0,0,0,-1,1532,1086,0,0
315,-62,0,0,0,0,0,0,0,0,0,-1,1539,1086,0,0
322,-62,0,0,0,0,0,0,0,0,0,-1,1546,1086,0,0
329,-62,0,0,0,0,0,0,0,0,0,-1,1553,1086,0,0
336,-62,0,0,0,0,0,0,0,0,0,-1,1560,1086,0,0
343,-62,0,0,0,0,0,0,0,0,0,-1,1567,1086,0,0
350,-62,0,0,0,0,0,0,0,0,0,-1,1574,1086,0,0
357,-62,0,0,0,0,0,0,0,0,0,-1,1581,1086,0,0
364,-62,0,0,0,0,0,0,0,0,0,-1,1588,1086,0,0
371,-62,0,0,0,0,0,0,0,0,0,-1,1595,1086,0,0
378,-62,0,0,0,0,0,0,0,0,0,-1,1602,1086,0,0
385,-62,0,0,0,0,0,0,0,0,0,-1,1609,1086,0,0
392,-62,0,0,0,0,0,0,0,0,0,-1,1616,1086,0,0
399,-62,0,0,0,0,0,0,0,0,0,-1,1623,1086,0,0
406,-62,0,0,0,0,0,0,0,0,0,-1,1630,1086,0,0
413,-62,0,0,0,0,0,0,0,0,0,-1,1637,1086,0,0
420,-62,0,0,0,0,0,0,0,0,0,-1,1644,1086,0,0
427,-62,0,0,0,0,0,0,0,0,0,-1,1651,1086,0,0
434,-62,0,0,0,0,0,0,0,0,0,-1,1658,1086,0,0
441,-62,0,0,0,0,0,0,0,0,0,-1,1665,1086,0,0
448,-62,0,0,0,0,0,0,0,0,0,-1,1672,1086,0,0
455,-62,0,0,0,0,0,0,0,0,0,-1,1679,1086,0,0
462,-62,0,0,0,0,0,0,0,0,0,-1,1686,1086,0,0
469,-62,0,0,0,0,0,0,0,0,0,-1,1693,1086,0,0
476,-62,0,0,0,0,0,0,0,0,0,-1,1700,1086,0,0
483,-62,0,0,0,0,0,0,0,0,0,-1,1707,1086,0,0
490,-62,0,0,0,0,0,0,0,0,0,-1,1714,1086,0,0
497,-62,0,0,0,0,0,0,0,0,0,-1,1721,1086,0,0
504,-62,0,0,0,0,0,0,0,0,0,-1,1728,1086,0,0
511,-62,0,0,0,0,0,0,0,0,0,-1,1735,1086,0,0
518,-62,0,0,0,0,0,0,0,0,0,-1,1742,1086,0,0
525,-62,0,0,0,0,0,0,0,0,0,-1,1749,1086,0,0
532,-62,0,0,0,0,0,0,0,0,0,-1,1756,1086,0,0
539,-62,0,0,0,0,0,0,0,0,0,-1,1763,1086,0,0
546,-62,0,0,0,0,0,0,0,0,0,-1,1770,1086,0,0
553,-62,0,0,0,0,0,0,0,0,0,-1,1777,1086,0,0
560,-62,0,0,0,0,0,0,0,0,0,-1,1784,1086,0,0
567,-62,0,0,0,0,0,0,0,0,0,-1,1791,1086,0,0
574,-62,0,0,0,0,0,0,0,0,0,-1,1798,1086,0,0
581,-62,0,0,0,0,0,0,0,0,0,-1,1805,1086,0,0
588,-62,0,0,0,0,0,0,0,0,0,-1,1812,1086,0,0
595,-62,0,0,0,0,0,0,0,0,0,-1,1819,1086,0,0
602,-62,0,0,0,0,0,0,0,0,0,-1,1826,1086,0,0
609,-62,0,0,0,0,0,0,0,0,0,-1,1833,1086,0,0
616,-62,0,0,0,0,0,0,0,0,0,-1,1840,1086,0,0
623,-62,0,0,0,0,0,0,0,0,0,-1,1847,1086,0,0
630,-62,0,0,0,0,0,0,0,0,0,-1,1854,1086,0,0
637,-62,0,0,0,0,0,0,0,0,0,-1,1861,1086,0,0
644,-62,0,0,0,0,0,0,0,0,0,-1,1868,1086,0,0
651,-62,9.42273,1.29724,0.000921683,-0.0014104,0.00125208,0.00146659,-0.00195532,0.410482,0.00198235,0.0393964,1875,1086,9.42272,-1.2973
658,-62,9.58984,1.19971,0.000654002,-0.00114474,0.000261096,0.000691135,-0.00118187,0.141272,0.00109368,0.0407581,1882,1086,9.58981,-1.1997
665,-62,9.52136,1.24463,0.000456223,-0.000934833,-0.000153465,0.000472953,-0.000951562,-0.108583,0.000837774,0.0397929,1889,1086,9.52136,-1.2446
672,-62,9.48547,1.37549,0.00016342,-0.00083886,8.38516e-05,0.000170387,-0.000845826,0.0828931,0.000628427,0.0363162,1896,1086,9.48551,-1.37553
679,-62,9.5094,1.34851,-0.000355628,-0.000821411,0.000641971,9.43901e-05,-0.00127143,0.611393,0.000880771,0.0358798,1903,1086,9.50945,-1.34857
686,-62,9.58813,1.18164,-0.000907555,-0.000827159,0.00128217,0.000415443,-0.00215016,0.801069,0.00159011,0.0390247,1910,1086,9.58814,-1.18167
693,-62,9.60291,1.21582,-0.00141301,-0.000841629,0.00190896,0.000802896,-0.00305753,0.859676,0.00235212,0.0394412,1917,1086,9.60285,-1.21582
700,-62,9.63965,1.26575,-0.00189977,-0.000844901,0.00235351,0.00103955,-0.00378422,0.89563,0.00293143,0.0333362,1924,1086,9.63968,-1.26574
707,-62,9.59021,1.33301,-0.00225545,-0.000812987,0.0027488,0.00130762,-0.00437606,0.913696,0.00343718,0.0253064,1931,1086,9.59016,-1.33304
714,-62,9.58887,1.34106,-0.0024467,-0.000763303,0.00305503,0.00156386,-0.00477386,0.919819,0.00381232,0.0246656,1938,1086,9.58891,-1.34102
721,-62,9.58569,1.53711,-0.00252945,-0.000708646,0.00313536,0.00164581,-0.0048839,0.926696,0.0039214,0.0263849,1945,1086,9.58568,-1.53712
728,-62,9.43542,1.68823,-0.00253829,-0.000580856,0.0030056,0.00160136,-0.00472051,0.942799,0.00379513,0.0179259,1952,1086,9.4354,-1.68827
735,-62,9.42395,1.67786,-0.00203673,-0.00036489,0.00278556,0.00170747,-0.00410908,0.931168,0.00345229,0.0154171,1959,1086,9.42389,-1.67788
742,-62,9.41895,1.68677,-0.000814189,-0.000149201,0.00225539,0.00179807,-0.00276146,0.858582,0.00265196,0.0131483,1966,1086,9.41889,-1.68676
749,-62,9.4071,1.64734,0.00023856,0.000336904,0.0012063,0.00149504,-0.000919573,0.805768,0.00140721,0.0120414,1973,1086,9.40711,-1.6474
756,-62,9.38464,1.64868,0.000719165,0.000792031,0.000240277,0.000998622,0.000512574,0.86064,0.000576622,0.013536,1980,1086,9.38465,-1.64869
763,-62,9.40588,1.64075,0.00138514,0.00142205,-0.000948986,0.00235276,0.000454432,-0.795119,0.00144112,0.0140388,1987,1086,9.40585,-1.64074
770,-62,9.42212,1.6073,0.00212349,0.00214239,-0.00234588,0.00447884,-0.000212958,-0.787412,0.00305935,0.0113533,1994,1086,9.42207,-1.60724
777,-62,9.40881,1.57861,0.00244007,0.00298694,-0.00382967,0.00655292,-0.00112592,-0.821037,0.00478825,0.0132299,2001,1086,9.4088,-1.5786
784,-62,9.4386,1.59314,0.00184854,0.00394902,-0.00547603,0.00847462,-0.00267705,-0.880142,0.00672219,0.0266024,2008,1086,9.43864,-1.5931
791,-62,9.49316,1.62549,4.50135e-06,0.00509109,-0.0074626,0.0104319,-0.00533628,-0.949628,0.00926085,0.0417329,2015,1086,9.49321,-1.62554
798,-62,9.52795,1.68591,-0.00349351,0.00643374,-0.00983351,0.0124854,-0.00954513,-1.01912,0.012757,0.0437779,2022,1086,9.52795,-1.6859
805,-62,9.5509,1.76563,-0.0093357,0.00797743,-0.0125848,0.0145954,-0.0159537,-1.08666,0.0176433,0.0454149,2029,1086,9.55093,-1.76564
812,-62,9.56812,1.84998,-0.0186407,0.0097266,-0.0156149,0.016638,-0.0255521,-1.1541,0.024539,0.0499297,2036,1086,9.56809,-1.85
-700,-69,-7.59076,-1.5094,0,0,0,0,0,0,0,-1,524,1093,-7.59074,1.50944
-693,-69,-5.48926,0.217407,0,0,0,0,0,0,0,-1,531,1093,-5.48925,-0.217443
-686,-69,-5.16943,0.304077,0.0158287,-0.0028341,0.00131116,0.0159203,-0.00292576,0.0697983,0.0117113,0.0463782,538,1093,-5.16944,-0.304128
-679,-69,-4.95367,0.39624,0.0128504,-0.00161756,0.000404728,0.0128617,-0.00162887,0.0279451,0.00916578,0.0475028,545,1093,-4.95366,-0.396224
-672,-69,-4.64215,0.443726,0.0104849,-0.000869187,-0.000107525,0.0104859,-0.000870205,-0.0094691,0.00729797,0.0459719,552,1093,-4.64216,-0.443716
-665,-69,-4.17792,0.30603,0.00856794,-0.000394779,-0.00037777,0.00858383,-0.000410674,-0.0420496,0.00586424,0.044301,559,1093,-4.17793,-0.306085
-658,-69,-4.09082,0.377319,0.00692854,-8.99181e-05,-0.000480928,0.00696134,-0.00012272,-0.0680992,0.00468234,0.0433024,566,1093,-4.09081,-0.377291
-651,-69,-4.1261,0.741699,0.0055124,9.37534e-05,-0.000472842,0.00555335,5.28018e-05,-0.0863918,0.00368476,0.0303236,573,1093,-4.12611,-0.741677
-644,-69,-4.16162,0.752686,0.00412604,-9.95205e-05,-0.000649088,0.0042235,-0.000196979,-0.149034,0.00288357,0.00931965,580,1093,-4.16163,-0.752713
-637,-69,-4.16724,0.772827,0.00286596,-0.000275379,-0.000683224,0.00300812,-0.000417543,-0.20515,0.0021581,0.0124922,587,1093,-4.16723,-0.772797
-630,-69,-4.14423,0.786255,0.00215593,6.25769e-05,-0.00104103,0.00258549,-0.000366984,-0.391347,0.00185811,0.013444,594,1093,-4.14422,-0.786293
-623,-69,-4.12366,0.839355,0.00148731,0.00010927,-0.00142788,0.00238372,-0.00078714,-0.560604,0.00190648,0.0111729,601,1093,-4.12365,-0.839325
-616,-69,-4.12543,0.851074,0.000921107,3.86125e-05,-0.00165862,0.00219617,-0.00123645,-0.655393,0.00200748,0.011533,608,1093,-4.12544,-0.851094
-609,-69,-4.13116,0.845215,0.00042492,-7.18761e-05,-0.00197717,0.00216923,-0.00181619,-0.722909,0.00230399,0.0121959,615,1093,-4.13119,-0.845232
-602,-69,-4.13757,0.901367,2.25588e-05,-0.000150449,-0.00226015,0.00219786,-0.00232575,-0.766271,0.00261206,0.0150338,622,1093,-4.13756,-0.901372
-595,-69,-4.12555,0.93689,-0.000289297,2.26096e-05,-0.00242803,0.00229969,-0.00256638,-0.817469,0.00281083,0.0174171,629,1093,-4.12557,-0.936906
-588,-69,-4.15973,0.88208,-0.000498561,0.000214083,-0.00250743,0.00239038,-0.00267486,-0.855979,0.00292596,0.0194539,636,1093,-4.15973,-0.882101
-581,-69,-4.21246,0.799561,-0.000650175,0.000485814,-0.00250718,0.00248853,-0.00265289,-0.896792,0.00296891,0.0265974,643,1093,-4.21249,-0.799502
-574,-69,-4.23059,0.716553,-0.000796047,0.000848304,-0.0022659,0.00243658,-0.00238432,-0.959435,0.0027834,0.0316726,650,1093,-4.2306,-0.716578
-567,-69,-4.26367,0.740845,-0.00101712,0.00131562,-0.00185031,0.0023365,-0.002038,-1.06662,0.00252758,0.0358881,657,1093,-4.26367,-0.740797
-560,-69,-4.25598,0.782715,-0.00131953,0.00186606,-0.00126152,0.00230511,-0.00175859,-1.23587,0.00235324,0.0382489,664,1093,-4.25598,-0.782763
-553,-69,-4.28815,0.849609,-0.00176973,0.00247357,-0.000531608,0.00253915,-0.00183532,-1.44804,0.00253648,0.0388181,671,1093,-4.28814,-0.849616
-546,-69,-4.23047,0.781494,-0.00239005,0.00309998,0.00030063,0.0031164,-0.00240646,1.51625,0.0031974,0.0350461,678,1093,-4.23047,-0.781465
-539,-69,-4.3299,0.780518,-0.00317903,0.00368575,0.00108287,0.00385251,-0.0033458,1.418,0.00415938,0.0379062,685,1093,-4.32989,-0.780549
-532,-69,-4.13739,0.874146,-0.00437537,0.00404928,0.00119037,0.00421424,-0.00454033,1.43309,0.00505562,0.0418726,692,1093,-4.1374,-0.874172
-525,-69,0,0,0,0,0,0,0,0,0,-1,699,1093,0,0
-518,-69,0,0,0,0,0,0,0,0,0,-1,706,1093,0,0
-511,-69,0,0,0,0,0,0,0,0,0,-1,713,1093,0,0
-504,-69,0,0,0,0,0,0,0,0,0,-1,720,1093,0,0
-497,-69,0,0,0,0,0,0,0,0,0,-1,727,1093,0,0
-490,-69,0,0,0,0,0,0,0,0,0,-1,734,1093,0,0
-483,-69,0,0,0,0,0,0,0,0,0,-1,741,1093,0,0
-476,-69,0,0,0,0,0,0,0,0,0,-1,748,1093,0,0
-469,-69,0,0,0,0,0,0,0,0,0,-1,755,1093,0,0
-462,-69,0,0,0,0,0,0,0,0,0,-1,762,1093,0,0
-455,-69,0,0,0,0,0,0,0,0,0,-1,769,1093,0,0
-448,-69,0,0,0,0,0,0,0,0,0,-1,776,1093,0,0
-441,-69,0,0,0,0,0,0,0,0,0,-1,783,1093,0,0
-434,-69,0,0,0,0,0,0,0,0,0,-1,790,1093,0,0
-427,-69,0,0,0,0,0,0,0,0,0,-1,797,1093,0,0
-420,-69,0,0,0,0,0,0,0,0,0,-1,804,1093,0,0
-413,-69,0,0,0,0,0,0,0,0,0,-1,811,1093,0,0
-406,-69,0,0,0,0,0,0,0,0,0,-1,818,1093,0,0
-399,-69,0,0,0,0,0,0,0,0,0,-1,825,1093,0,0
-392,-69,0,0,0,0,0,0,0,0,0,-1,832,1093,0,0
-385,-69,0,0,0,0,0,0,0,0,0,-1,839,1093,0,0
-378,-69,0,0,0,0,0,0,0,0,0,-1,846,1093,0,0
-371,-69,0,0,0,0,0,0,0,0,0,-1,853,1093,0,0
-364,-69,0,0,0,0,0,0,0,0,0,-1,860,1093,0,0
-357,-69,0,0,0,0,0,0,0,0,0,-1,867,1093,0,0
-350,-69,0,0,0,0,0,0,0,0,0,-1,874,1093,0,0
-343,-69,0,0,0,0,0,0,0,0,0,-1,881,1093,0,0
-336,-69,0,0,0,0,0,0,0,0,0,-1,888,1093,0,0
-329,-69,0,0,0,0,0,0,0,0,0,-1,895,1093,0,0
-322,-69,0,0,0,0,0,0,0,0,0,-1,902,1093,0,0
-315,-69,0,0,0,0,0,0,0,0,0,-1,909,1093,0,0
-308,-69,0,0,0,0,0,0,0,0,0,-1,916,1093,0,0
-301,-69,0,0,0,0,0,0,0,0,0,-1,923,1093,0,0
-294,-69,0,0,0,0,0,0,0,0,0,-1,930,1093,0,0
-287,-69,0,0,0,0,0,0,0,0,0,-1,937,1093,0,0
-280,-69,0,0,0,0,0,0,0,0,0,-1,944,1093,0,0
-273,-69,0,0,0,0,0,0,0,0,0,-1,951,1093,0,0
-266,-69,0,0,0,0,0,0,0,0,0,-1,958,1093,0,0
-259,-69,0,0,0,0,0,0,0,0,0,-1,965,1093,0,0
-252,-69,0,0,0,0,0,0,0,0,0,-1,972,1093,0,0
-245,-69,0,0,0,0,0,0,0,0,0,-1,979,1093,0,0
-238,-69,0,0,0,0,0,0,0,0,0,-1,986,1093,0,0
-231,-69,0,0,0,0,0,0,0,0,0,-1,993,1093,0,0
-224,-69,0,0,0,0,0,0,0,0,0,-1,1000,1093,0,0
-217,-69,0,0,0,0,0,0,0,0,0,-1,1007,1093,0,0
-210,-69,0,0,0,0,0,0,0,0,0,-1,1014,1093,0,0
-203,-69,0,0,0,0,0,0,0,0,0,-1,1021,1093,0,0
-196,-69,0,0,0,0,0,0,0,0,0,-1,1028,1093,0,0
-189,-69,0,0,0,0,0,0,0,0,0,-1,1035,1093,0,0
-182,-69,0,0,0,0,0,0,0,0,0,-1,1042,1093,0,0
-175,-69,0,0,0,0,0,0,0,0,0,-1,1049,1093,0,0
-168,-69,0,0,0,0,0,0,0,0,0,-1,1056,1093,0,0
-161,-69,0,0,0,0,0,0,0,0,0,-1,1063,1093,0,0
-154,-69,0,0,0,0,0,0,0,0,0,-1,1070,1093,0,0
-147,-69,0,0,0,0,0,0,0,0,0,-1,1077,1093,0,0
-140,-69,0,0,0,0,0,0,0,0,0,-1,1084,1093,0,0
-133,-69,0,0,0,0,0,0,0,0,0,-1,1091,1093,0,0
-126,-69,0,0,0,0,0,0,0,0,0,-1,1098,1093,0,0
-119,-69,0,0,0,0,0,0,0,0,0,-1,1105,1093,0,0
-112,-69,0,0,0,0,0,0,0,0,0,-1,1112,1093,0,0
-105,-69,0,0,0,0,0,0,0,0,0,-1,1119,1093,0,0
-98,-69,0,0,0,0,0,0,0,0,0,-1,1126,1093,0,0
-91,-69,0,0,0,0,0,0,0,0,0,-1,1133,1093,0,0
-84,-69,0,0,0,0,0,0,0,0,0,-1,1140,1093,0,0
-77,-69,0,0,0,0,0,0,0,0,0,-1,1147,1093,0,0
-70,-69,0,0,0,0,0,0,0,0,0,-1,1154,1093,0,0
-63,-69,0,0,0,0,0,0,0,0,0,-1,1161,1093,0,0
-56,-69,0,0,0,0,0,0,0,0,0,-1,1168,1093,0,0
-49,-69,0,0,0,0,0,0,0,0,0,-1,1175,1093,0,0
-42,-69,0,0,0,0,0,0,0,0,0,-1,1182,1093,0,0
-35,-69,0,0,0,0,0,0,0,0,0,-1,1189,1093,0,0
-28,-69,0,0,0,0,0,0,0,0,0,-1,1196,1093,0,0
-21,-69,0,0,0,0,0,0,0,0,0,-1,1203,1093,0,0
-14,-69,0,0,0,0,0,0,0,0,0,-1,1210,1093,0,0
-7,-69,0,0,0,0,0,0,0,0,0,-1,1217,1093,0,0
0,-69,0,0,0,0,0,0,0,0,0,-1,1224,1093,0,0
7,-69,0,0,0,0,0,0,0,0,0,-1,1231,1093,0,0
14,-69,0,0,0,0,0,0,0,0,0,-1,1238,1093,0,0
21,-69,0,0,0,0,0,0,0,0,0,-1,1245,1093,0,0
28,-69,0,0,0,0,0,0,0,0,0,-1,1252,1093,0,0
35,-69,0,0,0,0,0,0,0,0,0,-1,1259,1093,0,0
42,-69,0,0,0,0,0,0,0,0,0,-1,1266,1093,0,0
49,-69,0,0,0,0,0,0,0,0,0,-1,1273,1093,0,0
56,-69,0,0,0,0,0,0,0,0,0,-1,1280,1093,0,0
63,-69,0,0,0,0,0,0,0,0,0,-1,1287,1093,0,0
70,-69,0,0,0,0,0,0,0,0,0,-1,1294,1093,0,0
77,-69,0,0,0,0,0,0,0,0,0,-1,1301,1093,0,0
84,-69,0,0,0,0,0,0,0,0,0,-1,1308,1093,0,0
91,-69,0,0,0,0,0,0,0,0,0,-1,1315,1093,0,0
98,-69,0,0,0,0,0,0,0,0,0,-1,1322,1093,0,0
105,-69,0,0,0,0,0,0,0,0,0,-1,1329,1093,0,0
112,-69,0,0,0,0,0,0,0,0,0,-1,1336,1093,0,0
119,-69,0,0,0,0,0,0,0,0,0,-1,1343,1093,0,0
126,-69,0,0,0,0,0,0,0,0,0,-1,1350,1093,0,0
133,-69,0,0,0,0,0,0,0,0,0,-1,1357,1093,0,0
140,-69,0,0,0,0,0,0,0,0,0,-1,1364,1093,0,0
147,-69,0,0,0,0,0,0,0,0,0,-1,1371,1093,0,0
154,-69,0,0,0,0,0,0,0,0,0,-1,1378,1093,0,0
161,-69,0,0,0,0,0,0,0,0,0,-1,1385,1093,0,0
168,-69,0,0,0,0,0,0,0,0,0,-1,1392,1093,0,0
175,-69,0,0,0,0,0,0,0,0,0,-1,1399,1093,0,0
182,-69,0,0,0,0,0,0,0,0,0,-1,1406,1093,0,0
189,-69,0,0,0,0,0,0,0,0,0,-1,1413,1093,0,0
196,-69,0,0,0,0,0,0,0,0,0,-1,1420,1093,0,0
203,-69,0,0,0,0,0,0,0,0,0,-1,1427,1093,0,0
210,-69,0,0,0,0,0,0,0,0,0,-1,1434,1093,0,0
217,-69,0,0,0,0,0,0,0,0,0,-1,1441,1093,0,0
224,-69,0,0,0,0,0,0,0,0,0,-1,1448,1093,0,0
231,-69,0,0,0,0,0,0,0,0,0,-1,1455,1093,0,0
238,-69,0,0,0,0,0,0,0,0,0,-1,1462,1093,0,0
245,-69,0,0,0,0,0,0,0,0,0,-1,1469,1093,0,0
252,-69,0,0,0,0,0,0,0,0,0,-1,1476,1093,0,0
259,-69,0,0,0,0,0,0,0,0,0,-1,1483,1093,0,0
266,-69,0,0,0,0,0,0,0,0,0,-1,1490,1093,0,0
273,-69,0,0,0,0,0,0,0,0,0,-1,1497,1093,0,0
280,-69,0,0,0,0,0,0,0,0,0,-1,1504,1093,0,0
287,-69,0,0,0,0,0,0,0,0,0,-1,1511,1093,0,0
294,-69,0,0,0,0,0,0,0,0,0,-1,1518,1093,0,0
301,-69,0,0,0,0,0,0,0,0,0,-1,1525,1093,0,0
308,-69,0,0,0,0,0,0,0,0,0,-1,1532,1093,0,0
315,-69,0,0,0,0,0,0,0,0,0,-1,1539,1093,0,0
322,-69,0,0,0,0,0,0,0,0,0,-1,1546,1093,0,0
329,-69,0,0,0,0,0,0,0,0,0,-1,1553,1093,0,0
336,-69,0,0,0,0,0,0,0,0,0,-1,1560,1093,0,0
343,-69,0,0,0,0,0,0,0,0,0,-1,1567,1093,0,0
350,-69,0,0,0,0,0,0,0,0,0,-1,1574,1093,0,0
357,-69,0,0,0,0,0,0,0,0,0,-1,1581,1093,0,0
364,-69,0,0,0,0,0,0,0,0,0,-1,1588,1093,0,0
371,-69,0,0,0,0,0,0,0,0,0,-1,1595,1093,0,0
378,-69,0,0,0,0,0,0,0,0,0,-1,1602,1093,0,0
385,-69,0,0,0,0,0,0,0,0,0,-1,1609,1093,0,0
392,-69,0,0,0,0,0,0,0,0,0,-1,1616,1093,0,0
399,-69,0,0,0,0,0,0,0,0,0,-1,1623,1093,0,0
406,-69,0,0,0,0,0,0,0,0,0,-1,1630,1093,0,0
413,-69,0,0,0,0,0,0,0,0,0,-1,1637,1093,0,0
420,-69,0,0,0,0,0,0,0,0,0,-1,1644,1093,0,0
427,-69,0,0,0,0,0,0,0,0,0,-1,1651,1093,0,0
434,-69,0,0,0,0,0,0,0,0,0,-1,1658,1093,0,0
441,-69,0,0,0,0,0,0,0,0,0,-1,1665,1093,0,0
448,-69,0,0,0,0,0,0,0,0,0,-1,1672,1093,0,0
455,-69,0,0,0,0,0,0,0,0,0,-1,1679,1093,0,0
462,-69,0,0,0,0,0,0,0,0,0,-1,1686,1093,0,0
469,-69,0,0,0,0,0,0,0,0,0,-1,1693,1093,0,0
476,-69,0,0,0,0,0,0,0,0,0,-1,1700,1093,0,0
483,-69,0,0,0,0,0,0,0,0,0,-1,1707,1093,0,0
490,-69,0,0,0,0,0,0,0,0,0,-1,1714,1093,0,0
497,-69,0,0,0,0,0,0,0,0,0,-1,1721,1093,0,0
504,-69,0,0,0,0,0,0,0,0,0,-1,1728,1093,0,0
511,-69,0,0,0,0,0,0,0,0,0,-1,1735,1093,0,0
518,-69,0,0,0,0,0,0,0,0,0,-1,1742,1093,0,0
525,-69,0,0,0,0,0,0,0,0,0,-1,1749,1093,0,0
532,-69,0,0,0,0,0,0,0,0,0,-1,1756,1093,0,0
539,-69,0,0,0,0,0,0,0,0,0,-1,1763,1093,0,0
546,-69,0,0,0,0,0,0,0,0,0,-1,1770,1093,0,0
553,-69,0,0,0,0,0,0,0,0,0,-1,1777,1093,0,0
560,-69,0,0,0,0,0,0,0,0,0,-1,1784,1093,0,0
567,-69,0,0,0,0,0,0,0,0,0,-1,1791,1093,0,0
574,-69,0,0,0,0,0,0,0,0,0,-1,1798,1093,0,0
581,-69,0,0,0,0,0,0,0,0,0,-1,1805,1093,0,0
588,-69,0,0,0,0,0,0,0,0,0,-1,1812,1093,0,0
595,-69,0,0,0,0,0,0,0,0,0,-1,1819,1093,0,0
602,-69,0,0,0,0,0,0,0,0,0,-1,1826,1093,0,0
609,-69,0,0,0,0,0,0,0,0,0,-1,1833,1093,0,0
616,-69,0,0,0,0,0,0,0,0,0,-1,1840,1093,0,0
623,-69,0,0,0,0,0,0,0,0,0,-1,1847,1093,0,0
630,-69,0,0,0,0,0,0,0,0,0,-1,1854,1093,0,0
637,-69,0,0,0,0,0,0,0,0,0,-1,1861,1093,0,0
644,-69,0,0,0,0,0,0,0,0,0,-1,1868,1093,0,0
651,-69,9.67529,1.17517,0.0025693,-0.000486095,0.00136942,0.00309323,-0.00101003,0.36541,0.00246869,0.0410475,1875,1093,9.67524,-1.17519
658,-69,9.8302,1.19263,0.0018371,-0.000535855,0.000348145,0.00188712,-0.000585878,0.142708,0.00149222,0.0441161,1882,1093,9.83014,-1.19264
665,-69,9.6969,1.40881,0.0012815,-0.000607855,-8.0598e-05,0.00128494,-0.000611287,-0.0425558,0.00111758,0.0433075,1889,1093,9.69689,-1.40884
672,-69,9.44934,1.46753,0.00066835,-0.000748529,0.00016508,0.000687329,-0.000767508,0.114467,0.000840376,0.0376032,1896,1093,9.44936,-1.46747
679,-69,9.43909,1.32056,-8.58963e-05,-0.000905913,0.000720346,0.000332954,-0.00132476,0.526673,0.00101257,0.0368215,1903,1093,9.43907,-1.32061
686,-69,9.59167,1.14673,-0.000804925,-0.00103137,0.00135653,0.000443101,-0.0022794,0.743761,0.00168681,0.0388913,1910,1093,9.59166,-1.14674
693,-69,9.58606,1.11865,-0.00143012,-0.00111702,0.00198299,0.000715594,-0.00326273,0.82479,0.00244879,0.0374856,1917,1093,9.58606,-1.11868
700,-69,9.58826,1.19873,-0.00201222,-0.00115314,0.00240896,0.000864275,-0.00402963,0.873626,0.00301607,0.0300667,1924,1093,9.58822,-1.19875
707,-69,9.56396,1.26245,-0.0024358,-0.0011336,0.00280104,0.00109102,-0.00466042,0.899595,0.00352732,0.0230528,1931,1093,9.56395,-1.26241
714,-69,9.60291,1.33752,-0.00265195,-0.00107554,0.00311808,0.00135242,-0.00507991,0.909197,0.00391604,0.0235069,1938,1093,9.60289,-1.33753
721,-69,9.60547,1.55981,-0.00272311,-0.000986628,0.00319693,0.00145786,-0.00516761,0.917993,0.00402013,0.0325632,1945,1093,9.60549,-1.55984
728,-69,9.45459,1.6637,-0.00269354,-0.000803292,0.00304435,0.00143927,-0.0049361,0.935907,0.00386097,0.0162194,1952,1093,9.45462,-1.66365
735,-69,9.41467,1.67004,-0.00213122,-0.000524153,0.00280748,0.00159252,-0.0042479,0.924778,0.0034862,0.0135538,1959,1093,9.41468,-1.67003
742,-69,9.42224,1.66626,-0.000813472,-0.000198854,0.00230781,0.00182202,-0.00283435,0.851589,0.00270945,0.0113045,1966,1093,9.42221,-1.66632
749,-69,9.39111,1.65137,0.000367785,0.000420737,0.00130262,0.00169715,-0.000908624,0.795559,0.00152723,0.0138748,1973,1093,9.39112,-1.65132
756,-69,9.39368,1.65173,0.000976218,0.000978256,0.000397006,0.00137424,0.00058023,0.786681,0.000796614,0.0148847,1980,1093,9.39363,-1.6517
763,-69,9.37622,1.62585,0.00176424,0.00163668,-0.000707546,0.00241088,0.000990047,-0.740447,0.00139931,0.014851,1987,1093,9.37628,-1.62586
770,-69,9.37781,1.59485,0.00269367,0.00243953,-0.00199639,0.00456703,0.000566168,-0.753615,0.00287461,0.0146216,1994,1093,9.37781,-1.59486
777,-69,9.38416,1.56921,0.00322884,0.00336611,-0.0033164,0.00661458,-1.96311e-05,-0.795744,0.00441628,0.0195567,2001,1093,9.38416,-1.56921
784,-69,9.46533,1.6676,0.00291398,0.00440969,-0.00474608,0.00846648,-0.0011428,-0.863542,0.00606127,0.0317953,2008,1093,9.46532,-1.66761
791,-69,10.1759,1.68848,0.00140853,0.00561222,-0.00646619,0.0103096,-0.00328884,-0.942537,0.00819243,0.0458945,2015,1093,10.1759,-1.68845
798,-69,10.8461,1.58801,-0.00169124,0.00697316,-0.00850999,0.0121902,-0.00690828,-1.02084,0.0111662,0.0473133,2022,1093,10.8461,-1.58807
805,-69,9.40698,1.58374,-0.0070642,0.00846522,-0.0108815,0.0140683,-0.0126673,-1.09528,0.0154429,0.0467448,2029,1093,9.40702,-1.58371
812,-69,9.73596,1.59546,0,0,0,0,0,0,0,-1,2036,1093,9.73598,-1.59552
-700,-76,0,0,0,0,0,0,0,0,0,-1,524,1100,0,0
-693,-76,-5.85602,0.907715,0,0,0,0,0,0,0,-1,531,1100,-5.85601,-0.907733
-686,-76,-4.92889,0.709473,0,0,0,0,0,0,0,-1,538,1100,-4.92889,-0.709493
-679,-76,-4.72479,0.311646,0,0,0,0,0,0,0,-1,545,1100,-4.72481,-0.311675
-672,-76,-4.40753,0.403564,0.0136646,-0.00470009,-0.00203235,0.0138868,-0.00492231,-0.108911,0.0112631,0.0480567,552,1100,-4.40751,-0.403548
-665,-76,-3.99915,0.678345,0.0112565,-0.00374481,-0.00220781,0.0115746,-0.00406299,-0.143132,0.00936917,0.0494556,559,1100,-3.99914,-0.678318
-658,-76,-4.05286,0.698975,0.00912238,-0.00281478,-0.00211771,0.00948694,-0.00317934,-0.170477,0.00760913,0.0447318,566,1100,-4.05285,-0.699014
-651,-76,-4.09857,0.742554,0.00723677,-0.0019941,-0.00186107,0.00759786,-0.00235519,-0.191643,0.00600625,0.0256986,573,1100,-4.09858,-0.742507
-644,-76,-4.11163,0.765259,0.00547782,-0.00157325,-0.00171782,0.00587406,-0.00196948,-0.226698,0.0047118,0.00950193,580,1100,-4.11164,-0.765241
-637,-76,-4.12982,0.770874,0.00388907,-0.00125954,-0.00153738,0.0043132,-0.00168366,-0.269179,0.00357151,0.0135322,587,1100,-4.12985,-0.770858
-630,-76,-4.12402,0.79541,0.00275633,-0.000610486,-0.00171869,0.00347869,-0.00133285,-0.397884,0.00286855,0.0137944,594,1100,-4.124,-0.795403
-623,-76,-4.09863,0.819702,0.00183505,-0.000391311,-0.00194551,0.00296334,-0.00151959,-0.525541,0.00263258,0.0119279,601,1100,-4.09862,-0.81975
-616,-76,-4.10431,0.836426,0.00106527,-0.000229628,-0.0020116,0.00253105,-0.00169541,-0.629705,0.00245599,0.0111191,608,1100,-4.10433,-0.836447
-609,-76,-4.1272,0.862915,0.00037015,-0.000207616,-0.00221476,0.00231479,-0.00215226,-0.720547,0.00257962,0.0129754,615,1100,-4.12717,-0.862882
-602,-76,-4.11768,0.922241,-0.000150915,-0.000282195,-0.00244219,0.00222652,-0.00265963,-0.771963,0.00282471,0.0164917,622,1100,-4.1177,-0.922258
-595,-76,-4.10846,0.95105,-0.000552886,-0.000159898,-0.00258734,0.0022384,-0.00295118,-0.823298,0.00300561,0.0191318,629,1100,-4.10845,-0.951046
-588,-76,-4.14319,0.863159,-0.000801116,2.50159e-05,-0.00267074,0.00231445,-0.00309055,-0.862122,0.00313128,0.0210498,636,1100,-4.14322,-0.863145
-581,-76,-4.17572,0.650879,-0.000950125,0.000280479,-0.0026757,0.00241072,-0.00308036,-0.898413,0.00317812,0.02524,643,1100,-4.17574,-0.650875
-574,-76,-4.19275,0.521729,-0.00108692,0.000633638,-0.00242556,0.00234696,-0.00280025,-0.955814,0.00297558,0.0330592,650,1100,-4.19277,-0.521692
-567,-76,-4.17773,0.541504,-0.00127454,0.00111105,-0.0019958,0.00224333,-0.00240682,-1.05474,0.00268532,0.0387786,657,1100,-4.17775,-0.541451
-560,-76,-3.98755,0.562134,-0.00149952,0.00169556,-0.00136774,0.00220108,-0.00200503,-1.21677,0.00242928,0.0411829,664,1100,-3.98753,-0.562129
-553,-76,-4.01044,0.525757,-0.0018091,0.00236616,-0.000569174,0.00244236,-0.0018853,-1.43771,0.00250547,0.0445258,671,1100,-4.01044,-0.525805
-546,-76,-4.15063,0.666504,-0.00220543,0.00309383,0.000365887,0.00311898,-0.00223058,1.50219,0.00310273,0.0420047,678,1100,-4.15064,-0.666538
-539,-76,-4.30493,0.758667,-0.00265305,0.00382742,0.00130758,0.00408131,-0.00290694,1.37902,0.00405361,0.0402367,685,1100,-4.30491,-0.758689
-532,-76,-4.21521,0.634521,-0.00338302,0.00438845,0.00164415,0.00472198,-0.00371654,1.37066,0.00488349,0.03975,692,1100,-4.21518,-0.634552
-525,-76,0,0,0,0,0,0,0,0,0,-1,699,1100,0,0
-518,-76,0,0,0,0,0,0,0,0,0,-1,706,1100,0,0
-511,-76,0,0,0,0,0,0,0,0,0,-1,713,1100,0,0
-504,-76,0,0,0,0,0,0,0,0,0,-1,720,1100,0,0
-497,-76,0,0,0,0,0,0,0,0,0,-1,727,1100,0,0
-490,-76,0,0,0,0,0,0,0,0,0,-1,734,1100,0,0
-483,-76,0,0,0,0,0,0,0,0,0,-1,741,1100,0,0
-476,-76,0,0,0,0,0,0,0,0,0,-1,748,1100,0,0
-469,-76,0,0,0,0,0,0,0,0,0,-1,755,1100,0,0
-462,-76,0,0,0,0,0,0,0,0,0,-1,762,1100,0,0
-455,-76,0,0,0,0,0,0,0,0,0,-1,769,1100,0,0
-448,-76,0,0,0,0,0,0,0,0,0,-1,776,1100,0,0
-441,-76,0,0,0,0,0,0,0,0,0,-1,783,1100,0,0
-434,-76,0,0,0,0,0,0,0,0,0,-1,790,1100,0,0
-427,-76,0,0,0,0,0,0,0,0,0,-1,797,1100,0,0
-420,-76,0,0,0,0,0,0,0,0,0,-1,804,1100,0,0
-413,-76,0,0,0,0,0,0,0,0,0,-1,811,1100,0,0
-406,-76,0,0,0,0,0,0,0,0,0,-1,818,1100,0,0
-399,-76,0,0,0,0,0,0,0,0,0,-1,825,1100,0,0
-392,-76,0,0,0,0,0,0,0,0,0,-1,832,1100,0,0
-385,-76,0,0,0,0,0,0,0,0,0,-1,839,1100,0,0
-378,-76,0,0,0,0,0,0,0,0,0,-1,846,1100,0,0
-371,-76,0,0,0,0,0,0,0,0,0,-1,853,1100,0,0
-364,-76,0,0,0,0,0,0,0,0,0,-1,860,1100,0,0
-357,-76,0,0,0,0,0,0,0,0,0,-1,867,1100,0,0
-350,-76,0,0,0,0,0,0,0,0,0,-1,874,1100,0,0
-343,-76,0,0,0,0,0,0,0,0,0,-1,881,1100,0,0
-336,-76,0,0,0,0,0,0,0,0,0,-1,888,1100,0,0
-329,-76,0,0,0,0,0,0,0,0,0,-1,895,1100,0,0
-322,-76,0,0,0,0,0,0,0,0,0,-1,902,1100,0,0
-315,-76,0,0,0,0,0,0,0,0,0,-1,909,1100,0,0
-308,-76,0,0,0,0,0,0,0,0,0,-1,916,1100,0,0
-301,-76,0,0,0,0,0,0,0,0,0,-1,923,1100,0,0
-294,-76,0,0,0,0,0,0,0,0,0,-1,930,1100,0,0
-287,-76,0,0,0,0,0,0,0,0,0,-1,937,1100,0,0
-280,-76,0,0,0,0,0,0,0,0,0,-1,944,1100,0,0
-273,-76,0,0,0,0,0,0,0,0,0,-1,951,1100,0,0
-266,-76,0,0,0,0,0,0,0,0,0,-1,958,1100,0,0
-259,-76,0,0,0,0,0,0,0,0,0,-1,965,1100,0,0
-252,-76,0,0,0,0,0,0,0,0,0,-1,972,1100,0,0
-245,-76,0,0,0,0,0,0,0,0,0,-1,979,1100,0,0
-238,-76,0,0,0,0,0,0,0,0,0,-1,986,1100,0,0
-231,-76,0,0,0,0,0,0,0,0,0,-1,993,1100,0,0
-224,-76,0,0,0,0,0,0,0,0,0,-1,1000,1100,0,0
-217,-76,0,0,0,0,0,0,0,0,0,-1,1007,1100,0,0
-210,-76,0,0,0,0,0,0,0,0,0,-1,1014,1100,0,0
-203,-76,0,0,0,0,0,0,0,0,0,-1,1021,1100,0,0
-196,-76,0,0,0,0,0,0,0,0,0,-1,1028,1100,0,0
-189,-76,0,0,0,0,0,0,0,0,0,-1,1035,1100,0,0
-182,-76,0,0,0,0,0,0,0,0,0,-1,1042,1100,0,0
-175,-76,0,0,0,0,0,0,0,0,0,-1,1049,1100,0,0
-168,-76,0,0,0,0,0,0,0,0,0,-1,1056,1100,0,0
-161,-76,0,0,0,0,0,0,0,0,0,-1,1063,1100,0,0
-154,-76,0,0,0,0,0,0,0,0,0,-1,1070,1100,0,0
-147,-76,0,0,0,0,0,0,0,0,0,-1,1077,1100,0,0
-140,-76,0,0,0,0,0,0,0,0,0,-1,1084,1100,0,0
-133,-76,0,0,0,0,0,0,0,0,0,-1,1091,1100,0,0
-126,-76,0,0,0,0,0,0,0,0,0,-1,1098,1100,0,0
-119,-76,0,0,0,0,0,0,0,0,0,-1,1105,1100,0,0
-112,-76,0,0,0,0,0,0,0,0,0,-1,1112,1100,0,0
-105,-76,0,0,0,0,0,0,0,0,0,-1,1119,1100,0,0
-98,-76,0,0,0,0,0,0,0,0,0,-1,1126,1100,0,0
-91,-76,0,0,0,0,0,0,0,0,0,-1,1133,1100,0,0
-84,-76,0,0,0,0,0,0,0,0,0,-1,1140,1100,0,0
-77,-76,0,0,0,0,0,0,0,0,0,-1,1147,1100,0,0
-70,-76,0,0,0,0,0,0,0,0,0,-1,1154,1100,0,0
-63,-76,0,0,0,0,0,0,0,0,0,-1,1161,1100,0,0
-56,-76,0,0,0,0,0,0,0,0,0,-1,1168,1100,0,0
-49,-76,0,0,0,0,0,0,0,0,0,-1,1175,1100,0,0
-42,-76,0,0,0,0,0,0,0,0,0,-1,1182,1100,0,0
-35,-76,0,0,0,0,0,0,0,0,0,-1,1189,1100,0,0
-28,-76,0,0,0,0,0,0,0,0,0,-1,1196,1100,0,0
-21,-76,0,0,0,0,0,0,0,0,0,-1,1203,1100,0,0
-14,-76,0,0,0,0,0,0,0,0,0,-1,1210,1100,0,0
-7,-76,0,0,0,0,0,0,0,0,0,-1,1217,1100,0,0
0,-76,0,0,0,0,0,0,0,0,0,-1,1224,1100,0,0
7,-76,0,0,0,0,0,0,0,0,0,-1,1231,1100,0,0
14,-76,0,0,0,0,0,0,0,0,0,-1,1238,1100,0,0
21,-76,0,0,0,0,0,0,0,0,0,-1,1245,1100,0,0
28,-76,0,0,0,0,0,0,0,0,0,-1,1252,1100,0,0
35,-76,0,0,0,0,0,0,0,0,0,-1,1259,1100,0,0
42,-76,0,0,0,0,0,0,0,0,0,-1,1266,1100,0,0
49,-76,0,0,0,0,0,0,0,0,0,-1,1273,1100,0,0
56,-76,0,0,0,0,0,0,0,0,0,-1,1280,1100,0,0
63,-76,0,0,0,0,0,0,0,0,0,-1,1287,1100,0,0
70,-76,0,0,0,0,0,0,0,0,0,-1,1294,1100,0,0
77,-76,0,0,0,0,0,0,0,0,0,-1,1301,1100,0,0
84,-76,0,0,0,0,0,0,0,0,0,-1,1308,1100,0,0
91,-76,0,0,0,0,0,0,0,0,0,-1,1315,1100,0,0
98,-76,0,0,0,0,0,0,0,0,0,-1,1322,1100,0,0
105,-76,0,0,0,0,0,0,0,0,0,-1,1329,1100,0,0
112,-76,0,0,0,0,0,0,0,0,0,-1,1336,1100,0,0
119,-76,0,0,0,0,0,0,0,0,0,-1,1343,1100,0,0
126,-76,0,0,0,0,0,0,0,0,0,-1,1350,1100,0,0
133,-76,0,0,0,0,0,0,0,0,0,-1,1357,1100,0,0
140,-76,0,0,0,0,0,0,0,0,0,-1,1364,1100,0,0
147,-76,0,0,0,0,0,0,0,0,0,-1,1371,1100,0,0
154,-76,0,0,0,0,0,0,0,0,0,-1,1378,1100,0,0
161,-76,0,0,0,0,0,0,0,0,0,-1,1385,1100,0,0
168,-76,0,0,0,0,0,0,0,0,0,-1,1392,1100,0,0
175,-76,0,0,0,0,0,0,0,0,0,-1,1399,1100,0,0
182,-76,0,0,0,0,0,0,0,0,0,-1,1406,1100,0,0
189,-76,0,0,0,0,0,0,0,0,0,-1,1413,1100,0,0
196,-76,0,0,0,0,0,0,0,0,0,-1,1420,1100,0,0
203,-76,0,0,0,0,0,0,0,0,0,-1,1427,1100,0,0
210,-76,0,0,0,0,0,0,0,0,0,-1,1434,1100,0,0
217,-76,0,0,0,0,0,0,0,0,0,-1,1441,1100,0,0
224,-76,0,0,0,0,0,0,0,0,0,-1,1448,1100,0,0
231,-76,0,0,0,0,0,0,0,0,0,-1,1455,1100,0,0
238,-76,0,0,0,0,0,0,0,0,0,-1,1462,1100,0,0
245,-76,0,0,0,0,0,0,0,0,0,-1,1469,1100,0,0
252,-76,0,0,0,0,0,0,0,0,0,-1,1476,1100,0,0
259,-76,0,0,0,0,0,0,0,0,0,-1,1483,1100,0,0
266,-76,0,0,0,0,0,0,0,0,0,-1,1490,1100,0,0
273,-76,0,0,0,0,0,0,0,0,0,-1,1497,1100,0,0
280,-76,0,0,0,0,0,0,0,0,0,-1,1504,1100,0,0
287,-76,0,0,0,0,0,0,0,0,0,-1,1511,1100,0,0
294,-76,0,0,0,0,0,0,0,0,0,-1,1518,1100,0,0
301,-76,0,0,0,0,0,0,0,0,0,-1,1525,1100,0,0
308,-76,0,0,0,0,0,0,0,0,0,-1,1532,1100,0,0
315,-76,0,0,0,0,0,0,0,0,0,-1,1539,1100,0,0
322,-76,0,0,0,0,0,0,0,0,0,-1,1546,1100,0,0
329,-76,0,0,0,0,0,0,0,0,0,-1,1553,1100,0,0
336,-76,0,0,0,0,0,0,0,0,0,-1,1560,1100,0,0
343,-76,0,0,0,0,0,0,0,0,0,-1,1567,1100,0,0
350,-76,0,0,0,0,0,0,0,0,0,-1,1574,1100,0,0
357,-76,0,0,0,0,0,0,0,0,0,-1,1581,1100,0,0
364,-76,0,0,0,0,0,0,0,0,0,-1,1588,1100,0,0
371,-76,0,0,0,0,0,0,0,0,0,-1,1595,1100,0,0
378,-76,0,0,0,0,0,0,0,0,0,-1,1602,1100,0,0
385,-76,0,0,0,0,0,0,0,0,0,-1,1609,1100,0,0
392,-76,0,0,0,0,0,0,0,0,0,-1,1616,1100,0,0
399,-76,0,0,0,0,0,0,0,0,0,-1,1623,1100,0,0
406,-76,0,0,0,0,0,0,0,0,0,-1,1630,1100,0,0
413,-76,0,0,0,0,0,0,0,0,0,-1,1637,1100,0,0
420,-76,0,0,0,0,0,0,0,0,0,-1,1644,1100,0,0
427,-76,0,0,0,0,0,0,0,0,0,-1,1651,1100,0,0
434,-76,0,0,0,0,0,0,0,0,0,-1,1658,1100,0,0
441,-76,0,0,0,0,0,0,0,0,0,-1,1665,1100,0,0
448,-76,0,0,0,0,0,0,0,0,0,-1,1672,1100,0,0
455,-76,0,0,0,0,0,0,0,0,0,-1,1679,1100,0,0
462,-76,0,0,0,0,0,0,0,0,0,-1,1686,1100,0,0
469,-76,0,0,0,0,0,0,0,0,0,-1,1693,1100,0,0
476,-76,0,0,0,0,0,0,0,0,0,-1,1700,1100,0,0
483,-76,0,0,0,0,0,0,0,0,0,-1,1707,1100,0,0
490,-76,0,0,0,0,0,0,0,0,0,-1,1714,1100,0,0
497,-76,0,0,0,0,0,0,0,0,0,-1,1721,1100,0,0
504,-76,0,0,0,0,0,0,0,0,0,-1,1728,1100,0,0
511,-76,0,0,0,0,0,0,0,0,0,-1,1735,1100,0,0
518,-76,0,0,0,0,0,0,0,0,0,-1,1742,1100,0,0
525,-76,0,0,0,0,0,0,0,0,0,-1,1749,1100,0,0
532,-76,0,0,0,0,0,0,0,0,0,-1,1756,1100,0,0
539,-76,0,0,0,0,0,0,0,0,0,-1,1763,1100,0,0
546,-76,0,0,0,0,0,0,0,0,0,-1,1770,1100,0,0
553,-76,0,0,0,0,0,0,0,0,0,-1,1777,1100,0,0
560,-76,0,0,0,0,0,0,0,0,0,-1,1784,1100,0,0
567,-76,0,0,0,0,0,0,0,0,0,-1,1791,1100,0,0
574,-76,0,0,0,0,0,0,0,0,0,-1,1798,1100,0,0
581,-76,0,0,0,0,0,0,0,0,0,-1,1805,1100,0,0
588,-76,0,0,0,0,0,0,0,0,0,-1,1812,1100,0,0
595,-76,0,0,0,0,0,0,0,0,0,-1,1819,1100,0,0
602,-76,0,0,0,0,0,0,0,0,0,-1,1826,1100,0,0
609,-76,0,0,0,0,0,0,0,0,0,-1,1833,1100,0,0
616,-76,0,0,0,0,0,0,0,0,0,-1,1840,1100,0,0
623,-76,0,0,0,0,0,0,0,0,0,-1,1847,1100,0,0
630,-76,0,0,0,0,0,0,0,0,0,-1,1854,1100,0,0
637,-76,0,0,0,0,0,0,0,0,0,-1,1861,1100,0,0
644,-76,0,0,0,0,0,0,0,0,0,-1,1868,1100,0,0
651,-76,9.67126,1.35168,0.00353888,0.000234828,0.00159733,0.00418483,-0.000411113,0.384283,0.00293653,0.0391814,1875,1100,9.67128,-1.35164
658,-76,9.71533,1.29675,0.00255832,-2.48141e-06,0.00060174,0.00269267,-0.000136831,0.219665,0.00184242,0.0408655,1882,1100,9.7153,-1.29673
665,-76,9.64856,1.32959,0.00178939,-0.000271289,0.000175907,0.0018043,-0.000286197,0.0845484,0.00130874,0.0388742,1889,1100,9.64859,-1.32954
672,-76,9.49048,1.30176,0.000953999,-0.000605506,0.000411176,0.00105577,-0.000707274,0.24263,0.0010245,0.0367716,1896,1100,9.49048,-1.30174
679,-76,9.54736,1.23254,4.05828e-05,-0.00092011,0.00092596,0.000603373,-0.0014829,0.546129,0.00123968,0.0379729,1903,1100,9.54732,-1.23258
686,-76,9.61572,1.14905,-0.000794564,-0.00116722,0.00151536,0.000545876,-0.00250766,0.724225,0.00188033,0.0371773,1910,1100,9.61571,-1.14907
693,-76,9.58643,1.15723,-0.00150478,-0.00133824,0.00209927,0.000679415,-0.00352243,0.805221,0.00260447,0.0372013,1917,1100,9.58643,-1.1572
700,-76,9.59448,1.19775,-0.0021337,-0.0014238,0.00247631,0.000722869,-0.00428036,0.856583,0.00312255,0.0323645,1924,1100,9.59451,-1.19774
707,-76,9.56836,1.28625,-0.00260583,-0.00143709,0.00283575,0.000873876,-0.0049168,0.887011,0.00360464,0.0244742,1931,1100,9.5684,-1.28621
714,-76,9.65369,1.46558,-0.00284921,-0.00138592,0.00313671,0.00110334,-0.00533847,0.899975,0.0039781,0.0323179,1938,1100,9.6537,-1.46559
721,-76,9.55249,1.59961,-0.0029114,-0.00127717,0.00319326,0.00120186,-0.00539043,0.910654,0.00405406,0.0308588,1945,1100,9.55252,-1.59962
728,-76,9.4353,1.65503,-0.00283996,-0.00105745,0.00300675,0.00118735,-0.00508476,0.929481,0.00384719,0.0168766,1952,1100,9.43525,-1.65499
735,-76,9.34534,1.62695,-0.00223717,-0.000725789,0.00274063,0.00136143,-0.00432438,0.919923,0.00342806,0.0158082,1959,1100,9.34532,-1.62691
742,-76,9.38062,1.64307,-0.000885798,-0.000289293,0.00226467,0.00169668,-0.00287177,0.85087,0.00266652,0.01124,1966,1100,9.38064,-1.64308
749,-76,9.38318,1.64429,0.000381172,0.000438488,0.00133608,0.00174622,-0.000926557,0.796121,0.00156713,0.0124392,1973,1100,9.38319,-1.64435
756,-76,9.39038,1.64014,0.00111849,0.00106679,0.000521108,0.00161439,0.000570891,0.760619,0.000945288,0.0146907,1980,1100,9.39041,-1.6401
763,-76,9.38196,1.60498,0.00203296,0.00170766,-0.000485543,0.00238237,0.00135825,-0.623779,0.00137996,0.0150196,1987,1100,9.38196,-1.60497
770,-76,9.37415,1.58716,0.00315133,0.00254642,-0.00163799,0.00451456,0.0011832,-0.694102,0.00270305,0.0142571,1994,1100,9.37414,-1.58712
777,-76,9.37598,1.58594,0.00391718,0.00347858,-0.00275403,0.00646063,0.000935133,-0.745668,0.00403169,0.0175438,2001,1100,9.37602,-1.58593
784,-76,9.47742,1.6106,0.00392941,0.00450431,-0.00390193,0.00812937,0.000304354,-0.822166,0.00532103,0.0296801,2008,1100,9.47738,-1.61065
791,-76,10.0975,1.40991,0.00287426,0.00565137,-0.00525963,0.00970265,-0.00117701,-0.914455,0.00689434,0.0400823,2015,1100,10.0975,-1.40987
798,-76,10.6143,1.08411,0.000362344,0.00690249,-0.00684403,0.0112175,-0.00395271,-1.00826,0.00908715,0.0443602,2022,1100,10.6142,-1.08406
805,-76,11.0457,0.767456,0,0,0,0,0,0,0,-1,2029,1100,11.0456,-0.767479
812,-76,9.53625,0.0405273,0,0,0,0,0,0,0,-1,2036,1100,9.53628,-0.0404956
-700,-83,0,0,0,0,0,0,0,0,0,-1,524,1107,0,0
-693,-83,-4.35516,1.08911,0,0,0,0,0,0,0,-1,531,1107,-4.35517,-1.08907
-686,-83,-4.75012,1.48694,0,0,0,0,0,0,0,-1,538,1107,-4.75012,-1.48689
-679,-83,-4.68286,-0.736816,0,0,0,0,0,0,0,-1,545,1107,-4.68288,0.736816
-672,-83,-3.93011,0.786499,0,0,0,0,0,0,0,-1,552,1107,-3.9301,-0.786544
-665,-83,-3.99457,0.821655,0.0148592,-0.00615681,-0.00348846,0.0154232,-0.00672073,-0.160266,0.0131097,0.047748,559,1107,-3.99459,-0.82169
-658,-83,-4.14893,0.82605,0.0116918,-0.0046035,-0.00328313,0.0123284,-0.0052401,-0.191525,0.0104147,0.0405203,566,1107,-4.14894,-0.826084
-651,-83,-4.13245,0.687988,0.00901197,-0.00325518,-0.00286393,0.00964765,-0.00389086,-0.21842,0.00804857,0.0278408,573,1107,-4.13242,-0.687984
-644,-83,-4.06927,0.72998,0.00664881,-0.0023279,-0.00245828,0.00727792,-0.00295701,-0.250539,0.00608214,0.0132018,580,1107,-4.06927,-0.72994
-637,-83,-4.08075,0.783447,0.00465667,-0.00166806,-0.00214074,0.00531312,-0.00232451,-0.297542,0.00452072,0.0105713,587,1107,-4.08075,-0.783436
-630,-83,-4.10382,0.825439,0.00310181,-0.000893054,-0.00219263,0.00407041,-0.00186165,-0.415975,0.00350312,0.0155119,594,1107,-4.10381,-0.825426
-623,-83,-4.08423,0.82605,0.00193705,-0.000662231,-0.00232129,0.00329776,-0.00202294,-0.5302,0.00310116,0.015777,601,1107,-4.0842,-0.826087
-616,-83,-4.08905,0.837036,0.000990911,-0.000346454,-0.00229842,0.00271594,-0.00207148,-0.64384,0.00277236,0.0120061,608,1107,-4.08904,-0.837089
-609,-83,-4.10364,0.897461,0.000190446,-0.000331692,-0.00240974,0.00235322,-0.00249446,-0.731439,0.00279921,0.0115807,615,1107,-4.10362,-0.897454
-602,-83,-4.09259,0.933716,-0.000395206,-0.000528332,-0.00260241,0.00214149,-0.00306503,-0.772612,0.00302171,0.0128664,622,1107,-4.09257,-0.933692
-595,-83,-4.06982,0.958008,-0.00085402,-0.000521566,-0.00275594,0.00207316,-0.00344874,-0.81552,0.00322088,0.0150986,629,1107,-4.06982,-0.957977
-588,-83,-4.09515,0.870361,-0.00111661,-0.000416798,-0.00285868,0.00211331,-0.00364672,-0.846296,0.0033646,0.0227016,636,1107,-4.09514,-0.870362
-581,-83,-4.16998,0.627686,-0.00124946,-0.000250905,-0.00287267,0.00216556,-0.00366592,-0.87144,0.00340375,0.0290499,643,1107,-4.16998,-0.627713
-574,-83,-4.15814,0.462769,-0.00136369,2.46545e-05,-0.00262915,0.00204973,-0.00338877,-0.914468,0.00317148,0.0365446,650,1107,-4.15814,-0.462818
-567,-83,-4.19452,0.509888,-0.00149809,0.000430625,-0.00219912,0.00186754,-0.00293501,-0.992031,0.00279549,0.0410583,657,1107,-4.19449,-0.509901
-560,-83,-4.06464,0.682495,-0.00162288,0.000977188,-0.00153889,0.00169167,-0.00233736,-1.13613,0.0023361,0.0410758,664,1107,-4.06462,-0.682494
-553,-83,-4.07874,0.485718,-0.00175863,0.00166233,-0.000668163,0.0017882,-0.0018845,-1.3846,0.00212068,0.042347,671,1107,-4.07874,-0.485727
-546,-83,-4.15063,0.677246,-0.00188976,0.00247739,0.000389712,0.0025119,-0.00192426,1.48249,0.0025687,0.0419958,678,1107,-4.15066,-0.677267
-539,-83,-4.18115,0.729858,-0.00194979,0.00340173,0.00153972,0.00381311,-0.00236117,1.30972,0.00359743,0.0425279,685,1107,-4.18115,-0.72983
-532,-83,-4.22321,0.498901,-0.00215231,0.00429401,0.00222119,0.00498524,-0.00284355,1.2691,0.00457598,0.0428994,692,1107,-4.22319,-0.498913
-525,-83,0,0,0,0,0,0,0,0,0,-1,699,1107,0,0
-518,-83,0,0,0,0,0,0,0,0,0,-1,706,1107,0,0
-511,-83,0,0,0,0,0,0,0,0,0,-1,713,1107,0,0
-504,-83,0,0,0,0,0,0,0,0,0,-1,720,1107,0,0
-497,-83,0,0,0,0,0,0,0,0,0,-1,727,1107,0,0
-490,-83,0,0,0,0,0,0,0,0,0,-1,734,1107,0,0
-483,-83,0,0,0,0,0,0,0,0,0,-1,741,1107,0,0
-476,-83,0,0,0,0,0,0,0,0,0,-1,748,1107,0,0
-469,-83,0,0,0,0,0,0,0,0,0,-1,755,1107,0,0
-462,-83,0,0,0,0,0,0,0,0,0,-1,762,1107,0,0
-455,-83,0,0,0,0,0,0,0,0,0,-1,769,1107,0,0
-448,-83,0,0,0,0,0,0,0,0,0,-1,776,1107,0,0
-441,-83,0,0,0,0,0,0,0,0,0,-1,783,1107,0,0
-434,-83,0,0,0,0,0,0,0,0,0,-1,790,1107,0,0
-427,-83,0,0,0,0,0,0,0,0,0,-1,797,1107,0,0
-420,-83,0,0,0,0,0,0,0,0,0,-1,804,1107,0,0
-413,-83,0,0,0,0,0,0,0,0,0,-1,811,1107,0,0
-406,-83,0,0,0,0,0,0,0,0,0,-1,818,1107,0,0
-399,-83,0,0,0,0,0,0,0,0,0,-1,825,1107,0,0
-392,-83,0,0,0,0,0,0,0,0,0,-1,832,1107,0,0
-385,-83,0,0,0,0,0,0,0,0,0,-1,839,1107,0,0
-378,-83,0,0,0,0,0,0,0,0,0,-1,846,1107,0,0
-371,-83,0,0,0,0,0,0,0,0,0,-1,853,1107,0,0
-364,-83,0,0,0,0,0,0,0,0,0,-1,860,1107,0,0
-357,-83,0,0,0,0,0,0,0,0,0,-1,867,1107,0,0
-350,-83,0,0,0,0,0,0,0,0,0,-1,874,1107,0,0
-343,-83,0,0,0,0,0,0,0,0,0,-1,881,1107,0,0
-336,-83,0,0,0,0,0,0,0,0,0,-1,888,1107,0,0
-329,-83,0,0,0,0,0,0,0,0,0,-1,895,1107,0,0
-322,-83,0,0,0,0,0,0,0,0,0,-1,902,1107,0,0
-315,-83,0,0,0,0,0,0,0,0,0,-1,909,1107,0,0
-308,-83,0,0,0,0,0,0,0,0,0,-1,916,1107,0,0
-301,-83,0,0,0,0,0,0,0,0,0,-1,923,1107,0,0
-294,-83,0,0,0,0,0,0,0,0,0,-1,930,1107,0,0
-287,-83,0,0,0,0,0,0,0,0,0,-1,937,1107,0,0
-280,-83,0,0,0,0,0,0,0,0,0,-1,944,1107,0,0
-273,-83,0,0,0,0,0,0,0,0,0,-1,951,1107,0,0
-266,-83,0,0,0,0,0,0,0,0,0,-1,958,1107,0,0
-259,-83,0,0,0,0,0,0,0,0,0,-1,965,1107,0,0
-252,-83,0,0,0,0,0,0,0,0,0,-1,972,1107,0,0
-245,-83,0,0,0,0,0,0,0,0,0,-1,979,1107,0,0
-238,-83,0,0,0,0,0,0,0,0,0,-1,986,1107,0,0
-231,-83,0,0,0,0,0,0,0,0,0,-1,993,1107,0,0
-224,-83,0,0,0,0,0,0,0,0,0,-1,1000,1107,0,0
-217,-83,0,0,0,0,0,0,0,0,0,-1,1007,1107,0,0
-210,-83,0,0,0,0,0,0,0,0,0,-1,1014,1107,0,0
-203,-83,0,0,0,0,0,0,0,0,0,-1,1021,1107,0,0
-196,-83,0,0,0,0,0,0,0,0,0,-1,1028,1107,0,0
-189,-83,0,0,0,0,0,0,0,0,0,-1,1035,1107,0,0
-182,-83,0,0,0,0,0,0,0,0,0,-1,1042,1107,0,0
-175,-83,0,0,0,0,0,0,0,0,0,-1,1049,1107,0,0
-168,-83,0,0,0,0,0,0,0,0,0,-1,1056,1107,0,0
-161,-83,0,0,0,0,0,0,0,0,0,-1,1063,1107,0,0
-154,-83,0,0,0,0,0,0,0,0,0,-1,1070,1107,0,0
-147,-83,0,0,0,0,0,0,0,0,0,-1,1077,1107,0,0
-140,-83,0,0,0,0,0,0,0,0,0,-1,1084,1107,0,0
-133,-83,0,0,0,0,0,0,0,0,0,-1,1091,1107,0,0
-126,-83,0,0,0,0,0,0,0,0,0,-1,1098,1107,0,0
-119,-83,0,0,0,0,0,0,0,0,0,-1,1105,1107,0,0
-112,-83,0,0,0,0,0,0,0,0,0,-1,1112,1107,0,0
-105,-83,0,0,0,0,0,0,0,0,0,-1,1119,1107,0,0
-98,-83,0,0,0,0,0,0,0,0,0,-1,1126,1107,0,0
-91,-83,0,0,0,0,0,0,0,0,0,-1,1133,1107,0,0
-84,-83,0,0,0,0,0,0,0,0,0,-1,1140,1107,0,0
-77,-83,0,0,0,0,0,0,0,0,0,-1,1147,1107,0,0
-70,-83,0,0,0,0,0,0,0,0,0,-1,1154,1107,0,0
-63,-83,0,0,0,0,0,0,0,0,0,-1,1161,1107,0,0
-56,-83,0,0,0,0,0,0,0,0,0,-1,1168,1107,0,0
-49,-83,0,0,0,0,0,0,0,0,0,-1,1175,1107,0,0
-42,-83,0,0,0,0,0,0,0,0,0,-1,1182,1107,0,0
-35,-83,0,0,0,0,0,0,0,0,0,-1,1189,1107,0,0
-28,-83,0,0,0,0,0,0,0,0,0,-1,1196,1107,0,0
-21,-83,0,0,0,0,0,0,0,0,0,-1,1203,1107,0,0
-14,-83,0,0,0,0,0,0,0,0,0,-1,1210,1107,0,0
-7,-83,0,0,0,0,0,0,0,0,0,-1,1217,1107,0,0
0,-83,0,0,0,0,0,0,0,0,0,-1,1224,1107,0,0
7,-83,0,0,0,0,0,0,0,0,0,-1,1231,1107,0,0
14,-83,0,0,0,0,0,0,0,0,0,-1,1238,1107,0,0
21,-83,0,0,0,0,0,0,0,0,0,-1,1245,1107,0,0
28,-83,0,0,0,0,0,0,0,0,0,-1,1252,1107,0,0
35,-83,0,0,0,0,0,0,0,0,0,-1,1259,1107,0,0
42,-83,0,0,0,0,0,0,0,0,0,-1,1266,1107,0,0
49,-83,0,0,0,0,0,0,0,0,0,-1,1273,1107,0,0
56,-83,0,0,0,0,0,0,0,0,0,-1,1280,1107,0,0
63,-83,0,0,0,0,0,0,0,0,0,-1,1287,1107,0,0
70,-83,0,0,0,0,0,0,0,0,0,-1,1294,1107,0,0
77,-83,0,0,0,0,0,0,0,0,0,-1,1301,1107,0,0
84,-83,0,0,0,0,0,0,0,0,0,-1,1308,1107,0,0
91,-83,0,0,0,0,0,0,0,0,0,-1,1315,1107,0,0
98,-83,0,0,0,0,0,0,0,0,0,-1,1322,1107,0,0
105,-83,0,0,0,0,0,0,0,0,0,-1,1329,1107,0,0
112,-83,0,0,0,0,0,0,0,0,0,-1,1336,1107,0,0
119,-83,0,0,0,0,0,0,0,0,0,-1,1343,1107,0,0
126,-83,0,0,0,0,0,0,0,0,0,-1,1350,1107,0,0
133,-83,0,0,0,0,0,0,0,0,0,-1,1357,1107,0,0
140,-83,0,0,0,0,0,0,0,0,0,-1,1364,1107,0,0
147,-83,0,0,0,0,0,0,0,0,0,-1,1371,1107,0,0
154,-83,0,0,0,0,0,0,0,0,0,-1,1378,1107,0,0
161,-83,0,0,0,0,0,0,0,0,0,-1,1385,1107,0,0
168,-83,0,0,0,0,0,0,0,0,0,-1,1392,1107,0,0
175,-83,0,0,0,0,0,0,0,0,0,-1,1399,1107,0,0
182,-83,0,0,0,0,0,0,0,0,0,-1,1406,1107,0,0
189,-83,0,0,0,0,0,0,0,0,0,-1,1413,1107,0,0
196,-83,0,0,0,0,0,0,0,0,0,-1,1420,1107,0,0
203,-83,0,0,0,0,0,0,0,0,0,-1,1427,1107,0,0
210,-83,0,0,0,0,0,0,0,0,0,-1,1434,1107,0,0
217,-83,0,0,0,0,0,0,0,0,0,-1,1441,1107,0,0
224,-83,0,0,0,0,0,0,0,0,0,-1,1448,1107,0,0
231,-83,0,0,0,0,0,0,0,0,0,-1,1455,1107,0,0
238,-83,0,0,0,0,0,0,0,0,0,-1,1462,1107,0,0
245,-83,0,0,0,0,0,0,0,0,0,-1,1469,1107,0,0
252,-83,0,0,0,0,0,0,0,0,0,-1,1476,1107,0,0
259,-83,0,0,0,0,0,0,0,0,0,-1,1483,1107,0,0
266,-83,0,0,0,0,0,0,0,0,0,-1,1490,1107,0,0
273,-83,0,0,0,0,0,0,0,0,0,-1,1497,1107,0,0
280,-83,0,0,0,0,0,0,0,0,0,-1,1504,1107,0,0
287,-83,0,0,0,0,0,0,0,0,0,-1,1511,1107,0,0
294,-83,0,0,0,0,0,0,0,0,0,-1,1518,1107,0,0
301,-83,0,0,0,0,0,0,0,0,0,-1,1525,1107,0,0
308,-83,0,0,0,0,0,0,0,0,0,-1,1532,1107,0,0
315,-83,0,0,0,0,0,0,0,0,0,-1,1539,1107,0,0
322,-83,0,0,0,0,0,0,0,0,0,-1,1546,1107,0,0
329,-83,0,0,0,0,0,0,0,0,0,-1,1553,1107,0,0
336,-83,0,0,0,0,0,0,0,0,0,-1,1560,1107,0,0
343,-83,0,0,0,0,0,0,0,0,0,-1,1567,1107,0,0
350,-83,0,0,0,0,0,0,0,0,0,-1,1574,1107,0,0
357,-83,0,0,0,0,0,0,0,0,0,-1,1581,1107,0,0
364,-83,0,0,0,0,0,0,0,0,0,-1,1588,1107,0,0
371,-83,0,0,0,0,0,0,0,0,0,-1,1595,1107,0,0
378,-83,0,0,0,0,0,0,0,0,0,-1,1602,1107,0,0
385,-83,0,0,0,0,0,0,0,0,0,-1,1609,1107,0,0
392,-83,0,0,0,0,0,0,0,0,0,-1,1616,1107,0,0
399,-83,0,0,0,0,0,0,0,0,0,-1,1623,1107,0,0
406,-83,0,0,0,0,0,0,0,0,0,-1,1630,1107,0,0
413,-83,0,0,0,0,0,0,0,0,0,-1,1637,1107,0,0
420,-83,0,0,0,0,0,0,0,0,0,-1,1644,1107,0,0
427,-83,0,0,0,0,0,0,0,0,0,-1,1651,1107,0,0
434,-83,0,0,0,0,0,0,0,0,0,-1,1658,1107,0,0
441,-83,0,0,0,0,0,0,0,0,0,-1,1665,1107,0,0
448,-83,0,0,0,0,0,0,0,0,0,-1,1672,1107,0,0
455,-83,0,0,0,0,0,0,0,0,0,-1,1679,1107,0,0
462,-83,0,0,0,0,0,0,0,0,0,-1,1686,1107,0,0
469,-83,0,0,0,0,0,0,0,0,0,-1,1693,1107,0,0
476,-83,0,0,0,0,0,0,0,0,0,-1,1700,1107,0,0
483,-83,0,0,0,0,0,0,0,0,0,-1,1707,1107,0,0
490,-83,0,0,0,0,0,0,0,0,0,-1,1714,1107,0,0
497,-83,0,0,0,0,0,0,0,0,0,-1,1721,1107,0,0
504,-83,0,0,0,0,0,0,0,0,0,-1,1728,1107,0,0
511,-83,0,0,0,0,0,0,0,0,0,-1,1735,1107,0,0
518,-83,0,0,0,0,0,0,0,0,0,-1,1742,1107,0,0
525,-83,0,0,0,0,0,0,0,0,0,-1,1749,1107,0,0
532,-83,0,0,0,0,0,0,0,0,0,-1,1756,1107,0,0
539,-83,0,0,0,0,0,0,0,0,0,-1,1763,1107,0,0
546,-83,0,0,0,0,0,0,0,0,0,-1,1770,1107,0,0
553,-83,0,0,0,0,0,0,0,0,0,-1,1777,1107,0,0
560,-83,0,0,0,0,0,0,0,0,0,-1,1784,1107,0,0
567,-83,0,0,0,0,0,0,0,0,0,-1,1791,1107,0,0
574,-83,0,0,0,0,0,0,0,0,0,-1,1798,1107,0,0
581,-83,0,0,0,0,0,0,0,0,0,-1,1805,1107,0,0
588,-83,0,0,0,0,0,0,0,0,0,-1,1812,1107,0,0
595,-83,0,0,0,0,0,0,0,0,0,-1,1819,1107,0,0
602,-83,0,0,0,0,0,0,0,0,0,-1,1826,1107,0,0
609,-83,0,0,0,0,0,0,0,0,0,-1,1833,1107,0,0
616,-83,0,0,0,0,0,0,0,0,0,-1,1840,1107,0,0
623,-83,0,0,0,0,0,0,0,0,0,-1,1847,1107,0,0
630,-83,0,0,0,0,0,0,0,0,0,-1,1854,1107,0,0
637,-83,0,0,0,0,0,0,0,0,0,-1,1861,1107,0,0
644,-83,9.5968,1.24866,0.00590747,0.000601415,0.00306179,0.00730575,-0.000796869,0.428402,0.00515669,0.036092,1868,1107,9.59676,-1.24871
651,-83,9.71802,1.53198,0.00421669,0.000407395,0.00166085,0.00483912,-0.000215031,0.358564,0.00330009,0.040041,1875,1107,9.71797,-1.53203
658,-83,9.70837,1.3645,0.00309391,0.000161977,0.000735753,0.00326818,-1.22972e-05,0.232579,0.0021829,0.0441297,1882,1107,9.70838,-1.36445
665,-83,9.56824,1.17273,0.00214712,-0.000161079,0.000376759,0.00220706,-0.00022102,0.157773,0.00155031,0.0391503,1889,1107,9.56826,-1.17274
672,-83,9.55676,1.16931,0.00111575,-0.000564931,0.00064872,0.00133702,-0.000786198,0.328708,0.00123951,0.0376644,1896,1107,9.55671,-1.16936
679,-83,9.56799,1.31616,6.69106e-05,-0.0009394,0.00115522,0.000823794,-0.00169628,0.580012,0.00148375,0.0381621,1903,1107,9.56798,-1.31622
686,-83,9.58972,1.31714,-0.000870921,-0.00123927,0.00172154,0.000676267,-0.00278646,0.73211,0.00211934,0.034357,1910,1107,9.58972,-1.31719
693,-83,9.57507,1.28198,-0.00165656,-0.00145188,0.00227429,0.00072237,-0.00383081,0.807882,0.00282561,0.0349721,1917,1107,9.57512,-1.28203
700,-83,9.60547,1.28674,-0.00232325,-0.00156325,0.00260817,0.000692451,-0.00457895,0.857737,0.0033077,0.0321708,1924,1107,9.60545,-1.28677
707,-83,9.56824,1.26245,-0.00282319,-0.00158832,0.00294245,0.000800777,-0.00521228,0.888817,0.00377024,0.0231105,1931,1107,9.56829,-1.26247
714,-83,9.60962,1.3783,-0.00307937,-0.00154769,0.00322174,0.000997985,-0.00562504,0.902087,0.00412315,0.030695,1938,1107,9.60959,-1.37826
721,-83,9.45117,1.69226,-0.00312503,-0.00142587,0.00324414,0.00107809,-0.00562899,0.913463,0.00415886,0.0210795,1945,1107,9.45114,-1.69224
728,-83,9.36853,1.6626,-0.00300562,-0.0011888,0.00301006,0.00104694,-0.00524136,0.931948,0.00389046,0.0173622,1952,1107,9.36857,-1.66256
735,-83,9.3479,1.62439,-0.00238114,-0.000836039,0.00270133,0.00120104,-0.00441822,0.924675,0.00341693,0.0185327,1959,1107,9.34795,-1.62436
742,-83,9.34448,1.64587,-0.00106232,-0.000341484,0.00223401,0.001561,-0.0029648,0.865375,0.00265454,0.0118961,1966,1107,9.34448,-1.64584
749,-83,9.35425,1.64685,0.000243699,0.000422832,0.00138725,0.0017234,-0.00105687,0.817635,0.0016205,0.0111179,1973,1107,9.35427,-1.64689
756,-83,9.36951,1.62463,0.00109428,0.00106089,0.000645652,0.00172345,0.000431717,0.772474,0.00103551,0.0132107,1980,1107,9.36948,-1.62469
763,-83,9.37622,1.59497,0.00213056,0.0016227,-0.000296472,0.00226698,0.00148627,-0.431266,0.00132981,0.0114454,1987,1107,9.37618,-1.59494
770,-83,9.36804,1.58984,0.00338903,0.00240946,-0.00133522,0.00432147,0.00147703,-0.609608,0.00253629,0.0133681,1994,1107,9.36802,-1.5899
777,-83,9.36084,1.58289,0.00433068,0.00324189,-0.00227887,0.00612927,0.0014433,-0.668152,0.00370013,0.014159,2001,1107,9.36089,-1.58293
784,-83,9.40723,1.55347,0.00463161,0.00413004,-0.00319898,0.00758962,0.00117203,-0.74628,0.00471785,0.0230192,2008,1107,9.40724,-1.55348
791,-83,9.73718,1.34094,0.0040258,0.00509463,-0.00427248,0.00886599,0.000254448,-0.847616,0.00582769,0.038831,2015,1107,9.73723,-1.34091
798,-83,10.0162,1.12842,0,0,0,0,0,0,0,-1,2022,1107,10.0163,-1.12847
805,-83,9.43237,1.12866,0,0,0,0,0,0,0,-1,2029,1107,9.43242,-1.12866
812,-83,9.13843,0.769043,0,0,0,0,0,0,0,-1,2036,1107,9.13843,-0.769006
-700,-90,0,0,0,0,0,0,0,0,0,-1,524,1114,0,0
-693,-90,-4.7464,-0.461426,0,0,0,0,0,0,0,-1,531,1114,-4.7464,0.461446
-686,-90,-4.84039,-0.331543,0.0314031,-0.014396,0.002503,0.0315395,-0.0145324,0.0544357,0.027197,0.0478092,538,1114,-4.84036,0.331515
-679,-90,-4.85455,-0.20459,0.0257129,-0.0123642,-0.00014987,0.0257135,-0.0123648,-0.00393588,0.0224303,0.0440116,545,1114,-4.85454,0.204595
-672,-90,-5.60236,0.0280762,0.0208782,-0.00995165,-0.00170352,0.0209721,-0.0100455,-0.0550322,0.0182746,0.0442038,552,1114,-5.60238,-0.0280691
-665,-90,-4.01318,0.937134,0,0,0,0,0,0,0,-1,559,1114,-4.01316,-0.937126
-658,-90,-4.26801,0.839722,0,0,0,0,0,0,0,-1,566,1114,-4.26801,-0.839701
-651,-90,-4.05011,0.640015,0.0100915,-0.00381741,-0.00262622,0.0105709,-0.00429676,-0.180538,0.00883494,0.0282068,573,1114,-4.0501,-0.64002
-644,-90,-4.05322,0.717651,0.00748705,-0.00258342,-0.00235769,0.00801169,-0.00310806,-0.218958,0.00662481,0.0121603,580,1114,-4.0532,-0.717681
-637,-90,-4.04858,0.779297,0.0052681,-0.0017535,-0.00215624,0.00587738,-0.00236278,-0.275388,0.00489959,0.0104358,587,1114,-4.04857,-0.779325
-630,-90,-4.04828,0.814453,0.00340158,-0.000965233,-0.00225831,0.00435938,-0.00192304,-0.40113,0.00371696,0.0111072,594,1114,-4.04825,-0.814423
-623,-90,-4.04816,0.836792,0.00200208,-0.000844894,-0.00252181,0.00347442,-0.00231724,-0.528456,0.00336599,0.00969256,601,1114,-4.04815,-0.836772
-616,-90,-4.05865,0.873413,0.000920871,-0.000391825,-0.00249498,0.00284439,-0.00231534,-0.656779,0.00298419,0.0076902,608,1114,-4.05867,-0.873383
-609,-90,-4.05011,0.907471,2.84215e-05,-0.000485536,-0.00251421,0.00229875,-0.00275586,-0.73447,0.00292226,0.010554,615,1114,-4.05011,-0.90753
-602,-90,-4.05249,0.932861,-0.000631796,-0.000840956,-0.00269205,0.00195771,-0.00343046,-0.765984,0.00314936,0.0101519,622,1114,-4.0525,-0.932841
-595,-90,-4.02185,0.960815,-0.0011537,-0.000987477,-0.00286881,0.00179943,-0.00394061,-0.79988,0.00339,0.0114777,629,1114,-4.02183,-0.960773
-588,-90,-4.00818,0.921753,-0.001457,-0.00102265,-0.00297967,0.00174775,-0.0042274,-0.821776,0.0035474,0.018259,636,1114,-4.00817,-0.921747
-581,-90,-4.15851,0.748901,-0.00159587,-0.00100697,-0.00297554,0.00168865,-0.00429149,-0.834716,0.00355998,0.0280962,643,1114,-4.15852,-0.748941
-574,-90,-4.14008,0.686523,-0.00170022,-0.000882211,-0.00272855,0.00146782,-0.00405026,-0.859794,0.00330011,0.0361045,650,1114,-4.14009,-0.686554
-567,-90,-4.08856,0.723267,-0.00180565,-0.000637288,-0.00228403,0.00113609,-0.00357902,-0.910598,0.00284145,0.0366279,657,1114,-4.08857,-0.723276
-560,-90,-4.18427,0.682129,-0.0018621,-0.000232397,-0.00157836,0.000729042,-0.00282353,-1.02368,0.00216665,0.0397083,664,1114,-4.18427,-0.682112
-553,-90,-4.15009,0.602905,-0.00186735,0.000349425,-0.000621151,0.000511609,-0.00202953,-1.3154,0.00155193,0.0408051,671,1114,-4.15006,-0.60292
-546,-90,-4.15399,0.613892,-0.00179507,0.00112088,0.000580697,0.00123227,-0.00190645,1.38128,0.00182602,0.0392593,678,1114,-4.15402,-0.613918
-539,-90,-4.07001,0.584106,-0.00155825,0.00209302,0.00196796,0.00295175,-0.00241698,1.15935,0.00310476,0.0393654,685,1114,-4.07,-0.584072
-532,-90,-4.16638,0.522705,-0.0013373,0.0031743,0.00305777,0.00471831,-0.00288131,1.1032,0.00443017,0.0420306,692,1114,-4.1664,-0.522734
-525,-90,0,0,0,0,0,0,0,0,0,-1,699,1114,0,0
-518,-90,0,0,0,0,0,0,0,0,0,-1,706,1114,0,0
-511,-90,0,0,0,0,0,0,0,0,0,-1,713,1114,0,0
-504,-90,0,0,0,0,0,0,0,0,0,-1,720,1114,0,0
-497,-90,0,0,0,0,0,0,0,0,0,-1,727,1114,0,0
-490,-90,0,0,0,0,0,0,0,0,0,-1,734,1114,0,0
-483,-90,0,0,0,0,0,0,0,0,0,-1,741,1114,0,0
-476,-90,0,0,0,0,0,0,0,0,0,-1,748,1114,0,0
-469,-90,0,0,0,0,0,0,0,0,0,-1,755,1114,0,0
-462,-90,0,0,0,0,0,0,0,0,0,-1,762,1114,0,0
-455,-90,0,0,0,0,0,0,0,0,0,-1,769,1114,0,0
-448,-90,0,0,0,0,0,0,0,0,0,-1,776,1114,0,0
-441,-90,0,0,0,0,0,0,0,0,0,-1,783,1114,0,0
-434,-90,0,0,0,0,0,0,0,0,0,-1,790,1114,0,0
-427,-90,0,0,0,0,0,0,0,0,0,-1,797,1114,0,0
-420,-90,0,0,0,0,0,0,0,0,0,-1,804,1114,0,0
-413,-90,0,0,0,0,0,0,0,0,0,-1,811,1114,0,0
-406,-90,0,0,0,0,0,0,0,0,0,-1,818,1114,0,0
-399,-90,0,0,0,0,0,0,0,0,0,-1,825,1114,0,0
-392,-90,0,0,0,0,0,0,0,0,0,-1,832,1114,0,0
-385,-90,0,0,0,0,0,0,0,0,0,-1,839,1114,0,0
-378,-90,0,0,0,0,0,0,0,0,0,-1,846,1114,0,0
-371,-90,0,0,0,0,0,0,0,0,0,-1,853,1114,0,0
-364,-90,0,0,0,0,0,0,0,0,0,-1,860,1114,0,0
-357,-90,0,0,0,0,0,0,0,0,0,-1,867,1114,0,0
-350,-90,0,0,0,0,0,0,0,0,0,-1,874,1114,0,0
-343,-90,0,0,0,0,0,0,0,0,0,-1,881,1114,0,0
-336,-90,0,0,0,0,0,0,0,0,0,-1,888,1114,0,0
-329,-90,0,0,0,0,0,0,0,0,0,-1,895,1114,0,0
-322,-90,0,0,0,0,0,0,0,0,0,-1,902,1114,0,0
-315,-90,0,0,0,0,0,0,0,0,0,-1,909,1114,0,0
-308,-90,0,0,0,0,0,0,0,0,0,-1,916,1114,0,0
-301,-90,0,0,0,0,0,0,0,0,0,-1,923,1114,0,0
-294,-90,0,0,0,0,0,0,0,0,0,-1,930,1114,0,0
-287,-90,0,0,0,0,0,0,0,0,0,-1,937,1114,0,0
-280,-90,0,0,0,0,0,0,0,0,0,-1,944,1114,0,0
-273,-90,0,0,0,0,0,0,0,0,0,-1,951,1114,0,0
-266,-90,0,0,0,0,0,0,0,0,0,-1,958,1114,0,0
-259,-90,0,0,0,0,0,0,0,0,0,-1,965,1114,0,0
-252,-90,0,0,0,0,0,0,0,0,0,-1,972,1114,0,0
-245,-90,0,0,0,0,0,0,0,0,0,-1,979,1114,0,0
-238,-90,0,0,0,0,0,0,0,0,0,-1,986,1114,0,0
-231,-90,0,0,0,0,0,0,0,0,0,-1,993,1114,0,0
-224,-90,0,0,0,0,0,0,0,0,0,-1,1000,1114,0,0
-217,-90,0,0,0,0,0,0,0,0,0,-1,1007,1114,0,0
-210,-90,0,0,0,0,0,0,0,0,0,-1,1014,1114,0,0
-203,-90,0,0,0,0,0,0,0,0,0,-1,1021,1114,0,0
-196,-90,0,0,0,0,0,0,0,0,0,-1,1028,1114,0,0
-189,-90,0,0,0,0,0,0,0,0,0,-1,1035,1114,0,0
-182,-90,0,0,0,0,0,0,0,0,0,-1,1042,1114,0,0
-175,-90,0,0,0,0,0,0,0,0,0,-1,1049,1114,0,0
-168,-90,0,0,0,0,0,0,0,0,0,-1,1056,1114,0,0
-161,-90,0,0,0,0,0,0,0,0,0,-1,1063,1114,0,0
-154,-90,0,0,0,0,0,0,0,0,0,-1,1070,1114,0,0
-147,-90,0,0,0,0,0,0,0,0,0,-1,1077,1114,0,0
-140,-90,0,0,0,0,0,0,0,0,0,-1,1084,1114,0,0
-133,-90,0,0,0,0,0,0,0,0,0,-1,1091,1114,0,0
-126,-90,0,0,0,0,0,0,0,0,0,-1,1098,1114,0,0
-119,-90,0,0,0,0,0,0,0,0,0,-1,1105,1114,0,0
-112,-90,0,0,0,0,0,0,0,0,0,-1,1112,1114,0,0
-105,-90,0,0,0,0,0,0,0,0,0,-1,1119,1114,0,0
-98,-90,0,0,0,0,0,0,0,0,0,-1,1126,1114,0,0
-91,-90,0,0,0,0,0,0,0,0,0,-1,1133,1114,0,0
-84,-90,0,0,0,0,0,0,0,0,0,-1,1140,1114,0,0
-77,-90,0,0,0,0,0,0,0,0,0,-1,1147,1114,0,0
-70,-90,0,0,0,0,0,0,0,0,0,-1,1154,1114,0,0
-63,-90,0,0,0,0,0,0,0,0,0,-1,1161,1114,0,0
-56,-90,0,0,0,0,0,0,0,0,0,-1,1168,1114,0,0
-49,-90,0,0,0,0,0,0,0,0,0,-1,1175,1114,0,0
-42,-90,0,0,0,0,0,0,0,0,0,-1,1182,1114,0,0
-35,-90,0,0,0,0,0,0,0,0,0,-1,1189,1114,0,0
-28,-90,0,0,0,0,0,0,0,0,0,-1,1196,1114,0,0
-21,-90,0,0,0,0,0,0,0,0,0,-1,1203,1114,0,0
-14,-90,0,0,0,0,0,0,0,0,0,-1,1210,1114,0,0
-7,-90,0,0,0,0,0,0,0,0,0,-1,1217,1114,0,0
0,-90,0,0,0,0,0,0,0,0,0,-1,1224,1114,0,0
7,-90,0,0,0,0,0,0,0,0,0,-1,1231,1114,0,0
14,-90,0,0,0,0,0,0,0,0,0,-1,1238,1114,0,0
21,-90,0,0,0,0,0,0,0,0,0,-1,1245,1114,0,0
28,-90,0,0,0,0,0,0,0,0,0,-1,1252,1114,0,0
35,-90,0,0,0,0,0,0,0,0,0,-1,1259,1114,0,0
42,-90,0,0,0,0,0,0,0,0,0,-1,1266,1114,0,0
49,-90,0,0,0,0,0,0,0,0,0,-1,1273,1114,0,0
56,-90,0,0,0,0,0,0,0,0,0,-1,1280,1114,0,0
63,-90,0,0,0,0,0,0,0,0,0,-1,1287,1114,0,0
70,-90,0,0,0,0,0,0,0,0,0,-1,1294,1114,0,0
77,-90,0,0,0,0,0,0,0,0,0,-1,1301,1114,0,0
84,-90,0,0,0,0,0,0,0,0,0,-1,1308,1114,0,0
91,-90,0,0,0,0,0,0,0,0,0,-1,1315,1114,0,0
98,-90,0,0,0,0,0,0,0,0,0,-1,1322,1114,0,0
105,-90,0,0,0,0,0,0,0,0,0,-1,1329,1114,0,0
112,-90,0,0,0,0,0,0,0,0,0,-1,1336,1114,0,0
119,-90,0,0,0,0,0,0,0,0,0,-1,1343,1114,0,0
126,-90,0,0,0,0,0,0,0,0,0,-1,1350,1114,0,0
133,-90,0,0,0,0,0,0,0,0,0,-1,1357,1114,0,0
140,-90,0,0,0,0,0,0,0,0,0,-1,1364,1114,0,0
147,-90,0,0,0,0,0,0,0,0,0,-1,1371,1114,0,0
154,-90,0,0,0,0,0,0,0,0,0,-1,1378,1114,0,0
161,-90,0,0,0,0,0,0,0,0,0,-1,1385,1114,0,0
168,-90,0,0,0,0,0,0,0,0,0,-1,1392,1114,0,0
175,-90,0,0,0,0,0,0,0,0,0,-1,1399,1114,0,0
182,-90,0,0,0,0,0,0,0,0,0,-1,1406,1114,0,0
189,-90,0,0,0,0,0,0,0,0,0,-1,1413,1114,0,0
196,-90,0,0,0,0,0,0,0,0,0,-1,1420,1114,0,0
203,-90,0,0,0,0,0,0,0,0,0,-1,1427,1114,0,0
210,-90,0,0,0,0,0,0,0,0,0,-1,1434,1114,0,0
217,-90,0,0,0,0,0,0,0,0,0,-1,1441,1114,0,0
224,-90,0,0,0,0,0,0,0,0,0,-1,1448,1114,0,0
231,-90,0,0,0,0,0,0,0,0,0,-1,1455,1114,0,0
238,-90,0,0,0,0,0,0,0,0,0,-1,1462,1114,0,0
245,-90,0,0,0,0,0,0,0,0,0,-1,1469,1114,0,0
252,-90,0,0,0,0,0,0,0,0,0,-1,1476,1114,0,0
259,-90,0,0,0,0,0,0,0,0,0,-1,1483,1114,0,0
266,-90,0,0,0,0,0,0,0,0,0,-1,1490,1114,0,0
273,-90,0,0,0,0,0,0,0,0,0,-1,1497,1114,0,0
280,-90,0,0,0,0,0,0,0,0,0,-1,1504,1114,0,0
287,-90,0,0,0,0,0,0,0,0,0,-1,1511,1114,0,0
294,-90,0,0,0,0,0,0,0,0,0,-1,1518,1114,0,0
301,-90,0,0,0,0,0,0,0,0,0,-1,1525,1114,0,0
308,-90,0,0,0,0,0,0,0,0,0,-1,1532,1114,0,0
315,-90,0,0,0,0,0,0,0,0,0,-1,1539,1114,0,0
322,-90,0,0,0,0,0,0,0,0,0,-1,1546,1114,0,0
329,-90,0,0,0,0,0,0,0,0,0,-1,1553,1114,0,0
336,-90,0,0,0,0,0,0,0,0,0,-1,1560,1114,0,0
343,-90,0,0,0,0,0,0,0,0,0,-1,1567,1114,0,0
350,-90,0,0,0,0,0,0,0,0,0,-1,1574,1114,0,0
357,-90,0,0,0,0,0,0,0,0,0,-1,1581,1114,0,0
364,-90,0,0,0,0,0,0,0,0,0,-1,1588,1114,0,0
371,-90,0,0,0,0,0,0,0,0,0,-1,1595,1114,0,0
378,-90,0,0,0,0,0,0,0,0,0,-1,1602,1114,0,0
385,-90,0,0,0,0,0,0,0,0,0,-1,1609,1114,0,0
392,-90,0,0,0,0,0,0,0,0,0,-1,1616,1114,0,0
399,-90,0,0,0,0,0,0,0,0,0,-1,1623,1114,0,0
406,-90,0,0,0,0,0,0,0,0,0,-1,1630,1114,0,0
413,-90,0,0,0,0,0,0,0,0,0,-1,1637,1114,0,0
420,-90,0,0,0,0,0,0,0,0,0,-1,1644,1114,0,0
427,-90,0,0,0,0,0,0,0,0,0,-1,1651,1114,0,0
434,-90,0,0,0,0,0,0,0,0,0,-1,1658,1114,0,0
441,-90,0,0,0,0,0,0,0,0,0,-1,1665,1114,0,0
448,-90,0,0,0,0,0,0,0,0,0,-1,1672,1114,0,0
455,-90,0,0,0,0,0,0,0,0,0,-1,1679,1114,0,0
462,-90,0,0,0,0,0,0,0,0,0,-1,1686,1114,0,0
469,-90,0,0,0,0,0,0,0,0,0,-1,1693,1114,0,0
476,-90,0,0,0,0,0,0,0,0,0,-1,1700,1114,0,0
483,-90,0,0,0,0,0,0,0,0,0,-1,1707,1114,0,0
490,-90,0,0,0,0,0,0,0,0,0,-1,1714,1114,0,0
497,-90,0,0,0,0,0,0,0,0,0,-1,1721,1114,0,0
504,-90,0,0,0,0,0,0,0,0,0,-1,1728,1114,0,0
511,-90,0,0,0,0,0,0,0,0,0,-1,1735,1114,0,0
518,-90,0,0,0,0,0,0,0,0,0,-1,1742,1114,0,0
525,-90,0,0,0,0,0,0,0,0,0,-1,1749,1114,0,0
532,-90,0,0,0,0,0,0,0,0,0,-1,1756,1114,0,0
539,-90,0,0,0,0,0,0,0,0,0,-1,1763,1114,0,0
546,-90,0,0,0,0,0,0,0,0,0,-1,1770,1114,0,0
553,-90,0,0,0,0,0,0,0,0,0,-1,1777,1114,0,0
560,-90,0,0,0,0,0,0,0,0,0,-1,1784,1114,0,0
567,-90,0,0,0,0,0,0,0,0,0,-1,1791,1114,0,0
574,-90,0,0,0,0,0,0,0,0,0,-1,1798,1114,0,0
581,-90,0,0,0,0,0,0,0,0,0,-1,1805,1114,0,0
588,-90,0,0,0,0,0,0,0,0,0,-1,1812,1114,0,0
595,-90,0,0,0,0,0,0,0,0,0,-1,1819,1114,0,0
602,-90,0,0,0,0,0,0,0,0,0,-1,1826,1114,0,0
609,-90,0,0,0,0,0,0,0,0,0,-1,1833,1114,0,0
616,-90,0,0,0,0,0,0,0,0,0,-1,1840,1114,0,0
623,-90,0,0,0,0,0,0,0,0,0,-1,1847,1114,0,0
630,-90,0,0,0,0,0,0,0,0,0,-1,1854,1114,0,0
637,-90,0,0,0,0,0,0,0,0,0,-1,1861,1114,0,0
644,-90,9.54211,1.1394,0.00632109,0.0003607,0.0027317,0.00738364,-0.000701844,0.37096,0.00517227,0.0379006,1868,1114,9.5421,-1.13937
651,-90,9.68628,1.49646,0.00451874,0.000196045,0.0015012,0.00498893,-0.000274151,0.303535,0.003421,0.0396928,1875,1114,9.68633,-1.49642
658,-90,9.71936,1.5791,0.003341,-3.24752e-05,0.000682756,0.00347394,-0.000165419,0.19231,0.00237303,0.0425994,1882,1114,9.7194,-1.57911
665,-90,9.59607,1.10095,0.00226024,-0.00036702,0.000427097,0.00232792,-0.000434707,0.157174,0.00171531,0.0417249,1889,1114,9.59604,-1.10093
672,-90,9.59583,1.14136,0.0010802,-0.000781625,0.000755221,0.00134802,-0.00104944,0.340787,0.00138775,0.0427792,1896,1114,9.59586,-1.1414
679,-90,9.67688,1.48584,-6.13503e-05,-0.00115869,0.00127055,0.000773935,-0.00199398,0.581574,0.00164899,0.0389463,1903,1114,9.6769,-1.48582
686,-90,9.65198,1.39148,-0.00106693,-0.00146018,0.00182958,0.000576556,-0.00310367,0.731868,0.00228567,0.0354899,1910,1114,9.65201,-1.39148
693,-90,9.61035,1.36023,-0.00189685,-0.00166968,0.00236209,0.000581551,-0.00414809,0.809423,0.00297823,0.0360439,1917,1114,9.61035,-1.36026
700,-90,9.64026,1.27698,-0.0025813,-0.0017772,0.00266262,0.000513554,-0.00487206,0.860331,0.00343205,0.0311194,1924,1114,9.64026,-1.27696
707,-90,9.55566,1.20593,-0.00308232,-0.00179151,0.0029805,0.000612664,-0.0054865,0.892023,0.00387805,0.0224935,1931,1114,9.55562,-1.20597
714,-90,9.5575,1.37561,-0.00333255,-0.00173549,0.00324547,0.000808238,-0.00587628,0.906024,0.00421286,0.0327259,1938,1114,9.5575,-1.37559
721,-90,9.40979,1.70862,-0.00335066,-0.0015771,0.00324115,0.000896396,-0.00582415,0.91893,0.00421347,0.019276,1945,1114,9.40984,-1.70866
728,-90,9.35718,1.71484,-0.00317374,-0.00131383,0.00297609,0.000874212,-0.00536178,0.936829,0.00389873,0.0161166,1952,1114,9.35723,-1.71482
735,-90,9.37012,1.68262,-0.00249891,-0.000952366,0.0026248,0.0010107,-0.00446197,0.928647,0.00336257,0.0168799,1959,1114,9.37012,-1.6826
742,-90,9.3623,1.6604,-0.00117884,-0.000459221,0.00216668,0.00137732,-0.00301538,0.86768,0.00259424,0.0155794,1966,1114,9.36229,-1.66042
749,-90,9.35193,1.6394,0.000204753,0.000233467,0.00141314,0.00163232,-0.0011941,0.790478,0.00163836,0.0129977,1973,1114,9.35195,-1.63941
756,-90,9.3623,1.61133,0.00128082,0.000721059,0.000723818,0.00177698,0.000224894,0.600917,0.00111726,0.0127799,1980,1114,9.36233,-1.61129
763,-90,9.35742,1.58777,0.00251122,0.00106924,-0.000158544,0.00252844,0.00105202,-0.108227,0.00146664,0.0122173,1987,1114,9.35746,-1.58775
770,-90,9.34106,1.58997,0.00400945,0.00158233,-0.00109597,0.00443108,0.00116069,-0.367263,0.00265318,0.0147708,1994,1114,9.34106,-1.59002
777,-90,9.32617,1.57178,0.00524072,0.00201083,-0.00189206,0.00611333,0.00113822,-0.432127,0.00375411,0.0122001,2001,1114,9.32618,-1.57177
784,-90,9.32898,1.49756,0.00595948,0.00235329,-0.00262431,0.00734043,0.000972344,-0.484399,0.00460386,0.0253606,2008,1114,9.32897,-1.49758
791,-90,9.40344,1.44678,0.00595282,0.00259668,-0.00346845,0.00812781,0.000421693,-0.560092,0.00528359,0.0409399,2015,1114,9.40346,-1.44676
798,-90,9.58789,1.34131,0.00487511,0.00267762,-0.00443009,0.00834068,-0.000787946,-0.663842,0.00584084,0.0429843,2022,1114,9.58783,-1.34133
805,-90,9.29456,1.29272,0.00221054,0.00249487,-0.00551753,0.00787207,-0.00316666,-0.798278,0.00656338,0.0440011,2029,1114,9.2945,-1.29273
812,-90,8.96423,1.31433,-0.00296242,0.00190303,-0.00668298,0.0065823,-0.00764168,-0.959952,0.00821981,0.0425643,2036,1114,8.96428,-1.31439
-700,-97,0,0,0,0,0,0,0,0,0,-1,524,1121,0,0
-693,-97,-4.44922,0.104492,0,0,0,0,0,0,0,-1,531,1121,-4.44921,-0.104476
-686,-97,-4.60352,0.296143,0.0354499,-0.00952869,0.00335359,0.0356986,-0.00977736,0.0740143,0.0276408,0.0492454,538,1121,-4.60353,-0.296157
-679,-97,-4.72864,0.495239,0.0295966,-0.00771818,0.000157895,0.0295973,-0.00771885,0.00423133,0.0227453,0.0468167,545,1121,-4.72866,-0.495284
-672,-97,-4.9696,0.739258,0.0242165,-0.00590083,-0.00173971,0.0243167,-0.00600099,-0.0575093,0.0185381,0.0435237,552,1121,-4.96961,-0.739285
-665,-97,-4.95679,0.88623,0.0193841,-0.00427862,-0.00273454,0.019696,-0.00459052,-0.113569,0.0148985,0.0445458,559,1121,-4.9568,-0.886255
-658,-97,-4.46234,0.807251,0.015146,-0.00293339,-0.00310012,0.0156628,-0.0034502,-0.165189,0.0117618,0.0419909,566,1121,-4.46232,-0.8073
-651,-97,-4.04999,0.675659,0.0115239,-0.00189102,-0.0030311,0.012177,-0.0025441,-0.212216,0.00908555,0.0289135,573,1121,-4.04998,-0.675647
-644,-97,-4.02563,0.730225,0.00853699,-0.00113978,-0.00272364,0.00925092,-0.00185371,-0.256356,0.00686907,0.0103871,580,1121,-4.02563,-0.730259
-637,-97,-4.00537,0.766724,0.00601764,-0.000719303,-0.00247322,0.00682809,-0.00152975,-0.316664,0.00513845,0.0109416,587,1121,-4.00537,-0.766663
-630,-97,-4.00421,0.798706,0.00371725,-0.000419451,-0.0025064,0.00489853,-0.00160073,-0.440431,0.00391005,0.00941857,594,1121,-4.00419,-0.798752
-623,-97,-4.01379,0.845825,0.00200295,-0.000670752,-0.00276741,0.00373948,-0.00240729,-0.560392,0.00357652,0.0110499,601,1121,-4.01382,-0.84582
-616,-97,-4.01721,0.878296,0.000792271,-0.00027881,-0.00268206,0.00299174,-0.00247828,-0.686857,0.00316275,0.0112026,608,1121,-4.01721,-0.878322
-609,-97,-4.01208,0.904663,-0.000191214,-0.000542092,-0.00258008,0.00221939,-0.00295269,-0.751452,0.00299609,0.0132405,615,1121,-4.01207,-0.904619
-602,-97,-4.02832,0.919189,-0.000923626,-0.00106294,-0.00270181,0.00170943,-0.00369599,-0.77251,0.0031903,0.0119514,622,1121,-4.02834,-0.919238
-595,-97,-4.00012,0.943237,-0.00151403,-0.00132151,-0.00287588,0.00145972,-0.00429526,-0.802127,0.00345447,0.0153543,629,1121,-4.00012,-0.943295
-588,-97,-3.98627,0.927856,-0.00188106,-0.00146688,-0.00298221,0.00131541,-0.00466336,-0.820063,0.00362776,0.0186555,636,1121,-3.98626,-0.927897
-581,-97,-4.12708,0.696045,-0.00204908,-0.00155595,-0.00295993,0.00116766,-0.0047727,-0.826953,0.0036341,0.0277895,643,1121,-4.1271,-0.696053
-574,-97,-4.1521,0.628662,-0.0021493,-0.00154208,-0.00270767,0.000878956,-0.00457033,-0.84123,0.0033782,0.0372377,650,1121,-4.15209,-0.628629
-567,-97,-4.12439,0.750366,-0.00224272,-0.00141903,-0.00225718,0.000463568,-0.00412532,-0.875635,0.00291704,0.0345696,657,1121,-4.12442,-0.750357
-560,-97,-4.08289,0.768555,-0.00224323,-0.00112626,-0.00152873,-5.72001e-05,-0.0033123,-0.96053,0.00218938,0.0390535,664,1121,-4.0829,-0.768565
-553,-97,-4.09821,0.621948,-0.00212164,-0.000637622,-0.000525052,-0.000470644,-0.00228861,-1.26289,0.00139557,0.0440281,671,1121,-4.09823,-0.622007
-546,-97,-4.22998,0.57019,-0.00183847,7.20204e-05,0.000757364,0.000335829,-0.00210228,1.23561,0.00152583,0.0419995,678,1121,-4.23,-0.570157
-539,-97,-4.17957,0.724121,-0.00128348,0.00103077,0.00228653,0.00243629,-0.00268901,1.01964,0.00296029,0.0386127,685,1121,-4.17958,-0.724139
-532,-97,-4.0954,0.66687,-0.000578162,0.00218215,0.00365773,0.00471145,-0.00310746,0.965803,0.0045458,0.0396075,692,1121,-4.09537,-0.666883
-525,-97,0,0,0,0,0,0,0,0,0,-1,699,1121,0,0
-518,-97,0,0,0,0,0,0,0,0,0,-1,706,1121,0,0
-511,-97,0,0,0,0,0,0,0,0,0,-1,713,1121,0,0
-504,-97,0,0,0,0,0,0,0,0,0,-1,720,1121,0,0
-497,-97,0,0,0,0,0,0,0,0,0,-1,727,1121,0,0
-490,-97,0,0,0,0,0,0,0,0,0,-1,734,1121,0,0
-483,-97,0,0,0,0,0,0,0,0,0,-1,741,1121,0,0
-476,-97,0,0,0,0,0,0,0,0,0,-1,748,1121,0,0
-469,-97,0,0,0,0,0,0,0,0,0,-1,755,1121,0,0
-462,-97,0,0,0,0,0,0,0,0,0,-1,762,1121,0,0
-455,-97,0,0,0,0,0,0,0,0,0,-1,769,1121,0,0
-448,-97,0,0,0,0,0,0,0,0,0,-1,776,1121,0,0
-441,-97,0,0,0,0,0,0,0,0,0,-1,783,1121,0,0
-434,-97,0,0,0,0,0,0,0,0,0,-1,790,1121,0,0
-427,-97,0,0,0,0,0,0,0,0,0,-1,797,1121,0,0
-420,-97,0,0,0,0,0,0,0,0,0,-1,804,1121,0,0
-413,-97,0,0,0,0,0,0,0,0,0,-1,811,1121,0,0
-406,-97,0,0,0,0,0,0,0,0,0,-1,818,1121,0,0
-399,-97,0,0,0,0,0,0,0,0,0,-1,825,1121,0,0
-392,-97,0,0,0,0,0,0,0,0,0,-1,832,1121,0,0
-385,-97,0,0,0,0,0,0,0,0,0,-1,839,1121,0,0
-378,-97,0,0,0,0,0,0,0,0,0,-1,846,1121,0,0
-371,-97,0,0,0,0,0,0,0,0,0,-1,853,1121,0,0
-364,-97,0,0,0,0,0,0,0,0,0,-1,860,1121,0,0
-357,-97,0,0,0,0,0,0,0,0,0,-1,867,1121,0,0
-350,-97,0,0,0,0,0,0,0,0,0,-1,874,1121,0,0
-343,-97,0,0,0,0,0,0,0,0,0,-1,881,1121,0,0
-336,-97,0,0,0,0,0,0,0,0,0,-1,888,1121,0,0
-329,-97,0,0,0,0,0,0,0,0,0,-1,895,1121,0,0
-322,-97,0,0,0,0,0,0,0,0,0,-1,902,1121,0,0
-315,-97,0,0,0,0,0,0,0,0,0,-1,909,1121,0,0
-308,-97,0,0,0,0,0,0,0,0,0,-1,916,1121,0,0
-301,-97,0,0,0,0,0,0,0,0,0,-1,923,1121,0,0
-294,-97,0,0,0,0,0,0,0,0,0,-1,930,1121,0,0
-287,-97,0,0,0,0,0,0,0,0,0,-1,937,1121,0,0
-280,-97,0,0,0,0,0,0,0,0,0,-1,944,1121,0,0
-273,-97,0,0,0,0,0,0,0,0,0,-1,951,1121,0,0
-266,-97,0,0,0,0,0,0,0,0,0,-1,958,1121,0,0
-259,-97,0,0,0,0,0,0,0,0,0,-1,965,1121,0,0
-252,-97,0,0,0,0,0,0,0,0,0,-1,972,1121,0,0
-245,-97,0,0,0,0,0,0,0,0,0,-1,979,1121,0,0
-238,-97,0,0,0,0,0,0,0,0,0,-1,986,1121,0,0
-231,-97,0,0,0,0,0,0,0,0,0,-1,993,1121,0,0
-224,-97,0,0,0,0,0,0,0,0,0,-1,1000,1121,0,0
-217,-97,0,0,0,0,0,0,0,0,0,-1,1007,1121,0,0
-210,-97,0,0,0,0,0,0,0,0,0,-1,1014,1121,0,0
-203,-97,0,0,0,0,0,0,0,0,0,-1,1021,1121,0,0
-196,-97,0,0,0,0,0,0,0,0,0,-1,1028,1121,0,0
-189,-97,0,0,0,0,0,0,0,0,0,-1,1035,1121,0,0
-182,-97,0,0,0,0,0,0,0,0,0,-1,1042,1121,0,0
-175,-97,0,0,0,0,0,0,0,0,0,-1,1049,1121,0,0
-168,-97,0,0,0,0,0,0,0,0,0,-1,1056,1121,0,0
-161,-97,0,0,0,0,0,0,0,0,0,-1,1063,1121,0,0
-154,-97,0,0,0,0,0,0,0,0,0,-1,1070,1121,0,0
-147,-97,0,0,0,0,0,0,0,0,0,-1,1077,1121,0,0
-140,-97,0,0,0,0,0,0,0,0,0,-1,1084,1121,0,0
-133,-97,0,0,0,0,0,0,0,0,0,-1,1091,1121,0,0
-126,-97,0,0,0,0,0,0,0,0,0,-1,1098,1121,0,0
-119,-97,0,0,0,0,0,0,0,0,0,-1,1105,1121,0,0
-112,-97,0,0,0,0,0,0,0,0,0,-1,1112,1121,0,0
-105,-97,0,0,0,0,0,0,0,0,0,-1,1119,1121,0,0
-98,-97,0,0,0,0,0,0,0,0,0,-1,1126,1121,0,0
-91,-97,0,0,0,0,0,0,0,0,0,-1,1133,1121,0,0
-84,-97,0,0,0,0,0,0,0,0,0,-1,1140,1121,0,0
-77,-97,0,0,0,0,0,0,0,0,0,-1,1147,1121,0,0
-70,-97,0,0,0,0,0,0,0,0,0,-1,1154,1121,0,0
-63,-97,0,0,0,0,0,0,0,0,0,-1,1161,1121,0,0
-56,-97,0,0,0,0,0,0,0,0,0,-1,1168,1121,0,0
-49,-97,0,0,0,0,0,0,0,0,0,-1,1175,1121,0,0
-42,-97,0,0,0,0,0,0,0,0,0,-1,1182,1121,0,0
-35,-97,0,0,0,0,0,0,0,0,0,-1,1189,1121,0,0
-28,-97,0,0,0,0,0,0,0,0,0,-1,1196,1121,0,0
-21,-97,0,0,0,0,0,0,0,0,0,-1,1203,1121,0,0
-14,-97,0,0,0,0,0,0,0,0,0,-1,1210,1121,0,0
-7,-97,0,0,0,0,0,0,0,0,0,-1,1217,1121,0,0
0,-97,0,0,0,0,0,0,0,0,0,-1,1224,1121,0,0
7,-97,0,0,0,0,0,0,0,0,0,-1,1231,1121,0,0
14,-97,0,0,0,0,0,0,0,0,0,-1,1238,1121,0,0
21,-97,0,0,0,0,0,0,0,0,0,-1,1245,1121,0,0
28,-97,0,0,0,0,0,0,0,0,0,-1,1252,1121,0,0
35,-97,0,0,0,0,0,0,0,0,0,-1,1259,1121,0,0
42,-97,0,0,0,0,0,0,0,0,0,-1,1266,1121,0,0
49,-97,0,0,0,0,0,0,0,0,0,-1,1273,1121,0,0
56,-97,0,0,0,0,0,0,0,0,0,-1,1280,1121,0,0
63,-97,0,0,0,0,0,0,0,0,0,-1,1287,1121,0,0
70,-97,0,0,0,0,0,0,0,0,0,-1,1294,1121,0,0
77,-97,0,0,0,0,0,0,0,0,0,-1,1301,1121,0,0
84,-97,0,0,0,0,0,0,0,0,0,-1,1308,1121,0,0
91,-97,0,0,0,0,0,0,0,0,0,-1,1315,1121,0,0
98,-97,0,0,0,0,0,0,0,0,0,-1,1322,1121,0,0
105,-97,0,0,0,0,0,0,0,0,0,-1,1329,1121,0,0
112,-97,0,0,0,0,0,0,0,0,0,-1,1336,1121,0,0
119,-97,0,0,0,0,0,0,0,0,0,-1,1343,1121,0,0
126,-97,0,0,0,0,0,0,0,0,0,-1,1350,1121,0,0
133,-97,0,0,0,0,0,0,0,0,0,-1,1357,1121,0,0
140,-97,0,0,0,0,0,0,0,0,0,-1,1364,1121,0,0
147,-97,0,0,0,0,0,0,0,0,0,-1,1371,1121,0,0
154,-97,0,0,0,0,0,0,0,0,0,-1,1378,1121,0,0
161,-97,0,0,0,0,0,0,0,0,0,-1,1385,1121,0,0
168,-97,0,0,0,0,0,0,0,0,0,-1,1392,1121,0,0
175,-97,0,0,0,0,0,0,0,0,0,-1,1399,1121,0,0
182,-97,0,0,0,0,0,0,0,0,0,-1,1406,1121,0,0
189,-97,0,0,0,0,0,0,0,0,0,-1,1413,1121,0,0
196,-97,0,0,0,0,0,0,0,0,0,-1,1420,1121,0,0
203,-97,0,0,0,0,0,0,0,0,0,-1,1427,1121,0,0
210,-97,0,0,0,0,0,0,0,0,0,-1,1434,1121,0,0
217,-97,0,0,0,0,0,0,0,0,0,-1,1441,1121,0,0
224,-97,0,0,0,0,0,0,0,0,0,-1,1448,1121,0,0
231,-97,0,0,0,0,0,0,0,0,0,-1,1455,1121,0,0
238,-97,0,0,0,0,0,0,0,0,0,-1,1462,1121,0,0
245,-97,0,0,0,0,0,0,0,0,0,-1,1469,1121,0,0
252,-97,0,0,0,0,0,0,0,0,0,-1,1476,1121,0,0
259,-97,0,0,0,0,0,0,0,0,0,-1,1483,1121,0,0
266,-97,0,0,0,0,0,0,0,0,0,-1,1490,1121,0,0
273,-97,0,0,0,0,0,0,0,0,0,-1,1497,1121,0,0
280,-97,0,0,0,0,0,0,0,0,0,-1,1504,1121,0,0
287,-97,0,0,0,0,0,0,0,0,0,-1,1511,1121,0,0
294,-97,0,0,0,0,0,0,0,0,0,-1,1518,1121,0,0
301,-97,0,0,0,0,0,0,0,0,0,-1,1525,1121,0,0
308,-97,0,0,0,0,0,0,0,0,0,-1,1532,1121,0,0
315,-97,0,0,0,0,0,0,0,0,0,-1,1539,1121,0,0
322,-97,0,0,0,0,0,0,0,0,0,-1,1546,1121,0,0
329,-97,0,0,0,0,0,0,0,0,0,-1,1553,1121,0,0
336,-97,0,0,0,0,0,0,0,0,0,-1,1560,1121,0,0
343,-97,0,0,0,0,0,0,0,0,0,-1,1567,1121,0,0
350,-97,0,0,0,0,0,0,0,0,0,-1,1574,1121,0,0
357,-97,0,0,0,0,0,0,0,0,0,-1,1581,1121,0,0
364,-97,0,0,0,0,0,0,0,0,0,-1,1588,1121,0,0
371,-97,0,0,0,0,0,0,0,0,0,-1,1595,1121,0,0
378,-97,0,0,0,0,0,0,0,0,0,-1,1602,1121,0,0
385,-97,0,0,0,0,0,0,0,0,0,-1,1609,1121,0,0
392,-97,0,0,0,0,0,0,0,0,0,-1,1616,1121,0,0
399,-97,0,0,0,0,0,0,0,0,0,-1,1623,1121,0,0
406,-97,0,0,0,0,0,0,0,0,0,-1,1630,1121,0,0
413,-97,0,0,0,0,0,0,0,0,0,-1,1637,1121,0,0
420,-97,0,0,0,0,0,0,0,0,0,-1,1644,1121,0,0
427,-97,0,0,0,0,0,0,0,0,0,-1,1651,1121,0,0
434,-97,0,0,0,0,0,0,0,0,0,-1,1658,1121,0,0
441,-97,0,0,0,0,0,0,0,0,0,-1,1665,1121,0,0
448,-97,0,0,0,0,0,0,0,0,0,-1,1672,1121,0,0
455,-97,0,0,0,0,0,0,0,0,0,-1,1679,1121,0,0
462,-97,0,0,0,0,0,0,0,0,0,-1,1686,1121,0,0
469,-97,0,0,0,0,0,0,0,0,0,-1,1693,1121,0,0
476,-97,0,0,0,0,0,0,0,0,0,-1,1700,1121,0,0
483,-97,0,0,0,0,0,0,0,0,0,-1,1707,1121,0,0
490,-97,0,0,0,0,0,0,0,0,0,-1,1714,1121,0,0
497,-97,0,0,0,0,0,0,0,0,0,-1,1721,1121,0,0
504,-97,0,0,0,0,0,0,0,0,0,-1,1728,1121,0,0
511,-97,0,0,0,0,0,0,0,0,0,-1,1735,1121,0,0
518,-97,0,0,0,0,0,0,0,0,0,-1,1742,1121,0,0
525,-97,0,0,0,0,0,0,0,0,0,-1,1749,1121,0,0
532,-97,0,0,0,0,0,0,0,0,0,-1,1756,1121,0,0
539,-97,0,0,0,0,0,0,0,0,0,-1,1763,1121,0,0
546,-97,0,0,0,0,0,0,0,0,0,-1,1770,1121,0,0
553,-97,0,0,0,0,0,0,0,0,0,-1,1777,1121,0,0
560,-97,0,0,0,0,0,0,0,0,0,-1,1784,1121,0,0
567,-97,0,0,0,0,0,0,0,0,0,-1,1791,1121,0,0
574,-97,0,0,0,0,0,0,0,0,0,-1,1798,1121,0,0
581,-97,0,0,0,0,0,0,0,0,0,-1,1805,1121,0,0
588,-97,0,0,0,0,0,0,0,0,0,-1,1812,1121,0,0
595,-97,0,0,0,0,0,0,0,0,0,-1,1819,1121,0,0
602,-97,0,0,0,0,0,0,0,0,0,-1,1826,1121,0,0
609,-97,0,0,0,0,0,0,0,0,0,-1,1833,1121,0,0
616,-97,0,0,0,0,0,0,0,0,0,-1,1840,1121,0,0
623,-97,0,0,0,0,0,0,0,0,0,-1,1847,1121,0,0
630,-97,0,0,0,0,0,0,0,0,0,-1,1854,1121,0,0
637,-97,0,0,0,0,0,0,0,0,0,-1,1861,1121,0,0
644,-97,9.56299,1.30481,0.00627857,0.000126412,0.00241679,0.00711441,-0.000709434,0.332972,0.00499624,0.0389884,1868,1121,9.56301,-1.30486
651,-97,9.58386,1.47681,0.004517,-0.000128018,0.00132927,0.0048705,-0.000481513,0.259917,0.00341882,0.0383477,1875,1121,9.58392,-1.47677
658,-97,9.58289,1.29529,0.00337146,-0.000380197,0.000594412,0.00346338,-0.000472123,0.153435,0.00248131,0.0396881,1882,1121,9.58292,-1.29526
665,-97,9.60278,1.06812,0.00221525,-0.000738892,0.000422248,0.00227442,-0.00079806,0.139221,0.00184089,0.0428033,1889,1121,9.60283,-1.06816
672,-97,9.62354,1.36121,0.000935751,-0.00114653,0.000780911,0.00119607,-0.00140685,0.321767,0.00150444,0.0427111,1896,1121,9.62356,-1.36126
679,-97,9.66821,1.54932,-0.000261335,-0.0014967,0.00128494,0.000546677,-0.00230471,0.56135,0.00174744,0.0427482,1903,1121,9.66825,-1.54935
686,-97,9.62842,1.41101,-0.00130792,-0.00176649,0.00182366,0.000300814,-0.00337522,0.722863,0.00235683,0.0398451,1910,1121,9.62838,-1.41097
693,-97,9.62427,1.33264,-0.00215857,-0.00193888,0.00232166,0.000275532,-0.00437299,0.809037,0.00301137,0.0367601,1917,1121,9.62422,-1.33259
700,-97,9.61731,1.23633,-0.00284015,-0.00202103,0.00259575,0.000197273,-0.00505845,0.863644,0.00343995,0.0279651,1924,1121,9.61735,-1.23627
707,-97,9.55518,1.25049,-0.0033353,-0.00201222,0.00289627,0.000297102,-0.00564461,0.897678,0.00386592,0.0203849,1931,1121,9.55523,-1.25045
714,-97,9.51819,1.5155,-0.00358019,-0.00191476,0.00314595,0.000506817,-0.00600178,0.914778,0.00418038,0.0320107,1938,1121,9.51821,-1.51555
721,-97,9.40015,1.73096,-0.00357355,-0.00169972,0.00312846,0.000629103,-0.00590238,0.930889,0.0041605,0.018402,1945,1121,9.40017,-1.73097
728,-97,9.37012,1.73071,-0.00334984,-0.00140637,0.00285826,0.000640826,-0.00539703,0.949256,0.00382955,0.0169721,1952,1121,9.37009,-1.73069
735,-97,9.33679,1.68408,-0.0026653,-0.00104333,0.00249996,0.000773898,-0.00448253,0.942243,0.00327692,0.0166088,1959,1121,9.33682,-1.68407
742,-97,9.31055,1.66772,-0.00141084,-0.000550662,0.00208775,0.00115084,-0.00311233,0.88698,0.00254671,0.0139699,1966,1121,9.31061,-1.66775
749,-97,9.31995,1.65161,-1.83297e-05,6.227e-05,0.00144102,0.00146356,-0.00141962,0.799378,0.00166467,0.0159604,1973,1121,9.31992,-1.65165
756,-97,9.33423,1.6145,0.00121198,0.000401176,0.000820282,0.00172157,-0.000108415,0.555891,0.00118551,0.0136963,1980,1121,9.33422,-1.61445
763,-97,9.32825,1.57837,0.00259327,0.00052802,1.80795e-05,0.00259343,0.000527861,0.00875328,0.00158262,0.0123684,1987,1121,9.32825,-1.57842
770,-97,9.30896,1.55481,0.00425892,0.000758564,-0.000791159,0.00442943,0.000588051,-0.212277,0.00277776,0.0100225,1994,1121,9.30891,-1.55485
777,-97,9.31702,1.53723,0.0057152,0.000773338,-0.0014245,0.00609641,0.000392129,-0.261482,0.00394007,0.0119224,2001,1121,9.31705,-1.53727
784,-97,9.31311,1.45618,0.00682742,0.000557987,-0.00197872,0.00739969,-1.42888e-05,-0.281533,0.0049379,0.0305733,2008,1121,9.31305,-1.45614
791,-97,9.26941,1.46069,0.00746799,6.16043e-05,-0.002623,0.00830283,-0.000773237,-0.30814,0.00581014,0.042398,2015,1121,9.26938,-1.46071
798,-97,9.27405,1.48291,0.00734043,-0.000814294,-0.00336263,0.00854816,-0.00202202,-0.344813,0.00647883,0.0437997,2022,1121,9.27407,-1.48294
805,-97,9.23157,1.26184,0.00601669,-0.00220117,-0.00422173,0.00779896,-0.00398345,-0.399469,0.00692045,0.0444387,2029,1121,9.23151,-1.26185
812,-97,8.83252,1.33337,0.00269411,-0.00427766,-0.00518461,0.00545575,-0.0070393,-0.489434,0.0072333,0.0457676,2036,1121,8.83257,-1.33338
-700,-104,0,0,0,0,0,0,0,0,0,-1,524,1128,0,0
-693,-104,-7.729,1.20129,0,0,0,0,0,0,0,-1,531,1128,-7.72903,-1.2013
-686,-104,-4.35699,0.905762,0,0,0,0,0,0,0,-1,538,1128,-4.357,-0.905801
-679,-104,-4.47156,1.15295,0,0,0,0,0,0,0,-1,545,1128,-4.47154,-1.15295
-672,-104,-4.5874,1.53198,0.0287872,0.00157537,-0.000634491,0.028802,0.00156058,-0.0232998,0.0187029,0.0459665,552,1128,-4.58743,-1.53203
-665,-104,-4.6427,1.73804,0.0224913,0.00145668,-0.00206499,0.0226921,0.00125587,-0.0969381,0.0147273,0.040341,559,1128,-4.64272,-1.738
-658,-104,-4.25586,1.40649,0.0171631,0.00134261,-0.00274373,0.0176254,0.000880281,-0.166936,0.0114681,0.0389362,566,1128,-4.25583,-1.40651
-651,-104,-4.07764,0.727051,0.0127567,0.00120975,-0.00288603,0.0134379,0.000528595,-0.231775,0.00878767,0.0343094,573,1128,-4.07765,-0.727057
-644,-104,-3.98895,0.697876,0.00923486,0.00104912,-0.00270114,0.0100458,0.000238135,-0.291674,0.00661928,0.0139739,580,1128,-3.98895,-0.697926
-637,-104,-3.95856,0.751587,0.00640766,0.000821827,-0.00249138,0.00735739,-0.000127898,-0.364199,0.00494811,0.00998114,587,1128,-3.95853,-0.751635
-630,-104,-3.96216,0.791138,0.00376005,0.000509126,-0.00252073,0.00513395,-0.000864778,-0.499029,0.00374433,0.011313,594,1128,-3.96217,-0.791145
-623,-104,-3.97369,0.83728,0.0017869,-0.00022263,-0.00284649,0.00380076,-0.00223648,-0.615732,0.00352439,0.0138029,601,1128,-3.97366,-0.83734
-616,-104,-3.98315,0.870972,0.000468259,-2.76284e-05,-0.00276581,0.00299722,-0.00255659,-0.740695,0.00320985,0.0147722,608,1128,-3.98316,-0.871008
-609,-104,-3.99799,0.878662,-0.000554691,-0.00051237,-0.00258162,0.00204817,-0.00311523,-0.789496,0.00300224,0.0172167,615,1128,-3.99797,-0.878649
-602,-104,-3.98633,0.920532,-0.00131289,-0.0012036,-0.00267383,0.00141614,-0.00393264,-0.795615,0.00320002,0.0137206,622,1128,-3.98632,-0.920549
-595,-104,-3.97687,0.971069,-0.0019487,-0.00153333,-0.0028612,0.00112772,-0.00460974,-0.821628,0.00350998,0.0142146,629,1128,-3.97686,-0.971053
-588,-104,-3.9989,0.97644,-0.00237756,-0.00173702,-0.00297997,0.000939838,-0.00505442,-0.838929,0.00372265,0.019281,636,1128,-3.99891,-0.976407
-581,-104,-4.05481,0.765015,-0.00258502,-0.0018938,-0.00296965,0.000750281,-0.0052291,-0.843328,0.00376119,0.028167,643,1128,-4.05479,-0.764964
-574,-104,-4.13452,0.603149,-0.00268834,-0.00194006,-0.0027428,0.000453997,-0.00508239,-0.853184,0.00354929,0.0360904,650,1128,-4.13451,-0.603187
-567,-104,-4.09888,0.699829,-0.00277838,-0.00188507,-0.00232877,3.94941e-05,-0.00470294,-0.880146,0.00314854,0.0332741,657,1128,-4.09885,-0.699811
-560,-104,-3.97797,0.549561,-0.00273488,-0.00165085,-0.00163245,-0.000472793,-0.00391294,-0.945685,0.00246619,0.0401459,664,1128,-3.97799,-0.549554
-553,-104,-3.85608,0.202515,0,0,0,0,0,0,0,-1,671,1128,-3.8561,-0.202467
-546,-104,-4.28973,0.349731,-0.00204237,-0.000530905,0.000632136,-0.000301382,-0.00227189,1.22251,0.0014248,0.0448484,678,1128,-4.28971,-0.349755
-539,-104,-4.3869,0.682861,-0.00122523,0.000409527,0.00220296,0.00194186,-0.00275756,0.963043,0.0027268,0.0391174,685,1128,-4.38688,-0.682858
-532,-104,-4.26001,0.702637,-0.000120781,0.00157328,0.00373941,0.00456039,-0.0031079,0.896775,0.00445369,0.0409084,692,1128,-4.26003,-0.702652
-525,-104,-4.22028,0.727173,0.00084987,0.00272892,0.00448048,0.00636732,-0.00278853,0.888747,0.00541907,0.0386026,699,1128,-4.22027,-0.727174
-518,-104,0,0,0,0,0,0,0,0,0,-1,706,1128,0,0
-511,-104,0,0,0,0,0,0,0,0,0,-1,713,1128,0,0
-504,-104,0,0,0,0,0,0,0,0,0,-1,720,1128,0,0
-497,-104,0,0,0,0,0,0,0,0,0,-1,727,1128,0,0
-490,-104,0,0,0,0,0,0,0,0,0,-1,734,1128,0,0
-483,-104,0,0,0,0,0,0,0,0,0,-1,741,1128,0,0
-476,-104,0,0,0,0,0,0,0,0,0,-1,748,1128,0,0
-469,-104,0,0,0,0,0,0,0,0,0,-1,755,1128,0,0
-462,-104,0,0,0,0,0,0,0,0,0,-1,762,1128,0,0
-455,-104,0,0,0,0,0,0,0,0,0,-1,769,1128,0,0
-448,-104,0,0,0,0,0,0,0,0,0,-1,776,1128,0,0
-441,-104,0,0,0,0,0,0,0,0,0,-1,783,1128,0,0
-434,-104,0,0,0,0,0,0,0,0,0,-1,790,1128,0,0
-427,-104,0,0,0,0,0,0,0,0,0,-1,797,1128,0,0
-420,-104,0,0,0,0,0,0,0,0,0,-1,804,1128,0,0
-413,-104,0,0,0,0,0,0,0,0,0,-1,811,1128,0,0
-406,-104,0,0,0,0,0,0,0,0,0,-1,818,1128,0,0
-399,-104,0,0,0,0,0,0,0,0,0,-1,825,1128,0,0
-392,-104,0,0,0,0,0,0,0,0,0,-1,832,1128,0,0
-385,-104,0,0,0,0,0,0,0,0,0,-1,839,1128,0,0
-378,-104,0,0,0,0,0,0,0,0,0,-1,846,1128,0,0
-371,-104,0,0,0,0,0,0,0,0,0,-1,853,1128,0,0
-364,-104,0,0,0,0,0,0,0,0,0,-1,860,1128,0,0
-357,-104,0,0,0,0,0,0,0,0,0,-1,867,1128,0,0
-350,-104,0,0,0,0,0,0,0,0,0,-1,874,1128,0,0
-343,-104,0,0,0,0,0,0,0,0,0,-1,881,1128,0,0
-336,-104,0,0,0,0,0,0,0,0,0,-1,888,1128,0,0
-329,-104,0,0,0,0,0,0,0,0,0,-1,895,1128,0,0
-322,-104,0,0,0,0,0,0,0,0,0,-1,902,1128,0,0
-315,-104,0,0,0,0,0,0,0,0,0,-1,909,1128,0,0
-308,-104,0,0,0,0,0,0,0,0,0,-1,916,1128,0,0
-301,-104,0,0,0,0,0,0,0,0,0,-1,923,1128,0,0
-294,-104,0,0,0,0,0,0,0,0,0,-1,930,1128,0,0
-287,-104,0,0,0,0,0,0,0,0,0,-1,937,1128,0,0
-280,-104,0,0,0,0,0,0,0,0,0,-1,944,1128,0,0
-273,-104,0,0,0,0,0,0,0,0,0,-1,951,1128,0,0
-266,-104,0,0,0,0,0,0,0,0,0,-1,958,1128,0,0
-259,-104,0,0,0,0,0,0,0,0,0,-1,965,1128,0,0
-252,-104,0,0,0,0,0,0,0,0,0,-1,972,1128,0,0
-245,-104,0,0,0,0,0,0,0,0,0,-1,979,1128,0,0
-238,-104,0,0,0,0,0,0,0,0,0,-1,986,1128,0,0
-231,-104,0,0,0,0,0,0,0,0,0,-1,993,1128,0,0
-224,-104,0,0,0,0,0,0,0,0,0,-1,1000,1128,0,0
-217,-104,0,0,0,0,0,0,0,0,0,-1,1007,1128,0,0
-210,-104,0,0,0,0,0,0,0,0,0,-1,1014,1128,0,0
-203,-104,0,0,0,0,0,0,0,0,0,-1,1021,1128,0,0
-196,-104,0,0,0,0,0,0,0,0,0,-1,1028,1128,0,0
-189,-104,0,0,0,0,0,0,0,0,0,-1,1035,1128,0,0
-182,-104,0,0,0,0,0,0,0,0,0,-1,1042,1128,0,0
-175,-104,0,0,0,0,0,0,0,0,0,-1,1049,1128,0,0
-168,-104,0,0,0,0,0,0,0,0,0,-1,1056,1128,0,0
-161,-104,0,0,0,0,0,0,0,0,0,-1,1063,1128,0,0
-154,-104,0,0,0,0,0,0,0,0,0,-1,1070,1128,0,0
-147,-104,0,0,0,0,0,0,0,0,0,-1,1077,1128,0,0
-140,-104,0,0,0,0,0,0,0,0,0,-1,1084,1128,0,0
-133,-104,0,0,0,0,0,0,0,0,0,-1,1091,1128,0,0
-126,-104,0,0,0,0,0,0,0,0,0,-1,1098,1128,0,0
-119,-104,0,0,0,0,0,0,0,0,0,-1,1105,1128,0,0
-112,-104,0,0,0,0,0,0,0,0,0,-1,1112,1128,0,0
-105,-104,0,0,0,0,0,0,0,0,0,-1,1119,1128,0,0
-98,-104,0,0,0,0,0,0,0,0,0,-1,1126,1128,0,0
-91,-104,0,0,0,0,0,0,0,0,0,-1,1133,1128,0,0
-84,-104,0,0,0,0,0,0,0,0,0,-1,1140,1128,0,0
-77,-104,0,0,0,0,0,0,0,0,0,-1,1147,1128,0,0
-70,-104,0,0,0,0,0,0,0,0,0,-1,1154,1128,0,0
-63,-104,0,0,0,0,0,0,0,0,0,-1,1161,1128,0,0
-56,-104,0,0,0,0,0,0,0,0,0,-1,1168,1128,0,0
-49,-104,0,0,0,0,0,0,0,0,0,-1,1175,1128,0,0
-42,-104,0,0,0,0,0,0,0,0,0,-1,1182,1128,0,0
-35,-104,0,0,0,0,0,0,0,0,0,-1,1189,1128,0,0
-28,-104,0,0,0,0,0,0,0,0,0,-1,1196,1128,0,0
-21,-104,0,0,0,0,0,0,0,0,0,-1,1203,1128,0,0
-14,-104,0,0,0,0,0,0,0,0,0,-1,1210,1128,0,0
-7,-104,0,0,0,0,0,0,0,0,0,-1,1217,1128,0,0
0,-104,0,0,0,0,0,0,0,0,0,-1,1224,1128,0,0
7,-104,0,0,0,0,0,0,0,0,0,-1,1231,1128,0,0
14,-104,0,0,0,0,0,0,0,0,0,-1,1238,1128,0,0
21,-104,0,0,0,0,0,0,0,0,0,-1,1245,1128,0,0
28,-104,0,0,0,0,0,0,0,0,0,-1,1252,1128,0,0
35,-104,0,0,0,0,0,0,0,0,0,-1,1259,1128,0,0
42,-104,0,0,0,0,0,0,0,0,0,-1,1266,1128,0,0
49,-104,0,0,0,0,0,0,0,0,0,-1,1273,1128,0,0
56,-104,0,0,0,0,0,0,0,0,0,-1,1280,1128,0,0
63,-104,0,0,0,0,0,0,0,0,0,-1,1287,1128,0,0
70,-104,0,0,0,0,0,0,0,0,0,-1,1294,1128,0,0
77,-104,0,0,0,0,0,0,0,0,0,-1,1301,1128,0,0
84,-104,0,0,0,0,0,0,0,0,0,-1,1308,1128,0,0
91,-104,0,0,0,0,0,0,0,0,0,-1,1315,1128,0,0
98,-104,0,0,0,0,0,0,0,0,0,-1,1322,1128,0,0
105,-104,0,0,0,0,0,0,0,0,0,-1,1329,1128,0,0
112,-104,0,0,0,0,0,0,0,0,0,-1,1336,1128,0,0
119,-104,0,0,0,0,0,0,0,0,0,-1,1343,1128,0,0
126,-104,0,0,0,0,0,0,0,0,0,-1,1350,1128,0,0
133,-104,0,0,0,0,0,0,0,0,0,-1,1357,1128,0,0
140,-104,0,0,0,0,0,0,0,0,0,-1,1364,1128,0,0
147,-104,0,0,0,0,0,0,0,0,0,-1,1371,1128,0,0
154,-104,0,0,0,0,0,0,0,0,0,-1,1378,1128,0,0
161,-104,0,0,0,0,0,0,0,0,0,-1,1385,1128,0,0
168,-104,0,0,0,0,0,0,0,0,0,-1,1392,1128,0,0
175,-104,0,0,0,0,0,0,0,0,0,-1,1399,1128,0,0
182,-104,0,0,0,0,0,0,0,0,0,-1,1406,1128,0,0
189,-104,0,0,0,0,0,0,0,0,0,-1,1413,1128,0,0
196,-104,0,0,0,0,0,0,0,0,0,-1,1420,1128,0,0
203,-104,0,0,0,0,0,0,0,0,0,-1,1427,1128,0,0
210,-104,0,0,0,0,0,0,0,0,0,-1,1434,1128,0,0
217,-104,0,0,0,0,0,0,0,0,0,-1,1441,1128,0,0
224,-104,0,0,0,0,0,0,0,0,0,-1,1448,1128,0,0
231,-104,0,0,0,0,0,0,0,0,0,-1,1455,1128,0,0
238,-104,0,0,0,0,0,0,0,0,0,-1,1462,1128,0,0
245,-104,0,0,0,0,0,0,0,0,0,-1,1469,1128,0,0
252,-104,0,0,0,0,0,0,0,0,0,-1,1476,1128,0,0
259,-104,0,0,0,0,0,0,0,0,0,-1,1483,1128,0,0
266,-104,0,0,0,0,0,0,0,0,0,-1,1490,1128,0,0
273,-104,0,0,0,0,0,0,0,0,0,-1,1497,1128,0,0
280,-104,0,0,0,0,0,0,0,0,0,-1,1504,1128,0,0
287,-104,0,0,0,0,0,0,0,0,0,-1,1511,1128,0,0
294,-104,0,0,0,0,0,0,0,0,0,-1,1518,1128,0,0
301,-104,0,0,0,0,0,0,0,0,0,-1,1525,1128,0,0
308,-104,0,0,0,0,0,0,0,0,0,-1,1532,1128,0,0
315,-104,0,0,0,0,0,0,0,0,0,-1,1539,1128,0,0
322,-104,0,0,0,0,0,0,0,0,0,-1,1546,1128,0,0
329,-104,0,0,0,0,0,0,0,0,0,-1,1553,1128,0,0
336,-104,0,0,0,0,0,0,0,0,0,-1,1560,1128,0,0
343,-104,0,0,0,0,0,0,0,0,0,-1,1567,1128,0,0
350,-104,0,0,0,0,0,0,0,0,0,-1,1574,1128,0,0
357,-104,0,0,0,0,0,0,0,0,0,-1,1581,1128,0,0
364,-104,0,0,0,0,0,0,0,0,0,-1,1588,1128,0,0
371,-104,0,0,0,0,0,0,0,0,0,-1,1595,1128,0,0
378,-104,0,0,0,0,0,0,0,0,0,-1,1602,1128,0,0
385,-104,0,0,0,0,0,0,0,0,0,-1,1609,1128,0,0
392,-104,0,0,0,0,0,0,0,0,0,-1,1616,1128,0,0
399,-104,0,0,0,0,0,0,0,0,0,-1,1623,1128,0,0
406,-104,0,0,0,0,0,0,0,0,0,-1,1630,1128,0,0
413,-104,0,0,0,0,0,0,0,0,0,-1,1637,1128,0,0
420,-104,0,0,0,0,0,0,0,0,0,-1,1644,1128,0,0
427,-104,0,0,0,0,0,0,0,0,0,-1,1651,1128,0,0
434,-104,0,0,0,0,0,0,0,0,0,-1,1658,1128,0,0
441,-104,0,0,0,0,0,0,0,0,0,-1,1665,1128,0,0
448,-104,0,0,0,0,0,0,0,0,0,-1,1672,1128,0,0
455,-104,0,0,0,0,0,0,0,0,0,-1,1679,1128,0,0
462,-104,0,0,0,0,0,0,0,0,0,-1,1686,1128,0,0
469,-104,0,0,0,0,0,0,0,0,0,-1,1693,1128,0,0
476,-104,0,0,0,0,0,0,0,0,0,-1,1700,1128,0,0
483,-104,0,0,0,0,0,0,0,0,0,-1,1707,1128,0,0
490,-104,0,0,0,0,0,0,0,0,0,-1,1714,1128,0,0
497,-104,0,0,0,0,0,0,0,0,0,-1,1721,1128,0,0
504,-104,0,0,0,0,0,0,0,0,0,-1,1728,1128,0,0
511,-104,0,0,0,0,0,0,0,0,0,-1,1735,1128,0,0
518,-104,0,0,0,0,0,0,0,0,0,-1,1742,1128,0,0
525,-104,0,0,0,0,0,0,0,0,0,-1,1749,1128,0,0
532,-104,0,0,0,0,0,0,0,0,0,-1,1756,1128,0,0
539,-104,0,0,0,0,0,0,0,0,0,-1,1763,1128,0,0
546,-104,0,0,0,0,0,0,0,0,0,-1,1770,1128,0,0
553,-104,0,0,0,0,0,0,0,0,0,-1,1777,1128,0,0
560,-104,0,0,0,0,0,0,0,0,0,-1,1784,1128,0,0
567,-104,0,0,0,0,0,0,0,0,0,-1,1791,1128,0,0
574,-104,0,0,0,0,0,0,0,0,0,-1,1798,1128,0,0
581,-104,0,0,0,0,0,0,0,0,0,-1,1805,1128,0,0
588,-104,0,0,0,0,0,0,0,0,0,-1,1812,1128,0,0
595,-104,0,0,0,0,0,0,0,0,0,-1,1819,1128,0,0
602,-104,0,0,0,0,0,0,0,0,0,-1,1826,1128,0,0
609,-104,0,0,0,0,0,0,0,0,0,-1,1833,1128,0,0
616,-104,0,0,0,0,0,0,0,0,0,-1,1840,1128,0,0
623,-104,0,0,0,0,0,0,0,0,0,-1,1847,1128,0,0
630,-104,0,0,0,0,0,0,0,0,0,-1,1854,1128,0,0
637,-104,0,0,0,0,0,0,0,0,0,-1,1861,1128,0,0
644,-104,9.51636,1.50928,0.00629475,0.000269861,0.00234992,0.0071029,-0.000538288,0.331235,0.00492451,0.0360606,1868,1128,9.51638,-1.50929
651,-104,9.54041,1.51428,0.00455724,-3.98799e-06,0.00136151,0.00493273,-0.000379484,0.269103,0.003422,0.0378468,1875,1128,9.54044,-1.51434
658,-104,9.48132,1.52832,0.003419,-0.000265034,0.000681224,0.00354093,-0.000386965,0.177113,0.00249962,0.0422011,1882,1128,9.48133,-1.52834
665,-104,9.65137,1.50745,0.00215867,-0.000666274,0.000547884,0.0022612,-0.000768812,0.185012,0.00181874,0.0448235,1889,1128,9.6514,-1.5075
672,-104,9.77588,1.48657,0.000774657,-0.00110433,0.000887046,0.00112725,-0.00145693,0.378346,0.00149602,0.044238,1896,1128,9.77587,-1.48659
679,-104,9.69519,1.51636,-0.000483473,-0.00147803,0.00134188,0.000450302,-0.00241181,0.607951,0.00177709,0.0424956,1903,1128,9.69514,-1.51637
686,-104,9.58789,1.39124,-0.00157744,-0.00177094,0.00182973,0.000158096,-0.00350648,0.758984,0.00239209,0.0398005,1910,1128,9.58785,-1.39128
693,-104,9.54688,1.30237,-0.00245256,-0.0019591,0.00226986,7.74066e-05,-0.00448906,0.839535,0.00301884,0.0335641,1917,1128,9.54686,-1.30233
700,-104,9.58362,1.24182,-0.00312585,-0.00206417,0.00250886,-3.06007e-05,-0.00515942,0.889654,0.00342946,0.0264512,1924,1128,9.58365,-1.2418
707,-104,9.56873,1.30261,-0.00361175,-0.00207252,0.00277541,3.80015e-05,-0.00572228,0.920649,0.00382758,0.026015,1931,1128,9.56872,-1.30265
714,-104,9.45337,1.56226,-0.0038541,-0.00197526,0.00299528,0.000224462,-0.00605382,0.937356,0.00411274,0.0307342,1938,1128,9.45337,-1.56226
721,-104,9.31152,1.76428,-0.00382252,-0.00174792,0.00296665,0.000357551,-0.00592799,0.953581,0.00407641,0.0169846,1945,1128,9.3115,-1.76424
728,-104,9.36902,1.6969,-0.00354587,-0.00145206,0.00270353,0.000400186,-0.00539812,0.970126,0.00373928,0.0203896,1952,1128,9.36901,-1.69695
735,-104,9.3092,1.6582,-0.0028659,-0.0010954,0.00234249,0.000523538,-0.00448483,0.966058,0.0031788,0.0208537,1959,1128,9.30923,-1.65822
742,-104,9.25793,1.68201,-0.00171503,-0.000596577,0.00194845,0.000871316,-0.00318292,0.925147,0.00246428,0.0145995,1966,1128,9.25795,-1.68197
749,-104,9.28699,1.67114,-5.69595e-05,-0.000118091,0.00141749,0.00133029,-0.00150534,0.774618,0.00163819,0.0171039,1973,1128,9.28702,-1.6712
756,-104,9.28821,1.62927,0.00146891,5.98073e-05,0.00085024,0.00186858,-0.00033986,0.439413,0.0013731,0.0165837,1980,1128,9.28822,-1.62932
763,-104,9.28101,1.59363,0.00320095,-5.04369e-05,0.000112039,0.00320481,-5.42931e-05,0.0344044,0.00215486,0.0149948,1987,1128,9.28095,-1.59361
770,-104,9.28076,1.55823,0.00530284,-0.000136785,-0.00058646,0.00536535,-0.000199294,-0.106187,0.00364515,0.0117493,1994,1128,9.28076,-1.55827
777,-104,9.27856,1.52307,0.00734638,-0.000581936,-0.00108885,0.0074932,-0.000728757,-0.134032,0.00525526,0.0177702,2001,1128,9.27851,-1.52303
784,-104,9.27966,1.50647,0.00931991,-0.00140938,-0.00151139,0.00952875,-0.00161822,-0.137307,0.00695495,0.036036,2008,1128,9.27969,-1.50643
791,-104,9.1864,1.52417,0.0111588,-0.00270669,-0.00200646,0.0114433,-0.00299121,-0.14086,0.00879712,0.0447951,2015,1128,9.18635,-1.52416
798,-104,9.11267,1.40576,0.012598,-0.00460142,-0.00257991,0.0129767,-0.00498007,-0.145728,0.0107045,0.0472123,2022,1128,9.11266,-1.40582
805,-104,9.24329,1.23438,0.0132525,-0.00724641,-0.00327331,0.0137625,-0.00775641,-0.154563,0.0125842,0.0453433,2029,1128,9.24327,-1.23438
812,-104,8.76746,1.245,0.0123487,-0.0108409,-0.00409764,0.0130515,-0.0115437,-0.169851,0.0142089,0.0448731,2036,1128,8.7674,-1.24497
-700,-111,0,0,0,0,0,0,0,0,0,-1,524,1135,0,0
-693,-111,-7.30817,0.0845947,0,0,0,0,0,0,0,-1,531,1135,-7.30818,-0.0845816
-686,-111,-6.41815,0.447021,0,0,0,0,0,0,0,-1,538,1135,-6.41818,-0.447027
-679,-111,-3.06586,1.97607,0,0,0,0,0,0,0,-1,545,1135,-3.06584,-1.97606
-672,-111,-4.27869,2.49902,0,0,0,0,0,0,0,-1,552,1135,-4.27868,-2.49907
-665,-111,-4.04541,2.76477,0.0258561,0.00753503,-0.000451642,0.0258672,0.00752391,-0.0246316,0.0153638,0.0466635,559,1135,-4.04538,-2.76473
-658,-111,-4.01849,1.74463,0.0193065,0.00581682,-0.0016338,0.0195015,0.00562176,-0.118826,0.0115908,0.0438734,566,1135,-4.0185,-1.74458
-651,-111,-4.03674,0.693604,0.0140283,0.004427,-0.00216574,0.0144942,0.00396109,-0.211898,0.00865024,0.0376243,573,1135,-4.03676,-0.693622
-644,-111,-3.94867,0.65918,0.00991578,0.00330886,-0.00225751,0.0106135,0.00261117,-0.299741,0.00638576,0.0217082,580,1135,-3.94865,-0.659176
-637,-111,-3.93286,0.743164,0.00671904,0.00237837,-0.00220869,0.00764526,0.00145215,-0.397078,0.00468836,0.00830449,587,1135,-3.93286,-0.743124
-630,-111,-3.93414,0.783081,0.00372289,0.00145124,-0.00231425,0.00516502,9.1095e-06,-0.55727,0.00344031,0.0120711,594,1135,-3.93413,-0.783065
-623,-111,-3.93811,0.813721,0.00150298,0.000306715,-0.00279419,0.00376234,-0.00195265,-0.679958,0.00335424,0.0118414,601,1135,-3.93812,-0.81372
-616,-111,-3.93579,0.837891,5.75916e-05,0.000301794,-0.00278078,0.00296316,-0.00260377,-0.807338,0.0032163,0.0126516,608,1135,-3.93579,-0.837902
-609,-111,-3.93604,0.87854,-0.001015,-0.000395148,-0.00256284,0.00187644,-0.00328658,-0.845571,0.0030177,0.0146694,615,1135,-3.93605,-0.878504
-602,-111,-3.93677,0.921631,-0.00179463,-0.00121635,-0.00266036,0.00117054,-0.00418152,-0.839528,0.00324893,0.0139163,622,1135,-3.93675,-0.921572
-595,-111,-3.9422,0.976196,-0.00246464,-0.00157977,-0.00288887,0.000900343,-0.00494476,-0.861384,0.00363399,0.0112404,629,1135,-3.9422,-0.976151
-588,-111,-3.93353,1.05115,-0.00295988,-0.00181998,-0.00303634,0.000699441,-0.0054793,-0.878173,0.00390694,0.0180631,636,1135,-3.93356,-1.0512
-581,-111,-3.98657,0.848999,-0.00322507,-0.00202873,-0.00304873,0.000479962,-0.00573376,-0.882269,0.00399212,0.0296415,643,1135,-3.98655,-0.848985
-574,-111,-4.08972,0.564575,-0.00333819,-0.00211305,-0.00287103,0.000210035,-0.00566127,-0.890504,0.0038461,0.0402902,650,1135,-4.08975,-0.564581
-567,-111,-4.04944,0.637085,-0.00339669,-0.00209386,-0.0025252,-0.000137405,-0.00535315,-0.911629,0.00352386,0.0376594,657,1135,-4.04945,-0.637032
-560,-111,-3.90961,0.419067,-0.00329072,-0.00190029,-0.00188843,-0.000583166,-0.00460784,-0.961771,0.00289714,0.0407537,664,1135,-3.9096,-0.419091
-553,-111,-3.92017,0.29834,-0.00291538,-0.00149307,-0.000955728,-0.00101294,-0.00339551,-1.10525,0.00201286,0.0483845,671,1135,-3.92019,-0.298305
-546,-111,-4.16888,0.379761,-0.00221279,-0.000844336,0.000292762,-0.000784335,-0.00227279,1.36865,0.00133302,0.0429652,678,1135,-4.16888,-0.379704
-539,-111,-4.37805,0.403564,-0.00104784,7.73359e-05,0.00185843,0.00145647,-0.00242697,0.932374,0.00226532,0.0410619,685,1135,-4.37802,-0.40357
-532,-111,-4.30145,0.536865,0.000577046,0.00125264,0.00349199,0.00442314,-0.00259345,0.833616,0.00409668,0.0419725,692,1135,-4.30147,-0.536888
-525,-111,-4.27985,0.716431,0.00220066,0.00246503,0.0044487,0.00678351,-0.00211782,0.800251,0.00536936,0.0380749,699,1135,-4.27984,-0.716469
-518,-111,0,0,0,0,0,0,0,0,0,-1,706,1135,0,0
-511,-111,0,0,0,0,0,0,0,0,0,-1,713,1135,0,0
-504,-111,0,0,0,0,0,0,0,0,0,-1,720,1135,0,0
-497,-111,0,0,0,0,0,0,0,0,0,-1,727,1135,0,0
-490,-111,0,0,0,0,0,0,0,0,0,-1,734,1135,0,0
-483,-111,0,0,0,0,0,0,0,0,0,-1,741,1135,0,0
-476,-111,0,0,0,0,0,0,0,0,0,-1,748,1135,0,0
-469,-111,0,0,0,0,0,0,0,0,0,-1,755,1135,0,0
-462,-111,0,0,0,0,0,0,0,0,0,-1,762,1135,0,0
-455,-111,0,0,0,0,0,0,0,0,0,-1,769,1135,0,0
-448,-111,0,0,0,0,0,0,0,0,0,-1,776,1135,0,0
-441,-111,0,0,0,0,0,0,0,0,0,-1,783,1135,0,0
-434,-111,0,0,0,0,0,0,0,0,0,-1,790,1135,0,0
-427,-111,0,0,0,0,0,0,0,0,0,-1,797,1135,0,0
-420,-111,0,0,0,0,0,0,0,0,0,-1,804,1135,0,0
-413,-111,0,0,0,0,0,0,0,0,0,-1,811,1135,0,0
-406,-111,0,0,0,0,0,0,0,0,0,-1,818,1135,0,0
-399,-111,0,0,0,0,0,0,0,0,0,-1,825,1135,0,0
-392,-111,0,0,0,0,0,0,0,0,0,-1,832,1135,0,0
-385,-111,0,0,0,0,0,0,0,0,0,-1,839,1135,0,0
-378,-111,0,0,0,0,0,0,0,0,0,-1,846,1135,0,0
-371,-111,0,0,0,0,0,0,0,0,0,-1,853,1135,0,0
-364,-111,0,0,0,0,0,0,0,0,0,-1,860,1135,0,0
-357,-111,0,0,0,0,0,0,0,0,0,-1,867,1135,0,0
-350,-111,0,0,0,0,0,0,0,0,0,-1,874,1135,0,0
-343,-111,0,0,0,0,0,0,0,0,0,-1,881,1135,0,0
-336,-111,0,0,0,0,0,0,0,0,0,-1,888,1135,0,0
-329,-111,0,0,0,0,0,0,0,0,0,-1,895,1135,0,0
-322,-111,0,0,0,0,0,0,0,0,0,-1,902,1135,0,0
-315,-111,0,0,0,0,0,0,0,0,0,-1,909,1135,0,0
-308,-111,0,0,0,0,0,0,0,0,0,-1,916,1135,0,0
-301,-111,0,0,0,0,0,0,0,0,0,-1,923,1135,0,0
-294,-111,0,0,0,0,0,0,0,0,0,-1,930,1135,0,0
-287,-111,0,0,0,0,0,0,0,0,0,-1,937,1135,0,0
-280,-111,0,0,0,0,0,0,0,0,0,-1,944,1135,0,0
-273,-111,0,0,0,0,0,0,0,0,0,-1,951,1135,0,0
-266,-111,0,0,0,0,0,0,0,0,0,-1,958,1135,0,0
-259,-111,0,0,0,0,0,0,0,0,0,-1,965,1135,0,0
-252,-111,0,0,0,0,0,0,0,0,0,-1,972,1135,0,0
-245,-111,0,0,0,0,0,0,0,0,0,-1,979,1135,0,0
-238,-111,0,0,0,0,0,0,0,0,0,-1,986,1135,0,0
-231,-111,0,0,0,0,0,0,0,0,0,-1,993,1135,0,0
-224,-111,0,0,0,0,0,0,0,0,0,-1,1000,1135,0,0
-217,-111,0,0,0,0,0,0,0,0,0,-1,1007,1135,0,0
-210,-111,0,0,0,0,0,0,0,0,0,-1,1014,1135,0,0
-203,-111,0,0,0,0,0,0,0,0,0,-1,1021,1135,0,0
-196,-111,0,0,0,0,0,0,0,0,0,-1,1028,1135,0,0
-189,-111,0,0,0,0,0,0,0,0,0,-1,1035,1135,0,0
-182,-111,0,0,0,0,0,0,0,0,0,-1,1042,1135,0,0
-175,-111,0,0,0,0,0,0,0,0,0,-1,1049,1135,0,0
-168,-111,0,0,0,0,0,0,0,0,0,-1,1056,1135,0,0
-161,-111,0,0,0,0,0,0,0,0,0,-1,1063,1135,0,0
-154,-111,0,0,0,0,0,0,0,0,0,-1,1070,1135,0,0
-147,-111,0,0,0,0,0,0,0,0,0,-1,1077,1135,0,0
-140,-111,0,0,0,0,0,0,0,0,0,-1,1084,1135,0,0
-133,-111,0,0,0,0,0,0,0,0,0,-1,1091,1135,0,0
-126,-111,0,0,0,0,0,0,0,0,0,-1,1098,1135,0,0
-119,-111,0,0,0,0,0,0,0,0,0,-1,1105,1135,0,0
-112,-111,0,0,0,0,0,0,0,0,0,-1,1112,1135,0,0
-105,-111,0,0,0,0,0,0,0,0,0,-1,1119,1135,0,0
-98,-111,0,0,0,0,0,0,0,0,0,-1,1126,1135,0,0
-91,-111,0,0,0,0,0,0,0,0,0,-1,1133,1135,0,0
-84,-111,0,0,0,0,0,0,0,0,0,-1,1140,1135,0,0
-77,-111,0,0,0,0,0,0,0,0,0,-1,1147,1135,0,0
-70,-111,0,0,0,0,0,0,0,0,0,-1,1154,1135,0,0
-63,-111,0,0,0,0,0,0,0,0,0,-1,1161,1135,0,0
-56,-111,0,0,0,0,0,0,0,0,0,-1,1168,1135,0,0
-49,-111,0,0,0,0,0,0,0,0,0,-1,1175,1135,0,0
-42,-111,0,0,0,0,0,0,0,0,0,-1,1182,1135,0,0
-35,-111,0,0,0,0,0,0,0,0,0,-1,1189,1135,0,0
-28,-111,0,0,0,0,0,0,0,0,0,-1,1196,1135,0,0
-21,-111,0,0,0,0,0,0,0,0,0,-1,1203,1135,0,0
-14,-111,0,0,0,0,0,0,0,0,0,-1,1210,1135,0,0
-7,-111,0,0,0,0,0,0,0,0,0,-1,1217,1135,0,0
0,-111,0,0,0,0,0,0,0,0,0,-1,1224,1135,0,0
7,-111,0,0,0,0,0,0,0,0,0,-1,1231,1135,0,0
14,-111,0,0,0,0,0,0,0,0,0,-1,1238,1135,0,0
21,-111,0,0,0,0,0,0,0,0,0,-1,1245,1135,0,0
28,-111,0,0,0,0,0,0,0,0,0,-1,1252,1135,0,0
35,-111,0,0,0,0,0,0,0,0,0,-1,1259,1135,0,0
42,-111,0,0,0,0,0,0,0,0,0,-1,1266,1135,0,0
49,-111,0,0,0,0,0,0,0,0,0,-1,1273,1135,0,0
56,-111,0,0,0,0,0,0,0,0,0,-1,1280,1135,0,0
63,-111,0,0,0,0,0,0,0,0,0,-1,1287,1135,0,0
70,-111,0,0,0,0,0,0,0,0,0,-1,1294,1135,0,0
77,-111,0,0,0,0,0,0,0,0,0,-1,1301,1135,0,0
84,-111,0,0,0,0,0,0,0,0,0,-1,1308,1135,0,0
91,-111,0,0,0,0,0,0,0,0,0,-1,1315,1135,0,0
98,-111,0,0,0,0,0,0,0,0,0,-1,1322,1135,0,0
105,-111,0,0,0,0,0,0,0,0,0,-1,1329,1135,0,0
112,-111,0,0,0,0,0,0,0,0,0,-1,1336,1135,0,0
119,-111,0,0,0,0,0,0,0,0,0,-1,1343,1135,0,0
126,-111,0,0,0,0,0,0,0,0,0,-1,1350,1135,0,0
133,-111,0,0,0,0,0,0,0,0,0,-1,1357,1135,0,0
140,-111,0,0,0,0,0,0,0,0,0,-1,1364,1135,0,0
147,-111,0,0,0,0,0,0,0,0,0,-1,1371,1135,0,0
154,-111,0,0,0,0,0,0,0,0,0,-1,1378,1135,0,0
161,-111,0,0,0,0,0,0,0,0,0,-1,1385,1135,0,0
168,-111,0,0,0,0,0,0,0,0,0,-1,1392,1135,0,0
175,-111,0,0,0,0,0,0,0,0,0,-1,1399,1135,0,0
182,-111,0,0,0,0,0,0,0,0,0,-1,1406,1135,0,0
189,-111,0,0,0,0,0,0,0,0,0,-1,1413,1135,0,0
196,-111,0,0,0,0,0,0,0,0,0,-1,1420,1135,0,0
203,-111,0,0,0,0,0,0,0,0,0,-1,1427,1135,0,0
210,-111,0,0,0,0,0,0,0,0,0,-1,1434,1135,0,0
217,-111,0,0,0,0,0,0,0,0,0,-1,1441,1135,0,0
224,-111,0,0,0,0,0,0,0,0,0,-1,1448,1135,0,0
231,-111,0,0,0,0,0,0,0,0,0,-1,1455,1135,0,0
238,-111,0,0,0,0,0,0,0,0,0,-1,1462,1135,0,0
245,-111,0,0,0,0,0,0,0,0,0,-1,1469,1135,0,0
252,-111,0,0,0,0,0,0,0,0,0,-1,1476,1135,0,0
259,-111,0,0,0,0,0,0,0,0,0,-1,1483,1135,0,0
266,-111,0,0,0,0,0,0,0,0,0,-1,1490,1135,0,0
273,-111,0,0,0,0,0,0,0,0,0,-1,1497,1135,0,0
280,-111,0,0,0,0,0,0,0,0,0,-1,1504,1135,0,0
287,-111,0,0,0,0,0,0,0,0,0,-1,1511,1135,0,0
294,-111,0,0,0,0,0,0,0,0,0,-1,1518,1135,0,0
301,-111,0,0,0,0,0,0,0,0,0,-1,1525,1135,0,0
308,-111,0,0,0,0,0,0,0,0,0,-1,1532,1135,0,0
315,-111,0,0,0,0,0,0,0,0,0,-1,1539,1135,0,0
322,-111,0,0,0,0,0,0,0,0,0,-1,1546,1135,0,0
329,-111,0,0,0,0,0,0,0,0,0,-1,1553,1135,0,0
336,-111,0,0,0,0,0,0,0,0,0,-1,1560,1135,0,0
343,-111,0,0,0,0,0,0,0,0,0,-1,1567,1135,0,0
350,-111,0,0,0,0,0,0,0,0,0,-1,1574,1135,0,0
357,-111,0,0,0,0,0,0,0,0,0,-1,1581,1135,0,0
364,-111,0,0,0,0,0,0,0,0,0,-1,1588,1135,0,0
371,-111,0,0,0,0,0,0,0,0,0,-1,1595,1135,0,0
378,-111,0,0,0,0,0,0,0,0,0,-1,1602,1135,0,0
385,-111,0,0,0,0,0,0,0,0,0,-1,1609,1135,0,0
392,-111,0,0,0,0,0,0,0,0,0,-1,1616,1135,0,0
399,-111,0,0,0,0,0,0,0,0,0,-1,1623,1135,0,0
406,-111,0,0,0,0,0,0,0,0,0,-1,1630,1135,0,0
413,-111,0,0,0,0,0,0,0,0,0,-1,1637,1135,0,0
420,-111,0,0,0,0,0,0,0,0,0,-1,1644,1135,0,0
427,-111,0,0,0,0,0,0,0,0,0,-1,1651,1135,0,0
434,-111,0,0,0,0,0,0,0,0,0,-1,1658,1135,0,0
441,-111,0,0,0,0,0,0,0,0,0,-1,1665,1135,0,0
448,-111,0,0,0,0,0,0,0,0,0,-1,1672,1135,0,0
455,-111,0,0,0,0,0,0,0,0,0,-1,1679,1135,0,0
462,-111,0,0,0,0,0,0,0,0,0,-1,1686,1135,0,0
469,-111,0,0,0,0,0,0,0,0,0,-1,1693,1135,0,0
476,-111,0,0,0,0,0,0,0,0,0,-1,1700,1135,0,0
483,-111,0,0,0,0,0,0,0,0,0,-1,1707,1135,0,0
490,-111,0,0,0,0,0,0,0,0,0,-1,1714,1135,0,0
497,-111,0,0,0,0,0,0,0,0,0,-1,1721,1135,0,0
504,-111,0,0,0,0,0,0,0,0,0,-1,1728,1135,0,0
511,-111,0,0,0,0,0,0,0,0,0,-1,1735,1135,0,0
518,-111,0,0,0,0,0,0,0,0,0,-1,1742,1135,0,0
525,-111,0,0,0,0,0,0,0,0,0,-1,1749,1135,0,0
532,-111,0,0,0,0,0,0,0,0,0,-1,1756,1135,0,0
539,-111,0,0,0,0,0,0,0,0,0,-1,1763,1135,0,0
546,-111,0,0,0,0,0,0,0,0,0,-1,1770,1135,0,0
553,-111,0,0,0,0,0,0,0,0,0,-1,1777,1135,0,0
560,-111,0,0,0,0,0,0,0,0,0,-1,1784,1135,0,0
567,-111,0,0,0,0,0,0,0,0,0,-1,1791,1135,0,0
574,-111,0,0,0,0,0,0,0,0,0,-1,1798,1135,0,0
581,-111,0,0,0,0,0,0,0,0,0,-1,1805,1135,0,0
588,-111,0,0,0,0,0,0,0,0,0,-1,1812,1135,0,0
595,-111,0,0,0,0,0,0,0,0,0,-1,1819,1135,0,0
602,-111,0,0,0,0,0,0,0,0,0,-1,1826,1135,0,0
609,-111,0,0,0,0,0,0,0,0,0,-1,1833,1135,0,0
616,-111,0,0,0,0,0,0,0,0,0,-1,1840,1135,0,0
623,-111,0,0,0,0,0,0,0,0,0,-1,1847,1135,0,0
630,-111,0,0,0,0,0,0,0,0,0,-1,1854,1135,0,0
637,-111,0,0,0,0,0,0,0,0,0,-1,1861,1135,0,0
644,-111,9.41187,1.56995,0.00589119,0.000500533,0.00229155,0.00673366,-0.000341935,0.352303,0.00460731,0.0354329,1868,1135,9.41187,-1.56989
651,-111,9.55237,1.52917,0.00425494,0.000349673,0.00144595,0.00473203,-0.000127416,0.318701,0.00319801,0.0387338,1875,1135,9.55237,-1.52915
658,-111,9.56445,1.44519,0.00317861,0.000126845,0.000846426,0.00339765,-9.21946e-05,0.253227,0.00229645,0.0435544,1882,1135,9.56442,-1.44515
665,-111,9.74756,1.41602,0.00188608,-0.00029899,0.000761816,0.00212546,-0.00053837,0.304454,0.00162641,0.0443473,1889,1135,9.74758,-1.41598
672,-111,9.797,1.32788,0.000478544,-0.000781666,0.00107589,0.00109526,-0.00139839,0.520494,0.00144325,0.0444581,1896,1135,9.79696,-1.32782
679,-111,9.68457,1.36682,-0.00077116,-0.00121368,0.00147408,0.000498176,-0.00248301,0.710905,0.00184397,0.0436101,1903,1135,9.68461,-1.36687
686,-111,9.55151,1.40259,-0.00185294,-0.00157216,0.00189659,0.000189229,-0.00361433,0.822342,0.00247504,0.0400255,1910,1135,9.55149,-1.40265
693,-111,9.52332,1.33691,-0.00270719,-0.00181259,0.00226216,4.60704e-05,-0.00456585,0.883005,0.00305937,0.0333867,1917,1135,9.52331,-1.33692
700,-111,9.57971,1.31177,-0.00333511,-0.00198086,0.00245234,-0.000113886,-0.00520209,0.920099,0.00343073,0.0266103,1924,1135,9.57973,-1.31177
707,-111,9.6156,1.43091,-0.00378388,-0.00204818,0.00266562,-0.000112694,-0.00571936,0.942773,0.0037759,0.0402055,1931,1135,9.61561,-1.43088
714,-111,9.39294,1.56238,-0.0040176,-0.00198406,0.00284454,1.99724e-05,-0.00602163,0.957045,0.00402109,0.0194827,1938,1135,9.39298,-1.5624
721,-111,9.27612,1.75146,-0.00396542,-0.00178373,0.00279751,0.000128093,-0.00587724,0.971298,0.00396155,0.0119486,1945,1135,9.27607,-1.75152
728,-111,9.29211,1.70581,-0.00364056,-0.00151068,0.00253454,0.000173563,-0.0053248,0.984284,0.00360911,0.0154663,1952,1135,9.2921,-1.70582
735,-111,9.26746,1.66577,-0.00295108,-0.00117252,0.00215741,0.0002717,-0.0043953,0.980888,0.00302484,0.0155985,1959,1135,9.26749,-1.66579
742,-111,9.24243,1.65356,-0.00184761,-0.000684336,0.00174809,0.000576341,-0.00310829,0.946001,0.00228863,0.0116044,1966,1135,9.24243,-1.65356
749,-111,9.24658,1.66113,-1.23235e-05,-0.000292025,0.00128438,0.0011398,-0.00144415,0.731169,0.00149529,0.0151302,1973,1135,9.24658,-1.66115
756,-111,9.2417,1.62866,0.00183677,-0.000265145,0.000739604,0.00207093,-0.000499305,0.306617,0.00157368,0.0163577,1980,1135,9.24166,-1.6286
763,-111,9.23706,1.58411,0.00397327,-0.000616924,3.50017e-05,0.00397354,-0.000617191,0.00762472,0.00287691,0.013519,1987,1135,9.2371,-1.58406
770,-111,9.23865,1.58325,0.00655379,-0.00102242,-0.000585222,0.00659873,-0.00106736,-0.0766388,0.00479471,0.0103057,1994,1135,9.23865,-1.58322
777,-111,9.23682,1.52222,0.00926984,-0.00193575,-0.00100208,0.00935875,-0.00202465,-0.0884911,0.00701217,0.0211302,2001,1135,9.23685,-1.52219
784,-111,9.23254,1.45825,0.0122348,-0.00339775,-0.00134637,0.0123499,-0.00351286,-0.0852893,0.00962043,0.0391311,2008,1135,9.23254,-1.45824
791,-111,9.21155,1.42969,0.0154444,-0.00553474,-0.00173498,0.015587,-0.00567725,-0.081958,0.0127135,0.0461617,2015,1135,9.21149,-1.42973
798,-111,9.1748,1.34216,0.0186811,-0.00850146,-0.00216872,0.018853,-0.0086734,-0.0791164,0.0162506,0.0464283,2022,1135,9.17482,-1.34219
805,-111,9.37195,1.26379,0.0216052,-0.0124707,-0.00269498,0.021817,-0.0126825,-0.0784378,0.0201497,0.0429378,2029,1135,9.37189,-1.26379
812,-111,9.56079,1.53699,0.0234522,-0.017653,-0.0033287,0.02372,-0.0179208,-0.0802829,0.0241189,0.043346,2036,1135,9.56083,-1.53704
-700,-118,0,0,0,0,0,0,0,0,0,-1,524,1142,0,0
-693,-118,-6.93005,-1.06824,0,0,0,0,0,0,0,-1,531,1142,-6.93003,1.06826
-686,-118,-6.03796,-0.406006,0,0,0,0,0,0,0,-1,538,1142,-6.03798,0.405967
-679,-118,-4.93036,0.331543,0,0,0,0,0,0,0,-1,545,1142,-4.93039,-0.331571
-672,-118,-4.62506,0.51709,0.0368191,0.0152337,0.00442874,0.0376924,0.0143604,0.194697,0.0219662,0.0487125,552,1142,-4.62507,-0.517118
-665,-118,-4.28052,0.723389,0.0279234,0.0119902,0.00186224,0.0281382,0.0117755,0.114816,0.0163174,0.0468595,559,1142,-4.28052,-0.723361
-658,-118,-4.06738,0.681274,0.0206386,0.00926475,0.000154962,0.0206407,0.00926264,0.0136211,0.0119378,0.0443004,566,1142,-4.06739,-0.681223
-651,-118,-4.00909,0.66687,0.014807,0.007015,-0.000850059,0.0148987,0.00692334,-0.10741,0.00860891,0.0390798,573,1142,-4.00909,-0.666916
-644,-118,-3.91797,0.673218,0.0103036,0.00519309,-0.00132962,0.0106289,0.00486785,-0.239895,0.0061438,0.0251677,580,1142,-3.91797,-0.673202
-637,-118,-3.8858,0.730347,0.00686454,0.00371475,-0.00155742,0.00750456,0.00307473,-0.389909,0.00435624,0.0134041,587,1142,-3.88581,-0.730387
-630,-118,-3.89868,0.756226,0.00365196,0.0022942,-0.00182714,0.00492226,0.00102389,-0.607525,0.00299904,0.015863,594,1142,-3.89867,-0.756207
-623,-118,-3.88776,0.795288,0.00124567,0.000815806,-0.002526,0.00356586,-0.00150439,-0.742957,0.00300688,0.0141725,601,1142,-3.88773,-0.795235
-616,-118,-3.88,0.834595,-0.000312444,0.000607095,-0.00263963,0.0028267,-0.00253205,-0.871623,0.00309543,0.0123803,608,1142,-3.88002,-0.834601
-609,-118,-3.87341,0.879639,-0.00141965,-0.000256919,-0.0024717,0.00170086,-0.00337743,-0.900903,0.00298474,0.0118492,615,1142,-3.87339,-0.87966
-602,-118,-3.89551,0.938843,-0.00218554,-0.0011744,-0.00260094,0.00096965,-0.00432959,-0.88139,0.00325807,0.0118726,622,1142,-3.89548,-0.938897
-595,-118,-3.92633,0.977783,-0.00287136,-0.00156037,-0.0028683,0.00072638,-0.00515811,-0.897735,0.00370468,0.00981515,629,1142,-3.92632,-0.977815
-588,-118,-3.867,1.02576,-0.00342256,-0.00183363,-0.00303304,0.000507267,-0.00576346,-0.913489,0.00402208,0.0133238,636,1142,-3.86701,-1.02574
-581,-118,-3.91364,0.793945,-0.00374238,-0.00208584,-0.00306357,0.000259449,-0.00608767,-0.917422,0.00414763,0.0338821,643,1142,-3.91365,-0.793895
-574,-118,-4.00702,0.538208,0,0,0,0,0,0,0,-1,650,1142,-4.00705,-0.538163
-567,-118,-4.06543,0.559082,-0.00386911,-0.00220007,-0.00269214,-0.000216074,-0.00585311,-0.935695,0.00383208,0.0426958,657,1142,-4.06544,-0.559064
-560,-118,-4.08118,0.609253,-0.00371083,-0.00205149,-0.00215041,-0.000576249,-0.00518607,-0.969509,0.0032822,0.0385084,664,1142,-4.08119,-0.609301
-553,-118,-4.10168,0.727539,-0.00321752,-0.00169582,-0.00132664,-0.000927332,-0.00398601,-1.04576,0.00240849,0.0419053,671,1142,-4.10165,-0.727544
-546,-118,-4.20428,0.579468,-0.00231997,-0.00110281,-0.000201045,-0.00107047,-0.00235232,-1.41126,0.00135994,0.0431826,678,1142,-4.20426,-0.57946
-539,-118,-4.3302,0.465698,-0.000873793,-0.000231906,0.00122798,0.00071638,-0.00182208,0.913218,0.00151121,0.045867,685,1142,-4.33022,-0.465731
-532,-118,-4.46063,0.578979,0.00118737,0.000925308,0.00275944,0.00381889,-0.00170622,0.761674,0.00326673,0.0461089,692,1142,-4.46065,-0.578965
-525,-118,-4.40442,0.650391,0.0033806,0.00219473,0.00366218,0.00649753,-0.000922206,0.705141,0.00466954,0.0442766,699,1142,-4.40443,-0.650428
-518,-118,0,0,0,0,0,0,0,0,0,-1,706,1142,0,0
-511,-118,0,0,0,0,0,0,0,0,0,-1,713,1142,0,0
-504,-118,0,0,0,0,0,0,0,0,0,-1,720,1142,0,0
-497,-118,0,0,0,0,0,0,0,0,0,-1,727,1142,0,0
-490,-118,0,0,0,0,0,0,0,0,0,-1,734,1142,0,0
-483,-118,0,0,0,0,0,0,0,0,0,-1,741,1142,0,0
-476,-118,0,0,0,0,0,0,0,0,0,-1,748,1142,0,0
-469,-118,0,0,0,0,0,0,0,0,0,-1,755,1142,0,0
-462,-118,0,0,0,0,0,0,0,0,0,-1,762,1142,0,0
-455,-118,0,0,0,0,0,0,0,0,0,-1,769,1142,0,0
-448,-118,0,0,0,0,0,0,0,0,0,-1,776,1142,0,0
-441,-118,0,0,0,0,0,0,0,0,0,-1,783,1142,0,0
-434,-118,0,0,0,0,0,0,0,0,0,-1,790,1142,0,0
-427,-118,0,0,0,0,0,0,0,0,0,-1,797,1142,0,0
-420,-118,0,0,0,0,0,0,0,0,0,-1,804,1142,0,0
-413,-118,0,0,0,0,0,0,0,0,0,-1,811,1142,0,0
-406,-118,0,0,0,0,0,0,0,0,0,-1,818,1142,0,0
-399,-118,0,0,0,0,0,0,0,0,0,-1,825,1142,0,0
-392,-118,0,0,0,0,0,0,0,0,0,-1,832,1142,0,0
-385,-118,0,0,0,0,0,0,0,0,0,-1,839,1142,0,0
-378,-118,0,0,0,0,0,0,0,0,0,-1,846,1142,0,0
-371,-118,0,0,0,0,0,0,0,0,0,-1,853,1142,0,0
-364,-118,0,0,0,0,0,0,0,0,0,-1,860,1142,0,0
-357,-118,0,0,0,0,0,0,0,0,0,-1,867,1142,0,0
-350,-118,0,0,0,0,0,0,0,0,0,-1,874,1142,0,0
-343,-118,0,0,0,0,0,0,0,0,0,-1,881,1142,0,0
-336,-118,0,0,0,0,0,0,0,0,0,-1,888,1142,0,0
-329,-118,0,0,0,0,0,0,0,0,0,-1,895,1142,0,0
-322,-118,0,0,0,0,0,0,0,0,0,-1,902,1142,0,0
-315,-118,0,0,0,0,0,0,0,0,0,-1,909,1142,0,0
-308,-118,0,0,0,0,0,0,0,0,0,-1,916,1142,0,0
-301,-118,0,0,0,0,0,0,0,0,0,-1,923,1142,0,0
-294,-118,0,0,0,0,0,0,0,0,0,-1,930,1142,0,0
-287,-118,0,0,0,0,0,0,0,0,0,-1,937,1142,0,0
-280,-118,0,0,0,0,0,0,0,0,0,-1,944,1142,0,0
-273,-118,0,0,0,0,0,0,0,0,0,-1,951,1142,0,0
-266,-118,0,0,0,0,0,0,0,0,0,-1,958,1142,0,0
-259,-118,0,0,0,0,0,0,0,0,0,-1,965,1142,0,0
-252,-118,0,0,0,0,0,0,0,0,0,-1,972,1142,0,0
-245,-118,0,0,0,0,0,0,0,0,0,-1,979,1142,0,0
-238,-118,0,0,0,0,0,0,0,0,0,-1,986,1142,0,0
-231,-118,0,0,0,0,0,0,0,0,0,-1,993,1142,0,0
-224,-118,0,0,0,0,0,0,0,0,0,-1,1000,1142,0,0
-217,-118,0,0,0,0,0,0,0,0,0,-1,1007,1142,0,0
-210,-118,0,0,0,0,0,0,0,0,0,-1,1014,1142,0,0
-203,-118,0,0,0,0,0,0,0,0,0,-1,1021,1142,0,0
-196,-118,0,0,0,0,0,0,0,0,0,-1,1028,1142,0,0
-189,-118,0,0,0,0,0,0,0,0,0,-1,1035,1142,0,0
-182,-118,0,0,0,0,0,0,0,0,0,-1,1042,1142,0,0
-175,-118,0,0,0,0,0,0,0,0,0,-1,1049,1142,0,0
-168,-118,0,0,0,0,0,0,0,0,0,-1,1056,1142,0,0
-161,-118,0,0,0,0,0,0,0,0,0,-1,1063,1142,0,0
-154,-118,0,0,0,0,0,0,0,0,0,-1,1070,1142,0,0
-147,-118,0,0,0,0,0,0,0,0,0,-1,1077,1142,0,0
-140,-118,0,0,0,0,0,0,0,0,0,-1,1084,1142,0,0
-133,-118,0,0,0,0,0,0,0,0,0,-1,1091,1142,0,0
-126,-118,0,0,0,0,0,0,0,0,0,-1,1098,1142,0,0
-119,-118,0,0,0,0,0,0,0,0,0,-1,1105,1142,0,0
-112,-118,0,0,0,0,0,0,0,0,0,-1,1112,1142,0,0
-105,-118,0,0,0,0,0,0,0,0,0,-1,1119,1142,0,0
-98,-118,0,0,0,0,0,0,0,0,0,-1,1126,1142,0,0
-91,-118,0,0,0,0,0,0,0,0,0,-1,1133,1142,0,0
-84,-118,0,0,0,0,0,0,0,0,0,-1,1140,1142,0,0
-77,-118,0,0,0,0,0,0,0,0,0,-1,1147,1142,0,0
-70,-118,0,0,0,0,0,0,0,0,0,-1,1154,1142,0,0
-63,-118,0,0,0,0,0,0,0,0,0,-1,1161,1142,0,0
-56,-118,0,0,0,0,0,0,0,0,0,-1,1168,1142,0,0
-49,-118,0,0,0,0,0,0,0,0,0,-1,1175,1142,0,0
-42,-118,0,0,0,0,0,0,0,0,0,-1,1182,1142,0,0
-35,-118,0,0,0,0,0,0,0,0,0,-1,1189,1142,0,0
-28,-118,0,0,0,0,0,0,0,0,0,-1,1196,1142,0,0
-21,-118,0,0,0,0,0,0,0,0,0,-1,1203,1142,0,0
-14,-118,0,0,0,0,0,0,0,0,0,-1,1210,1142,0,0
-7,-118,0,0,0,0,0,0,0,0,0,-1,1217,1142,0,0
0,-118,0,0,0,0,0,0,0,0,0,-1,1224,1142,0,0
7,-118,0,0,0,0,0,0,0,0,0,-1,1231,1142,0,0
14,-118,0,0,0,0,0,0,0,0,0,-1,1238,1142,0,0
21,-118,0,0,0,0,0,0,0,0,0,-1,1245,1142,0,0
28,-118,0,0,0,0,0,0,0,0,0,-1,1252,1142,0,0
35,-118,0,0,0,0,0,0,0,0,0,-1,1259,1142,0,0
42,-118,0,0,0,0,0,0,0,0,0,-1,1266,1142,0,0
49,-118,0,0,0,0,0,0,0,0,0,-1,1273,1142,0,0
56,-118,0,0,0,0,0,0,0,0,0,-1,1280,1142,0,0
63,-118,0,0,0,0,0,0,0,0,0,-1,1287,1142,0,0
70,-118,0,0,0,0,0,0,0,0,0,-1,1294,1142,0,0
77,-118,0,0,0,0,0,0,0,0,0,-1,1301,1142,0,0
84,-118,0,0,0,0,0,0,0,0,0,-1,1308,1142,0,0
91,-118,0,0,0,0,0,0,0,0,0,-1,1315,1142,0,0
98,-118,0,0,0,0,0,0,0,0,0,-1,1322,1142,0,0
105,-118,0,0,0,0,0,0,0,0,0,-1,1329,1142,0,0
112,-118,0,0,0,0,0,0,0,0,0,-1,1336,1142,0,0
119,-118,0,0,0,0,0,0,0,0,0,-1,1343,1142,0,0
126,-118,0,0,0,0,0,0,0,0,0,-1,1350,1142,0,0
133,-118,0,0,0,0,0,0,0,0,0,-1,1357,1142,0,0
140,-118,0,0,0,0,0,0,0,0,0,-1,1364,1142,0,0
147,-118,0,0,0,0,0,0,0,0,0,-1,1371,1142,0,0
154,-118,0,0,0,0,0,0,0,0,0,-1,1378,1142,0,0
161,-118,0,0,0,0,0,0,0,0,0,-1,1385,1142,0,0
168,-118,0,0,0,0,0,0,0,0,0,-1,1392,1142,0,0
175,-118,0,0,0,0,0,0,0,0,0,-1,1399,1142,0,0
182,-118,0,0,0,0,0,0,0,0,0,-1,1406,1142,0,0
189,-118,0,0,0,0,0,0,0,0,0,-1,1413,1142,0,0
196,-118,0,0,0,0,0,0,0,0,0,-1,1420,1142,0,0
203,-118,0,0,0,0,0,0,0,0,0,-1,1427,1142,0,0
210,-118,0,0,0,0,0,0,0,0,0,-1,1434,1142,0,0
217,-118,0,0,0,0,0,0,0,0,0,-1,1441,1142,0,0
224,-118,0,0,0,0,0,0,0,0,0,-1,1448,1142,0,0
231,-118,0,0,0,0,0,0,0,0,0,-1,1455,1142,0,0
238,-118,0,0,0,0,0,0,0,0,0,-1,1462,1142,0,0
245,-118,0,0,0,0,0,0,0,0,0,-1,1469,1142,0,0
252,-118,0,0,0,0,0,0,0,0,0,-1,1476,1142,0,0
259,-118,0,0,0,0,0,0,0,0,0,-1,1483,1142,0,0
266,-118,0,0,0,0,0,0,0,0,0,-1,1490,1142,0,0
273,-118,0,0,0,0,0,0,0,0,0,-1,1497,1142,0,0
280,-118,0,0,0,0,0,0,0,0,0,-1,1504,1142,0,0
287,-118,0,0,0,0,0,0,0,0,0,-1,1511,1142,0,0
294,-118,0,0,0,0,0,0,0,0,0,-1,1518,1142,0,0
301,-118,0,0,0,0,0,0,0,0,0,-1,1525,1142,0,0
308,-118,0,0,0,0,0,0,0,0,0,-1,1532,1142,0,0
315,-118,0,0,0,0,0,0,0,0,0,-1,1539,1142,0,0
322,-118,0,0,0,0,0,0,0,0,0,-1,1546,1142,0,0
329,-118,0,0,0,0,0,0,0,0,0,-1,1553,1142,0,0
336,-118,0,0,0,0,0,0,0,0,0,-1,1560,1142,0,0
343,-118,0,0,0,0,0,0,0,0,0,-1,1567,1142,0,0
350,-118,0,0,0,0,0,0,0,0,0,-1,1574,1142,0,0
357,-118,0,0,0,0,0,0,0,0,0,-1,1581,1142,0,0
364,-118,0,0,0,0,0,0,0,0,0,-1,1588,1142,0,0
371,-118,0,0,0,0,0,0,0,0,0,-1,1595,1142,0,0
378,-118,0,0,0,0,0,0,0,0,0,-1,1602,1142,0,0
385,-118,0,0,0,0,0,0,0,0,0,-1,1609,1142,0,0
392,-118,0,0,0,0,0,0,0,0,0,-1,1616,1142,0,0
399,-118,0,0,0,0,0,0,0,0,0,-1,1623,1142,0,0
406,-118,0,0,0,0,0,0,0,0,0,-1,1630,1142,0,0
413,-118,0,0,0,0,0,0,0,0,0,-1,1637,1142,0,0
420,-118,0,0,0,0,0,0,0,0,0,-1,1644,1142,0,0
427,-118,0,0,0,0,0,0,0,0,0,-1,1651,1142,0,0
434,-118,0,0,0,0,0,0,0,0,0,-1,1658,1142,0,0
441,-118,0,0,0,0,0,0,0,0,0,-1,1665,1142,0,0
448,-118,0,0,0,0,0,0,0,0,0,-1,1672,1142,0,0
455,-118,0,0,0,0,0,0,0,0,0,-1,1679,1142,0,0
462,-118,0,0,0,0,0,0,0,0,0,-1,1686,1142,0,0
469,-118,0,0,0,0,0,0,0,0,0,-1,1693,1142,0,0
476,-118,0,0,0,0,0,0,0,0,0,-1,1700,1142,0,0
483,-118,0,0,0,0,0,0,0,0,0,-1,1707,1142,0,0
490,-118,0,0,0,0,0,0,0,0,0,-1,1714,1142,0,0
497,-118,0,0,0,0,0,0,0,0,0,-1,1721,1142,0,0
504,-118,0,0,0,0,0,0,0,0,0,-1,1728,1142,0,0
511,-118,0,0,0,0,0,0,0,0,0,-1,1735,1142,0,0
518,-118,0,0,0,0,0,0,0,0,0,-1,1742,1142,0,0
525,-118,0,0,0,0,0,0,0,0,0,-1,1749,1142,0,0
532,-118,0,0,0,0,0,0,0,0,0,-1,1756,1142,0,0
539,-118,0,0,0,0,0,0,0,0,0,-1,1763,1142,0,0
546,-118,0,0,0,0,0,0,0,0,0,-1,1770,1142,0,0
553,-118,0,0,0,0,0,0,0,0,0,-1,1777,1142,0,0
560,-118,0,0,0,0,0,0,0,0,0,-1,1784,1142,0,0
567,-118,0,0,0,0,0,0,0,0,0,-1,1791,1142,0,0
574,-118,0,0,0,0,0,0,0,0,0,-1,1798,1142,0,0
581,-118,0,0,0,0,0,0,0,0,0,-1,1805,1142,0,0
588,-118,0,0,0,0,0,0,0,0,0,-1,1812,1142,0,0
595,-118,0,0,0,0,0,0,0,0,0,-1,1819,1142,0,0
602,-118,0,0,0,0,0,0,0,0,0,-1,1826,1142,0,0
609,-118,0,0,0,0,0,0,0,0,0,-1,1833,1142,0,0
616,-118,0,0,0,0,0,0,0,0,0,-1,1840,1142,0,0
623,-118,0,0,0,0,0,0,0,0,0,-1,1847,1142,0,0
630,-118,0,0,0,0,0,0,0,0,0,-1,1854,1142,0,0
637,-118,0,0,0,0,0,0,0,0,0,-1,1861,1142,0,0
644,-118,9.4834,1.42554,0.00501614,0.000397015,0.00231585,0.00597724,-0.000564084,0.393378,0.00418555,0.0387628,1868,1142,9.48343,-1.42556
651,-118,9.58984,1.43689,0.00365988,0.000373949,0.00160683,0.00431501,-0.000281178,0.387139,0.00297483,0.0390499,1875,1142,9.58979,-1.43694
658,-118,9.55444,1.23755,0.00274782,0.000215338,0.00107472,0.00314242,-0.000179261,0.351883,0.00215719,0.0407519,1882,1142,9.55445,-1.23753
665,-118,9.73169,1.30322,0.00152032,-0.000186656,0.00100159,0.00198275,-0.000649078,0.432532,0.00158318,0.04065,1889,1142,9.73168,-1.30326
672,-118,9.63916,1.39929,0.000172961,-0.000655115,0.00124984,0.00107556,-0.00155771,0.625451,0.00152879,0.0443332,1896,1142,9.63922,-1.3993
679,-118,9.57458,1.47437,-0.00101247,-0.00108928,0.0015597,0.000509298,-0.00261105,0.773089,0.00193296,0.0447292,1903,1142,9.57463,-1.47432
686,-118,9.55591,1.43103,-0.00204131,-0.00146069,0.00189125,0.000162404,-0.0036644,0.861555,0.00249883,0.0385543,1910,1142,9.55592,-1.43106
693,-118,9.53125,1.33618,-0.00284618,-0.0017046,0.00216809,-3.34263e-05,-0.00451736,0.914112,0.00300049,0.0373882,1917,1142,9.53126,-1.33612
700,-118,9.60034,1.36292,-0.00340841,-0.00190387,0.00230494,-0.000231548,-0.00508074,0.943134,0.00331267,0.0246502,1924,1142,9.60035,-1.36296
707,-118,9.59985,1.51392,0,0,0,0,0,0,0,-1,1931,1142,9.59982,-1.5139
714,-118,9.40442,1.63367,-0.00405694,-0.0019606,0.00258109,-0.000222972,-0.00579457,0.978273,0.00379091,0.0272913,1938,1142,9.40446,-1.63367
721,-118,9.2406,1.73743,-0.00399536,-0.00178457,0.00252732,-0.000131484,-0.00564845,0.991553,0.00372258,0.00968094,1945,1142,9.24059,-1.73749
728,-118,9.23938,1.72522,-0.00363092,-0.00154282,0.00228486,-7.47747e-05,-0.00509897,0.999704,0.00337466,0.0121958,1952,1142,9.23942,-1.72528
735,-118,9.23486,1.69324,-0.00293688,-0.0012327,0.00191789,1.38613e-05,-0.00418344,0.994444,0.00279359,0.0125043,1959,1142,9.23483,-1.69329
742,-118,9.21545,1.67822,-0.00187042,-0.000785807,0.00153107,0.000296167,-0.00295239,0.955603,0.00207404,0.0198627,1966,1142,9.21545,-1.67826
749,-118,9.24377,1.60535,0.000190758,-0.000510658,0.00118792,0.00107866,-0.00139856,0.641862,0.0014342,0.0199925,1973,1142,9.24378,-1.60538
756,-118,9.245,1.6001,0.00240021,-0.000655833,0.000711665,0.00255781,-0.000813432,0.217934,0.00203138,0.0174325,1980,1142,9.24496,-1.60004
763,-118,9.22266,1.56714,0.00498939,-0.00126831,9.58531e-05,0.00499086,-0.00126978,0.0153128,0.00382148,0.00999032,1987,1142,9.2227,-1.56719
770,-118,9.21179,1.57605,0.00813633,-0.00202518,-0.000387032,0.00815105,-0.0020399,-0.0380146,0.0062264,0.0111324,1994,1142,9.21181,-1.576
777,-118,9.20227,1.52783,0.0116794,-0.00342245,-0.000670256,0.0117091,-0.00345213,-0.0442664,0.00917584,0.0235108,2001,1142,9.20233,-1.52778
784,-118,9.19763,1.47424,0.0158537,-0.00552648,-0.000902195,0.0158917,-0.00556448,-0.042098,0.0128571,0.0424246,2008,1142,9.19761,-1.47425
791,-118,9.21277,1.31946,0.0207157,-0.00849956,-0.00116758,0.0207623,-0.00854614,-0.0398798,0.0174043,0.0491822,2015,1142,9.21273,-1.31946
798,-118,9.16919,1.24731,0.0261241,-0.0125183,-0.00147625,0.0261804,-0.0125746,-0.0381288,0.0228302,0.0479819,2022,1142,9.16915,-1.24737
805,-118,9.39258,1.27246,0.0318124,-0.0177698,-0.00189804,0.031885,-0.0178423,-0.0382061,0.0290892,0.0470146,2029,1142,9.39255,-1.27243
812,-118,9.64709,1.68286,0.0370412,-0.0244731,-0.00247052,0.0371403,-0.0245722,-0.0400756,0.0358752,0.0477512,2036,1142,9.64711,-1.68283
-700,-125,0,0,0,0,0,0,0,0,0,-1,524,1149,0,0
-693,-125,-6.36755,-1.85925,0,0,0,0,0,0,0,-1,531,1149,-6.36757,1.8593
-686,-125,-5.59271,-1.2334,0.0591986,0.0261268,0.0168376,0.0662623,0.0190631,0.39722,0.0393894,0.0438246,538,1149,-5.59271,1.23345
-679,-125,-4.60168,-0.46521,0.0468417,0.0212866,0.0114759,0.0512386,0.0168897,0.365891,0.0301496,0.0441532,545,1149,-4.60167,0.465249
-672,-125,-4.26581,0.0187988,0.0362985,0.0171415,0.00735951,0.0387993,0.0146406,0.327567,0.0226243,0.0469351,552,1149,-4.26581,-0.018782
-665,-125,-3.81512,0.414795,0.0274364,0.0136163,0.00427593,0.0286523,0.0124003,0.277065,0.0165922,0.0414802,559,1149,-3.81512,-0.414794
-658,-125,-3.96466,0.725098,0,0,0,0,0,0,0,-1,566,1149,-3.96468,-0.725144
-651,-125,-3.95715,0.724609,0,0,0,0,0,0,0,-1,573,1149,-3.95716,-0.724643
-644,-125,-3.8656,0.705933,0.00993721,0.00609037,-0.000260987,0.00995484,0.00607274,-0.0674326,0.00579363,0.0240502,580,1149,-3.86559,-0.705903
-637,-125,-3.82764,0.703735,0.00655143,0.00440389,-0.000783145,0.00680668,0.00414864,-0.315075,0.00396112,0.0122103,587,1149,-3.82764,-0.703766
-630,-125,-3.82953,0.748169,0.00335573,0.00274477,-0.00129675,0.00438249,0.001718,-0.669721,0.00254983,0.0131405,594,1149,-3.82951,-0.748146
-623,-125,-3.83655,0.803467,0.000940961,0.00109456,-0.00219468,0.00321378,-0.00117826,-0.802888,0.00262496,0.0122742,601,1149,-3.83652,-0.803483
-616,-125,-3.83588,0.837402,-0.000649106,0.000803265,-0.00236355,0.00254968,-0.00239552,-0.934442,0.00285557,0.0116893,608,1149,-3.83586,-0.837395
-609,-125,-3.83417,0.869141,-0.00179894,-0.000216514,-0.00231434,0.00143812,-0.00345357,-0.950107,0.00290303,0.0114403,615,1149,-3.83419,-0.869134
-602,-125,-3.85754,0.937378,-0.00256802,-0.00124789,-0.00248126,0.000659596,-0.00447551,-0.915397,0.00322609,0.0108902,622,1149,-3.85756,-0.937395
-595,-125,-3.86627,0.999878,-0.00329929,-0.0016984,-0.00277181,0.000386231,-0.00538391,-0.925964,0.0037247,0.0097621,629,1149,-3.86627,-0.99988
-588,-125,-3.80896,1.04016,-0.00393572,-0.00202971,-0.00292441,9.30626e-05,-0.00605849,-0.942911,0.00407037,0.0138443,636,1149,-3.80898,-1.04018
-581,-125,-3.9115,0.980103,-0.0043517,-0.00235737,-0.00294257,-0.000247603,-0.00646147,-0.948763,0.00422753,0.0324839,643,1149,-3.91153,-0.980118
-574,-125,-4.02881,0.645142,-0.00450554,-0.00252079,-0.00285526,-0.000490366,-0.00653596,-0.952649,0.0042034,0.0379998,650,1149,-4.02883,-0.645174
-567,-125,-4.11884,0.644409,-0.00454046,-0.00258662,-0.00265173,-0.000737575,-0.0063895,-0.961888,0.00403634,0.0377306,657,1149,-4.11881,-0.644468
-560,-125,-4.1543,0.686646,-0.00439758,-0.00251648,-0.00216793,-0.00109386,-0.00582019,-0.990068,0.00357178,0.0380888,664,1149,-4.15431,-0.686621
-553,-125,-4.26111,0.766968,-0.00387168,-0.00224797,-0.00141891,-0.00142507,-0.00469458,-1.04525,0.00277927,0.0406771,671,1149,-4.26111,-0.766957
-546,-125,-4.40442,0.539429,-0.00288168,-0.00175107,-0.000389209,-0.00163005,-0.00300271,-1.26932,0.00173574,0.0419134,678,1149,-4.4044,-0.539411
-539,-125,-4.40051,0.461792,-0.00127443,-0.000979963,0.000916081,-0.000199359,-0.00205503,0.865077,0.00130864,0.0452092,685,1149,-4.4005,-0.461772
-532,-125,-4.44476,0.752441,0.00106803,9.16775e-05,0.00232665,0.00295717,-0.00179746,0.681989,0.00277217,0.0441139,692,1149,-4.44474,-0.752384
-525,-125,-4.45575,0.843994,0.00365439,0.00130001,0.00313148,0.00582263,-0.000868232,0.605609,0.00420118,0.044276,699,1149,-4.45573,-0.844022
-518,-125,0,0,0,0,0,0,0,0,0,-1,706,1149,0,0
-511,-125,0,0,0,0,0,0,0,0,0,-1,713,1149,0,0
-504,-125,0,0,0,0,0,0,0,0,0,-1,720,1149,0,0
-497,-125,0,0,0,0,0,0,0,0,0,-1,727,1149,0,0
-490,-125,0,0,0,0,0,0,0,0,0,-1,734,1149,0,0
-483,-125,0,0,0,0,0,0,0,0,0,-1,741,1149,0,0
-476,-125,0,0,0,0,0,0,0,0,0,-1,748,1149,0,0
-469,-125,0,0,0,0,0,0,0,0,0,-1,755,1149,0,0
-462,-125,0,0,0,0,0,0,0,0,0,-1,762,1149,0,0
-455,-125,0,0,0,0,0,0,0,0,0,-1,769,1149,0,0
-448,-125,0,0,0,0,0,0,0,0,0,-1,776,1149,0,0
-441,-125,0,0,0,0,0,0,0,0,0,-1,783,1149,0,0
-434,-125,0,0,0,0,0,0,0,0,0,-1,790,1149,0,0
-427,-125,0,0,0,0,0,0,0,0,0,-1,797,1149,0,0
-420,-125,0,0,0,0,0,0,0,0,0,-1,804,1149,0,0
-413,-125,0,0,0,0,0,0,0,0,0,-1,811,1149,0,0
-406,-125,0,0,0,0,0,0,0,0,0,-1,818,1149,0,0
-399,-125,0,0,0,0,0,0,0,0,0,-1,825,1149,0,0
-392,-125,0,0,0,0,0,0,0,0,0,-1,832,1149,0,0
-385,-125,0,0,0,0,0,0,0,0,0,-1,839,1149,0,0
-378,-125,0,0,0,0,0,0,0,0,0,-1,846,1149,0,0
-371,-125,0,0,0,0,0,0,0,0,0,-1,853,1149,0,0
-364,-125,0,0,0,0,0,0,0,0,0,-1,860,1149,0,0
-357,-125,0,0,0,0,0,0,0,0,0,-1,867,1149,0,0
-350,-125,0,0,0,0,0,0,0,0,0,-1,874,1149,0,0
-343,-125,0,0,0,0,0,0,0,0,0,-1,881,1149,0,0
-336,-125,0,0,0,0,0,0,0,0,0,-1,888,1149,0,0
-329,-125,0,0,0,0,0,0,0,0,0,-1,895,1149,0,0
-322,-125,0,0,0,0,0,0,0,0,0,-1,902,1149,0,0
-315,-125,0,0,0,0,0,0,0,0,0,-1,909,1149,0,0
-308,-125,0,0,0,0,0,0,0,0,0,-1,916,1149,0,0
-301,-125,0,0,0,0,0,0,0,0,0,-1,923,1149,0,0
-294,-125,0,0,0,0,0,0,0,0,0,-1,930,1149,0,0
-287,-125,0,0,0,0,0,0,0,0,0,-1,937,1149,0,0
-280,-125,0,0,0,0,0,0,0,0,0,-1,944,1149,0,0
-273,-125,0,0,0,0,0,0,0,0,0,-1,951,1149,0,0
-266,-125,0,0,0,0,0,0,0,0,0,-1,958,1149,0,0
-259,-125,0,0,0,0,0,0,0,0,0,-1,965,1149,0,0
-252,-125,0,0,0,0,0,0,0,0,0,-1,972,1149,0,0
-245,-125,0,0,0,0,0,0,0,0,0,-1,979,1149,0,0
-238,-125,0,0,0,0,0,0,0,0,0,-1,986,1149,0,0
-231,-125,0,0,0,0,0,0,0,0,0,-1,993,1149,0,0
-224,-125,0,0,0,0,0,0,0,0,0,-1,1000,1149,0,0
-217,-125,0,0,0,0,0,0,0,0,0,-1,1007,1149,0,0
-210,-125,0,0,0,0,0,0,0,0,0,-1,1014,1149,0,0
-203,-125,0,0,0,0,0,0,0,0,0,-1,1021,1149,0,0
-196,-125,0,0,0,0,0,0,0,0,0,-1,1028,1149,0,0
-189,-125,0,0,0,0,0,0,0,0,0,-1,1035,1149,0,0
-182,-125,0,0,0,0,0,0,0,0,0,-1,1042,1149,0,0
-175,-125,0,0,0,0,0,0,0,0,0,-1,1049,1149,0,0
-168,-125,0,0,0,0,0,0,0,0,0,-1,1056,1149,0,0
-161,-125,0,0,0,0,0,0,0,0,0,-1,1063,1149,0,0
-154,-125,0,0,0,0,0,0,0,0,0,-1,1070,1149,0,0
-147,-125,0,0,0,0,0,0,0,0,0,-1,1077,1149,0,0
-140,-125,0,0,0,0,0,0,0,0,0,-1,1084,1149,0,0
-133,-125,0,0,0,0,0,0,0,0,0,-1,1091,1149,0,0
-126,-125,0,0,0,0,0,0,0,0,0,-1,1098,1149,0,0
-119,-125,0,0,0,0,0,0,0,0,0,-1,1105,1149,0,0
-112,-125,0,0,0,0,0,0,0,0,0,-1,1112,1149,0,0
-105,-125,0,0,0,0,0,0,0,0,0,-1,1119,1149,0,0
-98,-125,0,0,0,0,0,0,0,0,0,-1,1126,1149,0,0
-91,-125,0,0,0,0,0,0,0,0,0,-1,1133,1149,0,0
-84,-125,0,0,0,0,0,0,0,0,0,-1,1140,1149,0,0
-77,-125,0,0,0,0,0,0,0,0,0,-1,1147,1149,0,0
-70,-125,0,0,0,0,0,0,0,0,0,-1,1154,1149,0,0
-63,-125,0,0,0,0,0,0,0,0,0,-1,1161,1149,0,0
-56,-125,0,0,0,0,0,0,0,0,0,-1,1168,1149,0,0
-49,-125,0,0,0,0,0,0,0,0,0,-1,1175,1149,0,0
-42,-125,0,0,0,0,0,0,0,0,0,-1,1182,1149,0,0
-35,-125,0,0,0,0,0,0,0,0,0,-1,1189,1149,0,0
-28,-125,0,0,0,0,0,0,0,0,0,-1,1196,1149,0,0
-21,-125,0,0,0,0,0,0,0,0,0,-1,1203,1149,0,0
-14,-125,0,0,0,0,0,0,0,0,0,-1,1210,1149,0,0
-7,-125,0,0,0,0,0,0,0,0,0,-1,1217,1149,0,0
0,-125,0,0,0,0,0,0,0,0,0,-1,1224,1149,0,0
7,-125,0,0,0,0,0,0,0,0,0,-1,1231,1149,0,0
14,-125,0,0,0,0,0,0,0,0,0,-1,1238,1149,0,0
21,-125,0,0,0,0,0,0,0,0,0,-1,1245,1149,0,0
28,-125,0,0,0,0,0,0,0,0,0,-1,1252,1149,0,0
35,-125,0,0,0,0,0,0,0,0,0,-1,1259,1149,0,0
42,-125,0,0,0,0,0,0,0,0,0,-1,1266,1149,0,0
49,-125,0,0,0,0,0,0,0,0,0,-1,1273,1149,0,0
56,-125,0,0,0,0,0,0,0,0,0,-1,1280,1149,0,0
63,-125,0,0,0,0,0,0,0,0,0,-1,1287,1149,0,0
70,-125,0,0,0,0,0,0,0,0,0,-1,1294,1149,0,0
77,-125,0,0,0,0,0,0,0,0,0,-1,1301,1149,0,0
84,-125,0,0,0,0,0,0,0,0,0,-1,1308,1149,0,0
91,-125,0,0,0,0,0,0,0,0,0,-1,1315,1149,0,0
98,-125,0,0,0,0,0,0,0,0,0,-1,1322,1149,0,0
105,-125,0,0,0,0,0,0,0,0,0,-1,1329,1149,0,0
112,-125,0,0,0,0,0,0,0,0,0,-1,1336,1149,0,0
119,-125,0,0,0,0,0,0,0,0,0,-1,1343,1149,0,0
126,-125,0,0,0,0,0,0,0,0,0,-1,1350,1149,0,0
133,-125,0,0,0,0,0,0,0,0,0,-1,1357,1149,0,0
140,-125,0,0,0,0,0,0,0,0,0,-1,1364,1149,0,0
147,-125,0,0,0,0,0,0,0,0,0,-1,1371,1149,0,0
154,-125,0,0,0,0,0,0,0,0,0,-1,1378,1149,0,0
161,-125,0,0,0,0,0,0,0,0,0,-1,1385,1149,0,0
168,-125,0,0,0,0,0,0,0,0,0,-1,1392,1149,0,0
175,-125,0,0,0,0,0,0,0,0,0,-1,1399,1149,0,0
182,-125,0,0,0,0,0,0,0,0,0,-1,1406,1149,0,0
189,-125,0,0,0,0,0,0,0,0,0,-1,1413,1149,0,0
196,-125,0,0,0,0,0,0,0,0,0,-1,1420,1149,0,0
203,-125,0,0,0,0,0,0,0,0,0,-1,1427,1149,0,0
210,-125,0,0,0,0,0,0,0,0,0,-1,1434,1149,0,0
217,-125,0,0,0,0,0,0,0,0,0,-1,1441,1149,0,0
224,-125,0,0,0,0,0,0,0,0,0,-1,1448,1149,0,0
231,-125,0,0,0,0,0,0,0,0,0,-1,1455,1149,0,0
238,-125,0,0,0,0,0,0,0,0,0,-1,1462,1149,0,0
245,-125,0,0,0,0,0,0,0,0,0,-1,1469,1149,0,0
252,-125,0,0,0,0,0,0,0,0,0,-1,1476,1149,0,0
259,-125,0,0,0,0,0,0,0,0,0,-1,1483,1149,0,0
266,-125,0,0,0,0,0,0,0,0,0,-1,1490,1149,0,0
273,-125,0,0,0,0,0,0,0,0,0,-1,1497,1149,0,0
280,-125,0,0,0,0,0,0,0,0,0,-1,1504,1149,0,0
287,-125,0,0,0,0,0,0,0,0,0,-1,1511,1149,0,0
294,-125,0,0,0,0,0,0,0,0,0,-1,1518,1149,0,0
301,-125,0,0,0,0,0,0,0,0,0,-1,1525,1149,0,0
308,-125,0,0,0,0,0,0,0,0,0,-1,1532,1149,0,0
315,-125,0,0,0,0,0,0,0,0,0,-1,1539,1149,0,0
322,-125,0,0,0,0,0,0,0,0,0,-1,1546,1149,0,0
329,-125,0,0,0,0,0,0,0,0,0,-1,1553,1149,0,0
336,-125,0,0,0,0,0,0,0,0,0,-1,1560,1149,0,0
343,-125,0,0,0,0,0,0,0,0,0,-1,1567,1149,0,0
350,-125,0,0,0,0,0,0,0,0,0,-1,1574,1149,0,0
357,-125,0,0,0,0,0,0,0,0,0,-1,1581,1149,0,0
364,-125,0,0,0,0,0,0,0,0,0,-1,1588,1149,0,0
371,-125,0,0,0,0,0,0,0,0,0,-1,1595,1149,0,0
378,-125,0,0,0,0,0,0,0,0,0,-1,1602,1149,0,0
385,-125,0,0,0,0,0,0,0,0,0,-1,1609,1149,0,0
392,-125,0,0,0,0,0,0,0,0,0,-1,1616,1149,0,0
399,-125,0,0,0,0,0,0,0,0,0,-1,1623,1149,0,0
406,-125,0,0,0,0,0,0,0,0,0,-1,1630,1149,0,0
413,-125,0,0,0,0,0,0,0,0,0,-1,1637,1149,0,0
420,-125,0,0,0,0,0,0,0,0,0,-1,1644,1149,0,0
427,-125,0,0,0,0,0,0,0,0,0,-1,1651,1149,0,0
434,-125,0,0,0,0,0,0,0,0,0,-1,1658,1149,0,0
441,-125,0,0,0,0,0,0,0,0,0,-1,1665,1149,0,0
448,-125,0,0,0,0,0,0,0,0,0,-1,1672,1149,0,0
455,-125,0,0,0,0,0,0,0,0,0,-1,1679,1149,0,0
462,-125,0,0,0,0,0,0,0,0,0,-1,1686,1149,0,0
469,-125,0,0,0,0,0,0,0,0,0,-1,1693,1149,0,0
476,-125,0,0,0,0,0,0,0,0,0,-1,1700,1149,0,0
483,-125,0,0,0,0,0,0,0,0,0,-1,1707,1149,0,0
490,-125,0,0,0,0,0,0,0,0,0,-1,1714,1149,0,0
497,-125,0,0,0,0,0,0,0,0,0,-1,1721,1149,0,0
504,-125,0,0,0,0,0,0,0,0,0,-1,1728,1149,0,0
511,-125,0,0,0,0,0,0,0,0,0,-1,1735,1149,0,0
518,-125,0,0,0,0,0,0,0,0,0,-1,1742,1149,0,0
525,-125,0,0,0,0,0,0,0,0,0,-1,1749,1149,0,0
532,-125,0,0,0,0,0,0,0,0,0,-1,1756,1149,0,0
539,-125,0,0,0,0,0,0,0,0,0,-1,1763,1149,0,0
546,-125,0,0,0,0,0,0,0,0,0,-1,1770,1149,0,0
553,-125,0,0,0,0,0,0,0,0,0,-1,1777,1149,0,0
560,-125,0,0,0,0,0,0,0,0,0,-1,1784,1149,0,0
567,-125,0,0,0,0,0,0,0,0,0,-1,1791,1149,0,0
574,-125,0,0,0,0,0,0,0,0,0,-1,1798,1149,0,0
581,-125,0,0,0,0,0,0,0,0,0,-1,1805,1149,0,0
588,-125,0,0,0,0,0,0,0,0,0,-1,1812,1149,0,0
595,-125,0,0,0,0,0,0,0,0,0,-1,1819,1149,0,0
602,-125,0,0,0,0,0,0,0,0,0,-1,1826,1149,0,0
609,-125,0,0,0,0,0,0,0,0,0,-1,1833,1149,0,0
616,-125,0,0,0,0,0,0,0,0,0,-1,1840,1149,0,0
623,-125,0,0,0,0,0,0,0,0,0,-1,1847,1149,0,0
630,-125,0,0,0,0,0,0,0,0,0,-1,1854,1149,0,0
637,-125,0,0,0,0,0,0,0,0,0,-1,1861,1149,0,0
644,-125,9.62781,1.29089,0.00425535,0.000367627,0.00213103,0.00519591,-0.000572934,0.415649,0.00366986,0.0435691,1868,1149,9.62777,-1.29092
651,-125,9.39392,1.17322,0.00317255,0.000374722,0.00156104,0.00386977,-0.000322505,0.420059,0.00269379,0.0406802,1875,1149,9.39394,-1.17322
658,-125,9.49646,1.14343,0.00240865,0.000233234,0.00112561,0.00288622,-0.000244336,0.40126,0.00201055,0.0422698,1882,1149,9.49648,-1.14341
665,-125,9.54407,1.12317,0.00123843,-0.000149218,0.00109232,0.00183865,-0.000749442,0.502454,0.00153772,0.0438765,1889,1149,9.54408,-1.12311
672,-125,9.53333,1.33838,-4.57377e-05,-0.000579734,0.00130027,0.00101466,-0.00164013,0.684135,0.00154686,0.0447229,1896,1149,9.53327,-1.33841
679,-125,9.48486,1.49329,-0.00116732,-0.000980511,0.00154566,0.000474568,-0.0026224,0.815576,0.00192604,0.0410665,1903,1149,9.4848,-1.49328
686,-125,9.53882,1.48047,-0.00214091,-0.00132519,0.00180242,0.00011494,-0.00358105,0.896666,0.00242658,0.0380687,1910,1149,9.53888,-1.48042
693,-125,9.53406,1.35693,-0.00289766,-0.00154177,0.00199932,-0.000108577,-0.00433086,0.948859,0.00285173,0.0368316,1917,1149,9.53404,-1.35694
700,-125,9.61206,1.41382,-0.00339714,-0.00174024,0.00208992,-0.000320554,-0.00481682,0.974099,0.00310987,0.018604,1924,1149,9.61203,-1.41381
707,-125,9.59863,1.8374,0,0,0,0,0,0,0,-1,1931,1149,9.59866,-1.83746
714,-125,9.37,1.80994,-0.0040347,-0.00182375,0.00227797,-0.00039719,-0.00546126,1.0113,0.00351593,0.0311079,1938,1149,9.36998,-1.80991
721,-125,9.17615,1.76196,-0.00397872,-0.00166699,0.00222613,-0.000314537,-0.00533117,1.02485,0.00345405,0.0139662,1945,1149,9.17617,-1.76199
728,-125,9.18909,1.73169,-0.00358707,-0.00145341,0.00201686,-0.000238599,-0.00480187,1.02867,0.00312475,0.0098103,1952,1149,9.18914,-1.73166
735,-125,9.20032,1.72083,-0.00290883,-0.001175,0.00167275,-0.000157868,-0.00392596,1.02447,0.0025663,0.0139607,1959,1149,9.20033,-1.72077
742,-125,9.17041,1.70154,-0.0019093,-0.000782104,0.00131654,8.63957e-05,-0.00277781,0.987642,0.00188133,0.0232522,1966,1149,9.17036,-1.70156
749,-125,9.198,1.61438,0.000392022,-0.000648324,0.00106206,0.00105445,-0.00131076,0.55768,0.00136822,0.0257998,1973,1149,9.19797,-1.61433
756,-125,9.22632,1.57886,0.0030501,-0.00096866,0.000654551,0.00315402,-0.00107258,0.157454,0.00253695,0.0214964,1980,1149,9.22633,-1.57881
763,-125,9.23987,1.57129,0.00615268,-0.00181143,0.000121691,0.00615454,-0.00181329,0.0152751,0.00482246,0.0121889,1987,1149,9.23984,-1.57132
770,-125,9.21704,1.54504,0.00998346,-0.002902,-0.000237205,0.00998783,-0.00290637,-0.0184004,0.00780973,0.0135742,1994,1149,9.217,-1.54509
777,-125,9.18323,1.51306,0.0145779,-0.0047415,-0.000420347,0.0145871,-0.00475064,-0.021744,0.0116361,0.0246498,2001,1149,9.18329,-1.51311
784,-125,9.17676,1.55359,0.0203116,-0.00743543,-0.000585988,0.020324,-0.0074478,-0.0211064,0.0165986,0.0448881,2008,1149,9.17671,-1.55356
791,-125,9.27319,1.172,0.0273246,-0.0111832,-0.000788861,0.0273408,-0.0111993,-0.0204743,0.0228924,0.0490291,2015,1149,9.27314,-1.17205
798,-125,9.35925,1.10437,0.0356142,-0.0161827,-0.00105208,0.0356356,-0.0162041,-0.0203006,0.0306225,0.0437805,2022,1149,9.35922,-1.10432
805,-125,9.74158,1.8053,0.0450648,-0.0226374,-0.00146745,0.0450966,-0.0226692,-0.0216615,0.0398324,0.0462397,2029,1149,9.74155,-1.80534
812,-125,10.059,2.38245,0.0550829,-0.0307877,-0.00208657,0.0551336,-0.0308384,-0.0242799,0.0502923,0.0484277,2036,1149,10.0589,-2.38241
-700,-132,0,0,0,0,0,0,0,0,0,-1,524,1156,0,0
-693,-132,-5.66791,-2.24622,0,0,0,0,0,0,0,-1,531,1156,-5.66792,2.24618
-686,-132,-4.9823,-1.87268,0.0612657,0.0238065,0.0193616,0.0694743,0.0155979,0.400994,0.0420916,0.0498626,538,1156,-4.98231,1.8727
-679,-132,-4.30231,-1.48108,0.0481741,0.0197798,0.0130107,0.0532341,0.0147198,0.37091,0.0317416,0.0466686,545,1156,-4.30228,1.48108
-672,-132,-3.49146,-0.599731,0.0371666,0.0163476,0.0082898,0.0400642,0.01345,0.336261,0.0235436,0.0423306,552,1156,-3.49145,0.599768
-665,-132,-3.86169,0.603882,0,0,0,0,0,0,0,-1,559,1156,-3.86169,-0.603911
-658,-132,-3.3064,0.713623,0.0205399,0.0107854,0.00239994,0.0210984,0.0102269,0.228641,0.0121831,0.0426295,566,1156,-3.30642,-0.713676
-651,-132,-3.60419,0.7323,0.0145967,0.00851684,0.000798532,0.0146998,0.00841371,0.128439,0.00851654,0.0409733,573,1156,-3.60416,-0.732274
-644,-132,-3.81738,0.699219,0.0100253,0.00655429,-0.000154313,0.0100322,0.00654744,-0.0443408,0.00588136,0.0211302,580,1156,-3.8174,-0.699239
-637,-132,-3.78998,0.712891,0.00657681,0.00486658,-0.000703234,0.00682883,0.00461456,-0.344122,0.00402299,0.0106168,587,1156,-3.78995,-0.712935
-630,-132,-3.78381,0.764893,0.00326357,0.00319442,-0.00130699,0.00453644,0.00192155,-0.772174,0.00262929,0.00946003,594,1156,-3.78379,-0.764866
-623,-132,-3.84338,0.82251,0.000729077,0.00147501,-0.00218798,0.00332158,-0.00111749,-0.869818,0.00266613,0.0146305,601,1156,-3.84338,-0.822539
-616,-132,-3.85321,0.858765,-0.000870153,0.00110656,-0.00222912,0.00255661,-0.0023202,-0.994068,0.00281673,0.0190211,608,1156,-3.85322,-0.858733
-609,-132,-3.79486,0.874756,-0.00206904,-0.000113129,-0.00216766,0.00128697,-0.00346914,-0.997306,0.00284065,0.0118229,615,1156,-3.79485,-0.874735
-602,-132,-3.81451,0.919434,-0.00293716,-0.00126759,-0.00231876,0.000362078,-0.00456683,-0.958181,0.00317214,0.0105111,622,1156,-3.81451,-0.919454
-595,-132,-3.8161,0.981689,-0.00374302,-0.00177161,-0.0026364,5.73311e-05,-0.00557195,-0.964294,0.00373389,0.0105322,629,1156,-3.81611,-0.98168
-588,-132,-3.77972,1.04858,-0.00447662,-0.00213857,-0.0027597,-0.0003105,-0.00630469,-0.985742,0.00410355,0.0141197,636,1156,-3.7797,-1.04855
-581,-132,-3.87268,1.04797,-0.00497516,-0.00250547,-0.00276078,-0.000715957,-0.00676467,-0.995693,0.00429109,0.0304451,643,1156,-3.87271,-1.04795
-574,-132,-4.04254,0.911987,-0.00514551,-0.00267588,-0.0026998,-0.000941915,-0.00687948,-0.999882,0.00430682,0.0371714,650,1156,-4.04255,-0.911996
-567,-132,-4.13727,0.71875,-0.00513637,-0.00280161,-0.00253653,-0.00117672,-0.00676126,-1.00106,0.00417097,0.0365681,657,1156,-4.13727,-0.718697
-560,-132,-4.16663,0.726074,-0.00494607,-0.0027879,-0.00210858,-0.00149833,-0.00623564,-1.0219,0.00375856,0.0354427,664,1156,-4.16662,-0.726066
-553,-132,-4.25226,0.69397,-0.00429278,-0.0025992,-0.00143681,-0.00177822,-0.00511377,-1.05168,0.00299772,0.038416,671,1156,-4.25225,-0.693991
-546,-132,-4.30847,0.465088,-0.00307503,-0.00221442,-0.000509242,-0.00197803,-0.00331143,-1.13619,0.00192389,0.0415761,678,1156,-4.3085,-0.465099
-539,-132,-4.27063,0.487793,-0.00112225,-0.00160265,0.000664325,-0.00065603,-0.00206886,0.611926,0.00122081,0.0435461,685,1156,-4.2706,-0.487792
-532,-132,-4.14307,0.62146,0.00174882,-0.000745939,0.00195192,0.0028179,-0.00181501,0.501078,0.00269562,0.042358,692,1156,-4.14308,-0.621498
-525,-132,-4.19519,0.737061,0.00509203,0.000174527,0.0026945,0.00628098,-0.00101443,0.415557,0.00456321,0.0398078,699,1156,-4.1952,-0.737017
-518,-132,0,0,0,0,0,0,0,0,0,-1,706,1156,0,0
-511,-132,0,0,0,0,0,0,0,0,0,-1,713,1156,0,0
-504,-132,0,0,0,0,0,0,0,0,0,-1,720,1156,0,0
-497,-132,0,0,0,0,0,0,0,0,0,-1,727,1156,0,0
-490,-132,0,0,0,0,0,0,0,0,0,-1,734,1156,0,0
-483,-132,0,0,0,0,0,0,0,0,0,-1,741,1156,0,0
-476,-132,0,0,0,0,0,0,0,0,0,-1,748,1156,0,0
-469,-132,0,0,0,0,0,0,0,0,0,-1,755,1156,0,0
-462,-132,0,0,0,0,0,0,0,0,0,-1,762,1156,0,0
-455,-132,0,0,0,0,0,0,0,0,0,-1,769,1156,0,0
-448,-132,0,0,0,0,0,0,0,0,0,-1,776,1156,0,0
-441,-132,0,0,0,0,0,0,0,0,0,-1,783,1156,0,0
-434,-132,0,0,0,0,0,0,0,0,0,-1,790,1156,0,0
-427,-132,0,0,0,0,0,0,0,0,0,-1,797,1156,0,0
-420,-132,0,0,0,0,0,0,0,0,0,-1,804,1156,0,0
-413,-132,0,0,0,0,0,0,0,0,0,-1,811,1156,0,0
-406,-132,0,0,0,0,0,0,0,0,0,-1,818,1156,0,0
-399,-132,0,0,0,0,0,0,0,0,0,-1,825,1156,0,0
-392,-132,0,0,0,0,0,0,0,0,0,-1,832,1156,0,0
-385,-132,0,0,0,0,0,0,0,0,0,-1,839,1156,0,0
-378,-132,0,0,0,0,0,0,0,0,0,-1,846,1156,0,0
-371,-132,0,0,0,0,0,0,0,0,0,-1,853,1156,0,0
-364,-132,0,0,0,0,0,0,0,0,0,-1,860,1156,0,0
-357,-132,0,0,0,0,0,0,0,0,0,-1,867,1156,0,0
-350,-132,0,0,0,0,0,0,0,0,0,-1,874,1156,0,0
-343,-132,0,0,0,0,0,0,0,0,0,-1,881,1156,0,0
-336,-132,0,0,0,0,0,0,0,0,0,-1,888,1156,0,0
-329,-132,0,0,0,0,0,0,0,0,0,-1,895,1156,0,0
-322,-132,0,0,0,0,0,0,0,0,0,-1,902,1156,0,0
-315,-132,0,0,0,0,0,0,0,0,0,-1,909,1156,0,0
-308,-132,0,0,0,0,0,0,0,0,0,-1,916,1156,0,0
-301,-132,0,0,0,0,0,0,0,0,0,-1,923,1156,0,0
-294,-132,0,0,0,0,0,0,0,0,0,-1,930,1156,0,0
-287,-132,0,0,0,0,0,0,0,0,0,-1,937,1156,0,0
-280,-132,0,0,0,0,0,0,0,0,0,-1,944,1156,0,0
-273,-132,0,0,0,0,0,0,0,0,0,-1,951,1156,0,0
-266,-132,0,0,0,0,0,0,0,0,0,-1,958,1156,0,0
-259,-132,0,0,0,0,0,0,0,0,0,-1,965,1156,0,0
-252,-132,0,0,0,0,0,0,0,0,0,-1,972,1156,0,0
-245,-132,0,0,0,0,0,0,0,0,0,-1,979,1156,0,0
-238,-132,0,0,0,0,0,0,0,0,0,-1,986,1156,0,0
-231,-132,0,0,0,0,0,0,0,0,0,-1,993,1156,0,0
-224,-132,0,0,0,0,0,0,0,0,0,-1,1000,1156,0,0
-217,-132,0,0,0,0,0,0,0,0,0,-1,1007,1156,0,0
-210,-132,0,0,0,0,0,0,0,0,0,-1,1014,1156,0,0
-203,-132,0,0,0,0,0,0,0,0,0,-1,1021,1156,0,0
-196,-132,0,0,0,0,0,0,0,0,0,-1,1028,1156,0,0
-189,-132,0,0,0,0,0,0,0,0,0,-1,1035,1156,0,0
-182,-132,0,0,0,0,0,0,0,0,0,-1,1042,1156,0,0
-175,-132,0,0,0,0,0,0,0,0,0,-1,1049,1156,0,0
-168,-132,0,0,0,0,0,0,0,0,0,-1,1056,1156,0,0
-161,-132,0,0,0,0,0,0,0,0,0,-1,1063,1156,0,0
-154,-132,0,0,0,0,0,0,0,0,0,-1,1070,1156,0,0
-147,-132,0,0,0,0,0,0,0,0,0,-1,1077,1156,0,0
-140,-132,0,0,0,0,0,0,0,0,0,-1,1084,1156,0,0
-133,-132,0,0,0,0,0,0,0,0,0,-1,1091,1156,0,0
-126,-132,0,0,0,0,0,0,0,0,0,-1,1098,1156,0,0
-119,-132,0,0,0,0,0,0,0,0,0,-1,1105,1156,0,0
-112,-132,0,0,0,0,0,0,0,0,0,-1,1112,1156,0,0
-105,-132,0,0,0,0,0,0,0,0,0,-1,1119,1156,0,0
-98,-132,0,0,0,0,0,0,0,0,0,-1,1126,1156,0,0
-91,-132,0,0,0,0,0,0,0,0,0,-1,1133,1156,0,0
-84,-132,0,0,0,0,0,0,0,0,0,-1,1140,1156,0,0
-77,-132,0,0,0,0,0,0,0,0,0,-1,1147,1156,0,0
-70,-132,0,0,0,0,0,0,0,0,0,-1,1154,1156,0,0
-63,-132,0,0,0,0,0,0,0,0,0,-1,1161,1156,0,0
-56,-132,0,0,0,0,0,0,0,0,0,-1,1168,1156,0,0
-49,-132,0,0,0,0,0,0,0,0,0,-1,1175,1156,0,0
-42,-132,0,0,0,0,0,0,0,0,0,-1,1182,1156,0,0
-35,-132,0,0,0,0,0,0,0,0,0,-1,1189,1156,0,0
-28,-132,0,0,0,0,0,0,0,0,0,-1,1196,1156,0,0
-21,-132,0,0,0,0,0,0,0,0,0,-1,1203,1156,0,0
-14,-132,0,0,0,0,0,0,0,0,0,-1,1210,1156,0,0
-7,-132,0,0,0,0,0,0,0,0,0,-1,1217,1156,0,0
0,-132,0,0,0,0,0,0,0,0,0,-1,1224,1156,0,0
7,-132,0,0,0,0,0,0,0,0,0,-1,1231,1156,0,0
14,-132,0,0,0,0,0,0,0,0,0,-1,1238,1156,0,0
21,-132,0,0,0,0,0,0,0,0,0,-1,1245,1156,0,0
28,-132,0,0,0,0,0,0,0,0,0,-1,1252,1156,0,0
35,-132,0,0,0,0,0,0,0,0,0,-1,1259,1156,0,0
42,-132,0,0,0,0,0,0,0,0,0,-1,1266,1156,0,0
49,-132,0,0,0,0,0,0,0,0,0,-1,1273,1156,0,0
56,-132,0,0,0,0,0,0,0,0,0,-1,1280,1156,0,0
63,-132,0,0,0,0,0,0,0,0,0,-1,1287,1156,0,0
70,-132,0,0,0,0,0,0,0,0,0,-1,1294,1156,0,0
77,-132,0,0,0,0,0,0,0,0,0,-1,1301,1156,0,0
84,-132,0,0,0,0,0,0,0,0,0,-1,1308,1156,0,0
91,-132,0,0,0,0,0,0,0,0,0,-1,1315,1156,0,0
98,-132,0,0,0,0,0,0,0,0,0,-1,1322,1156,0,0
105,-132,0,0,0,0,0,0,0,0,0,-1,1329,1156,0,0
112,-132,0,0,0,0,0,0,0,0,0,-1,1336,1156,0,0
119,-132,0,0,0,0,0,0,0,0,0,-1,1343,1156,0,0
126,-132,0,0,0,0,0,0,0,0,0,-1,1350,1156,0,0
133,-132,0,0,0,0,0,0,0,0,0,-1,1357,1156,0,0
140,-132,0,0,0,0,0,0,0,0,0,-1,1364,1156,0,0
147,-132,0,0,0,0,0,0,0,0,0,-1,1371,1156,0,0
154,-132,0,0,0,0,0,0,0,0,0,-1,1378,1156,0,0
161,-132,0,0,0,0,0,0,0,0,0,-1,1385,1156,0,0
168,-132,0,0,0,0,0,0,0,0,0,-1,1392,1156,0,0
175,-132,0,0,0,0,0,0,0,0,0,-1,1399,1156,0,0
182,-132,0,0,0,0,0,0,0,0,0,-1,1406,1156,0,0
189,-132,0,0,0,0,0,0,0,0,0,-1,1413,1156,0,0
196,-132,0,0,0,0,0,0,0,0,0,-1,1420,1156,0,0
203,-132,0,0,0,0,0,0,0,0,0,-1,1427,1156,0,0
210,-132,0,0,0,0,0,0,0,0,0,-1,1434,1156,0,0
217,-132,0,0,0,0,0,0,0,0,0,-1,1441,1156,0,0
224,-132,0,0,0,0,0,0,0,0,0,-1,1448,1156,0,0
231,-132,0,0,0,0,0,0,0,0,0,-1,1455,1156,0,0
238,-132,0,0,0,0,0,0,0,0,0,-1,1462,1156,0,0
245,-132,0,0,0,0,0,0,0,0,0,-1,1469,1156,0,0
252,-132,0,0,0,0,0,0,0,0,0,-1,1476,1156,0,0
259,-132,0,0,0,0,0,0,0,0,0,-1,1483,1156,0,0
266,-132,0,0,0,0,0,0,0,0,0,-1,1490,1156,0,0
273,-132,0,0,0,0,0,0,0,0,0,-1,1497,1156,0,0
280,-132,0,0,0,0,0,0,0,0,0,-1,1504,1156,0,0
287,-132,0,0,0,0,0,0,0,0,0,-1,1511,1156,0,0
294,-132,0,0,0,0,0,0,0,0,0,-1,1518,1156,0,0
301,-132,0,0,0,0,0,0,0,0,0,-1,1525,1156,0,0
308,-132,0,0,0,0,0,0,0,0,0,-1,1532,1156,0,0
315,-132,0,0,0,0,0,0,0,0,0,-1,1539,1156,0,0
322,-132,0,0,0,0,0,0,0,0,0,-1,1546,1156,0,0
329,-132,0,0,0,0,0,0,0,0,0,-1,1553,1156,0,0
336,-132,0,0,0,0,0,0,0,0,0,-1,1560,1156,0,0
343,-132,0,0,0,0,0,0,0,0,0,-1,1567,1156,0,0
350,-132,0,0,0,0,0,0,0,0,0,-1,1574,1156,0,0
357,-132,0,0,0,0,0,0,0,0,0,-1,1581,1156,0,0
364,-132,0,0,0,0,0,0,0,0,0,-1,1588,1156,0,0
371,-132,0,0,0,0,0,0,0,0,0,-1,1595,1156,0,0
378,-132,0,0,0,0,0,0,0,0,0,-1,1602,1156,0,0
385,-132,0,0,0,0,0,0,0,0,0,-1,1609,1156,0,0
392,-132,0,0,0,0,0,0,0,0,0,-1,1616,1156,0,0
399,-132,0,0,0,0,0,0,0,0,0,-1,1623,1156,0,0
406,-132,0,0,0,0,0,0,0,0,0,-1,1630,1156,0,0
413,-132,0,0,0,0,0,0,0,0,0,-1,1637,1156,0,0
420,-132,0,0,0,0,0,0,0,0,0,-1,1644,1156,0,0
427,-132,0,0,0,0,0,0,0,0,0,-1,1651,1156,0,0
434,-132,0,0,0,0,0,0,0,0,0,-1,1658,1156,0,0
441,-132,0,0,0,0,0,0,0,0,0,-1,1665,1156,0,0
448,-132,0,0,0,0,0,0,0,0,0,-1,1672,1156,0,0
455,-132,0,0,0,0,0,0,0,0,0,-1,1679,1156,0,0
462,-132,0,0,0,0,0,0,0,0,0,-1,1686,1156,0,0
469,-132,0,0,0,0,0,0,0,0,0,-1,1693,1156,0,0
476,-132,0,0,0,0,0,0,0,0,0,-1,1700,1156,0,0
483,-132,0,0,0,0,0,0,0,0,0,-1,1707,1156,0,0
490,-132,0,0,0,0,0,0,0,0,0,-1,1714,1156,0,0
497,-132,0,0,0,0,0,0,0,0,0,-1,1721,1156,0,0
504,-132,0,0,0,0,0,0,0,0,0,-1,1728,1156,0,0
511,-132,0,0,0,0,0,0,0,0,0,-1,1735,1156,0,0
518,-132,0,0,0,0,0,0,0,0,0,-1,1742,1156,0,0
525,-132,0,0,0,0,0,0,0,0,0,-1,1749,1156,0,0
532,-132,0,0,0,0,0,0,0,0,0,-1,1756,1156,0,0
539,-132,0,0,0,0,0,0,0,0,0,-1,1763,1156,0,0
546,-132,0,0,0,0,0,0,0,0,0,-1,1770,1156,0,0
553,-132,0,0,0,0,0,0,0,0,0,-1,1777,1156,0,0
560,-132,0,0,0,0,0,0,0,0,0,-1,1784,1156,0,0
567,-132,0,0,0,0,0,0,0,0,0,-1,1791,1156,0,0
574,-132,0,0,0,0,0,0,0,0,0,-1,1798,1156,0,0
581,-132,0,0,0,0,0,0,0,0,0,-1,1805,1156,0,0
588,-132,0,0,0,0,0,0,0,0,0,-1,1812,1156,0,0
595,-132,0,0,0,0,0,0,0,0,0,-1,1819,1156,0,0
602,-132,0,0,0,0,0,0,0,0,0,-1,1826,1156,0,0
609,-132,0,0,0,0,0,0,0,0,0,-1,1833,1156,0,0
616,-132,0,0,0,0,0,0,0,0,0,-1,1840,1156,0,0
623,-132,0,0,0,0,0,0,0,0,0,-1,1847,1156,0,0
630,-132,0,0,0,0,0,0,0,0,0,-1,1854,1156,0,0
637,-132,0,0,0,0,0,0,0,0,0,-1,1861,1156,0,0
644,-132,9.49524,1.29077,0.00368063,0.000715125,0.00187411,0.00458761,-0.000191857,0.450729,0.00312432,0.0449974,1868,1156,9.49528,-1.29071
651,-132,9.4541,1.255,0.00277415,0.00061858,0.00146216,0.00351282,-0.000120096,0.467795,0.00238292,0.0417623,1875,1156,9.45413,-1.255
658,-132,9.55945,1.09106,0.00208334,0.000452102,0.00114128,0.00267049,-0.000135043,0.475151,0.001827,0.0431377,1882,1156,9.55948,-1.09106
665,-132,9.4823,1.1344,0.000950664,8.46483e-05,0.0011425,0.00173946,-0.000704145,0.604261,0.00145241,0.0427805,1889,1156,9.48232,-1.13445
672,-132,9.39099,1.2406,-0.000258344,-0.000302432,0.00130259,0.00102239,-0.00158316,0.776937,0.00151588,0.0415339,1896,1156,9.39097,-1.24056
679,-132,9.40417,1.38855,-0.0013027,-0.00066336,0.00148116,0.000532236,-0.00249829,0.891679,0.00186838,0.0397667,1903,1156,9.40422,-1.38849
686,-132,9.49963,1.46777,-0.00220695,-0.0009862,0.00167235,0.000183685,-0.00337683,0.960376,0.00231488,0.0353562,1910,1156,9.49966,-1.46782
693,-132,9.55688,1.38818,-0.00290539,-0.00117412,0.00179651,-4.55701e-05,-0.00403395,1.00991,0.00267424,0.028908,1917,1156,9.55684,-1.38816
700,-132,9.63,1.42847,-0.00333532,-0.00137496,0.0018425,-0.000268138,-0.00444213,1.02985,0.00287621,0.0311127,1924,1156,9.63,-1.42841
707,-132,9.51318,1.57935,-0.00367285,-0.00151721,0.00188548,-0.000423227,-0.00476684,1.04505,0.00304663,0.0435059,1931,1156,9.51317,-1.57931
714,-132,9.22705,1.85229,-0.00396486,-0.00151669,0.0019509,-0.000437646,-0.0050439,1.06558,0.00322663,0.0264861,1938,1156,9.22704,-1.8523
721,-132,9.13147,1.80701,-0.00391153,-0.00138699,0.00190888,-0.000360786,-0.00493774,1.07752,0.0031784,0.0179492,1945,1156,9.13151,-1.80696
728,-132,9.16003,1.74146,-0.00349582,-0.00120578,0.00173948,-0.000268285,-0.00443331,1.07648,0.0028703,0.0103408,1952,1156,9.16001,-1.74148
735,-132,9.17883,1.72607,-0.00283351,-0.000985603,0.00143227,-0.000205123,-0.00361399,1.07186,0.00234395,0.0134502,1959,1156,9.17877,-1.72605
742,-132,9.15137,1.69177,-0.00187008,-0.000667078,0.00110512,-1.03642e-05,-0.00252679,1.03462,0.00168108,0.0202278,1966,1156,9.15139,-1.69173
749,-132,9.14722,1.62097,0.000627808,-0.000683015,0.000913897,0.00109702,-0.00115222,0.474323,0.00129873,0.0241963,1973,1156,9.14721,-1.62103
756,-132,9.21082,1.56177,0.00358141,-0.00115979,0.000572652,0.0036496,-0.00122797,0.118512,0.00292947,0.0230896,1980,1156,9.2108,-1.56177
763,-132,9.24036,1.56409,0.00712027,-0.00218513,0.000126912,0.007122,-0.00218687,0.0136352,0.0056206,0.0143134,1987,1156,9.24032,-1.56404
770,-132,9.21851,1.56238,0.0115505,-0.00355345,-0.00011407,0.0115514,-0.00355431,-0.00755174,0.00911955,0.0131634,1994,1156,9.21847,-1.5624
777,-132,9.18274,1.52832,0.0171554,-0.00575701,-0.000205151,0.0171572,-0.00575885,-0.00895276,0.0137653,0.0211541,2001,1156,9.18272,-1.52831
784,-132,9.17432,1.48499,0.024465,-0.0089491,-0.00029422,0.0244676,-0.00895169,-0.00880437,0.0199758,0.044558,2008,1156,9.17435,-1.48502
791,-132,9.17432,1.43213,0,0,0,0,0,0,0,-1,2015,1156,9.17437,-1.43216
798,-132,9.85486,1.42529,0.0451705,-0.019235,-0.000567534,0.0451755,-0.01924,-0.00881097,0.038182,0.0452946,2022,1156,9.85487,-1.42524
805,-132,10.3217,2.14624,0.0588919,-0.0267843,-0.000883241,0.058901,-0.0267935,-0.0103076,0.0506201,0.0463225,2029,1156,10.3216,-2.14622
812,-132,10.8478,2.61584,0.0745471,-0.0362953,-0.00139723,0.0745647,-0.0363129,-0.0126029,0.0652727,0.0459358,2036,1156,10.8478,-2.61584
-700,-139,0,0,0,0,0,0,0,0,0,-1,524,1163,0,0
-693,-139,-5.63983,-1.97644,0,0,0,0,0,0,0,-1,531,1163,-5.63985,1.97645
-686,-139,-4.5827,-2.60413,0,0,0,0,0,0,0,-1,538,1163,-4.5827,2.60415
-679,-139,-3.8847,-2.32996,0.045638,0.0175551,0.0143831,0.0516972,0.0114959,0.398708,0.0313436,0.0482151,545,1163,-3.88473,2.33
-672,-139,-3.86841,0.440674,0.0347593,0.0150707,0.00919596,0.0383863,0.0114437,0.375681,0.0227565,0.0464427,552,1163,-3.86844,-0.44062
-665,-139,-3.75507,0.472046,0.0258198,0.0127833,0.00543279,0.027787,0.0108161,0.347409,0.0161735,0.0452102,559,1163,-3.75505,-0.472095
-658,-139,-3.65198,0.540649,0.0186457,0.0106424,0.00279393,0.0195245,0.00976358,0.304757,0.0112725,0.0461746,566,1163,-3.65198,-0.540598
-651,-139,-3.72021,0.604736,0.0129937,0.00864268,0.00105469,0.0132359,0.0084005,0.225707,0.00773359,0.0413282,573,1163,-3.72024,-0.604745
-644,-139,-3.76245,0.658081,0.00870333,0.00680702,1.13534e-05,0.00870339,0.00680695,0.00598685,0.00528478,0.0216173,580,1163,-3.76244,-0.658029
-637,-139,-3.74359,0.713989,0.00552677,0.00515653,-0.000573823,0.0059446,0.00473871,-0.629363,0.00362852,0.0118005,587,1163,-3.74356,-0.714043
-630,-139,-3.74359,0.766113,0.00242828,0.00351744,-0.00124342,0.00433031,0.00161541,-0.991799,0.00252683,0.00987197,594,1163,-3.74361,-0.766134
-623,-139,-3.79498,0.803589,6.31496e-05,0.00183398,-0.00210642,0.00323351,-0.00133638,-0.984357,0.00271316,0.0152395,601,1163,-3.795,-0.803565
-616,-139,-3.78333,0.809326,-0.00138433,0.00141464,-0.00207105,0.00251472,-0.0024844,-1.08253,0.00288626,0.0179074,608,1163,-3.78333,-0.809314
-609,-139,-3.77002,0.866089,-0.002468,8.0966e-05,-0.00202284,0.00119734,-0.00358437,-1.06651,0.00287309,0.0206058,615,1163,-3.77001,-0.866047
-602,-139,-3.76715,0.94812,-0.00325887,-0.00104767,-0.00218262,0.0002934,-0.00459993,-1.01983,0.00316895,0.0125975,622,1163,-3.76715,-0.948073
-595,-139,-3.78339,0.977051,-0.00406242,-0.0015057,-0.00253603,5.59504e-05,-0.00562407,-1.01885,0.00376817,0.0104908,629,1163,-3.78338,-0.977078
-588,-139,-3.74908,1.0498,-0.00481095,-0.00183656,-0.00264296,-0.000291103,-0.00635641,-1.04167,0.00414398,0.0134918,636,1163,-3.74908,-1.04978
-581,-139,-3.7674,1.12952,-0.00535281,-0.00214771,-0.00264054,-0.000661472,-0.00683905,-1.05814,0.00435565,0.0283461,643,1163,-3.76738,-1.12948
-574,-139,-3.95203,0.890259,-0.00554036,-0.00224093,-0.00261193,-0.000801348,-0.00697994,-1.06707,0.00441051,0.0389497,650,1163,-3.95202,-0.890279
-567,-139,-4.13971,0.637451,-0.00549712,-0.00232223,-0.00249069,-0.000956115,-0.00686324,-1.06911,0.00429243,0.0391469,657,1163,-4.13972,-0.637438
-560,-139,-4.18964,0.874268,-0.00529513,-0.00228001,-0.00211505,-0.00119023,-0.00638491,-1.09502,0.00392056,0.0344702,664,1163,-4.18962,-0.874283
-553,-139,-4.11359,0.808228,-0.00458534,-0.00210089,-0.00150545,-0.00139132,-0.00529491,-1.13034,0.00316964,0.0383469,671,1163,-4.11358,-0.808205
-546,-139,-4.08844,0.521973,-0.00325051,-0.00177771,-0.000646757,-0.00153402,-0.0034942,-1.21046,0.00202237,0.0417871,678,1163,-4.08846,-0.522025
-539,-139,-4.17737,0.544312,-0.00110685,-0.00129706,0.000448984,-0.000743006,-0.0016609,0.681027,0.00096069,0.0423579,685,1163,-4.17735,-0.544299
-532,-139,-4.11896,0.668457,0.00208446,-0.000650119,0.00168556,0.00288756,-0.00145322,0.444638,0.00255135,0.0408848,692,1163,-4.11897,-0.668481
-525,-139,-4.13147,0.541016,0.00595473,8.96535e-07,0.00247949,0.00685207,-0.000896447,0.347243,0.00489431,0.0391728,699,1163,-4.13147,-0.541043
-518,-139,0,0,0,0,0,0,0,0,0,-1,706,1163,0,0
-511,-139,0,0,0,0,0,0,0,0,0,-1,713,1163,0,0
-504,-139,0,0,0,0,0,0,0,0,0,-1,720,1163,0,0
-497,-139,0,0,0,0,0,0,0,0,0,-1,727,1163,0,0
-490,-139,0,0,0,0,0,0,0,0,0,-1,734,1163,0,0
-483,-139,0,0,0,0,0,0,0,0,0,-1,741,1163,0,0
-476,-139,0,0,0,0,0,0,0,0,0,-1,748,1163,0,0
-469,-139,0,0,0,0,0,0,0,0,0,-1,755,1163,0,0
-462,-139,0,0,0,0,0,0,0,0,0,-1,762,1163,0,0
-455,-139,0,0,0,0,0,0,0,0,0,-1,769,1163,0,0
-448,-139,0,0,0,0,0,0,0,0,0,-1,776,1163,0,0
-441,-139,0,0,0,0,0,0,0,0,0,-1,783,1163,0,0
-434,-139,0,0,0,0,0,0,0,0,0,-1,790,1163,0,0
-427,-139,0,0,0,0,0,0,0,0,0,-1,797,1163,0,0
-420,-139,0,0,0,0,0,0,0,0,0,-1,804,1163,0,0
-413,-139,0,0,0,0,0,0,0,0,0,-1,811,1163,0,0
-406,-139,0,0,0,0,0,0,0,0,0,-1,818,1163,0,0
-399,-139,0,0,0,0,0,0,0,0,0,-1,825,1163,0,0
-392,-139,0,0,0,0,0,0,0,0,0,-1,832,1163,0,0
-385,-139,0,0,0,0,0,0,0,0,0,-1,839,1163,0,0
-378,-139,0,0,0,0,0,0,0,0,0,-1,846,1163,0,0
-371,-139,0,0,0,0,0,0,0,0,0,-1,853,1163,0,0
-364,-139,0,0,0,0,0,0,0,0,0,-1,860,1163,0,0
-357,-139,0,0,0,0,0,0,0,0,0,-1,867,1163,0,0
-350,-139,0,0,0,0,0,0,0,0,0,-1,874,1163,0,0
-343,-139,0,0,0,0,0,0,0,0,0,-1,881,1163,0,0
-336,-139,0,0,0,0,0,0,0,0,0,-1,888,1163,0,0
-329,-139,0,0,0,0,0,0,0,0,0,-1,895,1163,0,0
-322,-139,0,0,0,0,0,0,0,0,0,-1,902,1163,0,0
-315,-139,0,0,0,0,0,0,0,0,0,-1,909,1163,0,0
-308,-139,0,0,0,0,0,0,0,0,0,-1,916,1163,0,0
-301,-139,0,0,0,0,0,0,0,0,0,-1,923,1163,0,0
-294,-139,0,0,0,0,0,0,0,0,0,-1,930,1163,0,0
-287,-139,0,0,0,0,0,0,0,0,0,-1,937,1163,0,0
-280,-139,0,0,0,0,0,0,0,0,0,-1,944,1163,0,0
-273,-139,0,0,0,0,0,0,0,0,0,-1,951,1163,0,0
-266,-139,0,0,0,0,0,0,0,0,0,-1,958,1163,0,0
-259,-139,0,0,0,0,0,0,0,0,0,-1,965,1163,0,0
-252,-139,0,0,0,0,0,0,0,0,0,-1,972,1163,0,0
-245,-139,0,0,0,0,0,0,0,0,0,-1,979,1163,0,0
-238,-139,0,0,0,0,0,0,0,0,0,-1,986,1163,0,0
-231,-139,0,0,0,0,0,0,0,0,0,-1,993,1163,0,0
-224,-139,0,0,0,0,0,0,0,0,0,-1,1000,1163,0,0
-217,-139,0,0,0,0,0,0,0,0,0,-1,1007,1163,0,0
-210,-139,0,0,0,0,0,0,0,0,0,-1,1014,1163,0,0
-203,-139,0,0,0,0,0,0,0,0,0,-1,1021,1163,0,0
-196,-139,0,0,0,0,0,0,0,0,0,-1,1028,1163,0,0
-189,-139,0,0,0,0,0,0,0,0,0,-1,1035,1163,0,0
-182,-139,0,0,0,0,0,0,0,0,0,-1,1042,1163,0,0
-175,-139,0,0,0,0,0,0,0,0,0,-1,1049,1163,0,0
-168,-139,0,0,0,0,0,0,0,0,0,-1,1056,1163,0,0
-161,-139,0,0,0,0,0,0,0,0,0,-1,1063,1163,0,0
-154,-139,0,0,0,0,0,0,0,0,0,-1,1070,1163,0,0
-147,-139,0,0,0,0,0,0,0,0,0,-1,1077,1163,0,0
-140,-139,0,0,0,0,0,0,0,0,0,-1,1084,1163,0,0
-133,-139,0,0,0,0,0,0,0,0,0,-1,1091,1163,0,0
-126,-139,0,0,0,0,0,0,0,0,0,-1,1098,1163,0,0
-119,-139,0,0,0,0,0,0,0,0,0,-1,1105,1163,0,0
-112,-139,0,0,0,0,0,0,0,0,0,-1,1112,1163,0,0
-105,-139,0,0,0,0,0,0,0,0,0,-1,1119,1163,0,0
-98,-139,0,0,0,0,0,0,0,0,0,-1,1126,1163,0,0
-91,-139,0,0,0,0,0,0,0,0,0,-1,1133,1163,0,0
-84,-139,0,0,0,0,0,0,0,0,0,-1,1140,1163,0,0
-77,-139,0,0,0,0,0,0,0,0,0,-1,1147,1163,0,0
-70,-139,0,0,0,0,0,0,0,0,0,-1,1154,1163,0,0
-63,-139,0,0,0,0,0,0,0,0,0,-1,1161,1163,0,0
-56,-139,0,0,0,0,0,0,0,0,0,-1,1168,1163,0,0
-49,-139,0,0,0,0,0,0,0,0,0,-1,1175,1163,0,0
-42,-139,0,0,0,0,0,0,0,0,0,-1,1182,1163,0,0
-35,-139,0,0,0,0,0,0,0,0,0,-1,1189,1163,0,0
-28,-139,0,0,0,0,0,0,0,0,0,-1,1196,1163,0,0
-21,-139,0,0,0,0,0,0,0,0,0,-1,1203,1163,0,0
-14,-139,0,0,0,0,0,0,0,0,0,-1,1210,1163,0,0
-7,-139,0,0,0,0,0,0,0,0,0,-1,1217,1163,0,0
0,-139,0,0,0,0,0,0,0,0,0,-1,1224,1163,0,0
7,-139,0,0,0,0,0,0,0,0,0,-1,1231,1163,0,0
14,-139,0,0,0,0,0,0,0,0,0,-1,1238,1163,0,0
21,-139,0,0,0,0,0,0,0,0,0,-1,1245,1163,0,0
28,-139,0,0,0,0,0,0,0,0,0,-1,1252,1163,0,0
35,-139,0,0,0,0,0,0,0,0,0,-1,1259,1163,0,0
42,-139,0,0,0,0,0,0,0,0,0,-1,1266,1163,0,0
49,-139,0,0,0,0,0,0,0,0,0,-1,1273,1163,0,0
56,-139,0,0,0,0,0,0,0,0,0,-1,1280,1163,0,0
63,-139,0,0,0,0,0,0,0,0,0,-1,1287,1163,0,0
70,-139,0,0,0,0,0,0,0,0,0,-1,1294,1163,0,0
77,-139,0,0,0,0,0,0,0,0,0,-1,1301,1163,0,0
84,-139,0,0,0,0,0,0,0,0,0,-1,1308,1163,0,0
91,-139,0,0,0,0,0,0,0,0,0,-1,1315,1163,0,0
98,-139,0,0,0,0,0,0,0,0,0,-1,1322,1163,0,0
105,-139,0,0,0,0,0,0,0,0,0,-1,1329,1163,0,0
112,-139,0,0,0,0,0,0,0,0,0,-1,1336,1163,0,0
119,-139,0,0,0,0,0,0,0,0,0,-1,1343,1163,0,0
126,-139,0,0,0,0,0,0,0,0,0,-1,1350,1163,0,0
133,-139,0,0,0,0,0,0,0,0,0,-1,1357,1163,0,0
140,-139,0,0,0,0,0,0,0,0,0,-1,1364,1163,0,0
147,-139,0,0,0,0,0,0,0,0,0,-1,1371,1163,0,0
154,-139,0,0,0,0,0,0,0,0,0,-1,1378,1163,0,0
161,-139,0,0,0,0,0,0,0,0,0,-1,1385,1163,0,0
168,-139,0,0,0,0,0,0,0,0,0,-1,1392,1163,0,0
175,-139,0,0,0,0,0,0,0,0,0,-1,1399,1163,0,0
182,-139,0,0,0,0,0,0,0,0,0,-1,1406,1163,0,0
189,-139,0,0,0,0,0,0,0,0,0,-1,1413,1163,0,0
196,-139,0,0,0,0,0,0,0,0,0,-1,1420,1163,0,0
203,-139,0,0,0,0,0,0,0,0,0,-1,1427,1163,0,0
210,-139,0,0,0,0,0,0,0,0,0,-1,1434,1163,0,0
217,-139,0,0,0,0,0,0,0,0,0,-1,1441,1163,0,0
224,-139,0,0,0,0,0,0,0,0,0,-1,1448,1163,0,0
231,-139,0,0,0,0,0,0,0,0,0,-1,1455,1163,0,0
238,-139,0,0,0,0,0,0,0,0,0,-1,1462,1163,0,0
245,-139,0,0,0,0,0,0,0,0,0,-1,1469,1163,0,0
252,-139,0,0,0,0,0,0,0,0,0,-1,1476,1163,0,0
259,-139,0,0,0,0,0,0,0,0,0,-1,1483,1163,0,0
266,-139,0,0,0,0,0,0,0,0,0,-1,1490,1163,0,0
273,-139,0,0,0,0,0,0,0,0,0,-1,1497,1163,0,0
280,-139,0,0,0,0,0,0,0,0,0,-1,1504,1163,0,0
287,-139,0,0,0,0,0,0,0,0,0,-1,1511,1163,0,0
294,-139,0,0,0,0,0,0,0,0,0,-1,1518,1163,0,0
301,-139,0,0,0,0,0,0,0,0,0,-1,1525,1163,0,0
308,-139,0,0,0,0,0,0,0,0,0,-1,1532,1163,0,0
315,-139,0,0,0,0,0,0,0,0,0,-1,1539,1163,0,0
322,-139,0,0,0,0,0,0,0,0,0,-1,1546,1163,0,0
329,-139,0,0,0,0,0,0,0,0,0,-1,1553,1163,0,0
336,-139,0,0,0,0,0,0,0,0,0,-1,1560,1163,0,0
343,-139,0,0,0,0,0,0,0,0,0,-1,1567,1163,0,0
350,-139,0,0,0,0,0,0,0,0,0,-1,1574,1163,0,0
357,-139,0,0,0,0,0,0,0,0,0,-1,1581,1163,0,0
364,-139,0,0,0,0,0,0,0,0,0,-1,1588,1163,0,0
371,-139,0,0,0,0,0,0,0,0,0,-1,1595,1163,0,0
378,-139,0,0,0,0,0,0,0,0,0,-1,1602,1163,0,0
385,-139,0,0,0,0,0,0,0,0,0,-1,1609,1163,0,0
392,-139,0,0,0,0,0,0,0,0,0,-1,1616,1163,0,0
399,-139,0,0,0,0,0,0,0,0,0,-1,1623,1163,0,0
406,-139,0,0,0,0,0,0,0,0,0,-1,1630,1163,0,0
413,-139,0,0,0,0,0,0,0,0,0,-1,1637,1163,0,0
420,-139,0,0,0,0,0,0,0,0,0,-1,1644,1163,0,0
427,-139,0,0,0,0,0,0,0,0,0,-1,1651,1163,0,0
434,-139,0,0,0,0,0,0,0,0,0,-1,1658,1163,0,0
441,-139,0,0,0,0,0,0,0,0,0,-1,1665,1163,0,0
448,-139,0,0,0,0,0,0,0,0,0,-1,1672,1163,0,0
455,-139,0,0,0,0,0,0,0,0,0,-1,1679,1163,0,0
462,-139,0,0,0,0,0,0,0,0,0,-1,1686,1163,0,0
469,-139,0,0,0,0,0,0,0,0,0,-1,1693,1163,0,0
476,-139,0,0,0,0,0,0,0,0,0,-1,1700,1163,0,0
483,-139,0,0,0,0,0,0,0,0,0,-1,1707,1163,0,0
490,-139,0,0,0,0,0,0,0,0,0,-1,1714,1163,0,0
497,-139,0,0,0,0,0,0,0,0,0,-1,1721,1163,0,0
504,-139,0,0,0,0,0,0,0,0,0,-1,1728,1163,0,0
511,-139,0,0,0,0,0,0,0,0,0,-1,1735,1163,0,0
518,-139,0,0,0,0,0,0,0,0,0,-1,1742,1163,0,0
525,-139,0,0,0,0,0,0,0,0,0,-1,1749,1163,0,0
532,-139,0,0,0,0,0,0,0,0,0,-1,1756,1163,0,0
539,-139,0,0,0,0,0,0,0,0,0,-1,1763,1163,0,0
546,-139,0,0,0,0,0,0,0,0,0,-1,1770,1163,0,0
553,-139,0,0,0,0,0,0,0,0,0,-1,1777,1163,0,0
560,-139,0,0,0,0,0,0,0,0,0,-1,1784,1163,0,0
567,-139,0,0,0,0,0,0,0,0,0,-1,1791,1163,0,0
574,-139,0,0,0,0,0,0,0,0,0,-1,1798,1163,0,0
581,-139,0,0,0,0,0,0,0,0,0,-1,1805,1163,0,0
588,-139,0,0,0,0,0,0,0,0,0,-1,1812,1163,0,0
595,-139,0,0,0,0,0,0,0,0,0,-1,1819,1163,0,0
602,-139,0,0,0,0,0,0,0,0,0,-1,1826,1163,0,0
609,-139,0,0,0,0,0,0,0,0,0,-1,1833,1163,0,0
616,-139,0,0,0,0,0,0,0,0,0,-1,1840,1163,0,0
623,-139,0,0,0,0,0,0,0,0,0,-1,1847,1163,0,0
630,-139,0,0,0,0,0,0,0,0,0,-1,1854,1163,0,0
637,-139,0,0,0,0,0,0,0,0,0,-1,1861,1163,0,0
644,-139,9.53748,1.24634,0.00273704,0.00087327,0.0016849,0.00373059,-0.000120279,0.532796,0.00252811,0.0413886,1868,1163,9.53742,-1.2463
651,-139,9.60828,1.38245,0.00209987,0.000706392,0.00136797,0.00293831,-0.000132048,0.549858,0.00200434,0.0414511,1875,1163,9.60826,-1.38239
658,-139,9.72205,1.22827,0.00155767,0.000542307,0.00112701,0.00228607,-0.000186086,0.573776,0.00158971,0.0415551,1882,1163,9.72207,-1.22822
665,-139,9.62732,1.27209,0.000556559,0.000207271,0.00113581,0.00153107,-0.000767241,0.709115,0.00135114,0.0377711,1889,1163,9.62727,-1.27214
672,-139,9.54614,1.28906,-0.00050038,-0.000133105,0.00124139,0.000938156,-0.00157164,0.85883,0.00146434,0.0377111,1896,1163,9.54617,-1.28908
679,-139,9.51636,1.31226,-0.00141859,-0.00045379,0.0013622,0.000508907,-0.00238128,0.955574,0.00178155,0.0353232,1903,1163,9.51633,-1.3123
686,-139,9.54358,1.34998,-0.00221268,-0.00075664,0.00150036,0.000182997,-0.00315232,1.01128,0.00216513,0.0316619,1910,1163,9.54356,-1.34999
693,-139,9.56799,1.30811,-0.00282467,-0.00090938,0.00157474,-2.39603e-05,-0.00371009,1.05859,0.00246544,0.02313,1917,1163,9.56793,-1.3081
700,-139,9.70691,1.45386,-0.00316517,-0.00109304,0.00159951,-0.000223355,-0.00403485,1.07279,0.00261863,0.0456293,1924,1163,9.70687,-1.45382
707,-139,9.35999,1.64148,-0.00345932,-0.00124316,0.00161262,-0.000394614,-0.00430786,1.08642,0.00274982,0.0224794,1931,1163,9.35994,-1.64153
714,-139,9.1001,1.85962,-0.00378371,-0.00125871,0.00164489,-0.00044767,-0.00459475,1.11271,0.00292538,0.0222025,1938,1163,9.10014,-1.85957
721,-139,9.11584,1.78967,-0.00374506,-0.00115085,0.0016135,-0.000377724,-0.00451818,1.12396,0.00289444,0.0168276,1945,1163,9.11583,-1.78963
728,-139,9.12866,1.75549,-0.00331511,-0.00100607,0.00148966,-0.000275921,-0.00404526,1.11506,0.00260974,0.0184504,1952,1163,9.12864,-1.75553
735,-139,9.13855,1.72119,-0.00267104,-0.000837112,0.00122789,-0.00022158,-0.00328657,1.10612,0.00212105,0.0163807,1959,1163,9.13857,-1.72123
742,-139,9.13086,1.68604,-0.00173189,-0.000558559,0.000921915,-5.24737e-05,-0.00223798,1.06876,0.0014748,0.0220735,1966,1163,9.13089,-1.68602
749,-139,9.12268,1.64087,0.00098803,-0.000665145,0.000767806,0.00128962,-0.00096673,0.374274,0.00130714,0.0178913,1973,1163,9.12271,-1.64088
756,-139,9.1134,1.5791,0.00422698,-0.00124735,0.00047099,0.00426721,-0.00128758,0.0852016,0.00335733,0.0106596,1980,1163,9.11335,-1.57915
763,-139,9.14209,1.56189,0.00817098,-0.00238859,0.000101309,0.00817195,-0.00238956,0.0095929,0.00639507,0.0115174,1987,1163,9.14213,-1.56185
770,-139,9.14514,1.53137,0.0132046,-0.00395742,-4.28142e-05,0.0132047,-0.00395753,-0.00249469,0.010377,0.0122155,1994,1163,9.14514,-1.53133
777,-139,9.12012,1.51233,0.0198508,-0.0064357,-6.08083e-05,0.0198509,-0.00643584,-0.00231327,0.0158217,0.0212375,2001,1163,9.1201,-1.51234
784,-139,9.0907,1.48315,0.0287706,-0.0100392,-6.38075e-05,0.0287707,-0.0100393,-0.0016441,0.0232606,0.0410996,2008,1163,9.09066,-1.48312
791,-139,9.81165,0.769531,0.040352,-0.0150562,-4.08543e-05,0.0403521,-0.0150562,-0.000737333,0.0330826,0.0466346,2015,1163,9.81158,-0.76957
798,-139,10.2855,1.66394,0.0550281,-0.021765,-4.00257e-05,0.0550281,-0.021765,-0.000521215,0.0457019,0.0497689,2022,1163,10.2855,-1.66392
805,-139,11.0339,2.59192,0.073178,-0.0304669,-0.000143756,0.0731782,-0.0304671,-0.001387,0.0615099,0.0478716,2029,1163,11.034,-2.5919
812,-139,0,0,0,0,0,0,0,0,0,-1,2036,1163,0,0
-700,-146,0,0,0,0,0,0,0,0,0,-1,524,1170,0,0
-693,-146,-5.21808,-3.56104,0,0,0,0,0,0,0,-1,531,1170,-5.21809,3.56099
-686,-146,-4.50458,-3.40149,0.0563289,0.0151748,0.0229133,0.0665485,0.0049552,0.419533,0.0428096,0.0499206,538,1170,-4.5046,3.40154
-679,-146,-3.66113,-3.22192,0.0430149,0.0135586,0.0150761,0.049363,0.00721058,0.398535,0.0307879,0.048735,545,1170,-3.66113,3.22191
-672,-146,-2.42584,-2.44751,0,0,0,0,0,0,0,-1,552,1170,-2.42582,2.44746
-665,-146,-3.66974,0.317505,0.0235974,0.0107517,0.00548095,0.0256181,0.008731,0.353219,0.0150384,0.0483509,559,1170,-3.66976,-0.317478
-658,-146,-3.50903,0.428467,0.0167425,0.00932976,0.00274224,0.0176467,0.0084256,0.318494,0.0101918,0.0457924,566,1170,-3.50905,-0.428434
-651,-146,-3.62683,0.615234,0.0114209,0.00786456,0.000972016,0.0116692,0.00761623,0.250132,0.00684111,0.0370949,573,1170,-3.62686,-0.615294
-644,-146,-3.69147,0.64978,0.0074399,0.00639611,-6.6952e-05,0.00744417,0.00639184,-0.0637953,0.00465185,0.0197143,580,1170,-3.69145,-0.64974
-637,-146,-3.69403,0.69751,0.00455195,0.00498221,-0.000618158,0.0054216,0.00411255,-0.952852,0.00326668,0.0105374,587,1170,-3.69401,-0.69745
-630,-146,-3.69879,0.76062,0.00171021,0.0035321,-0.00132067,0.00422552,0.00101678,-1.08731,0.00254667,0.00995324,594,1170,-3.69881,-0.760621
-623,-146,-3.72479,0.786743,-0.000458411,0.00203066,-0.00208657,0.00321566,-0.00164341,-1.0543,0.00285392,0.0120816,601,1170,-3.72479,-0.786717
-616,-146,-3.74078,0.823364,-0.00175021,0.00160444,-0.00194259,0.00249365,-0.00263941,-1.14152,0.00296397,0.0187832,608,1170,-3.74077,-0.823312
-609,-146,-3.70642,0.89209,-0.00271922,0.000308226,-0.00192798,0.00124572,-0.00365671,-1.1182,0.0029423,0.0173819,615,1170,-3.70643,-0.892138
-602,-146,-3.73059,0.960205,-0.00349417,-0.000718121,-0.0020801,0.000394543,-0.00460683,-1.07961,0.00321083,0.0179009,622,1170,-3.7306,-0.960159
-595,-146,-3.74115,0.988892,-0.00433791,-0.0011065,-0.00244834,0.000211205,-0.00565562,-1.07706,0.00384275,0.0101205,629,1170,-3.74113,-0.988945
-588,-146,-3.7262,1.06189,-0.00512715,-0.00136899,-0.002545,-8.4531e-05,-0.00641161,-1.1034,0.00424651,0.010983,636,1170,-3.72619,-1.06189
-581,-146,-3.70667,1.13562,-0.00572798,-0.00158337,-0.00254503,-0.000373658,-0.00693769,-1.12709,0.00450574,0.0219772,643,1170,-3.70664,-1.13561
-574,-146,-3.93756,0.878418,-0.00596145,-0.00155602,-0.00254775,-0.000390802,-0.00712667,-1.14184,0.00462635,0.0378991,650,1170,-3.93759,-0.878403
-567,-146,-4.18652,0.644409,-0.00592798,-0.00151475,-0.00246214,-0.000415117,-0.00702761,-1.15076,0.00455301,0.0391863,657,1170,-4.18655,-0.644412
-560,-146,-4.20471,0.892822,-0.0057601,-0.00137431,-0.00213513,-0.000506556,-0.00662786,-1.18477,0.00425977,0.0370597,664,1170,-4.20469,-0.892879
-553,-146,-4.20508,1.06689,-0.00504523,-0.00112929,-0.00158939,-0.000565398,-0.00560913,-1.22986,0.00356592,0.039244,671,1170,-4.20505,-1.06689
-546,-146,-4.12329,0.751343,-0.00364222,-0.000787902,-0.000812622,-0.000572765,-0.00385736,-1.31199,0.00240351,0.0408453,678,1170,-4.12328,-0.751283
-539,-146,-4.29297,0.716797,-0.00134496,-0.00035073,0.000173091,-0.000321458,-0.00137423,1.40327,0.000830019,0.0419184,685,1170,-4.29294,-0.716774
-532,-146,-4.42578,0.786011,0.00213802,0.000180188,0.00128335,0.00277319,-0.000454978,0.459582,0.00201762,0.0405008,692,1170,-4.42576,-0.785985
-525,-146,-4.28168,0.686157,0.00654566,0.000669967,0.00200282,0.0071634,5.22227e-05,0.299179,0.00475829,0.0405107,699,1170,-4.2817,-0.68618
-518,-146,0,0,0,0,0,0,0,0,0,-1,706,1170,0,0
-511,-146,0,0,0,0,0,0,0,0,0,-1,713,1170,0,0
-504,-146,0,0,0,0,0,0,0,0,0,-1,720,1170,0,0
-497,-146,0,0,0,0,0,0,0,0,0,-1,727,1170,0,0
-490,-146,0,0,0,0,0,0,0,0,0,-1,734,1170,0,0
-483,-146,0,0,0,0,0,0,0,0,0,-1,741,1170,0,0
-476,-146,0,0,0,0,0,0,0,0,0,-1,748,1170,0,0
-469,-146,0,0,0,0,0,0,0,0,0,-1,755,1170,0,0
-462,-146,0,0,0,0,0,0,0,0,0,-1,762,1170,0,0
-455,-146,0,0,0,0,0,0,0,0,0,-1,769,1170,0,0
-448,-146,0,0,0,0,0,0,0,0,0,-1,776,1170,0,0
-441,-146,0,0,0,0,0,0,0,0,0,-1,783,1170,0,0
-434,-146,0,0,0,0,0,0,0,0,0,-1,790,1170,0,0
-427,-146,0,0,0,0,0,0,0,0,0,-1,797,1170,0,0
-420,-146,0,0,0,0,0,0,0,0,0,-1,804,1170,0,0
-413,-146,0,0,0,0,0,0,0,0,0,-1,811,1170,0,0
-406,-146,0,0,0,0,0,0,0,0,0,-1,818,1170,0,0
-399,-146,0,0,0,0,0,0,0,0,0,-1,825,1170,0,0
-392,-146,0,0,0,0,0,0,0,0,0,-1,832,1170,0,0
-385,-146,0,0,0,0,0,0,0,0,0,-1,839,1170,0,0
-378,-146,0,0,0,0,0,0,0,0,0,-1,846,1170,0,0
-371,-146,0,0,0,0,0,0,0,0,0,-1,853,1170,0,0
-364,-146,0,0,0,0,0,0,0,0,0,-1,860,1170,0,0
-357,-146,0,0,0,0,0,0,0,0,0,-1,867,1170,0,0
-350,-146,0,0,0,0,0,0,0,0,0,-1,874,1170,0,0
-343,-146,0,0,0,0,0,0,0,0,0,-1,881,1170,0,0
-336,-146,0,0,0,0,0,0,0,0,0,-1,888,1170,0,0
-329,-146,0,0,0,0,0,0,0,0,0,-1,895,1170,0,0
-322,-146,0,0,0,0,0,0,0,0,0,-1,902,1170,0,0
-315,-146,0,0,0,0,0,0,0,0,0,-1,909,1170,0,0
-308,-146,0,0,0,0,0,0,0,0,0,-1,916,1170,0,0
-301,-146,0,0,0,0,0,0,0,0,0,-1,923,1170,0,0
-294,-146,0,0,0,0,0,0,0,0,0,-1,930,1170,0,0
-287,-146,0,0,0,0,0,0,0,0,0,-1,937,1170,0,0
-280,-146,0,0,0,0,0,0,0,0,0,-1,944,1170,0,0
-273,-146,0,0,0,0,0,0,0,0,0,-1,951,1170,0,0
-266,-146,0,0,0,0,0,0,0,0,0,-1,958,1170,0,0
-259,-146,0,0,0,0,0,0,0,0,0,-1,965,1170,0,0
-252,-146,0,0,0,0,0,0,0,0,0,-1,972,1170,0,0
-245,-146,0,0,0,0,0,0,0,0,0,-1,979,1170,0,0
-238,-146,0,0,0,0,0,0,0,0,0,-1,986,1170,0,0
-231,-146,0,0,0,0,0,0,0,0,0,-1,993,1170,0,0
-224,-146,0,0,0,0,0,0,0,0,0,-1,1000,1170,0,0
-217,-146,0,0,0,0,0,0,0,0,0,-1,1007,1170,0,0
-210,-146,0,0,0,0,0,0,0,0,0,-1,1014,1170,0,0
-203,-146,0,0,0,0,0,0,0,0,0,-1,1021,1170,0,0
-196,-146,0,0,0,0,0,0,0,0,0,-1,1028,1170,0,0
-189,-146,0,0,0,0,0,0,0,0,0,-1,1035,1170,0,0
-182,-146,0,0,0,0,0,0,0,0,0,-1,1042,1170,0,0
-175,-146,0,0,0,0,0,0,0,0,0,-1,1049,1170,0,0
-168,-146,0,0,0,0,0,0,0,0,0,-1,1056,1170,0,0
-161,-146,0,0,0,0,0,0,0,0,0,-1,1063,1170,0,0
-154,-146,0,0,0,0,0,0,0,0,0,-1,1070,1170,0,0
-147,-146,0,0,0,0,0,0,0,0,0,-1,1077,1170,0,0
-140,-146,0,0,0,0,0,0,0,0,0,-1,1084,1170,0,0
-133,-146,0,0,0,0,0,0,0,0,0,-1,1091,1170,0,0
-126,-146,0,0,0,0,0,0,0,0,0,-1,1098,1170,0,0
-119,-146,0,0,0,0,0,0,0,0,0,-1,1105,1170,0,0
-112,-146,0,0,0,0,0,0,0,0,0,-1,1112,1170,0,0
-105,-146,0,0,0,0,0,0,0,0,0,-1,1119,1170,0,0
-98,-146,0,0,0,0,0,0,0,0,0,-1,1126,1170,0,0
-91,-146,0,0,0,0,0,0,0,0,0,-1,1133,1170,0,0
-84,-146,0,0,0,0,0,0,0,0,0,-1,1140,1170,0,0
-77,-146,0,0,0,0,0,0,0,0,0,-1,1147,1170,0,0
-70,-146,0,0,0,0,0,0,0,0,0,-1,1154,1170,0,0
-63,-146,0,0,0,0,0,0,0,0,0,-1,1161,1170,0,0
-56,-146,0,0,0,0,0,0,0,0,0,-1,1168,1170,0,0
-49,-146,0,0,0,0,0,0,0,0,0,-1,1175,1170,0,0
-42,-146,0,0,0,0,0,0,0,0,0,-1,1182,1170,0,0
-35,-146,0,0,0,0,0,0,0,0,0,-1,1189,1170,0,0
-28,-146,0,0,0,0,0,0,0,0,0,-1,1196,1170,0,0
-21,-146,0,0,0,0,0,0,0,0,0,-1,1203,1170,0,0
-14,-146,0,0,0,0,0,0,0,0,0,-1,1210,1170,0,0
-7,-146,0,0,0,0,0,0,0,0,0,-1,1217,1170,0,0
0,-146,0,0,0,0,0,0,0,0,0,-1,1224,1170,0,0
7,-146,0,0,0,0,0,0,0,0,0,-1,1231,1170,0,0
14,-146,0,0,0,0,0,0,0,0,0,-1,1238,1170,0,0
21,-146,0,0,0,0,0,0,0,0,0,-1,1245,1170,0,0
28,-146,0,0,0,0,0,0,0,0,0,-1,1252,1170,0,0
35,-146,0,0,0,0,0,0,0,0,0,-1,1259,1170,0,0
42,-146,0,0,0,0,0,0,0,0,0,-1,1266,1170,0,0
49,-146,0,0,0,0,0,0,0,0,0,-1,1273,1170,0,0
56,-146,0,0,0,0,0,0,0,0,0,-1,1280,1170,0,0
63,-146,0,0,0,0,0,0,0,0,0,-1,1287,1170,0,0
70,-146,0,0,0,0,0,0,0,0,0,-1,1294,1170,0,0
77,-146,0,0,0,0,0,0,0,0,0,-1,1301,1170,0,0
84,-146,0,0,0,0,0,0,0,0,0,-1,1308,1170,0,0
91,-146,0,0,0,0,0,0,0,0,0,-1,1315,1170,0,0
98,-146,0,0,0,0,0,0,0,0,0,-1,1322,1170,0,0
105,-146,0,0,0,0,0,0,0,0,0,-1,1329,1170,0,0
112,-146,0,0,0,0,0,0,0,0,0,-1,1336,1170,0,0
119,-146,0,0,0,0,0,0,0,0,0,-1,1343,1170,0,0
126,-146,0,0,0,0,0,0,0,0,0,-1,1350,1170,0,0
133,-146,0,0,0,0,0,0,0,0,0,-1,1357,1170,0,0
140,-146,0,0,0,0,0,0,0,0,0,-1,1364,1170,0,0
147,-146,0,0,0,0,0,0,0,0,0,-1,1371,1170,0,0
154,-146,0,0,0,0,0,0,0,0,0,-1,1378,1170,0,0
161,-146,0,0,0,0,0,0,0,0,0,-1,1385,1170,0,0
168,-146,0,0,0,0,0,0,0,0,0,-1,1392,1170,0,0
175,-146,0,0,0,0,0,0,0,0,0,-1,1399,1170,0,0
182,-146,0,0,0,0,0,0,0,0,0,-1,1406,1170,0,0
189,-146,0,0,0,0,0,0,0,0,0,-1,1413,1170,0,0
196,-146,0,0,0,0,0,0,0,0,0,-1,1420,1170,0,0
203,-146,0,0,0,0,0,0,0,0,0,-1,1427,1170,0,0
210,-146,0,0,0,0,0,0,0,0,0,-1,1434,1170,0,0
217,-146,0,0,0,0,0,0,0,0,0,-1,1441,1170,0,0
224,-146,0,0,0,0,0,0,0,0,0,-1,1448,1170,0,0
231,-146,0,0,0,0,0,0,0,0,0,-1,1455,1170,0,0
238,-146,0,0,0,0,0,0,0,0,0,-1,1462,1170,0,0
245,-146,0,0,0,0,0,0,0,0,0,-1,1469,1170,0,0
252,-146,0,0,0,0,0,0,0,0,0,-1,1476,1170,0,0
259,-146,0,0,0,0,0,0,0,0,0,-1,1483,1170,0,0
266,-146,0,0,0,0,0,0,0,0,0,-1,1490,1170,0,0
273,-146,0,0,0,0,0,0,0,0,0,-1,1497,1170,0,0
280,-146,0,0,0,0,0,0,0,0,0,-1,1504,1170,0,0
287,-146,0,0,0,0,0,0,0,0,0,-1,1511,1170,0,0
294,-146,0,0,0,0,0,0,0,0,0,-1,1518,1170,0,0
301,-146,0,0,0,0,0,0,0,0,0,-1,1525,1170,0,0
308,-146,0,0,0,0,0,0,0,0,0,-1,1532,1170,0,0
315,-146,0,0,0,0,0,0,0,0,0,-1,1539,1170,0,0
322,-146,0,0,0,0,0,0,0,0,0,-1,1546,1170,0,0
329,-146,0,0,0,0,0,0,0,0,0,-1,1553,1170,0,0
336,-146,0,0,0,0,0,0,0,0,0,-1,1560,1170,0,0
343,-146,0,0,0,0,0,0,0,0,0,-1,1567,1170,0,0
350,-146,0,0,0,0,0,0,0,0,0,-1,1574,1170,0,0
357,-146,0,0,0,0,0,0,0,0,0,-1,1581,1170,0,0
364,-146,0,0,0,0,0,0,0,0,0,-1,1588,1170,0,0
371,-146,0,0,0,0,0,0,0,0,0,-1,1595,1170,0,0
378,-146,0,0,0,0,0,0,0,0,0,-1,1602,1170,0,0
385,-146,0,0,0,0,0,0,0,0,0,-1,1609,1170,0,0
392,-146,0,0,0,0,0,0,0,0,0,-1,1616,1170,0,0
399,-146,0,0,0,0,0,0,0,0,0,-1,1623,1170,0,0
406,-146,0,0,0,0,0,0,0,0,0,-1,1630,1170,0,0
413,-146,0,0,0,0,0,0,0,0,0,-1,1637,1170,0,0
420,-146,0,0,0,0,0,0,0,0,0,-1,1644,1170,0,0
427,-146,0,0,0,0,0,0,0,0,0,-1,1651,1170,0,0
434,-146,0,0,0,0,0,0,0,0,0,-1,1658,1170,0,0
441,-146,0,0,0,0,0,0,0,0,0,-1,1665,1170,0,0
448,-146,0,0,0,0,0,0,0,0,0,-1,1672,1170,0,0
455,-146,0,0,0,0,0,0,0,0,0,-1,1679,1170,0,0
462,-146,0,0,0,0,0,0,0,0,0,-1,1686,1170,0,0
469,-146,0,0,0,0,0,0,0,0,0,-1,1693,1170,0,0
476,-146,0,0,0,0,0,0,0,0,0,-1,1700,1170,0,0
483,-146,0,0,0,0,0,0,0,0,0,-1,1707,1170,0,0
490,-146,0,0,0,0,0,0,0,0,0,-1,1714,1170,0,0
497,-146,0,0,0,0,0,0,0,0,0,-1,1721,1170,0,0
504,-146,0,0,0,0,0,0,0,0,0,-1,1728,1170,0,0
511,-146,0,0,0,0,0,0,0,0,0,-1,1735,1170,0,0
518,-146,0,0,0,0,0,0,0,0,0,-1,1742,1170,0,0
525,-146,0,0,0,0,0,0,0,0,0,-1,1749,1170,0,0
532,-146,0,0,0,0,0,0,0,0,0,-1,1756,1170,0,0
539,-146,0,0,0,0,0,0,0,0,0,-1,1763,1170,0,0
546,-146,0,0,0,0,0,0,0,0,0,-1,1770,1170,0,0
553,-146,0,0,0,0,0,0,0,0,0,-1,1777,1170,0,0
560,-146,0,0,0,0,0,0,0,0,0,-1,1784,1170,0,0
567,-146,0,0,0,0,0,0,0,0,0,-1,1791,1170,0,0
574,-146,0,0,0,0,0,0,0,0,0,-1,1798,1170,0,0
581,-146,0,0,0,0,0,0,0,0,0,-1,1805,1170,0,0
588,-146,0,0,0,0,0,0,0,0,0,-1,1812,1170,0,0
595,-146,0,0,0,0,0,0,0,0,0,-1,1819,1170,0,0
602,-146,0,0,0,0,0,0,0,0,0,-1,1826,1170,0,0
609,-146,0,0,0,0,0,0,0,0,0,-1,1833,1170,0,0
616,-146,0,0,0,0,0,0,0,0,0,-1,1840,1170,0,0
623,-146,0,0,0,0,0,0,0,0,0,-1,1847,1170,0,0
630,-146,0,0,0,0,0,0,0,0,0,-1,1854,1170,0,0
637,-146,9.54187,1.07629,0.00249727,0.000904922,0.00184645,0.00371189,-0.000309692,0.581846,0.00258401,0.0382527,1861,1170,9.54186,-1.07626
644,-146,9.53076,1.20544,0.00168452,0.000688525,0.00169828,0.00295632,-0.000583271,0.642778,0.00219133,0.0386288,1868,1170,9.53081,-1.20542
651,-146,9.58289,1.32068,0.00131902,0.000504125,0.00137647,0.00234708,-0.000523936,0.641503,0.00176547,0.0381568,1875,1170,9.58283,-1.32062
658,-146,9.72314,1.36426,0.000932238,0.000350655,0.001142,0.00181989,-0.000536998,0.660731,0.00142636,0.0391145,1882,1170,9.72316,-1.36422
665,-146,9.74377,1.43298,9.81059e-05,6.46636e-05,0.00110875,0.00119026,-0.00102749,0.777858,0.00128157,0.038456,1889,1170,9.74378,-1.43295
672,-146,9.67456,1.38916,-0.000776758,-0.000216427,0.00114129,0.000678579,-0.00167176,0.905759,0.00139677,0.0383514,1896,1170,9.67461,-1.38912
679,-146,9.61145,1.33167,-0.00154639,-0.000478337,0.00120057,0.000301624,-0.00232635,0.994662,0.0016606,0.0316294,1903,1170,9.61145,-1.33165
686,-146,9.55457,1.28784,-0.00220341,-0.000733313,0.00127642,4.5778e-06,-0.0029413,1.04664,0.00196239,0.0235144,1910,1170,9.55452,-1.28789
693,-146,9.60498,1.33984,-0.00270963,-0.000827503,0.00130471,-0.000159884,-0.00337725,1.09783,0.00220014,0.0172777,1917,1170,9.60498,-1.33981
700,-146,9.73474,1.43835,0,0,0,0,0,0,0,-1,1924,1170,9.73468,-1.43838
707,-146,9.32849,1.70642,-0.00318889,-0.00108471,0.00131068,-0.000456093,-0.0038175,1.12359,0.00240742,0.0271214,1931,1170,9.32855,-1.7064
714,-146,9.12097,1.8158,-0.00352957,-0.00108145,0.00132133,-0.000504333,-0.00410669,1.159,0.00258613,0.0182861,1938,1170,9.12096,-1.81578
721,-146,9.09338,1.81592,-0.00349329,-0.000988962,0.00130595,-0.000431865,-0.00405039,1.16759,0.00256843,0.0227857,1945,1170,9.09343,-1.81592
728,-146,9.10242,1.75586,-0.00303186,-0.000882815,0.00123937,-0.000317023,-0.00359765,1.14254,0.00230006,0.0188154,1952,1170,9.1024,-1.75591
735,-146,9.08801,1.72388,-0.00238762,-0.000734945,0.00103531,-0.000236634,-0.00288593,1.12221,0.00185013,0.0174998,1959,1170,9.08796,-1.72389
742,-146,9.10425,1.67725,-0.00143117,-0.000478573,0.000763078,-5.5344e-05,-0.00185439,1.0644,0.00121823,0.0164058,1966,1170,9.10423,-1.67723
749,-146,9.08984,1.64673,0.00149136,-0.000658495,0.000646231,0.00167066,-0.000837794,0.270646,0.00147462,0.0138285,1973,1170,9.08982,-1.64669
756,-146,9.07959,1.59106,0.00502564,-0.00132702,0.000405562,0.00505142,-0.00135281,0.0634977,0.00389761,0.0108063,1980,1170,9.07964,-1.5911
763,-146,9.07141,1.53662,0.00939234,-0.00257219,0.000115463,0.00939346,-0.0025733,0.00964923,0.00727343,0.0111763,1987,1170,9.07142,-1.53665
770,-146,9.06592,1.50891,0.015062,-0.00432208,5.67068e-05,0.0150622,-0.00432224,0.0029254,0.0117502,0.0121297,1994,1170,9.0659,-1.50892
777,-146,9.02039,1.50281,0.0227783,-0.00705397,0.000100828,0.0227786,-0.00705431,0.00337977,0.0180039,0.0198499,2001,1170,9.02045,-1.50278
784,-146,9.26587,0.490845,0,0,0,0,0,0,0,-1,2008,1170,9.26587,-0.490871
791,-146,9.86316,1.06763,0,0,0,0,0,0,0,-1,2015,1170,9.86315,-1.06763
798,-146,10.7135,1.86975,0,0,0,0,0,0,0,-1,2022,1170,10.7135,-1.86975
805,-146,11.9086,2.68188,0,0,0,0,0,0,0,-1,2029,1170,11.9086,-2.68186
812,-146,0,0,0,0,0,0,0,0,0,-1,2036,1170,0,0
-700,-153,0,0,0,0,0,0,0,0,0,-1,524,1177,0,0
-693,-153,0,0,0,0,0,0,0,0,0,-1,531,1177,0,0
-686,-153,-4.34052,-4.19531,0,0,0,0,0,0,0,-1,538,1177,-4.34053,4.1953
-679,-153,-3.0976,-1.5144,0,0,0,0,0,0,0,-1,545,1177,-3.09758,1.51444
-672,-153,-3.07343,-1.43933,0,0,0,0,0,0,0,-1,552,1177,-3.07345,1.43932
-665,-153,-3.5293,0.0878906,0,0,0,0,0,0,0,-1,559,1177,-3.52932,-0.0878324
-658,-153,-3.39368,0.265625,0.0103321,0.00794926,0.00216524,0.0116121,0.00666931,0.533878,0.0067289,0.0482247,566,1177,-3.3937,-0.265671
-651,-153,-3.55225,0.651978,0.00650744,0.00715137,0.00049553,0.00742034,0.00623846,1.07349,0.00460378,0.0453935,573,1177,-3.55224,-0.651944
-644,-153,-3.59863,0.703613,0.00377924,0.006113,-0.000429553,0.00618955,0.00370269,-1.39443,0.00359645,0.0278397,580,1177,-3.59865,-0.703639
-637,-153,-3.63196,0.711792,0.00191083,0.00495476,-0.000866383,0.00518408,0.00168151,-1.31204,0.00305396,0.0114291,587,1177,-3.63199,-0.71175
-630,-153,-3.64038,0.75647,-0.000156807,0.0037334,-0.00154174,0.00427031,-0.000693717,-1.23568,0.00310406,0.0098592,594,1177,-3.6404,-0.756477
-623,-153,-3.6499,0.803467,-0.00149704,0.00248059,-0.00218736,0.00344811,-0.00246456,-1.15434,0.00342939,0.00975921,601,1177,-3.64992,-0.80349
-616,-153,-3.65332,0.839844,-0.00228206,0.00191422,-0.00184365,0.00260915,-0.00297699,-1.21033,0.00322749,0.0126178,608,1177,-3.6533,-0.839814
-609,-153,-3.65155,0.894043,-0.00306218,0.000530583,-0.00187571,0.00133136,-0.00386296,-1.1673,0.00311541,0.0169849,615,1177,-3.65152,-0.894054
-602,-153,-3.69659,0.955078,-0.00375321,-0.000459429,-0.00201768,0.000498153,-0.00471079,-1.12768,0.00331907,0.0201658,622,1177,-3.69659,-0.955138
-595,-153,-3.69543,1.0011,-0.00458468,-0.000821857,-0.00239318,0.000340908,-0.00574744,-1.11852,0.00395017,0.0145131,629,1177,-3.69542,-1.00107
-588,-153,-3.69122,1.06116,-0.00540023,-0.00105537,-0.00247651,6.6522e-05,-0.00652212,-1.14544,0.00437042,0.00916747,636,1177,-3.69121,-1.06118
-581,-153,-3.69952,1.08252,-0.00605787,-0.00120338,-0.00248287,-0.000158422,-0.00710283,-1.17243,0.0046833,0.0178796,643,1177,-3.6995,-1.08256
-574,-153,-3.96216,1.07178,-0.00633452,-0.00108788,-0.00250792,-8.19461e-05,-0.00734046,-1.18934,0.00486655,0.0389119,650,1177,-3.96214,-1.07178
-567,-153,-4.25714,0.978149,-0.00632232,-0.000954741,-0.00244241,-9.74606e-06,-0.00726731,-1.20162,0.00484163,0.0445036,657,1177,-4.25716,-0.978209
-560,-153,-4.15479,0.714111,-0.00622021,-0.000718973,-0.00214074,1.5904e-05,-0.00695508,-1.24012,0.00464203,0.0399024,664,1177,-4.15478,-0.714059
-553,-153,-4.18085,0.812378,-0.0055451,-0.00039536,-0.00163553,8.01669e-05,-0.00602063,-1.28785,0.00404074,0.0359171,671,1177,-4.18085,-0.812327
-546,-153,-4.1593,0.778442,-0.0041467,4.61806e-06,-0.000919788,0.000199282,-0.00434137,-1.36223,0.00296291,0.0381468,678,1177,-4.15929,-0.778405
-539,-153,-4.25079,0.637207,-0.00181322,0.000472969,-2.77376e-05,0.000473306,-0.00181356,-1.55867,0.00139386,0.0409545,685,1177,-4.2508,-0.637156
-532,-153,-4.45148,0.709961,0.0017646,0.00100059,0.000957428,0.00241342,0.000351773,0.59558,0.00150545,0.043273,692,1177,-4.45147,-0.709924
-525,-153,-4.39911,0.733154,0.00640343,0.00147928,0.00159614,0.00687555,0.00100716,0.287586,0.00428759,0.043597,699,1177,-4.39908,-0.733209
-518,-153,0,0,0,0,0,0,0,0,0,-1,706,1177,0,0
-511,-153,0,0,0,0,0,0,0,0,0,-1,713,1177,0,0
-504,-153,0,0,0,0,0,0,0,0,0,-1,720,1177,0,0
-497,-153,0,0,0,0,0,0,0,0,0,-1,727,1177,0,0
-490,-153,0,0,0,0,0,0,0,0,0,-1,734,1177,0,0
-483,-153,0,0,0,0,0,0,0,0,0,-1,741,1177,0,0
-476,-153,0,0,0,0,0,0,0,0,0,-1,748,1177,0,0
-469,-153,0,0,0,0,0,0,0,0,0,-1,755,1177,0,0
-462,-153,0,0,0,0,0,0,0,0,0,-1,762,1177,0,0
-455,-153,0,0,0,0,0,0,0,0,0,-1,769,1177,0,0
-448,-153,0,0,0,0,0,0,0,0,0,-1,776,1177,0,0
-441,-153,0,0,0,0,0,0,0,0,0,-1,783,1177,0,0
-434,-153,0,0,0,0,0,0,0,0,0,-1,790,1177,0,0
-427,-153,0,0,0,0,0,0,0,0,0,-1,797,1177,0,0
-420,-153,0,0,0,0,0,0,0,0,0,-1,804,1177,0,0
-413,-153,0,0,0,0,0,0,0,0,0,-1,811,1177,0,0
-406,-153,0,0,0,0,0,0,0,0,0,-1,818,1177,0,0
-399,-153,0,0,0,0,0,0,0,0,0,-1,825,1177,0,0
-392,-153,0,0,0,0,0,0,0,0,0,-1,832,1177,0,0
-385,-153,0,0,0,0,0,0,0,0,0,-1,839,1177,0,0
-378,-153,0,0,0,0,0,0,0,0,0,-1,846,1177,0,0
-371,-153,0,0,0,0,0,0,0,0,0,-1,853,1177,0,0
-364,-153,0,0,0,0,0,0,0,0,0,-1,860,1177,0,0
-357,-153,0,0,0,0,0,0,0,0,0,-1,867,1177,0,0
-350,-153,0,0,0,0,0,0,0,0,0,-1,874,1177,0,0
-343,-153,0,0,0,0,0,0,0,0,0,-1,881,1177,0,0
-336,-153,0,0,0,0,0,0,0,0,0,-1,888,1177,0,0
-329,-153,0,0,0,0,0,0,0,0,0,-1,895,1177,0,0
-322,-153,0,0,0,0,0,0,0,0,0,-1,902,1177,0,0
-315,-153,0,0,0,0,0,0,0,0,0,-1,909,1177,0,0
-308,-153,0,0,0,0,0,0,0,0,0,-1,916,1177,0,0
-301,-153,0,0,0,0,0,0,0,0,0,-1,923,1177,0,0
-294,-153,0,0,0,0,0,0,0,0,0,-1,930,1177,0,0
-287,-153,0,0,0,0,0,0,0,0,0,-1,937,1177,0,0
-280,-153,0,0,0,0,0,0,0,0,0,-1,944,1177,0,0
-273,-153,0,0,0,0,0,0,0,0,0,-1,951,1177,0,0
-266,-153,0,0,0,0,0,0,0,0,0,-1,958,1177,0,0
-259,-153,0,0,0,0,0,0,0,0,0,-1,965,1177,0,0
-252,-153,0,0,0,0,0,0,0,0,0,-1,972,1177,0,0
-245,-153,0,0,0,0,0,0,0,0,0,-1,979,1177,0,0
-238,-153,0,0,0,0,0,0,0,0,0,-1,986,1177,0,0
-231,-153,0,0,0,0,0,0,0,0,0,-1,993,1177,0,0
-224,-153,0,0,0,0,0,0,0,0,0,-1,1000,1177,0,0
-217,-153,0,0,0,0,0,0,0,0,0,-1,1007,1177,0,0
-210,-153,0,0,0,0,0,0,0,0,0,-1,1014,1177,0,0
-203,-153,0,0,0,0,0,0,0,0,0,-1,1021,1177,0,0
-196,-153,0,0,0,0,0,0,0,0,0,-1,1028,1177,0,0
-189,-153,0,0,0,0,0,0,0,0,0,-1,1035,1177,0,0
-182,-153,0,0,0,0,0,0,0,0,0,-1,1042,1177,0,0
-175,-153,0,0,0,0,0,0,0,0,0,-1,1049,1177,0,0
-168,-153,0,0,0,0,0,0,0,0,0,-1,1056,1177,0,0
-161,-153,0,0,0,0,0,0,0,0,0,-1,1063,1177,0,0
-154,-153,0,0,0,0,0,0,0,0,0,-1,1070,1177,0,0
-147,-153,0,0,0,0,0,0,0,0,0,-1,1077,1177,0,0
-140,-153,0,0,0,0,0,0,0,0,0,-1,1084,1177,0,0
-133,-153,0,0,0,0,0,0,0,0,0,-1,1091,1177,0,0
-126,-153,0,0,0,0,0,0,0,0,0,-1,1098,1177,0,0
-119,-153,0,0,0,0,0,0,0,0,0,-1,1105,1177,0,0
-112,-153,0,0,0,0,0,0,0,0,0,-1,1112,1177,0,0
-105,-153,0,0,0,0,0,0,0,0,0,-1,1119,1177,0,0
-98,-153,0,0,0,0,0,0,0,0,0,-1,1126,1177,0,0
-91,-153,0,0,0,0,0,0,0,0,0,-1,1133,1177,0,0
-84,-153,0,0,0,0,0,0,0,0,0,-1,1140,1177,0,0
-77,-153,0,0,0,0,0,0,0,0,0,-1,1147,1177,0,0
-70,-153,0,0,0,0,0,0,0,0,0,-1,1154,1177,0,0
-63,-153,0,0,0,0,0,0,0,0,0,-1,1161,1177,0,0
-56,-153,0,0,0,0,0,0,0,0,0,-1,1168,1177,0,0
-49,-153,0,0,0,0,0,0,0,0,0,-1,1175,1177,0,0
-42,-153,0,0,0,0,0,0,0,0,0,-1,1182,1177,0,0
-35,-153,0,0,0,0,0,0,0,0,0,-1,1189,1177,0,0
-28,-153,0,0,0,0,0,0,0,0,0,-1,1196,1177,0,0
-21,-153,0,0,0,0,0,0,0,0,0,-1,1203,1177,0,0
-14,-153,0,0,0,0,0,0,0,0,0,-1,1210,1177,0,0
-7,-153,0,0,0,0,0,0,0,0,0,-1,1217,1177,0,0
0,-153,0,0,0,0,0,0,0,0,0,-1,1224,1177,0,0
7,-153,0,0,0,0,0,0,0,0,0,-1,1231,1177,0,0
14,-153,0,0,0,0,0,0,0,0,0,-1,1238,1177,0,0
21,-153,0,0,0,0,0,0,0,0,0,-1,1245,1177,0,0
28,-153,0,0,0,0,0,0,0,0,0,-1,1252,1177,0,0
35,-153,0,0,0,0,0,0,0,0,0,-1,1259,1177,0,0
42,-153,0,0,0,0,0,0,0,0,0,-1,1266,1177,0,0
49,-153,0,0,0,0,0,0,0,0,0,-1,1273,1177,0,0
56,-153,0,0,0,0,0,0,0,0,0,-1,1280,1177,0,0
63,-153,0,0,0,0,0,0,0,0,0,-1,1287,1177,0,0
70,-153,0,0,0,0,0,0,0,0,0,-1,1294,1177,0,0
77,-153,0,0,0,0,0,0,0,0,0,-1,1301,1177,0,0
84,-153,0,0,0,0,0,0,0,0,0,-1,1308,1177,0,0
91,-153,0,0,0,0,0,0,0,0,0,-1,1315,1177,0,0
98,-153,0,0,0,0,0,0,0,0,0,-1,1322,1177,0,0
105,-153,0,0,0,0,0,0,0,0,0,-1,1329,1177,0,0
112,-153,0,0,0,0,0,0,0,0,0,-1,1336,1177,0,0
119,-153,0,0,0,0,0,0,0,0,0,-1,1343,1177,0,0
126,-153,0,0,0,0,0,0,0,0,0,-1,1350,1177,0,0
133,-153,0,0,0,0,0,0,0,0,0,-1,1357,1177,0,0
140,-153,0,0,0,0,0,0,0,0,0,-1,1364,1177,0,0
147,-153,0,0,0,0,0,0,0,0,0,-1,1371,1177,0,0
154,-153,0,0,0,0,0,0,0,0,0,-1,1378,1177,0,0
161,-153,0,0,0,0,0,0,0,0,0,-1,1385,1177,0,0
168,-153,0,0,0,0,0,0,0,0,0,-1,1392,1177,0,0
175,-153,0,0,0,0,0,0,0,0,0,-1,1399,1177,0,0
182,-153,0,0,0,0,0,0,0,0,0,-1,1406,1177,0,0
189,-153,0,0,0,0,0,0,0,0,0,-1,1413,1177,0,0
196,-153,0,0,0,0,0,0,0,0,0,-1,1420,1177,0,0
203,-153,0,0,0,0,0,0,0,0,0,-1,1427,1177,0,0
210,-153,0,0,0,0,0,0,0,0,0,-1,1434,1177,0,0
217,-153,0,0,0,0,0,0,0,0,0,-1,1441,1177,0,0
224,-153,0,0,0,0,0,0,0,0,0,-1,1448,1177,0,0
231,-153,0,0,0,0,0,0,0,0,0,-1,1455,1177,0,0
238,-153,0,0,0,0,0,0,0,0,0,-1,1462,1177,0,0
245,-153,0,0,0,0,0,0,0,0,0,-1,1469,1177,0,0
252,-153,0,0,0,0,0,0,0,0,0,-1,1476,1177,0,0
259,-153,0,0,0,0,0,0,0,0,0,-1,1483,1177,0,0
266,-153,0,0,0,0,0,0,0,0,0,-1,1490,1177,0,0
273,-153,0,0,0,0,0,0,0,0,0,-1,1497,1177,0,0
280,-153,0,0,0,0,0,0,0,0,0,-1,1504,1177,0,0
287,-153,0,0,0,0,0,0,0,0,0,-1,1511,1177,0,0
294,-153,0,0,0,0,0,0,0,0,0,-1,1518,1177,0,0
301,-153,0,0,0,0,0,0,0,0,0,-1,1525,1177,0,0
308,-153,0,0,0,0,0,0,0,0,0,-1,1532,1177,0,0
315,-153,0,0,0,0,0,0,0,0,0,-1,1539,1177,0,0
322,-153,0,0,0,0,0,0,0,0,0,-1,1546,1177,0,0
329,-153,0,0,0,0,0,0,0,0,0,-1,1553,1177,0,0
336,-153,0,0,0,0,0,0,0,0,0,-1,1560,1177,0,0
343,-153,0,0,0,0,0,0,0,0,0,-1,1567,1177,0,0
350,-153,0,0,0,0,0,0,0,0,0,-1,1574,1177,0,0
357,-153,0,0,0,0,0,0,0,0,0,-1,1581,1177,0,0
364,-153,0,0,0,0,0,0,0,0,0,-1,1588,1177,0,0
371,-153,0,0,0,0,0,0,0,0,0,-1,1595,1177,0,0
378,-153,0,0,0,0,0,0,0,0,0,-1,1602,1177,0,0
385,-153,0,0,0,0,0,0,0,0,0,-1,1609,1177,0,0
392,-153,0,0,0,0,0,0,0,0,0,-1,1616,1177,0,0
399,-153,0,0,0,0,0,0,0,0,0,-1,1623,1177,0,0
406,-153,0,0,0,0,0,0,0,0,0,-1,1630,1177,0,0
413,-153,0,0,0,0,0,0,0,0,0,-1,1637,1177,0,0
420,-153,0,0,0,0,0,0,0,0,0,-1,1644,1177,0,0
427,-153,0,0,0,0,0,0,0,0,0,-1,1651,1177,0,0
434,-153,0,0,0,0,0,0,0,0,0,-1,1658,1177,0,0
441,-153,0,0,0,0,0,0,0,0,0,-1,1665,1177,0,0
448,-153,0,0,0,0,0,0,0,0,0,-1,1672,1177,0,0
455,-153,0,0,0,0,0,0,0,0,0,-1,1679,1177,0,0
462,-153,0,0,0,0,0,0,0,0,0,-1,1686,1177,0,0
469,-153,0,0,0,0,0,0,0,0,0,-1,1693,1177,0,0
476,-153,0,0,0,0,0,0,0,0,0,-1,1700,1177,0,0
483,-153,0,0,0,0,0,0,0,0,0,-1,1707,1177,0,0
490,-153,0,0,0,0,0,0,0,0,0,-1,1714,1177,0,0
497,-153,0,0,0,0,0,0,0,0,0,-1,1721,1177,0,0
504,-153,0,0,0,0,0,0,0,0,0,-1,1728,1177,0,0
511,-153,0,0,0,0,0,0,0,0,0,-1,1735,1177,0,0
518,-153,0,0,0,0,0,0,0,0,0,-1,1742,1177,0,0
525,-153,0,0,0,0,0,0,0,0,0,-1,1749,1177,0,0
532,-153,0,0,0,0,0,0,0,0,0,-1,1756,1177,0,0
539,-153,0,0,0,0,0,0,0,0,0,-1,1763,1177,0,0
546,-153,0,0,0,0,0,0,0,0,0,-1,1770,1177,0,0
553,-153,0,0,0,0,0,0,0,0,0,-1,1777,1177,0,0
560,-153,0,0,0,0,0,0,0,0,0,-1,1784,1177,0,0
567,-153,0,0,0,0,0,0,0,0,0,-1,1791,1177,0,0
574,-153,0,0,0,0,0,0,0,0,0,-1,1798,1177,0,0
581,-153,0,0,0,0,0,0,0,0,0,-1,1805,1177,0,0
588,-153,0,0,0,0,0,0,0,0,0,-1,1812,1177,0,0
595,-153,0,0,0,0,0,0,0,0,0,-1,1819,1177,0,0
602,-153,0,0,0,0,0,0,0,0,0,-1,1826,1177,0,0
609,-153,0,0,0,0,0,0,0,0,0,-1,1833,1177,0,0
616,-153,0,0,0,0,0,0,0,0,0,-1,1840,1177,0,0
623,-153,0,0,0,0,0,0,0,0,0,-1,1847,1177,0,0
630,-153,0,0,0,0,0,0,0,0,0,-1,1854,1177,0,0
637,-153,9.50574,1.08362,0.0016366,0.00110731,0.00232328,0.00371026,-0.000966348,0.728688,0.00285075,0.0374978,1861,1177,9.5057,-1.08365
644,-153,9.5752,1.20215,0.0010487,0.000856918,0.00199953,0.00295464,-0.00104902,0.761438,0.00239721,0.0381489,1868,1177,9.57523,-1.20219
651,-153,9.61438,1.35486,0.000828169,0.000591423,0.00156451,0.00227877,-0.000859182,0.747639,0.00187248,0.0327569,1875,1177,9.61435,-1.35489
658,-153,9.62646,1.52246,0.000524308,0.000370048,0.00124636,0.00169592,-0.000801566,0.754495,0.00147242,0.0358037,1882,1177,9.62649,-1.5225
665,-153,9.73743,1.64893,-0.00016829,6.89897e-05,0.0011117,0.00106836,-0.00116766,0.838557,0.0012914,0.0387095,1889,1177,9.73745,-1.64889
672,-153,9.70923,1.47424,-0.000884286,-0.000207476,0.00104649,0.000553967,-0.00164573,0.941777,0.00132111,0.0384519,1896,1177,9.70926,-1.47419
679,-153,9.59399,1.30957,-0.00152546,-0.000453244,0.00103478,0.000176058,-0.00215477,1.02441,0.00149865,0.0301125,1903,1177,9.59396,-1.3096
686,-153,9.56982,1.32104,-0.00206345,-0.000688389,0.00103974,-0.000129421,-0.00262242,1.07752,0.00170678,0.019541,1910,1177,9.56988,-1.32103
693,-153,9.63684,1.34546,-0.00248293,-0.000750894,0.00102479,-0.000275204,-0.00295862,1.13621,0.00188738,0.0314474,1917,1177,9.63684,-1.34549
700,-153,9.74829,1.37109,0,0,0,0,0,0,0,-1,1924,1177,9.7483,-1.37111
707,-153,9.32532,1.81055,-0.00283502,-0.000954227,0.00099415,-0.000526164,-0.00326308,1.16421,0.00202294,0.0341839,1931,1177,9.32536,-1.81053
714,-153,9.08789,1.78345,-0.0031799,-0.000935905,0.000988472,-0.000562592,-0.00355321,1.20969,0.00220533,0.0184923,1938,1177,9.08795,-1.78351
721,-153,9.10156,1.76221,-0.00314324,-0.000866569,0.00100065,-0.000489285,-0.00352053,1.21024,0.00220212,0.0158066,1945,1177,9.10161,-1.76218
728,-153,9.08252,1.75854,-0.00267664,-0.000779785,0.000992403,-0.000355486,-0.00310094,1.16677,0.00195958,0.0208447,1952,1177,9.08248,-1.75853
735,-153,9.02856,1.72961,-0.00206579,-0.000594309,0.000868882,-0.000191511,-0.00246858,1.1367,0.00158575,0.0167723,1959,1177,9.02857,-1.72957
742,-153,9.05591,1.67969,-0.00112116,-0.00031997,0.000673873,6.33872e-05,-0.00150452,1.05357,0.0010248,0.0137297,1966,1177,9.05587,-1.67973
749,-153,9.06128,1.63391,0.00186603,-0.000526936,0.000644844,0.00202873,-0.000689643,0.24716,0.0016317,0.0144417,1973,1177,9.0613,-1.63389
756,-153,9.05737,1.58508,0.00548785,-0.00118598,0.000530057,0.00552968,-0.00122782,0.0787651,0.00415662,0.0106784,1980,1177,9.05742,-1.58504
763,-153,9.04407,1.54419,0.0100539,-0.00240233,0.000392025,0.0100662,-0.00241466,0.0314308,0.00764389,0.0109612,1987,1177,9.04412,-1.54419
770,-153,9.03833,1.5094,0.0160731,-0.00414501,0.000492878,0.0160851,-0.00415702,0.0243588,0.0123446,0.0104092,1994,1177,9.03827,-1.50945
777,-153,9.0426,1.46021,0.0244404,-0.006881,0.000698616,0.0244559,-0.00689657,0.02229,0.0190242,0.0204497,2001,1177,9.04264,-1.46023
784,-153,9.27161,0.800781,0,0,0,0,0,0,0,-1,2008,1177,9.2716,-0.800744
791,-153,9.89734,1.37354,0,0,0,0,0,0,0,-1,2015,1177,9.89736,-1.37351
798,-153,10.5343,1.51709,0.0707631,-0.0243385,0.00196096,0.0708035,-0.024379,0.0206079,0.0570909,0.0423013,2022,1177,10.5343,-1.51708
805,-153,12.6783,3.0968,0,0,0,0,0,0,0,-1,2029,1177,12.6784,-3.0968
812,-153,0,0,0,0,0,0,0,0,0,-1,2036,1177,0,0
-700,-160,0,0,0,0,0,0,0,0,0,-1,524,1184,0,0
-693,-160,0,0,0,0,0,0,0,0,0,-1,531,1184,0,0
-686,-160,-2.99451,-0.445313,0,0,0,0,0,0,0,-1,538,1184,-2.99454,0.445367
-679,-160,-3.20111,-0.369263,0.0156234,-0.00278737,0.0130476,0.022386,-0.00955001,0.478186,0.0189282,0.0472009,545,1184,-3.20109,0.369222
-672,-160,-3.43384,-0.28772,0,0,0,0,0,0,0,-1,552,1184,-3.43385,0.287718
-665,-160,-3.44482,0.00634766,0,0,0,0,0,0,0,-1,559,1184,-3.44485,-0.00640249
-658,-160,-3.2663,0.0861816,0,0,0,0,0,0,0,-1,566,1184,-3.26627,-0.0861476
-651,-160,-3.43127,0.797852,0.000714884,0.0050244,-0.000259743,0.00504,0.000699285,-1.51081,0.00315286,0.0499624,573,1184,-3.43129,-0.797852
-644,-160,-3.49548,0.768311,-0.00048463,0.0048328,-0.000968553,0.00500372,-0.000655555,-1.39612,0.00357443,0.0376346,580,1184,-3.4955,-0.768328
-637,-160,-3.57288,0.718262,-0.00112796,0.00424711,-0.00122538,0.00451328,-0.00139414,-1.3569,0.00356561,0.0142702,587,1184,-3.57285,-0.718269
-630,-160,-3.59595,0.728882,-0.00223868,0.00354138,-0.00182253,0.00406805,-0.00276536,-1.28948,0.0039691,0.00827477,594,1184,-3.59594,-0.72889
-623,-160,-3.61505,0.775879,-0.00267788,0.00275807,-0.00229737,0.00359893,-0.00351873,-1.21993,0.00410947,0.00987763,601,1184,-3.61506,-0.775922
-616,-160,-3.60895,0.832153,-0.0027998,0.00214923,-0.00172882,0.00269333,-0.0033439,-1.26589,0.00349233,0.00930685,608,1184,-3.60896,-0.832213
-609,-160,-3.61639,0.897095,-0.00327353,0.000695711,-0.00179809,0.00138912,-0.00396694,-1.20273,0.00320949,0.0122301,615,1184,-3.61641,-0.897121
-602,-160,-3.63983,0.960815,-0.00386875,-0.000246886,-0.00192638,0.000586119,-0.00470176,-1.16266,0.00334703,0.0171652,622,1184,-3.63985,-0.960807
-595,-160,-3.61353,1.00854,-0.00467712,-0.000584185,-0.00228948,0.000440137,-0.00570144,-1.1501,0.00395584,0.0171458,629,1184,-3.61353,-1.00858
-588,-160,-3.61804,1.06079,-0.00550416,-0.000805651,-0.00234958,0.000167669,-0.00647748,-1.17806,0.00437528,0.0156605,636,1184,-3.61803,-1.06079
-581,-160,-3.63635,1.09265,-0.00620022,-0.000904601,-0.00235545,-8.53813e-06,-0.00709628,-1.20728,0.00472801,0.0151442,643,1184,-3.63638,-1.09269
-574,-160,-3.7984,1.12708,-0.00652441,-0.000732505,-0.00239222,0.000127772,-0.00738468,-1.22558,0.00496626,0.0383375,650,1184,-3.7984,-1.12705
-567,-160,-4.09125,1.02869,-0.00654494,-0.000543029,-0.00233188,0.000256462,-0.00734443,-1.2405,0.00498397,0.0435817,657,1184,-4.09122,-1.02869
-560,-160,-4.09564,0.676147,-0.0065365,-0.000243881,-0.00205393,0.000367187,-0.00714757,-1.28162,0.00489203,0.0376378,664,1184,-4.09567,-0.676092
-553,-160,-4.10205,0.676025,-0.00595067,0.000129984,-0.00158756,0.000519518,-0.00634021,-1.33018,0.00441019,0.0357076,671,1184,-4.10206,-0.676037
-546,-160,-4.13885,0.567261,-0.00463546,0.000564458,-0.000941863,0.000729801,-0.0048008,-1.39702,0.00346948,0.0369352,678,1184,-4.13887,-0.567315
-539,-160,-4.13379,0.479126,-0.00237391,0.00104338,-0.000167578,0.00105158,-0.0023821,-1.52191,0.00203144,0.0405705,685,1184,-4.13377,-0.47915
-532,-160,-4.19244,0.666382,0.00115093,0.00154791,0.000642574,0.00202195,0.000676886,0.935198,0.00118843,0.0445458,692,1184,-4.19242,-0.66638
-525,-160,-4.2254,0.705566,0.00583561,0.00198269,0.00110931,0.00613217,0.00168613,0.261229,0.00365798,0.044283,699,1184,-4.2254,-0.705507
-518,-160,-3.95581,0.578735,0.0112008,0.0018609,0.0004859,0.011226,0.00183569,0.0518377,0.00695334,0.0425249,706,1184,-3.95583,-0.578724
-511,-160,0,0,0,0,0,0,0,0,0,-1,713,1184,0,0
-504,-160,0,0,0,0,0,0,0,0,0,-1,720,1184,0,0
-497,-160,0,0,0,0,0,0,0,0,0,-1,727,1184,0,0
-490,-160,0,0,0,0,0,0,0,0,0,-1,734,1184,0,0
-483,-160,0,0,0,0,0,0,0,0,0,-1,741,1184,0,0
-476,-160,0,0,0,0,0,0,0,0,0,-1,748,1184,0,0
-469,-160,0,0,0,0,0,0,0,0,0,-1,755,1184,0,0
-462,-160,0,0,0,0,0,0,0,0,0,-1,762,1184,0,0
-455,-160,0,0,0,0,0,0,0,0,0,-1,769,1184,0,0
-448,-160,0,0,0,0,0,0,0,0,0,-1,776,1184,0,0
-441,-160,0,0,0,0,0,0,0,0,0,-1,783,1184,0,0
-434,-160,0,0,0,0,0,0,0,0,0,-1,790,1184,0,0
-427,-160,0,0,0,0,0,0,0,0,0,-1,797,1184,0,0
-420,-160,0,0,0,0,0,0,0,0,0,-1,804,1184,0,0
-413,-160,0,0,0,0,0,0,0,0,0,-1,811,1184,0,0
-406,-160,0,0,0,0,0,0,0,0,0,-1,818,1184,0,0
-399,-160,0,0,0,0,0,0,0,0,0,-1,825,1184,0,0
-392,-160,0,0,0,0,0,0,0,0,0,-1,832,1184,0,0
-385,-160,0,0,0,0,0,0,0,0,0,-1,839,1184,0,0
-378,-160,0,0,0,0,0,0,0,0,0,-1,846,1184,0,0
-371,-160,0,0,0,0,0,0,0,0,0,-1,853,1184,0,0
-364,-160,0,0,0,0,0,0,0,0,0,-1,860,1184,0,0
-357,-160,0,0,0,0,0,0,0,0,0,-1,867,1184,0,0
-350,-160,0,0,0,0,0,0,0,0,0,-1,874,1184,0,0
-343,-160,0,0,0,0,0,0,0,0,0,-1,881,1184,0,0
-336,-160,0,0,0,0,0,0,0,0,0,-1,888,1184,0,0
-329,-160,0,0,0,0,0,0,0,0,0,-1,895,1184,0,0
-322,-160,0,0,0,0,0,0,0,0,0,-1,902,1184,0,0
-315,-160,0,0,0,0,0,0,0,0,0,-1,909,1184,0,0
-308,-160,0,0,0,0,0,0,0,0,0,-1,916,1184,0,0
-301,-160,0,0,0,0,0,0,0,0,0,-1,923,1184,0,0
-294,-160,0,0,0,0,0,0,0,0,0,-1,930,1184,0,0
-287,-160,0,0,0,0,0,0,0,0,0,-1,937,1184,0,0
-280,-160,0,0,0,0,0,0,0,0,0,-1,944,1184,0,0
-273,-160,0,0,0,0,0,0,0,0,0,-1,951,1184,0,0
-266,-160,0,0,0,0,0,0,0,0,0,-1,958,1184,0,0
-259,-160,0,0,0,0,0,0,0,0,0,-1,965,1184,0,0
-252,-160,0,0,0,0,0,0,0,0,0,-1,972,1184,0,0
-245,-160,0,0,0,0,0,0,0,0,0,-1,979,1184,0,0
-238,-160,0,0,0,0,0,0,0,0,0,-1,986,1184,0,0
-231,-160,0,0,0,0,0,0,0,0,0,-1,993,1184,0,0
-224,-160,0,0,0,0,0,0,0,0,0,-1,1000,1184,0,0
-217,-160,0,0,0,0,0,0,0,0,0,-1,1007,1184,0,0
-210,-160,0,0,0,0,0,0,0,0,0,-1,1014,1184,0,0
-203,-160,0,0,0,0,0,0,0,0,0,-1,1021,1184,0,0
-196,-160,0,0,0,0,0,0,0,0,0,-1,1028,1184,0,0
-189,-160,0,0,0,0,0,0,0,0,0,-1,1035,1184,0,0
-182,-160,0,0,0,0,0,0,0,0,0,-1,1042,1184,0,0
-175,-160,0,0,0,0,0,0,0,0,0,-1,1049,1184,0,0
-168,-160,0,0,0,0,0,0,0,0,0,-1,1056,1184,0,0
-161,-160,0,0,0,0,0,0,0,0,0,-1,1063,1184,0,0
-154,-160,0,0,0,0,0,0,0,0,0,-1,1070,1184,0,0
-147,-160,0,0,0,0,0,0,0,0,0,-1,1077,1184,0,0
-140,-160,0,0,0,0,0,0,0,0,0,-1,1084,1184,0,0
-133,-160,0,0,0,0,0,0,0,0,0,-1,1091,1184,0,0
-126,-160,0,0,0,0,0,0,0,0,0,-1,1098,1184,0,0
-119,-160,0,0,0,0,0,0,0,0,0,-1,1105,1184,0,0
-112,-160,0,0,0,0,0,0,0,0,0,-1,1112,1184,0,0
-105,-160,0,0,0,0,0,0,0,0,0,-1,1119,1184,0,0
-98,-160,0,0,0,0,0,0,0,0,0,-1,1126,1184,0,0
-91,-160,0,0,0,0,0,0,0,0,0,-1,1133,1184,0,0
-84,-160,0,0,0,0,0,0,0,0,0,-1,1140,1184,0,0
-77,-160,0,0,0,0,0,0,0,0,0,-1,1147,1184,0,0
-70,-160,0,0,0,0,0,0,0,0,0,-1,1154,1184,0,0
-63,-160,0,0,0,0,0,0,0,0,0,-1,1161,1184,0,0
-56,-160,0,0,0,0,0,0,0,0,0,-1,1168,1184,0,0
-49,-160,0,0,0,0,0,0,0,0,0,-1,1175,1184,0,0
-42,-160,0,0,0,0,0,0,0,0,0,-1,1182,1184,0,0
-35,-160,0,0,0,0,0,0,0,0,0,-1,1189,1184,0,0
-28,-160,0,0,0,0,0,0,0,0,0,-1,1196,1184,0,0
-21,-160,0,0,0,0,0,0,0,0,0,-1,1203,1184,0,0
-14,-160,0,0,0,0,0,0,0,0,0,-1,1210,1184,0,0
-7,-160,0,0,0,0,0,0,0,0,0,-1,1217,1184,0,0
0,-160,0,0,0,0,0,0,0,0,0,-1,1224,1184,0,0
7,-160,0,0,0,0,0,0,0,0,0,-1,1231,1184,0,0
14,-160,0,0,0,0,0,0,0,0,0,-1,1238,1184,0,0
21,-160,0,0,0,0,0,0,0,0,0,-1,1245,1184,0,0
28,-160,0,0,0,0,0,0,0,0,0,-1,1252,1184,0,0
35,-160,0,0,0,0,0,0,0,0,0,-1,1259,1184,0,0
42,-160,0,0,0,0,0,0,0,0,0,-1,1266,1184,0,0
49,-160,0,0,0,0,0,0,0,0,0,-1,1273,1184,0,0
56,-160,0,0,0,0,0,0,0,0,0,-1,1280,1184,0,0
63,-160,0,0,0,0,0,0,0,0,0,-1,1287,1184,0,0
70,-160,0,0,0,0,0,0,0,0,0,-1,1294,1184,0,0
77,-160,0,0,0,0,0,0,0,0,0,-1,1301,1184,0,0
84,-160,0,0,0,0,0,0,0,0,0,-1,1308,1184,0,0
91,-160,0,0,0,0,0,0,0,0,0,-1,1315,1184,0,0
98,-160,0,0,0,0,0,0,0,0,0,-1,1322,1184,0,0
105,-160,0,0,0,0,0,0,0,0,0,-1,1329,1184,0,0
112,-160,0,0,0,0,0,0,0,0,0,-1,1336,1184,0,0
119,-160,0,0,0,0,0,0,0,0,0,-1,1343,1184,0,0
126,-160,0,0,0,0,0,0,0,0,0,-1,1350,1184,0,0
133,-160,0,0,0,0,0,0,0,0,0,-1,1357,1184,0,0
140,-160,0,0,0,0,0,0,0,0,0,-1,1364,1184,0,0
147,-160,0,0,0,0,0,0,0,0,0,-1,1371,1184,0,0
154,-160,0,0,0,0,0,0,0,0,0,-1,1378,1184,0,0
161,-160,0,0,0,0,0,0,0,0,0,-1,1385,1184,0,0
168,-160,0,0,0,0,0,0,0,0,0,-1,1392,1184,0,0
175,-160,0,0,0,0,0,0,0,0,0,-1,1399,1184,0,0
182,-160,0,0,0,0,0,0,0,0,0,-1,1406,1184,0,0
189,-160,0,0,0,0,0,0,0,0,0,-1,1413,1184,0,0
196,-160,0,0,0,0,0,0,0,0,0,-1,1420,1184,0,0
203,-160,0,0,0,0,0,0,0,0,0,-1,1427,1184,0,0
210,-160,0,0,0,0,0,0,0,0,0,-1,1434,1184,0,0
217,-160,0,0,0,0,0,0,0,0,0,-1,1441,1184,0,0
224,-160,0,0,0,0,0,0,0,0,0,-1,1448,1184,0,0
231,-160,0,0,0,0,0,0,0,0,0,-1,1455,1184,0,0
238,-160,0,0,0,0,0,0,0,0,0,-1,1462,1184,0,0
245,-160,0,0,0,0,0,0,0,0,0,-1,1469,1184,0,0
252,-160,0,0,0,0,0,0,0,0,0,-1,1476,1184,0,0
259,-160,0,0,0,0,0,0,0,0,0,-1,1483,1184,0,0
266,-160,0,0,0,0,0,0,0,0,0,-1,1490,1184,0,0
273,-160,0,0,0,0,0,0,0,0,0,-1,1497,1184,0,0
280,-160,0,0,0,0,0,0,0,0,0,-1,1504,1184,0,0
287,-160,0,0,0,0,0,0,0,0,0,-1,1511,1184,0,0
294,-160,0,0,0,0,0,0,0,0,0,-1,1518,1184,0,0
301,-160,0,0,0,0,0,0,0,0,0,-1,1525,1184,0,0
308,-160,0,0,0,0,0,0,0,0,0,-1,1532,1184,0,0
315,-160,0,0,0,0,0,0,0,0,0,-1,1539,1184,0,0
322,-160,0,0,0,0,0,0,0,0,0,-1,1546,1184,0,0
329,-160,0,0,0,0,0,0,0,0,0,-1,1553,1184,0,0
336,-160,0,0,0,0,0,0,0,0,0,-1,1560,1184,0,0
343,-160,0,0,0,0,0,0,0,0,0,-1,1567,1184,0,0
350,-160,0,0,0,0,0,0,0,0,0,-1,1574,1184,0,0
357,-160,0,0,0,0,0,0,0,0,0,-1,1581,1184,0,0
364,-160,0,0,0,0,0,0,0,0,0,-1,1588,1184,0,0
371,-160,0,0,0,0,0,0,0,0,0,-1,1595,1184,0,0
378,-160,0,0,0,0,0,0,0,0,0,-1,1602,1184,0,0
385,-160,0,0,0,0,0,0,0,0,0,-1,1609,1184,0,0
392,-160,0,0,0,0,0,0,0,0,0,-1,1616,1184,0,0
399,-160,0,0,0,0,0,0,0,0,0,-1,1623,1184,0,0
406,-160,0,0,0,0,0,0,0,0,0,-1,1630,1184,0,0
413,-160,0,0,0,0,0,0,0,0,0,-1,1637,1184,0,0
420,-160,0,0,0,0,0,0,0,0,0,-1,1644,1184,0,0
427,-160,0,0,0,0,0,0,0,0,0,-1,1651,1184,0,0
434,-160,0,0,0,0,0,0,0,0,0,-1,1658,1184,0,0
441,-160,0,0,0,0,0,0,0,0,0,-1,1665,1184,0,0
448,-160,0,0,0,0,0,0,0,0,0,-1,1672,1184,0,0
455,-160,0,0,0,0,0,0,0,0,0,-1,1679,1184,0,0
462,-160,0,0,0,0,0,0,0,0,0,-1,1686,1184,0,0
469,-160,0,0,0,0,0,0,0,0,0,-1,1693,1184,0,0
476,-160,0,0,0,0,0,0,0,0,0,-1,1700,1184,0,0
483,-160,0,0,0,0,0,0,0,0,0,-1,1707,1184,0,0
490,-160,0,0,0,0,0,0,0,0,0,-1,1714,1184,0,0
497,-160,0,0,0,0,0,0,0,0,0,-1,1721,1184,0,0
504,-160,0,0,0,0,0,0,0,0,0,-1,1728,1184,0,0
511,-160,0,0,0,0,0,0,0,0,0,-1,1735,1184,0,0
518,-160,0,0,0,0,0,0,0,0,0,-1,1742,1184,0,0
525,-160,0,0,0,0,0,0,0,0,0,-1,1749,1184,0,0
532,-160,0,0,0,0,0,0,0,0,0,-1,1756,1184,0,0
539,-160,0,0,0,0,0,0,0,0,0,-1,1763,1184,0,0
546,-160,0,0,0,0,0,0,0,0,0,-1,1770,1184,0,0
553,-160,0,0,0,0,0,0,0,0,0,-1,1777,1184,0,0
560,-160,0,0,0,0,0,0,0,0,0,-1,1784,1184,0,0
567,-160,0,0,0,0,0,0,0,0,0,-1,1791,1184,0,0
574,-160,0,0,0,0,0,0,0,0,0,-1,1798,1184,0,0
581,-160,0,0,0,0,0,0,0,0,0,-1,1805,1184,0,0
588,-160,0,0,0,0,0,0,0,0,0,-1,1812,1184,0,0
595,-160,0,0,0,0,0,0,0,0,0,-1,1819,1184,0,0
602,-160,0,0,0,0,0,0,0,0,0,-1,1826,1184,0,0
609,-160,0,0,0,0,0,0,0,0,0,-1,1833,1184,0,0
616,-160,0,0,0,0,0,0,0,0,0,-1,1840,1184,0,0
623,-160,0,0,0,0,0,0,0,0,0,-1,1847,1184,0,0
630,-160,0,0,0,0,0,0,0,0,0,-1,1854,1184,0,0
637,-160,9.59875,1.15552,0.00167198,0.00172226,0.00275983,0.00445706,-0.00106282,0.789953,0.00338179,0.0394071,1861,1184,9.59879,-1.15546
644,-160,9.6936,1.20691,0.00112292,0.001317,0.00230246,0.00352447,-0.00108454,0.806459,0.00278253,0.0417362,1868,1184,9.69356,-1.20696
651,-160,9.59387,1.42908,0.000626216,0.000821458,0.00175327,0.00247983,-0.00103215,0.813209,0.00208427,0.0413852,1875,1184,9.59388,-1.42911
658,-160,9.57397,1.48242,2.09917e-05,0.000417751,0.00134494,0.00157886,-0.00114012,0.858621,0.0015766,0.039609,1882,1184,9.57395,-1.48246
665,-160,9.66028,1.49109,-0.000812739,1.94475e-05,0.0011027,0.000781945,-0.00157524,0.965809,0.00138637,0.0368508,1889,1184,9.66031,-1.49114
672,-160,9.66907,1.44861,-0.00157402,-0.000307178,0.000943891,0.000196129,-0.00207733,1.08092,0.00145468,0.0342442,1896,1184,9.6691,-1.44862
679,-160,9.58435,1.34875,-0.00221127,-0.000570389,0.000865675,-0.000198136,-0.00258352,1.16469,0.00166025,0.0273571,1903,1184,9.5844,-1.34875
686,-160,9.59558,1.3186,-0.00269295,-0.000810386,0.0008065,-0.000512129,-0.0029912,1.21658,0.00184724,0.0185456,1910,1184,9.59563,-1.31862
693,-160,9.58362,1.26782,0,0,0,0,0,0,0,-1,1917,1184,9.58356,-1.26782
700,-160,9.27856,1.86938,0,0,0,0,0,0,0,-1,1924,1184,9.27854,-1.86938
707,-160,9.29932,1.80908,0,0,0,0,0,0,0,-1,1931,1184,9.29928,-1.80905
714,-160,9.05481,1.84753,-0.00339244,-0.000949175,0.000678767,-0.00077327,-0.00356834,1.31722,0.00216761,0.0219597,1938,1184,9.05476,-1.84754
721,-160,9.03918,1.75391,-0.0032375,-0.000872442,0.000720012,-0.000670488,-0.00343945,1.29734,0.00210537,0.0112409,1945,1184,9.03916,-1.75394
728,-160,9.0249,1.74377,-0.0026448,-0.000763404,0.000755523,-0.000497567,-0.00291064,1.23247,0.00179767,0.0110695,1952,1184,9.02485,-1.74382
735,-160,9.00049,1.68896,-0.00196339,-0.000527138,0.000701025,-0.0002417,-0.00224883,1.18412,0.0014255,0.0137186,1959,1184,9.00044,-1.68893
742,-160,9.0199,1.64893,-0.000889467,-0.000184292,0.000596712,0.000156217,-0.00122998,1.05224,0.000876708,0.0149847,1966,1184,9.01986,-1.64897
749,-160,9.02466,1.60254,0.00204846,-0.000362719,0.000654832,0.00221482,-0.000529081,0.248789,0.0016809,0.0167557,1973,1184,9.0247,-1.60253
756,-160,9.01111,1.56799,0.00552123,-0.000929511,0.000660009,0.00558807,-0.000996348,0.100922,0.00409807,0.0113011,1980,1184,9.01112,-1.56794
763,-160,8.99402,1.52917,0.0100231,-0.00196973,0.000693505,0.010063,-0.0020097,0.0575711,0.00746926,0.0117296,1987,1184,8.99401,-1.52922
770,-160,8.97961,1.47217,0.0160244,-0.00350095,0.0009441,0.0160699,-0.00354649,0.0482027,0.0120704,0.0176236,1994,1184,8.97962,-1.47215
777,-160,9.00073,1.38257,0.0244722,-0.00594123,0.00130907,0.0245285,-0.00599748,0.0429365,0.0186753,0.0313025,2001,1184,9.00077,-1.38262
784,-160,9.14978,1.36292,0,0,0,0,0,0,0,-1,2008,1184,9.14975,-1.36294
791,-160,9.97205,1.68005,0,0,0,0,0,0,0,-1,2015,1184,9.97207,-1.68001
798,-160,11.2679,2.15271,0,0,0,0,0,0,0,-1,2022,1184,11.2679,-2.15277
805,-160,13.4158,3.51257,0,0,0,0,0,0,0,-1,2029,1184,13.4158,-3.51255
812,-160,0,0,0,0,0,0,0,0,0,-1,2036,1184,0,0
-700,-167,0,0,0,0,0,0,0,0,0,-1,524,1191,0,0
-693,-167,0,0,0,0,0,0,0,0,0,-1,531,1191,0,0
-686,-167,-2.87592,0.427856,0.00351292,-0.0257186,0.0197942,0.0135026,-0.0357083,0.467384,0.0293603,0.0485587,538,1191,-2.8759,-0.427861
-679,-167,-3.37866,0.599487,-0.000611747,-0.0157926,0.0113731,0.0054712,-0.0218756,0.491142,0.0167087,0.0465187,545,1191,-3.37868,-0.599432
-672,-167,-3.95551,0.164795,0,0,0,0,0,0,0,-1,552,1191,-3.95551,-0.164823
-665,-167,-3.99005,0.612671,-0.00454001,-0.00385087,0.00239117,-0.00177958,-0.00661131,0.856956,0.0039503,0.0445682,559,1191,-3.99008,-0.612624
-658,-167,-3.73199,0.944702,0,0,0,0,0,0,0,-1,566,1191,-3.73202,-0.944664
-651,-167,-3.55798,0.895508,-0.00513963,0.0013681,-0.000924397,0.00149686,-0.00526839,-1.4324,0.00410325,0.0484559,573,1191,-3.55799,-0.895469
-644,-167,-3.51001,0.696411,-0.00475806,0.00235701,-0.0014357,0.00263578,-0.00503684,-1.37901,0.00450151,0.0380353,580,1191,-3.51,-0.696448
-637,-167,-3.53253,0.696411,-0.00415424,0.00264212,-0.001534,0.00297232,-0.00448443,-1.35878,0.00433456,0.0163215,587,1191,-3.53252,-0.696445
-630,-167,-3.54675,0.714478,-0.00428061,0.00265755,-0.00204976,0.00321787,-0.00484093,-1.30396,0.0046841,0.00866842,594,1191,-3.54677,-0.714496
-623,-167,-3.56226,0.758179,-0.00376854,0.0025333,-0.0023688,0.00332439,-0.00455964,-1.24848,0.00457043,0.00965993,601,1191,-3.56224,-0.758226
-616,-167,-3.57794,0.82959,-0.00319855,0.00212114,-0.00161141,0.00257119,-0.0036486,-1.29845,0.00360891,0.0131277,608,1191,-3.57793,-0.829589
-609,-167,-3.57996,0.886963,-0.00336137,0.000776001,-0.0017153,0.00139464,-0.00398001,-1.22466,0.0032205,0.0130857,615,1191,-3.57995,-0.886992
-602,-167,-3.58655,0.928711,-0.00381635,-2.39311e-05,-0.0018395,0.000721708,-0.00456199,-1.18569,0.00330824,0.0131012,622,1191,-3.58653,-0.928691
-595,-167,-3.57935,0.976929,-0.00454091,-0.000291679,-0.00218169,0.000628989,-0.00546158,-1.17147,0.0038678,0.0177047,629,1191,-3.57933,-0.976975
-588,-167,-3.56451,1.07214,-0.00533532,-0.000443973,-0.00221803,0.000412019,-0.00619131,-1.20248,0.00427151,0.016565,636,1191,-3.5645,-1.07217
-581,-167,-3.56744,1.10193,-0.00602319,-0.00043469,-0.00222109,0.000340522,-0.0067984,-1.23499,0.00464993,0.0151034,643,1191,-3.56747,-1.10191
-574,-167,-3.72003,1.12915,-0.00636019,-0.000160317,-0.00226839,0.000580993,-0.0071015,-1.25494,0.0049394,0.035314,650,1191,-3.72001,-1.1292
-567,-167,-3.90021,1.14124,0,0,0,0,0,0,0,-1,657,1191,-3.90019,-1.14123
-560,-167,-3.96185,0.49646,-0.00645968,0.000546749,-0.00195556,0.00105561,-0.00696854,-1.31623,0.00503459,0.0378208,664,1191,-3.96183,-0.49652
-553,-167,-3.97083,0.529785,-0.00598939,0.00097415,-0.00151283,0.00128861,-0.00630385,-1.36585,0.00469147,0.0360984,671,1191,-3.97084,-0.529801
-546,-167,-4.06732,0.594604,-0.00482884,0.00143699,-0.000921693,0.00156975,-0.00496161,-1.42773,0.00393673,0.034595,678,1191,-4.06732,-0.594614
-539,-167,-4.09839,0.682495,-0.00276739,0.00187132,-0.000236704,0.00188337,-0.00277944,-1.51994,0.00270859,0.0386047,685,1191,-4.09842,-0.682533
-532,-167,-4.13342,0.834229,0.000500398,0.00221482,0.000449359,0.00232545,0.000389758,1.32938,0.0014381,0.0430898,692,1191,-4.13344,-0.834277
-525,-167,-4.15247,0.672363,0.00495508,0.00233025,0.000836172,0.00519882,0.00208651,0.283636,0.00302096,0.043577,699,1191,-4.15246,-0.672306
-518,-167,-3.89777,0.473267,0.0102583,0.00172593,0.000231844,0.0102646,0.00171963,0.0271454,0.006348,0.0419162,706,1191,-3.89777,-0.473302
-511,-167,0,0,0,0,0,0,0,0,0,-1,713,1191,0,0
-504,-167,0,0,0,0,0,0,0,0,0,-1,720,1191,0,0
-497,-167,0,0,0,0,0,0,0,0,0,-1,727,1191,0,0
-490,-167,0,0,0,0,0,0,0,0,0,-1,734,1191,0,0
-483,-167,0,0,0,0,0,0,0,0,0,-1,741,1191,0,0
-476,-167,0,0,0,0,0,0,0,0,0,-1,748,1191,0,0
-469,-167,0,0,0,0,0,0,0,0,0,-1,755,1191,0,0
-462,-167,0,0,0,0,0,0,0,0,0,-1,762,1191,0,0
-455,-167,0,0,0,0,0,0,0,0,0,-1,769,1191,0,0
-448,-167,0,0,0,0,0,0,0,0,0,-1,776,1191,0,0
-441,-167,0,0,0,0,0,0,0,0,0,-1,783,1191,0,0
-434,-167,0,0,0,0,0,0,0,0,0,-1,790,1191,0,0
-427,-167,0,0,0,0,0,0,0,0,0,-1,797,1191,0,0
-420,-167,0,0,0,0,0,0,0,0,0,-1,804,1191,0,0
-413,-167,0,0,0,0,0,0,0,0,0,-1,811,1191,0,0
-406,-167,0,0,0,0,0,0,0,0,0,-1,818,1191,0,0
-399,-167,0,0,0,0,0,0,0,0,0,-1,825,1191,0,0
-392,-167,0,0,0,0,0,0,0,0,0,-1,832,1191,0,0
-385,-167,0,0,0,0,0,0,0,0,0,-1,839,1191,0,0
-378,-167,0,0,0,0,0,0,0,0,0,-1,846,1191,0,0
-371,-167,0,0,0,0,0,0,0,0,0,-1,853,1191,0,0
-364,-167,0,0,0,0,0,0,0,0,0,-1,860,1191,0,0
-357,-167,0,0,0,0,0,0,0,0,0,-1,867,1191,0,0
-350,-167,0,0,0,0,0,0,0,0,0,-1,874,1191,0,0
-343,-167,0,0,0,0,0,0,0,0,0,-1,881,1191,0,0
-336,-167,0,0,0,0,0,0,0,0,0,-1,888,1191,0,0
-329,-167,0,0,0,0,0,0,0,0,0,-1,895,1191,0,0
-322,-167,0,0,0,0,0,0,0,0,0,-1,902,1191,0,0
-315,-167,0,0,0,0,0,0,0,0,0,-1,909,1191,0,0
-308,-167,0,0,0,0,0,0,0,0,0,-1,916,1191,0,0
-301,-167,0,0,0,0,0,0,0,0,0,-1,923,1191,0,0
-294,-167,0,0,0,0,0,0,0,0,0,-1,930,1191,0,0
-287,-167,0,0,0,0,0,0,0,0,0,-1,937,1191,0,0
-280,-167,0,0,0,0,0,0,0,0,0,-1,944,1191,0,0
-273,-167,0,0,0,0,0,0,0,0,0,-1,951,1191,0,0
-266,-167,0,0,0,0,0,0,0,0,0,-1,958,1191,0,0
-259,-167,0,0,0,0,0,0,0,0,0,-1,965,1191,0,0
-252,-167,0,0,0,0,0,0,0,0,0,-1,972,1191,0,0
-245,-167,0,0,0,0,0,0,0,0,0,-1,979,1191,0,0
-238,-167,0,0,0,0,0,0,0,0,0,-1,986,1191,0,0
-231,-167,0,0,0,0,0,0,0,0,0,-1,993,1191,0,0
-224,-167,0,0,0,0,0,0,0,0,0,-1,1000,1191,0,0
-217,-167,0,0,0,0,0,0,0,0,0,-1,1007,1191,0,0
-210,-167,0,0,0,0,0,0,0,0,0,-1,1014,1191,0,0
-203,-167,0,0,0,0,0,0,0,0,0,-1,1021,1191,0,0
-196,-167,0,0,0,0,0,0,0,0,0,-1,1028,1191,0,0
-189,-167,0,0,0,0,0,0,0,0,0,-1,1035,1191,0,0
-182,-167,0,0,0,0,0,0,0,0,0,-1,1042,1191,0,0
-175,-167,0,0,0,0,0,0,0,0,0,-1,1049,1191,0,0
-168,-167,0,0,0,0,0,0,0,0,0,-1,1056,1191,0,0
-161,-167,0,0,0,0,0,0,0,0,0,-1,1063,1191,0,0
-154,-167,0,0,0,0,0,0,0,0,0,-1,1070,1191,0,0
-147,-167,0,0,0,0,0,0,0,0,0,-1,1077,1191,0,0
-140,-167,0,0,0,0,0,0,0,0,0,-1,1084,1191,0,0
-133,-167,0,0,0,0,0,0,0,0,0,-1,1091,1191,0,0
-126,-167,0,0,0,0,0,0,0,0,0,-1,1098,1191,0,0
-119,-167,0,0,0,0,0,0,0,0,0,-1,1105,1191,0,0
-112,-167,0,0,0,0,0,0,0,0,0,-1,1112,1191,0,0
-105,-167,0,0,0,0,0,0,0,0,0,-1,1119,1191,0,0
-98,-167,0,0,0,0,0,0,0,0,0,-1,1126,1191,0,0
-91,-167,0,0,0,0,0,0,0,0,0,-1,1133,1191,0,0
-84,-167,0,0,0,0,0,0,0,0,0,-1,1140,1191,0,0
-77,-167,0,0,0,0,0,0,0,0,0,-1,1147,1191,0,0
-70,-167,0,0,0,0,0,0,0,0,0,-1,1154,1191,0,0
-63,-167,0,0,0,0,0,0,0,0,0,-1,1161,1191,0,0
-56,-167,0,0,0,0,0,0,0,0,0,-1,1168,1191,0,0
-49,-167,0,0,0,0,0,0,0,0,0,-1,1175,1191,0,0
-42,-167,0,0,0,0,0,0,0,0,0,-1,1182,1191,0,0
-35,-167,0,0,0,0,0,0,0,0,0,-1,1189,1191,0,0
-28,-167,0,0,0,0,0,0,0,0,0,-1,1196,1191,0,0
-21,-167,0,0,0,0,0,0,0,0,0,-1,1203,1191,0,0
-14,-167,0,0,0,0,0,0,0,0,0,-1,1210,1191,0,0
-7,-167,0,0,0,0,0,0,0,0,0,-1,1217,1191,0,0
0,-167,0,0,0,0,0,0,0,0,0,-1,1224,1191,0,0
7,-167,0,0,0,0,0,0,0,0,0,-1,1231,1191,0,0
14,-167,0,0,0,0,0,0,0,0,0,-1,1238,1191,0,0
21,-167,0,0,0,0,0,0,0,0,0,-1,1245,1191,0,0
28,-167,0,0,0,0,0,0,0,0,0,-1,1252,1191,0,0
35,-167,0,0,0,0,0,0,0,0,0,-1,1259,1191,0,0
42,-167,0,0,0,0,0,0,0,0,0,-1,1266,1191,0,0
49,-167,0,0,0,0,0,0,0,0,0,-1,1273,1191,0,0
56,-167,0,0,0,0,0,0,0,0,0,-1,1280,1191,0,0
63,-167,0,0,0,0,0,0,0,0,0,-1,1287,1191,0,0
70,-167,0,0,0,0,0,0,0,0,0,-1,1294,1191,0,0
77,-167,0,0,0,0,0,0,0,0,0,-1,1301,1191,0,0
84,-167,0,0,0,0,0,0,0,0,0,-1,1308,1191,0,0
91,-167,0,0,0,0,0,0,0,0,0,-1,1315,1191,0,0
98,-167,0,0,0,0,0,0,0,0,0,-1,1322,1191,0,0
105,-167,0,0,0,0,0,0,0,0,0,-1,1329,1191,0,0
112,-167,0,0,0,0,0,0,0,0,0,-1,1336,1191,0,0
119,-167,0,0,0,0,0,0,0,0,0,-1,1343,1191,0,0
126,-167,0,0,0,0,0,0,0,0,0,-1,1350,1191,0,0
133,-167,0,0,0,0,0,0,0,0,0,-1,1357,1191,0,0
140,-167,0,0,0,0,0,0,0,0,0,-1,1364,1191,0,0
147,-167,0,0,0,0,0,0,0,0,0,-1,1371,1191,0,0
154,-167,0,0,0,0,0,0,0,0,0,-1,1378,1191,0,0
161,-167,0,0,0,0,0,0,0,0,0,-1,1385,1191,0,0
168,-167,0,0,0,0,0,0,0,0,0,-1,1392,1191,0,0
175,-167,0,0,0,0,0,0,0,0,0,-1,1399,1191,0,0
182,-167,0,0,0,0,0,0,0,0,0,-1,1406,1191,0,0
189,-167,0,0,0,0,0,0,0,0,0,-1,1413,1191,0,0
196,-167,0,0,0,0,0,0,0,0,0,-1,1420,1191,0,0
203,-167,0,0,0,0,0,0,0,0,0,-1,1427,1191,0,0
210,-167,0,0,0,0,0,0,0,0,0,-1,1434,1191,0,0
217,-167,0,0,0,0,0,0,0,0,0,-1,1441,1191,0,0
224,-167,0,0,0,0,0,0,0,0,0,-1,1448,1191,0,0
231,-167,0,0,0,0,0,0,0,0,0,-1,1455,1191,0,0
238,-167,0,0,0,0,0,0,0,0,0,-1,1462,1191,0,0
245,-167,0,0,0,0,0,0,0,0,0,-1,1469,1191,0,0
252,-167,0,0,0,0,0,0,0,0,0,-1,1476,1191,0,0
259,-167,0,0,0,0,0,0,0,0,0,-1,1483,1191,0,0
266,-167,0,0,0,0,0,0,0,0,0,-1,1490,1191,0,0
273,-167,0,0,0,0,0,0,0,0,0,-1,1497,1191,0,0
280,-167,0,0,0,0,0,0,0,0,0,-1,1504,1191,0,0
287,-167,0,0,0,0,0,0,0,0,0,-1,1511,1191,0,0
294,-167,0,0,0,0,0,0,0,0,0,-1,1518,1191,0,0
301,-167,0,0,0,0,0,0,0,0,0,-1,1525,1191,0,0
308,-167,0,0,0,0,0,0,0,0,0,-1,1532,1191,0,0
315,-167,0,0,0,0,0,0,0,0,0,-1,1539,1191,0,0
322,-167,0,0,0,0,0,0,0,0,0,-1,1546,1191,0,0
329,-167,0,0,0,0,0,0,0,0,0,-1,1553,1191,0,0
336,-167,0,0,0,0,0,0,0,0,0,-1,1560,1191,0,0
343,-167,0,0,0,0,0,0,0,0,0,-1,1567,1191,0,0
350,-167,0,0,0,0,0,0,0,0,0,-1,1574,1191,0,0
357,-167,0,0,0,0,0,0,0,0,0,-1,1581,1191,0,0
364,-167,0,0,0,0,0,0,0,0,0,-1,1588,1191,0,0
371,-167,0,0,0,0,0,0,0,0,0,-1,1595,1191,0,0
378,-167,0,0,0,0,0,0,0,0,0,-1,1602,1191,0,0
385,-167,0,0,0,0,0,0,0,0,0,-1,1609,1191,0,0
392,-167,0,0,0,0,0,0,0,0,0,-1,1616,1191,0,0
399,-167,0,0,0,0,0,0,0,0,0,-1,1623,1191,0,0
406,-167,0,0,0,0,0,0,0,0,0,-1,1630,1191,0,0
413,-167,0,0,0,0,0,0,0,0,0,-1,1637,1191,0,0
420,-167,0,0,0,0,0,0,0,0,0,-1,1644,1191,0,0
427,-167,0,0,0,0,0,0,0,0,0,-1,1651,1191,0,0
434,-167,0,0,0,0,0,0,0,0,0,-1,1658,1191,0,0
441,-167,0,0,0,0,0,0,0,0,0,-1,1665,1191,0,0
448,-167,0,0,0,0,0,0,0,0,0,-1,1672,1191,0,0
455,-167,0,0,0,0,0,0,0,0,0,-1,1679,1191,0,0
462,-167,0,0,0,0,0,0,0,0,0,-1,1686,1191,0,0
469,-167,0,0,0,0,0,0,0,0,0,-1,1693,1191,0,0
476,-167,0,0,0,0,0,0,0,0,0,-1,1700,1191,0,0
483,-167,0,0,0,0,0,0,0,0,0,-1,1707,1191,0,0
490,-167,0,0,0,0,0,0,0,0,0,-1,1714,1191,0,0
497,-167,0,0,0,0,0,0,0,0,0,-1,1721,1191,0,0
504,-167,0,0,0,0,0,0,0,0,0,-1,1728,1191,0,0
511,-167,0,0,0,0,0,0,0,0,0,-1,1735,1191,0,0
518,-167,0,0,0,0,0,0,0,0,0,-1,1742,1191,0,0
525,-167,0,0,0,0,0,0,0,0,0,-1,1749,1191,0,0
532,-167,0,0,0,0,0,0,0,0,0,-1,1756,1191,0,0
539,-167,0,0,0,0,0,0,0,0,0,-1,1763,1191,0,0
546,-167,0,0,0,0,0,0,0,0,0,-1,1770,1191,0,0
553,-167,0,0,0,0,0,0,0,0,0,-1,1777,1191,0,0
560,-167,0,0,0,0,0,0,0,0,0,-1,1784,1191,0,0
567,-167,0,0,0,0,0,0,0,0,0,-1,1791,1191,0,0
574,-167,0,0,0,0,0,0,0,0,0,-1,1798,1191,0,0
581,-167,0,0,0,0,0,0,0,0,0,-1,1805,1191,0,0
588,-167,0,0,0,0,0,0,0,0,0,-1,1812,1191,0,0
595,-167,0,0,0,0,0,0,0,0,0,-1,1819,1191,0,0
602,-167,0,0,0,0,0,0,0,0,0,-1,1826,1191,0,0
609,-167,0,0,0,0,0,0,0,0,0,-1,1833,1191,0,0
616,-167,0,0,0,0,0,0,0,0,0,-1,1840,1191,0,0
623,-167,0,0,0,0,0,0,0,0,0,-1,1847,1191,0,0
630,-167,0,0,0,0,0,0,0,0,0,-1,1854,1191,0,0
637,-167,9.70398,1.29553,0.00119788,0.00174946,0.00316803,0.00465368,-0.00170634,0.828816,0.00380111,0.0428759,1861,1191,9.70398,-1.29549
644,-167,9.72473,1.18103,0.000800288,0.00128546,0.00258382,0.00363806,-0.00155231,0.832204,0.00307626,0.0444579,1868,1191,9.72473,-1.18101
651,-167,9.43066,1.13293,0.000318508,0.000681156,0.00192075,0.00242912,-0.00142946,0.83246,0.00225254,0.0443079,1875,1191,9.43064,-1.13291
658,-167,9.55127,1.42249,-0.000296362,0.000207048,0.00141488,0.00139244,-0.00148175,0.873426,0.00165968,0.0414919,1882,1191,9.55132,-1.4225
665,-167,9.69043,1.37842,-0.00105274,-0.000204651,0.00107449,0.000526436,-0.00178383,0.973341,0.00139814,0.0360525,1889,1191,9.6904,-1.37844
672,-167,9.59937,1.3623,-0.00172531,-0.000521928,0.000840305,-9.01093e-05,-0.00215713,1.0961,0.00140901,0.0270129,1896,1191,9.59941,-1.36229
679,-167,9.57739,1.36414,-0.00228724,-0.000759752,0.000715757,-0.000476781,-0.00257021,1.19431,0.00157873,0.022231,1903,1191,9.57734,-1.36409
686,-167,9.58398,1.28223,-0.00269453,-0.000976188,0.00060781,-0.00078293,-0.00288779,1.26295,0.00172451,0.0329153,1910,1191,9.58402,-1.28225
693,-167,9.521,1.20703,0,0,0,0,0,0,0,-1,1917,1191,9.52099,-1.20703
700,-167,9.14929,1.70789,0,0,0,0,0,0,0,-1,1924,1191,9.1493,-1.70783
707,-167,8.94275,1.97253,-0.00295372,-0.00102956,0.000439295,-0.000934015,-0.00304927,1.35663,0.00180399,0.0298079,1931,1191,8.94271,-1.97256
714,-167,9.01367,1.85315,-0.00317828,-0.000949966,0.000428911,-0.00087026,-0.00325799,1.38706,0.00194782,0.0174081,1938,1191,9.01366,-1.85314
721,-167,8.99792,1.77747,-0.00300607,-0.000850838,0.000513984,-0.000734537,-0.00312237,1.34827,0.00188506,0.014687,1945,1191,8.99793,-1.77748
728,-167,8.95642,1.76147,-0.00237049,-0.00073014,0.000602178,-0.000532815,-0.00256781,1.25414,0.0015648,0.0120212,1952,1191,8.95645,-1.76147
735,-167,8.93408,1.70264,-0.00169749,-0.000472321,0.000615364,-0.000216612,-0.0019532,1.17696,0.00123627,0.0130305,1959,1191,8.93405,-1.70259
742,-167,8.94458,1.66138,-0.000641359,-8.97062e-05,0.000571993,0.000269492,-0.00100056,1.01006,0.000772696,0.0141377,1966,1191,8.94453,-1.66141
749,-167,8.96826,1.62183,0.00206494,-0.000244181,0.000687472,0.00225411,-0.000433357,0.268531,0.00166609,0.0137044,1973,1191,8.96821,-1.62179
756,-167,8.96423,1.56982,0.00517686,-0.000717584,0.000756165,0.00527232,-0.000813042,0.125576,0.00381488,0.0108416,1980,1191,8.96426,-1.56978
763,-167,8.93799,1.53088,0.00928534,-0.00155514,0.000866321,0.00935414,-0.00162394,0.0792451,0.00684195,0.0123881,1987,1191,8.93801,-1.53088
770,-167,8.90625,1.51086,0.014892,-0.00284681,0.00113626,0.0149645,-0.0029193,0.0637081,0.0110784,0.0223743,1994,1191,8.90619,-1.51082
777,-167,8.9917,1.48108,0.0228971,-0.00495921,0.00147978,0.0229755,-0.0050376,0.0529234,0.0172432,0.0408225,2001,1191,8.99168,-1.48104
784,-167,9.0686,1.48474,0,0,0,0,0,0,0,-1,2008,1191,9.06858,-1.48477
791,-167,11.5963,2.75781,0,0,0,0,0,0,0,-1,2015,1191,11.5963,-2.75777
798,-167,11.8564,2.9436,0,0,0,0,0,0,0,-1,2022,1191,11.8564,-2.94356
805,-167,12.8993,2.83447,0,0,0,0,0,0,0,-1,2029,1191,12.8994,-2.8345
812,-167,0,0,0,0,0,0,0,0,0,-1,2036,1191,0,0
-700,-174,0,0,0,0,0,0,0,0,0,-1,524,1198,0,0
-693,-174,0,0,0,0,0,0,0,0,0,-1,531,1198,0,0
-686,-174,-3.12555,0.773682,-0.0157738,-0.0398126,0.0180002,-0.00614893,-0.0494375,0.491027,0.0311119,0.0460802,538,1198,-3.12553,-0.77368
-679,-174,-3.47485,1.30859,-0.0164992,-0.0266672,0.00912393,-0.0111385,-0.032028,0.531215,0.0187749,0.0448117,545,1198,-3.47485,-1.30858
-672,-174,-4.80518,0.3573,-0.0160151,-0.0171253,0.00366408,-0.0128643,-0.0202761,0.71022,0.0118467,0.047619,552,1198,-4.80516,-0.357355
-665,-174,-4.53778,0.866943,-0.0147897,-0.0102159,0.00038059,-0.0101844,-0.0148211,1.48834,0.00875451,0.0429497,559,1198,-4.53779,-0.866976
-658,-174,-3.87781,0.96814,0,0,0,0,0,0,0,-1,566,1198,-3.87781,-0.96816
-651,-174,-3.6601,0.702271,-0.011184,-0.00206903,-0.00227155,-0.0015343,-0.0117187,-1.3396,0.0073546,0.0467375,573,1198,-3.66008,-0.702228
-644,-174,-3.4859,0.60791,-0.00919688,-4.78343e-05,-0.00245865,0.000571025,-0.00981574,-1.32421,0.00674223,0.0424513,580,1198,-3.48589,-0.607964
-637,-174,-3.4906,0.669067,-0.00729976,0.00102599,-0.00226975,0.00160456,-0.00787833,-1.32121,0.00586075,0.0222327,587,1198,-3.49063,-0.669102
-630,-174,-3.48016,0.729004,-0.0063892,0.00170567,-0.00258769,0.00246218,-0.00714571,-1.28637,0.00576262,0.0120979,594,1198,-3.48014,-0.729045
-623,-174,-3.50049,0.782227,-0.00488631,0.00218493,-0.00266846,0.0030789,-0.00578028,-1.24753,0.00519351,0.0128631,601,1198,-3.5005,-0.78222
-616,-174,-3.54303,0.842163,-0.00352629,0.00201688,-0.0016783,0.00248541,-0.00399483,-1.29855,0.00377505,0.0182484,608,1198,-3.54304,-0.842202
-609,-174,-3.55646,0.888428,-0.0032971,0.000833137,-0.00173537,0.00146547,-0.00392942,-1.22137,0.00322121,0.0203975,615,1198,-3.55649,-0.888381
-602,-174,-3.54889,0.917114,-0.0036234,0.000174198,-0.00184024,0.000919621,-0.00436882,-1.18593,0.00326258,0.0137154,622,1198,-3.54891,-0.917061
-595,-174,-3.50336,0.977173,-0.00427918,-4.56542e-05,-0.00218099,0.000876894,-0.00520173,-1.17063,0.00379405,0.0125054,629,1198,-3.50334,-0.977212
-588,-174,-3.49786,1.05725,-0.00505329,-0.000131888,-0.00225012,0.000741788,-0.00592696,-1.20043,0.00422036,0.0131374,636,1198,-3.49784,-1.05722
-581,-174,-3.51379,1.10083,-0.00576816,-5.1033e-05,-0.00227475,0.000743604,-0.00656279,-1.23472,0.00464296,0.0139651,643,1198,-3.51378,-1.10078
-574,-174,-3.6759,1.15271,-0.00617274,0.000296406,-0.00234811,0.00105884,-0.00693518,-1.25683,0.0050138,0.0307871,650,1198,-3.67589,-1.15271
-567,-174,-3.86475,1.19727,0,0,0,0,0,0,0,-1,657,1198,-3.86474,-1.19725
-560,-174,-3.7738,0.27478,-0.00647109,0.00113083,-0.00203324,0.00164048,-0.00698074,-1.3252,0.0052862,0.0403669,664,1198,-3.77378,-0.274768
-553,-174,-3.90619,0.459106,-0.00620608,0.00157065,-0.00155726,0.00187089,-0.00650633,-1.38033,0.00507741,0.0351504,671,1198,-3.9062,-0.459084
-546,-174,-4.05499,0.649414,-0.00530187,0.00203712,-0.000925741,0.00215209,-0.00541684,-1.44723,0.00450339,0.0286183,678,1198,-4.05498,-0.649407
-539,-174,-4.12122,0.812866,-0.0035614,0.00243353,-0.000176233,0.0024387,-0.00356658,-1.54143,0.00348748,0.034215,685,1198,-4.12122,-0.812821
-532,-174,-4.20148,1.13013,-0.000697364,0.00267749,0.000613632,0.0027856,-0.000805475,1.39641,0.00217584,0.0442977,692,1198,-4.20147,-1.13008
-525,-174,-4.30029,1.40735,0,0,0,0,0,0,0,-1,699,1198,-4.30028,-1.40739
-518,-174,-3.64014,0.34021,0,0,0,0,0,0,0,-1,706,1198,-3.64012,-0.340259
-511,-174,0,0,0,0,0,0,0,0,0,-1,713,1198,0,0
-504,-174,0,0,0,0,0,0,0,0,0,-1,720,1198,0,0
-497,-174,0,0,0,0,0,0,0,0,0,-1,727,1198,0,0
-490,-174,0,0,0,0,0,0,0,0,0,-1,734,1198,0,0
-483,-174,0,0,0,0,0,0,0,0,0,-1,741,1198,0,0
-476,-174,0,0,0,0,0,0,0,0,0,-1,748,1198,0,0
-469,-174,0,0,0,0,0,0,0,0,0,-1,755,1198,0,0
-462,-174,0,0,0,0,0,0,0,0,0,-1,762,1198,0,0
-455,-174,0,0,0,0,0,0,0,0,0,-1,769,1198,0,0
-448,-174,0,0,0,0,0,0,0,0,0,-1,776,1198,0,0
-441,-174,0,0,0,0,0,0,0,0,0,-1,783,1198,0,0
-434,-174,0,0,0,0,0,0,0,0,0,-1,790,1198,0,0
-427,-174,0,0,0,0,0,0,0,0,0,-1,797,1198,0,0
-420,-174,0,0,0,0,0,0,0,0,0,-1,804,1198,0,0
-413,-174,0,0,0,0,0,0,0,0,0,-1,811,1198,0,0
-406,-174,0,0,0,0,0,0,0,0,0,-1,818,1198,0,0
-399,-174,0,0,0,0,0,0,0,0,0,-1,825,1198,0,0
-392,-174,0,0,0,0,0,0,0,0,0,-1,832,1198,0,0
-385,-174,0,0,0,0,0,0,0,0,0,-1,839,1198,0,0
-378,-174,0,0,0,0,0,0,0,0,0,-1,846,1198,0,0
-371,-174,0,0,0,0,0,0,0,0,0,-1,853,1198,0,0
-364,-174,0,0,0,0,0,0,0,0,0,-1,860,1198,0,0
-357,-174,0,0,0,0,0,0,0,0,0,-1,867,1198,0,0
-350,-174,0,0,0,0,0,0,0,0,0,-1,874,1198,0,0
-343,-174,0,0,0,0,0,0,0,0,0,-1,881,1198,0,0
-336,-174,0,0,0,0,0,0,0,0,0,-1,888,1198,0,0
-329,-174,0,0,0,0,0,0,0,0,0,-1,895,1198,0,0
-322,-174,0,0,0,0,0,0,0,0,0,-1,902,1198,0,0
-315,-174,0,0,0,0,0,0,0,0,0,-1,909,1198,0,0
-308,-174,0,0,0,0,0,0,0,0,0,-1,916,1198,0,0
-301,-174,0,0,0,0,0,0,0,0,0,-1,923,1198,0,0
-294,-174,0,0,0,0,0,0,0,0,0,-1,930,1198,0,0
-287,-174,0,0,0,0,0,0,0,0,0,-1,937,1198,0,0
-280,-174,0,0,0,0,0,0,0,0,0,-1,944,1198,0,0
-273,-174,0,0,0,0,0,0,0,0,0,-1,951,1198,0,0
-266,-174,0,0,0,0,0,0,0,0,0,-1,958,1198,0,0
-259,-174,0,0,0,0,0,0,0,0,0,-1,965,1198,0,0
-252,-174,0,0,0,0,0,0,0,0,0,-1,972,1198,0,0
-245,-174,0,0,0,0,0,0,0,0,0,-1,979,1198,0,0
-238,-174,0,0,0,0,0,0,0,0,0,-1,986,1198,0,0
-231,-174,0,0,0,0,0,0,0,0,0,-1,993,1198,0,0
-224,-174,0,0,0,0,0,0,0,0,0,-1,1000,1198,0,0
-217,-174,0,0,0,0,0,0,0,0,0,-1,1007,1198,0,0
-210,-174,0,0,0,0,0,0,0,0,0,-1,1014,1198,0,0
-203,-174,0,0,0,0,0,0,0,0,0,-1,1021,1198,0,0
-196,-174,0,0,0,0,0,0,0,0,0,-1,1028,1198,0,0
-189,-174,0,0,0,0,0,0,0,0,0,-1,1035,1198,0,0
-182,-174,0,0,0,0,0,0,0,0,0,-1,1042,1198,0,0
-175,-174,0,0,0,0,0,0,0,0,0,-1,1049,1198,0,0
-168,-174,0,0,0,0,0,0,0,0,0,-1,1056,1198,0,0
-161,-174,0,0,0,0,0,0,0,0,0,-1,1063,1198,0,0
-154,-174,0,0,0,0,0,0,0,0,0,-1,1070,1198,0,0
-147,-174,0,0,0,0,0,0,0,0,0,-1,1077,1198,0,0
-140,-174,0,0,0,0,0,0,0,0,0,-1,1084,1198,0,0
-133,-174,0,0,0,0,0,0,0,0,0,-1,1091,1198,0,0
-126,-174,0,0,0,0,0,0,0,0,0,-1,1098,1198,0,0
-119,-174,0,0,0,0,0,0,0,0,0,-1,1105,1198,0,0
-112,-174,0,0,0,0,0,0,0,0,0,-1,1112,1198,0,0
-105,-174,0,0,0,0,0,0,0,0,0,-1,1119,1198,0,0
-98,-174,0,0,0,0,0,0,0,0,0,-1,1126,1198,0,0
-91,-174,0,0,0,0,0,0,0,0,0,-1,1133,1198,0,0
-84,-174,0,0,0,0,0,0,0,0,0,-1,1140,1198,0,0
-77,-174,0,0,0,0,0,0,0,0,0,-1,1147,1198,0,0
-70,-174,0,0,0,0,0,0,0,0,0,-1,1154,1198,0,0
-63,-174,0,0,0,0,0,0,0,0,0,-1,1161,1198,0,0
-56,-174,0,0,0,0,0,0,0,0,0,-1,1168,1198,0,0
-49,-174,0,0,0,0,0,0,0,0,0,-1,1175,1198,0,0
-42,-174,0,0,0,0,0,0,0,0,0,-1,1182,1198,0,0
-35,-174,0,0,0,0,0,0,0,0,0,-1,1189,1198,0,0
-28,-174,0,0,0,0,0,0,0,0,0,-1,1196,1198,0,0
-21,-174,0,0,0,0,0,0,0,0,0,-1,1203,1198,0,0
-14,-174,0,0,0,0,0,0,0,0,0,-1,1210,1198,0,0
-7,-174,0,0,0,0,0,0,0,0,0,-1,1217,1198,0,0
0,-174,0,0,0,0,0,0,0,0,0,-1,1224,1198,0,0
7,-174,0,0,0,0,0,0,0,0,0,-1,1231,1198,0,0
14,-174,0,0,0,0,0,0,0,0,0,-1,1238,1198,0,0
21,-174,0,0,0,0,0,0,0,0,0,-1,1245,1198,0,0
28,-174,0,0,0,0,0,0,0,0,0,-1,1252,1198,0,0
35,-174,0,0,0,0,0,0,0,0,0,-1,1259,1198,0,0
42,-174,0,0,0,0,0,0,0,0,0,-1,1266,1198,0,0
49,-174,0,0,0,0,0,0,0,0,0,-1,1273,1198,0,0
56,-174,0,0,0,0,0,0,0,0,0,-1,1280,1198,0,0
63,-174,0,0,0,0,0,0,0,0,0,-1,1287,1198,0,0
70,-174,0,0,0,0,0,0,0,0,0,-1,1294,1198,0,0
77,-174,0,0,0,0,0,0,0,0,0,-1,1301,1198,0,0
84,-174,0,0,0,0,0,0,0,0,0,-1,1308,1198,0,0
91,-174,0,0,0,0,0,0,0,0,0,-1,1315,1198,0,0
98,-174,0,0,0,0,0,0,0,0,0,-1,1322,1198,0,0
105,-174,0,0,0,0,0,0,0,0,0,-1,1329,1198,0,0
112,-174,0,0,0,0,0,0,0,0,0,-1,1336,1198,0,0
119,-174,0,0,0,0,0,0,0,0,0,-1,1343,1198,0,0
126,-174,0,0,0,0,0,0,0,0,0,-1,1350,1198,0,0
133,-174,0,0,0,0,0,0,0,0,0,-1,1357,1198,0,0
140,-174,0,0,0,0,0,0,0,0,0,-1,1364,1198,0,0
147,-174,0,0,0,0,0,0,0,0,0,-1,1371,1198,0,0
154,-174,0,0,0,0,0,0,0,0,0,-1,1378,1198,0,0
161,-174,0,0,0,0,0,0,0,0,0,-1,1385,1198,0,0
168,-174,0,0,0,0,0,0,0,0,0,-1,1392,1198,0,0
175,-174,0,0,0,0,0,0,0,0,0,-1,1399,1198,0,0
182,-174,0,0,0,0,0,0,0,0,0,-1,1406,1198,0,0
189,-174,0,0,0,0,0,0,0,0,0,-1,1413,1198,0,0
196,-174,0,0,0,0,0,0,0,0,0,-1,1420,1198,0,0
203,-174,0,0,0,0,0,0,0,0,0,-1,1427,1198,0,0
210,-174,0,0,0,0,0,0,0,0,0,-1,1434,1198,0,0
217,-174,0,0,0,0,0,0,0,0,0,-1,1441,1198,0,0
224,-174,0,0,0,0,0,0,0,0,0,-1,1448,1198,0,0
231,-174,0,0,0,0,0,0,0,0,0,-1,1455,1198,0,0
238,-174,0,0,0,0,0,0,0,0,0,-1,1462,1198,0,0
245,-174,0,0,0,0,0,0,0,0,0,-1,1469,1198,0,0
252,-174,0,0,0,0,0,0,0,0,0,-1,1476,1198,0,0
259,-174,0,0,0,0,0,0,0,0,0,-1,1483,1198,0,0
266,-174,0,0,0,0,0,0,0,0,0,-1,1490,1198,0,0
273,-174,0,0,0,0,0,0,0,0,0,-1,1497,1198,0,0
280,-174,0,0,0,0,0,0,0,0,0,-1,1504,1198,0,0
287,-174,0,0,0,0,0,0,0,0,0,-1,1511,1198,0,0
294,-174,0,0,0,0,0,0,0,0,0,-1,1518,1198,0,0
301,-174,0,0,0,0,0,0,0,0,0,-1,1525,1198,0,0
308,-174,0,0,0,0,0,0,0,0,0,-1,1532,1198,0,0
315,-174,0,0,0,0,0,0,0,0,0,-1,1539,1198,0,0
322,-174,0,0,0,0,0,0,0,0,0,-1,1546,1198,0,0
329,-174,0,0,0,0,0,0,0,0,0,-1,1553,1198,0,0
336,-174,0,0,0,0,0,0,0,0,0,-1,1560,1198,0,0
343,-174,0,0,0,0,0,0,0,0,0,-1,1567,1198,0,0
350,-174,0,0,0,0,0,0,0,0,0,-1,1574,1198,0,0
357,-174,0,0,0,0,0,0,0,0,0,-1,1581,1198,0,0
364,-174,0,0,0,0,0,0,0,0,0,-1,1588,1198,0,0
371,-174,0,0,0,0,0,0,0,0,0,-1,1595,1198,0,0
378,-174,0,0,0,0,0,0,0,0,0,-1,1602,1198,0,0
385,-174,0,0,0,0,0,0,0,0,0,-1,1609,1198,0,0
392,-174,0,0,0,0,0,0,0,0,0,-1,1616,1198,0,0
399,-174,0,0,0,0,0,0,0,0,0,-1,1623,1198,0,0
406,-174,0,0,0,0,0,0,0,0,0,-1,1630,1198,0,0
413,-174,0,0,0,0,0,0,0,0,0,-1,1637,1198,0,0
420,-174,0,0,0,0,0,0,0,0,0,-1,1644,1198,0,0
427,-174,0,0,0,0,0,0,0,0,0,-1,1651,1198,0,0
434,-174,0,0,0,0,0,0,0,0,0,-1,1658,1198,0,0
441,-174,0,0,0,0,0,0,0,0,0,-1,1665,1198,0,0
448,-174,0,0,0,0,0,0,0,0,0,-1,1672,1198,0,0
455,-174,0,0,0,0,0,0,0,0,0,-1,1679,1198,0,0
462,-174,0,0,0,0,0,0,0,0,0,-1,1686,1198,0,0
469,-174,0,0,0,0,0,0,0,0,0,-1,1693,1198,0,0
476,-174,0,0,0,0,0,0,0,0,0,-1,1700,1198,0,0
483,-174,0,0,0,0,0,0,0,0,0,-1,1707,1198,0,0
490,-174,0,0,0,0,0,0,0,0,0,-1,1714,1198,0,0
497,-174,0,0,0,0,0,0,0,0,0,-1,1721,1198,0,0
504,-174,0,0,0,0,0,0,0,0,0,-1,1728,1198,0,0
511,-174,0,0,0,0,0,0,0,0,0,-1,1735,1198,0,0
518,-174,0,0,0,0,0,0,0,0,0,-1,1742,1198,0,0
525,-174,0,0,0,0,0,0,0,0,0,-1,1749,1198,0,0
532,-174,0,0,0,0,0,0,0,0,0,-1,1756,1198,0,0
539,-174,0,0,0,0,0,0,0,0,0,-1,1763,1198,0,0
546,-174,0,0,0,0,0,0,0,0,0,-1,1770,1198,0,0
553,-174,0,0,0,0,0,0,0,0,0,-1,1777,1198,0,0
560,-174,0,0,0,0,0,0,0,0,0,-1,1784,1198,0,0
567,-174,0,0,0,0,0,0,0,0,0,-1,1791,1198,0,0
574,-174,0,0,0,0,0,0,0,0,0,-1,1798,1198,0,0
581,-174,0,0,0,0,0,0,0,0,0,-1,1805,1198,0,0
588,-174,0,0,0,0,0,0,0,0,0,-1,1812,1198,0,0
595,-174,0,0,0,0,0,0,0,0,0,-1,1819,1198,0,0
602,-174,0,0,0,0,0,0,0,0,0,-1,1826,1198,0,0
609,-174,0,0,0,0,0,0,0,0,0,-1,1833,1198,0,0
616,-174,0,0,0,0,0,0,0,0,0,-1,1840,1198,0,0
623,-174,0,0,0,0,0,0,0,0,0,-1,1847,1198,0,0
630,-174,0,0,0,0,0,0,0,0,0,-1,1854,1198,0,0
637,-174,9.66943,1.32678,0.000958959,0.00131898,0.00344535,0.00458902,-0.00231108,0.811498,0.00405549,0.0413086,1861,1198,9.66941,-1.32681
644,-174,9.69946,1.30652,0.000720255,0.00117466,0.00282975,0.00378631,-0.0018914,0.825458,0.00333833,0.0402345,1868,1198,9.6995,-1.30648
651,-174,9.44116,1.28662,0.000243389,0.000762829,0.0021516,0.00267033,-0.00166411,0.845463,0.00252486,0.0399745,1875,1198,9.4412,-1.28661
658,-174,9.45667,1.38513,-0.00039198,0.000369737,0.00161318,0.0016464,-0.00166865,0.901322,0.00191396,0.0387605,1882,1198,9.45669,-1.3851
665,-174,9.58984,1.38586,-0.00111141,-1.8286e-05,0.0012171,0.000769345,-0.00189904,0.996437,0.00158595,0.0334329,1889,1198,9.58987,-1.38581
672,-174,9.5592,1.34192,-0.00175134,-0.000355527,0.000927681,0.000107458,-0.00221432,1.10789,0.00151331,0.0245349,1896,1198,9.55924,-1.34187
679,-174,9.57898,1.328,-0.00228593,-0.000624991,0.000757155,-0.000331643,-0.00257927,1.20117,0.00162032,0.021412,1903,1198,9.57894,-1.32801
686,-174,9.56274,1.25635,0,0,0,0,0,0,0,-1,1910,1198,9.56269,-1.25637
693,-174,8.97314,1.91138,0,0,0,0,0,0,0,-1,1917,1198,8.97311,-1.91133
700,-174,9.19775,2.02515,0,0,0,0,0,0,0,-1,1924,1198,9.19777,-2.02519
707,-174,8.97217,1.92822,-0.00281744,-0.000961808,0.000336894,-0.000902538,-0.00287671,1.39665,0.00169885,0.0299244,1931,1198,8.97216,-1.92821
714,-174,8.97656,1.86365,-0.00302928,-0.0009208,0.000306145,-0.000877248,-0.00307284,1.42949,0.00182772,0.0175331,1938,1198,8.97658,-1.8637
721,-174,8.94385,1.81445,-0.0028629,-0.000869325,0.000399266,-0.000792335,-0.00293989,1.3803,0.00175643,0.0146416,1945,1198,8.94379,-1.81446
728,-174,8.90613,1.77979,-0.00217424,-0.000714027,0.000530689,-0.000541534,-0.00234673,1.25653,0.00141885,0.0114325,1952,1198,8.9061,-1.77974
735,-174,8.9104,1.72351,-0.00148192,-0.000400647,0.000601586,-0.000132461,-0.0017501,1.15144,0.00112518,0.0104657,1959,1198,8.91039,-1.72348
742,-174,8.91333,1.67358,-0.000425194,6.03429e-05,0.000622757,0.000485978,-0.000850829,0.971252,0.000781329,0.0185272,1966,1198,8.91337,-1.67361
749,-174,8.93384,1.62842,0.00199298,-3.66651e-05,0.000791473,0.00226513,-0.000308814,0.331186,0.00162285,0.0172766,1973,1198,8.93388,-1.62841
756,-174,8.91943,1.56738,0.00468175,-0.000348766,0.000933051,0.00484923,-0.000516251,0.177611,0.00341793,0.0106848,1980,1198,8.91938,-1.56736
763,-174,8.88818,1.52466,0.00831703,-0.000888058,0.00111777,0.00845082,-0.00102184,0.119123,0.00600355,0.0133814,1987,1198,8.88824,-1.52466
770,-174,8.88538,1.54199,0.0134465,-0.00181499,0.00144081,0.0135814,-0.00194983,0.0933097,0.00976926,0.0245191,1994,1198,8.88533,-1.54197
777,-174,8.96582,1.59412,0.0209691,-0.00342198,0.00182093,0.0211043,-0.00355717,0.0741079,0.0153929,0.0437179,2001,1198,8.96587,-1.59411
784,-174,9.04736,1.64832,0,0,0,0,0,0,0,-1,2008,1198,9.04737,-1.6483
791,-174,12.6326,3.21533,0,0,0,0,0,0,0,-1,2015,1198,12.6326,-3.21535
798,-174,12.516,3.70337,0,0,0,0,0,0,0,-1,2022,1198,12.516,-3.70336
805,-174,13.4645,3.84436,0,0,0,0,0,0,0,-1,2029,1198,13.4645,-3.84437
812,-174,0,0,0,0,0,0,0,0,0,-1,2036,1198,0,0
-700,-181,0,0,0,0,0,0,0,0,0,-1,524,1205,0,0
-693,-181,0,0,0,0,0,0,0,0,0,-1,531,1205,0,0
-686,-181,-4.4906,1.83789,-0.0353242,-0.0532841,0.0169291,-0.0251408,-0.0634675,0.541546,0.0369056,0.0479051,538,1205,-4.49057,-1.83793
-679,-181,-3.5791,1.93323,-0.0324537,-0.0364112,0.00734267,-0.0268278,-0.042037,0.653783,0.0245772,0.0459883,545,1205,-3.5791,-1.93323
-672,-181,-2.66467,2.00427,-0.0287788,-0.0241039,0.00171149,-0.0235443,-0.0293384,1.25479,0.0179422,0.0478802,552,1205,-2.6647,-2.00428
-665,-181,-4.88239,1.28186,-0.0247776,-0.0151421,-0.00146075,-0.0149255,-0.0249942,-1.4236,0.0145209,0.0472565,559,1205,-4.88241,-1.28187
-658,-181,-4.0083,0.503052,-0.0207447,-0.00875832,-0.00303728,-0.00803263,-0.0214704,-1.33627,0.0125262,0.0425584,566,1205,-4.0083,-0.503027
-651,-181,-3.75488,0.358765,-0.0168864,-0.00438731,-0.00358244,-0.00343333,-0.0178404,-1.31054,0.0109304,0.0473788,573,1205,-3.75488,-0.35874
-644,-181,-3.3653,0.643188,-0.0133366,-0.00158146,-0.00348832,-0.000624245,-0.0142938,-1.30298,0.00932808,0.0431269,580,1205,-3.36532,-0.643156
-637,-181,-3.41174,0.673706,-0.0102129,4.41342e-05,-0.00304991,0.000882493,-0.0110513,-1.30254,0.00767861,0.0237522,587,1205,-3.41175,-0.673647
-630,-181,-3.42047,0.729004,-0.00824728,0.00120415,-0.00314832,0.00215684,-0.00919997,-1.27695,0.00696449,0.0123761,594,1205,-3.4205,-0.729023
-623,-181,-3.44531,0.776245,-0.00580671,0.00213129,-0.003008,0.00314235,-0.00681777,-1.24654,0.00587954,0.0141254,601,1205,-3.44533,-0.776295
-616,-181,-3.45148,0.830566,-0.00380523,0.00204649,-0.00186941,0.00259271,-0.00435146,-1.28652,0.00405185,0.0139242,608,1205,-3.45145,-0.830597
-609,-181,-3.4422,0.895142,-0.00318302,0.000920347,-0.00187097,0.00164534,-0.00390801,-1.20112,0.00329374,0.013602,615,1205,-3.4422,-0.895084
-602,-181,-3.44305,0.947144,-0.00326477,0.000273843,-0.00195609,0.0011421,-0.00413303,-1.15305,0.00320462,0.0121716,622,1205,-3.44306,-0.947193
-595,-181,-3.44177,1.00537,-0.0037522,8.23728e-05,-0.00226689,0.00113406,-0.00480388,-1.13642,0.00363998,0.0116246,629,1205,-3.44178,-1.00542
-588,-181,-3.44574,1.0874,-0.00454862,2.6703e-05,-0.00234009,0.00101157,-0.00553348,-1.17243,0.00406832,0.0107718,636,1205,-3.44576,-1.0874
-581,-181,-3.44647,1.15454,-0.00531134,4.59464e-05,-0.00232806,0.000916247,-0.00618164,-1.21305,0.00445801,0.0114398,643,1205,-3.4465,-1.15452
-574,-181,-3.53333,1.1604,-0.0057885,0.000348076,-0.00239824,0.00117414,-0.00661456,-1.23908,0.00484871,0.0252073,650,1205,-3.53333,-1.16035
-567,-181,-3.41705,0.0806885,0,0,0,0,0,0,0,-1,657,1205,-3.41707,-0.080711
-560,-181,-3.64984,0.287964,-0.00638959,0.00105769,-0.00201202,0.00156651,-0.00689841,-1.3231,0.00520036,0.0454833,664,1205,-3.64984,-0.287988
-553,-181,-3.92108,0.507446,-0.00641942,0.00139816,-0.00146349,0.00166315,-0.00668441,-1.39167,0.00510183,0.0420681,671,1205,-3.92109,-0.507489
-546,-181,-4.05774,0.67041,-0.00589803,0.00177711,-0.00074755,0.00184925,-0.00597016,-1.4746,0.00471889,0.0330734,678,1205,-4.05771,-0.670375
-539,-181,-4.117,0.885254,-0.00462339,0.00209259,0.000109264,0.00209437,-0.00462517,1.55453,0.00397019,0.0367571,685,1205,-4.11701,-0.885306
-532,-181,-4.19055,1.12939,-0.00230027,0.00227706,0.00103402,0.0024998,-0.00252301,1.35862,0.00289993,0.0460633,692,1205,-4.19053,-1.12941
-525,-181,-4.11615,1.11047,0.00122907,0.00223631,0.00184364,0.00364388,-0.000178503,0.918729,0.00249089,0.0436132,699,1205,-4.11617,-1.11048
-518,-181,-3.86456,0.853882,0.00600639,0.00171719,0.00206179,0.00683673,0.000886845,0.382858,0.00429285,0.0369646,706,1205,-3.86458,-0.85393
-511,-181,0,0,0,0,0,0,0,0,0,-1,713,1205,0,0
-504,-181,0,0,0,0,0,0,0,0,0,-1,720,1205,0,0
-497,-181,0,0,0,0,0,0,0,0,0,-1,727,1205,0,0
-490,-181,0,0,0,0,0,0,0,0,0,-1,734,1205,0,0
-483,-181,0,0,0,0,0,0,0,0,0,-1,741,1205,0,0
-476,-181,0,0,0,0,0,0,0,0,0,-1,748,1205,0,0
-469,-181,0,0,0,0,0,0,0,0,0,-1,755,1205,0,0
-462,-181,0,0,0,0,0,0,0,0,0,-1,762,1205,0,0
-455,-181,0,0,0,0,0,0,0,0,0,-1,769,1205,0,0
-448,-181,0,0,0,0,0,0,0,0,0,-1,776,1205,0,0
-441,-181,0,0,0,0,0,0,0,0,0,-1,783,1205,0,0
-434,-181,0,0,0,0,0,0,0,0,0,-1,790,1205,0,0
-427,-181,0,0,0,0,0,0,0,0,0,-1,797,1205,0,0
-420,-181,0,0,0,0,0,0,0,0,0,-1,804,1205,0,0
-413,-181,0,0,0,0,0,0,0,0,0,-1,811,1205,0,0
-406,-181,0,0,0,0,0,0,0,0,0,-1,818,1205,0,0
-399,-181,0,0,0,0,0,0,0,0,0,-1,825,1205,0,0
-392,-181,0,0,0,0,0,0,0,0,0,-1,832,1205,0,0
-385,-181,0,0,0,0,0,0,0,0,0,-1,839,1205,0,0
-378,-181,0,0,0,0,0,0,0,0,0,-1,846,1205,0,0
-371,-181,0,0,0,0,0,0,0,0,0,-1,853,1205,0,0
-364,-181,0,0,0,0,0,0,0,0,0,-1,860,1205,0,0
-357,-181,0,0,0,0,0,0,0,0,0,-1,867,1205,0,0
-350,-181,0,0,0,0,0,0,0,0,0,-1,874,1205,0,0
-343,-181,0,0,0,0,0,0,0,0,0,-1,881,1205,0,0
-336,-181,0,0,0,0,0,0,0,0,0,-1,888,1205,0,0
-329,-181,0,0,0,0,0,0,0,0,0,-1,895,1205,0,0
-322,-181,0,0,0,0,0,0,0,0,0,-1,902,1205,0,0
-315,-181,0,0,0,0,0,0,0,0,0,-1,909,1205,0,0
-308,-181,0,0,0,0,0,0,0,0,0,-1,916,1205,0,0
-301,-181,0,0,0,0,0,0,0,0,0,-1,923,1205,0,0
-294,-181,0,0,0,0,0,0,0,0,0,-1,930,1205,0,0
-287,-181,0,0,0,0,0,0,0,0,0,-1,937,1205,0,0
-280,-181,0,0,0,0,0,0,0,0,0,-1,944,1205,0,0
-273,-181,0,0,0,0,0,0,0,0,0,-1,951,1205,0,0
-266,-181,0,0,0,0,0,0,0,0,0,-1,958,1205,0,0
-259,-181,0,0,0,0,0,0,0,0,0,-1,965,1205,0,0
-252,-181,0,0,0,0,0,0,0,0,0,-1,972,1205,0,0
-245,-181,0,0,0,0,0,0,0,0,0,-1,979,1205,0,0
-238,-181,0,0,0,0,0,0,0,0,0,-1,986,1205,0,0
-231,-181,0,0,0,0,0,0,0,0,0,-1,993,1205,0,0
-224,-181,0,0,0,0,0,0,0,0,0,-1,1000,1205,0,0
-217,-181,0,0,0,0,0,0,0,0,0,-1,1007,1205,0,0
-210,-181,0,0,0,0,0,0,0,0,0,-1,1014,1205,0,0
-203,-181,0,0,0,0,0,0,0,0,0,-1,1021,1205,0,0
-196,-181,0,0,0,0,0,0,0,0,0,-1,1028,1205,0,0
-189,-181,0,0,0,0,0,0,0,0,0,-1,1035,1205,0,0
-182,-181,0,0,0,0,0,0,0,0,0,-1,1042,1205,0,0
-175,-181,0,0,0,0,0,0,0,0,0,-1,1049,1205,0,0
-168,-181,0,0,0,0,0,0,0,0,0,-1,1056,1205,0,0
-161,-181,0,0,0,0,0,0,0,0,0,-1,1063,1205,0,0
-154,-181,0,0,0,0,0,0,0,0,0,-1,1070,1205,0,0
-147,-181,0,0,0,0,0,0,0,0,0,-1,1077,1205,0,0
-140,-181,0,0,0,0,0,0,0,0,0,-1,1084,1205,0,0
-133,-181,0,0,0,0,0,0,0,0,0,-1,1091,1205,0,0
-126,-181,0,0,0,0,0,0,0,0,0,-1,1098,1205,0,0
-119,-181,0,0,0,0,0,0,0,0,0,-1,1105,1205,0,0
-112,-181,0,0,0,0,0,0,0,0,0,-1,1112,1205,0,0
-105,-181,0,0,0,0,0,0,0,0,0,-1,1119,1205,0,0
-98,-181,0,0,0,0,0,0,0,0,0,-1,1126,1205,0,0
-91,-181,0,0,0,0,0,0,0,0,0,-1,1133,1205,0,0
-84,-181,0,0,0,0,0,0,0,0,0,-1,1140,1205,0,0
-77,-181,0,0,0,0,0,0,0,0,0,-1,1147,1205,0,0
-70,-181,0,0,0,0,0,0,0,0,0,-1,1154,1205,0,0
-63,-181,0,0,0,0,0,0,0,0,0,-1,1161,1205,0,0
-56,-181,0,0,0,0,0,0,0,0,0,-1,1168,1205,0,0
-49,-181,0,0,0,0,0,0,0,0,0,-1,1175,1205,0,0
-42,-181,0,0,0,0,0,0,0,0,0,-1,1182,1205,0,0
-35,-181,0,0,0,0,0,0,0,0,0,-1,1189,1205,0,0
-28,-181,0,0,0,0,0,0,0,0,0,-1,1196,1205,0,0
-21,-181,0,0,0,0,0,0,0,0,0,-1,1203,1205,0,0
-14,-181,0,0,0,0,0,0,0,0,0,-1,1210,1205,0,0
-7,-181,0,0,0,0,0,0,0,0,0,-1,1217,1205,0,0
0,-181,0,0,0,0,0,0,0,0,0,-1,1224,1205,0,0
7,-181,0,0,0,0,0,0,0,0,0,-1,1231,1205,0,0
14,-181,0,0,0,0,0,0,0,0,0,-1,1238,1205,0,0
21,-181,0,0,0,0,0,0,0,0,0,-1,1245,1205,0,0
28,-181,0,0,0,0,0,0,0,0,0,-1,1252,1205,0,0
35,-181,0,0,0,0,0,0,0,0,0,-1,1259,1205,0,0
42,-181,0,0,0,0,0,0,0,0,0,-1,1266,1205,0,0
49,-181,0,0,0,0,0,0,0,0,0,-1,1273,1205,0,0
56,-181,0,0,0,0,0,0,0,0,0,-1,1280,1205,0,0
63,-181,0,0,0,0,0,0,0,0,0,-1,1287,1205,0,0
70,-181,0,0,0,0,0,0,0,0,0,-1,1294,1205,0,0
77,-181,0,0,0,0,0,0,0,0,0,-1,1301,1205,0,0
84,-181,0,0,0,0,0,0,0,0,0,-1,1308,1205,0,0
91,-181,0,0,0,0,0,0,0,0,0,-1,1315,1205,0,0
98,-181,0,0,0,0,0,0,0,0,0,-1,1322,1205,0,0
105,-181,0,0,0,0,0,0,0,0,0,-1,1329,1205,0,0
112,-181,0,0,0,0,0,0,0,0,0,-1,1336,1205,0,0
119,-181,0,0,0,0,0,0,0,0,0,-1,1343,1205,0,0
126,-181,0,0,0,0,0,0,0,0,0,-1,1350,1205,0,0
133,-181,0,0,0,0,0,0,0,0,0,-1,1357,1205,0,0
140,-181,0,0,0,0,0,0,0,0,0,-1,1364,1205,0,0
147,-181,0,0,0,0,0,0,0,0,0,-1,1371,1205,0,0
154,-181,0,0,0,0,0,0,0,0,0,-1,1378,1205,0,0
161,-181,0,0,0,0,0,0,0,0,0,-1,1385,1205,0,0
168,-181,0,0,0,0,0,0,0,0,0,-1,1392,1205,0,0
175,-181,0,0,0,0,0,0,0,0,0,-1,1399,1205,0,0
182,-181,0,0,0,0,0,0,0,0,0,-1,1406,1205,0,0
189,-181,0,0,0,0,0,0,0,0,0,-1,1413,1205,0,0
196,-181,0,0,0,0,0,0,0,0,0,-1,1420,1205,0,0
203,-181,0,0,0,0,0,0,0,0,0,-1,1427,1205,0,0
210,-181,0,0,0,0,0,0,0,0,0,-1,1434,1205,0,0
217,-181,0,0,0,0,0,0,0,0,0,-1,1441,1205,0,0
224,-181,0,0,0,0,0,0,0,0,0,-1,1448,1205,0,0
231,-181,0,0,0,0,0,0,0,0,0,-1,1455,1205,0,0
238,-181,0,0,0,0,0,0,0,0,0,-1,1462,1205,0,0
245,-181,0,0,0,0,0,0,0,0,0,-1,1469,1205,0,0
252,-181,0,0,0,0,0,0,0,0,0,-1,1476,1205,0,0
259,-181,0,0,0,0,0,0,0,0,0,-1,1483,1205,0,0
266,-181,0,0,0,0,0,0,0,0,0,-1,1490,1205,0,0
273,-181,0,0,0,0,0,0,0,0,0,-1,1497,1205,0,0
280,-181,0,0,0,0,0,0,0,0,0,-1,1504,1205,0,0
287,-181,0,0,0,0,0,0,0,0,0,-1,1511,1205,0,0
294,-181,0,0,0,0,0,0,0,0,0,-1,1518,1205,0,0
301,-181,0,0,0,0,0,0,0,0,0,-1,1525,1205,0,0
308,-181,0,0,0,0,0,0,0,0,0,-1,1532,1205,0,0
315,-181,0,0,0,0,0,0,0,0,0,-1,1539,1205,0,0
322,-181,0,0,0,0,0,0,0,0,0,-1,1546,1205,0,0
329,-181,0,0,0,0,0,0,0,0,0,-1,1553,1205,0,0
336,-181,0,0,0,0,0,0,0,0,0,-1,1560,1205,0,0
343,-181,0,0,0,0,0,0,0,0,0,-1,1567,1205,0,0
350,-181,0,0,0,0,0,0,0,0,0,-1,1574,1205,0,0
357,-181,0,0,0,0,0,0,0,0,0,-1,1581,1205,0,0
364,-181,0,0,0,0,0,0,0,0,0,-1,1588,1205,0,0
371,-181,0,0,0,0,0,0,0,0,0,-1,1595,1205,0,0
378,-181,0,0,0,0,0,0,0,0,0,-1,1602,1205,0,0
385,-181,0,0,0,0,0,0,0,0,0,-1,1609,1205,0,0
392,-181,0,0,0,0,0,0,0,0,0,-1,1616,1205,0,0
399,-181,0,0,0,0,0,0,0,0,0,-1,1623,1205,0,0
406,-181,0,0,0,0,0,0,0,0,0,-1,1630,1205,0,0
413,-181,0,0,0,0,0,0,0,0,0,-1,1637,1205,0,0
420,-181,0,0,0,0,0,0,0,0,0,-1,1644,1205,0,0
427,-181,0,0,0,0,0,0,0,0,0,-1,1651,1205,0,0
434,-181,0,0,0,0,0,0,0,0,0,-1,1658,1205,0,0
441,-181,0,0,0,0,0,0,0,0,0,-1,1665,1205,0,0
448,-181,0,0,0,0,0,0,0,0,0,-1,1672,1205,0,0
455,-181,0,0,0,0,0,0,0,0,0,-1,1679,1205,0,0
462,-181,0,0,0,0,0,0,0,0,0,-1,1686,1205,0,0
469,-181,0,0,0,0,0,0,0,0,0,-1,1693,1205,0,0
476,-181,0,0,0,0,0,0,0,0,0,-1,1700,1205,0,0
483,-181,0,0,0,0,0,0,0,0,0,-1,1707,1205,0,0
490,-181,0,0,0,0,0,0,0,0,0,-1,1714,1205,0,0
497,-181,0,0,0,0,0,0,0,0,0,-1,1721,1205,0,0
504,-181,0,0,0,0,0,0,0,0,0,-1,1728,1205,0,0
511,-181,0,0,0,0,0,0,0,0,0,-1,1735,1205,0,0
518,-181,0,0,0,0,0,0,0,0,0,-1,1742,1205,0,0
525,-181,0,0,0,0,0,0,0,0,0,-1,1749,1205,0,0
532,-181,0,0,0,0,0,0,0,0,0,-1,1756,1205,0,0
539,-181,0,0,0,0,0,0,0,0,0,-1,1763,1205,0,0
546,-181,0,0,0,0,0,0,0,0,0,-1,1770,1205,0,0
553,-181,0,0,0,0,0,0,0,0,0,-1,1777,1205,0,0
560,-181,0,0,0,0,0,0,0,0,0,-1,1784,1205,0,0
567,-181,0,0,0,0,0,0,0,0,0,-1,1791,1205,0,0
574,-181,0,0,0,0,0,0,0,0,0,-1,1798,1205,0,0
581,-181,0,0,0,0,0,0,0,0,0,-1,1805,1205,0,0
588,-181,0,0,0,0,0,0,0,0,0,-1,1812,1205,0,0
595,-181,0,0,0,0,0,0,0,0,0,-1,1819,1205,0,0
602,-181,0,0,0,0,0,0,0,0,0,-1,1826,1205,0,0
609,-181,0,0,0,0,0,0,0,0,0,-1,1833,1205,0,0
616,-181,0,0,0,0,0,0,0,0,0,-1,1840,1205,0,0
623,-181,0,0,0,0,0,0,0,0,0,-1,1847,1205,0,0
630,-181,9.62292,1.29712,0.000119763,-0.000493059,0.00234114,0.00217446,-0.00254776,0.720328,0.00272921,0.0389275,1854,1205,9.62291,-1.29716
637,-181,9.71436,1.21643,0.000932195,0.00131403,0.00270218,0.00383203,-0.00158581,0.820666,0.00321635,0.0384656,1861,1205,9.71438,-1.21646
644,-181,9.74316,1.33362,0.000552462,0.00190996,0.00254931,0.00386933,-0.00140691,0.915503,0.00315489,0.0393748,1868,1205,9.7431,-1.3336
651,-181,9.47803,1.31848,-8.26412e-05,0.00202926,0.0022985,0.00350276,-0.00155615,1.00072,0.00299197,0.0397556,1875,1205,9.47799,-1.31849
658,-181,9.51355,1.33618,-0.000769359,0.0018696,0.00204712,0.00298563,-0.00188539,1.07167,0.0028361,0.0364314,1882,1205,9.51353,-1.33617
665,-181,9.54956,1.34753,-0.00143082,0.00150342,0.00179527,0.0023548,-0.0022822,1.12797,0.00267728,0.0313533,1889,1205,9.54961,-1.34755
672,-181,9.57007,1.32092,-0.00199457,0.00103544,0.00156017,0.00169515,-0.00265428,1.17075,0.00253142,0.0225975,1896,1205,9.57008,-1.32094
679,-181,9.61523,1.3468,-0.00245535,0.000593766,0.00137718,0.00112369,-0.00298528,1.20347,0.00245213,0.0284678,1903,1205,9.61522,-1.34685
686,-181,9.6145,1.29541,0,0,0,0,0,0,0,-1,1910,1205,9.61452,-1.29538
693,-181,9.00366,2.16956,0,0,0,0,0,0,0,-1,1917,1205,9.00365,-2.16954
700,-181,9.03064,2.03284,-0.00285527,-0.0002169,0.000788043,5.54021e-07,-0.00307273,1.30155,0.00204867,0.0492658,1924,1205,9.03067,-2.03281
707,-181,8.96545,1.93579,-0.00273612,-0.000423131,0.000661356,-0.000247383,-0.00291187,1.31106,0.00186427,0.0217913,1931,1205,8.96545,-1.93583
714,-181,8.92004,1.86755,-0.0028688,-0.000609765,0.000553493,-0.000481442,-0.00299712,1.34298,0.0018585,0.0149557,1938,1205,8.92006,-1.8676
721,-181,8.88916,1.81726,-0.00265634,-0.000776966,0.000544659,-0.000630529,-0.00280277,1.30815,0.00169783,0.0116541,1945,1205,8.88911,-1.8173
728,-181,8.86731,1.76697,-0.00198069,-0.000700987,0.00058267,-0.00047544,-0.00220623,1.20147,0.00134074,0.0105187,1952,1205,8.8673,-1.76702
735,-181,8.87329,1.71033,-0.00133675,-0.000342839,0.000622186,-4.35026e-05,-0.00163608,1.12238,0.00107651,0.0105404,1959,1205,8.87333,-1.71038
742,-181,8.89294,1.67224,-0.000290867,0.000203323,0.000715523,0.000713215,-0.000800759,0.951655,0.00087458,0.0173058,1966,1205,8.89293,-1.67219
749,-181,8.89722,1.62341,0.00173375,0.000211599,0.000931021,0.00217519,-0.000229838,0.442749,0.00153249,0.0166146,1973,1205,8.89722,-1.62335
756,-181,8.86243,1.55969,0.00386468,0.000115261,0.00113431,0.00418113,-0.000201194,0.272066,0.00285685,0.0118731,1980,1205,8.86248,-1.55972
763,-181,8.83923,1.52014,0.00680633,-5.02537e-05,0.00140842,0.00708436,-0.000328284,0.1949,0.00483605,0.0117013,1987,1205,8.8392,-1.52014
770,-181,8.84375,1.5033,0.0111005,-0.000463146,0.00179802,0.0113736,-0.000736266,0.150749,0.00783935,0.0228915,1994,1205,8.84381,-1.50324
777,-181,8.86731,1.49548,0.0175988,-0.00130391,0.00224745,0.0178623,-0.00156744,0.116728,0.0124636,0.041536,2001,1205,8.86731,-1.49543
784,-181,9.01392,1.37988,0,0,0,0,0,0,0,-1,2008,1205,9.0139,-1.37985
791,-181,8.84937,1.39587,0,0,0,0,0,0,0,-1,2015,1205,8.84933,-1.39589
798,-181,8.63721,0.592896,0,0,0,0,0,0,0,-1,2022,1205,8.63717,-0.592869
805,-181,0,0,0,0,0,0,0,0,0,-1,2029,1205,0,0
812,-181,0,0,0,0,0,0,0,0,0,-1,2036,1205,0,0
-700,-188,0,0,0,0,0,0,0,0,0,-1,524,1212,0,0
-693,-188,0,0,0,0,0,0,0,0,0,-1,531,1212,0,0
-686,-188,0,0,0,0,0,0,0,0,0,-1,538,1212,0,0
-679,-188,-2.82886,2.67871,0,0,0,0,0,0,0,-1,545,1212,-2.82886,-2.67869
-672,-188,-2.68109,2.63232,0,0,0,0,0,0,0,-1,552,1212,-2.68109,-2.6323
-665,-188,-2.81677,-0.117432,-0.0326349,-0.0175088,-0.0032658,-0.0168338,-0.0333099,-1.36698,0.0192318,0.0479437,559,1212,-2.81678,0.117396
-658,-188,-3.41809,-0.0656738,-0.0265608,-0.010374,-0.00457507,-0.00917043,-0.0277644,-1.31354,0.0163347,0.0426109,566,1212,-3.4181,0.0656211
-651,-188,-2.6004,0.530884,0,0,0,0,0,0,0,-1,573,1212,-2.60043,-0.530893
-644,-188,-2.9549,0.605469,-0.0163953,-0.00237279,-0.00446267,-0.00107302,-0.0176951,-1.28738,0.0114558,0.0406076,580,1212,-2.95488,-0.605499
-637,-188,-3.34491,0.685913,-0.0123837,-0.000510655,-0.00379022,0.000596124,-0.0134904,-1.28669,0.00919877,0.020441,587,1212,-3.34493,-0.685947
-630,-188,-3.37897,0.721313,-0.00965852,0.000880096,-0.00366789,0.00203099,-0.0108094,-1.26675,0.00797,0.00949365,594,1212,-3.37899,-0.721365
-623,-188,-3.38068,0.78418,-0.00649573,0.00205016,-0.00334092,0.00320122,-0.00764679,-1.239,0.00643602,0.0106589,601,1212,-3.38069,-0.784223
-616,-188,-3.36334,0.840942,-0.00400656,0.00192258,-0.00206512,0.00257096,-0.00465494,-1.26658,0.00422931,0.0104999,608,1212,-3.36337,-0.840932
-609,-188,-3.34821,0.90332,-0.00310303,0.00086549,-0.0019854,0.0016882,-0.00392574,-1.17795,0.00332592,0.0125102,615,1212,-3.34823,-0.903269
-602,-188,-3.35669,0.981323,-0.00299326,0.000212134,-0.00199413,0.0011678,-0.00394892,-1.1239,0.00309618,0.0153323,622,1212,-3.35666,-0.981365
-595,-188,-3.37775,1.03418,-0.00330643,3.26863e-05,-0.00224414,0.0011602,-0.00443394,-1.10521,0.00340915,0.0119451,629,1212,-3.37773,-1.03412
-588,-188,-3.38904,1.09094,-0.00405348,-2.78224e-05,-0.00231176,0.00102459,-0.00510589,-1.14359,0.00379188,0.00934987,636,1212,-3.38903,-1.09098
-581,-188,-3.39667,1.16028,-0.00481275,-7.37735e-05,-0.00226777,0.000836561,-0.00572308,-1.18906,0.00412263,0.00905836,643,1212,-3.39668,-1.16024
-574,-188,-3.37781,1.19092,-0.00532453,0.000126756,-0.00231837,0.000979379,-0.00617715,-1.21838,0.00448038,0.0217679,650,1212,-3.37781,-1.19087
-567,-188,-3.27332,1.1167,-0.00557966,0.000370874,-0.00221793,0.0011066,-0.00631538,-1.2505,0.00462348,0.0417784,657,1212,-3.27332,-1.11676
-560,-188,-3.58319,0.336182,0,0,0,0,0,0,0,-1,664,1212,-3.58321,-0.336133
-553,-188,-3.94244,0.546021,-0.00635467,0.000985684,-0.00131746,0.00121498,-0.00658397,-1.39848,0.00484535,0.0477088,671,1212,-3.94245,-0.545991
-546,-188,-4.02216,0.5802,-0.00612581,0.00135091,-0.00058991,0.00139717,-0.00617206,-1.49254,0.00465092,0.0387625,678,1212,-4.02215,-0.580185
-539,-188,-4.09778,0.80481,-0.00525571,0.00168646,0.00027708,0.00169751,-0.00526675,1.53097,0.00419315,0.034761,685,1212,-4.09778,-0.804808
-532,-188,-4.26147,0.923828,-0.0034484,0.00196641,0.00121405,0.00222615,-0.00370814,1.36003,0.0034616,0.0402192,692,1212,-4.26148,-0.923803
-525,-188,-4.33398,0.967529,-0.000479455,0.00214309,0.00207405,0.00328561,-0.00162198,1.06729,0.00288715,0.0399561,699,1212,-4.33398,-0.967475
-518,-188,-4.23663,1.28406,0.00383697,0.00209284,0.00249688,0.00560969,0.000320115,0.61739,0.00363778,0.0399005,706,1212,-4.23662,-1.28403
-511,-188,-4.08252,1.09241,0,0,0,0,0,0,0,-1,713,1212,-4.08251,-1.09235
-504,-188,0,0,0,0,0,0,0,0,0,-1,720,1212,0,0
-497,-188,0,0,0,0,0,0,0,0,0,-1,727,1212,0,0
-490,-188,0,0,0,0,0,0,0,0,0,-1,734,1212,0,0
-483,-188,0,0,0,0,0,0,0,0,0,-1,741,1212,0,0
-476,-188,0,0,0,0,0,0,0,0,0,-1,748,1212,0,0
-469,-188,0,0,0,0,0,0,0,0,0,-1,755,1212,0,0
-462,-188,0,0,0,0,0,0,0,0,0,-1,762,1212,0,0
-455,-188,0,0,0,0,0,0,0,0,0,-1,769,1212,0,0
-448,-188,0,0,0,0,0,0,0,0,0,-1,776,1212,0,0
-441,-188,0,0,0,0,0,0,0,0,0,-1,783,1212,0,0
-434,-188,0,0,0,0,0,0,0,0,0,-1,790,1212,0,0
-427,-188,0,0,0,0,0,0,0,0,0,-1,797,1212,0,0
-420,-188,0,0,0,0,0,0,0,0,0,-1,804,1212,0,0
-413,-188,0,0,0,0,0,0,0,0,0,-1,811,1212,0,0
-406,-188,0,0,0,0,0,0,0,0,0,-1,818,1212,0,0
-399,-188,0,0,0,0,0,0,0,0,0,-1,825,1212,0,0
-392,-188,0,0,0,0,0,0,0,0,0,-1,832,1212,0,0
-385,-188,0,0,0,0,0,0,0,0,0,-1,839,1212,0,0
-378,-188,0,0,0,0,0,0,0,0,0,-1,846,1212,0,0
-371,-188,0,0,0,0,0,0,0,0,0,-1,853,1212,0,0
-364,-188,0,0,0,0,0,0,0,0,0,-1,860,1212,0,0
-357,-188,0,0,0,0,0,0,0,0,0,-1,867,1212,0,0
-350,-188,0,0,0,0,0,0,0,0,0,-1,874,1212,0,0
-343,-188,0,0,0,0,0,0,0,0,0,-1,881,1212,0,0
-336,-188,0,0,0,0,0,0,0,0,0,-1,888,1212,0,0
-329,-188,0,0,0,0,0,0,0,0,0,-1,895,1212,0,0
-322,-188,0,0,0,0,0,0,0,0,0,-1,902,1212,0,0
-315,-188,0,0,0,0,0,0,0,0,0,-1,909,1212,0,0
-308,-188,0,0,0,0,0,0,0,0,0,-1,916,1212,0,0
-301,-188,0,0,0,0,0,0,0,0,0,-1,923,1212,0,0
-294,-188,0,0,0,0,0,0,0,0,0,-1,930,1212,0,0
-287,-188,0,0,0,0,0,0,0,0,0,-1,937,1212,0,0
-280,-188,0,0,0,0,0,0,0,0,0,-1,944,1212,0,0
-273,-188,0,0,0,0,0,0,0,0,0,-1,951,1212,0,0
-266,-188,0,0,0,0,0,0,0,0,0,-1,958,1212,0,0
-259,-188,0,0,0,0,0,0,0,0,0,-1,965,1212,0,0
-252,-188,0,0,0,0,0,0,0,0,0,-1,972,1212,0,0
-245,-188,0,0,0,0,0,0,0,0,0,-1,979,1212,0,0
-238,-188,0,0,0,0,0,0,0,0,0,-1,986,1212,0,0
-231,-188,0,0,0,0,0,0,0,0,0,-1,993,1212,0,0
-224,-188,0,0,0,0,0,0,0,0,0,-1,1000,1212,0,0
-217,-188,0,0,0,0,0,0,0,0,0,-1,1007,1212,0,0
-210,-188,0,0,0,0,0,0,0,0,0,-1,1014,1212,0,0
-203,-188,0,0,0,0,0,0,0,0,0,-1,1021,1212,0,0
-196,-188,0,0,0,0,0,0,0,0,0,-1,1028,1212,0,0
-189,-188,0,0,0,0,0,0,0,0,0,-1,1035,1212,0,0
-182,-188,0,0,0,0,0,0,0,0,0,-1,1042,1212,0,0
-175,-188,0,0,0,0,0,0,0,0,0,-1,1049,1212,0,0
-168,-188,0,0,0,0,0,0,0,0,0,-1,1056,1212,0,0
-161,-188,0,0,0,0,0,0,0,0,0,-1,1063,1212,0,0
-154,-188,0,0,0,0,0,0,0,0,0,-1,1070,1212,0,0
-147,-188,0,0,0,0,0,0,0,0,0,-1,1077,1212,0,0
-140,-188,0,0,0,0,0,0,0,0,0,-1,1084,1212,0,0
-133,-188,0,0,0,0,0,0,0,0,0,-1,1091,1212,0,0
-126,-188,0,0,0,0,0,0,0,0,0,-1,1098,1212,0,0
-119,-188,0,0,0,0,0,0,0,0,0,-1,1105,1212,0,0
-112,-188,0,0,0,0,0,0,0,0,0,-1,1112,1212,0,0
-105,-188,0,0,0,0,0,0,0,0,0,-1,1119,1212,0,0
-98,-188,0,0,0,0,0,0,0,0,0,-1,1126,1212,0,0
-91,-188,0,0,0,0,0,0,0,0,0,-1,1133,1212,0,0
-84,-188,0,0,0,0,0,0,0,0,0,-1,1140,1212,0,0
-77,-188,0,0,0,0,0,0,0,0,0,-1,1147,1212,0,0
-70,-188,0,0,0,0,0,0,0,0,0,-1,1154,1212,0,0
-63,-188,0,0,0,0,0,0,0,0,0,-1,1161,1212,0,0
-56,-188,0,0,0,0,0,0,0,0,0,-1,1168,1212,0,0
-49,-188,0,0,0,0,0,0,0,0,0,-1,1175,1212,0,0
-42,-188,0,0,0,0,0,0,0,0,0,-1,1182,1212,0,0
-35,-188,0,0,0,0,0,0,0,0,0,-1,1189,1212,0,0
-28,-188,0,0,0,0,0,0,0,0,0,-1,1196,1212,0,0
-21,-188,0,0,0,0,0,0,0,0,0,-1,1203,1212,0,0
-14,-188,0,0,0,0,0,0,0,0,0,-1,1210,1212,0,0
-7,-188,0,0,0,0,0,0,0,0,0,-1,1217,1212,0,0
0,-188,0,0,0,0,0,0,0,0,0,-1,1224,1212,0,0
7,-188,0,0,0,0,0,0,0,0,0,-1,1231,1212,0,0
14,-188,0,0,0,0,0,0,0,0,0,-1,1238,1212,0,0
21,-188,0,0,0,0,0,0,0,0,0,-1,1245,1212,0,0
28,-188,0,0,0,0,0,0,0,0,0,-1,1252,1212,0,0
35,-188,0,0,0,0,0,0,0,0,0,-1,1259,1212,0,0
42,-188,0,0,0,0,0,0,0,0,0,-1,1266,1212,0,0
49,-188,0,0,0,0,0,0,0,0,0,-1,1273,1212,0,0
56,-188,0,0,0,0,0,0,0,0,0,-1,1280,1212,0,0
63,-188,0,0,0,0,0,0,0,0,0,-1,1287,1212,0,0
70,-188,0,0,0,0,0,0,0,0,0,-1,1294,1212,0,0
77,-188,0,0,0,0,0,0,0,0,0,-1,1301,1212,0,0
84,-188,0,0,0,0,0,0,0,0,0,-1,1308,1212,0,0
91,-188,0,0,0,0,0,0,0,0,0,-1,1315,1212,0,0
98,-188,0,0,0,0,0,0,0,0,0,-1,1322,1212,0,0
105,-188,0,0,0,0,0,0,0,0,0,-1,1329,1212,0,0
112,-188,0,0,0,0,0,0,0,0,0,-1,1336,1212,0,0
119,-188,0,0,0,0,0,0,0,0,0,-1,1343,1212,0,0
126,-188,0,0,0,0,0,0,0,0,0,-1,1350,1212,0,0
133,-188,0,0,0,0,0,0,0,0,0,-1,1357,1212,0,0
140,-188,0,0,0,0,0,0,0,0,0,-1,1364,1212,0,0
147,-188,0,0,0,0,0,0,0,0,0,-1,1371,1212,0,0
154,-188,0,0,0,0,0,0,0,0,0,-1,1378,1212,0,0
161,-188,0,0,0,0,0,0,0,0,0,-1,1385,1212,0,0
168,-188,0,0,0,0,0,0,0,0,0,-1,1392,1212,0,0
175,-188,0,0,0,0,0,0,0,0,0,-1,1399,1212,0,0
182,-188,0,0,0,0,0,0,0,0,0,-1,1406,1212,0,0
189,-188,0,0,0,0,0,0,0,0,0,-1,1413,1212,0,0
196,-188,0,0,0,0,0,0,0,0,0,-1,1420,1212,0,0
203,-188,0,0,0,0,0,0,0,0,0,-1,1427,1212,0,0
210,-188,0,0,0,0,0,0,0,0,0,-1,1434,1212,0,0
217,-188,0,0,0,0,0,0,0,0,0,-1,1441,1212,0,0
224,-188,0,0,0,0,0,0,0,0,0,-1,1448,1212,0,0
231,-188,0,0,0,0,0,0,0,0,0,-1,1455,1212,0,0
238,-188,0,0,0,0,0,0,0,0,0,-1,1462,1212,0,0
245,-188,0,0,0,0,0,0,0,0,0,-1,1469,1212,0,0
252,-188,0,0,0,0,0,0,0,0,0,-1,1476,1212,0,0
259,-188,0,0,0,0,0,0,0,0,0,-1,1483,1212,0,0
266,-188,0,0,0,0,0,0,0,0,0,-1,1490,1212,0,0
273,-188,0,0,0,0,0,0,0,0,0,-1,1497,1212,0,0
280,-188,0,0,0,0,0,0,0,0,0,-1,1504,1212,0,0
287,-188,0,0,0,0,0,0,0,0,0,-1,1511,1212,0,0
294,-188,0,0,0,0,0,0,0,0,0,-1,1518,1212,0,0
301,-188,0,0,0,0,0,0,0,0,0,-1,1525,1212,0,0
308,-188,0,0,0,0,0,0,0,0,0,-1,1532,1212,0,0
315,-188,0,0,0,0,0,0,0,0,0,-1,1539,1212,0,0
322,-188,0,0,0,0,0,0,0,0,0,-1,1546,1212,0,0
329,-188,0,0,0,0,0,0,0,0,0,-1,1553,1212,0,0
336,-188,0,0,0,0,0,0,0,0,0,-1,1560,1212,0,0
343,-188,0,0,0,0,0,0,0,0,0,-1,1567,1212,0,0
350,-188,0,0,0,0,0,0,0,0,0,-1,1574,1212,0,0
357,-188,0,0,0,0,0,0,0,0,0,-1,1581,1212,0,0
364,-188,0,0,0,0,0,0,0,0,0,-1,1588,1212,0,0
371,-188,0,0,0,0,0,0,0,0,0,-1,1595,1212,0,0
378,-188,0,0,0,0,0,0,0,0,0,-1,1602,1212,0,0
385,-188,0,0,0,0,0,0,0,0,0,-1,1609,1212,0,0
392,-188,0,0,0,0,0,0,0,0,0,-1,1616,1212,0,0
399,-188,0,0,0,0,0,0,0,0,0,-1,1623,1212,0,0
406,-188,0,0,0,0,0,0,0,0,0,-1,1630,1212,0,0
413,-188,0,0,0,0,0,0,0,0,0,-1,1637,1212,0,0
420,-188,0,0,0,0,0,0,0,0,0,-1,1644,1212,0,0
427,-188,0,0,0,0,0,0,0,0,0,-1,1651,1212,0,0
434,-188,0,0,0,0,0,0,0,0,0,-1,1658,1212,0,0
441,-188,0,0,0,0,0,0,0,0,0,-1,1665,1212,0,0
448,-188,0,0,0,0,0,0,0,0,0,-1,1672,1212,0,0
455,-188,0,0,0,0,0,0,0,0,0,-1,1679,1212,0,0
462,-188,0,0,0,0,0,0,0,0,0,-1,1686,1212,0,0
469,-188,0,0,0,0,0,0,0,0,0,-1,1693,1212,0,0
476,-188,0,0,0,0,0,0,0,0,0,-1,1700,1212,0,0
483,-188,0,0,0,0,0,0,0,0,0,-1,1707,1212,0,0
490,-188,0,0,0,0,0,0,0,0,0,-1,1714,1212,0,0
497,-188,0,0,0,0,0,0,0,0,0,-1,1721,1212,0,0
504,-188,0,0,0,0,0,0,0,0,0,-1,1728,1212,0,0
511,-188,0,0,0,0,0,0,0,0,0,-1,1735,1212,0,0
518,-188,0,0,0,0,0,0,0,0,0,-1,1742,1212,0,0
525,-188,0,0,0,0,0,0,0,0,0,-1,1749,1212,0,0
532,-188,0,0,0,0,0,0,0,0,0,-1,1756,1212,0,0
539,-188,0,0,0,0,0,0,0,0,0,-1,1763,1212,0,0
546,-188,0,0,0,0,0,0,0,0,0,-1,1770,1212,0,0
553,-188,0,0,0,0,0,0,0,0,0,-1,1777,1212,0,0
560,-188,0,0,0,0,0,0,0,0,0,-1,1784,1212,0,0
567,-188,0,0,0,0,0,0,0,0,0,-1,1791,1212,0,0
574,-188,0,0,0,0,0,0,0,0,0,-1,1798,1212,0,0
581,-188,0,0,0,0,0,0,0,0,0,-1,1805,1212,0,0
588,-188,0,0,0,0,0,0,0,0,0,-1,1812,1212,0,0
595,-188,0,0,0,0,0,0,0,0,0,-1,1819,1212,0,0
602,-188,0,0,0,0,0,0,0,0,0,-1,1826,1212,0,0
609,-188,0,0,0,0,0,0,0,0,0,-1,1833,1212,0,0
616,-188,0,0,0,0,0,0,0,0,0,-1,1840,1212,0,0
623,-188,0,0,0,0,0,0,0,0,0,-1,1847,1212,0,0
630,-188,9.7323,1.16479,-0.00135428,-0.000762932,0.000815302,-0.000191345,-0.00192587,0.95935,0.00122512,0.0411102,1854,1212,9.7323,-1.16477
637,-188,9.72888,1.20166,-1.00974e-05,0.00195102,0.00176252,0.00298738,-0.00104646,1.03925,0.00241713,0.0425003,1861,1212,9.72891,-1.20161
644,-188,9.67017,1.25171,1.35326e-05,0.00320139,0.00222793,0.00434686,-0.00113194,1.0959,0.00333978,0.037075,1868,1212,9.67017,-1.2517
651,-188,9.43237,1.17297,-0.000250962,0.00372972,0.00260852,0.00502051,-0.00154175,1.11129,0.0039622,0.0320784,1875,1212,9.43241,-1.173
658,-188,9.39539,1.22522,-0.000611185,0.00369771,0.00280747,0.00508212,-0.00199559,1.11267,0.00421385,0.0330464,1882,1212,9.39541,-1.22525
665,-188,9.55566,1.31897,-0.00102439,0.00326634,0.00281146,0.00465749,-0.00241554,1.11131,0.00415143,0.0302707,1889,1212,9.55569,-1.31896
672,-188,9.57813,1.33948,-0.00144459,0.00261009,0.00269009,0.00395124,-0.00278573,1.10831,0.00390894,0.0249021,1896,1212,9.57813,-1.33954
679,-188,9.52271,1.22852,-0.00183864,0.00195375,0.00250673,0.00320068,-0.00308557,1.1092,0.00362957,0.0483937,1903,1212,9.5227,-1.22846
686,-188,9.54761,1.18506,-0.00212154,0.00137656,0.00221666,0.00245111,-0.00319609,1.11941,0.00326986,0.0466501,1910,1212,9.54764,-1.18511
693,-188,9.5647,1.1189,0,0,0,0,0,0,0,-1,1917,1212,9.5647,-1.1189
700,-188,8.87244,1.91589,-0.00224992,0.000559627,0.00160783,0.00128992,-0.00298021,1.14445,0.00252893,0.0352,1924,1212,8.87247,-1.91593
707,-188,8.83398,1.91064,-0.00215792,0.000144788,0.00136388,0.000778314,-0.00279144,1.13595,0.00216749,0.011907,1931,1212,8.83404,-1.91065
714,-188,8.83862,1.86133,-0.00233193,-0.000341031,0.00112886,0.000168593,-0.00284156,1.14674,0.001953,0.00907827,1938,1212,8.83865,-1.86137
721,-188,8.82568,1.83264,-0.00222246,-0.000674881,0.000919528,-0.000246888,-0.00265045,1.13517,0.00169069,0.00984641,1945,1212,8.82571,-1.83268
728,-188,8.80896,1.78674,-0.00178316,-0.000733065,0.000627784,-0.000439707,-0.00207652,1.13366,0.00126354,0.00913861,1952,1212,8.80901,-1.78677
735,-188,8.79883,1.73352,-0.00127816,-0.000349984,0.000552896,-9.22196e-05,-0.00153593,1.13455,0.000994637,0.0124782,1959,1212,8.79883,-1.73354
742,-188,8.79871,1.6698,-0.000314403,0.000290459,0.000675205,0.00072787,-0.000751815,0.995955,0.000854334,0.0152962,1966,1212,8.79873,-1.66983
749,-188,8.82288,1.61487,0.00118464,0.000444911,0.000875015,0.00176475,-0.000135198,0.585439,0.00122406,0.0154304,1973,1212,8.8229,-1.61483
756,-188,8.80542,1.56335,0.00260676,0.000574366,0.00107545,0.00307018,0.00011095,0.40686,0.00201082,0.0130866,1980,1212,8.80541,-1.56341
763,-188,8.7926,1.52295,0.00457247,0.000771282,0.00136544,0.00501211,0.000331647,0.311493,0.00323653,0.0129658,1987,1212,8.79256,-1.52296
770,-188,8.802,1.46411,0.00755209,0.000926066,0.00171339,0.00796892,0.000509233,0.238644,0.00515127,0.0200857,1994,1212,8.80196,-1.46413
777,-188,8.81055,1.35681,0.0121782,0.000981418,0.00213022,0.0125698,0.000589834,0.181794,0.00819036,0.0419547,2001,1212,8.81049,-1.35687
784,-188,8.83472,1.26392,0,0,0,0,0,0,0,-1,2008,1212,8.83475,-1.26394
791,-188,8.43445,1.41138,0,0,0,0,0,0,0,-1,2015,1212,8.43442,-1.41139
798,-188,8.39587,0.579346,0,0,0,0,0,0,0,-1,2022,1212,8.39591,-0.579371
805,-188,0,0,0,0,0,0,0,0,0,-1,2029,1212,0,0
812,-188,0,0,0,0,0,0,0,0,0,-1,2036,1212,0,0
-700,-195,0,0,0,0,0,0,0,0,0,-1,524,1219,0,0
-693,-195,0,0,0,0,0,0,0,0,0,-1,531,1219,0,0
-686,-195,0,0,0,0,0,0,0,0,0,-1,538,1219,0,0
-679,-195,1.37311,-1.78101,0,0,0,0,0,0,0,-1,545,1219,1.37309,1.78106
-672,-195,-2.36737,-0.15271,0,0,0,0,0,0,0,-1,552,1219,-2.36736,0.152763
-665,-195,-2.51154,-0.116699,-0.0393326,-0.0178087,-0.00547001,-0.0164984,-0.0406429,-1.33567,0.0236032,0.0469447,559,1219,-2.51151,0.116678
-658,-195,-2.65802,-0.0489502,-0.0316492,-0.0106705,-0.0062253,-0.00896231,-0.0333575,-1.30299,0.0199342,0.0441749,566,1219,-2.65805,0.0489848
-651,-195,-2.98462,0.346069,0,0,0,0,0,0,0,-1,573,1219,-2.9846,-0.346112
-644,-195,-3.11005,0.490723,-0.0192636,-0.00270502,-0.00527871,-0.00116538,-0.0208033,-1.287,0.0134972,0.0407107,580,1219,-3.11007,-0.490706
-637,-195,-3.25317,0.627075,-0.0145053,-0.000826995,-0.00433245,0.000429786,-0.015762,-1.28846,0.0106542,0.0201383,587,1219,-3.25316,-0.627128
-630,-195,-3.30939,0.719849,-0.011163,0.000583568,-0.00395924,0.00179343,-0.0123729,-1.27423,0.00890679,0.00745305,594,1219,-3.30941,-0.719802
-623,-195,-3.31073,0.789307,-0.00735389,0.00187831,-0.00340875,0.0030005,-0.00847608,-1.25276,0.00687279,0.00799078,601,1219,-3.31075,-0.789332
-616,-195,-3.30591,0.859741,-0.00443005,0.00167135,-0.00207919,0.0023125,-0.00507121,-1.27168,0.00436104,0.00960157,608,1219,-3.30592,-0.859733
-609,-195,-3.32227,0.908691,-0.00318947,0.000714816,-0.00196617,0.00153336,-0.00400801,-1.17631,0.00330394,0.0173908,615,1219,-3.32226,-0.908695
-602,-195,-3.30365,0.968384,-0.00281807,8.66877e-05,-0.00195845,0.00107253,-0.00380392,-1.10445,0.00295897,0.0215423,622,1219,-3.30364,-0.968435
-595,-195,-3.31586,1.0614,-0.0028815,-5.82273e-05,-0.00218697,0.00113312,-0.00407285,-1.07199,0.00316137,0.0153292,629,1219,-3.31587,-1.06138
-588,-195,-3.31476,1.09534,-0.00347395,-3.44171e-05,-0.00234332,0.00115248,-0.00466086,-1.10196,0.00355424,0.00790891,636,1219,-3.31475,-1.09535
-581,-195,-3.31317,1.12415,-0.00422777,-4.40222e-05,-0.00229525,0.000969598,-0.00524139,-1.15494,0.00385829,0.00790009,643,1219,-3.31318,-1.12419
-574,-195,-3.30115,1.16919,-0.00482523,0.000113741,-0.00232591,0.00103663,-0.00574812,-1.19306,0.00422028,0.0193103,650,1219,-3.30117,-1.16916
-567,-195,-3.18988,1.03894,-0.00515107,0.000397064,-0.00226348,0.00120333,-0.00595734,-1.2286,0.00442752,0.0378111,657,1219,-3.18991,-1.03898
-560,-195,-3.22711,0.640259,-0.00580819,0.0007706,-0.0019592,0.00130986,-0.00634745,-1.3022,0.00472911,0.0459934,664,1219,-3.22711,-0.640296
-553,-195,-3.69061,0.302246,-0.00627768,0.00107872,-0.00137445,0.00132713,-0.00652609,-1.39199,0.00485396,0.0438998,671,1219,-3.69059,-0.302283
-546,-195,-3.979,0.472656,-0.00635924,0.00153627,-0.000656285,0.00159044,-0.00641342,-1.48843,0.0048927,0.0394146,678,1219,-3.97898,-0.472682
-539,-195,-4.03119,0.696289,-0.00592349,0.00196688,0.000212874,0.00197262,-0.00592923,1.54384,0.00474894,0.0336233,685,1219,-4.03121,-0.696281
-532,-195,-4.10846,0.744019,-0.00466951,0.00236541,0.00117303,0.00255585,-0.00485995,1.40985,0.00434985,0.0340925,692,1219,-4.10847,-0.744036
-525,-195,-4.10492,0.769775,-0.002334,0.00268411,0.00210434,0.00344974,-0.00309964,1.22185,0.00378309,0.0386401,699,1219,-4.10494,-0.769799
-518,-195,-4.09967,0.947144,0.00136677,0.00282261,0.00274697,0.00493646,-0.00074709,0.914917,0.00356619,0.0413847,706,1219,-4.09968,-0.94709
-511,-195,-3.99304,1.08289,0,0,0,0,0,0,0,-1,713,1219,-3.99305,-1.08292
-504,-195,0,0,0,0,0,0,0,0,0,-1,720,1219,0,0
-497,-195,0,0,0,0,0,0,0,0,0,-1,727,1219,0,0
-490,-195,0,0,0,0,0,0,0,0,0,-1,734,1219,0,0
-483,-195,0,0,0,0,0,0,0,0,0,-1,741,1219,0,0
-476,-195,0,0,0,0,0,0,0,0,0,-1,748,1219,0,0
-469,-195,0,0,0,0,0,0,0,0,0,-1,755,1219,0,0
-462,-195,0,0,0,0,0,0,0,0,0,-1,762,1219,0,0
-455,-195,0,0,0,0,0,0,0,0,0,-1,769,1219,0,0
-448,-195,0,0,0,0,0,0,0,0,0,-1,776,1219,0,0
-441,-195,0,0,0,0,0,0,0,0,0,-1,783,1219,0,0
-434,-195,0,0,0,0,0,0,0,0,0,-1,790,1219,0,0
-427,-195,0,0,0,0,0,0,0,0,0,-1,797,1219,0,0
-420,-195,0,0,0,0,0,0,0,0,0,-1,804,1219,0,0
-413,-195,0,0,0,0,0,0,0,0,0,-1,811,1219,0,0
-406,-195,0,0,0,0,0,0,0,0,0,-1,818,1219,0,0
-399,-195,0,0,0,0,0,0,0,0,0,-1,825,1219,0,0
-392,-195,0,0,0,0,0,0,0,0,0,-1,832,1219,0,0
-385,-195,0,0,0,0,0,0,0,0,0,-1,839,1219,0,0
-378,-195,0,0,0,0,0,0,0,0,0,-1,846,1219,0,0
-371,-195,0,0,0,0,0,0,0,0,0,-1,853,1219,0,0
-364,-195,0,0,0,0,0,0,0,0,0,-1,860,1219,0,0
-357,-195,0,0,0,0,0,0,0,0,0,-1,867,1219,0,0
-350,-195,0,0,0,0,0,0,0,0,0,-1,874,1219,0,0
-343,-195,0,0,0,0,0,0,0,0,0,-1,881,1219,0,0
-336,-195,0,0,0,0,0,0,0,0,0,-1,888,1219,0,0
-329,-195,0,0,0,0,0,0,0,0,0,-1,895,1219,0,0
-322,-195,0,0,0,0,0,0,0,0,0,-1,902,1219,0,0
-315,-195,0,0,0,0,0,0,0,0,0,-1,909,1219,0,0
-308,-195,0,0,0,0,0,0,0,0,0,-1,916,1219,0,0
-301,-195,0,0,0,0,0,0,0,0,0,-1,923,1219,0,0
-294,-195,0,0,0,0,0,0,0,0,0,-1,930,1219,0,0
-287,-195,0,0,0,0,0,0,0,0,0,-1,937,1219,0,0
-280,-195,0,0,0,0,0,0,0,0,0,-1,944,1219,0,0
-273,-195,0,0,0,0,0,0,0,0,0,-1,951,1219,0,0
-266,-195,0,0,0,0,0,0,0,0,0,-1,958,1219,0,0
-259,-195,0,0,0,0,0,0,0,0,0,-1,965,1219,0,0
-252,-195,0,0,0,0,0,0,0,0,0,-1,972,1219,0,0
-245,-195,0,0,0,0,0,0,0,0,0,-1,979,1219,0,0
-238,-195,0,0,0,0,0,0,0,0,0,-1,986,1219,0,0
-231,-195,0,0,0,0,0,0,0,0,0,-1,993,1219,0,0
-224,-195,0,0,0,0,0,0,0,0,0,-1,1000,1219,0,0
-217,-195,0,0,0,0,0,0,0,0,0,-1,1007,1219,0,0
-210,-195,0,0,0,0,0,0,0,0,0,-1,1014,1219,0,0
-203,-195,0,0,0,0,0,0,0,0,0,-1,1021,1219,0,0
-196,-195,0,0,0,0,0,0,0,0,0,-1,1028,1219,0,0
-189,-195,0,0,0,0,0,0,0,0,0,-1,1035,1219,0,0
-182,-195,0,0,0,0,0,0,0,0,0,-1,1042,1219,0,0
-175,-195,0,0,0,0,0,0,0,0,0,-1,1049,1219,0,0
-168,-195,0,0,0,0,0,0,0,0,0,-1,1056,1219,0,0
-161,-195,0,0,0,0,0,0,0,0,0,-1,1063,1219,0,0
-154,-195,0,0,0,0,0,0,0,0,0,-1,1070,1219,0,0
-147,-195,0,0,0,0,0,0,0,0,0,-1,1077,1219,0,0
-140,-195,0,0,0,0,0,0,0,0,0,-1,1084,1219,0,0
-133,-195,0,0,0,0,0,0,0,0,0,-1,1091,1219,0,0
-126,-195,0,0,0,0,0,0,0,0,0,-1,1098,1219,0,0
-119,-195,0,0,0,0,0,0,0,0,0,-1,1105,1219,0,0
-112,-195,0,0,0,0,0,0,0,0,0,-1,1112,1219,0,0
-105,-195,0,0,0,0,0,0,0,0,0,-1,1119,1219,0,0
-98,-195,0,0,0,0,0,0,0,0,0,-1,1126,1219,0,0
-91,-195,0,0,0,0,0,0,0,0,0,-1,1133,1219,0,0
-84,-195,0,0,0,0,0,0,0,0,0,-1,1140,1219,0,0
-77,-195,0,0,0,0,0,0,0,0,0,-1,1147,1219,0,0
-70,-195,0,0,0,0,0,0,0,0,0,-1,1154,1219,0,0
-63,-195,0,0,0,0,0,0,0,0,0,-1,1161,1219,0,0
-56,-195,0,0,0,0,0,0,0,0,0,-1,1168,1219,0,0
-49,-195,0,0,0,0,0,0,0,0,0,-1,1175,1219,0,0
-42,-195,0,0,0,0,0,0,0,0,0,-1,1182,1219,0,0
-35,-195,0,0,0,0,0,0,0,0,0,-1,1189,1219,0,0
-28,-195,0,0,0,0,0,0,0,0,0,-1,1196,1219,0,0
-21,-195,0,0,0,0,0,0,0,0,0,-1,1203,1219,0,0
-14,-195,0,0,0,0,0,0,0,0,0,-1,1210,1219,0,0
-7,-195,0,0,0,0,0,0,0,0,0,-1,1217,1219,0,0
0,-195,0,0,0,0,0,0,0,0,0,-1,1224,1219,0,0
7,-195,0,0,0,0,0,0,0,0,0,-1,1231,1219,0,0
14,-195,0,0,0,0,0,0,0,0,0,-1,1238,1219,0,0
21,-195,0,0,0,0,0,0,0,0,0,-1,1245,1219,0,0
28,-195,0,0,0,0,0,0,0,0,0,-1,1252,1219,0,0
35,-195,0,0,0,0,0,0,0,0,0,-1,1259,1219,0,0
42,-195,0,0,0,0,0,0,0,0,0,-1,1266,1219,0,0
49,-195,0,0,0,0,0,0,0,0,0,-1,1273,1219,0,0
56,-195,0,0,0,0,0,0,0,0,0,-1,1280,1219,0,0
63,-195,0,0,0,0,0,0,0,0,0,-1,1287,1219,0,0
70,-195,0,0,0,0,0,0,0,0,0,-1,1294,1219,0,0
77,-195,0,0,0,0,0,0,0,0,0,-1,1301,1219,0,0
84,-195,0,0,0,0,0,0,0,0,0,-1,1308,1219,0,0
91,-195,0,0,0,0,0,0,0,0,0,-1,1315,1219,0,0
98,-195,0,0,0,0,0,0,0,0,0,-1,1322,1219,0,0
105,-195,0,0,0,0,0,0,0,0,0,-1,1329,1219,0,0
112,-195,0,0,0,0,0,0,0,0,0,-1,1336,1219,0,0
119,-195,0,0,0,0,0,0,0,0,0,-1,1343,1219,0,0
126,-195,0,0,0,0,0,0,0,0,0,-1,1350,1219,0,0
133,-195,0,0,0,0,0,0,0,0,0,-1,1357,1219,0,0
140,-195,0,0,0,0,0,0,0,0,0,-1,1364,1219,0,0
147,-195,0,0,0,0,0,0,0,0,0,-1,1371,1219,0,0
154,-195,0,0,0,0,0,0,0,0,0,-1,1378,1219,0,0
161,-195,0,0,0,0,0,0,0,0,0,-1,1385,1219,0,0
168,-195,0,0,0,0,0,0,0,0,0,-1,1392,1219,0,0
175,-195,0,0,0,0,0,0,0,0,0,-1,1399,1219,0,0
182,-195,0,0,0,0,0,0,0,0,0,-1,1406,1219,0,0
189,-195,0,0,0,0,0,0,0,0,0,-1,1413,1219,0,0
196,-195,0,0,0,0,0,0,0,0,0,-1,1420,1219,0,0
203,-195,0,0,0,0,0,0,0,0,0,-1,1427,1219,0,0
210,-195,0,0,0,0,0,0,0,0,0,-1,1434,1219,0,0
217,-195,0,0,0,0,0,0,0,0,0,-1,1441,1219,0,0
224,-195,0,0,0,0,0,0,0,0,0,-1,1448,1219,0,0
231,-195,0,0,0,0,0,0,0,0,0,-1,1455,1219,0,0
238,-195,0,0,0,0,0,0,0,0,0,-1,1462,1219,0,0
245,-195,0,0,0,0,0,0,0,0,0,-1,1469,1219,0,0
252,-195,0,0,0,0,0,0,0,0,0,-1,1476,1219,0,0
259,-195,0,0,0,0,0,0,0,0,0,-1,1483,1219,0,0
266,-195,0,0,0,0,0,0,0,0,0,-1,1490,1219,0,0
273,-195,0,0,0,0,0,0,0,0,0,-1,1497,1219,0,0
280,-195,0,0,0,0,0,0,0,0,0,-1,1504,1219,0,0
287,-195,0,0,0,0,0,0,0,0,0,-1,1511,1219,0,0
294,-195,0,0,0,0,0,0,0,0,0,-1,1518,1219,0,0
301,-195,0,0,0,0,0,0,0,0,0,-1,1525,1219,0,0
308,-195,0,0,0,0,0,0,0,0,0,-1,1532,1219,0,0
315,-195,0,0,0,0,0,0,0,0,0,-1,1539,1219,0,0
322,-195,0,0,0,0,0,0,0,0,0,-1,1546,1219,0,0
329,-195,0,0,0,0,0,0,0,0,0,-1,1553,1219,0,0
336,-195,0,0,0,0,0,0,0,0,0,-1,1560,1219,0,0
343,-195,0,0,0,0,0,0,0,0,0,-1,1567,1219,0,0
350,-195,0,0,0,0,0,0,0,0,0,-1,1574,1219,0,0
357,-195,0,0,0,0,0,0,0,0,0,-1,1581,1219,0,0
364,-195,0,0,0,0,0,0,0,0,0,-1,1588,1219,0,0
371,-195,0,0,0,0,0,0,0,0,0,-1,1595,1219,0,0
378,-195,0,0,0,0,0,0,0,0,0,-1,1602,1219,0,0
385,-195,0,0,0,0,0,0,0,0,0,-1,1609,1219,0,0
392,-195,0,0,0,0,0,0,0,0,0,-1,1616,1219,0,0
399,-195,0,0,0,0,0,0,0,0,0,-1,1623,1219,0,0
406,-195,0,0,0,0,0,0,0,0,0,-1,1630,1219,0,0
413,-195,0,0,0,0,0,0,0,0,0,-1,1637,1219,0,0
420,-195,0,0,0,0,0,0,0,0,0,-1,1644,1219,0,0
427,-195,0,0,0,0,0,0,0,0,0,-1,1651,1219,0,0
434,-195,0,0,0,0,0,0,0,0,0,-1,1658,1219,0,0
441,-195,0,0,0,0,0,0,0,0,0,-1,1665,1219,0,0
448,-195,0,0,0,0,0,0,0,0,0,-1,1672,1219,0,0
455,-195,0,0,0,0,0,0,0,0,0,-1,1679,1219,0,0
462,-195,0,0,0,0,0,0,0,0,0,-1,1686,1219,0,0
469,-195,0,0,0,0,0,0,0,0,0,-1,1693,1219,0,0
476,-195,0,0,0,0,0,0,0,0,0,-1,1700,1219,0,0
483,-195,0,0,0,0,0,0,0,0,0,-1,1707,1219,0,0
490,-195,0,0,0,0,0,0,0,0,0,-1,1714,1219,0,0
497,-195,0,0,0,0,0,0,0,0,0,-1,1721,1219,0,0
504,-195,0,0,0,0,0,0,0,0,0,-1,1728,1219,0,0
511,-195,0,0,0,0,0,0,0,0,0,-1,1735,1219,0,0
518,-195,0,0,0,0,0,0,0,0,0,-1,1742,1219,0,0
525,-195,0,0,0,0,0,0,0,0,0,-1,1749,1219,0,0
532,-195,0,0,0,0,0,0,0,0,0,-1,1756,1219,0,0
539,-195,0,0,0,0,0,0,0,0,0,-1,1763,1219,0,0
546,-195,0,0,0,0,0,0,0,0,0,-1,1770,1219,0,0
553,-195,0,0,0,0,0,0,0,0,0,-1,1777,1219,0,0
560,-195,0,0,0,0,0,0,0,0,0,-1,1784,1219,0,0
567,-195,0,0,0,0,0,0,0,0,0,-1,1791,1219,0,0
574,-195,0,0,0,0,0,0,0,0,0,-1,1798,1219,0,0
581,-195,0,0,0,0,0,0,0,0,0,-1,1805,1219,0,0
588,-195,0,0,0,0,0,0,0,0,0,-1,1812,1219,0,0
595,-195,0,0,0,0,0,0,0,0,0,-1,1819,1219,0,0
602,-195,0,0,0,0,0,0,0,0,0,-1,1826,1219,0,0
609,-195,0,0,0,0,0,0,0,0,0,-1,1833,1219,0,0
616,-195,0,0,0,0,0,0,0,0,0,-1,1840,1219,0,0
623,-195,0,0,0,0,0,0,0,0,0,-1,1847,1219,0,0
630,-195,9.75366,0.989624,-0.00214484,-0.000732522,0.000196924,-0.000705578,-0.00217179,1.43482,0.00127926,0.0406473,1854,1219,9.75365,-0.989615
637,-195,9.67065,1.1781,-0.000608757,0.00258324,0.00134504,0.00307442,-0.00109994,1.22066,0.00249832,0.0385838,1861,1219,9.67061,-1.17804
644,-195,9.58838,1.2865,-0.000389572,0.00429626,0.00215494,0.00513659,-0.0012299,1.19898,0.00389956,0.034167,1868,1219,9.58832,-1.28649
651,-195,9.53467,1.27344,-0.000448719,0.00509411,0.00289346,0.00632929,-0.0016839,1.16733,0.00487868,0.0266018,1875,1219,9.53472,-1.27348
658,-195,9.52087,1.3042,-0.000601414,0.00513633,0.00334713,0.00667583,-0.00214091,1.1397,0.00531005,0.0245147,1882,1219,9.52084,-1.30419
665,-195,9.57825,1.32043,-0.000848754,0.00464294,0.00351122,0.00635449,-0.0025603,1.11724,0.00530006,0.0233876,1889,1219,9.57826,-1.32047
672,-195,9.62415,1.32715,-0.00115529,0.0038492,0.00346819,0.00562359,-0.00292968,1.0979,0.00501921,0.0352245,1896,1219,9.62414,-1.3272
679,-195,9.59705,1.34521,-0.00147886,0.00302937,0.00329482,0.00476735,-0.00321685,1.0854,0.00463856,0.0489851,1903,1219,9.59706,-1.34519
686,-195,9.59509,1.40723,-0.00172858,0.00230988,0.00295992,0.00387372,-0.00329242,1.08473,0.00414191,0.0451479,1910,1219,9.59505,-1.40724
693,-195,9.35571,1.5144,0,0,0,0,0,0,0,-1,1917,1219,9.35573,-1.51435
700,-195,8.93079,1.89087,0,0,0,0,0,0,0,-1,1924,1219,8.93073,-1.89089
707,-195,8.74341,1.94507,-0.00173589,0.000569248,0.00191723,0.00165368,-0.00282032,1.05604,0.00261218,0.0109952,1931,1219,8.74341,-1.94505
714,-195,8.75769,1.90088,-0.00191005,-0.000182073,0.00156822,0.000744409,-0.00283654,1.03718,0.00218191,0.0133489,1938,1219,8.7577,-1.90086
721,-195,8.75415,1.84851,-0.00185745,-0.000716907,0.00119348,3.55454e-05,-0.0026099,1.00827,0.0017519,0.0121978,1945,1219,8.75412,-1.84852
728,-195,8.74695,1.80542,-0.00156504,-0.000926236,0.000706426,-0.000470359,-0.00202091,0.997712,0.00122107,0.0107845,1952,1219,8.74698,-1.80545
735,-195,8.73962,1.74597,-0.00124415,-0.000678295,0.00058323,-0.00031299,-0.00160946,1.01123,0.000985352,0.012551,1959,1219,8.73959,-1.74599
742,-195,8.73572,1.66626,-0.000478445,-0.000106053,0.000749092,0.000479637,-0.00106413,0.907211,0.000912343,0.0132401,1966,1219,8.73569,-1.6663
749,-195,8.74768,1.61646,0.000422448,-6.4588e-05,0.00097942,0.00118817,-0.00083031,0.663552,0.00117146,0.0151282,1973,1219,8.74774,-1.61648
756,-195,8.7533,1.5802,0.00100686,-5.89979e-05,0.0012336,0.00181772,-0.000869858,0.5815,0.00158352,0.0135295,1980,1219,8.75326,-1.58026
763,-195,8.74976,1.51196,0.00187537,4.49352e-05,0.00156476,0.00277291,-0.000852612,0.52078,0.00218888,0.0135244,1987,1219,8.74975,-1.51195
770,-195,8.80029,1.48645,0.00318695,0.00022337,0.00193002,0.00413841,-0.000728086,0.458013,0.00303092,0.0274156,1994,1219,8.8003,-1.4864
777,-195,8.98267,1.54041,0.00525171,0.000535167,0.00232785,0.0062071,-0.000420219,0.389453,0.00428501,0.045302,2001,1219,8.98266,-1.54038
784,-195,9.11157,1.53101,0,0,0,0,0,0,0,-1,2008,1219,9.1116,-1.53096
791,-195,8.62097,1.74585,0,0,0,0,0,0,0,-1,2015,1219,8.621,-1.74591
798,-195,8.78442,1.14844,0,0,0,0,0,0,0,-1,2022,1219,8.78445,-1.14845
805,-195,0,0,0,0,0,0,0,0,0,-1,2029,1219,0,0
812,-195,0,0,0,0,0,0,0,0,0,-1,2036,1219,0,0
-700,-202,0,0,0,0,0,0,0,0,0,-1,524,1226,0,0
-693,-202,0,0,0,0,0,0,0,0,0,-1,531,1226,0,0
-686,-202,0,0,0,0,0,0,0,0,0,-1,538,1226,0,0
-679,-202,1.14734,-1.03125,-0.0688172,-0.0445949,0.00353751,-0.0440889,-0.0693232,1.42871,0.0405142,0.0446357,545,1226,1.14737,1.0313
-672,-202,-2.20575,-0.0738525,-0.0564193,-0.0294458,-0.00223111,-0.0292625,-0.0566026,-1.48882,0.0326858,0.0447064,552,1226,-2.20573,0.0738126
-665,-202,-2.24072,-0.111206,-0.0455806,-0.0189181,-0.00489626,-0.0180474,-0.0464513,-1.3948,0.0270399,0.0451055,559,1226,-2.2407,0.111159
-658,-202,-2.43622,-0.0384521,-0.036278,-0.0116374,-0.00580246,-0.0103394,-0.037576,-1.35072,0.0224138,0.0434452,566,1226,-2.43622,0.038396
-651,-202,-2.72577,0.179688,-0.0283803,-0.00669615,-0.00571298,-0.00528308,-0.0297934,-1.32832,0.0183564,0.0446791,573,1226,-2.7258,-0.179638
-644,-202,-2.88953,0.331665,-0.0217573,-0.00345396,-0.00508217,-0.00213751,-0.0230738,-1.31733,0.0147218,0.0417131,580,1226,-2.88955,-0.331668
-637,-202,-3.07965,0.527222,-0.0163025,-0.00143971,-0.00421624,-0.000326966,-0.0174153,-1.31276,0.0115027,0.0299781,587,1226,-3.07966,-0.527245
-630,-202,-3.2074,0.695679,-0.0123006,0.00011639,-0.00380395,0.00118906,-0.0133733,-1.29594,0.00933714,0.0131867,594,1226,-3.20737,-0.695689
-623,-202,-3.22217,0.765869,-0.00792057,0.0015653,-0.00331913,0.00261132,-0.0089666,-1.2655,0.00701217,0.00805645,601,1226,-3.22218,-0.765814
-616,-202,-3.2348,0.830444,-0.00468294,0.00142716,-0.00208803,0.00207254,-0.00532832,-1.27102,0.00440856,0.00808275,608,1226,-3.23479,-0.830499
-609,-202,-3.25433,0.901245,-0.0031334,0.000602136,-0.00194286,0.00142941,-0.00396067,-1.16825,0.00322432,0.0206246,615,1226,-3.25432,-0.901205
-602,-202,-3.23926,0.953979,-0.00250001,-1.86394e-05,-0.00194141,0.00104466,-0.00356331,-1.06972,0.00278974,0.0215701,622,1226,-3.23928,-0.95394
-595,-202,-3.26666,1.0509,-0.00226381,-0.0001713,-0.00222282,0.00123919,-0.0036743,-1.00536,0.00295065,0.0165907,629,1226,-3.26669,-1.05085
-588,-202,-3.22522,1.11169,-0.00263997,-0.000223348,-0.00254746,0.00138784,-0.00425115,-1.00684,0.00339269,0.00837959,636,1226,-3.22519,-1.1117
-581,-202,-3.22186,1.12903,-0.00336601,-0.000282293,-0.00250218,0.00111493,-0.00476324,-1.06152,0.00360507,0.0093445,643,1226,-3.22186,-1.129
-574,-202,-3.25275,1.14148,-0.00402851,-0.000276361,-0.00253317,0.000999806,-0.00530468,-1.10413,0.00391254,0.013627,650,1226,-3.25277,-1.14147
-567,-202,-3.28644,1.15076,-0.00437242,-6.47666e-05,-0.00256833,0.00113331,-0.0055705,-1.13432,0.00414343,0.0336933,657,1226,-3.28645,-1.1507
-560,-202,-3.45422,0.414307,-0.00509879,0.000223027,-0.00232013,0.00109248,-0.00596824,-1.21225,0.00438855,0.0432251,664,1226,-3.45422,-0.414255
-553,-202,-3.93506,0.101929,-0.00572872,0.000467254,-0.00177032,0.000937397,-0.00619887,-1.31122,0.00447787,0.0446887,671,1226,-3.93505,-0.10191
-546,-202,-3.86731,0.304443,-0.0060666,0.000914955,-0.00107332,0.00107624,-0.00622789,-1.42165,0.00455327,0.0426251,678,1226,-3.8673,-0.304456
-539,-202,-3.995,0.655396,-0.00604067,0.00137498,-0.000196915,0.00138021,-0.00604589,-1.54427,0.00456082,0.0366306,685,1226,-3.99502,-0.655361
-532,-202,-4.09082,0.777954,-0.00536467,0.00188848,0.000821035,0.00198026,-0.00545645,1.45948,0.00444719,0.0297458,692,1226,-4.09081,-0.777903
-525,-202,-4.02637,0.711304,-0.00378891,0.00243914,0.00188745,0.00296649,-0.00431626,1.29835,0.0042287,0.0339695,699,1226,-4.02638,-0.711312
-518,-202,-3.91266,0.617554,-0.00102611,0.00298642,0.00281966,0.00444073,-0.00248042,1.09461,0.004049,0.0397819,706,1226,-3.91264,-0.617597
-511,-202,-4.06604,0.698364,0.00388878,0.00342166,0.00302328,0.00668751,0.000622936,0.746848,0.00426588,0.0433782,713,1226,-4.06603,-0.698304
-504,-202,0,0,0,0,0,0,0,0,0,-1,720,1226,0,0
-497,-202,0,0,0,0,0,0,0,0,0,-1,727,1226,0,0
-490,-202,0,0,0,0,0,0,0,0,0,-1,734,1226,0,0
-483,-202,0,0,0,0,0,0,0,0,0,-1,741,1226,0,0
-476,-202,0,0,0,0,0,0,0,0,0,-1,748,1226,0,0
-469,-202,0,0,0,0,0,0,0,0,0,-1,755,1226,0,0
-462,-202,0,0,0,0,0,0,0,0,0,-1,762,1226,0,0
-455,-202,0,0,0,0,0,0,0,0,0,-1,769,1226,0,0
-448,-202,0,0,0,0,0,0,0,0,0,-1,776,1226,0,0
-441,-202,0,0,0,0,0,0,0,0,0,-1,783,1226,0,0
-434,-202,0,0,0,0,0,0,0,0,0,-1,790,1226,0,0
-427,-202,0,0,0,0,0,0,0,0,0,-1,797,1226,0,0
-420,-202,0,0,0,0,0,0,0,0,0,-1,804,1226,0,0
-413,-202,0,0,0,0,0,0,0,0,0,-1,811,1226,0,0
-406,-202,0,0,0,0,0,0,0,0,0,-1,818,1226,0,0
-399,-202,0,0,0,0,0,0,0,0,0,-1,825,1226,0,0
-392,-202,0,0,0,0,0,0,0,0,0,-1,832,1226,0,0
-385,-202,0,0,0,0,0,0,0,0,0,-1,839,1226,0,0
-378,-202,0,0,0,0,0,0,0,0,0,-1,846,1226,0,0
-371,-202,0,0,0,0,0,0,0,0,0,-1,853,1226,0,0
-364,-202,0,0,0,0,0,0,0,0,0,-1,860,1226,0,0
-357,-202,0,0,0,0,0,0,0,0,0,-1,867,1226,0,0
-350,-202,0,0,0,0,0,0,0,0,0,-1,874,1226,0,0
-343,-202,0,0,0,0,0,0,0,0,0,-1,881,1226,0,0
-336,-202,0,0,0,0,0,0,0,0,0,-1,888,1226,0,0
-329,-202,0,0,0,0,0,0,0,0,0,-1,895,1226,0,0
-322,-202,0,0,0,0,0,0,0,0,0,-1,902,1226,0,0
-315,-202,0,0,0,0,0,0,0,0,0,-1,909,1226,0,0
-308,-202,0,0,0,0,0,0,0,0,0,-1,916,1226,0,0
-301,-202,0,0,0,0,0,0,0,0,0,-1,923,1226,0,0
-294,-202,0,0,0,0,0,0,0,0,0,-1,930,1226,0,0
-287,-202,0,0,0,0,0,0,0,0,0,-1,937,1226,0,0
-280,-202,0,0,0,0,0,0,0,0,0,-1,944,1226,0,0
-273,-202,0,0,0,0,0,0,0,0,0,-1,951,1226,0,0
-266,-202,0,0,0,0,0,0,0,0,0,-1,958,1226,0,0
-259,-202,0,0,0,0,0,0,0,0,0,-1,965,1226,0,0
-252,-202,0,0,0,0,0,0,0,0,0,-1,972,1226,0,0
-245,-202,0,0,0,0,0,0,0,0,0,-1,979,1226,0,0
-238,-202,0,0,0,0,0,0,0,0,0,-1,986,1226,0,0
-231,-202,0,0,0,0,0,0,0,0,0,-1,993,1226,0,0
-224,-202,0,0,0,0,0,0,0,0,0,-1,1000,1226,0,0
-217,-202,0,0,0,0,0,0,0,0,0,-1,1007,1226,0,0
-210,-202,0,0,0,0,0,0,0,0,0,-1,1014,1226,0,0
-203,-202,0,0,0,0,0,0,0,0,0,-1,1021,1226,0,0
-196,-202,0,0,0,0,0,0,0,0,0,-1,1028,1226,0,0
-189,-202,0,0,0,0,0,0,0,0,0,-1,1035,1226,0,0
-182,-202,0,0,0,0,0,0,0,0,0,-1,1042,1226,0,0
-175,-202,0,0,0,0,0,0,0,0,0,-1,1049,1226,0,0
-168,-202,0,0,0,0,0,0,0,0,0,-1,1056,1226,0,0
-161,-202,0,0,0,0,0,0,0,0,0,-1,1063,1226,0,0
-154,-202,0,0,0,0,0,0,0,0,0,-1,1070,1226,0,0
-147,-202,0,0,0,0,0,0,0,0,0,-1,1077,1226,0,0
-140,-202,0,0,0,0,0,0,0,0,0,-1,1084,1226,0,0
-133,-202,0,0,0,0,0,0,0,0,0,-1,1091,1226,0,0
-126,-202,0,0,0,0,0,0,0,0,0,-1,1098,1226,0,0
-119,-202,0,0,0,0,0,0,0,0,0,-1,1105,1226,0,0
-112,-202,0,0,0,0,0,0,0,0,0,-1,1112,1226,0,0
-105,-202,0,0,0,0,0,0,0,0,0,-1,1119,1226,0,0
-98,-202,0,0,0,0,0,0,0,0,0,-1,1126,1226,0,0
-91,-202,0,0,0,0,0,0,0,0,0,-1,1133,1226,0,0
-84,-202,0,0,0,0,0,0,0,0,0,-1,1140,1226,0,0
-77,-202,0,0,0,0,0,0,0,0,0,-1,1147,1226,0,0
-70,-202,0,0,0,0,0,0,0,0,0,-1,1154,1226,0,0
-63,-202,0,0,0,0,0,0,0,0,0,-1,1161,1226,0,0
-56,-202,0,0,0,0,0,0,0,0,0,-1,1168,1226,0,0
-49,-202,0,0,0,0,0,0,0,0,0,-1,1175,1226,0,0
-42,-202,0,0,0,0,0,0,0,0,0,-1,1182,1226,0,0
-35,-202,0,0,0,0,0,0,0,0,0,-1,1189,1226,0,0
-28,-202,0,0,0,0,0,0,0,0,0,-1,1196,1226,0,0
-21,-202,0,0,0,0,0,0,0,0,0,-1,1203,1226,0,0
-14,-202,0,0,0,0,0,0,0,0,0,-1,1210,1226,0,0
-7,-202,0,0,0,0,0,0,0,0,0,-1,1217,1226,0,0
0,-202,0,0,0,0,0,0,0,0,0,-1,1224,1226,0,0
7,-202,0,0,0,0,0,0,0,0,0,-1,1231,1226,0,0
14,-202,0,0,0,0,0,0,0,0,0,-1,1238,1226,0,0
21,-202,0,0,0,0,0,0,0,0,0,-1,1245,1226,0,0
28,-202,0,0,0,0,0,0,0,0,0,-1,1252,1226,0,0
35,-202,0,0,0,0,0,0,0,0,0,-1,1259,1226,0,0
42,-202,0,0,0,0,0,0,0,0,0,-1,1266,1226,0,0
49,-202,0,0,0,0,0,0,0,0,0,-1,1273,1226,0,0
56,-202,0,0,0,0,0,0,0,0,0,-1,1280,1226,0,0
63,-202,0,0,0,0,0,0,0,0,0,-1,1287,1226,0,0
70,-202,0,0,0,0,0,0,0,0,0,-1,1294,1226,0,0
77,-202,0,0,0,0,0,0,0,0,0,-1,1301,1226,0,0
84,-202,0,0,0,0,0,0,0,0,0,-1,1308,1226,0,0
91,-202,0,0,0,0,0,0,0,0,0,-1,1315,1226,0,0
98,-202,0,0,0,0,0,0,0,0,0,-1,1322,1226,0,0
105,-202,0,0,0,0,0,0,0,0,0,-1,1329,1226,0,0
112,-202,0,0,0,0,0,0,0,0,0,-1,1336,1226,0,0
119,-202,0,0,0,0,0,0,0,0,0,-1,1343,1226,0,0
126,-202,0,0,0,0,0,0,0,0,0,-1,1350,1226,0,0
133,-202,0,0,0,0,0,0,0,0,0,-1,1357,1226,0,0
140,-202,0,0,0,0,0,0,0,0,0,-1,1364,1226,0,0
147,-202,0,0,0,0,0,0,0,0,0,-1,1371,1226,0,0
154,-202,0,0,0,0,0,0,0,0,0,-1,1378,1226,0,0
161,-202,0,0,0,0,0,0,0,0,0,-1,1385,1226,0,0
168,-202,0,0,0,0,0,0,0,0,0,-1,1392,1226,0,0
175,-202,0,0,0,0,0,0,0,0,0,-1,1399,1226,0,0
182,-202,0,0,0,0,0,0,0,0,0,-1,1406,1226,0,0
189,-202,0,0,0,0,0,0,0,0,0,-1,1413,1226,0,0
196,-202,0,0,0,0,0,0,0,0,0,-1,1420,1226,0,0
203,-202,0,0,0,0,0,0,0,0,0,-1,1427,1226,0,0
210,-202,0,0,0,0,0,0,0,0,0,-1,1434,1226,0,0
217,-202,0,0,0,0,0,0,0,0,0,-1,1441,1226,0,0
224,-202,0,0,0,0,0,0,0,0,0,-1,1448,1226,0,0
231,-202,0,0,0,0,0,0,0,0,0,-1,1455,1226,0,0
238,-202,0,0,0,0,0,0,0,0,0,-1,1462,1226,0,0
245,-202,0,0,0,0,0,0,0,0,0,-1,1469,1226,0,0
252,-202,0,0,0,0,0,0,0,0,0,-1,1476,1226,0,0
259,-202,0,0,0,0,0,0,0,0,0,-1,1483,1226,0,0
266,-202,0,0,0,0,0,0,0,0,0,-1,1490,1226,0,0
273,-202,0,0,0,0,0,0,0,0,0,-1,1497,1226,0,0
280,-202,0,0,0,0,0,0,0,0,0,-1,1504,1226,0,0
287,-202,0,0,0,0,0,0,0,0,0,-1,1511,1226,0,0
294,-202,0,0,0,0,0,0,0,0,0,-1,1518,1226,0,0
301,-202,0,0,0,0,0,0,0,0,0,-1,1525,1226,0,0
308,-202,0,0,0,0,0,0,0,0,0,-1,1532,1226,0,0
315,-202,0,0,0,0,0,0,0,0,0,-1,1539,1226,0,0
322,-202,0,0,0,0,0,0,0,0,0,-1,1546,1226,0,0
329,-202,0,0,0,0,0,0,0,0,0,-1,1553,1226,0,0
336,-202,0,0,0,0,0,0,0,0,0,-1,1560,1226,0,0
343,-202,0,0,0,0,0,0,0,0,0,-1,1567,1226,0,0
350,-202,0,0,0,0,0,0,0,0,0,-1,1574,1226,0,0
357,-202,0,0,0,0,0,0,0,0,0,-1,1581,1226,0,0
364,-202,0,0,0,0,0,0,0,0,0,-1,1588,1226,0,0
371,-202,0,0,0,0,0,0,0,0,0,-1,1595,1226,0,0
378,-202,0,0,0,0,0,0,0,0,0,-1,1602,1226,0,0
385,-202,0,0,0,0,0,0,0,0,0,-1,1609,1226,0,0
392,-202,0,0,0,0,0,0,0,0,0,-1,1616,1226,0,0
399,-202,0,0,0,0,0,0,0,0,0,-1,1623,1226,0,0
406,-202,0,0,0,0,0,0,0,0,0,-1,1630,1226,0,0
413,-202,0,0,0,0,0,0,0,0,0,-1,1637,1226,0,0
420,-202,0,0,0,0,0,0,0,0,0,-1,1644,1226,0,0
427,-202,0,0,0,0,0,0,0,0,0,-1,1651,1226,0,0
434,-202,0,0,0,0,0,0,0,0,0,-1,1658,1226,0,0
441,-202,0,0,0,0,0,0,0,0,0,-1,1665,1226,0,0
448,-202,0,0,0,0,0,0,0,0,0,-1,1672,1226,0,0
455,-202,0,0,0,0,0,0,0,0,0,-1,1679,1226,0,0
462,-202,0,0,0,0,0,0,0,0,0,-1,1686,1226,0,0
469,-202,0,0,0,0,0,0,0,0,0,-1,1693,1226,0,0
476,-202,0,0,0,0,0,0,0,0,0,-1,1700,1226,0,0
483,-202,0,0,0,0,0,0,0,0,0,-1,1707,1226,0,0
490,-202,0,0,0,0,0,0,0,0,0,-1,1714,1226,0,0
497,-202,0,0,0,0,0,0,0,0,0,-1,1721,1226,0,0
504,-202,0,0,0,0,0,0,0,0,0,-1,1728,1226,0,0
511,-202,0,0,0,0,0,0,0,0,0,-1,1735,1226,0,0
518,-202,0,0,0,0,0,0,0,0,0,-1,1742,1226,0,0
525,-202,0,0,0,0,0,0,0,0,0,-1,1749,1226,0,0
532,-202,0,0,0,0,0,0,0,0,0,-1,1756,1226,0,0
539,-202,0,0,0,0,0,0,0,0,0,-1,1763,1226,0,0
546,-202,0,0,0,0,0,0,0,0,0,-1,1770,1226,0,0
553,-202,0,0,0,0,0,0,0,0,0,-1,1777,1226,0,0
560,-202,0,0,0,0,0,0,0,0,0,-1,1784,1226,0,0
567,-202,0,0,0,0,0,0,0,0,0,-1,1791,1226,0,0
574,-202,0,0,0,0,0,0,0,0,0,-1,1798,1226,0,0
581,-202,0,0,0,0,0,0,0,0,0,-1,1805,1226,0,0
588,-202,0,0,0,0,0,0,0,0,0,-1,1812,1226,0,0
595,-202,0,0,0,0,0,0,0,0,0,-1,1819,1226,0,0
602,-202,0,0,0,0,0,0,0,0,0,-1,1826,1226,0,0
609,-202,0,0,0,0,0,0,0,0,0,-1,1833,1226,0,0
616,-202,0,0,0,0,0,0,0,0,0,-1,1840,1226,0,0
623,-202,0,0,0,0,0,0,0,0,0,-1,1847,1226,0,0
630,-202,9.5968,1.17236,-0.00244954,-0.000795289,-0.000515808,-0.000647635,-0.00259719,-1.29199,0.00156103,0.0355875,1854,1226,9.5968,-1.17242
637,-202,9.59363,1.36157,-0.000907156,0.00326141,0.000915244,0.00345351,-0.00109925,1.36391,0.00274318,0.0330552,1861,1226,9.59367,-1.36155
644,-202,9.6311,1.43286,-0.000566208,0.00552535,0.00212557,0.00619371,-0.00123457,1.26615,0.00459627,0.0312481,1868,1226,9.63115,-1.43292
651,-202,9.61938,1.34131,-0.000446599,0.00664159,0.00322803,0.00789132,-0.00169633,1.20142,0.00590807,0.0255118,1875,1226,9.61939,-1.34128
658,-202,9.59448,1.32117,-0.000423836,0.00679441,0.00394541,0.00853244,-0.00216187,1.15585,0.00652932,0.0218746,1882,1226,9.59447,-1.32114
665,-202,9.61633,1.28882,-0.000532385,0.00628464,0.00429093,0.00835609,-0.00260384,1.12104,0.00661184,0.020461,1889,1226,9.61636,-1.28885
672,-202,9.66724,1.3064,-0.0007433,0.00537025,0.00434699,0.00762762,-0.00300068,1.09183,0.00632711,0.0410916,1896,1226,9.66722,-1.30641
679,-202,9.68811,1.43481,-0.00101207,0.00438316,0.00420808,0.00668405,-0.00331296,1.07043,0.00588014,0.0457731,1903,1226,9.6881,-1.43483
686,-202,9.64575,1.61462,-0.00124893,0.00350405,0.00385149,0.00565322,-0.00339811,1.06182,0.00527958,0.0452888,1910,1226,9.6457,-1.61466
693,-202,9.64001,1.54724,0,0,0,0,0,0,0,-1,1917,1226,9.64004,-1.54729
700,-202,8.67419,2.00085,-0.00138404,0.00189693,0.0029871,0.00366437,-0.00315148,1.03651,0.00393884,0.0158044,1924,1226,8.67422,-2.00085
707,-202,8.67761,1.95117,-0.00129868,0.00106651,0.00260365,0.00274355,-0.00297572,0.998571,0.00330293,0.0149759,1931,1226,8.67762,-1.95123
714,-202,8.70557,1.91345,-0.00148275,-2.11592e-05,0.00214735,0.00151635,-0.00302026,0.949413,0.00266675,0.014124,1938,1226,8.70556,-1.9134
721,-202,8.71289,1.84753,-0.00150738,-0.000820878,0.00161464,0.000486591,-0.00281485,0.890133,0.00205803,0.01184,1945,1226,8.7129,-1.84752
728,-202,8.69019,1.7865,-0.00141977,-0.00129641,0.000954651,-0.000401451,-0.00231473,0.817658,0.00142827,0.0102712,1952,1226,8.69015,-1.78648
735,-202,8.68323,1.7373,-0.00130226,-0.00133494,0.000821279,-0.000497156,-0.00214004,0.775452,0.00129323,0.0106663,1959,1226,8.68326,-1.73732
742,-202,8.69775,1.66418,-0.000695749,-0.00106474,0.00108147,0.00021685,-0.00197734,0.700913,0.00139614,0.0099958,1966,1226,8.69772,-1.66421
749,-202,8.6936,1.60938,-0.000222473,-0.00143694,0.00143601,0.000729419,-0.00238883,0.58537,0.00188338,0.0102649,1973,1226,8.69359,-1.60937
756,-202,8.70581,1.56641,-0.00010705,-0.00194153,0.00182661,0.00101969,-0.00306826,0.552714,0.00245698,0.010428,1980,1226,8.7058,-1.5664
763,-202,8.70166,1.5033,0.000121858,-0.00241356,0.00229524,0.00147621,-0.00376792,0.533087,0.00312258,0.0147583,1987,1226,8.7017,-1.50325
770,-202,8.77234,1.50525,0.000501978,-0.00286079,0.00278628,0.00207488,-0.0044337,0.513921,0.00383911,0.0402281,1994,1226,8.77238,-1.50519
777,-202,8.96997,1.61096,0.00114527,-0.00316667,0.00327006,0.00290613,-0.00492752,0.493954,0.00457268,0.0473289,2001,1226,8.97002,-1.61095
784,-202,8.81079,1.8728,0.00238289,-0.00310064,0.00366495,0.00421815,-0.0049359,0.464255,0.00529051,0.0433713,2008,1226,8.81083,-1.87286
791,-202,8.37268,1.953,0,0,0,0,0,0,0,-1,2015,1226,8.3727,-1.95302
798,-202,8.72913,0.847656,0,0,0,0,0,0,0,-1,2022,1226,8.72909,-0.847673
805,-202,0,0,0,0,0,0,0,0,0,-1,2029,1226,0,0
812,-202,0,0,0,0,0,0,0,0,0,-1,2036,1226,0,0
-700,-209,0,0,0,0,0,0,0,0,0,-1,524,1233,0,0
-693,-209,0,0,0,0,0,0,0,0,0,-1,531,1233,0,0
-686,-209,0,0,0,0,0,0,0,0,0,-1,538,1233,0,0
-679,-209,0.639465,-0.402588,-0.0721737,-0.0409382,0.00529235,-0.0400658,-0.073046,1.40743,0.0422392,0.0456336,545,1233,0.639451,0.40262
-672,-209,-0.172668,-0.504639,-0.0587307,-0.0270754,-0.000912649,-0.0270492,-0.058757,-1.542,0.0339589,0.043294,552,1233,-0.172683,0.504681
-665,-209,-1.9964,-0.0852051,-0.0472628,-0.0175709,-0.00389103,-0.0170694,-0.0477643,-1.44263,0.0279482,0.0449182,559,1233,-1.99641,0.085208
-658,-209,-2.22205,-0.026123,-0.0375774,-0.0109986,-0.00506473,-0.0100662,-0.0385098,-1.38874,0.0230621,0.0463523,566,1233,-2.22205,0.0261446
-651,-209,-2.56873,0.108521,-0.0294272,-0.0064845,-0.00521106,-0.00535637,-0.0305553,-1.3576,0.0188403,0.0448616,573,1233,-2.56875,-0.108576
-644,-209,-2.96173,0.484497,0,0,0,0,0,0,0,-1,580,1233,-2.96175,-0.484495
-637,-209,-3.04706,0.578491,-0.0169995,-0.0015017,-0.00405163,-0.000506393,-0.0179948,-1.32991,0.0118314,0.0398914,587,1233,-3.04706,-0.578451
-630,-209,-3.12054,0.655029,-0.0127876,-1.23968e-05,-0.00363863,0.000951267,-0.0137512,-1.3119,0.00950046,0.0221315,594,1233,-3.12054,-0.654969
-623,-209,-3.15131,0.742554,-0.00819458,0.00143724,-0.00323631,0.00242363,-0.00918097,-1.27495,0.00706841,0.0112887,601,1233,-3.15128,-0.742527
-616,-209,-3.15503,0.822632,-0.004823,0.00134426,-0.0021279,0.00200719,-0.00548594,-1.26878,0.00447887,0.0118991,608,1233,-3.15502,-0.822616
-609,-209,-3.16315,0.876343,-0.00307288,0.000651779,-0.00193169,0.00147267,-0.00389377,-1.16896,0.0032017,0.013989,615,1233,-3.16316,-0.876338
-602,-209,-3.16547,0.93811,-0.00221501,-2.25386e-06,-0.00190432,0.00109376,-0.00331102,-1.04856,0.00264832,0.0154196,622,1233,-3.16546,-0.93816
-595,-209,-3.15851,1.01465,-0.00170053,-0.000235687,-0.00217199,0.00132404,-0.00326026,-0.948017,0.0027243,0.0120998,629,1233,-3.15849,-1.01459
-588,-209,-3.13678,1.08044,-0.00179633,-0.000618384,-0.00262437,0.00148229,-0.00389701,-0.895782,0.00320835,0.0135142,636,1233,-3.13681,-1.08049
-581,-209,-3.13464,1.14307,-0.00224433,-0.000871072,-0.0027762,0.00130215,-0.00441755,-0.906628,0.0034617,0.0115839,643,1233,-3.13462,-1.14311
-574,-209,-3.1839,1.18042,-0.00280756,-0.00120061,-0.00289878,0.00100399,-0.00501216,-0.920592,0.00372152,0.0116168,650,1233,-3.18388,-1.18048
-567,-209,-3.23669,1.28967,-0.00302844,-0.00121033,-0.00311487,0.00112543,-0.0053642,-0.927376,0.00400434,0.0255296,657,1233,-3.23668,-1.28966
-560,-209,-3.17786,1.13538,-0.00364632,-0.00114053,-0.00304525,0.000899488,-0.00568634,-0.980557,0.00412355,0.0483202,664,1233,-3.17785,-1.13541
-553,-209,-3.82593,0.020752,0,0,0,0,0,0,0,-1,671,1233,-3.82592,-0.0207818
-546,-209,-3.78815,0.191528,-0.00468863,-0.000747435,-0.00209686,0.000159479,-0.00559555,-1.16258,0.00378465,0.0447582,678,1233,-3.78816,-0.191484
-539,-209,-3.98151,0.692993,-0.00494469,-0.000301239,-0.00133253,5.39802e-05,-0.00529991,-1.31028,0.0035514,0.037448,685,1233,-3.98153,-0.692986
-532,-209,-4.02185,0.732178,-0.00480739,0.000338194,-0.000310657,0.000356882,-0.00482608,-1.51071,0.0033427,0.0302424,692,1233,-4.02186,-0.732222
-525,-209,-4.0235,0.72644,-0.00414344,0.00123703,0.000965518,0.00140504,-0.00431145,1.39851,0.00343967,0.0311185,699,1233,-4.02347,-0.726484
-518,-209,-3.94104,0.585693,-0.00280066,0.00244541,0.00245676,0.00341626,-0.00377151,1.19446,0.00415155,0.0395521,706,1233,-3.94102,-0.585637
-511,-209,-4.06958,0.574097,-0.000132603,0.00399228,0.00388718,0.00633027,-0.0024706,1.0293,0.00524153,0.0410099,713,1233,-4.06959,-0.574145
-504,-209,0,0,0,0,0,0,0,0,0,-1,720,1233,0,0
-497,-209,0,0,0,0,0,0,0,0,0,-1,727,1233,0,0
-490,-209,0,0,0,0,0,0,0,0,0,-1,734,1233,0,0
-483,-209,0,0,0,0,0,0,0,0,0,-1,741,1233,0,0
-476,-209,0,0,0,0,0,0,0,0,0,-1,748,1233,0,0
-469,-209,0,0,0,0,0,0,0,0,0,-1,755,1233,0,0
-462,-209,0,0,0,0,0,0,0,0,0,-1,762,1233,0,0
-455,-209,0,0,0,0,0,0,0,0,0,-1,769,1233,0,0
-448,-209,0,0,0,0,0,0,0,0,0,-1,776,1233,0,0
-441,-209,0,0,0,0,0,0,0,0,0,-1,783,1233,0,0
-434,-209,0,0,0,0,0,0,0,0,0,-1,790,1233,0,0
-427,-209,0,0,0,0,0,0,0,0,0,-1,797,1233,0,0
-420,-209,0,0,0,0,0,0,0,0,0,-1,804,1233,0,0
-413,-209,0,0,0,0,0,0,0,0,0,-1,811,1233,0,0
-406,-209,0,0,0,0,0,0,0,0,0,-1,818,1233,0,0
-399,-209,0,0,0,0,0,0,0,0,0,-1,825,1233,0,0
-392,-209,0,0,0,0,0,0,0,0,0,-1,832,1233,0,0
-385,-209,0,0,0,0,0,0,0,0,0,-1,839,1233,0,0
-378,-209,0,0,0,0,0,0,0,0,0,-1,846,1233,0,0
-371,-209,0,0,0,0,0,0,0,0,0,-1,853,1233,0,0
-364,-209,0,0,0,0,0,0,0,0,0,-1,860,1233,0,0
-357,-209,0,0,0,0,0,0,0,0,0,-1,867,1233,0,0
-350,-209,0,0,0,0,0,0,0,0,0,-1,874,1233,0,0
-343,-209,0,0,0,0,0,0,0,0,0,-1,881,1233,0,0
-336,-209,0,0,0,0,0,0,0,0,0,-1,888,1233,0,0
-329,-209,0,0,0,0,0,0,0,0,0,-1,895,1233,0,0
-322,-209,0,0,0,0,0,0,0,0,0,-1,902,1233,0,0
-315,-209,0,0,0,0,0,0,0,0,0,-1,909,1233,0,0
-308,-209,0,0,0,0,0,0,0,0,0,-1,916,1233,0,0
-301,-209,0,0,0,0,0,0,0,0,0,-1,923,1233,0,0
-294,-209,0,0,0,0,0,0,0,0,0,-1,930,1233,0,0
-287,-209,0,0,0,0,0,0,0,0,0,-1,937,1233,0,0
-280,-209,0,0,0,0,0,0,0,0,0,-1,944,1233,0,0
-273,-209,0,0,0,0,0,0,0,0,0,-1,951,1233,0,0
-266,-209,0,0,0,0,0,0,0,0,0,-1,958,1233,0,0
-259,-209,0,0,0,0,0,0,0,0,0,-1,965,1233,0,0
-252,-209,0,0,0,0,0,0,0,0,0,-1,972,1233,0,0
-245,-209,0,0,0,0,0,0,0,0,0,-1,979,1233,0,0
-238,-209,0,0,0,0,0,0,0,0,0,-1,986,1233,0,0
-231,-209,0,0,0,0,0,0,0,0,0,-1,993,1233,0,0
-224,-209,0,0,0,0,0,0,0,0,0,-1,1000,1233,0,0
-217,-209,0,0,0,0,0,0,0,0,0,-1,1007,1233,0,0
-210,-209,0,0,0,0,0,0,0,0,0,-1,1014,1233,0,0
-203,-209,0,0,0,0,0,0,0,0,0,-1,1021,1233,0,0
-196,-209,0,0,0,0,0,0,0,0,0,-1,1028,1233,0,0
-189,-209,0,0,0,0,0,0,0,0,0,-1,1035,1233,0,0
-182,-209,0,0,0,0,0,0,0,0,0,-1,1042,1233,0,0
-175,-209,0,0,0,0,0,0,0,0,0,-1,1049,1233,0,0
-168,-209,0,0,0,0,0,0,0,0,0,-1,1056,1233,0,0
-161,-209,0,0,0,0,0,0,0,0,0,-1,1063,1233,0,0
-154,-209,0,0,0,0,0,0,0,0,0,-1,1070,1233,0,0
-147,-209,0,0,0,0,0,0,0,0,0,-1,1077,1233,0,0
-140,-209,0,0,0,0,0,0,0,0,0,-1,1084,1233,0,0
-133,-209,0,0,0,0,0,0,0,0,0,-1,1091,1233,0,0
-126,-209,0,0,0,0,0,0,0,0,0,-1,1098,1233,0,0
-119,-209,0,0,0,0,0,0,0,0,0,-1,1105,1233,0,0
-112,-209,0,0,0,0,0,0,0,0,0,-1,1112,1233,0,0
-105,-209,0,0,0,0,0,0,0,0,0,-1,1119,1233,0,0
-98,-209,0,0,0,0,0,0,0,0,0,-1,1126,1233,0,0
-91,-209,0,0,0,0,0,0,0,0,0,-1,1133,1233,0,0
-84,-209,0,0,0,0,0,0,0,0,0,-1,1140,1233,0,0
-77,-209,0,0,0,0,0,0,0,0,0,-1,1147,1233,0,0
-70,-209,0,0,0,0,0,0,0,0,0,-1,1154,1233,0,0
-63,-209,0,0,0,0,0,0,0,0,0,-1,1161,1233,0,0
-56,-209,0,0,0,0,0,0,0,0,0,-1,1168,1233,0,0
-49,-209,0,0,0,0,0,0,0,0,0,-1,1175,1233,0,0
-42,-209,0,0,0,0,0,0,0,0,0,-1,1182,1233,0,0
-35,-209,0,0,0,0,0,0,0,0,0,-1,1189,1233,0,0
-28,-209,0,0,0,0,0,0,0,0,0,-1,1196,1233,0,0
-21,-209,0,0,0,0,0,0,0,0,0,-1,1203,1233,0,0
-14,-209,0,0,0,0,0,0,0,0,0,-1,1210,1233,0,0
-7,-209,0,0,0,0,0,0,0,0,0,-1,1217,1233,0,0
0,-209,0,0,0,0,0,0,0,0,0,-1,1224,1233,0,0
7,-209,0,0,0,0,0,0,0,0,0,-1,1231,1233,0,0
14,-209,0,0,0,0,0,0,0,0,0,-1,1238,1233,0,0
21,-209,0,0,0,0,0,0,0,0,0,-1,1245,1233,0,0
28,-209,0,0,0,0,0,0,0,0,0,-1,1252,1233,0,0
35,-209,0,0,0,0,0,0,0,0,0,-1,1259,1233,0,0
42,-209,0,0,0,0,0,0,0,0,0,-1,1266,1233,0,0
49,-209,0,0,0,0,0,0,0,0,0,-1,1273,1233,0,0
56,-209,0,0,0,0,0,0,0,0,0,-1,1280,1233,0,0
63,-209,0,0,0,0,0,0,0,0,0,-1,1287,1233,0,0
70,-209,0,0,0,0,0,0,0,0,0,-1,1294,1233,0,0
77,-209,0,0,0,0,0,0,0,0,0,-1,1301,1233,0,0
84,-209,0,0,0,0,0,0,0,0,0,-1,1308,1233,0,0
91,-209,0,0,0,0,0,0,0,0,0,-1,1315,1233,0,0
98,-209,0,0,0,0,0,0,0,0,0,-1,1322,1233,0,0
105,-209,0,0,0,0,0,0,0,0,0,-1,1329,1233,0,0
112,-209,0,0,0,0,0,0,0,0,0,-1,1336,1233,0,0
119,-209,0,0,0,0,0,0,0,0,0,-1,1343,1233,0,0
126,-209,0,0,0,0,0,0,0,0,0,-1,1350,1233,0,0
133,-209,0,0,0,0,0,0,0,0,0,-1,1357,1233,0,0
140,-209,0,0,0,0,0,0,0,0,0,-1,1364,1233,0,0
147,-209,0,0,0,0,0,0,0,0,0,-1,1371,1233,0,0
154,-209,0,0,0,0,0,0,0,0,0,-1,1378,1233,0,0
161,-209,0,0,0,0,0,0,0,0,0,-1,1385,1233,0,0
168,-209,0,0,0,0,0,0,0,0,0,-1,1392,1233,0,0
175,-209,0,0,0,0,0,0,0,0,0,-1,1399,1233,0,0
182,-209,0,0,0,0,0,0,0,0,0,-1,1406,1233,0,0
189,-209,0,0,0,0,0,0,0,0,0,-1,1413,1233,0,0
196,-209,0,0,0,0,0,0,0,0,0,-1,1420,1233,0,0
203,-209,0,0,0,0,0,0,0,0,0,-1,1427,1233,0,0
210,-209,0,0,0,0,0,0,0,0,0,-1,1434,1233,0,0
217,-209,0,0,0,0,0,0,0,0,0,-1,1441,1233,0,0
224,-209,0,0,0,0,0,0,0,0,0,-1,1448,1233,0,0
231,-209,0,0,0,0,0,0,0,0,0,-1,1455,1233,0,0
238,-209,0,0,0,0,0,0,0,0,0,-1,1462,1233,0,0
245,-209,0,0,0,0,0,0,0,0,0,-1,1469,1233,0,0
252,-209,0,0,0,0,0,0,0,0,0,-1,1476,1233,0,0
259,-209,0,0,0,0,0,0,0,0,0,-1,1483,1233,0,0
266,-209,0,0,0,0,0,0,0,0,0,-1,1490,1233,0,0
273,-209,0,0,0,0,0,0,0,0,0,-1,1497,1233,0,0
280,-209,0,0,0,0,0,0,0,0,0,-1,1504,1233,0,0
287,-209,0,0,0,0,0,0,0,0,0,-1,1511,1233,0,0
294,-209,0,0,0,0,0,0,0,0,0,-1,1518,1233,0,0
301,-209,0,0,0,0,0,0,0,0,0,-1,1525,1233,0,0
308,-209,0,0,0,0,0,0,0,0,0,-1,1532,1233,0,0
315,-209,0,0,0,0,0,0,0,0,0,-1,1539,1233,0,0
322,-209,0,0,0,0,0,0,0,0,0,-1,1546,1233,0,0
329,-209,0,0,0,0,0,0,0,0,0,-1,1553,1233,0,0
336,-209,0,0,0,0,0,0,0,0,0,-1,1560,1233,0,0
343,-209,0,0,0,0,0,0,0,0,0,-1,1567,1233,0,0
350,-209,0,0,0,0,0,0,0,0,0,-1,1574,1233,0,0
357,-209,0,0,0,0,0,0,0,0,0,-1,1581,1233,0,0
364,-209,0,0,0,0,0,0,0,0,0,-1,1588,1233,0,0
371,-209,0,0,0,0,0,0,0,0,0,-1,1595,1233,0,0
378,-209,0,0,0,0,0,0,0,0,0,-1,1602,1233,0,0
385,-209,0,0,0,0,0,0,0,0,0,-1,1609,1233,0,0
392,-209,0,0,0,0,0,0,0,0,0,-1,1616,1233,0,0
399,-209,0,0,0,0,0,0,0,0,0,-1,1623,1233,0,0
406,-209,0,0,0,0,0,0,0,0,0,-1,1630,1233,0,0
413,-209,0,0,0,0,0,0,0,0,0,-1,1637,1233,0,0
420,-209,0,0,0,0,0,0,0,0,0,-1,1644,1233,0,0
427,-209,0,0,0,0,0,0,0,0,0,-1,1651,1233,0,0
434,-209,0,0,0,0,0,0,0,0,0,-1,1658,1233,0,0
441,-209,0,0,0,0,0,0,0,0,0,-1,1665,1233,0,0
448,-209,0,0,0,0,0,0,0,0,0,-1,1672,1233,0,0
455,-209,0,0,0,0,0,0,0,0,0,-1,1679,1233,0,0
462,-209,0,0,0,0,0,0,0,0,0,-1,1686,1233,0,0
469,-209,0,0,0,0,0,0,0,0,0,-1,1693,1233,0,0
476,-209,0,0,0,0,0,0,0,0,0,-1,1700,1233,0,0
483,-209,0,0,0,0,0,0,0,0,0,-1,1707,1233,0,0
490,-209,0,0,0,0,0,0,0,0,0,-1,1714,1233,0,0
497,-209,0,0,0,0,0,0,0,0,0,-1,1721,1233,0,0
504,-209,0,0,0,0,0,0,0,0,0,-1,1728,1233,0,0
511,-209,0,0,0,0,0,0,0,0,0,-1,1735,1233,0,0
518,-209,0,0,0,0,0,0,0,0,0,-1,1742,1233,0,0
525,-209,0,0,0,0,0,0,0,0,0,-1,1749,1233,0,0
532,-209,0,0,0,0,0,0,0,0,0,-1,1756,1233,0,0
539,-209,0,0,0,0,0,0,0,0,0,-1,1763,1233,0,0
546,-209,0,0,0,0,0,0,0,0,0,-1,1770,1233,0,0
553,-209,0,0,0,0,0,0,0,0,0,-1,1777,1233,0,0
560,-209,0,0,0,0,0,0,0,0,0,-1,1784,1233,0,0
567,-209,0,0,0,0,0,0,0,0,0,-1,1791,1233,0,0
574,-209,0,0,0,0,0,0,0,0,0,-1,1798,1233,0,0
581,-209,0,0,0,0,0,0,0,0,0,-1,1805,1233,0,0
588,-209,0,0,0,0,0,0,0,0,0,-1,1812,1233,0,0
595,-209,0,0,0,0,0,0,0,0,0,-1,1819,1233,0,0
602,-209,0,0,0,0,0,0,0,0,0,-1,1826,1233,0,0
609,-209,0,0,0,0,0,0,0,0,0,-1,1833,1233,0,0
616,-209,0,0,0,0,0,0,0,0,0,-1,1840,1233,0,0
623,-209,9.37561,1.17712,-0.00125426,-0.00466886,-0.000550583,-0.00116767,-0.00475544,-0.155979,0.00286161,0.0351043,1847,1233,9.37562,-1.17709
630,-209,9.42371,1.15259,-0.00255069,6.22792e-05,-0.00112045,0.000476933,-0.00296535,-1.21635,0.00215355,0.0345685,1854,1233,9.42368,-1.15264
637,-209,9.55566,1.25745,-0.0012224,0.00447833,0.000773753,0.00458148,-0.00132555,1.43826,0.00357895,0.0338142,1861,1233,9.55567,-1.25743
644,-209,9.60535,1.32544,-0.000843837,0.00702967,0.00245388,0.00773184,-0.001546,1.2921,0.00573972,0.0287566,1868,1233,9.60529,-1.32538
651,-209,9.60547,1.32007,-0.000569526,0.00829401,0.00390007,0.00976572,-0.00204124,1.20996,0.00728683,0.0232352,1875,1233,9.60542,-1.32007
658,-209,9.59143,1.33276,-0.000371113,0.00848359,0.00484736,0.0106212,-0.0025087,1.15547,0.00804842,0.0210422,1882,1233,9.59144,-1.33279
665,-209,9.67578,1.2804,-0.000322667,0.00795947,0.0053401,0.010576,-0.0029392,1.1152,0.00820774,0.0353333,1889,1233,9.6758,-1.28038
672,-209,9.8252,1.22791,0,0,0,0,0,0,0,-1,1896,1233,9.82522,-1.22788
679,-209,9.92651,1.87793,0,0,0,0,0,0,0,-1,1903,1233,9.9265,-1.87797
686,-209,9.93774,1.78577,-0.000778383,0.00478902,0.00494924,0.00768369,-0.00367306,1.04157,0.00669172,0.0470056,1910,1233,9.93772,-1.78575
693,-209,8.48511,1.77356,-0.000939836,0.00375331,0.00441627,0.00640773,-0.00359425,1.0296,0.0058503,0.037049,1917,1233,8.48511,-1.77358
700,-209,8.63586,2.0343,-0.0008998,0.00272546,0.00391743,0.0052293,-0.00340364,1.00208,0.00502124,0.0152535,1924,1233,8.63582,-2.03432
707,-209,8.64502,1.94458,-0.000852482,0.00163489,0.00342537,0.00403537,-0.00325296,0.959538,0.00421599,0.0143636,1931,1233,8.64497,-1.94461
714,-209,8.65369,1.89233,-0.00103355,0.000291199,0.00280222,0.00250826,-0.00325062,0.901456,0.00333408,0.0122586,1938,1233,8.65363,-1.89234
721,-209,8.66345,1.83777,-0.00117594,-0.000660315,0.00211657,0.00121409,-0.00305034,0.846002,0.00253701,0.0120688,1945,1233,8.6634,-1.83774
728,-209,8.64404,1.771,-0.00137046,-0.00125095,0.00130475,-4.58956e-06,-0.00261682,0.80828,0.00174302,0.0117352,1952,1233,8.6441,-1.77103
735,-209,8.64319,1.7251,-0.00152955,-0.00145199,0.00121129,-0.000278856,-0.00270268,0.801401,0.0017164,0.0124766,1959,1233,8.64319,-1.72512
742,-209,8.6543,1.66467,-0.00116817,-0.00126736,0.00160559,0.000388586,-0.00282412,0.769959,0.00202474,0.0109254,1966,1233,8.65429,-1.66469
749,-209,8.64197,1.61877,-0.00142957,-0.0016878,0.00210709,0.000552362,-0.00366973,0.754799,0.00264987,0.00930262,1973,1233,8.64195,-1.61875
756,-209,8.63684,1.56299,-0.00204396,-0.00234386,0.00266028,0.000470597,-0.00485842,0.757244,0.00340666,0.00959571,1980,1233,8.63684,-1.56302
763,-209,8.61926,1.50867,-0.00287408,-0.00304158,0.003282,0.000325243,-0.0062409,0.772642,0.00427314,0.0160442,1987,1233,8.61924,-1.50866
770,-209,8.68677,1.49158,-0.00409514,-0.00377895,0.00389825,-3.55975e-05,-0.0078385,0.805665,0.00521384,0.0416727,1994,1233,8.68673,-1.49157
777,-209,8.8678,1.55042,-0.00593937,-0.00442778,0.00442632,-0.000693189,-0.00967396,0.869958,0.00623111,0.0481308,2001,1233,8.86779,-1.55042
784,-209,8.77234,1.58569,-0.00861917,-0.00469071,0.00470169,-0.00155944,-0.0117504,0.983264,0.00736902,0.0435434,2008,1233,8.77229,-1.58572
791,-209,8.55176,1.51428,-0.0123582,-0.00406465,0.00439125,-0.00217165,-0.0142512,1.16378,0.00886602,0.0427682,2015,1233,8.55177,-1.51424
798,-209,8.42346,1.41077,0,0,0,0,0,0,0,-1,2022,1233,8.42352,-1.41076
805,-209,0,0,0,0,0,0,0,0,0,-1,2029,1233,0,0
812,-209,0,0,0,0,0,0,0,0,0,-1,2036,1233,0,0
-700,-216,0,0,0,0,0,0,0,0,0,-1,524,1240,0,0
-693,-216,0,0,0,0,0,0,0,0,0,-1,531,1240,0,0
-686,-216,0,0,0,0,0,0,0,0,0,-1,538,1240,0,0
-679,-216,-0.172363,0.248535,-0.0722863,-0.0371899,0.00696721,-0.0358574,-0.0736188,1.38182,0.0425086,0.0443369,545,1240,-0.172346,-0.248572
-672,-216,-0.92511,-0.03479,-0.0584491,-0.0246112,0.000490193,-0.0246041,-0.0584562,1.55631,0.0338902,0.046157,552,1240,-0.92513,0.0347783
-665,-216,-2.00067,-0.0939941,0,0,0,0,0,0,0,-1,559,1240,-2.00069,0.0940551
-658,-216,-2.09735,-0.0151367,-0.0373554,-0.0100472,-0.00408057,-0.00945052,-0.0379521,-1.42559,0.0228133,0.0483187,566,1240,-2.09735,0.0151631
-651,-216,-2.37842,0.0831299,-0.0293502,-0.00586953,-0.00443302,-0.00506047,-0.0301593,-1.39028,0.0186496,0.0464161,573,1240,-2.37842,-0.0831548
-644,-216,-2.85864,0.74646,0,0,0,0,0,0,0,-1,580,1240,-2.85863,-0.746464
-637,-216,-2.99463,0.685425,-0.0171292,-0.00110044,-0.00360226,-0.000328092,-0.0179015,-1.35959,0.0118265,0.0432501,587,1240,-2.99463,-0.685477
-630,-216,-3.13391,0.586426,-0.0128832,0.000303483,-0.00320906,0.00104296,-0.0136226,-1.34431,0.00944862,0.0275647,594,1240,-3.13393,-0.586426
-623,-216,-3.08014,0.717529,-0.00826996,0.00163961,-0.00288449,0.00241807,-0.00904842,-1.3072,0.00697936,0.0123841,601,1240,-3.08013,-0.717553
-616,-216,-3.0968,0.83313,-0.00491666,0.00154742,-0.00193847,0.00208417,-0.0054534,-1.30067,0.0044944,0.0139236,608,1240,-3.09682,-0.833148
-609,-216,-3.10455,0.89624,-0.00304961,0.000957078,-0.00172264,0.00159587,-0.00368839,-1.21569,0.00312959,0.0135312,615,1240,-3.10455,-0.89626
-602,-216,-3.10193,0.94043,-0.00200452,0.000219787,-0.00169495,0.00113488,-0.00291961,-1.07574,0.00241528,0.0125125,622,1240,-3.10195,-0.940452
-595,-216,-3.07983,0.966187,-0.00122565,-0.000146793,-0.00196639,0.00135282,-0.00272526,-0.919266,0.00239851,0.0166185,629,1240,-3.07986,-0.966213
-588,-216,-3.06134,1.04443,-0.00107064,-0.00077889,-0.00254911,0.00162851,-0.00347805,-0.81398,0.00301204,0.0184555,636,1240,-3.06132,-1.04438
-581,-216,-3.07574,1.1532,-0.00131239,-0.00116812,-0.0028209,0.00158157,-0.00406208,-0.798181,0.00336164,0.015915,643,1240,-3.07576,-1.15317
-574,-216,-3.1001,1.23181,-0.00177972,-0.00165898,-0.0030377,0.00131895,-0.00475765,-0.795334,0.00369083,0.0123149,650,1240,-3.10009,-1.23182
-567,-216,-3.10773,1.36694,-0.00193103,-0.00177015,-0.0034159,0.00156625,-0.00526743,-0.797171,0.00413383,0.0218409,657,1240,-3.1077,-1.36698
-560,-216,-2.8233,1.31152,-0.0024667,-0.00176401,-0.00348889,0.00139119,-0.00562189,-0.835581,0.00428756,0.0408833,664,1240,-2.82328,-1.31158
-553,-216,-2.4776,1.27234,0,0,0,0,0,0,0,-1,671,1240,-2.47761,-1.27235
-546,-216,-3.66992,0.0371094,0,0,0,0,0,0,0,-1,678,1240,-3.66992,-0.0371658
-539,-216,-3.80029,0.573608,-0.0040685,-0.000826348,-0.00210714,0.000211135,-0.00510598,-1.11328,0.00347651,0.0409478,685,1240,-3.80027,-0.573645
-532,-216,-3.97467,0.678101,-0.00431966,-0.000105472,-0.0011476,0.000186774,-0.0046119,-1.32144,0.00313871,0.0400985,692,1240,-3.97466,-0.678148
-525,-216,-4.0293,0.711304,-0.00428245,0.000877229,0.000171009,0.000882891,-0.00428811,1.5377,0.00319397,0.0373145,699,1240,-4.0293,-0.711353
-518,-216,-3.90009,0.599854,-0.00388357,0.00213707,0.00187925,0.0026755,-0.00442199,1.29176,0.00413889,0.0396321,706,1240,-3.90012,-0.599904
-511,-216,-3.86725,0.553467,-0.00267769,0.00365504,0.00389248,0.00550637,-0.00452902,1.12684,0.00580309,0.0400559,713,1240,-3.86725,-0.553427
-504,-216,-3.9046,0.569092,-1.04943e-05,0.00487822,0.00532274,0.00829103,-0.00342331,1.00065,0.00695519,0.0404883,720,1240,-3.90461,-0.569145
-497,-216,0,0,0,0,0,0,0,0,0,-1,727,1240,0,0
-490,-216,0,0,0,0,0,0,0,0,0,-1,734,1240,0,0
-483,-216,0,0,0,0,0,0,0,0,0,-1,741,1240,0,0
-476,-216,0,0,0,0,0,0,0,0,0,-1,748,1240,0,0
-469,-216,0,0,0,0,0,0,0,0,0,-1,755,1240,0,0
-462,-216,0,0,0,0,0,0,0,0,0,-1,762,1240,0,0
-455,-216,0,0,0,0,0,0,0,0,0,-1,769,1240,0,0
-448,-216,0,0,0,0,0,0,0,0,0,-1,776,1240,0,0
-441,-216,0,0,0,0,0,0,0,0,0,-1,783,1240,0,0
-434,-216,0,0,0,0,0,0,0,0,0,-1,790,1240,0,0
-427,-216,0,0,0,0,0,0,0,0,0,-1,797,1240,0,0
-420,-216,0,0,0,0,0,0,0,0,0,-1,804,1240,0,0
-413,-216,0,0,0,0,0,0,0,0,0,-1,811,1240,0,0
-406,-216,0,0,0,0,0,0,0,0,0,-1,818,1240,0,0
-399,-216,0,0,0,0,0,0,0,0,0,-1,825,1240,0,0
-392,-216,0,0,0,0,0,0,0,0,0,-1,832,1240,0,0
-385,-216,0,0,0,0,0,0,0,0,0,-1,839,1240,0,0
-378,-216,0,0,0,0,0,0,0,0,0,-1,846,1240,0,0
-371,-216,0,0,0,0,0,0,0,0,0,-1,853,1240,0,0
-364,-216,0,0,0,0,0,0,0,0,0,-1,860,1240,0,0
-357,-216,0,0,0,0,0,0,0,0,0,-1,867,1240,0,0
-350,-216,0,0,0,0,0,0,0,0,0,-1,874,1240,0,0
-343,-216,0,0,0,0,0,0,0,0,0,-1,881,1240,0,0
-336,-216,0,0,0,0,0,0,0,0,0,-1,888,1240,0,0
-329,-216,0,0,0,0,0,0,0,0,0,-1,895,1240,0,0
-322,-216,0,0,0,0,0,0,0,0,0,-1,902,1240,0,0
-315,-216,0,0,0,0,0,0,0,0,0,-1,909,1240,0,0
-308,-216,0,0,0,0,0,0,0,0,0,-1,916,1240,0,0
-301,-216,0,0,0,0,0,0,0,0,0,-1,923,1240,0,0
-294,-216,0,0,0,0,0,0,0,0,0,-1,930,1240,0,0
-287,-216,0,0,0,0,0,0,0,0,0,-1,937,1240,0,0
-280,-216,0,0,0,0,0,0,0,0,0,-1,944,1240,0,0
-273,-216,0,0,0,0,0,0,0,0,0,-1,951,1240,0,0
-266,-216,0,0,0,0,0,0,0,0,0,-1,958,1240,0,0
-259,-216,0,0,0,0,0,0,0,0,0,-1,965,1240,0,0
-252,-216,0,0,0,0,0,0,0,0,0,-1,972,1240,0,0
-245,-216,0,0,0,0,0,0,0,0,0,-1,979,1240,0,0
-238,-216,0,0,0,0,0,0,0,0,0,-1,986,1240,0,0
-231,-216,0,0,0,0,0,0,0,0,0,-1,993,1240,0,0
-224,-216,0,0,0,0,0,0,0,0,0,-1,1000,1240,0,0
-217,-216,0,0,0,0,0,0,0,0,0,-1,1007,1240,0,0
-210,-216,0,0,0,0,0,0,0,0,0,-1,1014,1240,0,0
-203,-216,0,0,0,0,0,0,0,0,0,-1,1021,1240,0,0
-196,-216,0,0,0,0,0,0,0,0,0,-1,1028,1240,0,0
-189,-216,0,0,0,0,0,0,0,0,0,-1,1035,1240,0,0
-182,-216,0,0,0,0,0,0,0,0,0,-1,1042,1240,0,0
-175,-216,0,0,0,0,0,0,0,0,0,-1,1049,1240,0,0
-168,-216,0,0,0,0,0,0,0,0,0,-1,1056,1240,0,0
-161,-216,0,0,0,0,0,0,0,0,0,-1,1063,1240,0,0
-154,-216,0,0,0,0,0,0,0,0,0,-1,1070,1240,0,0
-147,-216,0,0,0,0,0,0,0,0,0,-1,1077,1240,0,0
-140,-216,0,0,0,0,0,0,0,0,0,-1,1084,1240,0,0
-133,-216,0,0,0,0,0,0,0,0,0,-1,1091,1240,0,0
-126,-216,0,0,0,0,0,0,0,0,0,-1,1098,1240,0,0
-119,-216,0,0,0,0,0,0,0,0,0,-1,1105,1240,0,0
-112,-216,0,0,0,0,0,0,0,0,0,-1,1112,1240,0,0
-105,-216,0,0,0,0,0,0,0,0,0,-1,1119,1240,0,0
-98,-216,0,0,0,0,0,0,0,0,0,-1,1126,1240,0,0
-91,-216,0,0,0,0,0,0,0,0,0,-1,1133,1240,0,0
-84,-216,0,0,0,0,0,0,0,0,0,-1,1140,1240,0,0
-77,-216,0,0,0,0,0,0,0,0,0,-1,1147,1240,0,0
-70,-216,0,0,0,0,0,0,0,0,0,-1,1154,1240,0,0
-63,-216,0,0,0,0,0,0,0,0,0,-1,1161,1240,0,0
-56,-216,0,0,0,0,0,0,0,0,0,-1,1168,1240,0,0
-49,-216,0,0,0,0,0,0,0,0,0,-1,1175,1240,0,0
-42,-216,0,0,0,0,0,0,0,0,0,-1,1182,1240,0,0
-35,-216,0,0,0,0,0,0,0,0,0,-1,1189,1240,0,0
-28,-216,0,0,0,0,0,0,0,0,0,-1,1196,1240,0,0
-21,-216,0,0,0,0,0,0,0,0,0,-1,1203,1240,0,0
-14,-216,0,0,0,0,0,0,0,0,0,-1,1210,1240,0,0
-7,-216,0,0,0,0,0,0,0,0,0,-1,1217,1240,0,0
0,-216,0,0,0,0,0,0,0,0,0,-1,1224,1240,0,0
7,-216,0,0,0,0,0,0,0,0,0,-1,1231,1240,0,0
14,-216,0,0,0,0,0,0,0,0,0,-1,1238,1240,0,0
21,-216,0,0,0,0,0,0,0,0,0,-1,1245,1240,0,0
28,-216,0,0,0,0,0,0,0,0,0,-1,1252,1240,0,0
35,-216,0,0,0,0,0,0,0,0,0,-1,1259,1240,0,0
42,-216,0,0,0,0,0,0,0,0,0,-1,1266,1240,0,0
49,-216,0,0,0,0,0,0,0,0,0,-1,1273,1240,0,0
56,-216,0,0,0,0,0,0,0,0,0,-1,1280,1240,0,0
63,-216,0,0,0,0,0,0,0,0,0,-1,1287,1240,0,0
70,-216,0,0,0,0,0,0,0,0,0,-1,1294,1240,0,0
77,-216,0,0,0,0,0,0,0,0,0,-1,1301,1240,0,0
84,-216,0,0,0,0,0,0,0,0,0,-1,1308,1240,0,0
91,-216,0,0,0,0,0,0,0,0,0,-1,1315,1240,0,0
98,-216,0,0,0,0,0,0,0,0,0,-1,1322,1240,0,0
105,-216,0,0,0,0,0,0,0,0,0,-1,1329,1240,0,0
112,-216,0,0,0,0,0,0,0,0,0,-1,1336,1240,0,0
119,-216,0,0,0,0,0,0,0,0,0,-1,1343,1240,0,0
126,-216,0,0,0,0,0,0,0,0,0,-1,1350,1240,0,0
133,-216,0,0,0,0,0,0,0,0,0,-1,1357,1240,0,0
140,-216,0,0,0,0,0,0,0,0,0,-1,1364,1240,0,0
147,-216,0,0,0,0,0,0,0,0,0,-1,1371,1240,0,0
154,-216,0,0,0,0,0,0,0,0,0,-1,1378,1240,0,0
161,-216,0,0,0,0,0,0,0,0,0,-1,1385,1240,0,0
168,-216,0,0,0,0,0,0,0,0,0,-1,1392,1240,0,0
175,-216,0,0,0,0,0,0,0,0,0,-1,1399,1240,0,0
182,-216,0,0,0,0,0,0,0,0,0,-1,1406,1240,0,0
189,-216,0,0,0,0,0,0,0,0,0,-1,1413,1240,0,0
196,-216,0,0,0,0,0,0,0,0,0,-1,1420,1240,0,0
203,-216,0,0,0,0,0,0,0,0,0,-1,1427,1240,0,0
210,-216,0,0,0,0,0,0,0,0,0,-1,1434,1240,0,0
217,-216,0,0,0,0,0,0,0,0,0,-1,1441,1240,0,0
224,-216,0,0,0,0,0,0,0,0,0,-1,1448,1240,0,0
231,-216,0,0,0,0,0,0,0,0,0,-1,1455,1240,0,0
238,-216,0,0,0,0,0,0,0,0,0,-1,1462,1240,0,0
245,-216,0,0,0,0,0,0,0,0,0,-1,1469,1240,0,0
252,-216,0,0,0,0,0,0,0,0,0,-1,1476,1240,0,0
259,-216,0,0,0,0,0,0,0,0,0,-1,1483,1240,0,0
266,-216,0,0,0,0,0,0,0,0,0,-1,1490,1240,0,0
273,-216,0,0,0,0,0,0,0,0,0,-1,1497,1240,0,0
280,-216,0,0,0,0,0,0,0,0,0,-1,1504,1240,0,0
287,-216,0,0,0,0,0,0,0,0,0,-1,1511,1240,0,0
294,-216,0,0,0,0,0,0,0,0,0,-1,1518,1240,0,0
301,-216,0,0,0,0,0,0,0,0,0,-1,1525,1240,0,0
308,-216,0,0,0,0,0,0,0,0,0,-1,1532,1240,0,0
315,-216,0,0,0,0,0,0,0,0,0,-1,1539,1240,0,0
322,-216,0,0,0,0,0,0,0,0,0,-1,1546,1240,0,0
329,-216,0,0,0,0,0,0,0,0,0,-1,1553,1240,0,0
336,-216,0,0,0,0,0,0,0,0,0,-1,1560,1240,0,0
343,-216,0,0,0,0,0,0,0,0,0,-1,1567,1240,0,0
350,-216,0,0,0,0,0,0,0,0,0,-1,1574,1240,0,0
357,-216,0,0,0,0,0,0,0,0,0,-1,1581,1240,0,0
364,-216,0,0,0,0,0,0,0,0,0,-1,1588,1240,0,0
371,-216,0,0,0,0,0,0,0,0,0,-1,1595,1240,0,0
378,-216,0,0,0,0,0,0,0,0,0,-1,1602,1240,0,0
385,-216,0,0,0,0,0,0,0,0,0,-1,1609,1240,0,0
392,-216,0,0,0,0,0,0,0,0,0,-1,1616,1240,0,0
399,-216,0,0,0,0,0,0,0,0,0,-1,1623,1240,0,0
406,-216,0,0,0,0,0,0,0,0,0,-1,1630,1240,0,0
413,-216,0,0,0,0,0,0,0,0,0,-1,1637,1240,0,0
420,-216,0,0,0,0,0,0,0,0,0,-1,1644,1240,0,0
427,-216,0,0,0,0,0,0,0,0,0,-1,1651,1240,0,0
434,-216,0,0,0,0,0,0,0,0,0,-1,1658,1240,0,0
441,-216,0,0,0,0,0,0,0,0,0,-1,1665,1240,0,0
448,-216,0,0,0,0,0,0,0,0,0,-1,1672,1240,0,0
455,-216,0,0,0,0,0,0,0,0,0,-1,1679,1240,0,0
462,-216,0,0,0,0,0,0,0,0,0,-1,1686,1240,0,0
469,-216,0,0,0,0,0,0,0,0,0,-1,1693,1240,0,0
476,-216,0,0,0,0,0,0,0,0,0,-1,1700,1240,0,0
483,-216,0,0,0,0,0,0,0,0,0,-1,1707,1240,0,0
490,-216,0,0,0,0,0,0,0,0,0,-1,1714,1240,0,0
497,-216,0,0,0,0,0,0,0,0,0,-1,1721,1240,0,0
504,-216,0,0,0,0,0,0,0,0,0,-1,1728,1240,0,0
511,-216,0,0,0,0,0,0,0,0,0,-1,1735,1240,0,0
518,-216,0,0,0,0,0,0,0,0,0,-1,1742,1240,0,0
525,-216,0,0,0,0,0,0,0,0,0,-1,1749,1240,0,0
532,-216,0,0,0,0,0,0,0,0,0,-1,1756,1240,0,0
539,-216,0,0,0,0,0,0,0,0,0,-1,1763,1240,0,0
546,-216,0,0,0,0,0,0,0,0,0,-1,1770,1240,0,0
553,-216,0,0,0,0,0,0,0,0,0,-1,1777,1240,0,0
560,-216,0,0,0,0,0,0,0,0,0,-1,1784,1240,0,0
567,-216,0,0,0,0,0,0,0,0,0,-1,1791,1240,0,0
574,-216,0,0,0,0,0,0,0,0,0,-1,1798,1240,0,0
581,-216,0,0,0,0,0,0,0,0,0,-1,1805,1240,0,0
588,-216,0,0,0,0,0,0,0,0,0,-1,1812,1240,0,0
595,-216,0,0,0,0,0,0,0,0,0,-1,1819,1240,0,0
602,-216,0,0,0,0,0,0,0,0,0,-1,1826,1240,0,0
609,-216,0,0,0,0,0,0,0,0,0,-1,1833,1240,0,0
616,-216,0,0,0,0,0,0,0,0,0,-1,1840,1240,0,0
623,-216,9.38013,1.13342,-0.00179735,-0.00270011,-0.000972409,-0.00117667,-0.0033208,-0.568104,0.00194419,0.0421853,1847,1240,9.38016,-1.13338
630,-216,9.43689,1.00195,-0.00257795,0.00189978,-0.00114249,0.00217444,-0.00285261,-1.33487,0.00291116,0.0391744,1854,1240,9.4369,-1.00197
637,-216,9.552,1.1925,-0.00120209,0.00599323,0.00103049,0.00613791,-0.00134677,1.43131,0.00460695,0.0325066,1861,1240,9.55196,-1.19248
644,-216,9.57166,1.30115,-0.00059551,0.00839506,0.00299522,0.00930153,-0.00150198,1.27692,0.00675755,0.0252764,1868,1240,9.57162,-1.30117
651,-216,9.59192,1.3313,-9.43077e-05,0.00956905,0.00462945,0.0114289,-0.00195419,1.18878,0.00834728,0.022005,1875,1240,9.59192,-1.33128
658,-216,9.62549,1.37744,0.000253261,0.00972075,0.00570954,0.0124037,-0.00242968,1.13151,0.00918675,0.0317631,1882,1240,9.62546,-1.3775
665,-216,9.76624,1.26843,0.000399486,0.00919728,0.00630641,0.0124874,-0.00289065,1.08993,0.00943723,0.044739,1889,1240,9.76629,-1.26847
672,-216,9.93628,1.16235,0,0,0,0,0,0,0,-1,1896,1240,9.93625,-1.16237
679,-216,10.1719,1.10864,0,0,0,0,0,0,0,-1,1903,1240,10.1719,-1.10869
686,-216,8.53723,1.95593,0,0,0,0,0,0,0,-1,1910,1240,8.5372,-1.95588
693,-216,8.56677,2.00439,-0.000170715,0.00463076,0.00540925,0.00814809,-0.00368805,0.99425,0.00699344,0.0311079,1917,1240,8.56681,-2.00444
700,-216,8.60046,2.0321,-0.000244346,0.00343478,0.00480881,0.00674387,-0.00355343,0.968081,0.00603952,0.0132799,1924,1240,8.60048,-2.03212
707,-216,8.61621,1.93933,-0.000328235,0.00216872,0.00416231,0.00526575,-0.00342527,0.931103,0.00505513,0.0140723,1931,1240,8.61623,-1.93935
714,-216,8.61865,1.87939,-0.000589419,0.000653921,0.00332138,0.00341131,-0.00334681,0.877914,0.00390186,0.0132445,1938,1240,8.61871,-1.87943
721,-216,8.604,1.8269,-0.000869131,-0.000368683,0.00246274,0.00185651,-0.00309432,0.836026,0.00288799,0.0134788,1945,1240,8.60404,-1.8269
728,-216,8.60876,1.75903,-0.00134465,-0.00100027,0.00149732,0.000334735,-0.00267965,0.842646,0.00190782,0.0118239,1952,1240,8.60878,-1.75909
735,-216,8.6239,1.71631,-0.00174161,-0.00129577,0.00139006,-0.00011087,-0.00292651,0.864904,0.00191512,0.0105535,1959,1240,8.62395,-1.71629
742,-216,8.6073,1.68555,-0.00159034,-0.00110885,0.00183921,0.000505296,-0.00320449,0.850476,0.00232315,0.011042,1966,1240,8.60728,-1.68553
749,-216,8.60083,1.62793,-0.00206822,-0.00152502,0.00243674,0.000655212,-0.00424845,0.8409,0.00307407,0.00881858,1973,1240,8.60081,-1.62794
756,-216,8.57666,1.56091,-0.0029397,-0.00226188,0.00312254,0.000540086,-0.00574166,0.839455,0.00401992,0.00881732,1980,1240,8.57667,-1.56092
763,-216,8.55249,1.51282,-0.00408399,-0.00318611,0.00392567,0.000316207,-0.00758631,0.842331,0.00516617,0.0138041,1987,1240,8.55252,-1.51285
770,-216,8.60168,1.49072,-0.0056885,-0.00435192,0.00479253,-0.000181314,-0.00985911,0.854673,0.00651314,0.0365236,1994,1240,8.60169,-1.49078
777,-216,8.78369,1.64758,-0.00797691,-0.00573375,0.0056509,-0.0010942,-0.0126165,0.883364,0.00807101,0.0484659,2001,1240,8.78371,-1.64761
784,-216,8.74292,1.69409,-0.0111544,-0.00720204,0.00635844,-0.00251978,-0.0158367,0.936066,0.00982617,0.0475889,2008,1240,8.74288,-1.69408
791,-216,8.52136,1.18323,-0.015451,-0.00850403,0.00663563,-0.00448773,-0.0194673,1.02652,0.011771,0.0432234,2015,1240,8.52134,-1.18326
798,-216,0,0,0,0,0,0,0,0,0,-1,2022,1240,0,0
805,-216,0,0,0,0,0,0,0,0,0,-1,2029,1240,0,0
812,-216,0,0,0,0,0,0,0,0,0,-1,2036,1240,0,0
-700,-223,0,0,0,0,0,0,0,0,0,-1,524,1247,0,0
-693,-223,0,0,0,0,0,0,0,0,0,-1,531,1247,0,0
-686,-223,0,0,0,0,0,0,0,0,0,-1,538,1247,0,0
-679,-223,0,0,0,0,0,0,0,0,0,-1,545,1247,0,0
-672,-223,-1.80066,0.403198,-0.042839,-0.019441,0.00191654,-0.0192851,-0.0429949,1.48961,0.0248669,0.046558,552,1247,-1.80064,-0.403141
-665,-223,-2.33051,-0.0164795,-0.0308937,-0.0114326,-0.000802023,-0.0113996,-0.0309267,-1.52968,0.0180599,0.0471633,559,1247,-2.33052,0.01654
-658,-223,-2.38165,-0.103882,-0.022004,-0.00598151,-0.00188525,-0.00576268,-0.0222228,-1.45524,0.0133166,0.0445678,566,1247,-2.38167,0.103833
-651,-223,-2.20959,-0.00488281,0,0,0,0,0,0,0,-1,573,1247,-2.20958,0.00493785
-644,-223,-2.99634,0.151245,0,0,0,0,0,0,0,-1,580,1247,-2.99635,-0.151272
-637,-223,-3.0108,0.651855,0,0,0,0,0,0,0,-1,587,1247,-3.01078,-0.65183
-630,-223,-3.08478,0.602661,-0.00455426,0.00241934,-0.00110843,0.00259129,-0.00472621,-1.4169,0.00428427,0.0351537,594,1247,-3.08476,-0.60264
-623,-223,-3.02246,0.752319,-0.00177058,0.00326206,-0.00102596,0.00346317,-0.0019717,-1.37722,0.00317696,0.0190942,601,1247,-3.02243,-0.752273
-616,-223,-3.04749,0.85498,3.19941e-06,0.00284609,-0.000456898,0.00291772,-6.84269e-05,-1.4153,0.00196835,0.0149573,608,1247,-3.04748,-0.854936
-609,-223,-3.0459,0.907471,0.000569645,0.00204828,-0.000473138,0.00218671,0.000431209,-1.28615,0.00133745,0.0118048,615,1247,-3.04591,-0.907448
-602,-223,-3.04437,0.93689,0.000628597,0.00101512,-0.000712415,0.00156002,8.36946e-05,-0.917849,0.00101327,0.0140615,622,1247,-3.04435,-0.936857
-595,-223,-3.02319,0.996338,0.000620181,0.000284299,-0.00123676,0.00170035,-0.00079587,-0.717915,0.00147239,0.0189376,629,1247,-3.02318,-0.996374
-588,-223,-3.00177,1.06982,0.000176219,-0.000774471,-0.00219185,0.00194367,-0.00254192,-0.678617,0.00259743,0.020545,636,1247,-3.00174,-1.06977
-581,-223,-3.00745,1.1731,-0.000186809,-0.00148737,-0.00314006,0.00236959,-0.00404377,-0.683296,0.00374458,0.0193289,643,1247,-3.00743,-1.17315
-574,-223,-3.04974,1.21814,-0.000411073,-0.00218874,-0.00366613,0.00247243,-0.00507225,-0.666471,0.00444129,0.0167377,650,1247,-3.04977,-1.21811
-567,-223,-2.9895,1.32288,-0.000334396,-0.00244726,-0.00438639,0.00312099,-0.00590264,-0.667227,0.00529167,0.0212531,657,1247,-2.98951,-1.32286
-560,-223,-2.83777,1.28662,-0.000623533,-0.00255299,-0.00477861,0.00328676,-0.00646328,-0.685794,0.00572791,0.031438,664,1247,-2.83776,-1.28664
-553,-223,-2.64624,0.410156,-0.00106935,-0.00253317,-0.00476752,0.00302211,-0.00662463,-0.709233,0.00569753,0.0434985,671,1247,-2.64621,-0.410142
-546,-223,-3.64868,0.596313,0,0,0,0,0,0,0,-1,678,1247,-3.64871,-0.596369
-539,-223,-3.57001,0.494141,-0.00197176,-0.00158556,-0.00415558,0.00238141,-0.00593873,-0.808616,0.00494782,0.0416814,685,1247,-3.56998,-0.494177
-532,-223,-3.75635,0.663208,-0.00245234,-0.000745196,-0.00332091,0.00183008,-0.00502762,-0.91119,0.00410025,0.0440212,692,1247,-3.75632,-0.663225
-525,-223,-4.07373,0.76355,-0.00295785,0.00043114,-0.00193408,0.00130802,-0.00383473,-1.14513,0.00308632,0.0450596,699,1247,-4.07373,-0.763572
-518,-223,-3.96844,0.594604,-0.00353953,0.00196409,0.000136771,0.00196748,-0.00354292,1.54597,0.00322449,0.0411332,706,1247,-3.96845,-0.594658
-511,-223,-3.94049,0.615234,-0.00400772,0.00384303,0.0030051,0.00486126,-0.00502595,1.2441,0.00570864,0.0366078,713,1247,-3.94048,-0.615256
-504,-223,-4.0827,0.742432,-0.00394411,0.00563101,0.00624705,0.00871405,-0.00702715,1.11235,0.00910556,0.0377664,720,1247,-4.08267,-0.742385
-497,-223,0,0,0,0,0,0,0,0,0,-1,727,1247,0,0
-490,-223,0,0,0,0,0,0,0,0,0,-1,734,1247,0,0
-483,-223,0,0,0,0,0,0,0,0,0,-1,741,1247,0,0
-476,-223,0,0,0,0,0,0,0,0,0,-1,748,1247,0,0
-469,-223,0,0,0,0,0,0,0,0,0,-1,755,1247,0,0
-462,-223,0,0,0,0,0,0,0,0,0,-1,762,1247,0,0
-455,-223,0,0,0,0,0,0,0,0,0,-1,769,1247,0,0
-448,-223,0,0,0,0,0,0,0,0,0,-1,776,1247,0,0
-441,-223,0,0,0,0,0,0,0,0,0,-1,783,1247,0,0
-434,-223,0,0,0,0,0,0,0,0,0,-1,790,1247,0,0
-427,-223,0,0,0,0,0,0,0,0,0,-1,797,1247,0,0
-420,-223,0,0,0,0,0,0,0,0,0,-1,804,1247,0,0
-413,-223,0,0,0,0,0,0,0,0,0,-1,811,1247,0,0
-406,-223,0,0,0,0,0,0,0,0,0,-1,818,1247,0,0
-399,-223,0,0,0,0,0,0,0,0,0,-1,825,1247,0,0
-392,-223,0,0,0,0,0,0,0,0,0,-1,832,1247,0,0
-385,-223,0,0,0,0,0,0,0,0,0,-1,839,1247,0,0
-378,-223,0,0,0,0,0,0,0,0,0,-1,846,1247,0,0
-371,-223,0,0,0,0,0,0,0,0,0,-1,853,1247,0,0
-364,-223,0,0,0,0,0,0,0,0,0,-1,860,1247,0,0
-357,-223,0,0,0,0,0,0,0,0,0,-1,867,1247,0,0
-350,-223,0,0,0,0,0,0,0,0,0,-1,874,1247,0,0
-343,-223,0,0,0,0,0,0,0,0,0,-1,881,1247,0,0
-336,-223,0,0,0,0,0,0,0,0,0,-1,888,1247,0,0
-329,-223,0,0,0,0,0,0,0,0,0,-1,895,1247,0,0
-322,-223,0,0,0,0,0,0,0,0,0,-1,902,1247,0,0
-315,-223,0,0,0,0,0,0,0,0,0,-1,909,1247,0,0
-308,-223,0,0,0,0,0,0,0,0,0,-1,916,1247,0,0
-301,-223,0,0,0,0,0,0,0,0,0,-1,923,1247,0,0
-294,-223,0,0,0,0,0,0,0,0,0,-1,930,1247,0,0
-287,-223,0,0,0,0,0,0,0,0,0,-1,937,1247,0,0
-280,-223,0,0,0,0,0,0,0,0,0,-1,944,1247,0,0
-273,-223,0,0,0,0,0,0,0,0,0,-1,951,1247,0,0
-266,-223,0,0,0,0,0,0,0,0,0,-1,958,1247,0,0
-259,-223,0,0,0,0,0,0,0,0,0,-1,965,1247,0,0
-252,-223,0,0,0,0,0,0,0,0,0,-1,972,1247,0,0
-245,-223,0,0,0,0,0,0,0,0,0,-1,979,1247,0,0
-238,-223,0,0,0,0,0,0,0,0,0,-1,986,1247,0,0
-231,-223,0,0,0,0,0,0,0,0,0,-1,993,1247,0,0
-224,-223,0,0,0,0,0,0,0,0,0,-1,1000,1247,0,0
-217,-223,0,0,0,0,0,0,0,0,0,-1,1007,1247,0,0
-210,-223,0,0,0,0,0,0,0,0,0,-1,1014,1247,0,0
-203,-223,0,0,0,0,0,0,0,0,0,-1,1021,1247,0,0
-196,-223,0,0,0,0,0,0,0,0,0,-1,1028,1247,0,0
-189,-223,0,0,0,0,0,0,0,0,0,-1,1035,1247,0,0
-182,-223,0,0,0,0,0,0,0,0,0,-1,1042,1247,0,0
-175,-223,0,0,0,0,0,0,0,0,0,-1,1049,1247,0,0
-168,-223,0,0,0,0,0,0,0,0,0,-1,1056,1247,0,0
-161,-223,0,0,0,0,0,0,0,0,0,-1,1063,1247,0,0
-154,-223,0,0,0,0,0,0,0,0,0,-1,1070,1247,0,0
-147,-223,0,0,0,0,0,0,0,0,0,-1,1077,1247,0,0
-140,-223,0,0,0,0,0,0,0,0,0,-1,1084,1247,0,0
-133,-223,0,0,0,0,0,0,0,0,0,-1,1091,1247,0,0
-126,-223,0,0,0,0,0,0,0,0,0,-1,1098,1247,0,0
-119,-223,0,0,0,0,0,0,0,0,0,-1,1105,1247,0,0
-112,-223,0,0,0,0,0,0,0,0,0,-1,1112,1247,0,0
-105,-223,0,0,0,0,0,0,0,0,0,-1,1119,1247,0,0
-98,-223,0,0,0,0,0,0,0,0,0,-1,1126,1247,0,0
-91,-223,0,0,0,0,0,0,0,0,0,-1,1133,1247,0,0
-84,-223,0,0,0,0,0,0,0,0,0,-1,1140,1247,0,0
-77,-223,0,0,0,0,0,0,0,0,0,-1,1147,1247,0,0
-70,-223,0,0,0,0,0,0,0,0,0,-1,1154,1247,0,0
-63,-223,0,0,0,0,0,0,0,0,0,-1,1161,1247,0,0
-56,-223,0,0,0,0,0,0,0,0,0,-1,1168,1247,0,0
-49,-223,0,0,0,0,0,0,0,0,0,-1,1175,1247,0,0
-42,-223,0,0,0,0,0,0,0,0,0,-1,1182,1247,0,0
-35,-223,0,0,0,0,0,0,0,0,0,-1,1189,1247,0,0
-28,-223,0,0,0,0,0,0,0,0,0,-1,1196,1247,0,0
-21,-223,0,0,0,0,0,0,0,0,0,-1,1203,1247,0,0
-14,-223,0,0,0,0,0,0,0,0,0,-1,1210,1247,0,0
-7,-223,0,0,0,0,0,0,0,0,0,-1,1217,1247,0,0
0,-223,0,0,0,0,0,0,0,0,0,-1,1224,1247,0,0
7,-223,0,0,0,0,0,0,0,0,0,-1,1231,1247,0,0
14,-223,0,0,0,0,0,0,0,0,0,-1,1238,1247,0,0
21,-223,0,0,0,0,0,0,0,0,0,-1,1245,1247,0,0
28,-223,0,0,0,0,0,0,0,0,0,-1,1252,1247,0,0
35,-223,0,0,0,0,0,0,0,0,0,-1,1259,1247,0,0
42,-223,0,0,0,0,0,0,0,0,0,-1,1266,1247,0,0
49,-223,0,0,0,0,0,0,0,0,0,-1,1273,1247,0,0
56,-223,0,0,0,0,0,0,0,0,0,-1,1280,1247,0,0
63,-223,0,0,0,0,0,0,0,0,0,-1,1287,1247,0,0
70,-223,0,0,0,0,0,0,0,0,0,-1,1294,1247,0,0
77,-223,0,0,0,0,0,0,0,0,0,-1,1301,1247,0,0
84,-223,0,0,0,0,0,0,0,0,0,-1,1308,1247,0,0
91,-223,0,0,0,0,0,0,0,0,0,-1,1315,1247,0,0
98,-223,0,0,0,0,0,0,0,0,0,-1,1322,1247,0,0
105,-223,0,0,0,0,0,0,0,0,0,-1,1329,1247,0,0
112,-223,0,0,0,0,0,0,0,0,0,-1,1336,1247,0,0
119,-223,0,0,0,0,0,0,0,0,0,-1,1343,1247,0,0
126,-223,0,0,0,0,0,0,0,0,0,-1,1350,1247,0,0
133,-223,0,0,0,0,0,0,0,0,0,-1,1357,1247,0,0
140,-223,0,0,0,0,0,0,0,0,0,-1,1364,1247,0,0
147,-223,0,0,0,0,0,0,0,0,0,-1,1371,1247,0,0
154,-223,0,0,0,0,0,0,0,0,0,-1,1378,1247,0,0
161,-223,0,0,0,0,0,0,0,0,0,-1,1385,1247,0,0
168,-223,0,0,0,0,0,0,0,0,0,-1,1392,1247,0,0
175,-223,0,0,0,0,0,0,0,0,0,-1,1399,1247,0,0
182,-223,0,0,0,0,0,0,0,0,0,-1,1406,1247,0,0
189,-223,0,0,0,0,0,0,0,0,0,-1,1413,1247,0,0
196,-223,0,0,0,0,0,0,0,0,0,-1,1420,1247,0,0
203,-223,0,0,0,0,0,0,0,0,0,-1,1427,1247,0,0
210,-223,0,0,0,0,0,0,0,0,0,-1,1434,1247,0,0
217,-223,0,0,0,0,0,0,0,0,0,-1,1441,1247,0,0
224,-223,0,0,0,0,0,0,0,0,0,-1,1448,1247,0,0
231,-223,0,0,0,0,0,0,0,0,0,-1,1455,1247,0,0
238,-223,0,0,0,0,0,0,0,0,0,-1,1462,1247,0,0
245,-223,0,0,0,0,0,0,0,0,0,-1,1469,1247,0,0
252,-223,0,0,0,0,0,0,0,0,0,-1,1476,1247,0,0
259,-223,0,0,0,0,0,0,0,0,0,-1,1483,1247,0,0
266,-223,0,0,0,0,0,0,0,0,0,-1,1490,1247,0,0
273,-223,0,0,0,0,0,0,0,0,0,-1,1497,1247,0,0
280,-223,0,0,0,0,0,0,0,0,0,-1,1504,1247,0,0
287,-223,0,0,0,0,0,0,0,0,0,-1,1511,1247,0,0
294,-223,0,0,0,0,0,0,0,0,0,-1,1518,1247,0,0
301,-223,0,0,0,0,0,0,0,0,0,-1,1525,1247,0,0
308,-223,0,0,0,0,0,0,0,0,0,-1,1532,1247,0,0
315,-223,0,0,0,0,0,0,0,0,0,-1,1539,1247,0,0
322,-223,0,0,0,0,0,0,0,0,0,-1,1546,1247,0,0
329,-223,0,0,0,0,0,0,0,0,0,-1,1553,1247,0,0
336,-223,0,0,0,0,0,0,0,0,0,-1,1560,1247,0,0
343,-223,0,0,0,0,0,0,0,0,0,-1,1567,1247,0,0
350,-223,0,0,0,0,0,0,0,0,0,-1,1574,1247,0,0
357,-223,0,0,0,0,0,0,0,0,0,-1,1581,1247,0,0
364,-223,0,0,0,0,0,0,0,0,0,-1,1588,1247,0,0
371,-223,0,0,0,0,0,0,0,0,0,-1,1595,1247,0,0
378,-223,0,0,0,0,0,0,0,0,0,-1,1602,1247,0,0
385,-223,0,0,0,0,0,0,0,0,0,-1,1609,1247,0,0
392,-223,0,0,0,0,0,0,0,0,0,-1,1616,1247,0,0
399,-223,0,0,0,0,0,0,0,0,0,-1,1623,1247,0,0
406,-223,0,0,0,0,0,0,0,0,0,-1,1630,1247,0,0
413,-223,0,0,0,0,0,0,0,0,0,-1,1637,1247,0,0
420,-223,0,0,0,0,0,0,0,0,0,-1,1644,1247,0,0
427,-223,0,0,0,0,0,0,0,0,0,-1,1651,1247,0,0
434,-223,0,0,0,0,0,0,0,0,0,-1,1658,1247,0,0
441,-223,0,0,0,0,0,0,0,0,0,-1,1665,1247,0,0
448,-223,0,0,0,0,0,0,0,0,0,-1,1672,1247,0,0
455,-223,0,0,0,0,0,0,0,0,0,-1,1679,1247,0,0
462,-223,0,0,0,0,0,0,0,0,0,-1,1686,1247,0,0
469,-223,0,0,0,0,0,0,0,0,0,-1,1693,1247,0,0
476,-223,0,0,0,0,0,0,0,0,0,-1,1700,1247,0,0
483,-223,0,0,0,0,0,0,0,0,0,-1,1707,1247,0,0
490,-223,0,0,0,0,0,0,0,0,0,-1,1714,1247,0,0
497,-223,0,0,0,0,0,0,0,0,0,-1,1721,1247,0,0
504,-223,0,0,0,0,0,0,0,0,0,-1,1728,1247,0,0
511,-223,0,0,0,0,0,0,0,0,0,-1,1735,1247,0,0
518,-223,0,0,0,0,0,0,0,0,0,-1,1742,1247,0,0
525,-223,0,0,0,0,0,0,0,0,0,-1,1749,1247,0,0
532,-223,0,0,0,0,0,0,0,0,0,-1,1756,1247,0,0
539,-223,0,0,0,0,0,0,0,0,0,-1,1763,1247,0,0
546,-223,0,0,0,0,0,0,0,0,0,-1,1770,1247,0,0
553,-223,0,0,0,0,0,0,0,0,0,-1,1777,1247,0,0
560,-223,0,0,0,0,0,0,0,0,0,-1,1784,1247,0,0
567,-223,0,0,0,0,0,0,0,0,0,-1,1791,1247,0,0
574,-223,0,0,0,0,0,0,0,0,0,-1,1798,1247,0,0
581,-223,0,0,0,0,0,0,0,0,0,-1,1805,1247,0,0
588,-223,0,0,0,0,0,0,0,0,0,-1,1812,1247,0,0
595,-223,0,0,0,0,0,0,0,0,0,-1,1819,1247,0,0
602,-223,0,0,0,0,0,0,0,0,0,-1,1826,1247,0,0
609,-223,0,0,0,0,0,0,0,0,0,-1,1833,1247,0,0
616,-223,0,0,0,0,0,0,0,0,0,-1,1840,1247,0,0
623,-223,9.35242,0.877319,0,0,0,0,0,0,0,-1,1847,1247,9.35246,-0.877326
630,-223,9.43701,1.00024,-0.00186793,0.00428246,-0.000757185,0.00437431,-0.00195978,-1.45009,0.00374451,0.0395815,1854,1247,9.43705,-1.00023
637,-223,9.4906,1.14185,-0.000989469,0.00760565,0.00162176,0.00790147,-0.00128529,1.39037,0.00574421,0.0305685,1861,1247,9.49065,-1.14182
644,-223,9.52979,1.26746,-0.000581854,0.00957152,0.00375006,0.0108064,-0.00181672,1.25269,0.00787995,0.0236223,1868,1247,9.52983,-1.2675
651,-223,9.53394,1.27686,-0.000149194,0.0105092,0.00546102,0.0128104,-0.00245041,1.17199,0.0094634,0.0282833,1875,1247,9.53395,-1.27683
658,-223,9.5271,1.31201,0.000182961,0.0105573,0.00659445,0.0137602,-0.00301995,1.11865,0.0103283,0.0449296,1882,1247,9.52711,-1.31206
665,-223,9.79736,1.2157,0.000372461,0.010008,0.00723068,0.013879,-0.00349846,1.07927,0.0106128,0.0413805,1889,1247,9.7974,-1.2157
672,-223,9.91675,1.1499,0,0,0,0,0,0,0,-1,1896,1247,9.9167,-1.14994
679,-223,8.52063,2.11621,0,0,0,0,0,0,0,-1,1903,1247,8.52067,-2.11626
686,-223,8.51318,2.07825,0.000233808,0.00657865,0.00694904,0.0110452,-0.00423271,0.999532,0.0091083,0.0455399,1910,1247,8.51318,-2.07822
693,-223,8.51367,2.05957,6.86629e-05,0.00531603,0.00629239,0.00950981,-0.00412513,0.982919,0.00807417,0.0211442,1917,1247,8.51371,-2.05959
700,-223,8.53894,2.00842,-9.58196e-06,0.00402752,0.00558893,0.00795124,-0.00393331,0.958693,0.00699104,0.00967201,1924,1247,8.53895,-2.00844
707,-223,8.55811,1.94226,-9.69099e-05,0.00264181,0.0047917,0.00625598,-0.00371108,0.924577,0.00581667,0.0121968,1931,1247,8.55814,-1.94224
714,-223,8.55334,1.87903,-0.000244009,0.000979679,0.00375146,0.00416886,-0.00343319,0.866234,0.00439589,0.01105,1938,1247,8.55339,-1.87904
721,-223,8.52014,1.82349,-0.000546266,-4.71096e-05,0.00280828,0.00252266,-0.00311604,0.829718,0.00326151,0.0141768,1945,1247,8.52009,-1.82348
728,-223,8.49438,1.78809,-0.0012714,-0.000563746,0.00177854,0.000895827,-0.00273097,0.883587,0.00218145,0.0161315,1952,1247,8.49443,-1.78804
735,-223,8.52686,1.73474,-0.00186678,-0.000878596,0.00172472,0.000421409,-0.00316678,0.9249,0.00226476,0.0142001,1959,1247,8.5269,-1.73475
742,-223,8.52319,1.66663,-0.00190359,-0.000596483,0.00229001,0.00113141,-0.00363148,0.9244,0.00287335,0.0115173,1966,1247,8.52315,-1.66668
749,-223,8.52661,1.59338,-0.00255591,-0.00085765,0.00305767,0.0014666,-0.00488016,0.920838,0.0038369,0.00932281,1973,1247,8.52658,-1.59343
756,-223,8.51147,1.54126,-0.00364056,-0.00146955,0.00396003,0.00155106,-0.00666117,0.91917,0.00503802,0.0104272,1980,1247,8.51152,-1.54129
763,-223,8.48743,1.49097,-0.00505972,-0.00235045,0.00503694,0.00151083,-0.008921,0.91676,0.00650965,0.0132515,1987,1247,8.48744,-1.49099
770,-223,8.47644,1.4248,-0.00700945,-0.00360413,0.00625356,0.00117442,-0.011788,0.918312,0.00827796,0.0352882,1994,1247,8.47648,-1.42483
777,-223,8.47229,1.36121,0,0,0,0,0,0,0,-1,2001,1247,8.47232,-1.36122
784,-223,8.59375,1.75623,0,0,0,0,0,0,0,-1,2008,1247,8.59369,-1.75622
791,-223,8.42566,1.08765,0,0,0,0,0,0,0,-1,2015,1247,8.42569,-1.08762
798,-223,0,0,0,0,0,0,0,0,0,-1,2022,1247,0,0
805,-223,0,0,0,0,0,0,0,0,0,-1,2029,1247,0,0
812,-223,0,0,0,0,0,0,0,0,0,-1,2036,1247,0,0
-700,-230,0,0,0,0,0,0,0,0,0,-1,524,1254,0,0
-693,-230,0,0,0,0,0,0,0,0,0,-1,531,1254,0,0
-686,-230,0,0,0,0,0,0,0,0,0,-1,538,1254,0,0
-679,-230,0,0,0,0,0,0,0,0,0,-1,545,1254,0,0
-672,-230,-2.77625,0.44812,-0.0189957,-0.00988434,0.00327626,-0.00882859,-0.0200514,1.25906,0.0116042,0.047542,552,1254,-2.77624,-0.448079
-665,-230,-2.58801,0.179443,-0.00765639,-0.00275265,0.00107487,-0.00252739,-0.00788165,1.36422,0.00464701,0.0444403,559,1254,-2.58801,-0.179457
-658,-230,-2.51459,0.0495605,-0.000447377,0.00172817,0.000279169,0.00176343,-0.000482629,1.44519,0.00136523,0.0452952,566,1254,-2.51462,-0.0495829
-651,-230,-2.65308,-0.241699,0.00394093,0.00439951,0.000166894,0.00445382,0.00388662,1.2562,0.00279936,0.0444532,573,1254,-2.65306,0.241734
-644,-230,-2.78046,0.0983887,0.00631855,0.00579603,0.000381239,0.00651946,0.00559512,0.485007,0.0040733,0.0493894,580,1254,-2.78049,-0.0983676
-637,-230,-3.15442,0.540771,0.00725479,0.00627598,0.000696156,0.00761635,0.00591442,0.479028,0.00461605,0.0480025,587,1254,-3.15442,-0.54079
-630,-230,-3.01373,0.667847,0.00702005,0.0061905,0.0008579,0.00755818,0.00565237,0.560227,0.00453891,0.0397315,594,1254,-3.01376,-0.667898
-623,-230,-2.92389,0.769775,0.00731148,0.00617681,0.000690564,0.00763787,0.00585042,0.441527,0.00461301,0.0236814,601,1254,-2.92386,-0.769785
-616,-230,-2.95782,0.837646,0.00698031,0.00508583,0.000857174,0.00731057,0.00475557,0.367764,0.00428402,0.0149851,608,1254,-2.95785,-0.837597
-609,-230,-2.95923,0.892578,0.00576376,0.00385404,0.000651416,0.0059648,0.003653,0.299344,0.00347268,0.0115063,615,1254,-2.95921,-0.892582
-602,-230,-2.96063,0.947876,0.00441647,0.0023707,0.000196522,0.00443518,0.00235199,0.0949061,0.00256222,0.0113461,622,1254,-2.96063,-0.947867
-595,-230,-2.95679,1.03271,0.00319727,0.00111834,-0.000516241,0.0033184,0.000997206,-0.230478,0.00196606,0.0181532,629,1254,-2.95682,-1.03269
-588,-230,-2.9505,1.12427,0.00197832,-0.00048347,-0.00177428,0.00290687,-0.00141202,-0.482141,0.00254281,0.0254071,636,1254,-2.95048,-1.12425
-581,-230,-2.94611,1.19043,0.00112589,-0.00167222,-0.00325385,0.00326871,-0.00381504,-0.582362,0.00409386,0.0246717,643,1254,-2.94613,-1.19038
-574,-230,-2.96997,1.23303,0.000782326,-0.00272751,-0.00399915,0.00339466,-0.00533985,-0.578638,0.00508439,0.0172371,650,1254,-2.96998,-1.23308
-567,-230,-2.92944,1.28271,0.00109165,-0.00320696,-0.00504146,0.00442284,-0.00653816,-0.583902,0.0063675,0.0170845,657,1254,-2.92945,-1.28276
-560,-230,-2.83563,1.30396,0.00106728,-0.00352525,-0.00571325,0.00492846,-0.00738642,-0.594318,0.00715705,0.02805,664,1254,-2.8356,-1.30394
-553,-230,-2.40839,0.440674,0.000843133,-0.00362612,-0.00594098,0.00495585,-0.00773884,-0.605514,0.00738776,0.041766,671,1254,-2.40838,-0.440634
-546,-230,-1.9881,-0.280273,0,0,0,0,0,0,0,-1,678,1254,-1.98812,0.280284
-539,-230,-2.95447,0.53418,0.000255021,-0.00280691,-0.0058941,0.00481374,-0.00736563,-0.658333,0.00708303,0.0414745,685,1254,-2.9545,-0.534155
-532,-230,-4.3587,1.35535,-0.000194026,-0.00192666,-0.00534716,0.00435654,-0.00647723,-0.705089,0.0062947,0.0464596,692,1254,-4.35871,-1.35534
-525,-230,-4.13202,0.942017,-0.000819377,-0.000587388,-0.00421877,0.00351699,-0.00492375,-0.799142,0.00489577,0.0473283,699,1254,-4.13204,-0.941985
-518,-230,-4.09607,0.811279,-0.00172147,0.00126882,-0.00236458,0.0025713,-0.00302394,-1.06732,0.00323393,0.0426348,706,1254,-4.0961,-0.811232
-511,-230,-4.03003,0.69751,-0.00283557,0.00367997,0.000381821,0.00370227,-0.00285787,1.51246,0.00379794,0.0389699,713,1254,-4.03006,-0.697556
-504,-230,-4.09534,0.796143,-0.00387942,0.00640106,0.0038294,0.00767069,-0.00514905,1.25065,0.00744905,0.039817,720,1254,-4.09536,-0.796167
-497,-230,0,0,0,0,0,0,0,0,0,-1,727,1254,0,0
-490,-230,0,0,0,0,0,0,0,0,0,-1,734,1254,0,0
-483,-230,0,0,0,0,0,0,0,0,0,-1,741,1254,0,0
-476,-230,0,0,0,0,0,0,0,0,0,-1,748,1254,0,0
-469,-230,0,0,0,0,0,0,0,0,0,-1,755,1254,0,0
-462,-230,0,0,0,0,0,0,0,0,0,-1,762,1254,0,0
-455,-230,0,0,0,0,0,0,0,0,0,-1,769,1254,0,0
-448,-230,0,0,0,0,0,0,0,0,0,-1,776,1254,0,0
-441,-230,0,0,0,0,0,0,0,0,0,-1,783,1254,0,0
-434,-230,0,0,0,0,0,0,0,0,0,-1,790,1254,0,0
-427,-230,0,0,0,0,0,0,0,0,0,-1,797,1254,0,0
-420,-230,0,0,0,0,0,0,0,0,0,-1,804,1254,0,0
-413,-230,0,0,0,0,0,0,0,0,0,-1,811,1254,0,0
-406,-230,0,0,0,0,0,0,0,0,0,-1,818,1254,0,0
-399,-230,0,0,0,0,0,0,0,0,0,-1,825,1254,0,0
-392,-230,0,0,0,0,0,0,0,0,0,-1,832,1254,0,0
-385,-230,0,0,0,0,0,0,0,0,0,-1,839,1254,0,0
-378,-230,0,0,0,0,0,0,0,0,0,-1,846,1254,0,0
-371,-230,0,0,0,0,0,0,0,0,0,-1,853,1254,0,0
-364,-230,0,0,0,0,0,0,0,0,0,-1,860,1254,0,0
-357,-230,0,0,0,0,0,0,0,0,0,-1,867,1254,0,0
-350,-230,0,0,0,0,0,0,0,0,0,-1,874,1254,0,0
-343,-230,0,0,0,0,0,0,0,0,0,-1,881,1254,0,0
-336,-230,0,0,0,0,0,0,0,0,0,-1,888,1254,0,0
-329,-230,0,0,0,0,0,0,0,0,0,-1,895,1254,0,0
-322,-230,0,0,0,0,0,0,0,0,0,-1,902,1254,0,0
-315,-230,0,0,0,0,0,0,0,0,0,-1,909,1254,0,0
-308,-230,0,0,0,0,0,0,0,0,0,-1,916,1254,0,0
-301,-230,0,0,0,0,0,0,0,0,0,-1,923,1254,0,0
-294,-230,0,0,0,0,0,0,0,0,0,-1,930,1254,0,0
-287,-230,0,0,0,0,0,0,0,0,0,-1,937,1254,0,0
-280,-230,0,0,0,0,0,0,0,0,0,-1,944,1254,0,0
-273,-230,0,0,0,0,0,0,0,0,0,-1,951,1254,0,0
-266,-230,0,0,0,0,0,0,0,0,0,-1,958,1254,0,0
-259,-230,0,0,0,0,0,0,0,0,0,-1,965,1254,0,0
-252,-230,0,0,0,0,0,0,0,0,0,-1,972,1254,0,0
-245,-230,0,0,0,0,0,0,0,0,0,-1,979,1254,0,0
-238,-230,0,0,0,0,0,0,0,0,0,-1,986,1254,0,0
-231,-230,0,0,0,0,0,0,0,0,0,-1,993,1254,0,0
-224,-230,0,0,0,0,0,0,0,0,0,-1,1000,1254,0,0
-217,-230,0,0,0,0,0,0,0,0,0,-1,1007,1254,0,0
-210,-230,0,0,0,0,0,0,0,0,0,-1,1014,1254,0,0
-203,-230,0,0,0,0,0,0,0,0,0,-1,1021,1254,0,0
-196,-230,0,0,0,0,0,0,0,0,0,-1,1028,1254,0,0
-189,-230,0,0,0,0,0,0,0,0,0,-1,1035,1254,0,0
-182,-230,0,0,0,0,0,0,0,0,0,-1,1042,1254,0,0
-175,-230,0,0,0,0,0,0,0,0,0,-1,1049,1254,0,0
-168,-230,0,0,0,0,0,0,0,0,0,-1,1056,1254,0,0
-161,-230,0,0,0,0,0,0,0,0,0,-1,1063,1254,0,0
-154,-230,0,0,0,0,0,0,0,0,0,-1,1070,1254,0,0
-147,-230,0,0,0,0,0,0,0,0,0,-1,1077,1254,0,0
-140,-230,0,0,0,0,0,0,0,0,0,-1,1084,1254,0,0
-133,-230,0,0,0,0,0,0,0,0,0,-1,1091,1254,0,0
-126,-230,0,0,0,0,0,0,0,0,0,-1,1098,1254,0,0
-119,-230,0,0,0,0,0,0,0,0,0,-1,1105,1254,0,0
-112,-230,0,0,0,0,0,0,0,0,0,-1,1112,1254,0,0
-105,-230,0,0,0,0,0,0,0,0,0,-1,1119,1254,0,0
-98,-230,0,0,0,0,0,0,0,0,0,-1,1126,1254,0,0
-91,-230,0,0,0,0,0,0,0,0,0,-1,1133,1254,0,0
-84,-230,0,0,0,0,0,0,0,0,0,-1,1140,1254,0,0
-77,-230,0,0,0,0,0,0,0,0,0,-1,1147,1254,0,0
-70,-230,0,0,0,0,0,0,0,0,0,-1,1154,1254,0,0
-63,-230,0,0,0,0,0,0,0,0,0,-1,1161,1254,0,0
-56,-230,0,0,0,0,0,0,0,0,0,-1,1168,1254,0,0
-49,-230,0,0,0,0,0,0,0,0,0,-1,1175,1254,0,0
-42,-230,0,0,0,0,0,0,0,0,0,-1,1182,1254,0,0
-35,-230,0,0,0,0,0,0,0,0,0,-1,1189,1254,0,0
-28,-230,0,0,0,0,0,0,0,0,0,-1,1196,1254,0,0
-21,-230,0,0,0,0,0,0,0,0,0,-1,1203,1254,0,0
-14,-230,0,0,0,0,0,0,0,0,0,-1,1210,1254,0,0
-7,-230,0,0,0,0,0,0,0,0,0,-1,1217,1254,0,0
0,-230,0,0,0,0,0,0,0,0,0,-1,1224,1254,0,0
7,-230,0,0,0,0,0,0,0,0,0,-1,1231,1254,0,0
14,-230,0,0,0,0,0,0,0,0,0,-1,1238,1254,0,0
21,-230,0,0,0,0,0,0,0,0,0,-1,1245,1254,0,0
28,-230,0,0,0,0,0,0,0,0,0,-1,1252,1254,0,0
35,-230,0,0,0,0,0,0,0,0,0,-1,1259,1254,0,0
42,-230,0,0,0,0,0,0,0,0,0,-1,1266,1254,0,0
49,-230,0,0,0,0,0,0,0,0,0,-1,1273,1254,0,0
56,-230,0,0,0,0,0,0,0,0,0,-1,1280,1254,0,0
63,-230,0,0,0,0,0,0,0,0,0,-1,1287,1254,0,0
70,-230,0,0,0,0,0,0,0,0,0,-1,1294,1254,0,0
77,-230,0,0,0,0,0,0,0,0,0,-1,1301,1254,0,0
84,-230,0,0,0,0,0,0,0,0,0,-1,1308,1254,0,0
91,-230,0,0,0,0,0,0,0,0,0,-1,1315,1254,0,0
98,-230,0,0,0,0,0,0,0,0,0,-1,1322,1254,0,0
105,-230,0,0,0,0,0,0,0,0,0,-1,1329,1254,0,0
112,-230,0,0,0,0,0,0,0,0,0,-1,1336,1254,0,0
119,-230,0,0,0,0,0,0,0,0,0,-1,1343,1254,0,0
126,-230,0,0,0,0,0,0,0,0,0,-1,1350,1254,0,0
133,-230,0,0,0,0,0,0,0,0,0,-1,1357,1254,0,0
140,-230,0,0,0,0,0,0,0,0,0,-1,1364,1254,0,0
147,-230,0,0,0,0,0,0,0,0,0,-1,1371,1254,0,0
154,-230,0,0,0,0,0,0,0,0,0,-1,1378,1254,0,0
161,-230,0,0,0,0,0,0,0,0,0,-1,1385,1254,0,0
168,-230,0,0,0,0,0,0,0,0,0,-1,1392,1254,0,0
175,-230,0,0,0,0,0,0,0,0,0,-1,1399,1254,0,0
182,-230,0,0,0,0,0,0,0,0,0,-1,1406,1254,0,0
189,-230,0,0,0,0,0,0,0,0,0,-1,1413,1254,0,0
196,-230,0,0,0,0,0,0,0,0,0,-1,1420,1254,0,0
203,-230,0,0,0,0,0,0,0,0,0,-1,1427,1254,0,0
210,-230,0,0,0,0,0,0,0,0,0,-1,1434,1254,0,0
217,-230,0,0,0,0,0,0,0,0,0,-1,1441,1254,0,0
224,-230,0,0,0,0,0,0,0,0,0,-1,1448,1254,0,0
231,-230,0,0,0,0,0,0,0,0,0,-1,1455,1254,0,0
238,-230,0,0,0,0,0,0,0,0,0,-1,1462,1254,0,0
245,-230,0,0,0,0,0,0,0,0,0,-1,1469,1254,0,0
252,-230,0,0,0,0,0,0,0,0,0,-1,1476,1254,0,0
259,-230,0,0,0,0,0,0,0,0,0,-1,1483,1254,0,0
266,-230,0,0,0,0,0,0,0,0,0,-1,1490,1254,0,0
273,-230,0,0,0,0,0,0,0,0,0,-1,1497,1254,0,0
280,-230,0,0,0,0,0,0,0,0,0,-1,1504,1254,0,0
287,-230,0,0,0,0,0,0,0,0,0,-1,1511,1254,0,0
294,-230,0,0,0,0,0,0,0,0,0,-1,1518,1254,0,0
301,-230,0,0,0,0,0,0,0,0,0,-1,1525,1254,0,0
308,-230,0,0,0,0,0,0,0,0,0,-1,1532,1254,0,0
315,-230,0,0,0,0,0,0,0,0,0,-1,1539,1254,0,0
322,-230,0,0,0,0,0,0,0,0,0,-1,1546,1254,0,0
329,-230,0,0,0,0,0,0,0,0,0,-1,1553,1254,0,0
336,-230,0,0,0,0,0,0,0,0,0,-1,1560,1254,0,0
343,-230,0,0,0,0,0,0,0,0,0,-1,1567,1254,0,0
350,-230,0,0,0,0,0,0,0,0,0,-1,1574,1254,0,0
357,-230,0,0,0,0,0,0,0,0,0,-1,1581,1254,0,0
364,-230,0,0,0,0,0,0,0,0,0,-1,1588,1254,0,0
371,-230,0,0,0,0,0,0,0,0,0,-1,1595,1254,0,0
378,-230,0,0,0,0,0,0,0,0,0,-1,1602,1254,0,0
385,-230,0,0,0,0,0,0,0,0,0,-1,1609,1254,0,0
392,-230,0,0,0,0,0,0,0,0,0,-1,1616,1254,0,0
399,-230,0,0,0,0,0,0,0,0,0,-1,1623,1254,0,0
406,-230,0,0,0,0,0,0,0,0,0,-1,1630,1254,0,0
413,-230,0,0,0,0,0,0,0,0,0,-1,1637,1254,0,0
420,-230,0,0,0,0,0,0,0,0,0,-1,1644,1254,0,0
427,-230,0,0,0,0,0,0,0,0,0,-1,1651,1254,0,0
434,-230,0,0,0,0,0,0,0,0,0,-1,1658,1254,0,0
441,-230,0,0,0,0,0,0,0,0,0,-1,1665,1254,0,0
448,-230,0,0,0,0,0,0,0,0,0,-1,1672,1254,0,0
455,-230,0,0,0,0,0,0,0,0,0,-1,1679,1254,0,0
462,-230,0,0,0,0,0,0,0,0,0,-1,1686,1254,0,0
469,-230,0,0,0,0,0,0,0,0,0,-1,1693,1254,0,0
476,-230,0,0,0,0,0,0,0,0,0,-1,1700,1254,0,0
483,-230,0,0,0,0,0,0,0,0,0,-1,1707,1254,0,0
490,-230,0,0,0,0,0,0,0,0,0,-1,1714,1254,0,0
497,-230,0,0,0,0,0,0,0,0,0,-1,1721,1254,0,0
504,-230,0,0,0,0,0,0,0,0,0,-1,1728,1254,0,0
511,-230,0,0,0,0,0,0,0,0,0,-1,1735,1254,0,0
518,-230,0,0,0,0,0,0,0,0,0,-1,1742,1254,0,0
525,-230,0,0,0,0,0,0,0,0,0,-1,1749,1254,0,0
532,-230,0,0,0,0,0,0,0,0,0,-1,1756,1254,0,0
539,-230,0,0,0,0,0,0,0,0,0,-1,1763,1254,0,0
546,-230,0,0,0,0,0,0,0,0,0,-1,1770,1254,0,0
553,-230,0,0,0,0,0,0,0,0,0,-1,1777,1254,0,0
560,-230,0,0,0,0,0,0,0,0,0,-1,1784,1254,0,0
567,-230,0,0,0,0,0,0,0,0,0,-1,1791,1254,0,0
574,-230,0,0,0,0,0,0,0,0,0,-1,1798,1254,0,0
581,-230,0,0,0,0,0,0,0,0,0,-1,1805,1254,0,0
588,-230,0,0,0,0,0,0,0,0,0,-1,1812,1254,0,0
595,-230,0,0,0,0,0,0,0,0,0,-1,1819,1254,0,0
602,-230,0,0,0,0,0,0,0,0,0,-1,1826,1254,0,0
609,-230,0,0,0,0,0,0,0,0,0,-1,1833,1254,0,0
616,-230,9.62195,1.50977,0.000863111,0.00321902,0.000798223,0.003464,0.000618133,1.27302,0.00213335,0.0368812,1840,1254,9.62197,-1.50971
623,-230,9.64368,1.43457,-0.00125559,0.00340707,-0.00149327,0.00384431,-0.00169282,-1.28595,0.00327632,0.0376878,1847,1254,9.64365,-1.4346
630,-230,9.60522,1.27393,-0.00132397,0.00643433,-0.000216324,0.00644035,-0.00133,-1.54294,0.00479874,0.0336425,1854,1254,9.60527,-1.27396
637,-230,9.54773,1.27087,-0.00055957,0.00891128,0.00236269,0.00946798,-0.00111627,1.3394,0.00671507,0.027927,1861,1254,9.54771,-1.27087
644,-230,9.48376,1.23181,-0.000171396,0.0103689,0.00459059,0.0120878,-0.00189039,1.2125,0.00875697,0.0219118,1868,1254,9.48379,-1.23183
651,-230,9.35132,1.04504,0.00024245,0.0110271,0.00631885,0.0139417,-0.00267216,1.13862,0.0103014,0.042373,1875,1254,9.3513,-1.04502
658,-230,8.92053,0.65918,0.000565682,0.0109525,0.00746302,0.0148513,-0.00333311,1.08938,0.0111788,0.0434765,1882,1254,8.92048,-0.659165
665,-230,8.51587,0.198242,0.000755411,0.0103735,0.00809671,0.0149816,-0.00385275,1.05338,0.0114894,0.0416609,1889,1254,8.51586,-0.198202
672,-230,7.93579,0.0378418,0.000837666,0.00932827,0.00829081,0.0143975,-0.00423154,1.02202,0.0112767,0.0434036,1896,1254,7.9358,-0.0378044
679,-230,8.70972,2.43616,0.000788058,0.00811493,0.00818418,0.0134182,-0.0045152,0.995836,0.0107708,0.0457896,1903,1254,8.70976,-2.43621
686,-230,8.5426,2.24756,0.000646072,0.00701707,0.00777227,0.0122313,-0.00456817,0.979884,0.0100299,0.0389727,1910,1254,8.54255,-2.24753
693,-230,8.42798,2.08557,0.000469061,0.00573424,0.00703548,0.0106135,-0.00441024,0.964427,0.00891705,0.0165311,1917,1254,8.42802,-2.0856
700,-230,8.46228,2.02185,0.000341049,0.00440912,0.00620009,0.0089003,-0.00415013,0.943899,0.00769924,0.010528,1924,1254,8.46233,-2.02185
707,-230,8.47534,1.95618,0.000212856,0.00294443,0.00522488,0.00697908,-0.0038218,0.913238,0.00632408,0.00955065,1931,1254,8.47532,-1.95621
714,-230,8.45691,1.88965,0.000102874,0.00128805,0.00396819,0.00470766,-0.00331673,0.859518,0.00465602,0.0121066,1938,1254,8.45693,-1.88963
721,-230,8.4668,1.80554,-0.000247643,0.000447197,0.0029648,0.00308486,-0.0028853,0.843723,0.00344752,0.0113672,1945,1254,8.4668,-1.80551
728,-230,8.44885,1.75305,-0.00114635,0.000439677,0.00184914,0.00165867,-0.00236535,0.987964,0.00233518,0.0129732,1952,1254,8.44885,-1.7531
735,-230,8.43591,1.72437,-0.00188999,0.000389178,0.00180169,0.00138144,-0.00288225,1.06739,0.00251196,0.0142398,1959,1254,8.43591,-1.72431
742,-230,8.43738,1.66101,-0.00207809,0.0011466,0.00237756,0.00240696,-0.00333845,1.08335,0.00333162,0.0105864,1966,1254,8.43736,-1.66102
749,-230,8.45032,1.57593,-0.00282859,0.00157726,0.00316719,0.00323231,-0.00448364,1.08926,0.00447429,0.00972173,1973,1254,8.45026,-1.5759
756,-230,8.44775,1.52563,-0.0040105,0.0017712,0.00411299,0.00390764,-0.00614695,1.09172,0.00585281,0.0114374,1980,1254,8.44781,-1.52562
763,-230,8.40942,1.44849,-0.00554594,0.00178258,0.00526059,0.0045293,-0.00829265,1.0896,0.00750829,0.0226776,1987,1254,8.40948,-1.44849
770,-230,8.34741,1.42627,-0.00762513,0.00146546,0.00659657,0.00493106,-0.0110907,1.08706,0.00947532,0.0400945,1994,1254,8.34741,-1.4263
777,-230,8.3197,1.40454,0,0,0,0,0,0,0,-1,2001,1254,8.31969,-1.40453
784,-230,6.83704,2.37573,0,0,0,0,0,0,0,-1,2008,1254,6.837,-2.37568
791,-230,8.29785,1.07104,0,0,0,0,0,0,0,-1,2015,1254,8.29791,-1.07101
798,-230,0,0,0,0,0,0,0,0,0,-1,2022,1254,0,0
805,-230,0,0,0,0,0,0,0,0,0,-1,2029,1254,0,0
812,-230,0,0,0,0,0,0,0,0,0,-1,2036,1254,0,0
-700,-237,0,0,0,0,0,0,0,0,0,-1,524,1261,0,0
-693,-237,0,0,0,0,0,0,0,0,0,-1,531,1261,0,0
-686,-237,0,0,0,0,0,0,0,0,0,-1,538,1261,0,0
-679,-237,0,0,0,0,0,0,0,0,0,-1,545,1261,0,0
-672,-237,-2.8313,0.44397,0.00742538,0.00561033,0.00303825,0.00968875,0.00334696,0.640267,0.00568218,0.0493913,552,1261,-2.8313,-0.443958
-665,-237,-2.6153,0.38147,0.017034,0.0105344,0.00210315,0.0176551,0.00991321,0.28719,0.0102189,0.0479537,559,1261,-2.61531,-0.381514
-658,-237,-2.41888,0.22876,0.0216574,0.0129846,0.0020383,0.0221125,0.0125294,0.219698,0.0128044,0.0465795,566,1261,-2.41891,-0.228748
-651,-237,-2.20117,0.0932617,0.0231593,0.0138266,0.00227881,0.023686,0.0132999,0.227141,0.0137096,0.0477319,573,1261,-2.20119,-0.0932559
-644,-237,-2.37396,0.246948,0.0225859,0.0135954,0.00258233,0.0232748,0.0129065,0.260714,0.0134643,0.049361,580,1261,-2.37394,-0.246924
-637,-237,-2.54449,0.425781,0.0206454,0.0126395,0.00281314,0.021535,0.0117498,0.306288,0.0124505,0.0463159,587,1261,-2.54448,-0.425747
-630,-237,-2.65637,0.597168,0.0178484,0.0112083,0.00288033,0.0189237,0.010133,0.3573,0.0109347,0.0410816,594,1261,-2.6564,-0.597206
-623,-237,-2.79449,0.72522,0.0156436,0.0100315,0.00247331,0.016578,0.00909705,0.361229,0.00958645,0.0260633,601,1261,-2.79452,-0.725195
-616,-237,-2.85974,0.813477,0.0131331,0.00805884,0.00226849,0.0139994,0.00719258,0.364776,0.00808357,0.0132474,608,1261,-2.85973,-0.813472
-609,-237,-2.87189,0.882324,0.0101277,0.00625041,0.00179038,0.010828,0.00555015,0.37283,0.00625219,0.015668,615,1261,-2.87186,-0.88234
-602,-237,-2.87079,0.952515,0.00751368,0.00419494,0.00112817,0.00786086,0.00384776,0.298546,0.00453881,0.0116302,622,1261,-2.87077,-0.952462
-595,-237,-2.8797,1.04932,0.00518645,0.00224623,0.000281366,0.00521313,0.00221955,0.0945523,0.00302084,0.0147387,629,1261,-2.87967,-1.04928
-588,-237,-2.88776,1.14136,0.00325336,1.05481e-05,-0.00121472,0.00365792,-0.000394004,-0.321487,0.00257999,0.0265843,636,1261,-2.88777,-1.14132
-581,-237,-2.88403,1.21924,0.00209686,-0.00163455,-0.00320153,0.00393664,-0.00347433,-0.521577,0.0042815,0.0257953,643,1261,-2.88403,-1.21925
-574,-237,-2.88684,1.24023,0.00186129,-0.0029639,-0.00421146,0.00430225,-0.00540486,-0.525284,0.00561644,0.0152458,650,1261,-2.88686,-1.24028
-567,-237,-2.87457,1.29968,0.00242932,-0.0036154,-0.00559275,0.00576412,-0.0069502,-0.537674,0.00735126,0.0133808,657,1261,-2.87455,-1.29974
-560,-237,-2.78607,1.38293,0.00269505,-0.00408679,-0.00656276,0.00669116,-0.0080829,-0.546943,0.00854241,0.0199377,664,1261,-2.78607,-1.38288
-553,-237,-2.76135,1.36707,0.00273901,-0.00422062,-0.007028,0.00710151,-0.00858312,-0.555524,0.00906898,0.0432838,671,1261,-2.76135,-1.36701
-546,-237,-2.74713,1.37549,0,0,0,0,0,0,0,-1,678,1261,-2.74712,-1.37551
-539,-237,-2.61121,0.303711,0,0,0,0,0,0,0,-1,685,1261,-2.61118,-0.303756
-532,-237,-4.17261,1.16248,0,0,0,0,0,0,0,-1,692,1261,-4.17262,-1.16243
-525,-237,-4.21057,1.19678,0.00158752,-0.00110303,-0.00637514,0.00675778,-0.00627329,-0.681414,0.00752522,0.0470372,699,1261,-4.21054,-1.19678
-518,-237,-4.26587,1.1698,0.000522696,0.000869603,-0.00474802,0.00544734,-0.00405504,-0.803656,0.00550579,0.04405,706,1261,-4.2659,-1.16984
-511,-237,-4.0246,0.74585,-0.00102297,0.00342752,-0.00218069,0.0043179,-0.00191335,-1.18315,0.00368582,0.0431207,713,1261,-4.02462,-0.745842
-504,-237,-4.06287,0.882568,-0.00292121,0.00643079,0.00129037,0.00660557,-0.00309598,1.43617,0.00572206,0.0441957,720,1261,-4.06286,-0.882568
-497,-237,-3.95129,0.938477,-0.00589982,0.00903828,0.00607746,0.0111985,-0.00806001,1.22928,0.011168,0.0496146,727,1261,-3.95129,-0.938506
-490,-237,0,0,0,0,0,0,0,0,0,-1,734,1261,0,0
-483,-237,0,0,0,0,0,0,0,0,0,-1,741,1261,0,0
-476,-237,0,0,0,0,0,0,0,0,0,-1,748,1261,0,0
-469,-237,0,0,0,0,0,0,0,0,0,-1,755,1261,0,0
-462,-237,0,0,0,0,0,0,0,0,0,-1,762,1261,0,0
-455,-237,0,0,0,0,0,0,0,0,0,-1,769,1261,0,0
-448,-237,0,0,0,0,0,0,0,0,0,-1,776,1261,0,0
-441,-237,0,0,0,0,0,0,0,0,0,-1,783,1261,0,0
-434,-237,0,0,0,0,0,0,0,0,0,-1,790,1261,0,0
-427,-237,0,0,0,0,0,0,0,0,0,-1,797,1261,0,0
-420,-237,0,0,0,0,0,0,0,0,0,-1,804,1261,0,0
-413,-237,0,0,0,0,0,0,0,0,0,-1,811,1261,0,0
-406,-237,0,0,0,0,0,0,0,0,0,-1,818,1261,0,0
-399,-237,0,0,0,0,0,0,0,0,0,-1,825,1261,0,0
-392,-237,0,0,0,0,0,0,0,0,0,-1,832,1261,0,0
-385,-237,0,0,0,0,0,0,0,0,0,-1,839,1261,0,0
-378,-237,0,0,0,0,0,0,0,0,0,-1,846,1261,0,0
-371,-237,0,0,0,0,0,0,0,0,0,-1,853,1261,0,0
-364,-237,0,0,0,0,0,0,0,0,0,-1,860,1261,0,0
-357,-237,0,0,0,0,0,0,0,0,0,-1,867,1261,0,0
-350,-237,0,0,0,0,0,0,0,0,0,-1,874,1261,0,0
-343,-237,0,0,0,0,0,0,0,0,0,-1,881,1261,0,0
-336,-237,0,0,0,0,0,0,0,0,0,-1,888,1261,0,0
-329,-237,0,0,0,0,0,0,0,0,0,-1,895,1261,0,0
-322,-237,0,0,0,0,0,0,0,0,0,-1,902,1261,0,0
-315,-237,0,0,0,0,0,0,0,0,0,-1,909,1261,0,0
-308,-237,0,0,0,0,0,0,0,0,0,-1,916,1261,0,0
-301,-237,0,0,0,0,0,0,0,0,0,-1,923,1261,0,0
-294,-237,0,0,0,0,0,0,0,0,0,-1,930,1261,0,0
-287,-237,0,0,0,0,0,0,0,0,0,-1,937,1261,0,0
-280,-237,0,0,0,0,0,0,0,0,0,-1,944,1261,0,0
-273,-237,0,0,0,0,0,0,0,0,0,-1,951,1261,0,0
-266,-237,0,0,0,0,0,0,0,0,0,-1,958,1261,0,0
-259,-237,0,0,0,0,0,0,0,0,0,-1,965,1261,0,0
-252,-237,0,0,0,0,0,0,0,0,0,-1,972,1261,0,0
-245,-237,0,0,0,0,0,0,0,0,0,-1,979,1261,0,0
-238,-237,0,0,0,0,0,0,0,0,0,-1,986,1261,0,0
-231,-237,0,0,0,0,0,0,0,0,0,-1,993,1261,0,0
-224,-237,0,0,0,0,0,0,0,0,0,-1,1000,1261,0,0
-217,-237,0,0,0,0,0,0,0,0,0,-1,1007,1261,0,0
-210,-237,0,0,0,0,0,0,0,0,0,-1,1014,1261,0,0
-203,-237,0,0,0,0,0,0,0,0,0,-1,1021,1261,0,0
-196,-237,0,0,0,0,0,0,0,0,0,-1,1028,1261,0,0
-189,-237,0,0,0,0,0,0,0,0,0,-1,1035,1261,0,0
-182,-237,0,0,0,0,0,0,0,0,0,-1,1042,1261,0,0
-175,-237,0,0,0,0,0,0,0,0,0,-1,1049,1261,0,0
-168,-237,0,0,0,0,0,0,0,0,0,-1,1056,1261,0,0
-161,-237,0,0,0,0,0,0,0,0,0,-1,1063,1261,0,0
-154,-237,0,0,0,0,0,0,0,0,0,-1,1070,1261,0,0
-147,-237,0,0,0,0,0,0,0,0,0,-1,1077,1261,0,0
-140,-237,0,0,0,0,0,0,0,0,0,-1,1084,1261,0,0
-133,-237,0,0,0,0,0,0,0,0,0,-1,1091,1261,0,0
-126,-237,0,0,0,0,0,0,0,0,0,-1,1098,1261,0,0
-119,-237,0,0,0,0,0,0,0,0,0,-1,1105,1261,0,0
-112,-237,0,0,0,0,0,0,0,0,0,-1,1112,1261,0,0
-105,-237,0,0,0,0,0,0,0,0,0,-1,1119,1261,0,0
-98,-237,0,0,0,0,0,0,0,0,0,-1,1126,1261,0,0
-91,-237,0,0,0,0,0,0,0,0,0,-1,1133,1261,0,0
-84,-237,0,0,0,0,0,0,0,0,0,-1,1140,1261,0,0
-77,-237,0,0,0,0,0,0,0,0,0,-1,1147,1261,0,0
-70,-237,0,0,0,0,0,0,0,0,0,-1,1154,1261,0,0
-63,-237,0,0,0,0,0,0,0,0,0,-1,1161,1261,0,0
-56,-237,0,0,0,0,0,0,0,0,0,-1,1168,1261,0,0
-49,-237,0,0,0,0,0,0,0,0,0,-1,1175,1261,0,0
-42,-237,0,0,0,0,0,0,0,0,0,-1,1182,1261,0,0
-35,-237,0,0,0,0,0,0,0,0,0,-1,1189,1261,0,0
-28,-237,0,0,0,0,0,0,0,0,0,-1,1196,1261,0,0
-21,-237,0,0,0,0,0,0,0,0,0,-1,1203,1261,0,0
-14,-237,0,0,0,0,0,0,0,0,0,-1,1210,1261,0,0
-7,-237,0,0,0,0,0,0,0,0,0,-1,1217,1261,0,0
0,-237,0,0,0,0,0,0,0,0,0,-1,1224,1261,0,0
7,-237,0,0,0,0,0,0,0,0,0,-1,1231,1261,0,0
14,-237,0,0,0,0,0,0,0,0,0,-1,1238,1261,0,0
21,-237,0,0,0,0,0,0,0,0,0,-1,1245,1261,0,0
28,-237,0,0,0,0,0,0,0,0,0,-1,1252,1261,0,0
35,-237,0,0,0,0,0,0,0,0,0,-1,1259,1261,0,0
42,-237,0,0,0,0,0,0,0,0,0,-1,1266,1261,0,0
49,-237,0,0,0,0,0,0,0,0,0,-1,1273,1261,0,0
56,-237,0,0,0,0,0,0,0,0,0,-1,1280,1261,0,0
63,-237,0,0,0,0,0,0,0,0,0,-1,1287,1261,0,0
70,-237,0,0,0,0,0,0,0,0,0,-1,1294,1261,0,0
77,-237,0,0,0,0,0,0,0,0,0,-1,1301,1261,0,0
84,-237,0,0,0,0,0,0,0,0,0,-1,1308,1261,0,0
91,-237,0,0,0,0,0,0,0,0,0,-1,1315,1261,0,0
98,-237,0,0,0,0,0,0,0,0,0,-1,1322,1261,0,0
105,-237,0,0,0,0,0,0,0,0,0,-1,1329,1261,0,0
112,-237,0,0,0,0,0,0,0,0,0,-1,1336,1261,0,0
119,-237,0,0,0,0,0,0,0,0,0,-1,1343,1261,0,0
126,-237,0,0,0,0,0,0,0,0,0,-1,1350,1261,0,0
133,-237,0,0,0,0,0,0,0,0,0,-1,1357,1261,0,0
140,-237,0,0,0,0,0,0,0,0,0,-1,1364,1261,0,0
147,-237,0,0,0,0,0,0,0,0,0,-1,1371,1261,0,0
154,-237,0,0,0,0,0,0,0,0,0,-1,1378,1261,0,0
161,-237,0,0,0,0,0,0,0,0,0,-1,1385,1261,0,0
168,-237,0,0,0,0,0,0,0,0,0,-1,1392,1261,0,0
175,-237,0,0,0,0,0,0,0,0,0,-1,1399,1261,0,0
182,-237,0,0,0,0,0,0,0,0,0,-1,1406,1261,0,0
189,-237,0,0,0,0,0,0,0,0,0,-1,1413,1261,0,0
196,-237,0,0,0,0,0,0,0,0,0,-1,1420,1261,0,0
203,-237,0,0,0,0,0,0,0,0,0,-1,1427,1261,0,0
210,-237,0,0,0,0,0,0,0,0,0,-1,1434,1261,0,0
217,-237,0,0,0,0,0,0,0,0,0,-1,1441,1261,0,0
224,-237,0,0,0,0,0,0,0,0,0,-1,1448,1261,0,0
231,-237,0,0,0,0,0,0,0,0,0,-1,1455,1261,0,0
238,-237,0,0,0,0,0,0,0,0,0,-1,1462,1261,0,0
245,-237,0,0,0,0,0,0,0,0,0,-1,1469,1261,0,0
252,-237,0,0,0,0,0,0,0,0,0,-1,1476,1261,0,0
259,-237,0,0,0,0,0,0,0,0,0,-1,1483,1261,0,0
266,-237,0,0,0,0,0,0,0,0,0,-1,1490,1261,0,0
273,-237,0,0,0,0,0,0,0,0,0,-1,1497,1261,0,0
280,-237,0,0,0,0,0,0,0,0,0,-1,1504,1261,0,0
287,-237,0,0,0,0,0,0,0,0,0,-1,1511,1261,0,0
294,-237,0,0,0,0,0,0,0,0,0,-1,1518,1261,0,0
301,-237,0,0,0,0,0,0,0,0,0,-1,1525,1261,0,0
308,-237,0,0,0,0,0,0,0,0,0,-1,1532,1261,0,0
315,-237,0,0,0,0,0,0,0,0,0,-1,1539,1261,0,0
322,-237,0,0,0,0,0,0,0,0,0,-1,1546,1261,0,0
329,-237,0,0,0,0,0,0,0,0,0,-1,1553,1261,0,0
336,-237,0,0,0,0,0,0,0,0,0,-1,1560,1261,0,0
343,-237,0,0,0,0,0,0,0,0,0,-1,1567,1261,0,0
350,-237,0,0,0,0,0,0,0,0,0,-1,1574,1261,0,0
357,-237,0,0,0,0,0,0,0,0,0,-1,1581,1261,0,0
364,-237,0,0,0,0,0,0,0,0,0,-1,1588,1261,0,0
371,-237,0,0,0,0,0,0,0,0,0,-1,1595,1261,0,0
378,-237,0,0,0,0,0,0,0,0,0,-1,1602,1261,0,0
385,-237,0,0,0,0,0,0,0,0,0,-1,1609,1261,0,0
392,-237,0,0,0,0,0,0,0,0,0,-1,1616,1261,0,0
399,-237,0,0,0,0,0,0,0,0,0,-1,1623,1261,0,0
406,-237,0,0,0,0,0,0,0,0,0,-1,1630,1261,0,0
413,-237,0,0,0,0,0,0,0,0,0,-1,1637,1261,0,0
420,-237,0,0,0,0,0,0,0,0,0,-1,1644,1261,0,0
427,-237,0,0,0,0,0,0,0,0,0,-1,1651,1261,0,0
434,-237,0,0,0,0,0,0,0,0,0,-1,1658,1261,0,0
441,-237,0,0,0,0,0,0,0,0,0,-1,1665,1261,0,0
448,-237,0,0,0,0,0,0,0,0,0,-1,1672,1261,0,0
455,-237,0,0,0,0,0,0,0,0,0,-1,1679,1261,0,0
462,-237,0,0,0,0,0,0,0,0,0,-1,1686,1261,0,0
469,-237,0,0,0,0,0,0,0,0,0,-1,1693,1261,0,0
476,-237,0,0,0,0,0,0,0,0,0,-1,1700,1261,0,0
483,-237,0,0,0,0,0,0,0,0,0,-1,1707,1261,0,0
490,-237,0,0,0,0,0,0,0,0,0,-1,1714,1261,0,0
497,-237,0,0,0,0,0,0,0,0,0,-1,1721,1261,0,0
504,-237,0,0,0,0,0,0,0,0,0,-1,1728,1261,0,0
511,-237,0,0,0,0,0,0,0,0,0,-1,1735,1261,0,0
518,-237,0,0,0,0,0,0,0,0,0,-1,1742,1261,0,0
525,-237,0,0,0,0,0,0,0,0,0,-1,1749,1261,0,0
532,-237,0,0,0,0,0,0,0,0,0,-1,1756,1261,0,0
539,-237,0,0,0,0,0,0,0,0,0,-1,1763,1261,0,0
546,-237,0,0,0,0,0,0,0,0,0,-1,1770,1261,0,0
553,-237,0,0,0,0,0,0,0,0,0,-1,1777,1261,0,0
560,-237,0,0,0,0,0,0,0,0,0,-1,1784,1261,0,0
567,-237,0,0,0,0,0,0,0,0,0,-1,1791,1261,0,0
574,-237,0,0,0,0,0,0,0,0,0,-1,1798,1261,0,0
581,-237,0,0,0,0,0,0,0,0,0,-1,1805,1261,0,0
588,-237,0,0,0,0,0,0,0,0,0,-1,1812,1261,0,0
595,-237,0,0,0,0,0,0,0,0,0,-1,1819,1261,0,0
602,-237,0,0,0,0,0,0,0,0,0,-1,1826,1261,0,0
609,-237,0,0,0,0,0,0,0,0,0,-1,1833,1261,0,0
616,-237,9.68213,1.23645,-0.000427094,0.00620369,-0.000554167,0.00624968,-0.000473089,-1.48799,0.00433277,0.0378559,1840,1261,9.68217,-1.23644
623,-237,9.66296,1.29321,-0.00154586,0.00609798,-0.00135521,0.00633114,-0.00177902,-1.40042,0.00492213,0.0343787,1847,1261,9.66298,-1.29318
630,-237,9.62305,1.29663,-0.00124866,0.00801487,0.000605303,0.00805425,-0.00128804,1.50582,0.00584634,0.0269419,1854,1261,9.62301,-1.29661
637,-237,9.49438,1.25159,-0.000666428,0.00950795,0.00320479,0.0104333,-0.00159174,1.28971,0.00754229,0.0225096,1861,1261,9.49434,-1.25165
644,-237,9.33337,1.11011,-0.000328367,0.0103568,0.0053627,0.012584,-0.00255558,1.17716,0.00935823,0.0422464,1868,1261,9.33332,-1.11014
651,-237,9.1731,0.679199,7.92014e-05,0.0106852,0.00700002,0.0141641,-0.00339972,1.10956,0.0107566,0.0482221,1875,1261,9.17315,-0.679213
658,-237,8.92029,-0.227051,0.000420486,0.0104627,0.0080723,0.0149481,-0.0040649,1.06362,0.0115611,0.0434291,1882,1261,8.92031,0.227033
665,-237,8.80017,-0.806274,0,0,0,0,0,0,0,-1,1889,1261,8.80022,0.806222
672,-237,7.81653,-0.773438,0.000804586,0.00888985,0.00879921,0.0145307,-0.00483622,1.00073,0.0116391,0.0440438,1896,1261,7.81656,0.773403
679,-237,8.45398,2.28003,0.000818749,0.007752,0.00865313,0.0136071,-0.00503632,0.975919,0.0111365,0.0399599,1903,1261,8.45398,-2.28007
686,-237,8.42676,2.20117,0.000745392,0.00673856,0.0081968,0.0124693,-0.0049854,0.960641,0.0103817,0.0262556,1910,1261,8.42671,-2.20121
693,-237,8.36414,2.09167,0.000617683,0.00552922,0.00738125,0.0108525,-0.0047056,0.94599,0.0092132,0.0131372,1917,1261,8.36418,-2.09173
700,-237,8.38293,2.0144,0.00050511,0.00430876,0.00642608,0.00910853,-0.00429466,0.929269,0.00790295,0.0105465,1924,1261,8.38294,-2.01435
707,-237,8.40466,1.95032,0.00038978,0.00290504,0.00532883,0.00712263,-0.00382781,0.90128,0.00641692,0.00925106,1931,1261,8.40466,-1.95037
714,-237,8.38269,1.89697,0.00036924,0.00141704,0.00396232,0.00488994,-0.00310366,0.851127,0.00465336,0.0118318,1938,1261,8.38263,-1.89693
721,-237,8.37878,1.82104,4.28833e-06,0.000814573,0.00298391,0.00342072,-0.00260186,0.852873,0.00348783,0.013029,1945,1261,8.37883,-1.82106
728,-237,8.40845,1.75635,-0.00102636,0.00121515,0.00190909,0.00230815,-0.00211936,1.05083,0.002557,0.0133058,1952,1261,8.4084,-1.7564
735,-237,8.38159,1.71228,-0.0019023,0.00131329,0.00195361,0.00223564,-0.00282465,1.1297,0.00292815,0.0189472,1959,1261,8.38159,-1.71234
742,-237,8.3866,1.66846,-0.00227994,0.00236503,0.00260893,0.00353546,-0.00345037,1.14909,0.00403337,0.0141055,1966,1261,8.38666,-1.66848
749,-237,8.38831,1.58801,-0.00317096,0.00324826,0.00351482,0.00479844,-0.00472114,1.15542,0.00549619,0.00924744,1973,1261,8.38826,-1.58805
756,-237,8.36426,1.51611,-0.00448954,0.00400233,0.0046248,0.00603467,-0.00652188,1.15676,0.00725135,0.0120945,1980,1261,8.36428,-1.51617
763,-237,8.33508,1.45483,-0.00618219,0.00462178,0.00598905,0.00728516,-0.00884558,1.15235,0.0093276,0.0266237,1987,1261,8.33514,-1.45479
770,-237,8.1283,1.37061,-0.00843148,0.00491968,0.00762129,0.00837561,-0.0118874,1.14507,0.0117573,0.0406583,1994,1261,8.12832,-1.37059
777,-237,7.86707,1.28906,-0.0114223,0.00462536,0.00951213,0.00904591,-0.0158428,1.13576,0.014547,0.0431363,2001,1261,7.8671,-1.2891
784,-237,8.15259,0.861328,0,0,0,0,0,0,0,-1,2008,1261,8.15264,-0.861319
791,-237,6.50488,2.72998,0,0,0,0,0,0,0,-1,2015,1261,6.50491,-2.73004
798,-237,0,0,0,0,0,0,0,0,0,-1,2022,1261,0,0
805,-237,0,0,0,0,0,0,0,0,0,-1,2029,1261,0,0
812,-237,0,0,0,0,0,0,0,0,0,-1,2036,1261,0,0
-700,-244,0,0,0,0,0,0,0,0,0,-1,524,1268,0,0
-693,-244,0,0,0,0,0,0,0,0,0,-1,531,1268,0,0
-686,-244,0,0,0,0,0,0,0,0,0,-1,538,1268,0,0
-679,-244,0,0,0,0,0,0,0,0,0,-1,545,1268,0,0
-672,-244,-2.5116,-0.145996,0,0,0,0,0,0,0,-1,552,1268,-2.51157,0.145969
-665,-244,-2.33234,0.407715,0,0,0,0,0,0,0,-1,559,1268,-2.33234,-0.407685
-658,-244,-2.02429,0.0936279,0.0541689,0.0266981,0.0030158,0.0544961,0.0263709,0.108067,0.0314688,0.0469651,566,1268,-2.0243,-0.0935858
-651,-244,-1.97998,0.271118,0.0511698,0.0254604,0.00384071,0.0517313,0.0248989,0.145168,0.029874,0.0476542,573,1268,-1.97998,-0.27117
-644,-244,-2.18298,0.288208,0.0461073,0.0233198,0.00444007,0.0469419,0.0224852,0.185794,0.0271099,0.0472721,580,1268,-2.18296,-0.288201
-637,-244,-2.44342,0.453735,0.0398623,0.0206254,0.0047574,0.0409745,0.0195131,0.229664,0.0236655,0.0428234,587,1268,-2.44345,-0.453685
-630,-244,-2.60388,0.621094,0.0330708,0.017621,0.00476225,0.0344208,0.016271,0.276224,0.0198827,0.0400093,594,1268,-2.60387,-0.621095
-623,-244,-2.76074,0.727905,0.0271934,0.0149797,0.00424674,0.0285248,0.0136483,0.303819,0.0164739,0.032639,601,1268,-2.76073,-0.727872
-616,-244,-2.8089,0.821289,0.0216764,0.0118976,0.00382148,0.0229926,0.0105814,0.331707,0.0132888,0.0172318,608,1268,-2.8089,-0.821264
-609,-244,-2.79553,0.882202,0.0161578,0.00919681,0.00310493,0.0173415,0.00801314,0.364215,0.0100217,0.0148158,615,1268,-2.79554,-0.882155
-602,-244,-2.78174,0.947998,0.0116129,0.00633119,0.00225294,0.0124433,0.00550075,0.353151,0.0072002,0.0146039,622,1268,-2.78173,-0.948024
-595,-244,-2.76843,1.0188,0.00773533,0.00356259,0.00125847,0.00808549,0.00321243,0.27138,0.00470087,0.0152432,629,1268,-2.76845,-1.01885
-588,-244,-2.77155,1.13525,0.00464147,0.000578924,-0.000409152,0.00468226,0.000538127,-0.0993835,0.00295849,0.0196325,636,1268,-2.77155,-1.13522
-581,-244,-2.80133,1.18909,0.00289491,-0.00159428,-0.00291095,0.00432616,-0.00302552,-0.456967,0.00426658,0.0174464,643,1268,-2.80131,-1.18911
-574,-244,-2.81476,1.24561,0.00271017,-0.00317916,-0.00417401,0.00487368,-0.00534267,-0.478203,0.00590048,0.0130596,650,1268,-2.81479,-1.24556
-567,-244,-2.81543,1.32617,0.00353684,-0.00403269,-0.00587126,0.0067375,-0.00723335,-0.499104,0.00806777,0.0104741,657,1268,-2.81542,-1.32612
-560,-244,-2.78766,1.40198,0.00411208,-0.00464012,-0.00717937,0.00814393,-0.00867197,-0.511697,0.00971026,0.0120286,664,1268,-2.78766,-1.40202
-553,-244,-2.77283,1.48669,0.00454391,-0.00481465,-0.00789592,0.00904293,-0.00931367,-0.517911,0.0105986,0.0341614,671,1268,-2.77285,-1.48665
-546,-244,-2.74744,1.55237,0,0,0,0,0,0,0,-1,678,1268,-2.74744,-1.55231
-539,-244,-2.51526,-0.188599,0.00517149,-0.0040962,-0.00899539,0.0106564,-0.00958113,-0.547557,0.0116897,0.0486841,685,1268,-2.51529,0.188615
-532,-244,-2.04688,-0.902588,0.00523654,-0.00316698,-0.00905869,0.0110205,-0.00895095,-0.568247,0.0115511,0.046721,692,1268,-2.04687,0.90262
-525,-244,-4.1922,1.43091,0.0049874,-0.00171949,-0.00852698,0.0107966,-0.00752874,-0.59805,0.0106361,0.0465389,699,1268,-4.19222,-1.43089
-518,-244,-4.10236,0.663086,0.00425399,0.000276743,-0.00726192,0.00979465,-0.00526392,-0.651753,0.00882427,0.0444655,706,1268,-4.10235,-0.663082
-511,-244,-4.05621,0.721558,0.00291015,0.00283052,-0.00507177,0.00794226,-0.00220159,-0.781473,0.00616124,0.0430354,713,1268,-4.05621,-0.721606
-504,-244,-3.95251,0.730957,0.000935924,0.00586048,-0.0018963,0.00650606,0.000290343,-1.24266,0.0042439,0.0427964,720,1268,-3.95253,-0.730921
-497,-244,-3.87958,0.772583,-0.00239932,0.00869067,0.00264756,0.00929031,-0.00299896,1.34807,0.00739865,0.0466642,727,1268,-3.8796,-0.772568
-490,-244,0,0,0,0,0,0,0,0,0,-1,734,1268,0,0
-483,-244,0,0,0,0,0,0,0,0,0,-1,741,1268,0,0
-476,-244,0,0,0,0,0,0,0,0,0,-1,748,1268,0,0
-469,-244,0,0,0,0,0,0,0,0,0,-1,755,1268,0,0
-462,-244,0,0,0,0,0,0,0,0,0,-1,762,1268,0,0
-455,-244,0,0,0,0,0,0,0,0,0,-1,769,1268,0,0
-448,-244,0,0,0,0,0,0,0,0,0,-1,776,1268,0,0
-441,-244,0,0,0,0,0,0,0,0,0,-1,783,1268,0,0
-434,-244,0,0,0,0,0,0,0,0,0,-1,790,1268,0,0
-427,-244,0,0,0,0,0,0,0,0,0,-1,797,1268,0,0
-420,-244,0,0,0,0,0,0,0,0,0,-1,804,1268,0,0
-413,-244,0,0,0,0,0,0,0,0,0,-1,811,1268,0,0
-406,-244,0,0,0,0,0,0,0,0,0,-1,818,1268,0,0
-399,-244,0,0,0,0,0,0,0,0,0,-1,825,1268,0,0
-392,-244,0,0,0,0,0,0,0,0,0,-1,832,1268,0,0
-385,-244,0,0,0,0,0,0,0,0,0,-1,839,1268,0,0
-378,-244,0,0,0,0,0,0,0,0,0,-1,846,1268,0,0
-371,-244,0,0,0,0,0,0,0,0,0,-1,853,1268,0,0
-364,-244,0,0,0,0,0,0,0,0,0,-1,860,1268,0,0
-357,-244,0,0,0,0,0,0,0,0,0,-1,867,1268,0,0
-350,-244,0,0,0,0,0,0,0,0,0,-1,874,1268,0,0
-343,-244,0,0,0,0,0,0,0,0,0,-1,881,1268,0,0
-336,-244,0,0,0,0,0,0,0,0,0,-1,888,1268,0,0
-329,-244,0,0,0,0,0,0,0,0,0,-1,895,1268,0,0
-322,-244,0,0,0,0,0,0,0,0,0,-1,902,1268,0,0
-315,-244,0,0,0,0,0,0,0,0,0,-1,909,1268,0,0
-308,-244,0,0,0,0,0,0,0,0,0,-1,916,1268,0,0
-301,-244,0,0,0,0,0,0,0,0,0,-1,923,1268,0,0
-294,-244,0,0,0,0,0,0,0,0,0,-1,930,1268,0,0
-287,-244,0,0,0,0,0,0,0,0,0,-1,937,1268,0,0
-280,-244,0,0,0,0,0,0,0,0,0,-1,944,1268,0,0
-273,-244,0,0,0,0,0,0,0,0,0,-1,951,1268,0,0
-266,-244,0,0,0,0,0,0,0,0,0,-1,958,1268,0,0
-259,-244,0,0,0,0,0,0,0,0,0,-1,965,1268,0,0
-252,-244,0,0,0,0,0,0,0,0,0,-1,972,1268,0,0
-245,-244,0,0,0,0,0,0,0,0,0,-1,979,1268,0,0
-238,-244,0,0,0,0,0,0,0,0,0,-1,986,1268,0,0
-231,-244,0,0,0,0,0,0,0,0,0,-1,993,1268,0,0
-224,-244,0,0,0,0,0,0,0,0,0,-1,1000,1268,0,0
-217,-244,0,0,0,0,0,0,0,0,0,-1,1007,1268,0,0
-210,-244,0,0,0,0,0,0,0,0,0,-1,1014,1268,0,0
-203,-244,0,0,0,0,0,0,0,0,0,-1,1021,1268,0,0
-196,-244,0,0,0,0,0,0,0,0,0,-1,1028,1268,0,0
-189,-244,0,0,0,0,0,0,0,0,0,-1,1035,1268,0,0
-182,-244,0,0,0,0,0,0,0,0,0,-1,1042,1268,0,0
-175,-244,0,0,0,0,0,0,0,0,0,-1,1049,1268,0,0
-168,-244,0,0,0,0,0,0,0,0,0,-1,1056,1268,0,0
-161,-244,0,0,0,0,0,0,0,0,0,-1,1063,1268,0,0
-154,-244,0,0,0,0,0,0,0,0,0,-1,1070,1268,0,0
-147,-244,0,0,0,0,0,0,0,0,0,-1,1077,1268,0,0
-140,-244,0,0,0,0,0,0,0,0,0,-1,1084,1268,0,0
-133,-244,0,0,0,0,0,0,0,0,0,-1,1091,1268,0,0
-126,-244,0,0,0,0,0,0,0,0,0,-1,1098,1268,0,0
-119,-244,0,0,0,0,0,0,0,0,0,-1,1105,1268,0,0
-112,-244,0,0,0,0,0,0,0,0,0,-1,1112,1268,0,0
-105,-244,0,0,0,0,0,0,0,0,0,-1,1119,1268,0,0
-98,-244,0,0,0,0,0,0,0,0,0,-1,1126,1268,0,0
-91,-244,0,0,0,0,0,0,0,0,0,-1,1133,1268,0,0
-84,-244,0,0,0,0,0,0,0,0,0,-1,1140,1268,0,0
-77,-244,0,0,0,0,0,0,0,0,0,-1,1147,1268,0,0
-70,-244,0,0,0,0,0,0,0,0,0,-1,1154,1268,0,0
-63,-244,0,0,0,0,0,0,0,0,0,-1,1161,1268,0,0
-56,-244,0,0,0,0,0,0,0,0,0,-1,1168,1268,0,0
-49,-244,0,0,0,0,0,0,0,0,0,-1,1175,1268,0,0
-42,-244,0,0,0,0,0,0,0,0,0,-1,1182,1268,0,0
-35,-244,0,0,0,0,0,0,0,0,0,-1,1189,1268,0,0
-28,-244,0,0,0,0,0,0,0,0,0,-1,1196,1268,0,0
-21,-244,0,0,0,0,0,0,0,0,0,-1,1203,1268,0,0
-14,-244,0,0,0,0,0,0,0,0,0,-1,1210,1268,0,0
-7,-244,0,0,0,0,0,0,0,0,0,-1,1217,1268,0,0
0,-244,0,0,0,0,0,0,0,0,0,-1,1224,1268,0,0
7,-244,0,0,0,0,0,0,0,0,0,-1,1231,1268,0,0
14,-244,0,0,0,0,0,0,0,0,0,-1,1238,1268,0,0
21,-244,0,0,0,0,0,0,0,0,0,-1,1245,1268,0,0
28,-244,0,0,0,0,0,0,0,0,0,-1,1252,1268,0,0
35,-244,0,0,0,0,0,0,0,0,0,-1,1259,1268,0,0
42,-244,0,0,0,0,0,0,0,0,0,-1,1266,1268,0,0
49,-244,0,0,0,0,0,0,0,0,0,-1,1273,1268,0,0
56,-244,0,0,0,0,0,0,0,0,0,-1,1280,1268,0,0
63,-244,0,0,0,0,0,0,0,0,0,-1,1287,1268,0,0
70,-244,0,0,0,0,0,0,0,0,0,-1,1294,1268,0,0
77,-244,0,0,0,0,0,0,0,0,0,-1,1301,1268,0,0
84,-244,0,0,0,0,0,0,0,0,0,-1,1308,1268,0,0
91,-244,0,0,0,0,0,0,0,0,0,-1,1315,1268,0,0
98,-244,0,0,0,0,0,0,0,0,0,-1,1322,1268,0,0
105,-244,0,0,0,0,0,0,0,0,0,-1,1329,1268,0,0
112,-244,0,0,0,0,0,0,0,0,0,-1,1336,1268,0,0
119,-244,0,0,0,0,0,0,0,0,0,-1,1343,1268,0,0
126,-244,0,0,0,0,0,0,0,0,0,-1,1350,1268,0,0
133,-244,0,0,0,0,0,0,0,0,0,-1,1357,1268,0,0
140,-244,0,0,0,0,0,0,0,0,0,-1,1364,1268,0,0
147,-244,0,0,0,0,0,0,0,0,0,-1,1371,1268,0,0
154,-244,0,0,0,0,0,0,0,0,0,-1,1378,1268,0,0
161,-244,0,0,0,0,0,0,0,0,0,-1,1385,1268,0,0
168,-244,0,0,0,0,0,0,0,0,0,-1,1392,1268,0,0
175,-244,0,0,0,0,0,0,0,0,0,-1,1399,1268,0,0
182,-244,0,0,0,0,0,0,0,0,0,-1,1406,1268,0,0
189,-244,0,0,0,0,0,0,0,0,0,-1,1413,1268,0,0
196,-244,0,0,0,0,0,0,0,0,0,-1,1420,1268,0,0
203,-244,0,0,0,0,0,0,0,0,0,-1,1427,1268,0,0
210,-244,0,0,0,0,0,0,0,0,0,-1,1434,1268,0,0
217,-244,0,0,0,0,0,0,0,0,0,-1,1441,1268,0,0
224,-244,0,0,0,0,0,0,0,0,0,-1,1448,1268,0,0
231,-244,0,0,0,0,0,0,0,0,0,-1,1455,1268,0,0
238,-244,0,0,0,0,0,0,0,0,0,-1,1462,1268,0,0
245,-244,0,0,0,0,0,0,0,0,0,-1,1469,1268,0,0
252,-244,0,0,0,0,0,0,0,0,0,-1,1476,1268,0,0
259,-244,0,0,0,0,0,0,0,0,0,-1,1483,1268,0,0
266,-244,0,0,0,0,0,0,0,0,0,-1,1490,1268,0,0
273,-244,0,0,0,0,0,0,0,0,0,-1,1497,1268,0,0
280,-244,0,0,0,0,0,0,0,0,0,-1,1504,1268,0,0
287,-244,0,0,0,0,0,0,0,0,0,-1,1511,1268,0,0
294,-244,0,0,0,0,0,0,0,0,0,-1,1518,1268,0,0
301,-244,0,0,0,0,0,0,0,0,0,-1,1525,1268,0,0
308,-244,0,0,0,0,0,0,0,0,0,-1,1532,1268,0,0
315,-244,0,0,0,0,0,0,0,0,0,-1,1539,1268,0,0
322,-244,0,0,0,0,0,0,0,0,0,-1,1546,1268,0,0
329,-244,0,0,0,0,0,0,0,0,0,-1,1553,1268,0,0
336,-244,0,0,0,0,0,0,0,0,0,-1,1560,1268,0,0
343,-244,0,0,0,0,0,0,0,0,0,-1,1567,1268,0,0
350,-244,0,0,0,0,0,0,0,0,0,-1,1574,1268,0,0
357,-244,0,0,0,0,0,0,0,0,0,-1,1581,1268,0,0
364,-244,0,0,0,0,0,0,0,0,0,-1,1588,1268,0,0
371,-244,0,0,0,0,0,0,0,0,0,-1,1595,1268,0,0
378,-244,0,0,0,0,0,0,0,0,0,-1,1602,1268,0,0
385,-244,0,0,0,0,0,0,0,0,0,-1,1609,1268,0,0
392,-244,0,0,0,0,0,0,0,0,0,-1,1616,1268,0,0
399,-244,0,0,0,0,0,0,0,0,0,-1,1623,1268,0,0
406,-244,0,0,0,0,0,0,0,0,0,-1,1630,1268,0,0
413,-244,0,0,0,0,0,0,0,0,0,-1,1637,1268,0,0
420,-244,0,0,0,0,0,0,0,0,0,-1,1644,1268,0,0
427,-244,0,0,0,0,0,0,0,0,0,-1,1651,1268,0,0
434,-244,0,0,0,0,0,0,0,0,0,-1,1658,1268,0,0
441,-244,0,0,0,0,0,0,0,0,0,-1,1665,1268,0,0
448,-244,0,0,0,0,0,0,0,0,0,-1,1672,1268,0,0
455,-244,0,0,0,0,0,0,0,0,0,-1,1679,1268,0,0
462,-244,0,0,0,0,0,0,0,0,0,-1,1686,1268,0,0
469,-244,0,0,0,0,0,0,0,0,0,-1,1693,1268,0,0
476,-244,0,0,0,0,0,0,0,0,0,-1,1700,1268,0,0
483,-244,0,0,0,0,0,0,0,0,0,-1,1707,1268,0,0
490,-244,0,0,0,0,0,0,0,0,0,-1,1714,1268,0,0
497,-244,0,0,0,0,0,0,0,0,0,-1,1721,1268,0,0
504,-244,0,0,0,0,0,0,0,0,0,-1,1728,1268,0,0
511,-244,0,0,0,0,0,0,0,0,0,-1,1735,1268,0,0
518,-244,0,0,0,0,0,0,0,0,0,-1,1742,1268,0,0
525,-244,0,0,0,0,0,0,0,0,0,-1,1749,1268,0,0
532,-244,0,0,0,0,0,0,0,0,0,-1,1756,1268,0,0
539,-244,0,0,0,0,0,0,0,0,0,-1,1763,1268,0,0
546,-244,0,0,0,0,0,0,0,0,0,-1,1770,1268,0,0
553,-244,0,0,0,0,0,0,0,0,0,-1,1777,1268,0,0
560,-244,0,0,0,0,0,0,0,0,0,-1,1784,1268,0,0
567,-244,0,0,0,0,0,0,0,0,0,-1,1791,1268,0,0
574,-244,0,0,0,0,0,0,0,0,0,-1,1798,1268,0,0
581,-244,0,0,0,0,0,0,0,0,0,-1,1805,1268,0,0
588,-244,0,0,0,0,0,0,0,0,0,-1,1812,1268,0,0
595,-244,0,0,0,0,0,0,0,0,0,-1,1819,1268,0,0
602,-244,0,0,0,0,0,0,0,0,0,-1,1826,1268,0,0
609,-244,0,0,0,0,0,0,0,0,0,-1,1833,1268,0,0
616,-244,9.6908,1.09412,-0.00107306,0.0085953,-0.00235973,0.0091405,-0.00161825,-1.34374,0.00669856,0.034504,1840,1268,9.69084,-1.09411
623,-244,9.61218,1.23962,-0.00164406,0.00815074,-0.00113954,0.00828157,-0.00177489,-1.45649,0.00619797,0.027501,1847,1268,9.61213,-1.23964
630,-244,9.57031,1.3446,-0.00125362,0.00903302,0.00173042,0.00931631,-0.00153691,1.40852,0.00678148,0.0247766,1854,1268,9.57032,-1.34461
637,-244,9.56079,1.31335,-0.000881841,0.00967344,0.00445521,0.0113025,-0.00251089,1.22025,0.00849654,0.0411148,1861,1268,9.56081,-1.31336
644,-244,9.53894,1.18445,-0.000622436,0.00997491,0.00651933,0.0130773,-0.00372481,1.12664,0.0101893,0.0463147,1868,1268,9.53891,-1.18443
651,-244,9.45898,0.900757,-0.000249636,0.0100136,0.00801429,0.0143984,-0.00463443,1.07016,0.0114605,0.0463498,1875,1268,9.45896,-0.900803
658,-244,9.28271,0.766968,0,0,0,0,0,0,0,-1,1882,1268,9.28272,-0.767007
665,-244,8.61377,1.45923,0,0,0,0,0,0,0,-1,1889,1268,8.61375,-1.45919
672,-244,7.69897,-1.57776,0,0,0,0,0,0,0,-1,1896,1268,7.69899,1.57779
679,-244,8.17529,1.98499,0.000638784,0.00712941,0.00907482,0.0135218,-0.00575356,0.957121,0.0114259,0.0379301,1903,1268,8.17524,-1.98494
686,-244,8.31567,2.15588,0.000649201,0.00619716,0.0084922,0.012357,-0.0055106,0.94326,0.0105653,0.0202642,1910,1268,8.31573,-2.1559
693,-244,8.30286,2.1123,0.000582838,0.00515138,0.00752249,0.0107288,-0.00499455,0.932803,0.00927691,0.00951008,1917,1268,8.30285,-2.11226
700,-244,8.3186,2.03174,0.000484408,0.00410992,0.00640938,0.00895796,-0.00436363,0.923213,0.00784221,0.00819649,1924,1268,8.31862,-2.0317
707,-244,8.33325,1.95593,0.000388722,0.00282852,0.00520423,0.00695392,-0.00373668,0.900522,0.00626469,0.00879982,1931,1268,8.33323,-1.95596
714,-244,8.33374,1.89661,0.000453264,0.00156704,0.00374982,0.0048011,-0.00278079,0.859115,0.0044289,0.00977186,1938,1268,8.33374,-1.89663
721,-244,8.31482,1.84778,0.000119672,0.00130325,0.00285383,0.00362601,-0.00220308,0.887633,0.00339869,0.0118013,1945,1268,8.31478,-1.84783
728,-244,8.32483,1.77869,-0.000947994,0.00228563,0.00188973,0.00315581,-0.00181818,1.13926,0.00290615,0.0157975,1952,1268,8.32478,-1.77874
735,-244,8.32239,1.69397,-0.00188346,0.00267825,0.00204874,0.00346328,-0.00266849,1.20488,0.00355008,0.0229779,1959,1268,8.32241,-1.69395
742,-244,8.34717,1.6521,-0.00239099,0.00421469,0.00278031,0.00522912,-0.00340543,1.22094,0.00502209,0.0151666,1966,1268,8.34717,-1.65214
749,-244,8.33472,1.57581,-0.00334427,0.00582815,0.00379292,0.00719338,-0.00470949,1.22529,0.00692182,0.016934,1973,1268,8.33469,-1.57583
756,-244,8.28345,1.50708,-0.00469013,0.00754151,0.00505289,0.00935884,-0.00650747,1.22554,0.0092096,0.0229393,1980,1268,8.28349,-1.50707
763,-244,8.29993,1.50159,-0.00640636,0.00931291,0.00661503,0.0117262,-0.00881962,1.22098,0.0119016,0.0383691,1987,1268,8.29989,-1.50153
770,-244,8.32275,1.50488,-0.00866341,0.0109298,0.0085203,0.0141166,-0.0118502,1.21288,0.015011,0.0444631,1994,1268,8.32274,-1.50489
777,-244,8.05237,1.26563,-0.0116225,0.0120419,0.0107854,0.0162199,-0.0158005,1.20122,0.0184875,0.0462214,2001,1268,8.05238,-1.26567
784,-244,7.89856,1.69836,-0.0154036,0.0120961,0.0134142,0.0175556,-0.0208631,1.18428,0.0222084,0.044075,2008,1268,7.89852,-1.6984
791,-244,0,0,0,0,0,0,0,0,0,-1,2015,1268,0,0
798,-244,0,0,0,0,0,0,0,0,0,-1,2022,1268,0,0
805,-244,0,0,0,0,0,0,0,0,0,-1,2029,1268,0,0
812,-244,0,0,0,0,0,0,0,0,0,-1,2036,1268,0,0
-700,-251,0,0,0,0,0,0,0,0,0,-1,524,1275,0,0
-693,-251,0,0,0,0,0,0,0,0,0,-1,531,1275,0,0
-686,-251,0,0,0,0,0,0,0,0,0,-1,538,1275,0,0
-679,-251,0,0,0,0,0,0,0,0,0,-1,545,1275,0,0
-672,-251,0,0,0,0,0,0,0,0,0,-1,552,1275,0,0
-665,-251,-3.81042,-0.519653,0,0,0,0,0,0,0,-1,559,1275,-3.81041,0.519681
-658,-251,-1.48615,-0.0621338,0,0,0,0,0,0,0,-1,566,1275,-1.48611,0.0621618
-651,-251,-1.75305,0.449341,0,0,0,0,0,0,0,-1,573,1275,-1.75304,-0.44932
-644,-251,-2.06537,0.327271,0,0,0,0,0,0,0,-1,580,1275,-2.06538,-0.327231
-637,-251,-2.64661,0.578857,0,0,0,0,0,0,0,-1,587,1275,-2.64662,-0.578878
-630,-251,-2.79675,0.733032,0,0,0,0,0,0,0,-1,594,1275,-2.79674,-0.733027
-623,-251,-2.77313,0.776978,0.0402961,0.0207443,0.0062004,0.0420966,0.0189438,0.282613,0.024345,0.0384539,601,1275,-2.77316,-0.776952
-616,-251,-2.7442,0.795776,0.0312413,0.0162392,0.00551154,0.0330484,0.014432,0.316842,0.0191314,0.0204295,608,1275,-2.74418,-0.79572
-609,-251,-2.7417,0.866943,0.0228314,0.0123165,0.00453892,0.0245196,0.0106282,0.356091,0.0141981,0.0184946,615,1275,-2.74169,-0.866898
-602,-251,-2.7287,0.932373,0.0161345,0.00852739,0.00345165,0.0174671,0.0071947,0.368468,0.0101367,0.0136373,622,1275,-2.72873,-0.932392
-595,-251,-2.70972,0.999268,0.0105699,0.00490013,0.00229184,0.0113804,0.00408959,0.339935,0.00665657,0.0122239,629,1275,-2.7097,-0.99931
-588,-251,-2.70313,1.07776,0.00620156,0.00123142,0.000476227,0.00624678,0.0011862,0.0946699,0.00383083,0.0138366,636,1275,-2.70314,-1.0777
-581,-251,-2.72437,1.17004,0.00376325,-0.00142596,-0.00253315,0.00479478,-0.00245748,-0.386707,0.00425896,0.012941,643,1275,-2.72435,-1.17006
-574,-251,-2.71808,1.26953,0.00356908,-0.00325001,-0.00402007,0.00543077,-0.00511171,-0.433694,0.00608763,0.0124266,650,1275,-2.71807,-1.26948
-567,-251,-2.716,1.33521,0.00463054,-0.00433029,-0.00598532,0.00762663,-0.00732638,-0.464106,0.00863371,0.011003,657,1275,-2.71599,-1.33526
-560,-251,-2.71368,1.40234,0.00541739,-0.00505419,-0.00759675,0.00940787,-0.00904467,-0.483673,0.0106543,0.0110776,664,1275,-2.71366,-1.40236
-553,-251,-2.68317,1.46216,0.00610527,-0.00528674,-0.00854545,0.0106791,-0.00986056,-0.491436,0.0118617,0.0249491,671,1275,-2.68316,-1.46211
-546,-251,-2.64716,1.51636,0.00693048,-0.00525076,-0.00937072,0.012016,-0.0103363,-0.497224,0.0129172,0.0465105,678,1275,-2.64715,-1.5164
-539,-251,-2.26129,-0.786499,0.00720178,-0.00463223,-0.010173,0.0130535,-0.0104839,-0.521995,0.0136163,0.045625,685,1275,-2.26132,0.786454
-532,-251,-1.87646,-1.3429,0.00733476,-0.00364041,-0.0105609,0.0137487,-0.0100543,-0.54579,0.0137977,0.0462836,692,1275,-1.87648,1.34285
-525,-251,-4.19812,1.70117,0.00697467,-0.00205198,-0.0104848,0.0138763,-0.00895358,-0.582153,0.0132826,0.0489525,699,1275,-4.19812,-1.70117
-518,-251,-3.84564,0.494507,0.00608859,5.04772e-05,-0.00969058,0.0132195,-0.00708044,-0.634391,0.0118975,0.0453674,706,1275,-3.84562,-0.494483
-511,-251,-3.90308,0.661499,0.00439326,0.00274368,-0.00810013,0.0117105,-0.00457354,-0.734661,0.00969791,0.0425422,713,1275,-3.90306,-0.661451
-504,-251,-3.91058,0.606445,0.00174877,0.00601918,-0.00565034,0.0099243,-0.00215635,-0.966049,0.00743989,0.0404293,720,1275,-3.91057,-0.606462
-497,-251,-3.8526,0.634766,-0.00248367,0.00947015,-0.00211123,0.00983207,-0.00284559,-1.40102,0.007681,0.0450624,727,1275,-3.85263,-0.634728
-490,-251,0,0,0,0,0,0,0,0,0,-1,734,1275,0,0
-483,-251,0,0,0,0,0,0,0,0,0,-1,741,1275,0,0
-476,-251,0,0,0,0,0,0,0,0,0,-1,748,1275,0,0
-469,-251,0,0,0,0,0,0,0,0,0,-1,755,1275,0,0
-462,-251,0,0,0,0,0,0,0,0,0,-1,762,1275,0,0
-455,-251,0,0,0,0,0,0,0,0,0,-1,769,1275,0,0
-448,-251,0,0,0,0,0,0,0,0,0,-1,776,1275,0,0
-441,-251,0,0,0,0,0,0,0,0,0,-1,783,1275,0,0
-434,-251,0,0,0,0,0,0,0,0,0,-1,790,1275,0,0
-427,-251,0,0,0,0,0,0,0,0,0,-1,797,1275,0,0
-420,-251,0,0,0,0,0,0,0,0,0,-1,804,1275,0,0
-413,-251,0,0,0,0,0,0,0,0,0,-1,811,1275,0,0
-406,-251,0,0,0,0,0,0,0,0,0,-1,818,1275,0,0
-399,-251,0,0,0,0,0,0,0,0,0,-1,825,1275,0,0
-392,-251,0,0,0,0,0,0,0,0,0,-1,832,1275,0,0
-385,-251,0,0,0,0,0,0,0,0,0,-1,839,1275,0,0
-378,-251,0,0,0,0,0,0,0,0,0,-1,846,1275,0,0
-371,-251,0,0,0,0,0,0,0,0,0,-1,853,1275,0,0
-364,-251,0,0,0,0,0,0,0,0,0,-1,860,1275,0,0
-357,-251,0,0,0,0,0,0,0,0,0,-1,867,1275,0,0
-350,-251,0,0,0,0,0,0,0,0,0,-1,874,1275,0,0
-343,-251,0,0,0,0,0,0,0,0,0,-1,881,1275,0,0
-336,-251,0,0,0,0,0,0,0,0,0,-1,888,1275,0,0
-329,-251,0,0,0,0,0,0,0,0,0,-1,895,1275,0,0
-322,-251,0,0,0,0,0,0,0,0,0,-1,902,1275,0,0
-315,-251,0,0,0,0,0,0,0,0,0,-1,909,1275,0,0
-308,-251,0,0,0,0,0,0,0,0,0,-1,916,1275,0,0
-301,-251,0,0,0,0,0,0,0,0,0,-1,923,1275,0,0
-294,-251,0,0,0,0,0,0,0,0,0,-1,930,1275,0,0
-287,-251,0,0,0,0,0,0,0,0,0,-1,937,1275,0,0
-280,-251,0,0,0,0,0,0,0,0,0,-1,944,1275,0,0
-273,-251,0,0,0,0,0,0,0,0,0,-1,951,1275,0,0
-266,-251,0,0,0,0,0,0,0,0,0,-1,958,1275,0,0
-259,-251,0,0,0,0,0,0,0,0,0,-1,965,1275,0,0
-252,-251,0,0,0,0,0,0,0,0,0,-1,972,1275,0,0
-245,-251,0,0,0,0,0,0,0,0,0,-1,979,1275,0,0
-238,-251,0,0,0,0,0,0,0,0,0,-1,986,1275,0,0
-231,-251,0,0,0,0,0,0,0,0,0,-1,993,1275,0,0
-224,-251,0,0,0,0,0,0,0,0,0,-1,1000,1275,0,0
-217,-251,0,0,0,0,0,0,0,0,0,-1,1007,1275,0,0
-210,-251,0,0,0,0,0,0,0,0,0,-1,1014,1275,0,0
-203,-251,0,0,0,0,0,0,0,0,0,-1,1021,1275,0,0
-196,-251,0,0,0,0,0,0,0,0,0,-1,1028,1275,0,0
-189,-251,0,0,0,0,0,0,0,0,0,-1,1035,1275,0,0
-182,-251,0,0,0,0,0,0,0,0,0,-1,1042,1275,0,0
-175,-251,0,0,0,0,0,0,0,0,0,-1,1049,1275,0,0
-168,-251,0,0,0,0,0,0,0,0,0,-1,1056,1275,0,0
-161,-251,0,0,0,0,0,0,0,0,0,-1,1063,1275,0,0
-154,-251,0,0,0,0,0,0,0,0,0,-1,1070,1275,0,0
-147,-251,0,0,0,0,0,0,0,0,0,-1,1077,1275,0,0
-140,-251,0,0,0,0,0,0,0,0,0,-1,1084,1275,0,0
-133,-251,0,0,0,0,0,0,0,0,0,-1,1091,1275,0,0
-126,-251,0,0,0,0,0,0,0,0,0,-1,1098,1275,0,0
-119,-251,0,0,0,0,0,0,0,0,0,-1,1105,1275,0,0
-112,-251,0,0,0,0,0,0,0,0,0,-1,1112,1275,0,0
-105,-251,0,0,0,0,0,0,0,0,0,-1,1119,1275,0,0
-98,-251,0,0,0,0,0,0,0,0,0,-1,1126,1275,0,0
-91,-251,0,0,0,0,0,0,0,0,0,-1,1133,1275,0,0
-84,-251,0,0,0,0,0,0,0,0,0,-1,1140,1275,0,0
-77,-251,0,0,0,0,0,0,0,0,0,-1,1147,1275,0,0
-70,-251,0,0,0,0,0,0,0,0,0,-1,1154,1275,0,0
-63,-251,0,0,0,0,0,0,0,0,0,-1,1161,1275,0,0
-56,-251,0,0,0,0,0,0,0,0,0,-1,1168,1275,0,0
-49,-251,0,0,0,0,0,0,0,0,0,-1,1175,1275,0,0
-42,-251,0,0,0,0,0,0,0,0,0,-1,1182,1275,0,0
-35,-251,0,0,0,0,0,0,0,0,0,-1,1189,1275,0,0
-28,-251,0,0,0,0,0,0,0,0,0,-1,1196,1275,0,0
-21,-251,0,0,0,0,0,0,0,0,0,-1,1203,1275,0,0
-14,-251,0,0,0,0,0,0,0,0,0,-1,1210,1275,0,0
-7,-251,0,0,0,0,0,0,0,0,0,-1,1217,1275,0,0
0,-251,0,0,0,0,0,0,0,0,0,-1,1224,1275,0,0
7,-251,0,0,0,0,0,0,0,0,0,-1,1231,1275,0,0
14,-251,0,0,0,0,0,0,0,0,0,-1,1238,1275,0,0
21,-251,0,0,0,0,0,0,0,0,0,-1,1245,1275,0,0
28,-251,0,0,0,0,0,0,0,0,0,-1,1252,1275,0,0
35,-251,0,0,0,0,0,0,0,0,0,-1,1259,1275,0,0
42,-251,0,0,0,0,0,0,0,0,0,-1,1266,1275,0,0
49,-251,0,0,0,0,0,0,0,0,0,-1,1273,1275,0,0
56,-251,0,0,0,0,0,0,0,0,0,-1,1280,1275,0,0
63,-251,0,0,0,0,0,0,0,0,0,-1,1287,1275,0,0
70,-251,0,0,0,0,0,0,0,0,0,-1,1294,1275,0,0
77,-251,0,0,0,0,0,0,0,0,0,-1,1301,1275,0,0
84,-251,0,0,0,0,0,0,0,0,0,-1,1308,1275,0,0
91,-251,0,0,0,0,0,0,0,0,0,-1,1315,1275,0,0
98,-251,0,0,0,0,0,0,0,0,0,-1,1322,1275,0,0
105,-251,0,0,0,0,0,0,0,0,0,-1,1329,1275,0,0
112,-251,0,0,0,0,0,0,0,0,0,-1,1336,1275,0,0
119,-251,0,0,0,0,0,0,0,0,0,-1,1343,1275,0,0
126,-251,0,0,0,0,0,0,0,0,0,-1,1350,1275,0,0
133,-251,0,0,0,0,0,0,0,0,0,-1,1357,1275,0,0
140,-251,0,0,0,0,0,0,0,0,0,-1,1364,1275,0,0
147,-251,0,0,0,0,0,0,0,0,0,-1,1371,1275,0,0
154,-251,0,0,0,0,0,0,0,0,0,-1,1378,1275,0,0
161,-251,0,0,0,0,0,0,0,0,0,-1,1385,1275,0,0
168,-251,0,0,0,0,0,0,0,0,0,-1,1392,1275,0,0
175,-251,0,0,0,0,0,0,0,0,0,-1,1399,1275,0,0
182,-251,0,0,0,0,0,0,0,0,0,-1,1406,1275,0,0
189,-251,0,0,0,0,0,0,0,0,0,-1,1413,1275,0,0
196,-251,0,0,0,0,0,0,0,0,0,-1,1420,1275,0,0
203,-251,0,0,0,0,0,0,0,0,0,-1,1427,1275,0,0
210,-251,0,0,0,0,0,0,0,0,0,-1,1434,1275,0,0
217,-251,0,0,0,0,0,0,0,0,0,-1,1441,1275,0,0
224,-251,0,0,0,0,0,0,0,0,0,-1,1448,1275,0,0
231,-251,0,0,0,0,0,0,0,0,0,-1,1455,1275,0,0
238,-251,0,0,0,0,0,0,0,0,0,-1,1462,1275,0,0
245,-251,0,0,0,0,0,0,0,0,0,-1,1469,1275,0,0
252,-251,0,0,0,0,0,0,0,0,0,-1,1476,1275,0,0
259,-251,0,0,0,0,0,0,0,0,0,-1,1483,1275,0,0
266,-251,0,0,0,0,0,0,0,0,0,-1,1490,1275,0,0
273,-251,0,0,0,0,0,0,0,0,0,-1,1497,1275,0,0
280,-251,0,0,0,0,0,0,0,0,0,-1,1504,1275,0,0
287,-251,0,0,0,0,0,0,0,0,0,-1,1511,1275,0,0
294,-251,0,0,0,0,0,0,0,0,0,-1,1518,1275,0,0
301,-251,0,0,0,0,0,0,0,0,0,-1,1525,1275,0,0
308,-251,0,0,0,0,0,0,0,0,0,-1,1532,1275,0,0
315,-251,0,0,0,0,0,0,0,0,0,-1,1539,1275,0,0
322,-251,0,0,0,0,0,0,0,0,0,-1,1546,1275,0,0
329,-251,0,0,0,0,0,0,0,0,0,-1,1553,1275,0,0
336,-251,0,0,0,0,0,0,0,0,0,-1,1560,1275,0,0
343,-251,0,0,0,0,0,0,0,0,0,-1,1567,1275,0,0
350,-251,0,0,0,0,0,0,0,0,0,-1,1574,1275,0,0
357,-251,0,0,0,0,0,0,0,0,0,-1,1581,1275,0,0
364,-251,0,0,0,0,0,0,0,0,0,-1,1588,1275,0,0
371,-251,0,0,0,0,0,0,0,0,0,-1,1595,1275,0,0
378,-251,0,0,0,0,0,0,0,0,0,-1,1602,1275,0,0
385,-251,0,0,0,0,0,0,0,0,0,-1,1609,1275,0,0
392,-251,0,0,0,0,0,0,0,0,0,-1,1616,1275,0,0
399,-251,0,0,0,0,0,0,0,0,0,-1,1623,1275,0,0
406,-251,0,0,0,0,0,0,0,0,0,-1,1630,1275,0,0
413,-251,0,0,0,0,0,0,0,0,0,-1,1637,1275,0,0
420,-251,0,0,0,0,0,0,0,0,0,-1,1644,1275,0,0
427,-251,0,0,0,0,0,0,0,0,0,-1,1651,1275,0,0
434,-251,0,0,0,0,0,0,0,0,0,-1,1658,1275,0,0
441,-251,0,0,0,0,0,0,0,0,0,-1,1665,1275,0,0
448,-251,0,0,0,0,0,0,0,0,0,-1,1672,1275,0,0
455,-251,0,0,0,0,0,0,0,0,0,-1,1679,1275,0,0
462,-251,0,0,0,0,0,0,0,0,0,-1,1686,1275,0,0
469,-251,0,0,0,0,0,0,0,0,0,-1,1693,1275,0,0
476,-251,0,0,0,0,0,0,0,0,0,-1,1700,1275,0,0
483,-251,0,0,0,0,0,0,0,0,0,-1,1707,1275,0,0
490,-251,0,0,0,0,0,0,0,0,0,-1,1714,1275,0,0
497,-251,0,0,0,0,0,0,0,0,0,-1,1721,1275,0,0
504,-251,0,0,0,0,0,0,0,0,0,-1,1728,1275,0,0
511,-251,0,0,0,0,0,0,0,0,0,-1,1735,1275,0,0
518,-251,0,0,0,0,0,0,0,0,0,-1,1742,1275,0,0
525,-251,0,0,0,0,0,0,0,0,0,-1,1749,1275,0,0
532,-251,0,0,0,0,0,0,0,0,0,-1,1756,1275,0,0
539,-251,0,0,0,0,0,0,0,0,0,-1,1763,1275,0,0
546,-251,0,0,0,0,0,0,0,0,0,-1,1770,1275,0,0
553,-251,0,0,0,0,0,0,0,0,0,-1,1777,1275,0,0
560,-251,0,0,0,0,0,0,0,0,0,-1,1784,1275,0,0
567,-251,0,0,0,0,0,0,0,0,0,-1,1791,1275,0,0
574,-251,0,0,0,0,0,0,0,0,0,-1,1798,1275,0,0
581,-251,0,0,0,0,0,0,0,0,0,-1,1805,1275,0,0
588,-251,0,0,0,0,0,0,0,0,0,-1,1812,1275,0,0
595,-251,0,0,0,0,0,0,0,0,0,-1,1819,1275,0,0
602,-251,0,0,0,0,0,0,0,0,0,-1,1826,1275,0,0
609,-251,9.61047,1.21252,-0.00326626,0.0125463,-0.00679137,0.0150627,-0.00578264,-1.21595,0.0124263,0.02862,1833,1275,9.61043,-1.21258
616,-251,9.6134,1.25537,-0.00168771,0.0107098,-0.00278976,0.0113086,-0.00228655,-1.35935,0.00840559,0.0266268,1840,1275,9.61339,-1.25535
623,-251,9.58936,1.39172,-0.00213949,0.00955533,0.000233836,0.00956001,-0.00214417,1.55081,0.00719535,0.023739,1847,1275,9.58933,-1.39167
630,-251,9.64014,1.39001,-0.00185828,0.00937724,0.00372775,0.0105015,-0.00298257,1.27787,0.00817855,0.0366053,1854,1275,9.64015,-1.39007
637,-251,9.68372,1.29053,-0.00162793,0.00924605,0.00641118,0.0122153,-0.00459713,1.13708,0.0100333,0.0417199,1861,1275,9.68366,-1.29054
644,-251,9.6438,1.14319,-0.00140013,0.00906595,0.0082121,0.0135706,-0.00590481,1.06907,0.0115308,0.045187,1868,1275,9.64378,-1.14315
651,-251,9.6626,1.04626,0,0,0,0,0,0,0,-1,1875,1275,9.66256,-1.04627
658,-251,11.0084,1.78528,0,0,0,0,0,0,0,-1,1882,1275,11.0085,-1.78525
665,-251,10.4055,2.6571,0,0,0,0,0,0,0,-1,1889,1275,10.4055,-2.65706
672,-251,8.1615,2.00708,0,0,0,0,0,0,0,-1,1896,1275,8.16152,-2.00712
679,-251,8.20691,2.16296,0.000153052,0.00610642,0.00945247,0.0130398,-0.00678035,0.937938,0.0116319,0.0391706,1903,1275,8.20687,-2.16291
686,-251,8.22571,2.19763,0.000322257,0.00523938,0.00859372,0.0117193,-0.00615767,0.924721,0.0104865,0.0171032,1910,1275,8.22576,-2.19762
693,-251,8.25476,2.14453,0.00033874,0.00446193,0.00735891,0.0100426,-0.0052419,0.921972,0.00896841,0.00891025,1917,1275,8.25479,-2.14451
700,-251,8.26282,2.05542,0.000270871,0.00369723,0.00610908,0.0083288,-0.0043607,0.922103,0.00744473,0.00801276,1924,1275,8.26278,-2.05546
707,-251,8.28784,1.96179,0.000221888,0.00277153,0.0048918,0.0065519,-0.00355847,0.912865,0.00592189,0.00956318,1931,1275,8.28785,-1.96174
714,-251,8.28064,1.90552,0.000381393,0.00195832,0.00345042,0.00470921,-0.00236951,0.897725,0.00416065,0.0105015,1938,1275,8.28062,-1.90553
721,-251,8.24463,1.84106,0.000103662,0.00226709,0.00272721,0.00411927,-0.00174852,0.9742,0.00347872,0.0115247,1945,1275,8.24459,-1.84105
728,-251,8.23755,1.76892,-0.00092681,0.0041359,0.00196319,0.00480796,-0.00159887,1.24097,0.00385055,0.0128124,1952,1275,8.23754,-1.76888
735,-251,8.26843,1.70142,-0.00186113,0.00514692,0.00227963,0.0058232,-0.00253741,1.28241,0.0049497,0.0139935,1959,1275,8.26838,-1.70146
742,-251,8.28894,1.6604,-0.00245136,0.00755432,0.00309882,0.0084363,-0.00333334,1.29351,0.00700486,0.0144167,1966,1275,8.28899,-1.66041
749,-251,8.29602,1.63586,-0.00340059,0.0103595,0.00420688,0.0115438,-0.00458484,1.29639,0.00959642,0.0210994,1973,1275,8.29601,-1.63588
756,-251,8.27271,1.78821,-0.00468196,0.0136045,0.00558216,0.0151738,-0.0062513,1.29674,0.0127223,0.0350808,1980,1275,8.27275,-1.78823
763,-251,8.224,2.01099,-0.00630001,0.0172372,0.00727937,0.0193066,-0.00836937,1.29383,0.0163893,0.0437164,1987,1275,8.22404,-2.01103
770,-251,8.01697,2.1051,-0.00840548,0.0210225,0.00935216,0.0237431,-0.0111261,1.28771,0.0205663,0.0467339,1994,1275,8.017,-2.10516
777,-251,7.73743,2.47534,-0.011128,0.0245352,0.0118316,0.0281034,-0.0146962,1.27789,0.0251113,0.0473389,2001,1275,7.73737,-2.47538
784,-251,7.56714,2.64758,-0.0145517,0.0270423,0.0147491,0.0317414,-0.0192508,1.26236,0.0297333,0.044624,2008,1275,7.56712,-2.64759
791,-251,0,0,0,0,0,0,0,0,0,-1,2015,1275,0,0
798,-251,0,0,0,0,0,0,0,0,0,-1,2022,1275,0,0
805,-251,0,0,0,0,0,0,0,0,0,-1,2029,1275,0,0
812,-251,0,0,0,0,0,0,0,0,0,-1,2036,1275,0,0
-700,-258,0,0,0,0,0,0,0,0,0,-1,524,1282,0,0
-693,-258,0,0,0,0,0,0,0,0,0,-1,531,1282,0,0
-686,-258,0,0,0,0,0,0,0,0,0,-1,538,1282,0,0
-679,-258,0,0,0,0,0,0,0,0,0,-1,545,1282,0,0
-672,-258,0,0,0,0,0,0,0,0,0,-1,552,1282,0,0
-665,-258,-0.15509,-6.41907,0,0,0,0,0,0,0,-1,559,1282,-0.155063,6.41901
-658,-258,-0.357971,-6.21948,0,0,0,0,0,0,0,-1,566,1282,-0.357954,6.21951
-651,-258,-2.17523,-0.0697021,0,0,0,0,0,0,0,-1,573,1282,-2.17523,0.0696593
-644,-258,-2.31628,0.232666,0,0,0,0,0,0,0,-1,580,1282,-2.31626,-0.232645
-637,-258,-2.47351,0.491455,0,0,0,0,0,0,0,-1,587,1282,-2.47353,-0.491401
-630,-258,-2.62653,0.780884,0.0698408,0.0349383,0.00896036,0.0720067,0.0327723,0.237175,0.0416289,0.0461778,594,1282,-2.62651,-0.780926
-623,-258,-2.68604,0.721191,0.0545617,0.0280845,0.00828972,0.056943,0.0257032,0.279723,0.0329278,0.0446906,601,1282,-2.68604,-0.721135
-616,-258,-2.65936,0.767944,0.0415287,0.021844,0.00730122,0.0439411,0.0194315,0.319121,0.0254258,0.0299215,608,1282,-2.65936,-0.768004
-609,-258,-2.63812,0.864868,0.030002,0.0163747,0.00606727,0.0323118,0.0140649,0.36376,0.0187072,0.0159712,615,1282,-2.63813,-0.864851
-602,-258,-2.6413,0.928345,0.0209604,0.0114442,0.00473657,0.0229161,0.00948855,0.391566,0.0132956,0.0129635,622,1282,-2.64129,-0.928352
-595,-258,-2.6441,0.996704,0.0135991,0.00683227,0.00340816,0.0150181,0.00541329,0.39452,0.00878256,0.0113157,629,1282,-2.64408,-0.996657
-588,-258,-2.63654,1.08704,0.0078299,0.00244288,0.00147103,0.00820542,0.00206736,0.249938,0.00492789,0.0118125,636,1282,-2.63653,-1.087
-581,-258,-2.6546,1.17175,0.00446394,-0.000790992,-0.00198286,0.00512818,-0.00145523,-0.323241,0.00399325,0.0138962,643,1282,-2.65462,-1.17174
-574,-258,-2.64099,1.25452,0.00416379,-0.00281853,-0.00368822,0.00575113,-0.00440587,-0.40642,0.00588127,0.0147401,650,1282,-2.64099,-1.25448
-567,-258,-2.63226,1.33984,0.0053344,-0.00413166,-0.0058785,0.00814844,-0.00694571,-0.446464,0.00872383,0.0134635,657,1282,-2.63224,-1.33981
-560,-258,-2.63934,1.43958,0.0063072,-0.00501047,-0.00777835,0.0102674,-0.00897063,-0.470922,0.0111155,0.0174448,664,1282,-2.63936,-1.43963
-553,-258,-2.62256,1.52051,0.00724729,-0.00529519,-0.00894233,0.0118982,-0.00994612,-0.4796,0.0126286,0.021173,671,1282,-2.62258,-1.52049
-546,-258,-2.62,1.56165,0.00836931,-0.00534042,-0.00998538,0.0136263,-0.0105974,-0.484598,0.014022,0.0405467,678,1282,-2.62003,-1.56169
-539,-258,-2.62653,1.60645,0.00881235,-0.00474328,-0.0110341,0.014984,-0.010915,-0.509978,0.0150142,0.0479239,685,1282,-2.62654,-1.60648
-532,-258,-1.86499,-1.77075,0.00910051,-0.00375749,-0.0117044,0.0160254,-0.0106823,-0.534253,0.0155222,0.0499971,692,1282,-1.86497,1.7708
-525,-258,-4.25983,1.94775,0,0,0,0,0,0,0,-1,699,1282,-4.25983,-1.94771
-518,-258,-2.03064,-2.08984,0,0,0,0,0,0,0,-1,706,1282,-2.03065,2.08982
-511,-258,-3.78784,0.590454,0.00652137,0.00303539,-0.0112174,0.0161304,-0.00657367,-0.708323,0.0134897,0.0452438,713,1282,-3.78782,-0.590445
-504,-258,-3.83032,0.551392,0.00399383,0.00662436,-0.00990229,0.0152983,-0.00468016,-0.851424,0.0120654,0.0433464,720,1282,-3.83031,-0.551442
-497,-258,-4.04297,0.761597,-3.61403e-06,0.0108355,-0.00802911,0.015103,-0.00427106,-1.08227,0.0117539,0.0437393,727,1282,-4.04298,-0.761585
-490,-258,-4.19745,0.958008,-0.005872,0.0162211,-0.00604016,0.0177646,-0.00741551,-1.32061,0.0149415,0.0439424,734,1282,-4.19744,-0.958056
-483,-258,0,0,0,0,0,0,0,0,0,-1,741,1282,0,0
-476,-258,0,0,0,0,0,0,0,0,0,-1,748,1282,0,0
-469,-258,0,0,0,0,0,0,0,0,0,-1,755,1282,0,0
-462,-258,0,0,0,0,0,0,0,0,0,-1,762,1282,0,0
-455,-258,0,0,0,0,0,0,0,0,0,-1,769,1282,0,0
-448,-258,0,0,0,0,0,0,0,0,0,-1,776,1282,0,0
-441,-258,0,0,0,0,0,0,0,0,0,-1,783,1282,0,0
-434,-258,0,0,0,0,0,0,0,0,0,-1,790,1282,0,0
-427,-258,0,0,0,0,0,0,0,0,0,-1,797,1282,0,0
-420,-258,0,0,0,0,0,0,0,0,0,-1,804,1282,0,0
-413,-258,0,0,0,0,0,0,0,0,0,-1,811,1282,0,0
-406,-258,0,0,0,0,0,0,0,0,0,-1,818,1282,0,0
-399,-258,0,0,0,0,0,0,0,0,0,-1,825,1282,0,0
-392,-258,0,0,0,0,0,0,0,0,0,-1,832,1282,0,0
-385,-258,0,0,0,0,0,0,0,0,0,-1,839,1282,0,0
-378,-258,0,0,0,0,0,0,0,0,0,-1,846,1282,0,0
-371,-258,0,0,0,0,0,0,0,0,0,-1,853,1282,0,0
-364,-258,0,0,0,0,0,0,0,0,0,-1,860,1282,0,0
-357,-258,0,0,0,0,0,0,0,0,0,-1,867,1282,0,0
-350,-258,0,0,0,0,0,0,0,0,0,-1,874,1282,0,0
-343,-258,0,0,0,0,0,0,0,0,0,-1,881,1282,0,0
-336,-258,0,0,0,0,0,0,0,0,0,-1,888,1282,0,0
-329,-258,0,0,0,0,0,0,0,0,0,-1,895,1282,0,0
-322,-258,0,0,0,0,0,0,0,0,0,-1,902,1282,0,0
-315,-258,0,0,0,0,0,0,0,0,0,-1,909,1282,0,0
-308,-258,0,0,0,0,0,0,0,0,0,-1,916,1282,0,0
-301,-258,0,0,0,0,0,0,0,0,0,-1,923,1282,0,0
-294,-258,0,0,0,0,0,0,0,0,0,-1,930,1282,0,0
-287,-258,0,0,0,0,0,0,0,0,0,-1,937,1282,0,0
-280,-258,0,0,0,0,0,0,0,0,0,-1,944,1282,0,0
-273,-258,0,0,0,0,0,0,0,0,0,-1,951,1282,0,0
-266,-258,0,0,0,0,0,0,0,0,0,-1,958,1282,0,0
-259,-258,0,0,0,0,0,0,0,0,0,-1,965,1282,0,0
-252,-258,0,0,0,0,0,0,0,0,0,-1,972,1282,0,0
-245,-258,0,0,0,0,0,0,0,0,0,-1,979,1282,0,0
-238,-258,0,0,0,0,0,0,0,0,0,-1,986,1282,0,0
-231,-258,0,0,0,0,0,0,0,0,0,-1,993,1282,0,0
-224,-258,0,0,0,0,0,0,0,0,0,-1,1000,1282,0,0
-217,-258,0,0,0,0,0,0,0,0,0,-1,1007,1282,0,0
-210,-258,0,0,0,0,0,0,0,0,0,-1,1014,1282,0,0
-203,-258,0,0,0,0,0,0,0,0,0,-1,1021,1282,0,0
-196,-258,0,0,0,0,0,0,0,0,0,-1,1028,1282,0,0
-189,-258,0,0,0,0,0,0,0,0,0,-1,1035,1282,0,0
-182,-258,0,0,0,0,0,0,0,0,0,-1,1042,1282,0,0
-175,-258,0,0,0,0,0,0,0,0,0,-1,1049,1282,0,0
-168,-258,0,0,0,0,0,0,0,0,0,-1,1056,1282,0,0
-161,-258,0,0,0,0,0,0,0,0,0,-1,1063,1282,0,0
-154,-258,0,0,0,0,0,0,0,0,0,-1,1070,1282,0,0
-147,-258,0,0,0,0,0,0,0,0,0,-1,1077,1282,0,0
-140,-258,0,0,0,0,0,0,0,0,0,-1,1084,1282,0,0
-133,-258,0,0,0,0,0,0,0,0,0,-1,1091,1282,0,0
-126,-258,0,0,0,0,0,0,0,0,0,-1,1098,1282,0,0
-119,-258,0,0,0,0,0,0,0,0,0,-1,1105,1282,0,0
-112,-258,0,0,0,0,0,0,0,0,0,-1,1112,1282,0,0
-105,-258,0,0,0,0,0,0,0,0,0,-1,1119,1282,0,0
-98,-258,0,0,0,0,0,0,0,0,0,-1,1126,1282,0,0
-91,-258,0,0,0,0,0,0,0,0,0,-1,1133,1282,0,0
-84,-258,0,0,0,0,0,0,0,0,0,-1,1140,1282,0,0
-77,-258,0,0,0,0,0,0,0,0,0,-1,1147,1282,0,0
-70,-258,0,0,0,0,0,0,0,0,0,-1,1154,1282,0,0
-63,-258,0,0,0,0,0,0,0,0,0,-1,1161,1282,0,0
-56,-258,0,0,0,0,0,0,0,0,0,-1,1168,1282,0,0
-49,-258,0,0,0,0,0,0,0,0,0,-1,1175,1282,0,0
-42,-258,0,0,0,0,0,0,0,0,0,-1,1182,1282,0,0
-35,-258,0,0,0,0,0,0,0,0,0,-1,1189,1282,0,0
-28,-258,0,0,0,0,0,0,0,0,0,-1,1196,1282,0,0
-21,-258,0,0,0,0,0,0,0,0,0,-1,1203,1282,0,0
-14,-258,0,0,0,0,0,0,0,0,0,-1,1210,1282,0,0
-7,-258,0,0,0,0,0,0,0,0,0,-1,1217,1282,0,0
0,-258,0,0,0,0,0,0,0,0,0,-1,1224,1282,0,0
7,-258,0,0,0,0,0,0,0,0,0,-1,1231,1282,0,0
14,-258,0,0,0,0,0,0,0,0,0,-1,1238,1282,0,0
21,-258,0,0,0,0,0,0,0,0,0,-1,1245,1282,0,0
28,-258,0,0,0,0,0,0,0,0,0,-1,1252,1282,0,0
35,-258,0,0,0,0,0,0,0,0,0,-1,1259,1282,0,0
42,-258,0,0,0,0,0,0,0,0,0,-1,1266,1282,0,0
49,-258,0,0,0,0,0,0,0,0,0,-1,1273,1282,0,0
56,-258,0,0,0,0,0,0,0,0,0,-1,1280,1282,0,0
63,-258,0,0,0,0,0,0,0,0,0,-1,1287,1282,0,0
70,-258,0,0,0,0,0,0,0,0,0,-1,1294,1282,0,0
77,-258,0,0,0,0,0,0,0,0,0,-1,1301,1282,0,0
84,-258,0,0,0,0,0,0,0,0,0,-1,1308,1282,0,0
91,-258,0,0,0,0,0,0,0,0,0,-1,1315,1282,0,0
98,-258,0,0,0,0,0,0,0,0,0,-1,1322,1282,0,0
105,-258,0,0,0,0,0,0,0,0,0,-1,1329,1282,0,0
112,-258,0,0,0,0,0,0,0,0,0,-1,1336,1282,0,0
119,-258,0,0,0,0,0,0,0,0,0,-1,1343,1282,0,0
126,-258,0,0,0,0,0,0,0,0,0,-1,1350,1282,0,0
133,-258,0,0,0,0,0,0,0,0,0,-1,1357,1282,0,0
140,-258,0,0,0,0,0,0,0,0,0,-1,1364,1282,0,0
147,-258,0,0,0,0,0,0,0,0,0,-1,1371,1282,0,0
154,-258,0,0,0,0,0,0,0,0,0,-1,1378,1282,0,0
161,-258,0,0,0,0,0,0,0,0,0,-1,1385,1282,0,0
168,-258,0,0,0,0,0,0,0,0,0,-1,1392,1282,0,0
175,-258,0,0,0,0,0,0,0,0,0,-1,1399,1282,0,0
182,-258,0,0,0,0,0,0,0,0,0,-1,1406,1282,0,0
189,-258,0,0,0,0,0,0,0,0,0,-1,1413,1282,0,0
196,-258,0,0,0,0,0,0,0,0,0,-1,1420,1282,0,0
203,-258,0,0,0,0,0,0,0,0,0,-1,1427,1282,0,0
210,-258,0,0,0,0,0,0,0,0,0,-1,1434,1282,0,0
217,-258,0,0,0,0,0,0,0,0,0,-1,1441,1282,0,0
224,-258,0,0,0,0,0,0,0,0,0,-1,1448,1282,0,0
231,-258,0,0,0,0,0,0,0,0,0,-1,1455,1282,0,0
238,-258,0,0,0,0,0,0,0,0,0,-1,1462,1282,0,0
245,-258,0,0,0,0,0,0,0,0,0,-1,1469,1282,0,0
252,-258,0,0,0,0,0,0,0,0,0,-1,1476,1282,0,0
259,-258,0,0,0,0,0,0,0,0,0,-1,1483,1282,0,0
266,-258,0,0,0,0,0,0,0,0,0,-1,1490,1282,0,0
273,-258,0,0,0,0,0,0,0,0,0,-1,1497,1282,0,0
280,-258,0,0,0,0,0,0,0,0,0,-1,1504,1282,0,0
287,-258,0,0,0,0,0,0,0,0,0,-1,1511,1282,0,0
294,-258,0,0,0,0,0,0,0,0,0,-1,1518,1282,0,0
301,-258,0,0,0,0,0,0,0,0,0,-1,1525,1282,0,0
308,-258,0,0,0,0,0,0,0,0,0,-1,1532,1282,0,0
315,-258,0,0,0,0,0,0,0,0,0,-1,1539,1282,0,0
322,-258,0,0,0,0,0,0,0,0,0,-1,1546,1282,0,0
329,-258,0,0,0,0,0,0,0,0,0,-1,1553,1282,0,0
336,-258,0,0,0,0,0,0,0,0,0,-1,1560,1282,0,0
343,-258,0,0,0,0,0,0,0,0,0,-1,1567,1282,0,0
350,-258,0,0,0,0,0,0,0,0,0,-1,1574,1282,0,0
357,-258,0,0,0,0,0,0,0,0,0,-1,1581,1282,0,0
364,-258,0,0,0,0,0,0,0,0,0,-1,1588,1282,0,0
371,-258,0,0,0,0,0,0,0,0,0,-1,1595,1282,0,0
378,-258,0,0,0,0,0,0,0,0,0,-1,1602,1282,0,0
385,-258,0,0,0,0,0,0,0,0,0,-1,1609,1282,0,0
392,-258,0,0,0,0,0,0,0,0,0,-1,1616,1282,0,0
399,-258,0,0,0,0,0,0,0,0,0,-1,1623,1282,0,0
406,-258,0,0,0,0,0,0,0,0,0,-1,1630,1282,0,0
413,-258,0,0,0,0,0,0,0,0,0,-1,1637,1282,0,0
420,-258,0,0,0,0,0,0,0,0,0,-1,1644,1282,0,0
427,-258,0,0,0,0,0,0,0,0,0,-1,1651,1282,0,0
434,-258,0,0,0,0,0,0,0,0,0,-1,1658,1282,0,0
441,-258,0,0,0,0,0,0,0,0,0,-1,1665,1282,0,0
448,-258,0,0,0,0,0,0,0,0,0,-1,1672,1282,0,0
455,-258,0,0,0,0,0,0,0,0,0,-1,1679,1282,0,0
462,-258,0,0,0,0,0,0,0,0,0,-1,1686,1282,0,0
469,-258,0,0,0,0,0,0,0,0,0,-1,1693,1282,0,0
476,-258,0,0,0,0,0,0,0,0,0,-1,1700,1282,0,0
483,-258,0,0,0,0,0,0,0,0,0,-1,1707,1282,0,0
490,-258,0,0,0,0,0,0,0,0,0,-1,1714,1282,0,0
497,-258,0,0,0,0,0,0,0,0,0,-1,1721,1282,0,0
504,-258,0,0,0,0,0,0,0,0,0,-1,1728,1282,0,0
511,-258,0,0,0,0,0,0,0,0,0,-1,1735,1282,0,0
518,-258,0,0,0,0,0,0,0,0,0,-1,1742,1282,0,0
525,-258,0,0,0,0,0,0,0,0,0,-1,1749,1282,0,0
532,-258,0,0,0,0,0,0,0,0,0,-1,1756,1282,0,0
539,-258,0,0,0,0,0,0,0,0,0,-1,1763,1282,0,0
546,-258,0,0,0,0,0,0,0,0,0,-1,1770,1282,0,0
553,-258,0,0,0,0,0,0,0,0,0,-1,1777,1282,0,0
560,-258,0,0,0,0,0,0,0,0,0,-1,1784,1282,0,0
567,-258,0,0,0,0,0,0,0,0,0,-1,1791,1282,0,0
574,-258,0,0,0,0,0,0,0,0,0,-1,1798,1282,0,0
581,-258,0,0,0,0,0,0,0,0,0,-1,1805,1282,0,0
588,-258,0,0,0,0,0,0,0,0,0,-1,1812,1282,0,0
595,-258,0,0,0,0,0,0,0,0,0,-1,1819,1282,0,0
602,-258,0,0,0,0,0,0,0,0,0,-1,1826,1282,0,0
609,-258,9.57849,1.29321,-0.00496526,0.0144644,-0.0133251,0.0212401,-0.0117409,-1.10038,0.0193031,0.0233039,1833,1282,9.5785,-1.2932
616,-258,9.55725,1.31421,-0.00279694,0.0122341,-0.00686334,0.0148964,-0.00545927,-1.20076,0.0121661,0.0235429,1840,1282,9.5573,-1.31427
623,-258,9.56848,1.34497,-0.00247351,0.0104223,-0.00159861,0.0106175,-0.00266873,-1.44928,0.0081155,0.0348473,1847,1282,9.56848,-1.34501
630,-258,9.65552,1.32178,-0.00192884,0.00936601,0.00314043,0.0101804,-0.00274328,1.31705,0.00786257,0.0455403,1854,1282,9.65558,-1.32173
637,-258,9.54736,1.16187,-0.00167341,0.00858188,0.00643112,0.0116793,-0.00477085,1.12195,0.0097727,0.0419224,1861,1282,9.54734,-1.16192
644,-258,9.5343,1.22339,-0.00150098,0.00797144,0.0084879,0.0129551,-0.00648466,1.03988,0.0114289,0.0456595,1868,1282,9.5343,-1.2234
651,-258,9.63684,1.39722,0,0,0,0,0,0,0,-1,1875,1282,9.63679,-1.39723
658,-258,10.5963,1.96997,-0.000924936,0.00691532,0.0106322,0.014327,-0.00833663,0.962018,0.0132363,0.0470532,1882,1282,10.5963,-1.96994
665,-258,10.1965,2.64136,0,0,0,0,0,0,0,-1,1889,1282,10.1965,-2.64135
672,-258,10.0131,3.26843,0,0,0,0,0,0,0,-1,1896,1282,10.013,-3.26849
679,-258,8.20605,2.28601,-0.000239524,0.00484385,0.00957159,0.0122055,-0.00760114,0.915176,0.0115379,0.0297104,1903,1282,8.20606,-2.28597
686,-258,8.17139,2.23657,-4.13236e-05,0.00405988,0.00845555,0.0107099,-0.00669137,0.904359,0.0101355,0.0160254,1910,1282,8.17135,-2.23659
693,-258,8.20789,2.13147,-0.000174774,0.00353329,0.00694909,0.00887142,-0.00551291,0.915763,0.00837991,0.00954533,1917,1282,8.20786,-2.13146
700,-258,8.20728,2.0304,-0.000214833,0.00311845,0.00553538,0.00723265,-0.00432904,0.931626,0.00674495,0.00881144,1924,1282,8.20733,-2.03037
707,-258,8.22803,1.96191,-0.000146714,0.00263306,0.00431426,0.00577579,-0.00328945,0.941229,0.00529903,0.00990899,1931,1282,8.22803,-1.96186
714,-258,8.21204,1.9126,8.48768e-05,0.00235383,0.00287632,0.00431132,-0.00187262,0.973241,0.00366167,0.0098666,1938,1282,8.21203,-1.91264
721,-258,8.1958,1.8446,-0.000133537,0.00329539,0.00225825,0.00441625,-0.0012544,1.11008,0.00343942,0.0104239,1945,1282,8.19583,-1.84462
728,-258,8.19751,1.75586,-0.00107273,0.00610995,0.00159629,0.00644873,-0.00141151,1.36167,0.00483878,0.00992773,1952,1282,8.19751,-1.75585
735,-258,8.19788,1.69019,-0.00196092,0.00787262,0.00192604,0.0082364,-0.0023247,1.38412,0.00640797,0.0130746,1959,1282,8.19786,-1.69024
742,-258,8.20398,1.65845,-0.00257545,0.0113016,0.00266395,0.0117954,-0.00306927,1.38751,0.00906163,0.0155459,1966,1282,8.20401,-1.65848
749,-258,8.20105,1.72156,-0.00344944,0.0155012,0.00368147,0.0161912,-0.0041395,1.38551,0.0124064,0.026218,1973,1282,8.201,-1.72151
756,-258,8.14148,2.16736,-0.00455266,0.0205672,0.00497416,0.0215163,-0.00550177,1.38225,0.016487,0.0360056,1980,1282,8.14151,-2.16738
763,-258,7.93408,2.49902,-0.00589503,0.026469,0.00660622,0.0277656,-0.00719157,1.377,0.0213159,0.0430699,1987,1282,7.93407,-2.49898
770,-258,7.69519,2.78101,-0.00759861,0.0330109,0.00865523,0.0347787,-0.00936638,1.36933,0.0268579,0.0471086,1994,1282,7.69525,-2.78101
777,-258,7.48035,3.17078,-0.00974242,0.0397688,0.0111849,0.0421783,-0.0121519,1.35862,0.0329257,0.0480266,2001,1282,7.48035,-3.17072
784,-258,7.21094,3.5354,-0.0123612,0.0459131,0.0142768,0.0492229,-0.015671,1.34299,0.0391001,0.0471403,2008,1282,7.21092,-3.53536
791,-258,0,0,0,0,0,0,0,0,0,-1,2015,1282,0,0
798,-258,0,0,0,0,0,0,0,0,0,-1,2022,1282,0,0
805,-258,0,0,0,0,0,0,0,0,0,-1,2029,1282,0,0
812,-258,0,0,0,0,0,0,0,0,0,-1,2036,1282,0,0
-700,-265,0,0,0,0,0,0,0,0,0,-1,524,1289,0,0
-693,-265,0,0,0,0,0,0,0,0,0,-1,531,1289,0,0
-686,-265,0,0,0,0,0,0,0,0,0,-1,538,1289,0,0
-679,-265,0,0,0,0,0,0,0,0,0,-1,545,1289,0,0
-672,-265,0,0,0,0,0,0,0,0,0,-1,552,1289,0,0
-665,-265,-1.17035,-6.42822,0,0,0,0,0,0,0,-1,559,1289,-1.17032,6.42821
-658,-265,-1.19006,-6.28113,0,0,0,0,0,0,0,-1,566,1289,-1.19008,6.28109
-651,-265,-11.361,2.07397,0,0,0,0,0,0,0,-1,573,1289,-11.361,-2.07402
-644,-265,-10.2885,2.58508,0,0,0,0,0,0,0,-1,580,1289,-10.2885,-2.58505
-637,-265,-2.25928,-0.0345459,0,0,0,0,0,0,0,-1,587,1289,-2.25929,0.0345652
-630,-265,-2.50635,0.251831,0.0907025,0.0457724,0.0111956,0.0933377,0.0431372,0.231165,0.0539399,0.0456773,594,1289,-2.50632,-0.251836
-623,-265,-2.60468,0.61145,0.0697128,0.0360167,0.0104768,0.0727047,0.0330249,0.278162,0.0420346,0.0435606,601,1289,-2.6047,-0.611457
-616,-265,-2.56714,0.718262,0.05204,0.0275763,0.00922694,0.0551299,0.0244865,0.323135,0.0318954,0.0333601,608,1289,-2.56712,-0.71822
-609,-265,-2.5224,0.853394,0.0369338,0.0203581,0.00769801,0.0399573,0.0173345,0.374258,0.0231366,0.0157064,615,1289,-2.52237,-0.853396
-602,-265,-2.53577,0.91626,0.025378,0.0142505,0.00608954,0.0280627,0.0115657,0.415243,0.0162852,0.014035,622,1289,-2.5358,-0.916216
-595,-265,-2.56055,1.01196,0.01622,0.00869492,0.0045859,0.0183893,0.00652558,0.441853,0.0107652,0.0121684,629,1289,-2.56057,-1.012
-588,-265,-2.5722,1.09644,0.0090111,0.00369358,0.00258287,0.0100591,0.00264556,0.38546,0.00602118,0.0107257,636,1289,-2.57219,-1.09645
-581,-265,-2.56848,1.18311,0.0046498,2.22817e-06,-0.00125497,0.00496703,-0.000314997,-0.247588,0.00342119,0.0125246,643,1289,-2.5685,-1.18312
-574,-265,-2.56342,1.27527,0.00418822,-0.00216857,-0.00315113,0.00548552,-0.00346586,-0.390545,0.00521175,0.0145697,650,1289,-2.56341,-1.27532
-567,-265,-2.58942,1.36035,0.00540583,-0.00362117,-0.00550035,0.00800749,-0.00622283,-0.441815,0.00823739,0.0195661,657,1289,-2.58939,-1.36038
-560,-265,-2.58801,1.44214,0.00652866,-0.00460833,-0.00763383,0.0104092,-0.00848883,-0.470289,0.0109295,0.0196642,664,1289,-2.58803,-1.44209
-553,-265,-2.57471,1.54016,0.00771908,-0.0049635,-0.00899442,0.0123829,-0.00962728,-0.478353,0.0127407,0.0179734,671,1289,-2.5747,-1.54016
-546,-265,-2.55292,1.6106,0.00912831,-0.00510643,-0.0102293,0.0144727,-0.0104509,-0.481454,0.014452,0.0266181,678,1289,-2.55291,-1.61064
-539,-265,-2.29108,-1.42346,0,0,0,0,0,0,0,-1,685,1289,-2.29105,1.42349
-532,-265,-2.01624,-1.96814,0.00998497,-0.00359016,-0.0123362,0.0172777,-0.0108829,-0.533895,0.0163976,0.0496642,692,1289,-2.01621,1.96818
-525,-265,-1.68994,-2.44983,0.00975748,-0.00188957,-0.0131504,0.0183161,-0.0104482,-0.576957,0.0168129,0.0479584,699,1289,-1.68993,2.44987
-518,-265,-1.45789,-3.13977,0,0,0,0,0,0,0,-1,706,1289,-1.45789,3.13971
-511,-265,-1.40021,-3.58435,0,0,0,0,0,0,0,-1,713,1289,-1.4002,3.5843
-504,-265,-3.85364,0.430054,0.00508147,0.00677672,-0.0128276,0.0187847,-0.00692651,-0.818389,0.0153616,0.049449,720,1289,-3.85364,-0.430001
-497,-265,-4.117,0.872559,0.00121167,0.0112211,-0.0120878,0.0192993,-0.00686651,-0.98167,0.015665,0.0487064,727,1289,-4.11703,-0.872504
-490,-265,-3.9834,0.816284,-0.00448575,0.0169858,-0.0114886,0.021974,-0.00947399,-1.16117,0.0186285,0.0407411,734,1289,-3.98341,-0.816319
-483,-265,0,0,0,0,0,0,0,0,0,-1,741,1289,0,0
-476,-265,0,0,0,0,0,0,0,0,0,-1,748,1289,0,0
-469,-265,0,0,0,0,0,0,0,0,0,-1,755,1289,0,0
-462,-265,0,0,0,0,0,0,0,0,0,-1,762,1289,0,0
-455,-265,0,0,0,0,0,0,0,0,0,-1,769,1289,0,0
-448,-265,0,0,0,0,0,0,0,0,0,-1,776,1289,0,0
-441,-265,0,0,0,0,0,0,0,0,0,-1,783,1289,0,0
-434,-265,0,0,0,0,0,0,0,0,0,-1,790,1289,0,0
-427,-265,0,0,0,0,0,0,0,0,0,-1,797,1289,0,0
-420,-265,0,0,0,0,0,0,0,0,0,-1,804,1289,0,0
-413,-265,0,0,0,0,0,0,0,0,0,-1,811,1289,0,0
-406,-265,0,0,0,0,0,0,0,0,0,-1,818,1289,0,0
-399,-265,0,0,0,0,0,0,0,0,0,-1,825,1289,0,0
-392,-265,0,0,0,0,0,0,0,0,0,-1,832,1289,0,0
-385,-265,0,0,0,0,0,0,0,0,0,-1,839,1289,0,0
-378,-265,0,0,0,0,0,0,0,0,0,-1,846,1289,0,0
-371,-265,0,0,0,0,0,0,0,0,0,-1,853,1289,0,0
-364,-265,0,0,0,0,0,0,0,0,0,-1,860,1289,0,0
-357,-265,0,0,0,0,0,0,0,0,0,-1,867,1289,0,0
-350,-265,0,0,0,0,0,0,0,0,0,-1,874,1289,0,0
-343,-265,0,0,0,0,0,0,0,0,0,-1,881,1289,0,0
-336,-265,0,0,0,0,0,0,0,0,0,-1,888,1289,0,0
-329,-265,0,0,0,0,0,0,0,0,0,-1,895,1289,0,0
-322,-265,0,0,0,0,0,0,0,0,0,-1,902,1289,0,0
-315,-265,0,0,0,0,0,0,0,0,0,-1,909,1289,0,0
-308,-265,0,0,0,0,0,0,0,0,0,-1,916,1289,0,0
-301,-265,0,0,0,0,0,0,0,0,0,-1,923,1289,0,0
-294,-265,0,0,0,0,0,0,0,0,0,-1,930,1289,0,0
-287,-265,0,0,0,0,0,0,0,0,0,-1,937,1289,0,0
-280,-265,0,0,0,0,0,0,0,0,0,-1,944,1289,0,0
-273,-265,0,0,0,0,0,0,0,0,0,-1,951,1289,0,0
-266,-265,0,0,0,0,0,0,0,0,0,-1,958,1289,0,0
-259,-265,0,0,0,0,0,0,0,0,0,-1,965,1289,0,0
-252,-265,0,0,0,0,0,0,0,0,0,-1,972,1289,0,0
-245,-265,0,0,0,0,0,0,0,0,0,-1,979,1289,0,0
-238,-265,0,0,0,0,0,0,0,0,0,-1,986,1289,0,0
-231,-265,0,0,0,0,0,0,0,0,0,-1,993,1289,0,0
-224,-265,0,0,0,0,0,0,0,0,0,-1,1000,1289,0,0
-217,-265,0,0,0,0,0,0,0,0,0,-1,1007,1289,0,0
-210,-265,0,0,0,0,0,0,0,0,0,-1,1014,1289,0,0
-203,-265,0,0,0,0,0,0,0,0,0,-1,1021,1289,0,0
-196,-265,0,0,0,0,0,0,0,0,0,-1,1028,1289,0,0
-189,-265,0,0,0,0,0,0,0,0,0,-1,1035,1289,0,0
-182,-265,0,0,0,0,0,0,0,0,0,-1,1042,1289,0,0
-175,-265,0,0,0,0,0,0,0,0,0,-1,1049,1289,0,0
-168,-265,0,0,0,0,0,0,0,0,0,-1,1056,1289,0,0
-161,-265,0,0,0,0,0,0,0,0,0,-1,1063,1289,0,0
-154,-265,0,0,0,0,0,0,0,0,0,-1,1070,1289,0,0
-147,-265,0,0,0,0,0,0,0,0,0,-1,1077,1289,0,0
-140,-265,0,0,0,0,0,0,0,0,0,-1,1084,1289,0,0
-133,-265,0,0,0,0,0,0,0,0,0,-1,1091,1289,0,0
-126,-265,0,0,0,0,0,0,0,0,0,-1,1098,1289,0,0
-119,-265,0,0,0,0,0,0,0,0,0,-1,1105,1289,0,0
-112,-265,0,0,0,0,0,0,0,0,0,-1,1112,1289,0,0
-105,-265,0,0,0,0,0,0,0,0,0,-1,1119,1289,0,0
-98,-265,0,0,0,0,0,0,0,0,0,-1,1126,1289,0,0
-91,-265,0,0,0,0,0,0,0,0,0,-1,1133,1289,0,0
-84,-265,0,0,0,0,0,0,0,0,0,-1,1140,1289,0,0
-77,-265,0,0,0,0,0,0,0,0,0,-1,1147,1289,0,0
-70,-265,0,0,0,0,0,0,0,0,0,-1,1154,1289,0,0
-63,-265,0,0,0,0,0,0,0,0,0,-1,1161,1289,0,0
-56,-265,0,0,0,0,0,0,0,0,0,-1,1168,1289,0,0
-49,-265,0,0,0,0,0,0,0,0,0,-1,1175,1289,0,0
-42,-265,0,0,0,0,0,0,0,0,0,-1,1182,1289,0,0
-35,-265,0,0,0,0,0,0,0,0,0,-1,1189,1289,0,0
-28,-265,0,0,0,0,0,0,0,0,0,-1,1196,1289,0,0
-21,-265,0,0,0,0,0,0,0,0,0,-1,1203,1289,0,0
-14,-265,0,0,0,0,0,0,0,0,0,-1,1210,1289,0,0
-7,-265,0,0,0,0,0,0,0,0,0,-1,1217,1289,0,0
0,-265,0,0,0,0,0,0,0,0,0,-1,1224,1289,0,0
7,-265,0,0,0,0,0,0,0,0,0,-1,1231,1289,0,0
14,-265,0,0,0,0,0,0,0,0,0,-1,1238,1289,0,0
21,-265,0,0,0,0,0,0,0,0,0,-1,1245,1289,0,0
28,-265,0,0,0,0,0,0,0,0,0,-1,1252,1289,0,0
35,-265,0,0,0,0,0,0,0,0,0,-1,1259,1289,0,0
42,-265,0,0,0,0,0,0,0,0,0,-1,1266,1289,0,0
49,-265,0,0,0,0,0,0,0,0,0,-1,1273,1289,0,0
56,-265,0,0,0,0,0,0,0,0,0,-1,1280,1289,0,0
63,-265,0,0,0,0,0,0,0,0,0,-1,1287,1289,0,0
70,-265,0,0,0,0,0,0,0,0,0,-1,1294,1289,0,0
77,-265,0,0,0,0,0,0,0,0,0,-1,1301,1289,0,0
84,-265,0,0,0,0,0,0,0,0,0,-1,1308,1289,0,0
91,-265,0,0,0,0,0,0,0,0,0,-1,1315,1289,0,0
98,-265,0,0,0,0,0,0,0,0,0,-1,1322,1289,0,0
105,-265,0,0,0,0,0,0,0,0,0,-1,1329,1289,0,0
112,-265,0,0,0,0,0,0,0,0,0,-1,1336,1289,0,0
119,-265,0,0,0,0,0,0,0,0,0,-1,1343,1289,0,0
126,-265,0,0,0,0,0,0,0,0,0,-1,1350,1289,0,0
133,-265,0,0,0,0,0,0,0,0,0,-1,1357,1289,0,0
140,-265,0,0,0,0,0,0,0,0,0,-1,1364,1289,0,0
147,-265,0,0,0,0,0,0,0,0,0,-1,1371,1289,0,0
154,-265,0,0,0,0,0,0,0,0,0,-1,1378,1289,0,0
161,-265,0,0,0,0,0,0,0,0,0,-1,1385,1289,0,0
168,-265,0,0,0,0,0,0,0,0,0,-1,1392,1289,0,0
175,-265,0,0,0,0,0,0,0,0,0,-1,1399,1289,0,0
182,-265,0,0,0,0,0,0,0,0,0,-1,1406,1289,0,0
189,-265,0,0,0,0,0,0,0,0,0,-1,1413,1289,0,0
196,-265,0,0,0,0,0,0,0,0,0,-1,1420,1289,0,0
203,-265,0,0,0,0,0,0,0,0,0,-1,1427,1289,0,0
210,-265,0,0,0,0,0,0,0,0,0,-1,1434,1289,0,0
217,-265,0,0,0,0,0,0,0,0,0,-1,1441,1289,0,0
224,-265,0,0,0,0,0,0,0,0,0,-1,1448,1289,0,0
231,-265,0,0,0,0,0,0,0,0,0,-1,1455,1289,0,0
238,-265,0,0,0,0,0,0,0,0,0,-1,1462,1289,0,0
245,-265,0,0,0,0,0,0,0,0,0,-1,1469,1289,0,0
252,-265,0,0,0,0,0,0,0,0,0,-1,1476,1289,0,0
259,-265,0,0,0,0,0,0,0,0,0,-1,1483,1289,0,0
266,-265,0,0,0,0,0,0,0,0,0,-1,1490,1289,0,0
273,-265,0,0,0,0,0,0,0,0,0,-1,1497,1289,0,0
280,-265,0,0,0,0,0,0,0,0,0,-1,1504,1289,0,0
287,-265,0,0,0,0,0,0,0,0,0,-1,1511,1289,0,0
294,-265,0,0,0,0,0,0,0,0,0,-1,1518,1289,0,0
301,-265,0,0,0,0,0,0,0,0,0,-1,1525,1289,0,0
308,-265,0,0,0,0,0,0,0,0,0,-1,1532,1289,0,0
315,-265,0,0,0,0,0,0,0,0,0,-1,1539,1289,0,0
322,-265,0,0,0,0,0,0,0,0,0,-1,1546,1289,0,0
329,-265,0,0,0,0,0,0,0,0,0,-1,1553,1289,0,0
336,-265,0,0,0,0,0,0,0,0,0,-1,1560,1289,0,0
343,-265,0,0,0,0,0,0,0,0,0,-1,1567,1289,0,0
350,-265,0,0,0,0,0,0,0,0,0,-1,1574,1289,0,0
357,-265,0,0,0,0,0,0,0,0,0,-1,1581,1289,0,0
364,-265,0,0,0,0,0,0,0,0,0,-1,1588,1289,0,0
371,-265,0,0,0,0,0,0,0,0,0,-1,1595,1289,0,0
378,-265,0,0,0,0,0,0,0,0,0,-1,1602,1289,0,0
385,-265,0,0,0,0,0,0,0,0,0,-1,1609,1289,0,0
392,-265,0,0,0,0,0,0,0,0,0,-1,1616,1289,0,0
399,-265,0,0,0,0,0,0,0,0,0,-1,1623,1289,0,0
406,-265,0,0,0,0,0,0,0,0,0,-1,1630,1289,0,0
413,-265,0,0,0,0,0,0,0,0,0,-1,1637,1289,0,0
420,-265,0,0,0,0,0,0,0,0,0,-1,1644,1289,0,0
427,-265,0,0,0,0,0,0,0,0,0,-1,1651,1289,0,0
434,-265,0,0,0,0,0,0,0,0,0,-1,1658,1289,0,0
441,-265,0,0,0,0,0,0,0,0,0,-1,1665,1289,0,0
448,-265,0,0,0,0,0,0,0,0,0,-1,1672,1289,0,0
455,-265,0,0,0,0,0,0,0,0,0,-1,1679,1289,0,0
462,-265,0,0,0,0,0,0,0,0,0,-1,1686,1289,0,0
469,-265,0,0,0,0,0,0,0,0,0,-1,1693,1289,0,0
476,-265,0,0,0,0,0,0,0,0,0,-1,1700,1289,0,0
483,-265,0,0,0,0,0,0,0,0,0,-1,1707,1289,0,0
490,-265,0,0,0,0,0,0,0,0,0,-1,1714,1289,0,0
497,-265,0,0,0,0,0,0,0,0,0,-1,1721,1289,0,0
504,-265,0,0,0,0,0,0,0,0,0,-1,1728,1289,0,0
511,-265,0,0,0,0,0,0,0,0,0,-1,1735,1289,0,0
518,-265,0,0,0,0,0,0,0,0,0,-1,1742,1289,0,0
525,-265,0,0,0,0,0,0,0,0,0,-1,1749,1289,0,0
532,-265,0,0,0,0,0,0,0,0,0,-1,1756,1289,0,0
539,-265,0,0,0,0,0,0,0,0,0,-1,1763,1289,0,0
546,-265,0,0,0,0,0,0,0,0,0,-1,1770,1289,0,0
553,-265,0,0,0,0,0,0,0,0,0,-1,1777,1289,0,0
560,-265,0,0,0,0,0,0,0,0,0,-1,1784,1289,0,0
567,-265,0,0,0,0,0,0,0,0,0,-1,1791,1289,0,0
574,-265,0,0,0,0,0,0,0,0,0,-1,1798,1289,0,0
581,-265,0,0,0,0,0,0,0,0,0,-1,1805,1289,0,0
588,-265,0,0,0,0,0,0,0,0,0,-1,1812,1289,0,0
595,-265,0,0,0,0,0,0,0,0,0,-1,1819,1289,0,0
602,-265,9.58716,1.30688,-0.00646789,0.0165947,-0.0268202,0.0342575,-0.0241307,-0.988425,0.033879,0.026808,1826,1289,9.58715,-1.30689
609,-265,9.59375,1.33374,-0.00422736,0.0146611,-0.0190232,0.0264554,-0.0160217,-1.0158,0.0247695,0.0264971,1833,1289,9.59373,-1.33376
616,-265,9.56824,1.31226,-0.0032686,0.012546,-0.0108218,0.0180415,-0.00876413,-1.10091,0.0157822,0.0321429,1840,1289,9.56826,-1.31221
623,-265,9.54077,1.22107,-0.00319321,0.0105373,-0.00378919,0.0115136,-0.00416949,-1.31863,0.00937973,0.0448553,1847,1289,9.54075,-1.22103
630,-265,9.50684,1.02075,-0.00277538,0.00899815,0.0020362,0.00934036,-0.00311759,1.40429,0.00748572,0.0432304,1854,1289,9.50682,-1.02071
637,-265,9.47522,0.893921,-0.00243223,0.00777264,0.00600472,0.01055,-0.00520962,1.13757,0.00927133,0.0430904,1861,1289,9.47527,-0.89392
644,-265,9.66187,1.29626,-0.00234855,0.00684838,0.00837259,0.0118022,-0.00730237,1.03652,0.0111315,0.0424217,1868,1289,9.6619,-1.29621
651,-265,9.92236,1.7395,-0.00187578,0.00619197,0.00982032,0.0127746,-0.00845844,0.980276,0.0123431,0.0450993,1875,1289,9.92237,-1.73948
658,-265,10.1501,2.02209,-0.00132943,0.0054366,0.0110586,0.013618,-0.00951086,0.933837,0.0134235,0.0447768,1882,1289,10.1502,-2.02215
665,-265,10.2118,2.46204,0,0,0,0,0,0,0,-1,1889,1289,10.2117,-2.46209
672,-265,8.10498,2.25439,-0.000495437,0.00417964,0.0105878,0.0126849,-0.00900069,0.894043,0.0125803,0.0455254,1896,1289,8.10492,-2.25439
679,-265,8.1156,2.26709,-0.000273197,0.00348156,0.00955666,0.0113435,-0.00813514,0.882387,0.0112967,0.0221504,1903,1289,8.1156,-2.26711
686,-265,8.12488,2.19885,3.92896e-05,0.00282033,0.00812215,0.00967013,-0.00681051,0.870177,0.00956273,0.0117802,1910,1289,8.1249,-2.19885
693,-265,8.13867,2.10278,-0.000109898,0.00252504,0.006351,0.00769378,-0.00527864,0.887669,0.00753277,0.0103068,1917,1289,8.13866,-2.10279
700,-265,8.13733,2.03467,-0.000147968,0.00244737,0.00479108,0.00611341,-0.003814,0.917651,0.00578261,0.0111572,1924,1289,8.13736,-2.03466
707,-265,8.1488,1.97571,-7.24761e-05,0.00241059,0.00360818,0.00498487,-0.00264675,0.951098,0.00447452,0.0103566,1931,1289,8.14877,-1.97576
714,-265,8.14502,1.92126,0.000151308,0.00263048,0.00220007,0.00391615,-0.00113436,1.04195,0.0030598,0.00902157,1938,1289,8.14505,-1.92123
721,-265,8.14526,1.85059,-6.26366e-05,0.00412023,0.00165317,0.0046947,-0.000637108,1.23635,0.00336235,0.00838921,1945,1289,8.14529,-1.85056
728,-265,8.13977,1.77991,-0.000926785,0.00777559,0.00105335,0.00790128,-0.00105247,1.45204,0.0056511,0.0115524,1952,1289,8.13978,-1.77996
735,-265,8.1272,1.71191,-0.00177637,0.0102859,0.00132978,0.0104307,-0.00192123,1.46229,0.0076748,0.0161227,1959,1289,8.12723,-1.71195
742,-265,8.12549,1.65417,-0.0024099,0.0147079,0.00189901,0.014916,-0.00261804,1.46163,0.0109218,0.0192165,1966,1289,8.12544,-1.65415
749,-265,8.12927,1.66089,-0.00316365,0.0203365,0.00271389,0.0206458,-0.00347299,1.4573,0.0150556,0.0362454,1973,1289,8.12923,-1.66084
756,-265,8.146,1.70544,-0.00403721,0.0273296,0.0037856,0.02778,-0.00448762,1.45237,0.0201829,0.0442964,1980,1289,8.14595,-1.70542
763,-265,8.01794,0.651611,-0.00504317,0.0357386,0.00519823,0.0363907,-0.00569534,1.44599,0.0263648,0.0431453,1987,1289,8.01791,-0.651643
770,-265,8.0542,1.06567,-0.00626997,0.0454708,0.0070536,0.0464152,-0.00721432,1.43771,0.0336073,0.0406189,1994,1289,8.05423,-1.06571
777,-265,8.09412,1.7865,-0.00773816,0.0561849,0.0094597,0.0575554,-0.00910868,1.42692,0.0417391,0.0413917,2001,1289,8.09412,-1.78654
784,-265,0,0,0,0,0,0,0,0,0,-1,2008,1289,0,0
791,-265,0,0,0,0,0,0,0,0,0,-1,2015,1289,0,0
798,-265,0,0,0,0,0,0,0,0,0,-1,2022,1289,0,0
805,-265,0,0,0,0,0,0,0,0,0,-1,2029,1289,0,0
812,-265,0,0,0,0,0,0,0,0,0,-1,2036,1289,0,0
-700,-272,0,0,0,0,0,0,0,0,0,-1,524,1296,0,0
-693,-272,0,0,0,0,0,0,0,0,0,-1,531,1296,0,0
-686,-272,0,0,0,0,0,0,0,0,0,-1,538,1296,0,0
-679,-272,0,0,0,0,0,0,0,0,0,-1,545,1296,0,0
-672,-272,0,0,0,0,0,0,0,0,0,-1,552,1296,0,0
-665,-272,0,0,0,0,0,0,0,0,0,-1,559,1296,0,0
-658,-272,-11.519,0.771606,0,0,0,0,0,0,0,-1,566,1296,-11.519,-0.771577
-651,-272,-10.5175,1.17444,0.196993,0.104238,0.00562448,0.197333,0.103899,0.0603436,0.113984,0.0493912,573,1296,-10.5175,-1.17448
-644,-272,-9.46289,1.62585,0.168575,0.0883752,0.0100854,0.169824,0.0871264,0.123198,0.098059,0.0495069,580,1296,-9.46287,-1.62588
-637,-272,-2.21564,-1.30029,0.138869,0.0728231,0.0123229,0.141093,0.0705988,0.178579,0.0814602,0.0460181,587,1296,-2.21567,1.30029
-630,-272,-2.48187,-0.522705,0.11015,0.0582381,0.0128884,0.113174,0.0552143,0.23044,0.0653474,0.0443342,594,1296,-2.48185,0.522731
-623,-272,-2.7041,-0.0136719,0.0839874,0.0451213,0.0122462,0.0875242,0.0415845,0.281157,0.050553,0.0421891,601,1296,-2.70413,0.0136324
-616,-272,-2.43988,0.64502,0.0621538,0.0340752,0.0108779,0.0658749,0.0303541,0.329598,0.0380719,0.0315565,608,1296,-2.4399,-0.645024
-609,-272,-2.41895,0.798096,0.0439461,0.0248993,0.00911359,0.0476042,0.0212412,0.381706,0.0275373,0.0160076,615,1296,-2.41893,-0.798151
-602,-272,-2.45062,0.911011,0.0299852,0.017409,0.00726592,0.0333062,0.0140881,0.428707,0.0193052,0.0124416,622,1296,-2.45062,-0.910968
-595,-272,-2.48071,1.02649,0.0191559,0.0108198,0.00563599,0.0219976,0.00797808,0.467011,0.012859,0.0110508,629,1296,-2.48068,-1.02654
-588,-272,-2.47406,1.1189,0.01052,0.00516419,0.0036431,0.0123635,0.00332067,0.468461,0.00738854,0.00979255,636,1296,-2.47404,-1.11894
-581,-272,-2.47577,1.18628,0.00498102,0.000873809,-0.00039692,0.00501903,0.000835803,-0.0954627,0.00310514,0.0087815,643,1296,-2.47579,-1.18626
-574,-272,-2.48706,1.27295,0.00417287,-0.0014579,-0.00240363,0.00505935,-0.00234438,-0.353333,0.0043693,0.0136381,650,1296,-2.48707,-1.27289
-567,-272,-2.50494,1.37183,0.0052112,-0.00305749,-0.00480644,0.00741678,-0.00526307,-0.430214,0.00735583,0.0200874,657,1296,-2.50495,-1.3718
-560,-272,-2.5069,1.45874,0.00629593,-0.00414195,-0.00708073,0.00987324,-0.00771926,-0.467813,0.0101824,0.0189308,664,1296,-2.50692,-1.4587
-553,-272,-2.49023,1.51978,0.00761859,-0.00457624,-0.00861325,0.0120742,-0.00903185,-0.47739,0.0122277,0.0127589,671,1296,-2.49022,-1.51983
-546,-272,-2.46912,1.58191,0.00922695,-0.0048101,-0.0100141,0.0144372,-0.0100203,-0.479746,0.0141971,0.0175397,678,1296,-2.46909,-1.58186
-539,-272,-2.49835,1.57813,0.00981657,-0.00425902,-0.0113868,0.0161649,-0.0106074,-0.508598,0.0155676,0.0442065,685,1296,-2.49838,-1.57817
-532,-272,-1.78485,-2.40356,0.0101691,-0.00327067,-0.0124756,0.0176195,-0.0107211,-0.538357,0.0165232,0.0489773,692,1296,-1.78488,2.40353
-525,-272,-1.66302,-3.50562,0.00999504,-0.00148983,-0.0137087,0.0191155,-0.0106102,-0.587056,0.0173947,0.0464847,699,1296,-1.66305,3.50557
-518,-272,-1.46539,-4.42529,0,0,0,0,0,0,0,-1,706,1296,-1.46541,4.42531
-511,-272,-3.21155,0.208862,0,0,0,0,0,0,0,-1,713,1296,-3.21153,-0.208866
-504,-272,-3.74146,0.641235,0,0,0,0,0,0,0,-1,720,1296,-3.74147,-0.641203
-497,-272,-4.12122,0.905518,0,0,0,0,0,0,0,-1,727,1296,-4.12122,-0.90549
-490,-272,-3.64648,0.550781,-0.00306996,0.0181092,-0.0166998,0.0272939,-0.0122546,-1.06796,0.0233772,0.0412158,734,1296,-3.64648,-0.550754
-483,-272,-3.82922,0.606812,0,0,0,0,0,0,0,-1,741,1296,-3.8292,-0.606872
-476,-272,0,0,0,0,0,0,0,0,0,-1,748,1296,0,0
-469,-272,0,0,0,0,0,0,0,0,0,-1,755,1296,0,0
-462,-272,0,0,0,0,0,0,0,0,0,-1,762,1296,0,0
-455,-272,0,0,0,0,0,0,0,0,0,-1,769,1296,0,0
-448,-272,0,0,0,0,0,0,0,0,0,-1,776,1296,0,0
-441,-272,0,0,0,0,0,0,0,0,0,-1,783,1296,0,0
-434,-272,0,0,0,0,0,0,0,0,0,-1,790,1296,0,0
-427,-272,0,0,0,0,0,0,0,0,0,-1,797,1296,0,0
-420,-272,0,0,0,0,0,0,0,0,0,-1,804,1296,0,0
-413,-272,0,0,0,0,0,0,0,0,0,-1,811,1296,0,0
-406,-272,0,0,0,0,0,0,0,0,0,-1,818,1296,0,0
-399,-272,0,0,0,0,0,0,0,0,0,-1,825,1296,0,0
-392,-272,0,0,0,0,0,0,0,0,0,-1,832,1296,0,0
-385,-272,0,0,0,0,0,0,0,0,0,-1,839,1296,0,0
-378,-272,0,0,0,0,0,0,0,0,0,-1,846,1296,0,0
-371,-272,0,0,0,0,0,0,0,0,0,-1,853,1296,0,0
-364,-272,0,0,0,0,0,0,0,0,0,-1,860,1296,0,0
-357,-272,0,0,0,0,0,0,0,0,0,-1,867,1296,0,0
-350,-272,0,0,0,0,0,0,0,0,0,-1,874,1296,0,0
-343,-272,0,0,0,0,0,0,0,0,0,-1,881,1296,0,0
-336,-272,0,0,0,0,0,0,0,0,0,-1,888,1296,0,0
-329,-272,0,0,0,0,0,0,0,0,0,-1,895,1296,0,0
-322,-272,0,0,0,0,0,0,0,0,0,-1,902,1296,0,0
-315,-272,0,0,0,0,0,0,0,0,0,-1,909,1296,0,0
-308,-272,0,0,0,0,0,0,0,0,0,-1,916,1296,0,0
-301,-272,0,0,0,0,0,0,0,0,0,-1,923,1296,0,0
-294,-272,0,0,0,0,0,0,0,0,0,-1,930,1296,0,0
-287,-272,0,0,0,0,0,0,0,0,0,-1,937,1296,0,0
-280,-272,0,0,0,0,0,0,0,0,0,-1,944,1296,0,0
-273,-272,0,0,0,0,0,0,0,0,0,-1,951,1296,0,0
-266,-272,0,0,0,0,0,0,0,0,0,-1,958,1296,0,0
-259,-272,0,0,0,0,0,0,0,0,0,-1,965,1296,0,0
-252,-272,0,0,0,0,0,0,0,0,0,-1,972,1296,0,0
-245,-272,0,0,0,0,0,0,0,0,0,-1,979,1296,0,0
-238,-272,0,0,0,0,0,0,0,0,0,-1,986,1296,0,0
-231,-272,0,0,0,0,0,0,0,0,0,-1,993,1296,0,0
-224,-272,0,0,0,0,0,0,0,0,0,-1,1000,1296,0,0
-217,-272,0,0,0,0,0,0,0,0,0,-1,1007,1296,0,0
-210,-272,0,0,0,0,0,0,0,0,0,-1,1014,1296,0,0
-203,-272,0,0,0,0,0,0,0,0,0,-1,1021,1296,0,0
-196,-272,0,0,0,0,0,0,0,0,0,-1,1028,1296,0,0
-189,-272,0,0,0,0,0,0,0,0,0,-1,1035,1296,0,0
-182,-272,0,0,0,0,0,0,0,0,0,-1,1042,1296,0,0
-175,-272,0,0,0,0,0,0,0,0,0,-1,1049,1296,0,0
-168,-272,0,0,0,0,0,0,0,0,0,-1,1056,1296,0,0
-161,-272,0,0,0,0,0,0,0,0,0,-1,1063,1296,0,0
-154,-272,0,0,0,0,0,0,0,0,0,-1,1070,1296,0,0
-147,-272,0,0,0,0,0,0,0,0,0,-1,1077,1296,0,0
-140,-272,0,0,0,0,0,0,0,0,0,-1,1084,1296,0,0
-133,-272,0,0,0,0,0,0,0,0,0,-1,1091,1296,0,0
-126,-272,0,0,0,0,0,0,0,0,0,-1,1098,1296,0,0
-119,-272,0,0,0,0,0,0,0,0,0,-1,1105,1296,0,0
-112,-272,0,0,0,0,0,0,0,0,0,-1,1112,1296,0,0
-105,-272,0,0,0,0,0,0,0,0,0,-1,1119,1296,0,0
-98,-272,0,0,0,0,0,0,0,0,0,-1,1126,1296,0,0
-91,-272,0,0,0,0,0,0,0,0,0,-1,1133,1296,0,0
-84,-272,0,0,0,0,0,0,0,0,0,-1,1140,1296,0,0
-77,-272,0,0,0,0,0,0,0,0,0,-1,1147,1296,0,0
-70,-272,0,0,0,0,0,0,0,0,0,-1,1154,1296,0,0
-63,-272,0,0,0,0,0,0,0,0,0,-1,1161,1296,0,0
-56,-272,0,0,0,0,0,0,0,0,0,-1,1168,1296,0,0
-49,-272,0,0,0,0,0,0,0,0,0,-1,1175,1296,0,0
-42,-272,0,0,0,0,0,0,0,0,0,-1,1182,1296,0,0
-35,-272,0,0,0,0,0,0,0,0,0,-1,1189,1296,0,0
-28,-272,0,0,0,0,0,0,0,0,0,-1,1196,1296,0,0
-21,-272,0,0,0,0,0,0,0,0,0,-1,1203,1296,0,0
-14,-272,0,0,0,0,0,0,0,0,0,-1,1210,1296,0,0
-7,-272,0,0,0,0,0,0,0,0,0,-1,1217,1296,0,0
0,-272,0,0,0,0,0,0,0,0,0,-1,1224,1296,0,0
7,-272,0,0,0,0,0,0,0,0,0,-1,1231,1296,0,0
14,-272,0,0,0,0,0,0,0,0,0,-1,1238,1296,0,0
21,-272,0,0,0,0,0,0,0,0,0,-1,1245,1296,0,0
28,-272,0,0,0,0,0,0,0,0,0,-1,1252,1296,0,0
35,-272,0,0,0,0,0,0,0,0,0,-1,1259,1296,0,0
42,-272,0,0,0,0,0,0,0,0,0,-1,1266,1296,0,0
49,-272,0,0,0,0,0,0,0,0,0,-1,1273,1296,0,0
56,-272,0,0,0,0,0,0,0,0,0,-1,1280,1296,0,0
63,-272,0,0,0,0,0,0,0,0,0,-1,1287,1296,0,0
70,-272,0,0,0,0,0,0,0,0,0,-1,1294,1296,0,0
77,-272,0,0,0,0,0,0,0,0,0,-1,1301,1296,0,0
84,-272,0,0,0,0,0,0,0,0,0,-1,1308,1296,0,0
91,-272,0,0,0,0,0,0,0,0,0,-1,1315,1296,0,0
98,-272,0,0,0,0,0,0,0,0,0,-1,1322,1296,0,0
105,-272,0,0,0,0,0,0,0,0,0,-1,1329,1296,0,0
112,-272,0,0,0,0,0,0,0,0,0,-1,1336,1296,0,0
119,-272,0,0,0,0,0,0,0,0,0,-1,1343,1296,0,0
126,-272,0,0,0,0,0,0,0,0,0,-1,1350,1296,0,0
133,-272,0,0,0,0,0,0,0,0,0,-1,1357,1296,0,0
140,-272,0,0,0,0,0,0,0,0,0,-1,1364,1296,0,0
147,-272,0,0,0,0,0,0,0,0,0,-1,1371,1296,0,0
154,-272,0,0,0,0,0,0,0,0,0,-1,1378,1296,0,0
161,-272,0,0,0,0,0,0,0,0,0,-1,1385,1296,0,0
168,-272,0,0,0,0,0,0,0,0,0,-1,1392,1296,0,0
175,-272,0,0,0,0,0,0,0,0,0,-1,1399,1296,0,0
182,-272,0,0,0,0,0,0,0,0,0,-1,1406,1296,0,0
189,-272,0,0,0,0,0,0,0,0,0,-1,1413,1296,0,0
196,-272,0,0,0,0,0,0,0,0,0,-1,1420,1296,0,0
203,-272,0,0,0,0,0,0,0,0,0,-1,1427,1296,0,0
210,-272,0,0,0,0,0,0,0,0,0,-1,1434,1296,0,0
217,-272,0,0,0,0,0,0,0,0,0,-1,1441,1296,0,0
224,-272,0,0,0,0,0,0,0,0,0,-1,1448,1296,0,0
231,-272,0,0,0,0,0,0,0,0,0,-1,1455,1296,0,0
238,-272,0,0,0,0,0,0,0,0,0,-1,1462,1296,0,0
245,-272,0,0,0,0,0,0,0,0,0,-1,1469,1296,0,0
252,-272,0,0,0,0,0,0,0,0,0,-1,1476,1296,0,0
259,-272,0,0,0,0,0,0,0,0,0,-1,1483,1296,0,0
266,-272,0,0,0,0,0,0,0,0,0,-1,1490,1296,0,0
273,-272,0,0,0,0,0,0,0,0,0,-1,1497,1296,0,0
280,-272,0,0,0,0,0,0,0,0,0,-1,1504,1296,0,0
287,-272,0,0,0,0,0,0,0,0,0,-1,1511,1296,0,0
294,-272,0,0,0,0,0,0,0,0,0,-1,1518,1296,0,0
301,-272,0,0,0,0,0,0,0,0,0,-1,1525,1296,0,0
308,-272,0,0,0,0,0,0,0,0,0,-1,1532,1296,0,0
315,-272,0,0,0,0,0,0,0,0,0,-1,1539,1296,0,0
322,-272,0,0,0,0,0,0,0,0,0,-1,1546,1296,0,0
329,-272,0,0,0,0,0,0,0,0,0,-1,1553,1296,0,0
336,-272,0,0,0,0,0,0,0,0,0,-1,1560,1296,0,0
343,-272,0,0,0,0,0,0,0,0,0,-1,1567,1296,0,0
350,-272,0,0,0,0,0,0,0,0,0,-1,1574,1296,0,0
357,-272,0,0,0,0,0,0,0,0,0,-1,1581,1296,0,0
364,-272,0,0,0,0,0,0,0,0,0,-1,1588,1296,0,0
371,-272,0,0,0,0,0,0,0,0,0,-1,1595,1296,0,0
378,-272,0,0,0,0,0,0,0,0,0,-1,1602,1296,0,0
385,-272,0,0,0,0,0,0,0,0,0,-1,1609,1296,0,0
392,-272,0,0,0,0,0,0,0,0,0,-1,1616,1296,0,0
399,-272,0,0,0,0,0,0,0,0,0,-1,1623,1296,0,0
406,-272,0,0,0,0,0,0,0,0,0,-1,1630,1296,0,0
413,-272,0,0,0,0,0,0,0,0,0,-1,1637,1296,0,0
420,-272,0,0,0,0,0,0,0,0,0,-1,1644,1296,0,0
427,-272,0,0,0,0,0,0,0,0,0,-1,1651,1296,0,0
434,-272,0,0,0,0,0,0,0,0,0,-1,1658,1296,0,0
441,-272,0,0,0,0,0,0,0,0,0,-1,1665,1296,0,0
448,-272,0,0,0,0,0,0,0,0,0,-1,1672,1296,0,0
455,-272,0,0,0,0,0,0,0,0,0,-1,1679,1296,0,0
462,-272,0,0,0,0,0,0,0,0,0,-1,1686,1296,0,0
469,-272,0,0,0,0,0,0,0,0,0,-1,1693,1296,0,0
476,-272,0,0,0,0,0,0,0,0,0,-1,1700,1296,0,0
483,-272,0,0,0,0,0,0,0,0,0,-1,1707,1296,0,0
490,-272,0,0,0,0,0,0,0,0,0,-1,1714,1296,0,0
497,-272,0,0,0,0,0,0,0,0,0,-1,1721,1296,0,0
504,-272,0,0,0,0,0,0,0,0,0,-1,1728,1296,0,0
511,-272,0,0,0,0,0,0,0,0,0,-1,1735,1296,0,0
518,-272,0,0,0,0,0,0,0,0,0,-1,1742,1296,0,0
525,-272,0,0,0,0,0,0,0,0,0,-1,1749,1296,0,0
532,-272,0,0,0,0,0,0,0,0,0,-1,1756,1296,0,0
539,-272,0,0,0,0,0,0,0,0,0,-1,1763,1296,0,0
546,-272,0,0,0,0,0,0,0,0,0,-1,1770,1296,0,0
553,-272,0,0,0,0,0,0,0,0,0,-1,1777,1296,0,0
560,-272,0,0,0,0,0,0,0,0,0,-1,1784,1296,0,0
567,-272,0,0,0,0,0,0,0,0,0,-1,1791,1296,0,0
574,-272,0,0,0,0,0,0,0,0,0,-1,1798,1296,0,0
581,-272,0,0,0,0,0,0,0,0,0,-1,1805,1296,0,0
588,-272,0,0,0,0,0,0,0,0,0,-1,1812,1296,0,0
595,-272,0,0,0,0,0,0,0,0,0,-1,1819,1296,0,0
602,-272,9.56702,1.28821,0.000432579,0.0146197,-0.0367911,0.0449948,-0.0299425,-0.880633,0.0435551,0.0297286,1826,1296,9.56696,-1.28818
609,-272,9.55505,1.29114,-0.00129143,0.0135888,-0.0277081,0.0348383,-0.0225409,-0.916563,0.0333805,0.0355512,1833,1296,9.5551,-1.29113
616,-272,9.3335,0.932129,-0.00235704,0.0118648,-0.017584,0.0237214,-0.0142136,-0.977544,0.0221298,0.0408171,1840,1296,9.33353,-0.932091
623,-272,9.33936,0.863159,-0.00309399,0.00995353,-0.00840206,0.0140672,-0.00720762,-1.11551,0.012494,0.0417327,1847,1296,9.33938,-0.863194
630,-272,9.21448,0.624146,-0.00310829,0.00823627,-0.000940358,0.00831369,-0.00318571,-1.48865,0.00685569,0.0443326,1854,1296,9.21448,-0.624105
637,-272,9.65112,1.01123,-0.00318101,0.00678944,0.00419289,0.00831826,-0.00470983,1.22116,0.00761734,0.0450032,1861,1296,9.6511,-1.0112
644,-272,9.93591,1.42358,-0.00339526,0.00563257,0.0073275,0.00972491,-0.0074876,1.06146,0.00996559,0.04485,1868,1296,9.93594,-1.42353
651,-272,10.069,1.88916,-0.00280359,0.00478053,0.00930047,0.0110323,-0.00905535,0.978973,0.0116163,0.0485038,1875,1296,10.0689,-1.88919
658,-272,10.1746,2.47449,-0.00208971,0.00390076,0.0112911,0.0125872,-0.0107761,0.915049,0.0135023,0.0481931,1882,1296,10.1745,-2.47455
665,-272,8.11365,2.10278,-0.00154309,0.00304044,0.0116618,0.0126335,-0.0111361,0.882422,0.0137325,0.0489007,1889,1296,8.11366,-2.1028
672,-272,8.10461,2.18909,-0.00120975,0.00260986,0.0108189,0.0116862,-0.0102861,0.87276,0.0126943,0.0406029,1896,1296,8.10461,-2.18905
679,-272,8.06506,2.22595,-0.0010263,0.0020054,0.00939791,0.0100089,-0.00902983,0.865358,0.0109969,0.017102,1903,1296,8.06505,-2.226
686,-272,8.06372,2.1759,-0.000645191,0.00148074,0.00760982,0.00810148,-0.00726593,0.854791,0.00887674,0.0126179,1910,1296,8.06378,-2.17589
693,-272,8.07654,2.10217,-0.000822469,0.00141425,0.00556659,0.00597371,-0.00538193,0.884531,0.00655915,0.0114856,1917,1296,8.07651,-2.10212
700,-272,8.06714,2.04456,-0.000799387,0.00171509,0.00390757,0.00456269,-0.00364699,0.94104,0.00474968,0.011688,1924,1296,8.06716,-2.04459
707,-272,8.0769,1.98279,-0.000591541,0.00217181,0.00277406,0.00388924,-0.00230897,1.01645,0.0036171,0.0110454,1931,1296,8.07691,-1.98273
714,-272,8.08765,1.90442,-0.000269599,0.00288015,0.00140932,0.00341866,-0.000808111,1.20581,0.00259083,0.00962382,1938,1296,8.08769,-1.90444
721,-272,8.07288,1.84302,-0.000358975,0.00487381,0.000887233,0.00502015,-0.000505315,1.40733,0.00352729,0.00994515,1945,1296,8.07283,-1.84307
728,-272,8.06128,1.78491,-0.00105989,0.00928161,0.000287812,0.00928961,-0.00106789,1.54299,0.006578,0.012247,1952,1296,8.06128,-1.78487
735,-272,8.07446,1.71472,-0.00182749,0.012557,0.000429342,0.0125698,-0.00184029,1.54098,0.00905585,0.0132011,1959,1296,8.07442,-1.71469
742,-272,8.05579,1.61865,-0.00244531,0.0179536,0.000754313,0.0179814,-0.00247317,1.53389,0.0128913,0.0224829,1966,1296,8.0558,-1.61867
749,-272,8.10254,1.57654,-0.00316658,0.0249604,0.0012514,0.0250159,-0.00322215,1.52642,0.0178485,0.0391233,1973,1296,8.10256,-1.57657
756,-272,8.18359,1.57483,-0.00395309,0.0338225,0.00196743,0.0339247,-0.00405528,1.5189,0.0240823,0.046236,1980,1296,8.18355,-1.57488
763,-272,8.28589,1.35962,-0.00478483,0.0447255,0.0030023,0.0449069,-0.00496623,1.51045,0.0317232,0.04419,1987,1296,8.28591,-1.3596
770,-272,8.45837,1.63586,-0.00570498,0.0577563,0.00447999,0.058071,-0.00601968,1.50067,0.0408686,0.0444213,1994,1296,8.45839,-1.63582
777,-272,8.48193,2.14893,-0.00665649,0.072791,0.00655739,0.0733286,-0.00719408,1.489,0.0514517,0.0439976,2001,1296,8.48191,-2.14896
784,-272,0,0,0,0,0,0,0,0,0,-1,2008,1296,0,0
791,-272,0,0,0,0,0,0,0,0,0,-1,2015,1296,0,0
798,-272,0,0,0,0,0,0,0,0,0,-1,2022,1296,0,0
805,-272,0,0,0,0,0,0,0,0,0,-1,2029,1296,0,0
812,-272,0,0,0,0,0,0,0,0,0,-1,2036,1296,0,0
-700,-279,0,0,0,0,0,0,0,0,0,-1,524,1303,0,0
-693,-279,0,0,0,0,0,0,0,0,0,-1,531,1303,0,0
-686,-279,0,0,0,0,0,0,0,0,0,-1,538,1303,0,0
-679,-279,0,0,0,0,0,0,0,0,0,-1,545,1303,0,0
-672,-279,0,0,0,0,0,0,0,0,0,-1,552,1303,0,0
-665,-279,0,0,0,0,0,0,0,0,0,-1,559,1303,0,0
-658,-279,-10.6114,-0.147095,0,0,0,0,0,0,0,-1,566,1303,-10.6114,0.147088
-651,-279,-9.70361,0.221313,0.230742,0.130903,0.00390093,0.230894,0.13075,0.038993,0.133696,0.0460316,573,1303,-9.70363,-0.221326
-644,-279,-8.60583,0.582397,0.195872,0.110222,0.00971402,0.196959,0.109134,0.111528,0.113936,0.0459107,580,1303,-8.60581,-0.582387
-637,-279,-7.74463,1.13416,0.159913,0.0901669,0.012646,0.162135,0.0879447,0.173942,0.0937209,0.0475926,587,1303,-7.74464,-1.13421
-630,-279,-2.53229,-1.49414,0.125753,0.0716457,0.0135086,0.128938,0.0684605,0.231555,0.07449,0.0430562,594,1303,-2.53228,1.49416
-623,-279,-2.3316,0.366577,0.0951519,0.055242,0.0129383,0.0989793,0.0514146,0.287615,0.0571601,0.0423644,601,1303,-2.33162,-0.366579
-616,-279,-2.30939,0.536255,0.0696243,0.0414526,0.0115391,0.0737473,0.0373296,0.34317,0.0425791,0.0378197,608,1303,-2.30937,-0.53628
-609,-279,-2.35303,0.732178,0.0488011,0.0301545,0.00966406,0.0529061,0.0260496,0.401671,0.0305465,0.0243129,615,1303,-2.35301,-0.732185
-602,-279,-2.37805,0.910034,0.0330269,0.0211649,0.00772359,0.036834,0.0173578,0.457968,0.0212778,0.0107419,622,1303,-2.37806,-0.910027
-595,-279,-2.40845,1.02527,0.0210882,0.0135026,0.00610872,0.0244858,0.010105,0.507581,0.0142085,0.00951674,629,1303,-2.40844,-1.02531
-588,-279,-2.39087,1.12524,0.0114943,0.00714804,0.00425951,0.014103,0.00453934,0.549518,0.00831283,0.00944963,636,1303,-2.39089,-1.12522
-581,-279,-2.39771,1.18982,0.00514906,0.00226689,0.000283246,0.00517663,0.00223932,0.0970383,0.00299777,0.01013,643,1303,-2.39769,-1.18984
-574,-279,-2.41498,1.2644,0.00408075,-0.000337621,-0.00168091,0.00464753,-0.000904395,-0.325211,0.00343968,0.00995856,650,1303,-2.41495,-1.26444
-567,-279,-2.41052,1.36365,0.00492316,-0.0021636,-0.0040051,0.00672734,-0.00396778,-0.423245,0.00624297,0.0136007,657,1303,-2.41052,-1.3637
-560,-279,-2.40424,1.46094,0.0059408,-0.003506,-0.006314,0.00910265,-0.00666785,-0.464262,0.0091412,0.0148142,664,1303,-2.40423,-1.46098
-553,-279,-2.40173,1.53357,0.00739626,-0.00412019,-0.00793166,0.0114395,-0.00816342,-0.471423,0.0113703,0.0118175,671,1303,-2.40171,-1.53362
-546,-279,-2.40265,1.58911,0.00917789,-0.00451442,-0.00947247,0.0140192,-0.00935576,-0.472485,0.0135848,0.0133838,678,1303,-2.40265,-1.58917
-539,-279,-2.41498,1.66418,0.00984237,-0.00409428,-0.0109904,0.0158873,-0.0101392,-0.502861,0.0151481,0.0392205,685,1303,-2.41499,-1.66423
-532,-279,-2.4295,1.72986,0.0102792,-0.00320778,-0.01231,0.0175718,-0.0105003,-0.534819,0.0163779,0.0496837,692,1303,-2.42948,-1.72989
-525,-279,-1.64008,-4.55054,0,0,0,0,0,0,0,-1,699,1303,-1.64008,4.55049
-518,-279,-2.44379,0.564819,0,0,0,0,0,0,0,-1,706,1303,-2.44381,-0.564813
-511,-279,-3.55249,0.582397,0,0,0,0,0,0,0,-1,713,1303,-3.55247,-0.582386
-504,-279,-3.55139,0.549561,0.00654492,0.00714939,-0.0177196,0.0245693,-0.010875,-0.793926,0.0209667,0.0485031,720,1303,-3.55136,-0.549568
-497,-279,-3.49323,0.483887,0.00326532,0.0119351,-0.0192797,0.0273612,-0.0121608,-0.89598,0.0233738,0.0447475,727,1303,-3.4932,-0.483852
-490,-279,-3.39417,0.371704,-0.00170659,0.0184276,-0.0215629,0.0321576,-0.0154367,-1.0038,0.0280381,0.0424682,734,1303,-3.39416,-0.371719
-483,-279,-3.49274,0.364258,0,0,0,0,0,0,0,-1,741,1303,-3.49274,-0.364227
-476,-279,0,0,0,0,0,0,0,0,0,-1,748,1303,0,0
-469,-279,0,0,0,0,0,0,0,0,0,-1,755,1303,0,0
-462,-279,0,0,0,0,0,0,0,0,0,-1,762,1303,0,0
-455,-279,0,0,0,0,0,0,0,0,0,-1,769,1303,0,0
-448,-279,0,0,0,0,0,0,0,0,0,-1,776,1303,0,0
-441,-279,0,0,0,0,0,0,0,0,0,-1,783,1303,0,0
-434,-279,0,0,0,0,0,0,0,0,0,-1,790,1303,0,0
-427,-279,0,0,0,0,0,0,0,0,0,-1,797,1303,0,0
-420,-279,0,0,0,0,0,0,0,0,0,-1,804,1303,0,0
-413,-279,0,0,0,0,0,0,0,0,0,-1,811,1303,0,0
-406,-279,0,0,0,0,0,0,0,0,0,-1,818,1303,0,0
-399,-279,0,0,0,0,0,0,0,0,0,-1,825,1303,0,0
-392,-279,0,0,0,0,0,0,0,0,0,-1,832,1303,0,0
-385,-279,0,0,0,0,0,0,0,0,0,-1,839,1303,0,0
-378,-279,0,0,0,0,0,0,0,0,0,-1,846,1303,0,0
-371,-279,0,0,0,0,0,0,0,0,0,-1,853,1303,0,0
-364,-279,0,0,0,0,0,0,0,0,0,-1,860,1303,0,0
-357,-279,0,0,0,0,0,0,0,0,0,-1,867,1303,0,0
-350,-279,0,0,0,0,0,0,0,0,0,-1,874,1303,0,0
-343,-279,0,0,0,0,0,0,0,0,0,-1,881,1303,0,0
-336,-279,0,0,0,0,0,0,0,0,0,-1,888,1303,0,0
-329,-279,0,0,0,0,0,0,0,0,0,-1,895,1303,0,0
-322,-279,0,0,0,0,0,0,0,0,0,-1,902,1303,0,0
-315,-279,0,0,0,0,0,0,0,0,0,-1,909,1303,0,0
-308,-279,0,0,0,0,0,0,0,0,0,-1,916,1303,0,0
-301,-279,0,0,0,0,0,0,0,0,0,-1,923,1303,0,0
-294,-279,0,0,0,0,0,0,0,0,0,-1,930,1303,0,0
-287,-279,0,0,0,0,0,0,0,0,0,-1,937,1303,0,0
-280,-279,0,0,0,0,0,0,0,0,0,-1,944,1303,0,0
-273,-279,0,0,0,0,0,0,0,0,0,-1,951,1303,0,0
-266,-279,0,0,0,0,0,0,0,0,0,-1,958,1303,0,0
-259,-279,0,0,0,0,0,0,0,0,0,-1,965,1303,0,0
-252,-279,0,0,0,0,0,0,0,0,0,-1,972,1303,0,0
-245,-279,0,0,0,0,0,0,0,0,0,-1,979,1303,0,0
-238,-279,0,0,0,0,0,0,0,0,0,-1,986,1303,0,0
-231,-279,0,0,0,0,0,0,0,0,0,-1,993,1303,0,0
-224,-279,0,0,0,0,0,0,0,0,0,-1,1000,1303,0,0
-217,-279,0,0,0,0,0,0,0,0,0,-1,1007,1303,0,0
-210,-279,0,0,0,0,0,0,0,0,0,-1,1014,1303,0,0
-203,-279,0,0,0,0,0,0,0,0,0,-1,1021,1303,0,0
-196,-279,0,0,0,0,0,0,0,0,0,-1,1028,1303,0,0
-189,-279,0,0,0,0,0,0,0,0,0,-1,1035,1303,0,0
-182,-279,0,0,0,0,0,0,0,0,0,-1,1042,1303,0,0
-175,-279,0,0,0,0,0,0,0,0,0,-1,1049,1303,0,0
-168,-279,0,0,0,0,0,0,0,0,0,-1,1056,1303,0,0
-161,-279,0,0,0,0,0,0,0,0,0,-1,1063,1303,0,0
-154,-279,0,0,0,0,0,0,0,0,0,-1,1070,1303,0,0
-147,-279,0,0,0,0,0,0,0,0,0,-1,1077,1303,0,0
-140,-279,0,0,0,0,0,0,0,0,0,-1,1084,1303,0,0
-133,-279,0,0,0,0,0,0,0,0,0,-1,1091,1303,0,0
-126,-279,0,0,0,0,0,0,0,0,0,-1,1098,1303,0,0
-119,-279,0,0,0,0,0,0,0,0,0,-1,1105,1303,0,0
-112,-279,0,0,0,0,0,0,0,0,0,-1,1112,1303,0,0
-105,-279,0,0,0,0,0,0,0,0,0,-1,1119,1303,0,0
-98,-279,0,0,0,0,0,0,0,0,0,-1,1126,1303,0,0
-91,-279,0,0,0,0,0,0,0,0,0,-1,1133,1303,0,0
-84,-279,0,0,0,0,0,0,0,0,0,-1,1140,1303,0,0
-77,-279,0,0,0,0,0,0,0,0,0,-1,1147,1303,0,0
-70,-279,0,0,0,0,0,0,0,0,0,-1,1154,1303,0,0
-63,-279,0,0,0,0,0,0,0,0,0,-1,1161,1303,0,0
-56,-279,0,0,0,0,0,0,0,0,0,-1,1168,1303,0,0
-49,-279,0,0,0,0,0,0,0,0,0,-1,1175,1303,0,0
-42,-279,0,0,0,0,0,0,0,0,0,-1,1182,1303,0,0
-35,-279,0,0,0,0,0,0,0,0,0,-1,1189,1303,0,0
-28,-279,0,0,0,0,0,0,0,0,0,-1,1196,1303,0,0
-21,-279,0,0,0,0,0,0,0,0,0,-1,1203,1303,0,0
-14,-279,0,0,0,0,0,0,0,0,0,-1,1210,1303,0,0
-7,-279,0,0,0,0,0,0,0,0,0,-1,1217,1303,0,0
0,-279,0,0,0,0,0,0,0,0,0,-1,1224,1303,0,0
7,-279,0,0,0,0,0,0,0,0,0,-1,1231,1303,0,0
14,-279,0,0,0,0,0,0,0,0,0,-1,1238,1303,0,0
21,-279,0,0,0,0,0,0,0,0,0,-1,1245,1303,0,0
28,-279,0,0,0,0,0,0,0,0,0,-1,1252,1303,0,0
35,-279,0,0,0,0,0,0,0,0,0,-1,1259,1303,0,0
42,-279,0,0,0,0,0,0,0,0,0,-1,1266,1303,0,0
49,-279,0,0,0,0,0,0,0,0,0,-1,1273,1303,0,0
56,-279,0,0,0,0,0,0,0,0,0,-1,1280,1303,0,0
63,-279,0,0,0,0,0,0,0,0,0,-1,1287,1303,0,0
70,-279,0,0,0,0,0,0,0,0,0,-1,1294,1303,0,0
77,-279,0,0,0,0,0,0,0,0,0,-1,1301,1303,0,0
84,-279,0,0,0,0,0,0,0,0,0,-1,1308,1303,0,0
91,-279,0,0,0,0,0,0,0,0,0,-1,1315,1303,0,0
98,-279,0,0,0,0,0,0,0,0,0,-1,1322,1303,0,0
105,-279,0,0,0,0,0,0,0,0,0,-1,1329,1303,0,0
112,-279,0,0,0,0,0,0,0,0,0,-1,1336,1303,0,0
119,-279,0,0,0,0,0,0,0,0,0,-1,1343,1303,0,0
126,-279,0,0,0,0,0,0,0,0,0,-1,1350,1303,0,0
133,-279,0,0,0,0,0,0,0,0,0,-1,1357,1303,0,0
140,-279,0,0,0,0,0,0,0,0,0,-1,1364,1303,0,0
147,-279,0,0,0,0,0,0,0,0,0,-1,1371,1303,0,0
154,-279,0,0,0,0,0,0,0,0,0,-1,1378,1303,0,0
161,-279,0,0,0,0,0,0,0,0,0,-1,1385,1303,0,0
168,-279,0,0,0,0,0,0,0,0,0,-1,1392,1303,0,0
175,-279,0,0,0,0,0,0,0,0,0,-1,1399,1303,0,0
182,-279,0,0,0,0,0,0,0,0,0,-1,1406,1303,0,0
189,-279,0,0,0,0,0,0,0,0,0,-1,1413,1303,0,0
196,-279,0,0,0,0,0,0,0,0,0,-1,1420,1303,0,0
203,-279,0,0,0,0,0,0,0,0,0,-1,1427,1303,0,0
210,-279,0,0,0,0,0,0,0,0,0,-1,1434,1303,0,0
217,-279,0,0,0,0,0,0,0,0,0,-1,1441,1303,0,0
224,-279,0,0,0,0,0,0,0,0,0,-1,1448,1303,0,0
231,-279,0,0,0,0,0,0,0,0,0,-1,1455,1303,0,0
238,-279,0,0,0,0,0,0,0,0,0,-1,1462,1303,0,0
245,-279,0,0,0,0,0,0,0,0,0,-1,1469,1303,0,0
252,-279,0,0,0,0,0,0,0,0,0,-1,1476,1303,0,0
259,-279,0,0,0,0,0,0,0,0,0,-1,1483,1303,0,0
266,-279,0,0,0,0,0,0,0,0,0,-1,1490,1303,0,0
273,-279,0,0,0,0,0,0,0,0,0,-1,1497,1303,0,0
280,-279,0,0,0,0,0,0,0,0,0,-1,1504,1303,0,0
287,-279,0,0,0,0,0,0,0,0,0,-1,1511,1303,0,0
294,-279,0,0,0,0,0,0,0,0,0,-1,1518,1303,0,0
301,-279,0,0,0,0,0,0,0,0,0,-1,1525,1303,0,0
308,-279,0,0,0,0,0,0,0,0,0,-1,1532,1303,0,0
315,-279,0,0,0,0,0,0,0,0,0,-1,1539,1303,0,0
322,-279,0,0,0,0,0,0,0,0,0,-1,1546,1303,0,0
329,-279,0,0,0,0,0,0,0,0,0,-1,1553,1303,0,0
336,-279,0,0,0,0,0,0,0,0,0,-1,1560,1303,0,0
343,-279,0,0,0,0,0,0,0,0,0,-1,1567,1303,0,0
350,-279,0,0,0,0,0,0,0,0,0,-1,1574,1303,0,0
357,-279,0,0,0,0,0,0,0,0,0,-1,1581,1303,0,0
364,-279,0,0,0,0,0,0,0,0,0,-1,1588,1303,0,0
371,-279,0,0,0,0,0,0,0,0,0,-1,1595,1303,0,0
378,-279,0,0,0,0,0,0,0,0,0,-1,1602,1303,0,0
385,-279,0,0,0,0,0,0,0,0,0,-1,1609,1303,0,0
392,-279,0,0,0,0,0,0,0,0,0,-1,1616,1303,0,0
399,-279,0,0,0,0,0,0,0,0,0,-1,1623,1303,0,0
406,-279,0,0,0,0,0,0,0,0,0,-1,1630,1303,0,0
413,-279,0,0,0,0,0,0,0,0,0,-1,1637,1303,0,0
420,-279,0,0,0,0,0,0,0,0,0,-1,1644,1303,0,0
427,-279,0,0,0,0,0,0,0,0,0,-1,1651,1303,0,0
434,-279,0,0,0,0,0,0,0,0,0,-1,1658,1303,0,0
441,-279,0,0,0,0,0,0,0,0,0,-1,1665,1303,0,0
448,-279,0,0,0,0,0,0,0,0,0,-1,1672,1303,0,0
455,-279,0,0,0,0,0,0,0,0,0,-1,1679,1303,0,0
462,-279,0,0,0,0,0,0,0,0,0,-1,1686,1303,0,0
469,-279,0,0,0,0,0,0,0,0,0,-1,1693,1303,0,0
476,-279,0,0,0,0,0,0,0,0,0,-1,1700,1303,0,0
483,-279,0,0,0,0,0,0,0,0,0,-1,1707,1303,0,0
490,-279,0,0,0,0,0,0,0,0,0,-1,1714,1303,0,0
497,-279,0,0,0,0,0,0,0,0,0,-1,1721,1303,0,0
504,-279,0,0,0,0,0,0,0,0,0,-1,1728,1303,0,0
511,-279,0,0,0,0,0,0,0,0,0,-1,1735,1303,0,0
518,-279,0,0,0,0,0,0,0,0,0,-1,1742,1303,0,0
525,-279,0,0,0,0,0,0,0,0,0,-1,1749,1303,0,0
532,-279,0,0,0,0,0,0,0,0,0,-1,1756,1303,0,0
539,-279,0,0,0,0,0,0,0,0,0,-1,1763,1303,0,0
546,-279,0,0,0,0,0,0,0,0,0,-1,1770,1303,0,0
553,-279,0,0,0,0,0,0,0,0,0,-1,1777,1303,0,0
560,-279,0,0,0,0,0,0,0,0,0,-1,1784,1303,0,0
567,-279,0,0,0,0,0,0,0,0,0,-1,1791,1303,0,0
574,-279,0,0,0,0,0,0,0,0,0,-1,1798,1303,0,0
581,-279,0,0,0,0,0,0,0,0,0,-1,1805,1303,0,0
588,-279,0,0,0,0,0,0,0,0,0,-1,1812,1303,0,0
595,-279,0,0,0,0,0,0,0,0,0,-1,1819,1303,0,0
602,-279,9.4812,1.19409,0.0098825,0.012983,-0.0435214,0.0549818,-0.0321162,-0.803201,0.0508604,0.0408214,1826,1303,9.48115,-1.19403
609,-279,9.27112,0.898804,0.00402263,0.0125214,-0.0338111,0.0423491,-0.0258051,-0.847911,0.0397334,0.0482706,1833,1303,9.27107,-0.89879
616,-279,9.17603,0.694336,0.000423796,0.0110541,-0.0226055,0.0289609,-0.017483,-0.900864,0.027086,0.0449598,1840,1303,9.17603,-0.694299
623,-279,9.32434,0.567505,-0.00176721,0.00915461,-0.0121712,0.0170339,-0.0096465,-0.996273,0.0155995,0.0446484,1847,1303,9.32439,-0.567563
630,-279,9.51331,0.807495,-0.00269168,0.00726691,-0.00361823,0.00844269,-0.00386746,-1.2566,0.00726905,0.0439229,1854,1303,9.51328,-0.807469
637,-279,9.8147,1.27991,-0.00359574,0.00564865,0.00236504,0.00621857,-0.00416567,1.33433,0.00603427,0.044577,1861,1303,9.81469,-1.27991
644,-279,10.0994,1.69519,-0.0043922,0.00428173,0.00611311,0.00744005,-0.00755052,1.09392,0.00865489,0.0471768,1868,1303,10.0994,-1.69518
651,-279,10.3434,2.03943,0,0,0,0,0,0,0,-1,1875,1303,10.3433,-2.03947
658,-279,8.29846,2.16162,-0.0027699,0.00219475,0.0113176,0.0112991,-0.0118742,0.893355,0.0133805,0.0476222,1882,1303,8.29843,-2.16161
665,-279,8.20715,2.11902,-0.00214347,0.00124647,0.0118464,0.0115186,-0.0124156,0.856455,0.0138216,0.0458545,1889,1303,8.2071,-2.119
672,-279,8.13293,2.19507,-0.00182675,0.000898274,0.0107463,0.0103681,-0.0112966,0.848456,0.012512,0.0314644,1896,1303,8.13293,-2.19501
679,-279,8.02588,2.26917,-0.00165739,0.000458582,0.00898148,0.00844418,-0.00964299,0.844026,0.0104503,0.0192938,1903,1303,8.02592,-2.26917
686,-279,8.00098,2.19153,-0.00118329,0.000120736,0.00690164,0.00640109,-0.00746364,0.832494,0.00801264,0.0187581,1910,1303,8.00093,-2.19156
693,-279,7.99854,2.11157,-0.00136135,0.00033267,0.00466856,0.00423043,-0.00525911,0.875136,0.00548951,0.0150302,1917,1303,7.99854,-2.11162
700,-279,8.00586,2.04407,-0.00134785,0.00103655,0.00295931,0.00303479,-0.00334608,0.976884,0.00368546,0.0104563,1924,1303,8.00583,-2.04406
707,-279,7.99683,1.98401,-0.00117849,0.00197486,0.00187765,0.00285002,-0.00205365,1.13464,0.00284355,0.00847891,1931,1303,7.99687,-1.98397
714,-279,7.99915,1.90906,-0.000929357,0.00311749,0.000556921,0.00319273,-0.0010046,1.4365,0.00253072,0.00906739,1938,1303,7.99919,-1.9091
721,-279,7.99036,1.84277,-0.00110651,0.00553308,8.2684e-06,0.00553309,-0.00110652,1.56955,0.00410755,0.0109628,1945,1303,7.99039,-1.84282
728,-279,7.995,1.76636,-0.00188121,0.0104967,-0.000673583,0.0105332,-0.00191776,-1.51659,0.00774099,0.0114885,1952,1303,7.99503,-1.76632
735,-279,8.00378,1.68616,-0.00284927,0.0144454,-0.000785731,0.014481,-0.0028849,-1.52549,0.0107455,0.0111034,1959,1303,8.00376,-1.68616
742,-279,7.98462,1.58716,-0.00379174,0.0206811,-0.000860598,0.0207113,-0.00382196,-1.53569,0.0152421,0.02199,1966,1303,7.98464,-1.58718
749,-279,7.97839,1.42358,-0.00485619,0.0288646,-0.000861353,0.0288866,-0.00487818,-1.54527,0.0210729,0.0392537,1973,1303,7.97841,-1.42362
756,-279,7.99023,1.30701,-0.00596547,0.0393538,-0.000749239,0.0393662,-0.00597785,-1.55427,0.0284469,0.0470359,1980,1303,7.99024,-1.30703
763,-279,7.79773,0.841919,-0.00704411,0.0525046,-0.000441111,0.0525078,-0.00704737,-1.56339,0.0375753,0.0447777,1987,1303,7.79776,-0.841892
770,-279,8.06409,-0.0878906,-0.00805142,0.0686564,0.000161052,0.0686568,-0.00805176,1.5687,0.0486776,0.0470666,1994,1303,8.06412,0.0878636
777,-279,8.34619,-0.963867,-0.00879128,0.0880552,0.00118469,0.0880697,-0.00880577,1.55857,0.0618577,0.0486584,2001,1303,8.34615,0.963833
784,-279,0,0,0,0,0,0,0,0,0,-1,2008,1303,0,0
791,-279,0,0,0,0,0,0,0,0,0,-1,2015,1303,0,0
798,-279,0,0,0,0,0,0,0,0,0,-1,2022,1303,0,0
805,-279,0,0,0,0,0,0,0,0,0,-1,2029,1303,0,0
812,-279,0,0,0,0,0,0,0,0,0,-1,2036,1303,0,0
-700,-286,0,0,0,0,0,0,0,0,0,-1,524,1310,0,0
-693,-286,0,0,0,0,0,0,0,0,0,-1,531,1310,0,0
-686,-286,0,0,0,0,0,0,0,0,0,-1,538,1310,0,0
-679,-286,0,0,0,0,0,0,0,0,0,-1,545,1310,0,0
-672,-286,0,0,0,0,0,0,0,0,0,-1,552,1310,0,0
-665,-286,0,0,0,0,0,0,0,0,0,-1,559,1310,0,0
-658,-286,-9.54327,-1.24304,0,0,0,0,0,0,0,-1,566,1310,-9.54329,1.24302
-651,-286,-8.81384,-0.90564,0.261124,0.159463,0.00210218,0.261167,0.15942,0.0206666,0.152005,0.0494456,573,1310,-8.81386,0.905593
-644,-286,-8.04456,-0.223755,0.22016,0.133114,0.00931266,0.221145,0.132129,0.105397,0.128484,0.0474344,580,1310,-8.04454,0.223814
-637,-286,-6.95819,0.280029,0.178581,0.108057,0.0129876,0.180897,0.105742,0.176449,0.104937,0.0478171,587,1310,-6.95819,-0.279976
-630,-286,-5.95117,0.762085,0,0,0,0,0,0,0,-1,594,1310,-5.95117,-0.762135
-623,-286,-2.07086,0.0610352,0.10506,0.0653926,0.0137774,0.109376,0.0610769,0.303561,0.0632915,0.0420629,601,1310,-2.07087,-0.061094
-616,-286,-2.2168,0.406982,0.0762119,0.0487231,0.0123686,0.0809577,0.0439772,0.36638,0.0467991,0.0426797,608,1310,-2.21682,-0.406969
-609,-286,-2.33203,0.584106,0.0529941,0.0352251,0.0103966,0.0577853,0.0304339,0.431832,0.0333782,0.0315182,615,1310,-2.33201,-0.584139
-602,-286,-2.3396,0.935547,0.0354923,0.0246982,0.00834,0.0400292,0.0201613,0.498221,0.0231111,0.0127629,622,1310,-2.3396,-0.935579
-595,-286,-2.34784,1.02966,0.0224547,0.0159694,0.00669106,0.0266474,0.0117767,0.559765,0.0154194,0.0100165,629,1310,-2.34784,-1.02964
-588,-286,-2.31775,1.10925,0.0120374,0.00902381,0.00494087,0.0156961,0.00536508,0.637396,0.0092121,0.0103992,636,1310,-2.31775,-1.10924
-581,-286,-2.28406,1.17578,0.00500302,0.00368251,0.00108144,0.00560983,0.0030757,0.511334,0.00324386,0.0122425,643,1310,-2.28409,-1.17583
-574,-286,-2.30695,1.26086,0.00368316,0.000913821,-0.000846622,0.00392148,0.000675506,-0.274389,0.00242077,0.0121959,650,1310,-2.30696,-1.2609
-567,-286,-2.31921,1.35828,0.00427944,-0.00104416,-0.00307762,0.00568666,-0.00245138,-0.428861,0.00482068,0.0117766,657,1310,-2.31923,-1.35822
-560,-286,-2.3139,1.44617,0.00514676,-0.00253979,-0.00537193,0.00790867,-0.00530169,-0.474893,0.00767635,0.0125602,664,1310,-2.31391,-1.44617
-553,-286,-2.31909,1.53381,0.00661841,-0.00332067,-0.00704562,0.0102708,-0.00697302,-0.478249,0.0100162,0.0103564,671,1310,-2.31907,-1.53381
-546,-286,-2.32062,1.60583,0.00849432,-0.00389748,-0.00868483,0.0129669,-0.00837001,-0.475561,0.0124138,0.0119676,678,1310,-2.32059,-1.60589
-539,-286,-2.33264,1.71838,0.00917072,-0.00363704,-0.0102919,0.0148884,-0.00935472,-0.507097,0.0141178,0.0260937,685,1310,-2.33262,-1.71843
-532,-286,-2.27527,1.75769,0.0096009,-0.00286471,-0.0117761,0.016692,-0.00995576,-0.542002,0.0155481,0.0447369,692,1310,-2.27526,-1.75763
-525,-286,-2.32794,1.75317,0,0,0,0,0,0,0,-1,699,1310,-2.32793,-1.75318
-518,-286,-3.66644,1.24768,0,0,0,0,0,0,0,-1,706,1310,-3.66646,-1.2477
-511,-286,-3.90063,0.795288,0.00801509,0.00351398,-0.0172155,0.0231265,-0.0115975,-0.720403,0.0204129,0.0435983,713,1310,-3.90064,-0.795245
-504,-286,-3.76868,0.48999,0.00603236,0.00707612,-0.0191666,0.025728,-0.0126195,-0.799009,0.022567,0.0433472,720,1310,-3.76865,-0.490038
-497,-286,-3.17566,0.580566,0.00289388,0.0118961,-0.0216492,0.0295071,-0.0147171,-0.887894,0.0260045,0.0419483,727,1310,-3.17567,-0.58054
-490,-286,-2.95496,0.546387,-0.00178812,0.0185677,-0.0251305,0.0355031,-0.0187235,-0.977804,0.0318034,0.0434312,734,1310,-2.95498,-0.546427
-483,-286,-3.35992,0.751587,0,0,0,0,0,0,0,-1,741,1310,-3.35992,-0.751529
-476,-286,-3.76031,0.961182,0,0,0,0,0,0,0,-1,748,1310,-3.76032,-0.961228
-469,-286,0,0,0,0,0,0,0,0,0,-1,755,1310,0,0
-462,-286,0,0,0,0,0,0,0,0,0,-1,762,1310,0,0
-455,-286,0,0,0,0,0,0,0,0,0,-1,769,1310,0,0
-448,-286,0,0,0,0,0,0,0,0,0,-1,776,1310,0,0
-441,-286,0,0,0,0,0,0,0,0,0,-1,783,1310,0,0
-434,-286,0,0,0,0,0,0,0,0,0,-1,790,1310,0,0
-427,-286,0,0,0,0,0,0,0,0,0,-1,797,1310,0,0
-420,-286,0,0,0,0,0,0,0,0,0,-1,804,1310,0,0
-413,-286,0,0,0,0,0,0,0,0,0,-1,811,1310,0,0
-406,-286,0,0,0,0,0,0,0,0,0,-1,818,1310,0,0
-399,-286,0,0,0,0,0,0,0,0,0,-1,825,1310,0,0
-392,-286,0,0,0,0,0,0,0,0,0,-1,832,1310,0,0
-385,-286,0,0,0,0,0,0,0,0,0,-1,839,1310,0,0
-378,-286,0,0,0,0,0,0,0,0,0,-1,846,1310,0,0
-371,-286,0,0,0,0,0,0,0,0,0,-1,853,1310,0,0
-364,-286,0,0,0,0,0,0,0,0,0,-1,860,1310,0,0
-357,-286,0,0,0,0,0,0,0,0,0,-1,867,1310,0,0
-350,-286,0,0,0,0,0,0,0,0,0,-1,874,1310,0,0
-343,-286,0,0,0,0,0,0,0,0,0,-1,881,1310,0,0
-336,-286,0,0,0,0,0,0,0,0,0,-1,888,1310,0,0
-329,-286,0,0,0,0,0,0,0,0,0,-1,895,1310,0,0
-322,-286,0,0,0,0,0,0,0,0,0,-1,902,1310,0,0
-315,-286,0,0,0,0,0,0,0,0,0,-1,909,1310,0,0
-308,-286,0,0,0,0,0,0,0,0,0,-1,916,1310,0,0
-301,-286,0,0,0,0,0,0,0,0,0,-1,923,1310,0,0
-294,-286,0,0,0,0,0,0,0,0,0,-1,930,1310,0,0
-287,-286,0,0,0,0,0,0,0,0,0,-1,937,1310,0,0
-280,-286,0,0,0,0,0,0,0,0,0,-1,944,1310,0,0
-273,-286,0,0,0,0,0,0,0,0,0,-1,951,1310,0,0
-266,-286,0,0,0,0,0,0,0,0,0,-1,958,1310,0,0
-259,-286,0,0,0,0,0,0,0,0,0,-1,965,1310,0,0
-252,-286,0,0,0,0,0,0,0,0,0,-1,972,1310,0,0
-245,-286,0,0,0,0,0,0,0,0,0,-1,979,1310,0,0
-238,-286,0,0,0,0,0,0,0,0,0,-1,986,1310,0,0
-231,-286,0,0,0,0,0,0,0,0,0,-1,993,1310,0,0
-224,-286,0,0,0,0,0,0,0,0,0,-1,1000,1310,0,0
-217,-286,0,0,0,0,0,0,0,0,0,-1,1007,1310,0,0
-210,-286,0,0,0,0,0,0,0,0,0,-1,1014,1310,0,0
-203,-286,0,0,0,0,0,0,0,0,0,-1,1021,1310,0,0
-196,-286,0,0,0,0,0,0,0,0,0,-1,1028,1310,0,0
-189,-286,0,0,0,0,0,0,0,0,0,-1,1035,1310,0,0
-182,-286,0,0,0,0,0,0,0,0,0,-1,1042,1310,0,0
-175,-286,0,0,0,0,0,0,0,0,0,-1,1049,1310,0,0
-168,-286,0,0,0,0,0,0,0,0,0,-1,1056,1310,0,0
-161,-286,0,0,0,0,0,0,0,0,0,-1,1063,1310,0,0
-154,-286,0,0,0,0,0,0,0,0,0,-1,1070,1310,0,0
-147,-286,0,0,0,0,0,0,0,0,0,-1,1077,1310,0,0
-140,-286,0,0,0,0,0,0,0,0,0,-1,1084,1310,0,0
-133,-286,0,0,0,0,0,0,0,0,0,-1,1091,1310,0,0
-126,-286,0,0,0,0,0,0,0,0,0,-1,1098,1310,0,0
-119,-286,0,0,0,0,0,0,0,0,0,-1,1105,1310,0,0
-112,-286,0,0,0,0,0,0,0,0,0,-1,1112,1310,0,0
-105,-286,0,0,0,0,0,0,0,0,0,-1,1119,1310,0,0
-98,-286,0,0,0,0,0,0,0,0,0,-1,1126,1310,0,0
-91,-286,0,0,0,0,0,0,0,0,0,-1,1133,1310,0,0
-84,-286,0,0,0,0,0,0,0,0,0,-1,1140,1310,0,0
-77,-286,0,0,0,0,0,0,0,0,0,-1,1147,1310,0,0
-70,-286,0,0,0,0,0,0,0,0,0,-1,1154,1310,0,0
-63,-286,0,0,0,0,0,0,0,0,0,-1,1161,1310,0,0
-56,-286,0,0,0,0,0,0,0,0,0,-1,1168,1310,0,0
-49,-286,0,0,0,0,0,0,0,0,0,-1,1175,1310,0,0
-42,-286,0,0,0,0,0,0,0,0,0,-1,1182,1310,0,0
-35,-286,0,0,0,0,0,0,0,0,0,-1,1189,1310,0,0
-28,-286,0,0,0,0,0,0,0,0,0,-1,1196,1310,0,0
-21,-286,0,0,0,0,0,0,0,0,0,-1,1203,1310,0,0
-14,-286,0,0,0,0,0,0,0,0,0,-1,1210,1310,0,0
-7,-286,0,0,0,0,0,0,0,0,0,-1,1217,1310,0,0
0,-286,0,0,0,0,0,0,0,0,0,-1,1224,1310,0,0
7,-286,0,0,0,0,0,0,0,0,0,-1,1231,1310,0,0
14,-286,0,0,0,0,0,0,0,0,0,-1,1238,1310,0,0
21,-286,0,0,0,0,0,0,0,0,0,-1,1245,1310,0,0
28,-286,0,0,0,0,0,0,0,0,0,-1,1252,1310,0,0
35,-286,0,0,0,0,0,0,0,0,0,-1,1259,1310,0,0
42,-286,0,0,0,0,0,0,0,0,0,-1,1266,1310,0,0
49,-286,0,0,0,0,0,0,0,0,0,-1,1273,1310,0,0
56,-286,0,0,0,0,0,0,0,0,0,-1,1280,1310,0,0
63,-286,0,0,0,0,0,0,0,0,0,-1,1287,1310,0,0
70,-286,0,0,0,0,0,0,0,0,0,-1,1294,1310,0,0
77,-286,0,0,0,0,0,0,0,0,0,-1,1301,1310,0,0
84,-286,0,0,0,0,0,0,0,0,0,-1,1308,1310,0,0
91,-286,0,0,0,0,0,0,0,0,0,-1,1315,1310,0,0
98,-286,0,0,0,0,0,0,0,0,0,-1,1322,1310,0,0
105,-286,0,0,0,0,0,0,0,0,0,-1,1329,1310,0,0
112,-286,0,0,0,0,0,0,0,0,0,-1,1336,1310,0,0
119,-286,0,0,0,0,0,0,0,0,0,-1,1343,1310,0,0
126,-286,0,0,0,0,0,0,0,0,0,-1,1350,1310,0,0
133,-286,0,0,0,0,0,0,0,0,0,-1,1357,1310,0,0
140,-286,0,0,0,0,0,0,0,0,0,-1,1364,1310,0,0
147,-286,0,0,0,0,0,0,0,0,0,-1,1371,1310,0,0
154,-286,0,0,0,0,0,0,0,0,0,-1,1378,1310,0,0
161,-286,0,0,0,0,0,0,0,0,0,-1,1385,1310,0,0
168,-286,0,0,0,0,0,0,0,0,0,-1,1392,1310,0,0
175,-286,0,0,0,0,0,0,0,0,0,-1,1399,1310,0,0
182,-286,0,0,0,0,0,0,0,0,0,-1,1406,1310,0,0
189,-286,0,0,0,0,0,0,0,0,0,-1,1413,1310,0,0
196,-286,0,0,0,0,0,0,0,0,0,-1,1420,1310,0,0
203,-286,0,0,0,0,0,0,0,0,0,-1,1427,1310,0,0
210,-286,0,0,0,0,0,0,0,0,0,-1,1434,1310,0,0
217,-286,0,0,0,0,0,0,0,0,0,-1,1441,1310,0,0
224,-286,0,0,0,0,0,0,0,0,0,-1,1448,1310,0,0
231,-286,0,0,0,0,0,0,0,0,0,-1,1455,1310,0,0
238,-286,0,0,0,0,0,0,0,0,0,-1,1462,1310,0,0
245,-286,0,0,0,0,0,0,0,0,0,-1,1469,1310,0,0
252,-286,0,0,0,0,0,0,0,0,0,-1,1476,1310,0,0
259,-286,0,0,0,0,0,0,0,0,0,-1,1483,1310,0,0
266,-286,0,0,0,0,0,0,0,0,0,-1,1490,1310,0,0
273,-286,0,0,0,0,0,0,0,0,0,-1,1497,1310,0,0
280,-286,0,0,0,0,0,0,0,0,0,-1,1504,1310,0,0
287,-286,0,0,0,0,0,0,0,0,0,-1,1511,1310,0,0
294,-286,0,0,0,0,0,0,0,0,0,-1,1518,1310,0,0
301,-286,0,0,0,0,0,0,0,0,0,-1,1525,1310,0,0
308,-286,0,0,0,0,0,0,0,0,0,-1,1532,1310,0,0
315,-286,0,0,0,0,0,0,0,0,0,-1,1539,1310,0,0
322,-286,0,0,0,0,0,0,0,0,0,-1,1546,1310,0,0
329,-286,0,0,0,0,0,0,0,0,0,-1,1553,1310,0,0
336,-286,0,0,0,0,0,0,0,0,0,-1,1560,1310,0,0
343,-286,0,0,0,0,0,0,0,0,0,-1,1567,1310,0,0
350,-286,0,0,0,0,0,0,0,0,0,-1,1574,1310,0,0
357,-286,0,0,0,0,0,0,0,0,0,-1,1581,1310,0,0
364,-286,0,0,0,0,0,0,0,0,0,-1,1588,1310,0,0
371,-286,0,0,0,0,0,0,0,0,0,-1,1595,1310,0,0
378,-286,0,0,0,0,0,0,0,0,0,-1,1602,1310,0,0
385,-286,0,0,0,0,0,0,0,0,0,-1,1609,1310,0,0
392,-286,0,0,0,0,0,0,0,0,0,-1,1616,1310,0,0
399,-286,0,0,0,0,0,0,0,0,0,-1,1623,1310,0,0
406,-286,0,0,0,0,0,0,0,0,0,-1,1630,1310,0,0
413,-286,0,0,0,0,0,0,0,0,0,-1,1637,1310,0,0
420,-286,0,0,0,0,0,0,0,0,0,-1,1644,1310,0,0
427,-286,0,0,0,0,0,0,0,0,0,-1,1651,1310,0,0
434,-286,0,0,0,0,0,0,0,0,0,-1,1658,1310,0,0
441,-286,0,0,0,0,0,0,0,0,0,-1,1665,1310,0,0
448,-286,0,0,0,0,0,0,0,0,0,-1,1672,1310,0,0
455,-286,0,0,0,0,0,0,0,0,0,-1,1679,1310,0,0
462,-286,0,0,0,0,0,0,0,0,0,-1,1686,1310,0,0
469,-286,0,0,0,0,0,0,0,0,0,-1,1693,1310,0,0
476,-286,0,0,0,0,0,0,0,0,0,-1,1700,1310,0,0
483,-286,0,0,0,0,0,0,0,0,0,-1,1707,1310,0,0
490,-286,0,0,0,0,0,0,0,0,0,-1,1714,1310,0,0
497,-286,0,0,0,0,0,0,0,0,0,-1,1721,1310,0,0
504,-286,0,0,0,0,0,0,0,0,0,-1,1728,1310,0,0
511,-286,0,0,0,0,0,0,0,0,0,-1,1735,1310,0,0
518,-286,0,0,0,0,0,0,0,0,0,-1,1742,1310,0,0
525,-286,0,0,0,0,0,0,0,0,0,-1,1749,1310,0,0
532,-286,0,0,0,0,0,0,0,0,0,-1,1756,1310,0,0
539,-286,0,0,0,0,0,0,0,0,0,-1,1763,1310,0,0
546,-286,0,0,0,0,0,0,0,0,0,-1,1770,1310,0,0
553,-286,0,0,0,0,0,0,0,0,0,-1,1777,1310,0,0
560,-286,0,0,0,0,0,0,0,0,0,-1,1784,1310,0,0
567,-286,0,0,0,0,0,0,0,0,0,-1,1791,1310,0,0
574,-286,0,0,0,0,0,0,0,0,0,-1,1798,1310,0,0
581,-286,0,0,0,0,0,0,0,0,0,-1,1805,1310,0,0
588,-286,0,0,0,0,0,0,0,0,0,-1,1812,1310,0,0
595,-286,9.51379,1.29468,0.035441,0.0078452,-0.0522803,0.0757135,-0.0324273,-0.656379,0.0640807,0.041412,1819,1310,9.51375,-1.29466
602,-286,9.41028,1.06201,0.020324,0.00981632,-0.04849,0.063844,-0.0337037,-0.731434,0.0572082,0.046118,1826,1310,9.4103,-1.06195
609,-286,9.24329,0.685425,0.0106007,0.010186,-0.039271,0.0496649,-0.0288782,-0.782758,0.0458732,0.0449837,1833,1310,9.24328,-0.68548
616,-286,9.0929,0.723999,0.00438286,0.00936651,-0.0278224,0.0348084,-0.0210591,-0.83006,0.0325791,0.0445215,1840,1310,9.09294,-0.723971
623,-286,9.74341,0.817383,0,0,0,0,0,0,0,-1,1847,1310,9.74341,-0.817394
630,-286,9.90491,1.04333,0,0,0,0,0,0,0,-1,1854,1310,9.90488,-1.04333
637,-286,10.0649,1.11462,-0.00347957,0.00450647,-0.000286836,0.00451676,-0.00348986,-1.53494,0.00463528,0.0408985,1861,1310,10.0649,-1.11459
644,-286,10.0459,1.74475,-0.00504445,0.00300836,0.00419052,0.00479336,-0.00682945,1.16811,0.00674466,0.042074,1868,1310,10.0459,-1.74479
651,-286,10.2266,2.27551,0,0,0,0,0,0,0,-1,1875,1310,10.2265,-2.27556
658,-286,8.31531,2.56995,-0.00288427,0.000402022,0.0110916,0.00997157,-0.0124538,0.858935,0.0129737,0.0441959,1882,1310,8.31536,-2.56995
665,-286,8.00916,2.26978,-0.0021578,-0.000708655,0.0118383,0.0104272,-0.0132936,0.815963,0.0137285,0.0420138,1889,1310,8.00921,-2.26975
672,-286,7.98071,2.28784,-0.00189231,-0.00101427,0.0104181,0.0089741,-0.0118807,0.806456,0.0120794,0.0235031,1896,1310,7.98071,-2.28778
679,-286,7.90869,2.26221,-0.00180673,-0.00128222,0.00826887,0.00672856,-0.0098175,0.801251,0.0096082,0.0189905,1903,1310,7.90867,-2.26224
686,-286,7.89771,2.19617,-0.00133424,-0.00138882,0.00593162,0.00457016,-0.00729321,0.783098,0.0069092,0.0187058,1910,1310,7.89765,-2.19611
693,-286,7.89587,2.12732,-0.00159189,-0.00087544,0.00357015,0.00235442,-0.00482174,0.8354,0.004224,0.0151025,1917,1310,7.89583,-2.12737
700,-286,7.91211,2.0437,-0.0017243,0.00026041,0.00185829,0.00137472,-0.00283861,1.03064,0.00248102,0.0110669,1924,1310,7.9121,-2.04374
707,-286,7.91589,1.99048,-0.00180771,0.0017189,0.000844672,0.00191077,-0.00199958,1.34743,0.00225783,0.00835001,1931,1310,7.91592,-1.99051
714,-286,7.90442,1.92773,-0.00183998,0.00329446,-0.000433136,0.00333074,-0.00187626,-1.48722,0.00304511,0.0081731,1938,1310,7.90441,-1.92768
721,-286,7.9032,1.85852,-0.00233608,0.00609522,-0.00104306,0.00622235,-0.0024632,-1.44952,0.00516879,0.0101238,1945,1310,7.90315,-1.85857
728,-286,7.90417,1.78357,-0.00340498,0.011484,-0.00185888,0.0117126,-0.00363355,-1.44845,0.00926032,0.0124119,1952,1310,7.90419,-1.78358
735,-286,7.90771,1.68274,-0.00485458,0.0159925,-0.00232906,0.0162496,-0.00511162,-1.46088,0.0128796,0.0140331,1959,1310,7.90768,-1.68276
742,-286,7.90613,1.58008,-0.00647411,0.0228189,-0.00293172,0.0231095,-0.00676464,-1.47202,0.0180879,0.0229484,1966,1310,7.90607,-1.58009
749,-286,7.88501,1.45044,-0.00830379,0.031788,-0.00357763,0.0321048,-0.00862054,-1.48249,0.0247816,0.0382354,1973,1310,7.88507,-1.45038
756,-286,7.89136,1.3291,0,0,0,0,0,0,0,-1,1980,1310,7.89141,-1.32909
763,-286,7.2948,0.559204,0,0,0,0,0,0,0,-1,1987,1310,7.29479,-0.559219
770,-286,7.05847,-0.636108,0,0,0,0,0,0,0,-1,1994,1310,7.05848,0.636092
777,-286,0,0,0,0,0,0,0,0,0,-1,2001,1310,0,0
784,-286,0,0,0,0,0,0,0,0,0,-1,2008,1310,0,0
791,-286,0,0,0,0,0,0,0,0,0,-1,2015,1310,0,0
798,-286,0,0,0,0,0,0,0,0,0,-1,2022,1310,0,0
805,-286,0,0,0,0,0,0,0,0,0,-1,2029,1310,0,0
812,-286,0,0,0,0,0,0,0,0,0,-1,2036,1310,0,0
-700,-293,0,0,0,0,0,0,0,0,0,-1,524,1317,0,0
-693,-293,0,0,0,0,0,0,0,0,0,-1,531,1317,0,0
-686,-293,0,0,0,0,0,0,0,0,0,-1,538,1317,0,0
-679,-293,0,0,0,0,0,0,0,0,0,-1,545,1317,0,0
-672,-293,0,0,0,0,0,0,0,0,0,-1,552,1317,0,0
-665,-293,0,0,0,0,0,0,0,0,0,-1,559,1317,0,0
-658,-293,0,0,0,0,0,0,0,0,0,-1,566,1317,0,0
-651,-293,-8.16577,-1.70081,0,0,0,0,0,0,0,-1,573,1317,-8.16574,1.70077
-644,-293,-7.10773,-1.25732,0.232323,0.153403,0.00951148,0.233453,0.152273,0.118265,0.136852,0.0476171,580,1317,-7.10773,1.25739
-637,-293,-6.09149,-0.670898,0.186761,0.124043,0.0136788,0.189614,0.12119,0.205662,0.110878,0.0473103,587,1317,-6.09149,0.670902
-630,-293,-4.83582,-0.433228,0,0,0,0,0,0,0,-1,594,1317,-4.83585,0.433269
-623,-293,-2.74579,-0.0410156,0,0,0,0,0,0,0,-1,601,1317,-2.74579,0.0409863
-616,-293,-2.50116,0.257324,0.0784182,0.0559699,0.0133579,0.0846415,0.0497466,0.435991,0.0491179,0.0409027,608,1317,-2.50114,-0.257285
-609,-293,-2.2135,0.750854,0.0543551,0.0405635,0.0113281,0.0607211,0.0341974,0.51199,0.0351506,0.0388521,615,1317,-2.21353,-0.750903
-602,-293,-2.24841,0.917114,0.0363162,0.0286267,0.00915731,0.0424031,0.0225397,0.586644,0.0244977,0.0235653,622,1317,-2.24839,-0.917072
-595,-293,-2.271,1.0155,0.0229846,0.0189124,0.00741637,0.0286393,0.0132577,0.651428,0.01655,0.0130747,629,1317,-2.27097,-1.01547
-588,-293,-2.2403,1.0813,0.0123822,0.0113758,0.0056707,0.017572,0.00618601,0.741143,0.0102922,0.014915,636,1317,-2.2403,-1.0813
-581,-293,-2.2171,1.15991,0.00502823,0.00550054,0.00204016,0.00731817,0.0032106,0.843018,0.00423571,0.0175184,643,1317,-2.21708,-1.15995
-574,-293,-2.25006,1.26758,0.00337254,0.00238644,0.000137555,0.00339137,0.00236761,0.136035,0.0020086,0.0152018,650,1317,-2.25004,-1.26754
-567,-293,-2.24603,1.35168,0.00351017,0.00012509,-0.00197629,0.00441964,-0.000784373,-0.431293,0.00323969,0.0149918,657,1317,-2.24601,-1.35169
-560,-293,-2.23279,1.44128,0.00400628,-0.00167144,-0.00418926,0.00622796,-0.00389311,-0.487613,0.005895,0.0159641,664,1317,-2.23278,-1.44123
-553,-293,-2.23096,1.53113,0.00527615,-0.00270308,-0.0058738,0.00838714,-0.00581407,-0.487076,0.00824381,0.0111465,671,1317,-2.23095,-1.53117
-546,-293,-2.22449,1.61877,0.00706574,-0.00356678,-0.00757461,0.0110035,-0.00750457,-0.479414,0.0107491,0.010364,678,1317,-2.2245,-1.6188
-539,-293,-2.23334,1.70715,0.00768531,-0.00354572,-0.00923204,0.0128756,-0.00873597,-0.512161,0.0125535,0.0186642,685,1317,-2.23334,-1.70718
-532,-293,-2.26868,1.73572,0.00804901,-0.0029541,-0.0108376,0.0147015,-0.00960659,-0.550529,0.0141367,0.0369486,692,1317,-2.26868,-1.73572
-525,-293,-2.24469,1.75061,0.00797983,-0.00148781,-0.01315,0.0172221,-0.0107301,-0.612626,0.0162827,0.0445607,699,1317,-2.24467,-1.75066
-518,-293,-2.22272,1.74219,0,0,0,0,0,0,0,-1,706,1317,-2.22271,-1.74223
-511,-293,-4.16937,0.966064,0.00661965,0.00304191,-0.0174804,0.0224025,-0.0127409,-0.734408,0.0205441,0.045191,713,1317,-4.16936,-0.966113
-504,-293,-3.89893,0.420044,0.00475287,0.00657802,-0.0200695,0.0257557,-0.0144248,-0.808118,0.0235037,0.0438883,720,1317,-3.89894,-0.419987
-497,-293,-2.64563,0.634888,0.00177523,0.0114899,-0.0233531,0.0304855,-0.0172204,-0.887933,0.0278957,0.0419826,727,1317,-2.64564,-0.634931
-490,-293,-2.3266,0.683105,-0.0026689,0.0183725,-0.0277916,0.0375681,-0.0218645,-0.96634,0.0347104,0.0423034,734,1317,-2.32657,-0.683137
-483,-293,-2.60687,0.823975,0,0,0,0,0,0,0,-1,741,1317,-2.60689,-0.823939
-476,-293,-3.25226,0.641357,0,0,0,0,0,0,0,-1,748,1317,-3.25227,-0.641299
-469,-293,0,0,0,0,0,0,0,0,0,-1,755,1317,0,0
-462,-293,0,0,0,0,0,0,0,0,0,-1,762,1317,0,0
-455,-293,0,0,0,0,0,0,0,0,0,-1,769,1317,0,0
-448,-293,0,0,0,0,0,0,0,0,0,-1,776,1317,0,0
-441,-293,0,0,0,0,0,0,0,0,0,-1,783,1317,0,0
-434,-293,0,0,0,0,0,0,0,0,0,-1,790,1317,0,0
-427,-293,0,0,0,0,0,0,0,0,0,-1,797,1317,0,0
-420,-293,0,0,0,0,0,0,0,0,0,-1,804,1317,0,0
-413,-293,0,0,0,0,0,0,0,0,0,-1,811,1317,0,0
-406,-293,0,0,0,0,0,0,0,0,0,-1,818,1317,0,0
-399,-293,0,0,0,0,0,0,0,0,0,-1,825,1317,0,0
-392,-293,0,0,0,0,0,0,0,0,0,-1,832,1317,0,0
-385,-293,0,0,0,0,0,0,0,0,0,-1,839,1317,0,0
-378,-293,0,0,0,0,0,0,0,0,0,-1,846,1317,0,0
-371,-293,0,0,0,0,0,0,0,0,0,-1,853,1317,0,0
-364,-293,0,0,0,0,0,0,0,0,0,-1,860,1317,0,0
-357,-293,0,0,0,0,0,0,0,0,0,-1,867,1317,0,0
-350,-293,0,0,0,0,0,0,0,0,0,-1,874,1317,0,0
-343,-293,0,0,0,0,0,0,0,0,0,-1,881,1317,0,0
-336,-293,0,0,0,0,0,0,0,0,0,-1,888,1317,0,0
-329,-293,0,0,0,0,0,0,0,0,0,-1,895,1317,0,0
-322,-293,0,0,0,0,0,0,0,0,0,-1,902,1317,0,0
-315,-293,0,0,0,0,0,0,0,0,0,-1,909,1317,0,0
-308,-293,0,0,0,0,0,0,0,0,0,-1,916,1317,0,0
-301,-293,0,0,0,0,0,0,0,0,0,-1,923,1317,0,0
-294,-293,0,0,0,0,0,0,0,0,0,-1,930,1317,0,0
-287,-293,0,0,0,0,0,0,0,0,0,-1,937,1317,0,0
-280,-293,0,0,0,0,0,0,0,0,0,-1,944,1317,0,0
-273,-293,0,0,0,0,0,0,0,0,0,-1,951,1317,0,0
-266,-293,0,0,0,0,0,0,0,0,0,-1,958,1317,0,0
-259,-293,0,0,0,0,0,0,0,0,0,-1,965,1317,0,0
-252,-293,0,0,0,0,0,0,0,0,0,-1,972,1317,0,0
-245,-293,0,0,0,0,0,0,0,0,0,-1,979,1317,0,0
-238,-293,0,0,0,0,0,0,0,0,0,-1,986,1317,0,0
-231,-293,0,0,0,0,0,0,0,0,0,-1,993,1317,0,0
-224,-293,0,0,0,0,0,0,0,0,0,-1,1000,1317,0,0
-217,-293,0,0,0,0,0,0,0,0,0,-1,1007,1317,0,0
-210,-293,0,0,0,0,0,0,0,0,0,-1,1014,1317,0,0
-203,-293,0,0,0,0,0,0,0,0,0,-1,1021,1317,0,0
-196,-293,0,0,0,0,0,0,0,0,0,-1,1028,1317,0,0
-189,-293,0,0,0,0,0,0,0,0,0,-1,1035,1317,0,0
-182,-293,0,0,0,0,0,0,0,0,0,-1,1042,1317,0,0
-175,-293,0,0,0,0,0,0,0,0,0,-1,1049,1317,0,0
-168,-293,0,0,0,0,0,0,0,0,0,-1,1056,1317,0,0
-161,-293,0,0,0,0,0,0,0,0,0,-1,1063,1317,0,0
-154,-293,0,0,0,0,0,0,0,0,0,-1,1070,1317,0,0
-147,-293,0,0,0,0,0,0,0,0,0,-1,1077,1317,0,0
-140,-293,0,0,0,0,0,0,0,0,0,-1,1084,1317,0,0
-133,-293,0,0,0,0,0,0,0,0,0,-1,1091,1317,0,0
-126,-293,0,0,0,0,0,0,0,0,0,-1,1098,1317,0,0
-119,-293,0,0,0,0,0,0,0,0,0,-1,1105,1317,0,0
-112,-293,0,0,0,0,0,0,0,0,0,-1,1112,1317,0,0
-105,-293,0,0,0,0,0,0,0,0,0,-1,1119,1317,0,0
-98,-293,0,0,0,0,0,0,0,0,0,-1,1126,1317,0,0
-91,-293,0,0,0,0,0,0,0,0,0,-1,1133,1317,0,0
-84,-293,0,0,0,0,0,0,0,0,0,-1,1140,1317,0,0
-77,-293,0,0,0,0,0,0,0,0,0,-1,1147,1317,0,0
-70,-293,0,0,0,0,0,0,0,0,0,-1,1154,1317,0,0
-63,-293,0,0,0,0,0,0,0,0,0,-1,1161,1317,0,0
-56,-293,0,0,0,0,0,0,0,0,0,-1,1168,1317,0,0
-49,-293,0,0,0,0,0,0,0,0,0,-1,1175,1317,0,0
-42,-293,0,0,0,0,0,0,0,0,0,-1,1182,1317,0,0
-35,-293,0,0,0,0,0,0,0,0,0,-1,1189,1317,0,0
-28,-293,0,0,0,0,0,0,0,0,0,-1,1196,1317,0,0
-21,-293,0,0,0,0,0,0,0,0,0,-1,1203,1317,0,0
-14,-293,0,0,0,0,0,0,0,0,0,-1,1210,1317,0,0
-7,-293,0,0,0,0,0,0,0,0,0,-1,1217,1317,0,0
0,-293,0,0,0,0,0,0,0,0,0,-1,1224,1317,0,0
7,-293,0,0,0,0,0,0,0,0,0,-1,1231,1317,0,0
14,-293,0,0,0,0,0,0,0,0,0,-1,1238,1317,0,0
21,-293,0,0,0,0,0,0,0,0,0,-1,1245,1317,0,0
28,-293,0,0,0,0,0,0,0,0,0,-1,1252,1317,0,0
35,-293,0,0,0,0,0,0,0,0,0,-1,1259,1317,0,0
42,-293,0,0,0,0,0,0,0,0,0,-1,1266,1317,0,0
49,-293,0,0,0,0,0,0,0,0,0,-1,1273,1317,0,0
56,-293,0,0,0,0,0,0,0,0,0,-1,1280,1317,0,0
63,-293,0,0,0,0,0,0,0,0,0,-1,1287,1317,0,0
70,-293,0,0,0,0,0,0,0,0,0,-1,1294,1317,0,0
77,-293,0,0,0,0,0,0,0,0,0,-1,1301,1317,0,0
84,-293,0,0,0,0,0,0,0,0,0,-1,1308,1317,0,0
91,-293,0,0,0,0,0,0,0,0,0,-1,1315,1317,0,0
98,-293,0,0,0,0,0,0,0,0,0,-1,1322,1317,0,0
105,-293,0,0,0,0,0,0,0,0,0,-1,1329,1317,0,0
112,-293,0,0,0,0,0,0,0,0,0,-1,1336,1317,0,0
119,-293,0,0,0,0,0,0,0,0,0,-1,1343,1317,0,0
126,-293,0,0,0,0,0,0,0,0,0,-1,1350,1317,0,0
133,-293,0,0,0,0,0,0,0,0,0,-1,1357,1317,0,0
140,-293,0,0,0,0,0,0,0,0,0,-1,1364,1317,0,0
147,-293,0,0,0,0,0,0,0,0,0,-1,1371,1317,0,0
154,-293,0,0,0,0,0,0,0,0,0,-1,1378,1317,0,0
161,-293,0,0,0,0,0,0,0,0,0,-1,1385,1317,0,0
168,-293,0,0,0,0,0,0,0,0,0,-1,1392,1317,0,0
175,-293,0,0,0,0,0,0,0,0,0,-1,1399,1317,0,0
182,-293,0,0,0,0,0,0,0,0,0,-1,1406,1317,0,0
189,-293,0,0,0,0,0,0,0,0,0,-1,1413,1317,0,0
196,-293,0,0,0,0,0,0,0,0,0,-1,1420,1317,0,0
203,-293,0,0,0,0,0,0,0,0,0,-1,1427,1317,0,0
210,-293,0,0,0,0,0,0,0,0,0,-1,1434,1317,0,0
217,-293,0,0,0,0,0,0,0,0,0,-1,1441,1317,0,0
224,-293,0,0,0,0,0,0,0,0,0,-1,1448,1317,0,0
231,-293,0,0,0,0,0,0,0,0,0,-1,1455,1317,0,0
238,-293,0,0,0,0,0,0,0,0,0,-1,1462,1317,0,0
245,-293,0,0,0,0,0,0,0,0,0,-1,1469,1317,0,0
252,-293,0,0,0,0,0,0,0,0,0,-1,1476,1317,0,0
259,-293,0,0,0,0,0,0,0,0,0,-1,1483,1317,0,0
266,-293,0,0,0,0,0,0,0,0,0,-1,1490,1317,0,0
273,-293,0,0,0,0,0,0,0,0,0,-1,1497,1317,0,0
280,-293,0,0,0,0,0,0,0,0,0,-1,1504,1317,0,0
287,-293,0,0,0,0,0,0,0,0,0,-1,1511,1317,0,0
294,-293,0,0,0,0,0,0,0,0,0,-1,1518,1317,0,0
301,-293,0,0,0,0,0,0,0,0,0,-1,1525,1317,0,0
308,-293,0,0,0,0,0,0,0,0,0,-1,1532,1317,0,0
315,-293,0,0,0,0,0,0,0,0,0,-1,1539,1317,0,0
322,-293,0,0,0,0,0,0,0,0,0,-1,1546,1317,0,0
329,-293,0,0,0,0,0,0,0,0,0,-1,1553,1317,0,0
336,-293,0,0,0,0,0,0,0,0,0,-1,1560,1317,0,0
343,-293,0,0,0,0,0,0,0,0,0,-1,1567,1317,0,0
350,-293,0,0,0,0,0,0,0,0,0,-1,1574,1317,0,0
357,-293,0,0,0,0,0,0,0,0,0,-1,1581,1317,0,0
364,-293,0,0,0,0,0,0,0,0,0,-1,1588,1317,0,0
371,-293,0,0,0,0,0,0,0,0,0,-1,1595,1317,0,0
378,-293,0,0,0,0,0,0,0,0,0,-1,1602,1317,0,0
385,-293,0,0,0,0,0,0,0,0,0,-1,1609,1317,0,0
392,-293,0,0,0,0,0,0,0,0,0,-1,1616,1317,0,0
399,-293,0,0,0,0,0,0,0,0,0,-1,1623,1317,0,0
406,-293,0,0,0,0,0,0,0,0,0,-1,1630,1317,0,0
413,-293,0,0,0,0,0,0,0,0,0,-1,1637,1317,0,0
420,-293,0,0,0,0,0,0,0,0,0,-1,1644,1317,0,0
427,-293,0,0,0,0,0,0,0,0,0,-1,1651,1317,0,0
434,-293,0,0,0,0,0,0,0,0,0,-1,1658,1317,0,0
441,-293,0,0,0,0,0,0,0,0,0,-1,1665,1317,0,0
448,-293,0,0,0,0,0,0,0,0,0,-1,1672,1317,0,0
455,-293,0,0,0,0,0,0,0,0,0,-1,1679,1317,0,0
462,-293,0,0,0,0,0,0,0,0,0,-1,1686,1317,0,0
469,-293,0,0,0,0,0,0,0,0,0,-1,1693,1317,0,0
476,-293,0,0,0,0,0,0,0,0,0,-1,1700,1317,0,0
483,-293,0,0,0,0,0,0,0,0,0,-1,1707,1317,0,0
490,-293,0,0,0,0,0,0,0,0,0,-1,1714,1317,0,0
497,-293,0,0,0,0,0,0,0,0,0,-1,1721,1317,0,0
504,-293,0,0,0,0,0,0,0,0,0,-1,1728,1317,0,0
511,-293,0,0,0,0,0,0,0,0,0,-1,1735,1317,0,0
518,-293,0,0,0,0,0,0,0,0,0,-1,1742,1317,0,0
525,-293,0,0,0,0,0,0,0,0,0,-1,1749,1317,0,0
532,-293,0,0,0,0,0,0,0,0,0,-1,1756,1317,0,0
539,-293,0,0,0,0,0,0,0,0,0,-1,1763,1317,0,0
546,-293,0,0,0,0,0,0,0,0,0,-1,1770,1317,0,0
553,-293,0,0,0,0,0,0,0,0,0,-1,1777,1317,0,0
560,-293,0,0,0,0,0,0,0,0,0,-1,1784,1317,0,0
567,-293,0,0,0,0,0,0,0,0,0,-1,1791,1317,0,0
574,-293,0,0,0,0,0,0,0,0,0,-1,1798,1317,0,0
581,-293,0,0,0,0,0,0,0,0,0,-1,1805,1317,0,0
588,-293,0,0,0,0,0,0,0,0,0,-1,1812,1317,0,0
595,-293,9.50159,1.30298,0.0496091,0.00677343,-0.0506999,0.0832295,-0.026847,-0.585547,0.0662734,0.0484724,1819,1317,9.50153,-1.30295
602,-293,9.43994,0.831787,0.0317119,0.00792907,-0.0499426,0.0711592,-0.0315182,-0.668523,0.0607357,0.0485463,1826,1317,9.43996,-0.831799
609,-293,9.3252,0.0623779,0.0189106,0.008274,-0.0426271,0.0565498,-0.0293652,-0.723337,0.050424,0.0461436,1833,1317,9.32524,-0.0623909
616,-293,9.23499,0.908936,0.0100951,0.00777781,-0.0322603,0.0412175,-0.0233447,-0.767448,0.0377481,0.0469099,1840,1317,9.23503,-0.908959
623,-293,10.6177,-0.600342,0,0,0,0,0,0,0,-1,1847,1317,10.6177,0.600313
630,-293,10.6256,0.287476,0.000447166,0.00518362,-0.0114576,0.0145152,-0.00888444,-0.88731,0.0136396,0.0433197,1854,1317,10.6257,-0.287416
637,-293,10.2802,1.07703,-0.00314951,0.00404137,-0.00395689,0.00579234,-0.00490049,-1.15419,0.00618066,0.0444076,1861,1317,10.2801,-1.07704
644,-293,9.81067,1.94043,-0.00598186,0.00269282,0.00137858,0.00290664,-0.00619568,1.41693,0.00536836,0.0449339,1868,1317,9.81063,-1.94046
651,-293,10.0217,2.65051,0,0,0,0,0,0,0,-1,1875,1317,10.0218,-2.65056
658,-293,9.96448,3.57581,0,0,0,0,0,0,0,-1,1882,1317,9.96442,-3.57579
665,-293,7.91187,2.37878,-0.00253223,-0.00154028,0.0117286,0.00970279,-0.0137753,0.806529,0.0136229,0.031555,1889,1317,7.91187,-2.37882
672,-293,7.83459,2.3313,-0.00234826,-0.0018459,0.00997282,0.0078789,-0.0120731,0.797989,0.0116038,0.0157598,1896,1317,7.83454,-2.3313
679,-293,7.84424,2.24792,-0.00229318,-0.00204628,0.00744229,0.00527359,-0.00961305,0.793691,0.00871567,0.0120892,1903,1317,7.84424,-2.24792
686,-293,7.84583,2.18701,-0.00174803,-0.00204279,0.00488887,0.00299568,-0.0067865,0.77033,0.00578737,0.0136313,1910,1317,7.8458,-2.18696
693,-293,7.84155,2.12683,-0.0019586,-0.00143485,0.00243949,0.000756779,-0.00415023,0.838867,0.00305053,0.0113423,1917,1317,7.84158,-2.12679
700,-293,7.83484,2.04419,-0.00208686,-0.000102877,0.000744556,0.000145458,-0.0023352,1.24886,0.00160748,0.0113996,1924,1317,7.83486,-2.04419
707,-293,7.84119,1.98999,-0.00225296,0.00159188,-0.000234573,0.00160614,-0.00226722,-1.51009,0.00224712,0.0112552,1931,1317,7.84119,-1.99003
714,-293,7.83374,1.92676,-0.00243875,0.00335516,-0.00149527,0.00371829,-0.00280189,-1.33255,0.0037768,0.00762586,1938,1317,7.8338,-1.9268
721,-293,7.83362,1.84326,-0.00311651,0.00625968,-0.0022071,0.00675323,-0.00361007,-1.35079,0.0060743,0.00910453,1945,1317,7.83367,-1.84329
728,-293,7.83704,1.75061,-0.00439546,0.0118241,-0.00317293,0.0124227,-0.00499407,-1.38433,0.010356,0.0112624,1952,1317,7.837,-1.75063
735,-293,7.82983,1.67065,-0.00629608,0.0167215,-0.00405805,0.017416,-0.00699057,-1.4013,0.0145133,0.0150329,1959,1317,7.82985,-1.67071
742,-293,7.78406,1.59192,-0.00855848,0.0239399,-0.00521582,0.0247565,-0.00937507,-1.4155,0.0203619,0.0242605,1966,1317,7.78409,-1.59191
749,-293,7.7345,1.49548,-0.0111593,0.0334538,-0.00653774,0.0343921,-0.0120976,-1.42825,0.0278507,0.0377795,1973,1317,7.73447,-1.49553
756,-293,4.61707,1.06958,0,0,0,0,0,0,0,-1,1980,1317,4.61707,-1.06955
763,-293,5.43591,0.0144043,0,0,0,0,0,0,0,-1,1987,1317,5.4359,-0.0143479
770,-293,6.22375,-1.00757,0,0,0,0,0,0,0,-1,1994,1317,6.22373,1.00762
777,-293,0,0,0,0,0,0,0,0,0,-1,2001,1317,0,0
784,-293,0,0,0,0,0,0,0,0,0,-1,2008,1317,0,0
791,-293,0,0,0,0,0,0,0,0,0,-1,2015,1317,0,0
798,-293,0,0,0,0,0,0,0,0,0,-1,2022,1317,0,0
805,-293,0,0,0,0,0,0,0,0,0,-1,2029,1317,0,0
812,-293,0,0,0,0,0,0,0,0,0,-1,2036,1317,0,0
-700,-300,0,0,0,0,0,0,0,0,0,-1,524,1324,0,0
-693,-300,0,0,0,0,0,0,0,0,0,-1,531,1324,0,0
-686,-300,0,0,0,0,0,0,0,0,0,-1,538,1324,0,0
-679,-300,0,0,0,0,0,0,0,0,0,-1,545,1324,0,0
-672,-300,0,0,0,0,0,0,0,0,0,-1,552,1324,0,0
-665,-300,0,0,0,0,0,0,0,0,0,-1,559,1324,0,0
-658,-300,0,0,0,0,0,0,0,0,0,-1,566,1324,0,0
-651,-300,-6.40558,-3.49902,0,0,0,0,0,0,0,-1,573,1324,-6.40555,3.49897
-644,-300,-6.34821,-2.17944,0,0,0,0,0,0,0,-1,580,1324,-6.3482,2.17941
-637,-300,-5.45184,-1.77051,0,0,0,0,0,0,0,-1,587,1324,-5.45182,1.77046
-630,-300,-4.19049,-0.598877,0,0,0,0,0,0,0,-1,594,1324,-4.1905,0.598861
-623,-300,-2.72632,-0.0302734,0,0,0,0,0,0,0,-1,601,1324,-2.72629,0.0302735
-616,-300,-2.57727,0.319336,0.0772741,0.0625732,0.0142798,0.0859842,0.0538631,0.54771,0.0501692,0.0411378,608,1324,-2.57728,-0.319386
-609,-300,-1.97504,0.557251,0.0535792,0.0456801,0.0121868,0.0624404,0.0368188,0.628696,0.0362427,0.0432607,615,1324,-1.97505,-0.557309
-602,-300,-2.13922,0.894775,0.0357309,0.0324495,0.00988932,0.0441147,0.0240657,0.703194,0.0255048,0.0300548,622,1324,-2.13923,-0.894778
-595,-300,-2.1684,1.00793,0.0226397,0.0218125,0.00802677,0.0302635,0.0141887,0.759656,0.017484,0.0159025,629,1324,-2.16837,-1.00791
-588,-300,-2.15192,1.08496,0.0123031,0.0136457,0.00625829,0.0192686,0.00668025,0.838826,0.0112977,0.0205584,636,1324,-2.15194,-1.085
-581,-300,-2.1673,1.18286,0.00499573,0.00716837,0.0029131,0.00919111,0.00297299,0.963866,0.00541562,0.0201529,643,1324,-2.16729,-1.18285
-574,-300,-2.19086,1.29724,0.00315334,0.00358376,0.0010299,0.0044207,0.0023164,0.888397,0.00255327,0.0153756,650,1324,-2.19088,-1.2972
-567,-300,-2.17145,1.38635,0.00290003,0.000905332,-0.000957764,0.00328544,0.000519924,-0.382577,0.0020392,0.0151221,657,1324,-2.17145,-1.38632
-560,-300,-2.15002,1.46643,0.00307004,-0.00129596,-0.00307316,0.00465663,-0.00288255,-0.476581,0.00439273,0.014253,664,1324,-2.15005,-1.46641
-553,-300,-2.13593,1.54883,0.00411508,-0.0026543,-0.00473339,0.00654942,-0.00508864,-0.475015,0.00673685,0.0103506,671,1324,-2.13591,-1.54878
-546,-300,-2.11951,1.62732,0.00578582,-0.00383992,-0.00644602,0.0090175,-0.0070716,-0.464724,0.00931167,0.00885143,678,1324,-2.11953,-1.62731
-539,-300,-2.12762,1.70654,0.00644008,-0.00399987,-0.00816052,0.0109073,-0.00846712,-0.500861,0.0112154,0.0110697,685,1324,-2.12765,-1.7065
-532,-300,-2.21643,1.72327,0.00687246,-0.00353546,-0.00989003,0.0128441,-0.00950709,-0.543211,0.0129523,0.023471,692,1324,-2.21643,-1.7233
-525,-300,-2.29633,1.73047,0.00691657,-0.00218148,-0.0124491,0.0156217,-0.0108867,-0.61023,0.0153858,0.0417561,699,1324,-2.29635,-1.73053
-518,-300,-2.39862,1.72888,0,0,0,0,0,0,0,-1,706,1324,-2.39864,-1.72885
-511,-300,-3.6413,0.812622,0.00598361,0.00233685,-0.0175356,0.0217903,-0.0134699,-0.733593,0.0205456,0.0448253,713,1324,-3.64132,-0.812605
-504,-300,-3.73041,0.719604,0.00442247,0.0060273,-0.0206231,0.0258636,-0.0154138,-0.804843,0.0240847,0.0466712,720,1324,-3.73039,-0.719546
-497,-300,-1.53027,0.627563,0,0,0,0,0,0,0,-1,727,1324,-1.53027,-0.627623
-490,-300,-1.85449,0.834961,-0.00215189,0.0185571,-0.0295433,0.0395079,-0.0231027,-0.953951,0.0365596,0.0435559,734,1324,-1.85449,-0.834946
-483,-300,-2.21368,1.14966,-0.00701015,0.0279492,-0.0372205,0.0515902,-0.0306511,-1.00493,0.0479923,0.041328,741,1324,-2.21368,-1.14967
-476,-300,-2.84143,1.16394,-0.0132138,0.0398473,-0.0494073,0.0693967,-0.0427631,-1.03179,0.0653612,0.0431905,748,1324,-2.84145,-1.1639
-469,-300,0,0,0,0,0,0,0,0,0,-1,755,1324,0,0
-462,-300,0,0,0,0,0,0,0,0,0,-1,762,1324,0,0
-455,-300,0,0,0,0,0,0,0,0,0,-1,769,1324,0,0
-448,-300,0,0,0,0,0,0,0,0,0,-1,776,1324,0,0
-441,-300,0,0,0,0,0,0,0,0,0,-1,783,1324,0,0
-434,-300,0,0,0,0,0,0,0,0,0,-1,790,1324,0,0
-427,-300,0,0,0,0,0,0,0,0,0,-1,797,1324,0,0
-420,-300,0,0,0,0,0,0,0,0,0,-1,804,1324,0,0
-413,-300,0,0,0,0,0,0,0,0,0,-1,811,1324,0,0
-406,-300,0,0,0,0,0,0,0,0,0,-1,818,1324,0,0
-399,-300,0,0,0,0,0,0,0,0,0,-1,825,1324,0,0
-392,-300,0,0,0,0,0,0,0,0,0,-1,832,1324,0,0
-385,-300,0,0,0,0,0,0,0,0,0,-1,839,1324,0,0
-378,-300,0,0,0,0,0,0,0,0,0,-1,846,1324,0,0
-371,-300,0,0,0,0,0,0,0,0,0,-1,853,1324,0,0
-364,-300,0,0,0,0,0,0,0,0,0,-1,860,1324,0,0
-357,-300,0,0,0,0,0,0,0,0,0,-1,867,1324,0,0
-350,-300,0,0,0,0,0,0,0,0,0,-1,874,1324,0,0
-343,-300,0,0,0,0,0,0,0,0,0,-1,881,1324,0,0
-336,-300,0,0,0,0,0,0,0,0,0,-1,888,1324,0,0
-329,-300,0,0,0,0,0,0,0,0,0,-1,895,1324,0,0
-322,-300,0,0,0,0,0,0,0,0,0,-1,902,1324,0,0
-315,-300,0,0,0,0,0,0,0,0,0,-1,909,1324,0,0
-308,-300,0,0,0,0,0,0,0,0,0,-1,916,1324,0,0
-301,-300,0,0,0,0,0,0,0,0,0,-1,923,1324,0,0
-294,-300,0,0,0,0,0,0,0,0,0,-1,930,1324,0,0
-287,-300,0,0,0,0,0,0,0,0,0,-1,937,1324,0,0
-280,-300,0,0,0,0,0,0,0,0,0,-1,944,1324,0,0
-273,-300,0,0,0,0,0,0,0,0,0,-1,951,1324,0,0
-266,-300,0,0,0,0,0,0,0,0,0,-1,958,1324,0,0
-259,-300,0,0,0,0,0,0,0,0,0,-1,965,1324,0,0
-252,-300,0,0,0,0,0,0,0,0,0,-1,972,1324,0,0
-245,-300,0,0,0,0,0,0,0,0,0,-1,979,1324,0,0
-238,-300,0,0,0,0,0,0,0,0,0,-1,986,1324,0,0
-231,-300,0,0,0,0,0,0,0,0,0,-1,993,1324,0,0
-224,-300,0,0,0,0,0,0,0,0,0,-1,1000,1324,0,0
-217,-300,0,0,0,0,0,0,0,0,0,-1,1007,1324,0,0
-210,-300,0,0,0,0,0,0,0,0,0,-1,1014,1324,0,0
-203,-300,0,0,0,0,0,0,0,0,0,-1,1021,1324,0,0
-196,-300,0,0,0,0,0,0,0,0,0,-1,1028,1324,0,0
-189,-300,0,0,0,0,0,0,0,0,0,-1,1035,1324,0,0
-182,-300,0,0,0,0,0,0,0,0,0,-1,1042,1324,0,0
-175,-300,0,0,0,0,0,0,0,0,0,-1,1049,1324,0,0
-168,-300,0,0,0,0,0,0,0,0,0,-1,1056,1324,0,0
-161,-300,0,0,0,0,0,0,0,0,0,-1,1063,1324,0,0
-154,-300,0,0,0,0,0,0,0,0,0,-1,1070,1324,0,0
-147,-300,0,0,0,0,0,0,0,0,0,-1,1077,1324,0,0
-140,-300,0,0,0,0,0,0,0,0,0,-1,1084,1324,0,0
-133,-300,0,0,0,0,0,0,0,0,0,-1,1091,1324,0,0
-126,-300,0,0,0,0,0,0,0,0,0,-1,1098,1324,0,0
-119,-300,0,0,0,0,0,0,0,0,0,-1,1105,1324,0,0
-112,-300,0,0,0,0,0,0,0,0,0,-1,1112,1324,0,0
-105,-300,0,0,0,0,0,0,0,0,0,-1,1119,1324,0,0
-98,-300,0,0,0,0,0,0,0,0,0,-1,1126,1324,0,0
-91,-300,0,0,0,0,0,0,0,0,0,-1,1133,1324,0,0
-84,-300,0,0,0,0,0,0,0,0,0,-1,1140,1324,0,0
-77,-300,0,0,0,0,0,0,0,0,0,-1,1147,1324,0,0
-70,-300,0,0,0,0,0,0,0,0,0,-1,1154,1324,0,0
-63,-300,0,0,0,0,0,0,0,0,0,-1,1161,1324,0,0
-56,-300,0,0,0,0,0,0,0,0,0,-1,1168,1324,0,0
-49,-300,0,0,0,0,0,0,0,0,0,-1,1175,1324,0,0
-42,-300,0,0,0,0,0,0,0,0,0,-1,1182,1324,0,0
-35,-300,0,0,0,0,0,0,0,0,0,-1,1189,1324,0,0
-28,-300,0,0,0,0,0,0,0,0,0,-1,1196,1324,0,0
-21,-300,0,0,0,0,0,0,0,0,0,-1,1203,1324,0,0
-14,-300,0,0,0,0,0,0,0,0,0,-1,1210,1324,0,0
-7,-300,0,0,0,0,0,0,0,0,0,-1,1217,1324,0,0
0,-300,0,0,0,0,0,0,0,0,0,-1,1224,1324,0,0
7,-300,0,0,0,0,0,0,0,0,0,-1,1231,1324,0,0
14,-300,0,0,0,0,0,0,0,0,0,-1,1238,1324,0,0
21,-300,0,0,0,0,0,0,0,0,0,-1,1245,1324,0,0
28,-300,0,0,0,0,0,0,0,0,0,-1,1252,1324,0,0
35,-300,0,0,0,0,0,0,0,0,0,-1,1259,1324,0,0
42,-300,0,0,0,0,0,0,0,0,0,-1,1266,1324,0,0
49,-300,0,0,0,0,0,0,0,0,0,-1,1273,1324,0,0
56,-300,0,0,0,0,0,0,0,0,0,-1,1280,1324,0,0
63,-300,0,0,0,0,0,0,0,0,0,-1,1287,1324,0,0
70,-300,0,0,0,0,0,0,0,0,0,-1,1294,1324,0,0
77,-300,0,0,0,0,0,0,0,0,0,-1,1301,1324,0,0
84,-300,0,0,0,0,0,0,0,0,0,-1,1308,1324,0,0
91,-300,0,0,0,0,0,0,0,0,0,-1,1315,1324,0,0
98,-300,0,0,0,0,0,0,0,0,0,-1,1322,1324,0,0
105,-300,0,0,0,0,0,0,0,0,0,-1,1329,1324,0,0
112,-300,0,0,0,0,0,0,0,0,0,-1,1336,1324,0,0
119,-300,0,0,0,0,0,0,0,0,0,-1,1343,1324,0,0
126,-300,0,0,0,0,0,0,0,0,0,-1,1350,1324,0,0
133,-300,0,0,0,0,0,0,0,0,0,-1,1357,1324,0,0
140,-300,0,0,0,0,0,0,0,0,0,-1,1364,1324,0,0
147,-300,0,0,0,0,0,0,0,0,0,-1,1371,1324,0,0
154,-300,0,0,0,0,0,0,0,0,0,-1,1378,1324,0,0
161,-300,0,0,0,0,0,0,0,0,0,-1,1385,1324,0,0
168,-300,0,0,0,0,0,0,0,0,0,-1,1392,1324,0,0
175,-300,0,0,0,0,0,0,0,0,0,-1,1399,1324,0,0
182,-300,0,0,0,0,0,0,0,0,0,-1,1406,1324,0,0
189,-300,0,0,0,0,0,0,0,0,0,-1,1413,1324,0,0
196,-300,0,0,0,0,0,0,0,0,0,-1,1420,1324,0,0
203,-300,0,0,0,0,0,0,0,0,0,-1,1427,1324,0,0
210,-300,0,0,0,0,0,0,0,0,0,-1,1434,1324,0,0
217,-300,0,0,0,0,0,0,0,0,0,-1,1441,1324,0,0
224,-300,0,0,0,0,0,0,0,0,0,-1,1448,1324,0,0
231,-300,0,0,0,0,0,0,0,0,0,-1,1455,1324,0,0
238,-300,0,0,0,0,0,0,0,0,0,-1,1462,1324,0,0
245,-300,0,0,0,0,0,0,0,0,0,-1,1469,1324,0,0
252,-300,0,0,0,0,0,0,0,0,0,-1,1476,1324,0,0
259,-300,0,0,0,0,0,0,0,0,0,-1,1483,1324,0,0
266,-300,0,0,0,0,0,0,0,0,0,-1,1490,1324,0,0
273,-300,0,0,0,0,0,0,0,0,0,-1,1497,1324,0,0
280,-300,0,0,0,0,0,0,0,0,0,-1,1504,1324,0,0
287,-300,0,0,0,0,0,0,0,0,0,-1,1511,1324,0,0
294,-300,0,0,0,0,0,0,0,0,0,-1,1518,1324,0,0
301,-300,0,0,0,0,0,0,0,0,0,-1,1525,1324,0,0
308,-300,0,0,0,0,0,0,0,0,0,-1,1532,1324,0,0
315,-300,0,0,0,0,0,0,0,0,0,-1,1539,1324,0,0
322,-300,0,0,0,0,0,0,0,0,0,-1,1546,1324,0,0
329,-300,0,0,0,0,0,0,0,0,0,-1,1553,1324,0,0
336,-300,0,0,0,0,0,0,0,0,0,-1,1560,1324,0,0
343,-300,0,0,0,0,0,0,0,0,0,-1,1567,1324,0,0
350,-300,0,0,0,0,0,0,0,0,0,-1,1574,1324,0,0
357,-300,0,0,0,0,0,0,0,0,0,-1,1581,1324,0,0
364,-300,0,0,0,0,0,0,0,0,0,-1,1588,1324,0,0
371,-300,0,0,0,0,0,0,0,0,0,-1,1595,1324,0,0
378,-300,0,0,0,0,0,0,0,0,0,-1,1602,1324,0,0
385,-300,0,0,0,0,0,0,0,0,0,-1,1609,1324,0,0
392,-300,0,0,0,0,0,0,0,0,0,-1,1616,1324,0,0
399,-300,0,0,0,0,0,0,0,0,0,-1,1623,1324,0,0
406,-300,0,0,0,0,0,0,0,0,0,-1,1630,1324,0,0
413,-300,0,0,0,0,0,0,0,0,0,-1,1637,1324,0,0
420,-300,0,0,0,0,0,0,0,0,0,-1,1644,1324,0,0
427,-300,0,0,0,0,0,0,0,0,0,-1,1651,1324,0,0
434,-300,0,0,0,0,0,0,0,0,0,-1,1658,1324,0,0
441,-300,0,0,0,0,0,0,0,0,0,-1,1665,1324,0,0
448,-300,0,0,0,0,0,0,0,0,0,-1,1672,1324,0,0
455,-300,0,0,0,0,0,0,0,0,0,-1,1679,1324,0,0
462,-300,0,0,0,0,0,0,0,0,0,-1,1686,1324,0,0
469,-300,0,0,0,0,0,0,0,0,0,-1,1693,1324,0,0
476,-300,0,0,0,0,0,0,0,0,0,-1,1700,1324,0,0
483,-300,0,0,0,0,0,0,0,0,0,-1,1707,1324,0,0
490,-300,0,0,0,0,0,0,0,0,0,-1,1714,1324,0,0
497,-300,0,0,0,0,0,0,0,0,0,-1,1721,1324,0,0
504,-300,0,0,0,0,0,0,0,0,0,-1,1728,1324,0,0
511,-300,0,0,0,0,0,0,0,0,0,-1,1735,1324,0,0
518,-300,0,0,0,0,0,0,0,0,0,-1,1742,1324,0,0
525,-300,0,0,0,0,0,0,0,0,0,-1,1749,1324,0,0
532,-300,0,0,0,0,0,0,0,0,0,-1,1756,1324,0,0
539,-300,0,0,0,0,0,0,0,0,0,-1,1763,1324,0,0
546,-300,0,0,0,0,0,0,0,0,0,-1,1770,1324,0,0
553,-300,0,0,0,0,0,0,0,0,0,-1,1777,1324,0,0
560,-300,0,0,0,0,0,0,0,0,0,-1,1784,1324,0,0
567,-300,0,0,0,0,0,0,0,0,0,-1,1791,1324,0,0
574,-300,0,0,0,0,0,0,0,0,0,-1,1798,1324,0,0
581,-300,0,0,0,0,0,0,0,0,0,-1,1805,1324,0,0
588,-300,10.1604,1.90381,0,0,0,0,0,0,0,-1,1812,1324,10.1605,-1.90384
595,-300,10.1891,1.66602,0,0,0,0,0,0,0,-1,1819,1324,10.189,-1.666
602,-300,9.55249,0.869385,0,0,0,0,0,0,0,-1,1826,1324,9.55254,-0.869357
609,-300,9.58984,-0.095459,0,0,0,0,0,0,0,-1,1833,1324,9.58981,0.0954961
616,-300,10.0287,-2.90076,0,0,0,0,0,0,0,-1,1840,1324,10.0287,2.90075
623,-300,10.3834,-1.52332,0,0,0,0,0,0,0,-1,1847,1324,10.3834,1.52332
630,-300,10.7822,-0.153076,0.00301691,0.00494231,-0.0154103,0.01942,-0.0114607,-0.816593,0.0180253,0.0416846,1854,1324,10.7822,0.153088
637,-300,9.58789,1.76843,-0.00232856,0.00425622,-0.00779702,0.00942749,-0.00749982,-0.985173,0.00979408,0.0460217,1861,1324,9.58791,-1.76839
644,-300,9.51746,2.17847,-0.00663904,0.00317743,-0.00183099,0.00350782,-0.00696944,-1.39227,0.00615812,0.0487554,1868,1324,9.5175,-2.17851
651,-300,9.44116,2.74866,0,0,0,0,0,0,0,-1,1875,1324,9.44111,-2.7487
658,-300,7.81409,2.49414,-0.00318895,0.000166625,0.0102272,0.00885274,-0.0118751,0.8667,0.0120095,0.0381786,1882,1324,7.81408,-2.49419
665,-300,7.75317,2.43835,-0.00221668,-0.00111791,0.0118119,0.0101574,-0.013492,0.808637,0.0136991,0.0235159,1889,1324,7.75315,-2.43841
672,-300,7.74463,2.37744,-0.0020036,-0.00145828,0.00990915,0.00818195,-0.0116438,0.799153,0.0115044,0.01046,1896,1324,7.74464,-2.37746
679,-300,7.76807,2.27673,-0.00190404,-0.00170296,0.0071767,0.0053739,-0.00898091,0.792402,0.00837451,0.0114174,1903,1324,7.76804,-2.27668
686,-300,7.77759,2.20422,-0.00130711,-0.00174818,0.00451802,0.00299575,-0.00605104,0.761011,0.00532153,0.0116209,1910,1324,7.7776,-2.20422
693,-300,7.75757,2.13757,-0.00148488,-0.00125558,0.00200923,0.000642264,-0.00338272,0.813899,0.00249692,0.0101016,1917,1324,7.75755,-2.13755
700,-300,7.75122,2.0553,-0.00172125,5.47091e-05,0.000272801,9.56687e-05,-0.00176221,1.42176,0.00120796,0.0125917,1924,1324,7.75118,-2.0553
707,-300,7.77588,1.97351,-0.00215812,0.00172961,-0.000827088,0.00189825,-0.00232676,-1.36966,0.00244349,0.00898966,1931,1324,7.77589,-1.9735
714,-300,7.77881,1.90002,-0.00265842,0.00343753,-0.00219795,0.00414736,-0.00336825,-1.25842,0.00434691,0.0100595,1938,1324,7.77879,-1.90008
721,-300,7.77112,1.82458,-0.00372603,0.00628759,-0.00319393,0.00721958,-0.00465802,-1.28688,0.00691049,0.011795,1945,1324,7.77114,-1.8246
728,-300,7.77588,1.74939,-0.00548639,0.0117631,-0.00453884,0.0128845,-0.00660779,-1.32858,0.0114467,0.00966705,1952,1324,7.77587,-1.74943
735,-300,7.73389,1.6875,-0.00808119,0.016973,-0.00601021,0.0183401,-0.00944837,-1.34713,0.0163152,0.0143381,1959,1324,7.73387,-1.68754
742,-300,7.68835,1.57666,-0.0113009,0.0244164,-0.00787107,0.0260741,-0.0129585,-1.36323,0.0229556,0.0299987,1966,1324,7.68835,-1.57662
749,-300,7.5531,1.48462,-0.0150875,0.0342986,-0.0100611,0.0362696,-0.0170585,-1.37734,0.0314479,0.0436903,1973,1324,7.5531,-1.48461
756,-300,7.55505,1.70068,-0.0192775,0.047195,-0.0125577,0.0494883,-0.0215708,-1.39017,0.0420681,0.0481892,1980,1324,7.55511,-1.70068
763,-300,4.66199,-0.389282,0,0,0,0,0,0,0,-1,1987,1324,4.66197,0.389296
770,-300,5.37512,-1.33887,0,0,0,0,0,0,0,-1,1994,1324,5.37517,1.33885
777,-300,0,0,0,0,0,0,0,0,0,-1,2001,1324,0,0
784,-300,0,0,0,0,0,0,0,0,0,-1,2008,1324,0,0
791,-300,0,0,0,0,0,0,0,0,0,-1,2015,1324,0,0
798,-300,0,0,0,0,0,0,0,0,0,-1,2022,1324,0,0
805,-300,0,0,0,0,0,0,0,0,0,-1,2029,1324,0,0
812,-300,0,0,0,0,0,0,0,0,0,-1,2036,1324,0,0
-700,-307,0,0,0,0,0,0,0,0,0,-1,524,1331,0,0
-693,-307,0,0,0,0,0,0,0,0,0,-1,531,1331,0,0
-686,-307,0,0,0,0,0,0,0,0,0,-1,538,1331,0,0
-679,-307,0,0,0,0,0,0,0,0,0,-1,545,1331,0,0
-672,-307,0,0,0,0,0,0,0,0,0,-1,552,1331,0,0
-665,-307,0,0,0,0,0,0,0,0,0,-1,559,1331,0,0
-658,-307,0,0,0,0,0,0,0,0,0,-1,566,1331,0,0
-651,-307,-6.10828,-4.33105,0,0,0,0,0,0,0,-1,573,1331,-6.10826,4.3311
-644,-307,-5.46985,-3.61438,0,0,0,0,0,0,0,-1,580,1331,-5.46987,3.61442
-637,-307,-4.47119,-2.77734,0.171724,0.143907,0.0150992,0.178344,0.137286,0.413213,0.107847,0.0480692,587,1331,-4.47122,2.77738
-630,-307,-3.40173,-1.7948,0,0,0,0,0,0,0,-1,594,1331,-3.40175,1.79478
-623,-307,-2.46307,-0.862061,0.100193,0.0889981,0.0168065,0.11231,0.0768813,0.624652,0.0662979,0.0440247,601,1331,-2.4631,0.862064
-616,-307,-2.10699,-0.120361,0.0724786,0.0673765,0.0153578,0.0854958,0.0543593,0.703097,0.0499643,0.04358,608,1331,-2.10702,0.120342
-609,-307,-1.71637,0.569214,0.0505184,0.0496946,0.0132198,0.0633327,0.0368803,0.769824,0.03673,0.0444497,615,1331,-1.71638,-0.569256
-602,-307,-2.02484,0.854248,0.0339221,0.0357253,0.0108242,0.0456854,0.023962,0.826948,0.026387,0.0317986,622,1331,-2.02481,-0.854211
-595,-307,-2.05536,0.994629,0.021668,0.0245187,0.0088083,0.0320162,0.0141705,0.865612,0.0185251,0.0133689,629,1331,-2.05533,-0.994652
-588,-307,-2.0647,1.10962,0.0120226,0.0159601,0.00696262,0.021227,0.00675573,0.923183,0.0125223,0.0176988,636,1331,-2.06467,-1.10959
-581,-307,-2.06183,1.19434,0.00501228,0.0090548,0.00388826,0.0114158,0.0026513,1.02509,0.00689872,0.0151872,643,1331,-2.06183,-1.19435
-574,-307,-2.05994,1.28735,0.0029869,0.00510618,0.00200492,0.00631426,0.00177882,1.0285,0.00375956,0.0124956,650,1331,-2.05995,-1.28737
-567,-307,-2.06445,1.37231,0.00231197,0.00214253,0.000122773,0.00237642,0.00207809,0.483394,0.00149479,0.0119195,657,1331,-2.06446,-1.37226
-560,-307,-2.04944,1.46802,0.00209639,-0.000386269,-0.00189797,0.00312291,-0.0014128,-0.495797,0.00268002,0.0126767,664,1331,-2.04947,-1.46797
-553,-307,-2.04254,1.54199,0.00282275,-0.00194348,-0.00351065,0.00468273,-0.00380346,-0.487212,0.00490827,0.0105987,671,1331,-2.04255,-1.54198
-546,-307,-2.03308,1.61572,0.00426127,-0.00332763,-0.00519124,0.00689697,-0.00596333,-0.469805,0.00743142,0.00997081,678,1331,-2.03307,-1.61569
-539,-307,-2.03754,1.70447,0.0049209,-0.00361904,-0.00693468,0.00879479,-0.00749293,-0.509441,0.00941373,0.0107389,685,1331,-2.03752,-1.70444
-532,-307,-2.06342,1.76123,0.00541214,-0.00324526,-0.00874935,0.010845,-0.00867815,-0.555681,0.0112948,0.0184184,692,1331,-2.06344,-1.76126
-525,-307,-2.19635,1.81323,0.0055878,-0.00204712,-0.0114611,0.0138505,-0.0103098,-0.624637,0.0139988,0.0377095,699,1331,-2.19633,-1.81319
-518,-307,-2.3158,1.88635,0.00564958,-0.000210506,-0.0142058,0.0172244,-0.0117853,-0.683696,0.0168466,0.0443094,706,1331,-2.31577,-1.88637
-511,-307,-2.60846,2.09155,0,0,0,0,0,0,0,-1,713,1331,-2.60845,-2.09156
-504,-307,-3.52155,0.770508,0,0,0,0,0,0,0,-1,720,1331,-3.52154,-0.770543
-497,-307,-1.13397,0.538696,0,0,0,0,0,0,0,-1,727,1331,-1.134,-0.538689
-490,-307,-1.46509,0.736206,-0.00131171,0.0186851,-0.0300568,0.0403628,-0.0229894,-0.945966,0.037032,0.0466676,734,1331,-1.46507,-0.736171
-483,-307,-1.43896,0.779053,-0.00556235,0.0286949,-0.0376184,0.0529007,-0.0297682,-0.999035,0.0483478,0.0420561,741,1331,-1.43898,-0.779109
-476,-307,-1.28223,0.782715,-0.010875,0.0412977,-0.0494056,0.0710809,-0.0406582,-1.0283,0.0653048,0.0440139,748,1331,-1.28221,-0.782749
-469,-307,-1.25867,0.635254,-0.0221729,0.0667431,-0.0655745,0.10151,-0.0569394,-1.08329,0.0926791,0.0436295,755,1331,-1.25867,-0.635294
-462,-307,0,0,0,0,0,0,0,0,0,-1,762,1331,0,0
-455,-307,0,0,0,0,0,0,0,0,0,-1,769,1331,0,0
-448,-307,0,0,0,0,0,0,0,0,0,-1,776,1331,0,0
-441,-307,0,0,0,0,0,0,0,0,0,-1,783,1331,0,0
-434,-307,0,0,0,0,0,0,0,0,0,-1,790,1331,0,0
-427,-307,0,0,0,0,0,0,0,0,0,-1,797,1331,0,0
-420,-307,0,0,0,0,0,0,0,0,0,-1,804,1331,0,0
-413,-307,0,0,0,0,0,0,0,0,0,-1,811,1331,0,0
-406,-307,0,0,0,0,0,0,0,0,0,-1,818,1331,0,0
-399,-307,0,0,0,0,0,0,0,0,0,-1,825,1331,0,0
-392,-307,0,0,0,0,0,0,0,0,0,-1,832,1331,0,0
-385,-307,0,0,0,0,0,0,0,0,0,-1,839,1331,0,0
-378,-307,0,0,0,0,0,0,0,0,0,-1,846,1331,0,0
-371,-307,0,0,0,0,0,0,0,0,0,-1,853,1331,0,0
-364,-307,0,0,0,0,0,0,0,0,0,-1,860,1331,0,0
-357,-307,0,0,0,0,0,0,0,0,0,-1,867,1331,0,0
-350,-307,0,0,0,0,0,0,0,0,0,-1,874,1331,0,0
-343,-307,0,0,0,0,0,0,0,0,0,-1,881,1331,0,0
-336,-307,0,0,0,0,0,0,0,0,0,-1,888,1331,0,0
-329,-307,0,0,0,0,0,0,0,0,0,-1,895,1331,0,0
-322,-307,0,0,0,0,0,0,0,0,0,-1,902,1331,0,0
-315,-307,0,0,0,0,0,0,0,0,0,-1,909,1331,0,0
-308,-307,0,0,0,0,0,0,0,0,0,-1,916,1331,0,0
-301,-307,0,0,0,0,0,0,0,0,0,-1,923,1331,0,0
-294,-307,0,0,0,0,0,0,0,0,0,-1,930,1331,0,0
-287,-307,0,0,0,0,0,0,0,0,0,-1,937,1331,0,0
-280,-307,0,0,0,0,0,0,0,0,0,-1,944,1331,0,0
-273,-307,0,0,0,0,0,0,0,0,0,-1,951,1331,0,0
-266,-307,0,0,0,0,0,0,0,0,0,-1,958,1331,0,0
-259,-307,0,0,0,0,0,0,0,0,0,-1,965,1331,0,0
-252,-307,0,0,0,0,0,0,0,0,0,-1,972,1331,0,0
-245,-307,0,0,0,0,0,0,0,0,0,-1,979,1331,0,0
-238,-307,0,0,0,0,0,0,0,0,0,-1,986,1331,0,0
-231,-307,0,0,0,0,0,0,0,0,0,-1,993,1331,0,0
-224,-307,0,0,0,0,0,0,0,0,0,-1,1000,1331,0,0
-217,-307,0,0,0,0,0,0,0,0,0,-1,1007,1331,0,0
-210,-307,0,0,0,0,0,0,0,0,0,-1,1014,1331,0,0
-203,-307,0,0,0,0,0,0,0,0,0,-1,1021,1331,0,0
-196,-307,0,0,0,0,0,0,0,0,0,-1,1028,1331,0,0
-189,-307,0,0,0,0,0,0,0,0,0,-1,1035,1331,0,0
-182,-307,0,0,0,0,0,0,0,0,0,-1,1042,1331,0,0
-175,-307,0,0,0,0,0,0,0,0,0,-1,1049,1331,0,0
-168,-307,0,0,0,0,0,0,0,0,0,-1,1056,1331,0,0
-161,-307,0,0,0,0,0,0,0,0,0,-1,1063,1331,0,0
-154,-307,0,0,0,0,0,0,0,0,0,-1,1070,1331,0,0
-147,-307,0,0,0,0,0,0,0,0,0,-1,1077,1331,0,0
-140,-307,0,0,0,0,0,0,0,0,0,-1,1084,1331,0,0
-133,-307,0,0,0,0,0,0,0,0,0,-1,1091,1331,0,0
-126,-307,0,0,0,0,0,0,0,0,0,-1,1098,1331,0,0
-119,-307,0,0,0,0,0,0,0,0,0,-1,1105,1331,0,0
-112,-307,0,0,0,0,0,0,0,0,0,-1,1112,1331,0,0
-105,-307,0,0,0,0,0,0,0,0,0,-1,1119,1331,0,0
-98,-307,0,0,0,0,0,0,0,0,0,-1,1126,1331,0,0
-91,-307,0,0,0,0,0,0,0,0,0,-1,1133,1331,0,0
-84,-307,0,0,0,0,0,0,0,0,0,-1,1140,1331,0,0
-77,-307,0,0,0,0,0,0,0,0,0,-1,1147,1331,0,0
-70,-307,0,0,0,0,0,0,0,0,0,-1,1154,1331,0,0
-63,-307,0,0,0,0,0,0,0,0,0,-1,1161,1331,0,0
-56,-307,0,0,0,0,0,0,0,0,0,-1,1168,1331,0,0
-49,-307,0,0,0,0,0,0,0,0,0,-1,1175,1331,0,0
-42,-307,0,0,0,0,0,0,0,0,0,-1,1182,1331,0,0
-35,-307,0,0,0,0,0,0,0,0,0,-1,1189,1331,0,0
-28,-307,0,0,0,0,0,0,0,0,0,-1,1196,1331,0,0
-21,-307,0,0,0,0,0,0,0,0,0,-1,1203,1331,0,0
-14,-307,0,0,0,0,0,0,0,0,0,-1,1210,1331,0,0
-7,-307,0,0,0,0,0,0,0,0,0,-1,1217,1331,0,0
0,-307,0,0,0,0,0,0,0,0,0,-1,1224,1331,0,0
7,-307,0,0,0,0,0,0,0,0,0,-1,1231,1331,0,0
14,-307,0,0,0,0,0,0,0,0,0,-1,1238,1331,0,0
21,-307,0,0,0,0,0,0,0,0,0,-1,1245,1331,0,0
28,-307,0,0,0,0,0,0,0,0,0,-1,1252,1331,0,0
35,-307,0,0,0,0,0,0,0,0,0,-1,1259,1331,0,0
42,-307,0,0,0,0,0,0,0,0,0,-1,1266,1331,0,0
49,-307,0,0,0,0,0,0,0,0,0,-1,1273,1331,0,0
56,-307,0,0,0,0,0,0,0,0,0,-1,1280,1331,0,0
63,-307,0,0,0,0,0,0,0,0,0,-1,1287,1331,0,0
70,-307,0,0,0,0,0,0,0,0,0,-1,1294,1331,0,0
77,-307,0,0,0,0,0,0,0,0,0,-1,1301,1331,0,0
84,-307,0,0,0,0,0,0,0,0,0,-1,1308,1331,0,0
91,-307,0,0,0,0,0,0,0,0,0,-1,1315,1331,0,0
98,-307,0,0,0,0,0,0,0,0,0,-1,1322,1331,0,0
105,-307,0,0,0,0,0,0,0,0,0,-1,1329,1331,0,0
112,-307,0,0,0,0,0,0,0,0,0,-1,1336,1331,0,0
119,-307,0,0,0,0,0,0,0,0,0,-1,1343,1331,0,0
126,-307,0,0,0,0,0,0,0,0,0,-1,1350,1331,0,0
133,-307,0,0,0,0,0,0,0,0,0,-1,1357,1331,0,0
140,-307,0,0,0,0,0,0,0,0,0,-1,1364,1331,0,0
147,-307,0,0,0,0,0,0,0,0,0,-1,1371,1331,0,0
154,-307,0,0,0,0,0,0,0,0,0,-1,1378,1331,0,0
161,-307,0,0,0,0,0,0,0,0,0,-1,1385,1331,0,0
168,-307,0,0,0,0,0,0,0,0,0,-1,1392,1331,0,0
175,-307,0,0,0,0,0,0,0,0,0,-1,1399,1331,0,0
182,-307,0,0,0,0,0,0,0,0,0,-1,1406,1331,0,0
189,-307,0,0,0,0,0,0,0,0,0,-1,1413,1331,0,0
196,-307,0,0,0,0,0,0,0,0,0,-1,1420,1331,0,0
203,-307,0,0,0,0,0,0,0,0,0,-1,1427,1331,0,0
210,-307,0,0,0,0,0,0,0,0,0,-1,1434,1331,0,0
217,-307,0,0,0,0,0,0,0,0,0,-1,1441,1331,0,0
224,-307,0,0,0,0,0,0,0,0,0,-1,1448,1331,0,0
231,-307,0,0,0,0,0,0,0,0,0,-1,1455,1331,0,0
238,-307,0,0,0,0,0,0,0,0,0,-1,1462,1331,0,0
245,-307,0,0,0,0,0,0,0,0,0,-1,1469,1331,0,0
252,-307,0,0,0,0,0,0,0,0,0,-1,1476,1331,0,0
259,-307,0,0,0,0,0,0,0,0,0,-1,1483,1331,0,0
266,-307,0,0,0,0,0,0,0,0,0,-1,1490,1331,0,0
273,-307,0,0,0,0,0,0,0,0,0,-1,1497,1331,0,0
280,-307,0,0,0,0,0,0,0,0,0,-1,1504,1331,0,0
287,-307,0,0,0,0,0,0,0,0,0,-1,1511,1331,0,0
294,-307,0,0,0,0,0,0,0,0,0,-1,1518,1331,0,0
301,-307,0,0,0,0,0,0,0,0,0,-1,1525,1331,0,0
308,-307,0,0,0,0,0,0,0,0,0,-1,1532,1331,0,0
315,-307,0,0,0,0,0,0,0,0,0,-1,1539,1331,0,0
322,-307,0,0,0,0,0,0,0,0,0,-1,1546,1331,0,0
329,-307,0,0,0,0,0,0,0,0,0,-1,1553,1331,0,0
336,-307,0,0,0,0,0,0,0,0,0,-1,1560,1331,0,0
343,-307,0,0,0,0,0,0,0,0,0,-1,1567,1331,0,0
350,-307,0,0,0,0,0,0,0,0,0,-1,1574,1331,0,0
357,-307,0,0,0,0,0,0,0,0,0,-1,1581,1331,0,0
364,-307,0,0,0,0,0,0,0,0,0,-1,1588,1331,0,0
371,-307,0,0,0,0,0,0,0,0,0,-1,1595,1331,0,0
378,-307,0,0,0,0,0,0,0,0,0,-1,1602,1331,0,0
385,-307,0,0,0,0,0,0,0,0,0,-1,1609,1331,0,0
392,-307,0,0,0,0,0,0,0,0,0,-1,1616,1331,0,0
399,-307,0,0,0,0,0,0,0,0,0,-1,1623,1331,0,0
406,-307,0,0,0,0,0,0,0,0,0,-1,1630,1331,0,0
413,-307,0,0,0,0,0,0,0,0,0,-1,1637,1331,0,0
420,-307,0,0,0,0,0,0,0,0,0,-1,1644,1331,0,0
427,-307,0,0,0,0,0,0,0,0,0,-1,1651,1331,0,0
434,-307,0,0,0,0,0,0,0,0,0,-1,1658,1331,0,0
441,-307,0,0,0,0,0,0,0,0,0,-1,1665,1331,0,0
448,-307,0,0,0,0,0,0,0,0,0,-1,1672,1331,0,0
455,-307,0,0,0,0,0,0,0,0,0,-1,1679,1331,0,0
462,-307,0,0,0,0,0,0,0,0,0,-1,1686,1331,0,0
469,-307,0,0,0,0,0,0,0,0,0,-1,1693,1331,0,0
476,-307,0,0,0,0,0,0,0,0,0,-1,1700,1331,0,0
483,-307,0,0,0,0,0,0,0,0,0,-1,1707,1331,0,0
490,-307,0,0,0,0,0,0,0,0,0,-1,1714,1331,0,0
497,-307,0,0,0,0,0,0,0,0,0,-1,1721,1331,0,0
504,-307,0,0,0,0,0,0,0,0,0,-1,1728,1331,0,0
511,-307,0,0,0,0,0,0,0,0,0,-1,1735,1331,0,0
518,-307,0,0,0,0,0,0,0,0,0,-1,1742,1331,0,0
525,-307,0,0,0,0,0,0,0,0,0,-1,1749,1331,0,0
532,-307,0,0,0,0,0,0,0,0,0,-1,1756,1331,0,0
539,-307,0,0,0,0,0,0,0,0,0,-1,1763,1331,0,0
546,-307,0,0,0,0,0,0,0,0,0,-1,1770,1331,0,0
553,-307,0,0,0,0,0,0,0,0,0,-1,1777,1331,0,0
560,-307,0,0,0,0,0,0,0,0,0,-1,1784,1331,0,0
567,-307,0,0,0,0,0,0,0,0,0,-1,1791,1331,0,0
574,-307,0,0,0,0,0,0,0,0,0,-1,1798,1331,0,0
581,-307,0,0,0,0,0,0,0,0,0,-1,1805,1331,0,0
588,-307,13.2086,2.85193,0,0,0,0,0,0,0,-1,1812,1331,13.2086,-2.85189
595,-307,15.2802,3.97278,0,0,0,0,0,0,0,-1,1819,1331,15.2802,-3.97279
602,-307,10.1039,0.853027,0.0493448,0.00856867,-0.0473925,0.0805486,-0.0226352,-0.582266,0.0626229,0.0463063,1826,1331,10.1039,-0.852982
609,-307,9.89417,-0.269043,0.0327464,0.00801791,-0.0422136,0.0643692,-0.0236049,-0.642934,0.052578,0.0456399,1833,1331,9.89416,0.269103
616,-307,9.72961,-1.45276,0.0203807,0.00723942,-0.0345592,0.0489883,-0.0213682,-0.691456,0.0416507,0.0475867,1840,1331,9.72962,1.45275
623,-307,10.5751,-1.87219,0,0,0,0,0,0,0,-1,1847,1331,10.5751,1.87223
630,-307,10.9503,-0.461548,0,0,0,0,0,0,0,-1,1854,1331,10.9503,0.461536
637,-307,7.65967,2.72363,-0.00221462,0.00415276,-0.010444,0.0118875,-0.00994935,-0.933342,0.0126241,0.0469155,1861,1331,7.65964,-2.72364
644,-307,9.20056,2.2749,-0.00778552,0.00320706,-0.00465754,0.00491507,-0.00949353,-1.21931,0.00845764,0.0428174,1868,1331,9.20055,-2.27485
651,-307,7.55554,2.47449,-0.0055858,0.00175601,0.00201735,0.00227381,-0.0061036,1.31955,0.00500233,0.042505,1875,1331,7.55555,-2.47447
658,-307,7.68188,2.49158,-0.00332919,0.000408272,0.00927257,0.00799855,-0.0109195,0.884833,0.0109656,0.0348013,1882,1331,7.68191,-2.49162
665,-307,7.67346,2.44019,-0.00201672,-0.000790208,0.0112666,0.00987982,-0.0126868,0.812587,0.0130624,0.0135132,1889,1331,7.67344,-2.44022
672,-307,7.69946,2.37573,-0.00162708,-0.00111291,0.00933766,0.00797121,-0.0107112,0.799161,0.0108249,0.00875245,1896,1331,7.69948,-2.37573
679,-307,7.69788,2.29553,-0.00139274,-0.00134995,0.00658306,0.00521175,-0.00795444,0.787023,0.00765629,0.010103,1903,1331,7.69791,-2.29555
686,-307,7.69165,2.20947,-0.000738575,-0.0014081,0.0039619,0.00290268,-0.00504936,0.743251,0.00464654,0.00953983,1910,1331,7.69167,-2.20951
693,-307,7.67896,2.1366,-0.000845568,-0.00102769,0.00151468,0.00058079,-0.00245405,0.755375,0.0018601,0.0105113,1917,1331,7.679,-2.13655
700,-307,7.69214,2.04712,-0.0012166,0.000231646,-0.00020317,0.000259608,-0.00124457,-1.43403,0.000928425,0.0117,1924,1331,7.69218,-2.04707
707,-307,7.70227,1.95581,-0.001984,0.00183971,-0.00142826,0.00231429,-0.00245859,-1.24999,0.00275605,0.0127973,1931,1331,7.70231,-1.95585
714,-307,7.70618,1.89856,-0.00283698,0.00343641,-0.00295478,0.00460896,-0.00400952,-1.19302,0.00497989,0.0120322,1938,1331,7.7062,-1.89855
721,-307,7.70862,1.84167,-0.00437373,0.0061382,-0.00430937,0.00767899,-0.00591452,-1.22742,0.00787022,0.0139154,1945,1331,7.7086,-1.84166
728,-307,7.69983,1.81274,-0.00675684,0.0113191,-0.00612261,0.0131976,-0.00863544,-1.27309,0.0126967,0.0164305,1952,1331,7.69986,-1.81278
735,-307,7.65784,1.69128,-0.0102493,0.0165661,-0.00826991,0.0189114,-0.0125946,-1.29445,0.0183115,0.0275388,1959,1331,7.65788,-1.69122
742,-307,7.57239,1.18787,-0.0147078,0.0238802,-0.0109549,0.0267733,-0.0176009,-1.3126,0.0258013,0.0387774,1966,1331,7.57238,-1.18791
749,-307,7.16626,0.602539,-0.0200676,0.0336584,-0.0141583,0.0371611,-0.0235703,-1.32827,0.0353548,0.0426038,1973,1331,7.1663,-0.602578
756,-307,6.9021,0.315796,-0.0261294,0.0465831,-0.0178627,0.0507343,-0.0302805,-1.34246,0.0472682,0.0469473,1980,1331,6.90204,-0.315844
763,-307,6.94348,-0.153809,-0.0325627,0.0636063,-0.0220004,0.0684003,-0.0373567,-1.35624,0.0619295,0.0481863,1987,1331,6.94348,0.153765
770,-307,0,0,0,0,0,0,0,0,0,-1,1994,1331,0,0
777,-307,0,0,0,0,0,0,0,0,0,-1,2001,1331,0,0
784,-307,0,0,0,0,0,0,0,0,0,-1,2008,1331,0,0
791,-307,0,0,0,0,0,0,0,0,0,-1,2015,1331,0,0
798,-307,0,0,0,0,0,0,0,0,0,-1,2022,1331,0,0
805,-307,0,0,0,0,0,0,0,0,0,-1,2029,1331,0,0
812,-307,0,0,0,0,0,0,0,0,0,-1,2036,1331,0,0
-700,-314,0,0,0,0,0,0,0,0,0,-1,524,1338,0,0
-693,-314,0,0,0,0,0,0,0,0,0,-1,531,1338,0,0
-686,-314,0,0,0,0,0,0,0,0,0,-1,538,1338,0,0
-679,-314,0,0,0,0,0,0,0,0,0,-1,545,1338,0,0
-672,-314,0,0,0,0,0,0,0,0,0,-1,552,1338,0,0
-665,-314,0,0,0,0,0,0,0,0,0,-1,559,1338,0,0
-658,-314,0,0,0,0,0,0,0,0,0,-1,566,1338,0,0
-651,-314,0,0,0,0,0,0,0,0,0,-1,573,1338,0,0
-644,-314,-4.43451,-4.45374,0,0,0,0,0,0,0,-1,580,1338,-4.43453,4.4537
-637,-314,-3.52545,-3.85388,0,0,0,0,0,0,0,-1,587,1338,-3.52547,3.85384
-630,-314,-2.69812,-2.13806,0,0,0,0,0,0,0,-1,594,1338,-2.69811,2.13808
-623,-314,-2.11053,-1.6178,0,0,0,0,0,0,0,-1,601,1338,-2.11054,1.61786
-616,-314,-1.96075,-0.540527,0,0,0,0,0,0,0,-1,608,1338,-1.96076,0.54055
-609,-314,-1.57147,0.708496,0.0468043,0.054038,0.0142998,0.0651712,0.0356711,0.909266,0.0376828,0.0483441,615,1338,-1.57146,-0.708499
-602,-314,-1.77356,0.818115,0.0316573,0.0392922,0.0117999,0.0478768,0.0230727,0.941843,0.0276477,0.038868,622,1338,-1.77354,-0.818139
-595,-314,-1.89722,0.967896,0.0204025,0.0274539,0.00959893,0.0341542,0.0137023,0.9614,0.0198468,0.0219156,629,1338,-1.89721,-0.96793
-588,-314,-1.97009,1.10657,0.0115814,0.0184438,0.00760985,0.0233602,0.00666498,0.997195,0.0138953,0.0125898,636,1338,-1.97009,-1.10657
-581,-314,-1.96265,1.1875,0.00490784,0.0111258,0.00483778,0.0137675,0.00226618,1.07099,0.00852393,0.0117109,643,1338,-1.96264,-1.18747
-574,-314,-1.97504,1.25793,0.0026959,0.00680593,0.00300564,0.00839193,0.0011099,1.08526,0.0052638,0.0114196,650,1338,-1.97503,-1.25789
-567,-314,-1.96735,1.34851,0.00160754,0.00362405,0.00126475,0.00423326,0.000998334,1.12191,0.00255525,0.0124374,657,1338,-1.96735,-1.34848
-560,-314,-1.94934,1.4397,0.000961944,0.00083155,-0.000548659,0.00144927,0.000344228,-0.726261,0.000874322,0.0133913,664,1338,-1.94934,-1.43966
-553,-314,-1.98315,1.51465,0.00124916,-0.000813953,-0.00199498,0.0024635,-0.00202829,-0.546791,0.00259739,0.0167313,671,1338,-1.98316,-1.51461
-546,-314,-2.01532,1.60876,0.00227181,-0.00230033,-0.00347937,0.00414893,-0.00417745,-0.494746,0.00480725,0.0169987,678,1338,-2.01532,-1.60876
-539,-314,-1.99268,1.71753,0.00287799,-0.00274008,-0.0051489,0.00593427,-0.00579636,-0.535684,0.00677284,0.0153691,685,1338,-1.99268,-1.71757
-532,-314,-1.94122,1.79578,0.00336213,-0.00247076,-0.00693472,0.00796872,-0.00707735,-0.586347,0.00869193,0.0174267,692,1338,-1.94124,-1.79581
-525,-314,-2.06171,1.87732,0.0036978,-0.00152224,-0.00969359,0.0111266,-0.00895104,-0.653891,0.0116145,0.0306152,699,1338,-2.06168,-1.87731
-518,-314,-2.25629,2.05115,0.00406894,6.48499e-05,-0.0126588,0.0148831,-0.0107493,-0.706971,0.0148628,0.0425536,706,1338,-2.25627,-2.0511
-511,-314,-2.43921,2.14844,0,0,0,0,0,0,0,-1,713,1338,-2.43921,-2.14838
-504,-314,-2.38824,2.32861,0,0,0,0,0,0,0,-1,720,1338,-2.38822,-2.32864
-497,-314,-0.53302,0.267334,0,0,0,0,0,0,0,-1,727,1338,-0.533031,-0.26735
-490,-314,-0.968384,0.59021,0.000217904,0.01808,-0.0302223,0.0406633,-0.0223653,-0.929065,0.0368972,0.0447549,734,1338,-0.968362,-0.590202
-483,-314,-1.38428,0.884155,-0.00299251,0.0283942,-0.0377764,0.0536073,-0.0282056,-0.982265,0.0479877,0.0457166,741,1338,-1.38425,-0.884178
-476,-314,-1.79407,1.14746,0,0,0,0,0,0,0,-1,748,1338,-1.79409,-1.14742
-469,-314,-0.244873,0.144409,0,0,0,0,0,0,0,-1,755,1338,-0.244882,-0.144469
-462,-314,0,0,0,0,0,0,0,0,0,-1,762,1338,0,0
-455,-314,0,0,0,0,0,0,0,0,0,-1,769,1338,0,0
-448,-314,0,0,0,0,0,0,0,0,0,-1,776,1338,0,0
-441,-314,0,0,0,0,0,0,0,0,0,-1,783,1338,0,0
-434,-314,0,0,0,0,0,0,0,0,0,-1,790,1338,0,0
-427,-314,0,0,0,0,0,0,0,0,0,-1,797,1338,0,0
-420,-314,0,0,0,0,0,0,0,0,0,-1,804,1338,0,0
-413,-314,0,0,0,0,0,0,0,0,0,-1,811,1338,0,0
-406,-314,0,0,0,0,0,0,0,0,0,-1,818,1338,0,0
-399,-314,0,0,0,0,0,0,0,0,0,-1,825,1338,0,0
-392,-314,0,0,0,0,0,0,0,0,0,-1,832,1338,0,0
-385,-314,0,0,0,0,0,0,0,0,0,-1,839,1338,0,0
-378,-314,0,0,0,0,0,0,0,0,0,-1,846,1338,0,0
-371,-314,0,0,0,0,0,0,0,0,0,-1,853,1338,0,0
-364,-314,0,0,0,0,0,0,0,0,0,-1,860,1338,0,0
-357,-314,0,0,0,0,0,0,0,0,0,-1,867,1338,0,0
-350,-314,0,0,0,0,0,0,0,0,0,-1,874,1338,0,0
-343,-314,0,0,0,0,0,0,0,0,0,-1,881,1338,0,0
-336,-314,0,0,0,0,0,0,0,0,0,-1,888,1338,0,0
-329,-314,0,0,0,0,0,0,0,0,0,-1,895,1338,0,0
-322,-314,0,0,0,0,0,0,0,0,0,-1,902,1338,0,0
-315,-314,0,0,0,0,0,0,0,0,0,-1,909,1338,0,0
-308,-314,0,0,0,0,0,0,0,0,0,-1,916,1338,0,0
-301,-314,0,0,0,0,0,0,0,0,0,-1,923,1338,0,0
-294,-314,0,0,0,0,0,0,0,0,0,-1,930,1338,0,0
-287,-314,0,0,0,0,0,0,0,0,0,-1,937,1338,0,0
-280,-314,0,0,0,0,0,0,0,0,0,-1,944,1338,0,0
-273,-314,0,0,0,0,0,0,0,0,0,-1,951,1338,0,0
-266,-314,0,0,0,0,0,0,0,0,0,-1,958,1338,0,0
-259,-314,0,0,0,0,0,0,0,0,0,-1,965,1338,0,0
-252,-314,0,0,0,0,0,0,0,0,0,-1,972,1338,0,0
-245,-314,0,0,0,0,0,0,0,0,0,-1,979,1338,0,0
-238,-314,0,0,0,0,0,0,0,0,0,-1,986,1338,0,0
-231,-314,0,0,0,0,0,0,0,0,0,-1,993,1338,0,0
-224,-314,0,0,0,0,0,0,0,0,0,-1,1000,1338,0,0
-217,-314,0,0,0,0,0,0,0,0,0,-1,1007,1338,0,0
-210,-314,0,0,0,0,0,0,0,0,0,-1,1014,1338,0,0
-203,-314,0,0,0,0,0,0,0,0,0,-1,1021,1338,0,0
-196,-314,0,0,0,0,0,0,0,0,0,-1,1028,1338,0,0
-189,-314,0,0,0,0,0,0,0,0,0,-1,1035,1338,0,0
-182,-314,0,0,0,0,0,0,0,0,0,-1,1042,1338,0,0
-175,-314,0,0,0,0,0,0,0,0,0,-1,1049,1338,0,0
-168,-314,0,0,0,0,0,0,0,0,0,-1,1056,1338,0,0
-161,-314,0,0,0,0,0,0,0,0,0,-1,1063,1338,0,0
-154,-314,0,0,0,0,0,0,0,0,0,-1,1070,1338,0,0
-147,-314,0,0,0,0,0,0,0,0,0,-1,1077,1338,0,0
-140,-314,0,0,0,0,0,0,0,0,0,-1,1084,1338,0,0
-133,-314,0,0,0,0,0,0,0,0,0,-1,1091,1338,0,0
-126,-314,0,0,0,0,0,0,0,0,0,-1,1098,1338,0,0
-119,-314,0,0,0,0,0,0,0,0,0,-1,1105,1338,0,0
-112,-314,0,0,0,0,0,0,0,0,0,-1,1112,1338,0,0
-105,-314,0,0,0,0,0,0,0,0,0,-1,1119,1338,0,0
-98,-314,0,0,0,0,0,0,0,0,0,-1,1126,1338,0,0
-91,-314,0,0,0,0,0,0,0,0,0,-1,1133,1338,0,0
-84,-314,0,0,0,0,0,0,0,0,0,-1,1140,1338,0,0
-77,-314,0,0,0,0,0,0,0,0,0,-1,1147,1338,0,0
-70,-314,0,0,0,0,0,0,0,0,0,-1,1154,1338,0,0
-63,-314,0,0,0,0,0,0,0,0,0,-1,1161,1338,0,0
-56,-314,0,0,0,0,0,0,0,0,0,-1,1168,1338,0,0
-49,-314,0,0,0,0,0,0,0,0,0,-1,1175,1338,0,0
-42,-314,0,0,0,0,0,0,0,0,0,-1,1182,1338,0,0
-35,-314,0,0,0,0,0,0,0,0,0,-1,1189,1338,0,0
-28,-314,0,0,0,0,0,0,0,0,0,-1,1196,1338,0,0
-21,-314,0,0,0,0,0,0,0,0,0,-1,1203,1338,0,0
-14,-314,0,0,0,0,0,0,0,0,0,-1,1210,1338,0,0
-7,-314,0,0,0,0,0,0,0,0,0,-1,1217,1338,0,0
0,-314,0,0,0,0,0,0,0,0,0,-1,1224,1338,0,0
7,-314,0,0,0,0,0,0,0,0,0,-1,1231,1338,0,0
14,-314,0,0,0,0,0,0,0,0,0,-1,1238,1338,0,0
21,-314,0,0,0,0,0,0,0,0,0,-1,1245,1338,0,0
28,-314,0,0,0,0,0,0,0,0,0,-1,1252,1338,0,0
35,-314,0,0,0,0,0,0,0,0,0,-1,1259,1338,0,0
42,-314,0,0,0,0,0,0,0,0,0,-1,1266,1338,0,0
49,-314,0,0,0,0,0,0,0,0,0,-1,1273,1338,0,0
56,-314,0,0,0,0,0,0,0,0,0,-1,1280,1338,0,0
63,-314,0,0,0,0,0,0,0,0,0,-1,1287,1338,0,0
70,-314,0,0,0,0,0,0,0,0,0,-1,1294,1338,0,0
77,-314,0,0,0,0,0,0,0,0,0,-1,1301,1338,0,0
84,-314,0,0,0,0,0,0,0,0,0,-1,1308,1338,0,0
91,-314,0,0,0,0,0,0,0,0,0,-1,1315,1338,0,0
98,-314,0,0,0,0,0,0,0,0,0,-1,1322,1338,0,0
105,-314,0,0,0,0,0,0,0,0,0,-1,1329,1338,0,0
112,-314,0,0,0,0,0,0,0,0,0,-1,1336,1338,0,0
119,-314,0,0,0,0,0,0,0,0,0,-1,1343,1338,0,0
126,-314,0,0,0,0,0,0,0,0,0,-1,1350,1338,0,0
133,-314,0,0,0,0,0,0,0,0,0,-1,1357,1338,0,0
140,-314,0,0,0,0,0,0,0,0,0,-1,1364,1338,0,0
147,-314,0,0,0,0,0,0,0,0,0,-1,1371,1338,0,0
154,-314,0,0,0,0,0,0,0,0,0,-1,1378,1338,0,0
161,-314,0,0,0,0,0,0,0,0,0,-1,1385,1338,0,0
168,-314,0,0,0,0,0,0,0,0,0,-1,1392,1338,0,0
175,-314,0,0,0,0,0,0,0,0,0,-1,1399,1338,0,0
182,-314,0,0,0,0,0,0,0,0,0,-1,1406,1338,0,0
189,-314,0,0,0,0,0,0,0,0,0,-1,1413,1338,0,0
196,-314,0,0,0,0,0,0,0,0,0,-1,1420,1338,0,0
203,-314,0,0,0,0,0,0,0,0,0,-1,1427,1338,0,0
210,-314,0,0,0,0,0,0,0,0,0,-1,1434,1338,0,0
217,-314,0,0,0,0,0,0,0,0,0,-1,1441,1338,0,0
224,-314,0,0,0,0,0,0,0,0,0,-1,1448,1338,0,0
231,-314,0,0,0,0,0,0,0,0,0,-1,1455,1338,0,0
238,-314,0,0,0,0,0,0,0,0,0,-1,1462,1338,0,0
245,-314,0,0,0,0,0,0,0,0,0,-1,1469,1338,0,0
252,-314,0,0,0,0,0,0,0,0,0,-1,1476,1338,0,0
259,-314,0,0,0,0,0,0,0,0,0,-1,1483,1338,0,0
266,-314,0,0,0,0,0,0,0,0,0,-1,1490,1338,0,0
273,-314,0,0,0,0,0,0,0,0,0,-1,1497,1338,0,0
280,-314,0,0,0,0,0,0,0,0,0,-1,1504,1338,0,0
287,-314,0,0,0,0,0,0,0,0,0,-1,1511,1338,0,0
294,-314,0,0,0,0,0,0,0,0,0,-1,1518,1338,0,0
301,-314,0,0,0,0,0,0,0,0,0,-1,1525,1338,0,0
308,-314,0,0,0,0,0,0,0,0,0,-1,1532,1338,0,0
315,-314,0,0,0,0,0,0,0,0,0,-1,1539,1338,0,0
322,-314,0,0,0,0,0,0,0,0,0,-1,1546,1338,0,0
329,-314,0,0,0,0,0,0,0,0,0,-1,1553,1338,0,0
336,-314,0,0,0,0,0,0,0,0,0,-1,1560,1338,0,0
343,-314,0,0,0,0,0,0,0,0,0,-1,1567,1338,0,0
350,-314,0,0,0,0,0,0,0,0,0,-1,1574,1338,0,0
357,-314,0,0,0,0,0,0,0,0,0,-1,1581,1338,0,0
364,-314,0,0,0,0,0,0,0,0,0,-1,1588,1338,0,0
371,-314,0,0,0,0,0,0,0,0,0,-1,1595,1338,0,0
378,-314,0,0,0,0,0,0,0,0,0,-1,1602,1338,0,0
385,-314,0,0,0,0,0,0,0,0,0,-1,1609,1338,0,0
392,-314,0,0,0,0,0,0,0,0,0,-1,1616,1338,0,0
399,-314,0,0,0,0,0,0,0,0,0,-1,1623,1338,0,0
406,-314,0,0,0,0,0,0,0,0,0,-1,1630,1338,0,0
413,-314,0,0,0,0,0,0,0,0,0,-1,1637,1338,0,0
420,-314,0,0,0,0,0,0,0,0,0,-1,1644,1338,0,0
427,-314,0,0,0,0,0,0,0,0,0,-1,1651,1338,0,0
434,-314,0,0,0,0,0,0,0,0,0,-1,1658,1338,0,0
441,-314,0,0,0,0,0,0,0,0,0,-1,1665,1338,0,0
448,-314,0,0,0,0,0,0,0,0,0,-1,1672,1338,0,0
455,-314,0,0,0,0,0,0,0,0,0,-1,1679,1338,0,0
462,-314,0,0,0,0,0,0,0,0,0,-1,1686,1338,0,0
469,-314,0,0,0,0,0,0,0,0,0,-1,1693,1338,0,0
476,-314,0,0,0,0,0,0,0,0,0,-1,1700,1338,0,0
483,-314,0,0,0,0,0,0,0,0,0,-1,1707,1338,0,0
490,-314,0,0,0,0,0,0,0,0,0,-1,1714,1338,0,0
497,-314,0,0,0,0,0,0,0,0,0,-1,1721,1338,0,0
504,-314,0,0,0,0,0,0,0,0,0,-1,1728,1338,0,0
511,-314,0,0,0,0,0,0,0,0,0,-1,1735,1338,0,0
518,-314,0,0,0,0,0,0,0,0,0,-1,1742,1338,0,0
525,-314,0,0,0,0,0,0,0,0,0,-1,1749,1338,0,0
532,-314,0,0,0,0,0,0,0,0,0,-1,1756,1338,0,0
539,-314,0,0,0,0,0,0,0,0,0,-1,1763,1338,0,0
546,-314,0,0,0,0,0,0,0,0,0,-1,1770,1338,0,0
553,-314,0,0,0,0,0,0,0,0,0,-1,1777,1338,0,0
560,-314,0,0,0,0,0,0,0,0,0,-1,1784,1338,0,0
567,-314,0,0,0,0,0,0,0,0,0,-1,1791,1338,0,0
574,-314,0,0,0,0,0,0,0,0,0,-1,1798,1338,0,0
581,-314,11.2035,2.6615,0,0,0,0,0,0,0,-1,1805,1338,11.2035,-2.66156
588,-314,12.9089,3.17761,0.107531,0.0100061,-0.035173,0.118893,-0.00135558,-0.312443,0.0797178,0.0475217,1812,1338,12.909,-3.17767
595,-314,15.0178,4.32031,0,0,0,0,0,0,0,-1,1819,1338,15.0178,-4.32036
602,-314,17.0334,5.38757,0.0507281,0.00912238,-0.0430287,0.0777188,-0.0178684,-0.560232,0.0586826,0.0468538,1826,1338,17.0334,-5.38754
609,-314,10.5198,-0.453369,0.033959,0.00804966,-0.0386389,0.0617571,-0.0197485,-0.62365,0.0490965,0.0429793,1833,1338,10.5198,0.453395
616,-314,9.90051,-1.49146,0.0214308,0.00692347,-0.0322806,0.0472626,-0.0189084,-0.674881,0.0393556,0.0479493,1840,1338,9.90057,1.49146
623,-314,9.38477,-2.79382,0,0,0,0,0,0,0,-1,1847,1338,9.38475,2.79381
630,-314,7.19788,2.16626,0,0,0,0,0,0,0,-1,1854,1338,7.19788,-2.16624
637,-314,7.44312,2.15906,-0.00239827,0.0035115,-0.0119572,0.0128735,-0.0117603,-0.906532,0.0142271,0.0458534,1861,1338,7.44317,-2.15904
644,-314,7.46326,2.28455,-0.00884158,0.0026477,-0.00687321,0.00586085,-0.0120547,-1.13349,0.0105476,0.0434476,1868,1338,7.46331,-2.28456
651,-314,7.50769,2.36694,-0.00609678,0.00143185,0.000226626,0.00143867,-0.00610359,1.54073,0.00462383,0.0386981,1875,1338,7.50765,-2.36692
658,-314,7.59631,2.41748,-0.00338901,0.00029714,0.00796754,0.006632,-0.00972387,0.89906,0.00949914,0.024346,1882,1338,7.59635,-2.41746
665,-314,7.58911,2.44885,-0.00171877,-0.000711615,0.0102033,0.0090005,-0.0114309,0.810055,0.0118239,0.0117692,1889,1338,7.58905,-2.44881
672,-314,7.64551,2.39136,-0.00111633,-0.000941833,0.00831811,0.00728948,-0.00934764,0.790642,0.00962992,0.0111383,1896,1338,7.64555,-2.39141
679,-314,7.63403,2.30737,-0.000721231,-0.00113486,0.00567056,0.00474629,-0.00660237,0.767171,0.0065813,0.00979008,1903,1338,7.63404,-2.30743
686,-314,7.61584,2.18481,-2.20085e-05,-0.00117965,0.00320179,0.00265286,-0.00385452,0.695974,0.00377833,0.0116753,1910,1338,7.61578,-2.1848
693,-314,7.61523,2.1051,-2.14922e-05,-0.000908253,0.0009121,0.000549284,-0.00147903,0.559161,0.00121136,0.0109752,1917,1338,7.61526,-2.10511
700,-314,7.6095,2.0332,-0.000517871,0.000252293,-0.000746192,0.000706908,-0.000972486,-1.02361,0.000973631,0.0111727,1924,1338,7.60955,-2.03321
707,-314,7.62646,1.94861,-0.00163935,0.00169582,-0.00211219,0.00271937,-0.0026629,-1.11955,0.00310751,0.0115401,1931,1338,7.62642,-1.94861
714,-314,7.62073,1.89233,-0.0028705,0.00300286,-0.00380995,0.00487656,-0.00474421,-1.11374,0.00555473,0.0109509,1938,1338,7.62074,-1.8923
721,-314,7.61951,1.84546,-0.00495624,0.00525449,-0.00554728,0.00768816,-0.00738991,-1.15737,0.00870589,0.0143016,1945,1338,7.61951,-1.84547
728,-314,7.60913,1.82349,-0.00812825,0.00960785,-0.00785287,0.012585,-0.0111054,-1.20842,0.0136866,0.0234537,1952,1338,7.60912,-1.82349
735,-314,7.66797,1.66455,-0.0127698,0.0142221,-0.0107247,0.0179645,-0.0165122,-1.23506,0.019911,0.0387472,1959,1338,7.668,-1.66451
742,-314,7.74158,1.47522,-0.0188407,0.0204909,-0.0142767,0.0251267,-0.0234765,-1.25683,0.0280664,0.0474571,1966,1338,7.74153,-1.47523
749,-314,7.79517,1.31238,0,0,0,0,0,0,0,-1,1973,1338,7.79517,-1.31234
756,-314,7.14319,0.504639,-0.0349084,0.0402543,-0.02352,0.0470074,-0.0416616,-1.29119,0.0512241,0.0426201,1980,1338,7.14323,-0.504699
763,-314,7.0105,-0.181274,-0.0442229,0.0557883,-0.0291476,0.0636631,-0.0520977,-1.30693,0.0669456,0.0442585,1987,1338,7.01045,0.181334
770,-314,0,0,0,0,0,0,0,0,0,-1,1994,1338,0,0
777,-314,0,0,0,0,0,0,0,0,0,-1,2001,1338,0,0
784,-314,0,0,0,0,0,0,0,0,0,-1,2008,1338,0,0
791,-314,0,0,0,0,0,0,0,0,0,-1,2015,1338,0,0
798,-314,0,0,0,0,0,0,0,0,0,-1,2022,1338,0,0
805,-314,0,0,0,0,0,0,0,0,0,-1,2029,1338,0,0
812,-314,0,0,0,0,0,0,0,0,0,-1,2036,1338,0,0
-700,-321,0,0,0,0,0,0,0,0,0,-1,524,1345,0,0
-693,-321,0,0,0,0,0,0,0,0,0,-1,531,1345,0,0
-686,-321,0,0,0,0,0,0,0,0,0,-1,538,1345,0,0
-679,-321,0,0,0,0,0,0,0,0,0,-1,545,1345,0,0
-672,-321,0,0,0,0,0,0,0,0,0,-1,552,1345,0,0
-665,-321,0,0,0,0,0,0,0,0,0,-1,559,1345,0,0
-658,-321,0,0,0,0,0,0,0,0,0,-1,566,1345,0,0
-651,-321,0,0,0,0,0,0,0,0,0,-1,573,1345,0,0
-644,-321,-3.67181,-5.15393,0,0,0,0,0,0,0,-1,580,1345,-3.6718,5.1539
-637,-321,-2.75037,-4.86768,0.13967,0.157366,0.0179942,0.16857,0.128466,1.0139,0.101683,0.0473061,587,1345,-2.75034,4.86765
-630,-321,-2.00214,-3.86292,0,0,0,0,0,0,0,-1,594,1345,-2.00211,3.86297
-623,-321,-1.44141,-2.29163,0,0,0,0,0,0,0,-1,601,1345,-1.4414,2.29165
-616,-321,-0.897095,-0.74585,0,0,0,0,0,0,0,-1,608,1345,-0.897115,0.745856
-609,-321,-2.80206,0.665649,0.0426186,0.0581492,0.0157242,0.067921,0.0328468,1.01475,0.0392213,0.0488164,615,1345,-2.80209,-0.665705
-602,-321,-2.32928,0.719116,0.0292415,0.042765,0.01309,0.0507365,0.02127,1.0238,0.0294199,0.0447997,622,1345,-2.32929,-0.719102
-595,-321,-1.88116,0.904907,0.0192102,0.0303676,0.0106708,0.03683,0.0127478,1.02626,0.0215969,0.0372655,629,1345,-1.88118,-0.904942
-588,-321,-1.89044,1.05933,0.0113811,0.0208301,0.00847974,0.0258127,0.00639856,1.03956,0.0155216,0.0128351,636,1345,-1.89041,-1.05938
-581,-321,-1.89136,1.16638,0.00528078,0.0130391,0.00582332,0.016157,0.00216288,1.07922,0.0101277,0.0107897,643,1345,-1.89138,-1.16643
-574,-321,-1.89679,1.25476,0.00302001,0.00812984,0.00391634,0.010251,0.000898892,1.07442,0.00655492,0.013543,650,1345,-1.89677,-1.25481
-567,-321,-1.87775,1.34644,0.00169299,0.00453714,0.00213523,0.00568051,0.00054962,1.07917,0.00361775,0.0180858,657,1345,-1.87776,-1.34645
-560,-321,-1.88776,1.43738,0.000787813,0.00128557,0.000328342,0.0014487,0.000624685,1.10969,0.00083904,0.0217284,664,1345,-1.88774,-1.43742
-553,-321,-1.91284,1.5022,0.000766764,-0.000612891,-0.00113475,0.00140491,-0.00125104,-0.512289,0.00153427,0.0247332,671,1345,-1.91283,-1.50221
-546,-321,-1.97473,1.56323,0.00143634,-0.00238073,-0.00256395,0.00272411,-0.0036685,-0.465453,0.00370418,0.0243245,678,1345,-1.97472,-1.56327
-539,-321,-1.98016,1.6842,0.00194007,-0.00305942,-0.00419833,0.0043265,-0.00544585,-0.516878,0.00565439,0.0224042,685,1345,-1.98013,-1.68425
-532,-321,-1.88007,1.79663,0.00240422,-0.00296758,-0.00596709,0.00626204,-0.0068254,-0.573922,0.00755837,0.0151186,692,1345,-1.88004,-1.79666
-525,-321,-1.85278,1.9303,0.00277935,-0.00227926,-0.00865103,0.00926324,-0.00876315,-0.643177,0.0104089,0.0214545,699,1345,-1.85279,-1.93025
-518,-321,-2.00201,2.01929,0.0032656,-0.000880801,-0.0116263,0.0130021,-0.0106173,-0.697166,0.0136598,0.0377065,706,1345,-2.00201,-2.01928
-511,-321,-1.85553,1.63782,0,0,0,0,0,0,0,-1,713,1345,-1.85556,-1.63787
-504,-321,-1.18396,0.761963,0,0,0,0,0,0,0,-1,720,1345,-1.18396,-0.761928
-497,-321,-0.806824,0.421143,0,0,0,0,0,0,0,-1,727,1345,-0.806801,-0.421127
-490,-321,-0.698792,0.365234,0.00133259,0.0170911,-0.0294744,0.0397212,-0.0212975,-0.916007,0.0357605,0.0444729,734,1345,-0.698794,-0.365292
-483,-321,-0.848206,0.66394,-0.000858848,0.0275011,-0.03672,0.0526839,-0.0260416,-0.96966,0.0463117,0.0464875,741,1345,-0.848208,-0.663908
-476,-321,-1.09393,0.695801,0,0,0,0,0,0,0,-1,748,1345,-1.09394,-0.695839
-469,-321,0.723389,-0.307861,0,0,0,0,0,0,0,-1,755,1345,0.723372,0.30782
-462,-321,0.834778,-0.678223,0,0,0,0,0,0,0,-1,762,1345,0.834748,0.678258
-455,-321,0,0,0,0,0,0,0,0,0,-1,769,1345,0,0
-448,-321,0,0,0,0,0,0,0,0,0,-1,776,1345,0,0
-441,-321,0,0,0,0,0,0,0,0,0,-1,783,1345,0,0
-434,-321,0,0,0,0,0,0,0,0,0,-1,790,1345,0,0
-427,-321,0,0,0,0,0,0,0,0,0,-1,797,1345,0,0
-420,-321,0,0,0,0,0,0,0,0,0,-1,804,1345,0,0
-413,-321,0,0,0,0,0,0,0,0,0,-1,811,1345,0,0
-406,-321,0,0,0,0,0,0,0,0,0,-1,818,1345,0,0
-399,-321,0,0,0,0,0,0,0,0,0,-1,825,1345,0,0
-392,-321,0,0,0,0,0,0,0,0,0,-1,832,1345,0,0
-385,-321,0,0,0,0,0,0,0,0,0,-1,839,1345,0,0
-378,-321,0,0,0,0,0,0,0,0,0,-1,846,1345,0,0
-371,-321,0,0,0,0,0,0,0,0,0,-1,853,1345,0,0
-364,-321,0,0,0,0,0,0,0,0,0,-1,860,1345,0,0
-357,-321,0,0,0,0,0,0,0,0,0,-1,867,1345,0,0
-350,-321,0,0,0,0,0,0,0,0,0,-1,874,1345,0,0
-343,-321,0,0,0,0,0,0,0,0,0,-1,881,1345,0,0
-336,-321,0,0,0,0,0,0,0,0,0,-1,888,1345,0,0
-329,-321,0,0,0,0,0,0,0,0,0,-1,895,1345,0,0
-322,-321,0,0,0,0,0,0,0,0,0,-1,902,1345,0,0
-315,-321,0,0,0,0,0,0,0,0,0,-1,909,1345,0,0
-308,-321,0,0,0,0,0,0,0,0,0,-1,916,1345,0,0
-301,-321,0,0,0,0,0,0,0,0,0,-1,923,1345,0,0
-294,-321,0,0,0,0,0,0,0,0,0,-1,930,1345,0,0
-287,-321,0,0,0,0,0,0,0,0,0,-1,937,1345,0,0
-280,-321,0,0,0,0,0,0,0,0,0,-1,944,1345,0,0
-273,-321,0,0,0,0,0,0,0,0,0,-1,951,1345,0,0
-266,-321,0,0,0,0,0,0,0,0,0,-1,958,1345,0,0
-259,-321,0,0,0,0,0,0,0,0,0,-1,965,1345,0,0
-252,-321,0,0,0,0,0,0,0,0,0,-1,972,1345,0,0
-245,-321,0,0,0,0,0,0,0,0,0,-1,979,1345,0,0
-238,-321,0,0,0,0,0,0,0,0,0,-1,986,1345,0,0
-231,-321,0,0,0,0,0,0,0,0,0,-1,993,1345,0,0
-224,-321,0,0,0,0,0,0,0,0,0,-1,1000,1345,0,0
-217,-321,0,0,0,0,0,0,0,0,0,-1,1007,1345,0,0
-210,-321,0,0,0,0,0,0,0,0,0,-1,1014,1345,0,0
-203,-321,0,0,0,0,0,0,0,0,0,-1,1021,1345,0,0
-196,-321,0,0,0,0,0,0,0,0,0,-1,1028,1345,0,0
-189,-321,0,0,0,0,0,0,0,0,0,-1,1035,1345,0,0
-182,-321,0,0,0,0,0,0,0,0,0,-1,1042,1345,0,0
-175,-321,0,0,0,0,0,0,0,0,0,-1,1049,1345,0,0
-168,-321,0,0,0,0,0,0,0,0,0,-1,1056,1345,0,0
-161,-321,0,0,0,0,0,0,0,0,0,-1,1063,1345,0,0
-154,-321,0,0,0,0,0,0,0,0,0,-1,1070,1345,0,0
-147,-321,0,0,0,0,0,0,0,0,0,-1,1077,1345,0,0
-140,-321,0,0,0,0,0,0,0,0,0,-1,1084,1345,0,0
-133,-321,0,0,0,0,0,0,0,0,0,-1,1091,1345,0,0
-126,-321,0,0,0,0,0,0,0,0,0,-1,1098,1345,0,0
-119,-321,0,0,0,0,0,0,0,0,0,-1,1105,1345,0,0
-112,-321,0,0,0,0,0,0,0,0,0,-1,1112,1345,0,0
-105,-321,0,0,0,0,0,0,0,0,0,-1,1119,1345,0,0
-98,-321,0,0,0,0,0,0,0,0,0,-1,1126,1345,0,0
-91,-321,0,0,0,0,0,0,0,0,0,-1,1133,1345,0,0
-84,-321,0,0,0,0,0,0,0,0,0,-1,1140,1345,0,0
-77,-321,0,0,0,0,0,0,0,0,0,-1,1147,1345,0,0
-70,-321,0,0,0,0,0,0,0,0,0,-1,1154,1345,0,0
-63,-321,0,0,0,0,0,0,0,0,0,-1,1161,1345,0,0
-56,-321,0,0,0,0,0,0,0,0,0,-1,1168,1345,0,0
-49,-321,0,0,0,0,0,0,0,0,0,-1,1175,1345,0,0
-42,-321,0,0,0,0,0,0,0,0,0,-1,1182,1345,0,0
-35,-321,0,0,0,0,0,0,0,0,0,-1,1189,1345,0,0
-28,-321,0,0,0,0,0,0,0,0,0,-1,1196,1345,0,0
-21,-321,0,0,0,0,0,0,0,0,0,-1,1203,1345,0,0
-14,-321,0,0,0,0,0,0,0,0,0,-1,1210,1345,0,0
-7,-321,0,0,0,0,0,0,0,0,0,-1,1217,1345,0,0
0,-321,0,0,0,0,0,0,0,0,0,-1,1224,1345,0,0
7,-321,0,0,0,0,0,0,0,0,0,-1,1231,1345,0,0
14,-321,0,0,0,0,0,0,0,0,0,-1,1238,1345,0,0
21,-321,0,0,0,0,0,0,0,0,0,-1,1245,1345,0,0
28,-321,0,0,0,0,0,0,0,0,0,-1,1252,1345,0,0
35,-321,0,0,0,0,0,0,0,0,0,-1,1259,1345,0,0
42,-321,0,0,0,0,0,0,0,0,0,-1,1266,1345,0,0
49,-321,0,0,0,0,0,0,0,0,0,-1,1273,1345,0,0
56,-321,0,0,0,0,0,0,0,0,0,-1,1280,1345,0,0
63,-321,0,0,0,0,0,0,0,0,0,-1,1287,1345,0,0
70,-321,0,0,0,0,0,0,0,0,0,-1,1294,1345,0,0
77,-321,0,0,0,0,0,0,0,0,0,-1,1301,1345,0,0
84,-321,0,0,0,0,0,0,0,0,0,-1,1308,1345,0,0
91,-321,0,0,0,0,0,0,0,0,0,-1,1315,1345,0,0
98,-321,0,0,0,0,0,0,0,0,0,-1,1322,1345,0,0
105,-321,0,0,0,0,0,0,0,0,0,-1,1329,1345,0,0
112,-321,0,0,0,0,0,0,0,0,0,-1,1336,1345,0,0
119,-321,0,0,0,0,0,0,0,0,0,-1,1343,1345,0,0
126,-321,0,0,0,0,0,0,0,0,0,-1,1350,1345,0,0
133,-321,0,0,0,0,0,0,0,0,0,-1,1357,1345,0,0
140,-321,0,0,0,0,0,0,0,0,0,-1,1364,1345,0,0
147,-321,0,0,0,0,0,0,0,0,0,-1,1371,1345,0,0
154,-321,0,0,0,0,0,0,0,0,0,-1,1378,1345,0,0
161,-321,0,0,0,0,0,0,0,0,0,-1,1385,1345,0,0
168,-321,0,0,0,0,0,0,0,0,0,-1,1392,1345,0,0
175,-321,0,0,0,0,0,0,0,0,0,-1,1399,1345,0,0
182,-321,0,0,0,0,0,0,0,0,0,-1,1406,1345,0,0
189,-321,0,0,0,0,0,0,0,0,0,-1,1413,1345,0,0
196,-321,0,0,0,0,0,0,0,0,0,-1,1420,1345,0,0
203,-321,0,0,0,0,0,0,0,0,0,-1,1427,1345,0,0
210,-321,0,0,0,0,0,0,0,0,0,-1,1434,1345,0,0
217,-321,0,0,0,0,0,0,0,0,0,-1,1441,1345,0,0
224,-321,0,0,0,0,0,0,0,0,0,-1,1448,1345,0,0
231,-321,0,0,0,0,0,0,0,0,0,-1,1455,1345,0,0
238,-321,0,0,0,0,0,0,0,0,0,-1,1462,1345,0,0
245,-321,0,0,0,0,0,0,0,0,0,-1,1469,1345,0,0
252,-321,0,0,0,0,0,0,0,0,0,-1,1476,1345,0,0
259,-321,0,0,0,0,0,0,0,0,0,-1,1483,1345,0,0
266,-321,0,0,0,0,0,0,0,0,0,-1,1490,1345,0,0
273,-321,0,0,0,0,0,0,0,0,0,-1,1497,1345,0,0
280,-321,0,0,0,0,0,0,0,0,0,-1,1504,1345,0,0
287,-321,0,0,0,0,0,0,0,0,0,-1,1511,1345,0,0
294,-321,0,0,0,0,0,0,0,0,0,-1,1518,1345,0,0
301,-321,0,0,0,0,0,0,0,0,0,-1,1525,1345,0,0
308,-321,0,0,0,0,0,0,0,0,0,-1,1532,1345,0,0
315,-321,0,0,0,0,0,0,0,0,0,-1,1539,1345,0,0
322,-321,0,0,0,0,0,0,0,0,0,-1,1546,1345,0,0
329,-321,0,0,0,0,0,0,0,0,0,-1,1553,1345,0,0
336,-321,0,0,0,0,0,0,0,0,0,-1,1560,1345,0,0
343,-321,0,0,0,0,0,0,0,0,0,-1,1567,1345,0,0
350,-321,0,0,0,0,0,0,0,0,0,-1,1574,1345,0,0
357,-321,0,0,0,0,0,0,0,0,0,-1,1581,1345,0,0
364,-321,0,0,0,0,0,0,0,0,0,-1,1588,1345,0,0
371,-321,0,0,0,0,0,0,0,0,0,-1,1595,1345,0,0
378,-321,0,0,0,0,0,0,0,0,0,-1,1602,1345,0,0
385,-321,0,0,0,0,0,0,0,0,0,-1,1609,1345,0,0
392,-321,0,0,0,0,0,0,0,0,0,-1,1616,1345,0,0
399,-321,0,0,0,0,0,0,0,0,0,-1,1623,1345,0,0
406,-321,0,0,0,0,0,0,0,0,0,-1,1630,1345,0,0
413,-321,0,0,0,0,0,0,0,0,0,-1,1637,1345,0,0
420,-321,0,0,0,0,0,0,0,0,0,-1,1644,1345,0,0
427,-321,0,0,0,0,0,0,0,0,0,-1,1651,1345,0,0
434,-321,0,0,0,0,0,0,0,0,0,-1,1658,1345,0,0
441,-321,0,0,0,0,0,0,0,0,0,-1,1665,1345,0,0
448,-321,0,0,0,0,0,0,0,0,0,-1,1672,1345,0,0
455,-321,0,0,0,0,0,0,0,0,0,-1,1679,1345,0,0
462,-321,0,0,0,0,0,0,0,0,0,-1,1686,1345,0,0
469,-321,0,0,0,0,0,0,0,0,0,-1,1693,1345,0,0
476,-321,0,0,0,0,0,0,0,0,0,-1,1700,1345,0,0
483,-321,0,0,0,0,0,0,0,0,0,-1,1707,1345,0,0
490,-321,0,0,0,0,0,0,0,0,0,-1,1714,1345,0,0
497,-321,0,0,0,0,0,0,0,0,0,-1,1721,1345,0,0
504,-321,0,0,0,0,0,0,0,0,0,-1,1728,1345,0,0
511,-321,0,0,0,0,0,0,0,0,0,-1,1735,1345,0,0
518,-321,0,0,0,0,0,0,0,0,0,-1,1742,1345,0,0
525,-321,0,0,0,0,0,0,0,0,0,-1,1749,1345,0,0
532,-321,0,0,0,0,0,0,0,0,0,-1,1756,1345,0,0
539,-321,0,0,0,0,0,0,0,0,0,-1,1763,1345,0,0
546,-321,0,0,0,0,0,0,0,0,0,-1,1770,1345,0,0
553,-321,0,0,0,0,0,0,0,0,0,-1,1777,1345,0,0
560,-321,0,0,0,0,0,0,0,0,0,-1,1784,1345,0,0
567,-321,0,0,0,0,0,0,0,0,0,-1,1791,1345,0,0
574,-321,0,0,0,0,0,0,0,0,0,-1,1798,1345,0,0
581,-321,11.1063,2.99146,0.152738,0.0148808,-0.0141216,0.15417,0.0134491,-0.101038,0.0986033,0.0442401,1805,1345,11.1063,-2.99152
588,-321,12.7689,3.30603,0.103483,0.011894,-0.0334512,0.114399,0.000977609,-0.31544,0.0759425,0.0491849,1812,1345,12.7689,-3.30598
595,-321,14.5879,4.17542,0,0,0,0,0,0,0,-1,1819,1345,14.5879,-4.17538
602,-321,16.9857,5.76172,0.0491621,0.00896908,-0.0378671,0.071935,-0.0138039,-0.541441,0.0531588,0.0479142,1826,1345,16.9857,-5.76173
609,-321,10.9509,-0.217163,0.03285,0.00752553,-0.0340735,0.056538,-0.0161625,-0.607499,0.0440785,0.0467389,1833,1345,10.9509,0.21713
616,-321,10.2649,-0.795898,0,0,0,0,0,0,0,-1,1840,1345,10.2649,0.795954
623,-321,7.36292,3.90247,0,0,0,0,0,0,0,-1,1847,1345,7.36293,-3.90242
630,-321,6.9624,1.51831,0,0,0,0,0,0,0,-1,1854,1345,6.96237,-1.51828
637,-321,7.24561,1.54688,-0.0031491,0.00257423,-0.0119497,0.0120001,-0.012575,-0.902923,0.0141897,0.0467696,1861,1345,7.24566,-1.54693
644,-321,7.44897,2.01855,-0.010155,0.00180302,-0.00783298,0.00567816,-0.0140301,-1.11138,0.0117142,0.0427142,1868,1345,7.44901,-2.01858
651,-321,7.73474,2.3894,-0.00699775,0.000891241,-0.000928288,0.000999,-0.00710551,-1.45523,0.00510271,0.0377702,1875,1345,7.73474,-2.38938
658,-321,7.54517,2.46619,-0.00393573,6.03357e-05,0.00680208,0.00515176,-0.00902715,0.928249,0.00828749,0.0187468,1882,1345,7.54513,-2.46613
665,-321,7.52722,2.45227,-0.0019357,-0.000681758,0.00906216,0.00777509,-0.0103925,0.819936,0.0105253,0.0136171,1889,1345,7.52727,-2.45231
672,-321,7.5603,2.37939,-0.00104517,-0.000760222,0.00725279,0.00635149,-0.00815688,0.795219,0.008398,0.0121097,1896,1345,7.5603,-2.37934
679,-321,7.55249,2.29651,-0.000379566,-0.000892771,0.00477788,0.0041486,-0.00542093,0.758571,0.00554122,0.0109639,1903,1345,7.55251,-2.29657
686,-321,7.51965,2.20325,0.000455751,-0.00092206,0.00250919,0.00236889,-0.00283519,0.651423,0.00300859,0.011958,1910,1345,7.51967,-2.20329
693,-321,7.52148,2.13037,0.000690179,-0.000763738,0.000417709,0.000801641,-0.000875201,0.260766,0.000968436,0.0122347,1917,1345,7.52153,-2.13034
700,-321,7.53296,2.03674,0.000180027,0.000260991,-0.00115541,0.00137663,-0.000935608,-0.802909,0.00134304,0.0115931,1924,1345,7.53292,-2.03669
707,-321,7.55627,1.9574,-0.00122184,0.00146902,-0.0026189,0.00306787,-0.00282069,-1.02269,0.00340076,0.0126261,1931,1345,7.55633,-1.95744
714,-321,7.54419,1.89709,-0.00277625,0.00246838,-0.00443418,0.00499762,-0.00530548,-1.05243,0.00594938,0.0119658,1938,1345,7.54419,-1.89706
721,-321,7.52588,1.81702,-0.00544782,0.00421989,-0.00647182,0.00746382,-0.00869175,-1.10616,0.0093364,0.0151847,1945,1345,7.52588,-1.81707
728,-321,7.53479,1.75842,-0.00955299,0.00762727,-0.00919441,0.01162,-0.0135457,-1.16112,0.0145436,0.0256935,1952,1345,7.53473,-1.75847
735,-321,7.76685,1.48572,-0.0155915,0.0111897,-0.0126274,0.0162045,-0.0206063,-1.19276,0.0213033,0.0437755,1959,1345,7.76683,-1.48569
742,-321,7.8606,1.37561,-0.0236739,0.0159316,-0.0169079,0.0221678,-0.0299101,-1.21744,0.0301777,0.0499079,1966,1345,7.86064,-1.37557
749,-321,7.91504,1.27332,0,0,0,0,0,0,0,-1,1973,1345,7.91506,-1.27332
756,-321,7.08765,0.758301,-0.0460039,0.0305275,-0.0281839,0.0397865,-0.0552629,-1.25338,0.0551187,0.0442649,1980,1345,7.08769,-0.75834
763,-321,6.67432,-0.0667725,-0.0597016,0.0421149,-0.0351351,0.0530623,-0.0706491,-1.26875,0.071665,0.0499857,1987,1345,6.67431,0.0667675
770,-321,0,0,0,0,0,0,0,0,0,-1,1994,1345,0,0
777,-321,0,0,0,0,0,0,0,0,0,-1,2001,1345,0,0
784,-321,0,0,0,0,0,0,0,0,0,-1,2008,1345,0,0
791,-321,0,0,0,0,0,0,0,0,0,-1,2015,1345,0,0
798,-321,0,0,0,0,0,0,0,0,0,-1,2022,1345,0,0
805,-321,0,0,0,0,0,0,0,0,0,-1,2029,1345,0,0
812,-321,0,0,0,0,0,0,0,0,0,-1,2036,1345,0,0
-700,-328,0,0,0,0,0,0,0,0,0,-1,524,1352,0,0
-693,-328,0,0,0,0,0,0,0,0,0,-1,531,1352,0,0
-686,-328,0,0,0,0,0,0,0,0,0,-1,538,1352,0,0
-679,-328,0,0,0,0,0,0,0,0,0,-1,545,1352,0,0
-672,-328,0,0,0,0,0,0,0,0,0,-1,552,1352,0,0
-665,-328,0,0,0,0,0,0,0,0,0,-1,559,1352,0,0
-658,-328,0,0,0,0,0,0,0,0,0,-1,566,1352,0,0
-651,-328,0,0,0,0,0,0,0,0,0,-1,573,1352,0,0
-644,-328,0,0,0,0,0,0,0,0,0,-1,580,1352,0,0
-637,-328,-1.76508,-6.17712,0,0,0,0,0,0,0,-1,587,1352,-1.76508,6.1771
-630,-328,-1.20209,-5.58447,0,0,0,0,0,0,0,-1,594,1352,-1.20209,5.58444
-623,-328,-1.03595,-2.7157,0,0,0,0,0,0,0,-1,601,1352,-1.03592,2.71571
-616,-328,-2.09589,0.700806,0.0467678,0.0815351,0.0188075,0.0897622,0.0385406,1.15844,0.0519964,0.0481621,608,1352,-2.09589,-0.700757
-609,-328,-2.20734,0.625366,0.033846,0.0620244,0.0165859,0.0696975,0.026173,1.13749,0.0406534,0.0466943,615,1352,-2.20736,-0.625345
-602,-328,-1.93896,0.452881,0.0238967,0.0461117,0.0139837,0.0528625,0.0171459,1.12103,0.0311416,0.0490833,622,1352,-1.93899,-0.452857
-595,-328,-1.79889,0.644531,0.0162437,0.0332515,0.011426,0.0389909,0.0105044,1.10531,0.0232957,0.0440988,629,1352,-1.79886,-0.644529
-588,-328,-1.78796,1.02429,0.0104916,0.0232315,0.00900866,0.0278948,0.00582834,1.09313,0.0169903,0.023778,636,1352,-1.78798,-1.02428
-581,-328,-1.79968,1.17139,0.00550456,0.0149828,0.00677612,0.0185126,0.00197476,1.09055,0.011739,0.0115803,643,1352,-1.79969,-1.17143
-574,-328,-1.80243,1.26282,0.00318439,0.00954481,0.00482077,0.0121399,0.000589347,1.07698,0.00790411,0.013356,650,1352,-1.80246,-1.26278
-567,-328,-1.78259,1.36072,0.00162907,0.00561359,0.00305283,0.00726672,-2.40635e-05,1.0745,0.00485252,0.0173081,657,1352,-1.78259,-1.36073
-560,-328,-1.79657,1.45972,0.000462687,0.0020552,0.00132875,0.00280801,-0.000290119,1.05533,0.00197582,0.025053,664,1352,-1.79657,-1.45977
-553,-328,-1.82684,1.53162,9.06947e-05,0.000103221,-1.56919e-05,0.000113854,8.00622e-05,-0.975281,6.75187e-05,0.0270357,671,1352,-1.82685,-1.53163
-546,-328,-1.88086,1.57971,0.000361206,-0.00173966,-0.00122562,0.000924944,-0.0023034,-0.431108,0.00191969,0.0246584,678,1352,-1.88084,-1.57968
-539,-328,-1.88647,1.66602,0.00076134,-0.00252084,-0.0027221,0.00229877,-0.00405827,-0.514132,0.00371681,0.0224254,685,1352,-1.88648,-1.66607
-532,-328,-1.80426,1.78027,0.0012158,-0.00257257,-0.00440117,0.00411309,-0.00546986,-0.582187,0.00555117,0.01638,692,1352,-1.80426,-1.78023
-525,-328,-1.75922,1.89197,0.00166859,-0.00218474,-0.006897,0.00690298,-0.00741913,-0.649196,0.00827066,0.0109409,699,1352,-1.75922,-1.89195
-518,-328,-1.76904,1.97131,0.0023329,-0.00114691,-0.00979812,0.0105444,-0.00935841,-0.697526,0.0114977,0.0258105,706,1352,-1.76903,-1.97133
-511,-328,-1.76208,1.69861,0.0029661,0.00055265,-0.0132004,0.0150148,-0.0114961,-0.739817,0.015351,0.0386809,713,1352,-1.76208,-1.69859
-504,-328,-1.46021,1.12769,0.00342099,0.00347089,-0.0173526,0.0207986,-0.0139067,-0.786117,0.0201684,0.0453355,720,1352,-1.46022,-1.12771
-497,-328,-1.24359,0.812988,0,0,0,0,0,0,0,-1,727,1352,-1.2436,-0.812995
-490,-328,-0.424988,0.137573,0,0,0,0,0,0,0,-1,734,1352,-0.424972,-0.137525
-483,-328,-0.144897,0.680176,0,0,0,0,0,0,0,-1,741,1352,-0.144896,-0.680195
-476,-328,-0.585693,0.110107,0,0,0,0,0,0,0,-1,748,1352,-0.585699,-0.110136
-469,-328,1.55115,-0.481201,0,0,0,0,0,0,0,-1,755,1352,1.55113,0.481243
-462,-328,0.614197,1.54956,0,0,0,0,0,0,0,-1,762,1352,0.614198,-1.54959
-455,-328,0,0,0,0,0,0,0,0,0,-1,769,1352,0,0
-448,-328,0,0,0,0,0,0,0,0,0,-1,776,1352,0,0
-441,-328,0,0,0,0,0,0,0,0,0,-1,783,1352,0,0
-434,-328,0,0,0,0,0,0,0,0,0,-1,790,1352,0,0
-427,-328,0,0,0,0,0,0,0,0,0,-1,797,1352,0,0
-420,-328,0,0,0,0,0,0,0,0,0,-1,804,1352,0,0
-413,-328,0,0,0,0,0,0,0,0,0,-1,811,1352,0,0
-406,-328,0,0,0,0,0,0,0,0,0,-1,818,1352,0,0
-399,-328,0,0,0,0,0,0,0,0,0,-1,825,1352,0,0
-392,-328,0,0,0,0,0,0,0,0,0,-1,832,1352,0,0
-385,-328,0,0,0,0,0,0,0,0,0,-1,839,1352,0,0
-378,-328,0,0,0,0,0,0,0,0,0,-1,846,1352,0,0
-371,-328,0,0,0,0,0,0,0,0,0,-1,853,1352,0,0
-364,-328,0,0,0,0,0,0,0,0,0,-1,860,1352,0,0
-357,-328,0,0,0,0,0,0,0,0,0,-1,867,1352,0,0
-350,-328,0,0,0,0,0,0,0,0,0,-1,874,1352,0,0
-343,-328,0,0,0,0,0,0,0,0,0,-1,881,1352,0,0
-336,-328,0,0,0,0,0,0,0,0,0,-1,888,1352,0,0
-329,-328,0,0,0,0,0,0,0,0,0,-1,895,1352,0,0
-322,-328,0,0,0,0,0,0,0,0,0,-1,902,1352,0,0
-315,-328,0,0,0,0,0,0,0,0,0,-1,909,1352,0,0
-308,-328,0,0,0,0,0,0,0,0,0,-1,916,1352,0,0
-301,-328,0,0,0,0,0,0,0,0,0,-1,923,1352,0,0
-294,-328,0,0,0,0,0,0,0,0,0,-1,930,1352,0,0
-287,-328,0,0,0,0,0,0,0,0,0,-1,937,1352,0,0
-280,-328,0,0,0,0,0,0,0,0,0,-1,944,1352,0,0
-273,-328,0,0,0,0,0,0,0,0,0,-1,951,1352,0,0
-266,-328,0,0,0,0,0,0,0,0,0,-1,958,1352,0,0
-259,-328,0,0,0,0,0,0,0,0,0,-1,965,1352,0,0
-252,-328,0,0,0,0,0,0,0,0,0,-1,972,1352,0,0
-245,-328,0,0,0,0,0,0,0,0,0,-1,979,1352,0,0
-238,-328,0,0,0,0,0,0,0,0,0,-1,986,1352,0,0
-231,-328,0,0,0,0,0,0,0,0,0,-1,993,1352,0,0
-224,-328,0,0,0,0,0,0,0,0,0,-1,1000,1352,0,0
-217,-328,0,0,0,0,0,0,0,0,0,-1,1007,1352,0,0
-210,-328,0,0,0,0,0,0,0,0,0,-1,1014,1352,0,0
-203,-328,0,0,0,0,0,0,0,0,0,-1,1021,1352,0,0
-196,-328,0,0,0,0,0,0,0,0,0,-1,1028,1352,0,0
-189,-328,0,0,0,0,0,0,0,0,0,-1,1035,1352,0,0
-182,-328,0,0,0,0,0,0,0,0,0,-1,1042,1352,0,0
-175,-328,0,0,0,0,0,0,0,0,0,-1,1049,1352,0,0
-168,-328,0,0,0,0,0,0,0,0,0,-1,1056,1352,0,0
-161,-328,0,0,0,0,0,0,0,0,0,-1,1063,1352,0,0
-154,-328,0,0,0,0,0,0,0,0,0,-1,1070,1352,0,0
-147,-328,0,0,0,0,0,0,0,0,0,-1,1077,1352,0,0
-140,-328,0,0,0,0,0,0,0,0,0,-1,1084,1352,0,0
-133,-328,0,0,0,0,0,0,0,0,0,-1,1091,1352,0,0
-126,-328,0,0,0,0,0,0,0,0,0,-1,1098,1352,0,0
-119,-328,0,0,0,0,0,0,0,0,0,-1,1105,1352,0,0
-112,-328,0,0,0,0,0,0,0,0,0,-1,1112,1352,0,0
-105,-328,0,0,0,0,0,0,0,0,0,-1,1119,1352,0,0
-98,-328,0,0,0,0,0,0,0,0,0,-1,1126,1352,0,0
-91,-328,0,0,0,0,0,0,0,0,0,-1,1133,1352,0,0
-84,-328,0,0,0,0,0,0,0,0,0,-1,1140,1352,0,0
-77,-328,0,0,0,0,0,0,0,0,0,-1,1147,1352,0,0
-70,-328,0,0,0,0,0,0,0,0,0,-1,1154,1352,0,0
-63,-328,0,0,0,0,0,0,0,0,0,-1,1161,1352,0,0
-56,-328,0,0,0,0,0,0,0,0,0,-1,1168,1352,0,0
-49,-328,0,0,0,0,0,0,0,0,0,-1,1175,1352,0,0
-42,-328,0,0,0,0,0,0,0,0,0,-1,1182,1352,0,0
-35,-328,0,0,0,0,0,0,0,0,0,-1,1189,1352,0,0
-28,-328,0,0,0,0,0,0,0,0,0,-1,1196,1352,0,0
-21,-328,0,0,0,0,0,0,0,0,0,-1,1203,1352,0,0
-14,-328,0,0,0,0,0,0,0,0,0,-1,1210,1352,0,0
-7,-328,0,0,0,0,0,0,0,0,0,-1,1217,1352,0,0
0,-328,0,0,0,0,0,0,0,0,0,-1,1224,1352,0,0
7,-328,0,0,0,0,0,0,0,0,0,-1,1231,1352,0,0
14,-328,0,0,0,0,0,0,0,0,0,-1,1238,1352,0,0
21,-328,0,0,0,0,0,0,0,0,0,-1,1245,1352,0,0
28,-328,0,0,0,0,0,0,0,0,0,-1,1252,1352,0,0
35,-328,0,0,0,0,0,0,0,0,0,-1,1259,1352,0,0
42,-328,0,0,0,0,0,0,0,0,0,-1,1266,1352,0,0
49,-328,0,0,0,0,0,0,0,0,0,-1,1273,1352,0,0
56,-328,0,0,0,0,0,0,0,0,0,-1,1280,1352,0,0
63,-328,0,0,0,0,0,0,0,0,0,-1,1287,1352,0,0
70,-328,0,0,0,0,0,0,0,0,0,-1,1294,1352,0,0
77,-328,0,0,0,0,0,0,0,0,0,-1,1301,1352,0,0
84,-328,0,0,0,0,0,0,0,0,0,-1,1308,1352,0,0
91,-328,0,0,0,0,0,0,0,0,0,-1,1315,1352,0,0
98,-328,0,0,0,0,0,0,0,0,0,-1,1322,1352,0,0
105,-328,0,0,0,0,0,0,0,0,0,-1,1329,1352,0,0
112,-328,0,0,0,0,0,0,0,0,0,-1,1336,1352,0,0
119,-328,0,0,0,0,0,0,0,0,0,-1,1343,1352,0,0
126,-328,0,0,0,0,0,0,0,0,0,-1,1350,1352,0,0
133,-328,0,0,0,0,0,0,0,0,0,-1,1357,1352,0,0
140,-328,0,0,0,0,0,0,0,0,0,-1,1364,1352,0,0
147,-328,0,0,0,0,0,0,0,0,0,-1,1371,1352,0,0
154,-328,0,0,0,0,0,0,0,0,0,-1,1378,1352,0,0
161,-328,0,0,0,0,0,0,0,0,0,-1,1385,1352,0,0
168,-328,0,0,0,0,0,0,0,0,0,-1,1392,1352,0,0
175,-328,0,0,0,0,0,0,0,0,0,-1,1399,1352,0,0
182,-328,0,0,0,0,0,0,0,0,0,-1,1406,1352,0,0
189,-328,0,0,0,0,0,0,0,0,0,-1,1413,1352,0,0
196,-328,0,0,0,0,0,0,0,0,0,-1,1420,1352,0,0
203,-328,0,0,0,0,0,0,0,0,0,-1,1427,1352,0,0
210,-328,0,0,0,0,0,0,0,0,0,-1,1434,1352,0,0
217,-328,0,0,0,0,0,0,0,0,0,-1,1441,1352,0,0
224,-328,0,0,0,0,0,0,0,0,0,-1,1448,1352,0,0
231,-328,0,0,0,0,0,0,0,0,0,-1,1455,1352,0,0
238,-328,0,0,0,0,0,0,0,0,0,-1,1462,1352,0,0
245,-328,0,0,0,0,0,0,0,0,0,-1,1469,1352,0,0
252,-328,0,0,0,0,0,0,0,0,0,-1,1476,1352,0,0
259,-328,0,0,0,0,0,0,0,0,0,-1,1483,1352,0,0
266,-328,0,0,0,0,0,0,0,0,0,-1,1490,1352,0,0
273,-328,0,0,0,0,0,0,0,0,0,-1,1497,1352,0,0
280,-328,0,0,0,0,0,0,0,0,0,-1,1504,1352,0,0
287,-328,0,0,0,0,0,0,0,0,0,-1,1511,1352,0,0
294,-328,0,0,0,0,0,0,0,0,0,-1,1518,1352,0,0
301,-328,0,0,0,0,0,0,0,0,0,-1,1525,1352,0,0
308,-328,0,0,0,0,0,0,0,0,0,-1,1532,1352,0,0
315,-328,0,0,0,0,0,0,0,0,0,-1,1539,1352,0,0
322,-328,0,0,0,0,0,0,0,0,0,-1,1546,1352,0,0
329,-328,0,0,0,0,0,0,0,0,0,-1,1553,1352,0,0
336,-328,0,0,0,0,0,0,0,0,0,-1,1560,1352,0,0
343,-328,0,0,0,0,0,0,0,0,0,-1,1567,1352,0,0
350,-328,0,0,0,0,0,0,0,0,0,-1,1574,1352,0,0
357,-328,0,0,0,0,0,0,0,0,0,-1,1581,1352,0,0
364,-328,0,0,0,0,0,0,0,0,0,-1,1588,1352,0,0
371,-328,0,0,0,0,0,0,0,0,0,-1,1595,1352,0,0
378,-328,0,0,0,0,0,0,0,0,0,-1,1602,1352,0,0
385,-328,0,0,0,0,0,0,0,0,0,-1,1609,1352,0,0
392,-328,0,0,0,0,0,0,0,0,0,-1,1616,1352,0,0
399,-328,0,0,0,0,0,0,0,0,0,-1,1623,1352,0,0
406,-328,0,0,0,0,0,0,0,0,0,-1,1630,1352,0,0
413,-328,0,0,0,0,0,0,0,0,0,-1,1637,1352,0,0
420,-328,0,0,0,0,0,0,0,0,0,-1,1644,1352,0,0
427,-328,0,0,0,0,0,0,0,0,0,-1,1651,1352,0,0
434,-328,0,0,0,0,0,0,0,0,0,-1,1658,1352,0,0
441,-328,0,0,0,0,0,0,0,0,0,-1,1665,1352,0,0
448,-328,0,0,0,0,0,0,0,0,0,-1,1672,1352,0,0
455,-328,0,0,0,0,0,0,0,0,0,-1,1679,1352,0,0
462,-328,0,0,0,0,0,0,0,0,0,-1,1686,1352,0,0
469,-328,0,0,0,0,0,0,0,0,0,-1,1693,1352,0,0
476,-328,0,0,0,0,0,0,0,0,0,-1,1700,1352,0,0
483,-328,0,0,0,0,0,0,0,0,0,-1,1707,1352,0,0
490,-328,0,0,0,0,0,0,0,0,0,-1,1714,1352,0,0
497,-328,0,0,0,0,0,0,0,0,0,-1,1721,1352,0,0
504,-328,0,0,0,0,0,0,0,0,0,-1,1728,1352,0,0
511,-328,0,0,0,0,0,0,0,0,0,-1,1735,1352,0,0
518,-328,0,0,0,0,0,0,0,0,0,-1,1742,1352,0,0
525,-328,0,0,0,0,0,0,0,0,0,-1,1749,1352,0,0
532,-328,0,0,0,0,0,0,0,0,0,-1,1756,1352,0,0
539,-328,0,0,0,0,0,0,0,0,0,-1,1763,1352,0,0
546,-328,0,0,0,0,0,0,0,0,0,-1,1770,1352,0,0
553,-328,0,0,0,0,0,0,0,0,0,-1,1777,1352,0,0
560,-328,0,0,0,0,0,0,0,0,0,-1,1784,1352,0,0
567,-328,0,0,0,0,0,0,0,0,0,-1,1791,1352,0,0
574,-328,9.69983,2.99512,0,0,0,0,0,0,0,-1,1798,1352,9.69979,-2.9951
581,-328,11.1597,3.20422,0.138804,0.017713,-0.0153422,0.140717,0.0157994,-0.124088,0.0890137,0.0456926,1805,1352,11.1597,-3.20422
588,-328,12.6661,3.40698,0.0967797,0.0130298,-0.0291884,0.105949,0.00386086,-0.304367,0.0693813,0.0496349,1812,1352,12.6661,-3.40703
595,-328,14.1642,3.60986,0,0,0,0,0,0,0,-1,1819,1352,14.1642,-3.60989
602,-328,16.8854,6.13574,0,0,0,0,0,0,0,-1,1826,1352,16.8854,-6.13576
609,-328,11.4246,-0.284912,0,0,0,0,0,0,0,-1,1833,1352,11.4245,0.284959
616,-328,7.37073,3.08752,0,0,0,0,0,0,0,-1,1840,1352,7.37079,-3.08758
623,-328,7.70483,3.0448,0,0,0,0,0,0,0,-1,1847,1352,7.70485,-3.04475
630,-328,7.71106,2.83667,0,0,0,0,0,0,0,-1,1854,1352,7.71105,-2.83663
637,-328,7.00134,0.981689,0,0,0,0,0,0,0,-1,1861,1352,7.0013,-0.981719
644,-328,7.58557,2.51123,-0.0108167,0.000846728,-0.00774539,0.00471038,-0.0146803,-1.10808,0.0116781,0.0400729,1868,1352,7.5856,-2.51123
651,-328,7.55847,2.51648,-0.00719263,0.000287002,-0.00149895,0.000576216,-0.00748185,-1.38019,0.00519064,0.0292429,1875,1352,7.5585,-2.51653
658,-328,7.46155,2.49866,-0.00382206,-0.000191442,0.00566231,0.00393944,-0.00795294,0.940519,0.00699519,0.0153485,1882,1352,7.46153,-2.49861
665,-328,7.45923,2.43481,-0.00156607,-0.000651235,0.00773624,0.00664109,-0.0088584,0.814927,0.00897911,0.0125906,1889,1352,7.45922,-2.43482
672,-328,7.45483,2.36914,-0.000457149,-0.000601682,0.00602739,0.00549841,-0.00655724,0.779404,0.00696928,0.0112476,1896,1352,7.45489,-2.36915
679,-328,7.45068,2.29663,0.000588215,-0.000874696,0.0038561,0.00378162,-0.0040681,0.691668,0.00453305,0.0140646,1903,1352,7.45067,-2.29666
686,-328,7.43958,2.21472,0.00188049,-0.00096122,0.00210703,0.00300097,-0.00208171,0.488751,0.00295044,0.0130616,1910,1352,7.43958,-2.21468
693,-328,7.45557,2.13489,0.00267345,-0.00102973,0.000469271,0.00273199,-0.00108827,0.124108,0.00227266,0.00926697,1917,1352,7.4556,-2.13492
700,-328,7.45557,2.06787,0.00268378,-0.000322701,-0.000703123,0.00284009,-0.000479013,-0.218753,0.00207161,0.0134131,1924,1352,7.45556,-2.06782
707,-328,7.4624,1.98938,0.00176967,0.00045927,-0.00186385,0.00309013,-0.000861189,-0.616379,0.00239924,0.0146951,1931,1352,7.46246,-1.98935
714,-328,7.48523,1.92834,0.000931158,0.00103143,-0.00329249,0.00427417,-0.00231158,-0.793011,0.00385815,0.0115553,1938,1352,7.4852,-1.92829
721,-328,7.4574,1.84155,-0.000884868,0.00210644,-0.00492059,0.00575366,-0.00453209,-0.93294,0.00595243,0.0203392,1945,1352,7.45745,-1.84157
728,-328,7.49658,1.71472,-0.00423559,0.00428531,-0.0072172,0.00840575,-0.00835604,-1.05203,0.00967744,0.0380589,1952,1352,7.49664,-1.71472
735,-328,7.61621,1.48914,-0.00979949,0.00665195,-0.0102474,0.0115667,-0.0147142,-1.1236,0.0152095,0.0493633,1959,1352,7.61623,-1.48915
742,-328,7.89014,1.30493,0,0,0,0,0,0,0,-1,1966,1352,7.89013,-1.30497
749,-328,8.29785,1.7865,-0.0292262,0.0139408,-0.0194163,0.021389,-0.0366744,-1.2045,0.0339079,0.0424153,1973,1352,8.29781,-1.78646
756,-328,7.01428,1.03394,-0.0437721,0.0193239,-0.0259405,0.0286193,-0.0530676,-1.22671,0.0478608,0.0453123,1980,1352,7.01428,-1.03397
763,-328,0,0,0,0,0,0,0,0,0,-1,1987,1352,0,0
770,-328,0,0,0,0,0,0,0,0,0,-1,1994,1352,0,0
777,-328,0,0,0,0,0,0,0,0,0,-1,2001,1352,0,0
784,-328,0,0,0,0,0,0,0,0,0,-1,2008,1352,0,0
791,-328,0,0,0,0,0,0,0,0,0,-1,2015,1352,0,0
798,-328,0,0,0,0,0,0,0,0,0,-1,2022,1352,0,0
805,-328,0,0,0,0,0,0,0,0,0,-1,2029,1352,0,0
812,-328,0,0,0,0,0,0,0,0,0,-1,2036,1352,0,0
-700,-335,0,0,0,0,0,0,0,0,0,-1,524,1359,0,0
-693,-335,0,0,0,0,0,0,0,0,0,-1,531,1359,0,0
-686,-335,0,0,0,0,0,0,0,0,0,-1,538,1359,0,0
-679,-335,0,0,0,0,0,0,0,0,0,-1,545,1359,0,0
-672,-335,0,0,0,0,0,0,0,0,0,-1,552,1359,0,0
-665,-335,0,0,0,0,0,0,0,0,0,-1,559,1359,0,0
-658,-335,0,0,0,0,0,0,0,0,0,-1,566,1359,0,0
-651,-335,0,0,0,0,0,0,0,0,0,-1,573,1359,0,0
-644,-335,0,0,0,0,0,0,0,0,0,-1,580,1359,0,0
-637,-335,-0.737305,-7.203,0,0,0,0,0,0,0,-1,587,1359,-0.737311,7.203
-630,-335,-2.73553,-1.6637,0,0,0,0,0,0,0,-1,594,1359,-2.73551,1.66371
-623,-335,-0.680237,-3.17407,0,0,0,0,0,0,0,-1,601,1359,-0.680255,3.17403
-616,-335,-2.09314,-1.29834,0,0,0,0,0,0,0,-1,608,1359,-2.09311,1.29831
-609,-335,-1.44324,0.67627,0,0,0,0,0,0,0,-1,615,1359,-1.44323,-0.676326
-602,-335,-1.4325,0.250122,0.0198171,0.0491855,0.0160924,0.0562864,0.0127163,1.15524,0.0340856,0.04794,622,1359,-1.43247,-0.250169
-595,-335,-1.58112,0.433472,0.014054,0.0359424,0.0129908,0.0419846,0.00801182,1.13545,0.0257382,0.0431396,629,1359,-1.58114,-0.433489
-588,-335,-1.65173,1.08899,0.00948058,0.0254412,0.0101374,0.0303626,0.00455925,1.11885,0.0189061,0.0298654,636,1359,-1.65171,-1.08904
-581,-335,-1.68115,1.17139,0.00550416,0.0167505,0.00768497,0.0206499,0.00160479,1.10124,0.013264,0.0149253,643,1359,-1.68118,-1.17136
-574,-335,-1.68262,1.2793,0.00360821,0.0108209,0.00542645,0.0137301,0.000699041,1.07868,0.00892952,0.0113871,650,1359,-1.68263,-1.27924
-567,-335,-1.66284,1.36475,0.00199701,0.00659312,0.00347621,0.00846221,0.000127926,1.07746,0.00559932,0.0154946,657,1359,-1.66281,-1.36478
-560,-335,-1.6709,1.41687,0.000737368,0.0028388,0.00161835,0.00371761,-0.000141441,1.07332,0.00252687,0.0241138,664,1359,-1.67092,-1.41692
-553,-335,-1.73273,1.50769,0.000211296,0.000936983,0.00019243,0.000984852,0.000163427,1.32698,0.000609441,0.0261523,671,1359,-1.73275,-1.50774
-546,-335,-1.75952,1.59802,0.000309027,-0.000857745,-0.00100822,0.000890481,-0.0014392,-0.52312,0.00135742,0.0229388,678,1359,-1.75955,-1.59803
-539,-335,-1.72406,1.68506,0.000695408,-0.00160346,-0.00247689,0.00227657,-0.00318463,-0.568154,0.00316752,0.0205036,685,1359,-1.72405,-1.68507
-532,-335,-1.69836,1.80408,0.00119091,-0.00171711,-0.00412303,0.0041088,-0.004635,-0.615879,0.00505128,0.0165344,692,1359,-1.69838,-1.80402
-525,-335,-1.6748,1.89404,0.00167558,-0.00154671,-0.00639848,0.00666264,-0.00653377,-0.662062,0.00761907,0.0108143,699,1359,-1.6748,-1.89408
-518,-335,-1.70227,1.98145,0.00237845,-0.000826641,-0.00907667,0.00999296,-0.00844115,-0.69802,0.0106555,0.0140428,706,1359,-1.7023,-1.98144
-511,-335,-1.77454,1.93701,0.0031122,0.000449927,-0.0122713,0.0141244,-0.0105623,-0.731372,0.0143022,0.0345061,713,1359,-1.77452,-1.93705
-504,-335,-1.89136,1.8606,0.00375988,0.00277606,-0.0162067,0.0194821,-0.0129462,-0.770227,0.0188488,0.0485231,720,1359,-1.89133,-1.86056
-497,-335,-2.01239,1.84509,0,0,0,0,0,0,0,-1,727,1359,-2.01239,-1.84514
-490,-335,-1.31812,1.50146,0,0,0,0,0,0,0,-1,734,1359,-1.31809,-1.50151
-483,-335,-1.51276,3.60059,0,0,0,0,0,0,0,-1,741,1359,-1.51276,-3.60064
-476,-335,-1.59338,4.17505,0,0,0,0,0,0,0,-1,748,1359,-1.59336,-4.17507
-469,-335,-1.65112,3.18567,0,0,0,0,0,0,0,-1,755,1359,-1.65114,-3.18566
-462,-335,0.478455,1.23108,0,0,0,0,0,0,0,-1,762,1359,0.478448,-1.23108
-455,-335,2.39368,0.0205078,0,0,0,0,0,0,0,-1,769,1359,2.39369,-0.0205471
-448,-335,0,0,0,0,0,0,0,0,0,-1,776,1359,0,0
-441,-335,0,0,0,0,0,0,0,0,0,-1,783,1359,0,0
-434,-335,0,0,0,0,0,0,0,0,0,-1,790,1359,0,0
-427,-335,0,0,0,0,0,0,0,0,0,-1,797,1359,0,0
-420,-335,0,0,0,0,0,0,0,0,0,-1,804,1359,0,0
-413,-335,0,0,0,0,0,0,0,0,0,-1,811,1359,0,0
-406,-335,0,0,0,0,0,0,0,0,0,-1,818,1359,0,0
-399,-335,0,0,0,0,0,0,0,0,0,-1,825,1359,0,0
-392,-335,0,0,0,0,0,0,0,0,0,-1,832,1359,0,0
-385,-335,0,0,0,0,0,0,0,0,0,-1,839,1359,0,0
-378,-335,0,0,0,0,0,0,0,0,0,-1,846,1359,0,0
-371,-335,0,0,0,0,0,0,0,0,0,-1,853,1359,0,0
-364,-335,0,0,0,0,0,0,0,0,0,-1,860,1359,0,0
-357,-335,0,0,0,0,0,0,0,0,0,-1,867,1359,0,0
-350,-335,0,0,0,0,0,0,0,0,0,-1,874,1359,0,0
-343,-335,0,0,0,0,0,0,0,0,0,-1,881,1359,0,0
-336,-335,0,0,0,0,0,0,0,0,0,-1,888,1359,0,0
-329,-335,0,0,0,0,0,0,0,0,0,-1,895,1359,0,0
-322,-335,0,0,0,0,0,0,0,0,0,-1,902,1359,0,0
-315,-335,0,0,0,0,0,0,0,0,0,-1,909,1359,0,0
-308,-335,0,0,0,0,0,0,0,0,0,-1,916,1359,0,0
-301,-335,0,0,0,0,0,0,0,0,0,-1,923,1359,0,0
-294,-335,0,0,0,0,0,0,0,0,0,-1,930,1359,0,0
-287,-335,0,0,0,0,0,0,0,0,0,-1,937,1359,0,0
-280,-335,0,0,0,0,0,0,0,0,0,-1,944,1359,0,0
-273,-335,0,0,0,0,0,0,0,0,0,-1,951,1359,0,0
-266,-335,0,0,0,0,0,0,0,0,0,-1,958,1359,0,0
-259,-335,0,0,0,0,0,0,0,0,0,-1,965,1359,0,0
-252,-335,0,0,0,0,0,0,0,0,0,-1,972,1359,0,0
-245,-335,0,0,0,0,0,0,0,0,0,-1,979,1359,0,0
-238,-335,0,0,0,0,0,0,0,0,0,-1,986,1359,0,0
-231,-335,0,0,0,0,0,0,0,0,0,-1,993,1359,0,0
-224,-335,0,0,0,0,0,0,0,0,0,-1,1000,1359,0,0
-217,-335,0,0,0,0,0,0,0,0,0,-1,1007,1359,0,0
-210,-335,0,0,0,0,0,0,0,0,0,-1,1014,1359,0,0
-203,-335,0,0,0,0,0,0,0,0,0,-1,1021,1359,0,0
-196,-335,0,0,0,0,0,0,0,0,0,-1,1028,1359,0,0
-189,-335,0,0,0,0,0,0,0,0,0,-1,1035,1359,0,0
-182,-335,0,0,0,0,0,0,0,0,0,-1,1042,1359,0,0
-175,-335,0,0,0,0,0,0,0,0,0,-1,1049,1359,0,0
-168,-335,0,0,0,0,0,0,0,0,0,-1,1056,1359,0,0
-161,-335,0,0,0,0,0,0,0,0,0,-1,1063,1359,0,0
-154,-335,0,0,0,0,0,0,0,0,0,-1,1070,1359,0,0
-147,-335,0,0,0,0,0,0,0,0,0,-1,1077,1359,0,0
-140,-335,0,0,0,0,0,0,0,0,0,-1,1084,1359,0,0
-133,-335,0,0,0,0,0,0,0,0,0,-1,1091,1359,0,0
-126,-335,0,0,0,0,0,0,0,0,0,-1,1098,1359,0,0
-119,-335,0,0,0,0,0,0,0,0,0,-1,1105,1359,0,0
-112,-335,0,0,0,0,0,0,0,0,0,-1,1112,1359,0,0
-105,-335,0,0,0,0,0,0,0,0,0,-1,1119,1359,0,0
-98,-335,0,0,0,0,0,0,0,0,0,-1,1126,1359,0,0
-91,-335,0,0,0,0,0,0,0,0,0,-1,1133,1359,0,0
-84,-335,0,0,0,0,0,0,0,0,0,-1,1140,1359,0,0
-77,-335,0,0,0,0,0,0,0,0,0,-1,1147,1359,0,0
-70,-335,0,0,0,0,0,0,0,0,0,-1,1154,1359,0,0
-63,-335,0,0,0,0,0,0,0,0,0,-1,1161,1359,0,0
-56,-335,0,0,0,0,0,0,0,0,0,-1,1168,1359,0,0
-49,-335,0,0,0,0,0,0,0,0,0,-1,1175,1359,0,0
-42,-335,0,0,0,0,0,0,0,0,0,-1,1182,1359,0,0
-35,-335,0,0,0,0,0,0,0,0,0,-1,1189,1359,0,0
-28,-335,0,0,0,0,0,0,0,0,0,-1,1196,1359,0,0
-21,-335,0,0,0,0,0,0,0,0,0,-1,1203,1359,0,0
-14,-335,0,0,0,0,0,0,0,0,0,-1,1210,1359,0,0
-7,-335,0,0,0,0,0,0,0,0,0,-1,1217,1359,0,0
0,-335,0,0,0,0,0,0,0,0,0,-1,1224,1359,0,0
7,-335,0,0,0,0,0,0,0,0,0,-1,1231,1359,0,0
14,-335,0,0,0,0,0,0,0,0,0,-1,1238,1359,0,0
21,-335,0,0,0,0,0,0,0,0,0,-1,1245,1359,0,0
28,-335,0,0,0,0,0,0,0,0,0,-1,1252,1359,0,0
35,-335,0,0,0,0,0,0,0,0,0,-1,1259,1359,0,0
42,-335,0,0,0,0,0,0,0,0,0,-1,1266,1359,0,0
49,-335,0,0,0,0,0,0,0,0,0,-1,1273,1359,0,0
56,-335,0,0,0,0,0,0,0,0,0,-1,1280,1359,0,0
63,-335,0,0,0,0,0,0,0,0,0,-1,1287,1359,0,0
70,-335,0,0,0,0,0,0,0,0,0,-1,1294,1359,0,0
77,-335,0,0,0,0,0,0,0,0,0,-1,1301,1359,0,0
84,-335,0,0,0,0,0,0,0,0,0,-1,1308,1359,0,0
91,-335,0,0,0,0,0,0,0,0,0,-1,1315,1359,0,0
98,-335,0,0,0,0,0,0,0,0,0,-1,1322,1359,0,0
105,-335,0,0,0,0,0,0,0,0,0,-1,1329,1359,0,0
112,-335,0,0,0,0,0,0,0,0,0,-1,1336,1359,0,0
119,-335,0,0,0,0,0,0,0,0,0,-1,1343,1359,0,0
126,-335,0,0,0,0,0,0,0,0,0,-1,1350,1359,0,0
133,-335,0,0,0,0,0,0,0,0,0,-1,1357,1359,0,0
140,-335,0,0,0,0,0,0,0,0,0,-1,1364,1359,0,0
147,-335,0,0,0,0,0,0,0,0,0,-1,1371,1359,0,0
154,-335,0,0,0,0,0,0,0,0,0,-1,1378,1359,0,0
161,-335,0,0,0,0,0,0,0,0,0,-1,1385,1359,0,0
168,-335,0,0,0,0,0,0,0,0,0,-1,1392,1359,0,0
175,-335,0,0,0,0,0,0,0,0,0,-1,1399,1359,0,0
182,-335,0,0,0,0,0,0,0,0,0,-1,1406,1359,0,0
189,-335,0,0,0,0,0,0,0,0,0,-1,1413,1359,0,0
196,-335,0,0,0,0,0,0,0,0,0,-1,1420,1359,0,0
203,-335,0,0,0,0,0,0,0,0,0,-1,1427,1359,0,0
210,-335,0,0,0,0,0,0,0,0,0,-1,1434,1359,0,0
217,-335,0,0,0,0,0,0,0,0,0,-1,1441,1359,0,0
224,-335,0,0,0,0,0,0,0,0,0,-1,1448,1359,0,0
231,-335,0,0,0,0,0,0,0,0,0,-1,1455,1359,0,0
238,-335,0,0,0,0,0,0,0,0,0,-1,1462,1359,0,0
245,-335,0,0,0,0,0,0,0,0,0,-1,1469,1359,0,0
252,-335,0,0,0,0,0,0,0,0,0,-1,1476,1359,0,0
259,-335,0,0,0,0,0,0,0,0,0,-1,1483,1359,0,0
266,-335,0,0,0,0,0,0,0,0,0,-1,1490,1359,0,0
273,-335,0,0,0,0,0,0,0,0,0,-1,1497,1359,0,0
280,-335,0,0,0,0,0,0,0,0,0,-1,1504,1359,0,0
287,-335,0,0,0,0,0,0,0,0,0,-1,1511,1359,0,0
294,-335,0,0,0,0,0,0,0,0,0,-1,1518,1359,0,0
301,-335,0,0,0,0,0,0,0,0,0,-1,1525,1359,0,0
308,-335,0,0,0,0,0,0,0,0,0,-1,1532,1359,0,0
315,-335,0,0,0,0,0,0,0,0,0,-1,1539,1359,0,0
322,-335,0,0,0,0,0,0,0,0,0,-1,1546,1359,0,0
329,-335,0,0,0,0,0,0,0,0,0,-1,1553,1359,0,0
336,-335,0,0,0,0,0,0,0,0,0,-1,1560,1359,0,0
343,-335,0,0,0,0,0,0,0,0,0,-1,1567,1359,0,0
350,-335,0,0,0,0,0,0,0,0,0,-1,1574,1359,0,0
357,-335,0,0,0,0,0,0,0,0,0,-1,1581,1359,0,0
364,-335,0,0,0,0,0,0,0,0,0,-1,1588,1359,0,0
371,-335,0,0,0,0,0,0,0,0,0,-1,1595,1359,0,0
378,-335,0,0,0,0,0,0,0,0,0,-1,1602,1359,0,0
385,-335,0,0,0,0,0,0,0,0,0,-1,1609,1359,0,0
392,-335,0,0,0,0,0,0,0,0,0,-1,1616,1359,0,0
399,-335,0,0,0,0,0,0,0,0,0,-1,1623,1359,0,0
406,-335,0,0,0,0,0,0,0,0,0,-1,1630,1359,0,0
413,-335,0,0,0,0,0,0,0,0,0,-1,1637,1359,0,0
420,-335,0,0,0,0,0,0,0,0,0,-1,1644,1359,0,0
427,-335,0,0,0,0,0,0,0,0,0,-1,1651,1359,0,0
434,-335,0,0,0,0,0,0,0,0,0,-1,1658,1359,0,0
441,-335,0,0,0,0,0,0,0,0,0,-1,1665,1359,0,0
448,-335,0,0,0,0,0,0,0,0,0,-1,1672,1359,0,0
455,-335,0,0,0,0,0,0,0,0,0,-1,1679,1359,0,0
462,-335,0,0,0,0,0,0,0,0,0,-1,1686,1359,0,0
469,-335,0,0,0,0,0,0,0,0,0,-1,1693,1359,0,0
476,-335,0,0,0,0,0,0,0,0,0,-1,1700,1359,0,0
483,-335,0,0,0,0,0,0,0,0,0,-1,1707,1359,0,0
490,-335,0,0,0,0,0,0,0,0,0,-1,1714,1359,0,0
497,-335,0,0,0,0,0,0,0,0,0,-1,1721,1359,0,0
504,-335,0,0,0,0,0,0,0,0,0,-1,1728,1359,0,0
511,-335,0,0,0,0,0,0,0,0,0,-1,1735,1359,0,0
518,-335,0,0,0,0,0,0,0,0,0,-1,1742,1359,0,0
525,-335,0,0,0,0,0,0,0,0,0,-1,1749,1359,0,0
532,-335,0,0,0,0,0,0,0,0,0,-1,1756,1359,0,0
539,-335,0,0,0,0,0,0,0,0,0,-1,1763,1359,0,0
546,-335,0,0,0,0,0,0,0,0,0,-1,1770,1359,0,0
553,-335,0,0,0,0,0,0,0,0,0,-1,1777,1359,0,0
560,-335,0,0,0,0,0,0,0,0,0,-1,1784,1359,0,0
567,-335,0,0,0,0,0,0,0,0,0,-1,1791,1359,0,0
574,-335,9.48499,3.24768,0,0,0,0,0,0,0,-1,1798,1359,9.48501,-3.24771
581,-335,10.8259,3.36267,0.122048,0.0198966,-0.0110529,0.12323,0.0187143,-0.106558,0.0766802,0.0475719,1805,1359,10.8259,-3.36269
588,-335,12.1766,3.73352,0.0872907,0.0138423,-0.0226796,0.0937294,0.00740365,-0.276618,0.0601704,0.0470991,1812,1359,12.1766,-3.73356
595,-335,13.6976,3.90503,0,0,0,0,0,0,0,-1,1819,1359,13.6976,-3.90499
602,-335,7.58423,1.73572,0,0,0,0,0,0,0,-1,1826,1359,7.58423,-1.73569
609,-335,9.16748,4.31213,0,0,0,0,0,0,0,-1,1833,1359,9.16752,-4.31213
616,-335,7.24146,0.896973,0,0,0,0,0,0,0,-1,1840,1359,7.24149,-0.897005
623,-335,7.71399,2.51331,0,0,0,0,0,0,0,-1,1847,1359,7.71394,-2.51329
630,-335,7.62048,2.49695,0,0,0,0,0,0,0,-1,1854,1359,7.62046,-2.49692
637,-335,7.5282,2.64832,0,0,0,0,0,0,0,-1,1861,1359,7.5282,-2.64836
644,-335,7.49316,2.67395,-0.0117383,-9.34337e-05,-0.00684701,0.00307203,-0.0149038,-1.13775,0.0111024,0.0345998,1868,1359,7.49318,-2.67401
651,-335,7.38818,2.60767,-0.00779958,-0.000310857,-0.00154779,-3.56371e-06,-0.00810687,-1.37481,0.00540339,0.0143584,1875,1359,7.38813,-2.60771
658,-335,7.37134,2.53479,-0.00431993,-0.000458952,0.00458676,0.00258702,-0.0073659,0.984587,0.00596303,0.0123368,1882,1359,7.37135,-2.53478
665,-335,7.38513,2.44287,-0.00185436,-0.000671051,0.00628465,0.00504974,-0.00757514,0.832331,0.00733742,0.0140356,1889,1359,7.38512,-2.44291
672,-335,7.36926,2.37097,-0.00046883,-0.00055215,0.00471397,0.00420366,-0.00522464,0.780979,0.00545406,0.0163508,1896,1359,7.3693,-2.371
679,-335,7.35388,2.31421,0.00100731,-0.00100025,0.00286329,0.00303767,-0.00303061,0.616807,0.00350352,0.0148162,1903,1359,7.35393,-2.31426
686,-335,7.38879,2.21997,0.00275284,-0.00112047,0.00154491,0.00329356,-0.00166119,0.336675,0.00291192,0.0114229,1910,1359,7.38885,-2.21994
693,-335,7.40527,2.11072,0.00413331,-0.00137306,0.000284431,0.00414797,-0.00138771,0.0514724,0.00332583,0.00987011,1917,1359,7.4053,-2.11076
700,-335,7.3905,2.06531,0.00472446,-0.000970151,-0.000613222,0.00478975,-0.00103544,-0.106064,0.00358846,0.0108503,1924,1359,7.39051,-2.06528
707,-335,7.36389,1.99829,0.00438851,-0.000577126,-0.00161917,0.00486983,-0.00105844,-0.288943,0.00365087,0.01388,1931,1359,7.3639,-1.99831
714,-335,7.37561,1.90381,0.0043665,-0.000426782,-0.00282672,0.00567583,-0.00173612,-0.433776,0.00447626,0.0152531,1938,1359,7.37565,-1.90381
721,-335,7.34583,1.78247,0.00345122,-6.59891e-06,-0.00420579,0.0062696,-0.00282497,-0.590388,0.00537483,0.030762,1945,1359,7.34578,-1.78248
728,-335,7.47119,1.75098,0,0,0,0,0,0,0,-1,1952,1359,7.47124,-1.75094
735,-335,7.81311,1.07788,0,0,0,0,0,0,0,-1,1959,1359,7.81309,-1.0779
742,-335,9.45203,2.53259,0,0,0,0,0,0,0,-1,1966,1359,9.45208,-2.53261
749,-335,8.18506,1.72913,-0.0240957,0.00442285,-0.0171688,0.0124816,-0.0321545,-1.13194,0.0265919,0.0445886,1973,1359,8.18501,-1.72914
756,-335,6.80432,1.01965,-0.0407657,0.00585387,-0.0233432,0.0155328,-0.0504446,-1.17774,0.03983,0.0451558,1980,1359,6.8043,-1.0196
763,-335,0,0,0,0,0,0,0,0,0,-1,1987,1359,0,0
770,-335,0,0,0,0,0,0,0,0,0,-1,1994,1359,0,0
777,-335,0,0,0,0,0,0,0,0,0,-1,2001,1359,0,0
784,-335,0,0,0,0,0,0,0,0,0,-1,2008,1359,0,0
791,-335,0,0,0,0,0,0,0,0,0,-1,2015,1359,0,0
798,-335,0,0,0,0,0,0,0,0,0,-1,2022,1359,0,0
805,-335,0,0,0,0,0,0,0,0,0,-1,2029,1359,0,0
812,-335,0,0,0,0,0,0,0,0,0,-1,2036,1359,0,0
-700,-342,0,0,0,0,0,0,0,0,0,-1,524,1366,0,0
-693,-342,0,0,0,0,0,0,0,0,0,-1,531,1366,0,0
-686,-342,0,0,0,0,0,0,0,0,0,-1,538,1366,0,0
-679,-342,0,0,0,0,0,0,0,0,0,-1,545,1366,0,0
-672,-342,0,0,0,0,0,0,0,0,0,-1,552,1366,0,0
-665,-342,0,0,0,0,0,0,0,0,0,-1,559,1366,0,0
-658,-342,0,0,0,0,0,0,0,0,0,-1,566,1366,0,0
-651,-342,0,0,0,0,0,0,0,0,0,-1,573,1366,0,0
-644,-342,0,0,0,0,0,0,0,0,0,-1,580,1366,0,0
-637,-342,-2.60107,-3.10803,0,0,0,0,0,0,0,-1,587,1366,-2.60106,3.10798
-630,-342,-2.27515,-2.50476,0.0542496,0.137787,0.0309686,0.148015,0.0440214,1.2518,0.0877639,0.0448425,594,1366,-2.27515,2.50475
-623,-342,-2.08392,-1.88232,0.0422327,0.110698,0.0296679,0.121765,0.0311657,1.21375,0.0730392,0.0445007,601,1366,-2.08393,1.88236
-616,-342,-1.84637,-1.4231,0.032909,0.0877404,0.026664,0.0985685,0.0220809,1.18505,0.0597284,0.0468777,608,1366,-1.84635,1.42315
-609,-342,-1.67426,-0.870117,0.0254331,0.0683154,0.02288,0.0782305,0.015518,1.16187,0.0478277,0.0478242,615,1366,-1.67423,0.870133
-602,-342,-1.45911,-0.385376,0.0192411,0.0519921,0.0188757,0.0606056,0.0106276,1.14269,0.0373684,0.0464845,622,1366,-1.45909,0.38541
-595,-342,-1.46429,0.11792,0.0140991,0.0385141,0.0149768,0.0456284,0.0069849,1.12734,0.0283786,0.0420169,629,1366,-1.46432,-0.117873
-588,-342,-1.55145,1.02771,0.00982212,0.027595,0.0114788,0.0332251,0.00419198,1.11479,0.0208934,0.0376346,636,1366,-1.55147,-1.02767
-581,-342,-1.5824,1.12244,0.00598798,0.0185014,0.00852965,0.0228231,0.00166635,1.10184,0.0146915,0.0230382,643,1366,-1.58241,-1.12245
-574,-342,-1.60217,1.27539,0.00393719,0.0119365,0.0059562,0.0151113,0.000762325,1.08107,0.00982996,0.00931157,650,1366,-1.60217,-1.27538
-567,-342,-1.56897,1.3573,0.0022225,0.00734599,0.00378502,0.00935469,0.000213804,1.08289,0.00616643,0.0152504,657,1366,-1.56895,-1.35725
-560,-342,-1.61328,1.40771,0.000851361,0.00332456,0.00181008,0.00428012,-0.000104201,1.08507,0.00288877,0.0238353,664,1366,-1.61329,-1.40767
-553,-342,-1.65344,1.50867,0.000179192,0.00136733,0.000349354,0.00146244,8.40833e-05,1.305,0.000948173,0.0267945,671,1366,-1.65345,-1.50862
-546,-342,-1.63086,1.61743,0.000115027,-0.00049508,-0.000805123,0.00067095,-0.001051,-0.604309,0.00100221,0.0258168,678,1366,-1.63089,-1.61745
-539,-342,-1.59906,1.72156,0.000487882,-0.00128109,-0.00220487,0.00197905,-0.00277226,-0.594649,0.00275589,0.0225293,685,1366,-1.59903,-1.72152
-532,-342,-1.59253,1.81506,0.000988923,-0.00150528,-0.00376743,0.0037103,-0.00422666,-0.625564,0.00458564,0.0178959,692,1366,-1.59253,-1.81504
-525,-342,-1.58722,1.90942,0.00142479,-0.00151517,-0.00578991,0.00592841,-0.00601879,-0.661082,0.00689779,0.0109234,699,1366,-1.58722,-1.90937
-518,-342,-1.59814,2.01233,0.00209202,-0.00102799,-0.0081937,0.0088729,-0.00780886,-0.691328,0.00963775,0.00969498,706,1366,-1.59814,-2.01229
-511,-342,-1.60815,2.02368,0.00282133,-3.83414e-05,-0.0111124,0.0125955,-0.00981254,-0.721415,0.0129705,0.0243602,713,1366,-1.60818,-2.02373
-504,-342,-1.44586,1.64661,0.00352166,0.00187989,-0.0147508,0.0174744,-0.0120729,-0.757602,0.0171539,0.0432279,720,1366,-1.44586,-1.64659
-497,-342,-1.2132,1.2124,0,0,0,0,0,0,0,-1,727,1366,-1.2132,-1.21237
-490,-342,-1.08386,1.11926,0,0,0,0,0,0,0,-1,734,1366,-1.08384,-1.1192
-483,-342,-0.802185,2.39868,0,0,0,0,0,0,0,-1,741,1366,-0.802213,-2.39874
-476,-342,-1.81219,3.70776,0,0,0,0,0,0,0,-1,748,1366,-1.81221,-3.70773
-469,-342,-1.92609,2.57935,0,0,0,0,0,0,0,-1,755,1366,-1.92611,-2.57939
-462,-342,0.371094,1.21667,0,0,0,0,0,0,0,-1,762,1366,0.371067,-1.21662
-455,-342,2.04327,-0.118408,0,0,0,0,0,0,0,-1,769,1366,2.04326,0.118442
-448,-342,3.65186,-1.45264,0,0,0,0,0,0,0,-1,776,1366,3.65183,1.45259
-441,-342,0,0,0,0,0,0,0,0,0,-1,783,1366,0,0
-434,-342,0,0,0,0,0,0,0,0,0,-1,790,1366,0,0
-427,-342,0,0,0,0,0,0,0,0,0,-1,797,1366,0,0
-420,-342,0,0,0,0,0,0,0,0,0,-1,804,1366,0,0
-413,-342,0,0,0,0,0,0,0,0,0,-1,811,1366,0,0
-406,-342,0,0,0,0,0,0,0,0,0,-1,818,1366,0,0
-399,-342,0,0,0,0,0,0,0,0,0,-1,825,1366,0,0
-392,-342,0,0,0,0,0,0,0,0,0,-1,832,1366,0,0
-385,-342,0,0,0,0,0,0,0,0,0,-1,839,1366,0,0
-378,-342,0,0,0,0,0,0,0,0,0,-1,846,1366,0,0
-371,-342,0,0,0,0,0,0,0,0,0,-1,853,1366,0,0
-364,-342,0,0,0,0,0,0,0,0,0,-1,860,1366,0,0
-357,-342,0,0,0,0,0,0,0,0,0,-1,867,1366,0,0
-350,-342,0,0,0,0,0,0,0,0,0,-1,874,1366,0,0
-343,-342,0,0,0,0,0,0,0,0,0,-1,881,1366,0,0
-336,-342,0,0,0,0,0,0,0,0,0,-1,888,1366,0,0
-329,-342,0,0,0,0,0,0,0,0,0,-1,895,1366,0,0
-322,-342,0,0,0,0,0,0,0,0,0,-1,902,1366,0,0
-315,-342,0,0,0,0,0,0,0,0,0,-1,909,1366,0,0
-308,-342,0,0,0,0,0,0,0,0,0,-1,916,1366,0,0
-301,-342,0,0,0,0,0,0,0,0,0,-1,923,1366,0,0
-294,-342,0,0,0,0,0,0,0,0,0,-1,930,1366,0,0
-287,-342,0,0,0,0,0,0,0,0,0,-1,937,1366,0,0
-280,-342,0,0,0,0,0,0,0,0,0,-1,944,1366,0,0
-273,-342,0,0,0,0,0,0,0,0,0,-1,951,1366,0,0
-266,-342,0,0,0,0,0,0,0,0,0,-1,958,1366,0,0
-259,-342,0,0,0,0,0,0,0,0,0,-1,965,1366,0,0
-252,-342,0,0,0,0,0,0,0,0,0,-1,972,1366,0,0
-245,-342,0,0,0,0,0,0,0,0,0,-1,979,1366,0,0
-238,-342,0,0,0,0,0,0,0,0,0,-1,986,1366,0,0
-231,-342,0,0,0,0,0,0,0,0,0,-1,993,1366,0,0
-224,-342,0,0,0,0,0,0,0,0,0,-1,1000,1366,0,0
-217,-342,0,0,0,0,0,0,0,0,0,-1,1007,1366,0,0
-210,-342,0,0,0,0,0,0,0,0,0,-1,1014,1366,0,0
-203,-342,0,0,0,0,0,0,0,0,0,-1,1021,1366,0,0
-196,-342,0,0,0,0,0,0,0,0,0,-1,1028,1366,0,0
-189,-342,0,0,0,0,0,0,0,0,0,-1,1035,1366,0,0
-182,-342,0,0,0,0,0,0,0,0,0,-1,1042,1366,0,0
-175,-342,0,0,0,0,0,0,0,0,0,-1,1049,1366,0,0
-168,-342,0,0,0,0,0,0,0,0,0,-1,1056,1366,0,0
-161,-342,0,0,0,0,0,0,0,0,0,-1,1063,1366,0,0
-154,-342,0,0,0,0,0,0,0,0,0,-1,1070,1366,0,0
-147,-342,0,0,0,0,0,0,0,0,0,-1,1077,1366,0,0
-140,-342,0,0,0,0,0,0,0,0,0,-1,1084,1366,0,0
-133,-342,0,0,0,0,0,0,0,0,0,-1,1091,1366,0,0
-126,-342,0,0,0,0,0,0,0,0,0,-1,1098,1366,0,0
-119,-342,0,0,0,0,0,0,0,0,0,-1,1105,1366,0,0
-112,-342,0,0,0,0,0,0,0,0,0,-1,1112,1366,0,0
-105,-342,0,0,0,0,0,0,0,0,0,-1,1119,1366,0,0
-98,-342,0,0,0,0,0,0,0,0,0,-1,1126,1366,0,0
-91,-342,0,0,0,0,0,0,0,0,0,-1,1133,1366,0,0
-84,-342,0,0,0,0,0,0,0,0,0,-1,1140,1366,0,0
-77,-342,0,0,0,0,0,0,0,0,0,-1,1147,1366,0,0
-70,-342,0,0,0,0,0,0,0,0,0,-1,1154,1366,0,0
-63,-342,0,0,0,0,0,0,0,0,0,-1,1161,1366,0,0
-56,-342,0,0,0,0,0,0,0,0,0,-1,1168,1366,0,0
-49,-342,0,0,0,0,0,0,0,0,0,-1,1175,1366,0,0
-42,-342,0,0,0,0,0,0,0,0,0,-1,1182,1366,0,0
-35,-342,0,0,0,0,0,0,0,0,0,-1,1189,1366,0,0
-28,-342,0,0,0,0,0,0,0,0,0,-1,1196,1366,0,0
-21,-342,0,0,0,0,0,0,0,0,0,-1,1203,1366,0,0
-14,-342,0,0,0,0,0,0,0,0,0,-1,1210,1366,0,0
-7,-342,0,0,0,0,0,0,0,0,0,-1,1217,1366,0,0
0,-342,0,0,0,0,0,0,0,0,0,-1,1224,1366,0,0
7,-342,0,0,0,0,0,0,0,0,0,-1,1231,1366,0,0
14,-342,0,0,0,0,0,0,0,0,0,-1,1238,1366,0,0
21,-342,0,0,0,0,0,0,0,0,0,-1,1245,1366,0,0
28,-342,0,0,0,0,0,0,0,0,0,-1,1252,1366,0,0
35,-342,0,0,0,0,0,0,0,0,0,-1,1259,1366,0,0
42,-342,0,0,0,0,0,0,0,0,0,-1,1266,1366,0,0
49,-342,0,0,0,0,0,0,0,0,0,-1,1273,1366,0,0
56,-342,0,0,0,0,0,0,0,0,0,-1,1280,1366,0,0
63,-342,0,0,0,0,0,0,0,0,0,-1,1287,1366,0,0
70,-342,0,0,0,0,0,0,0,0,0,-1,1294,1366,0,0
77,-342,0,0,0,0,0,0,0,0,0,-1,1301,1366,0,0
84,-342,0,0,0,0,0,0,0,0,0,-1,1308,1366,0,0
91,-342,0,0,0,0,0,0,0,0,0,-1,1315,1366,0,0
98,-342,0,0,0,0,0,0,0,0,0,-1,1322,1366,0,0
105,-342,0,0,0,0,0,0,0,0,0,-1,1329,1366,0,0
112,-342,0,0,0,0,0,0,0,0,0,-1,1336,1366,0,0
119,-342,0,0,0,0,0,0,0,0,0,-1,1343,1366,0,0
126,-342,0,0,0,0,0,0,0,0,0,-1,1350,1366,0,0
133,-342,0,0,0,0,0,0,0,0,0,-1,1357,1366,0,0
140,-342,0,0,0,0,0,0,0,0,0,-1,1364,1366,0,0
147,-342,0,0,0,0,0,0,0,0,0,-1,1371,1366,0,0
154,-342,0,0,0,0,0,0,0,0,0,-1,1378,1366,0,0
161,-342,0,0,0,0,0,0,0,0,0,-1,1385,1366,0,0
168,-342,0,0,0,0,0,0,0,0,0,-1,1392,1366,0,0
175,-342,0,0,0,0,0,0,0,0,0,-1,1399,1366,0,0
182,-342,0,0,0,0,0,0,0,0,0,-1,1406,1366,0,0
189,-342,0,0,0,0,0,0,0,0,0,-1,1413,1366,0,0
196,-342,0,0,0,0,0,0,0,0,0,-1,1420,1366,0,0
203,-342,0,0,0,0,0,0,0,0,0,-1,1427,1366,0,0
210,-342,0,0,0,0,0,0,0,0,0,-1,1434,1366,0,0
217,-342,0,0,0,0,0,0,0,0,0,-1,1441,1366,0,0
224,-342,0,0,0,0,0,0,0,0,0,-1,1448,1366,0,0
231,-342,0,0,0,0,0,0,0,0,0,-1,1455,1366,0,0
238,-342,0,0,0,0,0,0,0,0,0,-1,1462,1366,0,0
245,-342,0,0,0,0,0,0,0,0,0,-1,1469,1366,0,0
252,-342,0,0,0,0,0,0,0,0,0,-1,1476,1366,0,0
259,-342,0,0,0,0,0,0,0,0,0,-1,1483,1366,0,0
266,-342,0,0,0,0,0,0,0,0,0,-1,1490,1366,0,0
273,-342,0,0,0,0,0,0,0,0,0,-1,1497,1366,0,0
280,-342,0,0,0,0,0,0,0,0,0,-1,1504,1366,0,0
287,-342,0,0,0,0,0,0,0,0,0,-1,1511,1366,0,0
294,-342,0,0,0,0,0,0,0,0,0,-1,1518,1366,0,0
301,-342,0,0,0,0,0,0,0,0,0,-1,1525,1366,0,0
308,-342,0,0,0,0,0,0,0,0,0,-1,1532,1366,0,0
315,-342,0,0,0,0,0,0,0,0,0,-1,1539,1366,0,0
322,-342,0,0,0,0,0,0,0,0,0,-1,1546,1366,0,0
329,-342,0,0,0,0,0,0,0,0,0,-1,1553,1366,0,0
336,-342,0,0,0,0,0,0,0,0,0,-1,1560,1366,0,0
343,-342,0,0,0,0,0,0,0,0,0,-1,1567,1366,0,0
350,-342,0,0,0,0,0,0,0,0,0,-1,1574,1366,0,0
357,-342,0,0,0,0,0,0,0,0,0,-1,1581,1366,0,0
364,-342,0,0,0,0,0,0,0,0,0,-1,1588,1366,0,0
371,-342,0,0,0,0,0,0,0,0,0,-1,1595,1366,0,0
378,-342,0,0,0,0,0,0,0,0,0,-1,1602,1366,0,0
385,-342,0,0,0,0,0,0,0,0,0,-1,1609,1366,0,0
392,-342,0,0,0,0,0,0,0,0,0,-1,1616,1366,0,0
399,-342,0,0,0,0,0,0,0,0,0,-1,1623,1366,0,0
406,-342,0,0,0,0,0,0,0,0,0,-1,1630,1366,0,0
413,-342,0,0,0,0,0,0,0,0,0,-1,1637,1366,0,0
420,-342,0,0,0,0,0,0,0,0,0,-1,1644,1366,0,0
427,-342,0,0,0,0,0,0,0,0,0,-1,1651,1366,0,0
434,-342,0,0,0,0,0,0,0,0,0,-1,1658,1366,0,0
441,-342,0,0,0,0,0,0,0,0,0,-1,1665,1366,0,0
448,-342,0,0,0,0,0,0,0,0,0,-1,1672,1366,0,0
455,-342,0,0,0,0,0,0,0,0,0,-1,1679,1366,0,0
462,-342,0,0,0,0,0,0,0,0,0,-1,1686,1366,0,0
469,-342,0,0,0,0,0,0,0,0,0,-1,1693,1366,0,0
476,-342,0,0,0,0,0,0,0,0,0,-1,1700,1366,0,0
483,-342,0,0,0,0,0,0,0,0,0,-1,1707,1366,0,0
490,-342,0,0,0,0,0,0,0,0,0,-1,1714,1366,0,0
497,-342,0,0,0,0,0,0,0,0,0,-1,1721,1366,0,0
504,-342,0,0,0,0,0,0,0,0,0,-1,1728,1366,0,0
511,-342,0,0,0,0,0,0,0,0,0,-1,1735,1366,0,0
518,-342,0,0,0,0,0,0,0,0,0,-1,1742,1366,0,0
525,-342,0,0,0,0,0,0,0,0,0,-1,1749,1366,0,0
532,-342,0,0,0,0,0,0,0,0,0,-1,1756,1366,0,0
539,-342,0,0,0,0,0,0,0,0,0,-1,1763,1366,0,0
546,-342,0,0,0,0,0,0,0,0,0,-1,1770,1366,0,0
553,-342,0,0,0,0,0,0,0,0,0,-1,1777,1366,0,0
560,-342,0,0,0,0,0,0,0,0,0,-1,1784,1366,0,0
567,-342,8.81799,3.93311,0.174787,0.0453523,0.0282828,0.180697,0.0394421,0.206005,0.109707,0.0455913,1791,1366,8.81801,-3.93308
574,-342,9.77893,3.81848,0.137114,0.0319955,0.0112601,0.138307,0.0308029,0.105523,0.0838446,0.0436135,1798,1366,9.77896,-3.81843
581,-342,10.4224,3.90601,0.103604,0.0212328,-0.0047861,0.103882,0.0209557,-0.0578443,0.0634337,0.0481315,1805,1366,10.4224,-3.90603
588,-342,11.6594,4.09692,0.07627,0.0144247,-0.0148874,0.0796671,0.0110276,-0.224345,0.0498438,0.0483585,1812,1366,11.6594,-4.09689
595,-342,12.8796,5.08997,0,0,0,0,0,0,0,-1,1819,1366,12.8796,-5.08997
602,-342,8.51636,3.81116,0,0,0,0,0,0,0,-1,1826,1366,8.51634,-3.81115
609,-342,8.40344,2.5188,0,0,0,0,0,0,0,-1,1833,1366,8.4035,-2.51886
616,-342,9.14514,3.3999,0,0,0,0,0,0,0,-1,1840,1366,9.14514,-3.39992
623,-342,8.03357,4.42517,0,0,0,0,0,0,0,-1,1847,1366,8.03358,-4.42518
630,-342,7.52063,2.27295,0,0,0,0,0,0,0,-1,1854,1366,7.52065,-2.27301
637,-342,7.302,2.77124,0,0,0,0,0,0,0,-1,1861,1366,7.30199,-2.77129
644,-342,7.28125,2.71021,-0.0115341,-0.000802715,-0.00512176,0.00124934,-0.0135862,-1.18973,0.00950134,0.0283607,1868,1366,7.28129,-2.71021
651,-342,7.28687,2.63928,-0.00752347,-0.000737175,-0.000951767,-0.000606218,-0.00765442,-1.43406,0.00491336,0.0160767,1875,1366,7.28687,-2.63924
658,-342,7.2771,2.56531,-0.0041564,-0.000601872,0.00381032,0.00182529,-0.00658356,1.00362,0.00510738,0.0187418,1882,1366,7.27711,-2.56537
665,-342,7.29688,2.44958,-0.00161922,-0.000585118,0.0049777,0.00390231,-0.00610665,0.83715,0.0058252,0.0161511,1889,1366,7.29684,-2.4496
672,-342,7.2959,2.3761,2.412e-05,-0.000385315,0.00353004,0.00335537,-0.00371657,0.756434,0.00408476,0.0125273,1896,1366,7.29593,-2.37611
679,-342,7.27515,2.31799,0.00204546,-0.00094293,0.00195983,0.00301573,-0.0019132,0.4597,0.00286935,0.0130874,1903,1366,7.27514,-2.31804
686,-342,7.29919,2.23328,0.00441556,-0.00101099,0.000998997,0.00459363,-0.00118906,0.176393,0.00352624,0.0110007,1910,1366,7.29922,-2.23334
693,-342,7.30518,2.12012,0.00665285,-0.00132096,8.57256e-06,0.00665286,-0.00132097,0.00107509,0.00493485,0.0117458,1917,1366,7.30521,-2.12016
700,-342,7.29944,2.03857,0.00827125,-0.00108733,-0.000717069,0.00832587,-0.00114195,-0.0760301,0.00596776,0.0137254,1924,1366,7.29947,-2.03857
707,-342,7.30249,1.97144,0.00910688,-0.00088457,-0.00161276,0.00936075,-0.00113844,-0.156133,0.00665253,0.01265,1931,1366,7.30252,-1.97149
714,-342,7.27954,1.8822,0.010595,-0.000838411,-0.00261418,0.0111644,-0.00140777,-0.214449,0.0079538,0.0202093,1938,1366,7.27958,-1.88219
721,-342,7.29968,1.67932,0.0114882,-0.000520121,-0.00371081,0.0125424,-0.00157429,-0.276789,0.00893271,0.0348916,1945,1366,7.29968,-1.67927
728,-342,7.56519,1.36084,0.0108657,8.54734e-05,-0.00524575,0.012997,-0.0020458,-0.385913,0.00942091,0.0462898,1952,1366,7.56525,-1.36086
735,-342,7.88318,1.37158,0,0,0,0,0,0,0,-1,1959,1366,7.88317,-1.37158
742,-342,8.0498,1.23022,0,0,0,0,0,0,0,-1,1966,1366,8.04985,-1.23026
749,-342,8.04614,1.63611,0,0,0,0,0,0,0,-1,1973,1366,8.04615,-1.63605
756,-342,0,0,0,0,0,0,0,0,0,-1,1980,1366,0,0
763,-342,0,0,0,0,0,0,0,0,0,-1,1987,1366,0,0
770,-342,0,0,0,0,0,0,0,0,0,-1,1994,1366,0,0
777,-342,0,0,0,0,0,0,0,0,0,-1,2001,1366,0,0
784,-342,0,0,0,0,0,0,0,0,0,-1,2008,1366,0,0
791,-342,0,0,0,0,0,0,0,0,0,-1,2015,1366,0,0
798,-342,0,0,0,0,0,0,0,0,0,-1,2022,1366,0,0
805,-342,0,0,0,0,0,0,0,0,0,-1,2029,1366,0,0
812,-342,0,0,0,0,0,0,0,0,0,-1,2036,1366,0,0
-700,-349,0,0,0,0,0,0,0,0,0,-1,524,1373,0,0
-693,-349,0,0,0,0,0,0,0,0,0,-1,531,1373,0,0
-686,-349,0,0,0,0,0,0,0,0,0,-1,538,1373,0,0
-679,-349,0,0,0,0,0,0,0,0,0,-1,545,1373,0,0
-672,-349,0,0,0,0,0,0,0,0,0,-1,552,1373,0,0
-665,-349,0,0,0,0,0,0,0,0,0,-1,559,1373,0,0
-658,-349,0,0,0,0,0,0,0,0,0,-1,566,1373,0,0
-651,-349,0,0,0,0,0,0,0,0,0,-1,573,1373,0,0
-644,-349,0,0,0,0,0,0,0,0,0,-1,580,1373,0,0
-637,-349,0,0,0,0,0,0,0,0,0,-1,587,1373,0,0
-630,-349,-1.77277,-3.36121,0.0446471,0.136736,0.0385967,0.150773,0.03061,1.22198,0.0920249,0.048364,594,1373,-1.77277,3.36124
-623,-349,-1.88977,-2.54346,0.0366076,0.110981,0.0360342,0.125575,0.0220128,1.18596,0.0774294,0.0486596,601,1373,-1.88977,2.54347
-616,-349,-1.85425,-2.04053,0.0298651,0.0894417,0.0314947,0.103004,0.016303,1.16418,0.0639316,0.0497648,608,1373,-1.85428,2.04055
-609,-349,-1.53247,-1.16101,0.0239616,0.0708405,0.026431,0.0827282,0.012074,1.14814,0.0516005,0.0445994,615,1373,-1.53246,1.16099
-602,-349,-1.37604,-0.692749,0.0186554,0.0547169,0.0214556,0.0647121,0.00866019,1.13484,0.040564,0.0464701,622,1373,-1.37604,0.69274
-595,-349,-1.40765,0.999756,0,0,0,0,0,0,0,-1,629,1373,-1.40768,-0.999767
-588,-349,-1.43048,1.08582,0.00992472,0.0299149,0.0125477,0.0359619,0.00387776,1.12172,0.0227922,0.0435279,636,1373,-1.43046,-1.08582
-581,-349,-1.46643,1.19482,0.00623574,0.0205205,0.00908336,0.0249332,0.00182298,1.11857,0.016049,0.0307878,643,1373,-1.46642,-1.19483
-574,-349,-1.52466,1.25293,0.00407945,0.0133771,0.00619465,0.0164733,0.000983252,1.10729,0.0106695,0.0144446,650,1373,-1.52468,-1.25299
-567,-349,-1.50641,1.35278,0.00231956,0.00841292,0.00382222,0.0102541,0.000478331,1.12188,0.00668236,0.0148249,657,1373,-1.50643,-1.35279
-560,-349,-1.51587,1.45325,0.000895637,0.00413839,0.00177398,0.00492031,0.000113713,1.15564,0.00324297,0.0195601,664,1373,-1.51585,-1.45323
-553,-349,-1.58093,1.50037,0.000123109,0.00210472,0.000346189,0.00216346,6.43699e-05,1.40273,0.00142133,0.0253542,671,1373,-1.58092,-1.50036
-546,-349,-1.54565,1.60205,-8.12237e-05,0.000137883,-0.0006967,0.00073359,-0.000676931,-0.863383,0.000814584,0.0273724,678,1373,-1.54567,-1.60211
-539,-349,-1.52661,1.69885,0.000205641,-0.000765096,-0.0019397,0.00171978,-0.00227923,-0.662801,0.00231635,0.0217198,685,1373,-1.52658,-1.69888
-532,-349,-1.51935,1.80176,0.000630527,-0.00116384,-0.00333875,0.00319054,-0.00372385,-0.65414,0.00399598,0.016098,692,1373,-1.51937,-1.80178
-525,-349,-1.5235,1.90369,0.000917549,-0.00139974,-0.00505567,0.00494564,-0.00542783,-0.672755,0.00599128,0.0120969,699,1373,-1.52352,-1.90366
-518,-349,-1.51013,2.01697,0.00141093,-0.0011839,-0.00709449,0.00732566,-0.00709863,-0.694959,0.00832821,0.0104591,706,1373,-1.51013,-2.01695
-511,-349,-1.47089,2.10522,0.00195325,-0.000488052,-0.009617,0.0104268,-0.00896156,-0.722273,0.0112045,0.019379,713,1373,-1.47092,-2.10524
-504,-349,-1.46497,1.94397,0.00249041,0.00100522,-0.0128427,0.0146119,-0.0111163,-0.756519,0.0148998,0.0393036,720,1373,-1.46497,-1.944
-497,-349,-1.46332,1.78845,0,0,0,0,0,0,0,-1,727,1373,-1.4633,-1.78841
-490,-349,-1.47406,2.51587,0.00338844,0.00735485,-0.0213326,0.0267962,-0.0160529,-0.831748,0.0249968,0.0470111,734,1373,-1.47404,-2.51582
-483,-349,-1.01685,2.05225,0.00372494,0.012842,-0.0265898,0.0352613,-0.0186943,-0.870293,0.0316369,0.0459089,741,1373,-1.01684,-2.05219
-476,-349,-0.403137,1.71545,0,0,0,0,0,0,0,-1,748,1373,-0.403162,-1.71549
-469,-349,-2.03961,2.34241,0,0,0,0,0,0,0,-1,755,1373,-2.03961,-2.34237
-462,-349,-0.159119,0.98645,0,0,0,0,0,0,0,-1,762,1373,-0.159097,-0.986458
-455,-349,0.640198,0.401123,0,0,0,0,0,0,0,-1,769,1373,0.64022,-0.401128
-448,-349,-0.378601,-1.2074,0,0,0,0,0,0,0,-1,776,1373,-0.378612,1.20743
-441,-349,0,0,0,0,0,0,0,0,0,-1,783,1373,0,0
-434,-349,0,0,0,0,0,0,0,0,0,-1,790,1373,0,0
-427,-349,0,0,0,0,0,0,0,0,0,-1,797,1373,0,0
-420,-349,0,0,0,0,0,0,0,0,0,-1,804,1373,0,0
-413,-349,0,0,0,0,0,0,0,0,0,-1,811,1373,0,0
-406,-349,0,0,0,0,0,0,0,0,0,-1,818,1373,0,0
-399,-349,0,0,0,0,0,0,0,0,0,-1,825,1373,0,0
-392,-349,0,0,0,0,0,0,0,0,0,-1,832,1373,0,0
-385,-349,0,0,0,0,0,0,0,0,0,-1,839,1373,0,0
-378,-349,0,0,0,0,0,0,0,0,0,-1,846,1373,0,0
-371,-349,0,0,0,0,0,0,0,0,0,-1,853,1373,0,0
-364,-349,0,0,0,0,0,0,0,0,0,-1,860,1373,0,0
-357,-349,0,0,0,0,0,0,0,0,0,-1,867,1373,0,0
-350,-349,0,0,0,0,0,0,0,0,0,-1,874,1373,0,0
-343,-349,0,0,0,0,0,0,0,0,0,-1,881,1373,0,0
-336,-349,0,0,0,0,0,0,0,0,0,-1,888,1373,0,0
-329,-349,0,0,0,0,0,0,0,0,0,-1,895,1373,0,0
-322,-349,0,0,0,0,0,0,0,0,0,-1,902,1373,0,0
-315,-349,0,0,0,0,0,0,0,0,0,-1,909,1373,0,0
-308,-349,0,0,0,0,0,0,0,0,0,-1,916,1373,0,0
-301,-349,0,0,0,0,0,0,0,0,0,-1,923,1373,0,0
-294,-349,0,0,0,0,0,0,0,0,0,-1,930,1373,0,0
-287,-349,0,0,0,0,0,0,0,0,0,-1,937,1373,0,0
-280,-349,0,0,0,0,0,0,0,0,0,-1,944,1373,0,0
-273,-349,0,0,0,0,0,0,0,0,0,-1,951,1373,0,0
-266,-349,0,0,0,0,0,0,0,0,0,-1,958,1373,0,0
-259,-349,0,0,0,0,0,0,0,0,0,-1,965,1373,0,0
-252,-349,0,0,0,0,0,0,0,0,0,-1,972,1373,0,0
-245,-349,0,0,0,0,0,0,0,0,0,-1,979,1373,0,0
-238,-349,0,0,0,0,0,0,0,0,0,-1,986,1373,0,0
-231,-349,0,0,0,0,0,0,0,0,0,-1,993,1373,0,0
-224,-349,0,0,0,0,0,0,0,0,0,-1,1000,1373,0,0
-217,-349,0,0,0,0,0,0,0,0,0,-1,1007,1373,0,0
-210,-349,0,0,0,0,0,0,0,0,0,-1,1014,1373,0,0
-203,-349,0,0,0,0,0,0,0,0,0,-1,1021,1373,0,0
-196,-349,0,0,0,0,0,0,0,0,0,-1,1028,1373,0,0
-189,-349,0,0,0,0,0,0,0,0,0,-1,1035,1373,0,0
-182,-349,0,0,0,0,0,0,0,0,0,-1,1042,1373,0,0
-175,-349,0,0,0,0,0,0,0,0,0,-1,1049,1373,0,0
-168,-349,0,0,0,0,0,0,0,0,0,-1,1056,1373,0,0
-161,-349,0,0,0,0,0,0,0,0,0,-1,1063,1373,0,0
-154,-349,0,0,0,0,0,0,0,0,0,-1,1070,1373,0,0
-147,-349,0,0,0,0,0,0,0,0,0,-1,1077,1373,0,0
-140,-349,0,0,0,0,0,0,0,0,0,-1,1084,1373,0,0
-133,-349,0,0,0,0,0,0,0,0,0,-1,1091,1373,0,0
-126,-349,0,0,0,0,0,0,0,0,0,-1,1098,1373,0,0
-119,-349,0,0,0,0,0,0,0,0,0,-1,1105,1373,0,0
-112,-349,0,0,0,0,0,0,0,0,0,-1,1112,1373,0,0
-105,-349,0,0,0,0,0,0,0,0,0,-1,1119,1373,0,0
-98,-349,0,0,0,0,0,0,0,0,0,-1,1126,1373,0,0
-91,-349,0,0,0,0,0,0,0,0,0,-1,1133,1373,0,0
-84,-349,0,0,0,0,0,0,0,0,0,-1,1140,1373,0,0
-77,-349,0,0,0,0,0,0,0,0,0,-1,1147,1373,0,0
-70,-349,0,0,0,0,0,0,0,0,0,-1,1154,1373,0,0
-63,-349,0,0,0,0,0,0,0,0,0,-1,1161,1373,0,0
-56,-349,0,0,0,0,0,0,0,0,0,-1,1168,1373,0,0
-49,-349,0,0,0,0,0,0,0,0,0,-1,1175,1373,0,0
-42,-349,0,0,0,0,0,0,0,0,0,-1,1182,1373,0,0
-35,-349,0,0,0,0,0,0,0,0,0,-1,1189,1373,0,0
-28,-349,0,0,0,0,0,0,0,0,0,-1,1196,1373,0,0
-21,-349,0,0,0,0,0,0,0,0,0,-1,1203,1373,0,0
-14,-349,0,0,0,0,0,0,0,0,0,-1,1210,1373,0,0
-7,-349,0,0,0,0,0,0,0,0,0,-1,1217,1373,0,0
0,-349,0,0,0,0,0,0,0,0,0,-1,1224,1373,0,0
7,-349,0,0,0,0,0,0,0,0,0,-1,1231,1373,0,0
14,-349,0,0,0,0,0,0,0,0,0,-1,1238,1373,0,0
21,-349,0,0,0,0,0,0,0,0,0,-1,1245,1373,0,0
28,-349,0,0,0,0,0,0,0,0,0,-1,1252,1373,0,0
35,-349,0,0,0,0,0,0,0,0,0,-1,1259,1373,0,0
42,-349,0,0,0,0,0,0,0,0,0,-1,1266,1373,0,0
49,-349,0,0,0,0,0,0,0,0,0,-1,1273,1373,0,0
56,-349,0,0,0,0,0,0,0,0,0,-1,1280,1373,0,0
63,-349,0,0,0,0,0,0,0,0,0,-1,1287,1373,0,0
70,-349,0,0,0,0,0,0,0,0,0,-1,1294,1373,0,0
77,-349,0,0,0,0,0,0,0,0,0,-1,1301,1373,0,0
84,-349,0,0,0,0,0,0,0,0,0,-1,1308,1373,0,0
91,-349,0,0,0,0,0,0,0,0,0,-1,1315,1373,0,0
98,-349,0,0,0,0,0,0,0,0,0,-1,1322,1373,0,0
105,-349,0,0,0,0,0,0,0,0,0,-1,1329,1373,0,0
112,-349,0,0,0,0,0,0,0,0,0,-1,1336,1373,0,0
119,-349,0,0,0,0,0,0,0,0,0,-1,1343,1373,0,0
126,-349,0,0,0,0,0,0,0,0,0,-1,1350,1373,0,0
133,-349,0,0,0,0,0,0,0,0,0,-1,1357,1373,0,0
140,-349,0,0,0,0,0,0,0,0,0,-1,1364,1373,0,0
147,-349,0,0,0,0,0,0,0,0,0,-1,1371,1373,0,0
154,-349,0,0,0,0,0,0,0,0,0,-1,1378,1373,0,0
161,-349,0,0,0,0,0,0,0,0,0,-1,1385,1373,0,0
168,-349,0,0,0,0,0,0,0,0,0,-1,1392,1373,0,0
175,-349,0,0,0,0,0,0,0,0,0,-1,1399,1373,0,0
182,-349,0,0,0,0,0,0,0,0,0,-1,1406,1373,0,0
189,-349,0,0,0,0,0,0,0,0,0,-1,1413,1373,0,0
196,-349,0,0,0,0,0,0,0,0,0,-1,1420,1373,0,0
203,-349,0,0,0,0,0,0,0,0,0,-1,1427,1373,0,0
210,-349,0,0,0,0,0,0,0,0,0,-1,1434,1373,0,0
217,-349,0,0,0,0,0,0,0,0,0,-1,1441,1373,0,0
224,-349,0,0,0,0,0,0,0,0,0,-1,1448,1373,0,0
231,-349,0,0,0,0,0,0,0,0,0,-1,1455,1373,0,0
238,-349,0,0,0,0,0,0,0,0,0,-1,1462,1373,0,0
245,-349,0,0,0,0,0,0,0,0,0,-1,1469,1373,0,0
252,-349,0,0,0,0,0,0,0,0,0,-1,1476,1373,0,0
259,-349,0,0,0,0,0,0,0,0,0,-1,1483,1373,0,0
266,-349,0,0,0,0,0,0,0,0,0,-1,1490,1373,0,0
273,-349,0,0,0,0,0,0,0,0,0,-1,1497,1373,0,0
280,-349,0,0,0,0,0,0,0,0,0,-1,1504,1373,0,0
287,-349,0,0,0,0,0,0,0,0,0,-1,1511,1373,0,0
294,-349,0,0,0,0,0,0,0,0,0,-1,1518,1373,0,0
301,-349,0,0,0,0,0,0,0,0,0,-1,1525,1373,0,0
308,-349,0,0,0,0,0,0,0,0,0,-1,1532,1373,0,0
315,-349,0,0,0,0,0,0,0,0,0,-1,1539,1373,0,0
322,-349,0,0,0,0,0,0,0,0,0,-1,1546,1373,0,0
329,-349,0,0,0,0,0,0,0,0,0,-1,1553,1373,0,0
336,-349,0,0,0,0,0,0,0,0,0,-1,1560,1373,0,0
343,-349,0,0,0,0,0,0,0,0,0,-1,1567,1373,0,0
350,-349,0,0,0,0,0,0,0,0,0,-1,1574,1373,0,0
357,-349,0,0,0,0,0,0,0,0,0,-1,1581,1373,0,0
364,-349,0,0,0,0,0,0,0,0,0,-1,1588,1373,0,0
371,-349,0,0,0,0,0,0,0,0,0,-1,1595,1373,0,0
378,-349,0,0,0,0,0,0,0,0,0,-1,1602,1373,0,0
385,-349,0,0,0,0,0,0,0,0,0,-1,1609,1373,0,0
392,-349,0,0,0,0,0,0,0,0,0,-1,1616,1373,0,0
399,-349,0,0,0,0,0,0,0,0,0,-1,1623,1373,0,0
406,-349,0,0,0,0,0,0,0,0,0,-1,1630,1373,0,0
413,-349,0,0,0,0,0,0,0,0,0,-1,1637,1373,0,0
420,-349,0,0,0,0,0,0,0,0,0,-1,1644,1373,0,0
427,-349,0,0,0,0,0,0,0,0,0,-1,1651,1373,0,0
434,-349,0,0,0,0,0,0,0,0,0,-1,1658,1373,0,0
441,-349,0,0,0,0,0,0,0,0,0,-1,1665,1373,0,0
448,-349,0,0,0,0,0,0,0,0,0,-1,1672,1373,0,0
455,-349,0,0,0,0,0,0,0,0,0,-1,1679,1373,0,0
462,-349,0,0,0,0,0,0,0,0,0,-1,1686,1373,0,0
469,-349,0,0,0,0,0,0,0,0,0,-1,1693,1373,0,0
476,-349,0,0,0,0,0,0,0,0,0,-1,1700,1373,0,0
483,-349,0,0,0,0,0,0,0,0,0,-1,1707,1373,0,0
490,-349,0,0,0,0,0,0,0,0,0,-1,1714,1373,0,0
497,-349,0,0,0,0,0,0,0,0,0,-1,1721,1373,0,0
504,-349,0,0,0,0,0,0,0,0,0,-1,1728,1373,0,0
511,-349,0,0,0,0,0,0,0,0,0,-1,1735,1373,0,0
518,-349,0,0,0,0,0,0,0,0,0,-1,1742,1373,0,0
525,-349,0,0,0,0,0,0,0,0,0,-1,1749,1373,0,0
532,-349,0,0,0,0,0,0,0,0,0,-1,1756,1373,0,0
539,-349,0,0,0,0,0,0,0,0,0,-1,1763,1373,0,0
546,-349,0,0,0,0,0,0,0,0,0,-1,1770,1373,0,0
553,-349,0,0,0,0,0,0,0,0,0,-1,1777,1373,0,0
560,-349,7.95508,3.36218,0,0,0,0,0,0,0,-1,1784,1373,7.95512,-3.36217
567,-349,8.77771,3.28394,0.129057,0.0483359,0.0306797,0.139394,0.0379991,0.32498,0.0832072,0.0451143,1791,1373,8.77767,-3.28397
574,-349,9.83191,3.39514,0.103825,0.034024,0.0173941,0.107919,0.0299297,0.23118,0.0643337,0.0461018,1798,1373,9.83185,-3.39514
581,-349,10.4589,3.87378,0.0812639,0.0226722,0.00411131,0.081551,0.0223851,0.0697135,0.0486536,0.047083,1805,1373,10.4589,-3.87376
588,-349,11.1772,4.20239,0.062026,0.015218,-0.00546299,0.0626552,0.0145889,-0.114658,0.0378561,0.0475518,1812,1373,11.1772,-4.20242
595,-349,12.4215,4.37329,0,0,0,0,0,0,0,-1,1819,1373,12.4215,-4.37328
602,-349,13.7482,4.67334,0,0,0,0,0,0,0,-1,1826,1373,13.7481,-4.67337
609,-349,8.34241,2.45239,0,0,0,0,0,0,0,-1,1833,1373,8.34236,-2.45238
616,-349,8.27893,2.58752,0,0,0,0,0,0,0,-1,1840,1373,8.27889,-2.58747
623,-349,7.14111,2.37012,0,0,0,0,0,0,0,-1,1847,1373,7.14105,-2.37015
630,-349,7.24548,2.66614,-0.000870498,-0.000652288,-0.00552664,0.00476632,-0.00628911,-0.795268,0.00640301,0.0458036,1854,1373,7.24545,-2.66613
637,-349,7.23096,2.69397,-0.00646907,-0.00102939,-0.00420572,0.00125932,-0.00875779,-1.07242,0.00630039,0.038843,1861,1373,7.231,-2.69393
644,-349,7.15771,2.72461,-0.0110359,-0.00159217,-0.00355323,-0.000404601,-0.0122235,-1.24825,0.00801752,0.0263744,1868,1373,7.15768,-2.72458
651,-349,7.21375,2.60449,-0.00711318,-0.0012895,-0.000559631,-0.00123621,-0.00716647,-1.47586,0.00442353,0.0201047,1875,1373,7.21377,-2.60447
658,-349,7.17773,2.54956,-0.0039359,-0.000918061,0.00286594,0.000811912,-0.00566587,1.02771,0.00407494,0.0251914,1882,1373,7.17774,-2.54959
665,-349,7.19971,2.46692,-0.00131667,-0.000706773,0.00354004,0.00254143,-0.00456488,0.828363,0.0041579,0.019775,1889,1373,7.19975,-2.46695
672,-349,7.2113,2.37402,0.000662069,-0.000392541,0.0022354,0.00243152,-0.00216199,0.669571,0.00265358,0.0150379,1896,1373,7.21126,-2.37406
679,-349,7.19275,2.2865,0.00334248,-0.00102616,0.000902114,0.00352143,-0.00120512,0.195829,0.002836,0.0139541,1903,1373,7.19275,-2.28652
686,-349,7.21252,2.22107,0.00653553,-0.00096579,0.000261684,0.00654465,-0.000974908,0.0348287,0.00472174,0.0112688,1910,1373,7.21254,-2.22105
693,-349,7.22681,2.13611,0.009843,-0.00128465,-0.000536693,0.00986882,-0.00131047,-0.0480819,0.00705672,0.0139603,1917,1373,7.22684,-2.13606
700,-349,7.22607,2.0636,0.012837,-0.00115266,-0.00117213,0.0129345,-0.00125018,-0.0830145,0.00906849,0.016412,1924,1373,7.22603,-2.06365
707,-349,7.2301,1.96655,0.015303,-0.00103749,-0.00199129,0.0155422,-0.00127666,-0.119532,0.0108121,0.0154568,1931,1373,7.23013,-1.96656
714,-349,7.21082,1.8927,0.018761,-0.000973453,-0.00281467,0.0191546,-0.00136705,-0.138937,0.0132489,0.0184184,1938,1373,7.21084,-1.89269
721,-349,7.33862,1.81775,0.0219467,-0.000590511,-0.00362922,0.0225167,-0.00116052,-0.155788,0.0154125,0.0354156,1945,1373,7.33864,-1.81778
728,-349,7.7041,1.86304,0.0237716,0.000168517,-0.00472105,0.0246808,-0.000740753,-0.190269,0.0167063,0.0444011,1952,1373,7.70408,-1.86299
735,-349,8.07495,2.01538,0,0,0,0,0,0,0,-1,1959,1373,8.07493,-2.01537
742,-349,7.37305,2.2915,0,0,0,0,0,0,0,-1,1966,1373,7.37306,-2.29145
749,-349,7.53064,2.48828,0,0,0,0,0,0,0,-1,1973,1373,7.53065,-2.48833
756,-349,0,0,0,0,0,0,0,0,0,-1,1980,1373,0,0
763,-349,0,0,0,0,0,0,0,0,0,-1,1987,1373,0,0
770,-349,0,0,0,0,0,0,0,0,0,-1,1994,1373,0,0
777,-349,0,0,0,0,0,0,0,0,0,-1,2001,1373,0,0
784,-349,0,0,0,0,0,0,0,0,0,-1,2008,1373,0,0
791,-349,0,0,0,0,0,0,0,0,0,-1,2015,1373,0,0
798,-349,0,0,0,0,0,0,0,0,0,-1,2022,1373,0,0
805,-349,0,0,0,0,0,0,0,0,0,-1,2029,1373,0,0
812,-349,0,0,0,0,0,0,0,0,0,-1,2036,1373,0,0
-700,-356,0,0,0,0,0,0,0,0,0,-1,524,1380,0,0
-693,-356,0,0,0,0,0,0,0,0,0,-1,531,1380,0,0
-686,-356,0,0,0,0,0,0,0,0,0,-1,538,1380,0,0
-679,-356,0,0,0,0,0,0,0,0,0,-1,545,1380,0,0
-672,-356,0,0,0,0,0,0,0,0,0,-1,552,1380,0,0
-665,-356,0,0,0,0,0,0,0,0,0,-1,559,1380,0,0
-658,-356,0,0,0,0,0,0,0,0,0,-1,566,1380,0,0
-651,-356,0,0,0,0,0,0,0,0,0,-1,573,1380,0,0
-644,-356,0,0,0,0,0,0,0,0,0,-1,580,1380,0,0
-637,-356,0,0,0,0,0,0,0,0,0,-1,587,1380,0,0
-630,-356,-1.29596,-4.1521,0,0,0,0,0,0,0,-1,594,1380,-1.29594,4.15209
-623,-356,-1.69208,-3.20288,0,0,0,0,0,0,0,-1,601,1380,-1.69209,3.20287
-616,-356,-1.70026,-2.63794,0.029552,0.0928499,0.0359197,0.109075,0.0133273,1.14654,0.0687061,0.0498046,608,1380,-1.70023,2.63794
-609,-356,-1.43829,-1.27332,0.0239391,0.0753438,0.029834,0.08902,0.0102628,1.14097,0.0562388,0.0475426,615,1380,-1.4383,1.27332
-602,-356,-1.28119,-0.974609,0.0186397,0.0594163,0.0241228,0.0706127,0.00744326,1.13624,0.0448006,0.0498062,622,1380,-1.28122,0.974665
-595,-356,-1.34412,-0.638916,0,0,0,0,0,0,0,-1,629,1380,-1.3441,0.638855
-588,-356,-1.46399,1.08923,0,0,0,0,0,0,0,-1,636,1380,-1.46398,-1.08921
-581,-356,-1.41974,1.21594,0.0057557,0.0238576,0.0100976,0.028367,0.00124633,1.15079,0.0185099,0.03479,643,1380,-1.41976,-1.21598
-574,-356,-1.3941,1.27783,0.00347836,0.0159956,0.00686656,0.0190279,0.000446138,1.15496,0.0125392,0.0200899,650,1380,-1.39412,-1.27777
-567,-356,-1.43231,1.33801,0.00170188,0.0104606,0.00424781,0.0121823,-1.97995e-05,1.18572,0.00812815,0.0144117,657,1380,-1.43234,-1.33799
-560,-356,-1.40454,1.45398,0.000323661,0.00580264,0.00204512,0.00648182,-0.00035552,1.25016,0.00444446,0.0173455,664,1380,-1.40456,-1.45403
-553,-356,-1.42487,1.52258,-0.000365399,0.00349242,0.00060088,0.00358384,-0.000456824,1.4198,0.00255515,0.0200639,671,1380,-1.42486,-1.52256
-546,-356,-1.44476,1.56848,-0.000427914,0.00127164,-0.000398954,0.00136063,-0.000516905,-1.35133,0.00111989,0.0216864,678,1380,-1.44476,-1.56843
-539,-356,-1.40277,1.6875,8.87621e-05,9.48562e-05,-0.00155903,0.00165084,-0.00146722,-0.786375,0.00180125,0.0149017,685,1380,-1.40277,-1.68745
-532,-356,-1.4259,1.80396,0.000791852,-0.00064158,-0.00283963,0.00300382,-0.00285355,-0.661781,0.00338212,0.0143204,692,1380,-1.42592,-1.80399
-525,-356,-1.43414,1.89148,0.00142062,-0.00131354,-0.00427906,0.00454568,-0.0044386,-0.630782,0.0051872,0.01307,699,1380,-1.43414,-1.89142
-518,-356,-1.40662,1.99646,0.00230903,-0.00150977,-0.00597662,0.00667385,-0.00587459,-0.630784,0.00724974,0.01237,706,1380,-1.40661,-1.99642
-511,-356,-1.37115,2.12085,0.0033546,-0.00132339,-0.00809152,0.00943841,-0.0074072,-0.6447,0.00974935,0.0163343,713,1380,-1.37113,-2.12079
-504,-356,-1.39862,2.14893,0.00449819,-0.000644629,-0.0107508,0.0129808,-0.00912724,-0.668012,0.0128286,0.0308971,720,1380,-1.39862,-2.14892
-497,-356,-1.42029,2.13318,0.00570809,0.000781403,-0.0139851,0.0174452,-0.0109557,-0.698222,0.0165393,0.0434873,727,1380,-1.42032,-2.13316
-490,-356,-1.28131,2.15015,0.00707169,0.00312345,-0.0177283,0.0229354,-0.0127403,-0.729949,0.0208758,0.0464683,734,1380,-1.28129,-2.15016
-483,-356,-0.983215,1.81628,0.00855024,0.00660805,-0.0218535,0.0294542,-0.0142959,-0.763194,0.0257595,0.0475882,741,1380,-0.983207,-1.81634
-476,-356,-0.716187,1.44165,0,0,0,0,0,0,0,-1,748,1380,-0.716202,-1.44161
-469,-356,-2.05695,2.04407,0,0,0,0,0,0,0,-1,755,1380,-2.05695,-2.04413
-462,-356,-0.838074,0.782837,0,0,0,0,0,0,0,-1,762,1380,-0.838046,-0.782892
-455,-356,0.458313,-0.265137,0,0,0,0,0,0,0,-1,769,1380,0.458335,0.265114
-448,-356,1.76965,-1.20886,0,0,0,0,0,0,0,-1,776,1380,1.76965,1.20889
-441,-356,-4.49438,5.00366,0,0,0,0,0,0,0,-1,783,1380,-4.49437,-5.00363
-434,-356,0,0,0,0,0,0,0,0,0,-1,790,1380,0,0
-427,-356,0,0,0,0,0,0,0,0,0,-1,797,1380,0,0
-420,-356,0,0,0,0,0,0,0,0,0,-1,804,1380,0,0
-413,-356,0,0,0,0,0,0,0,0,0,-1,811,1380,0,0
-406,-356,0,0,0,0,0,0,0,0,0,-1,818,1380,0,0
-399,-356,0,0,0,0,0,0,0,0,0,-1,825,1380,0,0
-392,-356,0,0,0,0,0,0,0,0,0,-1,832,1380,0,0
-385,-356,0,0,0,0,0,0,0,0,0,-1,839,1380,0,0
-378,-356,0,0,0,0,0,0,0,0,0,-1,846,1380,0,0
-371,-356,0,0,0,0,0,0,0,0,0,-1,853,1380,0,0
-364,-356,0,0,0,0,0,0,0,0,0,-1,860,1380,0,0
-357,-356,0,0,0,0,0,0,0,0,0,-1,867,1380,0,0
-350,-356,0,0,0,0,0,0,0,0,0,-1,874,1380,0,0
-343,-356,0,0,0,0,0,0,0,0,0,-1,881,1380,0,0
-336,-356,0,0,0,0,0,0,0,0,0,-1,888,1380,0,0
-329,-356,0,0,0,0,0,0,0,0,0,-1,895,1380,0,0
-322,-356,0,0,0,0,0,0,0,0,0,-1,902,1380,0,0
-315,-356,0,0,0,0,0,0,0,0,0,-1,909,1380,0,0
-308,-356,0,0,0,0,0,0,0,0,0,-1,916,1380,0,0
-301,-356,0,0,0,0,0,0,0,0,0,-1,923,1380,0,0
-294,-356,0,0,0,0,0,0,0,0,0,-1,930,1380,0,0
-287,-356,0,0,0,0,0,0,0,0,0,-1,937,1380,0,0
-280,-356,0,0,0,0,0,0,0,0,0,-1,944,1380,0,0
-273,-356,0,0,0,0,0,0,0,0,0,-1,951,1380,0,0
-266,-356,0,0,0,0,0,0,0,0,0,-1,958,1380,0,0
-259,-356,0,0,0,0,0,0,0,0,0,-1,965,1380,0,0
-252,-356,0,0,0,0,0,0,0,0,0,-1,972,1380,0,0
-245,-356,0,0,0,0,0,0,0,0,0,-1,979,1380,0,0
-238,-356,0,0,0,0,0,0,0,0,0,-1,986,1380,0,0
-231,-356,0,0,0,0,0,0,0,0,0,-1,993,1380,0,0
-224,-356,0,0,0,0,0,0,0,0,0,-1,1000,1380,0,0
-217,-356,0,0,0,0,0,0,0,0,0,-1,1007,1380,0,0
-210,-356,0,0,0,0,0,0,0,0,0,-1,1014,1380,0,0
-203,-356,0,0,0,0,0,0,0,0,0,-1,1021,1380,0,0
-196,-356,0,0,0,0,0,0,0,0,0,-1,1028,1380,0,0
-189,-356,0,0,0,0,0,0,0,0,0,-1,1035,1380,0,0
-182,-356,0,0,0,0,0,0,0,0,0,-1,1042,1380,0,0
-175,-356,0,0,0,0,0,0,0,0,0,-1,1049,1380,0,0
-168,-356,0,0,0,0,0,0,0,0,0,-1,1056,1380,0,0
-161,-356,0,0,0,0,0,0,0,0,0,-1,1063,1380,0,0
-154,-356,0,0,0,0,0,0,0,0,0,-1,1070,1380,0,0
-147,-356,0,0,0,0,0,0,0,0,0,-1,1077,1380,0,0
-140,-356,0,0,0,0,0,0,0,0,0,-1,1084,1380,0,0
-133,-356,0,0,0,0,0,0,0,0,0,-1,1091,1380,0,0
-126,-356,0,0,0,0,0,0,0,0,0,-1,1098,1380,0,0
-119,-356,0,0,0,0,0,0,0,0,0,-1,1105,1380,0,0
-112,-356,0,0,0,0,0,0,0,0,0,-1,1112,1380,0,0
-105,-356,0,0,0,0,0,0,0,0,0,-1,1119,1380,0,0
-98,-356,0,0,0,0,0,0,0,0,0,-1,1126,1380,0,0
-91,-356,0,0,0,0,0,0,0,0,0,-1,1133,1380,0,0
-84,-356,0,0,0,0,0,0,0,0,0,-1,1140,1380,0,0
-77,-356,0,0,0,0,0,0,0,0,0,-1,1147,1380,0,0
-70,-356,0,0,0,0,0,0,0,0,0,-1,1154,1380,0,0
-63,-356,0,0,0,0,0,0,0,0,0,-1,1161,1380,0,0
-56,-356,0,0,0,0,0,0,0,0,0,-1,1168,1380,0,0
-49,-356,0,0,0,0,0,0,0,0,0,-1,1175,1380,0,0
-42,-356,0,0,0,0,0,0,0,0,0,-1,1182,1380,0,0
-35,-356,0,0,0,0,0,0,0,0,0,-1,1189,1380,0,0
-28,-356,0,0,0,0,0,0,0,0,0,-1,1196,1380,0,0
-21,-356,0,0,0,0,0,0,0,0,0,-1,1203,1380,0,0
-14,-356,0,0,0,0,0,0,0,0,0,-1,1210,1380,0,0
-7,-356,0,0,0,0,0,0,0,0,0,-1,1217,1380,0,0
0,-356,0,0,0,0,0,0,0,0,0,-1,1224,1380,0,0
7,-356,0,0,0,0,0,0,0,0,0,-1,1231,1380,0,0
14,-356,0,0,0,0,0,0,0,0,0,-1,1238,1380,0,0
21,-356,0,0,0,0,0,0,0,0,0,-1,1245,1380,0,0
28,-356,0,0,0,0,0,0,0,0,0,-1,1252,1380,0,0
35,-356,0,0,0,0,0,0,0,0,0,-1,1259,1380,0,0
42,-356,0,0,0,0,0,0,0,0,0,-1,1266,1380,0,0
49,-356,0,0,0,0,0,0,0,0,0,-1,1273,1380,0,0
56,-356,0,0,0,0,0,0,0,0,0,-1,1280,1380,0,0
63,-356,0,0,0,0,0,0,0,0,0,-1,1287,1380,0,0
70,-356,0,0,0,0,0,0,0,0,0,-1,1294,1380,0,0
77,-356,0,0,0,0,0,0,0,0,0,-1,1301,1380,0,0
84,-356,0,0,0,0,0,0,0,0,0,-1,1308,1380,0,0
91,-356,0,0,0,0,0,0,0,0,0,-1,1315,1380,0,0
98,-356,0,0,0,0,0,0,0,0,0,-1,1322,1380,0,0
105,-356,0,0,0,0,0,0,0,0,0,-1,1329,1380,0,0
112,-356,0,0,0,0,0,0,0,0,0,-1,1336,1380,0,0
119,-356,0,0,0,0,0,0,0,0,0,-1,1343,1380,0,0
126,-356,0,0,0,0,0,0,0,0,0,-1,1350,1380,0,0
133,-356,0,0,0,0,0,0,0,0,0,-1,1357,1380,0,0
140,-356,0,0,0,0,0,0,0,0,0,-1,1364,1380,0,0
147,-356,0,0,0,0,0,0,0,0,0,-1,1371,1380,0,0
154,-356,0,0,0,0,0,0,0,0,0,-1,1378,1380,0,0
161,-356,0,0,0,0,0,0,0,0,0,-1,1385,1380,0,0
168,-356,0,0,0,0,0,0,0,0,0,-1,1392,1380,0,0
175,-356,0,0,0,0,0,0,0,0,0,-1,1399,1380,0,0
182,-356,0,0,0,0,0,0,0,0,0,-1,1406,1380,0,0
189,-356,0,0,0,0,0,0,0,0,0,-1,1413,1380,0,0
196,-356,0,0,0,0,0,0,0,0,0,-1,1420,1380,0,0
203,-356,0,0,0,0,0,0,0,0,0,-1,1427,1380,0,0
210,-356,0,0,0,0,0,0,0,0,0,-1,1434,1380,0,0
217,-356,0,0,0,0,0,0,0,0,0,-1,1441,1380,0,0
224,-356,0,0,0,0,0,0,0,0,0,-1,1448,1380,0,0
231,-356,0,0,0,0,0,0,0,0,0,-1,1455,1380,0,0
238,-356,0,0,0,0,0,0,0,0,0,-1,1462,1380,0,0
245,-356,0,0,0,0,0,0,0,0,0,-1,1469,1380,0,0
252,-356,0,0,0,0,0,0,0,0,0,-1,1476,1380,0,0
259,-356,0,0,0,0,0,0,0,0,0,-1,1483,1380,0,0
266,-356,0,0,0,0,0,0,0,0,0,-1,1490,1380,0,0
273,-356,0,0,0,0,0,0,0,0,0,-1,1497,1380,0,0
280,-356,0,0,0,0,0,0,0,0,0,-1,1504,1380,0,0
287,-356,0,0,0,0,0,0,0,0,0,-1,1511,1380,0,0
294,-356,0,0,0,0,0,0,0,0,0,-1,1518,1380,0,0
301,-356,0,0,0,0,0,0,0,0,0,-1,1525,1380,0,0
308,-356,0,0,0,0,0,0,0,0,0,-1,1532,1380,0,0
315,-356,0,0,0,0,0,0,0,0,0,-1,1539,1380,0,0
322,-356,0,0,0,0,0,0,0,0,0,-1,1546,1380,0,0
329,-356,0,0,0,0,0,0,0,0,0,-1,1553,1380,0,0
336,-356,0,0,0,0,0,0,0,0,0,-1,1560,1380,0,0
343,-356,0,0,0,0,0,0,0,0,0,-1,1567,1380,0,0
350,-356,0,0,0,0,0,0,0,0,0,-1,1574,1380,0,0
357,-356,0,0,0,0,0,0,0,0,0,-1,1581,1380,0,0
364,-356,0,0,0,0,0,0,0,0,0,-1,1588,1380,0,0
371,-356,0,0,0,0,0,0,0,0,0,-1,1595,1380,0,0
378,-356,0,0,0,0,0,0,0,0,0,-1,1602,1380,0,0
385,-356,0,0,0,0,0,0,0,0,0,-1,1609,1380,0,0
392,-356,0,0,0,0,0,0,0,0,0,-1,1616,1380,0,0
399,-356,0,0,0,0,0,0,0,0,0,-1,1623,1380,0,0
406,-356,0,0,0,0,0,0,0,0,0,-1,1630,1380,0,0
413,-356,0,0,0,0,0,0,0,0,0,-1,1637,1380,0,0
420,-356,0,0,0,0,0,0,0,0,0,-1,1644,1380,0,0
427,-356,0,0,0,0,0,0,0,0,0,-1,1651,1380,0,0
434,-356,0,0,0,0,0,0,0,0,0,-1,1658,1380,0,0
441,-356,0,0,0,0,0,0,0,0,0,-1,1665,1380,0,0
448,-356,0,0,0,0,0,0,0,0,0,-1,1672,1380,0,0
455,-356,0,0,0,0,0,0,0,0,0,-1,1679,1380,0,0
462,-356,0,0,0,0,0,0,0,0,0,-1,1686,1380,0,0
469,-356,0,0,0,0,0,0,0,0,0,-1,1693,1380,0,0
476,-356,0,0,0,0,0,0,0,0,0,-1,1700,1380,0,0
483,-356,0,0,0,0,0,0,0,0,0,-1,1707,1380,0,0
490,-356,0,0,0,0,0,0,0,0,0,-1,1714,1380,0,0
497,-356,0,0,0,0,0,0,0,0,0,-1,1721,1380,0,0
504,-356,0,0,0,0,0,0,0,0,0,-1,1728,1380,0,0
511,-356,0,0,0,0,0,0,0,0,0,-1,1735,1380,0,0
518,-356,0,0,0,0,0,0,0,0,0,-1,1742,1380,0,0
525,-356,0,0,0,0,0,0,0,0,0,-1,1749,1380,0,0
532,-356,0,0,0,0,0,0,0,0,0,-1,1756,1380,0,0
539,-356,0,0,0,0,0,0,0,0,0,-1,1763,1380,0,0
546,-356,0,0,0,0,0,0,0,0,0,-1,1770,1380,0,0
553,-356,0,0,0,0,0,0,0,0,0,-1,1777,1380,0,0
560,-356,11.8893,3.08203,0,0,0,0,0,0,0,-1,1784,1380,11.8893,-3.08207
567,-356,11.2386,3.05603,0,0,0,0,0,0,0,-1,1791,1380,11.2386,-3.05604
574,-356,9.00793,3.26978,0,0,0,0,0,0,0,-1,1798,1380,9.00795,-3.26981
581,-356,9.76221,3.35327,0.053359,0.0229377,0.0127932,0.0580237,0.018273,0.349643,0.0342565,0.0454359,1805,1380,9.76219,-3.35329
588,-356,10.5577,3.41809,0.0412265,0.0152017,0.00462294,0.0420233,0.0144049,0.170682,0.0246587,0.0465029,1812,1380,10.5577,-3.41815
595,-356,11.3298,3.505,0,0,0,0,0,0,0,-1,1819,1380,11.3299,-3.50506
602,-356,8.3667,2.56848,0,0,0,0,0,0,0,-1,1826,1380,8.36673,-2.56852
609,-356,8.29663,2.63037,0.012383,0.00405489,-0.0047516,0.014537,0.00190095,-0.425601,0.0091239,0.0426024,1833,1380,8.29662,-2.63037
616,-356,7.86719,2.35413,0.00575697,0.00216766,-0.00469644,0.00898997,-0.00106535,-0.602894,0.00637816,0.0390125,1840,1380,7.86713,-2.35407
623,-356,7.30884,2.41272,-0.00020451,9.10122e-05,-0.00350752,0.00345388,-0.00356738,-0.806449,0.0040539,0.0383724,1847,1380,7.30883,-2.41273
630,-356,7.15918,2.53687,-0.00330318,-0.00120161,-0.00251549,0.000473748,-0.00497854,-0.983245,0.00348768,0.0353334,1854,1380,7.15915,-2.53681
637,-356,7.08704,2.65527,-0.00707425,-0.00157669,-0.00204485,-0.000899509,-0.00775143,-1.251,0.00489541,0.0236582,1861,1380,7.08705,-2.65533
644,-356,7.11096,2.72913,-0.00993998,-0.00204938,-0.00211388,-0.00151875,-0.0104706,-1.32486,0.00653326,0.0178675,1868,1380,7.1109,-2.72908
651,-356,7.1283,2.60852,-0.00642321,-0.00157436,-0.000260565,-0.0015604,-0.00643717,-1.51726,0.00387742,0.014495,1875,1380,7.12826,-2.60851
658,-356,7.12439,2.5094,-0.00359301,-0.00109874,0.00198228,-3.90806e-06,-0.00468784,1.06618,0.00312392,0.0141168,1882,1380,7.12445,-2.50943
665,-356,7.12878,2.47119,-0.000964514,-0.000793474,0.00221939,0.00134204,-0.00310003,0.804655,0.00263073,0.0143217,1889,1380,7.1288,-2.47119
672,-356,7.12122,2.41626,0.00129863,-0.000353404,0.000963641,0.00174183,-0.000796602,0.431073,0.00149905,0.0157534,1896,1380,7.12121,-2.4163
679,-356,7.10852,2.30444,0.00459586,-0.001101,-0.000230432,0.00460517,-0.0011103,-0.0403611,0.00349942,0.0163725,1903,1380,7.10852,-2.3044
686,-356,7.11523,2.20703,0.00863279,-0.000919481,-0.000647092,0.00867642,-0.000963117,-0.0673322,0.00613059,0.0138771,1910,1380,7.11522,-2.20699
693,-356,7.14893,2.14355,0.0130904,-0.00125426,-0.00140649,0.013227,-0.00139086,-0.0968212,0.00931629,0.0131932,1917,1380,7.14898,-2.14351
700,-356,7.14758,2.04236,0.0176998,-0.00126277,-0.00212601,0.0179352,-0.00149821,-0.110292,0.0124862,0.0175676,1924,1380,7.14755,-2.04235
707,-356,7.13232,1.88367,0.0222133,-0.00145642,-0.00307105,0.0226053,-0.00184838,-0.126946,0.0157226,0.0230349,1931,1380,7.13237,-1.88361
714,-356,7.3208,1.59924,0,0,0,0,0,0,0,-1,1938,1380,7.32075,-1.59922
721,-356,7.46631,1.83813,0.034145,-0.00137024,-0.00465841,0.0347459,-0.00197111,-0.128276,0.0238481,0.0424667,1945,1380,7.46631,-1.83818
728,-356,7.66968,1.88135,0.0390358,-0.000820893,-0.00552543,0.0397876,-0.00157272,-0.135235,0.0270645,0.0448358,1952,1380,7.66971,-1.8813
735,-356,7.86951,1.90991,0,0,0,0,0,0,0,-1,1959,1380,7.86948,-1.90997
742,-356,7.27478,2.51892,0,0,0,0,0,0,0,-1,1966,1380,7.2748,-2.51891
749,-356,6.97021,2.74365,0,0,0,0,0,0,0,-1,1973,1380,6.97023,-2.74363
756,-356,0,0,0,0,0,0,0,0,0,-1,1980,1380,0,0
763,-356,0,0,0,0,0,0,0,0,0,-1,1987,1380,0,0
770,-356,0,0,0,0,0,0,0,0,0,-1,1994,1380,0,0
777,-356,0,0,0,0,0,0,0,0,0,-1,2001,1380,0,0
784,-356,0,0,0,0,0,0,0,0,0,-1,2008,1380,0,0
791,-356,0,0,0,0,0,0,0,0,0,-1,2015,1380,0,0
798,-356,0,0,0,0,0,0,0,0,0,-1,2022,1380,0,0
805,-356,0,0,0,0,0,0,0,0,0,-1,2029,1380,0,0
812,-356,0,0,0,0,0,0,0,0,0,-1,2036,1380,0,0
-700,-363,0,0,0,0,0,0,0,0,0,-1,524,1387,0,0
-693,-363,0,0,0,0,0,0,0,0,0,-1,531,1387,0,0
-686,-363,0,0,0,0,0,0,0,0,0,-1,538,1387,0,0
-679,-363,0,0,0,0,0,0,0,0,0,-1,545,1387,0,0
-672,-363,0,0,0,0,0,0,0,0,0,-1,552,1387,0,0
-665,-363,0,0,0,0,0,0,0,0,0,-1,559,1387,0,0
-658,-363,0,0,0,0,0,0,0,0,0,-1,566,1387,0,0
-651,-363,0,0,0,0,0,0,0,0,0,-1,573,1387,0,0
-644,-363,0,0,0,0,0,0,0,0,0,-1,580,1387,0,0
-637,-363,0,0,0,0,0,0,0,0,0,-1,587,1387,0,0
-630,-363,0,0,0,0,0,0,0,0,0,-1,594,1387,0,0
-623,-363,-0.97821,-3.80896,0,0,0,0,0,0,0,-1,601,1387,-0.978229,3.80891
-616,-363,-1.237,-3.11951,0,0,0,0,0,0,0,-1,608,1387,-1.237,3.11947
-609,-363,-1.26208,-1.36206,0,0,0,0,0,0,0,-1,615,1387,-1.2621,1.36206
-602,-363,-1.19501,-1.25391,0,0,0,0,0,0,0,-1,622,1387,-1.195,1.25395
-595,-363,-1.22839,0.724731,0,0,0,0,0,0,0,-1,629,1387,-1.22837,-0.724688
-588,-363,-1.21686,0.85083,0,0,0,0,0,0,0,-1,636,1387,-1.21683,-0.850844
-581,-363,-1.26276,1.04272,0.00477592,0.0264344,0.0108978,0.0309686,0.000241718,1.17652,0.0205656,0.0370748,643,1387,-1.26273,-1.04275
-574,-363,-1.28381,1.2384,0.00239516,0.0178891,0.00734693,0.0208189,-0.000534618,1.19135,0.0140608,0.0269993,650,1387,-1.28384,-1.23846
-567,-363,-1.33905,1.34717,0.000654482,0.0119086,0.00452209,0.0135004,-0.000937405,1.23232,0.00932848,0.0164443,657,1387,-1.33903,-1.34711
-560,-363,-1.328,1.42139,-0.000667631,0.0069961,0.00220007,0.00758277,-0.00125431,1.3102,0.00552098,0.0128706,664,1387,-1.328,-1.42135
-553,-363,-1.33221,1.51855,-0.00123769,0.00449347,0.000761998,0.00459305,-0.00133727,1.44085,0.00359176,0.0132426,671,1387,-1.3322,-1.51855
-546,-363,-1.32733,1.60278,-0.00112149,0.00215744,-0.00019801,0.00216935,-0.00113341,-1.5107,0.00193786,0.0133268,678,1387,-1.3273,-1.6028
-539,-363,-1.297,1.69897,-0.000416974,0.000812597,-0.00125762,0.00159766,-0.00120203,-1.01274,0.00162177,0.0151141,685,1387,-1.29699,-1.69899
-532,-363,-1.30566,1.8125,0.000440246,-0.000138291,-0.00242643,0.00259459,-0.00229263,-0.72607,0.00282343,0.0128019,692,1387,-1.30569,-1.81252
-525,-363,-1.31683,1.90686,0.00116961,-0.00108666,-0.00364522,0.00385728,-0.00377433,-0.635331,0.0044062,0.0108893,699,1387,-1.31684,-1.90687
-518,-363,-1.31897,1.99329,0.00217116,-0.00165625,-0.00497872,0.0055913,-0.00507639,-0.601915,0.00616139,0.00960671,706,1387,-1.31898,-1.99326
-511,-363,-1.31006,2.10071,0.00326952,-0.00196131,-0.00663223,0.0077834,-0.00647519,-0.597585,0.00824375,0.0134373,713,1387,-1.31009,-2.10075
-504,-363,-1.25958,2.20984,0.0042997,-0.00209044,-0.00861136,0.0102896,-0.00808036,-0.607756,0.0106314,0.0215156,720,1387,-1.25957,-2.20988
-497,-363,-1.19116,2.07983,0.00516399,-0.0018728,-0.0109253,0.0131235,-0.00983228,-0.629622,0.0132988,0.0355815,727,1387,-1.19116,-2.07985
-490,-363,-1.11957,1.95801,0.00587812,-0.00136802,-0.0133502,0.0160882,-0.0115781,-0.652896,0.0160437,0.044595,734,1387,-1.11958,-1.95806
-483,-363,-1.01117,1.70557,0.00648607,-0.000373683,-0.0157737,0.0191985,-0.0130861,-0.678343,0.0187505,0.0450384,741,1387,-1.01119,-1.70554
-476,-363,-1.25195,1.57483,0,0,0,0,0,0,0,-1,748,1387,-1.25196,-1.57478
-469,-363,-1.40149,1.77649,0,0,0,0,0,0,0,-1,755,1387,-1.40149,-1.77647
-462,-363,-0.904541,1.02112,0,0,0,0,0,0,0,-1,762,1387,-0.904551,-1.02108
-455,-363,0.276428,-0.931396,0,0,0,0,0,0,0,-1,769,1387,0.27645,0.931357
-448,-363,-3.25012,4.22791,0,0,0,0,0,0,0,-1,776,1387,-3.25015,-4.22794
-441,-363,-4.18085,4.67749,0,0,0,0,0,0,0,-1,783,1387,-4.18083,-4.67749
-434,-363,-5.27136,5.3252,0,0,0,0,0,0,0,-1,790,1387,-5.27139,-5.32519
-427,-363,0,0,0,0,0,0,0,0,0,-1,797,1387,0,0
-420,-363,0,0,0,0,0,0,0,0,0,-1,804,1387,0,0
-413,-363,0,0,0,0,0,0,0,0,0,-1,811,1387,0,0
-406,-363,0,0,0,0,0,0,0,0,0,-1,818,1387,0,0
-399,-363,0,0,0,0,0,0,0,0,0,-1,825,1387,0,0
-392,-363,0,0,0,0,0,0,0,0,0,-1,832,1387,0,0
-385,-363,0,0,0,0,0,0,0,0,0,-1,839,1387,0,0
-378,-363,0,0,0,0,0,0,0,0,0,-1,846,1387,0,0
-371,-363,0,0,0,0,0,0,0,0,0,-1,853,1387,0,0
-364,-363,0,0,0,0,0,0,0,0,0,-1,860,1387,0,0
-357,-363,0,0,0,0,0,0,0,0,0,-1,867,1387,0,0
-350,-363,0,0,0,0,0,0,0,0,0,-1,874,1387,0,0
-343,-363,0,0,0,0,0,0,0,0,0,-1,881,1387,0,0
-336,-363,0,0,0,0,0,0,0,0,0,-1,888,1387,0,0
-329,-363,0,0,0,0,0,0,0,0,0,-1,895,1387,0,0
-322,-363,0,0,0,0,0,0,0,0,0,-1,902,1387,0,0
-315,-363,0,0,0,0,0,0,0,0,0,-1,909,1387,0,0
-308,-363,0,0,0,0,0,0,0,0,0,-1,916,1387,0,0
-301,-363,0,0,0,0,0,0,0,0,0,-1,923,1387,0,0
-294,-363,0,0,0,0,0,0,0,0,0,-1,930,1387,0,0
-287,-363,0,0,0,0,0,0,0,0,0,-1,937,1387,0,0
-280,-363,0,0,0,0,0,0,0,0,0,-1,944,1387,0,0
-273,-363,0,0,0,0,0,0,0,0,0,-1,951,1387,0,0
-266,-363,0,0,0,0,0,0,0,0,0,-1,958,1387,0,0
-259,-363,0,0,0,0,0,0,0,0,0,-1,965,1387,0,0
-252,-363,0,0,0,0,0,0,0,0,0,-1,972,1387,0,0
-245,-363,0,0,0,0,0,0,0,0,0,-1,979,1387,0,0
-238,-363,0,0,0,0,0,0,0,0,0,-1,986,1387,0,0
-231,-363,0,0,0,0,0,0,0,0,0,-1,993,1387,0,0
-224,-363,0,0,0,0,0,0,0,0,0,-1,1000,1387,0,0
-217,-363,0,0,0,0,0,0,0,0,0,-1,1007,1387,0,0
-210,-363,0,0,0,0,0,0,0,0,0,-1,1014,1387,0,0
-203,-363,0,0,0,0,0,0,0,0,0,-1,1021,1387,0,0
-196,-363,0,0,0,0,0,0,0,0,0,-1,1028,1387,0,0
-189,-363,0,0,0,0,0,0,0,0,0,-1,1035,1387,0,0
-182,-363,0,0,0,0,0,0,0,0,0,-1,1042,1387,0,0
-175,-363,0,0,0,0,0,0,0,0,0,-1,1049,1387,0,0
-168,-363,0,0,0,0,0,0,0,0,0,-1,1056,1387,0,0
-161,-363,0,0,0,0,0,0,0,0,0,-1,1063,1387,0,0
-154,-363,0,0,0,0,0,0,0,0,0,-1,1070,1387,0,0
-147,-363,0,0,0,0,0,0,0,0,0,-1,1077,1387,0,0
-140,-363,0,0,0,0,0,0,0,0,0,-1,1084,1387,0,0
-133,-363,0,0,0,0,0,0,0,0,0,-1,1091,1387,0,0
-126,-363,0,0,0,0,0,0,0,0,0,-1,1098,1387,0,0
-119,-363,0,0,0,0,0,0,0,0,0,-1,1105,1387,0,0
-112,-363,0,0,0,0,0,0,0,0,0,-1,1112,1387,0,0
-105,-363,0,0,0,0,0,0,0,0,0,-1,1119,1387,0,0
-98,-363,0,0,0,0,0,0,0,0,0,-1,1126,1387,0,0
-91,-363,0,0,0,0,0,0,0,0,0,-1,1133,1387,0,0
-84,-363,0,0,0,0,0,0,0,0,0,-1,1140,1387,0,0
-77,-363,0,0,0,0,0,0,0,0,0,-1,1147,1387,0,0
-70,-363,0,0,0,0,0,0,0,0,0,-1,1154,1387,0,0
-63,-363,0,0,0,0,0,0,0,0,0,-1,1161,1387,0,0
-56,-363,0,0,0,0,0,0,0,0,0,-1,1168,1387,0,0
-49,-363,0,0,0,0,0,0,0,0,0,-1,1175,1387,0,0
-42,-363,0,0,0,0,0,0,0,0,0,-1,1182,1387,0,0
-35,-363,0,0,0,0,0,0,0,0,0,-1,1189,1387,0,0
-28,-363,0,0,0,0,0,0,0,0,0,-1,1196,1387,0,0
-21,-363,0,0,0,0,0,0,0,0,0,-1,1203,1387,0,0
-14,-363,0,0,0,0,0,0,0,0,0,-1,1210,1387,0,0
-7,-363,0,0,0,0,0,0,0,0,0,-1,1217,1387,0,0
0,-363,0,0,0,0,0,0,0,0,0,-1,1224,1387,0,0
7,-363,0,0,0,0,0,0,0,0,0,-1,1231,1387,0,0
14,-363,0,0,0,0,0,0,0,0,0,-1,1238,1387,0,0
21,-363,0,0,0,0,0,0,0,0,0,-1,1245,1387,0,0
28,-363,0,0,0,0,0,0,0,0,0,-1,1252,1387,0,0
35,-363,0,0,0,0,0,0,0,0,0,-1,1259,1387,0,0
42,-363,0,0,0,0,0,0,0,0,0,-1,1266,1387,0,0
49,-363,0,0,0,0,0,0,0,0,0,-1,1273,1387,0,0
56,-363,0,0,0,0,0,0,0,0,0,-1,1280,1387,0,0
63,-363,0,0,0,0,0,0,0,0,0,-1,1287,1387,0,0
70,-363,0,0,0,0,0,0,0,0,0,-1,1294,1387,0,0
77,-363,0,0,0,0,0,0,0,0,0,-1,1301,1387,0,0
84,-363,0,0,0,0,0,0,0,0,0,-1,1308,1387,0,0
91,-363,0,0,0,0,0,0,0,0,0,-1,1315,1387,0,0
98,-363,0,0,0,0,0,0,0,0,0,-1,1322,1387,0,0
105,-363,0,0,0,0,0,0,0,0,0,-1,1329,1387,0,0
112,-363,0,0,0,0,0,0,0,0,0,-1,1336,1387,0,0
119,-363,0,0,0,0,0,0,0,0,0,-1,1343,1387,0,0
126,-363,0,0,0,0,0,0,0,0,0,-1,1350,1387,0,0
133,-363,0,0,0,0,0,0,0,0,0,-1,1357,1387,0,0
140,-363,0,0,0,0,0,0,0,0,0,-1,1364,1387,0,0
147,-363,0,0,0,0,0,0,0,0,0,-1,1371,1387,0,0
154,-363,0,0,0,0,0,0,0,0,0,-1,1378,1387,0,0
161,-363,0,0,0,0,0,0,0,0,0,-1,1385,1387,0,0
168,-363,0,0,0,0,0,0,0,0,0,-1,1392,1387,0,0
175,-363,0,0,0,0,0,0,0,0,0,-1,1399,1387,0,0
182,-363,0,0,0,0,0,0,0,0,0,-1,1406,1387,0,0
189,-363,0,0,0,0,0,0,0,0,0,-1,1413,1387,0,0
196,-363,0,0,0,0,0,0,0,0,0,-1,1420,1387,0,0
203,-363,0,0,0,0,0,0,0,0,0,-1,1427,1387,0,0
210,-363,0,0,0,0,0,0,0,0,0,-1,1434,1387,0,0
217,-363,0,0,0,0,0,0,0,0,0,-1,1441,1387,0,0
224,-363,0,0,0,0,0,0,0,0,0,-1,1448,1387,0,0
231,-363,0,0,0,0,0,0,0,0,0,-1,1455,1387,0,0
238,-363,0,0,0,0,0,0,0,0,0,-1,1462,1387,0,0
245,-363,0,0,0,0,0,0,0,0,0,-1,1469,1387,0,0
252,-363,0,0,0,0,0,0,0,0,0,-1,1476,1387,0,0
259,-363,0,0,0,0,0,0,0,0,0,-1,1483,1387,0,0
266,-363,0,0,0,0,0,0,0,0,0,-1,1490,1387,0,0
273,-363,0,0,0,0,0,0,0,0,0,-1,1497,1387,0,0
280,-363,0,0,0,0,0,0,0,0,0,-1,1504,1387,0,0
287,-363,0,0,0,0,0,0,0,0,0,-1,1511,1387,0,0
294,-363,0,0,0,0,0,0,0,0,0,-1,1518,1387,0,0
301,-363,0,0,0,0,0,0,0,0,0,-1,1525,1387,0,0
308,-363,0,0,0,0,0,0,0,0,0,-1,1532,1387,0,0
315,-363,0,0,0,0,0,0,0,0,0,-1,1539,1387,0,0
322,-363,0,0,0,0,0,0,0,0,0,-1,1546,1387,0,0
329,-363,0,0,0,0,0,0,0,0,0,-1,1553,1387,0,0
336,-363,0,0,0,0,0,0,0,0,0,-1,1560,1387,0,0
343,-363,0,0,0,0,0,0,0,0,0,-1,1567,1387,0,0
350,-363,0,0,0,0,0,0,0,0,0,-1,1574,1387,0,0
357,-363,0,0,0,0,0,0,0,0,0,-1,1581,1387,0,0
364,-363,0,0,0,0,0,0,0,0,0,-1,1588,1387,0,0
371,-363,0,0,0,0,0,0,0,0,0,-1,1595,1387,0,0
378,-363,0,0,0,0,0,0,0,0,0,-1,1602,1387,0,0
385,-363,0,0,0,0,0,0,0,0,0,-1,1609,1387,0,0
392,-363,0,0,0,0,0,0,0,0,0,-1,1616,1387,0,0
399,-363,0,0,0,0,0,0,0,0,0,-1,1623,1387,0,0
406,-363,0,0,0,0,0,0,0,0,0,-1,1630,1387,0,0
413,-363,0,0,0,0,0,0,0,0,0,-1,1637,1387,0,0
420,-363,0,0,0,0,0,0,0,0,0,-1,1644,1387,0,0
427,-363,0,0,0,0,0,0,0,0,0,-1,1651,1387,0,0
434,-363,0,0,0,0,0,0,0,0,0,-1,1658,1387,0,0
441,-363,0,0,0,0,0,0,0,0,0,-1,1665,1387,0,0
448,-363,0,0,0,0,0,0,0,0,0,-1,1672,1387,0,0
455,-363,0,0,0,0,0,0,0,0,0,-1,1679,1387,0,0
462,-363,0,0,0,0,0,0,0,0,0,-1,1686,1387,0,0
469,-363,0,0,0,0,0,0,0,0,0,-1,1693,1387,0,0
476,-363,0,0,0,0,0,0,0,0,0,-1,1700,1387,0,0
483,-363,0,0,0,0,0,0,0,0,0,-1,1707,1387,0,0
490,-363,0,0,0,0,0,0,0,0,0,-1,1714,1387,0,0
497,-363,0,0,0,0,0,0,0,0,0,-1,1721,1387,0,0
504,-363,0,0,0,0,0,0,0,0,0,-1,1728,1387,0,0
511,-363,0,0,0,0,0,0,0,0,0,-1,1735,1387,0,0
518,-363,0,0,0,0,0,0,0,0,0,-1,1742,1387,0,0
525,-363,0,0,0,0,0,0,0,0,0,-1,1749,1387,0,0
532,-363,0,0,0,0,0,0,0,0,0,-1,1756,1387,0,0
539,-363,0,0,0,0,0,0,0,0,0,-1,1763,1387,0,0
546,-363,0,0,0,0,0,0,0,0,0,-1,1770,1387,0,0
553,-363,8.30469,5.29736,0,0,0,0,0,0,0,-1,1777,1387,8.30469,-5.29738
560,-363,11.7981,2.73352,0,0,0,0,0,0,0,-1,1784,1387,11.7981,-2.73355
567,-363,11.173,2.73816,0,0,0,0,0,0,0,-1,1791,1387,11.173,-2.73817
574,-363,10.5508,2.77344,0.0315103,0.0315524,0.0209195,0.0524509,0.0106118,0.785901,0.0320216,0.0433134,1798,1387,10.5508,-2.77345
581,-363,9.84143,2.62561,0.0268042,0.0210546,0.0170783,0.0412479,0.0066108,0.702015,0.0255814,0.0412252,1805,1387,9.84142,-2.62563
588,-363,9.54565,2.73425,0.0215321,0.0135846,0.0127004,0.0308659,0.00425082,0.63378,0.0193169,0.0462033,1812,1387,9.54559,-2.73426
595,-363,8.97571,2.78381,0,0,0,0,0,0,0,-1,1819,1387,8.9757,-2.78381
602,-363,8.2821,2.52356,0,0,0,0,0,0,0,-1,1826,1387,8.28215,-2.52355
609,-363,8.16321,2.59985,0.0035712,0.00257347,0.00458805,0.00768742,-0.00154275,0.731245,0.00570911,0.0461143,1833,1387,8.16317,-2.5998
616,-363,7.83557,2.34192,-0.00103441,0.000726098,0.00350766,0.00346227,-0.00377058,0.908335,0.00417716,0.0430296,1840,1387,7.83562,-2.3419
623,-363,7.25562,2.48901,-0.0052924,-0.0011728,0.00333286,0.000685399,-0.00715059,1.06218,0.00501118,0.0436055,1847,1387,7.25564,-2.48906
630,-363,7.03992,2.64832,-0.00698195,-0.00228889,0.00288262,-0.000918469,-0.00835237,1.12702,0.00528874,0.0290091,1854,1387,7.03998,-2.64829
637,-363,6.96094,2.76233,-0.00903346,-0.00255784,0.00225402,-0.00185052,-0.00974078,1.26673,0.00597333,0.0164275,1861,1387,6.96095,-2.7623
644,-363,7.04126,2.71521,-0.0102568,-0.00283714,0.00112143,-0.00267135,-0.0104226,1.42402,0.00625117,0.0104724,1868,1387,7.04123,-2.71515
651,-363,7.0553,2.60425,-0.00678369,-0.00213705,0.00136894,-0.00176374,-0.007157,1.30457,0.00430557,0.00978479,1875,1387,7.05526,-2.60422
658,-363,7.05896,2.50635,-0.00394739,-0.00152462,0.00194796,-0.000442096,-0.00502991,1.06357,0.00321605,0.0107196,1882,1387,7.05897,-2.5063
665,-363,7.04309,2.47107,-0.00107651,-0.00110859,0.00153255,0.000440082,-0.00262518,0.780166,0.00191376,0.011676,1889,1387,7.04315,-2.47103
672,-363,7.04639,2.41101,0.00161342,-0.000555522,0.000111552,0.00161914,-0.000561244,0.0512514,0.0013073,0.0131605,1896,1387,7.04638,-2.41097
679,-363,7.05334,2.3092,0.00561165,-0.00141652,-0.00107236,0.00577164,-0.0015765,-0.148093,0.00446697,0.0141643,1903,1387,7.05331,-2.3092
686,-363,7.05151,2.22852,0.0105883,-0.00113432,-0.00138037,0.0107487,-0.00129466,-0.115645,0.00763403,0.0143922,1910,1387,7.05156,-2.22848
693,-363,7.04822,2.12976,0.0162749,-0.00143198,-0.00211798,0.0165247,-0.0016818,-0.117407,0.0116177,0.0138903,1917,1387,7.04816,-2.12979
700,-363,7.0531,2.00439,0.0226441,-0.00159088,-0.00281783,0.0229674,-0.0019142,-0.114241,0.0159879,0.0157316,1924,1387,7.05315,-2.00435
707,-363,7.01721,1.89001,0.0295529,-0.00190207,-0.00362462,0.0299652,-0.00231434,-0.113254,0.0207912,0.0263589,1931,1387,7.01718,-1.88997
714,-363,7.27051,1.58459,0.038383,-0.00204169,-0.00411495,0.0387977,-0.00245631,-0.100421,0.0267215,0.0424795,1938,1387,7.27054,-1.58459
721,-363,7.60388,1.26538,0,0,0,0,0,0,0,-1,1945,1387,7.60391,-1.26537
728,-363,7.81396,1.75745,0,0,0,0,0,0,0,-1,1952,1387,7.81396,-1.75749
735,-363,8.54651,6.98657,0,0,0,0,0,0,0,-1,1959,1387,8.54645,-6.98654
742,-363,7.25439,2.80957,0,0,0,0,0,0,0,-1,1966,1387,7.25443,-2.80961
749,-363,0,0,0,0,0,0,0,0,0,-1,1973,1387,0,0
756,-363,0,0,0,0,0,0,0,0,0,-1,1980,1387,0,0
763,-363,0,0,0,0,0,0,0,0,0,-1,1987,1387,0,0
770,-363,0,0,0,0,0,0,0,0,0,-1,1994,1387,0,0
777,-363,0,0,0,0,0,0,0,0,0,-1,2001,1387,0,0
784,-363,0,0,0,0,0,0,0,0,0,-1,2008,1387,0,0
791,-363,0,0,0,0,0,0,0,0,0,-1,2015,1387,0,0
798,-363,0,0,0,0,0,0,0,0,0,-1,2022,1387,0,0
805,-363,0,0,0,0,0,0,0,0,0,-1,2029,1387,0,0
812,-363,0,0,0,0,0,0,0,0,0,-1,2036,1387,0,0
-700,-370,0,0,0,0,0,0,0,0,0,-1,524,1394,0,0
-693,-370,0,0,0,0,0,0,0,0,0,-1,531,1394,0,0
-686,-370,0,0,0,0,0,0,0,0,0,-1,538,1394,0,0
-679,-370,0,0,0,0,0,0,0,0,0,-1,545,1394,0,0
-672,-370,0,0,0,0,0,0,0,0,0,-1,552,1394,0,0
-665,-370,0,0,0,0,0,0,0,0,0,-1,559,1394,0,0
-658,-370,0,0,0,0,0,0,0,0,0,-1,566,1394,0,0
-651,-370,0,0,0,0,0,0,0,0,0,-1,573,1394,0,0
-644,-370,0,0,0,0,0,0,0,0,0,-1,580,1394,0,0
-637,-370,0,0,0,0,0,0,0,0,0,-1,587,1394,0,0
-630,-370,0,0,0,0,0,0,0,0,0,-1,594,1394,0,0
-623,-370,-0.473755,-5.0835,0,0,0,0,0,0,0,-1,601,1394,-0.473727,5.08353
-616,-370,-0.906677,-3.6897,0,0,0,0,0,0,0,-1,608,1394,-0.906675,3.68967
-609,-370,-2.77081,0.102295,0,0,0,0,0,0,0,-1,615,1394,-2.77078,-0.102263
-602,-370,-1.10846,1.99329,0,0,0,0,0,0,0,-1,622,1394,-1.10848,-1.99333
-595,-370,-0.987488,1.82678,0,0,0,0,0,0,0,-1,629,1394,-0.987474,-1.82679
-588,-370,-1.12482,0.786499,0,0,0,0,0,0,0,-1,636,1394,-1.1248,-0.786482
-581,-370,-1.53589,0.822998,0.00314227,0.029655,0.0116986,0.0340788,-0.00128157,1.20927,0.0231582,0.0427888,643,1394,-1.5359,-0.823055
-574,-370,-1.19934,1.23999,0.000687852,0.0203182,0.0078185,0.0230516,-0.00204554,1.23447,0.016093,0.0355212,650,1394,-1.19937,-1.24001
-567,-370,-1.24237,1.38354,-0.00102705,0.0137274,0.00478104,0.0151412,-0.00244083,1.28328,0.0109984,0.0197032,657,1394,-1.24235,-1.38359
-560,-370,-1.24707,1.42212,-0.00224568,0.00846732,0.00235123,0.00896064,-0.002739,1.36398,0.00706598,0.0135319,664,1394,-1.24708,-1.42216
-553,-370,-1.23206,1.5105,-0.00262187,0.00569529,0.000937143,0.00579957,-0.00272616,1.45997,0.00502781,0.0102652,671,1394,-1.23204,-1.51047
-546,-370,-1.21918,1.60876,-0.0022503,0.00319721,2.18204e-05,0.0031973,-0.00225039,1.56679,0.00316102,0.0135775,678,1394,-1.21915,-1.60877
-539,-370,-1.20343,1.72375,-0.0013014,0.00164085,-0.000942161,0.00191669,-0.00157724,-1.28599,0.00202039,0.0177607,685,1394,-1.20345,-1.72377
-532,-370,-1.21838,1.82239,-0.000211005,0.000453704,-0.00201664,0.00216519,-0.00192249,-0.867067,0.00236141,0.018945,692,1394,-1.2184,-1.82245
-525,-370,-1.21753,1.91443,0.000702158,-0.000694004,-0.00315978,0.00324005,-0.0032319,-0.676681,0.00373659,0.0123325,699,1394,-1.2175,-1.91449
-518,-370,-1.23773,1.99011,0.00189914,-0.00141259,-0.00434565,0.00489371,-0.00440716,-0.60337,0.00537231,0.00923097,706,1394,-1.23773,-1.99016
-511,-370,-1.21863,2.07532,0.00316473,-0.00196106,-0.00577419,0.00691925,-0.00571558,-0.576532,0.00730574,0.0127285,713,1394,-1.21861,-2.07527
-504,-370,-1.19635,2.18188,0.00423366,-0.00243321,-0.00745693,0.0090683,-0.00726786,-0.57521,0.00945076,0.0181268,720,1394,-1.19632,-2.18194
-497,-370,-1.13953,2.28552,0.00492435,-0.00263864,-0.0094491,0.0113205,-0.00903482,-0.59506,0.0117768,0.027796,727,1394,-1.1395,-2.28549
-490,-370,-1.21539,2.1084,0.00525511,-0.00268582,-0.0115332,0.0134822,-0.0109129,-0.619621,0.0141105,0.0379648,734,1394,-1.21541,-2.10838
-483,-370,-1.28461,1.9397,0,0,0,0,0,0,0,-1,741,1394,-1.2846,-1.93973
-476,-370,-1.80017,2.0199,0,0,0,0,0,0,0,-1,748,1394,-1.80018,-2.01984
-469,-370,-1.93073,2.0835,0,0,0,0,0,0,0,-1,755,1394,-1.9307,-2.08344
-462,-370,-1.03943,1.26172,0,0,0,0,0,0,0,-1,762,1394,-1.03942,-1.26169
-455,-370,-2.20044,2.73779,0,0,0,0,0,0,0,-1,769,1394,-2.20043,-2.73775
-448,-370,-2.66937,3.55322,0,0,0,0,0,0,0,-1,776,1394,-2.66938,-3.55317
-441,-370,-3.27716,4.15063,0,0,0,0,0,0,0,-1,783,1394,-3.27714,-4.15067
-434,-370,-3.86664,4.75269,0,0,0,0,0,0,0,-1,790,1394,-3.86664,-4.75271
-427,-370,0,0,0,0,0,0,0,0,0,-1,797,1394,0,0
-420,-370,0,0,0,0,0,0,0,0,0,-1,804,1394,0,0
-413,-370,0,0,0,0,0,0,0,0,0,-1,811,1394,0,0
-406,-370,0,0,0,0,0,0,0,0,0,-1,818,1394,0,0
-399,-370,0,0,0,0,0,0,0,0,0,-1,825,1394,0,0
-392,-370,0,0,0,0,0,0,0,0,0,-1,832,1394,0,0
-385,-370,0,0,0,0,0,0,0,0,0,-1,839,1394,0,0
-378,-370,0,0,0,0,0,0,0,0,0,-1,846,1394,0,0
-371,-370,0,0,0,0,0,0,0,0,0,-1,853,1394,0,0
-364,-370,0,0,0,0,0,0,0,0,0,-1,860,1394,0,0
-357,-370,0,0,0,0,0,0,0,0,0,-1,867,1394,0,0
-350,-370,0,0,0,0,0,0,0,0,0,-1,874,1394,0,0
-343,-370,0,0,0,0,0,0,0,0,0,-1,881,1394,0,0
-336,-370,0,0,0,0,0,0,0,0,0,-1,888,1394,0,0
-329,-370,0,0,0,0,0,0,0,0,0,-1,895,1394,0,0
-322,-370,0,0,0,0,0,0,0,0,0,-1,902,1394,0,0
-315,-370,0,0,0,0,0,0,0,0,0,-1,909,1394,0,0
-308,-370,0,0,0,0,0,0,0,0,0,-1,916,1394,0,0
-301,-370,0,0,0,0,0,0,0,0,0,-1,923,1394,0,0
-294,-370,0,0,0,0,0,0,0,0,0,-1,930,1394,0,0
-287,-370,0,0,0,0,0,0,0,0,0,-1,937,1394,0,0
-280,-370,0,0,0,0,0,0,0,0,0,-1,944,1394,0,0
-273,-370,0,0,0,0,0,0,0,0,0,-1,951,1394,0,0
-266,-370,0,0,0,0,0,0,0,0,0,-1,958,1394,0,0
-259,-370,0,0,0,0,0,0,0,0,0,-1,965,1394,0,0
-252,-370,0,0,0,0,0,0,0,0,0,-1,972,1394,0,0
-245,-370,0,0,0,0,0,0,0,0,0,-1,979,1394,0,0
-238,-370,0,0,0,0,0,0,0,0,0,-1,986,1394,0,0
-231,-370,0,0,0,0,0,0,0,0,0,-1,993,1394,0,0
-224,-370,0,0,0,0,0,0,0,0,0,-1,1000,1394,0,0
-217,-370,0,0,0,0,0,0,0,0,0,-1,1007,1394,0,0
-210,-370,0,0,0,0,0,0,0,0,0,-1,1014,1394,0,0
-203,-370,0,0,0,0,0,0,0,0,0,-1,1021,1394,0,0
-196,-370,0,0,0,0,0,0,0,0,0,-1,1028,1394,0,0
-189,-370,0,0,0,0,0,0,0,0,0,-1,1035,1394,0,0
-182,-370,0,0,0,0,0,0,0,0,0,-1,1042,1394,0,0
-175,-370,0,0,0,0,0,0,0,0,0,-1,1049,1394,0,0
-168,-370,0,0,0,0,0,0,0,0,0,-1,1056,1394,0,0
-161,-370,0,0,0,0,0,0,0,0,0,-1,1063,1394,0,0
-154,-370,0,0,0,0,0,0,0,0,0,-1,1070,1394,0,0
-147,-370,0,0,0,0,0,0,0,0,0,-1,1077,1394,0,0
-140,-370,0,0,0,0,0,0,0,0,0,-1,1084,1394,0,0
-133,-370,0,0,0,0,0,0,0,0,0,-1,1091,1394,0,0
-126,-370,0,0,0,0,0,0,0,0,0,-1,1098,1394,0,0
-119,-370,0,0,0,0,0,0,0,0,0,-1,1105,1394,0,0
-112,-370,0,0,0,0,0,0,0,0,0,-1,1112,1394,0,0
-105,-370,0,0,0,0,0,0,0,0,0,-1,1119,1394,0,0
-98,-370,0,0,0,0,0,0,0,0,0,-1,1126,1394,0,0
-91,-370,0,0,0,0,0,0,0,0,0,-1,1133,1394,0,0
-84,-370,0,0,0,0,0,0,0,0,0,-1,1140,1394,0,0
-77,-370,0,0,0,0,0,0,0,0,0,-1,1147,1394,0,0
-70,-370,0,0,0,0,0,0,0,0,0,-1,1154,1394,0,0
-63,-370,0,0,0,0,0,0,0,0,0,-1,1161,1394,0,0
-56,-370,0,0,0,0,0,0,0,0,0,-1,1168,1394,0,0
-49,-370,0,0,0,0,0,0,0,0,0,-1,1175,1394,0,0
-42,-370,0,0,0,0,0,0,0,0,0,-1,1182,1394,0,0
-35,-370,0,0,0,0,0,0,0,0,0,-1,1189,1394,0,0
-28,-370,0,0,0,0,0,0,0,0,0,-1,1196,1394,0,0
-21,-370,0,0,0,0,0,0,0,0,0,-1,1203,1394,0,0
-14,-370,0,0,0,0,0,0,0,0,0,-1,1210,1394,0,0
-7,-370,0,0,0,0,0,0,0,0,0,-1,1217,1394,0,0
0,-370,0,0,0,0,0,0,0,0,0,-1,1224,1394,0,0
7,-370,0,0,0,0,0,0,0,0,0,-1,1231,1394,0,0
14,-370,0,0,0,0,0,0,0,0,0,-1,1238,1394,0,0
21,-370,0,0,0,0,0,0,0,0,0,-1,1245,1394,0,0
28,-370,0,0,0,0,0,0,0,0,0,-1,1252,1394,0,0
35,-370,0,0,0,0,0,0,0,0,0,-1,1259,1394,0,0
42,-370,0,0,0,0,0,0,0,0,0,-1,1266,1394,0,0
49,-370,0,0,0,0,0,0,0,0,0,-1,1273,1394,0,0
56,-370,0,0,0,0,0,0,0,0,0,-1,1280,1394,0,0
63,-370,0,0,0,0,0,0,0,0,0,-1,1287,1394,0,0
70,-370,0,0,0,0,0,0,0,0,0,-1,1294,1394,0,0
77,-370,0,0,0,0,0,0,0,0,0,-1,1301,1394,0,0
84,-370,0,0,0,0,0,0,0,0,0,-1,1308,1394,0,0
91,-370,0,0,0,0,0,0,0,0,0,-1,1315,1394,0,0
98,-370,0,0,0,0,0,0,0,0,0,-1,1322,1394,0,0
105,-370,0,0,0,0,0,0,0,0,0,-1,1329,1394,0,0
112,-370,0,0,0,0,0,0,0,0,0,-1,1336,1394,0,0
119,-370,0,0,0,0,0,0,0,0,0,-1,1343,1394,0,0
126,-370,0,0,0,0,0,0,0,0,0,-1,1350,1394,0,0
133,-370,0,0,0,0,0,0,0,0,0,-1,1357,1394,0,0
140,-370,0,0,0,0,0,0,0,0,0,-1,1364,1394,0,0
147,-370,0,0,0,0,0,0,0,0,0,-1,1371,1394,0,0
154,-370,0,0,0,0,0,0,0,0,0,-1,1378,1394,0,0
161,-370,0,0,0,0,0,0,0,0,0,-1,1385,1394,0,0
168,-370,0,0,0,0,0,0,0,0,0,-1,1392,1394,0,0
175,-370,0,0,0,0,0,0,0,0,0,-1,1399,1394,0,0
182,-370,0,0,0,0,0,0,0,0,0,-1,1406,1394,0,0
189,-370,0,0,0,0,0,0,0,0,0,-1,1413,1394,0,0
196,-370,0,0,0,0,0,0,0,0,0,-1,1420,1394,0,0
203,-370,0,0,0,0,0,0,0,0,0,-1,1427,1394,0,0
210,-370,0,0,0,0,0,0,0,0,0,-1,1434,1394,0,0
217,-370,0,0,0,0,0,0,0,0,0,-1,1441,1394,0,0
224,-370,0,0,0,0,0,0,0,0,0,-1,1448,1394,0,0
231,-370,0,0,0,0,0,0,0,0,0,-1,1455,1394,0,0
238,-370,0,0,0,0,0,0,0,0,0,-1,1462,1394,0,0
245,-370,0,0,0,0,0,0,0,0,0,-1,1469,1394,0,0
252,-370,0,0,0,0,0,0,0,0,0,-1,1476,1394,0,0
259,-370,0,0,0,0,0,0,0,0,0,-1,1483,1394,0,0
266,-370,0,0,0,0,0,0,0,0,0,-1,1490,1394,0,0
273,-370,0,0,0,0,0,0,0,0,0,-1,1497,1394,0,0
280,-370,0,0,0,0,0,0,0,0,0,-1,1504,1394,0,0
287,-370,0,0,0,0,0,0,0,0,0,-1,1511,1394,0,0
294,-370,0,0,0,0,0,0,0,0,0,-1,1518,1394,0,0
301,-370,0,0,0,0,0,0,0,0,0,-1,1525,1394,0,0
308,-370,0,0,0,0,0,0,0,0,0,-1,1532,1394,0,0
315,-370,0,0,0,0,0,0,0,0,0,-1,1539,1394,0,0
322,-370,0,0,0,0,0,0,0,0,0,-1,1546,1394,0,0
329,-370,0,0,0,0,0,0,0,0,0,-1,1553,1394,0,0
336,-370,0,0,0,0,0,0,0,0,0,-1,1560,1394,0,0
343,-370,0,0,0,0,0,0,0,0,0,-1,1567,1394,0,0
350,-370,0,0,0,0,0,0,0,0,0,-1,1574,1394,0,0
357,-370,0,0,0,0,0,0,0,0,0,-1,1581,1394,0,0
364,-370,0,0,0,0,0,0,0,0,0,-1,1588,1394,0,0
371,-370,0,0,0,0,0,0,0,0,0,-1,1595,1394,0,0
378,-370,0,0,0,0,0,0,0,0,0,-1,1602,1394,0,0
385,-370,0,0,0,0,0,0,0,0,0,-1,1609,1394,0,0
392,-370,0,0,0,0,0,0,0,0,0,-1,1616,1394,0,0
399,-370,0,0,0,0,0,0,0,0,0,-1,1623,1394,0,0
406,-370,0,0,0,0,0,0,0,0,0,-1,1630,1394,0,0
413,-370,0,0,0,0,0,0,0,0,0,-1,1637,1394,0,0
420,-370,0,0,0,0,0,0,0,0,0,-1,1644,1394,0,0
427,-370,0,0,0,0,0,0,0,0,0,-1,1651,1394,0,0
434,-370,0,0,0,0,0,0,0,0,0,-1,1658,1394,0,0
441,-370,0,0,0,0,0,0,0,0,0,-1,1665,1394,0,0
448,-370,0,0,0,0,0,0,0,0,0,-1,1672,1394,0,0
455,-370,0,0,0,0,0,0,0,0,0,-1,1679,1394,0,0
462,-370,0,0,0,0,0,0,0,0,0,-1,1686,1394,0,0
469,-370,0,0,0,0,0,0,0,0,0,-1,1693,1394,0,0
476,-370,0,0,0,0,0,0,0,0,0,-1,1700,1394,0,0
483,-370,0,0,0,0,0,0,0,0,0,-1,1707,1394,0,0
490,-370,0,0,0,0,0,0,0,0,0,-1,1714,1394,0,0
497,-370,0,0,0,0,0,0,0,0,0,-1,1721,1394,0,0
504,-370,0,0,0,0,0,0,0,0,0,-1,1728,1394,0,0
511,-370,0,0,0,0,0,0,0,0,0,-1,1735,1394,0,0
518,-370,0,0,0,0,0,0,0,0,0,-1,1742,1394,0,0
525,-370,0,0,0,0,0,0,0,0,0,-1,1749,1394,0,0
532,-370,0,0,0,0,0,0,0,0,0,-1,1756,1394,0,0
539,-370,0,0,0,0,0,0,0,0,0,-1,1763,1394,0,0
546,-370,8.47607,0.242432,0,0,0,0,0,0,0,-1,1770,1394,8.47605,-0.242409
553,-370,5.66492,-1.09558,0,0,0,0,0,0,0,-1,1777,1394,5.66488,1.09558
560,-370,7.8949,4.27905,0,0,0,0,0,0,0,-1,1784,1394,7.89495,-4.27901
567,-370,10.8252,2.61658,0,0,0,0,0,0,0,-1,1791,1394,10.8252,-2.61658
574,-370,10.2263,2.60449,0.0120416,0.0248215,0.0160255,0.035684,0.00117905,0.975107,0.0234062,0.0445721,1798,1394,10.2263,-2.60444
581,-370,9.55151,2.58569,0.00817376,0.0171847,0.015759,0.0290697,-0.00371121,0.924632,0.0207279,0.0434441,1805,1394,9.55146,-2.58568
588,-370,8.60352,2.25476,0.00513374,0.0113267,0.0146563,0.02321,-0.00674964,0.889503,0.0181466,0.0451383,1812,1394,8.60353,-2.2548
595,-370,8.45361,2.38354,0.00212085,0.00701842,0.0131402,0.017936,-0.00879674,0.877521,0.0157319,0.044394,1819,1394,8.45362,-2.38351
602,-370,8.04468,2.38647,0,0,0,0,0,0,0,-1,1826,1394,8.04463,-2.38648
609,-370,7.89832,2.5354,-0.00421998,0.0012418,0.00980428,0.00868842,-0.0116666,0.921226,0.0117938,0.0473192,1833,1394,7.89834,-2.53538
616,-370,7.70093,2.59351,-0.00651522,-0.000560234,0.0083571,0.00533394,-0.0124094,0.956529,0.0105121,0.0474993,1840,1394,7.70092,-2.59348
623,-370,7.14526,2.64917,-0.00877337,-0.00227031,0.00744526,0.00260247,-0.0136461,0.991278,0.0100776,0.0446183,1847,1394,7.14528,-2.64919
630,-370,6.96497,2.81445,-0.0089608,-0.00322438,0.0061698,0.000711306,-0.0128965,1.00298,0.0088443,0.023412,1854,1394,6.965,-2.81451
637,-370,6.91931,2.8147,-0.00935358,-0.00337916,0.00489816,-0.000629171,-0.0121036,1.05922,0.00786771,0.0144384,1861,1394,6.91935,-2.81467
644,-370,6.96484,2.7113,-0.0089559,-0.00346136,0.00322095,-0.0019752,-0.0104421,1.1385,0.00640531,0.0101427,1868,1394,6.96479,-2.71134
651,-370,6.97485,2.61243,-0.00599427,-0.00261014,0.00242821,-0.00134259,-0.00726182,1.0897,0.00446153,0.0104845,1875,1394,6.97489,-2.61248
658,-370,6.98438,2.54004,-0.00350559,-0.00194489,0.00199362,-0.000584341,-0.00486614,0.971945,0.00306792,0.0110482,1882,1394,6.98436,-2.53999
665,-370,6.95752,2.46545,-0.000613083,-0.00142146,0.000963453,2.75299e-05,-0.00206207,0.586788,0.00138398,0.0123522,1889,1394,6.9575,-2.46542
672,-370,6.95374,2.38916,0.00236141,-0.000708297,-0.000651199,0.00249384,-0.000840727,-0.200628,0.00200252,0.0135977,1896,1394,6.95368,-2.38914
679,-370,6.96069,2.30469,0.00702017,-0.00163903,-0.00190359,0.00742017,-0.00203902,-0.207115,0.00574829,0.0130436,1903,1394,6.96068,-2.30472
686,-370,6.96033,2.22925,0.0129783,-0.00119025,-0.00219716,0.0133112,-0.00152315,-0.150369,0.00942297,0.0137473,1910,1394,6.96036,-2.22929
693,-370,6.95947,2.11816,0.019905,-0.00135566,-0.00307043,0.0203395,-0.00179021,-0.140592,0.0141941,0.0125467,1917,1394,6.95942,-2.11811
700,-370,6.97656,1.99902,0.0281527,-0.00140343,-0.00391176,0.0286616,-0.00191239,-0.129383,0.0197761,0.015566,1924,1394,6.97654,-1.99908
707,-370,6.87598,1.94214,0.0377332,-0.00141217,-0.00466758,0.0382821,-0.00196102,-0.117051,0.0261995,0.026941,1931,1394,6.87598,-1.94208
714,-370,7.1106,1.64221,0.0498914,-0.00112069,-0.00487633,0.0503533,-0.00158264,-0.0944519,0.0341087,0.0417662,1938,1394,7.11064,-1.64222
721,-370,7.36353,1.59705,0,0,0,0,0,0,0,-1,1945,1394,7.36347,-1.59709
728,-370,8.33521,5.46411,0,0,0,0,0,0,0,-1,1952,1394,8.33518,-5.46415
735,-370,8.78088,5.87073,0,0,0,0,0,0,0,-1,1959,1394,8.78084,-5.87076
742,-370,9.22656,6.27734,0,0,0,0,0,0,0,-1,1966,1394,9.2265,-6.27737
749,-370,0,0,0,0,0,0,0,0,0,-1,1973,1394,0,0
756,-370,0,0,0,0,0,0,0,0,0,-1,1980,1394,0,0
763,-370,0,0,0,0,0,0,0,0,0,-1,1987,1394,0,0
770,-370,0,0,0,0,0,0,0,0,0,-1,1994,1394,0,0
777,-370,0,0,0,0,0,0,0,0,0,-1,2001,1394,0,0
784,-370,0,0,0,0,0,0,0,0,0,-1,2008,1394,0,0
791,-370,0,0,0,0,0,0,0,0,0,-1,2015,1394,0,0
798,-370,0,0,0,0,0,0,0,0,0,-1,2022,1394,0,0
805,-370,0,0,0,0,0,0,0,0,0,-1,2029,1394,0,0
812,-370,0,0,0,0,0,0,0,0,0,-1,2036,1394,0,0
-700,-377,0,0,0,0,0,0,0,0,0,-1,524,1401,0,0
-693,-377,0,0,0,0,0,0,0,0,0,-1,531,1401,0,0
-686,-377,0,0,0,0,0,0,0,0,0,-1,538,1401,0,0
-679,-377,0,0,0,0,0,0,0,0,0,-1,545,1401,0,0
-672,-377,0,0,0,0,0,0,0,0,0,-1,552,1401,0,0
-665,-377,0,0,0,0,0,0,0,0,0,-1,559,1401,0,0
-658,-377,0,0,0,0,0,0,0,0,0,-1,566,1401,0,0
-651,-377,0,0,0,0,0,0,0,0,0,-1,573,1401,0,0
-644,-377,0,0,0,0,0,0,0,0,0,-1,580,1401,0,0
-637,-377,0,0,0,0,0,0,0,0,0,-1,587,1401,0,0
-630,-377,0,0,0,0,0,0,0,0,0,-1,594,1401,0,0
-623,-377,0,0,0,0,0,0,0,0,0,-1,601,1401,0,0
-616,-377,-3.32117,-0.408447,0,0,0,0,0,0,0,-1,608,1401,-3.32116,0.408484
-609,-377,-2.83429,-0.00427246,0,0,0,0,0,0,0,-1,615,1401,-2.83429,0.00421685
-602,-377,0.156006,-3.38269,0,0,0,0,0,0,0,-1,622,1401,0.155977,3.38269
-595,-377,-0.804565,1.88855,0,0,0,0,0,0,0,-1,629,1401,-0.804552,-1.88855
-588,-377,-0.977356,1.96729,0,0,0,0,0,0,0,-1,636,1401,-0.977376,-1.96724
-581,-377,-1.08331,1.07788,0,0,0,0,0,0,0,-1,643,1401,-1.08334,-1.07793
-574,-377,-1.12347,1.22363,-0.00179144,0.0239856,0.00825473,0.0264025,-0.00420829,1.28597,0.0191591,0.0465638,650,1401,-1.12347,-1.22367
-567,-377,-1.17188,1.40857,-0.00329457,0.0166511,0.00500474,0.0178364,-0.00447991,1.33824,0.0136319,0.026949,657,1401,-1.17187,-1.40858
-560,-377,-1.16687,1.43542,-0.00421291,0.0108972,0.00249701,0.0112991,-0.00461486,1.41119,0.00945424,0.0175006,664,1401,-1.16689,-1.4354
-553,-377,-1.13147,1.5105,-0.00418866,0.00768952,0.00112122,0.00779443,-0.00429357,1.4775,0.0070759,0.0122397,671,1401,-1.13149,-1.51051
-546,-377,-1.1394,1.61792,-0.0034752,0.0048879,0.000275583,0.00489697,-0.00348427,1.53789,0.00486177,0.0157616,678,1401,-1.1394,-1.61789
-539,-377,-1.11902,1.71362,-0.00231393,0.00298576,-0.000559458,0.00304418,-0.00237235,-1.46676,0.00313524,0.0207139,685,1401,-1.11899,-1.71359
-532,-377,-1.14587,1.79333,-0.00109124,0.00143594,-0.00150242,0.00213549,-0.00179079,-1.13503,0.00226975,0.0186378,692,1401,-1.14586,-1.79337
-525,-377,-1.10889,1.91101,-0.000107754,-3.87577e-05,-0.00255058,0.00247755,-0.00262406,-0.792161,0.00294583,0.0157802,699,1401,-1.10891,-1.911
-518,-377,-1.13367,1.9834,0.00113715,-0.00100696,-0.00357315,0.0037956,-0.00366541,-0.639656,0.00430784,0.0105097,706,1401,-1.13368,-1.98337
-511,-377,-1.11591,2.07568,0.00238719,-0.00188064,-0.0047543,0.00546451,-0.00495797,-0.574454,0.00601979,0.0108865,713,1401,-1.1159,-2.07572
-504,-377,-1.12616,2.16919,0.00331362,-0.00272055,-0.00612567,0.00712491,-0.00653183,-0.556571,0.0078872,0.0115792,720,1401,-1.12616,-2.16921
-497,-377,-1.07434,2.28674,0.00366541,-0.00327639,-0.00779207,0.00872466,-0.00833564,-0.57587,0.00985062,0.0147066,727,1401,-1.07431,-2.28675
-490,-377,-1.09326,2.21521,0.00336789,-0.00355456,-0.0095295,0.0100453,-0.0102319,-0.6112,0.0117072,0.030752,734,1401,-1.09323,-2.21518
-483,-377,-1.1507,1.70813,0.00240125,-0.00358622,-0.0112198,0.0110198,-0.0122048,-0.655022,0.0134146,0.0416858,741,1401,-1.15072,-1.70813
-476,-377,-1.26117,1.31714,0,0,0,0,0,0,0,-1,748,1401,-1.26115,-1.31714
-469,-377,-1.5614,2.04565,0,0,0,0,0,0,0,-1,755,1401,-1.56139,-2.04569
-462,-377,-0.865784,1.44141,0,0,0,0,0,0,0,-1,762,1401,-0.865768,-1.44137
-455,-377,-1.09216,2.01648,0,0,0,0,0,0,0,-1,769,1401,-1.09216,-2.01648
-448,-377,-1.89569,2.52344,0,0,0,0,0,0,0,-1,776,1401,-1.89572,-2.52348
-441,-377,-2.50525,2.81079,0,0,0,0,0,0,0,-1,783,1401,-2.50525,-2.81083
-434,-377,-3.05042,4.34607,0,0,0,0,0,0,0,-1,790,1401,-3.05042,-4.34605
-427,-377,-3.44763,5.1438,0,0,0,0,0,0,0,-1,797,1401,-3.44762,-5.14381
-420,-377,0,0,0,0,0,0,0,0,0,-1,804,1401,0,0
-413,-377,0,0,0,0,0,0,0,0,0,-1,811,1401,0,0
-406,-377,0,0,0,0,0,0,0,0,0,-1,818,1401,0,0
-399,-377,0,0,0,0,0,0,0,0,0,-1,825,1401,0,0
-392,-377,0,0,0,0,0,0,0,0,0,-1,832,1401,0,0
-385,-377,0,0,0,0,0,0,0,0,0,-1,839,1401,0,0
-378,-377,0,0,0,0,0,0,0,0,0,-1,846,1401,0,0
-371,-377,0,0,0,0,0,0,0,0,0,-1,853,1401,0,0
-364,-377,0,0,0,0,0,0,0,0,0,-1,860,1401,0,0
-357,-377,0,0,0,0,0,0,0,0,0,-1,867,1401,0,0
-350,-377,0,0,0,0,0,0,0,0,0,-1,874,1401,0,0
-343,-377,0,0,0,0,0,0,0,0,0,-1,881,1401,0,0
-336,-377,0,0,0,0,0,0,0,0,0,-1,888,1401,0,0
-329,-377,0,0,0,0,0,0,0,0,0,-1,895,1401,0,0
-322,-377,0,0,0,0,0,0,0,0,0,-1,902,1401,0,0
-315,-377,0,0,0,0,0,0,0,0,0,-1,909,1401,0,0
-308,-377,0,0,0,0,0,0,0,0,0,-1,916,1401,0,0
-301,-377,0,0,0,0,0,0,0,0,0,-1,923,1401,0,0
-294,-377,0,0,0,0,0,0,0,0,0,-1,930,1401,0,0
-287,-377,0,0,0,0,0,0,0,0,0,-1,937,1401,0,0
-280,-377,0,0,0,0,0,0,0,0,0,-1,944,1401,0,0
-273,-377,0,0,0,0,0,0,0,0,0,-1,951,1401,0,0
-266,-377,0,0,0,0,0,0,0,0,0,-1,958,1401,0,0
-259,-377,0,0,0,0,0,0,0,0,0,-1,965,1401,0,0
-252,-377,0,0,0,0,0,0,0,0,0,-1,972,1401,0,0
-245,-377,0,0,0,0,0,0,0,0,0,-1,979,1401,0,0
-238,-377,0,0,0,0,0,0,0,0,0,-1,986,1401,0,0
-231,-377,0,0,0,0,0,0,0,0,0,-1,993,1401,0,0
-224,-377,0,0,0,0,0,0,0,0,0,-1,1000,1401,0,0
-217,-377,0,0,0,0,0,0,0,0,0,-1,1007,1401,0,0
-210,-377,0,0,0,0,0,0,0,0,0,-1,1014,1401,0,0
-203,-377,0,0,0,0,0,0,0,0,0,-1,1021,1401,0,0
-196,-377,0,0,0,0,0,0,0,0,0,-1,1028,1401,0,0
-189,-377,0,0,0,0,0,0,0,0,0,-1,1035,1401,0,0
-182,-377,0,0,0,0,0,0,0,0,0,-1,1042,1401,0,0
-175,-377,0,0,0,0,0,0,0,0,0,-1,1049,1401,0,0
-168,-377,0,0,0,0,0,0,0,0,0,-1,1056,1401,0,0
-161,-377,0,0,0,0,0,0,0,0,0,-1,1063,1401,0,0
-154,-377,0,0,0,0,0,0,0,0,0,-1,1070,1401,0,0
-147,-377,0,0,0,0,0,0,0,0,0,-1,1077,1401,0,0
-140,-377,0,0,0,0,0,0,0,0,0,-1,1084,1401,0,0
-133,-377,0,0,0,0,0,0,0,0,0,-1,1091,1401,0,0
-126,-377,0,0,0,0,0,0,0,0,0,-1,1098,1401,0,0
-119,-377,0,0,0,0,0,0,0,0,0,-1,1105,1401,0,0
-112,-377,0,0,0,0,0,0,0,0,0,-1,1112,1401,0,0
-105,-377,0,0,0,0,0,0,0,0,0,-1,1119,1401,0,0
-98,-377,0,0,0,0,0,0,0,0,0,-1,1126,1401,0,0
-91,-377,0,0,0,0,0,0,0,0,0,-1,1133,1401,0,0
-84,-377,0,0,0,0,0,0,0,0,0,-1,1140,1401,0,0
-77,-377,0,0,0,0,0,0,0,0,0,-1,1147,1401,0,0
-70,-377,0,0,0,0,0,0,0,0,0,-1,1154,1401,0,0
-63,-377,0,0,0,0,0,0,0,0,0,-1,1161,1401,0,0
-56,-377,0,0,0,0,0,0,0,0,0,-1,1168,1401,0,0
-49,-377,0,0,0,0,0,0,0,0,0,-1,1175,1401,0,0
-42,-377,0,0,0,0,0,0,0,0,0,-1,1182,1401,0,0
-35,-377,0,0,0,0,0,0,0,0,0,-1,1189,1401,0,0
-28,-377,0,0,0,0,0,0,0,0,0,-1,1196,1401,0,0
-21,-377,0,0,0,0,0,0,0,0,0,-1,1203,1401,0,0
-14,-377,0,0,0,0,0,0,0,0,0,-1,1210,1401,0,0
-7,-377,0,0,0,0,0,0,0,0,0,-1,1217,1401,0,0
0,-377,0,0,0,0,0,0,0,0,0,-1,1224,1401,0,0
7,-377,0,0,0,0,0,0,0,0,0,-1,1231,1401,0,0
14,-377,0,0,0,0,0,0,0,0,0,-1,1238,1401,0,0
21,-377,0,0,0,0,0,0,0,0,0,-1,1245,1401,0,0
28,-377,0,0,0,0,0,0,0,0,0,-1,1252,1401,0,0
35,-377,0,0,0,0,0,0,0,0,0,-1,1259,1401,0,0
42,-377,0,0,0,0,0,0,0,0,0,-1,1266,1401,0,0
49,-377,0,0,0,0,0,0,0,0,0,-1,1273,1401,0,0
56,-377,0,0,0,0,0,0,0,0,0,-1,1280,1401,0,0
63,-377,0,0,0,0,0,0,0,0,0,-1,1287,1401,0,0
70,-377,0,0,0,0,0,0,0,0,0,-1,1294,1401,0,0
77,-377,0,0,0,0,0,0,0,0,0,-1,1301,1401,0,0
84,-377,0,0,0,0,0,0,0,0,0,-1,1308,1401,0,0
91,-377,0,0,0,0,0,0,0,0,0,-1,1315,1401,0,0
98,-377,0,0,0,0,0,0,0,0,0,-1,1322,1401,0,0
105,-377,0,0,0,0,0,0,0,0,0,-1,1329,1401,0,0
112,-377,0,0,0,0,0,0,0,0,0,-1,1336,1401,0,0
119,-377,0,0,0,0,0,0,0,0,0,-1,1343,1401,0,0
126,-377,0,0,0,0,0,0,0,0,0,-1,1350,1401,0,0
133,-377,0,0,0,0,0,0,0,0,0,-1,1357,1401,0,0
140,-377,0,0,0,0,0,0,0,0,0,-1,1364,1401,0,0
147,-377,0,0,0,0,0,0,0,0,0,-1,1371,1401,0,0
154,-377,0,0,0,0,0,0,0,0,0,-1,1378,1401,0,0
161,-377,0,0,0,0,0,0,0,0,0,-1,1385,1401,0,0
168,-377,0,0,0,0,0,0,0,0,0,-1,1392,1401,0,0
175,-377,0,0,0,0,0,0,0,0,0,-1,1399,1401,0,0
182,-377,0,0,0,0,0,0,0,0,0,-1,1406,1401,0,0
189,-377,0,0,0,0,0,0,0,0,0,-1,1413,1401,0,0
196,-377,0,0,0,0,0,0,0,0,0,-1,1420,1401,0,0
203,-377,0,0,0,0,0,0,0,0,0,-1,1427,1401,0,0
210,-377,0,0,0,0,0,0,0,0,0,-1,1434,1401,0,0
217,-377,0,0,0,0,0,0,0,0,0,-1,1441,1401,0,0
224,-377,0,0,0,0,0,0,0,0,0,-1,1448,1401,0,0
231,-377,0,0,0,0,0,0,0,0,0,-1,1455,1401,0,0
238,-377,0,0,0,0,0,0,0,0,0,-1,1462,1401,0,0
245,-377,0,0,0,0,0,0,0,0,0,-1,1469,1401,0,0
252,-377,0,0,0,0,0,0,0,0,0,-1,1476,1401,0,0
259,-377,0,0,0,0,0,0,0,0,0,-1,1483,1401,0,0
266,-377,0,0,0,0,0,0,0,0,0,-1,1490,1401,0,0
273,-377,0,0,0,0,0,0,0,0,0,-1,1497,1401,0,0
280,-377,0,0,0,0,0,0,0,0,0,-1,1504,1401,0,0
287,-377,0,0,0,0,0,0,0,0,0,-1,1511,1401,0,0
294,-377,0,0,0,0,0,0,0,0,0,-1,1518,1401,0,0
301,-377,0,0,0,0,0,0,0,0,0,-1,1525,1401,0,0
308,-377,0,0,0,0,0,0,0,0,0,-1,1532,1401,0,0
315,-377,0,0,0,0,0,0,0,0,0,-1,1539,1401,0,0
322,-377,0,0,0,0,0,0,0,0,0,-1,1546,1401,0,0
329,-377,0,0,0,0,0,0,0,0,0,-1,1553,1401,0,0
336,-377,0,0,0,0,0,0,0,0,0,-1,1560,1401,0,0
343,-377,0,0,0,0,0,0,0,0,0,-1,1567,1401,0,0
350,-377,0,0,0,0,0,0,0,0,0,-1,1574,1401,0,0
357,-377,0,0,0,0,0,0,0,0,0,-1,1581,1401,0,0
364,-377,0,0,0,0,0,0,0,0,0,-1,1588,1401,0,0
371,-377,0,0,0,0,0,0,0,0,0,-1,1595,1401,0,0
378,-377,0,0,0,0,0,0,0,0,0,-1,1602,1401,0,0
385,-377,0,0,0,0,0,0,0,0,0,-1,1609,1401,0,0
392,-377,0,0,0,0,0,0,0,0,0,-1,1616,1401,0,0
399,-377,0,0,0,0,0,0,0,0,0,-1,1623,1401,0,0
406,-377,0,0,0,0,0,0,0,0,0,-1,1630,1401,0,0
413,-377,0,0,0,0,0,0,0,0,0,-1,1637,1401,0,0
420,-377,0,0,0,0,0,0,0,0,0,-1,1644,1401,0,0
427,-377,0,0,0,0,0,0,0,0,0,-1,1651,1401,0,0
434,-377,0,0,0,0,0,0,0,0,0,-1,1658,1401,0,0
441,-377,0,0,0,0,0,0,0,0,0,-1,1665,1401,0,0
448,-377,0,0,0,0,0,0,0,0,0,-1,1672,1401,0,0
455,-377,0,0,0,0,0,0,0,0,0,-1,1679,1401,0,0
462,-377,0,0,0,0,0,0,0,0,0,-1,1686,1401,0,0
469,-377,0,0,0,0,0,0,0,0,0,-1,1693,1401,0,0
476,-377,0,0,0,0,0,0,0,0,0,-1,1700,1401,0,0
483,-377,0,0,0,0,0,0,0,0,0,-1,1707,1401,0,0
490,-377,0,0,0,0,0,0,0,0,0,-1,1714,1401,0,0
497,-377,0,0,0,0,0,0,0,0,0,-1,1721,1401,0,0
504,-377,0,0,0,0,0,0,0,0,0,-1,1728,1401,0,0
511,-377,0,0,0,0,0,0,0,0,0,-1,1735,1401,0,0
518,-377,0,0,0,0,0,0,0,0,0,-1,1742,1401,0,0
525,-377,0,0,0,0,0,0,0,0,0,-1,1749,1401,0,0
532,-377,0,0,0,0,0,0,0,0,0,-1,1756,1401,0,0
539,-377,0,0,0,0,0,0,0,0,0,-1,1763,1401,0,0
546,-377,7.88464,0.0827637,0,0,0,0,0,0,0,-1,1770,1401,7.88459,-0.0827041
553,-377,8.21387,0.880859,0,0,0,0,0,0,0,-1,1777,1401,8.2139,-0.880809
560,-377,4.59521,0.0162354,0,0,0,0,0,0,0,-1,1784,1401,4.59523,-0.0162208
567,-377,4.70728,0.435425,0,0,0,0,0,0,0,-1,1791,1401,4.70727,-0.435405
574,-377,9.88916,2.98035,0,0,0,0,0,0,0,-1,1798,1401,9.88914,-2.98038
581,-377,9.30127,2.76111,-0.00162691,0.0138988,0.0162082,0.0241072,-0.0118354,1.00873,0.0211508,0.0414198,1805,1401,9.30128,-2.76112
588,-377,8.5188,2.48059,-0.00572003,0.00919198,0.0163611,0.0197159,-0.016244,0.999196,0.0207937,0.040359,1812,1401,8.51883,-2.48057
595,-377,7.8645,2.24097,-0.00827807,0.00545402,0.0159879,0.0159879,-0.0188119,0.988216,0.0201137,0.0404184,1819,1401,7.86454,-2.24101
602,-377,7.74146,2.33167,-0.0101799,0.00252419,0.0148361,0.0123108,-0.0199666,0.987666,0.0188093,0.0455443,1826,1401,7.74149,-2.33171
609,-377,7.58997,2.49475,-0.0113126,0.000263541,0.0133873,0.00906046,-0.0201095,0.989441,0.0172393,0.0473994,1833,1401,7.58995,-2.49472
616,-377,7.36328,2.71021,-0.0116452,-0.00134633,0.0116935,0.00628134,-0.0192728,0.992805,0.0153761,0.0454595,1840,1401,7.3633,-2.71018
623,-377,6.97998,2.85474,-0.0119199,-0.00272991,0.010196,0.00385872,-0.0185085,0.997101,0.0138062,0.0383952,1847,1401,6.98001,-2.85478
630,-377,6.87805,2.91748,-0.0106619,-0.00344215,0.00830908,0.00200733,-0.0161114,0.990322,0.0114688,0.0193223,1854,1401,6.8781,-2.91752
637,-377,6.8772,2.83069,-0.009368,-0.00340429,0.00655043,0.000811048,-0.0135833,0.998989,0.00933765,0.0117045,1861,1401,6.87716,-2.8307
644,-377,6.88171,2.72961,-0.00786674,-0.00329015,0.00445651,-0.000568777,-0.0105881,1.02258,0.006877,0.0101005,1868,1401,6.88167,-2.72957
651,-377,6.8645,2.62256,-0.00527645,-0.00241643,0.00296267,-0.000556707,-0.00713618,1.01024,0.00458317,0.0116295,1875,1401,6.86447,-2.62261
658,-377,6.87732,2.53845,-0.00292801,-0.00180913,0.00179715,-0.000486361,-0.00425078,0.936291,0.00268645,0.0125778,1882,1401,6.87727,-2.53847
665,-377,6.88257,2.44861,8.33609e-05,-0.00123753,0.000260253,0.000132789,-0.00128696,0.187686,0.000905488,0.0147091,1889,1401,6.88254,-2.44859
672,-377,6.87866,2.37561,0.00340544,-0.000395726,-0.00154407,0.0039536,-0.000943888,-0.341133,0.00300027,0.0156921,1896,1401,6.87865,-2.37557
679,-377,6.85193,2.30884,0.00868261,-0.00135827,-0.0029531,0.00948674,-0.0021624,-0.265855,0.00715505,0.016456,1903,1401,6.85188,-2.30885
686,-377,6.86963,2.21509,0.0155865,-0.000739662,-0.00337974,0.0162585,-0.00141165,-0.19627,0.0113389,0.0152016,1910,1401,6.86967,-2.21512
693,-377,6.88599,2.10034,0.0237341,-0.000782054,-0.0045571,0.0245538,-0.00160173,-0.177965,0.0169284,0.0126064,1917,1401,6.88601,-2.1003
700,-377,6.84412,1.9718,0.0338237,-0.000668322,-0.00573205,0.0347514,-0.00159595,-0.160441,0.0237175,0.021086,1924,1401,6.84407,-1.97176
707,-377,6.64661,1.81738,0.0461311,-0.00031855,-0.00666281,0.047068,-0.00125538,-0.13969,0.0318054,0.0398349,1931,1401,6.64666,-1.81735
714,-377,6.61755,1.47363,0.061853,0.000484544,-0.00681625,0.062601,-0.000263426,-0.109296,0.0418221,0.0446336,1938,1401,6.61754,-1.47365
721,-377,6.88855,1.1853,0,0,0,0,0,0,0,-1,1945,1401,6.88852,-1.18533
728,-377,7.48987,0.885742,0.0989955,0.00446581,-0.00325976,0.0991077,0.00435354,-0.0344294,0.0646695,0.0455093,1952,1401,7.48982,-0.885759
735,-377,8.98059,4.68872,0.117051,0.00843136,0.00144667,0.11707,0.0084121,0.0133156,0.0753993,0.0453188,1959,1401,8.98056,-4.68875
742,-377,0,0,0,0,0,0,0,0,0,-1,1966,1401,0,0
749,-377,0,0,0,0,0,0,0,0,0,-1,1973,1401,0,0
756,-377,0,0,0,0,0,0,0,0,0,-1,1980,1401,0,0
763,-377,0,0,0,0,0,0,0,0,0,-1,1987,1401,0,0
770,-377,0,0,0,0,0,0,0,0,0,-1,1994,1401,0,0
777,-377,0,0,0,0,0,0,0,0,0,-1,2001,1401,0,0
784,-377,0,0,0,0,0,0,0,0,0,-1,2008,1401,0,0
791,-377,0,0,0,0,0,0,0,0,0,-1,2015,1401,0,0
798,-377,0,0,0,0,0,0,0,0,0,-1,2022,1401,0,0
805,-377,0,0,0,0,0,0,0,0,0,-1,2029,1401,0,0
812,-377,0,0,0,0,0,0,0,0,0,-1,2036,1401,0,0
-700,-384,0,0,0,0,0,0,0,0,0,-1,524,1408,0,0
-693,-384,0,0,0,0,0,0,0,0,0,-1,531,1408,0,0
-686,-384,0,0,0,0,0,0,0,0,0,-1,538,1408,0,0
-679,-384,0,0,0,0,0,0,0,0,0,-1,545,1408,0,0
-672,-384,0,0,0,0,0,0,0,0,0,-1,552,1408,0,0
-665,-384,0,0,0,0,0,0,0,0,0,-1,559,1408,0,0
-658,-384,0,0,0,0,0,0,0,0,0,-1,566,1408,0,0
-651,-384,0,0,0,0,0,0,0,0,0,-1,573,1408,0,0
-644,-384,0,0,0,0,0,0,0,0,0,-1,580,1408,0,0
-637,-384,0,0,0,0,0,0,0,0,0,-1,587,1408,0,0
-630,-384,0,0,0,0,0,0,0,0,0,-1,594,1408,0,0
-623,-384,0,0,0,0,0,0,0,0,0,-1,601,1408,0,0
-616,-384,-0.114929,-4.74695,0,0,0,0,0,0,0,-1,608,1408,-0.114943,4.74693
-609,-384,0.272705,-3.87451,0,0,0,0,0,0,0,-1,615,1408,0.272723,3.87447
-602,-384,0.46936,-2.97217,0,0,0,0,0,0,0,-1,622,1408,0.46933,2.97211
-595,-384,0.596924,-2.05591,0,0,0,0,0,0,0,-1,629,1408,0.596899,2.05593
-588,-384,0.571777,-0.881592,0,0,0,0,0,0,0,-1,636,1408,0.571806,0.881566
-581,-384,-0.969177,1.11768,0,0,0,0,0,0,0,-1,643,1408,-0.969189,-1.11767
-574,-384,-0.994324,1.21423,-0.00247791,0.0221742,0.0142401,0.028682,-0.00898564,1.14214,0.0227168,0.049006,650,1408,-0.994332,-1.21423
-567,-384,-1.03363,1.33301,-0.00446788,0.0162767,0.00932734,0.0198537,-0.00804492,1.20459,0.0165813,0.0401454,657,1408,-1.03365,-1.33302
-560,-384,-1.03711,1.41748,-0.00558655,0.0117498,0.00560421,0.0134037,-0.00724041,1.28383,0.0120946,0.0238149,664,1408,-1.03713,-1.41746
-553,-384,-1.0293,1.51086,-0.005545,0.00883911,0.0033589,0.0095848,-0.00629069,1.35233,0.00923126,0.0165021,671,1408,-1.02928,-1.5109
-546,-384,-1.03674,1.60352,-0.00475043,0.00624623,0.00195792,0.00658443,-0.00508863,1.39975,0.00675787,0.0148353,678,1408,-1.03677,-1.60347
-539,-384,-1.07922,1.67969,-0.00353668,0.0043476,0.000826618,0.00443333,-0.00362241,1.46745,0.00465883,0.0164523,685,1408,-1.0792,-1.67969
-532,-384,-1.06879,1.75757,-0.0022757,0.00268876,-0.000278823,0.00270437,-0.00229131,-1.51487,0.00288754,0.0218092,692,1408,-1.06877,-1.75759
-525,-384,-1.04279,1.86328,-0.001316,0.0012008,-0.00149448,0.00189612,-0.00201132,-1.13532,0.00225629,0.0213097,699,1408,-1.04281,-1.86331
-518,-384,-1.03583,1.98767,-8.83436e-05,6.60398e-05,-0.00253949,0.00252951,-0.00255181,-0.800592,0.00293371,0.0121302,706,1408,-1.03584,-1.9877
-511,-384,-1.04126,2.09058,0.00111874,-0.00100777,-0.00353476,0.00374669,-0.00363573,-0.639302,0.0042624,0.00981489,713,1408,-1.04126,-2.09053
-504,-384,-1.03009,2.18762,0.00189797,-0.002014,-0.0046593,0.0049952,-0.00511122,-0.586668,0.00583507,0.011332,720,1408,-1.0301,-2.18765
-497,-384,-1.01666,2.297,0.00195184,-0.00268737,-0.00605535,0.00611667,-0.00685219,-0.602486,0.00749159,0.0121312,727,1408,-1.01664,-2.29704
-490,-384,-0.985474,2.38977,0.00101162,-0.00299871,-0.00739303,0.00666659,-0.00865368,-0.652972,0.00886992,0.0194055,734,1408,-0.98549,-2.38974
-483,-384,-1.02887,2.08838,-0.000927549,-0.00302491,-0.00858069,0.00666831,-0.0106208,-0.724593,0.0100684,0.0393915,741,1408,-1.02884,-2.08841
-476,-384,-1.33051,2.45496,0,0,0,0,0,0,0,-1,748,1408,-1.3305,-2.45495
-469,-384,-1.14581,2.21448,0,0,0,0,0,0,0,-1,755,1408,-1.14584,-2.21446
-462,-384,-0.422302,1.7561,0,0,0,0,0,0,0,-1,762,1408,-0.422332,-1.75614
-455,-384,-1.03925,2.23608,0,0,0,0,0,0,0,-1,769,1408,-1.03923,-2.23613
-448,-384,-1.73004,2.65955,0,0,0,0,0,0,0,-1,776,1408,-1.73007,-2.65959
-441,-384,-2.38342,2.9436,0,0,0,0,0,0,0,-1,783,1408,-2.38345,-2.94365
-434,-384,-2.99524,3.22815,0,0,0,0,0,0,0,-1,790,1408,-2.99527,-3.22812
-427,-384,-2.61249,1.61719,0,0,0,0,0,0,0,-1,797,1408,-2.6125,-1.61717
-420,-384,-1.67053,0.0454102,0,0,0,0,0,0,0,-1,804,1408,-1.67053,-0.0453977
-413,-384,0,0,0,0,0,0,0,0,0,-1,811,1408,0,0
-406,-384,0,0,0,0,0,0,0,0,0,-1,818,1408,0,0
-399,-384,0,0,0,0,0,0,0,0,0,-1,825,1408,0,0
-392,-384,0,0,0,0,0,0,0,0,0,-1,832,1408,0,0
-385,-384,0,0,0,0,0,0,0,0,0,-1,839,1408,0,0
-378,-384,0,0,0,0,0,0,0,0,0,-1,846,1408,0,0
-371,-384,0,0,0,0,0,0,0,0,0,-1,853,1408,0,0
-364,-384,0,0,0,0,0,0,0,0,0,-1,860,1408,0,0
-357,-384,0,0,0,0,0,0,0,0,0,-1,867,1408,0,0
-350,-384,0,0,0,0,0,0,0,0,0,-1,874,1408,0,0
-343,-384,0,0,0,0,0,0,0,0,0,-1,881,1408,0,0
-336,-384,0,0,0,0,0,0,0,0,0,-1,888,1408,0,0
-329,-384,0,0,0,0,0,0,0,0,0,-1,895,1408,0,0
-322,-384,0,0,0,0,0,0,0,0,0,-1,902,1408,0,0
-315,-384,0,0,0,0,0,0,0,0,0,-1,909,1408,0,0
-308,-384,0,0,0,0,0,0,0,0,0,-1,916,1408,0,0
-301,-384,0,0,0,0,0,0,0,0,0,-1,923,1408,0,0
-294,-384,0,0,0,0,0,0,0,0,0,-1,930,1408,0,0
-287,-384,0,0,0,0,0,0,0,0,0,-1,937,1408,0,0
-280,-384,0,0,0,0,0,0,0,0,0,-1,944,1408,0,0
-273,-384,0,0,0,0,0,0,0,0,0,-1,951,1408,0,0
-266,-384,0,0,0,0,0,0,0,0,0,-1,958,1408,0,0
-259,-384,0,0,0,0,0,0,0,0,0,-1,965,1408,0,0
-252,-384,0,0,0,0,0,0,0,0,0,-1,972,1408,0,0
-245,-384,0,0,0,0,0,0,0,0,0,-1,979,1408,0,0
-238,-384,0,0,0,0,0,0,0,0,0,-1,986,1408,0,0
-231,-384,0,0,0,0,0,0,0,0,0,-1,993,1408,0,0
-224,-384,0,0,0,0,0,0,0,0,0,-1,1000,1408,0,0
-217,-384,0,0,0,0,0,0,0,0,0,-1,1007,1408,0,0
-210,-384,0,0,0,0,0,0,0,0,0,-1,1014,1408,0,0
-203,-384,0,0,0,0,0,0,0,0,0,-1,1021,1408,0,0
-196,-384,0,0,0,0,0,0,0,0,0,-1,1028,1408,0,0
-189,-384,0,0,0,0,0,0,0,0,0,-1,1035,1408,0,0
-182,-384,0,0,0,0,0,0,0,0,0,-1,1042,1408,0,0
-175,-384,0,0,0,0,0,0,0,0,0,-1,1049,1408,0,0
-168,-384,0,0,0,0,0,0,0,0,0,-1,1056,1408,0,0
-161,-384,0,0,0,0,0,0,0,0,0,-1,1063,1408,0,0
-154,-384,0,0,0,0,0,0,0,0,0,-1,1070,1408,0,0
-147,-384,0,0,0,0,0,0,0,0,0,-1,1077,1408,0,0
-140,-384,0,0,0,0,0,0,0,0,0,-1,1084,1408,0,0
-133,-384,0,0,0,0,0,0,0,0,0,-1,1091,1408,0,0
-126,-384,0,0,0,0,0,0,0,0,0,-1,1098,1408,0,0
-119,-384,0,0,0,0,0,0,0,0,0,-1,1105,1408,0,0
-112,-384,0,0,0,0,0,0,0,0,0,-1,1112,1408,0,0
-105,-384,0,0,0,0,0,0,0,0,0,-1,1119,1408,0,0
-98,-384,0,0,0,0,0,0,0,0,0,-1,1126,1408,0,0
-91,-384,0,0,0,0,0,0,0,0,0,-1,1133,1408,0,0
-84,-384,0,0,0,0,0,0,0,0,0,-1,1140,1408,0,0
-77,-384,0,0,0,0,0,0,0,0,0,-1,1147,1408,0,0
-70,-384,0,0,0,0,0,0,0,0,0,-1,1154,1408,0,0
-63,-384,0,0,0,0,0,0,0,0,0,-1,1161,1408,0,0
-56,-384,0,0,0,0,0,0,0,0,0,-1,1168,1408,0,0
-49,-384,0,0,0,0,0,0,0,0,0,-1,1175,1408,0,0
-42,-384,0,0,0,0,0,0,0,0,0,-1,1182,1408,0,0
-35,-384,0,0,0,0,0,0,0,0,0,-1,1189,1408,0,0
-28,-384,0,0,0,0,0,0,0,0,0,-1,1196,1408,0,0
-21,-384,0,0,0,0,0,0,0,0,0,-1,1203,1408,0,0
-14,-384,0,0,0,0,0,0,0,0,0,-1,1210,1408,0,0
-7,-384,0,0,0,0,0,0,0,0,0,-1,1217,1408,0,0
0,-384,0,0,0,0,0,0,0,0,0,-1,1224,1408,0,0
7,-384,0,0,0,0,0,0,0,0,0,-1,1231,1408,0,0
14,-384,0,0,0,0,0,0,0,0,0,-1,1238,1408,0,0
21,-384,0,0,0,0,0,0,0,0,0,-1,1245,1408,0,0
28,-384,0,0,0,0,0,0,0,0,0,-1,1252,1408,0,0
35,-384,0,0,0,0,0,0,0,0,0,-1,1259,1408,0,0
42,-384,0,0,0,0,0,0,0,0,0,-1,1266,1408,0,0
49,-384,0,0,0,0,0,0,0,0,0,-1,1273,1408,0,0
56,-384,0,0,0,0,0,0,0,0,0,-1,1280,1408,0,0
63,-384,0,0,0,0,0,0,0,0,0,-1,1287,1408,0,0
70,-384,0,0,0,0,0,0,0,0,0,-1,1294,1408,0,0
77,-384,0,0,0,0,0,0,0,0,0,-1,1301,1408,0,0
84,-384,0,0,0,0,0,0,0,0,0,-1,1308,1408,0,0
91,-384,0,0,0,0,0,0,0,0,0,-1,1315,1408,0,0
98,-384,0,0,0,0,0,0,0,0,0,-1,1322,1408,0,0
105,-384,0,0,0,0,0,0,0,0,0,-1,1329,1408,0,0
112,-384,0,0,0,0,0,0,0,0,0,-1,1336,1408,0,0
119,-384,0,0,0,0,0,0,0,0,0,-1,1343,1408,0,0
126,-384,0,0,0,0,0,0,0,0,0,-1,1350,1408,0,0
133,-384,0,0,0,0,0,0,0,0,0,-1,1357,1408,0,0
140,-384,0,0,0,0,0,0,0,0,0,-1,1364,1408,0,0
147,-384,0,0,0,0,0,0,0,0,0,-1,1371,1408,0,0
154,-384,0,0,0,0,0,0,0,0,0,-1,1378,1408,0,0
161,-384,0,0,0,0,0,0,0,0,0,-1,1385,1408,0,0
168,-384,0,0,0,0,0,0,0,0,0,-1,1392,1408,0,0
175,-384,0,0,0,0,0,0,0,0,0,-1,1399,1408,0,0
182,-384,0,0,0,0,0,0,0,0,0,-1,1406,1408,0,0
189,-384,0,0,0,0,0,0,0,0,0,-1,1413,1408,0,0
196,-384,0,0,0,0,0,0,0,0,0,-1,1420,1408,0,0
203,-384,0,0,0,0,0,0,0,0,0,-1,1427,1408,0,0
210,-384,0,0,0,0,0,0,0,0,0,-1,1434,1408,0,0
217,-384,0,0,0,0,0,0,0,0,0,-1,1441,1408,0,0
224,-384,0,0,0,0,0,0,0,0,0,-1,1448,1408,0,0
231,-384,0,0,0,0,0,0,0,0,0,-1,1455,1408,0,0
238,-384,0,0,0,0,0,0,0,0,0,-1,1462,1408,0,0
245,-384,0,0,0,0,0,0,0,0,0,-1,1469,1408,0,0
252,-384,0,0,0,0,0,0,0,0,0,-1,1476,1408,0,0
259,-384,0,0,0,0,0,0,0,0,0,-1,1483,1408,0,0
266,-384,0,0,0,0,0,0,0,0,0,-1,1490,1408,0,0
273,-384,0,0,0,0,0,0,0,0,0,-1,1497,1408,0,0
280,-384,0,0,0,0,0,0,0,0,0,-1,1504,1408,0,0
287,-384,0,0,0,0,0,0,0,0,0,-1,1511,1408,0,0
294,-384,0,0,0,0,0,0,0,0,0,-1,1518,1408,0,0
301,-384,0,0,0,0,0,0,0,0,0,-1,1525,1408,0,0
308,-384,0,0,0,0,0,0,0,0,0,-1,1532,1408,0,0
315,-384,0,0,0,0,0,0,0,0,0,-1,1539,1408,0,0
322,-384,0,0,0,0,0,0,0,0,0,-1,1546,1408,0,0
329,-384,0,0,0,0,0,0,0,0,0,-1,1553,1408,0,0
336,-384,0,0,0,0,0,0,0,0,0,-1,1560,1408,0,0
343,-384,0,0,0,0,0,0,0,0,0,-1,1567,1408,0,0
350,-384,0,0,0,0,0,0,0,0,0,-1,1574,1408,0,0
357,-384,0,0,0,0,0,0,0,0,0,-1,1581,1408,0,0
364,-384,0,0,0,0,0,0,0,0,0,-1,1588,1408,0,0
371,-384,0,0,0,0,0,0,0,0,0,-1,1595,1408,0,0
378,-384,0,0,0,0,0,0,0,0,0,-1,1602,1408,0,0
385,-384,0,0,0,0,0,0,0,0,0,-1,1609,1408,0,0
392,-384,0,0,0,0,0,0,0,0,0,-1,1616,1408,0,0
399,-384,0,0,0,0,0,0,0,0,0,-1,1623,1408,0,0
406,-384,0,0,0,0,0,0,0,0,0,-1,1630,1408,0,0
413,-384,0,0,0,0,0,0,0,0,0,-1,1637,1408,0,0
420,-384,0,0,0,0,0,0,0,0,0,-1,1644,1408,0,0
427,-384,0,0,0,0,0,0,0,0,0,-1,1651,1408,0,0
434,-384,0,0,0,0,0,0,0,0,0,-1,1658,1408,0,0
441,-384,0,0,0,0,0,0,0,0,0,-1,1665,1408,0,0
448,-384,0,0,0,0,0,0,0,0,0,-1,1672,1408,0,0
455,-384,0,0,0,0,0,0,0,0,0,-1,1679,1408,0,0
462,-384,0,0,0,0,0,0,0,0,0,-1,1686,1408,0,0
469,-384,0,0,0,0,0,0,0,0,0,-1,1693,1408,0,0
476,-384,0,0,0,0,0,0,0,0,0,-1,1700,1408,0,0
483,-384,0,0,0,0,0,0,0,0,0,-1,1707,1408,0,0
490,-384,0,0,0,0,0,0,0,0,0,-1,1714,1408,0,0
497,-384,0,0,0,0,0,0,0,0,0,-1,1721,1408,0,0
504,-384,0,0,0,0,0,0,0,0,0,-1,1728,1408,0,0
511,-384,0,0,0,0,0,0,0,0,0,-1,1735,1408,0,0
518,-384,0,0,0,0,0,0,0,0,0,-1,1742,1408,0,0
525,-384,0,0,0,0,0,0,0,0,0,-1,1749,1408,0,0
532,-384,0,0,0,0,0,0,0,0,0,-1,1756,1408,0,0
539,-384,8.24011,0.272705,0,0,0,0,0,0,0,-1,1763,1408,8.2401,-0.272649
546,-384,8.33472,0.0722656,0,0,0,0,0,0,0,-1,1770,1408,8.33467,-0.0722207
553,-384,8.03821,0.593872,0,0,0,0,0,0,0,-1,1777,1408,8.03823,-0.593888
560,-384,4.18152,-0.28479,0,0,0,0,0,0,0,-1,1784,1408,4.18151,0.284775
567,-384,6.90076,1.15161,0,0,0,0,0,0,0,-1,1791,1408,6.90071,-1.15167
574,-384,8.8761,2.62048,0,0,0,0,0,0,0,-1,1798,1408,8.87611,-2.62046
581,-384,8.9469,2.62708,-0.0104401,0.0103692,0.0166645,0.0196104,-0.0196814,1.06447,0.0226852,0.0409746,1805,1408,8.94693,-2.62707
588,-384,8.49451,2.62,-0.0143667,0.00634322,0.0156473,0.0147516,-0.0227752,1.0777,0.0218306,0.0441791,1812,1408,8.49448,-2.62002
595,-384,7.42529,2.45435,-0.0162156,0.00312673,0.0146528,0.0110122,-0.0241011,1.07709,0.0207368,0.047262,1819,1408,7.42535,-2.45434
602,-384,7.66101,2.54419,-0.0169391,0.000745482,0.0131567,0.00775514,-0.0239487,1.08127,0.0190836,0.0483067,1826,1408,7.66098,-2.54418
609,-384,7.42004,2.63416,-0.0165137,-0.00110696,0.0117312,0.00522406,-0.0228447,1.07592,0.0172371,0.0448362,1833,1408,7.42006,-2.6341
616,-384,7.07092,2.79285,-0.0151845,-0.00228708,0.0102127,0.0033425,-0.0208141,1.06701,0.0151139,0.0401308,1840,1408,7.07094,-2.79282
623,-384,6.82471,2.95605,-0.013707,-0.00309581,0.00883748,0.00190639,-0.0187092,1.05574,0.0131544,0.0280189,1847,1408,6.82465,-2.95608
630,-384,6.8125,2.8811,-0.0112708,-0.00335989,0.00716669,0.000870433,-0.0155011,1.03756,0.0106361,0.0160616,1854,1408,6.81248,-2.88106
637,-384,6.79309,2.84497,-0.00872366,-0.0029435,0.00563794,0.000501955,-0.0121691,1.02224,0.00828513,0.0141939,1861,1408,6.79308,-2.84494
644,-384,6.79565,2.75647,-0.00644767,-0.00257266,0.00385275,-0.000197669,-0.00882266,1.01838,0.00581701,0.014018,1868,1408,6.79571,-2.75652
651,-384,6.76953,2.6239,-0.00405139,-0.001655,0.00238298,-0.000185935,-0.00552046,1.01835,0.00361992,0.0134746,1875,1408,6.76951,-2.62396
658,-384,6.77722,2.52917,-0.00161956,-0.00106484,0.0011558,-0.000153588,-0.00253081,0.903159,0.00163841,0.0133688,1882,1408,6.77723,-2.52917
665,-384,6.81458,2.46606,0.00164113,-0.000439161,-0.000598311,0.00180093,-0.000598965,-0.260999,0.00144235,0.0143124,1889,1408,6.8146,-2.46606
672,-384,6.82483,2.3739,0.00536563,0.000528258,-0.0027101,0.00657939,-0.000685506,-0.421078,0.0046317,0.0136242,1896,1408,6.82478,-2.37395
679,-384,6.80347,2.26794,0.0112578,-0.000395725,-0.00440482,0.0127354,-0.00187331,-0.323653,0.00917867,0.0147704,1903,1408,6.80348,-2.26796
686,-384,6.80261,2.20007,0.0190916,0.000410415,-0.00515608,0.0204202,-0.000918191,-0.252192,0.0139296,0.0127852,1910,1408,6.80261,-2.20011
693,-384,6.81409,2.12512,0.0283852,0.000549142,-0.00684001,0.0299752,-0.0010408,-0.228392,0.0203393,0.0163845,1917,1408,6.81411,-2.12509
700,-384,6.68372,2.12439,0.0404214,0.000911435,-0.00852221,0.0421812,-0.000848398,-0.203638,0.0284078,0.034229,1924,1408,6.6837,-2.12442
707,-384,6.63708,2.14148,0.0555655,0.00166264,-0.00989164,0.0573233,-9.52296e-05,-0.175877,0.0382473,0.0471907,1931,1408,6.63706,-2.14142
714,-384,6.60583,2.04443,0,0,0,0,0,0,0,-1,1938,1408,6.60578,-2.04445
721,-384,6.41357,0.77356,0,0,0,0,0,0,0,-1,1945,1408,6.41357,-0.773564
728,-384,8.57056,3.50757,0.123026,0.00871115,-0.00571966,0.123312,0.00842569,-0.0498681,0.0795482,0.0435235,1952,1408,8.57061,-3.50753
735,-384,9.28589,3.85608,0.150666,0.0141654,0.00173944,0.150688,0.0141432,0.0127403,0.0960921,0.0448167,1959,1408,9.28586,-3.85603
742,-384,0,0,0,0,0,0,0,0,0,-1,1966,1408,0,0
749,-384,0,0,0,0,0,0,0,0,0,-1,1973,1408,0,0
756,-384,0,0,0,0,0,0,0,0,0,-1,1980,1408,0,0
763,-384,0,0,0,0,0,0,0,0,0,-1,1987,1408,0,0
770,-384,0,0,0,0,0,0,0,0,0,-1,1994,1408,0,0
777,-384,0,0,0,0,0,0,0,0,0,-1,2001,1408,0,0
784,-384,0,0,0,0,0,0,0,0,0,-1,2008,1408,0,0
791,-384,0,0,0,0,0,0,0,0,0,-1,2015,1408,0,0
798,-384,0,0,0,0,0,0,0,0,0,-1,2022,1408,0,0
805,-384,0,0,0,0,0,0,0,0,0,-1,2029,1408,0,0
812,-384,0,0,0,0,0,0,0,0,0,-1,2036,1408,0,0
-700,-391,0,0,0,0,0,0,0,0,0,-1,524,1415,0,0
-693,-391,0,0,0,0,0,0,0,0,0,-1,531,1415,0,0
-686,-391,0,0,0,0,0,0,0,0,0,-1,538,1415,0,0
-679,-391,0,0,0,0,0,0,0,0,0,-1,545,1415,0,0
-672,-391,0,0,0,0,0,0,0,0,0,-1,552,1415,0,0
-665,-391,0,0,0,0,0,0,0,0,0,-1,559,1415,0,0
-658,-391,0,0,0,0,0,0,0,0,0,-1,566,1415,0,0
-651,-391,0,0,0,0,0,0,0,0,0,-1,573,1415,0,0
-644,-391,0,0,0,0,0,0,0,0,0,-1,580,1415,0,0
-637,-391,0,0,0,0,0,0,0,0,0,-1,587,1415,0,0
-630,-391,0,0,0,0,0,0,0,0,0,-1,594,1415,0,0
-623,-391,0,0,0,0,0,0,0,0,0,-1,601,1415,0,0
-616,-391,0,0,0,0,0,0,0,0,0,-1,608,1415,0,0
-609,-391,0.392395,-3.59717,0,0,0,0,0,0,0,-1,615,1415,0.39242,3.59719
-602,-391,0.59668,-2.6676,0,0,0,0,0,0,0,-1,622,1415,0.596671,2.66758
-595,-391,0.632813,-0.96814,0,0,0,0,0,0,0,-1,629,1415,0.632818,0.968193
-588,-391,0.354797,-0.64978,0,0,0,0,0,0,0,-1,636,1415,0.354771,0.649724
-581,-391,0.0551147,-0.31958,0,0,0,0,0,0,0,-1,643,1415,0.0551261,0.319635
-574,-391,-0.838684,1.1853,0,0,0,0,0,0,0,-1,650,1415,-0.838701,-1.18526
-567,-391,-0.677917,1.35461,-0.00512958,0.0133485,0.0123161,0.0195057,-0.0112868,1.1072,0.0179879,0.0475938,657,1415,-0.677905,-1.35466
-560,-391,-0.810852,1.42871,-0.00649155,0.0105489,0.00808704,0.0137758,-0.00971843,1.19114,0.0136316,0.0334194,664,1415,-0.81084,-1.42874
-553,-391,-0.92627,1.50757,-0.00651905,0.00866482,0.00538546,0.010381,-0.0082352,1.2623,0.0107718,0.0191336,671,1415,-0.926287,-1.50751
-546,-391,-0.944153,1.61194,-0.00569595,0.00674195,0.00360553,0.00771154,-0.00666555,1.30809,0.00830794,0.0117919,678,1415,-0.94416,-1.61198
-539,-391,-0.925415,1.71069,-0.00441513,0.0051209,0.00222818,0.00561585,-0.00491008,1.35222,0.0060817,0.0135569,685,1415,-0.925404,-1.71068
-532,-391,-0.938416,1.79944,-0.0030768,0.00352816,0.000967337,0.00366692,-0.00321556,1.42833,0.00397645,0.0243669,692,1415,-0.938444,-1.79946
-525,-391,-0.95874,1.88281,-0.00209543,0.00222383,-0.000400813,0.00226071,-0.00213231,-1.47904,0.00253667,0.0233973,699,1415,-0.95877,-1.88276
-518,-391,-0.946472,1.99866,-0.00083998,0.000912463,-0.00150371,0.00177661,-0.00170413,-1.0492,0.00200975,0.0132587,706,1415,-0.946482,-1.99861
-511,-391,-0.93634,2.08923,0.000370593,-0.000370146,-0.00239556,0.00242424,-0.00242379,-0.708702,0.00279901,0.0107383,713,1415,-0.936363,-2.08927
-504,-391,-0.932129,2.19177,0.001091,-0.00153453,-0.00334826,0.00337465,-0.00381818,-0.59857,0.00415541,0.0100127,720,1415,-0.932135,-2.19178
-497,-391,-0.927856,2.30042,0.000971546,-0.00232617,-0.00451558,0.0041299,-0.00548452,-0.610345,0.00556922,0.00938466,727,1415,-0.927841,-2.30038
-490,-391,-0.906494,2.38831,-0.000306767,-0.00284715,-0.00554097,0.00410774,-0.00726165,-0.672727,0.00664778,0.0113911,734,1415,-0.906512,-2.38825
-483,-391,-0.907471,2.4043,-0.00266638,-0.00295639,-0.00641612,0.00360638,-0.00922915,-0.7741,0.00764393,0.0275473,741,1415,-0.907462,-2.40432
-476,-391,-1.1283,2.59375,-0.00621619,-0.00297374,-0.00694344,0.00253523,-0.0117252,-0.900088,0.00878465,0.0416666,748,1415,-1.12829,-2.59378
-469,-391,-0.967529,2.6405,0,0,0,0,0,0,0,-1,755,1415,-0.967505,-2.6405
-462,-391,-0.990051,2.76428,0,0,0,0,0,0,0,-1,762,1415,-0.990042,-2.76424
-455,-391,-0.848083,2.80383,0,0,0,0,0,0,0,-1,769,1415,-0.848088,-2.80381
-448,-391,-1.42236,3.20215,0,0,0,0,0,0,0,-1,776,1415,-1.42233,-3.20213
-441,-391,-2.26166,3.07642,0,0,0,0,0,0,0,-1,783,1415,-2.26165,-3.07646
-434,-391,-1.82745,1.88904,0,0,0,0,0,0,0,-1,790,1415,-1.82743,-1.88901
-427,-391,-3.02905,1.85205,0,0,0,0,0,0,0,-1,797,1415,-3.02906,-1.85209
-420,-391,-2.51294,1.91138,0,0,0,0,0,0,0,-1,804,1415,-2.51293,-1.91138
-413,-391,0,0,0,0,0,0,0,0,0,-1,811,1415,0,0
-406,-391,0,0,0,0,0,0,0,0,0,-1,818,1415,0,0
-399,-391,0,0,0,0,0,0,0,0,0,-1,825,1415,0,0
-392,-391,0,0,0,0,0,0,0,0,0,-1,832,1415,0,0
-385,-391,0,0,0,0,0,0,0,0,0,-1,839,1415,0,0
-378,-391,0,0,0,0,0,0,0,0,0,-1,846,1415,0,0
-371,-391,0,0,0,0,0,0,0,0,0,-1,853,1415,0,0
-364,-391,0,0,0,0,0,0,0,0,0,-1,860,1415,0,0
-357,-391,0,0,0,0,0,0,0,0,0,-1,867,1415,0,0
-350,-391,0,0,0,0,0,0,0,0,0,-1,874,1415,0,0
-343,-391,0,0,0,0,0,0,0,0,0,-1,881,1415,0,0
-336,-391,0,0,0,0,0,0,0,0,0,-1,888,1415,0,0
-329,-391,0,0,0,0,0,0,0,0,0,-1,895,1415,0,0
-322,-391,0,0,0,0,0,0,0,0,0,-1,902,1415,0,0
-315,-391,0,0,0,0,0,0,0,0,0,-1,909,1415,0,0
-308,-391,0,0,0,0,0,0,0,0,0,-1,916,1415,0,0
-301,-391,0,0,0,0,0,0,0,0,0,-1,923,1415,0,0
-294,-391,0,0,0,0,0,0,0,0,0,-1,930,1415,0,0
-287,-391,0,0,0,0,0,0,0,0,0,-1,937,1415,0,0
-280,-391,0,0,0,0,0,0,0,0,0,-1,944,1415,0,0
-273,-391,0,0,0,0,0,0,0,0,0,-1,951,1415,0,0
-266,-391,0,0,0,0,0,0,0,0,0,-1,958,1415,0,0
-259,-391,0,0,0,0,0,0,0,0,0,-1,965,1415,0,0
-252,-391,0,0,0,0,0,0,0,0,0,-1,972,1415,0,0
-245,-391,0,0,0,0,0,0,0,0,0,-1,979,1415,0,0
-238,-391,0,0,0,0,0,0,0,0,0,-1,986,1415,0,0
-231,-391,0,0,0,0,0,0,0,0,0,-1,993,1415,0,0
-224,-391,0,0,0,0,0,0,0,0,0,-1,1000,1415,0,0
-217,-391,0,0,0,0,0,0,0,0,0,-1,1007,1415,0,0
-210,-391,0,0,0,0,0,0,0,0,0,-1,1014,1415,0,0
-203,-391,0,0,0,0,0,0,0,0,0,-1,1021,1415,0,0
-196,-391,0,0,0,0,0,0,0,0,0,-1,1028,1415,0,0
-189,-391,0,0,0,0,0,0,0,0,0,-1,1035,1415,0,0
-182,-391,0,0,0,0,0,0,0,0,0,-1,1042,1415,0,0
-175,-391,0,0,0,0,0,0,0,0,0,-1,1049,1415,0,0
-168,-391,0,0,0,0,0,0,0,0,0,-1,1056,1415,0,0
-161,-391,0,0,0,0,0,0,0,0,0,-1,1063,1415,0,0
-154,-391,0,0,0,0,0,0,0,0,0,-1,1070,1415,0,0
-147,-391,0,0,0,0,0,0,0,0,0,-1,1077,1415,0,0
-140,-391,0,0,0,0,0,0,0,0,0,-1,1084,1415,0,0
-133,-391,0,0,0,0,0,0,0,0,0,-1,1091,1415,0,0
-126,-391,0,0,0,0,0,0,0,0,0,-1,1098,1415,0,0
-119,-391,0,0,0,0,0,0,0,0,0,-1,1105,1415,0,0
-112,-391,0,0,0,0,0,0,0,0,0,-1,1112,1415,0,0
-105,-391,0,0,0,0,0,0,0,0,0,-1,1119,1415,0,0
-98,-391,0,0,0,0,0,0,0,0,0,-1,1126,1415,0,0
-91,-391,0,0,0,0,0,0,0,0,0,-1,1133,1415,0,0
-84,-391,0,0,0,0,0,0,0,0,0,-1,1140,1415,0,0
-77,-391,0,0,0,0,0,0,0,0,0,-1,1147,1415,0,0
-70,-391,0,0,0,0,0,0,0,0,0,-1,1154,1415,0,0
-63,-391,0,0,0,0,0,0,0,0,0,-1,1161,1415,0,0
-56,-391,0,0,0,0,0,0,0,0,0,-1,1168,1415,0,0
-49,-391,0,0,0,0,0,0,0,0,0,-1,1175,1415,0,0
-42,-391,0,0,0,0,0,0,0,0,0,-1,1182,1415,0,0
-35,-391,0,0,0,0,0,0,0,0,0,-1,1189,1415,0,0
-28,-391,0,0,0,0,0,0,0,0,0,-1,1196,1415,0,0
-21,-391,0,0,0,0,0,0,0,0,0,-1,1203,1415,0,0
-14,-391,0,0,0,0,0,0,0,0,0,-1,1210,1415,0,0
-7,-391,0,0,0,0,0,0,0,0,0,-1,1217,1415,0,0
0,-391,0,0,0,0,0,0,0,0,0,-1,1224,1415,0,0
7,-391,0,0,0,0,0,0,0,0,0,-1,1231,1415,0,0
14,-391,0,0,0,0,0,0,0,0,0,-1,1238,1415,0,0
21,-391,0,0,0,0,0,0,0,0,0,-1,1245,1415,0,0
28,-391,0,0,0,0,0,0,0,0,0,-1,1252,1415,0,0
35,-391,0,0,0,0,0,0,0,0,0,-1,1259,1415,0,0
42,-391,0,0,0,0,0,0,0,0,0,-1,1266,1415,0,0
49,-391,0,0,0,0,0,0,0,0,0,-1,1273,1415,0,0
56,-391,0,0,0,0,0,0,0,0,0,-1,1280,1415,0,0
63,-391,0,0,0,0,0,0,0,0,0,-1,1287,1415,0,0
70,-391,0,0,0,0,0,0,0,0,0,-1,1294,1415,0,0
77,-391,0,0,0,0,0,0,0,0,0,-1,1301,1415,0,0
84,-391,0,0,0,0,0,0,0,0,0,-1,1308,1415,0,0
91,-391,0,0,0,0,0,0,0,0,0,-1,1315,1415,0,0
98,-391,0,0,0,0,0,0,0,0,0,-1,1322,1415,0,0
105,-391,0,0,0,0,0,0,0,0,0,-1,1329,1415,0,0
112,-391,0,0,0,0,0,0,0,0,0,-1,1336,1415,0,0
119,-391,0,0,0,0,0,0,0,0,0,-1,1343,1415,0,0
126,-391,0,0,0,0,0,0,0,0,0,-1,1350,1415,0,0
133,-391,0,0,0,0,0,0,0,0,0,-1,1357,1415,0,0
140,-391,0,0,0,0,0,0,0,0,0,-1,1364,1415,0,0
147,-391,0,0,0,0,0,0,0,0,0,-1,1371,1415,0,0
154,-391,0,0,0,0,0,0,0,0,0,-1,1378,1415,0,0
161,-391,0,0,0,0,0,0,0,0,0,-1,1385,1415,0,0
168,-391,0,0,0,0,0,0,0,0,0,-1,1392,1415,0,0
175,-391,0,0,0,0,0,0,0,0,0,-1,1399,1415,0,0
182,-391,0,0,0,0,0,0,0,0,0,-1,1406,1415,0,0
189,-391,0,0,0,0,0,0,0,0,0,-1,1413,1415,0,0
196,-391,0,0,0,0,0,0,0,0,0,-1,1420,1415,0,0
203,-391,0,0,0,0,0,0,0,0,0,-1,1427,1415,0,0
210,-391,0,0,0,0,0,0,0,0,0,-1,1434,1415,0,0
217,-391,0,0,0,0,0,0,0,0,0,-1,1441,1415,0,0
224,-391,0,0,0,0,0,0,0,0,0,-1,1448,1415,0,0
231,-391,0,0,0,0,0,0,0,0,0,-1,1455,1415,0,0
238,-391,0,0,0,0,0,0,0,0,0,-1,1462,1415,0,0
245,-391,0,0,0,0,0,0,0,0,0,-1,1469,1415,0,0
252,-391,0,0,0,0,0,0,0,0,0,-1,1476,1415,0,0
259,-391,0,0,0,0,0,0,0,0,0,-1,1483,1415,0,0
266,-391,0,0,0,0,0,0,0,0,0,-1,1490,1415,0,0
273,-391,0,0,0,0,0,0,0,0,0,-1,1497,1415,0,0
280,-391,0,0,0,0,0,0,0,0,0,-1,1504,1415,0,0
287,-391,0,0,0,0,0,0,0,0,0,-1,1511,1415,0,0
294,-391,0,0,0,0,0,0,0,0,0,-1,1518,1415,0,0
301,-391,0,0,0,0,0,0,0,0,0,-1,1525,1415,0,0
308,-391,0,0,0,0,0,0,0,0,0,-1,1532,1415,0,0
315,-391,0,0,0,0,0,0,0,0,0,-1,1539,1415,0,0
322,-391,0,0,0,0,0,0,0,0,0,-1,1546,1415,0,0
329,-391,0,0,0,0,0,0,0,0,0,-1,1553,1415,0,0
336,-391,0,0,0,0,0,0,0,0,0,-1,1560,1415,0,0
343,-391,0,0,0,0,0,0,0,0,0,-1,1567,1415,0,0
350,-391,0,0,0,0,0,0,0,0,0,-1,1574,1415,0,0
357,-391,0,0,0,0,0,0,0,0,0,-1,1581,1415,0,0
364,-391,0,0,0,0,0,0,0,0,0,-1,1588,1415,0,0
371,-391,0,0,0,0,0,0,0,0,0,-1,1595,1415,0,0
378,-391,0,0,0,0,0,0,0,0,0,-1,1602,1415,0,0
385,-391,0,0,0,0,0,0,0,0,0,-1,1609,1415,0,0
392,-391,0,0,0,0,0,0,0,0,0,-1,1616,1415,0,0
399,-391,0,0,0,0,0,0,0,0,0,-1,1623,1415,0,0
406,-391,0,0,0,0,0,0,0,0,0,-1,1630,1415,0,0
413,-391,0,0,0,0,0,0,0,0,0,-1,1637,1415,0,0
420,-391,0,0,0,0,0,0,0,0,0,-1,1644,1415,0,0
427,-391,0,0,0,0,0,0,0,0,0,-1,1651,1415,0,0
434,-391,0,0,0,0,0,0,0,0,0,-1,1658,1415,0,0
441,-391,0,0,0,0,0,0,0,0,0,-1,1665,1415,0,0
448,-391,0,0,0,0,0,0,0,0,0,-1,1672,1415,0,0
455,-391,0,0,0,0,0,0,0,0,0,-1,1679,1415,0,0
462,-391,0,0,0,0,0,0,0,0,0,-1,1686,1415,0,0
469,-391,0,0,0,0,0,0,0,0,0,-1,1693,1415,0,0
476,-391,0,0,0,0,0,0,0,0,0,-1,1700,1415,0,0
483,-391,0,0,0,0,0,0,0,0,0,-1,1707,1415,0,0
490,-391,0,0,0,0,0,0,0,0,0,-1,1714,1415,0,0
497,-391,0,0,0,0,0,0,0,0,0,-1,1721,1415,0,0
504,-391,0,0,0,0,0,0,0,0,0,-1,1728,1415,0,0
511,-391,0,0,0,0,0,0,0,0,0,-1,1735,1415,0,0
518,-391,0,0,0,0,0,0,0,0,0,-1,1742,1415,0,0
525,-391,0,0,0,0,0,0,0,0,0,-1,1749,1415,0,0
532,-391,7.54456,0.775146,0,0,0,0,0,0,0,-1,1756,1415,7.54461,-0.775183
539,-391,7.57605,0.297363,0,0,0,0,0,0,0,-1,1763,1415,7.57611,-0.297373
546,-391,7.47583,-0.17395,0,0,0,0,0,0,0,-1,1770,1415,7.47586,0.173913
553,-391,4.68311,0.296875,0,0,0,0,0,0,0,-1,1777,1415,4.68311,-0.296875
560,-391,6.82861,1.27124,0,0,0,0,0,0,0,-1,1784,1415,6.82857,-1.27124
567,-391,6.8269,1.38354,0,0,0,0,0,0,0,-1,1791,1415,6.82693,-1.38352
574,-391,9.88489,2.97693,0,0,0,0,0,0,0,-1,1798,1415,9.88486,-2.97693
581,-391,9.19873,2.97046,-0.0151444,0.00731233,0.016447,0.0159983,-0.0238303,1.08491,0.0231428,0.0439391,1805,1415,9.19876,-2.97043
588,-391,8.49731,2.89648,-0.0185296,0.00390067,0.014707,0.0111808,-0.0258098,1.11115,0.0219062,0.0491331,1812,1415,8.49733,-2.89653
595,-391,7.04614,2.67395,0,0,0,0,0,0,0,-1,1819,1415,7.04615,-2.67399
602,-391,7.32874,2.60657,0,0,0,0,0,0,0,-1,1826,1415,7.32868,-2.60653
609,-391,7.12683,2.81555,-0.01852,-0.00215151,0.0100073,0.00259207,-0.0232635,1.12816,0.0164413,0.0440563,1833,1415,7.12686,-2.81551
616,-391,6.81689,2.99731,-0.0162382,-0.00298009,0.00860914,0.00125648,-0.0204747,1.11349,0.0140873,0.0267565,1840,1415,6.8169,-2.99731
623,-391,6.72791,2.93481,-0.0136595,-0.00328192,0.00737246,0.000544656,-0.017486,1.09204,0.0118431,0.0146751,1847,1415,6.72789,-2.93482
630,-391,6.72095,2.86804,-0.0105926,-0.00311835,0.00589378,0.000123258,-0.0138342,1.06795,0.00926418,0.015532,1854,1415,6.72091,-2.86798
637,-391,6.71155,2.81689,-0.00741503,-0.00236384,0.00456606,0.000328563,-0.0101074,1.03802,0.00685044,0.0149355,1861,1415,6.71149,-2.8169
644,-391,6.71167,2.72913,-0.00478274,-0.00174178,0.00303436,0.000131737,-0.00665625,1.01766,0.00448206,0.0150104,1868,1415,6.71168,-2.72918
651,-391,6.70166,2.63489,-0.00254198,-0.000709594,0.00158034,0.000200929,-0.0034525,1.04809,0.00237148,0.015082,1875,1415,6.70169,-2.63484
658,-391,6.69409,2.54175,-1.34163e-05,-3.76317e-05,0.000284199,0.000258933,-0.000309981,0.76411,0.000328903,0.0145028,1882,1415,6.69406,-2.54179
665,-391,6.72913,2.47485,0.0034866,0.000714862,-0.00169003,0.00428633,-8.48689e-05,-0.441982,0.00288626,0.0114115,1889,1415,6.72907,-2.47487
672,-391,6.73328,2.37549,0.00761894,0.0018802,-0.00412806,0.00977691,-0.000277768,-0.481687,0.00661247,0.0107168,1896,1415,6.73323,-2.37554
679,-391,6.73157,2.27393,0.0140712,0.00114597,-0.00616734,0.0165418,-0.00132458,-0.381011,0.0114948,0.0109425,1903,1415,6.7316,-2.27389
686,-391,6.73694,2.20239,0.0227467,0.00221784,-0.00738176,0.0251254,-0.000160864,-0.311734,0.0168042,0.0123698,1910,1415,6.73691,-2.20237
693,-391,6.72925,2.19031,0.0331031,0.00264712,-0.00972859,0.0359454,-0.000195229,-0.284253,0.0240289,0.0232072,1917,1415,6.72929,-2.19034
700,-391,6.53577,2.28809,0,0,0,0,0,0,0,-1,1924,1415,6.53582,-2.28805
707,-391,6.88501,2.42627,0.0643208,0.00459051,-0.0143789,0.0676019,0.00130933,-0.224353,0.0446379,0.0472048,1931,1415,6.88501,-2.42626
714,-391,7.50049,2.5719,0.086001,0.00655942,-0.0157417,0.0890066,0.00355383,-0.18866,0.0581893,0.0454512,1938,1415,7.50053,-2.57192
721,-391,8.2804,2.76001,0.112267,0.00958679,-0.0153894,0.114524,0.00732988,-0.145615,0.0740273,0.0413833,1945,1415,8.28035,-2.75999
728,-391,9.09558,3.05115,0.143707,0.0141295,-0.0119192,0.144794,0.0130422,-0.0909685,0.0924888,0.0413917,1952,1415,9.09556,-3.05116
735,-391,0,0,0,0,0,0,0,0,0,-1,1959,1415,0,0
742,-391,0,0,0,0,0,0,0,0,0,-1,1966,1415,0,0
749,-391,0,0,0,0,0,0,0,0,0,-1,1973,1415,0,0
756,-391,0,0,0,0,0,0,0,0,0,-1,1980,1415,0,0
763,-391,0,0,0,0,0,0,0,0,0,-1,1987,1415,0,0
770,-391,0,0,0,0,0,0,0,0,0,-1,1994,1415,0,0
777,-391,0,0,0,0,0,0,0,0,0,-1,2001,1415,0,0
784,-391,0,0,0,0,0,0,0,0,0,-1,2008,1415,0,0
791,-391,0,0,0,0,0,0,0,0,0,-1,2015,1415,0,0
798,-391,0,0,0,0,0,0,0,0,0,-1,2022,1415,0,0
805,-391,0,0,0,0,0,0,0,0,0,-1,2029,1415,0,0
812,-391,0,0,0,0,0,0,0,0,0,-1,2036,1415,0,0
-700,-398,0,0,0,0,0,0,0,0,0,-1,524,1422,0,0
-693,-398,0,0,0,0,0,0,0,0,0,-1,531,1422,0,0
-686,-398,0,0,0,0,0,0,0,0,0,-1,538,1422,0,0
-679,-398,0,0,0,0,0,0,0,0,0,-1,545,1422,0,0
-672,-398,0,0,0,0,0,0,0,0,0,-1,552,1422,0,0
-665,-398,0,0,0,0,0,0,0,0,0,-1,559,1422,0,0
-658,-398,0,0,0,0,0,0,0,0,0,-1,566,1422,0,0
-651,-398,0,0,0,0,0,0,0,0,0,-1,573,1422,0,0
-644,-398,0,0,0,0,0,0,0,0,0,-1,580,1422,0,0
-637,-398,0,0,0,0,0,0,0,0,0,-1,587,1422,0,0
-630,-398,0,0,0,0,0,0,0,0,0,-1,594,1422,0,0
-623,-398,0,0,0,0,0,0,0,0,0,-1,601,1422,0,0
-616,-398,0,0,0,0,0,0,0,0,0,-1,608,1422,0,0
-609,-398,0.441895,-2.85425,0,0,0,0,0,0,0,-1,615,1422,0.441895,2.85419
-602,-398,1.18176,-2.57642,0,0,0,0,0,0,0,-1,622,1422,1.18178,2.57638
-595,-398,1.64929,-2.50806,0,0,0,0,0,0,0,-1,629,1422,1.64927,2.50811
-588,-398,0.109375,-0.309448,0,0,0,0,0,0,0,-1,636,1422,0.109384,0.309396
-581,-398,0.142944,0.611938,0,0,0,0,0,0,0,-1,643,1422,0.142932,-0.611882
-574,-398,-0.133606,1.23169,0,0,0,0,0,0,0,-1,650,1422,-0.133627,-1.23164
-567,-398,-0.222046,1.16589,-0.00575022,0.011953,0.0158674,0.0212707,-0.015068,1.03982,0.0210818,0.0450698,657,1422,-0.222019,-1.16585
-560,-398,-0.343567,1.13391,-0.00716928,0.0106495,0.0111985,0.0160504,-0.0125701,1.12142,0.0165647,0.0355601,664,1422,-0.343567,-1.13394
-553,-398,-0.754944,1.46533,0,0,0,0,0,0,0,-1,671,1422,-0.754922,-1.46536
-546,-398,-0.844727,1.63367,-0.00630691,0.00797264,0.00575758,0.0100049,-0.00833916,1.23148,0.0106055,0.0110488,678,1422,-0.844697,-1.63364
-539,-398,-0.819153,1.74524,-0.00500799,0.00643032,0.00402579,0.00770514,-0.00628281,1.26412,0.00808985,0.0112598,685,1422,-0.819132,-1.74527
-532,-398,-0.835144,1.83008,-0.00365628,0.00476283,0.00251413,0.00545646,-0.00434991,1.3016,0.00567371,0.0189926,692,1422,-0.835172,-1.83007
-525,-398,-0.859314,1.91431,-0.00271198,0.00349133,0.000926858,0.00362686,-0.0028475,1.42561,0.00374699,0.0185586,699,1422,-0.85932,-1.91432
-518,-398,-0.829224,2.00317,-0.00151074,0.00191093,-0.000311206,0.00193901,-0.00153882,-1.48083,0.00201235,0.0156384,706,1422,-0.82925,-2.00312
-511,-398,-0.818848,2.0769,-0.000362905,0.0003677,-0.00115312,0.001212,-0.0012072,-0.938794,0.00139673,0.0115306,713,1422,-0.81884,-2.0769
-504,-398,-0.839417,2.19714,0.000278077,-0.000979181,-0.00200156,0.0017474,-0.0024485,-0.633241,0.00243375,0.0117859,720,1422,-0.839443,-2.19716
-497,-398,-0.834839,2.29639,2.15579e-05,-0.00189907,-0.00299536,0.00220678,-0.00408429,-0.630275,0.00368568,0.009935,727,1422,-0.834868,-2.29643
-490,-398,-0.823242,2.37854,-0.001476,-0.00260705,-0.0037963,0.00179667,-0.00587972,-0.711458,0.00463624,0.00963194,734,1422,-0.823247,-2.37857
-483,-398,-0.786987,2.47522,-0.00408375,-0.00277137,-0.00444433,0.00106495,-0.00792007,-0.858692,0.00566848,0.0153672,741,1422,-0.786969,-2.47527
-476,-398,-0.830872,2.52795,-0.0077743,-0.00275532,-0.00476547,0.000121029,-0.0106506,-1.02775,0.00714111,0.0353404,748,1422,-0.830885,-2.52793
-469,-398,-0.787903,2.59241,-0.0126492,-0.00259074,-0.00502898,-0.000507742,-0.0147322,-1.17811,0.00965667,0.0468033,755,1422,-0.787927,-2.59236
-462,-398,-0.736877,2.70251,-0.0194,-0.00218006,-0.00498509,-0.000841021,-0.020739,-1.30838,0.0135544,0.0464896,762,1422,-0.736899,-2.70246
-455,-398,-0.630737,2.80542,0,0,0,0,0,0,0,-1,769,1422,-0.630754,-2.80536
-448,-398,-0.898132,2.65637,0,0,0,0,0,0,0,-1,776,1422,-0.898148,-2.6564
-441,-398,-0.839783,1.86755,0,0,0,0,0,0,0,-1,783,1422,-0.839813,-1.86758
-434,-398,-1.80377,1.00574,0,0,0,0,0,0,0,-1,790,1422,-1.80376,-1.00569
-427,-398,-2.42285,1.78821,0,0,0,0,0,0,0,-1,797,1422,-2.42285,-1.78817
-420,-398,-3.04193,2.57068,0,0,0,0,0,0,0,-1,804,1422,-3.04195,-2.57065
-413,-398,-2.48126,2.71936,0,0,0,0,0,0,0,-1,811,1422,-2.48126,-2.71934
-406,-398,0,0,0,0,0,0,0,0,0,-1,818,1422,0,0
-399,-398,0,0,0,0,0,0,0,0,0,-1,825,1422,0,0
-392,-398,0,0,0,0,0,0,0,0,0,-1,832,1422,0,0
-385,-398,0,0,0,0,0,0,0,0,0,-1,839,1422,0,0
-378,-398,0,0,0,0,0,0,0,0,0,-1,846,1422,0,0
-371,-398,0,0,0,0,0,0,0,0,0,-1,853,1422,0,0
-364,-398,0,0,0,0,0,0,0,0,0,-1,860,1422,0,0
-357,-398,0,0,0,0,0,0,0,0,0,-1,867,1422,0,0
-350,-398,0,0,0,0,0,0,0,0,0,-1,874,1422,0,0
-343,-398,0,0,0,0,0,0,0,0,0,-1,881,1422,0,0
-336,-398,0,0,0,0,0,0,0,0,0,-1,888,1422,0,0
-329,-398,0,0,0,0,0,0,0,0,0,-1,895,1422,0,0
-322,-398,0,0,0,0,0,0,0,0,0,-1,902,1422,0,0
-315,-398,0,0,0,0,0,0,0,0,0,-1,909,1422,0,0
-308,-398,0,0,0,0,0,0,0,0,0,-1,916,1422,0,0
-301,-398,0,0,0,0,0,0,0,0,0,-1,923,1422,0,0
-294,-398,0,0,0,0,0,0,0,0,0,-1,930,1422,0,0
-287,-398,0,0,0,0,0,0,0,0,0,-1,937,1422,0,0
-280,-398,0,0,0,0,0,0,0,0,0,-1,944,1422,0,0
-273,-398,0,0,0,0,0,0,0,0,0,-1,951,1422,0,0
-266,-398,0,0,0,0,0,0,0,0,0,-1,958,1422,0,0
-259,-398,0,0,0,0,0,0,0,0,0,-1,965,1422,0,0
-252,-398,0,0,0,0,0,0,0,0,0,-1,972,1422,0,0
-245,-398,0,0,0,0,0,0,0,0,0,-1,979,1422,0,0
-238,-398,0,0,0,0,0,0,0,0,0,-1,986,1422,0,0
-231,-398,0,0,0,0,0,0,0,0,0,-1,993,1422,0,0
-224,-398,0,0,0,0,0,0,0,0,0,-1,1000,1422,0,0
-217,-398,0,0,0,0,0,0,0,0,0,-1,1007,1422,0,0
-210,-398,0,0,0,0,0,0,0,0,0,-1,1014,1422,0,0
-203,-398,0,0,0,0,0,0,0,0,0,-1,1021,1422,0,0
-196,-398,0,0,0,0,0,0,0,0,0,-1,1028,1422,0,0
-189,-398,0,0,0,0,0,0,0,0,0,-1,1035,1422,0,0
-182,-398,0,0,0,0,0,0,0,0,0,-1,1042,1422,0,0
-175,-398,0,0,0,0,0,0,0,0,0,-1,1049,1422,0,0
-168,-398,0,0,0,0,0,0,0,0,0,-1,1056,1422,0,0
-161,-398,0,0,0,0,0,0,0,0,0,-1,1063,1422,0,0
-154,-398,0,0,0,0,0,0,0,0,0,-1,1070,1422,0,0
-147,-398,0,0,0,0,0,0,0,0,0,-1,1077,1422,0,0
-140,-398,0,0,0,0,0,0,0,0,0,-1,1084,1422,0,0
-133,-398,0,0,0,0,0,0,0,0,0,-1,1091,1422,0,0
-126,-398,0,0,0,0,0,0,0,0,0,-1,1098,1422,0,0
-119,-398,0,0,0,0,0,0,0,0,0,-1,1105,1422,0,0
-112,-398,0,0,0,0,0,0,0,0,0,-1,1112,1422,0,0
-105,-398,0,0,0,0,0,0,0,0,0,-1,1119,1422,0,0
-98,-398,0,0,0,0,0,0,0,0,0,-1,1126,1422,0,0
-91,-398,0,0,0,0,0,0,0,0,0,-1,1133,1422,0,0
-84,-398,0,0,0,0,0,0,0,0,0,-1,1140,1422,0,0
-77,-398,0,0,0,0,0,0,0,0,0,-1,1147,1422,0,0
-70,-398,0,0,0,0,0,0,0,0,0,-1,1154,1422,0,0
-63,-398,0,0,0,0,0,0,0,0,0,-1,1161,1422,0,0
-56,-398,0,0,0,0,0,0,0,0,0,-1,1168,1422,0,0
-49,-398,0,0,0,0,0,0,0,0,0,-1,1175,1422,0,0
-42,-398,0,0,0,0,0,0,0,0,0,-1,1182,1422,0,0
-35,-398,0,0,0,0,0,0,0,0,0,-1,1189,1422,0,0
-28,-398,0,0,0,0,0,0,0,0,0,-1,1196,1422,0,0
-21,-398,0,0,0,0,0,0,0,0,0,-1,1203,1422,0,0
-14,-398,0,0,0,0,0,0,0,0,0,-1,1210,1422,0,0
-7,-398,0,0,0,0,0,0,0,0,0,-1,1217,1422,0,0
0,-398,0,0,0,0,0,0,0,0,0,-1,1224,1422,0,0
7,-398,0,0,0,0,0,0,0,0,0,-1,1231,1422,0,0
14,-398,0,0,0,0,0,0,0,0,0,-1,1238,1422,0,0
21,-398,0,0,0,0,0,0,0,0,0,-1,1245,1422,0,0
28,-398,0,0,0,0,0,0,0,0,0,-1,1252,1422,0,0
35,-398,0,0,0,0,0,0,0,0,0,-1,1259,1422,0,0
42,-398,0,0,0,0,0,0,0,0,0,-1,1266,1422,0,0
49,-398,0,0,0,0,0,0,0,0,0,-1,1273,1422,0,0
56,-398,0,0,0,0,0,0,0,0,0,-1,1280,1422,0,0
63,-398,0,0,0,0,0,0,0,0,0,-1,1287,1422,0,0
70,-398,0,0,0,0,0,0,0,0,0,-1,1294,1422,0,0
77,-398,0,0,0,0,0,0,0,0,0,-1,1301,1422,0,0
84,-398,0,0,0,0,0,0,0,0,0,-1,1308,1422,0,0
91,-398,0,0,0,0,0,0,0,0,0,-1,1315,1422,0,0
98,-398,0,0,0,0,0,0,0,0,0,-1,1322,1422,0,0
105,-398,0,0,0,0,0,0,0,0,0,-1,1329,1422,0,0
112,-398,0,0,0,0,0,0,0,0,0,-1,1336,1422,0,0
119,-398,0,0,0,0,0,0,0,0,0,-1,1343,1422,0,0
126,-398,0,0,0,0,0,0,0,0,0,-1,1350,1422,0,0
133,-398,0,0,0,0,0,0,0,0,0,-1,1357,1422,0,0
140,-398,0,0,0,0,0,0,0,0,0,-1,1364,1422,0,0
147,-398,0,0,0,0,0,0,0,0,0,-1,1371,1422,0,0
154,-398,0,0,0,0,0,0,0,0,0,-1,1378,1422,0,0
161,-398,0,0,0,0,0,0,0,0,0,-1,1385,1422,0,0
168,-398,0,0,0,0,0,0,0,0,0,-1,1392,1422,0,0
175,-398,0,0,0,0,0,0,0,0,0,-1,1399,1422,0,0
182,-398,0,0,0,0,0,0,0,0,0,-1,1406,1422,0,0
189,-398,0,0,0,0,0,0,0,0,0,-1,1413,1422,0,0
196,-398,0,0,0,0,0,0,0,0,0,-1,1420,1422,0,0
203,-398,0,0,0,0,0,0,0,0,0,-1,1427,1422,0,0
210,-398,0,0,0,0,0,0,0,0,0,-1,1434,1422,0,0
217,-398,0,0,0,0,0,0,0,0,0,-1,1441,1422,0,0
224,-398,0,0,0,0,0,0,0,0,0,-1,1448,1422,0,0
231,-398,0,0,0,0,0,0,0,0,0,-1,1455,1422,0,0
238,-398,0,0,0,0,0,0,0,0,0,-1,1462,1422,0,0
245,-398,0,0,0,0,0,0,0,0,0,-1,1469,1422,0,0
252,-398,0,0,0,0,0,0,0,0,0,-1,1476,1422,0,0
259,-398,0,0,0,0,0,0,0,0,0,-1,1483,1422,0,0
266,-398,0,0,0,0,0,0,0,0,0,-1,1490,1422,0,0
273,-398,0,0,0,0,0,0,0,0,0,-1,1497,1422,0,0
280,-398,0,0,0,0,0,0,0,0,0,-1,1504,1422,0,0
287,-398,0,0,0,0,0,0,0,0,0,-1,1511,1422,0,0
294,-398,0,0,0,0,0,0,0,0,0,-1,1518,1422,0,0
301,-398,0,0,0,0,0,0,0,0,0,-1,1525,1422,0,0
308,-398,0,0,0,0,0,0,0,0,0,-1,1532,1422,0,0
315,-398,0,0,0,0,0,0,0,0,0,-1,1539,1422,0,0
322,-398,0,0,0,0,0,0,0,0,0,-1,1546,1422,0,0
329,-398,0,0,0,0,0,0,0,0,0,-1,1553,1422,0,0
336,-398,0,0,0,0,0,0,0,0,0,-1,1560,1422,0,0
343,-398,0,0,0,0,0,0,0,0,0,-1,1567,1422,0,0
350,-398,0,0,0,0,0,0,0,0,0,-1,1574,1422,0,0
357,-398,0,0,0,0,0,0,0,0,0,-1,1581,1422,0,0
364,-398,0,0,0,0,0,0,0,0,0,-1,1588,1422,0,0
371,-398,0,0,0,0,0,0,0,0,0,-1,1595,1422,0,0
378,-398,0,0,0,0,0,0,0,0,0,-1,1602,1422,0,0
385,-398,0,0,0,0,0,0,0,0,0,-1,1609,1422,0,0
392,-398,0,0,0,0,0,0,0,0,0,-1,1616,1422,0,0
399,-398,0,0,0,0,0,0,0,0,0,-1,1623,1422,0,0
406,-398,0,0,0,0,0,0,0,0,0,-1,1630,1422,0,0
413,-398,0,0,0,0,0,0,0,0,0,-1,1637,1422,0,0
420,-398,0,0,0,0,0,0,0,0,0,-1,1644,1422,0,0
427,-398,0,0,0,0,0,0,0,0,0,-1,1651,1422,0,0
434,-398,0,0,0,0,0,0,0,0,0,-1,1658,1422,0,0
441,-398,0,0,0,0,0,0,0,0,0,-1,1665,1422,0,0
448,-398,0,0,0,0,0,0,0,0,0,-1,1672,1422,0,0
455,-398,0,0,0,0,0,0,0,0,0,-1,1679,1422,0,0
462,-398,0,0,0,0,0,0,0,0,0,-1,1686,1422,0,0
469,-398,0,0,0,0,0,0,0,0,0,-1,1693,1422,0,0
476,-398,0,0,0,0,0,0,0,0,0,-1,1700,1422,0,0
483,-398,0,0,0,0,0,0,0,0,0,-1,1707,1422,0,0
490,-398,0,0,0,0,0,0,0,0,0,-1,1714,1422,0,0
497,-398,0,0,0,0,0,0,0,0,0,-1,1721,1422,0,0
504,-398,0,0,0,0,0,0,0,0,0,-1,1728,1422,0,0
511,-398,0,0,0,0,0,0,0,0,0,-1,1735,1422,0,0
518,-398,0,0,0,0,0,0,0,0,0,-1,1742,1422,0,0
525,-398,0,0,0,0,0,0,0,0,0,-1,1749,1422,0,0
532,-398,6.92407,0.472046,0,0,0,0,0,0,0,-1,1756,1422,6.92406,-0.472056
539,-398,7.19556,4.43347,0,0,0,0,0,0,0,-1,1763,1422,7.19558,-4.43342
546,-398,10.4103,3.86743,0,0,0,0,0,0,0,-1,1770,1422,10.4103,-3.86741
553,-398,9.53186,3.98706,0,0,0,0,0,0,0,-1,1777,1422,9.53191,-3.98705
560,-398,6.91199,1.71692,0,0,0,0,0,0,0,-1,1784,1422,6.91195,-1.71688
567,-398,10.3871,2.70105,0,0,0,0,0,0,0,-1,1791,1422,10.387,-2.70109
574,-398,9.85083,3.07117,0,0,0,0,0,0,0,-1,1798,1422,9.85086,-3.07121
581,-398,9.31702,3.39758,0,0,0,0,0,0,0,-1,1805,1422,9.31706,-3.39758
588,-398,8.20361,3.31335,0,0,0,0,0,0,0,-1,1812,1422,8.2036,-3.31336
595,-398,6.60022,2.43567,0,0,0,0,0,0,0,-1,1819,1422,6.60018,-2.43573
602,-398,6.82129,3.00818,0,0,0,0,0,0,0,-1,1826,1422,6.82124,-3.00816
609,-398,6.71667,2.9436,-0.0189678,-0.00320239,0.00863643,0.000607842,-0.0227781,1.1553,0.015392,0.0358252,1833,1422,6.71668,-2.94366
616,-398,6.64746,3.0343,-0.0160154,-0.00357929,0.00720712,-0.000278575,-0.0193161,1.14133,0.0127855,0.0147349,1840,1422,6.64747,-3.03436
623,-398,6.62476,2.94702,-0.0125935,-0.0032898,0.00599827,-0.000350933,-0.0155324,1.11522,0.0102399,0.010176,1847,1422,6.62472,-2.94701
630,-398,6.63171,2.87207,-0.00913845,-0.0026784,0.00462509,-0.000267102,-0.0115497,1.09021,0.00761236,0.0109162,1854,1422,6.63173,-2.87208
637,-398,6.625,2.79749,-0.00572509,-0.00160049,0.00338767,0.00030324,-0.00762882,1.05882,0.00518992,0.0124777,1861,1422,6.62494,-2.79744
644,-398,6.60034,2.70471,-0.00293747,-0.000712796,0.00199471,0.000458756,-0.00410902,1.03975,0.00290437,0.0188251,1868,1422,6.60034,-2.7047
651,-398,6.61633,2.66492,-0.000733636,0.000499996,0.000511618,0.000684563,-0.000918203,1.22458,0.000928629,0.0258564,1875,1422,6.61629,-2.6649
658,-398,6.62451,2.59253,0.00198809,0.00136621,-0.000897404,0.0026269,0.000727406,-0.618627,0.00156615,0.0189622,1882,1422,6.62449,-2.59257
665,-398,6.63794,2.46729,0.00580712,0.00234539,-0.00311281,0.00763792,0.000514584,-0.531661,0.00492938,0.0131481,1889,1422,6.63795,-2.46726
672,-398,6.63892,2.37256,0.010428,0.00382387,-0.00590288,0.0138897,0.000362244,-0.530382,0.00914141,0.0123418,1896,1422,6.63892,-2.37256
679,-398,6.63318,2.28271,0.0174638,0.00351408,-0.0083562,0.0213736,-0.000395665,-0.437628,0.0143828,0.0111046,1903,1422,6.63315,-2.28274
686,-398,6.66833,2.20129,0.0269977,0.00501156,-0.0101684,0.0309794,0.00102983,-0.373225,0.0203184,0.0161884,1910,1422,6.66828,-2.20127
693,-398,6.58997,2.1333,0.0384441,0.00593881,-0.0133067,0.0431967,0.00118629,-0.343032,0.0284106,0.0361896,1917,1422,6.59002,-2.13336
700,-398,6.54199,2.03638,0,0,0,0,0,0,0,-1,1924,1422,6.54196,-2.03634
707,-398,7.23621,2.64514,0.0719593,0.00916223,-0.0201665,0.0778777,0.00324381,-0.285463,0.0508717,0.0475276,1931,1422,7.23626,-2.64519
714,-398,8.32239,2.35962,0.0945713,0.0119951,-0.0230156,0.100553,0.00601348,-0.254268,0.0651234,0.0459529,1938,1422,8.3224,-2.35963
721,-398,9.26843,2.35132,0.121257,0.0161257,-0.0244651,0.126671,0.0107113,-0.217802,0.0811132,0.0397419,1945,1422,9.26844,-2.35136
728,-398,9.56946,2.74414,0.152256,0.0217606,-0.0233382,0.156304,0.0177123,-0.171753,0.098829,0.0414012,1952,1422,9.56949,-2.74415
735,-398,0,0,0,0,0,0,0,0,0,-1,1959,1422,0,0
742,-398,0,0,0,0,0,0,0,0,0,-1,1966,1422,0,0
749,-398,0,0,0,0,0,0,0,0,0,-1,1973,1422,0,0
756,-398,0,0,0,0,0,0,0,0,0,-1,1980,1422,0,0
763,-398,0,0,0,0,0,0,0,0,0,-1,1987,1422,0,0
770,-398,0,0,0,0,0,0,0,0,0,-1,1994,1422,0,0
777,-398,0,0,0,0,0,0,0,0,0,-1,2001,1422,0,0
784,-398,0,0,0,0,0,0,0,0,0,-1,2008,1422,0,0
791,-398,0,0,0,0,0,0,0,0,0,-1,2015,1422,0,0
798,-398,0,0,0,0,0,0,0,0,0,-1,2022,1422,0,0
805,-398,0,0,0,0,0,0,0,0,0,-1,2029,1422,0,0
812,-398,0,0,0,0,0,0,0,0,0,-1,2036,1422,0,0
-700,-405,0,0,0,0,0,0,0,0,0,-1,524,1429,0,0
-693,-405,0,0,0,0,0,0,0,0,0,-1,531,1429,0,0
-686,-405,0,0,0,0,0,0,0,0,0,-1,538,1429,0,0
-679,-405,0,0,0,0,0,0,0,0,0,-1,545,1429,0,0
-672,-405,0,0,0,0,0,0,0,0,0,-1,552,1429,0,0
-665,-405,0,0,0,0,0,0,0,0,0,-1,559,1429,0,0
-658,-405,0,0,0,0,0,0,0,0,0,-1,566,1429,0,0
-651,-405,0,0,0,0,0,0,0,0,0,-1,573,1429,0,0
-644,-405,0,0,0,0,0,0,0,0,0,-1,580,1429,0,0
-637,-405,0,0,0,0,0,0,0,0,0,-1,587,1429,0,0
-630,-405,0,0,0,0,0,0,0,0,0,-1,594,1429,0,0
-623,-405,0,0,0,0,0,0,0,0,0,-1,601,1429,0,0
-616,-405,0,0,0,0,0,0,0,0,0,-1,608,1429,0,0
-609,-405,0,0,0,0,0,0,0,0,0,-1,615,1429,0,0
-602,-405,1.53418,-2.48352,0,0,0,0,0,0,0,-1,622,1429,1.53418,2.48354
-595,-405,1.86487,-2.33093,0,0,0,0,0,0,0,-1,629,1429,1.86487,2.3309
-588,-405,-0.205261,-0.988159,0,0,0,0,0,0,0,-1,636,1429,-0.205248,0.98811
-581,-405,0.0955811,-0.345703,0.00475455,0.00577177,0.0359048,0.0411716,-0.0306452,0.79248,0.0416116,0.0438383,643,1429,0.0955911,0.345678
-574,-405,0.322693,0.13147,0,0,0,0,0,0,0,-1,650,1429,0.322701,-0.131419
-567,-405,0.3526,0.42749,-0.00523115,0.0109048,0.0207874,0.025135,-0.0194613,0.970509,0.0258171,0.0479856,657,1429,0.3526,-0.427474
-560,-405,-0.0377197,0.947998,-0.00679797,0.0111733,0.0155659,0.020161,-0.0157856,1.04716,0.020805,0.042403,664,1429,-0.0377079,-0.947995
-553,-405,-0.55957,1.31995,-0.00692844,0.0107452,0.0116458,0.0165274,-0.0127106,1.10995,0.0169284,0.0329637,671,1429,-0.559594,-1.3199
-546,-405,-0.733032,1.59473,-0.00621641,0.00961795,0.00867895,0.0134484,-0.0100468,1.15516,0.0136123,0.0147782,678,1429,-0.733037,-1.59477
-539,-405,-0.746216,1.70703,-0.00506448,0.00814676,0.00632568,0.0106871,-0.00760481,1.18892,0.0106107,0.0106261,685,1429,-0.746218,-1.70701
-532,-405,-0.747864,1.79883,-0.00383161,0.00637995,0.00436722,0.00799292,-0.00544458,1.217,0.00780451,0.0140857,692,1429,-0.747873,-1.79881
-525,-405,-0.751221,1.92053,-0.00301583,0.00514115,0.00243761,0.00581409,-0.00368877,1.30144,0.00553202,0.0142699,699,1429,-0.751223,-1.92057
-518,-405,-0.722229,2.01416,-0.0019705,0.00317103,0.000929993,0.00333408,-0.00213354,1.39724,0.003182,0.0152538,706,1429,-0.722257,-2.01416
-511,-405,-0.718567,2.08948,-0.000954516,0.00129331,4.02848e-05,0.00129404,-0.000955238,1.55288,0.00130352,0.0152894,713,1429,-0.71858,-2.08948
-504,-405,-0.742432,2.16199,-0.00043333,-0.000309745,-0.000791463,0.000422334,-0.00116541,-0.824356,0.000949558,0.0161605,720,1429,-0.742417,-2.16193
-497,-405,-0.723572,2.29102,-0.000828008,-0.00144054,-0.00166729,0.000560917,-0.00282946,-0.694566,0.00209842,0.0135265,727,1429,-0.723564,-2.29101
-490,-405,-0.734314,2.39624,-0.00249689,-0.0023999,-0.00231168,-0.000136203,-0.00476058,-0.795885,0.00312931,0.0121585,734,1429,-0.73429,-2.39626
-483,-405,-0.722046,2.46582,-0.00528365,-0.00266188,-0.00282372,-0.000859596,-0.00708593,-1.00271,0.00446509,0.00991214,741,1429,-0.722068,-2.46576
-476,-405,-0.677185,2.57043,-0.00902792,-0.00267386,-0.00301319,-0.00147222,-0.0102296,-1.19133,0.00638579,0.0220956,748,1429,-0.677199,-2.57044
-469,-405,-0.687561,2.58215,-0.0138156,-0.00245106,-0.003151,-0.00163587,-0.0146308,-1.31764,0.0092569,0.0370057,755,1429,-0.687559,-2.58212
-462,-405,-0.569275,2.54272,-0.020372,-0.00197036,-0.00305753,-0.00147564,-0.0208668,-1.41038,0.0134463,0.0419044,762,1429,-0.569292,-2.54267
-455,-405,-0.423645,2.37537,-0.028215,-0.000717064,-0.00310414,-0.000371005,-0.0285611,-1.45977,0.0189183,0.0444971,769,1429,-0.423672,-2.37534
-448,-405,-1.51758,2.72974,0,0,0,0,0,0,0,-1,776,1429,-1.51756,-2.7297
-441,-405,-2.03473,2.86157,0,0,0,0,0,0,0,-1,783,1429,-2.03473,-2.86162
-434,-405,-1.64417,2.61853,0,0,0,0,0,0,0,-1,790,1429,-1.64414,-2.61858
-427,-405,-1.81665,1.72424,0,0,0,0,0,0,0,-1,797,1429,-1.81665,-1.72424
-420,-405,-1.68024,2.58899,0,0,0,0,0,0,0,-1,804,1429,-1.68022,-2.58895
-413,-405,-2.49744,3.39966,0,0,0,0,0,0,0,-1,811,1429,-2.49742,-3.39964
-406,-405,-2.85065,4.16479,0,0,0,0,0,0,0,-1,818,1429,-2.85066,-4.16483
-399,-405,0,0,0,0,0,0,0,0,0,-1,825,1429,0,0
-392,-405,0,0,0,0,0,0,0,0,0,-1,832,1429,0,0
-385,-405,0,0,0,0,0,0,0,0,0,-1,839,1429,0,0
-378,-405,0,0,0,0,0,0,0,0,0,-1,846,1429,0,0
-371,-405,0,0,0,0,0,0,0,0,0,-1,853,1429,0,0
-364,-405,0,0,0,0,0,0,0,0,0,-1,860,1429,0,0
-357,-405,0,0,0,0,0,0,0,0,0,-1,867,1429,0,0
-350,-405,0,0,0,0,0,0,0,0,0,-1,874,1429,0,0
-343,-405,0,0,0,0,0,0,0,0,0,-1,881,1429,0,0
-336,-405,0,0,0,0,0,0,0,0,0,-1,888,1429,0,0
-329,-405,0,0,0,0,0,0,0,0,0,-1,895,1429,0,0
-322,-405,0,0,0,0,0,0,0,0,0,-1,902,1429,0,0
-315,-405,0,0,0,0,0,0,0,0,0,-1,909,1429,0,0
-308,-405,0,0,0,0,0,0,0,0,0,-1,916,1429,0,0
-301,-405,0,0,0,0,0,0,0,0,0,-1,923,1429,0,0
-294,-405,0,0,0,0,0,0,0,0,0,-1,930,1429,0,0
-287,-405,0,0,0,0,0,0,0,0,0,-1,937,1429,0,0
-280,-405,0,0,0,0,0,0,0,0,0,-1,944,1429,0,0
-273,-405,0,0,0,0,0,0,0,0,0,-1,951,1429,0,0
-266,-405,0,0,0,0,0,0,0,0,0,-1,958,1429,0,0
-259,-405,0,0,0,0,0,0,0,0,0,-1,965,1429,0,0
-252,-405,0,0,0,0,0,0,0,0,0,-1,972,1429,0,0
-245,-405,0,0,0,0,0,0,0,0,0,-1,979,1429,0,0
-238,-405,0,0,0,0,0,0,0,0,0,-1,986,1429,0,0
-231,-405,0,0,0,0,0,0,0,0,0,-1,993,1429,0,0
-224,-405,0,0,0,0,0,0,0,0,0,-1,1000,1429,0,0
-217,-405,0,0,0,0,0,0,0,0,0,-1,1007,1429,0,0
-210,-405,0,0,0,0,0,0,0,0,0,-1,1014,1429,0,0
-203,-405,0,0,0,0,0,0,0,0,0,-1,1021,1429,0,0
-196,-405,0,0,0,0,0,0,0,0,0,-1,1028,1429,0,0
-189,-405,0,0,0,0,0,0,0,0,0,-1,1035,1429,0,0
-182,-405,0,0,0,0,0,0,0,0,0,-1,1042,1429,0,0
-175,-405,0,0,0,0,0,0,0,0,0,-1,1049,1429,0,0
-168,-405,0,0,0,0,0,0,0,0,0,-1,1056,1429,0,0
-161,-405,0,0,0,0,0,0,0,0,0,-1,1063,1429,0,0
-154,-405,0,0,0,0,0,0,0,0,0,-1,1070,1429,0,0
-147,-405,0,0,0,0,0,0,0,0,0,-1,1077,1429,0,0
-140,-405,0,0,0,0,0,0,0,0,0,-1,1084,1429,0,0
-133,-405,0,0,0,0,0,0,0,0,0,-1,1091,1429,0,0
-126,-405,0,0,0,0,0,0,0,0,0,-1,1098,1429,0,0
-119,-405,0,0,0,0,0,0,0,0,0,-1,1105,1429,0,0
-112,-405,0,0,0,0,0,0,0,0,0,-1,1112,1429,0,0
-105,-405,0,0,0,0,0,0,0,0,0,-1,1119,1429,0,0
-98,-405,0,0,0,0,0,0,0,0,0,-1,1126,1429,0,0
-91,-405,0,0,0,0,0,0,0,0,0,-1,1133,1429,0,0
-84,-405,0,0,0,0,0,0,0,0,0,-1,1140,1429,0,0
-77,-405,0,0,0,0,0,0,0,0,0,-1,1147,1429,0,0
-70,-405,0,0,0,0,0,0,0,0,0,-1,1154,1429,0,0
-63,-405,0,0,0,0,0,0,0,0,0,-1,1161,1429,0,0
-56,-405,0,0,0,0,0,0,0,0,0,-1,1168,1429,0,0
-49,-405,0,0,0,0,0,0,0,0,0,-1,1175,1429,0,0
-42,-405,0,0,0,0,0,0,0,0,0,-1,1182,1429,0,0
-35,-405,0,0,0,0,0,0,0,0,0,-1,1189,1429,0,0
-28,-405,0,0,0,0,0,0,0,0,0,-1,1196,1429,0,0
-21,-405,0,0,0,0,0,0,0,0,0,-1,1203,1429,0,0
-14,-405,0,0,0,0,0,0,0,0,0,-1,1210,1429,0,0
-7,-405,0,0,0,0,0,0,0,0,0,-1,1217,1429,0,0
0,-405,0,0,0,0,0,0,0,0,0,-1,1224,1429,0,0
7,-405,0,0,0,0,0,0,0,0,0,-1,1231,1429,0,0
14,-405,0,0,0,0,0,0,0,0,0,-1,1238,1429,0,0
21,-405,0,0,0,0,0,0,0,0,0,-1,1245,1429,0,0
28,-405,0,0,0,0,0,0,0,0,0,-1,1252,1429,0,0
35,-405,0,0,0,0,0,0,0,0,0,-1,1259,1429,0,0
42,-405,0,0,0,0,0,0,0,0,0,-1,1266,1429,0,0
49,-405,0,0,0,0,0,0,0,0,0,-1,1273,1429,0,0
56,-405,0,0,0,0,0,0,0,0,0,-1,1280,1429,0,0
63,-405,0,0,0,0,0,0,0,0,0,-1,1287,1429,0,0
70,-405,0,0,0,0,0,0,0,0,0,-1,1294,1429,0,0
77,-405,0,0,0,0,0,0,0,0,0,-1,1301,1429,0,0
84,-405,0,0,0,0,0,0,0,0,0,-1,1308,1429,0,0
91,-405,0,0,0,0,0,0,0,0,0,-1,1315,1429,0,0
98,-405,0,0,0,0,0,0,0,0,0,-1,1322,1429,0,0
105,-405,0,0,0,0,0,0,0,0,0,-1,1329,1429,0,0
112,-405,0,0,0,0,0,0,0,0,0,-1,1336,1429,0,0
119,-405,0,0,0,0,0,0,0,0,0,-1,1343,1429,0,0
126,-405,0,0,0,0,0,0,0,0,0,-1,1350,1429,0,0
133,-405,0,0,0,0,0,0,0,0,0,-1,1357,1429,0,0
140,-405,0,0,0,0,0,0,0,0,0,-1,1364,1429,0,0
147,-405,0,0,0,0,0,0,0,0,0,-1,1371,1429,0,0
154,-405,0,0,0,0,0,0,0,0,0,-1,1378,1429,0,0
161,-405,0,0,0,0,0,0,0,0,0,-1,1385,1429,0,0
168,-405,0,0,0,0,0,0,0,0,0,-1,1392,1429,0,0
175,-405,0,0,0,0,0,0,0,0,0,-1,1399,1429,0,0
182,-405,0,0,0,0,0,0,0,0,0,-1,1406,1429,0,0
189,-405,0,0,0,0,0,0,0,0,0,-1,1413,1429,0,0
196,-405,0,0,0,0,0,0,0,0,0,-1,1420,1429,0,0
203,-405,0,0,0,0,0,0,0,0,0,-1,1427,1429,0,0
210,-405,0,0,0,0,0,0,0,0,0,-1,1434,1429,0,0
217,-405,0,0,0,0,0,0,0,0,0,-1,1441,1429,0,0
224,-405,0,0,0,0,0,0,0,0,0,-1,1448,1429,0,0
231,-405,0,0,0,0,0,0,0,0,0,-1,1455,1429,0,0
238,-405,0,0,0,0,0,0,0,0,0,-1,1462,1429,0,0
245,-405,0,0,0,0,0,0,0,0,0,-1,1469,1429,0,0
252,-405,0,0,0,0,0,0,0,0,0,-1,1476,1429,0,0
259,-405,0,0,0,0,0,0,0,0,0,-1,1483,1429,0,0
266,-405,0,0,0,0,0,0,0,0,0,-1,1490,1429,0,0
273,-405,0,0,0,0,0,0,0,0,0,-1,1497,1429,0,0
280,-405,0,0,0,0,0,0,0,0,0,-1,1504,1429,0,0
287,-405,0,0,0,0,0,0,0,0,0,-1,1511,1429,0,0
294,-405,0,0,0,0,0,0,0,0,0,-1,1518,1429,0,0
301,-405,0,0,0,0,0,0,0,0,0,-1,1525,1429,0,0
308,-405,0,0,0,0,0,0,0,0,0,-1,1532,1429,0,0
315,-405,0,0,0,0,0,0,0,0,0,-1,1539,1429,0,0
322,-405,0,0,0,0,0,0,0,0,0,-1,1546,1429,0,0
329,-405,0,0,0,0,0,0,0,0,0,-1,1553,1429,0,0
336,-405,0,0,0,0,0,0,0,0,0,-1,1560,1429,0,0
343,-405,0,0,0,0,0,0,0,0,0,-1,1567,1429,0,0
350,-405,0,0,0,0,0,0,0,0,0,-1,1574,1429,0,0
357,-405,0,0,0,0,0,0,0,0,0,-1,1581,1429,0,0
364,-405,0,0,0,0,0,0,0,0,0,-1,1588,1429,0,0
371,-405,0,0,0,0,0,0,0,0,0,-1,1595,1429,0,0
378,-405,0,0,0,0,0,0,0,0,0,-1,1602,1429,0,0
385,-405,0,0,0,0,0,0,0,0,0,-1,1609,1429,0,0
392,-405,0,0,0,0,0,0,0,0,0,-1,1616,1429,0,0
399,-405,0,0,0,0,0,0,0,0,0,-1,1623,1429,0,0
406,-405,0,0,0,0,0,0,0,0,0,-1,1630,1429,0,0
413,-405,0,0,0,0,0,0,0,0,0,-1,1637,1429,0,0
420,-405,0,0,0,0,0,0,0,0,0,-1,1644,1429,0,0
427,-405,0,0,0,0,0,0,0,0,0,-1,1651,1429,0,0
434,-405,0,0,0,0,0,0,0,0,0,-1,1658,1429,0,0
441,-405,0,0,0,0,0,0,0,0,0,-1,1665,1429,0,0
448,-405,0,0,0,0,0,0,0,0,0,-1,1672,1429,0,0
455,-405,0,0,0,0,0,0,0,0,0,-1,1679,1429,0,0
462,-405,0,0,0,0,0,0,0,0,0,-1,1686,1429,0,0
469,-405,0,0,0,0,0,0,0,0,0,-1,1693,1429,0,0
476,-405,0,0,0,0,0,0,0,0,0,-1,1700,1429,0,0
483,-405,0,0,0,0,0,0,0,0,0,-1,1707,1429,0,0
490,-405,0,0,0,0,0,0,0,0,0,-1,1714,1429,0,0
497,-405,0,0,0,0,0,0,0,0,0,-1,1721,1429,0,0
504,-405,0,0,0,0,0,0,0,0,0,-1,1728,1429,0,0
511,-405,0,0,0,0,0,0,0,0,0,-1,1735,1429,0,0
518,-405,0,0,0,0,0,0,0,0,0,-1,1742,1429,0,0
525,-405,3.81958,5.62244,0,0,0,0,0,0,0,-1,1749,1429,3.81964,-5.62239
532,-405,5.24719,4.68079,0,0,0,0,0,0,0,-1,1756,1429,5.24718,-4.68075
539,-405,10.2955,3.42065,0,0,0,0,0,0,0,-1,1763,1429,10.2956,-3.42061
546,-405,6.46667,2.40198,0,0,0,0,0,0,0,-1,1770,1429,6.46665,-2.40195
553,-405,8.30176,3.6261,0,0,0,0,0,0,0,-1,1777,1429,8.30178,-3.62615
560,-405,9.13794,3.88013,0,0,0,0,0,0,0,-1,1784,1429,9.138,-3.88013
567,-405,8.31006,2.3938,0,0,0,0,0,0,0,-1,1791,1429,8.31001,-2.3938
574,-405,9.92944,3.73425,0,0,0,0,0,0,0,-1,1798,1429,9.92941,-3.7342
581,-405,9.41797,4.03699,0,0,0,0,0,0,0,-1,1805,1429,9.41792,-4.03704
588,-405,6.35388,2.76453,0,0,0,0,0,0,0,-1,1812,1429,6.35382,-2.7645
595,-405,6.82117,3.11401,0,0,0,0,0,0,0,-1,1819,1429,6.82119,-3.11397
602,-405,6.67578,3.10559,-0.0201621,-0.00392116,0.00903052,0.000103005,-0.0241863,1.15159,0.0161587,0.0370682,1826,1429,6.67579,-3.10554
609,-405,6.5343,3.11377,-0.0177413,-0.00420573,0.00727949,-0.00103401,-0.020913,1.15989,0.0136105,0.0166221,1833,1429,6.53426,-3.11377
616,-405,6.53113,3.06726,-0.0146175,-0.00409025,0.00584315,-0.00148951,-0.0172182,1.15203,0.0110159,0.00969686,1840,1429,6.53119,-3.06726
623,-405,6.53076,2.98218,-0.0108741,-0.00327651,0.00465955,-0.00106346,-0.0130872,1.12739,0.00839277,0.00908468,1847,1429,6.53079,-2.98217
630,-405,6.54224,2.88257,-0.00735593,-0.00227879,0.00342362,-0.000555259,-0.00907946,1.10441,0.00587664,0.00951053,1854,1429,6.54223,-2.88252
637,-405,6.54053,2.77747,-0.00393938,-0.000877638,0.00226192,0.00032276,-0.00513977,1.08289,0.00353901,0.0104399,1861,1429,6.54049,-2.77749
644,-405,6.51709,2.67615,-0.0011377,0.000276169,0.000956961,0.000758995,-0.00162053,1.10352,0.00140351,0.0281647,1868,1429,6.51705,-2.67614
651,-405,6.47144,2.64636,0.00107785,0.00167223,-0.000561209,0.00201008,0.000739998,-1.0289,0.00117389,0.0317106,1875,1429,6.47143,-2.64633
658,-405,6.49231,2.5874,0.00400867,0.00277115,-0.00209243,0.00557191,0.00120791,-0.641639,0.00338459,0.0213946,1882,1429,6.49232,-2.58736
665,-405,6.5459,2.4939,0.00816504,0.00402093,-0.0045606,0.0111022,0.00108375,-0.57217,0.00706798,0.0178393,1889,1429,6.54596,-2.49391
672,-405,6.56689,2.38074,0.0133206,0.00587866,-0.00775614,0.0182021,0.000997098,-0.561743,0.0118164,0.0228623,1896,1429,6.56691,-2.38079
679,-405,6.56677,2.26257,0.0209753,0.00610748,-0.0107535,0.0266143,0.000468452,-0.482968,0.0175888,0.0202729,1903,1429,6.5668,-2.26261
686,-405,6.54651,2.18274,0.0313957,0.00812302,-0.0133652,0.0374804,0.00203836,-0.42722,0.0243359,0.030642,1910,1429,6.54648,-2.18279
693,-405,6.42358,2.12646,0.0439576,0.00969193,-0.0175187,0.0513286,0.00232088,-0.398267,0.0334723,0.0473641,1917,1429,6.42362,-2.12643
700,-405,6.33618,1.95825,0,0,0,0,0,0,0,-1,1924,1429,6.33624,-1.95819
707,-405,7.53967,3.08093,0,0,0,0,0,0,0,-1,1931,1429,7.53963,-3.08092
714,-405,9.4032,2.51978,0.10309,0.0185356,-0.0320848,0.113886,0.00773929,-0.324591,0.0734804,0.0447183,1938,1429,9.40318,-2.51979
721,-405,10.1488,1.98389,0.129801,0.0241905,-0.0360888,0.140955,0.0130365,-0.299759,0.0899402,0.0424878,1945,1429,10.1488,-1.98394
728,-405,0,0,0,0,0,0,0,0,0,-1,1952,1429,0,0
735,-405,0,0,0,0,0,0,0,0,0,-1,1959,1429,0,0
742,-405,0,0,0,0,0,0,0,0,0,-1,1966,1429,0,0
749,-405,0,0,0,0,0,0,0,0,0,-1,1973,1429,0,0
756,-405,0,0,0,0,0,0,0,0,0,-1,1980,1429,0,0
763,-405,0,0,0,0,0,0,0,0,0,-1,1987,1429,0,0
770,-405,0,0,0,0,0,0,0,0,0,-1,1994,1429,0,0
777,-405,0,0,0,0,0,0,0,0,0,-1,2001,1429,0,0
784,-405,0,0,0,0,0,0,0,0,0,-1,2008,1429,0,0
791,-405,0,0,0,0,0,0,0,0,0,-1,2015,1429,0,0
798,-405,0,0,0,0,0,0,0,0,0,-1,2022,1429,0,0
805,-405,0,0,0,0,0,0,0,0,0,-1,2029,1429,0,0
812,-405,0,0,0,0,0,0,0,0,0,-1,2036,1429,0,0
-700,-412,0,0,0,0,0,0,0,0,0,-1,524,1436,0,0
-693,-412,0,0,0,0,0,0,0,0,0,-1,531,1436,0,0
-686,-412,0,0,0,0,0,0,0,0,0,-1,538,1436,0,0
-679,-412,0,0,0,0,0,0,0,0,0,-1,545,1436,0,0
-672,-412,0,0,0,0,0,0,0,0,0,-1,552,1436,0,0
-665,-412,0,0,0,0,0,0,0,0,0,-1,559,1436,0,0
-658,-412,0,0,0,0,0,0,0,0,0,-1,566,1436,0,0
-651,-412,0,0,0,0,0,0,0,0,0,-1,573,1436,0,0
-644,-412,0,0,0,0,0,0,0,0,0,-1,580,1436,0,0
-637,-412,0,0,0,0,0,0,0,0,0,-1,587,1436,0,0
-630,-412,0,0,0,0,0,0,0,0,0,-1,594,1436,0,0
-623,-412,0,0,0,0,0,0,0,0,0,-1,601,1436,0,0
-616,-412,0,0,0,0,0,0,0,0,0,-1,608,1436,0,0
-609,-412,0,0,0,0,0,0,0,0,0,-1,615,1436,0,0
-602,-412,1.73499,-2.64136,0,0,0,0,0,0,0,-1,622,1436,1.735,2.6414
-595,-412,2.00861,-2.80579,0,0,0,0,0,0,0,-1,629,1436,2.00861,2.80584
-588,-412,-0.263062,-1.93091,0,0,0,0,0,0,0,-1,636,1436,-0.26309,1.93089
-581,-412,0.0334473,-1.27356,0,0,0,0,0,0,0,-1,643,1436,0.033452,1.27359
-574,-412,0.310669,-0.770142,0,0,0,0,0,0,0,-1,650,1436,0.310651,0.770099
-567,-412,0.502991,0.285156,0,0,0,0,0,0,0,-1,657,1436,0.502975,-0.285147
-560,-412,0.119019,0.859131,-0.00545991,0.0110831,0.0203927,0.0248179,-0.0191947,0.978066,0.0254797,0.0480284,664,1436,0.119009,-0.859087
-553,-412,-0.293823,1.30554,-0.00570493,0.011698,0.0157806,0.0210171,-0.0150241,1.03736,0.0209041,0.040434,671,1436,-0.293851,-1.30555
-546,-412,-0.586792,1.63257,-0.00523716,0.0111502,0.012027,0.0175093,-0.0115963,1.08442,0.0169193,0.0242369,678,1436,-0.586769,-1.63254
-539,-412,-0.656311,1.68188,-0.00437243,0.0098578,0.00897599,0.0141966,-0.00871128,1.12053,0.0133517,0.0115937,685,1436,-0.656341,-1.68187
-532,-412,-0.646423,1.79883,-0.00338579,0.00806215,0.00646169,0.0109705,-0.00629416,1.14786,0.0100889,0.0124886,692,1436,-0.646435,-1.79881
-525,-412,-0.656494,1.92566,-0.00278411,0.00694767,0.00408299,0.00843377,-0.0042702,1.22173,0.00746479,0.0149992,699,1436,-0.656501,-1.92565
-518,-412,-0.622925,2.02441,-0.00194388,0.00458839,0.00220098,0.00526078,-0.00261627,1.27431,0.00463246,0.0160968,706,1436,-0.622953,-2.02444
-511,-412,-0.622864,2.09412,-0.00108001,0.00239535,0.0011488,0.00274076,-0.00142542,1.27872,0.00244498,0.0184887,713,1436,-0.622838,-2.09416
-504,-412,-0.647522,2.17944,-0.000669429,0.000562843,0.000200513,0.000594649,-0.000701235,1.41348,0.000749023,0.0175102,720,1436,-0.647524,-2.17942
-497,-412,-0.638733,2.30994,-0.00110284,-0.000730755,-0.000670362,-0.000221098,-0.0016125,-0.920754,0.0010094,0.013371,727,1436,-0.638721,-2.30999
-490,-412,-0.637878,2.41797,-0.00275048,-0.0018716,-0.00126517,-0.000971725,-0.00365035,-0.952547,0.00218298,0.0123351,734,1436,-0.637858,-2.41797
-483,-412,-0.628784,2.47437,-0.00548281,-0.00216748,-0.00175221,-0.00141307,-0.00623722,-1.16424,0.0037763,0.00859848,741,1436,-0.628767,-2.4744
-476,-412,-0.586426,2.60352,-0.00903083,-0.00219717,-0.00193908,-0.00168529,-0.00954271,-1.3127,0.00588109,0.0131709,748,1436,-0.58642,-2.60349
-469,-412,-0.595276,2.68152,-0.0134536,-0.00187634,-0.00208484,-0.00151234,-0.0138176,-1.39795,0.00875126,0.0208901,755,1436,-0.595259,-2.68158
-462,-412,-0.58728,2.66479,-0.0194863,-0.00123754,-0.00204543,-0.00101109,-0.0197128,-1.46053,0.0128181,0.0331302,762,1436,-0.5873,-2.66479
-455,-412,-0.928467,2.77441,-0.0262372,0.000467958,-0.00244033,0.000689125,-0.0264584,-1.48041,0.017873,0.0413102,769,1436,-0.928483,-2.77435
-448,-412,-1.49579,3.12268,-0.0337447,0.00257606,-0.00271437,0.0027778,-0.0339464,-1.49661,0.0236114,0.0427516,776,1436,-1.49581,-3.12269
-441,-412,-1.90961,3.3623,-0.0428008,0.00566153,-0.00288758,0.00583298,-0.0429722,-1.51149,0.0307773,0.0467152,783,1436,-1.90963,-3.36229
-434,-412,-2.58331,4.02039,0,0,0,0,0,0,0,-1,790,1436,-2.5833,-4.02044
-427,-412,-2.96881,4.25842,0,0,0,0,0,0,0,-1,797,1436,-2.96878,-4.25847
-420,-412,-3.50952,4.55627,0,0,0,0,0,0,0,-1,804,1436,-3.50955,-4.55629
-413,-412,-3.67615,4.39954,0,0,0,0,0,0,0,-1,811,1436,-3.67612,-4.39953
-406,-412,-3.15399,2.11438,0,0,0,0,0,0,0,-1,818,1436,-3.15397,-2.11441
-399,-412,-3.28802,1.53503,0,0,0,0,0,0,0,-1,825,1436,-3.28802,-1.53506
-392,-412,0,0,0,0,0,0,0,0,0,-1,832,1436,0,0
-385,-412,0,0,0,0,0,0,0,0,0,-1,839,1436,0,0
-378,-412,0,0,0,0,0,0,0,0,0,-1,846,1436,0,0
-371,-412,0,0,0,0,0,0,0,0,0,-1,853,1436,0,0
-364,-412,0,0,0,0,0,0,0,0,0,-1,860,1436,0,0
-357,-412,0,0,0,0,0,0,0,0,0,-1,867,1436,0,0
-350,-412,0,0,0,0,0,0,0,0,0,-1,874,1436,0,0
-343,-412,0,0,0,0,0,0,0,0,0,-1,881,1436,0,0
-336,-412,0,0,0,0,0,0,0,0,0,-1,888,1436,0,0
-329,-412,0,0,0,0,0,0,0,0,0,-1,895,1436,0,0
-322,-412,0,0,0,0,0,0,0,0,0,-1,902,1436,0,0
-315,-412,0,0,0,0,0,0,0,0,0,-1,909,1436,0,0
-308,-412,0,0,0,0,0,0,0,0,0,-1,916,1436,0,0
-301,-412,0,0,0,0,0,0,0,0,0,-1,923,1436,0,0
-294,-412,0,0,0,0,0,0,0,0,0,-1,930,1436,0,0
-287,-412,0,0,0,0,0,0,0,0,0,-1,937,1436,0,0
-280,-412,0,0,0,0,0,0,0,0,0,-1,944,1436,0,0
-273,-412,0,0,0,0,0,0,0,0,0,-1,951,1436,0,0
-266,-412,0,0,0,0,0,0,0,0,0,-1,958,1436,0,0
-259,-412,0,0,0,0,0,0,0,0,0,-1,965,1436,0,0
-252,-412,0,0,0,0,0,0,0,0,0,-1,972,1436,0,0
-245,-412,0,0,0,0,0,0,0,0,0,-1,979,1436,0,0
-238,-412,0,0,0,0,0,0,0,0,0,-1,986,1436,0,0
-231,-412,0,0,0,0,0,0,0,0,0,-1,993,1436,0,0
-224,-412,0,0,0,0,0,0,0,0,0,-1,1000,1436,0,0
-217,-412,0,0,0,0,0,0,0,0,0,-1,1007,1436,0,0
-210,-412,0,0,0,0,0,0,0,0,0,-1,1014,1436,0,0
-203,-412,0,0,0,0,0,0,0,0,0,-1,1021,1436,0,0
-196,-412,0,0,0,0,0,0,0,0,0,-1,1028,1436,0,0
-189,-412,0,0,0,0,0,0,0,0,0,-1,1035,1436,0,0
-182,-412,0,0,0,0,0,0,0,0,0,-1,1042,1436,0,0
-175,-412,0,0,0,0,0,0,0,0,0,-1,1049,1436,0,0
-168,-412,0,0,0,0,0,0,0,0,0,-1,1056,1436,0,0
-161,-412,0,0,0,0,0,0,0,0,0,-1,1063,1436,0,0
-154,-412,0,0,0,0,0,0,0,0,0,-1,1070,1436,0,0
-147,-412,0,0,0,0,0,0,0,0,0,-1,1077,1436,0,0
-140,-412,0,0,0,0,0,0,0,0,0,-1,1084,1436,0,0
-133,-412,0,0,0,0,0,0,0,0,0,-1,1091,1436,0,0
-126,-412,0,0,0,0,0,0,0,0,0,-1,1098,1436,0,0
-119,-412,0,0,0,0,0,0,0,0,0,-1,1105,1436,0,0
-112,-412,0,0,0,0,0,0,0,0,0,-1,1112,1436,0,0
-105,-412,0,0,0,0,0,0,0,0,0,-1,1119,1436,0,0
-98,-412,0,0,0,0,0,0,0,0,0,-1,1126,1436,0,0
-91,-412,0,0,0,0,0,0,0,0,0,-1,1133,1436,0,0
-84,-412,0,0,0,0,0,0,0,0,0,-1,1140,1436,0,0
-77,-412,0,0,0,0,0,0,0,0,0,-1,1147,1436,0,0
-70,-412,0,0,0,0,0,0,0,0,0,-1,1154,1436,0,0
-63,-412,0,0,0,0,0,0,0,0,0,-1,1161,1436,0,0
-56,-412,0,0,0,0,0,0,0,0,0,-1,1168,1436,0,0
-49,-412,0,0,0,0,0,0,0,0,0,-1,1175,1436,0,0
-42,-412,0,0,0,0,0,0,0,0,0,-1,1182,1436,0,0
-35,-412,0,0,0,0,0,0,0,0,0,-1,1189,1436,0,0
-28,-412,0,0,0,0,0,0,0,0,0,-1,1196,1436,0,0
-21,-412,0,0,0,0,0,0,0,0,0,-1,1203,1436,0,0
-14,-412,0,0,0,0,0,0,0,0,0,-1,1210,1436,0,0
-7,-412,0,0,0,0,0,0,0,0,0,-1,1217,1436,0,0
0,-412,0,0,0,0,0,0,0,0,0,-1,1224,1436,0,0
7,-412,0,0,0,0,0,0,0,0,0,-1,1231,1436,0,0
14,-412,0,0,0,0,0,0,0,0,0,-1,1238,1436,0,0
21,-412,0,0,0,0,0,0,0,0,0,-1,1245,1436,0,0
28,-412,0,0,0,0,0,0,0,0,0,-1,1252,1436,0,0
35,-412,0,0,0,0,0,0,0,0,0,-1,1259,1436,0,0
42,-412,0,0,0,0,0,0,0,0,0,-1,1266,1436,0,0
49,-412,0,0,0,0,0,0,0,0,0,-1,1273,1436,0,0
56,-412,0,0,0,0,0,0,0,0,0,-1,1280,1436,0,0
63,-412,0,0,0,0,0,0,0,0,0,-1,1287,1436,0,0
70,-412,0,0,0,0,0,0,0,0,0,-1,1294,1436,0,0
77,-412,0,0,0,0,0,0,0,0,0,-1,1301,1436,0,0
84,-412,0,0,0,0,0,0,0,0,0,-1,1308,1436,0,0
91,-412,0,0,0,0,0,0,0,0,0,-1,1315,1436,0,0
98,-412,0,0,0,0,0,0,0,0,0,-1,1322,1436,0,0
105,-412,0,0,0,0,0,0,0,0,0,-1,1329,1436,0,0
112,-412,0,0,0,0,0,0,0,0,0,-1,1336,1436,0,0
119,-412,0,0,0,0,0,0,0,0,0,-1,1343,1436,0,0
126,-412,0,0,0,0,0,0,0,0,0,-1,1350,1436,0,0
133,-412,0,0,0,0,0,0,0,0,0,-1,1357,1436,0,0
140,-412,0,0,0,0,0,0,0,0,0,-1,1364,1436,0,0
147,-412,0,0,0,0,0,0,0,0,0,-1,1371,1436,0,0
154,-412,0,0,0,0,0,0,0,0,0,-1,1378,1436,0,0
161,-412,0,0,0,0,0,0,0,0,0,-1,1385,1436,0,0
168,-412,0,0,0,0,0,0,0,0,0,-1,1392,1436,0,0
175,-412,0,0,0,0,0,0,0,0,0,-1,1399,1436,0,0
182,-412,0,0,0,0,0,0,0,0,0,-1,1406,1436,0,0
189,-412,0,0,0,0,0,0,0,0,0,-1,1413,1436,0,0
196,-412,0,0,0,0,0,0,0,0,0,-1,1420,1436,0,0
203,-412,0,0,0,0,0,0,0,0,0,-1,1427,1436,0,0
210,-412,0,0,0,0,0,0,0,0,0,-1,1434,1436,0,0
217,-412,0,0,0,0,0,0,0,0,0,-1,1441,1436,0,0
224,-412,0,0,0,0,0,0,0,0,0,-1,1448,1436,0,0
231,-412,0,0,0,0,0,0,0,0,0,-1,1455,1436,0,0
238,-412,0,0,0,0,0,0,0,0,0,-1,1462,1436,0,0
245,-412,0,0,0,0,0,0,0,0,0,-1,1469,1436,0,0
252,-412,0,0,0,0,0,0,0,0,0,-1,1476,1436,0,0
259,-412,0,0,0,0,0,0,0,0,0,-1,1483,1436,0,0
266,-412,0,0,0,0,0,0,0,0,0,-1,1490,1436,0,0
273,-412,0,0,0,0,0,0,0,0,0,-1,1497,1436,0,0
280,-412,0,0,0,0,0,0,0,0,0,-1,1504,1436,0,0
287,-412,0,0,0,0,0,0,0,0,0,-1,1511,1436,0,0
294,-412,0,0,0,0,0,0,0,0,0,-1,1518,1436,0,0
301,-412,0,0,0,0,0,0,0,0,0,-1,1525,1436,0,0
308,-412,0,0,0,0,0,0,0,0,0,-1,1532,1436,0,0
315,-412,0,0,0,0,0,0,0,0,0,-1,1539,1436,0,0
322,-412,0,0,0,0,0,0,0,0,0,-1,1546,1436,0,0
329,-412,0,0,0,0,0,0,0,0,0,-1,1553,1436,0,0
336,-412,0,0,0,0,0,0,0,0,0,-1,1560,1436,0,0
343,-412,0,0,0,0,0,0,0,0,0,-1,1567,1436,0,0
350,-412,0,0,0,0,0,0,0,0,0,-1,1574,1436,0,0
357,-412,0,0,0,0,0,0,0,0,0,-1,1581,1436,0,0
364,-412,0,0,0,0,0,0,0,0,0,-1,1588,1436,0,0
371,-412,0,0,0,0,0,0,0,0,0,-1,1595,1436,0,0
378,-412,0,0,0,0,0,0,0,0,0,-1,1602,1436,0,0
385,-412,0,0,0,0,0,0,0,0,0,-1,1609,1436,0,0
392,-412,0,0,0,0,0,0,0,0,0,-1,1616,1436,0,0
399,-412,0,0,0,0,0,0,0,0,0,-1,1623,1436,0,0
406,-412,0,0,0,0,0,0,0,0,0,-1,1630,1436,0,0
413,-412,0,0,0,0,0,0,0,0,0,-1,1637,1436,0,0
420,-412,0,0,0,0,0,0,0,0,0,-1,1644,1436,0,0
427,-412,0,0,0,0,0,0,0,0,0,-1,1651,1436,0,0
434,-412,0,0,0,0,0,0,0,0,0,-1,1658,1436,0,0
441,-412,0,0,0,0,0,0,0,0,0,-1,1665,1436,0,0
448,-412,0,0,0,0,0,0,0,0,0,-1,1672,1436,0,0
455,-412,0,0,0,0,0,0,0,0,0,-1,1679,1436,0,0
462,-412,0,0,0,0,0,0,0,0,0,-1,1686,1436,0,0
469,-412,0,0,0,0,0,0,0,0,0,-1,1693,1436,0,0
476,-412,0,0,0,0,0,0,0,0,0,-1,1700,1436,0,0
483,-412,0,0,0,0,0,0,0,0,0,-1,1707,1436,0,0
490,-412,0,0,0,0,0,0,0,0,0,-1,1714,1436,0,0
497,-412,0,0,0,0,0,0,0,0,0,-1,1721,1436,0,0
504,-412,0,0,0,0,0,0,0,0,0,-1,1728,1436,0,0
511,-412,0,0,0,0,0,0,0,0,0,-1,1735,1436,0,0
518,-412,6.61182,4.17822,0,0,0,0,0,0,0,-1,1742,1436,6.61182,-4.17821
525,-412,5.8396,4.23474,0,0,0,0,0,0,0,-1,1749,1436,5.83964,-4.23479
532,-412,9.38,3.11389,0,0,0,0,0,0,0,-1,1756,1436,9.37999,-3.11392
539,-412,9.12024,3.24963,0,0,0,0,0,0,0,-1,1763,1436,9.1203,-3.24962
546,-412,7.84827,3.47644,0,0,0,0,0,0,0,-1,1770,1436,7.84821,-3.47647
553,-412,8.02161,3.68567,0,0,0,0,0,0,0,-1,1777,1436,8.02155,-3.68571
560,-412,8.19482,3.8949,0,0,0,0,0,0,0,-1,1784,1436,8.19489,-3.89495
567,-412,6.73132,3.62744,0,0,0,0,0,0,0,-1,1791,1436,6.73137,-3.62745
574,-412,6.75317,3.67139,0,0,0,0,0,0,0,-1,1798,1436,6.75314,-3.67144
581,-412,6.29004,3.5929,0,0,0,0,0,0,0,-1,1805,1436,6.29006,-3.59284
588,-412,6.75,3.17456,0,0,0,0,0,0,0,-1,1812,1436,6.74997,-3.17452
595,-412,6.59436,3.21191,-0.0177723,-0.00478185,0.00980018,0.000480109,-0.0230343,1.07805,0.0155187,0.0444835,1819,1436,6.59433,-3.21192
602,-412,6.48682,3.26013,-0.0166762,-0.00469054,0.00763218,-0.000979539,-0.0203872,1.11822,0.013277,0.0233267,1826,1436,6.48688,-3.26014
609,-412,6.45081,3.16577,-0.0146956,-0.00455244,0.00594476,-0.00180985,-0.0174382,1.13855,0.0110716,0.00866679,1833,1436,6.45075,-3.16572
616,-412,6.44507,3.07593,-0.0120035,-0.00412705,0.00456479,-0.00203644,-0.0140942,1.14132,0.00879622,0.00771492,1840,1436,6.44507,-3.07595
623,-412,6.44861,2.99255,-0.00854918,-0.0029972,0.00348257,-0.0013196,-0.0102268,1.12189,0.00642333,0.00888837,1847,1436,6.44864,-2.99251
630,-412,6.45435,2.88977,-0.00525169,-0.00169978,0.00230676,-0.000564526,-0.00638695,1.11345,0.00408282,0.0109418,1854,1436,6.4543,-2.88981
637,-412,6.45508,2.77942,-0.00192188,1.95239e-05,0.00112482,0.000534584,-0.00243694,1.14139,0.00182905,0.0131373,1861,1436,6.45509,-2.77939
644,-412,6.46375,2.69641,0.000827783,0.00146305,-0.000183945,0.00151247,0.000778365,-1.30834,0.000873348,0.0144291,1868,1436,6.46369,-2.69646
651,-412,6.43738,2.58313,0.00311229,0.00310758,-0.00180313,0.00491307,0.00130681,-0.784744,0.00293829,0.0243101,1875,1436,6.43743,-2.5831
658,-412,6.43005,2.54248,0.00629632,0.00455467,-0.00352129,0.00905287,0.00179812,-0.664179,0.00553412,0.0152988,1882,1436,6.43007,-2.5425
665,-412,6.41882,2.45935,0.0108548,0.00620523,-0.006287,0.0152331,0.00182697,-0.608306,0.0096045,0.0203646,1889,1436,6.41881,-2.45938
672,-412,6.47876,2.39099,0.0166621,0.00857357,-0.00994058,0.0233496,0.00188605,-0.592203,0.0149774,0.0262712,1896,1436,6.4788,-2.39101
679,-412,6.49756,2.24951,0.0250573,0.00952992,-0.013591,0.0329458,0.00164141,-0.525898,0.0214377,0.032086,1903,1436,6.49753,-2.24947
686,-412,6.08215,1.9397,0.0364447,0.0122298,-0.0171793,0.0453543,0.00332016,-0.478438,0.0291925,0.0484829,1910,1436,6.08213,-1.93975
693,-412,6.66895,2.59595,0.0502175,0.0146575,-0.0225331,0.0611406,0.0037344,-0.451381,0.0395744,0.048961,1917,1436,6.66898,-2.5959
700,-412,6.41602,2.25085,0.0675256,0.0177335,-0.0287474,0.0806588,0.00460025,-0.428536,0.0523066,0.0463634,1924,1436,6.41601,-2.25081
707,-412,6.26697,1.93176,0,0,0,0,0,0,0,-1,1931,1436,6.267,-1.93177
714,-412,6.11731,1.40454,0,0,0,0,0,0,0,-1,1938,1436,6.11733,-1.4046
721,-412,0,0,0,0,0,0,0,0,0,-1,1945,1436,0,0
728,-412,0,0,0,0,0,0,0,0,0,-1,1952,1436,0,0
735,-412,0,0,0,0,0,0,0,0,0,-1,1959,1436,0,0
742,-412,0,0,0,0,0,0,0,0,0,-1,1966,1436,0,0
749,-412,0,0,0,0,0,0,0,0,0,-1,1973,1436,0,0
756,-412,0,0,0,0,0,0,0,0,0,-1,1980,1436,0,0
763,-412,0,0,0,0,0,0,0,0,0,-1,1987,1436,0,0
770,-412,0,0,0,0,0,0,0,0,0,-1,1994,1436,0,0
777,-412,0,0,0,0,0,0,0,0,0,-1,2001,1436,0,0
784,-412,0,0,0,0,0,0,0,0,0,-1,2008,1436,0,0
791,-412,0,0,0,0,0,0,0,0,0,-1,2015,1436,0,0
798,-412,0,0,0,0,0,0,0,0,0,-1,2022,1436,0,0
805,-412,0,0,0,0,0,0,0,0,0,-1,2029,1436,0,0
812,-412,0,0,0,0,0,0,0,0,0,-1,2036,1436,0,0
-700,-419,0,0,0,0,0,0,0,0,0,-1,524,1443,0,0
-693,-419,0,0,0,0,0,0,0,0,0,-1,531,1443,0,0
-686,-419,0,0,0,0,0,0,0,0,0,-1,538,1443,0,0
-679,-419,0,0,0,0,0,0,0,0,0,-1,545,1443,0,0
-672,-419,0,0,0,0,0,0,0,0,0,-1,552,1443,0,0
-665,-419,0,0,0,0,0,0,0,0,0,-1,559,1443,0,0
-658,-419,0,0,0,0,0,0,0,0,0,-1,566,1443,0,0
-651,-419,0,0,0,0,0,0,0,0,0,-1,573,1443,0,0
-644,-419,0,0,0,0,0,0,0,0,0,-1,580,1443,0,0
-637,-419,0,0,0,0,0,0,0,0,0,-1,587,1443,0,0
-630,-419,0,0,0,0,0,0,0,0,0,-1,594,1443,0,0
-623,-419,0,0,0,0,0,0,0,0,0,-1,601,1443,0,0
-616,-419,0,0,0,0,0,0,0,0,0,-1,608,1443,0,0
-609,-419,0,0,0,0,0,0,0,0,0,-1,615,1443,0,0
-602,-419,0,0,0,0,0,0,0,0,0,-1,622,1443,0,0
-595,-419,2.24792,-3.58643,0,0,0,0,0,0,0,-1,629,1443,2.24791,3.58648
-588,-419,0.127075,-3.22729,0,0,0,0,0,0,0,-1,636,1443,0.127061,3.22735
-581,-419,0.19342,-1.98401,0,0,0,0,0,0,0,-1,643,1443,0.193399,1.98406
-574,-419,0.259766,-0.740723,0,0,0,0,0,0,0,-1,650,1443,0.259737,0.740769
-567,-419,0.605713,0.272217,0,0,0,0,0,0,0,-1,657,1443,0.605709,-0.272271
-560,-419,0.28833,0.863281,-0.00227608,0.0115158,0.025905,0.031427,-0.0221873,0.915482,0.0311071,0.0479105,664,1443,0.288325,-0.863249
-553,-419,-0.12146,1.39746,-0.00289503,0.0131426,0.0205586,0.0271908,-0.0169433,0.971346,0.0257088,0.0452424,671,1443,-0.121449,-1.3975
-546,-419,-0.408569,1.69592,-0.00291444,0.0130979,0.0160095,0.0229915,-0.0128081,1.01726,0.0209458,0.0372911,678,1443,-0.40856,-1.69588
-539,-419,-0.498657,1.68469,-0.00256372,0.0119562,0.0121946,0.0188884,-0.00949589,1.05389,0.016684,0.0224483,685,1443,-0.498648,-1.68474
-532,-419,-0.550354,1.79968,-0.00204808,0.0100983,0.00901167,0.0148922,-0.00684198,1.0819,0.012832,0.0114981,692,1443,-0.550327,-1.79972
-525,-419,-0.54303,1.93066,-0.0018379,0.00911381,0.006085,0.0118241,-0.00454815,1.15178,0.00975868,0.0121744,699,1443,-0.543007,-1.93067
-518,-419,-0.526489,2.02698,-0.0013474,0.00632842,0.00370499,0.00782498,-0.00284396,1.18691,0.00637956,0.0162831,706,1443,-0.526498,-2.027
-511,-419,-0.534912,2.11292,-0.000741392,0.00382032,0.00235502,0.00481794,-0.00173901,1.1701,0.00392231,0.018678,713,1443,-0.53489,-2.11297
-504,-419,-0.553223,2.20276,-0.000523149,0.00174432,0.00114579,0.00222248,-0.0010013,1.17545,0.00190524,0.0180795,720,1443,-0.553221,-2.20275
-497,-419,-0.538269,2.30188,-0.00099089,0.000285173,0.000177329,0.000309357,-0.00101507,1.43525,0.000800027,0.0125761,727,1443,-0.538259,-2.30182
-490,-419,-0.533264,2.40845,-0.00251363,-0.00100555,-0.000443942,-0.000884569,-0.00263461,-1.30474,0.00154821,0.010136,734,1443,-0.533273,-2.4084
-483,-419,-0.529724,2.47571,-0.00506107,-0.00131799,-0.000988348,-0.00107305,-0.00530601,-1.32786,0.00323945,0.00904442,741,1443,-0.529719,-2.47575
-476,-419,-0.527771,2.58154,-0.00827096,-0.00136178,-0.00125806,-0.00113983,-0.0084929,-1.39618,0.00532283,0.00938275,748,1443,-0.527769,-2.58158
-469,-419,-0.501953,2.69226,-0.0121528,-0.000961612,-0.00149056,-0.000766484,-0.0123479,-1.44063,0.00798869,0.0129095,755,1443,-0.501959,-2.69226
-462,-419,-0.513367,2.80493,-0.0173936,-0.000212913,-0.00156156,-7.21365e-05,-0.0175344,-1.48089,0.0116656,0.0213454,762,1443,-0.513364,-2.80497
-455,-419,-0.669189,2.93115,-0.0228888,0.00179784,-0.00227641,0.002006,-0.023097,-1.47961,0.0161084,0.0349302,769,1443,-0.669178,-2.93121
-448,-419,-1.35931,3.30859,-0.028593,0.0041965,-0.0030013,0.00446895,-0.0288655,-1.48027,0.0208932,0.0404949,776,1443,-1.3593,-3.30855
-441,-419,-1.89313,3.60315,-0.0353726,0.00762506,-0.00392464,0.00798035,-0.0357278,-1.48051,0.0268766,0.0431581,783,1443,-1.89312,-3.60311
-434,-419,-2.35156,3.92847,-0.0414577,0.0124153,-0.00530109,0.012932,-0.0419744,-1.47364,0.0331454,0.0487579,790,1443,-2.35155,-3.92844
-427,-419,-2.74377,4.2218,-0.045264,0.0190799,-0.00758534,0.019962,-0.0461461,-1.45502,0.0391528,0.0486364,797,1443,-2.74378,-4.22183
-420,-419,-3.0788,4.68335,0,0,0,0,0,0,0,-1,804,1443,-3.07878,-4.68331
-413,-419,-3.13446,4.03113,0,0,0,0,0,0,0,-1,811,1443,-3.13449,-4.03113
-406,-419,-3.31836,3.91687,0,0,0,0,0,0,0,-1,818,1443,-3.31834,-3.91684
-399,-419,-2.21466,0.609131,0,0,0,0,0,0,0,-1,825,1443,-2.21463,-0.609137
-392,-419,0,0,0,0,0,0,0,0,0,-1,832,1443,0,0
-385,-419,0,0,0,0,0,0,0,0,0,-1,839,1443,0,0
-378,-419,0,0,0,0,0,0,0,0,0,-1,846,1443,0,0
-371,-419,0,0,0,0,0,0,0,0,0,-1,853,1443,0,0
-364,-419,0,0,0,0,0,0,0,0,0,-1,860,1443,0,0
-357,-419,0,0,0,0,0,0,0,0,0,-1,867,1443,0,0
-350,-419,0,0,0,0,0,0,0,0,0,-1,874,1443,0,0
-343,-419,0,0,0,0,0,0,0,0,0,-1,881,1443,0,0
-336,-419,0,0,0,0,0,0,0,0,0,-1,888,1443,0,0
-329,-419,0,0,0,0,0,0,0,0,0,-1,895,1443,0,0
-322,-419,0,0,0,0,0,0,0,0,0,-1,902,1443,0,0
-315,-419,0,0,0,0,0,0,0,0,0,-1,909,1443,0,0
-308,-419,0,0,0,0,0,0,0,0,0,-1,916,1443,0,0
-301,-419,0,0,0,0,0,0,0,0,0,-1,923,1443,0,0
-294,-419,0,0,0,0,0,0,0,0,0,-1,930,1443,0,0
-287,-419,0,0,0,0,0,0,0,0,0,-1,937,1443,0,0
-280,-419,0,0,0,0,0,0,0,0,0,-1,944,1443,0,0
-273,-419,0,0,0,0,0,0,0,0,0,-1,951,1443,0,0
-266,-419,0,0,0,0,0,0,0,0,0,-1,958,1443,0,0
-259,-419,0,0,0,0,0,0,0,0,0,-1,965,1443,0,0
-252,-419,0,0,0,0,0,0,0,0,0,-1,972,1443,0,0
-245,-419,0,0,0,0,0,0,0,0,0,-1,979,1443,0,0
-238,-419,0,0,0,0,0,0,0,0,0,-1,986,1443,0,0
-231,-419,0,0,0,0,0,0,0,0,0,-1,993,1443,0,0
-224,-419,0,0,0,0,0,0,0,0,0,-1,1000,1443,0,0
-217,-419,0,0,0,0,0,0,0,0,0,-1,1007,1443,0,0
-210,-419,0,0,0,0,0,0,0,0,0,-1,1014,1443,0,0
-203,-419,0,0,0,0,0,0,0,0,0,-1,1021,1443,0,0
-196,-419,0,0,0,0,0,0,0,0,0,-1,1028,1443,0,0
-189,-419,0,0,0,0,0,0,0,0,0,-1,1035,1443,0,0
-182,-419,0,0,0,0,0,0,0,0,0,-1,1042,1443,0,0
-175,-419,0,0,0,0,0,0,0,0,0,-1,1049,1443,0,0
-168,-419,0,0,0,0,0,0,0,0,0,-1,1056,1443,0,0
-161,-419,0,0,0,0,0,0,0,0,0,-1,1063,1443,0,0
-154,-419,0,0,0,0,0,0,0,0,0,-1,1070,1443,0,0
-147,-419,0,0,0,0,0,0,0,0,0,-1,1077,1443,0,0
-140,-419,0,0,0,0,0,0,0,0,0,-1,1084,1443,0,0
-133,-419,0,0,0,0,0,0,0,0,0,-1,1091,1443,0,0
-126,-419,0,0,0,0,0,0,0,0,0,-1,1098,1443,0,0
-119,-419,0,0,0,0,0,0,0,0,0,-1,1105,1443,0,0
-112,-419,0,0,0,0,0,0,0,0,0,-1,1112,1443,0,0
-105,-419,0,0,0,0,0,0,0,0,0,-1,1119,1443,0,0
-98,-419,0,0,0,0,0,0,0,0,0,-1,1126,1443,0,0
-91,-419,0,0,0,0,0,0,0,0,0,-1,1133,1443,0,0
-84,-419,0,0,0,0,0,0,0,0,0,-1,1140,1443,0,0
-77,-419,0,0,0,0,0,0,0,0,0,-1,1147,1443,0,0
-70,-419,0,0,0,0,0,0,0,0,0,-1,1154,1443,0,0
-63,-419,0,0,0,0,0,0,0,0,0,-1,1161,1443,0,0
-56,-419,0,0,0,0,0,0,0,0,0,-1,1168,1443,0,0
-49,-419,0,0,0,0,0,0,0,0,0,-1,1175,1443,0,0
-42,-419,0,0,0,0,0,0,0,0,0,-1,1182,1443,0,0
-35,-419,0,0,0,0,0,0,0,0,0,-1,1189,1443,0,0
-28,-419,0,0,0,0,0,0,0,0,0,-1,1196,1443,0,0
-21,-419,0,0,0,0,0,0,0,0,0,-1,1203,1443,0,0
-14,-419,0,0,0,0,0,0,0,0,0,-1,1210,1443,0,0
-7,-419,0,0,0,0,0,0,0,0,0,-1,1217,1443,0,0
0,-419,0,0,0,0,0,0,0,0,0,-1,1224,1443,0,0
7,-419,0,0,0,0,0,0,0,0,0,-1,1231,1443,0,0
14,-419,0,0,0,0,0,0,0,0,0,-1,1238,1443,0,0
21,-419,0,0,0,0,0,0,0,0,0,-1,1245,1443,0,0
28,-419,0,0,0,0,0,0,0,0,0,-1,1252,1443,0,0
35,-419,0,0,0,0,0,0,0,0,0,-1,1259,1443,0,0
42,-419,0,0,0,0,0,0,0,0,0,-1,1266,1443,0,0
49,-419,0,0,0,0,0,0,0,0,0,-1,1273,1443,0,0
56,-419,0,0,0,0,0,0,0,0,0,-1,1280,1443,0,0
63,-419,0,0,0,0,0,0,0,0,0,-1,1287,1443,0,0
70,-419,0,0,0,0,0,0,0,0,0,-1,1294,1443,0,0
77,-419,0,0,0,0,0,0,0,0,0,-1,1301,1443,0,0
84,-419,0,0,0,0,0,0,0,0,0,-1,1308,1443,0,0
91,-419,0,0,0,0,0,0,0,0,0,-1,1315,1443,0,0
98,-419,0,0,0,0,0,0,0,0,0,-1,1322,1443,0,0
105,-419,0,0,0,0,0,0,0,0,0,-1,1329,1443,0,0
112,-419,0,0,0,0,0,0,0,0,0,-1,1336,1443,0,0
119,-419,0,0,0,0,0,0,0,0,0,-1,1343,1443,0,0
126,-419,0,0,0,0,0,0,0,0,0,-1,1350,1443,0,0
133,-419,0,0,0,0,0,0,0,0,0,-1,1357,1443,0,0
140,-419,0,0,0,0,0,0,0,0,0,-1,1364,1443,0,0
147,-419,0,0,0,0,0,0,0,0,0,-1,1371,1443,0,0
154,-419,0,0,0,0,0,0,0,0,0,-1,1378,1443,0,0
161,-419,0,0,0,0,0,0,0,0,0,-1,1385,1443,0,0
168,-419,0,0,0,0,0,0,0,0,0,-1,1392,1443,0,0
175,-419,0,0,0,0,0,0,0,0,0,-1,1399,1443,0,0
182,-419,0,0,0,0,0,0,0,0,0,-1,1406,1443,0,0
189,-419,0,0,0,0,0,0,0,0,0,-1,1413,1443,0,0
196,-419,0,0,0,0,0,0,0,0,0,-1,1420,1443,0,0
203,-419,0,0,0,0,0,0,0,0,0,-1,1427,1443,0,0
210,-419,0,0,0,0,0,0,0,0,0,-1,1434,1443,0,0
217,-419,0,0,0,0,0,0,0,0,0,-1,1441,1443,0,0
224,-419,0,0,0,0,0,0,0,0,0,-1,1448,1443,0,0
231,-419,0,0,0,0,0,0,0,0,0,-1,1455,1443,0,0
238,-419,0,0,0,0,0,0,0,0,0,-1,1462,1443,0,0
245,-419,0,0,0,0,0,0,0,0,0,-1,1469,1443,0,0
252,-419,0,0,0,0,0,0,0,0,0,-1,1476,1443,0,0
259,-419,0,0,0,0,0,0,0,0,0,-1,1483,1443,0,0
266,-419,0,0,0,0,0,0,0,0,0,-1,1490,1443,0,0
273,-419,0,0,0,0,0,0,0,0,0,-1,1497,1443,0,0
280,-419,0,0,0,0,0,0,0,0,0,-1,1504,1443,0,0
287,-419,0,0,0,0,0,0,0,0,0,-1,1511,1443,0,0
294,-419,0,0,0,0,0,0,0,0,0,-1,1518,1443,0,0
301,-419,0,0,0,0,0,0,0,0,0,-1,1525,1443,0,0
308,-419,0,0,0,0,0,0,0,0,0,-1,1532,1443,0,0
315,-419,0,0,0,0,0,0,0,0,0,-1,1539,1443,0,0
322,-419,0,0,0,0,0,0,0,0,0,-1,1546,1443,0,0
329,-419,0,0,0,0,0,0,0,0,0,-1,1553,1443,0,0
336,-419,0,0,0,0,0,0,0,0,0,-1,1560,1443,0,0
343,-419,0,0,0,0,0,0,0,0,0,-1,1567,1443,0,0
350,-419,0,0,0,0,0,0,0,0,0,-1,1574,1443,0,0
357,-419,0,0,0,0,0,0,0,0,0,-1,1581,1443,0,0
364,-419,0,0,0,0,0,0,0,0,0,-1,1588,1443,0,0
371,-419,0,0,0,0,0,0,0,0,0,-1,1595,1443,0,0
378,-419,0,0,0,0,0,0,0,0,0,-1,1602,1443,0,0
385,-419,0,0,0,0,0,0,0,0,0,-1,1609,1443,0,0
392,-419,0,0,0,0,0,0,0,0,0,-1,1616,1443,0,0
399,-419,0,0,0,0,0,0,0,0,0,-1,1623,1443,0,0
406,-419,0,0,0,0,0,0,0,0,0,-1,1630,1443,0,0
413,-419,0,0,0,0,0,0,0,0,0,-1,1637,1443,0,0
420,-419,0,0,0,0,0,0,0,0,0,-1,1644,1443,0,0
427,-419,0,0,0,0,0,0,0,0,0,-1,1651,1443,0,0
434,-419,0,0,0,0,0,0,0,0,0,-1,1658,1443,0,0
441,-419,0,0,0,0,0,0,0,0,0,-1,1665,1443,0,0
448,-419,0,0,0,0,0,0,0,0,0,-1,1672,1443,0,0
455,-419,0,0,0,0,0,0,0,0,0,-1,1679,1443,0,0
462,-419,0,0,0,0,0,0,0,0,0,-1,1686,1443,0,0
469,-419,0,0,0,0,0,0,0,0,0,-1,1693,1443,0,0
476,-419,0,0,0,0,0,0,0,0,0,-1,1700,1443,0,0
483,-419,0,0,0,0,0,0,0,0,0,-1,1707,1443,0,0
490,-419,0,0,0,0,0,0,0,0,0,-1,1714,1443,0,0
497,-419,0,0,0,0,0,0,0,0,0,-1,1721,1443,0,0
504,-419,0,0,0,0,0,0,0,0,0,-1,1728,1443,0,0
511,-419,7.8811,4.50537,0,0,0,0,0,0,0,-1,1735,1443,7.88107,-4.50538
518,-419,7.22485,4.56848,0,0,0,0,0,0,0,-1,1742,1443,7.22489,-4.56849
525,-419,6.38623,4.54089,0,0,0,0,0,0,0,-1,1749,1443,6.38618,-4.54095
532,-419,8.1897,3.04712,0,0,0,0,0,0,0,-1,1756,1443,8.18967,-3.04712
539,-419,7.93958,3.13843,0,0,0,0,0,0,0,-1,1763,1443,7.93954,-3.13841
546,-419,7.60413,3.42859,0.0127682,-0.00168368,0.0402732,0.0464586,-0.035374,0.696631,0.0473903,0.0450996,1770,1443,7.60409,-3.42861
553,-419,7.54456,3.7948,0.00700521,-0.00217219,0.0327134,0.0354502,-0.0306172,0.715718,0.038178,0.0465112,1777,1443,7.54459,-3.79482
560,-419,7.86877,4.08215,0,0,0,0,0,0,0,-1,1784,1443,7.86878,-4.08211
567,-419,6.26807,3.28772,0,0,0,0,0,0,0,-1,1791,1443,6.26804,-3.28769
574,-419,6.44031,3.3645,-0.00946187,-0.00472981,0.0169355,0.0100041,-0.0241958,0.854803,0.0203041,0.0484123,1798,1443,6.44025,-3.36453
581,-419,6.22607,3.42004,-0.011696,-0.00512096,0.0134302,0.00541825,-0.0222352,0.90543,0.0169212,0.0482158,1805,1443,6.22605,-3.42003
588,-419,6.57458,3.45093,0,0,0,0,0,0,0,-1,1812,1443,6.57453,-3.45088
595,-419,6.46411,3.37402,-0.012088,-0.00501839,0.00841518,0.000574253,-0.0176806,0.984233,0.0119831,0.0347237,1819,1443,6.46409,-3.37408
602,-419,6.37146,3.26514,-0.011817,-0.00464107,0.00635534,-0.000930817,-0.0155272,1.04237,0.0100556,0.0146344,1826,1443,6.37144,-3.26513
609,-419,6.3584,3.17102,-0.010687,-0.00426628,0.00472359,-0.00176536,-0.0131879,1.08387,0.00826657,0.0101935,1833,1443,6.35843,-3.17103
616,-419,6.35059,3.09558,-0.00877331,-0.00370795,0.00335937,-0.00203351,-0.0104478,1.1084,0.00639601,0.0113776,1840,1443,6.35053,-3.09562
623,-419,6.37415,2.99316,-0.00589359,-0.00241374,0.00232621,-0.00124874,-0.00705859,1.1065,0.00434965,0.00945248,1847,1443,6.3741,-2.99319
630,-419,6.38232,2.89136,-0.00298866,-0.000910223,0.00115705,-0.000394208,-0.00350467,1.1513,0.00221676,0.0118406,1854,1443,6.38236,-2.8914
637,-419,6.35693,2.80603,8.63723e-05,0.000984836,-0.000103965,0.00099671,7.44989e-05,-1.45708,0.000641085,0.0130621,1861,1443,6.35696,-2.80608
644,-419,6.35925,2.74524,0.00275243,0.00263299,-0.00148111,0.00417502,0.0012104,-0.76525,0.00248036,0.0117056,1868,1443,6.35926,-2.74529
651,-419,6.36975,2.67175,0.00522663,0.00453105,-0.00325876,0.00815611,0.00160157,-0.732238,0.00498997,0.0111209,1875,1443,6.36978,-2.67178
658,-419,6.35571,2.53674,0.00875926,0.00639476,-0.00523522,0.0129441,0.00220996,-0.674348,0.00799519,0.0116051,1882,1443,6.35577,-2.53679
665,-419,6.32593,2.43225,0.013817,0.00855853,-0.00835319,0.019945,0.00243056,-0.632928,0.0125651,0.0173653,1889,1443,6.32594,-2.43221
672,-419,6.35779,2.34314,0.0204068,0.0115826,-0.0125293,0.0292782,0.00271126,-0.616107,0.0186808,0.0223062,1896,1443,6.35785,-2.34316
679,-419,6.39783,2.32898,0.0296564,0.0134926,-0.0169199,0.0403255,0.00282354,-0.562592,0.0259936,0.0366563,1903,1443,6.39784,-2.32901
686,-419,6.42749,2.38403,0,0,0,0,0,0,0,-1,1910,1443,6.4275,-2.38399
693,-419,6.94226,3.10242,0,0,0,0,0,0,0,-1,1917,1443,6.94232,-3.10237
700,-419,6.98254,2.505,0,0,0,0,0,0,0,-1,1924,1443,6.9825,-2.50503
707,-419,7.10803,2.43213,0,0,0,0,0,0,0,-1,1931,1443,7.10808,-2.43207
714,-419,9.13989,2.25635,0,0,0,0,0,0,0,-1,1938,1443,9.13993,-2.25636
721,-419,0,0,0,0,0,0,0,0,0,-1,1945,1443,0,0
728,-419,0,0,0,0,0,0,0,0,0,-1,1952,1443,0,0
735,-419,0,0,0,0,0,0,0,0,0,-1,1959,1443,0,0
742,-419,0,0,0,0,0,0,0,0,0,-1,1966,1443,0,0
749,-419,0,0,0,0,0,0,0,0,0,-1,1973,1443,0,0
756,-419,0,0,0,0,0,0,0,0,0,-1,1980,1443,0,0
763,-419,0,0,0,0,0,0,0,0,0,-1,1987,1443,0,0
770,-419,0,0,0,0,0,0,0,0,0,-1,1994,1443,0,0
777,-419,0,0,0,0,0,0,0,0,0,-1,2001,1443,0,0
784,-419,0,0,0,0,0,0,0,0,0,-1,2008,1443,0,0
791,-419,0,0,0,0,0,0,0,0,0,-1,2015,1443,0,0
798,-419,0,0,0,0,0,0,0,0,0,-1,2022,1443,0,0
805,-419,0,0,0,0,0,0,0,0,0,-1,2029,1443,0,0
812,-419,0,0,0,0,0,0,0,0,0,-1,2036,1443,0,0
-700,-426,0,0,0,0,0,0,0,0,0,-1,524,1450,0,0
-693,-426,0,0,0,0,0,0,0,0,0,-1,531,1450,0,0
-686,-426,0,0,0,0,0,0,0,0,0,-1,538,1450,0,0
-679,-426,0,0,0,0,0,0,0,0,0,-1,545,1450,0,0
-672,-426,0,0,0,0,0,0,0,0,0,-1,552,1450,0,0
-665,-426,0,0,0,0,0,0,0,0,0,-1,559,1450,0,0
-658,-426,0,0,0,0,0,0,0,0,0,-1,566,1450,0,0
-651,-426,0,0,0,0,0,0,0,0,0,-1,573,1450,0,0
-644,-426,0,0,0,0,0,0,0,0,0,-1,580,1450,0,0
-637,-426,0,0,0,0,0,0,0,0,0,-1,587,1450,0,0
-630,-426,0,0,0,0,0,0,0,0,0,-1,594,1450,0,0
-623,-426,0,0,0,0,0,0,0,0,0,-1,601,1450,0,0
-616,-426,0,0,0,0,0,0,0,0,0,-1,608,1450,0,0
-609,-426,0,0,0,0,0,0,0,0,0,-1,615,1450,0,0
-602,-426,0,0,0,0,0,0,0,0,0,-1,622,1450,0,0
-595,-426,0,0,0,0,0,0,0,0,0,-1,629,1450,0,0
-588,-426,-0.00836182,-3.62915,0,0,0,0,0,0,0,-1,636,1450,-0.00838237,3.62915
-581,-426,0.335876,-2.44812,0,0,0,0,0,0,0,-1,643,1450,0.335902,2.44818
-574,-426,0.680176,-1.26721,0,0,0,0,0,0,0,-1,650,1450,0.680187,1.26721
-567,-426,2.5412,-1.58057,0,0,0,0,0,0,0,-1,657,1450,2.54117,1.58059
-560,-426,0.455933,0.835083,0,0,0,0,0,0,0,-1,664,1450,0.455945,-0.835057
-553,-426,0.0205688,1.5105,0,0,0,0,0,0,0,-1,671,1450,0.0205434,-1.5105
-546,-426,-0.377869,1.20154,0.000632702,0.0156789,0.0203617,0.0298628,-0.0135512,0.962357,0.0256481,0.0447325,678,1450,-0.377839,-1.2015
-539,-426,-0.330688,1.54346,0.000345612,0.014562,0.0157827,0.0247633,-0.00985576,0.996982,0.0205958,0.0351697,685,1450,-0.330673,-1.54342
-532,-426,-0.427612,1.80469,0.000207877,0.0125368,0.0118685,0.0197462,-0.00700154,1.02492,0.0160165,0.0192681,692,1450,-0.427642,-1.80474
-525,-426,-0.44165,1.92224,-0.000118008,0.0116134,0.00832403,0.0159308,-0.00443543,1.09232,0.012367,0.0115022,699,1450,-0.441654,-1.92222
-518,-426,-0.421997,2.02551,-0.000127936,0.00833016,0.00534114,0.0109138,-0.00271157,1.12025,0.00832819,0.0151694,706,1450,-0.422005,-2.02555
-511,-426,-0.424927,2.12671,7.45422e-05,0.00546318,0.00357377,0.00724448,-0.00170676,1.1084,0.00548777,0.0148462,713,1450,-0.424936,-2.12667
-504,-426,-0.450134,2.21069,-4.24626e-05,0.00306669,0.00197908,0.00402875,-0.00100452,1.11832,0.00307585,0.0139209,720,1450,-0.450115,-2.21071
-497,-426,-0.444214,2.29053,-0.000628436,0.00137008,0.000831886,0.00167103,-0.000929391,1.22367,0.00152157,0.0112347,727,1450,-0.444199,-2.29051
-490,-426,-0.447083,2.39514,-0.00198657,-6.83624e-05,0.000154718,-5.59633e-05,-0.00199897,1.49083,0.00131439,0.0115899,734,1450,-0.447082,-2.39518
-483,-426,-0.445496,2.48352,-0.00429955,-0.000427082,-0.000472327,-0.000370305,-0.00435633,-1.45116,0.00278899,0.0117355,741,1450,-0.445522,-2.48349
-476,-426,-0.447937,2.58337,-0.00713474,-0.000520885,-0.000849838,-0.000413432,-0.00724219,-1.44502,0.00469639,0.00933388,748,1450,-0.447962,-2.58336
-469,-426,-0.445801,2.68542,-0.010457,-0.000109201,-0.00119969,2.80673e-05,-0.0105943,-1.45687,0.00707225,0.00729098,755,1450,-0.445813,-2.6854
-462,-426,-0.419617,2.81958,-0.0148128,0.000664548,-0.00139189,0.000788726,-0.014937,-1.48182,0.0102311,0.0139409,762,1450,-0.419611,-2.81954
-455,-426,-0.467285,2.88586,-0.0189105,0.00282048,-0.00241377,0.00308537,-0.0191753,-1.4615,0.0139264,0.0270028,769,1450,-0.467309,-2.88591
-448,-426,-0.672607,2.92639,-0.0228562,0.00530559,-0.00350374,0.00573496,-0.0232856,-1.44886,0.017747,0.0414227,776,1450,-0.672583,-2.92635
-441,-426,-1.02234,3.30188,-0.0273896,0.00873791,-0.00490651,0.00939241,-0.0280441,-1.43818,0.0224904,0.0429384,783,1450,-1.02237,-3.30193
-434,-426,-2.12164,3.83301,-0.0307302,0.013474,-0.00684839,0.0145107,-0.0317669,-1.42056,0.0273305,0.0466232,790,1450,-2.12162,-3.83299
-427,-426,-2.59167,4.14014,-0.0317151,0.0198828,-0.00975205,0.0216645,-0.0334967,-1.3901,0.0320906,0.0457848,797,1450,-2.59165,-4.14008
-420,-426,-3.04462,4.60681,0,0,0,0,0,0,0,-1,804,1450,-3.04461,-4.60684
-413,-426,-3.60724,5.03381,0,0,0,0,0,0,0,-1,811,1450,-3.60722,-5.03381
-406,-426,-2.76678,3.59045,0,0,0,0,0,0,0,-1,818,1450,-2.76677,-3.59051
-399,-426,-1.76575,1.13013,0,0,0,0,0,0,0,-1,825,1450,-1.76576,-1.13014
-392,-426,-1.67249,0.956055,0,0,0,0,0,0,0,-1,832,1450,-1.67248,-0.956061
-385,-426,0,0,0,0,0,0,0,0,0,-1,839,1450,0,0
-378,-426,0,0,0,0,0,0,0,0,0,-1,846,1450,0,0
-371,-426,0,0,0,0,0,0,0,0,0,-1,853,1450,0,0
-364,-426,0,0,0,0,0,0,0,0,0,-1,860,1450,0,0
-357,-426,0,0,0,0,0,0,0,0,0,-1,867,1450,0,0
-350,-426,0,0,0,0,0,0,0,0,0,-1,874,1450,0,0
-343,-426,0,0,0,0,0,0,0,0,0,-1,881,1450,0,0
-336,-426,0,0,0,0,0,0,0,0,0,-1,888,1450,0,0
-329,-426,0,0,0,0,0,0,0,0,0,-1,895,1450,0,0
-322,-426,0,0,0,0,0,0,0,0,0,-1,902,1450,0,0
-315,-426,0,0,0,0,0,0,0,0,0,-1,909,1450,0,0
-308,-426,0,0,0,0,0,0,0,0,0,-1,916,1450,0,0
-301,-426,0,0,0,0,0,0,0,0,0,-1,923,1450,0,0
-294,-426,0,0,0,0,0,0,0,0,0,-1,930,1450,0,0
-287,-426,0,0,0,0,0,0,0,0,0,-1,937,1450,0,0
-280,-426,0,0,0,0,0,0,0,0,0,-1,944,1450,0,0
-273,-426,0,0,0,0,0,0,0,0,0,-1,951,1450,0,0
-266,-426,0,0,0,0,0,0,0,0,0,-1,958,1450,0,0
-259,-426,0,0,0,0,0,0,0,0,0,-1,965,1450,0,0
-252,-426,0,0,0,0,0,0,0,0,0,-1,972,1450,0,0
-245,-426,0,0,0,0,0,0,0,0,0,-1,979,1450,0,0
-238,-426,0,0,0,0,0,0,0,0,0,-1,986,1450,0,0
-231,-426,0,0,0,0,0,0,0,0,0,-1,993,1450,0,0
-224,-426,0,0,0,0,0,0,0,0,0,-1,1000,1450,0,0
-217,-426,0,0,0,0,0,0,0,0,0,-1,1007,1450,0,0
-210,-426,0,0,0,0,0,0,0,0,0,-1,1014,1450,0,0
-203,-426,0,0,0,0,0,0,0,0,0,-1,1021,1450,0,0
-196,-426,0,0,0,0,0,0,0,0,0,-1,1028,1450,0,0
-189,-426,0,0,0,0,0,0,0,0,0,-1,1035,1450,0,0
-182,-426,0,0,0,0,0,0,0,0,0,-1,1042,1450,0,0
-175,-426,0,0,0,0,0,0,0,0,0,-1,1049,1450,0,0
-168,-426,0,0,0,0,0,0,0,0,0,-1,1056,1450,0,0
-161,-426,0,0,0,0,0,0,0,0,0,-1,1063,1450,0,0
-154,-426,0,0,0,0,0,0,0,0,0,-1,1070,1450,0,0
-147,-426,0,0,0,0,0,0,0,0,0,-1,1077,1450,0,0
-140,-426,0,0,0,0,0,0,0,0,0,-1,1084,1450,0,0
-133,-426,0,0,0,0,0,0,0,0,0,-1,1091,1450,0,0
-126,-426,0,0,0,0,0,0,0,0,0,-1,1098,1450,0,0
-119,-426,0,0,0,0,0,0,0,0,0,-1,1105,1450,0,0
-112,-426,0,0,0,0,0,0,0,0,0,-1,1112,1450,0,0
-105,-426,0,0,0,0,0,0,0,0,0,-1,1119,1450,0,0
-98,-426,0,0,0,0,0,0,0,0,0,-1,1126,1450,0,0
-91,-426,0,0,0,0,0,0,0,0,0,-1,1133,1450,0,0
-84,-426,0,0,0,0,0,0,0,0,0,-1,1140,1450,0,0
-77,-426,0,0,0,0,0,0,0,0,0,-1,1147,1450,0,0
-70,-426,0,0,0,0,0,0,0,0,0,-1,1154,1450,0,0
-63,-426,0,0,0,0,0,0,0,0,0,-1,1161,1450,0,0
-56,-426,0,0,0,0,0,0,0,0,0,-1,1168,1450,0,0
-49,-426,0,0,0,0,0,0,0,0,0,-1,1175,1450,0,0
-42,-426,0,0,0,0,0,0,0,0,0,-1,1182,1450,0,0
-35,-426,0,0,0,0,0,0,0,0,0,-1,1189,1450,0,0
-28,-426,0,0,0,0,0,0,0,0,0,-1,1196,1450,0,0
-21,-426,0,0,0,0,0,0,0,0,0,-1,1203,1450,0,0
-14,-426,0,0,0,0,0,0,0,0,0,-1,1210,1450,0,0
-7,-426,0,0,0,0,0,0,0,0,0,-1,1217,1450,0,0
0,-426,0,0,0,0,0,0,0,0,0,-1,1224,1450,0,0
7,-426,0,0,0,0,0,0,0,0,0,-1,1231,1450,0,0
14,-426,0,0,0,0,0,0,0,0,0,-1,1238,1450,0,0
21,-426,0,0,0,0,0,0,0,0,0,-1,1245,1450,0,0
28,-426,0,0,0,0,0,0,0,0,0,-1,1252,1450,0,0
35,-426,0,0,0,0,0,0,0,0,0,-1,1259,1450,0,0
42,-426,0,0,0,0,0,0,0,0,0,-1,1266,1450,0,0
49,-426,0,0,0,0,0,0,0,0,0,-1,1273,1450,0,0
56,-426,0,0,0,0,0,0,0,0,0,-1,1280,1450,0,0
63,-426,0,0,0,0,0,0,0,0,0,-1,1287,1450,0,0
70,-426,0,0,0,0,0,0,0,0,0,-1,1294,1450,0,0
77,-426,0,0,0,0,0,0,0,0,0,-1,1301,1450,0,0
84,-426,0,0,0,0,0,0,0,0,0,-1,1308,1450,0,0
91,-426,0,0,0,0,0,0,0,0,0,-1,1315,1450,0,0
98,-426,0,0,0,0,0,0,0,0,0,-1,1322,1450,0,0
105,-426,0,0,0,0,0,0,0,0,0,-1,1329,1450,0,0
112,-426,0,0,0,0,0,0,0,0,0,-1,1336,1450,0,0
119,-426,0,0,0,0,0,0,0,0,0,-1,1343,1450,0,0
126,-426,0,0,0,0,0,0,0,0,0,-1,1350,1450,0,0
133,-426,0,0,0,0,0,0,0,0,0,-1,1357,1450,0,0
140,-426,0,0,0,0,0,0,0,0,0,-1,1364,1450,0,0
147,-426,0,0,0,0,0,0,0,0,0,-1,1371,1450,0,0
154,-426,0,0,0,0,0,0,0,0,0,-1,1378,1450,0,0
161,-426,0,0,0,0,0,0,0,0,0,-1,1385,1450,0,0
168,-426,0,0,0,0,0,0,0,0,0,-1,1392,1450,0,0
175,-426,0,0,0,0,0,0,0,0,0,-1,1399,1450,0,0
182,-426,0,0,0,0,0,0,0,0,0,-1,1406,1450,0,0
189,-426,0,0,0,0,0,0,0,0,0,-1,1413,1450,0,0
196,-426,0,0,0,0,0,0,0,0,0,-1,1420,1450,0,0
203,-426,0,0,0,0,0,0,0,0,0,-1,1427,1450,0,0
210,-426,0,0,0,0,0,0,0,0,0,-1,1434,1450,0,0
217,-426,0,0,0,0,0,0,0,0,0,-1,1441,1450,0,0
224,-426,0,0,0,0,0,0,0,0,0,-1,1448,1450,0,0
231,-426,0,0,0,0,0,0,0,0,0,-1,1455,1450,0,0
238,-426,0,0,0,0,0,0,0,0,0,-1,1462,1450,0,0
245,-426,0,0,0,0,0,0,0,0,0,-1,1469,1450,0,0
252,-426,0,0,0,0,0,0,0,0,0,-1,1476,1450,0,0
259,-426,0,0,0,0,0,0,0,0,0,-1,1483,1450,0,0
266,-426,0,0,0,0,0,0,0,0,0,-1,1490,1450,0,0
273,-426,0,0,0,0,0,0,0,0,0,-1,1497,1450,0,0
280,-426,0,0,0,0,0,0,0,0,0,-1,1504,1450,0,0
287,-426,0,0,0,0,0,0,0,0,0,-1,1511,1450,0,0
294,-426,0,0,0,0,0,0,0,0,0,-1,1518,1450,0,0
301,-426,0,0,0,0,0,0,0,0,0,-1,1525,1450,0,0
308,-426,0,0,0,0,0,0,0,0,0,-1,1532,1450,0,0
315,-426,0,0,0,0,0,0,0,0,0,-1,1539,1450,0,0
322,-426,0,0,0,0,0,0,0,0,0,-1,1546,1450,0,0
329,-426,0,0,0,0,0,0,0,0,0,-1,1553,1450,0,0
336,-426,0,0,0,0,0,0,0,0,0,-1,1560,1450,0,0
343,-426,0,0,0,0,0,0,0,0,0,-1,1567,1450,0,0
350,-426,0,0,0,0,0,0,0,0,0,-1,1574,1450,0,0
357,-426,0,0,0,0,0,0,0,0,0,-1,1581,1450,0,0
364,-426,0,0,0,0,0,0,0,0,0,-1,1588,1450,0,0
371,-426,0,0,0,0,0,0,0,0,0,-1,1595,1450,0,0
378,-426,0,0,0,0,0,0,0,0,0,-1,1602,1450,0,0
385,-426,0,0,0,0,0,0,0,0,0,-1,1609,1450,0,0
392,-426,0,0,0,0,0,0,0,0,0,-1,1616,1450,0,0
399,-426,0,0,0,0,0,0,0,0,0,-1,1623,1450,0,0
406,-426,0,0,0,0,0,0,0,0,0,-1,1630,1450,0,0
413,-426,0,0,0,0,0,0,0,0,0,-1,1637,1450,0,0
420,-426,0,0,0,0,0,0,0,0,0,-1,1644,1450,0,0
427,-426,0,0,0,0,0,0,0,0,0,-1,1651,1450,0,0
434,-426,0,0,0,0,0,0,0,0,0,-1,1658,1450,0,0
441,-426,0,0,0,0,0,0,0,0,0,-1,1665,1450,0,0
448,-426,0,0,0,0,0,0,0,0,0,-1,1672,1450,0,0
455,-426,0,0,0,0,0,0,0,0,0,-1,1679,1450,0,0
462,-426,0,0,0,0,0,0,0,0,0,-1,1686,1450,0,0
469,-426,0,0,0,0,0,0,0,0,0,-1,1693,1450,0,0
476,-426,0,0,0,0,0,0,0,0,0,-1,1700,1450,0,0
483,-426,0,0,0,0,0,0,0,0,0,-1,1707,1450,0,0
490,-426,0,0,0,0,0,0,0,0,0,-1,1714,1450,0,0
497,-426,0,0,0,0,0,0,0,0,0,-1,1721,1450,0,0
504,-426,8.85803,0.641235,0,0,0,0,0,0,0,-1,1728,1450,8.85803,-0.641179
511,-426,8.06714,1.099,0,0,0,0,0,0,0,-1,1735,1450,8.06717,-1.09898
518,-426,7.82507,4.89001,0,0,0,0,0,0,0,-1,1742,1450,7.82509,-4.89005
525,-426,6.93274,4.84705,0,0,0,0,0,0,0,-1,1749,1450,6.93271,-4.84711
532,-426,5.50439,4.80969,0,0,0,0,0,0,0,-1,1756,1450,5.50441,-4.80971
539,-426,7.2959,3.00024,0,0,0,0,0,0,0,-1,1763,1450,7.29593,-3.00025
546,-426,6.98706,3.45337,0.0147522,-0.0041385,0.0358944,0.0424232,-0.0318095,0.656744,0.043004,0.047623,1770,1450,6.98712,-3.45338
553,-426,7.09143,3.83325,0.0123785,-0.00386366,0.0296011,0.0349523,-0.0264375,0.651517,0.0355569,0.0465056,1777,1450,7.09148,-3.83329
560,-426,7.58545,3.96545,0.00717711,-0.00417703,0.0241709,0.0263287,-0.0233286,0.670053,0.0286871,0.0454355,1784,1450,7.58549,-3.96547
567,-426,7.88232,3.91443,0,0,0,0,0,0,0,-1,1791,1450,7.88238,-3.91443
574,-426,6.58936,3.29968,-0.00243372,-0.00488656,0.0152149,0.0116041,-0.0189244,0.745182,0.0177937,0.0496651,1798,1450,6.58933,-3.29966
581,-426,6.29517,3.29199,-0.00519756,-0.00487653,0.0118207,0.00678476,-0.0168588,0.792187,0.0140576,0.0459647,1805,1450,6.29514,-3.29201
588,-426,6.28748,3.42078,-0.00666612,-0.0046615,0.00909683,0.00348806,-0.0148157,0.840268,0.011222,0.0363228,1812,1450,6.28749,-3.42072
595,-426,6.25439,3.34619,-0.00712489,-0.0042671,0.00698158,0.00143031,-0.0128223,0.886337,0.00906267,0.0239175,1819,1450,6.25435,-3.34615
602,-426,6.28259,3.24524,-0.00759735,-0.00385522,0.00506668,-0.000325161,-0.0111274,0.962275,0.00731229,0.0150159,1826,1450,6.28261,-3.24518
609,-426,6.26282,3.16821,-0.00721833,-0.00345568,0.00354921,-0.00132,-0.009354,1.0291,0.00584589,0.0116231,1833,1450,6.26282,-3.16819
616,-426,6.26172,3.09729,-0.00600191,-0.00294419,0.0022594,-0.00174499,-0.0072011,1.08285,0.00433769,0.013408,1840,1450,6.26169,-3.0973
623,-426,6.28735,2.99585,-0.00365425,-0.00162508,0.00131515,-0.000978638,-0.00430069,1.11395,0.00260297,0.0112195,1847,1450,6.28736,-2.9959
630,-426,6.28992,2.88916,-0.001073,-7.71096e-06,0.000184868,2.34588e-05,-0.00110417,1.40376,0.000744054,0.0118583,1854,1450,6.28987,-2.88918
637,-426,6.27832,2.81042,0.00179986,0.00197384,-0.00114043,0.00303059,0.00074311,-0.823463,0.00182387,0.0122887,1861,1450,6.27834,-2.81049
644,-426,6.26233,2.73962,0.00447012,0.00380106,-0.00261106,0.00676799,0.00150319,-0.721685,0.00410375,0.0116157,1868,1450,6.26229,-2.7396
651,-426,6.25793,2.64954,0.00726592,0.00602819,-0.00456847,0.0112573,0.00203685,-0.718076,0.00692644,0.0118114,1875,1450,6.2579,-2.64948
658,-426,6.26404,2.53064,0.0112986,0.00842827,-0.00687305,0.0168847,0.00284215,-0.682471,0.0104389,0.0109876,1882,1450,6.26404,-2.53065
665,-426,6.25671,2.39478,0.0170358,0.0112695,-0.0104411,0.0249845,0.00332081,-0.650688,0.0156671,0.0156763,1889,1450,6.25671,-2.39474
672,-426,6.23401,2.28162,0.024609,0.0151616,-0.0152603,0.03586,0.00391064,-0.635304,0.0227156,0.0265996,1896,1450,6.234,-2.28159
679,-426,6.27478,2.35669,0.0349317,0.0183214,-0.0205583,0.048799,0.00445404,-0.593432,0.0311543,0.0384119,1903,1450,6.27484,-2.35674
686,-426,6.58948,2.45935,0.048633,0.0232028,-0.0265764,0.0653793,0.00645642,-0.562274,0.0416014,0.0448585,1910,1450,6.58948,-2.45933
693,-426,7.16907,2.66125,0,0,0,0,0,0,0,-1,1917,1450,7.16908,-2.66128
700,-426,7.48218,2.43628,0,0,0,0,0,0,0,-1,1924,1450,7.48216,-2.43629
707,-426,7.79529,2.2113,0,0,0,0,0,0,0,-1,1931,1450,7.79525,-2.21131
714,-426,0,0,0,0,0,0,0,0,0,-1,1938,1450,0,0
721,-426,0,0,0,0,0,0,0,0,0,-1,1945,1450,0,0
728,-426,0,0,0,0,0,0,0,0,0,-1,1952,1450,0,0
735,-426,0,0,0,0,0,0,0,0,0,-1,1959,1450,0,0
742,-426,0,0,0,0,0,0,0,0,0,-1,1966,1450,0,0
749,-426,0,0,0,0,0,0,0,0,0,-1,1973,1450,0,0
756,-426,0,0,0,0,0,0,0,0,0,-1,1980,1450,0,0
763,-426,0,0,0,0,0,0,0,0,0,-1,1987,1450,0,0
770,-426,0,0,0,0,0,0,0,0,0,-1,1994,1450,0,0
777,-426,0,0,0,0,0,0,0,0,0,-1,2001,1450,0,0
784,-426,0,0,0,0,0,0,0,0,0,-1,2008,1450,0,0
791,-426,0,0,0,0,0,0,0,0,0,-1,2015,1450,0,0
798,-426,0,0,0,0,0,0,0,0,0,-1,2022,1450,0,0
805,-426,0,0,0,0,0,0,0,0,0,-1,2029,1450,0,0
812,-426,0,0,0,0,0,0,0,0,0,-1,2036,1450,0,0
-700,-433,0,0,0,0,0,0,0,0,0,-1,524,1457,0,0
-693,-433,0,0,0,0,0,0,0,0,0,-1,531,1457,0,0
-686,-433,0,0,0,0,0,0,0,0,0,-1,538,1457,0,0
-679,-433,0,0,0,0,0,0,0,0,0,-1,545,1457,0,0
-672,-433,0,0,0,0,0,0,0,0,0,-1,552,1457,0,0
-665,-433,0,0,0,0,0,0,0,0,0,-1,559,1457,0,0
-658,-433,0,0,0,0,0,0,0,0,0,-1,566,1457,0,0
-651,-433,0,0,0,0,0,0,0,0,0,-1,573,1457,0,0
-644,-433,0,0,0,0,0,0,0,0,0,-1,580,1457,0,0
-637,-433,0,0,0,0,0,0,0,0,0,-1,587,1457,0,0
-630,-433,0,0,0,0,0,0,0,0,0,-1,594,1457,0,0
-623,-433,0,0,0,0,0,0,0,0,0,-1,601,1457,0,0
-616,-433,0,0,0,0,0,0,0,0,0,-1,608,1457,0,0
-609,-433,0,0,0,0,0,0,0,0,0,-1,615,1457,0,0
-602,-433,0,0,0,0,0,0,0,0,0,-1,622,1457,0,0
-595,-433,0,0,0,0,0,0,0,0,0,-1,629,1457,0,0
-588,-433,-0.421326,-3.93652,0,0,0,0,0,0,0,-1,636,1457,-0.421312,3.93653
-581,-433,0.424683,-2.5105,0.0137884,-0.0278246,0.0605348,0.0569926,-0.0710288,0.619868,0.0740611,0.0472528,643,1457,0.424696,2.51052
-574,-433,0.372498,-0.123169,0.0104453,-0.00568929,0.0518272,0.0548293,-0.0500733,0.708189,0.0605863,0.0490947,650,1457,0.372478,0.123129
-567,-433,0.386536,0.242065,0,0,0,0,0,0,0,-1,657,1457,0.386557,-0.24201
-560,-433,0.475159,0.19043,0,0,0,0,0,0,0,-1,664,1457,0.475175,-0.190381
-553,-433,0.315063,-0.101318,0,0,0,0,0,0,0,-1,671,1457,0.315062,0.101363
-546,-433,0.115845,0.349609,0.00494187,0.0183252,0.0248269,0.0373464,-0.0140794,0.917036,0.0306869,0.0431774,678,1457,0.115828,-0.349553
-539,-433,-0.207642,1.21826,0.00385896,0.0171869,0.019475,0.0311065,-0.0100606,0.950244,0.0247815,0.0418696,685,1457,-0.207623,-1.2183
-532,-433,-0.312927,1.77576,0.00292418,0.0149764,0.0148153,0.0249443,-0.00704374,0.978552,0.0194083,0.0244227,692,1457,-0.312935,-1.77578
-525,-433,-0.346436,1.91992,0.0019109,0.0140964,0.0106214,0.0202485,-0.00424119,1.0458,0.0151124,0.0124158,699,1457,-0.346417,-1.91988
-518,-433,-0.335022,2.00159,0.00131097,0.0103115,0.00702354,0.0141529,-0.00253036,1.07032,0.010382,0.0153334,706,1457,-0.33503,-2.00162
-511,-433,-0.347778,2.1084,0.00104229,0.0070888,0.00481493,0.00975093,-0.00161984,1.06574,0.00710241,0.0154725,713,1457,-0.347777,-2.10842
-504,-433,-0.338379,2.19788,0.000535325,0.00434977,0.00281964,0.00584664,-0.000961544,1.08276,0.00425465,0.0120204,720,1457,-0.338374,-2.19794
-497,-433,-0.329529,2.276,-0.000203594,0.00238443,0.00149459,0.00306735,-0.000886514,1.1422,0.00239572,0.0122264,727,1457,-0.329504,-2.27601
-490,-433,-0.35553,2.39087,-0.00139232,0.000801386,0.000759718,0.0010388,-0.00162973,1.26791,0.00155321,0.0146037,734,1457,-0.355546,-2.39087
-483,-433,-0.354553,2.51904,-0.0034485,0.000354417,5.82009e-05,0.000355308,-0.00344939,1.5555,0.00242672,0.0157006,741,1457,-0.354547,-2.51903
-476,-433,-0.334534,2.61487,-0.00589857,0.000168414,-0.000423632,0.000197852,-0.00592801,-1.50142,0.00401958,0.0105754,748,1457,-0.334516,-2.61493
-469,-433,-0.327637,2.70911,-0.00867371,0.000526053,-0.000881574,0.000609769,-0.00875742,-1.47612,0.00605179,0.0101167,755,1457,-0.327612,-2.7091
-462,-433,-0.337219,2.80029,-0.0121738,0.00124137,-0.00117443,0.00134341,-0.0122758,-1.48413,0.00866645,0.00975088,762,1457,-0.337192,-2.80033
-455,-433,-0.293518,2.88708,-0.0150013,0.00338769,-0.00241518,0.00369961,-0.0153132,-1.44236,0.0116396,0.0196996,769,1457,-0.293526,-2.88707
-448,-433,-0.243835,2.80005,-0.0174107,0.00572092,-0.00371923,0.00630421,-0.017994,-1.41523,0.0145597,0.0322462,776,1457,-0.243827,-2.80003
-441,-433,-0.129028,2.65369,-0.0201277,0.00888529,-0.00536921,0.00984704,-0.0210895,-1.39355,0.0182501,0.0403374,783,1457,-0.129007,-2.65366
-434,-433,-1.83282,3.82666,-0.0214889,0.013214,-0.0075929,0.0148026,-0.0230775,-1.36455,0.0220433,0.0439435,790,1457,-1.83284,-3.82664
-427,-433,-2.29718,4.15833,-0.0205857,0.0189565,-0.0107832,0.0217059,-0.0233351,-1.32114,0.0260101,0.0436495,797,1457,-2.2972,-4.15827
-420,-433,-3.07953,4.32532,0,0,0,0,0,0,0,-1,804,1457,-3.07954,-4.32527
-413,-433,-2.18622,3.23621,0,0,0,0,0,0,0,-1,811,1457,-2.1862,-3.23626
-406,-433,-2.7959,2.9469,0,0,0,0,0,0,0,-1,818,1457,-2.79592,-2.94693
-399,-433,-1.23779,1.74207,0,0,0,0,0,0,0,-1,825,1457,-1.23782,-1.74211
-392,-433,-0.858398,1.59338,0,0,0,0,0,0,0,-1,832,1457,-0.858375,-1.59339
-385,-433,-1.65833,1.2821,0,0,0,0,0,0,0,-1,839,1457,-1.65834,-1.28209
-378,-433,0,0,0,0,0,0,0,0,0,-1,846,1457,0,0
-371,-433,0,0,0,0,0,0,0,0,0,-1,853,1457,0,0
-364,-433,0,0,0,0,0,0,0,0,0,-1,860,1457,0,0
-357,-433,0,0,0,0,0,0,0,0,0,-1,867,1457,0,0
-350,-433,0,0,0,0,0,0,0,0,0,-1,874,1457,0,0
-343,-433,0,0,0,0,0,0,0,0,0,-1,881,1457,0,0
-336,-433,0,0,0,0,0,0,0,0,0,-1,888,1457,0,0
-329,-433,0,0,0,0,0,0,0,0,0,-1,895,1457,0,0
-322,-433,0,0,0,0,0,0,0,0,0,-1,902,1457,0,0
-315,-433,0,0,0,0,0,0,0,0,0,-1,909,1457,0,0
-308,-433,0,0,0,0,0,0,0,0,0,-1,916,1457,0,0
-301,-433,0,0,0,0,0,0,0,0,0,-1,923,1457,0,0
-294,-433,0,0,0,0,0,0,0,0,0,-1,930,1457,0,0
-287,-433,0,0,0,0,0,0,0,0,0,-1,937,1457,0,0
-280,-433,0,0,0,0,0,0,0,0,0,-1,944,1457,0,0
-273,-433,0,0,0,0,0,0,0,0,0,-1,951,1457,0,0
-266,-433,0,0,0,0,0,0,0,0,0,-1,958,1457,0,0
-259,-433,0,0,0,0,0,0,0,0,0,-1,965,1457,0,0
-252,-433,0,0,0,0,0,0,0,0,0,-1,972,1457,0,0
-245,-433,0,0,0,0,0,0,0,0,0,-1,979,1457,0,0
-238,-433,0,0,0,0,0,0,0,0,0,-1,986,1457,0,0
-231,-433,0,0,0,0,0,0,0,0,0,-1,993,1457,0,0
-224,-433,0,0,0,0,0,0,0,0,0,-1,1000,1457,0,0
-217,-433,0,0,0,0,0,0,0,0,0,-1,1007,1457,0,0
-210,-433,0,0,0,0,0,0,0,0,0,-1,1014,1457,0,0
-203,-433,0,0,0,0,0,0,0,0,0,-1,1021,1457,0,0
-196,-433,0,0,0,0,0,0,0,0,0,-1,1028,1457,0,0
-189,-433,0,0,0,0,0,0,0,0,0,-1,1035,1457,0,0
-182,-433,0,0,0,0,0,0,0,0,0,-1,1042,1457,0,0
-175,-433,0,0,0,0,0,0,0,0,0,-1,1049,1457,0,0
-168,-433,0,0,0,0,0,0,0,0,0,-1,1056,1457,0,0
-161,-433,0,0,0,0,0,0,0,0,0,-1,1063,1457,0,0
-154,-433,0,0,0,0,0,0,0,0,0,-1,1070,1457,0,0
-147,-433,0,0,0,0,0,0,0,0,0,-1,1077,1457,0,0
-140,-433,0,0,0,0,0,0,0,0,0,-1,1084,1457,0,0
-133,-433,0,0,0,0,0,0,0,0,0,-1,1091,1457,0,0
-126,-433,0,0,0,0,0,0,0,0,0,-1,1098,1457,0,0
-119,-433,0,0,0,0,0,0,0,0,0,-1,1105,1457,0,0
-112,-433,0,0,0,0,0,0,0,0,0,-1,1112,1457,0,0
-105,-433,0,0,0,0,0,0,0,0,0,-1,1119,1457,0,0
-98,-433,0,0,0,0,0,0,0,0,0,-1,1126,1457,0,0
-91,-433,0,0,0,0,0,0,0,0,0,-1,1133,1457,0,0
-84,-433,0,0,0,0,0,0,0,0,0,-1,1140,1457,0,0
-77,-433,0,0,0,0,0,0,0,0,0,-1,1147,1457,0,0
-70,-433,0,0,0,0,0,0,0,0,0,-1,1154,1457,0,0
-63,-433,0,0,0,0,0,0,0,0,0,-1,1161,1457,0,0
-56,-433,0,0,0,0,0,0,0,0,0,-1,1168,1457,0,0
-49,-433,0,0,0,0,0,0,0,0,0,-1,1175,1457,0,0
-42,-433,0,0,0,0,0,0,0,0,0,-1,1182,1457,0,0
-35,-433,0,0,0,0,0,0,0,0,0,-1,1189,1457,0,0
-28,-433,0,0,0,0,0,0,0,0,0,-1,1196,1457,0,0
-21,-433,0,0,0,0,0,0,0,0,0,-1,1203,1457,0,0
-14,-433,0,0,0,0,0,0,0,0,0,-1,1210,1457,0,0
-7,-433,0,0,0,0,0,0,0,0,0,-1,1217,1457,0,0
0,-433,0,0,0,0,0,0,0,0,0,-1,1224,1457,0,0
7,-433,0,0,0,0,0,0,0,0,0,-1,1231,1457,0,0
14,-433,0,0,0,0,0,0,0,0,0,-1,1238,1457,0,0
21,-433,0,0,0,0,0,0,0,0,0,-1,1245,1457,0,0
28,-433,0,0,0,0,0,0,0,0,0,-1,1252,1457,0,0
35,-433,0,0,0,0,0,0,0,0,0,-1,1259,1457,0,0
42,-433,0,0,0,0,0,0,0,0,0,-1,1266,1457,0,0
49,-433,0,0,0,0,0,0,0,0,0,-1,1273,1457,0,0
56,-433,0,0,0,0,0,0,0,0,0,-1,1280,1457,0,0
63,-433,0,0,0,0,0,0,0,0,0,-1,1287,1457,0,0
70,-433,0,0,0,0,0,0,0,0,0,-1,1294,1457,0,0
77,-433,0,0,0,0,0,0,0,0,0,-1,1301,1457,0,0
84,-433,0,0,0,0,0,0,0,0,0,-1,1308,1457,0,0
91,-433,0,0,0,0,0,0,0,0,0,-1,1315,1457,0,0
98,-433,0,0,0,0,0,0,0,0,0,-1,1322,1457,0,0
105,-433,0,0,0,0,0,0,0,0,0,-1,1329,1457,0,0
112,-433,0,0,0,0,0,0,0,0,0,-1,1336,1457,0,0
119,-433,0,0,0,0,0,0,0,0,0,-1,1343,1457,0,0
126,-433,0,0,0,0,0,0,0,0,0,-1,1350,1457,0,0
133,-433,0,0,0,0,0,0,0,0,0,-1,1357,1457,0,0
140,-433,0,0,0,0,0,0,0,0,0,-1,1364,1457,0,0
147,-433,0,0,0,0,0,0,0,0,0,-1,1371,1457,0,0
154,-433,0,0,0,0,0,0,0,0,0,-1,1378,1457,0,0
161,-433,0,0,0,0,0,0,0,0,0,-1,1385,1457,0,0
168,-433,0,0,0,0,0,0,0,0,0,-1,1392,1457,0,0
175,-433,0,0,0,0,0,0,0,0,0,-1,1399,1457,0,0
182,-433,0,0,0,0,0,0,0,0,0,-1,1406,1457,0,0
189,-433,0,0,0,0,0,0,0,0,0,-1,1413,1457,0,0
196,-433,0,0,0,0,0,0,0,0,0,-1,1420,1457,0,0
203,-433,0,0,0,0,0,0,0,0,0,-1,1427,1457,0,0
210,-433,0,0,0,0,0,0,0,0,0,-1,1434,1457,0,0
217,-433,0,0,0,0,0,0,0,0,0,-1,1441,1457,0,0
224,-433,0,0,0,0,0,0,0,0,0,-1,1448,1457,0,0
231,-433,0,0,0,0,0,0,0,0,0,-1,1455,1457,0,0
238,-433,0,0,0,0,0,0,0,0,0,-1,1462,1457,0,0
245,-433,0,0,0,0,0,0,0,0,0,-1,1469,1457,0,0
252,-433,0,0,0,0,0,0,0,0,0,-1,1476,1457,0,0
259,-433,0,0,0,0,0,0,0,0,0,-1,1483,1457,0,0
266,-433,0,0,0,0,0,0,0,0,0,-1,1490,1457,0,0
273,-433,0,0,0,0,0,0,0,0,0,-1,1497,1457,0,0
280,-433,0,0,0,0,0,0,0,0,0,-1,1504,1457,0,0
287,-433,0,0,0,0,0,0,0,0,0,-1,1511,1457,0,0
294,-433,0,0,0,0,0,0,0,0,0,-1,1518,1457,0,0
301,-433,0,0,0,0,0,0,0,0,0,-1,1525,1457,0,0
308,-433,0,0,0,0,0,0,0,0,0,-1,1532,1457,0,0
315,-433,0,0,0,0,0,0,0,0,0,-1,1539,1457,0,0
322,-433,0,0,0,0,0,0,0,0,0,-1,1546,1457,0,0
329,-433,0,0,0,0,0,0,0,0,0,-1,1553,1457,0,0
336,-433,0,0,0,0,0,0,0,0,0,-1,1560,1457,0,0
343,-433,0,0,0,0,0,0,0,0,0,-1,1567,1457,0,0
350,-433,0,0,0,0,0,0,0,0,0,-1,1574,1457,0,0
357,-433,0,0,0,0,0,0,0,0,0,-1,1581,1457,0,0
364,-433,0,0,0,0,0,0,0,0,0,-1,1588,1457,0,0
371,-433,0,0,0,0,0,0,0,0,0,-1,1595,1457,0,0
378,-433,0,0,0,0,0,0,0,0,0,-1,1602,1457,0,0
385,-433,0,0,0,0,0,0,0,0,0,-1,1609,1457,0,0
392,-433,0,0,0,0,0,0,0,0,0,-1,1616,1457,0,0
399,-433,0,0,0,0,0,0,0,0,0,-1,1623,1457,0,0
406,-433,0,0,0,0,0,0,0,0,0,-1,1630,1457,0,0
413,-433,0,0,0,0,0,0,0,0,0,-1,1637,1457,0,0
420,-433,0,0,0,0,0,0,0,0,0,-1,1644,1457,0,0
427,-433,0,0,0,0,0,0,0,0,0,-1,1651,1457,0,0
434,-433,0,0,0,0,0,0,0,0,0,-1,1658,1457,0,0
441,-433,0,0,0,0,0,0,0,0,0,-1,1665,1457,0,0
448,-433,0,0,0,0,0,0,0,0,0,-1,1672,1457,0,0
455,-433,0,0,0,0,0,0,0,0,0,-1,1679,1457,0,0
462,-433,0,0,0,0,0,0,0,0,0,-1,1686,1457,0,0
469,-433,0,0,0,0,0,0,0,0,0,-1,1693,1457,0,0
476,-433,0,0,0,0,0,0,0,0,0,-1,1700,1457,0,0
483,-433,0,0,0,0,0,0,0,0,0,-1,1707,1457,0,0
490,-433,0,0,0,0,0,0,0,0,0,-1,1714,1457,0,0
497,-433,0,0,0,0,0,0,0,0,0,-1,1721,1457,0,0
504,-433,8.25146,0.177124,0,0,0,0,0,0,0,-1,1728,1457,8.25149,-0.17717
511,-433,7.59631,1.02136,0,0,0,0,0,0,0,-1,1735,1457,7.59626,-1.02133
518,-433,6.86816,2.11963,0,0,0,0,0,0,0,-1,1742,1457,6.86815,-2.11964
525,-433,6.30847,3.93994,0,0,0,0,0,0,0,-1,1749,1457,6.30845,-3.93988
532,-433,4.547,0.168335,0,0,0,0,0,0,0,-1,1756,1457,4.54698,-0.16834
539,-433,6.4231,3.3512,0,0,0,0,0,0,0,-1,1763,1457,6.42305,-3.35122
546,-433,6.65283,3.51306,0.0157226,-0.00544884,0.0313531,0.0382288,-0.0279551,0.622592,0.0383645,0.0490872,1770,1457,6.65284,-3.51309
553,-433,6.89099,3.71753,0.0152716,-0.00436316,0.0262403,0.0334709,-0.0225625,0.606393,0.0325546,0.0403577,1777,1457,6.89097,-3.71755
560,-433,7.14331,3.91394,0.0113509,-0.00398942,0.0216206,0.0266216,-0.0192601,0.614943,0.0266032,0.0409425,1784,1457,7.14333,-3.91389
567,-433,7.31812,3.99341,0,0,0,0,0,0,0,-1,1791,1457,7.31808,-3.99342
574,-433,6.64478,3.5603,0,0,0,0,0,0,0,-1,1798,1457,6.64478,-3.56029
581,-433,6.39917,3.46704,-0.000567512,-0.00367613,0.010352,0.00834623,-0.0125899,0.710882,0.0121699,0.0409397,1805,1457,6.39919,-3.46707
588,-433,6.17493,3.43713,-0.00242769,-0.00335871,0.00779754,0.00491823,-0.0107046,0.755584,0.00922378,0.0261103,1812,1457,6.17496,-3.4371
595,-433,6.1604,3.32593,-0.00342371,-0.00298434,0.0058301,0.00263021,-0.00903826,0.80423,0.00706732,0.0191404,1819,1457,6.16045,-3.32592
602,-433,6.18616,3.24243,-0.00436825,-0.0026793,0.0040881,0.000650636,-0.00769819,0.88725,0.00536218,0.0194519,1826,1457,6.18614,-3.24242
609,-433,6.17053,3.15308,-0.00454057,-0.00236799,0.00266645,-0.000575041,-0.00633351,0.978829,0.00404431,0.0152584,1833,1457,6.17058,-3.15303
616,-433,6.16833,3.08386,-0.00387333,-0.00199614,0.00140545,-0.00124468,-0.00462479,1.0798,0.00276337,0.0129329,1840,1457,6.16838,-3.08388
623,-433,6.17615,2.97888,-0.00198143,-0.000730244,0.000478786,-0.000568054,-0.00214362,1.24418,0.00128238,0.010555,1847,1457,6.17614,-2.97883
630,-433,6.1731,2.89819,0.000364885,0.000932116,-0.000672498,0.00137836,-8.1357e-05,-0.984949,0.000947189,0.0136961,1854,1457,6.17307,-2.89823
637,-433,6.17273,2.8291,0.0030917,0.00297615,-0.00210887,0.00514358,0.000924265,-0.771705,0.00316626,0.0138583,1861,1457,6.17271,-2.82914
644,-433,6.17297,2.74768,0.00584335,0.00498729,-0.0037362,0.00917596,0.00165468,-0.728365,0.00564714,0.0134473,1868,1457,6.17294,-2.74772
651,-433,6.17358,2.64539,0.0090713,0.00759903,-0.0059443,0.0143249,0.00234545,-0.723793,0.00887205,0.0109975,1875,1457,6.17356,-2.64544
658,-433,6.16321,2.51892,0.013771,0.010682,-0.00865199,0.0210153,0.00343777,-0.697072,0.0130165,0.0116837,1882,1457,6.16321,-2.51897
665,-433,6.12134,2.38281,0.0204078,0.0143971,-0.012767,0.0305184,0.00428648,-0.669803,0.019078,0.0179567,1889,1457,6.1213,-2.3828
672,-433,6.24316,2.29614,0.0292104,0.0193944,-0.0183393,0.0432871,0.00531768,-0.654651,0.027259,0.0359701,1896,1457,6.24316,-2.2961
679,-433,6.56567,2.14258,0.0403075,0.0246962,-0.0249036,0.0586001,0.0064037,-0.63353,0.0371168,0.0427528,1903,1457,6.5657,-2.14254
686,-433,7.47498,2.05872,0.0543868,0.0313035,-0.0334075,0.0781902,0.00750009,-0.619077,0.0498153,0.0449333,1910,1457,7.47498,-2.05871
693,-433,8.34619,2.35681,0,0,0,0,0,0,0,-1,1917,1457,8.34619,-2.35676
700,-433,8.01685,2.36401,0,0,0,0,0,0,0,-1,1924,1457,8.01682,-2.36406
707,-433,8.49915,2.29065,0,0,0,0,0,0,0,-1,1931,1457,8.49914,-2.29061
714,-433,0,0,0,0,0,0,0,0,0,-1,1938,1457,0,0
721,-433,0,0,0,0,0,0,0,0,0,-1,1945,1457,0,0
728,-433,0,0,0,0,0,0,0,0,0,-1,1952,1457,0,0
735,-433,0,0,0,0,0,0,0,0,0,-1,1959,1457,0,0
742,-433,0,0,0,0,0,0,0,0,0,-1,1966,1457,0,0
749,-433,0,0,0,0,0,0,0,0,0,-1,1973,1457,0,0
756,-433,0,0,0,0,0,0,0,0,0,-1,1980,1457,0,0
763,-433,0,0,0,0,0,0,0,0,0,-1,1987,1457,0,0
770,-433,0,0,0,0,0,0,0,0,0,-1,1994,1457,0,0
777,-433,0,0,0,0,0,0,0,0,0,-1,2001,1457,0,0
784,-433,0,0,0,0,0,0,0,0,0,-1,2008,1457,0,0
791,-433,0,0,0,0,0,0,0,0,0,-1,2015,1457,0,0
798,-433,0,0,0,0,0,0,0,0,0,-1,2022,1457,0,0
805,-433,0,0,0,0,0,0,0,0,0,-1,2029,1457,0,0
812,-433,0,0,0,0,0,0,0,0,0,-1,2036,1457,0,0
-700,-440,0,0,0,0,0,0,0,0,0,-1,524,1464,0,0
-693,-440,0,0,0,0,0,0,0,0,0,-1,531,1464,0,0
-686,-440,0,0,0,0,0,0,0,0,0,-1,538,1464,0,0
-679,-440,0,0,0,0,0,0,0,0,0,-1,545,1464,0,0
-672,-440,0,0,0,0,0,0,0,0,0,-1,552,1464,0,0
-665,-440,0,0,0,0,0,0,0,0,0,-1,559,1464,0,0
-658,-440,0,0,0,0,0,0,0,0,0,-1,566,1464,0,0
-651,-440,0,0,0,0,0,0,0,0,0,-1,573,1464,0,0
-644,-440,0,0,0,0,0,0,0,0,0,-1,580,1464,0,0
-637,-440,0,0,0,0,0,0,0,0,0,-1,587,1464,0,0
-630,-440,0,0,0,0,0,0,0,0,0,-1,594,1464,0,0
-623,-440,0,0,0,0,0,0,0,0,0,-1,601,1464,0,0
-616,-440,0,0,0,0,0,0,0,0,0,-1,608,1464,0,0
-609,-440,0,0,0,0,0,0,0,0,0,-1,615,1464,0,0
-602,-440,0,0,0,0,0,0,0,0,0,-1,622,1464,0,0
-595,-440,0,0,0,0,0,0,0,0,0,-1,629,1464,0,0
-588,-440,0,0,0,0,0,0,0,0,0,-1,636,1464,0,0
-581,-440,0.217285,-0.291626,0.0188296,-0.0283112,0.0665514,0.0658612,-0.0753429,0.615206,0.0815855,0.0499231,643,1464,0.217256,0.291606
-574,-440,0.296509,-0.300049,0.0183315,-0.00484985,0.0588626,0.0667337,-0.0532521,0.688186,0.0694195,0.0468154,650,1464,0.296481,0.3001
-567,-440,0.19519,-0.275391,0.0180957,0.00842735,0.0517919,0.0652786,-0.0387555,0.738864,0.0607113,0.0461334,657,1464,0.195205,0.275415
-560,-440,0.241394,0.0889893,0.0173378,0.0153563,0.0446571,0.0610151,-0.028321,0.774307,0.052717,0.0472542,664,1464,0.241422,-0.0889797
-553,-440,-0.297058,0.469238,0,0,0,0,0,0,0,-1,671,1464,-0.297064,-0.469286
-546,-440,0.480042,-0.35376,0,0,0,0,0,0,0,-1,678,1464,0.480066,0.353712
-539,-440,-0.33551,1.24805,0.0117719,0.0169701,0.0249442,0.0394502,-0.0107083,0.837309,0.0305027,0.0462972,685,1464,-0.335517,-1.24802
-532,-440,-0.228821,1.698,0.00952627,0.0146311,0.0193832,0.0316292,-0.00747179,0.850863,0.0239681,0.0341374,692,1464,-0.228816,-1.69796
-525,-440,-0.261536,1.92273,0.00725054,0.0138945,0.0143399,0.0252921,-0.00414711,0.89922,0.0184002,0.0140344,699,1464,-0.261507,-1.92269
-518,-440,-0.26709,1.98853,0.00545595,0.010051,0.00989692,0.0179136,-0.00240663,0.89945,0.0128201,0.0119982,706,1464,-0.267102,-1.98855
-511,-440,-0.253479,2.08606,0.00404074,0.00696341,0.00690418,0.0125592,-0.00155507,0.889688,0.00893638,0.0148064,713,1464,-0.253464,-2.08604
-504,-440,-0.254395,2.17273,0.00256868,0.00425736,0.00423328,0.00772968,-0.000903635,0.883833,0.00547923,0.0171621,720,1464,-0.2544,-2.17273
-497,-440,-0.264282,2.26587,0.00113482,0.00238835,0.0024375,0.00427838,-0.000755208,0.91124,0.00313446,0.019321,727,1464,-0.264298,-2.26581
-490,-440,-0.253784,2.35986,-0.000405989,0.000887137,0.00136056,0.00174695,-0.0012658,1.00721,0.00174679,0.0206903,734,1464,-0.253798,-2.35985
-483,-440,-0.242188,2.48938,-0.00242656,0.000756673,0.000445791,0.000817925,-0.00248781,1.43425,0.00198808,0.0190026,741,1464,-0.242184,-2.48938
-476,-440,-0.24469,2.58032,-0.00457256,0.000516321,-0.000216282,0.000525497,-0.00458174,-1.5284,0.00324388,0.0128169,748,1464,-0.244661,-2.58032
-469,-440,-0.244568,2.68835,-0.0068573,0.000800266,-0.000744522,0.000871982,-0.00692901,-1.47477,0.00493574,0.0122006,755,1464,-0.244597,-2.68831
-462,-440,-0.236694,2.81641,-0.00956052,0.0014263,-0.001088,0.00153301,-0.00966723,-1.47303,0.00701191,0.0131448,762,1464,-0.236679,-2.81646
-455,-440,-0.217529,2.91992,-0.0112983,0.00348123,-0.0024532,0.00387779,-0.0116948,-1.41053,0.00936082,0.0140393,769,1464,-0.21753,-2.9199
-448,-440,-0.138306,2.9552,-0.0124604,0.00557176,-0.00384886,0.00635892,-0.0132475,-1.36906,0.0115503,0.0227999,776,1464,-0.138311,-2.95523
-441,-440,-0.166565,3.02637,-0.0137048,0.00834042,-0.00557836,0.0096716,-0.015036,-1.33654,0.0143766,0.0367441,783,1464,-0.166593,-3.02633
-434,-440,-0.332092,3.22095,-0.0134984,0.0121077,-0.00787861,0.0143376,-0.0157283,-1.29497,0.0173648,0.04306,790,1464,-0.332093,-3.22096
-427,-440,-2.00446,4.69153,0,0,0,0,0,0,0,-1,797,1464,-2.00448,-4.69153
-420,-440,-0.906433,3.40283,0,0,0,0,0,0,0,-1,804,1464,-0.906461,-3.40278
-413,-440,-1.10547,3.51123,0,0,0,0,0,0,0,-1,811,1464,-1.10545,-3.51126
-406,-440,-1.146,2.34021,0,0,0,0,0,0,0,-1,818,1464,-1.14603,-2.34017
-399,-440,-0.690186,2.18909,0,0,0,0,0,0,0,-1,825,1464,-0.6902,-2.18909
-392,-440,-0.234375,2.03796,0,0,0,0,0,0,0,-1,832,1464,-0.234374,-2.038
-385,-440,6.70496,1.25854,0,0,0,0,0,0,0,-1,839,1464,6.70498,-1.25858
-378,-440,7.93719,1.35864,0,0,0,0,0,0,0,-1,846,1464,7.93722,-1.35859
-371,-440,0,0,0,0,0,0,0,0,0,-1,853,1464,0,0
-364,-440,0,0,0,0,0,0,0,0,0,-1,860,1464,0,0
-357,-440,0,0,0,0,0,0,0,0,0,-1,867,1464,0,0
-350,-440,0,0,0,0,0,0,0,0,0,-1,874,1464,0,0
-343,-440,0,0,0,0,0,0,0,0,0,-1,881,1464,0,0
-336,-440,0,0,0,0,0,0,0,0,0,-1,888,1464,0,0
-329,-440,0,0,0,0,0,0,0,0,0,-1,895,1464,0,0
-322,-440,0,0,0,0,0,0,0,0,0,-1,902,1464,0,0
-315,-440,0,0,0,0,0,0,0,0,0,-1,909,1464,0,0
-308,-440,0,0,0,0,0,0,0,0,0,-1,916,1464,0,0
-301,-440,0,0,0,0,0,0,0,0,0,-1,923,1464,0,0
-294,-440,0,0,0,0,0,0,0,0,0,-1,930,1464,0,0
-287,-440,0,0,0,0,0,0,0,0,0,-1,937,1464,0,0
-280,-440,0,0,0,0,0,0,0,0,0,-1,944,1464,0,0
-273,-440,0,0,0,0,0,0,0,0,0,-1,951,1464,0,0
-266,-440,0,0,0,0,0,0,0,0,0,-1,958,1464,0,0
-259,-440,0,0,0,0,0,0,0,0,0,-1,965,1464,0,0
-252,-440,0,0,0,0,0,0,0,0,0,-1,972,1464,0,0
-245,-440,0,0,0,0,0,0,0,0,0,-1,979,1464,0,0
-238,-440,0,0,0,0,0,0,0,0,0,-1,986,1464,0,0
-231,-440,0,0,0,0,0,0,0,0,0,-1,993,1464,0,0
-224,-440,0,0,0,0,0,0,0,0,0,-1,1000,1464,0,0
-217,-440,0,0,0,0,0,0,0,0,0,-1,1007,1464,0,0
-210,-440,0,0,0,0,0,0,0,0,0,-1,1014,1464,0,0
-203,-440,0,0,0,0,0,0,0,0,0,-1,1021,1464,0,0
-196,-440,0,0,0,0,0,0,0,0,0,-1,1028,1464,0,0
-189,-440,0,0,0,0,0,0,0,0,0,-1,1035,1464,0,0
-182,-440,0,0,0,0,0,0,0,0,0,-1,1042,1464,0,0
-175,-440,0,0,0,0,0,0,0,0,0,-1,1049,1464,0,0
-168,-440,0,0,0,0,0,0,0,0,0,-1,1056,1464,0,0
-161,-440,0,0,0,0,0,0,0,0,0,-1,1063,1464,0,0
-154,-440,0,0,0,0,0,0,0,0,0,-1,1070,1464,0,0
-147,-440,0,0,0,0,0,0,0,0,0,-1,1077,1464,0,0
-140,-440,0,0,0,0,0,0,0,0,0,-1,1084,1464,0,0
-133,-440,0,0,0,0,0,0,0,0,0,-1,1091,1464,0,0
-126,-440,0,0,0,0,0,0,0,0,0,-1,1098,1464,0,0
-119,-440,0,0,0,0,0,0,0,0,0,-1,1105,1464,0,0
-112,-440,0,0,0,0,0,0,0,0,0,-1,1112,1464,0,0
-105,-440,0,0,0,0,0,0,0,0,0,-1,1119,1464,0,0
-98,-440,0,0,0,0,0,0,0,0,0,-1,1126,1464,0,0
-91,-440,0,0,0,0,0,0,0,0,0,-1,1133,1464,0,0
-84,-440,0,0,0,0,0,0,0,0,0,-1,1140,1464,0,0
-77,-440,0,0,0,0,0,0,0,0,0,-1,1147,1464,0,0
-70,-440,0,0,0,0,0,0,0,0,0,-1,1154,1464,0,0
-63,-440,0,0,0,0,0,0,0,0,0,-1,1161,1464,0,0
-56,-440,0,0,0,0,0,0,0,0,0,-1,1168,1464,0,0
-49,-440,0,0,0,0,0,0,0,0,0,-1,1175,1464,0,0
-42,-440,0,0,0,0,0,0,0,0,0,-1,1182,1464,0,0
-35,-440,0,0,0,0,0,0,0,0,0,-1,1189,1464,0,0
-28,-440,0,0,0,0,0,0,0,0,0,-1,1196,1464,0,0
-21,-440,0,0,0,0,0,0,0,0,0,-1,1203,1464,0,0
-14,-440,0,0,0,0,0,0,0,0,0,-1,1210,1464,0,0
-7,-440,0,0,0,0,0,0,0,0,0,-1,1217,1464,0,0
0,-440,0,0,0,0,0,0,0,0,0,-1,1224,1464,0,0
7,-440,0,0,0,0,0,0,0,0,0,-1,1231,1464,0,0
14,-440,0,0,0,0,0,0,0,0,0,-1,1238,1464,0,0
21,-440,0,0,0,0,0,0,0,0,0,-1,1245,1464,0,0
28,-440,0,0,0,0,0,0,0,0,0,-1,1252,1464,0,0
35,-440,0,0,0,0,0,0,0,0,0,-1,1259,1464,0,0
42,-440,0,0,0,0,0,0,0,0,0,-1,1266,1464,0,0
49,-440,0,0,0,0,0,0,0,0,0,-1,1273,1464,0,0
56,-440,0,0,0,0,0,0,0,0,0,-1,1280,1464,0,0
63,-440,0,0,0,0,0,0,0,0,0,-1,1287,1464,0,0
70,-440,0,0,0,0,0,0,0,0,0,-1,1294,1464,0,0
77,-440,0,0,0,0,0,0,0,0,0,-1,1301,1464,0,0
84,-440,0,0,0,0,0,0,0,0,0,-1,1308,1464,0,0
91,-440,0,0,0,0,0,0,0,0,0,-1,1315,1464,0,0
98,-440,0,0,0,0,0,0,0,0,0,-1,1322,1464,0,0
105,-440,0,0,0,0,0,0,0,0,0,-1,1329,1464,0,0
112,-440,0,0,0,0,0,0,0,0,0,-1,1336,1464,0,0
119,-440,0,0,0,0,0,0,0,0,0,-1,1343,1464,0,0
126,-440,0,0,0,0,0,0,0,0,0,-1,1350,1464,0,0
133,-440,0,0,0,0,0,0,0,0,0,-1,1357,1464,0,0
140,-440,0,0,0,0,0,0,0,0,0,-1,1364,1464,0,0
147,-440,0,0,0,0,0,0,0,0,0,-1,1371,1464,0,0
154,-440,0,0,0,0,0,0,0,0,0,-1,1378,1464,0,0
161,-440,0,0,0,0,0,0,0,0,0,-1,1385,1464,0,0
168,-440,0,0,0,0,0,0,0,0,0,-1,1392,1464,0,0
175,-440,0,0,0,0,0,0,0,0,0,-1,1399,1464,0,0
182,-440,0,0,0,0,0,0,0,0,0,-1,1406,1464,0,0
189,-440,0,0,0,0,0,0,0,0,0,-1,1413,1464,0,0
196,-440,0,0,0,0,0,0,0,0,0,-1,1420,1464,0,0
203,-440,0,0,0,0,0,0,0,0,0,-1,1427,1464,0,0
210,-440,0,0,0,0,0,0,0,0,0,-1,1434,1464,0,0
217,-440,0,0,0,0,0,0,0,0,0,-1,1441,1464,0,0
224,-440,0,0,0,0,0,0,0,0,0,-1,1448,1464,0,0
231,-440,0,0,0,0,0,0,0,0,0,-1,1455,1464,0,0
238,-440,0,0,0,0,0,0,0,0,0,-1,1462,1464,0,0
245,-440,0,0,0,0,0,0,0,0,0,-1,1469,1464,0,0
252,-440,0,0,0,0,0,0,0,0,0,-1,1476,1464,0,0
259,-440,0,0,0,0,0,0,0,0,0,-1,1483,1464,0,0
266,-440,0,0,0,0,0,0,0,0,0,-1,1490,1464,0,0
273,-440,0,0,0,0,0,0,0,0,0,-1,1497,1464,0,0
280,-440,0,0,0,0,0,0,0,0,0,-1,1504,1464,0,0
287,-440,0,0,0,0,0,0,0,0,0,-1,1511,1464,0,0
294,-440,0,0,0,0,0,0,0,0,0,-1,1518,1464,0,0
301,-440,0,0,0,0,0,0,0,0,0,-1,1525,1464,0,0
308,-440,0,0,0,0,0,0,0,0,0,-1,1532,1464,0,0
315,-440,0,0,0,0,0,0,0,0,0,-1,1539,1464,0,0
322,-440,0,0,0,0,0,0,0,0,0,-1,1546,1464,0,0
329,-440,0,0,0,0,0,0,0,0,0,-1,1553,1464,0,0
336,-440,0,0,0,0,0,0,0,0,0,-1,1560,1464,0,0
343,-440,0,0,0,0,0,0,0,0,0,-1,1567,1464,0,0
350,-440,0,0,0,0,0,0,0,0,0,-1,1574,1464,0,0
357,-440,0,0,0,0,0,0,0,0,0,-1,1581,1464,0,0
364,-440,0,0,0,0,0,0,0,0,0,-1,1588,1464,0,0
371,-440,0,0,0,0,0,0,0,0,0,-1,1595,1464,0,0
378,-440,0,0,0,0,0,0,0,0,0,-1,1602,1464,0,0
385,-440,0,0,0,0,0,0,0,0,0,-1,1609,1464,0,0
392,-440,0,0,0,0,0,0,0,0,0,-1,1616,1464,0,0
399,-440,0,0,0,0,0,0,0,0,0,-1,1623,1464,0,0
406,-440,0,0,0,0,0,0,0,0,0,-1,1630,1464,0,0
413,-440,0,0,0,0,0,0,0,0,0,-1,1637,1464,0,0
420,-440,0,0,0,0,0,0,0,0,0,-1,1644,1464,0,0
427,-440,0,0,0,0,0,0,0,0,0,-1,1651,1464,0,0
434,-440,0,0,0,0,0,0,0,0,0,-1,1658,1464,0,0
441,-440,0,0,0,0,0,0,0,0,0,-1,1665,1464,0,0
448,-440,0,0,0,0,0,0,0,0,0,-1,1672,1464,0,0
455,-440,0,0,0,0,0,0,0,0,0,-1,1679,1464,0,0
462,-440,0,0,0,0,0,0,0,0,0,-1,1686,1464,0,0
469,-440,0,0,0,0,0,0,0,0,0,-1,1693,1464,0,0
476,-440,0,0,0,0,0,0,0,0,0,-1,1700,1464,0,0
483,-440,0,0,0,0,0,0,0,0,0,-1,1707,1464,0,0
490,-440,0,0,0,0,0,0,0,0,0,-1,1714,1464,0,0
497,-440,9.09106,0.10083,0,0,0,0,0,0,0,-1,1721,1464,9.0911,-0.100843
504,-440,8.01892,0.406616,0,0,0,0,0,0,0,-1,1728,1464,8.0189,-0.406677
511,-440,7.23438,1.34497,0,0,0,0,0,0,0,-1,1735,1464,7.23438,-1.34497
518,-440,6.60657,2.73328,0,0,0,0,0,0,0,-1,1742,1464,6.60655,-2.73327
525,-440,6.02258,4.4657,0,0,0,0,0,0,0,-1,1749,1464,6.02253,-4.46567
532,-440,5.50159,6.20569,0,0,0,0,0,0,0,-1,1756,1464,5.50161,-6.2057
539,-440,5.27344,4.61975,0,0,0,0,0,0,0,-1,1763,1464,5.27338,-4.61973
546,-440,5.70142,4.17273,0.0130682,-0.00830423,0.0269729,0.0313946,-0.0266306,0.596792,0.0335385,0.0489256,1770,1464,5.70143,-4.17271
553,-440,6.4873,3.57983,0.0143352,-0.00610445,0.0225904,0.02891,-0.0206792,0.572975,0.0287614,0.0393281,1777,1464,6.48726,-3.57982
560,-440,6.77844,3.65918,0.0122456,-0.00452522,0.0185817,0.0242463,-0.0165259,0.573442,0.0236801,0.0391591,1784,1464,6.77847,-3.65919
567,-440,6.2821,3.1532,0,0,0,0,0,0,0,-1,1791,1464,6.28214,-3.15326
574,-440,6.2356,3.32397,0.00495273,-0.0030713,0.0114917,0.0131126,-0.0112312,0.617451,0.0140689,0.0429849,1798,1464,6.23563,-3.32403
581,-440,6.14905,3.58398,0.00216514,-0.00256595,0.00869878,0.00881428,-0.00921509,0.652639,0.0104101,0.030164,1805,1464,6.14907,-3.58404
588,-440,6.11194,3.49304,0.000196285,-0.00215308,0.00644598,0.00557374,-0.00753054,0.69527,0.00759383,0.0201775,1812,1464,6.11189,-3.49309
595,-440,6.09045,3.36377,-0.00108897,-0.00184957,0.00472661,0.00327261,-0.00621116,0.745255,0.00556238,0.0168385,1819,1464,6.09045,-3.36375
602,-440,6.08594,3.23132,-0.00229436,-0.00167788,0.00321988,0.00124848,-0.00522072,0.833117,0.00396275,0.0173711,1826,1464,6.08591,-3.23135
609,-440,6.0874,3.1543,-0.00282881,-0.00147634,0.00193679,-0.000101131,-0.00420402,0.953359,0.00276959,0.0154279,1833,1464,6.08745,-3.1543
616,-440,6.10291,3.09851,-0.00257702,-0.00126898,0.000729819,-0.000943012,-0.00290299,1.15074,0.00170998,0.0162601,1840,1464,6.10291,-3.09849
623,-440,6.09729,2.99646,-0.00109847,-0.000109009,-0.000188868,-7.41843e-05,-0.0011333,-1.38846,0.000732058,0.0124248,1847,1464,6.09727,-2.99648
630,-440,6.07556,2.88,0.00101788,0.0015572,-0.00137508,0.00268882,-0.000113736,-0.882222,0.00183163,0.0106436,1854,1464,6.07558,-2.88004
637,-440,6.08167,2.82959,0.00361414,0.00362364,-0.00293265,0.00655154,0.000686241,-0.786208,0.00415787,0.0147131,1861,1464,6.08168,-2.82958
644,-440,6.09814,2.74927,0.00647486,0.00582576,-0.00474665,0.010908,0.00139258,-0.751264,0.00685514,0.0133542,1868,1464,6.09808,-2.74928
651,-440,6.10315,2.64221,0.010173,0.00885994,-0.00727219,0.0168182,0.00221469,-0.740381,0.0105517,0.0108494,1875,1464,6.10313,-2.64217
658,-440,6.08093,2.5293,0.0156034,0.0127453,-0.0104711,0.0247425,0.00360615,-0.717579,0.0154341,0.0129449,1882,1464,6.08095,-2.52928
665,-440,6.04785,2.35828,0.0232702,0.0175466,-0.0151947,0.0358702,0.00494658,-0.692317,0.022447,0.0281066,1889,1464,6.04787,-2.35832
672,-440,6.46606,1.72351,0.0334869,0.0239339,-0.0216051,0.0508372,0.00658359,-0.676607,0.031924,0.0421061,1896,1464,6.46604,-1.72351
679,-440,7.01697,1.38025,0.046262,0.0314118,-0.0292911,0.0690545,0.00861929,-0.661266,0.0434491,0.0439379,1903,1464,7.017,-1.38021
686,-440,7.41296,1.22351,0,0,0,0,0,0,0,-1,1910,1464,7.41297,-1.22357
693,-440,7.49036,1.94727,0,0,0,0,0,0,0,-1,1917,1464,7.49037,-1.94725
700,-440,4.34595,-0.404297,0,0,0,0,0,0,0,-1,1924,1464,4.346,0.404259
707,-440,0,0,0,0,0,0,0,0,0,-1,1931,1464,0,0
714,-440,0,0,0,0,0,0,0,0,0,-1,1938,1464,0,0
721,-440,0,0,0,0,0,0,0,0,0,-1,1945,1464,0,0
728,-440,0,0,0,0,0,0,0,0,0,-1,1952,1464,0,0
735,-440,0,0,0,0,0,0,0,0,0,-1,1959,1464,0,0
742,-440,0,0,0,0,0,0,0,0,0,-1,1966,1464,0,0
749,-440,0,0,0,0,0,0,0,0,0,-1,1973,1464,0,0
756,-440,0,0,0,0,0,0,0,0,0,-1,1980,1464,0,0
763,-440,0,0,0,0,0,0,0,0,0,-1,1987,1464,0,0
770,-440,0,0,0,0,0,0,0,0,0,-1,1994,1464,0,0
777,-440,0,0,0,0,0,0,0,0,0,-1,2001,1464,0,0
784,-440,0,0,0,0,0,0,0,0,0,-1,2008,1464,0,0
791,-440,0,0,0,0,0,0,0,0,0,-1,2015,1464,0,0
798,-440,0,0,0,0,0,0,0,0,0,-1,2022,1464,0,0
805,-440,0,0,0,0,0,0,0,0,0,-1,2029,1464,0,0
812,-440,0,0,0,0,0,0,0,0,0,-1,2036,1464,0,0
-700,-447,0,0,0,0,0,0,0,0,0,-1,524,1471,0,0
-693,-447,0,0,0,0,0,0,0,0,0,-1,531,1471,0,0
-686,-447,0,0,0,0,0,0,0,0,0,-1,538,1471,0,0
-679,-447,0,0,0,0,0,0,0,0,0,-1,545,1471,0,0
-672,-447,0,0,0,0,0,0,0,0,0,-1,552,1471,0,0
-665,-447,0,0,0,0,0,0,0,0,0,-1,559,1471,0,0
-658,-447,0,0,0,0,0,0,0,0,0,-1,566,1471,0,0
-651,-447,0,0,0,0,0,0,0,0,0,-1,573,1471,0,0
-644,-447,0,0,0,0,0,0,0,0,0,-1,580,1471,0,0
-637,-447,0,0,0,0,0,0,0,0,0,-1,587,1471,0,0
-630,-447,0,0,0,0,0,0,0,0,0,-1,594,1471,0,0
-623,-447,0,0,0,0,0,0,0,0,0,-1,601,1471,0,0
-616,-447,0,0,0,0,0,0,0,0,0,-1,608,1471,0,0
-609,-447,0,0,0,0,0,0,0,0,0,-1,615,1471,0,0
-602,-447,0,0,0,0,0,0,0,0,0,-1,622,1471,0,0
-595,-447,0,0,0,0,0,0,0,0,0,-1,629,1471,0,0
-588,-447,0,0,0,0,0,0,0,0,0,-1,636,1471,0,0
-581,-447,0.0176392,-0.699707,0,0,0,0,0,0,0,-1,643,1471,0.0176163,0.699646
-574,-447,-0.0546265,-0.503906,0.0350962,-0.0014869,0.0700392,0.0891929,-0.0555837,0.65767,0.0843343,0.0479326,650,1471,-0.0546141,0.503947
-567,-447,-0.119812,-0.311523,0.0371775,0.0108638,0.0643629,0.0897145,-0.0416732,0.684579,0.0775286,0.0441198,657,1471,-0.119795,0.311525
-560,-447,0.00726318,0.0458984,0.0371253,0.0167676,0.0574552,0.0852963,-0.0314034,0.697727,0.0697304,0.0450549,664,1471,0.00726368,-0.0459301
-553,-447,-0.129028,0.413208,0,0,0,0,0,0,0,-1,671,1471,-0.129004,-0.413263
-546,-447,-0.47699,0.830688,0,0,0,0,0,0,0,-1,678,1471,-0.476973,-0.83073
-539,-447,-0.50824,1.14832,0.0272685,0.0162162,0.0345878,0.0567688,-0.0132842,0.706181,0.042964,0.0497994,685,1471,-0.508227,-1.1483
-532,-447,-0.260437,1.37573,0.0224747,0.0136071,0.027344,0.045742,-0.00966018,0.705024,0.0341729,0.0443651,692,1471,-0.260445,-1.37577
-525,-447,-0.130188,1.94336,0.0177158,0.0128333,0.0207107,0.0361286,-0.0055796,0.726732,0.0261448,0.025972,699,1471,-0.13016,-1.94342
-518,-447,-0.155273,1.9873,0.0136138,0.00899855,0.014798,0.026283,-0.00367063,0.70805,0.018865,0.0159655,706,1471,-0.155275,-1.9873
-511,-447,-0.145264,2.08606,0.0099651,0.00609248,0.0103846,0.0185924,-0.00253483,0.693227,0.0133205,0.0145552,713,1471,-0.145294,-2.08605
-504,-447,-0.169373,2.17334,0.00669935,0.00345876,0.00658918,0.0118645,-0.00170642,0.664839,0.00853554,0.0179574,720,1471,-0.1694,-2.17336
-497,-447,-0.205811,2.26489,0.00383179,0.00174384,0.00392498,0.00684926,-0.00127362,0.655417,0.0050446,0.0224061,727,1471,-0.205825,-2.26494
-490,-447,-0.139404,2.35645,0.00101096,0.000359656,0.00186004,0.00257364,-0.00120302,0.698737,0.0022278,0.0231671,734,1471,-0.139414,-2.3565
-483,-447,-0.143005,2.46973,-0.00128961,0.000683584,0.000688624,0.00090014,-0.00150617,1.26611,0.00140389,0.0209511,741,1471,-0.143014,-2.46974
-476,-447,-0.139648,2.56665,-0.00317116,0.000464389,-6.39418e-05,0.000465513,-0.00317229,-1.55322,0.00228588,0.0142016,748,1471,-0.139659,-2.56671
-469,-447,-0.149536,2.69055,-0.00505162,0.00070278,-0.000631025,0.000771165,-0.00512,-1.46285,0.0036973,0.012841,755,1471,-0.149517,-2.6905
-462,-447,-0.146729,2.82532,-0.0070756,0.00126551,-0.000990974,0.00138162,-0.00719172,-1.45415,0.00531522,0.0117686,762,1471,-0.146727,-2.82538
-455,-447,-0.172424,2.92676,-0.00796235,0.0031836,-0.00240282,0.00367953,-0.00845828,-1.36726,0.00718653,0.0117589,769,1471,-0.172404,-2.92678
-448,-447,-0.150757,3.00671,-0.00822251,0.00500222,-0.00379139,0.00601206,-0.00923235,-1.31049,0.00886658,0.0158777,776,1471,-0.150745,-3.00675
-441,-447,-0.122192,3.09253,-0.00842946,0.00734097,-0.00546597,0.00905021,-0.0101387,-1.26773,0.0110847,0.0264906,783,1471,-0.122189,-3.09257
-434,-447,-0.112793,3.2533,-0.00721941,0.0104976,-0.00762493,0.0133272,-0.010049,-1.21545,0.0135405,0.0365988,790,1471,-0.112813,-3.25326
-427,-447,-0.296143,3.32764,-0.0042285,0.0146374,-0.0105965,0.0193912,-0.00898236,-1.14908,0.0167449,0.0401285,797,1471,-0.296142,-3.32767
-420,-447,-0.341309,3.3905,0.00159777,0.0197193,-0.0140726,0.0273958,-0.00607873,-1.07142,0.0205914,0.0434172,804,1471,-0.341323,-3.39047
-413,-447,-0.22644,3.56433,0,0,0,0,0,0,0,-1,811,1471,-0.226464,-3.56428
-406,-447,-0.934204,5.59717,0,0,0,0,0,0,0,-1,818,1471,-0.934207,-5.59717
-399,-447,1.14203,3.68384,0,0,0,0,0,0,0,-1,825,1471,1.14203,-3.68385
-392,-447,2.02466,3.53955,0,0,0,0,0,0,0,-1,832,1471,2.02467,-3.53961
-385,-447,3.02551,3.47607,0,0,0,0,0,0,0,-1,839,1471,3.0255,-3.47602
-378,-447,6.5293,1.50708,0,0,0,0,0,0,0,-1,846,1471,6.52927,-1.50709
-371,-447,7.32819,1.62622,0,0,0,0,0,0,0,-1,853,1471,7.3282,-1.62617
-364,-447,0,0,0,0,0,0,0,0,0,-1,860,1471,0,0
-357,-447,0,0,0,0,0,0,0,0,0,-1,867,1471,0,0
-350,-447,0,0,0,0,0,0,0,0,0,-1,874,1471,0,0
-343,-447,0,0,0,0,0,0,0,0,0,-1,881,1471,0,0
-336,-447,0,0,0,0,0,0,0,0,0,-1,888,1471,0,0
-329,-447,0,0,0,0,0,0,0,0,0,-1,895,1471,0,0
-322,-447,0,0,0,0,0,0,0,0,0,-1,902,1471,0,0
-315,-447,0,0,0,0,0,0,0,0,0,-1,909,1471,0,0
-308,-447,0,0,0,0,0,0,0,0,0,-1,916,1471,0,0
-301,-447,0,0,0,0,0,0,0,0,0,-1,923,1471,0,0
-294,-447,0,0,0,0,0,0,0,0,0,-1,930,1471,0,0
-287,-447,0,0,0,0,0,0,0,0,0,-1,937,1471,0,0
-280,-447,0,0,0,0,0,0,0,0,0,-1,944,1471,0,0
-273,-447,0,0,0,0,0,0,0,0,0,-1,951,1471,0,0
-266,-447,0,0,0,0,0,0,0,0,0,-1,958,1471,0,0
-259,-447,0,0,0,0,0,0,0,0,0,-1,965,1471,0,0
-252,-447,0,0,0,0,0,0,0,0,0,-1,972,1471,0,0
-245,-447,0,0,0,0,0,0,0,0,0,-1,979,1471,0,0
-238,-447,0,0,0,0,0,0,0,0,0,-1,986,1471,0,0
-231,-447,0,0,0,0,0,0,0,0,0,-1,993,1471,0,0
-224,-447,0,0,0,0,0,0,0,0,0,-1,1000,1471,0,0
-217,-447,0,0,0,0,0,0,0,0,0,-1,1007,1471,0,0
-210,-447,0,0,0,0,0,0,0,0,0,-1,1014,1471,0,0
-203,-447,0,0,0,0,0,0,0,0,0,-1,1021,1471,0,0
-196,-447,0,0,0,0,0,0,0,0,0,-1,1028,1471,0,0
-189,-447,0,0,0,0,0,0,0,0,0,-1,1035,1471,0,0
-182,-447,0,0,0,0,0,0,0,0,0,-1,1042,1471,0,0
-175,-447,0,0,0,0,0,0,0,0,0,-1,1049,1471,0,0
-168,-447,0,0,0,0,0,0,0,0,0,-1,1056,1471,0,0
-161,-447,0,0,0,0,0,0,0,0,0,-1,1063,1471,0,0
-154,-447,0,0,0,0,0,0,0,0,0,-1,1070,1471,0,0
-147,-447,0,0,0,0,0,0,0,0,0,-1,1077,1471,0,0
-140,-447,0,0,0,0,0,0,0,0,0,-1,1084,1471,0,0
-133,-447,0,0,0,0,0,0,0,0,0,-1,1091,1471,0,0
-126,-447,0,0,0,0,0,0,0,0,0,-1,1098,1471,0,0
-119,-447,0,0,0,0,0,0,0,0,0,-1,1105,1471,0,0
-112,-447,0,0,0,0,0,0,0,0,0,-1,1112,1471,0,0
-105,-447,0,0,0,0,0,0,0,0,0,-1,1119,1471,0,0
-98,-447,0,0,0,0,0,0,0,0,0,-1,1126,1471,0,0
-91,-447,0,0,0,0,0,0,0,0,0,-1,1133,1471,0,0
-84,-447,0,0,0,0,0,0,0,0,0,-1,1140,1471,0,0
-77,-447,0,0,0,0,0,0,0,0,0,-1,1147,1471,0,0
-70,-447,0,0,0,0,0,0,0,0,0,-1,1154,1471,0,0
-63,-447,0,0,0,0,0,0,0,0,0,-1,1161,1471,0,0
-56,-447,0,0,0,0,0,0,0,0,0,-1,1168,1471,0,0
-49,-447,0,0,0,0,0,0,0,0,0,-1,1175,1471,0,0
-42,-447,0,0,0,0,0,0,0,0,0,-1,1182,1471,0,0
-35,-447,0,0,0,0,0,0,0,0,0,-1,1189,1471,0,0
-28,-447,0,0,0,0,0,0,0,0,0,-1,1196,1471,0,0
-21,-447,0,0,0,0,0,0,0,0,0,-1,1203,1471,0,0
-14,-447,0,0,0,0,0,0,0,0,0,-1,1210,1471,0,0
-7,-447,0,0,0,0,0,0,0,0,0,-1,1217,1471,0,0
0,-447,0,0,0,0,0,0,0,0,0,-1,1224,1471,0,0
7,-447,0,0,0,0,0,0,0,0,0,-1,1231,1471,0,0
14,-447,0,0,0,0,0,0,0,0,0,-1,1238,1471,0,0
21,-447,0,0,0,0,0,0,0,0,0,-1,1245,1471,0,0
28,-447,0,0,0,0,0,0,0,0,0,-1,1252,1471,0,0
35,-447,0,0,0,0,0,0,0,0,0,-1,1259,1471,0,0
42,-447,0,0,0,0,0,0,0,0,0,-1,1266,1471,0,0
49,-447,0,0,0,0,0,0,0,0,0,-1,1273,1471,0,0
56,-447,0,0,0,0,0,0,0,0,0,-1,1280,1471,0,0
63,-447,0,0,0,0,0,0,0,0,0,-1,1287,1471,0,0
70,-447,0,0,0,0,0,0,0,0,0,-1,1294,1471,0,0
77,-447,0,0,0,0,0,0,0,0,0,-1,1301,1471,0,0
84,-447,0,0,0,0,0,0,0,0,0,-1,1308,1471,0,0
91,-447,0,0,0,0,0,0,0,0,0,-1,1315,1471,0,0
98,-447,0,0,0,0,0,0,0,0,0,-1,1322,1471,0,0
105,-447,0,0,0,0,0,0,0,0,0,-1,1329,1471,0,0
112,-447,0,0,0,0,0,0,0,0,0,-1,1336,1471,0,0
119,-447,0,0,0,0,0,0,0,0,0,-1,1343,1471,0,0
126,-447,0,0,0,0,0,0,0,0,0,-1,1350,1471,0,0
133,-447,0,0,0,0,0,0,0,0,0,-1,1357,1471,0,0
140,-447,0,0,0,0,0,0,0,0,0,-1,1364,1471,0,0
147,-447,0,0,0,0,0,0,0,0,0,-1,1371,1471,0,0
154,-447,0,0,0,0,0,0,0,0,0,-1,1378,1471,0,0
161,-447,0,0,0,0,0,0,0,0,0,-1,1385,1471,0,0
168,-447,0,0,0,0,0,0,0,0,0,-1,1392,1471,0,0
175,-447,0,0,0,0,0,0,0,0,0,-1,1399,1471,0,0
182,-447,0,0,0,0,0,0,0,0,0,-1,1406,1471,0,0
189,-447,0,0,0,0,0,0,0,0,0,-1,1413,1471,0,0
196,-447,0,0,0,0,0,0,0,0,0,-1,1420,1471,0,0
203,-447,0,0,0,0,0,0,0,0,0,-1,1427,1471,0,0
210,-447,0,0,0,0,0,0,0,0,0,-1,1434,1471,0,0
217,-447,0,0,0,0,0,0,0,0,0,-1,1441,1471,0,0
224,-447,0,0,0,0,0,0,0,0,0,-1,1448,1471,0,0
231,-447,0,0,0,0,0,0,0,0,0,-1,1455,1471,0,0
238,-447,0,0,0,0,0,0,0,0,0,-1,1462,1471,0,0
245,-447,0,0,0,0,0,0,0,0,0,-1,1469,1471,0,0
252,-447,0,0,0,0,0,0,0,0,0,-1,1476,1471,0,0
259,-447,0,0,0,0,0,0,0,0,0,-1,1483,1471,0,0
266,-447,0,0,0,0,0,0,0,0,0,-1,1490,1471,0,0
273,-447,0,0,0,0,0,0,0,0,0,-1,1497,1471,0,0
280,-447,0,0,0,0,0,0,0,0,0,-1,1504,1471,0,0
287,-447,0,0,0,0,0,0,0,0,0,-1,1511,1471,0,0
294,-447,0,0,0,0,0,0,0,0,0,-1,1518,1471,0,0
301,-447,0,0,0,0,0,0,0,0,0,-1,1525,1471,0,0
308,-447,0,0,0,0,0,0,0,0,0,-1,1532,1471,0,0
315,-447,0,0,0,0,0,0,0,0,0,-1,1539,1471,0,0
322,-447,0,0,0,0,0,0,0,0,0,-1,1546,1471,0,0
329,-447,0,0,0,0,0,0,0,0,0,-1,1553,1471,0,0
336,-447,0,0,0,0,0,0,0,0,0,-1,1560,1471,0,0
343,-447,0,0,0,0,0,0,0,0,0,-1,1567,1471,0,0
350,-447,0,0,0,0,0,0,0,0,0,-1,1574,1471,0,0
357,-447,0,0,0,0,0,0,0,0,0,-1,1581,1471,0,0
364,-447,0,0,0,0,0,0,0,0,0,-1,1588,1471,0,0
371,-447,0,0,0,0,0,0,0,0,0,-1,1595,1471,0,0
378,-447,0,0,0,0,0,0,0,0,0,-1,1602,1471,0,0
385,-447,0,0,0,0,0,0,0,0,0,-1,1609,1471,0,0
392,-447,0,0,0,0,0,0,0,0,0,-1,1616,1471,0,0
399,-447,0,0,0,0,0,0,0,0,0,-1,1623,1471,0,0
406,-447,0,0,0,0,0,0,0,0,0,-1,1630,1471,0,0
413,-447,0,0,0,0,0,0,0,0,0,-1,1637,1471,0,0
420,-447,0,0,0,0,0,0,0,0,0,-1,1644,1471,0,0
427,-447,0,0,0,0,0,0,0,0,0,-1,1651,1471,0,0
434,-447,0,0,0,0,0,0,0,0,0,-1,1658,1471,0,0
441,-447,0,0,0,0,0,0,0,0,0,-1,1665,1471,0,0
448,-447,0,0,0,0,0,0,0,0,0,-1,1672,1471,0,0
455,-447,0,0,0,0,0,0,0,0,0,-1,1679,1471,0,0
462,-447,0,0,0,0,0,0,0,0,0,-1,1686,1471,0,0
469,-447,0,0,0,0,0,0,0,0,0,-1,1693,1471,0,0
476,-447,0,0,0,0,0,0,0,0,0,-1,1700,1471,0,0
483,-447,0,0,0,0,0,0,0,0,0,-1,1707,1471,0,0
490,-447,8.47473,-1.08398,0,0,0,0,0,0,0,-1,1714,1471,8.47468,1.08399
497,-447,9.45862,-3.11743,0,0,0,0,0,0,0,-1,1721,1471,9.45856,3.11738
504,-447,7.5332,0.5,0,0,0,0,0,0,0,-1,1728,1471,7.53319,-0.49995
511,-447,6.78589,1.79907,0,0,0,0,0,0,0,-1,1735,1471,6.78588,-1.79906
518,-447,6.34485,3.03271,0,0,0,0,0,0,0,-1,1742,1471,6.34482,-3.03269
525,-447,6.1698,4.24585,0,0,0,0,0,0,0,-1,1749,1471,6.16983,-4.2459
532,-447,6.89795,4.03809,0,0,0,0,0,0,0,-1,1756,1471,6.89792,-4.0381
539,-447,5.30823,4.46008,0,0,0,0,0,0,0,-1,1763,1471,5.30818,-4.46006
546,-447,5.64111,3.99292,0.00962135,-0.0111756,0.0225491,0.0240541,-0.0256083,0.569354,0.0286773,0.0446781,1770,1471,5.64108,-3.99289
553,-447,5.92603,3.50024,0.0120405,-0.00812811,0.0188372,0.0233228,-0.0194104,0.539639,0.0247065,0.0415008,1777,1471,5.92597,-3.50023
560,-447,6.271,3.56543,0.0114307,-0.0054715,0.0154744,0.0206113,-0.0146522,0.535464,0.020456,0.0412523,1784,1471,6.27105,-3.56545
567,-447,6.18262,3.51196,0.00903947,-0.00377809,0.0122945,0.0164953,-0.0112339,0.545138,0.0161053,0.0364055,1791,1471,6.18265,-3.51192
574,-447,6.02197,3.54602,0.00592852,-0.0027101,0.00953713,0.0120788,-0.00886042,0.572769,0.0121368,0.0210848,1798,1471,6.02201,-3.54608
581,-447,6.02783,3.54041,0.0034479,-0.00193773,0.00716999,0.00841407,-0.0069039,0.605764,0.00885815,0.0115671,1805,1471,6.02778,-3.54035
588,-447,6.03564,3.44934,0.0015324,-0.00138205,0.00530227,0.00557405,-0.00542369,0.651294,0.00634975,0.0122662,1812,1471,6.03561,-3.44935
595,-447,6.00891,3.33997,0.000170427,-0.00109387,0.00389574,0.00348497,-0.00440842,0.704966,0.00456764,0.0113776,1819,1471,6.00893,-3.33997
602,-447,6.01575,3.23169,-0.00108482,-0.000996586,0.00266762,0.00162728,-0.00370869,0.793667,0.00315788,0.0101832,1826,1471,6.0158,-3.23168
609,-447,6.02234,3.16394,-0.00175239,-0.000826087,0.00156544,0.000343277,-0.00292175,0.929225,0.00207176,0.0115118,1833,1471,6.02233,-3.16392
616,-447,6.03784,3.07874,-0.0017027,-0.000691817,0.000456705,-0.000516046,-0.00187847,1.2034,0.00112063,0.0144395,1840,1471,6.03782,-3.07871
623,-447,6.00977,2.99316,-0.000494929,0.000415816,-0.000446429,0.000598144,-0.000677258,-1.18306,0.000736826,0.0161407,1847,1471,6.00974,-2.99315
630,-447,6.01147,2.89917,0.00147206,0.00211914,-0.00166373,0.00349049,0.000100703,-0.881432,0.00229417,0.00875207,1854,1471,6.01144,-2.89912
637,-447,6.01599,2.80579,0.00400185,0.00422848,-0.00333552,0.00745261,0.000777718,-0.802377,0.00473052,0.00916363,1861,1471,6.01595,-2.80581
644,-447,6.02136,2.72229,0.0070355,0.00664471,-0.00534856,0.0121922,0.00148797,-0.76714,0.00768036,0.00944506,1868,1471,6.02131,-2.72233
651,-447,6.03821,2.63513,0.0111749,0.0100586,-0.00820412,0.0188398,0.00239367,-0.751432,0.0118429,0.0146665,1875,1471,6.03819,-2.6351
658,-447,5.99768,2.56128,0.017234,0.0147101,-0.0119483,0.0279868,0.00395726,-0.732785,0.0174886,0.0245308,1882,1471,5.99767,-2.56127
665,-447,5.92261,2.4082,0.0258082,0.0206179,-0.0173355,0.0407417,0.00568435,-0.7111,0.0254786,0.0428439,1889,1471,5.92264,-2.40821
672,-447,6.30945,1.03613,0.0372268,0.0284417,-0.0246044,0.0578277,0.00784083,-0.697065,0.0362222,0.048856,1896,1471,6.30942,-1.03609
679,-447,7.16614,0.778809,0.0515229,0.0377962,-0.0336527,0.079005,0.0103141,-0.684805,0.0495908,0.0495471,1903,1471,7.16617,-0.778781
686,-447,7.47559,0.7052,0,0,0,0,0,0,0,-1,1910,1471,7.4756,-0.705196
693,-447,7.9137,0.49292,0,0,0,0,0,0,0,-1,1917,1471,7.91365,-0.492942
700,-447,0,0,0,0,0,0,0,0,0,-1,1924,1471,0,0
707,-447,0,0,0,0,0,0,0,0,0,-1,1931,1471,0,0
714,-447,0,0,0,0,0,0,0,0,0,-1,1938,1471,0,0
721,-447,0,0,0,0,0,0,0,0,0,-1,1945,1471,0,0
728,-447,0,0,0,0,0,0,0,0,0,-1,1952,1471,0,0
735,-447,0,0,0,0,0,0,0,0,0,-1,1959,1471,0,0
742,-447,0,0,0,0,0,0,0,0,0,-1,1966,1471,0,0
749,-447,0,0,0,0,0,0,0,0,0,-1,1973,1471,0,0
756,-447,0,0,0,0,0,0,0,0,0,-1,1980,1471,0,0
763,-447,0,0,0,0,0,0,0,0,0,-1,1987,1471,0,0
770,-447,0,0,0,0,0,0,0,0,0,-1,1994,1471,0,0
777,-447,0,0,0,0,0,0,0,0,0,-1,2001,1471,0,0
784,-447,0,0,0,0,0,0,0,0,0,-1,2008,1471,0,0
791,-447,0,0,0,0,0,0,0,0,0,-1,2015,1471,0,0
798,-447,0,0,0,0,0,0,0,0,0,-1,2022,1471,0,0
805,-447,0,0,0,0,0,0,0,0,0,-1,2029,1471,0,0
812,-447,0,0,0,0,0,0,0,0,0,-1,2036,1471,0,0
-700,-454,0,0,0,0,0,0,0,0,0,-1,524,1478,0,0
-693,-454,0,0,0,0,0,0,0,0,0,-1,531,1478,0,0
-686,-454,0,0,0,0,0,0,0,0,0,-1,538,1478,0,0
-679,-454,0,0,0,0,0,0,0,0,0,-1,545,1478,0,0
-672,-454,0,0,0,0,0,0,0,0,0,-1,552,1478,0,0
-665,-454,0,0,0,0,0,0,0,0,0,-1,559,1478,0,0
-658,-454,0,0,0,0,0,0,0,0,0,-1,566,1478,0,0
-651,-454,0,0,0,0,0,0,0,0,0,-1,573,1478,0,0
-644,-454,0,0,0,0,0,0,0,0,0,-1,580,1478,0,0
-637,-454,0,0,0,0,0,0,0,0,0,-1,587,1478,0,0
-630,-454,0,0,0,0,0,0,0,0,0,-1,594,1478,0,0
-623,-454,0,0,0,0,0,0,0,0,0,-1,601,1478,0,0
-616,-454,0,0,0,0,0,0,0,0,0,-1,608,1478,0,0
-609,-454,0,0,0,0,0,0,0,0,0,-1,615,1478,0,0
-602,-454,0,0,0,0,0,0,0,0,0,-1,622,1478,0,0
-595,-454,0,0,0,0,0,0,0,0,0,-1,629,1478,0,0
-588,-454,0,0,0,0,0,0,0,0,0,-1,636,1478,0,0
-581,-454,0,0,0,0,0,0,0,0,0,-1,643,1478,0,0
-574,-454,-0.487671,-1.01929,0.0548428,0.0024765,0.0807596,0.113558,-0.0562383,0.628639,0.0998763,0.0489183,650,1478,-0.487683,1.01934
-567,-454,-0.321716,-0.539551,0.0560652,0.0126959,0.074515,0.111987,-0.0432256,0.643803,0.0924966,0.0440171,657,1478,-0.321693,0.539502
-560,-454,-0.19342,0.0186768,0.0547209,0.016884,0.066625,0.105061,-0.0334565,0.647062,0.0834592,0.0433025,664,1478,-0.193421,-0.0186775
-553,-454,0.0390625,0.3573,0,0,0,0,0,0,0,-1,671,1478,0.0390553,-0.357241
-546,-454,-0.420959,0.982544,0,0,0,0,0,0,0,-1,678,1478,-0.420947,-0.982524
-539,-454,-0.236877,0.826416,0.0394588,0.0136216,0.0402746,0.068836,-0.0157556,0.630201,0.0519452,0.0471929,685,1478,-0.236861,-0.826394
-532,-454,-0.174866,0.862915,0.0326804,0.0108232,0.0319164,0.0554874,-0.0119839,0.620448,0.0415661,0.0403945,692,1478,-0.17484,-0.862971
-525,-454,-0.138,1.73694,0.0260664,0.0100532,0.0243309,0.0436742,-0.00755464,0.626443,0.0319336,0.0363676,699,1478,-0.138009,-1.73699
-518,-454,-0.0531616,2.05664,0.0202603,0.00648377,0.0175933,0.0322657,-0.00552164,0.598807,0.0235676,0.0235523,706,1478,-0.0531894,-2.05663
-511,-454,-0.0518799,2.07996,0.0149388,0.00403115,0.0123538,0.0229891,-0.00401914,0.577529,0.0168266,0.0140363,713,1478,-0.0518772,-2.08002
-504,-454,-0.0322266,2.16541,0.0102694,0.00167404,0.00789413,0.0149599,-0.00301646,0.536126,0.011116,0.0145599,720,1478,-0.0322356,-2.16538
-497,-454,-0.0556641,2.26685,0.00625561,0.000331833,0.00474724,0.00888918,-0.00230173,0.506488,0.00682401,0.0181469,727,1478,-0.0556672,-2.26679
-490,-454,-0.0426025,2.38696,0.00244994,-0.000702618,0.00211486,0.00351132,-0.001764,0.465144,0.0031009,0.0175085,734,1478,-0.042611,-2.38694
-483,-454,-0.0484009,2.4873,-0.000121274,0.000209411,0.000833884,0.000894187,-0.00080605,0.883269,0.000982071,0.0155699,741,1478,-0.0483895,-2.48732
-476,-454,-0.053894,2.56982,-0.0018621,0.000128016,4.69207e-05,0.000129121,-0.0018632,1.54724,0.00128733,0.0134754,748,1478,-0.0539012,-2.56983
-469,-454,-0.0390015,2.7085,-0.00348411,0.000383068,-0.000499884,0.00044664,-0.00354768,-1.4443,0.00252719,0.01014,755,1478,-0.039006,-2.70847
-462,-454,-0.0603638,2.81958,-0.00501461,0.000937014,-0.000829685,0.00105051,-0.00512811,-1.43484,0.0038174,0.00940486,762,1478,-0.0603604,-2.81964
-455,-454,-0.0715942,2.91772,-0.00531612,0.00267553,-0.00220486,0.00324348,-0.00588407,-1.31869,0.00534279,0.0102451,769,1478,-0.0715903,-2.91778
-448,-454,-0.0749512,3.00281,-0.00500424,0.00421539,-0.00351105,0.00540022,-0.00618907,-1.24534,0.00669624,0.0116056,776,1478,-0.074941,-3.00281
-441,-454,0.00408936,3.08887,-0.00455666,0.00613057,-0.00503965,0.00813218,-0.00655827,-1.19273,0.00849775,0.0209439,783,1478,0.00409969,-3.0889
-434,-454,0.10083,3.125,-0.00280598,0.008686,-0.00695972,0.0119652,-0.00608519,-1.13048,0.0106041,0.0311829,790,1478,0.100859,-3.12503
-427,-454,0.173828,3.07129,0.000476361,0.0120353,-0.00957758,0.0174421,-0.00493042,-1.05687,0.0135734,0.0407062,797,1478,0.173836,-3.07124
-420,-454,0.218811,3.10559,0.00622792,0.0161161,-0.0125698,0.0246792,-0.00233512,-0.972771,0.0172838,0.0467129,804,1478,0.218794,-3.10554
-413,-454,0.289429,3.10266,0,0,0,0,0,0,0,-1,811,1478,0.28943,-3.10271
-406,-454,-0.345154,5.02136,0.0285168,0.0458755,-0.0139771,0.0536488,0.0207434,-1.06325,0.0312383,0.0475881,818,1478,-0.34513,-5.02137
-399,-454,0.868164,3.65161,0.0433001,0.0712773,-0.0124035,0.0759844,0.0385931,-1.20809,0.0438714,0.043719,825,1478,0.868163,-3.65167
-392,-454,1.76569,3.50842,0,0,0,0,0,0,0,-1,832,1478,1.76568,-3.50848
-385,-454,2.73682,3.45728,0,0,0,0,0,0,0,-1,839,1478,2.73679,-3.45727
-378,-454,3.80048,3.42151,0,0,0,0,0,0,0,-1,846,1478,3.80046,-3.4215
-371,-454,1.25891,1.51331,0,0,0,0,0,0,0,-1,853,1478,1.25891,-1.51328
-364,-454,1.08124,0.819458,0,0,0,0,0,0,0,-1,860,1478,1.08124,-0.819513
-357,-454,0,0,0,0,0,0,0,0,0,-1,867,1478,0,0
-350,-454,0,0,0,0,0,0,0,0,0,-1,874,1478,0,0
-343,-454,0,0,0,0,0,0,0,0,0,-1,881,1478,0,0
-336,-454,0,0,0,0,0,0,0,0,0,-1,888,1478,0,0
-329,-454,0,0,0,0,0,0,0,0,0,-1,895,1478,0,0
-322,-454,0,0,0,0,0,0,0,0,0,-1,902,1478,0,0
-315,-454,0,0,0,0,0,0,0,0,0,-1,909,1478,0,0
-308,-454,0,0,0,0,0,0,0,0,0,-1,916,1478,0,0
-301,-454,0,0,0,0,0,0,0,0,0,-1,923,1478,0,0
-294,-454,0,0,0,0,0,0,0,0,0,-1,930,1478,0,0
-287,-454,0,0,0,0,0,0,0,0,0,-1,937,1478,0,0
-280,-454,0,0,0,0,0,0,0,0,0,-1,944,1478,0,0
-273,-454,0,0,0,0,0,0,0,0,0,-1,951,1478,0,0
-266,-454,0,0,0,0,0,0,0,0,0,-1,958,1478,0,0
-259,-454,0,0,0,0,0,0,0,0,0,-1,965,1478,0,0
-252,-454,0,0,0,0,0,0,0,0,0,-1,972,1478,0,0
-245,-454,0,0,0,0,0,0,0,0,0,-1,979,1478,0,0
-238,-454,0,0,0,0,0,0,0,0,0,-1,986,1478,0,0
-231,-454,0,0,0,0,0,0,0,0,0,-1,993,1478,0,0
-224,-454,0,0,0,0,0,0,0,0,0,-1,1000,1478,0,0
-217,-454,0,0,0,0,0,0,0,0,0,-1,1007,1478,0,0
-210,-454,0,0,0,0,0,0,0,0,0,-1,1014,1478,0,0
-203,-454,0,0,0,0,0,0,0,0,0,-1,1021,1478,0,0
-196,-454,0,0,0,0,0,0,0,0,0,-1,1028,1478,0,0
-189,-454,0,0,0,0,0,0,0,0,0,-1,1035,1478,0,0
-182,-454,0,0,0,0,0,0,0,0,0,-1,1042,1478,0,0
-175,-454,0,0,0,0,0,0,0,0,0,-1,1049,1478,0,0
-168,-454,0,0,0,0,0,0,0,0,0,-1,1056,1478,0,0
-161,-454,0,0,0,0,0,0,0,0,0,-1,1063,1478,0,0
-154,-454,0,0,0,0,0,0,0,0,0,-1,1070,1478,0,0
-147,-454,0,0,0,0,0,0,0,0,0,-1,1077,1478,0,0
-140,-454,0,0,0,0,0,0,0,0,0,-1,1084,1478,0,0
-133,-454,0,0,0,0,0,0,0,0,0,-1,1091,1478,0,0
-126,-454,0,0,0,0,0,0,0,0,0,-1,1098,1478,0,0
-119,-454,0,0,0,0,0,0,0,0,0,-1,1105,1478,0,0
-112,-454,0,0,0,0,0,0,0,0,0,-1,1112,1478,0,0
-105,-454,0,0,0,0,0,0,0,0,0,-1,1119,1478,0,0
-98,-454,0,0,0,0,0,0,0,0,0,-1,1126,1478,0,0
-91,-454,0,0,0,0,0,0,0,0,0,-1,1133,1478,0,0
-84,-454,0,0,0,0,0,0,0,0,0,-1,1140,1478,0,0
-77,-454,0,0,0,0,0,0,0,0,0,-1,1147,1478,0,0
-70,-454,0,0,0,0,0,0,0,0,0,-1,1154,1478,0,0
-63,-454,0,0,0,0,0,0,0,0,0,-1,1161,1478,0,0
-56,-454,0,0,0,0,0,0,0,0,0,-1,1168,1478,0,0
-49,-454,0,0,0,0,0,0,0,0,0,-1,1175,1478,0,0
-42,-454,0,0,0,0,0,0,0,0,0,-1,1182,1478,0,0
-35,-454,0,0,0,0,0,0,0,0,0,-1,1189,1478,0,0
-28,-454,0,0,0,0,0,0,0,0,0,-1,1196,1478,0,0
-21,-454,0,0,0,0,0,0,0,0,0,-1,1203,1478,0,0
-14,-454,0,0,0,0,0,0,0,0,0,-1,1210,1478,0,0
-7,-454,0,0,0,0,0,0,0,0,0,-1,1217,1478,0,0
0,-454,0,0,0,0,0,0,0,0,0,-1,1224,1478,0,0
7,-454,0,0,0,0,0,0,0,0,0,-1,1231,1478,0,0
14,-454,0,0,0,0,0,0,0,0,0,-1,1238,1478,0,0
21,-454,0,0,0,0,0,0,0,0,0,-1,1245,1478,0,0
28,-454,0,0,0,0,0,0,0,0,0,-1,1252,1478,0,0
35,-454,0,0,0,0,0,0,0,0,0,-1,1259,1478,0,0
42,-454,0,0,0,0,0,0,0,0,0,-1,1266,1478,0,0
49,-454,0,0,0,0,0,0,0,0,0,-1,1273,1478,0,0
56,-454,0,0,0,0,0,0,0,0,0,-1,1280,1478,0,0
63,-454,0,0,0,0,0,0,0,0,0,-1,1287,1478,0,0
70,-454,0,0,0,0,0,0,0,0,0,-1,1294,1478,0,0
77,-454,0,0,0,0,0,0,0,0,0,-1,1301,1478,0,0
84,-454,0,0,0,0,0,0,0,0,0,-1,1308,1478,0,0
91,-454,0,0,0,0,0,0,0,0,0,-1,1315,1478,0,0
98,-454,0,0,0,0,0,0,0,0,0,-1,1322,1478,0,0
105,-454,0,0,0,0,0,0,0,0,0,-1,1329,1478,0,0
112,-454,0,0,0,0,0,0,0,0,0,-1,1336,1478,0,0
119,-454,0,0,0,0,0,0,0,0,0,-1,1343,1478,0,0
126,-454,0,0,0,0,0,0,0,0,0,-1,1350,1478,0,0
133,-454,0,0,0,0,0,0,0,0,0,-1,1357,1478,0,0
140,-454,0,0,0,0,0,0,0,0,0,-1,1364,1478,0,0
147,-454,0,0,0,0,0,0,0,0,0,-1,1371,1478,0,0
154,-454,0,0,0,0,0,0,0,0,0,-1,1378,1478,0,0
161,-454,0,0,0,0,0,0,0,0,0,-1,1385,1478,0,0
168,-454,0,0,0,0,0,0,0,0,0,-1,1392,1478,0,0
175,-454,0,0,0,0,0,0,0,0,0,-1,1399,1478,0,0
182,-454,0,0,0,0,0,0,0,0,0,-1,1406,1478,0,0
189,-454,0,0,0,0,0,0,0,0,0,-1,1413,1478,0,0
196,-454,0,0,0,0,0,0,0,0,0,-1,1420,1478,0,0
203,-454,0,0,0,0,0,0,0,0,0,-1,1427,1478,0,0
210,-454,0,0,0,0,0,0,0,0,0,-1,1434,1478,0,0
217,-454,0,0,0,0,0,0,0,0,0,-1,1441,1478,0,0
224,-454,0,0,0,0,0,0,0,0,0,-1,1448,1478,0,0
231,-454,0,0,0,0,0,0,0,0,0,-1,1455,1478,0,0
238,-454,0,0,0,0,0,0,0,0,0,-1,1462,1478,0,0
245,-454,0,0,0,0,0,0,0,0,0,-1,1469,1478,0,0
252,-454,0,0,0,0,0,0,0,0,0,-1,1476,1478,0,0
259,-454,0,0,0,0,0,0,0,0,0,-1,1483,1478,0,0
266,-454,0,0,0,0,0,0,0,0,0,-1,1490,1478,0,0
273,-454,0,0,0,0,0,0,0,0,0,-1,1497,1478,0,0
280,-454,0,0,0,0,0,0,0,0,0,-1,1504,1478,0,0
287,-454,0,0,0,0,0,0,0,0,0,-1,1511,1478,0,0
294,-454,0,0,0,0,0,0,0,0,0,-1,1518,1478,0,0
301,-454,0,0,0,0,0,0,0,0,0,-1,1525,1478,0,0
308,-454,0,0,0,0,0,0,0,0,0,-1,1532,1478,0,0
315,-454,0,0,0,0,0,0,0,0,0,-1,1539,1478,0,0
322,-454,0,0,0,0,0,0,0,0,0,-1,1546,1478,0,0
329,-454,0,0,0,0,0,0,0,0,0,-1,1553,1478,0,0
336,-454,0,0,0,0,0,0,0,0,0,-1,1560,1478,0,0
343,-454,0,0,0,0,0,0,0,0,0,-1,1567,1478,0,0
350,-454,0,0,0,0,0,0,0,0,0,-1,1574,1478,0,0
357,-454,0,0,0,0,0,0,0,0,0,-1,1581,1478,0,0
364,-454,0,0,0,0,0,0,0,0,0,-1,1588,1478,0,0
371,-454,0,0,0,0,0,0,0,0,0,-1,1595,1478,0,0
378,-454,0,0,0,0,0,0,0,0,0,-1,1602,1478,0,0
385,-454,0,0,0,0,0,0,0,0,0,-1,1609,1478,0,0
392,-454,0,0,0,0,0,0,0,0,0,-1,1616,1478,0,0
399,-454,0,0,0,0,0,0,0,0,0,-1,1623,1478,0,0
406,-454,0,0,0,0,0,0,0,0,0,-1,1630,1478,0,0
413,-454,0,0,0,0,0,0,0,0,0,-1,1637,1478,0,0
420,-454,0,0,0,0,0,0,0,0,0,-1,1644,1478,0,0
427,-454,0,0,0,0,0,0,0,0,0,-1,1651,1478,0,0
434,-454,0,0,0,0,0,0,0,0,0,-1,1658,1478,0,0
441,-454,0,0,0,0,0,0,0,0,0,-1,1665,1478,0,0
448,-454,0,0,0,0,0,0,0,0,0,-1,1672,1478,0,0
455,-454,0,0,0,0,0,0,0,0,0,-1,1679,1478,0,0
462,-454,0,0,0,0,0,0,0,0,0,-1,1686,1478,0,0
469,-454,0,0,0,0,0,0,0,0,0,-1,1693,1478,0,0
476,-454,0,0,0,0,0,0,0,0,0,-1,1700,1478,0,0
483,-454,8.00403,0.198486,0,0,0,0,0,0,0,-1,1707,1478,8.00401,-0.198497
490,-454,8.57227,-0.807373,0,0,0,0,0,0,0,-1,1714,1478,8.5723,0.807353
497,-454,9.19275,-2.25964,0,0,0,0,0,0,0,-1,1721,1478,9.19279,2.25962
504,-454,6.97583,1.38025,0,0,0,0,0,0,0,-1,1728,1478,6.97581,-1.38029
511,-454,6.14685,1.61206,0,0,0,0,0,0,0,-1,1735,1478,6.14681,-1.61203
518,-454,5.88245,2.48193,0,0,0,0,0,0,0,-1,1742,1478,5.88244,-2.48193
525,-454,5.68176,2.27075,0,0,0,0,0,0,0,-1,1749,1478,5.68174,-2.27076
532,-454,5.45862,2.41504,0,0,0,0,0,0,0,-1,1756,1478,5.45864,-2.41502
539,-454,5.74487,3.94519,0,0,0,0,0,0,0,-1,1763,1478,5.74489,-3.94524
546,-454,5.82043,3.7627,0.00505046,-0.0141143,0.0182342,0.0160668,-0.0251306,0.543472,0.0239765,0.0483272,1770,1478,5.82039,-3.76271
553,-454,5.73547,3.6969,0.00821483,-0.0104077,0.0150853,0.0166311,-0.018824,0.508898,0.0204831,0.0421676,1777,1478,5.73549,-3.69684
560,-454,5.83191,3.7356,0.00877231,-0.00691382,0.0123314,0.0155435,-0.013685,0.502154,0.0168865,0.0377139,1784,1478,5.83192,-3.73563
567,-454,5.94299,3.69629,0.0074316,-0.00453693,0.00974567,0.0128837,-0.00998899,0.510057,0.0132407,0.0197079,1791,1478,5.94299,-3.69625
574,-454,5.90454,3.58337,0.00508795,-0.00300261,0.00753838,0.00959787,-0.00751252,0.53914,0.00990312,0.0102578,1798,1478,5.90456,-3.58341
581,-454,5.92712,3.48572,0.00308469,-0.00191486,0.00561353,0.00672988,-0.00556004,0.575923,0.0071063,0.0104112,1805,1478,5.92715,-3.48569
588,-454,5.91736,3.41406,0.00142052,-0.0011173,0.00413634,0.00447821,-0.00417499,0.636569,0.00499695,0.0125943,1812,1478,5.9173,-3.41406
595,-454,5.91138,3.34387,0.000222806,-0.000721197,0.00304867,0.00283579,-0.00333419,0.708597,0.00356611,0.0116311,1819,1478,5.9114,-3.34392
602,-454,5.9292,3.24731,-0.000862161,-0.0005749,0.00208661,0.00137302,-0.00281008,0.819761,0.00246216,0.00857625,1826,1478,5.92919,-3.24727
609,-454,5.95129,3.18115,-0.00142434,-0.000310789,0.00116074,0.000419799,-0.00215493,1.00903,0.00159508,0.010237,1833,1478,5.95132,-3.1812
616,-454,5.9303,3.09717,-0.00134538,-0.000103457,0.000159746,-8.32381e-05,-0.00136559,1.4449,0.000883958,0.014606,1840,1478,5.93031,-3.09717
623,-454,5.92639,2.97546,-0.000223439,0.00104899,-0.000739475,0.00138827,-0.00056272,-1.14064,0.00115953,0.0118036,1847,1478,5.92633,-2.97547
630,-454,5.9259,2.89233,0.00169967,0.00283745,-0.00198974,0.00433803,0.000199088,-0.924639,0.00282799,0.00901032,1854,1478,5.92593,-2.89235
637,-454,5.90771,2.81165,0.00424528,0.00503583,-0.00376025,0.00842153,0.000859584,-0.837765,0.00535089,0.00852443,1861,1478,5.90771,-2.81166
644,-454,5.92554,2.72375,0.00747997,0.00767629,-0.00597536,0.0135543,0.00160196,-0.793611,0.00855237,0.0104397,1868,1478,5.92548,-2.72373
651,-454,5.89746,2.64478,0.0120449,0.0114486,-0.00915675,0.0209084,0.00258515,-0.769124,0.0131621,0.0194798,1875,1478,5.89746,-2.64475
658,-454,5.97144,2.52124,0.0186408,0.0168245,-0.0134056,0.031169,0.00429627,-0.751579,0.0195056,0.0343366,1882,1478,5.97141,-2.52127
665,-454,6.15479,2.40771,0.0279321,0.0239108,-0.0193787,0.0454042,0.00643871,-0.733705,0.0283678,0.047197,1889,1478,6.15484,-2.40767
672,-454,6.32837,2.4325,0,0,0,0,0,0,0,-1,1896,1478,6.32838,-2.43252
679,-454,7.30078,0.15332,0,0,0,0,0,0,0,-1,1903,1478,7.3008,-0.153351
686,-454,7.60864,-0.000732422,0,0,0,0,0,0,0,-1,1910,1478,7.60869,0.000767179
693,-454,6.6521,2.45886,0,0,0,0,0,0,0,-1,1917,1478,6.65205,-2.45885
700,-454,0,0,0,0,0,0,0,0,0,-1,1924,1478,0,0
707,-454,0,0,0,0,0,0,0,0,0,-1,1931,1478,0,0
714,-454,0,0,0,0,0,0,0,0,0,-1,1938,1478,0,0
721,-454,0,0,0,0,0,0,0,0,0,-1,1945,1478,0,0
728,-454,0,0,0,0,0,0,0,0,0,-1,1952,1478,0,0
735,-454,0,0,0,0,0,0,0,0,0,-1,1959,1478,0,0
742,-454,0,0,0,0,0,0,0,0,0,-1,1966,1478,0,0
749,-454,0,0,0,0,0,0,0,0,0,-1,1973,1478,0,0
756,-454,0,0,0,0,0,0,0,0,0,-1,1980,1478,0,0
763,-454,0,0,0,0,0,0,0,0,0,-1,1987,1478,0,0
770,-454,0,0,0,0,0,0,0,0,0,-1,1994,1478,0,0
777,-454,0,0,0,0,0,0,0,0,0,-1,2001,1478,0,0
784,-454,0,0,0,0,0,0,0,0,0,-1,2008,1478,0,0
791,-454,0,0,0,0,0,0,0,0,0,-1,2015,1478,0,0
798,-454,0,0,0,0,0,0,0,0,0,-1,2022,1478,0,0
805,-454,0,0,0,0,0,0,0,0,0,-1,2029,1478,0,0
812,-454,0,0,0,0,0,0,0,0,0,-1,2036,1478,0,0
-700,-461,0,0,0,0,0,0,0,0,0,-1,524,1485,0,0
-693,-461,0,0,0,0,0,0,0,0,0,-1,531,1485,0,0
-686,-461,0,0,0,0,0,0,0,0,0,-1,538,1485,0,0
-679,-461,0,0,0,0,0,0,0,0,0,-1,545,1485,0,0
-672,-461,0,0,0,0,0,0,0,0,0,-1,552,1485,0,0
-665,-461,0,0,0,0,0,0,0,0,0,-1,559,1485,0,0
-658,-461,0,0,0,0,0,0,0,0,0,-1,566,1485,0,0
-651,-461,0,0,0,0,0,0,0,0,0,-1,573,1485,0,0
-644,-461,0,0,0,0,0,0,0,0,0,-1,580,1485,0,0
-637,-461,0,0,0,0,0,0,0,0,0,-1,587,1485,0,0
-630,-461,0,0,0,0,0,0,0,0,0,-1,594,1485,0,0
-623,-461,0,0,0,0,0,0,0,0,0,-1,601,1485,0,0
-616,-461,0,0,0,0,0,0,0,0,0,-1,608,1485,0,0
-609,-461,0,0,0,0,0,0,0,0,0,-1,615,1485,0,0
-602,-461,0,0,0,0,0,0,0,0,0,-1,622,1485,0,0
-595,-461,0,0,0,0,0,0,0,0,0,-1,629,1485,0,0
-588,-461,0,0,0,0,0,0,0,0,0,-1,636,1485,0,0
-581,-461,0,0,0,0,0,0,0,0,0,-1,643,1485,0,0
-574,-461,0,0,0,0,0,0,0,0,0,-1,650,1485,0,0
-567,-461,-0.559509,-0.818604,0,0,0,0,0,0,0,-1,657,1485,-0.559517,0.818631
-560,-461,-0.402771,-0.365845,0.0781124,0.0165449,0.0788508,0.131975,-0.0373182,0.599294,0.102708,0.0429935,664,1485,-0.402743,0.365904
-553,-461,0.0460815,0.0501709,0.0724005,0.0158475,0.0690173,0.118709,-0.0304612,0.590977,0.0910086,0.0444798,671,1485,0.0461062,-0.0501294
-546,-461,0.793701,0.458008,0,0,0,0,0,0,0,-1,678,1485,0.793709,-0.458016
-539,-461,0.169678,0.694092,0,0,0,0,0,0,0,-1,685,1485,0.169708,-0.694081
-532,-461,-0.189148,1.30017,0,0,0,0,0,0,0,-1,692,1485,-0.189158,-1.3002
-525,-461,0.0652466,1.50146,0.0373172,0.00702824,0.0295104,0.0553422,-0.0109968,0.548326,0.0410543,0.0403426,699,1485,0.0652264,-1.5015
-518,-461,0.197388,1.85327,0.0292656,0.00380216,0.0215807,0.0415903,-0.0085225,0.518896,0.0309612,0.0359494,706,1485,0.197384,-1.85327
-511,-461,0.0563354,2.11194,0.0217863,0.00186305,0.0151839,0.0299846,-0.00633528,0.495084,0.0224021,0.0162757,713,1485,0.0563285,-2.11193
-504,-461,0.0672607,2.19275,0.0153448,-0.000194614,0.00979647,0.0200787,-0.00492847,0.450134,0.0152956,0.00994209,720,1485,0.0672312,-2.19275
-497,-461,0.0748291,2.31519,0.00984137,-0.0011188,0.00590472,0.0124172,-0.00369459,0.41134,0.00974593,0.0100584,727,1485,0.0748192,-2.3152
-490,-461,0.0582275,2.41504,0.00463629,-0.00177996,0.00242802,0.00545151,-0.00259518,0.323931,0.00474232,0.011857,734,1485,0.058252,-2.41504
-483,-461,0.0499268,2.51294,0.00157864,-0.000162755,0.000956494,0.00200138,-0.000585501,0.41616,0.00156633,0.0118217,741,1485,0.0499126,-2.51295
-476,-461,0.0491333,2.61438,-0.000185662,-7.75008e-05,0.000123231,2.99436e-06,-0.000266157,0.992172,0.000178445,0.0104394,748,1485,0.0491131,-2.61436
-469,-461,0.0504761,2.72583,-0.00174212,0.000214522,-0.000387491,0.000288466,-0.00181606,-1.38224,0.00131743,0.0122853,755,1485,0.050451,-2.72585
-462,-461,0.0463257,2.81323,-0.00302778,0.000774573,-0.000676476,0.000891339,-0.00314455,-1.39987,0.00244818,0.0163651,762,1485,0.0463129,-2.81323
-455,-461,0.0336304,2.93738,-0.00306326,0.00230981,-0.00196417,0.00295125,-0.0037047,-1.25514,0.00385101,0.0194837,769,1485,0.0336603,-2.93737
-448,-461,0.0415039,3.02783,-0.0025228,0.00356542,-0.00314569,0.00489875,-0.00385613,-1.16989,0.00506656,0.0184196,776,1485,0.0414941,-3.02781
-441,-461,0.0738525,3.10571,-0.00178614,0.0050669,-0.00447307,0.00727504,-0.00399428,-1.11224,0.00659761,0.0145712,783,1485,0.0738696,-3.10567
-434,-461,0.149841,3.1554,0.000164505,0.00704667,-0.00611373,0.0106212,-0.00341002,-1.04172,0.00845002,0.0186301,790,1485,0.149813,-3.15536
-427,-461,0.211121,3.15515,0.00338309,0.0095877,-0.00832056,0.0153655,-0.00239469,-0.963839,0.0111281,0.0237247,797,1485,0.211121,-3.15515
-420,-461,0.186157,3.18591,0.00871904,0.0126818,-0.010794,0.0216748,-0.000273984,-0.876168,0.0145421,0.0412698,804,1485,0.186162,-3.18589
-413,-461,0.215271,3.37158,0,0,0,0,0,0,0,-1,811,1485,0.215292,-3.37162
-406,-461,0.200623,4.04822,0.0289876,0.0392653,-0.0112495,0.0464941,0.0217588,-0.999649,0.0268617,0.047083,818,1485,0.200614,-4.04818
-399,-461,0.739502,3.54895,0.0419529,0.0616951,-0.00939505,0.0654514,0.0381966,-1.19045,0.037964,0.0475025,825,1485,0.739518,-3.54898
-392,-461,1.28723,3.46875,0,0,0,0,0,0,0,-1,832,1485,1.2872,-3.46877
-385,-461,2.3822,3.42859,0,0,0,0,0,0,0,-1,839,1485,2.3822,-3.42865
-378,-461,3.55591,3.42688,0,0,0,0,0,0,0,-1,846,1485,3.55591,-3.42685
-371,-461,2.17938,2.37439,0,0,0,0,0,0,0,-1,853,1485,2.17941,-2.37441
-364,-461,-1.93097,2.56458,0,0,0,0,0,0,0,-1,860,1485,-1.93095,-2.56456
-357,-461,-2.41516,3.49487,0,0,0,0,0,0,0,-1,867,1485,-2.41517,-3.49487
-350,-461,0,0,0,0,0,0,0,0,0,-1,874,1485,0,0
-343,-461,0,0,0,0,0,0,0,0,0,-1,881,1485,0,0
-336,-461,0,0,0,0,0,0,0,0,0,-1,888,1485,0,0
-329,-461,0,0,0,0,0,0,0,0,0,-1,895,1485,0,0
-322,-461,0,0,0,0,0,0,0,0,0,-1,902,1485,0,0
-315,-461,0,0,0,0,0,0,0,0,0,-1,909,1485,0,0
-308,-461,0,0,0,0,0,0,0,0,0,-1,916,1485,0,0
-301,-461,0,0,0,0,0,0,0,0,0,-1,923,1485,0,0
-294,-461,0,0,0,0,0,0,0,0,0,-1,930,1485,0,0
-287,-461,0,0,0,0,0,0,0,0,0,-1,937,1485,0,0
-280,-461,0,0,0,0,0,0,0,0,0,-1,944,1485,0,0
-273,-461,0,0,0,0,0,0,0,0,0,-1,951,1485,0,0
-266,-461,0,0,0,0,0,0,0,0,0,-1,958,1485,0,0
-259,-461,0,0,0,0,0,0,0,0,0,-1,965,1485,0,0
-252,-461,0,0,0,0,0,0,0,0,0,-1,972,1485,0,0
-245,-461,0,0,0,0,0,0,0,0,0,-1,979,1485,0,0
-238,-461,0,0,0,0,0,0,0,0,0,-1,986,1485,0,0
-231,-461,0,0,0,0,0,0,0,0,0,-1,993,1485,0,0
-224,-461,0,0,0,0,0,0,0,0,0,-1,1000,1485,0,0
-217,-461,0,0,0,0,0,0,0,0,0,-1,1007,1485,0,0
-210,-461,0,0,0,0,0,0,0,0,0,-1,1014,1485,0,0
-203,-461,0,0,0,0,0,0,0,0,0,-1,1021,1485,0,0
-196,-461,0,0,0,0,0,0,0,0,0,-1,1028,1485,0,0
-189,-461,0,0,0,0,0,0,0,0,0,-1,1035,1485,0,0
-182,-461,0,0,0,0,0,0,0,0,0,-1,1042,1485,0,0
-175,-461,0,0,0,0,0,0,0,0,0,-1,1049,1485,0,0
-168,-461,0,0,0,0,0,0,0,0,0,-1,1056,1485,0,0
-161,-461,0,0,0,0,0,0,0,0,0,-1,1063,1485,0,0
-154,-461,0,0,0,0,0,0,0,0,0,-1,1070,1485,0,0
-147,-461,0,0,0,0,0,0,0,0,0,-1,1077,1485,0,0
-140,-461,0,0,0,0,0,0,0,0,0,-1,1084,1485,0,0
-133,-461,0,0,0,0,0,0,0,0,0,-1,1091,1485,0,0
-126,-461,0,0,0,0,0,0,0,0,0,-1,1098,1485,0,0
-119,-461,0,0,0,0,0,0,0,0,0,-1,1105,1485,0,0
-112,-461,0,0,0,0,0,0,0,0,0,-1,1112,1485,0,0
-105,-461,0,0,0,0,0,0,0,0,0,-1,1119,1485,0,0
-98,-461,0,0,0,0,0,0,0,0,0,-1,1126,1485,0,0
-91,-461,0,0,0,0,0,0,0,0,0,-1,1133,1485,0,0
-84,-461,0,0,0,0,0,0,0,0,0,-1,1140,1485,0,0
-77,-461,0,0,0,0,0,0,0,0,0,-1,1147,1485,0,0
-70,-461,0,0,0,0,0,0,0,0,0,-1,1154,1485,0,0
-63,-461,0,0,0,0,0,0,0,0,0,-1,1161,1485,0,0
-56,-461,0,0,0,0,0,0,0,0,0,-1,1168,1485,0,0
-49,-461,0,0,0,0,0,0,0,0,0,-1,1175,1485,0,0
-42,-461,0,0,0,0,0,0,0,0,0,-1,1182,1485,0,0
-35,-461,0,0,0,0,0,0,0,0,0,-1,1189,1485,0,0
-28,-461,0,0,0,0,0,0,0,0,0,-1,1196,1485,0,0
-21,-461,0,0,0,0,0,0,0,0,0,-1,1203,1485,0,0
-14,-461,0,0,0,0,0,0,0,0,0,-1,1210,1485,0,0
-7,-461,0,0,0,0,0,0,0,0,0,-1,1217,1485,0,0
0,-461,0,0,0,0,0,0,0,0,0,-1,1224,1485,0,0
7,-461,0,0,0,0,0,0,0,0,0,-1,1231,1485,0,0
14,-461,0,0,0,0,0,0,0,0,0,-1,1238,1485,0,0
21,-461,0,0,0,0,0,0,0,0,0,-1,1245,1485,0,0
28,-461,0,0,0,0,0,0,0,0,0,-1,1252,1485,0,0
35,-461,0,0,0,0,0,0,0,0,0,-1,1259,1485,0,0
42,-461,0,0,0,0,0,0,0,0,0,-1,1266,1485,0,0
49,-461,0,0,0,0,0,0,0,0,0,-1,1273,1485,0,0
56,-461,0,0,0,0,0,0,0,0,0,-1,1280,1485,0,0
63,-461,0,0,0,0,0,0,0,0,0,-1,1287,1485,0,0
70,-461,0,0,0,0,0,0,0,0,0,-1,1294,1485,0,0
77,-461,0,0,0,0,0,0,0,0,0,-1,1301,1485,0,0
84,-461,0,0,0,0,0,0,0,0,0,-1,1308,1485,0,0
91,-461,0,0,0,0,0,0,0,0,0,-1,1315,1485,0,0
98,-461,0,0,0,0,0,0,0,0,0,-1,1322,1485,0,0
105,-461,0,0,0,0,0,0,0,0,0,-1,1329,1485,0,0
112,-461,0,0,0,0,0,0,0,0,0,-1,1336,1485,0,0
119,-461,0,0,0,0,0,0,0,0,0,-1,1343,1485,0,0
126,-461,0,0,0,0,0,0,0,0,0,-1,1350,1485,0,0
133,-461,0,0,0,0,0,0,0,0,0,-1,1357,1485,0,0
140,-461,0,0,0,0,0,0,0,0,0,-1,1364,1485,0,0
147,-461,0,0,0,0,0,0,0,0,0,-1,1371,1485,0,0
154,-461,0,0,0,0,0,0,0,0,0,-1,1378,1485,0,0
161,-461,0,0,0,0,0,0,0,0,0,-1,1385,1485,0,0
168,-461,0,0,0,0,0,0,0,0,0,-1,1392,1485,0,0
175,-461,0,0,0,0,0,0,0,0,0,-1,1399,1485,0,0
182,-461,0,0,0,0,0,0,0,0,0,-1,1406,1485,0,0
189,-461,0,0,0,0,0,0,0,0,0,-1,1413,1485,0,0
196,-461,0,0,0,0,0,0,0,0,0,-1,1420,1485,0,0
203,-461,0,0,0,0,0,0,0,0,0,-1,1427,1485,0,0
210,-461,0,0,0,0,0,0,0,0,0,-1,1434,1485,0,0
217,-461,0,0,0,0,0,0,0,0,0,-1,1441,1485,0,0
224,-461,0,0,0,0,0,0,0,0,0,-1,1448,1485,0,0
231,-461,0,0,0,0,0,0,0,0,0,-1,1455,1485,0,0
238,-461,0,0,0,0,0,0,0,0,0,-1,1462,1485,0,0
245,-461,0,0,0,0,0,0,0,0,0,-1,1469,1485,0,0
252,-461,0,0,0,0,0,0,0,0,0,-1,1476,1485,0,0
259,-461,0,0,0,0,0,0,0,0,0,-1,1483,1485,0,0
266,-461,0,0,0,0,0,0,0,0,0,-1,1490,1485,0,0
273,-461,0,0,0,0,0,0,0,0,0,-1,1497,1485,0,0
280,-461,0,0,0,0,0,0,0,0,0,-1,1504,1485,0,0
287,-461,0,0,0,0,0,0,0,0,0,-1,1511,1485,0,0
294,-461,0,0,0,0,0,0,0,0,0,-1,1518,1485,0,0
301,-461,0,0,0,0,0,0,0,0,0,-1,1525,1485,0,0
308,-461,0,0,0,0,0,0,0,0,0,-1,1532,1485,0,0
315,-461,0,0,0,0,0,0,0,0,0,-1,1539,1485,0,0
322,-461,0,0,0,0,0,0,0,0,0,-1,1546,1485,0,0
329,-461,0,0,0,0,0,0,0,0,0,-1,1553,1485,0,0
336,-461,0,0,0,0,0,0,0,0,0,-1,1560,1485,0,0
343,-461,0,0,0,0,0,0,0,0,0,-1,1567,1485,0,0
350,-461,0,0,0,0,0,0,0,0,0,-1,1574,1485,0,0
357,-461,0,0,0,0,0,0,0,0,0,-1,1581,1485,0,0
364,-461,0,0,0,0,0,0,0,0,0,-1,1588,1485,0,0
371,-461,0,0,0,0,0,0,0,0,0,-1,1595,1485,0,0
378,-461,0,0,0,0,0,0,0,0,0,-1,1602,1485,0,0
385,-461,0,0,0,0,0,0,0,0,0,-1,1609,1485,0,0
392,-461,0,0,0,0,0,0,0,0,0,-1,1616,1485,0,0
399,-461,0,0,0,0,0,0,0,0,0,-1,1623,1485,0,0
406,-461,0,0,0,0,0,0,0,0,0,-1,1630,1485,0,0
413,-461,0,0,0,0,0,0,0,0,0,-1,1637,1485,0,0
420,-461,0,0,0,0,0,0,0,0,0,-1,1644,1485,0,0
427,-461,0,0,0,0,0,0,0,0,0,-1,1651,1485,0,0
434,-461,0,0,0,0,0,0,0,0,0,-1,1658,1485,0,0
441,-461,0,0,0,0,0,0,0,0,0,-1,1665,1485,0,0
448,-461,0,0,0,0,0,0,0,0,0,-1,1672,1485,0,0
455,-461,0,0,0,0,0,0,0,0,0,-1,1679,1485,0,0
462,-461,0,0,0,0,0,0,0,0,0,-1,1686,1485,0,0
469,-461,0,0,0,0,0,0,0,0,0,-1,1693,1485,0,0
476,-461,7.3584,1.59863,0,0,0,0,0,0,0,-1,1700,1485,7.35834,-1.5986
483,-461,7.60669,1.02393,0,0,0,0,0,0,0,-1,1707,1485,7.60668,-1.02394
490,-461,8.00671,0.00231934,0,0,0,0,0,0,0,-1,1714,1485,8.00668,-0.00238035
497,-461,8.47803,1.21448,0,0,0,0,0,0,0,-1,1721,1485,8.47799,-1.21451
504,-461,6.92871,1.62207,0,0,0,0,0,0,0,-1,1728,1485,6.92872,-1.62213
511,-461,6.599,2.22351,0,0,0,0,0,0,0,-1,1735,1485,6.59897,-2.2235
518,-461,5.69849,2.09729,0,0,0,0,0,0,0,-1,1742,1485,5.6985,-2.09732
525,-461,5.51453,2.27454,0,0,0,0,0,0,0,-1,1749,1485,5.51458,-2.27455
532,-461,5.32861,2.43823,0,0,0,0,0,0,0,-1,1756,1485,5.32857,-2.43818
539,-461,5.15295,2.57825,0,0,0,0,0,0,0,-1,1763,1485,5.15301,-2.57823
546,-461,5.56189,3.83533,0,0,0,0,0,0,0,-1,1770,1485,5.56191,-3.83528
553,-461,5.70374,3.76416,0.00503638,-0.0118701,0.0121374,0.0113742,-0.0182079,0.481225,0.0172304,0.0437967,1777,1485,5.70372,-3.76416
560,-461,5.78809,3.73584,0.00638159,-0.00782949,0.00981914,0.0113965,-0.0128444,0.472189,0.0140038,0.0242389,1784,1485,5.78808,-3.73583
567,-461,5.84192,3.66528,0.00584911,-0.00499752,0.00768653,0.00983298,-0.00898139,0.478174,0.0108662,0.0117651,1791,1485,5.84192,-3.6653
574,-461,5.84314,3.56824,0.00421386,-0.00313374,0.00591781,0.0075055,-0.00642537,0.50761,0.00805105,0.0125187,1798,1485,5.8431,-3.56827
581,-461,5.8418,3.49365,0.00265802,-0.00179787,0.00434294,0.00531115,-0.004451,0.5484,0.00564346,0.0126159,1805,1485,5.84185,-3.49368
588,-461,5.81482,3.43359,0.00121028,-0.000815274,0.00318711,0.00354166,-0.00314665,0.631557,0.00386375,0.0107058,1812,1485,5.81487,-3.43357
595,-461,5.81409,3.36023,0.000152707,-0.000345349,0.00237441,0.00229111,-0.00248375,0.733149,0.00275752,0.00869451,1819,1485,5.81406,-3.36028
602,-461,5.83337,3.26587,-0.000790362,-0.000164734,0.00164446,0.0011964,-0.0021515,0.879387,0.00195895,0.009214,1826,1485,5.83343,-3.26587
609,-461,5.83899,3.16528,-0.00128764,0.00015177,0.000891941,0.000578161,-0.00171403,1.12486,0.00137649,0.0107259,1833,1485,5.83895,-3.16524
616,-461,5.83826,3.0658,-0.00124315,0.00039928,3.11913e-05,0.000399872,-0.00124374,1.55181,0.000989755,0.0136943,1840,1485,5.8382,-3.06576
623,-461,5.82922,2.96814,-0.000298039,0.0015274,-0.000829725,0.00184817,-0.000618811,-1.20189,0.00148209,0.0125192,1847,1485,5.82924,-2.9681
630,-461,5.81262,2.87646,0.001469,0.00331992,-0.00207634,0.0046677,0.000121214,-0.995041,0.00307219,0.00972137,1854,1485,5.81265,-2.87644
637,-461,5.82263,2.80823,0.00390908,0.00552989,-0.00391887,0.00872127,0.000717697,-0.887359,0.00559033,0.0107913,1861,1485,5.82266,-2.80829
644,-461,5.81104,2.75024,0.00723262,0.0083679,-0.00631588,0.0141416,0.00145892,-0.830215,0.00898102,0.0138942,1868,1485,5.81107,-2.7502
651,-461,5.78528,2.58337,0.0121243,0.0124706,-0.00982283,0.0221218,0.00247308,-0.794212,0.0139965,0.0216944,1875,1485,5.78532,-2.58335
658,-461,5.89893,2.30261,0.0193997,0.0184384,-0.0146271,0.0335541,0.004284,-0.768975,0.0210869,0.0421135,1882,1485,5.89893,-2.30262
665,-461,6.01038,2.02588,0,0,0,0,0,0,0,-1,1889,1485,6.01037,-2.02591
672,-461,5.93018,2.36182,0,0,0,0,0,0,0,-1,1896,1485,5.93013,-2.36177
679,-461,5.57813,2.50659,0,0,0,0,0,0,0,-1,1903,1485,5.57816,-2.50659
686,-461,6.61133,2.32849,0,0,0,0,0,0,0,-1,1910,1485,6.61139,-2.32852
693,-461,0,0,0,0,0,0,0,0,0,-1,1917,1485,0,0
700,-461,0,0,0,0,0,0,0,0,0,-1,1924,1485,0,0
707,-461,0,0,0,0,0,0,0,0,0,-1,1931,1485,0,0
714,-461,0,0,0,0,0,0,0,0,0,-1,1938,1485,0,0
721,-461,0,0,0,0,0,0,0,0,0,-1,1945,1485,0,0
728,-461,0,0,0,0,0,0,0,0,0,-1,1952,1485,0,0
735,-461,0,0,0,0,0,0,0,0,0,-1,1959,1485,0,0
742,-461,0,0,0,0,0,0,0,0,0,-1,1966,1485,0,0
749,-461,0,0,0,0,0,0,0,0,0,-1,1973,1485,0,0
756,-461,0,0,0,0,0,0,0,0,0,-1,1980,1485,0,0
763,-461,0,0,0,0,0,0,0,0,0,-1,1987,1485,0,0
770,-461,0,0,0,0,0,0,0,0,0,-1,1994,1485,0,0
777,-461,0,0,0,0,0,0,0,0,0,-1,2001,1485,0,0
784,-461,0,0,0,0,0,0,0,0,0,-1,2008,1485,0,0
791,-461,0,0,0,0,0,0,0,0,0,-1,2015,1485,0,0
798,-461,0,0,0,0,0,0,0,0,0,-1,2022,1485,0,0
805,-461,0,0,0,0,0,0,0,0,0,-1,2029,1485,0,0
812,-461,0,0,0,0,0,0,0,0,0,-1,2036,1485,0,0
-700,-468,0,0,0,0,0,0,0,0,0,-1,524,1492,0,0
-693,-468,0,0,0,0,0,0,0,0,0,-1,531,1492,0,0
-686,-468,0,0,0,0,0,0,0,0,0,-1,538,1492,0,0
-679,-468,0,0,0,0,0,0,0,0,0,-1,545,1492,0,0
-672,-468,0,0,0,0,0,0,0,0,0,-1,552,1492,0,0
-665,-468,0,0,0,0,0,0,0,0,0,-1,559,1492,0,0
-658,-468,0,0,0,0,0,0,0,0,0,-1,566,1492,0,0
-651,-468,0,0,0,0,0,0,0,0,0,-1,573,1492,0,0
-644,-468,0,0,0,0,0,0,0,0,0,-1,580,1492,0,0
-637,-468,0,0,0,0,0,0,0,0,0,-1,587,1492,0,0
-630,-468,0,0,0,0,0,0,0,0,0,-1,594,1492,0,0
-623,-468,0,0,0,0,0,0,0,0,0,-1,601,1492,0,0
-616,-468,0,0,0,0,0,0,0,0,0,-1,608,1492,0,0
-609,-468,0,0,0,0,0,0,0,0,0,-1,615,1492,0,0
-602,-468,0,0,0,0,0,0,0,0,0,-1,622,1492,0,0
-595,-468,0,0,0,0,0,0,0,0,0,-1,629,1492,0,0
-588,-468,0,0,0,0,0,0,0,0,0,-1,636,1492,0,0
-581,-468,0,0,0,0,0,0,0,0,0,-1,643,1492,0,0
-574,-468,0,0,0,0,0,0,0,0,0,-1,650,1492,0,0
-567,-468,-1.23047,-1.83667,0,0,0,0,0,0,0,-1,657,1492,-1.23048,1.83672
-560,-468,-0.736267,-1.02466,0.107785,0.0160281,0.0942312,0.166713,-0.0428997,0.558853,0.127864,0.0458632,664,1492,-0.736252,1.0246
-553,-468,-0.154236,-0.343384,0.0986562,0.013314,0.0823404,0.148725,-0.0367552,0.546336,0.113405,0.0425805,671,1492,-0.15425,0.3434
-546,-468,0.587341,0.323486,0,0,0,0,0,0,0,-1,678,1492,0.587349,-0.323547
-539,-468,-0.497559,2.0769,0,0,0,0,0,0,0,-1,685,1492,-0.497562,-2.07685
-532,-468,-0.164185,1.1925,0,0,0,0,0,0,0,-1,692,1492,-0.164181,-1.19256
-525,-468,0.243286,1.2605,0.0503208,0.00249543,0.0353422,0.06908,-0.0162637,0.487973,0.052324,0.0438725,699,1492,0.243277,-1.26047
-518,-468,0.597717,1.83899,0.0395345,-0.000104516,0.0260472,0.0524453,-0.0130153,0.460175,0.0400139,0.044229,706,1492,0.597742,-1.83901
-511,-468,0.135254,2.10925,0.0295561,-0.00132623,0.0183687,0.0381115,-0.00988168,0.435885,0.0292631,0.031991,713,1492,0.135224,-2.10928
-504,-468,0.152344,2.20276,0.0210418,-0.00284259,0.0119525,0.0259957,-0.00779649,0.392914,0.0204313,0.0119253,720,1492,0.152338,-2.20274
-497,-468,0.158142,2.3125,0.013779,-0.00311348,0.00719788,0.01643,-0.00576447,0.352885,0.013298,0.00804118,727,1492,0.15816,-2.31254
-490,-468,0.159424,2.42969,0.006799,-0.00325545,0.00263797,0.00744909,-0.00390554,0.241621,0.00666116,0.00777692,734,1492,0.159412,-2.42965
-483,-468,0.148743,2.53394,0.0031426,-0.000679506,0.000941301,0.00336185,-0.000898752,0.228837,0.00259326,0.00806576,741,1492,0.148768,-2.53397
-476,-468,0.156128,2.61621,0.00138073,-0.000331756,8.29843e-05,0.00138474,-0.000335767,0.0483076,0.00105308,0.00838363,748,1492,0.156109,-2.61626
-469,-468,0.156433,2.70593,-7.11983e-05,5.5014e-05,-0.000363956,0.000361294,-0.000377478,-0.87124,0.000426564,0.0120812,755,1492,0.156462,-2.70589
-462,-468,0.16864,2.81018,-0.00109169,0.000667095,-0.000598813,0.000851614,-0.00127621,-1.27189,0.00123663,0.0202793,762,1492,0.168656,-2.81022
-455,-468,0.161987,2.88647,-0.000909751,0.00199172,-0.00176663,0.00282695,-0.00174498,-1.12916,0.00266413,0.0213776,769,1492,0.162015,-2.88641
-448,-468,0.157104,2.99707,-0.000245376,0.00299122,-0.0028132,0.00461838,-0.00187254,-1.04641,0.00385768,0.0146468,776,1492,0.157132,-2.99712
-441,-468,0.166504,3.09827,0.000631178,0.00413555,-0.00393654,0.00669225,-0.00192552,-0.994787,0.00522302,0.0127857,783,1492,0.166482,-3.09823
-434,-468,0.176147,3.18848,0.00257595,0.00562531,-0.00530143,0.00961695,-0.00141569,-0.925418,0.00693155,0.0106811,790,1492,0.176159,-3.18847
-427,-468,0.198853,3.2478,0.00550118,0.00746442,-0.0070927,0.0136431,-0.000677505,-0.854161,0.00932944,0.0125386,797,1492,0.198837,-3.24783
-420,-468,0.237244,3.31299,0.0102568,0.00968817,-0.00906613,0.0190431,0.000901885,-0.769724,0.0124057,0.0228976,804,1492,0.23727,-3.31294
-413,-468,0.289917,3.38184,0.017769,0.0183985,-0.00973316,0.027822,0.00834551,-0.801561,0.016486,0.0414413,811,1492,0.289945,-3.3818
-406,-468,0.394592,3.4679,0.0280197,0.032773,-0.00873339,0.0394473,0.0213454,-0.918247,0.0228006,0.0448793,818,1492,0.394613,-3.46784
-399,-468,0.555908,3.27966,0.0390219,0.0522516,-0.00677353,0.0551044,0.0361691,-1.17217,0.032329,0.0455281,825,1492,0.555914,-3.27965
-392,-468,0.657349,3.80481,0,0,0,0,0,0,0,-1,832,1492,0.657364,-3.80481
-385,-468,0.922363,4.28589,0,0,0,0,0,0,0,-1,839,1492,0.922347,-4.28583
-378,-468,-0.533142,2.88086,0,0,0,0,0,0,0,-1,846,1492,-0.533155,-2.88084
-371,-468,-0.31842,3.1532,0,0,0,0,0,0,0,-1,853,1492,-0.318441,-3.15324
-364,-468,-0.752136,1.72119,0,0,0,0,0,0,0,-1,860,1492,-0.752112,-1.72116
-357,-468,-1.69568,2.94958,0,0,0,0,0,0,0,-1,867,1492,-1.69568,-2.9496
-350,-468,-2.38977,3.93274,0,0,0,0,0,0,0,-1,874,1492,-2.38974,-3.9327
-343,-468,0,0,0,0,0,0,0,0,0,-1,881,1492,0,0
-336,-468,0,0,0,0,0,0,0,0,0,-1,888,1492,0,0
-329,-468,0,0,0,0,0,0,0,0,0,-1,895,1492,0,0
-322,-468,0,0,0,0,0,0,0,0,0,-1,902,1492,0,0
-315,-468,0,0,0,0,0,0,0,0,0,-1,909,1492,0,0
-308,-468,0,0,0,0,0,0,0,0,0,-1,916,1492,0,0
-301,-468,0,0,0,0,0,0,0,0,0,-1,923,1492,0,0
-294,-468,0,0,0,0,0,0,0,0,0,-1,930,1492,0,0
-287,-468,0,0,0,0,0,0,0,0,0,-1,937,1492,0,0
-280,-468,0,0,0,0,0,0,0,0,0,-1,944,1492,0,0
-273,-468,0,0,0,0,0,0,0,0,0,-1,951,1492,0,0
-266,-468,0,0,0,0,0,0,0,0,0,-1,958,1492,0,0
-259,-468,0,0,0,0,0,0,0,0,0,-1,965,1492,0,0
-252,-468,0,0,0,0,0,0,0,0,0,-1,972,1492,0,0
-245,-468,0,0,0,0,0,0,0,0,0,-1,979,1492,0,0
-238,-468,0,0,0,0,0,0,0,0,0,-1,986,1492,0,0
-231,-468,0,0,0,0,0,0,0,0,0,-1,993,1492,0,0
-224,-468,0,0,0,0,0,0,0,0,0,-1,1000,1492,0,0
-217,-468,0,0,0,0,0,0,0,0,0,-1,1007,1492,0,0
-210,-468,0,0,0,0,0,0,0,0,0,-1,1014,1492,0,0
-203,-468,0,0,0,0,0,0,0,0,0,-1,1021,1492,0,0
-196,-468,0,0,0,0,0,0,0,0,0,-1,1028,1492,0,0
-189,-468,0,0,0,0,0,0,0,0,0,-1,1035,1492,0,0
-182,-468,0,0,0,0,0,0,0,0,0,-1,1042,1492,0,0
-175,-468,0,0,0,0,0,0,0,0,0,-1,1049,1492,0,0
-168,-468,0,0,0,0,0,0,0,0,0,-1,1056,1492,0,0
-161,-468,0,0,0,0,0,0,0,0,0,-1,1063,1492,0,0
-154,-468,0,0,0,0,0,0,0,0,0,-1,1070,1492,0,0
-147,-468,0,0,0,0,0,0,0,0,0,-1,1077,1492,0,0
-140,-468,0,0,0,0,0,0,0,0,0,-1,1084,1492,0,0
-133,-468,0,0,0,0,0,0,0,0,0,-1,1091,1492,0,0
-126,-468,0,0,0,0,0,0,0,0,0,-1,1098,1492,0,0
-119,-468,0,0,0,0,0,0,0,0,0,-1,1105,1492,0,0
-112,-468,0,0,0,0,0,0,0,0,0,-1,1112,1492,0,0
-105,-468,0,0,0,0,0,0,0,0,0,-1,1119,1492,0,0
-98,-468,0,0,0,0,0,0,0,0,0,-1,1126,1492,0,0
-91,-468,0,0,0,0,0,0,0,0,0,-1,1133,1492,0,0
-84,-468,0,0,0,0,0,0,0,0,0,-1,1140,1492,0,0
-77,-468,0,0,0,0,0,0,0,0,0,-1,1147,1492,0,0
-70,-468,0,0,0,0,0,0,0,0,0,-1,1154,1492,0,0
-63,-468,0,0,0,0,0,0,0,0,0,-1,1161,1492,0,0
-56,-468,0,0,0,0,0,0,0,0,0,-1,1168,1492,0,0
-49,-468,0,0,0,0,0,0,0,0,0,-1,1175,1492,0,0
-42,-468,0,0,0,0,0,0,0,0,0,-1,1182,1492,0,0
-35,-468,0,0,0,0,0,0,0,0,0,-1,1189,1492,0,0
-28,-468,0,0,0,0,0,0,0,0,0,-1,1196,1492,0,0
-21,-468,0,0,0,0,0,0,0,0,0,-1,1203,1492,0,0
-14,-468,0,0,0,0,0,0,0,0,0,-1,1210,1492,0,0
-7,-468,0,0,0,0,0,0,0,0,0,-1,1217,1492,0,0
0,-468,0,0,0,0,0,0,0,0,0,-1,1224,1492,0,0
7,-468,0,0,0,0,0,0,0,0,0,-1,1231,1492,0,0
14,-468,0,0,0,0,0,0,0,0,0,-1,1238,1492,0,0
21,-468,0,0,0,0,0,0,0,0,0,-1,1245,1492,0,0
28,-468,0,0,0,0,0,0,0,0,0,-1,1252,1492,0,0
35,-468,0,0,0,0,0,0,0,0,0,-1,1259,1492,0,0
42,-468,0,0,0,0,0,0,0,0,0,-1,1266,1492,0,0
49,-468,0,0,0,0,0,0,0,0,0,-1,1273,1492,0,0
56,-468,0,0,0,0,0,0,0,0,0,-1,1280,1492,0,0
63,-468,0,0,0,0,0,0,0,0,0,-1,1287,1492,0,0
70,-468,0,0,0,0,0,0,0,0,0,-1,1294,1492,0,0
77,-468,0,0,0,0,0,0,0,0,0,-1,1301,1492,0,0
84,-468,0,0,0,0,0,0,0,0,0,-1,1308,1492,0,0
91,-468,0,0,0,0,0,0,0,0,0,-1,1315,1492,0,0
98,-468,0,0,0,0,0,0,0,0,0,-1,1322,1492,0,0
105,-468,0,0,0,0,0,0,0,0,0,-1,1329,1492,0,0
112,-468,0,0,0,0,0,0,0,0,0,-1,1336,1492,0,0
119,-468,0,0,0,0,0,0,0,0,0,-1,1343,1492,0,0
126,-468,0,0,0,0,0,0,0,0,0,-1,1350,1492,0,0
133,-468,0,0,0,0,0,0,0,0,0,-1,1357,1492,0,0
140,-468,0,0,0,0,0,0,0,0,0,-1,1364,1492,0,0
147,-468,0,0,0,0,0,0,0,0,0,-1,1371,1492,0,0
154,-468,0,0,0,0,0,0,0,0,0,-1,1378,1492,0,0
161,-468,0,0,0,0,0,0,0,0,0,-1,1385,1492,0,0
168,-468,0,0,0,0,0,0,0,0,0,-1,1392,1492,0,0
175,-468,0,0,0,0,0,0,0,0,0,-1,1399,1492,0,0
182,-468,0,0,0,0,0,0,0,0,0,-1,1406,1492,0,0
189,-468,0,0,0,0,0,0,0,0,0,-1,1413,1492,0,0
196,-468,0,0,0,0,0,0,0,0,0,-1,1420,1492,0,0
203,-468,0,0,0,0,0,0,0,0,0,-1,1427,1492,0,0
210,-468,0,0,0,0,0,0,0,0,0,-1,1434,1492,0,0
217,-468,0,0,0,0,0,0,0,0,0,-1,1441,1492,0,0
224,-468,0,0,0,0,0,0,0,0,0,-1,1448,1492,0,0
231,-468,0,0,0,0,0,0,0,0,0,-1,1455,1492,0,0
238,-468,0,0,0,0,0,0,0,0,0,-1,1462,1492,0,0
245,-468,0,0,0,0,0,0,0,0,0,-1,1469,1492,0,0
252,-468,0,0,0,0,0,0,0,0,0,-1,1476,1492,0,0
259,-468,0,0,0,0,0,0,0,0,0,-1,1483,1492,0,0
266,-468,0,0,0,0,0,0,0,0,0,-1,1490,1492,0,0
273,-468,0,0,0,0,0,0,0,0,0,-1,1497,1492,0,0
280,-468,0,0,0,0,0,0,0,0,0,-1,1504,1492,0,0
287,-468,0,0,0,0,0,0,0,0,0,-1,1511,1492,0,0
294,-468,0,0,0,0,0,0,0,0,0,-1,1518,1492,0,0
301,-468,0,0,0,0,0,0,0,0,0,-1,1525,1492,0,0
308,-468,0,0,0,0,0,0,0,0,0,-1,1532,1492,0,0
315,-468,0,0,0,0,0,0,0,0,0,-1,1539,1492,0,0
322,-468,0,0,0,0,0,0,0,0,0,-1,1546,1492,0,0
329,-468,0,0,0,0,0,0,0,0,0,-1,1553,1492,0,0
336,-468,0,0,0,0,0,0,0,0,0,-1,1560,1492,0,0
343,-468,0,0,0,0,0,0,0,0,0,-1,1567,1492,0,0
350,-468,0,0,0,0,0,0,0,0,0,-1,1574,1492,0,0
357,-468,0,0,0,0,0,0,0,0,0,-1,1581,1492,0,0
364,-468,0,0,0,0,0,0,0,0,0,-1,1588,1492,0,0
371,-468,0,0,0,0,0,0,0,0,0,-1,1595,1492,0,0
378,-468,0,0,0,0,0,0,0,0,0,-1,1602,1492,0,0
385,-468,0,0,0,0,0,0,0,0,0,-1,1609,1492,0,0
392,-468,0,0,0,0,0,0,0,0,0,-1,1616,1492,0,0
399,-468,0,0,0,0,0,0,0,0,0,-1,1623,1492,0,0
406,-468,0,0,0,0,0,0,0,0,0,-1,1630,1492,0,0
413,-468,0,0,0,0,0,0,0,0,0,-1,1637,1492,0,0
420,-468,0,0,0,0,0,0,0,0,0,-1,1644,1492,0,0
427,-468,0,0,0,0,0,0,0,0,0,-1,1651,1492,0,0
434,-468,0,0,0,0,0,0,0,0,0,-1,1658,1492,0,0
441,-468,0,0,0,0,0,0,0,0,0,-1,1665,1492,0,0
448,-468,0,0,0,0,0,0,0,0,0,-1,1672,1492,0,0
455,-468,0,0,0,0,0,0,0,0,0,-1,1679,1492,0,0
462,-468,0,0,0,0,0,0,0,0,0,-1,1686,1492,0,0
469,-468,5.38721,-0.970459,0,0,0,0,0,0,0,-1,1693,1492,5.38719,0.970473
476,-468,12.6769,-0.730103,0,0,0,0,0,0,0,-1,1700,1492,12.6768,0.730049
483,-468,7.36536,1.97229,0,0,0,0,0,0,0,-1,1707,1492,7.3654,-1.97228
490,-468,8.6637,1.31604,0,0,0,0,0,0,0,-1,1714,1492,8.66373,-1.31608
497,-468,8.01721,1.53418,-0.0588341,-0.041952,0.0594643,0.00966731,-0.110453,0.855903,0.0770605,0.0441262,1721,1492,8.01719,-1.5342
504,-468,6.90271,1.84033,-0.0471177,-0.0411605,0.0503903,0.00633918,-0.0946174,0.814919,0.065294,0.0461213,1728,1492,6.9027,-1.84033
511,-468,6.60632,2.40442,-0.0369329,-0.0392081,0.0418423,0.00378722,-0.0799282,0.771808,0.0545917,0.0450758,1735,1492,6.60638,-2.40446
518,-468,5.77002,2.73181,0,0,0,0,0,0,0,-1,1742,1492,5.77001,-2.73182
525,-468,5.37659,2.36401,0,0,0,0,0,0,0,-1,1749,1492,5.37656,-2.36398
532,-468,5.33081,2.69922,0,0,0,0,0,0,0,-1,1756,1492,5.33082,-2.69926
539,-468,5.58411,4.13892,0,0,0,0,0,0,0,-1,1763,1492,5.58416,-4.13887
546,-468,5.75635,3.98767,-0.0013148,-0.0171157,0.0121662,0.00529106,-0.0237215,0.497429,0.0178415,0.0493552,1770,1492,5.75629,-3.98763
553,-468,5.83569,3.79919,0.00245358,-0.0125608,0.00977057,0.00726799,-0.0173752,0.457827,0.0146212,0.0331685,1777,1492,5.83575,-3.79923
560,-468,5.78723,3.75183,0.00430608,-0.00824922,0.00778925,0.0080325,-0.0119756,0.446223,0.0116262,0.0166957,1784,1492,5.7872,-3.7518
567,-468,5.76025,3.68787,0.00440754,-0.00515969,0.00601328,0.00730784,-0.00805998,0.4494,0.00887616,0.012463,1791,1492,5.76024,-3.68781
574,-468,5.76306,3.58398,0.00337631,-0.00309555,0.00457398,0.00574328,-0.00546252,0.477539,0.00647035,0.0132511,1798,1492,5.76305,-3.58404
581,-468,5.77087,3.5072,0.00221586,-0.00159175,0.00325483,0.00408278,-0.00345867,0.52077,0.00435903,0.0140675,1805,1492,5.7709,-3.50722
588,-468,5.74097,3.42944,0.000962193,-0.000476836,0.00233819,0.00268907,-0.00220372,0.636135,0.00282948,0.0119439,1812,1492,5.74098,-3.42942
595,-468,5.72949,3.33813,4.30812e-05,5.19951e-05,0.00173657,0.00178412,-0.00168904,0.786681,0.00200548,0.00991477,1819,1492,5.7295,-3.33816
602,-468,5.74475,3.25256,-0.00076276,0.000288862,0.00118916,0.00106328,-0.00153717,0.993559,0.00150966,0.00873731,1826,1492,5.74478,-3.2526
609,-468,5.7406,3.14929,-0.00119851,0.000665467,0.000587684,0.000835285,-0.00136832,1.2895,0.0012846,0.00943672,1833,1492,5.74057,-3.14931
616,-468,5.74146,3.06287,-0.00120369,0.000978443,-0.000123753,0.000985439,-0.00121069,-1.51433,0.00127016,0.00964321,1840,1492,5.7414,-3.06285
623,-468,5.73853,2.97607,-0.000471524,0.00208621,-0.00092438,0.00238531,-0.000770624,-1.25786,0.00189991,0.010306,1847,1492,5.73849,-2.97603
630,-468,5.74255,2.8739,0.00108461,0.00387586,-0.00212789,0.00502497,-6.44992e-05,-1.07564,0.00337169,0.0106143,1854,1492,5.74258,-2.87385
637,-468,5.76074,2.80444,0.00330623,0.00608446,-0.004021,0.00894953,0.000441159,-0.951713,0.00582487,0.0139713,1861,1492,5.76075,-2.80444
644,-468,5.71179,2.77747,0.00654373,0.00914302,-0.00658434,0.0145548,0.00113199,-0.882838,0.00934871,0.0222104,1868,1492,5.71181,-2.77752
651,-468,5.84595,2.56506,0.0117133,0.0136968,-0.0103601,0.0231125,0.00229764,-0.833118,0.0147024,0.0397848,1875,1492,5.84598,-2.56505
658,-468,5.95496,2.25134,0.0195496,0.0203347,-0.0156804,0.0356274,0.00425682,-0.797913,0.0224675,0.0458049,1882,1492,5.95501,-2.25138
665,-468,5.99207,1.8501,0,0,0,0,0,0,0,-1,1889,1492,5.99204,-1.85006
672,-468,6.32019,1.28394,0,0,0,0,0,0,0,-1,1896,1492,6.32015,-1.28391
679,-468,5.92993,2.51404,0,0,0,0,0,0,0,-1,1903,1492,5.92999,-2.51404
686,-468,6.92493,2.3241,0,0,0,0,0,0,0,-1,1910,1492,6.92488,-2.32411
693,-468,0,0,0,0,0,0,0,0,0,-1,1917,1492,0,0
700,-468,0,0,0,0,0,0,0,0,0,-1,1924,1492,0,0
707,-468,0,0,0,0,0,0,0,0,0,-1,1931,1492,0,0
714,-468,0,0,0,0,0,0,0,0,0,-1,1938,1492,0,0
721,-468,0,0,0,0,0,0,0,0,0,-1,1945,1492,0,0
728,-468,0,0,0,0,0,0,0,0,0,-1,1952,1492,0,0
735,-468,0,0,0,0,0,0,0,0,0,-1,1959,1492,0,0
742,-468,0,0,0,0,0,0,0,0,0,-1,1966,1492,0,0
749,-468,0,0,0,0,0,0,0,0,0,-1,1973,1492,0,0
756,-468,0,0,0,0,0,0,0,0,0,-1,1980,1492,0,0
763,-468,0,0,0,0,0,0,0,0,0,-1,1987,1492,0,0
770,-468,0,0,0,0,0,0,0,0,0,-1,1994,1492,0,0
777,-468,0,0,0,0,0,0,0,0,0,-1,2001,1492,0,0
784,-468,0,0,0,0,0,0,0,0,0,-1,2008,1492,0,0
791,-468,0,0,0,0,0,0,0,0,0,-1,2015,1492,0,0
798,-468,0,0,0,0,0,0,0,0,0,-1,2022,1492,0,0
805,-468,0,0,0,0,0,0,0,0,0,-1,2029,1492,0,0
812,-468,0,0,0,0,0,0,0,0,0,-1,2036,1492,0,0
-700,-475,0,0,0,0,0,0,0,0,0,-1,524,1499,0,0
-693,-475,0,0,0,0,0,0,0,0,0,-1,531,1499,0,0
-686,-475,0,0,0,0,0,0,0,0,0,-1,538,1499,0,0
-679,-475,0,0,0,0,0,0,0,0,0,-1,545,1499,0,0
-672,-475,0,0,0,0,0,0,0,0,0,-1,552,1499,0,0
-665,-475,0,0,0,0,0,0,0,0,0,-1,559,1499,0,0
-658,-475,0,0,0,0,0,0,0,0,0,-1,566,1499,0,0
-651,-475,0,0,0,0,0,0,0,0,0,-1,573,1499,0,0
-644,-475,0,0,0,0,0,0,0,0,0,-1,580,1499,0,0
-637,-475,0,0,0,0,0,0,0,0,0,-1,587,1499,0,0
-630,-475,0,0,0,0,0,0,0,0,0,-1,594,1499,0,0
-623,-475,0,0,0,0,0,0,0,0,0,-1,601,1499,0,0
-616,-475,0,0,0,0,0,0,0,0,0,-1,608,1499,0,0
-609,-475,0,0,0,0,0,0,0,0,0,-1,615,1499,0,0
-602,-475,0,0,0,0,0,0,0,0,0,-1,622,1499,0,0
-595,-475,0,0,0,0,0,0,0,0,0,-1,629,1499,0,0
-588,-475,0,0,0,0,0,0,0,0,0,-1,636,1499,0,0
-581,-475,0,0,0,0,0,0,0,0,0,-1,643,1499,0,0
-574,-475,0,0,0,0,0,0,0,0,0,-1,650,1499,0,0
-567,-475,0,0,0,0,0,0,0,0,0,-1,657,1499,0,0
-560,-475,-1.08887,-1.68933,0.143506,0.01324,0.113377,0.209128,-0.0523813,0.524676,0.159767,0.0452228,664,1499,-1.08888,1.6893
-553,-475,-0.484253,-1.04272,0.129465,0.00845033,0.0981279,0.184241,-0.0463257,0.509125,0.140832,0.0445691,671,1499,-0.484263,1.04268
-546,-475,0.402405,-0.35791,0,0,0,0,0,0,0,-1,678,1499,0.402411,0.35786
-539,-475,1.27271,0.295776,0,0,0,0,0,0,0,-1,685,1499,1.27271,-0.295738
-532,-475,-0.685852,2.36743,0,0,0,0,0,0,0,-1,692,1499,-0.685837,-2.36744
-525,-475,0.439941,1.01904,0,0,0,0,0,0,0,-1,699,1499,0.439924,-1.01905
-518,-475,0.107605,2.17334,0,0,0,0,0,0,0,-1,706,1499,0.107586,-2.17337
-511,-475,0.163086,2.15723,0.0385146,-0.00534835,0.0216987,0.0474347,-0.0142685,0.390032,0.0373004,0.0473591,713,1499,0.163103,-2.15725
-504,-475,0.245544,2.19092,0.0277599,-0.00607104,0.0142585,0.0329677,-0.0112788,0.350186,0.026549,0.0261936,720,1499,0.245564,-2.19089
-497,-475,0.256775,2.31226,0.0185507,-0.00550435,0.00864688,0.0213363,-0.00829,0.311657,0.0176489,0.0116742,727,1499,0.256775,-2.3123
-490,-475,0.261841,2.42029,0.00943756,-0.00506031,0.00291897,0.0100032,-0.00562594,0.191406,0.00914069,0.00798804,734,1499,0.261852,-2.42032
-483,-475,0.266113,2.53186,0.00492607,-0.00142231,0.00100521,0.00508143,-0.00157767,0.153346,0.00401812,0.00823647,741,1499,0.266092,-2.53189
-476,-475,0.266479,2.61255,0.00298336,-0.000796979,0.00015597,0.00298978,-0.000803403,0.0411649,0.00230808,0.00977046,748,1499,0.266484,-2.61258
-469,-475,0.262939,2.69031,0.00148305,-0.000329259,-0.000201326,0.00150514,-0.000351354,-0.109313,0.00113876,0.0109348,755,1499,0.262961,-2.69025
-462,-475,0.283691,2.78137,0.000569091,0.000293522,-0.000371241,0.000827292,3.53209e-05,-0.607704,0.00054014,0.0144409,762,1499,0.283666,-2.78134
-455,-475,0.267151,2.88062,0.000814574,0.00134429,-0.0014009,0.00250515,-0.000346288,-0.878826,0.00179669,0.0140527,769,1499,0.26714,-2.88057
-448,-475,0.251465,3.01294,0.00143618,0.00207315,-0.00231844,0.00409487,-0.000585544,-0.853656,0.00294457,0.0127102,776,1499,0.251477,-3.01293
-441,-475,0.242554,3.12329,0.00234505,0.00287922,-0.00325824,0.00588131,-0.000657037,-0.826292,0.00415723,0.0163071,783,1499,0.242527,-3.12326
-434,-475,0.259277,3.1665,0.00418245,0.00394134,-0.00438366,0.00844722,-0.000323422,-0.771651,0.00574232,0.0110648,790,1499,0.259266,-3.16647
-427,-475,0.283264,3.26257,0.00675313,0.0051926,-0.00580257,0.0118277,0.00011807,-0.718565,0.00784604,0.0109637,797,1499,0.283273,-3.26256
-420,-475,0.306213,3.3811,0.0109246,0.00671161,-0.0073522,0.0164661,0.00117008,-0.64588,0.0106089,0.0144935,804,1499,0.30619,-3.38113
-413,-475,0.395325,3.35535,0.0174071,0.0140799,-0.00766862,0.0235905,0.0078965,-0.678586,0.0138658,0.0291352,811,1499,0.395302,-3.3553
-406,-475,0.670715,3.16553,0.0261133,0.0264087,-0.00651645,0.0327791,0.0197429,-0.79673,0.0190566,0.0449233,818,1499,0.670742,-3.16548
-399,-475,0.716553,3.12427,0,0,0,0,0,0,0,-1,825,1499,0.716563,-3.12425
-392,-475,0.431885,3.50671,0.0462413,0.0632728,-0.00208783,0.063525,0.0459891,-1.45058,0.0378827,0.0449243,832,1499,0.431885,-3.50671
-385,-475,0.561829,3.65845,0.0567877,0.088313,0.000931658,0.0883405,0.0567602,1.54128,0.0516894,0.0426809,839,1499,0.56181,-3.6585
-378,-475,0.993286,3.9054,0,0,0,0,0,0,0,-1,846,1499,0.99329,-3.90538
-371,-475,1.16882,0.652466,0,0,0,0,0,0,0,-1,853,1499,1.16883,-0.652428
-364,-475,1.53912,9.46326,0,0,0,0,0,0,0,-1,860,1499,1.53912,-9.4633
-357,-475,2.3808,9.97913,0,0,0,0,0,0,0,-1,867,1499,2.3808,-9.97916
-350,-475,-1.42865,3.47607,0,0,0,0,0,0,0,-1,874,1499,-1.42864,-3.47606
-343,-475,2.49066,1.85254,0,0,0,0,0,0,0,-1,881,1499,2.49066,-1.85255
-336,-475,0,0,0,0,0,0,0,0,0,-1,888,1499,0,0
-329,-475,0,0,0,0,0,0,0,0,0,-1,895,1499,0,0
-322,-475,0,0,0,0,0,0,0,0,0,-1,902,1499,0,0
-315,-475,0,0,0,0,0,0,0,0,0,-1,909,1499,0,0
-308,-475,0,0,0,0,0,0,0,0,0,-1,916,1499,0,0
-301,-475,0,0,0,0,0,0,0,0,0,-1,923,1499,0,0
-294,-475,0,0,0,0,0,0,0,0,0,-1,930,1499,0,0
-287,-475,0,0,0,0,0,0,0,0,0,-1,937,1499,0,0
-280,-475,0,0,0,0,0,0,0,0,0,-1,944,1499,0,0
-273,-475,0,0,0,0,0,0,0,0,0,-1,951,1499,0,0
-266,-475,0,0,0,0,0,0,0,0,0,-1,958,1499,0,0
-259,-475,0,0,0,0,0,0,0,0,0,-1,965,1499,0,0
-252,-475,0,0,0,0,0,0,0,0,0,-1,972,1499,0,0
-245,-475,0,0,0,0,0,0,0,0,0,-1,979,1499,0,0
-238,-475,0,0,0,0,0,0,0,0,0,-1,986,1499,0,0
-231,-475,0,0,0,0,0,0,0,0,0,-1,993,1499,0,0
-224,-475,0,0,0,0,0,0,0,0,0,-1,1000,1499,0,0
-217,-475,0,0,0,0,0,0,0,0,0,-1,1007,1499,0,0
-210,-475,0,0,0,0,0,0,0,0,0,-1,1014,1499,0,0
-203,-475,0,0,0,0,0,0,0,0,0,-1,1021,1499,0,0
-196,-475,0,0,0,0,0,0,0,0,0,-1,1028,1499,0,0
-189,-475,0,0,0,0,0,0,0,0,0,-1,1035,1499,0,0
-182,-475,0,0,0,0,0,0,0,0,0,-1,1042,1499,0,0
-175,-475,0,0,0,0,0,0,0,0,0,-1,1049,1499,0,0
-168,-475,0,0,0,0,0,0,0,0,0,-1,1056,1499,0,0
-161,-475,0,0,0,0,0,0,0,0,0,-1,1063,1499,0,0
-154,-475,0,0,0,0,0,0,0,0,0,-1,1070,1499,0,0
-147,-475,0,0,0,0,0,0,0,0,0,-1,1077,1499,0,0
-140,-475,0,0,0,0,0,0,0,0,0,-1,1084,1499,0,0
-133,-475,0,0,0,0,0,0,0,0,0,-1,1091,1499,0,0
-126,-475,0,0,0,0,0,0,0,0,0,-1,1098,1499,0,0
-119,-475,0,0,0,0,0,0,0,0,0,-1,1105,1499,0,0
-112,-475,0,0,0,0,0,0,0,0,0,-1,1112,1499,0,0
-105,-475,0,0,0,0,0,0,0,0,0,-1,1119,1499,0,0
-98,-475,0,0,0,0,0,0,0,0,0,-1,1126,1499,0,0
-91,-475,0,0,0,0,0,0,0,0,0,-1,1133,1499,0,0
-84,-475,0,0,0,0,0,0,0,0,0,-1,1140,1499,0,0
-77,-475,0,0,0,0,0,0,0,0,0,-1,1147,1499,0,0
-70,-475,0,0,0,0,0,0,0,0,0,-1,1154,1499,0,0
-63,-475,0,0,0,0,0,0,0,0,0,-1,1161,1499,0,0
-56,-475,0,0,0,0,0,0,0,0,0,-1,1168,1499,0,0
-49,-475,0,0,0,0,0,0,0,0,0,-1,1175,1499,0,0
-42,-475,0,0,0,0,0,0,0,0,0,-1,1182,1499,0,0
-35,-475,0,0,0,0,0,0,0,0,0,-1,1189,1499,0,0
-28,-475,0,0,0,0,0,0,0,0,0,-1,1196,1499,0,0
-21,-475,0,0,0,0,0,0,0,0,0,-1,1203,1499,0,0
-14,-475,0,0,0,0,0,0,0,0,0,-1,1210,1499,0,0
-7,-475,0,0,0,0,0,0,0,0,0,-1,1217,1499,0,0
0,-475,0,0,0,0,0,0,0,0,0,-1,1224,1499,0,0
7,-475,0,0,0,0,0,0,0,0,0,-1,1231,1499,0,0
14,-475,0,0,0,0,0,0,0,0,0,-1,1238,1499,0,0
21,-475,0,0,0,0,0,0,0,0,0,-1,1245,1499,0,0
28,-475,0,0,0,0,0,0,0,0,0,-1,1252,1499,0,0
35,-475,0,0,0,0,0,0,0,0,0,-1,1259,1499,0,0
42,-475,0,0,0,0,0,0,0,0,0,-1,1266,1499,0,0
49,-475,0,0,0,0,0,0,0,0,0,-1,1273,1499,0,0
56,-475,0,0,0,0,0,0,0,0,0,-1,1280,1499,0,0
63,-475,0,0,0,0,0,0,0,0,0,-1,1287,1499,0,0
70,-475,0,0,0,0,0,0,0,0,0,-1,1294,1499,0,0
77,-475,0,0,0,0,0,0,0,0,0,-1,1301,1499,0,0
84,-475,0,0,0,0,0,0,0,0,0,-1,1308,1499,0,0
91,-475,0,0,0,0,0,0,0,0,0,-1,1315,1499,0,0
98,-475,0,0,0,0,0,0,0,0,0,-1,1322,1499,0,0
105,-475,0,0,0,0,0,0,0,0,0,-1,1329,1499,0,0
112,-475,0,0,0,0,0,0,0,0,0,-1,1336,1499,0,0
119,-475,0,0,0,0,0,0,0,0,0,-1,1343,1499,0,0
126,-475,0,0,0,0,0,0,0,0,0,-1,1350,1499,0,0
133,-475,0,0,0,0,0,0,0,0,0,-1,1357,1499,0,0
140,-475,0,0,0,0,0,0,0,0,0,-1,1364,1499,0,0
147,-475,0,0,0,0,0,0,0,0,0,-1,1371,1499,0,0
154,-475,0,0,0,0,0,0,0,0,0,-1,1378,1499,0,0
161,-475,0,0,0,0,0,0,0,0,0,-1,1385,1499,0,0
168,-475,0,0,0,0,0,0,0,0,0,-1,1392,1499,0,0
175,-475,0,0,0,0,0,0,0,0,0,-1,1399,1499,0,0
182,-475,0,0,0,0,0,0,0,0,0,-1,1406,1499,0,0
189,-475,0,0,0,0,0,0,0,0,0,-1,1413,1499,0,0
196,-475,0,0,0,0,0,0,0,0,0,-1,1420,1499,0,0
203,-475,0,0,0,0,0,0,0,0,0,-1,1427,1499,0,0
210,-475,0,0,0,0,0,0,0,0,0,-1,1434,1499,0,0
217,-475,0,0,0,0,0,0,0,0,0,-1,1441,1499,0,0
224,-475,0,0,0,0,0,0,0,0,0,-1,1448,1499,0,0
231,-475,0,0,0,0,0,0,0,0,0,-1,1455,1499,0,0
238,-475,0,0,0,0,0,0,0,0,0,-1,1462,1499,0,0
245,-475,0,0,0,0,0,0,0,0,0,-1,1469,1499,0,0
252,-475,0,0,0,0,0,0,0,0,0,-1,1476,1499,0,0
259,-475,0,0,0,0,0,0,0,0,0,-1,1483,1499,0,0
266,-475,0,0,0,0,0,0,0,0,0,-1,1490,1499,0,0
273,-475,0,0,0,0,0,0,0,0,0,-1,1497,1499,0,0
280,-475,0,0,0,0,0,0,0,0,0,-1,1504,1499,0,0
287,-475,0,0,0,0,0,0,0,0,0,-1,1511,1499,0,0
294,-475,0,0,0,0,0,0,0,0,0,-1,1518,1499,0,0
301,-475,0,0,0,0,0,0,0,0,0,-1,1525,1499,0,0
308,-475,0,0,0,0,0,0,0,0,0,-1,1532,1499,0,0
315,-475,0,0,0,0,0,0,0,0,0,-1,1539,1499,0,0
322,-475,0,0,0,0,0,0,0,0,0,-1,1546,1499,0,0
329,-475,0,0,0,0,0,0,0,0,0,-1,1553,1499,0,0
336,-475,0,0,0,0,0,0,0,0,0,-1,1560,1499,0,0
343,-475,0,0,0,0,0,0,0,0,0,-1,1567,1499,0,0
350,-475,0,0,0,0,0,0,0,0,0,-1,1574,1499,0,0
357,-475,0,0,0,0,0,0,0,0,0,-1,1581,1499,0,0
364,-475,0,0,0,0,0,0,0,0,0,-1,1588,1499,0,0
371,-475,0,0,0,0,0,0,0,0,0,-1,1595,1499,0,0
378,-475,0,0,0,0,0,0,0,0,0,-1,1602,1499,0,0
385,-475,0,0,0,0,0,0,0,0,0,-1,1609,1499,0,0
392,-475,0,0,0,0,0,0,0,0,0,-1,1616,1499,0,0
399,-475,0,0,0,0,0,0,0,0,0,-1,1623,1499,0,0
406,-475,0,0,0,0,0,0,0,0,0,-1,1630,1499,0,0
413,-475,0,0,0,0,0,0,0,0,0,-1,1637,1499,0,0
420,-475,0,0,0,0,0,0,0,0,0,-1,1644,1499,0,0
427,-475,0,0,0,0,0,0,0,0,0,-1,1651,1499,0,0
434,-475,0,0,0,0,0,0,0,0,0,-1,1658,1499,0,0
441,-475,0,0,0,0,0,0,0,0,0,-1,1665,1499,0,0
448,-475,0,0,0,0,0,0,0,0,0,-1,1672,1499,0,0
455,-475,0,0,0,0,0,0,0,0,0,-1,1679,1499,0,0
462,-475,4.57129,-0.142456,0,0,0,0,0,0,0,-1,1686,1499,4.57133,0.142421
469,-475,12.045,-1.21741,0,0,0,0,0,0,0,-1,1693,1499,12.045,1.21736
476,-475,11.7855,-0.302734,0,0,0,0,0,0,0,-1,1700,1499,11.7855,0.302787
483,-475,11.5261,0.611816,0,0,0,0,0,0,0,-1,1707,1499,11.5261,-0.611783
490,-475,8.05945,1.69519,0,0,0,0,0,0,0,-1,1714,1499,8.0595,-1.69515
497,-475,7.63611,1.75085,-0.0545237,-0.0489933,0.0583488,0.00665575,-0.110173,0.809076,0.0757646,0.0436768,1721,1499,7.63608,-1.7508
504,-475,6.97852,1.98682,-0.0454716,-0.046575,0.0475629,0.00154276,-0.0935894,0.779598,0.0629135,0.0465084,1728,1499,6.97851,-1.98682
511,-475,6.67993,2.46631,-0.0364785,-0.0431057,0.0384999,-0.00114985,-0.0784344,0.74247,0.0519106,0.0421391,1735,1499,6.67997,-2.46627
518,-475,5.59912,2.25049,0,0,0,0,0,0,0,-1,1742,1499,5.59915,-2.25054
525,-475,5.48193,2.55908,-0.0206902,-0.0347403,0.0222475,-0.00438497,-0.0510455,0.632469,0.032667,0.0455169,1749,1499,5.48198,-2.55909
532,-475,5.47388,2.85681,-0.0136977,-0.0294562,0.0155904,-0.00410861,-0.0390453,0.551422,0.0247745,0.0425403,1756,1499,5.47384,-2.85685
539,-475,5.37549,3.30615,-0.007375,-0.0232276,0.012158,-0.000787701,-0.0298149,0.49653,0.0196193,0.0451297,1763,1499,5.37549,-3.30611
546,-475,5.69263,3.93201,-0.00284609,-0.0175606,0.00964755,0.00192944,-0.0223361,0.459639,0.0155738,0.0373531,1770,1499,5.69268,-3.93203
553,-475,5.70483,3.84509,0.000855572,-0.0128712,0.00760222,0.00423425,-0.0162499,0.418215,0.0124863,0.0176119,1777,1499,5.70488,-3.84507
560,-475,5.63733,3.77344,0.00296586,-0.00845814,0.00593461,0.00549076,-0.010983,0.402255,0.00968575,0.0123896,1784,1499,5.6373,-3.77342
567,-475,5.67444,3.67957,0.00349436,-0.00524878,0.00448247,0.00538403,-0.00713845,0.398961,0.00725347,0.0128659,1791,1499,5.67443,-3.67956
574,-475,5.6781,3.59705,0.00300208,-0.00306425,0.00331292,0.00446063,-0.0045228,0.414726,0.00518663,0.0137926,1798,1499,5.67812,-3.59704
581,-475,5.67419,3.51282,0.00231139,-0.00141912,0.00215874,0.00329908,-0.00240682,0.429102,0.0033077,0.0117902,1805,1499,5.67423,-3.51281
588,-475,5.65625,3.42737,0.00137421,-0.000174737,0.00138074,0.00218285,-0.00098338,0.529808,0.00187124,0.010061,1812,1499,5.65627,-3.42735
595,-475,5.65991,3.33716,0.000782357,0.000467447,0.000866921,0.00150601,-0.000256202,0.695565,0.0010994,0.0105608,1819,1499,5.65987,-3.33722
602,-475,5.66431,3.23364,0.000328388,0.000854811,0.000374331,0.00104921,0.000133993,1.09182,0.00065936,0.0120349,1826,1499,5.66428,-3.23361
609,-475,5.66553,3.1488,0.000223961,0.00139734,-0.000223186,0.00143836,0.000182943,-1.38904,0.000904114,0.0115749,1833,1499,5.66548,-3.14875
616,-475,5.66321,3.07385,0.000516485,0.00191969,-0.000954263,0.00240251,3.36617e-05,-1.10239,0.00159057,0.0114227,1840,1499,5.66321,-3.07384
623,-475,5.65637,2.97913,0.00145331,0.00315155,-0.00186446,0.00435114,0.000253726,-0.999076,0.00281999,0.0111382,1847,1499,5.65635,-2.97911
630,-475,5.66602,2.89258,0.00322895,0.00507394,-0.0032071,0.00748859,0.000814307,-0.925438,0.00474431,0.0122757,1854,1499,5.66607,-2.89252
637,-475,5.6416,2.85205,0.00573614,0.00744656,-0.00526466,0.011925,0.00125768,-0.865917,0.00756571,0.0235877,1861,1499,5.64157,-2.85208
644,-475,5.53943,3.0365,0.00935368,0.0107634,-0.00812018,0.0182093,0.00190784,-0.828693,0.0115562,0.0423634,1868,1499,5.53941,-3.03653
651,-475,5.94873,2.5968,0,0,0,0,0,0,0,-1,1875,1499,5.94874,-2.59677
658,-475,6.21558,2.50891,0,0,0,0,0,0,0,-1,1882,1499,6.2156,-2.50891
665,-475,5.92029,1.99292,0,0,0,0,0,0,0,-1,1889,1499,5.92031,-1.99296
672,-475,5.92761,1.30859,0,0,0,0,0,0,0,-1,1896,1499,5.92766,-1.30857
679,-475,6.35779,2.53442,0,0,0,0,0,0,0,-1,1903,1499,6.35781,-2.53439
686,-475,0,0,0,0,0,0,0,0,0,-1,1910,1499,0,0
693,-475,0,0,0,0,0,0,0,0,0,-1,1917,1499,0,0
700,-475,0,0,0,0,0,0,0,0,0,-1,1924,1499,0,0
707,-475,0,0,0,0,0,0,0,0,0,-1,1931,1499,0,0
714,-475,0,0,0,0,0,0,0,0,0,-1,1938,1499,0,0
721,-475,0,0,0,0,0,0,0,0,0,-1,1945,1499,0,0
728,-475,0,0,0,0,0,0,0,0,0,-1,1952,1499,0,0
735,-475,0,0,0,0,0,0,0,0,0,-1,1959,1499,0,0
742,-475,0,0,0,0,0,0,0,0,0,-1,1966,1499,0,0
749,-475,0,0,0,0,0,0,0,0,0,-1,1973,1499,0,0
756,-475,0,0,0,0,0,0,0,0,0,-1,1980,1499,0,0
763,-475,0,0,0,0,0,0,0,0,0,-1,1987,1499,0,0
770,-475,0,0,0,0,0,0,0,0,0,-1,1994,1499,0,0
777,-475,0,0,0,0,0,0,0,0,0,-1,2001,1499,0,0
784,-475,0,0,0,0,0,0,0,0,0,-1,2008,1499,0,0
791,-475,0,0,0,0,0,0,0,0,0,-1,2015,1499,0,0
798,-475,0,0,0,0,0,0,0,0,0,-1,2022,1499,0,0
805,-475,0,0,0,0,0,0,0,0,0,-1,2029,1499,0,0
812,-475,0,0,0,0,0,0,0,0,0,-1,2036,1499,0,0
-700,-482,0,0,0,0,0,0,0,0,0,-1,524,1506,0,0
-693,-482,0,0,0,0,0,0,0,0,0,-1,531,1506,0,0
-686,-482,0,0,0,0,0,0,0,0,0,-1,538,1506,0,0
-679,-482,0,0,0,0,0,0,0,0,0,-1,545,1506,0,0
-672,-482,0,0,0,0,0,0,0,0,0,-1,552,1506,0,0
-665,-482,0,0,0,0,0,0,0,0,0,-1,559,1506,0,0
-658,-482,0,0,0,0,0,0,0,0,0,-1,566,1506,0,0
-651,-482,0,0,0,0,0,0,0,0,0,-1,573,1506,0,0
-644,-482,0,0,0,0,0,0,0,0,0,-1,580,1506,0,0
-637,-482,0,0,0,0,0,0,0,0,0,-1,587,1506,0,0
-630,-482,0,0,0,0,0,0,0,0,0,-1,594,1506,0,0
-623,-482,0,0,0,0,0,0,0,0,0,-1,601,1506,0,0
-616,-482,0,0,0,0,0,0,0,0,0,-1,608,1506,0,0
-609,-482,0,0,0,0,0,0,0,0,0,-1,615,1506,0,0
-602,-482,0,0,0,0,0,0,0,0,0,-1,622,1506,0,0
-595,-482,0,0,0,0,0,0,0,0,0,-1,629,1506,0,0
-588,-482,0,0,0,0,0,0,0,0,0,-1,636,1506,0,0
-581,-482,0,0,0,0,0,0,0,0,0,-1,643,1506,0,0
-574,-482,0,0,0,0,0,0,0,0,0,-1,650,1506,0,0
-567,-482,0,0,0,0,0,0,0,0,0,-1,657,1506,0,0
-560,-482,0,0,0,0,0,0,0,0,0,-1,664,1506,0,0
-553,-482,-0.996521,-1.67358,0,0,0,0,0,0,0,-1,671,1506,-0.996498,1.67355
-546,-482,-0.00738525,-0.871704,0,0,0,0,0,0,0,-1,678,1506,-0.00737494,0.871693
-539,-482,2.60858,-0.474854,0,0,0,0,0,0,0,-1,685,1506,2.60857,0.474799
-532,-482,-0.0661621,3.71729,0,0,0,0,0,0,0,-1,692,1506,-0.0661479,-3.71733
-525,-482,0.86377,3.20105,0,0,0,0,0,0,0,-1,699,1506,0.863761,-3.20099
-518,-482,0.653198,2.88379,0,0,0,0,0,0,0,-1,706,1506,0.653218,-2.88374
-511,-482,0.206787,2.05493,0,0,0,0,0,0,0,-1,713,1506,0.206763,-2.05493
-504,-482,0.316284,2.16943,0.0353962,-0.00999154,0.0163273,0.0406594,-0.0152546,0.311833,0.0333742,0.0429905,720,1506,0.316305,-2.16944
-497,-482,0.370544,2.29688,0.0242979,-0.00839745,0.0100041,0.0271161,-0.0112156,0.274583,0.0227566,0.0217427,727,1506,0.370518,-2.29686
-490,-482,0.357178,2.40283,0.012833,-0.00726496,0.00313992,0.0133121,-0.0077441,0.151425,0.0122977,0.0121967,734,1506,0.357162,-2.40285
-483,-482,0.369263,2.51501,0.00717078,-0.00244813,0.00105375,0.00728486,-0.00256222,0.107846,0.00589914,0.00826381,741,1506,0.369276,-2.51501
-476,-482,0.36676,2.60608,0.00476087,-0.00145685,0.000255903,0.00477139,-0.00146736,0.0410645,0.00376656,0.00949513,748,1506,0.366756,-2.60605
-469,-482,0.347412,2.6897,0.00296587,-0.000845632,1.46157e-05,0.00296592,-0.000845688,0.00383456,0.00231134,0.0103002,755,1506,0.347439,-2.68974
-462,-482,0.362305,2.78662,0.00191942,-0.000169926,-7.20516e-05,0.0019219,-0.000172408,-0.0344307,0.00134243,0.011034,762,1506,0.362321,-2.78667
-455,-482,0.358704,2.90222,0.00196145,0.000612692,-0.000928176,0.00243437,0.000139772,-0.471232,0.00157839,0.0116663,769,1506,0.358702,-2.90222
-448,-482,0.358276,3.02661,0.00235859,0.00111125,-0.00171472,0.00355953,-8.96949e-05,-0.610977,0.00240348,0.0117588,776,1506,0.358262,-3.02664
-441,-482,0.349915,3.11121,0.00316908,0.00162645,-0.00247411,0.00498932,-0.00019379,-0.634296,0.00339265,0.0129094,783,1506,0.349903,-3.11123
-434,-482,0.353638,3.18848,0.00478111,0.00233147,-0.00337765,0.00714915,-3.65817e-05,-0.611459,0.00477834,0.0166537,790,1506,0.353647,-3.18847
-427,-482,0.350464,3.27783,0.00692981,0.0030923,-0.00445475,0.00986146,0.000160655,-0.582045,0.00652141,0.0177167,797,1506,0.350437,-3.2778
-420,-482,0.368591,3.41284,0.0104738,0.00404,-0.00563401,0.0137446,0.000769176,-0.525994,0.00891776,0.0173511,804,1506,0.368586,-3.41282
-413,-482,0.423096,3.46558,0.0158957,0.010096,-0.00569618,0.0193877,0.00660401,-0.549953,0.0113815,0.0205309,811,1506,0.423119,-3.46563
-406,-482,0.481323,3.36621,0.0230849,0.0204224,-0.00452219,0.0264677,0.0170396,-0.64225,0.0154903,0.0348651,818,1506,0.481343,-3.36617
-399,-482,0.481262,3.31189,0.0305558,0.0343554,-0.00289022,0.0359143,0.0289969,-1.07615,0.0220025,0.0427475,825,1506,0.481241,-3.31191
-392,-482,0.375305,3.43835,0.0393832,0.0510019,-0.000790729,0.0510555,0.0393297,-1.50316,0.0308796,0.0427669,832,1506,0.37533,-3.43834
-385,-482,0.419556,3.43713,0.0474173,0.0717873,0.00163466,0.0718965,0.0473081,1.50412,0.0421947,0.0426007,839,1506,0.419553,-3.43709
-378,-482,0.586243,3.56897,0,0,0,0,0,0,0,-1,846,1506,0.586234,-3.56902
-371,-482,0.647583,4.14331,0,0,0,0,0,0,0,-1,853,1506,0.647613,-4.14326
-364,-482,1.23279,7.26025,0.0676601,0.142126,0.0122817,0.144099,0.0656867,1.41149,0.0833039,0.0492603,860,1506,1.23282,-7.26026
-357,-482,2.19684,7.95374,0.0696732,0.164613,0.0156916,0.167139,0.0671469,1.41117,0.0971171,0.0465926,867,1506,2.19687,-7.95378
-350,-482,2.98193,8.49573,0,0,0,0,0,0,0,-1,874,1506,2.98191,-8.49578
-343,-482,3.79773,7.93372,0,0,0,0,0,0,0,-1,881,1506,3.7977,-7.93369
-336,-482,-5.57947,5.07666,0,0,0,0,0,0,0,-1,888,1506,-5.57948,-5.07663
-329,-482,0,0,0,0,0,0,0,0,0,-1,895,1506,0,0
-322,-482,0,0,0,0,0,0,0,0,0,-1,902,1506,0,0
-315,-482,0,0,0,0,0,0,0,0,0,-1,909,1506,0,0
-308,-482,0,0,0,0,0,0,0,0,0,-1,916,1506,0,0
-301,-482,0,0,0,0,0,0,0,0,0,-1,923,1506,0,0
-294,-482,0,0,0,0,0,0,0,0,0,-1,930,1506,0,0
-287,-482,0,0,0,0,0,0,0,0,0,-1,937,1506,0,0
-280,-482,0,0,0,0,0,0,0,0,0,-1,944,1506,0,0
-273,-482,0,0,0,0,0,0,0,0,0,-1,951,1506,0,0
-266,-482,0,0,0,0,0,0,0,0,0,-1,958,1506,0,0
-259,-482,0,0,0,0,0,0,0,0,0,-1,965,1506,0,0
-252,-482,0,0,0,0,0,0,0,0,0,-1,972,1506,0,0
-245,-482,0,0,0,0,0,0,0,0,0,-1,979,1506,0,0
-238,-482,0,0,0,0,0,0,0,0,0,-1,986,1506,0,0
-231,-482,0,0,0,0,0,0,0,0,0,-1,993,1506,0,0
-224,-482,0,0,0,0,0,0,0,0,0,-1,1000,1506,0,0
-217,-482,0,0,0,0,0,0,0,0,0,-1,1007,1506,0,0
-210,-482,0,0,0,0,0,0,0,0,0,-1,1014,1506,0,0
-203,-482,0,0,0,0,0,0,0,0,0,-1,1021,1506,0,0
-196,-482,0,0,0,0,0,0,0,0,0,-1,1028,1506,0,0
-189,-482,0,0,0,0,0,0,0,0,0,-1,1035,1506,0,0
-182,-482,0,0,0,0,0,0,0,0,0,-1,1042,1506,0,0
-175,-482,0,0,0,0,0,0,0,0,0,-1,1049,1506,0,0
-168,-482,0,0,0,0,0,0,0,0,0,-1,1056,1506,0,0
-161,-482,0,0,0,0,0,0,0,0,0,-1,1063,1506,0,0
-154,-482,0,0,0,0,0,0,0,0,0,-1,1070,1506,0,0
-147,-482,0,0,0,0,0,0,0,0,0,-1,1077,1506,0,0
-140,-482,0,0,0,0,0,0,0,0,0,-1,1084,1506,0,0
-133,-482,0,0,0,0,0,0,0,0,0,-1,1091,1506,0,0
-126,-482,0,0,0,0,0,0,0,0,0,-1,1098,1506,0,0
-119,-482,0,0,0,0,0,0,0,0,0,-1,1105,1506,0,0
-112,-482,0,0,0,0,0,0,0,0,0,-1,1112,1506,0,0
-105,-482,0,0,0,0,0,0,0,0,0,-1,1119,1506,0,0
-98,-482,0,0,0,0,0,0,0,0,0,-1,1126,1506,0,0
-91,-482,0,0,0,0,0,0,0,0,0,-1,1133,1506,0,0
-84,-482,0,0,0,0,0,0,0,0,0,-1,1140,1506,0,0
-77,-482,0,0,0,0,0,0,0,0,0,-1,1147,1506,0,0
-70,-482,0,0,0,0,0,0,0,0,0,-1,1154,1506,0,0
-63,-482,0,0,0,0,0,0,0,0,0,-1,1161,1506,0,0
-56,-482,0,0,0,0,0,0,0,0,0,-1,1168,1506,0,0
-49,-482,0,0,0,0,0,0,0,0,0,-1,1175,1506,0,0
-42,-482,0,0,0,0,0,0,0,0,0,-1,1182,1506,0,0
-35,-482,0,0,0,0,0,0,0,0,0,-1,1189,1506,0,0
-28,-482,0,0,0,0,0,0,0,0,0,-1,1196,1506,0,0
-21,-482,0,0,0,0,0,0,0,0,0,-1,1203,1506,0,0
-14,-482,0,0,0,0,0,0,0,0,0,-1,1210,1506,0,0
-7,-482,0,0,0,0,0,0,0,0,0,-1,1217,1506,0,0
0,-482,0,0,0,0,0,0,0,0,0,-1,1224,1506,0,0
7,-482,0,0,0,0,0,0,0,0,0,-1,1231,1506,0,0
14,-482,0,0,0,0,0,0,0,0,0,-1,1238,1506,0,0
21,-482,0,0,0,0,0,0,0,0,0,-1,1245,1506,0,0
28,-482,0,0,0,0,0,0,0,0,0,-1,1252,1506,0,0
35,-482,0,0,0,0,0,0,0,0,0,-1,1259,1506,0,0
42,-482,0,0,0,0,0,0,0,0,0,-1,1266,1506,0,0
49,-482,0,0,0,0,0,0,0,0,0,-1,1273,1506,0,0
56,-482,0,0,0,0,0,0,0,0,0,-1,1280,1506,0,0
63,-482,0,0,0,0,0,0,0,0,0,-1,1287,1506,0,0
70,-482,0,0,0,0,0,0,0,0,0,-1,1294,1506,0,0
77,-482,0,0,0,0,0,0,0,0,0,-1,1301,1506,0,0
84,-482,0,0,0,0,0,0,0,0,0,-1,1308,1506,0,0
91,-482,0,0,0,0,0,0,0,0,0,-1,1315,1506,0,0
98,-482,0,0,0,0,0,0,0,0,0,-1,1322,1506,0,0
105,-482,0,0,0,0,0,0,0,0,0,-1,1329,1506,0,0
112,-482,0,0,0,0,0,0,0,0,0,-1,1336,1506,0,0
119,-482,0,0,0,0,0,0,0,0,0,-1,1343,1506,0,0
126,-482,0,0,0,0,0,0,0,0,0,-1,1350,1506,0,0
133,-482,0,0,0,0,0,0,0,0,0,-1,1357,1506,0,0
140,-482,0,0,0,0,0,0,0,0,0,-1,1364,1506,0,0
147,-482,0,0,0,0,0,0,0,0,0,-1,1371,1506,0,0
154,-482,0,0,0,0,0,0,0,0,0,-1,1378,1506,0,0
161,-482,0,0,0,0,0,0,0,0,0,-1,1385,1506,0,0
168,-482,0,0,0,0,0,0,0,0,0,-1,1392,1506,0,0
175,-482,0,0,0,0,0,0,0,0,0,-1,1399,1506,0,0
182,-482,0,0,0,0,0,0,0,0,0,-1,1406,1506,0,0
189,-482,0,0,0,0,0,0,0,0,0,-1,1413,1506,0,0
196,-482,0,0,0,0,0,0,0,0,0,-1,1420,1506,0,0
203,-482,0,0,0,0,0,0,0,0,0,-1,1427,1506,0,0
210,-482,0,0,0,0,0,0,0,0,0,-1,1434,1506,0,0
217,-482,0,0,0,0,0,0,0,0,0,-1,1441,1506,0,0
224,-482,0,0,0,0,0,0,0,0,0,-1,1448,1506,0,0
231,-482,0,0,0,0,0,0,0,0,0,-1,1455,1506,0,0
238,-482,0,0,0,0,0,0,0,0,0,-1,1462,1506,0,0
245,-482,0,0,0,0,0,0,0,0,0,-1,1469,1506,0,0
252,-482,0,0,0,0,0,0,0,0,0,-1,1476,1506,0,0
259,-482,0,0,0,0,0,0,0,0,0,-1,1483,1506,0,0
266,-482,0,0,0,0,0,0,0,0,0,-1,1490,1506,0,0
273,-482,0,0,0,0,0,0,0,0,0,-1,1497,1506,0,0
280,-482,0,0,0,0,0,0,0,0,0,-1,1504,1506,0,0
287,-482,0,0,0,0,0,0,0,0,0,-1,1511,1506,0,0
294,-482,0,0,0,0,0,0,0,0,0,-1,1518,1506,0,0
301,-482,0,0,0,0,0,0,0,0,0,-1,1525,1506,0,0
308,-482,0,0,0,0,0,0,0,0,0,-1,1532,1506,0,0
315,-482,0,0,0,0,0,0,0,0,0,-1,1539,1506,0,0
322,-482,0,0,0,0,0,0,0,0,0,-1,1546,1506,0,0
329,-482,0,0,0,0,0,0,0,0,0,-1,1553,1506,0,0
336,-482,0,0,0,0,0,0,0,0,0,-1,1560,1506,0,0
343,-482,0,0,0,0,0,0,0,0,0,-1,1567,1506,0,0
350,-482,0,0,0,0,0,0,0,0,0,-1,1574,1506,0,0
357,-482,0,0,0,0,0,0,0,0,0,-1,1581,1506,0,0
364,-482,0,0,0,0,0,0,0,0,0,-1,1588,1506,0,0
371,-482,0,0,0,0,0,0,0,0,0,-1,1595,1506,0,0
378,-482,0,0,0,0,0,0,0,0,0,-1,1602,1506,0,0
385,-482,0,0,0,0,0,0,0,0,0,-1,1609,1506,0,0
392,-482,0,0,0,0,0,0,0,0,0,-1,1616,1506,0,0
399,-482,0,0,0,0,0,0,0,0,0,-1,1623,1506,0,0
406,-482,0,0,0,0,0,0,0,0,0,-1,1630,1506,0,0
413,-482,0,0,0,0,0,0,0,0,0,-1,1637,1506,0,0
420,-482,0,0,0,0,0,0,0,0,0,-1,1644,1506,0,0
427,-482,0,0,0,0,0,0,0,0,0,-1,1651,1506,0,0
434,-482,0,0,0,0,0,0,0,0,0,-1,1658,1506,0,0
441,-482,0,0,0,0,0,0,0,0,0,-1,1665,1506,0,0
448,-482,4.24146,1.55383,0,0,0,0,0,0,0,-1,1672,1506,4.24149,-1.55381
455,-482,3.9314,0.340576,0,0,0,0,0,0,0,-1,1679,1506,3.93137,-0.340589
462,-482,11.5089,-1.71606,0,0,0,0,0,0,0,-1,1686,1506,11.5089,1.71611
469,-482,11.1906,-0.835083,-0.0449028,-0.045949,0.123328,0.0779033,-0.168755,0.783277,0.145593,0.0491515,1693,1506,11.1906,0.835051
476,-482,10.8741,0.105103,-0.05131,-0.0488773,0.105647,0.0555607,-0.155748,0.791155,0.126487,0.0450739,1700,1506,10.8741,-0.105156
483,-482,10.4832,1.25574,0,0,0,0,0,0,0,-1,1707,1506,10.4832,-1.25579
490,-482,10.1415,2.74658,0,0,0,0,0,0,0,-1,1714,1506,10.1415,-2.74656
497,-482,7.5647,2.01123,-0.0491537,-0.0514401,0.0575198,0.00723424,-0.107828,0.775462,0.0744141,0.0460062,1721,1506,7.56468,-2.01124
504,-482,7.31409,2.10181,-0.0423479,-0.0485515,0.0454877,0.000143606,-0.091043,0.751356,0.0607433,0.0458618,1728,1506,7.3141,-2.10183
511,-482,6.25488,2.39624,0,0,0,0,0,0,0,-1,1735,1506,6.25487,-2.3962
518,-482,5.4425,2.52563,0,0,0,0,0,0,0,-1,1742,1506,5.44249,-2.52563
525,-482,5.47302,2.8512,-0.0206351,-0.0347628,0.0197034,-0.00676759,-0.0486303,0.613281,0.0304164,0.0424706,1749,1506,5.47301,-2.85115
532,-482,5.53552,3.30078,-0.0143558,-0.0291213,0.0133077,-0.0065202,-0.0369569,0.532148,0.0227778,0.0389157,1756,1506,5.53556,-3.30078
539,-482,5.65369,3.93372,-0.00863528,-0.0228288,0.00994285,-0.0035163,-0.0279478,0.475449,0.0175774,0.0300936,1763,1506,5.65364,-3.93377
546,-482,5.55298,3.96912,-0.00435779,-0.0172368,0.00763076,-0.00081252,-0.0207821,0.434931,0.013592,0.0154639,1770,1506,5.55292,-3.96909
553,-482,5.54248,3.85242,-0.000821447,-0.012637,0.00586244,0.00159364,-0.0150521,0.390773,0.0106059,0.0130177,1777,1506,5.54251,-3.85244
560,-482,5.54468,3.76843,0.00147822,-0.00829577,0.00440598,0.00317115,-0.00998869,0.366841,0.00793042,0.0118552,1784,1506,5.54464,-3.76844
567,-482,5.59192,3.68738,0.00238926,-0.00510767,0.00316635,0.00354761,-0.00626601,0.350707,0.0057379,0.0142745,1791,1506,5.59191,-3.68734
574,-482,5.59387,3.60876,0.00251671,-0.0028976,0.00213129,0.003255,-0.00363589,0.333468,0.00398048,0.0134236,1798,1506,5.59386,-3.60875
581,-482,5.5752,3.51782,0.00242694,-0.00117412,0.0010183,0.00269495,-0.00144213,0.257354,0.00242477,0.00942494,1805,1506,5.57517,-3.51782
588,-482,5.5658,3.43457,0.00196758,0.00015411,0.000258512,0.00200371,0.000117979,0.138867,0.00129827,0.0103502,1812,1506,5.56574,-3.43458
595,-482,5.57239,3.32068,0.00191392,0.00090944,-0.000293846,0.00199356,0.000829795,-0.264685,0.00115636,0.0152158,1819,1506,5.57241,-3.32071
602,-482,5.58289,3.21594,0.00205859,0.00148271,-0.000871264,0.00268826,0.000853039,-0.625804,0.00158622,0.0185668,1826,1506,5.5829,-3.21593
609,-482,5.57849,3.1449,0.00257334,0.0022384,-0.00159934,0.00401395,0.000797784,-0.733232,0.00245366,0.0150702,1833,1506,5.5785,-3.14485
616,-482,5.58337,3.05945,0.00351547,0.00304474,-0.00248352,0.00577476,0.000785455,-0.738154,0.00361656,0.0117523,1840,1506,5.5834,-3.05947
623,-482,5.5802,2.97571,0.00510621,0.00450221,-0.00362837,0.00844512,0.0011633,-0.743877,0.00528516,0.0111271,1847,1506,5.58018,-2.97567
630,-482,5.55481,2.88757,0.00762717,0.0066439,-0.00524254,0.0124011,0.00186999,-0.738646,0.00771992,0.018944,1854,1506,5.55475,-2.88755
637,-482,5.23853,2.66675,0.011012,0.00924291,-0.00755788,0.0177369,0.002518,-0.727145,0.0110811,0.0401552,1861,1506,5.23854,-2.6668
644,-482,4.95557,2.46387,0,0,0,0,0,0,0,-1,1868,1506,4.95553,-2.46386
651,-482,5.57617,2.59302,0,0,0,0,0,0,0,-1,1875,1506,5.57613,-2.59301
658,-482,6.32104,2.55701,0,0,0,0,0,0,0,-1,1882,1506,6.32101,-2.55704
665,-482,6.21484,1.6626,0,0,0,0,0,0,0,-1,1889,1506,6.21484,-1.66263
672,-482,6.02112,0.914063,0,0,0,0,0,0,0,-1,1896,1506,6.02111,-0.914104
679,-482,0,0,0,0,0,0,0,0,0,-1,1903,1506,0,0
686,-482,0,0,0,0,0,0,0,0,0,-1,1910,1506,0,0
693,-482,0,0,0,0,0,0,0,0,0,-1,1917,1506,0,0
700,-482,0,0,0,0,0,0,0,0,0,-1,1924,1506,0,0
707,-482,0,0,0,0,0,0,0,0,0,-1,1931,1506,0,0
714,-482,0,0,0,0,0,0,0,0,0,-1,1938,1506,0,0
721,-482,0,0,0,0,0,0,0,0,0,-1,1945,1506,0,0
728,-482,0,0,0,0,0,0,0,0,0,-1,1952,1506,0,0
735,-482,0,0,0,0,0,0,0,0,0,-1,1959,1506,0,0
742,-482,0,0,0,0,0,0,0,0,0,-1,1966,1506,0,0
749,-482,0,0,0,0,0,0,0,0,0,-1,1973,1506,0,0
756,-482,0,0,0,0,0,0,0,0,0,-1,1980,1506,0,0
763,-482,0,0,0,0,0,0,0,0,0,-1,1987,1506,0,0
770,-482,0,0,0,0,0,0,0,0,0,-1,1994,1506,0,0
777,-482,0,0,0,0,0,0,0,0,0,-1,2001,1506,0,0
784,-482,0,0,0,0,0,0,0,0,0,-1,2008,1506,0,0
791,-482,0,0,0,0,0,0,0,0,0,-1,2015,1506,0,0
798,-482,0,0,0,0,0,0,0,0,0,-1,2022,1506,0,0
805,-482,0,0,0,0,0,0,0,0,0,-1,2029,1506,0,0
812,-482,0,0,0,0,0,0,0,0,0,-1,2036,1506,0,0
-700,-489,0,0,0,0,0,0,0,0,0,-1,524,1513,0,0
-693,-489,0,0,0,0,0,0,0,0,0,-1,531,1513,0,0
-686,-489,0,0,0,0,0,0,0,0,0,-1,538,1513,0,0
-679,-489,0,0,0,0,0,0,0,0,0,-1,545,1513,0,0
-672,-489,0,0,0,0,0,0,0,0,0,-1,552,1513,0,0
-665,-489,0,0,0,0,0,0,0,0,0,-1,559,1513,0,0
-658,-489,0,0,0,0,0,0,0,0,0,-1,566,1513,0,0
-651,-489,0,0,0,0,0,0,0,0,0,-1,573,1513,0,0
-644,-489,0,0,0,0,0,0,0,0,0,-1,580,1513,0,0
-637,-489,0,0,0,0,0,0,0,0,0,-1,587,1513,0,0
-630,-489,0,0,0,0,0,0,0,0,0,-1,594,1513,0,0
-623,-489,0,0,0,0,0,0,0,0,0,-1,601,1513,0,0
-616,-489,0,0,0,0,0,0,0,0,0,-1,608,1513,0,0
-609,-489,0,0,0,0,0,0,0,0,0,-1,615,1513,0,0
-602,-489,0,0,0,0,0,0,0,0,0,-1,622,1513,0,0
-595,-489,0,0,0,0,0,0,0,0,0,-1,629,1513,0,0
-588,-489,0,0,0,0,0,0,0,0,0,-1,636,1513,0,0
-581,-489,0,0,0,0,0,0,0,0,0,-1,643,1513,0,0
-574,-489,0,0,0,0,0,0,0,0,0,-1,650,1513,0,0
-567,-489,0,0,0,0,0,0,0,0,0,-1,657,1513,0,0
-560,-489,0,0,0,0,0,0,0,0,0,-1,664,1513,0,0
-553,-489,-1.89508,-2.51941,0,0,0,0,0,0,0,-1,671,1513,-1.89511,2.5194
-546,-489,-0.906189,-1.93542,0.171867,-0.0113868,0.110638,0.223894,-0.063413,0.439556,0.174289,0.046211,678,1513,-0.906205,1.93545
-539,-489,0.982117,-1.34326,0.144492,-0.0168397,0.0885625,0.183619,-0.0559666,0.416013,0.144722,0.0460074,685,1513,0.982102,1.34328
-532,-489,-0.223389,3.71765,0.118678,-0.0190145,0.0689958,0.147301,-0.0476373,0.393241,0.117348,0.0478384,692,1513,-0.223414,-3.71765
-525,-489,0.294495,3.45496,0.0954298,-0.0188036,0.052412,0.115833,-0.0392068,0.371235,0.0930852,0.0446317,699,1513,0.294506,-3.45494
-518,-489,0.468567,2.91687,0.0752479,-0.0178551,0.0387377,0.0892575,-0.0318647,0.347019,0.0724996,0.0456897,706,1513,0.468583,-2.91685
-511,-489,0.292175,2.23975,0,0,0,0,0,0,0,-1,713,1513,0.292196,-2.23969
-504,-489,0.396423,2.21753,0.042755,-0.0141297,0.018458,0.0482193,-0.0195941,0.287822,0.040298,0.0469086,720,1513,0.396404,-2.21754
-497,-489,0.450256,2.26453,0.0300315,-0.0114857,0.011571,0.0330386,-0.0144927,0.254256,0.0281299,0.0360723,727,1513,0.450226,-2.26449
-490,-489,0.447449,2.42102,0.0164314,-0.00961883,0.00372858,0.0169546,-0.010142,0.139402,0.0158082,0.0190356,734,1513,0.44746,-2.42106
-483,-489,0.449829,2.49939,0.00959056,-0.00365638,0.00144693,0.00974676,-0.00381259,0.107538,0.00807453,0.00990529,741,1513,0.449808,-2.49935
-476,-489,0.460022,2.59631,0.00656344,-0.00215442,0.000617354,0.00660694,-0.00219792,0.070347,0.00529167,0.00923936,748,1513,0.459993,-2.59635
-469,-489,0.451599,2.68616,0.00431367,-0.00124971,0.000385797,0.00434029,-0.00127633,0.0689063,0.00339979,0.0101181,755,1513,0.451603,-2.6861
-462,-489,0.455017,2.79834,0.00295437,-0.000396547,0.000288504,0.00297903,-0.000421204,0.0852609,0.00214028,0.0148788,762,1513,0.45501,-2.79835
-455,-489,0.465149,2.90381,0.00261704,0.00023194,-0.000468552,0.00270579,0.000143196,-0.187185,0.00175807,0.0178953,769,1513,0.465152,-2.90384
-448,-489,0.453369,2.99792,0.00265856,0.00060084,-0.00118686,0.00320043,5.89701e-05,-0.428294,0.00211424,0.0150735,776,1513,0.453394,-2.99789
-441,-489,0.455811,3.12207,0.00324379,0.000913994,-0.00181292,0.00423381,-7.60269e-05,-0.499838,0.00284822,0.0139172,783,1513,0.455801,-3.12212
-434,-489,0.429382,3.21936,0.00456559,0.00131874,-0.00252051,0.00594024,-5.59103e-05,-0.499295,0.00397893,0.01791,790,1513,0.42938,-3.21942
-427,-489,0.434509,3.28638,0.00628683,0.00166556,-0.00329779,0.00800292,-5.05233e-05,-0.479814,0.0053522,0.0194832,797,1513,0.434524,-3.28636
-420,-489,0.446045,3.38452,0.00922767,0.00214626,-0.00417303,0.0111597,0.000214231,-0.433595,0.00736943,0.0171949,804,1513,0.446055,-3.38455
-413,-489,0.513062,3.48621,0.0136512,0.00693747,-0.00407951,0.0155774,0.00501125,-0.441135,0.00918226,0.0178592,811,1513,0.513044,-3.4862
-406,-489,0.459534,3.52087,0.0194388,0.0153287,-0.00299351,0.0210148,0.0137527,-0.484589,0.0123243,0.0225493,818,1513,0.459547,-3.5209
-399,-489,0.422363,3.50671,0.0254065,0.0266774,-0.00168123,0.0278393,0.0242446,-0.966089,0.0174849,0.0325208,825,1513,0.422361,-3.50673
-392,-489,0.439758,3.53992,0.0323768,0.0399898,-0.000123989,0.0399918,0.0323748,-1.55452,0.0245198,0.0388129,832,1513,0.439736,-3.53987
-385,-489,0.990601,3.33618,0.0384251,0.056771,0.00164531,0.0569174,0.0382787,1.48206,0.033507,0.0420174,839,1513,0.990576,-3.33613
-378,-489,-0.239319,3.505,0,0,0,0,0,0,0,-1,846,1513,-0.239297,-3.50504
-371,-489,0.540527,3.95654,0.0480985,0.0914714,0.00581951,0.0922387,0.0473312,1.43971,0.0532602,0.0464093,853,1513,0.540514,-3.95658
-364,-489,1.17297,4.26038,0.0517617,0.110646,0.00800673,0.111715,0.0506924,1.43803,0.0645908,0.0475011,860,1513,1.173,-4.26038
-357,-489,2.03253,5.9353,0.0524744,0.126894,0.00947335,0.128081,0.0512874,1.44615,0.0744348,0.0427609,867,1513,2.03256,-5.9353
-350,-489,2.81952,6.23645,0.0510554,0.140534,0.012833,0.142338,0.0492513,1.43113,0.0834681,0.0445326,874,1513,2.81952,-6.2364
-343,-489,2.76697,6.38928,0,0,0,0,0,0,0,-1,881,1513,2.76695,-6.3893
-336,-489,-4.32593,4.83167,0,0,0,0,0,0,0,-1,888,1513,-4.32592,-4.8317
-329,-489,-4.23425,3.97546,0,0,0,0,0,0,0,-1,895,1513,-4.23426,-3.9755
-322,-489,0,0,0,0,0,0,0,0,0,-1,902,1513,0,0
-315,-489,0,0,0,0,0,0,0,0,0,-1,909,1513,0,0
-308,-489,0,0,0,0,0,0,0,0,0,-1,916,1513,0,0
-301,-489,0,0,0,0,0,0,0,0,0,-1,923,1513,0,0
-294,-489,0,0,0,0,0,0,0,0,0,-1,930,1513,0,0
-287,-489,0,0,0,0,0,0,0,0,0,-1,937,1513,0,0
-280,-489,0,0,0,0,0,0,0,0,0,-1,944,1513,0,0
-273,-489,0,0,0,0,0,0,0,0,0,-1,951,1513,0,0
-266,-489,0,0,0,0,0,0,0,0,0,-1,958,1513,0,0
-259,-489,0,0,0,0,0,0,0,0,0,-1,965,1513,0,0
-252,-489,0,0,0,0,0,0,0,0,0,-1,972,1513,0,0
-245,-489,0,0,0,0,0,0,0,0,0,-1,979,1513,0,0
-238,-489,0,0,0,0,0,0,0,0,0,-1,986,1513,0,0
-231,-489,0,0,0,0,0,0,0,0,0,-1,993,1513,0,0
-224,-489,0,0,0,0,0,0,0,0,0,-1,1000,1513,0,0
-217,-489,0,0,0,0,0,0,0,0,0,-1,1007,1513,0,0
-210,-489,0,0,0,0,0,0,0,0,0,-1,1014,1513,0,0
-203,-489,0,0,0,0,0,0,0,0,0,-1,1021,1513,0,0
-196,-489,0,0,0,0,0,0,0,0,0,-1,1028,1513,0,0
-189,-489,0,0,0,0,0,0,0,0,0,-1,1035,1513,0,0
-182,-489,0,0,0,0,0,0,0,0,0,-1,1042,1513,0,0
-175,-489,0,0,0,0,0,0,0,0,0,-1,1049,1513,0,0
-168,-489,0,0,0,0,0,0,0,0,0,-1,1056,1513,0,0
-161,-489,0,0,0,0,0,0,0,0,0,-1,1063,1513,0,0
-154,-489,0,0,0,0,0,0,0,0,0,-1,1070,1513,0,0
-147,-489,0,0,0,0,0,0,0,0,0,-1,1077,1513,0,0
-140,-489,0,0,0,0,0,0,0,0,0,-1,1084,1513,0,0
-133,-489,0,0,0,0,0,0,0,0,0,-1,1091,1513,0,0
-126,-489,0,0,0,0,0,0,0,0,0,-1,1098,1513,0,0
-119,-489,0,0,0,0,0,0,0,0,0,-1,1105,1513,0,0
-112,-489,0,0,0,0,0,0,0,0,0,-1,1112,1513,0,0
-105,-489,0,0,0,0,0,0,0,0,0,-1,1119,1513,0,0
-98,-489,0,0,0,0,0,0,0,0,0,-1,1126,1513,0,0
-91,-489,0,0,0,0,0,0,0,0,0,-1,1133,1513,0,0
-84,-489,0,0,0,0,0,0,0,0,0,-1,1140,1513,0,0
-77,-489,0,0,0,0,0,0,0,0,0,-1,1147,1513,0,0
-70,-489,0,0,0,0,0,0,0,0,0,-1,1154,1513,0,0
-63,-489,0,0,0,0,0,0,0,0,0,-1,1161,1513,0,0
-56,-489,0,0,0,0,0,0,0,0,0,-1,1168,1513,0,0
-49,-489,0,0,0,0,0,0,0,0,0,-1,1175,1513,0,0
-42,-489,0,0,0,0,0,0,0,0,0,-1,1182,1513,0,0
-35,-489,0,0,0,0,0,0,0,0,0,-1,1189,1513,0,0
-28,-489,0,0,0,0,0,0,0,0,0,-1,1196,1513,0,0
-21,-489,0,0,0,0,0,0,0,0,0,-1,1203,1513,0,0
-14,-489,0,0,0,0,0,0,0,0,0,-1,1210,1513,0,0
-7,-489,0,0,0,0,0,0,0,0,0,-1,1217,1513,0,0
0,-489,0,0,0,0,0,0,0,0,0,-1,1224,1513,0,0
7,-489,0,0,0,0,0,0,0,0,0,-1,1231,1513,0,0
14,-489,0,0,0,0,0,0,0,0,0,-1,1238,1513,0,0
21,-489,0,0,0,0,0,0,0,0,0,-1,1245,1513,0,0
28,-489,0,0,0,0,0,0,0,0,0,-1,1252,1513,0,0
35,-489,0,0,0,0,0,0,0,0,0,-1,1259,1513,0,0
42,-489,0,0,0,0,0,0,0,0,0,-1,1266,1513,0,0
49,-489,0,0,0,0,0,0,0,0,0,-1,1273,1513,0,0
56,-489,0,0,0,0,0,0,0,0,0,-1,1280,1513,0,0
63,-489,0,0,0,0,0,0,0,0,0,-1,1287,1513,0,0
70,-489,0,0,0,0,0,0,0,0,0,-1,1294,1513,0,0
77,-489,0,0,0,0,0,0,0,0,0,-1,1301,1513,0,0
84,-489,0,0,0,0,0,0,0,0,0,-1,1308,1513,0,0
91,-489,0,0,0,0,0,0,0,0,0,-1,1315,1513,0,0
98,-489,0,0,0,0,0,0,0,0,0,-1,1322,1513,0,0
105,-489,0,0,0,0,0,0,0,0,0,-1,1329,1513,0,0
112,-489,0,0,0,0,0,0,0,0,0,-1,1336,1513,0,0
119,-489,0,0,0,0,0,0,0,0,0,-1,1343,1513,0,0
126,-489,0,0,0,0,0,0,0,0,0,-1,1350,1513,0,0
133,-489,0,0,0,0,0,0,0,0,0,-1,1357,1513,0,0
140,-489,0,0,0,0,0,0,0,0,0,-1,1364,1513,0,0
147,-489,0,0,0,0,0,0,0,0,0,-1,1371,1513,0,0
154,-489,0,0,0,0,0,0,0,0,0,-1,1378,1513,0,0
161,-489,0,0,0,0,0,0,0,0,0,-1,1385,1513,0,0
168,-489,0,0,0,0,0,0,0,0,0,-1,1392,1513,0,0
175,-489,0,0,0,0,0,0,0,0,0,-1,1399,1513,0,0
182,-489,0,0,0,0,0,0,0,0,0,-1,1406,1513,0,0
189,-489,0,0,0,0,0,0,0,0,0,-1,1413,1513,0,0
196,-489,0,0,0,0,0,0,0,0,0,-1,1420,1513,0,0
203,-489,0,0,0,0,0,0,0,0,0,-1,1427,1513,0,0
210,-489,0,0,0,0,0,0,0,0,0,-1,1434,1513,0,0
217,-489,0,0,0,0,0,0,0,0,0,-1,1441,1513,0,0
224,-489,0,0,0,0,0,0,0,0,0,-1,1448,1513,0,0
231,-489,0,0,0,0,0,0,0,0,0,-1,1455,1513,0,0
238,-489,0,0,0,0,0,0,0,0,0,-1,1462,1513,0,0
245,-489,0,0,0,0,0,0,0,0,0,-1,1469,1513,0,0
252,-489,0,0,0,0,0,0,0,0,0,-1,1476,1513,0,0
259,-489,0,0,0,0,0,0,0,0,0,-1,1483,1513,0,0
266,-489,0,0,0,0,0,0,0,0,0,-1,1490,1513,0,0
273,-489,0,0,0,0,0,0,0,0,0,-1,1497,1513,0,0
280,-489,0,0,0,0,0,0,0,0,0,-1,1504,1513,0,0
287,-489,0,0,0,0,0,0,0,0,0,-1,1511,1513,0,0
294,-489,0,0,0,0,0,0,0,0,0,-1,1518,1513,0,0
301,-489,0,0,0,0,0,0,0,0,0,-1,1525,1513,0,0
308,-489,0,0,0,0,0,0,0,0,0,-1,1532,1513,0,0
315,-489,0,0,0,0,0,0,0,0,0,-1,1539,1513,0,0
322,-489,0,0,0,0,0,0,0,0,0,-1,1546,1513,0,0
329,-489,0,0,0,0,0,0,0,0,0,-1,1553,1513,0,0
336,-489,0,0,0,0,0,0,0,0,0,-1,1560,1513,0,0
343,-489,0,0,0,0,0,0,0,0,0,-1,1567,1513,0,0
350,-489,0,0,0,0,0,0,0,0,0,-1,1574,1513,0,0
357,-489,0,0,0,0,0,0,0,0,0,-1,1581,1513,0,0
364,-489,0,0,0,0,0,0,0,0,0,-1,1588,1513,0,0
371,-489,0,0,0,0,0,0,0,0,0,-1,1595,1513,0,0
378,-489,0,0,0,0,0,0,0,0,0,-1,1602,1513,0,0
385,-489,0,0,0,0,0,0,0,0,0,-1,1609,1513,0,0
392,-489,0,0,0,0,0,0,0,0,0,-1,1616,1513,0,0
399,-489,0,0,0,0,0,0,0,0,0,-1,1623,1513,0,0
406,-489,0,0,0,0,0,0,0,0,0,-1,1630,1513,0,0
413,-489,0,0,0,0,0,0,0,0,0,-1,1637,1513,0,0
420,-489,0,0,0,0,0,0,0,0,0,-1,1644,1513,0,0
427,-489,0,0,0,0,0,0,0,0,0,-1,1651,1513,0,0
434,-489,0,0,0,0,0,0,0,0,0,-1,1658,1513,0,0
441,-489,12.3212,5.92639,0,0,0,0,0,0,0,-1,1665,1513,12.3211,-5.92641
448,-489,12.0258,6.46533,0,0,0,0,0,0,0,-1,1672,1513,12.0258,-6.46534
455,-489,4.49927,1.59009,0,0,0,0,0,0,0,-1,1679,1513,4.49924,-1.59004
462,-489,10.5435,-1.33679,0,0,0,0,0,0,0,-1,1686,1513,10.5434,1.33683
469,-489,10.2373,-0.435547,-0.0396487,-0.0483394,0.104368,0.0604644,-0.148452,0.764593,0.124133,0.046423,1693,1513,10.2373,0.435511
476,-489,9.96863,0.49353,-0.0440211,-0.0514997,0.095542,0.0478547,-0.143376,0.765839,0.114906,0.0450857,1700,1513,9.96859,-0.493526
483,-489,9.68884,1.42651,0,0,0,0,0,0,0,-1,1707,1513,9.68878,-1.42646
490,-489,7.08472,3.66052,0,0,0,0,0,0,0,-1,1714,1513,7.08477,-3.66051
497,-489,7.46179,2.28418,0,0,0,0,0,0,0,-1,1721,1513,7.46179,-2.2842
504,-489,6.92065,2.60962,-0.0375717,-0.0476385,0.0427408,0.000431076,-0.0856413,0.726785,0.0572384,0.0461466,1728,1513,6.92066,-2.60961
511,-489,6.13379,2.87256,-0.0314679,-0.0432437,0.0328687,-0.0039639,-0.0707477,0.696771,0.0459009,0.0494144,1735,1513,6.13379,-2.87259
518,-489,5.59058,2.96655,-0.0250857,-0.0380877,0.0248784,-0.0058729,-0.0573004,0.6576,0.0364009,0.0454092,1742,1513,5.59061,-2.96658
525,-489,5.42798,3.39221,-0.0193587,-0.0329687,0.0174057,-0.00747507,-0.0448523,0.599051,0.0277476,0.0420068,1749,1513,5.42803,-3.39225
532,-489,5.46753,4.00391,-0.0139271,-0.0272872,0.0113431,-0.00744314,-0.0337711,0.519287,0.0204887,0.0347647,1756,1513,5.46754,-4.00396
539,-489,5.44482,4.01746,-0.00892939,-0.0212341,0.00808186,-0.00492457,-0.0252389,0.460066,0.0154483,0.016682,1763,1513,5.44484,-4.01746
546,-489,5.46472,3.95532,-0.00502707,-0.0159855,0.00596037,-0.00241013,-0.0186025,0.413716,0.0116814,0.0107785,1770,1513,5.46476,-3.95529
553,-489,5.47217,3.8667,-0.00176162,-0.0116797,0.00443315,-6.89733e-05,-0.0133723,0.364732,0.008892,0.0132212,1777,1513,5.47213,-3.86668
560,-489,5.47095,3.78052,0.000588736,-0.00758531,0.00314604,0.00165936,-0.00865593,0.328015,0.0063959,0.0126971,1784,1513,5.47093,-3.78052
567,-489,5.5022,3.70349,0.00176038,-0.00456731,0.00208789,0.00238721,-0.00519414,0.29166,0.00447598,0.0139497,1791,1513,5.50217,-3.70352
574,-489,5.49341,3.61243,0.00242259,-0.00245149,0.00115585,0.0026828,-0.0027117,0.221432,0.00311453,0.0141932,1798,1513,5.49335,-3.61248
581,-489,5.49109,3.52502,0.00287487,-0.000742094,7.2122e-05,0.00287631,-0.000743532,0.0199293,0.00220753,0.0103721,1805,1513,5.49108,-3.52507
588,-489,5.48462,3.43542,0.00286772,0.000588618,-0.000683958,0.00305722,0.000399119,-0.270283,0.00191899,0.0123462,1812,1513,5.48463,-3.43541
595,-489,5.47546,3.34424,0.00333702,0.00141474,-0.00129629,0.00398962,0.000762136,-0.466394,0.00244561,0.0169919,1819,1513,5.47543,-3.34428
602,-489,5.48621,3.23669,0.00408596,0.00217741,-0.00199602,0.00534409,0.000919278,-0.562416,0.00329927,0.0213673,1826,1513,5.48619,-3.23668
609,-489,5.48254,3.15369,0.00522692,0.00316102,-0.00289061,0.0072636,0.00112434,-0.613796,0.00451453,0.0157367,1833,1513,5.48257,-3.15364
616,-489,5.4845,3.06201,0.00682996,0.00428041,-0.00396702,0.00972199,0.00138837,-0.629937,0.00607168,0.010064,1840,1513,5.48451,-3.06204
623,-489,5.5033,3.0094,0.0090847,0.0059862,-0.00535293,0.0131081,0.00196283,-0.644537,0.00816347,0.0136755,1847,1513,5.50329,-3.00935
630,-489,5.42102,2.96277,0.0122535,0.00831493,-0.00722024,0.0177682,0.00280023,-0.652264,0.0110312,0.0316092,1854,1513,5.42097,-2.96272
637,-489,4.77075,2.55188,0.0162008,0.0111035,-0.00970767,0.0236888,0.00361552,-0.657025,0.014736,0.0447299,1861,1513,4.77077,-2.55191
644,-489,4.20337,2.18213,0,0,0,0,0,0,0,-1,1868,1513,4.20343,-2.18216
651,-489,5.93982,1.72522,0,0,0,0,0,0,0,-1,1875,1513,5.93987,-1.72524
658,-489,5.60193,0.612549,0,0,0,0,0,0,0,-1,1882,1513,5.60192,-0.612563
665,-489,6.52954,1.47314,0,0,0,0,0,0,0,-1,1889,1513,6.52951,-1.47319
672,-489,0,0,0,0,0,0,0,0,0,-1,1896,1513,0,0
679,-489,0,0,0,0,0,0,0,0,0,-1,1903,1513,0,0
686,-489,0,0,0,0,0,0,0,0,0,-1,1910,1513,0,0
693,-489,0,0,0,0,0,0,0,0,0,-1,1917,1513,0,0
700,-489,0,0,0,0,0,0,0,0,0,-1,1924,1513,0,0
707,-489,0,0,0,0,0,0,0,0,0,-1,1931,1513,0,0
714,-489,0,0,0,0,0,0,0,0,0,-1,1938,1513,0,0
721,-489,0,0,0,0,0,0,0,0,0,-1,1945,1513,0,0
728,-489,0,0,0,0,0,0,0,0,0,-1,1952,1513,0,0
735,-489,0,0,0,0,0,0,0,0,0,-1,1959,1513,0,0
742,-489,0,0,0,0,0,0,0,0,0,-1,1966,1513,0,0
749,-489,0,0,0,0,0,0,0,0,0,-1,1973,1513,0,0
756,-489,0,0,0,0,0,0,0,0,0,-1,1980,1513,0,0
763,-489,0,0,0,0,0,0,0,0,0,-1,1987,1513,0,0
770,-489,0,0,0,0,0,0,0,0,0,-1,1994,1513,0,0
777,-489,0,0,0,0,0,0,0,0,0,-1,2001,1513,0,0
784,-489,0,0,0,0,0,0,0,0,0,-1,2008,1513,0,0
791,-489,0,0,0,0,0,0,0,0,0,-1,2015,1513,0,0
798,-489,0,0,0,0,0,0,0,0,0,-1,2022,1513,0,0
805,-489,0,0,0,0,0,0,0,0,0,-1,2029,1513,0,0
812,-489,0,0,0,0,0,0,0,0,0,-1,2036,1513,0,0
-700,-496,0,0,0,0,0,0,0,0,0,-1,524,1520,0,0
-693,-496,0,0,0,0,0,0,0,0,0,-1,531,1520,0,0
-686,-496,0,0,0,0,0,0,0,0,0,-1,538,1520,0,0
-679,-496,0,0,0,0,0,0,0,0,0,-1,545,1520,0,0
-672,-496,0,0,0,0,0,0,0,0,0,-1,552,1520,0,0
-665,-496,0,0,0,0,0,0,0,0,0,-1,559,1520,0,0
-658,-496,0,0,0,0,0,0,0,0,0,-1,566,1520,0,0
-651,-496,0,0,0,0,0,0,0,0,0,-1,573,1520,0,0
-644,-496,0,0,0,0,0,0,0,0,0,-1,580,1520,0,0
-637,-496,0,0,0,0,0,0,0,0,0,-1,587,1520,0,0
-630,-496,0,0,0,0,0,0,0,0,0,-1,594,1520,0,0
-623,-496,0,0,0,0,0,0,0,0,0,-1,601,1520,0,0
-616,-496,0,0,0,0,0,0,0,0,0,-1,608,1520,0,0
-609,-496,0,0,0,0,0,0,0,0,0,-1,615,1520,0,0
-602,-496,0,0,0,0,0,0,0,0,0,-1,622,1520,0,0
-595,-496,0,0,0,0,0,0,0,0,0,-1,629,1520,0,0
-588,-496,0,0,0,0,0,0,0,0,0,-1,636,1520,0,0
-581,-496,0,0,0,0,0,0,0,0,0,-1,643,1520,0,0
-574,-496,0,0,0,0,0,0,0,0,0,-1,650,1520,0,0
-567,-496,0,0,0,0,0,0,0,0,0,-1,657,1520,0,0
-560,-496,0,0,0,0,0,0,0,0,0,-1,664,1520,0,0
-553,-496,0,0,0,0,0,0,0,0,0,-1,671,1520,0,0
-546,-496,-2.1236,-3.06384,0.204991,-0.0179924,0.128995,0.263998,-0.0770003,0.429026,0.206508,0.0470312,678,1520,-2.12362,3.06386
-539,-496,-0.437866,4.40601,0.169541,-0.0246595,0.101047,0.21258,-0.0676984,0.402657,0.168872,0.0481209,685,1520,-0.437874,-4.40603
-532,-496,-0.196411,4.02368,0.137923,-0.026771,0.0776525,0.168761,-0.0576094,0.378033,0.135846,0.0471998,692,1520,-0.196409,-4.02363
-525,-496,0.0386353,3.6405,0.110219,-0.026344,0.0583475,0.131753,-0.0478778,0.353555,0.107412,0.0447998,699,1520,0.0386191,-3.64047
-518,-496,0.276611,3.09485,0.0867245,-0.0240695,0.0429936,0.101451,-0.0387958,0.329998,0.0836215,0.0448832,706,1520,0.276619,-3.09488
-511,-496,0.279724,2.34497,0,0,0,0,0,0,0,-1,713,1520,0.279731,-2.345
-504,-496,0.385803,2.16821,0.0500333,-0.01801,0.0210157,0.0560008,-0.0239775,0.276672,0.0473933,0.0477079,720,1520,0.385778,-2.16826
-497,-496,0.452942,2.3324,0.0359021,-0.0143964,0.0136072,0.0393473,-0.0178416,0.247976,0.0337872,0.0461285,727,1520,0.452921,-2.33239
-490,-496,0.497803,2.43701,0.0204753,-0.0119729,0.00484198,0.0211824,-0.01268,0.145014,0.0197548,0.0340482,734,1520,0.497788,-2.43705
-483,-496,0.533325,2.51343,0.0124583,-0.00497787,0.00226467,0.0127477,-0.00526721,0.127075,0.0106956,0.0158756,741,1520,0.533319,-2.51345
-476,-496,0.550964,2.60376,0.00863343,-0.00289857,0.00128209,0.00877425,-0.00303939,0.109397,0.00708343,0.00963741,748,1520,0.550954,-2.6037
-469,-496,0.550781,2.71814,0.0057066,-0.00161631,0.000931808,0.00582331,-0.00173302,0.124601,0.00457074,0.00996035,755,1520,0.55076,-2.71813
-462,-496,0.547424,2.81079,0.0037893,-0.000507143,0.000725074,0.00390837,-0.000626208,0.162758,0.00283744,0.0147961,762,1520,0.547454,-2.81074
-455,-496,0.558167,2.90466,0.00285248,7.09113e-05,-1.50208e-06,0.00285248,7.09106e-05,-0.000540013,0.00187846,0.0192454,769,1520,0.558151,-2.9047
-448,-496,0.558777,2.99805,0.00232825,0.000414696,-0.00072249,0.0025704,0.000172551,-0.323387,0.00165908,0.0180059,776,1520,0.558805,-2.99801
-441,-496,0.546326,3.11035,0.00252568,0.000621293,-0.00126125,0.00315381,-6.83533e-06,-0.462063,0.00210482,0.014117,783,1520,0.546312,-3.11037
-434,-496,0.539734,3.20471,0.00348063,0.000803143,-0.00178562,0.00437363,-8.98545e-05,-0.463732,0.00294616,0.0130736,790,1520,0.539707,-3.20474
-427,-496,0.543213,3.29053,0.00476409,0.000840107,-0.00229969,0.00582501,-0.000220815,-0.432237,0.003959,0.0162014,797,1520,0.543224,-3.29052
-420,-496,0.557495,3.39844,0.00714146,0.000975417,-0.00293121,0.0083125,-0.000195622,-0.380081,0.00560801,0.0167656,804,1520,0.557518,-3.39841
-413,-496,0.577759,3.51563,0.0106736,0.00459355,-0.00276474,0.0117427,0.00352436,-0.369007,0.00695788,0.0153534,811,1520,0.577755,-3.51557
-406,-496,0.571228,3.61157,0.0152492,0.0111651,-0.00184887,0.0159619,0.0104524,-0.36789,0.00936172,0.0170158,818,1520,0.571216,-3.61163
-399,-496,0.596008,3.70703,0.0199612,0.0201133,-0.000910737,0.0209511,0.0191233,-0.827059,0.0133998,0.0246828,825,1520,0.59603,-3.70708
-392,-496,0.550476,3.71021,0.0253964,0.0304265,0.000103928,0.0304286,0.0253942,1.55015,0.0188333,0.0340219,832,1520,0.550464,-3.71018
-385,-496,0.873596,3.57263,0.0299757,0.0435767,0.00121046,0.0436836,0.0298688,1.48272,0.0257822,0.0431809,839,1520,0.873585,-3.57258
-378,-496,0.036377,3.80139,0,0,0,0,0,0,0,-1,846,1520,0.0363988,-3.80141
-371,-496,0.626587,3.86951,0.0366658,0.0701211,0.00341319,0.0704658,0.0363211,1.47016,0.0406899,0.046846,853,1520,0.626583,-3.86945
-364,-496,1.19739,3.94836,0.0386234,0.0842093,0.00422803,0.0845982,0.0382346,1.47909,0.0489179,0.0465249,860,1520,1.19737,-3.94833
-357,-496,1.78052,4.17334,0.0382936,0.0958281,0.0043966,0.0961621,0.0379595,1.49497,0.0559278,0.0423891,867,1520,1.78051,-4.1733
-350,-496,2.17114,4.35779,0.0360404,0.104703,0.00538259,0.105123,0.0356211,1.49304,0.0617345,0.0420326,874,1520,2.17117,-4.35781
-343,-496,2.76227,4.5741,0,0,0,0,0,0,0,-1,881,1520,2.76228,-4.57415
-336,-496,-3.2016,4.45715,0.0265164,0.113749,0.00152069,0.113775,0.0264899,1.55337,0.068743,0.0460935,888,1520,-3.20159,-4.45714
-329,-496,-3.52173,4.36096,0.0181248,0.109095,-0.00199892,0.109139,0.0180809,-1.54884,0.0675438,0.0447962,895,1520,-3.52171,-4.36091
-322,-496,-3.6651,4.06116,0,0,0,0,0,0,0,-1,902,1520,-3.6651,-4.06118
-315,-496,-4.00482,3.56042,0,0,0,0,0,0,0,-1,909,1520,-4.00482,-3.56039
-308,-496,0,0,0,0,0,0,0,0,0,-1,916,1520,0,0
-301,-496,0,0,0,0,0,0,0,0,0,-1,923,1520,0,0
-294,-496,0,0,0,0,0,0,0,0,0,-1,930,1520,0,0
-287,-496,0,0,0,0,0,0,0,0,0,-1,937,1520,0,0
-280,-496,0,0,0,0,0,0,0,0,0,-1,944,1520,0,0
-273,-496,0,0,0,0,0,0,0,0,0,-1,951,1520,0,0
-266,-496,0,0,0,0,0,0,0,0,0,-1,958,1520,0,0
-259,-496,0,0,0,0,0,0,0,0,0,-1,965,1520,0,0
-252,-496,0,0,0,0,0,0,0,0,0,-1,972,1520,0,0
-245,-496,0,0,0,0,0,0,0,0,0,-1,979,1520,0,0
-238,-496,0,0,0,0,0,0,0,0,0,-1,986,1520,0,0
-231,-496,0,0,0,0,0,0,0,0,0,-1,993,1520,0,0
-224,-496,0,0,0,0,0,0,0,0,0,-1,1000,1520,0,0
-217,-496,0,0,0,0,0,0,0,0,0,-1,1007,1520,0,0
-210,-496,0,0,0,0,0,0,0,0,0,-1,1014,1520,0,0
-203,-496,0,0,0,0,0,0,0,0,0,-1,1021,1520,0,0
-196,-496,0,0,0,0,0,0,0,0,0,-1,1028,1520,0,0
-189,-496,0,0,0,0,0,0,0,0,0,-1,1035,1520,0,0
-182,-496,0,0,0,0,0,0,0,0,0,-1,1042,1520,0,0
-175,-496,0,0,0,0,0,0,0,0,0,-1,1049,1520,0,0
-168,-496,0,0,0,0,0,0,0,0,0,-1,1056,1520,0,0
-161,-496,0,0,0,0,0,0,0,0,0,-1,1063,1520,0,0
-154,-496,0,0,0,0,0,0,0,0,0,-1,1070,1520,0,0
-147,-496,0,0,0,0,0,0,0,0,0,-1,1077,1520,0,0
-140,-496,0,0,0,0,0,0,0,0,0,-1,1084,1520,0,0
-133,-496,0,0,0,0,0,0,0,0,0,-1,1091,1520,0,0
-126,-496,0,0,0,0,0,0,0,0,0,-1,1098,1520,0,0
-119,-496,0,0,0,0,0,0,0,0,0,-1,1105,1520,0,0
-112,-496,0,0,0,0,0,0,0,0,0,-1,1112,1520,0,0
-105,-496,0,0,0,0,0,0,0,0,0,-1,1119,1520,0,0
-98,-496,0,0,0,0,0,0,0,0,0,-1,1126,1520,0,0
-91,-496,0,0,0,0,0,0,0,0,0,-1,1133,1520,0,0
-84,-496,0,0,0,0,0,0,0,0,0,-1,1140,1520,0,0
-77,-496,0,0,0,0,0,0,0,0,0,-1,1147,1520,0,0
-70,-496,0,0,0,0,0,0,0,0,0,-1,1154,1520,0,0
-63,-496,0,0,0,0,0,0,0,0,0,-1,1161,1520,0,0
-56,-496,0,0,0,0,0,0,0,0,0,-1,1168,1520,0,0
-49,-496,0,0,0,0,0,0,0,0,0,-1,1175,1520,0,0
-42,-496,0,0,0,0,0,0,0,0,0,-1,1182,1520,0,0
-35,-496,0,0,0,0,0,0,0,0,0,-1,1189,1520,0,0
-28,-496,0,0,0,0,0,0,0,0,0,-1,1196,1520,0,0
-21,-496,0,0,0,0,0,0,0,0,0,-1,1203,1520,0,0
-14,-496,0,0,0,0,0,0,0,0,0,-1,1210,1520,0,0
-7,-496,0,0,0,0,0,0,0,0,0,-1,1217,1520,0,0
0,-496,0,0,0,0,0,0,0,0,0,-1,1224,1520,0,0
7,-496,0,0,0,0,0,0,0,0,0,-1,1231,1520,0,0
14,-496,0,0,0,0,0,0,0,0,0,-1,1238,1520,0,0
21,-496,0,0,0,0,0,0,0,0,0,-1,1245,1520,0,0
28,-496,0,0,0,0,0,0,0,0,0,-1,1252,1520,0,0
35,-496,0,0,0,0,0,0,0,0,0,-1,1259,1520,0,0
42,-496,0,0,0,0,0,0,0,0,0,-1,1266,1520,0,0
49,-496,0,0,0,0,0,0,0,0,0,-1,1273,1520,0,0
56,-496,0,0,0,0,0,0,0,0,0,-1,1280,1520,0,0
63,-496,0,0,0,0,0,0,0,0,0,-1,1287,1520,0,0
70,-496,0,0,0,0,0,0,0,0,0,-1,1294,1520,0,0
77,-496,0,0,0,0,0,0,0,0,0,-1,1301,1520,0,0
84,-496,0,0,0,0,0,0,0,0,0,-1,1308,1520,0,0
91,-496,0,0,0,0,0,0,0,0,0,-1,1315,1520,0,0
98,-496,0,0,0,0,0,0,0,0,0,-1,1322,1520,0,0
105,-496,0,0,0,0,0,0,0,0,0,-1,1329,1520,0,0
112,-496,0,0,0,0,0,0,0,0,0,-1,1336,1520,0,0
119,-496,0,0,0,0,0,0,0,0,0,-1,1343,1520,0,0
126,-496,0,0,0,0,0,0,0,0,0,-1,1350,1520,0,0
133,-496,0,0,0,0,0,0,0,0,0,-1,1357,1520,0,0
140,-496,0,0,0,0,0,0,0,0,0,-1,1364,1520,0,0
147,-496,0,0,0,0,0,0,0,0,0,-1,1371,1520,0,0
154,-496,0,0,0,0,0,0,0,0,0,-1,1378,1520,0,0
161,-496,0,0,0,0,0,0,0,0,0,-1,1385,1520,0,0
168,-496,0,0,0,0,0,0,0,0,0,-1,1392,1520,0,0
175,-496,0,0,0,0,0,0,0,0,0,-1,1399,1520,0,0
182,-496,0,0,0,0,0,0,0,0,0,-1,1406,1520,0,0
189,-496,0,0,0,0,0,0,0,0,0,-1,1413,1520,0,0
196,-496,0,0,0,0,0,0,0,0,0,-1,1420,1520,0,0
203,-496,0,0,0,0,0,0,0,0,0,-1,1427,1520,0,0
210,-496,0,0,0,0,0,0,0,0,0,-1,1434,1520,0,0
217,-496,0,0,0,0,0,0,0,0,0,-1,1441,1520,0,0
224,-496,0,0,0,0,0,0,0,0,0,-1,1448,1520,0,0
231,-496,0,0,0,0,0,0,0,0,0,-1,1455,1520,0,0
238,-496,0,0,0,0,0,0,0,0,0,-1,1462,1520,0,0
245,-496,0,0,0,0,0,0,0,0,0,-1,1469,1520,0,0
252,-496,0,0,0,0,0,0,0,0,0,-1,1476,1520,0,0
259,-496,0,0,0,0,0,0,0,0,0,-1,1483,1520,0,0
266,-496,0,0,0,0,0,0,0,0,0,-1,1490,1520,0,0
273,-496,0,0,0,0,0,0,0,0,0,-1,1497,1520,0,0
280,-496,0,0,0,0,0,0,0,0,0,-1,1504,1520,0,0
287,-496,0,0,0,0,0,0,0,0,0,-1,1511,1520,0,0
294,-496,0,0,0,0,0,0,0,0,0,-1,1518,1520,0,0
301,-496,0,0,0,0,0,0,0,0,0,-1,1525,1520,0,0
308,-496,0,0,0,0,0,0,0,0,0,-1,1532,1520,0,0
315,-496,0,0,0,0,0,0,0,0,0,-1,1539,1520,0,0
322,-496,0,0,0,0,0,0,0,0,0,-1,1546,1520,0,0
329,-496,0,0,0,0,0,0,0,0,0,-1,1553,1520,0,0
336,-496,0,0,0,0,0,0,0,0,0,-1,1560,1520,0,0
343,-496,0,0,0,0,0,0,0,0,0,-1,1567,1520,0,0
350,-496,0,0,0,0,0,0,0,0,0,-1,1574,1520,0,0
357,-496,0,0,0,0,0,0,0,0,0,-1,1581,1520,0,0
364,-496,0,0,0,0,0,0,0,0,0,-1,1588,1520,0,0
371,-496,0,0,0,0,0,0,0,0,0,-1,1595,1520,0,0
378,-496,0,0,0,0,0,0,0,0,0,-1,1602,1520,0,0
385,-496,0,0,0,0,0,0,0,0,0,-1,1609,1520,0,0
392,-496,0,0,0,0,0,0,0,0,0,-1,1616,1520,0,0
399,-496,0,0,0,0,0,0,0,0,0,-1,1623,1520,0,0
406,-496,0,0,0,0,0,0,0,0,0,-1,1630,1520,0,0
413,-496,0,0,0,0,0,0,0,0,0,-1,1637,1520,0,0
420,-496,0,0,0,0,0,0,0,0,0,-1,1644,1520,0,0
427,-496,0,0,0,0,0,0,0,0,0,-1,1651,1520,0,0
434,-496,13.1229,4.59521,0,0,0,0,0,0,0,-1,1658,1520,13.1229,-4.59526
441,-496,12.2599,5.36694,0,0,0,0,0,0,0,-1,1665,1520,12.2599,-5.36695
448,-496,10.686,6.91199,0,0,0,0,0,0,0,-1,1672,1520,10.6861,-6.91198
455,-496,5.31458,2.84692,0,0,0,0,0,0,0,-1,1679,1520,5.31461,-2.84696
462,-496,9.58838,-0.971802,0,0,0,0,0,0,0,-1,1686,1520,9.5884,0.971754
469,-496,9.31409,-0.041626,-0.0349468,-0.0485989,0.085411,0.0439105,-0.127456,0.745523,0.102783,0.0487692,1693,1520,9.31407,0.0416511
476,-496,9.06482,0.882813,-0.0372689,-0.0520492,0.0816298,0.0373046,-0.126623,0.740255,0.0992159,0.043941,1700,1520,9.06479,-0.882832
483,-496,8.87073,1.87781,0,0,0,0,0,0,0,-1,1707,1520,8.87071,-1.87783
490,-496,8.66296,2.87952,0,0,0,0,0,0,0,-1,1714,1520,8.66291,-2.87955
497,-496,6.41956,4.14185,0,0,0,0,0,0,0,-1,1721,1520,6.41956,-4.14187
504,-496,6.18958,3.98816,-0.0323337,-0.0448791,0.0392394,0.00113114,-0.078344,0.70614,0.0526104,0.0428196,1728,1520,6.18952,-3.98819
511,-496,5.82483,3.80847,-0.0275263,-0.0402639,0.0298015,-0.00342067,-0.0643696,0.680128,0.0418195,0.042516,1735,1520,5.82481,-3.80848
518,-496,5.46851,3.67676,-0.0223465,-0.0349821,0.022322,-0.00546545,-0.0518631,0.647491,0.0329053,0.0434282,1742,1520,5.46852,-3.67678
525,-496,5.26135,3.97607,-0.0175945,-0.029857,0.0154015,-0.0071487,-0.0403028,0.595967,0.024831,0.0391526,1749,1520,5.26136,-3.97606
532,-496,5.34045,4.14551,-0.0131324,-0.0244348,0.00980781,-0.00746418,-0.030103,0.524032,0.0181011,0.02215,1756,1520,5.34051,-4.14551
539,-496,5.375,4.04736,-0.00892006,-0.0189008,0.00670292,-0.00555381,-0.022267,0.465411,0.0133832,0.0124821,1763,1520,5.37502,-4.04742
546,-496,5.36975,3.94324,-0.00545783,-0.0142083,0.00474546,-0.00337845,-0.0162877,0.412984,0.00992585,0.00930682,1770,1520,5.36979,-3.94328
553,-496,5.39941,3.85229,-0.00252904,-0.0103541,0.00341249,-0.00124995,-0.0116332,0.358618,0.00737422,0.0137195,1777,1520,5.39942,-3.85225
560,-496,5.40076,3.79089,-0.000231221,-0.00664025,0.0022338,0.000470512,-0.00734198,0.304381,0.00505879,0.0138234,1784,1520,5.40072,-3.79092
567,-496,5.39148,3.69702,0.00111217,-0.00389711,0.00128945,0.00142461,-0.00420954,0.237719,0.00338275,0.0113994,1791,1520,5.39153,-3.69705
574,-496,5.38745,3.6178,0.00228263,-0.00193615,0.000381888,0.00231692,-0.00197044,0.0895509,0.002478,0.0112103,1798,1520,5.38745,-3.61781
581,-496,5.38464,3.53931,0.00333393,-0.00027497,-0.00074445,0.00348147,-0.000422505,-0.195645,0.00247387,0.0123121,1805,1520,5.38464,-3.53936
588,-496,5.38708,3.41797,0.00389947,0.00103657,-0.0015787,0.00459906,0.000336983,-0.417138,0.00296011,0.0146285,1812,1520,5.38714,-3.41793
595,-496,5.3783,3.34509,0.00506917,0.00195412,-0.0023554,0.00633544,0.000687858,-0.493274,0.00401403,0.0154076,1819,1520,5.37833,-3.34512
602,-496,5.38916,3.255,0.00666265,0.00296966,-0.00330433,0.00860141,0.0010309,-0.530607,0.0054234,0.0156965,1826,1520,5.38919,-3.25506
609,-496,5.38562,3.15955,0.00874329,0.00425986,-0.00450035,0.0115293,0.00147381,-0.554326,0.0072451,0.0138982,1833,1520,5.38558,-3.15949
616,-496,5.38745,3.06506,0.0114118,0.00581042,-0.0059245,0.0151643,0.00205799,-0.564599,0.00949814,0.0119645,1840,1520,5.3874,-3.06509
623,-496,5.42017,3.06482,0.0148312,0.00786637,-0.00769586,0.0197959,0.00290169,-0.572929,0.0123443,0.0230569,1847,1520,5.4202,-3.06478
630,-496,5.45691,3.495,0.0191899,0.0104593,-0.00996536,0.0257041,0.00394503,-0.578963,0.0159842,0.0384968,1854,1520,5.4569,-3.49503
637,-496,4.57251,2.61414,0,0,0,0,0,0,0,-1,1861,1520,4.57254,-2.61412
644,-496,4.4126,3.02844,0,0,0,0,0,0,0,-1,1868,1520,4.41262,-3.02839
651,-496,5.97583,1.56812,0,0,0,0,0,0,0,-1,1875,1520,5.97581,-1.56817
658,-496,5.85046,0.651489,0,0,0,0,0,0,0,-1,1882,1520,5.85042,-0.65144
665,-496,5.84497,-0.478271,0,0,0,0,0,0,0,-1,1889,1520,5.84491,0.478246
672,-496,0,0,0,0,0,0,0,0,0,-1,1896,1520,0,0
679,-496,0,0,0,0,0,0,0,0,0,-1,1903,1520,0,0
686,-496,0,0,0,0,0,0,0,0,0,-1,1910,1520,0,0
693,-496,0,0,0,0,0,0,0,0,0,-1,1917,1520,0,0
700,-496,0,0,0,0,0,0,0,0,0,-1,1924,1520,0,0
707,-496,0,0,0,0,0,0,0,0,0,-1,1931,1520,0,0
714,-496,0,0,0,0,0,0,0,0,0,-1,1938,1520,0,0
721,-496,0,0,0,0,0,0,0,0,0,-1,1945,1520,0,0
728,-496,0,0,0,0,0,0,0,0,0,-1,1952,1520,0,0
735,-496,0,0,0,0,0,0,0,0,0,-1,1959,1520,0,0
742,-496,0,0,0,0,0,0,0,0,0,-1,1966,1520,0,0
749,-496,0,0,0,0,0,0,0,0,0,-1,1973,1520,0,0
756,-496,0,0,0,0,0,0,0,0,0,-1,1980,1520,0,0
763,-496,0,0,0,0,0,0,0,0,0,-1,1987,1520,0,0
770,-496,0,0,0,0,0,0,0,0,0,-1,1994,1520,0,0
777,-496,0,0,0,0,0,0,0,0,0,-1,2001,1520,0,0
784,-496,0,0,0,0,0,0,0,0,0,-1,2008,1520,0,0
791,-496,0,0,0,0,0,0,0,0,0,-1,2015,1520,0,0
798,-496,0,0,0,0,0,0,0,0,0,-1,2022,1520,0,0
805,-496,0,0,0,0,0,0,0,0,0,-1,2029,1520,0,0
812,-496,0,0,0,0,0,0,0,0,0,-1,2036,1520,0,0
-700,-503,0,0,0,0,0,0,0,0,0,-1,524,1527,0,0
-693,-503,0,0,0,0,0,0,0,0,0,-1,531,1527,0,0
-686,-503,0,0,0,0,0,0,0,0,0,-1,538,1527,0,0
-679,-503,0,0,0,0,0,0,0,0,0,-1,545,1527,0,0
-672,-503,0,0,0,0,0,0,0,0,0,-1,552,1527,0,0
-665,-503,0,0,0,0,0,0,0,0,0,-1,559,1527,0,0
-658,-503,0,0,0,0,0,0,0,0,0,-1,566,1527,0,0
-651,-503,0,0,0,0,0,0,0,0,0,-1,573,1527,0,0
-644,-503,0,0,0,0,0,0,0,0,0,-1,580,1527,0,0
-637,-503,0,0,0,0,0,0,0,0,0,-1,587,1527,0,0
-630,-503,0,0,0,0,0,0,0,0,0,-1,594,1527,0,0
-623,-503,0,0,0,0,0,0,0,0,0,-1,601,1527,0,0
-616,-503,0,0,0,0,0,0,0,0,0,-1,608,1527,0,0
-609,-503,0,0,0,0,0,0,0,0,0,-1,615,1527,0,0
-602,-503,0,0,0,0,0,0,0,0,0,-1,622,1527,0,0
-595,-503,0,0,0,0,0,0,0,0,0,-1,629,1527,0,0
-588,-503,0,0,0,0,0,0,0,0,0,-1,636,1527,0,0
-581,-503,0,0,0,0,0,0,0,0,0,-1,643,1527,0,0
-574,-503,0,0,0,0,0,0,0,0,0,-1,650,1527,0,0
-567,-503,0,0,0,0,0,0,0,0,0,-1,657,1527,0,0
-560,-503,0,0,0,0,0,0,0,0,0,-1,664,1527,0,0
-553,-503,0,0,0,0,0,0,0,0,0,-1,671,1527,0,0
-546,-503,0,0,0,0,0,0,0,0,0,-1,678,1527,0,0
-539,-503,-0.377441,4.87195,0.194567,-0.0336133,0.113137,0.241152,-0.0801982,0.390601,0.193133,0.0438359,685,1527,-0.377424,-4.87197
-532,-503,-0.170715,4.45227,0.156937,-0.0348055,0.0860999,0.189924,-0.0677927,0.365877,0.154262,0.0455598,692,1527,-0.170694,-4.4523
-525,-503,0.0245361,4.02319,0.126113,-0.0314545,0.0632938,0.148389,-0.0537301,0.338401,0.120884,0.0458429,699,1527,0.0245373,-4.02317
-518,-503,0.395935,3.81396,0.101105,-0.0273581,0.0458343,0.115781,-0.0420346,0.309891,0.0943729,0.0454693,706,1527,0.395956,-3.81393
-511,-503,-0.782715,2.32434,0,0,0,0,0,0,0,-1,713,1527,-0.782744,-2.32433
-504,-503,-0.420715,2.25366,0,0,0,0,0,0,0,-1,720,1527,-0.420744,-2.25364
-497,-503,0.481079,2.33862,0,0,0,0,0,0,0,-1,727,1527,0.481105,-2.33866
-490,-503,0.448669,2.52234,0.0304278,-0.0104462,0.00407938,0.030831,-0.0108494,0.098509,0.0249689,0.0455798,734,1527,0.448682,-2.52229
-483,-503,0.610352,2.56042,0.0214122,-0.00270034,0.00115687,0.0214676,-0.00275572,0.0478313,0.0153132,0.0324183,741,1527,0.610338,-2.56046
-476,-503,0.658203,2.61902,0.0164514,-0.000309815,4.99618e-05,0.0164516,-0.000309965,0.00298075,0.0110725,0.0151002,748,1527,0.658199,-2.61904
-469,-503,0.645935,2.72021,0.0121945,0.000930496,-0.000289488,0.0122019,0.000923061,-0.0256778,0.00784503,0.00928944,755,1527,0.645919,-2.72021
-462,-503,0.640869,2.8385,0.00887582,0.00175333,-0.000385433,0.00889661,0.00173253,-0.0539051,0.00544621,0.0109312,762,1527,0.640861,-2.83851
-455,-503,0.656006,2.94434,0.00647428,0.00179786,-0.000823815,0.00661516,0.00165698,-0.169373,0.00397463,0.0159664,769,1527,0.656027,-2.9443
-448,-503,0.671448,3.01563,0.00467771,0.00168704,-0.0012879,0.00515588,0.00120888,-0.355502,0.00311353,0.0159284,776,1527,0.671457,-3.01558
-441,-503,0.671692,3.09241,0.00374735,0.00141233,-0.00153855,0.00451122,0.000648459,-0.460831,0.00281632,0.0128775,783,1527,0.671673,-3.09244
-434,-503,0.644531,3.17847,0.00380461,0.00106854,-0.00167117,0.00459628,0.000276874,-0.442406,0.00297619,0.0101169,790,1527,0.64454,-3.17851
-427,-503,0.617554,3.27209,0.00420583,0.000608722,-0.00182682,0.00497088,-0.00015633,-0.396598,0.00336724,0.015475,797,1527,0.617555,-3.27209
-420,-503,0.66803,3.40625,0.00570292,0.00015039,-0.00201441,0.00635674,-0.000503434,-0.313845,0.00441522,0.0166227,804,1527,0.668041,-3.40622
-413,-503,0.684387,3.52063,0.0082081,0.00277153,-0.00177092,0.00873408,0.00224556,-0.288708,0.00523721,0.0148977,811,1527,0.684388,-3.52067
-406,-503,0.667114,3.59338,0.0117754,0.0077945,-0.00106964,0.0120446,0.0075253,-0.246555,0.00702577,0.0111256,818,1527,0.667091,-3.59341
-399,-503,0.7005,3.70483,0.0154378,0.0146675,-0.00049704,0.0156815,0.0144239,-0.45578,0.0100614,0.0123043,825,1527,0.700499,-3.70481
-392,-503,0.736206,3.82703,0.0195904,0.0224513,4.44942e-05,0.022452,0.0195897,1.55525,0.014111,0.0208122,832,1527,0.73623,-3.82708
-385,-503,0.698853,3.75891,0.022965,0.0325097,0.000603359,0.0325477,0.022927,1.50792,0.0193078,0.0339065,839,1527,0.698827,-3.75896
-378,-503,0.258789,3.91309,0,0,0,0,0,0,0,-1,846,1527,0.258766,-3.91303
-371,-503,0.634949,3.76794,0.0272943,0.0523537,0.00139312,0.052431,0.027217,1.51543,0.0302784,0.0457633,853,1527,0.634969,-3.76797
-364,-503,1.02063,3.55603,0.0279597,0.0625011,0.00125292,0.0625465,0.0279144,1.53459,0.0361806,0.0495676,860,1527,1.02065,-3.55606
-357,-503,1.52478,3.30017,0,0,0,0,0,0,0,-1,867,1527,1.52479,-3.30022
-350,-503,1.46704,2.73364,0,0,0,0,0,0,0,-1,874,1527,1.46704,-2.73362
-343,-503,-1.64331,4.52185,0,0,0,0,0,0,0,-1,881,1527,-1.64332,-4.52182
-336,-503,-2.18439,4.20801,0.0143194,0.080437,-0.003978,0.0806755,0.0140809,-1.51092,0.0497586,0.0457342,888,1527,-2.18437,-4.20801
-329,-503,-2.64471,4.60706,0.00662052,0.075954,-0.00687496,0.0766292,0.00594539,-1.47291,0.0492241,0.0436512,895,1527,-2.64473,-4.6071
-322,-503,-1.73431,6.18005,0,0,0,0,0,0,0,-1,902,1527,-1.7343,-6.18003
-315,-503,-1.9967,6.10071,0,0,0,0,0,0,0,-1,909,1527,-1.9967,-6.10075
-308,-503,-2.29205,6.29724,0,0,0,0,0,0,0,-1,916,1527,-2.29205,-6.29721
-301,-503,0,0,0,0,0,0,0,0,0,-1,923,1527,0,0
-294,-503,0,0,0,0,0,0,0,0,0,-1,930,1527,0,0
-287,-503,0,0,0,0,0,0,0,0,0,-1,937,1527,0,0
-280,-503,0,0,0,0,0,0,0,0,0,-1,944,1527,0,0
-273,-503,0,0,0,0,0,0,0,0,0,-1,951,1527,0,0
-266,-503,0,0,0,0,0,0,0,0,0,-1,958,1527,0,0
-259,-503,0,0,0,0,0,0,0,0,0,-1,965,1527,0,0
-252,-503,0,0,0,0,0,0,0,0,0,-1,972,1527,0,0
-245,-503,0,0,0,0,0,0,0,0,0,-1,979,1527,0,0
-238,-503,0,0,0,0,0,0,0,0,0,-1,986,1527,0,0
-231,-503,0,0,0,0,0,0,0,0,0,-1,993,1527,0,0
-224,-503,0,0,0,0,0,0,0,0,0,-1,1000,1527,0,0
-217,-503,0,0,0,0,0,0,0,0,0,-1,1007,1527,0,0
-210,-503,0,0,0,0,0,0,0,0,0,-1,1014,1527,0,0
-203,-503,0,0,0,0,0,0,0,0,0,-1,1021,1527,0,0
-196,-503,0,0,0,0,0,0,0,0,0,-1,1028,1527,0,0
-189,-503,0,0,0,0,0,0,0,0,0,-1,1035,1527,0,0
-182,-503,0,0,0,0,0,0,0,0,0,-1,1042,1527,0,0
-175,-503,0,0,0,0,0,0,0,0,0,-1,1049,1527,0,0
-168,-503,0,0,0,0,0,0,0,0,0,-1,1056,1527,0,0
-161,-503,0,0,0,0,0,0,0,0,0,-1,1063,1527,0,0
-154,-503,0,0,0,0,0,0,0,0,0,-1,1070,1527,0,0
-147,-503,0,0,0,0,0,0,0,0,0,-1,1077,1527,0,0
-140,-503,0,0,0,0,0,0,0,0,0,-1,1084,1527,0,0
-133,-503,0,0,0,0,0,0,0,0,0,-1,1091,1527,0,0
-126,-503,0,0,0,0,0,0,0,0,0,-1,1098,1527,0,0
-119,-503,0,0,0,0,0,0,0,0,0,-1,1105,1527,0,0
-112,-503,0,0,0,0,0,0,0,0,0,-1,1112,1527,0,0
-105,-503,0,0,0,0,0,0,0,0,0,-1,1119,1527,0,0
-98,-503,0,0,0,0,0,0,0,0,0,-1,1126,1527,0,0
-91,-503,0,0,0,0,0,0,0,0,0,-1,1133,1527,0,0
-84,-503,0,0,0,0,0,0,0,0,0,-1,1140,1527,0,0
-77,-503,0,0,0,0,0,0,0,0,0,-1,1147,1527,0,0
-70,-503,0,0,0,0,0,0,0,0,0,-1,1154,1527,0,0
-63,-503,0,0,0,0,0,0,0,0,0,-1,1161,1527,0,0
-56,-503,0,0,0,0,0,0,0,0,0,-1,1168,1527,0,0
-49,-503,0,0,0,0,0,0,0,0,0,-1,1175,1527,0,0
-42,-503,0,0,0,0,0,0,0,0,0,-1,1182,1527,0,0
-35,-503,0,0,0,0,0,0,0,0,0,-1,1189,1527,0,0
-28,-503,0,0,0,0,0,0,0,0,0,-1,1196,1527,0,0
-21,-503,0,0,0,0,0,0,0,0,0,-1,1203,1527,0,0
-14,-503,0,0,0,0,0,0,0,0,0,-1,1210,1527,0,0
-7,-503,0,0,0,0,0,0,0,0,0,-1,1217,1527,0,0
0,-503,0,0,0,0,0,0,0,0,0,-1,1224,1527,0,0
7,-503,0,0,0,0,0,0,0,0,0,-1,1231,1527,0,0
14,-503,0,0,0,0,0,0,0,0,0,-1,1238,1527,0,0
21,-503,0,0,0,0,0,0,0,0,0,-1,1245,1527,0,0
28,-503,0,0,0,0,0,0,0,0,0,-1,1252,1527,0,0
35,-503,0,0,0,0,0,0,0,0,0,-1,1259,1527,0,0
42,-503,0,0,0,0,0,0,0,0,0,-1,1266,1527,0,0
49,-503,0,0,0,0,0,0,0,0,0,-1,1273,1527,0,0
56,-503,0,0,0,0,0,0,0,0,0,-1,1280,1527,0,0
63,-503,0,0,0,0,0,0,0,0,0,-1,1287,1527,0,0
70,-503,0,0,0,0,0,0,0,0,0,-1,1294,1527,0,0
77,-503,0,0,0,0,0,0,0,0,0,-1,1301,1527,0,0
84,-503,0,0,0,0,0,0,0,0,0,-1,1308,1527,0,0
91,-503,0,0,0,0,0,0,0,0,0,-1,1315,1527,0,0
98,-503,0,0,0,0,0,0,0,0,0,-1,1322,1527,0,0
105,-503,0,0,0,0,0,0,0,0,0,-1,1329,1527,0,0
112,-503,0,0,0,0,0,0,0,0,0,-1,1336,1527,0,0
119,-503,0,0,0,0,0,0,0,0,0,-1,1343,1527,0,0
126,-503,0,0,0,0,0,0,0,0,0,-1,1350,1527,0,0
133,-503,0,0,0,0,0,0,0,0,0,-1,1357,1527,0,0
140,-503,0,0,0,0,0,0,0,0,0,-1,1364,1527,0,0
147,-503,0,0,0,0,0,0,0,0,0,-1,1371,1527,0,0
154,-503,0,0,0,0,0,0,0,0,0,-1,1378,1527,0,0
161,-503,0,0,0,0,0,0,0,0,0,-1,1385,1527,0,0
168,-503,0,0,0,0,0,0,0,0,0,-1,1392,1527,0,0
175,-503,0,0,0,0,0,0,0,0,0,-1,1399,1527,0,0
182,-503,0,0,0,0,0,0,0,0,0,-1,1406,1527,0,0
189,-503,0,0,0,0,0,0,0,0,0,-1,1413,1527,0,0
196,-503,0,0,0,0,0,0,0,0,0,-1,1420,1527,0,0
203,-503,0,0,0,0,0,0,0,0,0,-1,1427,1527,0,0
210,-503,0,0,0,0,0,0,0,0,0,-1,1434,1527,0,0
217,-503,0,0,0,0,0,0,0,0,0,-1,1441,1527,0,0
224,-503,0,0,0,0,0,0,0,0,0,-1,1448,1527,0,0
231,-503,0,0,0,0,0,0,0,0,0,-1,1455,1527,0,0
238,-503,0,0,0,0,0,0,0,0,0,-1,1462,1527,0,0
245,-503,0,0,0,0,0,0,0,0,0,-1,1469,1527,0,0
252,-503,0,0,0,0,0,0,0,0,0,-1,1476,1527,0,0
259,-503,0,0,0,0,0,0,0,0,0,-1,1483,1527,0,0
266,-503,0,0,0,0,0,0,0,0,0,-1,1490,1527,0,0
273,-503,0,0,0,0,0,0,0,0,0,-1,1497,1527,0,0
280,-503,0,0,0,0,0,0,0,0,0,-1,1504,1527,0,0
287,-503,0,0,0,0,0,0,0,0,0,-1,1511,1527,0,0
294,-503,0,0,0,0,0,0,0,0,0,-1,1518,1527,0,0
301,-503,0,0,0,0,0,0,0,0,0,-1,1525,1527,0,0
308,-503,0,0,0,0,0,0,0,0,0,-1,1532,1527,0,0
315,-503,0,0,0,0,0,0,0,0,0,-1,1539,1527,0,0
322,-503,0,0,0,0,0,0,0,0,0,-1,1546,1527,0,0
329,-503,0,0,0,0,0,0,0,0,0,-1,1553,1527,0,0
336,-503,0,0,0,0,0,0,0,0,0,-1,1560,1527,0,0
343,-503,0,0,0,0,0,0,0,0,0,-1,1567,1527,0,0
350,-503,0,0,0,0,0,0,0,0,0,-1,1574,1527,0,0
357,-503,0,0,0,0,0,0,0,0,0,-1,1581,1527,0,0
364,-503,0,0,0,0,0,0,0,0,0,-1,1588,1527,0,0
371,-503,0,0,0,0,0,0,0,0,0,-1,1595,1527,0,0
378,-503,0,0,0,0,0,0,0,0,0,-1,1602,1527,0,0
385,-503,0,0,0,0,0,0,0,0,0,-1,1609,1527,0,0
392,-503,0,0,0,0,0,0,0,0,0,-1,1616,1527,0,0
399,-503,0,0,0,0,0,0,0,0,0,-1,1623,1527,0,0
406,-503,0,0,0,0,0,0,0,0,0,-1,1630,1527,0,0
413,-503,0,0,0,0,0,0,0,0,0,-1,1637,1527,0,0
420,-503,0,0,0,0,0,0,0,0,0,-1,1644,1527,0,0
427,-503,14.849,4.34363,0,0,0,0,0,0,0,-1,1651,1527,14.849,-4.3436
434,-503,13.6982,4.48792,0,0,0,0,0,0,0,-1,1658,1527,13.6983,-4.48786
441,-503,12.254,4.79846,0,0,0,0,0,0,0,-1,1665,1527,12.254,-4.79844
448,-503,10.7709,5.51526,0,0,0,0,0,0,0,-1,1672,1527,10.7709,-5.5152
455,-503,9.25012,6.19531,0,0,0,0,0,0,0,-1,1679,1527,9.25012,-6.19532
462,-503,8.5498,1.43823,0,0,0,0,0,0,0,-1,1686,1527,8.54986,-1.43827
469,-503,8.38464,0.303833,0,0,0,0,0,0,0,-1,1693,1527,8.38467,-0.303811
476,-503,8.16028,1.28479,-0.030919,-0.0508755,0.0689643,0.0287852,-0.11058,0.713553,0.0849562,0.044871,1700,1527,8.16022,-1.28481
483,-503,7.94373,2.27234,-0.0316979,-0.0501824,0.0640858,0.0238087,-0.105689,0.713784,0.0795915,0.0438658,1707,1527,7.94378,-2.27236
490,-503,7.73303,3.26184,0,0,0,0,0,0,0,-1,1714,1527,7.73301,-3.26184
497,-503,7.51636,4.24048,0,0,0,0,0,0,0,-1,1721,1527,7.51639,-4.24047
504,-503,6.35681,4.69702,-0.0268052,-0.040836,0.0350065,0.00188193,-0.0695231,0.686507,0.0469886,0.0400042,1728,1527,6.35675,-4.69702
511,-503,5.97156,4.51892,-0.0229404,-0.0360575,0.0263617,-0.00233365,-0.0566642,0.663478,0.0370228,0.0396115,1735,1527,5.97159,-4.51889
518,-503,5.5509,4.3009,-0.0187534,-0.0308308,0.019605,-0.00427818,-0.045306,0.635999,0.0288838,0.0391003,1742,1527,5.55095,-4.30084
525,-503,5.26782,4.17224,-0.0148712,-0.0259144,0.0134305,-0.00587154,-0.034914,0.590368,0.0215867,0.0257071,1749,1527,5.26779,-4.17224
532,-503,5.29333,4.14917,-0.011295,-0.0209565,0.00844191,-0.00639935,-0.0258521,0.525521,0.015547,0.0109889,1756,1527,5.29331,-4.14921
539,-503,5.30151,4.05676,-0.00782788,-0.0160895,0.00554998,-0.00504018,-0.0188772,0.465479,0.0112863,0.0114204,1763,1527,5.30156,-4.05679
546,-503,5.28052,3.95544,-0.00483786,-0.0120501,0.00374662,-0.00324386,-0.0136441,0.402251,0.00823071,0.0106296,1770,1527,5.28054,-3.95541
553,-503,5.29138,3.86731,-0.0022961,-0.00873467,0.00257243,-0.00139456,-0.00963621,0.337086,0.00601343,0.0130919,1777,1527,5.29137,-3.86728
560,-503,5.28442,3.79919,-0.000166767,-0.00548716,0.00146091,0.000207984,-0.00586191,0.251104,0.00397908,0.0133752,1784,1527,5.28447,-3.79915
567,-503,5.28015,3.68994,0.00120334,-0.00309255,0.00057235,0.00127829,-0.0031675,0.130207,0.0026429,0.0117026,1791,1527,5.2801,-3.68997
574,-503,5.28064,3.61157,0.00278125,-0.00132977,-0.000387711,0.00281749,-0.00136602,-0.093215,0.00246333,0.0109841,1798,1527,5.28061,-3.61154
581,-503,5.26807,3.54443,0.00443079,0.000255357,-0.0016386,0.00499705,-0.000310896,-0.332725,0.00343968,0.0116647,1805,1527,5.26802,-3.54441
588,-503,5.25269,3.43506,0.00563744,0.00153223,-0.00265462,0.00694045,0.00022922,-0.4563,0.00455249,0.0157278,1812,1527,5.25273,-3.435
595,-503,5.27368,3.33813,0.00765002,0.00256652,-0.00373429,0.00962551,0.000591041,-0.486587,0.00622934,0.0125152,1819,1527,5.27372,-3.33808
602,-503,5.29309,3.24878,0.0103177,0.00388632,-0.00508849,0.0131215,0.0010826,-0.503605,0.00841003,0.0125926,1826,1527,5.29315,-3.24874
609,-503,5.30359,3.14075,0.0137263,0.00557089,-0.00678269,0.0175627,0.00173452,-0.51475,0.0111752,0.0151886,1833,1527,5.30357,-3.14073
616,-503,5.2699,3.07288,0.0180038,0.00770477,-0.00875012,0.0230072,0.00270134,-0.519436,0.0145217,0.0188077,1840,1527,5.26995,-3.07282
623,-503,5.22607,2.93115,0.0231879,0.0102974,-0.0110818,0.0295624,0.00392286,-0.522006,0.0185395,0.0340911,1847,1527,5.22609,-2.93116
630,-503,5.6084,2.5813,0.0293323,0.0133373,-0.0139039,0.0373748,0.00529486,-0.524406,0.0233525,0.0414327,1854,1527,5.60842,-2.5813
637,-503,6.09253,2.35449,0,0,0,0,0,0,0,-1,1861,1527,6.09248,-2.35448
644,-503,5.58582,1.70715,0,0,0,0,0,0,0,-1,1868,1527,5.58576,-1.70716
651,-503,5.73877,1.95117,0,0,0,0,0,0,0,-1,1875,1527,5.73877,-1.95123
658,-503,6.17004,0.680298,0,0,0,0,0,0,0,-1,1882,1527,6.16999,-0.68028
665,-503,0,0,0,0,0,0,0,0,0,-1,1889,1527,0,0
672,-503,0,0,0,0,0,0,0,0,0,-1,1896,1527,0,0
679,-503,0,0,0,0,0,0,0,0,0,-1,1903,1527,0,0
686,-503,0,0,0,0,0,0,0,0,0,-1,1910,1527,0,0
693,-503,0,0,0,0,0,0,0,0,0,-1,1917,1527,0,0
700,-503,0,0,0,0,0,0,0,0,0,-1,1924,1527,0,0
707,-503,0,0,0,0,0,0,0,0,0,-1,1931,1527,0,0
714,-503,0,0,0,0,0,0,0,0,0,-1,1938,1527,0,0
721,-503,0,0,0,0,0,0,0,0,0,-1,1945,1527,0,0
728,-503,0,0,0,0,0,0,0,0,0,-1,1952,1527,0,0
735,-503,0,0,0,0,0,0,0,0,0,-1,1959,1527,0,0
742,-503,0,0,0,0,0,0,0,0,0,-1,1966,1527,0,0
749,-503,0,0,0,0,0,0,0,0,0,-1,1973,1527,0,0
756,-503,0,0,0,0,0,0,0,0,0,-1,1980,1527,0,0
763,-503,0,0,0,0,0,0,0,0,0,-1,1987,1527,0,0
770,-503,0,0,0,0,0,0,0,0,0,-1,1994,1527,0,0
777,-503,0,0,0,0,0,0,0,0,0,-1,2001,1527,0,0
784,-503,0,0,0,0,0,0,0,0,0,-1,2008,1527,0,0
791,-503,0,0,0,0,0,0,0,0,0,-1,2015,1527,0,0
798,-503,0,0,0,0,0,0,0,0,0,-1,2022,1527,0,0
805,-503,0,0,0,0,0,0,0,0,0,-1,2029,1527,0,0
812,-503,0,0,0,0,0,0,0,0,0,-1,2036,1527,0,0
-700,-510,0,0,0,0,0,0,0,0,0,-1,524,1534,0,0
-693,-510,0,0,0,0,0,0,0,0,0,-1,531,1534,0,0
-686,-510,0,0,0,0,0,0,0,0,0,-1,538,1534,0,0
-679,-510,0,0,0,0,0,0,0,0,0,-1,545,1534,0,0
-672,-510,0,0,0,0,0,0,0,0,0,-1,552,1534,0,0
-665,-510,0,0,0,0,0,0,0,0,0,-1,559,1534,0,0
-658,-510,0,0,0,0,0,0,0,0,0,-1,566,1534,0,0
-651,-510,0,0,0,0,0,0,0,0,0,-1,573,1534,0,0
-644,-510,0,0,0,0,0,0,0,0,0,-1,580,1534,0,0
-637,-510,0,0,0,0,0,0,0,0,0,-1,587,1534,0,0
-630,-510,0,0,0,0,0,0,0,0,0,-1,594,1534,0,0
-623,-510,0,0,0,0,0,0,0,0,0,-1,601,1534,0,0
-616,-510,0,0,0,0,0,0,0,0,0,-1,608,1534,0,0
-609,-510,0,0,0,0,0,0,0,0,0,-1,615,1534,0,0
-602,-510,0,0,0,0,0,0,0,0,0,-1,622,1534,0,0
-595,-510,0,0,0,0,0,0,0,0,0,-1,629,1534,0,0
-588,-510,0,0,0,0,0,0,0,0,0,-1,636,1534,0,0
-581,-510,0,0,0,0,0,0,0,0,0,-1,643,1534,0,0
-574,-510,0,0,0,0,0,0,0,0,0,-1,650,1534,0,0
-567,-510,0,0,0,0,0,0,0,0,0,-1,657,1534,0,0
-560,-510,0,0,0,0,0,0,0,0,0,-1,664,1534,0,0
-553,-510,0,0,0,0,0,0,0,0,0,-1,671,1534,0,0
-546,-510,0,0,0,0,0,0,0,0,0,-1,678,1534,0,0
-539,-510,0,0,0,0,0,0,0,0,0,-1,685,1534,0,0
-532,-510,-0.210632,4.90894,0,0,0,0,0,0,0,-1,692,1534,-0.210654,-4.90897
-525,-510,-3.8335,2.04053,0,0,0,0,0,0,0,-1,699,1534,-3.83351,-2.04052
-518,-510,0.637268,4.54358,0,0,0,0,0,0,0,-1,706,1534,0.637273,-4.54354
-511,-510,-1.58038,2.96069,0,0,0,0,0,0,0,-1,713,1534,-1.58041,-2.96074
-504,-510,-1.19525,2.91931,0,0,0,0,0,0,0,-1,720,1534,-1.19525,-2.91929
-497,-510,-0.479553,2.73035,0.0660037,-0.00760303,0.00988817,0.0673089,-0.00890825,0.131239,0.0481177,0.0452813,727,1534,-0.479579,-2.73041
-490,-510,0.199463,2.68115,0.0481732,-0.00386934,-8.87107e-05,0.0481733,-0.00386949,-0.00170457,0.03348,0.0437067,734,1534,0.199483,-2.68116
-483,-510,0.728577,2.60962,0.0374962,0.00420217,-0.00294974,0.0377555,0.00394285,-0.0876865,0.0239644,0.0394826,741,1534,0.72857,-2.60967
-476,-510,0.830627,2.5531,0.0303044,0.0064464,-0.00367643,0.0308581,0.00589272,-0.149478,0.0189163,0.0240194,748,1534,0.830609,-2.55313
-469,-510,0.748413,2.70288,0.023476,0.00706415,-0.00346553,0.0241778,0.00636237,-0.199799,0.0144717,0.00994635,755,1534,0.748387,-2.70294
-462,-510,0.749023,2.81604,0.0175447,0.00695279,-0.00294125,0.0183066,0.00619085,-0.253481,0.0107523,0.0108295,762,1534,0.749003,-2.81609
-455,-510,0.749268,2.92505,0.0126097,0.0058696,-0.0026443,0.0135233,0.00495601,-0.332653,0.00789993,0.0125734,769,1534,0.74924,-2.92506
-448,-510,0.77356,3.01001,0.00867687,0.00478858,-0.00251222,0.00990935,0.0035561,-0.456094,0.00579664,0.0118527,776,1534,0.773545,-3.01001
-441,-510,0.757996,3.08972,0.00596329,0.00355677,-0.00219579,0.0072639,0.00225617,-0.534751,0.00429294,0.0125227,783,1534,0.757972,-3.08975
-434,-510,0.718506,3.17688,0.00457738,0.00228817,-0.00174319,0.00551816,0.00134739,-0.494892,0.00332201,0.0136463,790,1534,0.718497,-3.17688
-427,-510,0.706604,3.23987,0.00328937,0.000885341,-0.00122985,0.00380706,0.000367651,-0.398423,0.0024248,0.0214854,797,1534,0.706625,-3.23991
-420,-510,0.741394,3.36267,0.00371972,-0.000325046,-0.000963162,0.00393737,-0.000542688,-0.222234,0.00282325,0.0218957,804,1534,0.741369,-3.36268
-413,-510,0.774353,3.50696,0.00532883,0.00133368,-0.000682227,0.00544212,0.00122039,-0.164553,0.00329744,0.0113536,811,1534,0.774335,-3.50696
-406,-510,0.757385,3.58069,0.00797609,0.00498149,-0.0001606,0.00798468,0.0049729,-0.0534257,0.00465607,0.010009,818,1534,0.757416,-3.58073
-399,-510,0.747314,3.672,0.0107296,0.0100982,0.000130664,0.0107556,0.0100722,0.196202,0.00695379,0.0100496,825,1534,0.74729,-3.67198
-392,-510,0.774597,3.80933,0.0138125,0.0158504,0.000334802,0.015904,0.0137589,1.41207,0.00996491,0.013761,832,1534,0.77461,-3.80937
-385,-510,0.755188,3.8717,0.0162425,0.0233922,0.000482345,0.0234246,0.0162101,1.50374,0.0138526,0.0212261,839,1534,0.755214,-3.87166
-378,-510,0.69928,3.83276,0.0177529,0.0300303,0.000278659,0.0300366,0.0177466,1.54812,0.0174368,0.0321483,846,1534,0.699282,-3.8328
-371,-510,0.817261,3.75293,0.0190425,0.0380305,0.000288171,0.0380349,0.0190381,1.55562,0.0219595,0.0443243,853,1534,0.817242,-3.7529
-364,-510,1.07281,3.63757,0,0,0,0,0,0,0,-1,860,1534,1.07283,-3.63753
-357,-510,-0.978821,4.3772,0,0,0,0,0,0,0,-1,867,1534,-0.978819,-4.37715
-350,-510,-0.938171,4.3717,0.0149582,0.0549114,-0.00275744,0.0551008,0.0147687,-1.50221,0.0329339,0.0444129,874,1534,-0.938201,-4.37165
-343,-510,-0.963196,4.38538,0.0111123,0.0569208,-0.00458572,0.0573754,0.0106577,-1.472,0.0352391,0.0451679,881,1534,-0.963207,-4.38538
-336,-510,-1.0459,4.6261,0,0,0,0,0,0,0,-1,888,1534,-1.0459,-4.62608
-329,-510,-1.73096,4.90625,-0.00119626,0.0516278,-0.00875525,0.0530411,-0.00260958,-1.41075,0.0362619,0.0430638,895,1534,-1.73097,-4.90621
-322,-510,-1.37555,5.9281,-0.00895517,0.0424125,-0.010348,0.0444187,-0.0109614,-1.3793,0.0338629,0.0471019,902,1534,-1.37557,-5.92807
-315,-510,-1.53796,6.01196,-0.0172326,0.0322377,-0.0114345,0.0347528,-0.0197477,-1.35429,0.0318609,0.0469511,909,1534,-1.53797,-6.01196
-308,-510,-1.70337,6.20911,-0.025941,0.0165747,-0.0119668,0.0197115,-0.0290779,-1.31444,0.0283411,0.0459614,916,1534,-1.70338,-6.20911
-301,-510,-1.96997,6.41541,-0.0302764,0.00375504,-0.0094993,0.00622704,-0.0327485,-1.31621,0.0241768,0.0443462,923,1534,-1.96994,-6.41544
-294,-510,0,0,0,0,0,0,0,0,0,-1,930,1534,0,0
-287,-510,0,0,0,0,0,0,0,0,0,-1,937,1534,0,0
-280,-510,0,0,0,0,0,0,0,0,0,-1,944,1534,0,0
-273,-510,0,0,0,0,0,0,0,0,0,-1,951,1534,0,0
-266,-510,0,0,0,0,0,0,0,0,0,-1,958,1534,0,0
-259,-510,0,0,0,0,0,0,0,0,0,-1,965,1534,0,0
-252,-510,0,0,0,0,0,0,0,0,0,-1,972,1534,0,0
-245,-510,0,0,0,0,0,0,0,0,0,-1,979,1534,0,0
-238,-510,0,0,0,0,0,0,0,0,0,-1,986,1534,0,0
-231,-510,0,0,0,0,0,0,0,0,0,-1,993,1534,0,0
-224,-510,0,0,0,0,0,0,0,0,0,-1,1000,1534,0,0
-217,-510,0,0,0,0,0,0,0,0,0,-1,1007,1534,0,0
-210,-510,0,0,0,0,0,0,0,0,0,-1,1014,1534,0,0
-203,-510,0,0,0,0,0,0,0,0,0,-1,1021,1534,0,0
-196,-510,0,0,0,0,0,0,0,0,0,-1,1028,1534,0,0
-189,-510,0,0,0,0,0,0,0,0,0,-1,1035,1534,0,0
-182,-510,0,0,0,0,0,0,0,0,0,-1,1042,1534,0,0
-175,-510,0,0,0,0,0,0,0,0,0,-1,1049,1534,0,0
-168,-510,0,0,0,0,0,0,0,0,0,-1,1056,1534,0,0
-161,-510,0,0,0,0,0,0,0,0,0,-1,1063,1534,0,0
-154,-510,0,0,0,0,0,0,0,0,0,-1,1070,1534,0,0
-147,-510,0,0,0,0,0,0,0,0,0,-1,1077,1534,0,0
-140,-510,0,0,0,0,0,0,0,0,0,-1,1084,1534,0,0
-133,-510,0,0,0,0,0,0,0,0,0,-1,1091,1534,0,0
-126,-510,0,0,0,0,0,0,0,0,0,-1,1098,1534,0,0
-119,-510,0,0,0,0,0,0,0,0,0,-1,1105,1534,0,0
-112,-510,0,0,0,0,0,0,0,0,0,-1,1112,1534,0,0
-105,-510,0,0,0,0,0,0,0,0,0,-1,1119,1534,0,0
-98,-510,0,0,0,0,0,0,0,0,0,-1,1126,1534,0,0
-91,-510,0,0,0,0,0,0,0,0,0,-1,1133,1534,0,0
-84,-510,0,0,0,0,0,0,0,0,0,-1,1140,1534,0,0
-77,-510,0,0,0,0,0,0,0,0,0,-1,1147,1534,0,0
-70,-510,0,0,0,0,0,0,0,0,0,-1,1154,1534,0,0
-63,-510,0,0,0,0,0,0,0,0,0,-1,1161,1534,0,0
-56,-510,0,0,0,0,0,0,0,0,0,-1,1168,1534,0,0
-49,-510,0,0,0,0,0,0,0,0,0,-1,1175,1534,0,0
-42,-510,0,0,0,0,0,0,0,0,0,-1,1182,1534,0,0
-35,-510,0,0,0,0,0,0,0,0,0,-1,1189,1534,0,0
-28,-510,0,0,0,0,0,0,0,0,0,-1,1196,1534,0,0
-21,-510,0,0,0,0,0,0,0,0,0,-1,1203,1534,0,0
-14,-510,0,0,0,0,0,0,0,0,0,-1,1210,1534,0,0
-7,-510,0,0,0,0,0,0,0,0,0,-1,1217,1534,0,0
0,-510,0,0,0,0,0,0,0,0,0,-1,1224,1534,0,0
7,-510,0,0,0,0,0,0,0,0,0,-1,1231,1534,0,0
14,-510,0,0,0,0,0,0,0,0,0,-1,1238,1534,0,0
21,-510,0,0,0,0,0,0,0,0,0,-1,1245,1534,0,0
28,-510,0,0,0,0,0,0,0,0,0,-1,1252,1534,0,0
35,-510,0,0,0,0,0,0,0,0,0,-1,1259,1534,0,0
42,-510,0,0,0,0,0,0,0,0,0,-1,1266,1534,0,0
49,-510,0,0,0,0,0,0,0,0,0,-1,1273,1534,0,0
56,-510,0,0,0,0,0,0,0,0,0,-1,1280,1534,0,0
63,-510,0,0,0,0,0,0,0,0,0,-1,1287,1534,0,0
70,-510,0,0,0,0,0,0,0,0,0,-1,1294,1534,0,0
77,-510,0,0,0,0,0,0,0,0,0,-1,1301,1534,0,0
84,-510,0,0,0,0,0,0,0,0,0,-1,1308,1534,0,0
91,-510,0,0,0,0,0,0,0,0,0,-1,1315,1534,0,0
98,-510,0,0,0,0,0,0,0,0,0,-1,1322,1534,0,0
105,-510,0,0,0,0,0,0,0,0,0,-1,1329,1534,0,0
112,-510,0,0,0,0,0,0,0,0,0,-1,1336,1534,0,0
119,-510,0,0,0,0,0,0,0,0,0,-1,1343,1534,0,0
126,-510,0,0,0,0,0,0,0,0,0,-1,1350,1534,0,0
133,-510,0,0,0,0,0,0,0,0,0,-1,1357,1534,0,0
140,-510,0,0,0,0,0,0,0,0,0,-1,1364,1534,0,0
147,-510,0,0,0,0,0,0,0,0,0,-1,1371,1534,0,0
154,-510,0,0,0,0,0,0,0,0,0,-1,1378,1534,0,0
161,-510,0,0,0,0,0,0,0,0,0,-1,1385,1534,0,0
168,-510,0,0,0,0,0,0,0,0,0,-1,1392,1534,0,0
175,-510,0,0,0,0,0,0,0,0,0,-1,1399,1534,0,0
182,-510,0,0,0,0,0,0,0,0,0,-1,1406,1534,0,0
189,-510,0,0,0,0,0,0,0,0,0,-1,1413,1534,0,0
196,-510,0,0,0,0,0,0,0,0,0,-1,1420,1534,0,0
203,-510,0,0,0,0,0,0,0,0,0,-1,1427,1534,0,0
210,-510,0,0,0,0,0,0,0,0,0,-1,1434,1534,0,0
217,-510,0,0,0,0,0,0,0,0,0,-1,1441,1534,0,0
224,-510,0,0,0,0,0,0,0,0,0,-1,1448,1534,0,0
231,-510,0,0,0,0,0,0,0,0,0,-1,1455,1534,0,0
238,-510,0,0,0,0,0,0,0,0,0,-1,1462,1534,0,0
245,-510,0,0,0,0,0,0,0,0,0,-1,1469,1534,0,0
252,-510,0,0,0,0,0,0,0,0,0,-1,1476,1534,0,0
259,-510,0,0,0,0,0,0,0,0,0,-1,1483,1534,0,0
266,-510,0,0,0,0,0,0,0,0,0,-1,1490,1534,0,0
273,-510,0,0,0,0,0,0,0,0,0,-1,1497,1534,0,0
280,-510,0,0,0,0,0,0,0,0,0,-1,1504,1534,0,0
287,-510,0,0,0,0,0,0,0,0,0,-1,1511,1534,0,0
294,-510,0,0,0,0,0,0,0,0,0,-1,1518,1534,0,0
301,-510,0,0,0,0,0,0,0,0,0,-1,1525,1534,0,0
308,-510,0,0,0,0,0,0,0,0,0,-1,1532,1534,0,0
315,-510,0,0,0,0,0,0,0,0,0,-1,1539,1534,0,0
322,-510,0,0,0,0,0,0,0,0,0,-1,1546,1534,0,0
329,-510,0,0,0,0,0,0,0,0,0,-1,1553,1534,0,0
336,-510,0,0,0,0,0,0,0,0,0,-1,1560,1534,0,0
343,-510,0,0,0,0,0,0,0,0,0,-1,1567,1534,0,0
350,-510,0,0,0,0,0,0,0,0,0,-1,1574,1534,0,0
357,-510,0,0,0,0,0,0,0,0,0,-1,1581,1534,0,0
364,-510,0,0,0,0,0,0,0,0,0,-1,1588,1534,0,0
371,-510,0,0,0,0,0,0,0,0,0,-1,1595,1534,0,0
378,-510,0,0,0,0,0,0,0,0,0,-1,1602,1534,0,0
385,-510,0,0,0,0,0,0,0,0,0,-1,1609,1534,0,0
392,-510,0,0,0,0,0,0,0,0,0,-1,1616,1534,0,0
399,-510,0,0,0,0,0,0,0,0,0,-1,1623,1534,0,0
406,-510,0,0,0,0,0,0,0,0,0,-1,1630,1534,0,0
413,-510,0,0,0,0,0,0,0,0,0,-1,1637,1534,0,0
420,-510,9.15613,1.54382,0,0,0,0,0,0,0,-1,1644,1534,9.15618,-1.54388
427,-510,15.8339,1.51343,0,0,0,0,0,0,0,-1,1651,1534,15.8339,-1.51343
434,-510,14.0995,2.75696,0,0,0,0,0,0,0,-1,1658,1534,14.0995,-2.75701
441,-510,12.3387,3.69189,0,0,0,0,0,0,0,-1,1665,1534,12.3387,-3.69193
448,-510,11.6381,4.14771,0,0,0,0,0,0,0,-1,1672,1534,11.6381,-4.14775
455,-510,7.58142,1.28809,0,0,0,0,0,0,0,-1,1679,1534,7.5814,-1.28811
462,-510,9.94971,2.97925,0,0,0,0,0,0,0,-1,1686,1534,9.94966,-2.97931
469,-510,8.6532,2.86121,0,0,0,0,0,0,0,-1,1693,1534,8.65316,-2.86117
476,-510,6.90674,2.05078,0,0,0,0,0,0,0,-1,1700,1534,6.9068,-2.05072
483,-510,6.9646,2.69653,0,0,0,0,0,0,0,-1,1707,1534,6.96465,-2.69657
490,-510,6.90906,3.53357,0,0,0,0,0,0,0,-1,1714,1534,6.90906,-3.53352
497,-510,5.61084,4.52087,0,0,0,0,0,0,0,-1,1721,1534,5.61084,-4.5209
504,-510,6.42468,5.11414,0,0,0,0,0,0,0,-1,1728,1534,6.42473,-5.1141
511,-510,6.09058,4.91541,0,0,0,0,0,0,0,-1,1735,1534,6.09055,-4.91534
518,-510,5.33728,4.39465,-0.0150307,-0.0260827,0.0167403,-0.00292788,-0.0381855,0.625979,0.0245394,0.0288404,1742,1534,5.33726,-4.39466
525,-510,5.20215,4.24182,-0.0119139,-0.0215272,0.0113781,-0.00436883,-0.0290723,0.585546,0.0181019,0.0142363,1749,1534,5.20217,-4.24185
532,-510,5.21509,4.13879,-0.00912303,-0.0170918,0.00704174,-0.00501658,-0.0211982,0.527943,0.0127921,0.0109964,1756,1534,5.21508,-4.13884
539,-510,5.20605,4.04309,-0.00634005,-0.0128394,0.00441641,-0.00410657,-0.0150729,0.468215,0.00899775,0.0118917,1763,1534,5.206,-4.04314
546,-510,5.18396,3.96631,-0.00381723,-0.00936393,0.00278641,-0.00265923,-0.0105219,0.393873,0.0063176,0.011291,1770,1534,5.18396,-3.96634
553,-510,5.1792,3.88477,-0.00167505,-0.00647397,0.00176958,-0.0010931,-0.00705592,0.317723,0.00438523,0.0126584,1777,1534,5.17921,-3.88483
560,-510,5.18152,3.79004,0.000224668,-0.00356928,0.000732455,0.000361164,-0.00370577,0.184241,0.00259928,0.013122,1784,1534,5.18149,-3.79005
567,-510,5.19385,3.68311,0.0015275,-0.00134823,-9.86387e-05,0.00153088,-0.00135161,-0.0342468,0.00166528,0.0117306,1791,1534,5.19388,-3.68308
574,-510,5.1947,3.59119,0.00342528,0.000414761,-0.00111805,0.00379509,4.49597e-05,-0.319427,0.0025152,0.0121888,1798,1534,5.19472,-3.59115
581,-510,5.17407,3.53406,0.00566322,0.0020937,-0.00251521,0.00696256,0.000794367,-0.476832,0.00440088,0.0108549,1805,1534,5.17412,-3.53408
588,-510,5.17529,3.4386,0.00757237,0.00352034,-0.00375974,0.00981723,0.00127548,-0.538269,0.00616381,0.012171,1812,1534,5.17523,-3.43856
595,-510,5.20325,3.32849,0.0105589,0.00483243,-0.00522603,0.0136547,0.00173669,-0.53479,0.00858298,0.0121926,1819,1534,5.20319,-3.32852
602,-510,5.19836,3.20874,0.0145477,0.00653844,-0.00710105,0.0186955,0.00239065,-0.528653,0.0117481,0.0159021,1826,1534,5.1984,-3.20871
609,-510,5.17859,3.12524,0.0196767,0.00866863,-0.00947584,0.025131,0.00321429,-0.522289,0.015792,0.0247245,1833,1534,5.17856,-3.12528
616,-510,5.172,2.99414,0.0261375,0.0113643,-0.0122702,0.0330729,0.00442889,-0.514456,0.0207306,0.03853,1840,1534,5.17197,-2.99415
623,-510,5.12378,2.84045,0,0,0,0,0,0,0,-1,1847,1534,5.12372,-2.8405
630,-510,5.50476,2.37939,0,0,0,0,0,0,0,-1,1854,1534,5.50474,-2.37937
637,-510,6.05701,2.14502,0,0,0,0,0,0,0,-1,1861,1534,6.05704,-2.14508
644,-510,6.33704,0.96521,0,0,0,0,0,0,0,-1,1868,1534,6.33702,-0.965182
651,-510,6.79456,1.03992,0,0,0,0,0,0,0,-1,1875,1534,6.79461,-1.03996
658,-510,0,0,0,0,0,0,0,0,0,-1,1882,1534,0,0
665,-510,0,0,0,0,0,0,0,0,0,-1,1889,1534,0,0
672,-510,0,0,0,0,0,0,0,0,0,-1,1896,1534,0,0
679,-510,0,0,0,0,0,0,0,0,0,-1,1903,1534,0,0
686,-510,0,0,0,0,0,0,0,0,0,-1,1910,1534,0,0
693,-510,0,0,0,0,0,0,0,0,0,-1,1917,1534,0,0
700,-510,0,0,0,0,0,0,0,0,0,-1,1924,1534,0,0
707,-510,0,0,0,0,0,0,0,0,0,-1,1931,1534,0,0
714,-510,0,0,0,0,0,0,0,0,0,-1,1938,1534,0,0
721,-510,0,0,0,0,0,0,0,0,0,-1,1945,1534,0,0
728,-510,0,0,0,0,0,0,0,0,0,-1,1952,1534,0,0
735,-510,0,0,0,0,0,0,0,0,0,-1,1959,1534,0,0
742,-510,0,0,0,0,0,0,0,0,0,-1,1966,1534,0,0
749,-510,0,0,0,0,0,0,0,0,0,-1,1973,1534,0,0
756,-510,0,0,0,0,0,0,0,0,0,-1,1980,1534,0,0
763,-510,0,0,0,0,0,0,0,0,0,-1,1987,1534,0,0
770,-510,0,0,0,0,0,0,0,0,0,-1,1994,1534,0,0
777,-510,0,0,0,0,0,0,0,0,0,-1,2001,1534,0,0
784,-510,0,0,0,0,0,0,0,0,0,-1,2008,1534,0,0
791,-510,0,0,0,0,0,0,0,0,0,-1,2015,1534,0,0
798,-510,0,0,0,0,0,0,0,0,0,-1,2022,1534,0,0
805,-510,0,0,0,0,0,0,0,0,0,-1,2029,1534,0,0
812,-510,0,0,0,0,0,0,0,0,0,-1,2036,1534,0,0
-700,-517,0,0,0,0,0,0,0,0,0,-1,524,1541,0,0
-693,-517,0,0,0,0,0,0,0,0,0,-1,531,1541,0,0
-686,-517,0,0,0,0,0,0,0,0,0,-1,538,1541,0,0
-679,-517,0,0,0,0,0,0,0,0,0,-1,545,1541,0,0
-672,-517,0,0,0,0,0,0,0,0,0,-1,552,1541,0,0
-665,-517,0,0,0,0,0,0,0,0,0,-1,559,1541,0,0
-658,-517,0,0,0,0,0,0,0,0,0,-1,566,1541,0,0
-651,-517,0,0,0,0,0,0,0,0,0,-1,573,1541,0,0
-644,-517,0,0,0,0,0,0,0,0,0,-1,580,1541,0,0
-637,-517,0,0,0,0,0,0,0,0,0,-1,587,1541,0,0
-630,-517,0,0,0,0,0,0,0,0,0,-1,594,1541,0,0
-623,-517,0,0,0,0,0,0,0,0,0,-1,601,1541,0,0
-616,-517,0,0,0,0,0,0,0,0,0,-1,608,1541,0,0
-609,-517,0,0,0,0,0,0,0,0,0,-1,615,1541,0,0
-602,-517,0,0,0,0,0,0,0,0,0,-1,622,1541,0,0
-595,-517,0,0,0,0,0,0,0,0,0,-1,629,1541,0,0
-588,-517,0,0,0,0,0,0,0,0,0,-1,636,1541,0,0
-581,-517,0,0,0,0,0,0,0,0,0,-1,643,1541,0,0
-574,-517,0,0,0,0,0,0,0,0,0,-1,650,1541,0,0
-567,-517,0,0,0,0,0,0,0,0,0,-1,657,1541,0,0
-560,-517,0,0,0,0,0,0,0,0,0,-1,664,1541,0,0
-553,-517,0,0,0,0,0,0,0,0,0,-1,671,1541,0,0
-546,-517,0,0,0,0,0,0,0,0,0,-1,678,1541,0,0
-539,-517,0,0,0,0,0,0,0,0,0,-1,685,1541,0,0
-532,-517,0,0,0,0,0,0,0,0,0,-1,692,1541,0,0
-525,-517,-3.91626,2.58936,0,0,0,0,0,0,0,-1,699,1541,-3.91626,-2.58932
-518,-517,-3.04321,3.15076,0,0,0,0,0,0,0,-1,706,1541,-3.04322,-3.15076
-511,-517,2.16254,0.772217,0,0,0,0,0,0,0,-1,713,1541,2.16257,-0.772255
-504,-517,-1.93481,3.52563,0,0,0,0,0,0,0,-1,720,1541,-1.93479,-3.52563
-497,-517,-0.611023,2.70447,0,0,0,0,0,0,0,-1,727,1541,-0.611044,-2.70444
-490,-517,0.882263,2.81445,0,0,0,0,0,0,0,-1,734,1541,0.882276,-2.81442
-483,-517,0.953918,2.61536,0.0483055,0.0167555,-0.00604616,0.0494245,0.0156365,-0.183002,0.0291697,0.0446656,741,1541,0.953933,-2.61531
-476,-517,0.991516,2.49463,0.0395654,0.0180648,-0.00638035,0.0413162,0.016314,-0.267816,0.0240291,0.031287,748,1541,0.991523,-2.49462
-469,-517,0.844727,2.67798,0.0310303,0.0173243,-0.00568458,0.0330812,0.0152735,-0.346236,0.0191181,0.0130505,755,1541,0.844717,-2.67798
-462,-517,0.838501,2.79358,0.023386,0.0155351,-0.00462299,0.0255253,0.0133958,-0.433409,0.0147431,0.0129478,762,1541,0.838475,-2.79355
-455,-517,0.84259,2.91016,0.0168524,0.0127697,-0.00375729,0.019087,0.010535,-0.536557,0.0110397,0.0116986,769,1541,0.8426,-2.91021
-448,-517,0.841064,3.01636,0.0115646,0.0102113,-0.00320006,0.0141588,0.00761717,-0.68121,0.00818244,0.0117121,776,1541,0.841042,-3.01639
-441,-517,0.838745,3.10583,0.00771984,0.00757919,-0.00253023,0.0101807,0.0051183,-0.771505,0.00587787,0.0107355,783,1541,0.838744,-3.10579
-434,-517,0.836243,3.19116,0.00542928,0.00499486,-0.00170831,0.00693413,0.00349001,-0.722163,0.00400345,0.0135889,790,1541,0.836271,-3.19113
-427,-517,0.826538,3.27246,0.00314894,0.00211735,-0.000720213,0.00351901,0.00174729,-0.474651,0.00203171,0.0138339,797,1541,0.826548,-3.27242
-420,-517,0.823242,3.40161,0.00280673,0.000103103,-0.000263803,0.00283223,7.76033e-05,-0.0963628,0.00186282,0.0184891,804,1541,0.823227,-3.40159
-413,-517,0.850891,3.49561,0.00367438,0.000821653,-0.000104366,0.00367819,0.00081784,-0.0365196,0.00223008,0.00966843,811,1541,0.850917,-3.49558
-406,-517,0.842651,3.58264,0.00563715,0.00317622,0.000127699,0.00564376,0.00316961,0.0517056,0.00326666,0.010013,818,1541,0.842653,-3.58268
-399,-517,0.83606,3.67419,0.00768881,0.0067047,0.000120434,0.00770334,0.00669017,0.120018,0.00483336,0.0099319,825,1541,0.836035,-3.67419
-392,-517,0.838745,3.77087,0.00992037,0.0107344,3.95863e-05,0.0107363,0.00991845,1.52232,0.00690109,0.0102435,832,1541,0.838725,-3.77081
-385,-517,0.862427,3.91504,0.0115639,0.0161843,-9.48688e-05,0.0161863,0.011562,-1.55028,0.00962703,0.0127407,839,1541,0.862404,-3.91505
-378,-517,0.86261,3.96863,0.0124623,0.0209441,-0.0005012,0.0209736,0.0124328,-1.51198,0.0121784,0.0228728,846,1541,0.862618,-3.96865
-371,-517,0.928345,3.85571,0.0130847,0.0266699,-0.000787637,0.0267154,0.0130392,-1.51308,0.0154256,0.0356715,853,1541,0.928355,-3.85575
-364,-517,0.965393,3.83264,0.0126498,0.0318162,-0.00173102,0.0319713,0.0124947,-1.48144,0.0186048,0.0452871,860,1541,0.965422,-3.8327
-357,-517,1.07391,3.88989,0,0,0,0,0,0,0,-1,867,1541,1.07394,-3.88994
-350,-517,-0.0563965,4.26282,0.0084583,0.0385613,-0.00442159,0.0391974,0.00782228,-1.42793,0.0239537,0.0452482,874,1541,-0.0564076,-4.26278
-343,-517,0.0123291,4.28503,0.00493581,0.0394424,-0.00599934,0.0404557,0.00392252,-1.40347,0.0257627,0.0436908,881,1541,0.0123383,-4.28509
-336,-517,0.0949097,4.5686,0,0,0,0,0,0,0,-1,888,1541,0.0948877,-4.56857
-329,-517,-0.77417,5.24817,-0.00576467,0.0345375,-0.00864431,0.0363134,-0.00754052,-1.36818,0.0270747,0.0427602,895,1541,-0.774164,-5.24817
-322,-517,-0.920227,5.87085,-0.0120978,0.0280754,-0.00913202,0.0300539,-0.0140763,-1.35745,0.0260292,0.0492862,902,1541,-0.920217,-5.87089
-315,-517,-1.14337,5.91882,-0.0190329,0.0205739,-0.00906308,0.0225493,-0.0210082,-1.3562,0.0251532,0.0467712,909,1541,-1.14339,-5.91877
-308,-517,-1.31311,6.13867,-0.0263162,0.00930505,-0.00817897,0.0110932,-0.0281044,-1.35555,0.0233304,0.0453776,916,1541,-1.31312,-6.13868
-301,-517,-1.47314,6.56641,-0.0291335,0.000159533,-0.00393097,0.000677876,-0.0296518,-1.43969,0.0199977,0.0438751,923,1541,-1.47313,-6.5664
-294,-517,-1.65649,7.36926,0,0,0,0,0,0,0,-1,930,1541,-1.65652,-7.36929
-287,-517,-2.06018,8.40771,0,0,0,0,0,0,0,-1,937,1541,-2.06015,-8.40772
-280,-517,0,0,0,0,0,0,0,0,0,-1,944,1541,0,0
-273,-517,0,0,0,0,0,0,0,0,0,-1,951,1541,0,0
-266,-517,0,0,0,0,0,0,0,0,0,-1,958,1541,0,0
-259,-517,0,0,0,0,0,0,0,0,0,-1,965,1541,0,0
-252,-517,0,0,0,0,0,0,0,0,0,-1,972,1541,0,0
-245,-517,0,0,0,0,0,0,0,0,0,-1,979,1541,0,0
-238,-517,0,0,0,0,0,0,0,0,0,-1,986,1541,0,0
-231,-517,0,0,0,0,0,0,0,0,0,-1,993,1541,0,0
-224,-517,0,0,0,0,0,0,0,0,0,-1,1000,1541,0,0
-217,-517,0,0,0,0,0,0,0,0,0,-1,1007,1541,0,0
-210,-517,0,0,0,0,0,0,0,0,0,-1,1014,1541,0,0
-203,-517,0,0,0,0,0,0,0,0,0,-1,1021,1541,0,0
-196,-517,0,0,0,0,0,0,0,0,0,-1,1028,1541,0,0
-189,-517,0,0,0,0,0,0,0,0,0,-1,1035,1541,0,0
-182,-517,0,0,0,0,0,0,0,0,0,-1,1042,1541,0,0
-175,-517,0,0,0,0,0,0,0,0,0,-1,1049,1541,0,0
-168,-517,0,0,0,0,0,0,0,0,0,-1,1056,1541,0,0
-161,-517,0,0,0,0,0,0,0,0,0,-1,1063,1541,0,0
-154,-517,0,0,0,0,0,0,0,0,0,-1,1070,1541,0,0
-147,-517,0,0,0,0,0,0,0,0,0,-1,1077,1541,0,0
-140,-517,0,0,0,0,0,0,0,0,0,-1,1084,1541,0,0
-133,-517,0,0,0,0,0,0,0,0,0,-1,1091,1541,0,0
-126,-517,0,0,0,0,0,0,0,0,0,-1,1098,1541,0,0
-119,-517,0,0,0,0,0,0,0,0,0,-1,1105,1541,0,0
-112,-517,0,0,0,0,0,0,0,0,0,-1,1112,1541,0,0
-105,-517,0,0,0,0,0,0,0,0,0,-1,1119,1541,0,0
-98,-517,0,0,0,0,0,0,0,0,0,-1,1126,1541,0,0
-91,-517,0,0,0,0,0,0,0,0,0,-1,1133,1541,0,0
-84,-517,0,0,0,0,0,0,0,0,0,-1,1140,1541,0,0
-77,-517,0,0,0,0,0,0,0,0,0,-1,1147,1541,0,0
-70,-517,0,0,0,0,0,0,0,0,0,-1,1154,1541,0,0
-63,-517,0,0,0,0,0,0,0,0,0,-1,1161,1541,0,0
-56,-517,0,0,0,0,0,0,0,0,0,-1,1168,1541,0,0
-49,-517,0,0,0,0,0,0,0,0,0,-1,1175,1541,0,0
-42,-517,0,0,0,0,0,0,0,0,0,-1,1182,1541,0,0
-35,-517,0,0,0,0,0,0,0,0,0,-1,1189,1541,0,0
-28,-517,0,0,0,0,0,0,0,0,0,-1,1196,1541,0,0
-21,-517,0,0,0,0,0,0,0,0,0,-1,1203,1541,0,0
-14,-517,0,0,0,0,0,0,0,0,0,-1,1210,1541,0,0
-7,-517,0,0,0,0,0,0,0,0,0,-1,1217,1541,0,0
0,-517,0,0,0,0,0,0,0,0,0,-1,1224,1541,0,0
7,-517,0,0,0,0,0,0,0,0,0,-1,1231,1541,0,0
14,-517,0,0,0,0,0,0,0,0,0,-1,1238,1541,0,0
21,-517,0,0,0,0,0,0,0,0,0,-1,1245,1541,0,0
28,-517,0,0,0,0,0,0,0,0,0,-1,1252,1541,0,0
35,-517,0,0,0,0,0,0,0,0,0,-1,1259,1541,0,0
42,-517,0,0,0,0,0,0,0,0,0,-1,1266,1541,0,0
49,-517,0,0,0,0,0,0,0,0,0,-1,1273,1541,0,0
56,-517,0,0,0,0,0,0,0,0,0,-1,1280,1541,0,0
63,-517,0,0,0,0,0,0,0,0,0,-1,1287,1541,0,0
70,-517,0,0,0,0,0,0,0,0,0,-1,1294,1541,0,0
77,-517,0,0,0,0,0,0,0,0,0,-1,1301,1541,0,0
84,-517,0,0,0,0,0,0,0,0,0,-1,1308,1541,0,0
91,-517,0,0,0,0,0,0,0,0,0,-1,1315,1541,0,0
98,-517,0,0,0,0,0,0,0,0,0,-1,1322,1541,0,0
105,-517,0,0,0,0,0,0,0,0,0,-1,1329,1541,0,0
112,-517,0,0,0,0,0,0,0,0,0,-1,1336,1541,0,0
119,-517,0,0,0,0,0,0,0,0,0,-1,1343,1541,0,0
126,-517,0,0,0,0,0,0,0,0,0,-1,1350,1541,0,0
133,-517,0,0,0,0,0,0,0,0,0,-1,1357,1541,0,0
140,-517,0,0,0,0,0,0,0,0,0,-1,1364,1541,0,0
147,-517,0,0,0,0,0,0,0,0,0,-1,1371,1541,0,0
154,-517,0,0,0,0,0,0,0,0,0,-1,1378,1541,0,0
161,-517,0,0,0,0,0,0,0,0,0,-1,1385,1541,0,0
168,-517,0,0,0,0,0,0,0,0,0,-1,1392,1541,0,0
175,-517,0,0,0,0,0,0,0,0,0,-1,1399,1541,0,0
182,-517,0,0,0,0,0,0,0,0,0,-1,1406,1541,0,0
189,-517,0,0,0,0,0,0,0,0,0,-1,1413,1541,0,0
196,-517,0,0,0,0,0,0,0,0,0,-1,1420,1541,0,0
203,-517,0,0,0,0,0,0,0,0,0,-1,1427,1541,0,0
210,-517,0,0,0,0,0,0,0,0,0,-1,1434,1541,0,0
217,-517,0,0,0,0,0,0,0,0,0,-1,1441,1541,0,0
224,-517,0,0,0,0,0,0,0,0,0,-1,1448,1541,0,0
231,-517,0,0,0,0,0,0,0,0,0,-1,1455,1541,0,0
238,-517,0,0,0,0,0,0,0,0,0,-1,1462,1541,0,0
245,-517,0,0,0,0,0,0,0,0,0,-1,1469,1541,0,0
252,-517,0,0,0,0,0,0,0,0,0,-1,1476,1541,0,0
259,-517,0,0,0,0,0,0,0,0,0,-1,1483,1541,0,0
266,-517,0,0,0,0,0,0,0,0,0,-1,1490,1541,0,0
273,-517,0,0,0,0,0,0,0,0,0,-1,1497,1541,0,0
280,-517,0,0,0,0,0,0,0,0,0,-1,1504,1541,0,0
287,-517,0,0,0,0,0,0,0,0,0,-1,1511,1541,0,0
294,-517,0,0,0,0,0,0,0,0,0,-1,1518,1541,0,0
301,-517,0,0,0,0,0,0,0,0,0,-1,1525,1541,0,0
308,-517,0,0,0,0,0,0,0,0,0,-1,1532,1541,0,0
315,-517,0,0,0,0,0,0,0,0,0,-1,1539,1541,0,0
322,-517,0,0,0,0,0,0,0,0,0,-1,1546,1541,0,0
329,-517,0,0,0,0,0,0,0,0,0,-1,1553,1541,0,0
336,-517,0,0,0,0,0,0,0,0,0,-1,1560,1541,0,0
343,-517,0,0,0,0,0,0,0,0,0,-1,1567,1541,0,0
350,-517,0,0,0,0,0,0,0,0,0,-1,1574,1541,0,0
357,-517,0,0,0,0,0,0,0,0,0,-1,1581,1541,0,0
364,-517,0,0,0,0,0,0,0,0,0,-1,1588,1541,0,0
371,-517,0,0,0,0,0,0,0,0,0,-1,1595,1541,0,0
378,-517,0,0,0,0,0,0,0,0,0,-1,1602,1541,0,0
385,-517,0,0,0,0,0,0,0,0,0,-1,1609,1541,0,0
392,-517,0,0,0,0,0,0,0,0,0,-1,1616,1541,0,0
399,-517,0,0,0,0,0,0,0,0,0,-1,1623,1541,0,0
406,-517,7.57202,1.50623,0,0,0,0,0,0,0,-1,1630,1541,7.57205,-1.50626
413,-517,7.89355,1.49255,0,0,0,0,0,0,0,-1,1637,1541,7.89357,-1.49261
420,-517,8.24585,1.62476,0,0,0,0,0,0,0,-1,1644,1541,8.24586,-1.62479
427,-517,3.99451,5.70691,0,0,0,0,0,0,0,-1,1651,1541,3.99446,-5.70694
434,-517,13.9985,1.74854,0,0,0,0,0,0,0,-1,1658,1541,13.9985,-1.74852
441,-517,12.2979,2.83057,0,0,0,0,0,0,0,-1,1665,1541,12.2978,-2.83059
448,-517,10.947,3.93323,0,0,0,0,0,0,0,-1,1672,1541,10.947,-3.93318
455,-517,2.39661,2.76538,0,0,0,0,0,0,0,-1,1679,1541,2.39666,-2.76541
462,-517,8.99927,3.44287,0,0,0,0,0,0,0,-1,1686,1541,8.99921,-3.44281
469,-517,6.49792,2.04907,0,0,0,0,0,0,0,-1,1693,1541,6.49791,-2.04901
476,-517,6.44812,2.672,0,0,0,0,0,0,0,-1,1700,1541,6.44813,-2.672
483,-517,6.39026,3.31873,-0.0200622,-0.0421375,0.0438575,0.0141252,-0.0763249,0.662123,0.0561867,0.0496075,1707,1541,6.39029,-3.31875
490,-517,6.36694,3.93018,-0.0195367,-0.0390762,0.0394089,0.0112954,-0.0699083,0.663894,0.0507911,0.0475468,1714,1541,6.367,-3.93022
497,-517,6.43201,4.34314,0,0,0,0,0,0,0,-1,1721,1541,6.43198,-4.34317
504,-517,5.33936,4.47449,-0.0166648,-0.0305332,0.0253374,0.00267017,-0.0498681,0.651831,0.0341703,0.0326187,1728,1541,5.33935,-4.47445
511,-517,5.19031,4.46912,-0.0142282,-0.0258541,0.0188781,-0.000288339,-0.039794,0.636044,0.0264337,0.0273004,1735,1541,5.1903,-4.46908
518,-517,5.11865,4.33691,-0.0116127,-0.0211412,0.0138478,-0.00173249,-0.0310214,0.61972,0.0201283,0.018874,1742,1541,5.11867,-4.33692
525,-517,5.10144,4.22266,-0.00918438,-0.0169891,0.009316,-0.00298641,-0.023187,0.587058,0.014565,0.0106067,1749,1541,5.10145,-4.22268
532,-517,5.12585,4.12085,-0.00708878,-0.0130162,0.00565654,-0.00366656,-0.0164384,0.54409,0.0099642,0.0100322,1756,1541,5.1259,-4.12087
539,-517,5.13049,4.02905,-0.00489227,-0.00922291,0.00333744,-0.00307926,-0.0110359,0.497634,0.00657574,0.0110408,1763,1541,5.13048,-4.02906
546,-517,5.11426,3.96118,-0.00276556,-0.00617534,0.00188914,-0.00192575,-0.00701515,0.41831,0.00418524,0.0113474,1770,1541,5.11421,-3.96118
553,-517,5.09949,3.86279,-0.000951699,-0.00356079,0.00100291,-0.000610744,-0.00390175,0.327707,0.00242337,0.0149157,1777,1541,5.09948,-3.86274
560,-517,5.08862,3.77551,0.000756935,-0.000853307,2.10999e-05,0.000757211,-0.000853583,0.0131006,0.000930547,0.0158362,1784,1541,5.08863,-3.7755
567,-517,5.10718,3.70667,0.00203118,0.00137711,-0.000786988,0.00255638,0.000851909,-0.588476,0.00150304,0.0125003,1791,1541,5.1072,-3.70662
574,-517,5.11414,3.60938,0.00429412,0.00334417,-0.00191153,0.0057888,0.00184949,-0.663624,0.00341399,0.012911,1798,1541,5.11418,-3.60938
581,-517,5.09314,3.52722,0.00721047,0.00532682,-0.00351386,0.00990654,0.00263075,-0.65446,0.00592541,0.0143377,1805,1541,5.09318,-3.52723
588,-517,5.11853,3.43286,0.00996715,0.00715261,-0.00506834,0.01382,0.00329979,-0.64998,0.00833405,0.0142044,1812,1541,5.11852,-3.43281
595,-517,5.12732,3.32446,0.0141101,0.00897842,-0.00702706,0.0190251,0.00406341,-0.610349,0.0115693,0.013264,1819,1541,5.12729,-3.32451
602,-517,5.07727,3.20349,0.019696,0.0112635,-0.00955808,0.0259265,0.00503304,-0.577675,0.0158749,0.0183128,1826,1541,5.07722,-3.20355
609,-517,5.16602,3.01318,0.0269338,0.0139514,-0.0127602,0.0347589,0.00612629,-0.550103,0.0214245,0.0374952,1833,1541,5.16602,-3.01321
616,-517,5.09656,2.89746,0,0,0,0,0,0,0,-1,1840,1541,5.09656,-2.8975
623,-517,4.61646,2.27832,0,0,0,0,0,0,0,-1,1847,1541,4.61643,-2.27834
630,-517,5.29822,2.19104,0,0,0,0,0,0,0,-1,1854,1541,5.29821,-2.191
637,-517,5.97998,2.10364,0,0,0,0,0,0,0,-1,1861,1541,5.97999,-2.10366
644,-517,6.5719,0.292603,0,0,0,0,0,0,0,-1,1868,1541,6.57187,-0.292653
651,-517,0,0,0,0,0,0,0,0,0,-1,1875,1541,0,0
658,-517,0,0,0,0,0,0,0,0,0,-1,1882,1541,0,0
665,-517,0,0,0,0,0,0,0,0,0,-1,1889,1541,0,0
672,-517,0,0,0,0,0,0,0,0,0,-1,1896,1541,0,0
679,-517,0,0,0,0,0,0,0,0,0,-1,1903,1541,0,0
686,-517,0,0,0,0,0,0,0,0,0,-1,1910,1541,0,0
693,-517,0,0,0,0,0,0,0,0,0,-1,1917,1541,0,0
700,-517,0,0,0,0,0,0,0,0,0,-1,1924,1541,0,0
707,-517,0,0,0,0,0,0,0,0,0,-1,1931,1541,0,0
714,-517,0,0,0,0,0,0,0,0,0,-1,1938,1541,0,0
721,-517,0,0,0,0,0,0,0,0,0,-1,1945,1541,0,0
728,-517,0,0,0,0,0,0,0,0,0,-1,1952,1541,0,0
735,-517,0,0,0,0,0,0,0,0,0,-1,1959,1541,0,0
742,-517,0,0,0,0,0,0,0,0,0,-1,1966,1541,0,0
749,-517,0,0,0,0,0,0,0,0,0,-1,1973,1541,0,0
756,-517,0,0,0,0,0,0,0,0,0,-1,1980,1541,0,0
763,-517,0,0,0,0,0,0,0,0,0,-1,1987,1541,0,0
770,-517,0,0,0,0,0,0,0,0,0,-1,1994,1541,0,0
777,-517,0,0,0,0,0,0,0,0,0,-1,2001,1541,0,0
784,-517,0,0,0,0,0,0,0,0,0,-1,2008,1541,0,0
791,-517,0,0,0,0,0,0,0,0,0,-1,2015,1541,0,0
798,-517,0,0,0,0,0,0,0,0,0,-1,2022,1541,0,0
805,-517,0,0,0,0,0,0,0,0,0,-1,2029,1541,0,0
812,-517,0,0,0,0,0,0,0,0,0,-1,2036,1541,0,0
-700,-524,0,0,0,0,0,0,0,0,0,-1,524,1548,0,0
-693,-524,0,0,0,0,0,0,0,0,0,-1,531,1548,0,0
-686,-524,0,0,0,0,0,0,0,0,0,-1,538,1548,0,0
-679,-524,0,0,0,0,0,0,0,0,0,-1,545,1548,0,0
-672,-524,0,0,0,0,0,0,0,0,0,-1,552,1548,0,0
-665,-524,0,0,0,0,0,0,0,0,0,-1,559,1548,0,0
-658,-524,0,0,0,0,0,0,0,0,0,-1,566,1548,0,0
-651,-524,0,0,0,0,0,0,0,0,0,-1,573,1548,0,0
-644,-524,0,0,0,0,0,0,0,0,0,-1,580,1548,0,0
-637,-524,0,0,0,0,0,0,0,0,0,-1,587,1548,0,0
-630,-524,0,0,0,0,0,0,0,0,0,-1,594,1548,0,0
-623,-524,0,0,0,0,0,0,0,0,0,-1,601,1548,0,0
-616,-524,0,0,0,0,0,0,0,0,0,-1,608,1548,0,0
-609,-524,0,0,0,0,0,0,0,0,0,-1,615,1548,0,0
-602,-524,0,0,0,0,0,0,0,0,0,-1,622,1548,0,0
-595,-524,0,0,0,0,0,0,0,0,0,-1,629,1548,0,0
-588,-524,0,0,0,0,0,0,0,0,0,-1,636,1548,0,0
-581,-524,0,0,0,0,0,0,0,0,0,-1,643,1548,0,0
-574,-524,0,0,0,0,0,0,0,0,0,-1,650,1548,0,0
-567,-524,0,0,0,0,0,0,0,0,0,-1,657,1548,0,0
-560,-524,0,0,0,0,0,0,0,0,0,-1,664,1548,0,0
-553,-524,0,0,0,0,0,0,0,0,0,-1,671,1548,0,0
-546,-524,0,0,0,0,0,0,0,0,0,-1,678,1548,0,0
-539,-524,0,0,0,0,0,0,0,0,0,-1,685,1548,0,0
-532,-524,0,0,0,0,0,0,0,0,0,-1,692,1548,0,0
-525,-524,-4.02618,3.17749,0,0,0,0,0,0,0,-1,699,1548,-4.02616,-3.17747
-518,-524,-3.16455,3.2041,0,0,0,0,0,0,0,-1,706,1548,-3.16456,-3.20413
-511,-524,-2.38715,3.09546,0,0,0,0,0,0,0,-1,713,1548,-2.38713,-3.09552
-504,-524,-1.66119,2.91919,0.109973,0.00926764,0.0123462,0.111464,0.00777612,0.120226,0.0718578,0.0475216,720,1548,-1.66118,-2.91919
-497,-524,-0.89856,2.66968,0,0,0,0,0,0,0,-1,727,1548,-0.898584,-2.66973
-490,-524,1.05225,2.76038,0,0,0,0,0,0,0,-1,734,1548,1.05222,-2.76043
-483,-524,1.09357,2.51501,0.0614206,0.0284829,-0.00790264,0.0632185,0.026685,-0.223701,0.0366466,0.0497848,741,1548,1.09358,-2.51508
-476,-524,0.990479,2.57056,0.0508881,0.0290989,-0.00792353,0.0534648,0.0265223,-0.314404,0.0308682,0.0457902,748,1548,0.99049,-2.57059
-469,-524,0.962219,2.64331,0.0403594,0.0272937,-0.0068296,0.0432776,0.0243755,-0.4038,0.0250528,0.0337576,755,1548,0.962232,-2.6433
-462,-524,0.982056,2.74048,0.0306616,0.0240529,-0.00533008,0.0336285,0.021086,-0.507923,0.0196232,0.0235337,762,1548,0.982033,-2.74046
-455,-524,0.933533,2.91956,0.0222757,0.0198673,-0.00401379,0.0252621,0.016881,-0.639659,0.0148577,0.0144589,769,1548,0.933541,-2.91955
-448,-524,0.936279,3.02686,0.0154535,0.0159794,-0.0031583,0.0188857,0.0125472,-0.826936,0.0110983,0.011317,776,1548,0.936265,-3.02688
-441,-524,0.922058,3.11487,0.0103104,0.0120568,-0.00228786,0.0136324,0.00873476,-0.967708,0.00797394,0.00993411,783,1548,0.92205,-3.1149
-434,-524,0.958191,3.19165,0.00699693,0.00820038,-0.00125798,0.00899314,0.00620418,-1.00848,0.00531553,0.0112321,790,1548,0.958204,-3.19168
-427,-524,0.952881,3.27966,0.00362308,0.00409405,-1.51586e-05,0.00409454,0.00362259,-1.53866,0.00258677,0.0121117,797,1548,0.952871,-3.27968
-420,-524,0.9328,3.39758,0.00249398,0.00118474,0.000520309,0.00267557,0.00100315,0.335789,0.00156077,0.00962351,804,1548,0.932825,-3.39757
-413,-524,0.952698,3.50061,0.00268941,0.0010186,0.000448229,0.00280206,0.000905952,0.246227,0.00165109,0.00920921,811,1548,0.952669,-3.50061
-406,-524,0.955994,3.59595,0.00411295,0.00228149,0.000350558,0.00417775,0.00221669,0.182804,0.00241353,0.0103895,818,1548,0.956023,-3.59592
-399,-524,0.95105,3.68408,0.00558721,0.0044304,4.979e-05,0.00558935,0.00442826,0.0429347,0.00340583,0.0088866,825,1548,0.951065,-3.68407
-392,-524,0.953064,3.76697,0.00712971,0.00704361,-0.000272796,0.00736283,0.00681049,-0.707137,0.00473519,0.00998701,832,1548,0.953079,-3.76697
-385,-524,0.940002,3.8822,0.00814156,0.0108098,-0.000610013,0.0109426,0.00800871,-1.35637,0.00654028,0.011235,839,1548,0.94,-3.88224
-378,-524,0.953186,4.00146,0.00856976,0.0141124,-0.00107797,0.0143147,0.00836749,-1.38531,0.00830387,0.0134477,846,1548,0.953185,-4.0014
-371,-524,1.01093,4.05676,0.00871784,0.0180927,-0.00147926,0.0183206,0.00848997,-1.41795,0.0105868,0.024011,853,1548,1.01092,-4.05671
-364,-524,0.988892,4.05298,0.00803284,0.0216577,-0.00245469,0.0220864,0.00760408,-1.39787,0.0129561,0.0336331,860,1548,0.988914,-4.05298
-357,-524,0.665222,4.25195,0.0064828,0.0246187,-0.00374049,0.0253598,0.00574162,-1.37518,0.0153548,0.0444408,867,1548,0.665235,-4.25192
-350,-524,0.551086,4.23328,0.00405187,0.0264852,-0.00503201,0.0275622,0.00297485,-1.35994,0.0174678,0.0487883,874,1548,0.551083,-4.23329
-343,-524,0.68103,4.34802,0,0,0,0,0,0,0,-1,881,1548,0.68103,-4.348
-336,-524,0.629211,4.89282,0,0,0,0,0,0,0,-1,888,1548,0.629225,-4.89287
-329,-524,0.00372314,5.32764,-0.00783639,0.0226387,-0.0075389,0.0244017,-0.00959937,-1.34107,0.0202411,0.0439426,895,1548,0.00372857,-5.32769
-322,-524,-0.458862,5.75488,-0.0127286,0.0182734,-0.00732793,0.0199182,-0.0143735,-1.35,0.0198844,0.0470434,902,1548,-0.458885,-5.75485
-315,-524,-0.662048,5.88623,-0.0182677,0.0127699,-0.00654558,0.0140938,-0.0195916,-1.37122,0.0195344,0.0495982,909,1548,-0.662077,-5.88622
-308,-524,-0.919739,6.04553,-0.02407,0.00457582,-0.00490556,0.0053926,-0.0248868,-1.40581,0.0186505,0.0495304,916,1548,-0.919728,-6.04558
-301,-524,-1.10193,6.32141,-0.025594,-0.00207883,0.000213022,-0.00207691,-0.0255959,1.56174,0.0164155,0.0428485,923,1548,-1.10195,-6.32139
-294,-524,-1.31732,7.4563,0,0,0,0,0,0,0,-1,930,1548,-1.31731,-7.45626
-287,-524,-1.55511,8.97668,0,0,0,0,0,0,0,-1,937,1548,-1.55509,-8.9767
-280,-524,-1.62567,9.79321,0,0,0,0,0,0,0,-1,944,1548,-1.62565,-9.7932
-273,-524,0,0,0,0,0,0,0,0,0,-1,951,1548,0,0
-266,-524,0,0,0,0,0,0,0,0,0,-1,958,1548,0,0
-259,-524,0,0,0,0,0,0,0,0,0,-1,965,1548,0,0
-252,-524,0,0,0,0,0,0,0,0,0,-1,972,1548,0,0
-245,-524,0,0,0,0,0,0,0,0,0,-1,979,1548,0,0
-238,-524,0,0,0,0,0,0,0,0,0,-1,986,1548,0,0
-231,-524,0,0,0,0,0,0,0,0,0,-1,993,1548,0,0
-224,-524,0,0,0,0,0,0,0,0,0,-1,1000,1548,0,0
-217,-524,0,0,0,0,0,0,0,0,0,-1,1007,1548,0,0
-210,-524,0,0,0,0,0,0,0,0,0,-1,1014,1548,0,0
-203,-524,0,0,0,0,0,0,0,0,0,-1,1021,1548,0,0
-196,-524,0,0,0,0,0,0,0,0,0,-1,1028,1548,0,0
-189,-524,0,0,0,0,0,0,0,0,0,-1,1035,1548,0,0
-182,-524,0,0,0,0,0,0,0,0,0,-1,1042,1548,0,0
-175,-524,0,0,0,0,0,0,0,0,0,-1,1049,1548,0,0
-168,-524,0,0,0,0,0,0,0,0,0,-1,1056,1548,0,0
-161,-524,0,0,0,0,0,0,0,0,0,-1,1063,1548,0,0
-154,-524,0,0,0,0,0,0,0,0,0,-1,1070,1548,0,0
-147,-524,0,0,0,0,0,0,0,0,0,-1,1077,1548,0,0
-140,-524,0,0,0,0,0,0,0,0,0,-1,1084,1548,0,0
-133,-524,0,0,0,0,0,0,0,0,0,-1,1091,1548,0,0
-126,-524,0,0,0,0,0,0,0,0,0,-1,1098,1548,0,0
-119,-524,0,0,0,0,0,0,0,0,0,-1,1105,1548,0,0
-112,-524,0,0,0,0,0,0,0,0,0,-1,1112,1548,0,0
-105,-524,0,0,0,0,0,0,0,0,0,-1,1119,1548,0,0
-98,-524,0,0,0,0,0,0,0,0,0,-1,1126,1548,0,0
-91,-524,0,0,0,0,0,0,0,0,0,-1,1133,1548,0,0
-84,-524,0,0,0,0,0,0,0,0,0,-1,1140,1548,0,0
-77,-524,0,0,0,0,0,0,0,0,0,-1,1147,1548,0,0
-70,-524,0,0,0,0,0,0,0,0,0,-1,1154,1548,0,0
-63,-524,0,0,0,0,0,0,0,0,0,-1,1161,1548,0,0
-56,-524,0,0,0,0,0,0,0,0,0,-1,1168,1548,0,0
-49,-524,0,0,0,0,0,0,0,0,0,-1,1175,1548,0,0
-42,-524,0,0,0,0,0,0,0,0,0,-1,1182,1548,0,0
-35,-524,0,0,0,0,0,0,0,0,0,-1,1189,1548,0,0
-28,-524,0,0,0,0,0,0,0,0,0,-1,1196,1548,0,0
-21,-524,0,0,0,0,0,0,0,0,0,-1,1203,1548,0,0
-14,-524,0,0,0,0,0,0,0,0,0,-1,1210,1548,0,0
-7,-524,0,0,0,0,0,0,0,0,0,-1,1217,1548,0,0
0,-524,0,0,0,0,0,0,0,0,0,-1,1224,1548,0,0
7,-524,0,0,0,0,0,0,0,0,0,-1,1231,1548,0,0
14,-524,0,0,0,0,0,0,0,0,0,-1,1238,1548,0,0
21,-524,0,0,0,0,0,0,0,0,0,-1,1245,1548,0,0
28,-524,0,0,0,0,0,0,0,0,0,-1,1252,1548,0,0
35,-524,0,0,0,0,0,0,0,0,0,-1,1259,1548,0,0
42,-524,0,0,0,0,0,0,0,0,0,-1,1266,1548,0,0
49,-524,0,0,0,0,0,0,0,0,0,-1,1273,1548,0,0
56,-524,0,0,0,0,0,0,0,0,0,-1,1280,1548,0,0
63,-524,0,0,0,0,0,0,0,0,0,-1,1287,1548,0,0
70,-524,0,0,0,0,0,0,0,0,0,-1,1294,1548,0,0
77,-524,0,0,0,0,0,0,0,0,0,-1,1301,1548,0,0
84,-524,0,0,0,0,0,0,0,0,0,-1,1308,1548,0,0
91,-524,0,0,0,0,0,0,0,0,0,-1,1315,1548,0,0
98,-524,0,0,0,0,0,0,0,0,0,-1,1322,1548,0,0
105,-524,0,0,0,0,0,0,0,0,0,-1,1329,1548,0,0
112,-524,0,0,0,0,0,0,0,0,0,-1,1336,1548,0,0
119,-524,0,0,0,0,0,0,0,0,0,-1,1343,1548,0,0
126,-524,0,0,0,0,0,0,0,0,0,-1,1350,1548,0,0
133,-524,0,0,0,0,0,0,0,0,0,-1,1357,1548,0,0
140,-524,0,0,0,0,0,0,0,0,0,-1,1364,1548,0,0
147,-524,0,0,0,0,0,0,0,0,0,-1,1371,1548,0,0
154,-524,0,0,0,0,0,0,0,0,0,-1,1378,1548,0,0
161,-524,0,0,0,0,0,0,0,0,0,-1,1385,1548,0,0
168,-524,0,0,0,0,0,0,0,0,0,-1,1392,1548,0,0
175,-524,0,0,0,0,0,0,0,0,0,-1,1399,1548,0,0
182,-524,0,0,0,0,0,0,0,0,0,-1,1406,1548,0,0
189,-524,0,0,0,0,0,0,0,0,0,-1,1413,1548,0,0
196,-524,0,0,0,0,0,0,0,0,0,-1,1420,1548,0,0
203,-524,0,0,0,0,0,0,0,0,0,-1,1427,1548,0,0
210,-524,0,0,0,0,0,0,0,0,0,-1,1434,1548,0,0
217,-524,0,0,0,0,0,0,0,0,0,-1,1441,1548,0,0
224,-524,0,0,0,0,0,0,0,0,0,-1,1448,1548,0,0
231,-524,0,0,0,0,0,0,0,0,0,-1,1455,1548,0,0
238,-524,0,0,0,0,0,0,0,0,0,-1,1462,1548,0,0
245,-524,0,0,0,0,0,0,0,0,0,-1,1469,1548,0,0
252,-524,0,0,0,0,0,0,0,0,0,-1,1476,1548,0,0
259,-524,0,0,0,0,0,0,0,0,0,-1,1483,1548,0,0
266,-524,0,0,0,0,0,0,0,0,0,-1,1490,1548,0,0
273,-524,0,0,0,0,0,0,0,0,0,-1,1497,1548,0,0
280,-524,0,0,0,0,0,0,0,0,0,-1,1504,1548,0,0
287,-524,0,0,0,0,0,0,0,0,0,-1,1511,1548,0,0
294,-524,0,0,0,0,0,0,0,0,0,-1,1518,1548,0,0
301,-524,0,0,0,0,0,0,0,0,0,-1,1525,1548,0,0
308,-524,0,0,0,0,0,0,0,0,0,-1,1532,1548,0,0
315,-524,0,0,0,0,0,0,0,0,0,-1,1539,1548,0,0
322,-524,0,0,0,0,0,0,0,0,0,-1,1546,1548,0,0
329,-524,0,0,0,0,0,0,0,0,0,-1,1553,1548,0,0
336,-524,0,0,0,0,0,0,0,0,0,-1,1560,1548,0,0
343,-524,0,0,0,0,0,0,0,0,0,-1,1567,1548,0,0
350,-524,0,0,0,0,0,0,0,0,0,-1,1574,1548,0,0
357,-524,0,0,0,0,0,0,0,0,0,-1,1581,1548,0,0
364,-524,0,0,0,0,0,0,0,0,0,-1,1588,1548,0,0
371,-524,0,0,0,0,0,0,0,0,0,-1,1595,1548,0,0
378,-524,0,0,0,0,0,0,0,0,0,-1,1602,1548,0,0
385,-524,0,0,0,0,0,0,0,0,0,-1,1609,1548,0,0
392,-524,0,0,0,0,0,0,0,0,0,-1,1616,1548,0,0
399,-524,6.90002,1.35095,0,0,0,0,0,0,0,-1,1623,1548,6.89997,-1.35091
406,-524,7.48621,1.30579,0,0,0,0,0,0,0,-1,1630,1548,7.48624,-1.30573
413,-524,8.87146,1.56799,0,0,0,0,0,0,0,-1,1637,1548,8.87147,-1.56799
420,-524,4.29065,6.12134,0,0,0,0,0,0,0,-1,1644,1548,4.29065,-6.12137
427,-524,4.17004,5.82703,0,0,0,0,0,0,0,-1,1651,1548,4.17,-5.82703
434,-524,3.96362,5.5769,0,0,0,0,0,0,0,-1,1658,1548,3.96359,-5.57687
441,-524,3.51477,5.24609,0,0,0,0,0,0,0,-1,1665,1548,3.51472,-5.24613
448,-524,3.73096,4.48242,0,0,0,0,0,0,0,-1,1672,1548,3.73099,-4.48246
455,-524,3.45032,3.18457,0,0,0,0,0,0,0,-1,1679,1548,3.45037,-3.18459
462,-524,3.84851,2.43005,0,0,0,0,0,0,0,-1,1686,1548,3.84854,-2.43003
469,-524,6.78943,3.8988,0,0,0,0,0,0,0,-1,1693,1548,6.78941,-3.8988
476,-524,5.16223,3.2229,0,0,0,0,0,0,0,-1,1700,1548,5.16229,-3.22292
483,-524,5.71362,3.78284,-0.0142201,-0.0376028,0.0352379,0.0112154,-0.0630382,0.625221,0.0462198,0.0444318,1707,1548,5.71367,-3.78278
490,-524,5.21521,4.18604,-0.0137297,-0.0342664,0.0320137,0.00962213,-0.0576183,0.630207,0.0419887,0.0395104,1714,1548,5.21522,-4.18608
497,-524,4.90356,4.36023,0,0,0,0,0,0,0,-1,1721,1548,4.90358,-4.36025
504,-524,5.0238,4.44812,-0.0117701,-0.0257837,0.0208117,0.00318268,-0.0407365,0.623021,0.0282783,0.015059,1728,1548,5.02384,-4.44811
511,-524,5.01904,4.40247,-0.0100183,-0.0212957,0.0153955,0.000738679,-0.0320527,0.609857,0.0216189,0.0146001,1735,1548,5.01901,-4.40245
518,-524,5.02344,4.30713,-0.00811432,-0.0168577,0.0111413,-0.000517678,-0.0244544,0.598436,0.0161331,0.0148139,1742,1548,5.02343,-4.3071
525,-524,5.02808,4.23352,-0.00636412,-0.0130403,0.00731055,-0.00166562,-0.0177388,0.571227,0.0113116,0.0132704,1749,1548,5.0281,-4.23352
532,-524,5.03503,4.12561,-0.00489992,-0.00932851,0.00420273,-0.00236384,-0.0118646,0.542942,0.00725136,0.00936991,1756,1548,5.03498,-4.12558
539,-524,5.04651,4.026,-0.00320221,-0.00565536,0.00210352,-0.00199378,-0.0068638,0.521446,0.00407714,0.00971336,1763,1548,5.04647,-4.02596
546,-524,5.02393,3.95471,-0.00141237,-0.00270584,0.000749897,-0.00106885,-0.00304937,0.429564,0.00178659,0.0128624,1770,1548,5.02391,-3.95476
553,-524,5.02185,3.85559,0.000137797,7.14599e-06,-0.000113967,0.000203833,-5.889e-05,-0.525159,0.000159192,0.0214575,1777,1548,5.02181,-3.85554
560,-524,5.00513,3.71814,0.00174824,0.00290179,-0.00113759,0.00360046,0.00104956,-1.02002,0.00213812,0.0304959,1784,1548,5.00507,-3.71811
567,-524,5.03418,3.69434,0.0031118,0.00557935,-0.00203977,0.00672945,0.0019617,-1.05739,0.00399626,0.0174933,1791,1548,5.03415,-3.69434
574,-524,5.03687,3.61621,0.00582825,0.00818017,-0.00336702,0.0105707,0.00343774,-0.953406,0.00622604,0.0123473,1798,1548,5.03688,-3.61618
581,-524,5.02722,3.51501,0.00952105,0.0109015,-0.00526315,0.0155195,0.00490307,-0.850598,0.00916034,0.0138781,1805,1548,5.02718,-3.51499
588,-524,5.05261,3.42419,0.0132871,0.013621,-0.00722749,0.0206835,0.00622467,-0.796945,0.012253,0.0134795,1812,1548,5.05262,-3.42422
595,-524,5.04272,3.32434,0.0187586,0.0164355,-0.00977334,0.0274391,0.00775489,-0.726251,0.0163334,0.0129993,1819,1548,5.04274,-3.32429
602,-524,5.07104,3.14392,0.0261159,0.0196453,-0.0130217,0.0362982,0.00946303,-0.663636,0.0217421,0.026573,1826,1548,5.07108,-3.14388
609,-524,5.44861,2.93652,0.0357605,0.0231547,-0.0170796,0.0476631,0.0112521,-0.608635,0.0287678,0.0404323,1833,1548,5.44863,-2.93648
616,-524,5.7887,2.80994,0,0,0,0,0,0,0,-1,1840,1548,5.78866,-2.80989
623,-524,4.5365,2.30078,0.0633277,0.0310602,-0.0277146,0.0792626,0.0151253,-0.521807,0.0485911,0.0457187,1847,1548,4.53648,-2.30078
630,-524,5.46545,1.98706,0.081346,0.035662,-0.0342194,0.0996468,0.0173613,-0.491103,0.0614669,0.0485058,1854,1548,5.46548,-1.98711
637,-524,6.3479,1.65283,0,0,0,0,0,0,0,-1,1861,1548,6.34784,-1.65283
644,-524,7.32788,0.218506,0,0,0,0,0,0,0,-1,1868,1548,7.32785,-0.218559
651,-524,0,0,0,0,0,0,0,0,0,-1,1875,1548,0,0
658,-524,0,0,0,0,0,0,0,0,0,-1,1882,1548,0,0
665,-524,0,0,0,0,0,0,0,0,0,-1,1889,1548,0,0
672,-524,0,0,0,0,0,0,0,0,0,-1,1896,1548,0,0
679,-524,0,0,0,0,0,0,0,0,0,-1,1903,1548,0,0
686,-524,0,0,0,0,0,0,0,0,0,-1,1910,1548,0,0
693,-524,0,0,0,0,0,0,0,0,0,-1,1917,1548,0,0
700,-524,0,0,0,0,0,0,0,0,0,-1,1924,1548,0,0
707,-524,0,0,0,0,0,0,0,0,0,-1,1931,1548,0,0
714,-524,0,0,0,0,0,0,0,0,0,-1,1938,1548,0,0
721,-524,0,0,0,0,0,0,0,0,0,-1,1945,1548,0,0
728,-524,0,0,0,0,0,0,0,0,0,-1,1952,1548,0,0
735,-524,0,0,0,0,0,0,0,0,0,-1,1959,1548,0,0
742,-524,0,0,0,0,0,0,0,0,0,-1,1966,1548,0,0
749,-524,0,0,0,0,0,0,0,0,0,-1,1973,1548,0,0
756,-524,0,0,0,0,0,0,0,0,0,-1,1980,1548,0,0
763,-524,0,0,0,0,0,0,0,0,0,-1,1987,1548,0,0
770,-524,0,0,0,0,0,0,0,0,0,-1,1994,1548,0,0
777,-524,0,0,0,0,0,0,0,0,0,-1,2001,1548,0,0
784,-524,0,0,0,0,0,0,0,0,0,-1,2008,1548,0,0
791,-524,0,0,0,0,0,0,0,0,0,-1,2015,1548,0,0
798,-524,0,0,0,0,0,0,0,0,0,-1,2022,1548,0,0
805,-524,0,0,0,0,0,0,0,0,0,-1,2029,1548,0,0
812,-524,0,0,0,0,0,0,0,0,0,-1,2036,1548,0,0
-700,-531,0,0,0,0,0,0,0,0,0,-1,524,1555,0,0
-693,-531,0,0,0,0,0,0,0,0,0,-1,531,1555,0,0
-686,-531,0,0,0,0,0,0,0,0,0,-1,538,1555,0,0
-679,-531,0,0,0,0,0,0,0,0,0,-1,545,1555,0,0
-672,-531,0,0,0,0,0,0,0,0,0,-1,552,1555,0,0
-665,-531,0,0,0,0,0,0,0,0,0,-1,559,1555,0,0
-658,-531,0,0,0,0,0,0,0,0,0,-1,566,1555,0,0
-651,-531,0,0,0,0,0,0,0,0,0,-1,573,1555,0,0
-644,-531,0,0,0,0,0,0,0,0,0,-1,580,1555,0,0
-637,-531,0,0,0,0,0,0,0,0,0,-1,587,1555,0,0
-630,-531,0,0,0,0,0,0,0,0,0,-1,594,1555,0,0
-623,-531,0,0,0,0,0,0,0,0,0,-1,601,1555,0,0
-616,-531,0,0,0,0,0,0,0,0,0,-1,608,1555,0,0
-609,-531,0,0,0,0,0,0,0,0,0,-1,615,1555,0,0
-602,-531,0,0,0,0,0,0,0,0,0,-1,622,1555,0,0
-595,-531,0,0,0,0,0,0,0,0,0,-1,629,1555,0,0
-588,-531,0,0,0,0,0,0,0,0,0,-1,636,1555,0,0
-581,-531,0,0,0,0,0,0,0,0,0,-1,643,1555,0,0
-574,-531,0,0,0,0,0,0,0,0,0,-1,650,1555,0,0
-567,-531,0,0,0,0,0,0,0,0,0,-1,657,1555,0,0
-560,-531,0,0,0,0,0,0,0,0,0,-1,664,1555,0,0
-553,-531,0,0,0,0,0,0,0,0,0,-1,671,1555,0,0
-546,-531,0,0,0,0,0,0,0,0,0,-1,678,1555,0,0
-539,-531,0,0,0,0,0,0,0,0,0,-1,685,1555,0,0
-532,-531,0,0,0,0,0,0,0,0,0,-1,692,1555,0,0
-525,-531,0,0,0,0,0,0,0,0,0,-1,699,1555,0,0
-518,-531,-3.30701,3.24561,0,0,0,0,0,0,0,-1,706,1555,-3.30703,-3.24556
-511,-531,-2.73376,3.16187,0.146648,0.0135249,0.0194073,0.149419,0.0107534,0.141853,0.096229,0.0483875,713,1555,-2.73379,-3.16188
-504,-531,-2.0401,2.98779,0.127876,0.0251148,0.0074034,0.128406,0.0245842,0.0715525,0.0787,0.0442322,720,1555,-2.04007,-2.98782
-497,-531,-1.17108,2.65723,0,0,0,0,0,0,0,-1,727,1555,-1.17107,-2.65723
-490,-531,1.11493,2.56067,0,0,0,0,0,0,0,-1,734,1555,1.11493,-2.56071
-483,-531,1.08441,2.15088,0,0,0,0,0,0,0,-1,741,1555,1.08441,-2.15082
-476,-531,1.08734,2.56653,0,0,0,0,0,0,0,-1,748,1555,1.08736,-2.56657
-469,-531,1.13916,2.63831,0.0521626,0.0399339,-0.00893102,0.0568718,0.0352248,-0.485234,0.0331454,0.0459498,755,1555,1.13917,-2.63836
-462,-531,1.03876,2.83447,0.0400229,0.0348215,-0.00668929,0.0445993,0.0302451,-0.599995,0.0262886,0.0411772,762,1555,1.03877,-2.83451
-455,-531,1.01813,2.95435,0.0294447,0.0289362,-0.00466176,0.0338592,0.0245218,-0.758153,0.0201932,0.0272191,769,1555,1.01811,-2.95439
-448,-531,1.03906,3.01672,0.0207662,0.0234921,-0.00330439,0.0257036,0.0185547,-0.981,0.0153192,0.0117816,776,1555,1.03906,-3.01674
-441,-531,1.01459,3.10791,0.013987,0.0180723,-0.00208686,0.0189498,0.0131095,-1.17274,0.0112058,0.010714,783,1555,1.01458,-3.10788
-434,-531,1.02441,3.21423,0.00934445,0.0127178,-0.000740706,0.0128733,0.00918897,-1.3639,0.00765555,0.0109651,790,1555,1.02439,-3.21426
-427,-531,1.04315,3.30164,0.00458529,0.00717006,0.000876849,0.00743945,0.0043159,1.27273,0.00431352,0.0122975,797,1555,1.04316,-3.30166
-420,-531,1.03802,3.39697,0.00250892,0.00327555,0.00153184,0.00447131,0.00131316,0.907997,0.00265376,0.0111818,804,1555,1.03801,-3.39703
-413,-531,1.04315,3.49207,0.00201608,0.00229197,0.00121607,0.0033779,0.000930152,0.841874,0.00201477,0.00958269,811,1555,1.04316,-3.49211
-406,-531,1.0437,3.58887,0.00296873,0.00255413,0.000776443,0.00356507,0.00195779,0.654948,0.00206161,0.0105983,818,1555,1.04368,-3.5889
-399,-531,1.06067,3.67773,0.00393699,0.00346172,0.000186252,0.00400128,0.00339742,0.332384,0.00249076,0.0127034,825,1555,1.06066,-3.67771
-392,-531,1.05939,3.76147,0.00491455,0.00489457,-0.000347394,0.0052521,0.00455702,-0.771025,0.00329424,0.0170988,832,1555,1.0594,-3.76142
-385,-531,1.04419,3.86621,0.00547437,0.0073205,-0.000828055,0.00763748,0.00515738,-1.2052,0.00449891,0.0147297,839,1555,1.0442,-3.86618
-378,-531,1.04712,3.95593,0.00559345,0.00946754,-0.00130482,0.00986602,0.00519496,-1.2744,0.00569883,0.00989913,846,1555,1.04713,-3.95592
-371,-531,1.06024,4.05396,0.0054694,0.0121125,-0.00173522,0.0125384,0.00504346,-1.33009,0.00728503,0.0108339,853,1555,1.06022,-4.05396
-364,-531,1.02576,4.17419,0.0047164,0.0144563,-0.00264201,0.0151268,0.0040459,-1.32226,0.00904282,0.0201483,860,1555,1.02579,-4.1742
-357,-531,0.870605,4.26782,0.00332017,0.0165213,-0.00380558,0.0175397,0.00230169,-1.3093,0.0110064,0.0314004,867,1555,0.870599,-4.26782
-350,-531,0.9729,4.34741,0.00129324,0.0179276,-0.00491744,0.0192726,-5.17089e-05,-1.30382,0.0128656,0.038901,874,1555,0.972872,-4.34736
-343,-531,1.42944,4.50977,-0.00120736,0.0179723,-0.0057174,0.0195473,-0.00278236,-1.30199,0.0140511,0.043032,881,1555,1.42943,-4.50978
-336,-531,0.968201,4.73389,-0.00447495,0.016715,-0.00607601,0.0183336,-0.00609355,-1.31045,0.0146813,0.0443037,888,1555,0.968186,-4.73386
-329,-531,0.440552,5.19214,-0.00827005,0.0143191,-0.00591655,0.0157749,-0.00972589,-1.32953,0.0148603,0.0438698,895,1555,0.440567,-5.19219
-322,-531,0.0224609,5.61121,-0.0119816,0.0113875,-0.00521335,0.0124978,-0.0130919,-1.36096,0.0147756,0.0438328,902,1555,0.022479,-5.61122
-315,-531,-0.16571,5.87622,-0.0163413,0.00723428,-0.00395701,0.00788072,-0.0169877,-1.40886,0.0146752,0.046686,909,1555,-0.16573,-5.87626
-308,-531,-0.262329,6.09387,-0.0210174,0.00107866,-0.00200637,0.00125937,-0.0211981,-1.48097,0.01457,0.0453492,916,1555,-0.262326,-6.09392
-301,-531,-0.502991,6.13647,0,0,0,0,0,0,0,-1,923,1555,-0.503012,-6.13653
-294,-531,1.2851,4.82947,0,0,0,0,0,0,0,-1,930,1555,1.28509,-4.82941
-287,-531,-0.912903,9.63208,0,0,0,0,0,0,0,-1,937,1555,-0.912922,-9.6321
-280,-531,-0.659119,10.5604,0,0,0,0,0,0,0,-1,944,1555,-0.659134,-10.5605
-273,-531,-1.11853,10.8776,0,0,0,0,0,0,0,-1,951,1555,-1.11851,-10.8776
-266,-531,0.377747,3.5553,0,0,0,0,0,0,0,-1,958,1555,0.377753,-3.55532
-259,-531,0,0,0,0,0,0,0,0,0,-1,965,1555,0,0
-252,-531,0,0,0,0,0,0,0,0,0,-1,972,1555,0,0
-245,-531,0,0,0,0,0,0,0,0,0,-1,979,1555,0,0
-238,-531,0,0,0,0,0,0,0,0,0,-1,986,1555,0,0
-231,-531,0,0,0,0,0,0,0,0,0,-1,993,1555,0,0
-224,-531,0,0,0,0,0,0,0,0,0,-1,1000,1555,0,0
-217,-531,0,0,0,0,0,0,0,0,0,-1,1007,1555,0,0
-210,-531,0,0,0,0,0,0,0,0,0,-1,1014,1555,0,0
-203,-531,0,0,0,0,0,0,0,0,0,-1,1021,1555,0,0
-196,-531,0,0,0,0,0,0,0,0,0,-1,1028,1555,0,0
-189,-531,0,0,0,0,0,0,0,0,0,-1,1035,1555,0,0
-182,-531,0,0,0,0,0,0,0,0,0,-1,1042,1555,0,0
-175,-531,0,0,0,0,0,0,0,0,0,-1,1049,1555,0,0
-168,-531,0,0,0,0,0,0,0,0,0,-1,1056,1555,0,0
-161,-531,0,0,0,0,0,0,0,0,0,-1,1063,1555,0,0
-154,-531,0,0,0,0,0,0,0,0,0,-1,1070,1555,0,0
-147,-531,0,0,0,0,0,0,0,0,0,-1,1077,1555,0,0
-140,-531,0,0,0,0,0,0,0,0,0,-1,1084,1555,0,0
-133,-531,0,0,0,0,0,0,0,0,0,-1,1091,1555,0,0
-126,-531,0,0,0,0,0,0,0,0,0,-1,1098,1555,0,0
-119,-531,0,0,0,0,0,0,0,0,0,-1,1105,1555,0,0
-112,-531,0,0,0,0,0,0,0,0,0,-1,1112,1555,0,0
-105,-531,0,0,0,0,0,0,0,0,0,-1,1119,1555,0,0
-98,-531,0,0,0,0,0,0,0,0,0,-1,1126,1555,0,0
-91,-531,0,0,0,0,0,0,0,0,0,-1,1133,1555,0,0
-84,-531,0,0,0,0,0,0,0,0,0,-1,1140,1555,0,0
-77,-531,0,0,0,0,0,0,0,0,0,-1,1147,1555,0,0
-70,-531,0,0,0,0,0,0,0,0,0,-1,1154,1555,0,0
-63,-531,0,0,0,0,0,0,0,0,0,-1,1161,1555,0,0
-56,-531,0,0,0,0,0,0,0,0,0,-1,1168,1555,0,0
-49,-531,0,0,0,0,0,0,0,0,0,-1,1175,1555,0,0
-42,-531,0,0,0,0,0,0,0,0,0,-1,1182,1555,0,0
-35,-531,0,0,0,0,0,0,0,0,0,-1,1189,1555,0,0
-28,-531,0,0,0,0,0,0,0,0,0,-1,1196,1555,0,0
-21,-531,0,0,0,0,0,0,0,0,0,-1,1203,1555,0,0
-14,-531,0,0,0,0,0,0,0,0,0,-1,1210,1555,0,0
-7,-531,0,0,0,0,0,0,0,0,0,-1,1217,1555,0,0
0,-531,0,0,0,0,0,0,0,0,0,-1,1224,1555,0,0
7,-531,0,0,0,0,0,0,0,0,0,-1,1231,1555,0,0
14,-531,0,0,0,0,0,0,0,0,0,-1,1238,1555,0,0
21,-531,0,0,0,0,0,0,0,0,0,-1,1245,1555,0,0
28,-531,0,0,0,0,0,0,0,0,0,-1,1252,1555,0,0
35,-531,0,0,0,0,0,0,0,0,0,-1,1259,1555,0,0
42,-531,0,0,0,0,0,0,0,0,0,-1,1266,1555,0,0
49,-531,0,0,0,0,0,0,0,0,0,-1,1273,1555,0,0
56,-531,0,0,0,0,0,0,0,0,0,-1,1280,1555,0,0
63,-531,0,0,0,0,0,0,0,0,0,-1,1287,1555,0,0
70,-531,0,0,0,0,0,0,0,0,0,-1,1294,1555,0,0
77,-531,0,0,0,0,0,0,0,0,0,-1,1301,1555,0,0
84,-531,0,0,0,0,0,0,0,0,0,-1,1308,1555,0,0
91,-531,0,0,0,0,0,0,0,0,0,-1,1315,1555,0,0
98,-531,0,0,0,0,0,0,0,0,0,-1,1322,1555,0,0
105,-531,0,0,0,0,0,0,0,0,0,-1,1329,1555,0,0
112,-531,0,0,0,0,0,0,0,0,0,-1,1336,1555,0,0
119,-531,0,0,0,0,0,0,0,0,0,-1,1343,1555,0,0
126,-531,0,0,0,0,0,0,0,0,0,-1,1350,1555,0,0
133,-531,0,0,0,0,0,0,0,0,0,-1,1357,1555,0,0
140,-531,0,0,0,0,0,0,0,0,0,-1,1364,1555,0,0
147,-531,0,0,0,0,0,0,0,0,0,-1,1371,1555,0,0
154,-531,0,0,0,0,0,0,0,0,0,-1,1378,1555,0,0
161,-531,0,0,0,0,0,0,0,0,0,-1,1385,1555,0,0
168,-531,0,0,0,0,0,0,0,0,0,-1,1392,1555,0,0
175,-531,0,0,0,0,0,0,0,0,0,-1,1399,1555,0,0
182,-531,0,0,0,0,0,0,0,0,0,-1,1406,1555,0,0
189,-531,0,0,0,0,0,0,0,0,0,-1,1413,1555,0,0
196,-531,0,0,0,0,0,0,0,0,0,-1,1420,1555,0,0
203,-531,0,0,0,0,0,0,0,0,0,-1,1427,1555,0,0
210,-531,0,0,0,0,0,0,0,0,0,-1,1434,1555,0,0
217,-531,0,0,0,0,0,0,0,0,0,-1,1441,1555,0,0
224,-531,0,0,0,0,0,0,0,0,0,-1,1448,1555,0,0
231,-531,0,0,0,0,0,0,0,0,0,-1,1455,1555,0,0
238,-531,0,0,0,0,0,0,0,0,0,-1,1462,1555,0,0
245,-531,0,0,0,0,0,0,0,0,0,-1,1469,1555,0,0
252,-531,0,0,0,0,0,0,0,0,0,-1,1476,1555,0,0
259,-531,0,0,0,0,0,0,0,0,0,-1,1483,1555,0,0
266,-531,0,0,0,0,0,0,0,0,0,-1,1490,1555,0,0
273,-531,0,0,0,0,0,0,0,0,0,-1,1497,1555,0,0
280,-531,0,0,0,0,0,0,0,0,0,-1,1504,1555,0,0
287,-531,0,0,0,0,0,0,0,0,0,-1,1511,1555,0,0
294,-531,0,0,0,0,0,0,0,0,0,-1,1518,1555,0,0
301,-531,0,0,0,0,0,0,0,0,0,-1,1525,1555,0,0
308,-531,0,0,0,0,0,0,0,0,0,-1,1532,1555,0,0
315,-531,0,0,0,0,0,0,0,0,0,-1,1539,1555,0,0
322,-531,0,0,0,0,0,0,0,0,0,-1,1546,1555,0,0
329,-531,0,0,0,0,0,0,0,0,0,-1,1553,1555,0,0
336,-531,0,0,0,0,0,0,0,0,0,-1,1560,1555,0,0
343,-531,0,0,0,0,0,0,0,0,0,-1,1567,1555,0,0
350,-531,0,0,0,0,0,0,0,0,0,-1,1574,1555,0,0
357,-531,0,0,0,0,0,0,0,0,0,-1,1581,1555,0,0
364,-531,0,0,0,0,0,0,0,0,0,-1,1588,1555,0,0
371,-531,0,0,0,0,0,0,0,0,0,-1,1595,1555,0,0
378,-531,0,0,0,0,0,0,0,0,0,-1,1602,1555,0,0
385,-531,3.13403,1.88721,0,0,0,0,0,0,0,-1,1609,1555,3.13401,-1.88726
392,-531,7.375,4.32544,0,0,0,0,0,0,0,-1,1616,1555,7.37504,-4.32542
399,-531,6.13428,1.78076,0,0,0,0,0,0,0,-1,1623,1555,6.13431,-1.78076
406,-531,6.76208,1.67236,0,0,0,0,0,0,0,-1,1630,1555,6.7621,-1.67242
413,-531,7.17773,1.78003,0,0,0,0,0,0,0,-1,1637,1555,7.17776,-1.77999
420,-531,4.55029,6.45752,0,0,0,0,0,0,0,-1,1644,1555,4.55026,-6.45756
427,-531,4.42395,6.01794,-0.00115464,-0.0083497,-0.0304965,0.0259558,-0.0354601,-0.726687,0.0355998,0.0469384,1651,1555,4.424,-6.018
434,-531,4.27844,5.60071,-0.0025415,-0.0172489,-0.0146494,0.00649635,-0.0262867,-0.552784,0.020044,0.0471869,1658,1555,4.27846,-5.6007
441,-531,4.05054,5.1958,0,0,0,0,0,0,0,-1,1665,1555,4.0506,-5.19585
448,-531,4.24011,4.63879,0,0,0,0,0,0,0,-1,1672,1555,4.2401,-4.63875
455,-531,4.35669,3.69751,0,0,0,0,0,0,0,-1,1679,1555,4.35665,-3.69747
462,-531,4.62891,3.00671,0,0,0,0,0,0,0,-1,1686,1555,4.6289,-3.00674
469,-531,4.85425,3.38171,0,0,0,0,0,0,0,-1,1693,1555,4.8543,-3.38169
476,-531,4.92554,3.67249,-0.00989591,-0.0349019,0.0277145,0.00800536,-0.0528032,0.573499,0.0381516,0.0466791,1700,1555,4.92559,-3.67251
483,-531,5.15466,4.16199,-0.00990041,-0.0322655,0.0273389,0.00845455,-0.0506204,0.591263,0.0368895,0.0406566,1707,1555,5.15468,-4.16204
490,-531,4.94348,4.53052,-0.00958372,-0.028828,0.02515,0.00772194,-0.0461337,0.602694,0.0336266,0.0298675,1714,1555,4.94342,-4.53051
497,-531,4.89893,4.54443,-0.00916818,-0.0251338,0.0208841,0.00520679,-0.0395088,0.602845,0.0282353,0.0146291,1721,1555,4.89891,-4.5444
504,-531,4.91711,4.48315,-0.00837702,-0.0208514,0.0165464,0.00306869,-0.0322971,0.605157,0.0226238,0.010953,1728,1555,4.91716,-4.48311
511,-531,4.91602,4.4043,-0.00710849,-0.0166986,0.0121114,0.00112255,-0.0249297,0.596909,0.0170063,0.0127956,1735,1555,4.91598,-4.40431
518,-531,4.91541,4.32361,-0.00564861,-0.0125956,0.00856289,0.000118462,-0.0183627,0.592716,0.0122815,0.0145175,1742,1555,4.91539,-4.32356
525,-531,4.93359,4.23596,-0.00429612,-0.00907604,0.00535876,-0.000818522,-0.0125536,0.57564,0.00811003,0.0134211,1749,1555,4.93357,-4.23592
532,-531,4.95117,4.12646,-0.00315052,-0.00546928,0.00273857,-0.00133603,-0.00728377,0.585161,0.00447745,0.00922643,1756,1555,4.95115,-4.12641
539,-531,4.95349,4.03333,-0.00166984,-0.00175442,0.000853448,-0.000857633,-0.00256662,0.760643,0.00150877,0.0108035,1763,1555,4.95353,-4.03327
546,-531,4.91846,3.94714,3.8586e-05,0.00131361,-0.000403497,0.00143057,-7.8376e-05,-1.28866,0.000980884,0.0154013,1770,1555,4.91851,-3.94718
553,-531,4.93176,3.89148,0.00159949,0.00438157,-0.00124957,0.0048604,0.00112066,-1.20486,0.00293882,0.0305163,1777,1555,4.93182,-3.8915
560,-531,4.93066,3.81824,0.00330521,0.00775867,-0.00228543,0.00872279,0.00234109,-1.17159,0.0052131,0.0317901,1784,1555,4.93063,-3.81829
567,-531,4.92383,3.70386,0.00491978,0.0111992,-0.00323289,0.012566,0.0035529,-1.17079,0.00747983,0.0178907,1791,1555,4.92383,-3.70386
574,-531,4.95996,3.61743,0.00814311,0.0147442,-0.00469346,0.0171814,0.00570586,-1.09184,0.0101044,0.0125658,1798,1555,4.9599,-3.61739
581,-531,4.96033,3.50378,0.0126423,0.0185154,-0.00682785,0.0230114,0.00814629,-0.988485,0.0134731,0.0111343,1805,1555,4.96034,-3.50374
588,-531,4.99109,3.39246,0.0174657,0.022463,-0.00916735,0.0294661,0.0104626,-0.918447,0.0172489,0.0137027,1812,1555,4.9911,-3.39248
595,-531,5.07458,3.33984,0.0242848,0.0266069,-0.0122886,0.0377892,0.0131025,-0.832498,0.0221567,0.0282756,1819,1555,5.07459,-3.33981
602,-531,5.47461,3.36487,0.033416,0.0309578,-0.0163233,0.0485564,0.0158174,-0.747819,0.0285959,0.0420081,1826,1555,5.47456,-3.36482
609,-531,5.44275,2.77075,0.0455393,0.0353878,-0.0214091,0.0624661,0.018461,-0.669005,0.0370563,0.0420308,1833,1555,5.44274,-2.77071
616,-531,5.672,2.63318,0,0,0,0,0,0,0,-1,1840,1555,5.67196,-2.63312
623,-531,4.84241,2.04651,0.0806421,0.0436676,-0.0350978,0.101824,0.0224858,-0.542995,0.061767,0.0438743,1847,1555,4.84235,-2.04656
630,-531,5.95654,1.75684,0.104143,0.0477594,-0.043867,0.128096,0.0238063,-0.499797,0.0786719,0.047357,1854,1555,5.95653,-1.75681
637,-531,6.74768,1.38452,0,0,0,0,0,0,0,-1,1861,1555,6.74769,-1.38456
644,-531,0,0,0,0,0,0,0,0,0,-1,1868,1555,0,0
651,-531,0,0,0,0,0,0,0,0,0,-1,1875,1555,0,0
658,-531,0,0,0,0,0,0,0,0,0,-1,1882,1555,0,0
665,-531,0,0,0,0,0,0,0,0,0,-1,1889,1555,0,0
672,-531,0,0,0,0,0,0,0,0,0,-1,1896,1555,0,0
679,-531,0,0,0,0,0,0,0,0,0,-1,1903,1555,0,0
686,-531,0,0,0,0,0,0,0,0,0,-1,1910,1555,0,0
693,-531,0,0,0,0,0,0,0,0,0,-1,1917,1555,0,0
700,-531,0,0,0,0,0,0,0,0,0,-1,1924,1555,0,0
707,-531,0,0,0,0,0,0,0,0,0,-1,1931,1555,0,0
714,-531,0,0,0,0,0,0,0,0,0,-1,1938,1555,0,0
721,-531,0,0,0,0,0,0,0,0,0,-1,1945,1555,0,0
728,-531,0,0,0,0,0,0,0,0,0,-1,1952,1555,0,0
735,-531,0,0,0,0,0,0,0,0,0,-1,1959,1555,0,0
742,-531,0,0,0,0,0,0,0,0,0,-1,1966,1555,0,0
749,-531,0,0,0,0,0,0,0,0,0,-1,1973,1555,0,0
756,-531,0,0,0,0,0,0,0,0,0,-1,1980,1555,0,0
763,-531,0,0,0,0,0,0,0,0,0,-1,1987,1555,0,0
770,-531,0,0,0,0,0,0,0,0,0,-1,1994,1555,0,0
777,-531,0,0,0,0,0,0,0,0,0,-1,2001,1555,0,0
784,-531,0,0,0,0,0,0,0,0,0,-1,2008,1555,0,0
791,-531,0,0,0,0,0,0,0,0,0,-1,2015,1555,0,0
798,-531,0,0,0,0,0,0,0,0,0,-1,2022,1555,0,0
805,-531,0,0,0,0,0,0,0,0,0,-1,2029,1555,0,0
812,-531,0,0,0,0,0,0,0,0,0,-1,2036,1555,0,0
-700,-538,0,0,0,0,0,0,0,0,0,-1,524,1562,0,0
-693,-538,0,0,0,0,0,0,0,0,0,-1,531,1562,0,0
-686,-538,0,0,0,0,0,0,0,0,0,-1,538,1562,0,0
-679,-538,0,0,0,0,0,0,0,0,0,-1,545,1562,0,0
-672,-538,0,0,0,0,0,0,0,0,0,-1,552,1562,0,0
-665,-538,0,0,0,0,0,0,0,0,0,-1,559,1562,0,0
-658,-538,0,0,0,0,0,0,0,0,0,-1,566,1562,0,0
-651,-538,0,0,0,0,0,0,0,0,0,-1,573,1562,0,0
-644,-538,0,0,0,0,0,0,0,0,0,-1,580,1562,0,0
-637,-538,0,0,0,0,0,0,0,0,0,-1,587,1562,0,0
-630,-538,0,0,0,0,0,0,0,0,0,-1,594,1562,0,0
-623,-538,0,0,0,0,0,0,0,0,0,-1,601,1562,0,0
-616,-538,0,0,0,0,0,0,0,0,0,-1,608,1562,0,0
-609,-538,0,0,0,0,0,0,0,0,0,-1,615,1562,0,0
-602,-538,0,0,0,0,0,0,0,0,0,-1,622,1562,0,0
-595,-538,0,0,0,0,0,0,0,0,0,-1,629,1562,0,0
-588,-538,0,0,0,0,0,0,0,0,0,-1,636,1562,0,0
-581,-538,0,0,0,0,0,0,0,0,0,-1,643,1562,0,0
-574,-538,0,0,0,0,0,0,0,0,0,-1,650,1562,0,0
-567,-538,0,0,0,0,0,0,0,0,0,-1,657,1562,0,0
-560,-538,0,0,0,0,0,0,0,0,0,-1,664,1562,0,0
-553,-538,0,0,0,0,0,0,0,0,0,-1,671,1562,0,0
-546,-538,0,0,0,0,0,0,0,0,0,-1,678,1562,0,0
-539,-538,0,0,0,0,0,0,0,0,0,-1,685,1562,0,0
-532,-538,0,0,0,0,0,0,0,0,0,-1,692,1562,0,0
-525,-538,0,0,0,0,0,0,0,0,0,-1,699,1562,0,0
-518,-538,0,0,0,0,0,0,0,0,0,-1,706,1562,0,0
-511,-538,-2.84869,3.27209,0.165368,0.0347877,0.0127341,0.166598,0.0335574,0.0963098,0.101741,0.0459157,713,1562,-2.84871,-3.27213
-504,-538,-2.41931,3.35791,0.147945,0.0471427,0.00111974,0.147957,0.0471303,0.0111064,0.0872782,0.0422424,720,1562,-2.41929,-3.35789
-497,-538,-2.06195,3.17468,0.131357,0.0559741,-0.00648822,0.131912,0.0554197,-0.0852344,0.0764825,0.0473458,727,1562,-2.06192,-3.17471
-490,-538,-1.64398,2.99109,0,0,0,0,0,0,0,-1,734,1562,-1.64398,-2.99111
-483,-538,0.951416,1.60425,0,0,0,0,0,0,0,-1,741,1562,0.951415,-1.60427
-476,-538,1.34338,2.41248,0,0,0,0,0,0,0,-1,748,1562,1.34341,-2.41246
-469,-538,1.25409,2.59888,0.0647462,0.0557531,-0.0106845,0.0718418,0.0486575,-0.586225,0.0423381,0.0468233,755,1562,1.25408,-2.59884
-462,-538,1.22668,2.77869,0.0498884,0.0484434,-0.00746613,0.0566669,0.0416649,-0.737164,0.0339024,0.0449155,762,1562,1.2267,-2.77873
-455,-538,1.21783,2.89209,0.0369931,0.0406731,-0.00457782,0.0437669,0.0338994,-0.976484,0.0265082,0.0381477,769,1562,1.21785,-2.89205
-448,-538,1.14691,3.01624,0.0263549,0.0335063,-0.00263206,0.0343706,0.0254906,-1.25353,0.0206019,0.0154787,776,1562,1.14693,-3.01627
-441,-538,1.12817,3.11963,0.0179151,0.0264901,-0.00106966,0.0266215,0.0177837,-1.44855,0.0156566,0.0140949,783,1562,1.12819,-3.11957
-434,-538,1.12878,3.21106,0.0119464,0.0195231,0.000520175,0.0195587,0.0119108,1.50257,0.0113813,0.0114107,790,1562,1.1288,-3.21105
-427,-538,1.11798,3.30432,0.00586177,0.0124129,0.00243364,0.0132181,0.00505666,1.2513,0.0077013,0.0123024,797,1562,1.118,-3.30434
-420,-538,1.11621,3.375,0.00292425,0.00743082,0.00308671,0.00899919,0.00135588,1.10069,0.00560246,0.0161117,804,1562,1.11624,-3.37501
-413,-538,1.11615,3.48035,0.00179986,0.00533692,0.0024286,0.00657269,0.000564094,1.1001,0.00420639,0.0167065,811,1562,1.11618,-3.48037
-406,-538,1.13293,3.56213,0.00227432,0.00425253,0.00156925,0.00511838,0.00140847,1.0666,0.00305305,0.0133058,818,1562,1.13291,-3.56219
-399,-538,1.15717,3.66272,0.00272166,0.00369738,0.000614861,0.00399441,0.00242463,1.12076,0.00232371,0.0122923,825,1562,1.15714,-3.66269
-392,-538,1.1554,3.75269,0.00315523,0.00365855,-0.000184488,0.00371893,0.00309485,-1.2545,0.00229966,0.013306,832,1562,1.15541,-3.75271
-385,-538,1.14386,3.86438,0.00326875,0.0044793,-0.000860339,0.00492595,0.0028221,-1.09194,0.00285406,0.0116453,839,1562,1.14387,-3.86438
-378,-538,1.15796,3.97083,0.00305958,0.00523226,-0.00140863,0.00592479,0.00236705,-1.11387,0.00344363,0.00940206,846,1562,1.15797,-3.97083
-371,-538,1.14362,4.07117,0.00268537,0.00650463,-0.00189585,0.0072859,0.0019041,-1.17991,0.00436333,0.00999757,853,1562,1.14361,-4.07115
-364,-538,1.12036,4.1637,0.00188729,0.00767282,-0.00274223,0.00876602,0.000794096,-1.19145,0.00559812,0.0095002,860,1562,1.12039,-4.16371
-357,-538,1.10791,4.23657,0.000663271,0.00895124,-0.00378532,0.0104199,-0.000805342,-1.2007,0.00722998,0.0160762,867,1562,1.10792,-4.23653
-350,-538,1.07996,4.26563,-0.000944103,0.0100489,-0.00472518,0.0118008,-0.00269597,-1.21576,0.00890295,0.0289235,874,1562,1.07995,-4.26561
-343,-538,1.20789,4.43152,-0.00289975,0.0099725,-0.00518321,0.0118001,-0.00472736,-1.2318,0.00982907,0.039436,881,1562,1.20789,-4.4315
-336,-538,1.11267,4.58948,-0.00542207,0.00898363,-0.00511879,0.0106172,-0.00705568,-1.26187,0.0102723,0.0413544,888,1562,1.11264,-4.58944
-329,-538,1.12982,4.61133,0,0,0,0,0,0,0,-1,895,1562,1.12983,-4.61135
-322,-538,1.00879,4.91785,0,0,0,0,0,0,0,-1,902,1562,1.00881,-4.91781
-315,-538,0.420166,5.78369,-0.0144642,0.0025468,-0.00204014,0.00278805,-0.0147055,-1.45309,0.010853,0.0427809,909,1562,0.420187,-5.7837
-308,-538,0.363464,5.7998,-0.018119,-0.00172573,-9.83576e-07,-0.00172573,-0.018119,-1.57074,0.0115472,0.0426141,916,1562,0.363456,-5.7998
-301,-538,0.330688,5.65173,0,0,0,0,0,0,0,-1,923,1562,0.330698,-5.65175
-294,-538,1.11359,2.60681,0,0,0,0,0,0,0,-1,930,1562,1.11362,-2.60684
-287,-538,1.45795,3.20276,0,0,0,0,0,0,0,-1,937,1562,1.45797,-3.20276
-280,-538,0.211426,11.3867,0,0,0,0,0,0,0,-1,944,1562,0.211436,-11.3867
-273,-538,0.468262,5.12134,0,0,0,0,0,0,0,-1,951,1562,0.468254,-5.1213
-266,-538,0.143005,3.31873,0,0,0,0,0,0,0,-1,958,1562,0.143004,-3.31868
-259,-538,-0.107483,2.92725,0,0,0,0,0,0,0,-1,965,1562,-0.107505,-2.92719
-252,-538,0,0,0,0,0,0,0,0,0,-1,972,1562,0,0
-245,-538,0,0,0,0,0,0,0,0,0,-1,979,1562,0,0
-238,-538,0,0,0,0,0,0,0,0,0,-1,986,1562,0,0
-231,-538,0,0,0,0,0,0,0,0,0,-1,993,1562,0,0
-224,-538,0,0,0,0,0,0,0,0,0,-1,1000,1562,0,0
-217,-538,0,0,0,0,0,0,0,0,0,-1,1007,1562,0,0
-210,-538,0,0,0,0,0,0,0,0,0,-1,1014,1562,0,0
-203,-538,0,0,0,0,0,0,0,0,0,-1,1021,1562,0,0
-196,-538,0,0,0,0,0,0,0,0,0,-1,1028,1562,0,0
-189,-538,0,0,0,0,0,0,0,0,0,-1,1035,1562,0,0
-182,-538,0,0,0,0,0,0,0,0,0,-1,1042,1562,0,0
-175,-538,0,0,0,0,0,0,0,0,0,-1,1049,1562,0,0
-168,-538,0,0,0,0,0,0,0,0,0,-1,1056,1562,0,0
-161,-538,0,0,0,0,0,0,0,0,0,-1,1063,1562,0,0
-154,-538,0,0,0,0,0,0,0,0,0,-1,1070,1562,0,0
-147,-538,0,0,0,0,0,0,0,0,0,-1,1077,1562,0,0
-140,-538,0,0,0,0,0,0,0,0,0,-1,1084,1562,0,0
-133,-538,0,0,0,0,0,0,0,0,0,-1,1091,1562,0,0
-126,-538,0,0,0,0,0,0,0,0,0,-1,1098,1562,0,0
-119,-538,0,0,0,0,0,0,0,0,0,-1,1105,1562,0,0
-112,-538,0,0,0,0,0,0,0,0,0,-1,1112,1562,0,0
-105,-538,0,0,0,0,0,0,0,0,0,-1,1119,1562,0,0
-98,-538,0,0,0,0,0,0,0,0,0,-1,1126,1562,0,0
-91,-538,0,0,0,0,0,0,0,0,0,-1,1133,1562,0,0
-84,-538,0,0,0,0,0,0,0,0,0,-1,1140,1562,0,0
-77,-538,0,0,0,0,0,0,0,0,0,-1,1147,1562,0,0
-70,-538,0,0,0,0,0,0,0,0,0,-1,1154,1562,0,0
-63,-538,0,0,0,0,0,0,0,0,0,-1,1161,1562,0,0
-56,-538,0,0,0,0,0,0,0,0,0,-1,1168,1562,0,0
-49,-538,0,0,0,0,0,0,0,0,0,-1,1175,1562,0,0
-42,-538,0,0,0,0,0,0,0,0,0,-1,1182,1562,0,0
-35,-538,0,0,0,0,0,0,0,0,0,-1,1189,1562,0,0
-28,-538,0,0,0,0,0,0,0,0,0,-1,1196,1562,0,0
-21,-538,0,0,0,0,0,0,0,0,0,-1,1203,1562,0,0
-14,-538,0,0,0,0,0,0,0,0,0,-1,1210,1562,0,0
-7,-538,0,0,0,0,0,0,0,0,0,-1,1217,1562,0,0
0,-538,0,0,0,0,0,0,0,0,0,-1,1224,1562,0,0
7,-538,0,0,0,0,0,0,0,0,0,-1,1231,1562,0,0
14,-538,0,0,0,0,0,0,0,0,0,-1,1238,1562,0,0
21,-538,0,0,0,0,0,0,0,0,0,-1,1245,1562,0,0
28,-538,0,0,0,0,0,0,0,0,0,-1,1252,1562,0,0
35,-538,0,0,0,0,0,0,0,0,0,-1,1259,1562,0,0
42,-538,0,0,0,0,0,0,0,0,0,-1,1266,1562,0,0
49,-538,0,0,0,0,0,0,0,0,0,-1,1273,1562,0,0
56,-538,0,0,0,0,0,0,0,0,0,-1,1280,1562,0,0
63,-538,0,0,0,0,0,0,0,0,0,-1,1287,1562,0,0
70,-538,0,0,0,0,0,0,0,0,0,-1,1294,1562,0,0
77,-538,0,0,0,0,0,0,0,0,0,-1,1301,1562,0,0
84,-538,0,0,0,0,0,0,0,0,0,-1,1308,1562,0,0
91,-538,0,0,0,0,0,0,0,0,0,-1,1315,1562,0,0
98,-538,0,0,0,0,0,0,0,0,0,-1,1322,1562,0,0
105,-538,0,0,0,0,0,0,0,0,0,-1,1329,1562,0,0
112,-538,0,0,0,0,0,0,0,0,0,-1,1336,1562,0,0
119,-538,0,0,0,0,0,0,0,0,0,-1,1343,1562,0,0
126,-538,0,0,0,0,0,0,0,0,0,-1,1350,1562,0,0
133,-538,0,0,0,0,0,0,0,0,0,-1,1357,1562,0,0
140,-538,0,0,0,0,0,0,0,0,0,-1,1364,1562,0,0
147,-538,0,0,0,0,0,0,0,0,0,-1,1371,1562,0,0
154,-538,0,0,0,0,0,0,0,0,0,-1,1378,1562,0,0
161,-538,0,0,0,0,0,0,0,0,0,-1,1385,1562,0,0
168,-538,0,0,0,0,0,0,0,0,0,-1,1392,1562,0,0
175,-538,0,0,0,0,0,0,0,0,0,-1,1399,1562,0,0
182,-538,0,0,0,0,0,0,0,0,0,-1,1406,1562,0,0
189,-538,0,0,0,0,0,0,0,0,0,-1,1413,1562,0,0
196,-538,0,0,0,0,0,0,0,0,0,-1,1420,1562,0,0
203,-538,0,0,0,0,0,0,0,0,0,-1,1427,1562,0,0
210,-538,0,0,0,0,0,0,0,0,0,-1,1434,1562,0,0
217,-538,0,0,0,0,0,0,0,0,0,-1,1441,1562,0,0
224,-538,0,0,0,0,0,0,0,0,0,-1,1448,1562,0,0
231,-538,0,0,0,0,0,0,0,0,0,-1,1455,1562,0,0
238,-538,0,0,0,0,0,0,0,0,0,-1,1462,1562,0,0
245,-538,0,0,0,0,0,0,0,0,0,-1,1469,1562,0,0
252,-538,0,0,0,0,0,0,0,0,0,-1,1476,1562,0,0
259,-538,0,0,0,0,0,0,0,0,0,-1,1483,1562,0,0
266,-538,0,0,0,0,0,0,0,0,0,-1,1490,1562,0,0
273,-538,0,0,0,0,0,0,0,0,0,-1,1497,1562,0,0
280,-538,0,0,0,0,0,0,0,0,0,-1,1504,1562,0,0
287,-538,0,0,0,0,0,0,0,0,0,-1,1511,1562,0,0
294,-538,0,0,0,0,0,0,0,0,0,-1,1518,1562,0,0
301,-538,0,0,0,0,0,0,0,0,0,-1,1525,1562,0,0
308,-538,0,0,0,0,0,0,0,0,0,-1,1532,1562,0,0
315,-538,0,0,0,0,0,0,0,0,0,-1,1539,1562,0,0
322,-538,0,0,0,0,0,0,0,0,0,-1,1546,1562,0,0
329,-538,0,0,0,0,0,0,0,0,0,-1,1553,1562,0,0
336,-538,0,0,0,0,0,0,0,0,0,-1,1560,1562,0,0
343,-538,0,0,0,0,0,0,0,0,0,-1,1567,1562,0,0
350,-538,0,0,0,0,0,0,0,0,0,-1,1574,1562,0,0
357,-538,0,0,0,0,0,0,0,0,0,-1,1581,1562,0,0
364,-538,0,0,0,0,0,0,0,0,0,-1,1588,1562,0,0
371,-538,0,0,0,0,0,0,0,0,0,-1,1595,1562,0,0
378,-538,7.65637,4.13477,0,0,0,0,0,0,0,-1,1602,1562,7.65643,-4.13477
385,-538,7.63196,4.76782,0,0,0,0,0,0,0,-1,1609,1562,7.63191,-4.76776
392,-538,8.96448,2.19666,0,0,0,0,0,0,0,-1,1616,1562,8.96453,-2.19661
399,-538,8.79236,3.15222,0,0,0,0,0,0,0,-1,1623,1562,8.79233,-3.1522
406,-538,11.0181,-2.32947,0,0,0,0,0,0,0,-1,1630,1562,11.0181,2.3295
413,-538,4.27454,7.20459,0,0,0,0,0,0,0,-1,1637,1562,4.27451,-7.20456
420,-538,4.53613,6.81348,0.00214689,-0.000148115,-0.0427596,0.0437744,-0.0417756,-0.771983,0.0493968,0.0472654,1644,1562,4.53616,-6.81351
427,-538,4.82971,6.41345,0.00114289,-0.00877828,-0.0311279,0.027703,-0.0353384,-0.706382,0.0364859,0.0436229,1651,1562,4.82969,-6.41341
434,-538,4.72864,5.77783,0.000117531,-0.0163526,-0.0188087,0.012415,-0.02865,-0.579053,0.0243187,0.0465501,1658,1562,4.72866,-5.77784
441,-538,5.42212,5.72876,0,0,0,0,0,0,0,-1,1665,1562,5.42217,-5.72873
448,-538,5.45117,4.58032,0,0,0,0,0,0,0,-1,1672,1562,5.45117,-4.58027
455,-538,5.04846,4.30212,0,0,0,0,0,0,0,-1,1679,1562,5.04849,-4.30212
462,-538,4.77649,3.41846,-0.00491522,-0.0299758,0.014639,0.00182383,-0.0367149,0.431427,0.0251066,0.0420085,1686,1562,4.77645,-3.41851
469,-538,4.61133,3.61194,-0.00588454,-0.0296043,0.0174029,0.0033154,-0.0388042,0.486301,0.0270425,0.0405527,1693,1562,4.61138,-3.61189
476,-538,4.67212,4.11646,-0.00644333,-0.0294629,0.0191792,0.00441467,-0.0403209,0.515145,0.0284665,0.0376688,1700,1562,4.67214,-4.11643
483,-538,4.83899,4.63696,-0.00659217,-0.0266581,0.0194704,0.00527823,-0.0385286,0.547494,0.0276138,0.026311,1707,1562,4.83904,-4.63692
490,-538,4.84546,4.63428,-0.0064615,-0.0232683,0.0182925,0.00526544,-0.0349953,0.57008,0.0252689,0.013475,1714,1562,4.8454,-4.63427
497,-538,4.84204,4.56213,-0.00629062,-0.0199119,0.0153933,0.0037314,-0.0299339,0.577123,0.0213089,0.0101526,1721,1562,4.84206,-4.56215
504,-538,4.84448,4.48083,-0.00580576,-0.0160297,0.0122784,0.00238234,-0.0242178,0.588143,0.016995,0.00942214,1728,1562,4.84453,-4.48081
511,-538,4.83862,4.39905,-0.00486799,-0.0122538,0.00885199,0.00103052,-0.0181523,0.587782,0.0124593,0.0100509,1735,1562,4.83863,-4.39903
518,-538,4.82349,4.31653,-0.00368718,-0.00845735,0.00602126,0.00040417,-0.0125487,0.596823,0.00850372,0.0109748,1742,1562,4.82351,-4.31656
525,-538,4.8313,4.21924,-0.00257575,-0.0051292,0.0034791,-0.000146516,-0.00755844,0.609542,0.00499084,0.0112958,1749,1562,4.83136,-4.21919
532,-538,4.86462,4.12549,-0.00158304,-0.00142669,0.00137301,-0.000129632,-0.0028801,0.813837,0.00187835,0.0109228,1756,1562,4.86465,-4.12553
539,-538,4.86011,4.05908,-0.000188658,0.00259396,-0.000310702,0.00262823,-0.000222928,-1.46094,0.00183099,0.0137314,1763,1562,4.86009,-4.0591
546,-538,4.82715,3.98352,0.00152592,0.00609225,-0.00148061,0.00653031,0.00108786,-1.28314,0.00404004,0.0170389,1770,1562,4.82712,-3.98353
553,-538,4.85852,3.86682,0.00318891,0.00988688,-0.00232956,0.0106174,0.00245837,-1.26691,0.00641774,0.0264517,1777,1562,4.85847,-3.86677
560,-538,4.8584,3.80469,0.0050434,0.0141649,-0.00336542,0.0152722,0.00393613,-1.25294,0.0091559,0.0257097,1784,1562,4.85839,-3.80471
567,-538,4.84619,3.69751,0.00692712,0.0188384,-0.00433751,0.0202505,0.00551501,-1.25606,0.0120888,0.018267,1791,1562,4.84617,-3.69752
574,-538,4.87915,3.62048,0.0105962,0.0238095,-0.00587883,0.0260464,0.00835933,-1.20721,0.015356,0.0120904,1798,1562,4.8791,-3.62051
581,-538,4.87256,3.50488,0.0158079,0.0290996,-0.0081902,0.0330011,0.0119064,-1.12624,0.0192978,0.0136388,1805,1562,4.87251,-3.50491
588,-538,4.93579,3.40894,0.0216126,0.0347504,-0.0108309,0.0408488,0.0155142,-1.05799,0.0238101,0.0283596,1812,1562,4.93584,-3.40898
595,-538,5.37415,3.47266,0.0296491,0.0405833,-0.0143744,0.0504952,0.0197372,-0.967118,0.029384,0.0421949,1819,1562,5.37418,-3.47267
602,-538,5.80334,3.51208,0,0,0,0,0,0,0,-1,1826,1562,5.80331,-3.51208
609,-538,5.51111,2.35388,0,0,0,0,0,0,0,-1,1833,1562,5.5111,-2.35389
616,-538,4.13013,2.6958,0,0,0,0,0,0,0,-1,1840,1562,4.13007,-2.69579
623,-538,5.69141,1.92102,0,0,0,0,0,0,0,-1,1847,1562,5.69142,-1.92105
630,-538,6.19971,1.64966,0,0,0,0,0,0,0,-1,1854,1562,6.19972,-1.64961
637,-538,0,0,0,0,0,0,0,0,0,-1,1861,1562,0,0
644,-538,0,0,0,0,0,0,0,0,0,-1,1868,1562,0,0
651,-538,0,0,0,0,0,0,0,0,0,-1,1875,1562,0,0
658,-538,0,0,0,0,0,0,0,0,0,-1,1882,1562,0,0
665,-538,0,0,0,0,0,0,0,0,0,-1,1889,1562,0,0
672,-538,0,0,0,0,0,0,0,0,0,-1,1896,1562,0,0
679,-538,0,0,0,0,0,0,0,0,0,-1,1903,1562,0,0
686,-538,0,0,0,0,0,0,0,0,0,-1,1910,1562,0,0
693,-538,0,0,0,0,0,0,0,0,0,-1,1917,1562,0,0
700,-538,0,0,0,0,0,0,0,0,0,-1,1924,1562,0,0
707,-538,0,0,0,0,0,0,0,0,0,-1,1931,1562,0,0
714,-538,0,0,0,0,0,0,0,0,0,-1,1938,1562,0,0
721,-538,0,0,0,0,0,0,0,0,0,-1,1945,1562,0,0
728,-538,0,0,0,0,0,0,0,0,0,-1,1952,1562,0,0
735,-538,0,0,0,0,0,0,0,0,0,-1,1959,1562,0,0
742,-538,0,0,0,0,0,0,0,0,0,-1,1966,1562,0,0
749,-538,0,0,0,0,0,0,0,0,0,-1,1973,1562,0,0
756,-538,0,0,0,0,0,0,0,0,0,-1,1980,1562,0,0
763,-538,0,0,0,0,0,0,0,0,0,-1,1987,1562,0,0
770,-538,0,0,0,0,0,0,0,0,0,-1,1994,1562,0,0
777,-538,0,0,0,0,0,0,0,0,0,-1,2001,1562,0,0
784,-538,0,0,0,0,0,0,0,0,0,-1,2008,1562,0,0
791,-538,0,0,0,0,0,0,0,0,0,-1,2015,1562,0,0
798,-538,0,0,0,0,0,0,0,0,0,-1,2022,1562,0,0
805,-538,0,0,0,0,0,0,0,0,0,-1,2029,1562,0,0
812,-538,0,0,0,0,0,0,0,0,0,-1,2036,1562,0,0
-700,-545,0,0,0,0,0,0,0,0,0,-1,524,1569,0,0
-693,-545,0,0,0,0,0,0,0,0,0,-1,531,1569,0,0
-686,-545,0,0,0,0,0,0,0,0,0,-1,538,1569,0,0
-679,-545,0,0,0,0,0,0,0,0,0,-1,545,1569,0,0
-672,-545,0,0,0,0,0,0,0,0,0,-1,552,1569,0,0
-665,-545,0,0,0,0,0,0,0,0,0,-1,559,1569,0,0
-658,-545,0,0,0,0,0,0,0,0,0,-1,566,1569,0,0
-651,-545,0,0,0,0,0,0,0,0,0,-1,573,1569,0,0
-644,-545,0,0,0,0,0,0,0,0,0,-1,580,1569,0,0
-637,-545,0,0,0,0,0,0,0,0,0,-1,587,1569,0,0
-630,-545,0,0,0,0,0,0,0,0,0,-1,594,1569,0,0
-623,-545,0,0,0,0,0,0,0,0,0,-1,601,1569,0,0
-616,-545,0,0,0,0,0,0,0,0,0,-1,608,1569,0,0
-609,-545,0,0,0,0,0,0,0,0,0,-1,615,1569,0,0
-602,-545,0,0,0,0,0,0,0,0,0,-1,622,1569,0,0
-595,-545,0,0,0,0,0,0,0,0,0,-1,629,1569,0,0
-588,-545,0,0,0,0,0,0,0,0,0,-1,636,1569,0,0
-581,-545,0,0,0,0,0,0,0,0,0,-1,643,1569,0,0
-574,-545,0,0,0,0,0,0,0,0,0,-1,650,1569,0,0
-567,-545,0,0,0,0,0,0,0,0,0,-1,657,1569,0,0
-560,-545,0,0,0,0,0,0,0,0,0,-1,664,1569,0,0
-553,-545,0,0,0,0,0,0,0,0,0,-1,671,1569,0,0
-546,-545,0,0,0,0,0,0,0,0,0,-1,678,1569,0,0
-539,-545,0,0,0,0,0,0,0,0,0,-1,685,1569,0,0
-532,-545,0,0,0,0,0,0,0,0,0,-1,692,1569,0,0
-525,-545,0,0,0,0,0,0,0,0,0,-1,699,1569,0,0
-518,-545,0,0,0,0,0,0,0,0,0,-1,706,1569,0,0
-511,-545,0,0,0,0,0,0,0,0,0,-1,713,1569,0,0
-504,-545,-3.33881,3.68188,0.167483,0.0731795,-0.00737294,0.168056,0.0726065,-0.077555,0.0973255,0.0427302,720,1569,-3.33883,-3.68191
-497,-545,-2.84778,3.65674,0.152031,0.0822827,-0.0140023,0.154737,0.0795767,-0.190902,0.0893497,0.0478499,727,1569,-2.84778,-3.65677
-490,-545,-2.33289,3.62256,0,0,0,0,0,0,0,-1,734,1569,-2.3329,-3.62255
-483,-545,-1.00348,4.01721,0,0,0,0,0,0,0,-1,741,1569,-1.00347,-4.01717
-476,-545,1.43945,1.86609,0,0,0,0,0,0,0,-1,748,1569,1.43946,-1.86608
-469,-545,1.31934,2.33093,0.0774088,0.0742351,-0.0119001,0.0878274,0.0638165,-0.719116,0.0524144,0.0460726,755,1569,1.31934,-2.33098
-462,-545,1.3681,2.7395,0.0595479,0.0642239,-0.00742948,0.0696746,0.0540972,-0.937838,0.0422261,0.0459566,762,1569,1.36812,-2.73949
-455,-545,1.36938,2.82874,0.0442463,0.0541875,-0.00350694,0.0553002,0.0431337,-1.26358,0.0335548,0.0425411,769,1569,1.36941,-2.82874
-448,-545,1.32605,2.94275,0.0316175,0.0450059,-0.000844702,0.045059,0.0315644,-1.50804,0.026703,0.0285584,776,1569,1.32602,-2.94278
-441,-545,1.26373,3.09985,0.0215291,0.0362247,0.00111299,0.0363086,0.0214453,1.49563,0.0210773,0.0174721,783,1569,1.26372,-3.09985
-434,-545,1.22076,3.20935,0.0142259,0.0275463,0.00292022,0.0281583,0.0136138,1.36419,0.0162602,0.0122798,790,1569,1.22074,-3.20936
-427,-545,1.21521,3.29309,0.00682805,0.0187646,0.00509597,0.0206442,0.00494844,1.21744,0.0124457,0.0150539,797,1569,1.21518,-3.29303
-420,-545,1.24182,3.35718,0.00300996,0.0126163,0.00563732,0.0152192,0.000407059,1.13823,0.0100132,0.0215667,804,1569,1.24183,-3.35713
-413,-545,1.22461,3.47485,0.00131052,0.0095465,0.00456987,0.0115801,-0.000723039,1.15211,0.00797199,0.0222247,811,1569,1.2246,-3.47485
-406,-545,1.23102,3.56653,0.00135842,0.00729259,0.00323153,0.00871257,-6.15669e-05,1.15678,0.00582901,0.016793,818,1569,1.23103,-3.56658
-399,-545,1.26154,3.66443,0.00131531,0.00533667,0.00180334,0.00602689,0.000625093,1.20525,0.00382662,0.0104595,825,1569,1.26156,-3.66439
-392,-545,1.24866,3.7738,0.00132075,0.00403006,0.000631969,0.00417022,0.00118059,1.35254,0.00248204,0.0106591,832,1569,1.24868,-3.77379
-385,-545,1.2514,3.87256,0.00115582,0.00359681,-0.000325325,0.00363943,0.00111321,-1.44055,0.00215337,0.00963469,839,1569,1.25142,-3.87259
-378,-545,1.23444,3.97473,0.00077681,0.00316437,-0.00106913,0.00357313,0.000368047,-1.20561,0.00226938,0.0116069,846,1569,1.23443,-3.97473
-371,-545,1.2171,4.08484,0.000327817,0.00333599,-0.00171916,0.00411615,-0.000452343,-1.14478,0.00290664,0.0154762,853,1569,1.21711,-4.08482
-364,-545,1.22888,4.16248,-0.000353678,0.00355927,-0.00257161,0.00483404,-0.00162845,-1.11059,0.00388111,0.00998405,860,1569,1.2289,-4.16252
-357,-545,1.24371,4.25513,-0.00126645,0.00409453,-0.00357022,0.00587851,-0.00305044,-1.1074,0.00524061,0.0103445,867,1569,1.24371,-4.25508
-350,-545,1.24377,4.33313,-0.00237781,0.00482765,-0.00442689,0.00693255,-0.0044827,-1.12696,0.006641,0.0143296,874,1569,1.24377,-4.33317
-343,-545,1.22028,4.38904,-0.00377805,0.00458101,-0.00462991,0.00663883,-0.00583587,-1.15256,0.00720724,0.0228778,881,1569,1.22029,-4.38909
-336,-545,1.23438,4.45447,-0.00558789,0.00369984,-0.00426355,0.0053602,-0.00724826,-1.19943,0.00730665,0.0299852,888,1569,1.23436,-4.45445
-329,-545,1.24146,4.62231,-0.00766748,0.00230154,-0.00339849,0.00334986,-0.0087158,-1.27159,0.00719208,0.0391383,895,1569,1.24147,-4.62227
-322,-545,1.1991,4.88379,-0.0096518,0.0014085,-0.00223725,0.0018439,-0.0100872,-1.37858,0.00741624,0.0462953,902,1569,1.19911,-4.88378
-315,-545,1.2431,5.14136,0,0,0,0,0,0,0,-1,909,1569,1.24313,-5.1414
-308,-545,0.735413,3.82202,0,0,0,0,0,0,0,-1,916,1569,0.735434,-3.822
-301,-545,0.90686,2.50598,0,0,0,0,0,0,0,-1,923,1569,0.906875,-2.50596
-294,-545,1.50604,3.03992,-0.0134938,-0.0130083,0.00923664,-0.00401119,-0.0224908,0.798536,0.0138518,0.0447427,930,1569,1.50603,-3.03993
-287,-545,1.48523,3.72314,-0.0134348,-0.0183571,0.0120516,-0.00359554,-0.0281963,0.684675,0.017721,0.04797,937,1569,1.48522,-3.72309
-280,-545,0.889343,4.47302,-0.0103626,-0.0246591,0.0164838,0.000456221,-0.0354779,0.58081,0.0238054,0.0496279,944,1569,0.889325,-4.47307
-273,-545,0.522034,5.52576,-0.00409969,-0.0312239,0.0196938,0.00625007,-0.0415737,0.483865,0.0300168,0.0472561,951,1569,0.522031,-5.52571
-266,-545,0.0525513,6.7572,0,0,0,0,0,0,0,-1,958,1569,0.0525496,-6.75715
-259,-545,0.88623,4.78943,0,0,0,0,0,0,0,-1,965,1569,0.886225,-4.78942
-252,-545,-3.07947,1.38269,0,0,0,0,0,0,0,-1,972,1569,-3.07949,-1.38273
-245,-545,-2.40717,1.64893,0,0,0,0,0,0,0,-1,979,1569,-2.40716,-1.64894
-238,-545,0,0,0,0,0,0,0,0,0,-1,986,1569,0,0
-231,-545,0,0,0,0,0,0,0,0,0,-1,993,1569,0,0
-224,-545,0,0,0,0,0,0,0,0,0,-1,1000,1569,0,0
-217,-545,0,0,0,0,0,0,0,0,0,-1,1007,1569,0,0
-210,-545,0,0,0,0,0,0,0,0,0,-1,1014,1569,0,0
-203,-545,0,0,0,0,0,0,0,0,0,-1,1021,1569,0,0
-196,-545,0,0,0,0,0,0,0,0,0,-1,1028,1569,0,0
-189,-545,0,0,0,0,0,0,0,0,0,-1,1035,1569,0,0
-182,-545,0,0,0,0,0,0,0,0,0,-1,1042,1569,0,0
-175,-545,0,0,0,0,0,0,0,0,0,-1,1049,1569,0,0
-168,-545,0,0,0,0,0,0,0,0,0,-1,1056,1569,0,0
-161,-545,0,0,0,0,0,0,0,0,0,-1,1063,1569,0,0
-154,-545,0,0,0,0,0,0,0,0,0,-1,1070,1569,0,0
-147,-545,0,0,0,0,0,0,0,0,0,-1,1077,1569,0,0
-140,-545,0,0,0,0,0,0,0,0,0,-1,1084,1569,0,0
-133,-545,0,0,0,0,0,0,0,0,0,-1,1091,1569,0,0
-126,-545,0,0,0,0,0,0,0,0,0,-1,1098,1569,0,0
-119,-545,0,0,0,0,0,0,0,0,0,-1,1105,1569,0,0
-112,-545,0,0,0,0,0,0,0,0,0,-1,1112,1569,0,0
-105,-545,0,0,0,0,0,0,0,0,0,-1,1119,1569,0,0
-98,-545,0,0,0,0,0,0,0,0,0,-1,1126,1569,0,0
-91,-545,0,0,0,0,0,0,0,0,0,-1,1133,1569,0,0
-84,-545,0,0,0,0,0,0,0,0,0,-1,1140,1569,0,0
-77,-545,0,0,0,0,0,0,0,0,0,-1,1147,1569,0,0
-70,-545,0,0,0,0,0,0,0,0,0,-1,1154,1569,0,0
-63,-545,0,0,0,0,0,0,0,0,0,-1,1161,1569,0,0
-56,-545,0,0,0,0,0,0,0,0,0,-1,1168,1569,0,0
-49,-545,0,0,0,0,0,0,0,0,0,-1,1175,1569,0,0
-42,-545,0,0,0,0,0,0,0,0,0,-1,1182,1569,0,0
-35,-545,0,0,0,0,0,0,0,0,0,-1,1189,1569,0,0
-28,-545,0,0,0,0,0,0,0,0,0,-1,1196,1569,0,0
-21,-545,0,0,0,0,0,0,0,0,0,-1,1203,1569,0,0
-14,-545,0,0,0,0,0,0,0,0,0,-1,1210,1569,0,0
-7,-545,0,0,0,0,0,0,0,0,0,-1,1217,1569,0,0
0,-545,0,0,0,0,0,0,0,0,0,-1,1224,1569,0,0
7,-545,0,0,0,0,0,0,0,0,0,-1,1231,1569,0,0
14,-545,0,0,0,0,0,0,0,0,0,-1,1238,1569,0,0
21,-545,0,0,0,0,0,0,0,0,0,-1,1245,1569,0,0
28,-545,0,0,0,0,0,0,0,0,0,-1,1252,1569,0,0
35,-545,0,0,0,0,0,0,0,0,0,-1,1259,1569,0,0
42,-545,0,0,0,0,0,0,0,0,0,-1,1266,1569,0,0
49,-545,0,0,0,0,0,0,0,0,0,-1,1273,1569,0,0
56,-545,0,0,0,0,0,0,0,0,0,-1,1280,1569,0,0
63,-545,0,0,0,0,0,0,0,0,0,-1,1287,1569,0,0
70,-545,0,0,0,0,0,0,0,0,0,-1,1294,1569,0,0
77,-545,0,0,0,0,0,0,0,0,0,-1,1301,1569,0,0
84,-545,0,0,0,0,0,0,0,0,0,-1,1308,1569,0,0
91,-545,0,0,0,0,0,0,0,0,0,-1,1315,1569,0,0
98,-545,0,0,0,0,0,0,0,0,0,-1,1322,1569,0,0
105,-545,0,0,0,0,0,0,0,0,0,-1,1329,1569,0,0
112,-545,0,0,0,0,0,0,0,0,0,-1,1336,1569,0,0
119,-545,0,0,0,0,0,0,0,0,0,-1,1343,1569,0,0
126,-545,0,0,0,0,0,0,0,0,0,-1,1350,1569,0,0
133,-545,0,0,0,0,0,0,0,0,0,-1,1357,1569,0,0
140,-545,0,0,0,0,0,0,0,0,0,-1,1364,1569,0,0
147,-545,0,0,0,0,0,0,0,0,0,-1,1371,1569,0,0
154,-545,0,0,0,0,0,0,0,0,0,-1,1378,1569,0,0
161,-545,0,0,0,0,0,0,0,0,0,-1,1385,1569,0,0
168,-545,0,0,0,0,0,0,0,0,0,-1,1392,1569,0,0
175,-545,0,0,0,0,0,0,0,0,0,-1,1399,1569,0,0
182,-545,0,0,0,0,0,0,0,0,0,-1,1406,1569,0,0
189,-545,0,0,0,0,0,0,0,0,0,-1,1413,1569,0,0
196,-545,0,0,0,0,0,0,0,0,0,-1,1420,1569,0,0
203,-545,0,0,0,0,0,0,0,0,0,-1,1427,1569,0,0
210,-545,0,0,0,0,0,0,0,0,0,-1,1434,1569,0,0
217,-545,0,0,0,0,0,0,0,0,0,-1,1441,1569,0,0
224,-545,0,0,0,0,0,0,0,0,0,-1,1448,1569,0,0
231,-545,0,0,0,0,0,0,0,0,0,-1,1455,1569,0,0
238,-545,0,0,0,0,0,0,0,0,0,-1,1462,1569,0,0
245,-545,0,0,0,0,0,0,0,0,0,-1,1469,1569,0,0
252,-545,0,0,0,0,0,0,0,0,0,-1,1476,1569,0,0
259,-545,0,0,0,0,0,0,0,0,0,-1,1483,1569,0,0
266,-545,0,0,0,0,0,0,0,0,0,-1,1490,1569,0,0
273,-545,0,0,0,0,0,0,0,0,0,-1,1497,1569,0,0
280,-545,0,0,0,0,0,0,0,0,0,-1,1504,1569,0,0
287,-545,0,0,0,0,0,0,0,0,0,-1,1511,1569,0,0
294,-545,0,0,0,0,0,0,0,0,0,-1,1518,1569,0,0
301,-545,0,0,0,0,0,0,0,0,0,-1,1525,1569,0,0
308,-545,0,0,0,0,0,0,0,0,0,-1,1532,1569,0,0
315,-545,0,0,0,0,0,0,0,0,0,-1,1539,1569,0,0
322,-545,0,0,0,0,0,0,0,0,0,-1,1546,1569,0,0
329,-545,0,0,0,0,0,0,0,0,0,-1,1553,1569,0,0
336,-545,0,0,0,0,0,0,0,0,0,-1,1560,1569,0,0
343,-545,0,0,0,0,0,0,0,0,0,-1,1567,1569,0,0
350,-545,0,0,0,0,0,0,0,0,0,-1,1574,1569,0,0
357,-545,0,0,0,0,0,0,0,0,0,-1,1581,1569,0,0
364,-545,5.47632,4.19043,0,0,0,0,0,0,0,-1,1588,1569,5.47628,-4.19048
371,-545,7.62146,5.18079,0,0,0,0,0,0,0,-1,1595,1569,7.62146,-5.1808
378,-545,7.24146,4.54224,0,0,0,0,0,0,0,-1,1602,1569,7.24145,-4.54226
385,-545,8.58447,1.16125,0,0,0,0,0,0,0,-1,1609,1569,8.5845,-1.1612
392,-545,8.39722,1.94019,0,0,0,0,0,0,0,-1,1616,1569,8.39728,-1.94021
399,-545,8.22754,2.86707,0,0,0,0,0,0,0,-1,1623,1569,8.22756,-2.86705
406,-545,9.62598,-0.997437,0,0,0,0,0,0,0,-1,1630,1569,9.62593,0.997489
413,-545,5.38464,5.81775,0,0,0,0,0,0,0,-1,1637,1569,5.38464,-5.81771
420,-545,5.09619,6.25525,0.00283965,-0.00162192,-0.0345689,0.0352497,-0.034032,-0.753177,0.0400019,0.0445911,1644,1569,5.09623,-6.25529
427,-545,4.78833,6.42651,0.00236526,-0.0084057,-0.0276829,0.0251816,-0.0312221,-0.689327,0.0326269,0.0448373,1651,1569,4.78835,-6.42647
434,-545,4.92188,6.04089,0.00162655,-0.0144858,-0.0188992,0.014115,-0.0269743,-0.583924,0.024107,0.0471616,1658,1569,4.92188,-6.04086
441,-545,5.09314,5.70251,0.000618987,-0.0189428,-0.010264,0.00501609,-0.0233399,-0.404747,0.0174737,0.047402,1665,1569,5.09312,-5.70249
448,-545,5.23169,4.69946,-0.000174439,-0.0221741,-0.00281619,0.000180343,-0.0225289,-0.125319,0.0150797,0.0469259,1672,1569,5.23164,-4.6995
455,-545,5.31677,4.20056,0,0,0,0,0,0,0,-1,1679,1569,5.31675,-4.20059
462,-545,4.72717,4.08252,-0.00213058,-0.0245077,0.00747168,0.00013485,-0.0267731,0.294392,0.0178939,0.0406769,1686,1569,4.72714,-4.08251
469,-545,4.50122,4.12488,-0.00287444,-0.0237084,0.0102151,0.00129839,-0.0278812,0.387808,0.019035,0.0397379,1693,1569,4.50127,-4.12493
476,-545,4.60095,4.56531,-0.00335033,-0.0231386,0.0121259,0.00240577,-0.0288947,0.443201,0.0201131,0.0285566,1700,1569,4.6009,-4.56532
483,-545,4.76208,4.71533,-0.00352979,-0.0204021,0.0128196,0.00338039,-0.0273123,0.494385,0.0194333,0.0124453,1707,1569,4.76208,-4.71537
490,-545,4.76953,4.63574,-0.00348563,-0.0173235,0.0123687,0.0037678,-0.0245769,0.530386,0.0177741,0.0109593,1714,1569,4.76955,-4.6358
497,-545,4.77551,4.5647,-0.00345174,-0.0144937,0.0105724,0.00295443,-0.0208998,0.544771,0.0150152,0.0165213,1721,1569,4.77551,-4.56467
504,-545,4.79956,4.49634,-0.00316156,-0.0111817,0.00845393,0.00218516,-0.0165284,0.563941,0.0118149,0.0154019,1728,1569,4.79956,-4.49632
511,-545,4.77734,4.40833,-0.00246976,-0.00789802,0.00587866,0.00129108,-0.0116588,0.569131,0.00823672,0.0110448,1735,1569,4.77736,-4.40835
518,-545,4.76318,4.31421,-0.00150067,-0.0045074,0.00364679,0.000940483,-0.00694855,0.589891,0.00497558,0.012328,1742,1569,4.76315,-4.31416
525,-545,4.77759,4.22192,-0.000575263,-0.00147307,0.00165443,0.000690085,-0.00273841,0.652921,0.00209389,0.0126277,1749,1569,4.77755,-4.22197
532,-545,4.78101,4.1311,0.000325154,0.00232477,-1.75548e-05,0.00232493,0.000325,-1.56202,0.00145378,0.0125407,1756,1569,4.78099,-4.13115
539,-545,4.76025,4.05383,0.00164587,0.00673917,-0.00150359,0.00714992,0.00123512,-1.30412,0.0044129,0.0154505,1763,1569,4.76021,-4.0538
546,-545,4.72217,3.95142,0.00334626,0.0107732,-0.00259419,0.0115896,0.00252986,-1.26591,0.00703637,0.0175934,1770,1569,4.72212,-3.95147
553,-545,4.75635,3.85425,0.00510012,0.0154854,-0.00348784,0.016548,0.00403748,-1.27506,0.00996275,0.0244543,1777,1569,4.7563,-3.85425
560,-545,4.77295,3.72803,0.00711215,0.0210111,-0.00457317,0.0223808,0.00574242,-1.27979,0.0134223,0.023042,1784,1569,4.773,-3.72801
567,-545,4.71704,3.6825,0.00930205,0.0274105,-0.00564502,0.0290261,0.00768645,-1.29205,0.0173652,0.0252346,1791,1569,4.717,-3.68248
574,-545,4.70837,3.61279,0.0134536,0.0344208,-0.00733528,0.0367322,0.0111422,-1.26554,0.0217473,0.023811,1798,1569,4.70842,-3.61274
581,-545,4.69287,3.49927,0.0194256,0.0419247,-0.00987302,0.0456427,0.0157075,-1.21064,0.0267752,0.0348369,1805,1569,4.69284,-3.49929
588,-545,4.76074,3.50928,0.0263277,0.0500033,-0.0128449,0.0556333,0.0206976,-1.15771,0.0324687,0.0485537,1812,1569,4.76069,-3.50929
595,-545,4.89124,3.56079,0,0,0,0,0,0,0,-1,1819,1569,4.89126,-3.56081
602,-545,4.60974,3.25745,0,0,0,0,0,0,0,-1,1826,1569,4.6097,-3.25739
609,-545,4.51929,2.84827,0,0,0,0,0,0,0,-1,1833,1569,4.51933,-2.84822
616,-545,4.9375,2.3988,0,0,0,0,0,0,0,-1,1840,1569,4.9375,-2.39886
623,-545,5.30322,1.9928,0,0,0,0,0,0,0,-1,1847,1569,5.30328,-1.99275
630,-545,0,0,0,0,0,0,0,0,0,-1,1854,1569,0,0
637,-545,0,0,0,0,0,0,0,0,0,-1,1861,1569,0,0
644,-545,0,0,0,0,0,0,0,0,0,-1,1868,1569,0,0
651,-545,0,0,0,0,0,0,0,0,0,-1,1875,1569,0,0
658,-545,0,0,0,0,0,0,0,0,0,-1,1882,1569,0,0
665,-545,0,0,0,0,0,0,0,0,0,-1,1889,1569,0,0
672,-545,0,0,0,0,0,0,0,0,0,-1,1896,1569,0,0
679,-545,0,0,0,0,0,0,0,0,0,-1,1903,1569,0,0
686,-545,0,0,0,0,0,0,0,0,0,-1,1910,1569,0,0
693,-545,0,0,0,0,0,0,0,0,0,-1,1917,1569,0,0
700,-545,0,0,0,0,0,0,0,0,0,-1,1924,1569,0,0
707,-545,0,0,0,0,0,0,0,0,0,-1,1931,1569,0,0
714,-545,0,0,0,0,0,0,0,0,0,-1,1938,1569,0,0
721,-545,0,0,0,0,0,0,0,0,0,-1,1945,1569,0,0
728,-545,0,0,0,0,0,0,0,0,0,-1,1952,1569,0,0
735,-545,0,0,0,0,0,0,0,0,0,-1,1959,1569,0,0
742,-545,0,0,0,0,0,0,0,0,0,-1,1966,1569,0,0
749,-545,0,0,0,0,0,0,0,0,0,-1,1973,1569,0,0
756,-545,0,0,0,0,0,0,0,0,0,-1,1980,1569,0,0
763,-545,0,0,0,0,0,0,0,0,0,-1,1987,1569,0,0
770,-545,0,0,0,0,0,0,0,0,0,-1,1994,1569,0,0
777,-545,0,0,0,0,0,0,0,0,0,-1,2001,1569,0,0
784,-545,0,0,0,0,0,0,0,0,0,-1,2008,1569,0,0
791,-545,0,0,0,0,0,0,0,0,0,-1,2015,1569,0,0
798,-545,0,0,0,0,0,0,0,0,0,-1,2022,1569,0,0
805,-545,0,0,0,0,0,0,0,0,0,-1,2029,1569,0,0
812,-545,0,0,0,0,0,0,0,0,0,-1,2036,1569,0,0
-700,-552,0,0,0,0,0,0,0,0,0,-1,524,1576,0,0
-693,-552,0,0,0,0,0,0,0,0,0,-1,531,1576,0,0
-686,-552,0,0,0,0,0,0,0,0,0,-1,538,1576,0,0
-679,-552,0,0,0,0,0,0,0,0,0,-1,545,1576,0,0
-672,-552,0,0,0,0,0,0,0,0,0,-1,552,1576,0,0
-665,-552,0,0,0,0,0,0,0,0,0,-1,559,1576,0,0
-658,-552,0,0,0,0,0,0,0,0,0,-1,566,1576,0,0
-651,-552,0,0,0,0,0,0,0,0,0,-1,573,1576,0,0
-644,-552,0,0,0,0,0,0,0,0,0,-1,580,1576,0,0
-637,-552,0,0,0,0,0,0,0,0,0,-1,587,1576,0,0
-630,-552,0,0,0,0,0,0,0,0,0,-1,594,1576,0,0
-623,-552,0,0,0,0,0,0,0,0,0,-1,601,1576,0,0
-616,-552,0,0,0,0,0,0,0,0,0,-1,608,1576,0,0
-609,-552,0,0,0,0,0,0,0,0,0,-1,615,1576,0,0
-602,-552,0,0,0,0,0,0,0,0,0,-1,622,1576,0,0
-595,-552,0,0,0,0,0,0,0,0,0,-1,629,1576,0,0
-588,-552,0,0,0,0,0,0,0,0,0,-1,636,1576,0,0
-581,-552,0,0,0,0,0,0,0,0,0,-1,643,1576,0,0
-574,-552,0,0,0,0,0,0,0,0,0,-1,650,1576,0,0
-567,-552,0,0,0,0,0,0,0,0,0,-1,657,1576,0,0
-560,-552,0,0,0,0,0,0,0,0,0,-1,664,1576,0,0
-553,-552,0,0,0,0,0,0,0,0,0,-1,671,1576,0,0
-546,-552,0,0,0,0,0,0,0,0,0,-1,678,1576,0,0
-539,-552,0,0,0,0,0,0,0,0,0,-1,685,1576,0,0
-532,-552,0,0,0,0,0,0,0,0,0,-1,692,1576,0,0
-525,-552,0,0,0,0,0,0,0,0,0,-1,699,1576,0,0
-518,-552,0,0,0,0,0,0,0,0,0,-1,706,1576,0,0
-511,-552,0,0,0,0,0,0,0,0,0,-1,713,1576,0,0
-504,-552,0,0,0,0,0,0,0,0,0,-1,720,1576,0,0
-497,-552,-3.98206,3.97974,0.171787,0.11438,-0.0249344,0.181105,0.105063,-0.357623,0.105008,0.0439929,727,1576,-3.98203,-3.97968
-490,-552,-3.1416,3.91968,0,0,0,0,0,0,0,-1,734,1576,-3.14162,-3.91966
-483,-552,-2.08887,4.04468,0.135374,0.114903,-0.0227184,0.150056,0.100221,-0.573742,0.088248,0.0413138,741,1576,-2.08884,-4.04473
-476,-552,-1.0235,4.26709,0.113049,0.106794,-0.017944,0.128136,0.0917072,-0.699121,0.0762396,0.0414932,748,1576,-1.02353,-4.26704
-469,-552,2.354,2.78992,0.0905266,0.0950381,-0.0121588,0.105149,0.080416,-0.877117,0.0634817,0.0439599,755,1576,2.35399,-2.78994
-462,-552,1.63452,2.65833,0,0,0,0,0,0,0,-1,762,1576,1.63452,-2.65832
-455,-552,1.56995,2.73975,0.0519331,0.0688853,-0.0012071,0.0689709,0.0518476,-1.50007,0.0414685,0.0444168,769,1576,1.56996,-2.73969
-448,-552,1.49341,2.78918,0.0373441,0.0573526,0.00218941,0.0575894,0.0371073,1.46307,0.0337079,0.0432688,776,1576,1.49342,-2.78924
-441,-552,1.36798,3.06128,0.0256914,0.0466417,0.00440789,0.0475313,0.0248018,1.37164,0.0274509,0.0368806,783,1576,1.36801,-3.06129
-434,-552,1.32294,3.21838,0.0171053,0.0361979,0.00619953,0.0380343,0.0152689,1.28281,0.0221009,0.0178782,790,1576,1.32291,-3.21834
-427,-552,1.32379,3.28442,0.00842616,0.0256349,0.00843586,0.0290804,0.00498068,1.18304,0.0179584,0.0127769,797,1576,1.32379,-3.28439
-420,-552,1.35815,3.37781,0.00376462,0.0182726,0.0086393,0.0222994,-0.000262261,1.13462,0.0149545,0.0170635,804,1576,1.35813,-3.37776
-413,-552,1.34521,3.49304,0.0015339,0.0142574,0.00704432,0.0173875,-0.00159615,1.15266,0.0121587,0.0165197,811,1576,1.34521,-3.49309
-406,-552,1.32983,3.57788,0.00120019,0.0109424,0.00520748,0.0132019,-0.00105931,1.16141,0.00917475,0.0131563,818,1576,1.32982,-3.5779
-399,-552,1.34766,3.68933,0.000716788,0.00779148,0.00332343,0.00910779,-0.000599529,1.19368,0.00628125,0.0127541,825,1576,1.34763,-3.68931
-392,-552,1.32324,3.78101,0.000326923,0.00540801,0.00176593,0.00596147,-0.000226539,1.26708,0.00405194,0.0143634,832,1576,1.32324,-3.78103
-385,-552,1.31915,3.86816,-2.22466e-06,0.0040329,0.000619649,0.00412591,-9.52363e-05,1.4218,0.0027829,0.0138434,839,1576,1.31914,-3.86814
-378,-552,1.30963,3.94971,-0.00037992,0.00270104,-0.000167622,0.00271013,-0.000389012,-1.5166,0.00194941,0.0156234,846,1576,1.30965,-3.94976
-371,-552,1.32068,4.06616,-0.000751785,0.00203815,-0.000849414,0.00227642,-0.000990047,-1.29732,0.00193402,0.0198548,853,1576,1.32065,-4.06613
-364,-552,1.33923,4.16492,-0.00124617,0.0015648,-0.00159763,0.00228718,-0.00196855,-1.14615,0.00245934,0.0154188,860,1576,1.33926,-4.16493
-357,-552,1.33954,4.255,-0.00184316,0.0015317,-0.00247487,0.00283967,-0.00315113,-1.08461,0.00346035,0.0105145,867,1576,1.33955,-4.25497
-350,-552,1.33118,4.34229,-0.0025213,0.00194606,-0.00321973,0.00363105,-0.00420629,-1.08866,0.00452895,0.00948892,874,1576,1.3312,-4.3423
-343,-552,1.32965,4.41907,-0.00346781,0.0015419,-0.00321623,0.00311361,-0.00503952,-1.11624,0.00475079,0.0093706,881,1576,1.32965,-4.41905
-336,-552,1.36163,4.45435,-0.00473102,0.000676761,-0.00266356,0.00176833,-0.0058226,-1.18185,0.00458626,0.0135949,888,1576,1.36165,-4.45431
-329,-552,1.37311,4.62573,-0.00620046,-0.000498248,-0.0016614,-4.94949e-05,-0.00664921,-1.30699,0.0044164,0.0290003,895,1576,1.3731,-4.62577
-322,-552,1.4884,4.85046,-0.00759747,-0.000891507,-0.0005191,-0.000851562,-0.00763742,-1.494,0.00483283,0.0448858,902,1576,1.48839,-4.85052
-315,-552,1.67346,4.8551,0,0,0,0,0,0,0,-1,909,1576,1.67348,-4.85513
-308,-552,0.404907,3.4519,0,0,0,0,0,0,0,-1,916,1576,0.404878,-3.45193
-301,-552,1.18243,2.90271,0,0,0,0,0,0,0,-1,923,1576,1.18246,-2.90272
-294,-552,1.90668,3.46802,-0.0102611,-0.0122611,0.00930131,-0.00190617,-0.020616,0.731847,0.0131547,0.0435947,930,1576,1.90665,-3.46807
-287,-552,1.51654,4.3551,-0.0105831,-0.0170008,0.0112154,-0.00212656,-0.0254574,0.646065,0.016309,0.0458681,937,1576,1.51655,-4.35511
-280,-552,0.940063,5.00854,-0.00855079,-0.0224052,0.0141596,0.000285253,-0.0312413,0.557903,0.0209232,0.047594,944,1576,0.940082,-5.00851
-273,-552,0.685547,5.82849,-0.00364248,-0.028534,0.0157071,0.00395199,-0.0361284,0.450365,0.0255052,0.0489863,951,1576,0.685559,-5.82846
-266,-552,0.467712,6.93494,0,0,0,0,0,0,0,-1,958,1576,0.467696,-6.93492
-259,-552,-3.66174,0.181152,0,0,0,0,0,0,0,-1,965,1576,-3.66172,-0.181123
-252,-552,-3.32428,0.959961,0.0209856,-0.0531656,0.0221013,0.0270733,-0.0592533,0.268778,0.0509819,0.0463152,972,1576,-3.3243,-0.959932
-245,-552,-2.65497,1.65137,0.0323641,-0.061917,0.0232931,0.0378049,-0.0673579,0.229466,0.0615097,0.0487764,979,1576,-2.65496,-1.65141
-238,-552,-2.04474,1.87451,0,0,0,0,0,0,0,-1,986,1576,-2.04473,-1.87452
-231,-552,-2.03931,2.02283,0,0,0,0,0,0,0,-1,993,1576,-2.03933,-2.02287
-224,-552,0,0,0,0,0,0,0,0,0,-1,1000,1576,0,0
-217,-552,0,0,0,0,0,0,0,0,0,-1,1007,1576,0,0
-210,-552,0,0,0,0,0,0,0,0,0,-1,1014,1576,0,0
-203,-552,0,0,0,0,0,0,0,0,0,-1,1021,1576,0,0
-196,-552,0,0,0,0,0,0,0,0,0,-1,1028,1576,0,0
-189,-552,0,0,0,0,0,0,0,0,0,-1,1035,1576,0,0
-182,-552,0,0,0,0,0,0,0,0,0,-1,1042,1576,0,0
-175,-552,0,0,0,0,0,0,0,0,0,-1,1049,1576,0,0
-168,-552,0,0,0,0,0,0,0,0,0,-1,1056,1576,0,0
-161,-552,0,0,0,0,0,0,0,0,0,-1,1063,1576,0,0
-154,-552,0,0,0,0,0,0,0,0,0,-1,1070,1576,0,0
-147,-552,0,0,0,0,0,0,0,0,0,-1,1077,1576,0,0
-140,-552,0,0,0,0,0,0,0,0,0,-1,1084,1576,0,0
-133,-552,0,0,0,0,0,0,0,0,0,-1,1091,1576,0,0
-126,-552,0,0,0,0,0,0,0,0,0,-1,1098,1576,0,0
-119,-552,0,0,0,0,0,0,0,0,0,-1,1105,1576,0,0
-112,-552,0,0,0,0,0,0,0,0,0,-1,1112,1576,0,0
-105,-552,0,0,0,0,0,0,0,0,0,-1,1119,1576,0,0
-98,-552,0,0,0,0,0,0,0,0,0,-1,1126,1576,0,0
-91,-552,0,0,0,0,0,0,0,0,0,-1,1133,1576,0,0
-84,-552,0,0,0,0,0,0,0,0,0,-1,1140,1576,0,0
-77,-552,0,0,0,0,0,0,0,0,0,-1,1147,1576,0,0
-70,-552,0,0,0,0,0,0,0,0,0,-1,1154,1576,0,0
-63,-552,0,0,0,0,0,0,0,0,0,-1,1161,1576,0,0
-56,-552,0,0,0,0,0,0,0,0,0,-1,1168,1576,0,0
-49,-552,0,0,0,0,0,0,0,0,0,-1,1175,1576,0,0
-42,-552,0,0,0,0,0,0,0,0,0,-1,1182,1576,0,0
-35,-552,0,0,0,0,0,0,0,0,0,-1,1189,1576,0,0
-28,-552,0,0,0,0,0,0,0,0,0,-1,1196,1576,0,0
-21,-552,0,0,0,0,0,0,0,0,0,-1,1203,1576,0,0
-14,-552,0,0,0,0,0,0,0,0,0,-1,1210,1576,0,0
-7,-552,0,0,0,0,0,0,0,0,0,-1,1217,1576,0,0
0,-552,0,0,0,0,0,0,0,0,0,-1,1224,1576,0,0
7,-552,0,0,0,0,0,0,0,0,0,-1,1231,1576,0,0
14,-552,0,0,0,0,0,0,0,0,0,-1,1238,1576,0,0
21,-552,0,0,0,0,0,0,0,0,0,-1,1245,1576,0,0
28,-552,0,0,0,0,0,0,0,0,0,-1,1252,1576,0,0
35,-552,0,0,0,0,0,0,0,0,0,-1,1259,1576,0,0
42,-552,0,0,0,0,0,0,0,0,0,-1,1266,1576,0,0
49,-552,0,0,0,0,0,0,0,0,0,-1,1273,1576,0,0
56,-552,0,0,0,0,0,0,0,0,0,-1,1280,1576,0,0
63,-552,0,0,0,0,0,0,0,0,0,-1,1287,1576,0,0
70,-552,0,0,0,0,0,0,0,0,0,-1,1294,1576,0,0
77,-552,0,0,0,0,0,0,0,0,0,-1,1301,1576,0,0
84,-552,0,0,0,0,0,0,0,0,0,-1,1308,1576,0,0
91,-552,0,0,0,0,0,0,0,0,0,-1,1315,1576,0,0
98,-552,0,0,0,0,0,0,0,0,0,-1,1322,1576,0,0
105,-552,0,0,0,0,0,0,0,0,0,-1,1329,1576,0,0
112,-552,0,0,0,0,0,0,0,0,0,-1,1336,1576,0,0
119,-552,0,0,0,0,0,0,0,0,0,-1,1343,1576,0,0
126,-552,0,0,0,0,0,0,0,0,0,-1,1350,1576,0,0
133,-552,0,0,0,0,0,0,0,0,0,-1,1357,1576,0,0
140,-552,0,0,0,0,0,0,0,0,0,-1,1364,1576,0,0
147,-552,0,0,0,0,0,0,0,0,0,-1,1371,1576,0,0
154,-552,0,0,0,0,0,0,0,0,0,-1,1378,1576,0,0
161,-552,0,0,0,0,0,0,0,0,0,-1,1385,1576,0,0
168,-552,0,0,0,0,0,0,0,0,0,-1,1392,1576,0,0
175,-552,0,0,0,0,0,0,0,0,0,-1,1399,1576,0,0
182,-552,0,0,0,0,0,0,0,0,0,-1,1406,1576,0,0
189,-552,0,0,0,0,0,0,0,0,0,-1,1413,1576,0,0
196,-552,0,0,0,0,0,0,0,0,0,-1,1420,1576,0,0
203,-552,0,0,0,0,0,0,0,0,0,-1,1427,1576,0,0
210,-552,0,0,0,0,0,0,0,0,0,-1,1434,1576,0,0
217,-552,0,0,0,0,0,0,0,0,0,-1,1441,1576,0,0
224,-552,0,0,0,0,0,0,0,0,0,-1,1448,1576,0,0
231,-552,0,0,0,0,0,0,0,0,0,-1,1455,1576,0,0
238,-552,0,0,0,0,0,0,0,0,0,-1,1462,1576,0,0
245,-552,0,0,0,0,0,0,0,0,0,-1,1469,1576,0,0
252,-552,0,0,0,0,0,0,0,0,0,-1,1476,1576,0,0
259,-552,0,0,0,0,0,0,0,0,0,-1,1483,1576,0,0
266,-552,0,0,0,0,0,0,0,0,0,-1,1490,1576,0,0
273,-552,0,0,0,0,0,0,0,0,0,-1,1497,1576,0,0
280,-552,0,0,0,0,0,0,0,0,0,-1,1504,1576,0,0
287,-552,0,0,0,0,0,0,0,0,0,-1,1511,1576,0,0
294,-552,0,0,0,0,0,0,0,0,0,-1,1518,1576,0,0
301,-552,0,0,0,0,0,0,0,0,0,-1,1525,1576,0,0
308,-552,0,0,0,0,0,0,0,0,0,-1,1532,1576,0,0
315,-552,0,0,0,0,0,0,0,0,0,-1,1539,1576,0,0
322,-552,0,0,0,0,0,0,0,0,0,-1,1546,1576,0,0
329,-552,0,0,0,0,0,0,0,0,0,-1,1553,1576,0,0
336,-552,0,0,0,0,0,0,0,0,0,-1,1560,1576,0,0
343,-552,0,0,0,0,0,0,0,0,0,-1,1567,1576,0,0
350,-552,5.03149,3.31958,0,0,0,0,0,0,0,-1,1574,1576,5.03152,-3.31962
357,-552,5.18469,4.10706,0,0,0,0,0,0,0,-1,1581,1576,5.1847,-4.10702
364,-552,4.6189,3.48181,0,0,0,0,0,0,0,-1,1588,1576,4.61895,-3.48178
371,-552,7.10657,5.64783,0,0,0,0,0,0,0,-1,1595,1576,7.10651,-5.64786
378,-552,6.44446,4.91492,0,0,0,0,0,0,0,-1,1602,1576,6.44448,-4.91496
385,-552,7.89954,0.97937,0,0,0,0,0,0,0,-1,1609,1576,7.89949,-0.979358
392,-552,7.74719,1.49023,0,0,0,0,0,0,0,-1,1616,1576,7.7472,-1.49022
399,-552,7.20313,2.12769,0,0,0,0,0,0,0,-1,1623,1576,7.20317,-2.12768
406,-552,8.54675,0.0908203,0,0,0,0,0,0,0,-1,1630,1576,8.54678,-0.0908183
413,-552,4.42346,4.58997,0,0,0,0,0,0,0,-1,1637,1576,4.42352,-4.59
420,-552,4.56006,4.64233,0,0,0,0,0,0,0,-1,1644,1576,4.5601,-4.64229
427,-552,4.65112,6.46997,0,0,0,0,0,0,0,-1,1651,1576,4.65116,-6.47002
434,-552,4.56677,6.00464,0,0,0,0,0,0,0,-1,1658,1576,4.56671,-6.00461
441,-552,4.72595,5.69641,0.00138524,-0.0156599,-0.0101957,0.00615128,-0.0204259,-0.437274,0.0160652,0.0456697,1665,1576,4.72595,-5.69636
448,-552,4.87952,4.97498,0.000809422,-0.0179699,-0.00492816,0.00202412,-0.0191846,-0.241664,0.0135151,0.0446492,1672,1576,4.87957,-4.97499
455,-552,4.93738,4.56433,0,0,0,0,0,0,0,-1,1679,1576,4.93737,-4.56429
462,-552,4.77466,4.70239,-0.000596199,-0.0191783,0.00309065,-9.56329e-05,-0.0196789,0.160567,0.0130875,0.037046,1686,1576,4.77465,-4.70245
469,-552,4.65784,4.7887,-0.00114694,-0.0182382,0.00549481,0.000467191,-0.0198523,0.285718,0.0133933,0.0312387,1693,1576,4.65788,-4.78866
476,-552,4.65637,4.81543,-0.00152858,-0.0174896,0.00727948,0.00129273,-0.0203109,0.369746,0.0139914,0.0152233,1700,1576,4.6564,-4.81539
483,-552,4.69226,4.73035,-0.00170921,-0.0150927,0.00814463,0.00214012,-0.0189421,0.441507,0.0133985,0.0132841,1707,1576,4.69228,-4.7303
490,-552,4.69312,4.64502,-0.00169189,-0.0124935,0.00813285,0.00267009,-0.0168555,0.492295,0.0122246,0.0137277,1714,1576,4.69313,-4.64496
497,-552,4.71777,4.57446,-0.00171201,-0.0102259,0.00710281,0.00231183,-0.0142497,0.515434,0.0103568,0.0210156,1721,1576,4.71776,-4.57449
504,-552,4.72363,4.50562,-0.00151612,-0.00749252,0.00568769,0.00192057,-0.0109292,0.543526,0.00800351,0.0216311,1728,1576,4.72368,-4.50558
511,-552,4.70166,4.39807,-0.000956746,-0.00464169,0.0037342,0.00136479,-0.00696322,0.55622,0.00515762,0.0155911,1735,1576,4.70167,-4.39809
518,-552,4.69128,4.30737,-7.67719e-05,-0.00155462,0.00192046,0.00124201,-0.0028734,0.601746,0.00243747,0.0137212,1742,1576,4.69133,-4.30742
525,-552,4.70032,4.22913,0.000809395,0.00134835,0.000296334,0.00147941,0.000678333,1.15438,0.000855118,0.013267,1749,1576,4.70034,-4.22911
532,-552,4.70703,4.13513,0.00179856,0.00550376,-0.00109054,0.0058009,0.00150142,-1.30478,0.0034766,0.0143116,1756,1576,4.70699,-4.13508
539,-552,4.66541,4.04065,0.00321017,0.0106614,-0.00248333,0.0114132,0.00245838,-1.27683,0.00693609,0.0174301,1763,1576,4.66536,-4.04068
546,-552,4.64392,3.94641,0.00505322,0.0156569,-0.00359548,0.016761,0.00394905,-1.27284,0.0101179,0.0207411,1770,1576,4.64388,-3.9464
553,-552,4.70325,3.86108,0.00706753,0.0217942,-0.00463544,0.0231317,0.00572994,-1.28987,0.0139103,0.022826,1777,1576,4.70328,-3.86103
560,-552,4.64368,3.83386,0.00942172,0.0291915,-0.00585776,0.0307968,0.00781642,-1.30332,0.018485,0.0304543,1784,1576,4.64368,-3.83381
567,-552,4.55981,3.72681,0.0120751,0.0380067,-0.0070869,0.0398171,0.0102647,-1.32069,0.0238705,0.0338449,1791,1576,4.55987,-3.7268
574,-552,4.7168,3.57166,0.0167471,0.0477549,-0.00894322,0.0501494,0.0143526,-1.30919,0.0298231,0.0437906,1798,1576,4.71674,-3.57166
581,-552,4.74377,3.40601,0,0,0,0,0,0,0,-1,1805,1576,4.74381,-3.406
588,-552,4.46997,3.48633,0,0,0,0,0,0,0,-1,1812,1576,4.47001,-3.4863
595,-552,4.63293,3.49146,0,0,0,0,0,0,0,-1,1819,1576,4.63298,-3.49146
602,-552,4.88733,3.18152,0,0,0,0,0,0,0,-1,1826,1576,4.88731,-3.18147
609,-552,5.04895,2.57019,0,0,0,0,0,0,0,-1,1833,1576,5.04901,-2.57014
616,-552,5.63306,2.13196,0,0,0,0,0,0,0,-1,1840,1576,5.63303,-2.13196
623,-552,0,0,0,0,0,0,0,0,0,-1,1847,1576,0,0
630,-552,0,0,0,0,0,0,0,0,0,-1,1854,1576,0,0
637,-552,0,0,0,0,0,0,0,0,0,-1,1861,1576,0,0
644,-552,0,0,0,0,0,0,0,0,0,-1,1868,1576,0,0
651,-552,0,0,0,0,0,0,0,0,0,-1,1875,1576,0,0
658,-552,0,0,0,0,0,0,0,0,0,-1,1882,1576,0,0
665,-552,0,0,0,0,0,0,0,0,0,-1,1889,1576,0,0
672,-552,0,0,0,0,0,0,0,0,0,-1,1896,1576,0,0
679,-552,0,0,0,0,0,0,0,0,0,-1,1903,1576,0,0
686,-552,0,0,0,0,0,0,0,0,0,-1,1910,1576,0,0
693,-552,0,0,0,0,0,0,0,0,0,-1,1917,1576,0,0
700,-552,0,0,0,0,0,0,0,0,0,-1,1924,1576,0,0
707,-552,0,0,0,0,0,0,0,0,0,-1,1931,1576,0,0
714,-552,0,0,0,0,0,0,0,0,0,-1,1938,1576,0,0
721,-552,0,0,0,0,0,0,0,0,0,-1,1945,1576,0,0
728,-552,0,0,0,0,0,0,0,0,0,-1,1952,1576,0,0
735,-552,0,0,0,0,0,0,0,0,0,-1,1959,1576,0,0
742,-552,0,0,0,0,0,0,0,0,0,-1,1966,1576,0,0
749,-552,0,0,0,0,0,0,0,0,0,-1,1973,1576,0,0
756,-552,0,0,0,0,0,0,0,0,0,-1,1980,1576,0,0
763,-552,0,0,0,0,0,0,0,0,0,-1,1987,1576,0,0
770,-552,0,0,0,0,0,0,0,0,0,-1,1994,1576,0,0
777,-552,0,0,0,0,0,0,0,0,0,-1,2001,1576,0,0
784,-552,0,0,0,0,0,0,0,0,0,-1,2008,1576,0,0
791,-552,0,0,0,0,0,0,0,0,0,-1,2015,1576,0,0
798,-552,0,0,0,0,0,0,0,0,0,-1,2022,1576,0,0
805,-552,0,0,0,0,0,0,0,0,0,-1,2029,1576,0,0
812,-552,0,0,0,0,0,0,0,0,0,-1,2036,1576,0,0
-700,-559,0,0,0,0,0,0,0,0,0,-1,524,1583,0,0
-693,-559,0,0,0,0,0,0,0,0,0,-1,531,1583,0,0
-686,-559,0,0,0,0,0,0,0,0,0,-1,538,1583,0,0
-679,-559,0,0,0,0,0,0,0,0,0,-1,545,1583,0,0
-672,-559,0,0,0,0,0,0,0,0,0,-1,552,1583,0,0
-665,-559,0,0,0,0,0,0,0,0,0,-1,559,1583,0,0
-658,-559,0,0,0,0,0,0,0,0,0,-1,566,1583,0,0
-651,-559,0,0,0,0,0,0,0,0,0,-1,573,1583,0,0
-644,-559,0,0,0,0,0,0,0,0,0,-1,580,1583,0,0
-637,-559,0,0,0,0,0,0,0,0,0,-1,587,1583,0,0
-630,-559,0,0,0,0,0,0,0,0,0,-1,594,1583,0,0
-623,-559,0,0,0,0,0,0,0,0,0,-1,601,1583,0,0
-616,-559,0,0,0,0,0,0,0,0,0,-1,608,1583,0,0
-609,-559,0,0,0,0,0,0,0,0,0,-1,615,1583,0,0
-602,-559,0,0,0,0,0,0,0,0,0,-1,622,1583,0,0
-595,-559,0,0,0,0,0,0,0,0,0,-1,629,1583,0,0
-588,-559,0,0,0,0,0,0,0,0,0,-1,636,1583,0,0
-581,-559,0,0,0,0,0,0,0,0,0,-1,643,1583,0,0
-574,-559,0,0,0,0,0,0,0,0,0,-1,650,1583,0,0
-567,-559,0,0,0,0,0,0,0,0,0,-1,657,1583,0,0
-560,-559,0,0,0,0,0,0,0,0,0,-1,664,1583,0,0
-553,-559,0,0,0,0,0,0,0,0,0,-1,671,1583,0,0
-546,-559,0,0,0,0,0,0,0,0,0,-1,678,1583,0,0
-539,-559,0,0,0,0,0,0,0,0,0,-1,685,1583,0,0
-532,-559,0,0,0,0,0,0,0,0,0,-1,692,1583,0,0
-525,-559,0,0,0,0,0,0,0,0,0,-1,699,1583,0,0
-518,-559,0,0,0,0,0,0,0,0,0,-1,706,1583,0,0
-511,-559,0,0,0,0,0,0,0,0,0,-1,713,1583,0,0
-504,-559,0,0,0,0,0,0,0,0,0,-1,720,1583,0,0
-497,-559,0,0,0,0,0,0,0,0,0,-1,727,1583,0,0
-490,-559,-4.06348,4.16235,0,0,0,0,0,0,0,-1,734,1583,-4.06348,-4.1624
-483,-559,-3.11359,4.12695,0.154718,0.148135,-0.0259194,0.177554,0.125299,-0.722244,0.105363,0.042403,741,1583,-3.1136,-4.12693
-476,-559,2.41498,1.49609,0.128119,0.134869,-0.0187822,0.150577,0.112411,-0.8743,0.0903896,0.0440407,748,1583,2.415,-1.49613
-469,-559,2.27734,1.82373,0.10205,0.118379,-0.0109719,0.123891,0.096538,-1.10527,0.0751543,0.0439758,755,1583,2.27734,-1.82371
-462,-559,1.84125,2.13037,0.0782779,0.100991,-0.00350398,0.101519,0.0777496,-1.42116,0.0613118,0.0394058,762,1583,1.84122,-2.13033
-455,-559,1.57867,2.3053,0.0588344,0.0852895,0.00252476,0.0855283,0.0585956,1.47649,0.0504951,0.0401337,769,1583,1.57866,-2.30529
-448,-559,1.50427,2.52222,0,0,0,0,0,0,0,-1,776,1583,1.50428,-2.52221
-441,-559,1.11102,3.38074,0.0303308,0.0587027,0.00901694,0.0613258,0.0277077,1.28769,0.0354613,0.0426591,783,1583,1.11101,-3.38079
-434,-559,1.25842,3.35815,0.0209842,0.0465875,0.0107755,0.0505188,0.0170528,1.22096,0.0296758,0.0325385,790,1583,1.25842,-3.35813
-427,-559,1.39252,3.30725,0.0115124,0.03419,0.0130173,0.0401144,0.00558792,1.14369,0.0250886,0.0189354,797,1583,1.39252,-3.30729
-420,-559,1.42621,3.38245,0.00643503,0.0255921,0.0127947,0.0319965,3.06461e-05,1.10671,0.0213208,0.0159121,804,1583,1.42622,-3.38247
-413,-559,1.43506,3.49963,0.00396785,0.0204784,0.0106261,0.0256791,-0.00123283,1.11564,0.0175448,0.0112151,811,1583,1.43505,-3.49965
-406,-559,1.43243,3.59778,0.0033964,0.0161047,0.00827272,0.0201819,-0.000680809,1.11289,0.0136872,0.00968914,818,1583,1.43245,-3.59778
-399,-559,1.43268,3.68799,0.00254508,0.0118704,0.00589525,0.014724,-0.000308538,1.11999,0.00992043,0.0125708,825,1583,1.43267,-3.68801
-392,-559,1.40497,3.7616,0.00176332,0.00845629,0.00388033,0.0102339,-1.42483e-05,1.14123,0.00682733,0.0163538,832,1583,1.40497,-3.76162
-385,-559,1.38739,3.85632,0.00116664,0.00622606,0.00241463,0.00719347,0.000199232,1.18973,0.00473063,0.0170064,839,1583,1.38739,-3.85635
-378,-559,1.40515,3.96167,0.000577444,0.00406148,0.00138453,0.00454467,9.42543e-05,1.23502,0.00299886,0.0152851,846,1583,1.40516,-3.96165
-371,-559,1.43762,4.07275,7.44884e-05,0.00272401,0.000517548,0.00282151,-2.30194e-05,1.38458,0.00188873,0.0217403,853,1583,1.43765,-4.07277
-364,-559,1.44299,4.16003,-0.000458516,0.00168702,-0.000266313,0.00171958,-0.000491078,-1.44913,0.00134041,0.0200158,860,1583,1.44297,-4.16002
-357,-559,1.4223,4.23279,-0.000963731,0.00115816,-0.00116254,0.0016711,-0.00147667,-1.15527,0.00181852,0.0124348,867,1583,1.42232,-4.23281
-350,-559,1.42749,4.31018,-0.00153808,0.00122562,-0.00197435,0.00225366,-0.00256612,-1.09073,0.00278465,0.0102543,874,1583,1.42749,-4.31023
-343,-559,1.42902,4.40344,-0.00228177,0.000707247,-0.00193006,0.00165378,-0.00322831,-1.11484,0.00286712,0.010823,881,1583,1.42903,-4.40338
-336,-559,1.42053,4.48669,-0.00314425,-0.000161066,-0.00132425,0.000341953,-0.00364727,-1.20778,0.00255314,0.0112005,888,1583,1.42055,-4.48669
-329,-559,1.44641,4.60474,-0.00416498,-0.00122173,-0.000335956,-0.00118387,-0.00420284,-1.45857,0.00250242,0.0143332,895,1583,1.44641,-4.60478
-322,-559,1.47968,4.74207,-0.00510963,-0.00136014,0.000677504,-0.00124148,-0.0052283,1.39741,0.00315422,0.0309429,902,1583,1.47966,-4.74209
-315,-559,1.61346,4.73523,-0.00644535,-0.00275086,0.00195055,-0.00191167,-0.00728455,1.1645,0.00436111,0.0402268,909,1583,1.61349,-4.73529
-308,-559,1.65918,4.81079,0,0,0,0,0,0,0,-1,916,1583,1.65915,-4.8108
-301,-559,1.35974,4.93433,0,0,0,0,0,0,0,-1,923,1583,1.35976,-4.93429
-294,-559,1.96228,3.9917,-0.00719387,-0.0111295,0.00841978,-0.000515023,-0.0178084,0.670601,0.0117044,0.0460178,930,1583,1.96229,-3.99172
-287,-559,1.63184,4.77844,-0.00776566,-0.0152017,0.00953511,-0.00124931,-0.021718,0.599502,0.0140807,0.0451842,937,1583,1.63185,-4.77842
-280,-559,1.26837,5.48242,-0.00661099,-0.019742,0.0112827,-0.000122556,-0.0262304,0.521893,0.0174462,0.0464327,944,1583,1.26839,-5.48238
-273,-559,0.954285,6.18457,0,0,0,0,0,0,0,-1,951,1583,0.954265,-6.18455
-266,-559,0.638977,2.06299,0,0,0,0,0,0,0,-1,958,1583,0.638957,-2.06293
-259,-559,-3.96405,-0.10498,0,0,0,0,0,0,0,-1,965,1583,-3.96405,0.105011
-252,-559,-3.54944,0.648682,0.0139626,-0.0468552,0.00864514,0.0151676,-0.0480603,0.138494,0.0381156,0.0476981,972,1583,-3.54943,-0.648683
-245,-559,-2.54486,3.08179,0.0205834,-0.0543563,0.00493357,0.0209068,-0.0546797,0.0654573,0.0450686,0.0477676,979,1583,-2.54487,-3.08173
-238,-559,-3.22314,2.91785,0,0,0,0,0,0,0,-1,986,1583,-3.22316,-2.91789
-231,-559,-2.42377,2.27722,0,0,0,0,0,0,0,-1,993,1583,-2.42378,-2.27726
-224,-559,-2.11206,2.69836,0,0,0,0,0,0,0,-1,1000,1583,-2.11204,-2.69831
-217,-559,0,0,0,0,0,0,0,0,0,-1,1007,1583,0,0
-210,-559,0,0,0,0,0,0,0,0,0,-1,1014,1583,0,0
-203,-559,0,0,0,0,0,0,0,0,0,-1,1021,1583,0,0
-196,-559,0,0,0,0,0,0,0,0,0,-1,1028,1583,0,0
-189,-559,0,0,0,0,0,0,0,0,0,-1,1035,1583,0,0
-182,-559,0,0,0,0,0,0,0,0,0,-1,1042,1583,0,0
-175,-559,0,0,0,0,0,0,0,0,0,-1,1049,1583,0,0
-168,-559,0,0,0,0,0,0,0,0,0,-1,1056,1583,0,0
-161,-559,0,0,0,0,0,0,0,0,0,-1,1063,1583,0,0
-154,-559,0,0,0,0,0,0,0,0,0,-1,1070,1583,0,0
-147,-559,0,0,0,0,0,0,0,0,0,-1,1077,1583,0,0
-140,-559,0,0,0,0,0,0,0,0,0,-1,1084,1583,0,0
-133,-559,0,0,0,0,0,0,0,0,0,-1,1091,1583,0,0
-126,-559,0,0,0,0,0,0,0,0,0,-1,1098,1583,0,0
-119,-559,0,0,0,0,0,0,0,0,0,-1,1105,1583,0,0
-112,-559,0,0,0,0,0,0,0,0,0,-1,1112,1583,0,0
-105,-559,0,0,0,0,0,0,0,0,0,-1,1119,1583,0,0
-98,-559,0,0,0,0,0,0,0,0,0,-1,1126,1583,0,0
-91,-559,0,0,0,0,0,0,0,0,0,-1,1133,1583,0,0
-84,-559,0,0,0,0,0,0,0,0,0,-1,1140,1583,0,0
-77,-559,0,0,0,0,0,0,0,0,0,-1,1147,1583,0,0
-70,-559,0,0,0,0,0,0,0,0,0,-1,1154,1583,0,0
-63,-559,0,0,0,0,0,0,0,0,0,-1,1161,1583,0,0
-56,-559,0,0,0,0,0,0,0,0,0,-1,1168,1583,0,0
-49,-559,0,0,0,0,0,0,0,0,0,-1,1175,1583,0,0
-42,-559,0,0,0,0,0,0,0,0,0,-1,1182,1583,0,0
-35,-559,0,0,0,0,0,0,0,0,0,-1,1189,1583,0,0
-28,-559,0,0,0,0,0,0,0,0,0,-1,1196,1583,0,0
-21,-559,0,0,0,0,0,0,0,0,0,-1,1203,1583,0,0
-14,-559,0,0,0,0,0,0,0,0,0,-1,1210,1583,0,0
-7,-559,0,0,0,0,0,0,0,0,0,-1,1217,1583,0,0
0,-559,0,0,0,0,0,0,0,0,0,-1,1224,1583,0,0
7,-559,0,0,0,0,0,0,0,0,0,-1,1231,1583,0,0
14,-559,0,0,0,0,0,0,0,0,0,-1,1238,1583,0,0
21,-559,0,0,0,0,0,0,0,0,0,-1,1245,1583,0,0
28,-559,0,0,0,0,0,0,0,0,0,-1,1252,1583,0,0
35,-559,0,0,0,0,0,0,0,0,0,-1,1259,1583,0,0
42,-559,0,0,0,0,0,0,0,0,0,-1,1266,1583,0,0
49,-559,0,0,0,0,0,0,0,0,0,-1,1273,1583,0,0
56,-559,0,0,0,0,0,0,0,0,0,-1,1280,1583,0,0
63,-559,0,0,0,0,0,0,0,0,0,-1,1287,1583,0,0
70,-559,0,0,0,0,0,0,0,0,0,-1,1294,1583,0,0
77,-559,0,0,0,0,0,0,0,0,0,-1,1301,1583,0,0
84,-559,0,0,0,0,0,0,0,0,0,-1,1308,1583,0,0
91,-559,0,0,0,0,0,0,0,0,0,-1,1315,1583,0,0
98,-559,0,0,0,0,0,0,0,0,0,-1,1322,1583,0,0
105,-559,0,0,0,0,0,0,0,0,0,-1,1329,1583,0,0
112,-559,0,0,0,0,0,0,0,0,0,-1,1336,1583,0,0
119,-559,0,0,0,0,0,0,0,0,0,-1,1343,1583,0,0
126,-559,0,0,0,0,0,0,0,0,0,-1,1350,1583,0,0
133,-559,0,0,0,0,0,0,0,0,0,-1,1357,1583,0,0
140,-559,0,0,0,0,0,0,0,0,0,-1,1364,1583,0,0
147,-559,0,0,0,0,0,0,0,0,0,-1,1371,1583,0,0
154,-559,0,0,0,0,0,0,0,0,0,-1,1378,1583,0,0
161,-559,0,0,0,0,0,0,0,0,0,-1,1385,1583,0,0
168,-559,0,0,0,0,0,0,0,0,0,-1,1392,1583,0,0
175,-559,0,0,0,0,0,0,0,0,0,-1,1399,1583,0,0
182,-559,0,0,0,0,0,0,0,0,0,-1,1406,1583,0,0
189,-559,0,0,0,0,0,0,0,0,0,-1,1413,1583,0,0
196,-559,0,0,0,0,0,0,0,0,0,-1,1420,1583,0,0
203,-559,0,0,0,0,0,0,0,0,0,-1,1427,1583,0,0
210,-559,0,0,0,0,0,0,0,0,0,-1,1434,1583,0,0
217,-559,0,0,0,0,0,0,0,0,0,-1,1441,1583,0,0
224,-559,0,0,0,0,0,0,0,0,0,-1,1448,1583,0,0
231,-559,0,0,0,0,0,0,0,0,0,-1,1455,1583,0,0
238,-559,0,0,0,0,0,0,0,0,0,-1,1462,1583,0,0
245,-559,0,0,0,0,0,0,0,0,0,-1,1469,1583,0,0
252,-559,0,0,0,0,0,0,0,0,0,-1,1476,1583,0,0
259,-559,0,0,0,0,0,0,0,0,0,-1,1483,1583,0,0
266,-559,0,0,0,0,0,0,0,0,0,-1,1490,1583,0,0
273,-559,0,0,0,0,0,0,0,0,0,-1,1497,1583,0,0
280,-559,0,0,0,0,0,0,0,0,0,-1,1504,1583,0,0
287,-559,0,0,0,0,0,0,0,0,0,-1,1511,1583,0,0
294,-559,0,0,0,0,0,0,0,0,0,-1,1518,1583,0,0
301,-559,0,0,0,0,0,0,0,0,0,-1,1525,1583,0,0
308,-559,0,0,0,0,0,0,0,0,0,-1,1532,1583,0,0
315,-559,0,0,0,0,0,0,0,0,0,-1,1539,1583,0,0
322,-559,0,0,0,0,0,0,0,0,0,-1,1546,1583,0,0
329,-559,0,0,0,0,0,0,0,0,0,-1,1553,1583,0,0
336,-559,5.84851,3.87512,0,0,0,0,0,0,0,-1,1560,1583,5.84849,-3.87516
343,-559,5.31299,3.53284,0,0,0,0,0,0,0,-1,1567,1583,5.31302,-3.53284
350,-559,4.92236,2.85144,0,0,0,0,0,0,0,-1,1574,1583,4.92232,-2.85148
357,-559,4.25781,3.47522,0,0,0,0,0,0,0,-1,1581,1583,4.25786,-3.47525
364,-559,3.68665,2.82471,0,0,0,0,0,0,0,-1,1588,1583,3.68662,-2.82467
371,-559,1.84436,2.52441,0,0,0,0,0,0,0,-1,1595,1583,1.84441,-2.52447
378,-559,6.34753,1.53137,0,0,0,0,0,0,0,-1,1602,1583,6.34752,-1.53139
385,-559,6.95911,1.48181,0,0,0,0,0,0,0,-1,1609,1583,6.95916,-1.48175
392,-559,7.03137,1.30005,0,0,0,0,0,0,0,-1,1616,1583,7.03137,-1.30009
399,-559,7.00757,1.10596,0,0,0,0,0,0,0,-1,1623,1583,7.00761,-1.10592
406,-559,4.74634,4.66797,0,0,0,0,0,0,0,-1,1630,1583,4.74635,-4.66794
413,-559,4.62292,4.92627,0,0,0,0,0,0,0,-1,1637,1583,4.62295,-4.92633
420,-559,4.52539,4.94055,0,0,0,0,0,0,0,-1,1644,1583,4.52534,-4.9405
427,-559,4.49158,4.94873,0,0,0,0,0,0,0,-1,1651,1583,4.4916,-4.94872
434,-559,4.53979,5.73669,0,0,0,0,0,0,0,-1,1658,1583,4.53974,-5.73667
441,-559,4.61157,5.50598,0.00145507,-0.01244,-0.00825201,0.00529474,-0.0162797,-0.435506,0.012983,0.0468214,1665,1583,4.61155,-5.50602
448,-559,4.65784,5.04443,0.00106559,-0.0139342,-0.00476975,0.00245383,-0.0153225,-0.283226,0.0111235,0.0453197,1672,1583,4.65781,-5.0444
455,-559,4.68445,4.82849,0.00059406,-0.014546,-0.00171717,0.000786375,-0.0147383,-0.111531,0.0100979,0.0374067,1679,1583,4.68442,-4.82849
462,-559,4.62231,4.87,0.000143789,-0.0144715,0.000857513,0.000193929,-0.0145216,0.0584052,0.00974638,0.02828,1686,1583,4.62236,-4.87
469,-559,4.58728,4.88623,-0.000187403,-0.0136103,0.00267255,0.000325141,-0.0141228,0.18948,0.00952543,0.0152518,1693,1583,4.58725,-4.88623
476,-559,4.58569,4.80432,-0.000412454,-0.012882,0.00410387,0.000816961,-0.0141114,0.291067,0.00969142,0.00993296,1700,1583,4.58574,-4.80434
483,-559,4.59644,4.71704,-0.000496202,-0.0109481,0.00489956,0.00144139,-0.0128857,0.376588,0.009109,0.0122592,1707,1583,4.59649,-4.7171
490,-559,4.58386,4.64636,-0.000380989,-0.00886109,0.00503315,0.00196004,-0.0112021,0.435358,0.00819988,0.0148193,1714,1583,4.58385,-4.64631
497,-559,4.59961,4.57019,-0.000316352,-0.00707979,0.00444209,0.00188478,-0.00928092,0.460054,0.00690186,0.0172641,1721,1583,4.59963,-4.57019
504,-559,4.59485,4.48743,-7.38983e-05,-0.00483844,0.00345734,0.00174245,-0.00665479,0.48373,0.00511721,0.0207273,1728,1583,4.59485,-4.48738
511,-559,4.57483,4.39294,0.000482053,-0.00228534,0.00192038,0.00146531,-0.0032686,0.47321,0.00279844,0.0189313,1735,1583,4.57481,-4.393
518,-559,4.60754,4.31104,0.00138724,0.000661737,0.000378267,0.00154858,0.000500395,0.403166,0.000912531,0.0128449,1742,1583,4.60756,-4.31109
525,-559,4.60876,4.22729,0.0023536,0.00366944,-0.00103896,0.00424128,0.00178177,-1.06765,0.0024591,0.0113866,1749,1583,4.60882,-4.22735
532,-559,4.60498,4.13428,0.00355006,0.00848004,-0.00223619,0.00934323,0.00268688,-1.20241,0.00555422,0.0130417,1756,1583,4.60496,-4.13432
539,-559,4.5907,4.06421,0.00514486,0.0147515,-0.00358698,0.015943,0.00395333,-1.25008,0.0095866,0.0173677,1763,1583,4.59066,-4.06415
546,-559,4.56372,3.97412,0.00720657,0.0211608,-0.00478473,0.0226438,0.00572356,-1.27024,0.0135957,0.0151955,1770,1583,4.56378,-3.97417
553,-559,4.65063,3.86084,0.00955683,0.0292305,-0.00601638,0.0309245,0.00786283,-1.29634,0.0185591,0.0171715,1777,1583,4.6506,-3.86087
560,-559,4.59778,3.84009,0.0123335,0.0390928,-0.00739403,0.0409999,0.0104264,-1.31836,0.0246055,0.028461,1784,1583,4.59781,-3.84012
567,-559,4.7074,3.54028,0.015511,0.0509233,-0.0087604,0.052972,0.0134624,-1.34107,0.031792,0.0364611,1791,1583,4.70739,-3.54029
574,-559,4.96521,3.30396,0,0,0,0,0,0,0,-1,1798,1583,4.96517,-3.30396
581,-559,7.17126,6.04736,0.0277106,0.0775746,-0.0134517,0.080972,0.0243133,-1.32341,0.0479764,0.0494687,1805,1583,7.17127,-6.0474
588,-559,7.03503,5.9541,0.0359493,0.0920424,-0.016752,0.0966645,0.0313272,-1.30158,0.056949,0.0479344,1812,1583,7.03504,-5.9541
595,-559,6.95142,5.87891,0,0,0,0,0,0,0,-1,1819,1583,6.95141,-5.87885
602,-559,5.28284,3.00122,0,0,0,0,0,0,0,-1,1826,1583,5.28286,-3.00121
609,-559,5.72681,0.13562,0,0,0,0,0,0,0,-1,1833,1583,5.72678,-0.135584
616,-559,0,0,0,0,0,0,0,0,0,-1,1840,1583,0,0
623,-559,0,0,0,0,0,0,0,0,0,-1,1847,1583,0,0
630,-559,0,0,0,0,0,0,0,0,0,-1,1854,1583,0,0
637,-559,0,0,0,0,0,0,0,0,0,-1,1861,1583,0,0
644,-559,0,0,0,0,0,0,0,0,0,-1,1868,1583,0,0
651,-559,0,0,0,0,0,0,0,0,0,-1,1875,1583,0,0
658,-559,0,0,0,0,0,0,0,0,0,-1,1882,1583,0,0
665,-559,0,0,0,0,0,0,0,0,0,-1,1889,1583,0,0
672,-559,0,0,0,0,0,0,0,0,0,-1,1896,1583,0,0
679,-559,0,0,0,0,0,0,0,0,0,-1,1903,1583,0,0
686,-559,0,0,0,0,0,0,0,0,0,-1,1910,1583,0,0
693,-559,0,0,0,0,0,0,0,0,0,-1,1917,1583,0,0
700,-559,0,0,0,0,0,0,0,0,0,-1,1924,1583,0,0
707,-559,0,0,0,0,0,0,0,0,0,-1,1931,1583,0,0
714,-559,0,0,0,0,0,0,0,0,0,-1,1938,1583,0,0
721,-559,0,0,0,0,0,0,0,0,0,-1,1945,1583,0,0
728,-559,0,0,0,0,0,0,0,0,0,-1,1952,1583,0,0
735,-559,0,0,0,0,0,0,0,0,0,-1,1959,1583,0,0
742,-559,0,0,0,0,0,0,0,0,0,-1,1966,1583,0,0
749,-559,0,0,0,0,0,0,0,0,0,-1,1973,1583,0,0
756,-559,0,0,0,0,0,0,0,0,0,-1,1980,1583,0,0
763,-559,0,0,0,0,0,0,0,0,0,-1,1987,1583,0,0
770,-559,0,0,0,0,0,0,0,0,0,-1,1994,1583,0,0
777,-559,0,0,0,0,0,0,0,0,0,-1,2001,1583,0,0
784,-559,0,0,0,0,0,0,0,0,0,-1,2008,1583,0,0
791,-559,0,0,0,0,0,0,0,0,0,-1,2015,1583,0,0
798,-559,0,0,0,0,0,0,0,0,0,-1,2022,1583,0,0
805,-559,0,0,0,0,0,0,0,0,0,-1,2029,1583,0,0
812,-559,0,0,0,0,0,0,0,0,0,-1,2036,1583,0,0
-700,-566,0,0,0,0,0,0,0,0,0,-1,524,1590,0,0
-693,-566,0,0,0,0,0,0,0,0,0,-1,531,1590,0,0
-686,-566,0,0,0,0,0,0,0,0,0,-1,538,1590,0,0
-679,-566,0,0,0,0,0,0,0,0,0,-1,545,1590,0,0
-672,-566,0,0,0,0,0,0,0,0,0,-1,552,1590,0,0
-665,-566,0,0,0,0,0,0,0,0,0,-1,559,1590,0,0
-658,-566,0,0,0,0,0,0,0,0,0,-1,566,1590,0,0
-651,-566,0,0,0,0,0,0,0,0,0,-1,573,1590,0,0
-644,-566,0,0,0,0,0,0,0,0,0,-1,580,1590,0,0
-637,-566,0,0,0,0,0,0,0,0,0,-1,587,1590,0,0
-630,-566,0,0,0,0,0,0,0,0,0,-1,594,1590,0,0
-623,-566,0,0,0,0,0,0,0,0,0,-1,601,1590,0,0
-616,-566,0,0,0,0,0,0,0,0,0,-1,608,1590,0,0
-609,-566,0,0,0,0,0,0,0,0,0,-1,615,1590,0,0
-602,-566,0,0,0,0,0,0,0,0,0,-1,622,1590,0,0
-595,-566,0,0,0,0,0,0,0,0,0,-1,629,1590,0,0
-588,-566,0,0,0,0,0,0,0,0,0,-1,636,1590,0,0
-581,-566,0,0,0,0,0,0,0,0,0,-1,643,1590,0,0
-574,-566,0,0,0,0,0,0,0,0,0,-1,650,1590,0,0
-567,-566,0,0,0,0,0,0,0,0,0,-1,657,1590,0,0
-560,-566,0,0,0,0,0,0,0,0,0,-1,664,1590,0,0
-553,-566,0,0,0,0,0,0,0,0,0,-1,671,1590,0,0
-546,-566,0,0,0,0,0,0,0,0,0,-1,678,1590,0,0
-539,-566,0,0,0,0,0,0,0,0,0,-1,685,1590,0,0
-532,-566,0,0,0,0,0,0,0,0,0,-1,692,1590,0,0
-525,-566,0,0,0,0,0,0,0,0,0,-1,699,1590,0,0
-518,-566,0,0,0,0,0,0,0,0,0,-1,706,1590,0,0
-511,-566,0,0,0,0,0,0,0,0,0,-1,713,1590,0,0
-504,-566,0,0,0,0,0,0,0,0,0,-1,720,1590,0,0
-497,-566,0,0,0,0,0,0,0,0,0,-1,727,1590,0,0
-490,-566,0,0,0,0,0,0,0,0,0,-1,734,1590,0,0
-483,-566,1.71027,0.468872,0.169645,0.182867,-0.0267538,0.203814,0.148697,-0.906523,0.121736,0.0427448,741,1590,1.71029,-0.468882
-476,-566,1.81305,0.534058,0.140042,0.16403,-0.0172004,0.173006,0.131067,-1.08986,0.10421,0.0423182,748,1590,1.81303,-0.533999
-469,-566,1.76654,1.05237,0.111223,0.142613,-0.00741869,0.144278,0.109558,-1.35002,0.086954,0.04361,755,1590,1.76655,-1.05235
-462,-566,1.55701,1.43176,0.0851734,0.121266,0.00142598,0.121322,0.0851172,1.53137,0.0719177,0.041959,762,1590,1.55699,-1.43178
-455,-566,1.40076,1.74512,0.0646326,0.102597,0.00843375,0.104386,0.0628434,1.36174,0.0606841,0.0408851,769,1590,1.40077,-1.74513
-448,-566,1.49792,2.25977,0.0483003,0.0862448,0.0131686,0.0903671,0.044178,1.26742,0.0521778,0.0404501,776,1590,1.49793,-2.25977
-441,-566,1.42133,3.27795,0.0351864,0.0719074,0.0156874,0.0776965,0.0293974,1.21727,0.0452984,0.043834,783,1590,1.42135,-3.27797
-434,-566,1.22687,3.43164,0,0,0,0,0,0,0,-1,790,1590,1.22685,-3.43166
-427,-566,1.38928,3.3761,0.0158815,0.0443171,0.0192749,0.0540506,0.00614794,1.10317,0.0341693,0.0403589,797,1590,1.38927,-3.3761
-420,-566,1.42346,3.43018,0.0107095,0.0345038,0.0184137,0.0445294,0.000683876,1.07221,0.0294609,0.0251946,804,1590,1.42347,-3.43018
-413,-566,1.50525,3.49731,0.00813325,0.0281244,0.0155404,0.0366062,-0.000348605,1.07119,0.0245212,0.011134,811,1590,1.50525,-3.49732
-406,-566,1.51245,3.59094,0.0072611,0.022456,0.0125302,0.0295122,0.000204948,1.05793,0.0196068,0.00804195,818,1590,1.51243,-3.59094
-399,-566,1.51538,3.68091,0.00595855,0.0169088,0.0094882,0.0223883,0.000479091,1.04708,0.0147684,0.00998027,825,1590,1.51536,-3.68092
-392,-566,1.50104,3.76453,0.00468514,0.0122171,0.00682903,0.0162498,0.00065252,1.03738,0.0106223,0.0128607,832,1590,1.50105,-3.76453
-385,-566,1.51489,3.86975,0.00364753,0.00895948,0.00485021,0.0118333,0.000773694,1.0359,0.00764404,0.0156249,839,1590,1.51489,-3.8698
-378,-566,1.52441,3.97656,0.0025735,0.00574925,0.00333864,0.00785838,0.000464364,1.00737,0.0050912,0.0152808,846,1590,1.52444,-3.97654
-371,-566,1.51044,4.05872,0.00168336,0.00359247,0.00208592,0.00493187,0.000343959,0.999985,0.00317947,0.0199806,853,1590,1.51045,-4.05873
-364,-566,1.5094,4.13916,0.000826126,0.00192125,0.00110463,0.00260658,0.000140796,1.0155,0.00169274,0.0206019,860,1590,1.50943,-4.1392
-357,-566,1.51947,4.22864,0.000131538,0.000868859,6.23351e-05,0.000874092,0.000126305,1.48705,0.000545522,0.0169943,867,1590,1.51947,-4.22868
-350,-566,1.53149,4.31458,-0.000678018,0.000568045,-0.000935476,0.00106897,-0.00117895,-1.07917,0.00129835,0.020338,874,1590,1.53147,-4.31456
-343,-566,1.52936,4.37451,-0.00149164,-5.3901e-06,-0.000942064,0.000451369,-0.00194839,-1.11934,0.00147263,0.0254714,881,1590,1.52936,-4.37446
-336,-566,1.50824,4.45715,-0.00211495,-0.000789031,-0.000313707,-0.000718555,-0.00218543,-1.34981,0.00128618,0.0235652,888,1590,1.50823,-4.45721
-329,-566,1.52106,4.56982,-0.00282613,-0.00167456,0.00063121,-0.00139597,-0.00310472,1.15515,0.00179554,0.0131317,895,1590,1.52105,-4.56984
-322,-566,1.51862,4.68201,-0.00343628,-0.00157713,0.00152466,-0.000721013,-0.0042924,1.05916,0.00265411,0.0124142,902,1590,1.5186,-4.68199
-315,-566,1.49451,4.71582,-0.0044022,-0.00272213,0.00260504,-0.000825027,-0.0062993,0.941367,0.00395332,0.0238635,909,1590,1.49451,-4.71588
-308,-566,1.54169,4.73462,-0.00572917,-0.00448166,0.0036701,-0.00138269,-0.00882815,0.869572,0.00548296,0.0337566,916,1590,1.54169,-4.7346
-301,-566,1.51123,4.88806,-0.0053943,-0.00596021,0.0059495,0.000278966,-0.0116335,0.761636,0.00785029,0.0440477,923,1590,1.51126,-4.88803
-294,-566,1.7182,4.49243,-0.00492847,-0.00993677,0.00743925,0.000416785,-0.015282,0.623048,0.0103298,0.0465583,930,1590,1.7182,-4.49241
-287,-566,1.67584,5.06458,-0.00555172,-0.0134117,0.00787539,-0.000680203,-0.0182832,0.553965,0.0119685,0.0466701,937,1590,1.67585,-5.06454
-280,-566,1.31067,5.85413,-0.00493873,-0.0172652,0.00875164,-0.00039792,-0.021806,0.478615,0.0144065,0.0446188,944,1590,1.31069,-5.85414
-273,-566,0.796753,6.61914,-0.00221172,-0.0221281,0.0078327,0.000499614,-0.0248394,0.333245,0.0167287,0.0499216,951,1590,0.796777,-6.61919
-266,-566,0.28949,7.02014,0,0,0,0,0,0,0,-1,958,1590,0.289461,-7.02015
-259,-566,-0.936768,3.77563,0,0,0,0,0,0,0,-1,965,1590,-0.936797,-3.77558
-252,-566,-0.995789,3.41382,0,0,0,0,0,0,0,-1,972,1590,-0.995764,-3.41387
-245,-566,-1.85248,3.42993,0.0124352,-0.0470579,-0.0070085,0.0132496,-0.0478723,-0.115694,0.037128,0.0479536,979,1590,-1.85251,-3.42997
-238,-566,-2.49677,3.25525,0.0160864,-0.0517736,-0.0141994,0.0189377,-0.054625,-0.198172,0.0441059,0.0461975,986,1590,-2.49675,-3.25523
-231,-566,-2.95654,3.09192,0,0,0,0,0,0,0,-1,993,1590,-2.95653,-3.09193
-224,-566,-2.21722,3.02734,0.0220822,-0.0570424,-0.0297662,0.0320296,-0.0669898,-0.322514,0.0583445,0.0494722,1000,1590,-2.21722,-3.02739
-217,-566,-1.73743,3.51868,0,0,0,0,0,0,0,-1,1007,1590,-1.73745,-3.51872
-210,-566,-1.67194,4.02258,0,0,0,0,0,0,0,-1,1014,1590,-1.67192,-4.02263
-203,-566,0,0,0,0,0,0,0,0,0,-1,1021,1590,0,0
-196,-566,0,0,0,0,0,0,0,0,0,-1,1028,1590,0,0
-189,-566,0,0,0,0,0,0,0,0,0,-1,1035,1590,0,0
-182,-566,0,0,0,0,0,0,0,0,0,-1,1042,1590,0,0
-175,-566,0,0,0,0,0,0,0,0,0,-1,1049,1590,0,0
-168,-566,0,0,0,0,0,0,0,0,0,-1,1056,1590,0,0
-161,-566,0,0,0,0,0,0,0,0,0,-1,1063,1590,0,0
-154,-566,0,0,0,0,0,0,0,0,0,-1,1070,1590,0,0
-147,-566,0,0,0,0,0,0,0,0,0,-1,1077,1590,0,0
-140,-566,0,0,0,0,0,0,0,0,0,-1,1084,1590,0,0
-133,-566,0,0,0,0,0,0,0,0,0,-1,1091,1590,0,0
-126,-566,0,0,0,0,0,0,0,0,0,-1,1098,1590,0,0
-119,-566,0,0,0,0,0,0,0,0,0,-1,1105,1590,0,0
-112,-566,0,0,0,0,0,0,0,0,0,-1,1112,1590,0,0
-105,-566,0,0,0,0,0,0,0,0,0,-1,1119,1590,0,0
-98,-566,0,0,0,0,0,0,0,0,0,-1,1126,1590,0,0
-91,-566,0,0,0,0,0,0,0,0,0,-1,1133,1590,0,0
-84,-566,0,0,0,0,0,0,0,0,0,-1,1140,1590,0,0
-77,-566,0,0,0,0,0,0,0,0,0,-1,1147,1590,0,0
-70,-566,0,0,0,0,0,0,0,0,0,-1,1154,1590,0,0
-63,-566,0,0,0,0,0,0,0,0,0,-1,1161,1590,0,0
-56,-566,0,0,0,0,0,0,0,0,0,-1,1168,1590,0,0
-49,-566,0,0,0,0,0,0,0,0,0,-1,1175,1590,0,0
-42,-566,0,0,0,0,0,0,0,0,0,-1,1182,1590,0,0
-35,-566,0,0,0,0,0,0,0,0,0,-1,1189,1590,0,0
-28,-566,0,0,0,0,0,0,0,0,0,-1,1196,1590,0,0
-21,-566,0,0,0,0,0,0,0,0,0,-1,1203,1590,0,0
-14,-566,0,0,0,0,0,0,0,0,0,-1,1210,1590,0,0
-7,-566,0,0,0,0,0,0,0,0,0,-1,1217,1590,0,0
0,-566,0,0,0,0,0,0,0,0,0,-1,1224,1590,0,0
7,-566,0,0,0,0,0,0,0,0,0,-1,1231,1590,0,0
14,-566,0,0,0,0,0,0,0,0,0,-1,1238,1590,0,0
21,-566,0,0,0,0,0,0,0,0,0,-1,1245,1590,0,0
28,-566,0,0,0,0,0,0,0,0,0,-1,1252,1590,0,0
35,-566,0,0,0,0,0,0,0,0,0,-1,1259,1590,0,0
42,-566,0,0,0,0,0,0,0,0,0,-1,1266,1590,0,0
49,-566,0,0,0,0,0,0,0,0,0,-1,1273,1590,0,0
56,-566,0,0,0,0,0,0,0,0,0,-1,1280,1590,0,0
63,-566,0,0,0,0,0,0,0,0,0,-1,1287,1590,0,0
70,-566,0,0,0,0,0,0,0,0,0,-1,1294,1590,0,0
77,-566,0,0,0,0,0,0,0,0,0,-1,1301,1590,0,0
84,-566,0,0,0,0,0,0,0,0,0,-1,1308,1590,0,0
91,-566,0,0,0,0,0,0,0,0,0,-1,1315,1590,0,0
98,-566,0,0,0,0,0,0,0,0,0,-1,1322,1590,0,0
105,-566,0,0,0,0,0,0,0,0,0,-1,1329,1590,0,0
112,-566,0,0,0,0,0,0,0,0,0,-1,1336,1590,0,0
119,-566,0,0,0,0,0,0,0,0,0,-1,1343,1590,0,0
126,-566,0,0,0,0,0,0,0,0,0,-1,1350,1590,0,0
133,-566,0,0,0,0,0,0,0,0,0,-1,1357,1590,0,0
140,-566,0,0,0,0,0,0,0,0,0,-1,1364,1590,0,0
147,-566,0,0,0,0,0,0,0,0,0,-1,1371,1590,0,0
154,-566,0,0,0,0,0,0,0,0,0,-1,1378,1590,0,0
161,-566,0,0,0,0,0,0,0,0,0,-1,1385,1590,0,0
168,-566,0,0,0,0,0,0,0,0,0,-1,1392,1590,0,0
175,-566,0,0,0,0,0,0,0,0,0,-1,1399,1590,0,0
182,-566,0,0,0,0,0,0,0,0,0,-1,1406,1590,0,0
189,-566,0,0,0,0,0,0,0,0,0,-1,1413,1590,0,0
196,-566,0,0,0,0,0,0,0,0,0,-1,1420,1590,0,0
203,-566,0,0,0,0,0,0,0,0,0,-1,1427,1590,0,0
210,-566,0,0,0,0,0,0,0,0,0,-1,1434,1590,0,0
217,-566,0,0,0,0,0,0,0,0,0,-1,1441,1590,0,0
224,-566,0,0,0,0,0,0,0,0,0,-1,1448,1590,0,0
231,-566,0,0,0,0,0,0,0,0,0,-1,1455,1590,0,0
238,-566,0,0,0,0,0,0,0,0,0,-1,1462,1590,0,0
245,-566,0,0,0,0,0,0,0,0,0,-1,1469,1590,0,0
252,-566,0,0,0,0,0,0,0,0,0,-1,1476,1590,0,0
259,-566,0,0,0,0,0,0,0,0,0,-1,1483,1590,0,0
266,-566,0,0,0,0,0,0,0,0,0,-1,1490,1590,0,0
273,-566,0,0,0,0,0,0,0,0,0,-1,1497,1590,0,0
280,-566,0,0,0,0,0,0,0,0,0,-1,1504,1590,0,0
287,-566,0,0,0,0,0,0,0,0,0,-1,1511,1590,0,0
294,-566,0,0,0,0,0,0,0,0,0,-1,1518,1590,0,0
301,-566,0,0,0,0,0,0,0,0,0,-1,1525,1590,0,0
308,-566,0,0,0,0,0,0,0,0,0,-1,1532,1590,0,0
315,-566,0,0,0,0,0,0,0,0,0,-1,1539,1590,0,0
322,-566,4.51013,3.82666,0,0,0,0,0,0,0,-1,1546,1590,4.51009,-3.82667
329,-566,4.00769,3.53735,0,0,0,0,0,0,0,-1,1553,1590,4.00772,-3.5373
336,-566,5.35486,3.97852,0,0,0,0,0,0,0,-1,1560,1590,5.35481,-3.97846
343,-566,2.61194,2.01282,0,0,0,0,0,0,0,-1,1567,1590,2.61195,-2.01279
350,-566,4.32666,2.5553,0,0,0,0,0,0,0,-1,1574,1590,4.32671,-2.55536
357,-566,3.88977,1.8053,0,0,0,0,0,0,0,-1,1581,1590,3.88981,-1.80535
364,-566,6.02234,3.74915,0,0,0,0,0,0,0,-1,1588,1590,6.02231,-3.74917
371,-566,6.11755,3.06421,0,0,0,0,0,0,0,-1,1595,1590,6.11759,-3.0642
378,-566,5.83301,2.33752,0,0,0,0,0,0,0,-1,1602,1590,5.83304,-2.33749
385,-566,5.92627,1.91211,0,0,0,0,0,0,0,-1,1609,1590,5.92622,-1.91217
392,-566,5.78638,1.82434,0,0,0,0,0,0,0,-1,1616,1590,5.78637,-1.82439
399,-566,5.36621,1.7373,0,0,0,0,0,0,0,-1,1623,1590,5.36627,-1.7373
406,-566,5.2406,1.82031,0,0,0,0,0,0,0,-1,1630,1590,5.24064,-1.82029
413,-566,4.4126,5.15576,0,0,0,0,0,0,0,-1,1637,1590,4.41256,-5.15576
420,-566,4.49231,5.15198,0.000938186,-0.00417747,-0.0121504,0.010797,-0.0140363,-0.681656,0.0143781,0.0482758,1644,1590,4.49234,-5.15202
427,-566,4.52783,5.18604,0.00131144,-0.00642169,-0.0103013,0.00844796,-0.0135582,-0.605861,0.0128189,0.0452827,1651,1590,4.52785,-5.18606
434,-566,4.68677,5.20972,0.00129541,-0.00821858,-0.00794571,0.00579926,-0.0127224,-0.515671,0.0109397,0.044947,1658,1590,4.68682,-5.20967
441,-566,4.54749,5.34949,0.00119544,-0.00957195,-0.00549153,0.00350207,-0.0118786,-0.397657,0.00930865,0.0403263,1665,1590,4.54748,-5.34954
448,-566,4.54321,5.05701,0.000938272,-0.0104402,-0.00322571,0.00178911,-0.011291,-0.257895,0.00818914,0.0316153,1672,1590,4.54318,-5.05697
455,-566,4.49512,5.03174,0.000582545,-0.0107798,-0.00127079,0.000722939,-0.0109202,-0.110031,0.00753268,0.0202409,1679,1590,4.49514,-5.03178
462,-566,4.47522,4.96033,0.000255125,-0.0106908,0.000439106,0.000272712,-0.0107084,0.0400303,0.00723152,0.0128276,1686,1590,4.47521,-4.9603
469,-566,4.48669,4.88074,5.70117e-05,-0.0100294,0.00162931,0.000313673,-0.010286,0.156243,0.00696427,0.0110852,1693,1590,4.48672,-4.88073
476,-566,4.51831,4.80261,-7.91096e-05,-0.00942992,0.00260568,0.000597961,-0.010107,0.254222,0.0069459,0.00918787,1700,1590,4.51828,-4.8026
483,-566,4.51941,4.72473,-9.11587e-05,-0.00799463,0.00314933,0.00101027,-0.00909606,0.336439,0.00642732,0.0097359,1707,1590,4.51936,-4.72478
490,-566,4.48999,4.64136,0.000120911,-0.00641188,0.00316368,0.00140184,-0.00769281,0.384712,0.00565405,0.010434,1714,1590,4.49,-4.64135
497,-566,4.50842,4.55347,0.000295846,-0.00503105,0.0026872,0.00141592,-0.00615112,0.394919,0.00464521,0.0134158,1721,1590,4.50843,-4.55353
504,-566,4.52539,4.47278,0.000647003,-0.00319552,0.00183878,0.00138513,-0.00393365,0.381732,0.00318614,0.0177999,1728,1590,4.52536,-4.47277
511,-566,4.50476,4.38049,0.00128664,-0.000796019,0.000483326,0.00139334,-0.000902718,0.217276,0.00133568,0.0182208,1735,1590,4.5048,-4.38047
518,-566,4.52271,4.31384,0.00232502,0.00219335,-0.000956195,0.00321764,0.00130072,-0.751028,0.00186903,0.0115877,1742,1590,4.52266,-4.31384
525,-566,4.52368,4.21912,0.00352345,0.00557484,-0.00228452,0.00705336,0.00204494,-0.996399,0.00419036,0.0107656,1749,1590,4.52364,-4.21915
532,-566,4.51355,4.13696,0.00510947,0.0113528,-0.00340948,0.0128538,0.00360843,-1.15608,0.00765535,0.0123758,1756,1590,4.51354,-4.13696
539,-566,4.50476,4.05811,0.0070667,0.0190782,-0.00480598,0.0207645,0.00538047,-1.23336,0.0124435,0.0155563,1763,1590,4.50479,-4.05816
546,-566,4.52161,3.94312,0.00952926,0.0273054,-0.00610194,0.0291984,0.00763626,-1.26998,0.0174851,0.0148932,1770,1590,4.52155,-3.94308
553,-566,4.55884,3.896,0.0123971,0.0377309,-0.00752072,0.0397953,0.0103327,-1.3029,0.0238443,0.0258896,1777,1590,4.55883,-3.89603
560,-566,4.5437,3.73242,0.0157623,0.0505468,-0.00904942,0.0527602,0.0135489,-1.33091,0.0316394,0.0360145,1784,1590,4.54373,-3.73244
567,-566,4.6217,3.51062,0,0,0,0,0,0,0,-1,1791,1590,4.62165,-3.51068
574,-566,6.49622,5.49988,0,0,0,0,0,0,0,-1,1798,1590,6.49617,-5.49989
581,-566,6.78699,5.12646,0.0326205,0.100178,-0.0151187,0.103407,0.0293915,-1.36038,0.0615273,0.0468243,1805,1590,6.78702,-5.12644
588,-566,6.87598,4.77185,0.0412721,0.118665,-0.0182922,0.122771,0.0371665,-1.35001,0.0726972,0.0471724,1812,1590,6.87601,-4.77184
595,-566,7.11963,4.45874,0,0,0,0,0,0,0,-1,1819,1590,7.11969,-4.45877
602,-566,5.41614,0.198242,0,0,0,0,0,0,0,-1,1826,1590,5.41619,-0.198251
609,-566,0,0,0,0,0,0,0,0,0,-1,1833,1590,0,0
616,-566,0,0,0,0,0,0,0,0,0,-1,1840,1590,0,0
623,-566,0,0,0,0,0,0,0,0,0,-1,1847,1590,0,0
630,-566,0,0,0,0,0,0,0,0,0,-1,1854,1590,0,0
637,-566,0,0,0,0,0,0,0,0,0,-1,1861,1590,0,0
644,-566,0,0,0,0,0,0,0,0,0,-1,1868,1590,0,0
651,-566,0,0,0,0,0,0,0,0,0,-1,1875,1590,0,0
658,-566,0,0,0,0,0,0,0,0,0,-1,1882,1590,0,0
665,-566,0,0,0,0,0,0,0,0,0,-1,1889,1590,0,0
672,-566,0,0,0,0,0,0,0,0,0,-1,1896,1590,0,0
679,-566,0,0,0,0,0,0,0,0,0,-1,1903,1590,0,0
686,-566,0,0,0,0,0,0,0,0,0,-1,1910,1590,0,0
693,-566,0,0,0,0,0,0,0,0,0,-1,1917,1590,0,0
700,-566,0,0,0,0,0,0,0,0,0,-1,1924,1590,0,0
707,-566,0,0,0,0,0,0,0,0,0,-1,1931,1590,0,0
714,-566,0,0,0,0,0,0,0,0,0,-1,1938,1590,0,0
721,-566,0,0,0,0,0,0,0,0,0,-1,1945,1590,0,0
728,-566,0,0,0,0,0,0,0,0,0,-1,1952,1590,0,0
735,-566,0,0,0,0,0,0,0,0,0,-1,1959,1590,0,0
742,-566,0,0,0,0,0,0,0,0,0,-1,1966,1590,0,0
749,-566,0,0,0,0,0,0,0,0,0,-1,1973,1590,0,0
756,-566,0,0,0,0,0,0,0,0,0,-1,1980,1590,0,0
763,-566,0,0,0,0,0,0,0,0,0,-1,1987,1590,0,0
770,-566,0,0,0,0,0,0,0,0,0,-1,1994,1590,0,0
777,-566,0,0,0,0,0,0,0,0,0,-1,2001,1590,0,0
784,-566,0,0,0,0,0,0,0,0,0,-1,2008,1590,0,0
791,-566,0,0,0,0,0,0,0,0,0,-1,2015,1590,0,0
798,-566,0,0,0,0,0,0,0,0,0,-1,2022,1590,0,0
805,-566,0,0,0,0,0,0,0,0,0,-1,2029,1590,0,0
812,-566,0,0,0,0,0,0,0,0,0,-1,2036,1590,0,0
-700,-573,0,0,0,0,0,0,0,0,0,-1,524,1597,0,0
-693,-573,0,0,0,0,0,0,0,0,0,-1,531,1597,0,0
-686,-573,0,0,0,0,0,0,0,0,0,-1,538,1597,0,0
-679,-573,0,0,0,0,0,0,0,0,0,-1,545,1597,0,0
-672,-573,0,0,0,0,0,0,0,0,0,-1,552,1597,0,0
-665,-573,0,0,0,0,0,0,0,0,0,-1,559,1597,0,0
-658,-573,0,0,0,0,0,0,0,0,0,-1,566,1597,0,0
-651,-573,0,0,0,0,0,0,0,0,0,-1,573,1597,0,0
-644,-573,0,0,0,0,0,0,0,0,0,-1,580,1597,0,0
-637,-573,0,0,0,0,0,0,0,0,0,-1,587,1597,0,0
-630,-573,0,0,0,0,0,0,0,0,0,-1,594,1597,0,0
-623,-573,0,0,0,0,0,0,0,0,0,-1,601,1597,0,0
-616,-573,0,0,0,0,0,0,0,0,0,-1,608,1597,0,0
-609,-573,0,0,0,0,0,0,0,0,0,-1,615,1597,0,0
-602,-573,0,0,0,0,0,0,0,0,0,-1,622,1597,0,0
-595,-573,0,0,0,0,0,0,0,0,0,-1,629,1597,0,0
-588,-573,0,0,0,0,0,0,0,0,0,-1,636,1597,0,0
-581,-573,0,0,0,0,0,0,0,0,0,-1,643,1597,0,0
-574,-573,0,0,0,0,0,0,0,0,0,-1,650,1597,0,0
-567,-573,0,0,0,0,0,0,0,0,0,-1,657,1597,0,0
-560,-573,0,0,0,0,0,0,0,0,0,-1,664,1597,0,0
-553,-573,0,0,0,0,0,0,0,0,0,-1,671,1597,0,0
-546,-573,0,0,0,0,0,0,0,0,0,-1,678,1597,0,0
-539,-573,0,0,0,0,0,0,0,0,0,-1,685,1597,0,0
-532,-573,0,0,0,0,0,0,0,0,0,-1,692,1597,0,0
-525,-573,0,0,0,0,0,0,0,0,0,-1,699,1597,0,0
-518,-573,0,0,0,0,0,0,0,0,0,-1,706,1597,0,0
-511,-573,0,0,0,0,0,0,0,0,0,-1,713,1597,0,0
-504,-573,0,0,0,0,0,0,0,0,0,-1,720,1597,0,0
-497,-573,0,0,0,0,0,0,0,0,0,-1,727,1597,0,0
-490,-573,0,0,0,0,0,0,0,0,0,-1,734,1597,0,0
-483,-573,0,0,0,0,0,0,0,0,0,-1,741,1597,0,0
-476,-573,1.38666,-0.150513,0.148369,0.193287,-0.0118581,0.196226,0.145431,-1.3279,0.117601,0.0441761,748,1597,1.38665,0.150538
-469,-573,1.26904,0.3573,0.117431,0.166391,-0.000310312,0.166393,0.117429,-1.56446,0.0987404,0.0440899,755,1597,1.26903,-0.357313
-462,-573,1.31482,0.94104,0,0,0,0,0,0,0,-1,762,1597,1.3148,-0.94102
-455,-573,1.52557,1.02234,0.0693836,0.119846,0.0172202,0.125162,0.0640673,1.27135,0.0722691,0.0487829,769,1597,1.52559,-1.02229
-448,-573,1.72845,1.63049,0.0537688,0.101701,0.022464,0.110583,0.0448866,1.19427,0.0642209,0.0451013,776,1597,1.72848,-1.63047
-441,-573,1.5976,3.27515,0.0409365,0.0861472,0.0248945,0.0971683,0.0299153,1.15402,0.0574641,0.0459907,783,1597,1.59761,-3.27512
-434,-573,1.52222,3.25269,0,0,0,0,0,0,0,-1,790,1597,1.52222,-3.2527
-427,-573,1.48419,3.42261,0.022339,0.0564487,0.0278111,0.0720179,0.00676984,1.06045,0.0459219,0.0477421,797,1597,1.48422,-3.42255
-420,-573,1.46796,3.59167,0.0173859,0.0456746,0.026058,0.0611795,0.00188098,1.03405,0.0401741,0.0395389,804,1597,1.46795,-3.59166
-413,-573,1.60968,3.47083,0.0147155,0.0379392,0.0223112,0.0514794,0.00117532,1.02533,0.0339346,0.0273246,811,1597,1.60967,-3.47086
-406,-573,1.61969,3.55457,0.0133315,0.0308067,0.0184457,0.0424797,0.00165852,1.00659,0.0277834,0.0138565,818,1597,1.6197,-3.55454
-399,-573,1.6037,3.67371,0.0113497,0.0238046,0.01448,0.0333395,0.00181483,0.988478,0.0216468,0.0110095,825,1597,1.60373,-3.6737
-392,-573,1.61011,3.77356,0.00932139,0.0176377,0.0108683,0.0251161,0.001843,0.968105,0.0161648,0.0117379,832,1597,1.61012,-3.7736
-385,-573,1.62433,3.86902,0.00752372,0.0130986,0.00805669,0.0188364,0.00178589,0.951941,0.0120067,0.0136262,839,1597,1.62432,-3.86896
-378,-573,1.62952,3.96509,0.00564342,0.00852475,0.00570671,0.0129698,0.00119833,0.90904,0.00827608,0.0149612,846,1597,1.6295,-3.96507
-371,-573,1.61536,4.04919,0.00409167,0.00529763,0.00378381,0.0085262,0.000863104,0.864413,0.00541939,0.0156096,853,1597,1.61533,-4.04915
-364,-573,1.61139,4.1438,0.00265273,0.00279747,0.00237249,0.0050987,0.000351507,0.800645,0.00328823,0.0173764,860,1597,1.61139,-4.14382
-357,-573,1.6181,4.24097,0.00158147,0.00106046,0.00102677,0.00238027,0.000261661,0.661161,0.00150722,0.0201407,867,1597,1.61809,-4.24095
-350,-573,1.63495,4.32922,0.000316951,0.000172957,-0.000318999,0.000571977,-8.20687e-05,-0.674409,0.000411412,0.0170424,874,1597,1.63495,-4.32923
-343,-573,1.64386,4.40332,-0.000677477,-0.00056018,-0.000475412,-0.000139813,-0.00109784,-0.84677,0.00069003,0.020768,881,1597,1.64383,-4.40327
-336,-573,1.61676,4.49988,-0.00103403,-0.00125305,0.000171561,-0.000940008,-0.00134707,0.501345,0.000797762,0.0161813,888,1597,1.61673,-4.49986
-329,-573,1.6073,4.60254,-0.00142111,-0.00195414,0.00106523,-0.00058956,-0.00278569,0.662816,0.00169514,0.0170053,895,1597,1.60731,-4.60249
-322,-573,1.60938,4.6759,-0.00172159,-0.00167371,0.00184676,0.000149267,-0.00354456,0.791879,0.00241434,0.0123756,902,1597,1.60936,-4.6759
-315,-573,1.64795,4.76917,-0.00235614,-0.00260092,0.00274719,0.000271388,-0.00522845,0.763137,0.00357953,0.0162208,909,1597,1.64792,-4.76922
-308,-573,1.6662,4.79175,-0.00330817,-0.00407792,0.00350762,-0.000164378,-0.00722171,0.730754,0.00476063,0.0243575,916,1597,1.6662,-4.79171
-301,-573,1.66644,4.88159,-0.00302316,-0.00534584,0.00510714,0.00105302,-0.00942202,0.673601,0.00666016,0.028966,923,1597,1.66646,-4.88153
-294,-573,1.69751,4.93787,-0.00275817,-0.00863194,0.00592394,0.000916933,-0.012307,0.555271,0.00852679,0.0346541,930,1597,1.6975,-4.93787
-287,-573,1.7475,5.02942,-0.00344272,-0.0115012,0.00575621,-0.000445659,-0.0144982,0.480043,0.0095204,0.0462228,937,1597,1.74749,-5.02939
-280,-573,2.10504,5.29089,-0.00334279,-0.0146913,0.00586215,-0.00085849,-0.0171756,0.400842,0.0111752,0.0462934,944,1597,2.10506,-5.29086
-273,-573,2.8382,5.67163,-0.00156538,-0.0188759,0.00412373,-0.00063322,-0.019808,0.222312,0.0129994,0.0483758,951,1597,2.83821,-5.67164
-266,-573,3.42639,5.96655,0,0,0,0,0,0,0,-1,958,1597,3.42639,-5.96654
-259,-573,0.0914307,3.70227,0,0,0,0,0,0,0,-1,965,1597,0.0914227,-3.70232
-252,-573,-0.425415,3.76782,0,0,0,0,0,0,0,-1,972,1597,-0.425417,-3.76787
-245,-573,-1.05585,3.71252,0.00712468,-0.0402448,-0.0141905,0.0110504,-0.0441706,-0.269894,0.0337392,0.0497792,979,1597,-1.05582,-3.71253
-238,-573,-1.68054,3.60779,0.00914198,-0.0442903,-0.0214806,0.0167066,-0.0518549,-0.338597,0.0412815,0.0453698,986,1597,-1.68052,-3.60774
-231,-573,-1.87744,3.50989,0,0,0,0,0,0,0,-1,993,1597,-1.87742,-3.50991
-224,-573,-1.83911,3.36438,0,0,0,0,0,0,0,-1,1000,1597,-1.8391,-3.36443
-217,-573,-1.82593,3.19543,0,0,0,0,0,0,0,-1,1007,1597,-1.82595,-3.19547
-210,-573,-1.07556,4.42651,0,0,0,0,0,0,0,-1,1014,1597,-1.07555,-4.42655
-203,-573,-1.47992,5.31653,0,0,0,0,0,0,0,-1,1021,1597,-1.47994,-5.31654
-196,-573,-1.89539,6.12012,0,0,0,0,0,0,0,-1,1028,1597,-1.89541,-6.12017
-189,-573,-7.85596,4.59277,0,0,0,0,0,0,0,-1,1035,1597,-7.85592,-4.59276
-182,-573,0,0,0,0,0,0,0,0,0,-1,1042,1597,0,0
-175,-573,0,0,0,0,0,0,0,0,0,-1,1049,1597,0,0
-168,-573,0,0,0,0,0,0,0,0,0,-1,1056,1597,0,0
-161,-573,0,0,0,0,0,0,0,0,0,-1,1063,1597,0,0
-154,-573,0,0,0,0,0,0,0,0,0,-1,1070,1597,0,0
-147,-573,0,0,0,0,0,0,0,0,0,-1,1077,1597,0,0
-140,-573,0,0,0,0,0,0,0,0,0,-1,1084,1597,0,0
-133,-573,0,0,0,0,0,0,0,0,0,-1,1091,1597,0,0
-126,-573,0,0,0,0,0,0,0,0,0,-1,1098,1597,0,0
-119,-573,0,0,0,0,0,0,0,0,0,-1,1105,1597,0,0
-112,-573,0,0,0,0,0,0,0,0,0,-1,1112,1597,0,0
-105,-573,0,0,0,0,0,0,0,0,0,-1,1119,1597,0,0
-98,-573,0,0,0,0,0,0,0,0,0,-1,1126,1597,0,0
-91,-573,0,0,0,0,0,0,0,0,0,-1,1133,1597,0,0
-84,-573,0,0,0,0,0,0,0,0,0,-1,1140,1597,0,0
-77,-573,0,0,0,0,0,0,0,0,0,-1,1147,1597,0,0
-70,-573,0,0,0,0,0,0,0,0,0,-1,1154,1597,0,0
-63,-573,0,0,0,0,0,0,0,0,0,-1,1161,1597,0,0
-56,-573,0,0,0,0,0,0,0,0,0,-1,1168,1597,0,0
-49,-573,0,0,0,0,0,0,0,0,0,-1,1175,1597,0,0
-42,-573,0,0,0,0,0,0,0,0,0,-1,1182,1597,0,0
-35,-573,0,0,0,0,0,0,0,0,0,-1,1189,1597,0,0
-28,-573,0,0,0,0,0,0,0,0,0,-1,1196,1597,0,0
-21,-573,0,0,0,0,0,0,0,0,0,-1,1203,1597,0,0
-14,-573,0,0,0,0,0,0,0,0,0,-1,1210,1597,0,0
-7,-573,0,0,0,0,0,0,0,0,0,-1,1217,1597,0,0
0,-573,0,0,0,0,0,0,0,0,0,-1,1224,1597,0,0
7,-573,0,0,0,0,0,0,0,0,0,-1,1231,1597,0,0
14,-573,0,0,0,0,0,0,0,0,0,-1,1238,1597,0,0
21,-573,0,0,0,0,0,0,0,0,0,-1,1245,1597,0,0
28,-573,0,0,0,0,0,0,0,0,0,-1,1252,1597,0,0
35,-573,0,0,0,0,0,0,0,0,0,-1,1259,1597,0,0
42,-573,0,0,0,0,0,0,0,0,0,-1,1266,1597,0,0
49,-573,0,0,0,0,0,0,0,0,0,-1,1273,1597,0,0
56,-573,0,0,0,0,0,0,0,0,0,-1,1280,1597,0,0
63,-573,0,0,0,0,0,0,0,0,0,-1,1287,1597,0,0
70,-573,0,0,0,0,0,0,0,0,0,-1,1294,1597,0,0
77,-573,0,0,0,0,0,0,0,0,0,-1,1301,1597,0,0
84,-573,0,0,0,0,0,0,0,0,0,-1,1308,1597,0,0
91,-573,0,0,0,0,0,0,0,0,0,-1,1315,1597,0,0
98,-573,0,0,0,0,0,0,0,0,0,-1,1322,1597,0,0
105,-573,0,0,0,0,0,0,0,0,0,-1,1329,1597,0,0
112,-573,0,0,0,0,0,0,0,0,0,-1,1336,1597,0,0
119,-573,0,0,0,0,0,0,0,0,0,-1,1343,1597,0,0
126,-573,0,0,0,0,0,0,0,0,0,-1,1350,1597,0,0
133,-573,0,0,0,0,0,0,0,0,0,-1,1357,1597,0,0
140,-573,0,0,0,0,0,0,0,0,0,-1,1364,1597,0,0
147,-573,0,0,0,0,0,0,0,0,0,-1,1371,1597,0,0
154,-573,0,0,0,0,0,0,0,0,0,-1,1378,1597,0,0
161,-573,0,0,0,0,0,0,0,0,0,-1,1385,1597,0,0
168,-573,0,0,0,0,0,0,0,0,0,-1,1392,1597,0,0
175,-573,0,0,0,0,0,0,0,0,0,-1,1399,1597,0,0
182,-573,0,0,0,0,0,0,0,0,0,-1,1406,1597,0,0
189,-573,0,0,0,0,0,0,0,0,0,-1,1413,1597,0,0
196,-573,0,0,0,0,0,0,0,0,0,-1,1420,1597,0,0
203,-573,0,0,0,0,0,0,0,0,0,-1,1427,1597,0,0
210,-573,0,0,0,0,0,0,0,0,0,-1,1434,1597,0,0
217,-573,0,0,0,0,0,0,0,0,0,-1,1441,1597,0,0
224,-573,0,0,0,0,0,0,0,0,0,-1,1448,1597,0,0
231,-573,0,0,0,0,0,0,0,0,0,-1,1455,1597,0,0
238,-573,0,0,0,0,0,0,0,0,0,-1,1462,1597,0,0
245,-573,0,0,0,0,0,0,0,0,0,-1,1469,1597,0,0
252,-573,0,0,0,0,0,0,0,0,0,-1,1476,1597,0,0
259,-573,0,0,0,0,0,0,0,0,0,-1,1483,1597,0,0
266,-573,0,0,0,0,0,0,0,0,0,-1,1490,1597,0,0
273,-573,0,0,0,0,0,0,0,0,0,-1,1497,1597,0,0
280,-573,0,0,0,0,0,0,0,0,0,-1,1504,1597,0,0
287,-573,0,0,0,0,0,0,0,0,0,-1,1511,1597,0,0
294,-573,0,0,0,0,0,0,0,0,0,-1,1518,1597,0,0
301,-573,0,0,0,0,0,0,0,0,0,-1,1525,1597,0,0
308,-573,9.99329,6.14063,0.0608795,0.0565388,0.0601767,0.118925,-0.00150671,0.767373,0.0797903,0.0485844,1532,1597,9.99331,-6.14065
315,-573,10.5015,6.63318,0.062081,0.0471597,0.0480801,0.103276,0.00596487,0.708427,0.0669509,0.0471671,1539,1597,10.5014,-6.63316
322,-573,10.9283,7.19128,0,0,0,0,0,0,0,-1,1546,1597,10.9284,-7.19132
329,-573,3.85693,2.96936,0,0,0,0,0,0,0,-1,1553,1597,3.85692,-2.96935
336,-573,3.48071,2.70703,0,0,0,0,0,0,0,-1,1560,1597,3.48069,-2.70698
343,-573,2.95447,1.73999,0,0,0,0,0,0,0,-1,1567,1597,2.95442,-1.73996
350,-573,2.53748,1.56433,0,0,0,0,0,0,0,-1,1574,1597,2.53753,-1.5643
357,-573,5.65283,4.9657,0,0,0,0,0,0,0,-1,1581,1597,5.65278,-4.9657
364,-573,5.71155,4.46289,0,0,0,0,0,0,0,-1,1588,1597,5.71158,-4.46285
371,-573,5.77588,3.82239,0,0,0,0,0,0,0,-1,1595,1597,5.77585,-3.82237
378,-573,5.27185,3.14038,0,0,0,0,0,0,0,-1,1602,1597,5.2718,-3.1404
385,-573,4.88635,2.63635,0,0,0,0,0,0,0,-1,1609,1597,4.88634,-2.63632
392,-573,4.51208,2.34631,0,0,0,0,0,0,0,-1,1616,1597,4.51213,-2.34632
399,-573,4.11182,2.06531,0,0,0,0,0,0,0,-1,1623,1597,4.11181,-2.06528
406,-573,4.29492,5.45557,0,0,0,0,0,0,0,-1,1630,1597,4.29492,-5.45551
413,-573,4.46167,5.32141,-0.000225593,-0.00249119,-0.00811454,0.00683483,-0.00955162,-0.716046,0.00950397,0.0470689,1637,1597,4.46166,-5.32144
420,-573,4.53552,5.42944,0.000392903,-0.0038521,-0.00735059,0.0059213,-0.0093805,-0.644845,0.00890942,0.047375,1644,1597,4.5355,-5.42944
427,-573,4.64355,5.43628,0.000758708,-0.00533358,-0.00618679,0.0046086,-0.00918347,-0.556639,0.00810756,0.0446436,1651,1597,4.64355,-5.43628
434,-573,4.56848,5.30762,0.000821901,-0.00631631,-0.0048862,0.0033037,-0.00879811,-0.469964,0.00722303,0.035277,1658,1597,4.56848,-5.30761
441,-573,4.43652,5.21875,0.00089533,-0.0070798,-0.00359716,0.00227808,-0.00846255,-0.366986,0.00653479,0.0234967,1665,1597,4.43648,-5.21872
448,-573,4.42688,5.12622,0.000749441,-0.0075114,-0.00227953,0.00133672,-0.00809867,-0.252146,0.00589542,0.0157552,1672,1597,4.42682,-5.12622
455,-573,4.4248,5.0387,0.000499637,-0.00769028,-0.00118701,0.000668208,-0.00785885,-0.14107,0.00547558,0.0144148,1679,1597,4.42484,-5.03868
462,-573,4.42603,4.95166,0.000288771,-0.0076195,-0.000160809,0.000292039,-0.00762276,-0.0203231,0.00518193,0.0173144,1686,1597,4.42598,-4.9516
469,-573,4.422,4.89099,0.000200523,-0.00710505,0.000513002,0.000236371,-0.0071409,0.0697642,0.00484132,0.0136812,1693,1597,4.42194,-4.89095
476,-573,4.43701,4.81201,0.000138874,-0.00661149,0.00109934,0.000313396,-0.00678601,0.157438,0.00463201,0.0124849,1700,1597,4.43703,-4.81206
483,-573,4.43237,4.7323,0.000201992,-0.00555384,0.00142166,0.000533984,-0.00588583,0.229413,0.00411345,0.0110768,1707,1597,4.43237,-4.73232
490,-573,4.41565,4.64636,0.000513552,-0.00435109,0.00133144,0.000854119,-0.00469166,0.25042,0.00344793,0.0105539,1714,1597,4.41566,-4.64639
497,-573,4.43286,4.55835,0.000802601,-0.00325367,0.000928894,0.0010052,-0.00345627,0.214745,0.0027023,0.0155624,1721,1597,4.43283,-4.5583
504,-573,4.44727,4.45776,0.001283,-0.00172915,0.000194742,0.00129554,-0.00174168,0.0642954,0.00175984,0.0168342,1728,1597,4.44728,-4.45773
511,-573,4.45154,4.35828,0.00203803,0.000580225,-0.000983651,0.00253341,8.48453e-05,-0.466534,0.00166138,0.0180931,1735,1597,4.4516,-4.35826
518,-573,4.44141,4.29199,0.0032492,0.00369134,-0.00231279,0.00579361,0.00114694,-0.833046,0.00354253,0.0138817,1742,1597,4.4414,-4.29196
525,-573,4.453,4.22229,0.00473831,0.00756851,-0.00354211,0.00996773,0.00233908,-0.975439,0.00601892,0.015788,1749,1597,4.45297,-4.22234
532,-573,4.45654,4.14966,0.00679301,0.0144401,-0.00459654,0.0165955,0.00463763,-1.13232,0.00988725,0.0143553,1756,1597,4.45655,-4.14965
539,-573,4.43555,4.0752,0.00922326,0.0237966,-0.00606868,0.0259928,0.00702708,-1.22357,0.0155256,0.015722,1763,1597,4.4356,-4.07519
546,-573,4.48535,3.98669,0.01221,0.0341096,-0.00750755,0.0364361,0.00988343,-1.27029,0.0217578,0.0236567,1770,1597,4.48532,-3.98675
553,-573,4.39136,3.82007,0.0157286,0.0472068,-0.00911716,0.0496568,0.0132786,-1.30828,0.0296853,0.0397336,1777,1597,4.39132,-3.82007
560,-573,4.47424,3.06738,0.0197838,0.0632681,-0.010781,0.0657942,0.0172576,-1.34063,0.0393912,0.0476795,1784,1597,4.47422,-3.0674
567,-573,4.50879,2.61768,0,0,0,0,0,0,0,-1,1791,1597,4.50884,-2.61773
574,-573,5.90735,4.53564,0,0,0,0,0,0,0,-1,1798,1597,5.90734,-4.53563
581,-573,6.43665,3.90137,0.0379304,0.12499,-0.0165255,0.128022,0.0348991,-1.38938,0.0764188,0.0456235,1805,1597,6.43668,-3.90131
588,-573,6.88611,3.1488,0.0467011,0.147934,-0.0193125,0.151493,0.0431419,-1.38855,0.0901252,0.0491677,1812,1597,6.88606,-3.14878
595,-573,7.22009,2.67444,0,0,0,0,0,0,0,-1,1819,1597,7.22013,-2.67441
602,-573,0,0,0,0,0,0,0,0,0,-1,1826,1597,0,0
609,-573,0,0,0,0,0,0,0,0,0,-1,1833,1597,0,0
616,-573,0,0,0,0,0,0,0,0,0,-1,1840,1597,0,0
623,-573,0,0,0,0,0,0,0,0,0,-1,1847,1597,0,0
630,-573,0,0,0,0,0,0,0,0,0,-1,1854,1597,0,0
637,-573,0,0,0,0,0,0,0,0,0,-1,1861,1597,0,0
644,-573,0,0,0,0,0,0,0,0,0,-1,1868,1597,0,0
651,-573,0,0,0,0,0,0,0,0,0,-1,1875,1597,0,0
658,-573,0,0,0,0,0,0,0,0,0,-1,1882,1597,0,0
665,-573,0,0,0,0,0,0,0,0,0,-1,1889,1597,0,0
672,-573,0,0,0,0,0,0,0,0,0,-1,1896,1597,0,0
679,-573,0,0,0,0,0,0,0,0,0,-1,1903,1597,0,0
686,-573,0,0,0,0,0,0,0,0,0,-1,1910,1597,0,0
693,-573,0,0,0,0,0,0,0,0,0,-1,1917,1597,0,0
700,-573,0,0,0,0,0,0,0,0,0,-1,1924,1597,0,0
707,-573,0,0,0,0,0,0,0,0,0,-1,1931,1597,0,0
714,-573,0,0,0,0,0,0,0,0,0,-1,1938,1597,0,0
721,-573,0,0,0,0,0,0,0,0,0,-1,1945,1597,0,0
728,-573,0,0,0,0,0,0,0,0,0,-1,1952,1597,0,0
735,-573,0,0,0,0,0,0,0,0,0,-1,1959,1597,0,0
742,-573,0,0,0,0,0,0,0,0,0,-1,1966,1597,0,0
749,-573,0,0,0,0,0,0,0,0,0,-1,1973,1597,0,0
756,-573,0,0,0,0,0,0,0,0,0,-1,1980,1597,0,0
763,-573,0,0,0,0,0,0,0,0,0,-1,1987,1597,0,0
770,-573,0,0,0,0,0,0,0,0,0,-1,1994,1597,0,0
777,-573,0,0,0,0,0,0,0,0,0,-1,2001,1597,0,0
784,-573,0,0,0,0,0,0,0,0,0,-1,2008,1597,0,0
791,-573,0,0,0,0,0,0,0,0,0,-1,2015,1597,0,0
798,-573,0,0,0,0,0,0,0,0,0,-1,2022,1597,0,0
805,-573,0,0,0,0,0,0,0,0,0,-1,2029,1597,0,0
812,-573,0,0,0,0,0,0,0,0,0,-1,2036,1597,0,0
-700,-580,0,0,0,0,0,0,0,0,0,-1,524,1604,0,0
-693,-580,0,0,0,0,0,0,0,0,0,-1,531,1604,0,0
-686,-580,0,0,0,0,0,0,0,0,0,-1,538,1604,0,0
-679,-580,0,0,0,0,0,0,0,0,0,-1,545,1604,0,0
-672,-580,0,0,0,0,0,0,0,0,0,-1,552,1604,0,0
-665,-580,0,0,0,0,0,0,0,0,0,-1,559,1604,0,0
-658,-580,0,0,0,0,0,0,0,0,0,-1,566,1604,0,0
-651,-580,0,0,0,0,0,0,0,0,0,-1,573,1604,0,0
-644,-580,0,0,0,0,0,0,0,0,0,-1,580,1604,0,0
-637,-580,0,0,0,0,0,0,0,0,0,-1,587,1604,0,0
-630,-580,0,0,0,0,0,0,0,0,0,-1,594,1604,0,0
-623,-580,0,0,0,0,0,0,0,0,0,-1,601,1604,0,0
-616,-580,0,0,0,0,0,0,0,0,0,-1,608,1604,0,0
-609,-580,0,0,0,0,0,0,0,0,0,-1,615,1604,0,0
-602,-580,0,0,0,0,0,0,0,0,0,-1,622,1604,0,0
-595,-580,0,0,0,0,0,0,0,0,0,-1,629,1604,0,0
-588,-580,0,0,0,0,0,0,0,0,0,-1,636,1604,0,0
-581,-580,0,0,0,0,0,0,0,0,0,-1,643,1604,0,0
-574,-580,0,0,0,0,0,0,0,0,0,-1,650,1604,0,0
-567,-580,0,0,0,0,0,0,0,0,0,-1,657,1604,0,0
-560,-580,0,0,0,0,0,0,0,0,0,-1,664,1604,0,0
-553,-580,0,0,0,0,0,0,0,0,0,-1,671,1604,0,0
-546,-580,0,0,0,0,0,0,0,0,0,-1,678,1604,0,0
-539,-580,0,0,0,0,0,0,0,0,0,-1,685,1604,0,0
-532,-580,0,0,0,0,0,0,0,0,0,-1,692,1604,0,0
-525,-580,0,0,0,0,0,0,0,0,0,-1,699,1604,0,0
-518,-580,0,0,0,0,0,0,0,0,0,-1,706,1604,0,0
-511,-580,0,0,0,0,0,0,0,0,0,-1,713,1604,0,0
-504,-580,0,0,0,0,0,0,0,0,0,-1,720,1604,0,0
-497,-580,0,0,0,0,0,0,0,0,0,-1,727,1604,0,0
-490,-580,0,0,0,0,0,0,0,0,0,-1,734,1604,0,0
-483,-580,0,0,0,0,0,0,0,0,0,-1,741,1604,0,0
-476,-580,0,0,0,0,0,0,0,0,0,-1,748,1604,0,0
-469,-580,0.491333,-0.762451,0,0,0,0,0,0,0,-1,755,1604,0.491352,0.762397
-462,-580,1.01489,-1.31738,0,0,0,0,0,0,0,-1,762,1604,1.01492,1.31744
-455,-580,1.39557,0.217651,0.0725588,0.136434,0.0286626,0.14741,0.061583,1.20509,0.0854897,0.0494403,769,1604,1.39556,-0.217667
-448,-580,1.67133,1.24158,0.0597474,0.117395,0.0342677,0.13335,0.0437931,1.13506,0.0784862,0.0460885,776,1604,1.67131,-1.24162
-441,-580,1.51154,3.28979,0,0,0,0,0,0,0,-1,783,1604,1.51156,-3.28974
-434,-580,1.78271,2.07385,0,0,0,0,0,0,0,-1,790,1604,1.78269,-2.0738
-427,-580,1.53925,3.46167,0,0,0,0,0,0,0,-1,797,1604,1.53924,-3.46164
-420,-580,1.56769,2.81384,0.0281027,0.0592744,0.0356393,0.0825869,0.00479018,0.991529,0.0535327,0.0451532,804,1604,1.56771,-2.81387
-413,-580,1.77118,3.06714,0.0251409,0.050162,0.0309857,0.0710674,0.00423553,0.977267,0.0460314,0.0431379,811,1604,1.77117,-3.0671
-406,-580,1.82941,3.46838,0.0228745,0.0414372,0.0261882,0.0599401,0.00437164,0.955697,0.0385855,0.0343651,818,1604,1.82938,-3.46838
-399,-580,1.71417,3.67139,0.0198404,0.0328905,0.0211879,0.0485353,0.00419554,0.934771,0.031053,0.0156337,825,1604,1.71416,-3.6714
-392,-580,1.69666,3.78113,0.016618,0.025111,0.0164924,0.0378948,0.00383422,0.911402,0.0240871,0.0119026,832,1604,1.69668,-3.78109
-385,-580,1.71484,3.86731,0.0135095,0.0190454,0.012658,0.0292346,0.00332036,0.89304,0.0184826,0.0125351,839,1604,1.71481,-3.8673
-378,-580,1.69897,3.96899,0.0102348,0.0127835,0.00919009,0.0207872,0.00223112,0.854293,0.0131775,0.0153999,846,1604,1.69897,-3.96902
-371,-580,1.68768,4.08398,0.0075302,0.00819651,0.00632853,0.0142006,0.00152606,0.811696,0.00900164,0.0136903,853,1604,1.68769,-4.08404
-364,-580,1.68768,4.18787,0.00509274,0.00460601,0.00418878,0.00904522,0.000653537,0.756381,0.00582454,0.0181574,860,1604,1.6877,-4.18785
-357,-580,1.70514,4.24524,0.00335443,0.00197118,0.00228643,0.00505155,0.000274057,0.638527,0.00328017,0.0133391,867,1604,1.70512,-4.24518
-350,-580,1.73511,4.3418,0.00146374,0.000309108,0.000411444,0.00159535,0.000177495,0.309594,0.00100962,0.0110387,874,1604,1.73509,-4.34185
-343,-580,1.73132,4.42224,5.44711e-06,-0.000830366,-0.000164708,3.67337e-05,-0.000861653,-0.187716,0.000587063,0.0111837,881,1604,1.73134,-4.42223
-336,-580,1.71899,4.48157,-0.000225041,-0.00157417,0.000318447,-0.000153653,-0.00164556,0.22053,0.00104958,0.0188481,888,1604,1.71898,-4.48153
-329,-580,1.72345,4.60339,-0.00024382,-0.0020901,0.0011147,0.000280361,-0.00261429,0.439561,0.00184343,0.0173757,895,1604,1.72345,-4.60342
-322,-580,1.70074,4.69873,-0.000217003,-0.00167363,0.00177976,0.000977696,-0.00286833,0.591183,0.0023082,0.0182531,902,1604,1.70074,-4.69868
-315,-580,1.71259,4.79041,-0.000539294,-0.00239947,0.00252452,0.00122102,-0.00415979,0.608903,0.0032574,0.0150571,909,1604,1.71256,-4.79044
-308,-580,1.74323,4.87769,-0.0011809,-0.00357929,0.00304317,0.000890829,-0.00565103,0.59771,0.00409671,0.016741,916,1604,1.74324,-4.87765
-301,-580,1.76288,4.9137,-0.0009945,-0.00462639,0.00405032,0.00162834,-0.00724923,0.574659,0.00545718,0.0149454,923,1604,1.76285,-4.91374
-294,-580,1.74377,4.96399,-0.000946921,-0.00725603,0.00434734,0.0012698,-0.00947274,0.471538,0.00677819,0.0185231,930,1604,1.7438,-4.96404
-287,-580,1.78229,5.05688,-0.00168869,-0.00958036,0.0038275,-0.000137311,-0.0111317,0.385088,0.00737581,0.0369775,937,1604,1.78229,-5.05691
-280,-580,2.24622,5.16785,-0.00198979,-0.0121744,0.00337153,-0.000974816,-0.0131893,0.292412,0.00848663,0.0416786,944,1604,2.24624,-5.16781
-273,-580,2.71631,5.34009,-0.00102266,-0.0157025,0.00118069,-0.0009283,-0.0157968,0.0797462,0.0102358,0.0449588,951,1604,2.71629,-5.34005
-266,-580,3.1474,5.50171,0,0,0,0,0,0,0,-1,958,1604,3.14743,-5.50165
-259,-580,0.749695,4.28833,0.00133897,-0.0241859,-0.00654298,0.00291845,-0.0257654,-0.236868,0.0182278,0.0487354,965,1604,0.7497,-4.28838
-252,-580,0.240173,4.32397,0.00245486,-0.0296104,-0.0113523,0.00606705,-0.0332226,-0.308062,0.0244232,0.04713,972,1604,0.240185,-4.32396
-245,-580,-0.214783,4.19116,0.00374024,-0.0338561,-0.0176716,0.0107424,-0.0408582,-0.377258,0.0314375,0.0471321,979,1604,-0.214788,-4.19116
-238,-580,-0.765564,4.04517,0.00483984,-0.0372241,-0.0245496,0.0161347,-0.048519,-0.431208,0.0388574,0.0487342,986,1604,-0.765544,-4.04513
-231,-580,-1.24652,4.13953,0,0,0,0,0,0,0,-1,993,1604,-1.24652,-4.13959
-224,-580,-1.19916,3.94165,0.00534708,-0.0398919,-0.0398285,0.028531,-0.0630758,-0.527149,0.0541282,0.0437421,1000,1604,-1.19914,-3.94167
-217,-580,-1.04138,2.79211,0.00358073,-0.0427696,-0.046952,0.0327656,-0.0719545,-0.556144,0.0618553,0.0444968,1007,1604,-1.04137,-2.79213
-210,-580,-0.873047,1.6731,0,0,0,0,0,0,0,-1,1014,1604,-0.873061,-1.67304
-203,-580,-0.689026,5.69116,0,0,0,0,0,0,0,-1,1021,1604,-0.689008,-5.69111
-196,-580,-1.49109,6.26843,0,0,0,0,0,0,0,-1,1028,1604,-1.49107,-6.26848
-189,-580,-1.93628,4.37598,0,0,0,0,0,0,0,-1,1035,1604,-1.93625,-4.37596
-182,-580,0.092041,2.43054,0,0,0,0,0,0,0,-1,1042,1604,0.0920498,-2.4305
-175,-580,-4.32947,7.29187,0,0,0,0,0,0,0,-1,1049,1604,-4.32952,-7.29182
-168,-580,0,0,0,0,0,0,0,0,0,-1,1056,1604,0,0
-161,-580,0,0,0,0,0,0,0,0,0,-1,1063,1604,0,0
-154,-580,0,0,0,0,0,0,0,0,0,-1,1070,1604,0,0
-147,-580,0,0,0,0,0,0,0,0,0,-1,1077,1604,0,0
-140,-580,0,0,0,0,0,0,0,0,0,-1,1084,1604,0,0
-133,-580,0,0,0,0,0,0,0,0,0,-1,1091,1604,0,0
-126,-580,0,0,0,0,0,0,0,0,0,-1,1098,1604,0,0
-119,-580,0,0,0,0,0,0,0,0,0,-1,1105,1604,0,0
-112,-580,0,0,0,0,0,0,0,0,0,-1,1112,1604,0,0
-105,-580,0,0,0,0,0,0,0,0,0,-1,1119,1604,0,0
-98,-580,0,0,0,0,0,0,0,0,0,-1,1126,1604,0,0
-91,-580,0,0,0,0,0,0,0,0,0,-1,1133,1604,0,0
-84,-580,0,0,0,0,0,0,0,0,0,-1,1140,1604,0,0
-77,-580,0,0,0,0,0,0,0,0,0,-1,1147,1604,0,0
-70,-580,0,0,0,0,0,0,0,0,0,-1,1154,1604,0,0
-63,-580,0,0,0,0,0,0,0,0,0,-1,1161,1604,0,0
-56,-580,0,0,0,0,0,0,0,0,0,-1,1168,1604,0,0
-49,-580,0,0,0,0,0,0,0,0,0,-1,1175,1604,0,0
-42,-580,0,0,0,0,0,0,0,0,0,-1,1182,1604,0,0
-35,-580,0,0,0,0,0,0,0,0,0,-1,1189,1604,0,0
-28,-580,0,0,0,0,0,0,0,0,0,-1,1196,1604,0,0
-21,-580,0,0,0,0,0,0,0,0,0,-1,1203,1604,0,0
-14,-580,0,0,0,0,0,0,0,0,0,-1,1210,1604,0,0
-7,-580,0,0,0,0,0,0,0,0,0,-1,1217,1604,0,0
0,-580,0,0,0,0,0,0,0,0,0,-1,1224,1604,0,0
7,-580,0,0,0,0,0,0,0,0,0,-1,1231,1604,0,0
14,-580,0,0,0,0,0,0,0,0,0,-1,1238,1604,0,0
21,-580,0,0,0,0,0,0,0,0,0,-1,1245,1604,0,0
28,-580,0,0,0,0,0,0,0,0,0,-1,1252,1604,0,0
35,-580,0,0,0,0,0,0,0,0,0,-1,1259,1604,0,0
42,-580,0,0,0,0,0,0,0,0,0,-1,1266,1604,0,0
49,-580,0,0,0,0,0,0,0,0,0,-1,1273,1604,0,0
56,-580,0,0,0,0,0,0,0,0,0,-1,1280,1604,0,0
63,-580,0,0,0,0,0,0,0,0,0,-1,1287,1604,0,0
70,-580,0,0,0,0,0,0,0,0,0,-1,1294,1604,0,0
77,-580,0,0,0,0,0,0,0,0,0,-1,1301,1604,0,0
84,-580,0,0,0,0,0,0,0,0,0,-1,1308,1604,0,0
91,-580,0,0,0,0,0,0,0,0,0,-1,1315,1604,0,0
98,-580,0,0,0,0,0,0,0,0,0,-1,1322,1604,0,0
105,-580,0,0,0,0,0,0,0,0,0,-1,1329,1604,0,0
112,-580,0,0,0,0,0,0,0,0,0,-1,1336,1604,0,0
119,-580,0,0,0,0,0,0,0,0,0,-1,1343,1604,0,0
126,-580,0,0,0,0,0,0,0,0,0,-1,1350,1604,0,0
133,-580,0,0,0,0,0,0,0,0,0,-1,1357,1604,0,0
140,-580,0,0,0,0,0,0,0,0,0,-1,1364,1604,0,0
147,-580,0,0,0,0,0,0,0,0,0,-1,1371,1604,0,0
154,-580,0,0,0,0,0,0,0,0,0,-1,1378,1604,0,0
161,-580,0,0,0,0,0,0,0,0,0,-1,1385,1604,0,0
168,-580,0,0,0,0,0,0,0,0,0,-1,1392,1604,0,0
175,-580,0,0,0,0,0,0,0,0,0,-1,1399,1604,0,0
182,-580,0,0,0,0,0,0,0,0,0,-1,1406,1604,0,0
189,-580,0,0,0,0,0,0,0,0,0,-1,1413,1604,0,0
196,-580,0,0,0,0,0,0,0,0,0,-1,1420,1604,0,0
203,-580,0,0,0,0,0,0,0,0,0,-1,1427,1604,0,0
210,-580,0,0,0,0,0,0,0,0,0,-1,1434,1604,0,0
217,-580,0,0,0,0,0,0,0,0,0,-1,1441,1604,0,0
224,-580,0,0,0,0,0,0,0,0,0,-1,1448,1604,0,0
231,-580,0,0,0,0,0,0,0,0,0,-1,1455,1604,0,0
238,-580,0,0,0,0,0,0,0,0,0,-1,1462,1604,0,0
245,-580,0,0,0,0,0,0,0,0,0,-1,1469,1604,0,0
252,-580,0,0,0,0,0,0,0,0,0,-1,1476,1604,0,0
259,-580,0,0,0,0,0,0,0,0,0,-1,1483,1604,0,0
266,-580,0,0,0,0,0,0,0,0,0,-1,1490,1604,0,0
273,-580,0,0,0,0,0,0,0,0,0,-1,1497,1604,0,0
280,-580,0,0,0,0,0,0,0,0,0,-1,1504,1604,0,0
287,-580,0,0,0,0,0,0,0,0,0,-1,1511,1604,0,0
294,-580,8.77917,4.84204,0.0607668,0.066984,0.089688,0.153617,-0.0258664,0.802721,0.112033,0.0436909,1518,1604,8.77922,-4.8421
301,-580,8.99487,5.42151,0.0587161,0.0585496,0.0746543,0.133287,-0.0160215,0.78484,0.0946517,0.0452862,1525,1604,8.99489,-5.42157
308,-580,9.73975,6.01636,0.0555831,0.0511028,0.0609979,0.114382,-0.00769614,0.767044,0.0789452,0.0462272,1532,1604,9.73977,-6.01638
315,-580,10.2202,6.43823,0.0524564,0.0440289,0.0494617,0.0978835,-0.00139822,0.742905,0.0657267,0.046768,1539,1604,10.2202,-6.43819
322,-580,10.4541,7.13403,0,0,0,0,0,0,0,-1,1546,1604,10.4542,-7.13405
329,-580,0.267578,0.470947,0,0,0,0,0,0,0,-1,1553,1604,0.267614,-0.470913
336,-580,3.77295,1.65588,0,0,0,0,0,0,0,-1,1560,1604,3.773,-1.65591
343,-580,3.32227,1.39636,0,0,0,0,0,0,0,-1,1567,1604,3.32222,-1.39633
350,-580,4.94385,6.86743,0,0,0,0,0,0,0,-1,1574,1604,4.94381,-6.86746
357,-580,5.29883,6.35071,0,0,0,0,0,0,0,-1,1581,1604,5.29885,-6.35068
364,-580,5.51477,5.58728,0,0,0,0,0,0,0,-1,1588,1604,5.51474,-5.58723
371,-580,5.3772,4.65515,0,0,0,0,0,0,0,-1,1595,1604,5.37717,-4.65515
378,-580,4.89954,4.14734,0,0,0,0,0,0,0,-1,1602,1604,4.89954,-4.14732
385,-580,4.72644,3.9845,0,0,0,0,0,0,0,-1,1609,1604,4.72647,-3.98454
392,-580,4.37585,3.84021,0,0,0,0,0,0,0,-1,1616,1604,4.3758,-3.84022
399,-580,4.68054,5.60669,0,0,0,0,0,0,0,-1,1623,1604,4.68053,-5.60669
406,-580,4.35828,5.6217,-0.00157187,-0.00125845,-0.00462885,0.00321634,-0.00604666,-0.802319,0.00543057,0.0415266,1630,1604,4.35829,-5.62165
413,-580,4.45325,5.4563,-0.000677528,-0.00231642,-0.00432751,0.00290744,-0.00590139,-0.691827,0.00518277,0.0465114,1637,1604,4.45321,-5.45632
420,-580,4.34216,5.72717,-7.79192e-05,-0.00319233,-0.00396279,0.00262265,-0.00589289,-0.598189,0.00503585,0.0432633,1644,1604,4.34222,-5.72716
427,-580,4.45789,5.35986,0.000278283,-0.00418567,-0.0033124,0.00204052,-0.00594791,-0.488927,0.0047925,0.0338697,1651,1604,4.45788,-5.35985
434,-580,4.37097,5.23596,0.000453776,-0.0046508,-0.0027008,0.00161747,-0.00581449,-0.406831,0.00451315,0.0222835,1658,1604,4.371,-5.23601
441,-580,4.31616,5.17371,0.000732585,-0.00501682,-0.00214136,0.00144248,-0.00572671,-0.320114,0.00437857,0.0112037,1665,1604,4.31613,-5.17369
448,-580,4.34265,5.10083,0.000713428,-0.00514617,-0.0014575,0.00105594,-0.00548868,-0.230812,0.00405716,0.0110689,1672,1604,4.3426,-5.10085
455,-580,4.39111,5.02246,0.000559931,-0.00519719,-0.000938919,0.000709188,-0.00534644,-0.157648,0.00382268,0.018556,1679,1604,4.39106,-5.02245
462,-580,4.35083,4.95251,0.00044852,-0.0051132,-0.000394458,0.000476357,-0.00514104,-0.0704537,0.00359667,0.0227485,1686,1604,4.3508,-4.95257
469,-580,4.34033,4.89111,0.000446433,-0.0046808,-0.000107013,0.000448666,-0.00468303,-0.0208593,0.00328182,0.0186243,1693,1604,4.3403,-4.89108
476,-580,4.35522,4.80798,0.000427328,-0.00425234,0.000169264,0.000433442,-0.00425846,0.0361072,0.00299393,0.0138671,1700,1604,4.35522,-4.80802
483,-580,4.3479,4.71973,0.000522628,-0.00346545,0.000293785,0.000544154,-0.00348698,0.0731396,0.00252565,0.0127064,1707,1604,4.34793,-4.71977
490,-580,4.32898,4.63977,0.000872435,-0.00253403,7.62422e-05,0.000874141,-0.00253574,0.0223667,0.00204512,0.0148785,1714,1604,4.32903,-4.63974
497,-580,4.3241,4.56897,0.00120769,-0.00161948,-0.000345288,0.00124925,-0.00166104,-0.119787,0.00168585,0.011523,1721,1604,4.32404,-4.56896
504,-580,4.34705,4.45862,0.00176537,-0.00032394,-0.00106876,0.00221523,-0.00077379,-0.398401,0.00179135,0.0155164,1728,1604,4.347,-4.45859
511,-580,4.35205,4.3927,0.00260238,0.00195353,-0.00218198,0.00448393,7.19824e-05,-0.711596,0.00296558,0.0168036,1735,1604,4.35208,-4.39266
518,-580,4.36365,4.30713,0.00398305,0.00525357,-0.00349688,0.00817242,0.0010642,-0.875251,0.00513047,0.0160374,1742,1604,4.36359,-4.30719
525,-580,4.36084,4.22778,0.00580165,0.00972814,-0.00471108,0.0128687,0.00266111,-0.98282,0.00784402,0.0173302,1749,1604,4.36088,-4.22784
532,-580,4.36035,4.15186,0.00840553,0.0177878,-0.00575246,0.0205194,0.00567389,-1.12746,0.012235,0.0177879,1756,1604,4.36037,-4.15186
539,-580,4.36218,4.0874,0.0114423,0.028866,-0.00736646,0.031563,0.0087453,-1.21984,0.0188169,0.0219631,1763,1604,4.36223,-4.08741
546,-580,4.49316,3.92847,0.0151663,0.0413619,-0.00896488,0.0441362,0.012392,-1.27069,0.0262858,0.0373635,1770,1604,4.49316,-3.92848
553,-580,4.67224,3.65234,0.0195845,0.0572412,-0.0107179,0.0600781,0.0167476,-1.31205,0.0358,0.0459333,1777,1604,4.67222,-3.65231
560,-580,4.91077,3.51819,0,0,0,0,0,0,0,-1,1784,1604,4.9108,-3.51817
567,-580,5.23242,3.72107,0.0295839,0.0993455,-0.0140855,0.102082,0.0268473,-1.3789,0.0611043,0.0486765,1791,1604,5.2324,-3.72108
574,-580,5.71216,3.22583,0.0356917,0.124667,-0.0155506,0.127306,0.0330521,-1.40266,0.0762789,0.0446319,1798,1604,5.71216,-3.22586
581,-580,6.11584,2.69312,0.0428734,0.151669,-0.0173113,0.154357,0.0401853,-1.41675,0.0924674,0.0428114,1805,1604,6.11586,-2.69309
588,-580,6.44702,2.30176,0,0,0,0,0,0,0,-1,1812,1604,6.44701,-2.30176
595,-580,0,0,0,0,0,0,0,0,0,-1,1819,1604,0,0
602,-580,0,0,0,0,0,0,0,0,0,-1,1826,1604,0,0
609,-580,0,0,0,0,0,0,0,0,0,-1,1833,1604,0,0
616,-580,0,0,0,0,0,0,0,0,0,-1,1840,1604,0,0
623,-580,0,0,0,0,0,0,0,0,0,-1,1847,1604,0,0
630,-580,0,0,0,0,0,0,0,0,0,-1,1854,1604,0,0
637,-580,0,0,0,0,0,0,0,0,0,-1,1861,1604,0,0
644,-580,0,0,0,0,0,0,0,0,0,-1,1868,1604,0,0
651,-580,0,0,0,0,0,0,0,0,0,-1,1875,1604,0,0
658,-580,0,0,0,0,0,0,0,0,0,-1,1882,1604,0,0
665,-580,0,0,0,0,0,0,0,0,0,-1,1889,1604,0,0
672,-580,0,0,0,0,0,0,0,0,0,-1,1896,1604,0,0
679,-580,0,0,0,0,0,0,0,0,0,-1,1903,1604,0,0
686,-580,0,0,0,0,0,0,0,0,0,-1,1910,1604,0,0
693,-580,0,0,0,0,0,0,0,0,0,-1,1917,1604,0,0
700,-580,0,0,0,0,0,0,0,0,0,-1,1924,1604,0,0
707,-580,0,0,0,0,0,0,0,0,0,-1,1931,1604,0,0
714,-580,0,0,0,0,0,0,0,0,0,-1,1938,1604,0,0
721,-580,0,0,0,0,0,0,0,0,0,-1,1945,1604,0,0
728,-580,0,0,0,0,0,0,0,0,0,-1,1952,1604,0,0
735,-580,0,0,0,0,0,0,0,0,0,-1,1959,1604,0,0
742,-580,0,0,0,0,0,0,0,0,0,-1,1966,1604,0,0
749,-580,0,0,0,0,0,0,0,0,0,-1,1973,1604,0,0
756,-580,0,0,0,0,0,0,0,0,0,-1,1980,1604,0,0
763,-580,0,0,0,0,0,0,0,0,0,-1,1987,1604,0,0
770,-580,0,0,0,0,0,0,0,0,0,-1,1994,1604,0,0
777,-580,0,0,0,0,0,0,0,0,0,-1,2001,1604,0,0
784,-580,0,0,0,0,0,0,0,0,0,-1,2008,1604,0,0
791,-580,0,0,0,0,0,0,0,0,0,-1,2015,1604,0,0
798,-580,0,0,0,0,0,0,0,0,0,-1,2022,1604,0,0
805,-580,0,0,0,0,0,0,0,0,0,-1,2029,1604,0,0
812,-580,0,0,0,0,0,0,0,0,0,-1,2036,1604,0,0
-700,-587,0,0,0,0,0,0,0,0,0,-1,524,1611,0,0
-693,-587,0,0,0,0,0,0,0,0,0,-1,531,1611,0,0
-686,-587,0,0,0,0,0,0,0,0,0,-1,538,1611,0,0
-679,-587,0,0,0,0,0,0,0,0,0,-1,545,1611,0,0
-672,-587,0,0,0,0,0,0,0,0,0,-1,552,1611,0,0
-665,-587,0,0,0,0,0,0,0,0,0,-1,559,1611,0,0
-658,-587,0,0,0,0,0,0,0,0,0,-1,566,1611,0,0
-651,-587,0,0,0,0,0,0,0,0,0,-1,573,1611,0,0
-644,-587,0,0,0,0,0,0,0,0,0,-1,580,1611,0,0
-637,-587,0,0,0,0,0,0,0,0,0,-1,587,1611,0,0
-630,-587,0,0,0,0,0,0,0,0,0,-1,594,1611,0,0
-623,-587,0,0,0,0,0,0,0,0,0,-1,601,1611,0,0
-616,-587,0,0,0,0,0,0,0,0,0,-1,608,1611,0,0
-609,-587,0,0,0,0,0,0,0,0,0,-1,615,1611,0,0
-602,-587,0,0,0,0,0,0,0,0,0,-1,622,1611,0,0
-595,-587,0,0,0,0,0,0,0,0,0,-1,629,1611,0,0
-588,-587,0,0,0,0,0,0,0,0,0,-1,636,1611,0,0
-581,-587,0,0,0,0,0,0,0,0,0,-1,643,1611,0,0
-574,-587,0,0,0,0,0,0,0,0,0,-1,650,1611,0,0
-567,-587,0,0,0,0,0,0,0,0,0,-1,657,1611,0,0
-560,-587,0,0,0,0,0,0,0,0,0,-1,664,1611,0,0
-553,-587,0,0,0,0,0,0,0,0,0,-1,671,1611,0,0
-546,-587,0,0,0,0,0,0,0,0,0,-1,678,1611,0,0
-539,-587,0,0,0,0,0,0,0,0,0,-1,685,1611,0,0
-532,-587,0,0,0,0,0,0,0,0,0,-1,692,1611,0,0
-525,-587,0,0,0,0,0,0,0,0,0,-1,699,1611,0,0
-518,-587,0,0,0,0,0,0,0,0,0,-1,706,1611,0,0
-511,-587,0,0,0,0,0,0,0,0,0,-1,713,1611,0,0
-504,-587,0,0,0,0,0,0,0,0,0,-1,720,1611,0,0
-497,-587,0,0,0,0,0,0,0,0,0,-1,727,1611,0,0
-490,-587,0,0,0,0,0,0,0,0,0,-1,734,1611,0,0
-483,-587,0,0,0,0,0,0,0,0,0,-1,741,1611,0,0
-476,-587,0,0,0,0,0,0,0,0,0,-1,748,1611,0,0
-469,-587,0,0,0,0,0,0,0,0,0,-1,755,1611,0,0
-462,-587,0.934937,-2.1217,0,0,0,0,0,0,0,-1,762,1611,0.934911,2.12173
-455,-587,1.3606,-0.445435,0.0746478,0.151208,0.0432833,0.17071,0.0551454,1.14746,0.100596,0.0447606,769,1611,1.36059,0.445403
-448,-587,1.789,1.24255,0.0663933,0.132441,0.0489191,0.15844,0.0403947,1.0823,0.0950666,0.0446033,776,1611,1.78897,-1.2426
-441,-587,1.65021,1.17896,0.0584813,0.116966,0.0507953,0.146335,0.0291125,1.04658,0.0894461,0.0499648,783,1611,1.65024,-1.17893
-434,-587,1.78607,1.48035,0.0528623,0.102869,0.0512504,0.13489,0.0208413,1.01234,0.0838474,0.0488636,790,1611,1.78608,-1.48034
-427,-587,1.8573,1.80457,0.0451458,0.0860456,0.0509743,0.120519,0.0106723,0.97616,0.0770354,0.0478569,797,1611,1.85732,-1.80452
-420,-587,1.87183,1.89355,0.040251,0.0736175,0.0467919,0.106611,0.0072572,0.956643,0.0687829,0.0495036,804,1611,1.87185,-1.89354
-413,-587,1.77631,2.24219,0.0362779,0.0628479,0.0410079,0.0926691,0.00645676,0.942044,0.0597436,0.0450663,811,1611,1.77633,-2.24221
-406,-587,1.78162,2.93042,0.0323779,0.0522183,0.0350909,0.0787643,0.00583184,0.923153,0.0506775,0.0439742,818,1611,1.78162,-2.93045
-399,-587,1.88593,3.48999,0,0,0,0,0,0,0,-1,825,1611,1.88593,-3.48995
-392,-587,1.82556,3.74585,0.0230548,0.03239,0.0229641,0.0511561,0.00428876,0.885661,0.0327682,0.0237759,832,1611,1.82554,-3.74586
-385,-587,1.78339,3.85608,0.0183418,0.0246308,0.0179391,0.0396989,0.00327366,0.872161,0.025445,0.0153007,839,1611,1.7834,-3.85613
-378,-587,1.75085,3.98145,0.0135035,0.0165619,0.0131716,0.0282927,0.00177262,0.843188,0.0182996,0.0134183,846,1611,1.75086,-3.98139
-371,-587,1.74884,4.10657,0.00959143,0.0105651,0.00922349,0.0193146,0.000841932,0.811765,0.0126051,0.0132264,853,1611,1.74883,-4.10659
-364,-587,1.78113,4.17676,0.0062149,0.00592784,0.00621688,0.0122899,-0.00014717,0.773857,0.00824276,0.0163627,860,1611,1.78116,-4.1768
-357,-587,1.79767,4.21375,0.0039389,0.00249178,0.00365733,0.00694356,-0.000512871,0.68774,0.00480912,0.0174436,867,1611,1.79764,-4.2137
-350,-587,1.78992,4.31885,0.00151853,0.000158081,0.0011554,0.00217907,-0.000502458,0.51935,0.00164596,0.00991996,874,1611,1.78994,-4.31879
-343,-587,1.77728,4.41748,-0.000241706,-0.00126065,8.13838e-05,-0.000235247,-0.00126711,0.0792017,0.000778266,0.0116769,881,1611,1.77727,-4.4175
-336,-587,1.77258,4.50903,-0.000218217,-0.0019516,0.000343121,-0.000152768,-0.00201705,0.188483,0.00129678,0.0116506,888,1611,1.77256,-4.50902
-329,-587,1.77649,4.59668,0.000134166,-0.00224649,0.000962957,0.000474905,-0.00258723,0.340097,0.00190298,0.0137085,895,1611,1.77648,-4.59663
-322,-587,1.78607,4.6908,0.000481925,-0.00169974,0.00145669,0.00121094,-0.00242876,0.464018,0.00214023,0.0171884,902,1611,1.78605,-4.69075
-315,-587,1.7738,4.75061,0.000443096,-0.00218429,0.00202406,0.00154241,-0.00328361,0.497549,0.00284611,0.0144035,909,1611,1.77378,-4.75064
-308,-587,1.78259,4.86255,9.04253e-05,-0.00303162,0.00232196,0.00132731,-0.0042685,0.489456,0.00337622,0.0143179,916,1611,1.7826,-4.86253
-301,-587,1.80725,4.92236,0.000216915,-0.00381453,0.00283572,0.00168034,-0.00527795,0.476419,0.00419253,0.0118009,923,1611,1.80727,-4.92232
-294,-587,1.81836,4.99719,0.000123839,-0.00582283,0.00279439,0.00123087,-0.00692985,0.377192,0.00508014,0.0122279,930,1611,1.81838,-4.99719
-287,-587,1.82825,5.10596,-0.000614534,-0.00763306,0.00210121,-3.35658e-05,-0.00821403,0.269753,0.00546487,0.0222662,937,1611,1.82827,-5.10599
-280,-587,1.89294,5.177,-0.00118791,-0.00969587,0.00132416,-0.000986587,-0.0098972,0.150884,0.00629509,0.0344343,944,1611,1.89297,-5.17703
-273,-587,1.89038,5.1908,-0.000759357,-0.0126379,-0.000954325,-0.000683175,-0.0127141,-0.0796594,0.00825776,0.0412849,951,1611,1.89037,-5.19081
-266,-587,1.52539,4.83228,-8.83415e-05,-0.015924,-0.00450149,0.00110181,-0.0171142,-0.258477,0.0117939,0.0484013,958,1611,1.52539,-4.83232
-259,-587,1.32599,4.74792,0.00030078,-0.0198588,-0.00834474,0.00330674,-0.0228648,-0.345752,0.0164565,0.0483407,965,1611,1.32602,-4.74789
-252,-587,1.02118,4.70923,0.000873001,-0.0244624,-0.0127538,0.00618115,-0.0297705,-0.394394,0.0221962,0.044717,972,1611,1.02119,-4.7092
-245,-587,1.28333,4.57776,0,0,0,0,0,0,0,-1,979,1611,1.28334,-4.57771
-238,-587,1.88226,5.21167,0,0,0,0,0,0,0,-1,986,1611,1.88226,-5.21172
-231,-587,-1.34796,6.3302,0,0,0,0,0,0,0,-1,993,1611,-1.34796,-6.33018
-224,-587,-0.874695,4.52966,0.00241033,-0.0320879,-0.0385084,0.0273563,-0.0570339,-0.574832,0.0497168,0.0451783,1000,1611,-0.874689,-4.52965
-217,-587,-0.475098,3.09375,0.00104659,-0.03412,-0.0448453,0.0316325,-0.064706,-0.598565,0.0567031,0.0448446,1007,1611,-0.475111,-3.09369
-210,-587,-0.157104,1.6521,0,0,0,0,0,0,0,-1,1014,1611,-0.157095,-1.6521
-203,-587,0.265747,6.38074,-0.00792432,-0.0291934,-0.0536315,0.0361168,-0.0732346,-0.687523,0.064335,0.0451138,1021,1611,0.265757,-6.38079
-196,-587,-0.337646,7.10999,-0.0180888,-0.0272193,-0.0603003,0.0378188,-0.0831269,-0.747616,0.0714426,0.0463141,1028,1611,-0.337701,-7.10997
-189,-587,-0.925537,7.61389,0,0,0,0,0,0,0,-1,1035,1611,-0.925571,-7.61389
-182,-587,-2.9104,8.24829,0,0,0,0,0,0,0,-1,1042,1611,-2.91036,-8.2483
-175,-587,-2.95789,7.81274,0,0,0,0,0,0,0,-1,1049,1611,-2.95788,-7.81272
-168,-587,-2.93921,7.3645,0,0,0,0,0,0,0,-1,1056,1611,-2.93922,-7.36452
-161,-587,-2.84436,7.16199,0,0,0,0,0,0,0,-1,1063,1611,-2.84438,-7.162
-154,-587,-2.70276,7.61365,0,0,0,0,0,0,0,-1,1070,1611,-2.70277,-7.61362
-147,-587,0,0,0,0,0,0,0,0,0,-1,1077,1611,0,0
-140,-587,0,0,0,0,0,0,0,0,0,-1,1084,1611,0,0
-133,-587,0,0,0,0,0,0,0,0,0,-1,1091,1611,0,0
-126,-587,0,0,0,0,0,0,0,0,0,-1,1098,1611,0,0
-119,-587,0,0,0,0,0,0,0,0,0,-1,1105,1611,0,0
-112,-587,0,0,0,0,0,0,0,0,0,-1,1112,1611,0,0
-105,-587,0,0,0,0,0,0,0,0,0,-1,1119,1611,0,0
-98,-587,0,0,0,0,0,0,0,0,0,-1,1126,1611,0,0
-91,-587,0,0,0,0,0,0,0,0,0,-1,1133,1611,0,0
-84,-587,0,0,0,0,0,0,0,0,0,-1,1140,1611,0,0
-77,-587,0,0,0,0,0,0,0,0,0,-1,1147,1611,0,0
-70,-587,0,0,0,0,0,0,0,0,0,-1,1154,1611,0,0
-63,-587,0,0,0,0,0,0,0,0,0,-1,1161,1611,0,0
-56,-587,0,0,0,0,0,0,0,0,0,-1,1168,1611,0,0
-49,-587,0,0,0,0,0,0,0,0,0,-1,1175,1611,0,0
-42,-587,0,0,0,0,0,0,0,0,0,-1,1182,1611,0,0
-35,-587,0,0,0,0,0,0,0,0,0,-1,1189,1611,0,0
-28,-587,0,0,0,0,0,0,0,0,0,-1,1196,1611,0,0
-21,-587,0,0,0,0,0,0,0,0,0,-1,1203,1611,0,0
-14,-587,0,0,0,0,0,0,0,0,0,-1,1210,1611,0,0
-7,-587,0,0,0,0,0,0,0,0,0,-1,1217,1611,0,0
0,-587,0,0,0,0,0,0,0,0,0,-1,1224,1611,0,0
7,-587,0,0,0,0,0,0,0,0,0,-1,1231,1611,0,0
14,-587,0,0,0,0,0,0,0,0,0,-1,1238,1611,0,0
21,-587,0,0,0,0,0,0,0,0,0,-1,1245,1611,0,0
28,-587,0,0,0,0,0,0,0,0,0,-1,1252,1611,0,0
35,-587,0,0,0,0,0,0,0,0,0,-1,1259,1611,0,0
42,-587,0,0,0,0,0,0,0,0,0,-1,1266,1611,0,0
49,-587,0,0,0,0,0,0,0,0,0,-1,1273,1611,0,0
56,-587,0,0,0,0,0,0,0,0,0,-1,1280,1611,0,0
63,-587,0,0,0,0,0,0,0,0,0,-1,1287,1611,0,0
70,-587,0,0,0,0,0,0,0,0,0,-1,1294,1611,0,0
77,-587,0,0,0,0,0,0,0,0,0,-1,1301,1611,0,0
84,-587,0,0,0,0,0,0,0,0,0,-1,1308,1611,0,0
91,-587,0,0,0,0,0,0,0,0,0,-1,1315,1611,0,0
98,-587,0,0,0,0,0,0,0,0,0,-1,1322,1611,0,0
105,-587,0,0,0,0,0,0,0,0,0,-1,1329,1611,0,0
112,-587,0,0,0,0,0,0,0,0,0,-1,1336,1611,0,0
119,-587,0,0,0,0,0,0,0,0,0,-1,1343,1611,0,0
126,-587,0,0,0,0,0,0,0,0,0,-1,1350,1611,0,0
133,-587,0,0,0,0,0,0,0,0,0,-1,1357,1611,0,0
140,-587,0,0,0,0,0,0,0,0,0,-1,1364,1611,0,0
147,-587,0,0,0,0,0,0,0,0,0,-1,1371,1611,0,0
154,-587,0,0,0,0,0,0,0,0,0,-1,1378,1611,0,0
161,-587,0,0,0,0,0,0,0,0,0,-1,1385,1611,0,0
168,-587,0,0,0,0,0,0,0,0,0,-1,1392,1611,0,0
175,-587,0,0,0,0,0,0,0,0,0,-1,1399,1611,0,0
182,-587,0,0,0,0,0,0,0,0,0,-1,1406,1611,0,0
189,-587,0,0,0,0,0,0,0,0,0,-1,1413,1611,0,0
196,-587,0,0,0,0,0,0,0,0,0,-1,1420,1611,0,0
203,-587,0,0,0,0,0,0,0,0,0,-1,1427,1611,0,0
210,-587,0,0,0,0,0,0,0,0,0,-1,1434,1611,0,0
217,-587,0,0,0,0,0,0,0,0,0,-1,1441,1611,0,0
224,-587,0,0,0,0,0,0,0,0,0,-1,1448,1611,0,0
231,-587,0,0,0,0,0,0,0,0,0,-1,1455,1611,0,0
238,-587,0,0,0,0,0,0,0,0,0,-1,1462,1611,0,0
245,-587,0,0,0,0,0,0,0,0,0,-1,1469,1611,0,0
252,-587,0,0,0,0,0,0,0,0,0,-1,1476,1611,0,0
259,-587,0,0,0,0,0,0,0,0,0,-1,1483,1611,0,0
266,-587,0,0,0,0,0,0,0,0,0,-1,1490,1611,0,0
273,-587,10.2936,6.35083,0,0,0,0,0,0,0,-1,1497,1611,10.2936,-6.35087
280,-587,7.65295,3.66199,0,0,0,0,0,0,0,-1,1504,1611,7.65294,-3.66195
287,-587,7.94739,4.00488,0.0734913,0.0706345,0.104714,0.176786,-0.0326605,0.778578,0.130118,0.0405255,1511,1611,7.94741,-4.00493
294,-587,8.19165,4.2616,0.0656372,0.0627039,0.0883266,0.152509,-0.0241683,0.777096,0.110613,0.0454097,1518,1611,8.19166,-4.26165
301,-587,8.43518,4.62939,0.0586594,0.0557139,0.073093,0.130295,-0.0159212,0.775325,0.0926273,0.0496778,1525,1611,8.43522,-4.62937
308,-587,9.50732,5.90942,0,0,0,0,0,0,0,-1,1532,1611,9.50737,-5.90941
315,-587,10.0048,6.27197,0,0,0,0,0,0,0,-1,1539,1611,10.0048,-6.27202
322,-587,1.59766,5.43579,0,0,0,0,0,0,0,-1,1546,1611,1.59771,-5.43576
329,-587,1.74597,4.64746,0,0,0,0,0,0,0,-1,1553,1611,1.746,-4.64745
336,-587,1.59692,3.44971,0,0,0,0,0,0,0,-1,1560,1611,1.59696,-3.44974
343,-587,5.76599,5.18115,0,0,0,0,0,0,0,-1,1567,1611,5.76598,-5.18118
350,-587,5.58008,5.65796,0,0,0,0,0,0,0,-1,1574,1611,5.58012,-5.658
357,-587,5.05188,5.62158,0,0,0,0,0,0,0,-1,1581,1611,5.05192,-5.62158
364,-587,4.96387,5.44592,0,0,0,0,0,0,0,-1,1588,1611,4.96387,-5.44598
371,-587,4.91528,5.21887,0,0,0,0,0,0,0,-1,1595,1611,4.91523,-5.21893
378,-587,4.51416,4.86047,0,0,0,0,0,0,0,-1,1602,1611,4.51411,-4.86051
385,-587,4.12378,4.68188,0,0,0,0,0,0,0,-1,1609,1611,4.12378,-4.68187
392,-587,4.55566,5.35083,0,0,0,0,0,0,0,-1,1616,1611,4.5557,-5.35086
399,-587,4.41174,5.52844,-0.00264409,7.3526e-05,-0.00127252,0.000576348,-0.00314691,-1.19449,0.00231411,0.0467957,1623,1611,4.41173,-5.52843
406,-587,4.30066,5.5498,-0.00147635,-0.000680342,-0.00133032,0.000310236,-0.00246693,-0.93075,0.00175718,0.0405844,1630,1611,4.30064,-5.54983
413,-587,4.24561,5.46179,-0.000724115,-0.00150362,-0.00133146,0.000273467,-0.0025012,-0.643013,0.0017657,0.0341783,1637,1611,4.24558,-5.46185
420,-587,4.22546,5.39917,-0.000184011,-0.00212936,-0.0013024,0.000468844,-0.00278222,-0.464663,0.00202923,0.0282663,1644,1611,4.22552,-5.39917
427,-587,4.27551,5.32703,0.000105413,-0.00284763,-0.00109818,0.000469035,-0.00321125,-0.319749,0.00231309,0.019133,1651,1611,4.27551,-5.32703
434,-587,4.24854,5.26514,0.00027357,-0.00303824,-0.000988282,0.000546064,-0.00331073,-0.26904,0.00240989,0.0129381,1658,1611,4.24854,-5.26514
441,-587,4.23706,5.19971,0.00060072,-0.00319105,-0.000940754,0.000821294,-0.00341163,-0.230305,0.00259192,0.0163973,1665,1611,4.23706,-5.19973
448,-587,4.25635,5.11194,0.000602705,-0.00315665,-0.000747181,0.000745765,-0.00329971,-0.189177,0.00248597,0.0146195,1672,1611,4.25639,-5.11199
455,-587,4.27734,5.02856,0.000464124,-0.00315517,-0.000677625,0.000586833,-0.00327788,-0.179145,0.00240485,0.0135471,1679,1611,4.27729,-5.02861
462,-587,4.25476,4.94836,0.00038275,-0.00308336,-0.000530087,0.000462006,-0.00316262,-0.148416,0.00227808,0.0174599,1686,1611,4.25478,-4.9484
469,-587,4.2594,4.88586,0.000417439,-0.0027345,-0.000580154,0.000520832,-0.0028379,-0.176365,0.00208731,0.0156459,1693,1611,4.25941,-4.88581
476,-587,4.27588,4.8042,0.000416929,-0.00239556,-0.000588155,0.00053497,-0.0025136,-0.198068,0.00187961,0.0102741,1700,1611,4.27593,-4.80419
483,-587,4.26538,4.70288,0.000542017,-0.00184865,-0.000682139,0.00072296,-0.0020296,-0.259286,0.00164779,0.0131473,1707,1611,4.26533,-4.70293
490,-587,4.24292,4.61914,0.000949921,-0.00114522,-0.00105375,0.00138821,-0.00158351,-0.39417,0.00171696,0.0154108,1714,1611,4.24297,-4.61914
497,-587,4.22363,4.55334,0.00137404,-0.000383098,-0.00155042,0.00227752,-0.00128658,-0.527625,0.00208407,0.0115872,1721,1611,4.22368,-4.55332
504,-587,4.2417,4.49109,0.00206919,0.000718419,-0.00233294,0.00382254,-0.00103493,-0.6445,0.00295439,0.0110576,1728,1611,4.24169,-4.4911
511,-587,4.25562,4.42383,0.00306957,0.00297999,-0.00346742,0.00649249,-0.00044293,-0.778939,0.00448327,0.0133267,1735,1611,4.25556,-4.42377
518,-587,4.28503,4.3302,0.00469017,0.00651688,-0.00484046,0.0105294,0.000677646,-0.878648,0.00680498,0.0138284,1742,1611,4.28509,-4.3302
525,-587,4.30457,4.24304,0.00690196,0.0116843,-0.00610334,0.0158481,0.00273808,-0.972097,0.00978132,0.0161399,1749,1611,4.30459,-4.24307
532,-587,4.30627,4.19336,0.0100608,0.0210369,-0.00718891,0.0245931,0.00650456,-1.11141,0.0147145,0.0272228,1756,1611,4.30628,-4.19334
539,-587,4.42407,3.99927,0.013735,0.0339228,-0.00894204,0.037314,0.0103439,-1.20832,0.0222447,0.0383415,1763,1611,4.42412,-3.9993
546,-587,4.44189,3.69714,0.0183131,0.0486523,-0.0106008,0.0519893,0.0149761,-1.26583,0.0309018,0.045402,1770,1611,4.44187,-3.6971
553,-587,4.48401,3.41602,0.0238365,0.0671196,-0.0123282,0.0703847,0.0205714,-1.31189,0.0417893,0.0482168,1777,1611,4.48405,-3.41599
560,-587,4.83386,3.04541,0.0296427,0.0898347,-0.0140857,0.0929678,0.0265095,-1.35192,0.0553021,0.0460254,1784,1611,4.8339,-3.04547
567,-587,5.09644,2.75195,0.0356405,0.115961,-0.0156135,0.11889,0.0327122,-1.3854,0.0709169,0.0440163,1791,1611,5.09645,-2.75199
574,-587,5.22839,2.38647,0.0420436,0.145458,-0.016682,0.148082,0.0394192,-1.41476,0.088556,0.040746,1798,1611,5.22843,-2.38651
581,-587,5.42285,2.00513,0.0488612,0.178158,-0.0176755,0.180531,0.0464884,-1.43735,0.108238,0.0412443,1805,1611,5.42281,-2.00508
588,-587,0,0,0,0,0,0,0,0,0,-1,1812,1611,0,0
595,-587,0,0,0,0,0,0,0,0,0,-1,1819,1611,0,0
602,-587,0,0,0,0,0,0,0,0,0,-1,1826,1611,0,0
609,-587,0,0,0,0,0,0,0,0,0,-1,1833,1611,0,0
616,-587,0,0,0,0,0,0,0,0,0,-1,1840,1611,0,0
623,-587,0,0,0,0,0,0,0,0,0,-1,1847,1611,0,0
630,-587,0,0,0,0,0,0,0,0,0,-1,1854,1611,0,0
637,-587,0,0,0,0,0,0,0,0,0,-1,1861,1611,0,0
644,-587,0,0,0,0,0,0,0,0,0,-1,1868,1611,0,0
651,-587,0,0,0,0,0,0,0,0,0,-1,1875,1611,0,0
658,-587,0,0,0,0,0,0,0,0,0,-1,1882,1611,0,0
665,-587,0,0,0,0,0,0,0,0,0,-1,1889,1611,0,0
672,-587,0,0,0,0,0,0,0,0,0,-1,1896,1611,0,0
679,-587,0,0,0,0,0,0,0,0,0,-1,1903,1611,0,0
686,-587,0,0,0,0,0,0,0,0,0,-1,1910,1611,0,0
693,-587,0,0,0,0,0,0,0,0,0,-1,1917,1611,0,0
700,-587,0,0,0,0,0,0,0,0,0,-1,1924,1611,0,0
707,-587,0,0,0,0,0,0,0,0,0,-1,1931,1611,0,0
714,-587,0,0,0,0,0,0,0,0,0,-1,1938,1611,0,0
721,-587,0,0,0,0,0,0,0,0,0,-1,1945,1611,0,0
728,-587,0,0,0,0,0,0,0,0,0,-1,1952,1611,0,0
735,-587,0,0,0,0,0,0,0,0,0,-1,1959,1611,0,0
742,-587,0,0,0,0,0,0,0,0,0,-1,1966,1611,0,0
749,-587,0,0,0,0,0,0,0,0,0,-1,1973,1611,0,0
756,-587,0,0,0,0,0,0,0,0,0,-1,1980,1611,0,0
763,-587,0,0,0,0,0,0,0,0,0,-1,1987,1611,0,0
770,-587,0,0,0,0,0,0,0,0,0,-1,1994,1611,0,0
777,-587,0,0,0,0,0,0,0,0,0,-1,2001,1611,0,0
784,-587,0,0,0,0,0,0,0,0,0,-1,2008,1611,0,0
791,-587,0,0,0,0,0,0,0,0,0,-1,2015,1611,0,0
798,-587,0,0,0,0,0,0,0,0,0,-1,2022,1611,0,0
805,-587,0,0,0,0,0,0,0,0,0,-1,2029,1611,0,0
812,-587,0,0,0,0,0,0,0,0,0,-1,2036,1611,0,0
-700,-594,0,0,0,0,0,0,0,0,0,-1,524,1618,0,0
-693,-594,0,0,0,0,0,0,0,0,0,-1,531,1618,0,0
-686,-594,0,0,0,0,0,0,0,0,0,-1,538,1618,0,0
-679,-594,0,0,0,0,0,0,0,0,0,-1,545,1618,0,0
-672,-594,0,0,0,0,0,0,0,0,0,-1,552,1618,0,0
-665,-594,0,0,0,0,0,0,0,0,0,-1,559,1618,0,0
-658,-594,0,0,0,0,0,0,0,0,0,-1,566,1618,0,0
-651,-594,0,0,0,0,0,0,0,0,0,-1,573,1618,0,0
-644,-594,0,0,0,0,0,0,0,0,0,-1,580,1618,0,0
-637,-594,0,0,0,0,0,0,0,0,0,-1,587,1618,0,0
-630,-594,0,0,0,0,0,0,0,0,0,-1,594,1618,0,0
-623,-594,0,0,0,0,0,0,0,0,0,-1,601,1618,0,0
-616,-594,0,0,0,0,0,0,0,0,0,-1,608,1618,0,0
-609,-594,0,0,0,0,0,0,0,0,0,-1,615,1618,0,0
-602,-594,0,0,0,0,0,0,0,0,0,-1,622,1618,0,0
-595,-594,0,0,0,0,0,0,0,0,0,-1,629,1618,0,0
-588,-594,0,0,0,0,0,0,0,0,0,-1,636,1618,0,0
-581,-594,0,0,0,0,0,0,0,0,0,-1,643,1618,0,0
-574,-594,0,0,0,0,0,0,0,0,0,-1,650,1618,0,0
-567,-594,0,0,0,0,0,0,0,0,0,-1,657,1618,0,0
-560,-594,0,0,0,0,0,0,0,0,0,-1,664,1618,0,0
-553,-594,0,0,0,0,0,0,0,0,0,-1,671,1618,0,0
-546,-594,0,0,0,0,0,0,0,0,0,-1,678,1618,0,0
-539,-594,0,0,0,0,0,0,0,0,0,-1,685,1618,0,0
-532,-594,0,0,0,0,0,0,0,0,0,-1,692,1618,0,0
-525,-594,0,0,0,0,0,0,0,0,0,-1,699,1618,0,0
-518,-594,0,0,0,0,0,0,0,0,0,-1,706,1618,0,0
-511,-594,0,0,0,0,0,0,0,0,0,-1,713,1618,0,0
-504,-594,0,0,0,0,0,0,0,0,0,-1,720,1618,0,0
-497,-594,0,0,0,0,0,0,0,0,0,-1,727,1618,0,0
-490,-594,0,0,0,0,0,0,0,0,0,-1,734,1618,0,0
-483,-594,0,0,0,0,0,0,0,0,0,-1,741,1618,0,0
-476,-594,0,0,0,0,0,0,0,0,0,-1,748,1618,0,0
-469,-594,0,0,0,0,0,0,0,0,0,-1,755,1618,0,0
-462,-594,0,0,0,0,0,0,0,0,0,-1,762,1618,0,0
-455,-594,1.6377,-1.24805,0.0767981,0.163437,0.0607621,0.194741,0.0454945,1.09508,0.117632,0.048258,769,1618,1.63772,1.24805
-448,-594,1.90747,0.198486,0.0758996,0.14678,0.066373,0.186582,0.0360977,1.03062,0.114272,0.0460043,776,1618,1.90745,-0.198529
-441,-594,1.78003,0.251831,0.0725008,0.1328,0.0680675,0.177096,0.0282044,0.993879,0.109876,0.0486726,783,1618,1.78005,-0.251806
-434,-594,1.65717,0.470947,0.0699814,0.119973,0.0682119,0.167625,0.0223298,0.961023,0.1051,0.0470451,790,1618,1.65716,-0.470965
-427,-594,1.83197,1.21716,0.0633119,0.103065,0.0664732,0.15257,0.0138071,0.930674,0.0974374,0.0449701,797,1618,1.83198,-1.21715
-420,-594,1.93304,1.22986,0,0,0,0,0,0,0,-1,804,1618,1.93304,-1.22991
-413,-594,1.95862,1.1842,0.0526891,0.0776363,0.0535575,0.120154,0.0101718,0.899809,0.0769363,0.046365,811,1618,1.95865,-1.18425
-406,-594,1.45264,2.32324,0.0467575,0.0650959,0.0462877,0.103114,0.00873951,0.883178,0.0660225,0.0468491,818,1618,1.45266,-2.32318
-399,-594,2.37592,2.94324,0,0,0,0,0,0,0,-1,825,1618,2.37594,-2.94319
-392,-594,2.10626,3.63611,0.0334698,0.041512,0.0311995,0.0689484,0.00603339,0.849487,0.0440923,0.0369489,832,1618,2.10629,-3.63605
-385,-594,1.96863,3.84509,0.0265149,0.0317893,0.0246339,0.0539267,0.00437745,0.838722,0.0345845,0.0243589,839,1618,1.96863,-3.84504
-378,-594,1.85638,3.97986,0.0193598,0.0215838,0.0181621,0.0386679,0.00227568,0.815973,0.0250545,0.0109234,846,1618,1.85636,-3.97984
-371,-594,1.87164,4.06628,0.0135708,0.0138763,0.0127911,0.0265156,0.000931556,0.791369,0.0173749,0.010736,853,1618,1.87165,-4.06633
-364,-594,1.8775,4.14294,0.00861867,0.00797629,0.00864413,0.0169476,-0.000352615,0.766828,0.0114177,0.00998806,860,1618,1.87752,-4.14298
-357,-594,1.87848,4.21472,0.00527975,0.00358948,0.00525297,0.00975514,-0.000885906,0.705638,0.00681794,0.00998645,867,1618,1.87847,-4.21466
-350,-594,1.86938,4.32642,0.00177882,0.000408677,0.0019614,0.00317135,-0.000983846,0.617383,0.00250737,0.0136501,874,1618,1.86939,-4.32645
-343,-594,1.86957,4.4314,-0.000783007,-0.00141875,0.000245237,-0.000699402,-0.00150235,0.328559,0.000868071,0.0142613,881,1618,1.86959,-4.43139
-336,-594,1.86426,4.51208,-0.000729781,-0.0020659,0.00028246,-0.000672523,-0.00212316,0.200005,0.00125295,0.0119883,888,1618,1.86426,-4.5121
-329,-594,1.85132,4.60156,-0.00012079,-0.0021267,0.000760261,0.000134792,-0.00238228,0.324307,0.00163497,0.0126599,895,1618,1.85133,-4.60152
-322,-594,1.86169,4.69128,0.000446414,-0.00150345,0.00112575,0.000960709,-0.00201775,0.428534,0.00175534,0.0154489,902,1618,1.86172,-4.69129
-315,-594,1.87714,4.74451,0.000611268,-0.00180304,0.00157773,0.00139068,-0.00258245,0.458843,0.00232803,0.015607,909,1618,1.87712,-4.74446
-308,-594,1.88293,4.83289,0.000514903,-0.00237142,0.00172317,0.00131941,-0.00317593,0.4368,0.00266814,0.0140414,916,1618,1.88292,-4.83291
-301,-594,1.88397,4.92285,0.000636218,-0.00294451,0.00187728,0.00144,-0.00374829,0.404546,0.0030927,0.0108378,923,1618,1.88396,-4.92286
-294,-594,1.89172,5.00415,0.000490234,-0.00445954,0.00164127,0.000984998,-0.0049543,0.292789,0.00367546,0.00962069,930,1618,1.89175,-5.00421
-287,-594,1.91644,5.09546,-0.000142349,-0.00587405,0.000906366,-2.43913e-06,-0.00601396,0.153155,0.0040085,0.0116717,937,1618,1.91647,-5.09541
-280,-594,1.91406,5.17236,-0.000758117,-0.0075292,8.27393e-06,-0.000758107,-0.00752921,0.00122195,0.00478682,0.0152787,944,1618,1.91408,-5.17233
-273,-594,1.88232,5.23315,-0.000592565,-0.00996309,-0.00211144,-0.000138776,-0.0104169,-0.211699,0.00689879,0.0247855,951,1618,1.88233,-5.23314
-266,-594,1.82361,5.22095,-0.000257521,-0.0126887,-0.00524458,0.00165949,-0.0146057,-0.350436,0.0103348,0.0344397,958,1618,1.82358,-5.22094
-259,-594,1.78021,5.27234,-0.00025339,-0.0159555,-0.00862245,0.00355685,-0.0197657,-0.416095,0.0145088,0.038957,965,1618,1.78019,-5.27235
-252,-594,1.82391,5.38708,7.94491e-05,-0.0197243,-0.0124199,0.00606159,-0.0257065,-0.448865,0.0194752,0.0451417,972,1618,1.82389,-5.38706
-245,-594,1.64038,5.1283,0.00093761,-0.0223373,-0.017392,0.0102265,-0.0316262,-0.490547,0.0251946,0.0449308,979,1618,1.64035,-5.12828
-238,-594,2.02423,5.65186,0.00137409,-0.0244177,-0.0227537,0.0146323,-0.0376759,-0.527588,0.0311616,0.047483,986,1618,2.02421,-5.65185
-231,-594,1.85571,5.56958,0,0,0,0,0,0,0,-1,993,1618,1.85572,-5.56964
-224,-594,0.20813,5.02246,0,0,0,0,0,0,0,-1,1000,1618,0.208135,-5.02247
-217,-594,0.111206,3.8241,0,0,0,0,0,0,0,-1,1007,1618,0.111198,-3.82407
-210,-594,1.50397,6.77161,-0.00177841,-0.0244735,-0.0443975,0.0326988,-0.0589507,-0.660282,0.0536325,0.0472045,1014,1618,1.50397,-6.77165
-203,-594,1.20129,7.12012,-0.00570003,-0.0220127,-0.0479248,0.0347576,-0.0624703,-0.701111,0.0568895,0.049035,1021,1618,1.20129,-7.12017
-196,-594,0.860962,7.64343,-0.0123575,-0.0198019,-0.0528489,0.0369001,-0.0690596,-0.750241,0.062108,0.0472035,1028,1618,0.861015,-7.64338
-189,-594,1.51074,6.14124,0,0,0,0,0,0,0,-1,1035,1618,1.5107,-6.14127
-182,-594,0.139893,6.52063,0,0,0,0,0,0,0,-1,1042,1618,0.139927,-6.52057
-175,-594,-0.287964,6.78003,0,0,0,0,0,0,0,-1,1049,1618,-0.287954,-6.78009
-168,-594,-0.597168,6.49048,0,0,0,0,0,0,0,-1,1056,1618,-0.59721,-6.49047
-161,-594,-1.4801,7.98657,0,0,0,0,0,0,0,-1,1063,1618,-1.48015,-7.98656
-154,-594,-1.41968,7.95618,0,0,0,0,0,0,0,-1,1070,1618,-1.41967,-7.95615
-147,-594,0.636963,3.37256,0,0,0,0,0,0,0,-1,1077,1618,0.636937,-3.37251
-140,-594,1.14978,4.41516,0,0,0,0,0,0,0,-1,1084,1618,1.14977,-4.41519
-133,-594,0,0,0,0,0,0,0,0,0,-1,1091,1618,0,0
-126,-594,0,0,0,0,0,0,0,0,0,-1,1098,1618,0,0
-119,-594,0,0,0,0,0,0,0,0,0,-1,1105,1618,0,0
-112,-594,0,0,0,0,0,0,0,0,0,-1,1112,1618,0,0
-105,-594,0,0,0,0,0,0,0,0,0,-1,1119,1618,0,0
-98,-594,0,0,0,0,0,0,0,0,0,-1,1126,1618,0,0
-91,-594,0,0,0,0,0,0,0,0,0,-1,1133,1618,0,0
-84,-594,0,0,0,0,0,0,0,0,0,-1,1140,1618,0,0
-77,-594,0,0,0,0,0,0,0,0,0,-1,1147,1618,0,0
-70,-594,0,0,0,0,0,0,0,0,0,-1,1154,1618,0,0
-63,-594,0,0,0,0,0,0,0,0,0,-1,1161,1618,0,0
-56,-594,0,0,0,0,0,0,0,0,0,-1,1168,1618,0,0
-49,-594,0,0,0,0,0,0,0,0,0,-1,1175,1618,0,0
-42,-594,0,0,0,0,0,0,0,0,0,-1,1182,1618,0,0
-35,-594,0,0,0,0,0,0,0,0,0,-1,1189,1618,0,0
-28,-594,0,0,0,0,0,0,0,0,0,-1,1196,1618,0,0
-21,-594,0,0,0,0,0,0,0,0,0,-1,1203,1618,0,0
-14,-594,0,0,0,0,0,0,0,0,0,-1,1210,1618,0,0
-7,-594,0,0,0,0,0,0,0,0,0,-1,1217,1618,0,0
0,-594,0,0,0,0,0,0,0,0,0,-1,1224,1618,0,0
7,-594,0,0,0,0,0,0,0,0,0,-1,1231,1618,0,0
14,-594,0,0,0,0,0,0,0,0,0,-1,1238,1618,0,0
21,-594,0,0,0,0,0,0,0,0,0,-1,1245,1618,0,0
28,-594,0,0,0,0,0,0,0,0,0,-1,1252,1618,0,0
35,-594,0,0,0,0,0,0,0,0,0,-1,1259,1618,0,0
42,-594,0,0,0,0,0,0,0,0,0,-1,1266,1618,0,0
49,-594,0,0,0,0,0,0,0,0,0,-1,1273,1618,0,0
56,-594,0,0,0,0,0,0,0,0,0,-1,1280,1618,0,0
63,-594,0,0,0,0,0,0,0,0,0,-1,1287,1618,0,0
70,-594,0,0,0,0,0,0,0,0,0,-1,1294,1618,0,0
77,-594,0,0,0,0,0,0,0,0,0,-1,1301,1618,0,0
84,-594,0,0,0,0,0,0,0,0,0,-1,1308,1618,0,0
91,-594,0,0,0,0,0,0,0,0,0,-1,1315,1618,0,0
98,-594,0,0,0,0,0,0,0,0,0,-1,1322,1618,0,0
105,-594,0,0,0,0,0,0,0,0,0,-1,1329,1618,0,0
112,-594,0,0,0,0,0,0,0,0,0,-1,1336,1618,0,0
119,-594,0,0,0,0,0,0,0,0,0,-1,1343,1618,0,0
126,-594,0,0,0,0,0,0,0,0,0,-1,1350,1618,0,0
133,-594,0,0,0,0,0,0,0,0,0,-1,1357,1618,0,0
140,-594,0,0,0,0,0,0,0,0,0,-1,1364,1618,0,0
147,-594,0,0,0,0,0,0,0,0,0,-1,1371,1618,0,0
154,-594,0,0,0,0,0,0,0,0,0,-1,1378,1618,0,0
161,-594,0,0,0,0,0,0,0,0,0,-1,1385,1618,0,0
168,-594,0,0,0,0,0,0,0,0,0,-1,1392,1618,0,0
175,-594,0,0,0,0,0,0,0,0,0,-1,1399,1618,0,0
182,-594,0,0,0,0,0,0,0,0,0,-1,1406,1618,0,0
189,-594,0,0,0,0,0,0,0,0,0,-1,1413,1618,0,0
196,-594,0,0,0,0,0,0,0,0,0,-1,1420,1618,0,0
203,-594,0,0,0,0,0,0,0,0,0,-1,1427,1618,0,0
210,-594,0,0,0,0,0,0,0,0,0,-1,1434,1618,0,0
217,-594,0,0,0,0,0,0,0,0,0,-1,1441,1618,0,0
224,-594,0,0,0,0,0,0,0,0,0,-1,1448,1618,0,0
231,-594,0,0,0,0,0,0,0,0,0,-1,1455,1618,0,0
238,-594,0,0,0,0,0,0,0,0,0,-1,1462,1618,0,0
245,-594,0,0,0,0,0,0,0,0,0,-1,1469,1618,0,0
252,-594,3.03674,1.20996,0,0,0,0,0,0,0,-1,1476,1618,3.0368,-1.20999
259,-594,4.79834,1.53113,0,0,0,0,0,0,0,-1,1483,1618,4.79837,-1.53118
266,-594,3.71606,2.68152,0,0,0,0,0,0,0,-1,1490,1618,3.71609,-2.68149
273,-594,9.7655,6.33557,0,0,0,0,0,0,0,-1,1497,1618,9.76555,-6.33554
280,-594,7.1792,2.97375,0,0,0,0,0,0,0,-1,1504,1618,7.1792,-2.97381
287,-594,7.33838,3.41956,0.0780644,0.0672088,0.101662,0.174443,-0.0291698,0.758728,0.127139,0.0394834,1511,1618,7.33833,-3.41951
294,-594,7.5636,3.8678,0.0665819,0.059587,0.0850621,0.148218,-0.0220495,0.764851,0.106923,0.0460747,1518,1618,7.56363,-3.86783
301,-594,7.76697,4.31848,0,0,0,0,0,0,0,-1,1525,1618,7.76694,-4.31845
308,-594,0.846802,2.84302,0,0,0,0,0,0,0,-1,1532,1618,0.84685,-2.84304
315,-594,1.698,5.00171,0,0,0,0,0,0,0,-1,1539,1618,1.69804,-5.00172
322,-594,1.84753,5.27551,0,0,0,0,0,0,0,-1,1546,1618,1.84755,-5.27557
329,-594,2.1543,4.84485,0,0,0,0,0,0,0,-1,1553,1618,2.15431,-4.84489
336,-594,2.82959,4.34436,0,0,0,0,0,0,0,-1,1560,1618,2.82961,-4.3444
343,-594,6.03369,5.9895,0,0,0,0,0,0,0,-1,1567,1618,6.03374,-5.98945
350,-594,5.27405,5.66064,0,0,0,0,0,0,0,-1,1574,1618,5.27401,-5.66063
357,-594,4.59778,5.24695,0,0,0,0,0,0,0,-1,1581,1618,4.59782,-5.24689
364,-594,4.87012,6.29224,0,0,0,0,0,0,0,-1,1588,1618,4.87009,-6.2922
371,-594,4.73157,5.63965,0,0,0,0,0,0,0,-1,1595,1618,4.73155,-5.63964
378,-594,4.42419,5.2002,0,0,0,0,0,0,0,-1,1602,1618,4.42417,-5.20024
385,-594,4.98767,5.62024,0,0,0,0,0,0,0,-1,1609,1618,4.98771,-5.62029
392,-594,3.98694,5.57397,0,0,0,0,0,0,0,-1,1616,1618,3.98696,-5.57398
399,-594,4.10254,5.56421,-0.00305363,-0.000479862,0.00115975,-3.43785e-05,-0.00349912,1.20405,0.00232137,0.0390942,1623,1618,4.10248,-5.5642
406,-594,4.16553,5.5011,-0.00200839,-0.000955306,0.000911614,-0.000429096,-0.0025346,1.04729,0.00156642,0.025581,1630,1618,4.16556,-5.50112
413,-594,4.14612,5.40137,-0.00126232,-0.00138133,0.000683763,-0.000635476,-0.00200817,0.741995,0.00118517,0.0175451,1637,1618,4.14606,-5.40141
420,-594,4.16931,5.36255,-0.000679853,-0.00164586,0.000453309,-0.00050045,-0.00182526,0.376848,0.00108905,0.0136199,1644,1618,4.16937,-5.36251
427,-594,4.18799,5.33167,-0.000332379,-0.00205073,0.000346797,-0.000265028,-0.00211808,0.19182,0.00133253,0.0112454,1651,1618,4.18801,-5.33171
434,-594,4.19006,5.25781,-7.91843e-05,-0.0019691,0.000120319,-7.15551e-05,-0.00197673,0.0633233,0.00129462,0.0154655,1658,1618,4.19004,-5.2578
441,-594,4.18188,5.18884,0.000334512,-0.00191252,-0.000177321,0.000348419,-0.00192642,-0.0782681,0.00141479,0.0148047,1665,1618,4.18193,-5.18882
448,-594,4.19409,5.1095,0.000405929,-0.00170771,-0.000331127,0.00045659,-0.00175837,-0.151818,0.00135042,0.0149795,1672,1618,4.19413,-5.10947
455,-594,4.19031,5.02136,0.000331077,-0.00164658,-0.000579923,0.000488587,-0.00180409,-0.265207,0.00139442,0.0116197,1679,1618,4.19025,-5.02139
462,-594,4.17737,4.94934,0.000309984,-0.00157568,-0.000727863,0.000558251,-0.00182395,-0.328716,0.00143862,0.0131351,1686,1618,4.17734,-4.94932
469,-594,4.18274,4.88416,0.000398767,-0.00131392,-0.00103948,0.00088921,-0.00180436,-0.440849,0.00158477,0.0117391,1693,1618,4.18269,-4.88414
476,-594,4.17542,4.81067,0.000438169,-0.00108209,-0.00129818,0.00118239,-0.00182631,-0.520539,0.00175028,0.0115237,1700,1618,4.17541,-4.81072
483,-594,4.1604,4.72668,0.000595398,-0.000800131,-0.00156781,0.0016137,-0.00181844,-0.57603,0.00198272,0.0145998,1707,1618,4.16043,-4.72666
490,-594,4.14893,4.6283,0.00104303,-0.000373689,-0.00207685,0.002529,-0.00185965,-0.621047,0.0025436,0.0125761,1714,1618,4.14888,-4.62831
497,-594,4.15625,4.54321,0.00153007,0.000174614,-0.00268241,0.00361904,-0.00191435,-0.661659,0.00324485,0.0094281,1721,1618,4.15628,-4.54321
504,-594,4.17395,4.46814,0.0023529,0.00104046,-0.00357432,0.00533074,-0.00193738,-0.694612,0.00434603,0.00945986,1728,1618,4.17397,-4.46819
511,-594,4.18799,4.40344,0.00351909,0.00324983,-0.00481214,0.00819848,-0.00142956,-0.771413,0.00599922,0.0114526,1735,1618,4.18799,-4.40342
518,-594,4.1969,4.31531,0.00538585,0.00708024,-0.006318,0.0126076,-0.0001415,-0.852047,0.00845263,0.0149249,1742,1618,4.19691,-4.31527
525,-594,4.20068,4.22107,0.00799273,0.0130595,-0.00769448,0.0186269,0.0024253,-0.944432,0.0116936,0.0263099,1749,1618,4.20066,-4.22111
532,-594,4.22742,4.01453,0.0116843,0.0237761,-0.00889343,0.0284841,0.00697635,-1.08392,0.0171438,0.0424807,1756,1618,4.22739,-4.01455
539,-594,4.52539,3.89551,0.0159602,0.0385023,-0.0107701,0.0428208,0.0116418,-1.18946,0.0255659,0.048678,1763,1618,4.52535,-3.8955
546,-594,4.43079,3.46387,0,0,0,0,0,0,0,-1,1770,1618,4.43076,-3.46386
553,-594,4.49512,2.87573,0,0,0,0,0,0,0,-1,1777,1618,4.49512,-2.87575
560,-594,4.75879,2.12134,0,0,0,0,0,0,0,-1,1784,1618,4.75884,-2.12135
567,-594,5.00623,1.80029,0,0,0,0,0,0,0,-1,1791,1618,5.00626,-1.80029
574,-594,4.73352,1.30371,0,0,0,0,0,0,0,-1,1798,1618,4.73356,-1.30372
581,-594,0,0,0,0,0,0,0,0,0,-1,1805,1618,0,0
588,-594,0,0,0,0,0,0,0,0,0,-1,1812,1618,0,0
595,-594,0,0,0,0,0,0,0,0,0,-1,1819,1618,0,0
602,-594,0,0,0,0,0,0,0,0,0,-1,1826,1618,0,0
609,-594,0,0,0,0,0,0,0,0,0,-1,1833,1618,0,0
616,-594,0,0,0,0,0,0,0,0,0,-1,1840,1618,0,0
623,-594,0,0,0,0,0,0,0,0,0,-1,1847,1618,0,0
630,-594,0,0,0,0,0,0,0,0,0,-1,1854,1618,0,0
637,-594,0,0,0,0,0,0,0,0,0,-1,1861,1618,0,0
644,-594,0,0,0,0,0,0,0,0,0,-1,1868,1618,0,0
651,-594,0,0,0,0,0,0,0,0,0,-1,1875,1618,0,0
658,-594,0,0,0,0,0,0,0,0,0,-1,1882,1618,0,0
665,-594,0,0,0,0,0,0,0,0,0,-1,1889,1618,0,0
672,-594,0,0,0,0,0,0,0,0,0,-1,1896,1618,0,0
679,-594,0,0,0,0,0,0,0,0,0,-1,1903,1618,0,0
686,-594,0,0,0,0,0,0,0,0,0,-1,1910,1618,0,0
693,-594,0,0,0,0,0,0,0,0,0,-1,1917,1618,0,0
700,-594,0,0,0,0,0,0,0,0,0,-1,1924,1618,0,0
707,-594,0,0,0,0,0,0,0,0,0,-1,1931,1618,0,0
714,-594,0,0,0,0,0,0,0,0,0,-1,1938,1618,0,0
721,-594,0,0,0,0,0,0,0,0,0,-1,1945,1618,0,0
728,-594,0,0,0,0,0,0,0,0,0,-1,1952,1618,0,0
735,-594,0,0,0,0,0,0,0,0,0,-1,1959,1618,0,0
742,-594,0,0,0,0,0,0,0,0,0,-1,1966,1618,0,0
749,-594,0,0,0,0,0,0,0,0,0,-1,1973,1618,0,0
756,-594,0,0,0,0,0,0,0,0,0,-1,1980,1618,0,0
763,-594,0,0,0,0,0,0,0,0,0,-1,1987,1618,0,0
770,-594,0,0,0,0,0,0,0,0,0,-1,1994,1618,0,0
777,-594,0,0,0,0,0,0,0,0,0,-1,2001,1618,0,0
784,-594,0,0,0,0,0,0,0,0,0,-1,2008,1618,0,0
791,-594,0,0,0,0,0,0,0,0,0,-1,2015,1618,0,0
798,-594,0,0,0,0,0,0,0,0,0,-1,2022,1618,0,0
805,-594,0,0,0,0,0,0,0,0,0,-1,2029,1618,0,0
812,-594,0,0,0,0,0,0,0,0,0,-1,2036,1618,0,0
-700,-601,0,0,0,0,0,0,0,0,0,-1,524,1625,0,0
-693,-601,0,0,0,0,0,0,0,0,0,-1,531,1625,0,0
-686,-601,0,0,0,0,0,0,0,0,0,-1,538,1625,0,0
-679,-601,0,0,0,0,0,0,0,0,0,-1,545,1625,0,0
-672,-601,0,0,0,0,0,0,0,0,0,-1,552,1625,0,0
-665,-601,0,0,0,0,0,0,0,0,0,-1,559,1625,0,0
-658,-601,0,0,0,0,0,0,0,0,0,-1,566,1625,0,0
-651,-601,0,0,0,0,0,0,0,0,0,-1,573,1625,0,0
-644,-601,0,0,0,0,0,0,0,0,0,-1,580,1625,0,0
-637,-601,0,0,0,0,0,0,0,0,0,-1,587,1625,0,0
-630,-601,0,0,0,0,0,0,0,0,0,-1,594,1625,0,0
-623,-601,0,0,0,0,0,0,0,0,0,-1,601,1625,0,0
-616,-601,0,0,0,0,0,0,0,0,0,-1,608,1625,0,0
-609,-601,0,0,0,0,0,0,0,0,0,-1,615,1625,0,0
-602,-601,0,0,0,0,0,0,0,0,0,-1,622,1625,0,0
-595,-601,0,0,0,0,0,0,0,0,0,-1,629,1625,0,0
-588,-601,0,0,0,0,0,0,0,0,0,-1,636,1625,0,0
-581,-601,0,0,0,0,0,0,0,0,0,-1,643,1625,0,0
-574,-601,0,0,0,0,0,0,0,0,0,-1,650,1625,0,0
-567,-601,0,0,0,0,0,0,0,0,0,-1,657,1625,0,0
-560,-601,0,0,0,0,0,0,0,0,0,-1,664,1625,0,0
-553,-601,0,0,0,0,0,0,0,0,0,-1,671,1625,0,0
-546,-601,0,0,0,0,0,0,0,0,0,-1,678,1625,0,0
-539,-601,0,0,0,0,0,0,0,0,0,-1,685,1625,0,0
-532,-601,0,0,0,0,0,0,0,0,0,-1,692,1625,0,0
-525,-601,0,0,0,0,0,0,0,0,0,-1,699,1625,0,0
-518,-601,0,0,0,0,0,0,0,0,0,-1,706,1625,0,0
-511,-601,0,0,0,0,0,0,0,0,0,-1,713,1625,0,0
-504,-601,0,0,0,0,0,0,0,0,0,-1,720,1625,0,0
-497,-601,0,0,0,0,0,0,0,0,0,-1,727,1625,0,0
-490,-601,0,0,0,0,0,0,0,0,0,-1,734,1625,0,0
-483,-601,0,0,0,0,0,0,0,0,0,-1,741,1625,0,0
-476,-601,0,0,0,0,0,0,0,0,0,-1,748,1625,0,0
-469,-601,0,0,0,0,0,0,0,0,0,-1,755,1625,0,0
-462,-601,0,0,0,0,0,0,0,0,0,-1,762,1625,0,0
-455,-601,0,0,0,0,0,0,0,0,0,-1,769,1625,0,0
-448,-601,1.93597,-0.749268,0.0901016,0.159059,0.0869581,0.218124,0.0310362,0.974139,0.136254,0.042507,776,1625,1.93599,0.749314
-441,-601,2.43677,0.798218,0.0933576,0.148514,0.0886921,0.213817,0.028055,0.936131,0.134174,0.0482112,783,1625,2.43674,-0.798209
-434,-601,1.35785,-0.324585,0,0,0,0,0,0,0,-1,790,1625,1.35783,0.324641
-427,-601,1.2608,0.350952,0.0886896,0.121645,0.0852578,0.192003,0.0183317,0.880856,0.12235,0.0456505,797,1625,1.26078,-0.350979
-420,-601,1.08289,0.332397,0,0,0,0,0,0,0,-1,804,1625,1.08288,-0.332376
-413,-601,2.18585,-0.0849609,0,0,0,0,0,0,0,-1,811,1625,2.18584,0.0849989
-406,-601,1.06287,1.92786,0,0,0,0,0,0,0,-1,818,1625,1.06288,-1.92784
-399,-601,2.32037,2.7052,0,0,0,0,0,0,0,-1,825,1625,2.32036,-2.70525
-392,-601,2.25787,3.4646,0.0468442,0.0522298,0.0414038,0.0910283,0.00804573,0.817871,0.0581893,0.0446644,832,1625,2.25786,-3.46462
-385,-601,2.0946,3.93604,0.0368652,0.0403113,0.0329475,0.0715808,0.00559568,0.811523,0.045969,0.0421733,839,1625,2.09462,-3.93604
-378,-601,1.91089,4.05823,0.0266576,0.0277503,0.0244311,0.0516412,0.00276672,0.796577,0.0335433,0.0296575,846,1625,1.91089,-4.05825
-371,-601,1.95276,4.07983,0.0184166,0.0180757,0.0173164,0.0355634,0.000928873,0.780477,0.0234055,0.0140425,853,1625,1.95275,-4.0798
-364,-601,1.95728,4.1554,0.0114635,0.010745,0.0117374,0.0228471,-0.000638567,0.770099,0.0154487,0.00983699,860,1625,1.95727,-4.15535
-357,-601,1.95978,4.25537,0.00681175,0.00533955,0.00731981,0.0134324,-0.00128108,0.735285,0.00941105,0.00955013,867,1625,1.95976,-4.25535
-350,-601,1.98602,4.37231,0.00205837,0.00121874,0.00308408,0.00475108,-0.00147397,0.717752,0.00375638,0.0190223,874,1625,1.98602,-4.3723
-343,-601,1.95551,4.46729,-0.00144409,-0.00113651,0.0005584,-0.000711111,-0.00186949,0.919774,0.0010896,0.0178041,881,1625,1.95553,-4.46734
-336,-601,1.94098,4.5144,-0.00137027,-0.00175695,0.000278576,-0.00122452,-0.00190271,0.482042,0.00111352,0.0136128,888,1625,1.94095,-4.51446
-329,-601,1.94019,4.59521,-0.000456523,-0.00156373,0.000545972,-0.00023259,-0.00178766,0.389229,0.00112231,0.0122409,895,1625,1.94019,-4.59527
-322,-601,1.95874,4.68738,0.000373492,-0.000853331,0.000708362,0.000697124,-0.00117696,0.428555,0.00109376,0.0120109,902,1625,1.95875,-4.6874
-315,-601,1.96912,4.7533,0.000751624,-0.000958698,0.000995028,0.00120848,-0.00141555,0.430425,0.00151655,0.0119831,909,1625,1.96914,-4.75331
-308,-601,1.96796,4.8429,0.000896138,-0.00124122,0.000957246,0.00126217,-0.00160725,0.365225,0.00166065,0.0108895,916,1625,1.96797,-4.84288
-301,-601,1.97687,4.92932,0.00106913,-0.0015804,0.000819256,0.00130199,-0.00181326,0.276925,0.00180664,0.00941969,923,1625,1.97688,-4.92929
-294,-601,1.98346,5.01062,0.000930199,-0.00269463,0.000448764,0.000984931,-0.00274936,0.121362,0.00223478,0.00945146,930,1625,1.98347,-5.01067
-287,-601,1.9848,5.07739,0.000422051,-0.00379371,-0.000282512,0.000440899,-0.00381256,-0.0666163,0.0027007,0.00974565,937,1625,1.98483,-5.07744
-280,-601,1.9798,5.15625,-0.000137148,-0.00513179,-0.00119194,0.000132721,-0.00540166,-0.222657,0.00364615,0.00950486,944,1625,1.97977,-5.1562
-273,-601,1.97876,5.24597,-0.00010556,-0.00715292,-0.00305295,0.00103304,-0.00829152,-0.356972,0.00590224,0.00925632,951,1625,1.97873,-5.24592
-266,-601,1.98456,5.3114,4.06282e-05,-0.00940371,-0.0056501,0.00268205,-0.0120451,-0.437312,0.00905745,0.0118256,958,1625,1.98458,-5.31138
-259,-601,1.98883,5.3479,-0.000151544,-0.0121314,-0.00838591,0.004164,-0.0164469,-0.475274,0.0125844,0.0219212,965,1625,1.98881,-5.34792
-252,-601,2.01587,5.38574,7.90721e-05,-0.0152244,-0.0114394,0.00618993,-0.0213352,-0.490627,0.0166743,0.0389481,972,1625,2.01588,-5.38578
-245,-601,2.00848,5.52832,0.000888932,-0.0171853,-0.0155949,0.00987601,-0.0261724,-0.522797,0.0215098,0.0430992,979,1625,2.00848,-5.5283
-238,-601,2.20343,5.97766,0.00124685,-0.0187929,-0.0200542,0.013645,-0.031191,-0.553719,0.0265386,0.043509,986,1625,2.20342,-5.97766
-231,-601,1.8891,5.45679,0.00126755,-0.0194931,-0.0249245,0.0178869,-0.0361125,-0.588086,0.031763,0.0487054,993,1625,1.88909,-5.45684
-224,-601,1.86938,5.49463,0,0,0,0,0,0,0,-1,1000,1625,1.86939,-5.49467
-217,-601,2.56366,6.89087,0,0,0,0,0,0,0,-1,1007,1625,2.56367,-6.89088
-210,-601,2.23602,7.29541,0,0,0,0,0,0,0,-1,1014,1625,2.23602,-7.29539
-203,-601,1.94794,7.83911,0,0,0,0,0,0,0,-1,1021,1625,1.94795,-7.83909
-196,-601,0.905762,7.38574,0,0,0,0,0,0,0,-1,1028,1625,0.905817,-7.38573
-189,-601,1.58887,5.80969,-0.0115044,-0.0106701,-0.0448461,0.0337608,-0.0559353,-0.790049,0.0523109,0.0437985,1035,1625,1.58887,-5.80965
-182,-601,0.873657,5.87402,-0.0141487,-0.00972076,-0.041183,0.0293077,-0.0531772,-0.812252,0.0482828,0.044707,1042,1625,0.873642,-5.87398
-175,-601,0.572266,5.92871,-0.0177495,-0.0108765,-0.0348574,0.0207134,-0.0493394,-0.834533,0.0415554,0.0491498,1049,1625,0.572296,-5.92867
-168,-601,0.254395,5.63696,0,0,0,0,0,0,0,-1,1056,1625,0.254415,-5.63691
-161,-601,2.06897,4.37402,0,0,0,0,0,0,0,-1,1063,1625,2.06898,-4.37399
-154,-601,-0.0998535,7.8252,0,0,0,0,0,0,0,-1,1070,1625,-0.0998134,-7.82518
-147,-601,1.30493,3.8075,0,0,0,0,0,0,0,-1,1077,1625,1.30495,-3.80752
-140,-601,1.39539,4.42371,-0.0232725,-0.024593,0.0142023,-0.00971514,-0.0381504,0.762169,0.022893,0.0436454,1084,1625,1.39536,-4.42376
-133,-601,1.32629,4.98132,-0.0198557,-0.0350162,0.0259737,-0.000378763,-0.0544932,0.643419,0.0362032,0.0420625,1091,1625,1.32626,-4.98134
-126,-601,1.25989,5.41919,0,0,0,0,0,0,0,-1,1098,1625,1.2599,-5.41922
-119,-601,1.70288,6.10925,0,0,0,0,0,0,0,-1,1105,1625,1.70282,-6.10931
-112,-601,0,0,0,0,0,0,0,0,0,-1,1112,1625,0,0
-105,-601,0,0,0,0,0,0,0,0,0,-1,1119,1625,0,0
-98,-601,0,0,0,0,0,0,0,0,0,-1,1126,1625,0,0
-91,-601,0,0,0,0,0,0,0,0,0,-1,1133,1625,0,0
-84,-601,0,0,0,0,0,0,0,0,0,-1,1140,1625,0,0
-77,-601,0,0,0,0,0,0,0,0,0,-1,1147,1625,0,0
-70,-601,0,0,0,0,0,0,0,0,0,-1,1154,1625,0,0
-63,-601,0,0,0,0,0,0,0,0,0,-1,1161,1625,0,0
-56,-601,0,0,0,0,0,0,0,0,0,-1,1168,1625,0,0
-49,-601,0,0,0,0,0,0,0,0,0,-1,1175,1625,0,0
-42,-601,0,0,0,0,0,0,0,0,0,-1,1182,1625,0,0
-35,-601,0,0,0,0,0,0,0,0,0,-1,1189,1625,0,0
-28,-601,0,0,0,0,0,0,0,0,0,-1,1196,1625,0,0
-21,-601,0,0,0,0,0,0,0,0,0,-1,1203,1625,0,0
-14,-601,0,0,0,0,0,0,0,0,0,-1,1210,1625,0,0
-7,-601,0,0,0,0,0,0,0,0,0,-1,1217,1625,0,0
0,-601,0,0,0,0,0,0,0,0,0,-1,1224,1625,0,0
7,-601,0,0,0,0,0,0,0,0,0,-1,1231,1625,0,0
14,-601,0,0,0,0,0,0,0,0,0,-1,1238,1625,0,0
21,-601,0,0,0,0,0,0,0,0,0,-1,1245,1625,0,0
28,-601,0,0,0,0,0,0,0,0,0,-1,1252,1625,0,0
35,-601,0,0,0,0,0,0,0,0,0,-1,1259,1625,0,0
42,-601,0,0,0,0,0,0,0,0,0,-1,1266,1625,0,0
49,-601,0,0,0,0,0,0,0,0,0,-1,1273,1625,0,0
56,-601,0,0,0,0,0,0,0,0,0,-1,1280,1625,0,0
63,-601,0,0,0,0,0,0,0,0,0,-1,1287,1625,0,0
70,-601,0,0,0,0,0,0,0,0,0,-1,1294,1625,0,0
77,-601,0,0,0,0,0,0,0,0,0,-1,1301,1625,0,0
84,-601,0,0,0,0,0,0,0,0,0,-1,1308,1625,0,0
91,-601,0,0,0,0,0,0,0,0,0,-1,1315,1625,0,0
98,-601,0,0,0,0,0,0,0,0,0,-1,1322,1625,0,0
105,-601,0,0,0,0,0,0,0,0,0,-1,1329,1625,0,0
112,-601,0,0,0,0,0,0,0,0,0,-1,1336,1625,0,0
119,-601,0,0,0,0,0,0,0,0,0,-1,1343,1625,0,0
126,-601,0,0,0,0,0,0,0,0,0,-1,1350,1625,0,0
133,-601,0,0,0,0,0,0,0,0,0,-1,1357,1625,0,0
140,-601,0,0,0,0,0,0,0,0,0,-1,1364,1625,0,0
147,-601,0,0,0,0,0,0,0,0,0,-1,1371,1625,0,0
154,-601,0,0,0,0,0,0,0,0,0,-1,1378,1625,0,0
161,-601,0,0,0,0,0,0,0,0,0,-1,1385,1625,0,0
168,-601,0,0,0,0,0,0,0,0,0,-1,1392,1625,0,0
175,-601,0,0,0,0,0,0,0,0,0,-1,1399,1625,0,0
182,-601,0,0,0,0,0,0,0,0,0,-1,1406,1625,0,0
189,-601,0,0,0,0,0,0,0,0,0,-1,1413,1625,0,0
196,-601,0,0,0,0,0,0,0,0,0,-1,1420,1625,0,0
203,-601,0,0,0,0,0,0,0,0,0,-1,1427,1625,0,0
210,-601,0,0,0,0,0,0,0,0,0,-1,1434,1625,0,0
217,-601,0,0,0,0,0,0,0,0,0,-1,1441,1625,0,0
224,-601,0,0,0,0,0,0,0,0,0,-1,1448,1625,0,0
231,-601,-0.0371094,0.525879,0,0,0,0,0,0,0,-1,1455,1625,-0.0371518,-0.525824
238,-601,2.03369,-1.32861,0,0,0,0,0,0,0,-1,1462,1625,2.03364,1.32858
245,-601,2.71375,2.44983,0,0,0,0,0,0,0,-1,1469,1625,2.71371,-2.44979
252,-601,3.96143,2.28918,0,0,0,0,0,0,0,-1,1476,1625,3.96137,-2.28918
259,-601,5.41162,2.03979,0,0,0,0,0,0,0,-1,1483,1625,5.41166,-2.03978
266,-601,6.75317,1.68701,0,0,0,0,0,0,0,-1,1490,1625,6.75323,-1.687
273,-601,5.4314,2.92053,0,0,0,0,0,0,0,-1,1497,1625,5.43144,-2.92051
280,-601,6.35925,2.08142,0,0,0,0,0,0,0,-1,1504,1625,6.35922,-2.08146
287,-601,6.68201,2.85803,0.078806,0.0624397,0.0954518,0.166425,-0.0251791,0.742637,0.120225,0.042141,1511,1625,6.68202,-2.85802
294,-601,7.04309,3.74426,0.065753,0.0554262,0.079888,0.140644,-0.019465,0.753127,0.100879,0.0446968,1518,1625,7.04312,-3.74423
301,-601,7.19177,4.28699,0,0,0,0,0,0,0,-1,1525,1625,7.19181,-4.28695
308,-601,1.89758,5.0979,0,0,0,0,0,0,0,-1,1532,1625,1.89753,-5.09787
315,-601,2.04663,5.23657,0,0,0,0,0,0,0,-1,1539,1625,2.04664,-5.23653
322,-601,2.17822,5.32446,0,0,0,0,0,0,0,-1,1546,1625,2.17827,-5.32447
329,-601,2.48193,5.30078,0,0,0,0,0,0,0,-1,1553,1625,2.48189,-5.30084
336,-601,2.83203,5.19287,0,0,0,0,0,0,0,-1,1560,1625,2.83201,-5.19286
343,-601,5.58765,6.229,0,0,0,0,0,0,0,-1,1567,1625,5.58759,-6.229
350,-601,4.92114,5.67261,0,0,0,0,0,0,0,-1,1574,1625,4.92111,-5.67258
357,-601,4.31177,5.29749,0,0,0,0,0,0,0,-1,1581,1625,4.31182,-5.29743
364,-601,3.45618,4.83838,0,0,0,0,0,0,0,-1,1588,1625,3.45617,-4.8384
371,-601,4.17639,6.57336,0,0,0,0,0,0,0,-1,1595,1625,4.17637,-6.5734
378,-601,4.29626,5.78027,0,0,0,0,0,0,0,-1,1602,1625,4.29621,-5.78022
385,-601,4.66162,5.7384,-0.00327643,0.00115216,0.0014773,0.00159973,-0.003724,1.27662,0.00315417,0.0474004,1609,1625,4.66163,-5.73845
392,-601,3.95984,5.46008,-0.00340666,-2.55637e-05,0.00180794,0.000759084,-0.0041913,1.16133,0.00307858,0.0384964,1616,1625,3.95981,-5.46003
399,-601,4.05237,5.61011,-0.00249708,-0.000623573,0.0016271,0.000317161,-0.00343782,1.04659,0.00240458,0.0190995,1623,1625,4.0524,-5.61015
406,-601,4.09802,5.5271,-0.00165928,-0.00090588,0.00139675,0.000164073,-0.00272923,0.917114,0.00187657,0.0123043,1630,1625,4.09803,-5.52708
413,-601,4.09436,5.4397,-0.00109621,-0.00107402,0.00120717,0.000122107,-0.00229234,0.789993,0.00157051,0.0108924,1637,1625,4.0944,-5.43968
420,-601,4.10645,5.39722,-0.000669458,-0.00110361,0.000988241,0.000125269,-0.00189833,0.677287,0.00130931,0.0102864,1644,1625,4.10651,-5.39718
427,-601,4.12415,5.34729,-0.000442639,-0.00131154,0.000868021,9.3586e-05,-0.00184776,0.553373,0.00126419,0.0141173,1651,1625,4.12409,-5.34723
434,-601,4.11816,5.25879,-0.00027228,-0.00110006,0.000601726,4.41577e-05,-0.0014165,0.484139,0.000959392,0.0140667,1658,1625,4.11817,-5.25883
441,-601,4.11926,5.16699,6.00839e-05,-0.000955943,0.00021861,0.000105124,-0.00100098,0.203186,0.000704981,0.0159269,1665,1625,4.11927,-5.16698
448,-601,4.12817,5.10046,7.37787e-05,-0.000685809,-6.49277e-05,7.92886e-05,-0.000691319,-0.0846592,0.000489454,0.0138185,1672,1625,4.12821,-5.10044
455,-601,4.12256,5.01331,4.43595e-06,-0.000644393,-0.000445915,0.00023146,-0.000871417,-0.470917,0.000671529,0.0120009,1679,1625,4.12259,-5.01326
462,-601,4.11133,4.94714,5.0252e-06,-0.000626598,-0.000758128,0.00051049,-0.00113206,-0.588045,0.000970699,0.0102264,1686,1625,4.11136,-4.94714
469,-601,4.11646,4.88696,0.000136574,-0.000493677,-0.00124932,0.0011099,-0.001467,-0.661856,0.00149253,0.0103456,1693,1625,4.1164,-4.88691
476,-601,4.09021,4.80591,0.00020993,-0.000432829,-0.00170181,0.00162044,-0.00184334,-0.692074,0.00200119,0.0133517,1700,1625,4.09016,-4.80591
483,-601,4.04529,4.71729,0.000434119,-0.000421389,-0.00215365,0.00220209,-0.00218936,-0.687365,0.00253541,0.0169113,1707,1625,4.04525,-4.71723
490,-601,4.05872,4.63379,0.000961139,-0.000289105,-0.00283015,0.00323439,-0.00256235,-0.676704,0.00335424,0.0121061,1714,1625,4.05874,-4.63383
497,-601,4.10706,4.53577,0.00154012,-5.68204e-06,-0.00360485,0.004454,-0.00291956,-0.679794,0.00428774,0.00927209,1721,1625,4.10704,-4.53576
504,-601,4.11694,4.4397,0.00251668,0.00060242,-0.00464842,0.00630549,-0.00318639,-0.683865,0.00557789,0.0113211,1728,1625,4.11694,-4.43971
511,-601,4.13049,4.39343,0.00391152,0.00271464,-0.00606356,0.0094061,-0.00277995,-0.73621,0.00737417,0.0214678,1735,1625,4.13047,-4.39341
518,-601,4.13342,4.33997,0.00604119,0.00683922,-0.00774137,0.0141919,-0.00131144,-0.811147,0.0099273,0.0324668,1742,1625,4.13343,-4.33993
525,-601,4.0946,4.26477,0.00902694,0.0136656,-0.0092789,0.0209106,0.00178189,-0.907867,0.0133861,0.0432991,1749,1625,4.09464,-4.26479
532,-601,4.05029,4.15869,0.0131524,0.0257383,-0.0106018,0.0317742,0.00711654,-1.05324,0.0192541,0.0487602,1756,1625,4.05028,-4.15869
539,-601,4.10437,4.03662,0,0,0,0,0,0,0,-1,1763,1625,4.10437,-4.0366
546,-601,6.09253,1.18555,0,0,0,0,0,0,0,-1,1770,1625,6.09253,-1.1856
553,-601,4.46118,1.53906,0,0,0,0,0,0,0,-1,1777,1625,4.46121,-1.53902
560,-601,4.71838,1.18726,0,0,0,0,0,0,0,-1,1784,1625,4.71844,-1.18721
567,-601,4.70752,0.457397,0,0,0,0,0,0,0,-1,1791,1625,4.70748,-0.457358
574,-601,0,0,0,0,0,0,0,0,0,-1,1798,1625,0,0
581,-601,0,0,0,0,0,0,0,0,0,-1,1805,1625,0,0
588,-601,0,0,0,0,0,0,0,0,0,-1,1812,1625,0,0
595,-601,0,0,0,0,0,0,0,0,0,-1,1819,1625,0,0
602,-601,0,0,0,0,0,0,0,0,0,-1,1826,1625,0,0
609,-601,0,0,0,0,0,0,0,0,0,-1,1833,1625,0,0
616,-601,0,0,0,0,0,0,0,0,0,-1,1840,1625,0,0
623,-601,0,0,0,0,0,0,0,0,0,-1,1847,1625,0,0
630,-601,0,0,0,0,0,0,0,0,0,-1,1854,1625,0,0
637,-601,0,0,0,0,0,0,0,0,0,-1,1861,1625,0,0
644,-601,0,0,0,0,0,0,0,0,0,-1,1868,1625,0,0
651,-601,0,0,0,0,0,0,0,0,0,-1,1875,1625,0,0
658,-601,0,0,0,0,0,0,0,0,0,-1,1882,1625,0,0
665,-601,0,0,0,0,0,0,0,0,0,-1,1889,1625,0,0
672,-601,0,0,0,0,0,0,0,0,0,-1,1896,1625,0,0
679,-601,0,0,0,0,0,0,0,0,0,-1,1903,1625,0,0
686,-601,0,0,0,0,0,0,0,0,0,-1,1910,1625,0,0
693,-601,0,0,0,0,0,0,0,0,0,-1,1917,1625,0,0
700,-601,0,0,0,0,0,0,0,0,0,-1,1924,1625,0,0
707,-601,0,0,0,0,0,0,0,0,0,-1,1931,1625,0,0
714,-601,0,0,0,0,0,0,0,0,0,-1,1938,1625,0,0
721,-601,0,0,0,0,0,0,0,0,0,-1,1945,1625,0,0
728,-601,0,0,0,0,0,0,0,0,0,-1,1952,1625,0,0
735,-601,0,0,0,0,0,0,0,0,0,-1,1959,1625,0,0
742,-601,0,0,0,0,0,0,0,0,0,-1,1966,1625,0,0
749,-601,0,0,0,0,0,0,0,0,0,-1,1973,1625,0,0
756,-601,0,0,0,0,0,0,0,0,0,-1,1980,1625,0,0
763,-601,0,0,0,0,0,0,0,0,0,-1,1987,1625,0,0
770,-601,0,0,0,0,0,0,0,0,0,-1,1994,1625,0,0
777,-601,0,0,0,0,0,0,0,0,0,-1,2001,1625,0,0
784,-601,0,0,0,0,0,0,0,0,0,-1,2008,1625,0,0
791,-601,0,0,0,0,0,0,0,0,0,-1,2015,1625,0,0
798,-601,0,0,0,0,0,0,0,0,0,-1,2022,1625,0,0
805,-601,0,0,0,0,0,0,0,0,0,-1,2029,1625,0,0
812,-601,0,0,0,0,0,0,0,0,0,-1,2036,1625,0,0
-700,-608,0,0,0,0,0,0,0,0,0,-1,524,1632,0,0
-693,-608,0,0,0,0,0,0,0,0,0,-1,531,1632,0,0
-686,-608,0,0,0,0,0,0,0,0,0,-1,538,1632,0,0
-679,-608,0,0,0,0,0,0,0,0,0,-1,545,1632,0,0
-672,-608,0,0,0,0,0,0,0,0,0,-1,552,1632,0,0
-665,-608,0,0,0,0,0,0,0,0,0,-1,559,1632,0,0
-658,-608,0,0,0,0,0,0,0,0,0,-1,566,1632,0,0
-651,-608,0,0,0,0,0,0,0,0,0,-1,573,1632,0,0
-644,-608,0,0,0,0,0,0,0,0,0,-1,580,1632,0,0
-637,-608,0,0,0,0,0,0,0,0,0,-1,587,1632,0,0
-630,-608,0,0,0,0,0,0,0,0,0,-1,594,1632,0,0
-623,-608,0,0,0,0,0,0,0,0,0,-1,601,1632,0,0
-616,-608,0,0,0,0,0,0,0,0,0,-1,608,1632,0,0
-609,-608,0,0,0,0,0,0,0,0,0,-1,615,1632,0,0
-602,-608,0,0,0,0,0,0,0,0,0,-1,622,1632,0,0
-595,-608,0,0,0,0,0,0,0,0,0,-1,629,1632,0,0
-588,-608,0,0,0,0,0,0,0,0,0,-1,636,1632,0,0
-581,-608,0,0,0,0,0,0,0,0,0,-1,643,1632,0,0
-574,-608,0,0,0,0,0,0,0,0,0,-1,650,1632,0,0
-567,-608,0,0,0,0,0,0,0,0,0,-1,657,1632,0,0
-560,-608,0,0,0,0,0,0,0,0,0,-1,664,1632,0,0
-553,-608,0,0,0,0,0,0,0,0,0,-1,671,1632,0,0
-546,-608,0,0,0,0,0,0,0,0,0,-1,678,1632,0,0
-539,-608,0,0,0,0,0,0,0,0,0,-1,685,1632,0,0
-532,-608,0,0,0,0,0,0,0,0,0,-1,692,1632,0,0
-525,-608,0,0,0,0,0,0,0,0,0,-1,699,1632,0,0
-518,-608,0,0,0,0,0,0,0,0,0,-1,706,1632,0,0
-511,-608,0,0,0,0,0,0,0,0,0,-1,713,1632,0,0
-504,-608,0,0,0,0,0,0,0,0,0,-1,720,1632,0,0
-497,-608,0,0,0,0,0,0,0,0,0,-1,727,1632,0,0
-490,-608,0,0,0,0,0,0,0,0,0,-1,734,1632,0,0
-483,-608,0,0,0,0,0,0,0,0,0,-1,741,1632,0,0
-476,-608,0,0,0,0,0,0,0,0,0,-1,748,1632,0,0
-469,-608,0,0,0,0,0,0,0,0,0,-1,755,1632,0,0
-462,-608,0,0,0,0,0,0,0,0,0,-1,762,1632,0,0
-455,-608,0,0,0,0,0,0,0,0,0,-1,769,1632,0,0
-448,-608,0,0,0,0,0,0,0,0,0,-1,776,1632,0,0
-441,-608,2.76678,0.515991,0,0,0,0,0,0,0,-1,783,1632,2.76679,-0.515968
-434,-608,2.63165,2.71899,0,0,0,0,0,0,0,-1,790,1632,2.63164,-2.71902
-427,-608,0.907166,-0.582397,0,0,0,0,0,0,0,-1,797,1632,0.907149,0.582408
-420,-608,-2.29651,-1.5824,0,0,0,0,0,0,0,-1,804,1632,-2.29649,1.58242
-413,-608,-0.908264,-0.508911,0,0,0,0,0,0,0,-1,811,1632,-0.908246,0.508905
-406,-608,0.530029,0.701294,0.0891494,0.0964074,0.0764318,0.169296,0.0162605,0.809121,0.107853,0.0437266,818,1632,0.530053,-0.701239
-399,-608,2.18134,1.63306,0.0765404,0.0806479,0.0651241,0.143751,0.0134377,0.801161,0.0916834,0.0466786,825,1632,2.18134,-1.63304
-392,-608,3.66559,2.72803,0,0,0,0,0,0,0,-1,832,1632,3.66557,-2.72806
-385,-608,2.21405,4.03992,0,0,0,0,0,0,0,-1,839,1632,2.21405,-4.03989
-378,-608,1.82648,4.42627,0.0352248,0.0350983,0.0320274,0.067189,0.00313409,0.78441,0.0437854,0.0478589,846,1632,1.8265,-4.42631
-371,-608,1.97943,4.16956,0.0238996,0.0231996,0.0228462,0.0463984,0.000700757,0.777738,0.0307014,0.0363223,853,1632,1.97944,-4.16952
-364,-608,2.03894,4.1405,0.0144767,0.0141886,0.0155283,0.0298616,-0.00119624,0.78076,0.0203182,0.0143809,860,1632,2.03895,-4.14055
-357,-608,2.03992,4.23962,0.00823428,0.00760618,0.00988463,0.0178098,-0.00196939,0.769518,0.0125812,0.0120981,867,1632,2.03991,-4.23965
-350,-608,2.04431,4.36047,0.0020618,0.00237515,0.00455693,0.0067781,-0.00234115,0.802583,0.00546879,0.0175929,874,1632,2.04433,-4.36049
-343,-608,2.04681,4.43579,-0.0025324,-0.000768138,0.00106254,-0.000269273,-0.00303126,1.13184,0.00193733,0.0190567,881,1632,2.04684,-4.43574
-336,-608,2.04333,4.49951,-0.00246643,-0.00153441,0.00040881,-0.00138051,-0.00262033,1.21074,0.00151358,0.0115975,888,1632,2.04336,-4.49956
-329,-608,2.04919,4.5979,-0.00119674,-0.00120445,0.000480654,-0.000719925,-0.00168126,0.781384,0.000974008,0.0110754,895,1632,2.04918,-4.59786
-322,-608,2.05884,4.68628,-5.31112e-05,-0.000523122,0.000464271,0.000232244,-0.000808477,0.551108,0.000630815,0.0126278,902,1632,2.05885,-4.68624
-315,-608,2.06458,4.76025,0.000570137,-0.000530572,0.00064429,0.000867131,-0.000827567,0.431934,0.000978523,0.0113554,909,1632,2.0646,-4.76021
-308,-608,2.04895,4.85059,0.00096701,-0.00059026,0.000503343,0.00111554,-0.000738786,0.286935,0.00107793,0.0118386,916,1632,2.04894,-4.85059
-301,-608,2.06342,4.92932,0.00118787,-0.000742625,0.000168882,0.00120253,-0.000757288,0.0866044,0.00114119,0.0102704,923,1632,2.06344,-4.9293
-294,-608,2.0697,5.00806,0.00101456,-0.0014417,-0.000251664,0.00104008,-0.00146722,-0.101059,0.00145458,0.0105276,930,1632,2.06969,-5.00805
-287,-608,2.03857,5.0929,0.000572323,-0.00224572,-0.000925027,0.000848833,-0.00252223,-0.290467,0.00202464,0.0106819,937,1632,2.03859,-5.09285
-280,-608,2.02985,5.15503,1.64477e-05,-0.00327828,-0.00178613,0.000798912,-0.00406074,-0.412896,0.00300903,0.00876104,944,1632,2.02983,-5.15506
-273,-608,2.03424,5.2301,-0.000107584,-0.00487331,-0.00337486,0.00164087,-0.00662176,-0.478007,0.0050511,0.00778866,951,1632,2.03422,-5.23014
-266,-608,2.06104,5.29761,-0.000163824,-0.00662155,-0.00548255,0.00297001,-0.00975538,-0.519276,0.00768728,0.00765008,958,1632,2.06101,-5.29757
-259,-608,2.07715,5.35559,-0.000553257,-0.00876761,-0.00768726,0.00405524,-0.0133761,-0.54005,0.0105327,0.0109338,965,1632,2.07716,-5.35554
-252,-608,2.08014,5.41895,-0.000420486,-0.0111685,-0.0101313,0.00567386,-0.0172628,-0.541549,0.0137944,0.0234431,972,1632,2.08012,-5.41893
-245,-608,2.11176,5.63635,0.000331548,-0.012521,-0.0135689,0.00891898,-0.0211084,-0.564244,0.0178061,0.0342852,979,1632,2.11174,-5.6364
-238,-608,2.11823,5.5293,0.000628573,-0.0137039,-0.0172147,0.0121091,-0.0251844,-0.588165,0.0219681,0.0400646,986,1632,2.11821,-5.52924
-231,-608,2.02594,5.53442,0.000736121,-0.014146,-0.0212388,0.0157996,-0.0292095,-0.616904,0.0263677,0.0454173,993,1632,2.02592,-5.53442
-224,-608,1.97729,5.61731,0.00115267,-0.0135669,-0.0256538,0.0204815,-0.0328958,-0.645705,0.031094,0.0482803,1000,1632,1.97728,-5.61731
-217,-608,2.01831,5.73193,0,0,0,0,0,0,0,-1,1007,1632,2.01832,-5.73189
-210,-608,2.99725,7.83618,0,0,0,0,0,0,0,-1,1014,1632,2.99727,-7.83613
-203,-608,1.04413,6.38025,0,0,0,0,0,0,0,-1,1021,1632,1.04414,-6.38027
-196,-608,1.31714,6.9021,-0.00376989,-0.0106545,-0.0366645,0.0296136,-0.0440379,-0.738592,0.0427937,0.0480751,1028,1632,1.31717,-6.90209
-189,-608,2.00793,5.60059,-0.0063503,-0.00870777,-0.0364776,0.0289676,-0.0440257,-0.769247,0.0424406,0.04231,1035,1632,2.00788,-5.60064
-182,-608,1.63757,5.3595,-0.00879772,-0.00913795,-0.0336084,0.024641,-0.0425766,-0.782867,0.0392659,0.0404375,1042,1632,1.63754,-5.35947
-175,-608,1.50708,5.20227,-0.0118141,-0.0114593,-0.0284184,0.0167823,-0.0400557,-0.788519,0.0337199,0.0478666,1049,1632,1.50704,-5.20227
-168,-608,3.00476,4.3407,0,0,0,0,0,0,0,-1,1056,1632,3.00471,-4.3407
-161,-608,2.16504,4.73071,0,0,0,0,0,0,0,-1,1063,1632,2.16505,-4.73071
-154,-608,1.32544,5.12073,0,0,0,0,0,0,0,-1,1070,1632,1.32539,-5.12071
-147,-608,1.39331,4.55823,0,0,0,0,0,0,0,-1,1077,1632,1.39334,-4.55824
-140,-608,1.47571,4.63257,-0.0183727,-0.0357328,0.0155708,-0.009226,-0.0448795,0.531124,0.0273677,0.0472818,1084,1632,1.47577,-4.63255
-133,-608,1.40112,5.19141,-0.0152658,-0.0436621,0.0251605,-0.000573814,-0.0583541,0.528519,0.0387129,0.0448807,1091,1632,1.40112,-5.19141
-126,-608,1.22864,5.70862,-0.010104,-0.0504237,0.0336895,0.00899685,-0.0695245,0.515776,0.0496212,0.0423549,1098,1632,1.2287,-5.70857
-119,-608,1.2854,6.3302,0.000505102,-0.0517958,0.0387276,0.0210844,-0.0723751,0.488441,0.0566027,0.0443221,1105,1632,1.28542,-6.33023
-112,-608,1.43726,7.01636,0,0,0,0,0,0,0,-1,1112,1632,1.43725,-7.01637
-105,-608,2.59558,4.57776,0,0,0,0,0,0,0,-1,1119,1632,2.59563,-4.57777
-98,-608,2.72302,1.18152,0,0,0,0,0,0,0,-1,1126,1632,2.72308,-1.1815
-91,-608,3.06433,-0.0145264,0,0,0,0,0,0,0,-1,1133,1632,3.06431,0.0144969
-84,-608,0,0,0,0,0,0,0,0,0,-1,1140,1632,0,0
-77,-608,0,0,0,0,0,0,0,0,0,-1,1147,1632,0,0
-70,-608,0,0,0,0,0,0,0,0,0,-1,1154,1632,0,0
-63,-608,0,0,0,0,0,0,0,0,0,-1,1161,1632,0,0
-56,-608,0,0,0,0,0,0,0,0,0,-1,1168,1632,0,0
-49,-608,0,0,0,0,0,0,0,0,0,-1,1175,1632,0,0
-42,-608,0,0,0,0,0,0,0,0,0,-1,1182,1632,0,0
-35,-608,0,0,0,0,0,0,0,0,0,-1,1189,1632,0,0
-28,-608,0,0,0,0,0,0,0,0,0,-1,1196,1632,0,0
-21,-608,0,0,0,0,0,0,0,0,0,-1,1203,1632,0,0
-14,-608,0,0,0,0,0,0,0,0,0,-1,1210,1632,0,0
-7,-608,0,0,0,0,0,0,0,0,0,-1,1217,1632,0,0
0,-608,0,0,0,0,0,0,0,0,0,-1,1224,1632,0,0
7,-608,0,0,0,0,0,0,0,0,0,-1,1231,1632,0,0
14,-608,0,0,0,0,0,0,0,0,0,-1,1238,1632,0,0
21,-608,0,0,0,0,0,0,0,0,0,-1,1245,1632,0,0
28,-608,0,0,0,0,0,0,0,0,0,-1,1252,1632,0,0
35,-608,0,0,0,0,0,0,0,0,0,-1,1259,1632,0,0
42,-608,0,0,0,0,0,0,0,0,0,-1,1266,1632,0,0
49,-608,0,0,0,0,0,0,0,0,0,-1,1273,1632,0,0
56,-608,0,0,0,0,0,0,0,0,0,-1,1280,1632,0,0
63,-608,0,0,0,0,0,0,0,0,0,-1,1287,1632,0,0
70,-608,0,0,0,0,0,0,0,0,0,-1,1294,1632,0,0
77,-608,0,0,0,0,0,0,0,0,0,-1,1301,1632,0,0
84,-608,0,0,0,0,0,0,0,0,0,-1,1308,1632,0,0
91,-608,0,0,0,0,0,0,0,0,0,-1,1315,1632,0,0
98,-608,0,0,0,0,0,0,0,0,0,-1,1322,1632,0,0
105,-608,0,0,0,0,0,0,0,0,0,-1,1329,1632,0,0
112,-608,0,0,0,0,0,0,0,0,0,-1,1336,1632,0,0
119,-608,0,0,0,0,0,0,0,0,0,-1,1343,1632,0,0
126,-608,0,0,0,0,0,0,0,0,0,-1,1350,1632,0,0
133,-608,0,0,0,0,0,0,0,0,0,-1,1357,1632,0,0
140,-608,0,0,0,0,0,0,0,0,0,-1,1364,1632,0,0
147,-608,0,0,0,0,0,0,0,0,0,-1,1371,1632,0,0
154,-608,0,0,0,0,0,0,0,0,0,-1,1378,1632,0,0
161,-608,0,0,0,0,0,0,0,0,0,-1,1385,1632,0,0
168,-608,0,0,0,0,0,0,0,0,0,-1,1392,1632,0,0
175,-608,0,0,0,0,0,0,0,0,0,-1,1399,1632,0,0
182,-608,0,0,0,0,0,0,0,0,0,-1,1406,1632,0,0
189,-608,0,0,0,0,0,0,0,0,0,-1,1413,1632,0,0
196,-608,0,0,0,0,0,0,0,0,0,-1,1420,1632,0,0
203,-608,0,0,0,0,0,0,0,0,0,-1,1427,1632,0,0
210,-608,5.7157,-0.333008,0,0,0,0,0,0,0,-1,1434,1632,5.71566,0.333004
217,-608,4.49402,-0.831787,0,0,0,0,0,0,0,-1,1441,1632,4.49396,0.831738
224,-608,4.18018,-1.11792,0,0,0,0,0,0,0,-1,1448,1632,4.1802,1.11796
231,-608,0.361816,0.825195,0,0,0,0,0,0,0,-1,1455,1632,0.36185,-0.825226
238,-608,2.85388,-0.28833,0,0,0,0,0,0,0,-1,1462,1632,2.85391,0.288282
245,-608,2.92725,3.57251,0,0,0,0,0,0,0,-1,1469,1632,2.92726,-3.57253
252,-608,4.45203,3.1698,0,0,0,0,0,0,0,-1,1476,1632,4.45206,-3.16979
259,-608,5.87549,2.8241,0,0,0,0,0,0,0,-1,1483,1632,5.87553,-2.8241
266,-608,7.33411,2.43335,0,0,0,0,0,0,0,-1,1490,1632,7.33409,-2.43336
273,-608,4.97668,0.806396,0,0,0,0,0,0,0,-1,1497,1632,4.97665,-0.806427
280,-608,5.62048,1.67688,0.0925667,0.0650856,0.10242,0.182164,-0.0245113,0.718717,0.130383,0.0465805,1504,1632,5.62046,-1.67693
287,-608,5.97217,2.65723,0.0755706,0.056572,0.0867337,0.153324,-0.021181,0.730854,0.109958,0.044669,1511,1632,5.97218,-2.65721
294,-608,6.42346,3.93579,0.0629063,0.0504389,0.0729615,0.1299,-0.0165547,0.742782,0.0926127,0.0464476,1518,1632,6.42348,-3.93575
301,-608,6.72168,4.37683,0,0,0,0,0,0,0,-1,1525,1632,6.72166,-4.37686
308,-608,2.85815,5.00537,0,0,0,0,0,0,0,-1,1532,1632,2.8582,-5.00538
315,-608,2.39526,5.47131,0,0,0,0,0,0,0,-1,1539,1632,2.39524,-5.47134
322,-608,2.14685,7.52112,0,0,0,0,0,0,0,-1,1546,1632,2.14691,-7.52109
329,-608,2.71411,7.2865,0,0,0,0,0,0,0,-1,1553,1632,2.71411,-7.28653
336,-608,3.26025,5.67859,0,0,0,0,0,0,0,-1,1560,1632,3.26028,-5.67861
343,-608,5.47192,5.61047,0,0,0,0,0,0,0,-1,1567,1632,5.47192,-5.61045
350,-608,4.57861,5.67786,0,0,0,0,0,0,0,-1,1574,1632,4.57857,-5.67783
357,-608,3.77002,5.10046,0,0,0,0,0,0,0,-1,1581,1632,3.77002,-5.10043
364,-608,3.81311,6.59045,0,0,0,0,0,0,0,-1,1588,1632,3.81312,-6.59041
371,-608,3.99695,6.29236,-0.000904042,0.00628825,-0.00149667,0.00658727,-0.00120306,-1.3736,0.0048426,0.041655,1595,1632,3.99701,-6.29239
378,-608,4.1156,5.79358,-0.00155113,0.00342329,-0.000250067,0.00343583,-0.00156367,-1.52069,0.00295315,0.0368045,1602,1632,4.11563,-5.79356
385,-608,4.22827,5.75232,-0.00250105,0.00130555,0.00115844,0.00163037,-0.00282587,1.29742,0.00260349,0.0302008,1609,1632,4.22822,-5.75229
392,-608,4.0448,5.65222,-0.00276837,0.00027746,0.00151216,0.00090068,-0.00339159,1.17987,0.00261354,0.0194719,1616,1632,4.04479,-5.65225
399,-608,4.02478,5.62537,-0.00215651,-0.000198807,0.0013912,0.000523401,-0.00287871,1.09197,0.00211531,0.00977739,1623,1632,4.0248,-5.62543
406,-608,4.0249,5.54651,-0.00155208,-0.000436581,0.00122654,0.000353065,-0.00234173,0.998791,0.00169117,0.00911829,1630,1632,4.02492,-5.54648
413,-608,4.02039,5.46985,-0.00110878,-0.000534898,0.00108016,0.000295788,-0.00193946,0.915222,0.00140201,0.0101816,1637,1632,4.02039,-5.46987
420,-608,4.01599,5.38989,-0.000760204,-0.000513401,0.000905968,0.000277531,-0.00155114,0.853086,0.00113794,0.01709,1644,1632,4.01595,-5.38988
427,-608,4.02734,5.32239,-0.00055645,-0.000671086,0.000827815,0.000216029,-0.00144357,0.750833,0.00104188,0.0176301,1651,1632,4.02733,-5.32238
434,-608,4.03613,5.25342,-0.000382547,-0.000468762,0.000600799,0.000176689,-0.001028,0.749584,0.000751187,0.0134551,1658,1632,4.03611,-5.2534
441,-608,4.01855,5.19458,-9.3729e-05,-0.000364828,0.0002182,2.75973e-05,-0.000486154,0.507462,0.000333682,0.0125565,1665,1632,4.01861,-5.19452
448,-608,4.03235,5.12915,-0.000101622,-0.00014344,-0.000117275,-3.40673e-06,-0.000241656,-0.697181,0.00015998,0.014476,1672,1632,4.03237,-5.12912
455,-608,4.05847,5.03601,-0.000135218,-0.000181474,-0.000547499,0.000389641,-0.000706333,-0.764289,0.000641506,0.0106468,1679,1632,4.05852,-5.03601
462,-608,4.05017,4.9668,-9.95675e-05,-0.000245305,-0.00094423,0.000774601,-0.00111947,-0.746888,0.00109957,0.00954089,1686,1632,4.05016,-4.96681
469,-608,4.02344,4.88794,6.88131e-05,-0.000246819,-0.00154248,0.00146153,-0.00163953,-0.734419,0.00179138,0.00815647,1693,1632,4.02339,-4.88797
476,-608,4.01086,4.79358,0.000174396,-0.000366823,-0.00212744,0.00204837,-0.0022408,-0.722138,0.00247718,0.00922031,1700,1632,4.01091,-4.79363
483,-608,4.01941,4.70374,0.000424256,-0.00056555,-0.0027337,0.00270749,-0.00284878,-0.695849,0.00320826,0.00911475,1707,1632,4.0194,-4.70376
490,-608,4.04993,4.62988,0.000963355,-0.000665825,-0.00355735,0.00379819,-0.00350066,-0.672845,0.00421516,0.00872409,1714,1632,4.04987,-4.62984
497,-608,4.06018,4.55164,0.00156616,-0.000619711,-0.00450111,0.00510512,-0.00415868,-0.666296,0.00535775,0.0119489,1721,1632,4.06019,-4.55159
504,-608,4.04626,4.48352,0.00260924,-0.000266362,-0.00570607,0.00705587,-0.00471299,-0.661979,0.00683949,0.0245272,1728,1632,4.04623,-4.48353
511,-608,4.12036,4.40503,0.00414662,0.00171161,-0.00729258,0.0103226,-0.0044644,-0.702686,0.00875777,0.0397899,1735,1632,4.1204,-4.40501
518,-608,4.39697,4.26135,0.00648168,0.00608579,-0.00915034,0.0154362,-0.00286875,-0.774583,0.0113684,0.0453467,1742,1632,4.39692,-4.2614
525,-608,4.63586,4.2478,0,0,0,0,0,0,0,-1,1749,1632,4.63582,-4.24779
532,-608,3.96765,4.15564,0,0,0,0,0,0,0,-1,1756,1632,3.96767,-4.15558
539,-608,6.30688,-0.223389,0,0,0,0,0,0,0,-1,1763,1632,6.30688,0.223366
546,-608,6.36108,-0.452026,0,0,0,0,0,0,0,-1,1770,1632,6.36105,0.451975
553,-608,6.3761,-0.552856,0,0,0,0,0,0,0,-1,1777,1632,6.37612,0.552897
560,-608,4.7511,0.281128,0,0,0,0,0,0,0,-1,1784,1632,4.75109,-0.281104
567,-608,0,0,0,0,0,0,0,0,0,-1,1791,1632,0,0
574,-608,0,0,0,0,0,0,0,0,0,-1,1798,1632,0,0
581,-608,0,0,0,0,0,0,0,0,0,-1,1805,1632,0,0
588,-608,0,0,0,0,0,0,0,0,0,-1,1812,1632,0,0
595,-608,0,0,0,0,0,0,0,0,0,-1,1819,1632,0,0
602,-608,0,0,0,0,0,0,0,0,0,-1,1826,1632,0,0
609,-608,0,0,0,0,0,0,0,0,0,-1,1833,1632,0,0
616,-608,0,0,0,0,0,0,0,0,0,-1,1840,1632,0,0
623,-608,0,0,0,0,0,0,0,0,0,-1,1847,1632,0,0
630,-608,0,0,0,0,0,0,0,0,0,-1,1854,1632,0,0
637,-608,0,0,0,0,0,0,0,0,0,-1,1861,1632,0,0
644,-608,0,0,0,0,0,0,0,0,0,-1,1868,1632,0,0
651,-608,0,0,0,0,0,0,0,0,0,-1,1875,1632,0,0
658,-608,0,0,0,0,0,0,0,0,0,-1,1882,1632,0,0
665,-608,0,0,0,0,0,0,0,0,0,-1,1889,1632,0,0
672,-608,0,0,0,0,0,0,0,0,0,-1,1896,1632,0,0
679,-608,0,0,0,0,0,0,0,0,0,-1,1903,1632,0,0
686,-608,0,0,0,0,0,0,0,0,0,-1,1910,1632,0,0
693,-608,0,0,0,0,0,0,0,0,0,-1,1917,1632,0,0
700,-608,0,0,0,0,0,0,0,0,0,-1,1924,1632,0,0
707,-608,0,0,0,0,0,0,0,0,0,-1,1931,1632,0,0
714,-608,0,0,0,0,0,0,0,0,0,-1,1938,1632,0,0
721,-608,0,0,0,0,0,0,0,0,0,-1,1945,1632,0,0
728,-608,0,0,0,0,0,0,0,0,0,-1,1952,1632,0,0
735,-608,0,0,0,0,0,0,0,0,0,-1,1959,1632,0,0
742,-608,0,0,0,0,0,0,0,0,0,-1,1966,1632,0,0
749,-608,0,0,0,0,0,0,0,0,0,-1,1973,1632,0,0
756,-608,0,0,0,0,0,0,0,0,0,-1,1980,1632,0,0
763,-608,0,0,0,0,0,0,0,0,0,-1,1987,1632,0,0
770,-608,0,0,0,0,0,0,0,0,0,-1,1994,1632,0,0
777,-608,0,0,0,0,0,0,0,0,0,-1,2001,1632,0,0
784,-608,0,0,0,0,0,0,0,0,0,-1,2008,1632,0,0
791,-608,0,0,0,0,0,0,0,0,0,-1,2015,1632,0,0
798,-608,0,0,0,0,0,0,0,0,0,-1,2022,1632,0,0
805,-608,0,0,0,0,0,0,0,0,0,-1,2029,1632,0,0
812,-608,0,0,0,0,0,0,0,0,0,-1,2036,1632,0,0
-700,-615,0,0,0,0,0,0,0,0,0,-1,524,1639,0,0
-693,-615,0,0,0,0,0,0,0,0,0,-1,531,1639,0,0
-686,-615,0,0,0,0,0,0,0,0,0,-1,538,1639,0,0
-679,-615,0,0,0,0,0,0,0,0,0,-1,545,1639,0,0
-672,-615,0,0,0,0,0,0,0,0,0,-1,552,1639,0,0
-665,-615,0,0,0,0,0,0,0,0,0,-1,559,1639,0,0
-658,-615,0,0,0,0,0,0,0,0,0,-1,566,1639,0,0
-651,-615,0,0,0,0,0,0,0,0,0,-1,573,1639,0,0
-644,-615,0,0,0,0,0,0,0,0,0,-1,580,1639,0,0
-637,-615,0,0,0,0,0,0,0,0,0,-1,587,1639,0,0
-630,-615,0,0,0,0,0,0,0,0,0,-1,594,1639,0,0
-623,-615,0,0,0,0,0,0,0,0,0,-1,601,1639,0,0
-616,-615,0,0,0,0,0,0,0,0,0,-1,608,1639,0,0
-609,-615,0,0,0,0,0,0,0,0,0,-1,615,1639,0,0
-602,-615,0,0,0,0,0,0,0,0,0,-1,622,1639,0,0
-595,-615,0,0,0,0,0,0,0,0,0,-1,629,1639,0,0
-588,-615,0,0,0,0,0,0,0,0,0,-1,636,1639,0,0
-581,-615,0,0,0,0,0,0,0,0,0,-1,643,1639,0,0
-574,-615,0,0,0,0,0,0,0,0,0,-1,650,1639,0,0
-567,-615,0,0,0,0,0,0,0,0,0,-1,657,1639,0,0
-560,-615,0,0,0,0,0,0,0,0,0,-1,664,1639,0,0
-553,-615,0,0,0,0,0,0,0,0,0,-1,671,1639,0,0
-546,-615,0,0,0,0,0,0,0,0,0,-1,678,1639,0,0
-539,-615,0,0,0,0,0,0,0,0,0,-1,685,1639,0,0
-532,-615,0,0,0,0,0,0,0,0,0,-1,692,1639,0,0
-525,-615,0,0,0,0,0,0,0,0,0,-1,699,1639,0,0
-518,-615,0,0,0,0,0,0,0,0,0,-1,706,1639,0,0
-511,-615,0,0,0,0,0,0,0,0,0,-1,713,1639,0,0
-504,-615,0,0,0,0,0,0,0,0,0,-1,720,1639,0,0
-497,-615,0,0,0,0,0,0,0,0,0,-1,727,1639,0,0
-490,-615,0,0,0,0,0,0,0,0,0,-1,734,1639,0,0
-483,-615,0,0,0,0,0,0,0,0,0,-1,741,1639,0,0
-476,-615,0,0,0,0,0,0,0,0,0,-1,748,1639,0,0
-469,-615,0,0,0,0,0,0,0,0,0,-1,755,1639,0,0
-462,-615,0,0,0,0,0,0,0,0,0,-1,762,1639,0,0
-455,-615,0,0,0,0,0,0,0,0,0,-1,769,1639,0,0
-448,-615,0,0,0,0,0,0,0,0,0,-1,776,1639,0,0
-441,-615,0,0,0,0,0,0,0,0,0,-1,783,1639,0,0
-434,-615,-1.99121,0.690674,0,0,0,0,0,0,0,-1,790,1639,-1.99119,-0.690625
-427,-615,-1.66736,1.72119,0,0,0,0,0,0,0,-1,797,1639,-1.66733,-1.72113
-420,-615,3.51324,-0.345581,0,0,0,0,0,0,0,-1,804,1639,3.51325,0.34554
-413,-615,-1.50885,-1.72668,0,0,0,0,0,0,0,-1,811,1639,-1.50882,1.72673
-406,-615,-0.10791,-0.34021,0.118067,0.115176,0.0959243,0.212557,0.0206861,0.777864,0.135337,0.0488772,818,1639,-0.107888,0.340262
-399,-615,1.45233,1.00989,0.100585,0.0973977,0.0822316,0.181238,0.0167443,0.775709,0.115649,0.0467166,825,1639,1.45233,-1.00994
-392,-615,2.75507,2.55872,0,0,0,0,0,0,0,-1,832,1639,2.75509,-2.55867
-385,-615,1.43695,4.87915,0,0,0,0,0,0,0,-1,839,1639,1.43697,-4.87921
-378,-615,1.76392,4.74365,0.0446062,0.0437364,0.0410036,0.0851772,0.00316539,0.780095,0.0557596,0.0492166,846,1639,1.76394,-4.74369
-371,-615,2.01978,4.54919,0.02962,0.0293974,0.029464,0.0589729,4.44166e-05,0.783509,0.0393005,0.0440356,853,1639,2.01976,-4.54925
-364,-615,2.13397,4.31372,0.0174097,0.0185162,0.0201598,0.0381304,-0.00220449,0.799117,0.026186,0.0290473,860,1639,2.13399,-4.31369
-357,-615,2.1347,4.29919,0.00940927,0.0105773,0.0130927,0.0230989,-0.0031124,0.807686,0.0165347,0.025037,867,1639,2.1347,-4.29915
-350,-615,2.09052,4.35071,0.00179431,0.0040763,0.00653861,0.00957272,-0.00370211,0.871779,0.00791011,0.0234034,874,1639,2.09053,-4.35072
-343,-615,2.10999,4.40332,-0.00392504,-8.37434e-05,0.00193035,0.000718682,-0.00472747,1.17684,0.0034165,0.0181703,881,1639,2.10998,-4.40337
-336,-615,2.13275,4.49231,-0.0038579,-0.0011591,0.00080463,-0.000937417,-0.00407959,1.30195,0.00246734,0.00955057,888,1639,2.13274,-4.49231
-329,-615,2.13599,4.59399,-0.00215668,-0.00079289,0.00064179,-0.000538369,-0.0024112,1.19324,0.00146145,0.00935926,895,1639,2.13601,-4.59405
-322,-615,2.13599,4.6908,-0.000639317,-0.000235266,0.00042225,3.07996e-05,-0.000905382,1.00853,0.000614112,0.00992656,902,1639,2.13601,-4.69078
-315,-615,2.14038,4.77502,0.00023837,-0.000222848,0.000502269,0.000560441,-0.000544919,0.570186,0.000638201,0.0115342,909,1639,2.14041,-4.77505
-308,-615,2.14056,4.8562,0.000856126,-0.000112803,0.000281831,0.000932138,-0.000188816,0.263441,0.000692992,0.0178572,916,1639,2.14054,-4.85623
-301,-615,2.15015,4.92407,0.00111597,-8.38031e-05,-0.000202032,0.00114907,-0.00011691,-0.162427,0.000807844,0.0124668,923,1639,2.15012,-4.92407
-294,-615,2.1535,4.99902,0.00085876,-0.000515988,-0.000669756,0.0011311,-0.000788331,-0.386209,0.00111406,0.010283,930,1639,2.1535,-4.99904
-287,-615,2.12585,5.0802,0.000414808,-0.00110882,-0.00128971,0.00115089,-0.00184491,-0.518625,0.00174503,0.00828615,937,1639,2.12588,-5.08015
-280,-615,2.12347,5.1416,-0.000180693,-0.00193967,-0.00209962,0.0012162,-0.00333656,-0.58706,0.0027219,0.00853809,944,1639,2.12347,-5.14157
-273,-615,2.12915,5.22168,-0.000475604,-0.00321121,-0.00344705,0.0018651,-0.00555191,-0.596524,0.00445507,0.00853517,951,1639,2.12915,-5.2217
-266,-615,2.14008,5.30237,-0.000734949,-0.00456472,-0.00513016,0.00282605,-0.00812572,-0.606776,0.00656515,0.00886309,958,1639,2.14005,-5.30242
-259,-615,2.16693,5.37195,-0.00127561,-0.00623872,-0.00689464,0.00357047,-0.0110848,-0.612653,0.00882418,0.0102676,965,1639,2.16696,-5.37195
-252,-615,2.16943,5.4408,-0.00121491,-0.00805542,-0.0088362,0.00483989,-0.0141102,-0.600742,0.0113689,0.0112778,972,1639,2.16943,-5.44084
-245,-615,2.11548,5.5127,-0.000514698,-0.00892623,-0.0116066,0.00762463,-0.0170656,-0.611576,0.0145981,0.0168371,979,1639,2.11546,-5.51269
-238,-615,2.12927,5.57922,-0.000203894,-0.00977908,-0.0144824,0.0102617,-0.0202447,-0.625762,0.0179245,0.0249116,986,1639,2.12925,-5.57918
-231,-615,2.13934,5.67432,7.48139e-05,-0.0100462,-0.0176934,0.0134172,-0.0233885,-0.646111,0.0215081,0.0336186,993,1639,2.13936,-5.67436
-224,-615,2.1839,5.68713,0.000773977,-0.00955402,-0.0212193,0.0174486,-0.0262287,-0.666037,0.0253864,0.0446322,1000,1639,2.1839,-5.6871
-217,-615,2.2774,5.72815,0,0,0,0,0,0,0,-1,1007,1639,2.27738,-5.72813
-210,-615,0.879761,5.60889,0,0,0,0,0,0,0,-1,1014,1639,0.879747,-5.60892
-203,-615,1.3645,5.95715,5.75273e-05,-0.00883747,-0.0279114,0.0238735,-0.0326534,-0.706391,0.0327668,0.0478852,1021,1639,1.36449,-5.95713
-196,-615,1.87476,6.29114,-0.00116463,-0.00847154,-0.0292175,0.0246269,-0.0342631,-0.723199,0.0341516,0.0436451,1028,1639,1.87477,-6.29111
-189,-615,2.1311,5.61194,-0.00272891,-0.00786371,-0.0287649,0.023583,-0.0341756,-0.740889,0.0335333,0.0474332,1035,1639,2.13109,-5.61194
-182,-615,1.90552,5.33789,-0.00494179,-0.00935361,-0.0265229,0.0194668,-0.0337622,-0.743909,0.031099,0.049092,1042,1639,1.90548,-5.3379
-175,-615,2.53015,4.43323,-0.00749557,-0.0123519,-0.0223552,0.0125629,-0.0324104,-0.731301,0.0267949,0.047259,1049,1639,2.5301,-4.43324
-168,-615,2.57104,4.65649,0,0,0,0,0,0,0,-1,1056,1639,2.57104,-4.65645
-161,-615,2.24292,5.14148,-0.0131741,-0.0199736,-0.00913634,-0.00682548,-0.0263223,-0.607279,0.0157732,0.0491829,1063,1639,2.2429,-5.14143
-154,-615,1.50098,5.40466,-0.0140961,-0.0255384,-0.00185855,-0.0138018,-0.0258327,-0.157051,0.0149262,0.0489961,1070,1639,1.50099,-5.4046
-147,-615,0.773438,5.44373,0,0,0,0,0,0,0,-1,1077,1639,0.773474,-5.44375
-140,-615,1.45386,5.41113,0,0,0,0,0,0,0,-1,1084,1639,1.45386,-5.41115
-133,-615,1.28723,5.60962,-0.0108179,-0.0425992,0.0218912,0.000342041,-0.0537592,0.471452,0.035954,0.0470194,1091,1639,1.28725,-5.60958
-126,-615,1.26843,6.08594,-0.00618925,-0.0464612,0.02862,0.0086685,-0.061319,0.478841,0.044054,0.0420379,1098,1639,1.26841,-6.08598
-119,-615,1.19397,6.62207,0.00252229,-0.046308,0.0330157,0.0191698,-0.0629555,0.467025,0.0496105,0.0450286,1105,1639,1.19394,-6.62206
-112,-615,1.35645,7.41602,0,0,0,0,0,0,0,-1,1112,1639,1.35649,-7.41601
-105,-615,3.02527,8.45007,0,0,0,0,0,0,0,-1,1119,1639,3.02521,-8.45007
-98,-615,2.78101,2.24207,0,0,0,0,0,0,0,-1,1126,1639,2.781,-2.24204
-91,-615,0.386719,0.906494,0,0,0,0,0,0,0,-1,1133,1639,0.386683,-0.906546
-84,-615,-0.148682,1.0282,0,0,0,0,0,0,0,-1,1140,1639,-0.148661,-1.02817
-77,-615,-0.0212402,0.149414,0,0,0,0,0,0,0,-1,1147,1639,-0.0212093,-0.149362
-70,-615,-0.273682,-2.58313,0,0,0,0,0,0,0,-1,1154,1639,-0.273732,2.58316
-63,-615,-2.69507,-1.99158,0,0,0,0,0,0,0,-1,1161,1639,-2.69511,1.99157
-56,-615,0,0,0,0,0,0,0,0,0,-1,1168,1639,0,0
-49,-615,0,0,0,0,0,0,0,0,0,-1,1175,1639,0,0
-42,-615,0,0,0,0,0,0,0,0,0,-1,1182,1639,0,0
-35,-615,0,0,0,0,0,0,0,0,0,-1,1189,1639,0,0
-28,-615,0,0,0,0,0,0,0,0,0,-1,1196,1639,0,0
-21,-615,0,0,0,0,0,0,0,0,0,-1,1203,1639,0,0
-14,-615,0,0,0,0,0,0,0,0,0,-1,1210,1639,0,0
-7,-615,0,0,0,0,0,0,0,0,0,-1,1217,1639,0,0
0,-615,0,0,0,0,0,0,0,0,0,-1,1224,1639,0,0
7,-615,0,0,0,0,0,0,0,0,0,-1,1231,1639,0,0
14,-615,0,0,0,0,0,0,0,0,0,-1,1238,1639,0,0
21,-615,0,0,0,0,0,0,0,0,0,-1,1245,1639,0,0
28,-615,0,0,0,0,0,0,0,0,0,-1,1252,1639,0,0
35,-615,0,0,0,0,0,0,0,0,0,-1,1259,1639,0,0
42,-615,0,0,0,0,0,0,0,0,0,-1,1266,1639,0,0
49,-615,0,0,0,0,0,0,0,0,0,-1,1273,1639,0,0
56,-615,0,0,0,0,0,0,0,0,0,-1,1280,1639,0,0
63,-615,0,0,0,0,0,0,0,0,0,-1,1287,1639,0,0
70,-615,0,0,0,0,0,0,0,0,0,-1,1294,1639,0,0
77,-615,0,0,0,0,0,0,0,0,0,-1,1301,1639,0,0
84,-615,0,0,0,0,0,0,0,0,0,-1,1308,1639,0,0
91,-615,0,0,0,0,0,0,0,0,0,-1,1315,1639,0,0
98,-615,0,0,0,0,0,0,0,0,0,-1,1322,1639,0,0
105,-615,0,0,0,0,0,0,0,0,0,-1,1329,1639,0,0
112,-615,0,0,0,0,0,0,0,0,0,-1,1336,1639,0,0
119,-615,0,0,0,0,0,0,0,0,0,-1,1343,1639,0,0
126,-615,0,0,0,0,0,0,0,0,0,-1,1350,1639,0,0
133,-615,0,0,0,0,0,0,0,0,0,-1,1357,1639,0,0
140,-615,0,0,0,0,0,0,0,0,0,-1,1364,1639,0,0
147,-615,0,0,0,0,0,0,0,0,0,-1,1371,1639,0,0
154,-615,0,0,0,0,0,0,0,0,0,-1,1378,1639,0,0
161,-615,0,0,0,0,0,0,0,0,0,-1,1385,1639,0,0
168,-615,0,0,0,0,0,0,0,0,0,-1,1392,1639,0,0
175,-615,5.39648,-2.00879,0,0,0,0,0,0,0,-1,1399,1639,5.3965,2.00881
182,-615,5.65393,-1.51025,0,0,0,0,0,0,0,-1,1406,1639,5.65388,1.51028
189,-615,5.58972,-1.35608,0,0,0,0,0,0,0,-1,1413,1639,5.58967,1.35607
196,-615,5.49915,-0.693604,0,0,0,0,0,0,0,-1,1420,1639,5.4991,0.693602
203,-615,5.33411,-0.226685,0,0,0,0,0,0,0,-1,1427,1639,5.33414,0.226689
210,-615,5.60278,0.108276,0,0,0,0,0,0,0,-1,1434,1639,5.60284,-0.10831
217,-615,6.26331,-0.307373,0,0,0,0,0,0,0,-1,1441,1639,6.26331,0.307372
224,-615,5.45422,-0.333984,0,0,0,0,0,0,0,-1,1448,1639,5.45422,0.333992
231,-615,4.92542,1.80298,0,0,0,0,0,0,0,-1,1455,1639,4.92537,-1.80297
238,-615,4.76355,1.96729,0,0,0,0,0,0,0,-1,1462,1639,4.76357,-1.96734
245,-615,3.47864,3.64722,0,0,0,0,0,0,0,-1,1469,1639,3.47868,-3.64716
252,-615,5.14453,3.3562,0,0,0,0,0,0,0,-1,1476,1639,5.14458,-3.35624
259,-615,6.71521,3.40125,0,0,0,0,0,0,0,-1,1483,1639,6.71519,-3.4012
266,-615,3.37378,0.996216,0,0,0,0,0,0,0,-1,1490,1639,3.37378,-0.996273
273,-615,4.16919,1.08923,0.103743,0.0696807,0.104187,0.192282,-0.0188583,0.704382,0.134914,0.0439429,1497,1639,4.16919,-1.08917
280,-615,4.84827,1.55884,0.0843145,0.0582207,0.0900327,0.162241,-0.0197056,0.713442,0.115292,0.0459975,1504,1639,4.84829,-1.5588
287,-615,5.75378,3.96643,0,0,0,0,0,0,0,-1,1511,1639,5.75379,-3.96643
294,-615,5.99731,4.42737,0,0,0,0,0,0,0,-1,1518,1639,5.99726,-4.42733
301,-615,4.63989,7.01282,0,0,0,0,0,0,0,-1,1525,1639,4.63991,-7.01283
308,-615,2.64673,5.25708,0,0,0,0,0,0,0,-1,1532,1639,2.64677,-5.25711
315,-615,4.04895,6.90332,0,0,0,0,0,0,0,-1,1539,1639,4.0489,-6.90327
322,-615,2.31311,7.39392,0,0,0,0,0,0,0,-1,1546,1639,2.31312,-7.39394
329,-615,2.8634,7.1499,0,0,0,0,0,0,0,-1,1553,1639,2.86346,-7.14993
336,-615,3.58521,6.58838,0,0,0,0,0,0,0,-1,1560,1639,3.58516,-6.5884
343,-615,3.5094,6.36243,0,0,0,0,0,0,0,-1,1567,1639,3.50941,-6.36239
350,-615,4.10266,6.03137,0,0,0,0,0,0,0,-1,1574,1639,4.10266,-6.03143
357,-615,3.99377,5.93335,0,0,0,0,0,0,0,-1,1581,1639,3.99377,-5.93337
364,-615,3.96753,5.82703,0,0,0,0,0,0,0,-1,1588,1639,3.9675,-5.827
371,-615,3.92065,5.83081,-0.000422257,0.00516406,-0.00124361,0.00542841,-0.000686598,-1.36135,0.00386817,0.0355219,1595,1639,3.92071,-5.8308
378,-615,3.95239,5.7793,-0.00102074,0.00296107,-0.000252522,0.00297702,-0.00103669,-1.50771,0.00240589,0.0176799,1602,1639,3.95245,-5.77935
385,-615,3.95471,5.7229,-0.00182012,0.00130301,0.000855922,0.0015222,-0.00203931,1.3201,0.00206345,0.0104781,1609,1639,3.95469,-5.72285
392,-615,3.95081,5.67126,-0.00210357,0.000450814,0.00116704,0.000903712,-0.00255647,1.20061,0.00207231,0.00906701,1616,1639,3.95079,-5.6713
399,-615,3.94189,5.62,-0.00169096,4.37479e-05,0.00107192,0.000555278,-0.00220249,1.12555,0.00168422,0.0106973,1623,1639,3.94195,-5.61997
406,-615,3.94312,5.54016,-0.00127563,-0.000186082,0.000935804,0.000351969,-0.00181368,1.04899,0.00134192,0.0112382,1630,1639,3.94309,-5.5401
413,-615,3.94092,5.47363,-0.000935705,-0.000303336,0.000788355,0.000229877,-0.00146892,0.976112,0.00106421,0.0118355,1637,1639,3.94098,-5.47361
420,-615,3.95093,5.38855,-0.000663019,-0.000325872,0.00060686,0.000135392,-0.00112428,0.920873,0.000798488,0.0125612,1644,1639,3.95094,-5.3886
427,-615,3.95874,5.30359,-0.000485608,-0.000490428,0.000523094,3.50824e-05,-0.00101112,0.783095,0.000686072,0.0130747,1651,1639,3.9587,-5.30363
434,-615,3.96631,5.2511,-0.000322652,-0.000346168,0.000303256,-3.09263e-05,-0.000637894,0.766022,0.000415338,0.0120358,1658,1639,3.96629,-5.25104
441,-615,3.97253,5.17773,-0.000112012,-0.000320005,-9.79374e-05,-7.31553e-05,-0.000358862,-0.3777,0.000218968,0.0128634,1665,1639,3.97256,-5.17771
448,-615,3.96216,5.10913,-0.000179771,-0.000166505,-0.00050255,0.000329456,-0.000675731,-0.791997,0.000591712,0.0141583,1672,1639,3.96212,-5.10909
455,-615,3.95203,5.05029,-0.000201826,-0.000282635,-0.000986795,0.000745391,-0.00122985,-0.764937,0.00115178,0.012898,1679,1639,3.95206,-5.05024
462,-615,3.95618,4.98572,-0.000165417,-0.000404105,-0.00146668,0.00118677,-0.00175629,-0.744803,0.00170975,0.0131639,1686,1639,3.95613,-4.98576
469,-615,3.94177,4.88257,5.18993e-06,-0.000499596,-0.00216429,0.00193176,-0.00242616,-0.727352,0.00252144,0.0115222,1693,1639,3.94175,-4.88263
476,-615,3.94141,4.78418,0.000114569,-0.000738796,-0.0028836,0.00260289,-0.00322711,-0.711947,0.00337238,0.0107891,1700,1639,3.9414,-4.78418
483,-615,3.9718,4.70264,0.000358782,-0.00107894,-0.00365294,0.00336293,-0.00408308,-0.688245,0.00430565,0.0149834,1707,1639,3.97177,-4.70259
490,-615,3.97668,4.61609,0.000877447,-0.00134886,-0.00463801,0.00453402,-0.00500543,-0.667622,0.00550985,0.0157112,1714,1639,3.97671,-4.61615
497,-615,3.94275,4.57886,0.00147998,-0.00149332,-0.00575152,0.00593387,-0.00594721,-0.658926,0.00685955,0.0225944,1721,1639,3.94272,-4.5788
504,-615,3.9292,4.53857,0.00257002,-0.00138499,-0.00711384,0.0079761,-0.00679107,-0.649831,0.00853497,0.0416326,1728,1639,3.92926,-4.53852
511,-615,3.93506,4.50427,0,0,0,0,0,0,0,-1,1735,1639,3.93511,-4.50423
518,-615,4.51563,4.17798,0,0,0,0,0,0,0,-1,1742,1639,4.51566,-4.17803
525,-615,4.34985,2.86682,0,0,0,0,0,0,0,-1,1749,1639,4.34987,-2.86687
532,-615,6.43359,-1.5448,0,0,0,0,0,0,0,-1,1756,1639,6.43353,1.5448
539,-615,6.51733,-2.00012,0,0,0,0,0,0,0,-1,1763,1639,6.51733,2.00011
546,-615,6.48975,-2.09009,0,0,0,0,0,0,0,-1,1770,1639,6.48972,2.09006
553,-615,6.68726,-2.22424,0,0,0,0,0,0,0,-1,1777,1639,6.68729,2.22429
560,-615,0,0,0,0,0,0,0,0,0,-1,1784,1639,0,0
567,-615,0,0,0,0,0,0,0,0,0,-1,1791,1639,0,0
574,-615,0,0,0,0,0,0,0,0,0,-1,1798,1639,0,0
581,-615,0,0,0,0,0,0,0,0,0,-1,1805,1639,0,0
588,-615,0,0,0,0,0,0,0,0,0,-1,1812,1639,0,0
595,-615,0,0,0,0,0,0,0,0,0,-1,1819,1639,0,0
602,-615,0,0,0,0,0,0,0,0,0,-1,1826,1639,0,0
609,-615,0,0,0,0,0,0,0,0,0,-1,1833,1639,0,0
616,-615,0,0,0,0,0,0,0,0,0,-1,1840,1639,0,0
623,-615,0,0,0,0,0,0,0,0,0,-1,1847,1639,0,0
630,-615,0,0,0,0,0,0,0,0,0,-1,1854,1639,0,0
637,-615,0,0,0,0,0,0,0,0,0,-1,1861,1639,0,0
644,-615,0,0,0,0,0,0,0,0,0,-1,1868,1639,0,0
651,-615,0,0,0,0,0,0,0,0,0,-1,1875,1639,0,0
658,-615,0,0,0,0,0,0,0,0,0,-1,1882,1639,0,0
665,-615,0,0,0,0,0,0,0,0,0,-1,1889,1639,0,0
672,-615,0,0,0,0,0,0,0,0,0,-1,1896,1639,0,0
679,-615,0,0,0,0,0,0,0,0,0,-1,1903,1639,0,0
686,-615,0,0,0,0,0,0,0,0,0,-1,1910,1639,0,0
693,-615,0,0,0,0,0,0,0,0,0,-1,1917,1639,0,0
700,-615,0,0,0,0,0,0,0,0,0,-1,1924,1639,0,0
707,-615,0,0,0,0,0,0,0,0,0,-1,1931,1639,0,0
714,-615,0,0,0,0,0,0,0,0,0,-1,1938,1639,0,0
721,-615,0,0,0,0,0,0,0,0,0,-1,1945,1639,0,0
728,-615,0,0,0,0,0,0,0,0,0,-1,1952,1639,0,0
735,-615,0,0,0,0,0,0,0,0,0,-1,1959,1639,0,0
742,-615,0,0,0,0,0,0,0,0,0,-1,1966,1639,0,0
749,-615,0,0,0,0,0,0,0,0,0,-1,1973,1639,0,0
756,-615,0,0,0,0,0,0,0,0,0,-1,1980,1639,0,0
763,-615,0,0,0,0,0,0,0,0,0,-1,1987,1639,0,0
770,-615,0,0,0,0,0,0,0,0,0,-1,1994,1639,0,0
777,-615,0,0,0,0,0,0,0,0,0,-1,2001,1639,0,0
784,-615,0,0,0,0,0,0,0,0,0,-1,2008,1639,0,0
791,-615,0,0,0,0,0,0,0,0,0,-1,2015,1639,0,0
798,-615,0,0,0,0,0,0,0,0,0,-1,2022,1639,0,0
805,-615,0,0,0,0,0,0,0,0,0,-1,2029,1639,0,0
812,-615,0,0,0,0,0,0,0,0,0,-1,2036,1639,0,0
-700,-622,0,0,0,0,0,0,0,0,0,-1,524,1646,0,0
-693,-622,0,0,0,0,0,0,0,0,0,-1,531,1646,0,0
-686,-622,0,0,0,0,0,0,0,0,0,-1,538,1646,0,0
-679,-622,0,0,0,0,0,0,0,0,0,-1,545,1646,0,0
-672,-622,0,0,0,0,0,0,0,0,0,-1,552,1646,0,0
-665,-622,0,0,0,0,0,0,0,0,0,-1,559,1646,0,0
-658,-622,0,0,0,0,0,0,0,0,0,-1,566,1646,0,0
-651,-622,0,0,0,0,0,0,0,0,0,-1,573,1646,0,0
-644,-622,0,0,0,0,0,0,0,0,0,-1,580,1646,0,0
-637,-622,0,0,0,0,0,0,0,0,0,-1,587,1646,0,0
-630,-622,0,0,0,0,0,0,0,0,0,-1,594,1646,0,0
-623,-622,0,0,0,0,0,0,0,0,0,-1,601,1646,0,0
-616,-622,0,0,0,0,0,0,0,0,0,-1,608,1646,0,0
-609,-622,0,0,0,0,0,0,0,0,0,-1,615,1646,0,0
-602,-622,0,0,0,0,0,0,0,0,0,-1,622,1646,0,0
-595,-622,0,0,0,0,0,0,0,0,0,-1,629,1646,0,0
-588,-622,0,0,0,0,0,0,0,0,0,-1,636,1646,0,0
-581,-622,0,0,0,0,0,0,0,0,0,-1,643,1646,0,0
-574,-622,0,0,0,0,0,0,0,0,0,-1,650,1646,0,0
-567,-622,0,0,0,0,0,0,0,0,0,-1,657,1646,0,0
-560,-622,0,0,0,0,0,0,0,0,0,-1,664,1646,0,0
-553,-622,0,0,0,0,0,0,0,0,0,-1,671,1646,0,0
-546,-622,0,0,0,0,0,0,0,0,0,-1,678,1646,0,0
-539,-622,0,0,0,0,0,0,0,0,0,-1,685,1646,0,0
-532,-622,0,0,0,0,0,0,0,0,0,-1,692,1646,0,0
-525,-622,0,0,0,0,0,0,0,0,0,-1,699,1646,0,0
-518,-622,0,0,0,0,0,0,0,0,0,-1,706,1646,0,0
-511,-622,0,0,0,0,0,0,0,0,0,-1,713,1646,0,0
-504,-622,0,0,0,0,0,0,0,0,0,-1,720,1646,0,0
-497,-622,0,0,0,0,0,0,0,0,0,-1,727,1646,0,0
-490,-622,0,0,0,0,0,0,0,0,0,-1,734,1646,0,0
-483,-622,0,0,0,0,0,0,0,0,0,-1,741,1646,0,0
-476,-622,0,0,0,0,0,0,0,0,0,-1,748,1646,0,0
-469,-622,0,0,0,0,0,0,0,0,0,-1,755,1646,0,0
-462,-622,0,0,0,0,0,0,0,0,0,-1,762,1646,0,0
-455,-622,0,0,0,0,0,0,0,0,0,-1,769,1646,0,0
-448,-622,0,0,0,0,0,0,0,0,0,-1,776,1646,0,0
-441,-622,0,0,0,0,0,0,0,0,0,-1,783,1646,0,0
-434,-622,0,0,0,0,0,0,0,0,0,-1,790,1646,0,0
-427,-622,-2.19189,1.14233,0,0,0,0,0,0,0,-1,797,1646,-2.19187,-1.14239
-420,-622,-2.19196,1.54639,0,0,0,0,0,0,0,-1,804,1646,-2.19195,-1.54641
-413,-622,-2.12592,-2.98499,0,0,0,0,0,0,0,-1,811,1646,-2.1259,2.98494
-406,-622,-0.718933,-1.41821,0.152621,0.13638,0.118683,0.263461,0.02554,0.751241,0.167777,0.0494737,818,1646,-0.718963,1.41818
-399,-622,0.730408,0.296021,0.128544,0.11625,0.10203,0.224613,0.0201821,0.755311,0.143488,0.0463394,825,1646,0.730395,-0.295979
-392,-622,2.11029,1.84863,0,0,0,0,0,0,0,-1,832,1646,2.11026,-1.84864
-385,-622,4.73901,2.61975,0,0,0,0,0,0,0,-1,839,1646,4.73901,-2.61976
-378,-622,1.75665,4.9552,0,0,0,0,0,0,0,-1,846,1646,1.75663,-4.95522
-371,-622,2.20947,4.93359,0.0348936,0.036696,0.037178,0.0729837,-0.00139412,0.797516,0.0491271,0.0453488,853,1646,2.20947,-4.93361
-364,-622,2.45764,4.52039,0.0197614,0.0238184,0.0257056,0.0475755,-0.00399562,0.824773,0.0331293,0.0401988,860,1646,2.45763,-4.52036
-357,-622,2.25891,4.46521,0.0100248,0.0143962,0.0170779,0.0294278,-0.00500672,0.849044,0.0214828,0.0418734,867,1646,2.25889,-4.46521
-350,-622,2.15472,4.44128,0.00129149,0.00659029,0.00911151,0.0134298,-0.005548,0.926884,0.0112674,0.036345,874,1646,2.15469,-4.44125
-343,-622,2.15356,4.43396,-0.00536867,0.00124543,0.00318993,0.00253319,-0.00665643,1.18711,0.00548076,0.0232298,881,1646,2.15358,-4.43392
-336,-622,2.20044,4.48291,-0.00515209,-0.000243831,0.00145767,0.000156434,-0.00555235,1.30281,0.0037548,0.00931781,888,1646,2.20045,-4.48287
-329,-622,2.20752,4.57874,-0.00285514,0.000126784,0.00101349,0.000438635,-0.00316699,1.27229,0.0022717,0.00817403,895,1646,2.20754,-4.57874
-322,-622,2.20123,4.6814,-0.000819965,0.000538974,0.000550105,0.000733744,-0.00101473,1.23051,0.00101382,0.00942184,902,1646,2.20124,-4.68139
-315,-622,2.19672,4.77014,0.000381188,0.000498902,0.000547643,0.000990842,-0.000110752,0.838929,0.000700403,0.0132288,909,1646,2.19672,-4.7701
-308,-622,2.20984,4.83838,0.00121452,0.00067609,0.000280974,0.00133444,0.000556174,0.403384,0.000773986,0.0139187,916,1646,2.20984,-4.83842
-301,-622,2.21295,4.90588,0.00160605,0.000780618,-0.000172806,0.00164077,0.000745901,-0.198263,0.000948599,0.0126122,923,1646,2.21295,-4.90586
-294,-622,2.21033,4.98865,0.00143031,0.000380774,-0.000480509,0.00161707,0.000194016,-0.370699,0.00101955,0.00943504,930,1646,2.21033,-4.98864
-287,-622,2.20679,5.06775,0.00110873,-0.000185979,-0.000877827,0.00155208,-0.000629336,-0.467688,0.00129646,0.00779496,937,1646,2.2068,-5.06773
-280,-622,2.21417,5.14746,0.000665986,-0.00099641,-0.00141592,0.00147665,-0.00180708,-0.519981,0.00189906,0.00817963,944,1646,2.21419,-5.14747
-273,-622,2.22473,5.22058,0.000413791,-0.00210305,-0.00235711,0.00182737,-0.00351663,-0.540206,0.00313632,0.010895,951,1646,2.22474,-5.2206
-266,-622,2.20917,5.29626,0.000236736,-0.00320568,-0.00345848,0.00237864,-0.00534758,-0.554504,0.0045692,0.0109938,958,1646,2.20916,-5.29628
-259,-622,2.2215,5.37854,-0.000145162,-0.00452831,-0.00462465,0.00278092,-0.00745439,-0.564127,0.00611125,0.0105446,965,1646,2.22153,-5.37853
-252,-622,2.23456,5.44409,5.0011e-05,-0.00585504,-0.00598977,0.00377542,-0.00958045,-0.556411,0.00795009,0.0109102,972,1646,2.23459,-5.44409
-245,-622,2.23926,5.53296,0.000764277,-0.00633091,-0.00809691,0.00605667,-0.0116233,-0.578924,0.0103748,0.00825894,979,1646,2.23924,-5.53292
-238,-622,2.2326,5.60913,0.00111672,-0.00689093,-0.0103342,0.00819564,-0.0139699,-0.600585,0.0129412,0.00899882,986,1646,2.23259,-5.6091
-231,-622,2.23145,5.68176,0.00144851,-0.00700093,-0.0129139,0.0108112,-0.0163636,-0.627313,0.0157981,0.0134659,993,1646,2.23147,-5.6818
-224,-622,2.28735,5.76196,0.00215708,-0.00658073,-0.0158067,0.0141875,-0.0186112,-0.650566,0.0189937,0.0213033,1000,1646,2.28737,-5.76198
-217,-622,2.37738,5.77332,0.00278088,-0.00681281,-0.0181481,0.0167553,-0.0207873,-0.656194,0.0217168,0.0322009,1007,1646,2.3774,-5.7733
-210,-622,1.01154,5.9314,0,0,0,0,0,0,0,-1,1014,1646,1.01152,-5.93142
-203,-622,1.55988,5.71228,0.0018141,-0.00673213,-0.0213863,0.01935,-0.024268,-0.686793,0.0252361,0.0437988,1021,1646,1.55991,-5.71229
-196,-622,2.18738,5.85938,0.00090805,-0.00712997,-0.0224672,0.0197129,-0.0259348,-0.696893,0.0264362,0.0439746,1028,1646,2.18736,-5.85934
-189,-622,2.19299,5.63049,-0.000474152,-0.00738488,-0.0222075,0.0185452,-0.0264042,-0.70822,0.0260834,0.0473678,1035,1646,2.19303,-5.63048
-182,-622,2.23938,4.98083,-0.00248534,-0.00957399,-0.0204631,0.0147381,-0.0267975,-0.699646,0.0243152,0.0464418,1042,1646,2.23943,-4.98087
-175,-622,2.33203,4.95471,-0.00456828,-0.0128047,-0.0171801,0.00898033,-0.0263533,-0.667764,0.0212059,0.0489488,1049,1646,2.33204,-4.95468
-168,-622,2.53882,5.11646,-0.00695756,-0.0161727,-0.0123406,0.00160753,-0.0247378,-0.606728,0.017053,0.0488716,1056,1646,2.53878,-5.1165
-161,-622,2.27832,5.47156,-0.00905405,-0.0206001,-0.00677531,-0.00592581,-0.0237284,-0.432551,0.0142601,0.0481772,1063,1646,2.2783,-5.47155
-154,-622,1.68933,5.75476,-0.0100556,-0.0252828,-0.000972782,-0.00999374,-0.0253447,-0.0635405,0.0147413,0.045687,1070,1646,1.68936,-5.7547
-147,-622,1.55591,5.85046,-0.0104892,-0.0298159,0.00509483,-0.00922837,-0.0310767,0.242598,0.0184287,0.0472102,1077,1646,1.55586,-5.85046
-140,-622,1.54297,5.96887,-0.00991702,-0.0344715,0.0116913,-0.00524087,-0.0391477,0.380478,0.0245388,0.0481854,1084,1646,1.54293,-5.96886
-133,-622,1.47852,6.30225,-0.0076364,-0.0380557,0.017536,0.000366941,-0.0460591,0.42816,0.0308291,0.045441,1091,1646,1.47853,-6.30229
-126,-622,1.27014,6.69055,-0.00415253,-0.0405951,0.0227023,0.00673647,-0.0514841,0.44723,0.0367745,0.0463659,1098,1646,1.27015,-6.69053
-119,-622,1.06836,7.12988,0,0,0,0,0,0,0,-1,1105,1646,1.06831,-7.12991
-112,-622,2.68347,8.35986,0,0,0,0,0,0,0,-1,1112,1646,2.6835,-8.35987
-105,-622,-0.101318,7.07068,0,0,0,0,0,0,0,-1,1119,1646,-0.101288,-7.07071
-98,-622,2.51428,3.37927,0,0,0,0,0,0,0,-1,1126,1646,2.51427,-3.37926
-91,-622,0.480957,1.97424,0,0,0,0,0,0,0,-1,1133,1646,0.480984,-1.9742
-84,-622,-0.521484,1.39478,0,0,0,0,0,0,0,-1,1140,1646,-0.521497,-1.39475
-77,-622,-1.72278,-1.7998,0,0,0,0,0,0,0,-1,1147,1646,-1.72278,1.7998
-70,-622,-3.06421,-1.84644,0,0,0,0,0,0,0,-1,1154,1646,-3.06423,1.84641
-63,-622,-2.67639,-1.28955,0.0392845,-0.152554,0.0802201,0.0684083,-0.181678,0.348252,0.149242,0.0473109,1161,1646,-2.67633,1.28958
-56,-622,-2.44238,-0.575562,0.0306372,-0.1503,0.0804647,0.0612435,-0.180907,0.363469,0.145384,0.0492175,1168,1646,-2.44242,0.575508
-49,-622,-2.41089,1.38818,0.0230772,-0.1472,0.0657768,0.0455266,-0.169649,0.3289,0.13094,0.0480072,1175,1646,-2.41088,-1.38815
-42,-622,-2.71497,2.85242,0.0223196,-0.144098,0.0505111,0.0364508,-0.158229,0.27279,0.119504,0.0495044,1182,1646,-2.71491,-2.85247
-35,-622,-3.0177,4.25842,0,0,0,0,0,0,0,-1,1189,1646,-3.01773,-4.25838
-28,-622,-0.896606,0.678833,0,0,0,0,0,0,0,-1,1196,1646,-0.89661,-0.678835
-21,-622,6.98767,-1.52771,0,0,0,0,0,0,0,-1,1203,1646,6.98769,1.52765
-14,-622,4.63574,10.5114,0,0,0,0,0,0,0,-1,1210,1646,4.63573,-10.5113
-7,-622,1.30371,4.07043,0,0,0,0,0,0,0,-1,1217,1646,1.30373,-4.07038
0,-622,0,0,0,0,0,0,0,0,0,-1,1224,1646,0,0
7,-622,0,0,0,0,0,0,0,0,0,-1,1231,1646,0,0
14,-622,0,0,0,0,0,0,0,0,0,-1,1238,1646,0,0
21,-622,0,0,0,0,0,0,0,0,0,-1,1245,1646,0,0
28,-622,0,0,0,0,0,0,0,0,0,-1,1252,1646,0,0
35,-622,0,0,0,0,0,0,0,0,0,-1,1259,1646,0,0
42,-622,0,0,0,0,0,0,0,0,0,-1,1266,1646,0,0
49,-622,0,0,0,0,0,0,0,0,0,-1,1273,1646,0,0
56,-622,0,0,0,0,0,0,0,0,0,-1,1280,1646,0,0
63,-622,0,0,0,0,0,0,0,0,0,-1,1287,1646,0,0
70,-622,0,0,0,0,0,0,0,0,0,-1,1294,1646,0,0
77,-622,0,0,0,0,0,0,0,0,0,-1,1301,1646,0,0
84,-622,0,0,0,0,0,0,0,0,0,-1,1308,1646,0,0
91,-622,0,0,0,0,0,0,0,0,0,-1,1315,1646,0,0
98,-622,0,0,0,0,0,0,0,0,0,-1,1322,1646,0,0
105,-622,0,0,0,0,0,0,0,0,0,-1,1329,1646,0,0
112,-622,0,0,0,0,0,0,0,0,0,-1,1336,1646,0,0
119,-622,0,0,0,0,0,0,0,0,0,-1,1343,1646,0,0
126,-622,0.57312,1.96912,0.0189493,-0.00572806,0.00174794,0.0190725,-0.00585126,0.0703638,0.0150495,0.0452512,1350,1646,0.573101,-1.96907
133,-622,0.655151,1.66956,0.0217255,-0.0209138,0.0137486,0.0257742,-0.0249625,0.286384,0.0292941,0.0485725,1357,1646,0.655168,-1.6696
140,-622,0.375854,1.40662,0.0220696,-0.0380817,0.0236356,0.0302456,-0.0462577,0.333033,0.0444905,0.0438265,1364,1646,0.375844,-1.40663
147,-622,-1.03381,0.665894,0,0,0,0,0,0,0,-1,1371,1646,-1.03386,-0.665882
154,-622,-2.54578,-0.0568848,0,0,0,0,0,0,0,-1,1378,1646,-2.54582,0.0568379
161,-622,8.93274,18.9496,0,0,0,0,0,0,0,-1,1385,1646,8.93269,-18.9496
168,-622,5.35522,-2.3717,0,0,0,0,0,0,0,-1,1392,1646,5.35517,2.37167
175,-622,5.64355,-1.77075,0,0,0,0,0,0,0,-1,1399,1646,5.64351,1.77077
182,-622,5.88586,-1.32251,0,0,0,0,0,0,0,-1,1406,1646,5.88587,1.32256
189,-622,5.97986,-1.18005,0,0,0,0,0,0,0,-1,1413,1646,5.97986,1.18003
196,-622,5.85022,-0.244507,0,0,0,0,0,0,0,-1,1420,1646,5.85026,0.244478
203,-622,5.25159,0.138794,0,0,0,0,0,0,0,-1,1427,1646,5.25162,-0.138822
210,-622,6.66833,0.0397949,0,0,0,0,0,0,0,-1,1434,1646,6.6684,-0.0398278
217,-622,6.12061,0.0506592,0,0,0,0,0,0,0,-1,1441,1646,6.12058,-0.0507181
224,-622,5.57275,0.0616455,0,0,0,0,0,0,0,-1,1448,1646,5.57276,-0.0616084
231,-622,5.31348,1.3949,0,0,0,0,0,0,0,-1,1455,1646,5.31342,-1.39495
238,-622,1.47876,3.83765,0,0,0,0,0,0,0,-1,1462,1646,1.47871,-3.83762
245,-622,2.73328,3.9314,0,0,0,0,0,0,0,-1,1469,1646,2.73327,-3.93139
252,-622,5.96082,3.28271,0,0,0,0,0,0,0,-1,1476,1646,5.96078,-3.28271
259,-622,7.56104,3.47644,0,0,0,0,0,0,0,-1,1483,1646,7.56099,-3.47645
266,-622,2.20508,0.286255,0,0,0,0,0,0,0,-1,1490,1646,2.20503,-0.286297
273,-622,3.03967,0.616821,0.0840436,0.0580482,0.086565,0.158581,-0.0164895,0.71088,0.111624,0.0451835,1497,1646,3.03973,-0.616853
280,-622,3.9856,1.08813,0.0719991,0.0500617,0.0760962,0.137913,-0.0158523,0.71382,0.0976559,0.0455303,1504,1646,3.98555,-1.08815
287,-622,4.96228,1.68896,0,0,0,0,0,0,0,-1,1511,1646,4.96228,-1.68901
294,-622,4.32397,7.03906,0,0,0,0,0,0,0,-1,1518,1646,4.32395,-7.03901
301,-622,4.30432,6.94556,0,0,0,0,0,0,0,-1,1525,1646,4.30431,-6.94556
308,-622,3.95032,6.94128,0,0,0,0,0,0,0,-1,1532,1646,3.95029,-6.94134
315,-622,3.91663,6.85461,0,0,0,0,0,0,0,-1,1539,1646,3.91656,-6.85464
322,-622,3.88281,6.76794,0,0,0,0,0,0,0,-1,1546,1646,3.88284,-6.76794
329,-622,3.21301,6.73511,0.0224966,0.022956,0.0185549,0.0412827,0.00416994,0.791588,0.0262425,0.0459191,1553,1646,3.21298,-6.73516
336,-622,3.5874,6.47595,0.0158233,0.0191499,0.0122797,0.0298784,0.00509476,0.852716,0.0184566,0.0483405,1560,1646,3.58744,-6.4759
343,-622,3.79578,6.39099,0,0,0,0,0,0,0,-1,1567,1646,3.7958,-6.39104
350,-622,3.98291,6.02173,0.00708044,0.0128922,0.000654194,0.012965,0.00700771,1.46008,0.00749351,0.0448076,1574,1646,3.98287,-6.02168
357,-622,3.92419,5.9447,0.00385428,0.00882083,-0.00097853,0.00900667,0.00366844,-1.38311,0.0052297,0.0377204,1581,1646,3.92415,-5.94465
364,-622,3.90808,5.8927,0.00133422,0.00646105,-0.0012548,0.00675169,0.00104358,-1.34319,0.00419674,0.0325041,1588,1646,3.90806,-5.89271
371,-622,3.87012,5.85852,-8.48163e-05,0.00422463,-0.000981721,0.00443773,-0.000297921,-1.35704,0.00306263,0.0189711,1595,1646,3.87013,-5.8585
378,-622,3.86487,5.81055,-0.000616347,0.00257068,-0.000221064,0.00258594,-0.000631608,-1.50187,0.00196857,0.00976798,1602,1646,3.86489,-5.81052
385,-622,3.8689,5.75854,-0.00127513,0.00128173,0.000602823,0.00141673,-0.00141013,1.35049,0.00163209,0.00871207,1609,1646,3.86887,-5.75857
392,-622,3.86621,5.68396,-0.00153035,0.000573946,0.000804306,0.000846156,-0.00180256,1.24446,0.00156211,0.0101856,1616,1646,3.86618,-5.68391
399,-622,3.8656,5.6084,-0.00126838,0.000247557,0.000684153,0.000510657,-0.00153148,1.20367,0.00122715,0.0114728,1623,1646,3.86561,-5.60835
406,-622,3.86975,5.54138,-0.00101638,3.34321e-05,0.000568605,0.000282373,-0.00126532,1.15813,0.000951738,0.0144939,1630,1646,3.86973,-5.54139
413,-622,3.87048,5.46631,-0.000771122,-8.16207e-05,0.000425098,0.000120951,-0.000973693,1.1261,0.000692973,0.0153527,1637,1646,3.87047,-5.46626
420,-622,3.88354,5.3811,-0.000574041,-0.000125469,0.000243011,-1.9061e-05,-0.00068045,1.15807,0.000447415,0.0153743,1644,1646,3.88355,-5.38107
427,-622,3.88867,5.31079,-0.000427752,-0.000270921,0.000163292,-0.000168193,-0.000530481,1.00925,0.000313032,0.0112485,1651,1646,3.88867,-5.31085
434,-622,3.8988,5.24658,-0.000283911,-0.000179946,-2.27772e-05,-0.000175175,-0.000288682,-1.36431,0.000167933,0.0111691,1658,1646,3.89886,-5.2466
441,-622,3.90955,5.17944,-0.000168419,-0.000255773,-0.000415032,0.000205227,-0.00062942,-0.732972,0.0005022,0.0136806,1665,1646,3.9095,-5.1794
448,-622,3.87134,5.11865,-0.00031229,-0.000214961,-0.000874714,0.000612442,-0.00113969,-0.813187,0.00102675,0.0128818,1672,1646,3.87137,-5.11861
455,-622,3.84119,5.02637,-0.00032494,-0.000452215,-0.00139918,0.00101205,-0.00178921,-0.762673,0.00163792,0.0144188,1679,1646,3.84119,-5.02641
462,-622,3.86365,4.95935,-0.00029847,-0.000682469,-0.00194863,0.00146759,-0.00244853,-0.736291,0.0022845,0.0157863,1686,1646,3.86366,-4.95935
469,-622,3.86829,4.8739,-0.000137074,-0.000936144,-0.00273527,0.00222769,-0.00330091,-0.712877,0.00321192,0.0164572,1693,1646,3.86831,-4.87392
476,-622,3.88965,4.802,-2.49742e-05,-0.00134659,-0.00360039,0.00297475,-0.00434631,-0.69464,0.00425147,0.0159011,1700,1646,3.88968,-4.80195
483,-622,3.9469,4.74402,0.000208652,-0.00188053,-0.00455013,0.00383256,-0.00550443,-0.672567,0.00541944,0.0240216,1707,1646,3.94691,-4.74398
490,-622,3.87036,4.61963,0.000692982,-0.00238604,-0.00572239,0.00507933,-0.00677239,-0.653993,0.00686583,0.0308822,1714,1646,3.87038,-4.61957
497,-622,3.85278,4.49817,0.0013036,-0.00281911,-0.00704584,0.00658343,-0.00809894,-0.643088,0.00849191,0.039016,1721,1646,3.85282,-4.49822
504,-622,3.8623,4.41418,0,0,0,0,0,0,0,-1,1728,1646,3.86228,-4.41413
511,-622,5.29004,4.14587,0,0,0,0,0,0,0,-1,1735,1646,5.29008,-4.14589
518,-622,5.6001,1.55359,0,0,0,0,0,0,0,-1,1742,1646,5.60015,-1.5536
525,-622,5.68213,1.32361,0,0,0,0,0,0,0,-1,1749,1646,5.68209,-1.32361
532,-622,5.44202,0.57373,0,0,0,0,0,0,0,-1,1756,1646,5.44196,-0.573705
539,-622,6.51563,-3.71716,0,0,0,0,0,0,0,-1,1763,1646,6.51564,3.71711
546,-622,6.50977,-3.45618,0,0,0,0,0,0,0,-1,1770,1646,6.50981,3.4562
553,-622,0,0,0,0,0,0,0,0,0,-1,1777,1646,0,0
560,-622,0,0,0,0,0,0,0,0,0,-1,1784,1646,0,0
567,-622,0,0,0,0,0,0,0,0,0,-1,1791,1646,0,0
574,-622,0,0,0,0,0,0,0,0,0,-1,1798,1646,0,0
581,-622,0,0,0,0,0,0,0,0,0,-1,1805,1646,0,0
588,-622,0,0,0,0,0,0,0,0,0,-1,1812,1646,0,0
595,-622,0,0,0,0,0,0,0,0,0,-1,1819,1646,0,0
602,-622,0,0,0,0,0,0,0,0,0,-1,1826,1646,0,0
609,-622,0,0,0,0,0,0,0,0,0,-1,1833,1646,0,0
616,-622,0,0,0,0,0,0,0,0,0,-1,1840,1646,0,0
623,-622,0,0,0,0,0,0,0,0,0,-1,1847,1646,0,0
630,-622,0,0,0,0,0,0,0,0,0,-1,1854,1646,0,0
637,-622,0,0,0,0,0,0,0,0,0,-1,1861,1646,0,0
644,-622,0,0,0,0,0,0,0,0,0,-1,1868,1646,0,0
651,-622,0,0,0,0,0,0,0,0,0,-1,1875,1646,0,0
658,-622,0,0,0,0,0,0,0,0,0,-1,1882,1646,0,0
665,-622,0,0,0,0,0,0,0,0,0,-1,1889,1646,0,0
672,-622,0,0,0,0,0,0,0,0,0,-1,1896,1646,0,0
679,-622,0,0,0,0,0,0,0,0,0,-1,1903,1646,0,0
686,-622,0,0,0,0,0,0,0,0,0,-1,1910,1646,0,0
693,-622,0,0,0,0,0,0,0,0,0,-1,1917,1646,0,0
700,-622,0,0,0,0,0,0,0,0,0,-1,1924,1646,0,0
707,-622,0,0,0,0,0,0,0,0,0,-1,1931,1646,0,0
714,-622,0,0,0,0,0,0,0,0,0,-1,1938,1646,0,0
721,-622,0,0,0,0,0,0,0,0,0,-1,1945,1646,0,0
728,-622,0,0,0,0,0,0,0,0,0,-1,1952,1646,0,0
735,-622,0,0,0,0,0,0,0,0,0,-1,1959,1646,0,0
742,-622,0,0,0,0,0,0,0,0,0,-1,1966,1646,0,0
749,-622,0,0,0,0,0,0,0,0,0,-1,1973,1646,0,0
756,-622,0,0,0,0,0,0,0,0,0,-1,1980,1646,0,0
763,-622,0,0,0,0,0,0,0,0,0,-1,1987,1646,0,0
770,-622,0,0,0,0,0,0,0,0,0,-1,1994,1646,0,0
777,-622,0,0,0,0,0,0,0,0,0,-1,2001,1646,0,0
784,-622,0,0,0,0,0,0,0,0,0,-1,2008,1646,0,0
791,-622,0,0,0,0,0,0,0,0,0,-1,2015,1646,0,0
798,-622,0,0,0,0,0,0,0,0,0,-1,2022,1646,0,0
805,-622,0,0,0,0,0,0,0,0,0,-1,2029,1646,0,0
812,-622,0,0,0,0,0,0,0,0,0,-1,2036,1646,0,0
-700,-629,0,0,0,0,0,0,0,0,0,-1,524,1653,0,0
-693,-629,0,0,0,0,0,0,0,0,0,-1,531,1653,0,0
-686,-629,0,0,0,0,0,0,0,0,0,-1,538,1653,0,0
-679,-629,0,0,0,0,0,0,0,0,0,-1,545,1653,0,0
-672,-629,0,0,0,0,0,0,0,0,0,-1,552,1653,0,0
-665,-629,0,0,0,0,0,0,0,0,0,-1,559,1653,0,0
-658,-629,0,0,0,0,0,0,0,0,0,-1,566,1653,0,0
-651,-629,0,0,0,0,0,0,0,0,0,-1,573,1653,0,0
-644,-629,0,0,0,0,0,0,0,0,0,-1,580,1653,0,0
-637,-629,0,0,0,0,0,0,0,0,0,-1,587,1653,0,0
-630,-629,0,0,0,0,0,0,0,0,0,-1,594,1653,0,0
-623,-629,0,0,0,0,0,0,0,0,0,-1,601,1653,0,0
-616,-629,0,0,0,0,0,0,0,0,0,-1,608,1653,0,0
-609,-629,0,0,0,0,0,0,0,0,0,-1,615,1653,0,0
-602,-629,0,0,0,0,0,0,0,0,0,-1,622,1653,0,0
-595,-629,0,0,0,0,0,0,0,0,0,-1,629,1653,0,0
-588,-629,0,0,0,0,0,0,0,0,0,-1,636,1653,0,0
-581,-629,0,0,0,0,0,0,0,0,0,-1,643,1653,0,0
-574,-629,0,0,0,0,0,0,0,0,0,-1,650,1653,0,0
-567,-629,0,0,0,0,0,0,0,0,0,-1,657,1653,0,0
-560,-629,0,0,0,0,0,0,0,0,0,-1,664,1653,0,0
-553,-629,0,0,0,0,0,0,0,0,0,-1,671,1653,0,0
-546,-629,0,0,0,0,0,0,0,0,0,-1,678,1653,0,0
-539,-629,0,0,0,0,0,0,0,0,0,-1,685,1653,0,0
-532,-629,0,0,0,0,0,0,0,0,0,-1,692,1653,0,0
-525,-629,0,0,0,0,0,0,0,0,0,-1,699,1653,0,0
-518,-629,0,0,0,0,0,0,0,0,0,-1,706,1653,0,0
-511,-629,0,0,0,0,0,0,0,0,0,-1,713,1653,0,0
-504,-629,0,0,0,0,0,0,0,0,0,-1,720,1653,0,0
-497,-629,0,0,0,0,0,0,0,0,0,-1,727,1653,0,0
-490,-629,0,0,0,0,0,0,0,0,0,-1,734,1653,0,0
-483,-629,0,0,0,0,0,0,0,0,0,-1,741,1653,0,0
-476,-629,0,0,0,0,0,0,0,0,0,-1,748,1653,0,0
-469,-629,0,0,0,0,0,0,0,0,0,-1,755,1653,0,0
-462,-629,0,0,0,0,0,0,0,0,0,-1,762,1653,0,0
-455,-629,0,0,0,0,0,0,0,0,0,-1,769,1653,0,0
-448,-629,0,0,0,0,0,0,0,0,0,-1,776,1653,0,0
-441,-629,0,0,0,0,0,0,0,0,0,-1,783,1653,0,0
-434,-629,0,0,0,0,0,0,0,0,0,-1,790,1653,0,0
-427,-629,0,0,0,0,0,0,0,0,0,-1,797,1653,0,0
-420,-629,-2.46863,0.990112,0,0,0,0,0,0,0,-1,804,1653,-2.46866,-0.990166
-413,-629,-0.604492,-0.838623,0,0,0,0,0,0,0,-1,811,1653,-0.604467,0.838635
-406,-629,-1.72711,-2.66455,0,0,0,0,0,0,0,-1,818,1653,-1.72714,2.66452
-399,-629,-0.0438232,-1.28467,0.159576,0.137541,0.12446,0.273505,0.0236124,0.741252,0.174998,0.0474904,825,1653,-0.0438518,1.28465
-392,-629,2.30444,0.0294189,0.124797,0.111655,0.102619,0.221055,0.0153963,0.753426,0.142515,0.0434845,832,1653,2.30446,-0.0294389
-385,-629,4.44537,1.11584,0,0,0,0,0,0,0,-1,839,1653,4.44539,-1.11586
-378,-629,4.06226,3.47961,0.0603849,0.063126,0.0614401,0.123211,0.000300076,0.79655,0.0820407,0.0438556,846,1653,4.06223,-3.47956
-371,-629,3.29382,3.87439,0.0370823,0.0434701,0.0446484,0.0850386,-0.00448633,0.821105,0.0582455,0.0454684,853,1653,3.29383,-3.87438
-364,-629,2.65643,4.4967,0.0192319,0.0285173,0.0309898,0.0552102,-0.00746097,0.859752,0.0395292,0.0452045,860,1653,2.6564,-4.49672
-357,-629,2.18024,4.55798,0.00807129,0.0175984,0.0208358,0.0342082,-0.00853853,0.897778,0.026121,0.0450255,867,1653,2.18025,-4.55797
-350,-629,2.2276,4.55627,-0.00133321,0.00859455,0.0116028,0.0162507,-0.00898938,0.987525,0.014772,0.0425108,874,1653,2.22757,-4.55623
-343,-629,2.25653,4.54541,-0.00851548,0.00213018,0.00449861,0.00377656,-0.0101619,1.21996,0.00832407,0.0334301,881,1653,2.25651,-4.54536
-336,-629,2.27606,4.50513,-0.00788914,0.00024259,0.00216621,0.000783646,-0.00843019,1.32603,0.00589872,0.0172347,888,1653,2.27609,-4.5051
-329,-629,2.28674,4.58252,-0.00476674,0.000683535,0.00145939,0.00104971,-0.00513292,1.32496,0.00382023,0.010479,895,1653,2.28677,-4.58254
-322,-629,2.29694,4.66394,-0.00203612,0.00105185,0.000749403,0.00122411,-0.00220838,1.34486,0.00200873,0.0108591,902,1653,2.29692,-4.66393
-315,-629,2.27313,4.74719,-0.000409132,0.00100329,0.000679069,0.0012768,-0.00068265,1.18789,0.0011485,0.014585,909,1653,2.27315,-4.74722
-308,-629,2.27893,4.82751,0.000670188,0.00128568,0.000388135,0.00147327,0.000482599,1.12059,0.000867286,0.0122026,916,1653,2.27894,-4.82757
-301,-629,2.29822,4.91858,0.00116554,0.00151645,-1.52043e-05,0.00151711,0.00116489,-1.52758,0.000916835,0.009857,923,1653,2.29825,-4.91855
-294,-629,2.28613,4.99744,0.000969416,0.00119424,-0.000180648,0.0012946,0.000869062,-1.06372,0.000761918,0.00996951,930,1653,2.28616,-4.99745
-287,-629,2.28235,5.07446,0.000692308,0.000714943,-0.000396273,0.00110006,0.000307191,-0.799674,0.000655429,0.0083323,937,1653,2.28237,-5.07452
-280,-629,2.2901,5.16675,0.000339293,-1.54028e-05,-0.000712864,0.000896538,-0.000572648,-0.663482,0.000855079,0.00928746,944,1653,2.29009,-5.16672
-273,-629,2.28491,5.22119,0.000110448,-0.00099104,-0.00134622,0.00101422,-0.00189481,-0.591233,0.00170499,0.0121263,951,1653,2.28492,-5.22115
-266,-629,2.27258,5.29602,1.46223e-05,-0.00187985,-0.0020136,0.00129266,-0.00315789,-0.565547,0.00264368,0.0128953,958,1653,2.2726,-5.29605
-259,-629,2.2652,5.37915,-0.000163171,-0.00292111,-0.0027419,0.00152699,-0.00461127,-0.552406,0.00369004,0.0144411,965,1653,2.2652,-5.37919
-252,-629,2.28961,5.44043,0.000213028,-0.00388046,-0.00367511,0.0023729,-0.00604033,-0.531328,0.00500885,0.0109605,972,1653,2.2896,-5.44046
-245,-629,2.31702,5.52734,0.000989705,-0.00413646,-0.00520638,0.0042297,-0.00737645,-0.556665,0.00678242,0.00752708,979,1653,2.31701,-5.52739
-238,-629,2.31519,5.60291,0.00146504,-0.00452717,-0.00688599,0.00597849,-0.00904063,-0.5802,0.00873116,0.00951597,986,1653,2.31519,-5.60289
-231,-629,2.30432,5.66907,0.00195991,-0.00461307,-0.00888862,0.00815016,-0.0108033,-0.608322,0.0109785,0.0097884,993,1653,2.3043,-5.66912
-224,-629,2.31177,5.73254,0.00279843,-0.00438042,-0.0111738,0.0109452,-0.0125272,-0.629986,0.013562,0.0095875,1000,1653,2.31176,-5.73252
-217,-629,2.31622,5.81067,0.00354843,-0.00466366,-0.0129998,0.0130753,-0.0141905,-0.63243,0.0157463,0.0128668,1007,1653,2.31621,-5.81067
-210,-629,2.25171,5.8335,0.00350563,-0.00486644,-0.0143083,0.0142277,-0.0155885,-0.64309,0.0172203,0.0257759,1014,1653,2.2517,-5.83348
-203,-629,2.09558,5.8031,0.00284803,-0.00546566,-0.0156124,0.0148475,-0.0174651,-0.65529,0.0186761,0.0383399,1021,1653,2.09559,-5.80306
-196,-629,2.35425,5.8479,0.00214871,-0.00643381,-0.0164868,0.0148935,-0.0191786,-0.658081,0.0197234,0.0405494,1028,1653,2.35421,-5.84789
-189,-629,2.32397,5.83887,0.000958701,-0.00725874,-0.0164088,0.0137653,-0.0200654,-0.662722,0.0196448,0.0382504,1035,1653,2.32394,-5.83885
-182,-629,2.22864,5.63953,-0.000760657,-0.00969161,-0.0151713,0.0105887,-0.0210409,-0.642271,0.0185908,0.0420049,1042,1653,2.22862,-5.63957
-175,-629,2.3219,5.49451,-0.00243786,-0.012766,-0.0127377,0.00614273,-0.0213466,-0.592814,0.0166605,0.0473336,1049,1653,2.32192,-5.49447
-168,-629,2.521,5.43494,-0.0043596,-0.0159122,-0.00917004,0.000701785,-0.0209735,-0.504338,0.0142221,0.0480419,1056,1653,2.521,-5.4349
-161,-629,2.4458,5.72241,-0.00594033,-0.0196654,-0.00504664,-0.00428448,-0.0213213,-0.317042,0.0130231,0.0448008,1063,1653,2.44586,-5.72236
-154,-629,2.1095,5.92273,-0.00680862,-0.0233232,-0.000634288,-0.0067843,-0.0233475,-0.0383326,0.0138682,0.0456635,1070,1653,2.10944,-5.92274
-147,-629,1.57898,6.36365,-0.00724965,-0.0268334,0.00401334,-0.0064591,-0.0276239,0.194491,0.016685,0.0452602,1077,1653,1.57894,-6.3637
-140,-629,1.59277,6.39746,-0.00678992,-0.030264,0.00900531,-0.00373325,-0.0333206,0.327227,0.0210798,0.0427941,1084,1653,1.59277,-6.39747
-133,-629,1.60559,6.88513,0,0,0,0,0,0,0,-1,1091,1653,1.60556,-6.88519
-126,-629,1.14282,7.203,0,0,0,0,0,0,0,-1,1098,1653,1.14286,-7.20305
-119,-629,0.835205,7.59851,0,0,0,0,0,0,0,-1,1105,1653,0.835162,-7.59856
-112,-629,0.0380859,6.21252,0,0,0,0,0,0,0,-1,1112,1653,0.0380893,-6.21252
-105,-629,3.67065,6.44324,0,0,0,0,0,0,0,-1,1119,1653,3.67068,-6.44328
-98,-629,2.552,10.3246,0,0,0,0,0,0,0,-1,1126,1653,2.55195,-10.3246
-91,-629,0.273315,3.47656,0,0,0,0,0,0,0,-1,1133,1653,0.273292,-3.47653
-84,-629,-0.881226,3.18091,0,0,0,0,0,0,0,-1,1140,1653,-0.881232,-3.18088
-77,-629,-2.66138,-1.62354,0,0,0,0,0,0,0,-1,1147,1653,-2.66144,1.62353
-70,-629,-2.90601,-2.01196,0,0,0,0,0,0,0,-1,1154,1653,-2.90605,2.01197
-63,-629,-2.56482,-0.418213,0.0317368,-0.122606,0.0740844,0.0615416,-0.152411,0.382495,0.127185,0.0454006,1161,1653,-2.56481,0.418171
-56,-629,-2.27771,1.18799,0.0255598,-0.120332,0.0730088,0.0558194,-0.150592,0.392914,0.123288,0.0480259,1168,1653,-2.27767,-1.18794
-49,-629,-2.15662,2.57458,0.0210102,-0.11788,0.0623115,0.0448676,-0.141737,0.365654,0.112471,0.0486846,1175,1653,-2.15656,-2.57459
-42,-629,-2.46326,3.91467,0.0226716,-0.11505,0.0501922,0.0390228,-0.131401,0.314929,0.1031,0.0491686,1182,1653,-2.4633,-3.91466
-35,-629,-2.67261,5.24292,0,0,0,0,0,0,0,-1,1189,1653,-2.67257,-5.24298
-28,-629,-0.402954,-0.866577,0,0,0,0,0,0,0,-1,1196,1653,-0.402943,0.866612
-21,-629,4.61182,11.3348,0,0,0,0,0,0,0,-1,1203,1653,4.61178,-11.3348
-14,-629,1.45813,5.04272,0,0,0,0,0,0,0,-1,1210,1653,1.45815,-5.04272
-7,-629,1.59619,4.65845,0.0337374,-0.0890937,-0.0272896,0.0395274,-0.0948838,-0.20907,0.0797659,0.0444427,1217,1653,1.59619,-4.65839
0,-629,1.70593,4.26648,0.0343915,-0.0789903,-0.0420868,0.0483062,-0.0929051,-0.319306,0.0828727,0.0472826,1224,1653,1.70588,-4.26649
7,-629,1.86096,3.92407,0,0,0,0,0,0,0,-1,1231,1653,1.86101,-3.9241
14,-629,2.70544,3.16138,0.0386839,-0.0567854,-0.0650324,0.0716202,-0.0897218,-0.468803,0.0933461,0.0402091,1238,1653,2.70543,-3.16136
21,-629,2.77991,2.70862,0.0340797,-0.0451115,-0.0689048,0.0739553,-0.0849871,-0.524615,0.0918391,0.0441337,1245,1653,2.77989,-2.70859
28,-629,2.87085,2.66309,0.027379,-0.0314383,-0.0721297,0.0758649,-0.0799242,-0.591827,0.089955,0.0452756,1252,1653,2.87088,-2.6631
35,-629,3.20935,2.7207,0.0195557,-0.0172568,-0.0741523,0.077552,-0.0752531,-0.663746,0.0882254,0.0448828,1259,1653,3.2093,-2.72067
42,-629,3.40051,2.82544,0,0,0,0,0,0,0,-1,1266,1653,3.40046,-2.82538
49,-629,0.481323,9.15527,0,0,0,0,0,0,0,-1,1273,1653,0.481294,-9.15525
56,-629,0.284546,8.23914,0,0,0,0,0,0,0,-1,1280,1653,0.284599,-8.23915
63,-629,0.320679,7.54663,-0.00827116,0.028684,-0.0770313,0.0894229,-0.06901,-0.90311,0.091724,0.0466672,1287,1653,0.320641,-7.54665
70,-629,0.107056,6.72949,-0.0149019,0.0375372,-0.0757867,0.0915117,-0.0688764,-0.951936,0.092907,0.0452783,1294,1653,0.107056,-6.72949
77,-629,-0.0598145,5.85278,-0.0118635,0.0412874,-0.0682291,0.087934,-0.0585101,-0.97111,0.0851165,0.0458715,1301,1653,-0.0597656,-5.85278
84,-629,-0.216431,5.0658,-0.0100038,0.0369533,-0.0618839,0.0796628,-0.0527133,-0.966708,0.0769535,0.0440652,1308,1653,-0.216448,-5.06585
91,-629,-0.380005,4.29004,-0.0097949,0.0285072,-0.0557166,0.0682723,-0.0495599,-0.950934,0.0683158,0.04419,1315,1653,-0.379999,-4.29003
98,-629,-0.503418,3.19092,-0.00604724,0.0207764,-0.0469441,0.056187,-0.0414578,-0.924541,0.0565886,0.0457132,1322,1653,-0.503409,-3.19087
105,-629,-0.764648,2.35754,-0.00108923,0.0113556,-0.0373862,0.0430337,-0.0327673,-0.86786,0.0438973,0.0486671,1329,1653,-0.764708,-2.35749
112,-629,-0.994263,1.51868,0.00454965,0.000642517,-0.0271422,0.0298085,-0.0246163,-0.749472,0.0314698,0.0477959,1336,1653,-0.994211,-1.51866
119,-629,-0.231934,2.77454,0,0,0,0,0,0,0,-1,1343,1653,-0.231928,-2.77451
126,-629,0.372437,2.34253,0.0140873,-0.0223926,-0.00681101,0.0153174,-0.0236228,-0.178689,0.022652,0.0429045,1350,1653,0.372382,-2.3425
133,-629,0.447266,2.15625,0.0177803,-0.0349815,0.00350018,0.0180115,-0.0352127,0.065954,0.0312594,0.0451556,1357,1653,0.44723,-2.1562
140,-629,0.244873,2.07483,0.0196052,-0.049051,0.0125875,0.0218403,-0.051286,0.175729,0.0433454,0.043546,1364,1653,0.24486,-2.07483
147,-629,-0.334106,2.41418,0,0,0,0,0,0,0,-1,1371,1653,-0.334128,-2.41424
154,-629,4.3573,15.877,0,0,0,0,0,0,0,-1,1378,1653,4.35731,-15.8769
161,-629,7.10571,16.3647,0,0,0,0,0,0,0,-1,1385,1653,7.10571,-16.3648
168,-629,8.13794,16.2546,0,0,0,0,0,0,0,-1,1392,1653,8.1379,-16.2546
175,-629,5.84485,-1.78845,0,0,0,0,0,0,0,-1,1399,1653,5.84479,1.7884
182,-629,5.99036,-1.27783,0,0,0,0,0,0,0,-1,1406,1653,5.99041,1.27778
189,-629,5.97668,-0.748535,0,0,0,0,0,0,0,-1,1413,1653,5.97671,0.748544
196,-629,4.52869,9.24695,0,0,0,0,0,0,0,-1,1420,1653,4.52869,-9.2469
203,-629,3.75085,6.88037,0,0,0,0,0,0,0,-1,1427,1653,3.75087,-6.88032
210,-629,6.45081,0.347656,0,0,0,0,0,0,0,-1,1434,1653,6.45082,-0.347647
217,-629,5.9751,0.400391,0,0,0,0,0,0,0,-1,1441,1653,5.97512,-0.400335
224,-629,5.48218,0.398926,0,0,0,0,0,0,0,-1,1448,1653,5.48218,-0.398977
231,-629,1.82263,3.62769,0,0,0,0,0,0,0,-1,1455,1653,1.82258,-3.62769
238,-629,3.14307,3.65588,0,0,0,0,0,0,0,-1,1462,1653,3.14309,-3.65591
245,-629,4.78967,3.6095,0,0,0,0,0,0,0,-1,1469,1653,4.78964,-3.60944
252,-629,6.67529,3.59131,0,0,0,0,0,0,0,-1,1476,1653,6.67524,-3.59133
259,-629,8.19849,3.56531,0,0,0,0,0,0,0,-1,1483,1653,8.19843,-3.56525
266,-629,1.13428,0.122314,0,0,0,0,0,0,0,-1,1490,1653,1.13426,-0.122301
273,-629,2.10596,-0.0189209,0.0693815,0.0483712,0.07206,0.131698,-0.0139453,0.713017,0.0927971,0.0493712,1497,1653,2.10597,0.0189436
280,-629,3.35522,0.264893,0.0613398,0.0428677,0.0637185,0.116488,-0.0122807,0.713424,0.0820592,0.0476689,1504,1653,3.35524,-0.264854
287,-629,4.70215,0.457764,0,0,0,0,0,0,0,-1,1511,1653,4.70213,-0.45782
294,-629,4.03577,6.89734,0,0,0,0,0,0,0,-1,1518,1653,4.0358,-6.89739
301,-629,3.94055,6.81616,0,0,0,0,0,0,0,-1,1525,1653,3.94058,-6.81612
308,-629,4.02881,6.65479,0,0,0,0,0,0,0,-1,1532,1653,4.02877,-6.6548
315,-629,3.75549,6.73889,0.0271668,0.0249687,0.0250827,0.0511746,0.000960946,0.763504,0.0338006,0.049639,1539,1653,3.75549,-6.73887
322,-629,3.71313,6.65308,0.0224513,0.0224574,0.018907,0.0413614,0.00354733,0.785478,0.0264712,0.0454352,1546,1653,3.71319,-6.65311
329,-629,3.62476,6.44348,0.0167807,0.01865,0.0124413,0.0301916,0.00523898,0.82289,0.0186286,0.0407723,1553,1653,3.62479,-6.44349
336,-629,3.70251,6.24622,0.0106605,0.0150424,0.00683562,0.0200296,0.00567329,0.940487,0.0119208,0.039269,1560,1653,3.70252,-6.24622
343,-629,3.81335,6.17224,0.00720332,0.0118393,0.00220176,0.0127183,0.0063243,1.19095,0.00734294,0.0366505,1567,1653,3.81341,-6.17223
350,-629,3.84863,6.01929,0.00406931,0.00985547,-0.00111567,0.0100631,0.00386165,-1.38677,0.00586207,0.0256104,1574,1653,3.84862,-6.01929
357,-629,3.83655,5.97852,0.0021299,0.00687246,-0.0015891,0.00735569,0.00164667,-1.27559,0.00445747,0.0155931,1581,1653,3.83655,-5.97847
364,-629,3.81982,5.94116,0.000819032,0.00499515,-0.00126786,0.00534993,0.000464254,-1.29795,0.00342238,0.012845,1588,1653,3.81978,-5.94117
371,-629,3.8103,5.87781,8.5956e-05,0.00334214,-0.000785539,0.00352174,-9.36458e-05,-1.34602,0.00237965,0.00984526,1595,1653,3.81029,-5.87779
378,-629,3.79895,5.8075,-0.00032187,0.00207111,-0.00025709,0.00209842,-0.000349179,-1.46497,0.00152869,0.0093513,1602,1653,3.79892,-5.80753
385,-629,3.8064,5.75378,-0.000802186,0.00106393,0.000303406,0.00111202,-0.000850276,1.4136,0.00113629,0.0109788,1609,1653,3.80639,-5.75375
392,-629,3.80139,5.68689,-0.000978259,0.00048306,0.000371171,0.000571931,-0.00106713,1.33579,0.000960601,0.00967557,1616,1653,3.80144,-5.68693
399,-629,3.79517,5.61182,-0.000807936,0.000221518,0.000193202,0.000256582,-0.000843001,1.39126,0.000664257,0.0112073,1623,1653,3.79521,-5.61186
406,-629,3.78772,5.5282,-0.000686349,1.71022e-06,8.08849e-05,1.10907e-05,-0.000695729,1.45534,0.00046756,0.0146372,1630,1653,3.78774,-5.52819
413,-629,3.78918,5.4469,-0.000516145,-0.000122397,-7.18078e-05,-0.00010971,-0.000528832,-1.39592,0.000322271,0.0220267,1637,1653,3.78917,-5.44691
420,-629,3.78076,5.39099,-0.000388416,-0.00019193,-0.000259978,-1.22517e-05,-0.000568095,-0.966049,0.000374713,0.0199994,1644,1653,3.78073,-5.39098
427,-629,3.80725,5.33972,-0.000282715,-0.000310752,-0.00033291,3.64715e-05,-0.000629939,-0.764356,0.000432629,0.0122695,1651,1653,3.80723,-5.33974
434,-629,3.8252,5.26782,-0.000181424,-0.000262801,-0.000463446,0.000243117,-0.000687341,-0.741612,0.000557234,0.0099486,1658,1653,3.82522,-5.26779
441,-629,3.83948,5.20032,-0.000198893,-0.000444956,-0.000821497,0.000508734,-0.00115258,-0.711068,0.00098288,0.0143717,1665,1653,3.83954,-5.20033
448,-629,3.81934,5.11072,-0.00045772,-0.000543447,-0.00131671,0.000816827,-0.00181799,-0.769127,0.00155739,0.0135031,1672,1653,3.81931,-5.11072
455,-629,3.79199,5.01892,-0.000481096,-0.000905728,-0.00185802,0.0011767,-0.00256352,-0.72851,0.00220835,0.0127489,1679,1653,3.79196,-5.01889
462,-629,3.80237,4.96082,-0.000490442,-0.00124869,-0.00244883,0.00160844,-0.00334757,-0.708599,0.00291949,0.0164857,1686,1653,3.80239,-4.96084
469,-629,3.81873,4.86804,-0.000365912,-0.00168727,-0.00328466,0.00232385,-0.00437704,-0.686152,0.00392883,0.0195219,1693,1653,3.81869,-4.86809
476,-629,3.86597,4.81519,-0.000253044,-0.00228211,-0.00428745,0.00313827,-0.00567343,-0.669221,0.00515714,0.0245204,1700,1653,3.86601,-4.81518
483,-629,3.96619,4.76697,-2.6558e-05,-0.00304253,-0.00541699,0.00408843,-0.00715752,-0.649645,0.00657295,0.0372536,1707,1653,3.96621,-4.76695
490,-629,4.10461,4.65417,0.000434947,-0.00384413,-0.00678114,0.00540606,-0.00881525,-0.632584,0.00828895,0.0441215,1714,1653,4.10466,-4.6542
497,-629,3.74561,4.37537,0.00107879,-0.00464404,-0.00832764,0.0070229,-0.0105882,-0.619915,0.010237,0.0443129,1721,1653,3.74557,-4.37531
504,-629,3.78259,4.28308,0,0,0,0,0,0,0,-1,1728,1653,3.78255,-4.28312
511,-629,3.90918,3.66418,0,0,0,0,0,0,0,-1,1735,1653,3.90921,-3.66416
518,-629,5.84387,1.41858,0,0,0,0,0,0,0,-1,1742,1653,5.84391,-1.4186
525,-629,6.4729,1.02319,0,0,0,0,0,0,0,-1,1749,1653,6.47284,-1.02316
532,-629,6.86511,0.903687,0,0,0,0,0,0,0,-1,1756,1653,6.86514,-0.903691
539,-629,6.60803,0.746704,0,0,0,0,0,0,0,-1,1763,1653,6.60809,-0.746691
546,-629,0,0,0,0,0,0,0,0,0,-1,1770,1653,0,0
553,-629,0,0,0,0,0,0,0,0,0,-1,1777,1653,0,0
560,-629,0,0,0,0,0,0,0,0,0,-1,1784,1653,0,0
567,-629,0,0,0,0,0,0,0,0,0,-1,1791,1653,0,0
574,-629,0,0,0,0,0,0,0,0,0,-1,1798,1653,0,0
581,-629,0,0,0,0,0,0,0,0,0,-1,1805,1653,0,0
588,-629,0,0,0,0,0,0,0,0,0,-1,1812,1653,0,0
595,-629,0,0,0,0,0,0,0,0,0,-1,1819,1653,0,0
602,-629,0,0,0,0,0,0,0,0,0,-1,1826,1653,0,0
609,-629,0,0,0,0,0,0,0,0,0,-1,1833,1653,0,0
616,-629,0,0,0,0,0,0,0,0,0,-1,1840,1653,0,0
623,-629,0,0,0,0,0,0,0,0,0,-1,1847,1653,0,0
630,-629,0,0,0,0,0,0,0,0,0,-1,1854,1653,0,0
637,-629,0,0,0,0,0,0,0,0,0,-1,1861,1653,0,0
644,-629,0,0,0,0,0,0,0,0,0,-1,1868,1653,0,0
651,-629,0,0,0,0,0,0,0,0,0,-1,1875,1653,0,0
658,-629,0,0,0,0,0,0,0,0,0,-1,1882,1653,0,0
665,-629,0,0,0,0,0,0,0,0,0,-1,1889,1653,0,0
672,-629,0,0,0,0,0,0,0,0,0,-1,1896,1653,0,0
679,-629,0,0,0,0,0,0,0,0,0,-1,1903,1653,0,0
686,-629,0,0,0,0,0,0,0,0,0,-1,1910,1653,0,0
693,-629,0,0,0,0,0,0,0,0,0,-1,1917,1653,0,0
700,-629,0,0,0,0,0,0,0,0,0,-1,1924,1653,0,0
707,-629,0,0,0,0,0,0,0,0,0,-1,1931,1653,0,0
714,-629,0,0,0,0,0,0,0,0,0,-1,1938,1653,0,0
721,-629,0,0,0,0,0,0,0,0,0,-1,1945,1653,0,0
728,-629,0,0,0,0,0,0,0,0,0,-1,1952,1653,0,0
735,-629,0,0,0,0,0,0,0,0,0,-1,1959,1653,0,0
742,-629,0,0,0,0,0,0,0,0,0,-1,1966,1653,0,0
749,-629,0,0,0,0,0,0,0,0,0,-1,1973,1653,0,0
756,-629,0,0,0,0,0,0,0,0,0,-1,1980,1653,0,0
763,-629,0,0,0,0,0,0,0,0,0,-1,1987,1653,0,0
770,-629,0,0,0,0,0,0,0,0,0,-1,1994,1653,0,0
777,-629,0,0,0,0,0,0,0,0,0,-1,2001,1653,0,0
784,-629,0,0,0,0,0,0,0,0,0,-1,2008,1653,0,0
791,-629,0,0,0,0,0,0,0,0,0,-1,2015,1653,0,0
798,-629,0,0,0,0,0,0,0,0,0,-1,2022,1653,0,0
805,-629,0,0,0,0,0,0,0,0,0,-1,2029,1653,0,0
812,-629,0,0,0,0,0,0,0,0,0,-1,2036,1653,0,0
-700,-636,0,0,0,0,0,0,0,0,0,-1,524,1660,0,0
-693,-636,0,0,0,0,0,0,0,0,0,-1,531,1660,0,0
-686,-636,0,0,0,0,0,0,0,0,0,-1,538,1660,0,0
-679,-636,0,0,0,0,0,0,0,0,0,-1,545,1660,0,0
-672,-636,0,0,0,0,0,0,0,0,0,-1,552,1660,0,0
-665,-636,0,0,0,0,0,0,0,0,0,-1,559,1660,0,0
-658,-636,0,0,0,0,0,0,0,0,0,-1,566,1660,0,0
-651,-636,0,0,0,0,0,0,0,0,0,-1,573,1660,0,0
-644,-636,0,0,0,0,0,0,0,0,0,-1,580,1660,0,0
-637,-636,0,0,0,0,0,0,0,0,0,-1,587,1660,0,0
-630,-636,0,0,0,0,0,0,0,0,0,-1,594,1660,0,0
-623,-636,0,0,0,0,0,0,0,0,0,-1,601,1660,0,0
-616,-636,0,0,0,0,0,0,0,0,0,-1,608,1660,0,0
-609,-636,0,0,0,0,0,0,0,0,0,-1,615,1660,0,0
-602,-636,0,0,0,0,0,0,0,0,0,-1,622,1660,0,0
-595,-636,0,0,0,0,0,0,0,0,0,-1,629,1660,0,0
-588,-636,0,0,0,0,0,0,0,0,0,-1,636,1660,0,0
-581,-636,0,0,0,0,0,0,0,0,0,-1,643,1660,0,0
-574,-636,0,0,0,0,0,0,0,0,0,-1,650,1660,0,0
-567,-636,0,0,0,0,0,0,0,0,0,-1,657,1660,0,0
-560,-636,0,0,0,0,0,0,0,0,0,-1,664,1660,0,0
-553,-636,0,0,0,0,0,0,0,0,0,-1,671,1660,0,0
-546,-636,0,0,0,0,0,0,0,0,0,-1,678,1660,0,0
-539,-636,0,0,0,0,0,0,0,0,0,-1,685,1660,0,0
-532,-636,0,0,0,0,0,0,0,0,0,-1,692,1660,0,0
-525,-636,0,0,0,0,0,0,0,0,0,-1,699,1660,0,0
-518,-636,0,0,0,0,0,0,0,0,0,-1,706,1660,0,0
-511,-636,0,0,0,0,0,0,0,0,0,-1,713,1660,0,0
-504,-636,0,0,0,0,0,0,0,0,0,-1,720,1660,0,0
-497,-636,0,0,0,0,0,0,0,0,0,-1,727,1660,0,0
-490,-636,0,0,0,0,0,0,0,0,0,-1,734,1660,0,0
-483,-636,0,0,0,0,0,0,0,0,0,-1,741,1660,0,0
-476,-636,0,0,0,0,0,0,0,0,0,-1,748,1660,0,0
-469,-636,0,0,0,0,0,0,0,0,0,-1,755,1660,0,0
-462,-636,0,0,0,0,0,0,0,0,0,-1,762,1660,0,0
-455,-636,0,0,0,0,0,0,0,0,0,-1,769,1660,0,0
-448,-636,0,0,0,0,0,0,0,0,0,-1,776,1660,0,0
-441,-636,0,0,0,0,0,0,0,0,0,-1,783,1660,0,0
-434,-636,0,0,0,0,0,0,0,0,0,-1,790,1660,0,0
-427,-636,0,0,0,0,0,0,0,0,0,-1,797,1660,0,0
-420,-636,0,0,0,0,0,0,0,0,0,-1,804,1660,0,0
-413,-636,0,0,0,0,0,0,0,0,0,-1,811,1660,0,0
-406,-636,-0.629822,-0.0847168,0,0,0,0,0,0,0,-1,818,1660,-0.629851,0.0846809
-399,-636,-1.05011,-2.59241,0,0,0,0,0,0,0,-1,825,1660,-1.05011,2.59247
-392,-636,1.63379,-1.39319,0,0,0,0,0,0,0,-1,832,1660,1.63376,1.39325
-385,-636,4.65863,2.6958,0,0,0,0,0,0,0,-1,839,1660,4.65861,-2.69581
-378,-636,4.08496,3.2334,0.0631192,0.0712619,0.0701966,0.137505,-0.00312408,0.814365,0.092729,0.0419545,846,1660,4.08497,-3.23335
-371,-636,3.16779,3.80762,0.0362983,0.0488411,0.0508347,0.0937898,-0.00865045,0.846772,0.0656004,0.0497518,853,1660,3.16778,-3.80762
-364,-636,2.50958,4.34045,0.0162103,0.0310521,0.0349925,0.0594019,-0.0121396,0.889885,0.044207,0.049965,860,1660,2.5096,-4.34046
-357,-636,1.85315,4.77454,0.00388395,0.0180312,0.0234193,0.0354218,-0.0135067,0.932062,0.0291782,0.0474557,867,1660,1.85315,-4.77451
-350,-636,2.13312,4.51306,0,0,0,0,0,0,0,-1,874,1660,2.13313,-4.51302
-343,-636,2.17542,4.58313,-0.0132226,0.00041739,0.00513076,0.00213185,-0.0149371,1.24831,0.0107394,0.0464288,881,1660,2.17544,-4.58307
-336,-636,2.34967,4.54175,-0.0120892,-0.00181954,0.00232512,-0.00131765,-0.0125911,1.3582,0.00799117,0.0318531,888,1660,2.34965,-4.54179
-329,-636,2.38306,4.60864,-0.00804444,-0.00121785,0.00144891,-0.000923055,-0.00833924,1.37008,0.00527878,0.015903,895,1660,2.38304,-4.60859
-322,-636,2.37598,4.67505,-0.00445916,-0.000690081,0.000596806,-0.000597839,-0.00455141,1.41745,0.00285593,0.0102919,902,1660,2.37597,-4.6751
-315,-636,2.34686,4.75232,-0.0021769,-0.000466425,0.000468162,-0.000346671,-0.00229665,1.32037,0.00142963,0.0118114,909,1660,2.34687,-4.75235
-308,-636,2.35345,4.8335,-0.000602293,0.000230131,0.000151629,0.000256891,-0.000629053,1.39611,0.000526328,0.0109596,916,1660,2.35344,-4.83345
-301,-636,2.37469,4.92102,0.000283047,0.000944588,-0.000213514,0.00100751,0.00022012,-1.28419,0.000611651,0.00963231,923,1660,2.37467,-4.921
-294,-636,2.36346,5.01086,0.00034465,0.00108823,-0.000260258,0.00117027,0.000262609,-1.26543,0.000709043,0.0115148,930,1660,2.36345,-5.01085
-287,-636,2.35632,5.08801,0.000355949,0.0010489,-0.000325216,0.00117762,0.000227229,-1.19392,0.000721367,0.0109191,937,1660,2.35634,-5.08803
-280,-636,2.36578,5.18372,0.00027722,0.000700033,-0.0004348,0.000972097,5.15612e-06,-1.01168,0.000646353,0.0110585,944,1660,2.36581,-5.18371
-273,-636,2.34772,5.23987,0.00015896,5.228e-05,-0.000785898,0.000893326,-0.000682086,-0.751514,0.000912286,0.0120953,951,1660,2.34772,-5.2399
-266,-636,2.35468,5.30688,0.000171917,-0.000488602,-0.00103075,0.00092402,-0.00124071,-0.630362,0.00125425,0.0134177,958,1660,2.35468,-5.30689
-259,-636,2.37415,5.39648,0.000189778,-0.00112201,-0.00131924,0.00100718,-0.00193941,-0.554707,0.00172936,0.0147409,965,1660,2.37414,-5.3965
-252,-636,2.37567,5.4574,0.000636302,-0.00173892,-0.00182608,0.00162699,-0.00272962,-0.497084,0.002542,0.0116793,972,1660,2.37564,-5.45735
-245,-636,2.38226,5.53918,0.00129661,-0.00190761,-0.00280895,0.00292823,-0.00353922,-0.526229,0.00373953,0.0102041,979,1660,2.38228,-5.53921
-238,-636,2.38104,5.60583,0.00171789,-0.00222823,-0.00396917,0.00417736,-0.0046877,-0.554737,0.00512107,0.0107022,986,1660,2.38103,-5.60589
-231,-636,2.37665,5.67151,0.00219532,-0.00237377,-0.00543984,0.00581086,-0.00598931,-0.586599,0.00681309,0.0101396,993,1660,2.37666,-5.67149
-224,-636,2.37665,5.7406,0.00297019,-0.00238696,-0.00717458,0.0079499,-0.00736667,-0.60674,0.00884516,0.00873506,1000,1660,2.37666,-5.74058
-217,-636,2.36487,5.8175,0.00364403,-0.00281525,-0.0085308,0.00953607,-0.0087073,-0.604443,0.0105364,0.0101186,1007,1660,2.36486,-5.81754
-210,-636,2.36975,5.85657,0.00360291,-0.0032996,-0.00957151,0.0103264,-0.0100231,-0.612365,0.0117492,0.0139226,1014,1660,2.36972,-5.85652
-203,-636,2.40045,5.89722,0.00301334,-0.00427598,-0.0106648,0.010639,-0.0119017,-0.620746,0.0130207,0.0180292,1021,1660,2.40044,-5.89727
-196,-636,2.40991,5.97217,0.00243069,-0.00561903,-0.0114168,0.0105113,-0.0136997,-0.615931,0.0140186,0.0186369,1028,1660,2.40991,-5.9722
-189,-636,2.40808,5.98657,0.00149052,-0.00676821,-0.0115339,0.00961198,-0.0148897,-0.613497,0.014255,0.0204565,1035,1660,2.40805,-5.98652
-182,-636,2.48511,5.94629,0.000121224,-0.00916963,-0.0107837,0.00721749,-0.0162659,-0.582018,0.0138896,0.0354016,1042,1660,2.48508,-5.94635
-175,-636,2.44287,5.8291,-0.00112482,-0.0119217,-0.00910942,0.00406563,-0.0171122,-0.517909,0.0129774,0.0444173,1049,1660,2.44284,-5.82907
-168,-636,2.35974,5.94824,-0.00253901,-0.0146789,-0.00667437,0.000412767,-0.0176307,-0.416395,0.0118938,0.0463446,1056,1660,2.35976,-5.94823
-161,-636,2.66321,6.23584,-0.00358374,-0.0177054,-0.00379555,-0.00262824,-0.0186609,-0.246618,0.0116636,0.044074,1063,1660,2.66326,-6.23585
-154,-636,2.63892,6.63721,-0.00420652,-0.0204201,-0.00057944,-0.00418584,-0.0204408,-0.0356773,0.0124684,0.0489063,1070,1660,2.63893,-6.63726
-147,-636,1.60083,6.85388,0,0,0,0,0,0,0,-1,1077,1660,1.60088,-6.85383
-140,-636,1.98804,5.75989,-0.00415357,-0.0255629,0.00653341,-0.00231729,-0.0273992,0.273991,0.0175448,0.0481451,1084,1660,1.98808,-5.75986
-133,-636,2.12305,5.91345,0,0,0,0,0,0,0,-1,1091,1660,2.123,-5.91343
-126,-636,2.20313,6.10608,0,0,0,0,0,0,0,-1,1098,1660,2.20314,-6.10605
-119,-636,2.34473,6.37122,0,0,0,0,0,0,0,-1,1105,1660,2.34477,-6.37117
-112,-636,3.06262,5.60156,0,0,0,0,0,0,0,-1,1112,1660,3.06256,-5.60157
-105,-636,3.51624,4.72791,0,0,0,0,0,0,0,-1,1119,1660,3.51618,-4.7279
-98,-636,2.3512,8.05847,0,0,0,0,0,0,0,-1,1126,1660,2.35122,-8.05843
-91,-636,6.25366,4.56775,0,0,0,0,0,0,0,-1,1133,1660,6.25367,-4.56776
-84,-636,0.321167,9.14124,0,0,0,0,0,0,0,-1,1140,1660,0.321219,-9.14123
-77,-636,-2.69458,-3.26489,0,0,0,0,0,0,0,-1,1147,1660,-2.69463,3.26486
-70,-636,-2.59534,-1.6582,0,0,0,0,0,0,0,-1,1154,1660,-2.59534,1.65819
-63,-636,-2.21704,0.147217,0.0244726,-0.0982042,0.06541,0.0528051,-0.126537,0.408755,0.10642,0.0439396,1161,1660,-2.21705,-0.147244
-56,-636,-2.0249,1.99341,0.0202156,-0.0971009,0.0621931,0.0470487,-0.123934,0.40732,0.101989,0.0461241,1168,1660,-2.02491,-1.99338
-49,-636,-1.64758,3.58545,0,0,0,0,0,0,0,-1,1175,1660,-1.64753,-3.58539
-42,-636,-2.27771,4.90173,0,0,0,0,0,0,0,-1,1182,1660,-2.27775,-4.90173
-35,-636,-2.27698,5.89685,0,0,0,0,0,0,0,-1,1189,1660,-2.27695,-5.89686
-28,-636,-1.70654,4.83936,0,0,0,0,0,0,0,-1,1196,1660,-1.70656,-4.8393
-21,-636,-0.132813,4.82922,0,0,0,0,0,0,0,-1,1203,1660,-0.13279,-4.82921
-14,-636,2.25244,6.03442,0,0,0,0,0,0,0,-1,1210,1660,2.25247,-6.03439
-7,-636,1.92505,5.2605,0.0358504,-0.077273,-0.0237975,0.0406528,-0.0820754,-0.199126,0.0721899,0.0435007,1217,1660,1.92506,-5.26044
0,-636,2.08826,4.89819,0.0383407,-0.0712,-0.0387151,0.0506424,-0.0835016,-0.307658,0.0782188,0.0463502,1224,1660,2.08829,-4.89819
7,-636,2.526,4.59875,0.0421625,-0.0649519,-0.051548,0.0629394,-0.0857288,-0.383142,0.0861691,0.0447786,1231,1660,2.52597,-4.59876
14,-636,3.14856,4.07544,0.0435087,-0.0577249,-0.0610668,0.072209,-0.0864253,-0.439347,0.0917101,0.0418702,1238,1660,3.14853,-4.07544
21,-636,3.56653,3.51929,0.0397125,-0.0495793,-0.0660908,0.074824,-0.0846908,-0.488343,0.0921546,0.0464029,1245,1660,3.5665,-3.51932
28,-636,3.80737,2.80029,0.0332498,-0.0395419,-0.0698462,0.075614,-0.0819061,-0.545211,0.0909685,0.0460949,1252,1660,3.80738,-2.8003
35,-636,3.61975,2.24292,0.02577,-0.0290203,-0.0723279,0.075717,-0.0789674,-0.604365,0.0893136,0.0426501,1259,1660,3.61978,-2.24288
42,-636,0.729248,9.83215,0,0,0,0,0,0,0,-1,1266,1660,0.729194,-9.83216
49,-636,0.57019,8.93555,0.0119649,-0.0111666,-0.0747752,0.0760635,-0.0752652,-0.708669,0.0873701,0.0491244,1273,1660,0.57014,-8.93553
56,-636,0.428223,8.01965,0.00482092,-0.00301561,-0.0759329,0.0769365,-0.0751312,-0.75962,0.0877984,0.0490988,1280,1660,0.428212,-8.01968
63,-636,0.238892,7.2467,-0.0045924,0.00499884,-0.0764259,0.0767794,-0.0763729,-0.816731,0.0884226,0.0478825,1287,1660,0.238917,-7.24676
70,-636,0.225098,6.55835,-0.012271,0.0119799,-0.0749903,0.0758187,-0.0761099,-0.865551,0.0877161,0.0478886,1294,1660,0.225138,-6.55834
77,-636,0.289917,5.72595,-0.0121936,0.0158273,-0.0686447,0.0718768,-0.068243,-0.886066,0.0809073,0.0475578,1301,1660,0.289938,-5.72598
84,-636,0.0582275,4.87329,-0.011912,0.0132752,-0.0627336,0.0646668,-0.0633036,-0.884455,0.0738852,0.0453883,1308,1660,0.0581913,-4.8733
91,-636,-0.213257,3.79016,-0.0122938,0.0066616,-0.0569244,0.0548919,-0.0605241,-0.86789,0.0666618,0.0424995,1315,1660,-0.213276,-3.79019
98,-636,-1.10669,3.56079,-0.00958536,0.000395728,-0.0493521,0.045009,-0.0541986,-0.835787,0.0573594,0.0470656,1322,1660,-1.10666,-3.5608
105,-636,-0.549438,1.34399,-0.00547327,-0.00757795,-0.0409803,0.0344682,-0.0475194,-0.772561,0.047535,0.0480543,1329,1660,-0.549393,-1.34405
112,-636,-0.695068,0.671265,-0.000407611,-0.0164771,-0.0320845,0.0246329,-0.0415176,-0.662709,0.0386045,0.0483885,1336,1660,-0.69503,-0.67129
119,-636,-1.98767,2.16626,0,0,0,0,0,0,0,-1,1343,1660,-1.98761,-2.16623
126,-636,-2.6698,1.75085,0.00992396,-0.0357148,-0.014027,0.0138904,-0.0396813,-0.275578,0.0321022,0.0489112,1350,1660,-2.66986,-1.75081
133,-636,0.289795,2.79248,0.0141417,-0.0459256,-0.00519606,0.0145879,-0.0463718,-0.0856561,0.0367551,0.0459234,1357,1660,0.289769,-2.79246
140,-636,-0.0222168,2.61206,0.0166656,-0.0572965,0.00263372,0.0167592,-0.0573901,0.0355491,0.0449014,0.0423097,1364,1660,-0.0222432,-2.61208
147,-636,-0.119019,2.93176,0.0140472,-0.0704772,0.00820707,0.0148368,-0.0712667,0.0959033,0.0531515,0.0439923,1371,1660,-0.119041,-2.93179
154,-636,-0.0831299,3.33447,0,0,0,0,0,0,0,-1,1378,1660,-0.0831516,-3.33441
161,-636,5.46204,13.5659,0,0,0,0,0,0,0,-1,1385,1660,5.46208,-13.566
168,-636,6.68164,13.4104,0,0,0,0,0,0,0,-1,1392,1660,6.6817,-13.4104
175,-636,5.94592,-1.72888,0,0,0,0,0,0,0,-1,1399,1660,5.94598,1.72886
182,-636,5.93994,-1.11938,0,0,0,0,0,0,0,-1,1406,1660,5.93998,1.11936
189,-636,5.32544,11.9595,0,0,0,0,0,0,0,-1,1413,1660,5.32542,-11.9595
196,-636,5.3623,9.38025,0,0,0,0,0,0,0,-1,1420,1660,5.36225,-9.38027
203,-636,3.89197,8.40259,0,0,0,0,0,0,0,-1,1427,1660,3.89198,-8.40257
210,-636,2.42175,7.4248,0,0,0,0,0,0,0,-1,1434,1660,2.4217,-7.42486
217,-636,5.66541,0.474243,0,0,0,0,0,0,0,-1,1441,1660,5.66547,-0.474296
224,-636,5.26489,0.291992,0,0,0,0,0,0,0,-1,1448,1660,5.26495,-0.291994
231,-636,4.96997,0.293701,0,0,0,0,0,0,0,-1,1455,1660,4.96999,-0.293735
238,-636,4.8075,3.47424,0,0,0,0,0,0,0,-1,1462,1660,4.80748,-3.4742
245,-636,6.84607,3.28748,0,0,0,0,0,0,0,-1,1469,1660,6.84601,-3.28749
252,-636,8.48608,3.4165,0,0,0,0,0,0,0,-1,1476,1660,8.48603,-3.41653
259,-636,9.04578,3.38599,0,0,0,0,0,0,0,-1,1483,1660,9.04575,-3.38599
266,-636,10.1071,3.24109,0,0,0,0,0,0,0,-1,1490,1660,10.1071,-3.24103
273,-636,1.42151,-0.95813,0,0,0,0,0,0,0,-1,1497,1660,1.42155,0.958165
280,-636,3.4447,6.29993,0,0,0,0,0,0,0,-1,1504,1660,3.44465,-6.29996
287,-636,4.43127,-0.264038,0,0,0,0,0,0,0,-1,1511,1660,4.43124,0.264072
294,-636,3.29846,6.21094,0,0,0,0,0,0,0,-1,1518,1660,3.29849,-6.21088
301,-636,3.67627,6.51709,0.0321815,0.0249065,0.0302121,0.0589743,-0.00188623,0.725487,0.0399598,0.04582,1525,1660,3.67625,-6.51708
308,-636,3.84973,6.5282,0.0264082,0.0220681,0.0237091,0.0480463,0.000429984,0.739762,0.0318885,0.0470933,1532,1660,3.84977,-6.52825
315,-636,3.66113,6.45447,0.02124,0.0193378,0.0177932,0.0381075,0.00247031,0.758698,0.0246229,0.0457418,1539,1660,3.66109,-6.4545
322,-636,3.60327,6.32092,0.016769,0.0169635,0.012381,0.0292476,0.0044849,0.789326,0.0181887,0.0381687,1546,1660,3.60322,-6.32094
329,-636,3.64514,6.14063,0.011532,0.013566,0.00683802,0.0194622,0.00563576,0.85922,0.0115635,0.0260606,1553,1660,3.64518,-6.1406
336,-636,3.71411,6.13696,0.006455,0.0105867,0.0025406,0.0117953,0.00524634,1.12675,0.00682386,0.0211996,1560,1660,3.71408,-6.13697
343,-636,3.72473,6.12476,0.00409033,0.00833492,-0.000275304,0.00835271,0.00407255,-1.5063,0.00482293,0.0181566,1567,1660,3.72478,-6.12481
350,-636,3.71631,6.03918,0.00220561,0.00704715,-0.00173973,0.00760745,0.00164531,-1.25922,0.00462186,0.0110491,1574,1660,3.71627,-6.03923
357,-636,3.73987,5.98035,0.00123458,0.0051438,-0.00153361,0.00567364,0.000704744,-1.23815,0.00357077,0.00976856,1581,1660,3.73983,-5.98029
364,-636,3.75476,5.927,0.000620657,0.00371931,-0.00113634,0.00409136,0.00024861,-1.25439,0.0026486,0.00980793,1588,1660,3.75482,-5.92697
371,-636,3.74561,5.87061,0.000260501,0.00245545,-0.000708816,0.00266444,5.15028e-05,-1.28407,0.00175938,0.0086699,1595,1660,3.74564,-5.87058
378,-636,3.7489,5.79797,-6.72474e-06,0.00145712,-0.000373301,0.00154682,-9.64252e-05,-1.33498,0.00106481,0.00898925,1602,1660,3.74888,-5.79803
385,-636,3.76038,5.73633,-0.000311568,0.000663566,-3.85342e-05,0.000665086,-0.000313088,-1.53136,0.000576809,0.0131427,1609,1660,3.76037,-5.73628
392,-636,3.7439,5.67175,-0.000393399,0.00018181,-8.50378e-05,0.000194119,-0.000405707,-1.42705,0.000353419,0.0143331,1616,1660,3.74385,-5.67172
399,-636,3.72473,5.60181,-0.000290484,-3.28084e-05,-0.000307896,0.000172119,-0.000495411,-0.983551,0.000400181,0.0116368,1623,1660,3.72473,-5.60177
406,-636,3.72546,5.54138,-0.000291602,-0.000267039,-0.000411673,0.000132535,-0.000691177,-0.800311,0.000510728,0.0137241,1630,1660,3.72546,-5.54137
413,-636,3.74487,5.45178,-0.000200544,-0.00039973,-0.000574822,0.000283248,-0.000883523,-0.69962,0.000702724,0.0208787,1637,1660,3.7449,-5.4518
420,-636,3.72192,5.39124,-0.000159639,-0.000486321,-0.000775722,0.000469753,-0.00111571,-0.681631,0.000940352,0.020624,1644,1660,3.72193,-5.3912
427,-636,3.7301,5.33948,-0.00012098,-0.000558273,-0.000850313,0.000538347,-0.0012176,-0.659556,0.00103877,0.0122538,1651,1660,3.73006,-5.33943
434,-636,3.73901,5.26416,-8.93528e-05,-0.000526759,-0.000922728,0.000640236,-0.00125635,-0.669036,0.00111409,0.0114779,1658,1660,3.73904,-5.26414
441,-636,3.75903,5.16443,-0.000283242,-0.000819418,-0.00123582,0.00071323,-0.00181589,-0.678587,0.00150574,0.0115305,1665,1660,3.75902,-5.16442
448,-636,3.80237,5.1084,-0.000693722,-0.00110819,-0.00175959,0.000870798,-0.00267271,-0.726781,0.0021322,0.0126674,1672,1660,3.80234,-5.10839
455,-636,3.7666,5.00891,-0.000726249,-0.00161121,-0.00231587,0.00118903,-0.00352649,-0.691004,0.00283181,0.0137138,1679,1660,3.76659,-5.00889
462,-636,3.71375,4.90198,-0.000778123,-0.00209851,-0.00292425,0.00155954,-0.00443617,-0.674377,0.00359197,0.0185664,1686,1660,3.71381,-4.90203
469,-636,3.76221,4.82642,-0.00069188,-0.00276025,-0.00376998,0.0021832,-0.00563532,-0.651531,0.00465838,0.0279284,1693,1660,3.76215,-4.82645
476,-636,3.84119,4.80615,-0.000565101,-0.0035934,-0.00486619,0.00301707,-0.00717556,-0.634568,0.00604577,0.0413027,1700,1660,3.84115,-4.80613
483,-636,4.04187,4.79016,-0.000326652,-0.00464698,-0.00612872,0.00401146,-0.00898509,-0.615963,0.00768453,0.0448336,1707,1660,4.04185,-4.79021
490,-636,4.13,4.49756,0.000127172,-0.00582386,-0.0076486,0.00535865,-0.0110553,-0.599892,0.009665,0.047052,1714,1660,4.12999,-4.49751
497,-636,3.9165,4.07544,0.000778947,-0.00708735,-0.00940457,0.0070397,-0.0133481,-0.587343,0.0119573,0.0475847,1721,1660,3.91656,-4.07545
504,-636,3.89038,3.62073,0.00185343,-0.00843495,-0.0113067,0.00913116,-0.0157127,-0.571909,0.0145104,0.0473736,1728,1660,3.89034,-3.62071
511,-636,3.81921,3.1134,0,0,0,0,0,0,0,-1,1735,1660,3.81917,-3.11337
518,-636,6.72791,1.07605,0,0,0,0,0,0,0,-1,1742,1660,6.7279,-1.0761
525,-636,7.04309,0.93335,0,0,0,0,0,0,0,-1,1749,1660,7.04308,-0.933298
532,-636,0,0,0,0,0,0,0,0,0,-1,1756,1660,0,0
539,-636,0,0,0,0,0,0,0,0,0,-1,1763,1660,0,0
546,-636,0,0,0,0,0,0,0,0,0,-1,1770,1660,0,0
553,-636,0,0,0,0,0,0,0,0,0,-1,1777,1660,0,0
560,-636,0,0,0,0,0,0,0,0,0,-1,1784,1660,0,0
567,-636,0,0,0,0,0,0,0,0,0,-1,1791,1660,0,0
574,-636,0,0,0,0,0,0,0,0,0,-1,1798,1660,0,0
581,-636,0,0,0,0,0,0,0,0,0,-1,1805,1660,0,0
588,-636,0,0,0,0,0,0,0,0,0,-1,1812,1660,0,0
595,-636,0,0,0,0,0,0,0,0,0,-1,1819,1660,0,0
602,-636,0,0,0,0,0,0,0,0,0,-1,1826,1660,0,0
609,-636,0,0,0,0,0,0,0,0,0,-1,1833,1660,0,0
616,-636,0,0,0,0,0,0,0,0,0,-1,1840,1660,0,0
623,-636,0,0,0,0,0,0,0,0,0,-1,1847,1660,0,0
630,-636,0,0,0,0,0,0,0,0,0,-1,1854,1660,0,0
637,-636,0,0,0,0,0,0,0,0,0,-1,1861,1660,0,0
644,-636,0,0,0,0,0,0,0,0,0,-1,1868,1660,0,0
651,-636,0,0,0,0,0,0,0,0,0,-1,1875,1660,0,0
658,-636,0,0,0,0,0,0,0,0,0,-1,1882,1660,0,0
665,-636,0,0,0,0,0,0,0,0,0,-1,1889,1660,0,0
672,-636,0,0,0,0,0,0,0,0,0,-1,1896,1660,0,0
679,-636,0,0,0,0,0,0,0,0,0,-1,1903,1660,0,0
686,-636,0,0,0,0,0,0,0,0,0,-1,1910,1660,0,0
693,-636,0,0,0,0,0,0,0,0,0,-1,1917,1660,0,0
700,-636,0,0,0,0,0,0,0,0,0,-1,1924,1660,0,0
707,-636,0,0,0,0,0,0,0,0,0,-1,1931,1660,0,0
714,-636,0,0,0,0,0,0,0,0,0,-1,1938,1660,0,0
721,-636,0,0,0,0,0,0,0,0,0,-1,1945,1660,0,0
728,-636,0,0,0,0,0,0,0,0,0,-1,1952,1660,0,0
735,-636,0,0,0,0,0,0,0,0,0,-1,1959,1660,0,0
742,-636,0,0,0,0,0,0,0,0,0,-1,1966,1660,0,0
749,-636,0,0,0,0,0,0,0,0,0,-1,1973,1660,0,0
756,-636,0,0,0,0,0,0,0,0,0,-1,1980,1660,0,0
763,-636,0,0,0,0,0,0,0,0,0,-1,1987,1660,0,0
770,-636,0,0,0,0,0,0,0,0,0,-1,1994,1660,0,0
777,-636,0,0,0,0,0,0,0,0,0,-1,2001,1660,0,0
784,-636,0,0,0,0,0,0,0,0,0,-1,2008,1660,0,0
791,-636,0,0,0,0,0,0,0,0,0,-1,2015,1660,0,0
798,-636,0,0,0,0,0,0,0,0,0,-1,2022,1660,0,0
805,-636,0,0,0,0,0,0,0,0,0,-1,2029,1660,0,0
812,-636,0,0,0,0,0,0,0,0,0,-1,2036,1660,0,0
-700,-643,0,0,0,0,0,0,0,0,0,-1,524,1667,0,0
-693,-643,0,0,0,0,0,0,0,0,0,-1,531,1667,0,0
-686,-643,0,0,0,0,0,0,0,0,0,-1,538,1667,0,0
-679,-643,0,0,0,0,0,0,0,0,0,-1,545,1667,0,0
-672,-643,0,0,0,0,0,0,0,0,0,-1,552,1667,0,0
-665,-643,0,0,0,0,0,0,0,0,0,-1,559,1667,0,0
-658,-643,0,0,0,0,0,0,0,0,0,-1,566,1667,0,0
-651,-643,0,0,0,0,0,0,0,0,0,-1,573,1667,0,0
-644,-643,0,0,0,0,0,0,0,0,0,-1,580,1667,0,0
-637,-643,0,0,0,0,0,0,0,0,0,-1,587,1667,0,0
-630,-643,0,0,0,0,0,0,0,0,0,-1,594,1667,0,0
-623,-643,0,0,0,0,0,0,0,0,0,-1,601,1667,0,0
-616,-643,0,0,0,0,0,0,0,0,0,-1,608,1667,0,0
-609,-643,0,0,0,0,0,0,0,0,0,-1,615,1667,0,0
-602,-643,0,0,0,0,0,0,0,0,0,-1,622,1667,0,0
-595,-643,0,0,0,0,0,0,0,0,0,-1,629,1667,0,0
-588,-643,0,0,0,0,0,0,0,0,0,-1,636,1667,0,0
-581,-643,0,0,0,0,0,0,0,0,0,-1,643,1667,0,0
-574,-643,0,0,0,0,0,0,0,0,0,-1,650,1667,0,0
-567,-643,0,0,0,0,0,0,0,0,0,-1,657,1667,0,0
-560,-643,0,0,0,0,0,0,0,0,0,-1,664,1667,0,0
-553,-643,0,0,0,0,0,0,0,0,0,-1,671,1667,0,0
-546,-643,0,0,0,0,0,0,0,0,0,-1,678,1667,0,0
-539,-643,0,0,0,0,0,0,0,0,0,-1,685,1667,0,0
-532,-643,0,0,0,0,0,0,0,0,0,-1,692,1667,0,0
-525,-643,0,0,0,0,0,0,0,0,0,-1,699,1667,0,0
-518,-643,0,0,0,0,0,0,0,0,0,-1,706,1667,0,0
-511,-643,0,0,0,0,0,0,0,0,0,-1,713,1667,0,0
-504,-643,0,0,0,0,0,0,0,0,0,-1,720,1667,0,0
-497,-643,0,0,0,0,0,0,0,0,0,-1,727,1667,0,0
-490,-643,0,0,0,0,0,0,0,0,0,-1,734,1667,0,0
-483,-643,0,0,0,0,0,0,0,0,0,-1,741,1667,0,0
-476,-643,0,0,0,0,0,0,0,0,0,-1,748,1667,0,0
-469,-643,0,0,0,0,0,0,0,0,0,-1,755,1667,0,0
-462,-643,0,0,0,0,0,0,0,0,0,-1,762,1667,0,0
-455,-643,0,0,0,0,0,0,0,0,0,-1,769,1667,0,0
-448,-643,0,0,0,0,0,0,0,0,0,-1,776,1667,0,0
-441,-643,0,0,0,0,0,0,0,0,0,-1,783,1667,0,0
-434,-643,0,0,0,0,0,0,0,0,0,-1,790,1667,0,0
-427,-643,0,0,0,0,0,0,0,0,0,-1,797,1667,0,0
-420,-643,0,0,0,0,0,0,0,0,0,-1,804,1667,0,0
-413,-643,0,0,0,0,0,0,0,0,0,-1,811,1667,0,0
-406,-643,0,0,0,0,0,0,0,0,0,-1,818,1667,0,0
-399,-643,-3.94855,2.1272,0,0,0,0,0,0,0,-1,825,1667,-3.94857,-2.12718
-392,-643,0.836914,-2.77844,0,0,0,0,0,0,0,-1,832,1667,0.836901,2.77844
-385,-643,4.39111,2.55127,0,0,0,0,0,0,0,-1,839,1667,4.39111,-2.55129
-378,-643,3.86768,3.09302,0,0,0,0,0,0,0,-1,846,1667,3.8677,-3.09302
-371,-643,2.93781,4.08472,0,0,0,0,0,0,0,-1,853,1667,2.93778,-4.08471
-364,-643,2.24335,4.67615,0,0,0,0,0,0,0,-1,860,1667,2.24332,-4.67617
-357,-643,1.56714,5.10071,0,0,0,0,0,0,0,-1,867,1667,1.56715,-5.10067
-350,-643,1.99194,4.65649,0,0,0,0,0,0,0,-1,874,1667,1.99195,-4.65654
-343,-643,2.11884,4.58374,0,0,0,0,0,0,0,-1,881,1667,2.11881,-4.58375
-336,-643,2.50671,4.55127,0,0,0,0,0,0,0,-1,888,1667,2.5067,-4.55129
-329,-643,2.49115,4.63965,-0.0130799,-0.00479456,0.000740337,-0.00472893,-0.0131455,1.48237,0.00768848,0.0359001,895,1667,2.49113,-4.63966
-322,-643,2.45416,4.71729,-0.00837518,-0.00391175,-0.000616054,-0.00382828,-0.00845865,-1.43613,0.00489091,0.0219232,902,1667,2.45415,-4.71724
-315,-643,2.42334,4.78381,-0.00517703,-0.00320911,-0.000953724,-0.00282275,-0.00556339,-1.1859,0.00321214,0.015724,909,1667,2.42336,-4.78385
-308,-643,2.42896,4.82385,-0.00273589,-0.00184493,-0.00140859,-0.000813054,-0.00376776,-0.938551,0.00228946,0.0121686,916,1667,2.42898,-4.82382
-301,-643,2.45355,4.90552,-0.00111644,-0.000389982,-0.00180983,0.00109271,-0.00259913,-0.884431,0.00218983,0.0130398,923,1667,2.45354,-4.90555
-294,-643,2.45221,4.98352,-0.000448664,0.000474725,-0.00174913,0.00182206,-0.001796,-0.914434,0.00208891,0.0125089,930,1667,2.45224,-4.98353
-287,-643,2.44373,5.06824,0.000103278,0.00104283,-0.00168741,0.00232464,-0.00117853,-0.92116,0.00205832,0.0105476,937,1667,2.4437,-5.06827
-280,-643,2.4552,5.16931,0.000439505,0.00119289,-0.00156275,0.00242371,-0.000791316,-0.903664,0.00193431,0.0132347,944,1667,2.45522,-5.16937
-273,-643,2.44385,5.24695,0.000480467,0.00090762,-0.00159245,0.00230075,-0.000912663,-0.85206,0.00191209,0.0126557,951,1667,2.44388,-5.24695
-266,-643,2.44281,5.3075,0.00054559,0.000679495,-0.0013878,0.00200195,-0.00077687,-0.809501,0.00165551,0.0119162,958,1667,2.44281,-5.30756
-259,-643,2.45654,5.37756,0.000656575,0.000405138,-0.00118523,0.00172274,-0.000661024,-0.73256,0.00142104,0.0111254,965,1667,2.45655,-5.37752
-252,-643,2.44598,5.46216,0.00103135,5.21462e-05,-0.00121483,0.00185152,-0.000768029,-0.593844,0.00155492,0.0129655,972,1667,2.44601,-5.46219
-245,-643,2.44781,5.54785,0.00140905,-0.000160276,-0.00160959,0.00241505,-0.00116627,-0.558602,0.00210916,0.0116905,979,1667,2.44783,-5.54784
-238,-643,2.45435,5.60693,0.00164471,-0.000502359,-0.00223549,0.00305107,-0.00190873,-0.561548,0.00288875,0.0134147,986,1667,2.45435,-5.6069
-231,-643,2.44983,5.66675,0.00200989,-0.000724702,-0.00316894,0.00409393,-0.00280874,-0.58173,0.00400821,0.0101828,993,1667,2.44984,-5.66678
-224,-643,2.43829,5.72852,0.00264733,-0.000947027,-0.00432089,0.00552989,-0.00382959,-0.588317,0.00543334,0.00947448,1000,1667,2.43828,-5.7285
-217,-643,2.43787,5.78223,0.00321524,-0.0014595,-0.00523913,0.00661474,-0.004859,-0.57558,0.00665017,0.00881671,1007,1667,2.43789,-5.78221
-210,-643,2.45416,5.86926,0.00324301,-0.00208382,-0.00605883,0.00719799,-0.0060388,-0.578316,0.00765202,0.0108838,1014,1667,2.45415,-5.86923
-203,-643,2.46753,5.94067,0.00282523,-0.00320339,-0.00695399,0.00739011,-0.00776826,-0.580889,0.0087526,0.0119112,1021,1667,2.46752,-5.94069
-196,-643,2.45105,5.98901,0.00244546,-0.00465171,-0.00758883,0.00727439,-0.00948064,-0.566699,0.00970144,0.0112014,1028,1667,2.45103,-5.98905
-189,-643,2.44849,6.03638,0.00181627,-0.00583994,-0.00781828,0.00669333,-0.010717,-0.557737,0.0101409,0.0111896,1035,1667,2.44852,-6.0364
-182,-643,2.51685,6.07727,0.000827055,-0.00799451,-0.00741772,0.00504631,-0.0122138,-0.517168,0.0102475,0.0170205,1042,1667,2.51683,-6.07725
-175,-643,2.50574,6.07397,-5.58754e-05,-0.0103522,-0.00633745,0.00296094,-0.013369,-0.444288,0.0100462,0.0285465,1049,1667,2.50577,-6.07392
-168,-643,2.47302,6.06287,-0.00103977,-0.012647,-0.00479869,0.000687176,-0.014374,-0.345447,0.00981973,0.0365645,1056,1667,2.47306,-6.06281
-161,-643,2.49634,6.18176,-0.00165886,-0.0150418,-0.00286658,-0.0010707,-0.0156299,-0.202371,0.010082,0.0429284,1063,1667,2.49635,-6.1817
-154,-643,2.47827,6.24182,0,0,0,0,0,0,0,-1,1070,1667,2.47831,-6.24184
-147,-643,2.63818,6.02832,0,0,0,0,0,0,0,-1,1077,1667,2.63813,-6.02826
-140,-643,1.82715,5.69189,0,0,0,0,0,0,0,-1,1084,1667,1.8272,-5.69187
-133,-643,2.16675,5.93872,0,0,0,0,0,0,0,-1,1091,1667,2.16669,-5.93872
-126,-643,2.30713,6.21936,0.000682931,-0.0236638,0.00941706,0.0039002,-0.0268811,0.329211,0.0193522,0.0471827,1098,1667,2.30719,-6.21933
-119,-643,2.70886,6.37585,0,0,0,0,0,0,0,-1,1105,1667,2.70886,-6.37591
-112,-643,3.05884,5.75989,0,0,0,0,0,0,0,-1,1112,1667,3.05884,-5.75995
-105,-643,3.52844,6.02747,0,0,0,0,0,0,0,-1,1119,1667,3.52846,-6.02742
-98,-643,3.11035,4.68066,0,0,0,0,0,0,0,-1,1126,1667,3.11041,-4.68071
-91,-643,4.66943,3.81995,0,0,0,0,0,0,0,-1,1133,1667,4.66945,-3.81998
-84,-643,-3.43909,-1.80969,0,0,0,0,0,0,0,-1,1140,1667,-3.43905,1.80972
-77,-643,-2.81812,-1.16748,0,0,0,0,0,0,0,-1,1147,1667,-2.81815,1.16747
-70,-643,-2.05017,-0.428711,0,0,0,0,0,0,0,-1,1154,1667,-2.05014,0.428754
-63,-643,-1.98145,0.774414,0.0192291,-0.0790227,0.0562792,0.0448073,-0.104601,0.42658,0.0885336,0.044377,1161,1667,-1.98141,-0.774473
-56,-643,-2.22485,1.68066,0.016091,-0.0787386,0.0519157,0.0389856,-0.101633,0.41534,0.0838289,0.0458607,1168,1667,-2.22489,-1.68068
-49,-643,-2.2218,2.59363,0,0,0,0,0,0,0,-1,1175,1667,-2.22184,-2.59367
-42,-643,-2.03088,5.67688,0,0,0,0,0,0,0,-1,1182,1667,-2.03085,-5.67693
-35,-643,-1.92261,6.76428,0,0,0,0,0,0,0,-1,1189,1667,-1.92256,-6.76424
-28,-643,-1.38513,5.604,0,0,0,0,0,0,0,-1,1196,1667,-1.3851,-5.60403
-21,-643,2.32532,6.60632,0,0,0,0,0,0,0,-1,1203,1667,2.32535,-6.60631
-14,-643,2.44666,6.20532,0.0312767,-0.0689717,-0.00727698,0.0318022,-0.0694972,-0.0720858,0.0598198,0.0481973,1210,1667,2.4466,-6.2053
-7,-643,2.34387,5.80554,0.0345725,-0.0668347,-0.0202232,0.0384568,-0.070719,-0.189758,0.0639434,0.0472351,1217,1667,2.34391,-5.80549
0,-643,1.93896,5.35962,0.0379937,-0.0634219,-0.0344168,0.0485705,-0.0739987,-0.298153,0.0712712,0.0434132,1224,1667,1.93898,-5.35961
7,-643,1.67151,4.65601,0.0419266,-0.0602974,-0.0459677,0.0595567,-0.0779274,-0.366229,0.0796123,0.0418562,1231,1667,1.67148,-4.65599
14,-643,4.20557,4.92859,0.0431643,-0.0564177,-0.054519,0.0672073,-0.0804607,-0.415347,0.0853706,0.0407845,1238,1667,4.20559,-4.92865
21,-643,4.32959,4.3269,0.0400887,-0.0510778,-0.0598241,0.0697169,-0.080706,-0.459844,0.0869239,0.0460772,1245,1667,4.32961,-4.32688
28,-643,4.71338,3.67065,0,0,0,0,0,0,0,-1,1252,1667,4.71335,-3.67071
35,-643,5.01611,2.40295,0,0,0,0,0,0,0,-1,1259,1667,5.01611,-2.40295
42,-643,0.85376,9.65063,0,0,0,0,0,0,0,-1,1266,1667,0.853706,-9.65068
49,-643,0.66333,8.72375,0.0144574,-0.0233429,-0.0696118,0.0676893,-0.0765747,-0.65284,0.0833435,0.0460829,1273,1667,0.66332,-8.72378
56,-643,0.387817,7.67798,0.00733172,-0.0175741,-0.0709645,0.0669276,-0.07717,-0.698542,0.0832649,0.0464495,1280,1667,0.387865,-7.67792
63,-643,0.44873,6.34473,0,0,0,0,0,0,0,-1,1287,1667,0.4487,-6.34476
70,-643,0.60498,6,-0.00951976,-0.00648294,-0.070621,0.062636,-0.0786387,-0.796147,0.0817392,0.0467981,1294,1667,0.604939,-5.99995
77,-643,0.674561,5.4552,-0.010868,-0.00312748,-0.0657101,0.0588262,-0.0728217,-0.814814,0.07615,0.0462908,1301,1667,0.67452,-5.45526
84,-643,0.342041,4.65466,-0.0113514,-0.00467054,-0.0607512,0.052832,-0.068854,-0.812863,0.0704582,0.045536,1308,1667,0.341984,-4.65469
91,-643,0.107544,3.96008,-0.0119817,-0.00972259,-0.0556829,0.0448422,-0.0665465,-0.795539,0.064716,0.0445517,1315,1667,0.107576,-3.96013
98,-643,-0.40625,3.6759,-0.010085,-0.0146223,-0.0493577,0.0370561,-0.0617634,-0.762433,0.0576448,0.0459991,1322,1667,-0.406197,-3.67588
105,-643,-1.23645,3.82715,-0.0067455,-0.0209867,-0.04218,0.0289108,-0.0566429,-0.70178,0.050252,0.0467448,1329,1667,-1.23643,-3.82711
112,-643,-0.932861,3.28833,0,0,0,0,0,0,0,-1,1336,1667,-0.932832,-3.28833
119,-643,-1.43774,2.84937,0.0029387,-0.0350548,-0.0265346,0.0165757,-0.0486919,-0.474732,0.0391734,0.046443,1343,1667,-1.43778,-2.84938
126,-643,-2.18359,2.39099,0.00774848,-0.0421802,-0.0183494,0.0137667,-0.0481984,-0.316923,0.0375715,0.0475716,1350,1667,-2.18365,-2.39102
133,-643,-2.86743,2.04077,0,0,0,0,0,0,0,-1,1357,1667,-2.86741,-2.04083
140,-643,0.288696,3.24841,0.014188,-0.0544389,-0.00316266,0.0143334,-0.0545843,-0.0459551,0.0419909,0.0424044,1364,1667,0.288754,-3.24843
147,-643,0.322876,3.30627,0.0126201,-0.0578547,0.0028122,0.0127322,-0.0579668,0.0398192,0.043514,0.041406,1371,1667,0.322844,-3.30629
154,-643,0.682739,3.4187,0,0,0,0,0,0,0,-1,1378,1667,0.68276,-3.41864
161,-643,4.40906,12.3259,0,0,0,0,0,0,0,-1,1385,1667,4.40908,-12.326
168,-643,5.33911,12.7233,0,0,0,0,0,0,0,-1,1392,1667,5.3391,-12.7233
175,-643,5.88525,-1.1698,0,0,0,0,0,0,0,-1,1399,1667,5.88526,1.16977
182,-643,5.80945,-0.418701,0,0,0,0,0,0,0,-1,1406,1667,5.80949,0.418712
189,-643,5.42297,12.9208,0,0,0,0,0,0,0,-1,1413,1667,5.42298,-12.9208
196,-643,5.51953,11.2415,0,0,0,0,0,0,0,-1,1420,1667,5.51948,-11.2414
203,-643,3.83789,10.1194,0,0,0,0,0,0,0,-1,1427,1667,3.83792,-10.1193
210,-643,2.15637,8.99719,0,0,0,0,0,0,0,-1,1434,1667,2.15635,-8.99724
217,-643,5.31409,0.667114,0,0,0,0,0,0,0,-1,1441,1667,5.31408,-0.667125
224,-643,5.26208,-0.00854492,0,0,0,0,0,0,0,-1,1448,1667,5.26213,0.00849543
231,-643,5.94763,0.0540771,0,0,0,0,0,0,0,-1,1455,1667,5.94768,-0.054085
238,-643,6.56177,0.305786,0,0,0,0,0,0,0,-1,1462,1667,6.56174,-0.305781
245,-643,7.48547,0.459961,0,0,0,0,0,0,0,-1,1469,1667,7.48545,-0.459999
252,-643,5.40039,3.09314,0,0,0,0,0,0,0,-1,1476,1667,5.40039,-3.09311
259,-643,5.02332,3.99927,0,0,0,0,0,0,0,-1,1483,1667,5.02329,-3.99926
266,-643,4.55066,5.17554,0,0,0,0,0,0,0,-1,1490,1667,4.55063,-5.17556
273,-643,3.37463,6.26172,0,0,0,0,0,0,0,-1,1497,1667,3.37469,-6.26172
280,-643,3.39954,6.34387,0,0,0,0,0,0,0,-1,1504,1667,3.39948,-6.34388
287,-643,3.21619,6.09668,0,0,0,0,0,0,0,-1,1511,1667,3.21622,-6.09666
294,-643,3.37646,6.2085,0.0311051,0.0208707,0.0276325,0.0540903,-0.00211443,0.693842,0.0367853,0.0442508,1518,1667,3.37641,-6.20845
301,-643,3.55273,6.31921,0.0254211,0.0180773,0.0216096,0.0436686,-0.00017019,0.701242,0.0291693,0.0373888,1525,1667,3.55278,-6.31917
308,-643,3.62402,6.37524,0.0203578,0.0156644,0.0161785,0.0343589,0.00166332,0.713375,0.0223721,0.031273,1532,1667,3.62397,-6.37525
315,-643,3.64075,6.34778,0.0158964,0.0134506,0.0114287,0.0261674,0.00317957,0.7321,0.0164876,0.0235699,1539,1667,3.64078,-6.34779
322,-643,3.64844,6.26917,0.0121972,0.0115833,0.00736112,0.0192578,0.00452276,0.764562,0.0116279,0.0145662,1546,1667,3.64842,-6.26921
329,-643,3.65002,6.19604,0.00804998,0.00905558,0.00335163,0.0119419,0.00516365,0.859852,0.00691564,0.0117818,1553,1667,3.65003,-6.19607
336,-643,3.63928,6.17273,0.0043344,0.00701611,0.000579733,0.00713607,0.00421444,1.36675,0.00414249,0.0114736,1560,1667,3.63927,-6.17275
343,-643,3.64404,6.13562,0.00284323,0.00575086,-0.000811819,0.00596217,0.00263193,-1.31616,0.00345012,0.0128795,1567,1667,3.64401,-6.13561
350,-643,3.66772,6.05444,0.00172645,0.00494768,-0.00141671,0.00548209,0.00119204,-1.21008,0.00332929,0.0129253,1574,1667,3.66769,-6.05441
357,-643,3.66516,5.98987,0.00114462,0.00368108,-0.00119461,0.00415513,0.000670575,-1.19304,0.00257582,0.0110566,1581,1667,3.66519,-5.9899
364,-643,3.67737,5.92517,0.000761699,0.00256129,-0.00100419,0.00300984,0.000313153,-1.15071,0.00191075,0.00894722,1588,1667,3.67734,-5.92512
371,-643,3.67065,5.87537,0.000558203,0.00152751,-0.000755065,0.00194008,0.000145633,-1.07072,0.00124768,0.00738195,1595,1667,3.67059,-5.87539
378,-643,3.66663,5.81787,0.000433148,0.000715765,-0.000586772,0.001178,-2.90907e-05,-0.90356,0.00079521,0.00881031,1602,1667,3.66658,-5.8179
385,-643,3.69202,5.74304,0.000290342,7.81269e-05,-0.000452707,0.000649211,-0.000280742,-0.670284,0.000550778,0.013613,1609,1667,3.69196,-5.74307
392,-643,3.6615,5.66907,0.0002999,-0.000336842,-0.000606205,0.000666251,-0.000703194,-0.543601,0.000790745,0.0147189,1616,1667,3.66152,-5.66911
399,-643,3.64868,5.6283,0.000340126,-0.000505544,-0.000874806,0.000888927,-0.00105434,-0.56028,0.0011233,0.0128059,1623,1667,3.64864,-5.62833
406,-643,3.66296,5.55652,0.000209781,-0.00074277,-0.000976597,0.00082005,-0.00135304,-0.558523,0.00126715,0.0121564,1630,1667,3.66293,-5.55648
413,-643,3.6936,5.47473,0.000201871,-0.000863515,-0.0011565,0.000942467,-0.00160411,-0.569579,0.00148672,0.0182066,1637,1667,3.69362,-5.47474
420,-643,3.65991,5.3916,0.000120511,-0.000932393,-0.00137546,0.00106683,-0.00187871,-0.602626,0.001722,0.0170419,1644,1667,3.65994,-5.39158
427,-643,3.66663,5.32861,3.79162e-05,-0.000915034,-0.00146021,0.00109743,-0.00197454,-0.627692,0.00179754,0.0141768,1651,1667,3.66661,-5.3286
434,-643,3.6748,5.26465,-3.16811e-05,-0.000893424,-0.00145817,0.00105794,-0.00198305,-0.641742,0.00178259,0.0159286,1658,1667,3.6748,-5.26466
441,-643,3.69714,5.16968,-0.000419689,-0.00132113,-0.00170751,0.000895581,-0.0026364,-0.656359,0.00212014,0.0149241,1665,1667,3.69709,-5.16971
448,-643,3.75195,5.09558,-0.000995283,-0.00186928,-0.00224756,0.000857369,-0.00372193,-0.68938,0.002811,0.019141,1672,1667,3.75198,-5.09553
455,-643,3.59534,5.03076,-0.00103476,-0.00256867,-0.00279468,0.0010963,-0.00469973,-0.651478,0.00355538,0.0273344,1679,1667,3.59538,-5.03077
462,-643,3.6416,4.89209,-0.0011362,-0.00326739,-0.00336107,0.00132415,-0.00572774,-0.631891,0.00432794,0.0376459,1686,1667,3.6416,-4.89206
469,-643,3.71057,4.80481,-0.00110063,-0.00424206,-0.0041212,0.00173903,-0.00708172,-0.603331,0.00539508,0.041752,1693,1667,3.71054,-4.80477
476,-643,3.7395,4.72546,-0.000954389,-0.005411,-0.00522002,0.00249304,-0.00885843,-0.583669,0.00688869,0.0494207,1700,1667,3.73956,-4.72544
483,-643,3.8728,4.41296,0,0,0,0,0,0,0,-1,1707,1667,3.87281,-4.41299
490,-643,3.94287,4.69373,-0.000217717,-0.00845932,-0.0081195,0.00476683,-0.0134439,-0.550576,0.0109045,0.0455496,1714,1667,3.94288,-4.69373
497,-643,3.896,4.18713,0.000503789,-0.0102976,-0.010044,0.00650699,-0.0163008,-0.53872,0.0135668,0.0451463,1721,1667,3.89595,-4.18709
504,-643,3.92151,3.6759,0.00151365,-0.0125416,-0.0122101,0.00857406,-0.019602,-0.52427,0.0166776,0.049022,1728,1667,3.92145,-3.67588
511,-643,3.96948,3.12488,0,0,0,0,0,0,0,-1,1735,1667,3.96947,-3.12488
518,-643,7.40564,0.922607,0,0,0,0,0,0,0,-1,1742,1667,7.4057,-0.922598
525,-643,0,0,0,0,0,0,0,0,0,-1,1749,1667,0,0
532,-643,0,0,0,0,0,0,0,0,0,-1,1756,1667,0,0
539,-643,0,0,0,0,0,0,0,0,0,-1,1763,1667,0,0
546,-643,0,0,0,0,0,0,0,0,0,-1,1770,1667,0,0
553,-643,0,0,0,0,0,0,0,0,0,-1,1777,1667,0,0
560,-643,0,0,0,0,0,0,0,0,0,-1,1784,1667,0,0
567,-643,0,0,0,0,0,0,0,0,0,-1,1791,1667,0,0
574,-643,0,0,0,0,0,0,0,0,0,-1,1798,1667,0,0
581,-643,0,0,0,0,0,0,0,0,0,-1,1805,1667,0,0
588,-643,0,0,0,0,0,0,0,0,0,-1,1812,1667,0,0
595,-643,0,0,0,0,0,0,0,0,0,-1,1819,1667,0,0
602,-643,0,0,0,0,0,0,0,0,0,-1,1826,1667,0,0
609,-643,0,0,0,0,0,0,0,0,0,-1,1833,1667,0,0
616,-643,0,0,0,0,0,0,0,0,0,-1,1840,1667,0,0
623,-643,0,0,0,0,0,0,0,0,0,-1,1847,1667,0,0
630,-643,0,0,0,0,0,0,0,0,0,-1,1854,1667,0,0
637,-643,0,0,0,0,0,0,0,0,0,-1,1861,1667,0,0
644,-643,0,0,0,0,0,0,0,0,0,-1,1868,1667,0,0
651,-643,0,0,0,0,0,0,0,0,0,-1,1875,1667,0,0
658,-643,0,0,0,0,0,0,0,0,0,-1,1882,1667,0,0
665,-643,0,0,0,0,0,0,0,0,0,-1,1889,1667,0,0
672,-643,0,0,0,0,0,0,0,0,0,-1,1896,1667,0,0
679,-643,0,0,0,0,0,0,0,0,0,-1,1903,1667,0,0
686,-643,0,0,0,0,0,0,0,0,0,-1,1910,1667,0,0
693,-643,0,0,0,0,0,0,0,0,0,-1,1917,1667,0,0
700,-643,0,0,0,0,0,0,0,0,0,-1,1924,1667,0,0
707,-643,0,0,0,0,0,0,0,0,0,-1,1931,1667,0,0
714,-643,0,0,0,0,0,0,0,0,0,-1,1938,1667,0,0
721,-643,0,0,0,0,0,0,0,0,0,-1,1945,1667,0,0
728,-643,0,0,0,0,0,0,0,0,0,-1,1952,1667,0,0
735,-643,0,0,0,0,0,0,0,0,0,-1,1959,1667,0,0
742,-643,0,0,0,0,0,0,0,0,0,-1,1966,1667,0,0
749,-643,0,0,0,0,0,0,0,0,0,-1,1973,1667,0,0
756,-643,0,0,0,0,0,0,0,0,0,-1,1980,1667,0,0
763,-643,0,0,0,0,0,0,0,0,0,-1,1987,1667,0,0
770,-643,0,0,0,0,0,0,0,0,0,-1,1994,1667,0,0
777,-643,0,0,0,0,0,0,0,0,0,-1,2001,1667,0,0
784,-643,0,0,0,0,0,0,0,0,0,-1,2008,1667,0,0
791,-643,0,0,0,0,0,0,0,0,0,-1,2015,1667,0,0
798,-643,0,0,0,0,0,0,0,0,0,-1,2022,1667,0,0
805,-643,0,0,0,0,0,0,0,0,0,-1,2029,1667,0,0
812,-643,0,0,0,0,0,0,0,0,0,-1,2036,1667,0,0
-700,-650,0,0,0,0,0,0,0,0,0,-1,524,1674,0,0
-693,-650,0,0,0,0,0,0,0,0,0,-1,531,1674,0,0
-686,-650,0,0,0,0,0,0,0,0,0,-1,538,1674,0,0
-679,-650,0,0,0,0,0,0,0,0,0,-1,545,1674,0,0
-672,-650,0,0,0,0,0,0,0,0,0,-1,552,1674,0,0
-665,-650,0,0,0,0,0,0,0,0,0,-1,559,1674,0,0
-658,-650,0,0,0,0,0,0,0,0,0,-1,566,1674,0,0
-651,-650,0,0,0,0,0,0,0,0,0,-1,573,1674,0,0
-644,-650,0,0,0,0,0,0,0,0,0,-1,580,1674,0,0
-637,-650,0,0,0,0,0,0,0,0,0,-1,587,1674,0,0
-630,-650,0,0,0,0,0,0,0,0,0,-1,594,1674,0,0
-623,-650,0,0,0,0,0,0,0,0,0,-1,601,1674,0,0
-616,-650,0,0,0,0,0,0,0,0,0,-1,608,1674,0,0
-609,-650,0,0,0,0,0,0,0,0,0,-1,615,1674,0,0
-602,-650,0,0,0,0,0,0,0,0,0,-1,622,1674,0,0
-595,-650,0,0,0,0,0,0,0,0,0,-1,629,1674,0,0
-588,-650,0,0,0,0,0,0,0,0,0,-1,636,1674,0,0
-581,-650,0,0,0,0,0,0,0,0,0,-1,643,1674,0,0
-574,-650,0,0,0,0,0,0,0,0,0,-1,650,1674,0,0
-567,-650,0,0,0,0,0,0,0,0,0,-1,657,1674,0,0
-560,-650,0,0,0,0,0,0,0,0,0,-1,664,1674,0,0
-553,-650,0,0,0,0,0,0,0,0,0,-1,671,1674,0,0
-546,-650,0,0,0,0,0,0,0,0,0,-1,678,1674,0,0
-539,-650,0,0,0,0,0,0,0,0,0,-1,685,1674,0,0
-532,-650,0,0,0,0,0,0,0,0,0,-1,692,1674,0,0
-525,-650,0,0,0,0,0,0,0,0,0,-1,699,1674,0,0
-518,-650,0,0,0,0,0,0,0,0,0,-1,706,1674,0,0
-511,-650,0,0,0,0,0,0,0,0,0,-1,713,1674,0,0
-504,-650,0,0,0,0,0,0,0,0,0,-1,720,1674,0,0
-497,-650,0,0,0,0,0,0,0,0,0,-1,727,1674,0,0
-490,-650,0,0,0,0,0,0,0,0,0,-1,734,1674,0,0
-483,-650,0,0,0,0,0,0,0,0,0,-1,741,1674,0,0
-476,-650,0,0,0,0,0,0,0,0,0,-1,748,1674,0,0
-469,-650,0,0,0,0,0,0,0,0,0,-1,755,1674,0,0
-462,-650,0,0,0,0,0,0,0,0,0,-1,762,1674,0,0
-455,-650,0,0,0,0,0,0,0,0,0,-1,769,1674,0,0
-448,-650,0,0,0,0,0,0,0,0,0,-1,776,1674,0,0
-441,-650,0,0,0,0,0,0,0,0,0,-1,783,1674,0,0
-434,-650,0,0,0,0,0,0,0,0,0,-1,790,1674,0,0
-427,-650,0,0,0,0,0,0,0,0,0,-1,797,1674,0,0
-420,-650,0,0,0,0,0,0,0,0,0,-1,804,1674,0,0
-413,-650,0,0,0,0,0,0,0,0,0,-1,811,1674,0,0
-406,-650,0,0,0,0,0,0,0,0,0,-1,818,1674,0,0
-399,-650,0,0,0,0,0,0,0,0,0,-1,825,1674,0,0
-392,-650,-2.93109,2.14709,0,0,0,0,0,0,0,-1,832,1674,-2.93111,-2.14704
-385,-650,0.920837,4.91919,0,0,0,0,0,0,0,-1,839,1674,0.920815,-4.91923
-378,-650,3.65265,3.0033,0,0,0,0,0,0,0,-1,846,1674,3.65267,-3.00325
-371,-650,2.1059,5.26135,0,0,0,0,0,0,0,-1,853,1674,2.10589,-5.26135
-364,-650,2.94983,3.64941,0,0,0,0,0,0,0,-1,860,1674,2.94983,-3.64943
-357,-650,2.77173,4.40198,0,0,0,0,0,0,0,-1,867,1674,2.77172,-4.40193
-350,-650,2.20819,4.78455,0,0,0,0,0,0,0,-1,874,1674,2.20818,-4.78452
-343,-650,1.47913,5.01184,0,0,0,0,0,0,0,-1,881,1674,1.47914,-5.01181
-336,-650,2.56555,4.40173,0,0,0,0,0,0,0,-1,888,1674,2.56558,-4.40179
-329,-650,2.34076,4.44336,-0.0201837,-0.0110406,-0.000806384,-0.01097,-0.0202543,-1.4835,0.0117073,0.0452748,895,1674,2.34074,-4.44332
-322,-650,2.52118,4.73962,-0.0142074,-0.00951567,-0.00265669,-0.00831737,-0.0154057,-1.14707,0.00890389,0.0384873,902,1674,2.52116,-4.73957
-315,-650,2.56989,4.62646,-0.00977934,-0.00799673,-0.00327873,-0.00549031,-0.0122858,-0.918113,0.00710652,0.0369289,909,1674,2.56989,-4.6265
-308,-650,2.51764,4.77661,-0.00609593,-0.00553857,-0.00390351,-0.00190381,-0.00973069,-0.821033,0.00595485,0.0216582,916,1674,2.51763,-4.7766
-301,-650,2.51996,4.90613,-0.00338538,-0.00300068,-0.00438349,0.00119467,-0.00758074,-0.807324,0.0054955,0.0112822,923,1674,2.51997,-4.90615
-294,-650,2.52313,4.97363,-0.00174118,-0.0010675,-0.00427871,0.00288761,-0.00569629,-0.82468,0.00504357,0.00967022,930,1674,2.52313,-4.97364
-287,-650,2.52362,5.04944,-0.000357026,0.000412015,-0.00412492,0.00417029,-0.0041153,-0.831873,0.00478373,0.0134373,937,1674,2.52359,-5.0494
-280,-650,2.53156,5.13049,0.00056963,0.00130402,-0.00376771,0.00472238,-0.00284874,-0.833974,0.00441558,0.0140628,944,1674,2.53156,-5.13047
-273,-650,2.52441,5.22974,0.000871077,0.00151606,-0.00350212,0.00471051,-0.00232337,-0.831311,0.00413823,0.0144488,951,1674,2.52444,-5.22968
-266,-650,2.50665,5.30896,0.00105098,0.00163331,-0.00294117,0.00429769,-0.0016134,-0.834736,0.00352812,0.0115398,958,1674,2.50668,-5.30897
-259,-650,2.50989,5.3656,0.00134163,0.00178669,-0.00233074,0.00390549,-0.000777174,-0.832992,0.00289767,0.0136191,965,1674,2.5099,-5.36566
-252,-650,2.51416,5.43726,0.00165128,0.00165442,-0.00195697,0.00360983,-0.000304124,-0.785799,0.00251406,0.0126598,972,1674,2.51416,-5.4372
-245,-650,2.5119,5.5127,0.00166158,0.00126318,-0.00184844,0.00332153,-0.000396769,-0.731722,0.00235776,0.0112175,979,1674,2.51188,-5.51274
-238,-650,2.51105,5.59094,0.00166835,0.000795529,-0.00201288,0.00329159,-0.000827707,-0.678646,0.00251609,0.0121183,986,1674,2.51107,-5.59096
-231,-650,2.51117,5.67407,0.00188047,0.0004397,-0.00245429,0.00371791,-0.00139774,-0.642647,0.0030531,0.0169489,993,1674,2.51119,-5.67405
-224,-650,2.51654,5.74231,0.0023242,-9.13185e-06,-0.00301757,0.00439278,-0.00207771,-0.600936,0.00381461,0.0147175,1000,1674,2.51655,-5.74232
-217,-650,2.51581,5.79285,0.00274977,-0.000593078,-0.00350369,0.00496029,-0.0028036,-0.56284,0.00453976,0.00995234,1007,1674,2.51583,-5.79285
-210,-650,2.51971,5.86743,0.00279724,-0.00125742,-0.00404607,0.00529548,-0.00375566,-0.55315,0.00525082,0.0090955,1014,1674,2.51972,-5.86738
-203,-650,2.53656,5.93494,0.00248795,-0.00239505,-0.00467267,0.00531853,-0.00522562,-0.544653,0.00608775,0.0135201,1021,1674,2.53653,-5.93493
-196,-650,2.54272,5.97095,0.0022478,-0.00376923,-0.00511881,0.00517674,-0.00669817,-0.519721,0.00687471,0.0124146,1028,1674,2.54277,-5.97091
-189,-650,2.52856,6.04395,0.00182265,-0.00489713,-0.00532184,0.00475647,-0.00783095,-0.503826,0.00733926,0.00984808,1035,1674,2.52857,-6.04397
-182,-650,2.54468,6.10339,0.00113849,-0.00671232,-0.00506544,0.00362148,-0.00919531,-0.455762,0.00762946,0.00876958,1042,1674,2.54473,-6.10337
-175,-650,2.57056,6.15942,0.000550284,-0.00859838,-0.00436109,0.00229605,-0.0103441,-0.380769,0.00777528,0.0122485,1049,1674,2.57055,-6.15937
-168,-650,2.5708,6.20972,-0.000105226,-0.0103696,-0.00338187,0.000908834,-0.0113837,-0.291321,0.0079095,0.0177183,1056,1674,2.57084,-6.20968
-161,-650,2.55078,6.26917,-0.000400806,-0.0121937,-0.00208858,-4.18373e-05,-0.0125527,-0.17021,0.00835455,0.0270377,1063,1674,2.55079,-6.26918
-154,-650,2.54773,6.29663,-0.000569472,-0.0136066,-0.000574568,-0.000544199,-0.0136318,-0.0439582,0.00891204,0.0322928,1070,1674,2.54773,-6.29663
-147,-650,2.65613,6.19568,-0.000657596,-0.0150231,0.00107181,-0.000578068,-0.0151027,0.0740634,0.00988138,0.0400045,1077,1674,2.65616,-6.19566
-140,-650,2.75037,6.16138,0,0,0,0,0,0,0,-1,1084,1674,2.75036,-6.16142
-133,-650,2.43665,6.12561,0,0,0,0,0,0,0,-1,1091,1674,2.43663,-6.12564
-126,-650,2.50208,6.38452,0,0,0,0,0,0,0,-1,1098,1674,2.50212,-6.38456
-119,-650,2.56763,6.64343,0,0,0,0,0,0,0,-1,1105,1674,2.56761,-6.64348
-112,-650,3.28992,6.10083,0,0,0,0,0,0,0,-1,1112,1674,3.28986,-6.10081
-105,-650,3.81299,6.11401,0,0,0,0,0,0,0,-1,1119,1674,3.81304,-6.11407
-98,-650,3.33362,6.92773,0,0,0,0,0,0,0,-1,1126,1674,3.33357,-6.92779
-91,-650,2.44006,4.16797,0,0,0,0,0,0,0,-1,1133,1674,2.44002,-4.16799
-84,-650,3.11511,5.33582,0,0,0,0,0,0,0,-1,1140,1674,3.11509,-5.33584
-77,-650,-2.6571,-0.863647,0,0,0,0,0,0,0,-1,1147,1674,-2.65715,0.863593
-70,-650,-1.88269,0.00671387,0,0,0,0,0,0,0,-1,1154,1674,-1.88267,-0.00673877
-63,-650,-2.05457,1.29126,0,0,0,0,0,0,0,-1,1161,1674,-2.05459,-1.29129
-56,-650,-2.40662,2.04028,0.012971,-0.0635277,0.0429772,0.0322546,-0.0828114,0.421769,0.0685376,0.0427964,1168,1674,-2.40662,-2.04033
-49,-650,-2.38843,2.8894,0.0131213,-0.063452,0.0373209,0.0283016,-0.0786323,0.386313,0.0639773,0.0467578,1175,1674,-2.38848,-2.88943
-42,-650,-2.50317,3.91138,0,0,0,0,0,0,0,-1,1182,1674,-2.50317,-3.91132
-35,-650,-1.72156,5.59375,0,0,0,0,0,0,0,-1,1189,1674,-1.72156,-5.5938
-28,-650,-1.0929,7.5481,0,0,0,0,0,0,0,-1,1196,1674,-1.0929,-7.54813
-21,-650,2.5155,6.79968,0,0,0,0,0,0,0,-1,1203,1674,2.5155,-6.79973
-14,-650,2.61926,6.41418,0.0284174,-0.05786,-0.00643165,0.0288943,-0.0583368,-0.074001,0.0513102,0.0474408,1210,1674,2.61929,-6.41424
-7,-650,2.52539,5.93225,0.0319344,-0.0568082,-0.0178446,0.0353882,-0.060262,-0.191186,0.0558426,0.0437745,1217,1674,2.52536,-5.93225
0,-650,2.08752,5.63977,0.035614,-0.0552795,-0.0304234,0.0448572,-0.0645227,-0.294957,0.0634898,0.0418505,1224,1674,2.08758,-5.63978
7,-650,3.84338,7.15137,0.039183,-0.0543702,-0.0401603,0.0540578,-0.0692451,-0.35472,0.0713687,0.0415496,1231,1674,3.8434,-7.15141
14,-650,3.90576,6.8457,0,0,0,0,0,0,0,-1,1238,1674,3.90571,-6.84576
21,-650,5.07678,5.06287,0.0378709,-0.0497275,-0.0523463,0.062325,-0.0741816,-0.437031,0.0789111,0.0464228,1245,1674,5.07679,-5.06281
28,-650,5.28076,4.29041,0.032704,-0.0445641,-0.0561931,0.0622627,-0.0741228,-0.484247,0.0788414,0.0462001,1252,1674,5.28076,-4.29043
35,-650,5.53979,3.44385,0.0267131,-0.038952,-0.0589611,0.0613668,-0.0736056,-0.531354,0.0780331,0.0478024,1259,1674,5.53981,-3.44387
42,-650,5.8396,2.66772,0.0207581,-0.0337277,-0.0608054,0.0601445,-0.0731142,-0.574789,0.0770583,0.0455153,1266,1674,5.83954,-2.66768
49,-650,0.768311,8.49414,0,0,0,0,0,0,0,-1,1273,1674,0.768304,-8.49417
56,-650,0.311157,7.53845,0,0,0,0,0,0,0,-1,1280,1674,0.31111,-7.53841
63,-650,4.44397,8.4563,0,0,0,0,0,0,0,-1,1287,1674,4.44402,-8.45628
70,-650,1.77979,5.10156,0,0,0,0,0,0,0,-1,1294,1674,1.77973,-5.10151
77,-650,1.75708,4.94653,-0.0091377,-0.0150012,-0.0603729,0.0483746,-0.0725135,-0.761137,0.0702571,0.0470556,1301,1674,1.75712,-4.94658
84,-650,0.883301,4.62769,-0.00996428,-0.0159498,-0.0563968,0.043519,-0.0694332,-0.75889,0.0657826,0.0467968,1308,1674,0.883278,-4.62771
91,-650,0.624023,4.39282,-0.0107081,-0.0198278,-0.0521477,0.0370787,-0.0676146,-0.741788,0.0612957,0.0477691,1315,1674,0.62407,-4.39285
98,-650,0.339478,4.10339,-0.00944244,-0.0235156,-0.0469902,0.0310351,-0.0639931,-0.711078,0.0559537,0.0473336,1322,1674,0.339462,-4.10342
105,-650,0.00866699,3.91418,-0.00682557,-0.0283915,-0.0410113,0.0247966,-0.0600137,-0.656844,0.0503528,0.0491649,1329,1674,0.00864072,-3.91419
112,-650,-0.262573,3.72876,0,0,0,0,0,0,0,-1,1336,1674,-0.262562,-3.72876
119,-650,-0.612671,3.50696,0,0,0,0,0,0,0,-1,1343,1674,-0.612711,-3.50694
126,-650,-0.922119,3.29321,0,0,0,0,0,0,0,-1,1350,1674,-0.922142,-3.29326
133,-650,0.951904,4.29944,0.00961404,-0.047387,-0.0135981,0.0126918,-0.0504648,-0.222588,0.0385761,0.0458131,1357,1674,0.951862,-4.29944
140,-650,0.630127,3.91492,0.0117153,-0.0499609,-0.00727702,0.0125622,-0.0508079,-0.115868,0.0387442,0.047402,1364,1674,0.630087,-3.91494
147,-650,0.594482,3.80481,0.0109659,-0.0500292,-0.0020755,0.0110364,-0.0500998,-0.0339749,0.0376222,0.046727,1371,1674,0.594517,-3.80477
154,-650,0.741699,3.81763,0,0,0,0,0,0,0,-1,1378,1674,0.741695,-3.81757
161,-650,3.69861,11.4977,0,0,0,0,0,0,0,-1,1385,1674,3.69857,-11.4977
168,-650,4.78601,7.62402,0,0,0,0,0,0,0,-1,1392,1674,4.78605,-7.62397
175,-650,5.62537,-0.230713,0,0,0,0,0,0,0,-1,1399,1674,5.62538,0.230745
182,-650,5.56006,0.421631,0,0,0,0,0,0,0,-1,1406,1674,5.56,-0.421652
189,-650,4.81543,11.0654,0,0,0,0,0,0,0,-1,1413,1674,4.81542,-11.0654
196,-650,5.39575,11.9077,0,0,0,0,0,0,0,-1,1420,1674,5.39575,-11.9078
203,-650,3.93628,11.8215,0,0,0,0,0,0,0,-1,1427,1674,3.93624,-11.8216
210,-650,4.49719,6.9281,0,0,0,0,0,0,0,-1,1434,1674,4.49723,-6.9281
217,-650,4.82544,5.36121,0,0,0,0,0,0,0,-1,1441,1674,4.82538,-5.36125
224,-650,5.39087,0.0360107,0,0,0,0,0,0,0,-1,1448,1674,5.39085,-0.0360655
231,-650,6.09155,0.00146484,0,0,0,0,0,0,0,-1,1455,1674,6.09158,-0.00148661
238,-650,6.47559,0.27478,0,0,0,0,0,0,0,-1,1462,1674,6.47556,-0.274837
245,-650,7.63879,0.160889,0,0,0,0,0,0,0,-1,1469,1674,7.63878,-0.160842
252,-650,4.40369,0.807861,0,0,0,0,0,0,0,-1,1476,1674,4.40371,-0.807886
259,-650,5.61255,3.17566,0,0,0,0,0,0,0,-1,1483,1674,5.61257,-3.17572
266,-650,4.00403,6.10229,0,0,0,0,0,0,0,-1,1490,1674,4.00401,-6.10225
273,-650,3.31238,6.41943,0,0,0,0,0,0,0,-1,1497,1674,3.31241,-6.41942
280,-650,3.37744,6.41455,0.0312061,0.020163,0.0285647,0.054778,-0.00340893,0.689927,0.0377064,0.0426429,1504,1674,3.37745,-6.4146
287,-650,3.5,6.35107,0.0270348,0.0173582,0.0233324,0.0460253,-0.00163229,0.683166,0.0312418,0.040823,1511,1674,3.49996,-6.35103
294,-650,3.5343,6.30811,0.0225474,0.0150234,0.0184959,0.03766,-8.9189e-05,0.685068,0.0251365,0.0360766,1518,1674,3.53435,-6.30814
301,-650,3.54675,6.34949,0.0180862,0.0127983,0.0139275,0.0296184,0.00126599,0.691596,0.0193374,0.0255487,1525,1674,3.54675,-6.34948
308,-650,3.56946,6.354,0.0142157,0.0109591,0.00996592,0.0226855,0.00248935,0.704421,0.0143659,0.0149673,1532,1674,3.56949,-6.35401
315,-650,3.6012,6.32678,0.0109045,0.00930597,0.00666872,0.0168217,0.00338877,0.725758,0.0102729,0.00948303,1539,1674,3.60123,-6.3268
322,-650,3.59375,6.25891,0.00830279,0.0078761,0.004007,0.0121021,0.00407677,0.758802,0.00711005,0.00900218,1546,1674,3.59376,-6.2589
329,-650,3.59167,6.19653,0.00542871,0.0060561,0.00143921,0.00721541,0.0042694,0.892701,0.00418911,0.0152275,1553,1674,3.59162,-6.19659
336,-650,3.58191,6.17175,0.00295932,0.00463839,-0.000160263,0.00465355,0.00294416,-1.47648,0.00271807,0.0136562,1560,1674,3.58196,-6.17178
343,-650,3.57898,6.13196,0.0021076,0.00383037,-0.000717341,0.00408995,0.00184802,-1.22359,0.00236498,0.0130022,1567,1674,3.57893,-6.13193
350,-650,3.62183,6.04956,0.00151183,0.003221,-0.000822145,0.00355226,0.00118057,-1.18777,0.00208898,0.0161361,1574,1674,3.62183,-6.04959
357,-650,3.61731,5.974,0.00121243,0.00225459,-0.000591977,0.00252216,0.000944863,-1.14629,0.00147135,0.0133078,1581,1674,3.61736,-5.974
364,-650,3.60779,5.91516,0.00108193,0.00144479,-0.000359391,0.00166595,0.000860768,-1.01915,0.000962014,0.00851434,1588,1674,3.60779,-5.91514
371,-650,3.59912,5.87048,0.00109844,0.0007451,-2.41931e-05,0.00110009,0.000743451,-0.0680466,0.000648092,0.0102506,1595,1674,3.59908,-5.87054
378,-650,3.58923,5.7937,0.00120475,0.000277522,0.000268424,0.00127685,0.000205422,0.26241,0.000791696,0.0115471,1602,1674,3.58921,-5.79368
385,-650,3.58813,5.72046,0.00131135,-9.66914e-06,0.000486212,0.00147101,-0.000169327,0.317278,0.00104171,0.0125226,1609,1674,3.58813,-5.72043
392,-650,3.59363,5.66931,0.00151174,-0.000146173,0.00045474,0.00162827,-0.00026271,0.250872,0.00118285,0.0162938,1616,1674,3.59357,-5.66929
399,-650,3.59924,5.6134,0.00160257,-7.58303e-05,0.000289357,0.00165105,-0.000124315,0.166018,0.00114439,0.0148138,1623,1674,3.59928,-5.61346
406,-650,3.59656,5.55347,0.00144033,-0.000155132,0.000259165,0.00148138,-0.000196174,0.15706,0.00105905,0.014119,1630,1674,3.59657,-5.55348
413,-650,3.60718,5.47522,0.00138383,-0.000167213,4.01455e-05,0.00138487,-0.000168252,0.0258599,0.000984135,0.0151347,1637,1674,3.60716,-5.47528
420,-650,3.58862,5.40186,0.00118799,-0.000176752,-0.000303073,0.00125227,-0.000241029,-0.208988,0.000925706,0.0153425,1644,1674,3.58865,-5.40184
427,-650,3.5918,5.33508,0.000940374,-9.24719e-05,-0.000575905,0.00119749,-0.000349586,-0.419899,0.000936853,0.0145918,1651,1674,3.59183,-5.33512
434,-650,3.60181,5.26831,0.000664882,-0.000170855,-0.000727457,0.00108595,-0.000591919,-0.524697,0.000982613,0.017613,1658,1674,3.60182,-5.26828
441,-650,3.64526,5.1449,-1.90148e-05,-0.000983453,-0.00113061,0.000727917,-0.00173039,-0.583822,0.00145811,0.0274689,1665,1674,3.64529,-5.14493
448,-650,3.67041,5.10925,-0.00103241,-0.0022879,-0.00217084,0.000599631,-0.00391993,-0.644652,0.00283439,0.0404225,1672,1674,3.67045,-5.1093
455,-650,3.18164,5.17896,-0.00136195,-0.00392183,-0.00334381,0.000938517,-0.0062223,-0.602611,0.00449383,0.0433527,1679,1674,3.18168,-5.179
462,-650,3.63953,4.8717,0,0,0,0,0,0,0,-1,1686,1674,3.63954,-4.87174
469,-650,4.15564,4.82483,0,0,0,0,0,0,0,-1,1693,1674,4.15568,-4.82487
476,-650,3.39343,4.77649,0,0,0,0,0,0,0,-1,1700,1674,3.39344,-4.77645
483,-650,3.698,5.30493,-0.00109552,-0.00965055,-0.0064418,0.00235961,-0.0131057,-0.492312,0.00962061,0.0450395,1707,1674,3.69803,-5.30491
490,-650,3.64368,4.95288,-0.00059425,-0.0117609,-0.0079557,0.00354183,-0.015897,-0.479431,0.0119548,0.0438013,1714,1674,3.64371,-4.95284
497,-650,3.58765,4.41577,0.000178054,-0.0141071,-0.00999243,0.00531819,-0.0192472,-0.475104,0.0149235,0.0421762,1721,1674,3.58767,-4.41576
504,-650,3.50525,3.86426,0.00108348,-0.017083,-0.0125483,0.00749108,-0.0234906,-0.472118,0.0186654,0.0449019,1728,1674,3.50521,-3.86421
511,-650,3.92749,3.61572,0,0,0,0,0,0,0,-1,1735,1674,3.92755,-3.61567
518,-650,0,0,0,0,0,0,0,0,0,-1,1742,1674,0,0
525,-650,0,0,0,0,0,0,0,0,0,-1,1749,1674,0,0
532,-650,0,0,0,0,0,0,0,0,0,-1,1756,1674,0,0
539,-650,0,0,0,0,0,0,0,0,0,-1,1763,1674,0,0
546,-650,0,0,0,0,0,0,0,0,0,-1,1770,1674,0,0
553,-650,0,0,0,0,0,0,0,0,0,-1,1777,1674,0,0
560,-650,0,0,0,0,0,0,0,0,0,-1,1784,1674,0,0
567,-650,0,0,0,0,0,0,0,0,0,-1,1791,1674,0,0
574,-650,0,0,0,0,0,0,0,0,0,-1,1798,1674,0,0
581,-650,0,0,0,0,0,0,0,0,0,-1,1805,1674,0,0
588,-650,0,0,0,0,0,0,0,0,0,-1,1812,1674,0,0
595,-650,0,0,0,0,0,0,0,0,0,-1,1819,1674,0,0
602,-650,0,0,0,0,0,0,0,0,0,-1,1826,1674,0,0
609,-650,0,0,0,0,0,0,0,0,0,-1,1833,1674,0,0
616,-650,0,0,0,0,0,0,0,0,0,-1,1840,1674,0,0
623,-650,0,0,0,0,0,0,0,0,0,-1,1847,1674,0,0
630,-650,0,0,0,0,0,0,0,0,0,-1,1854,1674,0,0
637,-650,0,0,0,0,0,0,0,0,0,-1,1861,1674,0,0
644,-650,0,0,0,0,0,0,0,0,0,-1,1868,1674,0,0
651,-650,0,0,0,0,0,0,0,0,0,-1,1875,1674,0,0
658,-650,0,0,0,0,0,0,0,0,0,-1,1882,1674,0,0
665,-650,0,0,0,0,0,0,0,0,0,-1,1889,1674,0,0
672,-650,0,0,0,0,0,0,0,0,0,-1,1896,1674,0,0
679,-650,0,0,0,0,0,0,0,0,0,-1,1903,1674,0,0
686,-650,0,0,0,0,0,0,0,0,0,-1,1910,1674,0,0
693,-650,0,0,0,0,0,0,0,0,0,-1,1917,1674,0,0
700,-650,0,0,0,0,0,0,0,0,0,-1,1924,1674,0,0
707,-650,0,0,0,0,0,0,0,0,0,-1,1931,1674,0,0
714,-650,0,0,0,0,0,0,0,0,0,-1,1938,1674,0,0
721,-650,0,0,0,0,0,0,0,0,0,-1,1945,1674,0,0
728,-650,0,0,0,0,0,0,0,0,0,-1,1952,1674,0,0
735,-650,0,0,0,0,0,0,0,0,0,-1,1959,1674,0,0
742,-650,0,0,0,0,0,0,0,0,0,-1,1966,1674,0,0
749,-650,0,0,0,0,0,0,0,0,0,-1,1973,1674,0,0
756,-650,0,0,0,0,0,0,0,0,0,-1,1980,1674,0,0
763,-650,0,0,0,0,0,0,0,0,0,-1,1987,1674,0,0
770,-650,0,0,0,0,0,0,0,0,0,-1,1994,1674,0,0
777,-650,0,0,0,0,0,0,0,0,0,-1,2001,1674,0,0
784,-650,0,0,0,0,0,0,0,0,0,-1,2008,1674,0,0
791,-650,0,0,0,0,0,0,0,0,0,-1,2015,1674,0,0
798,-650,0,0,0,0,0,0,0,0,0,-1,2022,1674,0,0
805,-650,0,0,0,0,0,0,0,0,0,-1,2029,1674,0,0
812,-650,0,0,0,0,0,0,0,0,0,-1,2036,1674,0,0
-700,-657,0,0,0,0,0,0,0,0,0,-1,524,1681,0,0
-693,-657,0,0,0,0,0,0,0,0,0,-1,531,1681,0,0
-686,-657,0,0,0,0,0,0,0,0,0,-1,538,1681,0,0
-679,-657,0,0,0,0,0,0,0,0,0,-1,545,1681,0,0
-672,-657,0,0,0,0,0,0,0,0,0,-1,552,1681,0,0
-665,-657,0,0,0,0,0,0,0,0,0,-1,559,1681,0,0
-658,-657,0,0,0,0,0,0,0,0,0,-1,566,1681,0,0
-651,-657,0,0,0,0,0,0,0,0,0,-1,573,1681,0,0
-644,-657,0,0,0,0,0,0,0,0,0,-1,580,1681,0,0
-637,-657,0,0,0,0,0,0,0,0,0,-1,587,1681,0,0
-630,-657,0,0,0,0,0,0,0,0,0,-1,594,1681,0,0
-623,-657,0,0,0,0,0,0,0,0,0,-1,601,1681,0,0
-616,-657,0,0,0,0,0,0,0,0,0,-1,608,1681,0,0
-609,-657,0,0,0,0,0,0,0,0,0,-1,615,1681,0,0
-602,-657,0,0,0,0,0,0,0,0,0,-1,622,1681,0,0
-595,-657,0,0,0,0,0,0,0,0,0,-1,629,1681,0,0
-588,-657,0,0,0,0,0,0,0,0,0,-1,636,1681,0,0
-581,-657,0,0,0,0,0,0,0,0,0,-1,643,1681,0,0
-574,-657,0,0,0,0,0,0,0,0,0,-1,650,1681,0,0
-567,-657,0,0,0,0,0,0,0,0,0,-1,657,1681,0,0
-560,-657,0,0,0,0,0,0,0,0,0,-1,664,1681,0,0
-553,-657,0,0,0,0,0,0,0,0,0,-1,671,1681,0,0
-546,-657,0,0,0,0,0,0,0,0,0,-1,678,1681,0,0
-539,-657,0,0,0,0,0,0,0,0,0,-1,685,1681,0,0
-532,-657,0,0,0,0,0,0,0,0,0,-1,692,1681,0,0
-525,-657,0,0,0,0,0,0,0,0,0,-1,699,1681,0,0
-518,-657,0,0,0,0,0,0,0,0,0,-1,706,1681,0,0
-511,-657,0,0,0,0,0,0,0,0,0,-1,713,1681,0,0
-504,-657,0,0,0,0,0,0,0,0,0,-1,720,1681,0,0
-497,-657,0,0,0,0,0,0,0,0,0,-1,727,1681,0,0
-490,-657,0,0,0,0,0,0,0,0,0,-1,734,1681,0,0
-483,-657,0,0,0,0,0,0,0,0,0,-1,741,1681,0,0
-476,-657,0,0,0,0,0,0,0,0,0,-1,748,1681,0,0
-469,-657,0,0,0,0,0,0,0,0,0,-1,755,1681,0,0
-462,-657,0,0,0,0,0,0,0,0,0,-1,762,1681,0,0
-455,-657,0,0,0,0,0,0,0,0,0,-1,769,1681,0,0
-448,-657,0,0,0,0,0,0,0,0,0,-1,776,1681,0,0
-441,-657,0,0,0,0,0,0,0,0,0,-1,783,1681,0,0
-434,-657,0,0,0,0,0,0,0,0,0,-1,790,1681,0,0
-427,-657,0,0,0,0,0,0,0,0,0,-1,797,1681,0,0
-420,-657,0,0,0,0,0,0,0,0,0,-1,804,1681,0,0
-413,-657,0,0,0,0,0,0,0,0,0,-1,811,1681,0,0
-406,-657,0,0,0,0,0,0,0,0,0,-1,818,1681,0,0
-399,-657,0,0,0,0,0,0,0,0,0,-1,825,1681,0,0
-392,-657,0,0,0,0,0,0,0,0,0,-1,832,1681,0,0
-385,-657,3.21088,5.99829,0,0,0,0,0,0,0,-1,839,1681,3.21088,-5.99828
-378,-657,4.87805,11.6125,0,0,0,0,0,0,0,-1,846,1681,4.87805,-11.6126
-371,-657,4.76624,10.0463,0,0,0,0,0,0,0,-1,853,1681,4.76624,-10.0462
-364,-657,4.6424,8.49915,0,0,0,0,0,0,0,-1,860,1681,4.64242,-8.4991
-357,-657,3.33081,4.60657,0,0,0,0,0,0,0,-1,867,1681,3.33079,-4.60659
-350,-657,2.58704,5.15039,0,0,0,0,0,0,0,-1,874,1681,2.58702,-5.15036
-343,-657,3.26538,1.61108,0,0,0,0,0,0,0,-1,881,1681,3.26536,-1.61107
-336,-657,2.15155,4.07861,0,0,0,0,0,0,0,-1,888,1681,2.15154,-4.07861
-329,-657,1.89105,4.07837,0,0,0,0,0,0,0,-1,895,1681,1.89103,-4.07834
-322,-657,2.58917,4.75439,0,0,0,0,0,0,0,-1,902,1681,2.58915,-4.75435
-315,-657,2.71552,4.43628,0,0,0,0,0,0,0,-1,909,1681,2.71552,-4.43626
-308,-657,2.64166,4.7345,-0.00922927,-0.00898081,-0.00721723,-0.00188674,-0.0163233,-0.794004,0.010311,0.037679,916,1681,2.64165,-4.73452
-301,-657,2.57568,4.93286,-0.00525304,-0.00519239,-0.00790935,0.0026867,-0.0131321,-0.787315,0.00977419,0.0288421,923,1681,2.57567,-4.93284
-294,-657,2.57556,5.00195,-0.00247239,-0.00207045,-0.00790521,0.00563635,-0.0101792,-0.798107,0.00925581,0.0150172,930,1681,2.57554,-5.00194
-287,-657,2.58154,5.07349,-0.000116731,0.000407071,-0.00778991,0.00793948,-0.00764914,-0.802202,0.00900062,0.0102541,937,1681,2.58153,-5.07351
-280,-657,2.58508,5.14172,0.00146195,0.00203826,-0.00724645,0.00900228,-0.00550207,-0.80527,0.00845498,0.0129559,944,1681,2.58509,-5.14178
-273,-657,2.59039,5.22278,0.00200492,0.00265186,-0.00662826,0.00896454,-0.00430775,-0.80978,0.0078184,0.0105553,951,1681,2.59041,-5.2228
-266,-657,2.57251,5.29443,0.00224969,0.00294184,-0.00564367,0.00825004,-0.0030585,-0.81602,0.00675444,0.0145084,958,1681,2.57252,-5.29448
-259,-657,2.58087,5.35474,0.00264412,0.00329514,-0.00457942,0.00756061,-0.00162134,-0.820879,0.00565881,0.0175455,965,1681,2.58085,-5.3547
-252,-657,2.57123,5.41589,0.00280251,0.00312082,-0.00371922,0.00668428,-0.000760956,-0.806782,0.00473029,0.0126184,972,1681,2.57125,-5.41584
-245,-657,2.57373,5.49023,0.00233191,0.00230056,-0.00303663,0.00535291,-0.000720444,-0.782817,0.0038314,0.0148431,979,1681,2.57374,-5.49021
-238,-657,2.58472,5.58716,0.00202052,0.00148665,-0.00265252,0.0044195,-0.000912328,-0.73525,0.00329285,0.0195532,986,1681,2.58469,-5.58712
-231,-657,2.57281,5.68237,0.00198811,0.000800481,-0.00252,0.00398331,-0.00119472,-0.669689,0.00313071,0.0208076,993,1681,2.57281,-5.68241
-224,-657,2.59467,5.7677,0.00214984,-4.96091e-05,-0.00241118,0.00370024,-0.00160001,-0.571443,0.00313916,0.0164637,1000,1681,2.59469,-5.76769
-217,-657,2.59772,5.83655,0.00235533,-0.000809499,-0.00242365,0.00366742,-0.00212158,-0.49619,0.00338176,0.0102587,1007,1681,2.59772,-5.83652
-210,-657,2.5899,5.89148,0.00236576,-0.00153553,-0.0026598,0.00371353,-0.0028833,-0.469009,0.00381873,0.0101049,1014,1681,2.58988,-5.89146
-203,-657,2.60358,5.94104,0.00212584,-0.00271095,-0.00299413,0.00355627,-0.00414138,-0.445686,0.00444852,0.012388,1021,1681,2.60357,-5.94102
-196,-657,2.62988,5.98413,0.00203325,-0.00394585,-0.0032645,0.00347026,-0.00538286,-0.414667,0.00515095,0.0131664,1028,1681,2.62984,-5.9841
-189,-657,2.62976,6.05408,0.00181465,-0.00492993,-0.00344333,0.00326199,-0.00637728,-0.397911,0.00566129,0.00957518,1035,1681,2.62974,-6.05411
-182,-657,2.61194,6.10815,0.00139883,-0.0063393,-0.00331622,0.00262555,-0.00756601,-0.354304,0.00611021,0.00812653,1042,1681,2.61194,-6.10816
-175,-657,2.61658,6.17322,0.00107644,-0.00773406,-0.00288397,0.0019365,-0.00859412,-0.289825,0.00647221,0.00931965,1049,1681,2.61657,-6.17322
-168,-657,2.61707,6.23438,0.000718323,-0.00897551,-0.00229936,0.00123607,-0.00949326,-0.221478,0.00677854,0.0111711,1056,1681,2.61708,-6.23434
-161,-657,2.61304,6.27026,0.000668874,-0.0102461,-0.001469,0.000863124,-0.0104404,-0.13147,0.00726506,0.0110252,1063,1681,2.61298,-6.27031
-154,-657,2.6084,6.32288,0.00067428,-0.0111104,-0.000516386,0.000696864,-0.0111329,-0.0437069,0.00766482,0.0114674,1070,1681,2.6084,-6.32293
-147,-657,2.61084,6.36963,0.00070356,-0.0120128,0.000526835,0.000725349,-0.0120346,0.0413351,0.00827548,0.0158934,1077,1681,2.61085,-6.36968
-140,-657,2.58167,6.38306,0.00106571,-0.0128888,0.00168698,0.00126675,-0.0130899,0.118615,0.00917802,0.0253345,1084,1681,2.58164,-6.38306
-133,-657,2.55078,6.41919,0.00191875,-0.0134972,0.00285669,0.00243109,-0.0140095,0.177461,0.0102466,0.032813,1091,1681,2.55079,-6.41915
-126,-657,2.67419,6.51599,0.00292875,-0.0140891,0.004126,0.00387634,-0.0150367,0.225748,0.0115358,0.0381559,1098,1681,2.67416,-6.51604
-119,-657,2.66858,6.59631,0.0039262,-0.0146713,0.00544483,0.00540302,-0.0161481,0.264861,0.0129478,0.047342,1105,1681,2.66863,-6.59636
-112,-657,3.21777,6.40466,0.00609238,-0.0179367,0.0087286,0.00892835,-0.0207727,0.314146,0.0175965,0.0464717,1112,1681,3.21778,-6.40464
-105,-657,2.96228,7.09338,0,0,0,0,0,0,0,-1,1119,1681,2.96229,-7.09336
-98,-657,2.53748,4.96436,0,0,0,0,0,0,0,-1,1126,1681,2.53743,-4.96437
-91,-657,1.73608,6.80945,0,0,0,0,0,0,0,-1,1133,1681,1.73607,-6.8094
-84,-657,1.89819,6.22437,0,0,0,0,0,0,0,-1,1140,1681,1.89824,-6.22433
-77,-657,2.33179,4.15332,0,0,0,0,0,0,0,-1,1147,1681,2.33176,-4.15331
-70,-657,-0.85022,-2.11804,0,0,0,0,0,0,0,-1,1154,1681,-0.85025,2.11801
-63,-657,-2.21265,2.44653,0,0,0,0,0,0,0,-1,1161,1681,-2.21267,-2.44658
-56,-657,-2.63794,2.39856,0.0104286,-0.0503945,0.0350106,0.0263916,-0.0663576,0.42779,0.055181,0.0418532,1168,1681,-2.63795,-2.39855
-49,-657,-2.54016,3.06897,0.0109922,-0.0507293,0.0300749,0.023223,-0.0629602,0.386251,0.0514908,0.0494756,1175,1681,-2.54012,-3.06903
-42,-657,-2.63586,4.18591,0,0,0,0,0,0,0,-1,1182,1681,-2.63585,-4.18592
-35,-657,-0.999756,8.82471,0,0,0,0,0,0,0,-1,1189,1681,-0.999716,-8.82473
-28,-657,-1.3446,8.92847,0,0,0,0,0,0,0,-1,1196,1681,-1.34459,-8.92848
-21,-657,2.57544,6.90039,0,0,0,0,0,0,0,-1,1203,1681,2.57541,-6.90034
-14,-657,2.7113,6.66455,0.0253568,-0.0478488,-0.00638507,0.0259095,-0.0484016,-0.0863522,0.0435537,0.0449952,1210,1681,2.71133,-6.66456
-7,-657,2.71191,6.45593,0.0287538,-0.0476352,-0.016024,0.0319789,-0.0508603,-0.198617,0.0482396,0.0427051,1217,1681,2.71185,-6.45588
0,-657,2.67627,6.65515,0.032234,-0.0474069,-0.0265754,0.0402876,-0.0554605,-0.294248,0.055511,0.0440598,1224,1681,2.67632,-6.65519
7,-657,3.5332,6.85889,0.0352013,-0.0479185,-0.0343785,0.0475776,-0.0602947,-0.345555,0.0624242,0.043459,1231,1681,3.5332,-6.85892
14,-657,2.55994,6.104,0,0,0,0,0,0,0,-1,1238,1681,2.5599,-6.10398
21,-657,5.97156,5.71228,0.0342829,-0.0464642,-0.0444886,0.0539864,-0.0661678,-0.416926,0.0694898,0.043614,1245,1681,5.97153,-5.71227
28,-657,5.89246,5.1366,0.0299565,-0.0430453,-0.0480429,0.0537916,-0.0668804,-0.46054,0.0698065,0.0442665,1252,1681,5.8924,-5.13661
35,-657,6.10168,4.42151,0.0248499,-0.0391036,-0.0507228,0.0528341,-0.0670878,-0.504154,0.0693998,0.0432517,1259,1681,6.10171,-4.42153
42,-657,6.25659,3.72363,0.0196819,-0.0352396,-0.0525598,0.0515223,-0.06708,-0.544669,0.0686712,0.0443578,1266,1681,6.25663,-3.72361
49,-657,6.59216,3.10095,0.0144894,-0.0329474,-0.0542794,0.0500062,-0.0684642,-0.579416,0.0686751,0.0436336,1273,1681,6.59214,-3.10101
56,-657,7.07043,2.29419,0.00846453,-0.0300073,-0.055763,0.0482162,-0.069759,-0.61931,0.0684905,0.0453752,1280,1681,7.07047,-2.29417
63,-657,7.35083,1.16516,0,0,0,0,0,0,0,-1,1287,1681,7.35082,-1.16513
70,-657,1.98779,5.3595,0,0,0,0,0,0,0,-1,1294,1681,1.98784,-5.35956
77,-657,2.01367,5.34436,-0.00735393,-0.0217327,-0.0537791,0.0397142,-0.0688008,-0.71895,0.063397,0.0452806,1301,1681,2.01373,-5.34434
84,-657,1.66077,5.11035,-0.00827681,-0.0223704,-0.0507003,0.0358641,-0.0665113,-0.716346,0.0599828,0.0445118,1308,1681,1.66075,-5.11039
91,-657,2.06079,5.26831,-0.00901656,-0.0254161,-0.0472414,0.0307315,-0.0651641,-0.699469,0.0565425,0.0458163,1315,1681,2.06081,-5.26831
98,-657,1.14319,4.54614,-0.00820936,-0.0281684,-0.0431614,0.0261113,-0.062489,-0.671788,0.052571,0.0465658,1322,1681,1.1432,-4.5462
105,-657,0.775635,4.35352,-0.00622116,-0.0318583,-0.0383379,0.0213844,-0.0594639,-0.624062,0.0483729,0.0485956,1329,1681,0.775655,-4.35353
112,-657,0.402954,4.17566,0,0,0,0,0,0,0,-1,1336,1681,0.402955,-4.1757
119,-657,0.125244,3.56653,0,0,0,0,0,0,0,-1,1343,1681,0.12527,-3.56651
126,-657,0.396484,3.18188,0,0,0,0,0,0,0,-1,1350,1681,0.396517,-3.18187
133,-657,1.03113,4.71521,0.00765522,-0.044496,-0.015485,0.0119066,-0.0487474,-0.267943,0.0371094,0.0438305,1357,1681,1.03115,-4.71527
140,-657,0.926514,4.57141,0.00942201,-0.0453563,-0.0101617,0.0112463,-0.0471806,-0.177635,0.0357964,0.0477138,1364,1681,0.926519,-4.57137
147,-657,0.66272,4.63184,0,0,0,0,0,0,0,-1,1371,1681,0.662671,-4.63185
154,-657,-0.296509,5.40039,0,0,0,0,0,0,0,-1,1378,1681,-0.29645,-5.40038
161,-657,4.72742,7.57043,0,0,0,0,0,0,0,-1,1385,1681,4.72744,-7.57041
168,-657,5.21643,0.70105,0,0,0,0,0,0,0,-1,1392,1681,5.21648,-0.7011
175,-657,5.52771,0.649048,0,0,0,0,0,0,0,-1,1399,1681,5.52774,-0.649019
182,-657,5.73999,1.02612,0,0,0,0,0,0,0,-1,1406,1681,5.73995,-1.02611
189,-657,5.92126,1.44116,0,0,0,0,0,0,0,-1,1413,1681,5.92126,-1.44115
196,-657,4.92834,9.59021,0,0,0,0,0,0,0,-1,1420,1681,4.9284,-9.59018
203,-657,6.26343,5.16492,0,0,0,0,0,0,0,-1,1427,1681,6.26345,-5.16488
210,-657,3.9856,5.28088,0,0,0,0,0,0,0,-1,1434,1681,3.98555,-5.28084
217,-657,3.95178,5.2843,0,0,0,0,0,0,0,-1,1441,1681,3.95174,-5.28431
224,-657,5.3927,4.16785,0,0,0,0,0,0,0,-1,1448,1681,5.39267,-4.16786
231,-657,6.33838,-0.213989,0,0,0,0,0,0,0,-1,1455,1681,6.33841,0.213962
238,-657,4.67334,0.643799,0,0,0,0,0,0,0,-1,1462,1681,4.67329,-0.643793
245,-657,4.63208,0.703735,0,0,0,0,0,0,0,-1,1469,1681,4.63213,-0.703736
252,-657,4.78955,0.623779,0,0,0,0,0,0,0,-1,1476,1681,4.7895,-0.623826
259,-657,2.61523,4.31909,0,0,0,0,0,0,0,-1,1483,1681,2.61523,-4.31908
266,-657,4.2207,7.27087,0,0,0,0,0,0,0,-1,1490,1681,4.22074,-7.27089
273,-657,3.73438,6.76001,0.0230121,0.0159521,0.0218587,0.041624,-0.00265983,0.705343,0.0286771,0.0457898,1497,1681,3.73432,-6.75995
280,-657,3.40942,6.49585,0.0203567,0.0141515,0.017967,0.0354871,-0.000978826,0.699899,0.023991,0.0349408,1504,1681,3.40941,-6.49582
287,-657,3.48645,6.48926,0.0175953,0.0120596,0.014205,0.0292996,0.000355287,0.689178,0.0194158,0.0275849,1511,1681,3.4864,-6.48922
294,-657,3.5155,6.45996,0.0145514,0.0103733,0.0108833,0.0235444,0.00138035,0.690577,0.015257,0.0217313,1518,1681,3.51551,-6.45996
301,-657,3.50977,6.42456,0.0115361,0.00874564,0.00785672,0.0181205,0.00216123,0.697522,0.0114283,0.0141382,1525,1681,3.50971,-6.42461
308,-657,3.52014,6.37817,0.00898733,0.0074479,0.00533488,0.0136077,0.0028275,0.713753,0.00829161,0.0112023,1532,1681,3.5202,-6.37818
315,-657,3.52979,6.32288,0.00686082,0.00625935,0.00333811,0.00991172,0.00320845,0.740474,0.0058399,0.010751,1539,1681,3.52977,-6.32289
322,-657,3.5332,6.2605,0.00529006,0.00514225,0.00180432,0.00702198,0.00341032,0.764929,0.0040547,0.0123308,1546,1681,3.53315,-6.26047
329,-657,3.54126,6.1925,0.00355416,0.00383805,0.000304708,0.00403225,0.00335996,1.00337,0.00249445,0.0179741,1553,1681,3.5412,-6.19253
336,-657,3.53137,6.15796,0.00217341,0.00283896,-0.000532574,0.00313417,0.00187819,-1.06464,0.00182136,0.0159925,1560,1681,3.53143,-6.15795
343,-657,3.54346,6.11548,0.0019063,0.00237205,-0.000588488,0.00277206,0.00150629,-0.9738,0.00160246,0.0128966,1567,1681,3.54347,-6.1155
350,-657,3.56689,6.03967,0.00179472,0.00209421,-0.000325726,0.00230297,0.00158597,-1.00085,0.0013608,0.0148279,1574,1681,3.56692,-6.03969
357,-657,3.55347,5.97742,0.00182753,0.00150419,-6.37653e-05,0.00183965,0.00149207,-0.187841,0.00112856,0.0135172,1581,1681,3.55352,-5.97736
364,-657,3.54712,5.91699,0.00199317,0.00110931,0.000226245,0.00204771,0.00105476,0.236579,0.00118243,0.00967364,1588,1681,3.54706,-5.91699
371,-657,3.5481,5.86743,0.00225732,0.000861414,0.000667141,0.00252488,0.000593855,0.381415,0.00152436,0.0137646,1595,1681,3.54807,-5.86747
378,-657,3.52673,5.79187,0.00257962,0.000858132,0.0011139,0.00312659,0.000311168,0.456452,0.0019888,0.014266,1602,1681,3.52669,-5.79185
385,-657,3.51758,5.72241,0.00286309,0.00102109,0.00148359,0.00368831,0.000195864,0.507615,0.00239625,0.0125029,1609,1681,3.51756,-5.72236
392,-657,3.52405,5.67212,0.00314434,0.00124764,0.00165408,0.00410265,0.00028933,0.525105,0.00264394,0.0131521,1616,1681,3.52404,-5.67216
399,-657,3.54529,5.60706,0.00318026,0.00160624,0.00168691,0.00425472,0.00053178,0.567138,0.00267688,0.0126931,1623,1681,3.54535,-5.607
406,-657,3.55945,5.54468,0.00289244,0.00172908,0.0018416,0.00424204,0.000379477,0.632428,0.00271041,0.0137276,1630,1681,3.55943,-5.54462
413,-657,3.54565,5.46765,0.00269311,0.00182825,0.00172794,0.00404191,0.000479455,0.662788,0.00254986,0.0134822,1637,1681,3.54569,-5.46769
420,-657,3.54895,5.37463,0.00226054,0.00184013,0.00136617,0.00343258,0.000668089,0.709065,0.0021014,0.0139362,1644,1681,3.54894,-5.37466
427,-657,3.54639,5.28064,0.00174478,0.00201131,0.000988167,0.00287516,0.000880937,0.852424,0.00170095,0.0172401,1651,1681,3.54642,-5.28065
434,-657,3.54712,5.17322,0.000981363,0.00156803,0.000912355,0.00223304,0.000316344,0.940935,0.00139525,0.0246778,1658,1681,3.54712,-5.17324
441,-657,3.60388,4.93127,-5.68346e-05,0.000206643,0.000239064,0.000347863,-0.000198055,1.03723,0.000319117,0.0398458,1665,1681,3.60386,-4.93129
448,-657,3.58679,5.08887,-0.00119278,-0.00231659,-0.00161632,-4.34755e-05,-0.00346589,-0.618111,0.00229624,0.0477539,1672,1681,3.58675,-5.08884
455,-657,2.84595,5.37146,0,0,0,0,0,0,0,-1,1679,1681,2.8459,-5.37142
462,-657,2.64661,3.65613,0,0,0,0,0,0,0,-1,1686,1681,2.64663,-3.65609
469,-657,4.6344,4.64734,0,0,0,0,0,0,0,-1,1693,1681,4.63439,-4.64738
476,-657,3.29541,5.51758,0,0,0,0,0,0,0,-1,1700,1681,3.29538,-5.51755
483,-657,3.22351,5.2876,-0.00159228,-0.013357,-0.00563204,0.000669186,-0.0156185,-0.38183,0.0106424,0.0486287,1707,1681,3.22351,-5.28758
490,-657,3.2135,5.10791,-0.000956619,-0.0159551,-0.00673428,0.00162328,-0.018535,-0.365853,0.0129318,0.0477307,1714,1681,3.21345,-5.1079
497,-657,3.23206,4.6814,6.24325e-05,-0.0186976,-0.00860156,0.00340923,-0.0220444,-0.371067,0.0159545,0.0442457,1721,1681,3.23202,-4.68135
504,-657,0,0,0,0,0,0,0,0,0,-1,1728,1681,0,0
511,-657,0,0,0,0,0,0,0,0,0,-1,1735,1681,0,0
518,-657,0,0,0,0,0,0,0,0,0,-1,1742,1681,0,0
525,-657,0,0,0,0,0,0,0,0,0,-1,1749,1681,0,0
532,-657,0,0,0,0,0,0,0,0,0,-1,1756,1681,0,0
539,-657,0,0,0,0,0,0,0,0,0,-1,1763,1681,0,0
546,-657,0,0,0,0,0,0,0,0,0,-1,1770,1681,0,0
553,-657,0,0,0,0,0,0,0,0,0,-1,1777,1681,0,0
560,-657,0,0,0,0,0,0,0,0,0,-1,1784,1681,0,0
567,-657,0,0,0,0,0,0,0,0,0,-1,1791,1681,0,0
574,-657,0,0,0,0,0,0,0,0,0,-1,1798,1681,0,0
581,-657,0,0,0,0,0,0,0,0,0,-1,1805,1681,0,0
588,-657,0,0,0,0,0,0,0,0,0,-1,1812,1681,0,0
595,-657,0,0,0,0,0,0,0,0,0,-1,1819,1681,0,0
602,-657,0,0,0,0,0,0,0,0,0,-1,1826,1681,0,0
609,-657,0,0,0,0,0,0,0,0,0,-1,1833,1681,0,0
616,-657,0,0,0,0,0,0,0,0,0,-1,1840,1681,0,0
623,-657,0,0,0,0,0,0,0,0,0,-1,1847,1681,0,0
630,-657,0,0,0,0,0,0,0,0,0,-1,1854,1681,0,0
637,-657,0,0,0,0,0,0,0,0,0,-1,1861,1681,0,0
644,-657,0,0,0,0,0,0,0,0,0,-1,1868,1681,0,0
651,-657,0,0,0,0,0,0,0,0,0,-1,1875,1681,0,0
658,-657,0,0,0,0,0,0,0,0,0,-1,1882,1681,0,0
665,-657,0,0,0,0,0,0,0,0,0,-1,1889,1681,0,0
672,-657,0,0,0,0,0,0,0,0,0,-1,1896,1681,0,0
679,-657,0,0,0,0,0,0,0,0,0,-1,1903,1681,0,0
686,-657,0,0,0,0,0,0,0,0,0,-1,1910,1681,0,0
693,-657,0,0,0,0,0,0,0,0,0,-1,1917,1681,0,0
700,-657,0,0,0,0,0,0,0,0,0,-1,1924,1681,0,0
707,-657,0,0,0,0,0,0,0,0,0,-1,1931,1681,0,0
714,-657,0,0,0,0,0,0,0,0,0,-1,1938,1681,0,0
721,-657,0,0,0,0,0,0,0,0,0,-1,1945,1681,0,0
728,-657,0,0,0,0,0,0,0,0,0,-1,1952,1681,0,0
735,-657,0,0,0,0,0,0,0,0,0,-1,1959,1681,0,0
742,-657,0,0,0,0,0,0,0,0,0,-1,1966,1681,0,0
749,-657,0,0,0,0,0,0,0,0,0,-1,1973,1681,0,0
756,-657,0,0,0,0,0,0,0,0,0,-1,1980,1681,0,0
763,-657,0,0,0,0,0,0,0,0,0,-1,1987,1681,0,0
770,-657,0,0,0,0,0,0,0,0,0,-1,1994,1681,0,0
777,-657,0,0,0,0,0,0,0,0,0,-1,2001,1681,0,0
784,-657,0,0,0,0,0,0,0,0,0,-1,2008,1681,0,0
791,-657,0,0,0,0,0,0,0,0,0,-1,2015,1681,0,0
798,-657,0,0,0,0,0,0,0,0,0,-1,2022,1681,0,0
805,-657,0,0,0,0,0,0,0,0,0,-1,2029,1681,0,0
812,-657,0,0,0,0,0,0,0,0,0,-1,2036,1681,0,0
-700,-664,0,0,0,0,0,0,0,0,0,-1,524,1688,0,0
-693,-664,0,0,0,0,0,0,0,0,0,-1,531,1688,0,0
-686,-664,0,0,0,0,0,0,0,0,0,-1,538,1688,0,0
-679,-664,0,0,0,0,0,0,0,0,0,-1,545,1688,0,0
-672,-664,0,0,0,0,0,0,0,0,0,-1,552,1688,0,0
-665,-664,0,0,0,0,0,0,0,0,0,-1,559,1688,0,0
-658,-664,0,0,0,0,0,0,0,0,0,-1,566,1688,0,0
-651,-664,0,0,0,0,0,0,0,0,0,-1,573,1688,0,0
-644,-664,0,0,0,0,0,0,0,0,0,-1,580,1688,0,0
-637,-664,0,0,0,0,0,0,0,0,0,-1,587,1688,0,0
-630,-664,0,0,0,0,0,0,0,0,0,-1,594,1688,0,0
-623,-664,0,0,0,0,0,0,0,0,0,-1,601,1688,0,0
-616,-664,0,0,0,0,0,0,0,0,0,-1,608,1688,0,0
-609,-664,0,0,0,0,0,0,0,0,0,-1,615,1688,0,0
-602,-664,0,0,0,0,0,0,0,0,0,-1,622,1688,0,0
-595,-664,0,0,0,0,0,0,0,0,0,-1,629,1688,0,0
-588,-664,0,0,0,0,0,0,0,0,0,-1,636,1688,0,0
-581,-664,0,0,0,0,0,0,0,0,0,-1,643,1688,0,0
-574,-664,0,0,0,0,0,0,0,0,0,-1,650,1688,0,0
-567,-664,0,0,0,0,0,0,0,0,0,-1,657,1688,0,0
-560,-664,0,0,0,0,0,0,0,0,0,-1,664,1688,0,0
-553,-664,0,0,0,0,0,0,0,0,0,-1,671,1688,0,0
-546,-664,0,0,0,0,0,0,0,0,0,-1,678,1688,0,0
-539,-664,0,0,0,0,0,0,0,0,0,-1,685,1688,0,0
-532,-664,0,0,0,0,0,0,0,0,0,-1,692,1688,0,0
-525,-664,0,0,0,0,0,0,0,0,0,-1,699,1688,0,0
-518,-664,0,0,0,0,0,0,0,0,0,-1,706,1688,0,0
-511,-664,0,0,0,0,0,0,0,0,0,-1,713,1688,0,0
-504,-664,0,0,0,0,0,0,0,0,0,-1,720,1688,0,0
-497,-664,0,0,0,0,0,0,0,0,0,-1,727,1688,0,0
-490,-664,0,0,0,0,0,0,0,0,0,-1,734,1688,0,0
-483,-664,0,0,0,0,0,0,0,0,0,-1,741,1688,0,0
-476,-664,0,0,0,0,0,0,0,0,0,-1,748,1688,0,0
-469,-664,0,0,0,0,0,0,0,0,0,-1,755,1688,0,0
-462,-664,0,0,0,0,0,0,0,0,0,-1,762,1688,0,0
-455,-664,0,0,0,0,0,0,0,0,0,-1,769,1688,0,0
-448,-664,0,0,0,0,0,0,0,0,0,-1,776,1688,0,0
-441,-664,0,0,0,0,0,0,0,0,0,-1,783,1688,0,0
-434,-664,0,0,0,0,0,0,0,0,0,-1,790,1688,0,0
-427,-664,0,0,0,0,0,0,0,0,0,-1,797,1688,0,0
-420,-664,0,0,0,0,0,0,0,0,0,-1,804,1688,0,0
-413,-664,0,0,0,0,0,0,0,0,0,-1,811,1688,0,0
-406,-664,0,0,0,0,0,0,0,0,0,-1,818,1688,0,0
-399,-664,0,0,0,0,0,0,0,0,0,-1,825,1688,0,0
-392,-664,0,0,0,0,0,0,0,0,0,-1,832,1688,0,0
-385,-664,0,0,0,0,0,0,0,0,0,-1,839,1688,0,0
-378,-664,0,0,0,0,0,0,0,0,0,-1,846,1688,0,0
-371,-664,5.28564,11.657,0,0,0,0,0,0,0,-1,853,1688,5.28565,-11.6569
-364,-664,6.27313,9.47522,0,0,0,0,0,0,0,-1,860,1688,6.27315,-9.47525
-357,-664,5.56036,8.31079,0,0,0,0,0,0,0,-1,867,1688,5.56035,-8.31078
-350,-664,4.73798,7.13367,0,0,0,0,0,0,0,-1,874,1688,4.73797,-7.13361
-343,-664,0.7724,-1.24866,0,0,0,0,0,0,0,-1,881,1688,0.772371,1.2487
-336,-664,0.278809,0.539307,0,0,0,0,0,0,0,-1,888,1688,0.278814,-0.539262
-329,-664,1.52588,3.78101,0,0,0,0,0,0,0,-1,895,1688,1.52585,-3.78106
-322,-664,2.41492,2.17188,0,0,0,0,0,0,0,-1,902,1688,2.4149,-2.17192
-315,-664,2.78754,4.71777,0,0,0,0,0,0,0,-1,909,1688,2.78753,-4.71782
-308,-664,2.74951,4.76501,0,0,0,0,0,0,0,-1,916,1688,2.74953,-4.76504
-301,-664,1.83679,5.13,0,0,0,0,0,0,0,-1,923,1688,1.83679,-5.12996
-294,-664,2.54932,5.10144,-0.00341536,-0.00358518,-0.0124986,0.00899867,-0.0159992,-0.782001,0.01462,0.0385164,930,1688,2.54929,-5.10138
-287,-664,2.64508,5.10193,0.000206489,0.000169835,-0.0124935,0.0126816,-0.0123053,-0.784665,0.0144268,0.0253257,937,1688,2.6451,-5.10188
-280,-664,2.65039,5.16187,0.00263911,0.00273832,-0.0117392,0.014428,-0.00905058,-0.787511,0.0136734,0.0167541,944,1688,2.65037,-5.16188
-273,-664,2.66406,5.21399,0.00353377,0.00385916,-0.0106544,0.0143521,-0.00695915,-0.793033,0.0125484,0.0143317,951,1688,2.66408,-5.21401
-266,-664,2.67267,5.2843,0.00386614,0.00432452,-0.00912485,0.0132231,-0.0050324,-0.797954,0.0108877,0.0202551,958,1688,2.67265,-5.28426
-259,-664,2.64142,5.36157,0.00435319,0.00487864,-0.00753795,0.0121584,-0.00292661,-0.802818,0.00923702,0.0164794,965,1688,2.64141,-5.36153
-252,-664,2.66248,5.44458,0.00426598,0.00460355,-0.00610825,0.0105453,-0.00167581,-0.799211,0.00765026,0.016082,972,1688,2.66247,-5.44459
-245,-664,2.63208,5.52905,0.00315369,0.00320644,-0.00474012,0.00792025,-0.00156013,-0.78818,0.00586974,0.0210588,979,1688,2.63211,-5.52904
-238,-664,2.67383,5.62219,0.00228276,0.00195184,-0.00373642,0.00585738,-0.00162278,-0.763271,0.0045435,0.0234621,986,1688,2.67384,-5.62219
-231,-664,2.65881,5.71118,0.00178404,0.000921206,-0.00299933,0.00438282,-0.00167757,-0.713969,0.0036133,0.0196153,993,1688,2.6588,-5.71119
-224,-664,2.65564,5.78247,0.00144782,-0.00030564,-0.0021902,0.00293024,-0.00178807,-0.595017,0.00275059,0.0139651,1000,1688,2.65562,-5.78248
-217,-664,2.66888,5.83398,0.00125566,-0.0012025,-0.00169853,0.00212316,-0.00207,-0.472199,0.00242099,0.0106209,1007,1688,2.66889,-5.83402
-210,-664,2.65521,5.88232,0.00110409,-0.00189682,-0.00165968,0.00184102,-0.00263376,-0.417871,0.00259699,0.0110632,1014,1688,2.65519,-5.88232
-203,-664,2.65326,5.95825,0.000812254,-0.00298923,-0.00172685,0.00147955,-0.00365652,-0.368749,0.00305281,0.0126449,1021,1688,2.65324,-5.95825
-196,-664,2.66724,6.00244,0.000773474,-0.00398248,-0.00181613,0.00138767,-0.00459668,-0.326115,0.00361686,0.013121,1028,1688,2.6672,-6.00247
-189,-664,2.67065,6.05212,0.00070265,-0.00472759,-0.00192558,0.00131615,-0.00534109,-0.308439,0.00407099,0.00903733,1035,1688,2.67071,-6.05216
-182,-664,2.65955,6.10266,0.000543779,-0.00569903,-0.00184208,0.0010468,-0.00620205,-0.266571,0.00452418,0.00903533,1042,1688,2.65951,-6.10272
-175,-664,2.66833,6.14746,0.000531396,-0.00660492,-0.00159892,0.000873261,-0.00694679,-0.210639,0.00494803,0.0123252,1049,1688,2.66834,-6.14741
-168,-664,2.67358,6.21094,0.000491053,-0.00735645,-0.00132962,0.000710214,-0.00757561,-0.163361,0.00530302,0.013458,1056,1688,2.67359,-6.21092
-161,-664,2.67847,6.25586,0.000732461,-0.00814285,-0.000867691,0.000816495,-0.00822688,-0.0965464,0.00577602,0.00968703,1063,1688,2.67852,-6.25583
-154,-664,2.67188,6.31409,0.00100009,-0.00854919,-0.000373927,0.00101471,-0.00856381,-0.0390778,0.00607576,0.00938198,1070,1688,2.67185,-6.31408
-147,-664,2.66321,6.3877,0.00124179,-0.00901906,0.000145359,0.00124385,-0.00902112,0.0141626,0.00646868,0.0104335,1077,1688,2.66322,-6.38769
-140,-664,2.67065,6.43323,0.00176467,-0.00940528,0.000663693,0.00180397,-0.00944457,0.0591404,0.00697589,0.0104319,1084,1688,2.67063,-6.43319
-133,-664,2.68457,6.46313,0.00259663,-0.00964818,0.00125155,0.00272324,-0.00977479,0.100822,0.00758893,0.0103963,1091,1688,2.68452,-6.46319
-126,-664,2.73682,6.53406,0.00349255,-0.0098274,0.00195237,0.00377282,-0.0101077,0.14258,0.00828744,0.0183957,1098,1688,2.73683,-6.534
-119,-664,2.76318,6.58069,0.00442613,-0.0098562,0.00268547,0.00491438,-0.0103445,0.179848,0.00899371,0.0331453,1105,1688,2.76313,-6.58065
-112,-664,2.77466,6.68164,0.00609554,-0.0121262,0.005085,0.00741852,-0.0134492,0.254529,0.0122145,0.0406163,1112,1688,2.77462,-6.68162
-105,-664,2.88098,6.83826,0.00824214,-0.015804,0.0101767,0.0119709,-0.0195327,0.351211,0.0183625,0.0475844,1119,1688,2.88092,-6.83822
-98,-664,2.93164,6.84167,0,0,0,0,0,0,0,-1,1126,1688,2.93164,-6.84167
-91,-664,2.35132,6.80762,0,0,0,0,0,0,0,-1,1133,1688,2.35131,-6.80764
-84,-664,2.83569,6.38794,0,0,0,0,0,0,0,-1,1140,1688,2.83573,-6.38796
-77,-664,2.01135,6.27649,0,0,0,0,0,0,0,-1,1147,1688,2.0113,-6.27652
-70,-664,2.51306,6.29846,0,0,0,0,0,0,0,-1,1154,1688,2.51309,-6.29844
-63,-664,-2.57617,2.71106,0,0,0,0,0,0,0,-1,1161,1688,-2.5762,-2.71112
-56,-664,-2.91064,2.59631,0,0,0,0,0,0,0,-1,1168,1688,-2.9107,-2.59627
-49,-664,-2.54297,3.31848,0,0,0,0,0,0,0,-1,1175,1688,-2.54297,-3.31852
-42,-664,-0.359253,4.38684,0,0,0,0,0,0,0,-1,1182,1688,-0.359261,-4.38685
-35,-664,-0.705566,3.55017,0,0,0,0,0,0,0,-1,1189,1688,-0.705567,-3.55023
-28,-664,-1.54236,10.2538,0,0,0,0,0,0,0,-1,1196,1688,-1.54236,-10.2538
-21,-664,2.69373,6.93042,0,0,0,0,0,0,0,-1,1203,1688,2.69377,-6.93039
-14,-664,2.77905,6.88672,0,0,0,0,0,0,0,-1,1210,1688,2.77903,-6.88676
-7,-664,2.86426,6.84314,0,0,0,0,0,0,0,-1,1217,1688,2.86428,-6.84312
0,-664,2.75903,6.64258,0.0282914,-0.0400442,-0.0227711,0.035184,-0.0469368,-0.293926,0.0475741,0.0465375,1224,1688,2.75904,-6.64258
7,-664,3.03381,6.52625,0.0305977,-0.0414179,-0.0287479,0.040666,-0.0514861,-0.336876,0.0533261,0.0464352,1231,1688,3.03376,-6.52624
14,-664,2.80774,6.09021,0.0312061,-0.0423815,-0.033034,0.0438595,-0.055035,-0.365804,0.0572181,0.0480117,1238,1688,2.80778,-6.09024
21,-664,3.15161,5.98645,0,0,0,0,0,0,0,-1,1245,1688,3.15161,-5.98642
28,-664,6.55945,6.00891,0.0264925,-0.0400018,-0.0398734,0.0451613,-0.0586706,-0.437886,0.0601163,0.0454681,1252,1688,6.55939,-6.0089
35,-664,6.52161,5.05371,0.0222894,-0.0373897,-0.0423896,0.0442888,-0.0593891,-0.478717,0.0600698,0.0451469,1259,1688,6.52159,-5.05372
42,-664,6.85706,4.60669,0,0,0,0,0,0,0,-1,1266,1688,6.85711,-4.60673
49,-664,7.26855,3.62732,0.013378,-0.0332786,-0.0459367,0.0415704,-0.0614711,-0.55045,0.0598597,0.0437615,1273,1688,7.26851,-3.62729
56,-664,7.86243,2.88855,0.00811591,-0.0311868,-0.0474288,0.0398033,-0.0628742,-0.588997,0.0597776,0.0491098,1280,1688,7.86238,-2.88855
63,-664,8.42871,2.16772,0,0,0,0,0,0,0,-1,1287,1688,8.42875,-2.16777
70,-664,2.26892,5.79468,0,0,0,0,0,0,0,-1,1294,1688,2.26895,-5.79468
77,-664,2.32971,5.74805,-0.00565988,-0.0251522,-0.0467276,0.0323271,-0.0631392,-0.682585,0.0560663,0.0450401,1301,1688,2.32973,-5.74804
84,-664,2.3999,5.69812,-0.00654534,-0.0256265,-0.0444353,0.029362,-0.0615339,-0.67965,0.0535633,0.0464478,1308,1688,2.3999,-5.69816
91,-664,2.46008,5.64905,-0.00720538,-0.0280428,-0.0416913,0.0253493,-0.0605975,-0.662955,0.0509935,0.0437385,1315,1688,2.46005,-5.64899
98,-664,2.62219,5.68579,-0.00672362,-0.0300813,-0.0385619,0.0218892,-0.0586941,-0.638359,0.0481151,0.0474092,1322,1688,2.62217,-5.68573
105,-664,1.62085,4.84497,0,0,0,0,0,0,0,-1,1329,1688,1.62085,-4.84496
112,-664,0.630737,3.93982,0,0,0,0,0,0,0,-1,1336,1688,0.630786,-3.93988
119,-664,0.881958,3.48975,0,0,0,0,0,0,0,-1,1343,1688,0.881959,-3.48973
126,-664,1.15833,5.47192,0,0,0,0,0,0,0,-1,1350,1688,1.15836,-5.4719
133,-664,1.30664,5.3916,0.0060455,-0.0409034,-0.0162602,0.011127,-0.0459849,-0.302897,0.0349609,0.0482006,1357,1688,1.30661,-5.39157
140,-664,1.30872,5.42029,0.00750955,-0.0408594,-0.0118529,0.010258,-0.0436078,-0.22785,0.0330266,0.0469064,1364,1688,1.30875,-5.4203
147,-664,1.12646,5.6427,0,0,0,0,0,0,0,-1,1371,1688,1.1265,-5.64268
154,-664,4.09668,5.15845,0,0,0,0,0,0,0,-1,1378,1688,4.09668,-5.15847
161,-664,4.60132,1.56238,0,0,0,0,0,0,0,-1,1385,1688,4.60134,-1.56233
168,-664,5.172,1.25488,0,0,0,0,0,0,0,-1,1392,1688,5.17203,-1.25484
175,-664,5.58313,1.16467,0,0,0,0,0,0,0,-1,1399,1688,5.58317,-1.16466
182,-664,5.74268,1.41113,0,0,0,0,0,0,0,-1,1406,1688,5.74263,-1.41115
189,-664,5.87744,1.87061,0,0,0,0,0,0,0,-1,1413,1688,5.87745,-1.87065
196,-664,6.7594,5.97473,0,0,0,0,0,0,0,-1,1420,1688,6.75943,-5.97478
203,-664,5.38452,5.22034,0,0,0,0,0,0,0,-1,1427,1688,5.38453,-5.2203
210,-664,5.25549,6.45715,0,0,0,0,0,0,0,-1,1434,1688,5.25549,-6.45721
217,-664,5.72009,6.73975,0,0,0,0,0,0,0,-1,1441,1688,5.72014,-6.73972
224,-664,4.77527,3.86548,0,0,0,0,0,0,0,-1,1448,1688,4.77526,-3.86545
231,-664,4.7533,6.96094,0,0,0,0,0,0,0,-1,1455,1688,4.75325,-6.96096
238,-664,4.23193,6.45471,0,0,0,0,0,0,0,-1,1462,1688,4.23197,-6.45476
245,-664,4.31384,6.33643,0,0,0,0,0,0,0,-1,1469,1688,4.31386,-6.33646
252,-664,3.67664,6.63599,0,0,0,0,0,0,0,-1,1476,1688,3.67659,-6.63599
259,-664,3.78528,6.81799,0,0,0,0,0,0,0,-1,1483,1688,3.78528,-6.81801
266,-664,3.82605,6.92529,0.0140341,0.0116527,0.0143419,0.0272347,-0.00154788,0.743981,0.0186938,0.042583,1490,1688,3.82599,-6.92531
273,-664,3.56812,6.72498,0.0128459,0.0106066,0.0119109,0.0236897,-0.000237231,0.738534,0.0158728,0.03356,1497,1688,3.56807,-6.72497
280,-664,3.43103,6.58667,0.0114596,0.00952017,0.00939589,0.0199357,0.00104409,0.733977,0.0129565,0.0221037,1504,1688,3.43097,-6.58673
287,-664,3.43384,6.51672,0.00998415,0.00810352,0.00702926,0.0161357,0.00195196,0.718907,0.0101691,0.0191727,1511,1688,3.43385,-6.51675
294,-664,3.47766,6.47107,0.00823298,0.00701662,0.00507036,0.0127315,0.0025181,0.725709,0.00778525,0.013778,1518,1688,3.47761,-6.47106
301,-664,3.46802,6.41492,0.0065019,0.00594145,0.00338576,0.00961901,0.00282434,0.744109,0.00570905,0.00951509,1525,1688,3.46797,-6.41496
308,-664,3.4668,6.36536,0.00509261,0.00512125,0.00201227,0.00711925,0.00309461,0.788956,0.00412198,0.0100615,1532,1688,3.46676,-6.36538
315,-664,3.47302,6.30676,0.00396564,0.00433517,0.00100201,0.0051693,0.00313151,0.876571,0.00300668,0.0112714,1539,1688,3.47299,-6.30673
322,-664,3.49231,6.26831,0.00325793,0.00341923,0.000285738,0.00363548,0.00304168,0.922946,0.00225197,0.0141715,1546,1688,3.49226,-6.26834
329,-664,3.48596,6.21851,0.00250886,0.00254338,-0.000544331,0.00307073,0.00198152,-0.801249,0.00179766,0.016389,1553,1688,3.48598,-6.21855
336,-664,3.49011,6.15808,0.0019371,0.00182406,-0.000868201,0.00275062,0.00101054,-0.752895,0.00160658,0.014453,1560,1688,3.49016,-6.15805
343,-664,3.4978,6.11902,0.00206706,0.00161068,-0.000638069,0.00251652,0.00116123,-0.613673,0.00145435,0.01177,1567,1688,3.49782,-6.11902
350,-664,3.5033,6.04456,0.00229859,0.00167954,-6.61671e-05,0.00230559,0.00167255,-0.105299,0.00137549,0.0130752,1574,1688,3.50329,-6.04452
357,-664,3.49316,5.96899,0.00257338,0.00140957,0.000285128,0.00263949,0.00134347,0.227803,0.00152399,0.0123778,1581,1688,3.49322,-5.969
364,-664,3.48865,5.90491,0.00292286,0.00136373,0.000699755,0.00319085,0.00109573,0.36575,0.00187212,0.0103716,1588,1688,3.4887,-5.9049
371,-664,3.49658,5.85461,0.00331568,0.00149458,0.00132467,0.00401257,0.000797696,0.484297,0.00245277,0.0129912,1595,1688,3.49656,-5.85461
378,-664,3.48022,5.8031,0.00373194,0.00190572,0.00201773,0.00503355,0.000604108,0.572915,0.00317355,0.0125518,1602,1688,3.48023,-5.8031
385,-664,3.47363,5.74646,0.00408033,0.0025205,0.0026528,0.00606548,0.00053534,0.642428,0.00387755,0.0133728,1609,1688,3.47368,-5.74642
392,-664,3.45923,5.67981,0.0043654,0.00314095,0.00313058,0.00694306,0.0005633,0.688835,0.00445283,0.0162923,1616,1688,3.45925,-5.67979
399,-664,3.48792,5.6084,0.00433289,0.0038518,0.00348977,0.0075904,0.000594291,0.750988,0.00487426,0.0131844,1623,1688,3.48789,-5.60843
406,-664,3.50452,5.54749,0.00391051,0.00428538,0.00399076,0.0080931,0.000102789,0.808865,0.00536146,0.011492,1630,1688,3.50452,-5.54753
413,-664,3.50024,5.45496,0.00350737,0.00459133,0.00421921,0.00830322,-0.000204525,0.849276,0.0056049,0.0105632,1637,1688,3.50026,-5.45493
420,-664,3.51331,5.36499,0.00299324,0.00469152,0.00393475,0.00786771,-0.000182953,0.891671,0.00530718,0.0226193,1644,1688,3.51331,-5.36495
427,-664,3.58008,5.35864,0.00217096,0.00513701,0.00366869,0.00761108,-0.000303117,0.977475,0.00517805,0.0403393,1651,1688,3.58008,-5.35864
434,-664,3.60547,5.29419,0.000714818,0.00430613,0.00408483,0.00697256,-0.00195161,0.99248,0.00541738,0.0435924,1658,1688,3.6055,-5.29415
441,-664,3.62561,5.21716,-0.000342103,0.00263921,0.00308739,0.00457697,-0.00227986,1.0103,0.00403216,0.0477592,1665,1688,3.62562,-5.2171
448,-664,3.6062,4.87976,-0.00131678,-0.00151858,-3.40703e-05,-0.00131118,-0.00152418,-0.162817,0.000953088,0.0489372,1672,1688,3.60624,-4.87979
455,-664,3.64868,4.44287,0,0,0,0,0,0,0,-1,1679,1688,3.64869,-4.44282
462,-664,4.3147,4.25439,0,0,0,0,0,0,0,-1,1686,1688,4.31467,-4.25435
469,-664,2.29016,3.27161,0,0,0,0,0,0,0,-1,1693,1688,2.29013,-3.27159
476,-664,3.06445,3.58508,0,0,0,0,0,0,0,-1,1700,1688,3.06443,-3.58505
483,-664,2.83472,5.45288,0,0,0,0,0,0,0,-1,1707,1688,2.8347,-5.45294
490,-664,2.82837,5.25366,0,0,0,0,0,0,0,-1,1714,1688,2.82839,-5.2537
497,-664,0,0,0,0,0,0,0,0,0,-1,1721,1688,0,0
504,-664,0,0,0,0,0,0,0,0,0,-1,1728,1688,0,0
511,-664,0,0,0,0,0,0,0,0,0,-1,1735,1688,0,0
518,-664,0,0,0,0,0,0,0,0,0,-1,1742,1688,0,0
525,-664,0,0,0,0,0,0,0,0,0,-1,1749,1688,0,0
532,-664,0,0,0,0,0,0,0,0,0,-1,1756,1688,0,0
539,-664,0,0,0,0,0,0,0,0,0,-1,1763,1688,0,0
546,-664,0,0,0,0,0,0,0,0,0,-1,1770,1688,0,0
553,-664,0,0,0,0,0,0,0,0,0,-1,1777,1688,0,0
560,-664,0,0,0,0,0,0,0,0,0,-1,1784,1688,0,0
567,-664,0,0,0,0,0,0,0,0,0,-1,1791,1688,0,0
574,-664,0,0,0,0,0,0,0,0,0,-1,1798,1688,0,0
581,-664,0,0,0,0,0,0,0,0,0,-1,1805,1688,0,0
588,-664,0,0,0,0,0,0,0,0,0,-1,1812,1688,0,0
595,-664,0,0,0,0,0,0,0,0,0,-1,1819,1688,0,0
602,-664,0,0,0,0,0,0,0,0,0,-1,1826,1688,0,0
609,-664,0,0,0,0,0,0,0,0,0,-1,1833,1688,0,0
616,-664,0,0,0,0,0,0,0,0,0,-1,1840,1688,0,0
623,-664,0,0,0,0,0,0,0,0,0,-1,1847,1688,0,0
630,-664,0,0,0,0,0,0,0,0,0,-1,1854,1688,0,0
637,-664,0,0,0,0,0,0,0,0,0,-1,1861,1688,0,0
644,-664,0,0,0,0,0,0,0,0,0,-1,1868,1688,0,0
651,-664,0,0,0,0,0,0,0,0,0,-1,1875,1688,0,0
658,-664,0,0,0,0,0,0,0,0,0,-1,1882,1688,0,0
665,-664,0,0,0,0,0,0,0,0,0,-1,1889,1688,0,0
672,-664,0,0,0,0,0,0,0,0,0,-1,1896,1688,0,0
679,-664,0,0,0,0,0,0,0,0,0,-1,1903,1688,0,0
686,-664,0,0,0,0,0,0,0,0,0,-1,1910,1688,0,0
693,-664,0,0,0,0,0,0,0,0,0,-1,1917,1688,0,0
700,-664,0,0,0,0,0,0,0,0,0,-1,1924,1688,0,0
707,-664,0,0,0,0,0,0,0,0,0,-1,1931,1688,0,0
714,-664,0,0,0,0,0,0,0,0,0,-1,1938,1688,0,0
721,-664,0,0,0,0,0,0,0,0,0,-1,1945,1688,0,0
728,-664,0,0,0,0,0,0,0,0,0,-1,1952,1688,0,0
735,-664,0,0,0,0,0,0,0,0,0,-1,1959,1688,0,0
742,-664,0,0,0,0,0,0,0,0,0,-1,1966,1688,0,0
749,-664,0,0,0,0,0,0,0,0,0,-1,1973,1688,0,0
756,-664,0,0,0,0,0,0,0,0,0,-1,1980,1688,0,0
763,-664,0,0,0,0,0,0,0,0,0,-1,1987,1688,0,0
770,-664,0,0,0,0,0,0,0,0,0,-1,1994,1688,0,0
777,-664,0,0,0,0,0,0,0,0,0,-1,2001,1688,0,0
784,-664,0,0,0,0,0,0,0,0,0,-1,2008,1688,0,0
791,-664,0,0,0,0,0,0,0,0,0,-1,2015,1688,0,0
798,-664,0,0,0,0,0,0,0,0,0,-1,2022,1688,0,0
805,-664,0,0,0,0,0,0,0,0,0,-1,2029,1688,0,0
812,-664,0,0,0,0,0,0,0,0,0,-1,2036,1688,0,0
-700,-671,0,0,0,0,0,0,0,0,0,-1,524,1695,0,0
-693,-671,0,0,0,0,0,0,0,0,0,-1,531,1695,0,0
-686,-671,0,0,0,0,0,0,0,0,0,-1,538,1695,0,0
-679,-671,0,0,0,0,0,0,0,0,0,-1,545,1695,0,0
-672,-671,0,0,0,0,0,0,0,0,0,-1,552,1695,0,0
-665,-671,0,0,0,0,0,0,0,0,0,-1,559,1695,0,0
-658,-671,0,0,0,0,0,0,0,0,0,-1,566,1695,0,0
-651,-671,0,0,0,0,0,0,0,0,0,-1,573,1695,0,0
-644,-671,0,0,0,0,0,0,0,0,0,-1,580,1695,0,0
-637,-671,0,0,0,0,0,0,0,0,0,-1,587,1695,0,0
-630,-671,0,0,0,0,0,0,0,0,0,-1,594,1695,0,0
-623,-671,0,0,0,0,0,0,0,0,0,-1,601,1695,0,0
-616,-671,0,0,0,0,0,0,0,0,0,-1,608,1695,0,0
-609,-671,0,0,0,0,0,0,0,0,0,-1,615,1695,0,0
-602,-671,0,0,0,0,0,0,0,0,0,-1,622,1695,0,0
-595,-671,0,0,0,0,0,0,0,0,0,-1,629,1695,0,0
-588,-671,0,0,0,0,0,0,0,0,0,-1,636,1695,0,0
-581,-671,0,0,0,0,0,0,0,0,0,-1,643,1695,0,0
-574,-671,0,0,0,0,0,0,0,0,0,-1,650,1695,0,0
-567,-671,0,0,0,0,0,0,0,0,0,-1,657,1695,0,0
-560,-671,0,0,0,0,0,0,0,0,0,-1,664,1695,0,0
-553,-671,0,0,0,0,0,0,0,0,0,-1,671,1695,0,0
-546,-671,0,0,0,0,0,0,0,0,0,-1,678,1695,0,0
-539,-671,0,0,0,0,0,0,0,0,0,-1,685,1695,0,0
-532,-671,0,0,0,0,0,0,0,0,0,-1,692,1695,0,0
-525,-671,0,0,0,0,0,0,0,0,0,-1,699,1695,0,0
-518,-671,0,0,0,0,0,0,0,0,0,-1,706,1695,0,0
-511,-671,0,0,0,0,0,0,0,0,0,-1,713,1695,0,0
-504,-671,0,0,0,0,0,0,0,0,0,-1,720,1695,0,0
-497,-671,0,0,0,0,0,0,0,0,0,-1,727,1695,0,0
-490,-671,0,0,0,0,0,0,0,0,0,-1,734,1695,0,0
-483,-671,0,0,0,0,0,0,0,0,0,-1,741,1695,0,0
-476,-671,0,0,0,0,0,0,0,0,0,-1,748,1695,0,0
-469,-671,0,0,0,0,0,0,0,0,0,-1,755,1695,0,0
-462,-671,0,0,0,0,0,0,0,0,0,-1,762,1695,0,0
-455,-671,0,0,0,0,0,0,0,0,0,-1,769,1695,0,0
-448,-671,0,0,0,0,0,0,0,0,0,-1,776,1695,0,0
-441,-671,0,0,0,0,0,0,0,0,0,-1,783,1695,0,0
-434,-671,0,0,0,0,0,0,0,0,0,-1,790,1695,0,0
-427,-671,0,0,0,0,0,0,0,0,0,-1,797,1695,0,0
-420,-671,0,0,0,0,0,0,0,0,0,-1,804,1695,0,0
-413,-671,0,0,0,0,0,0,0,0,0,-1,811,1695,0,0
-406,-671,0,0,0,0,0,0,0,0,0,-1,818,1695,0,0
-399,-671,0,0,0,0,0,0,0,0,0,-1,825,1695,0,0
-392,-671,0,0,0,0,0,0,0,0,0,-1,832,1695,0,0
-385,-671,0,0,0,0,0,0,0,0,0,-1,839,1695,0,0
-378,-671,0,0,0,0,0,0,0,0,0,-1,846,1695,0,0
-371,-671,0,0,0,0,0,0,0,0,0,-1,853,1695,0,0
-364,-671,6.25177,10.848,0,0,0,0,0,0,0,-1,860,1695,6.2518,-10.848
-357,-671,5.60358,9.67224,0,0,0,0,0,0,0,-1,867,1695,5.60358,-9.67227
-350,-671,2.82806,-0.234741,0,0,0,0,0,0,0,-1,874,1695,2.82809,0.234764
-343,-671,2.32446,-0.643188,0,0,0,0,0,0,0,-1,881,1695,2.32445,0.643169
-336,-671,1.80682,0.715088,0,0,0,0,0,0,0,-1,888,1695,1.80685,-0.715035
-329,-671,1.28925,2.07324,0,0,0,0,0,0,0,-1,895,1695,1.28926,-2.07324
-322,-671,0.778442,2.5177,0,0,0,0,0,0,0,-1,902,1695,0.778424,-2.51769
-315,-671,1.60449,3.49487,0,0,0,0,0,0,0,-1,909,1695,1.60447,-3.49488
-308,-671,1.65131,4.84399,0,0,0,0,0,0,0,-1,916,1695,1.65131,-4.84403
-301,-671,2.12915,4.71204,-0.0113182,-0.0128441,-0.0174753,0.00541079,-0.029573,-0.763583,0.0217445,0.0471334,923,1695,2.12912,-4.712
-294,-671,2.70538,4.67627,-0.00520601,-0.00631574,-0.0180468,0.0122945,-0.0238162,-0.77003,0.0211993,0.0465226,930,1695,2.70538,-4.67626
-287,-671,3.0072,4.90662,6.14818e-05,-0.00093064,-0.0183062,0.0178783,-0.0187475,-0.771852,0.0211479,0.0424868,937,1695,3.00718,-4.90666
-280,-671,2.94098,4.97607,0.00371313,0.00296151,-0.0174202,0.0207616,-0.0140869,-0.774613,0.0202424,0.0365657,944,1695,2.94096,-4.97613
-273,-671,2.73993,5.18591,0.00522975,0.00489765,-0.0158263,0.0208909,-0.0107635,-0.780152,0.0185848,0.0332792,951,1695,2.73991,-5.18588
-266,-671,2.74097,5.29199,0.00580547,0.00569845,-0.0136351,0.0193871,-0.00788321,-0.783436,0.0162048,0.0237644,958,1695,2.74099,-5.29202
-259,-671,2.70398,5.37244,0.00648843,0.00658737,-0.0114644,0.0180024,-0.00492659,-0.787556,0.0139371,0.0200325,965,1695,2.70395,-5.37249
-252,-671,2.72125,5.45532,0.00607784,0.00625798,-0.0093834,0.0155517,-0.00321592,-0.790197,0.0115895,0.016744,972,1695,2.72125,-5.45534
-245,-671,2.70276,5.55078,0.00422691,0.00421625,-0.00728271,0.0115043,-0.00306112,-0.785032,0.0088678,0.0205179,979,1695,2.70278,-5.55081
-238,-671,2.74768,5.62036,0.00267307,0.00245164,-0.00566894,0.00823238,-0.00310767,-0.775634,0.00676636,0.0203536,986,1695,2.7477,-5.62034
-231,-671,2.73895,5.70032,0.00156046,0.00104514,-0.00437401,0.00568439,-0.00307879,-0.755978,0.00513343,0.0147645,993,1695,2.73897,-5.70033
-224,-671,2.71356,5.75098,0.000599069,-0.000511431,-0.00292836,0.00302435,-0.00293671,-0.691705,0.00344175,0.0120478,1000,1695,2.71355,-5.75103
-217,-671,2.72583,5.79333,-6.781e-05,-0.0015111,-0.0019992,0.001336,-0.00291492,-0.612193,0.00251007,0.0112771,1007,1695,2.72585,-5.79339
-210,-671,2.72107,5.85815,-0.000435741,-0.00211735,-0.00174528,0.00066071,-0.0032138,-0.560924,0.00239337,0.0104745,1014,1695,2.7211,-5.85813
-203,-671,2.70148,5.94434,-0.000797011,-0.00307295,-0.00159249,2.23139e-05,-0.00389228,-0.475174,0.00260232,0.0167042,1021,1695,2.70147,-5.94439
-196,-671,2.71289,5.99719,-0.000779911,-0.00374801,-0.00152631,-0.000135104,-0.00439282,-0.399718,0.00288456,0.0143632,1028,1695,2.71293,-5.99722
-189,-671,2.7334,6.06689,-0.000693915,-0.00419366,-0.00150106,-0.000138309,-0.00474927,-0.354506,0.0031211,0.0111471,1035,1695,2.73345,-6.06695
-182,-671,2.7085,6.11499,-0.000581883,-0.00471759,-0.00133301,-0.000189466,-0.00511,-0.286297,0.0033453,0.00948233,1042,1695,2.70854,-6.11494
-175,-671,2.71936,6.15381,-0.000269332,-0.00515689,-0.00109298,-3.60489e-05,-0.00539017,-0.210282,0.00358149,0.0126213,1049,1695,2.71934,-6.15378
-168,-671,2.72742,6.19666,3.74492e-05,-0.00545882,-0.000880948,0.000175196,-0.00559656,-0.155106,0.00379079,0.0135252,1056,1695,2.72742,-6.19663
-161,-671,2.72656,6.25769,0.00057772,-0.00581442,-0.000547341,0.000624249,-0.00586095,-0.0848046,0.00413113,0.00914324,1063,1695,2.72655,-6.25769
-154,-671,2.71802,6.31519,0.00115144,-0.00583527,-0.000238817,0.0011596,-0.00584343,-0.0341285,0.00433417,0.00816477,1070,1695,2.71799,-6.3152
-147,-671,2.7312,6.3949,0.00169175,-0.00593302,2.822e-05,0.00169185,-0.00593313,0.00370103,0.00462372,0.00954223,1077,1695,2.73115,-6.39495
-140,-671,2.74695,6.44348,0.00232637,-0.00595599,0.000223399,0.00233239,-0.00596201,0.0269467,0.00493925,0.0104859,1084,1695,2.74698,-6.44349
-133,-671,2.74829,6.48584,0.00312527,-0.00593004,0.000474256,0.00315004,-0.00595481,0.0521829,0.00533919,0.0107694,1091,1695,2.74831,-6.48581
-126,-671,2.76941,6.52307,0.00394578,-0.00582355,0.000785978,0.00400861,-0.00588638,0.07977,0.00574706,0.0125865,1098,1695,2.76946,-6.52302
-119,-671,2.80078,6.57043,0.00483441,-0.00558755,0.00112874,0.00495525,-0.0057084,0.106657,0.00616178,0.0252565,1105,1695,2.80077,-6.57045
-112,-671,2.81213,6.62439,0.00597252,-0.00699305,0.0027137,0.00651758,-0.00753811,0.198219,0.00812218,0.0326688,1112,1695,2.81218,-6.62437
-105,-671,2.84827,6.6521,0.00725631,-0.00967349,0.00648712,0.00945617,-0.0118734,0.326943,0.0123409,0.0350714,1119,1695,2.84823,-6.65209
-98,-671,2.79785,6.65796,0.00828064,-0.0122622,0.010425,0.0126442,-0.0166257,0.396409,0.016951,0.0324355,1126,1695,2.7979,-6.65798
-91,-671,2.76208,6.67737,0.00861385,-0.0156195,0.0140674,0.0150635,-0.0220691,0.429882,0.0215653,0.0340171,1133,1695,2.76213,-6.67742
-84,-671,2.89709,6.59766,0.00894115,-0.0195296,0.0179333,0.0176023,-0.0281907,0.449926,0.0266732,0.0405618,1140,1695,2.8971,-6.59768
-77,-671,3.01965,6.42517,0,0,0,0,0,0,0,-1,1147,1695,3.01971,-6.42518
-70,-671,2.89185,6.57935,0,0,0,0,0,0,0,-1,1154,1695,2.89191,-6.5794
-63,-671,2.94592,6.90198,0,0,0,0,0,0,0,-1,1161,1695,2.94594,-6.90198
-56,-671,-3.07678,2.87976,0,0,0,0,0,0,0,-1,1168,1695,-3.07675,-2.87979
-49,-671,-1.05957,4.76917,0,0,0,0,0,0,0,-1,1175,1695,-1.05958,-4.76921
-42,-671,0.539307,3.7865,0,0,0,0,0,0,0,-1,1182,1695,0.539266,-3.78648
-35,-671,-0.272461,0.347534,0,0,0,0,0,0,0,-1,1189,1695,-0.272434,-0.347569
-28,-671,-0.662964,5.40405,0,0,0,0,0,0,0,-1,1196,1695,-0.662966,-5.40405
-21,-671,2.7854,6.96753,0,0,0,0,0,0,0,-1,1203,1695,2.78541,-6.96753
-14,-671,2.87146,6.90576,0,0,0,0,0,0,0,-1,1210,1695,2.87142,-6.90574
-7,-671,2.9574,6.84399,0,0,0,0,0,0,0,-1,1217,1695,2.95743,-6.84395
0,-671,2.52991,6.50122,0.0240374,-0.0332471,-0.0189469,0.029737,-0.0389468,-0.29221,0.0397732,0.0486719,1224,1695,2.52995,-6.50126
7,-671,2.81934,6.32263,0.0257426,-0.0350794,-0.023347,0.0336711,-0.0430078,-0.327372,0.0443798,0.0476985,1231,1695,2.81931,-6.32268
14,-671,3.04285,6.10217,0.0261569,-0.0365208,-0.0264385,0.0358195,-0.0461833,-0.350393,0.0474702,0.0458647,1238,1695,3.04291,-6.10219
21,-671,3.94409,6.03308,0.0253165,-0.0369161,-0.0293605,0.0369818,-0.0485814,-0.378187,0.049551,0.0453279,1245,1695,3.94409,-6.03305
28,-671,3.65881,6.198,0,0,0,0,0,0,0,-1,1252,1695,3.65877,-6.19796
35,-671,6.87549,5.67102,0,0,0,0,0,0,0,-1,1259,1695,6.87549,-5.67102
42,-671,3.66968,7.57922,0,0,0,0,0,0,0,-1,1266,1695,3.66964,-7.5792
49,-671,7.93286,4.14783,0,0,0,0,0,0,0,-1,1273,1695,7.93284,-4.1478
56,-671,2.83142,6.04675,0,0,0,0,0,0,0,-1,1280,1695,2.83141,-6.04679
63,-671,3.01172,5.47864,0,0,0,0,0,0,0,-1,1287,1695,3.01177,-5.47869
70,-671,2.45654,6.24475,0,0,0,0,0,0,0,-1,1294,1695,2.45653,-6.24473
77,-671,2.53308,6.13367,-0.00412252,-0.0262203,-0.0396098,0.0259506,-0.0562934,-0.649384,0.0485488,0.0456844,1301,1695,2.53303,-6.13367
84,-671,2.61621,6.01379,-0.00490068,-0.0266127,-0.03799,0.023754,-0.0552674,-0.646227,0.0468167,0.0472337,1308,1695,2.61623,-6.01385
91,-671,2.61304,5.84692,-0.00543751,-0.0285354,-0.0358755,0.0207021,-0.054675,-0.629677,0.0449682,0.0437584,1315,1695,2.61308,-5.84693
98,-671,2.49475,5.58032,0,0,0,0,0,0,0,-1,1322,1695,2.49481,-5.58033
105,-671,2.28857,6.73157,0,0,0,0,0,0,0,-1,1329,1695,2.28857,-6.7316
112,-671,1.36255,3.93811,0,0,0,0,0,0,0,-1,1336,1695,1.3626,-3.9381
119,-671,1.59448,3.45129,0,0,0,0,0,0,0,-1,1343,1695,1.59446,-3.45129
126,-671,1.54675,6.16431,0,0,0,0,0,0,0,-1,1350,1695,1.54672,-6.16433
133,-671,1.7251,6.13843,0.00484369,-0.0368468,-0.016072,0.0103202,-0.0423233,-0.328407,0.0322114,0.0490848,1357,1695,1.72514,-6.13846
140,-671,1.86877,6.10156,0.00604904,-0.0363197,-0.0124498,0.00943653,-0.0397072,-0.26566,0.0301139,0.0486551,1364,1695,1.86884,-6.10158
147,-671,1.99622,6.05798,0,0,0,0,0,0,0,-1,1371,1695,1.99627,-6.05798
154,-671,3.51721,6.96313,0,0,0,0,0,0,0,-1,1378,1695,3.51723,-6.96316
161,-671,4.49292,4.91272,0,0,0,0,0,0,0,-1,1385,1695,4.49297,-4.91273
168,-671,5.17639,6.1416,0,0,0,0,0,0,0,-1,1392,1695,5.1764,-6.14164
175,-671,5.6731,1.64685,0,0,0,0,0,0,0,-1,1399,1695,5.67313,-1.64691
182,-671,5.56812,1.71692,0,0,0,0,0,0,0,-1,1406,1695,5.56809,-1.71686
189,-671,6.98315,6.36169,0,0,0,0,0,0,0,-1,1413,1695,6.98312,-6.36175
196,-671,5.38123,5.69775,0,0,0,0,0,0,0,-1,1420,1695,5.38125,-5.69769
203,-671,5.29065,6.4281,0,0,0,0,0,0,0,-1,1427,1695,5.29059,-6.42813
210,-671,3.60156,7.07556,0,0,0,0,0,0,0,-1,1434,1695,3.60151,-7.07552
217,-671,4.61353,6.84314,0,0,0,0,0,0,0,-1,1441,1695,4.61354,-6.84316
224,-671,4.67761,6.32275,0,0,0,0,0,0,0,-1,1448,1695,4.67757,-6.32274
231,-671,3.96021,6.9458,0.00333324,0.00750599,0.0125565,0.0181483,-0.00730905,0.867725,0.0151354,0.0497689,1455,1695,3.96016,-6.94585
238,-671,3.73389,6.7041,0.00445581,0.00728978,0.0119852,0.0179415,-0.00619588,0.844239,0.0144752,0.0493719,1462,1695,3.73387,-6.70415
245,-671,3.81177,6.57532,0,0,0,0,0,0,0,-1,1469,1695,3.81179,-6.57536
252,-671,3.5166,6.67053,0.00599815,0.006911,0.0100297,0.0164947,-0.00358551,0.808136,0.0123661,0.0482035,1476,1695,3.51663,-6.67054
259,-671,3.53955,6.73108,0.00609524,0.00651232,0.00897195,0.0152782,-0.00267059,0.797018,0.0111824,0.0329702,1483,1695,3.5396,-6.73114
266,-671,3.43445,6.66675,0.00567958,0.00598826,0.00772428,0.0135597,-0.0018919,0.795387,0.00973195,0.0149015,1490,1695,3.4345,-6.66672
273,-671,3.40601,6.62549,0.00544936,0.00555207,0.00620866,0.0117096,-0.000708153,0.789534,0.00805282,0.00908467,1497,1695,3.40595,-6.62545
280,-671,3.41028,6.58069,0.00511858,0.00520128,0.00471631,0.00987642,0.000443446,0.789782,0.00644155,0.00923032,1504,1695,3.41025,-6.58072
287,-671,3.41919,6.52319,0.00470145,0.0045113,0.00332404,0.00793178,0.00128097,0.771101,0.0049168,0.0110274,1511,1695,3.41917,-6.52318
294,-671,3.40381,6.44092,0.00404417,0.00411165,0.002239,0.00631716,0.00183866,0.792931,0.00375186,0.0108055,1518,1695,3.40375,-6.44094
301,-671,3.39148,6.39246,0.00338902,0.00369572,0.00133579,0.00488693,0.00219781,0.842549,0.00282622,0.0103511,1525,1695,3.39149,-6.39241
308,-671,3.41357,6.36157,0.00291055,0.00344236,0.000529837,0.00376927,0.00258364,1.01796,0.00222552,0.0114022,1532,1695,3.4136,-6.36158
315,-671,3.44275,6.31445,0.0025627,0.0031295,-1.49425e-05,0.00312989,0.00256231,-1.54446,0.00192549,0.0125478,1539,1695,3.44271,-6.31448
322,-671,3.44946,6.28064,0.00252299,0.00247149,-0.000412792,0.00291083,0.00208364,-0.754245,0.00173197,0.0143872,1546,1695,3.44948,-6.28061
329,-671,3.41113,6.22375,0.0026152,0.00200374,-0.000952931,0.00331024,0.0013087,-0.630169,0.00192507,0.0139407,1553,1695,3.41115,-6.22375
336,-671,3.4281,6.146,0.00264802,0.00146053,-0.0011439,0.00334309,0.000765461,-0.54601,0.00202245,0.0117371,1560,1695,3.42816,-6.14594
343,-671,3.42969,6.1001,0.00298207,0.00141232,-0.000851921,0.00335556,0.00103883,-0.413168,0.00198361,0.0103829,1567,1695,3.42973,-6.10005
350,-671,3.43225,6.0293,0.00338994,0.00179841,-5.28965e-05,0.0033917,0.00179665,-0.0331874,0.00195935,0.00988733,1574,1695,3.43225,-6.02933
357,-671,3.42969,5.9552,0.0038223,0.00172367,0.00044969,0.0039146,0.00163137,0.202439,0.00227052,0.00998794,1581,1695,3.42967,-5.95521
364,-671,3.42566,5.89941,0.00423456,0.00188263,0.00108177,0.00465645,0.00146074,0.371851,0.0027499,0.0121279,1588,1695,3.42568,-5.89939
371,-671,3.41187,5.86389,0.00460221,0.00223734,0.00200506,0.00574752,0.00109203,0.518982,0.00352452,0.013646,1595,1695,3.41181,-5.86384
378,-671,3.42285,5.81116,0.00495097,0.00293882,0.00306059,0.0071666,0.000723192,0.626602,0.00455585,0.0114159,1602,1695,3.42287,-5.8111
385,-671,3.41125,5.74561,0.00516777,0.00394438,0.00409599,0.00869749,0.000414664,0.711276,0.00566517,0.0131998,1609,1695,3.41129,-5.74555
392,-671,3.40784,5.67493,0.00527675,0.00490721,0.00503526,0.0101306,5.33247e-05,0.767059,0.00673605,0.0172064,1616,1695,3.40781,-5.67496
399,-671,3.42322,5.61011,0.00503525,0.00597236,0.00584829,0.0113708,-0.00036323,0.825372,0.00770449,0.0131807,1623,1695,3.42317,-5.61008
406,-671,3.43335,5.54602,0.00428455,0.00674979,0.00687351,0.0125003,-0.00146599,0.87412,0.00886272,0.0174243,1630,1695,3.43333,-5.54607
413,-671,3.43689,5.48328,0.00355656,0.00733949,0.0076616,0.0133397,-0.0024436,0.906416,0.00980962,0.0258256,1637,1695,3.43683,-5.48325
420,-671,3.44006,5.43616,0.00282123,0.00769232,0.00771888,0.0133508,-0.00283723,0.93822,0.00998159,0.0402474,1644,1695,3.44009,-5.43613
427,-671,3.61023,5.50317,0,0,0,0,0,0,0,-1,1651,1695,3.6102,-5.50316
434,-671,3.6571,5.45398,0,0,0,0,0,0,0,-1,1658,1695,3.65708,-5.45395
441,-671,3.68713,5.43896,0,0,0,0,0,0,0,-1,1665,1695,3.68712,-5.43895
448,-671,3.78845,5.10242,0,0,0,0,0,0,0,-1,1672,1695,3.78846,-5.10243
455,-671,3.8064,4.61646,0,0,0,0,0,0,0,-1,1679,1695,3.80638,-4.61644
462,-671,5.86255,4.47961,0,0,0,0,0,0,0,-1,1686,1695,5.8625,-4.4796
469,-671,3.71301,3.76978,0,0,0,0,0,0,0,-1,1693,1695,3.71297,-3.76974
476,-671,3.75574,3.18848,0,0,0,0,0,0,0,-1,1700,1695,3.7558,-3.18847
483,-671,3.56714,2.76868,0,0,0,0,0,0,0,-1,1707,1695,3.56713,-2.7687
490,-671,0,0,0,0,0,0,0,0,0,-1,1714,1695,0,0
497,-671,0,0,0,0,0,0,0,0,0,-1,1721,1695,0,0
504,-671,0,0,0,0,0,0,0,0,0,-1,1728,1695,0,0
511,-671,0,0,0,0,0,0,0,0,0,-1,1735,1695,0,0
518,-671,0,0,0,0,0,0,0,0,0,-1,1742,1695,0,0
525,-671,0,0,0,0,0,0,0,0,0,-1,1749,1695,0,0
532,-671,0,0,0,0,0,0,0,0,0,-1,1756,1695,0,0
539,-671,0,0,0,0,0,0,0,0,0,-1,1763,1695,0,0
546,-671,0,0,0,0,0,0,0,0,0,-1,1770,1695,0,0
553,-671,0,0,0,0,0,0,0,0,0,-1,1777,1695,0,0
560,-671,0,0,0,0,0,0,0,0,0,-1,1784,1695,0,0
567,-671,0,0,0,0,0,0,0,0,0,-1,1791,1695,0,0
574,-671,0,0,0,0,0,0,0,0,0,-1,1798,1695,0,0
581,-671,0,0,0,0,0,0,0,0,0,-1,1805,1695,0,0
588,-671,0,0,0,0,0,0,0,0,0,-1,1812,1695,0,0
595,-671,0,0,0,0,0,0,0,0,0,-1,1819,1695,0,0
602,-671,0,0,0,0,0,0,0,0,0,-1,1826,1695,0,0
609,-671,0,0,0,0,0,0,0,0,0,-1,1833,1695,0,0
616,-671,0,0,0,0,0,0,0,0,0,-1,1840,1695,0,0
623,-671,0,0,0,0,0,0,0,0,0,-1,1847,1695,0,0
630,-671,0,0,0,0,0,0,0,0,0,-1,1854,1695,0,0
637,-671,0,0,0,0,0,0,0,0,0,-1,1861,1695,0,0
644,-671,0,0,0,0,0,0,0,0,0,-1,1868,1695,0,0
651,-671,0,0,0,0,0,0,0,0,0,-1,1875,1695,0,0
658,-671,0,0,0,0,0,0,0,0,0,-1,1882,1695,0,0
665,-671,0,0,0,0,0,0,0,0,0,-1,1889,1695,0,0
672,-671,0,0,0,0,0,0,0,0,0,-1,1896,1695,0,0
679,-671,0,0,0,0,0,0,0,0,0,-1,1903,1695,0,0
686,-671,0,0,0,0,0,0,0,0,0,-1,1910,1695,0,0
693,-671,0,0,0,0,0,0,0,0,0,-1,1917,1695,0,0
700,-671,0,0,0,0,0,0,0,0,0,-1,1924,1695,0,0
707,-671,0,0,0,0,0,0,0,0,0,-1,1931,1695,0,0
714,-671,0,0,0,0,0,0,0,0,0,-1,1938,1695,0,0
721,-671,0,0,0,0,0,0,0,0,0,-1,1945,1695,0,0
728,-671,0,0,0,0,0,0,0,0,0,-1,1952,1695,0,0
735,-671,0,0,0,0,0,0,0,0,0,-1,1959,1695,0,0
742,-671,0,0,0,0,0,0,0,0,0,-1,1966,1695,0,0
749,-671,0,0,0,0,0,0,0,0,0,-1,1973,1695,0,0
756,-671,0,0,0,0,0,0,0,0,0,-1,1980,1695,0,0
763,-671,0,0,0,0,0,0,0,0,0,-1,1987,1695,0,0
770,-671,0,0,0,0,0,0,0,0,0,-1,1994,1695,0,0
777,-671,0,0,0,0,0,0,0,0,0,-1,2001,1695,0,0
784,-671,0,0,0,0,0,0,0,0,0,-1,2008,1695,0,0
791,-671,0,0,0,0,0,0,0,0,0,-1,2015,1695,0,0
798,-671,0,0,0,0,0,0,0,0,0,-1,2022,1695,0,0
805,-671,0,0,0,0,0,0,0,0,0,-1,2029,1695,0,0
812,-671,0,0,0,0,0,0,0,0,0,-1,2036,1695,0,0
-700,-678,0,0,0,0,0,0,0,0,0,-1,524,1702,0,0
-693,-678,0,0,0,0,0,0,0,0,0,-1,531,1702,0,0
-686,-678,0,0,0,0,0,0,0,0,0,-1,538,1702,0,0
-679,-678,0,0,0,0,0,0,0,0,0,-1,545,1702,0,0
-672,-678,0,0,0,0,0,0,0,0,0,-1,552,1702,0,0
-665,-678,0,0,0,0,0,0,0,0,0,-1,559,1702,0,0
-658,-678,0,0,0,0,0,0,0,0,0,-1,566,1702,0,0
-651,-678,0,0,0,0,0,0,0,0,0,-1,573,1702,0,0
-644,-678,0,0,0,0,0,0,0,0,0,-1,580,1702,0,0
-637,-678,0,0,0,0,0,0,0,0,0,-1,587,1702,0,0
-630,-678,0,0,0,0,0,0,0,0,0,-1,594,1702,0,0
-623,-678,0,0,0,0,0,0,0,0,0,-1,601,1702,0,0
-616,-678,0,0,0,0,0,0,0,0,0,-1,608,1702,0,0
-609,-678,0,0,0,0,0,0,0,0,0,-1,615,1702,0,0
-602,-678,0,0,0,0,0,0,0,0,0,-1,622,1702,0,0
-595,-678,0,0,0,0,0,0,0,0,0,-1,629,1702,0,0
-588,-678,0,0,0,0,0,0,0,0,0,-1,636,1702,0,0
-581,-678,0,0,0,0,0,0,0,0,0,-1,643,1702,0,0
-574,-678,0,0,0,0,0,0,0,0,0,-1,650,1702,0,0
-567,-678,0,0,0,0,0,0,0,0,0,-1,657,1702,0,0
-560,-678,0,0,0,0,0,0,0,0,0,-1,664,1702,0,0
-553,-678,0,0,0,0,0,0,0,0,0,-1,671,1702,0,0
-546,-678,0,0,0,0,0,0,0,0,0,-1,678,1702,0,0
-539,-678,0,0,0,0,0,0,0,0,0,-1,685,1702,0,0
-532,-678,0,0,0,0,0,0,0,0,0,-1,692,1702,0,0
-525,-678,0,0,0,0,0,0,0,0,0,-1,699,1702,0,0
-518,-678,0,0,0,0,0,0,0,0,0,-1,706,1702,0,0
-511,-678,0,0,0,0,0,0,0,0,0,-1,713,1702,0,0
-504,-678,0,0,0,0,0,0,0,0,0,-1,720,1702,0,0
-497,-678,0,0,0,0,0,0,0,0,0,-1,727,1702,0,0
-490,-678,0,0,0,0,0,0,0,0,0,-1,734,1702,0,0
-483,-678,0,0,0,0,0,0,0,0,0,-1,741,1702,0,0
-476,-678,0,0,0,0,0,0,0,0,0,-1,748,1702,0,0
-469,-678,0,0,0,0,0,0,0,0,0,-1,755,1702,0,0
-462,-678,0,0,0,0,0,0,0,0,0,-1,762,1702,0,0
-455,-678,0,0,0,0,0,0,0,0,0,-1,769,1702,0,0
-448,-678,0,0,0,0,0,0,0,0,0,-1,776,1702,0,0
-441,-678,0,0,0,0,0,0,0,0,0,-1,783,1702,0,0
-434,-678,0,0,0,0,0,0,0,0,0,-1,790,1702,0,0
-427,-678,0,0,0,0,0,0,0,0,0,-1,797,1702,0,0
-420,-678,0,0,0,0,0,0,0,0,0,-1,804,1702,0,0
-413,-678,0,0,0,0,0,0,0,0,0,-1,811,1702,0,0
-406,-678,0,0,0,0,0,0,0,0,0,-1,818,1702,0,0
-399,-678,0,0,0,0,0,0,0,0,0,-1,825,1702,0,0
-392,-678,0,0,0,0,0,0,0,0,0,-1,832,1702,0,0
-385,-678,0,0,0,0,0,0,0,0,0,-1,839,1702,0,0
-378,-678,0,0,0,0,0,0,0,0,0,-1,846,1702,0,0
-371,-678,0,0,0,0,0,0,0,0,0,-1,853,1702,0,0
-364,-678,0,0,0,0,0,0,0,0,0,-1,860,1702,0,0
-357,-678,0,0,0,0,0,0,0,0,0,-1,867,1702,0,0
-350,-678,4.31891,-0.892944,0,0,0,0,0,0,0,-1,874,1702,4.31891,0.892902
-343,-678,3.88971,-0.0992432,-0.0727772,-0.0465347,-0.0019518,-0.0463903,-0.0729216,-1.49696,0.0426185,0.0482457,881,1702,3.88969,0.0992824
-336,-678,3.34833,0.855591,-0.0691777,-0.052402,-0.00608503,-0.0504273,-0.0711525,-1.25699,0.0422561,0.0418276,888,1702,3.34833,-0.855533
-329,-678,2.69836,1.91248,0,0,0,0,0,0,0,-1,895,1702,2.69837,-1.91252
-322,-678,2.14587,2.8689,0,0,0,0,0,0,0,-1,902,1702,2.14587,-2.8689
-315,-678,1.72571,3.67017,0,0,0,0,0,0,0,-1,909,1702,1.72573,-3.67017
-308,-678,1.87579,4.46008,0,0,0,0,0,0,0,-1,916,1702,1.87579,-4.46003
-301,-678,2.38629,4.29443,0,0,0,0,0,0,0,-1,923,1702,2.38628,-4.29441
-294,-678,3.00446,4.36047,0,0,0,0,0,0,0,-1,930,1702,3.00443,-4.3605
-287,-678,3.27228,4.74915,0,0,0,0,0,0,0,-1,937,1702,3.27228,-4.74909
-280,-678,3.2182,4.83447,0.00528274,0.00332379,-0.0246699,0.0289926,-0.0203861,-0.765557,0.0286528,0.0483771,944,1702,3.21821,-4.8345
-273,-678,2.92847,5.18262,0.00747307,0.00634062,-0.0224387,0.0293527,-0.015539,-0.772784,0.0263241,0.0448911,951,1702,2.92847,-5.18266
-266,-678,2.7002,5.40051,0.0082666,0.0075342,-0.019386,0.0272899,-0.0114891,-0.775954,0.0230002,0.0346038,958,1702,2.70017,-5.40046
-259,-678,2.72925,5.39099,0.00906941,0.00875368,-0.0165063,0.0254186,-0.00759552,-0.780616,0.0199651,0.0211438,965,1702,2.72923,-5.39094
-252,-678,2.7627,5.44385,0.00822524,0.00833615,-0.0136084,0.0218892,-0.00532784,-0.787436,0.0166553,0.0174794,972,1702,2.76272,-5.44388
-245,-678,2.78723,5.5426,0.00543801,0.00551457,-0.0105737,0.01605,-0.00509745,-0.787208,0.0127437,0.0176696,979,1702,2.78723,-5.54257
-238,-678,2.79877,5.60425,0.002971,0.00311025,-0.00822402,0.0112649,-0.00518369,-0.789631,0.00971055,0.0146294,986,1702,2.79874,-5.60422
-231,-678,2.77936,5.68201,0.00105505,0.00124687,-0.0063138,0.00746548,-0.00516357,-0.792993,0.00733165,0.0130617,993,1702,2.77936,-5.682
-224,-678,2.76202,5.73486,-0.000634558,-0.000701335,-0.00421197,0.00354416,-0.00488005,-0.781435,0.00488406,0.0133172,1000,1702,2.76205,-5.73483
-217,-678,2.7829,5.79138,-0.00181322,-0.00183384,-0.00283477,0.00101125,-0.00465831,-0.783579,0.00349178,0.0128813,1007,1702,2.78292,-5.79133
-210,-678,2.79047,5.88025,-0.00242129,-0.00234062,-0.00239612,1.55077e-05,-0.00477741,-0.793815,0.00319012,0.0128276,1014,1702,2.79047,-5.88021
-203,-678,2.76147,5.94055,-0.00287439,-0.00313395,-0.00205625,-0.000943833,-0.00506452,-0.753883,0.00310985,0.016733,1021,1702,2.76148,-5.94061
-196,-678,2.76111,5.9939,-0.00275536,-0.0034297,-0.00188268,-0.0011799,-0.00500516,-0.696792,0.00302127,0.0172001,1028,1702,2.76116,-5.9939
-189,-678,2.77246,6.06213,-0.00247115,-0.00351287,-0.00175447,-0.00116186,-0.00482216,-0.641105,0.00290597,0.0100933,1035,1702,2.77249,-6.06208
-182,-678,2.78735,6.11877,-0.00206197,-0.00357388,-0.00148849,-0.00114847,-0.00448738,-0.550438,0.00269171,0.00963406,1042,1702,2.78733,-6.11875
-175,-678,2.7843,6.1853,-0.00141857,-0.00356961,-0.00119618,-0.000885491,-0.00410269,-0.419232,0.00249295,0.0104092,1049,1702,2.78425,-6.18527
-168,-678,2.78125,6.24243,-0.000771307,-0.00349596,-0.000932642,-0.000482648,-0.00378462,-0.300156,0.00237858,0.00985264,1056,1702,2.7812,-6.24243
-161,-678,2.77051,6.28455,2.96471e-05,-0.0034705,-0.000609185,0.000132642,-0.0035735,-0.167487,0.00242775,0.00880248,1063,1702,2.77055,-6.28449
-154,-678,2.76501,6.32739,0.000879562,-0.00317193,-0.000316802,0.000904184,-0.00319655,-0.0775657,0.00248782,0.00791137,1070,1702,2.76499,-6.32745
-147,-678,2.78394,6.37292,0.00169446,-0.00303787,-0.000126186,0.00169782,-0.00304123,-0.0266395,0.00277249,0.00936346,1077,1702,2.78395,-6.37289
-140,-678,2.79333,6.43103,0.00239029,-0.00288747,-3.53671e-05,0.00239053,-0.00288771,-0.00670076,0.0030519,0.0107622,1084,1702,2.79328,-6.43102
-133,-678,2.79309,6.4873,0.00313811,-0.00276717,0.000110476,0.00314017,-0.00276923,0.0186993,0.00341404,0.0107167,1091,1702,2.7931,-6.48728
-126,-678,2.80103,6.53296,0.00381766,-0.00262163,0.000288084,0.00383052,-0.00263449,0.0446197,0.00375381,0.00813054,1098,1702,2.80103,-6.53295
-119,-678,2.81116,6.58887,0.00448209,-0.00245397,0.000542435,0.00452425,-0.00249613,0.0775766,0.00410921,0.0160166,1105,1702,2.81115,-6.58884
-112,-678,2.82617,6.62976,0.00515165,-0.00313611,0.00149027,0.00541148,-0.00339594,0.172614,0.00512916,0.0229523,1112,1702,2.82623,-6.62971
-105,-678,2.83923,6.6759,0.00579648,-0.0044989,0.00393828,0.0071302,-0.00583263,0.326534,0.00749658,0.0233009,1119,1702,2.83924,-6.67596
-98,-678,2.83521,6.68054,0.00630707,-0.00567986,0.0066048,0.0092324,-0.00860519,0.416943,0.0103007,0.0163082,1126,1702,2.83514,-6.68053
-91,-678,2.86877,6.72742,0.0064982,-0.00740174,0.0091707,0.0110549,-0.0119585,0.461147,0.0132902,0.0160657,1133,1702,2.86872,-6.72743
-84,-678,2.87415,6.73181,0.00664688,-0.00960922,0.01205,0.0130539,-0.0160162,0.488686,0.0168127,0.0240445,1140,1702,2.87409,-6.73175
-77,-678,2.86279,6.70801,0.00669208,-0.0113815,0.0148202,0.0150134,-0.0197028,0.511615,0.0201043,0.0327044,1147,1702,2.86276,-6.70797
-70,-678,2.953,6.84839,0.00671865,-0.0131513,0.0172611,0.0166998,-0.0231324,0.524267,0.0230969,0.0345087,1154,1702,2.95296,-6.84843
-63,-678,3.08875,7.1217,0,0,0,0,0,0,0,-1,1161,1702,3.08878,-7.1217
-56,-678,1.72388,6.13159,0,0,0,0,0,0,0,-1,1168,1702,1.72388,-6.13157
-49,-678,-0.241699,5.29895,0,0,0,0,0,0,0,-1,1175,1702,-0.241682,-5.29897
-42,-678,0.297119,3.90649,0,0,0,0,0,0,0,-1,1182,1702,0.297139,-3.90655
-35,-678,0.498413,3.64038,0,0,0,0,0,0,0,-1,1189,1702,0.498471,-3.64038
-28,-678,0.132446,3.55994,0,0,0,0,0,0,0,-1,1196,1702,0.132432,-3.55993
-21,-678,2.82971,6.95105,0,0,0,0,0,0,0,-1,1203,1702,2.82975,-6.95102
-14,-678,2.91772,6.92859,0.0161591,-0.0229481,-0.00728696,0.0174728,-0.0242618,-0.178361,0.0242015,0.0421543,1210,1702,2.91772,-6.92854
-7,-678,2.74353,6.7948,0.0181194,-0.0248037,-0.011315,0.0209195,-0.0276038,-0.242595,0.0281034,0.0446023,1217,1702,2.74351,-6.79485
0,-678,2.80164,6.62451,0.0198778,-0.0267173,-0.0155542,0.0245929,-0.0314324,-0.294336,0.0324265,0.047419,1224,1702,2.80168,-6.62456
7,-678,2.93445,6.46765,0.0209975,-0.02891,-0.0184371,0.0270698,-0.0349823,-0.318164,0.0359228,0.0468639,1231,1702,2.93451,-6.46766
14,-678,3.07605,6.23694,0.0211793,-0.0306077,-0.0204374,0.0282731,-0.0377015,-0.334087,0.0382199,0.0459274,1238,1702,3.07609,-6.23693
21,-678,3.1825,6.38013,0.0206327,-0.0314074,-0.0226322,0.0290983,-0.039873,-0.357938,0.0399822,0.0450655,1245,1702,3.18246,-6.38009
28,-678,3.26599,6.55334,0.0186909,-0.0311269,-0.024809,0.0289379,-0.0413739,-0.391695,0.0408057,0.0454363,1252,1702,3.26598,-6.55336
35,-678,3.30798,6.73389,0,0,0,0,0,0,0,-1,1259,1702,3.30795,-6.73385
42,-678,3,7.11255,0,0,0,0,0,0,0,-1,1266,1702,3.00004,-7.11257
49,-678,3.09363,7.07092,0,0,0,0,0,0,0,-1,1273,1702,3.09359,-7.07087
56,-678,2.86975,6.43225,0.00662556,-0.02813,-0.031502,0.025225,-0.0467294,-0.533347,0.0421568,0.0492877,1280,1702,2.86973,-6.43219
63,-678,2.86365,6.17297,0.00238561,-0.0272396,-0.0326996,0.0234712,-0.0483252,-0.572729,0.0422714,0.0470829,1287,1702,2.86367,-6.17296
70,-678,2.99243,6.12964,0,0,0,0,0,0,0,-1,1294,1702,2.99248,-6.12961
77,-678,2.77161,6.35095,0,0,0,0,0,0,0,-1,1301,1702,2.7716,-6.35092
84,-678,2.81213,6.35242,-0.00345803,-0.0258968,-0.0317333,0.0189808,-0.0483356,-0.61548,0.040078,0.0458532,1308,1702,2.8121,-6.35241
91,-678,2.77405,5.82532,-0.00378066,-0.0273955,-0.0302349,0.0168706,-0.0480467,-0.599244,0.0388941,0.0434033,1315,1702,2.77406,-5.82534
98,-678,2.33081,5.58496,-0.00360457,-0.0284861,-0.0286487,0.015188,-0.0472787,-0.580558,0.0376181,0.0401583,1322,1702,2.33079,-5.58495
105,-678,2.28589,6.8418,0,0,0,0,0,0,0,-1,1329,1702,2.28584,-6.84179
112,-678,2.83838,6.14807,0,0,0,0,0,0,0,-1,1336,1702,2.83844,-6.14803
119,-678,1.89246,6.26965,0,0,0,0,0,0,0,-1,1343,1702,1.89246,-6.26966
126,-678,2.03235,6.42664,0.00285437,-0.032517,-0.0185076,0.0107678,-0.0404305,-0.404052,0.0311692,0.0441938,1350,1702,2.03239,-6.42669
133,-678,2.27161,6.40088,0.00473286,-0.0324208,-0.015381,0.0102739,-0.0379618,-0.345781,0.0293384,0.0478809,1357,1702,2.27164,-6.40091
140,-678,3.30347,7.02893,0,0,0,0,0,0,0,-1,1364,1702,3.30341,-7.02893
147,-678,3.56958,6.50891,0,0,0,0,0,0,0,-1,1371,1702,3.5696,-6.50891
154,-678,3.77197,7.3291,0,0,0,0,0,0,0,-1,1378,1702,3.77199,-7.3291
161,-678,3.44202,4.53992,0,0,0,0,0,0,0,-1,1385,1702,3.442,-4.53996
168,-678,4.21863,5.25781,0,0,0,0,0,0,0,-1,1392,1702,4.21865,-5.25781
175,-678,5.21899,5.9635,0,0,0,0,0,0,0,-1,1399,1702,5.21894,-5.96346
182,-678,7.31262,6.75122,0,0,0,0,0,0,0,-1,1406,1702,7.3126,-6.75123
189,-678,5.96021,6.36853,0,0,0,0,0,0,0,-1,1413,1702,5.96018,-6.36851
196,-678,4.26184,7.22961,0,0,0,0,0,0,0,-1,1420,1702,4.26181,-7.2296
203,-678,3.35352,7.14624,0,0,0,0,0,0,0,-1,1427,1702,3.35349,-7.14621
210,-678,3.47388,7.03406,-0.00147839,0.00317112,0.00806785,0.00924248,-0.00754975,0.925673,0.0097114,0.0439186,1434,1702,3.47389,-7.03402
217,-678,3.69238,6.83801,-0.00244767,0.00317989,0.00796309,0.00881171,-0.00807949,0.955227,0.00975519,0.0393905,1441,1702,3.69242,-6.83802
224,-678,3.43396,6.70715,-0.00204481,0.00350142,0.00799996,0.00919527,-0.00773867,0.952238,0.00978886,0.0307726,1448,1702,3.43402,-6.7071
231,-678,3.31482,6.78308,-0.000958559,0.00345889,0.00756581,0.00913179,-0.00663146,0.927419,0.009139,0.0243048,1455,1702,3.31484,-6.78307
238,-678,3.35217,6.78845,-0.000549173,0.00313386,0.00698915,0.00852003,-0.00593534,0.914212,0.00839016,0.0198504,1462,1702,3.35212,-6.78842
245,-678,3.35913,6.75586,0,0,0,0,0,0,0,-1,1469,1702,3.35909,-6.7559
252,-678,3.36279,6.70361,0.000387446,0.00285411,0.00546635,0.00722454,-0.00398298,0.896352,0.00656026,0.0154843,1476,1702,3.36281,-6.70362
259,-678,3.35767,6.6947,0.000658281,0.0026567,0.00472239,0.00648443,-0.00316945,0.889655,0.00568215,0.0124852,1483,1702,3.35764,-6.69471
266,-678,3.36804,6.66394,0.000690848,0.00244194,0.00389574,0.0055593,-0.00242652,0.895934,0.0047274,0.0103492,1490,1702,3.36801,-6.66389
273,-678,3.35742,6.61047,0.000968393,0.00239948,0.00287621,0.00464782,-0.00127995,0.907313,0.00360182,0.0103567,1497,1702,3.35736,-6.61047
280,-678,3.34839,6.56921,0.00121048,0.00240696,0.0020408,0.0039354,-0.000317956,0.927975,0.00273575,0.0112832,1504,1702,3.34841,-6.56921
287,-678,3.37622,6.5166,0.00137391,0.00211126,0.00129532,0.00308935,0.000395819,0.924041,0.00194113,0.0113218,1511,1702,3.3762,-6.51664
294,-678,3.36023,6.44849,0.00138221,0.00207336,0.000788929,0.00258908,0.000866488,0.991827,0.0015218,0.0117684,1518,1702,3.36025,-6.44854
301,-678,3.33936,6.39783,0.00143908,0.00202491,0.000412748,0.00223812,0.00122587,1.09399,0.00129414,0.01192,1525,1702,3.33934,-6.39782
308,-678,3.36328,6.35632,0.00156885,0.00208904,-1.97606e-05,0.00208979,0.0015681,-1.53288,0.00125595,0.0135232,1532,1702,3.36326,-6.35637
315,-678,3.39221,6.32764,0.00170387,0.00204483,-0.000158085,0.00210685,0.00164185,-1.19695,0.00127808,0.0140085,1539,1702,3.39218,-6.32766
322,-678,3.37378,6.29407,0.00208646,0.00149654,-0.000207176,0.00215195,0.00143105,-0.306165,0.00126478,0.016225,1546,1702,3.37383,-6.29411
329,-678,3.36353,6.21704,0.00277304,0.00126617,-0.000511972,0.00293053,0.00110868,-0.298423,0.00170856,0.0151232,1553,1702,3.36348,-6.21701
336,-678,3.35925,6.13733,0.00319511,0.00077238,-0.000494819,0.00329228,0.000675215,-0.193898,0.00200798,0.0131258,1560,1702,3.3593,-6.13739
343,-678,3.35339,6.09741,0.00364452,0.000867217,5.37024e-06,0.00364453,0.000867207,0.00193361,0.00219839,0.0110757,1567,1702,3.35338,-6.0974
350,-678,3.35315,6.03967,0.0041586,0.00157983,0.00115712,0.00460168,0.00113675,0.365694,0.00276781,0.010086,1574,1702,3.35316,-6.03962
357,-678,3.38367,5.9729,0.00470973,0.00171498,0.00193613,0.00565995,0.000764756,0.456247,0.00354598,0.00854563,1581,1702,3.38362,-5.97295
364,-678,3.37537,5.91199,0.0051809,0.00211746,0.00290897,0.00693678,0.000361584,0.543067,0.00450883,0.0113154,1588,1702,3.3754,-5.91204
371,-678,3.35229,5.87048,0.00554683,0.0027707,0.00425645,0.00863583,-0.000318302,0.627781,0.0058662,0.0123362,1595,1702,3.35227,-5.87052
378,-678,3.36133,5.79565,0.00584582,0.00388765,0.00578887,0.0107378,-0.00100435,0.701625,0.00751573,0.0125624,1602,1702,3.36136,-5.79562
385,-678,3.35913,5.74731,0.00594177,0.0054209,0.007388,0.0130739,-0.00171125,0.76778,0.00933878,0.0132197,1609,1702,3.35911,-5.74728
392,-678,3.39758,5.73718,0.00585407,0.00685435,0.0089816,0.0153497,-0.00264131,0.813212,0.0112177,0.0219488,1616,1702,3.39758,-5.73713
399,-678,3.48108,5.68896,0.00538728,0.00843377,0.0104183,0.0174396,-0.00361854,0.857988,0.0130015,0.0315077,1623,1702,3.48105,-5.68898
406,-678,3.49414,5.65039,0.00432554,0.00974331,0.0120812,0.0194156,-0.00534679,0.895685,0.0150461,0.0375794,1630,1702,3.49413,-5.65043
413,-678,3.57092,5.48181,0.00322702,0.0108196,0.0135027,0.0210495,-0.00700292,0.922435,0.0168593,0.0399422,1637,1702,3.57095,-5.48177
420,-678,3.73035,5.3053,0,0,0,0,0,0,0,-1,1644,1702,3.73038,-5.30527
427,-678,4.02002,5.21045,0,0,0,0,0,0,0,-1,1651,1702,4.02002,-5.2104
434,-678,4.64587,5.0022,0,0,0,0,0,0,0,-1,1658,1702,4.64582,-5.00218
441,-678,4.60205,5.04224,0,0,0,0,0,0,0,-1,1665,1702,4.60203,-5.04221
448,-678,3.95471,5.38159,0,0,0,0,0,0,0,-1,1672,1702,3.95466,-5.38165
455,-678,5.44678,5.54297,0,0,0,0,0,0,0,-1,1679,1702,5.44676,-5.54294
462,-678,3.86792,2.87402,0,0,0,0,0,0,0,-1,1686,1702,3.86796,-2.87406
469,-678,2.26587,1.98755,0,0,0,0,0,0,0,-1,1693,1702,2.26592,-1.98755
476,-678,0,0,0,0,0,0,0,0,0,-1,1700,1702,0,0
483,-678,0,0,0,0,0,0,0,0,0,-1,1707,1702,0,0
490,-678,0,0,0,0,0,0,0,0,0,-1,1714,1702,0,0
497,-678,0,0,0,0,0,0,0,0,0,-1,1721,1702,0,0
504,-678,0,0,0,0,0,0,0,0,0,-1,1728,1702,0,0
511,-678,0,0,0,0,0,0,0,0,0,-1,1735,1702,0,0
518,-678,0,0,0,0,0,0,0,0,0,-1,1742,1702,0,0
525,-678,0,0,0,0,0,0,0,0,0,-1,1749,1702,0,0
532,-678,0,0,0,0,0,0,0,0,0,-1,1756,1702,0,0
539,-678,0,0,0,0,0,0,0,0,0,-1,1763,1702,0,0
546,-678,0,0,0,0,0,0,0,0,0,-1,1770,1702,0,0
553,-678,0,0,0,0,0,0,0,0,0,-1,1777,1702,0,0
560,-678,0,0,0,0,0,0,0,0,0,-1,1784,1702,0,0
567,-678,0,0,0,0,0,0,0,0,0,-1,1791,1702,0,0
574,-678,0,0,0,0,0,0,0,0,0,-1,1798,1702,0,0
581,-678,0,0,0,0,0,0,0,0,0,-1,1805,1702,0,0
588,-678,0,0,0,0,0,0,0,0,0,-1,1812,1702,0,0
595,-678,0,0,0,0,0,0,0,0,0,-1,1819,1702,0,0
602,-678,0,0,0,0,0,0,0,0,0,-1,1826,1702,0,0
609,-678,0,0,0,0,0,0,0,0,0,-1,1833,1702,0,0
616,-678,0,0,0,0,0,0,0,0,0,-1,1840,1702,0,0
623,-678,0,0,0,0,0,0,0,0,0,-1,1847,1702,0,0
630,-678,0,0,0,0,0,0,0,0,0,-1,1854,1702,0,0
637,-678,0,0,0,0,0,0,0,0,0,-1,1861,1702,0,0
644,-678,0,0,0,0,0,0,0,0,0,-1,1868,1702,0,0
651,-678,0,0,0,0,0,0,0,0,0,-1,1875,1702,0,0
658,-678,0,0,0,0,0,0,0,0,0,-1,1882,1702,0,0
665,-678,0,0,0,0,0,0,0,0,0,-1,1889,1702,0,0
672,-678,0,0,0,0,0,0,0,0,0,-1,1896,1702,0,0
679,-678,0,0,0,0,0,0,0,0,0,-1,1903,1702,0,0
686,-678,0,0,0,0,0,0,0,0,0,-1,1910,1702,0,0
693,-678,0,0,0,0,0,0,0,0,0,-1,1917,1702,0,0
700,-678,0,0,0,0,0,0,0,0,0,-1,1924,1702,0,0
707,-678,0,0,0,0,0,0,0,0,0,-1,1931,1702,0,0
714,-678,0,0,0,0,0,0,0,0,0,-1,1938,1702,0,0
721,-678,0,0,0,0,0,0,0,0,0,-1,1945,1702,0,0
728,-678,0,0,0,0,0,0,0,0,0,-1,1952,1702,0,0
735,-678,0,0,0,0,0,0,0,0,0,-1,1959,1702,0,0
742,-678,0,0,0,0,0,0,0,0,0,-1,1966,1702,0,0
749,-678,0,0,0,0,0,0,0,0,0,-1,1973,1702,0,0
756,-678,0,0,0,0,0,0,0,0,0,-1,1980,1702,0,0
763,-678,0,0,0,0,0,0,0,0,0,-1,1987,1702,0,0
770,-678,0,0,0,0,0,0,0,0,0,-1,1994,1702,0,0
777,-678,0,0,0,0,0,0,0,0,0,-1,2001,1702,0,0
784,-678,0,0,0,0,0,0,0,0,0,-1,2008,1702,0,0
791,-678,0,0,0,0,0,0,0,0,0,-1,2015,1702,0,0
798,-678,0,0,0,0,0,0,0,0,0,-1,2022,1702,0,0
805,-678,0,0,0,0,0,0,0,0,0,-1,2029,1702,0,0
812,-678,0,0,0,0,0,0,0,0,0,-1,2036,1702,0,0
-700,-685,0,0,0,0,0,0,0,0,0,-1,524,1709,0,0
-693,-685,0,0,0,0,0,0,0,0,0,-1,531,1709,0,0
-686,-685,0,0,0,0,0,0,0,0,0,-1,538,1709,0,0
-679,-685,0,0,0,0,0,0,0,0,0,-1,545,1709,0,0
-672,-685,0,0,0,0,0,0,0,0,0,-1,552,1709,0,0
-665,-685,0,0,0,0,0,0,0,0,0,-1,559,1709,0,0
-658,-685,0,0,0,0,0,0,0,0,0,-1,566,1709,0,0
-651,-685,0,0,0,0,0,0,0,0,0,-1,573,1709,0,0
-644,-685,0,0,0,0,0,0,0,0,0,-1,580,1709,0,0
-637,-685,0,0,0,0,0,0,0,0,0,-1,587,1709,0,0
-630,-685,0,0,0,0,0,0,0,0,0,-1,594,1709,0,0
-623,-685,0,0,0,0,0,0,0,0,0,-1,601,1709,0,0
-616,-685,0,0,0,0,0,0,0,0,0,-1,608,1709,0,0
-609,-685,0,0,0,0,0,0,0,0,0,-1,615,1709,0,0
-602,-685,0,0,0,0,0,0,0,0,0,-1,622,1709,0,0
-595,-685,0,0,0,0,0,0,0,0,0,-1,629,1709,0,0
-588,-685,0,0,0,0,0,0,0,0,0,-1,636,1709,0,0
-581,-685,0,0,0,0,0,0,0,0,0,-1,643,1709,0,0
-574,-685,0,0,0,0,0,0,0,0,0,-1,650,1709,0,0
-567,-685,0,0,0,0,0,0,0,0,0,-1,657,1709,0,0
-560,-685,0,0,0,0,0,0,0,0,0,-1,664,1709,0,0
-553,-685,0,0,0,0,0,0,0,0,0,-1,671,1709,0,0
-546,-685,0,0,0,0,0,0,0,0,0,-1,678,1709,0,0
-539,-685,0,0,0,0,0,0,0,0,0,-1,685,1709,0,0
-532,-685,0,0,0,0,0,0,0,0,0,-1,692,1709,0,0
-525,-685,0,0,0,0,0,0,0,0,0,-1,699,1709,0,0
-518,-685,0,0,0,0,0,0,0,0,0,-1,706,1709,0,0
-511,-685,0,0,0,0,0,0,0,0,0,-1,713,1709,0,0
-504,-685,0,0,0,0,0,0,0,0,0,-1,720,1709,0,0
-497,-685,0,0,0,0,0,0,0,0,0,-1,727,1709,0,0
-490,-685,0,0,0,0,0,0,0,0,0,-1,734,1709,0,0
-483,-685,0,0,0,0,0,0,0,0,0,-1,741,1709,0,0
-476,-685,0,0,0,0,0,0,0,0,0,-1,748,1709,0,0
-469,-685,0,0,0,0,0,0,0,0,0,-1,755,1709,0,0
-462,-685,0,0,0,0,0,0,0,0,0,-1,762,1709,0,0
-455,-685,0,0,0,0,0,0,0,0,0,-1,769,1709,0,0
-448,-685,0,0,0,0,0,0,0,0,0,-1,776,1709,0,0
-441,-685,0,0,0,0,0,0,0,0,0,-1,783,1709,0,0
-434,-685,0,0,0,0,0,0,0,0,0,-1,790,1709,0,0
-427,-685,0,0,0,0,0,0,0,0,0,-1,797,1709,0,0
-420,-685,0,0,0,0,0,0,0,0,0,-1,804,1709,0,0
-413,-685,0,0,0,0,0,0,0,0,0,-1,811,1709,0,0
-406,-685,0,0,0,0,0,0,0,0,0,-1,818,1709,0,0
-399,-685,0,0,0,0,0,0,0,0,0,-1,825,1709,0,0
-392,-685,0,0,0,0,0,0,0,0,0,-1,832,1709,0,0
-385,-685,0,0,0,0,0,0,0,0,0,-1,839,1709,0,0
-378,-685,0,0,0,0,0,0,0,0,0,-1,846,1709,0,0
-371,-685,0,0,0,0,0,0,0,0,0,-1,853,1709,0,0
-364,-685,0,0,0,0,0,0,0,0,0,-1,860,1709,0,0
-357,-685,0,0,0,0,0,0,0,0,0,-1,867,1709,0,0
-350,-685,0,0,0,0,0,0,0,0,0,-1,874,1709,0,0
-343,-685,4.95483,0.194946,-0.0856749,-0.060039,-0.00690501,-0.0582974,-0.0874164,-1.32373,0.0513985,0.0466417,881,1709,4.95482,-0.194959
-336,-685,4.57501,1.12866,-0.0796089,-0.0661021,-0.0095387,-0.0611681,-0.0845429,-1.09344,0.0504104,0.0438088,888,1709,4.57504,-1.12867
-329,-685,4.00391,2.07629,0,0,0,0,0,0,0,-1,895,1709,4.00392,-2.07626
-322,-685,3.52753,3.22412,0,0,0,0,0,0,0,-1,902,1709,3.52754,-3.2241
-315,-685,2.95374,4.01685,-0.0440712,-0.0470868,-0.0239079,-0.0216236,-0.0695344,-0.753907,0.0410908,0.0463968,909,1709,2.95371,-4.01686
-308,-685,2.3537,4.45178,-0.0314564,-0.0356162,-0.0277928,-0.00566577,-0.0614069,-0.748049,0.0391861,0.0498829,916,1709,2.35367,-4.4518
-301,-685,2.67175,3.89551,0,0,0,0,0,0,0,-1,923,1709,2.67173,-3.89548
-294,-685,2.47266,5.68604,0,0,0,0,0,0,0,-1,930,1709,2.47269,-5.68605
-287,-685,3.05695,2.44788,0,0,0,0,0,0,0,-1,937,1709,3.05697,-2.44793
-280,-685,3.41986,4.6814,0,0,0,0,0,0,0,-1,944,1709,3.41986,-4.68143
-273,-685,2.73444,5.3374,0,0,0,0,0,0,0,-1,951,1709,2.73445,-5.33742
-266,-685,2.6626,5.42993,0.0114149,0.00983844,-0.0255332,0.036172,-0.0149187,-0.769968,0.030336,0.0406444,958,1709,2.6626,-5.42998
-259,-685,2.71881,5.40247,0.0123812,0.0114655,-0.0216798,0.033608,-0.00976134,-0.77484,0.0262707,0.0373773,965,1709,2.71879,-5.4025
-252,-685,2.8656,5.39648,0.01113,0.0109757,-0.0176776,0.0287306,-0.00662498,-0.783216,0.0217018,0.0334613,972,1709,2.86559,-5.39649
-245,-685,2.92548,5.46167,0.00735166,0.00727201,-0.0133818,0.0206937,-0.00607005,-0.78391,0.0162027,0.0307114,979,1709,2.92548,-5.46163
-238,-685,2.87048,5.57642,0.00397546,0.00414666,-0.0100977,0.0141592,-0.00603705,-0.789637,0.0119705,0.023333,986,1709,2.8705,-5.57637
-231,-685,2.84894,5.66736,0.00129385,0.00175063,-0.00748773,0.00901345,-0.00596897,-0.800645,0.00870943,0.0168721,993,1709,2.84892,-5.66738
-224,-685,2.83521,5.73145,-0.00109314,-0.000677664,-0.00468447,0.00380367,-0.00557448,-0.807557,0.00544656,0.0149314,1000,1709,2.83522,-5.73147
-217,-685,2.85022,5.797,-0.00267948,-0.00204251,-0.0028888,0.00054531,-0.0052673,-0.8403,0.0037067,0.0110807,1007,1709,2.85023,-5.79695
-210,-685,2.85394,5.87268,-0.00347983,-0.00249169,-0.00235663,-0.000577892,-0.00539363,-0.888727,0.00341944,0.0141105,1014,1709,2.85392,-5.87273
-203,-685,2.84442,5.9425,-0.0040007,-0.00312907,-0.00193587,-0.00158057,-0.0055492,-0.896115,0.00330124,0.0144075,1021,1709,2.84443,-5.94252
-196,-685,2.83008,6.00232,-0.00375825,-0.0030875,-0.0017828,-0.00160881,-0.00523694,-0.87837,0.00309757,0.0136254,1028,1709,2.83002,-6.00228
-189,-685,2.8418,6.03992,-0.0033153,-0.0028834,-0.00165835,-0.001427,-0.0047717,-0.850143,0.00282813,0.0093133,1035,1709,2.84175,-6.03993
-182,-685,2.84192,6.11646,-0.00272297,-0.00263143,-0.00137981,-0.00129663,-0.00405776,-0.801978,0.00239307,0.0129781,1042,1709,2.84187,-6.11642
-175,-685,2.84131,6.18457,-0.00191039,-0.00237249,-0.00108598,-0.00103115,-0.00325172,-0.680582,0.00191879,0.0125916,1049,1709,2.8413,-6.18459
-168,-685,2.82617,6.24927,-0.00114765,-0.00211875,-0.000802789,-0.000694994,-0.00257141,-0.513416,0.00153595,0.00982621,1056,1709,2.82619,-6.24922
-161,-685,2.82776,6.2926,-0.000334156,-0.00192026,-0.000500958,-0.000189183,-0.00206523,-0.281695,0.00131829,0.0111418,1063,1709,2.82777,-6.29266
-154,-685,2.83618,6.34412,0.000603267,-0.00150973,-0.000162292,0.000615659,-0.00152213,-0.0762107,0.0012707,0.0101387,1070,1709,2.83612,-6.34416
-147,-685,2.83142,6.3844,0.00147135,-0.00140287,2.24093e-05,0.00147152,-0.00140305,0.00779601,0.00165979,0.00881225,1077,1709,2.83138,-6.38438
-140,-685,2.82544,6.42371,0.00203465,-0.00135109,8.14083e-05,0.00203661,-0.00135304,0.024026,0.00197024,0.0108908,1084,1709,2.8254,-6.42373
-133,-685,2.83887,6.47778,0.00262043,-0.00135624,0.000213393,0.00263185,-0.00136766,0.0534565,0.00234725,0.0103,1091,1709,2.83884,-6.47779
-126,-685,2.84863,6.52222,0.00309034,-0.00138873,0.000327795,0.0031142,-0.0014126,0.0726678,0.00267439,0.00888075,1098,1709,2.84866,-6.52228
-119,-685,2.84912,6.56653,0.00348685,-0.00139545,0.000481342,0.00353386,-0.00144246,0.0973403,0.00295644,0.0118238,1105,1709,2.84915,-6.56656
-112,-685,2.84045,6.61902,0.0037528,-0.0017293,0.000916447,0.00390194,-0.00187845,0.161329,0.00340479,0.0114472,1112,1709,2.8405,-6.61897
-105,-685,2.82751,6.66357,0.00397165,-0.00231643,0.00226266,0.00470118,-0.00304597,0.311901,0.00450672,0.0103734,1119,1709,2.82746,-6.66357
-98,-685,2.88586,6.69519,0.00411829,-0.00247424,0.00377803,0.00583589,-0.00419184,0.426697,0.00581539,0.0143014,1126,1709,2.88586,-6.69522
-91,-685,2.8916,6.75171,0.0041619,-0.00279006,0.00519616,0.00693752,-0.00556569,0.490607,0.0072332,0.0168607,1133,1709,2.8916,-6.75176
-84,-685,2.89551,6.78674,0.00418364,-0.00335838,0.00684134,0.00822445,-0.00739918,0.533513,0.0090245,0.0153029,1140,1709,2.89547,-6.78676
-77,-685,2.87292,6.84521,0.00419318,-0.00371141,0.00855222,0.0096622,-0.00918042,0.568948,0.01088,0.0136497,1147,1709,2.87291,-6.84527
-70,-685,2.93567,6.90039,0.00425148,-0.00416797,0.0100729,0.0109589,-0.0108754,0.587466,0.0126061,0.0160893,1154,1709,2.93572,-6.90045
-63,-685,2.92578,6.97095,0.00375293,-0.00484988,0.00991899,0.010263,-0.01136,0.580809,0.0124894,0.0281209,1161,1709,2.9258,-6.97101
-56,-685,2.88196,7.17773,0,0,0,0,0,0,0,-1,1168,1709,2.88196,-7.17779
-49,-685,2.68005,7.79077,0,0,0,0,0,0,0,-1,1175,1709,2.68008,-7.79075
-42,-685,2.70618,7.54504,0,0,0,0,0,0,0,-1,1182,1709,2.7062,-7.54504
-35,-685,2.77112,7.08997,0,0,0,0,0,0,0,-1,1189,1709,2.77116,-7.09002
-28,-685,2.75464,7.03064,0,0,0,0,0,0,0,-1,1196,1709,2.75465,-7.03058
-21,-685,2.79846,6.91138,0.0120071,-0.0139624,-0.00381136,0.0125549,-0.0145102,-0.142753,0.0156396,0.0366283,1203,1709,2.79844,-6.91142
-14,-685,2.9574,6.94055,0.0134081,-0.016146,-0.00667927,0.0148476,-0.0175854,-0.212259,0.0187474,0.0241792,1210,1709,2.95739,-6.94061
-7,-685,2.93665,6.95972,0.0149805,-0.0185633,-0.00914172,0.0173101,-0.0208929,-0.249522,0.0220888,0.0388654,1217,1709,2.93669,-6.95975
0,-685,2.88904,6.97449,0.0162834,-0.0208257,-0.0119122,0.0197782,-0.0243204,-0.285368,0.0255053,0.042695,1224,1709,2.88909,-6.97443
7,-685,2.72217,6.98914,0.0170121,-0.0232233,-0.0138619,0.0213254,-0.0275366,-0.301666,0.0282864,0.0387276,1231,1709,2.72222,-6.98917
14,-685,3.05542,6.70813,0.0170911,-0.0251569,-0.0151721,0.021975,-0.0300409,-0.311431,0.0301515,0.0406327,1238,1709,3.05547,-6.70813
21,-685,3.08801,6.84717,0.0167817,-0.0263442,-0.0168151,0.0225629,-0.0321255,-0.331155,0.0317349,0.0368099,1245,1709,3.08802,-6.84716
28,-685,3.03821,7.16821,0.0154228,-0.0267354,-0.0185668,0.0224338,-0.0337464,-0.361057,0.0326541,0.0367405,1252,1709,3.03825,-7.16818
35,-685,2.92981,7.13147,0.0136042,-0.0267348,-0.0203206,0.0220657,-0.0351963,-0.394564,0.0333487,0.0380862,1259,1709,2.92984,-7.13152
42,-685,3.03784,7.14075,0.0114362,-0.0262051,-0.0217624,0.0213874,-0.0361563,-0.42888,0.0335856,0.0417692,1266,1709,3.03787,-7.14079
49,-685,3.08972,7.12231,0.00892316,-0.0267008,-0.0233618,0.0204888,-0.0382664,-0.459691,0.034436,0.0460477,1273,1709,3.08973,-7.12229
56,-685,2.95215,6.79602,0.00602478,-0.0265199,-0.0247432,0.0193668,-0.039862,-0.494531,0.0348715,0.0450826,1280,1709,2.95209,-6.79606
63,-685,2.89624,6.76563,0.00257495,-0.0264455,-0.0259775,0.0178201,-0.0416906,-0.530699,0.0352678,0.0435623,1287,1709,2.89627,-6.76564
70,-685,2.90112,6.71179,-0.000213006,-0.0263592,-0.0263863,0.0161611,-0.0427334,-0.555397,0.0351375,0.0421826,1294,1709,2.90113,-6.71176
77,-685,2.97742,6.75012,0,0,0,0,0,0,0,-1,1301,1709,2.97741,-6.75016
84,-685,3.03552,6.72034,0,0,0,0,0,0,0,-1,1308,1709,3.0355,-6.72033
91,-685,3.09229,6.66248,0,0,0,0,0,0,0,-1,1315,1709,3.09226,-6.6625
98,-685,2.45374,7.1908,-0.00239128,-0.0285696,-0.0241383,0.0119783,-0.0429392,-0.536959,0.033344,0.0376002,1322,1709,2.45368,-7.19077
105,-685,2.70007,6.91003,-0.0018137,-0.0297573,-0.0227662,0.0109262,-0.0424972,-0.510179,0.0325899,0.0415605,1329,1709,2.70003,-6.90999
112,-685,2.94641,6.54321,-0.000709903,-0.0305018,-0.0210145,0.0101526,-0.0413643,-0.47708,0.0315104,0.0440989,1336,1709,2.94636,-6.54322
119,-685,2.89307,6.51013,0.000995102,-0.0307345,-0.019201,0.0100375,-0.0397769,-0.440127,0.0304208,0.0406726,1343,1709,2.89305,-6.51013
126,-685,2.90125,6.5343,0.0025827,-0.0306514,-0.0169779,0.0097222,-0.0377909,-0.398069,0.0289834,0.0430375,1350,1709,2.90128,-6.53435
133,-685,2.77698,6.70593,0.00413451,-0.0300485,-0.0145891,0.00951434,-0.0354283,-0.353286,0.0273477,0.0452634,1357,1709,2.77692,-6.70596
140,-685,3.302,7.08899,0.00511062,-0.0287993,-0.0121554,0.0090177,-0.0327063,-0.310997,0.0253505,0.0476154,1364,1709,3.30199,-7.089
147,-685,3.53699,7.31458,0,0,0,0,0,0,0,-1,1371,1709,3.53694,-7.31457
154,-685,3.51843,7.2666,0,0,0,0,0,0,0,-1,1378,1709,3.51848,-7.26656
161,-685,3.53052,7.08533,0,0,0,0,0,0,0,-1,1385,1709,3.53055,-7.08535
168,-685,3.72217,7.07056,0,0,0,0,0,0,0,-1,1392,1709,3.72222,-7.0706
175,-685,3.49292,7.50049,0,0,0,0,0,0,0,-1,1399,1709,3.49288,-7.50046
182,-685,3.42517,7.70691,0,0,0,0,0,0,0,-1,1406,1709,3.42522,-7.70687
189,-685,3.22961,7.54224,0,0,0,0,0,0,0,-1,1413,1709,3.22964,-7.54219
196,-685,3.36194,7.16858,0,0,0,0,0,0,0,-1,1420,1709,3.3619,-7.16862
203,-685,3.26147,7.03601,-0.000470686,0.00327206,0.00578324,0.00747917,-0.00467779,0.941874,0.00708067,0.0268031,1427,1709,3.26144,-7.03607
210,-685,3.32715,6.96692,-0.000913412,0.0024952,0.00580146,0.00683751,-0.00525572,0.928265,0.00700191,0.0211623,1434,1709,3.3272,-6.96696
217,-685,3.29114,6.88513,-0.00162529,0.00242041,0.00570773,0.00645314,-0.00565803,0.955695,0.00699741,0.0196504,1441,1709,3.29116,-6.88515
224,-685,3.25757,6.85608,-0.00227715,0.00209196,0.00543313,0.00576327,-0.00594846,0.976547,0.00676205,0.014477,1448,1709,3.25763,-6.85605
231,-685,3.25537,6.82202,-0.00250398,0.00148455,0.00491993,0.00479904,-0.00581847,0.977951,0.00613943,0.0151576,1455,1709,3.25537,-6.82199
238,-685,3.28516,6.76233,-0.00254944,0.00106926,0.00442251,0.00403823,-0.0055184,0.979571,0.00553954,0.0178124,1462,1709,3.28518,-6.76229
245,-685,3.29492,6.71448,-0.00245593,0.000810387,0.00380157,0.00331476,-0.00496029,0.988279,0.00480899,0.0208752,1469,1709,3.2949,-6.71443
252,-685,3.30164,6.70215,-0.00221318,0.000713968,0.00314868,0.00272261,-0.00422182,1.00295,0.00404039,0.0149708,1476,1709,3.3016,-6.70215
259,-685,3.3136,6.69568,-0.00195946,0.000570541,0.00252775,0.00213216,-0.00352108,1.0174,0.00329657,0.0102983,1483,1709,3.3136,-6.69568
266,-685,3.31787,6.66064,-0.00172791,0.000479083,0.00186927,0.00154627,-0.00279509,1.05204,0.00254082,0.0108396,1490,1709,3.31783,-6.66066
273,-685,3.30774,6.60925,-0.00121204,0.000578163,0.00113954,0.00113211,-0.00176599,1.11831,0.00168651,0.0138789,1497,1709,3.30775,-6.60924
280,-685,3.30383,6.56482,-0.000660488,0.000639144,0.000686363,0.000934503,-0.000955847,1.16442,0.00109142,0.0158904,1504,1709,3.30378,-6.56477
287,-685,3.32141,6.52856,-0.000174585,0.000505414,0.000325791,0.000636307,-0.000305478,1.18877,0.00055481,0.0116555,1511,1709,3.32139,-6.52858
294,-685,3.32385,6.46924,0.000206719,0.000582645,0.000172332,0.000649689,0.000139675,1.19978,0.000394889,0.0108155,1518,1709,3.32387,-6.46921
301,-685,3.29858,6.40771,0.000636937,0.000625561,0.000106497,0.000737898,0.0005246,0.75872,0.000438481,0.0132747,1525,1709,3.29859,-6.40774
308,-685,3.30237,6.34839,0.00104593,0.000774001,-0.000110344,0.00108507,0.000734859,-0.340877,0.000639452,0.0137771,1532,1709,3.30231,-6.34833
315,-685,3.32837,6.31909,0.0013091,0.000811601,9.7216e-05,0.00132742,0.000793279,0.186283,0.000771241,0.0118362,1539,1709,3.32835,-6.31905
322,-685,3.31262,6.26392,0.00177579,0.000244494,0.000404112,0.00187589,0.000144391,0.242822,0.00120535,0.0188197,1546,1709,3.31264,-6.26389
329,-685,3.29004,6.20715,0.00273569,0.000126765,0.000277398,0.00276486,9.75968e-05,0.104766,0.00181158,0.0194077,1553,1709,3.28998,-6.20709
336,-685,3.31519,6.15283,0.00328698,-0.000383305,0.000460309,0.00334383,-0.000440154,0.12288,0.00238949,0.0134085,1560,1709,3.31519,-6.15277
343,-685,3.30542,6.10522,0.00367862,-0.000148289,0.00117963,0.00401301,-0.000482683,0.276228,0.0028499,0.0108136,1567,1709,3.30543,-6.10527
350,-685,3.31836,6.03101,0.00416852,0.00092145,0.00267644,0.00567535,-0.000585384,0.512768,0.00399302,0.0111256,1574,1709,3.31838,-6.03101
357,-685,3.32593,5.97791,0.00472789,0.00135009,0.00375659,0.00715777,-0.0010798,0.574145,0.00516951,0.00983149,1581,1709,3.32594,-5.9779
364,-685,3.30713,5.91504,0.00519114,0.00211954,0.00511618,0.00899706,-0.00168638,0.639585,0.00663203,0.0100375,1588,1709,3.30718,-5.91499
371,-685,3.34338,5.86523,0.00552324,0.00324445,0.00696041,0.0114369,-0.00266921,0.704269,0.00865268,0.0149502,1595,1709,3.34338,-5.86523
378,-685,3.34167,5.81067,0.00576537,0.00503189,0.00907188,0.0144779,-0.00368066,0.765196,0.0110844,0.0194662,1602,1709,3.34171,-5.81063
385,-685,3.32178,5.75696,0.00573149,0.00732375,0.0113835,0.0179389,-0.00488368,0.82031,0.0138767,0.0319426,1609,1709,3.32184,-5.75692
392,-685,3.61707,5.60876,0.00542853,0.00948775,0.0138305,0.0214368,-0.00652049,0.858253,0.0168896,0.0365722,1616,1709,3.61706,-5.60875
399,-685,3.61975,5.73853,0.00467227,0.0118538,0.0160863,0.0247453,-0.00821913,0.895208,0.0198132,0.0446247,1623,1709,3.6197,-5.73848
406,-685,4.81812,10.3439,0,0,0,0,0,0,0,-1,1630,1709,4.81812,-10.3439
413,-685,3.62244,5.57764,0,0,0,0,0,0,0,-1,1637,1709,3.62246,-5.57759
420,-685,2.18066,15.7429,0,0,0,0,0,0,0,-1,1644,1709,2.18063,-15.743
427,-685,4.51526,4.63989,0,0,0,0,0,0,0,-1,1651,1709,4.5152,-4.63984
434,-685,4.7793,4.80664,0,0,0,0,0,0,0,-1,1658,1709,4.77928,-4.80665
441,-685,4.71082,4.84839,0,0,0,0,0,0,0,-1,1665,1709,4.71077,-4.84842
448,-685,4.87,4.62231,0,0,0,0,0,0,0,-1,1672,1709,4.87,-4.62238
455,-685,2.31958,4.09802,0,0,0,0,0,0,0,-1,1679,1709,2.31957,-4.09803
462,-685,0,0,0,0,0,0,0,0,0,-1,1686,1709,0,0
469,-685,0,0,0,0,0,0,0,0,0,-1,1693,1709,0,0
476,-685,0,0,0,0,0,0,0,0,0,-1,1700,1709,0,0
483,-685,0,0,0,0,0,0,0,0,0,-1,1707,1709,0,0
490,-685,0,0,0,0,0,0,0,0,0,-1,1714,1709,0,0
497,-685,0,0,0,0,0,0,0,0,0,-1,1721,1709,0,0
504,-685,0,0,0,0,0,0,0,0,0,-1,1728,1709,0,0
511,-685,0,0,0,0,0,0,0,0,0,-1,1735,1709,0,0
518,-685,0,0,0,0,0,0,0,0,0,-1,1742,1709,0,0
525,-685,0,0,0,0,0,0,0,0,0,-1,1749,1709,0,0
532,-685,0,0,0,0,0,0,0,0,0,-1,1756,1709,0,0
539,-685,0,0,0,0,0,0,0,0,0,-1,1763,1709,0,0
546,-685,0,0,0,0,0,0,0,0,0,-1,1770,1709,0,0
553,-685,0,0,0,0,0,0,0,0,0,-1,1777,1709,0,0
560,-685,0,0,0,0,0,0,0,0,0,-1,1784,1709,0,0
567,-685,0,0,0,0,0,0,0,0,0,-1,1791,1709,0,0
574,-685,0,0,0,0,0,0,0,0,0,-1,1798,1709,0,0
581,-685,0,0,0,0,0,0,0,0,0,-1,1805,1709,0,0
588,-685,0,0,0,0,0,0,0,0,0,-1,1812,1709,0,0
595,-685,0,0,0,0,0,0,0,0,0,-1,1819,1709,0,0
602,-685,0,0,0,0,0,0,0,0,0,-1,1826,1709,0,0
609,-685,0,0,0,0,0,0,0,0,0,-1,1833,1709,0,0
616,-685,0,0,0,0,0,0,0,0,0,-1,1840,1709,0,0
623,-685,0,0,0,0,0,0,0,0,0,-1,1847,1709,0,0
630,-685,0,0,0,0,0,0,0,0,0,-1,1854,1709,0,0
637,-685,0,0,0,0,0,0,0,0,0,-1,1861,1709,0,0
644,-685,0,0,0,0,0,0,0,0,0,-1,1868,1709,0,0
651,-685,0,0,0,0,0,0,0,0,0,-1,1875,1709,0,0
658,-685,0,0,0,0,0,0,0,0,0,-1,1882,1709,0,0
665,-685,0,0,0,0,0,0,0,0,0,-1,1889,1709,0,0
672,-685,0,0,0,0,0,0,0,0,0,-1,1896,1709,0,0
679,-685,0,0,0,0,0,0,0,0,0,-1,1903,1709,0,0
686,-685,0,0,0,0,0,0,0,0,0,-1,1910,1709,0,0
693,-685,0,0,0,0,0,0,0,0,0,-1,1917,1709,0,0
700,-685,0,0,0,0,0,0,0,0,0,-1,1924,1709,0,0
707,-685,0,0,0,0,0,0,0,0,0,-1,1931,1709,0,0
714,-685,0,0,0,0,0,0,0,0,0,-1,1938,1709,0,0
721,-685,0,0,0,0,0,0,0,0,0,-1,1945,1709,0,0
728,-685,0,0,0,0,0,0,0,0,0,-1,1952,1709,0,0
735,-685,0,0,0,0,0,0,0,0,0,-1,1959,1709,0,0
742,-685,0,0,0,0,0,0,0,0,0,-1,1966,1709,0,0
749,-685,0,0,0,0,0,0,0,0,0,-1,1973,1709,0,0
756,-685,0,0,0,0,0,0,0,0,0,-1,1980,1709,0,0
763,-685,0,0,0,0,0,0,0,0,0,-1,1987,1709,0,0
770,-685,0,0,0,0,0,0,0,0,0,-1,1994,1709,0,0
777,-685,0,0,0,0,0,0,0,0,0,-1,2001,1709,0,0
784,-685,0,0,0,0,0,0,0,0,0,-1,2008,1709,0,0
791,-685,0,0,0,0,0,0,0,0,0,-1,2015,1709,0,0
798,-685,0,0,0,0,0,0,0,0,0,-1,2022,1709,0,0
805,-685,0,0,0,0,0,0,0,0,0,-1,2029,1709,0,0
812,-685,0,0,0,0,0,0,0,0,0,-1,2036,1709,0,0
-700,-692,0,0,0,0,0,0,0,0,0,-1,524,1716,0,0
-693,-692,0,0,0,0,0,0,0,0,0,-1,531,1716,0,0
-686,-692,0,0,0,0,0,0,0,0,0,-1,538,1716,0,0
-679,-692,0,0,0,0,0,0,0,0,0,-1,545,1716,0,0
-672,-692,0,0,0,0,0,0,0,0,0,-1,552,1716,0,0
-665,-692,0,0,0,0,0,0,0,0,0,-1,559,1716,0,0
-658,-692,0,0,0,0,0,0,0,0,0,-1,566,1716,0,0
-651,-692,0,0,0,0,0,0,0,0,0,-1,573,1716,0,0
-644,-692,0,0,0,0,0,0,0,0,0,-1,580,1716,0,0
-637,-692,0,0,0,0,0,0,0,0,0,-1,587,1716,0,0
-630,-692,0,0,0,0,0,0,0,0,0,-1,594,1716,0,0
-623,-692,0,0,0,0,0,0,0,0,0,-1,601,1716,0,0
-616,-692,0,0,0,0,0,0,0,0,0,-1,608,1716,0,0
-609,-692,0,0,0,0,0,0,0,0,0,-1,615,1716,0,0
-602,-692,0,0,0,0,0,0,0,0,0,-1,622,1716,0,0
-595,-692,0,0,0,0,0,0,0,0,0,-1,629,1716,0,0
-588,-692,0,0,0,0,0,0,0,0,0,-1,636,1716,0,0
-581,-692,0,0,0,0,0,0,0,0,0,-1,643,1716,0,0
-574,-692,0,0,0,0,0,0,0,0,0,-1,650,1716,0,0
-567,-692,0,0,0,0,0,0,0,0,0,-1,657,1716,0,0
-560,-692,0,0,0,0,0,0,0,0,0,-1,664,1716,0,0
-553,-692,0,0,0,0,0,0,0,0,0,-1,671,1716,0,0
-546,-692,0,0,0,0,0,0,0,0,0,-1,678,1716,0,0
-539,-692,0,0,0,0,0,0,0,0,0,-1,685,1716,0,0
-532,-692,0,0,0,0,0,0,0,0,0,-1,692,1716,0,0
-525,-692,0,0,0,0,0,0,0,0,0,-1,699,1716,0,0
-518,-692,0,0,0,0,0,0,0,0,0,-1,706,1716,0,0
-511,-692,0,0,0,0,0,0,0,0,0,-1,713,1716,0,0
-504,-692,0,0,0,0,0,0,0,0,0,-1,720,1716,0,0
-497,-692,0,0,0,0,0,0,0,0,0,-1,727,1716,0,0
-490,-692,0,0,0,0,0,0,0,0,0,-1,734,1716,0,0
-483,-692,0,0,0,0,0,0,0,0,0,-1,741,1716,0,0
-476,-692,0,0,0,0,0,0,0,0,0,-1,748,1716,0,0
-469,-692,0,0,0,0,0,0,0,0,0,-1,755,1716,0,0
-462,-692,0,0,0,0,0,0,0,0,0,-1,762,1716,0,0
-455,-692,0,0,0,0,0,0,0,0,0,-1,769,1716,0,0
-448,-692,0,0,0,0,0,0,0,0,0,-1,776,1716,0,0
-441,-692,0,0,0,0,0,0,0,0,0,-1,783,1716,0,0
-434,-692,0,0,0,0,0,0,0,0,0,-1,790,1716,0,0
-427,-692,0,0,0,0,0,0,0,0,0,-1,797,1716,0,0
-420,-692,0,0,0,0,0,0,0,0,0,-1,804,1716,0,0
-413,-692,0,0,0,0,0,0,0,0,0,-1,811,1716,0,0
-406,-692,0,0,0,0,0,0,0,0,0,-1,818,1716,0,0
-399,-692,0,0,0,0,0,0,0,0,0,-1,825,1716,0,0
-392,-692,0,0,0,0,0,0,0,0,0,-1,832,1716,0,0
-385,-692,0,0,0,0,0,0,0,0,0,-1,839,1716,0,0
-378,-692,0,0,0,0,0,0,0,0,0,-1,846,1716,0,0
-371,-692,0,0,0,0,0,0,0,0,0,-1,853,1716,0,0
-364,-692,0,0,0,0,0,0,0,0,0,-1,860,1716,0,0
-357,-692,0,0,0,0,0,0,0,0,0,-1,867,1716,0,0
-350,-692,0,0,0,0,0,0,0,0,0,-1,874,1716,0,0
-343,-692,0,0,0,0,0,0,0,0,0,-1,881,1716,0,0
-336,-692,0,0,0,0,0,0,0,0,0,-1,888,1716,0,0
-329,-692,1.94843,1.04333,0,0,0,0,0,0,0,-1,895,1716,1.9484,-1.04329
-322,-692,4.91229,3.64331,0,0,0,0,0,0,0,-1,902,1716,4.9123,-3.6433
-315,-692,3.64941,5.14758,-0.0526311,-0.0583264,-0.0307491,-0.0245981,-0.0863594,-0.739225,0.0513755,0.0434351,909,1716,3.64943,-5.14762
-308,-692,2.79163,5.38403,-0.0375551,-0.0438743,-0.0356059,-0.00496887,-0.0764605,-0.741145,0.0494008,0.0477591,916,1716,2.79162,-5.38406
-301,-692,1.97571,5.62402,0,0,0,0,0,0,0,-1,923,1716,1.97572,-5.62407
-294,-692,3.60107,3.77332,0,0,0,0,0,0,0,-1,930,1716,3.60107,-3.77328
-287,-692,1.03345,9.29126,0,0,0,0,0,0,0,-1,937,1716,1.03348,-9.29122
-280,-692,1.44177,7.69531,0.0102319,0.00541231,-0.0428872,0.0507769,-0.0351327,-0.757333,0.0498733,0.0483879,944,1716,1.44177,-7.69534
-273,-692,1.70416,6.2428,0.0134124,0.010544,-0.0380072,0.0500125,-0.026056,-0.76654,0.0446382,0.0442211,951,1716,1.70417,-6.24284
-266,-692,2.67841,5.26855,0,0,0,0,0,0,0,-1,958,1716,2.67842,-5.26853
-259,-692,2.74915,5.32544,0.0152579,0.0144431,-0.0265487,0.0414024,-0.0117013,-0.777726,0.0322183,0.046545,965,1716,2.74915,-5.3254
-252,-692,2.96564,5.3457,0.0135405,0.0138381,-0.0212073,0.0348971,-0.00751849,-0.788907,0.0261339,0.0462227,972,1716,2.96562,-5.34573
-245,-692,2.69543,5.40723,0.0087092,0.00915097,-0.0153967,0.0243283,-0.00646816,-0.792571,0.0187506,0.0458525,979,1716,2.69542,-5.40723
-238,-692,3.00848,5.56836,0.00441926,0.00523207,-0.0110895,0.0159226,-0.00627128,-0.803714,0.0132113,0.0416987,986,1716,3.00846,-5.56833
-231,-692,3.01642,5.63452,0.0010191,0.00221695,-0.00778994,0.00943095,-0.0061949,-0.823765,0.00908585,0.0305285,993,1716,3.01642,-5.63453
-224,-692,2.92419,5.71252,-0.00188271,-0.000800917,-0.00447222,0.003163,-0.00584662,-0.845579,0.00527806,0.0157948,1000,1716,2.92421,-5.71248
-217,-692,2.90234,5.79126,-0.00372909,-0.00250846,-0.00250099,-0.000544399,-0.00569316,-0.905074,0.00362761,0.011585,1007,1716,2.90236,-5.7913
-210,-692,2.90527,5.8689,-0.00458388,-0.00302976,-0.00209686,-0.00157061,-0.00604303,-0.962844,0.00362055,0.0125866,1014,1716,2.90524,-5.86895
-203,-692,2.90845,5.93115,-0.00507082,-0.00366303,-0.0018512,-0.00238641,-0.00634744,-0.967075,0.00370209,0.0142787,1021,1716,2.90846,-5.93111
-196,-692,2.91809,5.98657,-0.00468049,-0.00345984,-0.00194486,-0.00203178,-0.00610854,-0.937439,0.00359204,0.0179379,1028,1716,2.91804,-5.98652
-189,-692,2.8894,6.03174,-0.00409238,-0.00311867,-0.0020028,-0.0015444,-0.00566665,-0.904629,0.0033826,0.0097916,1035,1716,2.88937,-6.0317
-182,-692,2.87952,6.10742,-0.00338339,-0.00269403,-0.00183827,-0.00116841,-0.00490901,-0.878073,0.00296107,0.0136577,1042,1716,2.87954,-6.1074
-175,-692,2.86267,6.19824,-0.00246566,-0.00229729,-0.00163764,-0.000741668,-0.00402128,-0.811079,0.00247101,0.0138962,1049,1716,2.8627,-6.19821
-168,-692,2.87463,6.24792,-0.00167309,-0.00191884,-0.00137357,-0.000416913,-0.00317501,-0.740787,0.0019923,0.0107768,1056,1716,2.87465,-6.24793
-161,-692,2.89685,6.30823,-0.000940485,-0.00159927,-0.00109057,-0.000130648,-0.00240911,-0.638736,0.00156434,0.0129532,1063,1716,2.8968,-6.30828
-154,-692,2.88684,6.37732,-3.39137e-05,-0.00102481,-0.000586434,0.000238344,-0.00129707,-0.434649,0.000954137,0.0138622,1070,1716,2.88682,-6.37727
-147,-692,2.87817,6.39832,0.000799302,-0.00088377,-0.00026419,0.000839797,-0.000924266,-0.152097,0.00101887,0.0121235,1077,1716,2.87813,-6.39836
-140,-692,2.88831,6.42444,0.00117175,-0.00085216,-0.000108811,0.00117758,-0.000857993,-0.053557,0.00118006,0.0091424,1084,1716,2.88833,-6.42448
-133,-692,2.90125,6.47217,0.00166399,-0.000877887,0.000139252,0.00167159,-0.000885493,0.0545656,0.00149941,0.00916197,1091,1716,2.90129,-6.47219
-126,-692,2.90234,6.52197,0.00202725,-0.000942687,0.000297,0.00205666,-0.000972096,0.0986998,0.00178563,0.00791641,1098,1716,2.90229,-6.52198
-119,-692,2.91187,6.573,0.00224535,-0.000972785,0.000448226,0.00230662,-0.00103405,0.135838,0.00197483,0.0115382,1105,1716,2.9119,-6.57305
-112,-692,2.90735,6.62036,0.00230036,-0.00106735,0.000634751,0.00241603,-0.00118301,0.180245,0.00211816,0.0111022,1112,1716,2.9073,-6.6204
-105,-692,2.9209,6.64355,0.00236814,-0.00134186,0.00127488,0.00276399,-0.00173772,0.301065,0.00262148,0.015859,1119,1716,2.92085,-6.6435
-98,-692,2.94312,6.6969,0.00240515,-0.00124202,0.00204496,0.00332152,-0.00215839,0.42128,0.00318749,0.0176055,1126,1716,2.94309,-6.69695
-91,-692,2.93298,6.72131,0.002368,-0.00108194,0.00269816,0.00384546,-0.00255941,0.500985,0.00372262,0.0185903,1133,1716,2.93298,-6.72137
-84,-692,2.9364,6.7428,0.00231647,-0.000995475,0.00340612,0.00444783,-0.00312684,0.559135,0.00439535,0.0200894,1140,1716,2.93644,-6.74275
-77,-692,2.92407,6.84363,0.00222634,-0.000892977,0.0041436,0.00509409,-0.00376073,0.605399,0.00513162,0.0128497,1147,1716,2.92404,-6.8436
-70,-692,2.92163,6.88977,0.00218411,-0.000935572,0.0047424,0.0056166,-0.00436807,0.626514,0.00577966,0.013525,1154,1716,2.92168,-6.88979
-63,-692,2.93103,6.90881,0.00182119,-0.00128866,0.00455238,0.00507687,-0.00454434,0.620828,0.00555765,0.015407,1161,1716,2.93099,-6.90878
-56,-692,2.92908,7.00903,0.00114543,-0.0020935,0.00367968,0.00354625,-0.00449432,0.578099,0.00465297,0.0217303,1168,1716,2.92903,-7.00898
-49,-692,2.85767,7.43713,0.00186575,-0.00339633,0.00255042,0.002899,-0.00442957,0.38492,0.0042618,0.0367529,1175,1716,2.8577,-7.43712
-42,-692,2.88062,7.21387,0.00412179,-0.00427167,0.00147845,0.0043746,-0.00452448,0.169355,0.00513813,0.0481021,1182,1716,2.88066,-7.21382
-35,-692,2.84326,7.09375,0.0057249,-0.00551248,-6.02643e-05,0.00572523,-0.00551281,-0.00536263,0.00648867,0.0444944,1189,1716,2.84325,-7.09372
-28,-692,2.86792,7.03308,0.00724668,-0.00720498,-0.00159826,0.00742133,-0.00737963,-0.108841,0.00854535,0.0306757,1196,1716,2.86791,-7.03309
-21,-692,2.95203,7.01001,0.00844256,-0.00935091,-0.00341677,0.00907611,-0.00998445,-0.183339,0.0110088,0.0198307,1203,1716,2.95199,-7.01007
-14,-692,2.98584,7.02612,0.00965817,-0.011581,-0.00516288,0.0108467,-0.0127695,-0.226259,0.0136499,0.0134817,1210,1716,2.98583,-7.02616
-7,-692,2.98352,7.05713,0.0109514,-0.0139141,-0.0064781,0.0125378,-0.0155006,-0.240174,0.0162181,0.0147738,1217,1716,2.98347,-7.05712
0,-692,2.99243,7.07312,0.0120345,-0.0160082,-0.00812501,0.0142185,-0.0181922,-0.262595,0.0187592,0.0169467,1224,1716,2.99247,-7.07308
7,-692,2.97144,7.08386,0.0126852,-0.0183306,-0.00948355,0.0153551,-0.0210005,-0.274427,0.0210742,0.0202027,1231,1716,2.97141,-7.08386
14,-692,3.01013,7.13806,0.0128685,-0.0202731,-0.0103175,0.015818,-0.0232226,-0.278446,0.0226748,0.0227751,1238,1716,3.01011,-7.13809
21,-692,3.0719,7.15039,0.0128062,-0.021698,-0.0113938,0.016229,-0.0251208,-0.291836,0.0240566,0.0245717,1245,1716,3.0719,-7.15035
28,-692,3.01135,7.12231,0.0120096,-0.0225688,-0.0126546,0.0161459,-0.0267051,-0.31592,0.0249892,0.0236281,1252,1716,3.01131,-7.12231
35,-692,2.99084,7.15857,0.0108632,-0.0231608,-0.0140437,0.015911,-0.0282086,-0.345053,0.0258002,0.0215563,1259,1716,2.99083,-7.15856
42,-692,3.06921,7.18372,0.00940511,-0.0232237,-0.0152746,0.0154396,-0.0292581,-0.376246,0.0262141,0.0204551,1266,1716,3.06922,-7.18373
49,-692,3.11438,7.17041,0.00753854,-0.0241307,-0.0166886,0.0147093,-0.0313014,-0.405825,0.0271339,0.0241284,1273,1716,3.11441,-7.17039
56,-692,3.07141,7.14856,0.00531537,-0.0243213,-0.0179384,0.0137644,-0.0327703,-0.440181,0.0276037,0.0299652,1280,1716,3.07144,-7.14856
63,-692,3.11658,7.15881,0.00270038,-0.0247542,-0.018996,0.0124099,-0.0344638,-0.472518,0.0280432,0.0281962,1287,1716,3.11656,-7.15887
70,-692,3.11877,7.18176,0.000548107,-0.0249838,-0.0195089,0.0110967,-0.0355324,-0.49568,0.0281265,0.0234635,1294,1716,3.11879,-7.18172
77,-692,3.18323,7.14941,0,0,0,0,0,0,0,-1,1301,1716,3.18321,-7.14939
84,-692,3.25256,7.06628,0,0,0,0,0,0,0,-1,1308,1716,3.25255,-7.06633
91,-692,3.09741,7.22803,-0.0024438,-0.0260197,-0.019658,0.00868974,-0.0371532,-0.515317,0.0281166,0.0326393,1315,1716,3.0974,-7.22805
98,-692,2.99194,7.22803,-0.00283202,-0.0265991,-0.0192264,0.00788695,-0.037318,-0.508593,0.027882,0.0267374,1322,1716,2.99191,-7.22803
105,-692,3.11121,7.13928,-0.00287776,-0.0272896,-0.0184631,0.00704933,-0.0372167,-0.493329,0.0274642,0.033223,1329,1716,3.11126,-7.13926
112,-692,3.19922,7.12256,-0.00253378,-0.0275206,-0.0173755,0.00637359,-0.036428,-0.473708,0.026665,0.0355339,1336,1716,3.19921,-7.12257
119,-692,3.09985,7.12903,-0.00166429,-0.0272123,-0.0162656,0.00624371,-0.0351203,-0.45253,0.0257484,0.030779,1343,1716,3.09987,-7.12906
126,-692,3.12939,7.14807,-0.000809272,-0.0265807,-0.0147919,0.0059224,-0.0333124,-0.42708,0.0244229,0.0299104,1350,1716,3.12939,-7.14808
133,-692,3.19202,7.11487,9.50183e-05,-0.0255222,-0.0130714,0.00558732,-0.0310145,-0.397777,0.0227684,0.0236767,1357,1716,3.19201,-7.11483
140,-692,3.2583,7.09155,0.000645902,-0.0238573,-0.0111733,0.00497572,-0.0281871,-0.369698,0.0206508,0.0275275,1364,1716,3.25829,-7.09151
147,-692,3.30432,7.1637,0.00114355,-0.0219396,-0.00935745,0.0044603,-0.0252564,-0.340634,0.0185044,0.028046,1371,1716,3.30437,-7.16375
154,-692,3.24976,7.17407,0.00173687,-0.0183297,-0.00717364,0.0040376,-0.0206304,-0.310356,0.0152784,0.0246197,1378,1716,3.2498,-7.17413
161,-692,3.45496,7.06812,0.00227228,-0.0152668,-0.00539013,0.00379634,-0.0167909,-0.275558,0.0126507,0.0351803,1385,1716,3.45493,-7.06808
168,-692,3.41003,7.12756,0.00201281,-0.0120377,-0.00377545,0.00296303,-0.0129879,-0.246563,0.00979682,0.0396214,1392,1716,3.41001,-7.12755
175,-692,3.29614,7.26782,0.00193351,-0.00891542,-0.00210467,0.00232751,-0.00930941,-0.185057,0.00711024,0.0399099,1399,1716,3.29609,-7.26779
182,-692,3.30261,7.22083,0.00149255,-0.00559758,0.000237573,0.00150051,-0.00560553,0.0334575,0.00432484,0.0277354,1406,1716,3.30259,-7.2208
189,-692,3.23401,7.05908,0.00080324,-0.0014965,0.00260051,0.00249676,-0.00319002,0.577236,0.00329138,0.0239667,1413,1716,3.23405,-7.05903
196,-692,3.23523,6.99939,-7.69124e-05,0.0023769,0.00411629,0.00544524,-0.00314525,0.930237,0.00501863,0.0141805,1420,1716,3.23519,-6.99933
203,-692,3.22986,6.95911,-0.000231159,0.00258187,0.0043243,0.00572264,-0.00337193,0.942631,0.0053089,0.0128696,1427,1716,3.22992,-6.95908
210,-692,3.28833,6.93665,-0.000626156,0.00195373,0.0041894,0.00504728,-0.00371971,0.934745,0.00508093,0.0162689,1434,1716,3.28838,-6.93665
217,-692,3.27051,6.90955,-0.00109352,0.0017879,0.0039891,0.00458848,-0.0038941,0.95869,0.00490289,0.0161328,1441,1716,3.27052,-6.90957
224,-692,3.24207,6.88684,-0.00146698,0.00146862,0.00369579,0.00397741,-0.00397577,0.974424,0.00459177,0.011901,1448,1716,3.24208,-6.8869
231,-692,3.2428,6.84204,-0.00160356,0.000976463,0.00332022,0.00324847,-0.00387557,0.970689,0.00411838,0.0103782,1455,1716,3.24278,-6.84205
238,-692,3.24146,6.74402,-0.00158422,0.000653401,0.00295963,0.00269863,-0.00362945,0.966108,0.00366667,0.0164597,1462,1716,3.2415,-6.74405
245,-692,3.2417,6.69507,-0.00146019,0.000494126,0.00250747,0.00220811,-0.00317418,0.971196,0.00312411,0.0201421,1469,1716,3.24169,-6.69506
252,-692,3.26367,6.69934,-0.00127433,0.000400703,0.00203419,0.00176305,-0.00263667,0.980682,0.00255682,0.0180715,1476,1716,3.26368,-6.69932
259,-692,3.26111,6.69189,-0.00110712,0.000293722,0.00153713,0.00128249,-0.00209589,0.999176,0.00196926,0.0096644,1483,1716,3.26115,-6.69187
266,-692,3.24792,6.6604,-0.000974641,0.000297134,0.00101174,0.000856226,-0.00153373,1.06596,0.0013982,0.00965247,1490,1716,3.24787,-6.66043
273,-692,3.24707,6.60718,-0.000762617,0.000348146,0.000567118,0.000586535,-0.00100101,1.17287,0.000926921,0.0142554,1497,1716,3.24704,-6.60717
280,-692,3.27698,6.56201,-0.00057972,0.000199805,0.000425382,0.000386987,-0.000766902,1.15626,0.000678128,0.013973,1504,1716,3.27696,-6.56206
287,-692,3.28601,6.53442,-0.000491384,1.4419e-06,0.000317185,0.000156682,-0.000646625,1.11564,0.000491703,0.0105508,1511,1716,3.28602,-6.53444
294,-692,3.27673,6.47778,-0.000421789,-3.32003e-05,0.000358648,0.000180401,-0.00063539,1.03364,0.000494813,0.0105653,1518,1716,3.27673,-6.47782
301,-692,3.28137,6.42371,-0.000293735,-0.000142216,0.000388603,0.000177943,-0.000613894,0.881667,0.000479707,0.0133507,1525,1716,3.28139,-6.42367
308,-692,3.25781,6.37415,-0.000156198,-6.69027e-05,0.000183529,7.73315e-05,-0.000300432,0.904717,0.000230432,0.0155938,1532,1716,3.25786,-6.3741
315,-692,3.27209,6.32263,-0.000116416,-2.99051e-05,0.000578928,0.000507381,-0.000653702,0.822687,0.000672124,0.0145394,1539,1716,3.2721,-6.32263
322,-692,3.26501,6.25842,0.000322885,-0.000666052,0.00109403,0.001029,-0.00137216,0.573152,0.00139102,0.0195538,1546,1716,3.26501,-6.25848
329,-692,3.24426,6.19519,0.00147675,-0.000748026,0.00097434,0.00184313,-0.0011144,0.35967,0.00172472,0.0174877,1553,1716,3.24424,-6.19514
336,-692,3.25696,6.16309,0.0021642,-0.0013638,0.00122695,0.00254895,-0.00174855,0.303867,0.00249547,0.0122683,1560,1716,3.25695,-6.16306
343,-692,3.26721,6.10229,0.00263687,-0.00100843,0.00212451,0.00361343,-0.00198499,0.430862,0.00327751,0.0118525,1567,1716,3.2672,-6.10234
350,-692,3.28772,6.03223,0.00323683,0.00038934,0.00395158,0.00601333,-0.00238716,0.612489,0.00499837,0.0126366,1574,1716,3.28776,-6.03217
357,-692,3.2821,5.99573,0.00405988,0.00111101,0.00534679,0.00813181,-0.00296092,0.650861,0.00663228,0.0177674,1581,1716,3.2821,-5.99567
364,-692,3.2688,5.94373,0.00467619,0.00224772,0.00715739,0.0107216,-0.0037977,0.701374,0.00869464,0.0243839,1588,1716,3.26885,-5.94371
371,-692,3.44958,5.88745,0.00494519,0.00380726,0.00961663,0.0140097,-0.00525722,0.75585,0.0115,0.0302481,1595,1716,3.44954,-5.88747
378,-692,3.62622,5.90552,0,0,0,0,0,0,0,-1,1602,1716,3.62623,-5.90547
385,-692,3.37781,5.71057,0,0,0,0,0,0,0,-1,1609,1716,3.37784,-5.71051
392,-692,4.90698,7.24817,0,0,0,0,0,0,0,-1,1616,1716,4.907,-7.24814
399,-692,5.08984,8.48669,0,0,0,0,0,0,0,-1,1623,1716,5.08985,-8.48674
406,-692,5.11902,10.1721,0,0,0,0,0,0,0,-1,1630,1716,5.11897,-10.1721
413,-692,5.47668,11.8157,0,0,0,0,0,0,0,-1,1637,1716,5.47665,-11.8157
420,-692,4.05249,14.3744,0,0,0,0,0,0,0,-1,1644,1716,4.05247,-14.3744
427,-692,4.90149,15.4204,0,0,0,0,0,0,0,-1,1651,1716,4.90149,-15.4204
434,-692,5.13733,4.4696,0,0,0,0,0,0,0,-1,1658,1716,5.13729,-4.46959
441,-692,5.35071,4.41748,0,0,0,0,0,0,0,-1,1665,1716,5.35071,-4.41752
448,-692,6.23376,8.17505,0,0,0,0,0,0,0,-1,1672,1716,6.23373,-8.17503
455,-692,0,0,0,0,0,0,0,0,0,-1,1679,1716,0,0
462,-692,0,0,0,0,0,0,0,0,0,-1,1686,1716,0,0
469,-692,0,0,0,0,0,0,0,0,0,-1,1693,1716,0,0
476,-692,0,0,0,0,0,0,0,0,0,-1,1700,1716,0,0
483,-692,0,0,0,0,0,0,0,0,0,-1,1707,1716,0,0
490,-692,0,0,0,0,0,0,0,0,0,-1,1714,1716,0,0
497,-692,0,0,0,0,0,0,0,0,0,-1,1721,1716,0,0
504,-692,0,0,0,0,0,0,0,0,0,-1,1728,1716,0,0
511,-692,0,0,0,0,0,0,0,0,0,-1,1735,1716,0,0
518,-692,0,0,0,0,0,0,0,0,0,-1,1742,1716,0,0
525,-692,0,0,0,0,0,0,0,0,0,-1,1749,1716,0,0
532,-692,0,0,0,0,0,0,0,0,0,-1,1756,1716,0,0
539,-692,0,0,0,0,0,0,0,0,0,-1,1763,1716,0,0
546,-692,0,0,0,0,0,0,0,0,0,-1,1770,1716,0,0
553,-692,0,0,0,0,0,0,0,0,0,-1,1777,1716,0,0
560,-692,0,0,0,0,0,0,0,0,0,-1,1784,1716,0,0
567,-692,0,0,0,0,0,0,0,0,0,-1,1791,1716,0,0
574,-692,0,0,0,0,0,0,0,0,0,-1,1798,1716,0,0
581,-692,0,0,0,0,0,0,0,0,0,-1,1805,1716,0,0
588,-692,0,0,0,0,0,0,0,0,0,-1,1812,1716,0,0
595,-692,0,0,0,0,0,0,0,0,0,-1,1819,1716,0,0
602,-692,0,0,0,0,0,0,0,0,0,-1,1826,1716,0,0
609,-692,0,0,0,0,0,0,0,0,0,-1,1833,1716,0,0
616,-692,0,0,0,0,0,0,0,0,0,-1,1840,1716,0,0
623,-692,0,0,0,0,0,0,0,0,0,-1,1847,1716,0,0
630,-692,0,0,0,0,0,0,0,0,0,-1,1854,1716,0,0
637,-692,0,0,0,0,0,0,0,0,0,-1,1861,1716,0,0
644,-692,0,0,0,0,0,0,0,0,0,-1,1868,1716,0,0
651,-692,0,0,0,0,0,0,0,0,0,-1,1875,1716,0,0
658,-692,0,0,0,0,0,0,0,0,0,-1,1882,1716,0,0
665,-692,0,0,0,0,0,0,0,0,0,-1,1889,1716,0,0
672,-692,0,0,0,0,0,0,0,0,0,-1,1896,1716,0,0
679,-692,0,0,0,0,0,0,0,0,0,-1,1903,1716,0,0
686,-692,0,0,0,0,0,0,0,0,0,-1,1910,1716,0,0
693,-692,0,0,0,0,0,0,0,0,0,-1,1917,1716,0,0
700,-692,0,0,0,0,0,0,0,0,0,-1,1924,1716,0,0
707,-692,0,0,0,0,0,0,0,0,0,-1,1931,1716,0,0
714,-692,0,0,0,0,0,0,0,0,0,-1,1938,1716,0,0
721,-692,0,0,0,0,0,0,0,0,0,-1,1945,1716,0,0
728,-692,0,0,0,0,0,0,0,0,0,-1,1952,1716,0,0
735,-692,0,0,0,0,0,0,0,0,0,-1,1959,1716,0,0
742,-692,0,0,0,0,0,0,0,0,0,-1,1966,1716,0,0
749,-692,0,0,0,0,0,0,0,0,0,-1,1973,1716,0,0
756,-692,0,0,0,0,0,0,0,0,0,-1,1980,1716,0,0
763,-692,0,0,0,0,0,0,0,0,0,-1,1987,1716,0,0
770,-692,0,0,0,0,0,0,0,0,0,-1,1994,1716,0,0
777,-692,0,0,0,0,0,0,0,0,0,-1,2001,1716,0,0
784,-692,0,0,0,0,0,0,0,0,0,-1,2008,1716,0,0
791,-692,0,0,0,0,0,0,0,0,0,-1,2015,1716,0,0
798,-692,0,0,0,0,0,0,0,0,0,-1,2022,1716,0,0
805,-692,0,0,0,0,0,0,0,0,0,-1,2029,1716,0,0
812,-692,0,0,0,0,0,0,0,0,0,-1,2036,1716,0,0
-700,-699,0,0,0,0,0,0,0,0,0,-1,524,1723,0,0
-693,-699,0,0,0,0,0,0,0,0,0,-1,531,1723,0,0
-686,-699,0,0,0,0,0,0,0,0,0,-1,538,1723,0,0
-679,-699,0,0,0,0,0,0,0,0,0,-1,545,1723,0,0
-672,-699,0,0,0,0,0,0,0,0,0,-1,552,1723,0,0
-665,-699,0,0,0,0,0,0,0,0,0,-1,559,1723,0,0
-658,-699,0,0,0,0,0,0,0,0,0,-1,566,1723,0,0
-651,-699,0,0,0,0,0,0,0,0,0,-1,573,1723,0,0
-644,-699,0,0,0,0,0,0,0,0,0,-1,580,1723,0,0
-637,-699,0,0,0,0,0,0,0,0,0,-1,587,1723,0,0
-630,-699,0,0,0,0,0,0,0,0,0,-1,594,1723,0,0
-623,-699,0,0,0,0,0,0,0,0,0,-1,601,1723,0,0
-616,-699,0,0,0,0,0,0,0,0,0,-1,608,1723,0,0
-609,-699,0,0,0,0,0,0,0,0,0,-1,615,1723,0,0
-602,-699,0,0,0,0,0,0,0,0,0,-1,622,1723,0,0
-595,-699,0,0,0,0,0,0,0,0,0,-1,629,1723,0,0
-588,-699,0,0,0,0,0,0,0,0,0,-1,636,1723,0,0
-581,-699,0,0,0,0,0,0,0,0,0,-1,643,1723,0,0
-574,-699,0,0,0,0,0,0,0,0,0,-1,650,1723,0,0
-567,-699,0,0,0,0,0,0,0,0,0,-1,657,1723,0,0
-560,-699,0,0,0,0,0,0,0,0,0,-1,664,1723,0,0
-553,-699,0,0,0,0,0,0,0,0,0,-1,671,1723,0,0
-546,-699,0,0,0,0,0,0,0,0,0,-1,678,1723,0,0
-539,-699,0,0,0,0,0,0,0,0,0,-1,685,1723,0,0
-532,-699,0,0,0,0,0,0,0,0,0,-1,692,1723,0,0
-525,-699,0,0,0,0,0,0,0,0,0,-1,699,1723,0,0
-518,-699,0,0,0,0,0,0,0,0,0,-1,706,1723,0,0
-511,-699,0,0,0,0,0,0,0,0,0,-1,713,1723,0,0
-504,-699,0,0,0,0,0,0,0,0,0,-1,720,1723,0,0
-497,-699,0,0,0,0,0,0,0,0,0,-1,727,1723,0,0
-490,-699,0,0,0,0,0,0,0,0,0,-1,734,1723,0,0
-483,-699,0,0,0,0,0,0,0,0,0,-1,741,1723,0,0
-476,-699,0,0,0,0,0,0,0,0,0,-1,748,1723,0,0
-469,-699,0,0,0,0,0,0,0,0,0,-1,755,1723,0,0
-462,-699,0,0,0,0,0,0,0,0,0,-1,762,1723,0,0
-455,-699,0,0,0,0,0,0,0,0,0,-1,769,1723,0,0
-448,-699,0,0,0,0,0,0,0,0,0,-1,776,1723,0,0
-441,-699,0,0,0,0,0,0,0,0,0,-1,783,1723,0,0
-434,-699,0,0,0,0,0,0,0,0,0,-1,790,1723,0,0
-427,-699,0,0,0,0,0,0,0,0,0,-1,797,1723,0,0
-420,-699,0,0,0,0,0,0,0,0,0,-1,804,1723,0,0
-413,-699,0,0,0,0,0,0,0,0,0,-1,811,1723,0,0
-406,-699,0,0,0,0,0,0,0,0,0,-1,818,1723,0,0
-399,-699,0,0,0,0,0,0,0,0,0,-1,825,1723,0,0
-392,-699,0,0,0,0,0,0,0,0,0,-1,832,1723,0,0
-385,-699,0,0,0,0,0,0,0,0,0,-1,839,1723,0,0
-378,-699,0,0,0,0,0,0,0,0,0,-1,846,1723,0,0
-371,-699,0,0,0,0,0,0,0,0,0,-1,853,1723,0,0
-364,-699,0,0,0,0,0,0,0,0,0,-1,860,1723,0,0
-357,-699,0,0,0,0,0,0,0,0,0,-1,867,1723,0,0
-350,-699,0,0,0,0,0,0,0,0,0,-1,874,1723,0,0
-343,-699,0,0,0,0,0,0,0,0,0,-1,881,1723,0,0
-336,-699,0,0,0,0,0,0,0,0,0,-1,888,1723,0,0
-329,-699,0,0,0,0,0,0,0,0,0,-1,895,1723,0,0
-322,-699,0,0,0,0,0,0,0,0,0,-1,902,1723,0,0
-315,-699,4.21466,6.10791,-0.0596012,-0.068495,-0.0397186,-0.0240813,-0.104015,-0.72965,0.0628726,0.0472622,909,1723,4.21468,-6.10788
-308,-699,3.36481,6.35229,-0.0417201,-0.0507314,-0.0454118,-0.000590961,-0.0918605,-0.735952,0.0610443,0.0471312,916,1723,3.36481,-6.35226
-301,-699,2.54224,6.51648,0,0,0,0,0,0,0,-1,923,1723,2.54225,-6.51651
-294,-699,3.32501,4.78882,0,0,0,0,0,0,0,-1,930,1723,3.32502,-4.78885
-287,-699,1.54297,8.83142,0,0,0,0,0,0,0,-1,937,1723,1.54298,-8.83136
-280,-699,1.94458,7.35168,0.0144273,0.00817972,-0.0538487,0.0652428,-0.0426358,-0.756425,0.0627379,0.045108,944,1723,1.94461,-7.35167
-273,-699,2.32013,6.0592,0.0174298,0.0138483,-0.0469851,0.0626583,-0.0313802,-0.766351,0.0552851,0.0424864,951,1723,2.32011,-6.05916
-266,-699,2.61603,5.35413,0.0180729,0.0158722,-0.0384504,0.0554386,-0.0214936,-0.771093,0.0458354,0.0454142,958,1723,2.61601,-5.3541
-259,-699,2.97821,5.24573,0.0190301,0.0179109,-0.0321302,0.0506055,-0.0136646,-0.776691,0.0390961,0.0485719,965,1723,2.97823,-5.24577
-252,-699,3.0769,5.29651,0,0,0,0,0,0,0,-1,972,1723,3.07691,-5.29653
-245,-699,2.46094,5.3656,0,0,0,0,0,0,0,-1,979,1723,2.46096,-5.36563
-238,-699,3.14783,5.74451,0,0,0,0,0,0,0,-1,986,1723,3.1478,-5.74449
-231,-699,3.10101,5.73792,0.00168039,0.00261119,-0.00849065,0.0106492,-0.00635761,-0.812777,0.00992254,0.0395592,993,1723,3.10101,-5.73786
-224,-699,3.01514,5.71948,-0.00172814,-0.00114965,-0.00469857,0.00326857,-0.00614636,-0.816139,0.00551971,0.0356079,1000,1723,3.01516,-5.71949
-217,-699,2.96753,5.77478,-0.00393975,-0.00330416,-0.00261561,-0.00098711,-0.0062568,-0.845852,0.0038842,0.024766,1007,1723,2.96755,-5.77473
-210,-699,2.9762,5.84033,-0.00489221,-0.00398652,-0.002371,-0.00202551,-0.00685322,-0.879758,0.00406547,0.0173344,1014,1723,2.97621,-5.84039
-203,-699,2.98492,5.91394,-0.0053957,-0.00471139,-0.00234568,-0.00268304,-0.00742405,-0.857821,0.00434083,0.020152,1021,1723,2.98495,-5.91397
-196,-699,2.97742,5.96912,-0.00492122,-0.00442608,-0.00270799,-0.00195437,-0.00739294,-0.830983,0.0044235,0.0166766,1028,1723,2.97745,-5.96911
-189,-699,2.95093,6.03333,-0.00425278,-0.00397533,-0.00296056,-0.00115025,-0.00707786,-0.80881,0.00438573,0.00903785,1035,1723,2.95093,-6.03334
-182,-699,2.9314,6.09424,-0.00349054,-0.00342509,-0.00290147,-0.000556164,-0.00635947,-0.791037,0.00406695,0.0120166,1042,1723,2.93145,-6.09425
-175,-699,2.93298,6.1781,-0.00253933,-0.0029046,-0.00276873,5.2779e-05,-0.00549671,-0.752465,0.00368219,0.0141634,1049,1723,2.93295,-6.1781
-168,-699,2.95935,6.2439,-0.00176038,-0.0024102,-0.00249615,0.000431915,-0.00460249,-0.720679,0.00322197,0.0143739,1056,1723,2.95937,-6.24393
-161,-699,2.95508,6.30737,-0.00113686,-0.00192829,-0.00218941,0.000692305,-0.00375746,-0.695993,0.00276479,0.0121227,1063,1723,2.95511,-6.30738
-154,-699,2.94604,6.35571,-0.000312185,-0.00111821,-0.00147186,0.000810846,-0.00224124,-0.651768,0.00182549,0.0123979,1070,1723,2.9461,-6.35571
-147,-699,2.93799,6.38599,0.000453531,-0.000841203,-0.000941739,0.000948949,-0.00133662,-0.484283,0.00132589,0.0135129,1077,1723,2.93801,-6.386
-140,-699,2.93201,6.41687,0.000601349,-0.000709062,-0.000616077,0.000845502,-0.000953215,-0.377315,0.00103911,0.00918025,1084,1723,2.93197,-6.41682
-133,-699,2.94019,6.47632,0.000982081,-0.000637328,-0.000177611,0.00100133,-0.000656579,-0.107966,0.000964069,0.00872471,1091,1723,2.9402,-6.4763
-126,-699,2.94727,6.51489,0.00123591,-0.000623791,9.70551e-05,0.00124097,-0.000628842,0.0520001,0.00109865,0.0115219,1098,1723,2.94721,-6.51487
-119,-699,2.97754,6.57703,0.00122514,-0.000559994,0.000362206,0.00129583,-0.000630687,0.192749,0.00113416,0.0169114,1105,1723,2.97751,-6.57701
-112,-699,2.95679,6.62146,0.0011444,-0.000451711,0.000533667,0.00130639,-0.000613704,0.294707,0.00113236,0.0115355,1112,1723,2.95677,-6.62148
-105,-699,2.95483,6.6543,0.00120343,-0.000534772,0.000846457,0.00154752,-0.00087886,0.3861,0.00141849,0.0120184,1119,1723,2.95489,-6.65432
-98,-699,2.97144,6.7074,0.00128836,-0.000305513,0.00124008,0.0019655,-0.000982652,0.499802,0.00173336,0.0141748,1126,1723,2.97141,-6.70737
-91,-699,2.9873,6.73279,0.00135801,7.78222e-05,0.00155573,0.00240018,-0.000964348,0.590233,0.0020006,0.018229,1133,1723,2.98725,-6.73282
-84,-699,2.97766,6.7782,0.00146549,0.000400864,0.00185777,0.00286571,-0.000999348,0.645869,0.00231659,0.0199963,1140,1723,2.9776,-6.7782
-77,-699,2.95605,6.82935,0.00155824,0.000729559,0.0021297,0.00331353,-0.00102573,0.689321,0.00261877,0.0139273,1147,1723,2.95611,-6.82932
-70,-699,2.96399,6.8811,0.00170707,0.000902336,0.00227644,0.00361643,-0.00100702,0.697925,0.00280749,0.0165274,1154,1723,2.96396,-6.8811
-63,-699,2.96973,6.92615,0.0015961,0.000852605,0.00213599,0.00339245,-0.000943741,0.699241,0.0026332,0.0145248,1161,1723,2.96976,-6.9262
-56,-699,2.95447,6.92151,0.00130513,0.000439574,0.00161871,0.00254792,-0.00080321,0.654773,0.00202029,0.0100864,1168,1723,2.95449,-6.92151
-49,-699,2.93787,6.96045,0.00188875,-0.000460786,0.000962293,0.00223256,-0.000804599,0.34315,0.00181696,0.0194776,1175,1723,2.93782,-6.96039
-42,-699,2.95142,7.01379,0.00318454,-0.00109192,0.000399283,0.0032215,-0.00112888,0.0923046,0.00260676,0.0199403,1182,1723,2.95137,-7.01376
-35,-699,2.96411,7.02197,0.00407126,-0.00210992,-0.000406474,0.00409787,-0.00213653,-0.0653847,0.00365833,0.0188891,1189,1723,2.96406,-7.02198
-28,-699,3.00476,7.01123,0.00510129,-0.00353437,-0.00111298,0.00524243,-0.0036755,-0.126136,0.0051752,0.0147375,1196,1723,3.00482,-7.01125
-21,-699,2.99768,7.02356,0.00581503,-0.00542498,-0.00212132,0.00620205,-0.005812,-0.180462,0.00693754,0.0104351,1203,1723,2.99767,-7.02352
-14,-699,2.99487,7.04712,0.00655952,-0.00735123,-0.00313848,0.00723482,-0.00802654,-0.211939,0.0088151,0.0105316,1210,1723,2.99491,-7.04717
-7,-699,3.00146,7.08289,0.00733392,-0.0093747,-0.00381916,0.0081655,-0.0102063,-0.214391,0.0106287,0.00836172,1217,1723,3.00144,-7.08294
0,-699,3.00085,7.10815,0.00802592,-0.0111301,-0.00475802,0.00914264,-0.0122468,-0.230528,0.0123925,0.0101266,1224,1723,3.00083,-7.10817
7,-699,2.9989,7.12219,0.00850117,-0.0131841,-0.00566124,0.00989015,-0.0145731,-0.240596,0.0142098,0.0159364,1231,1723,2.99892,-7.12218
14,-699,3.03223,7.15588,0.00862357,-0.0148313,-0.00619259,0.0101581,-0.0163659,-0.242915,0.0154528,0.0169385,1238,1723,3.03228,-7.15586
21,-699,3.0719,7.15491,0.00862045,-0.0161683,-0.00685653,0.0103906,-0.0179384,-0.252647,0.0165481,0.0165439,1245,1723,3.07195,-7.15488
28,-699,3.05725,7.14514,0.00820861,-0.017171,-0.00767564,0.0103494,-0.0193118,-0.271995,0.0173835,0.0160017,1252,1723,3.0572,-7.14515
35,-699,3.05469,7.16357,0.00761291,-0.0180285,-0.0086716,0.0102702,-0.0206857,-0.297347,0.0182065,0.0131482,1259,1723,3.05471,-7.16361
42,-699,3.0741,7.18506,0.00676148,-0.0184142,-0.00960747,0.010009,-0.0216616,-0.325959,0.018693,0.0116251,1266,1723,3.07406,-7.18507
49,-699,3.10229,7.17493,0.00564504,-0.0195362,-0.0107662,0.00962047,-0.0235116,-0.353722,0.0196813,0.0140706,1273,1723,3.10233,-7.17491
56,-699,3.11389,7.17932,0.00433389,-0.0199564,-0.0118435,0.00915264,-0.0247751,-0.386413,0.0202686,0.0147799,1280,1723,3.11385,-7.17927
63,-699,3.10388,7.19189,0.00279981,-0.0206294,-0.012751,0.00840056,-0.0262301,-0.413868,0.0208586,0.0117591,1287,1723,3.10388,-7.19195
70,-699,3.10254,7.19727,0.00162231,-0.021015,-0.0133036,0.00777066,-0.0271634,-0.432919,0.0211798,0.00973725,1294,1723,3.10249,-7.19729
77,-699,3.11768,7.20508,0.000639038,-0.0210494,-0.0140811,0.00756765,-0.027978,-0.457268,0.0216206,0.0100889,1301,1723,3.11772,-7.20514
84,-699,3.13733,7.19897,0.000283625,-0.0211844,-0.014236,0.00737888,-0.0282796,-0.462369,0.0217343,0.0128584,1308,1723,3.13733,-7.19901
91,-699,3.11646,7.19543,0.000175539,-0.0215907,-0.013944,0.00698079,-0.028396,-0.454034,0.0216363,0.0125411,1315,1723,3.1165,-7.19538
98,-699,3.13098,7.21375,6.31263e-05,-0.0217647,-0.0137459,0.00670094,-0.0284025,-0.449869,0.0215193,0.0110477,1322,1723,3.13104,-7.21369
105,-699,3.11804,7.20605,0.000200961,-0.0218653,-0.0132446,0.00640582,-0.0280702,-0.438118,0.0211742,0.0151924,1329,1723,3.11807,-7.20607
112,-699,3.10107,7.18958,0.000612834,-0.0215493,-0.0124296,0.00618362,-0.02712,-0.421346,0.0204552,0.0210496,1336,1723,3.10111,-7.18955
119,-699,3.08557,7.17151,0.00133973,-0.0208835,-0.0115956,0.00628815,-0.0258319,-0.403354,0.0196555,0.0159547,1343,1723,3.08557,-7.17155
126,-699,3.14258,7.16418,0.00199026,-0.0198103,-0.0104515,0.0061913,-0.0240114,-0.382191,0.0184215,0.0167885,1350,1723,3.14255,-7.16413
133,-699,3.18835,7.14771,0.0026017,-0.0184136,-0.00906635,0.00597242,-0.0217843,-0.355949,0.0168699,0.0151438,1357,1723,3.1883,-7.14772
140,-699,3.19556,7.14148,0.0028547,-0.0165948,-0.00749266,0.00540638,-0.0191465,-0.328238,0.0148971,0.0171089,1364,1723,3.19556,-7.1415
147,-699,3.17041,7.14233,0.00301348,-0.0147139,-0.00602497,0.00486731,-0.0165677,-0.298498,0.0129756,0.0137144,1371,1723,3.1704,-7.14239
154,-699,3.14233,7.12122,0.00307657,-0.0114174,-0.00423611,0.00422383,-0.0125647,-0.264485,0.0100837,0.0132659,1378,1723,3.14236,-7.12121
161,-699,3.19165,7.08777,0.00292323,-0.00899424,-0.00280236,0.00354931,-0.00962032,-0.219801,0.00786818,0.00977802,1385,1723,3.1916,-7.08781
168,-699,3.1947,7.08752,0.00240223,-0.00643272,-0.00164342,0.00269803,-0.00672851,-0.17808,0.00560579,0.0102094,1392,1723,3.19472,-7.08756
175,-699,3.19324,7.08008,0.0018559,-0.0041499,-0.000650369,0.00192552,-0.00421952,-0.106643,0.00362931,0.0119898,1399,1723,3.1933,-7.08012
182,-699,3.18994,7.06213,0.0011378,-0.0019814,0.000777028,0.00132065,-0.00216425,0.231112,0.00203156,0.0127526,1406,1723,3.18992,-7.06217
189,-699,3.17664,7.03931,0.000475173,0.000640726,0.00219502,0.00275453,-0.00163863,0.804245,0.00256352,0.0150572,1413,1723,3.17659,-7.03935
196,-699,3.18298,6.99768,-0.000199859,0.00245727,0.00275678,0.00418892,-0.00193151,1.00994,0.00361286,0.014825,1420,1723,3.18297,-6.99772
203,-699,3.18799,6.9585,-0.00020341,0.00217443,0.00263395,0.00387536,-0.00190434,0.9974,0.00340097,0.0122608,1427,1723,3.188,-6.95847
210,-699,3.22095,6.93481,-0.000344243,0.00166336,0.00249994,0.00335349,-0.00203438,0.976311,0.00314161,0.0123293,1434,1723,3.2209,-6.93476
217,-699,3.22937,6.90601,-0.00053921,0.00141407,0.00231204,0.00294728,-0.00207242,0.985238,0.00291276,0.0130202,1441,1723,3.22937,-6.90598
224,-699,3.21338,6.87976,-0.000654815,0.00108379,0.00206173,0.00245199,-0.00202302,0.984907,0.0025876,0.0146126,1448,1723,3.21332,-6.87972
231,-699,3.23706,6.8457,-0.00065235,0.000635272,0.00180864,0.00191127,-0.00192835,0.956387,0.00221682,0.0112283,1455,1723,3.23711,-6.84573
238,-699,3.21814,6.79382,-0.000523446,0.000335649,0.00155398,0.00151835,-0.00170615,0.92024,0.00186272,0.00967915,1462,1723,3.21814,-6.79378
245,-699,3.21155,6.75452,-0.000357433,0.000212143,0.00122789,0.00118783,-0.00133312,0.89935,0.00145628,0.0116439,1469,1723,3.21151,-6.75449
252,-699,3.21606,6.73169,-0.00040186,8.27025e-05,0.000931186,0.00080261,-0.00112177,0.912669,0.00111612,0.0105345,1476,1723,3.21611,-6.73163
259,-699,3.21179,6.68311,-0.000636437,-5.55205e-05,0.000597495,0.000318376,-0.00101033,1.01164,0.000801055,0.0110205,1483,1723,3.21176,-6.68309
266,-699,3.19043,6.6532,-0.000984876,1.76325e-05,0.000254953,7.87456e-05,-0.00104599,1.33553,0.000725001,0.0128258,1490,1723,3.19039,-6.65318
273,-699,3.19983,6.62012,-0.00137528,-1.24755e-05,0.000173526,9.27277e-06,-0.00139702,1.44612,0.000934456,0.0115164,1497,1723,3.19984,-6.62017
280,-699,3.22327,6.56433,-0.00183874,-0.000409867,0.000448145,-0.000280945,-0.00196766,1.29068,0.00122888,0.0120582,1504,1723,3.22324,-6.56432
287,-699,3.23291,6.51099,-0.00247804,-0.000728123,0.00070622,-0.000478671,-0.00272749,1.23125,0.00168163,0.0105055,1511,1723,3.23294,-6.51102
294,-699,3.2301,6.46655,-0.00302498,-0.000935765,0.00107246,-0.000483253,-0.00347749,1.17152,0.00217521,0.0105122,1518,1723,3.23007,-6.4666
301,-699,3.23962,6.42944,-0.00335959,-0.00123826,0.00128614,-0.000631843,-0.00396601,1.13021,0.00246058,0.0119113,1525,1723,3.23963,-6.42947
308,-699,3.23401,6.3728,-0.00351418,-0.00124382,0.00115722,-0.000757957,-0.00400005,1.17329,0.00245339,0.0156948,1532,1723,3.23399,-6.37285
315,-699,3.23242,6.31201,-0.00363274,-0.00117631,0.00180224,-0.000223561,-0.00458549,1.0845,0.00298526,0.0181145,1539,1723,3.23238,-6.31205
322,-699,3.2168,6.25403,-0.00308457,-0.00181425,0.00258644,0.000213875,-0.00511269,0.905802,0.00348194,0.0189865,1546,1723,3.2168,-6.25407
329,-699,3.18372,6.18359,-0.0015053,-0.00180911,0.00249983,0.000847241,-0.00416165,0.755052,0.00309574,0.0146602,1553,1723,3.18368,-6.18355
336,-699,3.20618,6.14502,-0.000390183,-0.00248468,0.00281649,0.00156746,-0.00444232,0.607405,0.00359964,0.0129522,1560,1723,3.20618,-6.14507
343,-699,3.22461,6.0979,0.000433265,-0.00195817,0.00385939,0.00327792,-0.00480283,0.635177,0.00469303,0.0163096,1567,1723,3.22461,-6.09787
350,-699,3.22656,6.05591,0.00137891,-0.000197459,0.00597294,0.00661545,-0.00543399,0.719797,0.00696789,0.0254698,1574,1723,3.22653,-6.05588
357,-699,3.19141,6.13,0.00277507,0.000855228,0.00764368,0.00951886,-0.00588857,0.722933,0.00897742,0.0387822,1581,1723,3.19141,-6.13006
364,-699,3.19153,6.38257,0.00373438,0.00239679,0.00988204,0.0129702,-0.00683906,0.751611,0.0116181,0.0418343,1588,1723,3.19149,-6.38251
371,-699,3.26514,6.53333,0.00406157,0.00440504,0.0129508,0.0171852,-0.00871859,0.792028,0.0152195,0.0419666,1595,1723,3.26512,-6.5333
378,-699,3.40991,6.44043,0.00393614,0.00752851,0.0166394,0.0224684,-0.0110037,0.839164,0.0196994,0.0461666,1602,1723,3.40995,-6.44039
385,-699,3.57837,6.31726,0,0,0,0,0,0,0,-1,1609,1723,3.57836,-6.31721
392,-699,4.60803,6.74524,0.00211281,0.0156467,0.0259644,0.0357115,-0.017952,0.912874,0.0315431,0.0478539,1616,1723,4.60799,-6.74519
399,-699,5.01123,8.21204,0.000152504,0.0202737,0.0306942,0.042514,-0.0220878,0.943765,0.0379143,0.0451394,1623,1723,5.01125,-8.21203
406,-699,5.41638,9.99597,0,0,0,0,0,0,0,-1,1630,1723,5.4164,-9.99602
413,-699,5.80762,11.578,0,0,0,0,0,0,0,-1,1637,1723,5.8076,-11.578
420,-699,6.23816,12.8491,0,0,0,0,0,0,0,-1,1644,1723,6.23818,-12.8492
427,-699,6.83936,13.9327,0,0,0,0,0,0,0,-1,1651,1723,6.83932,-13.9327
434,-699,5.17908,4.48132,0,0,0,0,0,0,0,-1,1658,1723,5.17912,-4.48132
441,-699,0,0,0,0,0,0,0,0,0,-1,1665,1723,0,0
448,-699,0,0,0,0,0,0,0,0,0,-1,1672,1723,0,0
455,-699,0,0,0,0,0,0,0,0,0,-1,1679,1723,0,0
462,-699,0,0,0,0,0,0,0,0,0,-1,1686,1723,0,0
469,-699,0,0,0,0,0,0,0,0,0,-1,1693,1723,0,0
476,-699,0,0,0,0,0,0,0,0,0,-1,1700,1723,0,0
483,-699,0,0,0,0,0,0,0,0,0,-1,1707,1723,0,0
490,-699,0,0,0,0,0,0,0,0,0,-1,1714,1723,0,0
497,-699,0,0,0,0,0,0,0,0,0,-1,1721,1723,0,0
504,-699,0,0,0,0,0,0,0,0,0,-1,1728,1723,0,0
511,-699,0,0,0,0,0,0,0,0,0,-1,1735,1723,0,0
518,-699,0,0,0,0,0,0,0,0,0,-1,1742,1723,0,0
525,-699,0,0,0,0,0,0,0,0,0,-1,1749,1723,0,0
532,-699,0,0,0,0,0,0,0,0,0,-1,1756,1723,0,0
539,-699,0,0,0,0,0,0,0,0,0,-1,1763,1723,0,0
546,-699,0,0,0,0,0,0,0,0,0,-1,1770,1723,0,0
553,-699,0,0,0,0,0,0,0,0,0,-1,1777,1723,0,0
560,-699,0,0,0,0,0,0,0,0,0,-1,1784,1723,0,0
567,-699,0,0,0,0,0,0,0,0,0,-1,1791,1723,0,0
574,-699,0,0,0,0,0,0,0,0,0,-1,1798,1723,0,0
581,-699,0,0,0,0,0,0,0,0,0,-1,1805,1723,0,0
588,-699,0,0,0,0,0,0,0,0,0,-1,1812,1723,0,0
595,-699,0,0,0,0,0,0,0,0,0,-1,1819,1723,0,0
602,-699,0,0,0,0,0,0,0,0,0,-1,1826,1723,0,0
609,-699,0,0,0,0,0,0,0,0,0,-1,1833,1723,0,0
616,-699,0,0,0,0,0,0,0,0,0,-1,1840,1723,0,0
623,-699,0,0,0,0,0,0,0,0,0,-1,1847,1723,0,0
630,-699,0,0,0,0,0,0,0,0,0,-1,1854,1723,0,0
637,-699,0,0,0,0,0,0,0,0,0,-1,1861,1723,0,0
644,-699,0,0,0,0,0,0,0,0,0,-1,1868,1723,0,0
651,-699,0,0,0,0,0,0,0,0,0,-1,1875,1723,0,0
658,-699,0,0,0,0,0,0,0,0,0,-1,1882,1723,0,0
665,-699,0,0,0,0,0,0,0,0,0,-1,1889,1723,0,0
672,-699,0,0,0,0,0,0,0,0,0,-1,1896,1723,0,0
679,-699,0,0,0,0,0,0,0,0,0,-1,1903,1723,0,0
686,-699,0,0,0,0,0,0,0,0,0,-1,1910,1723,0,0
693,-699,0,0,0,0,0,0,0,0,0,-1,1917,1723,0,0
700,-699,0,0,0,0,0,0,0,0,0,-1,1924,1723,0,0
707,-699,0,0,0,0,0,0,0,0,0,-1,1931,1723,0,0
714,-699,0,0,0,0,0,0,0,0,0,-1,1938,1723,0,0
721,-699,0,0,0,0,0,0,0,0,0,-1,1945,1723,0,0
728,-699,0,0,0,0,0,0,0,0,0,-1,1952,1723,0,0
735,-699,0,0,0,0,0,0,0,0,0,-1,1959,1723,0,0
742,-699,0,0,0,0,0,0,0,0,0,-1,1966,1723,0,0
749,-699,0,0,0,0,0,0,0,0,0,-1,1973,1723,0,0
756,-699,0,0,0,0,0,0,0,0,0,-1,1980,1723,0,0
763,-699,0,0,0,0,0,0,0,0,0,-1,1987,1723,0,0
770,-699,0,0,0,0,0,0,0,0,0,-1,1994,1723,0,0
777,-699,0,0,0,0,0,0,0,0,0,-1,2001,1723,0,0
784,-699,0,0,0,0,0,0,0,0,0,-1,2008,1723,0,0
791,-699,0,0,0,0,0,0,0,0,0,-1,2015,1723,0,0
798,-699,0,0,0,0,0,0,0,0,0,-1,2022,1723,0,0
805,-699,0,0,0,0,0,0,0,0,0,-1,2029,1723,0,0
812,-699,0,0,0,0,0,0,0,0,0,-1,2036,1723,0,0
-700,-706,0,0,0,0,0,0,0,0,0,-1,524,1730,0,0
-693,-706,0,0,0,0,0,0,0,0,0,-1,531,1730,0,0
-686,-706,0,0,0,0,0,0,0,0,0,-1,538,1730,0,0
-679,-706,0,0,0,0,0,0,0,0,0,-1,545,1730,0,0
-672,-706,0,0,0,0,0,0,0,0,0,-1,552,1730,0,0
-665,-706,0,0,0,0,0,0,0,0,0,-1,559,1730,0,0
-658,-706,0,0,0,0,0,0,0,0,0,-1,566,1730,0,0
-651,-706,0,0,0,0,0,0,0,0,0,-1,573,1730,0,0
-644,-706,0,0,0,0,0,0,0,0,0,-1,580,1730,0,0
-637,-706,0,0,0,0,0,0,0,0,0,-1,587,1730,0,0
-630,-706,0,0,0,0,0,0,0,0,0,-1,594,1730,0,0
-623,-706,0,0,0,0,0,0,0,0,0,-1,601,1730,0,0
-616,-706,0,0,0,0,0,0,0,0,0,-1,608,1730,0,0
-609,-706,0,0,0,0,0,0,0,0,0,-1,615,1730,0,0
-602,-706,0,0,0,0,0,0,0,0,0,-1,622,1730,0,0
-595,-706,0,0,0,0,0,0,0,0,0,-1,629,1730,0,0
-588,-706,0,0,0,0,0,0,0,0,0,-1,636,1730,0,0
-581,-706,0,0,0,0,0,0,0,0,0,-1,643,1730,0,0
-574,-706,0,0,0,0,0,0,0,0,0,-1,650,1730,0,0
-567,-706,0,0,0,0,0,0,0,0,0,-1,657,1730,0,0
-560,-706,0,0,0,0,0,0,0,0,0,-1,664,1730,0,0
-553,-706,0,0,0,0,0,0,0,0,0,-1,671,1730,0,0
-546,-706,0,0,0,0,0,0,0,0,0,-1,678,1730,0,0
-539,-706,0,0,0,0,0,0,0,0,0,-1,685,1730,0,0
-532,-706,0,0,0,0,0,0,0,0,0,-1,692,1730,0,0
-525,-706,0,0,0,0,0,0,0,0,0,-1,699,1730,0,0
-518,-706,0,0,0,0,0,0,0,0,0,-1,706,1730,0,0
-511,-706,0,0,0,0,0,0,0,0,0,-1,713,1730,0,0
-504,-706,0,0,0,0,0,0,0,0,0,-1,720,1730,0,0
-497,-706,0,0,0,0,0,0,0,0,0,-1,727,1730,0,0
-490,-706,0,0,0,0,0,0,0,0,0,-1,734,1730,0,0
-483,-706,0,0,0,0,0,0,0,0,0,-1,741,1730,0,0
-476,-706,0,0,0,0,0,0,0,0,0,-1,748,1730,0,0
-469,-706,0,0,0,0,0,0,0,0,0,-1,755,1730,0,0
-462,-706,0,0,0,0,0,0,0,0,0,-1,762,1730,0,0
-455,-706,0,0,0,0,0,0,0,0,0,-1,769,1730,0,0
-448,-706,0,0,0,0,0,0,0,0,0,-1,776,1730,0,0
-441,-706,0,0,0,0,0,0,0,0,0,-1,783,1730,0,0
-434,-706,0,0,0,0,0,0,0,0,0,-1,790,1730,0,0
-427,-706,0,0,0,0,0,0,0,0,0,-1,797,1730,0,0
-420,-706,0,0,0,0,0,0,0,0,0,-1,804,1730,0,0
-413,-706,0,0,0,0,0,0,0,0,0,-1,811,1730,0,0
-406,-706,0,0,0,0,0,0,0,0,0,-1,818,1730,0,0
-399,-706,0,0,0,0,0,0,0,0,0,-1,825,1730,0,0
-392,-706,0,0,0,0,0,0,0,0,0,-1,832,1730,0,0
-385,-706,0,0,0,0,0,0,0,0,0,-1,839,1730,0,0
-378,-706,0,0,0,0,0,0,0,0,0,-1,846,1730,0,0
-371,-706,0,0,0,0,0,0,0,0,0,-1,853,1730,0,0
-364,-706,0,0,0,0,0,0,0,0,0,-1,860,1730,0,0
-357,-706,0,0,0,0,0,0,0,0,0,-1,867,1730,0,0
-350,-706,0,0,0,0,0,0,0,0,0,-1,874,1730,0,0
-343,-706,0,0,0,0,0,0,0,0,0,-1,881,1730,0,0
-336,-706,0,0,0,0,0,0,0,0,0,-1,888,1730,0,0
-329,-706,0,0,0,0,0,0,0,0,0,-1,895,1730,0,0
-322,-706,0,0,0,0,0,0,0,0,0,-1,902,1730,0,0
-315,-706,0,0,0,0,0,0,0,0,0,-1,909,1730,0,0
-308,-706,3.97662,7.38306,0,0,0,0,0,0,0,-1,916,1730,3.97662,-7.38307
-301,-706,3.38342,6.42017,0,0,0,0,0,0,0,-1,923,1730,3.38341,-6.42015
-294,-706,3.48334,5.57813,0,0,0,0,0,0,0,-1,930,1730,3.48333,-5.57812
-287,-706,2.0033,7.67957,0,0,0,0,0,0,0,-1,937,1730,2.00327,-7.67955
-280,-706,2.19342,6.8103,0.0200824,0.0130103,-0.0652079,0.0818501,-0.0487573,-0.758311,0.0762088,0.0451141,944,1730,2.19343,-6.81027
-273,-706,2.55859,5.91296,0.0216292,0.0180475,-0.0554047,0.0752719,-0.0355953,-0.769242,0.0653613,0.0427535,951,1730,2.5586,-5.91299
-266,-706,2.9585,5.33325,0.0216461,0.0197777,-0.044229,0.0649508,-0.0235269,-0.774839,0.0529159,0.0483766,958,1730,2.9585,-5.33321
-259,-706,3.21735,4.40051,0.0225571,0.0217967,-0.0367915,0.0589704,-0.0146165,-0.780231,0.0449844,0.0475865,965,1730,3.21737,-4.40055
-252,-706,3.81482,4.19482,0,0,0,0,0,0,0,-1,972,1730,3.81482,-4.19487
-245,-706,2.16541,5.05237,0,0,0,0,0,0,0,-1,979,1730,2.16543,-5.05232
-238,-706,3.29022,5.73926,0,0,0,0,0,0,0,-1,986,1730,3.2902,-5.73929
-231,-706,3.20935,5.78247,0.00222127,0.00318453,-0.0083983,0.011115,-0.00570919,-0.814041,0.00987917,0.0434621,993,1730,3.20933,-5.78249
-224,-706,3.1424,5.81885,-0.00175264,-0.00139286,-0.00417488,0.002606,-0.0057515,-0.806929,0.00493781,0.0446307,1000,1730,3.14237,-5.81891
-217,-706,3.09741,5.91382,-0.00432023,-0.00407514,-0.00206819,-0.00212587,-0.0062695,-0.81499,0.00368166,0.0397793,1007,1730,3.09741,-5.91387
-210,-706,3.03931,5.823,-0.00534184,-0.00498199,-0.00212092,-0.00303338,-0.00729045,-0.827714,0.00422886,0.0349761,1014,1730,3.0393,-5.82302
-203,-706,3.01672,5.91211,-0.00579059,-0.00581588,-0.00243317,-0.00337003,-0.00823644,-0.7828,0.0047814,0.0284288,1021,1730,3.01675,-5.91211
-196,-706,3.01819,5.97107,-0.00505503,-0.00549111,-0.00310389,-0.00216153,-0.00838461,-0.750332,0.00502661,0.02124,1028,1730,3.01813,-5.97108
-189,-706,3.00073,6.04224,-0.00419295,-0.00495789,-0.00358566,-0.000969422,-0.00818142,-0.732266,0.00516157,0.0166584,1035,1730,3.00078,-6.0422
-182,-706,2.9928,6.11755,-0.00327208,-0.00430896,-0.00365659,-9.73574e-05,-0.00748368,-0.714977,0.00495699,0.0130261,1042,1730,2.99275,-6.11756
-175,-706,2.99976,6.1731,-0.00216371,-0.00370853,-0.00362365,0.000768939,-0.00664118,-0.680391,0.00470476,0.0146912,1049,1730,2.9998,-6.17315
-168,-706,3.02136,6.22314,-0.00131456,-0.00307757,-0.00335577,0.00127355,-0.00566568,-0.656958,0.00426549,0.0143817,1056,1730,3.02138,-6.22313
-161,-706,3.01074,6.29138,-0.000725972,-0.00244903,-0.00305598,0.0015876,-0.0047626,-0.648006,0.00381599,0.0114224,1063,1730,3.01078,-6.29142
-154,-706,3.01855,6.3595,0.000109616,-0.0013465,-0.00211545,0.00161879,-0.00285567,-0.619666,0.00261603,0.0120355,1070,1730,3.01859,-6.35946
-147,-706,3.00415,6.37659,0.000885682,-0.000886354,-0.00138326,0.00164236,-0.00164303,-0.500554,0.00189682,0.0125972,1077,1730,3.00421,-6.37665
-140,-706,2.98889,6.4231,0.000819189,-0.000599448,-0.000915417,0.00126794,-0.0010482,-0.455787,0.00133923,0.0114174,1084,1730,2.98893,-6.42309
-133,-706,3.00696,6.4668,0.0011072,-0.000377804,-0.000302329,0.00116639,-0.000436995,-0.193338,0.000957114,0.00781223,1091,1730,3.00699,-6.46674
-126,-706,3.00513,6.50269,0.00127673,-0.000238177,7.01693e-05,0.00127998,-0.00024142,0.0461873,0.000944137,0.0120103,1098,1730,3.00507,-6.50269
-119,-706,3.01123,6.56458,0.0010414,-3.32348e-05,0.000449072,0.00120435,-0.000196185,0.348085,0.000875655,0.0169108,1105,1730,3.01122,-6.56455
-112,-706,2.99963,6.63721,0.00075166,0.000197855,0.000663875,0.00119407,-0.000244551,0.587818,0.000888847,0.0114305,1112,1730,2.99966,-6.63725
-105,-706,2.9834,6.67358,0.000673451,0.000228018,0.000789428,0.00127098,-0.000369508,0.64791,0.00099366,0.00891266,1119,1730,2.98338,-6.67364
-98,-706,2.99915,6.69861,0.000662188,0.000445902,0.000918748,0.00147914,-0.000371046,0.726814,0.00113026,0.0110789,1126,1730,2.9991,-6.69865
-91,-706,3.01624,6.73486,0.000614824,0.000903889,0.00103372,0.00180313,-0.000284418,0.854857,0.00130725,0.0132093,1133,1730,3.01629,-6.73492
-84,-706,3.00146,6.78406,0.00069568,0.00127873,0.00112249,0.00214694,-0.000172526,0.912447,0.00149213,0.0149599,1140,1730,3.00149,-6.78412
-77,-706,3.0011,6.82019,0.000773929,0.0016497,0.00113628,0.00242955,-5.91984e-06,0.969313,0.00162168,0.0148695,1147,1730,3.00105,-6.82015
-70,-706,3.00159,6.90076,0.000873595,0.00189912,0.00103233,0.00253902,0.0002337,1.0159,0.00162041,0.0182834,1154,1730,3.00163,-6.90073
-63,-706,2.97961,6.93091,0.00086639,0.00200796,0.00084807,0.00245944,0.000414914,1.0816,0.00152031,0.013551,1161,1730,2.9796,-6.93092
-56,-706,2.97595,6.91467,0.000810796,0.00188671,0.000474618,0.00206615,0.000631355,1.20933,0.00122258,0.0124496,1168,1730,2.97599,-6.91473
-49,-706,2.96204,6.93787,0.00107587,0.00139641,2.19851e-05,0.00139791,0.00107437,1.50263,0.000844998,0.0121173,1175,1730,2.96205,-6.9379
-42,-706,2.97339,6.98584,0.00157192,0.000987632,-0.000370467,0.00175157,0.000807978,-0.451527,0.00101228,0.0151656,1182,1730,2.97344,-6.98585
-35,-706,2.98999,6.99988,0.00212233,0.000149652,-0.000860877,0.00244518,-0.000173197,-0.358791,0.00169081,0.015444,1189,1730,2.99,-6.99982
-28,-706,3.02686,7.00952,0.00273196,-0.000962244,-0.00112424,0.00304719,-0.00127748,-0.273378,0.00256559,0.00987002,1196,1730,3.02686,-7.00949
-21,-706,3.01624,7.04724,0.00310725,-0.00243909,-0.00155497,0.00351345,-0.00284528,-0.255517,0.00367797,0.0098423,1203,1730,3.01625,-7.04719
-14,-706,3.0144,7.05493,0.00353351,-0.00393743,-0.00200396,0.00403709,-0.00444102,-0.246197,0.00489669,0.0101352,1210,1730,3.01444,-7.05496
-7,-706,3.0282,7.08521,0.00401843,-0.00548327,-0.00223219,0.0045167,-0.00598154,-0.219619,0.0060808,0.00863195,1217,1730,3.02819,-7.08523
0,-706,3.0332,7.12036,0.00446192,-0.00687978,-0.00264718,0.00504935,-0.00746722,-0.21837,0.00727125,0.0125047,1224,1730,3.03316,-7.12033
7,-706,3.04077,7.11328,0.00477773,-0.00850467,-0.00309868,0.00546506,-0.009192,-0.21828,0.00855296,0.0146038,1231,1730,3.04081,-7.11329
14,-706,3.04504,7.12292,0.00487643,-0.00976258,-0.00336055,0.00561102,-0.0104972,-0.215207,0.00944161,0.0140617,1238,1730,3.04509,-7.12298
21,-706,3.06799,7.12964,0.00489832,-0.010723,-0.00370134,0.00573094,-0.0115557,-0.221268,0.0101675,0.0114703,1245,1730,3.068,-7.12963
28,-706,3.05847,7.15125,0.00479668,-0.0114857,-0.00416595,0.00580066,-0.0124897,-0.236487,0.0107928,0.0121362,1252,1730,3.05845,-7.15127
35,-706,3.06848,7.15857,0.0046178,-0.012167,-0.00481439,0.00590066,-0.0134499,-0.260414,0.0114519,0.014056,1259,1730,3.06851,-7.15863
42,-706,3.07324,7.19092,0.00424404,-0.0124855,-0.00545194,0.00586391,-0.0141054,-0.28881,0.0118521,0.0117915,1266,1730,3.0732,-7.19089
49,-706,3.08289,7.1897,0.00371652,-0.013446,-0.00630483,0.00578369,-0.0155131,-0.316826,0.0127162,0.0135769,1273,1730,3.08289,-7.18975
56,-706,3.09094,7.17944,0.00318038,-0.0139261,-0.00706455,0.00572064,-0.0164664,-0.345183,0.013301,0.0130423,1280,1730,3.09089,-7.17943
63,-706,3.08545,7.18188,0.00252679,-0.0146058,-0.00773149,0.00549987,-0.0175789,-0.367111,0.0139196,0.0110141,1287,1730,3.08543,-7.18194
70,-706,3.08997,7.17432,0.00188608,-0.015074,-0.00821299,0.0052113,-0.0183993,-0.3847,0.0143229,0.0112717,1294,1730,3.08993,-7.17431
77,-706,3.09619,7.19177,0.00139953,-0.015293,-0.00894111,0.00528451,-0.019178,-0.409896,0.0148634,0.0106295,1301,1730,3.09615,-7.19172
84,-706,3.09265,7.20203,0.00136484,-0.015592,-0.00921581,0.00540899,-0.0196362,-0.413524,0.0152176,0.00931673,1308,1730,3.09267,-7.20197
91,-706,3.12891,7.21399,0.00146193,-0.0159968,-0.00908977,0.00533517,-0.01987,-0.402811,0.0153376,0.0105103,1315,1730,3.1289,-7.21403
98,-706,3.12561,7.21985,0.00147261,-0.0161554,-0.00899886,0.00525489,-0.0199376,-0.397889,0.0153463,0.0138677,1322,1730,3.12566,-7.21984
105,-706,3.11597,7.21082,0.001603,-0.0161056,-0.00864305,0.00512209,-0.0196247,-0.386662,0.0150833,0.015033,1329,1730,3.11597,-7.21078
112,-706,3.11084,7.17908,0.00191754,-0.0156688,-0.00803164,0.0050335,-0.0187847,-0.370084,0.0144953,0.0144267,1336,1730,3.11083,-7.17908
119,-706,3.12402,7.19055,0.00240148,-0.0149236,-0.00742633,0.00514902,-0.0176712,-0.354356,0.0138206,0.0123891,1343,1730,3.12398,-7.19052
126,-706,3.14282,7.18298,0.00280107,-0.0138152,-0.0065995,0.00510324,-0.0161174,-0.335641,0.01279,0.0133059,1350,1730,3.1428,-7.18304
133,-706,3.1615,7.14636,0.00307769,-0.0123764,-0.00558151,0.00488272,-0.0141814,-0.312779,0.0114348,0.011653,1357,1730,3.16152,-7.14632
140,-706,3.18079,7.13977,0.00313556,-0.0106871,-0.00442799,0.00443237,-0.0119839,-0.284899,0.00980653,0.0122721,1364,1730,3.18083,-7.13983
147,-706,3.2052,7.12976,0.00314591,-0.00904939,-0.00347046,0.00406435,-0.00996782,-0.258712,0.00833704,0.0218545,1371,1730,3.20516,-7.12979
154,-706,3.19958,7.11255,0.00302627,-0.00643309,-0.0022598,0.00353841,-0.00694522,-0.222862,0.00615833,0.020822,1378,1730,3.19953,-7.11257
161,-706,3.16187,7.0979,0.00271794,-0.00458313,-0.00136012,0.00296309,-0.00482827,-0.178324,0.00454111,0.0106312,1385,1730,3.16191,-7.09793
168,-706,3.14844,7.07239,0.00223804,-0.00276815,-0.000644124,0.00231959,-0.0028497,-0.125933,0.00298971,0.00925754,1392,1730,3.1484,-7.07237
175,-706,3.14929,7.052,0.00177096,-0.00127791,-0.000104428,0.00177453,-0.00128148,-0.0341979,0.00177203,0.00995238,1399,1730,3.14933,-7.05197
182,-706,3.15698,7.03992,0.00122395,9.54724e-06,0.00064739,0.00150434,-0.000270836,0.408709,0.0011043,0.010843,1406,1730,3.15698,-7.03993
189,-706,3.1449,7.01807,0.00063757,0.00137933,0.0012456,0.0023081,-0.000291198,0.930094,0.00164441,0.0133594,1413,1730,3.14484,-7.01807
196,-706,3.1571,6.98535,0.00012531,0.00205869,0.00127161,0.00268933,-0.000505333,1.1104,0.00198291,0.011444,1420,1730,3.15705,-6.98538
203,-706,3.16626,6.95447,0.000202662,0.0016581,0.00105668,0.0022134,-0.000352637,1.08695,0.0016061,0.0120145,1427,1730,3.16621,-6.95442
210,-706,3.17297,6.92883,0.000271044,0.00124701,0.000951562,0.00182842,-0.000310364,1.02232,0.00133448,0.0111209,1434,1730,3.17303,-6.92879
217,-706,3.16846,6.91699,0.000293854,0.000947879,0.000814878,0.00149891,-0.000257178,0.976213,0.00109511,0.0120618,1441,1730,3.16845,-6.91697
224,-706,3.13342,6.89172,0.000351321,0.000610953,0.000661349,0.00115511,-0.000192833,0.882311,0.000841744,0.0181459,1448,1730,3.13347,-6.89171
231,-706,3.17664,6.83179,0.000448202,0.000194348,0.000581758,0.000916718,-0.000274168,0.677992,0.000720147,0.0135472,1455,1730,3.17662,-6.83174
238,-706,3.17957,6.79492,0.000553823,-0.000129947,0.000532646,0.000844866,-0.000420989,0.500082,0.000744374,0.00839614,1462,1730,3.17962,-6.79497
245,-706,3.17456,6.76331,0.000571719,-0.000327594,0.000459771,0.000765165,-0.00052104,0.39826,0.000747036,0.0110595,1469,1730,3.17451,-6.76329
252,-706,3.18201,6.72058,-0.000145957,-0.000622473,0.000543146,0.00020889,-0.00097732,0.578705,0.000731192,0.0111779,1476,1730,3.18196,-6.72063
259,-706,3.1842,6.67383,-0.00139117,-0.00098378,0.000589142,-0.000564112,-0.00181083,0.951838,0.00106996,0.011941,1483,1730,3.18416,-6.67381
266,-706,3.15967,6.66016,-0.00293628,-0.00106179,0.000652522,-0.000857015,-0.00314106,1.26671,0.00187484,0.0120239,1490,1730,3.15965,-6.66021
273,-706,3.16284,6.63171,-0.00446409,-0.00137809,0.00107053,-0.00104309,-0.00479909,1.26752,0.00291459,0.0117754,1497,1730,3.16279,-6.63176
280,-706,3.16785,6.56042,-0.00608874,-0.00216052,0.00184818,-0.00142769,-0.00682157,1.1933,0.00415441,0.0102334,1504,1730,3.16787,-6.5604
287,-706,3.16248,6.49622,-0.00801641,-0.00278569,0.00256378,-0.00173866,-0.00906344,1.18308,0.0055542,0.0107383,1511,1730,3.16247,-6.49623
294,-706,3.19214,6.48792,-0.00963492,-0.00330252,0.00333057,-0.00187334,-0.0110641,1.16545,0.0068377,0.0100646,1518,1730,3.19211,-6.48791
301,-706,3.20081,6.44958,-0.0105934,-0.00384516,0.00369544,-0.00221518,-0.0122233,1.15539,0.00752006,0.00973576,1525,1730,3.20087,-6.44954
308,-706,3.1886,6.37207,-0.011141,-0.00394937,0.00352178,-0.00251201,-0.0125784,1.1833,0.00768632,0.011615,1532,1730,3.1886,-6.37203
315,-706,3.18762,6.31482,-0.0112679,-0.00378005,0.00434456,-0.00178881,-0.0132591,1.14104,0.00830759,0.017827,1539,1730,3.18766,-6.31484
322,-706,3.18604,6.255,-0.0103547,-0.00427433,0.00532974,-0.00117864,-0.0134504,1.04459,0.00860098,0.0186992,1546,1730,3.18608,-6.25502
329,-706,3.15991,6.1875,-0.00798869,-0.00399484,0.00518176,-0.000438537,-0.011545,0.969316,0.00755473,0.0167969,1553,1730,3.15992,-6.18753
336,-706,3.18701,6.1394,-0.00607819,-0.00460659,0.00550508,0.000211642,-0.0108964,0.851834,0.00733585,0.0240238,1560,1730,3.18707,-6.13942
343,-706,3.27637,6.07446,-0.00444294,-0.00374412,0.00657707,0.00249281,-0.0106799,0.811936,0.00808006,0.031496,1567,1730,3.27637,-6.07445
350,-706,3.29614,6.11877,-0.00275369,-0.00152745,0.00882213,0.00670284,-0.010984,0.820091,0.0103107,0.0350616,1574,1730,3.29616,-6.11872
357,-706,3.06702,6.28711,-0.000407084,-7.36144e-05,0.0106686,0.0104296,-0.0109103,0.793212,0.0123216,0.0441623,1581,1730,3.06701,-6.28712
364,-706,3.0238,6.37048,0,0,0,0,0,0,0,-1,1588,1730,3.02382,-6.37044
371,-706,3.01123,7.06213,0.0017898,0.00441838,0.0169069,0.020062,-0.0138538,0.824189,0.0196904,0.0480484,1595,1730,3.01128,-7.06218
378,-706,3.13245,6.92468,0.001321,0.00825568,0.0214179,0.0264851,-0.0169084,0.865647,0.0252558,0.0453634,1602,1730,3.13244,-6.9247
385,-706,4.75952,5.45203,0.000213306,0.0131481,0.0270081,0.0344524,-0.021091,0.902916,0.0323758,0.0486438,1609,1730,4.75949,-5.45204
392,-706,4.20459,6.104,-0.00165775,0.0184078,0.0335611,0.0434037,-0.0266536,0.93064,0.0408312,0.0450867,1616,1730,4.20465,-6.104
399,-706,3.89246,6.88721,-0.00451334,0.0245485,0.039986,0.052562,-0.0325269,0.959679,0.0495779,0.043657,1623,1730,3.89243,-6.8872
406,-706,3.37366,7.75586,0,0,0,0,0,0,0,-1,1630,1730,3.37366,-7.75591
413,-706,6.15405,11.3624,0,0,0,0,0,0,0,-1,1637,1730,6.15411,-11.3625
420,-706,8.36047,11.2578,0,0,0,0,0,0,0,-1,1644,1730,8.36046,-11.2579
427,-706,0,0,0,0,0,0,0,0,0,-1,1651,1730,0,0
434,-706,0,0,0,0,0,0,0,0,0,-1,1658,1730,0,0
441,-706,0,0,0,0,0,0,0,0,0,-1,1665,1730,0,0
448,-706,0,0,0,0,0,0,0,0,0,-1,1672,1730,0,0
455,-706,0,0,0,0,0,0,0,0,0,-1,1679,1730,0,0
462,-706,0,0,0,0,0,0,0,0,0,-1,1686,1730,0,0
469,-706,0,0,0,0,0,0,0,0,0,-1,1693,1730,0,0
476,-706,0,0,0,0,0,0,0,0,0,-1,1700,1730,0,0
483,-706,0,0,0,0,0,0,0,0,0,-1,1707,1730,0,0
490,-706,0,0,0,0,0,0,0,0,0,-1,1714,1730,0,0
497,-706,0,0,0,0,0,0,0,0,0,-1,1721,1730,0,0
504,-706,0,0,0,0,0,0,0,0,0,-1,1728,1730,0,0
511,-706,0,0,0,0,0,0,0,0,0,-1,1735,1730,0,0
518,-706,0,0,0,0,0,0,0,0,0,-1,1742,1730,0,0
525,-706,0,0,0,0,0,0,0,0,0,-1,1749,1730,0,0
532,-706,0,0,0,0,0,0,0,0,0,-1,1756,1730,0,0
539,-706,0,0,0,0,0,0,0,0,0,-1,1763,1730,0,0
546,-706,0,0,0,0,0,0,0,0,0,-1,1770,1730,0,0
553,-706,0,0,0,0,0,0,0,0,0,-1,1777,1730,0,0
560,-706,0,0,0,0,0,0,0,0,0,-1,1784,1730,0,0
567,-706,0,0,0,0,0,0,0,0,0,-1,1791,1730,0,0
574,-706,0,0,0,0,0,0,0,0,0,-1,1798,1730,0,0
581,-706,0,0,0,0,0,0,0,0,0,-1,1805,1730,0,0
588,-706,0,0,0,0,0,0,0,0,0,-1,1812,1730,0,0
595,-706,0,0,0,0,0,0,0,0,0,-1,1819,1730,0,0
602,-706,0,0,0,0,0,0,0,0,0,-1,1826,1730,0,0
609,-706,0,0,0,0,0,0,0,0,0,-1,1833,1730,0,0
616,-706,0,0,0,0,0,0,0,0,0,-1,1840,1730,0,0
623,-706,0,0,0,0,0,0,0,0,0,-1,1847,1730,0,0
630,-706,0,0,0,0,0,0,0,0,0,-1,1854,1730,0,0
637,-706,0,0,0,0,0,0,0,0,0,-1,1861,1730,0,0
644,-706,0,0,0,0,0,0,0,0,0,-1,1868,1730,0,0
651,-706,0,0,0,0,0,0,0,0,0,-1,1875,1730,0,0
658,-706,0,0,0,0,0,0,0,0,0,-1,1882,1730,0,0
665,-706,0,0,0,0,0,0,0,0,0,-1,1889,1730,0,0
672,-706,0,0,0,0,0,0,0,0,0,-1,1896,1730,0,0
679,-706,0,0,0,0,0,0,0,0,0,-1,1903,1730,0,0
686,-706,0,0,0,0,0,0,0,0,0,-1,1910,1730,0,0
693,-706,0,0,0,0,0,0,0,0,0,-1,1917,1730,0,0
700,-706,0,0,0,0,0,0,0,0,0,-1,1924,1730,0,0
707,-706,0,0,0,0,0,0,0,0,0,-1,1931,1730,0,0
714,-706,0,0,0,0,0,0,0,0,0,-1,1938,1730,0,0
721,-706,0,0,0,0,0,0,0,0,0,-1,1945,1730,0,0
728,-706,0,0,0,0,0,0,0,0,0,-1,1952,1730,0,0
735,-706,0,0,0,0,0,0,0,0,0,-1,1959,1730,0,0
742,-706,0,0,0,0,0,0,0,0,0,-1,1966,1730,0,0
749,-706,0,0,0,0,0,0,0,0,0,-1,1973,1730,0,0
756,-706,0,0,0,0,0,0,0,0,0,-1,1980,1730,0,0
763,-706,0,0,0,0,0,0,0,0,0,-1,1987,1730,0,0
770,-706,0,0,0,0,0,0,0,0,0,-1,1994,1730,0,0
777,-706,0,0,0,0,0,0,0,0,0,-1,2001,1730,0,0
784,-706,0,0,0,0,0,0,0,0,0,-1,2008,1730,0,0
791,-706,0,0,0,0,0,0,0,0,0,-1,2015,1730,0,0
798,-706,0,0,0,0,0,0,0,0,0,-1,2022,1730,0,0
805,-706,0,0,0,0,0,0,0,0,0,-1,2029,1730,0,0
812,-706,0,0,0,0,0,0,0,0,0,-1,2036,1730,0,0
-700,-713,0,0,0,0,0,0,0,0,0,-1,524,1737,0,0
-693,-713,0,0,0,0,0,0,0,0,0,-1,531,1737,0,0
-686,-713,0,0,0,0,0,0,0,0,0,-1,538,1737,0,0
-679,-713,0,0,0,0,0,0,0,0,0,-1,545,1737,0,0
-672,-713,0,0,0,0,0,0,0,0,0,-1,552,1737,0,0
-665,-713,0,0,0,0,0,0,0,0,0,-1,559,1737,0,0
-658,-713,0,0,0,0,0,0,0,0,0,-1,566,1737,0,0
-651,-713,0,0,0,0,0,0,0,0,0,-1,573,1737,0,0
-644,-713,0,0,0,0,0,0,0,0,0,-1,580,1737,0,0
-637,-713,0,0,0,0,0,0,0,0,0,-1,587,1737,0,0
-630,-713,0,0,0,0,0,0,0,0,0,-1,594,1737,0,0
-623,-713,0,0,0,0,0,0,0,0,0,-1,601,1737,0,0
-616,-713,0,0,0,0,0,0,0,0,0,-1,608,1737,0,0
-609,-713,0,0,0,0,0,0,0,0,0,-1,615,1737,0,0
-602,-713,0,0,0,0,0,0,0,0,0,-1,622,1737,0,0
-595,-713,0,0,0,0,0,0,0,0,0,-1,629,1737,0,0
-588,-713,0,0,0,0,0,0,0,0,0,-1,636,1737,0,0
-581,-713,0,0,0,0,0,0,0,0,0,-1,643,1737,0,0
-574,-713,0,0,0,0,0,0,0,0,0,-1,650,1737,0,0
-567,-713,0,0,0,0,0,0,0,0,0,-1,657,1737,0,0
-560,-713,0,0,0,0,0,0,0,0,0,-1,664,1737,0,0
-553,-713,0,0,0,0,0,0,0,0,0,-1,671,1737,0,0
-546,-713,0,0,0,0,0,0,0,0,0,-1,678,1737,0,0
-539,-713,0,0,0,0,0,0,0,0,0,-1,685,1737,0,0
-532,-713,0,0,0,0,0,0,0,0,0,-1,692,1737,0,0
-525,-713,0,0,0,0,0,0,0,0,0,-1,699,1737,0,0
-518,-713,0,0,0,0,0,0,0,0,0,-1,706,1737,0,0
-511,-713,0,0,0,0,0,0,0,0,0,-1,713,1737,0,0
-504,-713,0,0,0,0,0,0,0,0,0,-1,720,1737,0,0
-497,-713,0,0,0,0,0,0,0,0,0,-1,727,1737,0,0
-490,-713,0,0,0,0,0,0,0,0,0,-1,734,1737,0,0
-483,-713,0,0,0,0,0,0,0,0,0,-1,741,1737,0,0
-476,-713,0,0,0,0,0,0,0,0,0,-1,748,1737,0,0
-469,-713,0,0,0,0,0,0,0,0,0,-1,755,1737,0,0
-462,-713,0,0,0,0,0,0,0,0,0,-1,762,1737,0,0
-455,-713,0,0,0,0,0,0,0,0,0,-1,769,1737,0,0
-448,-713,0,0,0,0,0,0,0,0,0,-1,776,1737,0,0
-441,-713,0,0,0,0,0,0,0,0,0,-1,783,1737,0,0
-434,-713,0,0,0,0,0,0,0,0,0,-1,790,1737,0,0
-427,-713,0,0,0,0,0,0,0,0,0,-1,797,1737,0,0
-420,-713,0,0,0,0,0,0,0,0,0,-1,804,1737,0,0
-413,-713,0,0,0,0,0,0,0,0,0,-1,811,1737,0,0
-406,-713,0,0,0,0,0,0,0,0,0,-1,818,1737,0,0
-399,-713,0,0,0,0,0,0,0,0,0,-1,825,1737,0,0
-392,-713,0,0,0,0,0,0,0,0,0,-1,832,1737,0,0
-385,-713,0,0,0,0,0,0,0,0,0,-1,839,1737,0,0
-378,-713,0,0,0,0,0,0,0,0,0,-1,846,1737,0,0
-371,-713,0,0,0,0,0,0,0,0,0,-1,853,1737,0,0
-364,-713,0,0,0,0,0,0,0,0,0,-1,860,1737,0,0
-357,-713,0,0,0,0,0,0,0,0,0,-1,867,1737,0,0
-350,-713,0,0,0,0,0,0,0,0,0,-1,874,1737,0,0
-343,-713,0,0,0,0,0,0,0,0,0,-1,881,1737,0,0
-336,-713,0,0,0,0,0,0,0,0,0,-1,888,1737,0,0
-329,-713,0,0,0,0,0,0,0,0,0,-1,895,1737,0,0
-322,-713,0,0,0,0,0,0,0,0,0,-1,902,1737,0,0
-315,-713,0,0,0,0,0,0,0,0,0,-1,909,1737,0,0
-308,-713,0,0,0,0,0,0,0,0,0,-1,916,1737,0,0
-301,-713,0,0,0,0,0,0,0,0,0,-1,923,1737,0,0
-294,-713,2.97949,8.14063,0,0,0,0,0,0,0,-1,930,1737,2.97947,-8.14063
-287,-713,2.63843,7.36877,0,0,0,0,0,0,0,-1,937,1737,2.63846,-7.36882
-280,-713,2.24945,6.33923,0.0270054,0.0200953,-0.0754933,0.0991227,-0.052022,-0.762531,0.0886645,0.0466495,944,1737,2.24947,-6.33928
-273,-713,2.66779,5.48523,0.025197,0.0227151,-0.0616886,0.0856571,-0.037745,-0.775341,0.0730143,0.0473814,951,1737,2.66781,-5.48528
-266,-713,3.27594,5.24768,0,0,0,0,0,0,0,-1,958,1737,3.27595,-5.24765
-259,-713,3.40802,3.8551,0,0,0,0,0,0,0,-1,965,1737,3.40801,-3.85512
-252,-713,1.75995,4.57935,0,0,0,0,0,0,0,-1,972,1737,1.75997,-4.57933
-245,-713,3.51428,5.89087,0,0,0,0,0,0,0,-1,979,1737,3.5143,-5.89089
-238,-713,3.45251,5.80249,0,0,0,0,0,0,0,-1,986,1737,3.45254,-5.80246
-231,-713,3.32343,5.81323,0.00283322,0.00402909,-0.00688614,0.0103432,-0.00348089,-0.828705,0.00830267,0.0472524,993,1737,3.32343,-5.81319
-224,-713,3.25171,5.91528,-0.00162557,-0.00141912,-0.00248016,0.000959965,-0.00400465,-0.806196,0.00304069,0.0458556,1000,1737,3.25169,-5.91527
-217,-713,3.54913,6.06946,-0.0044964,-0.00469394,-0.000656998,-0.00393079,-0.00525955,-0.710787,0.00315804,0.0451428,1007,1737,3.54911,-6.06946
-210,-713,3.33502,6.27991,-0.00550619,-0.00591378,-0.00129485,-0.00439919,-0.00702077,-0.707345,0.00409653,0.0431163,1014,1737,3.33499,-6.27988
-203,-713,2.84668,6.12109,-0.00580648,-0.00689589,-0.00221407,-0.00407109,-0.00863127,-0.664784,0.00498593,0.0407488,1021,1737,2.84669,-6.12111
-196,-713,2.75659,6.12134,0,0,0,0,0,0,0,-1,1028,1737,2.75658,-6.12136
-189,-713,3.21753,6.07703,-0.00369765,-0.00607764,-0.00430997,-0.000416415,-0.00935888,-0.650702,0.00610518,0.0371657,1035,1737,3.21756,-6.07702
-182,-713,3.0188,6.12048,-0.00261641,-0.00538905,-0.00464823,0.000847829,-0.00885329,-0.640474,0.00620414,0.0232277,1042,1737,3.01877,-6.12047
-175,-713,3.06897,6.18225,-0.00136455,-0.00475468,-0.00482413,0.00205365,-0.00817288,-0.61645,0.0062467,0.0194172,1049,1737,3.069,-6.18221
-168,-713,3.08179,6.21143,-0.000487471,-0.00402644,-0.00463523,0.00270454,-0.00721845,-0.603062,0.00592333,0.0218065,1056,1737,3.08184,-6.2114
-161,-713,3.07324,6.27734,3.59889e-06,-0.00327669,-0.00437924,0.00303976,-0.00631285,-0.60622,0.00550886,0.0110891,1063,1737,3.07324,-6.27737
-154,-713,3.07324,6.33752,0.000786605,-0.00182793,-0.00315537,0.00289479,-0.00393612,-0.589012,0.00395907,0.0105236,1070,1737,3.0733,-6.33759
-147,-713,3.05664,6.41809,0.00152505,-0.00112745,-0.00214835,0.00272355,-0.00232595,-0.508863,0.00291834,0.0180621,1077,1737,3.05663,-6.41804
-140,-713,3.05566,6.4679,0.001228,-0.000624647,-0.00145421,0.00202585,-0.0014225,-0.501809,0.00200104,0.0173626,1084,1737,3.05562,-6.46786
-133,-713,3.05042,6.47998,0.00143922,-0.00019299,-0.000583996,0.00162665,-0.000380418,-0.310556,0.00123099,0.0100691,1091,1737,3.05036,-6.48002
-126,-713,3.04431,6.52563,0.00154941,0.00013459,-3.71933e-05,0.00155039,0.000133613,-0.0262641,0.00099206,0.0155579,1098,1737,3.04431,-6.52563
-119,-713,3.05212,6.57556,0.00111032,0.000550677,0.000558988,0.00145561,0.000205385,0.553339,0.000909709,0.0243446,1105,1737,3.05215,-6.57562
-112,-713,3.02966,6.63879,0.00066899,0.000963617,0.000885001,0.00171348,-8.08744e-05,0.86787,0.00117021,0.0121453,1112,1737,3.02961,-6.63881
-105,-713,3.04138,6.66638,0.000507111,0.00108876,0.000918048,0.00176095,-0.000165076,0.93879,0.00123268,0.0101012,1119,1737,3.04141,-6.66635
-98,-713,3.05518,6.68677,0.000428519,0.00123843,0.000926977,0.00184504,-0.000178097,0.991333,0.00129349,0.0101412,1126,1737,3.05514,-6.68671
-91,-713,3.04651,6.73218,0.000264014,0.00173096,0.000967834,0.00221185,-0.000216879,1.10965,0.00155192,0.00986776,1133,1737,3.04646,-6.73214
-84,-713,3.04163,6.77527,0.000316492,0.00206953,0.00100223,0.00252446,-0.000138437,1.14469,0.00173096,0.00878422,1140,1737,3.04161,-6.77529
-77,-713,3.04834,6.82678,0.000373689,0.00236874,0.000950231,0.00274889,-6.46268e-06,1.19024,0.00183475,0.011454,1147,1737,3.04829,-6.82678
-70,-713,3.03674,6.88367,0.000409972,0.00256004,0.000787685,0.00281773,0.000152285,1.25463,0.00182984,0.014122,1154,1737,3.03669,-6.88364
-63,-713,3.02136,6.91077,0.000427507,0.0026068,0.000581025,0.00275203,0.000282277,1.32586,0.00174821,0.0126285,1161,1737,3.02135,-6.91072
-56,-713,3.0282,6.92993,0.000458973,0.00258709,0.000277348,0.00262264,0.000423421,1.44331,0.00162577,0.012252,1168,1737,3.02817,-6.92991
-49,-713,3.01147,6.95154,0.000528627,0.00231078,-3.79008e-05,0.00231159,0.000527821,-1.54954,0.00139872,0.0137699,1175,1737,3.01149,-6.95158
-42,-713,3.0094,6.96985,0.000707642,0.00197751,-0.000384655,0.00208493,0.000600214,-1.29845,0.00123932,0.0163143,1182,1737,3.00941,-6.9698
-35,-713,3.04102,6.99109,0.00108294,0.00133029,-0.000732759,0.00194974,0.000463495,-0.869,0.00117617,0.0130982,1189,1737,3.04107,-6.99115
-28,-713,3.07043,7.02222,0.00147153,0.000506468,-0.000872323,0.00198589,-7.88656e-06,-0.532766,0.00132656,0.0111199,1196,1737,3.07048,-7.02226
-21,-713,3.04114,7.05664,0.00170268,-0.0005936,-0.00103968,0.00210347,-0.000994383,-0.367932,0.00182635,0.00842627,1203,1737,3.04119,-7.05661
-14,-713,3.03052,7.05334,0.00199176,-0.00175455,-0.00119591,0.00234097,-0.00210377,-0.284106,0.00256739,0.00971136,1210,1737,3.03055,-7.05334
-7,-713,3.05798,7.08826,0.00233147,-0.00293375,-0.00120086,0.00259242,-0.0031947,-0.213977,0.00334722,0.00906795,1217,1737,3.05797,-7.08831
0,-713,3.05481,7.1189,0.00261239,-0.00403039,-0.00127206,0.00284765,-0.00426565,-0.182878,0.00413398,0.0142277,1224,1737,3.05482,-7.11884
7,-713,3.06946,7.08484,0.0027736,-0.00528151,-0.00136188,0.00299763,-0.00550553,-0.163035,0.00497997,0.0169848,1231,1737,3.06942,-7.08487
14,-713,3.09082,7.09827,0.00279009,-0.00621628,-0.00138124,0.00299717,-0.00642335,-0.148808,0.00555755,0.0119633,1238,1737,3.0908,-7.0983
21,-713,3.06897,7.13599,0.00274669,-0.00687997,-0.00142781,0.00295399,-0.00708728,-0.144184,0.0059588,0.0100718,1245,1737,3.06902,-7.13593
28,-713,3.05273,7.16211,0.00268086,-0.00735787,-0.00157704,0.00292277,-0.00759979,-0.152212,0.00627205,0.0106551,1252,1737,3.05276,-7.16213
35,-713,3.05786,7.18091,0.00256706,-0.00776208,-0.00189672,0.00290434,-0.00809936,-0.175982,0.00658476,0.0105404,1259,1737,3.0579,-7.18093
42,-713,3.0697,7.20569,0.00233524,-0.00792284,-0.00223948,0.00280283,-0.00839044,-0.205839,0.00672548,0.0101867,1266,1737,3.06965,-7.20571
49,-713,3.08093,7.18799,0.00207037,-0.00859253,-0.00276143,0.00274307,-0.00926523,-0.238953,0.00726587,0.0103972,1273,1737,3.08095,-7.18797
56,-713,3.08655,7.18347,0.00187575,-0.00892743,-0.00325538,0.00278088,-0.00983256,-0.271191,0.00765233,0.0103975,1280,1737,3.08654,-7.18348
63,-713,3.07996,7.198,0.00161232,-0.00939228,-0.00370986,0.00274616,-0.0105261,-0.296613,0.00808969,0.0110272,1287,1737,3.0799,-7.19796
70,-713,3.08179,7.19971,0.0013055,-0.00978458,-0.00412098,0.00266915,-0.0111482,-0.319562,0.00846335,0.0108974,1294,1737,3.08176,-7.19975
77,-713,3.08508,7.21277,0.0011425,-0.0100717,-0.00480619,0.00292045,-0.0118497,-0.354318,0.00903205,0.011297,1301,1737,3.08505,-7.21276
84,-713,3.08813,7.19971,0.00132483,-0.010446,-0.00518966,0.00328612,-0.0124073,-0.361329,0.00955712,0.0122608,1308,1737,3.08808,-7.19971
91,-713,3.11218,7.22241,0.0015861,-0.0108242,-0.00523423,0.0034989,-0.012737,-0.350364,0.00986662,0.013014,1315,1737,3.11219,-7.22243
98,-713,3.11108,7.21899,0.00172382,-0.0110094,-0.00527569,0.00362563,-0.0129112,-0.345985,0.0100367,0.0123368,1322,1737,3.1111,-7.21898
105,-713,3.10864,7.203,0.00192308,-0.0109435,-0.00512959,0.00371779,-0.0127382,-0.336563,0.00996528,0.012711,1329,1737,3.10865,-7.20299
112,-713,3.12036,7.198,0.00221948,-0.010553,-0.00477004,0.00380428,-0.0121378,-0.320765,0.0096142,0.0129523,1336,1737,3.12034,-7.19794
119,-713,3.13757,7.19702,0.00254796,-0.0099061,-0.00438633,0.00393774,-0.0112959,-0.306837,0.00913073,0.0139753,1343,1737,3.13759,-7.19708
126,-713,3.13684,7.20044,0.00278917,-0.00899725,-0.00380456,0.00391056,-0.0101186,-0.286632,0.00835993,0.0136981,1350,1737,3.13687,-7.20046
133,-713,3.12476,7.17114,0.00288817,-0.00786921,-0.00303851,0.00368709,-0.00866812,-0.257111,0.00732397,0.0123069,1357,1737,3.12481,-7.17113
140,-713,3.12207,7.15686,0.0028675,-0.00660982,-0.00215424,0.00333418,-0.00707651,-0.21334,0.0061387,0.013243,1364,1737,3.12201,-7.15692
147,-713,3.14648,7.12512,0.00277255,-0.00535201,-0.00159687,0.00307514,-0.0056546,-0.18727,0.00511293,0.0147623,1371,1737,3.14651,-7.12508
154,-713,3.12988,7.13232,0.00255181,-0.00356787,-0.00087753,0.00267516,-0.00369121,-0.139647,0.0036912,0.0151264,1378,1737,3.12989,-7.13232
161,-713,3.13586,7.1123,0.00226945,-0.00234576,-0.000355431,0.00229666,-0.00237297,-0.0764125,0.00269613,0.0106409,1385,1737,3.13591,-7.1123
168,-713,3.11841,7.07104,0.00194295,-0.00121603,2.37367e-05,0.00194313,-0.00121621,0.00751349,0.00184007,0.00910412,1392,1737,3.11835,-7.07106
175,-713,3.12683,7.04407,0.00172414,-0.000454752,0.000241655,0.00175062,-0.000481231,0.10914,0.00135626,0.0124047,1399,1737,3.12686,-7.04409
182,-713,3.12927,7.03784,0.00151994,0.000178,0.000547633,0.00171506,-1.71144e-05,0.342264,0.00114912,0.0116451,1406,1737,3.12922,-7.03785
189,-713,3.1228,7.00977,0.00125849,0.000746328,0.000659761,0.00171012,0.000294692,0.600278,0.00105565,0.0106321,1413,1737,3.12283,-7.00982
196,-713,3.13269,6.99048,0.00100069,0.000896355,0.000482479,0.00143381,0.000463231,0.731546,0.000844911,0.0111509,1420,1737,3.13272,-6.99043
203,-713,3.15454,6.96875,0.00126089,0.00062823,0.000372784,0.00143347,0.000455651,0.433568,0.00084572,0.0145937,1427,1737,3.15457,-6.96874
210,-713,3.14856,6.91931,0.00159874,0.000342072,0.000238331,0.00164243,0.00029839,0.18127,0.00101028,0.0127534,1434,1737,3.1485,-6.91937
217,-713,3.14185,6.89038,0.00178687,2.98017e-05,8.13414e-05,0.00179062,2.60441e-05,0.0461623,0.00118516,0.0103009,1441,1737,3.14187,-6.89043
224,-713,3.11536,6.85938,0.00184687,-0.000348659,-2.55893e-05,0.00184716,-0.000348957,-0.0116531,0.00136274,0.0114038,1448,1737,3.11535,-6.85937
231,-713,3.13684,6.83142,0.00195232,-0.000725475,-0.000112717,0.00195705,-0.000730211,-0.0419943,0.00160448,0.010928,1455,1737,3.13686,-6.83136
238,-713,3.14697,6.79346,0.00171745,-0.00118159,-3.89896e-05,0.00171798,-0.00118211,-0.0134459,0.00168387,0.00821095,1462,1737,3.14693,-6.79351
245,-713,3.15601,6.76611,0.00115409,-0.0016226,0.000128766,0.00116005,-0.00162856,0.0462414,0.00161756,0.0106941,1469,1737,3.15599,-6.76606
252,-713,3.15918,6.71594,-0.000786307,-0.00232011,0.000720269,-0.000501104,-0.00260532,0.377025,0.00159628,0.0110352,1476,1737,3.15923,-6.71589
259,-713,3.1604,6.67322,-0.00348617,-0.00311002,0.00122632,-0.00205743,-0.00453875,0.861487,0.00262426,0.011139,1483,1737,3.16034,-6.67317
266,-713,3.14355,6.6731,-0.00660181,-0.00353266,0.00177378,-0.00272177,-0.0074127,1.14201,0.00432977,0.00979641,1490,1737,3.14353,-6.67315
273,-713,3.13989,6.62598,-0.00951391,-0.0042693,0.00274249,-0.00309717,-0.010686,1.1669,0.00634866,0.00844843,1497,1737,3.13991,-6.62594
280,-713,3.13,6.55713,-0.0124932,-0.00548927,0.00407814,-0.00361583,-0.0143666,1.14016,0.00862882,0.0096906,1504,1737,3.13007,-6.55709
287,-713,3.13123,6.49866,-0.0158903,-0.00650607,0.00531533,-0.00410815,-0.0182882,1.147,0.0110796,0.0107855,1511,1737,3.13123,-6.4986
294,-713,3.15173,6.46912,-0.0187201,-0.00736545,0.00656753,-0.0043615,-0.021724,1.14181,0.01327,0.0147443,1518,1737,3.1517,-6.46913
301,-713,3.13257,6.40979,-0.0201718,-0.00809275,0.00708487,-0.00482253,-0.023442,1.13836,0.0142943,0.0164927,1525,1737,3.13253,-6.40976
308,-713,3.09546,6.32214,-0.021021,-0.00824049,0.00690729,-0.00522086,-0.0240407,1.15867,0.0146013,0.0193987,1532,1737,3.09545,-6.32209
315,-713,3.13611,6.30042,-0.0210843,-0.00788763,0.00790058,-0.00419241,-0.0247795,1.13331,0.0153147,0.0268237,1539,1737,3.13612,-6.30037
322,-713,3.11743,6.2428,-0.0197195,-0.00804389,0.00909268,-0.0030763,-0.0246871,1.07078,0.0155345,0.0326188,1546,1737,3.11748,-6.24276
329,-713,3.10181,6.14026,-0.0166117,-0.00737655,0.0089368,-0.00193488,-0.0220534,1.02385,0.0141016,0.0388153,1553,1737,3.10176,-6.14025
336,-713,3.11841,6.13281,0,0,0,0,0,0,0,-1,1560,1737,3.11838,-6.13285
343,-713,3.46033,5.96753,-0.0114833,-0.00656832,0.0103714,0.00163276,-0.0196844,0.901728,0.0136997,0.0487541,1567,1737,3.46031,-5.96752
350,-713,3.55457,5.97229,-0.00902869,-0.0038896,0.01263,0.0064296,-0.0193479,0.885752,0.0154931,0.0438972,1574,1737,3.55455,-5.97233
357,-713,4.00305,6.02881,-0.00557888,-0.00198268,0.0145299,0.01086,-0.0184215,0.846961,0.0170925,0.0428465,1581,1737,4.00307,-6.02877
364,-713,4.83704,5.72339,-0.00325858,0.000499581,0.0174241,0.0161456,-0.0189046,0.839112,0.0202572,0.0456009,1588,1737,4.837,-5.72334
371,-713,2.8125,7.4259,-0.00251859,0.00340733,0.0215406,0.0221878,-0.021299,0.853746,0.0251089,0.0448448,1595,1737,2.81252,-7.42586
378,-713,4.56812,5.5741,-0.00340377,0.0079603,0.0268029,0.0296768,-0.0251203,0.889848,0.0316736,0.0450282,1602,1737,4.56816,-5.57407
385,-713,4.12341,5.46216,-0.00501708,0.0137541,0.0336834,0.0393351,-0.0305981,0.921272,0.0404808,0.0480019,1609,1737,4.12344,-5.46216
392,-713,3.56738,5.67261,-0.00761849,0.0203112,0.0420868,0.0506896,-0.0379968,0.945588,0.0513776,0.0440671,1616,1737,3.56741,-5.67265
399,-713,3.1897,6.10864,-0.0116191,0.0283888,0.0506784,0.0628684,-0.0460987,0.973373,0.06316,0.0409459,1623,1737,3.18973,-6.10866
406,-713,3.04358,6.80005,0,0,0,0,0,0,0,-1,1630,1737,3.04352,-6.80005
413,-713,2.89917,7.09265,0,0,0,0,0,0,0,-1,1637,1737,2.89918,-7.09271
420,-713,0,0,0,0,0,0,0,0,0,-1,1644,1737,0,0
427,-713,0,0,0,0,0,0,0,0,0,-1,1651,1737,0,0
434,-713,0,0,0,0,0,0,0,0,0,-1,1658,1737,0,0
441,-713,0,0,0,0,0,0,0,0,0,-1,1665,1737,0,0
448,-713,0,0,0,0,0,0,0,0,0,-1,1672,1737,0,0
455,-713,0,0,0,0,0,0,0,0,0,-1,1679,1737,0,0
462,-713,0,0,0,0,0,0,0,0,0,-1,1686,1737,0,0
469,-713,0,0,0,0,0,0,0,0,0,-1,1693,1737,0,0
476,-713,0,0,0,0,0,0,0,0,0,-1,1700,1737,0,0
483,-713,0,0,0,0,0,0,0,0,0,-1,1707,1737,0,0
490,-713,0,0,0,0,0,0,0,0,0,-1,1714,1737,0,0
497,-713,0,0,0,0,0,0,0,0,0,-1,1721,1737,0,0
504,-713,0,0,0,0,0,0,0,0,0,-1,1728,1737,0,0
511,-713,0,0,0,0,0,0,0,0,0,-1,1735,1737,0,0
518,-713,0,0,0,0,0,0,0,0,0,-1,1742,1737,0,0
525,-713,0,0,0,0,0,0,0,0,0,-1,1749,1737,0,0
532,-713,0,0,0,0,0,0,0,0,0,-1,1756,1737,0,0
539,-713,0,0,0,0,0,0,0,0,0,-1,1763,1737,0,0
546,-713,0,0,0,0,0,0,0,0,0,-1,1770,1737,0,0
553,-713,0,0,0,0,0,0,0,0,0,-1,1777,1737,0,0
560,-713,0,0,0,0,0,0,0,0,0,-1,1784,1737,0,0
567,-713,0,0,0,0,0,0,0,0,0,-1,1791,1737,0,0
574,-713,0,0,0,0,0,0,0,0,0,-1,1798,1737,0,0
581,-713,0,0,0,0,0,0,0,0,0,-1,1805,1737,0,0
588,-713,0,0,0,0,0,0,0,0,0,-1,1812,1737,0,0
595,-713,0,0,0,0,0,0,0,0,0,-1,1819,1737,0,0
602,-713,0,0,0,0,0,0,0,0,0,-1,1826,1737,0,0
609,-713,0,0,0,0,0,0,0,0,0,-1,1833,1737,0,0
616,-713,0,0,0,0,0,0,0,0,0,-1,1840,1737,0,0
623,-713,0,0,0,0,0,0,0,0,0,-1,1847,1737,0,0
630,-713,0,0,0,0,0,0,0,0,0,-1,1854,1737,0,0
637,-713,0,0,0,0,0,0,0,0,0,-1,1861,1737,0,0
644,-713,0,0,0,0,0,0,0,0,0,-1,1868,1737,0,0
651,-713,0,0,0,0,0,0,0,0,0,-1,1875,1737,0,0
658,-713,0,0,0,0,0,0,0,0,0,-1,1882,1737,0,0
665,-713,0,0,0,0,0,0,0,0,0,-1,1889,1737,0,0
672,-713,0,0,0,0,0,0,0,0,0,-1,1896,1737,0,0
679,-713,0,0,0,0,0,0,0,0,0,-1,1903,1737,0,0
686,-713,0,0,0,0,0,0,0,0,0,-1,1910,1737,0,0
693,-713,0,0,0,0,0,0,0,0,0,-1,1917,1737,0,0
700,-713,0,0,0,0,0,0,0,0,0,-1,1924,1737,0,0
707,-713,0,0,0,0,0,0,0,0,0,-1,1931,1737,0,0
714,-713,0,0,0,0,0,0,0,0,0,-1,1938,1737,0,0
721,-713,0,0,0,0,0,0,0,0,0,-1,1945,1737,0,0
728,-713,0,0,0,0,0,0,0,0,0,-1,1952,1737,0,0
735,-713,0,0,0,0,0,0,0,0,0,-1,1959,1737,0,0
742,-713,0,0,0,0,0,0,0,0,0,-1,1966,1737,0,0
749,-713,0,0,0,0,0,0,0,0,0,-1,1973,1737,0,0
756,-713,0,0,0,0,0,0,0,0,0,-1,1980,1737,0,0
763,-713,0,0,0,0,0,0,0,0,0,-1,1987,1737,0,0
770,-713,0,0,0,0,0,0,0,0,0,-1,1994,1737,0,0
777,-713,0,0,0,0,0,0,0,0,0,-1,2001,1737,0,0
784,-713,0,0,0,0,0,0,0,0,0,-1,2008,1737,0,0
791,-713,0,0,0,0,0,0,0,0,0,-1,2015,1737,0,0
798,-713,0,0,0,0,0,0,0,0,0,-1,2022,1737,0,0
805,-713,0,0,0,0,0,0,0,0,0,-1,2029,1737,0,0
812,-713,0,0,0,0,0,0,0,0,0,-1,2036,1737,0,0
-700,-720,0,0,0,0,0,0,0,0,0,-1,524,1744,0,0
-693,-720,0,0,0,0,0,0,0,0,0,-1,531,1744,0,0
-686,-720,0,0,0,0,0,0,0,0,0,-1,538,1744,0,0
-679,-720,0,0,0,0,0,0,0,0,0,-1,545,1744,0,0
-672,-720,0,0,0,0,0,0,0,0,0,-1,552,1744,0,0
-665,-720,0,0,0,0,0,0,0,0,0,-1,559,1744,0,0
-658,-720,0,0,0,0,0,0,0,0,0,-1,566,1744,0,0
-651,-720,0,0,0,0,0,0,0,0,0,-1,573,1744,0,0
-644,-720,0,0,0,0,0,0,0,0,0,-1,580,1744,0,0
-637,-720,0,0,0,0,0,0,0,0,0,-1,587,1744,0,0
-630,-720,0,0,0,0,0,0,0,0,0,-1,594,1744,0,0
-623,-720,0,0,0,0,0,0,0,0,0,-1,601,1744,0,0
-616,-720,0,0,0,0,0,0,0,0,0,-1,608,1744,0,0
-609,-720,0,0,0,0,0,0,0,0,0,-1,615,1744,0,0
-602,-720,0,0,0,0,0,0,0,0,0,-1,622,1744,0,0
-595,-720,0,0,0,0,0,0,0,0,0,-1,629,1744,0,0
-588,-720,0,0,0,0,0,0,0,0,0,-1,636,1744,0,0
-581,-720,0,0,0,0,0,0,0,0,0,-1,643,1744,0,0
-574,-720,0,0,0,0,0,0,0,0,0,-1,650,1744,0,0
-567,-720,0,0,0,0,0,0,0,0,0,-1,657,1744,0,0
-560,-720,0,0,0,0,0,0,0,0,0,-1,664,1744,0,0
-553,-720,0,0,0,0,0,0,0,0,0,-1,671,1744,0,0
-546,-720,0,0,0,0,0,0,0,0,0,-1,678,1744,0,0
-539,-720,0,0,0,0,0,0,0,0,0,-1,685,1744,0,0
-532,-720,0,0,0,0,0,0,0,0,0,-1,692,1744,0,0
-525,-720,0,0,0,0,0,0,0,0,0,-1,699,1744,0,0
-518,-720,0,0,0,0,0,0,0,0,0,-1,706,1744,0,0
-511,-720,0,0,0,0,0,0,0,0,0,-1,713,1744,0,0
-504,-720,0,0,0,0,0,0,0,0,0,-1,720,1744,0,0
-497,-720,0,0,0,0,0,0,0,0,0,-1,727,1744,0,0
-490,-720,0,0,0,0,0,0,0,0,0,-1,734,1744,0,0
-483,-720,0,0,0,0,0,0,0,0,0,-1,741,1744,0,0
-476,-720,0,0,0,0,0,0,0,0,0,-1,748,1744,0,0
-469,-720,0,0,0,0,0,0,0,0,0,-1,755,1744,0,0
-462,-720,0,0,0,0,0,0,0,0,0,-1,762,1744,0,0
-455,-720,0,0,0,0,0,0,0,0,0,-1,769,1744,0,0
-448,-720,0,0,0,0,0,0,0,0,0,-1,776,1744,0,0
-441,-720,0,0,0,0,0,0,0,0,0,-1,783,1744,0,0
-434,-720,0,0,0,0,0,0,0,0,0,-1,790,1744,0,0
-427,-720,0,0,0,0,0,0,0,0,0,-1,797,1744,0,0
-420,-720,0,0,0,0,0,0,0,0,0,-1,804,1744,0,0
-413,-720,0,0,0,0,0,0,0,0,0,-1,811,1744,0,0
-406,-720,0,0,0,0,0,0,0,0,0,-1,818,1744,0,0
-399,-720,0,0,0,0,0,0,0,0,0,-1,825,1744,0,0
-392,-720,0,0,0,0,0,0,0,0,0,-1,832,1744,0,0
-385,-720,0,0,0,0,0,0,0,0,0,-1,839,1744,0,0
-378,-720,0,0,0,0,0,0,0,0,0,-1,846,1744,0,0
-371,-720,0,0,0,0,0,0,0,0,0,-1,853,1744,0,0
-364,-720,0,0,0,0,0,0,0,0,0,-1,860,1744,0,0
-357,-720,0,0,0,0,0,0,0,0,0,-1,867,1744,0,0
-350,-720,0,0,0,0,0,0,0,0,0,-1,874,1744,0,0
-343,-720,0,0,0,0,0,0,0,0,0,-1,881,1744,0,0
-336,-720,0,0,0,0,0,0,0,0,0,-1,888,1744,0,0
-329,-720,0,0,0,0,0,0,0,0,0,-1,895,1744,0,0
-322,-720,0,0,0,0,0,0,0,0,0,-1,902,1744,0,0
-315,-720,0,0,0,0,0,0,0,0,0,-1,909,1744,0,0
-308,-720,0,0,0,0,0,0,0,0,0,-1,916,1744,0,0
-301,-720,0,0,0,0,0,0,0,0,0,-1,923,1744,0,0
-294,-720,0,0,0,0,0,0,0,0,0,-1,930,1744,0,0
-287,-720,0,0,0,0,0,0,0,0,0,-1,937,1744,0,0
-280,-720,2.31964,5.77417,0,0,0,0,0,0,0,-1,944,1744,2.31963,-5.77417
-273,-720,2.85083,5.0127,0,0,0,0,0,0,0,-1,951,1744,2.85082,-5.0127
-266,-720,1.50031,4.6543,0,0,0,0,0,0,0,-1,958,1744,1.50032,-4.65434
-259,-720,1.28735,4.55701,0,0,0,0,0,0,0,-1,965,1744,1.28735,-4.55698
-252,-720,0.892273,4.55396,0,0,0,0,0,0,0,-1,972,1744,0.892297,-4.55393
-245,-720,0.931396,4.53699,0,0,0,0,0,0,0,-1,979,1744,0.931385,-4.53695
-238,-720,3.49011,5.86353,0,0,0,0,0,0,0,-1,986,1744,3.49012,-5.86354
-231,-720,3.57581,6.0979,0,0,0,0,0,0,0,-1,993,1744,3.57581,-6.09794
-224,-720,3.64636,6.12231,-0.000928968,-0.00107768,0.0007628,-0.00023691,-0.00176974,0.736813,0.00110932,0.04768,1000,1744,3.64633,-6.12232
-217,-720,3.85248,6.25989,-0.0039755,-0.00499881,0.00189855,-0.00252087,-0.00645344,0.653776,0.00375549,0.0459706,1007,1744,3.8525,-6.25993
-210,-720,3.98743,6.74548,-0.00482495,-0.00663357,0.000307387,-0.00477413,-0.00668439,0.163831,0.00397555,0.0435936,1014,1744,3.98742,-6.74543
-203,-720,3.00415,6.27429,-0.0048408,-0.00780741,-0.00155295,-0.00417658,-0.00847162,-0.404167,0.00489125,0.042643,1021,1744,3.00416,-6.27425
-196,-720,2.97437,6.54541,0,0,0,0,0,0,0,-1,1028,1744,2.97434,-6.54547
-189,-720,3.51782,6.09204,-0.00211368,-0.00723457,-0.00502363,0.000964377,-0.0103126,-0.549717,0.00721805,0.0478341,1035,1744,3.51785,-6.0921
-182,-720,3.23047,6.06409,-0.00089659,-0.00660034,-0.00579203,0.00270761,-0.0102045,-0.556632,0.00786253,0.0384903,1042,1744,3.23051,-6.06404
-175,-720,3.06299,6.05908,0.000457776,-0.00601373,-0.00630805,0.00431156,-0.00986752,-0.548419,0.00839317,0.0389207,1049,1744,3.06299,-6.05913
-168,-720,3.12695,6.20947,0.00129589,-0.00522067,-0.00628901,0.00512055,-0.00904532,-0.54639,0.00828264,0.0362061,1056,1744,3.127,-6.20943
-161,-720,3.11572,6.26636,0.0016395,-0.0044157,-0.00612285,0.00544239,-0.00821859,-0.555789,0.00794128,0.0237282,1063,1744,3.11575,-6.26638
-154,-720,3.10181,6.33948,0.00222687,-0.00261941,-0.00459704,0.00500031,-0.00539284,-0.542849,0.00600192,0.0163793,1070,1744,3.10186,-6.33945
-147,-720,3.11047,6.43701,0.00279155,-0.00163662,-0.00325608,0.00451501,-0.00336008,-0.486815,0.00456296,0.0170412,1077,1744,3.1105,-6.43697
-140,-720,3.10559,6.48523,0.00218404,-0.00085878,-0.00225669,0.00338427,-0.00205901,-0.488806,0.00317358,0.0140761,1084,1744,3.10563,-6.4852
-133,-720,3.07861,6.49268,0.00226324,-0.000159277,-0.00104084,0.00264901,-0.000545049,-0.354937,0.00197295,0.0110615,1091,1744,3.07862,-6.49272
-126,-720,3.07532,6.5481,0.00228836,0.000409068,-0.00023761,0.00231794,0.000379491,-0.12384,0.00143561,0.0117312,1098,1744,3.07534,-6.54811
-119,-720,3.07654,6.59045,0.00159425,0.00110007,0.000698817,0.00208837,0.000605943,0.615465,0.00124061,0.0143741,1105,1744,3.07648,-6.59041
-112,-720,3.07776,6.61963,0.00100368,0.00174206,0.00120666,0.00263474,0.000111003,0.933857,0.00172069,0.012868,1112,1744,3.07782,-6.61962
-105,-720,3.08923,6.651,0.000774474,0.00196142,0.0011941,0.0027014,3.44948e-05,1.01602,0.00178955,0.0129022,1119,1744,3.08924,-6.65096
-98,-720,3.09973,6.68066,0.000652869,0.0020078,0.0011657,0.0026786,-1.79316e-05,1.04863,0.00179174,0.0104661,1126,1744,3.09972,-6.68063
-91,-720,3.08606,6.73364,0.000357953,0.00252893,0.00120343,0.0030641,-0.000177217,1.15236,0.00210429,0.00937133,1133,1744,3.08603,-6.73363
-84,-720,3.07996,6.78467,0.000413036,0.00279084,0.00129575,0.00336048,-0.000156596,1.15661,0.0022943,0.00968554,1140,1744,3.07993,-6.78467
-77,-720,3.08472,6.84534,0.000472554,0.00296335,0.00130653,0.00352296,-8.70542e-05,1.16612,0.00237819,0.010708,1147,1744,3.08477,-6.84535
-70,-720,3.07751,6.87354,0.000454002,0.00302238,0.00120753,0.00350094,-2.45563e-05,1.19347,0.00234219,0.00946376,1154,1744,3.07757,-6.8735
-63,-720,3.05542,6.89893,0.000481681,0.00282167,0.00103642,0.0032147,8.86497e-05,1.20833,0.0021142,0.00921154,1161,1744,3.0554,-6.89897
-56,-720,3.07983,6.93384,0.000492564,0.00272128,0.000781427,0.00296796,0.000245885,1.26502,0.00190198,0.0120852,1168,1744,3.07984,-6.93385
-49,-720,3.05249,6.93835,0.000442243,0.0025006,0.000592157,0.0026588,0.000284047,1.30974,0.00168584,0.0186638,1175,1744,3.05248,-6.93841
-42,-720,3.02771,6.97351,0.00051853,0.00228915,0.000314744,0.00234344,0.000464246,1.40001,0.00143284,0.0207147,1182,1744,3.02769,-6.97353
-35,-720,3.07312,6.99622,0.000831701,0.00183467,2.16278e-05,0.00183514,0.000831235,1.54925,0.00106108,0.0174517,1189,1744,3.07317,-6.99622
-28,-720,3.0835,7.01794,0.00107809,0.00124107,-0.000217643,0.00139198,0.00092718,-0.964533,0.000818305,0.00956966,1196,1744,3.08354,-7.01791
-21,-720,3.0625,7.05774,0.00122773,0.00044329,-0.00033883,0.00135382,0.000317203,-0.356247,0.000817587,0.00840127,1203,1744,3.06253,-7.05777
-14,-720,3.04712,7.0708,0.00144065,-0.000496928,-0.000403636,0.00152137,-0.000577651,-0.197385,0.00125203,0.0101615,1210,1744,3.04708,-7.07079
-7,-720,3.06079,7.09839,0.00169731,-0.00150075,-0.000370671,0.00173971,-0.00154315,-0.113893,0.00189649,0.0107926,1217,1744,3.06079,-7.09837
0,-720,3.07312,7.11499,0.00186445,-0.0024182,-0.000337434,0.00189087,-0.00244462,-0.0781484,0.00250989,0.0117026,1224,1744,3.07317,-7.11495
7,-720,3.08313,7.09875,0.00188637,-0.00341957,-0.000260989,0.00189917,-0.00343237,-0.0490304,0.00312031,0.014371,1231,1744,3.08311,-7.09879
14,-720,3.09766,7.11682,0.00179296,-0.00419029,-0.000154933,0.00179697,-0.0041943,-0.0258713,0.00355017,0.0137119,1238,1744,3.0976,-7.11687
21,-720,3.08081,7.15186,0.00163607,-0.00470521,-1.96651e-05,0.00163614,-0.00470527,-0.00310109,0.00380146,0.0109199,1245,1744,3.08082,-7.15186
28,-720,3.06714,7.17273,0.00147366,-0.00502707,1.11552e-05,0.00147368,-0.00502709,0.00171599,0.00393568,0.0107168,1252,1744,3.06716,-7.17268
35,-720,3.06409,7.19275,0.00128532,-0.00523788,-0.000102534,0.00128693,-0.00523949,-0.0157132,0.00399173,0.0103224,1259,1744,3.06414,-7.19279
42,-720,3.06531,7.19641,0.00099885,-0.00530991,-0.000264623,0.00100993,-0.00532099,-0.0418474,0.0039275,0.0106387,1266,1744,3.06535,-7.19638
49,-720,3.08044,7.17188,0.000727054,-0.00566855,-0.000540293,0.000772376,-0.00571387,-0.0836884,0.00409108,0.0107951,1273,1744,3.08047,-7.1719
56,-720,3.08337,7.18884,0.000584795,-0.0058683,-0.000879742,0.000702579,-0.00598608,-0.133094,0.00424434,0.00878866,1280,1744,3.08333,-7.18879
63,-720,3.08667,7.21216,0.000402128,-0.00615199,-0.00122473,0.00062351,-0.00637337,-0.178828,0.00447127,0.0102641,1287,1744,3.08671,-7.21216
70,-720,3.09009,7.21912,0.000210222,-0.00637919,-0.00158795,0.000572929,-0.0067419,-0.22456,0.00469724,0.0116688,1294,1744,3.09012,-7.21911
77,-720,3.08728,7.21423,0.000204925,-0.006632,-0.00216316,0.000831848,-0.00725892,-0.28209,0.00513905,0.0134302,1301,1744,3.08723,-7.21418
84,-720,3.10083,7.19226,0.000461325,-0.0069858,-0.00260625,0.00128281,-0.00780729,-0.305341,0.00568095,0.0134023,1308,1744,3.10084,-7.19226
91,-720,3.1178,7.20154,0.00077956,-0.00727234,-0.00276912,0.00163995,-0.00813273,-0.301252,0.0060431,0.0128497,1315,1744,3.11785,-7.20152
98,-720,3.10303,7.2124,0.000993576,-0.00741126,-0.00289514,0.00189431,-0.00831199,-0.301627,0.00626891,0.0115769,1322,1744,3.103,-7.21242
105,-720,3.09558,7.19495,0.00126894,-0.00739233,-0.00291445,0.00215831,-0.00828169,-0.296182,0.00636376,0.01095,1329,1744,3.09553,-7.1949
112,-720,3.10205,7.20288,0.00161709,-0.00713428,-0.00275707,0.00241326,-0.00793045,-0.281125,0.0062487,0.0103095,1336,1744,3.10203,-7.20289
119,-720,3.1189,7.20862,0.00196244,-0.00663272,-0.00255955,0.00266691,-0.00733719,-0.268582,0.00598199,0.0113594,1343,1744,3.11889,-7.20866
126,-720,3.12219,7.20251,0.00224475,-0.00602346,-0.0021117,0.00275286,-0.00653156,-0.236125,0.00550636,0.0121202,1350,1744,3.12215,-7.20246
133,-720,3.10645,7.18469,0.00239983,-0.00534039,-0.00140025,0.00264535,-0.00558592,-0.173579,0.00485236,0.0131629,1357,1744,3.1065,-7.18464
140,-720,3.09778,7.17944,0.00246883,-0.00466675,-0.000491533,0.00250253,-0.00470045,-0.068454,0.00422268,0.0185815,1364,1744,3.09779,-7.17941
147,-720,3.09961,7.1449,0.00245082,-0.00386227,-2.65572e-05,0.00245093,-0.00386238,-0.00420658,0.00367523,0.0197498,1371,1744,3.09966,-7.14488
154,-720,3.10083,7.10278,0.00233905,-0.00290944,0.000598768,0.0024065,-0.00297688,0.112164,0.00311391,0.0134517,1378,1744,3.10079,-7.10284
161,-720,3.11877,7.09668,0.00220852,-0.00226846,0.00114625,0.00248493,-0.00254487,0.236626,0.00290402,0.00929744,1385,1744,3.11879,-7.09671
168,-720,3.11926,7.07825,0.00205299,-0.00175107,0.00154845,0.00260359,-0.00230167,0.34164,0.00283384,0.00881124,1392,1744,3.11926,-7.0782
175,-720,3.11523,7.05371,0.00211131,-0.00161093,0.00172526,0.00278796,-0.00228758,0.373766,0.00293511,0.0136571,1399,1744,3.11529,-7.05369
182,-720,3.12354,7.04468,0.00224527,-0.00138599,0.00185184,0.00302306,-0.00216377,0.397635,0.00300829,0.014348,1406,1744,3.12349,-7.04465
189,-720,3.11597,7.01782,0.00232567,-0.00119627,0.00162617,0.00296166,-0.00183227,0.37281,0.00279326,0.0128897,1413,1744,3.11593,-7.01787
196,-720,3.11194,6.98157,0.00229655,-0.00117712,0.00121747,0.00268076,-0.00156133,0.305689,0.00247744,0.0124896,1420,1744,3.11193,-6.98162
203,-720,3.09741,6.94177,0.00271562,-0.00119933,0.000979329,0.00294693,-0.00143065,0.231944,0.00257744,0.0136724,1427,1744,3.09745,-6.94172
210,-720,3.10327,6.90662,0.00328533,-0.00123021,0.000576524,0.00335777,-0.00130266,0.125004,0.00277653,0.0124113,1434,1744,3.10333,-6.90666
217,-720,3.10901,6.87244,0.00340523,-0.00151034,0.000245739,0.00341749,-0.0015226,0.0498263,0.00292126,0.0119021,1441,1744,3.10899,-6.87244
224,-720,3.11487,6.84509,0.00310246,-0.00199261,0.000101381,0.00310448,-0.00199463,0.0198873,0.00296712,0.00898388,1448,1744,3.11482,-6.8451
231,-720,3.11365,6.8269,0.00296825,-0.00233931,-0.000142317,0.00297206,-0.00234313,-0.0267884,0.00307588,0.00907933,1455,1744,3.11359,-6.8269
238,-720,3.11633,6.78577,0.00210166,-0.00300453,7.31693e-06,0.00210167,-0.00300454,0.00143295,0.0029634,0.00794141,1462,1744,3.11636,-6.78574
245,-720,3.11035,6.77295,0.000672691,-0.00380869,0.000431234,0.00071381,-0.00384981,0.0950656,0.0028346,0.00988537,1469,1744,3.1104,-6.77295
252,-720,3.11792,6.72412,-0.0027813,-0.00504808,0.00161456,-0.00194203,-0.00588735,0.479371,0.00346403,0.00999503,1476,1744,3.11793,-6.72415
259,-720,3.13013,6.66907,-0.00722825,-0.00640265,0.00264365,-0.00413977,-0.00949114,0.862846,0.00549457,0.00917921,1483,1744,3.13013,-6.66903
266,-720,3.13013,6.65637,-0.0121793,-0.00727104,0.00372378,-0.00526542,-0.0141849,1.07675,0.00827973,0.00765553,1490,1744,3.13008,-6.65634
273,-720,3.10889,6.60193,-0.0166341,-0.00848577,0.00525252,-0.00591256,-0.0192074,1.11526,0.0113591,0.0111244,1497,1744,3.1089,-6.60188
280,-720,3.07715,6.54883,-0.0211122,-0.0101629,0.0071486,-0.00663345,-0.0246417,1.11218,0.0147235,0.0127219,1504,1744,3.0771,-6.54877
287,-720,3.06409,6.49915,-0.0261509,-0.0115757,0.00891681,-0.00734731,-0.0303793,1.12799,0.0183022,0.0207812,1511,1744,3.06405,-6.49914
294,-720,3.09912,6.44397,-0.030399,-0.012777,0.0106808,-0.00774196,-0.035434,1.13028,0.0215115,0.0281039,1518,1744,3.09906,-6.44397
301,-720,3.06189,6.37512,-0.0325237,-0.013678,0.0113406,-0.00835635,-0.0378454,1.13205,0.0229575,0.0305414,1525,1744,3.06186,-6.37516
308,-720,3.00818,6.21875,-0.0339197,-0.0138942,0.0111665,-0.00890871,-0.0389052,1.15089,0.0235361,0.0338246,1532,1744,3.0082,-6.21876
315,-720,3.24561,5.83716,-0.0340706,-0.0133603,0.0123659,-0.00758646,-0.0398445,1.13396,0.02443,0.040418,1539,1744,3.24563,-5.8371
322,-720,3.51575,5.8446,-0.0324078,-0.0131087,0.0138151,-0.00590681,-0.0396096,1.09025,0.0246743,0.0498277,1546,1744,3.51571,-5.84461
329,-720,3.28308,6.34558,-0.0287575,-0.0119788,0.0137438,-0.00426617,-0.0364701,1.05942,0.0230235,0.0494343,1553,1744,3.28306,-6.3456
336,-720,3.81116,7.01318,0,0,0,0,0,0,0,-1,1560,1744,3.81118,-7.01317
343,-720,3.63574,5.9032,0,0,0,0,0,0,0,-1,1567,1744,3.63576,-5.90324
350,-720,3.8988,5.79553,-0.0189704,-0.00772092,0.0175867,0.00511868,-0.03181,0.940171,0.0231027,0.046986,1574,1744,3.89881,-5.79559
357,-720,4.5957,5.50916,-0.0142476,-0.00545483,0.0195043,0.0101424,-0.0298448,0.896248,0.0240026,0.0449995,1581,1744,4.59568,-5.50918
364,-720,4.79919,5.15613,-0.0109098,-0.0025155,0.0225599,0.0162344,-0.0296596,0.877369,0.0268722,0.0454115,1588,1744,4.79914,-5.15617
371,-720,5.20264,5.42456,0,0,0,0,0,0,0,-1,1595,1744,5.20258,-5.42459
378,-720,4.18494,5.86707,-0.0111796,0.00595567,0.032799,0.0312875,-0.0365115,0.913152,0.0391825,0.0445501,1602,1744,4.18496,-5.86702
385,-720,4.23291,6.23035,-0.0133106,0.0126047,0.0409123,0.0425623,-0.0432682,0.93876,0.0495548,0.0451991,1609,1744,4.23297,-6.2304
392,-720,3.45117,5.72424,-0.0166032,0.020724,0.0513784,0.0567237,-0.0526028,0.959617,0.0631346,0.0421923,1616,1744,3.45113,-5.72423
399,-720,3.26672,6.00012,-0.0217285,0.0318935,0.0631647,0.0737018,-0.0635368,0.986105,0.0793072,0.0416863,1623,1744,3.26667,-6.00014
406,-720,0,0,0,0,0,0,0,0,0,-1,1630,1744,0,0
413,-720,0,0,0,0,0,0,0,0,0,-1,1637,1744,0,0
420,-720,0,0,0,0,0,0,0,0,0,-1,1644,1744,0,0
427,-720,0,0,0,0,0,0,0,0,0,-1,1651,1744,0,0
434,-720,0,0,0,0,0,0,0,0,0,-1,1658,1744,0,0
441,-720,0,0,0,0,0,0,0,0,0,-1,1665,1744,0,0
448,-720,0,0,0,0,0,0,0,0,0,-1,1672,1744,0,0
455,-720,0,0,0,0,0,0,0,0,0,-1,1679,1744,0,0
462,-720,0,0,0,0,0,0,0,0,0,-1,1686,1744,0,0
469,-720,0,0,0,0,0,0,0,0,0,-1,1693,1744,0,0
476,-720,0,0,0,0,0,0,0,0,0,-1,1700,1744,0,0
483,-720,0,0,0,0,0,0,0,0,0,-1,1707,1744,0,0
490,-720,0,0,0,0,0,0,0,0,0,-1,1714,1744,0,0
497,-720,0,0,0,0,0,0,0,0,0,-1,1721,1744,0,0
504,-720,0,0,0,0,0,0,0,0,0,-1,1728,1744,0,0
511,-720,0,0,0,0,0,0,0,0,0,-1,1735,1744,0,0
518,-720,0,0,0,0,0,0,0,0,0,-1,1742,1744,0,0
525,-720,0,0,0,0,0,0,0,0,0,-1,1749,1744,0,0
532,-720,0,0,0,0,0,0,0,0,0,-1,1756,1744,0,0
539,-720,0,0,0,0,0,0,0,0,0,-1,1763,1744,0,0
546,-720,0,0,0,0,0,0,0,0,0,-1,1770,1744,0,0
553,-720,0,0,0,0,0,0,0,0,0,-1,1777,1744,0,0
560,-720,0,0,0,0,0,0,0,0,0,-1,1784,1744,0,0
567,-720,0,0,0,0,0,0,0,0,0,-1,1791,1744,0,0
574,-720,0,0,0,0,0,0,0,0,0,-1,1798,1744,0,0
581,-720,0,0,0,0,0,0,0,0,0,-1,1805,1744,0,0
588,-720,0,0,0,0,0,0,0,0,0,-1,1812,1744,0,0
595,-720,0,0,0,0,0,0,0,0,0,-1,1819,1744,0,0
602,-720,0,0,0,0,0,0,0,0,0,-1,1826,1744,0,0
609,-720,0,0,0,0,0,0,0,0,0,-1,1833,1744,0,0
616,-720,0,0,0,0,0,0,0,0,0,-1,1840,1744,0,0
623,-720,0,0,0,0,0,0,0,0,0,-1,1847,1744,0,0
630,-720,0,0,0,0,0,0,0,0,0,-1,1854,1744,0,0
637,-720,0,0,0,0,0,0,0,0,0,-1,1861,1744,0,0
644,-720,0,0,0,0,0,0,0,0,0,-1,1868,1744,0,0
651,-720,0,0,0,0,0,0,0,0,0,-1,1875,1744,0,0
658,-720,0,0,0,0,0,0,0,0,0,-1,1882,1744,0,0
665,-720,0,0,0,0,0,0,0,0,0,-1,1889,1744,0,0
672,-720,0,0,0,0,0,0,0,0,0,-1,1896,1744,0,0
679,-720,0,0,0,0,0,0,0,0,0,-1,1903,1744,0,0
686,-720,0,0,0,0,0,0,0,0,0,-1,1910,1744,0,0
693,-720,0,0,0,0,0,0,0,0,0,-1,1917,1744,0,0
700,-720,0,0,0,0,0,0,0,0,0,-1,1924,1744,0,0
707,-720,0,0,0,0,0,0,0,0,0,-1,1931,1744,0,0
714,-720,0,0,0,0,0,0,0,0,0,-1,1938,1744,0,0
721,-720,0,0,0,0,0,0,0,0,0,-1,1945,1744,0,0
728,-720,0,0,0,0,0,0,0,0,0,-1,1952,1744,0,0
735,-720,0,0,0,0,0,0,0,0,0,-1,1959,1744,0,0
742,-720,0,0,0,0,0,0,0,0,0,-1,1966,1744,0,0
749,-720,0,0,0,0,0,0,0,0,0,-1,1973,1744,0,0
756,-720,0,0,0,0,0,0,0,0,0,-1,1980,1744,0,0
763,-720,0,0,0,0,0,0,0,0,0,-1,1987,1744,0,0
770,-720,0,0,0,0,0,0,0,0,0,-1,1994,1744,0,0
777,-720,0,0,0,0,0,0,0,0,0,-1,2001,1744,0,0
784,-720,0,0,0,0,0,0,0,0,0,-1,2008,1744,0,0
791,-720,0,0,0,0,0,0,0,0,0,-1,2015,1744,0,0
798,-720,0,0,0,0,0,0,0,0,0,-1,2022,1744,0,0
805,-720,0,0,0,0,0,0,0,0,0,-1,2029,1744,0,0
812,-720,0,0,0,0,0,0,0,0,0,-1,2036,1744,0,0
-700,-727,0,0,0,0,0,0,0,0,0,-1,524,1751,0,0
-693,-727,0,0,0,0,0,0,0,0,0,-1,531,1751,0,0
-686,-727,0,0,0,0,0,0,0,0,0,-1,538,1751,0,0
-679,-727,0,0,0,0,0,0,0,0,0,-1,545,1751,0,0
-672,-727,0,0,0,0,0,0,0,0,0,-1,552,1751,0,0
-665,-727,0,0,0,0,0,0,0,0,0,-1,559,1751,0,0
-658,-727,0,0,0,0,0,0,0,0,0,-1,566,1751,0,0
-651,-727,0,0,0,0,0,0,0,0,0,-1,573,1751,0,0
-644,-727,0,0,0,0,0,0,0,0,0,-1,580,1751,0,0
-637,-727,0,0,0,0,0,0,0,0,0,-1,587,1751,0,0
-630,-727,0,0,0,0,0,0,0,0,0,-1,594,1751,0,0
-623,-727,0,0,0,0,0,0,0,0,0,-1,601,1751,0,0
-616,-727,0,0,0,0,0,0,0,0,0,-1,608,1751,0,0
-609,-727,0,0,0,0,0,0,0,0,0,-1,615,1751,0,0
-602,-727,0,0,0,0,0,0,0,0,0,-1,622,1751,0,0
-595,-727,0,0,0,0,0,0,0,0,0,-1,629,1751,0,0
-588,-727,0,0,0,0,0,0,0,0,0,-1,636,1751,0,0
-581,-727,0,0,0,0,0,0,0,0,0,-1,643,1751,0,0
-574,-727,0,0,0,0,0,0,0,0,0,-1,650,1751,0,0
-567,-727,0,0,0,0,0,0,0,0,0,-1,657,1751,0,0
-560,-727,0,0,0,0,0,0,0,0,0,-1,664,1751,0,0
-553,-727,0,0,0,0,0,0,0,0,0,-1,671,1751,0,0
-546,-727,0,0,0,0,0,0,0,0,0,-1,678,1751,0,0
-539,-727,0,0,0,0,0,0,0,0,0,-1,685,1751,0,0
-532,-727,0,0,0,0,0,0,0,0,0,-1,692,1751,0,0
-525,-727,0,0,0,0,0,0,0,0,0,-1,699,1751,0,0
-518,-727,0,0,0,0,0,0,0,0,0,-1,706,1751,0,0
-511,-727,0,0,0,0,0,0,0,0,0,-1,713,1751,0,0
-504,-727,0,0,0,0,0,0,0,0,0,-1,720,1751,0,0
-497,-727,0,0,0,0,0,0,0,0,0,-1,727,1751,0,0
-490,-727,0,0,0,0,0,0,0,0,0,-1,734,1751,0,0
-483,-727,0,0,0,0,0,0,0,0,0,-1,741,1751,0,0
-476,-727,0,0,0,0,0,0,0,0,0,-1,748,1751,0,0
-469,-727,0,0,0,0,0,0,0,0,0,-1,755,1751,0,0
-462,-727,0,0,0,0,0,0,0,0,0,-1,762,1751,0,0
-455,-727,0,0,0,0,0,0,0,0,0,-1,769,1751,0,0
-448,-727,0,0,0,0,0,0,0,0,0,-1,776,1751,0,0
-441,-727,0,0,0,0,0,0,0,0,0,-1,783,1751,0,0
-434,-727,0,0,0,0,0,0,0,0,0,-1,790,1751,0,0
-427,-727,0,0,0,0,0,0,0,0,0,-1,797,1751,0,0
-420,-727,0,0,0,0,0,0,0,0,0,-1,804,1751,0,0
-413,-727,0,0,0,0,0,0,0,0,0,-1,811,1751,0,0
-406,-727,0,0,0,0,0,0,0,0,0,-1,818,1751,0,0
-399,-727,0,0,0,0,0,0,0,0,0,-1,825,1751,0,0
-392,-727,0,0,0,0,0,0,0,0,0,-1,832,1751,0,0
-385,-727,0,0,0,0,0,0,0,0,0,-1,839,1751,0,0
-378,-727,0,0,0,0,0,0,0,0,0,-1,846,1751,0,0
-371,-727,0,0,0,0,0,0,0,0,0,-1,853,1751,0,0
-364,-727,0,0,0,0,0,0,0,0,0,-1,860,1751,0,0
-357,-727,0,0,0,0,0,0,0,0,0,-1,867,1751,0,0
-350,-727,0,0,0,0,0,0,0,0,0,-1,874,1751,0,0
-343,-727,0,0,0,0,0,0,0,0,0,-1,881,1751,0,0
-336,-727,0,0,0,0,0,0,0,0,0,-1,888,1751,0,0
-329,-727,0,0,0,0,0,0,0,0,0,-1,895,1751,0,0
-322,-727,0,0,0,0,0,0,0,0,0,-1,902,1751,0,0
-315,-727,0,0,0,0,0,0,0,0,0,-1,909,1751,0,0
-308,-727,0,0,0,0,0,0,0,0,0,-1,916,1751,0,0
-301,-727,0,0,0,0,0,0,0,0,0,-1,923,1751,0,0
-294,-727,0,0,0,0,0,0,0,0,0,-1,930,1751,0,0
-287,-727,0,0,0,0,0,0,0,0,0,-1,937,1751,0,0
-280,-727,0,0,0,0,0,0,0,0,0,-1,944,1751,0,0
-273,-727,0,0,0,0,0,0,0,0,0,-1,951,1751,0,0
-266,-727,1.72534,3.44751,0,0,0,0,0,0,0,-1,958,1751,1.72536,-3.44748
-259,-727,0.383606,4.44397,0,0,0,0,0,0,0,-1,965,1751,0.383592,-4.44397
-252,-727,-0.0088501,4.47266,0,0,0,0,0,0,0,-1,972,1751,-0.00886852,-4.47265
-245,-727,-0.343384,4.54761,0,0,0,0,0,0,0,-1,979,1751,-0.34338,-4.54757
-238,-727,-0.454041,4.91858,0,0,0,0,0,0,0,-1,986,1751,-0.454062,-4.91863
-231,-727,4.80231,5.53052,0,0,0,0,0,0,0,-1,993,1751,4.80231,-5.53051
-224,-727,4.63989,6.22314,0.000576814,-0.00022339,0.00590149,0.00609175,-0.00573833,0.751552,0.00683111,0.0465807,1000,1751,4.63986,-6.22309
-217,-727,4.24371,6.45215,-0.00247125,-0.00484251,0.00582866,0.00229114,-0.0096049,0.68506,0.00728803,0.0460334,1007,1751,4.24373,-6.4522
-210,-727,4.55084,7.34033,-0.00294216,-0.007003,0.00282697,-0.00149201,-0.00845315,0.473969,0.0052098,0.0411221,1014,1751,4.55085,-7.34028
-203,-727,3.37573,6.203,-0.00249281,-0.00842216,-0.000378872,-0.0024687,-0.00844627,-0.0635533,0.00501476,0.042177,1021,1751,3.37579,-6.20302
-196,-727,3.43701,6.52917,0,0,0,0,0,0,0,-1,1028,1751,3.43695,-6.52922
-189,-727,4.23071,6.13525,0.000982517,-0.00833931,-0.00571304,0.00369472,-0.0110515,-0.443236,0.00885988,0.047571,1035,1751,4.23076,-6.13526
-182,-727,3.61597,6.12036,0.00230011,-0.00787929,-0.00709864,0.00594515,-0.0115243,-0.474377,0.010256,0.0441218,1042,1751,3.61591,-6.1203
-175,-727,2.81665,6.16528,0.00370172,-0.00744618,-0.00810441,0.00796395,-0.0117084,-0.484164,0.0114262,0.0476549,1049,1751,2.81663,-6.16527
-168,-727,2.88745,6.20227,0.00438202,-0.00662343,-0.00834572,0.00887584,-0.0111173,-0.493939,0.0115672,0.0485287,1056,1751,2.8875,-6.20227
-161,-727,3.12,6.26135,0.00446437,-0.00583419,-0.00831861,0.00909845,-0.0104683,-0.508259,0.0113061,0.0475961,1063,1751,3.11998,-6.26137
-154,-727,3.14746,6.38489,0.00466591,-0.00365545,-0.00647586,0.00820251,-0.00719204,-0.499859,0.00889443,0.0406546,1070,1751,3.14746,-6.38483
-147,-727,3.19275,6.46606,0.00487789,-0.0023001,-0.00473805,0.0072328,-0.00465501,-0.461262,0.00691701,0.0333119,1077,1751,3.19275,-6.46605
-140,-727,3.14136,6.4281,0.00385929,-0.00113987,-0.0033412,0.00553242,-0.002813,-0.464253,0.00490276,0.0211202,1084,1751,3.14131,-6.42805
-133,-727,3.13,6.44604,0.00372968,-6.24936e-05,-0.00166583,0.00435751,-0.000690322,-0.360423,0.00316034,0.014441,1091,1751,3.13004,-6.44601
-126,-727,3.09521,6.52808,0.0034334,0.000952583,-0.000769003,0.00365244,0.000733546,-0.277483,0.00223101,0.0114455,1098,1751,3.09518,-6.52807
-119,-727,3.11194,6.599,0.00217369,0.00201667,0.000275821,0.00238196,0.0018084,0.646741,0.0014355,0.0111575,1105,1751,3.11191,-6.59899
-112,-727,3.11389,6.62012,0.00128921,0.00296807,0.000789851,0.00328125,0.000976029,1.19331,0.00194555,0.0132739,1112,1751,3.11395,-6.62007
-105,-727,3.11169,6.6571,0.000813321,0.00332783,0.000434389,0.00340075,0.000740394,1.40446,0.0020651,0.0130979,1119,1751,3.11164,-6.65716
-98,-727,3.12427,6.69031,0.000451756,0.0032894,7.83375e-05,0.00329156,0.000449594,1.54322,0.00206092,0.0110369,1126,1751,3.12424,-6.69029
-91,-727,3.13525,6.72729,-0.000194275,0.00384762,-0.00018666,0.00385622,-0.000202877,-1.52475,0.00264104,0.0104955,1133,1751,3.13529,-6.72732
-84,-727,3.11511,6.78491,-0.000296559,0.00402323,-0.00026894,0.00403991,-0.000313238,-1.50886,0.00280352,0.0104469,1140,1751,3.11507,-6.78492
-77,-727,3.11633,6.84253,-0.000344482,0.00405244,-0.000339619,0.00407851,-0.00037056,-1.49416,0.00285057,0.0106313,1147,1751,3.11629,-6.84251
-70,-727,3.12012,6.8739,-0.000456619,0.00394088,-0.000415543,0.00397981,-0.000495541,-1.4774,0.00283287,0.0106891,1154,1751,3.12013,-6.87392
-63,-727,3.10083,6.90588,-0.000381075,0.00342805,-0.000432591,0.00347656,-0.000429585,-1.45912,0.00247337,0.00893482,1161,1751,3.1008,-6.90589
-56,-727,3.09326,6.93518,-0.000279027,0.00317001,-0.000396931,0.00321511,-0.000324118,-1.45768,0.00225921,0.0103941,1168,1751,3.09327,-6.93512
-49,-727,3.08337,6.94495,-0.000298561,0.00288924,-0.000215242,0.00290371,-0.000313029,-1.50368,0.00204814,0.0137208,1175,1751,3.08332,-6.9449
-42,-727,3.06958,6.97766,-0.000140452,0.00275767,-0.000106416,0.00276157,-0.000144355,-1.53414,0.001891,0.0164958,1182,1751,3.06957,-6.9776
-35,-727,3.05359,6.99878,0.000335617,0.00240992,-7.08506e-05,0.00241234,0.0003332,-1.53669,0.00150947,0.0145689,1189,1751,3.05354,-6.9988
-28,-727,3.0824,7.00281,0.000625955,0.00196467,-0.000144757,0.00198014,0.000610482,-1.46431,0.00117091,0.00874149,1196,1751,3.08236,-7.00284
-21,-727,3.07458,7.04517,0.000828178,0.0013157,1.65089e-06,0.00131571,0.000828173,1.56741,0.000768064,0.00962995,1203,1751,3.07463,-7.04517
-14,-727,3.06738,7.07898,0.000997296,0.000520233,8.78223e-05,0.00101295,0.000504579,0.176389,0.000584828,0.0109851,1210,1751,3.06742,-7.07895
-7,-727,3.08594,7.09265,0.0010777,-0.000408381,5.69861e-05,0.00107989,-0.000410563,0.0382716,0.000888963,0.0144975,1217,1751,3.08588,-7.09263
0,-727,3.10095,7.12317,0.00111293,-0.0012899,1.72801e-05,0.00111305,-0.00129003,0.00719106,0.00138867,0.0138757,1224,1751,3.10095,-7.12315
7,-727,3.08569,7.12659,0.00101892,-0.00220508,2.66265e-05,0.00101914,-0.0022053,0.0082581,0.00190316,0.0136014,1231,1751,3.08575,-7.12658
14,-727,3.09155,7.13757,0.000849344,-0.00293881,7.72662e-05,0.000850919,-0.00294039,0.0203855,0.00229705,0.0138633,1238,1751,3.09153,-7.13762
21,-727,3.08789,7.17212,0.000666767,-0.00343583,0.000210833,0.000677573,-0.00344663,0.0512103,0.00255375,0.0119691,1245,1751,3.08785,-7.17217
28,-727,3.09412,7.17578,0.000532404,-0.00374542,0.000254105,0.000547445,-0.00376046,0.0591235,0.00270797,0.0108395,1252,1751,3.09406,-7.17579
35,-727,3.11157,7.16809,0.000375055,-0.00384312,0.000234644,0.000388067,-0.00385613,0.055399,0.00270939,0.0113765,1259,1751,3.11162,-7.16803
42,-727,3.0896,7.1698,0.000131673,-0.00390837,0.000231375,0.00014488,-0.00392157,0.057022,0.00266399,0.0116255,1266,1751,3.08965,-7.16982
49,-727,3.07922,7.1532,-7.97239e-05,-0.00415897,0.000174248,-7.22944e-05,-0.0041664,0.0426124,0.00275382,0.0104407,1273,1751,3.07919,-7.15323
56,-727,3.08093,7.18701,-0.000147908,-0.00431892,2.98897e-05,-0.000147694,-0.00431914,0.00716555,0.00283148,0.00876165,1280,1751,3.08095,-7.18704
63,-727,3.08618,7.20435,-0.0002518,-0.00450387,-0.000125763,-0.000248083,-0.00450759,-0.0295425,0.00292587,0.0103934,1287,1751,3.08614,-7.20432
70,-727,3.08606,7.21094,-0.000346714,-0.00459993,-0.000290098,-0.000327019,-0.00461962,-0.0677884,0.00297674,0.0131851,1294,1751,3.0861,-7.21093
77,-727,3.09314,7.21399,-0.000267795,-0.00480986,-0.000609903,-0.000187324,-0.00489034,-0.131183,0.00319961,0.0155303,1301,1751,3.09309,-7.21396
84,-727,3.10022,7.18689,-7.20959e-05,-0.00509699,-0.000905116,8.59674e-05,-0.00525505,-0.17289,0.00353237,0.0148036,1308,1751,3.10024,-7.18689
91,-727,3.12146,7.16821,0.000167073,-0.00530144,-0.00101642,0.000349881,-0.00548425,-0.177953,0.0037782,0.0148036,1315,1751,3.12145,-7.16816
98,-727,3.10608,7.19019,0.000356369,-0.00544192,-0.00114898,0.000575749,-0.0056613,-0.188663,0.00398002,0.0124847,1322,1751,3.10614,-7.19018
105,-727,3.09558,7.19824,0.000565519,-0.00547719,-0.00122075,0.000802815,-0.00571448,-0.191992,0.00410352,0.0117344,1329,1751,3.09558,-7.19826
112,-727,3.10132,7.20532,0.000905517,-0.00535455,-0.00117509,0.00111883,-0.00556786,-0.179571,0.00413561,0.010312,1336,1751,3.10131,-7.20528
119,-727,3.11536,7.21033,0.00132106,-0.0050209,-0.00117213,0.00153076,-0.0052306,-0.177033,0.00409385,0.00844783,1343,1751,3.11531,-7.21031
126,-727,3.11243,7.19238,0.00172791,-0.00477822,-0.000716423,0.00180587,-0.00485617,-0.108385,0.00397845,0.0101913,1350,1751,3.11243,-7.19244
133,-727,3.10461,7.16492,0.002031,-0.00462775,0.000163819,0.00203503,-0.00463177,0.0245823,0.00394521,0.0150045,1357,1751,3.10464,-7.16487
140,-727,3.12048,7.16333,0.00231176,-0.00473234,0.00139903,0.00257945,-0.00500003,0.189054,0.00444978,0.0207028,1364,1751,3.12049,-7.16328
147,-727,3.11267,7.13574,0.00248777,-0.00448376,0.00204139,0.00304154,-0.00503753,0.264895,0.00471166,0.0179301,1371,1751,3.11272,-7.1358
154,-727,3.09436,7.08911,0.00257267,-0.0042756,0.00298774,0.0036929,-0.00539584,0.358721,0.005278,0.0114205,1378,1751,3.0943,-7.08917
161,-727,3.10596,7.07654,0.00262365,-0.00426079,0.00395131,0.00442182,-0.00605896,0.427073,0.00607564,0.00864602,1385,1751,3.10594,-7.07649
168,-727,3.10352,7.06897,0.00264572,-0.00433563,0.00475474,0.00505355,-0.00674345,0.46876,0.00683426,0.0106662,1392,1751,3.10348,-7.06901
175,-727,3.11609,7.05774,0.00296893,-0.00472007,0.00512984,0.005535,-0.00728614,0.463827,0.00742527,0.0153814,1399,1751,3.11607,-7.05769
182,-727,3.12463,7.03845,0.00340772,-0.00473132,0.00525028,0.00598097,-0.00730457,0.45571,0.00768309,0.0185051,1406,1751,3.12467,-7.03845
189,-727,3.10205,7.01672,0.00379842,-0.00461378,0.0047127,0.00590902,-0.00672439,0.421069,0.00729897,0.012647,1413,1751,3.10206,-7.01671
196,-727,3.10449,6.99023,0.0039767,-0.0044796,0.00393751,0.0055262,-0.00602911,0.37491,0.00667357,0.0135346,1420,1751,3.10451,-6.9902
203,-727,3.08386,6.94482,0.00459027,-0.00413359,0.00330834,0.00570297,-0.00524629,0.324447,0.00632339,0.0148124,1427,1751,3.08384,-6.94477
210,-727,3.07739,6.9115,0.00542796,-0.00375867,0.00235065,0.0059945,-0.00432521,0.236504,0.00598401,0.013634,1434,1751,3.07741,-6.91155
217,-727,3.0824,6.87866,0.0054456,-0.00382465,0.00156253,0.00570189,-0.00408094,0.162571,0.0056739,0.010723,1441,1751,3.08237,-6.87871
224,-727,3.07678,6.83557,0.00469551,-0.00427538,0.0011392,0.00483791,-0.00441778,0.124359,0.00534561,0.0119193,1448,1751,3.07684,-6.83555
231,-727,3.08508,6.81201,0.00428597,-0.00441288,0.00043226,0.00430739,-0.00443431,0.049529,0.0050472,0.00925519,1455,1751,3.08511,-6.81207
238,-727,3.09766,6.77161,0.00260468,-0.00518234,0.000469484,0.00263288,-0.00521054,0.0600009,0.0046092,0.0090502,1462,1751,3.09769,-6.77164
245,-727,3.09094,6.75757,4.29151e-05,-0.00630997,0.00107763,0.000220733,-0.00648778,0.163536,0.00440061,0.0090889,1469,1751,3.09096,-6.75753
252,-727,3.08398,6.7207,-0.00532973,-0.00814562,0.00295297,-0.00346624,-0.0100091,0.562945,0.00586906,0.00996456,1476,1751,3.08396,-6.72074
259,-727,3.10718,6.66809,-0.0119755,-0.0101517,0.00459707,-0.00637698,-0.0157503,0.883311,0.00914811,0.0123192,1483,1751,3.10724,-6.66807
266,-727,3.15149,6.68774,-0.0192551,-0.0115721,0.00631824,-0.00801922,-0.022808,1.05854,0.0133602,0.0165687,1490,1751,3.15147,-6.68773
273,-727,3.18286,6.66284,-0.0257184,-0.0133867,0.00850236,-0.00904977,-0.0300553,1.09912,0.0178042,0.0254886,1497,1751,3.18291,-6.66281
280,-727,2.95508,6.58582,-0.0322105,-0.0156069,0.0110553,-0.0100834,-0.037734,1.10745,0.022559,0.0385284,1504,1751,2.95503,-6.58578
287,-727,2.96277,6.55188,-0.0394099,-0.0175584,0.0134562,-0.0111509,-0.0458174,1.12639,0.0275896,0.0443702,1511,1751,2.96281,-6.55182
294,-727,3.10425,6.43115,-0.0455853,-0.0192396,0.0158545,-0.0117996,-0.0530253,1.13204,0.0321471,0.0440004,1518,1751,3.1042,-6.4311
301,-727,3.24243,6.29016,0,0,0,0,0,0,0,-1,1525,1751,3.24243,-6.29012
308,-727,2.9032,5.9917,0,0,0,0,0,0,0,-1,1532,1751,2.90318,-5.99172
315,-727,2.95264,5.89697,0,0,0,0,0,0,0,-1,1539,1751,2.95264,-5.89698
322,-727,3.56848,5.67261,-0.0495133,-0.0196466,0.0197646,-0.00980811,-0.0593518,1.10892,0.0367375,0.0427714,1546,1751,3.56845,-5.67259
329,-727,3.56409,6.86316,-0.0456519,-0.0181963,0.0198765,-0.00776777,-0.0560804,1.08761,0.0350855,0.0412328,1553,1751,3.56405,-6.86317
336,-727,3.96497,7.11169,0,0,0,0,0,0,0,-1,1560,1751,3.96497,-7.11167
343,-727,3.23193,6.32922,0,0,0,0,0,0,0,-1,1567,1751,3.23195,-6.32917
350,-727,3.98901,5.2738,0,0,0,0,0,0,0,-1,1574,1751,3.98905,-5.27382
357,-727,4.32312,4.15479,0,0,0,0,0,0,0,-1,1581,1751,4.32307,-4.15479
364,-727,4.41846,4.9491,-0.0231317,-0.00785287,0.0289229,0.0144225,-0.0454071,0.914515,0.0360536,0.0423477,1588,1751,4.41841,-4.94914
371,-727,4.36768,5.65808,-0.0213397,-0.00454827,0.0333492,0.0214458,-0.0473337,0.908711,0.0406367,0.0434188,1595,1751,4.36763,-5.6581
378,-727,4.05322,6.18958,-0.0235033,0.00110655,0.039468,0.0301433,-0.0525401,0.936508,0.0483175,0.0442409,1602,1751,4.05317,-6.18963
385,-727,3.83765,6.75085,-0.0263276,0.00804468,0.0484117,0.0422303,-0.0605132,0.955959,0.0596312,0.0417873,1609,1751,3.83764,-6.75081
392,-727,0,0,0,0,0,0,0,0,0,-1,1616,1751,0,0
399,-727,0,0,0,0,0,0,0,0,0,-1,1623,1751,0,0
406,-727,0,0,0,0,0,0,0,0,0,-1,1630,1751,0,0
413,-727,0,0,0,0,0,0,0,0,0,-1,1637,1751,0,0
420,-727,0,0,0,0,0,0,0,0,0,-1,1644,1751,0,0
427,-727,0,0,0,0,0,0,0,0,0,-1,1651,1751,0,0
434,-727,0,0,0,0,0,0,0,0,0,-1,1658,1751,0,0
441,-727,0,0,0,0,0,0,0,0,0,-1,1665,1751,0,0
448,-727,0,0,0,0,0,0,0,0,0,-1,1672,1751,0,0
455,-727,0,0,0,0,0,0,0,0,0,-1,1679,1751,0,0
462,-727,0,0,0,0,0,0,0,0,0,-1,1686,1751,0,0
469,-727,0,0,0,0,0,0,0,0,0,-1,1693,1751,0,0
476,-727,0,0,0,0,0,0,0,0,0,-1,1700,1751,0,0
483,-727,0,0,0,0,0,0,0,0,0,-1,1707,1751,0,0
490,-727,0,0,0,0,0,0,0,0,0,-1,1714,1751,0,0
497,-727,0,0,0,0,0,0,0,0,0,-1,1721,1751,0,0
504,-727,0,0,0,0,0,0,0,0,0,-1,1728,1751,0,0
511,-727,0,0,0,0,0,0,0,0,0,-1,1735,1751,0,0
518,-727,0,0,0,0,0,0,0,0,0,-1,1742,1751,0,0
525,-727,0,0,0,0,0,0,0,0,0,-1,1749,1751,0,0
532,-727,0,0,0,0,0,0,0,0,0,-1,1756,1751,0,0
539,-727,0,0,0,0,0,0,0,0,0,-1,1763,1751,0,0
546,-727,0,0,0,0,0,0,0,0,0,-1,1770,1751,0,0
553,-727,0,0,0,0,0,0,0,0,0,-1,1777,1751,0,0
560,-727,0,0,0,0,0,0,0,0,0,-1,1784,1751,0,0
567,-727,0,0,0,0,0,0,0,0,0,-1,1791,1751,0,0
574,-727,0,0,0,0,0,0,0,0,0,-1,1798,1751,0,0
581,-727,0,0,0,0,0,0,0,0,0,-1,1805,1751,0,0
588,-727,0,0,0,0,0,0,0,0,0,-1,1812,1751,0,0
595,-727,0,0,0,0,0,0,0,0,0,-1,1819,1751,0,0
602,-727,0,0,0,0,0,0,0,0,0,-1,1826,1751,0,0
609,-727,0,0,0,0,0,0,0,0,0,-1,1833,1751,0,0
616,-727,0,0,0,0,0,0,0,0,0,-1,1840,1751,0,0
623,-727,0,0,0,0,0,0,0,0,0,-1,1847,1751,0,0
630,-727,0,0,0,0,0,0,0,0,0,-1,1854,1751,0,0
637,-727,0,0,0,0,0,0,0,0,0,-1,1861,1751,0,0
644,-727,0,0,0,0,0,0,0,0,0,-1,1868,1751,0,0
651,-727,0,0,0,0,0,0,0,0,0,-1,1875,1751,0,0
658,-727,0,0,0,0,0,0,0,0,0,-1,1882,1751,0,0
665,-727,0,0,0,0,0,0,0,0,0,-1,1889,1751,0,0
672,-727,0,0,0,0,0,0,0,0,0,-1,1896,1751,0,0
679,-727,0,0,0,0,0,0,0,0,0,-1,1903,1751,0,0
686,-727,0,0,0,0,0,0,0,0,0,-1,1910,1751,0,0
693,-727,0,0,0,0,0,0,0,0,0,-1,1917,1751,0,0
700,-727,0,0,0,0,0,0,0,0,0,-1,1924,1751,0,0
707,-727,0,0,0,0,0,0,0,0,0,-1,1931,1751,0,0
714,-727,0,0,0,0,0,0,0,0,0,-1,1938,1751,0,0
721,-727,0,0,0,0,0,0,0,0,0,-1,1945,1751,0,0
728,-727,0,0,0,0,0,0,0,0,0,-1,1952,1751,0,0
735,-727,0,0,0,0,0,0,0,0,0,-1,1959,1751,0,0
742,-727,0,0,0,0,0,0,0,0,0,-1,1966,1751,0,0
749,-727,0,0,0,0,0,0,0,0,0,-1,1973,1751,0,0
756,-727,0,0,0,0,0,0,0,0,0,-1,1980,1751,0,0
763,-727,0,0,0,0,0,0,0,0,0,-1,1987,1751,0,0
770,-727,0,0,0,0,0,0,0,0,0,-1,1994,1751,0,0
777,-727,0,0,0,0,0,0,0,0,0,-1,2001,1751,0,0
784,-727,0,0,0,0,0,0,0,0,0,-1,2008,1751,0,0
791,-727,0,0,0,0,0,0,0,0,0,-1,2015,1751,0,0
798,-727,0,0,0,0,0,0,0,0,0,-1,2022,1751,0,0
805,-727,0,0,0,0,0,0,0,0,0,-1,2029,1751,0,0
812,-727,0,0,0,0,0,0,0,0,0,-1,2036,1751,0,0
-700,-734,0,0,0,0,0,0,0,0,0,-1,524,1758,0,0
-693,-734,0,0,0,0,0,0,0,0,0,-1,531,1758,0,0
-686,-734,0,0,0,0,0,0,0,0,0,-1,538,1758,0,0
-679,-734,0,0,0,0,0,0,0,0,0,-1,545,1758,0,0
-672,-734,0,0,0,0,0,0,0,0,0,-1,552,1758,0,0
-665,-734,0,0,0,0,0,0,0,0,0,-1,559,1758,0,0
-658,-734,0,0,0,0,0,0,0,0,0,-1,566,1758,0,0
-651,-734,0,0,0,0,0,0,0,0,0,-1,573,1758,0,0
-644,-734,0,0,0,0,0,0,0,0,0,-1,580,1758,0,0
-637,-734,0,0,0,0,0,0,0,0,0,-1,587,1758,0,0
-630,-734,0,0,0,0,0,0,0,0,0,-1,594,1758,0,0
-623,-734,0,0,0,0,0,0,0,0,0,-1,601,1758,0,0
-616,-734,0,0,0,0,0,0,0,0,0,-1,608,1758,0,0
-609,-734,0,0,0,0,0,0,0,0,0,-1,615,1758,0,0
-602,-734,0,0,0,0,0,0,0,0,0,-1,622,1758,0,0
-595,-734,0,0,0,0,0,0,0,0,0,-1,629,1758,0,0
-588,-734,0,0,0,0,0,0,0,0,0,-1,636,1758,0,0
-581,-734,0,0,0,0,0,0,0,0,0,-1,643,1758,0,0
-574,-734,0,0,0,0,0,0,0,0,0,-1,650,1758,0,0
-567,-734,0,0,0,0,0,0,0,0,0,-1,657,1758,0,0
-560,-734,0,0,0,0,0,0,0,0,0,-1,664,1758,0,0
-553,-734,0,0,0,0,0,0,0,0,0,-1,671,1758,0,0
-546,-734,0,0,0,0,0,0,0,0,0,-1,678,1758,0,0
-539,-734,0,0,0,0,0,0,0,0,0,-1,685,1758,0,0
-532,-734,0,0,0,0,0,0,0,0,0,-1,692,1758,0,0
-525,-734,0,0,0,0,0,0,0,0,0,-1,699,1758,0,0
-518,-734,0,0,0,0,0,0,0,0,0,-1,706,1758,0,0
-511,-734,0,0,0,0,0,0,0,0,0,-1,713,1758,0,0
-504,-734,0,0,0,0,0,0,0,0,0,-1,720,1758,0,0
-497,-734,0,0,0,0,0,0,0,0,0,-1,727,1758,0,0
-490,-734,0,0,0,0,0,0,0,0,0,-1,734,1758,0,0
-483,-734,0,0,0,0,0,0,0,0,0,-1,741,1758,0,0
-476,-734,0,0,0,0,0,0,0,0,0,-1,748,1758,0,0
-469,-734,0,0,0,0,0,0,0,0,0,-1,755,1758,0,0
-462,-734,0,0,0,0,0,0,0,0,0,-1,762,1758,0,0
-455,-734,0,0,0,0,0,0,0,0,0,-1,769,1758,0,0
-448,-734,0,0,0,0,0,0,0,0,0,-1,776,1758,0,0
-441,-734,0,0,0,0,0,0,0,0,0,-1,783,1758,0,0
-434,-734,0,0,0,0,0,0,0,0,0,-1,790,1758,0,0
-427,-734,0,0,0,0,0,0,0,0,0,-1,797,1758,0,0
-420,-734,0,0,0,0,0,0,0,0,0,-1,804,1758,0,0
-413,-734,0,0,0,0,0,0,0,0,0,-1,811,1758,0,0
-406,-734,0,0,0,0,0,0,0,0,0,-1,818,1758,0,0
-399,-734,0,0,0,0,0,0,0,0,0,-1,825,1758,0,0
-392,-734,0,0,0,0,0,0,0,0,0,-1,832,1758,0,0
-385,-734,0,0,0,0,0,0,0,0,0,-1,839,1758,0,0
-378,-734,0,0,0,0,0,0,0,0,0,-1,846,1758,0,0
-371,-734,0,0,0,0,0,0,0,0,0,-1,853,1758,0,0
-364,-734,0,0,0,0,0,0,0,0,0,-1,860,1758,0,0
-357,-734,0,0,0,0,0,0,0,0,0,-1,867,1758,0,0
-350,-734,0,0,0,0,0,0,0,0,0,-1,874,1758,0,0
-343,-734,0,0,0,0,0,0,0,0,0,-1,881,1758,0,0
-336,-734,0,0,0,0,0,0,0,0,0,-1,888,1758,0,0
-329,-734,0,0,0,0,0,0,0,0,0,-1,895,1758,0,0
-322,-734,0,0,0,0,0,0,0,0,0,-1,902,1758,0,0
-315,-734,0,0,0,0,0,0,0,0,0,-1,909,1758,0,0
-308,-734,0,0,0,0,0,0,0,0,0,-1,916,1758,0,0
-301,-734,0,0,0,0,0,0,0,0,0,-1,923,1758,0,0
-294,-734,0,0,0,0,0,0,0,0,0,-1,930,1758,0,0
-287,-734,0,0,0,0,0,0,0,0,0,-1,937,1758,0,0
-280,-734,0,0,0,0,0,0,0,0,0,-1,944,1758,0,0
-273,-734,0,0,0,0,0,0,0,0,0,-1,951,1758,0,0
-266,-734,0,0,0,0,0,0,0,0,0,-1,958,1758,0,0
-259,-734,0,0,0,0,0,0,0,0,0,-1,965,1758,0,0
-252,-734,-0.82782,4.55457,0,0,0,0,0,0,0,-1,972,1758,-0.827821,-4.55455
-245,-734,-1.14117,4.76892,0,0,0,0,0,0,0,-1,979,1758,-1.1412,-4.76889
-238,-734,4.79346,4.72571,0,0,0,0,0,0,0,-1,986,1758,4.79348,-4.72568
-231,-734,4.42914,5.3822,0.00802314,0.00962499,0.0107688,0.0196226,-0.00197444,0.822517,0.0137871,0.0483761,993,1758,4.42912,-5.38225
-224,-734,4.21832,5.67358,0.00319013,0.00128757,0.0133105,0.0155833,-0.0111056,0.749725,0.015481,0.0446581,1000,1758,4.21831,-5.67362
-217,-734,4.55737,6.56189,0.00039296,-0.00406804,0.0113461,0.00972571,-0.0134008,0.688342,0.0134082,0.0453363,1007,1758,4.55735,-6.56185
-210,-734,4.96832,7.59644,0,0,0,0,0,0,0,-1,1014,1758,4.96831,-7.59647
-203,-734,3.50696,6.48022,0,0,0,0,0,0,0,-1,1021,1758,3.50695,-6.48017
-196,-734,3.7002,6.79663,0,0,0,0,0,0,0,-1,1028,1758,3.70021,-6.79669
-189,-734,4.74268,6.29602,0,0,0,0,0,0,0,-1,1035,1758,4.74271,-6.29605
-182,-734,3.44104,6.37341,0,0,0,0,0,0,0,-1,1042,1758,3.44104,-6.37337
-175,-734,2.70129,6.18152,0,0,0,0,0,0,0,-1,1049,1758,2.70125,-6.18154
-168,-734,2.65527,6.4668,0.00915036,-0.00823546,-0.0108334,0.0143473,-0.0134324,-0.447291,0.0160415,0.0476698,1056,1758,2.65521,-6.4668
-161,-734,3.24866,6.21838,0.00883463,-0.00753735,-0.0109822,0.014346,-0.0130488,-0.465126,0.0158223,0.0468667,1063,1758,3.2487,-6.21835
-154,-734,2.88635,5.87793,0.00840818,-0.00494691,-0.00882832,0.0127999,-0.00933864,-0.461613,0.0128337,0.0491802,1070,1758,2.8863,-5.87793
-147,-734,3.24463,6.5741,0.00805238,-0.00311506,-0.00664952,0.0111516,-0.00621431,-0.436151,0.0101604,0.0481211,1077,1758,3.24458,-6.57405
-140,-734,3.2168,6.48743,0.00652722,-0.00145296,-0.0047792,0.00876301,-0.00368875,-0.437571,0.00738533,0.0390462,1084,1758,3.21675,-6.48747
-133,-734,3.22034,6.51465,0.00609336,0.000135103,-0.00252733,0.00702097,-0.000792505,-0.351766,0.00496594,0.0318637,1091,1758,3.22035,-6.51466
-126,-734,3.1344,6.53308,0.0051012,0.00184487,-0.00165935,0.00579776,0.0011483,-0.397442,0.00354495,0.0304619,1098,1758,3.13444,-6.53308
-119,-734,3.12964,6.60168,0.00285556,0.00340848,-0.000679239,0.00386537,0.00239867,-0.978668,0.00225319,0.0339997,1105,1758,3.12963,-6.60171
-112,-734,3.08606,6.62415,0.00128429,0.00475591,-0.000545887,0.00483973,0.00120047,-1.41845,0.00291007,0.0283589,1112,1758,3.08611,-6.62418
-105,-734,3.12097,6.64807,7.95645e-05,0.00531468,-0.00179564,0.00587138,-0.000477136,-1.27016,0.0040826,0.0202799,1119,1758,3.12091,-6.64805
-98,-734,3.14441,6.70483,-0.0009148,0.00520884,-0.00289022,0.0063575,-0.00206346,-1.19251,0.00506816,0.0144665,1126,1758,3.14438,-6.70482
-91,-734,3.16138,6.74109,-0.00233375,0.00581836,-0.00390115,0.00738439,-0.00389978,-1.18906,0.00661766,0.0144081,1133,1758,3.16135,-6.74106
-84,-734,3.1405,6.77979,-0.00295943,0.00592523,-0.00456256,0.00785088,-0.00488509,-1.17142,0.00741928,0.0112086,1140,1758,3.14056,-6.77984
-77,-734,3.14172,6.82996,-0.00341104,0.00584285,-0.00505126,0.008066,-0.00563419,-1.15619,0.00795124,0.0107834,1147,1758,3.14174,-6.83
-70,-734,3.12903,6.84424,-0.00380473,0.0055876,-0.00535054,0.00801058,-0.00622772,-1.14558,0.00824194,0.0101937,1154,1758,3.12909,-6.84418
-63,-734,3.12463,6.8855,-0.00366507,0.00477766,-0.00522525,0.00727367,-0.00616108,-1.12516,0.00776542,0.0101838,1161,1758,3.12466,-6.88551
-56,-734,3.12085,6.922,-0.00338034,0.00460205,-0.00467345,0.00675665,-0.00553494,-1.13881,0.00710823,0.0109824,1168,1758,3.12084,-6.92205
-49,-734,3.10828,6.94092,-0.00327556,0.00468028,-0.00386029,0.00624544,-0.00484072,-1.1856,0.0064177,0.011782,1175,1758,3.10823,-6.9409
-42,-734,3.09521,6.9657,-0.0025186,0.00485783,-0.00291318,0.00586956,-0.00353033,-1.23653,0.00548276,0.0129974,1182,1758,3.09516,-6.96571
-35,-734,3.0946,6.97253,-0.000892948,0.00460644,-0.00180191,0.00514426,-0.00143076,-1.28075,0.00399281,0.0129118,1189,1758,3.09464,-6.97248
-28,-734,3.11182,7.00012,8.40312e-05,0.00431991,-0.00108195,0.00458026,-0.000176322,-1.33465,0.00311395,0.00956184,1196,1758,3.11177,-7.00016
-21,-734,3.13525,7.04175,0.0010036,0.00378371,-8.15296e-05,0.00378609,0.00100121,-1.5415,0.00226532,0.0149302,1203,1758,3.13523,-7.0418
-14,-734,3.12024,7.09766,0.00168668,0.00316008,0.000619051,0.00338564,0.00146112,1.22138,0.0019608,0.0146099,1210,1758,3.12027,-7.0976
-7,-734,3.13098,7.09827,0.00257849,0.00234558,0.000373246,0.00285303,0.00207104,0.634184,0.00170232,0.0172535,1217,1758,3.131,-7.09822
0,-734,3.12537,7.10852,0.00347362,0.00121018,8.59592e-05,0.00347688,0.00120692,0.0379044,0.00203841,0.0173158,1224,1758,3.12532,-7.10855
7,-734,3.104,7.1239,0.00384255,0.000169458,-0.00025075,0.00385958,0.000152419,-0.0678474,0.00252378,0.013098,1231,1758,3.10406,-7.1239
14,-734,3.1051,7.14075,0.00413103,-0.000795946,-0.00059026,0.00420076,-0.000865673,-0.117585,0.00312924,0.0134196,1238,1758,3.1051,-7.14073
21,-734,3.08704,7.16394,0.00437764,-0.00159311,-0.000818502,0.00448781,-0.00170328,-0.133798,0.00369297,0.01158,1245,1758,3.08699,-7.16399
28,-734,3.09058,7.16919,0.00463149,-0.00224952,-0.00113142,0.00481275,-0.00243078,-0.158856,0.00425676,0.0112787,1252,1758,3.09059,-7.16921
35,-734,3.09814,7.18408,0.00458499,-0.00249617,-0.00121832,0.00478874,-0.00269992,-0.165706,0.00437929,0.0130779,1259,1758,3.09811,-7.18408
42,-734,3.11035,7.17322,0.00429257,-0.00279244,-0.00112135,0.00446581,-0.00296568,-0.153282,0.00431961,0.0109975,1266,1758,3.11032,-7.17325
49,-734,3.1001,7.17029,0.00392007,-0.00316363,-0.000867082,0.00402466,-0.00326822,-0.120044,0.00421809,0.00963876,1273,1758,3.10009,-7.17025
56,-734,3.09998,7.19836,0.00349183,-0.00349607,-0.000637038,0.00354943,-0.00355367,-0.0901725,0.00410098,0.00905038,1280,1758,3.10001,-7.19832
63,-734,3.10278,7.19873,0.00279648,-0.00365726,-0.000320986,0.00281241,-0.00367318,-0.0495733,0.00375543,0.0112267,1287,1758,3.10275,-7.19872
70,-734,3.08215,7.20618,0.00198902,-0.00357822,2.85885e-05,0.00198917,-0.00357837,0.00513494,0.00325778,0.0126316,1294,1758,3.08212,-7.20617
77,-734,3.10095,7.23157,0.0015171,-0.00368354,0.000335333,0.00153863,-0.00370507,0.0641254,0.00311239,0.0174891,1301,1758,3.1009,-7.23155
84,-734,3.08008,7.2146,0.00116436,-0.00389789,0.000550603,0.00122355,-0.00395708,0.107098,0.00312675,0.0158862,1308,1758,3.08013,-7.21457
91,-734,3.09399,7.18787,0.00090798,-0.00405718,0.000772096,0.00102527,-0.00417447,0.150761,0.00318031,0.0168529,1315,1758,3.09394,-7.18791
98,-734,3.11328,7.19226,0.000378544,-0.00429515,0.00112399,0.000634806,-0.00455141,0.224161,0.0032665,0.0121738,1322,1758,3.11327,-7.19226
105,-734,3.10217,7.20129,3.77636e-05,-0.00431811,0.0011076,0.000303224,-0.00458357,0.235234,0.00316164,0.0127089,1329,1758,3.10222,-7.20132
112,-734,3.1062,7.19592,0.000407956,-0.00448809,0.000912539,0.000572508,-0.00465264,0.178405,0.00330915,0.0116314,1336,1758,3.10623,-7.19595
119,-734,3.10645,7.16479,0.000940016,-0.00445513,0.000569904,0.00099956,-0.00451468,0.104102,0.00339242,0.0122009,1343,1758,3.10644,-7.16476
126,-734,3.1001,7.15063,0.00155092,-0.00478608,0.00108557,0.00173173,-0.00496689,0.16504,0.00401498,0.014932,1350,1758,3.1001,-7.15065
133,-734,3.08582,7.12964,0.00206747,-0.00537571,0.00231278,0.00272756,-0.0060358,0.278021,0.00517831,0.0134751,1357,1758,3.08577,-7.12964
140,-734,3.10498,7.11279,0.00263549,-0.00650257,0.00408838,0.0041976,-0.00806468,0.364968,0.00719602,0.0177263,1364,1758,3.10494,-7.11274
147,-734,3.10999,7.11719,0.00307786,-0.00693019,0.00516117,0.00526257,-0.00911491,0.400428,0.00839958,0.013377,1371,1758,3.11001,-7.11715
154,-734,3.08777,7.11133,0.00338854,-0.0074604,0.00676216,0.00663307,-0.0107049,0.447364,0.0101017,0.00936189,1378,1758,3.08781,-7.11133
161,-734,3.08179,7.09534,0.00358451,-0.00804055,0.00855677,0.00811624,-0.0125723,0.487053,0.0120365,0.00857541,1385,1758,3.08178,-7.09528
168,-734,3.06274,7.07642,0.00373964,-0.00862464,0.0101171,0.00941392,-0.0142989,0.511143,0.0137871,0.0134473,1392,1758,3.06274,-7.07646
175,-734,3.09485,7.04529,0.00427286,-0.00941242,0.0108746,0.0102785,-0.0154181,0.504579,0.0149345,0.0158202,1399,1758,3.09486,-7.04529
182,-734,3.1123,7.01025,0.00494197,-0.00953341,0.0111551,0.0110017,-0.0155931,0.497625,0.0154306,0.0147681,1406,1758,3.11229,-7.01024
189,-734,3.09204,7.00806,0.00559505,-0.00934501,0.0103512,0.0108902,-0.0146401,0.472841,0.0147928,0.0115073,1413,1758,3.09207,-7.00808
196,-734,3.08142,7.00696,0.00596621,-0.00896085,0.00909033,0.0102644,-0.0132591,0.441678,0.0136179,0.0119284,1420,1758,3.0814,-7.00693
203,-734,3.09546,6.96106,0.0068228,-0.00817745,0.00786466,0.0101903,-0.0115449,0.40456,0.012557,0.0110155,1427,1758,3.09545,-6.96103
210,-734,3.08911,6.91589,0.00798625,-0.00729512,0.00610678,0.0101268,-0.00943569,0.33714,0.0112968,0.0110853,1434,1758,3.08905,-6.91594
217,-734,3.06726,6.89136,0.00783465,-0.00706499,0.00460301,0.00914197,-0.00837231,0.276727,0.0101151,0.00960598,1441,1758,3.06729,-6.89137
224,-734,3.05566,6.86707,0.00645264,-0.00748339,0.00368416,0.00736664,-0.00839739,0.243181,0.00910786,0.0111167,1448,1758,3.05567,-6.86705
231,-734,3.05627,6.83569,0.005641,-0.00733563,0.00219845,0.00600334,-0.00769797,0.163346,0.0079306,0.0123793,1455,1758,3.05626,-6.83567
238,-734,3.09387,6.77271,0.00279114,-0.00821689,0.00190691,0.00311211,-0.00853786,0.166758,0.00696503,0.0147895,1462,1758,3.09382,-6.77268
245,-734,3.07275,6.71179,-0.00138839,-0.00980193,0.0026057,-0.000646765,-0.0105435,0.277283,0.00682367,0.0212384,1469,1758,3.07281,-6.71185
252,-734,3.03821,6.68152,-0.00922456,-0.012395,0.00533547,-0.0052438,-0.0163758,0.640997,0.00965613,0.0271247,1476,1758,3.03823,-6.68153
259,-734,3.1438,6.75818,-0.0185712,-0.0152063,0.00771367,-0.00899374,-0.0247838,0.892774,0.0144871,0.0338349,1483,1758,3.14376,-6.75813
266,-734,3.28101,6.89624,-0.028619,-0.0173103,0.0101627,-0.0113349,-0.0345945,1.03926,0.0203648,0.0394061,1490,1758,3.28102,-6.89629
273,-734,3.53723,6.6759,-0.0374934,-0.0198144,0.0130351,-0.0129042,-0.0444035,1.08335,0.0263751,0.0442078,1497,1758,3.53718,-6.67589
280,-734,2.84961,6.70886,0,0,0,0,0,0,0,-1,1504,1758,2.84958,-6.70886
287,-734,2.87,6.63538,0,0,0,0,0,0,0,-1,1511,1758,2.86998,-6.63541
294,-734,3.12854,6.41345,0,0,0,0,0,0,0,-1,1518,1758,3.12856,-6.41347
301,-734,9.58093,7.22449,0,0,0,0,0,0,0,-1,1525,1758,9.58094,-7.22453
308,-734,2.85022,5.82703,0,0,0,0,0,0,0,-1,1532,1758,2.85019,-5.827
315,-734,3.76001,5.48523,0,0,0,0,0,0,0,-1,1539,1758,3.76004,-5.48527
322,-734,3.64941,6.51062,-0.0712588,-0.0277504,0.0269214,-0.0148924,-0.0841168,1.12522,0.0518319,0.0410109,1546,1758,3.64947,-6.51063
329,-734,3.50061,7.5304,-0.0676892,-0.0260371,0.0272715,-0.0125491,-0.0811773,1.11149,0.050458,0.0409847,1553,1758,3.50062,-7.53042
336,-734,3.32153,8.74341,0,0,0,0,0,0,0,-1,1560,1758,3.32159,-8.74341
343,-734,5.54968,5.14221,0,0,0,0,0,0,0,-1,1567,1758,5.54973,-5.14225
350,-734,5.07983,4.96301,-0.0550824,-0.021538,0.0317896,-0.00236735,-0.0742531,1.02814,0.0487321,0.0465688,1574,1758,5.0798,-4.96301
357,-734,4.44861,4.87891,-0.0480261,-0.0195685,0.0336686,0.00275446,-0.0703491,0.985322,0.047844,0.0452797,1581,1758,4.4486,-4.87896
364,-734,3.85803,5.07251,-0.0419098,-0.0165108,0.0366508,0.00957833,-0.0679989,0.952175,0.0488395,0.0426941,1588,1758,3.85797,-5.07248
371,-734,3.4458,5.63818,-0.0392582,-0.0138487,0.0407265,0.0161087,-0.0692156,0.936592,0.0523461,0.0446362,1595,1758,3.44577,-5.63817
378,-734,0,0,0,0,0,0,0,0,0,-1,1602,1758,0,0
385,-734,0,0,0,0,0,0,0,0,0,-1,1609,1758,0,0
392,-734,0,0,0,0,0,0,0,0,0,-1,1616,1758,0,0
399,-734,0,0,0,0,0,0,0,0,0,-1,1623,1758,0,0
406,-734,0,0,0,0,0,0,0,0,0,-1,1630,1758,0,0
413,-734,0,0,0,0,0,0,0,0,0,-1,1637,1758,0,0
420,-734,0,0,0,0,0,0,0,0,0,-1,1644,1758,0,0
427,-734,0,0,0,0,0,0,0,0,0,-1,1651,1758,0,0
434,-734,0,0,0,0,0,0,0,0,0,-1,1658,1758,0,0
441,-734,0,0,0,0,0,0,0,0,0,-1,1665,1758,0,0
448,-734,0,0,0,0,0,0,0,0,0,-1,1672,1758,0,0
455,-734,0,0,0,0,0,0,0,0,0,-1,1679,1758,0,0
462,-734,0,0,0,0,0,0,0,0,0,-1,1686,1758,0,0
469,-734,0,0,0,0,0,0,0,0,0,-1,1693,1758,0,0
476,-734,0,0,0,0,0,0,0,0,0,-1,1700,1758,0,0
483,-734,0,0,0,0,0,0,0,0,0,-1,1707,1758,0,0
490,-734,0,0,0,0,0,0,0,0,0,-1,1714,1758,0,0
497,-734,0,0,0,0,0,0,0,0,0,-1,1721,1758,0,0
504,-734,0,0,0,0,0,0,0,0,0,-1,1728,1758,0,0
511,-734,0,0,0,0,0,0,0,0,0,-1,1735,1758,0,0
518,-734,0,0,0,0,0,0,0,0,0,-1,1742,1758,0,0
525,-734,0,0,0,0,0,0,0,0,0,-1,1749,1758,0,0
532,-734,0,0,0,0,0,0,0,0,0,-1,1756,1758,0,0
539,-734,0,0,0,0,0,0,0,0,0,-1,1763,1758,0,0
546,-734,0,0,0,0,0,0,0,0,0,-1,1770,1758,0,0
553,-734,0,0,0,0,0,0,0,0,0,-1,1777,1758,0,0
560,-734,0,0,0,0,0,0,0,0,0,-1,1784,1758,0,0
567,-734,0,0,0,0,0,0,0,0,0,-1,1791,1758,0,0
574,-734,0,0,0,0,0,0,0,0,0,-1,1798,1758,0,0
581,-734,0,0,0,0,0,0,0,0,0,-1,1805,1758,0,0
588,-734,0,0,0,0,0,0,0,0,0,-1,1812,1758,0,0
595,-734,0,0,0,0,0,0,0,0,0,-1,1819,1758,0,0
602,-734,0,0,0,0,0,0,0,0,0,-1,1826,1758,0,0
609,-734,0,0,0,0,0,0,0,0,0,-1,1833,1758,0,0
616,-734,0,0,0,0,0,0,0,0,0,-1,1840,1758,0,0
623,-734,0,0,0,0,0,0,0,0,0,-1,1847,1758,0,0
630,-734,0,0,0,0,0,0,0,0,0,-1,1854,1758,0,0
637,-734,0,0,0,0,0,0,0,0,0,-1,1861,1758,0,0
644,-734,0,0,0,0,0,0,0,0,0,-1,1868,1758,0,0
651,-734,0,0,0,0,0,0,0,0,0,-1,1875,1758,0,0
658,-734,0,0,0,0,0,0,0,0,0,-1,1882,1758,0,0
665,-734,0,0,0,0,0,0,0,0,0,-1,1889,1758,0,0
672,-734,0,0,0,0,0,0,0,0,0,-1,1896,1758,0,0
679,-734,0,0,0,0,0,0,0,0,0,-1,1903,1758,0,0
686,-734,0,0,0,0,0,0,0,0,0,-1,1910,1758,0,0
693,-734,0,0,0,0,0,0,0,0,0,-1,1917,1758,0,0
700,-734,0,0,0,0,0,0,0,0,0,-1,1924,1758,0,0
707,-734,0,0,0,0,0,0,0,0,0,-1,1931,1758,0,0
714,-734,0,0,0,0,0,0,0,0,0,-1,1938,1758,0,0
721,-734,0,0,0,0,0,0,0,0,0,-1,1945,1758,0,0
728,-734,0,0,0,0,0,0,0,0,0,-1,1952,1758,0,0
735,-734,0,0,0,0,0,0,0,0,0,-1,1959,1758,0,0
742,-734,0,0,0,0,0,0,0,0,0,-1,1966,1758,0,0
749,-734,0,0,0,0,0,0,0,0,0,-1,1973,1758,0,0
756,-734,0,0,0,0,0,0,0,0,0,-1,1980,1758,0,0
763,-734,0,0,0,0,0,0,0,0,0,-1,1987,1758,0,0
770,-734,0,0,0,0,0,0,0,0,0,-1,1994,1758,0,0
777,-734,0,0,0,0,0,0,0,0,0,-1,2001,1758,0,0
784,-734,0,0,0,0,0,0,0,0,0,-1,2008,1758,0,0
791,-734,0,0,0,0,0,0,0,0,0,-1,2015,1758,0,0
798,-734,0,0,0,0,0,0,0,0,0,-1,2022,1758,0,0
805,-734,0,0,0,0,0,0,0,0,0,-1,2029,1758,0,0
812,-734,0,0,0,0,0,0,0,0,0,-1,2036,1758,0,0
-700,-741,0,0,0,0,0,0,0,0,0,-1,524,1765,0,0
-693,-741,0,0,0,0,0,0,0,0,0,-1,531,1765,0,0
-686,-741,0,0,0,0,0,0,0,0,0,-1,538,1765,0,0
-679,-741,0,0,0,0,0,0,0,0,0,-1,545,1765,0,0
-672,-741,0,0,0,0,0,0,0,0,0,-1,552,1765,0,0
-665,-741,0,0,0,0,0,0,0,0,0,-1,559,1765,0,0
-658,-741,0,0,0,0,0,0,0,0,0,-1,566,1765,0,0
-651,-741,0,0,0,0,0,0,0,0,0,-1,573,1765,0,0
-644,-741,0,0,0,0,0,0,0,0,0,-1,580,1765,0,0
-637,-741,0,0,0,0,0,0,0,0,0,-1,587,1765,0,0
-630,-741,0,0,0,0,0,0,0,0,0,-1,594,1765,0,0
-623,-741,0,0,0,0,0,0,0,0,0,-1,601,1765,0,0
-616,-741,0,0,0,0,0,0,0,0,0,-1,608,1765,0,0
-609,-741,0,0,0,0,0,0,0,0,0,-1,615,1765,0,0
-602,-741,0,0,0,0,0,0,0,0,0,-1,622,1765,0,0
-595,-741,0,0,0,0,0,0,0,0,0,-1,629,1765,0,0
-588,-741,0,0,0,0,0,0,0,0,0,-1,636,1765,0,0
-581,-741,0,0,0,0,0,0,0,0,0,-1,643,1765,0,0
-574,-741,0,0,0,0,0,0,0,0,0,-1,650,1765,0,0
-567,-741,0,0,0,0,0,0,0,0,0,-1,657,1765,0,0
-560,-741,0,0,0,0,0,0,0,0,0,-1,664,1765,0,0
-553,-741,0,0,0,0,0,0,0,0,0,-1,671,1765,0,0
-546,-741,0,0,0,0,0,0,0,0,0,-1,678,1765,0,0
-539,-741,0,0,0,0,0,0,0,0,0,-1,685,1765,0,0
-532,-741,0,0,0,0,0,0,0,0,0,-1,692,1765,0,0
-525,-741,0,0,0,0,0,0,0,0,0,-1,699,1765,0,0
-518,-741,0,0,0,0,0,0,0,0,0,-1,706,1765,0,0
-511,-741,0,0,0,0,0,0,0,0,0,-1,713,1765,0,0
-504,-741,0,0,0,0,0,0,0,0,0,-1,720,1765,0,0
-497,-741,0,0,0,0,0,0,0,0,0,-1,727,1765,0,0
-490,-741,0,0,0,0,0,0,0,0,0,-1,734,1765,0,0
-483,-741,0,0,0,0,0,0,0,0,0,-1,741,1765,0,0
-476,-741,0,0,0,0,0,0,0,0,0,-1,748,1765,0,0
-469,-741,0,0,0,0,0,0,0,0,0,-1,755,1765,0,0
-462,-741,0,0,0,0,0,0,0,0,0,-1,762,1765,0,0
-455,-741,0,0,0,0,0,0,0,0,0,-1,769,1765,0,0
-448,-741,0,0,0,0,0,0,0,0,0,-1,776,1765,0,0
-441,-741,0,0,0,0,0,0,0,0,0,-1,783,1765,0,0
-434,-741,0,0,0,0,0,0,0,0,0,-1,790,1765,0,0
-427,-741,0,0,0,0,0,0,0,0,0,-1,797,1765,0,0
-420,-741,0,0,0,0,0,0,0,0,0,-1,804,1765,0,0
-413,-741,0,0,0,0,0,0,0,0,0,-1,811,1765,0,0
-406,-741,0,0,0,0,0,0,0,0,0,-1,818,1765,0,0
-399,-741,0,0,0,0,0,0,0,0,0,-1,825,1765,0,0
-392,-741,0,0,0,0,0,0,0,0,0,-1,832,1765,0,0
-385,-741,0,0,0,0,0,0,0,0,0,-1,839,1765,0,0
-378,-741,0,0,0,0,0,0,0,0,0,-1,846,1765,0,0
-371,-741,0,0,0,0,0,0,0,0,0,-1,853,1765,0,0
-364,-741,0,0,0,0,0,0,0,0,0,-1,860,1765,0,0
-357,-741,0,0,0,0,0,0,0,0,0,-1,867,1765,0,0
-350,-741,0,0,0,0,0,0,0,0,0,-1,874,1765,0,0
-343,-741,0,0,0,0,0,0,0,0,0,-1,881,1765,0,0
-336,-741,0,0,0,0,0,0,0,0,0,-1,888,1765,0,0
-329,-741,0,0,0,0,0,0,0,0,0,-1,895,1765,0,0
-322,-741,0,0,0,0,0,0,0,0,0,-1,902,1765,0,0
-315,-741,0,0,0,0,0,0,0,0,0,-1,909,1765,0,0
-308,-741,0,0,0,0,0,0,0,0,0,-1,916,1765,0,0
-301,-741,0,0,0,0,0,0,0,0,0,-1,923,1765,0,0
-294,-741,0,0,0,0,0,0,0,0,0,-1,930,1765,0,0
-287,-741,0,0,0,0,0,0,0,0,0,-1,937,1765,0,0
-280,-741,0,0,0,0,0,0,0,0,0,-1,944,1765,0,0
-273,-741,0,0,0,0,0,0,0,0,0,-1,951,1765,0,0
-266,-741,0,0,0,0,0,0,0,0,0,-1,958,1765,0,0
-259,-741,0,0,0,0,0,0,0,0,0,-1,965,1765,0,0
-252,-741,0,0,0,0,0,0,0,0,0,-1,972,1765,0,0
-245,-741,0,0,0,0,0,0,0,0,0,-1,979,1765,0,0
-238,-741,4.58789,4.97205,0,0,0,0,0,0,0,-1,986,1765,4.58791,-4.97205
-231,-741,4.09045,5.37292,0.0113583,0.0130452,0.0230386,0.0352557,-0.0108523,0.803694,0.0278356,0.0437177,993,1765,4.09046,-5.37294
-224,-741,3.58344,5.8374,0.00717664,0.00367138,0.0234793,0.0289687,-0.0181206,0.748144,0.0274264,0.0399585,1000,1765,3.58342,-5.83741
-217,-741,3.22125,6.27539,0.00514938,-0.00243056,0.0186389,0.0203798,-0.0176609,0.685098,0.0219815,0.0384742,1007,1765,3.22124,-6.27541
-210,-741,3.1485,6.31006,0.00640676,-0.0060224,0.0109457,0.0127791,-0.0123947,0.527209,0.0145347,0.0448828,1014,1765,3.14852,-6.31004
-203,-741,3.57886,6.68408,0.00842622,-0.00825198,0.00352056,0.00913891,-0.00896467,0.199738,0.0104523,0.0435661,1021,1765,3.5789,-6.68414
-196,-741,3.93665,7.08789,0.0114449,-0.00950955,-0.00234826,0.0117048,-0.00976948,-0.110243,0.012415,0.0436616,1028,1765,3.9366,-7.08792
-189,-741,4.21533,7.41772,0,0,0,0,0,0,0,-1,1035,1765,4.21528,-7.41767
-182,-741,2.24683,9.06763,0,0,0,0,0,0,0,-1,1042,1765,2.24687,-9.06757
-175,-741,2.13196,8.10388,0.0162158,-0.010848,-0.0128258,0.0213282,-0.0159605,-0.379308,0.0216029,0.0437781,1049,1765,2.13197,-8.10388
-168,-741,2.55872,6.91309,0.0160092,-0.0100172,-0.0137664,0.0219395,-0.0159475,-0.406758,0.021965,0.0430645,1056,1765,2.55877,-6.91306
-161,-741,2.44714,6.23364,0.015137,-0.00948844,-0.0140863,0.0215333,-0.0158848,-0.426241,0.0216852,0.0420548,1063,1765,2.44719,-6.23367
-154,-741,3.1217,5.8606,0,0,0,0,0,0,0,-1,1070,1765,3.12173,-5.86054
-147,-741,3.27209,6.67908,0,0,0,0,0,0,0,-1,1077,1765,3.27209,-6.67906
-140,-741,3.27832,6.56287,0,0,0,0,0,0,0,-1,1084,1765,3.27829,-6.56288
-133,-741,3.35669,6.57373,0.00970565,0.000561115,-0.00366393,0.0109926,-0.000725801,-0.337778,0.0075819,0.0427107,1091,1765,3.35672,-6.57376
-126,-741,3.22278,6.60889,0.00744376,0.00335134,-0.00314768,0.00915186,0.00164324,-0.497186,0.00563395,0.0429806,1098,1765,3.22274,-6.60886
-119,-741,3.16284,6.5415,0.00364494,0.00555014,-0.00261978,0.00738513,0.00180994,-0.959776,0.00444469,0.0463942,1105,1765,3.16288,-6.5415
-112,-741,3.03479,6.74927,0,0,0,0,0,0,0,-1,1112,1765,3.03475,-6.74932
-105,-741,3.34497,6.54309,-0.00134768,0.00808833,-0.0058122,0.0108564,-0.00411574,-1.12633,0.00893141,0.0333084,1119,1765,3.34501,-6.54303
-98,-741,3.15503,6.64233,-0.0032196,0.00788549,-0.0078726,0.0119667,-0.00730077,-1.09254,0.0112323,0.0293431,1126,1765,3.15501,-6.64234
-91,-741,3.07495,6.68323,-0.00560993,0.0085213,-0.0098174,0.0135513,-0.0106399,-1.09731,0.0140005,0.033741,1133,1765,3.07498,-6.68326
-84,-741,2.96265,6.81995,-0.00690014,0.00854827,-0.0111854,0.0144173,-0.0127691,-1.08758,0.0157057,0.0357985,1140,1765,2.96268,-6.81998
-77,-741,3.09253,6.82361,-0.007869,0.00837088,-0.0121936,0.0149007,-0.0143989,-1.07914,0.016917,0.0341733,1147,1765,3.09255,-6.82365
-70,-741,3.18237,6.81335,-0.00862779,0.00799145,-0.0128173,0.0149571,-0.0155934,-1.07299,0.0176396,0.0336245,1154,1765,3.18232,-6.81338
-63,-741,3.14087,6.82275,-0.00847921,0.00713583,-0.0123825,0.0139667,-0.0153101,-1.06668,0.0169089,0.0315432,1161,1765,3.14091,-6.82273
-56,-741,2.95264,6.81799,-0.00799931,0.00722403,-0.0111515,0.013114,-0.0138893,-1.08486,0.0155925,0.0370079,1168,1765,2.95269,-6.81801
-49,-741,3.00513,6.7655,-0.00770306,0.00795146,-0.00954857,0.0124709,-0.0122225,-1.12873,0.014257,0.0372027,1175,1765,3.00513,-6.76555
-42,-741,3.07837,6.87048,-0.00614062,0.00860105,-0.00743645,0.0117006,-0.00924022,-1.17588,0.012118,0.0282909,1182,1765,3.07834,-6.87054
-35,-741,3.14209,6.99744,-0.00337827,0.0086583,-0.00475646,0.010311,-0.00503094,-1.23639,0.00903083,0.0118002,1189,1765,3.14212,-6.99738
-28,-741,3.1488,7.01648,-0.00165576,0.00871446,-0.00277679,0.00941118,-0.00235248,-1.32496,0.00718777,0.0121724,1196,1765,3.14878,-7.01647
-21,-741,3.16431,7.04468,0.000161278,0.00848362,-0.00037132,0.00850015,0.000144744,-1.5263,0.00561914,0.0172472,1203,1765,3.1643,-7.04473
-14,-741,3.14246,7.08508,0.00161292,0.00818137,0.00151574,0.00851427,0.00128002,1.3546,0.00530127,0.0164264,1210,1765,3.1424,-7.08509
-7,-741,3.15601,7.09778,0.00329536,0.0074832,0.00177341,0.00813328,0.00264529,1.21944,0.0047904,0.0146929,1217,1765,3.15606,-7.09779
0,-741,3.14282,7.08643,0.00488685,0.00590453,0.00173156,0.00720047,0.00359091,0.928306,0.0041572,0.0154812,1224,1765,3.14287,-7.08638
7,-741,3.13184,7.07666,0.0055687,0.00456948,0.0013705,0.00652781,0.00361037,0.61061,0.00377591,0.0175877,1231,1765,3.13189,-7.0767
14,-741,3.12646,7.13599,0.0061066,0.00318051,0.000970897,0.00639944,0.00288766,0.292943,0.00370057,0.0164785,1238,1765,3.12649,-7.13598
21,-741,3.11206,7.15308,0.00663215,0.00188496,0.000652881,0.00672031,0.00179681,0.134211,0.00401751,0.0127114,1245,1765,3.11205,-7.15312
28,-741,3.07288,7.18726,0.00715129,0.000693281,0.000215633,0.00715848,0.000686089,0.0333406,0.00456086,0.0135165,1252,1765,3.07286,-7.18722
35,-741,3.08716,7.19153,0.00719995,1.39673e-05,5.27082e-05,0.00720034,1.35808e-05,0.00733434,0.00479571,0.0145252,1259,1765,3.08716,-7.19151
42,-741,3.1145,7.19458,0.00692314,-0.000766391,0.000135956,0.00692554,-0.000768794,0.0176733,0.00489346,0.0134819,1266,1765,3.11445,-7.19453
49,-741,3.1189,7.1936,0.00642886,-0.00174063,0.00058846,0.00647104,-0.0017828,0.0715392,0.00501506,0.00949726,1273,1765,3.1189,-7.19355
56,-741,3.10962,7.1991,0.0057903,-0.00299676,0.00107413,0.00591969,-0.00312616,0.119889,0.00530499,0.00976845,1280,1765,3.10968,-7.1991
63,-741,3.1167,7.18555,0.00472384,-0.0036482,0.0015659,0.00500714,-0.0039315,0.178982,0.00517317,0.0134989,1287,1765,3.11667,-7.18558
70,-741,3.11707,7.1814,0.00349417,-0.00397797,0.0021417,0.0040645,-0.0045483,0.260259,0.00497522,0.0160132,1294,1765,3.11701,-7.18145
77,-741,3.10022,7.2373,0.00277489,-0.00450612,0.00280914,0.0037327,-0.00546393,0.328602,0.00534095,0.0141525,1301,1765,3.10021,-7.23731
84,-741,3.0658,7.23535,0.00211417,-0.00513194,0.00330418,0.00339459,-0.00641236,0.369699,0.00575071,0.015829,1308,1765,3.06577,-7.23537
91,-741,3.07422,7.2146,0.00158683,-0.00568666,0.0037237,0.00315507,-0.0072549,0.398606,0.00616361,0.0135565,1315,1765,3.07422,-7.21459
98,-741,3.08545,7.2074,0.000701939,-0.00639226,0.0043457,0.00276439,-0.00845471,0.443118,0.00674936,0.0102042,1322,1765,3.08541,-7.20741
105,-741,3.10156,7.19006,0.000150389,-0.00657804,0.00432192,0.00226312,-0.00869077,0.45468,0.0066773,0.0101236,1329,1765,3.10161,-7.19005
112,-741,3.11255,7.17578,0.000763524,-0.00723301,0.00386401,0.00232554,-0.00879502,0.384162,0.00677294,0.0103017,1336,1765,3.11256,-7.17578
119,-741,3.09753,7.14905,0.00165339,-0.00754904,0.00313843,0.00262182,-0.00851747,0.299301,0.00672483,0.0131814,1343,1765,3.09748,-7.14909
126,-741,3.09558,7.10645,0.00253963,-0.00824053,0.00376757,0.00372584,-0.00942674,0.305021,0.00782781,0.0191784,1350,1765,3.09562,-7.10649
133,-741,3.08484,7.10376,0.00325494,-0.00924233,0.00541777,0.00527659,-0.011264,0.35715,0.00975603,0.01382,1357,1765,3.08489,-7.10373
140,-741,3.07593,7.12292,0.00400718,-0.010948,0.00815708,0.00759541,-0.0145362,0.414416,0.0129855,0.0105654,1364,1765,3.07595,-7.12289
147,-741,3.08044,7.13391,0.00462756,-0.0116781,0.00988493,0.00928803,-0.0163385,0.440566,0.014981,0.0100941,1371,1765,3.08047,-7.13396
154,-741,3.07898,7.12292,0.00501825,-0.012317,0.0122446,0.0113526,-0.0186513,0.477403,0.0174928,0.00811095,1378,1765,3.07897,-7.12287
161,-741,3.07385,7.10156,0.00512466,-0.0126478,0.0149237,0.0136074,-0.0211306,0.516866,0.0202121,0.00949532,1385,1765,3.07386,-7.10157
168,-741,3.06567,7.08838,0.00514842,-0.0136834,0.0175722,0.0156684,-0.0242035,0.539444,0.0231952,0.0178815,1392,1765,3.0657,-7.08833
175,-741,3.17603,6.99365,0.00584232,-0.01478,0.0188951,0.0170566,-0.0259942,0.535627,0.0250333,0.031524,1399,1765,3.17607,-6.99364
182,-741,3.09094,7.00439,0,0,0,0,0,0,0,-1,1406,1765,3.09093,-7.00439
189,-741,3.3313,6.73914,0,0,0,0,0,0,0,-1,1413,1765,3.33127,-6.73909
196,-741,3.20837,6.88501,0.00824384,-0.0140467,0.0167785,0.0172414,-0.0230443,0.492231,0.0233393,0.0369451,1420,1765,3.20841,-6.88499
203,-741,3.07471,6.9353,0.00943276,-0.0128583,0.014855,0.0168585,-0.0202841,0.463555,0.0214747,0.0211427,1427,1765,3.07473,-6.93525
210,-741,3.03955,6.92126,0.0110325,-0.0114887,0.0121388,0.0163294,-0.0167857,0.411456,0.0191196,0.0183105,1434,1765,3.0395,-6.92128
217,-741,3.06189,6.90295,0.0106411,-0.0110472,0.00972534,0.0143633,-0.0147694,0.36553,0.0168203,0.0181192,1441,1765,3.06193,-6.90292
224,-741,3.06494,6.87573,0.00839047,-0.0116157,0.00812984,0.0112775,-0.0145027,0.341229,0.014923,0.0242705,1448,1765,3.06497,-6.87577
231,-741,3.22473,6.87744,0.00700432,-0.0112984,0.00564231,0.00860391,-0.012898,0.276251,0.0124964,0.0311443,1455,1765,3.22476,-6.87747
238,-741,3.27795,6.79492,0.00254,-0.0124304,0.00480366,0.0039488,-0.0138392,0.285278,0.0107861,0.0345968,1462,1765,3.27798,-6.79492
245,-741,3.00378,6.63184,-0.00381846,-0.0146537,0.00512418,-0.00177901,-0.0166932,0.378784,0.0105857,0.040714,1469,1765,3.00384,-6.63181
252,-741,2.93054,6.58118,-0.0146661,-0.0181424,0.00885702,-0.00737827,-0.0254302,0.688508,0.0151071,0.045049,1476,1765,2.93057,-6.58119
259,-741,3.5,6.79993,-0.0271209,-0.0218582,0.012059,-0.0121468,-0.0368323,0.892818,0.021672,0.0459481,1483,1765,3.5,-6.79993
266,-741,3.68152,7.23499,0,0,0,0,0,0,0,-1,1490,1765,3.68157,-7.23502
273,-741,3.74451,6.62646,0,0,0,0,0,0,0,-1,1497,1765,3.74447,-6.62649
280,-741,3.35974,3.5481,0,0,0,0,0,0,0,-1,1504,1765,3.35976,-3.5481
287,-741,4.28894,5.50073,0,0,0,0,0,0,0,-1,1511,1765,4.28894,-5.50068
294,-741,10.8796,7.18481,0,0,0,0,0,0,0,-1,1518,1765,10.8796,-7.18486
301,-741,9.37085,7.25256,-0.0928774,-0.0383769,0.0311307,-0.0242545,-0.107,1.14491,0.06478,0.0468516,1525,1765,9.37087,-7.25261
308,-741,7.89368,7.26758,-0.0973406,-0.0391124,0.0310822,-0.0256385,-0.110814,1.16176,0.0669861,0.0438753,1532,1765,7.89371,-7.26755
315,-741,3.93579,5.9873,0,0,0,0,0,0,0,-1,1539,1765,3.93574,-5.98735
322,-741,3.80896,7.04871,0,0,0,0,0,0,0,-1,1546,1765,3.80894,-7.04868
329,-741,3.35071,8.11206,0,0,0,0,0,0,0,-1,1553,1765,3.35075,-8.11207
336,-741,2.72803,9.09827,0,0,0,0,0,0,0,-1,1560,1765,2.72801,-9.09828
343,-741,5.42297,5.93701,0,0,0,0,0,0,0,-1,1567,1765,5.42296,-5.937
350,-741,4.90369,5.44666,-0.0840188,-0.0321795,0.0410462,-0.00955408,-0.106644,1.06702,0.0681351,0.0436573,1574,1765,4.90368,-5.44664
357,-741,4.02063,5.16626,-0.0770919,-0.0314885,0.042996,-0.00562223,-0.102958,1.0292,0.0668436,0.0434489,1581,1765,4.02058,-5.1662
364,-741,0,0,0,0,0,0,0,0,0,-1,1588,1765,0,0
371,-741,0,0,0,0,0,0,0,0,0,-1,1595,1765,0,0
378,-741,0,0,0,0,0,0,0,0,0,-1,1602,1765,0,0
385,-741,0,0,0,0,0,0,0,0,0,-1,1609,1765,0,0
392,-741,0,0,0,0,0,0,0,0,0,-1,1616,1765,0,0
399,-741,0,0,0,0,0,0,0,0,0,-1,1623,1765,0,0
406,-741,0,0,0,0,0,0,0,0,0,-1,1630,1765,0,0
413,-741,0,0,0,0,0,0,0,0,0,-1,1637,1765,0,0
420,-741,0,0,0,0,0,0,0,0,0,-1,1644,1765,0,0
427,-741,0,0,0,0,0,0,0,0,0,-1,1651,1765,0,0
434,-741,0,0,0,0,0,0,0,0,0,-1,1658,1765,0,0
441,-741,0,0,0,0,0,0,0,0,0,-1,1665,1765,0,0
448,-741,0,0,0,0,0,0,0,0,0,-1,1672,1765,0,0
455,-741,0,0,0,0,0,0,0,0,0,-1,1679,1765,0,0
462,-741,0,0,0,0,0,0,0,0,0,-1,1686,1765,0,0
469,-741,0,0,0,0,0,0,0,0,0,-1,1693,1765,0,0
476,-741,0,0,0,0,0,0,0,0,0,-1,1700,1765,0,0
483,-741,0,0,0,0,0,0,0,0,0,-1,1707,1765,0,0
490,-741,0,0,0,0,0,0,0,0,0,-1,1714,1765,0,0
497,-741,0,0,0,0,0,0,0,0,0,-1,1721,1765,0,0
504,-741,0,0,0,0,0,0,0,0,0,-1,1728,1765,0,0
511,-741,0,0,0,0,0,0,0,0,0,-1,1735,1765,0,0
518,-741,0,0,0,0,0,0,0,0,0,-1,1742,1765,0,0
525,-741,0,0,0,0,0,0,0,0,0,-1,1749,1765,0,0
532,-741,0,0,0,0,0,0,0,0,0,-1,1756,1765,0,0
539,-741,0,0,0,0,0,0,0,0,0,-1,1763,1765,0,0
546,-741,0,0,0,0,0,0,0,0,0,-1,1770,1765,0,0
553,-741,0,0,0,0,0,0,0,0,0,-1,1777,1765,0,0
560,-741,0,0,0,0,0,0,0,0,0,-1,1784,1765,0,0
567,-741,0,0,0,0,0,0,0,0,0,-1,1791,1765,0,0
574,-741,0,0,0,0,0,0,0,0,0,-1,1798,1765,0,0
581,-741,0,0,0,0,0,0,0,0,0,-1,1805,1765,0,0
588,-741,0,0,0,0,0,0,0,0,0,-1,1812,1765,0,0
595,-741,0,0,0,0,0,0,0,0,0,-1,1819,1765,0,0
602,-741,0,0,0,0,0,0,0,0,0,-1,1826,1765,0,0
609,-741,0,0,0,0,0,0,0,0,0,-1,1833,1765,0,0
616,-741,0,0,0,0,0,0,0,0,0,-1,1840,1765,0,0
623,-741,0,0,0,0,0,0,0,0,0,-1,1847,1765,0,0
630,-741,0,0,0,0,0,0,0,0,0,-1,1854,1765,0,0
637,-741,0,0,0,0,0,0,0,0,0,-1,1861,1765,0,0
644,-741,0,0,0,0,0,0,0,0,0,-1,1868,1765,0,0
651,-741,0,0,0,0,0,0,0,0,0,-1,1875,1765,0,0
658,-741,0,0,0,0,0,0,0,0,0,-1,1882,1765,0,0
665,-741,0,0,0,0,0,0,0,0,0,-1,1889,1765,0,0
672,-741,0,0,0,0,0,0,0,0,0,-1,1896,1765,0,0
679,-741,0,0,0,0,0,0,0,0,0,-1,1903,1765,0,0
686,-741,0,0,0,0,0,0,0,0,0,-1,1910,1765,0,0
693,-741,0,0,0,0,0,0,0,0,0,-1,1917,1765,0,0
700,-741,0,0,0,0,0,0,0,0,0,-1,1924,1765,0,0
707,-741,0,0,0,0,0,0,0,0,0,-1,1931,1765,0,0
714,-741,0,0,0,0,0,0,0,0,0,-1,1938,1765,0,0
721,-741,0,0,0,0,0,0,0,0,0,-1,1945,1765,0,0
728,-741,0,0,0,0,0,0,0,0,0,-1,1952,1765,0,0
735,-741,0,0,0,0,0,0,0,0,0,-1,1959,1765,0,0
742,-741,0,0,0,0,0,0,0,0,0,-1,1966,1765,0,0
749,-741,0,0,0,0,0,0,0,0,0,-1,1973,1765,0,0
756,-741,0,0,0,0,0,0,0,0,0,-1,1980,1765,0,0
763,-741,0,0,0,0,0,0,0,0,0,-1,1987,1765,0,0
770,-741,0,0,0,0,0,0,0,0,0,-1,1994,1765,0,0
777,-741,0,0,0,0,0,0,0,0,0,-1,2001,1765,0,0
784,-741,0,0,0,0,0,0,0,0,0,-1,2008,1765,0,0
791,-741,0,0,0,0,0,0,0,0,0,-1,2015,1765,0,0
798,-741,0,0,0,0,0,0,0,0,0,-1,2022,1765,0,0
805,-741,0,0,0,0,0,0,0,0,0,-1,2029,1765,0,0
812,-741,0,0,0,0,0,0,0,0,0,-1,2036,1765,0,0
-700,-748,0,0,0,0,0,0,0,0,0,-1,524,1772,0,0
-693,-748,0,0,0,0,0,0,0,0,0,-1,531,1772,0,0
-686,-748,0,0,0,0,0,0,0,0,0,-1,538,1772,0,0
-679,-748,0,0,0,0,0,0,0,0,0,-1,545,1772,0,0
-672,-748,0,0,0,0,0,0,0,0,0,-1,552,1772,0,0
-665,-748,0,0,0,0,0,0,0,0,0,-1,559,1772,0,0
-658,-748,0,0,0,0,0,0,0,0,0,-1,566,1772,0,0
-651,-748,0,0,0,0,0,0,0,0,0,-1,573,1772,0,0
-644,-748,0,0,0,0,0,0,0,0,0,-1,580,1772,0,0
-637,-748,0,0,0,0,0,0,0,0,0,-1,587,1772,0,0
-630,-748,0,0,0,0,0,0,0,0,0,-1,594,1772,0,0
-623,-748,0,0,0,0,0,0,0,0,0,-1,601,1772,0,0
-616,-748,0,0,0,0,0,0,0,0,0,-1,608,1772,0,0
-609,-748,0,0,0,0,0,0,0,0,0,-1,615,1772,0,0
-602,-748,0,0,0,0,0,0,0,0,0,-1,622,1772,0,0
-595,-748,0,0,0,0,0,0,0,0,0,-1,629,1772,0,0
-588,-748,0,0,0,0,0,0,0,0,0,-1,636,1772,0,0
-581,-748,0,0,0,0,0,0,0,0,0,-1,643,1772,0,0
-574,-748,0,0,0,0,0,0,0,0,0,-1,650,1772,0,0
-567,-748,0,0,0,0,0,0,0,0,0,-1,657,1772,0,0
-560,-748,0,0,0,0,0,0,0,0,0,-1,664,1772,0,0
-553,-748,0,0,0,0,0,0,0,0,0,-1,671,1772,0,0
-546,-748,0,0,0,0,0,0,0,0,0,-1,678,1772,0,0
-539,-748,0,0,0,0,0,0,0,0,0,-1,685,1772,0,0
-532,-748,0,0,0,0,0,0,0,0,0,-1,692,1772,0,0
-525,-748,0,0,0,0,0,0,0,0,0,-1,699,1772,0,0
-518,-748,0,0,0,0,0,0,0,0,0,-1,706,1772,0,0
-511,-748,0,0,0,0,0,0,0,0,0,-1,713,1772,0,0
-504,-748,0,0,0,0,0,0,0,0,0,-1,720,1772,0,0
-497,-748,0,0,0,0,0,0,0,0,0,-1,727,1772,0,0
-490,-748,0,0,0,0,0,0,0,0,0,-1,734,1772,0,0
-483,-748,0,0,0,0,0,0,0,0,0,-1,741,1772,0,0
-476,-748,0,0,0,0,0,0,0,0,0,-1,748,1772,0,0
-469,-748,0,0,0,0,0,0,0,0,0,-1,755,1772,0,0
-462,-748,0,0,0,0,0,0,0,0,0,-1,762,1772,0,0
-455,-748,0,0,0,0,0,0,0,0,0,-1,769,1772,0,0
-448,-748,0,0,0,0,0,0,0,0,0,-1,776,1772,0,0
-441,-748,0,0,0,0,0,0,0,0,0,-1,783,1772,0,0
-434,-748,0,0,0,0,0,0,0,0,0,-1,790,1772,0,0
-427,-748,0,0,0,0,0,0,0,0,0,-1,797,1772,0,0
-420,-748,0,0,0,0,0,0,0,0,0,-1,804,1772,0,0
-413,-748,0,0,0,0,0,0,0,0,0,-1,811,1772,0,0
-406,-748,0,0,0,0,0,0,0,0,0,-1,818,1772,0,0
-399,-748,0,0,0,0,0,0,0,0,0,-1,825,1772,0,0
-392,-748,0,0,0,0,0,0,0,0,0,-1,832,1772,0,0
-385,-748,0,0,0,0,0,0,0,0,0,-1,839,1772,0,0
-378,-748,0,0,0,0,0,0,0,0,0,-1,846,1772,0,0
-371,-748,0,0,0,0,0,0,0,0,0,-1,853,1772,0,0
-364,-748,0,0,0,0,0,0,0,0,0,-1,860,1772,0,0
-357,-748,0,0,0,0,0,0,0,0,0,-1,867,1772,0,0
-350,-748,0,0,0,0,0,0,0,0,0,-1,874,1772,0,0
-343,-748,0,0,0,0,0,0,0,0,0,-1,881,1772,0,0
-336,-748,0,0,0,0,0,0,0,0,0,-1,888,1772,0,0
-329,-748,0,0,0,0,0,0,0,0,0,-1,895,1772,0,0
-322,-748,0,0,0,0,0,0,0,0,0,-1,902,1772,0,0
-315,-748,0,0,0,0,0,0,0,0,0,-1,909,1772,0,0
-308,-748,0,0,0,0,0,0,0,0,0,-1,916,1772,0,0
-301,-748,0,0,0,0,0,0,0,0,0,-1,923,1772,0,0
-294,-748,0,0,0,0,0,0,0,0,0,-1,930,1772,0,0
-287,-748,0,0,0,0,0,0,0,0,0,-1,937,1772,0,0
-280,-748,0,0,0,0,0,0,0,0,0,-1,944,1772,0,0
-273,-748,0,0,0,0,0,0,0,0,0,-1,951,1772,0,0
-266,-748,0,0,0,0,0,0,0,0,0,-1,958,1772,0,0
-259,-748,0,0,0,0,0,0,0,0,0,-1,965,1772,0,0
-252,-748,0,0,0,0,0,0,0,0,0,-1,972,1772,0,0
-245,-748,0,0,0,0,0,0,0,0,0,-1,979,1772,0,0
-238,-748,0,0,0,0,0,0,0,0,0,-1,986,1772,0,0
-231,-748,0,0,0,0,0,0,0,0,0,-1,993,1772,0,0
-224,-748,0,0,0,0,0,0,0,0,0,-1,1000,1772,0,0
-217,-748,3.15143,6.03394,0,0,0,0,0,0,0,-1,1007,1772,3.15144,-6.03392
-210,-748,3.41956,6.35571,0.0156291,-0.00414025,0.0166177,0.0250797,-0.0135909,0.517094,0.0226526,0.0491033,1014,1772,3.41956,-6.35574
-203,-748,3.80713,6.75989,0.0186288,-0.00707836,0.00614231,0.020021,-0.00847057,0.222893,0.0168942,0.0490481,1021,1772,3.80717,-6.75983
-196,-748,4.18188,7.08154,0.0221449,-0.00926559,-0.00154635,0.0222208,-0.00934153,-0.0490721,0.0187214,0.0436572,1028,1772,4.18192,-7.08149
-189,-748,4.35754,7.25403,0.0244853,-0.0107678,-0.00804919,0.0262362,-0.0125187,-0.214185,0.0228376,0.044928,1035,1772,4.35754,-7.25398
-182,-748,4.70288,7.27783,0,0,0,0,0,0,0,-1,1042,1772,4.7029,-7.27784
-175,-748,2.59473,8.42883,0.0265605,-0.0127305,-0.0158615,0.0321644,-0.0183344,-0.339613,0.0295177,0.0416423,1049,1772,2.59478,-8.42878
-168,-748,3.04749,7.05298,0.0254746,-0.0118584,-0.0171189,0.0321359,-0.0185197,-0.37109,0.0295961,0.0432512,1056,1772,3.04754,-7.05294
-161,-748,1.61877,6.45154,0.0238785,-0.0115709,-0.0175264,0.0310805,-0.0187728,-0.389886,0.0290737,0.0460717,1063,1772,1.61879,-6.45159
-154,-748,2.80566,5.7384,0,0,0,0,0,0,0,-1,1070,1772,2.80564,-5.73841
-147,-748,2.06494,4.80322,0,0,0,0,0,0,0,-1,1077,1772,2.06489,-4.80324
-140,-748,2.88672,5.65222,0,0,0,0,0,0,0,-1,1084,1772,2.88669,-5.65222
-133,-748,3.53296,6.50842,0,0,0,0,0,0,0,-1,1091,1772,3.53299,-6.50846
-126,-748,3.25464,6.62878,0,0,0,0,0,0,0,-1,1098,1772,3.2546,-6.62883
-119,-748,3.14929,6.46985,0,0,0,0,0,0,0,-1,1105,1772,3.14923,-6.46989
-112,-748,2.70947,5.9519,0,0,0,0,0,0,0,-1,1112,1772,2.70951,-5.95189
-105,-748,2.69543,6.72009,0,0,0,0,0,0,0,-1,1119,1772,2.69546,-6.72009
-98,-748,3.02283,6.61426,0,0,0,0,0,0,0,-1,1126,1772,3.02278,-6.61431
-91,-748,2.953,6.56555,0,0,0,0,0,0,0,-1,1133,1772,2.95305,-6.56556
-84,-748,2.77795,6.78882,0,0,0,0,0,0,0,-1,1140,1772,2.77798,-6.78878
-77,-748,3.02551,6.79468,0,0,0,0,0,0,0,-1,1147,1772,3.02553,-6.79462
-70,-748,3.25073,6.81372,0,0,0,0,0,0,0,-1,1154,1772,3.25072,-6.8137
-63,-748,3.18262,6.84021,0,0,0,0,0,0,0,-1,1161,1772,3.18263,-6.84022
-56,-748,2.80688,6.80908,0,0,0,0,0,0,0,-1,1168,1772,2.80685,-6.80904
-49,-748,2.80945,6.72754,0,0,0,0,0,0,0,-1,1175,1772,2.80943,-6.72752
-42,-748,3.02661,6.74536,0,0,0,0,0,0,0,-1,1182,1772,3.02661,-6.74542
-35,-748,3.17883,6.99426,0,0,0,0,0,0,0,-1,1189,1772,3.17884,-6.99429
-28,-748,3.15271,7.0697,-0.00321549,0.015124,-0.00424608,0.0160594,-0.00415086,-1.35397,0.0123251,0.034097,1196,1772,3.15265,-7.06971
-21,-748,3.16125,7.09717,-0.000462006,0.0154408,-0.000279068,0.0154457,-0.000466902,-1.55326,0.0104562,0.021171,1203,1772,3.16122,-7.09714
-14,-748,3.13147,7.08008,0.00183945,0.0156078,0.00298893,0.0162287,0.00121859,1.36599,0.0104367,0.0146863,1210,1772,3.1315,-7.08004
-7,-748,3.14331,7.07959,0.004297,0.0149588,0.00394116,0.0162574,0.00299832,1.25248,0.00998998,0.0145911,1217,1772,3.14336,-7.0796
0,-748,3.13977,7.07739,0.00658233,0.0130134,0.00429253,0.0151612,0.00443452,1.10686,0.00900112,0.0151087,1224,1772,3.13979,-7.07745
7,-748,3.13086,7.06482,0.00768345,0.0112161,0.00400987,0.0138314,0.00506811,0.992858,0.00808001,0.0147735,1231,1772,3.1309,-7.06482
14,-748,3.13293,7.11462,0.00854451,0.00924064,0.00360883,0.0125182,0.00526699,0.833474,0.00725756,0.015275,1238,1772,3.13293,-7.11458
21,-748,3.13135,7.14966,0.00934058,0.00745006,0.00324683,0.0117769,0.00501369,0.643747,0.00682439,0.0120004,1245,1772,3.13137,-7.14967
28,-748,3.10388,7.18311,0.0100418,0.00588328,0.00274288,0.0114044,0.00452063,0.46108,0.0066313,0.0124148,1252,1772,3.10384,-7.18313
35,-748,3.11145,7.18994,0.0100141,0.0050225,0.00254689,0.0110842,0.00395239,0.397765,0.00648663,0.0128723,1259,1772,3.1114,-7.18991
42,-748,3.14038,7.19067,0.00961949,0.00395437,0.00265386,0.0106685,0.00290539,0.376419,0.00636873,0.0127995,1266,1772,3.1404,-7.1907
49,-748,3.12329,7.17334,0.00882027,0.0022526,0.0034186,0.0102767,0.000796139,0.402751,0.0066018,0.0098623,1273,1772,3.12333,-7.17335
56,-748,3.10559,7.17566,0.0084474,-0.00014523,0.00438426,0.0102895,-0.00198732,0.397765,0.00760911,0.00993995,1280,1772,3.10554,-7.17571
63,-748,3.11414,7.16809,0.0085188,-0.00150954,0.00441261,0.0101839,-0.00317466,0.360835,0.00805871,0.0115333,1287,1772,3.11419,-7.16808
70,-748,3.11572,7.16833,0.00775307,-0.00269347,0.00493947,0.00971874,-0.00465915,0.37874,0.00847067,0.0135205,1294,1772,3.11571,-7.16834
77,-748,3.1001,7.19385,0.00787542,-0.00413896,0.00567228,0.0101303,-0.0063938,0.378365,0.00962113,0.0132439,1301,1772,3.10015,-7.19381
84,-748,3.0835,7.2196,0.00829793,-0.00583284,0.00609622,0.0105644,-0.00809931,0.355948,0.0108068,0.0141451,1308,1772,3.08351,-7.21963
91,-748,3.07092,7.21423,0.00916299,-0.00750831,0.00633592,0.0112976,-0.00964295,0.324967,0.0121026,0.0115112,1315,1772,3.07086,-7.21427
98,-748,3.06665,7.21082,0.00967028,-0.00941892,0.00680229,0.0118462,-0.0115948,0.309594,0.0135339,0.0107919,1322,1772,3.06668,-7.21086
105,-748,3.09033,7.19287,0.0106646,-0.0105794,0.00631788,0.0124015,-0.0123163,0.268291,0.0142708,0.0117463,1329,1772,3.0903,-7.19282
112,-748,3.09985,7.19958,0.0129951,-0.0122844,0.00515284,0.0140051,-0.0132944,0.19355,0.0157631,0.0144226,1336,1772,3.0998,-7.19954
119,-748,3.08533,7.17749,0.0154228,-0.0133777,0.00367919,0.0158854,-0.0138403,0.125072,0.0171757,0.0129262,1343,1772,3.08534,-7.17747
126,-748,3.08569,7.14771,0.0165065,-0.0147831,0.00451602,0.0171453,-0.0154218,0.14051,0.0188114,0.0151434,1350,1772,3.08568,-7.14775
133,-748,3.05273,7.15332,0.0164699,-0.0163966,0.00695209,0.0178799,-0.0178066,0.200109,0.0206037,0.00905222,1357,1772,3.05279,-7.15337
140,-748,3.04614,7.15198,0.0158761,-0.0187102,0.0110799,0.0191212,-0.0219553,0.284909,0.0237343,0.0117749,1364,1772,3.0462,-7.15194
147,-748,3.09509,7.14221,0.0150604,-0.019385,0.013939,0.0199943,-0.0243189,0.340204,0.0256248,0.0130766,1371,1772,3.09505,-7.14222
154,-748,3.07336,7.11902,0.013828,-0.0193331,0.0173701,0.0212607,-0.0267658,0.404325,0.0277887,0.010491,1378,1772,3.07335,-7.11905
161,-748,3.06299,7.10364,0.0107767,-0.0186475,0.0211349,0.0218159,-0.0296868,0.481345,0.0298506,0.0157823,1385,1772,3.06301,-7.10359
168,-748,3.41748,7.16797,0.00685477,-0.0202403,0.0270737,0.0235813,-0.0369668,0.553416,0.0352411,0.0497687,1392,1772,3.41747,-7.16798
175,-748,3.17957,6.95068,0,0,0,0,0,0,0,-1,1399,1772,3.17958,-6.95071
182,-748,3.74902,6.23779,0,0,0,0,0,0,0,-1,1406,1772,3.74906,-6.23776
189,-748,6.15857,6.95898,0,0,0,0,0,0,0,-1,1413,1772,6.15862,-6.95896
196,-748,5.61267,7.22546,0,0,0,0,0,0,0,-1,1420,1772,5.61265,-7.22552
203,-748,3.05273,6.85461,0,0,0,0,0,0,0,-1,1427,1772,3.05271,-6.85466
210,-748,2.95911,6.93335,0.014671,-0.0169424,0.0200886,0.024426,-0.0266975,0.452063,0.0295259,0.0416129,1434,1772,2.95907,-6.93339
217,-748,3.14148,6.98499,0.0138864,-0.0163201,0.0166721,0.0212792,-0.0237128,0.417366,0.0259888,0.0375579,1441,1772,3.14147,-6.98493
224,-748,3.31055,6.92505,0.0103939,-0.0172214,0.0143444,0.0164963,-0.0233239,0.402231,0.0231025,0.041425,1448,1772,3.31059,-6.92503
231,-748,3.46216,6.87671,0.00817535,-0.0168056,0.0106717,0.0121134,-0.0207436,0.353518,0.0191869,0.0426433,1455,1772,3.46212,-6.87668
238,-748,3.49719,6.77112,0.00158144,-0.0182359,0.00904892,0.00509159,-0.021746,0.370039,0.0164592,0.0434116,1462,1772,3.49715,-6.77117
245,-748,2.95837,6.51111,0,0,0,0,0,0,0,-1,1469,1772,2.95836,-6.51111
252,-748,2.86255,6.44202,0,0,0,0,0,0,0,-1,1476,1772,2.86257,-6.44199
259,-748,3.63037,6.56592,0,0,0,0,0,0,0,-1,1483,1772,3.63039,-6.56586
266,-748,3.77319,7.36206,0,0,0,0,0,0,0,-1,1490,1772,3.77321,-7.36202
273,-748,13.7605,5.31213,0,0,0,0,0,0,0,-1,1497,1772,13.7606,-5.31218
280,-748,12.8395,5.65588,0,0,0,0,0,0,0,-1,1504,1772,12.8394,-5.65583
287,-748,11.6401,6.0033,0,0,0,0,0,0,0,-1,1511,1772,11.6402,-6.00334
294,-748,10.4482,7.11133,0,0,0,0,0,0,0,-1,1518,1772,10.4482,-7.11139
301,-748,8.95642,7.54529,-0.120412,-0.0493735,0.0400104,-0.031391,-0.138395,1.1484,0.0837832,0.047226,1525,1772,8.95648,-7.54535
308,-748,7.4115,7.69897,-0.126344,-0.0501413,0.0400126,-0.0329912,-0.143494,1.16586,0.0867816,0.0465589,1532,1772,7.41155,-7.69895
315,-748,5.97766,7.90857,-0.128276,-0.0493984,0.0417397,-0.0314123,-0.146262,1.16393,0.0889069,0.0467676,1539,1772,5.97761,-7.90861
322,-748,4.3136,8.27795,0,0,0,0,0,0,0,-1,1546,1772,4.31362,-8.27801
329,-748,2.9552,8.71875,0,0,0,0,0,0,0,-1,1553,1772,2.95524,-8.7187
336,-748,1.92029,9.34241,0,0,0,0,0,0,0,-1,1560,1772,1.92031,-9.3424
343,-748,0,0,0,0,0,0,0,0,0,-1,1567,1772,0,0
350,-748,0,0,0,0,0,0,0,0,0,-1,1574,1772,0,0
357,-748,0,0,0,0,0,0,0,0,0,-1,1581,1772,0,0
364,-748,0,0,0,0,0,0,0,0,0,-1,1588,1772,0,0
371,-748,0,0,0,0,0,0,0,0,0,-1,1595,1772,0,0
378,-748,0,0,0,0,0,0,0,0,0,-1,1602,1772,0,0
385,-748,0,0,0,0,0,0,0,0,0,-1,1609,1772,0,0
392,-748,0,0,0,0,0,0,0,0,0,-1,1616,1772,0,0
399,-748,0,0,0,0,0,0,0,0,0,-1,1623,1772,0,0
406,-748,0,0,0,0,0,0,0,0,0,-1,1630,1772,0,0
413,-748,0,0,0,0,0,0,0,0,0,-1,1637,1772,0,0
420,-748,0,0,0,0,0,0,0,0,0,-1,1644,1772,0,0
427,-748,0,0,0,0,0,0,0,0,0,-1,1651,1772,0,0
434,-748,0,0,0,0,0,0,0,0,0,-1,1658,1772,0,0
441,-748,0,0,0,0,0,0,0,0,0,-1,1665,1772,0,0
448,-748,0,0,0,0,0,0,0,0,0,-1,1672,1772,0,0
455,-748,0,0,0,0,0,0,0,0,0,-1,1679,1772,0,0
462,-748,0,0,0,0,0,0,0,0,0,-1,1686,1772,0,0
469,-748,0,0,0,0,0,0,0,0,0,-1,1693,1772,0,0
476,-748,0,0,0,0,0,0,0,0,0,-1,1700,1772,0,0
483,-748,0,0,0,0,0,0,0,0,0,-1,1707,1772,0,0
490,-748,0,0,0,0,0,0,0,0,0,-1,1714,1772,0,0
497,-748,0,0,0,0,0,0,0,0,0,-1,1721,1772,0,0
504,-748,0,0,0,0,0,0,0,0,0,-1,1728,1772,0,0
511,-748,0,0,0,0,0,0,0,0,0,-1,1735,1772,0,0
518,-748,0,0,0,0,0,0,0,0,0,-1,1742,1772,0,0
525,-748,0,0,0,0,0,0,0,0,0,-1,1749,1772,0,0
532,-748,0,0,0,0,0,0,0,0,0,-1,1756,1772,0,0
539,-748,0,0,0,0,0,0,0,0,0,-1,1763,1772,0,0
546,-748,0,0,0,0,0,0,0,0,0,-1,1770,1772,0,0
553,-748,0,0,0,0,0,0,0,0,0,-1,1777,1772,0,0
560,-748,0,0,0,0,0,0,0,0,0,-1,1784,1772,0,0
567,-748,0,0,0,0,0,0,0,0,0,-1,1791,1772,0,0
574,-748,0,0,0,0,0,0,0,0,0,-1,1798,1772,0,0
581,-748,0,0,0,0,0,0,0,0,0,-1,1805,1772,0,0
588,-748,0,0,0,0,0,0,0,0,0,-1,1812,1772,0,0
595,-748,0,0,0,0,0,0,0,0,0,-1,1819,1772,0,0
602,-748,0,0,0,0,0,0,0,0,0,-1,1826,1772,0,0
609,-748,0,0,0,0,0,0,0,0,0,-1,1833,1772,0,0
616,-748,0,0,0,0,0,0,0,0,0,-1,1840,1772,0,0
623,-748,0,0,0,0,0,0,0,0,0,-1,1847,1772,0,0
630,-748,0,0,0,0,0,0,0,0,0,-1,1854,1772,0,0
637,-748,0,0,0,0,0,0,0,0,0,-1,1861,1772,0,0
644,-748,0,0,0,0,0,0,0,0,0,-1,1868,1772,0,0
651,-748,0,0,0,0,0,0,0,0,0,-1,1875,1772,0,0
658,-748,0,0,0,0,0,0,0,0,0,-1,1882,1772,0,0
665,-748,0,0,0,0,0,0,0,0,0,-1,1889,1772,0,0
672,-748,0,0,0,0,0,0,0,0,0,-1,1896,1772,0,0
679,-748,0,0,0,0,0,0,0,0,0,-1,1903,1772,0,0
686,-748,0,0,0,0,0,0,0,0,0,-1,1910,1772,0,0
693,-748,0,0,0,0,0,0,0,0,0,-1,1917,1772,0,0
700,-748,0,0,0,0,0,0,0,0,0,-1,1924,1772,0,0
707,-748,0,0,0,0,0,0,0,0,0,-1,1931,1772,0,0
714,-748,0,0,0,0,0,0,0,0,0,-1,1938,1772,0,0
721,-748,0,0,0,0,0,0,0,0,0,-1,1945,1772,0,0
728,-748,0,0,0,0,0,0,0,0,0,-1,1952,1772,0,0
735,-748,0,0,0,0,0,0,0,0,0,-1,1959,1772,0,0
742,-748,0,0,0,0,0,0,0,0,0,-1,1966,1772,0,0
749,-748,0,0,0,0,0,0,0,0,0,-1,1973,1772,0,0
756,-748,0,0,0,0,0,0,0,0,0,-1,1980,1772,0,0
763,-748,0,0,0,0,0,0,0,0,0,-1,1987,1772,0,0
770,-748,0,0,0,0,0,0,0,0,0,-1,1994,1772,0,0
777,-748,0,0,0,0,0,0,0,0,0,-1,2001,1772,0,0
784,-748,0,0,0,0,0,0,0,0,0,-1,2008,1772,0,0
791,-748,0,0,0,0,0,0,0,0,0,-1,2015,1772,0,0
798,-748,0,0,0,0,0,0,0,0,0,-1,2022,1772,0,0
805,-748,0,0,0,0,0,0,0,0,0,-1,2029,1772,0,0
812,-748,0,0,0,0,0,0,0,0,0,-1,2036,1772,0,0
-700,-755,0,0,0,0,0,0,0,0,0,-1,524,1779,0,0
-693,-755,0,0,0,0,0,0,0,0,0,-1,531,1779,0,0
-686,-755,0,0,0,0,0,0,0,0,0,-1,538,1779,0,0
-679,-755,0,0,0,0,0,0,0,0,0,-1,545,1779,0,0
-672,-755,0,0,0,0,0,0,0,0,0,-1,552,1779,0,0
-665,-755,0,0,0,0,0,0,0,0,0,-1,559,1779,0,0
-658,-755,0,0,0,0,0,0,0,0,0,-1,566,1779,0,0
-651,-755,0,0,0,0,0,0,0,0,0,-1,573,1779,0,0
-644,-755,0,0,0,0,0,0,0,0,0,-1,580,1779,0,0
-637,-755,0,0,0,0,0,0,0,0,0,-1,587,1779,0,0
-630,-755,0,0,0,0,0,0,0,0,0,-1,594,1779,0,0
-623,-755,0,0,0,0,0,0,0,0,0,-1,601,1779,0,0
-616,-755,0,0,0,0,0,0,0,0,0,-1,608,1779,0,0
-609,-755,0,0,0,0,0,0,0,0,0,-1,615,1779,0,0
-602,-755,0,0,0,0,0,0,0,0,0,-1,622,1779,0,0
-595,-755,0,0,0,0,0,0,0,0,0,-1,629,1779,0,0
-588,-755,0,0,0,0,0,0,0,0,0,-1,636,1779,0,0
-581,-755,0,0,0,0,0,0,0,0,0,-1,643,1779,0,0
-574,-755,0,0,0,0,0,0,0,0,0,-1,650,1779,0,0
-567,-755,0,0,0,0,0,0,0,0,0,-1,657,1779,0,0
-560,-755,0,0,0,0,0,0,0,0,0,-1,664,1779,0,0
-553,-755,0,0,0,0,0,0,0,0,0,-1,671,1779,0,0
-546,-755,0,0,0,0,0,0,0,0,0,-1,678,1779,0,0
-539,-755,0,0,0,0,0,0,0,0,0,-1,685,1779,0,0
-532,-755,0,0,0,0,0,0,0,0,0,-1,692,1779,0,0
-525,-755,0,0,0,0,0,0,0,0,0,-1,699,1779,0,0
-518,-755,0,0,0,0,0,0,0,0,0,-1,706,1779,0,0
-511,-755,0,0,0,0,0,0,0,0,0,-1,713,1779,0,0
-504,-755,0,0,0,0,0,0,0,0,0,-1,720,1779,0,0
-497,-755,0,0,0,0,0,0,0,0,0,-1,727,1779,0,0
-490,-755,0,0,0,0,0,0,0,0,0,-1,734,1779,0,0
-483,-755,0,0,0,0,0,0,0,0,0,-1,741,1779,0,0
-476,-755,0,0,0,0,0,0,0,0,0,-1,748,1779,0,0
-469,-755,0,0,0,0,0,0,0,0,0,-1,755,1779,0,0
-462,-755,0,0,0,0,0,0,0,0,0,-1,762,1779,0,0
-455,-755,0,0,0,0,0,0,0,0,0,-1,769,1779,0,0
-448,-755,0,0,0,0,0,0,0,0,0,-1,776,1779,0,0
-441,-755,0,0,0,0,0,0,0,0,0,-1,783,1779,0,0
-434,-755,0,0,0,0,0,0,0,0,0,-1,790,1779,0,0
-427,-755,0,0,0,0,0,0,0,0,0,-1,797,1779,0,0
-420,-755,0,0,0,0,0,0,0,0,0,-1,804,1779,0,0
-413,-755,0,0,0,0,0,0,0,0,0,-1,811,1779,0,0
-406,-755,0,0,0,0,0,0,0,0,0,-1,818,1779,0,0
-399,-755,0,0,0,0,0,0,0,0,0,-1,825,1779,0,0
-392,-755,0,0,0,0,0,0,0,0,0,-1,832,1779,0,0
-385,-755,0,0,0,0,0,0,0,0,0,-1,839,1779,0,0
-378,-755,0,0,0,0,0,0,0,0,0,-1,846,1779,0,0
-371,-755,0,0,0,0,0,0,0,0,0,-1,853,1779,0,0
-364,-755,0,0,0,0,0,0,0,0,0,-1,860,1779,0,0
-357,-755,0,0,0,0,0,0,0,0,0,-1,867,1779,0,0
-350,-755,0,0,0,0,0,0,0,0,0,-1,874,1779,0,0
-343,-755,0,0,0,0,0,0,0,0,0,-1,881,1779,0,0
-336,-755,0,0,0,0,0,0,0,0,0,-1,888,1779,0,0
-329,-755,0,0,0,0,0,0,0,0,0,-1,895,1779,0,0
-322,-755,0,0,0,0,0,0,0,0,0,-1,902,1779,0,0
-315,-755,0,0,0,0,0,0,0,0,0,-1,909,1779,0,0
-308,-755,0,0,0,0,0,0,0,0,0,-1,916,1779,0,0
-301,-755,0,0,0,0,0,0,0,0,0,-1,923,1779,0,0
-294,-755,0,0,0,0,0,0,0,0,0,-1,930,1779,0,0
-287,-755,0,0,0,0,0,0,0,0,0,-1,937,1779,0,0
-280,-755,0,0,0,0,0,0,0,0,0,-1,944,1779,0,0
-273,-755,0,0,0,0,0,0,0,0,0,-1,951,1779,0,0
-266,-755,0,0,0,0,0,0,0,0,0,-1,958,1779,0,0
-259,-755,0,0,0,0,0,0,0,0,0,-1,965,1779,0,0
-252,-755,0,0,0,0,0,0,0,0,0,-1,972,1779,0,0
-245,-755,0,0,0,0,0,0,0,0,0,-1,979,1779,0,0
-238,-755,0,0,0,0,0,0,0,0,0,-1,986,1779,0,0
-231,-755,0,0,0,0,0,0,0,0,0,-1,993,1779,0,0
-224,-755,0,0,0,0,0,0,0,0,0,-1,1000,1779,0,0
-217,-755,0,0,0,0,0,0,0,0,0,-1,1007,1779,0,0
-210,-755,0,0,0,0,0,0,0,0,0,-1,1014,1779,0,0
-203,-755,4.03381,6.89197,0,0,0,0,0,0,0,-1,1021,1779,4.03375,-6.89192
-196,-755,4.33997,7.16418,0.0370823,-0.00847037,-0.000624908,0.0370908,-0.00847894,-0.0137149,0.027985,0.0461406,1028,1779,4.33997,-7.16418
-189,-755,4.56335,7.30884,0.0394658,-0.0110396,-0.00919773,0.0410887,-0.0126625,-0.174646,0.0324476,0.0466878,1035,1779,4.56332,-7.30882
-182,-755,4.8269,7.35193,0,0,0,0,0,0,0,-1,1042,1779,4.82695,-7.35194
-175,-755,2.98193,8.67468,0,0,0,0,0,0,0,-1,1049,1779,2.98195,-8.67465
-168,-755,3.34375,7.21729,0,0,0,0,0,0,0,-1,1056,1779,3.34375,-7.21724
-161,-755,0.871826,6.64478,0,0,0,0,0,0,0,-1,1063,1779,0.87184,-6.64478
-154,-755,1.63452,4.29028,0,0,0,0,0,0,0,-1,1070,1779,1.6345,-4.29031
-147,-755,2.05664,4.88879,0.0277646,-0.00540544,-0.0146794,0.0333279,-0.0109687,-0.362261,0.0266385,0.0489742,1077,1779,2.05665,-4.88885
-140,-755,2.68677,5.40112,0,0,0,0,0,0,0,-1,1084,1779,2.68681,-5.40116
-133,-755,2.98816,5.69519,0,0,0,0,0,0,0,-1,1091,1779,2.98815,-5.69517
-126,-755,2.87524,6.00464,0,0,0,0,0,0,0,-1,1098,1779,2.87521,-6.00469
-119,-755,2.72839,6.28345,0.00528648,0.0118885,-0.0102663,0.0193714,-0.00219643,-0.940948,0.0137052,0.0449963,1105,1779,2.72844,-6.28348
-112,-755,2.71448,6.31433,0,0,0,0,0,0,0,-1,1112,1779,2.71446,-6.31433
-105,-755,2.67517,6.52686,-0.0054375,0.0152236,-0.0177778,0.0254544,-0.0156683,-1.0486,0.0239652,0.0425093,1119,1779,2.67512,-6.52691
-98,-755,2.95337,6.65845,-0.00950601,0.0146825,-0.0217951,0.0275141,-0.0223376,-1.0387,0.0288335,0.0449163,1126,1779,2.95341,-6.6584
-91,-755,3.33008,6.79675,0,0,0,0,0,0,0,-1,1133,1779,3.33006,-6.7967
-84,-755,0.915283,4.71985,0,0,0,0,0,0,0,-1,1140,1779,0.915256,-4.71984
-77,-755,2.42908,7.3092,0,0,0,0,0,0,0,-1,1147,1779,2.42913,-7.30916
-70,-755,3.23132,6.80896,0,0,0,0,0,0,0,-1,1154,1779,3.23137,-6.80894
-63,-755,4.03357,6.30872,0,0,0,0,0,0,0,-1,1161,1779,4.03361,-6.30871
-56,-755,1.09253,5.44617,0,0,0,0,0,0,0,-1,1168,1779,1.09247,-5.44622
-49,-755,-0.173584,4.16956,0,0,0,0,0,0,0,-1,1175,1779,-0.173637,-4.1696
-42,-755,-1.08337,3.4353,0,0,0,0,0,0,0,-1,1182,1779,-1.08337,-3.43528
-35,-755,-1.70715,2.10046,0,0,0,0,0,0,0,-1,1189,1779,-1.70717,-2.10041
-28,-755,2.83606,7.28357,0,0,0,0,0,0,0,-1,1196,1779,2.83601,-7.28363
-21,-755,3.09045,7.08398,0,0,0,0,0,0,0,-1,1203,1779,3.09045,-7.08402
-14,-755,3.11169,7.06812,0.00196038,0.0234287,0.00401351,0.0241545,0.00123459,1.39189,0.0157077,0.0291454,1210,1779,3.11167,-7.06807
-7,-755,3.125,7.06311,0.00560543,0.0228892,0.00600952,0.0247733,0.00372133,1.26698,0.0154254,0.0217797,1217,1779,3.12505,-7.06308
0,-755,3.13904,7.07446,0.00891798,0.0204922,0.0069451,0.0237453,0.00566489,1.13275,0.0143204,0.0141726,1224,1779,3.13905,-7.07449
7,-755,3.13428,7.08264,0.010653,0.0180193,0.00676705,0.0220406,0.00663169,1.03462,0.0130571,0.0132479,1231,1779,3.13432,-7.08267
14,-755,3.14624,7.12207,0.0120796,0.0153049,0.00636544,0.0202588,0.00712567,0.90946,0.0118666,0.0113755,1238,1779,3.14626,-7.1221
21,-755,3.14111,7.15527,0.013271,0.0129961,0.00595915,0.0190943,0.00717282,0.773869,0.0111372,0.015892,1245,1779,3.14112,-7.15527
28,-755,3.13818,7.17163,0.0141795,0.0111259,0.00539344,0.0182581,0.00704733,0.647465,0.0106323,0.0185784,1252,1779,3.13821,-7.17168
35,-755,3.13806,7.22681,0.0139825,0.010286,0.00520765,0.0176602,0.00660837,0.614876,0.0103031,0.0178769,1259,1779,3.13801,-7.22677
42,-755,3.15002,7.19568,0.0133611,0.00916874,0.00539989,0.0170574,0.00547244,0.600257,0.0100566,0.0136122,1266,1779,3.14997,-7.1957
49,-755,3.12354,7.15515,0.0121435,0.00712285,0.00644543,0.0165502,0.00271616,0.599697,0.0102488,0.00958858,1273,1779,3.12357,-7.15515
56,-755,3.10767,7.16736,0.0115812,0.00407265,0.00778067,0.016466,-0.000812145,0.560618,0.0112578,0.00885365,1280,1779,3.10772,-7.16738
63,-755,3.09875,7.18335,0.0118412,0.00234874,0.00765441,0.0161014,-0.00191151,0.507877,0.0114249,0.0087906,1287,1779,3.09876,-7.1834
70,-755,3.10876,7.18152,0.0109238,0.000717045,0.00827352,0.0155413,-0.00390047,0.509047,0.0118765,0.0110991,1294,1779,3.10875,-7.18158
77,-755,3.0968,7.18604,0.011287,-0.00143859,0.00917351,0.0160884,-0.00623996,0.482188,0.0133027,0.0112218,1301,1779,3.0968,-7.18601
84,-755,3.10913,7.19409,0.0122025,-0.00414469,0.00964727,0.0166732,-0.00861535,0.433951,0.0148454,0.0111075,1308,1779,3.10916,-7.19414
91,-755,3.09814,7.19348,0.0139119,-0.00707841,0.00981799,0.0177883,-0.0109548,0.376037,0.0167504,0.0109676,1315,1779,3.09809,-7.19347
98,-755,3.07776,7.19666,0.0154011,-0.0104612,0.0103022,0.0190032,-0.0140633,0.336362,0.0191619,0.0122296,1322,1779,3.07771,-7.19665
105,-755,3.0824,7.21558,0.0177883,-0.0129272,0.00951257,0.0204957,-0.0156346,0.277281,0.0209227,0.0157615,1329,1779,3.08242,-7.21557
112,-755,3.11401,7.21387,0.0220908,-0.0162208,0.00770834,0.0235836,-0.0177136,0.191288,0.0239231,0.0205417,1336,1779,3.11403,-7.21392
119,-755,3.10242,7.1897,0.0264222,-0.0184837,0.00555912,0.0271002,-0.0191616,0.121354,0.02684,0.0198198,1343,1779,3.10238,-7.18974
126,-755,3.04346,7.21033,0.028134,-0.0212911,0.00698957,0.0291034,-0.0222605,0.137818,0.0297426,0.0225284,1350,1779,3.0434,-7.21035
133,-755,3.11243,7.21631,0,0,0,0,0,0,0,-1,1357,1779,3.11242,-7.21635
140,-755,3.09155,7.25769,0,0,0,0,0,0,0,-1,1364,1779,3.09157,-7.2577
147,-755,3.06445,7.25195,0,0,0,0,0,0,0,-1,1371,1779,3.06441,-7.25194
154,-755,3.0575,7.09387,0,0,0,0,0,0,0,-1,1378,1779,3.05744,-7.09386
161,-755,3.00012,7.0592,0,0,0,0,0,0,0,-1,1385,1779,3.00011,-7.05915
168,-755,3.98181,7.35901,0,0,0,0,0,0,0,-1,1392,1779,3.98184,-7.35904
175,-755,8.17065,1.34363,0,0,0,0,0,0,0,-1,1399,1779,8.1706,-1.34368
182,-755,8.09216,2.96924,0,0,0,0,0,0,0,-1,1406,1779,8.09213,-2.9693
189,-755,8.04419,4.68042,0,0,0,0,0,0,0,-1,1413,1779,8.04419,-4.68046
196,-755,7.74841,7.4541,0,0,0,0,0,0,0,-1,1420,1779,7.74842,-7.45405
203,-755,4.80554,6.88696,0,0,0,0,0,0,0,-1,1427,1779,4.80554,-6.88697
210,-755,2.87036,6.94604,0,0,0,0,0,0,0,-1,1434,1779,2.87034,-6.94607
217,-755,3.20215,7.13074,0,0,0,0,0,0,0,-1,1441,1779,3.20219,-7.13077
224,-755,3.15125,7.27087,0.0121005,-0.0244214,0.0231983,0.0233629,-0.0356838,0.451964,0.0343371,0.044456,1448,1779,3.15119,-7.2709
231,-755,3.42493,7.02014,0.00872721,-0.0241204,0.0182466,0.0168529,-0.0322461,0.418962,0.028808,0.043169,1455,1779,3.42488,-7.02018
238,-755,3.63074,6.79932,-0.000440496,-0.0259053,0.0154654,0.00685943,-0.0332052,0.44101,0.0247423,0.0415183,1462,1779,3.63078,-6.79927
245,-755,4.01489,5.90125,0,0,0,0,0,0,0,-1,1469,1779,4.01487,-5.90128
252,-755,3.26147,5.35999,-0.0304063,-0.0350031,0.019597,-0.0129734,-0.052436,0.727023,0.0315353,0.0429591,1476,1779,3.26153,-5.35995
259,-755,3.52319,6.15222,0,0,0,0,0,0,0,-1,1483,1779,3.52318,-6.15228
266,-755,3.75989,6.85742,0,0,0,0,0,0,0,-1,1490,1779,3.75985,-6.85745
273,-755,13.1906,5.96313,-0.0873832,-0.049728,0.0343738,-0.0293633,-0.107748,1.03595,0.0643186,0.0434504,1497,1779,13.1905,-5.9631
280,-755,12.3418,6.27014,0,0,0,0,0,0,0,-1,1504,1779,12.3418,-6.27013
287,-755,11.1982,6.51062,-0.124313,-0.0574589,0.0439225,-0.0356903,-0.146081,1.11066,0.0879389,0.042966,1511,1779,11.1982,-6.5106
294,-755,10.0045,6.88745,-0.141292,-0.0603714,0.0484961,-0.0376739,-0.163989,1.13305,0.0991827,0.0443409,1518,1779,10.0046,-6.88743
301,-755,8.78479,7.66235,-0.151333,-0.0616574,0.0499415,-0.0393791,-0.173611,1.1512,0.105103,0.0456033,1525,1779,8.78476,-7.66232
308,-755,6.96912,8.09277,-0.159066,-0.0622761,0.0500333,-0.0410622,-0.18028,1.16978,0.109106,0.047014,1532,1779,6.96916,-8.09279
315,-755,5.29932,8.15173,-0.162089,-0.0614634,0.0516828,-0.0396479,-0.183905,1.17138,0.111757,0.0445455,1539,1779,5.29937,-8.15173
322,-755,0,0,0,0,0,0,0,0,0,-1,1546,1779,0,0
329,-755,0,0,0,0,0,0,0,0,0,-1,1553,1779,0,0
336,-755,0,0,0,0,0,0,0,0,0,-1,1560,1779,0,0
343,-755,0,0,0,0,0,0,0,0,0,-1,1567,1779,0,0
350,-755,0,0,0,0,0,0,0,0,0,-1,1574,1779,0,0
357,-755,0,0,0,0,0,0,0,0,0,-1,1581,1779,0,0
364,-755,0,0,0,0,0,0,0,0,0,-1,1588,1779,0,0
371,-755,0,0,0,0,0,0,0,0,0,-1,1595,1779,0,0
378,-755,0,0,0,0,0,0,0,0,0,-1,1602,1779,0,0
385,-755,0,0,0,0,0,0,0,0,0,-1,1609,1779,0,0
392,-755,0,0,0,0,0,0,0,0,0,-1,1616,1779,0,0
399,-755,0,0,0,0,0,0,0,0,0,-1,1623,1779,0,0
406,-755,0,0,0,0,0,0,0,0,0,-1,1630,1779,0,0
413,-755,0,0,0,0,0,0,0,0,0,-1,1637,1779,0,0
420,-755,0,0,0,0,0,0,0,0,0,-1,1644,1779,0,0
427,-755,0,0,0,0,0,0,0,0,0,-1,1651,1779,0,0
434,-755,0,0,0,0,0,0,0,0,0,-1,1658,1779,0,0
441,-755,0,0,0,0,0,0,0,0,0,-1,1665,1779,0,0
448,-755,0,0,0,0,0,0,0,0,0,-1,1672,1779,0,0
455,-755,0,0,0,0,0,0,0,0,0,-1,1679,1779,0,0
462,-755,0,0,0,0,0,0,0,0,0,-1,1686,1779,0,0
469,-755,0,0,0,0,0,0,0,0,0,-1,1693,1779,0,0
476,-755,0,0,0,0,0,0,0,0,0,-1,1700,1779,0,0
483,-755,0,0,0,0,0,0,0,0,0,-1,1707,1779,0,0
490,-755,0,0,0,0,0,0,0,0,0,-1,1714,1779,0,0
497,-755,0,0,0,0,0,0,0,0,0,-1,1721,1779,0,0
504,-755,0,0,0,0,0,0,0,0,0,-1,1728,1779,0,0
511,-755,0,0,0,0,0,0,0,0,0,-1,1735,1779,0,0
518,-755,0,0,0,0,0,0,0,0,0,-1,1742,1779,0,0
525,-755,0,0,0,0,0,0,0,0,0,-1,1749,1779,0,0
532,-755,0,0,0,0,0,0,0,0,0,-1,1756,1779,0,0
539,-755,0,0,0,0,0,0,0,0,0,-1,1763,1779,0,0
546,-755,0,0,0,0,0,0,0,0,0,-1,1770,1779,0,0
553,-755,0,0,0,0,0,0,0,0,0,-1,1777,1779,0,0
560,-755,0,0,0,0,0,0,0,0,0,-1,1784,1779,0,0
567,-755,0,0,0,0,0,0,0,0,0,-1,1791,1779,0,0
574,-755,0,0,0,0,0,0,0,0,0,-1,1798,1779,0,0
581,-755,0,0,0,0,0,0,0,0,0,-1,1805,1779,0,0
588,-755,0,0,0,0,0,0,0,0,0,-1,1812,1779,0,0
595,-755,0,0,0,0,0,0,0,0,0,-1,1819,1779,0,0
602,-755,0,0,0,0,0,0,0,0,0,-1,1826,1779,0,0
609,-755,0,0,0,0,0,0,0,0,0,-1,1833,1779,0,0
616,-755,0,0,0,0,0,0,0,0,0,-1,1840,1779,0,0
623,-755,0,0,0,0,0,0,0,0,0,-1,1847,1779,0,0
630,-755,0,0,0,0,0,0,0,0,0,-1,1854,1779,0,0
637,-755,0,0,0,0,0,0,0,0,0,-1,1861,1779,0,0
644,-755,0,0,0,0,0,0,0,0,0,-1,1868,1779,0,0
651,-755,0,0,0,0,0,0,0,0,0,-1,1875,1779,0,0
658,-755,0,0,0,0,0,0,0,0,0,-1,1882,1779,0,0
665,-755,0,0,0,0,0,0,0,0,0,-1,1889,1779,0,0
672,-755,0,0,0,0,0,0,0,0,0,-1,1896,1779,0,0
679,-755,0,0,0,0,0,0,0,0,0,-1,1903,1779,0,0
686,-755,0,0,0,0,0,0,0,0,0,-1,1910,1779,0,0
693,-755,0,0,0,0,0,0,0,0,0,-1,1917,1779,0,0
700,-755,0,0,0,0,0,0,0,0,0,-1,1924,1779,0,0
707,-755,0,0,0,0,0,0,0,0,0,-1,1931,1779,0,0
714,-755,0,0,0,0,0,0,0,0,0,-1,1938,1779,0,0
721,-755,0,0,0,0,0,0,0,0,0,-1,1945,1779,0,0
728,-755,0,0,0,0,0,0,0,0,0,-1,1952,1779,0,0
735,-755,0,0,0,0,0,0,0,0,0,-1,1959,1779,0,0
742,-755,0,0,0,0,0,0,0,0,0,-1,1966,1779,0,0
749,-755,0,0,0,0,0,0,0,0,0,-1,1973,1779,0,0
756,-755,0,0,0,0,0,0,0,0,0,-1,1980,1779,0,0
763,-755,0,0,0,0,0,0,0,0,0,-1,1987,1779,0,0
770,-755,0,0,0,0,0,0,0,0,0,-1,1994,1779,0,0
777,-755,0,0,0,0,0,0,0,0,0,-1,2001,1779,0,0
784,-755,0,0,0,0,0,0,0,0,0,-1,2008,1779,0,0
791,-755,0,0,0,0,0,0,0,0,0,-1,2015,1779,0,0
798,-755,0,0,0,0,0,0,0,0,0,-1,2022,1779,0,0
805,-755,0,0,0,0,0,0,0,0,0,-1,2029,1779,0,0
812,-755,0,0,0,0,0,0,0,0,0,-1,2036,1779,0,0
-700,-762,0,0,0,0,0,0,0,0,0,-1,524,1786,0,0
-693,-762,0,0,0,0,0,0,0,0,0,-1,531,1786,0,0
-686,-762,0,0,0,0,0,0,0,0,0,-1,538,1786,0,0
-679,-762,0,0,0,0,0,0,0,0,0,-1,545,1786,0,0
-672,-762,0,0,0,0,0,0,0,0,0,-1,552,1786,0,0
-665,-762,0,0,0,0,0,0,0,0,0,-1,559,1786,0,0
-658,-762,0,0,0,0,0,0,0,0,0,-1,566,1786,0,0
-651,-762,0,0,0,0,0,0,0,0,0,-1,573,1786,0,0
-644,-762,0,0,0,0,0,0,0,0,0,-1,580,1786,0,0
-637,-762,0,0,0,0,0,0,0,0,0,-1,587,1786,0,0
-630,-762,0,0,0,0,0,0,0,0,0,-1,594,1786,0,0
-623,-762,0,0,0,0,0,0,0,0,0,-1,601,1786,0,0
-616,-762,0,0,0,0,0,0,0,0,0,-1,608,1786,0,0
-609,-762,0,0,0,0,0,0,0,0,0,-1,615,1786,0,0
-602,-762,0,0,0,0,0,0,0,0,0,-1,622,1786,0,0
-595,-762,0,0,0,0,0,0,0,0,0,-1,629,1786,0,0
-588,-762,0,0,0,0,0,0,0,0,0,-1,636,1786,0,0
-581,-762,0,0,0,0,0,0,0,0,0,-1,643,1786,0,0
-574,-762,0,0,0,0,0,0,0,0,0,-1,650,1786,0,0
-567,-762,0,0,0,0,0,0,0,0,0,-1,657,1786,0,0
-560,-762,0,0,0,0,0,0,0,0,0,-1,664,1786,0,0
-553,-762,0,0,0,0,0,0,0,0,0,-1,671,1786,0,0
-546,-762,0,0,0,0,0,0,0,0,0,-1,678,1786,0,0
-539,-762,0,0,0,0,0,0,0,0,0,-1,685,1786,0,0
-532,-762,0,0,0,0,0,0,0,0,0,-1,692,1786,0,0
-525,-762,0,0,0,0,0,0,0,0,0,-1,699,1786,0,0
-518,-762,0,0,0,0,0,0,0,0,0,-1,706,1786,0,0
-511,-762,0,0,0,0,0,0,0,0,0,-1,713,1786,0,0
-504,-762,0,0,0,0,0,0,0,0,0,-1,720,1786,0,0
-497,-762,0,0,0,0,0,0,0,0,0,-1,727,1786,0,0
-490,-762,0,0,0,0,0,0,0,0,0,-1,734,1786,0,0
-483,-762,0,0,0,0,0,0,0,0,0,-1,741,1786,0,0
-476,-762,0,0,0,0,0,0,0,0,0,-1,748,1786,0,0
-469,-762,0,0,0,0,0,0,0,0,0,-1,755,1786,0,0
-462,-762,0,0,0,0,0,0,0,0,0,-1,762,1786,0,0
-455,-762,0,0,0,0,0,0,0,0,0,-1,769,1786,0,0
-448,-762,0,0,0,0,0,0,0,0,0,-1,776,1786,0,0
-441,-762,0,0,0,0,0,0,0,0,0,-1,783,1786,0,0
-434,-762,0,0,0,0,0,0,0,0,0,-1,790,1786,0,0
-427,-762,0,0,0,0,0,0,0,0,0,-1,797,1786,0,0
-420,-762,0,0,0,0,0,0,0,0,0,-1,804,1786,0,0
-413,-762,0,0,0,0,0,0,0,0,0,-1,811,1786,0,0
-406,-762,0,0,0,0,0,0,0,0,0,-1,818,1786,0,0
-399,-762,0,0,0,0,0,0,0,0,0,-1,825,1786,0,0
-392,-762,0,0,0,0,0,0,0,0,0,-1,832,1786,0,0
-385,-762,0,0,0,0,0,0,0,0,0,-1,839,1786,0,0
-378,-762,0,0,0,0,0,0,0,0,0,-1,846,1786,0,0
-371,-762,0,0,0,0,0,0,0,0,0,-1,853,1786,0,0
-364,-762,0,0,0,0,0,0,0,0,0,-1,860,1786,0,0
-357,-762,0,0,0,0,0,0,0,0,0,-1,867,1786,0,0
-350,-762,0,0,0,0,0,0,0,0,0,-1,874,1786,0,0
-343,-762,0,0,0,0,0,0,0,0,0,-1,881,1786,0,0
-336,-762,0,0,0,0,0,0,0,0,0,-1,888,1786,0,0
-329,-762,0,0,0,0,0,0,0,0,0,-1,895,1786,0,0
-322,-762,0,0,0,0,0,0,0,0,0,-1,902,1786,0,0
-315,-762,0,0,0,0,0,0,0,0,0,-1,909,1786,0,0
-308,-762,0,0,0,0,0,0,0,0,0,-1,916,1786,0,0
-301,-762,0,0,0,0,0,0,0,0,0,-1,923,1786,0,0
-294,-762,0,0,0,0,0,0,0,0,0,-1,930,1786,0,0
-287,-762,0,0,0,0,0,0,0,0,0,-1,937,1786,0,0
-280,-762,0,0,0,0,0,0,0,0,0,-1,944,1786,0,0
-273,-762,0,0,0,0,0,0,0,0,0,-1,951,1786,0,0
-266,-762,0,0,0,0,0,0,0,0,0,-1,958,1786,0,0
-259,-762,0,0,0,0,0,0,0,0,0,-1,965,1786,0,0
-252,-762,0,0,0,0,0,0,0,0,0,-1,972,1786,0,0
-245,-762,0,0,0,0,0,0,0,0,0,-1,979,1786,0,0
-238,-762,0,0,0,0,0,0,0,0,0,-1,986,1786,0,0
-231,-762,0,0,0,0,0,0,0,0,0,-1,993,1786,0,0
-224,-762,0,0,0,0,0,0,0,0,0,-1,1000,1786,0,0
-217,-762,0,0,0,0,0,0,0,0,0,-1,1007,1786,0,0
-210,-762,0,0,0,0,0,0,0,0,0,-1,1014,1786,0,0
-203,-762,0,0,0,0,0,0,0,0,0,-1,1021,1786,0,0
-196,-762,0,0,0,0,0,0,0,0,0,-1,1028,1786,0,0
-189,-762,0,0,0,0,0,0,0,0,0,-1,1035,1786,0,0
-182,-762,1.33618,5.50378,0,0,0,0,0,0,0,-1,1042,1786,1.33614,-5.50383
-175,-762,3.48889,9.01782,0,0,0,0,0,0,0,-1,1049,1786,3.48886,-9.01787
-168,-762,3.10022,6.66711,0,0,0,0,0,0,0,-1,1056,1786,3.10027,-6.66707
-161,-762,1.52527,3.73914,0,0,0,0,0,0,0,-1,1063,1786,1.52531,-3.73914
-154,-762,1.8783,4.77551,0,0,0,0,0,0,0,-1,1070,1786,1.87833,-4.77557
-147,-762,2.10962,5.05103,0,0,0,0,0,0,0,-1,1077,1786,2.10966,-5.051
-140,-762,2.48694,5.15015,0,0,0,0,0,0,0,-1,1084,1786,2.48694,-5.1501
-133,-762,2.71143,5.18445,0,0,0,0,0,0,0,-1,1091,1786,2.71137,-5.18442
-126,-762,2.66003,5.52576,0,0,0,0,0,0,0,-1,1098,1786,2.65999,-5.5257
-119,-762,2.57263,5.96338,0,0,0,0,0,0,0,-1,1105,1786,2.57257,-5.96337
-112,-762,2.50903,6.09778,0,0,0,0,0,0,0,-1,1112,1786,2.50899,-6.09774
-105,-762,2.7478,6.28418,-0.00887012,0.0194545,-0.0263563,0.0352126,-0.0246281,-1.03193,0.0347287,0.0420915,1119,1786,2.74783,-6.28413
-98,-762,3.05872,6.57886,-0.0141511,0.0185421,-0.0312301,0.037445,-0.033054,-1.0265,0.040729,0.0453695,1126,1786,3.05877,-6.57884
-91,-762,3.29797,6.54004,0,0,0,0,0,0,0,-1,1133,1786,3.29801,-6.53998
-84,-762,3.35828,6.16516,0,0,0,0,0,0,0,-1,1140,1786,3.35825,-6.16516
-77,-762,-4.04419,5.80151,0,0,0,0,0,0,0,-1,1147,1786,-4.04414,-5.80157
-70,-762,3.29688,7.09863,0,0,0,0,0,0,0,-1,1154,1786,3.29687,-7.09861
-63,-762,1.18726,2.70581,0,0,0,0,0,0,0,-1,1161,1786,1.18721,-2.70578
-56,-762,0.208984,5.34644,0,0,0,0,0,0,0,-1,1168,1786,0.208985,-5.34648
-49,-762,-0.524292,4.03687,0,0,0,0,0,0,0,-1,1175,1786,-0.524233,-4.03689
-42,-762,-1.28491,2.69641,0,0,0,0,0,0,0,-1,1182,1786,-1.2849,-2.69646
-35,-762,-1.83093,1.14661,0,0,0,0,0,0,0,-1,1189,1786,-1.83094,-1.14666
-28,-762,-2.36145,-0.386475,0,0,0,0,0,0,0,-1,1196,1786,-2.3615,0.386533
-21,-762,3.06812,7.00903,0,0,0,0,0,0,0,-1,1203,1786,3.0681,-7.00898
-14,-762,3.07654,7.06836,0.00162931,0.0335012,0.0048693,0.0342285,0.000901988,1.42252,0.0225244,0.0472465,1210,1786,3.07657,-7.06838
-7,-762,3.1261,7.01428,0.00666537,0.0333303,0.00840267,0.0357572,0.00423841,1.28962,0.0225585,0.0445551,1217,1786,3.12608,-7.01432
0,-762,3.14648,7.02454,0.0112582,0.0305382,0.0102247,0.0349507,0.0068456,1.16338,0.021387,0.0340432,1224,1786,3.14649,-7.02452
7,-762,3.17249,7.10095,0.0139384,0.027049,0.0101511,0.0325774,0.00841001,1.0721,0.0195282,0.0208233,1231,1786,3.17251,-7.10101
14,-762,3.21375,7.19482,0.0161894,0.0233061,0.00973042,0.0301084,0.00938708,0.960693,0.0177889,0.0335101,1238,1786,3.21373,-7.19486
21,-762,3.24329,7.26978,0.0180048,0.0201538,0.00920482,0.0283466,0.00981196,0.843502,0.0166222,0.039255,1245,1786,3.24329,-7.26973
28,-762,3.18933,7.28699,0.0192884,0.0176475,0.00847255,0.0269801,0.00995575,0.73713,0.0157542,0.0381347,1252,1786,3.18939,-7.28696
35,-762,3.1333,7.36609,0.0189883,0.0165622,0.00822534,0.0260895,0.0094609,0.712187,0.0152511,0.0409736,1259,1786,3.13326,-7.36612
42,-762,3.12061,7.27856,0.0181596,0.0151647,0.00847236,0.0252659,0.0080585,0.697928,0.0149026,0.0401716,1266,1786,3.1206,-7.27856
49,-762,3.09436,7.21082,0.0164669,0.012374,0.00988549,0.0245155,0.00432534,0.683332,0.0151097,0.0321213,1273,1786,3.09438,-7.21081
56,-762,3.17603,7.19324,0.0158417,0.00812037,0.01178,0.0243775,-0.000415491,0.627049,0.0163919,0.0213754,1280,1786,3.17608,-7.19323
63,-762,3.15442,7.20129,0.0166923,0.00569919,0.0113971,0.023849,-0.00145752,0.560713,0.0164068,0.018956,1287,1786,3.15445,-7.20128
70,-762,3.06812,7.21545,0.0158144,0.00324582,0.0121615,0.0232193,-0.00415911,0.546925,0.017036,0.0193911,1294,1786,3.06815,-7.21544
77,-762,3.12219,7.23206,0.0167721,5.03588e-05,0.0133629,0.0241742,-0.00735174,0.505855,0.0190457,0.0271634,1301,1786,3.12214,-7.23204
84,-762,3.20618,7.15674,0.0186447,-0.00401375,0.0139827,0.0253118,-0.0106808,0.444923,0.0213449,0.0310027,1308,1786,3.20623,-7.1567
91,-762,3.21631,7.15723,0.02185,-0.00856012,0.0141556,0.0274193,-0.0141294,0.374834,0.0243938,0.0388678,1315,1786,3.21628,-7.15723
98,-762,3.08484,7.2915,0.0251099,-0.0138071,0.0146803,0.0300264,-0.0187236,0.323169,0.0283969,0.0411456,1322,1786,3.08481,-7.29156
105,-762,3.05237,7.30627,0.0299138,-0.0179226,0.0134448,0.0334336,-0.0214424,0.256049,0.0319338,0.0392535,1329,1786,3.05238,-7.30629
112,-762,3.05737,7.3186,0.0373939,-0.023177,0.0107728,0.0392528,-0.0250359,0.170876,0.0374184,0.0419417,1336,1786,3.05733,-7.31859
119,-762,3.04175,7.32983,0.0448229,-0.0269509,0.00765487,0.0456302,-0.0277583,0.105078,0.0427876,0.0419887,1343,1786,3.04172,-7.32982
126,-762,3.24927,7.47791,0.0469712,-0.0310433,0.00999174,0.0482306,-0.0323026,0.12538,0.046798,0.0417614,1350,1786,3.24933,-7.4779
133,-762,3.38379,7.47046,0.0455629,-0.0350882,0.0151099,0.0483008,-0.0378261,0.179253,0.0498478,0.0425492,1357,1786,3.38382,-7.47048
140,-762,3.46216,7.54138,0,0,0,0,0,0,0,-1,1364,1786,3.46219,-7.5414
147,-762,3.37244,7.75879,0,0,0,0,0,0,0,-1,1371,1786,3.3724,-7.75882
154,-762,3.42896,7.70667,0,0,0,0,0,0,0,-1,1378,1786,3.42895,-7.70666
161,-762,7.93408,-0.126221,0,0,0,0,0,0,0,-1,1385,1786,7.93402,0.126232
168,-762,8.19287,0.880615,0,0,0,0,0,0,0,-1,1392,1786,8.19291,-0.880603
175,-762,8.33997,1.95947,0.0114786,-0.0385956,0.0571544,0.0488393,-0.0759563,0.578958,0.0726156,0.0462194,1399,1786,8.33997,-1.95942
182,-762,8.28418,3.56482,0.0127083,-0.0388189,0.0595021,0.051785,-0.0778956,0.58109,0.0753753,0.047399,1406,1786,8.28415,-3.56485
189,-762,8.21179,5.23389,0.0145304,-0.0381878,0.0583465,0.0521957,-0.0758531,0.573237,0.0743484,0.0448424,1413,1786,8.21183,-5.23383
196,-762,8.05969,6.95483,0,0,0,0,0,0,0,-1,1420,1786,8.05972,-6.9548
203,-762,7.88794,8.74133,0,0,0,0,0,0,0,-1,1427,1786,7.88797,-8.74137
210,-762,5.69043,6.71973,0,0,0,0,0,0,0,-1,1434,1786,5.69042,-6.71972
217,-762,1.65698,8.1449,0,0,0,0,0,0,0,-1,1441,1786,1.65702,-8.14492
224,-762,2.65881,7.58899,0.0129867,-0.0332483,0.0350355,0.0318442,-0.0521059,0.493771,0.0489369,0.0481421,1448,1786,2.65882,-7.58901
231,-762,3.01099,6.97229,0.00803107,-0.0334047,0.028997,0.0229511,-0.0483247,0.475208,0.0420113,0.0438341,1455,1786,3.01102,-6.97225
238,-762,3.69019,6.7522,-0.00399686,-0.0356058,0.0247674,0.00957899,-0.0491817,0.50141,0.0364033,0.0444623,1462,1786,3.69014,-6.75219
245,-762,4.03577,5.94812,0,0,0,0,0,0,0,-1,1469,1786,4.03575,-5.94817
252,-762,2.83899,5.32581,0,0,0,0,0,0,0,-1,1476,1786,2.83904,-5.32579
259,-762,3.37939,5.91138,0,0,0,0,0,0,0,-1,1483,1786,3.37943,-5.91134
266,-762,13.5288,6.46057,-0.0858518,-0.0585921,0.0386705,-0.0312198,-0.113224,0.954831,0.0675263,0.0462652,1490,1786,13.5288,-6.46057
273,-762,12.5118,6.61011,-0.1077,-0.0638115,0.044195,-0.0364126,-0.135099,1.01583,0.0807144,0.047147,1497,1786,12.5118,-6.6101
280,-762,11.8442,6.8844,0,0,0,0,0,0,0,-1,1504,1786,11.8442,-6.88443
287,-762,10.739,7.04712,-0.15189,-0.0718812,0.0545493,-0.0442397,-0.179532,1.10178,0.108005,0.0441996,1511,1786,10.739,-7.04717
294,-762,9.58179,7.32849,-0.172354,-0.0745935,0.0593903,-0.0465551,-0.200393,1.12971,0.121097,0.0437754,1518,1786,9.58176,-7.32843
301,-762,8.4801,8.08313,-0.185577,-0.0752493,0.0609427,-0.0482117,-0.212614,1.15323,0.128718,0.0455389,1525,1786,8.48013,-8.08309
308,-762,0,0,0,0,0,0,0,0,0,-1,1532,1786,0,0
315,-762,0,0,0,0,0,0,0,0,0,-1,1539,1786,0,0
322,-762,0,0,0,0,0,0,0,0,0,-1,1546,1786,0,0
329,-762,0,0,0,0,0,0,0,0,0,-1,1553,1786,0,0
336,-762,0,0,0,0,0,0,0,0,0,-1,1560,1786,0,0
343,-762,0,0,0,0,0,0,0,0,0,-1,1567,1786,0,0
350,-762,0,0,0,0,0,0,0,0,0,-1,1574,1786,0,0
357,-762,0,0,0,0,0,0,0,0,0,-1,1581,1786,0,0
364,-762,0,0,0,0,0,0,0,0,0,-1,1588,1786,0,0
371,-762,0,0,0,0,0,0,0,0,0,-1,1595,1786,0,0
378,-762,0,0,0,0,0,0,0,0,0,-1,1602,1786,0,0
385,-762,0,0,0,0,0,0,0,0,0,-1,1609,1786,0,0
392,-762,0,0,0,0,0,0,0,0,0,-1,1616,1786,0,0
399,-762,0,0,0,0,0,0,0,0,0,-1,1623,1786,0,0
406,-762,0,0,0,0,0,0,0,0,0,-1,1630,1786,0,0
413,-762,0,0,0,0,0,0,0,0,0,-1,1637,1786,0,0
420,-762,0,0,0,0,0,0,0,0,0,-1,1644,1786,0,0
427,-762,0,0,0,0,0,0,0,0,0,-1,1651,1786,0,0
434,-762,0,0,0,0,0,0,0,0,0,-1,1658,1786,0,0
441,-762,0,0,0,0,0,0,0,0,0,-1,1665,1786,0,0
448,-762,0,0,0,0,0,0,0,0,0,-1,1672,1786,0,0
455,-762,0,0,0,0,0,0,0,0,0,-1,1679,1786,0,0
462,-762,0,0,0,0,0,0,0,0,0,-1,1686,1786,0,0
469,-762,0,0,0,0,0,0,0,0,0,-1,1693,1786,0,0
476,-762,0,0,0,0,0,0,0,0,0,-1,1700,1786,0,0
483,-762,0,0,0,0,0,0,0,0,0,-1,1707,1786,0,0
490,-762,0,0,0,0,0,0,0,0,0,-1,1714,1786,0,0
497,-762,0,0,0,0,0,0,0,0,0,-1,1721,1786,0,0
504,-762,0,0,0,0,0,0,0,0,0,-1,1728,1786,0,0
511,-762,0,0,0,0,0,0,0,0,0,-1,1735,1786,0,0
518,-762,0,0,0,0,0,0,0,0,0,-1,1742,1786,0,0
525,-762,0,0,0,0,0,0,0,0,0,-1,1749,1786,0,0
532,-762,0,0,0,0,0,0,0,0,0,-1,1756,1786,0,0
539,-762,0,0,0,0,0,0,0,0,0,-1,1763,1786,0,0
546,-762,0,0,0,0,0,0,0,0,0,-1,1770,1786,0,0
553,-762,0,0,0,0,0,0,0,0,0,-1,1777,1786,0,0
560,-762,0,0,0,0,0,0,0,0,0,-1,1784,1786,0,0
567,-762,0,0,0,0,0,0,0,0,0,-1,1791,1786,0,0
574,-762,0,0,0,0,0,0,0,0,0,-1,1798,1786,0,0
581,-762,0,0,0,0,0,0,0,0,0,-1,1805,1786,0,0
588,-762,0,0,0,0,0,0,0,0,0,-1,1812,1786,0,0
595,-762,0,0,0,0,0,0,0,0,0,-1,1819,1786,0,0
602,-762,0,0,0,0,0,0,0,0,0,-1,1826,1786,0,0
609,-762,0,0,0,0,0,0,0,0,0,-1,1833,1786,0,0
616,-762,0,0,0,0,0,0,0,0,0,-1,1840,1786,0,0
623,-762,0,0,0,0,0,0,0,0,0,-1,1847,1786,0,0
630,-762,0,0,0,0,0,0,0,0,0,-1,1854,1786,0,0
637,-762,0,0,0,0,0,0,0,0,0,-1,1861,1786,0,0
644,-762,0,0,0,0,0,0,0,0,0,-1,1868,1786,0,0
651,-762,0,0,0,0,0,0,0,0,0,-1,1875,1786,0,0
658,-762,0,0,0,0,0,0,0,0,0,-1,1882,1786,0,0
665,-762,0,0,0,0,0,0,0,0,0,-1,1889,1786,0,0
672,-762,0,0,0,0,0,0,0,0,0,-1,1896,1786,0,0
679,-762,0,0,0,0,0,0,0,0,0,-1,1903,1786,0,0
686,-762,0,0,0,0,0,0,0,0,0,-1,1910,1786,0,0
693,-762,0,0,0,0,0,0,0,0,0,-1,1917,1786,0,0
700,-762,0,0,0,0,0,0,0,0,0,-1,1924,1786,0,0
707,-762,0,0,0,0,0,0,0,0,0,-1,1931,1786,0,0
714,-762,0,0,0,0,0,0,0,0,0,-1,1938,1786,0,0
721,-762,0,0,0,0,0,0,0,0,0,-1,1945,1786,0,0
728,-762,0,0,0,0,0,0,0,0,0,-1,1952,1786,0,0
735,-762,0,0,0,0,0,0,0,0,0,-1,1959,1786,0,0
742,-762,0,0,0,0,0,0,0,0,0,-1,1966,1786,0,0
749,-762,0,0,0,0,0,0,0,0,0,-1,1973,1786,0,0
756,-762,0,0,0,0,0,0,0,0,0,-1,1980,1786,0,0
763,-762,0,0,0,0,0,0,0,0,0,-1,1987,1786,0,0
770,-762,0,0,0,0,0,0,0,0,0,-1,1994,1786,0,0
777,-762,0,0,0,0,0,0,0,0,0,-1,2001,1786,0,0
784,-762,0,0,0,0,0,0,0,0,0,-1,2008,1786,0,0
791,-762,0,0,0,0,0,0,0,0,0,-1,2015,1786,0,0
798,-762,0,0,0,0,0,0,0,0,0,-1,2022,1786,0,0
805,-762,0,0,0,0,0,0,0,0,0,-1,2029,1786,0,0
812,-762,0,0,0,0,0,0,0,0,0,-1,2036,1786,0,0
-700,-769,0,0,0,0,0,0,0,0,0,-1,524,1793,0,0
-693,-769,0,0,0,0,0,0,0,0,0,-1,531,1793,0,0
-686,-769,0,0,0,0,0,0,0,0,0,-1,538,1793,0,0
-679,-769,0,0,0,0,0,0,0,0,0,-1,545,1793,0,0
-672,-769,0,0,0,0,0,0,0,0,0,-1,552,1793,0,0
-665,-769,0,0,0,0,0,0,0,0,0,-1,559,1793,0,0
-658,-769,0,0,0,0,0,0,0,0,0,-1,566,1793,0,0
-651,-769,0,0,0,0,0,0,0,0,0,-1,573,1793,0,0
-644,-769,0,0,0,0,0,0,0,0,0,-1,580,1793,0,0
-637,-769,0,0,0,0,0,0,0,0,0,-1,587,1793,0,0
-630,-769,0,0,0,0,0,0,0,0,0,-1,594,1793,0,0
-623,-769,0,0,0,0,0,0,0,0,0,-1,601,1793,0,0
-616,-769,0,0,0,0,0,0,0,0,0,-1,608,1793,0,0
-609,-769,0,0,0,0,0,0,0,0,0,-1,615,1793,0,0
-602,-769,0,0,0,0,0,0,0,0,0,-1,622,1793,0,0
-595,-769,0,0,0,0,0,0,0,0,0,-1,629,1793,0,0
-588,-769,0,0,0,0,0,0,0,0,0,-1,636,1793,0,0
-581,-769,0,0,0,0,0,0,0,0,0,-1,643,1793,0,0
-574,-769,0,0,0,0,0,0,0,0,0,-1,650,1793,0,0
-567,-769,0,0,0,0,0,0,0,0,0,-1,657,1793,0,0
-560,-769,0,0,0,0,0,0,0,0,0,-1,664,1793,0,0
-553,-769,0,0,0,0,0,0,0,0,0,-1,671,1793,0,0
-546,-769,0,0,0,0,0,0,0,0,0,-1,678,1793,0,0
-539,-769,0,0,0,0,0,0,0,0,0,-1,685,1793,0,0
-532,-769,0,0,0,0,0,0,0,0,0,-1,692,1793,0,0
-525,-769,0,0,0,0,0,0,0,0,0,-1,699,1793,0,0
-518,-769,0,0,0,0,0,0,0,0,0,-1,706,1793,0,0
-511,-769,0,0,0,0,0,0,0,0,0,-1,713,1793,0,0
-504,-769,0,0,0,0,0,0,0,0,0,-1,720,1793,0,0
-497,-769,0,0,0,0,0,0,0,0,0,-1,727,1793,0,0
-490,-769,0,0,0,0,0,0,0,0,0,-1,734,1793,0,0
-483,-769,0,0,0,0,0,0,0,0,0,-1,741,1793,0,0
-476,-769,0,0,0,0,0,0,0,0,0,-1,748,1793,0,0
-469,-769,0,0,0,0,0,0,0,0,0,-1,755,1793,0,0
-462,-769,0,0,0,0,0,0,0,0,0,-1,762,1793,0,0
-455,-769,0,0,0,0,0,0,0,0,0,-1,769,1793,0,0
-448,-769,0,0,0,0,0,0,0,0,0,-1,776,1793,0,0
-441,-769,0,0,0,0,0,0,0,0,0,-1,783,1793,0,0
-434,-769,0,0,0,0,0,0,0,0,0,-1,790,1793,0,0
-427,-769,0,0,0,0,0,0,0,0,0,-1,797,1793,0,0
-420,-769,0,0,0,0,0,0,0,0,0,-1,804,1793,0,0
-413,-769,0,0,0,0,0,0,0,0,0,-1,811,1793,0,0
-406,-769,0,0,0,0,0,0,0,0,0,-1,818,1793,0,0
-399,-769,0,0,0,0,0,0,0,0,0,-1,825,1793,0,0
-392,-769,0,0,0,0,0,0,0,0,0,-1,832,1793,0,0
-385,-769,0,0,0,0,0,0,0,0,0,-1,839,1793,0,0
-378,-769,0,0,0,0,0,0,0,0,0,-1,846,1793,0,0
-371,-769,0,0,0,0,0,0,0,0,0,-1,853,1793,0,0
-364,-769,0,0,0,0,0,0,0,0,0,-1,860,1793,0,0
-357,-769,0,0,0,0,0,0,0,0,0,-1,867,1793,0,0
-350,-769,0,0,0,0,0,0,0,0,0,-1,874,1793,0,0
-343,-769,0,0,0,0,0,0,0,0,0,-1,881,1793,0,0
-336,-769,0,0,0,0,0,0,0,0,0,-1,888,1793,0,0
-329,-769,0,0,0,0,0,0,0,0,0,-1,895,1793,0,0
-322,-769,0,0,0,0,0,0,0,0,0,-1,902,1793,0,0
-315,-769,0,0,0,0,0,0,0,0,0,-1,909,1793,0,0
-308,-769,0,0,0,0,0,0,0,0,0,-1,916,1793,0,0
-301,-769,0,0,0,0,0,0,0,0,0,-1,923,1793,0,0
-294,-769,0,0,0,0,0,0,0,0,0,-1,930,1793,0,0
-287,-769,0,0,0,0,0,0,0,0,0,-1,937,1793,0,0
-280,-769,0,0,0,0,0,0,0,0,0,-1,944,1793,0,0
-273,-769,0,0,0,0,0,0,0,0,0,-1,951,1793,0,0
-266,-769,0,0,0,0,0,0,0,0,0,-1,958,1793,0,0
-259,-769,0,0,0,0,0,0,0,0,0,-1,965,1793,0,0
-252,-769,0,0,0,0,0,0,0,0,0,-1,972,1793,0,0
-245,-769,0,0,0,0,0,0,0,0,0,-1,979,1793,0,0
-238,-769,0,0,0,0,0,0,0,0,0,-1,986,1793,0,0
-231,-769,0,0,0,0,0,0,0,0,0,-1,993,1793,0,0
-224,-769,0,0,0,0,0,0,0,0,0,-1,1000,1793,0,0
-217,-769,0,0,0,0,0,0,0,0,0,-1,1007,1793,0,0
-210,-769,0,0,0,0,0,0,0,0,0,-1,1014,1793,0,0
-203,-769,0,0,0,0,0,0,0,0,0,-1,1021,1793,0,0
-196,-769,0,0,0,0,0,0,0,0,0,-1,1028,1793,0,0
-189,-769,0,0,0,0,0,0,0,0,0,-1,1035,1793,0,0
-182,-769,0,0,0,0,0,0,0,0,0,-1,1042,1793,0,0
-175,-769,0,0,0,0,0,0,0,0,0,-1,1049,1793,0,0
-168,-769,0,0,0,0,0,0,0,0,0,-1,1056,1793,0,0
-161,-769,3.37207,6.10449,0,0,0,0,0,0,0,-1,1063,1793,3.37205,-6.10444
-154,-769,-0.191284,4.21252,0,0,0,0,0,0,0,-1,1070,1793,-0.191243,-4.21248
-147,-769,2.25903,5.36169,0,0,0,0,0,0,0,-1,1077,1793,2.25902,-5.36175
-140,-769,3.11731,2.23132,0,0,0,0,0,0,0,-1,1084,1793,3.11732,-2.23136
-133,-769,3.66296,2.20813,0,0,0,0,0,0,0,-1,1091,1793,3.66291,-2.20818
-126,-769,2.54199,4.67151,0,0,0,0,0,0,0,-1,1098,1793,2.54197,-4.67153
-119,-769,2.46106,5.94226,0,0,0,0,0,0,0,-1,1105,1793,2.46101,-5.94231
-112,-769,3.15271,5.25696,0,0,0,0,0,0,0,-1,1112,1793,3.15273,-5.25696
-105,-769,2.41089,6.34863,0,0,0,0,0,0,0,-1,1119,1793,2.41084,-6.34866
-98,-769,3.02234,6.54517,0,0,0,0,0,0,0,-1,1126,1793,3.0223,-6.54517
-91,-769,3.39441,6.69141,0,0,0,0,0,0,0,-1,1133,1793,3.39445,-6.6914
-84,-769,-1.98096,6.68005,0,0,0,0,0,0,0,-1,1140,1793,-1.98094,-6.68008
-77,-769,-3.09265,5.87769,0,0,0,0,0,0,0,-1,1147,1793,-3.09267,-5.87767
-70,-769,-3.64319,4.86829,0,0,0,0,0,0,0,-1,1154,1793,-3.64321,-4.86833
-63,-769,0.66272,6.77698,0,0,0,0,0,0,0,-1,1161,1793,0.662772,-6.77704
-56,-769,-0.150513,5.45667,0,0,0,0,0,0,0,-1,1168,1793,-0.150507,-5.45666
-49,-769,-0.863403,4.11279,0,0,0,0,0,0,0,-1,1175,1793,-0.863391,-4.11274
-42,-769,-1.53125,2.78333,0,0,0,0,0,0,0,-1,1182,1793,-1.53125,-2.78335
-35,-769,-1.97571,1.45093,0,0,0,0,0,0,0,-1,1189,1793,-1.97573,-1.45092
-28,-769,-2.66406,0.0484619,0,0,0,0,0,0,0,-1,1196,1793,-2.66404,-0.0484919
-21,-769,2.81287,7.36426,0,0,0,0,0,0,0,-1,1203,1793,2.81281,-7.36425
-14,-769,2.88708,7.14661,0.000713812,0.0455769,0.00550193,0.0462418,4.89205e-05,1.45053,0.0308116,0.0492128,1210,1793,2.88703,-7.14664
-7,-769,3.09143,6.97473,0.00728436,0.0462565,0.0112205,0.0492561,0.00428473,1.30957,0.0315065,0.0475859,1217,1793,3.09142,-6.97474
0,-769,2.8634,6.66602,0.0133674,0.043429,0.0144119,0.049222,0.00757443,1.18861,0.0306039,0.0432058,1224,1793,2.86335,-6.66597
7,-769,3.21021,6.93079,0.0173423,0.0387424,0.0146006,0.0461439,0.00994079,1.10162,0.0280426,0.0405953,1231,1793,3.21016,-6.93077
14,-769,3.27808,7.26611,0.0206982,0.0338008,0.0142747,0.0429558,0.0115432,1.00053,0.0256697,0.0412352,1238,1793,3.27803,-7.26615
21,-769,3.42407,7.2417,0.0232861,0.0296759,0.0136744,0.0405236,0.0124384,0.900159,0.0239706,0.0447558,1245,1793,3.42403,-7.24172
28,-769,3.21118,7.24805,0.0249736,0.0264438,0.0127867,0.0385165,0.0129009,0.814112,0.0226378,0.0419946,1252,1793,3.21115,-7.24802
35,-769,3.11853,7.48389,0.0245225,0.025089,0.0124635,0.0372724,0.0123391,0.79676,0.0219249,0.0453324,1259,1793,3.11855,-7.48383
42,-769,2.78406,7.57996,0.0234411,0.0234149,0.0127547,0.0361828,0.0106733,0.784884,0.0214675,0.0477597,1266,1793,2.78408,-7.57997
49,-769,3.01733,7.41565,0.0211614,0.0197565,0.014564,0.0350399,0.00587807,0.761301,0.021668,0.0470591,1273,1793,3.0173,-7.41567
56,-769,3.25513,7.38208,0,0,0,0,0,0,0,-1,1280,1793,3.25512,-7.38204
63,-769,2.56458,7.2915,0.0223426,0.0108025,0.016301,0.0338646,-0.000719575,0.615296,0.0228201,0.0430494,1287,1793,2.56461,-7.29154
70,-769,2.40222,7.29578,0.0217502,0.00728064,0.0171623,0.0331404,-0.00410949,0.585925,0.0235831,0.0440079,1294,1793,2.40222,-7.29577
77,-769,3.71741,6.94006,0,0,0,0,0,0,0,-1,1301,1793,3.71745,-6.94005
84,-769,3.6084,7.0824,0.0271806,-0.00311002,0.0193757,0.0366279,-0.0125574,0.453668,0.0295089,0.0445707,1308,1793,3.60842,-7.08235
91,-769,3.41077,7.50488,0.0327831,-0.00983748,0.0194578,0.0403299,-0.0173843,0.369994,0.0341879,0.0425538,1315,1793,3.41081,-7.50488
98,-769,3.09045,7.40723,0,0,0,0,0,0,0,-1,1322,1793,3.09049,-7.40722
105,-769,3.06421,7.59167,0.0479402,-0.0242111,0.0178369,0.0521089,-0.0283798,0.229591,0.0471385,0.0448518,1329,1793,3.06424,-7.59165
112,-769,3.25732,7.68127,0.0604095,-0.0322099,0.0139523,0.0624656,-0.034266,0.146317,0.0566336,0.0467289,1336,1793,3.25735,-7.68128
119,-769,2.99622,7.45984,0,0,0,0,0,0,0,-1,1343,1793,2.99624,-7.45989
126,-769,3.51147,7.71008,0.0750532,-0.0436962,0.0131424,0.0764903,-0.0451333,0.108917,0.0709931,0.0456041,1350,1793,3.51153,-7.71011
133,-769,3.61829,7.60608,0.071762,-0.0489868,0.020171,0.0750425,-0.0522672,0.16122,0.0738933,0.0468508,1357,1793,3.6183,-7.60612
140,-769,3.68665,7.59253,0,0,0,0,0,0,0,-1,1364,1793,3.68665,-7.59254
147,-769,3.68042,8.26575,0,0,0,0,0,0,0,-1,1371,1793,3.68039,-8.26569
154,-769,6.37561,1.00024,0,0,0,0,0,0,0,-1,1378,1793,6.37566,-1.00028
161,-769,6.57019,1.53223,0,0,0,0,0,0,0,-1,1385,1793,6.57019,-1.53226
168,-769,8.27637,0.756958,0,0,0,0,0,0,0,-1,1392,1793,8.27639,-0.756944
175,-769,8.47144,2.41174,0.0131563,-0.0481513,0.0746397,0.0631916,-0.0981867,0.590554,0.0938992,0.0491685,1399,1793,8.47147,-2.4118
182,-769,8.41479,4.05994,0.0143426,-0.0483888,0.0778608,0.066918,-0.100964,0.59392,0.0975889,0.0449121,1406,1793,8.41479,-4.05997
189,-769,8.25049,5.68433,0.0164588,-0.047583,0.0767419,0.0675923,-0.0987166,0.587752,0.0965773,0.042713,1413,1793,8.25054,-5.68428
196,-769,7.97729,7.42847,0,0,0,0,0,0,0,-1,1420,1793,7.9773,-7.42848
203,-769,7.96704,9.02502,0,0,0,0,0,0,0,-1,1427,1793,7.96709,-9.02499
210,-769,1.82837,7.81482,0,0,0,0,0,0,0,-1,1434,1793,1.82842,-7.81485
217,-769,1.90332,7.13647,0,0,0,0,0,0,0,-1,1441,1793,1.9033,-7.13643
224,-769,2.27466,7.96765,0,0,0,0,0,0,0,-1,1448,1793,2.27472,-7.9677
231,-769,2.75916,6.98804,0,0,0,0,0,0,0,-1,1455,1793,2.75916,-6.98803
238,-769,3.69519,7.07202,0,0,0,0,0,0,0,-1,1462,1793,3.69525,-7.07203
245,-769,2.68616,4.84875,0,0,0,0,0,0,0,-1,1469,1793,2.68621,-4.8487
252,-769,2.56775,5.44055,0,0,0,0,0,0,0,-1,1476,1793,2.5678,-5.44056
259,-769,13.8719,6.92651,0,0,0,0,0,0,0,-1,1483,1793,13.872,-6.92646
266,-769,12.9277,7.22314,-0.10273,-0.0745917,0.0494666,-0.0372324,-0.140089,0.923947,0.0837864,0.0463193,1490,1793,12.9277,-7.22316
273,-769,11.8999,7.65295,-0.128733,-0.0802844,0.0555317,-0.0439234,-0.165094,0.991069,0.0987339,0.0462857,1497,1793,11.8999,-7.65301
280,-769,11.1288,8.04041,0,0,0,0,0,0,0,-1,1504,1793,11.1288,-8.04046
287,-769,0,0,0,0,0,0,0,0,0,-1,1511,1793,0,0
294,-769,0,0,0,0,0,0,0,0,0,-1,1518,1793,0,0
301,-769,0,0,0,0,0,0,0,0,0,-1,1525,1793,0,0
308,-769,0,0,0,0,0,0,0,0,0,-1,1532,1793,0,0
315,-769,0,0,0,0,0,0,0,0,0,-1,1539,1793,0,0
322,-769,0,0,0,0,0,0,0,0,0,-1,1546,1793,0,0
329,-769,0,0,0,0,0,0,0,0,0,-1,1553,1793,0,0
336,-769,0,0,0,0,0,0,0,0,0,-1,1560,1793,0,0
343,-769,0,0,0,0,0,0,0,0,0,-1,1567,1793,0,0
350,-769,0,0,0,0,0,0,0,0,0,-1,1574,1793,0,0
357,-769,0,0,0,0,0,0,0,0,0,-1,1581,1793,0,0
364,-769,0,0,0,0,0,0,0,0,0,-1,1588,1793,0,0
371,-769,0,0,0,0,0,0,0,0,0,-1,1595,1793,0,0
378,-769,0,0,0,0,0,0,0,0,0,-1,1602,1793,0,0
385,-769,0,0,0,0,0,0,0,0,0,-1,1609,1793,0,0
392,-769,0,0,0,0,0,0,0,0,0,-1,1616,1793,0,0
399,-769,0,0,0,0,0,0,0,0,0,-1,1623,1793,0,0
406,-769,0,0,0,0,0,0,0,0,0,-1,1630,1793,0,0
413,-769,0,0,0,0,0,0,0,0,0,-1,1637,1793,0,0
420,-769,0,0,0,0,0,0,0,0,0,-1,1644,1793,0,0
427,-769,0,0,0,0,0,0,0,0,0,-1,1651,1793,0,0
434,-769,0,0,0,0,0,0,0,0,0,-1,1658,1793,0,0
441,-769,0,0,0,0,0,0,0,0,0,-1,1665,1793,0,0
448,-769,0,0,0,0,0,0,0,0,0,-1,1672,1793,0,0
455,-769,0,0,0,0,0,0,0,0,0,-1,1679,1793,0,0
462,-769,0,0,0,0,0,0,0,0,0,-1,1686,1793,0,0
469,-769,0,0,0,0,0,0,0,0,0,-1,1693,1793,0,0
476,-769,0,0,0,0,0,0,0,0,0,-1,1700,1793,0,0
483,-769,0,0,0,0,0,0,0,0,0,-1,1707,1793,0,0
490,-769,0,0,0,0,0,0,0,0,0,-1,1714,1793,0,0
497,-769,0,0,0,0,0,0,0,0,0,-1,1721,1793,0,0
504,-769,0,0,0,0,0,0,0,0,0,-1,1728,1793,0,0
511,-769,0,0,0,0,0,0,0,0,0,-1,1735,1793,0,0
518,-769,0,0,0,0,0,0,0,0,0,-1,1742,1793,0,0
525,-769,0,0,0,0,0,0,0,0,0,-1,1749,1793,0,0
532,-769,0,0,0,0,0,0,0,0,0,-1,1756,1793,0,0
539,-769,0,0,0,0,0,0,0,0,0,-1,1763,1793,0,0
546,-769,0,0,0,0,0,0,0,0,0,-1,1770,1793,0,0
553,-769,0,0,0,0,0,0,0,0,0,-1,1777,1793,0,0
560,-769,0,0,0,0,0,0,0,0,0,-1,1784,1793,0,0
567,-769,0,0,0,0,0,0,0,0,0,-1,1791,1793,0,0
574,-769,0,0,0,0,0,0,0,0,0,-1,1798,1793,0,0
581,-769,0,0,0,0,0,0,0,0,0,-1,1805,1793,0,0
588,-769,0,0,0,0,0,0,0,0,0,-1,1812,1793,0,0
595,-769,0,0,0,0,0,0,0,0,0,-1,1819,1793,0,0
602,-769,0,0,0,0,0,0,0,0,0,-1,1826,1793,0,0
609,-769,0,0,0,0,0,0,0,0,0,-1,1833,1793,0,0
616,-769,0,0,0,0,0,0,0,0,0,-1,1840,1793,0,0
623,-769,0,0,0,0,0,0,0,0,0,-1,1847,1793,0,0
630,-769,0,0,0,0,0,0,0,0,0,-1,1854,1793,0,0
637,-769,0,0,0,0,0,0,0,0,0,-1,1861,1793,0,0
644,-769,0,0,0,0,0,0,0,0,0,-1,1868,1793,0,0
651,-769,0,0,0,0,0,0,0,0,0,-1,1875,1793,0,0
658,-769,0,0,0,0,0,0,0,0,0,-1,1882,1793,0,0
665,-769,0,0,0,0,0,0,0,0,0,-1,1889,1793,0,0
672,-769,0,0,0,0,0,0,0,0,0,-1,1896,1793,0,0
679,-769,0,0,0,0,0,0,0,0,0,-1,1903,1793,0,0
686,-769,0,0,0,0,0,0,0,0,0,-1,1910,1793,0,0
693,-769,0,0,0,0,0,0,0,0,0,-1,1917,1793,0,0
700,-769,0,0,0,0,0,0,0,0,0,-1,1924,1793,0,0
707,-769,0,0,0,0,0,0,0,0,0,-1,1931,1793,0,0
714,-769,0,0,0,0,0,0,0,0,0,-1,1938,1793,0,0
721,-769,0,0,0,0,0,0,0,0,0,-1,1945,1793,0,0
728,-769,0,0,0,0,0,0,0,0,0,-1,1952,1793,0,0
735,-769,0,0,0,0,0,0,0,0,0,-1,1959,1793,0,0
742,-769,0,0,0,0,0,0,0,0,0,-1,1966,1793,0,0
749,-769,0,0,0,0,0,0,0,0,0,-1,1973,1793,0,0
756,-769,0,0,0,0,0,0,0,0,0,-1,1980,1793,0,0
763,-769,0,0,0,0,0,0,0,0,0,-1,1987,1793,0,0
770,-769,0,0,0,0,0,0,0,0,0,-1,1994,1793,0,0
777,-769,0,0,0,0,0,0,0,0,0,-1,2001,1793,0,0
784,-769,0,0,0,0,0,0,0,0,0,-1,2008,1793,0,0
791,-769,0,0,0,0,0,0,0,0,0,-1,2015,1793,0,0
798,-769,0,0,0,0,0,0,0,0,0,-1,2022,1793,0,0
805,-769,0,0,0,0,0,0,0,0,0,-1,2029,1793,0,0
812,-769,0,0,0,0,0,0,0,0,0,-1,2036,1793,0,0
-700,-776,0,0,0,0,0,0,0,0,0,-1,524,1800,0,0
-693,-776,0,0,0,0,0,0,0,0,0,-1,531,1800,0,0
-686,-776,0,0,0,0,0,0,0,0,0,-1,538,1800,0,0
-679,-776,0,0,0,0,0,0,0,0,0,-1,545,1800,0,0
-672,-776,0,0,0,0,0,0,0,0,0,-1,552,1800,0,0
-665,-776,0,0,0,0,0,0,0,0,0,-1,559,1800,0,0
-658,-776,0,0,0,0,0,0,0,0,0,-1,566,1800,0,0
-651,-776,0,0,0,0,0,0,0,0,0,-1,573,1800,0,0
-644,-776,0,0,0,0,0,0,0,0,0,-1,580,1800,0,0
-637,-776,0,0,0,0,0,0,0,0,0,-1,587,1800,0,0
-630,-776,0,0,0,0,0,0,0,0,0,-1,594,1800,0,0
-623,-776,0,0,0,0,0,0,0,0,0,-1,601,1800,0,0
-616,-776,0,0,0,0,0,0,0,0,0,-1,608,1800,0,0
-609,-776,0,0,0,0,0,0,0,0,0,-1,615,1800,0,0
-602,-776,0,0,0,0,0,0,0,0,0,-1,622,1800,0,0
-595,-776,0,0,0,0,0,0,0,0,0,-1,629,1800,0,0
-588,-776,0,0,0,0,0,0,0,0,0,-1,636,1800,0,0
-581,-776,0,0,0,0,0,0,0,0,0,-1,643,1800,0,0
-574,-776,0,0,0,0,0,0,0,0,0,-1,650,1800,0,0
-567,-776,0,0,0,0,0,0,0,0,0,-1,657,1800,0,0
-560,-776,0,0,0,0,0,0,0,0,0,-1,664,1800,0,0
-553,-776,0,0,0,0,0,0,0,0,0,-1,671,1800,0,0
-546,-776,0,0,0,0,0,0,0,0,0,-1,678,1800,0,0
-539,-776,0,0,0,0,0,0,0,0,0,-1,685,1800,0,0
-532,-776,0,0,0,0,0,0,0,0,0,-1,692,1800,0,0
-525,-776,0,0,0,0,0,0,0,0,0,-1,699,1800,0,0
-518,-776,0,0,0,0,0,0,0,0,0,-1,706,1800,0,0
-511,-776,0,0,0,0,0,0,0,0,0,-1,713,1800,0,0
-504,-776,0,0,0,0,0,0,0,0,0,-1,720,1800,0,0
-497,-776,0,0,0,0,0,0,0,0,0,-1,727,1800,0,0
-490,-776,0,0,0,0,0,0,0,0,0,-1,734,1800,0,0
-483,-776,0,0,0,0,0,0,0,0,0,-1,741,1800,0,0
-476,-776,0,0,0,0,0,0,0,0,0,-1,748,1800,0,0
-469,-776,0,0,0,0,0,0,0,0,0,-1,755,1800,0,0
-462,-776,0,0,0,0,0,0,0,0,0,-1,762,1800,0,0
-455,-776,0,0,0,0,0,0,0,0,0,-1,769,1800,0,0
-448,-776,0,0,0,0,0,0,0,0,0,-1,776,1800,0,0
-441,-776,0,0,0,0,0,0,0,0,0,-1,783,1800,0,0
-434,-776,0,0,0,0,0,0,0,0,0,-1,790,1800,0,0
-427,-776,0,0,0,0,0,0,0,0,0,-1,797,1800,0,0
-420,-776,0,0,0,0,0,0,0,0,0,-1,804,1800,0,0
-413,-776,0,0,0,0,0,0,0,0,0,-1,811,1800,0,0
-406,-776,0,0,0,0,0,0,0,0,0,-1,818,1800,0,0
-399,-776,0,0,0,0,0,0,0,0,0,-1,825,1800,0,0
-392,-776,0,0,0,0,0,0,0,0,0,-1,832,1800,0,0
-385,-776,0,0,0,0,0,0,0,0,0,-1,839,1800,0,0
-378,-776,0,0,0,0,0,0,0,0,0,-1,846,1800,0,0
-371,-776,0,0,0,0,0,0,0,0,0,-1,853,1800,0,0
-364,-776,0,0,0,0,0,0,0,0,0,-1,860,1800,0,0
-357,-776,0,0,0,0,0,0,0,0,0,-1,867,1800,0,0
-350,-776,0,0,0,0,0,0,0,0,0,-1,874,1800,0,0
-343,-776,0,0,0,0,0,0,0,0,0,-1,881,1800,0,0
-336,-776,0,0,0,0,0,0,0,0,0,-1,888,1800,0,0
-329,-776,0,0,0,0,0,0,0,0,0,-1,895,1800,0,0
-322,-776,0,0,0,0,0,0,0,0,0,-1,902,1800,0,0
-315,-776,0,0,0,0,0,0,0,0,0,-1,909,1800,0,0
-308,-776,0,0,0,0,0,0,0,0,0,-1,916,1800,0,0
-301,-776,0,0,0,0,0,0,0,0,0,-1,923,1800,0,0
-294,-776,0,0,0,0,0,0,0,0,0,-1,930,1800,0,0
-287,-776,0,0,0,0,0,0,0,0,0,-1,937,1800,0,0
-280,-776,0,0,0,0,0,0,0,0,0,-1,944,1800,0,0
-273,-776,0,0,0,0,0,0,0,0,0,-1,951,1800,0,0
-266,-776,0,0,0,0,0,0,0,0,0,-1,958,1800,0,0
-259,-776,0,0,0,0,0,0,0,0,0,-1,965,1800,0,0
-252,-776,0,0,0,0,0,0,0,0,0,-1,972,1800,0,0
-245,-776,0,0,0,0,0,0,0,0,0,-1,979,1800,0,0
-238,-776,0,0,0,0,0,0,0,0,0,-1,986,1800,0,0
-231,-776,0,0,0,0,0,0,0,0,0,-1,993,1800,0,0
-224,-776,0,0,0,0,0,0,0,0,0,-1,1000,1800,0,0
-217,-776,0,0,0,0,0,0,0,0,0,-1,1007,1800,0,0
-210,-776,0,0,0,0,0,0,0,0,0,-1,1014,1800,0,0
-203,-776,0,0,0,0,0,0,0,0,0,-1,1021,1800,0,0
-196,-776,0,0,0,0,0,0,0,0,0,-1,1028,1800,0,0
-189,-776,0,0,0,0,0,0,0,0,0,-1,1035,1800,0,0
-182,-776,0,0,0,0,0,0,0,0,0,-1,1042,1800,0,0
-175,-776,0,0,0,0,0,0,0,0,0,-1,1049,1800,0,0
-168,-776,0,0,0,0,0,0,0,0,0,-1,1056,1800,0,0
-161,-776,0,0,0,0,0,0,0,0,0,-1,1063,1800,0,0
-154,-776,0,0,0,0,0,0,0,0,0,-1,1070,1800,0,0
-147,-776,0,0,0,0,0,0,0,0,0,-1,1077,1800,0,0
-140,-776,4.03137,2.03589,0,0,0,0,0,0,0,-1,1084,1800,4.03142,-2.03594
-133,-776,3.92603,2.43945,0,0,0,0,0,0,0,-1,1091,1800,3.926,-2.43948
-126,-776,3.84546,2.75378,0,0,0,0,0,0,0,-1,1098,1800,3.84545,-2.75379
-119,-776,3.69629,2.86548,0,0,0,0,0,0,0,-1,1105,1800,3.69624,-2.86542
-112,-776,3.0553,5.98914,0,0,0,0,0,0,0,-1,1112,1800,3.05534,-5.98917
-105,-776,0.75647,6.35168,0,0,0,0,0,0,0,-1,1119,1800,0.756427,-6.35168
-98,-776,0.396362,6.30884,0,0,0,0,0,0,0,-1,1126,1800,0.396353,-6.30886
-91,-776,-0.000244141,6.27771,0,0,0,0,0,0,0,-1,1133,1800,-0.000262272,-6.27774
-84,-776,-1.30273,6.70093,0,0,0,0,0,0,0,-1,1140,1800,-1.30273,-6.70088
-77,-776,-2.17981,5.94434,-0.0426496,0.0239357,-0.0660193,0.0645819,-0.0832958,-1.01893,0.0856048,0.0442114,1147,1800,-2.17983,-5.94435
-70,-776,-2.7771,5.02222,-0.0462262,0.0222834,-0.0687019,0.0647967,-0.0887396,-1.01666,0.0890028,0.0449918,1154,1800,-2.77711,-5.02221
-63,-776,-3.26697,4.1814,0,0,0,0,0,0,0,-1,1161,1800,-3.26701,-4.18135
-56,-776,-3.15515,3.96912,0,0,0,0,0,0,0,-1,1168,1800,-3.15511,-3.96907
-49,-776,-1.06458,4.2323,0,0,0,0,0,0,0,-1,1175,1800,-1.06452,-4.23231
-42,-776,-1.78992,3.06824,0,0,0,0,0,0,0,-1,1182,1800,-1.78986,-3.06826
-35,-776,-2.33191,1.77246,0,0,0,0,0,0,0,-1,1189,1800,-2.33189,-1.77249
-28,-776,-2.55957,0.520386,0,0,0,0,0,0,0,-1,1196,1800,-2.55955,-0.520372
-21,-776,2.90686,7.43909,0,0,0,0,0,0,0,-1,1203,1800,2.90682,-7.43912
-14,-776,2.96338,7.22595,0,0,0,0,0,0,0,-1,1210,1800,2.96334,-7.22592
-7,-776,3.052,6.96582,0,0,0,0,0,0,0,-1,1217,1800,3.05204,-6.96577
0,-776,2.41296,6.20947,0,0,0,0,0,0,0,-1,1224,1800,2.41298,-6.20944
7,-776,3.20813,6.81689,0,0,0,0,0,0,0,-1,1231,1800,3.20818,-6.81692
14,-776,3.38184,7.3512,0.025291,0.0470122,0.0202088,0.0590939,0.0132094,1.03197,0.0358142,0.046159,1238,1800,3.3818,-7.35125
21,-776,3.4552,7.43494,0.0287535,0.0418233,0.019622,0.05597,0.0146068,0.946142,0.0335225,0.0460333,1245,1800,3.45523,-7.43488
28,-776,3.10791,7.15344,0,0,0,0,0,0,0,-1,1252,1800,3.10792,-7.15348
35,-776,3.41406,7.74451,0,0,0,0,0,0,0,-1,1259,1800,3.41401,-7.74451
42,-776,2.7655,7.58948,0,0,0,0,0,0,0,-1,1266,1800,2.76553,-7.5895
49,-776,2.9823,7.58118,0.0258208,0.029587,0.0206591,0.0484486,0.00695913,0.830848,0.0302474,0.0469294,1273,1800,2.98231,-7.58114
56,-776,3.16211,7.9325,0,0,0,0,0,0,0,-1,1280,1800,3.16217,-7.93249
63,-776,3.47571,8.14197,0,0,0,0,0,0,0,-1,1287,1800,3.47569,-8.14202
70,-776,1.89685,7.41931,0,0,0,0,0,0,0,-1,1294,1800,1.89687,-7.41932
77,-776,4.40857,6.10962,0,0,0,0,0,0,0,-1,1301,1800,4.40857,-6.10966
84,-776,3.92188,6.79077,0.0379941,-0.00117478,0.0257397,0.0507529,-0.0139335,0.460189,0.0393117,0.0451087,1308,1800,3.92184,-6.79074
91,-776,3.5448,7.59277,0.0471981,-0.0107291,0.0255644,0.0568665,-0.0203975,0.361571,0.0462351,0.0418468,1315,1800,3.54482,-7.59279
98,-776,3.23474,8.51038,0.058304,-0.0218476,0.0253746,0.0656617,-0.0292054,0.282225,0.0561034,0.0430558,1322,1800,3.23475,-8.51037
105,-776,3.42163,7.77185,0,0,0,0,0,0,0,-1,1329,1800,3.42164,-7.77182
112,-776,3.75195,7.88086,0,0,0,0,0,0,0,-1,1336,1800,3.75201,-7.88085
119,-776,3.37305,6.93079,0,0,0,0,0,0,0,-1,1343,1800,3.37304,-6.93073
126,-776,3.67798,7.72949,0,0,0,0,0,0,0,-1,1350,1800,3.67795,-7.72952
133,-776,3.43787,7.76135,0,0,0,0,0,0,0,-1,1357,1800,3.43781,-7.76141
140,-776,3.13232,8.37268,0,0,0,0,0,0,0,-1,1364,1800,3.13234,-8.37274
147,-776,6.46301,-0.617188,0,0,0,0,0,0,0,-1,1371,1800,6.46305,0.61724
154,-776,6.43774,0.344116,0,0,0,0,0,0,0,-1,1378,1800,6.43776,-0.344162
161,-776,6.50293,1.1731,0,0,0,0,0,0,0,-1,1385,1800,6.5029,-1.17313
168,-776,8.44971,1.22913,0,0,0,0,0,0,0,-1,1392,1800,8.44974,-1.22915
175,-776,8.61523,2.87061,0.0144573,-0.0578404,0.094126,0.0791372,-0.12252,0.602059,0.117322,0.0478196,1399,1800,8.6152,-2.87063
182,-776,8.54065,4.60645,0.0154597,-0.058112,0.098468,0.0837887,-0.126441,0.606635,0.122206,0.0429163,1406,1800,8.5407,-4.60643
189,-776,8.35303,6.28223,0.0178603,-0.057032,0.0973671,0.0847337,-0.123905,0.601824,0.121163,0.0425822,1413,1800,8.35297,-6.28225
196,-776,8.0387,8.21704,0,0,0,0,0,0,0,-1,1420,1800,8.03865,-8.217
203,-776,7.91736,9.79919,0,0,0,0,0,0,0,-1,1427,1800,7.91735,-9.79922
210,-776,7.35693,11.3057,0,0,0,0,0,0,0,-1,1434,1800,7.35692,-11.3057
217,-776,1.48315,8.46082,0,0,0,0,0,0,0,-1,1441,1800,1.48314,-8.46081
224,-776,2.80859,6.75769,0,0,0,0,0,0,0,-1,1448,1800,2.80859,-6.75763
231,-776,4.45911,6.34839,0,0,0,0,0,0,0,-1,1455,1800,4.45909,-6.34838
238,-776,1.44543,4.88574,0,0,0,0,0,0,0,-1,1462,1800,1.4454,-4.88572
245,-776,1.09741,4.24109,0,0,0,0,0,0,0,-1,1469,1800,1.09738,-4.24114
252,-776,2.38696,5.91577,0,0,0,0,0,0,0,-1,1476,1800,2.38693,-5.91577
259,-776,0.652832,3.42163,0,0,0,0,0,0,0,-1,1483,1800,0.652779,-3.42158
266,-776,0,0,0,0,0,0,0,0,0,-1,1490,1800,0,0
273,-776,0,0,0,0,0,0,0,0,0,-1,1497,1800,0,0
280,-776,0,0,0,0,0,0,0,0,0,-1,1504,1800,0,0
287,-776,0,0,0,0,0,0,0,0,0,-1,1511,1800,0,0
294,-776,0,0,0,0,0,0,0,0,0,-1,1518,1800,0,0
301,-776,0,0,0,0,0,0,0,0,0,-1,1525,1800,0,0
308,-776,0,0,0,0,0,0,0,0,0,-1,1532,1800,0,0
315,-776,0,0,0,0,0,0,0,0,0,-1,1539,1800,0,0
322,-776,0,0,0,0,0,0,0,0,0,-1,1546,1800,0,0
329,-776,0,0,0,0,0,0,0,0,0,-1,1553,1800,0,0
336,-776,0,0,0,0,0,0,0,0,0,-1,1560,1800,0,0
343,-776,0,0,0,0,0,0,0,0,0,-1,1567,1800,0,0
350,-776,0,0,0,0,0,0,0,0,0,-1,1574,1800,0,0
357,-776,0,0,0,0,0,0,0,0,0,-1,1581,1800,0,0
364,-776,0,0,0,0,0,0,0,0,0,-1,1588,1800,0,0
371,-776,0,0,0,0,0,0,0,0,0,-1,1595,1800,0,0
378,-776,0,0,0,0,0,0,0,0,0,-1,1602,1800,0,0
385,-776,0,0,0,0,0,0,0,0,0,-1,1609,1800,0,0
392,-776,0,0,0,0,0,0,0,0,0,-1,1616,1800,0,0
399,-776,0,0,0,0,0,0,0,0,0,-1,1623,1800,0,0
406,-776,0,0,0,0,0,0,0,0,0,-1,1630,1800,0,0
413,-776,0,0,0,0,0,0,0,0,0,-1,1637,1800,0,0
420,-776,0,0,0,0,0,0,0,0,0,-1,1644,1800,0,0
427,-776,0,0,0,0,0,0,0,0,0,-1,1651,1800,0,0
434,-776,0,0,0,0,0,0,0,0,0,-1,1658,1800,0,0
441,-776,0,0,0,0,0,0,0,0,0,-1,1665,1800,0,0
448,-776,0,0,0,0,0,0,0,0,0,-1,1672,1800,0,0
455,-776,0,0,0,0,0,0,0,0,0,-1,1679,1800,0,0
462,-776,0,0,0,0,0,0,0,0,0,-1,1686,1800,0,0
469,-776,0,0,0,0,0,0,0,0,0,-1,1693,1800,0,0
476,-776,0,0,0,0,0,0,0,0,0,-1,1700,1800,0,0
483,-776,0,0,0,0,0,0,0,0,0,-1,1707,1800,0,0
490,-776,0,0,0,0,0,0,0,0,0,-1,1714,1800,0,0
497,-776,0,0,0,0,0,0,0,0,0,-1,1721,1800,0,0
504,-776,0,0,0,0,0,0,0,0,0,-1,1728,1800,0,0
511,-776,0,0,0,0,0,0,0,0,0,-1,1735,1800,0,0
518,-776,0,0,0,0,0,0,0,0,0,-1,1742,1800,0,0
525,-776,0,0,0,0,0,0,0,0,0,-1,1749,1800,0,0
532,-776,0,0,0,0,0,0,0,0,0,-1,1756,1800,0,0
539,-776,0,0,0,0,0,0,0,0,0,-1,1763,1800,0,0
546,-776,0,0,0,0,0,0,0,0,0,-1,1770,1800,0,0
553,-776,0,0,0,0,0,0,0,0,0,-1,1777,1800,0,0
560,-776,0,0,0,0,0,0,0,0,0,-1,1784,1800,0,0
567,-776,0,0,0,0,0,0,0,0,0,-1,1791,1800,0,0
574,-776,0,0,0,0,0,0,0,0,0,-1,1798,1800,0,0
581,-776,0,0,0,0,0,0,0,0,0,-1,1805,1800,0,0
588,-776,0,0,0,0,0,0,0,0,0,-1,1812,1800,0,0
595,-776,0,0,0,0,0,0,0,0,0,-1,1819,1800,0,0
602,-776,0,0,0,0,0,0,0,0,0,-1,1826,1800,0,0
609,-776,0,0,0,0,0,0,0,0,0,-1,1833,1800,0,0
616,-776,0,0,0,0,0,0,0,0,0,-1,1840,1800,0,0
623,-776,0,0,0,0,0,0,0,0,0,-1,1847,1800,0,0
630,-776,0,0,0,0,0,0,0,0,0,-1,1854,1800,0,0
637,-776,0,0,0,0,0,0,0,0,0,-1,1861,1800,0,0
644,-776,0,0,0,0,0,0,0,0,0,-1,1868,1800,0,0
651,-776,0,0,0,0,0,0,0,0,0,-1,1875,1800,0,0
658,-776,0,0,0,0,0,0,0,0,0,-1,1882,1800,0,0
665,-776,0,0,0,0,0,0,0,0,0,-1,1889,1800,0,0
672,-776,0,0,0,0,0,0,0,0,0,-1,1896,1800,0,0
679,-776,0,0,0,0,0,0,0,0,0,-1,1903,1800,0,0
686,-776,0,0,0,0,0,0,0,0,0,-1,1910,1800,0,0
693,-776,0,0,0,0,0,0,0,0,0,-1,1917,1800,0,0
700,-776,0,0,0,0,0,0,0,0,0,-1,1924,1800,0,0
707,-776,0,0,0,0,0,0,0,0,0,-1,1931,1800,0,0
714,-776,0,0,0,0,0,0,0,0,0,-1,1938,1800,0,0
721,-776,0,0,0,0,0,0,0,0,0,-1,1945,1800,0,0
728,-776,0,0,0,0,0,0,0,0,0,-1,1952,1800,0,0
735,-776,0,0,0,0,0,0,0,0,0,-1,1959,1800,0,0
742,-776,0,0,0,0,0,0,0,0,0,-1,1966,1800,0,0
749,-776,0,0,0,0,0,0,0,0,0,-1,1973,1800,0,0
756,-776,0,0,0,0,0,0,0,0,0,-1,1980,1800,0,0
763,-776,0,0,0,0,0,0,0,0,0,-1,1987,1800,0,0
770,-776,0,0,0,0,0,0,0,0,0,-1,1994,1800,0,0
777,-776,0,0,0,0,0,0,0,0,0,-1,2001,1800,0,0
784,-776,0,0,0,0,0,0,0,0,0,-1,2008,1800,0,0
791,-776,0,0,0,0,0,0,0,0,0,-1,2015,1800,0,0
798,-776,0,0,0,0,0,0,0,0,0,-1,2022,1800,0,0
805,-776,0,0,0,0,0,0,0,0,0,-1,2029,1800,0,0
812,-776,0,0,0,0,0,0,0,0,0,-1,2036,1800,0,0
-700,-783,0,0,0,0,0,0,0,0,0,-1,524,1807,0,0
-693,-783,0,0,0,0,0,0,0,0,0,-1,531,1807,0,0
-686,-783,0,0,0,0,0,0,0,0,0,-1,538,1807,0,0
-679,-783,0,0,0,0,0,0,0,0,0,-1,545,1807,0,0
-672,-783,0,0,0,0,0,0,0,0,0,-1,552,1807,0,0
-665,-783,0,0,0,0,0,0,0,0,0,-1,559,1807,0,0
-658,-783,0,0,0,0,0,0,0,0,0,-1,566,1807,0,0
-651,-783,0,0,0,0,0,0,0,0,0,-1,573,1807,0,0
-644,-783,0,0,0,0,0,0,0,0,0,-1,580,1807,0,0
-637,-783,0,0,0,0,0,0,0,0,0,-1,587,1807,0,0
-630,-783,0,0,0,0,0,0,0,0,0,-1,594,1807,0,0
-623,-783,0,0,0,0,0,0,0,0,0,-1,601,1807,0,0
-616,-783,0,0,0,0,0,0,0,0,0,-1,608,1807,0,0
-609,-783,0,0,0,0,0,0,0,0,0,-1,615,1807,0,0
-602,-783,0,0,0,0,0,0,0,0,0,-1,622,1807,0,0
-595,-783,0,0,0,0,0,0,0,0,0,-1,629,1807,0,0
-588,-783,0,0,0,0,0,0,0,0,0,-1,636,1807,0,0
-581,-783,0,0,0,0,0,0,0,0,0,-1,643,1807,0,0
-574,-783,0,0,0,0,0,0,0,0,0,-1,650,1807,0,0
-567,-783,0,0,0,0,0,0,0,0,0,-1,657,1807,0,0
-560,-783,0,0,0,0,0,0,0,0,0,-1,664,1807,0,0
-553,-783,0,0,0,0,0,0,0,0,0,-1,671,1807,0,0
-546,-783,0,0,0,0,0,0,0,0,0,-1,678,1807,0,0
-539,-783,0,0,0,0,0,0,0,0,0,-1,685,1807,0,0
-532,-783,0,0,0,0,0,0,0,0,0,-1,692,1807,0,0
-525,-783,0,0,0,0,0,0,0,0,0,-1,699,1807,0,0
-518,-783,0,0,0,0,0,0,0,0,0,-1,706,1807,0,0
-511,-783,0,0,0,0,0,0,0,0,0,-1,713,1807,0,0
-504,-783,0,0,0,0,0,0,0,0,0,-1,720,1807,0,0
-497,-783,0,0,0,0,0,0,0,0,0,-1,727,1807,0,0
-490,-783,0,0,0,0,0,0,0,0,0,-1,734,1807,0,0
-483,-783,0,0,0,0,0,0,0,0,0,-1,741,1807,0,0
-476,-783,0,0,0,0,0,0,0,0,0,-1,748,1807,0,0
-469,-783,0,0,0,0,0,0,0,0,0,-1,755,1807,0,0
-462,-783,0,0,0,0,0,0,0,0,0,-1,762,1807,0,0
-455,-783,0,0,0,0,0,0,0,0,0,-1,769,1807,0,0
-448,-783,0,0,0,0,0,0,0,0,0,-1,776,1807,0,0
-441,-783,0,0,0,0,0,0,0,0,0,-1,783,1807,0,0
-434,-783,0,0,0,0,0,0,0,0,0,-1,790,1807,0,0
-427,-783,0,0,0,0,0,0,0,0,0,-1,797,1807,0,0
-420,-783,0,0,0,0,0,0,0,0,0,-1,804,1807,0,0
-413,-783,0,0,0,0,0,0,0,0,0,-1,811,1807,0,0
-406,-783,0,0,0,0,0,0,0,0,0,-1,818,1807,0,0
-399,-783,0,0,0,0,0,0,0,0,0,-1,825,1807,0,0
-392,-783,0,0,0,0,0,0,0,0,0,-1,832,1807,0,0
-385,-783,0,0,0,0,0,0,0,0,0,-1,839,1807,0,0
-378,-783,0,0,0,0,0,0,0,0,0,-1,846,1807,0,0
-371,-783,0,0,0,0,0,0,0,0,0,-1,853,1807,0,0
-364,-783,0,0,0,0,0,0,0,0,0,-1,860,1807,0,0
-357,-783,0,0,0,0,0,0,0,0,0,-1,867,1807,0,0
-350,-783,0,0,0,0,0,0,0,0,0,-1,874,1807,0,0
-343,-783,0,0,0,0,0,0,0,0,0,-1,881,1807,0,0
-336,-783,0,0,0,0,0,0,0,0,0,-1,888,1807,0,0
-329,-783,0,0,0,0,0,0,0,0,0,-1,895,1807,0,0
-322,-783,0,0,0,0,0,0,0,0,0,-1,902,1807,0,0
-315,-783,0,0,0,0,0,0,0,0,0,-1,909,1807,0,0
-308,-783,0,0,0,0,0,0,0,0,0,-1,916,1807,0,0
-301,-783,0,0,0,0,0,0,0,0,0,-1,923,1807,0,0
-294,-783,0,0,0,0,0,0,0,0,0,-1,930,1807,0,0
-287,-783,0,0,0,0,0,0,0,0,0,-1,937,1807,0,0
-280,-783,0,0,0,0,0,0,0,0,0,-1,944,1807,0,0
-273,-783,0,0,0,0,0,0,0,0,0,-1,951,1807,0,0
-266,-783,0,0,0,0,0,0,0,0,0,-1,958,1807,0,0
-259,-783,0,0,0,0,0,0,0,0,0,-1,965,1807,0,0
-252,-783,0,0,0,0,0,0,0,0,0,-1,972,1807,0,0
-245,-783,0,0,0,0,0,0,0,0,0,-1,979,1807,0,0
-238,-783,0,0,0,0,0,0,0,0,0,-1,986,1807,0,0
-231,-783,0,0,0,0,0,0,0,0,0,-1,993,1807,0,0
-224,-783,0,0,0,0,0,0,0,0,0,-1,1000,1807,0,0
-217,-783,0,0,0,0,0,0,0,0,0,-1,1007,1807,0,0
-210,-783,0,0,0,0,0,0,0,0,0,-1,1014,1807,0,0
-203,-783,0,0,0,0,0,0,0,0,0,-1,1021,1807,0,0
-196,-783,0,0,0,0,0,0,0,0,0,-1,1028,1807,0,0
-189,-783,0,0,0,0,0,0,0,0,0,-1,1035,1807,0,0
-182,-783,0,0,0,0,0,0,0,0,0,-1,1042,1807,0,0
-175,-783,0,0,0,0,0,0,0,0,0,-1,1049,1807,0,0
-168,-783,0,0,0,0,0,0,0,0,0,-1,1056,1807,0,0
-161,-783,0,0,0,0,0,0,0,0,0,-1,1063,1807,0,0
-154,-783,0,0,0,0,0,0,0,0,0,-1,1070,1807,0,0
-147,-783,0,0,0,0,0,0,0,0,0,-1,1077,1807,0,0
-140,-783,0,0,0,0,0,0,0,0,0,-1,1084,1807,0,0
-133,-783,0,0,0,0,0,0,0,0,0,-1,1091,1807,0,0
-126,-783,0,0,0,0,0,0,0,0,0,-1,1098,1807,0,0
-119,-783,0,0,0,0,0,0,0,0,0,-1,1105,1807,0,0
-112,-783,2.59387,6.42407,0,0,0,0,0,0,0,-1,1112,1807,2.59382,-6.42406
-105,-783,2.48254,6.47437,0,0,0,0,0,0,0,-1,1119,1807,2.4825,-6.47438
-98,-783,0.49939,6.15344,0,0,0,0,0,0,0,-1,1126,1807,0.499342,-6.15345
-91,-783,0.131104,5.95264,0,0,0,0,0,0,0,-1,1133,1807,0.131059,-5.95264
-84,-783,-0.539185,5.88379,0,0,0,0,0,0,0,-1,1140,1807,-0.539219,-5.88381
-77,-783,-1.3551,5.64563,-0.0513565,0.0275278,-0.0789275,0.0763196,-0.100148,-1.01711,0.102193,0.042259,1147,1807,-1.35516,-5.64558
-70,-783,-1.93176,5.12817,-0.0560102,0.0252581,-0.0823405,0.0764449,-0.107197,-1.01461,0.10652,0.0428957,1154,1807,-1.93171,-5.12813
-63,-783,-2.46729,4.38416,-0.0541171,0.0264511,-0.076135,0.0723027,-0.0999686,-1.02873,0.0998875,0.0450591,1161,1807,-2.46723,-4.38411
-56,-783,-2.95654,3.87427,-0.0503193,0.0321825,-0.0680788,0.0705328,-0.0886696,-1.05778,0.0921142,0.0477911,1168,1807,-2.95659,-3.8743
-49,-783,-3.35181,3.72632,0,0,0,0,0,0,0,-1,1175,1807,-3.35178,-3.72633
-42,-783,0.104858,3.77209,0,0,0,0,0,0,0,-1,1182,1807,0.104905,-3.77212
-35,-783,-2.55225,2.1803,0,0,0,0,0,0,0,-1,1189,1807,-2.55219,-2.18024
-28,-783,-2.73413,0.575684,0,0,0,0,0,0,0,-1,1196,1807,-2.73413,-0.575676
-21,-783,3.29773,2.4762,0,0,0,0,0,0,0,-1,1203,1807,3.29769,-2.47623
-14,-783,3.03357,5.24243,0,0,0,0,0,0,0,-1,1210,1807,3.03356,-5.24245
-7,-783,2.69531,5.31665,0.00638076,0.0792249,0.0179894,0.0834254,0.00218034,1.34141,0.0549046,0.0465839,1217,1807,2.69536,-5.3166
0,-783,2.35815,5.40662,0.0156961,0.0780662,0.0257035,0.0872937,0.00646851,1.22613,0.0561639,0.0444539,1224,1807,2.35809,-5.40663
7,-783,1.94739,5.82117,0.0232831,0.0707781,0.0272869,0.083204,0.0108572,1.14348,0.0522278,0.043861,1231,1807,1.94737,-5.82117
14,-783,3.54834,7.51001,0.0295697,0.0631655,0.0277964,0.0788455,0.0138897,1.05719,0.0485999,0.0490339,1238,1807,3.54835,-7.51005
21,-783,3.65417,7.61914,0,0,0,0,0,0,0,-1,1245,1807,3.65413,-7.61912
28,-783,1.68506,10.4976,0,0,0,0,0,0,0,-1,1252,1807,1.68506,-10.4975
35,-783,1.57959,11.1812,0,0,0,0,0,0,0,-1,1259,1807,1.57961,-11.1811
42,-783,1.41211,13.0212,0.0336941,0.0478651,0.0258936,0.0676251,0.0139341,0.918948,0.0412312,0.0462227,1266,1807,1.41213,-13.0213
49,-783,3.11389,7.50269,0.0299473,0.0422437,0.0283637,0.0651178,0.0070731,0.892128,0.0412568,0.04582,1273,1807,3.11385,-7.50271
56,-783,2.3728,8.0625,0,0,0,0,0,0,0,-1,1280,1807,2.3728,-8.06253
63,-783,2.24548,16.8473,0,0,0,0,0,0,0,-1,1287,1807,2.2455,-16.8472
70,-783,4.88733,6.38586,0,0,0,0,0,0,0,-1,1294,1807,4.88737,-6.38581
77,-783,4.73218,5.72437,0,0,0,0,0,0,0,-1,1301,1807,4.73219,-5.72441
84,-783,3.98425,6.03394,0.0512591,0.00208413,0.0329172,0.0677579,-0.0144147,0.464625,0.050665,0.0454043,1308,1807,3.9843,-6.03394
91,-783,3.60242,7.56372,0.0656172,-0.0110374,0.0322161,0.0773584,-0.0227786,0.349492,0.0606092,0.0414121,1315,1807,3.60243,-7.5637
98,-783,3.41333,9.00183,0.083919,-0.0264361,0.0308825,0.0919735,-0.0344906,0.255127,0.0754864,0.0419219,1322,1807,3.41328,-9.0018
105,-783,3.15332,10.4019,0,0,0,0,0,0,0,-1,1329,1807,3.15332,-10.4019
112,-783,3.01343,11.5212,0,0,0,0,0,0,0,-1,1336,1807,3.01347,-11.5213
119,-783,3.58398,13.0979,0,0,0,0,0,0,0,-1,1343,1807,3.58402,-13.0979
126,-783,4.05383,7.87842,0,0,0,0,0,0,0,-1,1350,1807,4.05383,-7.87847
133,-783,3.18591,8.15662,0,0,0,0,0,0,0,-1,1357,1807,3.18593,-8.15665
140,-783,6.52429,-2.36865,0,0,0,0,0,0,0,-1,1364,1807,6.52428,2.36862
147,-783,6.45825,-1.2334,0,0,0,0,0,0,0,-1,1371,1807,6.45822,1.23339
154,-783,6.37024,-0.145874,0,0,0,0,0,0,0,-1,1378,1807,6.37018,0.145866
161,-783,6.57568,1.16174,0,0,0,0,0,0,0,-1,1385,1807,6.57562,-1.1617
168,-783,8.62561,1.79944,0,0,0,0,0,0,0,-1,1392,1807,8.62561,-1.79946
175,-783,8.78699,3.40857,0.014968,-0.0669758,0.115608,0.0966494,-0.148657,0.615101,0.142685,0.0438701,1399,1807,8.78697,-3.40854
182,-783,8.70984,5.14661,0.0155901,-0.0673593,0.1215,0.102499,-0.154268,0.620921,0.149245,0.0432972,1406,1807,8.70989,-5.14666
189,-783,8.55762,6.79871,0.0182678,-0.0657786,0.120303,0.103676,-0.151187,0.617368,0.147995,0.0426484,1413,1807,8.55766,-6.79872
196,-783,8.25488,8.66626,0,0,0,0,0,0,0,-1,1420,1807,8.25492,-8.66628
203,-783,7.86755,10.5735,0,0,0,0,0,0,0,-1,1427,1807,7.8676,-10.5734
210,-783,5.6969,8.99231,0,0,0,0,0,0,0,-1,1434,1807,5.69693,-8.99234
217,-783,5.28503,3.80872,0,0,0,0,0,0,0,-1,1441,1807,5.285,-3.80868
224,-783,3.22571,6.62903,0,0,0,0,0,0,0,-1,1448,1807,3.2257,-6.62907
231,-783,4.27942,4.56262,0,0,0,0,0,0,0,-1,1455,1807,4.27948,-4.56267
238,-783,0,0,0,0,0,0,0,0,0,-1,1462,1807,0,0
245,-783,0,0,0,0,0,0,0,0,0,-1,1469,1807,0,0
252,-783,0,0,0,0,0,0,0,0,0,-1,1476,1807,0,0
259,-783,0,0,0,0,0,0,0,0,0,-1,1483,1807,0,0
266,-783,0,0,0,0,0,0,0,0,0,-1,1490,1807,0,0
273,-783,0,0,0,0,0,0,0,0,0,-1,1497,1807,0,0
280,-783,0,0,0,0,0,0,0,0,0,-1,1504,1807,0,0
287,-783,0,0,0,0,0,0,0,0,0,-1,1511,1807,0,0
294,-783,0,0,0,0,0,0,0,0,0,-1,1518,1807,0,0
301,-783,0,0,0,0,0,0,0,0,0,-1,1525,1807,0,0
308,-783,0,0,0,0,0,0,0,0,0,-1,1532,1807,0,0
315,-783,0,0,0,0,0,0,0,0,0,-1,1539,1807,0,0
322,-783,0,0,0,0,0,0,0,0,0,-1,1546,1807,0,0
329,-783,0,0,0,0,0,0,0,0,0,-1,1553,1807,0,0
336,-783,0,0,0,0,0,0,0,0,0,-1,1560,1807,0,0
343,-783,0,0,0,0,0,0,0,0,0,-1,1567,1807,0,0
350,-783,0,0,0,0,0,0,0,0,0,-1,1574,1807,0,0
357,-783,0,0,0,0,0,0,0,0,0,-1,1581,1807,0,0
364,-783,0,0,0,0,0,0,0,0,0,-1,1588,1807,0,0
371,-783,0,0,0,0,0,0,0,0,0,-1,1595,1807,0,0
378,-783,0,0,0,0,0,0,0,0,0,-1,1602,1807,0,0
385,-783,0,0,0,0,0,0,0,0,0,-1,1609,1807,0,0
392,-783,0,0,0,0,0,0,0,0,0,-1,1616,1807,0,0
399,-783,0,0,0,0,0,0,0,0,0,-1,1623,1807,0,0
406,-783,0,0,0,0,0,0,0,0,0,-1,1630,1807,0,0
413,-783,0,0,0,0,0,0,0,0,0,-1,1637,1807,0,0
420,-783,0,0,0,0,0,0,0,0,0,-1,1644,1807,0,0
427,-783,0,0,0,0,0,0,0,0,0,-1,1651,1807,0,0
434,-783,0,0,0,0,0,0,0,0,0,-1,1658,1807,0,0
441,-783,0,0,0,0,0,0,0,0,0,-1,1665,1807,0,0
448,-783,0,0,0,0,0,0,0,0,0,-1,1672,1807,0,0
455,-783,0,0,0,0,0,0,0,0,0,-1,1679,1807,0,0
462,-783,0,0,0,0,0,0,0,0,0,-1,1686,1807,0,0
469,-783,0,0,0,0,0,0,0,0,0,-1,1693,1807,0,0
476,-783,0,0,0,0,0,0,0,0,0,-1,1700,1807,0,0
483,-783,0,0,0,0,0,0,0,0,0,-1,1707,1807,0,0
490,-783,0,0,0,0,0,0,0,0,0,-1,1714,1807,0,0
497,-783,0,0,0,0,0,0,0,0,0,-1,1721,1807,0,0
504,-783,0,0,0,0,0,0,0,0,0,-1,1728,1807,0,0
511,-783,0,0,0,0,0,0,0,0,0,-1,1735,1807,0,0
518,-783,0,0,0,0,0,0,0,0,0,-1,1742,1807,0,0
525,-783,0,0,0,0,0,0,0,0,0,-1,1749,1807,0,0
532,-783,0,0,0,0,0,0,0,0,0,-1,1756,1807,0,0
539,-783,0,0,0,0,0,0,0,0,0,-1,1763,1807,0,0
546,-783,0,0,0,0,0,0,0,0,0,-1,1770,1807,0,0
553,-783,0,0,0,0,0,0,0,0,0,-1,1777,1807,0,0
560,-783,0,0,0,0,0,0,0,0,0,-1,1784,1807,0,0
567,-783,0,0,0,0,0,0,0,0,0,-1,1791,1807,0,0
574,-783,0,0,0,0,0,0,0,0,0,-1,1798,1807,0,0
581,-783,0,0,0,0,0,0,0,0,0,-1,1805,1807,0,0
588,-783,0,0,0,0,0,0,0,0,0,-1,1812,1807,0,0
595,-783,0,0,0,0,0,0,0,0,0,-1,1819,1807,0,0
602,-783,0,0,0,0,0,0,0,0,0,-1,1826,1807,0,0
609,-783,0,0,0,0,0,0,0,0,0,-1,1833,1807,0,0
616,-783,0,0,0,0,0,0,0,0,0,-1,1840,1807,0,0
623,-783,0,0,0,0,0,0,0,0,0,-1,1847,1807,0,0
630,-783,0,0,0,0,0,0,0,0,0,-1,1854,1807,0,0
637,-783,0,0,0,0,0,0,0,0,0,-1,1861,1807,0,0
644,-783,0,0,0,0,0,0,0,0,0,-1,1868,1807,0,0
651,-783,0,0,0,0,0,0,0,0,0,-1,1875,1807,0,0
658,-783,0,0,0,0,0,0,0,0,0,-1,1882,1807,0,0
665,-783,0,0,0,0,0,0,0,0,0,-1,1889,1807,0,0
672,-783,0,0,0,0,0,0,0,0,0,-1,1896,1807,0,0
679,-783,0,0,0,0,0,0,0,0,0,-1,1903,1807,0,0
686,-783,0,0,0,0,0,0,0,0,0,-1,1910,1807,0,0
693,-783,0,0,0,0,0,0,0,0,0,-1,1917,1807,0,0
700,-783,0,0,0,0,0,0,0,0,0,-1,1924,1807,0,0
707,-783,0,0,0,0,0,0,0,0,0,-1,1931,1807,0,0
714,-783,0,0,0,0,0,0,0,0,0,-1,1938,1807,0,0
721,-783,0,0,0,0,0,0,0,0,0,-1,1945,1807,0,0
728,-783,0,0,0,0,0,0,0,0,0,-1,1952,1807,0,0
735,-783,0,0,0,0,0,0,0,0,0,-1,1959,1807,0,0
742,-783,0,0,0,0,0,0,0,0,0,-1,1966,1807,0,0
749,-783,0,0,0,0,0,0,0,0,0,-1,1973,1807,0,0
756,-783,0,0,0,0,0,0,0,0,0,-1,1980,1807,0,0
763,-783,0,0,0,0,0,0,0,0,0,-1,1987,1807,0,0
770,-783,0,0,0,0,0,0,0,0,0,-1,1994,1807,0,0
777,-783,0,0,0,0,0,0,0,0,0,-1,2001,1807,0,0
784,-783,0,0,0,0,0,0,0,0,0,-1,2008,1807,0,0
791,-783,0,0,0,0,0,0,0,0,0,-1,2015,1807,0,0
798,-783,0,0,0,0,0,0,0,0,0,-1,2022,1807,0,0
805,-783,0,0,0,0,0,0,0,0,0,-1,2029,1807,0,0
812,-783,0,0,0,0,0,0,0,0,0,-1,2036,1807,0,0
-700,-790,0,0,0,0,0,0,0,0,0,-1,524,1814,0,0
-693,-790,0,0,0,0,0,0,0,0,0,-1,531,1814,0,0
-686,-790,0,0,0,0,0,0,0,0,0,-1,538,1814,0,0
-679,-790,0,0,0,0,0,0,0,0,0,-1,545,1814,0,0
-672,-790,0,0,0,0,0,0,0,0,0,-1,552,1814,0,0
-665,-790,0,0,0,0,0,0,0,0,0,-1,559,1814,0,0
-658,-790,0,0,0,0,0,0,0,0,0,-1,566,1814,0,0
-651,-790,0,0,0,0,0,0,0,0,0,-1,573,1814,0,0
-644,-790,0,0,0,0,0,0,0,0,0,-1,580,1814,0,0
-637,-790,0,0,0,0,0,0,0,0,0,-1,587,1814,0,0
-630,-790,0,0,0,0,0,0,0,0,0,-1,594,1814,0,0
-623,-790,0,0,0,0,0,0,0,0,0,-1,601,1814,0,0
-616,-790,0,0,0,0,0,0,0,0,0,-1,608,1814,0,0
-609,-790,0,0,0,0,0,0,0,0,0,-1,615,1814,0,0
-602,-790,0,0,0,0,0,0,0,0,0,-1,622,1814,0,0
-595,-790,0,0,0,0,0,0,0,0,0,-1,629,1814,0,0
-588,-790,0,0,0,0,0,0,0,0,0,-1,636,1814,0,0
-581,-790,0,0,0,0,0,0,0,0,0,-1,643,1814,0,0
-574,-790,0,0,0,0,0,0,0,0,0,-1,650,1814,0,0
-567,-790,0,0,0,0,0,0,0,0,0,-1,657,1814,0,0
-560,-790,0,0,0,0,0,0,0,0,0,-1,664,1814,0,0
-553,-790,0,0,0,0,0,0,0,0,0,-1,671,1814,0,0
-546,-790,0,0,0,0,0,0,0,0,0,-1,678,1814,0,0
-539,-790,0,0,0,0,0,0,0,0,0,-1,685,1814,0,0
-532,-790,0,0,0,0,0,0,0,0,0,-1,692,1814,0,0
-525,-790,0,0,0,0,0,0,0,0,0,-1,699,1814,0,0
-518,-790,0,0,0,0,0,0,0,0,0,-1,706,1814,0,0
-511,-790,0,0,0,0,0,0,0,0,0,-1,713,1814,0,0
-504,-790,0,0,0,0,0,0,0,0,0,-1,720,1814,0,0
-497,-790,0,0,0,0,0,0,0,0,0,-1,727,1814,0,0
-490,-790,0,0,0,0,0,0,0,0,0,-1,734,1814,0,0
-483,-790,0,0,0,0,0,0,0,0,0,-1,741,1814,0,0
-476,-790,0,0,0,0,0,0,0,0,0,-1,748,1814,0,0
-469,-790,0,0,0,0,0,0,0,0,0,-1,755,1814,0,0
-462,-790,0,0,0,0,0,0,0,0,0,-1,762,1814,0,0
-455,-790,0,0,0,0,0,0,0,0,0,-1,769,1814,0,0
-448,-790,0,0,0,0,0,0,0,0,0,-1,776,1814,0,0
-441,-790,0,0,0,0,0,0,0,0,0,-1,783,1814,0,0
-434,-790,0,0,0,0,0,0,0,0,0,-1,790,1814,0,0
-427,-790,0,0,0,0,0,0,0,0,0,-1,797,1814,0,0
-420,-790,0,0,0,0,0,0,0,0,0,-1,804,1814,0,0
-413,-790,0,0,0,0,0,0,0,0,0,-1,811,1814,0,0
-406,-790,0,0,0,0,0,0,0,0,0,-1,818,1814,0,0
-399,-790,0,0,0,0,0,0,0,0,0,-1,825,1814,0,0
-392,-790,0,0,0,0,0,0,0,0,0,-1,832,1814,0,0
-385,-790,0,0,0,0,0,0,0,0,0,-1,839,1814,0,0
-378,-790,0,0,0,0,0,0,0,0,0,-1,846,1814,0,0
-371,-790,0,0,0,0,0,0,0,0,0,-1,853,1814,0,0
-364,-790,0,0,0,0,0,0,0,0,0,-1,860,1814,0,0
-357,-790,0,0,0,0,0,0,0,0,0,-1,867,1814,0,0
-350,-790,0,0,0,0,0,0,0,0,0,-1,874,1814,0,0
-343,-790,0,0,0,0,0,0,0,0,0,-1,881,1814,0,0
-336,-790,0,0,0,0,0,0,0,0,0,-1,888,1814,0,0
-329,-790,0,0,0,0,0,0,0,0,0,-1,895,1814,0,0
-322,-790,0,0,0,0,0,0,0,0,0,-1,902,1814,0,0
-315,-790,0,0,0,0,0,0,0,0,0,-1,909,1814,0,0
-308,-790,0,0,0,0,0,0,0,0,0,-1,916,1814,0,0
-301,-790,0,0,0,0,0,0,0,0,0,-1,923,1814,0,0
-294,-790,0,0,0,0,0,0,0,0,0,-1,930,1814,0,0
-287,-790,0,0,0,0,0,0,0,0,0,-1,937,1814,0,0
-280,-790,0,0,0,0,0,0,0,0,0,-1,944,1814,0,0
-273,-790,0,0,0,0,0,0,0,0,0,-1,951,1814,0,0
-266,-790,0,0,0,0,0,0,0,0,0,-1,958,1814,0,0
-259,-790,0,0,0,0,0,0,0,0,0,-1,965,1814,0,0
-252,-790,0,0,0,0,0,0,0,0,0,-1,972,1814,0,0
-245,-790,0,0,0,0,0,0,0,0,0,-1,979,1814,0,0
-238,-790,0,0,0,0,0,0,0,0,0,-1,986,1814,0,0
-231,-790,0,0,0,0,0,0,0,0,0,-1,993,1814,0,0
-224,-790,0,0,0,0,0,0,0,0,0,-1,1000,1814,0,0
-217,-790,0,0,0,0,0,0,0,0,0,-1,1007,1814,0,0
-210,-790,0,0,0,0,0,0,0,0,0,-1,1014,1814,0,0
-203,-790,0,0,0,0,0,0,0,0,0,-1,1021,1814,0,0
-196,-790,0,0,0,0,0,0,0,0,0,-1,1028,1814,0,0
-189,-790,0,0,0,0,0,0,0,0,0,-1,1035,1814,0,0
-182,-790,0,0,0,0,0,0,0,0,0,-1,1042,1814,0,0
-175,-790,0,0,0,0,0,0,0,0,0,-1,1049,1814,0,0
-168,-790,0,0,0,0,0,0,0,0,0,-1,1056,1814,0,0
-161,-790,0,0,0,0,0,0,0,0,0,-1,1063,1814,0,0
-154,-790,0,0,0,0,0,0,0,0,0,-1,1070,1814,0,0
-147,-790,0,0,0,0,0,0,0,0,0,-1,1077,1814,0,0
-140,-790,0,0,0,0,0,0,0,0,0,-1,1084,1814,0,0
-133,-790,0,0,0,0,0,0,0,0,0,-1,1091,1814,0,0
-126,-790,0,0,0,0,0,0,0,0,0,-1,1098,1814,0,0
-119,-790,0,0,0,0,0,0,0,0,0,-1,1105,1814,0,0
-112,-790,0,0,0,0,0,0,0,0,0,-1,1112,1814,0,0
-105,-790,0,0,0,0,0,0,0,0,0,-1,1119,1814,0,0
-98,-790,0,0,0,0,0,0,0,0,0,-1,1126,1814,0,0
-91,-790,0,0,0,0,0,0,0,0,0,-1,1133,1814,0,0
-84,-790,0,0,0,0,0,0,0,0,0,-1,1140,1814,0,0
-77,-790,-0.969238,5.30847,-0.0602193,0.0320791,-0.0917052,0.0885924,-0.116733,-1.01851,0.118915,0.0454319,1147,1814,-0.969277,-5.3085
-70,-790,-1.23169,4.98914,-0.0667601,0.0285168,-0.0966089,0.0885942,-0.126838,-1.01446,0.125031,0.0455356,1154,1814,-1.23163,-4.98916
-63,-790,-1.69128,4.32263,-0.0649133,0.0307516,-0.0889768,0.083938,-0.1181,-1.03203,0.117201,0.0492101,1161,1814,-1.69128,-4.32258
-56,-790,-2.24756,3.75305,-0.0599696,0.0386684,-0.0790629,0.0825337,-0.103835,-1.06426,0.107834,0.0481553,1168,1814,-2.24758,-3.75302
-49,-790,-3.11011,3.35779,0,0,0,0,0,0,0,-1,1175,1814,-3.11006,-3.35781
-42,-790,0.593262,1.19165,0,0,0,0,0,0,0,-1,1182,1814,0.593225,-1.19165
-35,-790,0.307129,-0.20105,0,0,0,0,0,0,0,-1,1189,1814,0.307178,0.201006
-28,-790,-2.78467,0.785156,0,0,0,0,0,0,0,-1,1196,1814,-2.78471,-0.785183
-21,-790,3.47351,4.49207,0,0,0,0,0,0,0,-1,1203,1814,3.47352,-4.49208
-14,-790,3.16614,4.4707,-0.00584392,0.0928651,0.00662945,0.0933083,-0.00628717,1.50403,0.0644037,0.0438784,1210,1814,3.16615,-4.47068
-7,-790,2.82385,4.47986,0.00469265,0.0993211,0.0222232,0.10428,-0.000266511,1.35124,0.0696092,0.0475241,1217,1814,2.8239,-4.47988
0,-790,2.55359,4.23926,0.0154382,0.0999428,0.0331017,0.111365,0.00401577,1.23852,0.0729418,0.0452606,1224,1814,2.55357,-4.23923
7,-790,2.55469,5.2583,0.025093,0.0914918,0.0360214,0.10728,0.00930519,1.15772,0.0686286,0.0418984,1231,1814,2.5547,-5.25833
14,-790,3.65356,7.64294,0.0329856,0.0825749,0.0374205,0.10267,0.0128907,1.07799,0.0645799,0.0478385,1238,1814,3.65357,-7.64292
21,-790,2.40198,8.07544,0.038133,0.0752575,0.0372841,0.0983445,0.0150459,1.01636,0.0611677,0.045814,1245,1814,2.40195,-8.07547
28,-790,2.39294,9.5072,0.0406689,0.0696121,0.0362106,0.0941358,0.0161452,0.975501,0.0581278,0.0444484,1252,1814,2.39289,-9.50721
35,-790,2.21423,10.7732,0.039495,0.0671655,0.0353599,0.0913004,0.01536,0.971877,0.0564479,0.0469403,1259,1814,2.21421,-10.7732
42,-790,2.41626,12.4965,0.0374841,0.0647983,0.0353776,0.0890634,0.0132191,0.969604,0.0554965,0.0458847,1266,1814,2.41622,-12.4965
49,-790,2.78979,14.2802,0.0329034,0.0582019,0.0379528,0.0855578,0.00554743,0.946253,0.0552823,0.0480781,1273,1814,2.78974,-14.2801
56,-790,3.11133,15.4379,0.0326938,0.0472427,0.0425354,0.0831212,-0.00318473,0.870089,0.0565057,0.044357,1280,1814,3.11136,-15.4379
63,-790,2.55139,16.4583,0.0405623,0.0406897,0.0387386,0.0793647,0.00188731,0.786221,0.052292,0.0426688,1287,1814,2.55142,-16.4583
70,-790,1.86853,17.7174,0,0,0,0,0,0,0,-1,1294,1814,1.86851,-17.7174
77,-790,1.16858,18.4927,0,0,0,0,0,0,0,-1,1301,1814,1.16855,-18.4926
84,-790,0.176514,19.5725,0,0,0,0,0,0,0,-1,1308,1814,0.176453,-19.5726
91,-790,-0.113403,20.3601,0,0,0,0,0,0,0,-1,1315,1814,-0.113437,-20.3601
98,-790,3.27002,8.8269,0.117349,-0.0312825,0.0356873,0.125474,-0.0394071,0.223846,0.0994231,0.0440868,1322,1814,3.27002,-8.82685
105,-790,3.23462,10.1749,0.15645,-0.0537584,0.0276166,0.160018,-0.057326,0.128473,0.130069,0.0473642,1329,1814,3.23459,-10.1749
112,-790,3.81763,11.5565,0.201876,-0.0763084,0.0161132,0.202806,-0.0772386,0.0576659,0.167014,0.0477444,1336,1814,3.81762,-11.5566
119,-790,4.36023,13.1188,0,0,0,0,0,0,0,-1,1343,1814,4.36017,-13.1188
126,-790,0.127563,9.62476,0,0,0,0,0,0,0,-1,1350,1814,0.127561,-9.6247
133,-790,0.291992,10.0178,0,0,0,0,0,0,0,-1,1357,1814,0.291947,-10.0179
140,-790,-0.457886,11.0084,0,0,0,0,0,0,0,-1,1364,1814,-0.45785,-11.0084
147,-790,6.44666,-1.87561,0,0,0,0,0,0,0,-1,1371,1814,6.4466,1.87567
154,-790,6.34485,-0.540405,0,0,0,0,0,0,0,-1,1378,1814,6.34482,0.540409
161,-790,6.62683,1.1134,0,0,0,0,0,0,0,-1,1385,1814,6.62682,-1.11344
168,-790,7.04077,2.23279,0,0,0,0,0,0,0,-1,1392,1814,7.04082,-2.23275
175,-790,9.03918,3.98535,0,0,0,0,0,0,0,-1,1399,1814,9.0392,-3.98535
182,-790,8.96997,5.67896,0,0,0,0,0,0,0,-1,1406,1814,8.97001,-5.6789
189,-790,8.59729,6.86975,0.0162794,-0.0712362,0.145614,0.124568,-0.179525,0.639437,0.176521,0.0448011,1413,1814,8.59728,-6.86972
196,-790,8.21924,9.29053,0,0,0,0,0,0,0,-1,1420,1814,8.21924,-9.29048
203,-790,0,0,0,0,0,0,0,0,0,-1,1427,1814,0,0
210,-790,0,0,0,0,0,0,0,0,0,-1,1434,1814,0,0
217,-790,0,0,0,0,0,0,0,0,0,-1,1441,1814,0,0
224,-790,0,0,0,0,0,0,0,0,0,-1,1448,1814,0,0
231,-790,0,0,0,0,0,0,0,0,0,-1,1455,1814,0,0
238,-790,0,0,0,0,0,0,0,0,0,-1,1462,1814,0,0
245,-790,0,0,0,0,0,0,0,0,0,-1,1469,1814,0,0
252,-790,0,0,0,0,0,0,0,0,0,-1,1476,1814,0,0
259,-790,0,0,0,0,0,0,0,0,0,-1,1483,1814,0,0
266,-790,0,0,0,0,0,0,0,0,0,-1,1490,1814,0,0
273,-790,0,0,0,0,0,0,0,0,0,-1,1497,1814,0,0
280,-790,0,0,0,0,0,0,0,0,0,-1,1504,1814,0,0
287,-790,0,0,0,0,0,0,0,0,0,-1,1511,1814,0,0
294,-790,0,0,0,0,0,0,0,0,0,-1,1518,1814,0,0
301,-790,0,0,0,0,0,0,0,0,0,-1,1525,1814,0,0
308,-790,0,0,0,0,0,0,0,0,0,-1,1532,1814,0,0
315,-790,0,0,0,0,0,0,0,0,0,-1,1539,1814,0,0
322,-790,0,0,0,0,0,0,0,0,0,-1,1546,1814,0,0
329,-790,0,0,0,0,0,0,0,0,0,-1,1553,1814,0,0
336,-790,0,0,0,0,0,0,0,0,0,-1,1560,1814,0,0
343,-790,0,0,0,0,0,0,0,0,0,-1,1567,1814,0,0
350,-790,0,0,0,0,0,0,0,0,0,-1,1574,1814,0,0
357,-790,0,0,0,0,0,0,0,0,0,-1,1581,1814,0,0
364,-790,0,0,0,0,0,0,0,0,0,-1,1588,1814,0,0
371,-790,0,0,0,0,0,0,0,0,0,-1,1595,1814,0,0
378,-790,0,0,0,0,0,0,0,0,0,-1,1602,1814,0,0
385,-790,0,0,0,0,0,0,0,0,0,-1,1609,1814,0,0
392,-790,0,0,0,0,0,0,0,0,0,-1,1616,1814,0,0
399,-790,0,0,0,0,0,0,0,0,0,-1,1623,1814,0,0
406,-790,0,0,0,0,0,0,0,0,0,-1,1630,1814,0,0
413,-790,0,0,0,0,0,0,0,0,0,-1,1637,1814,0,0
420,-790,0,0,0,0,0,0,0,0,0,-1,1644,1814,0,0
427,-790,0,0,0,0,0,0,0,0,0,-1,1651,1814,0,0
434,-790,0,0,0,0,0,0,0,0,0,-1,1658,1814,0,0
441,-790,0,0,0,0,0,0,0,0,0,-1,1665,1814,0,0
448,-790,0,0,0,0,0,0,0,0,0,-1,1672,1814,0,0
455,-790,0,0,0,0,0,0,0,0,0,-1,1679,1814,0,0
462,-790,0,0,0,0,0,0,0,0,0,-1,1686,1814,0,0
469,-790,0,0,0,0,0,0,0,0,0,-1,1693,1814,0,0
476,-790,0,0,0,0,0,0,0,0,0,-1,1700,1814,0,0
483,-790,0,0,0,0,0,0,0,0,0,-1,1707,1814,0,0
490,-790,0,0,0,0,0,0,0,0,0,-1,1714,1814,0,0
497,-790,0,0,0,0,0,0,0,0,0,-1,1721,1814,0,0
504,-790,0,0,0,0,0,0,0,0,0,-1,1728,1814,0,0
511,-790,0,0,0,0,0,0,0,0,0,-1,1735,1814,0,0
518,-790,0,0,0,0,0,0,0,0,0,-1,1742,1814,0,0
525,-790,0,0,0,0,0,0,0,0,0,-1,1749,1814,0,0
532,-790,0,0,0,0,0,0,0,0,0,-1,1756,1814,0,0
539,-790,0,0,0,0,0,0,0,0,0,-1,1763,1814,0,0
546,-790,0,0,0,0,0,0,0,0,0,-1,1770,1814,0,0
553,-790,0,0,0,0,0,0,0,0,0,-1,1777,1814,0,0
560,-790,0,0,0,0,0,0,0,0,0,-1,1784,1814,0,0
567,-790,0,0,0,0,0,0,0,0,0,-1,1791,1814,0,0
574,-790,0,0,0,0,0,0,0,0,0,-1,1798,1814,0,0
581,-790,0,0,0,0,0,0,0,0,0,-1,1805,1814,0,0
588,-790,0,0,0,0,0,0,0,0,0,-1,1812,1814,0,0
595,-790,0,0,0,0,0,0,0,0,0,-1,1819,1814,0,0
602,-790,0,0,0,0,0,0,0,0,0,-1,1826,1814,0,0
609,-790,0,0,0,0,0,0,0,0,0,-1,1833,1814,0,0
616,-790,0,0,0,0,0,0,0,0,0,-1,1840,1814,0,0
623,-790,0,0,0,0,0,0,0,0,0,-1,1847,1814,0,0
630,-790,0,0,0,0,0,0,0,0,0,-1,1854,1814,0,0
637,-790,0,0,0,0,0,0,0,0,0,-1,1861,1814,0,0
644,-790,0,0,0,0,0,0,0,0,0,-1,1868,1814,0,0
651,-790,0,0,0,0,0,0,0,0,0,-1,1875,1814,0,0
658,-790,0,0,0,0,0,0,0,0,0,-1,1882,1814,0,0
665,-790,0,0,0,0,0,0,0,0,0,-1,1889,1814,0,0
672,-790,0,0,0,0,0,0,0,0,0,-1,1896,1814,0,0
679,-790,0,0,0,0,0,0,0,0,0,-1,1903,1814,0,0
686,-790,0,0,0,0,0,0,0,0,0,-1,1910,1814,0,0
693,-790,0,0,0,0,0,0,0,0,0,-1,1917,1814,0,0
700,-790,0,0,0,0,0,0,0,0,0,-1,1924,1814,0,0
707,-790,0,0,0,0,0,0,0,0,0,-1,1931,1814,0,0
714,-790,0,0,0,0,0,0,0,0,0,-1,1938,1814,0,0
721,-790,0,0,0,0,0,0,0,0,0,-1,1945,1814,0,0
728,-790,0,0,0,0,0,0,0,0,0,-1,1952,1814,0,0
735,-790,0,0,0,0,0,0,0,0,0,-1,1959,1814,0,0
742,-790,0,0,0,0,0,0,0,0,0,-1,1966,1814,0,0
749,-790,0,0,0,0,0,0,0,0,0,-1,1973,1814,0,0
756,-790,0,0,0,0,0,0,0,0,0,-1,1980,1814,0,0
763,-790,0,0,0,0,0,0,0,0,0,-1,1987,1814,0,0
770,-790,0,0,0,0,0,0,0,0,0,-1,1994,1814,0,0
777,-790,0,0,0,0,0,0,0,0,0,-1,2001,1814,0,0
784,-790,0,0,0,0,0,0,0,0,0,-1,2008,1814,0,0
791,-790,0,0,0,0,0,0,0,0,0,-1,2015,1814,0,0
798,-790,0,0,0,0,0,0,0,0,0,-1,2022,1814,0,0
805,-790,0,0,0,0,0,0,0,0,0,-1,2029,1814,0,0
812,-790,0,0,0,0,0,0,0,0,0,-1,2036,1814,0,0
-700,-797,0,0,0,0,0,0,0,0,0,-1,524,1821,0,0
-693,-797,0,0,0,0,0,0,0,0,0,-1,531,1821,0,0
-686,-797,0,0,0,0,0,0,0,0,0,-1,538,1821,0,0
-679,-797,0,0,0,0,0,0,0,0,0,-1,545,1821,0,0
-672,-797,0,0,0,0,0,0,0,0,0,-1,552,1821,0,0
-665,-797,0,0,0,0,0,0,0,0,0,-1,559,1821,0,0
-658,-797,0,0,0,0,0,0,0,0,0,-1,566,1821,0,0
-651,-797,0,0,0,0,0,0,0,0,0,-1,573,1821,0,0
-644,-797,0,0,0,0,0,0,0,0,0,-1,580,1821,0,0
-637,-797,0,0,0,0,0,0,0,0,0,-1,587,1821,0,0
-630,-797,0,0,0,0,0,0,0,0,0,-1,594,1821,0,0
-623,-797,0,0,0,0,0,0,0,0,0,-1,601,1821,0,0
-616,-797,0,0,0,0,0,0,0,0,0,-1,608,1821,0,0
-609,-797,0,0,0,0,0,0,0,0,0,-1,615,1821,0,0
-602,-797,0,0,0,0,0,0,0,0,0,-1,622,1821,0,0
-595,-797,0,0,0,0,0,0,0,0,0,-1,629,1821,0,0
-588,-797,0,0,0,0,0,0,0,0,0,-1,636,1821,0,0
-581,-797,0,0,0,0,0,0,0,0,0,-1,643,1821,0,0
-574,-797,0,0,0,0,0,0,0,0,0,-1,650,1821,0,0
-567,-797,0,0,0,0,0,0,0,0,0,-1,657,1821,0,0
-560,-797,0,0,0,0,0,0,0,0,0,-1,664,1821,0,0
-553,-797,0,0,0,0,0,0,0,0,0,-1,671,1821,0,0
-546,-797,0,0,0,0,0,0,0,0,0,-1,678,1821,0,0
-539,-797,0,0,0,0,0,0,0,0,0,-1,685,1821,0,0
-532,-797,0,0,0,0,0,0,0,0,0,-1,692,1821,0,0
-525,-797,0,0,0,0,0,0,0,0,0,-1,699,1821,0,0
-518,-797,0,0,0,0,0,0,0,0,0,-1,706,1821,0,0
-511,-797,0,0,0,0,0,0,0,0,0,-1,713,1821,0,0
-504,-797,0,0,0,0,0,0,0,0,0,-1,720,1821,0,0
-497,-797,0,0,0,0,0,0,0,0,0,-1,727,1821,0,0
-490,-797,0,0,0,0,0,0,0,0,0,-1,734,1821,0,0
-483,-797,0,0,0,0,0,0,0,0,0,-1,741,1821,0,0
-476,-797,0,0,0,0,0,0,0,0,0,-1,748,1821,0,0
-469,-797,0,0,0,0,0,0,0,0,0,-1,755,1821,0,0
-462,-797,0,0,0,0,0,0,0,0,0,-1,762,1821,0,0
-455,-797,0,0,0,0,0,0,0,0,0,-1,769,1821,0,0
-448,-797,0,0,0,0,0,0,0,0,0,-1,776,1821,0,0
-441,-797,0,0,0,0,0,0,0,0,0,-1,783,1821,0,0
-434,-797,0,0,0,0,0,0,0,0,0,-1,790,1821,0,0
-427,-797,0,0,0,0,0,0,0,0,0,-1,797,1821,0,0
-420,-797,0,0,0,0,0,0,0,0,0,-1,804,1821,0,0
-413,-797,0,0,0,0,0,0,0,0,0,-1,811,1821,0,0
-406,-797,0,0,0,0,0,0,0,0,0,-1,818,1821,0,0
-399,-797,0,0,0,0,0,0,0,0,0,-1,825,1821,0,0
-392,-797,0,0,0,0,0,0,0,0,0,-1,832,1821,0,0
-385,-797,0,0,0,0,0,0,0,0,0,-1,839,1821,0,0
-378,-797,0,0,0,0,0,0,0,0,0,-1,846,1821,0,0
-371,-797,0,0,0,0,0,0,0,0,0,-1,853,1821,0,0
-364,-797,0,0,0,0,0,0,0,0,0,-1,860,1821,0,0
-357,-797,0,0,0,0,0,0,0,0,0,-1,867,1821,0,0
-350,-797,0,0,0,0,0,0,0,0,0,-1,874,1821,0,0
-343,-797,0,0,0,0,0,0,0,0,0,-1,881,1821,0,0
-336,-797,0,0,0,0,0,0,0,0,0,-1,888,1821,0,0
-329,-797,0,0,0,0,0,0,0,0,0,-1,895,1821,0,0
-322,-797,0,0,0,0,0,0,0,0,0,-1,902,1821,0,0
-315,-797,0,0,0,0,0,0,0,0,0,-1,909,1821,0,0
-308,-797,0,0,0,0,0,0,0,0,0,-1,916,1821,0,0
-301,-797,0,0,0,0,0,0,0,0,0,-1,923,1821,0,0
-294,-797,0,0,0,0,0,0,0,0,0,-1,930,1821,0,0
-287,-797,0,0,0,0,0,0,0,0,0,-1,937,1821,0,0
-280,-797,0,0,0,0,0,0,0,0,0,-1,944,1821,0,0
-273,-797,0,0,0,0,0,0,0,0,0,-1,951,1821,0,0
-266,-797,0,0,0,0,0,0,0,0,0,-1,958,1821,0,0
-259,-797,0,0,0,0,0,0,0,0,0,-1,965,1821,0,0
-252,-797,0,0,0,0,0,0,0,0,0,-1,972,1821,0,0
-245,-797,0,0,0,0,0,0,0,0,0,-1,979,1821,0,0
-238,-797,0,0,0,0,0,0,0,0,0,-1,986,1821,0,0
-231,-797,0,0,0,0,0,0,0,0,0,-1,993,1821,0,0
-224,-797,0,0,0,0,0,0,0,0,0,-1,1000,1821,0,0
-217,-797,0,0,0,0,0,0,0,0,0,-1,1007,1821,0,0
-210,-797,0,0,0,0,0,0,0,0,0,-1,1014,1821,0,0
-203,-797,0,0,0,0,0,0,0,0,0,-1,1021,1821,0,0
-196,-797,0,0,0,0,0,0,0,0,0,-1,1028,1821,0,0
-189,-797,0,0,0,0,0,0,0,0,0,-1,1035,1821,0,0
-182,-797,0,0,0,0,0,0,0,0,0,-1,1042,1821,0,0
-175,-797,0,0,0,0,0,0,0,0,0,-1,1049,1821,0,0
-168,-797,0,0,0,0,0,0,0,0,0,-1,1056,1821,0,0
-161,-797,0,0,0,0,0,0,0,0,0,-1,1063,1821,0,0
-154,-797,0,0,0,0,0,0,0,0,0,-1,1070,1821,0,0
-147,-797,0,0,0,0,0,0,0,0,0,-1,1077,1821,0,0
-140,-797,0,0,0,0,0,0,0,0,0,-1,1084,1821,0,0
-133,-797,0,0,0,0,0,0,0,0,0,-1,1091,1821,0,0
-126,-797,0,0,0,0,0,0,0,0,0,-1,1098,1821,0,0
-119,-797,0,0,0,0,0,0,0,0,0,-1,1105,1821,0,0
-112,-797,0,0,0,0,0,0,0,0,0,-1,1112,1821,0,0
-105,-797,0,0,0,0,0,0,0,0,0,-1,1119,1821,0,0
-98,-797,0,0,0,0,0,0,0,0,0,-1,1126,1821,0,0
-91,-797,0,0,0,0,0,0,0,0,0,-1,1133,1821,0,0
-84,-797,0,0,0,0,0,0,0,0,0,-1,1140,1821,0,0
-77,-797,0,0,0,0,0,0,0,0,0,-1,1147,1821,0,0
-70,-797,0,0,0,0,0,0,0,0,0,-1,1154,1821,0,0
-63,-797,0,0,0,0,0,0,0,0,0,-1,1161,1821,0,0
-56,-797,0,0,0,0,0,0,0,0,0,-1,1168,1821,0,0
-49,-797,0,0,0,0,0,0,0,0,0,-1,1175,1821,0,0
-42,-797,0.579834,0.692871,0,0,0,0,0,0,0,-1,1182,1821,0.579856,-0.692816
-35,-797,-0.185425,5.55396,0,0,0,0,0,0,0,-1,1189,1821,-0.18542,-5.55396
-28,-797,-0.310181,4.71509,0,0,0,0,0,0,0,-1,1196,1821,-0.310228,-4.71503
-21,-797,3.33069,3.81262,0,0,0,0,0,0,0,-1,1203,1821,3.33067,-3.81268
-14,-797,3.099,3.89868,-0.00866777,0.113945,0.00900852,0.114603,-0.00932611,1.49785,0.0796929,0.0461595,1210,1821,3.09901,-3.8987
-7,-797,2.88208,3.8136,0.00227247,0.122386,0.0278677,0.128537,-0.00387819,1.35357,0.0870129,0.0493888,1217,1821,2.88211,-3.81359
0,-797,3.04407,3.21033,0.0138799,0.125172,0.0422553,0.139397,-0.000345327,1.24606,0.0930467,0.0472799,1224,1821,3.04403,-3.21029
7,-797,3.09668,4.63354,0.0253139,0.115833,0.0470463,0.135856,0.0052911,1.16842,0.0888592,0.0477555,1231,1821,3.09662,-4.63356
14,-797,2.93689,6.16614,0.0346254,0.105773,0.0497373,0.131349,0.00904953,1.09584,0.0847109,0.045729,1238,1821,2.93694,-6.16615
21,-797,3.12476,7.42297,0.0402941,0.0975975,0.0501042,0.126664,0.0112279,1.04513,0.0809598,0.0432813,1245,1821,3.12473,-7.42297
28,-797,2.95459,8.81885,0.0427734,0.0912848,0.0491683,0.121855,0.0122034,1.01454,0.0774897,0.0415241,1252,1821,2.95458,-8.81879
35,-797,2.78076,10.3969,0.0413984,0.0882557,0.0479194,0.118167,0.0114869,1.01277,0.075242,0.0470141,1259,1821,2.7807,-10.3969
42,-797,2.95447,12.0861,0.0391738,0.0857012,0.0475167,0.115343,0.00953157,1.01304,0.0739236,0.0465179,1266,1821,2.95447,-12.0861
49,-797,3.16382,13.5856,0.0337491,0.0782867,0.0498646,0.110629,0.00140668,0.995403,0.0732883,0.0459673,1273,1821,3.16381,-13.5856
56,-797,3.48364,14.8619,0.033854,0.0655855,0.0547867,0.106758,-0.00731808,0.926338,0.0737322,0.0431146,1280,1821,3.48358,-14.8619
63,-797,2.83655,16.0587,0.045106,0.057751,0.0491488,0.100982,0.00187469,0.849367,0.0667054,0.0401682,1287,1821,2.83652,-16.0587
70,-797,2.17053,16.8827,0.0508999,0.0469251,0.0486834,0.0976364,0.000188608,0.764998,0.0650282,0.0397143,1294,1821,2.17057,-16.8827
77,-797,1.74121,17.5756,0.0646111,0.0329767,0.0495767,0.100833,-0.00324489,0.63098,0.0683291,0.0416817,1301,1821,1.74117,-17.5756
84,-797,1.29761,18.4421,0.0860419,0.0146481,0.0487066,0.110732,-0.0100422,0.469166,0.0773863,0.0472957,1308,1821,1.29756,-18.4421
91,-797,0.992065,19.0961,0,0,0,0,0,0,0,-1,1315,1821,0.992073,-19.0961
98,-797,0.768555,19.3549,0.160517,-0.0358815,0.0388749,0.167932,-0.0432964,0.188474,0.128835,0.0481281,1322,1821,0.768613,-19.3548
105,-797,0.661255,19.178,0.220436,-0.0686356,0.0263168,0.222813,-0.0710119,0.0900524,0.177025,0.0459987,1329,1821,0.661287,-19.178
112,-797,4.63306,11.6364,0.28674,-0.0994619,0.00977571,0.286988,-0.0997092,0.0252908,0.231823,0.0486333,1336,1821,4.6331,-11.6363
119,-797,5.26135,13.2444,0,0,0,0,0,0,0,-1,1343,1821,5.26138,-13.2444
126,-797,2.11926,10.1621,0,0,0,0,0,0,0,-1,1350,1821,2.11921,-10.1622
133,-797,1.88062,10.7993,0,0,0,0,0,0,0,-1,1357,1821,1.88063,-10.7994
140,-797,1.57251,11.4208,0,0,0,0,0,0,0,-1,1364,1821,1.57253,-11.4208
147,-797,1.25513,12.0631,0,0,0,0,0,0,0,-1,1371,1821,1.25508,-12.0631
154,-797,6.33545,-1.19055,0,0,0,0,0,0,0,-1,1378,1821,6.33548,1.19052
161,-797,6.79199,1.12952,0,0,0,0,0,0,0,-1,1385,1821,6.79203,-1.12957
168,-797,0,0,0,0,0,0,0,0,0,-1,1392,1821,0,0
175,-797,0,0,0,0,0,0,0,0,0,-1,1399,1821,0,0
182,-797,0,0,0,0,0,0,0,0,0,-1,1406,1821,0,0
189,-797,0,0,0,0,0,0,0,0,0,-1,1413,1821,0,0
196,-797,0,0,0,0,0,0,0,0,0,-1,1420,1821,0,0
203,-797,0,0,0,0,0,0,0,0,0,-1,1427,1821,0,0
210,-797,0,0,0,0,0,0,0,0,0,-1,1434,1821,0,0
217,-797,0,0,0,0,0,0,0,0,0,-1,1441,1821,0,0
224,-797,0,0,0,0,0,0,0,0,0,-1,1448,1821,0,0
231,-797,0,0,0,0,0,0,0,0,0,-1,1455,1821,0,0
238,-797,0,0,0,0,0,0,0,0,0,-1,1462,1821,0,0
245,-797,0,0,0,0,0,0,0,0,0,-1,1469,1821,0,0
252,-797,0,0,0,0,0,0,0,0,0,-1,1476,1821,0,0
259,-797,0,0,0,0,0,0,0,0,0,-1,1483,1821,0,0
266,-797,0,0,0,0,0,0,0,0,0,-1,1490,1821,0,0
273,-797,0,0,0,0,0,0,0,0,0,-1,1497,1821,0,0
280,-797,0,0,0,0,0,0,0,0,0,-1,1504,1821,0,0
287,-797,0,0,0,0,0,0,0,0,0,-1,1511,1821,0,0
294,-797,0,0,0,0,0,0,0,0,0,-1,1518,1821,0,0
301,-797,0,0,0,0,0,0,0,0,0,-1,1525,1821,0,0
308,-797,0,0,0,0,0,0,0,0,0,-1,1532,1821,0,0
315,-797,0,0,0,0,0,0,0,0,0,-1,1539,1821,0,0
322,-797,0,0,0,0,0,0,0,0,0,-1,1546,1821,0,0
329,-797,0,0,0,0,0,0,0,0,0,-1,1553,1821,0,0
336,-797,0,0,0,0,0,0,0,0,0,-1,1560,1821,0,0
343,-797,0,0,0,0,0,0,0,0,0,-1,1567,1821,0,0
350,-797,0,0,0,0,0,0,0,0,0,-1,1574,1821,0,0
357,-797,0,0,0,0,0,0,0,0,0,-1,1581,1821,0,0
364,-797,0,0,0,0,0,0,0,0,0,-1,1588,1821,0,0
371,-797,0,0,0,0,0,0,0,0,0,-1,1595,1821,0,0
378,-797,0,0,0,0,0,0,0,0,0,-1,1602,1821,0,0
385,-797,0,0,0,0,0,0,0,0,0,-1,1609,1821,0,0
392,-797,0,0,0,0,0,0,0,0,0,-1,1616,1821,0,0
399,-797,0,0,0,0,0,0,0,0,0,-1,1623,1821,0,0
406,-797,0,0,0,0,0,0,0,0,0,-1,1630,1821,0,0
413,-797,0,0,0,0,0,0,0,0,0,-1,1637,1821,0,0
420,-797,0,0,0,0,0,0,0,0,0,-1,1644,1821,0,0
427,-797,0,0,0,0,0,0,0,0,0,-1,1651,1821,0,0
434,-797,0,0,0,0,0,0,0,0,0,-1,1658,1821,0,0
441,-797,0,0,0,0,0,0,0,0,0,-1,1665,1821,0,0
448,-797,0,0,0,0,0,0,0,0,0,-1,1672,1821,0,0
455,-797,0,0,0,0,0,0,0,0,0,-1,1679,1821,0,0
462,-797,0,0,0,0,0,0,0,0,0,-1,1686,1821,0,0
469,-797,0,0,0,0,0,0,0,0,0,-1,1693,1821,0,0
476,-797,0,0,0,0,0,0,0,0,0,-1,1700,1821,0,0
483,-797,0,0,0,0,0,0,0,0,0,-1,1707,1821,0,0
490,-797,0,0,0,0,0,0,0,0,0,-1,1714,1821,0,0
497,-797,0,0,0,0,0,0,0,0,0,-1,1721,1821,0,0
504,-797,0,0,0,0,0,0,0,0,0,-1,1728,1821,0,0
511,-797,0,0,0,0,0,0,0,0,0,-1,1735,1821,0,0
518,-797,0,0,0,0,0,0,0,0,0,-1,1742,1821,0,0
525,-797,0,0,0,0,0,0,0,0,0,-1,1749,1821,0,0
532,-797,0,0,0,0,0,0,0,0,0,-1,1756,1821,0,0
539,-797,0,0,0,0,0,0,0,0,0,-1,1763,1821,0,0
546,-797,0,0,0,0,0,0,0,0,0,-1,1770,1821,0,0
553,-797,0,0,0,0,0,0,0,0,0,-1,1777,1821,0,0
560,-797,0,0,0,0,0,0,0,0,0,-1,1784,1821,0,0
567,-797,0,0,0,0,0,0,0,0,0,-1,1791,1821,0,0
574,-797,0,0,0,0,0,0,0,0,0,-1,1798,1821,0,0
581,-797,0,0,0,0,0,0,0,0,0,-1,1805,1821,0,0
588,-797,0,0,0,0,0,0,0,0,0,-1,1812,1821,0,0
595,-797,0,0,0,0,0,0,0,0,0,-1,1819,1821,0,0
602,-797,0,0,0,0,0,0,0,0,0,-1,1826,1821,0,0
609,-797,0,0,0,0,0,0,0,0,0,-1,1833,1821,0,0
616,-797,0,0,0,0,0,0,0,0,0,-1,1840,1821,0,0
623,-797,0,0,0,0,0,0,0,0,0,-1,1847,1821,0,0
630,-797,0,0,0,0,0,0,0,0,0,-1,1854,1821,0,0
637,-797,0,0,0,0,0,0,0,0,0,-1,1861,1821,0,0
644,-797,0,0,0,0,0,0,0,0,0,-1,1868,1821,0,0
651,-797,0,0,0,0,0,0,0,0,0,-1,1875,1821,0,0
658,-797,0,0,0,0,0,0,0,0,0,-1,1882,1821,0,0
665,-797,0,0,0,0,0,0,0,0,0,-1,1889,1821,0,0
672,-797,0,0,0,0,0,0,0,0,0,-1,1896,1821,0,0
679,-797,0,0,0,0,0,0,0,0,0,-1,1903,1821,0,0
686,-797,0,0,0,0,0,0,0,0,0,-1,1910,1821,0,0
693,-797,0,0,0,0,0,0,0,0,0,-1,1917,1821,0,0
700,-797,0,0,0,0,0,0,0,0,0,-1,1924,1821,0,0
707,-797,0,0,0,0,0,0,0,0,0,-1,1931,1821,0,0
714,-797,0,0,0,0,0,0,0,0,0,-1,1938,1821,0,0
721,-797,0,0,0,0,0,0,0,0,0,-1,1945,1821,0,0
728,-797,0,0,0,0,0,0,0,0,0,-1,1952,1821,0,0
735,-797,0,0,0,0,0,0,0,0,0,-1,1959,1821,0,0
742,-797,0,0,0,0,0,0,0,0,0,-1,1966,1821,0,0
749,-797,0,0,0,0,0,0,0,0,0,-1,1973,1821,0,0
756,-797,0,0,0,0,0,0,0,0,0,-1,1980,1821,0,0
763,-797,0,0,0,0,0,0,0,0,0,-1,1987,1821,0,0
770,-797,0,0,0,0,0,0,0,0,0,-1,1994,1821,0,0
777,-797,0,0,0,0,0,0,0,0,0,-1,2001,1821,0,0
784,-797,0,0,0,0,0,0,0,0,0,-1,2008,1821,0,0
791,-797,0,0,0,0,0,0,0,0,0,-1,2015,1821,0,0
798,-797,0,0,0,0,0,0,0,0,0,-1,2022,1821,0,0
805,-797,0,0,0,0,0,0,0,0,0,-1,2029,1821,0,0
812,-797,0,0,0,0,0,0,0,0,0,-1,2036,1821,0,0
-700,-804,0,0,0,0,0,0,0,0,0,-1,524,1828,0,0
-693,-804,0,0,0,0,0,0,0,0,0,-1,531,1828,0,0
-686,-804,0,0,0,0,0,0,0,0,0,-1,538,1828,0,0
-679,-804,0,0,0,0,0,0,0,0,0,-1,545,1828,0,0
-672,-804,0,0,0,0,0,0,0,0,0,-1,552,1828,0,0
-665,-804,0,0,0,0,0,0,0,0,0,-1,559,1828,0,0
-658,-804,0,0,0,0,0,0,0,0,0,-1,566,1828,0,0
-651,-804,0,0,0,0,0,0,0,0,0,-1,573,1828,0,0
-644,-804,0,0,0,0,0,0,0,0,0,-1,580,1828,0,0
-637,-804,0,0,0,0,0,0,0,0,0,-1,587,1828,0,0
-630,-804,0,0,0,0,0,0,0,0,0,-1,594,1828,0,0
-623,-804,0,0,0,0,0,0,0,0,0,-1,601,1828,0,0
-616,-804,0,0,0,0,0,0,0,0,0,-1,608,1828,0,0
-609,-804,0,0,0,0,0,0,0,0,0,-1,615,1828,0,0
-602,-804,0,0,0,0,0,0,0,0,0,-1,622,1828,0,0
-595,-804,0,0,0,0,0,0,0,0,0,-1,629,1828,0,0
-588,-804,0,0,0,0,0,0,0,0,0,-1,636,1828,0,0
-581,-804,0,0,0,0,0,0,0,0,0,-1,643,1828,0,0
-574,-804,0,0,0,0,0,0,0,0,0,-1,650,1828,0,0
-567,-804,0,0,0,0,0,0,0,0,0,-1,657,1828,0,0
-560,-804,0,0,0,0,0,0,0,0,0,-1,664,1828,0,0
-553,-804,0,0,0,0,0,0,0,0,0,-1,671,1828,0,0
-546,-804,0,0,0,0,0,0,0,0,0,-1,678,1828,0,0
-539,-804,0,0,0,0,0,0,0,0,0,-1,685,1828,0,0
-532,-804,0,0,0,0,0,0,0,0,0,-1,692,1828,0,0
-525,-804,0,0,0,0,0,0,0,0,0,-1,699,1828,0,0
-518,-804,0,0,0,0,0,0,0,0,0,-1,706,1828,0,0
-511,-804,0,0,0,0,0,0,0,0,0,-1,713,1828,0,0
-504,-804,0,0,0,0,0,0,0,0,0,-1,720,1828,0,0
-497,-804,0,0,0,0,0,0,0,0,0,-1,727,1828,0,0
-490,-804,0,0,0,0,0,0,0,0,0,-1,734,1828,0,0
-483,-804,0,0,0,0,0,0,0,0,0,-1,741,1828,0,0
-476,-804,0,0,0,0,0,0,0,0,0,-1,748,1828,0,0
-469,-804,0,0,0,0,0,0,0,0,0,-1,755,1828,0,0
-462,-804,0,0,0,0,0,0,0,0,0,-1,762,1828,0,0
-455,-804,0,0,0,0,0,0,0,0,0,-1,769,1828,0,0
-448,-804,0,0,0,0,0,0,0,0,0,-1,776,1828,0,0
-441,-804,0,0,0,0,0,0,0,0,0,-1,783,1828,0,0
-434,-804,0,0,0,0,0,0,0,0,0,-1,790,1828,0,0
-427,-804,0,0,0,0,0,0,0,0,0,-1,797,1828,0,0
-420,-804,0,0,0,0,0,0,0,0,0,-1,804,1828,0,0
-413,-804,0,0,0,0,0,0,0,0,0,-1,811,1828,0,0
-406,-804,0,0,0,0,0,0,0,0,0,-1,818,1828,0,0
-399,-804,0,0,0,0,0,0,0,0,0,-1,825,1828,0,0
-392,-804,0,0,0,0,0,0,0,0,0,-1,832,1828,0,0
-385,-804,0,0,0,0,0,0,0,0,0,-1,839,1828,0,0
-378,-804,0,0,0,0,0,0,0,0,0,-1,846,1828,0,0
-371,-804,0,0,0,0,0,0,0,0,0,-1,853,1828,0,0
-364,-804,0,0,0,0,0,0,0,0,0,-1,860,1828,0,0
-357,-804,0,0,0,0,0,0,0,0,0,-1,867,1828,0,0
-350,-804,0,0,0,0,0,0,0,0,0,-1,874,1828,0,0
-343,-804,0,0,0,0,0,0,0,0,0,-1,881,1828,0,0
-336,-804,0,0,0,0,0,0,0,0,0,-1,888,1828,0,0
-329,-804,0,0,0,0,0,0,0,0,0,-1,895,1828,0,0
-322,-804,0,0,0,0,0,0,0,0,0,-1,902,1828,0,0
-315,-804,0,0,0,0,0,0,0,0,0,-1,909,1828,0,0
-308,-804,0,0,0,0,0,0,0,0,0,-1,916,1828,0,0
-301,-804,0,0,0,0,0,0,0,0,0,-1,923,1828,0,0
-294,-804,0,0,0,0,0,0,0,0,0,-1,930,1828,0,0
-287,-804,0,0,0,0,0,0,0,0,0,-1,937,1828,0,0
-280,-804,0,0,0,0,0,0,0,0,0,-1,944,1828,0,0
-273,-804,0,0,0,0,0,0,0,0,0,-1,951,1828,0,0
-266,-804,0,0,0,0,0,0,0,0,0,-1,958,1828,0,0
-259,-804,0,0,0,0,0,0,0,0,0,-1,965,1828,0,0
-252,-804,0,0,0,0,0,0,0,0,0,-1,972,1828,0,0
-245,-804,0,0,0,0,0,0,0,0,0,-1,979,1828,0,0
-238,-804,0,0,0,0,0,0,0,0,0,-1,986,1828,0,0
-231,-804,0,0,0,0,0,0,0,0,0,-1,993,1828,0,0
-224,-804,0,0,0,0,0,0,0,0,0,-1,1000,1828,0,0
-217,-804,0,0,0,0,0,0,0,0,0,-1,1007,1828,0,0
-210,-804,0,0,0,0,0,0,0,0,0,-1,1014,1828,0,0
-203,-804,0,0,0,0,0,0,0,0,0,-1,1021,1828,0,0
-196,-804,0,0,0,0,0,0,0,0,0,-1,1028,1828,0,0
-189,-804,0,0,0,0,0,0,0,0,0,-1,1035,1828,0,0
-182,-804,0,0,0,0,0,0,0,0,0,-1,1042,1828,0,0
-175,-804,0,0,0,0,0,0,0,0,0,-1,1049,1828,0,0
-168,-804,0,0,0,0,0,0,0,0,0,-1,1056,1828,0,0
-161,-804,0,0,0,0,0,0,0,0,0,-1,1063,1828,0,0
-154,-804,0,0,0,0,0,0,0,0,0,-1,1070,1828,0,0
-147,-804,0,0,0,0,0,0,0,0,0,-1,1077,1828,0,0
-140,-804,0,0,0,0,0,0,0,0,0,-1,1084,1828,0,0
-133,-804,0,0,0,0,0,0,0,0,0,-1,1091,1828,0,0
-126,-804,0,0,0,0,0,0,0,0,0,-1,1098,1828,0,0
-119,-804,0,0,0,0,0,0,0,0,0,-1,1105,1828,0,0
-112,-804,0,0,0,0,0,0,0,0,0,-1,1112,1828,0,0
-105,-804,0,0,0,0,0,0,0,0,0,-1,1119,1828,0,0
-98,-804,0,0,0,0,0,0,0,0,0,-1,1126,1828,0,0
-91,-804,0,0,0,0,0,0,0,0,0,-1,1133,1828,0,0
-84,-804,0,0,0,0,0,0,0,0,0,-1,1140,1828,0,0
-77,-804,0,0,0,0,0,0,0,0,0,-1,1147,1828,0,0
-70,-804,0,0,0,0,0,0,0,0,0,-1,1154,1828,0,0
-63,-804,0,0,0,0,0,0,0,0,0,-1,1161,1828,0,0
-56,-804,0,0,0,0,0,0,0,0,0,-1,1168,1828,0,0
-49,-804,0,0,0,0,0,0,0,0,0,-1,1175,1828,0,0
-42,-804,0,0,0,0,0,0,0,0,0,-1,1182,1828,0,0
-35,-804,0,0,0,0,0,0,0,0,0,-1,1189,1828,0,0
-28,-804,0,0,0,0,0,0,0,0,0,-1,1196,1828,0,0
-21,-804,0,0,0,0,0,0,0,0,0,-1,1203,1828,0,0
-14,-804,0,0,0,0,0,0,0,0,0,-1,1210,1828,0,0
-7,-804,0,0,0,0,0,0,0,0,0,-1,1217,1828,0,0
0,-804,0,0,0,0,0,0,0,0,0,-1,1224,1828,0,0
7,-804,0,0,0,0,0,0,0,0,0,-1,1231,1828,0,0
14,-804,0,0,0,0,0,0,0,0,0,-1,1238,1828,0,0
21,-804,0,0,0,0,0,0,0,0,0,-1,1245,1828,0,0
28,-804,0,0,0,0,0,0,0,0,0,-1,1252,1828,0,0
35,-804,3.21252,9.94043,0.0391175,0.114483,0.0645441,0.151539,0.00206107,1.04962,0.100346,0.0463184,1259,1828,3.2125,-9.94047
42,-804,3.45764,11.5854,0.0369596,0.111782,0.0633613,0.147952,0.000789121,1.05208,0.0983728,0.0455502,1266,1828,3.45767,-11.5854
49,-804,3.76892,12.9917,0.0307661,0.10398,0.0648657,0.141856,-0.00710928,1.0423,0.0970271,0.0441193,1273,1828,3.76894,-12.9916
56,-804,3.70862,14.2452,0.0312445,0.0899951,0.0695663,0.136134,-0.0148943,0.985173,0.0961062,0.0456049,1280,1828,3.70859,-14.2452
63,-804,3.42896,15.7878,0,0,0,0,0,0,0,-1,1287,1828,3.42892,-15.7878
70,-804,2.6366,15.7629,0.0567374,0.0674161,0.0595466,0.121862,0.00229123,0.830112,0.0804886,0.044388,1294,1828,2.63656,-15.7629
77,-804,2.27002,16.4417,0.076868,0.0498012,0.0590073,0.123874,0.00279519,0.672672,0.0816669,0.0448294,1301,1828,2.27008,-16.4416
84,-804,1.90515,17.2755,0.107937,0.0266073,0.0563831,0.13679,-0.00224528,0.472983,0.0919508,0.046223,1308,1828,1.90511,-17.2755
91,-804,0,0,0,0,0,0,0,0,0,-1,1315,1828,0,0
98,-804,0,0,0,0,0,0,0,0,0,-1,1322,1828,0,0
105,-804,0,0,0,0,0,0,0,0,0,-1,1329,1828,0,0
112,-804,0,0,0,0,0,0,0,0,0,-1,1336,1828,0,0
119,-804,0,0,0,0,0,0,0,0,0,-1,1343,1828,0,0
126,-804,0,0,0,0,0,0,0,0,0,-1,1350,1828,0,0
133,-804,0,0,0,0,0,0,0,0,0,-1,1357,1828,0,0
140,-804,0,0,0,0,0,0,0,0,0,-1,1364,1828,0,0
147,-804,0,0,0,0,0,0,0,0,0,-1,1371,1828,0,0
154,-804,0,0,0,0,0,0,0,0,0,-1,1378,1828,0,0
161,-804,0,0,0,0,0,0,0,0,0,-1,1385,1828,0,0
168,-804,0,0,0,0,0,0,0,0,0,-1,1392,1828,0,0
175,-804,0,0,0,0,0,0,0,0,0,-1,1399,1828,0,0
182,-804,0,0,0,0,0,0,0,0,0,-1,1406,1828,0,0
189,-804,0,0,0,0,0,0,0,0,0,-1,1413,1828,0,0
196,-804,0,0,0,0,0,0,0,0,0,-1,1420,1828,0,0
203,-804,0,0,0,0,0,0,0,0,0,-1,1427,1828,0,0
210,-804,0,0,0,0,0,0,0,0,0,-1,1434,1828,0,0
217,-804,0,0,0,0,0,0,0,0,0,-1,1441,1828,0,0
224,-804,0,0,0,0,0,0,0,0,0,-1,1448,1828,0,0
231,-804,0,0,0,0,0,0,0,0,0,-1,1455,1828,0,0
238,-804,0,0,0,0,0,0,0,0,0,-1,1462,1828,0,0
245,-804,0,0,0,0,0,0,0,0,0,-1,1469,1828,0,0
252,-804,0,0,0,0,0,0,0,0,0,-1,1476,1828,0,0
259,-804,0,0,0,0,0,0,0,0,0,-1,1483,1828,0,0
266,-804,0,0,0,0,0,0,0,0,0,-1,1490,1828,0,0
273,-804,0,0,0,0,0,0,0,0,0,-1,1497,1828,0,0
280,-804,0,0,0,0,0,0,0,0,0,-1,1504,1828,0,0
287,-804,0,0,0,0,0,0,0,0,0,-1,1511,1828,0,0
294,-804,0,0,0,0,0,0,0,0,0,-1,1518,1828,0,0
301,-804,0,0,0,0,0,0,0,0,0,-1,1525,1828,0,0
308,-804,0,0,0,0,0,0,0,0,0,-1,1532,1828,0,0
315,-804,0,0,0,0,0,0,0,0,0,-1,1539,1828,0,0
322,-804,0,0,0,0,0,0,0,0,0,-1,1546,1828,0,0
329,-804,0,0,0,0,0,0,0,0,0,-1,1553,1828,0,0
336,-804,0,0,0,0,0,0,0,0,0,-1,1560,1828,0,0
343,-804,0,0,0,0,0,0,0,0,0,-1,1567,1828,0,0
350,-804,0,0,0,0,0,0,0,0,0,-1,1574,1828,0,0
357,-804,0,0,0,0,0,0,0,0,0,-1,1581,1828,0,0
364,-804,0,0,0,0,0,0,0,0,0,-1,1588,1828,0,0
371,-804,0,0,0,0,0,0,0,0,0,-1,1595,1828,0,0
378,-804,0,0,0,0,0,0,0,0,0,-1,1602,1828,0,0
385,-804,0,0,0,0,0,0,0,0,0,-1,1609,1828,0,0
392,-804,0,0,0,0,0,0,0,0,0,-1,1616,1828,0,0
399,-804,0,0,0,0,0,0,0,0,0,-1,1623,1828,0,0
406,-804,0,0,0,0,0,0,0,0,0,-1,1630,1828,0,0
413,-804,0,0,0,0,0,0,0,0,0,-1,1637,1828,0,0
420,-804,0,0,0,0,0,0,0,0,0,-1,1644,1828,0,0
427,-804,0,0,0,0,0,0,0,0,0,-1,1651,1828,0,0
434,-804,0,0,0,0,0,0,0,0,0,-1,1658,1828,0,0
441,-804,0,0,0,0,0,0,0,0,0,-1,1665,1828,0,0
448,-804,0,0,0,0,0,0,0,0,0,-1,1672,1828,0,0
455,-804,0,0,0,0,0,0,0,0,0,-1,1679,1828,0,0
462,-804,0,0,0,0,0,0,0,0,0,-1,1686,1828,0,0
469,-804,0,0,0,0,0,0,0,0,0,-1,1693,1828,0,0
476,-804,0,0,0,0,0,0,0,0,0,-1,1700,1828,0,0
483,-804,0,0,0,0,0,0,0,0,0,-1,1707,1828,0,0
490,-804,0,0,0,0,0,0,0,0,0,-1,1714,1828,0,0
497,-804,0,0,0,0,0,0,0,0,0,-1,1721,1828,0,0
504,-804,0,0,0,0,0,0,0,0,0,-1,1728,1828,0,0
511,-804,0,0,0,0,0,0,0,0,0,-1,1735,1828,0,0
518,-804,0,0,0,0,0,0,0,0,0,-1,1742,1828,0,0
525,-804,0,0,0,0,0,0,0,0,0,-1,1749,1828,0,0
532,-804,0,0,0,0,0,0,0,0,0,-1,1756,1828,0,0
539,-804,0,0,0,0,0,0,0,0,0,-1,1763,1828,0,0
546,-804,0,0,0,0,0,0,0,0,0,-1,1770,1828,0,0
553,-804,0,0,0,0,0,0,0,0,0,-1,1777,1828,0,0
560,-804,0,0,0,0,0,0,0,0,0,-1,1784,1828,0,0
567,-804,0,0,0,0,0,0,0,0,0,-1,1791,1828,0,0
574,-804,0,0,0,0,0,0,0,0,0,-1,1798,1828,0,0
581,-804,0,0,0,0,0,0,0,0,0,-1,1805,1828,0,0
588,-804,0,0,0,0,0,0,0,0,0,-1,1812,1828,0,0
595,-804,0,0,0,0,0,0,0,0,0,-1,1819,1828,0,0
602,-804,0,0,0,0,0,0,0,0,0,-1,1826,1828,0,0
609,-804,0,0,0,0,0,0,0,0,0,-1,1833,1828,0,0
616,-804,0,0,0,0,0,0,0,0,0,-1,1840,1828,0,0
623,-804,0,0,0,0,0,0,0,0,0,-1,1847,1828,0,0
630,-804,0,0,0,0,0,0,0,0,0,-1,1854,1828,0,0
637,-804,0,0,0,0,0,0,0,0,0,-1,1861,1828,0,0
644,-804,0,0,0,0,0,0,0,0,0,-1,1868,1828,0,0
651,-804,0,0,0,0,0,0,0,0,0,-1,1875,1828,0,0
658,-804,0,0,0,0,0,0,0,0,0,-1,1882,1828,0,0
665,-804,0,0,0,0,0,0,0,0,0,-1,1889,1828,0,0
672,-804,0,0,0,0,0,0,0,0,0,-1,1896,1828,0,0
679,-804,0,0,0,0,0,0,0,0,0,-1,1903,1828,0,0
686,-804,0,0,0,0,0,0,0,0,0,-1,1910,1828,0,0
693,-804,0,0,0,0,0,0,0,0,0,-1,1917,1828,0,0
700,-804,0,0,0,0,0,0,0,0,0,-1,1924,1828,0,0
707,-804,0,0,0,0,0,0,0,0,0,-1,1931,1828,0,0
714,-804,0,0,0,0,0,0,0,0,0,-1,1938,1828,0,0
721,-804,0,0,0,0,0,0,0,0,0,-1,1945,1828,0,0
728,-804,0,0,0,0,0,0,0,0,0,-1,1952,1828,0,0
735,-804,0,0,0,0,0,0,0,0,0,-1,1959,1828,0,0
742,-804,0,0,0,0,0,0,0,0,0,-1,1966,1828,0,0
749,-804,0,0,0,0,0,0,0,0,0,-1,1973,1828,0,0
756,-804,0,0,0,0,0,0,0,0,0,-1,1980,1828,0,0
763,-804,0,0,0,0,0,0,0,0,0,-1,1987,1828,0,0
770,-804,0,0,0,0,0,0,0,0,0,-1,1994,1828,0,0
777,-804,0,0,0,0,0,0,0,0,0,-1,2001,1828,0,0
784,-804,0,0,0,0,0,0,0,0,0,-1,2008,1828,0,0
791,-804,0,0,0,0,0,0,0,0,0,-1,2015,1828,0,0
798,-804,0,0,0,0,0,0,0,0,0,-1,2022,1828,0,0
805,-804,0,0,0,0,0,0,0,0,0,-1,2029,1828,0,0
812,-804,0,0,0,0,0,0,0,0,0,-1,2036,1828,0,0

