 "x_c",  "y_c",  "u_c",  "v_c",  "exx",  "eyy",  "exy",  "e1",  "e2",  "gamma",  "e_vonmises",  "sigma",  "x",  "y",  "u",  "v"
-700,715,0,0,0,0,0,0,0,0,0,-1,524,309,0,0
-693,715,0,0,0,0,0,0,0,0,0,-1,531,309,0,0
-686,715,0,0,0,0,0,0,0,0,0,-1,538,309,0,0
-679,715,0,0,0,0,0,0,0,0,0,-1,545,309,0,0
-672,715,0,0,0,0,0,0,0,0,0,-1,552,309,0,0
-665,715,0,0,0,0,0,0,0,0,0,-1,559,309,0,0
-658,715,0,0,0,0,0,0,0,0,0,-1,566,309,0,0
-651,715,0,0,0,0,0,0,0,0,0,-1,573,309,0,0
-644,715,0,0,0,0,0,0,0,0,0,-1,580,309,0,0
-637,715,0,0,0,0,0,0,0,0,0,-1,587,309,0,0
-630,715,0,0,0,0,0,0,0,0,0,-1,594,309,0,0
-623,715,0,0,0,0,0,0,0,0,0,-1,601,309,0,0
-616,715,0,0,0,0,0,0,0,0,0,-1,608,309,0,0
-609,715,0,0,0,0,0,0,0,0,0,-1,615,309,0,0
-602,715,0,0,0,0,0,0,0,0,0,-1,622,309,0,0
-595,715,0,0,0,0,0,0,0,0,0,-1,629,309,0,0
-588,715,0,0,0,0,0,0,0,0,0,-1,636,309,0,0
-581,715,0,0,0,0,0,0,0,0,0,-1,643,309,0,0
-574,715,0,0,0,0,0,0,0,0,0,-1,650,309,0,0
-567,715,0,0,0,0,0,0,0,0,0,-1,657,309,0,0
-560,715,0,0,0,0,0,0,0,0,0,-1,664,309,0,0
-553,715,0,0,0,0,0,0,0,0,0,-1,671,309,0,0
-546,715,0,0,0,0,0,0,0,0,0,-1,678,309,0,0
-539,715,0,0,0,0,0,0,0,0,0,-1,685,309,0,0
-532,715,0,0,0,0,0,0,0,0,0,-1,692,309,0,0
-525,715,0,0,0,0,0,0,0,0,0,-1,699,309,0,0
-518,715,0,0,0,0,0,0,0,0,0,-1,706,309,0,0
-511,715,0,0,0,0,0,0,0,0,0,-1,713,309,0,0
-504,715,0,0,0,0,0,0,0,0,0,-1,720,309,0,0
-497,715,0,0,0,0,0,0,0,0,0,-1,727,309,0,0
-490,715,0,0,0,0,0,0,0,0,0,-1,734,309,0,0
-483,715,0,0,0,0,0,0,0,0,0,-1,741,309,0,0
-476,715,0,0,0,0,0,0,0,0,0,-1,748,309,0,0
-469,715,0,0,0,0,0,0,0,0,0,-1,755,309,0,0
-462,715,0,0,0,0,0,0,0,0,0,-1,762,309,0,0
-455,715,0,0,0,0,0,0,0,0,0,-1,769,309,0,0
-448,715,0,0,0,0,0,0,0,0,0,-1,776,309,0,0
-441,715,0,0,0,0,0,0,0,0,0,-1,783,309,0,0
-434,715,0,0,0,0,0,0,0,0,0,-1,790,309,0,0
-427,715,0,0,0,0,0,0,0,0,0,-1,797,309,0,0
-420,715,0,0,0,0,0,0,0,0,0,-1,804,309,0,0
-413,715,0,0,0,0,0,0,0,0,0,-1,811,309,0,0
-406,715,0,0,0,0,0,0,0,0,0,-1,818,309,0,0
-399,715,0,0,0,0,0,0,0,0,0,-1,825,309,0,0
-392,715,0,0,0,0,0,0,0,0,0,-1,832,309,0,0
-385,715,0,0,0,0,0,0,0,0,0,-1,839,309,0,0
-378,715,0,0,0,0,0,0,0,0,0,-1,846,309,0,0
-371,715,0,0,0,0,0,0,0,0,0,-1,853,309,0,0
-364,715,0,0,0,0,0,0,0,0,0,-1,860,309,0,0
-357,715,0,0,0,0,0,0,0,0,0,-1,867,309,0,0
-350,715,0,0,0,0,0,0,0,0,0,-1,874,309,0,0
-343,715,0,0,0,0,0,0,0,0,0,-1,881,309,0,0
-336,715,0,0,0,0,0,0,0,0,0,-1,888,309,0,0
-329,715,0,0,0,0,0,0,0,0,0,-1,895,309,0,0
-322,715,0,0,0,0,0,0,0,0,0,-1,902,309,0,0
-315,715,0,0,0,0,0,0,0,0,0,-1,909,309,0,0
-308,715,0,0,0,0,0,0,0,0,0,-1,916,309,0,0
-301,715,0,0,0,0,0,0,0,0,0,-1,923,309,0,0
-294,715,0,0,0,0,0,0,0,0,0,-1,930,309,0,0
-287,715,0,0,0,0,0,0,0,0,0,-1,937,309,0,0
-280,715,0,0,0,0,0,0,0,0,0,-1,944,309,0,0
-273,715,0,0,0,0,0,0,0,0,0,-1,951,309,0,0
-266,715,0,0,0,0,0,0,0,0,0,-1,958,309,0,0
-259,715,0,0,0,0,0,0,0,0,0,-1,965,309,0,0
-252,715,0,0,0,0,0,0,0,0,0,-1,972,309,0,0
-245,715,0,0,0,0,0,0,0,0,0,-1,979,309,0,0
-238,715,0,0,0,0,0,0,0,0,0,-1,986,309,0,0
-231,715,0,0,0,0,0,0,0,0,0,-1,993,309,0,0
-224,715,0,0,0,0,0,0,0,0,0,-1,1000,309,0,0
-217,715,0,0,0,0,0,0,0,0,0,-1,1007,309,0,0
-210,715,0,0,0,0,0,0,0,0,0,-1,1014,309,0,0
-203,715,0,0,0,0,0,0,0,0,0,-1,1021,309,0,0
-196,715,0,0,0,0,0,0,0,0,0,-1,1028,309,0,0
-189,715,0,0,0,0,0,0,0,0,0,-1,1035,309,0,0
-182,715,0,0,0,0,0,0,0,0,0,-1,1042,309,0,0
-175,715,0,0,0,0,0,0,0,0,0,-1,1049,309,0,0
-168,715,0,0,0,0,0,0,0,0,0,-1,1056,309,0,0
-161,715,0,0,0,0,0,0,0,0,0,-1,1063,309,0,0
-154,715,0,0,0,0,0,0,0,0,0,-1,1070,309,0,0
-147,715,0,0,0,0,0,0,0,0,0,-1,1077,309,0,0
-140,715,0,0,0,0,0,0,0,0,0,-1,1084,309,0,0
-133,715,0,0,0,0,0,0,0,0,0,-1,1091,309,0,0
-126,715,0,0,0,0,0,0,0,0,0,-1,1098,309,0,0
-119,715,0,0,0,0,0,0,0,0,0,-1,1105,309,0,0
-112,715,0,0,0,0,0,0,0,0,0,-1,1112,309,0,0
-105,715,0,0,0,0,0,0,0,0,0,-1,1119,309,0,0
-98,715,0,0,0,0,0,0,0,0,0,-1,1126,309,0,0
-91,715,0,0,0,0,0,0,0,0,0,-1,1133,309,0,0
-84,715,0,0,0,0,0,0,0,0,0,-1,1140,309,0,0
-77,715,0,0,0,0,0,0,0,0,0,-1,1147,309,0,0
-70,715,0,0,0,0,0,0,0,0,0,-1,1154,309,0,0
-63,715,0,0,0,0,0,0,0,0,0,-1,1161,309,0,0
-56,715,0,0,0,0,0,0,0,0,0,-1,1168,309,0,0
-49,715,0,0,0,0,0,0,0,0,0,-1,1175,309,0,0
-42,715,0,0,0,0,0,0,0,0,0,-1,1182,309,0,0
-35,715,0,0,0,0,0,0,0,0,0,-1,1189,309,0,0
-28,715,0,0,0,0,0,0,0,0,0,-1,1196,309,0,0
-21,715,0,0,0,0,0,0,0,0,0,-1,1203,309,0,0
-14,715,0,0,0,0,0,0,0,0,0,-1,1210,309,0,0
-7,715,0,0,0,0,0,0,0,0,0,-1,1217,309,0,0
0,715,0,0,0,0,0,0,0,0,0,-1,1224,309,0,0
7,715,0,0,0,0,0,0,0,0,0,-1,1231,309,0,0
14,715,0,0,0,0,0,0,0,0,0,-1,1238,309,0,0
21,715,0,0,0,0,0,0,0,0,0,-1,1245,309,0,0
28,715,0,0,0,0,0,0,0,0,0,-1,1252,309,0,0
35,715,0,0,0,0,0,0,0,0,0,-1,1259,309,0,0
42,715,0,0,0,0,0,0,0,0,0,-1,1266,309,0,0
49,715,0,0,0,0,0,0,0,0,0,-1,1273,309,0,0
56,715,0,0,0,0,0,0,0,0,0,-1,1280,309,0,0
63,715,11.1786,-58.7831,0.0732826,0.149351,0.0543188,0.177627,0.0450059,1.09083,0.106631,0.044734,1287,309,11.1786,58.7831
70,715,11.8795,-59.2782,0.0656496,0.122492,0.0588715,0.159444,0.0286979,1.01028,0.0981386,0.0442991,1294,309,11.8795,59.2782
77,715,0,0,0,0,0,0,0,0,0,-1,1301,309,0,0
84,715,0,0,0,0,0,0,0,0,0,-1,1308,309,0,0
91,715,0,0,0,0,0,0,0,0,0,-1,1315,309,0,0
98,715,0,0,0,0,0,0,0,0,0,-1,1322,309,0,0
105,715,0,0,0,0,0,0,0,0,0,-1,1329,309,0,0
112,715,0,0,0,0,0,0,0,0,0,-1,1336,309,0,0
119,715,0,0,0,0,0,0,0,0,0,-1,1343,309,0,0
126,715,0,0,0,0,0,0,0,0,0,-1,1350,309,0,0
133,715,0,0,0,0,0,0,0,0,0,-1,1357,309,0,0
140,715,0,0,0,0,0,0,0,0,0,-1,1364,309,0,0
147,715,0,0,0,0,0,0,0,0,0,-1,1371,309,0,0
154,715,0,0,0,0,0,0,0,0,0,-1,1378,309,0,0
161,715,0,0,0,0,0,0,0,0,0,-1,1385,309,0,0
168,715,0,0,0,0,0,0,0,0,0,-1,1392,309,0,0
175,715,0,0,0,0,0,0,0,0,0,-1,1399,309,0,0
182,715,0,0,0,0,0,0,0,0,0,-1,1406,309,0,0
189,715,0,0,0,0,0,0,0,0,0,-1,1413,309,0,0
196,715,0,0,0,0,0,0,0,0,0,-1,1420,309,0,0
203,715,0,0,0,0,0,0,0,0,0,-1,1427,309,0,0
210,715,0,0,0,0,0,0,0,0,0,-1,1434,309,0,0
217,715,0,0,0,0,0,0,0,0,0,-1,1441,309,0,0
224,715,0,0,0,0,0,0,0,0,0,-1,1448,309,0,0
231,715,0,0,0,0,0,0,0,0,0,-1,1455,309,0,0
238,715,0,0,0,0,0,0,0,0,0,-1,1462,309,0,0
245,715,0,0,0,0,0,0,0,0,0,-1,1469,309,0,0
252,715,0,0,0,0,0,0,0,0,0,-1,1476,309,0,0
259,715,0,0,0,0,0,0,0,0,0,-1,1483,309,0,0
266,715,0,0,0,0,0,0,0,0,0,-1,1490,309,0,0
273,715,0,0,0,0,0,0,0,0,0,-1,1497,309,0,0
280,715,0,0,0,0,0,0,0,0,0,-1,1504,309,0,0
287,715,0,0,0,0,0,0,0,0,0,-1,1511,309,0,0
294,715,0,0,0,0,0,0,0,0,0,-1,1518,309,0,0
301,715,0,0,0,0,0,0,0,0,0,-1,1525,309,0,0
308,715,0,0,0,0,0,0,0,0,0,-1,1532,309,0,0
315,715,0,0,0,0,0,0,0,0,0,-1,1539,309,0,0
322,715,0,0,0,0,0,0,0,0,0,-1,1546,309,0,0
329,715,0,0,0,0,0,0,0,0,0,-1,1553,309,0,0
336,715,0,0,0,0,0,0,0,0,0,-1,1560,309,0,0
343,715,0,0,0,0,0,0,0,0,0,-1,1567,309,0,0
350,715,0,0,0,0,0,0,0,0,0,-1,1574,309,0,0
357,715,0,0,0,0,0,0,0,0,0,-1,1581,309,0,0
364,715,0,0,0,0,0,0,0,0,0,-1,1588,309,0,0
371,715,0,0,0,0,0,0,0,0,0,-1,1595,309,0,0
378,715,0,0,0,0,0,0,0,0,0,-1,1602,309,0,0
385,715,0,0,0,0,0,0,0,0,0,-1,1609,309,0,0
392,715,0,0,0,0,0,0,0,0,0,-1,1616,309,0,0
399,715,0,0,0,0,0,0,0,0,0,-1,1623,309,0,0
406,715,0,0,0,0,0,0,0,0,0,-1,1630,309,0,0
413,715,0,0,0,0,0,0,0,0,0,-1,1637,309,0,0
420,715,0,0,0,0,0,0,0,0,0,-1,1644,309,0,0
427,715,0,0,0,0,0,0,0,0,0,-1,1651,309,0,0
434,715,0,0,0,0,0,0,0,0,0,-1,1658,309,0,0
441,715,0,0,0,0,0,0,0,0,0,-1,1665,309,0,0
448,715,0,0,0,0,0,0,0,0,0,-1,1672,309,0,0
455,715,0,0,0,0,0,0,0,0,0,-1,1679,309,0,0
462,715,0,0,0,0,0,0,0,0,0,-1,1686,309,0,0
469,715,0,0,0,0,0,0,0,0,0,-1,1693,309,0,0
476,715,0,0,0,0,0,0,0,0,0,-1,1700,309,0,0
483,715,0,0,0,0,0,0,0,0,0,-1,1707,309,0,0
490,715,0,0,0,0,0,0,0,0,0,-1,1714,309,0,0
497,715,0,0,0,0,0,0,0,0,0,-1,1721,309,0,0
504,715,0,0,0,0,0,0,0,0,0,-1,1728,309,0,0
511,715,0,0,0,0,0,0,0,0,0,-1,1735,309,0,0
518,715,0,0,0,0,0,0,0,0,0,-1,1742,309,0,0
525,715,0,0,0,0,0,0,0,0,0,-1,1749,309,0,0
532,715,0,0,0,0,0,0,0,0,0,-1,1756,309,0,0
539,715,0,0,0,0,0,0,0,0,0,-1,1763,309,0,0
546,715,0,0,0,0,0,0,0,0,0,-1,1770,309,0,0
553,715,0,0,0,0,0,0,0,0,0,-1,1777,309,0,0
560,715,0,0,0,0,0,0,0,0,0,-1,1784,309,0,0
567,715,0,0,0,0,0,0,0,0,0,-1,1791,309,0,0
574,715,0,0,0,0,0,0,0,0,0,-1,1798,309,0,0
581,715,0,0,0,0,0,0,0,0,0,-1,1805,309,0,0
588,715,0,0,0,0,0,0,0,0,0,-1,1812,309,0,0
595,715,0,0,0,0,0,0,0,0,0,-1,1819,309,0,0
602,715,0,0,0,0,0,0,0,0,0,-1,1826,309,0,0
609,715,0,0,0,0,0,0,0,0,0,-1,1833,309,0,0
616,715,0,0,0,0,0,0,0,0,0,-1,1840,309,0,0
623,715,0,0,0,0,0,0,0,0,0,-1,1847,309,0,0
630,715,0,0,0,0,0,0,0,0,0,-1,1854,309,0,0
637,715,0,0,0,0,0,0,0,0,0,-1,1861,309,0,0
644,715,0,0,0,0,0,0,0,0,0,-1,1868,309,0,0
651,715,0,0,0,0,0,0,0,0,0,-1,1875,309,0,0
658,715,0,0,0,0,0,0,0,0,0,-1,1882,309,0,0
665,715,0,0,0,0,0,0,0,0,0,-1,1889,309,0,0
672,715,0,0,0,0,0,0,0,0,0,-1,1896,309,0,0
679,715,0,0,0,0,0,0,0,0,0,-1,1903,309,0,0
686,715,0,0,0,0,0,0,0,0,0,-1,1910,309,0,0
693,715,0,0,0,0,0,0,0,0,0,-1,1917,309,0,0
700,715,0,0,0,0,0,0,0,0,0,-1,1924,309,0,0
707,715,0,0,0,0,0,0,0,0,0,-1,1931,309,0,0
714,715,0,0,0,0,0,0,0,0,0,-1,1938,309,0,0
721,715,0,0,0,0,0,0,0,0,0,-1,1945,309,0,0
728,715,0,0,0,0,0,0,0,0,0,-1,1952,309,0,0
735,715,0,0,0,0,0,0,0,0,0,-1,1959,309,0,0
742,715,0,0,0,0,0,0,0,0,0,-1,1966,309,0,0
749,715,0,0,0,0,0,0,0,0,0,-1,1973,309,0,0
756,715,0,0,0,0,0,0,0,0,0,-1,1980,309,0,0
763,715,0,0,0,0,0,0,0,0,0,-1,1987,309,0,0
770,715,0,0,0,0,0,0,0,0,0,-1,1994,309,0,0
777,715,0,0,0,0,0,0,0,0,0,-1,2001,309,0,0
784,715,0,0,0,0,0,0,0,0,0,-1,2008,309,0,0
791,715,0,0,0,0,0,0,0,0,0,-1,2015,309,0,0
798,715,0,0,0,0,0,0,0,0,0,-1,2022,309,0,0
805,715,0,0,0,0,0,0,0,0,0,-1,2029,309,0,0
812,715,0,0,0,0,0,0,0,0,0,-1,2036,309,0,0
-700,708,0,0,0,0,0,0,0,0,0,-1,524,316,0,0
-693,708,0,0,0,0,0,0,0,0,0,-1,531,316,0,0
-686,708,0,0,0,0,0,0,0,0,0,-1,538,316,0,0
-679,708,0,0,0,0,0,0,0,0,0,-1,545,316,0,0
-672,708,0,0,0,0,0,0,0,0,0,-1,552,316,0,0
-665,708,0,0,0,0,0,0,0,0,0,-1,559,316,0,0
-658,708,0,0,0,0,0,0,0,0,0,-1,566,316,0,0
-651,708,0,0,0,0,0,0,0,0,0,-1,573,316,0,0
-644,708,0,0,0,0,0,0,0,0,0,-1,580,316,0,0
-637,708,0,0,0,0,0,0,0,0,0,-1,587,316,0,0
-630,708,0,0,0,0,0,0,0,0,0,-1,594,316,0,0
-623,708,0,0,0,0,0,0,0,0,0,-1,601,316,0,0
-616,708,0,0,0,0,0,0,0,0,0,-1,608,316,0,0
-609,708,0,0,0,0,0,0,0,0,0,-1,615,316,0,0
-602,708,0,0,0,0,0,0,0,0,0,-1,622,316,0,0
-595,708,0,0,0,0,0,0,0,0,0,-1,629,316,0,0
-588,708,0,0,0,0,0,0,0,0,0,-1,636,316,0,0
-581,708,0,0,0,0,0,0,0,0,0,-1,643,316,0,0
-574,708,0,0,0,0,0,0,0,0,0,-1,650,316,0,0
-567,708,0,0,0,0,0,0,0,0,0,-1,657,316,0,0
-560,708,0,0,0,0,0,0,0,0,0,-1,664,316,0,0
-553,708,0,0,0,0,0,0,0,0,0,-1,671,316,0,0
-546,708,0,0,0,0,0,0,0,0,0,-1,678,316,0,0
-539,708,0,0,0,0,0,0,0,0,0,-1,685,316,0,0
-532,708,0,0,0,0,0,0,0,0,0,-1,692,316,0,0
-525,708,0,0,0,0,0,0,0,0,0,-1,699,316,0,0
-518,708,0,0,0,0,0,0,0,0,0,-1,706,316,0,0
-511,708,0,0,0,0,0,0,0,0,0,-1,713,316,0,0
-504,708,0,0,0,0,0,0,0,0,0,-1,720,316,0,0
-497,708,0,0,0,0,0,0,0,0,0,-1,727,316,0,0
-490,708,0,0,0,0,0,0,0,0,0,-1,734,316,0,0
-483,708,0,0,0,0,0,0,0,0,0,-1,741,316,0,0
-476,708,0,0,0,0,0,0,0,0,0,-1,748,316,0,0
-469,708,0,0,0,0,0,0,0,0,0,-1,755,316,0,0
-462,708,0,0,0,0,0,0,0,0,0,-1,762,316,0,0
-455,708,0,0,0,0,0,0,0,0,0,-1,769,316,0,0
-448,708,0,0,0,0,0,0,0,0,0,-1,776,316,0,0
-441,708,0,0,0,0,0,0,0,0,0,-1,783,316,0,0
-434,708,0,0,0,0,0,0,0,0,0,-1,790,316,0,0
-427,708,0,0,0,0,0,0,0,0,0,-1,797,316,0,0
-420,708,0,0,0,0,0,0,0,0,0,-1,804,316,0,0
-413,708,0,0,0,0,0,0,0,0,0,-1,811,316,0,0
-406,708,0,0,0,0,0,0,0,0,0,-1,818,316,0,0
-399,708,0,0,0,0,0,0,0,0,0,-1,825,316,0,0
-392,708,0,0,0,0,0,0,0,0,0,-1,832,316,0,0
-385,708,0,0,0,0,0,0,0,0,0,-1,839,316,0,0
-378,708,0,0,0,0,0,0,0,0,0,-1,846,316,0,0
-371,708,0,0,0,0,0,0,0,0,0,-1,853,316,0,0
-364,708,0,0,0,0,0,0,0,0,0,-1,860,316,0,0
-357,708,0,0,0,0,0,0,0,0,0,-1,867,316,0,0
-350,708,0,0,0,0,0,0,0,0,0,-1,874,316,0,0
-343,708,0,0,0,0,0,0,0,0,0,-1,881,316,0,0
-336,708,0,0,0,0,0,0,0,0,0,-1,888,316,0,0
-329,708,0,0,0,0,0,0,0,0,0,-1,895,316,0,0
-322,708,0,0,0,0,0,0,0,0,0,-1,902,316,0,0
-315,708,0,0,0,0,0,0,0,0,0,-1,909,316,0,0
-308,708,0,0,0,0,0,0,0,0,0,-1,916,316,0,0
-301,708,0,0,0,0,0,0,0,0,0,-1,923,316,0,0
-294,708,0,0,0,0,0,0,0,0,0,-1,930,316,0,0
-287,708,0,0,0,0,0,0,0,0,0,-1,937,316,0,0
-280,708,0,0,0,0,0,0,0,0,0,-1,944,316,0,0
-273,708,0,0,0,0,0,0,0,0,0,-1,951,316,0,0
-266,708,0,0,0,0,0,0,0,0,0,-1,958,316,0,0
-259,708,0,0,0,0,0,0,0,0,0,-1,965,316,0,0
-252,708,0,0,0,0,0,0,0,0,0,-1,972,316,0,0
-245,708,0,0,0,0,0,0,0,0,0,-1,979,316,0,0
-238,708,0,0,0,0,0,0,0,0,0,-1,986,316,0,0
-231,708,0,0,0,0,0,0,0,0,0,-1,993,316,0,0
-224,708,0,0,0,0,0,0,0,0,0,-1,1000,316,0,0
-217,708,0,0,0,0,0,0,0,0,0,-1,1007,316,0,0
-210,708,0,0,0,0,0,0,0,0,0,-1,1014,316,0,0
-203,708,0,0,0,0,0,0,0,0,0,-1,1021,316,0,0
-196,708,0,0,0,0,0,0,0,0,0,-1,1028,316,0,0
-189,708,0,0,0,0,0,0,0,0,0,-1,1035,316,0,0
-182,708,0,0,0,0,0,0,0,0,0,-1,1042,316,0,0
-175,708,0,0,0,0,0,0,0,0,0,-1,1049,316,0,0
-168,708,0,0,0,0,0,0,0,0,0,-1,1056,316,0,0
-161,708,0,0,0,0,0,0,0,0,0,-1,1063,316,0,0
-154,708,0,0,0,0,0,0,0,0,0,-1,1070,316,0,0
-147,708,0,0,0,0,0,0,0,0,0,-1,1077,316,0,0
-140,708,0,0,0,0,0,0,0,0,0,-1,1084,316,0,0
-133,708,0,0,0,0,0,0,0,0,0,-1,1091,316,0,0
-126,708,0,0,0,0,0,0,0,0,0,-1,1098,316,0,0
-119,708,0,0,0,0,0,0,0,0,0,-1,1105,316,0,0
-112,708,0,0,0,0,0,0,0,0,0,-1,1112,316,0,0
-105,708,0,0,0,0,0,0,0,0,0,-1,1119,316,0,0
-98,708,0,0,0,0,0,0,0,0,0,-1,1126,316,0,0
-91,708,0,0,0,0,0,0,0,0,0,-1,1133,316,0,0
-84,708,0,0,0,0,0,0,0,0,0,-1,1140,316,0,0
-77,708,0,0,0,0,0,0,0,0,0,-1,1147,316,0,0
-70,708,0,0,0,0,0,0,0,0,0,-1,1154,316,0,0
-63,708,0,0,0,0,0,0,0,0,0,-1,1161,316,0,0
-56,708,0,0,0,0,0,0,0,0,0,-1,1168,316,0,0
-49,708,0,0,0,0,0,0,0,0,0,-1,1175,316,0,0
-42,708,0,0,0,0,0,0,0,0,0,-1,1182,316,0,0
-35,708,-2.71204,-6.31558,0,0,0,0,0,0,0,-1,1189,316,-2.712,6.3156
-28,708,-2.92371,-5.53253,0,0,0,0,0,0,0,-1,1196,316,-2.92375,5.53254
-21,708,-0.417969,-24.5911,0,0,0,0,0,0,0,-1,1203,316,-0.418022,24.5911
-14,708,7.4126,-58.4666,0,0,0,0,0,0,0,-1,1210,316,7.41261,58.4666
-7,708,6.72913,-58.3953,0,0,0,0,0,0,0,-1,1217,316,6.72918,58.3953
0,708,6.04578,-58.324,0,0,0,0,0,0,0,-1,1224,316,6.04576,58.324
7,708,7.57776,-57.3801,0,0,0,0,0,0,0,-1,1231,316,7.57775,57.3801
14,708,8.94849,-60.2791,0,0,0,0,0,0,0,-1,1238,316,8.94854,60.2791
21,708,8.52393,-60.8009,0,0,0,0,0,0,0,-1,1245,316,8.52395,60.8009
28,708,8.0155,-60.3315,0.0187394,0.196266,0.0279514,0.200563,0.0144425,1.41826,0.129164,0.0448406,1252,316,8.01549,60.3315
35,708,7.3999,-60.0901,0.0315507,0.192128,0.0316838,0.198153,0.0255252,1.38286,0.124469,0.0443578,1259,316,7.39984,60.0901
42,708,10.1932,-59.142,0.0390953,0.183889,0.0358005,0.192257,0.0307272,1.34118,0.119256,0.0446615,1266,316,10.1932,59.142
49,708,10.3461,-59.5157,0,0,0,0,0,0,0,-1,1273,316,10.3461,59.5156
56,708,10.3444,-59.8731,0.0476452,0.161879,0.0415995,0.175422,0.034102,1.25606,0.107401,0.0459463,1280,316,10.3444,59.8731
63,708,10.8398,-60.0025,0.0440847,0.142174,0.0452843,0.159883,0.0263757,1.19802,0.0989751,0.0424097,1287,316,10.8398,60.0025
70,708,11.3303,-60.2046,0.0403021,0.118285,0.0500214,0.142716,0.0158706,1.11645,0.09032,0.0422469,1294,316,11.3303,60.2046
77,708,11.8412,-60.4711,0,0,0,0,0,0,0,-1,1301,316,11.8412,60.4711
84,708,6.68433,-71.0471,0.0369826,0.0669542,0.0642258,0.117919,-0.0139825,0.900012,0.0836642,0.0448887,1308,316,6.68429,71.0471
91,708,6.50256,-69.5111,0.0333486,0.0401286,0.0719592,0.108778,-0.0353004,0.808936,0.0867143,0.0464305,1315,316,6.50251,69.5111
98,708,6.17212,-68.0391,0,0,0,0,0,0,0,-1,1322,316,6.17215,68.0391
105,708,6.39661,-66.7216,0.0367698,-0.00726233,0.0881766,0.105637,-0.0761298,0.663059,0.105403,0.0456696,1329,316,6.39656,66.7216
112,708,6.76282,-65.5575,0.0440476,-0.0246238,0.0981673,0.113711,-0.0942869,0.617165,0.120262,0.0429967,1336,316,6.76278,65.5575
119,708,6.17224,-64.7023,0,0,0,0,0,0,0,-1,1343,316,6.17222,64.7023
126,708,7.10657,-65.8757,0,0,0,0,0,0,0,-1,1350,316,7.1066,65.8757
133,708,8.33911,-65.3554,0,0,0,0,0,0,0,-1,1357,316,8.33906,65.3554
140,708,9.4928,-64.7908,0,0,0,0,0,0,0,-1,1364,316,9.49284,64.7908
147,708,10.8173,-64.3736,0,0,0,0,0,0,0,-1,1371,316,10.8173,64.3736
154,708,0,0,0,0,0,0,0,0,0,-1,1378,316,0,0
161,708,0,0,0,0,0,0,0,0,0,-1,1385,316,0,0
168,708,0,0,0,0,0,0,0,0,0,-1,1392,316,0,0
175,708,0,0,0,0,0,0,0,0,0,-1,1399,316,0,0
182,708,0,0,0,0,0,0,0,0,0,-1,1406,316,0,0
189,708,0,0,0,0,0,0,0,0,0,-1,1413,316,0,0
196,708,0,0,0,0,0,0,0,0,0,-1,1420,316,0,0
203,708,0,0,0,0,0,0,0,0,0,-1,1427,316,0,0
210,708,0,0,0,0,0,0,0,0,0,-1,1434,316,0,0
217,708,0,0,0,0,0,0,0,0,0,-1,1441,316,0,0
224,708,0,0,0,0,0,0,0,0,0,-1,1448,316,0,0
231,708,0,0,0,0,0,0,0,0,0,-1,1455,316,0,0
238,708,0,0,0,0,0,0,0,0,0,-1,1462,316,0,0
245,708,0,0,0,0,0,0,0,0,0,-1,1469,316,0,0
252,708,0,0,0,0,0,0,0,0,0,-1,1476,316,0,0
259,708,0,0,0,0,0,0,0,0,0,-1,1483,316,0,0
266,708,0,0,0,0,0,0,0,0,0,-1,1490,316,0,0
273,708,0,0,0,0,0,0,0,0,0,-1,1497,316,0,0
280,708,0,0,0,0,0,0,0,0,0,-1,1504,316,0,0
287,708,0,0,0,0,0,0,0,0,0,-1,1511,316,0,0
294,708,0,0,0,0,0,0,0,0,0,-1,1518,316,0,0
301,708,0,0,0,0,0,0,0,0,0,-1,1525,316,0,0
308,708,0,0,0,0,0,0,0,0,0,-1,1532,316,0,0
315,708,0,0,0,0,0,0,0,0,0,-1,1539,316,0,0
322,708,0,0,0,0,0,0,0,0,0,-1,1546,316,0,0
329,708,0,0,0,0,0,0,0,0,0,-1,1553,316,0,0
336,708,0,0,0,0,0,0,0,0,0,-1,1560,316,0,0
343,708,0,0,0,0,0,0,0,0,0,-1,1567,316,0,0
350,708,0,0,0,0,0,0,0,0,0,-1,1574,316,0,0
357,708,0,0,0,0,0,0,0,0,0,-1,1581,316,0,0
364,708,0,0,0,0,0,0,0,0,0,-1,1588,316,0,0
371,708,0,0,0,0,0,0,0,0,0,-1,1595,316,0,0
378,708,0,0,0,0,0,0,0,0,0,-1,1602,316,0,0
385,708,0,0,0,0,0,0,0,0,0,-1,1609,316,0,0
392,708,0,0,0,0,0,0,0,0,0,-1,1616,316,0,0
399,708,0,0,0,0,0,0,0,0,0,-1,1623,316,0,0
406,708,0,0,0,0,0,0,0,0,0,-1,1630,316,0,0
413,708,0,0,0,0,0,0,0,0,0,-1,1637,316,0,0
420,708,0,0,0,0,0,0,0,0,0,-1,1644,316,0,0
427,708,0,0,0,0,0,0,0,0,0,-1,1651,316,0,0
434,708,0,0,0,0,0,0,0,0,0,-1,1658,316,0,0
441,708,0,0,0,0,0,0,0,0,0,-1,1665,316,0,0
448,708,0,0,0,0,0,0,0,0,0,-1,1672,316,0,0
455,708,0,0,0,0,0,0,0,0,0,-1,1679,316,0,0
462,708,0,0,0,0,0,0,0,0,0,-1,1686,316,0,0
469,708,0,0,0,0,0,0,0,0,0,-1,1693,316,0,0
476,708,0,0,0,0,0,0,0,0,0,-1,1700,316,0,0
483,708,0,0,0,0,0,0,0,0,0,-1,1707,316,0,0
490,708,0,0,0,0,0,0,0,0,0,-1,1714,316,0,0
497,708,0,0,0,0,0,0,0,0,0,-1,1721,316,0,0
504,708,0,0,0,0,0,0,0,0,0,-1,1728,316,0,0
511,708,0,0,0,0,0,0,0,0,0,-1,1735,316,0,0
518,708,0,0,0,0,0,0,0,0,0,-1,1742,316,0,0
525,708,0,0,0,0,0,0,0,0,0,-1,1749,316,0,0
532,708,0,0,0,0,0,0,0,0,0,-1,1756,316,0,0
539,708,0,0,0,0,0,0,0,0,0,-1,1763,316,0,0
546,708,0,0,0,0,0,0,0,0,0,-1,1770,316,0,0
553,708,0,0,0,0,0,0,0,0,0,-1,1777,316,0,0
560,708,0,0,0,0,0,0,0,0,0,-1,1784,316,0,0
567,708,0,0,0,0,0,0,0,0,0,-1,1791,316,0,0
574,708,0,0,0,0,0,0,0,0,0,-1,1798,316,0,0
581,708,0,0,0,0,0,0,0,0,0,-1,1805,316,0,0
588,708,0,0,0,0,0,0,0,0,0,-1,1812,316,0,0
595,708,0,0,0,0,0,0,0,0,0,-1,1819,316,0,0
602,708,0,0,0,0,0,0,0,0,0,-1,1826,316,0,0
609,708,0,0,0,0,0,0,0,0,0,-1,1833,316,0,0
616,708,0,0,0,0,0,0,0,0,0,-1,1840,316,0,0
623,708,0,0,0,0,0,0,0,0,0,-1,1847,316,0,0
630,708,0,0,0,0,0,0,0,0,0,-1,1854,316,0,0
637,708,0,0,0,0,0,0,0,0,0,-1,1861,316,0,0
644,708,0,0,0,0,0,0,0,0,0,-1,1868,316,0,0
651,708,0,0,0,0,0,0,0,0,0,-1,1875,316,0,0
658,708,0,0,0,0,0,0,0,0,0,-1,1882,316,0,0
665,708,0,0,0,0,0,0,0,0,0,-1,1889,316,0,0
672,708,0,0,0,0,0,0,0,0,0,-1,1896,316,0,0
679,708,0,0,0,0,0,0,0,0,0,-1,1903,316,0,0
686,708,0,0,0,0,0,0,0,0,0,-1,1910,316,0,0
693,708,0,0,0,0,0,0,0,0,0,-1,1917,316,0,0
700,708,0,0,0,0,0,0,0,0,0,-1,1924,316,0,0
707,708,0,0,0,0,0,0,0,0,0,-1,1931,316,0,0
714,708,0,0,0,0,0,0,0,0,0,-1,1938,316,0,0
721,708,0,0,0,0,0,0,0,0,0,-1,1945,316,0,0
728,708,0,0,0,0,0,0,0,0,0,-1,1952,316,0,0
735,708,0,0,0,0,0,0,0,0,0,-1,1959,316,0,0
742,708,0,0,0,0,0,0,0,0,0,-1,1966,316,0,0
749,708,0,0,0,0,0,0,0,0,0,-1,1973,316,0,0
756,708,0,0,0,0,0,0,0,0,0,-1,1980,316,0,0
763,708,0,0,0,0,0,0,0,0,0,-1,1987,316,0,0
770,708,0,0,0,0,0,0,0,0,0,-1,1994,316,0,0
777,708,0,0,0,0,0,0,0,0,0,-1,2001,316,0,0
784,708,0,0,0,0,0,0,0,0,0,-1,2008,316,0,0
791,708,0,0,0,0,0,0,0,0,0,-1,2015,316,0,0
798,708,0,0,0,0,0,0,0,0,0,-1,2022,316,0,0
805,708,0,0,0,0,0,0,0,0,0,-1,2029,316,0,0
812,708,0,0,0,0,0,0,0,0,0,-1,2036,316,0,0
-700,701,0,0,0,0,0,0,0,0,0,-1,524,323,0,0
-693,701,0,0,0,0,0,0,0,0,0,-1,531,323,0,0
-686,701,0,0,0,0,0,0,0,0,0,-1,538,323,0,0
-679,701,0,0,0,0,0,0,0,0,0,-1,545,323,0,0
-672,701,0,0,0,0,0,0,0,0,0,-1,552,323,0,0
-665,701,0,0,0,0,0,0,0,0,0,-1,559,323,0,0
-658,701,0,0,0,0,0,0,0,0,0,-1,566,323,0,0
-651,701,0,0,0,0,0,0,0,0,0,-1,573,323,0,0
-644,701,0,0,0,0,0,0,0,0,0,-1,580,323,0,0
-637,701,0,0,0,0,0,0,0,0,0,-1,587,323,0,0
-630,701,0,0,0,0,0,0,0,0,0,-1,594,323,0,0
-623,701,0,0,0,0,0,0,0,0,0,-1,601,323,0,0
-616,701,0,0,0,0,0,0,0,0,0,-1,608,323,0,0
-609,701,0,0,0,0,0,0,0,0,0,-1,615,323,0,0
-602,701,0,0,0,0,0,0,0,0,0,-1,622,323,0,0
-595,701,0,0,0,0,0,0,0,0,0,-1,629,323,0,0
-588,701,0,0,0,0,0,0,0,0,0,-1,636,323,0,0
-581,701,0,0,0,0,0,0,0,0,0,-1,643,323,0,0
-574,701,0,0,0,0,0,0,0,0,0,-1,650,323,0,0
-567,701,0,0,0,0,0,0,0,0,0,-1,657,323,0,0
-560,701,0,0,0,0,0,0,0,0,0,-1,664,323,0,0
-553,701,0,0,0,0,0,0,0,0,0,-1,671,323,0,0
-546,701,0,0,0,0,0,0,0,0,0,-1,678,323,0,0
-539,701,0,0,0,0,0,0,0,0,0,-1,685,323,0,0
-532,701,0,0,0,0,0,0,0,0,0,-1,692,323,0,0
-525,701,0,0,0,0,0,0,0,0,0,-1,699,323,0,0
-518,701,0,0,0,0,0,0,0,0,0,-1,706,323,0,0
-511,701,0,0,0,0,0,0,0,0,0,-1,713,323,0,0
-504,701,0,0,0,0,0,0,0,0,0,-1,720,323,0,0
-497,701,0,0,0,0,0,0,0,0,0,-1,727,323,0,0
-490,701,0,0,0,0,0,0,0,0,0,-1,734,323,0,0
-483,701,0,0,0,0,0,0,0,0,0,-1,741,323,0,0
-476,701,0,0,0,0,0,0,0,0,0,-1,748,323,0,0
-469,701,0,0,0,0,0,0,0,0,0,-1,755,323,0,0
-462,701,0,0,0,0,0,0,0,0,0,-1,762,323,0,0
-455,701,0,0,0,0,0,0,0,0,0,-1,769,323,0,0
-448,701,0,0,0,0,0,0,0,0,0,-1,776,323,0,0
-441,701,0,0,0,0,0,0,0,0,0,-1,783,323,0,0
-434,701,0,0,0,0,0,0,0,0,0,-1,790,323,0,0
-427,701,0,0,0,0,0,0,0,0,0,-1,797,323,0,0
-420,701,0,0,0,0,0,0,0,0,0,-1,804,323,0,0
-413,701,0,0,0,0,0,0,0,0,0,-1,811,323,0,0
-406,701,0,0,0,0,0,0,0,0,0,-1,818,323,0,0
-399,701,0,0,0,0,0,0,0,0,0,-1,825,323,0,0
-392,701,0,0,0,0,0,0,0,0,0,-1,832,323,0,0
-385,701,0,0,0,0,0,0,0,0,0,-1,839,323,0,0
-378,701,0,0,0,0,0,0,0,0,0,-1,846,323,0,0
-371,701,0,0,0,0,0,0,0,0,0,-1,853,323,0,0
-364,701,0,0,0,0,0,0,0,0,0,-1,860,323,0,0
-357,701,0,0,0,0,0,0,0,0,0,-1,867,323,0,0
-350,701,0,0,0,0,0,0,0,0,0,-1,874,323,0,0
-343,701,0,0,0,0,0,0,0,0,0,-1,881,323,0,0
-336,701,0,0,0,0,0,0,0,0,0,-1,888,323,0,0
-329,701,0,0,0,0,0,0,0,0,0,-1,895,323,0,0
-322,701,0,0,0,0,0,0,0,0,0,-1,902,323,0,0
-315,701,0,0,0,0,0,0,0,0,0,-1,909,323,0,0
-308,701,0,0,0,0,0,0,0,0,0,-1,916,323,0,0
-301,701,0,0,0,0,0,0,0,0,0,-1,923,323,0,0
-294,701,0,0,0,0,0,0,0,0,0,-1,930,323,0,0
-287,701,0,0,0,0,0,0,0,0,0,-1,937,323,0,0
-280,701,0,0,0,0,0,0,0,0,0,-1,944,323,0,0
-273,701,0,0,0,0,0,0,0,0,0,-1,951,323,0,0
-266,701,0,0,0,0,0,0,0,0,0,-1,958,323,0,0
-259,701,0,0,0,0,0,0,0,0,0,-1,965,323,0,0
-252,701,0,0,0,0,0,0,0,0,0,-1,972,323,0,0
-245,701,0,0,0,0,0,0,0,0,0,-1,979,323,0,0
-238,701,0,0,0,0,0,0,0,0,0,-1,986,323,0,0
-231,701,0,0,0,0,0,0,0,0,0,-1,993,323,0,0
-224,701,0,0,0,0,0,0,0,0,0,-1,1000,323,0,0
-217,701,0,0,0,0,0,0,0,0,0,-1,1007,323,0,0
-210,701,0,0,0,0,0,0,0,0,0,-1,1014,323,0,0
-203,701,0,0,0,0,0,0,0,0,0,-1,1021,323,0,0
-196,701,0,0,0,0,0,0,0,0,0,-1,1028,323,0,0
-189,701,0,0,0,0,0,0,0,0,0,-1,1035,323,0,0
-182,701,0,0,0,0,0,0,0,0,0,-1,1042,323,0,0
-175,701,0,0,0,0,0,0,0,0,0,-1,1049,323,0,0
-168,701,0,0,0,0,0,0,0,0,0,-1,1056,323,0,0
-161,701,0,0,0,0,0,0,0,0,0,-1,1063,323,0,0
-154,701,0,0,0,0,0,0,0,0,0,-1,1070,323,0,0
-147,701,0,0,0,0,0,0,0,0,0,-1,1077,323,0,0
-140,701,0,0,0,0,0,0,0,0,0,-1,1084,323,0,0
-133,701,0,0,0,0,0,0,0,0,0,-1,1091,323,0,0
-126,701,0,0,0,0,0,0,0,0,0,-1,1098,323,0,0
-119,701,0,0,0,0,0,0,0,0,0,-1,1105,323,0,0
-112,701,0,0,0,0,0,0,0,0,0,-1,1112,323,0,0
-105,701,0,0,0,0,0,0,0,0,0,-1,1119,323,0,0
-98,701,0,0,0,0,0,0,0,0,0,-1,1126,323,0,0
-91,701,0,0,0,0,0,0,0,0,0,-1,1133,323,0,0
-84,701,0,0,0,0,0,0,0,0,0,-1,1140,323,0,0
-77,701,0,0,0,0,0,0,0,0,0,-1,1147,323,0,0
-70,701,-12.7566,-30.413,0,0,0,0,0,0,0,-1,1154,323,-12.7566,30.413
-63,701,-18.3169,-21.2322,0,0,0,0,0,0,0,-1,1161,323,-18.3169,21.2322
-56,701,-0.420166,-0.101776,0,0,0,0,0,0,0,-1,1168,323,-0.420119,0.101777
-49,701,-1.09021,-0.155762,0,0,0,0,0,0,0,-1,1175,323,-1.09024,0.155768
-42,701,-0.210327,-0.299133,0,0,0,0,0,0,0,-1,1182,323,-0.210379,0.29914
-35,701,-2.9635,-7.98676,0,0,0,0,0,0,0,-1,1189,323,-2.9635,7.98676
-28,701,-6.64417,-5.4917,0,0,0,0,0,0,0,-1,1196,323,-6.64411,5.4917
-21,701,9.13025,-52.7033,0,0,0,0,0,0,0,-1,1203,323,9.1303,52.7033
-14,701,7.52734,-59.6317,0,0,0,0,0,0,0,-1,1210,323,7.52732,59.6317
-7,701,6.95789,-59.5057,-0.0693136,0.161606,-0.00465795,0.1617,-0.0694076,-1.55064,0.13693,0.0472873,1217,323,6.95791,59.5057
0,701,6.26428,-59.4036,-0.05795,0.164961,0.00220461,0.164983,-0.0579718,1.56091,0.133574,0.0469282,1224,323,6.26425,59.4036
7,701,5.59814,-58.9228,0,0,0,0,0,0,0,-1,1231,323,5.59815,58.9228
14,701,9.34033,-61.6255,0,0,0,0,0,0,0,-1,1238,323,9.34036,61.6255
21,701,8.7655,-61.6487,0,0,0,0,0,0,0,-1,1245,323,8.7655,61.6487
28,701,8.07666,-61.3506,0.00134484,0.17525,0.019688,0.177451,-0.000856213,1.45946,0.118587,0.0448665,1252,323,8.07665,61.3506
35,701,7.49695,-61.304,0.0118425,0.172467,0.0232121,0.175754,0.00855533,1.43012,0.114424,0.0439211,1259,323,7.4969,61.304
42,701,9.28235,-60.1554,0.0182882,0.165735,0.027436,0.170675,0.0133486,1.39266,0.109605,0.0466529,1266,323,9.28234,60.1554
49,701,9.46741,-60.4905,0,0,0,0,0,0,0,-1,1273,323,9.46736,60.4905
56,701,9.75757,-60.6704,0.0268038,0.147816,0.0332988,0.156373,0.0182461,1.31924,0.0987304,0.0456105,1280,323,9.75758,60.6704
63,701,10.1704,-60.8913,0.0254062,0.130893,0.0369419,0.142544,0.0137558,1.2653,0.0907918,0.0443472,1287,323,10.1705,60.8913
70,701,9.42114,-62.6341,0.0240132,0.11039,0.0414674,0.127075,0.00732854,1.18826,0.0823823,0.0446608,1294,323,9.42118,62.6341
77,701,9.17737,-62.3929,0,0,0,0,0,0,0,-1,1301,323,9.17738,62.3928
84,701,6.73987,-70.4715,0.0249426,0.0657671,0.0548843,0.103912,-0.0132024,0.963429,0.0740687,0.0469064,1308,323,6.73989,70.4715
91,701,6.26416,-69.0523,0.0237114,0.0426001,0.0618468,0.0957195,-0.029408,0.861166,0.0755483,0.0454139,1315,323,6.26414,69.0523
98,701,6.00806,-66.6873,0,0,0,0,0,0,0,-1,1322,323,6.00802,66.6873
105,701,6.20789,-66.2023,0.0289475,0.00430267,0.0757225,0.0933436,-0.0600935,0.70474,0.0892776,0.0462576,1329,323,6.20783,66.2023
112,701,6.38647,-65.8708,0.0355748,-0.0101083,0.0837715,0.0995629,-0.0740964,0.652301,0.100621,0.043301,1336,323,6.38653,65.8708
119,701,6.70337,-66.1977,0,0,0,0,0,0,0,-1,1343,323,6.70343,66.1977
126,701,7.22656,-65.698,0,0,0,0,0,0,0,-1,1350,323,7.22659,65.698
133,701,7.73853,-64.7343,0,0,0,0,0,0,0,-1,1357,323,7.73856,64.7344
140,701,8.67871,-64.0368,0,0,0,0,0,0,0,-1,1364,323,8.67865,64.0368
147,701,9.84009,-63.5203,0,0,0,0,0,0,0,-1,1371,323,9.84011,63.5203
154,701,-3.18616,-59.7673,0,0,0,0,0,0,0,-1,1378,323,-3.18613,59.7673
161,701,-4.83057,-59.3711,0,0,0,0,0,0,0,-1,1385,323,-4.83061,59.3711
168,701,30.7272,1.76184,0,0,0,0,0,0,0,-1,1392,323,30.7272,-1.76184
175,701,31.5035,2.25711,0,0,0,0,0,0,0,-1,1399,323,31.5036,-2.25712
182,701,8.80652,5.42807,0,0,0,0,0,0,0,-1,1406,323,8.8065,-5.42808
189,701,8.58081,4.24493,0,0,0,0,0,0,0,-1,1413,323,8.58082,-4.24494
196,701,0,0,0,0,0,0,0,0,0,-1,1420,323,0,0
203,701,0,0,0,0,0,0,0,0,0,-1,1427,323,0,0
210,701,0,0,0,0,0,0,0,0,0,-1,1434,323,0,0
217,701,0,0,0,0,0,0,0,0,0,-1,1441,323,0,0
224,701,0,0,0,0,0,0,0,0,0,-1,1448,323,0,0
231,701,0,0,0,0,0,0,0,0,0,-1,1455,323,0,0
238,701,0,0,0,0,0,0,0,0,0,-1,1462,323,0,0
245,701,0,0,0,0,0,0,0,0,0,-1,1469,323,0,0
252,701,0,0,0,0,0,0,0,0,0,-1,1476,323,0,0
259,701,0,0,0,0,0,0,0,0,0,-1,1483,323,0,0
266,701,0,0,0,0,0,0,0,0,0,-1,1490,323,0,0
273,701,0,0,0,0,0,0,0,0,0,-1,1497,323,0,0
280,701,0,0,0,0,0,0,0,0,0,-1,1504,323,0,0
287,701,0,0,0,0,0,0,0,0,0,-1,1511,323,0,0
294,701,0,0,0,0,0,0,0,0,0,-1,1518,323,0,0
301,701,0,0,0,0,0,0,0,0,0,-1,1525,323,0,0
308,701,0,0,0,0,0,0,0,0,0,-1,1532,323,0,0
315,701,0,0,0,0,0,0,0,0,0,-1,1539,323,0,0
322,701,0,0,0,0,0,0,0,0,0,-1,1546,323,0,0
329,701,0,0,0,0,0,0,0,0,0,-1,1553,323,0,0
336,701,0,0,0,0,0,0,0,0,0,-1,1560,323,0,0
343,701,0,0,0,0,0,0,0,0,0,-1,1567,323,0,0
350,701,0,0,0,0,0,0,0,0,0,-1,1574,323,0,0
357,701,0,0,0,0,0,0,0,0,0,-1,1581,323,0,0
364,701,0,0,0,0,0,0,0,0,0,-1,1588,323,0,0
371,701,0,0,0,0,0,0,0,0,0,-1,1595,323,0,0
378,701,0,0,0,0,0,0,0,0,0,-1,1602,323,0,0
385,701,0,0,0,0,0,0,0,0,0,-1,1609,323,0,0
392,701,0,0,0,0,0,0,0,0,0,-1,1616,323,0,0
399,701,0,0,0,0,0,0,0,0,0,-1,1623,323,0,0
406,701,0,0,0,0,0,0,0,0,0,-1,1630,323,0,0
413,701,0,0,0,0,0,0,0,0,0,-1,1637,323,0,0
420,701,0,0,0,0,0,0,0,0,0,-1,1644,323,0,0
427,701,0,0,0,0,0,0,0,0,0,-1,1651,323,0,0
434,701,0,0,0,0,0,0,0,0,0,-1,1658,323,0,0
441,701,0,0,0,0,0,0,0,0,0,-1,1665,323,0,0
448,701,0,0,0,0,0,0,0,0,0,-1,1672,323,0,0
455,701,0,0,0,0,0,0,0,0,0,-1,1679,323,0,0
462,701,0,0,0,0,0,0,0,0,0,-1,1686,323,0,0
469,701,0,0,0,0,0,0,0,0,0,-1,1693,323,0,0
476,701,0,0,0,0,0,0,0,0,0,-1,1700,323,0,0
483,701,0,0,0,0,0,0,0,0,0,-1,1707,323,0,0
490,701,0,0,0,0,0,0,0,0,0,-1,1714,323,0,0
497,701,0,0,0,0,0,0,0,0,0,-1,1721,323,0,0
504,701,0,0,0,0,0,0,0,0,0,-1,1728,323,0,0
511,701,0,0,0,0,0,0,0,0,0,-1,1735,323,0,0
518,701,0,0,0,0,0,0,0,0,0,-1,1742,323,0,0
525,701,0,0,0,0,0,0,0,0,0,-1,1749,323,0,0
532,701,0,0,0,0,0,0,0,0,0,-1,1756,323,0,0
539,701,0,0,0,0,0,0,0,0,0,-1,1763,323,0,0
546,701,0,0,0,0,0,0,0,0,0,-1,1770,323,0,0
553,701,0,0,0,0,0,0,0,0,0,-1,1777,323,0,0
560,701,0,0,0,0,0,0,0,0,0,-1,1784,323,0,0
567,701,0,0,0,0,0,0,0,0,0,-1,1791,323,0,0
574,701,0,0,0,0,0,0,0,0,0,-1,1798,323,0,0
581,701,0,0,0,0,0,0,0,0,0,-1,1805,323,0,0
588,701,0,0,0,0,0,0,0,0,0,-1,1812,323,0,0
595,701,0,0,0,0,0,0,0,0,0,-1,1819,323,0,0
602,701,0,0,0,0,0,0,0,0,0,-1,1826,323,0,0
609,701,0,0,0,0,0,0,0,0,0,-1,1833,323,0,0
616,701,0,0,0,0,0,0,0,0,0,-1,1840,323,0,0
623,701,0,0,0,0,0,0,0,0,0,-1,1847,323,0,0
630,701,0,0,0,0,0,0,0,0,0,-1,1854,323,0,0
637,701,0,0,0,0,0,0,0,0,0,-1,1861,323,0,0
644,701,0,0,0,0,0,0,0,0,0,-1,1868,323,0,0
651,701,0,0,0,0,0,0,0,0,0,-1,1875,323,0,0
658,701,0,0,0,0,0,0,0,0,0,-1,1882,323,0,0
665,701,0,0,0,0,0,0,0,0,0,-1,1889,323,0,0
672,701,0,0,0,0,0,0,0,0,0,-1,1896,323,0,0
679,701,0,0,0,0,0,0,0,0,0,-1,1903,323,0,0
686,701,0,0,0,0,0,0,0,0,0,-1,1910,323,0,0
693,701,0,0,0,0,0,0,0,0,0,-1,1917,323,0,0
700,701,0,0,0,0,0,0,0,0,0,-1,1924,323,0,0
707,701,0,0,0,0,0,0,0,0,0,-1,1931,323,0,0
714,701,0,0,0,0,0,0,0,0,0,-1,1938,323,0,0
721,701,0,0,0,0,0,0,0,0,0,-1,1945,323,0,0
728,701,0,0,0,0,0,0,0,0,0,-1,1952,323,0,0
735,701,0,0,0,0,0,0,0,0,0,-1,1959,323,0,0
742,701,0,0,0,0,0,0,0,0,0,-1,1966,323,0,0
749,701,0,0,0,0,0,0,0,0,0,-1,1973,323,0,0
756,701,0,0,0,0,0,0,0,0,0,-1,1980,323,0,0
763,701,0,0,0,0,0,0,0,0,0,-1,1987,323,0,0
770,701,0,0,0,0,0,0,0,0,0,-1,1994,323,0,0
777,701,0,0,0,0,0,0,0,0,0,-1,2001,323,0,0
784,701,0,0,0,0,0,0,0,0,0,-1,2008,323,0,0
791,701,0,0,0,0,0,0,0,0,0,-1,2015,323,0,0
798,701,0,0,0,0,0,0,0,0,0,-1,2022,323,0,0
805,701,0,0,0,0,0,0,0,0,0,-1,2029,323,0,0
812,701,0,0,0,0,0,0,0,0,0,-1,2036,323,0,0
-700,694,0,0,0,0,0,0,0,0,0,-1,524,330,0,0
-693,694,0,0,0,0,0,0,0,0,0,-1,531,330,0,0
-686,694,0,0,0,0,0,0,0,0,0,-1,538,330,0,0
-679,694,0,0,0,0,0,0,0,0,0,-1,545,330,0,0
-672,694,0,0,0,0,0,0,0,0,0,-1,552,330,0,0
-665,694,0,0,0,0,0,0,0,0,0,-1,559,330,0,0
-658,694,0,0,0,0,0,0,0,0,0,-1,566,330,0,0
-651,694,0,0,0,0,0,0,0,0,0,-1,573,330,0,0
-644,694,0,0,0,0,0,0,0,0,0,-1,580,330,0,0
-637,694,0,0,0,0,0,0,0,0,0,-1,587,330,0,0
-630,694,0,0,0,0,0,0,0,0,0,-1,594,330,0,0
-623,694,0,0,0,0,0,0,0,0,0,-1,601,330,0,0
-616,694,0,0,0,0,0,0,0,0,0,-1,608,330,0,0
-609,694,0,0,0,0,0,0,0,0,0,-1,615,330,0,0
-602,694,0,0,0,0,0,0,0,0,0,-1,622,330,0,0
-595,694,0,0,0,0,0,0,0,0,0,-1,629,330,0,0
-588,694,0,0,0,0,0,0,0,0,0,-1,636,330,0,0
-581,694,0,0,0,0,0,0,0,0,0,-1,643,330,0,0
-574,694,0,0,0,0,0,0,0,0,0,-1,650,330,0,0
-567,694,0,0,0,0,0,0,0,0,0,-1,657,330,0,0
-560,694,0,0,0,0,0,0,0,0,0,-1,664,330,0,0
-553,694,0,0,0,0,0,0,0,0,0,-1,671,330,0,0
-546,694,0,0,0,0,0,0,0,0,0,-1,678,330,0,0
-539,694,0,0,0,0,0,0,0,0,0,-1,685,330,0,0
-532,694,0,0,0,0,0,0,0,0,0,-1,692,330,0,0
-525,694,0,0,0,0,0,0,0,0,0,-1,699,330,0,0
-518,694,0,0,0,0,0,0,0,0,0,-1,706,330,0,0
-511,694,0,0,0,0,0,0,0,0,0,-1,713,330,0,0
-504,694,0,0,0,0,0,0,0,0,0,-1,720,330,0,0
-497,694,0,0,0,0,0,0,0,0,0,-1,727,330,0,0
-490,694,0,0,0,0,0,0,0,0,0,-1,734,330,0,0
-483,694,0,0,0,0,0,0,0,0,0,-1,741,330,0,0
-476,694,0,0,0,0,0,0,0,0,0,-1,748,330,0,0
-469,694,0,0,0,0,0,0,0,0,0,-1,755,330,0,0
-462,694,0,0,0,0,0,0,0,0,0,-1,762,330,0,0
-455,694,0,0,0,0,0,0,0,0,0,-1,769,330,0,0
-448,694,0,0,0,0,0,0,0,0,0,-1,776,330,0,0
-441,694,0,0,0,0,0,0,0,0,0,-1,783,330,0,0
-434,694,0,0,0,0,0,0,0,0,0,-1,790,330,0,0
-427,694,0,0,0,0,0,0,0,0,0,-1,797,330,0,0
-420,694,0,0,0,0,0,0,0,0,0,-1,804,330,0,0
-413,694,0,0,0,0,0,0,0,0,0,-1,811,330,0,0
-406,694,0,0,0,0,0,0,0,0,0,-1,818,330,0,0
-399,694,0,0,0,0,0,0,0,0,0,-1,825,330,0,0
-392,694,0,0,0,0,0,0,0,0,0,-1,832,330,0,0
-385,694,0,0,0,0,0,0,0,0,0,-1,839,330,0,0
-378,694,0,0,0,0,0,0,0,0,0,-1,846,330,0,0
-371,694,0,0,0,0,0,0,0,0,0,-1,853,330,0,0
-364,694,0,0,0,0,0,0,0,0,0,-1,860,330,0,0
-357,694,0,0,0,0,0,0,0,0,0,-1,867,330,0,0
-350,694,0,0,0,0,0,0,0,0,0,-1,874,330,0,0
-343,694,0,0,0,0,0,0,0,0,0,-1,881,330,0,0
-336,694,0,0,0,0,0,0,0,0,0,-1,888,330,0,0
-329,694,0,0,0,0,0,0,0,0,0,-1,895,330,0,0
-322,694,0,0,0,0,0,0,0,0,0,-1,902,330,0,0
-315,694,0,0,0,0,0,0,0,0,0,-1,909,330,0,0
-308,694,0,0,0,0,0,0,0,0,0,-1,916,330,0,0
-301,694,0,0,0,0,0,0,0,0,0,-1,923,330,0,0
-294,694,0,0,0,0,0,0,0,0,0,-1,930,330,0,0
-287,694,0,0,0,0,0,0,0,0,0,-1,937,330,0,0
-280,694,0,0,0,0,0,0,0,0,0,-1,944,330,0,0
-273,694,0,0,0,0,0,0,0,0,0,-1,951,330,0,0
-266,694,0,0,0,0,0,0,0,0,0,-1,958,330,0,0
-259,694,0,0,0,0,0,0,0,0,0,-1,965,330,0,0
-252,694,0,0,0,0,0,0,0,0,0,-1,972,330,0,0
-245,694,0,0,0,0,0,0,0,0,0,-1,979,330,0,0
-238,694,0,0,0,0,0,0,0,0,0,-1,986,330,0,0
-231,694,0,0,0,0,0,0,0,0,0,-1,993,330,0,0
-224,694,0,0,0,0,0,0,0,0,0,-1,1000,330,0,0
-217,694,0,0,0,0,0,0,0,0,0,-1,1007,330,0,0
-210,694,0,0,0,0,0,0,0,0,0,-1,1014,330,0,0
-203,694,0,0,0,0,0,0,0,0,0,-1,1021,330,0,0
-196,694,0,0,0,0,0,0,0,0,0,-1,1028,330,0,0
-189,694,0,0,0,0,0,0,0,0,0,-1,1035,330,0,0
-182,694,0,0,0,0,0,0,0,0,0,-1,1042,330,0,0
-175,694,0,0,0,0,0,0,0,0,0,-1,1049,330,0,0
-168,694,0,0,0,0,0,0,0,0,0,-1,1056,330,0,0
-161,694,0,0,0,0,0,0,0,0,0,-1,1063,330,0,0
-154,694,0,0,0,0,0,0,0,0,0,-1,1070,330,0,0
-147,694,0,0,0,0,0,0,0,0,0,-1,1077,330,0,0
-140,694,0,0,0,0,0,0,0,0,0,-1,1084,330,0,0
-133,694,0,0,0,0,0,0,0,0,0,-1,1091,330,0,0
-126,694,0,0,0,0,0,0,0,0,0,-1,1098,330,0,0
-119,694,0,0,0,0,0,0,0,0,0,-1,1105,330,0,0
-112,694,0,0,0,0,0,0,0,0,0,-1,1112,330,0,0
-105,694,2.5188,-19.3963,0,0,0,0,0,0,0,-1,1119,330,2.51882,19.3963
-98,694,1.34875,-10.1051,0,0,0,0,0,0,0,-1,1126,330,1.34874,10.1051
-91,694,6.62366,-46.8039,0,0,0,0,0,0,0,-1,1133,330,6.62363,46.8039
-84,694,0.0577393,-40.8823,0,0,0,0,0,0,0,-1,1140,330,0.0577026,40.8823
-77,694,-5.51379,-31.2714,0,0,0,0,0,0,0,-1,1147,330,-5.51383,31.2714
-70,694,-11.9945,-25.5143,0,0,0,0,0,0,0,-1,1154,330,-11.9945,25.5143
-63,694,-18.4752,-19.7572,0,0,0,0,0,0,0,-1,1161,330,-18.4752,19.7572
-56,694,-6.50623,-0.649139,0,0,0,0,0,0,0,-1,1168,330,-6.5062,0.649126
-49,694,-1.11426,0.0341797,0,0,0,0,0,0,0,-1,1175,330,-1.11424,-0.0341846
-42,694,-0.346313,-0.709595,0,0,0,0,0,0,0,-1,1182,330,-0.346298,0.709581
-35,694,-0.459106,-1.24713,0,0,0,0,0,0,0,-1,1189,330,-0.459142,1.24714
-28,694,-6.48413,-3.95972,0,0,0,0,0,0,0,-1,1196,330,-6.48414,3.9597
-21,694,9.71411,-53.743,0,0,0,0,0,0,0,-1,1203,330,9.71411,53.743
-14,694,7.42236,-60.6581,0,0,0,0,0,0,0,-1,1210,330,7.42239,60.6581
-7,694,7.14978,-60.517,-0.0585688,0.138828,-0.00604022,0.139012,-0.0587535,-1.54024,0.117272,0.0432038,1217,330,7.14978,60.517
0,694,6.67102,-60.2149,-0.0512606,0.141487,-0.00106802,0.141493,-0.0512666,-1.56526,0.115282,0.0410016,1224,330,6.671,60.2149
7,694,6.21094,-59.7173,0,0,0,0,0,0,0,-1,1231,330,6.21089,59.7173
14,694,9.72864,-62.975,-0.0294348,0.146639,0.00740027,0.14695,-0.0297453,1.52887,0.10924,0.0462496,1238,330,9.72859,62.975
21,694,8.88538,-62.7149,-0.0184425,0.149821,0.0104589,0.150469,-0.0190901,1.50896,0.107244,0.0489893,1245,330,8.88533,62.7149
28,694,8.31384,-62.6985,-0.00825749,0.152183,0.0135324,0.153317,-0.00939088,1.48724,0.105481,0.0452468,1252,330,8.31386,62.6985
35,694,7.58594,-62.4786,2.28835e-05,0.150501,0.0166519,0.152321,-0.00179777,1.46189,0.102152,0.0446533,1259,330,7.5859,62.4786
42,694,7.1543,-62.6568,0.00530818,0.145264,0.0206367,0.148244,0.00232869,1.42741,0.0980621,0.0495344,1266,330,7.15435,62.6568
49,694,9.99475,-61.146,0,0,0,0,0,0,0,-1,1273,330,9.99479,61.146
56,694,9.65735,-61.5045,0.013022,0.131368,0.0260749,0.136858,0.00753168,1.36327,0.0888348,0.0471109,1280,330,9.65739,61.5046
63,694,9.25513,-61.7937,0.0129694,0.117374,0.0294469,0.125106,0.00523671,1.314,0.0817147,0.0451052,1287,330,9.25511,61.7937
70,694,8.7511,-63.1037,0.0130309,0.100283,0.0335688,0.111703,0.00161066,1.24287,0.0739378,0.0446797,1294,330,8.75104,63.1037
77,694,8.55884,-63.0015,0.0136213,0.0814172,0.0390476,0.0992279,-0.0041894,1.14286,0.0675917,0.0482372,1301,330,8.55881,63.0015
84,694,8.11316,-62.6485,0,0,0,0,0,0,0,-1,1308,330,8.11311,62.6485
91,694,5.85303,-68.5277,0.0164121,0.042844,0.0517991,0.0830864,-0.0238304,0.910303,0.0648116,0.0454245,1315,330,5.85298,68.5277
98,694,4.83398,-67.1927,0,0,0,0,0,0,0,-1,1322,330,4.83393,67.1928
105,694,6.27209,-66.6914,0,0,0,0,0,0,0,-1,1329,330,6.27213,66.6914
112,694,6.32947,-66.1604,0.0277176,7.33137e-05,0.0699883,0.0852356,-0.0574446,0.687907,0.0828957,0.0432911,1336,330,6.32945,66.1604
119,694,6.25378,-65.8244,0.0336865,-0.00996674,0.0771153,0.0920046,-0.0682848,0.647486,0.0928803,0.0448881,1343,330,6.25376,65.8244
126,694,6.76648,-65.1569,0.0397549,-0.0165546,0.0831202,0.0993592,-0.0761589,0.622101,0.10163,0.0468483,1350,330,6.76647,65.1569
133,694,7.30994,-64.2157,0.0455768,-0.0109889,0.0858419,0.107675,-0.0730871,0.626261,0.104998,0.0481633,1357,330,7.30995,64.2157
140,694,7.87219,-63.4353,0,0,0,0,0,0,0,-1,1364,330,7.87219,63.4353
147,694,6.47278,-61.7353,0,0,0,0,0,0,0,-1,1371,330,6.47275,61.7353
154,694,6.66821,-61.2531,0,0,0,0,0,0,0,-1,1378,330,6.66821,61.253
161,694,0.0187988,-38.6779,0,0,0,0,0,0,0,-1,1385,330,0.0187579,38.6779
168,694,30.451,0.196686,0,0,0,0,0,0,0,-1,1392,330,30.4511,-0.196674
175,694,31.0701,0.869873,0,0,0,0,0,0,0,-1,1399,330,31.07,-0.869874
182,694,8.29028,5.75238,0,0,0,0,0,0,0,-1,1406,330,8.29034,-5.75237
189,694,7.9801,4.46118,0,0,0,0,0,0,0,-1,1413,330,7.9801,-4.46118
196,694,7.39331,3.32632,0,0,0,0,0,0,0,-1,1420,330,7.39329,-3.32633
203,694,7.04492,2.20529,0,0,0,0,0,0,0,-1,1427,330,7.04496,-2.20529
210,694,6.44714,0.646912,0,0,0,0,0,0,0,-1,1434,330,6.44717,-0.646903
217,694,7.12061,-0.644958,0,0,0,0,0,0,0,-1,1441,330,7.12059,0.644961
224,694,6.74011,-1.70544,0,0,0,0,0,0,0,-1,1448,330,6.74013,1.70546
231,694,0,0,0,0,0,0,0,0,0,-1,1455,330,0,0
238,694,0,0,0,0,0,0,0,0,0,-1,1462,330,0,0
245,694,0,0,0,0,0,0,0,0,0,-1,1469,330,0,0
252,694,0,0,0,0,0,0,0,0,0,-1,1476,330,0,0
259,694,0,0,0,0,0,0,0,0,0,-1,1483,330,0,0
266,694,0,0,0,0,0,0,0,0,0,-1,1490,330,0,0
273,694,0,0,0,0,0,0,0,0,0,-1,1497,330,0,0
280,694,0,0,0,0,0,0,0,0,0,-1,1504,330,0,0
287,694,0,0,0,0,0,0,0,0,0,-1,1511,330,0,0
294,694,0,0,0,0,0,0,0,0,0,-1,1518,330,0,0
301,694,0,0,0,0,0,0,0,0,0,-1,1525,330,0,0
308,694,0,0,0,0,0,0,0,0,0,-1,1532,330,0,0
315,694,0,0,0,0,0,0,0,0,0,-1,1539,330,0,0
322,694,0,0,0,0,0,0,0,0,0,-1,1546,330,0,0
329,694,0,0,0,0,0,0,0,0,0,-1,1553,330,0,0
336,694,0,0,0,0,0,0,0,0,0,-1,1560,330,0,0
343,694,0,0,0,0,0,0,0,0,0,-1,1567,330,0,0
350,694,0,0,0,0,0,0,0,0,0,-1,1574,330,0,0
357,694,0,0,0,0,0,0,0,0,0,-1,1581,330,0,0
364,694,0,0,0,0,0,0,0,0,0,-1,1588,330,0,0
371,694,0,0,0,0,0,0,0,0,0,-1,1595,330,0,0
378,694,0,0,0,0,0,0,0,0,0,-1,1602,330,0,0
385,694,0,0,0,0,0,0,0,0,0,-1,1609,330,0,0
392,694,0,0,0,0,0,0,0,0,0,-1,1616,330,0,0
399,694,0,0,0,0,0,0,0,0,0,-1,1623,330,0,0
406,694,0,0,0,0,0,0,0,0,0,-1,1630,330,0,0
413,694,0,0,0,0,0,0,0,0,0,-1,1637,330,0,0
420,694,0,0,0,0,0,0,0,0,0,-1,1644,330,0,0
427,694,0,0,0,0,0,0,0,0,0,-1,1651,330,0,0
434,694,0,0,0,0,0,0,0,0,0,-1,1658,330,0,0
441,694,0,0,0,0,0,0,0,0,0,-1,1665,330,0,0
448,694,0,0,0,0,0,0,0,0,0,-1,1672,330,0,0
455,694,0,0,0,0,0,0,0,0,0,-1,1679,330,0,0
462,694,0,0,0,0,0,0,0,0,0,-1,1686,330,0,0
469,694,0,0,0,0,0,0,0,0,0,-1,1693,330,0,0
476,694,0,0,0,0,0,0,0,0,0,-1,1700,330,0,0
483,694,0,0,0,0,0,0,0,0,0,-1,1707,330,0,0
490,694,0,0,0,0,0,0,0,0,0,-1,1714,330,0,0
497,694,0,0,0,0,0,0,0,0,0,-1,1721,330,0,0
504,694,0,0,0,0,0,0,0,0,0,-1,1728,330,0,0
511,694,0,0,0,0,0,0,0,0,0,-1,1735,330,0,0
518,694,0,0,0,0,0,0,0,0,0,-1,1742,330,0,0
525,694,0,0,0,0,0,0,0,0,0,-1,1749,330,0,0
532,694,0,0,0,0,0,0,0,0,0,-1,1756,330,0,0
539,694,0,0,0,0,0,0,0,0,0,-1,1763,330,0,0
546,694,0,0,0,0,0,0,0,0,0,-1,1770,330,0,0
553,694,0,0,0,0,0,0,0,0,0,-1,1777,330,0,0
560,694,0,0,0,0,0,0,0,0,0,-1,1784,330,0,0
567,694,0,0,0,0,0,0,0,0,0,-1,1791,330,0,0
574,694,0,0,0,0,0,0,0,0,0,-1,1798,330,0,0
581,694,0,0,0,0,0,0,0,0,0,-1,1805,330,0,0
588,694,0,0,0,0,0,0,0,0,0,-1,1812,330,0,0
595,694,0,0,0,0,0,0,0,0,0,-1,1819,330,0,0
602,694,0,0,0,0,0,0,0,0,0,-1,1826,330,0,0
609,694,0,0,0,0,0,0,0,0,0,-1,1833,330,0,0
616,694,0,0,0,0,0,0,0,0,0,-1,1840,330,0,0
623,694,0,0,0,0,0,0,0,0,0,-1,1847,330,0,0
630,694,0,0,0,0,0,0,0,0,0,-1,1854,330,0,0
637,694,0,0,0,0,0,0,0,0,0,-1,1861,330,0,0
644,694,0,0,0,0,0,0,0,0,0,-1,1868,330,0,0
651,694,0,0,0,0,0,0,0,0,0,-1,1875,330,0,0
658,694,0,0,0,0,0,0,0,0,0,-1,1882,330,0,0
665,694,0,0,0,0,0,0,0,0,0,-1,1889,330,0,0
672,694,0,0,0,0,0,0,0,0,0,-1,1896,330,0,0
679,694,0,0,0,0,0,0,0,0,0,-1,1903,330,0,0
686,694,0,0,0,0,0,0,0,0,0,-1,1910,330,0,0
693,694,0,0,0,0,0,0,0,0,0,-1,1917,330,0,0
700,694,0,0,0,0,0,0,0,0,0,-1,1924,330,0,0
707,694,0,0,0,0,0,0,0,0,0,-1,1931,330,0,0
714,694,0,0,0,0,0,0,0,0,0,-1,1938,330,0,0
721,694,0,0,0,0,0,0,0,0,0,-1,1945,330,0,0
728,694,0,0,0,0,0,0,0,0,0,-1,1952,330,0,0
735,694,0,0,0,0,0,0,0,0,0,-1,1959,330,0,0
742,694,0,0,0,0,0,0,0,0,0,-1,1966,330,0,0
749,694,0,0,0,0,0,0,0,0,0,-1,1973,330,0,0
756,694,0,0,0,0,0,0,0,0,0,-1,1980,330,0,0
763,694,0,0,0,0,0,0,0,0,0,-1,1987,330,0,0
770,694,0,0,0,0,0,0,0,0,0,-1,1994,330,0,0
777,694,0,0,0,0,0,0,0,0,0,-1,2001,330,0,0
784,694,0,0,0,0,0,0,0,0,0,-1,2008,330,0,0
791,694,0,0,0,0,0,0,0,0,0,-1,2015,330,0,0
798,694,0,0,0,0,0,0,0,0,0,-1,2022,330,0,0
805,694,0,0,0,0,0,0,0,0,0,-1,2029,330,0,0
812,694,0,0,0,0,0,0,0,0,0,-1,2036,330,0,0
-700,687,0,0,0,0,0,0,0,0,0,-1,524,337,0,0
-693,687,0,0,0,0,0,0,0,0,0,-1,531,337,0,0
-686,687,0,0,0,0,0,0,0,0,0,-1,538,337,0,0
-679,687,0,0,0,0,0,0,0,0,0,-1,545,337,0,0
-672,687,0,0,0,0,0,0,0,0,0,-1,552,337,0,0
-665,687,0,0,0,0,0,0,0,0,0,-1,559,337,0,0
-658,687,0,0,0,0,0,0,0,0,0,-1,566,337,0,0
-651,687,0,0,0,0,0,0,0,0,0,-1,573,337,0,0
-644,687,0,0,0,0,0,0,0,0,0,-1,580,337,0,0
-637,687,0,0,0,0,0,0,0,0,0,-1,587,337,0,0
-630,687,0,0,0,0,0,0,0,0,0,-1,594,337,0,0
-623,687,0,0,0,0,0,0,0,0,0,-1,601,337,0,0
-616,687,0,0,0,0,0,0,0,0,0,-1,608,337,0,0
-609,687,0,0,0,0,0,0,0,0,0,-1,615,337,0,0
-602,687,0,0,0,0,0,0,0,0,0,-1,622,337,0,0
-595,687,0,0,0,0,0,0,0,0,0,-1,629,337,0,0
-588,687,0,0,0,0,0,0,0,0,0,-1,636,337,0,0
-581,687,0,0,0,0,0,0,0,0,0,-1,643,337,0,0
-574,687,0,0,0,0,0,0,0,0,0,-1,650,337,0,0
-567,687,0,0,0,0,0,0,0,0,0,-1,657,337,0,0
-560,687,0,0,0,0,0,0,0,0,0,-1,664,337,0,0
-553,687,0,0,0,0,0,0,0,0,0,-1,671,337,0,0
-546,687,0,0,0,0,0,0,0,0,0,-1,678,337,0,0
-539,687,0,0,0,0,0,0,0,0,0,-1,685,337,0,0
-532,687,0,0,0,0,0,0,0,0,0,-1,692,337,0,0
-525,687,0,0,0,0,0,0,0,0,0,-1,699,337,0,0
-518,687,0,0,0,0,0,0,0,0,0,-1,706,337,0,0
-511,687,0,0,0,0,0,0,0,0,0,-1,713,337,0,0
-504,687,0,0,0,0,0,0,0,0,0,-1,720,337,0,0
-497,687,0,0,0,0,0,0,0,0,0,-1,727,337,0,0
-490,687,0,0,0,0,0,0,0,0,0,-1,734,337,0,0
-483,687,0,0,0,0,0,0,0,0,0,-1,741,337,0,0
-476,687,0,0,0,0,0,0,0,0,0,-1,748,337,0,0
-469,687,0,0,0,0,0,0,0,0,0,-1,755,337,0,0
-462,687,0,0,0,0,0,0,0,0,0,-1,762,337,0,0
-455,687,0,0,0,0,0,0,0,0,0,-1,769,337,0,0
-448,687,0,0,0,0,0,0,0,0,0,-1,776,337,0,0
-441,687,0,0,0,0,0,0,0,0,0,-1,783,337,0,0
-434,687,0,0,0,0,0,0,0,0,0,-1,790,337,0,0
-427,687,0,0,0,0,0,0,0,0,0,-1,797,337,0,0
-420,687,0,0,0,0,0,0,0,0,0,-1,804,337,0,0
-413,687,0,0,0,0,0,0,0,0,0,-1,811,337,0,0
-406,687,0,0,0,0,0,0,0,0,0,-1,818,337,0,0
-399,687,0,0,0,0,0,0,0,0,0,-1,825,337,0,0
-392,687,0,0,0,0,0,0,0,0,0,-1,832,337,0,0
-385,687,0,0,0,0,0,0,0,0,0,-1,839,337,0,0
-378,687,0,0,0,0,0,0,0,0,0,-1,846,337,0,0
-371,687,0,0,0,0,0,0,0,0,0,-1,853,337,0,0
-364,687,0,0,0,0,0,0,0,0,0,-1,860,337,0,0
-357,687,0,0,0,0,0,0,0,0,0,-1,867,337,0,0
-350,687,0,0,0,0,0,0,0,0,0,-1,874,337,0,0
-343,687,0,0,0,0,0,0,0,0,0,-1,881,337,0,0
-336,687,0,0,0,0,0,0,0,0,0,-1,888,337,0,0
-329,687,0,0,0,0,0,0,0,0,0,-1,895,337,0,0
-322,687,0,0,0,0,0,0,0,0,0,-1,902,337,0,0
-315,687,0,0,0,0,0,0,0,0,0,-1,909,337,0,0
-308,687,0,0,0,0,0,0,0,0,0,-1,916,337,0,0
-301,687,0,0,0,0,0,0,0,0,0,-1,923,337,0,0
-294,687,0,0,0,0,0,0,0,0,0,-1,930,337,0,0
-287,687,0,0,0,0,0,0,0,0,0,-1,937,337,0,0
-280,687,0,0,0,0,0,0,0,0,0,-1,944,337,0,0
-273,687,0,0,0,0,0,0,0,0,0,-1,951,337,0,0
-266,687,0,0,0,0,0,0,0,0,0,-1,958,337,0,0
-259,687,0,0,0,0,0,0,0,0,0,-1,965,337,0,0
-252,687,0,0,0,0,0,0,0,0,0,-1,972,337,0,0
-245,687,0,0,0,0,0,0,0,0,0,-1,979,337,0,0
-238,687,0,0,0,0,0,0,0,0,0,-1,986,337,0,0
-231,687,0,0,0,0,0,0,0,0,0,-1,993,337,0,0
-224,687,0,0,0,0,0,0,0,0,0,-1,1000,337,0,0
-217,687,0,0,0,0,0,0,0,0,0,-1,1007,337,0,0
-210,687,0,0,0,0,0,0,0,0,0,-1,1014,337,0,0
-203,687,0,0,0,0,0,0,0,0,0,-1,1021,337,0,0
-196,687,0,0,0,0,0,0,0,0,0,-1,1028,337,0,0
-189,687,0,0,0,0,0,0,0,0,0,-1,1035,337,0,0
-182,687,0,0,0,0,0,0,0,0,0,-1,1042,337,0,0
-175,687,0,0,0,0,0,0,0,0,0,-1,1049,337,0,0
-168,687,0,0,0,0,0,0,0,0,0,-1,1056,337,0,0
-161,687,0,0,0,0,0,0,0,0,0,-1,1063,337,0,0
-154,687,0,0,0,0,0,0,0,0,0,-1,1070,337,0,0
-147,687,0,0,0,0,0,0,0,0,0,-1,1077,337,0,0
-140,687,0,0,0,0,0,0,0,0,0,-1,1084,337,0,0
-133,687,7.93958,-37.548,0,0,0,0,0,0,0,-1,1091,337,7.93957,37.548
-126,687,0.688477,-38.7298,0,0,0,0,0,0,0,-1,1098,337,0.688509,38.7298
-119,687,7.70825,-33.9236,0,0,0,0,0,0,0,-1,1105,337,7.70826,33.9236
-112,687,7.99866,-32.2983,0,0,0,0,0,0,0,-1,1112,337,7.99866,32.2983
-105,687,1.3208,-29.8313,0,0,0,0,0,0,0,-1,1119,337,1.3208,29.8313
-98,687,13.7111,-47.5645,0,0,0,0,0,0,0,-1,1126,337,13.711,47.5645
-91,687,7.22083,-41.1667,0,0,0,0,0,0,0,-1,1133,337,7.22079,41.1666
-84,687,0.745117,-35.0345,0,0,0,0,0,0,0,-1,1140,337,0.745155,35.0345
-77,687,-5.74353,-28.9553,0,0,0,0,0,0,0,-1,1147,337,-5.74357,28.9553
-70,687,-11.6842,-19.8473,0,0,0,0,0,0,0,-1,1154,337,-11.6842,19.8473
-63,687,-17.6757,-14.8966,0,0,0,0,0,0,0,-1,1161,337,-17.6756,14.8966
-56,687,-18.104,7.81931,0,0,0,0,0,0,0,-1,1168,337,-18.104,-7.81931
-49,687,-15.6449,-9.94391,0,0,0,0,0,0,0,-1,1175,337,-15.6449,9.94392
-42,687,-4.2019,-0.405609,0,0,0,0,0,0,0,-1,1182,337,-4.20192,0.405614
-35,687,-4.42273,-0.688171,0,0,0,0,0,0,0,-1,1189,337,-4.42276,0.688178
-28,687,-1.14038,-1.39072,0,0,0,0,0,0,0,-1,1196,337,-1.14035,1.3907
-21,687,7.92114,-61.5529,0,0,0,0,0,0,0,-1,1203,337,7.92111,61.5529
-14,687,7.78076,-61.6407,-0.0556916,0.114033,-0.0117264,0.11484,-0.056498,-1.50214,0.100815,0.046734,1210,337,7.78073,61.6407
-7,687,7.35706,-61.542,-0.0485585,0.116243,-0.00662302,0.116509,-0.0488242,-1.53069,0.0980854,0.0433874,1217,337,7.35701,61.542
0,687,6.77576,-61.3904,0,0,0,0,0,0,0,-1,1224,337,6.77578,61.3904
7,687,11.2598,-64.2324,-0.0368943,0.121152,0.000718584,0.121155,-0.0368975,1.56625,0.0954761,0.0447324,1231,337,11.2598,64.2324
14,687,10.1851,-63.8312,-0.0286565,0.123948,0.00377559,0.124041,-0.0287498,1.54608,0.0937584,0.043593,1238,337,10.185,63.8312
21,687,9.12573,-63.6402,-0.0206217,0.126905,0.00631568,0.127175,-0.0208916,1.52809,0.0925364,0.0470278,1245,337,9.12567,63.6402
28,687,8.40173,-63.6364,-0.0130937,0.129058,0.00894619,0.129619,-0.0136545,1.50819,0.0913049,0.0440089,1252,337,8.40176,63.6364
35,687,7.66077,-63.1869,0,0,0,0,0,0,0,-1,1259,337,7.66073,63.1869
42,687,7.57776,-63.4532,0,0,0,0,0,0,0,-1,1266,337,7.57781,63.4532
49,687,9.14441,-62.5845,0,0,0,0,0,0,0,-1,1273,337,9.14439,62.5845
56,687,8.83411,-62.9546,0.00398845,0.114019,0.0198975,0.117506,0.000500795,1.39728,0.0781711,0.0482762,1280,337,8.83414,62.9545
63,687,8.33179,-63.0321,0.00471194,0.102858,0.0228708,0.107926,-0.000355914,1.35273,0.0720696,0.0418646,1287,337,8.33176,63.0321
70,687,8.06775,-63.4478,0.00558883,0.0890189,0.0264835,0.0967156,-0.00210787,1.28796,0.065191,0.0394973,1294,337,8.06773,63.4478
77,687,7.94263,-63.5766,0.00695579,0.0735254,0.0312987,0.0859296,-0.00544842,1.19347,0.0591862,0.0466435,1301,337,7.94261,63.5766
84,687,8.08923,-63.2008,0,0,0,0,0,0,0,-1,1308,337,8.08925,63.2008
91,687,8.07324,-62.745,0,0,0,0,0,0,0,-1,1315,337,8.07321,62.745
98,687,4.52686,-66.731,0,0,0,0,0,0,0,-1,1322,337,4.52684,66.731
105,687,4.59814,-65.342,0,0,0,0,0,0,0,-1,1329,337,4.59819,65.342
112,687,5.10718,-65.1752,0.0207632,0.00701531,0.0572434,0.0715439,-0.0437654,0.725643,0.0672147,0.0442655,1336,337,5.10717,65.1752
119,687,5.66199,-65.1269,0.0256784,-0.00117213,0.0628694,0.07654,-0.0520337,0.680207,0.0746802,0.0430445,1343,337,5.66197,65.1269
126,687,6.16138,-65.0246,0.0303881,-0.00658411,0.0676886,0.0820696,-0.0582656,0.652096,0.0814101,0.0462347,1350,337,6.16139,65.0246
133,687,6.62769,-63.8367,0.0344147,-0.00312363,0.0696716,0.0878011,-0.05651,0.653824,0.0839683,0.0491696,1357,337,6.62769,63.8367
140,687,6.22888,-62.8062,0,0,0,0,0,0,0,-1,1364,337,6.22891,62.8062
147,687,6.39514,-62.3023,0,0,0,0,0,0,0,-1,1371,337,6.39517,62.3023
154,687,6.5614,-61.7985,0,0,0,0,0,0,0,-1,1378,337,6.56143,61.7985
161,687,29.3895,-1.90628,0,0,0,0,0,0,0,-1,1385,337,29.3895,1.90628
168,687,29.8564,-1.19434,0,0,0,0,0,0,0,-1,1392,337,29.8564,1.19434
175,687,30.3419,-0.453583,0,0,0,0,0,0,0,-1,1399,337,30.3419,0.45357
182,687,6.67249,0.289917,0,0,0,0,0,0,0,-1,1406,337,6.67247,-0.289916
189,687,7.76062,4.53635,0,0,0,0,0,0,0,-1,1413,337,7.76064,-4.53636
196,687,6.99048,3.2966,0,0,0,0,0,0,0,-1,1420,337,6.99046,-3.2966
203,687,6.36499,2.1445,0,0,0,0,0,0,0,-1,1427,337,6.36499,-2.14451
210,687,6.68066,0.674652,0,0,0,0,0,0,0,-1,1434,337,6.68062,-0.674655
217,687,5.99683,-0.630493,0,0,0,0,0,0,0,-1,1441,337,5.99684,0.630497
224,687,5.52917,0.524902,0,0,0,0,0,0,0,-1,1448,337,5.5292,-0.524915
231,687,5.85583,-1.73651,0,0,0,0,0,0,0,-1,1455,337,5.85577,1.73651
238,687,5.96582,-2.96774,0,0,0,0,0,0,0,-1,1462,337,5.96577,2.96773
245,687,1.28259,2.32211,0,0,0,0,0,0,0,-1,1469,337,1.28258,-2.32211
252,687,1.97278,3.88422,0,0,0,0,0,0,0,-1,1476,337,1.97281,-3.88421
259,687,0,0,0,0,0,0,0,0,0,-1,1483,337,0,0
266,687,0,0,0,0,0,0,0,0,0,-1,1490,337,0,0
273,687,0,0,0,0,0,0,0,0,0,-1,1497,337,0,0
280,687,0,0,0,0,0,0,0,0,0,-1,1504,337,0,0
287,687,0,0,0,0,0,0,0,0,0,-1,1511,337,0,0
294,687,0,0,0,0,0,0,0,0,0,-1,1518,337,0,0
301,687,0,0,0,0,0,0,0,0,0,-1,1525,337,0,0
308,687,0,0,0,0,0,0,0,0,0,-1,1532,337,0,0
315,687,0,0,0,0,0,0,0,0,0,-1,1539,337,0,0
322,687,0,0,0,0,0,0,0,0,0,-1,1546,337,0,0
329,687,0,0,0,0,0,0,0,0,0,-1,1553,337,0,0
336,687,0,0,0,0,0,0,0,0,0,-1,1560,337,0,0
343,687,0,0,0,0,0,0,0,0,0,-1,1567,337,0,0
350,687,0,0,0,0,0,0,0,0,0,-1,1574,337,0,0
357,687,0,0,0,0,0,0,0,0,0,-1,1581,337,0,0
364,687,0,0,0,0,0,0,0,0,0,-1,1588,337,0,0
371,687,0,0,0,0,0,0,0,0,0,-1,1595,337,0,0
378,687,0,0,0,0,0,0,0,0,0,-1,1602,337,0,0
385,687,0,0,0,0,0,0,0,0,0,-1,1609,337,0,0
392,687,0,0,0,0,0,0,0,0,0,-1,1616,337,0,0
399,687,0,0,0,0,0,0,0,0,0,-1,1623,337,0,0
406,687,0,0,0,0,0,0,0,0,0,-1,1630,337,0,0
413,687,0,0,0,0,0,0,0,0,0,-1,1637,337,0,0
420,687,0,0,0,0,0,0,0,0,0,-1,1644,337,0,0
427,687,0,0,0,0,0,0,0,0,0,-1,1651,337,0,0
434,687,0,0,0,0,0,0,0,0,0,-1,1658,337,0,0
441,687,0,0,0,0,0,0,0,0,0,-1,1665,337,0,0
448,687,0,0,0,0,0,0,0,0,0,-1,1672,337,0,0
455,687,0,0,0,0,0,0,0,0,0,-1,1679,337,0,0
462,687,0,0,0,0,0,0,0,0,0,-1,1686,337,0,0
469,687,0,0,0,0,0,0,0,0,0,-1,1693,337,0,0
476,687,0,0,0,0,0,0,0,0,0,-1,1700,337,0,0
483,687,0,0,0,0,0,0,0,0,0,-1,1707,337,0,0
490,687,0,0,0,0,0,0,0,0,0,-1,1714,337,0,0
497,687,0,0,0,0,0,0,0,0,0,-1,1721,337,0,0
504,687,0,0,0,0,0,0,0,0,0,-1,1728,337,0,0
511,687,0,0,0,0,0,0,0,0,0,-1,1735,337,0,0
518,687,0,0,0,0,0,0,0,0,0,-1,1742,337,0,0
525,687,0,0,0,0,0,0,0,0,0,-1,1749,337,0,0
532,687,0,0,0,0,0,0,0,0,0,-1,1756,337,0,0
539,687,0,0,0,0,0,0,0,0,0,-1,1763,337,0,0
546,687,0,0,0,0,0,0,0,0,0,-1,1770,337,0,0
553,687,0,0,0,0,0,0,0,0,0,-1,1777,337,0,0
560,687,0,0,0,0,0,0,0,0,0,-1,1784,337,0,0
567,687,0,0,0,0,0,0,0,0,0,-1,1791,337,0,0
574,687,0,0,0,0,0,0,0,0,0,-1,1798,337,0,0
581,687,0,0,0,0,0,0,0,0,0,-1,1805,337,0,0
588,687,0,0,0,0,0,0,0,0,0,-1,1812,337,0,0
595,687,0,0,0,0,0,0,0,0,0,-1,1819,337,0,0
602,687,0,0,0,0,0,0,0,0,0,-1,1826,337,0,0
609,687,0,0,0,0,0,0,0,0,0,-1,1833,337,0,0
616,687,0,0,0,0,0,0,0,0,0,-1,1840,337,0,0
623,687,0,0,0,0,0,0,0,0,0,-1,1847,337,0,0
630,687,0,0,0,0,0,0,0,0,0,-1,1854,337,0,0
637,687,0,0,0,0,0,0,0,0,0,-1,1861,337,0,0
644,687,0,0,0,0,0,0,0,0,0,-1,1868,337,0,0
651,687,0,0,0,0,0,0,0,0,0,-1,1875,337,0,0
658,687,0,0,0,0,0,0,0,0,0,-1,1882,337,0,0
665,687,0,0,0,0,0,0,0,0,0,-1,1889,337,0,0
672,687,0,0,0,0,0,0,0,0,0,-1,1896,337,0,0
679,687,0,0,0,0,0,0,0,0,0,-1,1903,337,0,0
686,687,0,0,0,0,0,0,0,0,0,-1,1910,337,0,0
693,687,0,0,0,0,0,0,0,0,0,-1,1917,337,0,0
700,687,0,0,0,0,0,0,0,0,0,-1,1924,337,0,0
707,687,0,0,0,0,0,0,0,0,0,-1,1931,337,0,0
714,687,0,0,0,0,0,0,0,0,0,-1,1938,337,0,0
721,687,0,0,0,0,0,0,0,0,0,-1,1945,337,0,0
728,687,0,0,0,0,0,0,0,0,0,-1,1952,337,0,0
735,687,0,0,0,0,0,0,0,0,0,-1,1959,337,0,0
742,687,0,0,0,0,0,0,0,0,0,-1,1966,337,0,0
749,687,0,0,0,0,0,0,0,0,0,-1,1973,337,0,0
756,687,0,0,0,0,0,0,0,0,0,-1,1980,337,0,0
763,687,0,0,0,0,0,0,0,0,0,-1,1987,337,0,0
770,687,0,0,0,0,0,0,0,0,0,-1,1994,337,0,0
777,687,0,0,0,0,0,0,0,0,0,-1,2001,337,0,0
784,687,0,0,0,0,0,0,0,0,0,-1,2008,337,0,0
791,687,0,0,0,0,0,0,0,0,0,-1,2015,337,0,0
798,687,0,0,0,0,0,0,0,0,0,-1,2022,337,0,0
805,687,0,0,0,0,0,0,0,0,0,-1,2029,337,0,0
812,687,0,0,0,0,0,0,0,0,0,-1,2036,337,0,0
-700,680,0,0,0,0,0,0,0,0,0,-1,524,344,0,0
-693,680,0,0,0,0,0,0,0,0,0,-1,531,344,0,0
-686,680,0,0,0,0,0,0,0,0,0,-1,538,344,0,0
-679,680,0,0,0,0,0,0,0,0,0,-1,545,344,0,0
-672,680,0,0,0,0,0,0,0,0,0,-1,552,344,0,0
-665,680,0,0,0,0,0,0,0,0,0,-1,559,344,0,0
-658,680,0,0,0,0,0,0,0,0,0,-1,566,344,0,0
-651,680,0,0,0,0,0,0,0,0,0,-1,573,344,0,0
-644,680,0,0,0,0,0,0,0,0,0,-1,580,344,0,0
-637,680,0,0,0,0,0,0,0,0,0,-1,587,344,0,0
-630,680,0,0,0,0,0,0,0,0,0,-1,594,344,0,0
-623,680,0,0,0,0,0,0,0,0,0,-1,601,344,0,0
-616,680,0,0,0,0,0,0,0,0,0,-1,608,344,0,0
-609,680,0,0,0,0,0,0,0,0,0,-1,615,344,0,0
-602,680,0,0,0,0,0,0,0,0,0,-1,622,344,0,0
-595,680,0,0,0,0,0,0,0,0,0,-1,629,344,0,0
-588,680,0,0,0,0,0,0,0,0,0,-1,636,344,0,0
-581,680,0,0,0,0,0,0,0,0,0,-1,643,344,0,0
-574,680,0,0,0,0,0,0,0,0,0,-1,650,344,0,0
-567,680,0,0,0,0,0,0,0,0,0,-1,657,344,0,0
-560,680,0,0,0,0,0,0,0,0,0,-1,664,344,0,0
-553,680,0,0,0,0,0,0,0,0,0,-1,671,344,0,0
-546,680,0,0,0,0,0,0,0,0,0,-1,678,344,0,0
-539,680,0,0,0,0,0,0,0,0,0,-1,685,344,0,0
-532,680,0,0,0,0,0,0,0,0,0,-1,692,344,0,0
-525,680,0,0,0,0,0,0,0,0,0,-1,699,344,0,0
-518,680,0,0,0,0,0,0,0,0,0,-1,706,344,0,0
-511,680,0,0,0,0,0,0,0,0,0,-1,713,344,0,0
-504,680,0,0,0,0,0,0,0,0,0,-1,720,344,0,0
-497,680,0,0,0,0,0,0,0,0,0,-1,727,344,0,0
-490,680,0,0,0,0,0,0,0,0,0,-1,734,344,0,0
-483,680,0,0,0,0,0,0,0,0,0,-1,741,344,0,0
-476,680,0,0,0,0,0,0,0,0,0,-1,748,344,0,0
-469,680,0,0,0,0,0,0,0,0,0,-1,755,344,0,0
-462,680,0,0,0,0,0,0,0,0,0,-1,762,344,0,0
-455,680,0,0,0,0,0,0,0,0,0,-1,769,344,0,0
-448,680,0,0,0,0,0,0,0,0,0,-1,776,344,0,0
-441,680,0,0,0,0,0,0,0,0,0,-1,783,344,0,0
-434,680,0,0,0,0,0,0,0,0,0,-1,790,344,0,0
-427,680,0,0,0,0,0,0,0,0,0,-1,797,344,0,0
-420,680,0,0,0,0,0,0,0,0,0,-1,804,344,0,0
-413,680,0,0,0,0,0,0,0,0,0,-1,811,344,0,0
-406,680,0,0,0,0,0,0,0,0,0,-1,818,344,0,0
-399,680,0,0,0,0,0,0,0,0,0,-1,825,344,0,0
-392,680,0,0,0,0,0,0,0,0,0,-1,832,344,0,0
-385,680,0,0,0,0,0,0,0,0,0,-1,839,344,0,0
-378,680,0,0,0,0,0,0,0,0,0,-1,846,344,0,0
-371,680,0,0,0,0,0,0,0,0,0,-1,853,344,0,0
-364,680,0,0,0,0,0,0,0,0,0,-1,860,344,0,0
-357,680,0,0,0,0,0,0,0,0,0,-1,867,344,0,0
-350,680,0,0,0,0,0,0,0,0,0,-1,874,344,0,0
-343,680,0,0,0,0,0,0,0,0,0,-1,881,344,0,0
-336,680,0,0,0,0,0,0,0,0,0,-1,888,344,0,0
-329,680,0,0,0,0,0,0,0,0,0,-1,895,344,0,0
-322,680,0,0,0,0,0,0,0,0,0,-1,902,344,0,0
-315,680,0,0,0,0,0,0,0,0,0,-1,909,344,0,0
-308,680,0,0,0,0,0,0,0,0,0,-1,916,344,0,0
-301,680,0,0,0,0,0,0,0,0,0,-1,923,344,0,0
-294,680,0,0,0,0,0,0,0,0,0,-1,930,344,0,0
-287,680,0,0,0,0,0,0,0,0,0,-1,937,344,0,0
-280,680,0,0,0,0,0,0,0,0,0,-1,944,344,0,0
-273,680,0,0,0,0,0,0,0,0,0,-1,951,344,0,0
-266,680,0,0,0,0,0,0,0,0,0,-1,958,344,0,0
-259,680,0,0,0,0,0,0,0,0,0,-1,965,344,0,0
-252,680,0,0,0,0,0,0,0,0,0,-1,972,344,0,0
-245,680,0,0,0,0,0,0,0,0,0,-1,979,344,0,0
-238,680,0,0,0,0,0,0,0,0,0,-1,986,344,0,0
-231,680,0,0,0,0,0,0,0,0,0,-1,993,344,0,0
-224,680,0,0,0,0,0,0,0,0,0,-1,1000,344,0,0
-217,680,0,0,0,0,0,0,0,0,0,-1,1007,344,0,0
-210,680,0,0,0,0,0,0,0,0,0,-1,1014,344,0,0
-203,680,0,0,0,0,0,0,0,0,0,-1,1021,344,0,0
-196,680,0,0,0,0,0,0,0,0,0,-1,1028,344,0,0
-189,680,0,0,0,0,0,0,0,0,0,-1,1035,344,0,0
-182,680,0,0,0,0,0,0,0,0,0,-1,1042,344,0,0
-175,680,0,0,0,0,0,0,0,0,0,-1,1049,344,0,0
-168,680,0,0,0,0,0,0,0,0,0,-1,1056,344,0,0
-161,680,0,0,0,0,0,0,0,0,0,-1,1063,344,0,0
-154,680,2.25244,-29.1442,0,0,0,0,0,0,0,-1,1070,344,2.25241,29.1442
-147,680,9.29614,-33.0369,0,0,0,0,0,0,0,-1,1077,344,9.29612,33.0369
-140,680,6.98022,-36.6899,0,0,0,0,0,0,0,-1,1084,344,6.98023,36.6899
-133,680,1.85693,-39.7233,0,0,0,0,0,0,0,-1,1091,344,1.85699,39.7233
-126,680,2.30017,-38.3751,0,0,0,0,0,0,0,-1,1098,344,2.30011,38.3751
-119,680,2.74329,-37.0269,0,0,0,0,0,0,0,-1,1105,344,2.74323,37.0269
-112,680,7.7467,-32.4407,0,0,0,0,0,0,0,-1,1112,344,7.74668,32.4407
-105,680,20.6371,-48.461,0,0,0,0,0,0,0,-1,1119,344,20.6371,48.461
-98,680,14.2684,-41.9997,0,0,0,0,0,0,0,-1,1126,344,14.2685,41.9997
-91,680,7.89648,-35.5147,0,0,0,0,0,0,0,-1,1133,344,7.8965,35.5147
-84,680,1.47168,-29.471,0,0,0,0,0,0,0,-1,1140,344,1.47163,29.471
-77,680,-4.95337,-23.3355,0,0,0,0,0,0,0,-1,1147,344,-4.9534,23.3356
-70,680,-11.5099,-17.4337,0,0,0,0,0,0,0,-1,1154,344,-11.5098,17.4338
-63,680,-17.2391,-1.43134,0,0,0,0,0,0,0,-1,1161,344,-17.2392,1.43133
-56,680,-6.96912,-8.83356,0,0,0,0,0,0,0,-1,1168,344,-6.96907,8.83354
-49,680,-6.7677,-2.24063,0,0,0,0,0,0,0,-1,1175,344,-6.76772,2.24063
-42,680,-1.02368,0.618805,0,0,0,0,0,0,0,-1,1182,344,-1.0237,-0.618797
-35,680,-0.947876,-0.942719,0,0,0,0,0,0,0,-1,1189,344,-0.947842,0.942731
-28,680,-1.46118,-1.10574,0,0,0,0,0,0,0,-1,1196,344,-1.4612,1.10575
-21,680,8.61511,-62.3637,0,0,0,0,0,0,0,-1,1203,344,8.61511,62.3637
-14,680,8.32153,-62.7941,0,0,0,0,0,0,0,-1,1210,344,8.32158,62.7941
-7,680,9.01379,-64.3505,0,0,0,0,0,0,0,-1,1217,344,9.01375,64.3505
0,680,12.5088,-65.1656,0,0,0,0,0,0,0,-1,1224,344,12.5088,65.1657
7,680,11.6321,-64.4123,0,0,0,0,0,0,0,-1,1231,344,11.6321,64.4123
14,680,9.23645,-63.5569,0,0,0,0,0,0,0,-1,1238,344,9.23645,63.5569
21,680,9.09021,-64.0829,0,0,0,0,0,0,0,-1,1245,344,9.09019,64.0828
28,680,8.61304,-64.6,0,0,0,0,0,0,0,-1,1252,344,8.61309,64.6
35,680,7.87427,-64.0639,0,0,0,0,0,0,0,-1,1259,344,7.87427,64.0639
42,680,7.83228,-64.3277,-0.00688695,0.103879,0.0107504,0.104913,-0.00792068,1.47493,0.0727262,0.0455888,1266,344,7.83226,64.3277
49,680,7.82324,-64.6489,-0.00367035,0.102114,0.012709,0.103619,-0.0051758,1.45289,0.0708679,0.0441909,1273,344,7.82321,64.6489
56,680,8.00537,-64.786,-0.00162897,0.0965934,0.0147142,0.0987503,-0.00378586,1.42525,0.0671311,0.0426496,1280,344,8.00532,64.786
63,680,7.55151,-64.3539,0,0,0,0,0,0,0,-1,1287,344,7.55152,64.3538
70,680,7.79443,-64.5551,0.00070406,0.0771928,0.0202843,0.0822391,-0.0043423,1.32697,0.0563293,0.0376126,1294,344,7.79443,64.5551
77,680,8.00757,-64.3439,0.00237443,0.0648391,0.0243801,0.0732281,-0.00601456,1.23939,0.0509421,0.0431751,1301,344,8.00759,64.3439
84,680,8.00122,-64.1082,0,0,0,0,0,0,0,-1,1308,344,8.00126,64.1081
91,680,7.43921,-64.1537,0,0,0,0,0,0,0,-1,1315,344,7.43926,64.1537
98,680,11.3035,-60.1609,0,0,0,0,0,0,0,-1,1322,344,11.3034,60.1609
105,680,4.42004,-65.2501,0,0,0,0,0,0,0,-1,1329,344,4.41998,65.2501
112,680,4.7345,-65.2431,0.0148035,0.0115098,0.0456853,0.0588716,-0.0325583,0.767382,0.0535108,0.0471303,1336,344,4.73449,65.2431
119,680,5.05042,-65.2126,0.0187179,0.00498046,0.0500047,0.0623234,-0.038625,0.717144,0.0588155,0.0460363,1343,344,5.05038,65.2126
126,680,5.44214,-64.6731,0.0222595,0.000822999,0.053688,0.0662887,-0.0432062,0.686874,0.0636834,0.0444074,1350,344,5.44213,64.6731
133,680,6.00513,-63.9136,0.0249959,0.00297318,0.0550846,0.0701589,-0.0421899,0.686749,0.0655312,0.0461435,1357,344,6.00514,63.9136
140,680,6.23486,-63.4284,0,0,0,0,0,0,0,-1,1364,344,6.23483,63.4284
147,680,6.32886,-62.8582,0,0,0,0,0,0,0,-1,1371,344,6.32888,62.8582
154,680,5.80139,-61.638,0,0,0,0,0,0,0,-1,1378,344,5.80145,61.638
161,680,5.30676,-60.3476,0,0,0,0,0,0,0,-1,1385,344,5.30681,60.3476
168,680,29.4142,-2.51651,0,0,0,0,0,0,0,-1,1392,344,29.4142,2.51652
175,680,6.66541,0.942078,0,0,0,0,0,0,0,-1,1399,344,6.66538,-0.942088
182,680,6.52917,0.532379,0,0,0,0,0,0,0,-1,1406,344,6.52922,-0.532385
189,680,7.55884,4.77695,0,0,0,0,0,0,0,-1,1413,344,7.55886,-4.77694
196,680,6.55627,3.35254,0,0,0,0,0,0,0,-1,1420,344,6.55622,-3.35255
203,680,5.7334,1.90753,0,0,0,0,0,0,0,-1,1427,344,5.73341,-1.90754
210,680,5.27515,0.493622,0,0,0,0,0,0,0,-1,1434,344,5.27514,-0.493632
217,680,6.56384,-0.374176,0,0,0,0,0,0,0,-1,1441,344,6.56379,0.374176
224,680,3.9491,-0.640228,0,0,0,0,0,0,0,-1,1448,344,3.94908,0.64024
231,680,4.24866,-1.96881,0,0,0,0,0,0,0,-1,1455,344,4.2486,1.96882
238,680,4.29333,-3.23984,0,0,0,0,0,0,0,-1,1462,344,4.29332,3.23984
245,680,2.44397,0.985382,0,0,0,0,0,0,0,-1,1469,344,2.44402,-0.985394
252,680,3.07349,2.18951,0,0,0,0,0,0,0,-1,1476,344,3.0735,-2.18952
259,680,2.82971,1.30682,0,0,0,0,0,0,0,-1,1483,344,2.82972,-1.30684
266,680,2.67554,1.44067,0,0,0,0,0,0,0,-1,1490,344,2.67551,-1.44066
273,680,2.46411,1.54666,0,0,0,0,0,0,0,-1,1497,344,2.46407,-1.54666
280,680,0,0,0,0,0,0,0,0,0,-1,1504,344,0,0
287,680,0,0,0,0,0,0,0,0,0,-1,1511,344,0,0
294,680,0,0,0,0,0,0,0,0,0,-1,1518,344,0,0
301,680,0,0,0,0,0,0,0,0,0,-1,1525,344,0,0
308,680,0,0,0,0,0,0,0,0,0,-1,1532,344,0,0
315,680,0,0,0,0,0,0,0,0,0,-1,1539,344,0,0
322,680,0,0,0,0,0,0,0,0,0,-1,1546,344,0,0
329,680,0,0,0,0,0,0,0,0,0,-1,1553,344,0,0
336,680,0,0,0,0,0,0,0,0,0,-1,1560,344,0,0
343,680,0,0,0,0,0,0,0,0,0,-1,1567,344,0,0
350,680,0,0,0,0,0,0,0,0,0,-1,1574,344,0,0
357,680,0,0,0,0,0,0,0,0,0,-1,1581,344,0,0
364,680,0,0,0,0,0,0,0,0,0,-1,1588,344,0,0
371,680,0,0,0,0,0,0,0,0,0,-1,1595,344,0,0
378,680,0,0,0,0,0,0,0,0,0,-1,1602,344,0,0
385,680,0,0,0,0,0,0,0,0,0,-1,1609,344,0,0
392,680,0,0,0,0,0,0,0,0,0,-1,1616,344,0,0
399,680,0,0,0,0,0,0,0,0,0,-1,1623,344,0,0
406,680,0,0,0,0,0,0,0,0,0,-1,1630,344,0,0
413,680,0,0,0,0,0,0,0,0,0,-1,1637,344,0,0
420,680,0,0,0,0,0,0,0,0,0,-1,1644,344,0,0
427,680,0,0,0,0,0,0,0,0,0,-1,1651,344,0,0
434,680,0,0,0,0,0,0,0,0,0,-1,1658,344,0,0
441,680,0,0,0,0,0,0,0,0,0,-1,1665,344,0,0
448,680,0,0,0,0,0,0,0,0,0,-1,1672,344,0,0
455,680,0,0,0,0,0,0,0,0,0,-1,1679,344,0,0
462,680,0,0,0,0,0,0,0,0,0,-1,1686,344,0,0
469,680,0,0,0,0,0,0,0,0,0,-1,1693,344,0,0
476,680,0,0,0,0,0,0,0,0,0,-1,1700,344,0,0
483,680,0,0,0,0,0,0,0,0,0,-1,1707,344,0,0
490,680,0,0,0,0,0,0,0,0,0,-1,1714,344,0,0
497,680,0,0,0,0,0,0,0,0,0,-1,1721,344,0,0
504,680,0,0,0,0,0,0,0,0,0,-1,1728,344,0,0
511,680,0,0,0,0,0,0,0,0,0,-1,1735,344,0,0
518,680,0,0,0,0,0,0,0,0,0,-1,1742,344,0,0
525,680,0,0,0,0,0,0,0,0,0,-1,1749,344,0,0
532,680,0,0,0,0,0,0,0,0,0,-1,1756,344,0,0
539,680,0,0,0,0,0,0,0,0,0,-1,1763,344,0,0
546,680,0,0,0,0,0,0,0,0,0,-1,1770,344,0,0
553,680,0,0,0,0,0,0,0,0,0,-1,1777,344,0,0
560,680,0,0,0,0,0,0,0,0,0,-1,1784,344,0,0
567,680,0,0,0,0,0,0,0,0,0,-1,1791,344,0,0
574,680,0,0,0,0,0,0,0,0,0,-1,1798,344,0,0
581,680,0,0,0,0,0,0,0,0,0,-1,1805,344,0,0
588,680,0,0,0,0,0,0,0,0,0,-1,1812,344,0,0
595,680,0,0,0,0,0,0,0,0,0,-1,1819,344,0,0
602,680,0,0,0,0,0,0,0,0,0,-1,1826,344,0,0
609,680,0,0,0,0,0,0,0,0,0,-1,1833,344,0,0
616,680,0,0,0,0,0,0,0,0,0,-1,1840,344,0,0
623,680,0,0,0,0,0,0,0,0,0,-1,1847,344,0,0
630,680,0,0,0,0,0,0,0,0,0,-1,1854,344,0,0
637,680,0,0,0,0,0,0,0,0,0,-1,1861,344,0,0
644,680,0,0,0,0,0,0,0,0,0,-1,1868,344,0,0
651,680,0,0,0,0,0,0,0,0,0,-1,1875,344,0,0
658,680,0,0,0,0,0,0,0,0,0,-1,1882,344,0,0
665,680,0,0,0,0,0,0,0,0,0,-1,1889,344,0,0
672,680,0,0,0,0,0,0,0,0,0,-1,1896,344,0,0
679,680,0,0,0,0,0,0,0,0,0,-1,1903,344,0,0
686,680,0,0,0,0,0,0,0,0,0,-1,1910,344,0,0
693,680,0,0,0,0,0,0,0,0,0,-1,1917,344,0,0
700,680,0,0,0,0,0,0,0,0,0,-1,1924,344,0,0
707,680,0,0,0,0,0,0,0,0,0,-1,1931,344,0,0
714,680,0,0,0,0,0,0,0,0,0,-1,1938,344,0,0
721,680,0,0,0,0,0,0,0,0,0,-1,1945,344,0,0
728,680,0,0,0,0,0,0,0,0,0,-1,1952,344,0,0
735,680,0,0,0,0,0,0,0,0,0,-1,1959,344,0,0
742,680,0,0,0,0,0,0,0,0,0,-1,1966,344,0,0
749,680,0,0,0,0,0,0,0,0,0,-1,1973,344,0,0
756,680,0,0,0,0,0,0,0,0,0,-1,1980,344,0,0
763,680,0,0,0,0,0,0,0,0,0,-1,1987,344,0,0
770,680,0,0,0,0,0,0,0,0,0,-1,1994,344,0,0
777,680,0,0,0,0,0,0,0,0,0,-1,2001,344,0,0
784,680,0,0,0,0,0,0,0,0,0,-1,2008,344,0,0
791,680,0,0,0,0,0,0,0,0,0,-1,2015,344,0,0
798,680,0,0,0,0,0,0,0,0,0,-1,2022,344,0,0
805,680,0,0,0,0,0,0,0,0,0,-1,2029,344,0,0
812,680,0,0,0,0,0,0,0,0,0,-1,2036,344,0,0
-700,673,0,0,0,0,0,0,0,0,0,-1,524,351,0,0
-693,673,0,0,0,0,0,0,0,0,0,-1,531,351,0,0
-686,673,0,0,0,0,0,0,0,0,0,-1,538,351,0,0
-679,673,0,0,0,0,0,0,0,0,0,-1,545,351,0,0
-672,673,0,0,0,0,0,0,0,0,0,-1,552,351,0,0
-665,673,0,0,0,0,0,0,0,0,0,-1,559,351,0,0
-658,673,0,0,0,0,0,0,0,0,0,-1,566,351,0,0
-651,673,0,0,0,0,0,0,0,0,0,-1,573,351,0,0
-644,673,0,0,0,0,0,0,0,0,0,-1,580,351,0,0
-637,673,0,0,0,0,0,0,0,0,0,-1,587,351,0,0
-630,673,0,0,0,0,0,0,0,0,0,-1,594,351,0,0
-623,673,0,0,0,0,0,0,0,0,0,-1,601,351,0,0
-616,673,0,0,0,0,0,0,0,0,0,-1,608,351,0,0
-609,673,0,0,0,0,0,0,0,0,0,-1,615,351,0,0
-602,673,0,0,0,0,0,0,0,0,0,-1,622,351,0,0
-595,673,0,0,0,0,0,0,0,0,0,-1,629,351,0,0
-588,673,0,0,0,0,0,0,0,0,0,-1,636,351,0,0
-581,673,0,0,0,0,0,0,0,0,0,-1,643,351,0,0
-574,673,0,0,0,0,0,0,0,0,0,-1,650,351,0,0
-567,673,0,0,0,0,0,0,0,0,0,-1,657,351,0,0
-560,673,0,0,0,0,0,0,0,0,0,-1,664,351,0,0
-553,673,0,0,0,0,0,0,0,0,0,-1,671,351,0,0
-546,673,0,0,0,0,0,0,0,0,0,-1,678,351,0,0
-539,673,0,0,0,0,0,0,0,0,0,-1,685,351,0,0
-532,673,0,0,0,0,0,0,0,0,0,-1,692,351,0,0
-525,673,0,0,0,0,0,0,0,0,0,-1,699,351,0,0
-518,673,0,0,0,0,0,0,0,0,0,-1,706,351,0,0
-511,673,0,0,0,0,0,0,0,0,0,-1,713,351,0,0
-504,673,0,0,0,0,0,0,0,0,0,-1,720,351,0,0
-497,673,0,0,0,0,0,0,0,0,0,-1,727,351,0,0
-490,673,0,0,0,0,0,0,0,0,0,-1,734,351,0,0
-483,673,0,0,0,0,0,0,0,0,0,-1,741,351,0,0
-476,673,0,0,0,0,0,0,0,0,0,-1,748,351,0,0
-469,673,0,0,0,0,0,0,0,0,0,-1,755,351,0,0
-462,673,0,0,0,0,0,0,0,0,0,-1,762,351,0,0
-455,673,0,0,0,0,0,0,0,0,0,-1,769,351,0,0
-448,673,0,0,0,0,0,0,0,0,0,-1,776,351,0,0
-441,673,0,0,0,0,0,0,0,0,0,-1,783,351,0,0
-434,673,0,0,0,0,0,0,0,0,0,-1,790,351,0,0
-427,673,0,0,0,0,0,0,0,0,0,-1,797,351,0,0
-420,673,0,0,0,0,0,0,0,0,0,-1,804,351,0,0
-413,673,0,0,0,0,0,0,0,0,0,-1,811,351,0,0
-406,673,0,0,0,0,0,0,0,0,0,-1,818,351,0,0
-399,673,0,0,0,0,0,0,0,0,0,-1,825,351,0,0
-392,673,0,0,0,0,0,0,0,0,0,-1,832,351,0,0
-385,673,0,0,0,0,0,0,0,0,0,-1,839,351,0,0
-378,673,0,0,0,0,0,0,0,0,0,-1,846,351,0,0
-371,673,0,0,0,0,0,0,0,0,0,-1,853,351,0,0
-364,673,0,0,0,0,0,0,0,0,0,-1,860,351,0,0
-357,673,0,0,0,0,0,0,0,0,0,-1,867,351,0,0
-350,673,0,0,0,0,0,0,0,0,0,-1,874,351,0,0
-343,673,0,0,0,0,0,0,0,0,0,-1,881,351,0,0
-336,673,0,0,0,0,0,0,0,0,0,-1,888,351,0,0
-329,673,0,0,0,0,0,0,0,0,0,-1,895,351,0,0
-322,673,0,0,0,0,0,0,0,0,0,-1,902,351,0,0
-315,673,0,0,0,0,0,0,0,0,0,-1,909,351,0,0
-308,673,0,0,0,0,0,0,0,0,0,-1,916,351,0,0
-301,673,0,0,0,0,0,0,0,0,0,-1,923,351,0,0
-294,673,0,0,0,0,0,0,0,0,0,-1,930,351,0,0
-287,673,0,0,0,0,0,0,0,0,0,-1,937,351,0,0
-280,673,0,0,0,0,0,0,0,0,0,-1,944,351,0,0
-273,673,0,0,0,0,0,0,0,0,0,-1,951,351,0,0
-266,673,0,0,0,0,0,0,0,0,0,-1,958,351,0,0
-259,673,0,0,0,0,0,0,0,0,0,-1,965,351,0,0
-252,673,0,0,0,0,0,0,0,0,0,-1,972,351,0,0
-245,673,0,0,0,0,0,0,0,0,0,-1,979,351,0,0
-238,673,0,0,0,0,0,0,0,0,0,-1,986,351,0,0
-231,673,0,0,0,0,0,0,0,0,0,-1,993,351,0,0
-224,673,0,0,0,0,0,0,0,0,0,-1,1000,351,0,0
-217,673,0,0,0,0,0,0,0,0,0,-1,1007,351,0,0
-210,673,0,0,0,0,0,0,0,0,0,-1,1014,351,0,0
-203,673,0,0,0,0,0,0,0,0,0,-1,1021,351,0,0
-196,673,0,0,0,0,0,0,0,0,0,-1,1028,351,0,0
-189,673,0,0,0,0,0,0,0,0,0,-1,1035,351,0,0
-182,673,0,0,0,0,0,0,0,0,0,-1,1042,351,0,0
-175,673,7.10449,-31.8279,0,0,0,0,0,0,0,-1,1049,351,7.10448,31.8279
-168,673,7.33081,-32.7122,0,0,0,0,0,0,0,-1,1056,351,7.33085,32.7122
-161,673,7.8938,-33.5352,0,0,0,0,0,0,0,-1,1063,351,7.89385,33.5352
-154,673,8.80566,-35.3518,0,0,0,0,0,0,0,-1,1070,351,8.80563,35.3518
-147,673,2.89221,-37.7351,0,0,0,0,0,0,0,-1,1077,351,2.89224,37.7351
-140,673,3.35046,-37.7151,0,0,0,0,0,0,0,-1,1084,351,3.35046,37.715
-133,673,3.35339,-39.0288,0,0,0,0,0,0,0,-1,1091,351,3.35342,39.0288
-126,673,3.7533,-38.0453,0,0,0,0,0,0,0,-1,1098,351,3.7533,38.0453
-119,673,4.1532,-37.0618,0,0,0,0,0,0,0,-1,1105,351,4.15318,37.0618
-112,673,7.27234,-32.5801,0,0,0,0,0,0,0,-1,1112,351,7.27231,32.5801
-105,673,21.1144,-43.3143,0,0,0,0,0,0,0,-1,1119,351,21.1143,43.3143
-98,673,14.8014,-36.7519,0,0,0,0,0,0,0,-1,1126,351,14.8014,36.7519
-91,673,8.54944,-29.9639,0,0,0,0,0,0,0,-1,1133,351,8.54949,29.9639
-84,673,2.17102,-24.3204,0,0,0,0,0,0,0,-1,1140,351,2.17107,24.3204
-77,673,-4.25378,-18.8346,0,0,0,0,0,0,0,-1,1147,351,-4.25381,18.8346
-70,673,-10.7933,-13.6681,0,0,0,0,0,0,0,-1,1154,351,-10.7934,13.6681
-63,673,-17.3896,-8.24469,0,0,0,0,0,0,0,-1,1161,351,-17.3896,8.2447
-56,673,-18.0282,2.79053,0,0,0,0,0,0,0,-1,1168,351,-18.0283,-2.79052
-49,673,-0.926758,-0.115448,0,0,0,0,0,0,0,-1,1175,351,-0.926732,0.115444
-42,673,-1.15015,0.289917,0,0,0,0,0,0,0,-1,1182,351,-1.15017,-0.289932
-35,673,-0.919556,-1.00711,0,0,0,0,0,0,0,-1,1189,351,-0.919514,1.00711
-28,673,5.28918,-39.2331,0,0,0,0,0,0,0,-1,1196,351,5.28924,39.2331
-21,673,9.33228,-63.3274,0,0,0,0,0,0,0,-1,1203,351,9.33233,63.3274
-14,673,8.70068,-63.5022,-0.0345229,0.07211,-0.0091873,0.0728958,-0.0353086,-1.48548,0.0637158,0.0473017,1210,351,8.70069,63.5022
-7,673,8.9176,-64.4188,-0.0311492,0.0748303,-0.0063229,0.0752062,-0.0315251,-1.51142,0.0633182,0.0488406,1217,351,8.91757,64.4188
0,673,8.82031,-64.354,0,0,0,0,0,0,0,-1,1224,351,8.82037,64.354
7,673,8.6969,-64.4156,0,0,0,0,0,0,0,-1,1231,351,8.69691,64.4156
14,673,8.875,-64.2505,-0.0224017,0.081895,-0.000333231,0.081896,-0.0224028,-1.5676,0.0633984,0.049211,1238,351,8.87494,64.2505
21,673,8.69238,-64.6472,-0.0183826,0.084332,0.00133141,0.0843492,-0.0183998,1.55784,0.0632644,0.036495,1245,351,8.69237,64.6473
28,673,8.71851,-65.0087,0,0,0,0,0,0,0,-1,1252,351,8.71855,65.0087
35,673,8.48804,-64.9212,0,0,0,0,0,0,0,-1,1259,351,8.48808,64.9212
42,673,8.11951,-65.031,-0.00868718,0.0845592,0.00732326,0.0851308,-0.00925882,1.4929,0.0600785,0.0430566,1266,351,8.11955,65.031
49,673,8.02869,-65.2076,-0.00631795,0.0835199,0.00891561,0.0843962,-0.0071942,1.47283,0.058809,0.0247764,1273,351,8.02863,65.2076
56,673,7.98889,-65.2139,-0.00468806,0.0796894,0.0104828,0.0809722,-0.0059709,1.44903,0.0560779,0.0187855,1280,351,7.98885,65.2139
63,673,7.98755,-64.9522,-0.00352098,0.0734121,0.0125181,0.0753977,-0.00550658,1.41349,0.0521976,0.0238779,1287,351,7.98758,64.9522
70,673,7.91272,-64.936,-0.00221976,0.065199,0.0150056,0.068388,-0.00540876,1.36139,0.0474977,0.03889,1294,351,7.91273,64.936
77,673,7.8728,-64.824,-0.000564976,0.0556759,0.0183644,0.0611414,-0.00603042,1.28153,0.0429125,0.0439193,1301,351,7.87285,64.824
84,673,7.47876,-64.7988,0.00193806,0.0454065,0.0224183,0.0548966,-0.00755199,1.17035,0.0393573,0.0476994,1308,351,7.47871,64.7988
91,673,6.96313,-65.1005,0,0,0,0,0,0,0,-1,1315,351,6.96314,65.1005
98,673,7.22742,-65.2541,0,0,0,0,0,0,0,-1,1322,351,7.22747,65.2541
105,673,6.91479,-65.0857,0,0,0,0,0,0,0,-1,1329,351,6.91484,65.0857
112,673,4.45007,-65.361,0,0,0,0,0,0,0,-1,1336,351,4.45011,65.361
119,673,4.66846,-65.3046,0,0,0,0,0,0,0,-1,1343,351,4.6685,65.3046
126,673,5.17969,-64.848,0,0,0,0,0,0,0,-1,1350,351,5.17975,64.848
133,673,5.82227,-64.2765,0,0,0,0,0,0,0,-1,1357,351,5.82231,64.2765
140,673,6.34546,-63.6839,0,0,0,0,0,0,0,-1,1364,351,6.34548,63.6839
147,673,6.27869,-63.1405,0.018722,0.017997,0.041021,0.0593821,-0.0226631,0.78098,0.0489246,0.048926,1371,351,6.27873,63.1405
154,673,6.12769,-62.4072,0.0166159,0.0228766,0.0399262,0.0597949,-0.0203025,0.82452,0.0480815,0.0471069,1378,351,6.12768,62.4072
161,673,5.94983,-61.7605,0,0,0,0,0,0,0,-1,1385,351,5.94978,61.7605
168,673,6.87061,1.83954,0,0,0,0,0,0,0,-1,1392,351,6.87063,-1.83953
175,673,6.6228,1.1459,0,0,0,0,0,0,0,-1,1399,351,6.62276,-1.14591
182,673,6.37244,0.796112,0,0,0,0,0,0,0,-1,1406,351,6.3724,-0.796102
189,673,6.12097,0.265472,0,0,0,0,0,0,0,-1,1413,351,6.121,-0.265482
196,673,6.02173,3.12717,0,0,0,0,0,0,0,-1,1420,351,6.02176,-3.12717
203,673,5.04456,1.6351,0,0,0,0,0,0,0,-1,1427,351,5.04455,-1.63509
210,673,4.79224,0.447479,0,0,0,0,0,0,0,-1,1434,351,4.79229,-0.447469
217,673,2.01648,0.972687,0,0,0,0,0,0,0,-1,1441,351,2.01644,-0.972691
224,673,2.3689,-1.80539,0,0,0,0,0,0,0,-1,1448,351,2.36896,1.80539
231,673,2.65857,-2.18497,0,0,0,0,0,0,0,-1,1455,351,2.65852,2.18496
238,673,3.77844,-2.06088,0,0,0,0,0,0,0,-1,1462,351,3.77839,2.06088
245,673,3.5376,-0.190399,0,0,0,0,0,0,0,-1,1469,351,3.53759,0.1904
252,673,3.80518,0.55603,0,0,0,0,0,0,0,-1,1476,351,3.80519,-0.556022
259,673,3.88562,1.29617,0,0,0,0,0,0,0,-1,1483,351,3.88562,-1.29618
266,673,4.22424,2.04834,0,0,0,0,0,0,0,-1,1490,351,4.22429,-2.04834
273,673,6.07886,0.385895,0,0,0,0,0,0,0,-1,1497,351,6.0789,-0.385906
280,673,6.97534,-0.0820007,0,0,0,0,0,0,0,-1,1504,351,6.97536,0.0820122
287,673,7.66968,-0.348541,0,0,0,0,0,0,0,-1,1511,351,7.66969,0.348534
294,673,8.20996,0.28537,0,0,0,0,0,0,0,-1,1518,351,8.20993,-0.28536
301,673,0,0,0,0,0,0,0,0,0,-1,1525,351,0,0
308,673,0,0,0,0,0,0,0,0,0,-1,1532,351,0,0
315,673,0,0,0,0,0,0,0,0,0,-1,1539,351,0,0
322,673,0,0,0,0,0,0,0,0,0,-1,1546,351,0,0
329,673,0,0,0,0,0,0,0,0,0,-1,1553,351,0,0
336,673,0,0,0,0,0,0,0,0,0,-1,1560,351,0,0
343,673,0,0,0,0,0,0,0,0,0,-1,1567,351,0,0
350,673,0,0,0,0,0,0,0,0,0,-1,1574,351,0,0
357,673,0,0,0,0,0,0,0,0,0,-1,1581,351,0,0
364,673,0,0,0,0,0,0,0,0,0,-1,1588,351,0,0
371,673,0,0,0,0,0,0,0,0,0,-1,1595,351,0,0
378,673,0,0,0,0,0,0,0,0,0,-1,1602,351,0,0
385,673,0,0,0,0,0,0,0,0,0,-1,1609,351,0,0
392,673,0,0,0,0,0,0,0,0,0,-1,1616,351,0,0
399,673,0,0,0,0,0,0,0,0,0,-1,1623,351,0,0
406,673,0,0,0,0,0,0,0,0,0,-1,1630,351,0,0
413,673,0,0,0,0,0,0,0,0,0,-1,1637,351,0,0
420,673,0,0,0,0,0,0,0,0,0,-1,1644,351,0,0
427,673,0,0,0,0,0,0,0,0,0,-1,1651,351,0,0
434,673,0,0,0,0,0,0,0,0,0,-1,1658,351,0,0
441,673,0,0,0,0,0,0,0,0,0,-1,1665,351,0,0
448,673,0,0,0,0,0,0,0,0,0,-1,1672,351,0,0
455,673,0,0,0,0,0,0,0,0,0,-1,1679,351,0,0
462,673,0,0,0,0,0,0,0,0,0,-1,1686,351,0,0
469,673,0,0,0,0,0,0,0,0,0,-1,1693,351,0,0
476,673,0,0,0,0,0,0,0,0,0,-1,1700,351,0,0
483,673,0,0,0,0,0,0,0,0,0,-1,1707,351,0,0
490,673,0,0,0,0,0,0,0,0,0,-1,1714,351,0,0
497,673,0,0,0,0,0,0,0,0,0,-1,1721,351,0,0
504,673,0,0,0,0,0,0,0,0,0,-1,1728,351,0,0
511,673,0,0,0,0,0,0,0,0,0,-1,1735,351,0,0
518,673,0,0,0,0,0,0,0,0,0,-1,1742,351,0,0
525,673,0,0,0,0,0,0,0,0,0,-1,1749,351,0,0
532,673,0,0,0,0,0,0,0,0,0,-1,1756,351,0,0
539,673,0,0,0,0,0,0,0,0,0,-1,1763,351,0,0
546,673,0,0,0,0,0,0,0,0,0,-1,1770,351,0,0
553,673,0,0,0,0,0,0,0,0,0,-1,1777,351,0,0
560,673,0,0,0,0,0,0,0,0,0,-1,1784,351,0,0
567,673,0,0,0,0,0,0,0,0,0,-1,1791,351,0,0
574,673,0,0,0,0,0,0,0,0,0,-1,1798,351,0,0
581,673,0,0,0,0,0,0,0,0,0,-1,1805,351,0,0
588,673,0,0,0,0,0,0,0,0,0,-1,1812,351,0,0
595,673,0,0,0,0,0,0,0,0,0,-1,1819,351,0,0
602,673,0,0,0,0,0,0,0,0,0,-1,1826,351,0,0
609,673,0,0,0,0,0,0,0,0,0,-1,1833,351,0,0
616,673,0,0,0,0,0,0,0,0,0,-1,1840,351,0,0
623,673,0,0,0,0,0,0,0,0,0,-1,1847,351,0,0
630,673,0,0,0,0,0,0,0,0,0,-1,1854,351,0,0
637,673,0,0,0,0,0,0,0,0,0,-1,1861,351,0,0
644,673,0,0,0,0,0,0,0,0,0,-1,1868,351,0,0
651,673,0,0,0,0,0,0,0,0,0,-1,1875,351,0,0
658,673,0,0,0,0,0,0,0,0,0,-1,1882,351,0,0
665,673,0,0,0,0,0,0,0,0,0,-1,1889,351,0,0
672,673,0,0,0,0,0,0,0,0,0,-1,1896,351,0,0
679,673,0,0,0,0,0,0,0,0,0,-1,1903,351,0,0
686,673,0,0,0,0,0,0,0,0,0,-1,1910,351,0,0
693,673,0,0,0,0,0,0,0,0,0,-1,1917,351,0,0
700,673,0,0,0,0,0,0,0,0,0,-1,1924,351,0,0
707,673,0,0,0,0,0,0,0,0,0,-1,1931,351,0,0
714,673,0,0,0,0,0,0,0,0,0,-1,1938,351,0,0
721,673,0,0,0,0,0,0,0,0,0,-1,1945,351,0,0
728,673,0,0,0,0,0,0,0,0,0,-1,1952,351,0,0
735,673,0,0,0,0,0,0,0,0,0,-1,1959,351,0,0
742,673,0,0,0,0,0,0,0,0,0,-1,1966,351,0,0
749,673,0,0,0,0,0,0,0,0,0,-1,1973,351,0,0
756,673,0,0,0,0,0,0,0,0,0,-1,1980,351,0,0
763,673,0,0,0,0,0,0,0,0,0,-1,1987,351,0,0
770,673,0,0,0,0,0,0,0,0,0,-1,1994,351,0,0
777,673,0,0,0,0,0,0,0,0,0,-1,2001,351,0,0
784,673,0,0,0,0,0,0,0,0,0,-1,2008,351,0,0
791,673,0,0,0,0,0,0,0,0,0,-1,2015,351,0,0
798,673,0,0,0,0,0,0,0,0,0,-1,2022,351,0,0
805,673,0,0,0,0,0,0,0,0,0,-1,2029,351,0,0
812,673,0,0,0,0,0,0,0,0,0,-1,2036,351,0,0
-700,666,0,0,0,0,0,0,0,0,0,-1,524,358,0,0
-693,666,0,0,0,0,0,0,0,0,0,-1,531,358,0,0
-686,666,0,0,0,0,0,0,0,0,0,-1,538,358,0,0
-679,666,0,0,0,0,0,0,0,0,0,-1,545,358,0,0
-672,666,0,0,0,0,0,0,0,0,0,-1,552,358,0,0
-665,666,0,0,0,0,0,0,0,0,0,-1,559,358,0,0
-658,666,0,0,0,0,0,0,0,0,0,-1,566,358,0,0
-651,666,0,0,0,0,0,0,0,0,0,-1,573,358,0,0
-644,666,0,0,0,0,0,0,0,0,0,-1,580,358,0,0
-637,666,0,0,0,0,0,0,0,0,0,-1,587,358,0,0
-630,666,0,0,0,0,0,0,0,0,0,-1,594,358,0,0
-623,666,0,0,0,0,0,0,0,0,0,-1,601,358,0,0
-616,666,0,0,0,0,0,0,0,0,0,-1,608,358,0,0
-609,666,0,0,0,0,0,0,0,0,0,-1,615,358,0,0
-602,666,0,0,0,0,0,0,0,0,0,-1,622,358,0,0
-595,666,0,0,0,0,0,0,0,0,0,-1,629,358,0,0
-588,666,0,0,0,0,0,0,0,0,0,-1,636,358,0,0
-581,666,0,0,0,0,0,0,0,0,0,-1,643,358,0,0
-574,666,0,0,0,0,0,0,0,0,0,-1,650,358,0,0
-567,666,0,0,0,0,0,0,0,0,0,-1,657,358,0,0
-560,666,0,0,0,0,0,0,0,0,0,-1,664,358,0,0
-553,666,0,0,0,0,0,0,0,0,0,-1,671,358,0,0
-546,666,0,0,0,0,0,0,0,0,0,-1,678,358,0,0
-539,666,0,0,0,0,0,0,0,0,0,-1,685,358,0,0
-532,666,0,0,0,0,0,0,0,0,0,-1,692,358,0,0
-525,666,0,0,0,0,0,0,0,0,0,-1,699,358,0,0
-518,666,0,0,0,0,0,0,0,0,0,-1,706,358,0,0
-511,666,0,0,0,0,0,0,0,0,0,-1,713,358,0,0
-504,666,0,0,0,0,0,0,0,0,0,-1,720,358,0,0
-497,666,0,0,0,0,0,0,0,0,0,-1,727,358,0,0
-490,666,0,0,0,0,0,0,0,0,0,-1,734,358,0,0
-483,666,0,0,0,0,0,0,0,0,0,-1,741,358,0,0
-476,666,0,0,0,0,0,0,0,0,0,-1,748,358,0,0
-469,666,0,0,0,0,0,0,0,0,0,-1,755,358,0,0
-462,666,0,0,0,0,0,0,0,0,0,-1,762,358,0,0
-455,666,0,0,0,0,0,0,0,0,0,-1,769,358,0,0
-448,666,0,0,0,0,0,0,0,0,0,-1,776,358,0,0
-441,666,0,0,0,0,0,0,0,0,0,-1,783,358,0,0
-434,666,0,0,0,0,0,0,0,0,0,-1,790,358,0,0
-427,666,0,0,0,0,0,0,0,0,0,-1,797,358,0,0
-420,666,0,0,0,0,0,0,0,0,0,-1,804,358,0,0
-413,666,0,0,0,0,0,0,0,0,0,-1,811,358,0,0
-406,666,0,0,0,0,0,0,0,0,0,-1,818,358,0,0
-399,666,0,0,0,0,0,0,0,0,0,-1,825,358,0,0
-392,666,0,0,0,0,0,0,0,0,0,-1,832,358,0,0
-385,666,0,0,0,0,0,0,0,0,0,-1,839,358,0,0
-378,666,0,0,0,0,0,0,0,0,0,-1,846,358,0,0
-371,666,0,0,0,0,0,0,0,0,0,-1,853,358,0,0
-364,666,0,0,0,0,0,0,0,0,0,-1,860,358,0,0
-357,666,0,0,0,0,0,0,0,0,0,-1,867,358,0,0
-350,666,0,0,0,0,0,0,0,0,0,-1,874,358,0,0
-343,666,0,0,0,0,0,0,0,0,0,-1,881,358,0,0
-336,666,0,0,0,0,0,0,0,0,0,-1,888,358,0,0
-329,666,0,0,0,0,0,0,0,0,0,-1,895,358,0,0
-322,666,0,0,0,0,0,0,0,0,0,-1,902,358,0,0
-315,666,0,0,0,0,0,0,0,0,0,-1,909,358,0,0
-308,666,0,0,0,0,0,0,0,0,0,-1,916,358,0,0
-301,666,0,0,0,0,0,0,0,0,0,-1,923,358,0,0
-294,666,0,0,0,0,0,0,0,0,0,-1,930,358,0,0
-287,666,0,0,0,0,0,0,0,0,0,-1,937,358,0,0
-280,666,0,0,0,0,0,0,0,0,0,-1,944,358,0,0
-273,666,0,0,0,0,0,0,0,0,0,-1,951,358,0,0
-266,666,0,0,0,0,0,0,0,0,0,-1,958,358,0,0
-259,666,0,0,0,0,0,0,0,0,0,-1,965,358,0,0
-252,666,0,0,0,0,0,0,0,0,0,-1,972,358,0,0
-245,666,0,0,0,0,0,0,0,0,0,-1,979,358,0,0
-238,666,0,0,0,0,0,0,0,0,0,-1,986,358,0,0
-231,666,0,0,0,0,0,0,0,0,0,-1,993,358,0,0
-224,666,0,0,0,0,0,0,0,0,0,-1,1000,358,0,0
-217,666,0,0,0,0,0,0,0,0,0,-1,1007,358,0,0
-210,666,0,0,0,0,0,0,0,0,0,-1,1014,358,0,0
-203,666,0,0,0,0,0,0,0,0,0,-1,1021,358,0,0
-196,666,4.03418,-28.8724,0,0,0,0,0,0,0,-1,1028,358,4.03422,28.8724
-189,666,5.00366,-29.597,0,0,0,0,0,0,0,-1,1035,358,5.00363,29.597
-182,666,6.83252,-30.9843,0,0,0,0,0,0,0,-1,1042,358,6.83247,30.9844
-175,666,7.01611,-31.8763,0,0,0,0,0,0,0,-1,1049,358,7.01617,31.8762
-168,666,7.21545,-32.7414,0,0,0,0,0,0,0,-1,1056,358,7.2154,32.7414
-161,666,7.69116,-33.6269,0,0,0,0,0,0,0,-1,1063,358,7.69121,33.6269
-154,666,3.79041,-37.9204,0,0,0,0,0,0,0,-1,1070,358,3.79034,37.9204
-147,666,4.17908,-37.7466,0,0,0,0,0,0,0,-1,1077,358,4.17912,37.7466
-140,666,4.54309,-37.735,0,0,0,0,0,0,0,-1,1084,358,4.54304,37.735
-133,666,4.65723,-39.0643,0,0,0,0,0,0,0,-1,1091,358,4.65727,39.0643
-126,666,5.02368,-38.0699,0,0,0,0,0,0,0,-1,1098,358,5.02363,38.0698
-119,666,5.39001,-37.0754,0,0,0,0,0,0,0,-1,1105,358,5.38999,37.0754
-112,666,6.77014,-32.8165,0,0,0,0,0,0,0,-1,1112,358,6.77013,32.8165
-105,666,6.30908,-29.0855,0,0,0,0,0,0,0,-1,1119,358,6.30905,29.0855
-98,666,15.4427,-31.5168,0,0,0,0,0,0,0,-1,1126,358,15.4428,31.5168
-91,666,9.5127,-25.1347,0,0,0,0,0,0,0,-1,1133,358,9.51269,25.1347
-84,666,2.91589,-19.4071,0,0,0,0,0,0,0,-1,1140,358,2.91592,19.4071
-77,666,-3.48083,-14.0782,0,0,0,0,0,0,0,-1,1147,358,-3.48081,14.0782
-70,666,-9.99438,-8.90146,0,0,0,0,0,0,0,-1,1154,358,-9.99433,8.90146
-63,666,-11.7778,-0.975189,0,0,0,0,0,0,0,-1,1161,358,-11.7778,0.97519
-56,666,0.424683,-2.04132,0,0,0,0,0,0,0,-1,1168,358,0.424665,2.04132
-49,666,0.754395,-2.23169,0,0,0,0,0,0,0,-1,1175,358,0.754383,2.23169
-42,666,1.34473,-3.53897,0,0,0,0,0,0,0,-1,1182,358,1.34476,3.53896
-35,666,9.00024,-63.5754,0,0,0,0,0,0,0,-1,1189,358,9.00019,63.5754
-28,666,9.16821,-63.3961,0,0,0,0,0,0,0,-1,1196,358,9.16823,63.3961
-21,666,9.04492,-63.7697,-0.0263759,0.0528456,-0.00864381,0.0537777,-0.027308,-1.46337,0.0476391,0.0448515,1203,358,9.04494,63.7697
-14,666,8.85059,-64.0674,-0.0258406,0.0545934,-0.00758965,0.0553032,-0.0265504,-1.47753,0.0482203,0.0410153,1210,358,8.85057,64.0674
-7,666,8.73083,-64.3726,-0.0237703,0.0571724,-0.00561841,0.0575605,-0.0241584,-1.50182,0.0484764,0.0253524,1217,358,8.7308,64.3726
0,666,8.69385,-64.6691,-0.0226835,0.0587285,-0.0043884,0.0589643,-0.0229194,-1.5171,0.0487785,0.0173001,1224,358,8.69383,64.6691
7,666,8.6012,-64.7964,-0.0206532,0.0612046,-0.00272919,0.0612955,-0.0207441,-1.53751,0.0492566,0.0236199,1231,358,8.6012,64.7963
14,666,8.52551,-64.8638,-0.0182002,0.063594,-0.00125393,0.0636132,-0.0182195,-1.55547,0.04961,0.0217428,1238,358,8.52551,64.8638
21,666,8.40881,-65.1708,-0.0154816,0.0657377,4.26072e-05,0.0657377,-0.0154816,1.57027,0.0497945,0.0176187,1245,358,8.40875,65.1708
28,666,8.33936,-65.3652,-0.0127451,0.0673053,0.00145251,0.0673316,-0.0127715,1.55266,0.049695,0.0240963,1252,358,8.33939,65.3652
35,666,8.29846,-65.3713,-0.0103441,0.0678499,0.0027501,0.0679466,-0.0104407,1.53568,0.049149,0.0226412,1259,358,8.29843,65.3713
42,666,8.15491,-65.4975,-0.00866609,0.0667955,0.00473423,0.0670914,-0.00896194,1.50839,0.0479946,0.0189306,1266,358,8.15496,65.4975
49,666,8.0376,-65.5847,-0.00700403,0.0662662,0.0059768,0.0667506,-0.00748836,1.48994,0.047195,0.0171748,1273,358,8.03754,65.5847
56,666,7.98328,-65.6328,-0.00578718,0.0637433,0.00714397,0.0644697,-0.0065136,1.46946,0.0453073,0.017263,1280,358,7.98331,65.6328
63,666,7.90759,-65.75,-0.00472598,0.0593469,0.00871618,0.0605115,-0.00589053,1.43798,0.042441,0.0210633,1287,358,7.90762,65.75
70,666,7.76831,-65.8737,0,0,0,0,0,0,0,-1,1294,358,7.76836,65.8736
77,666,7.78137,-65.4836,-0.00211774,0.0463036,0.0132895,0.0497111,-0.0055253,1.31979,0.0351277,0.0219063,1301,358,7.78135,65.4836
84,666,7.75964,-65.4614,-8.26569e-05,0.0385392,0.0164564,0.0446,-0.00614346,1.21792,0.0319784,0.0300259,1308,358,7.75962,65.4614
91,666,7.58044,-65.5409,0.000868256,0.0310251,0.0190137,0.0402135,-0.00832014,1.12064,0.0299698,0.0288482,1315,358,7.58045,65.5409
98,666,7.36182,-65.4489,0.00177613,0.0241058,0.0214366,0.0371109,-0.0112289,1.02548,0.029212,0.0247534,1322,358,7.36184,65.4489
105,666,7.20386,-65.2729,0.00388309,0.0197791,0.0241158,0.0372229,-0.0135607,0.944582,0.0303623,0.0297132,1329,358,7.20383,65.2729
112,666,7.12671,-65.0971,0,0,0,0,0,0,0,-1,1336,358,7.12674,65.0971
119,666,7.07068,-64.816,0,0,0,0,0,0,0,-1,1343,358,7.07066,64.816
126,666,7.02759,-64.5949,0,0,0,0,0,0,0,-1,1350,358,7.02754,64.5949
133,666,6.88074,-64.3899,0,0,0,0,0,0,0,-1,1357,358,6.88078,64.3899
140,666,6.69495,-64.0533,0.0113676,0.0137173,0.0310364,0.0436011,-0.0185162,0.804316,0.0368253,0.0440208,1364,358,6.69489,64.0533
147,666,6.52051,-63.7346,0.011289,0.0183145,0.029832,0.0448399,-0.0152364,0.844004,0.0360614,0.032993,1371,358,6.52054,63.7347
154,666,6.47583,-63.1327,0.00938659,0.0220299,0.0287166,0.0451124,-0.0136959,0.89374,0.0355313,0.0294111,1378,358,6.47577,63.1327
161,666,6.47302,-62.731,0.00707373,0.0264431,0.0273048,0.0457299,-0.0122131,0.95582,0.0352696,0.0384642,1385,358,6.47304,62.731
168,666,6.38879,-62.7516,0,0,0,0,0,0,0,-1,1392,358,6.38874,62.7516
175,666,6.46777,-62.482,0,0,0,0,0,0,0,-1,1399,358,6.46776,62.482
182,666,2.60876,-5.17068,0,0,0,0,0,0,0,-1,1406,358,2.6088,5.17068
189,666,2.46973,-5.49979,0,0,0,0,0,0,0,-1,1413,358,2.46975,5.49979
196,666,2.32458,-5.23651,0,0,0,0,0,0,0,-1,1420,358,2.32461,5.23653
203,666,2.28064,-3.88004,0,0,0,0,0,0,0,-1,1427,358,2.28059,3.88003
210,666,3.02576,-5.83548,0,0,0,0,0,0,0,-1,1434,358,3.02581,5.83547
217,666,2.30444,-5.36011,0,0,0,0,0,0,0,-1,1441,358,2.30447,5.3601
224,666,1.82324,-6.03101,0,0,0,0,0,0,0,-1,1448,358,1.82322,6.031
231,666,2.29797,-10.1093,0,0,0,0,0,0,0,-1,1455,358,2.29801,10.1093
238,666,2.52429,-6.10568,0,0,0,0,0,0,0,-1,1462,358,2.52423,6.10567
245,666,4.53345,-1.38205,0,0,0,0,0,0,0,-1,1469,358,4.53349,1.38204
252,666,4.77405,-0.246979,0,0,0,0,0,0,0,-1,1476,358,4.77405,0.246993
259,666,4.83655,1.14087,0,0,0,0,0,0,0,-1,1483,358,4.83652,-1.14087
266,666,6.14148,0.749512,0,0,0,0,0,0,0,-1,1490,358,6.14144,-0.749519
273,666,3.17737,-33.7881,0,0,0,0,0,0,0,-1,1497,358,3.17735,33.7881
280,666,3.37268,-35.2123,0,0,0,0,0,0,0,-1,1504,358,3.37266,35.2123
287,666,-7.06934,-20.3464,0,0,0,0,0,0,0,-1,1511,358,-7.06933,20.3464
294,666,-2.11157,-23.2753,0,0,0,0,0,0,0,-1,1518,358,-2.11162,23.2753
301,666,-3.16162,-22.2271,0,0,0,0,0,0,0,-1,1525,358,-3.16161,22.2271
308,666,-4.24951,-20.9112,0,0,0,0,0,0,0,-1,1532,358,-4.24948,20.9112
315,666,-5.64954,-19.5784,0,0,0,0,0,0,0,-1,1539,358,-5.64959,19.5784
322,666,0,0,0,0,0,0,0,0,0,-1,1546,358,0,0
329,666,0,0,0,0,0,0,0,0,0,-1,1553,358,0,0
336,666,0,0,0,0,0,0,0,0,0,-1,1560,358,0,0
343,666,0,0,0,0,0,0,0,0,0,-1,1567,358,0,0
350,666,0,0,0,0,0,0,0,0,0,-1,1574,358,0,0
357,666,0,0,0,0,0,0,0,0,0,-1,1581,358,0,0
364,666,0,0,0,0,0,0,0,0,0,-1,1588,358,0,0
371,666,0,0,0,0,0,0,0,0,0,-1,1595,358,0,0
378,666,0,0,0,0,0,0,0,0,0,-1,1602,358,0,0
385,666,0,0,0,0,0,0,0,0,0,-1,1609,358,0,0
392,666,0,0,0,0,0,0,0,0,0,-1,1616,358,0,0
399,666,0,0,0,0,0,0,0,0,0,-1,1623,358,0,0
406,666,0,0,0,0,0,0,0,0,0,-1,1630,358,0,0
413,666,0,0,0,0,0,0,0,0,0,-1,1637,358,0,0
420,666,0,0,0,0,0,0,0,0,0,-1,1644,358,0,0
427,666,0,0,0,0,0,0,0,0,0,-1,1651,358,0,0
434,666,0,0,0,0,0,0,0,0,0,-1,1658,358,0,0
441,666,0,0,0,0,0,0,0,0,0,-1,1665,358,0,0
448,666,0,0,0,0,0,0,0,0,0,-1,1672,358,0,0
455,666,0,0,0,0,0,0,0,0,0,-1,1679,358,0,0
462,666,0,0,0,0,0,0,0,0,0,-1,1686,358,0,0
469,666,0,0,0,0,0,0,0,0,0,-1,1693,358,0,0
476,666,0,0,0,0,0,0,0,0,0,-1,1700,358,0,0
483,666,0,0,0,0,0,0,0,0,0,-1,1707,358,0,0
490,666,0,0,0,0,0,0,0,0,0,-1,1714,358,0,0
497,666,0,0,0,0,0,0,0,0,0,-1,1721,358,0,0
504,666,0,0,0,0,0,0,0,0,0,-1,1728,358,0,0
511,666,0,0,0,0,0,0,0,0,0,-1,1735,358,0,0
518,666,0,0,0,0,0,0,0,0,0,-1,1742,358,0,0
525,666,0,0,0,0,0,0,0,0,0,-1,1749,358,0,0
532,666,0,0,0,0,0,0,0,0,0,-1,1756,358,0,0
539,666,0,0,0,0,0,0,0,0,0,-1,1763,358,0,0
546,666,0,0,0,0,0,0,0,0,0,-1,1770,358,0,0
553,666,0,0,0,0,0,0,0,0,0,-1,1777,358,0,0
560,666,0,0,0,0,0,0,0,0,0,-1,1784,358,0,0
567,666,0,0,0,0,0,0,0,0,0,-1,1791,358,0,0
574,666,0,0,0,0,0,0,0,0,0,-1,1798,358,0,0
581,666,0,0,0,0,0,0,0,0,0,-1,1805,358,0,0
588,666,0,0,0,0,0,0,0,0,0,-1,1812,358,0,0
595,666,0,0,0,0,0,0,0,0,0,-1,1819,358,0,0
602,666,0,0,0,0,0,0,0,0,0,-1,1826,358,0,0
609,666,0,0,0,0,0,0,0,0,0,-1,1833,358,0,0
616,666,0,0,0,0,0,0,0,0,0,-1,1840,358,0,0
623,666,0,0,0,0,0,0,0,0,0,-1,1847,358,0,0
630,666,0,0,0,0,0,0,0,0,0,-1,1854,358,0,0
637,666,0,0,0,0,0,0,0,0,0,-1,1861,358,0,0
644,666,0,0,0,0,0,0,0,0,0,-1,1868,358,0,0
651,666,0,0,0,0,0,0,0,0,0,-1,1875,358,0,0
658,666,0,0,0,0,0,0,0,0,0,-1,1882,358,0,0
665,666,0,0,0,0,0,0,0,0,0,-1,1889,358,0,0
672,666,0,0,0,0,0,0,0,0,0,-1,1896,358,0,0
679,666,0,0,0,0,0,0,0,0,0,-1,1903,358,0,0
686,666,0,0,0,0,0,0,0,0,0,-1,1910,358,0,0
693,666,0,0,0,0,0,0,0,0,0,-1,1917,358,0,0
700,666,0,0,0,0,0,0,0,0,0,-1,1924,358,0,0
707,666,0,0,0,0,0,0,0,0,0,-1,1931,358,0,0
714,666,0,0,0,0,0,0,0,0,0,-1,1938,358,0,0
721,666,0,0,0,0,0,0,0,0,0,-1,1945,358,0,0
728,666,0,0,0,0,0,0,0,0,0,-1,1952,358,0,0
735,666,0,0,0,0,0,0,0,0,0,-1,1959,358,0,0
742,666,0,0,0,0,0,0,0,0,0,-1,1966,358,0,0
749,666,0,0,0,0,0,0,0,0,0,-1,1973,358,0,0
756,666,0,0,0,0,0,0,0,0,0,-1,1980,358,0,0
763,666,0,0,0,0,0,0,0,0,0,-1,1987,358,0,0
770,666,0,0,0,0,0,0,0,0,0,-1,1994,358,0,0
777,666,0,0,0,0,0,0,0,0,0,-1,2001,358,0,0
784,666,0,0,0,0,0,0,0,0,0,-1,2008,358,0,0
791,666,0,0,0,0,0,0,0,0,0,-1,2015,358,0,0
798,666,0,0,0,0,0,0,0,0,0,-1,2022,358,0,0
805,666,0,0,0,0,0,0,0,0,0,-1,2029,358,0,0
812,666,0,0,0,0,0,0,0,0,0,-1,2036,358,0,0
-700,659,0,0,0,0,0,0,0,0,0,-1,524,365,0,0
-693,659,0,0,0,0,0,0,0,0,0,-1,531,365,0,0
-686,659,0,0,0,0,0,0,0,0,0,-1,538,365,0,0
-679,659,0,0,0,0,0,0,0,0,0,-1,545,365,0,0
-672,659,0,0,0,0,0,0,0,0,0,-1,552,365,0,0
-665,659,0,0,0,0,0,0,0,0,0,-1,559,365,0,0
-658,659,0,0,0,0,0,0,0,0,0,-1,566,365,0,0
-651,659,0,0,0,0,0,0,0,0,0,-1,573,365,0,0
-644,659,0,0,0,0,0,0,0,0,0,-1,580,365,0,0
-637,659,0,0,0,0,0,0,0,0,0,-1,587,365,0,0
-630,659,0,0,0,0,0,0,0,0,0,-1,594,365,0,0
-623,659,0,0,0,0,0,0,0,0,0,-1,601,365,0,0
-616,659,0,0,0,0,0,0,0,0,0,-1,608,365,0,0
-609,659,0,0,0,0,0,0,0,0,0,-1,615,365,0,0
-602,659,0,0,0,0,0,0,0,0,0,-1,622,365,0,0
-595,659,0,0,0,0,0,0,0,0,0,-1,629,365,0,0
-588,659,0,0,0,0,0,0,0,0,0,-1,636,365,0,0
-581,659,0,0,0,0,0,0,0,0,0,-1,643,365,0,0
-574,659,0,0,0,0,0,0,0,0,0,-1,650,365,0,0
-567,659,0,0,0,0,0,0,0,0,0,-1,657,365,0,0
-560,659,0,0,0,0,0,0,0,0,0,-1,664,365,0,0
-553,659,0,0,0,0,0,0,0,0,0,-1,671,365,0,0
-546,659,0,0,0,0,0,0,0,0,0,-1,678,365,0,0
-539,659,0,0,0,0,0,0,0,0,0,-1,685,365,0,0
-532,659,0,0,0,0,0,0,0,0,0,-1,692,365,0,0
-525,659,0,0,0,0,0,0,0,0,0,-1,699,365,0,0
-518,659,0,0,0,0,0,0,0,0,0,-1,706,365,0,0
-511,659,0,0,0,0,0,0,0,0,0,-1,713,365,0,0
-504,659,0,0,0,0,0,0,0,0,0,-1,720,365,0,0
-497,659,0,0,0,0,0,0,0,0,0,-1,727,365,0,0
-490,659,0,0,0,0,0,0,0,0,0,-1,734,365,0,0
-483,659,0,0,0,0,0,0,0,0,0,-1,741,365,0,0
-476,659,0,0,0,0,0,0,0,0,0,-1,748,365,0,0
-469,659,0,0,0,0,0,0,0,0,0,-1,755,365,0,0
-462,659,0,0,0,0,0,0,0,0,0,-1,762,365,0,0
-455,659,0,0,0,0,0,0,0,0,0,-1,769,365,0,0
-448,659,0,0,0,0,0,0,0,0,0,-1,776,365,0,0
-441,659,0,0,0,0,0,0,0,0,0,-1,783,365,0,0
-434,659,0,0,0,0,0,0,0,0,0,-1,790,365,0,0
-427,659,0,0,0,0,0,0,0,0,0,-1,797,365,0,0
-420,659,0,0,0,0,0,0,0,0,0,-1,804,365,0,0
-413,659,0,0,0,0,0,0,0,0,0,-1,811,365,0,0
-406,659,0,0,0,0,0,0,0,0,0,-1,818,365,0,0
-399,659,0,0,0,0,0,0,0,0,0,-1,825,365,0,0
-392,659,0,0,0,0,0,0,0,0,0,-1,832,365,0,0
-385,659,0,0,0,0,0,0,0,0,0,-1,839,365,0,0
-378,659,0,0,0,0,0,0,0,0,0,-1,846,365,0,0
-371,659,0,0,0,0,0,0,0,0,0,-1,853,365,0,0
-364,659,0,0,0,0,0,0,0,0,0,-1,860,365,0,0
-357,659,0,0,0,0,0,0,0,0,0,-1,867,365,0,0
-350,659,0,0,0,0,0,0,0,0,0,-1,874,365,0,0
-343,659,0,0,0,0,0,0,0,0,0,-1,881,365,0,0
-336,659,0,0,0,0,0,0,0,0,0,-1,888,365,0,0
-329,659,0,0,0,0,0,0,0,0,0,-1,895,365,0,0
-322,659,0,0,0,0,0,0,0,0,0,-1,902,365,0,0
-315,659,0,0,0,0,0,0,0,0,0,-1,909,365,0,0
-308,659,0,0,0,0,0,0,0,0,0,-1,916,365,0,0
-301,659,0,0,0,0,0,0,0,0,0,-1,923,365,0,0
-294,659,0,0,0,0,0,0,0,0,0,-1,930,365,0,0
-287,659,0,0,0,0,0,0,0,0,0,-1,937,365,0,0
-280,659,0,0,0,0,0,0,0,0,0,-1,944,365,0,0
-273,659,0,0,0,0,0,0,0,0,0,-1,951,365,0,0
-266,659,0,0,0,0,0,0,0,0,0,-1,958,365,0,0
-259,659,0,0,0,0,0,0,0,0,0,-1,965,365,0,0
-252,659,0,0,0,0,0,0,0,0,0,-1,972,365,0,0
-245,659,0,0,0,0,0,0,0,0,0,-1,979,365,0,0
-238,659,0,0,0,0,0,0,0,0,0,-1,986,365,0,0
-231,659,0,0,0,0,0,0,0,0,0,-1,993,365,0,0
-224,659,0,0,0,0,0,0,0,0,0,-1,1000,365,0,0
-217,659,10.1305,-25.2622,0,0,0,0,0,0,0,-1,1007,365,10.1305,25.2622
-210,659,9.65643,-25.515,0,0,0,0,0,0,0,-1,1014,365,9.65642,25.515
-203,659,8.58911,-25.7432,0,0,0,0,0,0,0,-1,1021,365,8.58916,25.7432
-196,659,2.68323,-27.8121,0,0,0,0,0,0,0,-1,1028,365,2.6832,27.8121
-189,659,6.88049,-28.9412,0,0,0,0,0,0,0,-1,1035,365,6.88045,28.9412
-182,659,6.94189,-30.6316,0,0,0,0,0,0,0,-1,1042,365,6.94189,30.6316
-175,659,6.948,-32.0092,0,0,0,0,0,0,0,-1,1049,365,6.94798,32.0093
-168,659,7.1416,-32.7405,0,0,0,0,0,0,0,-1,1056,365,7.14157,32.7405
-161,659,7.57361,-33.7099,0,0,0,0,0,0,0,-1,1063,365,7.57355,33.7099
-154,659,7.71448,-34.8995,0,0,0,0,0,0,0,-1,1070,365,7.7145,34.8995
-147,659,5.46606,-37.758,0,0,0,0,0,0,0,-1,1077,365,5.46601,37.758
-140,659,5.7356,-37.755,0,0,0,0,0,0,0,-1,1084,365,5.73562,37.755
-133,659,5.91455,-37.9017,0,0,0,0,0,0,0,-1,1091,365,5.9146,37.9017
-126,659,6.31226,-37.9904,0,0,0,0,0,0,0,-1,1098,365,6.3122,37.9904
-119,659,6.26941,-35.0837,0,0,0,0,0,0,0,-1,1105,365,6.26943,35.0837
-112,659,6.24353,-35.0562,0,0,0,0,0,0,0,-1,1112,365,6.24349,35.0562
-105,659,5.38696,-30.5854,0,0,0,0,0,0,0,-1,1119,365,5.387,30.5854
-98,659,4.68042,-26.2438,0,0,0,0,0,0,0,-1,1126,365,4.68041,26.2438
-91,659,4.20776,-20.8654,0,0,0,0,0,0,0,-1,1133,365,4.20777,20.8654
-84,659,2.8584,-17.8303,0,0,0,0,0,0,0,-1,1140,365,2.85836,17.8303
-77,659,2.80139,-15.3457,0,0,0,0,0,0,0,-1,1147,365,2.80139,15.3457
-70,659,2.9353,-12.7028,0,0,0,0,0,0,0,-1,1154,365,2.93533,12.7028
-63,659,2.11267,-9.7796,0,0,0,0,0,0,0,-1,1161,365,2.11266,9.7796
-56,659,2.11182,-9.91541,0,0,0,0,0,0,0,-1,1168,365,2.11178,9.91541
-49,659,9.02307,-62.7386,0,0,0,0,0,0,0,-1,1175,365,9.02311,62.7386
-42,659,9.00305,-63.1141,0,0,0,0,0,0,0,-1,1182,365,9.0031,63.1141
-35,659,8.90796,-63.4931,-0.0167175,0.0341782,-0.00726942,0.0351961,-0.0177354,-1.43167,0.0311093,0.0424183,1189,365,8.90795,63.4931
-28,659,8.87952,-63.7455,-0.0177054,0.0362504,-0.007109,0.0371714,-0.0186264,-1.44197,0.0328026,0.0169908,1196,365,8.87957,63.7455
-21,659,8.79895,-64.0927,-0.0186813,0.0383026,-0.00675571,0.0390926,-0.0194713,-1.45439,0.0344386,0.0158791,1203,365,8.79896,64.0927
-14,659,8.68152,-64.4214,-0.0185022,0.0399245,-0.00598971,0.0405322,-0.0191099,-1.46968,0.035167,0.0136609,1210,365,8.68157,64.4214
-7,659,8.58801,-64.673,-0.0172834,0.042105,-0.00469643,0.0424741,-0.0176525,-1.49237,0.0356865,0.0131838,1217,365,8.58807,64.673
0,659,8.5365,-64.8887,-0.0166076,0.0433947,-0.00388003,0.0436445,-0.0168575,-1.50649,0.036054,0.0110077,1224,365,8.53655,64.8887
7,659,8.48767,-65.0637,-0.0153272,0.0454891,-0.0026956,0.0456083,-0.0154465,-1.52659,0.0366558,0.010743,1231,365,8.48771,65.0637
14,659,8.3877,-65.1965,-0.0139215,0.0474597,-0.00159967,0.0475013,-0.0139632,-1.54476,0.0372059,0.0130908,1238,365,8.38772,65.1965
21,659,8.30432,-65.366,-0.0122858,0.0492523,-0.000615109,0.0492584,-0.0122919,-1.5608,0.0376118,0.0124792,1245,365,8.30427,65.366
28,659,8.22192,-65.5309,-0.0104761,0.0505853,0.000475881,0.050589,-0.0104798,1.563,0.0377079,0.0120996,1252,365,8.22197,65.5309
35,659,8.1748,-65.6502,-0.00892256,0.0512253,0.00143907,0.0512597,-0.00895697,1.54689,0.0375169,0.0137527,1259,365,8.17483,65.6502
42,659,8.12292,-65.7498,-0.00787114,0.0506551,0.00296402,0.0508049,-0.00802087,1.52032,0.0368358,0.0157152,1266,365,8.12296,65.7499
49,659,8.01001,-65.8303,-0.0068544,0.0504454,0.00390905,0.0507108,-0.00711985,1.50299,0.0364133,0.0166383,1273,365,8.01,65.8303
56,659,7.93372,-65.8767,-0.00607465,0.0488548,0.00474542,0.0492617,-0.0064816,1.48525,0.0352012,0.0195454,1280,365,7.93371,65.8767
63,659,7.89612,-65.9469,-0.00524627,0.0458895,0.00590573,0.0465627,-0.00591946,1.4573,0.0331914,0.0179914,1287,365,7.89615,65.9469
70,659,7.81555,-65.9391,-0.00431448,0.0416775,0.00734615,0.0428224,-0.00545936,1.41619,0.0305312,0.0185115,1294,365,7.8155,65.9391
77,659,7.69739,-65.8875,-0.00313846,0.0366654,0.00931866,0.038739,-0.00521207,1.35184,0.0277271,0.0197849,1301,365,7.6974,65.8874
84,659,7.66833,-65.8117,-0.0015486,0.0310517,0.011664,0.0347951,-0.00529199,1.26024,0.025147,0.0143703,1308,365,7.6683,65.8117
91,659,7.58179,-65.7626,-0.000785342,0.0256222,0.0135047,0.0313054,-0.00646853,1.17246,0.0233273,0.0129093,1315,365,7.58184,65.7626
98,659,7.48584,-65.6083,-1.99707e-05,0.0205632,0.0153486,0.0287512,-0.008208,1.08073,0.0224102,0.00952143,1322,365,7.48582,65.6083
105,659,7.42566,-65.4172,0.00157635,0.0175045,0.0173439,0.0286255,-0.00954462,1.00063,0.022937,0.0110515,1329,365,7.4256,65.4172
112,659,7.34546,-65.2387,0.0032098,0.0140224,0.0190279,0.0283971,-0.0111649,0.923813,0.0235523,0.0166525,1336,365,7.34545,65.2387
119,659,7.25745,-65.0391,0.00483965,0.0116429,0.0205443,0.0290653,-0.0125828,0.867442,0.0246652,0.0193384,1343,365,7.2574,65.0391
126,659,7.18359,-64.7899,0.00596888,0.010693,0.021678,0.0301373,-0.0134754,0.839665,0.025785,0.0186473,1350,365,7.18355,64.7899
133,659,7.07507,-64.5316,0.00646561,0.011353,0.0220452,0.0310895,-0.0132709,0.840597,0.0262912,0.0185718,1357,365,7.07508,64.5317
140,659,6.97729,-64.3279,0.00650832,0.0138269,0.021889,0.0323603,-0.0120251,0.86822,0.0265073,0.0139834,1364,365,6.97725,64.3279
147,659,6.91406,-64.0523,0.00611723,0.0172635,0.020899,0.0333198,-0.00993901,0.915701,0.0261632,0.0117969,1371,365,6.9141,64.0524
154,659,6.8103,-63.6834,0.00457525,0.0200161,0.0199875,0.0337224,-0.00913103,0.969703,0.026064,0.0136805,1378,365,6.81036,63.6834
161,659,6.74268,-63.2938,0.00268953,0.0231112,0.0188232,0.0343147,-0.00851396,1.03392,0.02618,0.0148674,1385,365,6.74262,63.2938
168,659,6.68884,-62.8855,0.000372378,0.0257043,0.01709,0.0343103,-0.00823353,1.1043,0.0260553,0.0203943,1392,365,6.68888,62.8855
175,659,6.63745,-62.518,-0.0023788,0.0281983,0.015154,0.0344361,-0.00861658,1.18031,0.0263043,0.0439672,1399,365,6.6374,62.518
182,659,6.48535,-62.2297,0,0,0,0,0,0,0,-1,1406,365,6.48531,62.2297
189,659,6.42444,-61.6393,0,0,0,0,0,0,0,-1,1413,365,6.42442,61.6393
196,659,2.41248,-13.4371,0,0,0,0,0,0,0,-1,1420,365,2.41243,13.4371
203,659,2.38623,-12.2163,0,0,0,0,0,0,0,-1,1427,365,2.38617,12.2163
210,659,2.20789,-13.9792,0,0,0,0,0,0,0,-1,1434,365,2.20794,13.9792
217,659,2.24121,-13.487,0,0,0,0,0,0,0,-1,1441,365,2.24116,13.487
224,659,2.3479,-15.2926,0,0,0,0,0,0,0,-1,1448,365,2.34793,15.2926
231,659,2.47974,-17.8629,0,0,0,0,0,0,0,-1,1455,365,2.47976,17.8628
238,659,3.57886,-21.1258,0,0,0,0,0,0,0,-1,1462,365,3.57889,21.1258
245,659,3.29883,-25.0283,0,0,0,0,0,0,0,-1,1469,365,3.29889,25.0283
252,659,2.81909,-24.1604,0,0,0,0,0,0,0,-1,1476,365,2.81905,24.1604
259,659,2.33069,-3.36703,0,0,0,0,0,0,0,-1,1483,365,2.33073,3.36702
266,659,3.40918,-35.2544,0,0,0,0,0,0,0,-1,1490,365,3.40913,35.2544
273,659,4.45557,-42.3683,0,0,0,0,0,0,0,-1,1497,365,4.45554,42.3683
280,659,4.87903,-41.4995,0,0,0,0,0,0,0,-1,1504,365,4.87898,41.4995
287,659,1.09851,-23.7787,0,0,0,0,0,0,0,-1,1511,365,1.09847,23.7787
294,659,0.115601,-24.0352,0,0,0,0,0,0,0,-1,1518,365,0.115612,24.0352
301,659,-1.21362,-22.6162,0,0,0,0,0,0,0,-1,1525,365,-1.21358,22.6162
308,659,-2.32605,-21.2737,0,0,0,0,0,0,0,-1,1532,365,-2.32606,21.2737
315,659,-3.69629,-19.8803,0,0,0,0,0,0,0,-1,1539,365,-3.69631,19.8803
322,659,-4.9646,-18.5258,0,0,0,0,0,0,0,-1,1546,365,-4.96464,18.5257
329,659,-7.67749,-23.0449,0,0,0,0,0,0,0,-1,1553,365,-7.67745,23.0449
336,659,-7.71436,-22.4188,0,0,0,0,0,0,0,-1,1560,365,-7.71432,22.4188
343,659,0,0,0,0,0,0,0,0,0,-1,1567,365,0,0
350,659,0,0,0,0,0,0,0,0,0,-1,1574,365,0,0
357,659,0,0,0,0,0,0,0,0,0,-1,1581,365,0,0
364,659,0,0,0,0,0,0,0,0,0,-1,1588,365,0,0
371,659,0,0,0,0,0,0,0,0,0,-1,1595,365,0,0
378,659,0,0,0,0,0,0,0,0,0,-1,1602,365,0,0
385,659,0,0,0,0,0,0,0,0,0,-1,1609,365,0,0
392,659,0,0,0,0,0,0,0,0,0,-1,1616,365,0,0
399,659,0,0,0,0,0,0,0,0,0,-1,1623,365,0,0
406,659,0,0,0,0,0,0,0,0,0,-1,1630,365,0,0
413,659,0,0,0,0,0,0,0,0,0,-1,1637,365,0,0
420,659,0,0,0,0,0,0,0,0,0,-1,1644,365,0,0
427,659,0,0,0,0,0,0,0,0,0,-1,1651,365,0,0
434,659,0,0,0,0,0,0,0,0,0,-1,1658,365,0,0
441,659,0,0,0,0,0,0,0,0,0,-1,1665,365,0,0
448,659,0,0,0,0,0,0,0,0,0,-1,1672,365,0,0
455,659,0,0,0,0,0,0,0,0,0,-1,1679,365,0,0
462,659,0,0,0,0,0,0,0,0,0,-1,1686,365,0,0
469,659,0,0,0,0,0,0,0,0,0,-1,1693,365,0,0
476,659,0,0,0,0,0,0,0,0,0,-1,1700,365,0,0
483,659,0,0,0,0,0,0,0,0,0,-1,1707,365,0,0
490,659,0,0,0,0,0,0,0,0,0,-1,1714,365,0,0
497,659,0,0,0,0,0,0,0,0,0,-1,1721,365,0,0
504,659,0,0,0,0,0,0,0,0,0,-1,1728,365,0,0
511,659,0,0,0,0,0,0,0,0,0,-1,1735,365,0,0
518,659,0,0,0,0,0,0,0,0,0,-1,1742,365,0,0
525,659,0,0,0,0,0,0,0,0,0,-1,1749,365,0,0
532,659,0,0,0,0,0,0,0,0,0,-1,1756,365,0,0
539,659,0,0,0,0,0,0,0,0,0,-1,1763,365,0,0
546,659,0,0,0,0,0,0,0,0,0,-1,1770,365,0,0
553,659,0,0,0,0,0,0,0,0,0,-1,1777,365,0,0
560,659,0,0,0,0,0,0,0,0,0,-1,1784,365,0,0
567,659,0,0,0,0,0,0,0,0,0,-1,1791,365,0,0
574,659,0,0,0,0,0,0,0,0,0,-1,1798,365,0,0
581,659,0,0,0,0,0,0,0,0,0,-1,1805,365,0,0
588,659,0,0,0,0,0,0,0,0,0,-1,1812,365,0,0
595,659,0,0,0,0,0,0,0,0,0,-1,1819,365,0,0
602,659,0,0,0,0,0,0,0,0,0,-1,1826,365,0,0
609,659,0,0,0,0,0,0,0,0,0,-1,1833,365,0,0
616,659,0,0,0,0,0,0,0,0,0,-1,1840,365,0,0
623,659,0,0,0,0,0,0,0,0,0,-1,1847,365,0,0
630,659,0,0,0,0,0,0,0,0,0,-1,1854,365,0,0
637,659,0,0,0,0,0,0,0,0,0,-1,1861,365,0,0
644,659,0,0,0,0,0,0,0,0,0,-1,1868,365,0,0
651,659,0,0,0,0,0,0,0,0,0,-1,1875,365,0,0
658,659,0,0,0,0,0,0,0,0,0,-1,1882,365,0,0
665,659,0,0,0,0,0,0,0,0,0,-1,1889,365,0,0
672,659,0,0,0,0,0,0,0,0,0,-1,1896,365,0,0
679,659,0,0,0,0,0,0,0,0,0,-1,1903,365,0,0
686,659,0,0,0,0,0,0,0,0,0,-1,1910,365,0,0
693,659,0,0,0,0,0,0,0,0,0,-1,1917,365,0,0
700,659,0,0,0,0,0,0,0,0,0,-1,1924,365,0,0
707,659,0,0,0,0,0,0,0,0,0,-1,1931,365,0,0
714,659,0,0,0,0,0,0,0,0,0,-1,1938,365,0,0
721,659,0,0,0,0,0,0,0,0,0,-1,1945,365,0,0
728,659,0,0,0,0,0,0,0,0,0,-1,1952,365,0,0
735,659,0,0,0,0,0,0,0,0,0,-1,1959,365,0,0
742,659,0,0,0,0,0,0,0,0,0,-1,1966,365,0,0
749,659,0,0,0,0,0,0,0,0,0,-1,1973,365,0,0
756,659,0,0,0,0,0,0,0,0,0,-1,1980,365,0,0
763,659,0,0,0,0,0,0,0,0,0,-1,1987,365,0,0
770,659,0,0,0,0,0,0,0,0,0,-1,1994,365,0,0
777,659,0,0,0,0,0,0,0,0,0,-1,2001,365,0,0
784,659,0,0,0,0,0,0,0,0,0,-1,2008,365,0,0
791,659,0,0,0,0,0,0,0,0,0,-1,2015,365,0,0
798,659,0,0,0,0,0,0,0,0,0,-1,2022,365,0,0
805,659,0,0,0,0,0,0,0,0,0,-1,2029,365,0,0
812,659,0,0,0,0,0,0,0,0,0,-1,2036,365,0,0
-700,652,0,0,0,0,0,0,0,0,0,-1,524,372,0,0
-693,652,0,0,0,0,0,0,0,0,0,-1,531,372,0,0
-686,652,0,0,0,0,0,0,0,0,0,-1,538,372,0,0
-679,652,0,0,0,0,0,0,0,0,0,-1,545,372,0,0
-672,652,0,0,0,0,0,0,0,0,0,-1,552,372,0,0
-665,652,0,0,0,0,0,0,0,0,0,-1,559,372,0,0
-658,652,0,0,0,0,0,0,0,0,0,-1,566,372,0,0
-651,652,0,0,0,0,0,0,0,0,0,-1,573,372,0,0
-644,652,0,0,0,0,0,0,0,0,0,-1,580,372,0,0
-637,652,0,0,0,0,0,0,0,0,0,-1,587,372,0,0
-630,652,0,0,0,0,0,0,0,0,0,-1,594,372,0,0
-623,652,0,0,0,0,0,0,0,0,0,-1,601,372,0,0
-616,652,0,0,0,0,0,0,0,0,0,-1,608,372,0,0
-609,652,0,0,0,0,0,0,0,0,0,-1,615,372,0,0
-602,652,0,0,0,0,0,0,0,0,0,-1,622,372,0,0
-595,652,0,0,0,0,0,0,0,0,0,-1,629,372,0,0
-588,652,0,0,0,0,0,0,0,0,0,-1,636,372,0,0
-581,652,0,0,0,0,0,0,0,0,0,-1,643,372,0,0
-574,652,0,0,0,0,0,0,0,0,0,-1,650,372,0,0
-567,652,0,0,0,0,0,0,0,0,0,-1,657,372,0,0
-560,652,0,0,0,0,0,0,0,0,0,-1,664,372,0,0
-553,652,0,0,0,0,0,0,0,0,0,-1,671,372,0,0
-546,652,0,0,0,0,0,0,0,0,0,-1,678,372,0,0
-539,652,0,0,0,0,0,0,0,0,0,-1,685,372,0,0
-532,652,0,0,0,0,0,0,0,0,0,-1,692,372,0,0
-525,652,0,0,0,0,0,0,0,0,0,-1,699,372,0,0
-518,652,0,0,0,0,0,0,0,0,0,-1,706,372,0,0
-511,652,0,0,0,0,0,0,0,0,0,-1,713,372,0,0
-504,652,0,0,0,0,0,0,0,0,0,-1,720,372,0,0
-497,652,0,0,0,0,0,0,0,0,0,-1,727,372,0,0
-490,652,0,0,0,0,0,0,0,0,0,-1,734,372,0,0
-483,652,0,0,0,0,0,0,0,0,0,-1,741,372,0,0
-476,652,0,0,0,0,0,0,0,0,0,-1,748,372,0,0
-469,652,0,0,0,0,0,0,0,0,0,-1,755,372,0,0
-462,652,0,0,0,0,0,0,0,0,0,-1,762,372,0,0
-455,652,0,0,0,0,0,0,0,0,0,-1,769,372,0,0
-448,652,0,0,0,0,0,0,0,0,0,-1,776,372,0,0
-441,652,0,0,0,0,0,0,0,0,0,-1,783,372,0,0
-434,652,0,0,0,0,0,0,0,0,0,-1,790,372,0,0
-427,652,0,0,0,0,0,0,0,0,0,-1,797,372,0,0
-420,652,0,0,0,0,0,0,0,0,0,-1,804,372,0,0
-413,652,0,0,0,0,0,0,0,0,0,-1,811,372,0,0
-406,652,0,0,0,0,0,0,0,0,0,-1,818,372,0,0
-399,652,0,0,0,0,0,0,0,0,0,-1,825,372,0,0
-392,652,0,0,0,0,0,0,0,0,0,-1,832,372,0,0
-385,652,0,0,0,0,0,0,0,0,0,-1,839,372,0,0
-378,652,0,0,0,0,0,0,0,0,0,-1,846,372,0,0
-371,652,0,0,0,0,0,0,0,0,0,-1,853,372,0,0
-364,652,0,0,0,0,0,0,0,0,0,-1,860,372,0,0
-357,652,0,0,0,0,0,0,0,0,0,-1,867,372,0,0
-350,652,0,0,0,0,0,0,0,0,0,-1,874,372,0,0
-343,652,0,0,0,0,0,0,0,0,0,-1,881,372,0,0
-336,652,0,0,0,0,0,0,0,0,0,-1,888,372,0,0
-329,652,0,0,0,0,0,0,0,0,0,-1,895,372,0,0
-322,652,0,0,0,0,0,0,0,0,0,-1,902,372,0,0
-315,652,0,0,0,0,0,0,0,0,0,-1,909,372,0,0
-308,652,0,0,0,0,0,0,0,0,0,-1,916,372,0,0
-301,652,0,0,0,0,0,0,0,0,0,-1,923,372,0,0
-294,652,0,0,0,0,0,0,0,0,0,-1,930,372,0,0
-287,652,0,0,0,0,0,0,0,0,0,-1,937,372,0,0
-280,652,0,0,0,0,0,0,0,0,0,-1,944,372,0,0
-273,652,0,0,0,0,0,0,0,0,0,-1,951,372,0,0
-266,652,0,0,0,0,0,0,0,0,0,-1,958,372,0,0
-259,652,0,0,0,0,0,0,0,0,0,-1,965,372,0,0
-252,652,0,0,0,0,0,0,0,0,0,-1,972,372,0,0
-245,652,0,0,0,0,0,0,0,0,0,-1,979,372,0,0
-238,652,0,0,0,0,0,0,0,0,0,-1,986,372,0,0
-231,652,8.79358,-27.1656,0,0,0,0,0,0,0,-1,993,372,8.79357,27.1656
-224,652,8.84552,-27.675,0,0,0,0,0,0,0,-1,1000,372,8.84555,27.675
-217,652,9.03113,-27.7474,0,0,0,0,0,0,0,-1,1007,372,9.0311,27.7474
-210,652,9.72803,-30.4624,0,0,0,0,0,0,0,-1,1014,372,9.72805,30.4624
-203,652,7.2677,-26.0732,0,0,0,0,0,0,0,-1,1021,372,7.26775,26.0732
-196,652,5.90686,-26.957,0,0,0,0,0,0,0,-1,1028,372,5.9068,26.957
-189,652,6.21326,-28.3035,0,0,0,0,0,0,0,-1,1035,372,6.21331,28.3035
-182,652,6.45068,-29.9377,0,0,0,0,0,0,0,-1,1042,372,6.45074,29.9377
-175,652,6.72559,-31.6948,0,0,0,0,0,0,0,-1,1049,372,6.72563,31.6948
-168,652,7.08533,-32.8669,0,0,0,0,0,0,0,-1,1056,372,7.08532,32.8669
-161,652,7.85291,-37.3545,0,0,0,0,0,0,0,-1,1063,372,7.85294,37.3545
-154,652,7.54639,-37.9586,0,0,0,0,0,0,0,-1,1070,372,7.54642,37.9586
-147,652,7.85571,-42.3712,0,0,0,0,0,0,0,-1,1077,372,7.8557,42.3712
-140,652,5.6842,-33.9781,0,0,0,0,0,0,0,-1,1084,372,5.68421,33.9781
-133,652,6.3009,-35.2887,0,0,0,0,0,0,0,-1,1091,372,6.30093,35.2887
-126,652,5.86841,-37.0981,0,0,0,0,0,0,0,-1,1098,372,5.86845,37.0981
-119,652,8.18018,-49.52,0,0,0,0,0,0,0,-1,1105,372,8.18015,49.52
-112,652,7.81982,-48.4793,0,0,0,0,0,0,0,-1,1112,372,7.81981,48.4793
-105,652,6.63855,-39.9965,0,0,0,0,0,0,0,-1,1119,372,6.63852,39.9965
-98,652,5.84302,-35.2455,0,0,0,0,0,0,0,-1,1126,372,5.84307,35.2455
-91,652,5.66296,-32.9003,0,0,0,0,0,0,0,-1,1133,372,5.66297,32.9003
-84,652,5.46057,-34.9186,0,0,0,0,0,0,0,-1,1140,372,5.46057,34.9186
-77,652,9.10925,-60.8288,0,0,0,0,0,0,0,-1,1147,372,9.10923,60.8288
-70,652,9.03687,-61.4477,0,0,0,0,0,0,0,-1,1154,372,9.03681,61.4477
-63,652,8.9585,-61.8836,0,0,0,0,0,0,0,-1,1161,372,8.95847,61.8836
-56,652,8.81531,-62.3642,0,0,0,0,0,0,0,-1,1168,372,8.81526,62.3642
-49,652,8.74805,-62.7652,-0.010094,0.0201718,-0.00562646,0.0211839,-0.0111061,-1.39281,0.0189429,0.0379906,1175,372,8.74808,62.7652
-42,652,8.68359,-63.0956,-0.0104985,0.0213625,-0.00556706,0.0223073,-0.0114432,-1.4027,0.0198195,0.0140912,1182,372,8.68364,63.0956
-35,652,8.64966,-63.4546,-0.0112789,0.0233275,-0.0054227,0.0241574,-0.0121087,-1.41895,0.0213199,0.0112578,1189,372,8.64962,63.4546
-28,652,8.58655,-63.8083,-0.0118241,0.0249911,-0.00525553,0.0257267,-0.0125597,-1.43174,0.0225362,0.00884995,1196,372,8.58658,63.8083
-21,652,8.50366,-64.1538,-0.0123478,0.0264818,-0.00502045,0.0271204,-0.0129864,-1.44427,0.0236301,0.00953704,1203,372,8.50368,64.1538
-14,652,8.44714,-64.4416,-0.0125705,0.0276214,-0.0045544,0.028131,-0.0130802,-1.45936,0.0243165,0.0115335,1210,372,8.44713,64.4416
-7,652,8.37756,-64.7204,-0.0124492,0.0291698,-0.00393352,0.0295384,-0.0128177,-1.47739,0.0250814,0.0144927,1217,372,8.37756,64.7204
0,652,8.31641,-64.9431,-0.012255,0.0300456,-0.00349022,0.0303317,-0.012541,-1.48902,0.025453,0.0144888,1224,372,8.31639,64.9431
7,652,8.28613,-65.0788,-0.0117681,0.0316044,-0.00278397,0.0317823,-0.0119461,-1.50696,0.0260981,0.0146059,1231,372,8.28619,65.0788
14,652,8.2406,-65.2881,-0.0112187,0.0330281,-0.00212035,0.0331294,-0.0113201,-1.52302,0.0266728,0.0128693,1238,372,8.24064,65.2881
21,652,8.16528,-65.4852,-0.0104528,0.034194,-0.0015489,0.0342477,-0.0105064,-1.53616,0.0270235,0.0116022,1245,372,8.16527,65.4852
28,652,8.11926,-65.6553,-0.0093854,0.0351348,-0.000818393,0.0351499,-0.00940044,-1.55242,0.0271154,0.0109316,1252,372,8.11929,65.6553
35,652,8.07935,-65.7695,-0.0084992,0.0357678,-0.000266528,0.0357694,-0.00850081,-1.56478,0.0271275,0.0117004,1259,372,8.07936,65.7695
42,652,8.0293,-65.8354,-0.00790267,0.0355881,0.000715039,0.0355999,-0.00791442,1.55436,0.0267643,0.012508,1266,372,8.02929,65.8354
49,652,7.98938,-65.8997,-0.00727846,0.0356314,0.00130422,0.035671,-0.00731807,1.54044,0.0265583,0.0156854,1273,372,7.98942,65.8997
56,652,7.94336,-65.9474,-0.00671669,0.0349494,0.00175147,0.0350229,-0.00679019,1.52886,0.0259103,0.0169128,1280,372,7.94342,65.9474
63,652,7.91052,-65.9957,-0.00593827,0.0333467,0.00245428,0.0334994,-0.006091,1.50864,0.0246158,0.0196073,1287,372,7.91056,65.9957
70,652,7.82495,-65.9728,-0.00506198,0.0308083,0.0033966,0.0311271,-0.00538078,1.47721,0.022758,0.0184049,1294,372,7.82498,65.9728
77,652,7.69995,-65.9389,-0.00398131,0.0277279,0.00475574,0.0284258,-0.00467921,1.42509,0.0206874,0.0171419,1301,372,7.6999,65.9389
84,652,7.70801,-65.905,-0.0026628,0.0241508,0.00639011,0.0255958,-0.0041078,1.34841,0.018585,0.0146217,1308,372,7.70795,65.905
91,652,7.64136,-65.8675,-0.00184173,0.020592,0.00767539,0.0229667,-0.0042164,1.27075,0.0168929,0.0184565,1315,372,7.64137,65.8675
98,652,7.61914,-65.7112,-0.000908574,0.017146,0.0091419,0.0209665,-0.0047291,1.17494,0.0157919,0.0154934,1322,372,7.61917,65.7112
105,652,7.56592,-65.5194,0.000282962,0.015074,0.0106652,0.020657,-0.00529999,1.08855,0.0158364,0.0126515,1329,372,7.56591,65.5194
112,652,7.50073,-65.3452,0.00154084,0.0126659,0.0119307,0.0202671,-0.00606033,1.00354,0.0159207,0.010648,1336,372,7.50067,65.3452
119,652,7.44287,-65.1504,0.00273372,0.0110873,0.0130667,0.0206285,-0.00680756,0.94009,0.0164966,0.0112718,1343,372,7.44291,65.1504
126,652,7.36914,-64.9109,0.00347923,0.010721,0.0139416,0.0215042,-0.00730404,0.91245,0.0172929,0.0133763,1350,372,7.36914,64.9108
133,652,7.29651,-64.6537,0.00368325,0.0111024,0.0142879,0.0221544,-0.00736873,0.91241,0.0177434,0.0140087,1357,372,7.29654,64.6536
140,652,7.23169,-64.4134,0.00354862,0.0126919,0.0143394,0.0231708,-0.00693029,0.939713,0.0182025,0.0108854,1364,372,7.23166,64.4134
147,652,7.18628,-64.1129,0.00303772,0.0150616,0.0137773,0.0240815,-0.00598224,0.991126,0.0183759,0.0100615,1371,372,7.18625,64.1129
154,652,7.13025,-63.7857,0.00184436,0.0170462,0.0132091,0.0246852,-0.00579461,1.04648,0.0186902,0.0105219,1378,372,7.13026,63.7857
161,652,7.05591,-63.4171,0.000457065,0.0190642,0.012513,0.0253533,-0.00583204,1.10507,0.0191446,0.0123908,1385,372,7.05588,63.4171
168,652,6.99182,-63.0092,-0.00136317,0.0208123,0.0114444,0.0256592,-0.00621005,1.17018,0.0195084,0.0131192,1392,372,6.99179,63.0092
175,652,6.93567,-62.6113,-0.00329549,0.0222701,0.0102365,0.0258636,-0.00688905,1.23318,0.0199395,0.0134544,1399,372,6.9357,62.6113
182,652,6.85315,-62.242,-0.00551655,0.0234136,0.00856608,0.0257597,-0.00786267,1.30347,0.0203079,0.0204001,1406,372,6.8532,62.242
189,652,6.80725,-61.7775,-0.0076117,0.0238374,0.00665148,0.0251863,-0.00896063,1.37071,0.0204432,0.0328436,1413,372,6.80724,61.7775
196,652,6.74622,-61.2638,0,0,0,0,0,0,0,-1,1420,372,6.74616,61.2638
203,652,6.64697,-60.8403,0,0,0,0,0,0,0,-1,1427,372,6.64701,60.8403
210,652,6.65503,-60.2131,0,0,0,0,0,0,0,-1,1434,372,6.65498,60.2131
217,652,6.51001,-59.8002,0,0,0,0,0,0,0,-1,1441,372,6.51005,59.8002
224,652,3.63794,-31.2791,0,0,0,0,0,0,0,-1,1448,372,3.63799,31.2791
231,652,3.83936,-30.4812,0,0,0,0,0,0,0,-1,1455,372,3.8393,30.4812
238,652,4.42358,-36.4103,0,0,0,0,0,0,0,-1,1462,372,4.4236,36.4103
245,652,4.53296,-41.8512,0,0,0,0,0,0,0,-1,1469,372,4.5329,41.8512
252,652,5.00793,-47.7065,0,0,0,0,0,0,0,-1,1476,372,5.00791,47.7064
259,652,3.44922,-31.2655,0,0,0,0,0,0,0,-1,1483,372,3.44921,31.2655
266,652,5.5387,-50.3915,0,0,0,0,0,0,0,-1,1490,372,5.53875,50.3915
273,652,5.59509,-54.825,0,0,0,0,0,0,0,-1,1497,372,5.59514,54.825
280,652,4.05066,-24.6993,0,0,0,0,0,0,0,-1,1504,372,4.05066,24.6993
287,652,3.0979,-23.6951,0,0,0,0,0,0,0,-1,1511,372,3.09796,23.6951
294,652,2.06946,-24.1711,0,0,0,0,0,0,0,-1,1518,372,2.0694,24.1711
301,652,0.770264,-23.0697,0,0,0,0,0,0,0,-1,1525,372,0.770217,23.0697
308,652,-0.706299,-22.1083,0,0,0,0,0,0,0,-1,1532,372,-0.706291,22.1083
315,652,-1.65198,-21.8662,0,0,0,0,0,0,0,-1,1539,372,-1.65204,21.8662
322,652,-2.66101,-21.728,0,0,0,0,0,0,0,-1,1546,372,-2.66097,21.728
329,652,-7.12329,-21.7065,0,0,0,0,0,0,0,-1,1553,372,-7.12334,21.7065
336,652,-3.56519,-22.3688,0,0,0,0,0,0,0,-1,1560,372,-3.56517,22.3688
343,652,-3.58069,-21.9185,0,0,0,0,0,0,0,-1,1567,372,-3.58069,21.9185
350,652,5.28394,-25.6715,0,0,0,0,0,0,0,-1,1574,372,5.28393,25.6715
357,652,0,0,0,0,0,0,0,0,0,-1,1581,372,0,0
364,652,0,0,0,0,0,0,0,0,0,-1,1588,372,0,0
371,652,0,0,0,0,0,0,0,0,0,-1,1595,372,0,0
378,652,0,0,0,0,0,0,0,0,0,-1,1602,372,0,0
385,652,0,0,0,0,0,0,0,0,0,-1,1609,372,0,0
392,652,0,0,0,0,0,0,0,0,0,-1,1616,372,0,0
399,652,0,0,0,0,0,0,0,0,0,-1,1623,372,0,0
406,652,0,0,0,0,0,0,0,0,0,-1,1630,372,0,0
413,652,0,0,0,0,0,0,0,0,0,-1,1637,372,0,0
420,652,0,0,0,0,0,0,0,0,0,-1,1644,372,0,0
427,652,0,0,0,0,0,0,0,0,0,-1,1651,372,0,0
434,652,0,0,0,0,0,0,0,0,0,-1,1658,372,0,0
441,652,0,0,0,0,0,0,0,0,0,-1,1665,372,0,0
448,652,0,0,0,0,0,0,0,0,0,-1,1672,372,0,0
455,652,0,0,0,0,0,0,0,0,0,-1,1679,372,0,0
462,652,0,0,0,0,0,0,0,0,0,-1,1686,372,0,0
469,652,0,0,0,0,0,0,0,0,0,-1,1693,372,0,0
476,652,0,0,0,0,0,0,0,0,0,-1,1700,372,0,0
483,652,0,0,0,0,0,0,0,0,0,-1,1707,372,0,0
490,652,0,0,0,0,0,0,0,0,0,-1,1714,372,0,0
497,652,0,0,0,0,0,0,0,0,0,-1,1721,372,0,0
504,652,0,0,0,0,0,0,0,0,0,-1,1728,372,0,0
511,652,0,0,0,0,0,0,0,0,0,-1,1735,372,0,0
518,652,0,0,0,0,0,0,0,0,0,-1,1742,372,0,0
525,652,0,0,0,0,0,0,0,0,0,-1,1749,372,0,0
532,652,0,0,0,0,0,0,0,0,0,-1,1756,372,0,0
539,652,0,0,0,0,0,0,0,0,0,-1,1763,372,0,0
546,652,0,0,0,0,0,0,0,0,0,-1,1770,372,0,0
553,652,0,0,0,0,0,0,0,0,0,-1,1777,372,0,0
560,652,0,0,0,0,0,0,0,0,0,-1,1784,372,0,0
567,652,0,0,0,0,0,0,0,0,0,-1,1791,372,0,0
574,652,0,0,0,0,0,0,0,0,0,-1,1798,372,0,0
581,652,0,0,0,0,0,0,0,0,0,-1,1805,372,0,0
588,652,0,0,0,0,0,0,0,0,0,-1,1812,372,0,0
595,652,0,0,0,0,0,0,0,0,0,-1,1819,372,0,0
602,652,0,0,0,0,0,0,0,0,0,-1,1826,372,0,0
609,652,0,0,0,0,0,0,0,0,0,-1,1833,372,0,0
616,652,0,0,0,0,0,0,0,0,0,-1,1840,372,0,0
623,652,0,0,0,0,0,0,0,0,0,-1,1847,372,0,0
630,652,0,0,0,0,0,0,0,0,0,-1,1854,372,0,0
637,652,0,0,0,0,0,0,0,0,0,-1,1861,372,0,0
644,652,0,0,0,0,0,0,0,0,0,-1,1868,372,0,0
651,652,0,0,0,0,0,0,0,0,0,-1,1875,372,0,0
658,652,0,0,0,0,0,0,0,0,0,-1,1882,372,0,0
665,652,0,0,0,0,0,0,0,0,0,-1,1889,372,0,0
672,652,0,0,0,0,0,0,0,0,0,-1,1896,372,0,0
679,652,0,0,0,0,0,0,0,0,0,-1,1903,372,0,0
686,652,0,0,0,0,0,0,0,0,0,-1,1910,372,0,0
693,652,0,0,0,0,0,0,0,0,0,-1,1917,372,0,0
700,652,0,0,0,0,0,0,0,0,0,-1,1924,372,0,0
707,652,0,0,0,0,0,0,0,0,0,-1,1931,372,0,0
714,652,0,0,0,0,0,0,0,0,0,-1,1938,372,0,0
721,652,0,0,0,0,0,0,0,0,0,-1,1945,372,0,0
728,652,0,0,0,0,0,0,0,0,0,-1,1952,372,0,0
735,652,0,0,0,0,0,0,0,0,0,-1,1959,372,0,0
742,652,0,0,0,0,0,0,0,0,0,-1,1966,372,0,0
749,652,0,0,0,0,0,0,0,0,0,-1,1973,372,0,0
756,652,0,0,0,0,0,0,0,0,0,-1,1980,372,0,0
763,652,0,0,0,0,0,0,0,0,0,-1,1987,372,0,0
770,652,0,0,0,0,0,0,0,0,0,-1,1994,372,0,0
777,652,0,0,0,0,0,0,0,0,0,-1,2001,372,0,0
784,652,0,0,0,0,0,0,0,0,0,-1,2008,372,0,0
791,652,0,0,0,0,0,0,0,0,0,-1,2015,372,0,0
798,652,0,0,0,0,0,0,0,0,0,-1,2022,372,0,0
805,652,0,0,0,0,0,0,0,0,0,-1,2029,372,0,0
812,652,0,0,0,0,0,0,0,0,0,-1,2036,372,0,0
-700,645,0,0,0,0,0,0,0,0,0,-1,524,379,0,0
-693,645,0,0,0,0,0,0,0,0,0,-1,531,379,0,0
-686,645,0,0,0,0,0,0,0,0,0,-1,538,379,0,0
-679,645,0,0,0,0,0,0,0,0,0,-1,545,379,0,0
-672,645,0,0,0,0,0,0,0,0,0,-1,552,379,0,0
-665,645,0,0,0,0,0,0,0,0,0,-1,559,379,0,0
-658,645,0,0,0,0,0,0,0,0,0,-1,566,379,0,0
-651,645,0,0,0,0,0,0,0,0,0,-1,573,379,0,0
-644,645,0,0,0,0,0,0,0,0,0,-1,580,379,0,0
-637,645,0,0,0,0,0,0,0,0,0,-1,587,379,0,0
-630,645,0,0,0,0,0,0,0,0,0,-1,594,379,0,0
-623,645,0,0,0,0,0,0,0,0,0,-1,601,379,0,0
-616,645,0,0,0,0,0,0,0,0,0,-1,608,379,0,0
-609,645,0,0,0,0,0,0,0,0,0,-1,615,379,0,0
-602,645,0,0,0,0,0,0,0,0,0,-1,622,379,0,0
-595,645,0,0,0,0,0,0,0,0,0,-1,629,379,0,0
-588,645,0,0,0,0,0,0,0,0,0,-1,636,379,0,0
-581,645,0,0,0,0,0,0,0,0,0,-1,643,379,0,0
-574,645,0,0,0,0,0,0,0,0,0,-1,650,379,0,0
-567,645,0,0,0,0,0,0,0,0,0,-1,657,379,0,0
-560,645,0,0,0,0,0,0,0,0,0,-1,664,379,0,0
-553,645,0,0,0,0,0,0,0,0,0,-1,671,379,0,0
-546,645,0,0,0,0,0,0,0,0,0,-1,678,379,0,0
-539,645,0,0,0,0,0,0,0,0,0,-1,685,379,0,0
-532,645,0,0,0,0,0,0,0,0,0,-1,692,379,0,0
-525,645,0,0,0,0,0,0,0,0,0,-1,699,379,0,0
-518,645,0,0,0,0,0,0,0,0,0,-1,706,379,0,0
-511,645,0,0,0,0,0,0,0,0,0,-1,713,379,0,0
-504,645,0,0,0,0,0,0,0,0,0,-1,720,379,0,0
-497,645,0,0,0,0,0,0,0,0,0,-1,727,379,0,0
-490,645,0,0,0,0,0,0,0,0,0,-1,734,379,0,0
-483,645,0,0,0,0,0,0,0,0,0,-1,741,379,0,0
-476,645,0,0,0,0,0,0,0,0,0,-1,748,379,0,0
-469,645,0,0,0,0,0,0,0,0,0,-1,755,379,0,0
-462,645,0,0,0,0,0,0,0,0,0,-1,762,379,0,0
-455,645,0,0,0,0,0,0,0,0,0,-1,769,379,0,0
-448,645,0,0,0,0,0,0,0,0,0,-1,776,379,0,0
-441,645,0,0,0,0,0,0,0,0,0,-1,783,379,0,0
-434,645,0,0,0,0,0,0,0,0,0,-1,790,379,0,0
-427,645,0,0,0,0,0,0,0,0,0,-1,797,379,0,0
-420,645,0,0,0,0,0,0,0,0,0,-1,804,379,0,0
-413,645,0,0,0,0,0,0,0,0,0,-1,811,379,0,0
-406,645,0,0,0,0,0,0,0,0,0,-1,818,379,0,0
-399,645,0,0,0,0,0,0,0,0,0,-1,825,379,0,0
-392,645,0,0,0,0,0,0,0,0,0,-1,832,379,0,0
-385,645,0,0,0,0,0,0,0,0,0,-1,839,379,0,0
-378,645,0,0,0,0,0,0,0,0,0,-1,846,379,0,0
-371,645,0,0,0,0,0,0,0,0,0,-1,853,379,0,0
-364,645,0,0,0,0,0,0,0,0,0,-1,860,379,0,0
-357,645,0,0,0,0,0,0,0,0,0,-1,867,379,0,0
-350,645,0,0,0,0,0,0,0,0,0,-1,874,379,0,0
-343,645,0,0,0,0,0,0,0,0,0,-1,881,379,0,0
-336,645,0,0,0,0,0,0,0,0,0,-1,888,379,0,0
-329,645,0,0,0,0,0,0,0,0,0,-1,895,379,0,0
-322,645,0,0,0,0,0,0,0,0,0,-1,902,379,0,0
-315,645,0,0,0,0,0,0,0,0,0,-1,909,379,0,0
-308,645,0,0,0,0,0,0,0,0,0,-1,916,379,0,0
-301,645,0,0,0,0,0,0,0,0,0,-1,923,379,0,0
-294,645,0,0,0,0,0,0,0,0,0,-1,930,379,0,0
-287,645,0,0,0,0,0,0,0,0,0,-1,937,379,0,0
-280,645,0,0,0,0,0,0,0,0,0,-1,944,379,0,0
-273,645,0,0,0,0,0,0,0,0,0,-1,951,379,0,0
-266,645,0,0,0,0,0,0,0,0,0,-1,958,379,0,0
-259,645,0,0,0,0,0,0,0,0,0,-1,965,379,0,0
-252,645,2.95691,-26.9133,0,0,0,0,0,0,0,-1,972,379,2.9569,26.9133
-245,645,2.73169,-27.0215,0,0,0,0,0,0,0,-1,979,379,2.73172,27.0215
-238,645,2.6665,-26.9464,0,0,0,0,0,0,0,-1,986,379,2.66649,26.9464
-231,645,7.26807,-29.1054,0,0,0,0,0,0,0,-1,993,379,7.26806,29.1054
-224,645,7.69073,-29.5737,0,0,0,0,0,0,0,-1,1000,379,7.69071,29.5737
-217,645,8.65485,-33.4136,0,0,0,0,0,0,0,-1,1007,379,8.65487,33.4136
-210,645,9.21594,-32.5157,0,0,0,0,0,0,0,-1,1014,379,9.21591,32.5156
-203,645,9.77698,-31.6176,0,0,0,0,0,0,0,-1,1021,379,9.77696,31.6177
-196,645,10.2664,-29.7741,0,0,0,0,0,0,0,-1,1028,379,10.2664,29.7741
-189,645,5.88062,-28.2191,0,0,0,0,0,0,0,-1,1035,379,5.88062,28.2191
-182,645,6.34167,-29.2525,0,0,0,0,0,0,0,-1,1042,379,6.3417,29.2525
-175,645,6.36462,-35.5586,0,0,0,0,0,0,0,-1,1049,379,6.3646,35.5586
-168,645,7.19116,-39.5785,0,0,0,0,0,0,0,-1,1056,379,7.19115,39.5785
-161,645,7.22083,-37.6093,0,0,0,0,0,0,0,-1,1063,379,7.22085,37.6094
-154,645,7.42102,-41.6806,0,0,0,0,0,0,0,-1,1070,379,7.42105,41.6806
-147,645,8.89526,-50.6488,0,0,0,0,0,0,0,-1,1077,379,8.89521,50.6488
-140,645,9.15076,-55.388,0,0,0,0,0,0,0,-1,1084,379,9.15078,55.388
-133,645,9.229,-56.3898,0,0,0,0,0,0,0,-1,1091,379,9.22906,56.3898
-126,645,9.25745,-56.8747,0,0,0,0,0,0,0,-1,1098,379,9.25741,56.8747
-119,645,9.06641,-57.4558,0,0,0,0,0,0,0,-1,1105,379,9.06637,57.4558
-112,645,8.93201,-58.2761,0,0,0,0,0,0,0,-1,1112,379,8.93199,58.2761
-105,645,8.89294,-58.9244,0,0,0,0,0,0,0,-1,1119,379,8.89298,58.9244
-98,645,8.8031,-59.4852,0,0,0,0,0,0,0,-1,1126,379,8.80304,59.4852
-91,645,8.67871,-60.0614,0,0,0,0,0,0,0,-1,1133,379,8.67867,60.0614
-84,645,8.6322,-60.5717,0,0,0,0,0,0,0,-1,1140,379,8.63221,60.5716
-77,645,8.70459,-61.0528,-0.00757267,0.00542154,-0.00279689,0.00599798,-0.0081491,-1.36754,0.00819923,0.0446157,1147,379,8.70457,61.0528
-70,645,8.58716,-61.5032,-0.00740503,0.00614035,-0.00263278,0.00663408,-0.00789876,-1.38542,0.00840112,0.0165332,1154,379,8.58716,61.5032
-63,645,8.53833,-61.9326,-0.00690157,0.00922583,-0.00365298,0.0100147,-0.00769042,-1.35812,0.0102514,0.0127632,1161,379,8.53832,61.9326
-56,645,8.46875,-62.3321,-0.00653087,0.0113388,-0.00399851,0.0121927,-0.00738477,-1.3604,0.0114161,0.0149132,1168,379,8.4688,62.3321
-49,645,8.41272,-62.7397,-0.00618515,0.0125359,-0.00402311,0.0133639,-0.00701309,-1.36783,0.0119536,0.0123435,1175,379,8.41271,62.7396
-42,645,8.3501,-63.1116,-0.00619019,0.013198,-0.00390618,0.0139554,-0.00694759,-1.37928,0.0122923,0.0116676,1182,379,8.35015,63.1116
-35,645,8.3136,-63.5122,-0.00648364,0.0144581,-0.00374697,0.0151083,-0.00713387,-1.39897,0.0131137,0.0118731,1189,379,8.31365,63.5122
-28,645,8.25732,-63.902,-0.00666784,0.0155084,-0.00359424,0.0160764,-0.00723584,-1.41406,0.0137781,0.00976507,1196,379,8.25727,63.902
-21,645,8.19592,-64.2016,-0.0068147,0.0163015,-0.00342222,0.0167975,-0.0073107,-1.42686,0.0142736,0.0114065,1203,379,8.19595,64.2016
-14,645,8.17615,-64.4889,-0.00698354,0.0168908,-0.00313706,0.0172961,-0.00738887,-1.4423,0.0146295,0.0105376,1210,379,8.17613,64.4889
-7,645,8.15955,-64.7814,-0.00703581,0.0176552,-0.00289742,0.0179906,-0.00737125,-1.45554,0.0150645,0.0143572,1217,379,8.15955,64.7814
0,645,8.11353,-64.9919,-0.0069939,0.0180586,-0.00269231,0.0183447,-0.00727996,-1.46494,0.0152472,0.0276962,1224,379,8.11357,64.9919
7,645,8.04504,-65.1825,-0.00689331,0.0189791,-0.00232284,0.019186,-0.0071002,-1.48196,0.0157019,0.0178125,1231,379,8.04509,65.1825
14,645,8.01575,-65.3442,-0.00677457,0.0198087,-0.00195525,0.0199518,-0.00691761,-1.49777,0.01611,0.0177761,1238,379,8.01572,65.3442
21,645,7.9679,-65.5456,-0.00647375,0.0204251,-0.00159962,0.0205198,-0.00656855,-1.51161,0.0163163,0.0120082,1245,379,7.96784,65.5456
28,645,7.96802,-65.7013,-0.00592971,0.0210247,-0.00112969,0.0210719,-0.00597697,-1.52898,0.0164073,0.0102857,1252,379,7.96801,65.7012
35,645,7.95386,-65.8206,-0.00548864,0.0215563,-0.000835174,0.0215821,-0.0055144,-1.53995,0.0165356,0.0101454,1259,379,7.95381,65.8207
42,645,7.94006,-65.9096,-0.00518944,0.0216377,-0.0002368,0.0216398,-0.00519153,-1.56197,0.0164327,0.0100322,1266,379,7.94002,65.9096
49,645,7.9519,-65.961,-0.00482939,0.0218866,0.000131612,0.0218872,-0.00483004,1.56587,0.0164397,0.0140779,1273,379,7.9519,65.961
56,645,7.9303,-66.0037,-0.00444759,0.0218277,0.000362985,0.0218327,-0.00445261,1.55699,0.016244,0.0136615,1280,379,7.93035,66.0037
63,645,7.90723,-66.0436,-0.00385391,0.0212192,0.00077204,0.021243,-0.00387766,1.54004,0.0156159,0.0119687,1287,379,7.90717,66.0437
70,645,7.83752,-66.0209,-0.00315944,0.0199928,0.00133726,0.0200697,-0.00323643,1.51329,0.0145789,0.0156556,1294,379,7.83756,66.0209
77,645,7.77747,-65.9948,-0.00233476,0.0185107,0.00217668,0.0187356,-0.00255963,1.46786,0.0134252,0.0183964,1301,379,7.77746,65.9948
84,645,7.79578,-65.9413,-0.00144136,0.0166814,0.0031609,0.0172169,-0.00197686,1.40298,0.0121904,0.0143399,1308,379,7.79573,65.9413
91,645,7.73267,-65.8972,-0.000865916,0.014706,0.00393553,0.0156441,-0.00180404,1.33679,0.0110798,0.0172653,1315,379,7.73268,65.8972
98,645,7.72034,-65.7461,-0.000199694,0.0127882,0.00494535,0.0144568,-0.00186834,1.24538,0.0103172,0.015935,1322,379,7.7203,65.7461
105,645,7.69495,-65.5628,0.000561356,0.0115898,0.00594996,0.0141878,-0.00203668,1.1591,0.0102054,0.0116801,1329,379,7.69493,65.5628
112,645,7.65625,-65.4024,0.00135477,0.0101208,0.00679403,0.0138229,-0.00234737,1.07187,0.0100892,0.00964539,1336,379,7.65628,65.4024
119,645,7.6272,-65.2041,0.0020281,0.00916087,0.00754886,0.0139434,-0.00275443,1.00608,0.0103368,0.00977159,1343,379,7.62717,65.2041
126,645,7.57446,-64.9701,0.00234756,0.00908402,0.00810408,0.014492,-0.00306038,0.982348,0.0108266,0.0125703,1350,379,7.57442,64.9701
133,645,7.55188,-64.7348,0.00236744,0.00926367,0.0084381,0.014931,-0.00329988,0.979363,0.0112169,0.0131562,1357,379,7.55185,64.7348
140,645,7.51575,-64.4613,0.00216244,0.0101596,0.00865019,0.0156907,-0.00336864,1.0019,0.0117455,0.0128622,1364,379,7.51579,64.4613
147,645,7.45166,-64.1573,0.00170343,0.0116254,0.00845429,0.0164668,-0.00313795,1.05073,0.0121596,0.0139031,1371,379,7.45162,64.1573
154,645,7.43323,-63.8302,0.000893943,0.0129644,0.00818894,0.0171018,-0.00324347,1.10296,0.0126221,0.0128542,1378,379,7.43327,63.8302
161,645,7.39258,-63.4661,-3.54294e-05,0.014259,0.00785463,0.0177315,-0.00350791,1.15454,0.0131472,0.0155615,1385,379,7.3926,63.4661
168,645,7.33435,-63.0727,-0.00127277,0.0154524,0.00729032,0.018184,-0.00400439,1.2123,0.0136546,0.0176898,1392,379,7.33432,63.0727
175,645,7.32654,-62.7028,-0.00258961,0.0164111,0.00667178,0.0185197,-0.00469828,1.26467,0.0141746,0.0153838,1399,379,7.32651,62.7028
182,645,7.26782,-62.3084,-0.0040403,0.0171632,0.00582623,0.0186586,-0.00553574,1.31955,0.0146375,0.0117882,1406,379,7.26778,62.3084
189,645,7.20679,-61.8206,-0.00531865,0.0173943,0.00491428,0.018412,-0.00633633,1.3666,0.0148446,0.01238,1413,379,7.20679,61.8206
196,645,7.1344,-61.381,-0.00538695,0.0168962,0.00518271,0.0180426,-0.00653339,1.3531,0.0146985,0.0121271,1420,379,7.13444,61.381
203,645,7.05676,-60.8764,-0.00557375,0.0158756,0.00514136,0.0170443,-0.00674245,1.34728,0.0141561,0.0130041,1427,379,7.05677,60.8764
210,645,7.04126,-60.2706,-0.00561684,0.0141651,0.00508627,0.0153962,-0.00684799,1.33331,0.013155,0.0231684,1434,379,7.04131,60.2706
217,645,7.00366,-59.8471,-0.00560861,0.0134793,0.00510696,0.0147598,-0.00688908,1.32513,0.0127714,0.0491522,1441,379,7.00369,59.8471
224,645,6.80493,-59.5717,0,0,0,0,0,0,0,-1,1448,379,6.80488,59.5717
231,645,6.7821,-58.713,0,0,0,0,0,0,0,-1,1455,379,6.78205,58.7129
238,645,6.66711,-58.1047,0,0,0,0,0,0,0,-1,1462,379,6.66716,58.1047
245,645,6.68884,-57.2948,0,0,0,0,0,0,0,-1,1469,379,6.68885,57.2948
252,645,6.27942,-52.6305,0,0,0,0,0,0,0,-1,1476,379,6.27947,52.6305
259,645,6.5321,-54.0518,0,0,0,0,0,0,0,-1,1483,379,6.53211,54.0518
266,645,6.30408,-55.6273,0,0,0,0,0,0,0,-1,1490,379,6.30413,55.6274
273,645,6.26221,-54.9643,0,0,0,0,0,0,0,-1,1497,379,6.26226,54.9643
280,645,6.42053,-54.284,0,0,0,0,0,0,0,-1,1504,379,6.42057,54.284
287,645,6.77637,-53.2411,0,0,0,0,0,0,0,-1,1511,379,6.77633,53.2411
294,645,3.76428,-22.9539,0,0,0,0,0,0,0,-1,1518,379,3.7643,22.9539
301,645,2.74219,-23.503,0,0,0,0,0,0,0,-1,1525,379,2.74222,23.503
308,645,1.82227,-23.9479,0,0,0,0,0,0,0,-1,1532,379,1.82227,23.9479
315,645,0.990356,-24.8735,0,0,0,0,0,0,0,-1,1539,379,0.990376,24.8735
322,645,-0.256714,-24.7577,0,0,0,0,0,0,0,-1,1546,379,-0.256653,24.7577
329,645,-4.45581,-22.707,0,0,0,0,0,0,0,-1,1553,379,-4.45579,22.707
336,645,-5.83154,-22.8404,0,0,0,0,0,0,0,-1,1560,379,-5.83149,22.8404
343,645,4.03186,-38.0623,0,0,0,0,0,0,0,-1,1567,379,4.03187,38.0623
350,645,4.76404,-22.1987,0,0,0,0,0,0,0,-1,1574,379,4.76399,22.1987
357,645,4.61316,-21.967,0,0,0,0,0,0,0,-1,1581,379,4.61316,21.967
364,645,-0.0794678,-3.22021,0,0,0,0,0,0,0,-1,1588,379,-0.0794987,3.22021
371,645,0,0,0,0,0,0,0,0,0,-1,1595,379,0,0
378,645,0,0,0,0,0,0,0,0,0,-1,1602,379,0,0
385,645,0,0,0,0,0,0,0,0,0,-1,1609,379,0,0
392,645,0,0,0,0,0,0,0,0,0,-1,1616,379,0,0
399,645,0,0,0,0,0,0,0,0,0,-1,1623,379,0,0
406,645,0,0,0,0,0,0,0,0,0,-1,1630,379,0,0
413,645,0,0,0,0,0,0,0,0,0,-1,1637,379,0,0
420,645,0,0,0,0,0,0,0,0,0,-1,1644,379,0,0
427,645,0,0,0,0,0,0,0,0,0,-1,1651,379,0,0
434,645,0,0,0,0,0,0,0,0,0,-1,1658,379,0,0
441,645,0,0,0,0,0,0,0,0,0,-1,1665,379,0,0
448,645,0,0,0,0,0,0,0,0,0,-1,1672,379,0,0
455,645,0,0,0,0,0,0,0,0,0,-1,1679,379,0,0
462,645,0,0,0,0,0,0,0,0,0,-1,1686,379,0,0
469,645,0,0,0,0,0,0,0,0,0,-1,1693,379,0,0
476,645,0,0,0,0,0,0,0,0,0,-1,1700,379,0,0
483,645,0,0,0,0,0,0,0,0,0,-1,1707,379,0,0
490,645,0,0,0,0,0,0,0,0,0,-1,1714,379,0,0
497,645,0,0,0,0,0,0,0,0,0,-1,1721,379,0,0
504,645,0,0,0,0,0,0,0,0,0,-1,1728,379,0,0
511,645,0,0,0,0,0,0,0,0,0,-1,1735,379,0,0
518,645,0,0,0,0,0,0,0,0,0,-1,1742,379,0,0
525,645,0,0,0,0,0,0,0,0,0,-1,1749,379,0,0
532,645,0,0,0,0,0,0,0,0,0,-1,1756,379,0,0
539,645,0,0,0,0,0,0,0,0,0,-1,1763,379,0,0
546,645,0,0,0,0,0,0,0,0,0,-1,1770,379,0,0
553,645,0,0,0,0,0,0,0,0,0,-1,1777,379,0,0
560,645,0,0,0,0,0,0,0,0,0,-1,1784,379,0,0
567,645,0,0,0,0,0,0,0,0,0,-1,1791,379,0,0
574,645,0,0,0,0,0,0,0,0,0,-1,1798,379,0,0
581,645,0,0,0,0,0,0,0,0,0,-1,1805,379,0,0
588,645,0,0,0,0,0,0,0,0,0,-1,1812,379,0,0
595,645,0,0,0,0,0,0,0,0,0,-1,1819,379,0,0
602,645,0,0,0,0,0,0,0,0,0,-1,1826,379,0,0
609,645,0,0,0,0,0,0,0,0,0,-1,1833,379,0,0
616,645,0,0,0,0,0,0,0,0,0,-1,1840,379,0,0
623,645,0,0,0,0,0,0,0,0,0,-1,1847,379,0,0
630,645,0,0,0,0,0,0,0,0,0,-1,1854,379,0,0
637,645,0,0,0,0,0,0,0,0,0,-1,1861,379,0,0
644,645,0,0,0,0,0,0,0,0,0,-1,1868,379,0,0
651,645,0,0,0,0,0,0,0,0,0,-1,1875,379,0,0
658,645,0,0,0,0,0,0,0,0,0,-1,1882,379,0,0
665,645,0,0,0,0,0,0,0,0,0,-1,1889,379,0,0
672,645,0,0,0,0,0,0,0,0,0,-1,1896,379,0,0
679,645,0,0,0,0,0,0,0,0,0,-1,1903,379,0,0
686,645,0,0,0,0,0,0,0,0,0,-1,1910,379,0,0
693,645,0,0,0,0,0,0,0,0,0,-1,1917,379,0,0
700,645,0,0,0,0,0,0,0,0,0,-1,1924,379,0,0
707,645,0,0,0,0,0,0,0,0,0,-1,1931,379,0,0
714,645,0,0,0,0,0,0,0,0,0,-1,1938,379,0,0
721,645,0,0,0,0,0,0,0,0,0,-1,1945,379,0,0
728,645,0,0,0,0,0,0,0,0,0,-1,1952,379,0,0
735,645,0,0,0,0,0,0,0,0,0,-1,1959,379,0,0
742,645,0,0,0,0,0,0,0,0,0,-1,1966,379,0,0
749,645,0,0,0,0,0,0,0,0,0,-1,1973,379,0,0
756,645,0,0,0,0,0,0,0,0,0,-1,1980,379,0,0
763,645,0,0,0,0,0,0,0,0,0,-1,1987,379,0,0
770,645,0,0,0,0,0,0,0,0,0,-1,1994,379,0,0
777,645,0,0,0,0,0,0,0,0,0,-1,2001,379,0,0
784,645,0,0,0,0,0,0,0,0,0,-1,2008,379,0,0
791,645,0,0,0,0,0,0,0,0,0,-1,2015,379,0,0
798,645,0,0,0,0,0,0,0,0,0,-1,2022,379,0,0
805,645,0,0,0,0,0,0,0,0,0,-1,2029,379,0,0
812,645,0,0,0,0,0,0,0,0,0,-1,2036,379,0,0
-700,638,0,0,0,0,0,0,0,0,0,-1,524,386,0,0
-693,638,0,0,0,0,0,0,0,0,0,-1,531,386,0,0
-686,638,0,0,0,0,0,0,0,0,0,-1,538,386,0,0
-679,638,0,0,0,0,0,0,0,0,0,-1,545,386,0,0
-672,638,0,0,0,0,0,0,0,0,0,-1,552,386,0,0
-665,638,0,0,0,0,0,0,0,0,0,-1,559,386,0,0
-658,638,0,0,0,0,0,0,0,0,0,-1,566,386,0,0
-651,638,0,0,0,0,0,0,0,0,0,-1,573,386,0,0
-644,638,0,0,0,0,0,0,0,0,0,-1,580,386,0,0
-637,638,0,0,0,0,0,0,0,0,0,-1,587,386,0,0
-630,638,0,0,0,0,0,0,0,0,0,-1,594,386,0,0
-623,638,0,0,0,0,0,0,0,0,0,-1,601,386,0,0
-616,638,0,0,0,0,0,0,0,0,0,-1,608,386,0,0
-609,638,0,0,0,0,0,0,0,0,0,-1,615,386,0,0
-602,638,0,0,0,0,0,0,0,0,0,-1,622,386,0,0
-595,638,0,0,0,0,0,0,0,0,0,-1,629,386,0,0
-588,638,0,0,0,0,0,0,0,0,0,-1,636,386,0,0
-581,638,0,0,0,0,0,0,0,0,0,-1,643,386,0,0
-574,638,0,0,0,0,0,0,0,0,0,-1,650,386,0,0
-567,638,0,0,0,0,0,0,0,0,0,-1,657,386,0,0
-560,638,0,0,0,0,0,0,0,0,0,-1,664,386,0,0
-553,638,0,0,0,0,0,0,0,0,0,-1,671,386,0,0
-546,638,0,0,0,0,0,0,0,0,0,-1,678,386,0,0
-539,638,0,0,0,0,0,0,0,0,0,-1,685,386,0,0
-532,638,0,0,0,0,0,0,0,0,0,-1,692,386,0,0
-525,638,0,0,0,0,0,0,0,0,0,-1,699,386,0,0
-518,638,0,0,0,0,0,0,0,0,0,-1,706,386,0,0
-511,638,0,0,0,0,0,0,0,0,0,-1,713,386,0,0
-504,638,0,0,0,0,0,0,0,0,0,-1,720,386,0,0
-497,638,0,0,0,0,0,0,0,0,0,-1,727,386,0,0
-490,638,0,0,0,0,0,0,0,0,0,-1,734,386,0,0
-483,638,0,0,0,0,0,0,0,0,0,-1,741,386,0,0
-476,638,0,0,0,0,0,0,0,0,0,-1,748,386,0,0
-469,638,0,0,0,0,0,0,0,0,0,-1,755,386,0,0
-462,638,0,0,0,0,0,0,0,0,0,-1,762,386,0,0
-455,638,0,0,0,0,0,0,0,0,0,-1,769,386,0,0
-448,638,0,0,0,0,0,0,0,0,0,-1,776,386,0,0
-441,638,0,0,0,0,0,0,0,0,0,-1,783,386,0,0
-434,638,0,0,0,0,0,0,0,0,0,-1,790,386,0,0
-427,638,0,0,0,0,0,0,0,0,0,-1,797,386,0,0
-420,638,0,0,0,0,0,0,0,0,0,-1,804,386,0,0
-413,638,0,0,0,0,0,0,0,0,0,-1,811,386,0,0
-406,638,0,0,0,0,0,0,0,0,0,-1,818,386,0,0
-399,638,0,0,0,0,0,0,0,0,0,-1,825,386,0,0
-392,638,0,0,0,0,0,0,0,0,0,-1,832,386,0,0
-385,638,0,0,0,0,0,0,0,0,0,-1,839,386,0,0
-378,638,0,0,0,0,0,0,0,0,0,-1,846,386,0,0
-371,638,0,0,0,0,0,0,0,0,0,-1,853,386,0,0
-364,638,0,0,0,0,0,0,0,0,0,-1,860,386,0,0
-357,638,0,0,0,0,0,0,0,0,0,-1,867,386,0,0
-350,638,0,0,0,0,0,0,0,0,0,-1,874,386,0,0
-343,638,0,0,0,0,0,0,0,0,0,-1,881,386,0,0
-336,638,0,0,0,0,0,0,0,0,0,-1,888,386,0,0
-329,638,0,0,0,0,0,0,0,0,0,-1,895,386,0,0
-322,638,0,0,0,0,0,0,0,0,0,-1,902,386,0,0
-315,638,0,0,0,0,0,0,0,0,0,-1,909,386,0,0
-308,638,0,0,0,0,0,0,0,0,0,-1,916,386,0,0
-301,638,0,0,0,0,0,0,0,0,0,-1,923,386,0,0
-294,638,0,0,0,0,0,0,0,0,0,-1,930,386,0,0
-287,638,0,0,0,0,0,0,0,0,0,-1,937,386,0,0
-280,638,0,0,0,0,0,0,0,0,0,-1,944,386,0,0
-273,638,0,0,0,0,0,0,0,0,0,-1,951,386,0,0
-266,638,10.1613,-36.3326,0,0,0,0,0,0,0,-1,958,386,10.1612,36.3326
-259,638,9.95282,-34.6103,0,0,0,0,0,0,0,-1,965,386,9.9528,34.6103
-252,638,9.95746,-33.6964,0,0,0,0,0,0,0,-1,972,386,9.95744,33.6965
-245,638,9.84143,-32.9009,0,0,0,0,0,0,0,-1,979,386,9.84145,32.9009
-238,638,2.93518,-26.3649,0,0,0,0,0,0,0,-1,986,386,2.93516,26.3649
-231,638,2.36829,-26.0088,0,0,0,0,0,0,0,-1,993,386,2.3683,26.0088
-224,638,6.3465,-30.9124,0,0,0,0,0,0,0,-1,1000,386,6.34648,30.9124
-217,638,7.41205,-32.7263,0,0,0,0,0,0,0,-1,1007,386,7.41204,32.7262
-210,638,8.7038,-34.5688,0,0,0,0,0,0,0,-1,1014,386,8.70378,34.5689
-203,638,4.32593,-27.5803,0,0,0,0,0,0,0,-1,1021,386,4.32594,27.5803
-196,638,6.0614,-28.4651,0,0,0,0,0,0,0,-1,1028,386,6.06143,28.4651
-189,638,11.4561,-30.1556,0,0,0,0,0,0,0,-1,1035,386,11.456,30.1556
-182,638,6.45471,-33.4271,0,0,0,0,0,0,0,-1,1042,386,6.45473,33.427
-175,638,8.39648,-48.7238,0,0,0,0,0,0,0,-1,1049,386,8.39643,48.7238
-168,638,8.96924,-53.4651,0,0,0,0,0,0,0,-1,1056,386,8.96918,53.4651
-161,638,9.02161,-54.2196,0,0,0,0,0,0,0,-1,1063,386,9.02155,54.2196
-154,638,8.91809,-54.8228,0,0,0,0,0,0,0,-1,1070,386,8.91811,54.8228
-147,638,8.86853,-55.381,0,0,0,0,0,0,0,-1,1077,386,8.86853,55.381
-140,638,8.75269,-55.6392,-0.00480437,0.0155818,-0.00963306,0.0194135,-0.00863607,-1.19222,0.0165881,0.0446732,1084,386,8.75269,55.6392
-133,638,8.68738,-56.5812,-0.00500353,0.014008,-0.00869874,0.0173874,-0.00838294,-1.20025,0.0151782,0.0378275,1091,386,8.68741,56.5812
-126,638,8.599,-57.1507,-0.00531043,0.0122868,-0.00758212,0.015103,-0.00812665,-1.21516,0.0136117,0.0281315,1098,386,8.59901,57.1507
-119,638,8.50354,-57.7842,-0.00555879,0.0104148,-0.00650193,0.0127267,-0.00787074,-1.22916,0.0120016,0.0300706,1105,386,8.50352,57.7842
-112,638,8.45837,-58.4052,-0.00567666,0.00887911,-0.00556422,0.0107625,-0.00756001,-1.24443,0.0106322,0.0244765,1112,386,8.45833,58.4052
-105,638,8.42676,-58.9868,-0.00565105,0.00769731,-0.00480268,0.00924568,-0.00719942,-1.25892,0.00951905,0.0196197,1119,386,8.4268,58.9868
-98,638,8.32861,-59.5374,-0.00555517,0.00663668,-0.00410266,0.00788869,-0.00680718,-1.2746,0.00849232,0.0180709,1126,386,8.32856,59.5374
-91,638,8.23889,-60.0595,-0.00537705,0.00573995,-0.00348319,0.00674114,-0.00637824,-1.29091,0.00757544,0.0134805,1133,386,8.23888,60.0595
-84,638,8.21106,-60.556,-0.00515773,0.00431748,-0.00274307,0.0050543,-0.00589455,-1.30838,0.00632752,0.0142618,1140,386,8.21112,60.556
-77,638,8.16333,-61.0567,-0.00485916,0.00417771,-0.00234016,0.00474776,-0.0054292,-1.33186,0.00588006,0.0129567,1147,386,8.16333,61.0567
-70,638,8.12012,-61.5173,-0.00460309,0.004499,-0.00213053,0.00497301,-0.0050771,-1.35188,0.00580254,0.0141549,1154,386,8.12017,61.5173
-63,638,8.10559,-61.9738,-0.0041203,0.00601987,-0.00255954,0.00662931,-0.00472974,-1.33704,0.00658865,0.0133686,1161,386,8.10554,61.9738
-56,638,8.0874,-62.4008,-0.00361007,0.00670913,-0.0027009,0.0073733,-0.00427424,-1.32967,0.00680359,0.016108,1168,386,8.08735,62.4007
-49,638,8.04529,-62.792,-0.00314117,0.00699721,-0.00260998,0.00762966,-0.00377362,-1.33306,0.00670798,0.0138836,1175,386,8.04523,62.792
-42,638,8.01208,-63.1605,-0.00289765,0.00715134,-0.00243098,0.00770853,-0.00345484,-1.34548,0.00659929,0.0127451,1182,386,8.01213,63.1605
-35,638,7.97974,-63.5452,-0.00274159,0.00762132,-0.00226231,0.00809367,-0.00321394,-1.36496,0.00672804,0.0120467,1189,386,7.97978,63.5452
-28,638,7.9491,-63.9011,-0.00257999,0.00788689,-0.00213619,0.00830608,-0.00299918,-1.37703,0.00676256,0.0114966,1196,386,7.94915,63.9011
-21,638,7.89929,-64.2079,-0.00246755,0.00795415,-0.00204748,0.00834197,-0.00285537,-1.3836,0.0067185,0.0128281,1203,386,7.89927,64.2078
-14,638,7.87744,-64.5198,-0.00245758,0.00796416,-0.00190251,0.00830061,-0.00279403,-1.39576,0.00666329,0.0126037,1210,386,7.87746,64.5198
-7,638,7.86707,-64.873,-0.00253842,0.00802813,-0.00186276,0.00834689,-0.00285719,-1.40131,0.00672253,0.0191588,1217,386,7.86713,64.873
0,638,7.89368,-65.0026,-0.00271203,0.00795295,-0.00184236,0.00826225,-0.00302132,-1.40447,0.00674474,0.0352159,1224,386,7.89372,65.0026
7,638,7.82288,-65.2076,-0.00292356,0.00824455,-0.00174354,0.00851042,-0.00318943,-1.41947,0.00698389,0.0264459,1231,386,7.82285,65.2076
14,638,7.79822,-65.3958,-0.00320457,0.00850179,-0.00166036,0.00873273,-0.00343551,-1.43259,0.00724384,0.0144325,1238,386,7.79818,65.3958
21,638,7.81104,-65.5848,-0.00341275,0.00871738,-0.00161066,0.00892761,-0.00362298,-1.44101,0.0074587,0.011984,1245,386,7.81099,65.5848
28,638,7.82312,-65.7242,-0.00354202,0.00898972,-0.00151702,0.00917075,-0.00372304,-1.45203,0.00766251,0.00917223,1252,386,7.82308,65.7242
35,638,7.8302,-65.8349,-0.00374306,0.00925981,-0.00157784,0.00944853,-0.00393179,-1.45175,0.00794098,0.0109023,1259,386,7.83024,65.8349
42,638,7.86243,-65.9345,-0.00396013,0.00954054,-0.00147775,0.0097004,-0.00411999,-1.46304,0.00819316,0.0109191,1266,386,7.86239,65.9345
49,638,7.89038,-66.0051,-0.00414106,0.00981611,-0.00161422,0.0100004,-0.00432532,-1.45714,0.00848451,0.00986003,1273,386,7.89036,66.0051
56,638,7.88403,-66.0474,-0.00416112,0.00998553,-0.001789,0.0102083,-0.00438385,-1.44693,0.00864557,0.0128617,1280,386,7.884,66.0474
63,638,7.86926,-66.0609,-0.00388002,0.00989815,-0.00183792,0.0101391,-0.00412097,-1.44044,0.00847393,0.0135633,1287,386,7.8693,66.0609
70,638,7.85535,-66.0489,-0.00344063,0.0095078,-0.00175916,0.00974254,-0.00367537,-1.43814,0.00800647,0.0175831,1294,386,7.8554,66.0489
77,638,7.85388,-66.0139,-0.00283507,0.0091035,-0.00147877,0.00928394,-0.00301551,-1.44938,0.00740212,0.017947,1301,386,7.8539,66.014
84,638,7.88525,-65.9464,-0.00215305,0.00849799,-0.00106972,0.00860436,-0.00225942,-1.47168,0.00661919,0.0137184,1308,386,7.88525,65.9464
91,638,7.87671,-65.8559,-0.00165486,0.00782739,-0.000679736,0.00787587,-0.00170333,-1.4996,0.00590088,0.0161517,1315,386,7.87676,65.8559
98,638,7.85461,-65.7274,-0.00108377,0.00734734,-0.000104467,0.00734864,-0.00108506,-1.55841,0.00529795,0.0145134,1322,386,7.85462,65.7275
105,638,7.84302,-65.6002,-0.000392032,0.00725206,0.000477951,0.00728182,-0.0004218,1.50859,0.00500108,0.0105971,1329,386,7.843,65.6002
112,638,7.84143,-65.4326,0.000273579,0.00689481,0.0010995,0.00707261,9.5773e-05,1.41047,0.00468348,0.00999564,1336,386,7.84141,65.4327
119,638,7.83887,-65.2266,0.000785385,0.0068089,0.00170832,0.00725966,0.000334626,1.31281,0.00473218,0.0130302,1343,386,7.83885,65.2266
126,638,7.83716,-64.9811,0.00105428,0.00715555,0.00221507,0.00787492,0.000334908,1.25678,0.00514195,0.0170451,1350,386,7.83711,64.9811
133,638,7.81396,-64.7499,0.00114354,0.00756309,0.00265,0.00851566,0.000190969,1.22572,0.00561453,0.0165964,1357,386,7.81395,64.7499
140,638,7.78015,-64.4887,0.00111098,0.00823213,0.00306615,0.00937039,-2.7271e-05,1.21533,0.00625604,0.0167885,1364,386,7.7802,64.4887
147,638,7.74585,-64.1866,0.000844788,0.00899863,0.00326531,0.0101451,-0.000301654,1.23314,0.00686614,0.0185881,1371,386,7.74585,64.1866
154,638,7.73157,-63.8692,0.000454524,0.00975634,0.00342169,0.0108794,-0.000668556,1.25365,0.00748576,0.0169869,1378,386,7.73156,63.8692
161,638,7.74878,-63.4846,-3.27565e-05,0.0103672,0.00353918,0.0114574,-0.00112289,1.272,0.00803872,0.0188471,1385,386,7.7488,63.4846
168,638,7.73523,-63.0764,-0.00069993,0.0107919,0.00359511,0.0118239,-0.00173195,1.29125,0.00851879,0.0239789,1392,386,7.73522,63.0764
175,638,7.74561,-62.7225,-0.00136894,0.0110192,0.00366878,0.0120242,-0.00237393,1.30343,0.00891345,0.0211371,1399,386,7.74566,62.7225
182,638,7.65918,-62.3438,-0.00208746,0.0112562,0.00365229,0.0121905,-0.00302172,1.32037,0.00929935,0.0143035,1406,386,7.65923,62.3438
189,638,7.63208,-61.8579,-0.00269499,0.0112779,0.00361222,0.0121565,-0.00357356,1.33221,0.00952175,0.0123269,1413,386,7.63203,61.8579
196,638,7.56689,-61.4044,-0.00290834,0.011345,0.00398452,0.0123833,-0.00394659,1.3159,0.00983853,0.0148167,1420,386,7.56687,61.4044
203,638,7.51868,-60.939,-0.00330053,0.0112093,0.00401506,0.0122462,-0.00433744,1.31806,0.00993089,0.0212013,1427,386,7.51871,60.939
210,638,7.47974,-60.4709,-0.0036804,0.0106947,0.00386959,0.0116702,-0.00465585,1.32386,0.0097115,0.0179929,1434,386,7.4798,60.4709
217,638,7.44336,-59.925,-0.00379662,0.0104821,0.00398491,0.0115189,-0.00483344,1.31625,0.00970049,0.0140766,1441,386,7.44339,59.925
224,638,7.39331,-59.344,-0.00380927,0.0109696,0.00418583,0.0120728,-0.00491247,1.3131,0.0100928,0.0121499,1448,386,7.39333,59.344
231,638,7.28613,-58.7724,-0.00342136,0.0113538,0.004673,0.0127077,-0.00477525,1.28879,0.0104344,0.012662,1455,386,7.28612,58.7724
238,638,7.21899,-58.2097,-0.002657,0.0125313,0.0058565,0.0145273,-0.00465293,1.24234,0.0115525,0.0157293,1462,386,7.21902,58.2097
245,638,7.2113,-57.5484,-0.00228719,0.0135633,0.00666344,0.0159923,-0.00471622,1.22124,0.012533,0.0327979,1469,386,7.21132,57.5484
252,638,7.2356,-56.7658,0,0,0,0,0,0,0,-1,1476,386,7.23557,56.7658
259,638,7.01294,-56.4187,0,0,0,0,0,0,0,-1,1483,386,7.01299,56.4187
266,638,6.91687,-55.7453,0.000630754,0.0193975,0.0110201,0.0244879,-0.00445961,1.13808,0.0179969,0.0256353,1490,386,6.91684,55.7453
273,638,6.87073,-55.0893,0.00167528,0.0218667,0.0128763,0.0281332,-0.00459126,1.11787,0.0204583,0.0141224,1497,386,6.8707,55.0893
280,638,6.92419,-54.3755,0.00282694,0.0246479,0.0147815,0.0321095,-0.00463465,1.10332,0.0231067,0.0235627,1504,386,6.92417,54.3755
287,638,7.09546,-53.4023,0.00391139,0.0280732,0.0169406,0.0367993,-0.00481469,1.09514,0.0262851,0.048661,1511,386,7.09548,53.4023
294,638,6.67188,-52.7427,0,0,0,0,0,0,0,-1,1518,386,6.6719,52.7427
301,638,6.42603,-51.976,0,0,0,0,0,0,0,-1,1525,386,6.42604,51.976
308,638,6.69421,-50.5465,0,0,0,0,0,0,0,-1,1532,386,6.69426,50.5465
315,638,3.3927,-28.2032,0,0,0,0,0,0,0,-1,1539,386,3.39269,28.2032
322,638,6.1698,-44.6835,0,0,0,0,0,0,0,-1,1546,386,6.16984,44.6835
329,638,6.06885,-44.2856,0,0,0,0,0,0,0,-1,1553,386,6.06881,44.2855
336,638,5.15234,-38.1966,0,0,0,0,0,0,0,-1,1560,386,5.15238,38.1966
343,638,4.8208,-37.2159,0,0,0,0,0,0,0,-1,1567,386,4.82078,37.2159
350,638,4.35254,-37.1565,0,0,0,0,0,0,0,-1,1574,386,4.35259,37.1565
357,638,0.387329,-3.01077,0,0,0,0,0,0,0,-1,1581,386,0.387332,3.01077
364,638,3.78149,-6.45215,0,0,0,0,0,0,0,-1,1588,386,3.78155,6.45216
371,638,4.18604,-6.71164,0,0,0,0,0,0,0,-1,1595,386,4.18598,6.71164
378,638,4.59045,-6.97113,0,0,0,0,0,0,0,-1,1602,386,4.5904,6.97112
385,638,0,0,0,0,0,0,0,0,0,-1,1609,386,0,0
392,638,0,0,0,0,0,0,0,0,0,-1,1616,386,0,0
399,638,0,0,0,0,0,0,0,0,0,-1,1623,386,0,0
406,638,0,0,0,0,0,0,0,0,0,-1,1630,386,0,0
413,638,0,0,0,0,0,0,0,0,0,-1,1637,386,0,0
420,638,0,0,0,0,0,0,0,0,0,-1,1644,386,0,0
427,638,0,0,0,0,0,0,0,0,0,-1,1651,386,0,0
434,638,0,0,0,0,0,0,0,0,0,-1,1658,386,0,0
441,638,0,0,0,0,0,0,0,0,0,-1,1665,386,0,0
448,638,0,0,0,0,0,0,0,0,0,-1,1672,386,0,0
455,638,0,0,0,0,0,0,0,0,0,-1,1679,386,0,0
462,638,0,0,0,0,0,0,0,0,0,-1,1686,386,0,0
469,638,0,0,0,0,0,0,0,0,0,-1,1693,386,0,0
476,638,0,0,0,0,0,0,0,0,0,-1,1700,386,0,0
483,638,0,0,0,0,0,0,0,0,0,-1,1707,386,0,0
490,638,0,0,0,0,0,0,0,0,0,-1,1714,386,0,0
497,638,0,0,0,0,0,0,0,0,0,-1,1721,386,0,0
504,638,0,0,0,0,0,0,0,0,0,-1,1728,386,0,0
511,638,0,0,0,0,0,0,0,0,0,-1,1735,386,0,0
518,638,0,0,0,0,0,0,0,0,0,-1,1742,386,0,0
525,638,0,0,0,0,0,0,0,0,0,-1,1749,386,0,0
532,638,0,0,0,0,0,0,0,0,0,-1,1756,386,0,0
539,638,0,0,0,0,0,0,0,0,0,-1,1763,386,0,0
546,638,0,0,0,0,0,0,0,0,0,-1,1770,386,0,0
553,638,0,0,0,0,0,0,0,0,0,-1,1777,386,0,0
560,638,0,0,0,0,0,0,0,0,0,-1,1784,386,0,0
567,638,0,0,0,0,0,0,0,0,0,-1,1791,386,0,0
574,638,0,0,0,0,0,0,0,0,0,-1,1798,386,0,0
581,638,0,0,0,0,0,0,0,0,0,-1,1805,386,0,0
588,638,0,0,0,0,0,0,0,0,0,-1,1812,386,0,0
595,638,0,0,0,0,0,0,0,0,0,-1,1819,386,0,0
602,638,0,0,0,0,0,0,0,0,0,-1,1826,386,0,0
609,638,0,0,0,0,0,0,0,0,0,-1,1833,386,0,0
616,638,0,0,0,0,0,0,0,0,0,-1,1840,386,0,0
623,638,0,0,0,0,0,0,0,0,0,-1,1847,386,0,0
630,638,0,0,0,0,0,0,0,0,0,-1,1854,386,0,0
637,638,0,0,0,0,0,0,0,0,0,-1,1861,386,0,0
644,638,0,0,0,0,0,0,0,0,0,-1,1868,386,0,0
651,638,0,0,0,0,0,0,0,0,0,-1,1875,386,0,0
658,638,0,0,0,0,0,0,0,0,0,-1,1882,386,0,0
665,638,0,0,0,0,0,0,0,0,0,-1,1889,386,0,0
672,638,0,0,0,0,0,0,0,0,0,-1,1896,386,0,0
679,638,0,0,0,0,0,0,0,0,0,-1,1903,386,0,0
686,638,0,0,0,0,0,0,0,0,0,-1,1910,386,0,0
693,638,0,0,0,0,0,0,0,0,0,-1,1917,386,0,0
700,638,0,0,0,0,0,0,0,0,0,-1,1924,386,0,0
707,638,0,0,0,0,0,0,0,0,0,-1,1931,386,0,0
714,638,0,0,0,0,0,0,0,0,0,-1,1938,386,0,0
721,638,0,0,0,0,0,0,0,0,0,-1,1945,386,0,0
728,638,0,0,0,0,0,0,0,0,0,-1,1952,386,0,0
735,638,0,0,0,0,0,0,0,0,0,-1,1959,386,0,0
742,638,0,0,0,0,0,0,0,0,0,-1,1966,386,0,0
749,638,0,0,0,0,0,0,0,0,0,-1,1973,386,0,0
756,638,0,0,0,0,0,0,0,0,0,-1,1980,386,0,0
763,638,0,0,0,0,0,0,0,0,0,-1,1987,386,0,0
770,638,0,0,0,0,0,0,0,0,0,-1,1994,386,0,0
777,638,0,0,0,0,0,0,0,0,0,-1,2001,386,0,0
784,638,0,0,0,0,0,0,0,0,0,-1,2008,386,0,0
791,638,0,0,0,0,0,0,0,0,0,-1,2015,386,0,0
798,638,0,0,0,0,0,0,0,0,0,-1,2022,386,0,0
805,638,0,0,0,0,0,0,0,0,0,-1,2029,386,0,0
812,638,0,0,0,0,0,0,0,0,0,-1,2036,386,0,0
-700,631,0,0,0,0,0,0,0,0,0,-1,524,393,0,0
-693,631,0,0,0,0,0,0,0,0,0,-1,531,393,0,0
-686,631,0,0,0,0,0,0,0,0,0,-1,538,393,0,0
-679,631,0,0,0,0,0,0,0,0,0,-1,545,393,0,0
-672,631,0,0,0,0,0,0,0,0,0,-1,552,393,0,0
-665,631,0,0,0,0,0,0,0,0,0,-1,559,393,0,0
-658,631,0,0,0,0,0,0,0,0,0,-1,566,393,0,0
-651,631,0,0,0,0,0,0,0,0,0,-1,573,393,0,0
-644,631,0,0,0,0,0,0,0,0,0,-1,580,393,0,0
-637,631,0,0,0,0,0,0,0,0,0,-1,587,393,0,0
-630,631,0,0,0,0,0,0,0,0,0,-1,594,393,0,0
-623,631,0,0,0,0,0,0,0,0,0,-1,601,393,0,0
-616,631,0,0,0,0,0,0,0,0,0,-1,608,393,0,0
-609,631,0,0,0,0,0,0,0,0,0,-1,615,393,0,0
-602,631,0,0,0,0,0,0,0,0,0,-1,622,393,0,0
-595,631,0,0,0,0,0,0,0,0,0,-1,629,393,0,0
-588,631,0,0,0,0,0,0,0,0,0,-1,636,393,0,0
-581,631,0,0,0,0,0,0,0,0,0,-1,643,393,0,0
-574,631,0,0,0,0,0,0,0,0,0,-1,650,393,0,0
-567,631,0,0,0,0,0,0,0,0,0,-1,657,393,0,0
-560,631,0,0,0,0,0,0,0,0,0,-1,664,393,0,0
-553,631,0,0,0,0,0,0,0,0,0,-1,671,393,0,0
-546,631,0,0,0,0,0,0,0,0,0,-1,678,393,0,0
-539,631,0,0,0,0,0,0,0,0,0,-1,685,393,0,0
-532,631,0,0,0,0,0,0,0,0,0,-1,692,393,0,0
-525,631,0,0,0,0,0,0,0,0,0,-1,699,393,0,0
-518,631,0,0,0,0,0,0,0,0,0,-1,706,393,0,0
-511,631,0,0,0,0,0,0,0,0,0,-1,713,393,0,0
-504,631,0,0,0,0,0,0,0,0,0,-1,720,393,0,0
-497,631,0,0,0,0,0,0,0,0,0,-1,727,393,0,0
-490,631,0,0,0,0,0,0,0,0,0,-1,734,393,0,0
-483,631,0,0,0,0,0,0,0,0,0,-1,741,393,0,0
-476,631,0,0,0,0,0,0,0,0,0,-1,748,393,0,0
-469,631,0,0,0,0,0,0,0,0,0,-1,755,393,0,0
-462,631,0,0,0,0,0,0,0,0,0,-1,762,393,0,0
-455,631,0,0,0,0,0,0,0,0,0,-1,769,393,0,0
-448,631,0,0,0,0,0,0,0,0,0,-1,776,393,0,0
-441,631,0,0,0,0,0,0,0,0,0,-1,783,393,0,0
-434,631,0,0,0,0,0,0,0,0,0,-1,790,393,0,0
-427,631,0,0,0,0,0,0,0,0,0,-1,797,393,0,0
-420,631,0,0,0,0,0,0,0,0,0,-1,804,393,0,0
-413,631,0,0,0,0,0,0,0,0,0,-1,811,393,0,0
-406,631,0,0,0,0,0,0,0,0,0,-1,818,393,0,0
-399,631,0,0,0,0,0,0,0,0,0,-1,825,393,0,0
-392,631,0,0,0,0,0,0,0,0,0,-1,832,393,0,0
-385,631,0,0,0,0,0,0,0,0,0,-1,839,393,0,0
-378,631,0,0,0,0,0,0,0,0,0,-1,846,393,0,0
-371,631,0,0,0,0,0,0,0,0,0,-1,853,393,0,0
-364,631,0,0,0,0,0,0,0,0,0,-1,860,393,0,0
-357,631,0,0,0,0,0,0,0,0,0,-1,867,393,0,0
-350,631,0,0,0,0,0,0,0,0,0,-1,874,393,0,0
-343,631,0,0,0,0,0,0,0,0,0,-1,881,393,0,0
-336,631,0,0,0,0,0,0,0,0,0,-1,888,393,0,0
-329,631,0,0,0,0,0,0,0,0,0,-1,895,393,0,0
-322,631,0,0,0,0,0,0,0,0,0,-1,902,393,0,0
-315,631,0,0,0,0,0,0,0,0,0,-1,909,393,0,0
-308,631,0,0,0,0,0,0,0,0,0,-1,916,393,0,0
-301,631,0,0,0,0,0,0,0,0,0,-1,923,393,0,0
-294,631,0,0,0,0,0,0,0,0,0,-1,930,393,0,0
-287,631,0,0,0,0,0,0,0,0,0,-1,937,393,0,0
-280,631,7.71283,-34.969,0,0,0,0,0,0,0,-1,944,393,7.71282,34.969
-273,631,8.04437,-34.934,0,0,0,0,0,0,0,-1,951,393,8.04436,34.9339
-266,631,8.40277,-34.7584,0,0,0,0,0,0,0,-1,958,393,8.40275,34.7584
-259,631,8.56659,-34.037,0,0,0,0,0,0,0,-1,965,393,8.56662,34.037
-252,631,8.44446,-33.2643,0,0,0,0,0,0,0,-1,972,393,8.44445,33.2644
-245,631,8.34705,-32.527,0,0,0,0,0,0,0,-1,979,393,8.34704,32.527
-238,631,8.41888,-31.8855,0,0,0,0,0,0,0,-1,986,393,8.41887,31.8855
-231,631,2.14966,-25.2306,0,0,0,0,0,0,0,-1,993,393,2.14968,25.2306
-224,631,6.83575,-19.7909,0,0,0,0,0,0,0,-1,1000,393,6.83575,19.7909
-217,631,5.05188,-18.3867,0,0,0,0,0,0,0,-1,1007,393,5.0519,18.3866
-210,631,3.37842,-26.3769,0,0,0,0,0,0,0,-1,1014,393,3.37839,26.3769
-203,631,8.59509,-47.1953,0,0,0,0,0,0,0,-1,1021,393,8.5951,47.1954
-196,631,8.51001,-47.9163,0,0,0,0,0,0,0,-1,1028,393,8.50997,47.9163
-189,631,6.57983,-42.4494,0,0,0,0,0,0,0,-1,1035,393,6.57983,42.4494
-182,631,8.0531,-47.8031,0,0,0,0,0,0,0,-1,1042,393,8.05311,47.8031
-175,631,8.2594,-52.1224,0,0,0,0,0,0,0,-1,1049,393,8.25935,52.1224
-168,631,8.40344,-53.2231,-0.00296959,0.0170984,-0.0108377,0.0218339,-0.00770503,-1.15885,0.0176926,0.0425746,1056,393,8.40341,53.223
-161,631,8.3855,-54.0408,-0.00312414,0.0157946,-0.00998968,0.0200929,-0.00742244,-1.16447,0.0164378,0.0229405,1063,393,8.38548,54.0408
-154,631,8.32385,-54.7953,-0.00332683,0.0145039,-0.0091325,0.0183512,-0.00717416,-1.17208,0.0152007,0.0196155,1070,393,8.32389,54.7953
-147,631,8.245,-55.3925,-0.00354047,0.0132262,-0.00830211,0.0166414,-0.00695567,-1.18053,0.0140011,0.0164884,1077,393,8.24504,55.3925
-140,631,8.18164,-56.0231,-0.00359073,0.0118923,-0.00756472,0.0149747,-0.00667308,-1.18387,0.012801,0.0115961,1084,393,8.18163,56.0231
-133,631,8.10754,-56.6546,-0.00360889,0.0106357,-0.00679895,0.0133598,-0.00633306,-1.18971,0.0116085,0.00854223,1091,393,8.10757,56.6546
-126,631,8.05579,-57.2675,-0.00368397,0.00931819,-0.00592761,0.0116149,-0.00598065,-1.20115,0.0103309,0.0129105,1098,393,8.05579,57.2676
-119,631,7.99805,-57.8417,-0.00370555,0.00785657,-0.00506204,0.00975958,-0.00560855,-1.2112,0.00898004,0.0168432,1105,393,7.99799,57.8417
-112,631,7.94263,-58.4207,-0.00363082,0.00665872,-0.00432385,0.00823439,-0.00520649,-1.22134,0.00782545,0.015933,1112,393,7.94267,58.4207
-105,631,7.93713,-58.9995,-0.00346139,0.00572889,-0.0037372,0.00705676,-0.00478925,-1.2294,0.00688093,0.0204602,1119,393,7.9371,58.9995
-98,631,7.84668,-59.5504,-0.00322672,0.00491135,-0.00320659,0.00602298,-0.00433834,-1.23709,0.00600841,0.0176592,1126,393,7.84667,59.5504
-91,631,7.81104,-60.0605,-0.00291985,0.00421406,-0.00272519,0.00513596,-0.00384175,-1.24459,0.00520121,0.0180624,1133,393,7.81105,60.0605
-84,631,7.78577,-60.5674,-0.00258363,0.00316283,-0.00215233,0.00387958,-0.00330038,-1.24934,0.00414985,0.0168819,1140,393,7.78579,60.5674
-77,631,7.70825,-61.0446,-0.00220925,0.00292868,-0.00180031,0.0034967,-0.00277727,-1.26517,0.00363021,0.0127542,1147,393,7.70825,61.0446
-70,631,7.68311,-61.5148,-0.00183152,0.00290993,-0.00155015,0.00337175,-0.00229334,-1.28125,0.00329044,0.0160665,1154,393,7.68314,61.5148
-63,631,7.68164,-62.0007,-0.00126882,0.00312107,-0.00155655,0.00361697,-0.00176472,-1.26237,0.00316787,0.0160691,1161,393,7.68166,62.0007
-56,631,7.65491,-62.4696,-0.000751187,0.0029528,-0.00145557,0.00345634,-0.00125473,-1.23774,0.0028172,0.0162933,1168,393,7.65492,62.4696
-49,631,7.65747,-62.8366,-0.000324936,0.00271253,-0.00122417,0.00314447,-0.000756878,-1.23159,0.00238891,0.0123191,1175,393,7.65741,62.8366
-42,631,7.65771,-63.1891,0.000124531,0.00244868,-0.000978398,0.00280571,-0.0002325,-1.2209,0.00195259,0.00995538,1182,393,7.65773,63.1891
-35,631,7.64661,-63.5362,0.000528233,0.00233654,-0.000786043,0.00263045,0.000234323,-1.21298,0.00168098,0.0112728,1189,393,7.64664,63.5362
-28,631,7.64526,-63.8747,0.000691142,0.00187526,-0.000726567,0.00222045,0.000345953,-1.12727,0.00137952,0.0142847,1196,393,7.64532,63.8747
-21,631,7.61121,-64.1928,0.000709003,0.0013071,-0.000764326,0.0018288,0.000187305,-0.971871,0.00116181,0.0124577,1203,393,7.61118,64.1928
-14,631,7.57874,-64.5219,0.000539223,0.000855158,-0.000807223,0.00151972,-0.000125344,-0.882023,0.00105741,0.0146819,1210,393,7.57868,64.5218
-7,631,7.59973,-64.9028,8.23241e-05,0.000457433,-0.000993168,0.0012806,-0.000740844,-0.878721,0.00118087,0.0238731,1217,393,7.59968,64.9028
0,631,7.59778,-65.0759,-0.000625845,-4.12876e-06,-0.00121368,0.000937875,-0.00156785,-0.910767,0.00146184,0.0271723,1224,393,7.59773,65.0759
7,631,7.59924,-65.2378,-0.00139292,-0.000202986,-0.00142127,0.000742819,-0.00233873,-0.983625,0.00185696,0.020697,1231,393,7.59926,65.2377
14,631,7.64563,-65.4424,-0.00223801,-0.000418776,-0.00168379,0.000585385,-0.00324217,-1.03305,0.00238069,0.0117997,1238,393,7.64558,65.4424
21,631,7.67322,-65.6047,-0.00303911,-0.000616324,-0.00200219,0.000512418,-0.00416785,-1.05745,0.00296417,0.0147984,1245,393,7.67319,65.6047
28,631,7.68738,-65.7264,-0.00384389,-0.00075886,-0.00231447,0.000480014,-0.00508276,-1.07933,0.00355932,0.01582,1252,393,7.68735,65.7264
35,631,7.73816,-65.8145,-0.00467053,-0.000847259,-0.00282267,0.000650182,-0.00616797,-1.08304,0.00434495,0.0150403,1259,393,7.73818,65.8145
42,631,7.80945,-65.9185,-0.0053668,-0.000665329,-0.00319838,0.000953266,-0.0069854,-1.10231,0.00500504,0.013406,1266,393,7.80943,65.9185
49,631,7.84521,-66.0162,-0.00576792,-0.000576698,-0.00375276,0.00139063,-0.00773524,-1.08795,0.00567743,0.0118777,1273,393,7.84527,66.0162
56,631,7.85718,-66.0712,-0.00595718,-0.000489435,-0.00427975,0.00185511,-0.00830172,-1.06963,0.00624538,0.0141551,1280,393,7.85713,66.0712
63,631,7.85181,-66.0994,-0.00576325,-0.000343022,-0.00464786,0.00232713,-0.00843341,-1.04934,0.00653754,0.0155901,1287,393,7.85183,66.0994
70,631,7.86536,-66.0848,-0.00527615,-0.000214579,-0.00485315,0.00272802,-0.00821875,-1.02574,0.00657979,0.0160754,1294,393,7.86537,66.0848
77,631,7.91882,-66.0367,-0.00454188,5.82708e-05,-0.00490743,0.0031779,-0.00766151,-1.00454,0.00643412,0.0168551,1301,393,7.91884,66.0367
84,631,7.95129,-65.9664,-0.00369412,0.000321846,-0.00484695,0.00356029,-0.00693256,-0.981775,0.00616146,0.0143806,1308,393,7.95125,65.9664
91,631,7.97192,-65.8652,-0.00291128,0.00069856,-0.00463961,0.00387197,-0.00608468,-0.970902,0.0057956,0.0172022,1315,393,7.97189,65.8652
98,631,7.99902,-65.7604,-0.00207967,0.00146843,-0.00434534,0.00438791,-0.00499915,-0.979204,0.00542345,0.0142735,1322,393,7.99905,65.7604
105,631,7.98303,-65.6297,-0.00116557,0.00257945,-0.00408754,0.00520297,-0.00378909,-1.00018,0.00521292,0.0117011,1329,393,7.983,65.6297
112,631,8.01416,-65.4471,-0.000359464,0.00337611,-0.00360521,0.00556864,-0.00255199,-1.0244,0.00479507,0.0125377,1336,393,8.01415,65.4471
119,631,8.02771,-65.2637,0.000221923,0.00434224,-0.00309319,0.00599854,-0.00143438,-1.07918,0.0045531,0.0138542,1343,393,8.02771,65.2637
126,631,8.04578,-65.0244,0.000604815,0.00542493,-0.00265621,0.00660149,-0.000571747,-1.15382,0.00460343,0.0188263,1350,393,8.04573,65.0243
133,631,8.04932,-64.7623,0.000858546,0.0063515,-0.00224025,0.00714929,6.07551e-05,-1.22868,0.00474607,0.0198085,1357,393,8.04927,64.7623
140,631,8.04236,-64.4885,0.00103329,0.0071583,-0.00174488,0.0076205,0.00057109,-1.31185,0.00490108,0.0204477,1364,393,8.04234,64.4885
147,631,8.01855,-64.1857,0.00097093,0.00760749,-0.00141767,0.00789764,0.000680778,-1.36892,0.00505347,0.0231804,1371,393,8.01854,64.1857
154,631,8.05139,-63.8874,0.000763815,0.00802932,-0.00102769,0.00817189,0.000621247,-1.43295,0.0052531,0.0228875,1378,393,8.05142,63.8874
161,631,8.12146,-63.4826,0.000535397,0.00809335,-0.00062639,0.00814492,0.000483835,-1.48866,0.00527607,0.0247141,1385,393,8.12141,63.4826
168,631,8.12964,-63.0621,0.000255407,0.00793747,-0.000161152,0.00794085,0.000252028,-1.54983,0.00521192,0.0292436,1392,393,8.12959,63.0621
175,631,8.1134,-62.7346,-4.52838e-05,0.00766521,0.000396013,0.0076855,-6.55695e-05,1.51962,0.00514566,0.0229314,1399,393,8.11341,62.7346
182,631,8.04175,-62.3577,-0.00040567,0.00743379,0.000978891,0.00755417,-0.000526052,1.44843,0.00522031,0.0122448,1406,393,8.04175,62.3577
189,631,8.01538,-61.8795,-0.000703952,0.0072927,0.00154641,0.00758133,-0.000992584,1.38627,0.00541549,0.0114196,1413,393,8.01538,61.8795
196,631,7.98669,-61.4272,-0.000874877,0.00736064,0.00214451,0.0078856,-0.00139984,1.33072,0.00578046,0.0129494,1420,393,7.98667,61.4272
203,631,7.98523,-60.9672,-0.00122977,0.0073944,0.00251216,0.00807281,-0.00190817,1.30704,0.00611794,0.0148525,1427,393,7.9852,60.9672
210,631,7.96631,-60.4725,-0.0017179,0.00746325,0.00262597,0.00816125,-0.00241591,1.31099,0.00639998,0.0161932,1434,393,7.9663,60.4725
217,631,7.93335,-59.9677,-0.00199517,0.00760828,0.00282642,0.00837838,-0.00276527,1.30479,0.00670033,0.0166198,1441,393,7.93331,59.9676
224,631,7.86963,-59.4205,-0.00211961,0.00808221,0.00307269,0.00893619,-0.00297359,1.29971,0.0071576,0.01377,1448,393,7.8696,59.4205
231,631,7.80615,-58.848,-0.00197523,0.0084811,0.00352636,0.00955919,-0.00305332,1.2741,0.0075979,0.0121123,1455,393,7.80616,58.848
238,631,7.77039,-58.256,-0.00157966,0.00941195,0.00443878,0.0109806,-0.00314832,1.2311,0.00856495,0.0170509,1462,393,7.77043,58.256
245,631,7.74768,-57.682,-0.00145536,0.0102366,0.00507994,0.0121354,-0.00335413,1.2131,0.00940974,0.0190771,1469,393,7.74765,57.682
252,631,7.67249,-57.089,-0.00105348,0.011394,0.00593946,0.0137733,-0.00343278,1.18978,0.0105149,0.0204397,1476,393,7.67253,57.089
259,631,7.60583,-56.4551,-0.000335451,0.0133896,0.00723331,0.0164978,-0.00344363,1.16495,0.012308,0.0146398,1483,393,7.60587,56.4552
266,631,7.55457,-55.8427,0.000177146,0.014898,0.00846177,0.0187526,-0.00367747,1.14335,0.0138908,0.0119837,1490,393,7.55458,55.8428
273,631,7.50366,-55.1727,0.000761887,0.0168019,0.00986393,0.0214948,-0.003931,1.12673,0.015804,0.0151367,1497,393,7.50366,55.1727
280,631,7.46765,-54.4352,0.00144834,0.0189267,0.0113146,0.0244842,-0.00410912,1.11423,0.0178509,0.0147515,1504,393,7.46766,54.4353
287,631,7.38464,-53.7313,0.00210255,0.0215423,0.0129366,0.0280036,-0.00435882,1.10758,0.0202788,0.0169267,1511,393,7.3846,53.7313
294,631,7.28442,-52.952,0.00255874,0.0241091,0.0144543,0.0313625,-0.0046947,1.10569,0.0226361,0.0220949,1518,393,7.28441,52.952
301,631,7.13269,-52.1125,0.00299709,0.0265749,0.0158736,0.0345584,-0.0049864,1.1048,0.0248683,0.0345837,1525,393,7.1327,52.1125
308,631,7.31763,-51.0049,0.00357903,0.0294255,0.0173018,0.0380977,-0.00509319,1.10616,0.0272553,0.0484525,1532,393,7.31762,51.0049
315,631,7.35876,-50.7984,0,0,0,0,0,0,0,-1,1539,393,7.35875,50.7984
322,631,7.22046,-50.2459,0,0,0,0,0,0,0,-1,1546,393,7.22042,50.2459
329,631,5.70972,-38.2651,0,0,0,0,0,0,0,-1,1553,393,5.70967,38.2651
336,631,5.38281,-39.6306,0,0,0,0,0,0,0,-1,1560,393,5.38277,39.6306
343,631,6.21558,-38.7278,0,0,0,0,0,0,0,-1,1567,393,6.21558,38.7278
350,631,5.18359,-35.9677,0,0,0,0,0,0,0,-1,1574,393,5.18355,35.9677
357,631,2.6449,-9.60303,0,0,0,0,0,0,0,-1,1581,393,2.64491,9.60304
364,631,3.39136,-5.7594,0,0,0,0,0,0,0,-1,1588,393,3.39137,5.75939
371,631,3.72839,-6.0574,0,0,0,0,0,0,0,-1,1595,393,3.72845,6.05742
378,631,4.06555,-6.35544,0,0,0,0,0,0,0,-1,1602,393,4.06553,6.35544
385,631,3.90442,-3.58298,0,0,0,0,0,0,0,-1,1609,393,3.90437,3.58299
392,631,0.352295,-2.21301,0,0,0,0,0,0,0,-1,1616,393,0.352345,2.213
399,631,0,0,0,0,0,0,0,0,0,-1,1623,393,0,0
406,631,0,0,0,0,0,0,0,0,0,-1,1630,393,0,0
413,631,0,0,0,0,0,0,0,0,0,-1,1637,393,0,0
420,631,0,0,0,0,0,0,0,0,0,-1,1644,393,0,0
427,631,0,0,0,0,0,0,0,0,0,-1,1651,393,0,0
434,631,0,0,0,0,0,0,0,0,0,-1,1658,393,0,0
441,631,0,0,0,0,0,0,0,0,0,-1,1665,393,0,0
448,631,0,0,0,0,0,0,0,0,0,-1,1672,393,0,0
455,631,0,0,0,0,0,0,0,0,0,-1,1679,393,0,0
462,631,0,0,0,0,0,0,0,0,0,-1,1686,393,0,0
469,631,0,0,0,0,0,0,0,0,0,-1,1693,393,0,0
476,631,0,0,0,0,0,0,0,0,0,-1,1700,393,0,0
483,631,0,0,0,0,0,0,0,0,0,-1,1707,393,0,0
490,631,0,0,0,0,0,0,0,0,0,-1,1714,393,0,0
497,631,0,0,0,0,0,0,0,0,0,-1,1721,393,0,0
504,631,0,0,0,0,0,0,0,0,0,-1,1728,393,0,0
511,631,0,0,0,0,0,0,0,0,0,-1,1735,393,0,0
518,631,0,0,0,0,0,0,0,0,0,-1,1742,393,0,0
525,631,0,0,0,0,0,0,0,0,0,-1,1749,393,0,0
532,631,0,0,0,0,0,0,0,0,0,-1,1756,393,0,0
539,631,0,0,0,0,0,0,0,0,0,-1,1763,393,0,0
546,631,0,0,0,0,0,0,0,0,0,-1,1770,393,0,0
553,631,0,0,0,0,0,0,0,0,0,-1,1777,393,0,0
560,631,0,0,0,0,0,0,0,0,0,-1,1784,393,0,0
567,631,0,0,0,0,0,0,0,0,0,-1,1791,393,0,0
574,631,0,0,0,0,0,0,0,0,0,-1,1798,393,0,0
581,631,0,0,0,0,0,0,0,0,0,-1,1805,393,0,0
588,631,0,0,0,0,0,0,0,0,0,-1,1812,393,0,0
595,631,0,0,0,0,0,0,0,0,0,-1,1819,393,0,0
602,631,0,0,0,0,0,0,0,0,0,-1,1826,393,0,0
609,631,0,0,0,0,0,0,0,0,0,-1,1833,393,0,0
616,631,0,0,0,0,0,0,0,0,0,-1,1840,393,0,0
623,631,0,0,0,0,0,0,0,0,0,-1,1847,393,0,0
630,631,0,0,0,0,0,0,0,0,0,-1,1854,393,0,0
637,631,0,0,0,0,0,0,0,0,0,-1,1861,393,0,0
644,631,0,0,0,0,0,0,0,0,0,-1,1868,393,0,0
651,631,0,0,0,0,0,0,0,0,0,-1,1875,393,0,0
658,631,0,0,0,0,0,0,0,0,0,-1,1882,393,0,0
665,631,0,0,0,0,0,0,0,0,0,-1,1889,393,0,0
672,631,0,0,0,0,0,0,0,0,0,-1,1896,393,0,0
679,631,0,0,0,0,0,0,0,0,0,-1,1903,393,0,0
686,631,0,0,0,0,0,0,0,0,0,-1,1910,393,0,0
693,631,0,0,0,0,0,0,0,0,0,-1,1917,393,0,0
700,631,0,0,0,0,0,0,0,0,0,-1,1924,393,0,0
707,631,0,0,0,0,0,0,0,0,0,-1,1931,393,0,0
714,631,0,0,0,0,0,0,0,0,0,-1,1938,393,0,0
721,631,0,0,0,0,0,0,0,0,0,-1,1945,393,0,0
728,631,0,0,0,0,0,0,0,0,0,-1,1952,393,0,0
735,631,0,0,0,0,0,0,0,0,0,-1,1959,393,0,0
742,631,0,0,0,0,0,0,0,0,0,-1,1966,393,0,0
749,631,0,0,0,0,0,0,0,0,0,-1,1973,393,0,0
756,631,0,0,0,0,0,0,0,0,0,-1,1980,393,0,0
763,631,0,0,0,0,0,0,0,0,0,-1,1987,393,0,0
770,631,0,0,0,0,0,0,0,0,0,-1,1994,393,0,0
777,631,0,0,0,0,0,0,0,0,0,-1,2001,393,0,0
784,631,0,0,0,0,0,0,0,0,0,-1,2008,393,0,0
791,631,0,0,0,0,0,0,0,0,0,-1,2015,393,0,0
798,631,0,0,0,0,0,0,0,0,0,-1,2022,393,0,0
805,631,0,0,0,0,0,0,0,0,0,-1,2029,393,0,0
812,631,0,0,0,0,0,0,0,0,0,-1,2036,393,0,0
-700,624,0,0,0,0,0,0,0,0,0,-1,524,400,0,0
-693,624,0,0,0,0,0,0,0,0,0,-1,531,400,0,0
-686,624,0,0,0,0,0,0,0,0,0,-1,538,400,0,0
-679,624,0,0,0,0,0,0,0,0,0,-1,545,400,0,0
-672,624,0,0,0,0,0,0,0,0,0,-1,552,400,0,0
-665,624,0,0,0,0,0,0,0,0,0,-1,559,400,0,0
-658,624,0,0,0,0,0,0,0,0,0,-1,566,400,0,0
-651,624,0,0,0,0,0,0,0,0,0,-1,573,400,0,0
-644,624,0,0,0,0,0,0,0,0,0,-1,580,400,0,0
-637,624,0,0,0,0,0,0,0,0,0,-1,587,400,0,0
-630,624,0,0,0,0,0,0,0,0,0,-1,594,400,0,0
-623,624,0,0,0,0,0,0,0,0,0,-1,601,400,0,0
-616,624,0,0,0,0,0,0,0,0,0,-1,608,400,0,0
-609,624,0,0,0,0,0,0,0,0,0,-1,615,400,0,0
-602,624,0,0,0,0,0,0,0,0,0,-1,622,400,0,0
-595,624,0,0,0,0,0,0,0,0,0,-1,629,400,0,0
-588,624,0,0,0,0,0,0,0,0,0,-1,636,400,0,0
-581,624,0,0,0,0,0,0,0,0,0,-1,643,400,0,0
-574,624,0,0,0,0,0,0,0,0,0,-1,650,400,0,0
-567,624,0,0,0,0,0,0,0,0,0,-1,657,400,0,0
-560,624,0,0,0,0,0,0,0,0,0,-1,664,400,0,0
-553,624,0,0,0,0,0,0,0,0,0,-1,671,400,0,0
-546,624,0,0,0,0,0,0,0,0,0,-1,678,400,0,0
-539,624,0,0,0,0,0,0,0,0,0,-1,685,400,0,0
-532,624,0,0,0,0,0,0,0,0,0,-1,692,400,0,0
-525,624,0,0,0,0,0,0,0,0,0,-1,699,400,0,0
-518,624,0,0,0,0,0,0,0,0,0,-1,706,400,0,0
-511,624,0,0,0,0,0,0,0,0,0,-1,713,400,0,0
-504,624,0,0,0,0,0,0,0,0,0,-1,720,400,0,0
-497,624,0,0,0,0,0,0,0,0,0,-1,727,400,0,0
-490,624,0,0,0,0,0,0,0,0,0,-1,734,400,0,0
-483,624,0,0,0,0,0,0,0,0,0,-1,741,400,0,0
-476,624,0,0,0,0,0,0,0,0,0,-1,748,400,0,0
-469,624,0,0,0,0,0,0,0,0,0,-1,755,400,0,0
-462,624,0,0,0,0,0,0,0,0,0,-1,762,400,0,0
-455,624,0,0,0,0,0,0,0,0,0,-1,769,400,0,0
-448,624,0,0,0,0,0,0,0,0,0,-1,776,400,0,0
-441,624,0,0,0,0,0,0,0,0,0,-1,783,400,0,0
-434,624,0,0,0,0,0,0,0,0,0,-1,790,400,0,0
-427,624,0,0,0,0,0,0,0,0,0,-1,797,400,0,0
-420,624,0,0,0,0,0,0,0,0,0,-1,804,400,0,0
-413,624,0,0,0,0,0,0,0,0,0,-1,811,400,0,0
-406,624,0,0,0,0,0,0,0,0,0,-1,818,400,0,0
-399,624,0,0,0,0,0,0,0,0,0,-1,825,400,0,0
-392,624,0,0,0,0,0,0,0,0,0,-1,832,400,0,0
-385,624,0,0,0,0,0,0,0,0,0,-1,839,400,0,0
-378,624,0,0,0,0,0,0,0,0,0,-1,846,400,0,0
-371,624,0,0,0,0,0,0,0,0,0,-1,853,400,0,0
-364,624,0,0,0,0,0,0,0,0,0,-1,860,400,0,0
-357,624,0,0,0,0,0,0,0,0,0,-1,867,400,0,0
-350,624,0,0,0,0,0,0,0,0,0,-1,874,400,0,0
-343,624,0,0,0,0,0,0,0,0,0,-1,881,400,0,0
-336,624,0,0,0,0,0,0,0,0,0,-1,888,400,0,0
-329,624,0,0,0,0,0,0,0,0,0,-1,895,400,0,0
-322,624,0,0,0,0,0,0,0,0,0,-1,902,400,0,0
-315,624,0,0,0,0,0,0,0,0,0,-1,909,400,0,0
-308,624,0,0,0,0,0,0,0,0,0,-1,916,400,0,0
-301,624,0,0,0,0,0,0,0,0,0,-1,923,400,0,0
-294,624,5.08527,-28.5311,0,0,0,0,0,0,0,-1,930,400,5.08525,28.5311
-287,624,6.70825,-33.8,0,0,0,0,0,0,0,-1,937,400,6.70827,33.8
-280,624,6.92474,-33.8738,0,0,0,0,0,0,0,-1,944,400,6.92477,33.8739
-273,624,8.617,-37.3463,0,0,0,0,0,0,0,-1,951,400,8.61697,37.3463
-266,624,7.71747,-37.0599,0,0,0,0,0,0,0,-1,958,400,7.7175,37.0599
-259,624,7.33569,-33.1199,0,0,0,0,0,0,0,-1,965,400,7.33567,33.1199
-252,624,7.5528,-32.8158,0,0,0,0,0,0,0,-1,972,400,7.5528,32.8158
-245,624,6.8396,-32.02,0,0,0,0,0,0,0,-1,979,400,6.83963,32.02
-238,624,6.99402,-31.5278,0,0,0,0,0,0,0,-1,986,400,6.99404,31.5278
-231,624,3.86121,-29.6032,0,0,0,0,0,0,0,-1,993,400,3.86122,29.6032
-224,624,4.59351,-27.4048,0,0,0,0,0,0,0,-1,1000,400,4.59353,27.4048
-217,624,5.90167,-32.048,0,0,0,0,0,0,0,-1,1007,400,5.90167,32.048
-210,624,8.24023,-48.7397,0,0,0,0,0,0,0,-1,1014,400,8.24023,48.7396
-203,624,8.14648,-49.533,0,0,0,0,0,0,0,-1,1021,400,8.14646,49.533
-196,624,8.2124,-50.2635,0,0,0,0,0,0,0,-1,1028,400,8.21241,50.2635
-189,624,8.08765,-51.1107,0,0,0,0,0,0,0,-1,1035,400,8.08762,51.1107
-182,624,7.93921,-51.9304,0,0,0,0,0,0,0,-1,1042,400,7.93915,51.9304
-175,624,7.77209,-52.4582,-0.00215808,0.0147207,-0.00911831,0.0187058,-0.00614313,-1.15877,0.0149452,0.0339352,1049,400,7.77208,52.4582
-168,624,7.83398,-53.3466,-0.00232494,0.0132369,-0.00840307,0.0169082,-0.00599629,-1.15889,0.013715,0.0237437,1056,400,7.83397,53.3467
-161,624,7.7561,-54.085,-0.00234664,0.0120776,-0.00771755,0.0154284,-0.00569743,-1.16118,0.012621,0.0128166,1063,400,7.75607,54.085
-154,624,7.6969,-54.7569,-0.0023886,0.0109478,-0.00700217,0.0139489,-0.0053897,-1.16588,0.0115239,0.0106854,1070,400,7.69687,54.7569
-147,624,7.64783,-55.4095,-0.00241141,0.00983673,-0.00631169,0.0125071,-0.00508176,-1.17055,0.0104522,0.0116126,1077,400,7.64781,55.4096
-140,624,7.59277,-56.0341,-0.00231065,0.00865256,-0.00567992,0.0110646,-0.00472268,-1.16921,0.00935672,0.0100911,1084,400,7.59275,56.0341
-133,624,7.52405,-56.6529,-0.0022013,0.00757029,-0.00503,0.00969676,-0.00432778,-1.17083,0.00829249,0.0109403,1091,400,7.52409,56.6529
-126,624,7.48669,-57.2544,-0.00210598,0.0065028,-0.00433536,0.00830767,-0.00391085,-1.17631,0.00720501,0.0130814,1098,400,7.48675,57.2544
-119,624,7.4209,-57.8427,-0.00193854,0.00534844,-0.00363911,0.00685452,-0.00344462,-1.1784,0.00605388,0.0152534,1105,400,7.42085,57.8427
-112,624,7.38782,-58.4191,-0.00169463,0.00442148,-0.00306149,0.0056906,-0.00296375,-1.17782,0.00507859,0.018502,1112,400,7.38777,58.4191
-105,624,7.42188,-58.9788,-0.00139189,0.0037161,-0.00261863,0.00481999,-0.00249578,-1.17185,0.00429423,0.0147699,1119,400,7.42188,58.9788
-98,624,7.36218,-59.5295,-0.00102046,0.00311659,-0.00222804,0.0040883,-0.00199216,-1.15954,0.00357941,0.0149077,1126,400,7.36219,59.5295
-91,624,7.36255,-60.067,-0.000571331,0.00262466,-0.00187817,0.00349265,-0.00143932,-1.13789,0.00292858,0.0209816,1133,400,7.3625,60.0669
-84,624,7.33521,-60.5657,-8.25938e-05,0.00192742,-0.00146916,0.00270243,-0.00085761,-1.08537,0.00214541,0.0196324,1140,400,7.33518,60.5657
-77,624,7.276,-61.0292,0.000409221,0.00166126,-0.00118644,0.00237671,-0.000306227,-1.02816,0.00169579,0.0152405,1147,400,7.27599,61.0292
-70,624,7.2876,-61.488,0.000931346,0.00135844,-0.000902673,0.00207248,0.000217303,-0.901548,0.00131522,0.017723,1154,400,7.2876,61.488
-63,624,7.30969,-61.9857,0.00152238,0.000947678,-0.000663529,0.00195811,0.000511952,-0.581057,0.00117262,0.0195709,1161,400,7.30975,61.9857
-56,624,7.2572,-62.4258,0.00186388,0.000188787,-0.000573553,0.00204144,1.12236e-05,-0.300226,0.00135723,0.0155907,1168,400,7.25723,62.4258
-49,624,7.25793,-62.8461,0.00216488,-0.000527365,-0.00033867,0.00220683,-0.000569315,-0.123237,0.0016932,0.0114617,1175,400,7.25788,62.8461
-42,624,7.27588,-63.1898,0.0025287,-0.001234,-0.000150692,0.00253472,-0.00124003,-0.0399636,0.00222167,0.0102607,1182,400,7.27588,63.1898
-35,624,7.30432,-63.5416,0.002883,-0.0018501,-7.91229e-05,0.00288432,-0.00185142,-0.0167107,0.00275577,0.0161624,1189,400,7.30432,63.5416
-28,624,7.29907,-63.9141,0.00264031,-0.00304352,-0.000236152,0.00265011,-0.00305332,-0.0414528,0.00329562,0.0214123,1196,400,7.29909,63.9141
-21,624,7.29822,-64.1967,0.00219148,-0.00422761,-0.000503114,0.00223067,-0.0042668,-0.0777451,0.00381222,0.014954,1203,400,7.29818,64.1967
-14,624,7.3407,-64.5119,0.00149521,-0.0050844,-0.000906481,0.00161781,-0.00520701,-0.134435,0.00411794,0.015579,1210,400,7.3407,64.5119
-7,624,7.36743,-64.7824,0.000320111,-0.0058982,-0.00143423,0.000634968,-0.00621305,-0.216103,0.0043691,0.0214218,1217,400,7.36748,64.7824
0,624,7.41528,-65.0074,-0.00123425,-0.00671333,-0.00192727,-0.000624242,-0.00732333,-0.306536,0.00468802,0.0223815,1224,400,7.41533,65.0074
7,624,7.39978,-65.2372,-0.00282798,-0.00726913,-0.00241824,-0.00176544,-0.00833167,-0.413992,0.00506949,0.0160612,1231,400,7.39976,65.2372
14,624,7.48328,-65.4514,-0.00434201,-0.00781806,-0.00293399,-0.0026699,-0.00949017,-0.518001,0.00565111,0.0134748,1238,400,7.48327,65.4514
21,624,7.51196,-65.5984,-0.00580718,-0.00839807,-0.00357252,-0.00330248,-0.0109028,-0.611465,0.00645568,0.0161393,1245,400,7.51199,65.5984
28,624,7.53442,-65.7337,-0.00724499,-0.00898074,-0.00421981,-0.00380473,-0.012421,-0.683979,0.00734843,0.0153238,1252,400,7.53437,65.7337
35,624,7.58936,-65.8153,-0.00860109,-0.00938396,-0.00507763,-0.00389983,-0.0140852,-0.746929,0.00839767,0.0181228,1259,400,7.58942,65.8153
42,624,7.6814,-65.9191,-0.00964654,-0.00938359,-0.00585855,-0.00365504,-0.0153751,-0.796617,0.00927496,0.0193106,1266,400,7.68145,65.9191
49,624,7.77881,-65.9683,-0.0101841,-0.00939011,-0.00675004,-0.00302542,-0.0165488,-0.814772,0.0101751,0.0191708,1273,400,7.77886,65.9683
56,624,7.80432,-66.0605,-0.0104637,-0.00939935,-0.00765995,-0.0022531,-0.0176099,-0.82008,0.0110656,0.019991,1280,400,7.80435,66.0605
63,624,7.85559,-66.0868,-0.0101431,-0.00901878,-0.00830059,-0.00126132,-0.0179005,-0.819209,0.0115363,0.0157493,1287,400,7.85563,66.0868
70,624,7.88794,-66.1184,-0.00940439,-0.0084501,-0.00873252,-0.000181699,-0.0176728,-0.812691,0.0117218,0.0140938,1294,400,7.88794,66.1185
77,624,7.9447,-66.0769,-0.00839525,-0.0076447,-0.00907683,0.00106461,-0.0171046,-0.806059,0.011774,0.0162001,1301,400,7.94471,66.0769
84,624,7.99963,-65.9933,-0.00716042,-0.00664889,-0.00928254,0.00238141,-0.0161907,-0.799172,0.0116689,0.0144387,1308,400,7.99965,65.9933
91,624,8.06287,-65.8658,-0.00588457,-0.00526492,-0.00920669,0.00363716,-0.0147866,-0.802218,0.0112676,0.0142157,1315,400,8.06285,65.8658
98,624,8.0907,-65.7607,-0.00451095,-0.00314559,-0.00915839,0.00535552,-0.0130121,-0.8226,0.0109073,0.0140383,1322,400,8.09071,65.7607
105,624,8.13074,-65.6638,-0.00304879,-0.000675238,-0.00921932,0.00743338,-0.0111574,-0.84941,0.0108049,0.0145537,1329,400,8.13079,65.6638
112,624,8.19092,-65.497,-0.0017169,0.00134912,-0.00883846,0.00878653,-0.00915432,-0.871267,0.0103589,0.0153833,1336,400,8.19087,65.497
119,624,8.2301,-65.3348,-0.000812635,0.00347162,-0.00840901,0.0100071,-0.00734808,-0.910116,0.0100591,0.0161837,1343,400,8.23009,65.3348
126,624,8.25525,-65.0786,-6.06017e-05,0.0056143,-0.00802639,0.01129,-0.00573632,-0.9553,0.010003,0.0183285,1350,400,8.25522,65.0785
133,624,8.31519,-64.7608,0.00054129,0.00738734,-0.00765451,0.0123493,-0.00442071,-0.995656,0.0100364,0.018429,1357,400,8.31513,64.7608
140,624,8.32104,-64.4565,0.00100776,0.00862988,-0.0071601,0.01293,-0.00329236,-1.02996,0.00990162,0.0189056,1364,400,8.32109,64.4565
147,624,8.28723,-64.1483,0.00117685,0.00911053,-0.00676351,0.0129847,-0.00269728,-1.05062,0.0096816,0.0231358,1371,400,8.2872,64.1482
154,624,8.39771,-63.8858,0.00114155,0.00935953,-0.00621722,0.0127029,-0.00220182,-1.0774,0.00928992,0.0256991,1378,400,8.39769,63.8858
161,624,8.4801,-63.521,0.00107582,0.00892435,-0.00561859,0.0118534,-0.00185327,-1.09024,0.00858697,0.0248449,1385,400,8.48015,63.521
168,624,8.49927,-63.0977,0.00103046,0.00819587,-0.00489804,0.0106817,-0.00145533,-1.10116,0.00765248,0.024442,1392,400,8.49923,63.0977
175,624,8.51392,-62.765,0.000975644,0.00729807,-0.00395707,0.0092016,-0.000927892,-1.12243,0.00646593,0.0184348,1399,400,8.5139,62.7651
182,624,8.47681,-62.363,0.0008549,0.00638571,-0.00278299,0.00754364,-0.000303022,-1.17651,0.00513308,0.011105,1406,400,8.4768,62.363
189,624,8.43127,-61.8963,0.000811096,0.00572151,-0.00158182,0.00618696,0.000345651,-1.28463,0.00401438,0.0107898,1413,400,8.43127,61.8963
196,624,8.42151,-61.4305,0.00081122,0.00510121,-0.000487833,0.00515598,0.000756446,-1.45898,0.00321497,0.012588,1420,400,8.42146,61.4305
203,624,8.45276,-60.9454,0.000638383,0.00446584,0.000558337,0.00454562,0.000558597,1.42886,0.00286244,0.0153867,1427,400,8.45278,60.9454
210,624,8.45154,-60.4525,0.000258248,0.00443214,0.00136554,0.0048392,-0.000148808,1.28109,0.00327686,0.0181229,1434,400,8.45152,60.4525
217,624,8.41565,-59.9301,-0.000196303,0.00488864,0.00167283,0.00538961,-0.000697272,1.27982,0.00384662,0.0200333,1441,400,8.4156,59.9302
224,624,8.3866,-59.4115,-0.000419934,0.00542736,0.00199087,0.00604084,-0.00103341,1.27188,0.00441222,0.0160208,1448,400,8.38663,59.4115
231,624,8.36536,-58.8639,-0.00048489,0.00592421,0.00246235,0.00676099,-0.00132167,1.24321,0.00500638,0.0127423,1455,400,8.36542,58.8639
238,624,8.33008,-58.2855,-0.000377129,0.00672419,0.0031886,0.00794578,-0.00159872,1.20493,0.00590271,0.0177707,1462,400,8.33011,58.2855
245,624,8.31396,-57.7277,-0.000415397,0.00746224,0.00372873,0.00894723,-0.00190039,1.19179,0.00668889,0.0189606,1469,400,8.31396,57.7277
252,624,8.25293,-57.1004,-0.000279034,0.00844357,0.00442247,0.0102935,-0.00212895,1.17462,0.00767109,0.0147516,1476,400,8.25289,57.1004
259,624,8.19592,-56.4827,7.01173e-05,0.0100203,0.00543471,0.0124132,-0.00232281,1.15603,0.00914856,0.0103628,1483,400,8.19593,56.4827
266,624,8.15381,-55.8578,0.000287976,0.0112427,0.00639523,0.0141856,-0.00265489,1.13952,0.010455,0.01396,1490,400,8.15375,55.8578
273,624,8.11487,-55.2,0.000563995,0.0127509,0.0074742,0.0163008,-0.00298588,1.12739,0.0119871,0.017016,1497,400,8.11489,55.2
280,624,8.05518,-54.5284,0.00092867,0.0144196,0.00859945,0.0186036,-0.00325526,1.11798,0.0136178,0.0154889,1504,400,8.05515,54.5284
287,624,7.99866,-53.8646,0.00129505,0.0164667,0.00984279,0.0213077,-0.00354591,1.11371,0.0155227,0.0119206,1511,400,7.99865,53.8646
294,624,7.93201,-53.1595,0.00149104,0.0184094,0.0109772,0.0238087,-0.00390823,1.11368,0.0173228,0.0110364,1518,400,7.93201,53.1595
301,624,7.86389,-52.3979,0.00167295,0.0202658,0.0120314,0.0261739,-0.0042352,1.11433,0.0190189,0.013248,1525,400,7.86393,52.3979
308,624,7.86499,-51.5785,0.00200099,0.0224389,0.0130993,0.0288337,-0.00439384,1.11665,0.020842,0.0223099,1532,400,7.86495,51.5784
315,624,7.85559,-50.8669,0.00245588,0.0247757,0.0142871,0.0317449,-0.00451334,1.11696,0.022817,0.0288622,1539,400,7.85562,50.8669
322,624,7.77954,-50.1508,0.00288098,0.0269574,0.0153764,0.0344474,-0.00460905,1.11751,0.0246454,0.0498265,1546,400,7.77954,50.1508
329,624,7.724,-49.4118,0,0,0,0,0,0,0,-1,1553,400,7.72394,49.4118
336,624,7.45349,-48.0063,0,0,0,0,0,0,0,-1,1560,400,7.45353,48.0063
343,624,6.53369,-39.5615,0,0,0,0,0,0,0,-1,1567,400,6.53364,39.5615
350,624,1.99194,-7.29742,0,0,0,0,0,0,0,-1,1574,400,1.99198,7.29741
357,624,2.64075,-3.13092,0,0,0,0,0,0,0,-1,1581,400,2.64076,3.13091
364,624,3.16565,-4.9458,0,0,0,0,0,0,0,-1,1588,400,3.16564,4.94579
371,624,3.37561,-5.23529,0,0,0,0,0,0,0,-1,1595,400,3.37563,5.23529
378,624,1.50439,-5.22165,0,0,0,0,0,0,0,-1,1602,400,1.50438,5.22164
385,624,1.2301,-10.5866,0,0,0,0,0,0,0,-1,1609,400,1.2301,10.5866
392,624,4.26819,-5.14236,0,0,0,0,0,0,0,-1,1616,400,4.26818,5.14236
399,624,2.22168,-9.19293,0,0,0,0,0,0,0,-1,1623,400,2.22173,9.19294
406,624,2.68213,-9.91171,0,0,0,0,0,0,0,-1,1630,400,2.68213,9.91171
413,624,0,0,0,0,0,0,0,0,0,-1,1637,400,0,0
420,624,0,0,0,0,0,0,0,0,0,-1,1644,400,0,0
427,624,0,0,0,0,0,0,0,0,0,-1,1651,400,0,0
434,624,0,0,0,0,0,0,0,0,0,-1,1658,400,0,0
441,624,0,0,0,0,0,0,0,0,0,-1,1665,400,0,0
448,624,0,0,0,0,0,0,0,0,0,-1,1672,400,0,0
455,624,0,0,0,0,0,0,0,0,0,-1,1679,400,0,0
462,624,0,0,0,0,0,0,0,0,0,-1,1686,400,0,0
469,624,0,0,0,0,0,0,0,0,0,-1,1693,400,0,0
476,624,0,0,0,0,0,0,0,0,0,-1,1700,400,0,0
483,624,0,0,0,0,0,0,0,0,0,-1,1707,400,0,0
490,624,0,0,0,0,0,0,0,0,0,-1,1714,400,0,0
497,624,0,0,0,0,0,0,0,0,0,-1,1721,400,0,0
504,624,0,0,0,0,0,0,0,0,0,-1,1728,400,0,0
511,624,0,0,0,0,0,0,0,0,0,-1,1735,400,0,0
518,624,0,0,0,0,0,0,0,0,0,-1,1742,400,0,0
525,624,0,0,0,0,0,0,0,0,0,-1,1749,400,0,0
532,624,0,0,0,0,0,0,0,0,0,-1,1756,400,0,0
539,624,0,0,0,0,0,0,0,0,0,-1,1763,400,0,0
546,624,0,0,0,0,0,0,0,0,0,-1,1770,400,0,0
553,624,0,0,0,0,0,0,0,0,0,-1,1777,400,0,0
560,624,0,0,0,0,0,0,0,0,0,-1,1784,400,0,0
567,624,0,0,0,0,0,0,0,0,0,-1,1791,400,0,0
574,624,0,0,0,0,0,0,0,0,0,-1,1798,400,0,0
581,624,0,0,0,0,0,0,0,0,0,-1,1805,400,0,0
588,624,0,0,0,0,0,0,0,0,0,-1,1812,400,0,0
595,624,0,0,0,0,0,0,0,0,0,-1,1819,400,0,0
602,624,0,0,0,0,0,0,0,0,0,-1,1826,400,0,0
609,624,0,0,0,0,0,0,0,0,0,-1,1833,400,0,0
616,624,0,0,0,0,0,0,0,0,0,-1,1840,400,0,0
623,624,0,0,0,0,0,0,0,0,0,-1,1847,400,0,0
630,624,0,0,0,0,0,0,0,0,0,-1,1854,400,0,0
637,624,0,0,0,0,0,0,0,0,0,-1,1861,400,0,0
644,624,0,0,0,0,0,0,0,0,0,-1,1868,400,0,0
651,624,0,0,0,0,0,0,0,0,0,-1,1875,400,0,0
658,624,0,0,0,0,0,0,0,0,0,-1,1882,400,0,0
665,624,0,0,0,0,0,0,0,0,0,-1,1889,400,0,0
672,624,0,0,0,0,0,0,0,0,0,-1,1896,400,0,0
679,624,0,0,0,0,0,0,0,0,0,-1,1903,400,0,0
686,624,0,0,0,0,0,0,0,0,0,-1,1910,400,0,0
693,624,0,0,0,0,0,0,0,0,0,-1,1917,400,0,0
700,624,0,0,0,0,0,0,0,0,0,-1,1924,400,0,0
707,624,0,0,0,0,0,0,0,0,0,-1,1931,400,0,0
714,624,0,0,0,0,0,0,0,0,0,-1,1938,400,0,0
721,624,0,0,0,0,0,0,0,0,0,-1,1945,400,0,0
728,624,0,0,0,0,0,0,0,0,0,-1,1952,400,0,0
735,624,0,0,0,0,0,0,0,0,0,-1,1959,400,0,0
742,624,0,0,0,0,0,0,0,0,0,-1,1966,400,0,0
749,624,0,0,0,0,0,0,0,0,0,-1,1973,400,0,0
756,624,0,0,0,0,0,0,0,0,0,-1,1980,400,0,0
763,624,0,0,0,0,0,0,0,0,0,-1,1987,400,0,0
770,624,0,0,0,0,0,0,0,0,0,-1,1994,400,0,0
777,624,0,0,0,0,0,0,0,0,0,-1,2001,400,0,0
784,624,0,0,0,0,0,0,0,0,0,-1,2008,400,0,0
791,624,0,0,0,0,0,0,0,0,0,-1,2015,400,0,0
798,624,0,0,0,0,0,0,0,0,0,-1,2022,400,0,0
805,624,0,0,0,0,0,0,0,0,0,-1,2029,400,0,0
812,624,0,0,0,0,0,0,0,0,0,-1,2036,400,0,0
-700,617,0,0,0,0,0,0,0,0,0,-1,524,407,0,0
-693,617,0,0,0,0,0,0,0,0,0,-1,531,407,0,0
-686,617,0,0,0,0,0,0,0,0,0,-1,538,407,0,0
-679,617,0,0,0,0,0,0,0,0,0,-1,545,407,0,0
-672,617,0,0,0,0,0,0,0,0,0,-1,552,407,0,0
-665,617,0,0,0,0,0,0,0,0,0,-1,559,407,0,0
-658,617,0,0,0,0,0,0,0,0,0,-1,566,407,0,0
-651,617,0,0,0,0,0,0,0,0,0,-1,573,407,0,0
-644,617,0,0,0,0,0,0,0,0,0,-1,580,407,0,0
-637,617,0,0,0,0,0,0,0,0,0,-1,587,407,0,0
-630,617,0,0,0,0,0,0,0,0,0,-1,594,407,0,0
-623,617,0,0,0,0,0,0,0,0,0,-1,601,407,0,0
-616,617,0,0,0,0,0,0,0,0,0,-1,608,407,0,0
-609,617,0,0,0,0,0,0,0,0,0,-1,615,407,0,0
-602,617,0,0,0,0,0,0,0,0,0,-1,622,407,0,0
-595,617,0,0,0,0,0,0,0,0,0,-1,629,407,0,0
-588,617,0,0,0,0,0,0,0,0,0,-1,636,407,0,0
-581,617,0,0,0,0,0,0,0,0,0,-1,643,407,0,0
-574,617,0,0,0,0,0,0,0,0,0,-1,650,407,0,0
-567,617,0,0,0,0,0,0,0,0,0,-1,657,407,0,0
-560,617,0,0,0,0,0,0,0,0,0,-1,664,407,0,0
-553,617,0,0,0,0,0,0,0,0,0,-1,671,407,0,0
-546,617,0,0,0,0,0,0,0,0,0,-1,678,407,0,0
-539,617,0,0,0,0,0,0,0,0,0,-1,685,407,0,0
-532,617,0,0,0,0,0,0,0,0,0,-1,692,407,0,0
-525,617,0,0,0,0,0,0,0,0,0,-1,699,407,0,0
-518,617,0,0,0,0,0,0,0,0,0,-1,706,407,0,0
-511,617,0,0,0,0,0,0,0,0,0,-1,713,407,0,0
-504,617,0,0,0,0,0,0,0,0,0,-1,720,407,0,0
-497,617,0,0,0,0,0,0,0,0,0,-1,727,407,0,0
-490,617,0,0,0,0,0,0,0,0,0,-1,734,407,0,0
-483,617,0,0,0,0,0,0,0,0,0,-1,741,407,0,0
-476,617,0,0,0,0,0,0,0,0,0,-1,748,407,0,0
-469,617,0,0,0,0,0,0,0,0,0,-1,755,407,0,0
-462,617,0,0,0,0,0,0,0,0,0,-1,762,407,0,0
-455,617,0,0,0,0,0,0,0,0,0,-1,769,407,0,0
-448,617,0,0,0,0,0,0,0,0,0,-1,776,407,0,0
-441,617,0,0,0,0,0,0,0,0,0,-1,783,407,0,0
-434,617,0,0,0,0,0,0,0,0,0,-1,790,407,0,0
-427,617,0,0,0,0,0,0,0,0,0,-1,797,407,0,0
-420,617,0,0,0,0,0,0,0,0,0,-1,804,407,0,0
-413,617,0,0,0,0,0,0,0,0,0,-1,811,407,0,0
-406,617,0,0,0,0,0,0,0,0,0,-1,818,407,0,0
-399,617,0,0,0,0,0,0,0,0,0,-1,825,407,0,0
-392,617,0,0,0,0,0,0,0,0,0,-1,832,407,0,0
-385,617,0,0,0,0,0,0,0,0,0,-1,839,407,0,0
-378,617,0,0,0,0,0,0,0,0,0,-1,846,407,0,0
-371,617,0,0,0,0,0,0,0,0,0,-1,853,407,0,0
-364,617,0,0,0,0,0,0,0,0,0,-1,860,407,0,0
-357,617,0,0,0,0,0,0,0,0,0,-1,867,407,0,0
-350,617,0,0,0,0,0,0,0,0,0,-1,874,407,0,0
-343,617,0,0,0,0,0,0,0,0,0,-1,881,407,0,0
-336,617,0,0,0,0,0,0,0,0,0,-1,888,407,0,0
-329,617,0,0,0,0,0,0,0,0,0,-1,895,407,0,0
-322,617,0,0,0,0,0,0,0,0,0,-1,902,407,0,0
-315,617,0,0,0,0,0,0,0,0,0,-1,909,407,0,0
-308,617,0,0,0,0,0,0,0,0,0,-1,916,407,0,0
-301,617,6.81897,-24.525,0,0,0,0,0,0,0,-1,923,407,6.81899,24.525
-294,617,6.19263,-26.917,0,0,0,0,0,0,0,-1,930,407,6.19261,26.917
-287,617,7.00409,-31.9773,0,0,0,0,0,0,0,-1,937,407,7.00406,31.9773
-280,617,9.1106,-36.5021,0,0,0,0,0,0,0,-1,944,407,9.11059,36.5021
-273,617,8.35004,-36.2751,0,0,0,0,0,0,0,-1,951,407,8.35003,36.2751
-266,617,7.61749,-36.1671,0,0,0,0,0,0,0,-1,958,407,7.61746,36.1671
-259,617,6.83643,-36.3605,0,0,0,0,0,0,0,-1,965,407,6.83643,36.3605
-252,617,6.02264,-36.5001,0,0,0,0,0,0,0,-1,972,407,6.02265,36.5001
-245,617,6.72626,-34.4465,0,0,0,0,0,0,0,-1,979,407,6.72627,34.4465
-238,617,5.6474,-34.6842,0,0,0,0,0,0,0,-1,986,407,5.64741,34.6842
-231,617,7.57281,-45.9473,0,0,0,0,0,0,0,-1,993,407,7.57284,45.9473
-224,617,7.56323,-46.9835,0,0,0,0,0,0,0,-1,1000,407,7.56325,46.9835
-217,617,7.59583,-47.9524,0,0,0,0,0,0,0,-1,1007,407,7.59581,47.9524
-210,617,7.56683,-48.937,-0.000797192,0.0218046,-0.0109385,0.0262314,-0.00522402,-1.18624,0.0194641,0.0346403,1014,407,7.56681,48.937
-203,617,7.50635,-49.7561,-0.00108669,0.0186826,-0.00976666,0.0226937,-0.00509787,-1.1811,0.0170839,0.025845,1021,407,7.50638,49.7561
-196,617,7.47534,-50.424,-0.00130115,0.0160061,-0.00877581,0.0196772,-0.0049723,-1.17459,0.0150519,0.0184767,1028,407,7.47531,50.424
-189,617,7.3811,-51.2121,-0.00136056,0.0143323,-0.00825498,0.017875,-0.00490321,-1.16541,0.0138436,0.0171306,1035,407,7.38111,51.2121
-182,617,7.29968,-51.9633,-0.00135578,0.0128524,-0.00774615,0.0162588,-0.00476222,-1.15649,0.0127271,0.0190786,1042,407,7.29972,51.9633
-175,617,7.26038,-52.6745,-0.00145008,0.0110929,-0.00697777,0.0142033,-0.00456053,-1.15147,0.0113001,0.0164223,1049,407,7.26043,52.6745
-168,617,7.18384,-53.3908,-0.00147454,0.00971831,-0.00635755,0.0125917,-0.00434797,-1.1463,0.0101589,0.0126686,1056,407,7.18389,53.3908
-161,617,7.11108,-54.1118,-0.00140001,0.00858982,-0.00574742,0.0112095,-0.00401969,-1.14313,0.00911334,0.0122275,1063,407,7.11103,54.1118
-154,617,7.0542,-54.7662,-0.00133163,0.00750739,-0.00509336,0.00983136,-0.00365559,-1.14274,0.00805421,0.0125421,1070,407,7.05417,54.7662
-147,617,7.01709,-55.3996,-0.00122844,0.00646012,-0.0044549,0.00850011,-0.00326843,-1.14138,0.0070148,0.0170318,1077,407,7.01713,55.3996
-140,617,6.98425,-56.0495,-0.00103621,0.00534427,-0.00384549,0.00715057,-0.00284251,-1.13166,0.00594553,0.0133306,1084,407,6.9843,56.0495
-133,617,6.94543,-56.6591,-0.0008477,0.00435581,-0.00323822,0.00590799,-0.00239989,-1.12382,0.00493704,0.0155093,1091,407,6.94538,56.659
-126,617,6.91797,-57.2422,-0.000638231,0.00344864,-0.00264102,0.00474446,-0.00193405,-1.11466,0.00396801,0.0145173,1098,407,6.91795,57.2421
-119,617,6.84058,-57.858,-0.000324128,0.00254411,-0.00206066,0.00362057,-0.00140059,-1.0894,0.00299192,0.0147409,1105,407,6.8406,57.858
-112,617,6.83545,-58.4297,6.05603e-05,0.00186901,-0.00160196,0.00280432,-0.000874752,-1.04233,0.00221936,0.0172311,1112,407,6.83547,58.4298
-105,617,6.8385,-58.9532,0.000476213,0.0014038,-0.00127057,0.00229258,-0.000412563,-0.960398,0.00168285,0.0188889,1119,407,6.8385,58.9532
-98,617,6.82898,-59.5101,0.000973833,0.00101479,-0.000991202,0.00198573,2.89979e-06,-0.795728,0.00132285,0.0147303,1126,407,6.82899,59.5101
-91,617,6.83887,-60.035,0.00158828,0.000771305,-0.000784452,0.00206423,0.000295357,-0.545352,0.00128903,0.0195743,1133,407,6.83891,60.035
-84,617,6.83911,-60.5549,0.00229481,0.000459626,-0.000592802,0.00246964,0.000284795,-0.286793,0.00156018,0.0192001,1140,407,6.83914,60.5549
-77,617,6.80859,-61.0256,0.00299678,0.000405132,-0.000516106,0.00309578,0.000306135,-0.189513,0.00196975,0.0159809,1147,407,6.80857,61.0256
-70,617,6.86047,-61.511,0.00368478,-0.000154906,-0.000193928,0.00369455,-0.000164676,-0.0503356,0.00251972,0.0183789,1154,407,6.86052,61.511
-63,617,6.9281,-62.0007,0.00440386,-0.00107661,0.000182507,0.00440993,-0.00108269,0.0332522,0.00335951,0.0220355,1161,407,6.92806,62.0007
-56,617,6.8645,-62.4016,0.0045584,-0.0025667,-2.63555e-05,0.0045585,-0.0025668,-0.0036989,0.00416702,0.0166108,1168,407,6.86454,62.4016
-49,617,6.85913,-62.8177,0.0047747,-0.00374304,0.000130367,0.0047767,-0.00374504,0.0153006,0.00493203,0.0122647,1175,407,6.85914,62.8177
-42,617,6.90967,-63.1842,0.00475518,-0.0051184,-3.96512e-05,0.00475534,-0.00511856,-0.0040158,0.00570199,0.0121914,1182,407,6.90968,63.1842
-35,617,6.98303,-63.5313,0.00464446,-0.00637774,-0.00040712,0.00465947,-0.00639276,-0.0368694,0.00640711,0.0176756,1189,407,6.98308,63.5313
-28,617,6.96912,-63.8805,0.00363513,-0.00835613,-0.000922205,0.00370564,-0.00842664,-0.0763085,0.00717917,0.0203825,1196,407,6.9691,63.8805
-21,617,7.01392,-64.1695,0.00209999,-0.0104221,-0.00162757,0.00230808,-0.0106302,-0.127161,0.00796837,0.0145905,1203,407,7.01396,64.1695
-14,617,7.0719,-64.4617,0.00030435,-0.0114959,-0.00249743,0.000811144,-0.0120027,-0.200208,0.00828543,0.0163832,1210,407,7.07194,64.4617
-7,617,7.07031,-64.6745,-0.00205949,-0.0126841,-0.00344973,-0.00103767,-0.0137059,-0.287972,0.00881177,0.0198052,1217,407,7.07034,64.6745
0,617,7.14392,-64.9015,-0.00466918,-0.0138359,-0.00422922,-0.00301607,-0.015489,-0.372616,0.00948192,0.0172009,1224,407,7.14396,64.9015
7,617,7.24902,-65.2316,-0.00709776,-0.0147296,-0.0049572,-0.00465787,-0.0171695,-0.457381,0.0102526,0.0129354,1231,407,7.24898,65.2316
14,617,7.32495,-65.4529,-0.00926674,-0.0156501,-0.00568818,-0.00593597,-0.0189808,-0.529734,0.0112119,0.015926,1238,407,7.32497,65.4528
21,617,7.3844,-65.5913,-0.0112014,-0.0165764,-0.00655849,-0.00680111,-0.0209767,-0.590943,0.0123578,0.0156172,1245,407,7.38445,65.5913
28,617,7.44238,-65.7626,-0.0129827,-0.0175623,-0.00750326,-0.00742762,-0.0231174,-0.637299,0.013628,0.0136659,1252,407,7.4424,65.7626
35,617,7.44604,-65.8831,-0.0145467,-0.0180587,-0.00866765,-0.00745899,-0.0251465,-0.685454,0.0149133,0.0162132,1259,407,7.4461,65.8831
42,617,7.60645,-65.9232,-0.0156,-0.0180322,-0.00977234,-0.00696839,-0.0266638,-0.723494,0.0159682,0.0226832,1266,407,7.60642,65.9231
49,617,7.72131,-65.9825,-0.0159553,-0.0179764,-0.0109882,-0.00593127,-0.0280004,-0.739542,0.0170375,0.0218471,1273,407,7.72128,65.9825
56,617,7.74414,-66.0377,-0.016078,-0.0178889,-0.0122461,-0.00470395,-0.0292629,-0.748497,0.018145,0.0156526,1280,407,7.74419,66.0377
63,617,7.81787,-66.0839,-0.0153923,-0.0170003,-0.0130504,-0.00312117,-0.0292714,-0.754633,0.0185616,0.0117248,1287,407,7.81784,66.0839
70,617,7.89209,-66.1246,-0.0142313,-0.0157378,-0.0135825,-0.0013812,-0.0285879,-0.757699,0.0186153,0.0179583,1294,407,7.89207,66.1246
77,617,8.02319,-66.0646,-0.0128212,-0.0140994,-0.0140415,0.000595746,-0.0275164,-0.762657,0.0185461,0.0174737,1301,407,8.02325,66.0646
84,617,8.08301,-65.9763,-0.0110878,-0.0121991,-0.0142869,0.00265425,-0.0259411,-0.765962,0.0182433,0.0129516,1308,407,8.08304,65.9763
91,617,8.15503,-65.8708,-0.00929026,-0.00962183,-0.0142265,0.00477146,-0.0236835,-0.779572,0.0175965,0.0118587,1315,407,8.15497,65.8708
98,617,8.22693,-65.7552,-0.00737764,-0.00583571,-0.0142533,0.00766747,-0.0208808,-0.812417,0.0170607,0.0131674,1322,407,8.22696,65.7552
105,617,8.30469,-65.6218,-0.00545893,-0.0017258,-0.0144555,0.0109832,-0.0181679,-0.849605,0.0169999,0.0138355,1329,407,8.30471,65.6218
112,617,8.39966,-65.4746,-0.00368872,0.00181599,-0.0140769,0.013407,-0.0152798,-0.881942,0.0165741,0.0169493,1336,407,8.3996,65.4746
119,617,8.45715,-65.28,-0.00244645,0.00549498,-0.0136759,0.0157649,-0.0127164,-0.926686,0.0164751,0.0201367,1343,407,8.45716,65.28
126,617,8.52527,-65.0309,-0.00142977,0.00897102,-0.0133706,0.018117,-0.0105757,-0.970867,0.0167554,0.0208109,1350,407,8.52524,65.0309
133,617,8.59631,-64.7458,-0.000584937,0.0118815,-0.0130948,0.0201509,-0.00885438,-1.00753,0.0171643,0.0182049,1357,407,8.59634,64.7458
140,617,8.64185,-64.4423,7.56514e-05,0.0136913,-0.0127568,0.0213431,-0.00757624,-1.0305,0.0173158,0.0164644,1364,407,8.64184,64.4423
147,617,8.6178,-64.1196,0.000336893,0.0144241,-0.0125633,0.0217835,-0.00702255,-1.04089,0.0173438,0.0205836,1371,407,8.61777,64.1196
154,617,8.68127,-63.8639,0.000333085,0.0147508,-0.0121114,0.0216364,-0.00655249,-1.05384,0.0170338,0.0238706,1378,407,8.68128,63.8639
161,617,8.79834,-63.5685,0.000383787,0.0138607,-0.0115208,0.020469,-0.00622452,-1.05002,0.0161264,0.0249379,1385,407,8.79829,63.5685
168,617,8.86609,-63.1969,0.000542941,0.0125445,-0.0107898,0.0188899,-0.00580247,-1.03918,0.0149087,0.0218124,1392,407,8.86609,63.1969
175,617,8.88452,-62.7904,0.000754498,0.0108902,-0.00968044,0.0167491,-0.00510441,-1.02654,0.0132007,0.0174351,1399,407,8.88449,62.7904
182,617,8.91333,-62.3592,0.00095911,0.00894613,-0.00799781,0.013892,-0.0039868,-1.01695,0.0108375,0.0118684,1406,407,8.91339,62.3592
189,617,8.89343,-61.9088,0.00128233,0.00734157,-0.00607645,0.0111018,-0.00247788,-1.01666,0.0083506,0.0117971,1413,407,8.89337,61.9088
196,617,8.86243,-61.4419,0.00174294,0.00516242,-0.00414997,0.00794105,-0.00103569,-0.980797,0.00567088,0.0162401,1420,407,8.86248,61.4419
203,617,8.87329,-60.9975,0.00209807,0.00268034,-0.00198646,0.00439688,0.000381523,-0.858161,0.00281272,0.0159259,1427,407,8.87329,60.9975
210,617,8.91248,-60.4647,0.00222565,0.00155624,7.77024e-05,0.00223455,0.00154734,0.114055,0.00132159,0.0151104,1434,407,8.91248,60.4647
217,617,8.92236,-59.9291,0.00157949,0.00228849,0.000502158,0.00254867,0.00131931,1.09275,0.00147178,0.0195568,1441,407,8.92232,59.9291
224,617,8.94238,-59.4405,0.00126621,0.00293772,0.000897127,0.00332807,0.000875864,1.1604,0.00199201,0.019047,1448,407,8.94234,59.4405
231,617,8.94043,-58.8975,0.00100903,0.00358647,0.00141125,0.00420888,0.000386624,1.15542,0.00268634,0.0145412,1455,407,8.94047,58.8975
238,617,8.90771,-58.3211,0.000883101,0.00428767,0.00198102,0.00519733,-2.65501e-05,1.14033,0.00347377,0.0158178,1462,407,8.90773,58.3211
245,617,8.91418,-57.7439,0.000730427,0.00495281,0.00242612,0.00605771,-0.000374467,1.14345,0.0041689,0.013635,1469,407,8.91416,57.7439
252,617,8.86023,-57.0969,0.000660546,0.0057741,0.00298413,0.00714697,-0.000712324,1.13961,0.00501896,0.0147544,1476,407,8.86019,57.0969
259,617,8.78394,-56.4755,0.00071538,0.0069681,0.00376383,0.00873465,-0.00105117,1.13197,0.00620325,0.0126012,1483,407,8.78396,56.4755
266,617,8.76123,-55.83,0.000718702,0.00795077,0.00452009,0.0101233,-0.00145378,1.12277,0.00728196,0.0150274,1490,407,8.76117,55.83
273,617,8.74158,-55.1617,0.000778371,0.00917083,0.00536649,0.0117869,-0.00183771,1.11721,0.0085367,0.0152919,1497,407,8.74163,55.1616
280,617,8.68933,-54.5121,0.000915621,0.0105214,0.00626493,0.0136126,-0.00217561,1.11243,0.00988045,0.0134675,1504,407,8.68933,54.5121
287,617,8.62805,-53.8346,0.0010853,0.0121698,0.00725122,0.0157543,-0.00249914,1.1117,0.0114274,0.0120802,1511,407,8.628,53.8346
294,617,8.57666,-53.1382,0.0011125,0.0137186,0.00814375,0.0177136,-0.00288247,1.11473,0.0128779,0.00968779,1518,407,8.57665,53.1382
301,617,8.52747,-52.4384,0.0011251,0.0152158,0.00897836,0.019583,-0.00324217,1.11807,0.0142595,0.00786002,1525,407,8.52742,52.4385
308,617,8.46106,-51.7229,0.00127517,0.016988,0.00983456,0.0217189,-0.00345579,1.12242,0.015758,0.00851231,1532,407,8.46106,51.7229
315,617,8.39221,-51.0081,0.00152158,0.0188552,0.0107762,0.0240173,-0.00364059,1.12406,0.0173528,0.0107326,1539,407,8.39223,51.0081
322,617,8.33179,-50.2188,0.00170441,0.0205883,0.0116091,0.0261104,-0.00381765,1.1268,0.0188091,0.0175381,1546,407,8.33173,50.2188
329,617,8.29504,-49.4234,0.00201258,0.0221522,0.0124215,0.0280729,-0.00390807,1.12601,0.0201447,0.0234572,1553,407,8.29498,49.4234
336,617,8.2843,-48.4323,0.00238776,0.0241442,0.0133293,0.0304708,-0.00393883,1.12764,0.021746,0.0459751,1560,407,8.28425,48.4323
343,617,8.24365,-47.6627,0,0,0,0,0,0,0,-1,1567,407,8.24371,47.6627
350,617,7.95874,-47.058,0,0,0,0,0,0,0,-1,1574,407,7.95875,47.058
357,617,8.16272,-45.8322,0,0,0,0,0,0,0,-1,1581,407,8.16273,45.8322
364,617,8.36218,-45.0348,0,0,0,0,0,0,0,-1,1588,407,8.36213,45.0348
371,617,2.60266,-6.20667,0,0,0,0,0,0,0,-1,1595,407,2.60261,6.20668
378,617,1.56921,-10.3601,0,0,0,0,0,0,0,-1,1602,407,1.56918,10.3601
385,617,1.74146,-10.3561,0,0,0,0,0,0,0,-1,1609,407,1.7414,10.3561
392,617,1.96936,-5.10449,0,0,0,0,0,0,0,-1,1616,407,1.96931,5.10451
399,617,2.48889,-5.81256,0,0,0,0,0,0,0,-1,1623,407,2.48888,5.81255
406,617,3.01465,-6.51642,0,0,0,0,0,0,0,-1,1630,407,3.01461,6.51643
413,617,3.6427,-7.2074,0,0,0,0,0,0,0,-1,1637,407,3.64274,7.20739
420,617,3.42737,-4.47391,0,0,0,0,0,0,0,-1,1644,407,3.42737,4.47391
427,617,0,0,0,0,0,0,0,0,0,-1,1651,407,0,0
434,617,0,0,0,0,0,0,0,0,0,-1,1658,407,0,0
441,617,0,0,0,0,0,0,0,0,0,-1,1665,407,0,0
448,617,0,0,0,0,0,0,0,0,0,-1,1672,407,0,0
455,617,0,0,0,0,0,0,0,0,0,-1,1679,407,0,0
462,617,0,0,0,0,0,0,0,0,0,-1,1686,407,0,0
469,617,0,0,0,0,0,0,0,0,0,-1,1693,407,0,0
476,617,0,0,0,0,0,0,0,0,0,-1,1700,407,0,0
483,617,0,0,0,0,0,0,0,0,0,-1,1707,407,0,0
490,617,0,0,0,0,0,0,0,0,0,-1,1714,407,0,0
497,617,0,0,0,0,0,0,0,0,0,-1,1721,407,0,0
504,617,0,0,0,0,0,0,0,0,0,-1,1728,407,0,0
511,617,0,0,0,0,0,0,0,0,0,-1,1735,407,0,0
518,617,0,0,0,0,0,0,0,0,0,-1,1742,407,0,0
525,617,0,0,0,0,0,0,0,0,0,-1,1749,407,0,0
532,617,0,0,0,0,0,0,0,0,0,-1,1756,407,0,0
539,617,0,0,0,0,0,0,0,0,0,-1,1763,407,0,0
546,617,0,0,0,0,0,0,0,0,0,-1,1770,407,0,0
553,617,0,0,0,0,0,0,0,0,0,-1,1777,407,0,0
560,617,0,0,0,0,0,0,0,0,0,-1,1784,407,0,0
567,617,0,0,0,0,0,0,0,0,0,-1,1791,407,0,0
574,617,0,0,0,0,0,0,0,0,0,-1,1798,407,0,0
581,617,0,0,0,0,0,0,0,0,0,-1,1805,407,0,0
588,617,0,0,0,0,0,0,0,0,0,-1,1812,407,0,0
595,617,0,0,0,0,0,0,0,0,0,-1,1819,407,0,0
602,617,0,0,0,0,0,0,0,0,0,-1,1826,407,0,0
609,617,0,0,0,0,0,0,0,0,0,-1,1833,407,0,0
616,617,0,0,0,0,0,0,0,0,0,-1,1840,407,0,0
623,617,0,0,0,0,0,0,0,0,0,-1,1847,407,0,0
630,617,0,0,0,0,0,0,0,0,0,-1,1854,407,0,0
637,617,0,0,0,0,0,0,0,0,0,-1,1861,407,0,0
644,617,0,0,0,0,0,0,0,0,0,-1,1868,407,0,0
651,617,0,0,0,0,0,0,0,0,0,-1,1875,407,0,0
658,617,0,0,0,0,0,0,0,0,0,-1,1882,407,0,0
665,617,0,0,0,0,0,0,0,0,0,-1,1889,407,0,0
672,617,0,0,0,0,0,0,0,0,0,-1,1896,407,0,0
679,617,0,0,0,0,0,0,0,0,0,-1,1903,407,0,0
686,617,0,0,0,0,0,0,0,0,0,-1,1910,407,0,0
693,617,0,0,0,0,0,0,0,0,0,-1,1917,407,0,0
700,617,0,0,0,0,0,0,0,0,0,-1,1924,407,0,0
707,617,0,0,0,0,0,0,0,0,0,-1,1931,407,0,0
714,617,0,0,0,0,0,0,0,0,0,-1,1938,407,0,0
721,617,0,0,0,0,0,0,0,0,0,-1,1945,407,0,0
728,617,0,0,0,0,0,0,0,0,0,-1,1952,407,0,0
735,617,0,0,0,0,0,0,0,0,0,-1,1959,407,0,0
742,617,0,0,0,0,0,0,0,0,0,-1,1966,407,0,0
749,617,0,0,0,0,0,0,0,0,0,-1,1973,407,0,0
756,617,0,0,0,0,0,0,0,0,0,-1,1980,407,0,0
763,617,0,0,0,0,0,0,0,0,0,-1,1987,407,0,0
770,617,0,0,0,0,0,0,0,0,0,-1,1994,407,0,0
777,617,0,0,0,0,0,0,0,0,0,-1,2001,407,0,0
784,617,0,0,0,0,0,0,0,0,0,-1,2008,407,0,0
791,617,0,0,0,0,0,0,0,0,0,-1,2015,407,0,0
798,617,0,0,0,0,0,0,0,0,0,-1,2022,407,0,0
805,617,0,0,0,0,0,0,0,0,0,-1,2029,407,0,0
812,617,0,0,0,0,0,0,0,0,0,-1,2036,407,0,0
-700,610,0,0,0,0,0,0,0,0,0,-1,524,414,0,0
-693,610,0,0,0,0,0,0,0,0,0,-1,531,414,0,0
-686,610,0,0,0,0,0,0,0,0,0,-1,538,414,0,0
-679,610,0,0,0,0,0,0,0,0,0,-1,545,414,0,0
-672,610,0,0,0,0,0,0,0,0,0,-1,552,414,0,0
-665,610,0,0,0,0,0,0,0,0,0,-1,559,414,0,0
-658,610,0,0,0,0,0,0,0,0,0,-1,566,414,0,0
-651,610,0,0,0,0,0,0,0,0,0,-1,573,414,0,0
-644,610,0,0,0,0,0,0,0,0,0,-1,580,414,0,0
-637,610,0,0,0,0,0,0,0,0,0,-1,587,414,0,0
-630,610,0,0,0,0,0,0,0,0,0,-1,594,414,0,0
-623,610,0,0,0,0,0,0,0,0,0,-1,601,414,0,0
-616,610,0,0,0,0,0,0,0,0,0,-1,608,414,0,0
-609,610,0,0,0,0,0,0,0,0,0,-1,615,414,0,0
-602,610,0,0,0,0,0,0,0,0,0,-1,622,414,0,0
-595,610,0,0,0,0,0,0,0,0,0,-1,629,414,0,0
-588,610,0,0,0,0,0,0,0,0,0,-1,636,414,0,0
-581,610,0,0,0,0,0,0,0,0,0,-1,643,414,0,0
-574,610,0,0,0,0,0,0,0,0,0,-1,650,414,0,0
-567,610,0,0,0,0,0,0,0,0,0,-1,657,414,0,0
-560,610,0,0,0,0,0,0,0,0,0,-1,664,414,0,0
-553,610,0,0,0,0,0,0,0,0,0,-1,671,414,0,0
-546,610,0,0,0,0,0,0,0,0,0,-1,678,414,0,0
-539,610,0,0,0,0,0,0,0,0,0,-1,685,414,0,0
-532,610,0,0,0,0,0,0,0,0,0,-1,692,414,0,0
-525,610,0,0,0,0,0,0,0,0,0,-1,699,414,0,0
-518,610,0,0,0,0,0,0,0,0,0,-1,706,414,0,0
-511,610,0,0,0,0,0,0,0,0,0,-1,713,414,0,0
-504,610,0,0,0,0,0,0,0,0,0,-1,720,414,0,0
-497,610,0,0,0,0,0,0,0,0,0,-1,727,414,0,0
-490,610,0,0,0,0,0,0,0,0,0,-1,734,414,0,0
-483,610,0,0,0,0,0,0,0,0,0,-1,741,414,0,0
-476,610,0,0,0,0,0,0,0,0,0,-1,748,414,0,0
-469,610,0,0,0,0,0,0,0,0,0,-1,755,414,0,0
-462,610,0,0,0,0,0,0,0,0,0,-1,762,414,0,0
-455,610,0,0,0,0,0,0,0,0,0,-1,769,414,0,0
-448,610,0,0,0,0,0,0,0,0,0,-1,776,414,0,0
-441,610,0,0,0,0,0,0,0,0,0,-1,783,414,0,0
-434,610,0,0,0,0,0,0,0,0,0,-1,790,414,0,0
-427,610,0,0,0,0,0,0,0,0,0,-1,797,414,0,0
-420,610,0,0,0,0,0,0,0,0,0,-1,804,414,0,0
-413,610,0,0,0,0,0,0,0,0,0,-1,811,414,0,0
-406,610,0,0,0,0,0,0,0,0,0,-1,818,414,0,0
-399,610,0,0,0,0,0,0,0,0,0,-1,825,414,0,0
-392,610,0,0,0,0,0,0,0,0,0,-1,832,414,0,0
-385,610,0,0,0,0,0,0,0,0,0,-1,839,414,0,0
-378,610,0,0,0,0,0,0,0,0,0,-1,846,414,0,0
-371,610,0,0,0,0,0,0,0,0,0,-1,853,414,0,0
-364,610,0,0,0,0,0,0,0,0,0,-1,860,414,0,0
-357,610,0,0,0,0,0,0,0,0,0,-1,867,414,0,0
-350,610,0,0,0,0,0,0,0,0,0,-1,874,414,0,0
-343,610,0,0,0,0,0,0,0,0,0,-1,881,414,0,0
-336,610,0,0,0,0,0,0,0,0,0,-1,888,414,0,0
-329,610,0,0,0,0,0,0,0,0,0,-1,895,414,0,0
-322,610,0,0,0,0,0,0,0,0,0,-1,902,414,0,0
-315,610,7.68475,-21.5402,0,0,0,0,0,0,0,-1,909,414,7.68475,21.5402
-308,610,3.97211,-23.4133,0,0,0,0,0,0,0,-1,916,414,3.9721,23.4133
-301,610,7.38513,-22.4166,0,0,0,0,0,0,0,-1,923,414,7.38516,22.4166
-294,610,6.77832,-24.1945,0,0,0,0,0,0,0,-1,930,414,6.77829,24.1946
-287,610,3.39276,-28.5804,0,0,0,0,0,0,0,-1,937,414,3.39276,28.5803
-280,610,8.8728,-35.4336,0,0,0,0,0,0,0,-1,944,414,8.87283,35.4336
-273,610,8.14722,-35.5264,0,0,0,0,0,0,0,-1,951,414,8.14723,35.5264
-266,610,7.38361,-35.6366,0,0,0,0,0,0,0,-1,958,414,7.38359,35.6366
-259,610,6.47375,-35.762,0,0,0,0,0,0,0,-1,965,414,6.47373,35.762
-252,610,5.65308,-35.8931,0,0,0,0,0,0,0,-1,972,414,5.65305,35.8931
-245,610,7.2688,-44.8695,0,0,0,0,0,0,0,-1,979,414,7.26883,44.8695
-238,610,7.07562,-45.7231,0,0,0,0,0,0,0,-1,986,414,7.0756,45.7231
-231,610,6.93829,-46.288,-0.000524085,0.0243301,-0.0112701,0.0286794,-0.00487339,-1.20249,0.020934,0.0479909,993,414,6.93827,46.288
-224,610,6.9436,-47.2354,-0.000521537,0.0220627,-0.0103519,0.0260897,-0.00454848,-1.1998,0.0190907,0.03202,1000,414,6.94361,47.2353
-217,610,6.92224,-48.1576,-0.000553447,0.0195097,-0.00941835,0.0232381,-0.00428188,-1.19386,0.017099,0.0214779,1007,414,6.92225,48.1576
-210,610,6.86957,-49.037,-0.000646981,0.0170618,-0.00846648,0.0204582,-0.00404336,-1.18929,0.0151673,0.0155547,1014,414,6.86958,49.037
-203,610,6.8363,-49.8234,-0.000755539,0.0145886,-0.00751782,0.017658,-0.0038249,-1.18317,0.0132325,0.0178275,1021,414,6.83634,49.8234
-196,610,6.75098,-50.5364,-0.000820842,0.0123583,-0.00669098,0.0151598,-0.0036223,-1.17428,0.0115056,0.0157294,1028,414,6.75096,50.5364
-189,610,6.69507,-51.2659,-0.000782394,0.0107296,-0.00618196,0.0134203,-0.00347319,-1.16026,0.0103017,0.0128192,1035,414,6.69507,51.2659
-182,610,6.6604,-51.9757,-0.000691503,0.00923048,-0.0056682,0.0118021,-0.00326311,-1.14488,0.00915177,0.0134789,1042,414,6.6604,51.9757
-175,610,6.60767,-52.6721,-0.000675562,0.00753282,-0.00496273,0.00986858,-0.00301133,-1.13089,0.00777959,0.0145449,1049,414,6.6077,52.6721
-168,610,6.52112,-53.3784,-0.000627957,0.00617096,-0.00436207,0.00830178,-0.00275878,-1.1164,0.00664774,0.0129866,1056,414,6.52115,53.3784
-161,610,6.47144,-54.1131,-0.000512832,0.00500902,-0.00375879,0.00691192,-0.00241573,-1.10216,0.00558998,0.0120246,1063,414,6.47147,54.1131
-154,610,6.44971,-54.7687,-0.000383013,0.00391991,-0.00310829,0.00554869,-0.0020118,-1.08812,0.00452146,0.0164356,1070,414,6.44969,54.7687
-147,610,6.42505,-55.3844,-0.000193734,0.00290064,-0.0024758,0.00427294,-0.00156603,-1.06467,0.00348979,0.0175198,1077,414,6.42507,55.3844
-140,610,6.39233,-56.0284,6.46217e-05,0.00183982,-0.00185979,0.00301296,-0.00110852,-1.00804,0.00246276,0.0137389,1084,414,6.39232,56.0284
-133,610,6.37268,-56.6263,0.000317279,0.000940792,-0.00126911,0.00193588,-0.000677808,-0.905838,0.0015662,0.0154333,1091,414,6.37267,56.6263
-126,610,6.34875,-57.2009,0.000633869,0.000180915,-0.000747432,0.00118838,-0.000373599,-0.638292,0.000941821,0.0128835,1098,414,6.34881,57.2009
-119,610,6.32227,-57.8225,0.00110604,-0.000479147,-0.000284229,0.00115546,-0.000528569,-0.172161,0.000994476,0.0111489,1105,414,6.32228,57.8225
-112,610,6.2915,-58.3734,0.00163484,-0.00089726,4.93043e-05,0.0016358,-0.00089822,0.0194619,0.00148353,0.020317,1112,414,6.29148,58.3734
-105,610,6.26001,-58.9147,0.00217142,-0.00109812,0.000260484,0.00219205,-0.00111874,0.0790056,0.00194468,0.0208777,1119,414,6.25997,58.9147
-98,610,6.2937,-59.4682,0.00280804,-0.00127038,0.000420893,0.00285102,-0.00131336,0.101771,0.00245834,0.0154638,1126,414,6.29374,59.4682
-91,610,6.31384,-60.0143,0.00361456,-0.00123329,0.000460594,0.00365793,-0.00127666,0.0938906,0.0029575,0.0164918,1133,414,6.31382,60.0143
-84,610,6.32922,-60.5215,0.00458029,-0.00115025,0.000404814,0.00460874,-0.0011787,0.0701772,0.00353158,0.0155161,1140,414,6.32918,60.5215
-77,610,6.32532,-61.0464,0.00554426,-0.000832634,0.000203703,0.00555076,-0.000839135,0.0319006,0.0040096,0.0132241,1147,414,6.32537,61.0464
-70,610,6.37549,-61.544,0.00640968,-0.00157928,0.000566899,0.00644971,-0.0016193,0.0704896,0.00492905,0.0163865,1154,414,6.37547,61.544
-63,610,6.42419,-61.9822,0.00730042,-0.00286535,0.00101194,0.00740017,-0.0029651,0.0982596,0.00616429,0.0170438,1161,414,6.42425,61.9822
-56,610,6.45349,-62.3846,0.00709131,-0.00527484,0.000148368,0.00709309,-0.00527662,0.0119956,0.00716728,0.0158265,1168,414,6.4535,62.3845
-49,610,6.46838,-62.7724,0.00713991,-0.00690463,0.000109551,0.00714076,-0.00690548,0.00779962,0.00810998,0.0148268,1175,414,6.46835,62.7724
-42,610,6.52979,-63.134,0.00600973,-0.009327,-0.000997305,0.00607431,-0.00939158,-0.0646643,0.00899744,0.0165654,1182,414,6.52983,63.134
-35,610,6.59412,-63.4996,0.00470751,-0.0115139,-0.00235306,0.00504195,-0.0118483,-0.141183,0.0100121,0.0172272,1189,414,6.59406,63.4996
-28,610,6.6405,-63.8432,0.00255559,-0.0143288,-0.00344696,0.00323218,-0.0150053,-0.193821,0.011237,0.0148153,1196,414,6.64047,63.8432
-21,610,6.71619,-64.1304,-0.000231441,-0.0172622,-0.00466928,0.000964714,-0.0184584,-0.250782,0.0126394,0.0118248,1203,414,6.71623,64.1304
-14,610,6.77917,-64.398,-0.00308676,-0.0185416,-0.00598966,-0.00103722,-0.0205912,-0.329692,0.0133951,0.0134083,1210,414,6.77914,64.398
-7,610,6.85413,-64.6299,-0.00659192,-0.0201616,-0.00732036,-0.00339569,-0.0233578,-0.411673,0.0145725,0.0161711,1217,414,6.85414,64.63
0,610,6.91992,-64.9061,-0.0100866,-0.0217034,-0.0082922,-0.00577083,-0.0260191,-0.479879,0.0157782,0.0132961,1224,414,6.91989,64.9061
7,610,7.00574,-65.209,-0.0131697,-0.0229715,-0.00909823,-0.00773635,-0.0284049,-0.538348,0.0169566,0.0165457,1231,414,7.00578,65.209
14,610,7.23291,-65.3514,-0.0158395,-0.0242969,-0.00983575,-0.00936198,-0.0307745,-0.582378,0.0182161,0.0247262,1238,414,7.23292,65.3514
21,610,7.31848,-65.4431,-0.0180979,-0.0255363,-0.0107185,-0.0104717,-0.0331626,-0.618403,0.0195749,0.023901,1245,414,7.31844,65.4431
28,610,7.28369,-65.6325,-0.0201195,-0.026857,-0.0116868,-0.0113256,-0.0356509,-0.645076,0.0210343,0.0207937,1252,414,7.28375,65.6325
35,610,7.45081,-65.7778,-0.0218693,-0.0271824,-0.0128352,-0.0114186,-0.0376331,-0.683353,0.0222802,0.0229313,1259,414,7.45083,65.7778
42,610,7.49243,-65.8196,-0.0229527,-0.0269463,-0.0139313,-0.0108759,-0.0390231,-0.714218,0.023254,0.0219297,1266,414,7.49242,65.8196
49,610,7.53345,-65.9394,-0.0231832,-0.026684,-0.0152114,-0.00962179,-0.0402454,-0.728114,0.0242674,0.0229693,1273,414,7.53343,65.9394
56,610,7.64478,-65.9563,-0.023162,-0.0262982,-0.0166301,-0.00802623,-0.0414339,-0.738391,0.0253739,0.021724,1280,414,7.64471,65.9563
63,610,7.76147,-66.019,-0.0220863,-0.0245664,-0.0173572,-0.00592494,-0.0407277,-0.749738,0.0254082,0.0285809,1287,414,7.76142,66.019
70,610,7.93103,-66.056,-0.0204206,-0.0222381,-0.0177728,-0.00353331,-0.0391254,-0.759855,0.0249892,0.0425579,1294,414,7.93102,66.056
77,610,8.24622,-65.8565,0,0,0,0,0,0,0,-1,1301,414,8.24623,65.8565
84,610,8.22144,-65.8338,-0.0162073,-0.0162917,-0.0182743,0.00202485,-0.0345239,-0.784244,0.0237197,0.0475774,1308,414,8.22149,65.8338
91,610,8.25952,-65.9075,-0.0138024,-0.0123146,-0.0181135,0.00507023,-0.0311872,-0.805922,0.0226714,0.0331101,1315,414,8.25952,65.9075
98,610,8.4856,-65.7957,-0.0113228,-0.00658732,-0.0181793,0.00937777,-0.0272879,-0.850156,0.0219947,0.0286536,1322,414,8.48565,65.7957
105,610,8.58191,-65.5929,-0.00894587,-0.000637123,-0.0185611,0.0142289,-0.0238119,-0.895494,0.0221939,0.0224057,1329,414,8.58193,65.5928
112,610,8.60864,-65.4045,-0.00670373,0.0045957,-0.0182998,0.018098,-0.0202061,-0.935122,0.0221261,0.0145592,1336,414,8.6086,65.4045
119,610,8.70679,-65.2133,-0.00512972,0.00999998,-0.0181157,0.0220669,-0.0171966,-0.983185,0.0227268,0.0206727,1343,414,8.70684,65.2133
126,610,8.86133,-64.9861,-0.00396327,0.0148684,-0.0180829,0.02584,-0.014935,-1.02543,0.0238205,0.0283325,1350,414,8.86134,64.9862
133,610,8.90845,-64.7517,-0.00302771,0.0190604,-0.0181912,0.0292976,-0.0132649,-1.05821,0.0251479,0.021908,1357,414,8.90849,64.7517
140,610,8.97339,-64.4724,-0.00228735,0.0215921,-0.0183691,0.0315608,-0.0122561,-1.07358,0.0261033,0.0195089,1364,414,8.97338,64.4724
147,610,8.97107,-64.1258,-0.00205429,0.0230082,-0.0187057,0.0329922,-0.0120382,-1.08052,0.0269202,0.0213423,1371,414,8.97108,64.1258
154,610,8.99255,-63.8059,-0.0021802,0.0237856,-0.0185857,0.0334739,-0.0118685,-1.09027,0.027151,0.0252579,1378,414,8.99258,63.806
161,610,9.15515,-63.4841,-0.00208049,0.022739,-0.0182005,0.0323579,-0.0116994,-1.08461,0.0263521,0.0292939,1385,414,9.15516,63.4841
168,610,9.23877,-63.1377,-0.00176868,0.0211044,-0.0177419,0.0307763,-0.0114406,-1.07169,0.0252117,0.0281529,1392,414,9.23874,63.1377
175,610,9.27515,-62.7545,-0.00128213,0.018851,-0.0166841,0.0282701,-0.0107013,-1.05684,0.0232498,0.0213447,1399,414,9.27512,62.7545
182,610,9.32874,-62.3344,-0.000639007,0.0157767,-0.0146219,0.0243369,-0.00919923,-1.04115,0.0200088,0.0159004,1406,414,9.32878,62.3344
189,610,9.33521,-61.8682,0.000206185,0.0129274,-0.0119005,0.0200604,-0.00692684,-1.03082,0.0161845,0.0148266,1413,414,9.33515,61.8682
196,610,9.35596,-61.421,0.00130484,0.00867545,-0.00902684,0.0147403,-0.00475999,-0.979202,0.0117397,0.0149363,1420,414,9.35591,61.421
203,610,9.36084,-60.964,0.00276483,0.0027875,-0.00530946,0.00808564,-0.00253331,-0.786466,0.00640412,0.0158371,1427,414,9.36079,60.964
210,610,9.36963,-60.4846,0.00417118,-0.00113163,-0.00123206,0.00444346,-0.00140391,-0.217498,0.00352474,0.0118023,1434,414,9.36957,60.4846
217,610,9.44666,-59.953,0.00331737,-0.000182255,-0.000681525,0.0034454,-0.000310293,-0.185704,0.00240704,0.0174476,1441,414,9.4467,59.953
224,610,9.50476,-59.4345,0.00292813,0.000619792,-0.000201524,0.00294559,0.000602331,-0.0864314,0.00179692,0.0207178,1448,414,9.50475,59.4345
231,610,9.49658,-58.8877,0.0025741,0.0015281,0.000441786,0.00273572,0.00136648,0.350711,0.00157947,0.015828,1455,414,9.49658,58.8877
238,610,9.44604,-58.2853,0.00230788,0.00214736,0.000900507,0.0031317,0.00132354,0.740954,0.00181529,0.0120113,1462,414,9.44602,58.2853
245,610,9.46912,-57.6812,0.00205321,0.00265968,0.00124166,0.00363459,0.0010783,0.905162,0.00215549,0.0132084,1469,414,9.46916,57.6812
252,610,9.44385,-57.0799,0.00179301,0.00326878,0.00168157,0.00436723,0.00069455,0.992152,0.00270981,0.0148187,1476,414,9.44382,57.0799
259,610,9.40955,-56.4492,0.00160245,0.00406609,0.00225247,0.00540157,0.000266974,1.03562,0.00351544,0.013421,1483,414,9.40951,56.4491
266,610,9.37708,-55.7986,0.00143024,0.00480367,0.0028288,0.00641046,-0.000176544,1.05423,0.00433369,0.0131741,1490,414,9.3771,55.7986
273,610,9.35986,-55.1459,0.00131299,0.00575868,0.00347945,0.00766471,-0.00059304,1.06965,0.00531852,0.0107054,1497,414,9.3599,55.1459
280,610,9.32166,-54.4692,0.00126477,0.00684024,0.00419337,0.00908797,-0.000982954,1.07875,0.00641146,0.0104748,1504,414,9.32169,54.4692
287,610,9.26123,-53.7759,0.00127587,0.00816294,0.00497607,0.0107708,-0.00133198,1.08807,0.0076632,0.0128435,1511,414,9.2612,53.7759
294,610,9.22925,-53.0959,0.00117134,0.00943981,0.00569271,0.0123411,-0.00172997,1.09946,0.00886054,0.0108983,1518,414,9.22926,53.0959
301,610,9.21521,-52.428,0.00105514,0.0107168,0.00637972,0.0138883,-0.00211639,1.10945,0.010039,0.0104298,1525,414,9.21523,52.428
308,610,9.15906,-51.713,0.00107152,0.0122487,0.00710347,0.0156985,-0.00237823,1.1187,0.0113418,0.0123269,1532,414,9.15903,51.713
315,610,9.08838,-51.0068,0.001168,0.0138425,0.00789424,0.0176285,-0.00261797,1.12361,0.0127152,0.0137754,1539,414,9.08841,51.0068
322,610,9.02844,-50.2415,0.00119689,0.0153579,0.00860121,0.0194181,-0.00286327,1.12976,0.0139978,0.0135007,1546,414,9.02839,50.2415
329,610,8.97119,-49.4663,0.00135078,0.0166992,0.00931182,0.0210916,-0.00304164,1.13004,0.0151769,0.0125187,1553,414,8.97117,49.4664
336,610,8.92493,-48.7194,0.00164482,0.0184165,0.0101521,0.0231983,-0.00313701,1.1306,0.0166103,0.0146105,1560,414,8.92495,48.7194
343,610,8.83875,-47.9518,0.002029,0.0199257,0.0109264,0.0251003,-0.00314566,1.1285,0.0178746,0.0223621,1567,414,8.83878,47.9518
350,610,8.7312,-47.0869,0.00264349,0.021887,0.0120292,0.0276691,-0.00313865,1.12273,0.0195764,0.031806,1574,414,8.73123,47.0869
357,610,8.77747,-46.051,0.0031779,0.0237888,0.0133143,0.03032,-0.0033533,1.11475,0.0214188,0.0377021,1581,414,8.77749,46.051
364,610,8.89893,-45.2043,0.00367811,0.0254553,0.0144296,0.0326437,-0.00351024,1.10862,0.0230219,0.0453982,1588,414,8.89887,45.2043
371,610,8.71851,-44.4849,0,0,0,0,0,0,0,-1,1595,414,8.71857,44.4849
378,610,8.80225,-43.7955,0,0,0,0,0,0,0,-1,1602,414,8.80219,43.7955
385,610,2.57104,-10.3878,0,0,0,0,0,0,0,-1,1609,414,2.57109,10.3878
392,610,1.99744,-1.83582,0,0,0,0,0,0,0,-1,1616,414,1.99741,1.8358
399,610,2.77136,-2.60333,0,0,0,0,0,0,0,-1,1623,414,2.77133,2.60332
406,610,3.54529,-3.37085,0,0,0,0,0,0,0,-1,1630,414,3.54525,3.37084
413,610,3.01929,-3.20306,0,0,0,0,0,0,0,-1,1637,414,3.01929,3.20306
420,610,4.78149,-3.64041,0,0,0,0,0,0,0,-1,1644,414,4.78152,3.64042
427,610,8.85168,-23.3853,0,0,0,0,0,0,0,-1,1651,414,8.85174,23.3853
434,610,8.73706,-22.6227,0,0,0,0,0,0,0,-1,1658,414,8.73703,22.6227
441,610,0,0,0,0,0,0,0,0,0,-1,1665,414,0,0
448,610,0,0,0,0,0,0,0,0,0,-1,1672,414,0,0
455,610,0,0,0,0,0,0,0,0,0,-1,1679,414,0,0
462,610,0,0,0,0,0,0,0,0,0,-1,1686,414,0,0
469,610,0,0,0,0,0,0,0,0,0,-1,1693,414,0,0
476,610,0,0,0,0,0,0,0,0,0,-1,1700,414,0,0
483,610,0,0,0,0,0,0,0,0,0,-1,1707,414,0,0
490,610,0,0,0,0,0,0,0,0,0,-1,1714,414,0,0
497,610,0,0,0,0,0,0,0,0,0,-1,1721,414,0,0
504,610,0,0,0,0,0,0,0,0,0,-1,1728,414,0,0
511,610,0,0,0,0,0,0,0,0,0,-1,1735,414,0,0
518,610,0,0,0,0,0,0,0,0,0,-1,1742,414,0,0
525,610,0,0,0,0,0,0,0,0,0,-1,1749,414,0,0
532,610,0,0,0,0,0,0,0,0,0,-1,1756,414,0,0
539,610,0,0,0,0,0,0,0,0,0,-1,1763,414,0,0
546,610,0,0,0,0,0,0,0,0,0,-1,1770,414,0,0
553,610,0,0,0,0,0,0,0,0,0,-1,1777,414,0,0
560,610,0,0,0,0,0,0,0,0,0,-1,1784,414,0,0
567,610,0,0,0,0,0,0,0,0,0,-1,1791,414,0,0
574,610,0,0,0,0,0,0,0,0,0,-1,1798,414,0,0
581,610,0,0,0,0,0,0,0,0,0,-1,1805,414,0,0
588,610,0,0,0,0,0,0,0,0,0,-1,1812,414,0,0
595,610,0,0,0,0,0,0,0,0,0,-1,1819,414,0,0
602,610,0,0,0,0,0,0,0,0,0,-1,1826,414,0,0
609,610,0,0,0,0,0,0,0,0,0,-1,1833,414,0,0
616,610,0,0,0,0,0,0,0,0,0,-1,1840,414,0,0
623,610,0,0,0,0,0,0,0,0,0,-1,1847,414,0,0
630,610,0,0,0,0,0,0,0,0,0,-1,1854,414,0,0
637,610,0,0,0,0,0,0,0,0,0,-1,1861,414,0,0
644,610,0,0,0,0,0,0,0,0,0,-1,1868,414,0,0
651,610,0,0,0,0,0,0,0,0,0,-1,1875,414,0,0
658,610,0,0,0,0,0,0,0,0,0,-1,1882,414,0,0
665,610,0,0,0,0,0,0,0,0,0,-1,1889,414,0,0
672,610,0,0,0,0,0,0,0,0,0,-1,1896,414,0,0
679,610,0,0,0,0,0,0,0,0,0,-1,1903,414,0,0
686,610,0,0,0,0,0,0,0,0,0,-1,1910,414,0,0
693,610,0,0,0,0,0,0,0,0,0,-1,1917,414,0,0
700,610,0,0,0,0,0,0,0,0,0,-1,1924,414,0,0
707,610,0,0,0,0,0,0,0,0,0,-1,1931,414,0,0
714,610,0,0,0,0,0,0,0,0,0,-1,1938,414,0,0
721,610,0,0,0,0,0,0,0,0,0,-1,1945,414,0,0
728,610,0,0,0,0,0,0,0,0,0,-1,1952,414,0,0
735,610,0,0,0,0,0,0,0,0,0,-1,1959,414,0,0
742,610,0,0,0,0,0,0,0,0,0,-1,1966,414,0,0
749,610,0,0,0,0,0,0,0,0,0,-1,1973,414,0,0
756,610,0,0,0,0,0,0,0,0,0,-1,1980,414,0,0
763,610,0,0,0,0,0,0,0,0,0,-1,1987,414,0,0
770,610,0,0,0,0,0,0,0,0,0,-1,1994,414,0,0
777,610,0,0,0,0,0,0,0,0,0,-1,2001,414,0,0
784,610,0,0,0,0,0,0,0,0,0,-1,2008,414,0,0
791,610,0,0,0,0,0,0,0,0,0,-1,2015,414,0,0
798,610,0,0,0,0,0,0,0,0,0,-1,2022,414,0,0
805,610,0,0,0,0,0,0,0,0,0,-1,2029,414,0,0
812,610,0,0,0,0,0,0,0,0,0,-1,2036,414,0,0
-700,603,0,0,0,0,0,0,0,0,0,-1,524,421,0,0
-693,603,0,0,0,0,0,0,0,0,0,-1,531,421,0,0
-686,603,0,0,0,0,0,0,0,0,0,-1,538,421,0,0
-679,603,0,0,0,0,0,0,0,0,0,-1,545,421,0,0
-672,603,0,0,0,0,0,0,0,0,0,-1,552,421,0,0
-665,603,0,0,0,0,0,0,0,0,0,-1,559,421,0,0
-658,603,0,0,0,0,0,0,0,0,0,-1,566,421,0,0
-651,603,0,0,0,0,0,0,0,0,0,-1,573,421,0,0
-644,603,0,0,0,0,0,0,0,0,0,-1,580,421,0,0
-637,603,0,0,0,0,0,0,0,0,0,-1,587,421,0,0
-630,603,0,0,0,0,0,0,0,0,0,-1,594,421,0,0
-623,603,0,0,0,0,0,0,0,0,0,-1,601,421,0,0
-616,603,0,0,0,0,0,0,0,0,0,-1,608,421,0,0
-609,603,0,0,0,0,0,0,0,0,0,-1,615,421,0,0
-602,603,0,0,0,0,0,0,0,0,0,-1,622,421,0,0
-595,603,0,0,0,0,0,0,0,0,0,-1,629,421,0,0
-588,603,0,0,0,0,0,0,0,0,0,-1,636,421,0,0
-581,603,0,0,0,0,0,0,0,0,0,-1,643,421,0,0
-574,603,0,0,0,0,0,0,0,0,0,-1,650,421,0,0
-567,603,0,0,0,0,0,0,0,0,0,-1,657,421,0,0
-560,603,0,0,0,0,0,0,0,0,0,-1,664,421,0,0
-553,603,0,0,0,0,0,0,0,0,0,-1,671,421,0,0
-546,603,0,0,0,0,0,0,0,0,0,-1,678,421,0,0
-539,603,0,0,0,0,0,0,0,0,0,-1,685,421,0,0
-532,603,0,0,0,0,0,0,0,0,0,-1,692,421,0,0
-525,603,0,0,0,0,0,0,0,0,0,-1,699,421,0,0
-518,603,0,0,0,0,0,0,0,0,0,-1,706,421,0,0
-511,603,0,0,0,0,0,0,0,0,0,-1,713,421,0,0
-504,603,0,0,0,0,0,0,0,0,0,-1,720,421,0,0
-497,603,0,0,0,0,0,0,0,0,0,-1,727,421,0,0
-490,603,0,0,0,0,0,0,0,0,0,-1,734,421,0,0
-483,603,0,0,0,0,0,0,0,0,0,-1,741,421,0,0
-476,603,0,0,0,0,0,0,0,0,0,-1,748,421,0,0
-469,603,0,0,0,0,0,0,0,0,0,-1,755,421,0,0
-462,603,0,0,0,0,0,0,0,0,0,-1,762,421,0,0
-455,603,0,0,0,0,0,0,0,0,0,-1,769,421,0,0
-448,603,0,0,0,0,0,0,0,0,0,-1,776,421,0,0
-441,603,0,0,0,0,0,0,0,0,0,-1,783,421,0,0
-434,603,0,0,0,0,0,0,0,0,0,-1,790,421,0,0
-427,603,0,0,0,0,0,0,0,0,0,-1,797,421,0,0
-420,603,0,0,0,0,0,0,0,0,0,-1,804,421,0,0
-413,603,0,0,0,0,0,0,0,0,0,-1,811,421,0,0
-406,603,0,0,0,0,0,0,0,0,0,-1,818,421,0,0
-399,603,0,0,0,0,0,0,0,0,0,-1,825,421,0,0
-392,603,0,0,0,0,0,0,0,0,0,-1,832,421,0,0
-385,603,0,0,0,0,0,0,0,0,0,-1,839,421,0,0
-378,603,0,0,0,0,0,0,0,0,0,-1,846,421,0,0
-371,603,0,0,0,0,0,0,0,0,0,-1,853,421,0,0
-364,603,0,0,0,0,0,0,0,0,0,-1,860,421,0,0
-357,603,0,0,0,0,0,0,0,0,0,-1,867,421,0,0
-350,603,0,0,0,0,0,0,0,0,0,-1,874,421,0,0
-343,603,0,0,0,0,0,0,0,0,0,-1,881,421,0,0
-336,603,0,0,0,0,0,0,0,0,0,-1,888,421,0,0
-329,603,4.09686,-17.9702,0,0,0,0,0,0,0,-1,895,421,4.09687,17.9702
-322,603,8.83179,-28.7376,0,0,0,0,0,0,0,-1,902,421,8.83179,28.7376
-315,603,5.99744,-20.4501,0,0,0,0,0,0,0,-1,909,421,5.99745,20.4501
-308,603,5.92249,-20.778,0,0,0,0,0,0,0,-1,916,421,5.92248,20.778
-301,603,2.72424,-20.9059,0,0,0,0,0,0,0,-1,923,421,2.72424,20.9059
-294,603,2.41553,-20.6767,0,0,0,0,0,0,0,-1,930,421,2.41554,20.6767
-287,603,1.91766,-21.2242,0,0,0,0,0,0,0,-1,937,421,1.91767,21.2242
-280,603,2.36121,-27.3314,0,0,0,0,0,0,0,-1,944,421,2.36119,27.3314
-273,603,7.96613,-34.8225,0,0,0,0,0,0,0,-1,951,421,7.96613,34.8225
-266,603,7.18787,-34.9736,0,0,0,0,0,0,0,-1,958,421,7.18788,34.9736
-259,603,5.44666,-36.8901,0,0,0,0,0,0,0,-1,965,421,5.44664,36.8901
-252,603,6.41571,-44.0741,0,0,0,0,0,0,0,-1,972,421,6.41568,44.0741
-245,603,6.46521,-44.9355,-0.000193933,0.0224526,-0.0111344,0.0270099,-0.0047512,-1.1823,0.0197814,0.0388825,979,421,6.46522,44.9355
-238,603,6.39594,-45.8134,-0.000455983,0.0207416,-0.00993072,0.0246671,-0.00438143,-1.19436,0.018083,0.0220967,986,421,6.39591,45.8134
-231,603,6.3125,-46.6623,-0.000557468,0.0187863,-0.00877369,0.0221729,-0.00394403,-1.20243,0.0162568,0.0142883,993,421,6.31248,46.6623
-224,603,6.25775,-47.4713,-0.000485306,0.016982,-0.00799306,0.0200875,-0.00359081,-1.20022,0.0147352,0.0158946,1000,421,6.25774,47.4713
-217,603,6.20428,-48.2358,-0.000411572,0.0148693,-0.00719689,0.0177251,-0.0032674,-1.19304,0.013043,0.0142767,1007,421,6.20429,48.2358
-210,603,6.16675,-49.015,-0.000362641,0.0127702,-0.00639683,0.0153709,-0.00296341,-1.18464,0.0113646,0.0115551,1014,421,6.16677,49.015
-203,603,6.13452,-49.8432,-0.00031981,0.0106622,-0.00560266,0.013016,-0.0026736,-1.17307,0.00969226,0.0171076,1021,421,6.13455,49.8432
-196,603,6.08887,-50.5991,-0.000260645,0.00868353,-0.00488802,0.0108366,-0.00241368,-1.15589,0.00814898,0.0201265,1028,421,6.08889,50.599
-189,603,6.04517,-51.2643,-0.00014181,0.00706694,-0.00437573,0.00913165,-0.00220652,-1.12992,0.00694118,0.0172175,1035,421,6.04519,51.2643
-182,603,5.98584,-51.9584,1.28486e-05,0.00548221,-0.0038206,0.00744598,-0.00195093,-1.09601,0.00572617,0.0120048,1042,421,5.98586,51.9584
-175,603,5.92432,-52.6504,0.000116574,0.00382075,-0.00314197,0.00561588,-0.00167855,-1.05172,0.00441121,0.0127369,1049,421,5.92434,52.6504
-168,603,5.85974,-53.3539,0.000219209,0.00246152,-0.00252456,0.00410268,-0.00142195,-0.994366,0.00331245,0.0151768,1056,421,5.85972,53.3539
-161,603,5.81348,-54.0767,0.000359423,0.00126438,-0.00188578,0.00275121,-0.0011274,-0.903144,0.0023038,0.0144758,1063,421,5.8135,54.0767
-154,603,5.80005,-54.7379,0.000531246,0.000166568,-0.00119418,0.00155693,-0.000859112,-0.709638,0.00141416,0.014296,1070,421,5.80007,54.7379
-147,603,5.78711,-55.3612,0.000781583,-0.000823128,-0.000518684,0.000934637,-0.000976182,-0.286938,0.0011033,0.0150258,1077,421,5.7871,55.3612
-140,603,5.80957,-55.9805,0.00106306,-0.00183678,0.000150272,0.00107083,-0.00184455,0.0516363,0.00170284,0.0138386,1084,421,5.80958,55.9805
-133,603,5.77454,-56.6032,0.00135131,-0.00263667,0.000791612,0.0015027,-0.00278805,0.188959,0.00251404,0.013793,1091,421,5.77456,56.6032
-126,603,5.76501,-57.1598,0.00178284,-0.00326698,0.0012947,0.00209543,-0.00357957,0.236907,0.00331361,0.0113369,1098,421,5.76506,57.1598
-119,603,5.76892,-57.7424,0.00239085,-0.00372552,0.0016702,0.00281721,-0.00415188,0.249937,0.00404813,0.0117201,1105,421,5.76893,57.7424
-112,603,5.73206,-58.334,0.00304472,-0.00391546,0.00189992,0.00352957,-0.00440031,0.249861,0.00458751,0.0174034,1112,421,5.73203,58.334
-105,603,5.72632,-58.9036,0.00368969,-0.00386306,0.00200844,0.00419056,-0.00436393,0.244398,0.00493928,0.0173526,1119,421,5.72629,58.9036
-98,603,5.75232,-59.4313,0.00445653,-0.00384686,0.00207165,0.00494469,-0.00433503,0.23142,0.0053615,0.0156861,1126,421,5.75234,59.4313
-91,603,5.76831,-59.9609,0.00546817,-0.00352486,0.00194262,0.00586986,-0.00392655,0.203905,0.00569294,0.0116438,1133,421,5.76834,59.9609
-84,603,5.81348,-60.4988,0.0067385,-0.00306184,0.00160698,0.00699528,-0.00331861,0.158446,0.00607954,0.01254,1140,421,5.81351,60.4988
-77,603,5.88318,-61.0334,0.00805621,-0.00206954,0.000979717,0.00815013,-0.00216346,0.0955738,0.00628004,0.0183273,1147,421,5.88318,61.0334
-70,603,5.94556,-61.5688,0,0,0,0,0,0,0,-1,1154,421,5.94562,61.5688
-63,603,5.8761,-61.8576,0,0,0,0,0,0,0,-1,1161,421,5.87613,61.8576
-56,603,5.99036,-62.3123,0,0,0,0,0,0,0,-1,1168,421,5.99034,62.3123
-49,603,6.07532,-62.7196,0,0,0,0,0,0,0,-1,1175,421,6.07535,62.7196
-42,603,6.15039,-63.0581,0,0,0,0,0,0,0,-1,1182,421,6.15044,63.0581
-35,603,6.12354,-63.3513,0.00186455,-0.0184603,-0.00658242,0.0038101,-0.0204058,-0.287386,0.0150357,0.0452268,1189,421,6.1235,63.3513
-28,603,6.22815,-63.6674,-0.00177316,-0.0220318,-0.00837794,0.0012426,-0.0250475,-0.345524,0.0171276,0.033427,1196,421,6.22812,63.6674
-21,603,6.29382,-63.9914,-0.00592101,-0.0256464,-0.0100793,-0.00168173,-0.0298856,-0.398131,0.0193875,0.0270523,1203,421,6.29378,63.9914
-14,603,6.42407,-64.2637,-0.0096375,-0.026757,-0.0116661,-0.00372768,-0.0326668,-0.468896,0.0206478,0.0235197,1210,421,6.42404,64.2637
-7,603,6.56274,-64.5229,-0.0138601,-0.02862,-0.0130668,-0.00623322,-0.036247,-0.528337,0.0223782,0.0288535,1217,421,6.56275,64.5229
0,603,6.54236,-64.834,-0.0177338,-0.0303487,-0.0139357,-0.00874464,-0.0393379,-0.572886,0.0238508,0.0371841,1224,421,6.54236,64.834
7,603,6.55774,-65.0813,0,0,0,0,0,0,0,-1,1231,421,6.55773,65.0813
14,603,6.99158,-64.9386,0,0,0,0,0,0,0,-1,1238,421,6.99158,64.9386
21,603,7.1377,-64.7952,-0.0264899,-0.0349274,-0.0156937,-0.0144578,-0.0469595,-0.654093,0.0277712,0.0453635,1245,421,7.13769,64.7952
28,603,7.21887,-65.0728,-0.0286419,-0.0364694,-0.0164953,-0.0156024,-0.0495089,-0.66892,0.0292279,0.0468599,1252,421,7.21883,65.0728
35,603,7.53833,-65.5474,0,0,0,0,0,0,0,-1,1259,421,7.53837,65.5474
42,603,7.44946,-65.3835,0,0,0,0,0,0,0,-1,1266,421,7.44951,65.3835
49,603,7.36023,-65.2944,0,0,0,0,0,0,0,-1,1273,421,7.36029,65.2944
56,603,7.30432,-65.4894,0,0,0,0,0,0,0,-1,1280,421,7.30427,65.4894
63,603,7.66211,-65.8875,0,0,0,0,0,0,0,-1,1287,421,7.66212,65.8875
70,603,3.09534,-65.8486,0,0,0,0,0,0,0,-1,1294,421,3.09539,65.8486
77,603,7.78809,-64.1618,0,0,0,0,0,0,0,-1,1301,421,7.78815,64.1618
84,603,8.3186,-65.764,0,0,0,0,0,0,0,-1,1308,421,8.31856,65.764
91,603,8.33313,-66.0191,0,0,0,0,0,0,0,-1,1315,421,8.33311,66.0191
98,603,8.77966,-66.0457,0,0,0,0,0,0,0,-1,1322,421,8.77972,66.0457
105,603,8.91357,-65.7185,0,0,0,0,0,0,0,-1,1329,421,8.91362,65.7186
112,603,8.97803,-65.127,-0.00991133,0.00935388,-0.0228658,0.0245332,-0.0250907,-0.98475,0.028651,0.0463538,1336,421,8.97803,65.1269
119,603,9.16785,-64.8999,-0.00799482,0.0169658,-0.0228744,0.0305431,-0.0215721,-1.03513,0.0302369,0.0486723,1343,421,9.16782,64.8999
126,603,9.34827,-64.5978,0,0,0,0,0,0,0,-1,1350,421,9.34827,64.5978
133,603,9.30188,-64.36,-0.00596034,0.0292746,-0.0236801,0.0411719,-0.0178576,-1.10522,0.0349556,0.0477472,1357,421,9.30193,64.3601
140,603,9.41028,-64.0313,-0.00538602,0.0328798,-0.0244768,0.0448143,-0.0173205,-1.11713,0.0370256,0.0409252,1364,421,9.41028,64.0313
147,603,9.38184,-64.0195,0,0,0,0,0,0,0,-1,1371,421,9.38178,64.0195
154,603,9.26514,-63.6875,-0.00580751,0.0366742,-0.0260142,0.0490177,-0.0181511,-1.12776,0.0401216,0.037597,1378,421,9.26517,63.6875
161,603,9.52661,-63.3835,-0.00579665,0.0357446,-0.0260854,0.0483187,-0.0183707,-1.12162,0.0397762,0.0366642,1385,421,9.52656,63.3835
168,603,9.6217,-63.0683,0,0,0,0,0,0,0,-1,1392,421,9.6217,63.0683
175,603,9.89783,-62.6368,-0.00500399,0.0314104,-0.0254628,0.0445058,-0.0180994,-1.09578,0.0372015,0.0412223,1399,421,9.89789,62.6368
182,603,9.96484,-62.243,-0.00373169,0.0271989,-0.0232559,0.0396623,-0.0161951,-1.07882,0.0331844,0.0476275,1406,421,9.96487,62.243
189,603,9.90332,-61.7558,-0.00196317,0.0224194,-0.0197112,0.0334048,-0.0129486,-1.06235,0.0276171,0.0402235,1413,421,9.90329,61.7558
196,603,9.84924,-61.2725,-0.000191879,0.0157117,-0.0157035,0.025362,-0.00984214,-1.01976,0.0209731,0.0288161,1420,421,9.84918,61.2725
203,603,9.88074,-60.8906,0.00253081,0.00559862,-0.0100821,0.0142628,-0.00613336,-0.86089,0.0120835,0.0170331,1427,421,9.88076,60.8906
210,603,9.91272,-60.5121,0.00607062,-0.00362983,-0.00255337,0.00670167,-0.00426088,-0.242289,0.00638131,0.0140955,1434,421,9.91271,60.512
217,603,9.93079,-59.9529,0.0050069,-0.00249976,-0.00187146,0.0054476,-0.00294045,-0.231269,0.00491442,0.0147911,1441,421,9.93078,59.9529
224,603,10.0299,-59.4001,0.00455599,-0.00151463,-0.001305,0.00482463,-0.00178328,-0.203024,0.00394748,0.0178124,1448,421,10.0299,59.4
231,603,10.0419,-58.8384,0.00414532,-0.000305222,-0.000495164,0.00419975,-0.000359648,-0.109476,0.00292709,0.0152831,1455,421,10.0419,58.8384
238,603,10.0237,-58.2471,0.00380306,0.000239405,-0.000114913,0.00380676,0.000235704,-0.0322012,0.00246304,0.0117611,1462,421,10.0237,58.2471
245,603,10.0321,-57.6634,0.00348005,0.00057275,0.000130595,0.00348591,0.000566896,0.0447994,0.00215991,0.0123234,1469,421,10.0321,57.6634
252,603,10.0548,-57.0526,0.00306008,0.000952178,0.000475827,0.00316251,0.000849745,0.212038,0.00188988,0.0112445,1476,421,10.0548,57.0526
259,603,10.036,-56.4389,0.00267017,0.00135598,0.000868904,0.00310246,0.000923685,0.461658,0.00183942,0.0116834,1483,421,10.036,56.4389
266,603,10.0057,-55.8025,0.0023578,0.00184272,0.00129154,0.00341722,0.000783297,0.686986,0.00206713,0.0125385,1490,421,10.0058,55.8024
273,603,10.0057,-55.1606,0.00208005,0.00251012,0.00176073,0.0040689,0.000521274,0.846161,0.00255662,0.0110181,1497,421,10.0057,55.1606
280,603,9.99182,-54.49,0.00186785,0.00332463,0.00231412,0.00502229,0.000170191,0.937869,0.00329293,0.0122576,1504,421,9.99181,54.49
287,603,9.94385,-53.762,0.00173882,0.00433378,0.00291957,0.00623119,-0.00015859,0.994494,0.00420799,0.0116207,1511,421,9.9439,53.762
294,603,9.89392,-53.0766,0.00152159,0.00538064,0.00349866,0.00744657,-0.000544342,1.0374,0.00515542,0.010145,1518,421,9.8939,53.0766
301,603,9.87708,-52.3871,0.00129834,0.00648002,0.00407984,0.00872214,-0.000943785,1.06829,0.00615353,0.0123393,1525,421,9.87703,52.387
308,603,9.84973,-51.6764,0.00120294,0.00782643,0.00471303,0.0102749,-0.00124555,1.09166,0.00730063,0.0175789,1532,421,9.84973,51.6764
315,603,9.77979,-50.9785,0.0011801,0.00922744,0.00540524,0.0119422,-0.00153467,1.10535,0.00851923,0.016435,1539,421,9.77977,50.9785
322,603,9.7356,-50.2347,0.00110855,0.0106259,0.00606108,0.0135732,-0.00183872,1.1182,0.00971985,0.0161315,1546,421,9.73556,50.2347
329,603,9.6864,-49.4679,0.00116824,0.0118768,0.00674916,0.0151376,-0.00209256,1.12073,0.0108567,0.0118649,1553,421,9.68635,49.4679
336,603,9.65186,-48.7305,0.00135417,0.0134042,0.00754434,0.0170341,-0.00227576,1.12235,0.0121857,0.0100341,1560,421,9.65188,48.7305
343,603,9.60278,-47.9669,0.00160805,0.0148629,0.00835063,0.0188964,-0.00242548,1.12082,0.013479,0.0117223,1567,421,9.60275,47.9669
350,603,9.54468,-47.1745,0.00197462,0.0166958,0.00937382,0.0212535,-0.00258313,1.11823,0.0151039,0.0133902,1574,421,9.54463,47.1745
357,603,9.46765,-46.3616,0.00228982,0.0184337,0.0105236,0.0236245,-0.00290105,1.11255,0.0168004,0.0150702,1581,421,9.46767,46.3616
364,603,9.44153,-45.4756,0.002604,0.0200333,0.0115818,0.0258129,-0.0031756,1.10793,0.0183589,0.0175462,1588,421,9.44152,45.4756
371,603,9.38806,-44.6331,0.00318056,0.0226042,0.0129831,0.0291059,-0.00332118,1.10652,0.0206004,0.0250007,1595,421,9.38808,44.6331
378,603,9.3877,-43.9098,0.00365717,0.025333,0.0144102,0.0325259,-0.00353581,1.10782,0.0229535,0.0436476,1602,421,9.38765,43.9098
385,603,9.35144,-42.9275,0,0,0,0,0,0,0,-1,1609,421,9.35144,42.9275
392,603,9.46619,-42.0563,0,0,0,0,0,0,0,-1,1616,421,9.46619,42.0563
399,603,8.59888,-39.9962,0,0,0,0,0,0,0,-1,1623,421,8.5989,39.9963
406,603,7.78699,-39.3859,0,0,0,0,0,0,0,-1,1630,421,7.78699,39.3859
413,603,2.38928,-2.41275,0,0,0,0,0,0,0,-1,1637,421,2.38926,2.41274
420,603,8.22217,-23.7068,0,0,0,0,0,0,0,-1,1644,421,8.22215,23.7068
427,603,8.20386,-23.1278,0,0,0,0,0,0,0,-1,1651,421,8.2039,23.1278
434,603,8.01489,-22.5655,0,0,0,0,0,0,0,-1,1658,421,8.01493,22.5655
441,603,8.00122,-22.3072,0,0,0,0,0,0,0,-1,1665,421,8.00116,22.3071
448,603,1.14355,-4.59842,0,0,0,0,0,0,0,-1,1672,421,1.14355,4.59841
455,603,0,0,0,0,0,0,0,0,0,-1,1679,421,0,0
462,603,0,0,0,0,0,0,0,0,0,-1,1686,421,0,0
469,603,0,0,0,0,0,0,0,0,0,-1,1693,421,0,0
476,603,0,0,0,0,0,0,0,0,0,-1,1700,421,0,0
483,603,0,0,0,0,0,0,0,0,0,-1,1707,421,0,0
490,603,0,0,0,0,0,0,0,0,0,-1,1714,421,0,0
497,603,0,0,0,0,0,0,0,0,0,-1,1721,421,0,0
504,603,0,0,0,0,0,0,0,0,0,-1,1728,421,0,0
511,603,0,0,0,0,0,0,0,0,0,-1,1735,421,0,0
518,603,0,0,0,0,0,0,0,0,0,-1,1742,421,0,0
525,603,0,0,0,0,0,0,0,0,0,-1,1749,421,0,0
532,603,0,0,0,0,0,0,0,0,0,-1,1756,421,0,0
539,603,0,0,0,0,0,0,0,0,0,-1,1763,421,0,0
546,603,0,0,0,0,0,0,0,0,0,-1,1770,421,0,0
553,603,0,0,0,0,0,0,0,0,0,-1,1777,421,0,0
560,603,0,0,0,0,0,0,0,0,0,-1,1784,421,0,0
567,603,0,0,0,0,0,0,0,0,0,-1,1791,421,0,0
574,603,0,0,0,0,0,0,0,0,0,-1,1798,421,0,0
581,603,0,0,0,0,0,0,0,0,0,-1,1805,421,0,0
588,603,0,0,0,0,0,0,0,0,0,-1,1812,421,0,0
595,603,0,0,0,0,0,0,0,0,0,-1,1819,421,0,0
602,603,0,0,0,0,0,0,0,0,0,-1,1826,421,0,0
609,603,0,0,0,0,0,0,0,0,0,-1,1833,421,0,0
616,603,0,0,0,0,0,0,0,0,0,-1,1840,421,0,0
623,603,0,0,0,0,0,0,0,0,0,-1,1847,421,0,0
630,603,0,0,0,0,0,0,0,0,0,-1,1854,421,0,0
637,603,0,0,0,0,0,0,0,0,0,-1,1861,421,0,0
644,603,0,0,0,0,0,0,0,0,0,-1,1868,421,0,0
651,603,0,0,0,0,0,0,0,0,0,-1,1875,421,0,0
658,603,0,0,0,0,0,0,0,0,0,-1,1882,421,0,0
665,603,0,0,0,0,0,0,0,0,0,-1,1889,421,0,0
672,603,0,0,0,0,0,0,0,0,0,-1,1896,421,0,0
679,603,0,0,0,0,0,0,0,0,0,-1,1903,421,0,0
686,603,0,0,0,0,0,0,0,0,0,-1,1910,421,0,0
693,603,0,0,0,0,0,0,0,0,0,-1,1917,421,0,0
700,603,0,0,0,0,0,0,0,0,0,-1,1924,421,0,0
707,603,0,0,0,0,0,0,0,0,0,-1,1931,421,0,0
714,603,0,0,0,0,0,0,0,0,0,-1,1938,421,0,0
721,603,0,0,0,0,0,0,0,0,0,-1,1945,421,0,0
728,603,0,0,0,0,0,0,0,0,0,-1,1952,421,0,0
735,603,0,0,0,0,0,0,0,0,0,-1,1959,421,0,0
742,603,0,0,0,0,0,0,0,0,0,-1,1966,421,0,0
749,603,0,0,0,0,0,0,0,0,0,-1,1973,421,0,0
756,603,0,0,0,0,0,0,0,0,0,-1,1980,421,0,0
763,603,0,0,0,0,0,0,0,0,0,-1,1987,421,0,0
770,603,0,0,0,0,0,0,0,0,0,-1,1994,421,0,0
777,603,0,0,0,0,0,0,0,0,0,-1,2001,421,0,0
784,603,0,0,0,0,0,0,0,0,0,-1,2008,421,0,0
791,603,0,0,0,0,0,0,0,0,0,-1,2015,421,0,0
798,603,0,0,0,0,0,0,0,0,0,-1,2022,421,0,0
805,603,0,0,0,0,0,0,0,0,0,-1,2029,421,0,0
812,603,0,0,0,0,0,0,0,0,0,-1,2036,421,0,0
-700,596,0,0,0,0,0,0,0,0,0,-1,524,428,0,0
-693,596,0,0,0,0,0,0,0,0,0,-1,531,428,0,0
-686,596,0,0,0,0,0,0,0,0,0,-1,538,428,0,0
-679,596,0,0,0,0,0,0,0,0,0,-1,545,428,0,0
-672,596,0,0,0,0,0,0,0,0,0,-1,552,428,0,0
-665,596,0,0,0,0,0,0,0,0,0,-1,559,428,0,0
-658,596,0,0,0,0,0,0,0,0,0,-1,566,428,0,0
-651,596,0,0,0,0,0,0,0,0,0,-1,573,428,0,0
-644,596,0,0,0,0,0,0,0,0,0,-1,580,428,0,0
-637,596,0,0,0,0,0,0,0,0,0,-1,587,428,0,0
-630,596,0,0,0,0,0,0,0,0,0,-1,594,428,0,0
-623,596,0,0,0,0,0,0,0,0,0,-1,601,428,0,0
-616,596,0,0,0,0,0,0,0,0,0,-1,608,428,0,0
-609,596,0,0,0,0,0,0,0,0,0,-1,615,428,0,0
-602,596,0,0,0,0,0,0,0,0,0,-1,622,428,0,0
-595,596,0,0,0,0,0,0,0,0,0,-1,629,428,0,0
-588,596,0,0,0,0,0,0,0,0,0,-1,636,428,0,0
-581,596,0,0,0,0,0,0,0,0,0,-1,643,428,0,0
-574,596,0,0,0,0,0,0,0,0,0,-1,650,428,0,0
-567,596,0,0,0,0,0,0,0,0,0,-1,657,428,0,0
-560,596,0,0,0,0,0,0,0,0,0,-1,664,428,0,0
-553,596,0,0,0,0,0,0,0,0,0,-1,671,428,0,0
-546,596,0,0,0,0,0,0,0,0,0,-1,678,428,0,0
-539,596,0,0,0,0,0,0,0,0,0,-1,685,428,0,0
-532,596,0,0,0,0,0,0,0,0,0,-1,692,428,0,0
-525,596,0,0,0,0,0,0,0,0,0,-1,699,428,0,0
-518,596,0,0,0,0,0,0,0,0,0,-1,706,428,0,0
-511,596,0,0,0,0,0,0,0,0,0,-1,713,428,0,0
-504,596,0,0,0,0,0,0,0,0,0,-1,720,428,0,0
-497,596,0,0,0,0,0,0,0,0,0,-1,727,428,0,0
-490,596,0,0,0,0,0,0,0,0,0,-1,734,428,0,0
-483,596,0,0,0,0,0,0,0,0,0,-1,741,428,0,0
-476,596,0,0,0,0,0,0,0,0,0,-1,748,428,0,0
-469,596,0,0,0,0,0,0,0,0,0,-1,755,428,0,0
-462,596,0,0,0,0,0,0,0,0,0,-1,762,428,0,0
-455,596,0,0,0,0,0,0,0,0,0,-1,769,428,0,0
-448,596,0,0,0,0,0,0,0,0,0,-1,776,428,0,0
-441,596,0,0,0,0,0,0,0,0,0,-1,783,428,0,0
-434,596,0,0,0,0,0,0,0,0,0,-1,790,428,0,0
-427,596,0,0,0,0,0,0,0,0,0,-1,797,428,0,0
-420,596,0,0,0,0,0,0,0,0,0,-1,804,428,0,0
-413,596,0,0,0,0,0,0,0,0,0,-1,811,428,0,0
-406,596,0,0,0,0,0,0,0,0,0,-1,818,428,0,0
-399,596,0,0,0,0,0,0,0,0,0,-1,825,428,0,0
-392,596,0,0,0,0,0,0,0,0,0,-1,832,428,0,0
-385,596,0,0,0,0,0,0,0,0,0,-1,839,428,0,0
-378,596,0,0,0,0,0,0,0,0,0,-1,846,428,0,0
-371,596,0,0,0,0,0,0,0,0,0,-1,853,428,0,0
-364,596,0,0,0,0,0,0,0,0,0,-1,860,428,0,0
-357,596,0,0,0,0,0,0,0,0,0,-1,867,428,0,0
-350,596,0,0,0,0,0,0,0,0,0,-1,874,428,0,0
-343,596,0,0,0,0,0,0,0,0,0,-1,881,428,0,0
-336,596,6.81445,-30.5258,0,0,0,0,0,0,0,-1,888,428,6.81446,30.5258
-329,596,6.84772,-28.9253,0,0,0,0,0,0,0,-1,895,428,6.84773,28.9253
-322,596,6.97449,-27.9047,0,0,0,0,0,0,0,-1,902,428,6.97451,27.9047
-315,596,7.10132,-26.8841,0,0,0,0,0,0,0,-1,909,428,7.10129,26.8841
-308,596,0.254761,-20.841,0,0,0,0,0,0,0,-1,916,428,0.254731,20.841
-301,596,3.43213,-26.756,0,0,0,0,0,0,0,-1,923,428,3.43214,26.756
-294,596,4.1767,-27.6454,0,0,0,0,0,0,0,-1,930,428,4.17667,27.6454
-287,596,4.36041,-27.6119,0,0,0,0,0,0,0,-1,937,428,4.3604,27.6119
-280,596,6.08228,-41.157,0,0,0,0,0,0,0,-1,944,428,6.08227,41.157
-273,596,5.92004,-41.7044,0,0,0,0,0,0,0,-1,951,428,5.92002,41.7044
-266,596,5.79395,-42.4551,0,0,0,0,0,0,0,-1,958,428,5.79393,42.4551
-259,596,5.76312,-43.3937,0,0,0,0,0,0,0,-1,965,428,5.76313,43.3937
-252,596,5.71466,-44.2124,-0.000226409,0.0183606,-0.00984134,0.022603,-0.00446883,-1.16379,0.0167581,0.0237353,972,428,5.71468,44.2124
-245,596,5.69989,-45.1088,-0.000283873,0.0168054,-0.00891931,0.0206125,-0.00409095,-1.16737,0.0152889,0.0142209,979,428,5.69988,45.1088
-238,596,5.65845,-45.9211,-0.000326138,0.0153525,-0.00790606,0.0186469,-0.00362059,-1.17598,0.0137974,0.0120803,986,428,5.65842,45.9211
-231,596,5.57123,-46.7359,-0.000292698,0.0137011,-0.0069033,0.0165334,-0.00312495,-1.18146,0.012198,0.0139041,993,428,5.57124,46.7359
-224,596,5.51306,-47.5452,-0.000160898,0.0121203,-0.00616791,0.0146831,-0.00272375,-1.17699,0.0108116,0.0146,1000,428,5.51305,47.5452
-217,596,5.45453,-48.298,-8.73597e-06,0.0102471,-0.00541467,0.0125766,-0.00233832,-1.1645,0.00926278,0.0145836,1007,428,5.45456,48.298
-210,596,5.45221,-49.0382,0.000136808,0.0083487,-0.0046702,0.0104612,-0.00197573,-1.14599,0.0077175,0.0129828,1014,428,5.45221,49.0382
-203,596,5.42566,-49.7907,0.000281213,0.00649071,-0.00394541,0.00840649,-0.00163457,-1.11876,0.00622118,0.016089,1021,428,5.42571,49.7907
-196,596,5.38086,-50.5155,0.000421416,0.00471401,-0.00327646,0.00648457,-0.00134914,-1.07536,0.00483591,0.0176594,1028,428,5.38089,50.5155
-189,596,5.33362,-51.2198,0.000585535,0.00317173,-0.00272325,0.00489329,-0.00113603,-1.00706,0.00369948,0.0152035,1035,428,5.33358,51.2198
-182,596,5.29395,-51.907,0.000769326,0.00153117,-0.00207877,0.00326363,-0.000963137,-0.876015,0.00255797,0.0121564,1042,428,5.29397,51.907
-175,596,5.23608,-52.6184,0.00093049,-5.59518e-05,-0.00138818,0.00191047,-0.00103593,-0.614704,0.0017259,0.0147344,1049,428,5.23608,52.6184
-168,596,5.19653,-53.334,0.00106568,-0.0013844,-0.000720666,0.00126194,-0.00158066,-0.265878,0.00164461,0.0176077,1056,428,5.19652,53.334
-161,596,5.17419,-54.0258,0.00121315,-0.00260159,-1.39841e-05,0.00121321,-0.00260164,-0.00366573,0.0022506,0.0155163,1063,428,5.1742,54.0258
-154,596,5.14502,-54.6939,0.00140549,-0.00371844,0.000746775,0.00151211,-0.00382506,0.141814,0.0031764,0.0123997,1070,428,5.14505,54.6939
-147,596,5.17432,-55.3094,0.00168886,-0.00470882,0.00149468,0.00202084,-0.0050408,0.218556,0.00419947,0.0132204,1077,428,5.17437,55.3094
-140,596,5.18994,-55.9215,0.00196334,-0.00571279,0.00227091,0.00258485,-0.0063343,0.26714,0.00529897,0.016672,1084,428,5.18992,55.9215
-133,596,5.16528,-56.5593,0.00225873,-0.00645432,0.0030212,0.00320381,-0.00739939,0.303171,0.00627948,0.0163766,1091,428,5.16526,56.5593
-126,596,5.16602,-57.1455,0.00277823,-0.00700656,0.00355935,0.003936,-0.00816433,0.314481,0.00712689,0.0117383,1098,428,5.16598,57.1455
-119,596,5.18457,-57.7488,0.00349939,-0.00731498,0.00388457,0.0047501,-0.00856569,0.311487,0.00779237,0.014359,1105,428,5.18462,57.7489
-112,596,5.15479,-58.3261,0.00425654,-0.00731251,0.00403532,0.005525,-0.00858096,0.304559,0.00820754,0.0158526,1112,428,5.15481,58.3261
-105,596,5.17542,-58.9185,0.00499525,-0.00702441,0.00406078,0.00623856,-0.00826771,0.297112,0.00840247,0.0238965,1119,428,5.17539,58.9185
-98,596,5.24609,-59.4724,0.00587879,-0.00686277,0.00405555,0.00706011,-0.00804409,0.283444,0.00872658,0.0343139,1126,428,5.24609,59.4725
-91,596,5.12244,-60.1317,0,0,0,0,0,0,0,-1,1133,428,5.12239,60.1316
-84,596,5.28821,-60.4855,0,0,0,0,0,0,0,-1,1140,428,5.28822,60.4855
-77,596,5.40845,-61.0469,0,0,0,0,0,0,0,-1,1147,428,5.40847,61.0469
-70,596,3.50696,-32.137,0,0,0,0,0,0,0,-1,1154,428,3.50696,32.137
-63,596,1.95569,-12.2758,0,0,0,0,0,0,0,-1,1161,428,1.95563,12.2759
-56,596,1.60107,-10.5827,0,0,0,0,0,0,0,-1,1168,428,1.60108,10.5827
-49,596,1.59473,-10.0393,0,0,0,0,0,0,0,-1,1175,428,1.59472,10.0393
-42,596,1.99585,-6.6246,0,0,0,0,0,0,0,-1,1182,428,1.99586,6.62459
-35,596,5.53516,-63.0098,0,0,0,0,0,0,0,-1,1189,428,5.53515,63.0098
-28,596,5.85632,-63.4256,0,0,0,0,0,0,0,-1,1196,428,5.8563,63.4256
-21,596,5.83655,-63.7795,0,0,0,0,0,0,0,-1,1203,428,5.83656,63.7795
-14,596,6.026,-64.0713,0,0,0,0,0,0,0,-1,1210,428,6.02594,64.0713
-7,596,6.21912,-64.3313,0,0,0,0,0,0,0,-1,1217,428,6.21911,64.3313
0,596,6.11816,-64.7005,0,0,0,0,0,0,0,-1,1224,428,6.11822,64.7005
7,596,12.4609,-70.1392,0,0,0,0,0,0,0,-1,1231,428,12.4609,70.1392
14,596,11.766,-68.8787,0,0,0,0,0,0,0,-1,1238,428,11.766,68.8787
21,596,6.97241,-63.809,0,0,0,0,0,0,0,-1,1245,428,6.97247,63.8089
28,596,7.12134,-64.329,0,0,0,0,0,0,0,-1,1252,428,7.1213,64.329
35,596,8.55164,-63.9382,0,0,0,0,0,0,0,-1,1259,428,8.55168,63.9382
42,596,7.8761,-64.4129,-0.041098,-0.0458172,-0.0238164,-0.0195246,-0.0673906,-0.736022,0.0400385,0.049174,1266,428,7.87614,64.4129
49,596,7.18542,-64.8672,-0.0410092,-0.0452036,-0.0251849,-0.0178343,-0.0683784,-0.743858,0.0409563,0.0465192,1273,428,7.18545,64.8671
56,596,6.48242,-65.2905,0,0,0,0,0,0,0,-1,1280,428,6.48245,65.2905
63,596,5.36047,-66.073,0,0,0,0,0,0,0,-1,1287,428,5.36051,66.073
70,596,4.06909,-66.3438,0,0,0,0,0,0,0,-1,1294,428,4.06909,66.3438
77,596,3.45483,-67.5077,0,0,0,0,0,0,0,-1,1301,428,3.45484,67.5077
84,596,2.65784,-67.3064,0,0,0,0,0,0,0,-1,1308,428,2.65786,67.3064
91,596,1.6543,-67.8854,0,0,0,0,0,0,0,-1,1315,428,1.65425,67.8854
98,596,0.677246,-68.5722,0,0,0,0,0,0,0,-1,1322,428,0.677259,68.5722
105,596,-0.359863,-69.0701,0,0,0,0,0,0,0,-1,1329,428,-0.359814,69.0701
112,596,9.34766,-64.8365,0,0,0,0,0,0,0,-1,1336,428,9.3476,64.8365
119,596,9.64758,-64.4337,0,0,0,0,0,0,0,-1,1343,428,9.64755,64.4337
126,596,6.12146,-57.7535,0,0,0,0,0,0,0,-1,1350,428,6.12145,57.7535
133,596,9.78711,-63.8577,0,0,0,0,0,0,0,-1,1357,428,9.78705,63.8577
140,596,9.93872,-63.2733,0,0,0,0,0,0,0,-1,1364,428,9.93871,63.2733
147,596,-4.21362,-70.3789,0,0,0,0,0,0,0,-1,1371,428,-4.2136,70.3789
154,596,9.3042,-63.3362,0,0,0,0,0,0,0,-1,1378,428,9.30417,63.3362
161,596,9.94312,-63.0897,0,0,0,0,0,0,0,-1,1385,428,9.9431,63.0897
168,596,10.2992,-62.5067,0,0,0,0,0,0,0,-1,1392,428,10.2992,62.5067
175,596,10.4409,-62.2069,0,0,0,0,0,0,0,-1,1399,428,10.441,62.2069
182,596,10.5959,-62.0806,0,0,0,0,0,0,0,-1,1406,428,10.5959,62.0806
189,596,10.5375,-61.6111,0,0,0,0,0,0,0,-1,1413,428,10.5375,61.6111
196,596,10.4193,-60.9603,0,0,0,0,0,0,0,-1,1420,428,10.4193,60.9603
203,596,10.3781,-60.7853,0,0,0,0,0,0,0,-1,1427,428,10.3781,60.7853
210,596,10.4285,-60.5347,0,0,0,0,0,0,0,-1,1434,428,10.4285,60.5347
217,596,10.4355,-59.9345,0,0,0,0,0,0,0,-1,1441,428,10.4355,59.9345
224,596,10.5457,-59.3575,0,0,0,0,0,0,0,-1,1448,428,10.5456,59.3575
231,596,10.6604,-58.8327,0.00575729,-0.00186807,-0.00136561,0.00599447,-0.00210526,-0.17197,0.00485275,0.0283696,1455,428,10.6604,58.8327
238,596,10.6161,-58.2158,0.00541795,-0.001423,-0.00103761,0.00557186,-0.00157692,-0.147265,0.00433685,0.0176446,1462,428,10.616,58.2158
245,596,10.6219,-57.6397,0.00503668,-0.00134582,-0.000895686,0.00515999,-0.00146914,-0.136815,0.0040202,0.0145668,1469,428,10.622,57.6397
252,596,10.6478,-57.0156,0.00446799,-0.00123121,-0.000629752,0.00453675,-0.00129997,-0.10875,0.00353834,0.0109748,1476,428,10.6478,57.0156
259,596,10.6526,-56.3939,0.00391467,-0.00121736,-0.00039244,0.0039445,-0.0012472,-0.0758807,0.00312937,0.00993289,1483,428,10.6526,56.3939
266,596,10.64,-55.7827,0.00348178,-0.00098695,-0.00010862,0.00348442,-0.000989588,-0.0242875,0.00271364,0.0113452,1490,428,10.64,55.7827
273,596,10.6583,-55.1492,0.00305469,-0.000608962,0.00019429,0.00306497,-0.000619237,0.0528343,0.00227795,0.0122007,1497,428,10.6583,55.1492
280,596,10.6692,-54.502,0.00268856,-5.526e-05,0.000601792,0.00281474,-0.000181446,0.206689,0.00193981,0.0135037,1504,428,10.6692,54.502
287,596,10.6256,-53.7883,0.00239418,0.000650736,0.00101346,0.00285925,0.00018567,0.430221,0.00184739,0.0130228,1511,428,10.6256,53.7883
294,596,10.5662,-53.0826,0.00203451,0.00151699,0.00145026,0.00324892,0.000302593,0.697115,0.00207246,0.0100325,1518,428,10.5662,53.0826
301,596,10.5543,-52.3822,0.00167851,0.00246082,0.00192602,0.004035,0.000104321,0.88558,0.00265591,0.0115105,1525,428,10.5543,52.3822
308,596,10.5469,-51.6471,0.00144876,0.00366059,0.00246832,0.00525942,-0.000150074,0.996011,0.00355736,0.0170891,1532,428,10.5469,51.6471
315,596,10.4719,-50.9213,0.00129029,0.004916,0.00306753,0.00666632,-0.000460026,1.05228,0.00460522,0.0161291,1539,428,10.4719,50.9213
322,596,10.4579,-50.1809,0.0011164,0.00625422,0.00368999,0.00818145,-0.000810835,1.08948,0.00574369,0.0139445,1546,428,10.4579,50.1809
329,596,10.412,-49.4593,0.00108973,0.00749262,0.00437634,0.0097135,-0.00113115,1.10119,0.00688377,0.0107737,1553,428,10.412,49.4593
336,596,10.3486,-48.7343,0.00118093,0.00892539,0.00514482,0.0114924,-0.00138605,1.10799,0.00816291,0.00950708,1560,428,10.3487,48.7343
343,596,10.3273,-47.9615,0.00134264,0.0104137,0.00598792,0.0133899,-0.00163358,1.10952,0.00951796,0.012246,1567,428,10.3273,47.9615
350,596,10.2933,-47.1583,0.00157739,0.0122238,0.00699027,0.015687,-0.00188578,1.11081,0.0111399,0.0126634,1574,428,10.2934,47.1583
357,596,10.2233,-46.3702,0.00178977,0.0139057,0.0080707,0.0179391,-0.00224361,1.10734,0.0127731,0.0100147,1581,428,10.2233,46.3702
364,596,10.1555,-45.5628,0.00200643,0.0154704,0.00909645,0.020055,-0.00257816,1.10396,0.014307,0.010447,1588,428,10.1555,45.5628
371,596,10.0966,-44.7532,0.00233861,0.0175861,0.0103045,0.0227804,-0.00285577,1.10388,0.0162229,0.0117107,1595,428,10.0965,44.7532
378,596,10.0258,-43.9283,0.00254944,0.0197609,0.0114621,0.0254883,-0.003178,1.1074,0.0181445,0.0170498,1602,428,10.0257,43.9283
385,596,10.0614,-42.8828,0.00255951,0.0217973,0.012388,0.0278623,-0.00350551,1.11551,0.0198468,0.0382234,1609,428,10.0614,42.8828
392,596,10.0668,-41.8931,0.00263334,0.0234218,0.0131196,0.0297657,-0.00371051,1.1204,0.0211892,0.0461223,1616,428,10.0668,41.8931
399,596,9.97681,-41.1627,0,0,0,0,0,0,0,-1,1623,428,9.97684,41.1627
406,596,9.2417,-39.3626,0,0,0,0,0,0,0,-1,1630,428,9.24169,39.3626
413,596,9.24194,-38.8945,0,0,0,0,0,0,0,-1,1637,428,9.2419,38.8945
420,596,2.6344,-3.06308,0,0,0,0,0,0,0,-1,1644,428,2.63439,3.06308
427,596,7.61975,-22.7222,0,0,0,0,0,0,0,-1,1651,428,7.61974,22.7222
434,596,5.09753,-22.5213,0,0,0,0,0,0,0,-1,1658,428,5.09755,22.5213
441,596,7.19043,-22.087,0,0,0,0,0,0,0,-1,1665,428,7.19046,22.087
448,596,1.0769,0.0083313,0,0,0,0,0,0,0,-1,1672,428,1.07684,-0.00832231
455,596,2.00769,-1.43329,0,0,0,0,0,0,0,-1,1679,428,2.00765,1.4333
462,596,0,0,0,0,0,0,0,0,0,-1,1686,428,0,0
469,596,0,0,0,0,0,0,0,0,0,-1,1693,428,0,0
476,596,0,0,0,0,0,0,0,0,0,-1,1700,428,0,0
483,596,0,0,0,0,0,0,0,0,0,-1,1707,428,0,0
490,596,0,0,0,0,0,0,0,0,0,-1,1714,428,0,0
497,596,0,0,0,0,0,0,0,0,0,-1,1721,428,0,0
504,596,0,0,0,0,0,0,0,0,0,-1,1728,428,0,0
511,596,0,0,0,0,0,0,0,0,0,-1,1735,428,0,0
518,596,0,0,0,0,0,0,0,0,0,-1,1742,428,0,0
525,596,0,0,0,0,0,0,0,0,0,-1,1749,428,0,0
532,596,0,0,0,0,0,0,0,0,0,-1,1756,428,0,0
539,596,0,0,0,0,0,0,0,0,0,-1,1763,428,0,0
546,596,0,0,0,0,0,0,0,0,0,-1,1770,428,0,0
553,596,0,0,0,0,0,0,0,0,0,-1,1777,428,0,0
560,596,0,0,0,0,0,0,0,0,0,-1,1784,428,0,0
567,596,0,0,0,0,0,0,0,0,0,-1,1791,428,0,0
574,596,0,0,0,0,0,0,0,0,0,-1,1798,428,0,0
581,596,0,0,0,0,0,0,0,0,0,-1,1805,428,0,0
588,596,0,0,0,0,0,0,0,0,0,-1,1812,428,0,0
595,596,0,0,0,0,0,0,0,0,0,-1,1819,428,0,0
602,596,0,0,0,0,0,0,0,0,0,-1,1826,428,0,0
609,596,0,0,0,0,0,0,0,0,0,-1,1833,428,0,0
616,596,0,0,0,0,0,0,0,0,0,-1,1840,428,0,0
623,596,0,0,0,0,0,0,0,0,0,-1,1847,428,0,0
630,596,0,0,0,0,0,0,0,0,0,-1,1854,428,0,0
637,596,0,0,0,0,0,0,0,0,0,-1,1861,428,0,0
644,596,0,0,0,0,0,0,0,0,0,-1,1868,428,0,0
651,596,0,0,0,0,0,0,0,0,0,-1,1875,428,0,0
658,596,0,0,0,0,0,0,0,0,0,-1,1882,428,0,0
665,596,0,0,0,0,0,0,0,0,0,-1,1889,428,0,0
672,596,0,0,0,0,0,0,0,0,0,-1,1896,428,0,0
679,596,0,0,0,0,0,0,0,0,0,-1,1903,428,0,0
686,596,0,0,0,0,0,0,0,0,0,-1,1910,428,0,0
693,596,0,0,0,0,0,0,0,0,0,-1,1917,428,0,0
700,596,0,0,0,0,0,0,0,0,0,-1,1924,428,0,0
707,596,0,0,0,0,0,0,0,0,0,-1,1931,428,0,0
714,596,0,0,0,0,0,0,0,0,0,-1,1938,428,0,0
721,596,0,0,0,0,0,0,0,0,0,-1,1945,428,0,0
728,596,0,0,0,0,0,0,0,0,0,-1,1952,428,0,0
735,596,0,0,0,0,0,0,0,0,0,-1,1959,428,0,0
742,596,0,0,0,0,0,0,0,0,0,-1,1966,428,0,0
749,596,0,0,0,0,0,0,0,0,0,-1,1973,428,0,0
756,596,0,0,0,0,0,0,0,0,0,-1,1980,428,0,0
763,596,0,0,0,0,0,0,0,0,0,-1,1987,428,0,0
770,596,0,0,0,0,0,0,0,0,0,-1,1994,428,0,0
777,596,0,0,0,0,0,0,0,0,0,-1,2001,428,0,0
784,596,0,0,0,0,0,0,0,0,0,-1,2008,428,0,0
791,596,0,0,0,0,0,0,0,0,0,-1,2015,428,0,0
798,596,0,0,0,0,0,0,0,0,0,-1,2022,428,0,0
805,596,0,0,0,0,0,0,0,0,0,-1,2029,428,0,0
812,596,0,0,0,0,0,0,0,0,0,-1,2036,428,0,0
-700,589,0,0,0,0,0,0,0,0,0,-1,524,435,0,0
-693,589,0,0,0,0,0,0,0,0,0,-1,531,435,0,0
-686,589,0,0,0,0,0,0,0,0,0,-1,538,435,0,0
-679,589,0,0,0,0,0,0,0,0,0,-1,545,435,0,0
-672,589,0,0,0,0,0,0,0,0,0,-1,552,435,0,0
-665,589,0,0,0,0,0,0,0,0,0,-1,559,435,0,0
-658,589,0,0,0,0,0,0,0,0,0,-1,566,435,0,0
-651,589,0,0,0,0,0,0,0,0,0,-1,573,435,0,0
-644,589,0,0,0,0,0,0,0,0,0,-1,580,435,0,0
-637,589,0,0,0,0,0,0,0,0,0,-1,587,435,0,0
-630,589,0,0,0,0,0,0,0,0,0,-1,594,435,0,0
-623,589,0,0,0,0,0,0,0,0,0,-1,601,435,0,0
-616,589,0,0,0,0,0,0,0,0,0,-1,608,435,0,0
-609,589,0,0,0,0,0,0,0,0,0,-1,615,435,0,0
-602,589,0,0,0,0,0,0,0,0,0,-1,622,435,0,0
-595,589,0,0,0,0,0,0,0,0,0,-1,629,435,0,0
-588,589,0,0,0,0,0,0,0,0,0,-1,636,435,0,0
-581,589,0,0,0,0,0,0,0,0,0,-1,643,435,0,0
-574,589,0,0,0,0,0,0,0,0,0,-1,650,435,0,0
-567,589,0,0,0,0,0,0,0,0,0,-1,657,435,0,0
-560,589,0,0,0,0,0,0,0,0,0,-1,664,435,0,0
-553,589,0,0,0,0,0,0,0,0,0,-1,671,435,0,0
-546,589,0,0,0,0,0,0,0,0,0,-1,678,435,0,0
-539,589,0,0,0,0,0,0,0,0,0,-1,685,435,0,0
-532,589,0,0,0,0,0,0,0,0,0,-1,692,435,0,0
-525,589,0,0,0,0,0,0,0,0,0,-1,699,435,0,0
-518,589,0,0,0,0,0,0,0,0,0,-1,706,435,0,0
-511,589,0,0,0,0,0,0,0,0,0,-1,713,435,0,0
-504,589,0,0,0,0,0,0,0,0,0,-1,720,435,0,0
-497,589,0,0,0,0,0,0,0,0,0,-1,727,435,0,0
-490,589,0,0,0,0,0,0,0,0,0,-1,734,435,0,0
-483,589,0,0,0,0,0,0,0,0,0,-1,741,435,0,0
-476,589,0,0,0,0,0,0,0,0,0,-1,748,435,0,0
-469,589,0,0,0,0,0,0,0,0,0,-1,755,435,0,0
-462,589,0,0,0,0,0,0,0,0,0,-1,762,435,0,0
-455,589,0,0,0,0,0,0,0,0,0,-1,769,435,0,0
-448,589,0,0,0,0,0,0,0,0,0,-1,776,435,0,0
-441,589,0,0,0,0,0,0,0,0,0,-1,783,435,0,0
-434,589,0,0,0,0,0,0,0,0,0,-1,790,435,0,0
-427,589,0,0,0,0,0,0,0,0,0,-1,797,435,0,0
-420,589,0,0,0,0,0,0,0,0,0,-1,804,435,0,0
-413,589,0,0,0,0,0,0,0,0,0,-1,811,435,0,0
-406,589,0,0,0,0,0,0,0,0,0,-1,818,435,0,0
-399,589,0,0,0,0,0,0,0,0,0,-1,825,435,0,0
-392,589,0,0,0,0,0,0,0,0,0,-1,832,435,0,0
-385,589,0,0,0,0,0,0,0,0,0,-1,839,435,0,0
-378,589,0,0,0,0,0,0,0,0,0,-1,846,435,0,0
-371,589,0,0,0,0,0,0,0,0,0,-1,853,435,0,0
-364,589,0,0,0,0,0,0,0,0,0,-1,860,435,0,0
-357,589,0,0,0,0,0,0,0,0,0,-1,867,435,0,0
-350,589,-0.799927,-20.664,0,0,0,0,0,0,0,-1,874,435,-0.799952,20.664
-343,589,5.15289,-30.4847,0,0,0,0,0,0,0,-1,881,435,5.15291,30.4847
-336,589,5.07684,-29.2368,0,0,0,0,0,0,0,-1,888,435,5.07687,29.2368
-329,589,4.9624,-28.1366,0,0,0,0,0,0,0,-1,895,435,4.96242,28.1366
-322,589,5.10156,-27.065,0,0,0,0,0,0,0,-1,902,435,5.10155,27.065
-315,589,4.22705,-27.9655,0,0,0,0,0,0,0,-1,909,435,4.22705,27.9655
-308,589,4.46698,-29.037,0,0,0,0,0,0,0,-1,916,435,4.46696,29.037
-301,589,4.94867,-33.7458,0,0,0,0,0,0,0,-1,923,435,4.94869,33.7458
-294,589,4.1037,-31.2976,0,0,0,0,0,0,0,-1,930,435,4.10371,31.2976
-287,589,5.13416,-39.9632,0,0,0,0,0,0,0,-1,937,435,5.13415,39.9632
-280,589,5.23279,-40.8723,-0.000810412,0.0204258,-0.0106808,0.0248684,-0.00525298,-1.17663,0.0185791,0.0483929,944,435,5.23276,40.8723
-273,589,5.18024,-41.6658,-0.000544802,0.0187676,-0.00993594,0.0229666,-0.00474374,-1.17096,0.0171129,0.0305711,951,435,5.18024,41.6658
-266,589,5.11597,-42.553,-0.000435458,0.0170911,-0.00915008,0.0209974,-0.00434179,-1.1673,0.0156476,0.0294347,958,435,5.11598,42.553
-259,589,5.03918,-43.4497,-0.000256035,0.0152469,-0.00845471,0.0189657,-0.00397484,-1.15641,0.014156,0.024038,965,435,5.03916,43.4497
-252,589,5.01324,-44.3632,-0.000110715,0.0136442,-0.0077074,0.0170965,-0.003563,-1.14968,0.0127523,0.0121351,972,435,5.01322,44.3632
-245,589,4.98071,-45.1707,-3.15255e-05,0.0121879,-0.00686971,0.0152717,-0.00311538,-1.14885,0.0113629,0.0115388,979,435,4.98071,45.1706
-238,589,4.90607,-45.934,6.21183e-05,0.0107708,-0.00596647,0.0134332,-0.00260025,-1.15109,0.00993628,0.015004,986,435,4.90608,45.934
-231,589,4.84167,-46.6986,0.00015758,0.00920493,-0.00504893,0.0114603,-0.00209778,-1.15069,0.00842694,0.015165,993,435,4.84167,46.6986
-224,589,4.77521,-47.5002,0.000303451,0.00767951,-0.00431737,0.00966961,-0.00168665,-1.13887,0.00707595,0.0150478,1000,435,4.77521,47.5002
-217,589,4.72815,-48.2807,0.000481685,0.00590296,-0.00357706,0.00768041,-0.00129577,-1.10963,0.00560237,0.0162945,1007,435,4.72816,48.2807
-210,589,4.71167,-49.0175,0.000669938,0.00409077,-0.00286587,0.00571783,-0.000957122,-1.05444,0.00416773,0.016342,1014,435,4.71167,49.0176
-203,589,4.67737,-49.7494,0.000870723,0.00238064,-0.00220017,0.00395177,-0.000700409,-0.950672,0.00289635,0.0118777,1021,435,4.6774,49.7494
-196,589,4.62073,-50.4738,0.00105965,0.000736038,-0.00158147,0.00248757,-0.000691882,-0.734419,0.00193078,0.0148918,1028,435,4.6207,50.4738
-189,589,4.56848,-51.2277,0.00124788,-0.000740688,-0.00101039,0.00167116,-0.00116397,-0.396717,0.00164557,0.0193935,1035,435,4.56845,51.2277
-182,589,4.5885,-51.8622,0.00144296,-0.00246903,-0.000283703,0.00146343,-0.0024895,-0.0720191,0.00230771,0.0134837,1042,435,4.58854,51.8622
-175,589,4.55701,-52.5701,0.00164841,-0.00399728,0.000410312,0.00167808,-0.00402695,0.0721715,0.00338558,0.0166679,1049,435,4.55697,52.5701
-168,589,4.54395,-53.3036,0.00181281,-0.00531208,0.00111976,0.00198465,-0.00548392,0.152273,0.00446696,0.0141451,1056,435,4.54395,53.3036
-161,589,4.53223,-53.9767,0.00197302,-0.00658991,0.00190147,0.00237626,-0.00699316,0.208975,0.00562409,0.0126579,1063,435,4.53219,53.9767
-154,589,4.50085,-54.6331,0.002189,-0.00778966,0.00274947,0.00289642,-0.00849708,0.251832,0.00683783,0.0122575,1070,435,4.50092,54.6331
-147,589,4.52881,-55.2651,0.00249957,-0.00887997,0.00359377,0.00353949,-0.00991988,0.281673,0.00805656,0.0129993,1077,435,4.52882,55.2651
-140,589,4.55493,-55.8687,0.00272461,-0.00991833,0.00454193,0.0041871,-0.0113808,0.311515,0.00930251,0.0152963,1084,435,4.55488,55.8687
-133,589,4.54285,-56.4973,0.00299126,-0.0106362,0.00548396,0.004924,-0.012569,0.338843,0.0104161,0.0154701,1091,435,4.5429,56.4972
-126,589,4.552,-57.1163,0.00358723,-0.0111577,0.00612799,0.0058015,-0.013372,0.346739,0.0113538,0.0123396,1098,435,4.55202,57.1163
-119,589,4.49927,-57.7384,0.00439466,-0.0113813,0.00645258,0.00669767,-0.0136843,0.342819,0.0119957,0.0279114,1105,435,4.49925,57.7384
-112,589,4.45471,-58.3812,0,0,0,0,0,0,0,-1,1112,435,4.45475,58.3812
-105,589,4.61768,-58.9448,0,0,0,0,0,0,0,-1,1119,435,4.61767,58.9448
-98,589,4.63586,-59.7963,0,0,0,0,0,0,0,-1,1126,435,4.6359,59.7963
-91,589,3.39563,-37.8231,0,0,0,0,0,0,0,-1,1133,435,3.39565,37.8231
-84,589,2.76538,-22.6013,0,0,0,0,0,0,0,-1,1140,435,2.76539,22.6014
-77,589,2.18152,-14.8023,0,0,0,0,0,0,0,-1,1147,435,2.18155,14.8023
-70,589,1.48267,-9.90961,0,0,0,0,0,0,0,-1,1154,435,1.48264,9.9096
-63,589,0.880127,-5.50586,0,0,0,0,0,0,0,-1,1161,435,0.880186,5.50587
-56,589,-2.78052,-7.28082,0,0,0,0,0,0,0,-1,1168,435,-2.78053,7.28082
-49,589,-0.525757,-2.76703,0,0,0,0,0,0,0,-1,1175,435,-0.525771,2.76702
-42,589,-2.7738,-2.87921,0,0,0,0,0,0,0,-1,1182,435,-2.77383,2.87922
-35,589,-2.55225,-3.27551,0,0,0,0,0,0,0,-1,1189,435,-2.55223,3.27552
-28,589,-0.0632324,-3.42938,0,0,0,0,0,0,0,-1,1196,435,-0.063241,3.42938
-21,589,-6.50256,-58.7001,0,0,0,0,0,0,0,-1,1203,435,-6.50254,58.7001
-14,589,11.7372,-73.3847,0,0,0,0,0,0,0,-1,1210,435,11.7372,73.3847
-7,589,10.9803,-72.0392,0,0,0,0,0,0,0,-1,1217,435,10.9803,72.0392
0,589,7.67358,-63.8841,0,0,0,0,0,0,0,-1,1224,435,7.67357,63.8841
7,589,11.9666,-70.0255,0,0,0,0,0,0,0,-1,1231,435,11.9666,70.0254
14,589,10.1703,-61.8838,0,0,0,0,0,0,0,-1,1238,435,10.1703,61.8838
21,589,9.51074,-62.399,-0.0460833,-0.0542344,-0.0281483,-0.021717,-0.0786007,-0.713504,0.0468697,0.0477922,1245,435,9.51069,62.3991
28,589,8.875,-62.9929,-0.04855,-0.0559682,-0.028305,-0.0237121,-0.0808061,-0.720249,0.0479621,0.0471422,1252,435,8.87495,62.9929
35,589,8.2887,-63.5366,-0.0505808,-0.0561061,-0.0287858,-0.0244254,-0.0822615,-0.737558,0.048782,0.0463497,1259,435,8.28873,63.5366
42,589,7.67603,-64.0504,-0.0516104,-0.0557116,-0.0295786,-0.0240114,-0.0833107,-0.75079,0.0495168,0.0472063,1266,435,7.67604,64.0504
49,589,6.96655,-64.4511,-0.0513482,-0.0548214,-0.0308565,-0.0221794,-0.0839902,-0.757288,0.050259,0.0456194,1273,435,6.96656,64.4511
56,589,6.25085,-64.89,-0.0505478,-0.0535935,-0.0329343,-0.0191012,-0.0850402,-0.762295,0.0515205,0.0446528,1280,435,6.25091,64.89
63,589,5.54248,-65.5322,-0.0475442,-0.0487914,-0.0332769,-0.014885,-0.0814505,-0.776029,0.0500815,0.0451328,1287,435,5.54252,65.5322
70,589,5.03748,-66.4677,-0.0435359,-0.0419111,-0.0331164,-0.00959714,-0.0758499,-0.797661,0.0476905,0.0442926,1294,435,5.03741,66.4677
77,589,4.39868,-67.3997,-0.0391328,-0.0335555,-0.0327411,-0.00348443,-0.0692038,-0.827882,0.0450194,0.0448362,1301,435,4.39873,67.3997
84,589,3.31763,-67.942,-0.0348166,-0.0239472,-0.0324192,0.00348964,-0.0622534,-0.868445,0.0427131,0.0414709,1308,435,3.31765,67.942
91,589,2.28564,-68.5292,-0.0304548,-0.013796,-0.0318683,0.0108134,-0.0550643,-0.913224,0.0407945,0.0420504,1315,435,2.28568,68.5292
98,589,1.3374,-69.1763,-0.0263534,-0.00100407,-0.0319373,0.0206817,-0.0480391,-0.974297,0.0407105,0.0466717,1322,435,1.3374,69.1763
105,589,0.322754,-69.7368,0,0,0,0,0,0,0,-1,1329,435,0.322726,69.7368
112,589,5.70447,-68.863,0,0,0,0,0,0,0,-1,1336,435,5.70445,68.863
119,589,5.61279,-69.8534,0,0,0,0,0,0,0,-1,1343,435,5.61284,69.8534
126,589,2.03149,-63.1956,0,0,0,0,0,0,0,-1,1350,435,2.03147,63.1957
133,589,-4.24353,-70.6734,0,0,0,0,0,0,0,-1,1357,435,-4.2435,70.6734
140,589,-3.70667,-71.196,-0.0153415,0.0623358,-0.0387351,0.0783501,-0.0313558,-1.17876,0.0652471,0.0486384,1364,435,-3.70669,71.196
147,589,-4.03748,-71.7253,-0.0162553,0.0672416,-0.0416636,0.0844744,-0.0334881,-1.17861,0.0701943,0.0489231,1371,435,-4.03748,71.7253
154,589,-4.73962,-73.2535,-0.0174554,0.0701014,-0.0438923,0.0883156,-0.0356696,-1.17745,0.0737026,0.0475963,1378,435,-4.73967,73.2535
161,589,-5.66907,-75.1069,0,0,0,0,0,0,0,-1,1385,435,-5.66909,75.1069
168,589,20.0441,-47.9614,0,0,0,0,0,0,0,-1,1392,435,20.044,47.9613
175,589,8.66992,-7.65527,0,0,0,0,0,0,0,-1,1399,435,8.66994,7.65528
182,589,3.8136,-2.45389,0,0,0,0,0,0,0,-1,1406,435,3.81363,2.4539
189,589,3.69983,-3.68149,0,0,0,0,0,0,0,-1,1413,435,3.69987,3.68147
196,589,3.31055,-5.31677,0,0,0,0,0,0,0,-1,1420,435,3.31059,5.31678
203,589,2.72559,-8.84338,0,0,0,0,0,0,0,-1,1427,435,2.72558,8.84338
210,589,3.62378,-14.4032,0,0,0,0,0,0,0,-1,1434,435,3.62378,14.4032
217,589,4.65601,-22.3745,0,0,0,0,0,0,0,-1,1441,435,4.65607,22.3745
224,589,6.79028,-33.9412,0,0,0,0,0,0,0,-1,1448,435,6.79028,33.9412
231,589,11.2719,-58.8935,0,0,0,0,0,0,0,-1,1455,435,11.2718,58.8935
238,589,11.1924,-58.2108,0,0,0,0,0,0,0,-1,1462,435,11.1924,58.2108
245,589,11.2178,-57.5979,0,0,0,0,0,0,0,-1,1469,435,11.2178,57.5979
252,589,11.2684,-56.947,0.00602067,-0.00332384,-0.00163637,0.00629894,-0.00360211,-0.168441,0.00578662,0.0336755,1476,435,11.2685,56.947
259,589,11.2756,-56.3779,0.00533372,-0.00370496,-0.00153505,0.00558731,-0.00395855,-0.163718,0.00553798,0.0124967,1483,435,11.2756,56.3779
266,589,11.2797,-55.7284,0.00479184,-0.00374243,-0.00138161,0.00500993,-0.00396052,-0.156564,0.00519089,0.0101609,1490,435,11.2797,55.7284
273,589,11.3024,-55.1192,0.00420995,-0.00368236,-0.00124758,0.00440247,-0.00387488,-0.153103,0.00478216,0.0122004,1497,435,11.3023,55.1192
280,589,11.3071,-54.4744,0.00368646,-0.00340258,-0.000983312,0.00382033,-0.00353645,-0.135306,0.00424849,0.0142952,1504,435,11.3071,54.4744
287,589,11.2972,-53.7946,0.00321781,-0.00299199,-0.00075952,0.00330936,-0.00308354,-0.119954,0.00369171,0.0134521,1511,435,11.2972,53.7946
294,589,11.278,-53.0693,0.00270335,-0.00228169,-0.000459178,0.00274529,-0.00232363,-0.0910899,0.00292992,0.0110909,1518,435,11.278,53.0693
301,589,11.2679,-52.3523,0.00220001,-0.00152019,-0.000109554,0.00220324,-0.00152341,-0.0294145,0.00216348,0.0116969,1525,435,11.268,52.3523
308,589,11.2517,-51.6231,0.00181417,-0.000450898,0.000322747,0.00185926,-0.000495988,0.138809,0.00143373,0.0112391,1532,435,11.2518,51.6231
315,589,11.2097,-50.8916,0.00149842,0.000692592,0.000822516,0.00201141,0.000179606,0.557648,0.00128526,0.0105222,1539,435,11.2097,50.8916
322,589,11.2031,-50.1721,0.00120644,0.00201454,0.00140871,0.00307601,0.000144977,0.92506,0.00200409,0.0117168,1546,435,11.2031,50.1721
329,589,11.1538,-49.4463,0.0010715,0.00330106,0.00208984,0.00455486,-0.000182306,1.03041,0.00309913,0.0106748,1553,435,11.1539,49.4463
336,589,11.0914,-48.7155,0.00103282,0.00470501,0.00281766,0.00623202,-0.000494192,1.07416,0.00432882,0.0103526,1560,435,11.0914,48.7155
343,589,11.0665,-47.9608,0.00107854,0.00628684,0.00368343,0.0081937,-0.000828324,1.0931,0.00575847,0.0118187,1567,435,11.0666,47.9608
350,589,11.0215,-47.1788,0.00120698,0.00815747,0.00469054,0.0105199,-0.00115545,1.10423,0.00742844,0.0169639,1574,435,11.0215,47.1788
357,589,10.9915,-46.3531,0.00134014,0.00987179,0.0057412,0.0127585,-0.00154656,1.10491,0.00906526,0.0134839,1581,435,10.9915,46.3531
364,589,10.9431,-45.564,0.00147312,0.0114583,0.00676755,0.0148756,-0.00194414,1.1032,0.0106246,0.0112351,1588,435,10.9431,45.564
371,589,10.8668,-44.7626,0.00165259,0.0133248,0.00788138,0.0172957,-0.00231825,1.10409,0.0123758,0.011477,1595,435,10.8668,44.7626
378,589,10.8174,-43.9332,0.00171904,0.0152022,0.00890344,0.0196284,-0.0027072,1.10944,0.0140751,0.0130276,1602,435,10.8174,43.9332
385,589,10.7682,-43.0828,0.0016389,0.0168785,0.00965731,0.0215602,-0.00304271,1.1194,0.0154876,0.0229848,1609,435,10.7682,43.0828
392,589,10.6829,-42.0674,0.00162145,0.0181765,0.0102499,0.0230739,-0.00327595,1.12507,0.0165828,0.0304436,1616,435,10.6828,42.0674
399,589,10.6372,-41.0583,0.0018113,0.0195679,0.0110886,0.0248945,-0.00351535,1.12297,0.0178837,0.0376509,1623,435,10.6372,41.0583
406,589,10.6343,-40.1127,0,0,0,0,0,0,0,-1,1630,435,10.6343,40.1127
413,589,5.61377,-19.0606,0,0,0,0,0,0,0,-1,1637,435,5.61372,19.0606
420,589,2.79724,-5.79956,0,0,0,0,0,0,0,-1,1644,435,2.7973,5.79955
427,589,9.58423,-37.7722,0,0,0,0,0,0,0,-1,1651,435,9.58418,37.7722
434,589,9.14709,-34.4435,0,0,0,0,0,0,0,-1,1658,435,9.1471,34.4435
441,589,7.85901,-29.8665,0,0,0,0,0,0,0,-1,1665,435,7.85898,29.8666
448,589,0.453735,-3.2868,0,0,0,0,0,0,0,-1,1672,435,0.453701,3.28681
455,589,0.664307,-3.46848,0,0,0,0,0,0,0,-1,1679,435,0.66425,3.46846
462,589,3.46716,-4.41891,0,0,0,0,0,0,0,-1,1686,435,3.4672,4.41891
469,589,0.0238037,-3.81497,0,0,0,0,0,0,0,-1,1693,435,0.0237965,3.81498
476,589,0,0,0,0,0,0,0,0,0,-1,1700,435,0,0
483,589,0,0,0,0,0,0,0,0,0,-1,1707,435,0,0
490,589,0,0,0,0,0,0,0,0,0,-1,1714,435,0,0
497,589,0,0,0,0,0,0,0,0,0,-1,1721,435,0,0
504,589,0,0,0,0,0,0,0,0,0,-1,1728,435,0,0
511,589,0,0,0,0,0,0,0,0,0,-1,1735,435,0,0
518,589,0,0,0,0,0,0,0,0,0,-1,1742,435,0,0
525,589,0,0,0,0,0,0,0,0,0,-1,1749,435,0,0
532,589,0,0,0,0,0,0,0,0,0,-1,1756,435,0,0
539,589,0,0,0,0,0,0,0,0,0,-1,1763,435,0,0
546,589,0,0,0,0,0,0,0,0,0,-1,1770,435,0,0
553,589,0,0,0,0,0,0,0,0,0,-1,1777,435,0,0
560,589,0,0,0,0,0,0,0,0,0,-1,1784,435,0,0
567,589,0,0,0,0,0,0,0,0,0,-1,1791,435,0,0
574,589,0,0,0,0,0,0,0,0,0,-1,1798,435,0,0
581,589,0,0,0,0,0,0,0,0,0,-1,1805,435,0,0
588,589,0,0,0,0,0,0,0,0,0,-1,1812,435,0,0
595,589,0,0,0,0,0,0,0,0,0,-1,1819,435,0,0
602,589,0,0,0,0,0,0,0,0,0,-1,1826,435,0,0
609,589,0,0,0,0,0,0,0,0,0,-1,1833,435,0,0
616,589,0,0,0,0,0,0,0,0,0,-1,1840,435,0,0
623,589,0,0,0,0,0,0,0,0,0,-1,1847,435,0,0
630,589,0,0,0,0,0,0,0,0,0,-1,1854,435,0,0
637,589,0,0,0,0,0,0,0,0,0,-1,1861,435,0,0
644,589,0,0,0,0,0,0,0,0,0,-1,1868,435,0,0
651,589,0,0,0,0,0,0,0,0,0,-1,1875,435,0,0
658,589,0,0,0,0,0,0,0,0,0,-1,1882,435,0,0
665,589,0,0,0,0,0,0,0,0,0,-1,1889,435,0,0
672,589,0,0,0,0,0,0,0,0,0,-1,1896,435,0,0
679,589,0,0,0,0,0,0,0,0,0,-1,1903,435,0,0
686,589,0,0,0,0,0,0,0,0,0,-1,1910,435,0,0
693,589,0,0,0,0,0,0,0,0,0,-1,1917,435,0,0
700,589,0,0,0,0,0,0,0,0,0,-1,1924,435,0,0
707,589,0,0,0,0,0,0,0,0,0,-1,1931,435,0,0
714,589,0,0,0,0,0,0,0,0,0,-1,1938,435,0,0
721,589,0,0,0,0,0,0,0,0,0,-1,1945,435,0,0
728,589,0,0,0,0,0,0,0,0,0,-1,1952,435,0,0
735,589,0,0,0,0,0,0,0,0,0,-1,1959,435,0,0
742,589,0,0,0,0,0,0,0,0,0,-1,1966,435,0,0
749,589,0,0,0,0,0,0,0,0,0,-1,1973,435,0,0
756,589,0,0,0,0,0,0,0,0,0,-1,1980,435,0,0
763,589,0,0,0,0,0,0,0,0,0,-1,1987,435,0,0
770,589,0,0,0,0,0,0,0,0,0,-1,1994,435,0,0
777,589,0,0,0,0,0,0,0,0,0,-1,2001,435,0,0
784,589,0,0,0,0,0,0,0,0,0,-1,2008,435,0,0
791,589,0,0,0,0,0,0,0,0,0,-1,2015,435,0,0
798,589,0,0,0,0,0,0,0,0,0,-1,2022,435,0,0
805,589,0,0,0,0,0,0,0,0,0,-1,2029,435,0,0
812,589,0,0,0,0,0,0,0,0,0,-1,2036,435,0,0
-700,582,0,0,0,0,0,0,0,0,0,-1,524,442,0,0
-693,582,0,0,0,0,0,0,0,0,0,-1,531,442,0,0
-686,582,0,0,0,0,0,0,0,0,0,-1,538,442,0,0
-679,582,0,0,0,0,0,0,0,0,0,-1,545,442,0,0
-672,582,0,0,0,0,0,0,0,0,0,-1,552,442,0,0
-665,582,0,0,0,0,0,0,0,0,0,-1,559,442,0,0
-658,582,0,0,0,0,0,0,0,0,0,-1,566,442,0,0
-651,582,0,0,0,0,0,0,0,0,0,-1,573,442,0,0
-644,582,0,0,0,0,0,0,0,0,0,-1,580,442,0,0
-637,582,0,0,0,0,0,0,0,0,0,-1,587,442,0,0
-630,582,0,0,0,0,0,0,0,0,0,-1,594,442,0,0
-623,582,0,0,0,0,0,0,0,0,0,-1,601,442,0,0
-616,582,0,0,0,0,0,0,0,0,0,-1,608,442,0,0
-609,582,0,0,0,0,0,0,0,0,0,-1,615,442,0,0
-602,582,0,0,0,0,0,0,0,0,0,-1,622,442,0,0
-595,582,0,0,0,0,0,0,0,0,0,-1,629,442,0,0
-588,582,0,0,0,0,0,0,0,0,0,-1,636,442,0,0
-581,582,0,0,0,0,0,0,0,0,0,-1,643,442,0,0
-574,582,0,0,0,0,0,0,0,0,0,-1,650,442,0,0
-567,582,0,0,0,0,0,0,0,0,0,-1,657,442,0,0
-560,582,0,0,0,0,0,0,0,0,0,-1,664,442,0,0
-553,582,0,0,0,0,0,0,0,0,0,-1,671,442,0,0
-546,582,0,0,0,0,0,0,0,0,0,-1,678,442,0,0
-539,582,0,0,0,0,0,0,0,0,0,-1,685,442,0,0
-532,582,0,0,0,0,0,0,0,0,0,-1,692,442,0,0
-525,582,0,0,0,0,0,0,0,0,0,-1,699,442,0,0
-518,582,0,0,0,0,0,0,0,0,0,-1,706,442,0,0
-511,582,0,0,0,0,0,0,0,0,0,-1,713,442,0,0
-504,582,0,0,0,0,0,0,0,0,0,-1,720,442,0,0
-497,582,0,0,0,0,0,0,0,0,0,-1,727,442,0,0
-490,582,0,0,0,0,0,0,0,0,0,-1,734,442,0,0
-483,582,0,0,0,0,0,0,0,0,0,-1,741,442,0,0
-476,582,0,0,0,0,0,0,0,0,0,-1,748,442,0,0
-469,582,0,0,0,0,0,0,0,0,0,-1,755,442,0,0
-462,582,0,0,0,0,0,0,0,0,0,-1,762,442,0,0
-455,582,0,0,0,0,0,0,0,0,0,-1,769,442,0,0
-448,582,0,0,0,0,0,0,0,0,0,-1,776,442,0,0
-441,582,0,0,0,0,0,0,0,0,0,-1,783,442,0,0
-434,582,0,0,0,0,0,0,0,0,0,-1,790,442,0,0
-427,582,0,0,0,0,0,0,0,0,0,-1,797,442,0,0
-420,582,0,0,0,0,0,0,0,0,0,-1,804,442,0,0
-413,582,0,0,0,0,0,0,0,0,0,-1,811,442,0,0
-406,582,0,0,0,0,0,0,0,0,0,-1,818,442,0,0
-399,582,0,0,0,0,0,0,0,0,0,-1,825,442,0,0
-392,582,0,0,0,0,0,0,0,0,0,-1,832,442,0,0
-385,582,0,0,0,0,0,0,0,0,0,-1,839,442,0,0
-378,582,0,0,0,0,0,0,0,0,0,-1,846,442,0,0
-371,582,0,0,0,0,0,0,0,0,0,-1,853,442,0,0
-364,582,0,0,0,0,0,0,0,0,0,-1,860,442,0,0
-357,582,-1.4903,-21.5295,0,0,0,0,0,0,0,-1,867,442,-1.49031,21.5295
-350,582,-0.880859,-19.7966,0,0,0,0,0,0,0,-1,874,442,-0.880885,19.7966
-343,582,0.939941,-19.1705,0,0,0,0,0,0,0,-1,881,442,0.939935,19.1705
-336,582,3.33929,-27.9479,0,0,0,0,0,0,0,-1,888,442,3.33928,27.9479
-329,582,3.63544,-26.4736,0,0,0,0,0,0,0,-1,895,442,3.63546,26.4736
-322,582,3.67145,-27.1796,0,0,0,0,0,0,0,-1,902,442,3.67143,27.1796
-315,582,3.90686,-27.6446,0,0,0,0,0,0,0,-1,909,442,3.90689,27.6446
-308,582,4.07587,-33.1895,0,0,0,0,0,0,0,-1,916,442,4.07588,33.1895
-301,582,4.7655,-37.9739,0,0,0,0,0,0,0,-1,923,442,4.76551,37.9739
-294,582,4.62122,-39.0332,0,0,0,0,0,0,0,-1,930,442,4.62121,39.0332
-287,582,4.42548,-39.9893,-0.00165146,0.0177156,-0.00913888,0.0213471,-0.00528296,-1.19256,0.0162807,0.0399445,937,442,4.42549,39.9894
-280,582,4.45325,-40.8499,-0.00102845,0.0162545,-0.00850343,0.0197367,-0.00451065,-1.18212,0.0148908,0.0199011,944,442,4.45324,40.85
-273,582,4.4494,-41.807,-0.000629376,0.0147634,-0.00786657,0.0180724,-0.00393831,-1.17263,0.0135531,0.0142302,951,442,4.44941,41.807
-266,582,4.36517,-42.6577,-0.000416468,0.013141,-0.00714051,0.016208,-0.00348346,-1.1651,0.0121343,0.0123967,958,442,4.3652,42.6577
-259,582,4.29913,-43.5029,-0.000158849,0.0113178,-0.0064618,0.0142214,-0.00306248,-1.14848,0.0106496,0.00971419,965,442,4.29911,43.5029
-252,582,4.25214,-44.3542,3.01919e-05,0.00970781,-0.00569964,0.0123456,-0.00260763,-1.13735,0.00922333,0.0089779,972,442,4.25214,44.3542
-245,582,4.2132,-45.1281,0.000189718,0.00821238,-0.00487294,0.0105126,-0.00211055,-1.12976,0.00780762,0.0129357,979,442,4.21323,45.1281
-238,582,4.15326,-45.8811,0.000367825,0.00667841,-0.00401832,0.00863221,-0.00158597,-1.11823,0.00634983,0.0176629,986,442,4.15326,45.8811
-231,582,4.09949,-46.6454,0.000497831,0.00502795,-0.00314207,0.00663627,-0.0011105,-1.0977,0.00483703,0.0131933,993,442,4.09948,46.6454
-224,582,4.04681,-47.4407,0.000657414,0.00340926,-0.00239742,0.00479753,-0.000730861,-1.04591,0.00346774,0.0104327,1000,442,4.04683,47.4407
-217,582,3.98901,-48.2247,0.000864306,0.00158693,-0.00166664,0.00293097,-0.000479735,-0.892142,0.00213196,0.0134087,1007,442,3.98899,48.2247
-210,582,3.9848,-48.9579,0.00109967,-0.000263026,-0.000994105,0.00162351,-0.000786868,-0.484973,0.0014193,0.0141117,1014,442,3.9848,48.9579
-203,582,3.96851,-49.7039,0.00136721,-0.00193222,-0.000399886,0.00141498,-0.00197999,-0.118905,0.00196912,0.0108152,1021,442,3.96856,49.7039
-196,582,3.9043,-50.4878,0.00162219,-0.00352255,0.000147911,0.00162644,-0.0035268,0.0287183,0.00304191,0.0167468,1028,442,3.90424,50.4878
-189,582,3.85913,-51.1982,0.0018464,-0.0049769,0.000713991,0.00192031,-0.00505081,0.103151,0.00415785,0.0249293,1035,442,3.85919,51.1982
-182,582,3.8822,-51.8503,0.0020565,-0.00681532,0.0015148,0.00230802,-0.00706683,0.164535,0.00564023,0.0176004,1042,442,3.8822,51.8503
-175,582,3.85449,-52.526,0.0023198,-0.0082456,0.00221128,0.00276394,-0.00868973,0.198214,0.00690149,0.0142433,1049,442,3.8545,52.526
-168,582,3.83887,-53.2533,0.00252853,-0.00952135,0.00295551,0.0032144,-0.0102072,0.228028,0.00809196,0.0117478,1056,442,3.83884,53.2533
-161,582,3.83813,-53.9227,0.00267699,-0.0108777,0.00383455,0.00368657,-0.0118872,0.257443,0.00939788,0.013156,1063,442,3.83811,53.9227
-154,582,3.83997,-54.5743,0.00288438,-0.0121758,0.00480021,0.00428426,-0.0135757,0.283758,0.0107665,0.0131762,1070,442,3.84001,54.5743
-147,582,3.86523,-55.2256,0.00317885,-0.0133816,0.00577921,0.00499622,-0.0151989,0.304676,0.0121456,0.0131257,1077,442,3.86521,55.2256
-140,582,3.86475,-55.8151,0.00329297,-0.0144767,0.00696096,0.00569509,-0.0168788,0.332288,0.0135557,0.0149161,1084,442,3.86476,55.815
-133,582,3.92603,-56.4412,0.00346482,-0.0151829,0.00819275,0.00655288,-0.0182709,0.360457,0.0148548,0.0220014,1091,442,3.92599,56.4412
-126,582,3.93384,-56.9494,0.00408753,-0.0157288,0.00905054,0.0075989,-0.0192402,0.370096,0.015974,0.0221161,1098,442,3.9339,56.9494
-119,582,3.94666,-57.5981,0,0,0,0,0,0,0,-1,1105,442,3.94671,57.5981
-112,582,3.47888,-53.7394,0,0,0,0,0,0,0,-1,1112,442,3.47883,53.7394
-105,582,2.87219,-43.073,0,0,0,0,0,0,0,-1,1119,442,2.87217,43.073
-98,582,2.61938,-32.8673,0,0,0,0,0,0,0,-1,1126,442,2.61944,32.8673
-91,582,2.16492,-24.1119,0,0,0,0,0,0,0,-1,1133,442,2.16496,24.1119
-84,582,2.10278,-16.7533,0,0,0,0,0,0,0,-1,1140,442,2.10279,16.7533
-77,582,2.30212,-11.4907,0,0,0,0,0,0,0,-1,1147,442,2.30207,11.4907
-70,582,1.49255,-6.36548,0,0,0,0,0,0,0,-1,1154,442,1.49251,6.36549
-63,582,-4.62915,-4.0347,0,0,0,0,0,0,0,-1,1161,442,-4.6292,4.03471
-56,582,-5.81714,-5.24149,0,0,0,0,0,0,0,-1,1168,442,-5.81718,5.24149
-49,582,-3.88672,-10.1064,0,0,0,0,0,0,0,-1,1175,442,-3.88678,10.1064
-42,582,-0.948975,1.13968,0,0,0,0,0,0,0,-1,1182,442,-0.949003,-1.13969
-35,582,-2.58435,-3.86911,0,0,0,0,0,0,0,-1,1189,442,-2.58437,3.86912
-28,582,-0.825317,-3.45941,0,0,0,0,0,0,0,-1,1196,442,-0.825377,3.45942
-21,582,13.1615,-74.4987,0,0,0,0,0,0,0,-1,1203,442,13.1615,74.4986
-14,582,12.3857,-73.1992,0,0,0,0,0,0,0,-1,1210,442,12.3858,73.1992
-7,582,9.0022,-63.5395,0,0,0,0,0,0,0,-1,1217,442,9.00221,63.5395
0,582,8.6593,-63.6624,0,0,0,0,0,0,0,-1,1224,442,8.65928,63.6624
7,582,9.99023,-59.6711,0,0,0,0,0,0,0,-1,1231,442,9.99026,59.6711
14,582,9.66394,-60.8635,0,0,0,0,0,0,0,-1,1238,442,9.66396,60.8635
21,582,9.22107,-61.9734,-0.0568734,-0.0647051,-0.0358438,-0.0247322,-0.0968463,-0.73099,0.0581021,0.0444633,1245,442,9.2211,61.9734
28,582,8.56421,-62.5994,-0.059602,-0.0665004,-0.0354089,-0.0274747,-0.0986277,-0.736846,0.0587746,0.0467283,1252,442,8.56422,62.5994
35,582,7.85498,-63.0622,-0.0617721,-0.0666431,-0.0353504,-0.0287735,-0.0996418,-0.751005,0.0592147,0.0462221,1259,442,7.85501,63.0622
42,582,7.54688,-63.6439,-0.0628197,-0.0662414,-0.0357915,-0.0286982,-0.100363,-0.761516,0.0596883,0.0487065,1266,442,7.54689,63.6439
49,582,6.82385,-64.2258,-0.0624138,-0.0650107,-0.0368287,-0.0268607,-0.100564,-0.767777,0.0601235,0.048007,1273,442,6.82379,64.2258
56,582,6.07434,-64.5944,-0.0612462,-0.0632357,-0.0389517,-0.0232765,-0.101205,-0.772632,0.061205,0.0472468,1280,442,6.07437,64.5944
63,582,5.62207,-64.9043,-0.0574642,-0.0569294,-0.0388646,-0.0183313,-0.0960623,-0.788838,0.0588899,0.0443593,1287,442,5.62203,64.9043
70,582,5.27209,-65.6198,-0.0525459,-0.0478611,-0.0382419,-0.0118899,-0.088517,-0.815986,0.0554744,0.0446186,1294,442,5.27213,65.6198
77,582,4.81067,-66.3873,-0.0471296,-0.0368751,-0.037375,-0.00427732,-0.0797274,-0.853564,0.0517847,0.0452771,1301,442,4.81072,66.3873
84,582,4.56812,-67.1341,-0.042066,-0.0243205,-0.0367588,0.00462125,-0.0710077,-0.903822,0.0489517,0.0472831,1308,442,4.56814,67.1341
91,582,2.98975,-69.1132,-0.0370102,-0.0115999,-0.03602,0.0138899,-0.0625001,-0.954948,0.0469861,0.0438791,1315,442,2.98974,69.1132
98,582,3.72412,-67.2709,-0.0324276,0.00382976,-0.0360791,0.0260787,-0.0546765,-1.01821,0.0475886,0.0431402,1322,442,3.72413,67.2709
105,582,4.0896,-67.7982,0,0,0,0,0,0,0,-1,1329,442,4.08955,67.7982
112,582,4.49365,-69.1814,-0.0246821,0.033797,-0.0373046,0.0519555,-0.0428407,-1.11779,0.0548149,0.04637,1336,442,4.49369,69.1814
119,582,4.39685,-70.2014,-0.0220653,0.0487997,-0.0381776,0.0654536,-0.0387192,-1.15946,0.0608008,0.0483101,1343,442,4.39683,70.2014
126,582,4.21936,-71.2009,0,0,0,0,0,0,0,-1,1350,442,4.21932,71.2009
133,582,-3.96497,-71.2112,-0.0209369,0.0727134,-0.0425825,0.0891801,-0.0374037,-1.20181,0.0750934,0.0470264,1357,442,-3.96493,71.2112
140,582,-4.19946,-71.8885,-0.0216438,0.080575,-0.0464957,0.0985599,-0.0396287,-1.20171,0.0821659,0.0448002,1364,442,-4.19949,71.8885
147,582,-3.8905,-72.7593,-0.0233338,0.0870825,-0.0508757,0.106949,-0.0432009,-1.19851,0.0892557,0.0471923,1371,442,-3.89046,72.7594
154,582,-4.28882,-74.0804,-0.0251373,0.0907008,-0.0544486,0.112276,-0.0467121,-1.19353,0.0943574,0.0419636,1378,442,-4.28876,74.0804
161,582,-4.34094,-75.8439,0,0,0,0,0,0,0,-1,1385,442,-4.34091,75.8439
168,582,0.081665,-40.4535,0,0,0,0,0,0,0,-1,1392,442,0.0816215,40.4535
175,582,6.50549,-2.00424,0,0,0,0,0,0,0,-1,1399,442,6.50546,2.00425
182,582,5.18958,-2.18652,0,0,0,0,0,0,0,-1,1406,442,5.1896,2.18652
189,582,6.19751,-0.880951,0,0,0,0,0,0,0,-1,1413,442,6.19754,0.88096
196,582,4.87354,-2.22327,0,0,0,0,0,0,0,-1,1420,442,4.87348,2.22325
203,582,3.11401,-4.48257,0,0,0,0,0,0,0,-1,1427,442,3.11404,4.48259
210,582,2.93115,-11.0731,0,0,0,0,0,0,0,-1,1434,442,2.93113,11.0731
217,582,4.94092,-16.5476,0,0,0,0,0,0,0,-1,1441,442,4.94087,16.5476
224,582,5.21008,-20.9908,0,0,0,0,0,0,0,-1,1448,442,5.21006,20.9908
231,582,5.70032,-25.622,0,0,0,0,0,0,0,-1,1455,442,5.70026,25.6221
238,582,6.44189,-30.7028,0,0,0,0,0,0,0,-1,1462,442,6.44195,30.7028
245,582,10.0378,-45.1569,0,0,0,0,0,0,0,-1,1469,442,10.0379,45.1568
252,582,11.9523,-57.0863,0,0,0,0,0,0,0,-1,1476,442,11.9523,57.0863
259,582,11.9042,-56.4862,0.00738918,-0.00595496,-0.00230442,0.00777593,-0.00634171,-0.166278,0.00816483,0.0445474,1483,442,11.9042,56.4862
266,582,11.9379,-55.7081,0.0066168,-0.00637258,-0.0023481,0.00702824,-0.00678402,-0.17346,0.00797492,0.0152564,1490,442,11.9379,55.7081
273,582,11.9744,-55.0564,0.00574657,-0.00672683,-0.00245189,0.00621122,-0.00719148,-0.187289,0.00774495,0.0116865,1497,442,11.9744,55.0564
280,582,11.9741,-54.4418,0.00495857,-0.00677993,-0.00238875,0.00542606,-0.00724741,-0.19326,0.00734218,0.0123672,1504,442,11.9741,54.4418
287,582,11.972,-53.7603,0.00421324,-0.00668617,-0.00241521,0.00472445,-0.00719738,-0.208585,0.00693226,0.0120499,1511,442,11.972,53.7603
294,582,11.9958,-53.043,0.00346665,-0.00611376,-0.00229265,0.00398703,-0.00663414,-0.223196,0.0061953,0.0100905,1518,442,11.9958,53.043
301,582,11.9952,-52.3098,0.0027657,-0.00550621,-0.00209153,0.00326446,-0.00600497,-0.234096,0.00542912,0.0110377,1525,442,11.9952,52.3098
308,582,11.9801,-51.5813,0.002194,-0.00452662,-0.00178257,0.00263753,-0.00497016,-0.243866,0.00446059,0.0134614,1532,442,11.9802,51.5813
315,582,11.9515,-50.8696,0.00170652,-0.00344899,-0.00138592,0.00205546,-0.00379794,-0.246655,0.00342901,0.01399,1539,442,11.9516,50.8696
322,582,11.9254,-50.1352,0.00129071,-0.00210829,-0.000837987,0.00148607,-0.00230366,-0.229048,0.00220491,0.0113311,1546,442,11.9254,50.1352
329,582,11.8809,-49.4225,0.00107452,-0.000727598,-0.000144267,0.001086,-0.000739074,-0.0793801,0.00106003,0.011103,1553,442,11.8809,49.4225
336,582,11.8353,-48.6844,0.00092863,0.000668706,0.000548647,0.0013625,0.000234838,0.669103,0.000841053,0.0120726,1560,442,11.8353,48.6843
343,582,11.8219,-47.9067,0.000892105,0.00237116,0.00145536,0.0032641,-8.39238e-07,1.02047,0.00217635,0.0145639,1567,442,11.8219,47.9067
350,582,11.7921,-47.131,0.000964442,0.00431041,0.00248267,0.00563118,-0.000356324,1.08188,0.00387835,0.0169566,1574,442,11.7921,47.131
357,582,11.7644,-46.3126,0.00105843,0.00604805,0.00351591,0.00786436,-0.00075788,1.09396,0.00551292,0.0136443,1581,442,11.7644,46.3126
364,582,11.7031,-45.5314,0.00112991,0.00762347,0.00454461,0.00996194,-0.00120857,1.09557,0.00707862,0.010518,1588,442,11.7031,45.5314
371,582,11.6385,-44.7526,0.00121055,0.00930429,0.00559883,0.0121657,-0.00165083,1.09833,0.00871302,0.0146795,1595,442,11.6385,44.7526
378,582,11.5979,-43.9323,0.00118878,0.0109864,0.00653798,0.0142573,-0.00208207,1.10692,0.0102695,0.0158409,1602,442,11.5979,43.9322
385,582,11.5543,-43.1009,0.00104857,0.0124347,0.00719277,0.0159148,-0.00243154,1.12017,0.0115063,0.0121226,1609,442,11.5544,43.1009
392,582,11.4727,-42.2789,0.000966056,0.0135381,0.0077193,0.017207,-0.00270291,1.12711,0.0124704,0.0108607,1616,442,11.4726,42.2789
399,582,11.3933,-41.4707,0.00104675,0.0145951,0.00840378,0.018615,-0.0029732,1.12462,0.0135106,0.0184131,1623,442,11.3933,41.4707
406,582,11.33,-40.4789,0.000896848,0.0153002,0.00877127,0.0194475,-0.00325045,1.12912,0.0141733,0.0342449,1630,442,11.3299,40.4789
413,582,11.2725,-39.4556,0,0,0,0,0,0,0,-1,1637,442,11.2724,39.4556
420,582,11.17,-38.8385,0,0,0,0,0,0,0,-1,1644,442,11.17,38.8385
427,582,11.0656,-37.8665,0,0,0,0,0,0,0,-1,1651,442,11.0656,37.8665
434,582,10.7349,-37.122,0,0,0,0,0,0,0,-1,1658,442,10.7348,37.122
441,582,10.8484,-36.2891,0,0,0,0,0,0,0,-1,1665,442,10.8484,36.2891
448,582,11.2651,-32.8669,0,0,0,0,0,0,0,-1,1672,442,11.2651,32.8668
455,582,6.4585,-19.4734,0,0,0,0,0,0,0,-1,1679,442,6.45854,19.4734
462,582,5.35022,-19.2616,0,0,0,0,0,0,0,-1,1686,442,5.35025,19.2616
469,582,6.28601,-21.5695,0,0,0,0,0,0,0,-1,1693,442,6.28597,21.5695
476,582,1.93579,-8.53891,0,0,0,0,0,0,0,-1,1700,442,1.93579,8.53892
483,582,0,0,0,0,0,0,0,0,0,-1,1707,442,0,0
490,582,0,0,0,0,0,0,0,0,0,-1,1714,442,0,0
497,582,0,0,0,0,0,0,0,0,0,-1,1721,442,0,0
504,582,0,0,0,0,0,0,0,0,0,-1,1728,442,0,0
511,582,0,0,0,0,0,0,0,0,0,-1,1735,442,0,0
518,582,0,0,0,0,0,0,0,0,0,-1,1742,442,0,0
525,582,0,0,0,0,0,0,0,0,0,-1,1749,442,0,0
532,582,0,0,0,0,0,0,0,0,0,-1,1756,442,0,0
539,582,0,0,0,0,0,0,0,0,0,-1,1763,442,0,0
546,582,0,0,0,0,0,0,0,0,0,-1,1770,442,0,0
553,582,0,0,0,0,0,0,0,0,0,-1,1777,442,0,0
560,582,0,0,0,0,0,0,0,0,0,-1,1784,442,0,0
567,582,0,0,0,0,0,0,0,0,0,-1,1791,442,0,0
574,582,0,0,0,0,0,0,0,0,0,-1,1798,442,0,0
581,582,0,0,0,0,0,0,0,0,0,-1,1805,442,0,0
588,582,0,0,0,0,0,0,0,0,0,-1,1812,442,0,0
595,582,0,0,0,0,0,0,0,0,0,-1,1819,442,0,0
602,582,0,0,0,0,0,0,0,0,0,-1,1826,442,0,0
609,582,0,0,0,0,0,0,0,0,0,-1,1833,442,0,0
616,582,0,0,0,0,0,0,0,0,0,-1,1840,442,0,0
623,582,0,0,0,0,0,0,0,0,0,-1,1847,442,0,0
630,582,0,0,0,0,0,0,0,0,0,-1,1854,442,0,0
637,582,0,0,0,0,0,0,0,0,0,-1,1861,442,0,0
644,582,0,0,0,0,0,0,0,0,0,-1,1868,442,0,0
651,582,0,0,0,0,0,0,0,0,0,-1,1875,442,0,0
658,582,0,0,0,0,0,0,0,0,0,-1,1882,442,0,0
665,582,0,0,0,0,0,0,0,0,0,-1,1889,442,0,0
672,582,0,0,0,0,0,0,0,0,0,-1,1896,442,0,0
679,582,0,0,0,0,0,0,0,0,0,-1,1903,442,0,0
686,582,0,0,0,0,0,0,0,0,0,-1,1910,442,0,0
693,582,0,0,0,0,0,0,0,0,0,-1,1917,442,0,0
700,582,0,0,0,0,0,0,0,0,0,-1,1924,442,0,0
707,582,0,0,0,0,0,0,0,0,0,-1,1931,442,0,0
714,582,0,0,0,0,0,0,0,0,0,-1,1938,442,0,0
721,582,0,0,0,0,0,0,0,0,0,-1,1945,442,0,0
728,582,0,0,0,0,0,0,0,0,0,-1,1952,442,0,0
735,582,0,0,0,0,0,0,0,0,0,-1,1959,442,0,0
742,582,0,0,0,0,0,0,0,0,0,-1,1966,442,0,0
749,582,0,0,0,0,0,0,0,0,0,-1,1973,442,0,0
756,582,0,0,0,0,0,0,0,0,0,-1,1980,442,0,0
763,582,0,0,0,0,0,0,0,0,0,-1,1987,442,0,0
770,582,0,0,0,0,0,0,0,0,0,-1,1994,442,0,0
777,582,0,0,0,0,0,0,0,0,0,-1,2001,442,0,0
784,582,0,0,0,0,0,0,0,0,0,-1,2008,442,0,0
791,582,0,0,0,0,0,0,0,0,0,-1,2015,442,0,0
798,582,0,0,0,0,0,0,0,0,0,-1,2022,442,0,0
805,582,0,0,0,0,0,0,0,0,0,-1,2029,442,0,0
812,582,0,0,0,0,0,0,0,0,0,-1,2036,442,0,0
-700,575,0,0,0,0,0,0,0,0,0,-1,524,449,0,0
-693,575,0,0,0,0,0,0,0,0,0,-1,531,449,0,0
-686,575,0,0,0,0,0,0,0,0,0,-1,538,449,0,0
-679,575,0,0,0,0,0,0,0,0,0,-1,545,449,0,0
-672,575,0,0,0,0,0,0,0,0,0,-1,552,449,0,0
-665,575,0,0,0,0,0,0,0,0,0,-1,559,449,0,0
-658,575,0,0,0,0,0,0,0,0,0,-1,566,449,0,0
-651,575,0,0,0,0,0,0,0,0,0,-1,573,449,0,0
-644,575,0,0,0,0,0,0,0,0,0,-1,580,449,0,0
-637,575,0,0,0,0,0,0,0,0,0,-1,587,449,0,0
-630,575,0,0,0,0,0,0,0,0,0,-1,594,449,0,0
-623,575,0,0,0,0,0,0,0,0,0,-1,601,449,0,0
-616,575,0,0,0,0,0,0,0,0,0,-1,608,449,0,0
-609,575,0,0,0,0,0,0,0,0,0,-1,615,449,0,0
-602,575,0,0,0,0,0,0,0,0,0,-1,622,449,0,0
-595,575,0,0,0,0,0,0,0,0,0,-1,629,449,0,0
-588,575,0,0,0,0,0,0,0,0,0,-1,636,449,0,0
-581,575,0,0,0,0,0,0,0,0,0,-1,643,449,0,0
-574,575,0,0,0,0,0,0,0,0,0,-1,650,449,0,0
-567,575,0,0,0,0,0,0,0,0,0,-1,657,449,0,0
-560,575,0,0,0,0,0,0,0,0,0,-1,664,449,0,0
-553,575,0,0,0,0,0,0,0,0,0,-1,671,449,0,0
-546,575,0,0,0,0,0,0,0,0,0,-1,678,449,0,0
-539,575,0,0,0,0,0,0,0,0,0,-1,685,449,0,0
-532,575,0,0,0,0,0,0,0,0,0,-1,692,449,0,0
-525,575,0,0,0,0,0,0,0,0,0,-1,699,449,0,0
-518,575,0,0,0,0,0,0,0,0,0,-1,706,449,0,0
-511,575,0,0,0,0,0,0,0,0,0,-1,713,449,0,0
-504,575,0,0,0,0,0,0,0,0,0,-1,720,449,0,0
-497,575,0,0,0,0,0,0,0,0,0,-1,727,449,0,0
-490,575,0,0,0,0,0,0,0,0,0,-1,734,449,0,0
-483,575,0,0,0,0,0,0,0,0,0,-1,741,449,0,0
-476,575,0,0,0,0,0,0,0,0,0,-1,748,449,0,0
-469,575,0,0,0,0,0,0,0,0,0,-1,755,449,0,0
-462,575,0,0,0,0,0,0,0,0,0,-1,762,449,0,0
-455,575,0,0,0,0,0,0,0,0,0,-1,769,449,0,0
-448,575,0,0,0,0,0,0,0,0,0,-1,776,449,0,0
-441,575,0,0,0,0,0,0,0,0,0,-1,783,449,0,0
-434,575,0,0,0,0,0,0,0,0,0,-1,790,449,0,0
-427,575,0,0,0,0,0,0,0,0,0,-1,797,449,0,0
-420,575,0,0,0,0,0,0,0,0,0,-1,804,449,0,0
-413,575,0,0,0,0,0,0,0,0,0,-1,811,449,0,0
-406,575,0,0,0,0,0,0,0,0,0,-1,818,449,0,0
-399,575,0,0,0,0,0,0,0,0,0,-1,825,449,0,0
-392,575,0,0,0,0,0,0,0,0,0,-1,832,449,0,0
-385,575,0,0,0,0,0,0,0,0,0,-1,839,449,0,0
-378,575,0,0,0,0,0,0,0,0,0,-1,846,449,0,0
-371,575,0.56897,-3.52304,0,0,0,0,0,0,0,-1,853,449,0.568955,3.52306
-364,575,1.49805,-4.67191,0,0,0,0,0,0,0,-1,860,449,1.49803,4.6719
-357,575,3.15521,-8.29892,0,0,0,0,0,0,0,-1,867,449,3.15521,8.29891
-350,575,-0.825928,-18.5347,0,0,0,0,0,0,0,-1,874,449,-0.825948,18.5347
-343,575,0.465393,-16.3569,0,0,0,0,0,0,0,-1,881,449,0.465397,16.3569
-336,575,3.1994,-17.5725,0,0,0,0,0,0,0,-1,888,449,3.19941,17.5725
-329,575,2.81946,-29.1576,0,0,0,0,0,0,0,-1,895,449,2.81945,29.1576
-322,575,4.28943,-27.9487,0,0,0,0,0,0,0,-1,902,449,4.28944,27.9487
-315,575,5.05786,-34.9975,0,0,0,0,0,0,0,-1,909,449,5.05785,34.9975
-308,575,3.93146,-37.2629,0,0,0,0,0,0,0,-1,916,449,3.93146,37.2629
-301,575,3.96063,-38.2034,-0.00309902,0.0189802,-0.00887515,0.0221053,-0.00622421,-1.23223,0.0171914,0.0431346,923,449,3.96061,38.2034
-294,575,3.84125,-39.14,-0.00231936,0.0162104,-0.00798198,0.0191746,-0.00528355,-1.21522,0.0148607,0.0248864,930,449,3.84126,39.14
-287,575,3.75891,-40.0692,-0.00173236,0.0139556,-0.00715921,0.0167315,-0.00450828,-1.2009,0.0129219,0.0168185,937,449,3.75891,40.0692
-280,575,3.72406,-40.9567,-0.00109799,0.0125161,-0.00657487,0.015173,-0.00375481,-1.18677,0.0115718,0.0140717,944,449,3.72406,40.9567
-273,575,3.67297,-41.8073,-0.000659817,0.0110295,-0.00597685,0.0135444,-0.00317475,-1.17251,0.010253,0.0126541,951,449,3.673,41.8073
-266,575,3.6156,-42.641,-0.000377184,0.00942667,-0.00528458,0.0117328,-0.00268329,-1.15932,0.00885288,0.0137854,958,449,3.61561,42.641
-259,575,3.53693,-43.4701,-6.80255e-05,0.00759654,-0.00460045,0.00975178,-0.00222327,-1.13268,0.00735515,0.0136317,965,449,3.5369,43.4701
-252,575,3.4436,-44.2751,0.000156491,0.00595807,-0.00380001,0.00783794,-0.00172337,-1.1114,0.00588448,0.012415,972,449,3.4436,44.2751
-245,575,3.38959,-45.0575,0.000389067,0.00440725,-0.00295511,0.00597155,-0.00117523,-1.08394,0.00442511,0.0164526,979,449,3.38958,45.0575
-238,575,3.37653,-45.8265,0.000647378,0.00274312,-0.00211857,0.00405879,-0.000668298,-1.01506,0.00295394,0.0170494,986,449,3.37656,45.8265
-231,575,3.34747,-46.5995,0.00081405,0.000979826,-0.00125608,0.00215575,-0.000361877,-0.818345,0.00157174,0.0139042,993,449,3.3475,46.5995
-224,575,3.28589,-47.393,0.000998271,-0.00075513,-0.000476857,0.00111957,-0.000876426,-0.249082,0.00115523,0.0124215,1000,449,3.28588,47.393
-217,575,3.25836,-48.1682,0.00123649,-0.00265745,0.000273029,0.00125555,-0.0026765,0.069662,0.00231905,0.0109973,1007,449,3.25837,48.1682
-210,575,3.26556,-48.9286,0.00151307,-0.00458713,0.000929504,0.00165155,-0.00472562,0.147902,0.00382179,0.0098866,1014,449,3.26556,48.9287
-203,575,3.25879,-49.6707,0.00183643,-0.00626534,0.00146742,0.00209402,-0.00652294,0.173771,0.00518942,0.012978,1021,449,3.25879,49.6707
-196,575,3.23596,-50.432,0.00215188,-0.00784386,0.0019424,0.00251606,-0.00820804,0.18534,0.00647575,0.0175883,1028,449,3.23591,50.432
-189,575,3.1908,-51.1451,0.00240556,-0.00928411,0.0024821,0.00291076,-0.00978931,0.200794,0.00768252,0.0193215,1035,449,3.19078,51.145
-182,575,3.16492,-51.8049,0.00261452,-0.0112903,0.00335482,0.00338162,-0.0120574,0.224791,0.00937113,0.0167063,1042,449,3.16498,51.8049
-175,575,3.15393,-52.4943,0.00290973,-0.0126888,0.00405142,0.00389924,-0.0136783,0.239548,0.0106591,0.0121303,1049,449,3.15398,52.4943
-168,575,3.11719,-53.1878,0.00313862,-0.0140019,0.00483268,0.00440727,-0.0152706,0.256722,0.0119241,0.0109438,1056,449,3.11713,53.1878
-161,575,3.13184,-53.8604,0.0032566,-0.0155304,0.00583305,0.00492033,-0.0171941,0.277847,0.0134073,0.0154025,1063,449,3.13186,53.8604
-154,575,3.15112,-54.5194,0.00342511,-0.017067,0.00697156,0.00557197,-0.0192138,0.29873,0.0150152,0.016783,1070,449,3.15117,54.5194
-147,575,3.18103,-55.112,0.0036518,-0.0185972,0.0081811,0.00633617,-0.0212816,0.31705,0.0167053,0.0152877,1077,449,3.181,55.112
-140,575,3.15918,-55.6102,0.00354486,-0.0199373,0.00980292,0.00709921,-0.0234916,0.347839,0.0184876,0.0251318,1084,449,3.15918,55.6102
-133,575,3.20422,-56.0695,0.00351136,-0.0208284,0.0116318,0.00817613,-0.0254932,0.381398,0.0202779,0.0427737,1091,449,3.2042,56.0695
-126,575,3.38647,-56.4252,0,0,0,0,0,0,0,-1,1098,449,3.38646,56.4252
-119,575,3.00208,-52.3971,0,0,0,0,0,0,0,-1,1105,449,3.00204,52.3971
-112,575,2.70337,-43.3701,0,0,0,0,0,0,0,-1,1112,449,2.70333,43.3701
-105,575,2.18347,-36.5414,0,0,0,0,0,0,0,-1,1119,449,2.18351,36.5414
-98,575,1.521,-25.6961,0,0,0,0,0,0,0,-1,1126,449,1.52105,25.6961
-91,575,1.60803,-16.4247,0,0,0,0,0,0,0,-1,1133,449,1.60802,16.4247
-84,575,1.16553,-11.9056,0,0,0,0,0,0,0,-1,1140,449,1.16558,11.9056
-77,575,0.205078,-11.2584,0,0,0,0,0,0,0,-1,1147,449,0.205117,11.2584
-70,575,-4.2467,-1.78738,0,0,0,0,0,0,0,-1,1154,449,-4.24674,1.78739
-63,575,-4.52209,-3.48798,0,0,0,0,0,0,0,-1,1161,449,-4.5221,3.48796
-56,575,-5.5968,-5.4928,0,0,0,0,0,0,0,-1,1168,449,-5.59683,5.49281
-49,575,-5.96863,-7.17612,0,0,0,0,0,0,0,-1,1175,449,-5.96868,7.1761
-42,575,-0.830322,0.773499,0,0,0,0,0,0,0,-1,1182,449,-0.83038,-0.77351
-35,575,-0.62085,0.205139,0,0,0,0,0,0,0,-1,1189,449,-0.620855,-0.205126
-28,575,0.49292,-3.87988,0,0,0,0,0,0,0,-1,1196,449,0.492941,3.87989
-21,575,13.4017,-73.5942,0,0,0,0,0,0,0,-1,1203,449,13.4018,73.5942
-14,575,10.5992,-62.0393,0,0,0,0,0,0,0,-1,1210,449,10.5993,62.0393
-7,575,10.204,-62.5756,-0.0544186,-0.0710425,-0.051232,-0.0108287,-0.114633,-0.704978,0.07308,0.0485284,1217,449,10.204,62.5756
0,575,9.82593,-63.1115,0,0,0,0,0,0,0,-1,1224,449,9.82592,63.1115
7,575,9.49097,-63.6287,0,0,0,0,0,0,0,-1,1231,449,9.49096,63.6287
14,575,9.83838,-61.1871,0,0,0,0,0,0,0,-1,1238,449,9.83834,61.1871
21,575,8.86731,-61.6062,0,0,0,0,0,0,0,-1,1245,449,8.86736,61.6062
28,575,8.30518,-62.2197,0,0,0,0,0,0,0,-1,1252,449,8.30512,62.2197
35,575,7.6521,-62.5761,-0.0732434,-0.077825,-0.0424598,-0.0330126,-0.118056,-0.758448,0.0703315,0.0418734,1259,449,7.65216,62.5761
42,575,7.37817,-63.4508,-0.0743173,-0.0774521,-0.0423479,-0.0335077,-0.118262,-0.766901,0.0703828,0.046209,1266,449,7.37822,63.4508
49,575,6.65796,-64.0063,-0.0737949,-0.0757899,-0.0429351,-0.0318457,-0.117739,-0.773784,0.0703235,0.0462895,1273,449,6.65799,64.0063
56,575,5.84656,-64.4188,-0.0722422,-0.0732509,-0.0448754,-0.0278683,-0.117625,-0.779779,0.0709749,0.0469557,1280,449,5.84652,64.4187
63,575,5.60645,-64.3893,0,0,0,0,0,0,0,-1,1287,449,5.6065,64.3893
70,575,5.27759,-64.8078,-0.0617656,-0.0532426,-0.0426961,-0.0145958,-0.100412,-0.835138,0.0626457,0.0441087,1294,449,5.27759,64.8078
77,575,4.74194,-65.5469,-0.0553538,-0.0389886,-0.0411886,-0.0051777,-0.0891648,-0.883452,0.0577946,0.0426476,1301,449,4.74191,65.5469
84,575,4.42798,-66.2812,-0.0496367,-0.0228156,-0.0402396,0.00618928,-0.0786416,-0.946244,0.0546078,0.0453927,1308,449,4.42794,66.2812
91,575,4.0647,-66.9948,-0.0439241,-0.00715866,-0.039303,0.0178481,-0.0689308,-1.00414,0.0529163,0.0457417,1315,449,4.06471,66.9948
98,575,3.81824,-67.8184,-0.0389525,0.0110877,-0.0393483,0.0326969,-0.0605617,-1.06858,0.0546381,0.0425368,1322,449,3.81821,67.8184
105,575,3.35315,-68.4956,0,0,0,0,0,0,0,-1,1329,449,3.35312,68.4956
112,575,3.24377,-69.4891,-0.0306494,0.0463538,-0.0409548,0.0640631,-0.0483588,-1.16266,0.0651176,0.041684,1336,449,3.24377,69.4891
119,575,3.09802,-70.5183,-0.0278671,0.0639619,-0.0423327,0.0804989,-0.0444041,-1.19838,0.0731096,0.0434286,1343,449,3.098,70.5183
126,575,2.97595,-71.4784,0,0,0,0,0,0,0,-1,1350,449,2.97599,71.4784
133,575,-3.70593,-71.5392,-0.0275973,0.0918461,-0.0487954,0.109246,-0.0449968,-1.22827,0.0915909,0.0469364,1357,449,-3.70592,71.5393
140,575,-3.94116,-72.6259,-0.029219,0.101565,-0.0545095,0.121304,-0.0489588,-1.22335,0.101216,0.0447307,1364,449,-3.94116,72.6259
147,575,-4.02454,-73.5548,-0.0319841,0.109942,-0.0608332,0.132448,-0.0544899,-1.21645,0.111013,0.0466988,1371,449,-4.02456,73.5548
154,575,-4.22034,-74.8386,-0.0345409,0.114362,-0.0662783,0.139589,-0.0597682,-1.2071,0.118134,0.0430389,1378,449,-4.22029,74.8386
161,575,-4.66162,-76.4077,0,0,0,0,0,0,0,-1,1385,449,-4.66168,76.4077
168,575,-4.97888,-77.9566,0,0,0,0,0,0,0,-1,1392,449,-4.97891,77.9566
175,575,4.32617,1.93634,0,0,0,0,0,0,0,-1,1399,449,4.32612,-1.93634
182,575,6.3147,-2.88345,0,0,0,0,0,0,0,-1,1406,449,6.31466,2.88346
189,575,6.10449,-1.30817,0,0,0,0,0,0,0,-1,1413,449,6.10455,1.30817
196,575,5.79895,0.818359,0,0,0,0,0,0,0,-1,1420,449,5.79895,-0.81837
203,575,3.29724,-1.46378,0,0,0,0,0,0,0,-1,1427,449,3.29722,1.46377
210,575,2.32739,-7.74503,0,0,0,0,0,0,0,-1,1434,449,2.32741,7.74502
217,575,3.33618,-11.5521,0,0,0,0,0,0,0,-1,1441,449,3.3362,11.5521
224,575,5.51709,-16.3903,0,0,0,0,0,0,0,-1,1448,449,5.51713,16.3903
231,575,5.48572,-20.4595,0,0,0,0,0,0,0,-1,1455,449,5.48571,20.4595
238,575,5.33484,-22.3575,0,0,0,0,0,0,0,-1,1462,449,5.33478,22.3575
245,575,5.59741,-23.513,0,0,0,0,0,0,0,-1,1469,449,5.5974,23.513
252,575,10.5602,-44.9309,0,0,0,0,0,0,0,-1,1476,449,10.5602,44.9309
259,575,12.5563,-56.3591,0,0,0,0,0,0,0,-1,1483,449,12.5563,56.3591
266,575,12.6654,-55.6143,0.00867336,-0.00841986,-0.00295136,0.0091686,-0.0089151,-0.166252,0.010441,0.0409509,1490,449,12.6655,55.6143
273,575,12.7084,-54.9997,0.00753879,-0.00938068,-0.00334546,0.00817626,-0.0100182,-0.188292,0.0105225,0.0204868,1497,449,12.7083,54.9997
280,575,12.6885,-54.3154,0.00649695,-0.00992134,-0.00352736,0.0072227,-0.0106471,-0.202917,0.0103801,0.0161161,1504,449,12.6885,54.3154
287,575,12.6592,-53.6877,0.00543766,-0.0102566,-0.00387644,0.00634292,-0.0111619,-0.229416,0.0102332,0.0143961,1511,449,12.6592,53.6877
294,575,12.6897,-53.0109,0.0044076,-0.0098656,-0.00398419,0.00544442,-0.0109024,-0.254587,0.00961161,0.0123373,1518,449,12.6897,53.0109
301,575,12.7163,-52.296,0.00346029,-0.00949426,-0.00398694,0.00458898,-0.010623,-0.275879,0.00900998,0.0114057,1525,449,12.7163,52.296
308,575,12.7144,-51.5603,0.0026565,-0.00863171,-0.00384653,0.0038426,-0.00981781,-0.299105,0.00813445,0.0114918,1532,449,12.7143,51.5603
315,575,12.6752,-50.8445,0.0019603,-0.00762123,-0.00357656,0.0031481,-0.00880903,-0.320646,0.0071567,0.0123083,1539,449,12.6751,50.8445
322,575,12.6587,-50.1173,0.00139784,-0.00625701,-0.00308013,0.00248329,-0.00734247,-0.338816,0.00589961,0.0116723,1546,449,12.6587,50.1173
329,575,12.6307,-49.3924,0.00107903,-0.00476666,-0.00238483,0.00192851,-0.00561614,-0.342188,0.00452602,0.0118299,1553,449,12.6307,49.3924
336,575,12.5948,-48.6397,0.000797807,-0.00336023,-0.00174425,0.00143259,-0.00399501,-0.34903,0.00324795,0.0134908,1560,449,12.5949,48.6397
343,575,12.5859,-47.8336,0.000669453,-0.00152254,-0.0008105,0.000936584,-0.00178967,-0.318376,0.00159949,0.0142664,1567,449,12.5859,47.8336
350,575,12.5596,-47.0537,0.000740306,0.000553785,0.000284869,0.000946792,0.000347299,0.627207,0.000553057,0.0132884,1574,449,12.5596,47.0537
357,575,12.5281,-46.2576,0.00085641,0.00238672,0.00135454,0.00317728,6.58536e-05,1.0425,0.00209658,0.0114215,1581,449,12.528,46.2576
364,575,12.4678,-45.5024,0.000932668,0.00403417,0.00244594,0.00537953,-0.000412693,1.06792,0.00373153,0.0106342,1588,449,12.4677,45.5024
371,575,12.432,-44.7258,0.000988191,0.00563049,0.00350204,0.00751077,-0.000892094,1.07806,0.00532949,0.0199565,1595,449,12.432,44.7258
378,575,12.3748,-43.9137,0.000963121,0.00724737,0.0044343,0.00953995,-0.00132945,1.09363,0.00684628,0.0188035,1602,449,12.3748,43.9137
385,575,12.3151,-43.0683,0.000835686,0.00860864,0.00507919,0.0111177,-0.00167337,1.11197,0.00802793,0.0120177,1609,449,12.315,43.0683
392,575,12.2617,-42.2809,0.000761042,0.00965735,0.00562863,0.0123833,-0.0019649,1.11979,0.00898242,0.009819,1616,449,12.2618,42.2809
399,575,12.1892,-41.4927,0.000799089,0.0105583,0.00624803,0.0136064,-0.00224901,1.11692,0.00990606,0.0104815,1623,449,12.1892,41.4927
406,575,12.1249,-40.6048,0.00062778,0.0112328,0.00657478,0.0143769,-0.00251626,1.12474,0.0105241,0.0124678,1630,449,12.1249,40.6048
413,575,12.0674,-39.7362,0.00016889,0.0114335,0.0066628,0.0145256,-0.00292324,1.13629,0.010791,0.0150479,1637,449,12.0674,39.7362
420,575,11.9989,-38.8553,-0.000510614,0.0113258,0.00670738,0.0143527,-0.00353747,1.14689,0.0109399,0.0155429,1644,449,11.9989,38.8554
427,575,11.8987,-37.921,-0.00119404,0.0110886,0.00687622,0.0141667,-0.00427217,1.1499,0.0111449,0.0194688,1651,449,11.8987,37.921
434,575,11.7549,-37.1181,-0.00188542,0.010926,0.0069696,0.0139865,-0.00494588,1.15703,0.0113384,0.0328137,1658,449,11.7549,37.1181
441,575,11.8081,-36.4301,0,0,0,0,0,0,0,-1,1665,449,11.808,36.4301
448,575,12.2461,-35.3636,0,0,0,0,0,0,0,-1,1672,449,12.2461,35.3636
455,575,11.7931,-31.6917,0,0,0,0,0,0,0,-1,1679,449,11.793,31.6917
462,575,7.12781,-21.7179,0,0,0,0,0,0,0,-1,1686,449,7.12778,21.7178
469,575,10.8564,-32.9836,0,0,0,0,0,0,0,-1,1693,449,10.8565,32.9836
476,575,10.3063,-31.0265,0,0,0,0,0,0,0,-1,1700,449,10.3063,31.0265
483,575,8.44177,-29.4231,0,0,0,0,0,0,0,-1,1707,449,8.44173,29.4231
490,575,7.42871,-25.5027,0,0,0,0,0,0,0,-1,1714,449,7.42869,25.5027
497,575,0,0,0,0,0,0,0,0,0,-1,1721,449,0,0
504,575,0,0,0,0,0,0,0,0,0,-1,1728,449,0,0
511,575,0,0,0,0,0,0,0,0,0,-1,1735,449,0,0
518,575,0,0,0,0,0,0,0,0,0,-1,1742,449,0,0
525,575,0,0,0,0,0,0,0,0,0,-1,1749,449,0,0
532,575,0,0,0,0,0,0,0,0,0,-1,1756,449,0,0
539,575,0,0,0,0,0,0,0,0,0,-1,1763,449,0,0
546,575,0,0,0,0,0,0,0,0,0,-1,1770,449,0,0
553,575,0,0,0,0,0,0,0,0,0,-1,1777,449,0,0
560,575,0,0,0,0,0,0,0,0,0,-1,1784,449,0,0
567,575,0,0,0,0,0,0,0,0,0,-1,1791,449,0,0
574,575,0,0,0,0,0,0,0,0,0,-1,1798,449,0,0
581,575,0,0,0,0,0,0,0,0,0,-1,1805,449,0,0
588,575,0,0,0,0,0,0,0,0,0,-1,1812,449,0,0
595,575,0,0,0,0,0,0,0,0,0,-1,1819,449,0,0
602,575,0,0,0,0,0,0,0,0,0,-1,1826,449,0,0
609,575,0,0,0,0,0,0,0,0,0,-1,1833,449,0,0
616,575,0,0,0,0,0,0,0,0,0,-1,1840,449,0,0
623,575,0,0,0,0,0,0,0,0,0,-1,1847,449,0,0
630,575,0,0,0,0,0,0,0,0,0,-1,1854,449,0,0
637,575,0,0,0,0,0,0,0,0,0,-1,1861,449,0,0
644,575,0,0,0,0,0,0,0,0,0,-1,1868,449,0,0
651,575,0,0,0,0,0,0,0,0,0,-1,1875,449,0,0
658,575,0,0,0,0,0,0,0,0,0,-1,1882,449,0,0
665,575,0,0,0,0,0,0,0,0,0,-1,1889,449,0,0
672,575,0,0,0,0,0,0,0,0,0,-1,1896,449,0,0
679,575,0,0,0,0,0,0,0,0,0,-1,1903,449,0,0
686,575,0,0,0,0,0,0,0,0,0,-1,1910,449,0,0
693,575,0,0,0,0,0,0,0,0,0,-1,1917,449,0,0
700,575,0,0,0,0,0,0,0,0,0,-1,1924,449,0,0
707,575,0,0,0,0,0,0,0,0,0,-1,1931,449,0,0
714,575,0,0,0,0,0,0,0,0,0,-1,1938,449,0,0
721,575,0,0,0,0,0,0,0,0,0,-1,1945,449,0,0
728,575,0,0,0,0,0,0,0,0,0,-1,1952,449,0,0
735,575,0,0,0,0,0,0,0,0,0,-1,1959,449,0,0
742,575,0,0,0,0,0,0,0,0,0,-1,1966,449,0,0
749,575,0,0,0,0,0,0,0,0,0,-1,1973,449,0,0
756,575,0,0,0,0,0,0,0,0,0,-1,1980,449,0,0
763,575,0,0,0,0,0,0,0,0,0,-1,1987,449,0,0
770,575,0,0,0,0,0,0,0,0,0,-1,1994,449,0,0
777,575,0,0,0,0,0,0,0,0,0,-1,2001,449,0,0
784,575,0,0,0,0,0,0,0,0,0,-1,2008,449,0,0
791,575,0,0,0,0,0,0,0,0,0,-1,2015,449,0,0
798,575,0,0,0,0,0,0,0,0,0,-1,2022,449,0,0
805,575,0,0,0,0,0,0,0,0,0,-1,2029,449,0,0
812,575,0,0,0,0,0,0,0,0,0,-1,2036,449,0,0
-700,568,0,0,0,0,0,0,0,0,0,-1,524,456,0,0
-693,568,0,0,0,0,0,0,0,0,0,-1,531,456,0,0
-686,568,0,0,0,0,0,0,0,0,0,-1,538,456,0,0
-679,568,0,0,0,0,0,0,0,0,0,-1,545,456,0,0
-672,568,0,0,0,0,0,0,0,0,0,-1,552,456,0,0
-665,568,0,0,0,0,0,0,0,0,0,-1,559,456,0,0
-658,568,0,0,0,0,0,0,0,0,0,-1,566,456,0,0
-651,568,0,0,0,0,0,0,0,0,0,-1,573,456,0,0
-644,568,0,0,0,0,0,0,0,0,0,-1,580,456,0,0
-637,568,0,0,0,0,0,0,0,0,0,-1,587,456,0,0
-630,568,0,0,0,0,0,0,0,0,0,-1,594,456,0,0
-623,568,0,0,0,0,0,0,0,0,0,-1,601,456,0,0
-616,568,0,0,0,0,0,0,0,0,0,-1,608,456,0,0
-609,568,0,0,0,0,0,0,0,0,0,-1,615,456,0,0
-602,568,0,0,0,0,0,0,0,0,0,-1,622,456,0,0
-595,568,0,0,0,0,0,0,0,0,0,-1,629,456,0,0
-588,568,0,0,0,0,0,0,0,0,0,-1,636,456,0,0
-581,568,0,0,0,0,0,0,0,0,0,-1,643,456,0,0
-574,568,0,0,0,0,0,0,0,0,0,-1,650,456,0,0
-567,568,0,0,0,0,0,0,0,0,0,-1,657,456,0,0
-560,568,0,0,0,0,0,0,0,0,0,-1,664,456,0,0
-553,568,0,0,0,0,0,0,0,0,0,-1,671,456,0,0
-546,568,0,0,0,0,0,0,0,0,0,-1,678,456,0,0
-539,568,0,0,0,0,0,0,0,0,0,-1,685,456,0,0
-532,568,0,0,0,0,0,0,0,0,0,-1,692,456,0,0
-525,568,0,0,0,0,0,0,0,0,0,-1,699,456,0,0
-518,568,0,0,0,0,0,0,0,0,0,-1,706,456,0,0
-511,568,0,0,0,0,0,0,0,0,0,-1,713,456,0,0
-504,568,0,0,0,0,0,0,0,0,0,-1,720,456,0,0
-497,568,0,0,0,0,0,0,0,0,0,-1,727,456,0,0
-490,568,0,0,0,0,0,0,0,0,0,-1,734,456,0,0
-483,568,0,0,0,0,0,0,0,0,0,-1,741,456,0,0
-476,568,0,0,0,0,0,0,0,0,0,-1,748,456,0,0
-469,568,0,0,0,0,0,0,0,0,0,-1,755,456,0,0
-462,568,0,0,0,0,0,0,0,0,0,-1,762,456,0,0
-455,568,0,0,0,0,0,0,0,0,0,-1,769,456,0,0
-448,568,0,0,0,0,0,0,0,0,0,-1,776,456,0,0
-441,568,0,0,0,0,0,0,0,0,0,-1,783,456,0,0
-434,568,0,0,0,0,0,0,0,0,0,-1,790,456,0,0
-427,568,0,0,0,0,0,0,0,0,0,-1,797,456,0,0
-420,568,0,0,0,0,0,0,0,0,0,-1,804,456,0,0
-413,568,0,0,0,0,0,0,0,0,0,-1,811,456,0,0
-406,568,0,0,0,0,0,0,0,0,0,-1,818,456,0,0
-399,568,0,0,0,0,0,0,0,0,0,-1,825,456,0,0
-392,568,0,0,0,0,0,0,0,0,0,-1,832,456,0,0
-385,568,0,0,0,0,0,0,0,0,0,-1,839,456,0,0
-378,568,0.321777,-7.29929,0,0,0,0,0,0,0,-1,846,456,0.321806,7.29927
-371,568,1.09595,-7.46707,0,0,0,0,0,0,0,-1,853,456,1.09597,7.46707
-364,568,2.70746,-23.4782,0,0,0,0,0,0,0,-1,860,456,2.70746,23.4782
-357,568,2.14166,-7.67645,0,0,0,0,0,0,0,-1,867,456,2.14167,7.67646
-350,568,2.7467,-11.2507,0,0,0,0,0,0,0,-1,874,456,2.7467,11.2507
-343,568,2.16516,-11.3762,0,0,0,0,0,0,0,-1,881,456,2.16514,11.3762
-336,568,1.14984,-29.3232,0,0,0,0,0,0,0,-1,888,456,1.14984,29.3231
-329,568,2.80359,-32.459,0,0,0,0,0,0,0,-1,895,456,2.80357,32.4591
-322,568,3.96198,-34.8319,0,0,0,0,0,0,0,-1,902,456,3.96197,34.8319
-315,568,3.80542,-35.7175,0,0,0,0,0,0,0,-1,909,456,3.80543,35.7175
-308,568,3.1095,-37.4792,0,0,0,0,0,0,0,-1,916,456,3.10952,37.4793
-301,568,3.13531,-38.3853,-0.00272,0.0151453,-0.00708135,0.0176117,-0.00518637,-1.23564,0.0137987,0.0257455,923,456,3.13529,38.3853
-294,568,3.04492,-39.2284,-0.00203782,0.0127295,-0.00623827,0.015012,-0.00432031,-1.22004,0.0117167,0.0143508,930,456,3.04491,39.2284
-287,568,2.98364,-40.1063,-0.00148075,0.0107509,-0.00547857,0.012846,-0.00357578,-1.20555,0.00997194,0.0116082,937,456,2.98363,40.1063
-280,568,2.93286,-40.9714,-0.000901564,0.00931542,-0.00490947,0.0112921,-0.00287824,-1.18803,0.00864862,0.0121777,944,456,2.93287,40.9714
-273,568,2.87946,-41.8034,-0.000494071,0.00778865,-0.00430721,0.00962248,-0.0023279,-1.16828,0.00731547,0.0135164,951,456,2.87945,41.8034
-266,568,2.81384,-42.6123,-0.000202436,0.00614906,-0.00360933,0.00778087,-0.00183425,-1.14619,0.00589458,0.0126294,958,456,2.81386,42.6123
-259,568,2.75122,-43.4212,0.000102557,0.00425542,-0.00287825,0.00572806,-0.00137008,-1.09788,0.00434796,0.0131208,965,456,2.75123,43.4212
-252,568,2.66565,-44.2092,0.000320333,0.00252074,-0.00199666,0.00370025,-0.000859174,-1.03721,0.00279756,0.0132232,972,456,2.66565,44.2092
-245,568,2.60828,-44.9709,0.000590393,0.000837589,-0.00109165,0.00181262,-0.000384636,-0.841769,0.00135495,0.0156955,979,456,2.6083,44.9709
-238,568,2.58911,-45.7648,0.000897406,-0.00103403,-0.000230295,0.000924485,-0.0010611,-0.117049,0.00114729,0.0147872,986,456,2.5891,45.7648
-231,568,2.5531,-46.5644,0.00107804,-0.00298691,0.000656547,0.00118146,-0.00309033,0.156223,0.00254707,0.012634,993,456,2.55313,46.5644
-224,568,2.49646,-47.3376,0.00127005,-0.00492001,0.00151423,0.00162061,-0.00527057,0.227503,0.0041605,0.0132774,1000,456,2.49646,47.3376
-217,568,2.5011,-48.0977,0.00152571,-0.00695895,0.00231101,0.00211434,-0.00754757,0.249402,0.00586494,0.0114764,1007,456,2.50112,48.0977
-210,568,2.49963,-48.8671,0.00183199,-0.00902514,0.0029744,0.00259345,-0.0097866,0.250621,0.00753907,0.0118781,1014,456,2.49965,48.8671
-203,568,2.48199,-49.6126,0.00219952,-0.0107801,0.00347245,0.00307012,-0.0116507,0.245651,0.00896743,0.0108628,1021,456,2.48201,49.6126
-196,568,2.4989,-50.3387,0.00256853,-0.0124073,0.00387804,0.00351317,-0.013352,0.238935,0.0102746,0.0157128,1028,456,2.49893,50.3387
-189,568,2.46777,-51.0296,0.00284879,-0.0138658,0.00438021,0.0039271,-0.0149441,0.241378,0.0114976,0.0165602,1035,456,2.46781,51.0296
-182,568,2.47595,-51.7621,0.00305282,-0.0160797,0.00531849,0.00443187,-0.0174587,0.253705,0.0133637,0.0172299,1042,456,2.47599,51.7621
-175,568,2.47351,-52.4409,0.00338437,-0.0174625,0.00600544,0.00499062,-0.0190688,0.261348,0.014662,0.016376,1049,456,2.47356,52.4409
-168,568,2.47095,-52.9923,0.00364622,-0.018854,0.00680327,0.00554333,-0.0207511,0.271944,0.0160051,0.0225918,1056,456,2.47101,52.9923
-161,568,2.4541,-53.6252,0.00372529,-0.0206668,0.00793535,0.00607962,-0.0230211,0.288416,0.017725,0.0333692,1063,456,2.45409,53.6252
-154,568,2.55725,-54.5205,0.00383447,-0.0226195,0.00928223,0.00676647,-0.0255515,0.305954,0.0196815,0.0368713,1070,456,2.55723,54.5205
-147,568,2.59534,-55.0024,0.00394417,-0.0247687,0.0107897,0.00754669,-0.0283712,0.322248,0.0218682,0.0396784,1077,456,2.59536,55.0024
-140,568,2.54199,-55.4785,0.00347014,-0.0265893,0.0130899,0.00837126,-0.0314904,0.358262,0.0242701,0.045715,1084,456,2.54201,55.4784
-133,568,2.42529,-55.3479,0.00307797,-0.0279371,0.0159042,0.00978364,-0.0346428,0.399012,0.0269549,0.0476294,1091,456,2.42534,55.3479
-126,568,2.59583,-55.4886,0,0,0,0,0,0,0,-1,1098,456,2.59577,55.4886
-119,568,1.89978,-50.8443,0,0,0,0,0,0,0,-1,1105,456,1.89978,50.8443
-112,568,1.98242,-35.0942,0,0,0,0,0,0,0,-1,1112,456,1.98247,35.0942
-105,568,2.02454,-25.038,0,0,0,0,0,0,0,-1,1119,456,2.02459,25.038
-98,568,1.58618,-14.7874,0,0,0,0,0,0,0,-1,1126,456,1.58617,14.7874
-91,568,1.11621,-11.1853,0,0,0,0,0,0,0,-1,1133,456,1.11626,11.1853
-84,568,0.461792,-9.7959,0,0,0,0,0,0,0,-1,1140,456,0.461793,9.7959
-77,568,-1.13806,-8.57822,0,0,0,0,0,0,0,-1,1147,456,-1.13807,8.57821
-70,568,-4.09766,-1.42911,0,0,0,0,0,0,0,-1,1154,456,-4.09767,1.4291
-63,568,-5.92273,-3.70752,0,0,0,0,0,0,0,-1,1161,456,-5.92272,3.70751
-56,568,-5.24158,-6.01385,0,0,0,0,0,0,0,-1,1168,456,-5.24161,6.01386
-49,568,-5.24365,-8.33557,0,0,0,0,0,0,0,-1,1175,456,-5.24371,8.33557
-42,568,-0.664795,0.521973,0,0,0,0,0,0,0,-1,1182,456,-0.664829,-0.521984
-35,568,-0.153076,-1.67731,0,0,0,0,0,0,0,-1,1189,456,-0.153068,1.67731
-28,568,1.25439,-4.48798,0,0,0,0,0,0,0,-1,1196,456,1.2544,4.48797
-21,568,13.8694,-73.3303,0,0,0,0,0,0,0,-1,1203,456,13.8693,73.3302
-14,568,11.64,-60.7137,0,0,0,0,0,0,0,-1,1210,456,11.6401,60.7137
-7,568,11.4357,-61.5641,0,0,0,0,0,0,0,-1,1217,456,11.4356,61.5641
0,568,11.0826,-62.356,0,0,0,0,0,0,0,-1,1224,456,11.0826,62.356
7,568,10.6106,-62.8538,-0.0696443,-0.0845744,-0.059735,-0.0169097,-0.137309,-0.723236,0.0864558,0.0481888,1231,456,10.6106,62.8538
14,568,10.045,-63.0151,-0.0741787,-0.0857494,-0.0565965,-0.0230727,-0.136855,-0.734465,0.0846014,0.0450716,1238,456,10.045,63.0151
21,568,9.55713,-63.0374,0,0,0,0,0,0,0,-1,1245,456,9.55707,63.0373
28,568,8.93176,-63.0239,-0.0819071,-0.0892333,-0.0517211,-0.0337195,-0.137421,-0.750045,0.0826982,0.0425259,1252,456,8.93176,63.0239
35,568,8.21033,-63.0496,-0.0843135,-0.08971,-0.0499515,-0.0369874,-0.137036,-0.758416,0.0818626,0.0430569,1259,456,8.21032,63.0496
42,568,7.5697,-63.1293,-0.0853414,-0.0893525,-0.0489704,-0.0383355,-0.136358,-0.764932,0.0812017,0.0446891,1266,456,7.56971,63.1293
49,568,6.57629,-63.496,-0.0846991,-0.0870799,-0.0487809,-0.0370941,-0.134685,-0.773199,0.0803326,0.0454764,1273,456,6.57631,63.496
56,568,6.58533,-63.2293,-0.0827523,-0.0834353,-0.0501366,-0.0329561,-0.133232,-0.781992,0.0801276,0.0443926,1280,456,6.58533,63.2293
63,568,6.00928,-63.4969,-0.077156,-0.0727889,-0.0479345,-0.0269883,-0.122957,-0.808159,0.07462,0.0444697,1287,456,6.00929,63.497
70,568,5.59778,-64.0304,-0.0704976,-0.0574891,-0.0455648,-0.0179666,-0.11002,-0.856293,0.0681519,0.0440186,1294,456,5.5978,64.0304
77,568,5.35181,-64.7224,-0.0632722,-0.0391112,-0.0432456,-0.00629051,-0.0960929,-0.9216,0.0620714,0.0464121,1301,456,5.35177,64.7224
84,568,4.41858,-66.7689,-0.0571785,-0.0184364,-0.0419742,0.00842095,-0.0840359,-1.00159,0.0590315,0.044613,1308,456,4.41856,66.7689
91,568,4.08411,-67.2768,-0.0509482,0.000568122,-0.0408719,0.0231214,-0.0735015,-1.06657,0.0582581,0.0423323,1315,456,4.08413,67.2768
98,568,3.96802,-68.0402,-0.0457676,0.0218085,-0.0409045,0.0410753,-0.0650344,-1.1306,0.0617808,0.0439148,1322,456,3.96798,68.0401
105,568,2.97461,-68.8821,0,0,0,0,0,0,0,-1,1329,456,2.97462,68.8821
112,568,2.1134,-69.8816,-0.0371313,0.0624368,-0.0430389,0.0784615,-0.053156,-1.21437,0.0764562,0.0441942,1336,456,2.11337,69.8816
119,568,1.8894,-70.7759,-0.0342859,0.0824493,-0.0451244,0.0978583,-0.0496949,-1.24173,0.0866895,0.0450301,1343,456,1.88942,70.7759
126,568,1.81421,-71.691,-0.0341068,0.0989187,-0.0486998,0.114841,-0.0500296,-1.25479,0.0976092,0.0499204,1350,456,1.81425,71.691
133,568,1.66296,-72.6519,0,0,0,0,0,0,0,-1,1357,456,1.66297,72.6519
140,568,-3.43298,-73.7009,-0.0382651,0.125459,-0.0624373,0.146553,-0.0593584,-1.245,0.122384,0.0481457,1364,456,-3.43293,73.7009
147,568,-3.83203,-74.7216,-0.0424925,0.136026,-0.0714314,0.161089,-0.0675558,-1.23334,0.13564,0.0451784,1371,456,-3.83206,74.7216
154,568,-4.33765,-75.6429,-0.0460154,0.141389,-0.0796305,0.170655,-0.0752811,-1.2186,0.145507,0.0417563,1378,456,-4.33769,75.6429
161,568,-4.92273,-76.4814,0,0,0,0,0,0,0,-1,1385,456,-4.92278,76.4814
168,568,-11.53,-55.4321,0,0,0,0,0,0,0,-1,1392,456,-11.53,55.4321
175,568,10.5151,0.747498,0,0,0,0,0,0,0,-1,1399,456,10.5152,-0.747501
182,568,6.35095,-3.63361,0,0,0,0,0,0,0,-1,1406,456,6.35093,3.63359
189,568,6.17493,-1.70911,0,0,0,0,0,0,0,-1,1413,456,6.17497,1.70911
196,568,6.04724,0.200836,0,0,0,0,0,0,0,-1,1420,456,6.04724,-0.200835
203,568,5.9281,2.08649,0,0,0,0,0,0,0,-1,1427,456,5.92812,-2.08648
210,568,1.46216,-2.50446,0,0,0,0,0,0,0,-1,1434,456,1.46219,2.50446
217,568,2.62366,-7.86703,0,0,0,0,0,0,0,-1,1441,456,2.62365,7.86704
224,568,3.43494,-12.1555,0,0,0,0,0,0,0,-1,1448,456,3.43492,12.1555
231,568,4.38245,-9.3205,0,0,0,0,0,0,0,-1,1455,456,4.38244,9.32048
238,568,5.88879,-20.7448,0,0,0,0,0,0,0,-1,1462,456,5.88876,20.7449
245,568,3.34387,-10.6774,0,0,0,0,0,0,0,-1,1469,456,3.34389,10.6774
252,568,3.56946,-9.28928,0,0,0,0,0,0,0,-1,1476,456,3.56948,9.28928
259,568,3.38843,-8.73068,0,0,0,0,0,0,0,-1,1483,456,3.38842,8.73068
266,568,13.4253,-55.4973,0,0,0,0,0,0,0,-1,1490,456,13.4253,55.4972
273,568,13.4346,-54.9608,0,0,0,0,0,0,0,-1,1497,456,13.4345,54.9608
280,568,13.3948,-54.2656,0.00807612,-0.0135208,-0.00474794,0.00907383,-0.0145186,-0.207122,0.0137415,0.0377559,1504,456,13.3947,54.2656
287,568,13.3885,-53.452,0.00661317,-0.0142342,-0.00546101,0.00795706,-0.0155781,-0.241293,0.0138235,0.0277361,1511,456,13.3886,53.452
294,568,13.4233,-52.8217,0.00523677,-0.0138937,-0.00580444,0.00686016,-0.0155171,-0.272712,0.0132378,0.0241912,1518,456,13.4233,52.8217
301,568,13.4099,-52.1565,0.00402224,-0.013716,-0.00601583,0.00587,-0.0155638,-0.298003,0.0127897,0.0213703,1525,456,13.4099,52.1565
308,568,13.4099,-51.4745,0.00298357,-0.0128738,-0.00603605,0.00501972,-0.0149099,-0.325345,0.0119694,0.014848,1532,456,13.4099,51.4745
315,568,13.402,-50.8127,0.00209439,-0.0118354,-0.00586109,0.00423236,-0.0139733,-0.349775,0.0110012,0.00948841,1539,456,13.402,50.8127
322,568,13.3934,-50.0855,0.0014157,-0.0103802,-0.00538905,0.00350697,-0.0124714,-0.370171,0.00969703,0.0117742,1546,456,13.3935,50.0855
329,568,13.3894,-49.3264,0.00104049,-0.00872067,-0.00465887,0.00290714,-0.0105873,-0.38108,0.00820086,0.0121412,1553,456,13.3894,49.3264
336,568,13.3757,-48.5515,0.000655991,-0.00727798,-0.00405562,0.00236219,-0.00898418,-0.398223,0.00691272,0.0126321,1560,456,13.3758,48.5515
343,568,13.381,-47.7712,0.000476831,-0.00528451,-0.00307302,0.00180825,-0.00661593,-0.408847,0.00512092,0.0132058,1567,456,13.381,47.7712
350,568,13.3313,-47.0291,0.00059446,-0.00305122,-0.00188329,0.0013926,-0.00384936,-0.400854,0.00313529,0.0117855,1574,456,13.3313,47.0291
357,568,13.288,-46.2548,0.000772431,-0.00109187,-0.000741804,0.00103157,-0.00135101,-0.336087,0.0013797,0.0100606,1581,456,13.2879,46.2548
364,568,13.2788,-45.4746,0.00086375,0.000643383,0.000428615,0.00119612,0.000311016,0.659588,0.000716601,0.0118261,1588,456,13.2789,45.4746
371,568,13.219,-44.6783,0.00094083,0.0022573,0.00154231,0.00327596,-7.78317e-05,0.98709,0.00221038,0.0213822,1595,456,13.219,44.6783
378,568,13.1531,-43.8545,0.00095368,0.00391108,0.00252808,0.00536116,-0.000496401,1.05002,0.00375054,0.0198554,1602,456,13.1531,43.8545
385,568,13.0916,-43.0369,0.000865282,0.00528565,0.00322759,0.00698728,-0.000836347,1.08562,0.00496052,0.0105072,1609,456,13.0916,43.0369
392,568,13.0466,-42.2755,0.000817726,0.00637133,0.00386153,0.00835079,-0.00116174,1.09711,0.0059921,0.0116337,1616,456,13.0466,42.2755
399,568,12.9623,-41.5446,0.000823434,0.0072235,0.00447143,0.009522,-0.00147507,1.09598,0.00689251,0.0188649,1623,456,12.9623,41.5447
406,568,12.9329,-40.6322,0.000635327,0.0079687,0.00482126,0.0103592,-0.00175514,1.1105,0.00755938,0.0168416,1630,456,12.9329,40.6322
413,568,12.8967,-39.7045,0.000209795,0.00823101,0.00496657,0.0106041,-0.00216331,1.12505,0.00789,0.0122732,1637,456,12.8968,39.7045
420,568,12.8286,-38.8379,-0.000383616,0.00821814,0.00507318,0.0105682,-0.00273365,1.137,0.00811169,0.0114488,1644,456,12.8286,38.8379
427,568,12.7522,-37.9582,-0.00101051,0.00809574,0.00525926,0.010499,-0.00341373,1.14218,0.00837251,0.0147256,1651,456,12.7522,37.9582
434,568,12.7177,-37.0718,-0.00162909,0.00798819,0.00540923,0.0104171,-0.00405805,1.14874,0.00862189,0.0225591,1658,456,12.7176,37.0718
441,568,12.7104,-36.2837,-0.00253058,0.00749226,0.00544464,0.00988073,-0.00491905,1.15739,0.00870325,0.0306929,1665,456,12.7105,36.2837
448,568,12.851,-35.296,-0.00373719,0.00677625,0.00545872,0.00909783,-0.00605878,1.16867,0.00880911,0.0441558,1672,456,12.8509,35.296
455,568,12.8328,-34.2881,0,0,0,0,0,0,0,-1,1679,456,12.8328,34.2881
462,568,12.2657,-33.9756,0,0,0,0,0,0,0,-1,1686,456,12.2657,33.9756
469,568,11.9628,-32.888,0,0,0,0,0,0,0,-1,1693,456,11.9628,32.888
476,568,11.9573,-31.8094,0,0,0,0,0,0,0,-1,1700,456,11.9572,31.8095
483,568,10.9017,-29.747,0,0,0,0,0,0,0,-1,1707,456,10.9018,29.747
490,568,9.21021,-25.4427,0,0,0,0,0,0,0,-1,1714,456,9.21025,25.4427
497,568,9.19275,-22.8114,0,0,0,0,0,0,0,-1,1721,456,9.19273,22.8114
504,568,0,0,0,0,0,0,0,0,0,-1,1728,456,0,0
511,568,0,0,0,0,0,0,0,0,0,-1,1735,456,0,0
518,568,0,0,0,0,0,0,0,0,0,-1,1742,456,0,0
525,568,0,0,0,0,0,0,0,0,0,-1,1749,456,0,0
532,568,0,0,0,0,0,0,0,0,0,-1,1756,456,0,0
539,568,0,0,0,0,0,0,0,0,0,-1,1763,456,0,0
546,568,0,0,0,0,0,0,0,0,0,-1,1770,456,0,0
553,568,0,0,0,0,0,0,0,0,0,-1,1777,456,0,0
560,568,0,0,0,0,0,0,0,0,0,-1,1784,456,0,0
567,568,0,0,0,0,0,0,0,0,0,-1,1791,456,0,0
574,568,0,0,0,0,0,0,0,0,0,-1,1798,456,0,0
581,568,0,0,0,0,0,0,0,0,0,-1,1805,456,0,0
588,568,0,0,0,0,0,0,0,0,0,-1,1812,456,0,0
595,568,0,0,0,0,0,0,0,0,0,-1,1819,456,0,0
602,568,0,0,0,0,0,0,0,0,0,-1,1826,456,0,0
609,568,0,0,0,0,0,0,0,0,0,-1,1833,456,0,0
616,568,0,0,0,0,0,0,0,0,0,-1,1840,456,0,0
623,568,0,0,0,0,0,0,0,0,0,-1,1847,456,0,0
630,568,0,0,0,0,0,0,0,0,0,-1,1854,456,0,0
637,568,0,0,0,0,0,0,0,0,0,-1,1861,456,0,0
644,568,0,0,0,0,0,0,0,0,0,-1,1868,456,0,0
651,568,0,0,0,0,0,0,0,0,0,-1,1875,456,0,0
658,568,0,0,0,0,0,0,0,0,0,-1,1882,456,0,0
665,568,0,0,0,0,0,0,0,0,0,-1,1889,456,0,0
672,568,0,0,0,0,0,0,0,0,0,-1,1896,456,0,0
679,568,0,0,0,0,0,0,0,0,0,-1,1903,456,0,0
686,568,0,0,0,0,0,0,0,0,0,-1,1910,456,0,0
693,568,0,0,0,0,0,0,0,0,0,-1,1917,456,0,0
700,568,0,0,0,0,0,0,0,0,0,-1,1924,456,0,0
707,568,0,0,0,0,0,0,0,0,0,-1,1931,456,0,0
714,568,0,0,0,0,0,0,0,0,0,-1,1938,456,0,0
721,568,0,0,0,0,0,0,0,0,0,-1,1945,456,0,0
728,568,0,0,0,0,0,0,0,0,0,-1,1952,456,0,0
735,568,0,0,0,0,0,0,0,0,0,-1,1959,456,0,0
742,568,0,0,0,0,0,0,0,0,0,-1,1966,456,0,0
749,568,0,0,0,0,0,0,0,0,0,-1,1973,456,0,0
756,568,0,0,0,0,0,0,0,0,0,-1,1980,456,0,0
763,568,0,0,0,0,0,0,0,0,0,-1,1987,456,0,0
770,568,0,0,0,0,0,0,0,0,0,-1,1994,456,0,0
777,568,0,0,0,0,0,0,0,0,0,-1,2001,456,0,0
784,568,0,0,0,0,0,0,0,0,0,-1,2008,456,0,0
791,568,0,0,0,0,0,0,0,0,0,-1,2015,456,0,0
798,568,0,0,0,0,0,0,0,0,0,-1,2022,456,0,0
805,568,0,0,0,0,0,0,0,0,0,-1,2029,456,0,0
812,568,0,0,0,0,0,0,0,0,0,-1,2036,456,0,0
-700,561,0,0,0,0,0,0,0,0,0,-1,524,463,0,0
-693,561,0,0,0,0,0,0,0,0,0,-1,531,463,0,0
-686,561,0,0,0,0,0,0,0,0,0,-1,538,463,0,0
-679,561,0,0,0,0,0,0,0,0,0,-1,545,463,0,0
-672,561,0,0,0,0,0,0,0,0,0,-1,552,463,0,0
-665,561,0,0,0,0,0,0,0,0,0,-1,559,463,0,0
-658,561,0,0,0,0,0,0,0,0,0,-1,566,463,0,0
-651,561,0,0,0,0,0,0,0,0,0,-1,573,463,0,0
-644,561,0,0,0,0,0,0,0,0,0,-1,580,463,0,0
-637,561,0,0,0,0,0,0,0,0,0,-1,587,463,0,0
-630,561,0,0,0,0,0,0,0,0,0,-1,594,463,0,0
-623,561,0,0,0,0,0,0,0,0,0,-1,601,463,0,0
-616,561,0,0,0,0,0,0,0,0,0,-1,608,463,0,0
-609,561,0,0,0,0,0,0,0,0,0,-1,615,463,0,0
-602,561,0,0,0,0,0,0,0,0,0,-1,622,463,0,0
-595,561,0,0,0,0,0,0,0,0,0,-1,629,463,0,0
-588,561,0,0,0,0,0,0,0,0,0,-1,636,463,0,0
-581,561,0,0,0,0,0,0,0,0,0,-1,643,463,0,0
-574,561,0,0,0,0,0,0,0,0,0,-1,650,463,0,0
-567,561,0,0,0,0,0,0,0,0,0,-1,657,463,0,0
-560,561,0,0,0,0,0,0,0,0,0,-1,664,463,0,0
-553,561,0,0,0,0,0,0,0,0,0,-1,671,463,0,0
-546,561,0,0,0,0,0,0,0,0,0,-1,678,463,0,0
-539,561,0,0,0,0,0,0,0,0,0,-1,685,463,0,0
-532,561,0,0,0,0,0,0,0,0,0,-1,692,463,0,0
-525,561,0,0,0,0,0,0,0,0,0,-1,699,463,0,0
-518,561,0,0,0,0,0,0,0,0,0,-1,706,463,0,0
-511,561,0,0,0,0,0,0,0,0,0,-1,713,463,0,0
-504,561,0,0,0,0,0,0,0,0,0,-1,720,463,0,0
-497,561,0,0,0,0,0,0,0,0,0,-1,727,463,0,0
-490,561,0,0,0,0,0,0,0,0,0,-1,734,463,0,0
-483,561,0,0,0,0,0,0,0,0,0,-1,741,463,0,0
-476,561,0,0,0,0,0,0,0,0,0,-1,748,463,0,0
-469,561,0,0,0,0,0,0,0,0,0,-1,755,463,0,0
-462,561,0,0,0,0,0,0,0,0,0,-1,762,463,0,0
-455,561,0,0,0,0,0,0,0,0,0,-1,769,463,0,0
-448,561,0,0,0,0,0,0,0,0,0,-1,776,463,0,0
-441,561,0,0,0,0,0,0,0,0,0,-1,783,463,0,0
-434,561,0,0,0,0,0,0,0,0,0,-1,790,463,0,0
-427,561,0,0,0,0,0,0,0,0,0,-1,797,463,0,0
-420,561,0,0,0,0,0,0,0,0,0,-1,804,463,0,0
-413,561,0,0,0,0,0,0,0,0,0,-1,811,463,0,0
-406,561,0,0,0,0,0,0,0,0,0,-1,818,463,0,0
-399,561,0,0,0,0,0,0,0,0,0,-1,825,463,0,0
-392,561,4.92407,-2.54578,0,0,0,0,0,0,0,-1,832,463,4.92408,2.54576
-385,561,5.55634,-1.02338,0,0,0,0,0,0,0,-1,839,463,5.55634,1.02338
-378,561,0.160522,-4.51785,0,0,0,0,0,0,0,-1,846,463,0.160542,4.51785
-371,561,2.62524,-27.795,0,0,0,0,0,0,0,-1,853,463,2.62525,27.7949
-364,561,4.14691,-28.3236,0,0,0,0,0,0,0,-1,860,463,4.14693,28.3236
-357,561,2.16742,-23.5582,0,0,0,0,0,0,0,-1,867,463,2.1674,23.5582
-350,561,1.33124,-11.9406,0,0,0,0,0,0,0,-1,874,463,1.33127,11.9406
-343,561,1.13214,-14.1837,0,0,0,0,0,0,0,-1,881,463,1.13217,14.1837
-336,561,2.79272,-33.9113,0,0,0,0,0,0,0,-1,888,463,2.79275,33.9114
-329,561,2.5412,-34.9431,0,0,0,0,0,0,0,-1,895,463,2.54123,34.9431
-322,561,2.80524,-35.3752,0,0,0,0,0,0,0,-1,902,463,2.80526,35.3752
-315,561,2.59393,-36.2548,-0.00329524,0.0162789,-0.00737131,0.0187443,-0.00576064,-1.24803,0.0147951,0.0385069,909,463,2.59394,36.2548
-308,561,2.41492,-37.2705,-0.00279278,0.0139274,-0.00633817,0.0160585,-0.0049238,-1.24645,0.0126699,0.0311461,916,463,2.41491,37.2706
-301,561,2.30994,-38.3823,-0.0021681,0.0117718,-0.00552694,0.0136972,-0.00409351,-1.23558,0.0107587,0.0179628,923,463,2.30991,38.3823
-294,561,2.24255,-39.2544,-0.00161482,0.00965882,-0.00469659,0.011359,-0.00331501,-1.22347,0.00888623,0.0121341,930,463,2.24255,39.2544
-287,561,2.18329,-40.0946,-0.00112937,0.00789688,-0.00395949,0.00938758,-0.00262006,-1.21072,0.0072904,0.0103775,937,463,2.18327,40.0947
-280,561,2.10339,-40.9309,-0.000642155,0.00644007,-0.00338141,0.00779522,-0.00199731,-1.18963,0.00597492,0.0129819,944,463,2.10341,40.9309
-273,561,2.0257,-41.732,-0.000297322,0.00483871,-0.00274871,0.00603235,-0.00149097,-1.16111,0.00459982,0.015915,951,463,2.02567,41.732
-266,561,1.995,-42.5281,-1.82797e-05,0.00312992,-0.00202396,0.00411984,-0.0010082,-1.11591,0.0031371,0.0103296,958,463,1.99502,42.5281
-259,561,1.96088,-43.3661,0.000262941,0.00114277,-0.00122169,0.00200134,-0.000595627,-0.958214,0.00157087,0.0108082,965,463,1.96087,43.3661
-252,561,1.92426,-44.1727,0.000459086,-0.000726312,-0.000234207,0.000503683,-0.000770908,-0.188161,0.000741257,0.0148452,972,463,1.92425,44.1727
-245,561,1.86481,-44.9431,0.000748996,-0.00260487,0.000758116,0.000912401,-0.00276828,0.212293,0.00221325,0.0167139,979,463,1.86478,44.9431
-238,561,1.82953,-45.7346,0.00109276,-0.00474753,0.00167807,0.00154058,-0.00519535,0.260786,0.00407534,0.0136528,986,463,1.82954,45.7346
-231,561,1.7774,-46.5314,0.00128418,-0.00694847,0.00261785,0.0020461,-0.00771039,0.283223,0.00594093,0.01219,993,463,1.77739,46.5314
-224,561,1.72217,-47.2999,0.0014735,-0.00912156,0.0035797,0.00256956,-0.0102176,0.297126,0.00781046,0.0119102,1000,463,1.72219,47.2999
-217,561,1.72601,-48.0649,0.00172995,-0.0113507,0.0044604,0.00310612,-0.0127269,0.299266,0.00968741,0.0128772,1007,463,1.72603,48.0649
-210,561,1.72308,-48.8209,0.00203915,-0.0136101,0.00517363,0.00359488,-0.0151659,0.292103,0.0114978,0.0132179,1014,463,1.72311,48.8209
-203,561,1.72076,-49.55,0.00241715,-0.0155168,0.00567769,0.00406351,-0.0171631,0.28223,0.0130099,0.0142557,1021,463,1.72077,49.55
-196,561,1.64038,-50.2148,0.00280551,-0.0172714,0.00604794,0.00448662,-0.0189525,0.27112,0.014366,0.0179753,1028,463,1.6404,50.2148
-189,561,1.73511,-50.8851,0.00306276,-0.0188328,0.00654299,0.00486899,-0.020639,0.269347,0.0156371,0.025225,1035,463,1.73513,50.8851
-182,561,1.85974,-51.5443,0.0031921,-0.0213544,0.00759733,0.00535326,-0.0235155,0.277142,0.0177329,0.0287398,1042,463,1.85977,51.5443
-175,561,1.71082,-52.2079,0.00348623,-0.0227852,0.0083312,0.00590544,-0.0252044,0.282608,0.0190785,0.0437081,1049,463,1.71082,52.2079
-168,561,1.75098,-52.6875,0,0,0,0,0,0,0,-1,1056,463,1.75092,52.6875
-161,561,1.79639,-53.3677,0,0,0,0,0,0,0,-1,1063,463,1.7964,53.3677
-154,561,2.07239,-54.6448,0,0,0,0,0,0,0,-1,1070,463,2.07243,54.6448
-147,561,2.00464,-54.92,0,0,0,0,0,0,0,-1,1077,463,2.0046,54.92
-140,561,2.00244,-55.2991,0,0,0,0,0,0,0,-1,1084,463,2.00246,55.2991
-133,561,1.61719,-54.654,0,0,0,0,0,0,0,-1,1091,463,1.61716,54.654
-126,561,1.77014,-49.4318,0,0,0,0,0,0,0,-1,1098,463,1.7702,49.4318
-119,561,-0.336304,-35.422,0,0,0,0,0,0,0,-1,1105,463,-0.336245,35.422
-112,561,1.24365,-29.1982,0,0,0,0,0,0,0,-1,1112,463,1.2437,29.1981
-105,561,0.530518,-13.5379,0,0,0,0,0,0,0,-1,1119,463,0.530477,13.5379
-98,561,1.5387,-7.54352,0,0,0,0,0,0,0,-1,1126,463,1.53871,7.54351
-91,561,1.29553,-6.57968,0,0,0,0,0,0,0,-1,1133,463,1.29549,6.5797
-84,561,1.23364,-5.84555,0,0,0,0,0,0,0,-1,1140,463,1.23363,5.84556
-77,561,-2.36023,1.00204,0,0,0,0,0,0,0,-1,1147,463,-2.3602,-1.00205
-70,561,-3.90015,-1.41541,0,0,0,0,0,0,0,-1,1154,463,-3.90009,1.4154
-63,561,-6.95691,-4.02756,0,0,0,0,0,0,0,-1,1161,463,-6.95696,4.02756
-56,561,-5.37988,-6.66855,0,0,0,0,0,0,0,-1,1168,463,-5.37988,6.66854
-49,561,-5.7439,-9.11029,0,0,0,0,0,0,0,-1,1175,463,-5.74387,9.1103
-42,561,-1.72644,-5.63065,0,0,0,0,0,0,0,-1,1182,463,-1.72648,5.63064
-35,561,-1.65674,-4.87994,0,0,0,0,0,0,0,-1,1189,463,-1.6567,4.87993
-28,561,-1.91418,-3.86896,0,0,0,0,0,0,0,-1,1196,463,-1.91414,3.86895
-21,561,15.1812,-72.9163,0,0,0,0,0,0,0,-1,1203,463,15.1811,72.9163
-14,561,14.6139,-72.0037,0,0,0,0,0,0,0,-1,1210,463,14.6138,72.0037
-7,561,12.759,-60.6403,0,0,0,0,0,0,0,-1,1217,463,12.759,60.6403
0,561,12.2136,-61.3879,0,0,0,0,0,0,0,-1,1224,463,12.2136,61.3879
7,561,11.5134,-62.014,-0.0778752,-0.0964358,-0.0721881,-0.0143733,-0.159938,-0.72147,0.102172,0.0454568,1231,463,11.5135,62.014
14,561,10.9414,-62.3062,-0.0829876,-0.0975382,-0.0678698,-0.0220043,-0.158521,-0.732004,0.0991634,0.0419458,1238,463,10.9414,62.3062
21,561,10.4867,-62.1141,0,0,0,0,0,0,0,-1,1245,463,10.4867,62.1141
28,561,9.71606,-61.9622,0,0,0,0,0,0,0,-1,1252,463,9.71612,61.9621
35,561,9.25928,-62.1271,0,0,0,0,0,0,0,-1,1259,463,9.25928,62.1271
42,561,8.62231,-62.1458,-0.0941325,-0.101934,-0.0549428,-0.0429521,-0.153114,-0.74996,0.0911953,0.0434578,1266,463,8.62229,62.1457
49,561,7.87122,-62.1553,-0.093264,-0.0987013,-0.0534233,-0.0424902,-0.149475,-0.759976,0.0889369,0.0451975,1273,463,7.87117,62.1553
56,561,7.17725,-62.1654,-0.0908531,-0.0934265,-0.0534444,-0.0386798,-0.1456,-0.773363,0.0870852,0.042582,1280,463,7.17727,62.1654
63,561,6.32715,-62.3983,-0.0841133,-0.0795065,-0.0488678,-0.0328879,-0.130732,-0.808948,0.0785224,0.0446869,1287,463,6.32709,62.3983
70,561,6.05591,-63.0259,0,0,0,0,0,0,0,-1,1294,463,6.05595,63.0259
77,561,5.85193,-63.7363,0,0,0,0,0,0,0,-1,1301,463,5.85189,63.7363
84,561,4.29492,-68.0109,-0.0636214,-0.00943048,-0.0401245,0.0118904,-0.0849423,-1.08237,0.0609793,0.0425242,1308,463,4.29494,68.0109
91,561,3.85645,-67.7371,-0.0572722,0.0133896,-0.0390205,0.0306978,-0.0745804,-1.15331,0.0625177,0.043814,1315,463,3.85643,67.7371
98,561,3.97058,-68.3459,0,0,0,0,0,0,0,-1,1322,463,3.97057,68.3459
105,561,1.37146,-69.417,0,0,0,0,0,0,0,-1,1329,463,1.37142,69.417
112,561,1.08215,-70.3132,-0.0438323,0.0833849,-0.042123,0.0960679,-0.0565153,-1.27834,0.0890751,0.0467423,1336,463,1.0822,70.3132
119,561,0.88562,-71.0307,-0.0411145,0.105243,-0.0452471,0.118102,-0.0539731,-1.29391,0.101621,0.0446975,1343,463,0.885652,71.0307
126,561,0.69043,-72.0018,-0.0418711,0.122665,-0.0504093,0.136881,-0.0560869,-1.29593,0.114619,0.0447524,1350,463,0.690369,72.0018
133,561,0.149292,-73.0639,0,0,0,0,0,0,0,-1,1357,463,0.149242,73.0639
140,561,-2.55945,-75.2087,0,0,0,0,0,0,0,-1,1364,463,-2.55945,75.2088
147,561,-3.36108,-75.9266,-0.0552485,0.165496,-0.0821907,0.192737,-0.0824893,-1.25076,0.163096,0.0430949,1371,463,-3.36112,75.9266
154,561,-3.99683,-76.5724,-0.0600947,0.172149,-0.0946123,0.205813,-0.0937586,-1.22896,0.176945,0.0402607,1378,463,-3.99678,76.5725
161,561,-3.97131,-77.7562,0,0,0,0,0,0,0,-1,1385,463,-3.97132,77.7562
168,561,-10.8822,-56.4584,0,0,0,0,0,0,0,-1,1392,463,-10.8822,56.4584
175,561,10.4185,0.276398,0,0,0,0,0,0,0,-1,1399,463,10.4185,-0.276394
182,561,6.45703,-4.02127,0,0,0,0,0,0,0,-1,1406,463,6.45704,4.02127
189,561,6.50854,-2.08685,0,0,0,0,0,0,0,-1,1413,463,6.50851,2.08686
196,561,6.44775,-0.27182,0,0,0,0,0,0,0,-1,1420,463,6.44773,0.271814
203,561,6.18591,1.1301,0,0,0,0,0,0,0,-1,1427,463,6.18592,-1.13009
210,561,5.68713,2.68427,0,0,0,0,0,0,0,-1,1434,463,5.6871,-2.68425
217,561,3.61743,-7.33582,0,0,0,0,0,0,0,-1,1441,463,3.61738,7.33581
224,561,4.27466,-8.59171,0,0,0,0,0,0,0,-1,1448,463,4.27466,8.59171
231,561,4.93188,-9.8476,0,0,0,0,0,0,0,-1,1455,463,4.93193,9.84761
238,561,2.18018,-5.18359,0,0,0,0,0,0,0,-1,1462,463,2.18023,5.18359
245,561,3.07568,-3.50238,0,0,0,0,0,0,0,-1,1469,463,3.0757,3.50238
252,561,3.47412,-3.71109,0,0,0,0,0,0,0,-1,1476,463,3.47413,3.71109
259,561,3.42212,-3.2334,0,0,0,0,0,0,0,-1,1483,463,3.42214,3.2334
266,561,4.44373,-5.90027,0,0,0,0,0,0,0,-1,1490,463,4.44372,5.90026
273,561,14.0209,-55.4636,0,0,0,0,0,0,0,-1,1497,463,14.0209,55.4636
280,561,14.23,-54.3714,0.00970019,-0.0186874,-0.00603215,0.0109288,-0.019916,-0.200929,0.0180585,0.0488676,1504,463,14.23,54.3714
287,561,14.4313,-53.2143,0.00773799,-0.0194881,-0.00715521,0.00950389,-0.021254,-0.241964,0.0181849,0.0447986,1511,463,14.4313,53.2143
294,561,14.4316,-52.2949,0.00589522,-0.0189305,-0.00780078,0.0081429,-0.0211782,-0.280536,0.0174773,0.0397292,1518,463,14.4317,52.2948
301,561,14.0524,-51.7621,0.00436123,-0.01882,-0.00827462,0.00701181,-0.0214706,-0.309999,0.0171361,0.0383648,1525,463,14.0524,51.7622
308,561,14.1129,-51.2696,0.00306181,-0.0177907,-0.00847572,0.00607224,-0.0208012,-0.341284,0.0162736,0.0283423,1532,463,14.1129,51.2696
315,561,14.1675,-50.7365,0.00198285,-0.0165258,-0.00837115,0.00520726,-0.0197502,-0.367666,0.0152028,0.0164639,1539,463,14.1674,50.7365
322,561,14.142,-50.0442,0.0012159,-0.0148222,-0.00789754,0.00445191,-0.0180582,-0.388883,0.0137649,0.0169203,1546,463,14.142,50.0442
329,561,14.1527,-49.2808,0.00084268,-0.0128543,-0.00708558,0.00384849,-0.0158601,-0.401206,0.0120627,0.0134997,1553,463,14.1527,49.2808
336,561,14.1576,-48.496,0.000396486,-0.0112946,-0.00649113,0.00328622,-0.0141844,-0.41884,0.0107209,0.0128726,1560,463,14.1576,48.496
343,561,14.1345,-47.7567,0.000217842,-0.00907378,-0.00541579,0.00270746,-0.0115634,-0.430888,0.00875214,0.0118588,1567,463,14.1345,47.7568
350,561,14.0894,-46.9934,0.000443944,-0.00662273,-0.00408579,0.00231229,-0.00849107,-0.42889,0.00656857,0.011572,1574,463,14.0894,46.9934
357,561,14.0596,-46.1942,0.000728092,-0.00449373,-0.00283031,0.00196783,-0.00573347,-0.412849,0.00462012,0.0112265,1581,463,14.0596,46.1942
364,561,14.0363,-45.4381,0.000869793,-0.00263406,-0.00154244,0.00145204,-0.0032163,-0.360947,0.00275868,0.00978888,1588,463,14.0362,45.4381
371,561,13.9688,-44.6401,0.00100676,-0.000898368,-0.000320378,0.00105919,-0.000950801,-0.162224,0.00116103,0.0156667,1595,463,13.9688,44.6401
378,561,13.9127,-43.8176,0.00109258,0.000907246,0.000775578,0.00178101,0.000218819,0.72594,0.00112154,0.0122869,1602,463,13.9127,43.8176
385,561,13.9055,-42.9954,0.00106267,0.00239859,0.00159029,0.0034555,5.75674e-06,0.984223,0.00230175,0.0118743,1609,463,13.9055,42.9954
392,561,13.8718,-42.1904,0.00105971,0.00363121,0.00236572,0.005038,-0.000347086,1.03431,0.00348014,0.0160662,1616,463,13.8719,42.1904
399,561,13.8019,-41.4018,0.00104248,0.0045385,0.00300378,0.00626587,-0.000684879,1.04891,0.00442325,0.0213138,1623,463,13.8019,41.4018
406,561,13.7645,-40.5543,0.000849316,0.0054489,0.00341659,0.00726761,-0.000969402,1.08163,0.00519843,0.0188445,1630,463,13.7645,40.5543
413,561,13.7263,-39.6638,0.000466395,0.00582611,0.00363859,0.0076652,-0.0013727,1.1028,0.00562383,0.0174047,1637,463,13.7263,39.6639
420,561,13.6431,-38.8085,-4.68728e-05,0.005938,0.00380349,0.00778511,-0.00189399,1.11871,0.00592322,0.0145006,1644,463,13.6431,38.8085
427,561,13.6021,-37.9307,-0.000609364,0.00594073,0.00401535,0.00784728,-0.00251592,1.1275,0.00624154,0.0110397,1651,463,13.602,37.9307
434,561,13.5676,-37.0558,-0.00115735,0.00591087,0.004212,0.00787502,-0.0031215,1.13445,0.00654359,0.0129274,1658,463,13.5676,37.0559
441,561,13.5443,-36.2107,-0.00190599,0.00570098,0.00439386,0.0077089,-0.00391392,1.14215,0.00682863,0.0158137,1665,463,13.5443,36.2107
448,561,13.4896,-35.2534,-0.00286547,0.00534795,0.00457979,0.00739262,-0.00491014,1.15089,0.00715104,0.023021,1672,463,13.4896,35.2534
455,561,13.4642,-34.2873,-0.00402457,0.00485884,0.00489329,0.00702569,-0.00619141,1.15393,0.00763596,0.044718,1679,463,13.4642,34.2873
462,561,13.3108,-33.6165,-0.00537406,0.00477137,0.00535809,0.00707711,-0.0076798,1.16442,0.00852227,0.0405645,1686,463,13.3107,33.6165
469,561,13.0405,-32.7795,-0.0068504,0.00488276,0.00596189,0.00738044,-0.00934809,1.17407,0.00968046,0.0256067,1693,463,13.0405,32.7795
476,561,12.8374,-31.802,-0.00850883,0.00499737,0.00660906,0.00769329,-0.0112048,1.18349,0.0109734,0.0440746,1700,463,12.8375,31.802
483,561,12.6288,-30.8334,0,0,0,0,0,0,0,-1,1707,463,12.6288,30.8334
490,561,10.2549,-20.4551,0,0,0,0,0,0,0,-1,1714,463,10.2548,20.4551
497,561,11.7618,-20.3894,0,0,0,0,0,0,0,-1,1721,463,11.7618,20.3894
504,561,12.9351,-20.1285,0,0,0,0,0,0,0,-1,1728,463,12.935,20.1285
511,561,0,0,0,0,0,0,0,0,0,-1,1735,463,0,0
518,561,0,0,0,0,0,0,0,0,0,-1,1742,463,0,0
525,561,0,0,0,0,0,0,0,0,0,-1,1749,463,0,0
532,561,0,0,0,0,0,0,0,0,0,-1,1756,463,0,0
539,561,0,0,0,0,0,0,0,0,0,-1,1763,463,0,0
546,561,0,0,0,0,0,0,0,0,0,-1,1770,463,0,0
553,561,0,0,0,0,0,0,0,0,0,-1,1777,463,0,0
560,561,0,0,0,0,0,0,0,0,0,-1,1784,463,0,0
567,561,0,0,0,0,0,0,0,0,0,-1,1791,463,0,0
574,561,0,0,0,0,0,0,0,0,0,-1,1798,463,0,0
581,561,0,0,0,0,0,0,0,0,0,-1,1805,463,0,0
588,561,0,0,0,0,0,0,0,0,0,-1,1812,463,0,0
595,561,0,0,0,0,0,0,0,0,0,-1,1819,463,0,0
602,561,0,0,0,0,0,0,0,0,0,-1,1826,463,0,0
609,561,0,0,0,0,0,0,0,0,0,-1,1833,463,0,0
616,561,0,0,0,0,0,0,0,0,0,-1,1840,463,0,0
623,561,0,0,0,0,0,0,0,0,0,-1,1847,463,0,0
630,561,0,0,0,0,0,0,0,0,0,-1,1854,463,0,0
637,561,0,0,0,0,0,0,0,0,0,-1,1861,463,0,0
644,561,0,0,0,0,0,0,0,0,0,-1,1868,463,0,0
651,561,0,0,0,0,0,0,0,0,0,-1,1875,463,0,0
658,561,0,0,0,0,0,0,0,0,0,-1,1882,463,0,0
665,561,0,0,0,0,0,0,0,0,0,-1,1889,463,0,0
672,561,0,0,0,0,0,0,0,0,0,-1,1896,463,0,0
679,561,0,0,0,0,0,0,0,0,0,-1,1903,463,0,0
686,561,0,0,0,0,0,0,0,0,0,-1,1910,463,0,0
693,561,0,0,0,0,0,0,0,0,0,-1,1917,463,0,0
700,561,0,0,0,0,0,0,0,0,0,-1,1924,463,0,0
707,561,0,0,0,0,0,0,0,0,0,-1,1931,463,0,0
714,561,0,0,0,0,0,0,0,0,0,-1,1938,463,0,0
721,561,0,0,0,0,0,0,0,0,0,-1,1945,463,0,0
728,561,0,0,0,0,0,0,0,0,0,-1,1952,463,0,0
735,561,0,0,0,0,0,0,0,0,0,-1,1959,463,0,0
742,561,0,0,0,0,0,0,0,0,0,-1,1966,463,0,0
749,561,0,0,0,0,0,0,0,0,0,-1,1973,463,0,0
756,561,0,0,0,0,0,0,0,0,0,-1,1980,463,0,0
763,561,0,0,0,0,0,0,0,0,0,-1,1987,463,0,0
770,561,0,0,0,0,0,0,0,0,0,-1,1994,463,0,0
777,561,0,0,0,0,0,0,0,0,0,-1,2001,463,0,0
784,561,0,0,0,0,0,0,0,0,0,-1,2008,463,0,0
791,561,0,0,0,0,0,0,0,0,0,-1,2015,463,0,0
798,561,0,0,0,0,0,0,0,0,0,-1,2022,463,0,0
805,561,0,0,0,0,0,0,0,0,0,-1,2029,463,0,0
812,561,0,0,0,0,0,0,0,0,0,-1,2036,463,0,0
-700,554,0,0,0,0,0,0,0,0,0,-1,524,470,0,0
-693,554,0,0,0,0,0,0,0,0,0,-1,531,470,0,0
-686,554,0,0,0,0,0,0,0,0,0,-1,538,470,0,0
-679,554,0,0,0,0,0,0,0,0,0,-1,545,470,0,0
-672,554,0,0,0,0,0,0,0,0,0,-1,552,470,0,0
-665,554,0,0,0,0,0,0,0,0,0,-1,559,470,0,0
-658,554,0,0,0,0,0,0,0,0,0,-1,566,470,0,0
-651,554,0,0,0,0,0,0,0,0,0,-1,573,470,0,0
-644,554,0,0,0,0,0,0,0,0,0,-1,580,470,0,0
-637,554,0,0,0,0,0,0,0,0,0,-1,587,470,0,0
-630,554,0,0,0,0,0,0,0,0,0,-1,594,470,0,0
-623,554,0,0,0,0,0,0,0,0,0,-1,601,470,0,0
-616,554,0,0,0,0,0,0,0,0,0,-1,608,470,0,0
-609,554,0,0,0,0,0,0,0,0,0,-1,615,470,0,0
-602,554,0,0,0,0,0,0,0,0,0,-1,622,470,0,0
-595,554,0,0,0,0,0,0,0,0,0,-1,629,470,0,0
-588,554,0,0,0,0,0,0,0,0,0,-1,636,470,0,0
-581,554,0,0,0,0,0,0,0,0,0,-1,643,470,0,0
-574,554,0,0,0,0,0,0,0,0,0,-1,650,470,0,0
-567,554,0,0,0,0,0,0,0,0,0,-1,657,470,0,0
-560,554,0,0,0,0,0,0,0,0,0,-1,664,470,0,0
-553,554,0,0,0,0,0,0,0,0,0,-1,671,470,0,0
-546,554,0,0,0,0,0,0,0,0,0,-1,678,470,0,0
-539,554,0,0,0,0,0,0,0,0,0,-1,685,470,0,0
-532,554,0,0,0,0,0,0,0,0,0,-1,692,470,0,0
-525,554,0,0,0,0,0,0,0,0,0,-1,699,470,0,0
-518,554,0,0,0,0,0,0,0,0,0,-1,706,470,0,0
-511,554,0,0,0,0,0,0,0,0,0,-1,713,470,0,0
-504,554,0,0,0,0,0,0,0,0,0,-1,720,470,0,0
-497,554,0,0,0,0,0,0,0,0,0,-1,727,470,0,0
-490,554,0,0,0,0,0,0,0,0,0,-1,734,470,0,0
-483,554,0,0,0,0,0,0,0,0,0,-1,741,470,0,0
-476,554,0,0,0,0,0,0,0,0,0,-1,748,470,0,0
-469,554,0,0,0,0,0,0,0,0,0,-1,755,470,0,0
-462,554,0,0,0,0,0,0,0,0,0,-1,762,470,0,0
-455,554,0,0,0,0,0,0,0,0,0,-1,769,470,0,0
-448,554,0,0,0,0,0,0,0,0,0,-1,776,470,0,0
-441,554,0,0,0,0,0,0,0,0,0,-1,783,470,0,0
-434,554,0,0,0,0,0,0,0,0,0,-1,790,470,0,0
-427,554,0,0,0,0,0,0,0,0,0,-1,797,470,0,0
-420,554,0,0,0,0,0,0,0,0,0,-1,804,470,0,0
-413,554,0,0,0,0,0,0,0,0,0,-1,811,470,0,0
-406,554,0,0,0,0,0,0,0,0,0,-1,818,470,0,0
-399,554,-1.32275,-3.95142,0,0,0,0,0,0,0,-1,825,470,-1.32275,3.95141
-392,554,-1.35632,-3.7406,0,0,0,0,0,0,0,-1,832,470,-1.35632,3.7406
-385,554,3.35229,-26.2258,0,0,0,0,0,0,0,-1,839,470,3.35228,26.2258
-378,554,3.22717,-26.7279,0,0,0,0,0,0,0,-1,846,470,3.22719,26.7279
-371,554,3.1283,-27.7664,0,0,0,0,0,0,0,-1,853,470,3.12828,27.7664
-364,554,2.94336,-28.6333,0,0,0,0,0,0,0,-1,860,470,2.94334,28.6333
-357,554,2.74353,-29.5953,0,0,0,0,0,0,0,-1,867,470,2.74353,29.5953
-350,554,1.17157,-18.1341,0,0,0,0,0,0,0,-1,874,470,1.17156,18.1341
-343,554,2.00677,-32.7526,0,0,0,0,0,0,0,-1,881,470,2.0068,32.7526
-336,554,1.90851,-33.9453,-0.00255347,0.0209499,-0.0109409,0.0252545,-0.00685811,-1.19595,0.019528,0.0417059,888,470,1.90848,33.9453
-329,554,1.7207,-34.8658,-0.00261406,0.0178053,-0.00894482,0.0211694,-0.00597815,-1.21107,0.0164713,0.023403,895,470,1.72072,34.8658
-322,554,1.60138,-35.7576,-0.00271641,0.0150259,-0.00717092,0.0175617,-0.00525226,-1.23089,0.0137959,0.0174111,902,470,1.60136,35.7576
-315,554,1.57739,-36.5981,-0.00260656,0.0126008,-0.0058072,0.0145647,-0.00457052,-1.24468,0.0115391,0.0161248,909,470,1.57739,36.5981
-308,554,1.51904,-37.4786,-0.00222113,0.0106194,-0.00483563,0.0122367,-0.00383848,-1.24803,0.00969401,0.0154997,916,470,1.51906,37.4786
-301,554,1.4726,-38.3668,-0.00170818,0.00877181,-0.00406362,0.0101628,-0.00309922,-1.24098,0.0080107,0.0154668,923,470,1.47262,38.3668
-294,554,1.40601,-39.2246,-0.00121164,0.00692351,-0.00327121,0.0080757,-0.00236383,-1.23214,0.00632084,0.0132069,930,470,1.40603,39.2246
-287,554,1.35461,-40.0694,-0.00075189,0.0053338,-0.00256554,0.00627102,-0.00168911,-1.22055,0.00484292,0.0127984,937,470,1.3546,40.0694
-280,554,1.28351,-40.8942,-0.000335947,0.0037947,-0.00197181,0.00458482,-0.00112607,-1.18968,0.00349294,0.0119239,944,470,1.28348,40.8942
-273,554,1.20551,-41.7009,-5.25666e-05,0.00205888,-0.00128908,0.00266937,-0.000663061,-1.1285,0.0020369,0.0151892,951,470,1.2055,41.7009
-266,554,1.16083,-42.5126,0.000207362,0.000238206,-0.000515704,0.000738718,-0.00029315,-0.800346,0.000613984,0.0128701,958,470,1.1608,42.5126
-259,554,1.1311,-43.2891,0.000445685,-0.00186103,0.00038108,0.00050701,-0.00192235,0.159559,0.00147981,0.0128003,965,470,1.13111,43.2891
-252,554,1.11316,-44.097,0.000596885,-0.00389165,0.00150103,0.00105259,-0.00434735,0.294749,0.00330544,0.0143994,972,470,1.11316,44.0971
-245,554,1.08435,-44.9157,0.000871728,-0.00601328,0.00261548,0.0017526,-0.00689415,0.324859,0.0052782,0.0152821,979,470,1.08432,44.9157
-238,554,1.05402,-45.7161,0.00121318,-0.00845731,0.00362937,0.00242375,-0.00966788,0.321944,0.00738693,0.0120668,986,470,1.05402,45.7161
-231,554,1.02289,-46.4893,0.00138231,-0.0109482,0.00466163,0.0029463,-0.0125122,0.323701,0.00947745,0.01146,993,470,1.02286,46.4892
-224,554,0.986145,-47.2423,0.0015432,-0.0134094,0.00577084,0.00351135,-0.0153775,0.328681,0.0116006,0.0112421,1000,470,0.98614,47.2423
-217,554,0.979431,-47.9955,0.00177109,-0.0158746,0.0067861,0.004079,-0.0181825,0.327823,0.0136855,0.0117413,1007,470,0.979448,47.9955
-210,554,0.985291,-48.7164,0.00205141,-0.0183746,0.00759868,0.00456812,-0.0208913,0.319832,0.0156737,0.0160867,1014,470,0.985302,48.7164
-203,554,0.958374,-49.3737,0.0024054,-0.0205002,0.00815475,0.00501199,-0.0231068,0.309377,0.0173187,0.0249517,1021,470,0.958352,49.3737
-196,554,0.94397,-49.9897,0.00278909,-0.0224565,0.00851262,0.00539126,-0.0250586,0.296664,0.0187628,0.0338336,1028,470,0.944004,49.9898
-189,554,1.38477,-50.4106,0.00298334,-0.0242109,0.0090239,0.00570531,-0.0269328,0.29296,0.0201283,0.0399099,1035,470,1.38476,50.4107
-182,554,1.16626,-51.1574,0.0029699,-0.0271845,0.0102632,0.00613154,-0.0303462,0.298831,0.0225542,0.048149,1042,470,1.16626,51.1574
-175,554,0.956177,-51.9142,0,0,0,0,0,0,0,-1,1049,470,0.9562,51.9142
-168,554,1.8866,-48.7592,0,0,0,0,0,0,0,-1,1056,470,1.88665,48.7591
-161,554,1.09583,-42.015,0,0,0,0,0,0,0,-1,1063,470,1.09577,42.015
-154,554,1.03186,-42.7216,0,0,0,0,0,0,0,-1,1070,470,1.03187,42.7216
-147,554,1.4552,-41.5187,0,0,0,0,0,0,0,-1,1077,470,1.45525,41.5187
-140,554,0.428101,-38.9893,0,0,0,0,0,0,0,-1,1084,470,0.428152,38.9893
-133,554,2.67163,-32.8187,0,0,0,0,0,0,0,-1,1091,470,2.67161,32.8187
-126,554,0.851929,-33.5393,0,0,0,0,0,0,0,-1,1098,470,0.851942,33.5393
-119,554,-1.03479,-32.1628,0,0,0,0,0,0,0,-1,1105,470,-1.03476,32.1628
-112,554,1.03162,-24.5784,0,0,0,0,0,0,0,-1,1112,470,1.03156,24.5784
-105,554,0.608765,-21.0475,0,0,0,0,0,0,0,-1,1119,470,0.608728,21.0475
-98,554,1.51929,-7.3624,0,0,0,0,0,0,0,-1,1126,470,1.51928,7.36241
-91,554,1.41089,-6.5864,0,0,0,0,0,0,0,-1,1133,470,1.41093,6.58638
-84,554,1.62305,-5.87186,0,0,0,0,0,0,0,-1,1140,470,1.62299,5.87186
-77,554,-2.56958,1.33258,0,0,0,0,0,0,0,-1,1147,470,-2.56959,-1.33257
-70,554,-3.68164,-1.18332,0,0,0,0,0,0,0,-1,1154,470,-3.68158,1.18331
-63,554,-4.86853,-3.88708,0,0,0,0,0,0,0,-1,1161,470,-4.86853,3.88708
-56,554,-5.69958,-6.45422,0,0,0,0,0,0,0,-1,1168,470,-5.69955,6.45422
-49,554,-6.23645,-8.8569,0,0,0,0,0,0,0,-1,1175,470,-6.23643,8.85689
-42,554,-6.62524,-11.5382,0,0,0,0,0,0,0,-1,1182,470,-6.62522,11.5382
-35,554,-2.40173,-4.59482,0,0,0,0,0,0,0,-1,1189,470,-2.40169,4.59481
-28,554,-0.760132,-1.65555,0,0,0,0,0,0,0,-1,1196,470,-0.760095,1.65556
-21,554,16.1113,-72.7191,0,0,0,0,0,0,0,-1,1203,470,16.1114,72.7191
-14,554,15.4349,-71.5927,0,0,0,0,0,0,0,-1,1210,470,15.4349,71.5927
-7,554,14.7338,-70.4525,0,0,0,0,0,0,0,-1,1217,470,14.7337,70.4525
0,554,13.0386,-61.1331,0,0,0,0,0,0,0,-1,1224,470,13.0386,61.1331
7,554,12.4163,-61.3119,-0.0824596,-0.109923,-0.0847333,-0.0103524,-0.18203,-0.705069,0.118054,0.0483931,1231,470,12.4163,61.3119
14,554,11.8062,-61.5105,-0.0875142,-0.111519,-0.078864,-0.0197445,-0.179289,-0.709882,0.113518,0.044264,1238,470,11.8062,61.5105
21,554,11.136,-61.7328,0,0,0,0,0,0,0,-1,1245,470,11.1359,61.7329
28,554,10.1841,-61.0524,0,0,0,0,0,0,0,-1,1252,470,10.1841,61.0524
35,554,10.0186,-61.0496,0,0,0,0,0,0,0,-1,1259,470,10.0186,61.0496
42,554,9.34412,-60.9965,-0.096091,-0.116634,-0.0582999,-0.0471648,-0.16556,-0.6982,0.0984912,0.0449039,1266,470,9.34413,60.9965
49,554,8.70679,-60.9839,-0.0947224,-0.111667,-0.0545864,-0.0479549,-0.158435,-0.708407,0.0938167,0.0477067,1273,470,8.70676,60.9839
56,554,8.01917,-60.9683,-0.0916356,-0.103792,-0.0519538,-0.0454056,-0.150022,-0.727168,0.0888354,0.0445692,1280,470,8.01922,60.9683
63,554,6.6875,-61.0065,-0.0834598,-0.0850632,-0.0433179,-0.0409362,-0.127587,-0.776146,0.0752219,0.0434739,1287,470,6.68753,61.0065
70,554,5.60168,-61.0848,0,0,0,0,0,0,0,-1,1294,470,5.60173,61.0848
77,554,4.76343,-61.3039,0,0,0,0,0,0,0,-1,1301,470,4.76349,61.3039
84,554,4.01501,-69.4622,0,0,0,0,0,0,0,-1,1308,470,4.01505,69.4621
91,554,3.67151,-68.3227,0,0,0,0,0,0,0,-1,1315,470,3.67149,68.3227
98,554,1.49353,-67.3151,0,0,0,0,0,0,0,-1,1322,470,1.49348,67.315
105,554,0.32019,-69.924,0,0,0,0,0,0,0,-1,1329,470,0.320193,69.9239
112,554,-0.0985107,-70.88,-0.0497795,0.110052,-0.035269,0.117489,-0.0572161,-1.36299,0.102847,0.0422495,1336,470,-0.0984987,70.88
119,554,0.472412,-71.661,-0.0475536,0.132542,-0.0398511,0.140966,-0.0559777,-1.36247,0.117182,0.0405218,1343,470,0.472367,71.661
126,554,-0.0375977,-72.4603,-0.0500269,0.149185,-0.0472999,0.159845,-0.0606871,-1.34912,0.131545,0.0405163,1350,470,-0.0375965,72.4603
133,554,-1.02673,-73.3555,-0.0544332,0.164938,-0.0580356,0.179345,-0.0688405,-1.32747,0.147949,0.0437214,1357,470,-1.02671,73.3555
140,554,-1.97864,-74.2222,0,0,0,0,0,0,0,-1,1364,470,-1.97866,74.2222
147,554,-2.43579,-76.1337,0,0,0,0,0,0,0,-1,1371,470,-2.43581,76.1337
154,554,-3.82043,-77.7404,-0.0776212,0.204429,-0.110203,0.242381,-0.115573,-1.23913,0.210944,0.0428793,1378,470,-3.82041,77.7404
161,554,-4.11731,-79.1259,0,0,0,0,0,0,0,-1,1385,470,-4.11734,79.1259
168,554,-4.12842,-80.4586,0,0,0,0,0,0,0,-1,1392,470,-4.12836,80.4585
175,554,10.663,0.286957,0,0,0,0,0,0,0,-1,1399,470,10.663,-0.286966
182,554,6.71106,-4.50217,0,0,0,0,0,0,0,-1,1406,470,6.71107,4.50215
189,554,6.90479,-2.50348,0,0,0,0,0,0,0,-1,1413,470,6.90477,2.50348
196,554,6.96216,-0.740906,0,0,0,0,0,0,0,-1,1420,470,6.96214,0.740912
203,554,6.43518,0.414154,0,0,0,0,0,0,0,-1,1427,470,6.43523,-0.414141
210,554,6.21167,1.96707,0,0,0,0,0,0,0,-1,1434,470,6.21165,-1.96706
217,554,5.64551,3.4989,0,0,0,0,0,0,0,-1,1441,470,5.64555,-3.49891
224,554,4.85144,-8.85172,0,0,0,0,0,0,0,-1,1448,470,4.85146,8.85173
231,554,3.25073,-5.29642,0,0,0,0,0,0,0,-1,1455,470,3.25078,5.29642
238,554,4.28625,-3.25253,0,0,0,0,0,0,0,-1,1462,470,4.28622,3.25252
245,554,4.0752,-2.90033,0,0,0,0,0,0,0,-1,1469,470,4.07515,2.90032
252,554,3.52112,-0.934998,0,0,0,0,0,0,0,-1,1476,470,3.52113,0.934996
259,554,3.96448,-2.16425,0,0,0,0,0,0,0,-1,1483,470,3.96446,2.16424
266,554,3.0592,-2.71716,0,0,0,0,0,0,0,-1,1490,470,3.05923,2.71718
273,554,2.58521,-3.06876,0,0,0,0,0,0,0,-1,1497,470,2.58524,3.06874
280,554,15.1387,-54.192,0,0,0,0,0,0,0,-1,1504,470,15.1387,54.192
287,554,15.5846,-52.873,0,0,0,0,0,0,0,-1,1511,470,15.5846,52.873
294,554,15.4558,-51.5307,0,0,0,0,0,0,0,-1,1518,470,15.4559,51.5307
301,554,15.624,-50.9002,0,0,0,0,0,0,0,-1,1525,470,15.624,50.9002
308,554,14.8351,-51.0684,0,0,0,0,0,0,0,-1,1532,470,14.8351,51.0684
315,554,14.9475,-50.6395,0,0,0,0,0,0,0,-1,1539,470,14.9475,50.6395
322,554,15.0614,-49.655,0.000735855,-0.019881,-0.0109428,0.00546101,-0.0246062,-0.40762,0.0184952,0.0397704,1546,470,15.0614,49.655
329,554,14.9546,-49.0751,0.000478298,-0.0173645,-0.00990235,0.00488536,-0.0217716,-0.418732,0.0163874,0.0248085,1553,470,14.9546,49.0751
336,554,14.9174,-48.422,4.9157e-05,-0.0155288,-0.00920864,0.00432116,-0.0198008,-0.434363,0.0148519,0.0154596,1560,470,14.9174,48.422
343,554,14.881,-47.7254,-4.55278e-05,-0.0129314,-0.00791653,0.00371854,-0.0166955,-0.443831,0.0125547,0.0128814,1567,470,14.881,47.7254
350,554,14.863,-46.9277,0.00037024,-0.0101487,-0.00633539,0.00334481,-0.0131232,-0.438964,0.010051,0.0117535,1574,470,14.8631,46.9277
357,554,14.8622,-46.131,0.00081453,-0.00776561,-0.00487507,0.00301838,-0.00996947,-0.42457,0.00784836,0.0124237,1581,470,14.8622,46.131
364,554,14.8292,-45.3885,0.00103221,-0.00571333,-0.00340975,0.00245548,-0.0071366,-0.395426,0.00575361,0.00914336,1588,470,14.8292,45.3885
371,554,14.7703,-44.5962,0.00123574,-0.00380111,-0.00204225,0.00195973,-0.00452509,-0.340683,0.00384043,0.00870313,1595,470,14.7703,44.5962
378,554,14.7365,-43.7611,0.00138156,-0.0017537,-0.000789786,0.00156927,-0.00194141,-0.233346,0.00203068,0.0108545,1602,470,14.7365,43.7611
385,554,14.7319,-42.942,0.00139025,-8.04674e-05,0.000186247,0.00141347,-0.000103687,0.124029,0.000978706,0.0106016,1609,470,14.7319,42.942
392,554,14.7013,-42.1121,0.0014072,0.00134559,0.00112553,0.00250235,0.000250436,0.771717,0.00159133,0.0139408,1616,470,14.7013,42.1121
399,554,14.6404,-41.2533,0.00134714,0.00237479,0.00181235,0.00374474,-2.28155e-05,0.92353,0.00250413,0.0184327,1623,470,14.6403,41.2533
406,554,14.5796,-40.4282,0.00114054,0.00351263,0.00230928,0.00492264,-0.000269468,1.02263,0.00337517,0.0176661,1630,470,14.5796,40.4282
413,554,14.5463,-39.5963,0.000799826,0.00405336,0.0026135,0.00550503,-0.000651844,1.06378,0.00390548,0.0176012,1637,470,14.5463,39.5963
420,554,14.4945,-38.7458,0.000358903,0.00431761,0.00282546,0.00578805,-0.00111153,1.09094,0.00427762,0.0188794,1644,470,14.4945,38.7458
427,554,14.4573,-37.9052,-0.00015462,0.0044376,0.0030472,0.00595692,-0.00167394,1.10827,0.00463122,0.0126594,1651,470,14.4573,37.9052
434,554,14.3984,-37.0749,-0.000653646,0.00448508,0.00326086,0.0060672,-0.00223577,1.11907,0.00496093,0.0107134,1658,470,14.3985,37.0749
441,554,14.3557,-36.2199,-0.00127636,0.00446557,0.00352067,0.00613747,-0.00294825,1.12745,0.00535228,0.0116488,1665,470,14.3557,36.2199
448,554,14.3082,-35.2852,-0.00203261,0.00432868,0.00378872,0.00609484,-0.00379878,1.13458,0.00576313,0.0165682,1672,470,14.3083,35.2852
455,554,14.2261,-34.4229,-0.00292021,0.00413352,0.00414396,0.00604827,-0.00483496,1.13796,0.00629644,0.0194046,1679,470,14.2261,34.4229
462,554,14.1136,-33.6072,-0.00385168,0.00420235,0.00460297,0.00629123,-0.00594056,1.14478,0.007063,0.0215113,1686,470,14.1136,33.6072
469,554,13.9192,-32.712,-0.0046751,0.00446875,0.00515622,0.00678806,-0.00699441,1.1481,0.00795761,0.0263755,1693,470,13.9192,32.712
476,554,13.7108,-31.6958,-0.00552747,0.00481188,0.00576376,0.00738471,-0.0081003,1.15096,0.00894346,0.0442674,1700,470,13.7108,31.6958
483,554,13.5288,-30.6568,0,0,0,0,0,0,0,-1,1707,470,13.5289,30.6568
490,554,12.5504,-17.9805,0,0,0,0,0,0,0,-1,1714,470,12.5505,17.9805
497,554,14.3204,-17.9055,0,0,0,0,0,0,0,-1,1721,470,14.3204,17.9055
504,554,2.13257,-3.81628,0,0,0,0,0,0,0,-1,1728,470,2.1326,3.8163
511,554,1.31396,-4.02713,0,0,0,0,0,0,0,-1,1735,470,1.31398,4.02712
518,554,5.04236,-5.9472,0,0,0,0,0,0,0,-1,1742,470,5.04231,5.94721
525,554,0,0,0,0,0,0,0,0,0,-1,1749,470,0,0
532,554,0,0,0,0,0,0,0,0,0,-1,1756,470,0,0
539,554,0,0,0,0,0,0,0,0,0,-1,1763,470,0,0
546,554,0,0,0,0,0,0,0,0,0,-1,1770,470,0,0
553,554,0,0,0,0,0,0,0,0,0,-1,1777,470,0,0
560,554,0,0,0,0,0,0,0,0,0,-1,1784,470,0,0
567,554,0,0,0,0,0,0,0,0,0,-1,1791,470,0,0
574,554,0,0,0,0,0,0,0,0,0,-1,1798,470,0,0
581,554,0,0,0,0,0,0,0,0,0,-1,1805,470,0,0
588,554,0,0,0,0,0,0,0,0,0,-1,1812,470,0,0
595,554,0,0,0,0,0,0,0,0,0,-1,1819,470,0,0
602,554,0,0,0,0,0,0,0,0,0,-1,1826,470,0,0
609,554,0,0,0,0,0,0,0,0,0,-1,1833,470,0,0
616,554,0,0,0,0,0,0,0,0,0,-1,1840,470,0,0
623,554,0,0,0,0,0,0,0,0,0,-1,1847,470,0,0
630,554,0,0,0,0,0,0,0,0,0,-1,1854,470,0,0
637,554,0,0,0,0,0,0,0,0,0,-1,1861,470,0,0
644,554,0,0,0,0,0,0,0,0,0,-1,1868,470,0,0
651,554,0,0,0,0,0,0,0,0,0,-1,1875,470,0,0
658,554,0,0,0,0,0,0,0,0,0,-1,1882,470,0,0
665,554,0,0,0,0,0,0,0,0,0,-1,1889,470,0,0
672,554,0,0,0,0,0,0,0,0,0,-1,1896,470,0,0
679,554,0,0,0,0,0,0,0,0,0,-1,1903,470,0,0
686,554,0,0,0,0,0,0,0,0,0,-1,1910,470,0,0
693,554,0,0,0,0,0,0,0,0,0,-1,1917,470,0,0
700,554,0,0,0,0,0,0,0,0,0,-1,1924,470,0,0
707,554,0,0,0,0,0,0,0,0,0,-1,1931,470,0,0
714,554,0,0,0,0,0,0,0,0,0,-1,1938,470,0,0
721,554,0,0,0,0,0,0,0,0,0,-1,1945,470,0,0
728,554,0,0,0,0,0,0,0,0,0,-1,1952,470,0,0
735,554,0,0,0,0,0,0,0,0,0,-1,1959,470,0,0
742,554,0,0,0,0,0,0,0,0,0,-1,1966,470,0,0
749,554,0,0,0,0,0,0,0,0,0,-1,1973,470,0,0
756,554,0,0,0,0,0,0,0,0,0,-1,1980,470,0,0
763,554,0,0,0,0,0,0,0,0,0,-1,1987,470,0,0
770,554,0,0,0,0,0,0,0,0,0,-1,1994,470,0,0
777,554,0,0,0,0,0,0,0,0,0,-1,2001,470,0,0
784,554,0,0,0,0,0,0,0,0,0,-1,2008,470,0,0
791,554,0,0,0,0,0,0,0,0,0,-1,2015,470,0,0
798,554,0,0,0,0,0,0,0,0,0,-1,2022,470,0,0
805,554,0,0,0,0,0,0,0,0,0,-1,2029,470,0,0
812,554,0,0,0,0,0,0,0,0,0,-1,2036,470,0,0
-700,547,0,0,0,0,0,0,0,0,0,-1,524,477,0,0
-693,547,0,0,0,0,0,0,0,0,0,-1,531,477,0,0
-686,547,0,0,0,0,0,0,0,0,0,-1,538,477,0,0
-679,547,0,0,0,0,0,0,0,0,0,-1,545,477,0,0
-672,547,0,0,0,0,0,0,0,0,0,-1,552,477,0,0
-665,547,0,0,0,0,0,0,0,0,0,-1,559,477,0,0
-658,547,0,0,0,0,0,0,0,0,0,-1,566,477,0,0
-651,547,0,0,0,0,0,0,0,0,0,-1,573,477,0,0
-644,547,0,0,0,0,0,0,0,0,0,-1,580,477,0,0
-637,547,0,0,0,0,0,0,0,0,0,-1,587,477,0,0
-630,547,0,0,0,0,0,0,0,0,0,-1,594,477,0,0
-623,547,0,0,0,0,0,0,0,0,0,-1,601,477,0,0
-616,547,0,0,0,0,0,0,0,0,0,-1,608,477,0,0
-609,547,0,0,0,0,0,0,0,0,0,-1,615,477,0,0
-602,547,0,0,0,0,0,0,0,0,0,-1,622,477,0,0
-595,547,0,0,0,0,0,0,0,0,0,-1,629,477,0,0
-588,547,0,0,0,0,0,0,0,0,0,-1,636,477,0,0
-581,547,0,0,0,0,0,0,0,0,0,-1,643,477,0,0
-574,547,0,0,0,0,0,0,0,0,0,-1,650,477,0,0
-567,547,0,0,0,0,0,0,0,0,0,-1,657,477,0,0
-560,547,0,0,0,0,0,0,0,0,0,-1,664,477,0,0
-553,547,0,0,0,0,0,0,0,0,0,-1,671,477,0,0
-546,547,0,0,0,0,0,0,0,0,0,-1,678,477,0,0
-539,547,0,0,0,0,0,0,0,0,0,-1,685,477,0,0
-532,547,0,0,0,0,0,0,0,0,0,-1,692,477,0,0
-525,547,0,0,0,0,0,0,0,0,0,-1,699,477,0,0
-518,547,0,0,0,0,0,0,0,0,0,-1,706,477,0,0
-511,547,0,0,0,0,0,0,0,0,0,-1,713,477,0,0
-504,547,0,0,0,0,0,0,0,0,0,-1,720,477,0,0
-497,547,0,0,0,0,0,0,0,0,0,-1,727,477,0,0
-490,547,0,0,0,0,0,0,0,0,0,-1,734,477,0,0
-483,547,0,0,0,0,0,0,0,0,0,-1,741,477,0,0
-476,547,0,0,0,0,0,0,0,0,0,-1,748,477,0,0
-469,547,0,0,0,0,0,0,0,0,0,-1,755,477,0,0
-462,547,0,0,0,0,0,0,0,0,0,-1,762,477,0,0
-455,547,0,0,0,0,0,0,0,0,0,-1,769,477,0,0
-448,547,0,0,0,0,0,0,0,0,0,-1,776,477,0,0
-441,547,0,0,0,0,0,0,0,0,0,-1,783,477,0,0
-434,547,0,0,0,0,0,0,0,0,0,-1,790,477,0,0
-427,547,0,0,0,0,0,0,0,0,0,-1,797,477,0,0
-420,547,0,0,0,0,0,0,0,0,0,-1,804,477,0,0
-413,547,0,0,0,0,0,0,0,0,0,-1,811,477,0,0
-406,547,0.144592,-11.0292,0,0,0,0,0,0,0,-1,818,477,0.144583,11.0292
-399,547,0.775513,-10.0294,0,0,0,0,0,0,0,-1,825,477,0.775482,10.0295
-392,547,2.80377,-25.0129,0,0,0,0,0,0,0,-1,832,477,2.8038,25.0129
-385,547,2.26447,-26.0353,0,0,0,0,0,0,0,-1,839,477,2.26448,26.0353
-378,547,2.08917,-27.085,0,0,0,0,0,0,0,-1,846,477,2.08918,27.085
-371,547,1.9483,-28.0656,0,0,0,0,0,0,0,-1,853,477,1.94832,28.0657
-364,547,1.79816,-29.0081,0,0,0,0,0,0,0,-1,860,477,1.79814,29.0081
-357,547,1.58539,-29.9227,0,0,0,0,0,0,0,-1,867,477,1.58537,29.9227
-350,547,1.26392,-31.7052,0,0,0,0,0,0,0,-1,874,477,1.26391,31.7052
-343,547,1.08716,-32.8003,-0.000677203,0.0199999,-0.0114441,0.0250838,-0.0057611,-1.15274,0.0189373,0.0455642,881,477,1.08716,32.8003
-336,547,0.986694,-33.9286,-0.00128558,0.0168605,-0.00927267,0.0207606,-0.00518568,-1.17266,0.0158542,0.0185735,888,477,0.986677,33.9286
-329,547,0.852173,-34.8238,-0.00158744,0.0141199,-0.00744234,0.017086,-0.0045536,-1.19154,0.0131735,0.0112982,895,477,0.852186,34.8238
-322,547,0.79364,-35.7205,-0.00188118,0.0115874,-0.00574524,0.0137051,-0.00399892,-1.21764,0.0107213,0.0120311,902,477,0.793618,35.7205
-315,547,0.734619,-36.6197,-0.001905,0.00943391,-0.00443997,0.0109656,-0.00343666,-1.23861,0.0086856,0.0108168,909,477,0.734599,36.6197
-308,547,0.674561,-37.4663,-0.00162227,0.00771965,-0.00351552,0.00889478,-0.0027974,-1.2482,0.00704981,0.012024,916,477,0.674553,37.4663
-301,547,0.624634,-38.3159,-0.00121292,0.00611407,-0.00276902,0.00704282,-0.00214167,-1.24718,0.00554863,0.0124647,923,477,0.624664,38.3159
-294,547,0.560303,-39.16,-0.000774049,0.00448472,-0.00199688,0.00515703,-0.00144636,-1.24604,0.0040081,0.0109558,930,477,0.560319,39.16
-287,547,0.509216,-39.9926,-0.000345945,0.00301737,-0.00129855,0.00346037,-0.000788951,-1.24202,0.00260995,0.0119692,937,477,0.509215,39.9926
-280,547,0.466309,-40.8143,2.00521e-07,0.00138621,-0.000686873,0.00166894,-0.000282525,-1.18032,0.00121777,0.0136233,944,477,0.466337,40.8143
-273,547,0.410583,-41.6582,0.000220039,-0.000503512,5.42404e-05,0.000224082,-0.000507556,0.0744099,0.000432851,0.0125011,951,477,0.410591,41.6582
-266,547,0.350281,-42.4708,0.00046087,-0.00245234,0.000886719,0.000709542,-0.00270101,0.273417,0.00207797,0.0124482,958,477,0.350304,42.4708
-259,547,0.307617,-43.2444,0.000645215,-0.00466273,0.00189253,0.00125088,-0.0052684,0.30973,0.00399505,0.011987,965,477,0.307597,43.2445
-252,547,0.306091,-44.0572,0.000730334,-0.0068713,0.00316657,0.00187658,-0.00801754,0.347309,0.00606806,0.0111885,972,477,0.306117,44.0572
-245,547,0.290039,-44.8619,0.000948489,-0.0092812,0.00443062,0.00260062,-0.0109333,0.35692,0.00829282,0.0118018,979,477,0.290063,44.8619
-238,547,0.25824,-45.6556,0.00123418,-0.0120943,0.00559761,0.00327312,-0.0141332,0.349315,0.0106817,0.00905555,986,477,0.258237,45.6556
-231,547,0.229553,-46.4219,0.00133255,-0.0149647,0.00679551,0.00379426,-0.0174264,0.34755,0.0130673,0.0092134,993,477,0.22954,46.4219
-224,547,0.209351,-47.1537,0.00139287,-0.0178427,0.00815904,0.00438744,-0.0208373,0.351761,0.0155616,0.0116006,1000,477,0.20937,47.1537
-217,547,0.222778,-47.8439,0.00150737,-0.0206698,0.00943381,0.0049774,-0.0241399,0.35247,0.0179835,0.0159152,1007,477,0.222769,47.8439
-210,547,0.236633,-48.4585,0.00166628,-0.0235436,0.0104799,0.00545383,-0.0273311,0.346803,0.0202846,0.02685,1014,477,0.236611,48.4585
-203,547,0.268066,-48.9177,0.00189918,-0.0260386,0.0112223,0.00584868,-0.0299881,0.338397,0.0222,0.0413758,1021,477,0.268083,48.9177
-196,547,0.252563,-49.3645,0,0,0,0,0,0,0,-1,1028,477,0.252551,49.3645
-189,547,1.08887,-49.6147,0,0,0,0,0,0,0,-1,1035,477,1.08891,49.6147
-182,547,0.458252,-50.6132,0,0,0,0,0,0,0,-1,1042,477,0.458228,50.6132
-175,547,1.37634,-47.526,0,0,0,0,0,0,0,-1,1049,477,1.3763,47.526
-168,547,0.761719,-32.9387,0,0,0,0,0,0,0,-1,1056,477,0.761738,32.9387
-161,547,0.0430908,-34.6016,0,0,0,0,0,0,0,-1,1063,477,0.0431231,34.6016
-154,547,-0.284424,-31.1176,0,0,0,0,0,0,0,-1,1070,477,-0.284395,31.1176
-147,547,3.69434,-26.413,0,0,0,0,0,0,0,-1,1077,477,3.69437,26.413
-140,547,1.55676,-22.5229,0,0,0,0,0,0,0,-1,1084,477,1.5568,22.5229
-133,547,2.31665,-17.9421,0,0,0,0,0,0,0,-1,1091,477,2.31667,17.9421
-126,547,-1.15271,-30.6984,0,0,0,0,0,0,0,-1,1098,477,-1.15267,30.6984
-119,547,0.967651,-24.9351,0,0,0,0,0,0,0,-1,1105,477,0.967657,24.9351
-112,547,1.15674,-22.2276,0,0,0,0,0,0,0,-1,1112,477,1.15677,22.2276
-105,547,0.966797,-20.5777,0,0,0,0,0,0,0,-1,1119,477,0.966804,20.5777
-98,547,0.70166,-18.9755,0,0,0,0,0,0,0,-1,1126,477,0.701713,18.9755
-91,547,1.37805,-7.12024,0,0,0,0,0,0,0,-1,1133,477,1.37804,7.12025
-84,547,1.94202,-6.66241,0,0,0,0,0,0,0,-1,1140,477,1.94201,6.66241
-77,547,-2.28357,1.8588,0,0,0,0,0,0,0,-1,1147,477,-2.28356,-1.85879
-70,547,-3.70178,-0.874908,0,0,0,0,0,0,0,-1,1154,477,-3.70182,0.874918
-63,547,-5.12012,-3.60861,0,0,0,0,0,0,0,-1,1161,477,-5.12009,3.60862
-56,547,-6.01917,-6.2399,0,0,0,0,0,0,0,-1,1168,477,-6.01921,6.23991
-49,547,-6.729,-8.60349,0,0,0,0,0,0,0,-1,1175,477,-6.72899,8.60348
-42,547,-2.41736,-5.53012,0,0,0,0,0,0,0,-1,1182,477,-2.41734,5.53011
-35,547,-2.96838,-4.45734,0,0,0,0,0,0,0,-1,1189,477,-2.96839,4.45734
-28,547,-0.869141,-1.29901,0,0,0,0,0,0,0,-1,1196,477,-0.869135,1.29901
-21,547,-7.68262,-30.8089,0,0,0,0,0,0,0,-1,1203,477,-7.68256,30.8089
-14,547,16.0194,-71.2816,0,0,0,0,0,0,0,-1,1210,477,16.0195,71.2816
-7,547,15.4246,-69.7585,0,0,0,0,0,0,0,-1,1217,477,15.4245,69.7586
0,547,14.8218,-68.1481,0,0,0,0,0,0,0,-1,1224,477,14.8217,68.1481
7,547,13.3363,-60.4382,0,0,0,0,0,0,0,-1,1231,477,13.3364,60.4382
14,547,0,0,0,0,0,0,0,0,0,-1,1238,477,0,0
21,547,0,0,0,0,0,0,0,0,0,-1,1245,477,0,0
28,547,0,0,0,0,0,0,0,0,0,-1,1252,477,0,0
35,547,0,0,0,0,0,0,0,0,0,-1,1259,477,0,0
42,547,0,0,0,0,0,0,0,0,0,-1,1266,477,0,0
49,547,0,0,0,0,0,0,0,0,0,-1,1273,477,0,0
56,547,0,0,0,0,0,0,0,0,0,-1,1280,477,0,0
63,547,0,0,0,0,0,0,0,0,0,-1,1287,477,0,0
70,547,0,0,0,0,0,0,0,0,0,-1,1294,477,0,0
77,547,0,0,0,0,0,0,0,0,0,-1,1301,477,0,0
84,547,0,0,0,0,0,0,0,0,0,-1,1308,477,0,0
91,547,0,0,0,0,0,0,0,0,0,-1,1315,477,0,0
98,547,0,0,0,0,0,0,0,0,0,-1,1322,477,0,0
105,547,4.67786,-69.7896,0,0,0,0,0,0,0,-1,1329,477,4.67785,69.7896
112,547,0.963135,-71.3061,0,0,0,0,0,0,0,-1,1336,477,0.963113,71.3061
119,547,0.200562,-72.4764,-0.0520342,0.154116,-0.0298753,0.158358,-0.0562765,-1.42974,0.128506,0.043504,1343,477,0.200518,72.4764
126,547,-0.538086,-73.564,-0.0563144,0.16895,-0.0387878,0.175442,-0.0628061,-1.40497,0.142584,0.0446624,1350,477,-0.538041,73.564
133,547,-1.29895,-74.852,-0.0627298,0.182848,-0.051476,0.193202,-0.0730833,-1.37231,0.158868,0.0451973,1357,477,-1.29889,74.852
140,547,-2.19482,-75.8467,0,0,0,0,0,0,0,-1,1364,477,-2.19487,75.8467
147,547,-3.02588,-77.3168,0,0,0,0,0,0,0,-1,1371,477,-3.0259,77.3167
154,547,-3.92065,-78.7923,0,0,0,0,0,0,0,-1,1378,477,-3.92071,78.7923
161,547,-4.84802,-80.1841,0,0,0,0,0,0,0,-1,1385,477,-4.848,80.1841
168,547,0.68689,-68.7853,0,0,0,0,0,0,0,-1,1392,477,0.68688,68.7854
175,547,3.35034,-0.26532,0,0,0,0,0,0,0,-1,1399,477,3.3503,0.265306
182,547,4.26038,3.72672,0,0,0,0,0,0,0,-1,1406,477,4.26039,-3.7267
189,547,3.40454,1.28671,0,0,0,0,0,0,0,-1,1413,477,3.40457,-1.28673
196,547,3.53931,1.87793,0,0,0,0,0,0,0,-1,1420,477,3.53928,-1.87794
203,547,6.49414,-0.425842,0,0,0,0,0,0,0,-1,1427,477,6.4941,0.425844
210,547,4.82092,0.53595,0,0,0,0,0,0,0,-1,1434,477,4.82096,-0.535942
217,547,4.68579,0.480072,0,0,0,0,0,0,0,-1,1441,477,4.68577,-0.480069
224,547,4.55615,0.739807,0,0,0,0,0,0,0,-1,1448,477,4.55613,-0.73981
231,547,5.90869,-3.57721,0,0,0,0,0,0,0,-1,1455,477,5.90871,3.57722
238,547,5.50049,-3.15356,0,0,0,0,0,0,0,-1,1462,477,5.50045,3.15356
245,547,5.13708,-2.65213,0,0,0,0,0,0,0,-1,1469,477,5.13708,2.65212
252,547,3.73511,-0.645233,0,0,0,0,0,0,0,-1,1476,477,3.73515,0.645237
259,547,5.86816,-3.20816,0,0,0,0,0,0,0,-1,1483,477,5.86815,3.20816
266,547,5.40222,-2.45731,0,0,0,0,0,0,0,-1,1490,477,5.40221,2.45732
273,547,3.05737,0.495789,0,0,0,0,0,0,0,-1,1497,477,3.05742,-0.49578
280,547,2.0885,1.47797,0,0,0,0,0,0,0,-1,1504,477,2.08848,-1.47795
287,547,16.7034,-52.6257,0,0,0,0,0,0,0,-1,1511,477,16.7033,52.6258
294,547,16.6836,-50.8661,0,0,0,0,0,0,0,-1,1518,477,16.6837,50.8662
301,547,16.5122,-48.5859,0,0,0,0,0,0,0,-1,1525,477,16.5122,48.5859
308,547,14.5352,-46.2472,0,0,0,0,0,0,0,-1,1532,477,14.5351,46.2472
315,547,16.3188,-48.3778,0,0,0,0,0,0,0,-1,1539,477,16.3188,48.3778
322,547,16.0275,-49.2964,0,0,0,0,0,0,0,-1,1546,477,16.0274,49.2964
329,547,15.7574,-48.8822,0,0,0,0,0,0,0,-1,1553,477,15.7574,48.8822
336,547,15.9857,-48.1517,-0.000691233,-0.020543,-0.0125538,0.00538663,-0.0266209,-0.450885,0.0197887,0.0498019,1560,477,15.9857,48.1517
343,547,15.8093,-47.6932,-0.000563321,-0.0173074,-0.0108678,0.00478325,-0.0226539,-0.457199,0.0169239,0.0401557,1567,477,15.8093,47.6932
350,547,15.6768,-46.924,0.000199669,-0.0139489,-0.00885466,0.00445899,-0.0182082,-0.448353,0.0138662,0.0259396,1574,477,15.6767,46.924
357,547,15.6548,-46.1347,0.000937298,-0.0110935,-0.00702431,0.00416992,-0.0143261,-0.431308,0.0112025,0.015387,1581,477,15.6548,46.1347
364,547,15.6207,-45.3445,0.00132576,-0.0086618,-0.0052571,0.00358284,-0.0109189,-0.40554,0.00872236,0.0109804,1588,477,15.6208,45.3445
371,547,15.6022,-44.532,0.00165831,-0.00640261,-0.00364831,0.00306428,-0.00780858,-0.367836,0.00647358,0.0105548,1595,477,15.6022,44.532
378,547,15.5682,-43.7305,0.0018937,-0.00400812,-0.00217554,0.00260897,-0.00472339,-0.317644,0.00429161,0.0121123,1602,477,15.5683,43.7305
385,547,15.528,-42.903,0.00197244,-0.00207727,-0.0009665,0.00219128,-0.00229611,-0.222669,0.00259103,0.0118501,1609,477,15.5279,42.903
392,547,15.4987,-42.0731,0.00201491,-0.000443334,0.000165479,0.002026,-0.000454423,0.0669135,0.00152488,0.0118202,1616,477,15.4987,42.0731
399,547,15.4395,-41.2388,0.00189566,0.00073072,0.000911039,0.00239452,0.000231866,0.500973,0.00152494,0.0145755,1623,477,15.4395,41.2389
406,547,15.4127,-40.4211,0.00164946,0.00209282,0.00149284,0.00338035,0.000361933,0.859108,0.00214313,0.0149837,1630,477,15.4127,40.4211
413,547,15.3909,-39.5914,0.00130796,0.00275806,0.00186232,0.00403149,3.45272e-05,0.971034,0.00267623,0.0158025,1637,477,15.3909,39.5914
420,547,15.3693,-38.7387,0.000881036,0.00313857,0.00209839,0.00439252,-0.000372918,1.03216,0.00306024,0.0186157,1644,477,15.3692,38.7387
427,547,15.3307,-37.8792,0.000384329,0.00336403,0.00232426,0.00463495,-0.000886588,1.07041,0.00342397,0.0175497,1651,477,15.3307,37.8792
434,547,15.235,-37.0643,-0.000109147,0.00348168,0.00254262,0.00479889,-0.00142635,1.09281,0.00376585,0.0116431,1658,477,15.2349,37.0643
441,547,15.1604,-36.2329,-0.000662941,0.00359698,0.00284495,0.00502096,-0.00208692,1.10673,0.00421867,0.0111146,1665,477,15.1604,36.2329
448,547,15.0981,-35.3315,-0.00128955,0.00360412,0.00315119,0.0051469,-0.00283232,1.11552,0.00467096,0.0113705,1672,477,15.0982,35.3315
455,547,15.0378,-34.4394,-0.0019969,0.0035985,0.00352073,0.00529776,-0.00369616,1.12113,0.00522002,0.0122053,1679,477,15.0379,34.4394
462,547,14.9725,-33.5768,-0.00264708,0.00379374,0.00396782,0.00568358,-0.00453692,1.12629,0.00591317,0.0124037,1686,477,14.9725,33.5768
469,547,14.8668,-32.6935,-0.00307942,0.00417941,0.00450171,0.00633256,-0.00523257,1.12466,0.00668719,0.0215514,1693,477,14.8669,32.6935
476,547,14.7844,-31.6386,-0.0035542,0.00467815,0.00507534,0.00709664,-0.0059727,1.12611,0.00755488,0.0348405,1700,477,14.7844,31.6386
483,547,14.7627,-30.5118,0,0,0,0,0,0,0,-1,1707,477,14.7627,30.5118
490,547,3.65271,-3.71707,0,0,0,0,0,0,0,-1,1714,477,3.65277,3.71708
497,547,2.55481,-3.81421,0,0,0,0,0,0,0,-1,1721,477,2.55476,3.8142
504,547,4.01953,-2.22714,0,0,0,0,0,0,0,-1,1728,477,4.0195,2.22713
511,547,5.2146,-6.9552,0,0,0,0,0,0,0,-1,1735,477,5.21464,6.95521
518,547,5.24243,-6.56122,0,0,0,0,0,0,0,-1,1742,477,5.24241,6.56121
525,547,5.89368,-5.49866,0,0,0,0,0,0,0,-1,1749,477,5.89372,5.49866
532,547,0,0,0,0,0,0,0,0,0,-1,1756,477,0,0
539,547,0,0,0,0,0,0,0,0,0,-1,1763,477,0,0
546,547,0,0,0,0,0,0,0,0,0,-1,1770,477,0,0
553,547,0,0,0,0,0,0,0,0,0,-1,1777,477,0,0
560,547,0,0,0,0,0,0,0,0,0,-1,1784,477,0,0
567,547,0,0,0,0,0,0,0,0,0,-1,1791,477,0,0
574,547,0,0,0,0,0,0,0,0,0,-1,1798,477,0,0
581,547,0,0,0,0,0,0,0,0,0,-1,1805,477,0,0
588,547,0,0,0,0,0,0,0,0,0,-1,1812,477,0,0
595,547,0,0,0,0,0,0,0,0,0,-1,1819,477,0,0
602,547,0,0,0,0,0,0,0,0,0,-1,1826,477,0,0
609,547,0,0,0,0,0,0,0,0,0,-1,1833,477,0,0
616,547,0,0,0,0,0,0,0,0,0,-1,1840,477,0,0
623,547,0,0,0,0,0,0,0,0,0,-1,1847,477,0,0
630,547,0,0,0,0,0,0,0,0,0,-1,1854,477,0,0
637,547,0,0,0,0,0,0,0,0,0,-1,1861,477,0,0
644,547,0,0,0,0,0,0,0,0,0,-1,1868,477,0,0
651,547,0,0,0,0,0,0,0,0,0,-1,1875,477,0,0
658,547,0,0,0,0,0,0,0,0,0,-1,1882,477,0,0
665,547,0,0,0,0,0,0,0,0,0,-1,1889,477,0,0
672,547,0,0,0,0,0,0,0,0,0,-1,1896,477,0,0
679,547,0,0,0,0,0,0,0,0,0,-1,1903,477,0,0
686,547,0,0,0,0,0,0,0,0,0,-1,1910,477,0,0
693,547,0,0,0,0,0,0,0,0,0,-1,1917,477,0,0
700,547,0,0,0,0,0,0,0,0,0,-1,1924,477,0,0
707,547,0,0,0,0,0,0,0,0,0,-1,1931,477,0,0
714,547,0,0,0,0,0,0,0,0,0,-1,1938,477,0,0
721,547,0,0,0,0,0,0,0,0,0,-1,1945,477,0,0
728,547,0,0,0,0,0,0,0,0,0,-1,1952,477,0,0
735,547,0,0,0,0,0,0,0,0,0,-1,1959,477,0,0
742,547,0,0,0,0,0,0,0,0,0,-1,1966,477,0,0
749,547,0,0,0,0,0,0,0,0,0,-1,1973,477,0,0
756,547,0,0,0,0,0,0,0,0,0,-1,1980,477,0,0
763,547,0,0,0,0,0,0,0,0,0,-1,1987,477,0,0
770,547,0,0,0,0,0,0,0,0,0,-1,1994,477,0,0
777,547,0,0,0,0,0,0,0,0,0,-1,2001,477,0,0
784,547,0,0,0,0,0,0,0,0,0,-1,2008,477,0,0
791,547,0,0,0,0,0,0,0,0,0,-1,2015,477,0,0
798,547,0,0,0,0,0,0,0,0,0,-1,2022,477,0,0
805,547,0,0,0,0,0,0,0,0,0,-1,2029,477,0,0
812,547,0,0,0,0,0,0,0,0,0,-1,2036,477,0,0
-700,540,0,0,0,0,0,0,0,0,0,-1,524,484,0,0
-693,540,0,0,0,0,0,0,0,0,0,-1,531,484,0,0
-686,540,0,0,0,0,0,0,0,0,0,-1,538,484,0,0
-679,540,0,0,0,0,0,0,0,0,0,-1,545,484,0,0
-672,540,0,0,0,0,0,0,0,0,0,-1,552,484,0,0
-665,540,0,0,0,0,0,0,0,0,0,-1,559,484,0,0
-658,540,0,0,0,0,0,0,0,0,0,-1,566,484,0,0
-651,540,0,0,0,0,0,0,0,0,0,-1,573,484,0,0
-644,540,0,0,0,0,0,0,0,0,0,-1,580,484,0,0
-637,540,0,0,0,0,0,0,0,0,0,-1,587,484,0,0
-630,540,0,0,0,0,0,0,0,0,0,-1,594,484,0,0
-623,540,0,0,0,0,0,0,0,0,0,-1,601,484,0,0
-616,540,0,0,0,0,0,0,0,0,0,-1,608,484,0,0
-609,540,0,0,0,0,0,0,0,0,0,-1,615,484,0,0
-602,540,0,0,0,0,0,0,0,0,0,-1,622,484,0,0
-595,540,0,0,0,0,0,0,0,0,0,-1,629,484,0,0
-588,540,0,0,0,0,0,0,0,0,0,-1,636,484,0,0
-581,540,0,0,0,0,0,0,0,0,0,-1,643,484,0,0
-574,540,0,0,0,0,0,0,0,0,0,-1,650,484,0,0
-567,540,0,0,0,0,0,0,0,0,0,-1,657,484,0,0
-560,540,0,0,0,0,0,0,0,0,0,-1,664,484,0,0
-553,540,0,0,0,0,0,0,0,0,0,-1,671,484,0,0
-546,540,0,0,0,0,0,0,0,0,0,-1,678,484,0,0
-539,540,0,0,0,0,0,0,0,0,0,-1,685,484,0,0
-532,540,0,0,0,0,0,0,0,0,0,-1,692,484,0,0
-525,540,0,0,0,0,0,0,0,0,0,-1,699,484,0,0
-518,540,0,0,0,0,0,0,0,0,0,-1,706,484,0,0
-511,540,0,0,0,0,0,0,0,0,0,-1,713,484,0,0
-504,540,0,0,0,0,0,0,0,0,0,-1,720,484,0,0
-497,540,0,0,0,0,0,0,0,0,0,-1,727,484,0,0
-490,540,0,0,0,0,0,0,0,0,0,-1,734,484,0,0
-483,540,0,0,0,0,0,0,0,0,0,-1,741,484,0,0
-476,540,0,0,0,0,0,0,0,0,0,-1,748,484,0,0
-469,540,0,0,0,0,0,0,0,0,0,-1,755,484,0,0
-462,540,0,0,0,0,0,0,0,0,0,-1,762,484,0,0
-455,540,0,0,0,0,0,0,0,0,0,-1,769,484,0,0
-448,540,0,0,0,0,0,0,0,0,0,-1,776,484,0,0
-441,540,0,0,0,0,0,0,0,0,0,-1,783,484,0,0
-434,540,0,0,0,0,0,0,0,0,0,-1,790,484,0,0
-427,540,0,0,0,0,0,0,0,0,0,-1,797,484,0,0
-420,540,0.227051,-10.0402,0,0,0,0,0,0,0,-1,804,484,0.227063,10.0402
-413,540,-0.0393677,-10.3862,0,0,0,0,0,0,0,-1,811,484,-0.0393683,10.3862
-406,540,-0.518372,-11.5288,0,0,0,0,0,0,0,-1,818,484,-0.518402,11.5288
-399,540,0.0863037,-11.3801,0,0,0,0,0,0,0,-1,825,484,0.0863201,11.3801
-392,540,-0.517395,-10.6735,0,0,0,0,0,0,0,-1,832,484,-0.517377,10.6735
-385,540,1.1767,-25.8448,0,0,0,0,0,0,0,-1,839,484,1.17668,25.8448
-378,540,0.951172,-27.4421,0,0,0,0,0,0,0,-1,846,484,0.951175,27.4421
-371,540,0.798157,-28.4438,0,0,0,0,0,0,0,-1,853,484,0.798127,28.4439
-364,540,0.207031,-29.4515,0,0,0,0,0,0,0,-1,860,484,0.207003,29.4516
-357,540,0.317383,-30.9399,0,0,0,0,0,0,0,-1,867,484,0.317398,30.9399
-350,540,0.224976,-31.7355,0.0016417,0.0197643,-0.0123223,0.0259982,-0.00459229,-1.10243,0.0190484,0.0381193,874,484,0.224978,31.7356
-343,540,0.143311,-32.9217,0.000379124,0.0162544,-0.0097616,0.0208983,-0.00426476,-1.12675,0.01555,0.0193123,881,484,0.143301,32.9217
-336,540,0.0552979,-33.969,-0.000320974,0.0134067,-0.00776207,0.0169044,-0.0038187,-1.14743,0.0127348,0.0132709,888,484,0.0552734,33.969
-329,540,-0.0236816,-34.8239,-0.000760932,0.0109521,-0.00606972,0.01353,-0.00333889,-1.16916,0.0103147,0.0101122,895,484,-0.0237114,34.8238
-322,540,-0.0714722,-35.6959,-0.00117888,0.00861051,-0.0044486,0.0103301,-0.00289842,-1.20195,0.00802916,0.0144343,902,484,-0.0714881,35.6959
-315,540,-0.120605,-36.5684,-0.00129688,0.00666742,-0.00319903,0.00779324,-0.0024227,-1.23241,0.00616386,0.013704,909,484,-0.120629,36.5683
-308,540,-0.146057,-37.4158,-0.0010946,0.00515058,-0.00231331,0.00591411,-0.00185813,-1.25199,0.00468656,0.0133171,916,484,-0.146084,37.4158
-301,540,-0.224915,-38.2416,-0.00077761,0.00372912,-0.00157979,0.00422774,-0.00127622,-1.26507,0.00332653,0.0142229,923,484,-0.224885,38.2416
-294,540,-0.281677,-39.0715,-0.000392788,0.00230575,-0.000823396,0.00253714,-0.000624186,-1.29683,0.00193337,0.0129545,930,484,-0.281682,39.0715
-287,540,-0.310364,-39.9166,5.1176e-06,0.000940605,-0.000124277,0.000956834,-1.11107e-05,-1.44095,0.000641625,0.00860818,937,484,-0.31037,39.9167
-280,540,-0.361572,-40.7526,0.000282123,-0.000798442,0.000511775,0.00048603,-0.00100235,0.379154,0.000876382,0.00989401,944,484,-0.361575,40.7526
-273,540,-0.394592,-41.6013,0.000433454,-0.00287042,0.00132513,0.000899267,-0.00333624,0.338031,0.00257676,0.0119683,951,484,-0.394605,41.6013
-266,540,-0.419739,-42.4175,0.000660798,-0.00497477,0.00223661,0.00144056,-0.00575454,0.335459,0.00439594,0.0132753,958,484,-0.419744,42.4175
-259,540,-0.46991,-43.238,0.000804505,-0.00730992,0.00336783,0.00202017,-0.00852559,0.346409,0.00646323,0.013597,965,484,-0.469932,43.238
-252,540,-0.501953,-43.9886,0.000808434,-0.00973395,0.00481768,0.00267836,-0.0116039,0.370239,0.00876617,0.01325,972,484,-0.501973,43.9886
-245,540,-0.532104,-44.75,0.000928479,-0.0125438,0.0062742,0.00339783,-0.0150132,0.374953,0.0113128,0.0136073,979,484,-0.532084,44.75
-238,540,-0.566406,-45.5329,0.00110842,-0.0158609,0.00767065,0.00406178,-0.0188143,0.367527,0.0140932,0.0109098,986,484,-0.566435,45.5329
-231,540,-0.59137,-46.2864,0.00109478,-0.0192738,0.00912814,0.00458684,-0.0227659,0.365382,0.0169148,0.0143822,993,484,-0.591365,46.2865
-224,540,-0.62439,-46.9981,0.000973368,-0.022784,0.0108911,0.00521048,-0.0270211,0.371026,0.0199787,0.0201523,1000,484,-0.624363,46.9981
-217,540,-0.672974,-47.6046,0.000875846,-0.0261684,0.0125978,0.00583483,-0.0311273,0.375012,0.0229451,0.0304308,1007,484,-0.672998,47.6046
-210,540,-0.770203,-48.2828,0.000799258,-0.0296072,0.0140743,0.00631376,-0.0351217,0.373429,0.0257781,0.0426009,1014,484,-0.770189,48.2827
-203,540,-0.880005,-48.9163,0.000782598,-0.0326636,0.0152203,0.00667185,-0.0385528,0.369193,0.0281902,0.047405,1021,484,-0.880005,48.9163
-196,540,-0.925049,-49.3999,0,0,0,0,0,0,0,-1,1028,484,-0.925109,49.3999
-189,540,-1.2511,-49.0358,0,0,0,0,0,0,0,-1,1035,484,-1.25113,49.0358
-182,540,-0.826782,-43.3494,0,0,0,0,0,0,0,-1,1042,484,-0.826777,43.3494
-175,540,1.73413,-10.728,0,0,0,0,0,0,0,-1,1049,484,1.73414,10.728
-168,540,1.18164,-7.65347,0,0,0,0,0,0,0,-1,1056,484,1.18163,7.65347
-161,540,-0.405884,-9.86481,0,0,0,0,0,0,0,-1,1063,484,-0.405886,9.8648
-154,540,1.96863,-22.0727,0,0,0,0,0,0,0,-1,1070,484,1.96859,22.0727
-147,540,1.32764,-21.9952,0,0,0,0,0,0,0,-1,1077,484,1.32762,21.9952
-140,540,1.40735,-15.6289,0,0,0,0,0,0,0,-1,1084,484,1.4073,15.6289
-133,540,2.28345,-17.6413,0,0,0,0,0,0,0,-1,1091,484,2.2835,17.6413
-126,540,1.25293,-23.9108,0,0,0,0,0,0,0,-1,1098,484,1.25288,23.9108
-119,540,1.55969,-23.0125,0,0,0,0,0,0,0,-1,1105,484,1.55968,23.0125
-112,540,1.4801,-21.6515,0,0,0,0,0,0,0,-1,1112,484,1.4801,21.6515
-105,540,1.30078,-19.8938,0,0,0,0,0,0,0,-1,1119,484,1.30077,19.8938
-98,540,1.08105,-18.1304,0,0,0,0,0,0,0,-1,1126,484,1.08101,18.1304
-91,540,1.56519,-7.48666,0,0,0,0,0,0,0,-1,1133,484,1.56514,7.48667
-84,540,-0.945923,4.43073,0,0,0,0,0,0,0,-1,1140,484,-0.945891,-4.43074
-77,540,-2.28894,2.14368,0,0,0,0,0,0,0,-1,1147,484,-2.28894,-2.14368
-70,540,-3.75244,-0.452576,0,0,0,0,0,0,0,-1,1154,484,-3.75244,0.452576
-63,540,-5.26257,-3.04767,0,0,0,0,0,0,0,-1,1161,484,-5.26262,3.04766
-56,540,-5.19055,-6.12595,0,0,0,0,0,0,0,-1,1168,484,-5.19057,6.12595
-49,540,-5.63867,-8.52298,0,0,0,0,0,0,0,-1,1175,484,-5.63871,8.52298
-42,540,0,0,0,0,0,0,0,0,0,-1,1182,484,0,0
-35,540,0,0,0,0,0,0,0,0,0,-1,1189,484,0,0
-28,540,0,0,0,0,0,0,0,0,0,-1,1196,484,0,0
-21,540,0,0,0,0,0,0,0,0,0,-1,1203,484,0,0
-14,540,0,0,0,0,0,0,0,0,0,-1,1210,484,0,0
-7,540,0,0,0,0,0,0,0,0,0,-1,1217,484,0,0
0,540,0,0,0,0,0,0,0,0,0,-1,1224,484,0,0
7,540,0,0,0,0,0,0,0,0,0,-1,1231,484,0,0
14,540,0,0,0,0,0,0,0,0,0,-1,1238,484,0,0
21,540,0,0,0,0,0,0,0,0,0,-1,1245,484,0,0
28,540,0,0,0,0,0,0,0,0,0,-1,1252,484,0,0
35,540,0,0,0,0,0,0,0,0,0,-1,1259,484,0,0
42,540,0,0,0,0,0,0,0,0,0,-1,1266,484,0,0
49,540,0,0,0,0,0,0,0,0,0,-1,1273,484,0,0
56,540,0,0,0,0,0,0,0,0,0,-1,1280,484,0,0
63,540,0,0,0,0,0,0,0,0,0,-1,1287,484,0,0
70,540,0,0,0,0,0,0,0,0,0,-1,1294,484,0,0
77,540,0,0,0,0,0,0,0,0,0,-1,1301,484,0,0
84,540,0,0,0,0,0,0,0,0,0,-1,1308,484,0,0
91,540,0,0,0,0,0,0,0,0,0,-1,1315,484,0,0
98,540,0,0,0,0,0,0,0,0,0,-1,1322,484,0,0
105,540,0,0,0,0,0,0,0,0,0,-1,1329,484,0,0
112,540,0,0,0,0,0,0,0,0,0,-1,1336,484,0,0
119,540,0,0,0,0,0,0,0,0,0,-1,1343,484,0,0
126,540,0,0,0,0,0,0,0,0,0,-1,1350,484,0,0
133,540,0,0,0,0,0,0,0,0,0,-1,1357,484,0,0
140,540,0,0,0,0,0,0,0,0,0,-1,1364,484,0,0
147,540,0,0,0,0,0,0,0,0,0,-1,1371,484,0,0
154,540,0,0,0,0,0,0,0,0,0,-1,1378,484,0,0
161,540,0,0,0,0,0,0,0,0,0,-1,1385,484,0,0
168,540,3.05078,-0.0010376,0,0,0,0,0,0,0,-1,1392,484,3.05084,0.00102554
175,540,3.37708,0.617035,0,0,0,0,0,0,0,-1,1399,484,3.37707,-0.617046
182,540,3.32678,1.23267,0,0,0,0,0,0,0,-1,1406,484,3.32678,-1.23266
189,540,3.5813,2.15619,0,0,0,0,0,0,0,-1,1413,484,3.58129,-2.1562
196,540,1.84448,-0.801483,0,0,0,0,0,0,0,-1,1420,484,1.84446,0.80148
203,540,4.14648,0.702087,0,0,0,0,0,0,0,-1,1427,484,4.14645,-0.702089
210,540,4.50671,-0.56076,0,0,0,0,0,0,0,-1,1434,484,4.50667,0.560771
217,540,5.00452,-0.278717,0,0,0,0,0,0,0,-1,1441,484,5.00452,0.278709
224,540,6.44458,-2.83527,0,0,0,0,0,0,0,-1,1448,484,6.44457,2.83525
231,540,6.9231,-3.10504,0,0,0,0,0,0,0,-1,1455,484,6.92307,3.10505
238,540,6.4823,-2.58365,0,0,0,0,0,0,0,-1,1462,484,6.48225,2.58363
245,540,6.02087,-1.97916,0,0,0,0,0,0,0,-1,1469,484,6.02088,1.97915
252,540,6.50647,-3.56006,0,0,0,0,0,0,0,-1,1476,484,6.50649,3.56006
259,540,6.01941,-2.798,0,0,0,0,0,0,0,-1,1483,484,6.01941,2.79801
266,540,5.5332,-2.02853,0,0,0,0,0,0,0,-1,1490,484,5.53323,2.02855
273,540,5.06787,-1.28137,0,0,0,0,0,0,0,-1,1497,484,5.06786,1.28136
280,540,1.62903,-2.14609,0,0,0,0,0,0,0,-1,1504,484,1.62906,2.1461
287,540,1.97156,-2.45053,0,0,0,0,0,0,0,-1,1511,484,1.97159,2.45053
294,540,2.44165,-2.6185,0,0,0,0,0,0,0,-1,1518,484,2.44167,2.6185
301,540,4.36169,-2.54272,0,0,0,0,0,0,0,-1,1525,484,4.36165,2.54272
308,540,4.2019,-4.30469,0,0,0,0,0,0,0,-1,1532,484,4.20193,4.3047
315,540,4.45923,-5.32101,0,0,0,0,0,0,0,-1,1539,484,4.45923,5.32103
322,540,4.71655,-6.33737,0,0,0,0,0,0,0,-1,1546,484,4.71653,6.33736
329,540,15.0289,-44.3801,0,0,0,0,0,0,0,-1,1553,484,15.0289,44.3801
336,540,17.1764,-48.0145,0,0,0,0,0,0,0,-1,1560,484,17.1764,48.0145
343,540,16.7834,-47.7549,0,0,0,0,0,0,0,-1,1567,484,16.7834,47.755
350,540,16.5137,-46.3035,3.63702e-05,-0.0182953,-0.0115681,0.00562969,-0.0238886,-0.450372,0.0180966,0.0464513,1574,484,16.5136,46.3035
357,540,16.5071,-45.8949,0.00121466,-0.0146397,-0.00914246,0.00538809,-0.0188131,-0.428237,0.0146717,0.0341838,1581,484,16.5071,45.8949
364,540,16.382,-45.2089,0.00185711,-0.0115569,-0.00692693,0.00479201,-0.0144918,-0.400763,0.0115935,0.0209311,1588,484,16.382,45.2089
371,540,16.3834,-44.4573,0.00235185,-0.00871181,-0.00498663,0.00426767,-0.0106276,-0.366806,0.00885727,0.0177104,1595,484,16.3834,44.4573
378,540,16.3878,-43.6625,0.00266041,-0.00580176,-0.00324441,0.00376114,-0.00690249,-0.327084,0.00624506,0.0150846,1602,484,16.3878,43.6624
385,540,16.349,-42.858,0.00276304,-0.0035553,-0.00179706,0.00323839,-0.00403066,-0.258596,0.00420509,0.0152418,1609,484,16.349,42.858
392,540,16.2961,-42.0295,0.00274208,-0.00177667,-0.000551522,0.00280842,-0.00184301,-0.119711,0.00270472,0.013374,1616,484,16.2961,42.0295
399,540,16.2476,-41.2333,0.00249713,-0.000495534,0.000181217,0.00250807,-0.000506467,0.0602602,0.00186395,0.0181688,1623,484,16.2476,41.2333
406,540,16.257,-40.4107,0.00217911,0.00102878,0.00079765,0.00258734,0.000620555,0.473033,0.00155975,0.0204777,1630,484,16.2569,40.4107
413,540,16.2239,-39.5552,0.00181626,0.00174567,0.00118507,0.00296656,0.00059537,0.77051,0.00181215,0.0168936,1637,484,16.2239,39.5552
420,540,16.184,-38.6699,0.00138857,0.00217702,0.00140964,0.00324652,0.000319066,0.921748,0.00206622,0.0154207,1644,484,16.1839,38.6699
427,540,16.1113,-37.8391,0.000901704,0.00244912,0.00163416,0.00348348,-0.000132657,1.00649,0.00236778,0.0163874,1651,484,16.1113,37.8391
434,540,16.0417,-37.0217,0.000414023,0.00261133,0.0018627,0.00367524,-0.000649889,1.05185,0.00269306,0.0192513,1658,484,16.0418,37.0217
441,540,16.0364,-36.1511,-5.95021e-05,0.00282187,0.00221144,0.00402051,-0.00125814,1.0741,0.0031837,0.021136,1665,484,16.0364,36.1511
448,540,15.9548,-35.2835,-0.000554525,0.00293179,0.00256671,0.00429131,-0.00191405,1.08369,0.00366925,0.012631,1672,484,15.9549,35.2835
455,540,15.8905,-34.3925,-0.00110145,0.00305062,0.00296061,0.00459054,-0.00264137,1.09117,0.0042256,0.0116282,1679,484,15.8905,34.3925
462,540,15.821,-33.5327,-0.00152605,0.00335467,0.00341999,0.0051157,-0.00328708,1.09528,0.00488949,0.0115219,1686,484,15.821,33.5327
469,540,15.7457,-32.6448,-0.00166022,0.00385799,0.00396911,0.00593278,-0.00373501,1.08913,0.00562957,0.0155834,1693,484,15.7457,32.6448
476,540,15.7035,-31.7533,-0.00183393,0.00449235,0.00454815,0.00686916,-0.00421074,1.08924,0.00645807,0.0220817,1700,484,15.7035,31.7533
483,540,15.6934,-30.8065,-0.00177137,0.0053704,0.00518816,0.00809778,-0.00449875,1.08681,0.0073709,0.0393898,1707,484,15.6934,30.8065
490,540,15.8188,-29.7575,0,0,0,0,0,0,0,-1,1714,484,15.8189,29.7575
497,540,10.3452,-16.9359,0,0,0,0,0,0,0,-1,1721,484,10.3453,16.9359
504,540,12.519,-18.0764,0,0,0,0,0,0,0,-1,1728,484,12.519,18.0765
511,540,5.82471,-6.83521,0,0,0,0,0,0,0,-1,1735,484,5.82465,6.83522
518,540,9.98181,-12.4608,0,0,0,0,0,0,0,-1,1742,484,9.98187,12.4608
525,540,12.4843,-16.3481,0,0,0,0,0,0,0,-1,1749,484,12.4842,16.3481
532,540,2.84265,-1.07925,0,0,0,0,0,0,0,-1,1756,484,2.84269,1.07927
539,540,0,0,0,0,0,0,0,0,0,-1,1763,484,0,0
546,540,0,0,0,0,0,0,0,0,0,-1,1770,484,0,0
553,540,0,0,0,0,0,0,0,0,0,-1,1777,484,0,0
560,540,0,0,0,0,0,0,0,0,0,-1,1784,484,0,0
567,540,0,0,0,0,0,0,0,0,0,-1,1791,484,0,0
574,540,0,0,0,0,0,0,0,0,0,-1,1798,484,0,0
581,540,0,0,0,0,0,0,0,0,0,-1,1805,484,0,0
588,540,0,0,0,0,0,0,0,0,0,-1,1812,484,0,0
595,540,0,0,0,0,0,0,0,0,0,-1,1819,484,0,0
602,540,0,0,0,0,0,0,0,0,0,-1,1826,484,0,0
609,540,0,0,0,0,0,0,0,0,0,-1,1833,484,0,0
616,540,0,0,0,0,0,0,0,0,0,-1,1840,484,0,0
623,540,0,0,0,0,0,0,0,0,0,-1,1847,484,0,0
630,540,0,0,0,0,0,0,0,0,0,-1,1854,484,0,0
637,540,0,0,0,0,0,0,0,0,0,-1,1861,484,0,0
644,540,0,0,0,0,0,0,0,0,0,-1,1868,484,0,0
651,540,0,0,0,0,0,0,0,0,0,-1,1875,484,0,0
658,540,0,0,0,0,0,0,0,0,0,-1,1882,484,0,0
665,540,0,0,0,0,0,0,0,0,0,-1,1889,484,0,0
672,540,0,0,0,0,0,0,0,0,0,-1,1896,484,0,0
679,540,0,0,0,0,0,0,0,0,0,-1,1903,484,0,0
686,540,0,0,0,0,0,0,0,0,0,-1,1910,484,0,0
693,540,0,0,0,0,0,0,0,0,0,-1,1917,484,0,0
700,540,0,0,0,0,0,0,0,0,0,-1,1924,484,0,0
707,540,0,0,0,0,0,0,0,0,0,-1,1931,484,0,0
714,540,0,0,0,0,0,0,0,0,0,-1,1938,484,0,0
721,540,0,0,0,0,0,0,0,0,0,-1,1945,484,0,0
728,540,0,0,0,0,0,0,0,0,0,-1,1952,484,0,0
735,540,0,0,0,0,0,0,0,0,0,-1,1959,484,0,0
742,540,0,0,0,0,0,0,0,0,0,-1,1966,484,0,0
749,540,0,0,0,0,0,0,0,0,0,-1,1973,484,0,0
756,540,0,0,0,0,0,0,0,0,0,-1,1980,484,0,0
763,540,0,0,0,0,0,0,0,0,0,-1,1987,484,0,0
770,540,0,0,0,0,0,0,0,0,0,-1,1994,484,0,0
777,540,0,0,0,0,0,0,0,0,0,-1,2001,484,0,0
784,540,0,0,0,0,0,0,0,0,0,-1,2008,484,0,0
791,540,0,0,0,0,0,0,0,0,0,-1,2015,484,0,0
798,540,0,0,0,0,0,0,0,0,0,-1,2022,484,0,0
805,540,0,0,0,0,0,0,0,0,0,-1,2029,484,0,0
812,540,0,0,0,0,0,0,0,0,0,-1,2036,484,0,0
-700,533,0,0,0,0,0,0,0,0,0,-1,524,491,0,0
-693,533,0,0,0,0,0,0,0,0,0,-1,531,491,0,0
-686,533,0,0,0,0,0,0,0,0,0,-1,538,491,0,0
-679,533,0,0,0,0,0,0,0,0,0,-1,545,491,0,0
-672,533,0,0,0,0,0,0,0,0,0,-1,552,491,0,0
-665,533,0,0,0,0,0,0,0,0,0,-1,559,491,0,0
-658,533,0,0,0,0,0,0,0,0,0,-1,566,491,0,0
-651,533,0,0,0,0,0,0,0,0,0,-1,573,491,0,0
-644,533,0,0,0,0,0,0,0,0,0,-1,580,491,0,0
-637,533,0,0,0,0,0,0,0,0,0,-1,587,491,0,0
-630,533,0,0,0,0,0,0,0,0,0,-1,594,491,0,0
-623,533,0,0,0,0,0,0,0,0,0,-1,601,491,0,0
-616,533,0,0,0,0,0,0,0,0,0,-1,608,491,0,0
-609,533,0,0,0,0,0,0,0,0,0,-1,615,491,0,0
-602,533,0,0,0,0,0,0,0,0,0,-1,622,491,0,0
-595,533,0,0,0,0,0,0,0,0,0,-1,629,491,0,0
-588,533,0,0,0,0,0,0,0,0,0,-1,636,491,0,0
-581,533,0,0,0,0,0,0,0,0,0,-1,643,491,0,0
-574,533,0,0,0,0,0,0,0,0,0,-1,650,491,0,0
-567,533,0,0,0,0,0,0,0,0,0,-1,657,491,0,0
-560,533,0,0,0,0,0,0,0,0,0,-1,664,491,0,0
-553,533,0,0,0,0,0,0,0,0,0,-1,671,491,0,0
-546,533,0,0,0,0,0,0,0,0,0,-1,678,491,0,0
-539,533,0,0,0,0,0,0,0,0,0,-1,685,491,0,0
-532,533,0,0,0,0,0,0,0,0,0,-1,692,491,0,0
-525,533,0,0,0,0,0,0,0,0,0,-1,699,491,0,0
-518,533,0,0,0,0,0,0,0,0,0,-1,706,491,0,0
-511,533,0,0,0,0,0,0,0,0,0,-1,713,491,0,0
-504,533,0,0,0,0,0,0,0,0,0,-1,720,491,0,0
-497,533,0,0,0,0,0,0,0,0,0,-1,727,491,0,0
-490,533,0,0,0,0,0,0,0,0,0,-1,734,491,0,0
-483,533,0,0,0,0,0,0,0,0,0,-1,741,491,0,0
-476,533,0,0,0,0,0,0,0,0,0,-1,748,491,0,0
-469,533,0,0,0,0,0,0,0,0,0,-1,755,491,0,0
-462,533,0,0,0,0,0,0,0,0,0,-1,762,491,0,0
-455,533,0,0,0,0,0,0,0,0,0,-1,769,491,0,0
-448,533,0,0,0,0,0,0,0,0,0,-1,776,491,0,0
-441,533,0,0,0,0,0,0,0,0,0,-1,783,491,0,0
-434,533,0,0,0,0,0,0,0,0,0,-1,790,491,0,0
-427,533,0.559814,-4.40222,0,0,0,0,0,0,0,-1,797,491,0.559816,4.40222
-420,533,-1.11127,-10.9054,0,0,0,0,0,0,0,-1,804,491,-1.11124,10.9054
-413,533,-0.704773,-11.0942,0,0,0,0,0,0,0,-1,811,491,-0.704742,11.0942
-406,533,-0.670898,-12.0899,0,0,0,0,0,0,0,-1,818,491,-0.670908,12.0899
-399,533,-0.455017,-12.4423,0,0,0,0,0,0,0,-1,825,491,-0.455032,12.4423
-392,533,-1.89661,-10.3905,0,0,0,0,0,0,0,-1,832,491,-1.89661,10.3905
-385,533,0.797729,-17.0485,0,0,0,0,0,0,0,-1,839,491,0.797746,17.0485
-378,533,-1.89435,-19.6771,0,0,0,0,0,0,0,-1,846,491,-1.89433,19.6771
-371,533,-0.658081,-28.6108,0,0,0,0,0,0,0,-1,853,491,-0.658106,28.6108
-364,533,-0.543335,-29.9817,0,0,0,0,0,0,0,-1,860,491,-0.543347,29.9817
-357,533,-0.549683,-31.0281,0.00356249,0.019405,-0.0129993,0.0267063,-0.00373886,-1.05903,0.0191724,0.0265196,867,491,-0.549713,31.0282
-350,533,-0.628418,-32.0464,0.00201477,0.0159066,-0.0103311,0.0214096,-0.00348827,-1.08136,0.0155667,0.0144808,874,491,-0.628422,32.0464
-343,533,-0.692261,-32.9979,0.000947816,0.0128373,-0.00809794,0.0169383,-0.00315318,-1.10202,0.0124768,0.0129258,881,491,-0.692287,32.9979
-336,533,-0.785522,-33.9144,0.000259765,0.0103002,-0.00627834,0.0133186,-0.00275869,-1.12265,0.00992725,0.0159416,888,491,-0.785513,33.9144
-329,533,-0.846924,-34.7739,-0.000217003,0.00813117,-0.00473113,0.0102663,-0.00235216,-1.14686,0.00774821,0.0140592,895,491,-0.84692,34.7739
-322,533,-0.910339,-35.632,-0.000667054,0.00599111,-0.003212,0.00728801,-0.00196396,-1.18705,0.00562872,0.0118791,902,491,-0.910354,35.632
-315,533,-0.971252,-36.4888,-0.000807739,0.00424925,-0.00203659,0.00496745,-0.00152593,-1.23177,0.00392054,0.0133502,909,491,-0.971228,36.4888
-308,533,-1.01483,-37.3648,-0.000638947,0.00289428,-0.00119231,0.00325899,-0.00100366,-1.27395,0.0025733,0.0128937,916,491,-1.01482,37.3648
-301,533,-1.0874,-38.201,-0.000376645,0.00163693,-0.00047749,0.00174442,-0.000484136,-1.34937,0.0013535,0.0147013,923,491,-1.08741,38.201
-294,533,-1.11481,-39.0123,-2.48837e-05,0.000411943,0.000259116,0.000532418,-0.000145359,1.13558,0.000412035,0.0135242,930,491,-1.11481,39.0123
-287,533,-1.1333,-39.8615,0.000349757,-0.000868977,0.000963489,0.000880408,-0.00139963,0.503426,0.00132771,0.00982175,937,491,-1.13333,39.8614
-280,533,-1.1767,-40.729,0.000554062,-0.0027549,0.00163424,0.0012251,-0.00342594,0.389622,0.00278369,0.00907699,944,491,-1.17669,40.729
-273,533,-1.22003,-41.5454,0.00061864,-0.00506501,0.00253235,0.00158322,-0.00602959,0.363938,0.00463843,0.0127374,951,491,-1.22005,41.5454
-266,533,-1.24719,-42.3532,0.000817964,-0.00738938,0.0035433,0.00213602,-0.00870743,0.356124,0.00663261,0.012849,958,491,-1.24722,42.3532
-259,533,-1.26703,-43.1779,0.000893793,-0.00991395,0.00483395,0.00274036,-0.0117605,0.364894,0.00889564,0.0137496,965,491,-1.26704,43.1779
-252,533,-1.30731,-43.9537,0.000771413,-0.012665,0.00650944,0.00340773,-0.0153013,0.384809,0.0115062,0.0188297,972,491,-1.30734,43.9537
-245,533,-1.39478,-44.6677,0.000706162,-0.0160944,0.00823564,0.00406983,-0.0194581,0.387751,0.01452,0.0262744,979,491,-1.39475,44.6678
-238,533,-1.31299,-45.2657,0.000689085,-0.0201748,0.00997345,0.00468957,-0.0241753,0.381466,0.0178862,0.0270348,986,491,-1.31299,45.2657
-231,533,-1.36066,-45.7893,0.000482516,-0.0244118,0.0118151,0.00519719,-0.0291265,0.379676,0.0213619,0.034602,993,491,-1.36066,45.7893
-224,533,-1.53455,-46.4042,3.55279e-05,-0.028807,0.0141331,0.00580627,-0.0345777,0.387653,0.0252111,0.0423659,1000,491,-1.53455,46.4042
-217,533,-1.60822,-46.9979,0,0,0,0,0,0,0,-1,1007,491,-1.60822,46.9979
-210,533,-1.72498,-48.2585,0,0,0,0,0,0,0,-1,1014,491,-1.725,48.2585
-203,533,-1.95929,-48.9788,0,0,0,0,0,0,0,-1,1021,491,-1.95932,48.9788
-196,533,-2.22546,-48.6072,0,0,0,0,0,0,0,-1,1028,491,-2.22546,48.6072
-189,533,-1.75317,-43.4744,0,0,0,0,0,0,0,-1,1035,491,-1.75312,43.4744
-182,533,1.26123,-11.4969,0,0,0,0,0,0,0,-1,1042,491,1.26128,11.4969
-175,533,0.937744,-7.36966,0,0,0,0,0,0,0,-1,1049,491,0.937769,7.36965
-168,533,2.64807,-2.7543,0,0,0,0,0,0,0,-1,1056,491,2.64812,2.7543
-161,533,1.91833,-1.76553,0,0,0,0,0,0,0,-1,1063,491,1.91836,1.76554
-154,533,0.376709,-11.0633,0,0,0,0,0,0,0,-1,1070,491,0.376715,11.0632
-147,533,0.383789,-12.1586,0,0,0,0,0,0,0,-1,1077,491,0.383829,12.1586
-140,533,1.14001,-15.4608,0,0,0,0,0,0,0,-1,1084,491,1.14005,15.4608
-133,533,0.189941,-16.0795,0,0,0,0,0,0,0,-1,1091,491,0.18994,16.0795
-126,533,2.89612,-2.59003,0,0,0,0,0,0,0,-1,1098,491,2.89608,2.59003
-119,533,1.78284,-22.5394,0,0,0,0,0,0,0,-1,1105,491,1.78279,22.5394
-112,533,1.83862,-21.2401,0,0,0,0,0,0,0,-1,1112,491,1.83859,21.24
-105,533,1.67554,-19.4018,0,0,0,0,0,0,0,-1,1119,491,1.6755,19.4018
-98,533,-1.39392,-5.16367,0,0,0,0,0,0,0,-1,1126,491,-1.39394,5.16367
-91,533,0.367432,4.49753,0,0,0,0,0,0,0,-1,1133,491,0.367468,-4.49754
-84,533,-0.88623,3.03604,0,0,0,0,0,0,0,-1,1140,491,-0.886288,-3.03605
-77,533,0,0,0,0,0,0,0,0,0,-1,1147,491,0,0
-70,533,0,0,0,0,0,0,0,0,0,-1,1154,491,0,0
-63,533,0,0,0,0,0,0,0,0,0,-1,1161,491,0,0
-56,533,0,0,0,0,0,0,0,0,0,-1,1168,491,0,0
-49,533,0,0,0,0,0,0,0,0,0,-1,1175,491,0,0
-42,533,0,0,0,0,0,0,0,0,0,-1,1182,491,0,0
-35,533,0,0,0,0,0,0,0,0,0,-1,1189,491,0,0
-28,533,0,0,0,0,0,0,0,0,0,-1,1196,491,0,0
-21,533,0,0,0,0,0,0,0,0,0,-1,1203,491,0,0
-14,533,0,0,0,0,0,0,0,0,0,-1,1210,491,0,0
-7,533,0,0,0,0,0,0,0,0,0,-1,1217,491,0,0
0,533,0,0,0,0,0,0,0,0,0,-1,1224,491,0,0
7,533,0,0,0,0,0,0,0,0,0,-1,1231,491,0,0
14,533,0,0,0,0,0,0,0,0,0,-1,1238,491,0,0
21,533,0,0,0,0,0,0,0,0,0,-1,1245,491,0,0
28,533,0,0,0,0,0,0,0,0,0,-1,1252,491,0,0
35,533,0,0,0,0,0,0,0,0,0,-1,1259,491,0,0
42,533,0,0,0,0,0,0,0,0,0,-1,1266,491,0,0
49,533,0,0,0,0,0,0,0,0,0,-1,1273,491,0,0
56,533,0,0,0,0,0,0,0,0,0,-1,1280,491,0,0
63,533,0,0,0,0,0,0,0,0,0,-1,1287,491,0,0
70,533,0,0,0,0,0,0,0,0,0,-1,1294,491,0,0
77,533,0,0,0,0,0,0,0,0,0,-1,1301,491,0,0
84,533,0,0,0,0,0,0,0,0,0,-1,1308,491,0,0
91,533,0,0,0,0,0,0,0,0,0,-1,1315,491,0,0
98,533,0,0,0,0,0,0,0,0,0,-1,1322,491,0,0
105,533,0,0,0,0,0,0,0,0,0,-1,1329,491,0,0
112,533,0,0,0,0,0,0,0,0,0,-1,1336,491,0,0
119,533,0,0,0,0,0,0,0,0,0,-1,1343,491,0,0
126,533,0,0,0,0,0,0,0,0,0,-1,1350,491,0,0
133,533,0,0,0,0,0,0,0,0,0,-1,1357,491,0,0
140,533,0,0,0,0,0,0,0,0,0,-1,1364,491,0,0
147,533,0,0,0,0,0,0,0,0,0,-1,1371,491,0,0
154,533,0,0,0,0,0,0,0,0,0,-1,1378,491,0,0
161,533,0,0,0,0,0,0,0,0,0,-1,1385,491,0,0
168,533,0,0,0,0,0,0,0,0,0,-1,1392,491,0,0
175,533,0,0,0,0,0,0,0,0,0,-1,1399,491,0,0
182,533,0,0,0,0,0,0,0,0,0,-1,1406,491,0,0
189,533,0,0,0,0,0,0,0,0,0,-1,1413,491,0,0
196,533,0,0,0,0,0,0,0,0,0,-1,1420,491,0,0
203,533,3.7887,1.16193,0,0,0,0,0,0,0,-1,1427,491,3.78872,-1.16193
210,533,5.09558,-0.216034,0,0,0,0,0,0,0,-1,1434,491,5.09559,0.216028
217,533,6.91614,-2.46814,0,0,0,0,0,0,0,-1,1441,491,6.91618,2.46814
224,533,7.23621,-2.1857,0,0,0,0,0,0,0,-1,1448,491,7.23621,2.1857
231,533,7.23474,-1.92282,0,0,0,0,0,0,0,-1,1455,491,7.2347,1.92282
238,533,7.23535,-1.67258,0,0,0,0,0,0,0,-1,1462,491,7.23539,1.67258
245,533,6.86682,-1.2301,0,0,0,0,0,0,0,-1,1469,491,6.86686,1.23011
252,533,6.63354,-3.07825,0,0,0,0,0,0,0,-1,1476,491,6.6335,3.07824
259,533,6.16431,-2.35037,0,0,0,0,0,0,0,-1,1483,491,6.1643,2.35037
266,533,5.68884,-1.6214,0,0,0,0,0,0,0,-1,1490,491,5.68885,1.6214
273,533,5.21399,-0.864227,0,0,0,0,0,0,0,-1,1497,491,5.21403,0.864227
280,533,1.41089,-1.97946,0,0,0,0,0,0,0,-1,1504,491,1.41087,1.97946
287,533,1.6814,-2.44443,0,0,0,0,0,0,0,-1,1511,491,1.6814,2.44444
294,533,2.2384,-2.57626,0,0,0,0,0,0,0,-1,1518,491,2.23839,2.57625
301,533,3.39941,-4.0817,0,0,0,0,0,0,0,-1,1525,491,3.3994,4.08171
308,533,4.13733,-4.14752,0,0,0,0,0,0,0,-1,1532,491,4.13727,4.14752
315,533,4.80762,-5.29349,0,0,0,0,0,0,0,-1,1539,491,4.80762,5.29347
322,533,5.47803,-6.43942,0,0,0,0,0,0,0,-1,1546,491,5.47798,6.43943
329,533,3.88477,-3.86301,0,0,0,0,0,0,0,-1,1553,491,3.88475,3.86299
336,533,14.5214,-40.908,0,0,0,0,0,0,0,-1,1560,491,14.5214,40.908
343,533,16.3387,-44.9998,0,0,0,0,0,0,0,-1,1567,491,16.3387,44.9998
350,533,17.1555,-45.5613,0,0,0,0,0,0,0,-1,1574,491,17.1555,45.5613
357,533,17.3257,-45.6538,0,0,0,0,0,0,0,-1,1581,491,17.3257,45.6538
364,533,17.1045,-45.1454,0,0,0,0,0,0,0,-1,1588,491,17.1045,45.1454
371,533,17.1628,-44.4054,0,0,0,0,0,0,0,-1,1595,491,17.1629,44.4054
378,533,17.0773,-43.6158,0.00355976,-0.00676174,-0.00398197,0.0049174,-0.00811938,-0.328587,0.00760209,0.0495156,1602,491,17.0772,43.6158
385,533,17.1967,-42.77,0.00369652,-0.00419098,-0.0022292,0.00428295,-0.0047774,-0.257238,0.00523359,0.0401529,1609,491,17.1967,42.77
392,533,17.1304,-42.0059,0.00360503,-0.00235449,-0.000890136,0.00373515,-0.0024846,-0.145144,0.00361509,0.0167183,1616,491,17.1304,42.0059
399,533,17.1047,-41.2027,0.00322771,-0.00107601,-0.000210912,0.00323802,-0.00108632,-0.0488509,0.00259764,0.0146305,1623,491,17.1048,41.2027
406,533,17.1045,-40.3621,0.00284026,0.000489841,0.000402231,0.00290719,0.000422913,0.164883,0.00181366,0.0174096,1630,491,17.1045,40.3621
413,533,17.0575,-39.4801,0.00244836,0.00114839,0.000758573,0.00279733,0.000799422,0.43117,0.00166371,0.0155333,1637,491,17.0575,39.4801
420,533,16.9851,-38.6308,0.0019943,0.00153438,0.000927175,0.00271961,0.000809073,0.663842,0.00161252,0.0151959,1644,491,16.9851,38.6308
427,533,16.934,-37.7761,0.00148266,0.00176681,0.00110908,0.00274288,0.000506592,0.849101,0.0016853,0.01612,1651,491,16.934,37.776
434,533,16.8894,-36.9638,0.000959586,0.00191672,0.00129627,0.00281995,5.6361e-05,0.962231,0.00186146,0.0148652,1658,491,16.8895,36.9638
441,533,16.8879,-36.0962,0.000514762,0.0021388,0.00163234,0.00314994,-0.000496382,1.0162,0.00228348,0.0168067,1665,491,16.8879,36.0962
448,533,16.8262,-35.2155,9.46536e-05,0.00228368,0.00198441,0.00345541,-0.00107707,1.03742,0.00273428,0.0180222,1672,491,16.8262,35.2155
455,533,16.7556,-34.3384,-0.000346089,0.00248071,0.0023748,0.00383089,-0.00169627,1.05383,0.00326947,0.0174617,1679,491,16.7556,34.3385
462,533,16.6879,-33.4645,-0.000629065,0.00282566,0.00280807,0.00439512,-0.00219853,1.06114,0.00387662,0.0155895,1686,491,16.6878,33.4645
469,533,16.6344,-32.6116,-0.000587982,0.00336801,0.00333591,0.00526826,-0.00248823,1.053,0.00457308,0.0102204,1693,491,16.6344,32.6116
476,533,16.6035,-31.6783,-0.000596515,0.00403121,0.00388987,0.00624339,-0.00280869,1.05371,0.00535016,0.0122924,1700,491,16.6035,31.6783
483,533,16.5846,-30.7197,-0.000371681,0.00489023,0.00451696,0.00748659,-0.00296804,1.04911,0.00622107,0.0232237,1707,491,16.5846,30.7197
490,533,16.6289,-29.6193,0,0,0,0,0,0,0,-1,1714,491,16.6289,29.6193
497,533,15.4799,-26.3297,0,0,0,0,0,0,0,-1,1721,491,15.4799,26.3297
504,533,14.6896,-22.6455,0,0,0,0,0,0,0,-1,1728,491,14.6895,22.6455
511,533,13.6221,-19.2798,0,0,0,0,0,0,0,-1,1735,491,13.6221,19.2798
518,533,14.1954,-19.4995,0,0,0,0,0,0,0,-1,1742,491,14.1955,19.4995
525,533,13.7935,-19.6901,0,0,0,0,0,0,0,-1,1749,491,13.7934,19.6901
532,533,15.4377,-17.9016,0,0,0,0,0,0,0,-1,1756,491,15.4377,17.9015
539,533,12.8733,-18.2556,0,0,0,0,0,0,0,-1,1763,491,12.8733,18.2556
546,533,3.59607,1.65799,0,0,0,0,0,0,0,-1,1770,491,3.59605,-1.658
553,533,0,0,0,0,0,0,0,0,0,-1,1777,491,0,0
560,533,0,0,0,0,0,0,0,0,0,-1,1784,491,0,0
567,533,0,0,0,0,0,0,0,0,0,-1,1791,491,0,0
574,533,0,0,0,0,0,0,0,0,0,-1,1798,491,0,0
581,533,0,0,0,0,0,0,0,0,0,-1,1805,491,0,0
588,533,0,0,0,0,0,0,0,0,0,-1,1812,491,0,0
595,533,0,0,0,0,0,0,0,0,0,-1,1819,491,0,0
602,533,0,0,0,0,0,0,0,0,0,-1,1826,491,0,0
609,533,0,0,0,0,0,0,0,0,0,-1,1833,491,0,0
616,533,0,0,0,0,0,0,0,0,0,-1,1840,491,0,0
623,533,0,0,0,0,0,0,0,0,0,-1,1847,491,0,0
630,533,0,0,0,0,0,0,0,0,0,-1,1854,491,0,0
637,533,0,0,0,0,0,0,0,0,0,-1,1861,491,0,0
644,533,0,0,0,0,0,0,0,0,0,-1,1868,491,0,0
651,533,0,0,0,0,0,0,0,0,0,-1,1875,491,0,0
658,533,0,0,0,0,0,0,0,0,0,-1,1882,491,0,0
665,533,0,0,0,0,0,0,0,0,0,-1,1889,491,0,0
672,533,0,0,0,0,0,0,0,0,0,-1,1896,491,0,0
679,533,0,0,0,0,0,0,0,0,0,-1,1903,491,0,0
686,533,0,0,0,0,0,0,0,0,0,-1,1910,491,0,0
693,533,0,0,0,0,0,0,0,0,0,-1,1917,491,0,0
700,533,0,0,0,0,0,0,0,0,0,-1,1924,491,0,0
707,533,0,0,0,0,0,0,0,0,0,-1,1931,491,0,0
714,533,0,0,0,0,0,0,0,0,0,-1,1938,491,0,0
721,533,0,0,0,0,0,0,0,0,0,-1,1945,491,0,0
728,533,0,0,0,0,0,0,0,0,0,-1,1952,491,0,0
735,533,0,0,0,0,0,0,0,0,0,-1,1959,491,0,0
742,533,0,0,0,0,0,0,0,0,0,-1,1966,491,0,0
749,533,0,0,0,0,0,0,0,0,0,-1,1973,491,0,0
756,533,0,0,0,0,0,0,0,0,0,-1,1980,491,0,0
763,533,0,0,0,0,0,0,0,0,0,-1,1987,491,0,0
770,533,0,0,0,0,0,0,0,0,0,-1,1994,491,0,0
777,533,0,0,0,0,0,0,0,0,0,-1,2001,491,0,0
784,533,0,0,0,0,0,0,0,0,0,-1,2008,491,0,0
791,533,0,0,0,0,0,0,0,0,0,-1,2015,491,0,0
798,533,0,0,0,0,0,0,0,0,0,-1,2022,491,0,0
805,533,0,0,0,0,0,0,0,0,0,-1,2029,491,0,0
812,533,0,0,0,0,0,0,0,0,0,-1,2036,491,0,0
-700,526,0,0,0,0,0,0,0,0,0,-1,524,498,0,0
-693,526,0,0,0,0,0,0,0,0,0,-1,531,498,0,0
-686,526,0,0,0,0,0,0,0,0,0,-1,538,498,0,0
-679,526,0,0,0,0,0,0,0,0,0,-1,545,498,0,0
-672,526,0,0,0,0,0,0,0,0,0,-1,552,498,0,0
-665,526,0,0,0,0,0,0,0,0,0,-1,559,498,0,0
-658,526,0,0,0,0,0,0,0,0,0,-1,566,498,0,0
-651,526,0,0,0,0,0,0,0,0,0,-1,573,498,0,0
-644,526,0,0,0,0,0,0,0,0,0,-1,580,498,0,0
-637,526,0,0,0,0,0,0,0,0,0,-1,587,498,0,0
-630,526,0,0,0,0,0,0,0,0,0,-1,594,498,0,0
-623,526,0,0,0,0,0,0,0,0,0,-1,601,498,0,0
-616,526,0,0,0,0,0,0,0,0,0,-1,608,498,0,0
-609,526,0,0,0,0,0,0,0,0,0,-1,615,498,0,0
-602,526,0,0,0,0,0,0,0,0,0,-1,622,498,0,0
-595,526,0,0,0,0,0,0,0,0,0,-1,629,498,0,0
-588,526,0,0,0,0,0,0,0,0,0,-1,636,498,0,0
-581,526,0,0,0,0,0,0,0,0,0,-1,643,498,0,0
-574,526,0,0,0,0,0,0,0,0,0,-1,650,498,0,0
-567,526,0,0,0,0,0,0,0,0,0,-1,657,498,0,0
-560,526,0,0,0,0,0,0,0,0,0,-1,664,498,0,0
-553,526,0,0,0,0,0,0,0,0,0,-1,671,498,0,0
-546,526,0,0,0,0,0,0,0,0,0,-1,678,498,0,0
-539,526,0,0,0,0,0,0,0,0,0,-1,685,498,0,0
-532,526,0,0,0,0,0,0,0,0,0,-1,692,498,0,0
-525,526,0,0,0,0,0,0,0,0,0,-1,699,498,0,0
-518,526,0,0,0,0,0,0,0,0,0,-1,706,498,0,0
-511,526,0,0,0,0,0,0,0,0,0,-1,713,498,0,0
-504,526,0,0,0,0,0,0,0,0,0,-1,720,498,0,0
-497,526,0,0,0,0,0,0,0,0,0,-1,727,498,0,0
-490,526,0,0,0,0,0,0,0,0,0,-1,734,498,0,0
-483,526,0,0,0,0,0,0,0,0,0,-1,741,498,0,0
-476,526,0,0,0,0,0,0,0,0,0,-1,748,498,0,0
-469,526,0,0,0,0,0,0,0,0,0,-1,755,498,0,0
-462,526,0,0,0,0,0,0,0,0,0,-1,762,498,0,0
-455,526,0,0,0,0,0,0,0,0,0,-1,769,498,0,0
-448,526,0,0,0,0,0,0,0,0,0,-1,776,498,0,0
-441,526,0,0,0,0,0,0,0,0,0,-1,783,498,0,0
-434,526,-0.153564,-5.96649,0,0,0,0,0,0,0,-1,790,498,-0.153589,5.9665
-427,526,1.23206,-4.59808,0,0,0,0,0,0,0,-1,797,498,1.23208,4.59809
-420,526,-1.76373,-11.6241,0,0,0,0,0,0,0,-1,804,498,-1.76373,11.6241
-413,526,-1.38965,-11.7916,0,0,0,0,0,0,0,-1,811,498,-1.38963,11.7916
-406,526,-1.35187,-12.5182,0,0,0,0,0,0,0,-1,818,498,-1.35185,12.5181
-399,526,-1.32715,-13.2116,0,0,0,0,0,0,0,-1,825,498,-1.32713,13.2116
-392,526,0.197571,-15.303,0,0,0,0,0,0,0,-1,832,498,0.197598,15.303
-385,526,-2.69397,-19.6176,0,0,0,0,0,0,0,-1,839,498,-2.69399,19.6176
-378,526,-2.06592,-27.3283,0,0,0,0,0,0,0,-1,846,498,-2.06589,27.3283
-371,526,-1.49823,-28.7778,0.00613701,0.0221271,-0.0158343,0.0318703,-0.00360621,-1.01919,0.0225453,0.0459334,853,498,-1.49825,28.7778
-364,526,-1.44299,-30.0836,0.00462463,0.0185429,-0.0130121,0.0263399,-0.00317237,-1.03096,0.0187073,0.022105,860,498,-1.44302,30.0836
-357,526,-1.43805,-31.1097,0.0032507,0.0153096,-0.0105384,0.0214215,-0.00286121,-1.04524,0.015324,0.0144368,867,498,-1.43804,31.1097
-350,526,-1.48907,-32.0526,0.00207704,0.0123998,-0.0083312,0.0170388,-0.00256204,-1.06272,0.0123025,0.0137203,874,498,-1.4891,32.0526
-343,526,-1.57971,-32.9459,0.00123482,0.00976829,-0.0064338,0.0132216,-0.00221847,-1.07819,0.00963936,0.016911,881,498,-1.57969,32.9459
-336,526,-1.63678,-33.8181,0.00060868,0.0075407,-0.00481679,0.0100089,-0.00185951,-1.09727,0.00737103,0.0157563,888,498,-1.6368,33.8181
-329,526,-1.68146,-34.699,0.000148282,0.00562518,-0.00342389,0.00727104,-0.00149758,-1.12271,0.00541601,0.0162863,895,498,-1.68145,34.699
-322,526,-1.73328,-35.5527,-0.000278513,0.0037102,-0.00204189,0.00457009,-0.00113841,-1.17221,0.00348867,0.0110605,902,498,-1.7333,35.5527
-315,526,-1.80212,-36.4467,-0.00040425,0.00217254,-0.000967715,0.00249549,-0.0007272,-1.24869,0.00195175,0.00962596,909,498,-1.8021,36.4467
-308,526,-1.86566,-37.344,-0.000246414,0.000954923,-0.000178231,0.000980808,-0.000272299,-1.42657,0.000761053,0.00951053,916,498,-1.86567,37.344
-301,526,-1.93066,-38.1533,-2.07161e-05,-0.00015327,0.000508457,0.000425766,-0.000599751,0.720589,0.000594916,0.0111674,923,498,-1.93066,38.1533
-294,526,-1.94781,-38.9598,0.000305555,-0.00118732,0.00121507,0.000985152,-0.00186692,0.509959,0.00167267,0.0106184,930,498,-1.94779,38.9599
-287,526,-1.96814,-39.8096,0.00066211,-0.00240491,0.00192459,0.00158943,-0.00333223,0.449005,0.0029003,0.0109385,937,498,-1.96814,39.8096
-280,526,-2.01959,-40.6493,0.000802282,-0.0045002,0.00264279,0.00189449,-0.00559241,0.391901,0.00449488,0.014031,944,498,-2.01959,40.6493
-273,526,-2.05304,-41.4827,0.000792646,-0.00713643,0.00362889,0.00220271,-0.0085465,0.370612,0.00655642,0.0117993,951,498,-2.05306,41.4826
-266,526,-2.08972,-42.3004,0.000977795,-0.00980651,0.00476745,0.00278314,-0.0116118,0.361993,0.00881661,0.0184347,958,498,-2.08972,42.3004
-259,526,-2.04352,-43.0911,0.000986244,-0.0126396,0.00626663,0.00343002,-0.0150834,0.371827,0.0113727,0.04735,965,498,-2.04353,43.0912
-252,526,-2.10547,-43.937,0,0,0,0,0,0,0,-1,972,498,-2.10546,43.937
-245,526,-2.17615,-44.5557,0,0,0,0,0,0,0,-1,979,498,-2.17617,44.5557
-238,526,-2.05798,-44.963,0,0,0,0,0,0,0,-1,986,498,-2.05795,44.9629
-231,526,-1.84192,-44.8967,0,0,0,0,0,0,0,-1,993,498,-1.8419,44.8967
-224,526,-2.34485,-45.8207,0,0,0,0,0,0,0,-1,1000,498,-2.34483,45.8208
-217,526,-2.39307,-46.6579,0,0,0,0,0,0,0,-1,1007,498,-2.39305,46.6579
-210,526,-1.77289,-44.7313,0,0,0,0,0,0,0,-1,1014,498,-1.77289,44.7313
-203,526,-0.659302,-18.8818,0,0,0,0,0,0,0,-1,1021,498,-0.659273,18.8818
-196,526,-0.328247,-12.179,0,0,0,0,0,0,0,-1,1028,498,-0.328238,12.179
-189,526,0.401245,-5.96826,0,0,0,0,0,0,0,-1,1035,498,0.401197,5.96826
-182,526,1.7323,-2.99405,0,0,0,0,0,0,0,-1,1042,498,1.73226,2.99404
-175,526,2.27637,-2.07983,0,0,0,0,0,0,0,-1,1049,498,2.27639,2.07984
-168,526,2.12036,-1.66049,0,0,0,0,0,0,0,-1,1056,498,2.12035,1.66048
-161,526,2.09082,-1.20572,0,0,0,0,0,0,0,-1,1063,498,2.09086,1.2057
-154,526,-1.3446,-5.37799,0,0,0,0,0,0,0,-1,1070,498,-1.34457,5.37799
-147,526,-0.472656,-6.64996,0,0,0,0,0,0,0,-1,1077,498,-0.472659,6.64997
-140,526,0.422852,-8.03339,0,0,0,0,0,0,0,-1,1084,498,0.422844,8.0334
-133,526,1.09583,-9.2215,0,0,0,0,0,0,0,-1,1091,498,1.09581,9.2215
-126,526,3.42529,-2.36053,0,0,0,0,0,0,0,-1,1098,498,3.42523,2.36052
-119,526,2.7771,-0.764099,0,0,0,0,0,0,0,-1,1105,498,2.7771,0.764107
-112,526,2.57715,-1.1893,0,0,0,0,0,0,0,-1,1112,498,2.57718,1.1893
-105,526,0,0,0,0,0,0,0,0,0,-1,1119,498,0,0
-98,526,0,0,0,0,0,0,0,0,0,-1,1126,498,0,0
-91,526,0,0,0,0,0,0,0,0,0,-1,1133,498,0,0
-84,526,0,0,0,0,0,0,0,0,0,-1,1140,498,0,0
-77,526,0,0,0,0,0,0,0,0,0,-1,1147,498,0,0
-70,526,0,0,0,0,0,0,0,0,0,-1,1154,498,0,0
-63,526,0,0,0,0,0,0,0,0,0,-1,1161,498,0,0
-56,526,0,0,0,0,0,0,0,0,0,-1,1168,498,0,0
-49,526,0,0,0,0,0,0,0,0,0,-1,1175,498,0,0
-42,526,0,0,0,0,0,0,0,0,0,-1,1182,498,0,0
-35,526,0,0,0,0,0,0,0,0,0,-1,1189,498,0,0
-28,526,0,0,0,0,0,0,0,0,0,-1,1196,498,0,0
-21,526,0,0,0,0,0,0,0,0,0,-1,1203,498,0,0
-14,526,0,0,0,0,0,0,0,0,0,-1,1210,498,0,0
-7,526,0,0,0,0,0,0,0,0,0,-1,1217,498,0,0
0,526,0,0,0,0,0,0,0,0,0,-1,1224,498,0,0
7,526,0,0,0,0,0,0,0,0,0,-1,1231,498,0,0
14,526,0,0,0,0,0,0,0,0,0,-1,1238,498,0,0
21,526,0,0,0,0,0,0,0,0,0,-1,1245,498,0,0
28,526,0,0,0,0,0,0,0,0,0,-1,1252,498,0,0
35,526,0,0,0,0,0,0,0,0,0,-1,1259,498,0,0
42,526,0,0,0,0,0,0,0,0,0,-1,1266,498,0,0
49,526,0,0,0,0,0,0,0,0,0,-1,1273,498,0,0
56,526,0,0,0,0,0,0,0,0,0,-1,1280,498,0,0
63,526,0,0,0,0,0,0,0,0,0,-1,1287,498,0,0
70,526,0,0,0,0,0,0,0,0,0,-1,1294,498,0,0
77,526,0,0,0,0,0,0,0,0,0,-1,1301,498,0,0
84,526,0,0,0,0,0,0,0,0,0,-1,1308,498,0,0
91,526,0,0,0,0,0,0,0,0,0,-1,1315,498,0,0
98,526,0,0,0,0,0,0,0,0,0,-1,1322,498,0,0
105,526,0,0,0,0,0,0,0,0,0,-1,1329,498,0,0
112,526,0,0,0,0,0,0,0,0,0,-1,1336,498,0,0
119,526,0,0,0,0,0,0,0,0,0,-1,1343,498,0,0
126,526,0,0,0,0,0,0,0,0,0,-1,1350,498,0,0
133,526,0,0,0,0,0,0,0,0,0,-1,1357,498,0,0
140,526,0,0,0,0,0,0,0,0,0,-1,1364,498,0,0
147,526,0,0,0,0,0,0,0,0,0,-1,1371,498,0,0
154,526,0,0,0,0,0,0,0,0,0,-1,1378,498,0,0
161,526,0,0,0,0,0,0,0,0,0,-1,1385,498,0,0
168,526,0,0,0,0,0,0,0,0,0,-1,1392,498,0,0
175,526,0,0,0,0,0,0,0,0,0,-1,1399,498,0,0
182,526,0,0,0,0,0,0,0,0,0,-1,1406,498,0,0
189,526,0,0,0,0,0,0,0,0,0,-1,1413,498,0,0
196,526,0,0,0,0,0,0,0,0,0,-1,1420,498,0,0
203,526,0,0,0,0,0,0,0,0,0,-1,1427,498,0,0
210,526,0,0,0,0,0,0,0,0,0,-1,1434,498,0,0
217,526,0,0,0,0,0,0,0,0,0,-1,1441,498,0,0
224,526,0,0,0,0,0,0,0,0,0,-1,1448,498,0,0
231,526,7.93237,-1.30618,0,0,0,0,0,0,0,-1,1455,498,7.93238,1.30618
238,526,7.97717,-1.08197,0,0,0,0,0,0,0,-1,1462,498,7.97723,1.08196
245,526,7.2793,-0.792938,0,0,0,0,0,0,0,-1,1469,498,7.27931,0.792926
252,526,6.73523,-2.23608,0,0,0,0,0,0,0,-1,1476,498,6.73525,2.23608
259,526,6.22949,-1.84967,0,0,0,0,0,0,0,-1,1483,498,6.22953,1.84968
266,526,5.72375,-1.46329,0,0,0,0,0,0,0,-1,1490,498,5.72381,1.46328
273,526,4.33984,0.49173,0,0,0,0,0,0,0,-1,1497,498,4.33979,-0.491727
280,526,1.4585,-1.59897,0,0,0,0,0,0,0,-1,1504,498,1.45846,1.59895
287,526,1.46411,-2.40134,0,0,0,0,0,0,0,-1,1511,498,1.46406,2.40133
294,526,5.57471,-4.59085,0,0,0,0,0,0,0,-1,1518,498,5.57466,4.59084
301,526,4.42786,-3.99677,0,0,0,0,0,0,0,-1,1525,498,4.42788,3.99676
308,526,5.79529,-4.19366,0,0,0,0,0,0,0,-1,1532,498,5.79528,4.19368
315,526,5.09851,-5.20068,0,0,0,0,0,0,0,-1,1539,498,5.09851,5.20068
322,526,5.50708,-4.72348,0,0,0,0,0,0,0,-1,1546,498,5.50713,4.72347
329,526,3.88672,-4.345,0,0,0,0,0,0,0,-1,1553,498,3.88674,4.34501
336,526,4.97876,-2.23828,0,0,0,0,0,0,0,-1,1560,498,4.97877,2.23828
343,526,3.31665,-2.69696,0,0,0,0,0,0,0,-1,1567,498,3.31667,2.69696
350,526,6.06287,-6.12015,0,0,0,0,0,0,0,-1,1574,498,6.06286,6.12014
357,526,12.9944,-29.1665,0,0,0,0,0,0,0,-1,1581,498,12.9943,29.1665
364,526,13.2582,-29.5416,0,0,0,0,0,0,0,-1,1588,498,13.2581,29.5416
371,526,12.4481,-29.0131,0,0,0,0,0,0,0,-1,1595,498,12.4481,29.0131
378,526,17.6067,-44.3647,0,0,0,0,0,0,0,-1,1602,498,17.6067,44.3647
385,526,17.9274,-42.9639,0,0,0,0,0,0,0,-1,1609,498,17.9274,42.9639
392,526,17.9603,-41.9994,0,0,0,0,0,0,0,-1,1616,498,17.9604,41.9994
399,526,17.9149,-41.1642,0.00399088,-0.00117448,-0.000405035,0.00402245,-0.00120605,-0.0777801,0.00316129,0.0289053,1623,498,17.9149,41.1642
406,526,17.9269,-40.2833,0.00354426,0.00037234,0.000199344,0.00355674,0.000359861,0.0625187,0.00226077,0.0141405,1630,498,17.9269,40.2833
413,526,17.8879,-39.4282,0.00312414,0.000911377,0.000506806,0.00323469,0.000800823,0.214775,0.00194527,0.0140291,1637,498,17.888,39.4282
420,526,17.8406,-38.5879,0.00263232,0.00118913,0.000596339,0.00284685,0.000974605,0.345321,0.00167064,0.0150531,1644,498,17.8405,38.5879
427,526,17.8214,-37.7446,0.00208101,0.00132475,0.000708723,0.00250617,0.000899594,0.54034,0.001466,0.0158187,1651,498,17.8215,37.7446
434,526,17.7683,-36.9077,0.00150426,0.00141728,0.0008255,0.00228741,0.000634122,0.759081,0.00136363,0.0137221,1658,498,17.7683,36.9077
441,526,17.7014,-36.0277,0.00106381,0.00158685,0.00111102,0.00246672,0.000183944,0.900986,0.00158672,0.0121997,1665,498,17.7014,36.0277
448,526,17.67,-35.1605,0.000685992,0.00171625,0.00142635,0.00271764,-0.0003154,0.958685,0.00192552,0.0118069,1672,498,17.6701,35.1605
455,526,17.6055,-34.299,0.000310344,0.00193097,0.00178434,0.00308037,-0.000839062,0.998537,0.00238303,0.015042,1679,498,17.6055,34.2989
462,526,17.5657,-33.4308,0.000110005,0.00230676,0.00218448,0.00365346,-0.00123669,1.01835,0.00293601,0.0112432,1686,498,17.5657,33.4309
469,526,17.5381,-32.5689,0.000231918,0.00285916,0.0026862,0.00453574,-0.00144466,1.01281,0.00360324,0.0081762,1693,498,17.5381,32.5689
476,526,17.4767,-31.6597,0.000285424,0.00351046,0.00321141,0.00549146,-0.00169558,1.01807,0.00433807,0.0100504,1700,498,17.4767,31.6597
483,526,17.422,-30.687,0.000555775,0.00430308,0.00381513,0.00667981,-0.00182096,1.01365,0.00516826,0.0145244,1707,498,17.4219,30.687
490,526,17.427,-29.6406,0.00108127,0.00521236,0.00452904,0.00812463,-0.001831,0.999342,0.00611877,0.0368648,1714,498,17.4271,29.6406
497,526,17.4752,-28.7035,0,0,0,0,0,0,0,-1,1721,498,17.4752,28.7035
504,526,17.2335,-27.078,0,0,0,0,0,0,0,-1,1728,498,17.2335,27.078
511,526,16.8915,-24.8813,0,0,0,0,0,0,0,-1,1735,498,16.8914,24.8813
518,526,14.7889,-20.4046,0,0,0,0,0,0,0,-1,1742,498,14.7889,20.4046
525,526,14.7009,-19.7487,0,0,0,0,0,0,0,-1,1749,498,14.7009,19.7486
532,526,15.7457,-17.9624,0,0,0,0,0,0,0,-1,1756,498,15.7458,17.9624
539,526,16.1064,-16.42,0,0,0,0,0,0,0,-1,1763,498,16.1065,16.42
546,526,12.4675,-17.1617,0,0,0,0,0,0,0,-1,1770,498,12.4675,17.1617
553,526,3.40796,1.37137,0,0,0,0,0,0,0,-1,1777,498,3.40792,-1.37138
560,526,0,0,0,0,0,0,0,0,0,-1,1784,498,0,0
567,526,0,0,0,0,0,0,0,0,0,-1,1791,498,0,0
574,526,0,0,0,0,0,0,0,0,0,-1,1798,498,0,0
581,526,0,0,0,0,0,0,0,0,0,-1,1805,498,0,0
588,526,0,0,0,0,0,0,0,0,0,-1,1812,498,0,0
595,526,0,0,0,0,0,0,0,0,0,-1,1819,498,0,0
602,526,0,0,0,0,0,0,0,0,0,-1,1826,498,0,0
609,526,0,0,0,0,0,0,0,0,0,-1,1833,498,0,0
616,526,0,0,0,0,0,0,0,0,0,-1,1840,498,0,0
623,526,0,0,0,0,0,0,0,0,0,-1,1847,498,0,0
630,526,0,0,0,0,0,0,0,0,0,-1,1854,498,0,0
637,526,0,0,0,0,0,0,0,0,0,-1,1861,498,0,0
644,526,0,0,0,0,0,0,0,0,0,-1,1868,498,0,0
651,526,0,0,0,0,0,0,0,0,0,-1,1875,498,0,0
658,526,0,0,0,0,0,0,0,0,0,-1,1882,498,0,0
665,526,0,0,0,0,0,0,0,0,0,-1,1889,498,0,0
672,526,0,0,0,0,0,0,0,0,0,-1,1896,498,0,0
679,526,0,0,0,0,0,0,0,0,0,-1,1903,498,0,0
686,526,0,0,0,0,0,0,0,0,0,-1,1910,498,0,0
693,526,0,0,0,0,0,0,0,0,0,-1,1917,498,0,0
700,526,0,0,0,0,0,0,0,0,0,-1,1924,498,0,0
707,526,0,0,0,0,0,0,0,0,0,-1,1931,498,0,0
714,526,0,0,0,0,0,0,0,0,0,-1,1938,498,0,0
721,526,0,0,0,0,0,0,0,0,0,-1,1945,498,0,0
728,526,0,0,0,0,0,0,0,0,0,-1,1952,498,0,0
735,526,0,0,0,0,0,0,0,0,0,-1,1959,498,0,0
742,526,0,0,0,0,0,0,0,0,0,-1,1966,498,0,0
749,526,0,0,0,0,0,0,0,0,0,-1,1973,498,0,0
756,526,0,0,0,0,0,0,0,0,0,-1,1980,498,0,0
763,526,0,0,0,0,0,0,0,0,0,-1,1987,498,0,0
770,526,0,0,0,0,0,0,0,0,0,-1,1994,498,0,0
777,526,0,0,0,0,0,0,0,0,0,-1,2001,498,0,0
784,526,0,0,0,0,0,0,0,0,0,-1,2008,498,0,0
791,526,0,0,0,0,0,0,0,0,0,-1,2015,498,0,0
798,526,0,0,0,0,0,0,0,0,0,-1,2022,498,0,0
805,526,0,0,0,0,0,0,0,0,0,-1,2029,498,0,0
812,526,0,0,0,0,0,0,0,0,0,-1,2036,498,0,0
-700,519,0,0,0,0,0,0,0,0,0,-1,524,505,0,0
-693,519,0,0,0,0,0,0,0,0,0,-1,531,505,0,0
-686,519,0,0,0,0,0,0,0,0,0,-1,538,505,0,0
-679,519,0,0,0,0,0,0,0,0,0,-1,545,505,0,0
-672,519,0,0,0,0,0,0,0,0,0,-1,552,505,0,0
-665,519,0,0,0,0,0,0,0,0,0,-1,559,505,0,0
-658,519,0,0,0,0,0,0,0,0,0,-1,566,505,0,0
-651,519,0,0,0,0,0,0,0,0,0,-1,573,505,0,0
-644,519,0,0,0,0,0,0,0,0,0,-1,580,505,0,0
-637,519,0,0,0,0,0,0,0,0,0,-1,587,505,0,0
-630,519,0,0,0,0,0,0,0,0,0,-1,594,505,0,0
-623,519,0,0,0,0,0,0,0,0,0,-1,601,505,0,0
-616,519,0,0,0,0,0,0,0,0,0,-1,608,505,0,0
-609,519,0,0,0,0,0,0,0,0,0,-1,615,505,0,0
-602,519,0,0,0,0,0,0,0,0,0,-1,622,505,0,0
-595,519,0,0,0,0,0,0,0,0,0,-1,629,505,0,0
-588,519,0,0,0,0,0,0,0,0,0,-1,636,505,0,0
-581,519,0,0,0,0,0,0,0,0,0,-1,643,505,0,0
-574,519,0,0,0,0,0,0,0,0,0,-1,650,505,0,0
-567,519,0,0,0,0,0,0,0,0,0,-1,657,505,0,0
-560,519,0,0,0,0,0,0,0,0,0,-1,664,505,0,0
-553,519,0,0,0,0,0,0,0,0,0,-1,671,505,0,0
-546,519,0,0,0,0,0,0,0,0,0,-1,678,505,0,0
-539,519,0,0,0,0,0,0,0,0,0,-1,685,505,0,0
-532,519,0,0,0,0,0,0,0,0,0,-1,692,505,0,0
-525,519,0,0,0,0,0,0,0,0,0,-1,699,505,0,0
-518,519,0,0,0,0,0,0,0,0,0,-1,706,505,0,0
-511,519,0,0,0,0,0,0,0,0,0,-1,713,505,0,0
-504,519,0,0,0,0,0,0,0,0,0,-1,720,505,0,0
-497,519,0,0,0,0,0,0,0,0,0,-1,727,505,0,0
-490,519,0,0,0,0,0,0,0,0,0,-1,734,505,0,0
-483,519,0,0,0,0,0,0,0,0,0,-1,741,505,0,0
-476,519,0,0,0,0,0,0,0,0,0,-1,748,505,0,0
-469,519,0,0,0,0,0,0,0,0,0,-1,755,505,0,0
-462,519,0,0,0,0,0,0,0,0,0,-1,762,505,0,0
-455,519,0,0,0,0,0,0,0,0,0,-1,769,505,0,0
-448,519,0,0,0,0,0,0,0,0,0,-1,776,505,0,0
-441,519,1.34839,-5.29346,0,0,0,0,0,0,0,-1,783,505,1.3484,5.29347
-434,519,0.949585,-5.77313,0,0,0,0,0,0,0,-1,790,505,0.949598,5.77315
-427,519,-0.0523682,-9.31567,0,0,0,0,0,0,0,-1,797,505,-0.0523854,9.31568
-420,519,-2.38867,-12.1938,0,0,0,0,0,0,0,-1,804,505,-2.38867,12.1938
-413,519,-2.2298,-12.4998,0,0,0,0,0,0,0,-1,811,505,-2.22979,12.4998
-406,519,-1.44373,-12.3475,0,0,0,0,0,0,0,-1,818,505,-1.44376,12.3475
-399,519,-1.60516,-15.0849,0,0,0,0,0,0,0,-1,825,505,-1.60518,15.0849
-392,519,-1.94183,-24.8959,0,0,0,0,0,0,0,-1,832,505,-1.94183,24.8958
-385,519,-2.93823,-26.5829,0,0,0,0,0,0,0,-1,839,505,-2.93821,26.583
-378,519,-2.57184,-27.8115,0.00588404,0.0208815,-0.0147436,0.0299238,-0.00315827,-1.02065,0.021081,0.0431231,846,505,-2.57183,27.8114
-371,519,-2.26672,-29.0789,0.00492414,0.0174432,-0.0125527,0.0252105,-0.0028432,-1.01668,0.0178305,0.0211264,853,505,-2.26674,29.0788
-364,519,-2.27228,-30.1223,0.00388016,0.0144492,-0.0103446,0.0207809,-0.00245153,-1.02154,0.0147392,0.0119372,860,505,-2.27228,30.1223
-357,519,-2.29602,-31.1011,0.00288358,0.0117672,-0.00832788,0.0167638,-0.002113,-1.03039,0.0119427,0.0124693,867,505,-2.296,31.1011
-350,519,-2.35864,-32.0187,0.00201225,0.00930705,-0.00648337,0.0130986,-0.00177928,-1.04162,0.00938188,0.0141315,874,505,-2.35866,32.0187
-343,519,-2.46271,-32.8832,0.00135846,0.00703003,-0.00485783,0.00981921,-0.00143072,-1.04959,0.00707146,0.0167616,881,505,-2.46273,32.8832
-336,519,-2.54297,-33.7454,0.00081666,0.00505716,-0.00341717,0.00695842,-0.0010846,-1.06307,0.00503953,0.0170823,888,505,-2.54297,33.7454
-329,519,-2.55389,-34.624,0.000403186,0.00335082,-0.00216477,0.00449584,-0.000741842,-1.08427,0.00327266,0.0150384,895,505,-2.55391,34.624
-322,519,-2.58063,-35.4949,3.66851e-05,0.00166722,-0.000938256,0.00209493,-0.000391022,-1.14309,0.00154356,0.0122462,902,505,-2.58062,35.4949
-315,519,-2.64032,-36.3999,-5.20688e-05,0.000340914,1.84154e-05,0.000341775,-5.29299e-05,1.52407,0.000247388,0.0099687,909,505,-2.64034,36.3999
-308,519,-2.70911,-37.2943,0.000100179,-0.000737285,0.000741256,0.000532797,-0.0011699,0.528295,0.00100573,0.00918909,916,505,-2.7091,37.2943
-301,519,-2.7843,-38.0983,0.000274786,-0.00168235,0.001391,0.000996949,-0.00240451,0.478864,0.0020191,0.01411,923,505,-2.78433,38.0983
-294,519,-2.79553,-38.9033,0.000531567,-0.00249739,0.00206149,0.0015751,-0.00354092,0.468595,0.00302555,0.0161342,930,505,-2.79553,38.9033
-287,519,-2.85175,-39.7528,0.000814354,-0.00361622,0.00276326,0.00214069,-0.00494256,0.447512,0.00419481,0.0119302,937,505,-2.85173,39.7528
-280,519,-2.92188,-40.5989,0.000822619,-0.00593845,0.00352945,0.00232932,-0.00744515,0.403473,0.00589531,0.0254873,944,505,-2.92187,40.5988
-273,519,-2.96722,-41.5,0,0,0,0,0,0,0,-1,951,505,-2.96722,41.5
-266,519,-2.91827,-42.308,0,0,0,0,0,0,0,-1,958,505,-2.91826,42.308
-259,519,-2.73938,-43.281,0,0,0,0,0,0,0,-1,965,505,-2.73937,43.281
-252,519,-1.84009,-26.8372,0,0,0,0,0,0,0,-1,972,505,-1.8401,26.8372
-245,519,-1.23254,-23.2696,0,0,0,0,0,0,0,-1,979,505,-1.23256,23.2696
-238,519,-1.83044,-42.0023,0,0,0,0,0,0,0,-1,986,505,-1.83043,42.0022
-231,519,-2.23767,-44.1215,0,0,0,0,0,0,0,-1,993,505,-2.23765,44.1215
-224,519,-3.33752,-42.7635,0,0,0,0,0,0,0,-1,1000,505,-3.33753,42.7635
-217,519,-2.87396,-38.149,0,0,0,0,0,0,0,-1,1007,505,-2.87394,38.149
-210,519,-0.883362,-34.799,0,0,0,0,0,0,0,-1,1014,505,-0.883379,34.799
-203,519,-0.513611,-5.39017,0,0,0,0,0,0,0,-1,1021,505,-0.513585,5.39017
-196,519,-0.374023,-5.41635,0,0,0,0,0,0,0,-1,1028,505,-0.374047,5.41635
-189,519,-0.234497,-5.44254,0,0,0,0,0,0,0,-1,1035,505,-0.234508,5.44253
-182,519,2.76697,-1.19659,0,0,0,0,0,0,0,-1,1042,505,2.76696,1.19661
-175,519,2.31323,-0.960938,0,0,0,0,0,0,0,-1,1049,505,2.31319,0.960941
-168,519,2.01074,-0.721405,0,0,0,0,0,0,0,-1,1056,505,2.01072,0.721407
-161,519,2.32056,-0.522339,0,0,0,0,0,0,0,-1,1063,505,2.32057,0.522328
-154,519,2.55566,0.116669,0,0,0,0,0,0,0,-1,1070,505,2.55563,-0.116661
-147,519,-0.55127,-6.14001,0,0,0,0,0,0,0,-1,1077,505,-0.551252,6.14001
-140,519,0.240601,-7.53503,0,0,0,0,0,0,0,-1,1084,505,0.240653,7.53501
-133,519,2.70911,-4.4516,0,0,0,0,0,0,0,-1,1091,505,2.70915,4.45161
-126,519,0,0,0,0,0,0,0,0,0,-1,1098,505,0,0
-119,519,0,0,0,0,0,0,0,0,0,-1,1105,505,0,0
-112,519,0,0,0,0,0,0,0,0,0,-1,1112,505,0,0
-105,519,0,0,0,0,0,0,0,0,0,-1,1119,505,0,0
-98,519,0,0,0,0,0,0,0,0,0,-1,1126,505,0,0
-91,519,0,0,0,0,0,0,0,0,0,-1,1133,505,0,0
-84,519,0,0,0,0,0,0,0,0,0,-1,1140,505,0,0
-77,519,0,0,0,0,0,0,0,0,0,-1,1147,505,0,0
-70,519,0,0,0,0,0,0,0,0,0,-1,1154,505,0,0
-63,519,0,0,0,0,0,0,0,0,0,-1,1161,505,0,0
-56,519,0,0,0,0,0,0,0,0,0,-1,1168,505,0,0
-49,519,0,0,0,0,0,0,0,0,0,-1,1175,505,0,0
-42,519,0,0,0,0,0,0,0,0,0,-1,1182,505,0,0
-35,519,0,0,0,0,0,0,0,0,0,-1,1189,505,0,0
-28,519,0,0,0,0,0,0,0,0,0,-1,1196,505,0,0
-21,519,0,0,0,0,0,0,0,0,0,-1,1203,505,0,0
-14,519,0,0,0,0,0,0,0,0,0,-1,1210,505,0,0
-7,519,0,0,0,0,0,0,0,0,0,-1,1217,505,0,0
0,519,0,0,0,0,0,0,0,0,0,-1,1224,505,0,0
7,519,0,0,0,0,0,0,0,0,0,-1,1231,505,0,0
14,519,0,0,0,0,0,0,0,0,0,-1,1238,505,0,0
21,519,0,0,0,0,0,0,0,0,0,-1,1245,505,0,0
28,519,0,0,0,0,0,0,0,0,0,-1,1252,505,0,0
35,519,0,0,0,0,0,0,0,0,0,-1,1259,505,0,0
42,519,0,0,0,0,0,0,0,0,0,-1,1266,505,0,0
49,519,0,0,0,0,0,0,0,0,0,-1,1273,505,0,0
56,519,0,0,0,0,0,0,0,0,0,-1,1280,505,0,0
63,519,0,0,0,0,0,0,0,0,0,-1,1287,505,0,0
70,519,0,0,0,0,0,0,0,0,0,-1,1294,505,0,0
77,519,0,0,0,0,0,0,0,0,0,-1,1301,505,0,0
84,519,0,0,0,0,0,0,0,0,0,-1,1308,505,0,0
91,519,0,0,0,0,0,0,0,0,0,-1,1315,505,0,0
98,519,0,0,0,0,0,0,0,0,0,-1,1322,505,0,0
105,519,0,0,0,0,0,0,0,0,0,-1,1329,505,0,0
112,519,0,0,0,0,0,0,0,0,0,-1,1336,505,0,0
119,519,0,0,0,0,0,0,0,0,0,-1,1343,505,0,0
126,519,0,0,0,0,0,0,0,0,0,-1,1350,505,0,0
133,519,0,0,0,0,0,0,0,0,0,-1,1357,505,0,0
140,519,0,0,0,0,0,0,0,0,0,-1,1364,505,0,0
147,519,0,0,0,0,0,0,0,0,0,-1,1371,505,0,0
154,519,0,0,0,0,0,0,0,0,0,-1,1378,505,0,0
161,519,0,0,0,0,0,0,0,0,0,-1,1385,505,0,0
168,519,0,0,0,0,0,0,0,0,0,-1,1392,505,0,0
175,519,0,0,0,0,0,0,0,0,0,-1,1399,505,0,0
182,519,0,0,0,0,0,0,0,0,0,-1,1406,505,0,0
189,519,0,0,0,0,0,0,0,0,0,-1,1413,505,0,0
196,519,0,0,0,0,0,0,0,0,0,-1,1420,505,0,0
203,519,0,0,0,0,0,0,0,0,0,-1,1427,505,0,0
210,519,0,0,0,0,0,0,0,0,0,-1,1434,505,0,0
217,519,0,0,0,0,0,0,0,0,0,-1,1441,505,0,0
224,519,0,0,0,0,0,0,0,0,0,-1,1448,505,0,0
231,519,0,0,0,0,0,0,0,0,0,-1,1455,505,0,0
238,519,0,0,0,0,0,0,0,0,0,-1,1462,505,0,0
245,519,0,0,0,0,0,0,0,0,0,-1,1469,505,0,0
252,519,5.26208,0.0938416,0,0,0,0,0,0,0,-1,1476,505,5.26207,-0.0938493
259,519,6.14246,-1.36441,0,0,0,0,0,0,0,-1,1483,505,6.14241,1.36441
266,519,5.31909,-0.400787,0,0,0,0,0,0,0,-1,1490,505,5.31912,0.400773
273,519,4.02393,0.325531,0,0,0,0,0,0,0,-1,1497,505,4.0239,-0.325522
280,519,4.68848,0.53006,0,0,0,0,0,0,0,-1,1504,505,4.68842,-0.530073
287,519,7.9519,-3.80801,0,0,0,0,0,0,0,-1,1511,505,7.95193,3.808
294,519,6.92273,-3.38889,0,0,0,0,0,0,0,-1,1518,505,6.92268,3.38888
301,519,5.35669,-2.92661,0,0,0,0,0,0,0,-1,1525,505,5.35675,2.9266
308,519,7.37549,-5.64529,0,0,0,0,0,0,0,-1,1532,505,7.3755,5.64529
315,519,6.30029,-4.53754,0,0,0,0,0,0,0,-1,1539,505,6.30024,4.53753
322,519,5.84302,-5.45117,0,0,0,0,0,0,0,-1,1546,505,5.84303,5.45116
329,519,4.92407,0.62384,0,0,0,0,0,0,0,-1,1553,505,4.92403,-0.623832
336,519,3.10095,-0.329285,0,0,0,0,0,0,0,-1,1560,505,3.1009,0.329283
343,519,2.49146,-2.31119,0,0,0,0,0,0,0,-1,1567,505,2.49145,2.31119
350,519,3.47729,-2.22516,0,0,0,0,0,0,0,-1,1574,505,3.47726,2.22515
357,519,13.271,-29.6344,0,0,0,0,0,0,0,-1,1581,505,13.271,29.6344
364,519,12.8292,-28.3627,0,0,0,0,0,0,0,-1,1588,505,12.8292,28.3627
371,519,12.3875,-27.0911,0,0,0,0,0,0,0,-1,1595,505,12.3874,27.091
378,519,6.36597,-10.0967,0,0,0,0,0,0,0,-1,1602,505,6.36597,10.0967
385,519,6.24756,-9.72186,0,0,0,0,0,0,0,-1,1609,505,6.24752,9.72183
392,519,16.8391,-37.6736,0,0,0,0,0,0,0,-1,1616,505,16.8391,37.6737
399,519,18.6334,-41.1918,0,0,0,0,0,0,0,-1,1623,505,18.6334,41.1918
406,519,18.7141,-40.272,0.00415854,0.000462478,3.28047e-05,0.00415883,0.000462187,0.00887464,0.00263206,0.04142,1630,505,18.7141,40.272
413,519,18.7677,-39.4165,0.00373341,0.000872252,0.000289735,0.00376245,0.000843207,0.0999133,0.00227982,0.0174337,1637,505,18.7677,39.4165
420,519,18.7054,-38.5316,0.00321737,0.00101609,0.000300812,0.00325773,0.000975725,0.133396,0.0019306,0.0159228,1644,505,18.7055,38.5316
427,519,18.6952,-37.7042,0.00263365,0.00101118,0.000345244,0.00270406,0.000940771,0.201181,0.00158508,0.0155457,1651,505,18.6952,37.7042
434,519,18.6239,-36.8541,0.00199931,0.00101956,0.000391184,0.00213634,0.000882536,0.336923,0.00123961,0.0146765,1658,505,18.6239,36.8541
441,519,18.547,-35.9615,0.00155535,0.00110753,0.000618676,0.00198939,0.00067349,0.611772,0.00116836,0.01338,1665,505,18.547,35.9615
448,519,18.5132,-35.1064,0.0012048,0.00119619,0.000891235,0.00209174,0.000309253,0.782983,0.0013037,0.010651,1672,505,18.5131,35.1064
455,519,18.4581,-34.2684,0.000865614,0.00140093,0.00120218,0.00236489,-9.83463e-05,0.894932,0.00161037,0.0121258,1679,505,18.4582,34.2684
462,519,18.4369,-33.3949,0.000694626,0.00178204,0.00155842,0.00288888,-0.000412211,0.953238,0.002077,0.0114505,1686,505,18.4369,33.3949
469,519,18.4193,-32.4921,0.000830361,0.00232208,0.00203317,0.00374188,-0.000589439,0.9612,0.0027125,0.0113102,1693,505,18.4193,32.4921
476,519,18.3613,-31.5697,0.000896175,0.00294482,0.00253379,0.00465351,-0.000812508,0.977487,0.00340564,0.013809,1700,505,18.3613,31.5697
483,519,18.3228,-30.6783,0.00115714,0.00366488,0.00310453,0.00575919,-0.000937166,0.977323,0.00418696,0.0153776,1707,505,18.3228,30.6783
490,519,18.2385,-29.7375,0.00160558,0.00449339,0.00374034,0.00705885,-0.000959878,0.969604,0.00505632,0.0129867,1714,505,18.2385,29.7375
497,519,18.1642,-28.7985,0,0,0,0,0,0,0,-1,1721,505,18.1641,28.7985
504,519,18.1781,-27.8583,0,0,0,0,0,0,0,-1,1728,505,18.1781,27.8583
511,519,18.2875,-26.6553,0,0,0,0,0,0,0,-1,1735,505,18.2875,26.6554
518,519,18.2499,-25.7239,0,0,0,0,0,0,0,-1,1742,505,18.2499,25.7239
525,519,15.9647,-20.5714,0,0,0,0,0,0,0,-1,1749,505,15.9648,20.5714
532,519,15.825,-19.0025,0,0,0,0,0,0,0,-1,1756,505,15.8249,19.0025
539,519,16.5902,-16.8075,0,0,0,0,0,0,0,-1,1763,505,16.5903,16.8075
546,519,12.4001,-16.5616,0,0,0,0,0,0,0,-1,1770,505,12.4002,16.5616
553,519,4.14136,0.0667419,0,0,0,0,0,0,0,-1,1777,505,4.14141,-0.0667503
560,519,3.77856,0.279724,0,0,0,0,0,0,0,-1,1784,505,3.77861,-0.279731
567,519,0,0,0,0,0,0,0,0,0,-1,1791,505,0,0
574,519,0,0,0,0,0,0,0,0,0,-1,1798,505,0,0
581,519,0,0,0,0,0,0,0,0,0,-1,1805,505,0,0
588,519,0,0,0,0,0,0,0,0,0,-1,1812,505,0,0
595,519,0,0,0,0,0,0,0,0,0,-1,1819,505,0,0
602,519,0,0,0,0,0,0,0,0,0,-1,1826,505,0,0
609,519,0,0,0,0,0,0,0,0,0,-1,1833,505,0,0
616,519,0,0,0,0,0,0,0,0,0,-1,1840,505,0,0
623,519,0,0,0,0,0,0,0,0,0,-1,1847,505,0,0
630,519,0,0,0,0,0,0,0,0,0,-1,1854,505,0,0
637,519,0,0,0,0,0,0,0,0,0,-1,1861,505,0,0
644,519,0,0,0,0,0,0,0,0,0,-1,1868,505,0,0
651,519,0,0,0,0,0,0,0,0,0,-1,1875,505,0,0
658,519,0,0,0,0,0,0,0,0,0,-1,1882,505,0,0
665,519,0,0,0,0,0,0,0,0,0,-1,1889,505,0,0
672,519,0,0,0,0,0,0,0,0,0,-1,1896,505,0,0
679,519,0,0,0,0,0,0,0,0,0,-1,1903,505,0,0
686,519,0,0,0,0,0,0,0,0,0,-1,1910,505,0,0
693,519,0,0,0,0,0,0,0,0,0,-1,1917,505,0,0
700,519,0,0,0,0,0,0,0,0,0,-1,1924,505,0,0
707,519,0,0,0,0,0,0,0,0,0,-1,1931,505,0,0
714,519,0,0,0,0,0,0,0,0,0,-1,1938,505,0,0
721,519,0,0,0,0,0,0,0,0,0,-1,1945,505,0,0
728,519,0,0,0,0,0,0,0,0,0,-1,1952,505,0,0
735,519,0,0,0,0,0,0,0,0,0,-1,1959,505,0,0
742,519,0,0,0,0,0,0,0,0,0,-1,1966,505,0,0
749,519,0,0,0,0,0,0,0,0,0,-1,1973,505,0,0
756,519,0,0,0,0,0,0,0,0,0,-1,1980,505,0,0
763,519,0,0,0,0,0,0,0,0,0,-1,1987,505,0,0
770,519,0,0,0,0,0,0,0,0,0,-1,1994,505,0,0
777,519,0,0,0,0,0,0,0,0,0,-1,2001,505,0,0
784,519,0,0,0,0,0,0,0,0,0,-1,2008,505,0,0
791,519,0,0,0,0,0,0,0,0,0,-1,2015,505,0,0
798,519,0,0,0,0,0,0,0,0,0,-1,2022,505,0,0
805,519,0,0,0,0,0,0,0,0,0,-1,2029,505,0,0
812,519,0,0,0,0,0,0,0,0,0,-1,2036,505,0,0
-700,512,0,0,0,0,0,0,0,0,0,-1,524,512,0,0
-693,512,0,0,0,0,0,0,0,0,0,-1,531,512,0,0
-686,512,0,0,0,0,0,0,0,0,0,-1,538,512,0,0
-679,512,0,0,0,0,0,0,0,0,0,-1,545,512,0,0
-672,512,0,0,0,0,0,0,0,0,0,-1,552,512,0,0
-665,512,0,0,0,0,0,0,0,0,0,-1,559,512,0,0
-658,512,0,0,0,0,0,0,0,0,0,-1,566,512,0,0
-651,512,0,0,0,0,0,0,0,0,0,-1,573,512,0,0
-644,512,0,0,0,0,0,0,0,0,0,-1,580,512,0,0
-637,512,0,0,0,0,0,0,0,0,0,-1,587,512,0,0
-630,512,0,0,0,0,0,0,0,0,0,-1,594,512,0,0
-623,512,0,0,0,0,0,0,0,0,0,-1,601,512,0,0
-616,512,0,0,0,0,0,0,0,0,0,-1,608,512,0,0
-609,512,0,0,0,0,0,0,0,0,0,-1,615,512,0,0
-602,512,0,0,0,0,0,0,0,0,0,-1,622,512,0,0
-595,512,0,0,0,0,0,0,0,0,0,-1,629,512,0,0
-588,512,0,0,0,0,0,0,0,0,0,-1,636,512,0,0
-581,512,0,0,0,0,0,0,0,0,0,-1,643,512,0,0
-574,512,0,0,0,0,0,0,0,0,0,-1,650,512,0,0
-567,512,0,0,0,0,0,0,0,0,0,-1,657,512,0,0
-560,512,0,0,0,0,0,0,0,0,0,-1,664,512,0,0
-553,512,0,0,0,0,0,0,0,0,0,-1,671,512,0,0
-546,512,0,0,0,0,0,0,0,0,0,-1,678,512,0,0
-539,512,0,0,0,0,0,0,0,0,0,-1,685,512,0,0
-532,512,0,0,0,0,0,0,0,0,0,-1,692,512,0,0
-525,512,0,0,0,0,0,0,0,0,0,-1,699,512,0,0
-518,512,0,0,0,0,0,0,0,0,0,-1,706,512,0,0
-511,512,0,0,0,0,0,0,0,0,0,-1,713,512,0,0
-504,512,0,0,0,0,0,0,0,0,0,-1,720,512,0,0
-497,512,0,0,0,0,0,0,0,0,0,-1,727,512,0,0
-490,512,0,0,0,0,0,0,0,0,0,-1,734,512,0,0
-483,512,0,0,0,0,0,0,0,0,0,-1,741,512,0,0
-476,512,0,0,0,0,0,0,0,0,0,-1,748,512,0,0
-469,512,0,0,0,0,0,0,0,0,0,-1,755,512,0,0
-462,512,0,0,0,0,0,0,0,0,0,-1,762,512,0,0
-455,512,0,0,0,0,0,0,0,0,0,-1,769,512,0,0
-448,512,1.96283,-4.15674,0,0,0,0,0,0,0,-1,776,512,1.96285,4.15677
-441,512,1.78198,-4.88824,0,0,0,0,0,0,0,-1,783,512,1.78201,4.88826
-434,512,0.0726929,-9.85822,0,0,0,0,0,0,0,-1,790,512,0.0727008,9.85819
-427,512,-0.384583,-9.94824,0,0,0,0,0,0,0,-1,797,512,-0.384552,9.94823
-420,512,-2.93219,-12.4855,0,0,0,0,0,0,0,-1,804,512,-2.93219,12.4855
-413,512,-2.22711,-11.4485,0,0,0,0,0,0,0,-1,811,512,-2.22712,11.4485
-406,512,-2.38037,-13.5743,0,0,0,0,0,0,0,-1,818,512,-2.38034,13.5743
-399,512,-3.13367,-23.934,0,0,0,0,0,0,0,-1,825,512,-3.13368,23.934
-392,512,-2.84479,-26.4648,0,0,0,0,0,0,0,-1,832,512,-2.8448,26.4648
-385,512,-2.96283,-27.3481,0.00480232,0.0189565,-0.012967,0.026652,-0.00289315,-1.0352,0.0188067,0.0243743,839,512,-2.96283,27.3481
-378,512,-3.04956,-28.2424,0.00426474,0.0160744,-0.0113043,0.0229232,-0.00258407,-1.02608,0.0162123,0.0195644,846,512,-3.04959,28.2424
-371,512,-3.10944,-29.1819,0.00373048,0.0133375,-0.00965134,0.0193146,-0.00224664,-1.0163,0.0136869,0.0148085,853,512,-3.10943,29.1819
-364,512,-3.15546,-30.1726,0.00308898,0.0108389,-0.007925,0.0157855,-0.00185768,-1.01278,0.0111944,0.0106253,860,512,-3.15543,30.1726
-357,512,-3.18817,-31.0694,0.00244253,0.00861677,-0.00629107,0.0125374,-0.00147805,-1.01349,0.00889197,0.0117204,867,512,-3.18818,31.0694
-350,512,-3.25604,-31.957,0.00185801,0.00656084,-0.00477387,0.00953099,-0.00111214,-1.01424,0.00675529,0.0123289,874,512,-3.25602,31.9571
-343,512,-3.35706,-32.8309,0.0013885,0.00461378,-0.00340375,0.00676759,-0.00076531,-1.00663,0.00478726,0.0145175,881,512,-3.35708,32.8309
-336,512,-3.42133,-33.7342,0.000940509,0.00288022,-0.00213649,0.00425669,-0.000435954,-0.998465,0.00299371,0.0161484,888,512,-3.4213,33.7342
-329,512,-3.41846,-34.5854,0.000584267,0.00137327,-0.00102038,0.00207275,-0.000115214,-0.96986,0.0014218,0.0179464,895,512,-3.41845,34.5855
-322,512,-3.47406,-35.4451,0.000299112,-6.3468e-05,3.33391e-05,0.000302152,-6.65081e-05,0.0909336,0.000226877,0.0148324,902,512,-3.47407,35.4451
-315,512,-3.52222,-36.3633,0.000258141,-0.00117532,0.000864183,0.000664137,-0.00158132,0.4392,0.00133197,0.0122503,909,512,-3.52223,36.3634
-308,512,-3.58685,-37.218,0.00040322,-0.00213819,0.00153139,0.00112245,-0.00285742,0.439081,0.00236944,0.0118176,916,512,-3.58683,37.218
-301,512,-3.638,-38.0524,0.000502044,-0.0029584,0.00217825,0.00155363,-0.00400998,0.449765,0.00331486,0.0160629,923,512,-3.63803,38.0524
-294,512,-3.64478,-38.861,0.00061573,-0.003607,0.0028808,0.00207604,-0.00506731,0.469162,0.00424304,0.0169579,930,512,-3.64478,38.861
-287,512,-3.8266,-39.5751,0.000775316,-0.00467541,0.00363581,0.00259382,-0.00649391,0.463779,0.00540546,0.041003,937,512,-3.8266,39.5751
-280,512,-3.74658,-40.6514,0,0,0,0,0,0,0,-1,944,512,-3.74658,40.6514
-273,512,-2.90118,-34.7153,0,0,0,0,0,0,0,-1,951,512,-2.90121,34.7153
-266,512,-2.33594,-25.9839,0,0,0,0,0,0,0,-1,958,512,-2.33592,25.9839
-259,512,-0.525452,-14.0815,0,0,0,0,0,0,0,-1,965,512,-0.525475,14.0815
-252,512,1.45941,-3.43475,0,0,0,0,0,0,0,-1,972,512,1.45938,3.43475
-245,512,-1.6731,-22.8959,0,0,0,0,0,0,0,-1,979,512,-1.67312,22.8959
-238,512,0.227051,-8.92969,0,0,0,0,0,0,0,-1,986,512,0.227073,8.92968
-231,512,-1.90576,-38.0918,0,0,0,0,0,0,0,-1,993,512,-1.90575,38.0918
-224,512,-1.29974,-33.6304,0,0,0,0,0,0,0,-1,1000,512,-1.29974,33.6304
-217,512,-0.963196,-34.1697,0,0,0,0,0,0,0,-1,1007,512,-0.963226,34.1697
-210,512,-3.76642,-1.94702,0,0,0,0,0,0,0,-1,1014,512,-3.76641,1.94702
-203,512,-2.48328,-5.19061,0,0,0,0,0,0,0,-1,1021,512,-2.48328,5.19059
-196,512,-1.14929,-4.63202,0,0,0,0,0,0,0,-1,1028,512,-1.14934,4.632
-189,512,0.197998,4.55505,0,0,0,0,0,0,0,-1,1035,512,0.197996,-4.55506
-182,512,2.73938,0.0778503,0,0,0,0,0,0,0,-1,1042,512,2.73944,-0.077852
-175,512,2.29565,0.209808,0,0,0,0,0,0,0,-1,1049,512,2.29565,-0.209813
-168,512,2.09399,-0.302856,0,0,0,0,0,0,0,-1,1056,512,2.09403,0.302826
-161,512,2.76636,0.0921021,0,0,0,0,0,0,0,-1,1063,512,2.76633,-0.0921104
-154,512,3.41382,0.466187,0,0,0,0,0,0,0,-1,1070,512,3.41382,-0.466178
-147,512,0,0,0,0,0,0,0,0,0,-1,1077,512,0,0
-140,512,0,0,0,0,0,0,0,0,0,-1,1084,512,0,0
-133,512,0,0,0,0,0,0,0,0,0,-1,1091,512,0,0
-126,512,0,0,0,0,0,0,0,0,0,-1,1098,512,0,0
-119,512,0,0,0,0,0,0,0,0,0,-1,1105,512,0,0
-112,512,0,0,0,0,0,0,0,0,0,-1,1112,512,0,0
-105,512,0,0,0,0,0,0,0,0,0,-1,1119,512,0,0
-98,512,0,0,0,0,0,0,0,0,0,-1,1126,512,0,0
-91,512,0,0,0,0,0,0,0,0,0,-1,1133,512,0,0
-84,512,0,0,0,0,0,0,0,0,0,-1,1140,512,0,0
-77,512,0,0,0,0,0,0,0,0,0,-1,1147,512,0,0
-70,512,0,0,0,0,0,0,0,0,0,-1,1154,512,0,0
-63,512,0,0,0,0,0,0,0,0,0,-1,1161,512,0,0
-56,512,0,0,0,0,0,0,0,0,0,-1,1168,512,0,0
-49,512,0,0,0,0,0,0,0,0,0,-1,1175,512,0,0
-42,512,0,0,0,0,0,0,0,0,0,-1,1182,512,0,0
-35,512,0,0,0,0,0,0,0,0,0,-1,1189,512,0,0
-28,512,0,0,0,0,0,0,0,0,0,-1,1196,512,0,0
-21,512,0,0,0,0,0,0,0,0,0,-1,1203,512,0,0
-14,512,0,0,0,0,0,0,0,0,0,-1,1210,512,0,0
-7,512,0,0,0,0,0,0,0,0,0,-1,1217,512,0,0
0,512,0,0,0,0,0,0,0,0,0,-1,1224,512,0,0
7,512,0,0,0,0,0,0,0,0,0,-1,1231,512,0,0
14,512,0,0,0,0,0,0,0,0,0,-1,1238,512,0,0
21,512,0,0,0,0,0,0,0,0,0,-1,1245,512,0,0
28,512,0,0,0,0,0,0,0,0,0,-1,1252,512,0,0
35,512,0,0,0,0,0,0,0,0,0,-1,1259,512,0,0
42,512,0,0,0,0,0,0,0,0,0,-1,1266,512,0,0
49,512,0,0,0,0,0,0,0,0,0,-1,1273,512,0,0
56,512,0,0,0,0,0,0,0,0,0,-1,1280,512,0,0
63,512,0,0,0,0,0,0,0,0,0,-1,1287,512,0,0
70,512,0,0,0,0,0,0,0,0,0,-1,1294,512,0,0
77,512,0,0,0,0,0,0,0,0,0,-1,1301,512,0,0
84,512,0,0,0,0,0,0,0,0,0,-1,1308,512,0,0
91,512,0,0,0,0,0,0,0,0,0,-1,1315,512,0,0
98,512,0,0,0,0,0,0,0,0,0,-1,1322,512,0,0
105,512,0,0,0,0,0,0,0,0,0,-1,1329,512,0,0
112,512,0,0,0,0,0,0,0,0,0,-1,1336,512,0,0
119,512,0,0,0,0,0,0,0,0,0,-1,1343,512,0,0
126,512,0,0,0,0,0,0,0,0,0,-1,1350,512,0,0
133,512,0,0,0,0,0,0,0,0,0,-1,1357,512,0,0
140,512,0,0,0,0,0,0,0,0,0,-1,1364,512,0,0
147,512,0,0,0,0,0,0,0,0,0,-1,1371,512,0,0
154,512,0,0,0,0,0,0,0,0,0,-1,1378,512,0,0
161,512,0,0,0,0,0,0,0,0,0,-1,1385,512,0,0
168,512,0,0,0,0,0,0,0,0,0,-1,1392,512,0,0
175,512,0,0,0,0,0,0,0,0,0,-1,1399,512,0,0
182,512,0,0,0,0,0,0,0,0,0,-1,1406,512,0,0
189,512,0,0,0,0,0,0,0,0,0,-1,1413,512,0,0
196,512,0,0,0,0,0,0,0,0,0,-1,1420,512,0,0
203,512,0,0,0,0,0,0,0,0,0,-1,1427,512,0,0
210,512,0,0,0,0,0,0,0,0,0,-1,1434,512,0,0
217,512,0,0,0,0,0,0,0,0,0,-1,1441,512,0,0
224,512,0,0,0,0,0,0,0,0,0,-1,1448,512,0,0
231,512,0,0,0,0,0,0,0,0,0,-1,1455,512,0,0
238,512,0,0,0,0,0,0,0,0,0,-1,1462,512,0,0
245,512,0,0,0,0,0,0,0,0,0,-1,1469,512,0,0
252,512,0,0,0,0,0,0,0,0,0,-1,1476,512,0,0
259,512,0,0,0,0,0,0,0,0,0,-1,1483,512,0,0
266,512,0,0,0,0,0,0,0,0,0,-1,1490,512,0,0
273,512,4.00745,0.618622,0,0,0,0,0,0,0,-1,1497,512,4.00747,-0.618611
280,512,4.49609,0.649841,0,0,0,0,0,0,0,-1,1504,512,4.49612,-0.649834
287,512,4.77234,0.458069,0,0,0,0,0,0,0,-1,1511,512,4.77233,-0.458083
294,512,8.54956,-2.36273,0,0,0,0,0,0,0,-1,1518,512,8.54952,2.36274
301,512,6.302,-1.69092,0,0,0,0,0,0,0,-1,1525,512,6.30196,1.69093
308,512,8.2439,-6.22754,0,0,0,0,0,0,0,-1,1532,512,8.24394,6.22757
315,512,7.53687,-6.04211,0,0,0,0,0,0,0,-1,1539,512,7.53691,6.04211
322,512,6.82983,-5.85663,0,0,0,0,0,0,0,-1,1546,512,6.82988,5.85666
329,512,4.38147,-0.329651,0,0,0,0,0,0,0,-1,1553,512,4.38144,0.329662
336,512,4.41467,-0.741455,0,0,0,0,0,0,0,-1,1560,512,4.41467,0.741442
343,512,4.44727,-1.21667,0,0,0,0,0,0,0,-1,1567,512,4.44732,1.21666
350,512,4.55469,-1.65082,0,0,0,0,0,0,0,-1,1574,512,4.5547,1.65083
357,512,5.79993,-2.67456,0,0,0,0,0,0,0,-1,1581,512,5.79991,2.67454
364,512,13.118,-28.5485,0,0,0,0,0,0,0,-1,1588,512,13.1181,28.5485
371,512,5.28467,-7.69269,0,0,0,0,0,0,0,-1,1595,512,5.28464,7.69269
378,512,6.29407,-9.88055,0,0,0,0,0,0,0,-1,1602,512,6.29412,9.88057
385,512,6.45569,-9.32233,0,0,0,0,0,0,0,-1,1609,512,6.45565,9.3223
392,512,6.35522,-8.98425,0,0,0,0,0,0,0,-1,1616,512,6.35526,8.98422
399,512,16.9089,-33.7311,0,0,0,0,0,0,0,-1,1623,512,16.9089,33.7311
406,512,19.5717,-40.3614,0,0,0,0,0,0,0,-1,1630,512,19.5716,40.3614
413,512,19.6255,-39.4545,0,0,0,0,0,0,0,-1,1637,512,19.6255,39.4545
420,512,19.6067,-38.5751,0.00414473,0.000787308,0.000131489,0.00414987,0.000782167,0.0390839,0.00254622,0.0290374,1644,512,19.6067,38.5751
427,512,19.5695,-37.6667,0.00337227,0.000660846,5.719e-05,0.00337348,0.00065964,0.0210797,0.00206454,0.0164071,1651,512,19.5694,37.6667
434,512,19.5034,-36.8145,0.00255808,0.000603415,-1.4403e-05,0.00255819,0.000603308,-0.007368,0.00154415,0.0129541,1658,512,19.5034,36.8145
441,512,19.431,-35.9314,0.00200357,0.000640192,0.000123727,0.00201471,0.000629055,0.0897732,0.00119022,0.0140455,1665,512,19.431,35.9314
448,512,19.3844,-35.0905,0.00159646,0.000711903,0.000337175,0.00171033,0.000598036,0.325682,0.00100223,0.010136,1672,512,19.3844,35.0905
455,512,19.3246,-34.2245,0.00123191,0.000913945,0.00058914,0.00168314,0.000462712,0.653611,0.00100405,0.00968692,1679,512,19.3246,34.2245
462,512,19.2905,-33.3304,0.0010304,0.00128546,0.000899081,0.00206601,0.000249847,0.855852,0.00130207,0.0102003,1686,512,19.2905,33.3304
469,512,19.2533,-32.4246,0.0011153,0.00179937,0.00134654,0.00284664,6.80416e-05,0.909773,0.00187549,0.0118363,1693,512,19.2533,32.4247
476,512,19.1954,-31.5192,0.00116263,0.00237739,0.0018217,0.00369029,-0.000150277,0.946309,0.00251179,0.0149908,1700,512,19.1954,31.5192
483,512,19.1641,-30.5988,0.00139402,0.00300654,0.00235384,0.00468838,-0.000287821,0.9504,0.00322581,0.0140767,1707,512,19.1641,30.5988
490,512,19.115,-29.7129,0.00175301,0.00374386,0.00290719,0.00582132,-0.000324444,0.950343,0.00399342,0.0111347,1714,512,19.1149,29.7129
497,512,19.0367,-28.826,0.00225331,0.0043613,0.00332503,0.00679539,-0.00018077,0.938883,0.0045917,0.01227,1721,512,19.0367,28.826
504,512,18.9526,-27.8798,0.00294541,0.00504005,0.00371816,0.00785557,0.000129885,0.92268,0.00519429,0.0183301,1728,512,18.9526,27.8798
511,512,18.8986,-26.8775,0.00380295,0.00566304,0.00408479,0.00892232,0.000543668,0.897333,0.00577553,0.0290119,1735,512,18.8986,26.8775
518,512,19.0514,-25.9605,0.00481749,0.00646134,0.00432761,0.0100444,0.00123444,0.879243,0.00632506,0.0385674,1742,512,19.0514,25.9605
525,512,19.3539,-25.0188,0,0,0,0,0,0,0,-1,1749,512,19.3538,25.0188
532,512,16.6807,-19.0635,0,0,0,0,0,0,0,-1,1756,512,16.6807,19.0635
539,512,12.6367,-16.4022,0,0,0,0,0,0,0,-1,1763,512,12.6367,16.4021
546,512,2.77551,-0.66449,0,0,0,0,0,0,0,-1,1770,512,2.77548,0.664503
553,512,3.927,-0.448853,0,0,0,0,0,0,0,-1,1777,512,3.92704,0.448843
560,512,3.55762,-0.201233,0,0,0,0,0,0,0,-1,1784,512,3.55768,0.201259
567,512,3.09045,0.191193,0,0,0,0,0,0,0,-1,1791,512,3.09045,-0.191203
574,512,0,0,0,0,0,0,0,0,0,-1,1798,512,0,0
581,512,0,0,0,0,0,0,0,0,0,-1,1805,512,0,0
588,512,0,0,0,0,0,0,0,0,0,-1,1812,512,0,0
595,512,0,0,0,0,0,0,0,0,0,-1,1819,512,0,0
602,512,0,0,0,0,0,0,0,0,0,-1,1826,512,0,0
609,512,0,0,0,0,0,0,0,0,0,-1,1833,512,0,0
616,512,0,0,0,0,0,0,0,0,0,-1,1840,512,0,0
623,512,0,0,0,0,0,0,0,0,0,-1,1847,512,0,0
630,512,0,0,0,0,0,0,0,0,0,-1,1854,512,0,0
637,512,0,0,0,0,0,0,0,0,0,-1,1861,512,0,0
644,512,0,0,0,0,0,0,0,0,0,-1,1868,512,0,0
651,512,0,0,0,0,0,0,0,0,0,-1,1875,512,0,0
658,512,0,0,0,0,0,0,0,0,0,-1,1882,512,0,0
665,512,0,0,0,0,0,0,0,0,0,-1,1889,512,0,0
672,512,0,0,0,0,0,0,0,0,0,-1,1896,512,0,0
679,512,0,0,0,0,0,0,0,0,0,-1,1903,512,0,0
686,512,0,0,0,0,0,0,0,0,0,-1,1910,512,0,0
693,512,0,0,0,0,0,0,0,0,0,-1,1917,512,0,0
700,512,0,0,0,0,0,0,0,0,0,-1,1924,512,0,0
707,512,0,0,0,0,0,0,0,0,0,-1,1931,512,0,0
714,512,0,0,0,0,0,0,0,0,0,-1,1938,512,0,0
721,512,0,0,0,0,0,0,0,0,0,-1,1945,512,0,0
728,512,0,0,0,0,0,0,0,0,0,-1,1952,512,0,0
735,512,0,0,0,0,0,0,0,0,0,-1,1959,512,0,0
742,512,0,0,0,0,0,0,0,0,0,-1,1966,512,0,0
749,512,0,0,0,0,0,0,0,0,0,-1,1973,512,0,0
756,512,0,0,0,0,0,0,0,0,0,-1,1980,512,0,0
763,512,0,0,0,0,0,0,0,0,0,-1,1987,512,0,0
770,512,0,0,0,0,0,0,0,0,0,-1,1994,512,0,0
777,512,0,0,0,0,0,0,0,0,0,-1,2001,512,0,0
784,512,0,0,0,0,0,0,0,0,0,-1,2008,512,0,0
791,512,0,0,0,0,0,0,0,0,0,-1,2015,512,0,0
798,512,0,0,0,0,0,0,0,0,0,-1,2022,512,0,0
805,512,0,0,0,0,0,0,0,0,0,-1,2029,512,0,0
812,512,0,0,0,0,0,0,0,0,0,-1,2036,512,0,0
-700,505,0,0,0,0,0,0,0,0,0,-1,524,519,0,0
-693,505,0,0,0,0,0,0,0,0,0,-1,531,519,0,0
-686,505,0,0,0,0,0,0,0,0,0,-1,538,519,0,0
-679,505,0,0,0,0,0,0,0,0,0,-1,545,519,0,0
-672,505,0,0,0,0,0,0,0,0,0,-1,552,519,0,0
-665,505,0,0,0,0,0,0,0,0,0,-1,559,519,0,0
-658,505,0,0,0,0,0,0,0,0,0,-1,566,519,0,0
-651,505,0,0,0,0,0,0,0,0,0,-1,573,519,0,0
-644,505,0,0,0,0,0,0,0,0,0,-1,580,519,0,0
-637,505,0,0,0,0,0,0,0,0,0,-1,587,519,0,0
-630,505,0,0,0,0,0,0,0,0,0,-1,594,519,0,0
-623,505,0,0,0,0,0,0,0,0,0,-1,601,519,0,0
-616,505,0,0,0,0,0,0,0,0,0,-1,608,519,0,0
-609,505,0,0,0,0,0,0,0,0,0,-1,615,519,0,0
-602,505,0,0,0,0,0,0,0,0,0,-1,622,519,0,0
-595,505,0,0,0,0,0,0,0,0,0,-1,629,519,0,0
-588,505,0,0,0,0,0,0,0,0,0,-1,636,519,0,0
-581,505,0,0,0,0,0,0,0,0,0,-1,643,519,0,0
-574,505,0,0,0,0,0,0,0,0,0,-1,650,519,0,0
-567,505,0,0,0,0,0,0,0,0,0,-1,657,519,0,0
-560,505,0,0,0,0,0,0,0,0,0,-1,664,519,0,0
-553,505,0,0,0,0,0,0,0,0,0,-1,671,519,0,0
-546,505,0,0,0,0,0,0,0,0,0,-1,678,519,0,0
-539,505,0,0,0,0,0,0,0,0,0,-1,685,519,0,0
-532,505,0,0,0,0,0,0,0,0,0,-1,692,519,0,0
-525,505,0,0,0,0,0,0,0,0,0,-1,699,519,0,0
-518,505,0,0,0,0,0,0,0,0,0,-1,706,519,0,0
-511,505,0,0,0,0,0,0,0,0,0,-1,713,519,0,0
-504,505,0,0,0,0,0,0,0,0,0,-1,720,519,0,0
-497,505,0,0,0,0,0,0,0,0,0,-1,727,519,0,0
-490,505,0,0,0,0,0,0,0,0,0,-1,734,519,0,0
-483,505,0,0,0,0,0,0,0,0,0,-1,741,519,0,0
-476,505,0,0,0,0,0,0,0,0,0,-1,748,519,0,0
-469,505,0,0,0,0,0,0,0,0,0,-1,755,519,0,0
-462,505,0,0,0,0,0,0,0,0,0,-1,762,519,0,0
-455,505,2.72137,-3.26379,0,0,0,0,0,0,0,-1,769,519,2.72135,3.26377
-448,505,2.51111,-3.94989,0,0,0,0,0,0,0,-1,776,519,2.51112,3.94986
-441,505,2.80212,-6.8902,0,0,0,0,0,0,0,-1,783,519,2.80209,6.89019
-434,505,-0.155212,-10.6374,0,0,0,0,0,0,0,-1,790,519,-0.155194,10.6374
-427,505,-0.474426,-10.4702,0,0,0,0,0,0,0,-1,797,519,-0.474433,10.4702
-420,505,-0.922546,-10.1928,0,0,0,0,0,0,0,-1,804,519,-0.92257,10.1928
-413,505,-3.33948,-13.6183,0,0,0,0,0,0,0,-1,811,519,-3.33949,13.6184
-406,505,-3.2439,-18.3408,0,0,0,0,0,0,0,-1,818,519,-3.24389,18.3408
-399,505,-3.62097,-25.0906,0,0,0,0,0,0,0,-1,825,519,-3.621,25.0906
-392,505,-3.75818,-26.3614,0.00348771,0.0171033,-0.0111307,0.023343,-0.00275202,-1.05986,0.0165558,0.0278162,832,519,-3.75818,26.3614
-385,505,-3.86792,-27.3152,0.0033102,0.014505,-0.00982467,0.0202149,-0.0023997,-1.04433,0.0143436,0.0116067,839,519,-3.86792,27.3152
-378,505,-3.94,-28.2582,0.00309544,0.0121398,-0.00851853,0.0172621,-0.00202683,-1.02941,0.0122397,0.0117147,846,519,-3.94001,28.2582
-371,505,-3.99359,-29.2236,0.00282766,0.00987547,-0.00722356,0.0143888,-0.0016857,-1.01233,0.010201,0.0144543,853,519,-3.99362,29.2236
-364,505,-4.05713,-30.1593,0.0024671,0.00769032,-0.00583186,0.0114686,-0.00131121,-0.995917,0.0081182,0.0154679,860,519,-4.05715,30.1593
-357,505,-4.07544,-31.0579,0.00208251,0.00578418,-0.00447416,0.00877522,-0.000908531,-0.981517,0.00617531,0.0121475,867,519,-4.07541,31.0579
-350,505,-4.1499,-31.9142,0.00171578,0.00403753,-0.00320193,0.00628253,-0.000529218,-0.959306,0.00437544,0.0119656,874,519,-4.14993,31.9142
-343,505,-4.21881,-32.7897,0.00138395,0.00236982,-0.00203509,0.00397082,-0.000217053,-0.904218,0.00272245,0.011376,881,519,-4.21878,32.7897
-336,505,-4.27277,-33.6906,0.00100472,0.000853338,-0.000911091,0.00184326,1.47971e-05,-0.743956,0.00122393,0.0147977,888,519,-4.27274,33.6906
-329,505,-4.30554,-34.5255,0.000690813,-0.000446785,8.70163e-05,0.00069743,-0.000453403,0.0759028,0.000669394,0.0205941,895,519,-4.30554,34.5254
-322,505,-4.37616,-35.3985,0.000481252,-0.00157034,0.000952297,0.000855145,-0.00194423,0.37413,0.00165649,0.0244013,902,519,-4.37617,35.3985
-315,505,-4.41437,-36.3038,0.000465279,-0.00237637,0.00163113,0.00120763,-0.00311872,0.427099,0.00257777,0.0176616,909,519,-4.41434,36.3038
-308,505,-4.45862,-37.1342,0.000558471,-0.0031161,0.00221359,0.00159792,-0.00415554,0.439013,0.00342942,0.0129625,916,519,-4.45862,37.1342
-301,505,-4.46692,-37.997,0.000523945,-0.00368459,0.00283135,0.00194735,-0.00510799,0.46583,0.00420745,0.0198541,923,519,-4.46689,37.997
-294,505,-4.48621,-38.8003,0,0,0,0,0,0,0,-1,930,519,-4.48623,38.8003
-287,505,-4.64069,-39.7153,0,0,0,0,0,0,0,-1,937,519,-4.64067,39.7153
-280,505,-2.79846,-27.7252,0,0,0,0,0,0,0,-1,944,519,-2.79845,27.7252
-273,505,-0.0680542,-9.44867,0,0,0,0,0,0,0,-1,951,519,-0.0680462,9.44866
-266,505,-0.036377,-9.07922,0,0,0,0,0,0,0,-1,958,519,-0.0364055,9.0792
-259,505,0.10321,-6.69824,0,0,0,0,0,0,0,-1,965,519,0.103235,6.69826
-252,505,6.82312,-15.6972,0,0,0,0,0,0,0,-1,972,519,6.82314,15.6972
-245,505,4.26727,-12.9861,0,0,0,0,0,0,0,-1,979,519,4.2673,12.9861
-238,505,1.67432,-11.2307,0,0,0,0,0,0,0,-1,986,519,1.67429,11.2307
-231,505,-0.958435,-8.3075,0,0,0,0,0,0,0,-1,993,519,-0.958421,8.30751
-224,505,-1.46399,-33.4399,0,0,0,0,0,0,0,-1,1000,519,-1.46397,33.4399
-217,505,-6.34302,-1.65533,0,0,0,0,0,0,0,-1,1007,519,-6.34299,1.65535
-210,505,-3.06128,-0.396301,0,0,0,0,0,0,0,-1,1014,519,-3.06129,0.396294
-203,505,-4.26465,2.03607,0,0,0,0,0,0,0,-1,1021,519,-4.26462,-2.03606
-196,505,-5.47595,4.27295,0,0,0,0,0,0,0,-1,1028,519,-5.47597,-4.27292
-189,505,1.51526,5.56207,0,0,0,0,0,0,0,-1,1035,519,1.51523,-5.56209
-182,505,2.97815,7.5097,0,0,0,0,0,0,0,-1,1042,519,2.97812,-7.5097
-175,505,-2.38416,-2.17548,0,0,0,0,0,0,0,-1,1049,519,-2.38411,2.1755
-168,505,0,0,0,0,0,0,0,0,0,-1,1056,519,0,0
-161,505,0,0,0,0,0,0,0,0,0,-1,1063,519,0,0
-154,505,0,0,0,0,0,0,0,0,0,-1,1070,519,0,0
-147,505,0,0,0,0,0,0,0,0,0,-1,1077,519,0,0
-140,505,0,0,0,0,0,0,0,0,0,-1,1084,519,0,0
-133,505,0,0,0,0,0,0,0,0,0,-1,1091,519,0,0
-126,505,0,0,0,0,0,0,0,0,0,-1,1098,519,0,0
-119,505,0,0,0,0,0,0,0,0,0,-1,1105,519,0,0
-112,505,0,0,0,0,0,0,0,0,0,-1,1112,519,0,0
-105,505,0,0,0,0,0,0,0,0,0,-1,1119,519,0,0
-98,505,0,0,0,0,0,0,0,0,0,-1,1126,519,0,0
-91,505,0,0,0,0,0,0,0,0,0,-1,1133,519,0,0
-84,505,0,0,0,0,0,0,0,0,0,-1,1140,519,0,0
-77,505,0,0,0,0,0,0,0,0,0,-1,1147,519,0,0
-70,505,0,0,0,0,0,0,0,0,0,-1,1154,519,0,0
-63,505,0,0,0,0,0,0,0,0,0,-1,1161,519,0,0
-56,505,0,0,0,0,0,0,0,0,0,-1,1168,519,0,0
-49,505,0,0,0,0,0,0,0,0,0,-1,1175,519,0,0
-42,505,0,0,0,0,0,0,0,0,0,-1,1182,519,0,0
-35,505,0,0,0,0,0,0,0,0,0,-1,1189,519,0,0
-28,505,0,0,0,0,0,0,0,0,0,-1,1196,519,0,0
-21,505,0,0,0,0,0,0,0,0,0,-1,1203,519,0,0
-14,505,0,0,0,0,0,0,0,0,0,-1,1210,519,0,0
-7,505,0,0,0,0,0,0,0,0,0,-1,1217,519,0,0
0,505,0,0,0,0,0,0,0,0,0,-1,1224,519,0,0
7,505,0,0,0,0,0,0,0,0,0,-1,1231,519,0,0
14,505,0,0,0,0,0,0,0,0,0,-1,1238,519,0,0
21,505,0,0,0,0,0,0,0,0,0,-1,1245,519,0,0
28,505,0,0,0,0,0,0,0,0,0,-1,1252,519,0,0
35,505,0,0,0,0,0,0,0,0,0,-1,1259,519,0,0
42,505,0,0,0,0,0,0,0,0,0,-1,1266,519,0,0
49,505,0,0,0,0,0,0,0,0,0,-1,1273,519,0,0
56,505,0,0,0,0,0,0,0,0,0,-1,1280,519,0,0
63,505,0,0,0,0,0,0,0,0,0,-1,1287,519,0,0
70,505,0,0,0,0,0,0,0,0,0,-1,1294,519,0,0
77,505,0,0,0,0,0,0,0,0,0,-1,1301,519,0,0
84,505,0,0,0,0,0,0,0,0,0,-1,1308,519,0,0
91,505,0,0,0,0,0,0,0,0,0,-1,1315,519,0,0
98,505,0,0,0,0,0,0,0,0,0,-1,1322,519,0,0
105,505,0,0,0,0,0,0,0,0,0,-1,1329,519,0,0
112,505,0,0,0,0,0,0,0,0,0,-1,1336,519,0,0
119,505,0,0,0,0,0,0,0,0,0,-1,1343,519,0,0
126,505,0,0,0,0,0,0,0,0,0,-1,1350,519,0,0
133,505,0,0,0,0,0,0,0,0,0,-1,1357,519,0,0
140,505,0,0,0,0,0,0,0,0,0,-1,1364,519,0,0
147,505,0,0,0,0,0,0,0,0,0,-1,1371,519,0,0
154,505,0,0,0,0,0,0,0,0,0,-1,1378,519,0,0
161,505,0,0,0,0,0,0,0,0,0,-1,1385,519,0,0
168,505,0,0,0,0,0,0,0,0,0,-1,1392,519,0,0
175,505,0,0,0,0,0,0,0,0,0,-1,1399,519,0,0
182,505,0,0,0,0,0,0,0,0,0,-1,1406,519,0,0
189,505,0,0,0,0,0,0,0,0,0,-1,1413,519,0,0
196,505,0,0,0,0,0,0,0,0,0,-1,1420,519,0,0
203,505,0,0,0,0,0,0,0,0,0,-1,1427,519,0,0
210,505,0,0,0,0,0,0,0,0,0,-1,1434,519,0,0
217,505,0,0,0,0,0,0,0,0,0,-1,1441,519,0,0
224,505,0,0,0,0,0,0,0,0,0,-1,1448,519,0,0
231,505,0,0,0,0,0,0,0,0,0,-1,1455,519,0,0
238,505,0,0,0,0,0,0,0,0,0,-1,1462,519,0,0
245,505,0,0,0,0,0,0,0,0,0,-1,1469,519,0,0
252,505,0,0,0,0,0,0,0,0,0,-1,1476,519,0,0
259,505,0,0,0,0,0,0,0,0,0,-1,1483,519,0,0
266,505,0,0,0,0,0,0,0,0,0,-1,1490,519,0,0
273,505,0,0,0,0,0,0,0,0,0,-1,1497,519,0,0
280,505,0,0,0,0,0,0,0,0,0,-1,1504,519,0,0
287,505,4.39478,0.499512,0,0,0,0,0,0,0,-1,1511,519,4.39476,-0.499506
294,505,4.88867,0.0822754,0,0,0,0,0,0,0,-1,1518,519,4.88871,-0.0822748
301,505,4.82153,-0.0704346,0,0,0,0,0,0,0,-1,1525,519,4.82156,0.0704312
308,505,4.67761,-0.29187,0,0,0,0,0,0,0,-1,1532,519,4.67762,0.291845
315,505,8.44055,-6.54352,0,0,0,0,0,0,0,-1,1539,519,8.44059,6.54349
322,505,4.78955,-0.594116,0,0,0,0,0,0,0,-1,1546,519,4.78957,0.594096
329,505,5.16321,0.434631,0,0,0,0,0,0,0,-1,1553,519,5.16316,-0.434614
336,505,4.94495,-0.920471,0,0,0,0,0,0,0,-1,1560,519,4.945,0.920495
343,505,5.01855,-1.4823,0,0,0,0,0,0,0,-1,1567,519,5.01851,1.48227
350,505,5.33154,-1.77838,0,0,0,0,0,0,0,-1,1574,519,5.33152,1.77838
357,505,5.56567,-1.9425,0,0,0,0,0,0,0,-1,1581,519,5.56562,1.94248
364,505,5.85205,-2.6579,0,0,0,0,0,0,0,-1,1588,519,5.85211,2.65788
371,505,5.88477,-7.00922,0,0,0,0,0,0,0,-1,1595,519,5.88473,7.00924
378,505,5.44104,-7.10162,0,0,0,0,0,0,0,-1,1602,519,5.44099,7.10162
385,505,6.64661,-8.65015,0,0,0,0,0,0,0,-1,1609,519,6.64662,8.65014
392,505,6.34558,-8.3429,0,0,0,0,0,0,0,-1,1616,519,6.34554,8.34288
399,505,7.45898,-9.70386,0,0,0,0,0,0,0,-1,1623,519,7.45899,9.70388
406,505,7.08679,-9.4928,0,0,0,0,0,0,0,-1,1630,519,7.08678,9.49278
413,505,8.4032,-14.0308,0,0,0,0,0,0,0,-1,1637,519,8.4032,14.0308
420,505,20.4623,-38.7504,0,0,0,0,0,0,0,-1,1644,519,20.4622,38.7504
427,505,20.443,-37.7592,0.00379729,0.00030894,-0.00017263,0.00380581,0.000300417,-0.0493268,0.00244323,0.0345286,1651,519,20.443,37.7592
434,505,20.3646,-36.7966,0.0028384,0.000180396,-0.000403374,0.00289827,0.000120529,-0.14734,0.00189328,0.0142005,1658,519,20.3646,36.7966
441,505,20.3289,-35.8631,0.00223938,0.000130349,-0.000384454,0.00230727,6.24526e-05,-0.174802,0.00151779,0.0118083,1665,519,20.3289,35.8631
448,505,20.2405,-35.0108,0.00185143,0.00017351,-0.000237495,0.0018844,0.000140542,-0.137933,0.00121213,0.01204,1672,519,20.2405,35.0108
455,505,20.1912,-34.1475,0.00155043,0.000362484,-4.17417e-05,0.00155189,0.000361019,-0.03508,0.000937715,0.012202,1679,519,20.1912,34.1474
462,505,20.1591,-33.2648,0.00137922,0.000708679,0.000230909,0.00145105,0.000636856,0.301558,0.000839845,0.0112241,1686,519,20.159,33.2648
469,505,20.1163,-32.3713,0.00144693,0.00119869,0.000662216,0.00199656,0.000649062,0.692756,0.00117599,0.0110834,1693,519,20.1163,32.3713
476,505,20.0734,-31.4886,0.00152122,0.00174759,0.00113018,0.00277024,0.000498572,0.835304,0.00170511,0.0118459,1700,519,20.0734,31.4886
483,505,20.05,-30.5851,0.00174889,0.00231676,0.00164535,0.00370249,0.000363161,0.870841,0.00235662,0.0128995,1707,519,20.05,30.5851
490,505,19.9956,-29.6823,0.00202356,0.00301475,0.00215156,0.00472706,0.000311254,0.898595,0.00305291,0.0128637,1714,519,19.9956,29.6823
497,505,19.9099,-28.7861,0.0023997,0.00363955,0.00258365,0.0056766,0.000362642,0.903143,0.0036695,0.0126952,1721,519,19.9099,28.7861
504,505,19.8347,-27.8522,0.0029111,0.00423102,0.00300006,0.00664286,0.000499268,0.893665,0.00427188,0.0136,1728,519,19.8347,27.8522
511,505,19.786,-26.9296,0.00343583,0.00483441,0.003365,0.00757201,0.000698227,0.887846,0.00483211,0.0169695,1735,519,19.786,26.9296
518,505,19.925,-26.0656,0.00389781,0.00552893,0.00357493,0.00838015,0.00104659,0.897545,0.00527264,0.0448001,1742,519,19.9251,26.0656
525,505,20.0825,-25.0468,0,0,0,0,0,0,0,-1,1749,519,20.0825,25.0467
532,505,19.6493,-24.2051,0,0,0,0,0,0,0,-1,1756,519,19.6493,24.2051
539,505,13.9879,-13.9018,0,0,0,0,0,0,0,-1,1763,519,13.988,13.9018
546,505,7.94946,-6.64539,0,0,0,0,0,0,0,-1,1770,519,7.94947,6.64539
553,505,2.82837,0.162659,0,0,0,0,0,0,0,-1,1777,519,2.82841,-0.162672
560,505,3.66223,-0.479797,0,0,0,0,0,0,0,-1,1784,519,3.66219,0.47982
567,505,4.65271,-0.950256,0,0,0,0,0,0,0,-1,1791,519,4.65274,0.95028
574,505,5.54443,-1.19977,0,0,0,0,0,0,0,-1,1798,519,5.54443,1.19974
581,505,0,0,0,0,0,0,0,0,0,-1,1805,519,0,0
588,505,0,0,0,0,0,0,0,0,0,-1,1812,519,0,0
595,505,0,0,0,0,0,0,0,0,0,-1,1819,519,0,0
602,505,0,0,0,0,0,0,0,0,0,-1,1826,519,0,0
609,505,0,0,0,0,0,0,0,0,0,-1,1833,519,0,0
616,505,0,0,0,0,0,0,0,0,0,-1,1840,519,0,0
623,505,0,0,0,0,0,0,0,0,0,-1,1847,519,0,0
630,505,0,0,0,0,0,0,0,0,0,-1,1854,519,0,0
637,505,0,0,0,0,0,0,0,0,0,-1,1861,519,0,0
644,505,0,0,0,0,0,0,0,0,0,-1,1868,519,0,0
651,505,0,0,0,0,0,0,0,0,0,-1,1875,519,0,0
658,505,0,0,0,0,0,0,0,0,0,-1,1882,519,0,0
665,505,0,0,0,0,0,0,0,0,0,-1,1889,519,0,0
672,505,0,0,0,0,0,0,0,0,0,-1,1896,519,0,0
679,505,0,0,0,0,0,0,0,0,0,-1,1903,519,0,0
686,505,0,0,0,0,0,0,0,0,0,-1,1910,519,0,0
693,505,0,0,0,0,0,0,0,0,0,-1,1917,519,0,0
700,505,0,0,0,0,0,0,0,0,0,-1,1924,519,0,0
707,505,0,0,0,0,0,0,0,0,0,-1,1931,519,0,0
714,505,0,0,0,0,0,0,0,0,0,-1,1938,519,0,0
721,505,0,0,0,0,0,0,0,0,0,-1,1945,519,0,0
728,505,0,0,0,0,0,0,0,0,0,-1,1952,519,0,0
735,505,0,0,0,0,0,0,0,0,0,-1,1959,519,0,0
742,505,0,0,0,0,0,0,0,0,0,-1,1966,519,0,0
749,505,0,0,0,0,0,0,0,0,0,-1,1973,519,0,0
756,505,0,0,0,0,0,0,0,0,0,-1,1980,519,0,0
763,505,0,0,0,0,0,0,0,0,0,-1,1987,519,0,0
770,505,0,0,0,0,0,0,0,0,0,-1,1994,519,0,0
777,505,0,0,0,0,0,0,0,0,0,-1,2001,519,0,0
784,505,0,0,0,0,0,0,0,0,0,-1,2008,519,0,0
791,505,0,0,0,0,0,0,0,0,0,-1,2015,519,0,0
798,505,0,0,0,0,0,0,0,0,0,-1,2022,519,0,0
805,505,0,0,0,0,0,0,0,0,0,-1,2029,519,0,0
812,505,0,0,0,0,0,0,0,0,0,-1,2036,519,0,0
-700,498,0,0,0,0,0,0,0,0,0,-1,524,526,0,0
-693,498,0,0,0,0,0,0,0,0,0,-1,531,526,0,0
-686,498,0,0,0,0,0,0,0,0,0,-1,538,526,0,0
-679,498,0,0,0,0,0,0,0,0,0,-1,545,526,0,0
-672,498,0,0,0,0,0,0,0,0,0,-1,552,526,0,0
-665,498,0,0,0,0,0,0,0,0,0,-1,559,526,0,0
-658,498,0,0,0,0,0,0,0,0,0,-1,566,526,0,0
-651,498,0,0,0,0,0,0,0,0,0,-1,573,526,0,0
-644,498,0,0,0,0,0,0,0,0,0,-1,580,526,0,0
-637,498,0,0,0,0,0,0,0,0,0,-1,587,526,0,0
-630,498,0,0,0,0,0,0,0,0,0,-1,594,526,0,0
-623,498,0,0,0,0,0,0,0,0,0,-1,601,526,0,0
-616,498,0,0,0,0,0,0,0,0,0,-1,608,526,0,0
-609,498,0,0,0,0,0,0,0,0,0,-1,615,526,0,0
-602,498,0,0,0,0,0,0,0,0,0,-1,622,526,0,0
-595,498,0,0,0,0,0,0,0,0,0,-1,629,526,0,0
-588,498,0,0,0,0,0,0,0,0,0,-1,636,526,0,0
-581,498,0,0,0,0,0,0,0,0,0,-1,643,526,0,0
-574,498,0,0,0,0,0,0,0,0,0,-1,650,526,0,0
-567,498,0,0,0,0,0,0,0,0,0,-1,657,526,0,0
-560,498,0,0,0,0,0,0,0,0,0,-1,664,526,0,0
-553,498,0,0,0,0,0,0,0,0,0,-1,671,526,0,0
-546,498,0,0,0,0,0,0,0,0,0,-1,678,526,0,0
-539,498,0,0,0,0,0,0,0,0,0,-1,685,526,0,0
-532,498,0,0,0,0,0,0,0,0,0,-1,692,526,0,0
-525,498,0,0,0,0,0,0,0,0,0,-1,699,526,0,0
-518,498,0,0,0,0,0,0,0,0,0,-1,706,526,0,0
-511,498,0,0,0,0,0,0,0,0,0,-1,713,526,0,0
-504,498,0,0,0,0,0,0,0,0,0,-1,720,526,0,0
-497,498,0,0,0,0,0,0,0,0,0,-1,727,526,0,0
-490,498,0,0,0,0,0,0,0,0,0,-1,734,526,0,0
-483,498,0,0,0,0,0,0,0,0,0,-1,741,526,0,0
-476,498,0,0,0,0,0,0,0,0,0,-1,748,526,0,0
-469,498,0,0,0,0,0,0,0,0,0,-1,755,526,0,0
-462,498,6.81024,1.15515,0,0,0,0,0,0,0,-1,762,526,6.81026,-1.15514
-455,498,3.25757,-3.0592,0,0,0,0,0,0,0,-1,769,526,3.25754,3.05921
-448,498,3.05939,-3.74298,0,0,0,0,0,0,0,-1,776,526,3.05939,3.74296
-441,498,2.77191,-6.08209,0,0,0,0,0,0,0,-1,783,526,2.77189,6.08207
-434,498,2.10681,-6.95929,0,0,0,0,0,0,0,-1,790,526,2.10682,6.9593
-427,498,-0.368042,-10.7726,0,0,0,0,0,0,0,-1,797,526,-0.36807,10.7726
-420,498,-1.05035,-10.5142,0,0,0,0,0,0,0,-1,804,526,-1.05034,10.5142
-413,498,-4.52112,-18.8354,0,0,0,0,0,0,0,-1,811,526,-4.52111,18.8354
-406,498,-4.46552,-24.2271,0,0,0,0,0,0,0,-1,818,526,-4.46551,24.2271
-399,498,-4.54633,-25.3249,0.00209138,0.0151382,-0.00913207,0.0198375,-0.00260794,-1.09554,0.0141745,0.0338184,825,526,-4.54632,25.3249
-392,498,-4.703,-26.3429,0.00220214,0.0129417,-0.00825826,0.0174225,-0.00227862,-1.07367,0.0124443,0.0177818,832,526,-4.70301,26.3429
-385,498,-4.77698,-27.2806,0.00229456,0.0108376,-0.00727602,0.0150033,-0.00187113,-1.05083,0.0106807,0.010421,839,526,-4.77696,27.2806
-378,498,-4.81897,-28.2304,0.00231138,0.00887613,-0.00623179,0.0126371,-0.00144962,-1.02779,0.00894719,0.0108886,846,526,-4.81897,28.2304
-371,498,-4.87152,-29.1665,0.00223094,0.00698338,-0.00520273,0.0103269,-0.00111253,-0.999615,0.00728379,0.0169571,853,526,-4.87151,29.1665
-364,498,-4.93353,-30.0985,0.00204962,0.00508567,-0.00406236,0.00790437,-0.000769077,-0.964205,0.00554375,0.0168115,860,526,-4.93355,30.0985
-357,498,-4.95135,-30.9985,0.00184612,0.00345304,-0.00293017,0.00568791,-0.000388749,-0.91921,0.00392794,0.0112985,867,526,-4.95134,30.9985
-350,498,-5.02264,-31.8506,0.00163262,0.00195436,-0.00186194,0.00366236,-7.53819e-05,-0.828491,0.00246709,0.012379,874,526,-5.02266,31.8506
-343,498,-5.07721,-32.7785,0.00138207,0.000521221,-0.000859159,0.00191259,-9.30188e-06,-0.553181,0.00127817,0.0158601,881,526,-5.07718,32.7785
-336,498,-5.10767,-33.6923,0.00102411,-0.000827034,0.00015645,0.00103724,-0.000840163,0.0837237,0.00108591,0.0209503,888,526,-5.10764,33.6923
-329,498,-5.12445,-34.5027,0.000712643,-0.00198159,0.00107882,0.00109138,-0.00236033,0.337625,0.00203724,0.0267535,895,526,-5.12442,34.5027
-322,498,-5.20935,-35.3636,0.000558991,-0.00283425,0.00178879,0.00132779,-0.00360305,0.405917,0.00294611,0.0281375,902,526,-5.20934,35.3636
-315,498,-5.28229,-36.2323,0.000550864,-0.00338928,0.00235712,0.0016528,-0.00449121,0.437304,0.00367125,0.0208023,909,526,-5.28226,36.2323
-308,498,-5.32465,-37.0696,0.000586648,-0.0039873,0.00291275,0.00200297,-0.00540362,0.452585,0.00442389,0.022965,916,526,-5.32466,37.0696
-301,498,-5.32251,-37.9976,0,0,0,0,0,0,0,-1,923,526,-5.32254,37.9975
-294,498,-4.91913,-37.795,0,0,0,0,0,0,0,-1,930,526,-4.91914,37.7951
-287,498,-0.91394,-13.4327,0,0,0,0,0,0,0,-1,937,526,-0.913935,13.4327
-280,498,-0.341614,-8.66608,0,0,0,0,0,0,0,-1,944,526,-0.341589,8.66606
-273,498,-0.988892,-8.62921,0,0,0,0,0,0,0,-1,951,526,-0.988906,8.62922
-266,498,0.362488,-6.33545,0,0,0,0,0,0,0,-1,958,526,0.362478,6.33547
-259,498,10.9454,-17.3615,0,0,0,0,0,0,0,-1,965,526,10.9454,17.3614
-252,498,8.56586,-14.6886,0,0,0,0,0,0,0,-1,972,526,8.56584,14.6886
-245,498,5.97382,-11.928,0,0,0,0,0,0,0,-1,979,526,5.97381,11.928
-238,498,2.24841,-13.8145,0,0,0,0,0,0,0,-1,986,526,2.24838,13.8145
-231,498,0.665894,-10.4898,0,0,0,0,0,0,0,-1,993,526,0.665863,10.4898
-224,498,-2.11243,-4.76312,0,0,0,0,0,0,0,-1,1000,526,-2.11245,4.76314
-217,498,-3.82239,-1.42841,0,0,0,0,0,0,0,-1,1007,526,-3.82241,1.42843
-210,498,-1.80591,-0.358215,0,0,0,0,0,0,0,-1,1014,526,-1.8059,0.3582
-203,498,-3.17316,1.06641,0,0,0,0,0,0,0,-1,1021,526,-3.17313,-1.0664
-196,498,-0.103271,5.40527,0,0,0,0,0,0,0,-1,1028,526,-0.103285,-5.40528
-189,498,3.00256,6.47137,0,0,0,0,0,0,0,-1,1035,526,3.00256,-6.47139
-182,498,0,0,0,0,0,0,0,0,0,-1,1042,526,0,0
-175,498,0,0,0,0,0,0,0,0,0,-1,1049,526,0,0
-168,498,0,0,0,0,0,0,0,0,0,-1,1056,526,0,0
-161,498,0,0,0,0,0,0,0,0,0,-1,1063,526,0,0
-154,498,0,0,0,0,0,0,0,0,0,-1,1070,526,0,0
-147,498,0,0,0,0,0,0,0,0,0,-1,1077,526,0,0
-140,498,0,0,0,0,0,0,0,0,0,-1,1084,526,0,0
-133,498,0,0,0,0,0,0,0,0,0,-1,1091,526,0,0
-126,498,0,0,0,0,0,0,0,0,0,-1,1098,526,0,0
-119,498,0,0,0,0,0,0,0,0,0,-1,1105,526,0,0
-112,498,0,0,0,0,0,0,0,0,0,-1,1112,526,0,0
-105,498,0,0,0,0,0,0,0,0,0,-1,1119,526,0,0
-98,498,0,0,0,0,0,0,0,0,0,-1,1126,526,0,0
-91,498,0,0,0,0,0,0,0,0,0,-1,1133,526,0,0
-84,498,0,0,0,0,0,0,0,0,0,-1,1140,526,0,0
-77,498,0,0,0,0,0,0,0,0,0,-1,1147,526,0,0
-70,498,0,0,0,0,0,0,0,0,0,-1,1154,526,0,0
-63,498,0,0,0,0,0,0,0,0,0,-1,1161,526,0,0
-56,498,0,0,0,0,0,0,0,0,0,-1,1168,526,0,0
-49,498,0,0,0,0,0,0,0,0,0,-1,1175,526,0,0
-42,498,0,0,0,0,0,0,0,0,0,-1,1182,526,0,0
-35,498,0,0,0,0,0,0,0,0,0,-1,1189,526,0,0
-28,498,0,0,0,0,0,0,0,0,0,-1,1196,526,0,0
-21,498,0,0,0,0,0,0,0,0,0,-1,1203,526,0,0
-14,498,0,0,0,0,0,0,0,0,0,-1,1210,526,0,0
-7,498,0,0,0,0,0,0,0,0,0,-1,1217,526,0,0
0,498,0,0,0,0,0,0,0,0,0,-1,1224,526,0,0
7,498,0,0,0,0,0,0,0,0,0,-1,1231,526,0,0
14,498,0,0,0,0,0,0,0,0,0,-1,1238,526,0,0
21,498,0,0,0,0,0,0,0,0,0,-1,1245,526,0,0
28,498,0,0,0,0,0,0,0,0,0,-1,1252,526,0,0
35,498,0,0,0,0,0,0,0,0,0,-1,1259,526,0,0
42,498,0,0,0,0,0,0,0,0,0,-1,1266,526,0,0
49,498,0,0,0,0,0,0,0,0,0,-1,1273,526,0,0
56,498,0,0,0,0,0,0,0,0,0,-1,1280,526,0,0
63,498,0,0,0,0,0,0,0,0,0,-1,1287,526,0,0
70,498,0,0,0,0,0,0,0,0,0,-1,1294,526,0,0
77,498,0,0,0,0,0,0,0,0,0,-1,1301,526,0,0
84,498,0,0,0,0,0,0,0,0,0,-1,1308,526,0,0
91,498,0,0,0,0,0,0,0,0,0,-1,1315,526,0,0
98,498,0,0,0,0,0,0,0,0,0,-1,1322,526,0,0
105,498,0,0,0,0,0,0,0,0,0,-1,1329,526,0,0
112,498,0,0,0,0,0,0,0,0,0,-1,1336,526,0,0
119,498,0,0,0,0,0,0,0,0,0,-1,1343,526,0,0
126,498,0,0,0,0,0,0,0,0,0,-1,1350,526,0,0
133,498,0,0,0,0,0,0,0,0,0,-1,1357,526,0,0
140,498,0,0,0,0,0,0,0,0,0,-1,1364,526,0,0
147,498,0,0,0,0,0,0,0,0,0,-1,1371,526,0,0
154,498,0,0,0,0,0,0,0,0,0,-1,1378,526,0,0
161,498,0,0,0,0,0,0,0,0,0,-1,1385,526,0,0
168,498,0,0,0,0,0,0,0,0,0,-1,1392,526,0,0
175,498,0,0,0,0,0,0,0,0,0,-1,1399,526,0,0
182,498,0,0,0,0,0,0,0,0,0,-1,1406,526,0,0
189,498,0,0,0,0,0,0,0,0,0,-1,1413,526,0,0
196,498,0,0,0,0,0,0,0,0,0,-1,1420,526,0,0
203,498,0,0,0,0,0,0,0,0,0,-1,1427,526,0,0
210,498,0,0,0,0,0,0,0,0,0,-1,1434,526,0,0
217,498,0,0,0,0,0,0,0,0,0,-1,1441,526,0,0
224,498,0,0,0,0,0,0,0,0,0,-1,1448,526,0,0
231,498,0,0,0,0,0,0,0,0,0,-1,1455,526,0,0
238,498,0,0,0,0,0,0,0,0,0,-1,1462,526,0,0
245,498,0,0,0,0,0,0,0,0,0,-1,1469,526,0,0
252,498,0,0,0,0,0,0,0,0,0,-1,1476,526,0,0
259,498,0,0,0,0,0,0,0,0,0,-1,1483,526,0,0
266,498,0,0,0,0,0,0,0,0,0,-1,1490,526,0,0
273,498,0,0,0,0,0,0,0,0,0,-1,1497,526,0,0
280,498,0,0,0,0,0,0,0,0,0,-1,1504,526,0,0
287,498,0,0,0,0,0,0,0,0,0,-1,1511,526,0,0
294,498,0,0,0,0,0,0,0,0,0,-1,1518,526,0,0
301,498,0,0,0,0,0,0,0,0,0,-1,1525,526,0,0
308,498,4.77942,-0.293884,0,0,0,0,0,0,0,-1,1532,526,4.77939,0.293899
315,498,4.56091,-0.564148,0,0,0,0,0,0,0,-1,1539,526,4.56097,0.564142
322,498,4.52344,-0.447266,0,0,0,0,0,0,0,-1,1546,526,4.52341,0.447295
329,498,4.63232,-0.156982,0,0,0,0,0,0,0,-1,1553,526,4.63238,0.156991
336,498,5.22644,0.0925903,0,0,0,0,0,0,0,-1,1560,526,5.22648,-0.0926188
343,498,6.22607,-1.67615,0,0,0,0,0,0,0,-1,1567,526,6.22605,1.67617
350,498,6.19373,-1.59906,0,0,0,0,0,0,0,-1,1574,526,6.19367,1.59906
357,498,6.21472,-1.58929,0,0,0,0,0,0,0,-1,1581,526,6.21476,1.58927
364,498,5.73547,-1.2019,0,0,0,0,0,0,0,-1,1588,526,5.73547,1.20192
371,498,3.27087,-4.55334,0,0,0,0,0,0,0,-1,1595,526,3.27089,4.55332
378,498,8.42944,-4.70624,0,0,0,0,0,0,0,-1,1602,526,8.42942,4.70624
385,498,4.7793,-5.15314,0,0,0,0,0,0,0,-1,1609,526,4.77935,5.15311
392,498,9.12439,-8.57953,0,0,0,0,0,0,0,-1,1616,526,9.12443,8.57955
399,498,7.98938,-9.46021,0,0,0,0,0,0,0,-1,1623,526,7.98936,9.4602
406,498,7.58081,-9.26819,0,0,0,0,0,0,0,-1,1630,526,7.58085,9.26817
413,498,7.17236,-9.07611,0,0,0,0,0,0,0,-1,1637,526,7.17234,9.07614
420,498,11.4314,-16.1147,0,0,0,0,0,0,0,-1,1644,526,11.4313,16.1147
427,498,21.1333,-37.7977,0,0,0,0,0,0,0,-1,1651,526,21.1333,37.7977
434,498,21.1052,-36.7632,0.00287289,-0.00023647,-0.000868408,0.00309899,-0.000462565,-0.254702,0.00223618,0.0415708,1658,526,21.1052,36.7632
441,498,21.1888,-35.8426,0.00221714,-0.000374961,-0.000959419,0.00253361,-0.000691435,-0.318621,0.00196062,0.0143977,1665,526,21.1888,35.8426
448,498,21.1451,-34.9373,0.00183945,-0.000344423,-0.000862522,0.00213901,-0.000643985,-0.334276,0.00168227,0.0123508,1672,526,21.1451,34.9373
455,498,21.0823,-34.0718,0.00159545,-0.000160701,-0.000714619,0.00184949,-0.000414747,-0.341564,0.001392,0.015758,1679,526,21.0823,34.0718
462,498,21.0735,-33.212,0.00143035,0.000139788,-0.000465282,0.00158061,-1.04642e-05,-0.312357,0.00105724,0.0158757,1686,526,21.0735,33.212
469,498,21.0171,-32.3527,0.00143905,0.000582193,-4.37706e-05,0.00144128,0.000579963,-0.0509061,0.000837393,0.0130618,1693,526,21.0171,32.3527
476,498,20.9723,-31.4688,0.00152539,0.00108357,0.000430501,0.00178835,0.000820609,0.548343,0.00103367,0.0100912,1700,526,20.9723,31.4688
483,498,20.9185,-30.5724,0.00172835,0.00158641,0.000935694,0.00259576,0.000718998,0.747546,0.00154756,0.00876143,1707,526,20.9184,30.5724
490,498,20.8485,-29.668,0.00191281,0.00223206,0.00140831,0.00348976,0.000655104,0.84183,0.0021418,0.0116283,1714,526,20.8485,29.668
497,498,20.7942,-28.7353,0.00218504,0.00286259,0.00187379,0.00442798,0.000619648,0.874831,0.00276865,0.0131718,1721,526,20.7942,28.7353
504,498,20.7478,-27.8146,0.0025509,0.00336451,0.0023058,0.00529912,0.000616299,0.872713,0.00334628,0.0153615,1728,526,20.7478,27.8146
511,498,20.6986,-26.9006,0.00283909,0.0038932,0.00268093,0.00609839,0.000633892,0.882457,0.00387163,0.0173422,1735,526,20.6986,26.9007
518,498,20.7277,-25.9521,0.00298074,0.00446821,0.00291397,0.00673186,0.000717087,0.910346,0.004269,0.0244025,1742,526,20.7277,25.9521
525,498,20.526,-25.0428,0.00304433,0.00502778,0.00309987,0.00729071,0.000781408,0.940216,0.00462207,0.044181,1749,526,20.526,25.0428
532,498,20.2345,-23.7865,0,0,0,0,0,0,0,-1,1756,526,20.2345,23.7865
539,498,19.5333,-22.7072,0,0,0,0,0,0,0,-1,1763,526,19.5333,22.7072
546,498,10.2014,-8.47589,0,0,0,0,0,0,0,-1,1770,526,10.2014,8.47589
553,498,5.93958,-1.71448,0,0,0,0,0,0,0,-1,1777,526,5.93956,1.71447
560,498,3.69385,-0.615112,0,0,0,0,0,0,0,-1,1784,526,3.69381,0.615118
567,498,5.12695,-0.581604,0,0,0,0,0,0,0,-1,1791,526,5.12699,0.58159
574,498,3.88,0.0286255,0,0,0,0,0,0,0,-1,1798,526,3.87999,-0.0286535
581,498,10.8722,2.58551,0,0,0,0,0,0,0,-1,1805,526,10.8723,-2.58551
588,498,0,0,0,0,0,0,0,0,0,-1,1812,526,0,0
595,498,0,0,0,0,0,0,0,0,0,-1,1819,526,0,0
602,498,0,0,0,0,0,0,0,0,0,-1,1826,526,0,0
609,498,0,0,0,0,0,0,0,0,0,-1,1833,526,0,0
616,498,0,0,0,0,0,0,0,0,0,-1,1840,526,0,0
623,498,0,0,0,0,0,0,0,0,0,-1,1847,526,0,0
630,498,0,0,0,0,0,0,0,0,0,-1,1854,526,0,0
637,498,0,0,0,0,0,0,0,0,0,-1,1861,526,0,0
644,498,0,0,0,0,0,0,0,0,0,-1,1868,526,0,0
651,498,0,0,0,0,0,0,0,0,0,-1,1875,526,0,0
658,498,0,0,0,0,0,0,0,0,0,-1,1882,526,0,0
665,498,0,0,0,0,0,0,0,0,0,-1,1889,526,0,0
672,498,0,0,0,0,0,0,0,0,0,-1,1896,526,0,0
679,498,0,0,0,0,0,0,0,0,0,-1,1903,526,0,0
686,498,0,0,0,0,0,0,0,0,0,-1,1910,526,0,0
693,498,0,0,0,0,0,0,0,0,0,-1,1917,526,0,0
700,498,0,0,0,0,0,0,0,0,0,-1,1924,526,0,0
707,498,0,0,0,0,0,0,0,0,0,-1,1931,526,0,0
714,498,0,0,0,0,0,0,0,0,0,-1,1938,526,0,0
721,498,0,0,0,0,0,0,0,0,0,-1,1945,526,0,0
728,498,0,0,0,0,0,0,0,0,0,-1,1952,526,0,0
735,498,0,0,0,0,0,0,0,0,0,-1,1959,526,0,0
742,498,0,0,0,0,0,0,0,0,0,-1,1966,526,0,0
749,498,0,0,0,0,0,0,0,0,0,-1,1973,526,0,0
756,498,0,0,0,0,0,0,0,0,0,-1,1980,526,0,0
763,498,0,0,0,0,0,0,0,0,0,-1,1987,526,0,0
770,498,0,0,0,0,0,0,0,0,0,-1,1994,526,0,0
777,498,0,0,0,0,0,0,0,0,0,-1,2001,526,0,0
784,498,0,0,0,0,0,0,0,0,0,-1,2008,526,0,0
791,498,0,0,0,0,0,0,0,0,0,-1,2015,526,0,0
798,498,0,0,0,0,0,0,0,0,0,-1,2022,526,0,0
805,498,0,0,0,0,0,0,0,0,0,-1,2029,526,0,0
812,498,0,0,0,0,0,0,0,0,0,-1,2036,526,0,0
-700,491,0,0,0,0,0,0,0,0,0,-1,524,533,0,0
-693,491,0,0,0,0,0,0,0,0,0,-1,531,533,0,0
-686,491,0,0,0,0,0,0,0,0,0,-1,538,533,0,0
-679,491,0,0,0,0,0,0,0,0,0,-1,545,533,0,0
-672,491,0,0,0,0,0,0,0,0,0,-1,552,533,0,0
-665,491,0,0,0,0,0,0,0,0,0,-1,559,533,0,0
-658,491,0,0,0,0,0,0,0,0,0,-1,566,533,0,0
-651,491,0,0,0,0,0,0,0,0,0,-1,573,533,0,0
-644,491,0,0,0,0,0,0,0,0,0,-1,580,533,0,0
-637,491,0,0,0,0,0,0,0,0,0,-1,587,533,0,0
-630,491,0,0,0,0,0,0,0,0,0,-1,594,533,0,0
-623,491,0,0,0,0,0,0,0,0,0,-1,601,533,0,0
-616,491,0,0,0,0,0,0,0,0,0,-1,608,533,0,0
-609,491,0,0,0,0,0,0,0,0,0,-1,615,533,0,0
-602,491,0,0,0,0,0,0,0,0,0,-1,622,533,0,0
-595,491,0,0,0,0,0,0,0,0,0,-1,629,533,0,0
-588,491,0,0,0,0,0,0,0,0,0,-1,636,533,0,0
-581,491,0,0,0,0,0,0,0,0,0,-1,643,533,0,0
-574,491,0,0,0,0,0,0,0,0,0,-1,650,533,0,0
-567,491,0,0,0,0,0,0,0,0,0,-1,657,533,0,0
-560,491,0,0,0,0,0,0,0,0,0,-1,664,533,0,0
-553,491,0,0,0,0,0,0,0,0,0,-1,671,533,0,0
-546,491,0,0,0,0,0,0,0,0,0,-1,678,533,0,0
-539,491,0,0,0,0,0,0,0,0,0,-1,685,533,0,0
-532,491,0,0,0,0,0,0,0,0,0,-1,692,533,0,0
-525,491,0,0,0,0,0,0,0,0,0,-1,699,533,0,0
-518,491,0,0,0,0,0,0,0,0,0,-1,706,533,0,0
-511,491,0,0,0,0,0,0,0,0,0,-1,713,533,0,0
-504,491,0,0,0,0,0,0,0,0,0,-1,720,533,0,0
-497,491,0,0,0,0,0,0,0,0,0,-1,727,533,0,0
-490,491,0,0,0,0,0,0,0,0,0,-1,734,533,0,0
-483,491,0,0,0,0,0,0,0,0,0,-1,741,533,0,0
-476,491,0,0,0,0,0,0,0,0,0,-1,748,533,0,0
-469,491,-5.85913,4.55011,0,0,0,0,0,0,0,-1,755,533,-5.8591,-4.55009
-462,491,-9.93713,4.90381,0,0,0,0,0,0,0,-1,762,533,-9.93716,-4.9038
-455,491,1.9494,-0.27887,0,0,0,0,0,0,0,-1,769,533,1.94941,0.27885
-448,491,2.68909,-1.8999,0,0,0,0,0,0,0,-1,776,533,2.6891,1.89988
-441,491,3.46069,-3.51855,0,0,0,0,0,0,0,-1,783,533,3.46071,3.51854
-434,491,2.67145,-7.44061,0,0,0,0,0,0,0,-1,790,533,2.67146,7.44061
-427,491,2.27136,-8.34546,0,0,0,0,0,0,0,-1,797,533,2.27136,8.34546
-420,491,-6.14288,-21.9974,0,0,0,0,0,0,0,-1,804,533,-6.14291,21.9974
-413,491,-5.47925,-23.2563,0,0,0,0,0,0,0,-1,811,533,-5.47923,23.2563
-406,491,-5.43567,-24.4369,0.00111459,0.0135759,-0.00741349,0.0170293,-0.00233882,-1.13486,0.0122074,0.0291114,818,533,-5.43569,24.4369
-399,491,-5.48254,-25.4646,0.00122768,0.0114889,-0.00673922,0.0148283,-0.00211166,-1.11075,0.0106594,0.0155094,825,533,-5.48254,25.4646
-392,491,-5.62512,-26.3935,0.00141588,0.00958387,-0.00601085,0.0127669,-0.00176713,-1.08379,0.0091573,0.0126683,832,533,-5.62513,26.3935
-385,491,-5.67529,-27.2724,0.00163049,0.00780896,-0.00521365,0.0107799,-0.00134043,-1.05285,0.00767253,0.0104793,839,533,-5.67528,27.2724
-378,491,-5.70331,-28.1801,0.00177354,0.00612698,-0.00433518,0.00880123,-0.000900708,-1.01806,0.0061896,0.0144768,846,533,-5.70331,28.1801
-371,491,-5.73932,-29.0906,0.00181404,0.00450345,-0.00348425,0.00689348,-0.000575989,-0.969561,0.00479919,0.0158299,853,533,-5.73931,29.0906
-364,491,-5.80176,-30.019,0.00175787,0.00285723,-0.00252244,0.00488919,-0.000274086,-0.89268,0.00335455,0.0144281,860,533,-5.80174,30.019
-357,491,-5.84674,-30.9034,0.00169164,0.00145892,-0.0015684,0.00314799,2.57371e-06,-0.748371,0.0020978,0.0125216,867,533,-5.84674,30.9035
-350,491,-5.90155,-31.7556,0.00160143,0.000169768,-0.000673027,0.00186814,-9.69378e-05,-0.377293,0.00127896,0.0159942,874,533,-5.90157,31.7556
-343,491,-5.9325,-32.6802,0.00141652,-0.00104339,0.000181854,0.00142989,-0.00105676,0.0733954,0.00144105,0.0283998,881,533,-5.93247,32.6802
-336,491,-5.96619,-33.595,0.00107679,-0.00223621,0.00108847,0.0014024,-0.00256182,0.290671,0.00232115,0.0296451,888,533,-5.96618,33.595
-329,491,-6.00751,-34.4048,0.000766113,-0.00327009,0.00193084,0.00154101,-0.00404499,0.381652,0.00333134,0.0279683,895,533,-6.00754,34.4048
-322,491,-6.04608,-35.2891,0.00068275,-0.00386106,0.00245945,0.00175905,-0.00493736,0.412508,0.0040087,0.0239152,902,533,-6.04605,35.2891
-315,491,-6.17578,-36.092,0.000710278,-0.00419432,0.00287021,0.00203315,-0.00551719,0.431878,0.00451124,0.022749,909,533,-6.17577,36.092
-308,491,-6.17847,-37.1154,0,0,0,0,0,0,0,-1,916,533,-6.17847,37.1154
-301,491,-5.89954,-37.2919,0,0,0,0,0,0,0,-1,923,533,-5.89955,37.292
-294,491,-0.777283,-8.60913,0,0,0,0,0,0,0,-1,930,533,-0.777288,8.6091
-287,491,-0.26123,-8.69055,0,0,0,0,0,0,0,-1,937,533,-0.261204,8.69053
-280,491,0.2948,-5.99219,0,0,0,0,0,0,0,-1,944,533,0.294811,5.99221
-273,491,0.369995,-5.33691,0,0,0,0,0,0,0,-1,951,533,0.369985,5.33693
-266,491,1.1167,-5.0321,0,0,0,0,0,0,0,-1,958,533,1.11668,5.0321
-259,491,12.0862,-16.9615,0,0,0,0,0,0,0,-1,965,533,12.0862,16.9615
-252,491,9.72443,-13.8417,0,0,0,0,0,0,0,-1,972,533,9.72444,13.8418
-245,491,5.27258,-14.3619,0,0,0,0,0,0,0,-1,979,533,5.27255,14.3619
-238,491,3.65381,-11.1472,0,0,0,0,0,0,0,-1,986,533,3.6538,11.1472
-231,491,2.17719,-7.86835,0,0,0,0,0,0,0,-1,993,533,2.17719,7.86832
-224,491,0.554626,-4.61725,0,0,0,0,0,0,0,-1,1000,533,0.554608,4.61727
-217,491,-2.92743,-1.0766,0,0,0,0,0,0,0,-1,1007,533,-2.92743,1.07659
-210,491,-0.92395,0.374512,0,0,0,0,0,0,0,-1,1014,533,-0.923959,-0.374531
-203,491,0.417419,4.77161,0,0,0,0,0,0,0,-1,1021,533,0.417446,-4.77162
-196,491,0,0,0,0,0,0,0,0,0,-1,1028,533,0,0
-189,491,0,0,0,0,0,0,0,0,0,-1,1035,533,0,0
-182,491,0,0,0,0,0,0,0,0,0,-1,1042,533,0,0
-175,491,0,0,0,0,0,0,0,0,0,-1,1049,533,0,0
-168,491,0,0,0,0,0,0,0,0,0,-1,1056,533,0,0
-161,491,0,0,0,0,0,0,0,0,0,-1,1063,533,0,0
-154,491,0,0,0,0,0,0,0,0,0,-1,1070,533,0,0
-147,491,0,0,0,0,0,0,0,0,0,-1,1077,533,0,0
-140,491,0,0,0,0,0,0,0,0,0,-1,1084,533,0,0
-133,491,0,0,0,0,0,0,0,0,0,-1,1091,533,0,0
-126,491,0,0,0,0,0,0,0,0,0,-1,1098,533,0,0
-119,491,0,0,0,0,0,0,0,0,0,-1,1105,533,0,0
-112,491,0,0,0,0,0,0,0,0,0,-1,1112,533,0,0
-105,491,0,0,0,0,0,0,0,0,0,-1,1119,533,0,0
-98,491,0,0,0,0,0,0,0,0,0,-1,1126,533,0,0
-91,491,0,0,0,0,0,0,0,0,0,-1,1133,533,0,0
-84,491,0,0,0,0,0,0,0,0,0,-1,1140,533,0,0
-77,491,0,0,0,0,0,0,0,0,0,-1,1147,533,0,0
-70,491,0,0,0,0,0,0,0,0,0,-1,1154,533,0,0
-63,491,0,0,0,0,0,0,0,0,0,-1,1161,533,0,0
-56,491,0,0,0,0,0,0,0,0,0,-1,1168,533,0,0
-49,491,0,0,0,0,0,0,0,0,0,-1,1175,533,0,0
-42,491,0,0,0,0,0,0,0,0,0,-1,1182,533,0,0
-35,491,0,0,0,0,0,0,0,0,0,-1,1189,533,0,0
-28,491,0,0,0,0,0,0,0,0,0,-1,1196,533,0,0
-21,491,0,0,0,0,0,0,0,0,0,-1,1203,533,0,0
-14,491,0,0,0,0,0,0,0,0,0,-1,1210,533,0,0
-7,491,0,0,0,0,0,0,0,0,0,-1,1217,533,0,0
0,491,0,0,0,0,0,0,0,0,0,-1,1224,533,0,0
7,491,0,0,0,0,0,0,0,0,0,-1,1231,533,0,0
14,491,0,0,0,0,0,0,0,0,0,-1,1238,533,0,0
21,491,0,0,0,0,0,0,0,0,0,-1,1245,533,0,0
28,491,0,0,0,0,0,0,0,0,0,-1,1252,533,0,0
35,491,0,0,0,0,0,0,0,0,0,-1,1259,533,0,0
42,491,0,0,0,0,0,0,0,0,0,-1,1266,533,0,0
49,491,0,0,0,0,0,0,0,0,0,-1,1273,533,0,0
56,491,0,0,0,0,0,0,0,0,0,-1,1280,533,0,0
63,491,0,0,0,0,0,0,0,0,0,-1,1287,533,0,0
70,491,0,0,0,0,0,0,0,0,0,-1,1294,533,0,0
77,491,0,0,0,0,0,0,0,0,0,-1,1301,533,0,0
84,491,0,0,0,0,0,0,0,0,0,-1,1308,533,0,0
91,491,0,0,0,0,0,0,0,0,0,-1,1315,533,0,0
98,491,0,0,0,0,0,0,0,0,0,-1,1322,533,0,0
105,491,0,0,0,0,0,0,0,0,0,-1,1329,533,0,0
112,491,0,0,0,0,0,0,0,0,0,-1,1336,533,0,0
119,491,0,0,0,0,0,0,0,0,0,-1,1343,533,0,0
126,491,0,0,0,0,0,0,0,0,0,-1,1350,533,0,0
133,491,0,0,0,0,0,0,0,0,0,-1,1357,533,0,0
140,491,0,0,0,0,0,0,0,0,0,-1,1364,533,0,0
147,491,0,0,0,0,0,0,0,0,0,-1,1371,533,0,0
154,491,0,0,0,0,0,0,0,0,0,-1,1378,533,0,0
161,491,0,0,0,0,0,0,0,0,0,-1,1385,533,0,0
168,491,0,0,0,0,0,0,0,0,0,-1,1392,533,0,0
175,491,0,0,0,0,0,0,0,0,0,-1,1399,533,0,0
182,491,0,0,0,0,0,0,0,0,0,-1,1406,533,0,0
189,491,0,0,0,0,0,0,0,0,0,-1,1413,533,0,0
196,491,0,0,0,0,0,0,0,0,0,-1,1420,533,0,0
203,491,0,0,0,0,0,0,0,0,0,-1,1427,533,0,0
210,491,0,0,0,0,0,0,0,0,0,-1,1434,533,0,0
217,491,0,0,0,0,0,0,0,0,0,-1,1441,533,0,0
224,491,0,0,0,0,0,0,0,0,0,-1,1448,533,0,0
231,491,0,0,0,0,0,0,0,0,0,-1,1455,533,0,0
238,491,0,0,0,0,0,0,0,0,0,-1,1462,533,0,0
245,491,0,0,0,0,0,0,0,0,0,-1,1469,533,0,0
252,491,0,0,0,0,0,0,0,0,0,-1,1476,533,0,0
259,491,0,0,0,0,0,0,0,0,0,-1,1483,533,0,0
266,491,0,0,0,0,0,0,0,0,0,-1,1490,533,0,0
273,491,0,0,0,0,0,0,0,0,0,-1,1497,533,0,0
280,491,0,0,0,0,0,0,0,0,0,-1,1504,533,0,0
287,491,0,0,0,0,0,0,0,0,0,-1,1511,533,0,0
294,491,0,0,0,0,0,0,0,0,0,-1,1518,533,0,0
301,491,0,0,0,0,0,0,0,0,0,-1,1525,533,0,0
308,491,0,0,0,0,0,0,0,0,0,-1,1532,533,0,0
315,491,0,0,0,0,0,0,0,0,0,-1,1539,533,0,0
322,491,4.26331,-0.734314,0,0,0,0,0,0,0,-1,1546,533,4.26326,0.734324
329,491,4.25354,-0.783752,0,0,0,0,0,0,0,-1,1553,533,4.25359,0.783734
336,491,4.81604,-0.722107,0,0,0,0,0,0,0,-1,1560,533,4.81605,0.722115
343,491,6.14478,-1.44281,0,0,0,0,0,0,0,-1,1567,533,6.14474,1.44281
350,491,6.36353,-1.30792,0,0,0,0,0,0,0,-1,1574,533,6.36352,1.3079
357,491,6.69482,-1.06018,0,0,0,0,0,0,0,-1,1581,533,6.69489,1.06018
364,491,8.01086,-1.69604,0,0,0,0,0,0,0,-1,1588,533,8.01087,1.69607
371,491,8.2135,-0.539307,0,0,0,0,0,0,0,-1,1595,533,8.21348,0.53929
378,491,13.3589,2.17267,0,0,0,0,0,0,0,-1,1602,533,13.3589,-2.17264
385,491,8.08228,-4.95471,0,0,0,0,0,0,0,-1,1609,533,8.08227,4.95474
392,491,2.88721,-4.30988,0,0,0,0,0,0,0,-1,1616,533,2.88716,4.30986
399,491,8.95862,-8.55518,0,0,0,0,0,0,0,-1,1623,533,8.95864,8.55516
406,491,8.16541,-9.00806,0,0,0,0,0,0,0,-1,1630,533,8.16535,9.00807
413,491,5.31848,-3.7124,0,0,0,0,0,0,0,-1,1637,533,5.31849,3.7124
420,491,4.86389,-3.95892,0,0,0,0,0,0,0,-1,1644,533,4.86387,3.95893
427,491,11.5096,-15.2742,0,0,0,0,0,0,0,-1,1651,533,11.5096,15.2742
434,491,22.1572,-36.308,0,0,0,0,0,0,0,-1,1658,533,22.1573,36.308
441,491,22.0925,-35.5339,0.00217067,-0.000975055,-0.00165082,0.00287797,-0.00168235,-0.404788,0.00266289,0.0388453,1665,533,22.0925,35.5339
448,491,22.007,-34.8788,0.00178121,-0.000858328,-0.00157939,0.00251966,-0.00159678,-0.437355,0.00239646,0.0226338,1672,533,22.0069,34.8788
455,491,21.9779,-33.9986,0.00158103,-0.000619952,-0.00145287,0.00230315,-0.00134207,-0.461269,0.00212882,0.0156065,1679,533,21.9779,33.9986
462,491,21.9813,-33.1377,0.00137258,-0.000356116,-0.0011949,0.00198298,-0.000966513,-0.47228,0.00173627,0.0162992,1686,533,21.9813,33.1377
469,491,21.9241,-32.2979,0.00124159,3.03856e-05,-0.000754304,0.00160332,-0.000331343,-0.447156,0.00119474,0.015205,1693,533,21.924,32.2979
476,491,21.8687,-31.4177,0.00130506,0.000473045,-0.000247191,0.00137296,0.000405146,-0.268071,0.000814565,0.0108333,1700,533,21.8687,31.4177
483,491,21.7964,-30.4991,0.00145577,0.000908347,0.000262813,0.00156152,0.0008026,0.382544,0.000901661,0.0129002,1707,533,21.7964,30.4991
490,491,21.7367,-29.6186,0.00154815,0.0014856,0.000715723,0.00223328,0.000800471,0.763566,0.0013065,0.0116807,1714,533,21.7367,29.6186
497,491,21.6847,-28.692,0.00173752,0.00210963,0.00122394,0.00316157,0.00068558,0.860827,0.00192042,0.0129143,1721,533,21.6846,28.692
504,491,21.6544,-27.7748,0.00199781,0.00251443,0.00167122,0.00394718,0.000565058,0.862073,0.00246479,0.0147817,1728,533,21.6545,27.7748
511,491,21.59,-26.8793,0.00214086,0.00295707,0.00206037,0.00464936,0.000448563,0.88317,0.0029614,0.0142229,1735,533,21.59,26.8793
518,491,21.5377,-25.9567,0.00211952,0.00344039,0.00232164,0.0051937,0.000366206,0.923972,0.00334708,0.0114698,1742,533,21.5378,25.9567
525,491,21.5106,-25.0085,0.00206795,0.00391668,0.00255102,0.00570564,0.000278982,0.959216,0.00371426,0.0113889,1749,533,21.5106,25.0085
532,491,21.4491,-24.1053,0.00193075,0.00447324,0.00276868,0.00624857,0.000155415,1.00062,0.00411489,0.0290209,1756,533,21.4491,24.1054
539,491,21.4103,-23.0637,0,0,0,0,0,0,0,-1,1763,533,21.4103,23.0637
546,491,20.4917,-21.8658,0,0,0,0,0,0,0,-1,1770,533,20.4917,21.8658
553,491,10.5021,-7.77869,0,0,0,0,0,0,0,-1,1777,533,10.502,7.77871
560,491,6.28455,-1.43585,0,0,0,0,0,0,0,-1,1784,533,6.28458,1.43586
567,491,5.67651,-1.3562,0,0,0,0,0,0,0,-1,1791,533,5.67649,1.3562
574,491,8.0719,1.58325,0,0,0,0,0,0,0,-1,1798,533,8.07195,-1.58326
581,491,9.44812,1.60931,0,0,0,0,0,0,0,-1,1805,533,9.44808,-1.60933
588,491,11.0497,1.54962,0,0,0,0,0,0,0,-1,1812,533,11.0496,-1.54963
595,491,0,0,0,0,0,0,0,0,0,-1,1819,533,0,0
602,491,0,0,0,0,0,0,0,0,0,-1,1826,533,0,0
609,491,0,0,0,0,0,0,0,0,0,-1,1833,533,0,0
616,491,0,0,0,0,0,0,0,0,0,-1,1840,533,0,0
623,491,0,0,0,0,0,0,0,0,0,-1,1847,533,0,0
630,491,0,0,0,0,0,0,0,0,0,-1,1854,533,0,0
637,491,0,0,0,0,0,0,0,0,0,-1,1861,533,0,0
644,491,0,0,0,0,0,0,0,0,0,-1,1868,533,0,0
651,491,0,0,0,0,0,0,0,0,0,-1,1875,533,0,0
658,491,0,0,0,0,0,0,0,0,0,-1,1882,533,0,0
665,491,0,0,0,0,0,0,0,0,0,-1,1889,533,0,0
672,491,0,0,0,0,0,0,0,0,0,-1,1896,533,0,0
679,491,0,0,0,0,0,0,0,0,0,-1,1903,533,0,0
686,491,0,0,0,0,0,0,0,0,0,-1,1910,533,0,0
693,491,0,0,0,0,0,0,0,0,0,-1,1917,533,0,0
700,491,0,0,0,0,0,0,0,0,0,-1,1924,533,0,0
707,491,0,0,0,0,0,0,0,0,0,-1,1931,533,0,0
714,491,0,0,0,0,0,0,0,0,0,-1,1938,533,0,0
721,491,0,0,0,0,0,0,0,0,0,-1,1945,533,0,0
728,491,0,0,0,0,0,0,0,0,0,-1,1952,533,0,0
735,491,0,0,0,0,0,0,0,0,0,-1,1959,533,0,0
742,491,0,0,0,0,0,0,0,0,0,-1,1966,533,0,0
749,491,0,0,0,0,0,0,0,0,0,-1,1973,533,0,0
756,491,0,0,0,0,0,0,0,0,0,-1,1980,533,0,0
763,491,0,0,0,0,0,0,0,0,0,-1,1987,533,0,0
770,491,0,0,0,0,0,0,0,0,0,-1,1994,533,0,0
777,491,0,0,0,0,0,0,0,0,0,-1,2001,533,0,0
784,491,0,0,0,0,0,0,0,0,0,-1,2008,533,0,0
791,491,0,0,0,0,0,0,0,0,0,-1,2015,533,0,0
798,491,0,0,0,0,0,0,0,0,0,-1,2022,533,0,0
805,491,0,0,0,0,0,0,0,0,0,-1,2029,533,0,0
812,491,0,0,0,0,0,0,0,0,0,-1,2036,533,0,0
-700,484,0,0,0,0,0,0,0,0,0,-1,524,540,0,0
-693,484,0,0,0,0,0,0,0,0,0,-1,531,540,0,0
-686,484,0,0,0,0,0,0,0,0,0,-1,538,540,0,0
-679,484,0,0,0,0,0,0,0,0,0,-1,545,540,0,0
-672,484,0,0,0,0,0,0,0,0,0,-1,552,540,0,0
-665,484,0,0,0,0,0,0,0,0,0,-1,559,540,0,0
-658,484,0,0,0,0,0,0,0,0,0,-1,566,540,0,0
-651,484,0,0,0,0,0,0,0,0,0,-1,573,540,0,0
-644,484,0,0,0,0,0,0,0,0,0,-1,580,540,0,0
-637,484,0,0,0,0,0,0,0,0,0,-1,587,540,0,0
-630,484,0,0,0,0,0,0,0,0,0,-1,594,540,0,0
-623,484,0,0,0,0,0,0,0,0,0,-1,601,540,0,0
-616,484,0,0,0,0,0,0,0,0,0,-1,608,540,0,0
-609,484,0,0,0,0,0,0,0,0,0,-1,615,540,0,0
-602,484,0,0,0,0,0,0,0,0,0,-1,622,540,0,0
-595,484,0,0,0,0,0,0,0,0,0,-1,629,540,0,0
-588,484,0,0,0,0,0,0,0,0,0,-1,636,540,0,0
-581,484,0,0,0,0,0,0,0,0,0,-1,643,540,0,0
-574,484,0,0,0,0,0,0,0,0,0,-1,650,540,0,0
-567,484,0,0,0,0,0,0,0,0,0,-1,657,540,0,0
-560,484,0,0,0,0,0,0,0,0,0,-1,664,540,0,0
-553,484,0,0,0,0,0,0,0,0,0,-1,671,540,0,0
-546,484,0,0,0,0,0,0,0,0,0,-1,678,540,0,0
-539,484,0,0,0,0,0,0,0,0,0,-1,685,540,0,0
-532,484,0,0,0,0,0,0,0,0,0,-1,692,540,0,0
-525,484,0,0,0,0,0,0,0,0,0,-1,699,540,0,0
-518,484,0,0,0,0,0,0,0,0,0,-1,706,540,0,0
-511,484,0,0,0,0,0,0,0,0,0,-1,713,540,0,0
-504,484,0,0,0,0,0,0,0,0,0,-1,720,540,0,0
-497,484,0,0,0,0,0,0,0,0,0,-1,727,540,0,0
-490,484,0,0,0,0,0,0,0,0,0,-1,734,540,0,0
-483,484,0,0,0,0,0,0,0,0,0,-1,741,540,0,0
-476,484,-8.46552,1.44702,0,0,0,0,0,0,0,-1,748,540,-8.46554,-1.44702
-469,484,-7.82343,1.70355,0,0,0,0,0,0,0,-1,755,540,-7.82345,-1.70355
-462,484,-8.36987,3.08612,0,0,0,0,0,0,0,-1,762,540,-8.36988,-3.0861
-455,484,-6.77197,2.07092,0,0,0,0,0,0,0,-1,769,540,-6.77197,-2.07094
-448,484,3.54895,-1.40106,0,0,0,0,0,0,0,-1,776,540,3.54897,1.40106
-441,484,4.28906,-3.05884,0,0,0,0,0,0,0,-1,783,540,4.28905,3.05883
-434,484,-2.17548,-5.07245,0,0,0,0,0,0,0,-1,790,540,-2.17546,5.07243
-427,484,-6.20642,-21.0498,0,0,0,0,0,0,0,-1,797,540,-6.20639,21.0498
-420,484,-6.10522,-21.7557,0,0,0,0,0,0,0,-1,804,540,-6.1052,21.7558
-413,484,-6.19086,-23.3339,0.000577474,0.0123152,-0.00591671,0.01478,-0.0018874,-1.17607,0.010539,0.0347738,811,540,-6.19084,23.3339
-406,484,-6.29724,-24.4131,0.000702175,0.0103625,-0.0054852,0.0128411,-0.00177641,-1.14639,0.00921015,0.019234,818,540,-6.29722,24.4131
-399,484,-6.46051,-25.3768,0.000793298,0.00851503,-0.0048606,0.0108616,-0.00155323,-1.12103,0.00781043,0.0176746,825,540,-6.46053,25.3768
-392,484,-6.5058,-26.3051,0.00099763,0.00683854,-0.004221,0.0090509,-0.00121474,-1.08803,0.00647693,0.0216208,832,540,-6.50579,26.305
-385,484,-6.5647,-27.2304,0.00126744,0.00530541,-0.00354829,0.00736891,-0.000796057,-1.04406,0.00519831,0.0151886,839,540,-6.56471,27.2304
-378,484,-6.60706,-28.1382,0.00148078,0.003832,-0.00278431,0.00567871,-0.000365934,-0.985158,0.00391349,0.0153372,846,540,-6.60706,28.1382
-371,484,-6.63977,-29.0187,0.0016043,0.00242544,-0.00206064,0.00411602,-8.62742e-05,-0.883732,0.00277322,0.0168939,853,540,-6.63974,29.0187
-364,484,-6.70581,-29.9019,0.00163983,0.00101536,-0.00124586,0.00261199,4.32071e-05,-0.662618,0.0017271,0.0121815,860,540,-6.70581,29.9018
-357,484,-6.76019,-30.8045,0.00168171,-0.000165077,-0.00045567,0.00178802,-0.000271387,-0.229206,0.00129201,0.0126987,867,540,-6.76022,30.8045
-350,484,-6.83197,-31.69,0.00169715,-0.00125253,0.000267501,0.00172121,-0.00127659,0.0897128,0.00173712,0.0160684,874,540,-6.83198,31.69
-343,484,-6.86102,-32.5916,0.00157405,-0.00222746,0.000965914,0.0018054,-0.00245881,0.235083,0.00247155,0.0252593,881,540,-6.86105,32.5916
-336,484,-6.90521,-33.4766,0.00125897,-0.00324405,0.00174369,0.00185522,-0.0038403,0.329485,0.00335423,0.0278967,888,540,-6.90522,33.4766
-329,484,-6.93323,-34.3194,0.000960262,-0.00413742,0.00248091,0.00196832,-0.00514548,0.385947,0.0042415,0.0371568,895,540,-6.93323,34.3194
-322,484,-6.89948,-35.2639,0,0,0,0,0,0,0,-1,902,540,-6.89946,35.2639
-315,484,-6.86188,-36.0811,0,0,0,0,0,0,0,-1,909,540,-6.86185,36.0811
-308,484,-1.32623,-8.9317,0,0,0,0,0,0,0,-1,916,540,-1.32626,8.93173
-301,484,-1.33453,-6.52667,0,0,0,0,0,0,0,-1,923,540,-1.33454,6.5267
-294,484,-1.61224,-8.17059,0,0,0,0,0,0,0,-1,930,540,-1.61227,8.17058
-287,484,-0.715759,-5.62103,0,0,0,0,0,0,0,-1,937,540,-0.715772,5.62105
-280,484,2.66742,-1.6795,0,0,0,0,0,0,0,-1,944,540,2.6674,1.67949
-273,484,2.53125,-2.22296,0,0,0,0,0,0,0,-1,951,540,2.53128,2.22295
-266,484,2.6778,-2.72058,0,0,0,0,0,0,0,-1,958,540,2.6778,2.72061
-259,484,2.41718,-2.59894,0,0,0,0,0,0,0,-1,965,540,2.41717,2.59892
-252,484,10.6069,-11.696,0,0,0,0,0,0,0,-1,972,540,10.6069,11.696
-245,484,6.34106,-11.6107,0,0,0,0,0,0,0,-1,979,540,6.34104,11.6107
-238,484,4.89319,-8.54059,0,0,0,0,0,0,0,-1,986,540,4.89321,8.5406
-231,484,3.47675,-5.22064,0,0,0,0,0,0,0,-1,993,540,3.47676,5.22067
-224,484,1.71344,-2.03473,0,0,0,0,0,0,0,-1,1000,540,1.71342,2.03472
-217,484,-0.745056,1.17358,0,0,0,0,0,0,0,-1,1007,540,-0.745043,-1.17359
-210,484,0,0,0,0,0,0,0,0,0,-1,1014,540,0,0
-203,484,0,0,0,0,0,0,0,0,0,-1,1021,540,0,0
-196,484,0,0,0,0,0,0,0,0,0,-1,1028,540,0,0
-189,484,0,0,0,0,0,0,0,0,0,-1,1035,540,0,0
-182,484,0,0,0,0,0,0,0,0,0,-1,1042,540,0,0
-175,484,0,0,0,0,0,0,0,0,0,-1,1049,540,0,0
-168,484,0,0,0,0,0,0,0,0,0,-1,1056,540,0,0
-161,484,0,0,0,0,0,0,0,0,0,-1,1063,540,0,0
-154,484,0,0,0,0,0,0,0,0,0,-1,1070,540,0,0
-147,484,0,0,0,0,0,0,0,0,0,-1,1077,540,0,0
-140,484,0,0,0,0,0,0,0,0,0,-1,1084,540,0,0
-133,484,0,0,0,0,0,0,0,0,0,-1,1091,540,0,0
-126,484,0,0,0,0,0,0,0,0,0,-1,1098,540,0,0
-119,484,0,0,0,0,0,0,0,0,0,-1,1105,540,0,0
-112,484,0,0,0,0,0,0,0,0,0,-1,1112,540,0,0
-105,484,0,0,0,0,0,0,0,0,0,-1,1119,540,0,0
-98,484,0,0,0,0,0,0,0,0,0,-1,1126,540,0,0
-91,484,0,0,0,0,0,0,0,0,0,-1,1133,540,0,0
-84,484,0,0,0,0,0,0,0,0,0,-1,1140,540,0,0
-77,484,0,0,0,0,0,0,0,0,0,-1,1147,540,0,0
-70,484,0,0,0,0,0,0,0,0,0,-1,1154,540,0,0
-63,484,0,0,0,0,0,0,0,0,0,-1,1161,540,0,0
-56,484,0,0,0,0,0,0,0,0,0,-1,1168,540,0,0
-49,484,0,0,0,0,0,0,0,0,0,-1,1175,540,0,0
-42,484,0,0,0,0,0,0,0,0,0,-1,1182,540,0,0
-35,484,0,0,0,0,0,0,0,0,0,-1,1189,540,0,0
-28,484,0,0,0,0,0,0,0,0,0,-1,1196,540,0,0
-21,484,0,0,0,0,0,0,0,0,0,-1,1203,540,0,0
-14,484,0,0,0,0,0,0,0,0,0,-1,1210,540,0,0
-7,484,0,0,0,0,0,0,0,0,0,-1,1217,540,0,0
0,484,0,0,0,0,0,0,0,0,0,-1,1224,540,0,0
7,484,0,0,0,0,0,0,0,0,0,-1,1231,540,0,0
14,484,0,0,0,0,0,0,0,0,0,-1,1238,540,0,0
21,484,0,0,0,0,0,0,0,0,0,-1,1245,540,0,0
28,484,0,0,0,0,0,0,0,0,0,-1,1252,540,0,0
35,484,0,0,0,0,0,0,0,0,0,-1,1259,540,0,0
42,484,0,0,0,0,0,0,0,0,0,-1,1266,540,0,0
49,484,0,0,0,0,0,0,0,0,0,-1,1273,540,0,0
56,484,0,0,0,0,0,0,0,0,0,-1,1280,540,0,0
63,484,0,0,0,0,0,0,0,0,0,-1,1287,540,0,0
70,484,0,0,0,0,0,0,0,0,0,-1,1294,540,0,0
77,484,0,0,0,0,0,0,0,0,0,-1,1301,540,0,0
84,484,0,0,0,0,0,0,0,0,0,-1,1308,540,0,0
91,484,0,0,0,0,0,0,0,0,0,-1,1315,540,0,0
98,484,0,0,0,0,0,0,0,0,0,-1,1322,540,0,0
105,484,0,0,0,0,0,0,0,0,0,-1,1329,540,0,0
112,484,0,0,0,0,0,0,0,0,0,-1,1336,540,0,0
119,484,0,0,0,0,0,0,0,0,0,-1,1343,540,0,0
126,484,0,0,0,0,0,0,0,0,0,-1,1350,540,0,0
133,484,0,0,0,0,0,0,0,0,0,-1,1357,540,0,0
140,484,0,0,0,0,0,0,0,0,0,-1,1364,540,0,0
147,484,0,0,0,0,0,0,0,0,0,-1,1371,540,0,0
154,484,0,0,0,0,0,0,0,0,0,-1,1378,540,0,0
161,484,0,0,0,0,0,0,0,0,0,-1,1385,540,0,0
168,484,0,0,0,0,0,0,0,0,0,-1,1392,540,0,0
175,484,0,0,0,0,0,0,0,0,0,-1,1399,540,0,0
182,484,0,0,0,0,0,0,0,0,0,-1,1406,540,0,0
189,484,0,0,0,0,0,0,0,0,0,-1,1413,540,0,0
196,484,0,0,0,0,0,0,0,0,0,-1,1420,540,0,0
203,484,0,0,0,0,0,0,0,0,0,-1,1427,540,0,0
210,484,0,0,0,0,0,0,0,0,0,-1,1434,540,0,0
217,484,0,0,0,0,0,0,0,0,0,-1,1441,540,0,0
224,484,0,0,0,0,0,0,0,0,0,-1,1448,540,0,0
231,484,0,0,0,0,0,0,0,0,0,-1,1455,540,0,0
238,484,0,0,0,0,0,0,0,0,0,-1,1462,540,0,0
245,484,0,0,0,0,0,0,0,0,0,-1,1469,540,0,0
252,484,0,0,0,0,0,0,0,0,0,-1,1476,540,0,0
259,484,0,0,0,0,0,0,0,0,0,-1,1483,540,0,0
266,484,0,0,0,0,0,0,0,0,0,-1,1490,540,0,0
273,484,0,0,0,0,0,0,0,0,0,-1,1497,540,0,0
280,484,0,0,0,0,0,0,0,0,0,-1,1504,540,0,0
287,484,0,0,0,0,0,0,0,0,0,-1,1511,540,0,0
294,484,0,0,0,0,0,0,0,0,0,-1,1518,540,0,0
301,484,0,0,0,0,0,0,0,0,0,-1,1525,540,0,0
308,484,0,0,0,0,0,0,0,0,0,-1,1532,540,0,0
315,484,0,0,0,0,0,0,0,0,0,-1,1539,540,0,0
322,484,0,0,0,0,0,0,0,0,0,-1,1546,540,0,0
329,484,0,0,0,0,0,0,0,0,0,-1,1553,540,0,0
336,484,4.38708,-1.64136,0,0,0,0,0,0,0,-1,1560,540,4.38704,1.64138
343,484,7.57996,-1.05457,0,0,0,0,0,0,0,-1,1567,540,7.57995,1.05454
350,484,8.10425,-1.18878,0,0,0,0,0,0,0,-1,1574,540,8.1043,1.18877
357,484,7.74902,-3.80286,0,0,0,0,0,0,0,-1,1581,540,7.74901,3.80287
364,484,6.31262,-3.87213,0,0,0,0,0,0,0,-1,1588,540,6.31263,3.87215
371,484,7.21008,0.973511,0,0,0,0,0,0,0,-1,1595,540,7.21014,-0.973541
378,484,11.0563,1.5014,0,0,0,0,0,0,0,-1,1602,540,11.0563,-1.5014
385,484,14.3469,2.5545,0,0,0,0,0,0,0,-1,1609,540,14.3469,-2.55453
392,484,7.39453,-4.95026,0,0,0,0,0,0,0,-1,1616,540,7.39448,4.95023
399,484,7.14417,-2.5639,0,0,0,0,0,0,0,-1,1623,540,7.14417,2.56391
406,484,7.88953,-2.47321,0,0,0,0,0,0,0,-1,1630,540,7.88954,2.47323
413,484,4.4895,-1.08673,0,0,0,0,0,0,0,-1,1637,540,4.48952,1.08674
420,484,4.50012,-2.11255,0,0,0,0,0,0,0,-1,1644,540,4.50012,2.11256
427,484,5.28601,-3.54053,0,0,0,0,0,0,0,-1,1651,540,5.28599,3.54051
434,484,11.1488,-13.5359,0,0,0,0,0,0,0,-1,1658,540,11.1489,13.5359
441,484,22.9091,-35.1284,0,0,0,0,0,0,0,-1,1665,540,22.9091,35.1284
448,484,22.8474,-34.8363,0,0,0,0,0,0,0,-1,1672,540,22.8474,34.8363
455,484,22.8707,-33.968,0,0,0,0,0,0,0,-1,1679,540,22.8707,33.9679
462,484,22.8735,-33.0881,0.00133545,-0.000937322,-0.00201973,0.00251654,-0.00211841,-0.529149,0.00267928,0.0305662,1686,540,22.8735,33.0881
469,484,22.8351,-32.2531,0.00102361,-0.00054526,-0.00147591,0.00191059,-0.00143224,-0.541137,0.00193656,0.0212768,1693,540,22.835,32.2531
476,484,22.7391,-31.3027,0.0010794,-8.9509e-05,-0.000863477,0.00153762,-0.000547733,-0.487884,0.00124838,0.0179942,1700,540,22.7391,31.3027
483,484,22.6761,-30.4167,0.00119483,0.000340302,-0.000307249,0.00129383,0.000241299,-0.311718,0.000794432,0.0148897,1707,540,22.6762,30.4167
490,484,22.6364,-29.5671,0.00122968,0.000890479,0.000158685,0.00129234,0.000827819,0.37608,0.000755897,0.0140795,1714,540,22.6364,29.5671
497,484,22.585,-28.646,0.00136919,0.00153205,0.000726435,0.00218161,0.000719637,0.841212,0.00128363,0.0147634,1721,540,22.5849,28.646
504,484,22.5303,-27.7369,0.00154414,0.00185703,0.00118225,0.00289314,0.000508033,0.851182,0.0017837,0.0174653,1728,540,22.5303,27.7369
511,484,22.5256,-26.8547,0.00158534,0.00221632,0.00157253,0.0035047,0.000296961,0.884397,0.00224404,0.0209431,1735,540,22.5257,26.8547
518,484,22.4728,-25.9324,0.00147034,0.00260792,0.00184527,0.00397007,0.00010819,0.934899,0.0026114,0.0173906,1742,540,22.4727,25.9324
525,484,22.4011,-24.9896,0.00135515,0.00299694,0.00207845,0.00441073,-5.8641e-05,0.973474,0.00296023,0.0140403,1749,540,22.4011,24.9895
532,484,22.3479,-24.0172,0.00119499,0.00350217,0.00230392,0.00492516,-0.000228008,1.01751,0.00336202,0.0159007,1756,540,22.3479,24.0172
539,484,22.2335,-23.0443,0.000914602,0.00411334,0.00243274,0.00542536,-0.000397423,1.07619,0.0037564,0.0431788,1763,540,22.2335,23.0443
546,484,22.1451,-21.9414,0,0,0,0,0,0,0,-1,1770,540,22.1452,21.9414
553,484,12.4246,-8.96423,0,0,0,0,0,0,0,-1,1777,540,12.4246,8.96422
560,484,10.0549,-5.47931,0,0,0,0,0,0,0,-1,1784,540,10.055,5.47928
567,484,7.78223,-1.38312,0,0,0,0,0,0,0,-1,1791,540,7.78224,1.38311
574,484,5.74463,1.50922,0,0,0,0,0,0,0,-1,1798,540,5.74463,-1.50924
581,484,10.34,2.9491,0,0,0,0,0,0,0,-1,1805,540,10.34,-2.94912
588,484,10.6669,2.88568,0,0,0,0,0,0,0,-1,1812,540,10.6669,-2.88567
595,484,10.7233,1.04767,0,0,0,0,0,0,0,-1,1819,540,10.7233,-1.04766
602,484,0,0,0,0,0,0,0,0,0,-1,1826,540,0,0
609,484,0,0,0,0,0,0,0,0,0,-1,1833,540,0,0
616,484,0,0,0,0,0,0,0,0,0,-1,1840,540,0,0
623,484,0,0,0,0,0,0,0,0,0,-1,1847,540,0,0
630,484,0,0,0,0,0,0,0,0,0,-1,1854,540,0,0
637,484,0,0,0,0,0,0,0,0,0,-1,1861,540,0,0
644,484,0,0,0,0,0,0,0,0,0,-1,1868,540,0,0
651,484,0,0,0,0,0,0,0,0,0,-1,1875,540,0,0
658,484,0,0,0,0,0,0,0,0,0,-1,1882,540,0,0
665,484,0,0,0,0,0,0,0,0,0,-1,1889,540,0,0
672,484,0,0,0,0,0,0,0,0,0,-1,1896,540,0,0
679,484,0,0,0,0,0,0,0,0,0,-1,1903,540,0,0
686,484,0,0,0,0,0,0,0,0,0,-1,1910,540,0,0
693,484,0,0,0,0,0,0,0,0,0,-1,1917,540,0,0
700,484,0,0,0,0,0,0,0,0,0,-1,1924,540,0,0
707,484,0,0,0,0,0,0,0,0,0,-1,1931,540,0,0
714,484,0,0,0,0,0,0,0,0,0,-1,1938,540,0,0
721,484,0,0,0,0,0,0,0,0,0,-1,1945,540,0,0
728,484,0,0,0,0,0,0,0,0,0,-1,1952,540,0,0
735,484,0,0,0,0,0,0,0,0,0,-1,1959,540,0,0
742,484,0,0,0,0,0,0,0,0,0,-1,1966,540,0,0
749,484,0,0,0,0,0,0,0,0,0,-1,1973,540,0,0
756,484,0,0,0,0,0,0,0,0,0,-1,1980,540,0,0
763,484,0,0,0,0,0,0,0,0,0,-1,1987,540,0,0
770,484,0,0,0,0,0,0,0,0,0,-1,1994,540,0,0
777,484,0,0,0,0,0,0,0,0,0,-1,2001,540,0,0
784,484,0,0,0,0,0,0,0,0,0,-1,2008,540,0,0
791,484,0,0,0,0,0,0,0,0,0,-1,2015,540,0,0
798,484,0,0,0,0,0,0,0,0,0,-1,2022,540,0,0
805,484,0,0,0,0,0,0,0,0,0,-1,2029,540,0,0
812,484,0,0,0,0,0,0,0,0,0,-1,2036,540,0,0
-700,477,0,0,0,0,0,0,0,0,0,-1,524,547,0,0
-693,477,0,0,0,0,0,0,0,0,0,-1,531,547,0,0
-686,477,0,0,0,0,0,0,0,0,0,-1,538,547,0,0
-679,477,0,0,0,0,0,0,0,0,0,-1,545,547,0,0
-672,477,0,0,0,0,0,0,0,0,0,-1,552,547,0,0
-665,477,0,0,0,0,0,0,0,0,0,-1,559,547,0,0
-658,477,0,0,0,0,0,0,0,0,0,-1,566,547,0,0
-651,477,0,0,0,0,0,0,0,0,0,-1,573,547,0,0
-644,477,0,0,0,0,0,0,0,0,0,-1,580,547,0,0
-637,477,0,0,0,0,0,0,0,0,0,-1,587,547,0,0
-630,477,0,0,0,0,0,0,0,0,0,-1,594,547,0,0
-623,477,0,0,0,0,0,0,0,0,0,-1,601,547,0,0
-616,477,0,0,0,0,0,0,0,0,0,-1,608,547,0,0
-609,477,0,0,0,0,0,0,0,0,0,-1,615,547,0,0
-602,477,0,0,0,0,0,0,0,0,0,-1,622,547,0,0
-595,477,0,0,0,0,0,0,0,0,0,-1,629,547,0,0
-588,477,0,0,0,0,0,0,0,0,0,-1,636,547,0,0
-581,477,0,0,0,0,0,0,0,0,0,-1,643,547,0,0
-574,477,0,0,0,0,0,0,0,0,0,-1,650,547,0,0
-567,477,0,0,0,0,0,0,0,0,0,-1,657,547,0,0
-560,477,0,0,0,0,0,0,0,0,0,-1,664,547,0,0
-553,477,0,0,0,0,0,0,0,0,0,-1,671,547,0,0
-546,477,0,0,0,0,0,0,0,0,0,-1,678,547,0,0
-539,477,0,0,0,0,0,0,0,0,0,-1,685,547,0,0
-532,477,0,0,0,0,0,0,0,0,0,-1,692,547,0,0
-525,477,0,0,0,0,0,0,0,0,0,-1,699,547,0,0
-518,477,0,0,0,0,0,0,0,0,0,-1,706,547,0,0
-511,477,0,0,0,0,0,0,0,0,0,-1,713,547,0,0
-504,477,0,0,0,0,0,0,0,0,0,-1,720,547,0,0
-497,477,0,0,0,0,0,0,0,0,0,-1,727,547,0,0
-490,477,0,0,0,0,0,0,0,0,0,-1,734,547,0,0
-483,477,-7.73151,-0.224182,0,0,0,0,0,0,0,-1,741,547,-7.73152,0.224176
-476,477,-6.25806,-0.310547,0,0,0,0,0,0,0,-1,748,547,-6.25804,0.310549
-469,477,-7.26617,0.525085,0,0,0,0,0,0,0,-1,755,547,-7.2662,-0.525111
-462,477,-6.65143,1.06042,0,0,0,0,0,0,0,-1,762,547,-6.65143,-1.06043
-455,477,-5.31757,0.429016,0,0,0,0,0,0,0,-1,769,547,-5.31756,-0.42902
-448,477,-4.0697,0.273376,0,0,0,0,0,0,0,-1,776,547,-4.06971,-0.273363
-441,477,-2.47504,-4.76971,0,0,0,0,0,0,0,-1,783,547,-2.47505,4.76973
-434,477,-6.83282,-20.8145,0,0,0,0,0,0,0,-1,790,547,-6.83283,20.8145
-427,477,-7.07526,-21.364,0.000137055,0.0129331,-0.00450248,0.0143586,-0.00128842,-1.26418,0.0100295,0.0480225,797,547,-7.07523,21.364
-420,477,-7.12628,-22.1376,0.000255604,0.0111983,-0.00454297,0.0128385,-0.0013846,-1.22432,0.00905589,0.0371686,804,547,-7.12627,22.1376
-413,477,-7.14001,-23.3381,0.000418633,0.00946048,-0.00438356,0.0112367,-0.00135761,-1.18581,0.00798226,0.02213,811,547,-7.14004,23.3381
-406,477,-7.28571,-24.3624,0.00053056,0.00774231,-0.00397198,0.00950104,-0.00122817,-1.15396,0.0067806,0.0119757,818,547,-7.28572,24.3624
-399,477,-7.33258,-25.2881,0.000631126,0.00614308,-0.0034224,0.00778122,-0.00100701,-1.12437,0.00555366,0.0194099,825,547,-7.33257,25.2882
-392,477,-7.39404,-26.2397,0.000852465,0.0046843,-0.00287409,0.00622252,-0.000685762,-1.07938,0.00439481,0.0188653,832,547,-7.39406,26.2397
-385,477,-7.42749,-27.1663,0.00115922,0.00336399,-0.00230724,0.00481867,-0.00029546,-1.00826,0.00331532,0.0157153,839,547,-7.42749,27.1663
-378,477,-7.49353,-28.0751,0.00142567,0.00207116,-0.00163907,0.00341895,7.78747e-05,-0.882609,0.00225379,0.0135866,846,547,-7.49355,28.0751
-371,477,-7.55646,-28.9484,0.00162393,0.000855939,-0.00101132,0.0023217,0.000158167,-0.603957,0.00149787,0.013542,853,547,-7.55646,28.9483
-364,477,-7.61823,-29.8372,0.00174326,-0.000332211,-0.000315248,0.00179009,-0.000379038,-0.147462,0.00133776,0.0137562,860,547,-7.61823,29.8372
-357,477,-7.68152,-30.7319,0.00187477,-0.0013355,0.000342755,0.00191096,-0.00137168,0.105189,0.00190374,0.0118206,867,547,-7.68152,30.7319
-350,477,-7.73572,-31.6256,0.00196839,-0.00228524,0.000930478,0.00216302,-0.00247988,0.206204,0.00268266,0.0118667,874,547,-7.73573,31.6256
-343,477,-7.71265,-32.5573,0.00188004,-0.00309128,0.00152292,0.00230948,-0.00352072,0.274846,0.00339019,0.0227107,881,547,-7.71266,32.5573
-336,477,-7.71417,-33.4658,0.00157095,-0.00403367,0.00223051,0.00235027,-0.004813,0.336135,0.0042164,0.0415578,888,547,-7.71416,33.4658
-329,477,-7.64502,-34.3489,0,0,0,0,0,0,0,-1,895,547,-7.64501,34.3489
-322,477,-5.91638,-27.4468,0,0,0,0,0,0,0,-1,902,547,-5.91639,27.4468
-315,477,-1.67358,-9.15253,0,0,0,0,0,0,0,-1,909,547,-1.67356,9.15253
-308,477,-1.30127,-6.55188,0,0,0,0,0,0,0,-1,916,547,-1.30128,6.55185
-301,477,-1.21185,-6.28351,0,0,0,0,0,0,0,-1,923,547,-1.21184,6.28352
-294,477,-0.352905,3.27142,0,0,0,0,0,0,0,-1,930,547,-0.35292,-3.27144
-287,477,3.54364,2.15399,0,0,0,0,0,0,0,-1,937,547,3.54362,-2.15396
-280,477,1.97308,-0.954163,0,0,0,0,0,0,0,-1,944,547,1.9731,0.954178
-273,477,2.11621,-3.76709,0,0,0,0,0,0,0,-1,951,547,2.11619,3.76706
-266,477,2.04669,-3.42389,0,0,0,0,0,0,0,-1,958,547,2.04671,3.42391
-259,477,-1.33478,-3.41205,0,0,0,0,0,0,0,-1,965,547,-1.3348,3.41206
-252,477,0.597168,-5.32922,0,0,0,0,0,0,0,-1,972,547,0.597144,5.32924
-245,477,8.2309,-8.48492,0,0,0,0,0,0,0,-1,979,547,8.23091,8.48494
-238,477,6.60938,-5.64063,0,0,0,0,0,0,0,-1,986,547,6.60938,5.64063
-231,477,4.71716,-2.52484,0,0,0,0,0,0,0,-1,993,547,4.71716,2.52483
-224,477,0,0,0,0,0,0,0,0,0,-1,1000,547,0,0
-217,477,0,0,0,0,0,0,0,0,0,-1,1007,547,0,0
-210,477,0,0,0,0,0,0,0,0,0,-1,1014,547,0,0
-203,477,0,0,0,0,0,0,0,0,0,-1,1021,547,0,0
-196,477,0,0,0,0,0,0,0,0,0,-1,1028,547,0,0
-189,477,0,0,0,0,0,0,0,0,0,-1,1035,547,0,0
-182,477,0,0,0,0,0,0,0,0,0,-1,1042,547,0,0
-175,477,0,0,0,0,0,0,0,0,0,-1,1049,547,0,0
-168,477,0,0,0,0,0,0,0,0,0,-1,1056,547,0,0
-161,477,0,0,0,0,0,0,0,0,0,-1,1063,547,0,0
-154,477,0,0,0,0,0,0,0,0,0,-1,1070,547,0,0
-147,477,0,0,0,0,0,0,0,0,0,-1,1077,547,0,0
-140,477,0,0,0,0,0,0,0,0,0,-1,1084,547,0,0
-133,477,0,0,0,0,0,0,0,0,0,-1,1091,547,0,0
-126,477,0,0,0,0,0,0,0,0,0,-1,1098,547,0,0
-119,477,0,0,0,0,0,0,0,0,0,-1,1105,547,0,0
-112,477,0,0,0,0,0,0,0,0,0,-1,1112,547,0,0
-105,477,0,0,0,0,0,0,0,0,0,-1,1119,547,0,0
-98,477,0,0,0,0,0,0,0,0,0,-1,1126,547,0,0
-91,477,0,0,0,0,0,0,0,0,0,-1,1133,547,0,0
-84,477,0,0,0,0,0,0,0,0,0,-1,1140,547,0,0
-77,477,0,0,0,0,0,0,0,0,0,-1,1147,547,0,0
-70,477,0,0,0,0,0,0,0,0,0,-1,1154,547,0,0
-63,477,0,0,0,0,0,0,0,0,0,-1,1161,547,0,0
-56,477,0,0,0,0,0,0,0,0,0,-1,1168,547,0,0
-49,477,0,0,0,0,0,0,0,0,0,-1,1175,547,0,0
-42,477,0,0,0,0,0,0,0,0,0,-1,1182,547,0,0
-35,477,0,0,0,0,0,0,0,0,0,-1,1189,547,0,0
-28,477,0,0,0,0,0,0,0,0,0,-1,1196,547,0,0
-21,477,0,0,0,0,0,0,0,0,0,-1,1203,547,0,0
-14,477,0,0,0,0,0,0,0,0,0,-1,1210,547,0,0
-7,477,0,0,0,0,0,0,0,0,0,-1,1217,547,0,0
0,477,0,0,0,0,0,0,0,0,0,-1,1224,547,0,0
7,477,0,0,0,0,0,0,0,0,0,-1,1231,547,0,0
14,477,0,0,0,0,0,0,0,0,0,-1,1238,547,0,0
21,477,0,0,0,0,0,0,0,0,0,-1,1245,547,0,0
28,477,0,0,0,0,0,0,0,0,0,-1,1252,547,0,0
35,477,0,0,0,0,0,0,0,0,0,-1,1259,547,0,0
42,477,0,0,0,0,0,0,0,0,0,-1,1266,547,0,0
49,477,0,0,0,0,0,0,0,0,0,-1,1273,547,0,0
56,477,0,0,0,0,0,0,0,0,0,-1,1280,547,0,0
63,477,0,0,0,0,0,0,0,0,0,-1,1287,547,0,0
70,477,0,0,0,0,0,0,0,0,0,-1,1294,547,0,0
77,477,0,0,0,0,0,0,0,0,0,-1,1301,547,0,0
84,477,0,0,0,0,0,0,0,0,0,-1,1308,547,0,0
91,477,0,0,0,0,0,0,0,0,0,-1,1315,547,0,0
98,477,0,0,0,0,0,0,0,0,0,-1,1322,547,0,0
105,477,0,0,0,0,0,0,0,0,0,-1,1329,547,0,0
112,477,0,0,0,0,0,0,0,0,0,-1,1336,547,0,0
119,477,0,0,0,0,0,0,0,0,0,-1,1343,547,0,0
126,477,0,0,0,0,0,0,0,0,0,-1,1350,547,0,0
133,477,0,0,0,0,0,0,0,0,0,-1,1357,547,0,0
140,477,0,0,0,0,0,0,0,0,0,-1,1364,547,0,0
147,477,0,0,0,0,0,0,0,0,0,-1,1371,547,0,0
154,477,0,0,0,0,0,0,0,0,0,-1,1378,547,0,0
161,477,0,0,0,0,0,0,0,0,0,-1,1385,547,0,0
168,477,0,0,0,0,0,0,0,0,0,-1,1392,547,0,0
175,477,0,0,0,0,0,0,0,0,0,-1,1399,547,0,0
182,477,0,0,0,0,0,0,0,0,0,-1,1406,547,0,0
189,477,0,0,0,0,0,0,0,0,0,-1,1413,547,0,0
196,477,0,0,0,0,0,0,0,0,0,-1,1420,547,0,0
203,477,0,0,0,0,0,0,0,0,0,-1,1427,547,0,0
210,477,0,0,0,0,0,0,0,0,0,-1,1434,547,0,0
217,477,0,0,0,0,0,0,0,0,0,-1,1441,547,0,0
224,477,0,0,0,0,0,0,0,0,0,-1,1448,547,0,0
231,477,0,0,0,0,0,0,0,0,0,-1,1455,547,0,0
238,477,0,0,0,0,0,0,0,0,0,-1,1462,547,0,0
245,477,0,0,0,0,0,0,0,0,0,-1,1469,547,0,0
252,477,0,0,0,0,0,0,0,0,0,-1,1476,547,0,0
259,477,0,0,0,0,0,0,0,0,0,-1,1483,547,0,0
266,477,0,0,0,0,0,0,0,0,0,-1,1490,547,0,0
273,477,0,0,0,0,0,0,0,0,0,-1,1497,547,0,0
280,477,0,0,0,0,0,0,0,0,0,-1,1504,547,0,0
287,477,0,0,0,0,0,0,0,0,0,-1,1511,547,0,0
294,477,0,0,0,0,0,0,0,0,0,-1,1518,547,0,0
301,477,0,0,0,0,0,0,0,0,0,-1,1525,547,0,0
308,477,0,0,0,0,0,0,0,0,0,-1,1532,547,0,0
315,477,0,0,0,0,0,0,0,0,0,-1,1539,547,0,0
322,477,0,0,0,0,0,0,0,0,0,-1,1546,547,0,0
329,477,0,0,0,0,0,0,0,0,0,-1,1553,547,0,0
336,477,0,0,0,0,0,0,0,0,0,-1,1560,547,0,0
343,477,0,0,0,0,0,0,0,0,0,-1,1567,547,0,0
350,477,1.7699,-3.32275,0,0,0,0,0,0,0,-1,1574,547,1.7699,3.32272
357,477,3.073,-4.83313,0,0,0,0,0,0,0,-1,1581,547,3.07303,4.83316
364,477,4.30127,-4.22864,0,0,0,0,0,0,0,-1,1588,547,4.30125,4.22865
371,477,4.57703,0.283264,0,0,0,0,0,0,0,-1,1595,547,4.57706,-0.283262
378,477,8.57947,1.05969,0,0,0,0,0,0,0,-1,1602,547,8.5795,-1.05972
385,477,12.3726,2.02356,0,0,0,0,0,0,0,-1,1609,547,12.3725,-2.02355
392,477,16.4678,2.76843,0,0,0,0,0,0,0,-1,1616,547,16.4678,-2.76845
399,477,8.00037,-2.29523,0,0,0,0,0,0,0,-1,1623,547,8.00031,2.2952
406,477,4.82495,2.7475,0,0,0,0,0,0,0,-1,1630,547,4.825,-2.74752
413,477,4.88171,-0.336426,0,0,0,0,0,0,0,-1,1637,547,4.88169,0.336398
420,477,3.34875,0.102722,0,0,0,0,0,0,0,-1,1644,547,3.34871,-0.1027
427,477,1.66772,-0.373108,0,0,0,0,0,0,0,-1,1651,547,1.66768,0.373104
434,477,3.76978,-2.30798,0,0,0,0,0,0,0,-1,1658,547,3.76974,2.30801
441,477,4.05444,-2.80402,0,0,0,0,0,0,0,-1,1665,547,4.05444,2.804
448,477,10.4247,-11.7421,0,0,0,0,0,0,0,-1,1672,547,10.4247,11.7421
455,477,13.3054,-16.8109,0,0,0,0,0,0,0,-1,1679,547,13.3054,16.8109
462,477,23.7228,-33.2575,0,0,0,0,0,0,0,-1,1686,547,23.7228,33.2575
469,477,23.7277,-32.2087,0,0,0,0,0,0,0,-1,1693,547,23.7277,32.2087
476,477,23.6425,-31.2946,0.000964,-0.000597924,-0.00132131,0.00171789,-0.00135181,-0.518491,0.00177649,0.0300666,1700,547,23.6425,31.2946
483,477,23.6069,-30.3799,0.00110557,-0.000122245,-0.000696989,0.00142046,-0.000437142,-0.424346,0.00112146,0.0150431,1707,547,23.6069,30.3799
490,477,23.5513,-29.5111,0.00113848,0.00043366,-0.000210657,0.00119664,0.000375498,-0.269385,0.000706671,0.0146141,1714,547,23.5513,29.5111
497,477,23.4976,-28.5648,0.00126256,0.0011134,0.000420289,0.00161483,0.000761123,0.697587,0.000932835,0.0146135,1721,547,23.4976,28.5647
504,477,23.4463,-27.6611,0.00136483,0.00137524,0.000872638,0.00224269,0.000497386,0.78838,0.00136,0.0191572,1728,547,23.4462,27.6611
511,477,23.4803,-26.8235,0.00132637,0.00165237,0.00124719,0.00274717,0.000231568,0.850376,0.00175934,0.0238116,1735,547,23.4803,26.8235
518,477,23.4078,-25.908,0.00114212,0.00195781,0.00151264,0.00311662,-1.66869e-05,0.91708,0.00208333,0.0206458,1742,547,23.4079,25.908
525,477,23.3018,-24.9137,0.000957246,0.00227539,0.00172208,0.0034602,-0.000227572,0.968158,0.00238628,0.0175254,1749,547,23.3018,24.9137
532,477,23.1927,-23.9503,0.000740586,0.00271472,0.00192007,0.00388658,-0.000431272,1.02282,0.00274612,0.02048,1756,547,23.1928,23.9502
539,477,23.1416,-22.9693,0.000433479,0.00328275,0.00205621,0.00435963,-0.000643398,1.08835,0.00314291,0.0193659,1763,547,23.1416,22.9693
546,477,23.0173,-22.128,0.000114738,0.00415537,0.00219794,0.00512046,-0.000850349,1.15706,0.00372954,0.0440407,1770,547,23.0173,22.128
553,477,23.0509,-21.0861,0,0,0,0,0,0,0,-1,1777,547,23.0509,21.0861
560,477,19.4597,-16.1135,0,0,0,0,0,0,0,-1,1784,547,19.4597,16.1135
567,477,13.9529,-8.70972,0,0,0,0,0,0,0,-1,1791,547,13.9529,8.7097
574,477,6.82593,-0.916992,0,0,0,0,0,0,0,-1,1798,547,6.82598,0.916977
581,477,9.29321,-0.557007,0,0,0,0,0,0,0,-1,1805,547,9.29324,0.55703
588,477,9.75195,0.422729,0,0,0,0,0,0,0,-1,1812,547,9.75198,-0.42273
595,477,9.89172,1.21326,0,0,0,0,0,0,0,-1,1819,547,9.89174,-1.21328
602,477,6.5271,-0.964417,0,0,0,0,0,0,0,-1,1826,547,6.52706,0.964427
609,477,0,0,0,0,0,0,0,0,0,-1,1833,547,0,0
616,477,0,0,0,0,0,0,0,0,0,-1,1840,547,0,0
623,477,0,0,0,0,0,0,0,0,0,-1,1847,547,0,0
630,477,0,0,0,0,0,0,0,0,0,-1,1854,547,0,0
637,477,0,0,0,0,0,0,0,0,0,-1,1861,547,0,0
644,477,0,0,0,0,0,0,0,0,0,-1,1868,547,0,0
651,477,0,0,0,0,0,0,0,0,0,-1,1875,547,0,0
658,477,0,0,0,0,0,0,0,0,0,-1,1882,547,0,0
665,477,0,0,0,0,0,0,0,0,0,-1,1889,547,0,0
672,477,0,0,0,0,0,0,0,0,0,-1,1896,547,0,0
679,477,0,0,0,0,0,0,0,0,0,-1,1903,547,0,0
686,477,0,0,0,0,0,0,0,0,0,-1,1910,547,0,0
693,477,0,0,0,0,0,0,0,0,0,-1,1917,547,0,0
700,477,0,0,0,0,0,0,0,0,0,-1,1924,547,0,0
707,477,0,0,0,0,0,0,0,0,0,-1,1931,547,0,0
714,477,0,0,0,0,0,0,0,0,0,-1,1938,547,0,0
721,477,0,0,0,0,0,0,0,0,0,-1,1945,547,0,0
728,477,0,0,0,0,0,0,0,0,0,-1,1952,547,0,0
735,477,0,0,0,0,0,0,0,0,0,-1,1959,547,0,0
742,477,0,0,0,0,0,0,0,0,0,-1,1966,547,0,0
749,477,0,0,0,0,0,0,0,0,0,-1,1973,547,0,0
756,477,0,0,0,0,0,0,0,0,0,-1,1980,547,0,0
763,477,0,0,0,0,0,0,0,0,0,-1,1987,547,0,0
770,477,0,0,0,0,0,0,0,0,0,-1,1994,547,0,0
777,477,0,0,0,0,0,0,0,0,0,-1,2001,547,0,0
784,477,0,0,0,0,0,0,0,0,0,-1,2008,547,0,0
791,477,0,0,0,0,0,0,0,0,0,-1,2015,547,0,0
798,477,0,0,0,0,0,0,0,0,0,-1,2022,547,0,0
805,477,0,0,0,0,0,0,0,0,0,-1,2029,547,0,0
812,477,0,0,0,0,0,0,0,0,0,-1,2036,547,0,0
-700,470,0,0,0,0,0,0,0,0,0,-1,524,554,0,0
-693,470,0,0,0,0,0,0,0,0,0,-1,531,554,0,0
-686,470,0,0,0,0,0,0,0,0,0,-1,538,554,0,0
-679,470,0,0,0,0,0,0,0,0,0,-1,545,554,0,0
-672,470,0,0,0,0,0,0,0,0,0,-1,552,554,0,0
-665,470,0,0,0,0,0,0,0,0,0,-1,559,554,0,0
-658,470,0,0,0,0,0,0,0,0,0,-1,566,554,0,0
-651,470,0,0,0,0,0,0,0,0,0,-1,573,554,0,0
-644,470,0,0,0,0,0,0,0,0,0,-1,580,554,0,0
-637,470,0,0,0,0,0,0,0,0,0,-1,587,554,0,0
-630,470,0,0,0,0,0,0,0,0,0,-1,594,554,0,0
-623,470,0,0,0,0,0,0,0,0,0,-1,601,554,0,0
-616,470,0,0,0,0,0,0,0,0,0,-1,608,554,0,0
-609,470,0,0,0,0,0,0,0,0,0,-1,615,554,0,0
-602,470,0,0,0,0,0,0,0,0,0,-1,622,554,0,0
-595,470,0,0,0,0,0,0,0,0,0,-1,629,554,0,0
-588,470,0,0,0,0,0,0,0,0,0,-1,636,554,0,0
-581,470,0,0,0,0,0,0,0,0,0,-1,643,554,0,0
-574,470,0,0,0,0,0,0,0,0,0,-1,650,554,0,0
-567,470,0,0,0,0,0,0,0,0,0,-1,657,554,0,0
-560,470,0,0,0,0,0,0,0,0,0,-1,664,554,0,0
-553,470,0,0,0,0,0,0,0,0,0,-1,671,554,0,0
-546,470,0,0,0,0,0,0,0,0,0,-1,678,554,0,0
-539,470,0,0,0,0,0,0,0,0,0,-1,685,554,0,0
-532,470,0,0,0,0,0,0,0,0,0,-1,692,554,0,0
-525,470,0,0,0,0,0,0,0,0,0,-1,699,554,0,0
-518,470,0,0,0,0,0,0,0,0,0,-1,706,554,0,0
-511,470,0,0,0,0,0,0,0,0,0,-1,713,554,0,0
-504,470,0,0,0,0,0,0,0,0,0,-1,720,554,0,0
-497,470,0,0,0,0,0,0,0,0,0,-1,727,554,0,0
-490,470,-9.13263,-1.03125,0,0,0,0,0,0,0,-1,734,554,-9.1326,1.03127
-483,470,-7.68677,-1.03955,0,0,0,0,0,0,0,-1,741,554,-7.68678,1.03958
-476,470,-6.17969,-1.03394,0,0,0,0,0,0,0,-1,748,554,-6.17971,1.03395
-469,470,-6.23016,-0.651855,0,0,0,0,0,0,0,-1,755,554,-6.23014,0.651829
-462,470,-4.87915,-1.03705,0,0,0,0,0,0,0,-1,762,554,-4.87914,1.03702
-455,470,-4.14777,-1.37079,0,0,0,0,0,0,0,-1,769,554,-4.14779,1.37078
-448,470,-2.9314,-5.74518,0,0,0,0,0,0,0,-1,776,554,-2.93137,5.74518
-441,470,-7.10535,-17.8693,0,0,0,0,0,0,0,-1,783,554,-7.10533,17.8693
-434,470,-8.00592,-20.3615,0,0,0,0,0,0,0,-1,790,554,-8.00591,20.3615
-427,470,-8.03003,-21.4385,7.62034e-05,0.0099581,-0.00332677,0.0109737,-0.000939387,-1.2745,0.00764818,0.0273444,797,554,-8.03004,21.4384
-420,470,-8.04218,-22.423,0.000242767,0.00851856,-0.00332936,0.00969167,-0.000930343,-1.23203,0.0067925,0.01772,804,554,-8.04218,22.423
-413,470,-8.10156,-23.394,0.000370417,0.00706347,-0.00314119,0.00830675,-0.000872863,-1.19392,0.00585053,0.0153013,811,554,-8.10156,23.394
-406,470,-8.18066,-24.3193,0.000431393,0.00555991,-0.00271758,0.00673206,-0.000740749,-1.16359,0.00475423,0.0134724,818,554,-8.18064,24.3193
-399,470,-8.20947,-25.2582,0.000533499,0.00419292,-0.00222134,0.00524109,-0.00051467,-1.12991,0.00367764,0.0159522,825,554,-8.2095,25.2582
-392,470,-8.25244,-26.1832,0.000766543,0.00293441,-0.00174151,0.00390176,-0.000200811,-1.06376,0.00267063,0.0150444,832,554,-8.25245,26.1832
-385,470,-8.32361,-27.0975,0.00110957,0.00180748,-0.00126671,0.00277242,0.000144629,-0.919803,0.00180201,0.0115158,839,554,-8.32362,27.0975
-378,470,-8.38708,-28.0156,0.00145155,0.000695742,-0.000707023,0.00187533,0.000271965,-0.539966,0.00117015,0.0157461,846,554,-8.3871,28.0156
-371,470,-8.46283,-28.9139,0.00177536,-0.000315157,-0.000200771,0.00179447,-0.000334264,-0.0948833,0.00132189,0.014375,853,554,-8.46283,28.914
-364,470,-8.52521,-29.7986,0.00205534,-0.00124322,0.000323839,0.00208684,-0.00127471,0.0969424,0.00195958,0.0154027,860,554,-8.52522,29.7986
-357,470,-8.59192,-30.6824,0.00236856,-0.00205156,0.000780227,0.00250224,-0.00218524,0.169688,0.00270838,0.015629,867,554,-8.59194,30.6824
-350,470,-8.62085,-31.5933,0.00265682,-0.00288805,0.00116183,0.00289042,-0.00312165,0.198417,0.00347192,0.0137562,874,554,-8.62085,31.5933
-343,470,-8.53955,-32.5205,0,0,0,0,0,0,0,-1,881,554,-8.53958,32.5205
-336,470,-8.41034,-33.4833,0,0,0,0,0,0,0,-1,888,554,-8.41035,33.4833
-329,470,-2.78516,-12.3594,0,0,0,0,0,0,0,-1,895,554,-2.78517,12.3594
-322,470,-2.30829,-11.4527,0,0,0,0,0,0,0,-1,902,554,-2.30827,11.4527
-315,470,-1.04797,-8.29529,0,0,0,0,0,0,0,-1,909,554,-1.04797,8.29526
-308,470,-1.39368,-6.68152,0,0,0,0,0,0,0,-1,916,554,-1.39369,6.68149
-301,470,-0.0340576,3.34888,0,0,0,0,0,0,0,-1,923,554,-0.0340496,-3.3489
-294,470,-1.18378,3.22266,0,0,0,0,0,0,0,-1,930,554,-1.18376,-3.22268
-287,470,-2.15454,3.2204,0,0,0,0,0,0,0,-1,937,554,-2.15452,-3.22037
-280,470,-3.00537,3.099,0,0,0,0,0,0,0,-1,944,554,-3.00536,-3.09898
-273,470,-12.3932,3.65009,0,0,0,0,0,0,0,-1,951,554,-12.3932,-3.65011
-266,470,-11.5706,1.16028,0,0,0,0,0,0,0,-1,958,554,-11.5706,-1.16031
-259,470,-7.50415,-2.77167,0,0,0,0,0,0,0,-1,965,554,-7.50413,2.7717
-252,470,-0.371155,-5.87823,0,0,0,0,0,0,0,-1,972,554,-0.37114,5.87821
-245,470,1.33221,-6.81122,0,0,0,0,0,0,0,-1,979,554,1.33223,6.8112
-238,470,0,0,0,0,0,0,0,0,0,-1,986,554,0,0
-231,470,0,0,0,0,0,0,0,0,0,-1,993,554,0,0
-224,470,0,0,0,0,0,0,0,0,0,-1,1000,554,0,0
-217,470,0,0,0,0,0,0,0,0,0,-1,1007,554,0,0
-210,470,0,0,0,0,0,0,0,0,0,-1,1014,554,0,0
-203,470,0,0,0,0,0,0,0,0,0,-1,1021,554,0,0
-196,470,0,0,0,0,0,0,0,0,0,-1,1028,554,0,0
-189,470,0,0,0,0,0,0,0,0,0,-1,1035,554,0,0
-182,470,0,0,0,0,0,0,0,0,0,-1,1042,554,0,0
-175,470,0,0,0,0,0,0,0,0,0,-1,1049,554,0,0
-168,470,0,0,0,0,0,0,0,0,0,-1,1056,554,0,0
-161,470,0,0,0,0,0,0,0,0,0,-1,1063,554,0,0
-154,470,0,0,0,0,0,0,0,0,0,-1,1070,554,0,0
-147,470,0,0,0,0,0,0,0,0,0,-1,1077,554,0,0
-140,470,0,0,0,0,0,0,0,0,0,-1,1084,554,0,0
-133,470,0,0,0,0,0,0,0,0,0,-1,1091,554,0,0
-126,470,0,0,0,0,0,0,0,0,0,-1,1098,554,0,0
-119,470,0,0,0,0,0,0,0,0,0,-1,1105,554,0,0
-112,470,0,0,0,0,0,0,0,0,0,-1,1112,554,0,0
-105,470,0,0,0,0,0,0,0,0,0,-1,1119,554,0,0
-98,470,0,0,0,0,0,0,0,0,0,-1,1126,554,0,0
-91,470,0,0,0,0,0,0,0,0,0,-1,1133,554,0,0
-84,470,0,0,0,0,0,0,0,0,0,-1,1140,554,0,0
-77,470,0,0,0,0,0,0,0,0,0,-1,1147,554,0,0
-70,470,0,0,0,0,0,0,0,0,0,-1,1154,554,0,0
-63,470,0,0,0,0,0,0,0,0,0,-1,1161,554,0,0
-56,470,0,0,0,0,0,0,0,0,0,-1,1168,554,0,0
-49,470,0,0,0,0,0,0,0,0,0,-1,1175,554,0,0
-42,470,0,0,0,0,0,0,0,0,0,-1,1182,554,0,0
-35,470,0,0,0,0,0,0,0,0,0,-1,1189,554,0,0
-28,470,0,0,0,0,0,0,0,0,0,-1,1196,554,0,0
-21,470,0,0,0,0,0,0,0,0,0,-1,1203,554,0,0
-14,470,0,0,0,0,0,0,0,0,0,-1,1210,554,0,0
-7,470,0,0,0,0,0,0,0,0,0,-1,1217,554,0,0
0,470,0,0,0,0,0,0,0,0,0,-1,1224,554,0,0
7,470,0,0,0,0,0,0,0,0,0,-1,1231,554,0,0
14,470,0,0,0,0,0,0,0,0,0,-1,1238,554,0,0
21,470,0,0,0,0,0,0,0,0,0,-1,1245,554,0,0
28,470,0,0,0,0,0,0,0,0,0,-1,1252,554,0,0
35,470,0,0,0,0,0,0,0,0,0,-1,1259,554,0,0
42,470,0,0,0,0,0,0,0,0,0,-1,1266,554,0,0
49,470,0,0,0,0,0,0,0,0,0,-1,1273,554,0,0
56,470,0,0,0,0,0,0,0,0,0,-1,1280,554,0,0
63,470,0,0,0,0,0,0,0,0,0,-1,1287,554,0,0
70,470,0,0,0,0,0,0,0,0,0,-1,1294,554,0,0
77,470,0,0,0,0,0,0,0,0,0,-1,1301,554,0,0
84,470,0,0,0,0,0,0,0,0,0,-1,1308,554,0,0
91,470,0,0,0,0,0,0,0,0,0,-1,1315,554,0,0
98,470,0,0,0,0,0,0,0,0,0,-1,1322,554,0,0
105,470,0,0,0,0,0,0,0,0,0,-1,1329,554,0,0
112,470,0,0,0,0,0,0,0,0,0,-1,1336,554,0,0
119,470,0,0,0,0,0,0,0,0,0,-1,1343,554,0,0
126,470,0,0,0,0,0,0,0,0,0,-1,1350,554,0,0
133,470,0,0,0,0,0,0,0,0,0,-1,1357,554,0,0
140,470,0,0,0,0,0,0,0,0,0,-1,1364,554,0,0
147,470,0,0,0,0,0,0,0,0,0,-1,1371,554,0,0
154,470,0,0,0,0,0,0,0,0,0,-1,1378,554,0,0
161,470,0,0,0,0,0,0,0,0,0,-1,1385,554,0,0
168,470,0,0,0,0,0,0,0,0,0,-1,1392,554,0,0
175,470,0,0,0,0,0,0,0,0,0,-1,1399,554,0,0
182,470,0,0,0,0,0,0,0,0,0,-1,1406,554,0,0
189,470,0,0,0,0,0,0,0,0,0,-1,1413,554,0,0
196,470,0,0,0,0,0,0,0,0,0,-1,1420,554,0,0
203,470,0,0,0,0,0,0,0,0,0,-1,1427,554,0,0
210,470,0,0,0,0,0,0,0,0,0,-1,1434,554,0,0
217,470,0,0,0,0,0,0,0,0,0,-1,1441,554,0,0
224,470,0,0,0,0,0,0,0,0,0,-1,1448,554,0,0
231,470,0,0,0,0,0,0,0,0,0,-1,1455,554,0,0
238,470,0,0,0,0,0,0,0,0,0,-1,1462,554,0,0
245,470,0,0,0,0,0,0,0,0,0,-1,1469,554,0,0
252,470,0,0,0,0,0,0,0,0,0,-1,1476,554,0,0
259,470,0,0,0,0,0,0,0,0,0,-1,1483,554,0,0
266,470,0,0,0,0,0,0,0,0,0,-1,1490,554,0,0
273,470,0,0,0,0,0,0,0,0,0,-1,1497,554,0,0
280,470,0,0,0,0,0,0,0,0,0,-1,1504,554,0,0
287,470,0,0,0,0,0,0,0,0,0,-1,1511,554,0,0
294,470,0,0,0,0,0,0,0,0,0,-1,1518,554,0,0
301,470,0,0,0,0,0,0,0,0,0,-1,1525,554,0,0
308,470,0,0,0,0,0,0,0,0,0,-1,1532,554,0,0
315,470,0,0,0,0,0,0,0,0,0,-1,1539,554,0,0
322,470,0,0,0,0,0,0,0,0,0,-1,1546,554,0,0
329,470,0,0,0,0,0,0,0,0,0,-1,1553,554,0,0
336,470,0,0,0,0,0,0,0,0,0,-1,1560,554,0,0
343,470,0,0,0,0,0,0,0,0,0,-1,1567,554,0,0
350,470,0,0,0,0,0,0,0,0,0,-1,1574,554,0,0
357,470,0,0,0,0,0,0,0,0,0,-1,1581,554,0,0
364,470,1.33423,0.293335,0,0,0,0,0,0,0,-1,1588,554,1.33422,-0.293348
371,470,2.22498,-0.0305176,0,0,0,0,0,0,0,-1,1595,554,2.22494,0.0305046
378,470,6.27051,0.710083,0,0,0,0,0,0,0,-1,1602,554,6.27054,-0.710093
385,470,10.3657,1.47296,0,0,0,0,0,0,0,-1,1609,554,10.3657,-1.47299
392,470,15.3881,3.01935,0,0,0,0,0,0,0,-1,1616,554,15.388,-3.01937
399,470,18.4479,2.93793,0,0,0,0,0,0,0,-1,1623,554,18.4479,-2.93792
406,470,15.1896,1.36676,0,0,0,0,0,0,0,-1,1630,554,15.1896,-1.36679
413,470,6.55383,1.99207,0,0,0,0,0,0,0,-1,1637,554,6.5538,-1.99208
420,470,4.47095,0.845703,0,0,0,0,0,0,0,-1,1644,554,4.47098,-0.845718
427,470,3.51038,1.19684,0,0,0,0,0,0,0,-1,1651,554,3.51039,-1.19684
434,470,3.31775,-1.37427,0,0,0,0,0,0,0,-1,1658,554,3.31781,1.37426
441,470,2.55457,-2.05902,0,0,0,0,0,0,0,-1,1665,554,2.55461,2.05904
448,470,3.27258,-2.64032,0,0,0,0,0,0,0,-1,1672,554,3.27257,2.64029
455,470,10.3658,-9.82233,0,0,0,0,0,0,0,-1,1679,554,10.3659,9.82233
462,470,11.0651,-11.9958,0,0,0,0,0,0,0,-1,1686,554,11.0651,11.9958
469,470,15.4242,-19.0521,0,0,0,0,0,0,0,-1,1693,554,15.4242,19.0521
476,470,24.5157,-31.349,0,0,0,0,0,0,0,-1,1700,554,24.5158,31.349
483,470,24.5444,-30.3369,0.00115214,-0.000383459,-0.000842194,0.00152399,-0.000755312,-0.415787,0.00134067,0.0211733,1707,554,24.5444,30.3369
490,470,24.4675,-29.4272,0.00118993,0.000140208,-0.000392136,0.00132024,9.89699e-06,-0.32083,0.000876877,0.0134733,1714,554,24.4676,29.4272
497,470,24.4216,-28.4979,0.00129928,0.00082557,0.000258766,0.00141322,0.000711626,0.41479,0.000815932,0.0143926,1721,554,24.4216,28.4979
504,470,24.3971,-27.6608,0.00132353,0.00101542,0.000669296,0.00185627,0.000482678,0.672281,0.0011121,0.0201061,1728,554,24.3971,27.6608
511,470,24.3829,-26.8009,0.00123396,0.00120502,0.00100678,0.00222638,0.000212605,0.778211,0.0014187,0.0264551,1735,554,24.383,26.8009
518,470,24.3259,-25.8542,0.00103563,0.00143487,0.00126641,0.00251729,-4.67929e-05,0.863568,0.00169401,0.0257784,1742,554,24.3259,25.8542
525,470,24.2268,-24.8647,0.000835113,0.00170945,0.0014669,0.00280293,-0.000258372,0.930219,0.00196043,0.0164253,1749,554,24.2268,24.8648
532,470,24.1219,-23.8548,0.000625705,0.00212081,0.00166005,0.00319386,-0.000447342,0.996959,0.00229295,0.015608,1756,554,24.1219,23.8548
539,470,24.0431,-22.9213,0.000377545,0.00268668,0.0018198,0.00368727,-0.000623043,1.06808,0.00269002,0.0195564,1763,554,24.0431,22.9213
546,470,23.9852,-22.0159,0.000170321,0.00355127,0.00198882,0.00447099,-0.000749399,1.13764,0.0032593,0.0160688,1770,554,23.9853,22.0159
553,470,24.007,-21.058,4.27717e-05,0.00464716,0.00222245,0.00554487,-0.000854936,1.18691,0.00401204,0.0260241,1777,554,24.0069,21.058
560,470,24.0303,-19.8402,0,0,0,0,0,0,0,-1,1784,554,24.0303,19.8402
567,470,23.9081,-18.8292,0,0,0,0,0,0,0,-1,1791,554,23.908,18.8292
574,470,14.2793,-8.07147,0,0,0,0,0,0,0,-1,1798,554,14.2793,8.07147
581,470,8.24646,-4.06317,0,0,0,0,0,0,0,-1,1805,554,8.24648,4.06318
588,470,11.1803,1.74927,0,0,0,0,0,0,0,-1,1812,554,11.1803,-1.74926
595,470,4.72192,3.44116,0,0,0,0,0,0,0,-1,1819,554,4.72191,-3.44116
602,470,14.4307,2.76141,0,0,0,0,0,0,0,-1,1826,554,14.4306,-2.76139
609,470,20.9181,4.41058,0,0,0,0,0,0,0,-1,1833,554,20.9181,-4.4106
616,470,0,0,0,0,0,0,0,0,0,-1,1840,554,0,0
623,470,0,0,0,0,0,0,0,0,0,-1,1847,554,0,0
630,470,0,0,0,0,0,0,0,0,0,-1,1854,554,0,0
637,470,0,0,0,0,0,0,0,0,0,-1,1861,554,0,0
644,470,0,0,0,0,0,0,0,0,0,-1,1868,554,0,0
651,470,0,0,0,0,0,0,0,0,0,-1,1875,554,0,0
658,470,0,0,0,0,0,0,0,0,0,-1,1882,554,0,0
665,470,0,0,0,0,0,0,0,0,0,-1,1889,554,0,0
672,470,0,0,0,0,0,0,0,0,0,-1,1896,554,0,0
679,470,0,0,0,0,0,0,0,0,0,-1,1903,554,0,0
686,470,0,0,0,0,0,0,0,0,0,-1,1910,554,0,0
693,470,0,0,0,0,0,0,0,0,0,-1,1917,554,0,0
700,470,0,0,0,0,0,0,0,0,0,-1,1924,554,0,0
707,470,0,0,0,0,0,0,0,0,0,-1,1931,554,0,0
714,470,0,0,0,0,0,0,0,0,0,-1,1938,554,0,0
721,470,0,0,0,0,0,0,0,0,0,-1,1945,554,0,0
728,470,0,0,0,0,0,0,0,0,0,-1,1952,554,0,0
735,470,0,0,0,0,0,0,0,0,0,-1,1959,554,0,0
742,470,0,0,0,0,0,0,0,0,0,-1,1966,554,0,0
749,470,0,0,0,0,0,0,0,0,0,-1,1973,554,0,0
756,470,0,0,0,0,0,0,0,0,0,-1,1980,554,0,0
763,470,0,0,0,0,0,0,0,0,0,-1,1987,554,0,0
770,470,0,0,0,0,0,0,0,0,0,-1,1994,554,0,0
777,470,0,0,0,0,0,0,0,0,0,-1,2001,554,0,0
784,470,0,0,0,0,0,0,0,0,0,-1,2008,554,0,0
791,470,0,0,0,0,0,0,0,0,0,-1,2015,554,0,0
798,470,0,0,0,0,0,0,0,0,0,-1,2022,554,0,0
805,470,0,0,0,0,0,0,0,0,0,-1,2029,554,0,0
812,470,0,0,0,0,0,0,0,0,0,-1,2036,554,0,0
-700,463,0,0,0,0,0,0,0,0,0,-1,524,561,0,0
-693,463,0,0,0,0,0,0,0,0,0,-1,531,561,0,0
-686,463,0,0,0,0,0,0,0,0,0,-1,538,561,0,0
-679,463,0,0,0,0,0,0,0,0,0,-1,545,561,0,0
-672,463,0,0,0,0,0,0,0,0,0,-1,552,561,0,0
-665,463,0,0,0,0,0,0,0,0,0,-1,559,561,0,0
-658,463,0,0,0,0,0,0,0,0,0,-1,566,561,0,0
-651,463,0,0,0,0,0,0,0,0,0,-1,573,561,0,0
-644,463,0,0,0,0,0,0,0,0,0,-1,580,561,0,0
-637,463,0,0,0,0,0,0,0,0,0,-1,587,561,0,0
-630,463,0,0,0,0,0,0,0,0,0,-1,594,561,0,0
-623,463,0,0,0,0,0,0,0,0,0,-1,601,561,0,0
-616,463,0,0,0,0,0,0,0,0,0,-1,608,561,0,0
-609,463,0,0,0,0,0,0,0,0,0,-1,615,561,0,0
-602,463,0,0,0,0,0,0,0,0,0,-1,622,561,0,0
-595,463,0,0,0,0,0,0,0,0,0,-1,629,561,0,0
-588,463,0,0,0,0,0,0,0,0,0,-1,636,561,0,0
-581,463,0,0,0,0,0,0,0,0,0,-1,643,561,0,0
-574,463,0,0,0,0,0,0,0,0,0,-1,650,561,0,0
-567,463,0,0,0,0,0,0,0,0,0,-1,657,561,0,0
-560,463,0,0,0,0,0,0,0,0,0,-1,664,561,0,0
-553,463,0,0,0,0,0,0,0,0,0,-1,671,561,0,0
-546,463,0,0,0,0,0,0,0,0,0,-1,678,561,0,0
-539,463,0,0,0,0,0,0,0,0,0,-1,685,561,0,0
-532,463,0,0,0,0,0,0,0,0,0,-1,692,561,0,0
-525,463,0,0,0,0,0,0,0,0,0,-1,699,561,0,0
-518,463,0,0,0,0,0,0,0,0,0,-1,706,561,0,0
-511,463,0,0,0,0,0,0,0,0,0,-1,713,561,0,0
-504,463,0,0,0,0,0,0,0,0,0,-1,720,561,0,0
-497,463,-9.81451,-1.67126,0,0,0,0,0,0,0,-1,727,561,-9.81452,1.67127
-490,463,-8.57043,-1.58942,0,0,0,0,0,0,0,-1,734,561,-8.57045,1.58944
-483,463,-7.29224,-1.7226,0,0,0,0,0,0,0,-1,741,561,-7.29226,1.72261
-476,463,-5.77704,-1.7312,0,0,0,0,0,0,0,-1,748,561,-5.77703,1.73121
-469,463,-5.14545,-2.138,0,0,0,0,0,0,0,-1,755,561,-5.14546,2.13799
-462,463,-3.13672,-3.07977,0,0,0,0,0,0,0,-1,762,561,-3.13672,3.07974
-455,463,-2.91406,-5.61798,0,0,0,0,0,0,0,-1,769,561,-2.91406,5.61801
-448,463,-4.00177,-8.54681,0,0,0,0,0,0,0,-1,776,561,-4.00175,8.54683
-441,463,-9.01031,-19.1262,0,0,0,0,0,0,0,-1,783,561,-9.01031,19.1262
-434,463,-8.87756,-20.4476,-0.000391404,0.0083736,-0.00208563,0.00884457,-0.000862373,-1.34871,0.00620385,0.0405861,790,561,-8.87755,20.4476
-427,463,-8.90753,-21.4468,-0.00010405,0.00728298,-0.00223802,0.00790812,-0.000729193,-1.29841,0.00553119,0.0116537,797,561,-8.90752,21.4468
-420,463,-8.93207,-22.4064,0.000115267,0.00618233,-0.00227757,0.00694217,-0.000644571,-1.24879,0.00485724,0.00989678,804,561,-8.93209,22.4064
-413,463,-9.00616,-23.3583,0.000276503,0.00501251,-0.00213356,0.00583191,-0.000542894,-1.20411,0.00408096,0.0113252,811,561,-9.00617,23.3582
-406,463,-9.09296,-24.2733,0.000358914,0.00376068,-0.00176406,0.00451029,-0.000390691,-1.16898,0.00314519,0.0119962,818,561,-9.09295,24.2733
-399,463,-9.13538,-25.1831,0.000520822,0.00264292,-0.00136585,0.00331143,-0.000147684,-1.11563,0.00225846,0.0121285,825,561,-9.13539,25.1831
-392,463,-9.19293,-26.0981,0.000821946,0.00160674,-0.000990011,0.00227928,0.000149402,-0.974078,0.00147225,0.0118941,832,561,-9.19296,26.0981
-385,463,-9.26868,-27.0395,0.00126533,0.000693577,-0.000638878,0.00167937,0.000279531,-0.575026,0.00103902,0.0123494,839,561,-9.26867,27.0395
-378,463,-9.32916,-27.9555,0.00176684,-0.000196168,-0.000229754,0.00179337,-0.000222701,-0.114972,0.00127631,0.0126311,846,561,-9.32917,27.9555
-371,463,-9.38416,-28.8785,0.00232724,-0.000942567,0.000111846,0.00233106,-0.000946388,0.0341526,0.00194771,0.012965,853,561,-9.38417,28.8785
-364,463,-9.42487,-29.7482,0.00290056,-0.00151009,0.000409828,0.00293832,-0.00154785,0.0918696,0.00263123,0.0152459,860,561,-9.42484,29.7482
-357,463,-9.50067,-30.5999,0.00352705,-0.00202887,0.000613992,0.00359409,-0.00209592,0.108763,0.00332287,0.0215705,867,561,-9.50067,30.5998
-350,463,-9.44745,-31.5482,0.00414398,-0.0027296,0.000775262,0.00423034,-0.00281595,0.110932,0.00409541,0.0451276,874,561,-9.44744,31.5482
-343,463,-9.11938,-32.5293,0,0,0,0,0,0,0,-1,881,561,-9.11939,32.5293
-336,463,-2.94928,-12.2127,0,0,0,0,0,0,0,-1,888,561,-2.94925,12.2127
-329,463,-2.64307,-12.7037,0,0,0,0,0,0,0,-1,895,561,-2.64307,12.7038
-322,463,-1.82898,-9.11957,0,0,0,0,0,0,0,-1,902,561,-1.829,9.11957
-315,463,-0.944763,-5.96234,0,0,0,0,0,0,0,-1,909,561,-0.94479,5.96237
-308,463,-1.1535,-3.17889,0,0,0,0,0,0,0,-1,916,561,-1.15352,3.17889
-301,463,-1.50366,-3.15338,0,0,0,0,0,0,0,-1,923,561,-1.50364,3.15341
-294,463,-2.35889,-3.93463,0,0,0,0,0,0,0,-1,930,561,-2.35886,3.93465
-287,463,-2.80322,2.73999,0,0,0,0,0,0,0,-1,937,561,-2.80322,-2.74
-280,463,-12.864,5.25146,0,0,0,0,0,0,0,-1,944,561,-12.864,-5.25149
-273,463,-12.4598,3.39178,0,0,0,0,0,0,0,-1,951,561,-12.4598,-3.3918
-266,463,-8.78101,-3.7356,0,0,0,0,0,0,0,-1,958,561,-8.78098,3.73562
-259,463,-6.23285,-5.68842,0,0,0,0,0,0,0,-1,965,561,-6.23288,5.68843
-252,463,0,0,0,0,0,0,0,0,0,-1,972,561,0,0
-245,463,0,0,0,0,0,0,0,0,0,-1,979,561,0,0
-238,463,0,0,0,0,0,0,0,0,0,-1,986,561,0,0
-231,463,0,0,0,0,0,0,0,0,0,-1,993,561,0,0
-224,463,0,0,0,0,0,0,0,0,0,-1,1000,561,0,0
-217,463,0,0,0,0,0,0,0,0,0,-1,1007,561,0,0
-210,463,0,0,0,0,0,0,0,0,0,-1,1014,561,0,0
-203,463,0,0,0,0,0,0,0,0,0,-1,1021,561,0,0
-196,463,0,0,0,0,0,0,0,0,0,-1,1028,561,0,0
-189,463,0,0,0,0,0,0,0,0,0,-1,1035,561,0,0
-182,463,0,0,0,0,0,0,0,0,0,-1,1042,561,0,0
-175,463,0,0,0,0,0,0,0,0,0,-1,1049,561,0,0
-168,463,0,0,0,0,0,0,0,0,0,-1,1056,561,0,0
-161,463,0,0,0,0,0,0,0,0,0,-1,1063,561,0,0
-154,463,0,0,0,0,0,0,0,0,0,-1,1070,561,0,0
-147,463,0,0,0,0,0,0,0,0,0,-1,1077,561,0,0
-140,463,0,0,0,0,0,0,0,0,0,-1,1084,561,0,0
-133,463,0,0,0,0,0,0,0,0,0,-1,1091,561,0,0
-126,463,0,0,0,0,0,0,0,0,0,-1,1098,561,0,0
-119,463,0,0,0,0,0,0,0,0,0,-1,1105,561,0,0
-112,463,0,0,0,0,0,0,0,0,0,-1,1112,561,0,0
-105,463,0,0,0,0,0,0,0,0,0,-1,1119,561,0,0
-98,463,0,0,0,0,0,0,0,0,0,-1,1126,561,0,0
-91,463,0,0,0,0,0,0,0,0,0,-1,1133,561,0,0
-84,463,0,0,0,0,0,0,0,0,0,-1,1140,561,0,0
-77,463,0,0,0,0,0,0,0,0,0,-1,1147,561,0,0
-70,463,0,0,0,0,0,0,0,0,0,-1,1154,561,0,0
-63,463,0,0,0,0,0,0,0,0,0,-1,1161,561,0,0
-56,463,0,0,0,0,0,0,0,0,0,-1,1168,561,0,0
-49,463,0,0,0,0,0,0,0,0,0,-1,1175,561,0,0
-42,463,0,0,0,0,0,0,0,0,0,-1,1182,561,0,0
-35,463,0,0,0,0,0,0,0,0,0,-1,1189,561,0,0
-28,463,0,0,0,0,0,0,0,0,0,-1,1196,561,0,0
-21,463,0,0,0,0,0,0,0,0,0,-1,1203,561,0,0
-14,463,0,0,0,0,0,0,0,0,0,-1,1210,561,0,0
-7,463,0,0,0,0,0,0,0,0,0,-1,1217,561,0,0
0,463,0,0,0,0,0,0,0,0,0,-1,1224,561,0,0
7,463,0,0,0,0,0,0,0,0,0,-1,1231,561,0,0
14,463,0,0,0,0,0,0,0,0,0,-1,1238,561,0,0
21,463,0,0,0,0,0,0,0,0,0,-1,1245,561,0,0
28,463,0,0,0,0,0,0,0,0,0,-1,1252,561,0,0
35,463,0,0,0,0,0,0,0,0,0,-1,1259,561,0,0
42,463,0,0,0,0,0,0,0,0,0,-1,1266,561,0,0
49,463,0,0,0,0,0,0,0,0,0,-1,1273,561,0,0
56,463,0,0,0,0,0,0,0,0,0,-1,1280,561,0,0
63,463,0,0,0,0,0,0,0,0,0,-1,1287,561,0,0
70,463,0,0,0,0,0,0,0,0,0,-1,1294,561,0,0
77,463,0,0,0,0,0,0,0,0,0,-1,1301,561,0,0
84,463,0,0,0,0,0,0,0,0,0,-1,1308,561,0,0
91,463,0,0,0,0,0,0,0,0,0,-1,1315,561,0,0
98,463,0,0,0,0,0,0,0,0,0,-1,1322,561,0,0
105,463,0,0,0,0,0,0,0,0,0,-1,1329,561,0,0
112,463,0,0,0,0,0,0,0,0,0,-1,1336,561,0,0
119,463,0,0,0,0,0,0,0,0,0,-1,1343,561,0,0
126,463,0,0,0,0,0,0,0,0,0,-1,1350,561,0,0
133,463,0,0,0,0,0,0,0,0,0,-1,1357,561,0,0
140,463,0,0,0,0,0,0,0,0,0,-1,1364,561,0,0
147,463,0,0,0,0,0,0,0,0,0,-1,1371,561,0,0
154,463,0,0,0,0,0,0,0,0,0,-1,1378,561,0,0
161,463,0,0,0,0,0,0,0,0,0,-1,1385,561,0,0
168,463,0,0,0,0,0,0,0,0,0,-1,1392,561,0,0
175,463,0,0,0,0,0,0,0,0,0,-1,1399,561,0,0
182,463,0,0,0,0,0,0,0,0,0,-1,1406,561,0,0
189,463,0,0,0,0,0,0,0,0,0,-1,1413,561,0,0
196,463,0,0,0,0,0,0,0,0,0,-1,1420,561,0,0
203,463,0,0,0,0,0,0,0,0,0,-1,1427,561,0,0
210,463,0,0,0,0,0,0,0,0,0,-1,1434,561,0,0
217,463,0,0,0,0,0,0,0,0,0,-1,1441,561,0,0
224,463,0,0,0,0,0,0,0,0,0,-1,1448,561,0,0
231,463,0,0,0,0,0,0,0,0,0,-1,1455,561,0,0
238,463,0,0,0,0,0,0,0,0,0,-1,1462,561,0,0
245,463,0,0,0,0,0,0,0,0,0,-1,1469,561,0,0
252,463,0,0,0,0,0,0,0,0,0,-1,1476,561,0,0
259,463,0,0,0,0,0,0,0,0,0,-1,1483,561,0,0
266,463,0,0,0,0,0,0,0,0,0,-1,1490,561,0,0
273,463,0,0,0,0,0,0,0,0,0,-1,1497,561,0,0
280,463,0,0,0,0,0,0,0,0,0,-1,1504,561,0,0
287,463,0,0,0,0,0,0,0,0,0,-1,1511,561,0,0
294,463,0,0,0,0,0,0,0,0,0,-1,1518,561,0,0
301,463,0,0,0,0,0,0,0,0,0,-1,1525,561,0,0
308,463,0,0,0,0,0,0,0,0,0,-1,1532,561,0,0
315,463,0,0,0,0,0,0,0,0,0,-1,1539,561,0,0
322,463,0,0,0,0,0,0,0,0,0,-1,1546,561,0,0
329,463,0,0,0,0,0,0,0,0,0,-1,1553,561,0,0
336,463,0,0,0,0,0,0,0,0,0,-1,1560,561,0,0
343,463,0,0,0,0,0,0,0,0,0,-1,1567,561,0,0
350,463,0,0,0,0,0,0,0,0,0,-1,1574,561,0,0
357,463,0,0,0,0,0,0,0,0,0,-1,1581,561,0,0
364,463,0,0,0,0,0,0,0,0,0,-1,1588,561,0,0
371,463,1.75842,0.152588,0,0,0,0,0,0,0,-1,1595,561,1.75844,-0.152558
378,463,4.58813,-0.0444336,0,0,0,0,0,0,0,-1,1602,561,4.58809,0.0444505
385,463,8.88574,1.65057,0,0,0,0,0,0,0,-1,1609,561,8.88575,-1.65055
392,463,14.0912,2.50513,0,0,0,0,0,0,0,-1,1616,561,14.0912,-2.5051
399,463,21.4769,2.7002,0,0,0,0,0,0,0,-1,1623,561,21.477,-2.70017
406,463,26.2987,4.32318,0,0,0,0,0,0,0,-1,1630,561,26.2987,-4.3232
413,463,26.5011,2.65222,0,0,0,0,0,0,0,-1,1637,561,26.5011,-2.65224
420,463,8.849,2.26611,0,0,0,0,0,0,0,-1,1644,561,8.84899,-2.26613
427,463,5.12207,1.69183,0,0,0,0,0,0,0,-1,1651,561,5.12206,-1.69184
434,463,4.59814,1.81995,0,0,0,0,0,0,0,-1,1658,561,4.59812,-1.81994
441,463,1.76392,-5.99225,0,0,0,0,0,0,0,-1,1665,561,1.7639,5.99225
448,463,2.49939,-4.30536,0,0,0,0,0,0,0,-1,1672,561,2.49941,4.30536
455,463,4.40295,-3.02557,0,0,0,0,0,0,0,-1,1679,561,4.40299,3.02558
462,463,5.38293,-4.06445,0,0,0,0,0,0,0,-1,1686,561,5.38289,4.06444
469,463,5.94373,-4.50647,0,0,0,0,0,0,0,-1,1693,561,5.94368,4.50646
476,463,15.2559,-17.3189,0,0,0,0,0,0,0,-1,1700,561,15.2558,17.3189
483,463,25.4071,-30.4959,0,0,0,0,0,0,0,-1,1707,561,25.4071,30.4959
490,463,25.4237,-29.466,0.00135485,2.19232e-06,-0.000390564,0.00145952,-0.000102479,-0.261847,0.00100891,0.0333352,1714,561,25.4237,29.466
497,463,25.335,-28.4565,0.00150498,0.000727854,0.000279708,0.00159518,0.00063765,0.311964,0.000927129,0.0158176,1721,561,25.335,28.4565
504,463,25.3101,-27.5777,0.00146955,0.000873326,0.000637862,0.00187553,0.000467352,0.566798,0.00112734,0.0164615,1728,561,25.3101,27.5777
511,463,25.2885,-26.7078,0.00135203,0.00097106,0.000923712,0.00210469,0.000218396,0.683716,0.00133629,0.0233059,1735,561,25.2885,26.7079
518,463,25.2522,-25.7514,0.001158,0.00111336,0.001166,0.00230189,-3.05322e-05,0.775829,0.00154487,0.0242558,1742,561,25.2521,25.7514
525,463,25.1411,-24.8254,0.000937839,0.00133639,0.00133499,0.00248689,-0.00021266,0.859488,0.00173317,0.0193564,1749,561,25.1411,24.8255
532,463,25.115,-23.8483,0.000724628,0.00169982,0.00149276,0.0027826,-0.000358157,0.943255,0.00198525,0.0186343,1756,561,25.115,23.8483
539,463,24.999,-22.8817,0.000503612,0.00222364,0.00163867,0.00321427,-0.000487018,1.02705,0.00232227,0.0219566,1763,561,24.999,22.8816
546,463,24.926,-22.0164,0.000335449,0.00300889,0.00179261,0.0039083,-0.000563962,1.10576,0.00281243,0.0169276,1770,561,24.926,22.0164
553,463,24.9042,-21.0367,0.000237121,0.00398804,0.00200418,0.00485741,-0.00063225,1.16151,0.00346829,0.0114161,1777,561,24.9042,21.0367
560,463,24.8898,-19.9435,0.000319403,0.00521523,0.00230373,0.00612878,-0.000594146,1.19327,0.00429762,0.0240746,1784,561,24.8898,19.9435
567,463,24.6908,-19.0089,0.000461763,0.00663363,0.00273606,0.00767189,-0.000576503,1.20811,0.00531719,0.0402812,1791,561,24.6908,19.0089
574,463,24.8173,-18.0567,0,0,0,0,0,0,0,-1,1798,561,24.8173,18.0567
581,463,9.4939,-3.88245,0,0,0,0,0,0,0,-1,1805,561,9.49392,3.88245
588,463,1.97424,2.16016,0,0,0,0,0,0,0,-1,1812,561,1.97422,-2.16013
595,463,9.98657,2.99854,0,0,0,0,0,0,0,-1,1819,561,9.98662,-2.99856
602,463,17.2202,4.91302,0,0,0,0,0,0,0,-1,1826,561,17.2202,-4.91305
609,463,17.96,4.03131,0,0,0,0,0,0,0,-1,1833,561,17.96,-4.03132
616,463,20.8352,3.15131,0,0,0,0,0,0,0,-1,1840,561,20.8352,-3.1513
623,463,0,0,0,0,0,0,0,0,0,-1,1847,561,0,0
630,463,0,0,0,0,0,0,0,0,0,-1,1854,561,0,0
637,463,0,0,0,0,0,0,0,0,0,-1,1861,561,0,0
644,463,0,0,0,0,0,0,0,0,0,-1,1868,561,0,0
651,463,0,0,0,0,0,0,0,0,0,-1,1875,561,0,0
658,463,0,0,0,0,0,0,0,0,0,-1,1882,561,0,0
665,463,0,0,0,0,0,0,0,0,0,-1,1889,561,0,0
672,463,0,0,0,0,0,0,0,0,0,-1,1896,561,0,0
679,463,0,0,0,0,0,0,0,0,0,-1,1903,561,0,0
686,463,0,0,0,0,0,0,0,0,0,-1,1910,561,0,0
693,463,0,0,0,0,0,0,0,0,0,-1,1917,561,0,0
700,463,0,0,0,0,0,0,0,0,0,-1,1924,561,0,0
707,463,0,0,0,0,0,0,0,0,0,-1,1931,561,0,0
714,463,0,0,0,0,0,0,0,0,0,-1,1938,561,0,0
721,463,0,0,0,0,0,0,0,0,0,-1,1945,561,0,0
728,463,0,0,0,0,0,0,0,0,0,-1,1952,561,0,0
735,463,0,0,0,0,0,0,0,0,0,-1,1959,561,0,0
742,463,0,0,0,0,0,0,0,0,0,-1,1966,561,0,0
749,463,0,0,0,0,0,0,0,0,0,-1,1973,561,0,0
756,463,0,0,0,0,0,0,0,0,0,-1,1980,561,0,0
763,463,0,0,0,0,0,0,0,0,0,-1,1987,561,0,0
770,463,0,0,0,0,0,0,0,0,0,-1,1994,561,0,0
777,463,0,0,0,0,0,0,0,0,0,-1,2001,561,0,0
784,463,0,0,0,0,0,0,0,0,0,-1,2008,561,0,0
791,463,0,0,0,0,0,0,0,0,0,-1,2015,561,0,0
798,463,0,0,0,0,0,0,0,0,0,-1,2022,561,0,0
805,463,0,0,0,0,0,0,0,0,0,-1,2029,561,0,0
812,463,0,0,0,0,0,0,0,0,0,-1,2036,561,0,0
-700,456,0,0,0,0,0,0,0,0,0,-1,524,568,0,0
-693,456,0,0,0,0,0,0,0,0,0,-1,531,568,0,0
-686,456,0,0,0,0,0,0,0,0,0,-1,538,568,0,0
-679,456,0,0,0,0,0,0,0,0,0,-1,545,568,0,0
-672,456,0,0,0,0,0,0,0,0,0,-1,552,568,0,0
-665,456,0,0,0,0,0,0,0,0,0,-1,559,568,0,0
-658,456,0,0,0,0,0,0,0,0,0,-1,566,568,0,0
-651,456,0,0,0,0,0,0,0,0,0,-1,573,568,0,0
-644,456,0,0,0,0,0,0,0,0,0,-1,580,568,0,0
-637,456,0,0,0,0,0,0,0,0,0,-1,587,568,0,0
-630,456,0,0,0,0,0,0,0,0,0,-1,594,568,0,0
-623,456,0,0,0,0,0,0,0,0,0,-1,601,568,0,0
-616,456,0,0,0,0,0,0,0,0,0,-1,608,568,0,0
-609,456,0,0,0,0,0,0,0,0,0,-1,615,568,0,0
-602,456,0,0,0,0,0,0,0,0,0,-1,622,568,0,0
-595,456,0,0,0,0,0,0,0,0,0,-1,629,568,0,0
-588,456,0,0,0,0,0,0,0,0,0,-1,636,568,0,0
-581,456,0,0,0,0,0,0,0,0,0,-1,643,568,0,0
-574,456,0,0,0,0,0,0,0,0,0,-1,650,568,0,0
-567,456,0,0,0,0,0,0,0,0,0,-1,657,568,0,0
-560,456,0,0,0,0,0,0,0,0,0,-1,664,568,0,0
-553,456,0,0,0,0,0,0,0,0,0,-1,671,568,0,0
-546,456,0,0,0,0,0,0,0,0,0,-1,678,568,0,0
-539,456,0,0,0,0,0,0,0,0,0,-1,685,568,0,0
-532,456,0,0,0,0,0,0,0,0,0,-1,692,568,0,0
-525,456,0,0,0,0,0,0,0,0,0,-1,699,568,0,0
-518,456,0,0,0,0,0,0,0,0,0,-1,706,568,0,0
-511,456,0,0,0,0,0,0,0,0,0,-1,713,568,0,0
-504,456,-10.3994,-2.34839,0,0,0,0,0,0,0,-1,720,568,-10.3994,2.3484
-497,456,-9.21375,-2.38068,0,0,0,0,0,0,0,-1,727,568,-9.21372,2.38069
-490,456,-8.09058,-2.31824,0,0,0,0,0,0,0,-1,734,568,-8.09057,2.31821
-483,456,-6.66119,-2.24329,0,0,0,0,0,0,0,-1,741,568,-6.66121,2.24331
-476,456,-5.1499,-2.21185,0,0,0,0,0,0,0,-1,748,568,-5.14992,2.21184
-469,456,-2.81238,-3.51501,0,0,0,0,0,0,0,-1,755,568,-2.81237,3.51501
-462,456,-4.2431,-5.27478,0,0,0,0,0,0,0,-1,762,568,-4.24312,5.27476
-455,456,-5.98364,-8.72119,0,0,0,0,0,0,0,-1,769,568,-5.98364,8.72122
-448,456,-8.57849,-16.2391,0,0,0,0,0,0,0,-1,776,568,-8.57846,16.2392
-441,456,-9.86017,-19.3571,0,0,0,0,0,0,0,-1,783,568,-9.86016,19.3571
-434,456,-9.79028,-20.4459,-0.000431264,0.00621531,-0.00149731,0.00653705,-0.000752999,-1.35914,0.00462949,0.024058,790,568,-9.7903,20.4459
-427,456,-9.83081,-21.3987,-2.83457e-05,0.00533502,-0.00164131,0.00579742,-0.000490754,-1.29618,0.00403849,0.0095145,797,568,-9.83081,21.3987
-420,456,-9.87543,-22.3452,0.000292092,0.00447406,-0.00170202,0.00507921,-0.000313049,-1.22919,0.00349516,0.0093205,804,568,-9.87543,22.3452
-413,456,-9.94232,-23.287,0.000513475,0.00351804,-0.0015856,0.00420002,-0.000168502,-1.16461,0.00285783,0.00986233,811,568,-9.9423,23.287
-406,456,-10.0316,-24.1944,0.000637759,0.00246753,-0.0012584,0.00310847,-3.17895e-06,-1.09971,0.00207337,0.0102259,818,568,-10.0316,24.1944
-399,456,-10.0858,-25.0998,0.000851798,0.00155193,-0.00093292,0.0021983,0.000205429,-0.964888,0.00140208,0.0118152,825,568,-10.0858,25.0998
-392,456,-10.1277,-26.0201,0.00118733,0.000694405,-0.000622699,0.00161056,0.000271167,-0.59696,0.000995705,0.0117118,832,568,-10.1278,26.0201
-385,456,-10.1915,-26.9441,0.00166391,-5.78855e-05,-0.000334596,0.00172664,-0.000120622,-0.185346,0.00119334,0.0114438,839,568,-10.1915,26.9441
-378,456,-10.2676,-27.8823,0.00223289,-0.00077126,-6.94289e-06,0.00223291,-0.000771276,-0.00231108,0.0018016,0.0119793,846,568,-10.2677,27.8823
-371,456,-10.3089,-28.7847,0.00291068,-0.00129118,0.000257264,0.00292637,-0.00130687,0.0609228,0.00250297,0.0122387,853,568,-10.3089,28.7847
-364,456,-10.3275,-29.6469,0.0036348,-0.00150781,0.000425279,0.00366973,-0.00154275,0.0819551,0.00309181,0.0218859,860,568,-10.3275,29.6469
-357,456,-10.3419,-30.604,0,0,0,0,0,0,0,-1,867,568,-10.3419,30.604
-350,456,-10.1882,-31.7378,0,0,0,0,0,0,0,-1,874,568,-10.1883,31.7378
-343,456,-3.39081,-12.0217,0,0,0,0,0,0,0,-1,881,568,-3.39078,12.0217
-336,456,-3.04517,-12.4623,0,0,0,0,0,0,0,-1,888,568,-3.04519,12.4624
-329,456,-1.06183,-10.7184,0,0,0,0,0,0,0,-1,895,568,-1.06184,10.7184
-322,456,-0.662537,-7.66632,0,0,0,0,0,0,0,-1,902,568,-0.662564,7.66633
-315,456,-0.675476,-3.38397,0,0,0,0,0,0,0,-1,909,568,-0.675473,3.38399
-308,456,-1.1618,-3.15314,0,0,0,0,0,0,0,-1,916,568,-1.16178,3.15314
-301,456,-1.83551,-3.26447,0,0,0,0,0,0,0,-1,923,568,-1.8355,3.26449
-294,456,-2.93414,-3.35449,0,0,0,0,0,0,0,-1,930,568,-2.93413,3.35451
-287,456,-3.7569,-3.53101,0,0,0,0,0,0,0,-1,937,568,-3.75692,3.53101
-280,456,-13.072,4.52856,0,0,0,0,0,0,0,-1,944,568,-13.072,-4.52855
-273,456,-8.26538,-6.66748,0,0,0,0,0,0,0,-1,951,568,-8.26536,6.66745
-266,456,-5.71527,-9.36884,0,0,0,0,0,0,0,-1,958,568,-5.71529,9.36885
-259,456,0,0,0,0,0,0,0,0,0,-1,965,568,0,0
-252,456,0,0,0,0,0,0,0,0,0,-1,972,568,0,0
-245,456,0,0,0,0,0,0,0,0,0,-1,979,568,0,0
-238,456,0,0,0,0,0,0,0,0,0,-1,986,568,0,0
-231,456,0,0,0,0,0,0,0,0,0,-1,993,568,0,0
-224,456,0,0,0,0,0,0,0,0,0,-1,1000,568,0,0
-217,456,0,0,0,0,0,0,0,0,0,-1,1007,568,0,0
-210,456,0,0,0,0,0,0,0,0,0,-1,1014,568,0,0
-203,456,0,0,0,0,0,0,0,0,0,-1,1021,568,0,0
-196,456,0,0,0,0,0,0,0,0,0,-1,1028,568,0,0
-189,456,0,0,0,0,0,0,0,0,0,-1,1035,568,0,0
-182,456,0,0,0,0,0,0,0,0,0,-1,1042,568,0,0
-175,456,0,0,0,0,0,0,0,0,0,-1,1049,568,0,0
-168,456,0,0,0,0,0,0,0,0,0,-1,1056,568,0,0
-161,456,0,0,0,0,0,0,0,0,0,-1,1063,568,0,0
-154,456,0,0,0,0,0,0,0,0,0,-1,1070,568,0,0
-147,456,0,0,0,0,0,0,0,0,0,-1,1077,568,0,0
-140,456,0,0,0,0,0,0,0,0,0,-1,1084,568,0,0
-133,456,0,0,0,0,0,0,0,0,0,-1,1091,568,0,0
-126,456,0,0,0,0,0,0,0,0,0,-1,1098,568,0,0
-119,456,0,0,0,0,0,0,0,0,0,-1,1105,568,0,0
-112,456,0,0,0,0,0,0,0,0,0,-1,1112,568,0,0
-105,456,0,0,0,0,0,0,0,0,0,-1,1119,568,0,0
-98,456,0,0,0,0,0,0,0,0,0,-1,1126,568,0,0
-91,456,0,0,0,0,0,0,0,0,0,-1,1133,568,0,0
-84,456,0,0,0,0,0,0,0,0,0,-1,1140,568,0,0
-77,456,0,0,0,0,0,0,0,0,0,-1,1147,568,0,0
-70,456,0,0,0,0,0,0,0,0,0,-1,1154,568,0,0
-63,456,0,0,0,0,0,0,0,0,0,-1,1161,568,0,0
-56,456,0,0,0,0,0,0,0,0,0,-1,1168,568,0,0
-49,456,0,0,0,0,0,0,0,0,0,-1,1175,568,0,0
-42,456,0,0,0,0,0,0,0,0,0,-1,1182,568,0,0
-35,456,0,0,0,0,0,0,0,0,0,-1,1189,568,0,0
-28,456,0,0,0,0,0,0,0,0,0,-1,1196,568,0,0
-21,456,0,0,0,0,0,0,0,0,0,-1,1203,568,0,0
-14,456,0,0,0,0,0,0,0,0,0,-1,1210,568,0,0
-7,456,0,0,0,0,0,0,0,0,0,-1,1217,568,0,0
0,456,0,0,0,0,0,0,0,0,0,-1,1224,568,0,0
7,456,0,0,0,0,0,0,0,0,0,-1,1231,568,0,0
14,456,0,0,0,0,0,0,0,0,0,-1,1238,568,0,0
21,456,0,0,0,0,0,0,0,0,0,-1,1245,568,0,0
28,456,0,0,0,0,0,0,0,0,0,-1,1252,568,0,0
35,456,0,0,0,0,0,0,0,0,0,-1,1259,568,0,0
42,456,0,0,0,0,0,0,0,0,0,-1,1266,568,0,0
49,456,0,0,0,0,0,0,0,0,0,-1,1273,568,0,0
56,456,0,0,0,0,0,0,0,0,0,-1,1280,568,0,0
63,456,0,0,0,0,0,0,0,0,0,-1,1287,568,0,0
70,456,0,0,0,0,0,0,0,0,0,-1,1294,568,0,0
77,456,0,0,0,0,0,0,0,0,0,-1,1301,568,0,0
84,456,0,0,0,0,0,0,0,0,0,-1,1308,568,0,0
91,456,0,0,0,0,0,0,0,0,0,-1,1315,568,0,0
98,456,0,0,0,0,0,0,0,0,0,-1,1322,568,0,0
105,456,0,0,0,0,0,0,0,0,0,-1,1329,568,0,0
112,456,0,0,0,0,0,0,0,0,0,-1,1336,568,0,0
119,456,0,0,0,0,0,0,0,0,0,-1,1343,568,0,0
126,456,0,0,0,0,0,0,0,0,0,-1,1350,568,0,0
133,456,0,0,0,0,0,0,0,0,0,-1,1357,568,0,0
140,456,0,0,0,0,0,0,0,0,0,-1,1364,568,0,0
147,456,0,0,0,0,0,0,0,0,0,-1,1371,568,0,0
154,456,0,0,0,0,0,0,0,0,0,-1,1378,568,0,0
161,456,0,0,0,0,0,0,0,0,0,-1,1385,568,0,0
168,456,0,0,0,0,0,0,0,0,0,-1,1392,568,0,0
175,456,0,0,0,0,0,0,0,0,0,-1,1399,568,0,0
182,456,0,0,0,0,0,0,0,0,0,-1,1406,568,0,0
189,456,0,0,0,0,0,0,0,0,0,-1,1413,568,0,0
196,456,0,0,0,0,0,0,0,0,0,-1,1420,568,0,0
203,456,0,0,0,0,0,0,0,0,0,-1,1427,568,0,0
210,456,0,0,0,0,0,0,0,0,0,-1,1434,568,0,0
217,456,0,0,0,0,0,0,0,0,0,-1,1441,568,0,0
224,456,0,0,0,0,0,0,0,0,0,-1,1448,568,0,0
231,456,0,0,0,0,0,0,0,0,0,-1,1455,568,0,0
238,456,0,0,0,0,0,0,0,0,0,-1,1462,568,0,0
245,456,0,0,0,0,0,0,0,0,0,-1,1469,568,0,0
252,456,0,0,0,0,0,0,0,0,0,-1,1476,568,0,0
259,456,0,0,0,0,0,0,0,0,0,-1,1483,568,0,0
266,456,0,0,0,0,0,0,0,0,0,-1,1490,568,0,0
273,456,0,0,0,0,0,0,0,0,0,-1,1497,568,0,0
280,456,0,0,0,0,0,0,0,0,0,-1,1504,568,0,0
287,456,0,0,0,0,0,0,0,0,0,-1,1511,568,0,0
294,456,0,0,0,0,0,0,0,0,0,-1,1518,568,0,0
301,456,0,0,0,0,0,0,0,0,0,-1,1525,568,0,0
308,456,0,0,0,0,0,0,0,0,0,-1,1532,568,0,0
315,456,0,0,0,0,0,0,0,0,0,-1,1539,568,0,0
322,456,0,0,0,0,0,0,0,0,0,-1,1546,568,0,0
329,456,0,0,0,0,0,0,0,0,0,-1,1553,568,0,0
336,456,0,0,0,0,0,0,0,0,0,-1,1560,568,0,0
343,456,0,0,0,0,0,0,0,0,0,-1,1567,568,0,0
350,456,0,0,0,0,0,0,0,0,0,-1,1574,568,0,0
357,456,0,0,0,0,0,0,0,0,0,-1,1581,568,0,0
364,456,0,0,0,0,0,0,0,0,0,-1,1588,568,0,0
371,456,0,0,0,0,0,0,0,0,0,-1,1595,568,0,0
378,456,0,0,0,0,0,0,0,0,0,-1,1602,568,0,0
385,456,5.66284,0.660645,0,0,0,0,0,0,0,-1,1609,568,5.66285,-0.660615
392,456,17.5027,4.32971,0,0,0,0,0,0,0,-1,1616,568,17.5026,-4.32971
399,456,24.1917,5.99652,0,0,0,0,0,0,0,-1,1623,568,24.1916,-5.99651
406,456,24.446,4.53003,0,0,0,0,0,0,0,-1,1630,568,24.446,-4.53005
413,456,24.9418,2.90521,0,0,0,0,0,0,0,-1,1637,568,24.9418,-2.90524
420,456,25.3048,1.04712,0,0,0,0,0,0,0,-1,1644,568,25.3048,-1.04713
427,456,6.21375,2.02905,0,0,0,0,0,0,0,-1,1651,568,6.21372,-2.02904
434,456,3.0719,-4.86285,0,0,0,0,0,0,0,-1,1658,568,3.07184,4.86287
441,456,2.90344,-4.70459,0,0,0,0,0,0,0,-1,1665,568,2.90346,4.7046
448,456,3.06995,-4.93689,0,0,0,0,0,0,0,-1,1672,568,3.06991,4.93687
455,456,3.46582,-3.43701,0,0,0,0,0,0,0,-1,1679,568,3.46585,3.43698
462,456,4.68445,-4.45831,0,0,0,0,0,0,0,-1,1686,568,4.68439,4.45833
469,456,4.93201,-2.289,0,0,0,0,0,0,0,-1,1693,568,4.93197,2.28903
476,456,4.8363,-2.79364,0,0,0,0,0,0,0,-1,1700,568,4.83636,2.79363
483,456,12.8522,-13.692,0,0,0,0,0,0,0,-1,1707,568,12.8522,13.6919
490,456,26.1909,-29.7545,0,0,0,0,0,0,0,-1,1714,568,26.191,29.7545
497,456,26.2288,-28.4316,0,0,0,0,0,0,0,-1,1721,568,26.2288,28.4317
504,456,26.1714,-27.501,0.00198241,0.00111824,0.000801825,0.00246116,0.000639489,0.538265,0.00147458,0.0170223,1728,568,26.1714,27.501
511,456,26.1923,-26.5901,0.00172031,0.00100767,0.000987382,0.0024137,0.000314281,0.612234,0.00151528,0.0153217,1735,568,26.1923,26.5901
518,456,26.1595,-25.6757,0.00143411,0.000966479,0.00117484,0.00239817,2.41573e-06,0.687172,0.00159798,0.0178787,1742,568,26.1595,25.6757
525,456,26.0603,-24.7612,0.00110813,0.0010691,0.00127822,0.00236698,-0.000189757,0.777764,0.00164489,0.0170136,1749,568,26.0603,24.7612
532,456,26.0276,-23.7714,0.00082339,0.00132824,0.00137189,0.00247073,-0.000319102,0.876379,0.00176317,0.0187049,1756,568,26.0276,23.7714
539,456,25.9399,-22.796,0.000591014,0.00175657,0.0014761,0.00276077,-0.000413189,0.97341,0.00199258,0.0281137,1763,568,25.9399,22.7959
546,456,25.8145,-21.8875,0.000447357,0.00241454,0.00158524,0.00329654,-0.000434648,1.06306,0.00235598,0.0311961,1770,568,25.8144,21.8875
553,456,25.746,-20.9054,0.0003706,0.00326521,0.00176218,0.00409824,-0.000462436,1.1292,0.00289863,0.0155863,1777,568,25.7459,20.9054
560,456,25.7418,-20.0071,0.00046261,0.00433161,0.00206515,0.0052268,-0.00043258,1.16177,0.00363731,0.0109998,1784,568,25.7418,20.0071
567,456,25.6967,-19.0554,0.000742223,0.00564743,0.00256726,0.00674533,-0.000355677,1.16668,0.00462001,0.0223207,1791,568,25.6967,19.0554
574,456,25.6627,-18.1124,0,0,0,0,0,0,0,-1,1798,568,25.6627,18.1124
581,456,16.2228,-9.08563,0,0,0,0,0,0,0,-1,1805,568,16.2228,9.08562
588,456,5.23901,-0.0901489,0,0,0,0,0,0,0,-1,1812,568,5.23906,0.0901656
595,456,6.90063,3.14886,0,0,0,0,0,0,0,-1,1819,568,6.90066,-3.14887
602,456,16.894,4.10938,0,0,0,0,0,0,0,-1,1826,568,16.8941,-4.1094
609,456,14.9966,3.5708,0,0,0,0,0,0,0,-1,1833,568,14.9966,-3.57083
616,456,17.7407,2.6579,0,0,0,0,0,0,0,-1,1840,568,17.7408,-2.6579
623,456,20.6838,1.7121,0,0,0,0,0,0,0,-1,1847,568,20.6838,-1.71208
630,456,0,0,0,0,0,0,0,0,0,-1,1854,568,0,0
637,456,0,0,0,0,0,0,0,0,0,-1,1861,568,0,0
644,456,0,0,0,0,0,0,0,0,0,-1,1868,568,0,0
651,456,0,0,0,0,0,0,0,0,0,-1,1875,568,0,0
658,456,0,0,0,0,0,0,0,0,0,-1,1882,568,0,0
665,456,0,0,0,0,0,0,0,0,0,-1,1889,568,0,0
672,456,0,0,0,0,0,0,0,0,0,-1,1896,568,0,0
679,456,0,0,0,0,0,0,0,0,0,-1,1903,568,0,0
686,456,0,0,0,0,0,0,0,0,0,-1,1910,568,0,0
693,456,0,0,0,0,0,0,0,0,0,-1,1917,568,0,0
700,456,0,0,0,0,0,0,0,0,0,-1,1924,568,0,0
707,456,0,0,0,0,0,0,0,0,0,-1,1931,568,0,0
714,456,0,0,0,0,0,0,0,0,0,-1,1938,568,0,0
721,456,0,0,0,0,0,0,0,0,0,-1,1945,568,0,0
728,456,0,0,0,0,0,0,0,0,0,-1,1952,568,0,0
735,456,0,0,0,0,0,0,0,0,0,-1,1959,568,0,0
742,456,0,0,0,0,0,0,0,0,0,-1,1966,568,0,0
749,456,0,0,0,0,0,0,0,0,0,-1,1973,568,0,0
756,456,0,0,0,0,0,0,0,0,0,-1,1980,568,0,0
763,456,0,0,0,0,0,0,0,0,0,-1,1987,568,0,0
770,456,0,0,0,0,0,0,0,0,0,-1,1994,568,0,0
777,456,0,0,0,0,0,0,0,0,0,-1,2001,568,0,0
784,456,0,0,0,0,0,0,0,0,0,-1,2008,568,0,0
791,456,0,0,0,0,0,0,0,0,0,-1,2015,568,0,0
798,456,0,0,0,0,0,0,0,0,0,-1,2022,568,0,0
805,456,0,0,0,0,0,0,0,0,0,-1,2029,568,0,0
812,456,0,0,0,0,0,0,0,0,0,-1,2036,568,0,0
-700,449,0,0,0,0,0,0,0,0,0,-1,524,575,0,0
-693,449,0,0,0,0,0,0,0,0,0,-1,531,575,0,0
-686,449,0,0,0,0,0,0,0,0,0,-1,538,575,0,0
-679,449,0,0,0,0,0,0,0,0,0,-1,545,575,0,0
-672,449,0,0,0,0,0,0,0,0,0,-1,552,575,0,0
-665,449,0,0,0,0,0,0,0,0,0,-1,559,575,0,0
-658,449,0,0,0,0,0,0,0,0,0,-1,566,575,0,0
-651,449,0,0,0,0,0,0,0,0,0,-1,573,575,0,0
-644,449,0,0,0,0,0,0,0,0,0,-1,580,575,0,0
-637,449,0,0,0,0,0,0,0,0,0,-1,587,575,0,0
-630,449,0,0,0,0,0,0,0,0,0,-1,594,575,0,0
-623,449,0,0,0,0,0,0,0,0,0,-1,601,575,0,0
-616,449,0,0,0,0,0,0,0,0,0,-1,608,575,0,0
-609,449,0,0,0,0,0,0,0,0,0,-1,615,575,0,0
-602,449,0,0,0,0,0,0,0,0,0,-1,622,575,0,0
-595,449,0,0,0,0,0,0,0,0,0,-1,629,575,0,0
-588,449,0,0,0,0,0,0,0,0,0,-1,636,575,0,0
-581,449,0,0,0,0,0,0,0,0,0,-1,643,575,0,0
-574,449,0,0,0,0,0,0,0,0,0,-1,650,575,0,0
-567,449,0,0,0,0,0,0,0,0,0,-1,657,575,0,0
-560,449,0,0,0,0,0,0,0,0,0,-1,664,575,0,0
-553,449,0,0,0,0,0,0,0,0,0,-1,671,575,0,0
-546,449,0,0,0,0,0,0,0,0,0,-1,678,575,0,0
-539,449,0,0,0,0,0,0,0,0,0,-1,685,575,0,0
-532,449,0,0,0,0,0,0,0,0,0,-1,692,575,0,0
-525,449,0,0,0,0,0,0,0,0,0,-1,699,575,0,0
-518,449,0,0,0,0,0,0,0,0,0,-1,706,575,0,0
-511,449,-0.941345,-4.4519,0,0,0,0,0,0,0,-1,713,575,-0.941356,4.45191
-504,449,-14.1078,0.318237,0,0,0,0,0,0,0,-1,720,575,-14.1078,-0.318231
-497,449,-8.61292,-3.09009,0,0,0,0,0,0,0,-1,727,575,-8.61291,3.09011
-490,449,-7.50995,-2.96252,0,0,0,0,0,0,0,-1,734,575,-7.50995,2.96251
-483,449,-5.77789,-2.50061,0,0,0,0,0,0,0,-1,741,575,-5.77792,2.50059
-476,449,-4.1723,-2.07739,0,0,0,0,0,0,0,-1,748,575,-4.17228,2.0774
-469,449,-5.0976,-5.78448,0,0,0,0,0,0,0,-1,755,575,-5.09758,5.78451
-462,449,-6.54181,-9.54535,0,0,0,0,0,0,0,-1,762,575,-6.54178,9.54536
-455,449,-8.67291,-13.2226,0,0,0,0,0,0,0,-1,769,575,-8.67289,13.2226
-448,449,-10.5417,-18.4213,0,0,0,0,0,0,0,-1,776,575,-10.5418,18.4213
-441,449,-10.5958,-19.5275,-0.0011625,0.00517916,-0.000662725,0.00524767,-0.00123101,-1.46778,0.00397287,0.0265377,783,575,-10.5958,19.5274
-434,449,-10.732,-20.406,-0.00040807,0.004518,-0.00104708,0.00473133,-0.000621399,-1.36981,0.00338044,0.0151139,790,575,-10.732,20.406
-427,449,-10.7845,-21.331,8.61216e-05,0.00383912,-0.00121373,0.00419744,-0.000272195,-1.28373,0.00289329,0.0144087,797,575,-10.7845,21.331
-420,449,-10.8259,-22.2836,0.000497956,0.00318416,-0.00131081,0.0037178,-3.56794e-05,-1.18418,0.00249051,0.0139974,804,575,-10.8259,22.2836
-413,449,-10.877,-23.2151,0.000781647,0.00242271,-0.00123434,0.00308436,0.000119999,-1.07874,0.00201743,0.0118447,811,575,-10.877,23.2152
-406,449,-10.9568,-24.1406,0.000955922,0.00156786,-0.000965918,0.00227511,0.000248671,-0.938781,0.00144102,0.0106529,818,575,-10.9568,24.1406
-399,449,-11.0208,-25.056,0.00122525,0.000835309,-0.000720925,0.0017771,0.000283455,-0.653335,0.00110246,0.00945303,825,575,-11.0208,25.056
-392,449,-11.0656,-25.9734,0.00159459,0.000129555,-0.000479838,0.00173776,-1.36131e-05,-0.289959,0.00116307,0.0104726,832,575,-11.0656,25.9734
-385,449,-11.1074,-26.8836,0.00210079,-0.00051116,-0.000245881,0.00212374,-0.000534105,-0.0930476,0.00162342,0.0113593,839,575,-11.1074,26.8836
-378,449,-11.183,-27.7913,0.00274987,-0.00109732,7.48626e-06,0.00274988,-0.00109733,0.0019459,0.00228847,0.0107758,846,575,-11.183,27.7913
-371,449,-11.2023,-28.7003,0.00356327,-0.00145296,0.000213315,0.00357233,-0.00146201,0.0424229,0.00299049,0.0183647,853,575,-11.2023,28.7003
-364,449,-11.1138,-29.6316,0,0,0,0,0,0,0,-1,860,575,-11.1138,29.6316
-357,449,-5.88049,-15.8704,0,0,0,0,0,0,0,-1,867,575,-5.88051,15.8704
-350,449,-2.8764,-9.90204,0,0,0,0,0,0,0,-1,874,575,-2.87638,9.90203
-343,449,-2.98492,-9.2254,0,0,0,0,0,0,0,-1,881,575,-2.98491,9.22541
-336,449,-1.29523,-9.54626,0,0,0,0,0,0,0,-1,888,575,-1.29525,9.54626
-329,449,-0.733398,-7.78937,0,0,0,0,0,0,0,-1,895,575,-0.733398,7.78937
-322,449,-0.628845,-3.16669,0,0,0,0,0,0,0,-1,902,575,-0.628861,3.16667
-315,449,-0.540344,-3.21918,0,0,0,0,0,0,0,-1,909,575,-0.540336,3.21917
-308,449,-1.04413,-2.99341,0,0,0,0,0,0,0,-1,916,575,-1.04415,2.99338
-301,449,-1.58691,-2.80725,0,0,0,0,0,0,0,-1,923,575,-1.58692,2.80728
-294,449,-3.71118,-2.76086,0,0,0,0,0,0,0,-1,930,575,-3.71119,2.76087
-287,449,-4.4082,-2.69525,0,0,0,0,0,0,0,-1,937,575,-4.40822,2.69526
-280,449,0.723999,-14.2697,0,0,0,0,0,0,0,-1,944,575,0.723977,14.2696
-273,449,0,0,0,0,0,0,0,0,0,-1,951,575,0,0
-266,449,0,0,0,0,0,0,0,0,0,-1,958,575,0,0
-259,449,0,0,0,0,0,0,0,0,0,-1,965,575,0,0
-252,449,0,0,0,0,0,0,0,0,0,-1,972,575,0,0
-245,449,0,0,0,0,0,0,0,0,0,-1,979,575,0,0
-238,449,0,0,0,0,0,0,0,0,0,-1,986,575,0,0
-231,449,0,0,0,0,0,0,0,0,0,-1,993,575,0,0
-224,449,0,0,0,0,0,0,0,0,0,-1,1000,575,0,0
-217,449,0,0,0,0,0,0,0,0,0,-1,1007,575,0,0
-210,449,0,0,0,0,0,0,0,0,0,-1,1014,575,0,0
-203,449,0,0,0,0,0,0,0,0,0,-1,1021,575,0,0
-196,449,0,0,0,0,0,0,0,0,0,-1,1028,575,0,0
-189,449,0,0,0,0,0,0,0,0,0,-1,1035,575,0,0
-182,449,0,0,0,0,0,0,0,0,0,-1,1042,575,0,0
-175,449,0,0,0,0,0,0,0,0,0,-1,1049,575,0,0
-168,449,0,0,0,0,0,0,0,0,0,-1,1056,575,0,0
-161,449,0,0,0,0,0,0,0,0,0,-1,1063,575,0,0
-154,449,0,0,0,0,0,0,0,0,0,-1,1070,575,0,0
-147,449,0,0,0,0,0,0,0,0,0,-1,1077,575,0,0
-140,449,0,0,0,0,0,0,0,0,0,-1,1084,575,0,0
-133,449,0,0,0,0,0,0,0,0,0,-1,1091,575,0,0
-126,449,0,0,0,0,0,0,0,0,0,-1,1098,575,0,0
-119,449,0,0,0,0,0,0,0,0,0,-1,1105,575,0,0
-112,449,0,0,0,0,0,0,0,0,0,-1,1112,575,0,0
-105,449,0,0,0,0,0,0,0,0,0,-1,1119,575,0,0
-98,449,0,0,0,0,0,0,0,0,0,-1,1126,575,0,0
-91,449,0,0,0,0,0,0,0,0,0,-1,1133,575,0,0
-84,449,0,0,0,0,0,0,0,0,0,-1,1140,575,0,0
-77,449,0,0,0,0,0,0,0,0,0,-1,1147,575,0,0
-70,449,0,0,0,0,0,0,0,0,0,-1,1154,575,0,0
-63,449,0,0,0,0,0,0,0,0,0,-1,1161,575,0,0
-56,449,0,0,0,0,0,0,0,0,0,-1,1168,575,0,0
-49,449,0,0,0,0,0,0,0,0,0,-1,1175,575,0,0
-42,449,0,0,0,0,0,0,0,0,0,-1,1182,575,0,0
-35,449,0,0,0,0,0,0,0,0,0,-1,1189,575,0,0
-28,449,0,0,0,0,0,0,0,0,0,-1,1196,575,0,0
-21,449,0,0,0,0,0,0,0,0,0,-1,1203,575,0,0
-14,449,0,0,0,0,0,0,0,0,0,-1,1210,575,0,0
-7,449,0,0,0,0,0,0,0,0,0,-1,1217,575,0,0
0,449,0,0,0,0,0,0,0,0,0,-1,1224,575,0,0
7,449,0,0,0,0,0,0,0,0,0,-1,1231,575,0,0
14,449,0,0,0,0,0,0,0,0,0,-1,1238,575,0,0
21,449,0,0,0,0,0,0,0,0,0,-1,1245,575,0,0
28,449,0,0,0,0,0,0,0,0,0,-1,1252,575,0,0
35,449,0,0,0,0,0,0,0,0,0,-1,1259,575,0,0
42,449,0,0,0,0,0,0,0,0,0,-1,1266,575,0,0
49,449,0,0,0,0,0,0,0,0,0,-1,1273,575,0,0
56,449,0,0,0,0,0,0,0,0,0,-1,1280,575,0,0
63,449,0,0,0,0,0,0,0,0,0,-1,1287,575,0,0
70,449,0,0,0,0,0,0,0,0,0,-1,1294,575,0,0
77,449,0,0,0,0,0,0,0,0,0,-1,1301,575,0,0
84,449,0,0,0,0,0,0,0,0,0,-1,1308,575,0,0
91,449,0,0,0,0,0,0,0,0,0,-1,1315,575,0,0
98,449,0,0,0,0,0,0,0,0,0,-1,1322,575,0,0
105,449,0,0,0,0,0,0,0,0,0,-1,1329,575,0,0
112,449,0,0,0,0,0,0,0,0,0,-1,1336,575,0,0
119,449,0,0,0,0,0,0,0,0,0,-1,1343,575,0,0
126,449,0,0,0,0,0,0,0,0,0,-1,1350,575,0,0
133,449,0,0,0,0,0,0,0,0,0,-1,1357,575,0,0
140,449,0,0,0,0,0,0,0,0,0,-1,1364,575,0,0
147,449,0,0,0,0,0,0,0,0,0,-1,1371,575,0,0
154,449,0,0,0,0,0,0,0,0,0,-1,1378,575,0,0
161,449,0,0,0,0,0,0,0,0,0,-1,1385,575,0,0
168,449,0,0,0,0,0,0,0,0,0,-1,1392,575,0,0
175,449,0,0,0,0,0,0,0,0,0,-1,1399,575,0,0
182,449,0,0,0,0,0,0,0,0,0,-1,1406,575,0,0
189,449,0,0,0,0,0,0,0,0,0,-1,1413,575,0,0
196,449,0,0,0,0,0,0,0,0,0,-1,1420,575,0,0
203,449,0,0,0,0,0,0,0,0,0,-1,1427,575,0,0
210,449,0,0,0,0,0,0,0,0,0,-1,1434,575,0,0
217,449,0,0,0,0,0,0,0,0,0,-1,1441,575,0,0
224,449,0,0,0,0,0,0,0,0,0,-1,1448,575,0,0
231,449,0,0,0,0,0,0,0,0,0,-1,1455,575,0,0
238,449,0,0,0,0,0,0,0,0,0,-1,1462,575,0,0
245,449,0,0,0,0,0,0,0,0,0,-1,1469,575,0,0
252,449,0,0,0,0,0,0,0,0,0,-1,1476,575,0,0
259,449,0,0,0,0,0,0,0,0,0,-1,1483,575,0,0
266,449,0,0,0,0,0,0,0,0,0,-1,1490,575,0,0
273,449,0,0,0,0,0,0,0,0,0,-1,1497,575,0,0
280,449,0,0,0,0,0,0,0,0,0,-1,1504,575,0,0
287,449,0,0,0,0,0,0,0,0,0,-1,1511,575,0,0
294,449,0,0,0,0,0,0,0,0,0,-1,1518,575,0,0
301,449,0,0,0,0,0,0,0,0,0,-1,1525,575,0,0
308,449,0,0,0,0,0,0,0,0,0,-1,1532,575,0,0
315,449,0,0,0,0,0,0,0,0,0,-1,1539,575,0,0
322,449,0,0,0,0,0,0,0,0,0,-1,1546,575,0,0
329,449,0,0,0,0,0,0,0,0,0,-1,1553,575,0,0
336,449,0,0,0,0,0,0,0,0,0,-1,1560,575,0,0
343,449,0,0,0,0,0,0,0,0,0,-1,1567,575,0,0
350,449,0,0,0,0,0,0,0,0,0,-1,1574,575,0,0
357,449,0,0,0,0,0,0,0,0,0,-1,1581,575,0,0
364,449,0,0,0,0,0,0,0,0,0,-1,1588,575,0,0
371,449,0,0,0,0,0,0,0,0,0,-1,1595,575,0,0
378,449,0,0,0,0,0,0,0,0,0,-1,1602,575,0,0
385,449,0,0,0,0,0,0,0,0,0,-1,1609,575,0,0
392,449,7.95471,3.66217,0,0,0,0,0,0,0,-1,1616,575,7.95471,-3.66218
399,449,19.9791,5.565,0,0,0,0,0,0,0,-1,1623,575,19.9791,-5.56499
406,449,24.9847,4.55969,0,0,0,0,0,0,0,-1,1630,575,24.9848,-4.55968
413,449,30.4159,3.15027,0,0,0,0,0,0,0,-1,1637,575,30.4159,-3.15028
420,449,23.9675,1.29718,0,0,0,0,0,0,0,-1,1644,575,23.9675,-1.29721
427,449,24.4276,-0.596558,0,0,0,0,0,0,0,-1,1651,575,24.4277,0.596569
434,449,25.61,-2.96594,0,0,0,0,0,0,0,-1,1658,575,25.61,2.96595
441,449,3.89856,-6.06458,0,0,0,0,0,0,0,-1,1665,575,3.89855,6.06459
448,449,4.03198,-5.18207,0,0,0,0,0,0,0,-1,1672,575,4.03197,5.18207
455,449,4.21948,-4.09467,0,0,0,0,0,0,0,-1,1679,575,4.21952,4.09465
462,449,4.23181,-2.96924,0,0,0,0,0,0,0,-1,1686,575,4.23185,2.96926
469,449,4.51672,-2.95135,0,0,0,0,0,0,0,-1,1693,575,4.51672,2.95135
476,449,4.71838,-1.86688,0,0,0,0,0,0,0,-1,1700,575,4.71842,1.86689
483,449,4.87878,-1.73126,0,0,0,0,0,0,0,-1,1707,575,4.87875,1.73128
490,449,5.73279,-2.74573,0,0,0,0,0,0,0,-1,1714,575,5.73282,2.74575
497,449,17.2095,-16.4381,0,0,0,0,0,0,0,-1,1721,575,17.2094,16.4381
504,449,26.9985,-27.4813,0,0,0,0,0,0,0,-1,1728,575,26.9985,27.4812
511,449,27.084,-26.517,0.00240855,0.00116955,0.00122274,0.00315977,0.000418335,0.550922,0.00198184,0.0178331,1735,575,27.084,26.5169
518,449,27.0657,-25.6287,0.00202277,0.00094603,0.00135216,0.0029398,2.89994e-05,0.595941,0.00195027,0.0140873,1742,575,27.0657,25.6287
525,449,26.9792,-24.6862,0.00157125,0.000943215,0.00137173,0.00266445,-0.000149986,0.672877,0.00182835,0.014162,1749,575,26.9793,24.6861
532,449,26.8885,-23.7191,0.00118549,0.00110698,0.00137692,0.00252372,-0.000231246,0.771146,0.00176462,0.0128392,1756,575,26.8886,23.7191
539,449,26.8125,-22.7937,0.000905629,0.00144159,0.00141393,0.00261271,-0.000265488,0.879052,0.00183671,0.0190175,1763,575,26.8125,22.7937
546,449,26.7405,-21.7892,0.000731281,0.00196981,0.00144944,0.00292673,-0.000225642,0.987283,0.00203055,0.033151,1770,575,26.7405,21.7892
553,449,26.6687,-20.8739,0.000602034,0.00269025,0.00155019,0.00351517,-0.000222885,1.08177,0.00242116,0.0205849,1777,575,26.6687,20.8739
560,449,26.6805,-19.9924,0.000596125,0.00359995,0.00177967,0.00442677,-0.000230688,1.13588,0.003031,0.014053,1784,575,26.6806,19.9924
567,449,26.608,-19.0457,0.000789292,0.00478088,0.0022129,0.00576504,-0.000194867,1.15233,0.00390994,0.0105089,1791,575,26.608,19.0456
574,449,26.5654,-18.0469,0.000985947,0.00620956,0.00278176,0.00741347,-0.000217969,1.16235,0.00501655,0.0282988,1798,575,26.5654,18.0469
581,449,26.5472,-16.9625,0,0,0,0,0,0,0,-1,1805,575,26.5472,16.9625
588,449,12.3274,-4.5672,0,0,0,0,0,0,0,-1,1812,575,12.3274,4.5672
595,449,15.9352,-5.65479,0,0,0,0,0,0,0,-1,1819,575,15.9352,5.65478
602,449,9.46167,4.17444,0,0,0,0,0,0,0,-1,1826,575,9.46164,-4.17442
609,449,12.2028,3.18652,0,0,0,0,0,0,0,-1,1833,575,12.2027,-3.18655
616,449,14.9438,2.19867,0,0,0,0,0,0,0,-1,1840,575,14.9438,-2.19867
623,449,9.83789,-0.0820313,0,0,0,0,0,0,0,-1,1847,575,9.83794,0.0820443
630,449,8.90686,4.99329,0,0,0,0,0,0,0,-1,1854,575,8.90685,-4.99327
637,449,0,0,0,0,0,0,0,0,0,-1,1861,575,0,0
644,449,0,0,0,0,0,0,0,0,0,-1,1868,575,0,0
651,449,0,0,0,0,0,0,0,0,0,-1,1875,575,0,0
658,449,0,0,0,0,0,0,0,0,0,-1,1882,575,0,0
665,449,0,0,0,0,0,0,0,0,0,-1,1889,575,0,0
672,449,0,0,0,0,0,0,0,0,0,-1,1896,575,0,0
679,449,0,0,0,0,0,0,0,0,0,-1,1903,575,0,0
686,449,0,0,0,0,0,0,0,0,0,-1,1910,575,0,0
693,449,0,0,0,0,0,0,0,0,0,-1,1917,575,0,0
700,449,0,0,0,0,0,0,0,0,0,-1,1924,575,0,0
707,449,0,0,0,0,0,0,0,0,0,-1,1931,575,0,0
714,449,0,0,0,0,0,0,0,0,0,-1,1938,575,0,0
721,449,0,0,0,0,0,0,0,0,0,-1,1945,575,0,0
728,449,0,0,0,0,0,0,0,0,0,-1,1952,575,0,0
735,449,0,0,0,0,0,0,0,0,0,-1,1959,575,0,0
742,449,0,0,0,0,0,0,0,0,0,-1,1966,575,0,0
749,449,0,0,0,0,0,0,0,0,0,-1,1973,575,0,0
756,449,0,0,0,0,0,0,0,0,0,-1,1980,575,0,0
763,449,0,0,0,0,0,0,0,0,0,-1,1987,575,0,0
770,449,0,0,0,0,0,0,0,0,0,-1,1994,575,0,0
777,449,0,0,0,0,0,0,0,0,0,-1,2001,575,0,0
784,449,0,0,0,0,0,0,0,0,0,-1,2008,575,0,0
791,449,0,0,0,0,0,0,0,0,0,-1,2015,575,0,0
798,449,0,0,0,0,0,0,0,0,0,-1,2022,575,0,0
805,449,0,0,0,0,0,0,0,0,0,-1,2029,575,0,0
812,449,0,0,0,0,0,0,0,0,0,-1,2036,575,0,0
-700,442,0,0,0,0,0,0,0,0,0,-1,524,582,0,0
-693,442,0,0,0,0,0,0,0,0,0,-1,531,582,0,0
-686,442,0,0,0,0,0,0,0,0,0,-1,538,582,0,0
-679,442,0,0,0,0,0,0,0,0,0,-1,545,582,0,0
-672,442,0,0,0,0,0,0,0,0,0,-1,552,582,0,0
-665,442,0,0,0,0,0,0,0,0,0,-1,559,582,0,0
-658,442,0,0,0,0,0,0,0,0,0,-1,566,582,0,0
-651,442,0,0,0,0,0,0,0,0,0,-1,573,582,0,0
-644,442,0,0,0,0,0,0,0,0,0,-1,580,582,0,0
-637,442,0,0,0,0,0,0,0,0,0,-1,587,582,0,0
-630,442,0,0,0,0,0,0,0,0,0,-1,594,582,0,0
-623,442,0,0,0,0,0,0,0,0,0,-1,601,582,0,0
-616,442,0,0,0,0,0,0,0,0,0,-1,608,582,0,0
-609,442,0,0,0,0,0,0,0,0,0,-1,615,582,0,0
-602,442,0,0,0,0,0,0,0,0,0,-1,622,582,0,0
-595,442,0,0,0,0,0,0,0,0,0,-1,629,582,0,0
-588,442,0,0,0,0,0,0,0,0,0,-1,636,582,0,0
-581,442,0,0,0,0,0,0,0,0,0,-1,643,582,0,0
-574,442,0,0,0,0,0,0,0,0,0,-1,650,582,0,0
-567,442,0,0,0,0,0,0,0,0,0,-1,657,582,0,0
-560,442,0,0,0,0,0,0,0,0,0,-1,664,582,0,0
-553,442,0,0,0,0,0,0,0,0,0,-1,671,582,0,0
-546,442,0,0,0,0,0,0,0,0,0,-1,678,582,0,0
-539,442,0,0,0,0,0,0,0,0,0,-1,685,582,0,0
-532,442,0,0,0,0,0,0,0,0,0,-1,692,582,0,0
-525,442,0,0,0,0,0,0,0,0,0,-1,699,582,0,0
-518,442,-0.493774,-5.72943,0,0,0,0,0,0,0,-1,706,582,-0.493791,5.72946
-511,442,-1.33008,-6.18512,0,0,0,0,0,0,0,-1,713,582,-1.33006,6.18511
-504,442,-3.20807,-6.34082,0,0,0,0,0,0,0,-1,720,582,-3.2081,6.34083
-497,442,-13.6886,-0.250122,0,0,0,0,0,0,0,-1,727,582,-13.6886,0.250143
-490,442,-9.09039,-3.64862,0,0,0,0,0,0,0,-1,734,582,-9.09037,3.64861
-483,442,-7.36499,-1.01892,0,0,0,0,0,0,0,-1,741,582,-7.365,1.01895
-476,442,-4.84784,-4.44141,0,0,0,0,0,0,0,-1,748,582,-4.84787,4.44138
-469,442,-11.573,-14.7532,0,0,0,0,0,0,0,-1,755,582,-11.573,14.7532
-462,442,-10.2018,-14.6873,0,0,0,0,0,0,0,-1,762,582,-10.2019,14.6873
-455,442,-11.4597,-17.3358,0,0,0,0,0,0,0,-1,769,582,-11.4597,17.3357
-448,442,-11.4863,-18.4301,-0.00213357,0.00425906,0.000137442,0.00426201,-0.00213652,1.54931,0.00376152,0.0235175,776,582,-11.4863,18.43
-441,442,-11.5806,-19.4053,-0.00100638,0.00370798,-0.000403897,0.00374233,-0.00104073,-1.48595,0.00290463,0.0150498,783,582,-11.5807,19.4053
-434,442,-11.6466,-20.3361,-0.000237186,0.00317667,-0.000747211,0.00333306,-0.000393569,-1.36449,0.00236417,0.0144461,790,582,-11.6466,20.336
-427,442,-11.7159,-21.2777,0.000308114,0.00265967,-0.000933278,0.00298505,-1.7261e-05,-1.23534,0.00199581,0.0141988,797,582,-11.716,21.2777
-420,442,-11.7508,-22.2393,0.000776299,0.0021788,-0.00106548,0.00275309,0.00020201,-1.07644,0.0017719,0.0147123,804,582,-11.7508,22.2393
-413,442,-11.7899,-23.1678,0.00109466,0.00160063,-0.00103036,0.00240861,0.00028668,-0.905784,0.00151922,0.0124124,811,582,-11.7899,23.1679
-406,442,-11.8669,-24.1028,0.00130084,0.000960669,-0.000838721,0.00198655,0.000274962,-0.685359,0.00124289,0.0104099,818,582,-11.8669,24.1028
-399,442,-11.9513,-25.0143,0.00161162,0.000430844,-0.000694991,0.00193314,0.000109328,-0.433298,0.00125391,0.00898713,825,582,-11.9513,25.0144
-392,442,-12.0176,-25.9116,0.00200283,-8.66637e-05,-0.00055023,0.00213887,-0.0002227,-0.242375,0.00150565,0.0112047,832,582,-12.0177,25.9115
-385,442,-12.0559,-26.8118,0.00252124,-0.000582054,-0.000402291,0.00257254,-0.000633357,-0.126841,0.00196055,0.0129693,839,582,-12.0559,26.8118
-378,442,-12.0583,-27.7399,0.00324392,-0.000991235,-0.000271375,0.00326124,-0.00100855,-0.0637294,0.00257699,0.0193356,846,582,-12.0583,27.7399
-371,442,-12.0259,-28.7334,0,0,0,0,0,0,0,-1,853,582,-12.0259,28.7334
-364,442,-6.89764,-17.5333,0,0,0,0,0,0,0,-1,860,582,-6.89765,17.5333
-357,442,-4.9115,-11.2649,0,0,0,0,0,0,0,-1,867,582,-4.91147,11.2649
-350,442,-1.75372,-6.27618,0,0,0,0,0,0,0,-1,874,582,-1.75371,6.27618
-343,442,-1.4599,-4.63605,0,0,0,0,0,0,0,-1,881,582,-1.4599,4.63607
-336,442,-1.4054,-2.64313,0,0,0,0,0,0,0,-1,888,582,-1.40539,2.64315
-329,442,-0.952576,-2.76923,0,0,0,0,0,0,0,-1,895,582,-0.952571,2.7692
-322,442,-0.972534,-2.63208,0,0,0,0,0,0,0,-1,902,582,-0.972512,2.6321
-315,442,-0.445557,-2.89764,0,0,0,0,0,0,0,-1,909,582,-0.445582,2.89765
-308,442,-0.654175,-3.07831,0,0,0,0,0,0,0,-1,916,582,-0.654145,3.07832
-301,442,-1.37427,-2.41455,0,0,0,0,0,0,0,-1,923,582,-1.37425,2.41453
-294,442,-2.99963,-2.07855,0,0,0,0,0,0,0,-1,930,582,-2.99964,2.07857
-287,442,3.91034,-10.1913,0,0,0,0,0,0,0,-1,937,582,3.91034,10.1913
-280,442,0,0,0,0,0,0,0,0,0,-1,944,582,0,0
-273,442,0,0,0,0,0,0,0,0,0,-1,951,582,0,0
-266,442,0,0,0,0,0,0,0,0,0,-1,958,582,0,0
-259,442,0,0,0,0,0,0,0,0,0,-1,965,582,0,0
-252,442,0,0,0,0,0,0,0,0,0,-1,972,582,0,0
-245,442,0,0,0,0,0,0,0,0,0,-1,979,582,0,0
-238,442,0,0,0,0,0,0,0,0,0,-1,986,582,0,0
-231,442,0,0,0,0,0,0,0,0,0,-1,993,582,0,0
-224,442,0,0,0,0,0,0,0,0,0,-1,1000,582,0,0
-217,442,0,0,0,0,0,0,0,0,0,-1,1007,582,0,0
-210,442,0,0,0,0,0,0,0,0,0,-1,1014,582,0,0
-203,442,0,0,0,0,0,0,0,0,0,-1,1021,582,0,0
-196,442,0,0,0,0,0,0,0,0,0,-1,1028,582,0,0
-189,442,0,0,0,0,0,0,0,0,0,-1,1035,582,0,0
-182,442,0,0,0,0,0,0,0,0,0,-1,1042,582,0,0
-175,442,0,0,0,0,0,0,0,0,0,-1,1049,582,0,0
-168,442,0,0,0,0,0,0,0,0,0,-1,1056,582,0,0
-161,442,0,0,0,0,0,0,0,0,0,-1,1063,582,0,0
-154,442,0,0,0,0,0,0,0,0,0,-1,1070,582,0,0
-147,442,0,0,0,0,0,0,0,0,0,-1,1077,582,0,0
-140,442,0,0,0,0,0,0,0,0,0,-1,1084,582,0,0
-133,442,0,0,0,0,0,0,0,0,0,-1,1091,582,0,0
-126,442,0,0,0,0,0,0,0,0,0,-1,1098,582,0,0
-119,442,0,0,0,0,0,0,0,0,0,-1,1105,582,0,0
-112,442,0,0,0,0,0,0,0,0,0,-1,1112,582,0,0
-105,442,0,0,0,0,0,0,0,0,0,-1,1119,582,0,0
-98,442,0,0,0,0,0,0,0,0,0,-1,1126,582,0,0
-91,442,0,0,0,0,0,0,0,0,0,-1,1133,582,0,0
-84,442,0,0,0,0,0,0,0,0,0,-1,1140,582,0,0
-77,442,0,0,0,0,0,0,0,0,0,-1,1147,582,0,0
-70,442,0,0,0,0,0,0,0,0,0,-1,1154,582,0,0
-63,442,0,0,0,0,0,0,0,0,0,-1,1161,582,0,0
-56,442,0,0,0,0,0,0,0,0,0,-1,1168,582,0,0
-49,442,0,0,0,0,0,0,0,0,0,-1,1175,582,0,0
-42,442,0,0,0,0,0,0,0,0,0,-1,1182,582,0,0
-35,442,0,0,0,0,0,0,0,0,0,-1,1189,582,0,0
-28,442,0,0,0,0,0,0,0,0,0,-1,1196,582,0,0
-21,442,0,0,0,0,0,0,0,0,0,-1,1203,582,0,0
-14,442,0,0,0,0,0,0,0,0,0,-1,1210,582,0,0
-7,442,0,0,0,0,0,0,0,0,0,-1,1217,582,0,0
0,442,0,0,0,0,0,0,0,0,0,-1,1224,582,0,0
7,442,0,0,0,0,0,0,0,0,0,-1,1231,582,0,0
14,442,0,0,0,0,0,0,0,0,0,-1,1238,582,0,0
21,442,0,0,0,0,0,0,0,0,0,-1,1245,582,0,0
28,442,0,0,0,0,0,0,0,0,0,-1,1252,582,0,0
35,442,0,0,0,0,0,0,0,0,0,-1,1259,582,0,0
42,442,0,0,0,0,0,0,0,0,0,-1,1266,582,0,0
49,442,0,0,0,0,0,0,0,0,0,-1,1273,582,0,0
56,442,0,0,0,0,0,0,0,0,0,-1,1280,582,0,0
63,442,0,0,0,0,0,0,0,0,0,-1,1287,582,0,0
70,442,0,0,0,0,0,0,0,0,0,-1,1294,582,0,0
77,442,0,0,0,0,0,0,0,0,0,-1,1301,582,0,0
84,442,0,0,0,0,0,0,0,0,0,-1,1308,582,0,0
91,442,0,0,0,0,0,0,0,0,0,-1,1315,582,0,0
98,442,0,0,0,0,0,0,0,0,0,-1,1322,582,0,0
105,442,0,0,0,0,0,0,0,0,0,-1,1329,582,0,0
112,442,0,0,0,0,0,0,0,0,0,-1,1336,582,0,0
119,442,0,0,0,0,0,0,0,0,0,-1,1343,582,0,0
126,442,0,0,0,0,0,0,0,0,0,-1,1350,582,0,0
133,442,0,0,0,0,0,0,0,0,0,-1,1357,582,0,0
140,442,0,0,0,0,0,0,0,0,0,-1,1364,582,0,0
147,442,0,0,0,0,0,0,0,0,0,-1,1371,582,0,0
154,442,0,0,0,0,0,0,0,0,0,-1,1378,582,0,0
161,442,0,0,0,0,0,0,0,0,0,-1,1385,582,0,0
168,442,0,0,0,0,0,0,0,0,0,-1,1392,582,0,0
175,442,0,0,0,0,0,0,0,0,0,-1,1399,582,0,0
182,442,0,0,0,0,0,0,0,0,0,-1,1406,582,0,0
189,442,0,0,0,0,0,0,0,0,0,-1,1413,582,0,0
196,442,0,0,0,0,0,0,0,0,0,-1,1420,582,0,0
203,442,0,0,0,0,0,0,0,0,0,-1,1427,582,0,0
210,442,0,0,0,0,0,0,0,0,0,-1,1434,582,0,0
217,442,0,0,0,0,0,0,0,0,0,-1,1441,582,0,0
224,442,0,0,0,0,0,0,0,0,0,-1,1448,582,0,0
231,442,0,0,0,0,0,0,0,0,0,-1,1455,582,0,0
238,442,0,0,0,0,0,0,0,0,0,-1,1462,582,0,0
245,442,0,0,0,0,0,0,0,0,0,-1,1469,582,0,0
252,442,0,0,0,0,0,0,0,0,0,-1,1476,582,0,0
259,442,0,0,0,0,0,0,0,0,0,-1,1483,582,0,0
266,442,0,0,0,0,0,0,0,0,0,-1,1490,582,0,0
273,442,0,0,0,0,0,0,0,0,0,-1,1497,582,0,0
280,442,0,0,0,0,0,0,0,0,0,-1,1504,582,0,0
287,442,0,0,0,0,0,0,0,0,0,-1,1511,582,0,0
294,442,0,0,0,0,0,0,0,0,0,-1,1518,582,0,0
301,442,0,0,0,0,0,0,0,0,0,-1,1525,582,0,0
308,442,0,0,0,0,0,0,0,0,0,-1,1532,582,0,0
315,442,0,0,0,0,0,0,0,0,0,-1,1539,582,0,0
322,442,0,0,0,0,0,0,0,0,0,-1,1546,582,0,0
329,442,0,0,0,0,0,0,0,0,0,-1,1553,582,0,0
336,442,0,0,0,0,0,0,0,0,0,-1,1560,582,0,0
343,442,0,0,0,0,0,0,0,0,0,-1,1567,582,0,0
350,442,0,0,0,0,0,0,0,0,0,-1,1574,582,0,0
357,442,0,0,0,0,0,0,0,0,0,-1,1581,582,0,0
364,442,0,0,0,0,0,0,0,0,0,-1,1588,582,0,0
371,442,0,0,0,0,0,0,0,0,0,-1,1595,582,0,0
378,442,0,0,0,0,0,0,0,0,0,-1,1602,582,0,0
385,442,0,0,0,0,0,0,0,0,0,-1,1609,582,0,0
392,442,0,0,0,0,0,0,0,0,0,-1,1616,582,0,0
399,442,0,0,0,0,0,0,0,0,0,-1,1623,582,0,0
406,442,17.6321,4.08295,0,0,0,0,0,0,0,-1,1630,582,17.6321,-4.08293
413,442,25.4768,2.74445,0,0,0,0,0,0,0,-1,1637,582,25.4768,-2.74444
420,442,22.7478,1.55011,0,0,0,0,0,0,0,-1,1644,582,22.7478,-1.55009
427,442,23.2969,-0.456787,0,0,0,0,0,0,0,-1,1651,582,23.2968,0.456769
434,442,23.9512,-2.49365,0,0,0,0,0,0,0,-1,1658,582,23.9512,2.49366
441,442,24.8251,-4.43958,0,0,0,0,0,0,0,-1,1665,582,24.8251,4.43956
448,442,4.7749,-5.88562,0,0,0,0,0,0,0,-1,1672,582,4.7749,5.8856
455,442,4.87024,-4.60687,0,0,0,0,0,0,0,-1,1679,582,4.87019,4.60686
462,442,5.02307,-3.72821,0,0,0,0,0,0,0,-1,1686,582,5.02311,3.7282
469,442,5.12976,-2.98834,0,0,0,0,0,0,0,-1,1693,582,5.12971,2.98834
476,442,5.4624,1.76947,0,0,0,0,0,0,0,-1,1700,582,5.46234,-1.76944
483,442,5.98486,1.87042,0,0,0,0,0,0,0,-1,1707,582,5.98492,-1.87045
490,442,5.04407,-2.35834,0,0,0,0,0,0,0,-1,1714,582,5.04411,2.35837
497,442,6.20984,-3.07831,0,0,0,0,0,0,0,-1,1721,582,6.2098,3.07833
504,442,20.9276,-19.7709,0,0,0,0,0,0,0,-1,1728,582,20.9276,19.771
511,442,28.0126,-26.5301,0,0,0,0,0,0,0,-1,1735,582,28.0126,26.5301
518,442,27.9895,-25.5369,0.00254027,0.00104371,0.00166568,0.00361803,-3.4049e-05,0.57429,0.00242345,0.0175469,1742,582,27.9895,25.5369
525,442,27.8928,-24.5894,0.00204712,0.000921319,0.00156202,0.00314457,-0.000176129,0.612457,0.00215749,0.011475,1749,582,27.8928,24.5894
532,442,27.8218,-23.6628,0.00161354,0.000974134,0.00145028,0.00277894,-0.000191264,0.676912,0.00191956,0.0125447,1756,582,27.8217,23.6628
539,442,27.7703,-22.7121,0.00132698,0.00120627,0.00140235,0.00267027,-0.000137021,0.763892,0.00182757,0.015504,1763,582,27.7703,22.7121
546,442,27.7401,-21.742,0.00114416,0.00160192,0.00135859,0.00275078,-4.69433e-06,0.868849,0.00183542,0.0207151,1770,582,27.7401,21.742
553,442,27.6389,-20.821,0.000980154,0.00218757,0.00138376,0.00309358,7.41411e-05,0.991091,0.00203812,0.0199915,1777,582,27.6389,20.821
560,442,27.613,-19.9255,0.00089912,0.00293798,0.00153318,0.00375971,7.7391e-05,1.07879,0.00248108,0.0150983,1784,582,27.6131,19.9255
567,442,27.5313,-19.0001,0.00101944,0.00394884,0.00189033,0.00487552,9.27558e-05,1.115,0.00321987,0.0114034,1791,582,27.5313,19.0001
574,442,27.4725,-18.0628,0.00118217,0.0051606,0.00236851,0.00626442,7.83543e-05,1.13469,0.00415041,0.0140173,1798,582,27.4725,18.0628
581,442,27.5112,-16.9968,0.00149176,0.00677927,0.00319472,0.00828228,-1.12471e-05,1.13105,0.00552527,0.0314465,1805,582,27.5112,16.9968
588,442,27.6292,-15.8857,0,0,0,0,0,0,0,-1,1812,582,27.6292,15.8858
595,442,16.27,-6.47083,0,0,0,0,0,0,0,-1,1819,582,16.27,6.47082
602,442,16.2213,-4.49225,0,0,0,0,0,0,0,-1,1826,582,16.2213,4.49223
609,442,12.761,2.97223,0,0,0,0,0,0,0,-1,1833,582,12.761,-2.97221
616,442,9.78345,-0.103394,0,0,0,0,0,0,0,-1,1840,582,9.78341,0.103424
623,442,9.23828,0.326721,0,0,0,0,0,0,0,-1,1847,582,9.23829,-0.326727
630,442,7.74304,2.3924,0,0,0,0,0,0,0,-1,1854,582,7.7431,-2.39238
637,442,5.87805,1.84027,0,0,0,0,0,0,0,-1,1861,582,5.87807,-1.84025
644,442,0,0,0,0,0,0,0,0,0,-1,1868,582,0,0
651,442,0,0,0,0,0,0,0,0,0,-1,1875,582,0,0
658,442,0,0,0,0,0,0,0,0,0,-1,1882,582,0,0
665,442,0,0,0,0,0,0,0,0,0,-1,1889,582,0,0
672,442,0,0,0,0,0,0,0,0,0,-1,1896,582,0,0
679,442,0,0,0,0,0,0,0,0,0,-1,1903,582,0,0
686,442,0,0,0,0,0,0,0,0,0,-1,1910,582,0,0
693,442,0,0,0,0,0,0,0,0,0,-1,1917,582,0,0
700,442,0,0,0,0,0,0,0,0,0,-1,1924,582,0,0
707,442,0,0,0,0,0,0,0,0,0,-1,1931,582,0,0
714,442,0,0,0,0,0,0,0,0,0,-1,1938,582,0,0
721,442,0,0,0,0,0,0,0,0,0,-1,1945,582,0,0
728,442,0,0,0,0,0,0,0,0,0,-1,1952,582,0,0
735,442,0,0,0,0,0,0,0,0,0,-1,1959,582,0,0
742,442,0,0,0,0,0,0,0,0,0,-1,1966,582,0,0
749,442,0,0,0,0,0,0,0,0,0,-1,1973,582,0,0
756,442,0,0,0,0,0,0,0,0,0,-1,1980,582,0,0
763,442,0,0,0,0,0,0,0,0,0,-1,1987,582,0,0
770,442,0,0,0,0,0,0,0,0,0,-1,1994,582,0,0
777,442,0,0,0,0,0,0,0,0,0,-1,2001,582,0,0
784,442,0,0,0,0,0,0,0,0,0,-1,2008,582,0,0
791,442,0,0,0,0,0,0,0,0,0,-1,2015,582,0,0
798,442,0,0,0,0,0,0,0,0,0,-1,2022,582,0,0
805,442,0,0,0,0,0,0,0,0,0,-1,2029,582,0,0
812,442,0,0,0,0,0,0,0,0,0,-1,2036,582,0,0
-700,435,0,0,0,0,0,0,0,0,0,-1,524,589,0,0
-693,435,0,0,0,0,0,0,0,0,0,-1,531,589,0,0
-686,435,0,0,0,0,0,0,0,0,0,-1,538,589,0,0
-679,435,0,0,0,0,0,0,0,0,0,-1,545,589,0,0
-672,435,0,0,0,0,0,0,0,0,0,-1,552,589,0,0
-665,435,0,0,0,0,0,0,0,0,0,-1,559,589,0,0
-658,435,0,0,0,0,0,0,0,0,0,-1,566,589,0,0
-651,435,0,0,0,0,0,0,0,0,0,-1,573,589,0,0
-644,435,0,0,0,0,0,0,0,0,0,-1,580,589,0,0
-637,435,0,0,0,0,0,0,0,0,0,-1,587,589,0,0
-630,435,0,0,0,0,0,0,0,0,0,-1,594,589,0,0
-623,435,0,0,0,0,0,0,0,0,0,-1,601,589,0,0
-616,435,0,0,0,0,0,0,0,0,0,-1,608,589,0,0
-609,435,0,0,0,0,0,0,0,0,0,-1,615,589,0,0
-602,435,0,0,0,0,0,0,0,0,0,-1,622,589,0,0
-595,435,0,0,0,0,0,0,0,0,0,-1,629,589,0,0
-588,435,0,0,0,0,0,0,0,0,0,-1,636,589,0,0
-581,435,0,0,0,0,0,0,0,0,0,-1,643,589,0,0
-574,435,0,0,0,0,0,0,0,0,0,-1,650,589,0,0
-567,435,0,0,0,0,0,0,0,0,0,-1,657,589,0,0
-560,435,0,0,0,0,0,0,0,0,0,-1,664,589,0,0
-553,435,0,0,0,0,0,0,0,0,0,-1,671,589,0,0
-546,435,0,0,0,0,0,0,0,0,0,-1,678,589,0,0
-539,435,0,0,0,0,0,0,0,0,0,-1,685,589,0,0
-532,435,0,0,0,0,0,0,0,0,0,-1,692,589,0,0
-525,435,-10.0776,10.0547,0,0,0,0,0,0,0,-1,699,589,-10.0776,-10.0547
-518,435,-1.83093,-5.82367,0,0,0,0,0,0,0,-1,706,589,-1.83093,5.8237
-511,435,-2.45154,-5.33118,0,0,0,0,0,0,0,-1,713,589,-2.45151,5.33115
-504,435,-3.07208,-4.83862,0,0,0,0,0,0,0,-1,720,589,-3.0721,4.8386
-497,435,-6.31012,-5.84698,0,0,0,0,0,0,0,-1,727,589,-6.31012,5.84697
-490,435,-5.81903,-0.458679,0,0,0,0,0,0,0,-1,734,589,-5.81902,0.458684
-483,435,-6.96503,-3.01624,0,0,0,0,0,0,0,-1,741,589,-6.96505,3.01623
-476,435,-12.8309,-14.1164,0,0,0,0,0,0,0,-1,748,589,-12.8309,14.1164
-469,435,-12.3465,-15.1638,0,0,0,0,0,0,0,-1,755,589,-12.3465,15.1638
-462,435,-12.3116,-16.1023,0,0,0,0,0,0,0,-1,762,589,-12.3116,16.1023
-455,435,-12.4123,-17.3467,-0.00319755,0.00349413,0.000943424,0.0036246,-0.00332802,1.43338,0.00401531,0.0305205,769,589,-12.4123,17.3467
-448,435,-12.439,-18.3928,-0.00180948,0.00309544,0.000230865,0.00310628,-0.00182033,1.52387,0.0028765,0.0147397,776,589,-12.439,18.3928
-441,435,-12.4988,-19.3585,-0.000743832,0.00266627,-0.000270425,0.00268758,-0.000765144,-1.49215,0.0020939,0.0126314,783,589,-12.4988,19.3584
-434,435,-12.5599,-20.2781,1.90275e-05,0.00225005,-0.000604402,0.00240326,-0.000134188,-1.32253,0.00164873,0.0135022,790,589,-12.5599,20.2781
-427,435,-12.632,-21.2428,0.000592199,0.00187234,-0.000829004,0.00227962,0.000184922,-1.11414,0.00146201,0.0108973,797,589,-12.632,21.2428
-420,435,-12.6723,-22.1721,0.00109116,0.00153544,-0.00100573,0.00234327,0.000283328,-0.894088,0.00147683,0.0116108,804,589,-12.6723,22.1721
-413,435,-12.7172,-23.1102,0.00143088,0.00112007,-0.00102274,0.00230995,0.000240995,-0.710002,0.00146625,0.012377,811,589,-12.7172,23.1102
-406,435,-12.7839,-24.0333,0.00167478,0.000692318,-0.000932697,0.0022377,0.000129398,-0.543018,0.00145059,0.0120164,818,589,-12.784,24.0332
-399,435,-12.864,-24.9357,0.00204879,0.000347411,-0.00091875,0.00245021,-5.4007e-05,-0.411922,0.00165177,0.0100651,825,589,-12.8639,24.9357
-392,435,-12.9497,-25.8499,0.00249969,1.6499e-06,-0.00089939,0.00278981,-0.00028847,-0.312036,0.00196311,0.011816,832,589,-12.9497,25.8498
-385,435,-12.962,-26.7726,0.00306529,-0.0003777,-0.000856869,0.00326675,-0.000579163,-0.230922,0.00239435,0.0239845,839,589,-12.962,26.7726
-378,435,-12.8795,-27.7778,0,0,0,0,0,0,0,-1,846,589,-12.8795,27.7778
-371,435,-10.247,-21.7153,0,0,0,0,0,0,0,-1,853,589,-10.247,21.7153
-364,435,-5.62848,-11.5937,0,0,0,0,0,0,0,-1,860,589,-5.62847,11.5937
-357,435,-5.57343,-10.9666,0,0,0,0,0,0,0,-1,867,589,-5.57342,10.9666
-350,435,-0.86676,-3.69836,0,0,0,0,0,0,0,-1,874,589,-0.866784,3.69834
-343,435,-1.60706,-2.36835,0,0,0,0,0,0,0,-1,881,589,-1.60706,2.36838
-336,435,-2.07263,-1.94012,0,0,0,0,0,0,0,-1,888,589,-2.07265,1.94014
-329,435,-2.55963,-1.5517,0,0,0,0,0,0,0,-1,895,589,-2.5596,1.55168
-322,435,-3.08545,-1.55255,0,0,0,0,0,0,0,-1,902,589,-3.08544,1.55254
-315,435,-0.404297,-2.63763,0,0,0,0,0,0,0,-1,909,589,-0.404276,2.63761
-308,435,-1.70056,-1.90369,0,0,0,0,0,0,0,-1,916,589,-1.70056,1.90367
-301,435,-1.19391,-2.41632,0,0,0,0,0,0,0,-1,923,589,-1.1939,2.41635
-294,435,3.78278,-10.3275,0,0,0,0,0,0,0,-1,930,589,3.78281,10.3275
-287,435,0,0,0,0,0,0,0,0,0,-1,937,589,0,0
-280,435,0,0,0,0,0,0,0,0,0,-1,944,589,0,0
-273,435,0,0,0,0,0,0,0,0,0,-1,951,589,0,0
-266,435,0,0,0,0,0,0,0,0,0,-1,958,589,0,0
-259,435,0,0,0,0,0,0,0,0,0,-1,965,589,0,0
-252,435,0,0,0,0,0,0,0,0,0,-1,972,589,0,0
-245,435,0,0,0,0,0,0,0,0,0,-1,979,589,0,0
-238,435,0,0,0,0,0,0,0,0,0,-1,986,589,0,0
-231,435,0,0,0,0,0,0,0,0,0,-1,993,589,0,0
-224,435,0,0,0,0,0,0,0,0,0,-1,1000,589,0,0
-217,435,0,0,0,0,0,0,0,0,0,-1,1007,589,0,0
-210,435,0,0,0,0,0,0,0,0,0,-1,1014,589,0,0
-203,435,0,0,0,0,0,0,0,0,0,-1,1021,589,0,0
-196,435,0,0,0,0,0,0,0,0,0,-1,1028,589,0,0
-189,435,0,0,0,0,0,0,0,0,0,-1,1035,589,0,0
-182,435,0,0,0,0,0,0,0,0,0,-1,1042,589,0,0
-175,435,0,0,0,0,0,0,0,0,0,-1,1049,589,0,0
-168,435,0,0,0,0,0,0,0,0,0,-1,1056,589,0,0
-161,435,0,0,0,0,0,0,0,0,0,-1,1063,589,0,0
-154,435,0,0,0,0,0,0,0,0,0,-1,1070,589,0,0
-147,435,0,0,0,0,0,0,0,0,0,-1,1077,589,0,0
-140,435,0,0,0,0,0,0,0,0,0,-1,1084,589,0,0
-133,435,0,0,0,0,0,0,0,0,0,-1,1091,589,0,0
-126,435,0,0,0,0,0,0,0,0,0,-1,1098,589,0,0
-119,435,0,0,0,0,0,0,0,0,0,-1,1105,589,0,0
-112,435,0,0,0,0,0,0,0,0,0,-1,1112,589,0,0
-105,435,0,0,0,0,0,0,0,0,0,-1,1119,589,0,0
-98,435,0,0,0,0,0,0,0,0,0,-1,1126,589,0,0
-91,435,0,0,0,0,0,0,0,0,0,-1,1133,589,0,0
-84,435,0,0,0,0,0,0,0,0,0,-1,1140,589,0,0
-77,435,0,0,0,0,0,0,0,0,0,-1,1147,589,0,0
-70,435,0,0,0,0,0,0,0,0,0,-1,1154,589,0,0
-63,435,0,0,0,0,0,0,0,0,0,-1,1161,589,0,0
-56,435,0,0,0,0,0,0,0,0,0,-1,1168,589,0,0
-49,435,0,0,0,0,0,0,0,0,0,-1,1175,589,0,0
-42,435,0,0,0,0,0,0,0,0,0,-1,1182,589,0,0
-35,435,0,0,0,0,0,0,0,0,0,-1,1189,589,0,0
-28,435,0,0,0,0,0,0,0,0,0,-1,1196,589,0,0
-21,435,0,0,0,0,0,0,0,0,0,-1,1203,589,0,0
-14,435,0,0,0,0,0,0,0,0,0,-1,1210,589,0,0
-7,435,0,0,0,0,0,0,0,0,0,-1,1217,589,0,0
0,435,0,0,0,0,0,0,0,0,0,-1,1224,589,0,0
7,435,0,0,0,0,0,0,0,0,0,-1,1231,589,0,0
14,435,0,0,0,0,0,0,0,0,0,-1,1238,589,0,0
21,435,0,0,0,0,0,0,0,0,0,-1,1245,589,0,0
28,435,0,0,0,0,0,0,0,0,0,-1,1252,589,0,0
35,435,0,0,0,0,0,0,0,0,0,-1,1259,589,0,0
42,435,0,0,0,0,0,0,0,0,0,-1,1266,589,0,0
49,435,0,0,0,0,0,0,0,0,0,-1,1273,589,0,0
56,435,0,0,0,0,0,0,0,0,0,-1,1280,589,0,0
63,435,0,0,0,0,0,0,0,0,0,-1,1287,589,0,0
70,435,0,0,0,0,0,0,0,0,0,-1,1294,589,0,0
77,435,0,0,0,0,0,0,0,0,0,-1,1301,589,0,0
84,435,0,0,0,0,0,0,0,0,0,-1,1308,589,0,0
91,435,0,0,0,0,0,0,0,0,0,-1,1315,589,0,0
98,435,0,0,0,0,0,0,0,0,0,-1,1322,589,0,0
105,435,0,0,0,0,0,0,0,0,0,-1,1329,589,0,0
112,435,0,0,0,0,0,0,0,0,0,-1,1336,589,0,0
119,435,0,0,0,0,0,0,0,0,0,-1,1343,589,0,0
126,435,0,0,0,0,0,0,0,0,0,-1,1350,589,0,0
133,435,0,0,0,0,0,0,0,0,0,-1,1357,589,0,0
140,435,0,0,0,0,0,0,0,0,0,-1,1364,589,0,0
147,435,0,0,0,0,0,0,0,0,0,-1,1371,589,0,0
154,435,0,0,0,0,0,0,0,0,0,-1,1378,589,0,0
161,435,0,0,0,0,0,0,0,0,0,-1,1385,589,0,0
168,435,0,0,0,0,0,0,0,0,0,-1,1392,589,0,0
175,435,0,0,0,0,0,0,0,0,0,-1,1399,589,0,0
182,435,0,0,0,0,0,0,0,0,0,-1,1406,589,0,0
189,435,0,0,0,0,0,0,0,0,0,-1,1413,589,0,0
196,435,0,0,0,0,0,0,0,0,0,-1,1420,589,0,0
203,435,0,0,0,0,0,0,0,0,0,-1,1427,589,0,0
210,435,0,0,0,0,0,0,0,0,0,-1,1434,589,0,0
217,435,0,0,0,0,0,0,0,0,0,-1,1441,589,0,0
224,435,0,0,0,0,0,0,0,0,0,-1,1448,589,0,0
231,435,0,0,0,0,0,0,0,0,0,-1,1455,589,0,0
238,435,0,0,0,0,0,0,0,0,0,-1,1462,589,0,0
245,435,0,0,0,0,0,0,0,0,0,-1,1469,589,0,0
252,435,0,0,0,0,0,0,0,0,0,-1,1476,589,0,0
259,435,0,0,0,0,0,0,0,0,0,-1,1483,589,0,0
266,435,0,0,0,0,0,0,0,0,0,-1,1490,589,0,0
273,435,0,0,0,0,0,0,0,0,0,-1,1497,589,0,0
280,435,0,0,0,0,0,0,0,0,0,-1,1504,589,0,0
287,435,0,0,0,0,0,0,0,0,0,-1,1511,589,0,0
294,435,0,0,0,0,0,0,0,0,0,-1,1518,589,0,0
301,435,0,0,0,0,0,0,0,0,0,-1,1525,589,0,0
308,435,0,0,0,0,0,0,0,0,0,-1,1532,589,0,0
315,435,0,0,0,0,0,0,0,0,0,-1,1539,589,0,0
322,435,0,0,0,0,0,0,0,0,0,-1,1546,589,0,0
329,435,0,0,0,0,0,0,0,0,0,-1,1553,589,0,0
336,435,0,0,0,0,0,0,0,0,0,-1,1560,589,0,0
343,435,0,0,0,0,0,0,0,0,0,-1,1567,589,0,0
350,435,0,0,0,0,0,0,0,0,0,-1,1574,589,0,0
357,435,0,0,0,0,0,0,0,0,0,-1,1581,589,0,0
364,435,0,0,0,0,0,0,0,0,0,-1,1588,589,0,0
371,435,0,0,0,0,0,0,0,0,0,-1,1595,589,0,0
378,435,0,0,0,0,0,0,0,0,0,-1,1602,589,0,0
385,435,0,0,0,0,0,0,0,0,0,-1,1609,589,0,0
392,435,0,0,0,0,0,0,0,0,0,-1,1616,589,0,0
399,435,0,0,0,0,0,0,0,0,0,-1,1623,589,0,0
406,435,0,0,0,0,0,0,0,0,0,-1,1630,589,0,0
413,435,20.4565,3.49835,0,0,0,0,0,0,0,-1,1637,589,20.4565,-3.49836
420,435,21.4015,1.49609,0,0,0,0,0,0,0,-1,1644,589,21.4015,-1.49609
427,435,22.0464,-0.373962,0,0,0,0,0,0,0,-1,1651,589,22.0464,0.373972
434,435,22.1863,-1.54407,0,0,0,0,0,0,0,-1,1658,589,22.1862,1.54405
441,435,22.3992,-2.38287,0,0,0,0,0,0,0,-1,1665,589,22.3992,2.38289
448,435,7.4585,-0.00292969,0,0,0,0,0,0,0,-1,1672,589,7.45848,0.00294131
455,435,5.49915,-5.047,0,0,0,0,0,0,0,-1,1679,589,5.49914,5.04703
462,435,5.60669,-4.71466,0,0,0,0,0,0,0,-1,1686,589,5.60675,4.71469
469,435,5.87708,1.22351,0,0,0,0,0,0,0,-1,1693,589,5.87703,-1.22351
476,435,6.14136,1.37714,0,0,0,0,0,0,0,-1,1700,589,6.14138,-1.37712
483,435,6.49243,1.36169,0,0,0,0,0,0,0,-1,1707,589,6.49242,-1.36171
490,435,4.38391,-1.36218,0,0,0,0,0,0,0,-1,1714,589,4.38389,1.3622
497,435,7.23499,-3.64551,0,0,0,0,0,0,0,-1,1721,589,7.23495,3.64551
504,435,7.31189,-3.75909,0,0,0,0,0,0,0,-1,1728,589,7.31184,3.75911
511,435,28.658,-26.6357,0,0,0,0,0,0,0,-1,1735,589,28.658,26.6358
518,435,28.8921,-25.4903,0.00324644,0.00128422,0.00212009,0.00460143,-7.07689e-05,0.568688,0.00309148,0.0486372,1742,589,28.892,25.4903
525,435,28.813,-24.5273,0.00258544,0.000981904,0.00184904,0.00379906,-0.000231718,0.580827,0.00261337,0.014105,1749,589,28.813,24.5273
532,435,28.7711,-23.594,0.00201751,0.000885108,0.00158109,0.00313072,-0.000228105,0.613459,0.00216719,0.0162412,1756,589,28.7712,23.594
539,435,28.7222,-22.6487,0.001668,0.000998401,0.00142734,0.00279928,-0.000132879,0.6702,0.00191202,0.0181012,1763,589,28.7221,22.6487
546,435,28.6799,-21.7086,0.00143327,0.00125094,0.0012968,0.0026421,4.2107e-05,0.750305,0.00174754,0.0174537,1770,589,28.68,21.7086
553,435,28.6101,-20.8101,0.00122261,0.00170184,0.00124775,0.00273277,0.000191672,0.880262,0.00176144,0.0127593,1777,589,28.6101,20.8101
560,435,28.5376,-19.8932,0.00108138,0.00229895,0.00132724,0.00315037,0.000229963,1.00042,0.00202794,0.0103457,1784,589,28.5376,19.8933
567,435,28.4926,-18.9481,0.00113927,0.00314968,0.0016234,0.00405389,0.000235064,1.06261,0.00262774,0.00936944,1791,589,28.4926,18.9481
574,435,28.4324,-18.0142,0.00129986,0.00417452,0.00203102,0.00522535,0.000249033,1.09333,0.0034036,0.0105553,1798,589,28.4323,18.0142
581,435,28.377,-17.0506,0.00163623,0.00549934,0.00273274,0.00691424,0.000221326,1.09304,0.00453752,0.0179724,1805,589,28.377,17.0506
588,435,28.3168,-16.0306,0,0,0,0,0,0,0,-1,1812,589,28.3168,16.0306
595,435,28.0966,-14.7958,0,0,0,0,0,0,0,-1,1819,589,28.0965,14.7958
602,435,16.8671,-6.39026,0,0,0,0,0,0,0,-1,1826,589,16.867,6.39024
609,435,15.2611,-3.42242,0,0,0,0,0,0,0,-1,1833,589,15.2611,3.42242
616,435,5.05151,-2.75269,0,0,0,0,0,0,0,-1,1840,589,5.05157,2.7527
623,435,11.7588,3.9704,0,0,0,0,0,0,0,-1,1847,589,11.7587,-3.97043
630,435,4.72742,-0.87561,0,0,0,0,0,0,0,-1,1854,589,4.7274,0.875636
637,435,5.05286,1.48792,0,0,0,0,0,0,0,-1,1861,589,5.05291,-1.48792
644,435,0,0,0,0,0,0,0,0,0,-1,1868,589,0,0
651,435,0,0,0,0,0,0,0,0,0,-1,1875,589,0,0
658,435,0,0,0,0,0,0,0,0,0,-1,1882,589,0,0
665,435,0,0,0,0,0,0,0,0,0,-1,1889,589,0,0
672,435,0,0,0,0,0,0,0,0,0,-1,1896,589,0,0
679,435,0,0,0,0,0,0,0,0,0,-1,1903,589,0,0
686,435,0,0,0,0,0,0,0,0,0,-1,1910,589,0,0
693,435,0,0,0,0,0,0,0,0,0,-1,1917,589,0,0
700,435,0,0,0,0,0,0,0,0,0,-1,1924,589,0,0
707,435,0,0,0,0,0,0,0,0,0,-1,1931,589,0,0
714,435,0,0,0,0,0,0,0,0,0,-1,1938,589,0,0
721,435,0,0,0,0,0,0,0,0,0,-1,1945,589,0,0
728,435,0,0,0,0,0,0,0,0,0,-1,1952,589,0,0
735,435,0,0,0,0,0,0,0,0,0,-1,1959,589,0,0
742,435,0,0,0,0,0,0,0,0,0,-1,1966,589,0,0
749,435,0,0,0,0,0,0,0,0,0,-1,1973,589,0,0
756,435,0,0,0,0,0,0,0,0,0,-1,1980,589,0,0
763,435,0,0,0,0,0,0,0,0,0,-1,1987,589,0,0
770,435,0,0,0,0,0,0,0,0,0,-1,1994,589,0,0
777,435,0,0,0,0,0,0,0,0,0,-1,2001,589,0,0
784,435,0,0,0,0,0,0,0,0,0,-1,2008,589,0,0
791,435,0,0,0,0,0,0,0,0,0,-1,2015,589,0,0
798,435,0,0,0,0,0,0,0,0,0,-1,2022,589,0,0
805,435,0,0,0,0,0,0,0,0,0,-1,2029,589,0,0
812,435,0,0,0,0,0,0,0,0,0,-1,2036,589,0,0
-700,428,0,0,0,0,0,0,0,0,0,-1,524,596,0,0
-693,428,0,0,0,0,0,0,0,0,0,-1,531,596,0,0
-686,428,0,0,0,0,0,0,0,0,0,-1,538,596,0,0
-679,428,0,0,0,0,0,0,0,0,0,-1,545,596,0,0
-672,428,0,0,0,0,0,0,0,0,0,-1,552,596,0,0
-665,428,0,0,0,0,0,0,0,0,0,-1,559,596,0,0
-658,428,0,0,0,0,0,0,0,0,0,-1,566,596,0,0
-651,428,0,0,0,0,0,0,0,0,0,-1,573,596,0,0
-644,428,0,0,0,0,0,0,0,0,0,-1,580,596,0,0
-637,428,0,0,0,0,0,0,0,0,0,-1,587,596,0,0
-630,428,0,0,0,0,0,0,0,0,0,-1,594,596,0,0
-623,428,0,0,0,0,0,0,0,0,0,-1,601,596,0,0
-616,428,0,0,0,0,0,0,0,0,0,-1,608,596,0,0
-609,428,0,0,0,0,0,0,0,0,0,-1,615,596,0,0
-602,428,0,0,0,0,0,0,0,0,0,-1,622,596,0,0
-595,428,0,0,0,0,0,0,0,0,0,-1,629,596,0,0
-588,428,0,0,0,0,0,0,0,0,0,-1,636,596,0,0
-581,428,0,0,0,0,0,0,0,0,0,-1,643,596,0,0
-574,428,0,0,0,0,0,0,0,0,0,-1,650,596,0,0
-567,428,0,0,0,0,0,0,0,0,0,-1,657,596,0,0
-560,428,0,0,0,0,0,0,0,0,0,-1,664,596,0,0
-553,428,0,0,0,0,0,0,0,0,0,-1,671,596,0,0
-546,428,0,0,0,0,0,0,0,0,0,-1,678,596,0,0
-539,428,0,0,0,0,0,0,0,0,0,-1,685,596,0,0
-532,428,0,0,0,0,0,0,0,0,0,-1,692,596,0,0
-525,428,-9.59918,7.58618,0,0,0,0,0,0,0,-1,699,596,-9.59918,-7.5862
-518,428,-2.92285,-4.81854,0,0,0,0,0,0,0,-1,706,596,-2.92285,4.81856
-511,428,-3.68811,-4.79474,0,0,0,0,0,0,0,-1,713,596,-3.68811,4.79474
-504,428,-4.45337,-4.77094,0,0,0,0,0,0,0,-1,720,596,-4.45337,4.77092
-497,428,-2.98108,-3.77502,0,0,0,0,0,0,0,-1,727,596,-2.98106,3.77505
-490,428,-6.39044,-2.80481,0,0,0,0,0,0,0,-1,734,596,-6.39047,2.80483
-483,428,-10.8474,-9.11322,0,0,0,0,0,0,0,-1,741,596,-10.8473,9.11321
-476,428,-13.0978,-14.4993,0,0,0,0,0,0,0,-1,748,596,-13.0978,14.4994
-469,428,-13.0196,-15.4268,-0.00595242,0.00350809,0.00254906,0.00415119,-0.00659553,1.32366,0.00625789,0.0380665,755,596,-13.0196,15.4268
-462,428,-13.2372,-16.2529,-0.0040763,0.0031736,0.00149895,0.00347129,-0.00437399,1.37475,0.00453946,0.0396824,762,596,-13.2373,16.2529
-455,428,-13.3386,-17.3027,-0.00254796,0.00258103,0.000790408,0.00270007,-0.002667,1.42131,0.0030987,0.0182248,769,596,-13.3386,17.3026
-448,428,-13.3815,-18.2913,-0.00129789,0.00222844,0.000181982,0.00223781,-0.00130726,1.51937,0.00207012,0.0120668,776,596,-13.3815,18.2913
-441,428,-13.4394,-19.2572,-0.000306046,0.00189651,-0.000273874,0.00193005,-0.000339589,-1.44892,0.00141356,0.0145688,783,596,-13.4394,19.2572
-434,428,-13.4873,-20.2374,0.000446297,0.00158539,-0.000602834,0.00184517,0.000186511,-1.1639,0.0011729,0.0111061,790,596,-13.4873,20.2374
-427,428,-13.5364,-21.1949,0.00103708,0.00133528,-0.000870996,0.00206984,0.000302514,-0.870169,0.00129093,0.0115022,797,596,-13.5364,21.1949
-420,428,-13.5892,-22.0975,0.0015406,0.00112681,-0.0010964,0.00244946,0.000217949,-0.692142,0.00156539,0.012785,804,596,-13.5892,22.0975
-413,428,-13.6553,-23.0232,0.00187197,0.000869482,-0.00118067,0.00265339,8.80578e-05,-0.584658,0.00174032,0.0157102,811,596,-13.6553,23.0232
-406,428,-13.7261,-23.9562,0.00213316,0.000668461,-0.00123037,0.00283265,-3.10205e-05,-0.516946,0.00189885,0.0177213,818,596,-13.7262,23.9562
-399,428,-13.7443,-24.8765,0.00255486,0.000506542,-0.00140022,0.00326549,-0.000204095,-0.469644,0.00224812,0.0171718,825,596,-13.7443,24.8765
-392,428,-13.7996,-25.8405,0.0030476,0.000307855,-0.00157003,0.00376137,-0.000405908,-0.426687,0.00265325,0.0379278,832,596,-13.7996,25.8405
-385,428,-13.8354,-26.7634,0,0,0,0,0,0,0,-1,839,596,-13.8354,26.7633
-378,428,-10.8172,-20.952,0,0,0,0,0,0,0,-1,846,596,-10.8172,20.952
-371,428,-5.96155,-11.0703,0,0,0,0,0,0,0,-1,853,596,-5.96154,11.0702
-364,428,-6.33643,-10.7223,0,0,0,0,0,0,0,-1,860,596,-6.33645,10.7223
-357,428,-3.20996,-4.70966,0,0,0,0,0,0,0,-1,867,596,-3.20997,4.70965
-350,428,-1.62793,-3.94055,0,0,0,0,0,0,0,-1,874,596,-1.62794,3.94055
-343,428,-0.0567017,-4.80994,0,0,0,0,0,0,0,-1,881,596,-0.0567096,4.80996
-336,428,-3.29175,-1.39569,0,0,0,0,0,0,0,-1,888,596,-3.29172,1.39568
-329,428,-3.71564,-0.791321,0,0,0,0,0,0,0,-1,895,596,-3.71564,0.791299
-322,428,-5.52863,-3.59827,0,0,0,0,0,0,0,-1,902,596,-5.52865,3.59829
-315,428,-4.57172,-1.22052,0,0,0,0,0,0,0,-1,909,596,-4.57171,1.22052
-308,428,-5.60742,-3.40961,0,0,0,0,0,0,0,-1,916,596,-5.60744,3.40959
-301,428,0,0,0,0,0,0,0,0,0,-1,923,596,0,0
-294,428,0,0,0,0,0,0,0,0,0,-1,930,596,0,0
-287,428,0,0,0,0,0,0,0,0,0,-1,937,596,0,0
-280,428,0,0,0,0,0,0,0,0,0,-1,944,596,0,0
-273,428,0,0,0,0,0,0,0,0,0,-1,951,596,0,0
-266,428,0,0,0,0,0,0,0,0,0,-1,958,596,0,0
-259,428,0,0,0,0,0,0,0,0,0,-1,965,596,0,0
-252,428,0,0,0,0,0,0,0,0,0,-1,972,596,0,0
-245,428,0,0,0,0,0,0,0,0,0,-1,979,596,0,0
-238,428,0,0,0,0,0,0,0,0,0,-1,986,596,0,0
-231,428,0,0,0,0,0,0,0,0,0,-1,993,596,0,0
-224,428,0,0,0,0,0,0,0,0,0,-1,1000,596,0,0
-217,428,0,0,0,0,0,0,0,0,0,-1,1007,596,0,0
-210,428,0,0,0,0,0,0,0,0,0,-1,1014,596,0,0
-203,428,0,0,0,0,0,0,0,0,0,-1,1021,596,0,0
-196,428,0,0,0,0,0,0,0,0,0,-1,1028,596,0,0
-189,428,0,0,0,0,0,0,0,0,0,-1,1035,596,0,0
-182,428,0,0,0,0,0,0,0,0,0,-1,1042,596,0,0
-175,428,0,0,0,0,0,0,0,0,0,-1,1049,596,0,0
-168,428,0,0,0,0,0,0,0,0,0,-1,1056,596,0,0
-161,428,0,0,0,0,0,0,0,0,0,-1,1063,596,0,0
-154,428,0,0,0,0,0,0,0,0,0,-1,1070,596,0,0
-147,428,0,0,0,0,0,0,0,0,0,-1,1077,596,0,0
-140,428,0,0,0,0,0,0,0,0,0,-1,1084,596,0,0
-133,428,0,0,0,0,0,0,0,0,0,-1,1091,596,0,0
-126,428,0,0,0,0,0,0,0,0,0,-1,1098,596,0,0
-119,428,0,0,0,0,0,0,0,0,0,-1,1105,596,0,0
-112,428,0,0,0,0,0,0,0,0,0,-1,1112,596,0,0
-105,428,0,0,0,0,0,0,0,0,0,-1,1119,596,0,0
-98,428,0,0,0,0,0,0,0,0,0,-1,1126,596,0,0
-91,428,0,0,0,0,0,0,0,0,0,-1,1133,596,0,0
-84,428,0,0,0,0,0,0,0,0,0,-1,1140,596,0,0
-77,428,0,0,0,0,0,0,0,0,0,-1,1147,596,0,0
-70,428,0,0,0,0,0,0,0,0,0,-1,1154,596,0,0
-63,428,0,0,0,0,0,0,0,0,0,-1,1161,596,0,0
-56,428,0,0,0,0,0,0,0,0,0,-1,1168,596,0,0
-49,428,0,0,0,0,0,0,0,0,0,-1,1175,596,0,0
-42,428,0,0,0,0,0,0,0,0,0,-1,1182,596,0,0
-35,428,0,0,0,0,0,0,0,0,0,-1,1189,596,0,0
-28,428,0,0,0,0,0,0,0,0,0,-1,1196,596,0,0
-21,428,0,0,0,0,0,0,0,0,0,-1,1203,596,0,0
-14,428,0,0,0,0,0,0,0,0,0,-1,1210,596,0,0
-7,428,0,0,0,0,0,0,0,0,0,-1,1217,596,0,0
0,428,0,0,0,0,0,0,0,0,0,-1,1224,596,0,0
7,428,0,0,0,0,0,0,0,0,0,-1,1231,596,0,0
14,428,0,0,0,0,0,0,0,0,0,-1,1238,596,0,0
21,428,0,0,0,0,0,0,0,0,0,-1,1245,596,0,0
28,428,0,0,0,0,0,0,0,0,0,-1,1252,596,0,0
35,428,0,0,0,0,0,0,0,0,0,-1,1259,596,0,0
42,428,0,0,0,0,0,0,0,0,0,-1,1266,596,0,0
49,428,0,0,0,0,0,0,0,0,0,-1,1273,596,0,0
56,428,0,0,0,0,0,0,0,0,0,-1,1280,596,0,0
63,428,0,0,0,0,0,0,0,0,0,-1,1287,596,0,0
70,428,0,0,0,0,0,0,0,0,0,-1,1294,596,0,0
77,428,0,0,0,0,0,0,0,0,0,-1,1301,596,0,0
84,428,0,0,0,0,0,0,0,0,0,-1,1308,596,0,0
91,428,0,0,0,0,0,0,0,0,0,-1,1315,596,0,0
98,428,0,0,0,0,0,0,0,0,0,-1,1322,596,0,0
105,428,0,0,0,0,0,0,0,0,0,-1,1329,596,0,0
112,428,0,0,0,0,0,0,0,0,0,-1,1336,596,0,0
119,428,0,0,0,0,0,0,0,0,0,-1,1343,596,0,0
126,428,0,0,0,0,0,0,0,0,0,-1,1350,596,0,0
133,428,0,0,0,0,0,0,0,0,0,-1,1357,596,0,0
140,428,0,0,0,0,0,0,0,0,0,-1,1364,596,0,0
147,428,0,0,0,0,0,0,0,0,0,-1,1371,596,0,0
154,428,0,0,0,0,0,0,0,0,0,-1,1378,596,0,0
161,428,0,0,0,0,0,0,0,0,0,-1,1385,596,0,0
168,428,0,0,0,0,0,0,0,0,0,-1,1392,596,0,0
175,428,0,0,0,0,0,0,0,0,0,-1,1399,596,0,0
182,428,0,0,0,0,0,0,0,0,0,-1,1406,596,0,0
189,428,0,0,0,0,0,0,0,0,0,-1,1413,596,0,0
196,428,0,0,0,0,0,0,0,0,0,-1,1420,596,0,0
203,428,0,0,0,0,0,0,0,0,0,-1,1427,596,0,0
210,428,0,0,0,0,0,0,0,0,0,-1,1434,596,0,0
217,428,0,0,0,0,0,0,0,0,0,-1,1441,596,0,0
224,428,0,0,0,0,0,0,0,0,0,-1,1448,596,0,0
231,428,0,0,0,0,0,0,0,0,0,-1,1455,596,0,0
238,428,0,0,0,0,0,0,0,0,0,-1,1462,596,0,0
245,428,0,0,0,0,0,0,0,0,0,-1,1469,596,0,0
252,428,0,0,0,0,0,0,0,0,0,-1,1476,596,0,0
259,428,0,0,0,0,0,0,0,0,0,-1,1483,596,0,0
266,428,0,0,0,0,0,0,0,0,0,-1,1490,596,0,0
273,428,0,0,0,0,0,0,0,0,0,-1,1497,596,0,0
280,428,0,0,0,0,0,0,0,0,0,-1,1504,596,0,0
287,428,0,0,0,0,0,0,0,0,0,-1,1511,596,0,0
294,428,0,0,0,0,0,0,0,0,0,-1,1518,596,0,0
301,428,0,0,0,0,0,0,0,0,0,-1,1525,596,0,0
308,428,0,0,0,0,0,0,0,0,0,-1,1532,596,0,0
315,428,0,0,0,0,0,0,0,0,0,-1,1539,596,0,0
322,428,0,0,0,0,0,0,0,0,0,-1,1546,596,0,0
329,428,0,0,0,0,0,0,0,0,0,-1,1553,596,0,0
336,428,0,0,0,0,0,0,0,0,0,-1,1560,596,0,0
343,428,0,0,0,0,0,0,0,0,0,-1,1567,596,0,0
350,428,0,0,0,0,0,0,0,0,0,-1,1574,596,0,0
357,428,0,0,0,0,0,0,0,0,0,-1,1581,596,0,0
364,428,0,0,0,0,0,0,0,0,0,-1,1588,596,0,0
371,428,0,0,0,0,0,0,0,0,0,-1,1595,596,0,0
378,428,0,0,0,0,0,0,0,0,0,-1,1602,596,0,0
385,428,0,0,0,0,0,0,0,0,0,-1,1609,596,0,0
392,428,0,0,0,0,0,0,0,0,0,-1,1616,596,0,0
399,428,0,0,0,0,0,0,0,0,0,-1,1623,596,0,0
406,428,0,0,0,0,0,0,0,0,0,-1,1630,596,0,0
413,428,0,0,0,0,0,0,0,0,0,-1,1637,596,0,0
420,428,19.8469,1.3399,0,0,0,0,0,0,0,-1,1644,596,19.8469,-1.33992
427,428,20.7299,-0.225281,0,0,0,0,0,0,0,-1,1651,596,20.7299,0.225262
434,428,19.8915,-0.583069,0,0,0,0,0,0,0,-1,1658,596,19.8915,0.583075
441,428,8.17993,0.607483,0,0,0,0,0,0,0,-1,1665,596,8.17997,-0.607513
448,428,7.84338,-0.385986,0,0,0,0,0,0,0,-1,1672,596,7.84336,0.385978
455,428,6.64038,2.1123,0,0,0,0,0,0,0,-1,1679,596,6.64037,-2.11229
462,428,4.84106,4.12341,0,0,0,0,0,0,0,-1,1686,596,4.84107,-4.12339
469,428,7.83789,3.10083,0,0,0,0,0,0,0,-1,1693,596,7.83785,-3.10086
476,428,7.61255,1.73956,0,0,0,0,0,0,0,-1,1700,596,7.61252,-1.73958
483,428,7.22766,1.05121,0,0,0,0,0,0,0,-1,1707,596,7.2277,-1.05121
490,428,5.4071,-3.2793,0,0,0,0,0,0,0,-1,1714,596,5.40707,3.27929
497,428,7.84106,-3.65491,0,0,0,0,0,0,0,-1,1721,596,7.84107,3.65491
504,428,6.92139,-2.83356,0,0,0,0,0,0,0,-1,1728,596,6.92137,2.83353
511,428,7.88501,-3.78723,0,0,0,0,0,0,0,-1,1735,596,7.88502,3.78722
518,428,29.7322,-25.5447,0,0,0,0,0,0,0,-1,1742,596,29.7322,25.5447
525,428,29.635,-24.5842,0.0031325,0.00105371,0.002359,0.00467094,-0.000484723,0.57789,0.00328747,0.0472465,1749,596,29.635,24.5841
532,428,29.6536,-23.5444,0.00241682,0.000803387,0.00184474,0.00362353,-0.000403318,0.579274,0.00256074,0.0230318,1756,596,29.6536,23.5444
539,428,29.6647,-22.5931,0.00200196,0.000798225,0.00152956,0.0030438,-0.000243621,0.597957,0.00211509,0.0235055,1763,596,29.6647,22.5931
546,428,29.611,-21.6581,0.00170942,0.000904193,0.00127865,0.00264735,-3.37353e-05,0.632876,0.00177625,0.0177057,1770,596,29.611,21.6581
553,428,29.548,-20.7504,0.00145338,0.00123047,0.00113369,0.00248108,0.000202767,0.736401,0.00159078,0.0134072,1777,596,29.548,20.7504
560,428,29.496,-19.8325,0.00124974,0.00168562,0.00112908,0.0026176,0.000317756,0.880737,0.00164938,0.0136467,1784,596,29.4959,19.8325
567,428,29.4556,-18.8992,0.00123528,0.00238332,0.00135356,0.00327955,0.000339055,0.985944,0.00208257,0.0120816,1791,596,29.4555,18.8993
574,428,29.4025,-17.9725,0.00135455,0.00323906,0.00169612,0.00423708,0.000356528,1.03894,0.00271369,0.0140704,1798,596,29.4024,17.9725
581,428,29.3162,-17.006,0.00163538,0.00431508,0.00230225,0.00563897,0.000311482,1.04893,0.00365991,0.0122562,1805,596,29.3162,17.0061
588,428,29.2432,-16.0054,0.00206381,0.0056631,0.0031335,0.00747698,0.000249933,1.04606,0.00490346,0.0192167,1812,596,29.2431,16.0054
595,428,29.1511,-15.0006,0.00268857,0.0073105,0.00418851,0.00978328,0.000215787,1.03749,0.00645146,0.030657,1819,596,29.1511,15.0006
602,428,29.2616,-13.9396,0,0,0,0,0,0,0,-1,1826,596,29.2616,13.9396
609,428,17.2073,-4.82446,0,0,0,0,0,0,0,-1,1833,596,17.2073,4.82447
616,428,15.7817,-3.09558,0,0,0,0,0,0,0,-1,1840,596,15.7817,3.09556
623,428,9.53577,1.12518,0,0,0,0,0,0,0,-1,1847,596,9.5358,-1.1252
630,428,7.07996,6.88562,0,0,0,0,0,0,0,-1,1854,596,7.0799,-6.88565
637,428,3.95435,1.90857,0,0,0,0,0,0,0,-1,1861,596,3.95439,-1.90858
644,428,5.75476,0.888977,0,0,0,0,0,0,0,-1,1868,596,5.75472,-0.888955
651,428,0,0,0,0,0,0,0,0,0,-1,1875,596,0,0
658,428,0,0,0,0,0,0,0,0,0,-1,1882,596,0,0
665,428,0,0,0,0,0,0,0,0,0,-1,1889,596,0,0
672,428,0,0,0,0,0,0,0,0,0,-1,1896,596,0,0
679,428,0,0,0,0,0,0,0,0,0,-1,1903,596,0,0
686,428,0,0,0,0,0,0,0,0,0,-1,1910,596,0,0
693,428,0,0,0,0,0,0,0,0,0,-1,1917,596,0,0
700,428,0,0,0,0,0,0,0,0,0,-1,1924,596,0,0
707,428,0,0,0,0,0,0,0,0,0,-1,1931,596,0,0
714,428,0,0,0,0,0,0,0,0,0,-1,1938,596,0,0
721,428,0,0,0,0,0,0,0,0,0,-1,1945,596,0,0
728,428,0,0,0,0,0,0,0,0,0,-1,1952,596,0,0
735,428,0,0,0,0,0,0,0,0,0,-1,1959,596,0,0
742,428,0,0,0,0,0,0,0,0,0,-1,1966,596,0,0
749,428,0,0,0,0,0,0,0,0,0,-1,1973,596,0,0
756,428,0,0,0,0,0,0,0,0,0,-1,1980,596,0,0
763,428,0,0,0,0,0,0,0,0,0,-1,1987,596,0,0
770,428,0,0,0,0,0,0,0,0,0,-1,1994,596,0,0
777,428,0,0,0,0,0,0,0,0,0,-1,2001,596,0,0
784,428,0,0,0,0,0,0,0,0,0,-1,2008,596,0,0
791,428,0,0,0,0,0,0,0,0,0,-1,2015,596,0,0
798,428,0,0,0,0,0,0,0,0,0,-1,2022,596,0,0
805,428,0,0,0,0,0,0,0,0,0,-1,2029,596,0,0
812,428,0,0,0,0,0,0,0,0,0,-1,2036,596,0,0
-700,421,0,0,0,0,0,0,0,0,0,-1,524,603,0,0
-693,421,0,0,0,0,0,0,0,0,0,-1,531,603,0,0
-686,421,0,0,0,0,0,0,0,0,0,-1,538,603,0,0
-679,421,0,0,0,0,0,0,0,0,0,-1,545,603,0,0
-672,421,0,0,0,0,0,0,0,0,0,-1,552,603,0,0
-665,421,0,0,0,0,0,0,0,0,0,-1,559,603,0,0
-658,421,0,0,0,0,0,0,0,0,0,-1,566,603,0,0
-651,421,0,0,0,0,0,0,0,0,0,-1,573,603,0,0
-644,421,0,0,0,0,0,0,0,0,0,-1,580,603,0,0
-637,421,0,0,0,0,0,0,0,0,0,-1,587,603,0,0
-630,421,0,0,0,0,0,0,0,0,0,-1,594,603,0,0
-623,421,0,0,0,0,0,0,0,0,0,-1,601,603,0,0
-616,421,0,0,0,0,0,0,0,0,0,-1,608,603,0,0
-609,421,0,0,0,0,0,0,0,0,0,-1,615,603,0,0
-602,421,0,0,0,0,0,0,0,0,0,-1,622,603,0,0
-595,421,0,0,0,0,0,0,0,0,0,-1,629,603,0,0
-588,421,0,0,0,0,0,0,0,0,0,-1,636,603,0,0
-581,421,0,0,0,0,0,0,0,0,0,-1,643,603,0,0
-574,421,0,0,0,0,0,0,0,0,0,-1,650,603,0,0
-567,421,0,0,0,0,0,0,0,0,0,-1,657,603,0,0
-560,421,0,0,0,0,0,0,0,0,0,-1,664,603,0,0
-553,421,0,0,0,0,0,0,0,0,0,-1,671,603,0,0
-546,421,0,0,0,0,0,0,0,0,0,-1,678,603,0,0
-539,421,0,0,0,0,0,0,0,0,0,-1,685,603,0,0
-532,421,-8.97382,6.95636,0,0,0,0,0,0,0,-1,692,603,-8.97384,-6.95634
-525,421,-2.11481,-8.04272,0,0,0,0,0,0,0,-1,699,603,-2.11483,8.0427
-518,421,-3.05908,-5.07233,0,0,0,0,0,0,0,-1,706,603,-3.0591,5.07235
-511,421,-4.63525,-4.08447,0,0,0,0,0,0,0,-1,713,603,-4.63524,4.08449
-504,421,-5.17029,-4.94458,0,0,0,0,0,0,0,-1,720,603,-5.17029,4.9446
-497,421,-6.63141,-2.32501,0,0,0,0,0,0,0,-1,727,603,-6.6314,2.32498
-490,421,-6.7616,-4.14783,0,0,0,0,0,0,0,-1,734,603,-6.76159,4.1478
-483,421,-13.7624,-13.7052,0,0,0,0,0,0,0,-1,741,603,-13.7624,13.7052
-476,421,-13.9298,-14.5522,-0.00603277,0.00294176,0.00288117,0.0037871,-0.00687811,1.2854,0.00624317,0.0454018,748,603,-13.9298,14.5522
-469,421,-14.1567,-15.3052,-0.00456907,0.00258528,0.00186884,0.00304403,-0.00502783,1.33008,0.00470697,0.0376731,755,603,-14.1567,15.3052
-462,421,-14.2278,-16.3669,-0.00310688,0.00219364,0.0010926,0.00241003,-0.00332327,1.37528,0.00332409,0.023887,762,603,-14.2278,16.3669
-455,421,-14.2854,-17.3253,-0.00184168,0.00171547,0.000505464,0.0017859,-0.00191211,1.43235,0.00213547,0.0206779,769,603,-14.2854,17.3253
-448,421,-14.36,-18.2214,-0.000744241,0.00139824,-3.73607e-06,0.00139825,-0.000744248,-1.56905,0.00125604,0.0194222,776,603,-14.3601,18.2214
-441,421,-14.3984,-19.1841,0.000173366,0.00116032,-0.00041699,0.00131291,2.07779e-05,-1.22,0.000868428,0.0156236,783,603,-14.3984,19.1841
-434,421,-14.4473,-20.1779,0.000919231,0.00098093,-0.000741683,0.00169241,0.000207756,-0.806183,0.00106579,0.0117417,790,603,-14.4474,20.1779
-427,421,-14.4821,-21.1225,0.00154164,0.000913848,-0.0010504,0.00232404,0.000131448,-0.640204,0.00150745,0.0110244,797,603,-14.4821,21.1225
-420,421,-14.5279,-22.0262,0.00206352,0.000912815,-0.0013159,0.00292436,5.19851e-05,-0.579305,0.00193247,0.0122204,804,603,-14.5279,22.0263
-413,421,-14.5934,-22.9331,0.00240753,0.000938779,-0.00147176,0.00331796,2.83491e-05,-0.553984,0.00220258,0.0150631,811,603,-14.5935,22.9331
-406,421,-14.6993,-23.8957,0.00272974,0.00115258,-0.00169993,0.00381509,6.72279e-05,-0.568225,0.00252129,0.0227662,818,603,-14.6993,23.8957
-399,421,-14.6229,-24.7822,0,0,0,0,0,0,0,-1,825,603,-14.6228,24.7822
-392,421,-14.5892,-25.8535,0,0,0,0,0,0,0,-1,832,603,-14.5893,25.8535
-385,421,-11.5825,-18.8583,0,0,0,0,0,0,0,-1,839,603,-11.5825,18.8583
-378,421,-4.94733,-8.87909,0,0,0,0,0,0,0,-1,846,603,-4.94731,8.87906
-371,421,-5.65082,-7.01849,0,0,0,0,0,0,0,-1,853,603,-5.65082,7.0185
-364,421,-5.94189,-7.09875,0,0,0,0,0,0,0,-1,860,603,-5.94192,7.09878
-357,421,-7.62531,-8.26337,0,0,0,0,0,0,0,-1,867,603,-7.62532,8.26337
-350,421,-5.38019,-3.75024,0,0,0,0,0,0,0,-1,874,603,-5.38017,3.75026
-343,421,-6.22797,-2.57123,0,0,0,0,0,0,0,-1,881,603,-6.22798,2.57121
-336,421,-6.22882,-2.59369,0,0,0,0,0,0,0,-1,888,603,-6.22883,2.5937
-329,421,-4.50134,-1.49469,0,0,0,0,0,0,0,-1,895,603,-4.50137,1.49468
-322,421,-7.55817,1.13263,0,0,0,0,0,0,0,-1,902,603,-7.55818,-1.13263
-315,421,-4.16144,-1.96649,0,0,0,0,0,0,0,-1,909,603,-4.16146,1.9665
-308,421,0,0,0,0,0,0,0,0,0,-1,916,603,0,0
-301,421,0,0,0,0,0,0,0,0,0,-1,923,603,0,0
-294,421,0,0,0,0,0,0,0,0,0,-1,930,603,0,0
-287,421,0,0,0,0,0,0,0,0,0,-1,937,603,0,0
-280,421,0,0,0,0,0,0,0,0,0,-1,944,603,0,0
-273,421,0,0,0,0,0,0,0,0,0,-1,951,603,0,0
-266,421,0,0,0,0,0,0,0,0,0,-1,958,603,0,0
-259,421,0,0,0,0,0,0,0,0,0,-1,965,603,0,0
-252,421,0,0,0,0,0,0,0,0,0,-1,972,603,0,0
-245,421,0,0,0,0,0,0,0,0,0,-1,979,603,0,0
-238,421,0,0,0,0,0,0,0,0,0,-1,986,603,0,0
-231,421,0,0,0,0,0,0,0,0,0,-1,993,603,0,0
-224,421,0,0,0,0,0,0,0,0,0,-1,1000,603,0,0
-217,421,0,0,0,0,0,0,0,0,0,-1,1007,603,0,0
-210,421,0,0,0,0,0,0,0,0,0,-1,1014,603,0,0
-203,421,0,0,0,0,0,0,0,0,0,-1,1021,603,0,0
-196,421,0,0,0,0,0,0,0,0,0,-1,1028,603,0,0
-189,421,0,0,0,0,0,0,0,0,0,-1,1035,603,0,0
-182,421,0,0,0,0,0,0,0,0,0,-1,1042,603,0,0
-175,421,0,0,0,0,0,0,0,0,0,-1,1049,603,0,0
-168,421,0,0,0,0,0,0,0,0,0,-1,1056,603,0,0
-161,421,0,0,0,0,0,0,0,0,0,-1,1063,603,0,0
-154,421,0,0,0,0,0,0,0,0,0,-1,1070,603,0,0
-147,421,0,0,0,0,0,0,0,0,0,-1,1077,603,0,0
-140,421,0,0,0,0,0,0,0,0,0,-1,1084,603,0,0
-133,421,0,0,0,0,0,0,0,0,0,-1,1091,603,0,0
-126,421,0,0,0,0,0,0,0,0,0,-1,1098,603,0,0
-119,421,0,0,0,0,0,0,0,0,0,-1,1105,603,0,0
-112,421,0,0,0,0,0,0,0,0,0,-1,1112,603,0,0
-105,421,0,0,0,0,0,0,0,0,0,-1,1119,603,0,0
-98,421,0,0,0,0,0,0,0,0,0,-1,1126,603,0,0
-91,421,0,0,0,0,0,0,0,0,0,-1,1133,603,0,0
-84,421,0,0,0,0,0,0,0,0,0,-1,1140,603,0,0
-77,421,0,0,0,0,0,0,0,0,0,-1,1147,603,0,0
-70,421,0,0,0,0,0,0,0,0,0,-1,1154,603,0,0
-63,421,0,0,0,0,0,0,0,0,0,-1,1161,603,0,0
-56,421,0,0,0,0,0,0,0,0,0,-1,1168,603,0,0
-49,421,0,0,0,0,0,0,0,0,0,-1,1175,603,0,0
-42,421,0,0,0,0,0,0,0,0,0,-1,1182,603,0,0
-35,421,0,0,0,0,0,0,0,0,0,-1,1189,603,0,0
-28,421,0,0,0,0,0,0,0,0,0,-1,1196,603,0,0
-21,421,0,0,0,0,0,0,0,0,0,-1,1203,603,0,0
-14,421,0,0,0,0,0,0,0,0,0,-1,1210,603,0,0
-7,421,0,0,0,0,0,0,0,0,0,-1,1217,603,0,0
0,421,0,0,0,0,0,0,0,0,0,-1,1224,603,0,0
7,421,0,0,0,0,0,0,0,0,0,-1,1231,603,0,0
14,421,0,0,0,0,0,0,0,0,0,-1,1238,603,0,0
21,421,0,0,0,0,0,0,0,0,0,-1,1245,603,0,0
28,421,0,0,0,0,0,0,0,0,0,-1,1252,603,0,0
35,421,0,0,0,0,0,0,0,0,0,-1,1259,603,0,0
42,421,0,0,0,0,0,0,0,0,0,-1,1266,603,0,0
49,421,0,0,0,0,0,0,0,0,0,-1,1273,603,0,0
56,421,0,0,0,0,0,0,0,0,0,-1,1280,603,0,0
63,421,0,0,0,0,0,0,0,0,0,-1,1287,603,0,0
70,421,0,0,0,0,0,0,0,0,0,-1,1294,603,0,0
77,421,0,0,0,0,0,0,0,0,0,-1,1301,603,0,0
84,421,0,0,0,0,0,0,0,0,0,-1,1308,603,0,0
91,421,0,0,0,0,0,0,0,0,0,-1,1315,603,0,0
98,421,0,0,0,0,0,0,0,0,0,-1,1322,603,0,0
105,421,0,0,0,0,0,0,0,0,0,-1,1329,603,0,0
112,421,0,0,0,0,0,0,0,0,0,-1,1336,603,0,0
119,421,0,0,0,0,0,0,0,0,0,-1,1343,603,0,0
126,421,0,0,0,0,0,0,0,0,0,-1,1350,603,0,0
133,421,0,0,0,0,0,0,0,0,0,-1,1357,603,0,0
140,421,0,0,0,0,0,0,0,0,0,-1,1364,603,0,0
147,421,0,0,0,0,0,0,0,0,0,-1,1371,603,0,0
154,421,0,0,0,0,0,0,0,0,0,-1,1378,603,0,0
161,421,0,0,0,0,0,0,0,0,0,-1,1385,603,0,0
168,421,0,0,0,0,0,0,0,0,0,-1,1392,603,0,0
175,421,0,0,0,0,0,0,0,0,0,-1,1399,603,0,0
182,421,0,0,0,0,0,0,0,0,0,-1,1406,603,0,0
189,421,0,0,0,0,0,0,0,0,0,-1,1413,603,0,0
196,421,0,0,0,0,0,0,0,0,0,-1,1420,603,0,0
203,421,0,0,0,0,0,0,0,0,0,-1,1427,603,0,0
210,421,0,0,0,0,0,0,0,0,0,-1,1434,603,0,0
217,421,0,0,0,0,0,0,0,0,0,-1,1441,603,0,0
224,421,0,0,0,0,0,0,0,0,0,-1,1448,603,0,0
231,421,0,0,0,0,0,0,0,0,0,-1,1455,603,0,0
238,421,0,0,0,0,0,0,0,0,0,-1,1462,603,0,0
245,421,0,0,0,0,0,0,0,0,0,-1,1469,603,0,0
252,421,0,0,0,0,0,0,0,0,0,-1,1476,603,0,0
259,421,0,0,0,0,0,0,0,0,0,-1,1483,603,0,0
266,421,0,0,0,0,0,0,0,0,0,-1,1490,603,0,0
273,421,0,0,0,0,0,0,0,0,0,-1,1497,603,0,0
280,421,0,0,0,0,0,0,0,0,0,-1,1504,603,0,0
287,421,0,0,0,0,0,0,0,0,0,-1,1511,603,0,0
294,421,0,0,0,0,0,0,0,0,0,-1,1518,603,0,0
301,421,0,0,0,0,0,0,0,0,0,-1,1525,603,0,0
308,421,0,0,0,0,0,0,0,0,0,-1,1532,603,0,0
315,421,0,0,0,0,0,0,0,0,0,-1,1539,603,0,0
322,421,0,0,0,0,0,0,0,0,0,-1,1546,603,0,0
329,421,0,0,0,0,0,0,0,0,0,-1,1553,603,0,0
336,421,0,0,0,0,0,0,0,0,0,-1,1560,603,0,0
343,421,0,0,0,0,0,0,0,0,0,-1,1567,603,0,0
350,421,0,0,0,0,0,0,0,0,0,-1,1574,603,0,0
357,421,0,0,0,0,0,0,0,0,0,-1,1581,603,0,0
364,421,0,0,0,0,0,0,0,0,0,-1,1588,603,0,0
371,421,0,0,0,0,0,0,0,0,0,-1,1595,603,0,0
378,421,0,0,0,0,0,0,0,0,0,-1,1602,603,0,0
385,421,0,0,0,0,0,0,0,0,0,-1,1609,603,0,0
392,421,0,0,0,0,0,0,0,0,0,-1,1616,603,0,0
399,421,0,0,0,0,0,0,0,0,0,-1,1623,603,0,0
406,421,0,0,0,0,0,0,0,0,0,-1,1630,603,0,0
413,421,0,0,0,0,0,0,0,0,0,-1,1637,603,0,0
420,421,0,0,0,0,0,0,0,0,0,-1,1644,603,0,0
427,421,0,0,0,0,0,0,0,0,0,-1,1651,603,0,0
434,421,3.68176,-0.0327759,0,0,0,0,0,0,0,-1,1658,603,3.6818,0.0328037
441,421,8.06689,0.527832,0,0,0,0,0,0,0,-1,1665,603,8.06693,-0.527851
448,421,6.93921,0.802246,0,0,0,0,0,0,0,-1,1672,603,6.93923,-0.802251
455,421,7.29456,2.14825,0,0,0,0,0,0,0,-1,1679,603,7.29461,-2.14827
462,421,7.86902,3.53174,0,0,0,0,0,0,0,-1,1686,603,7.869,-3.53173
469,421,8.06604,2.81213,0,0,0,0,0,0,0,-1,1693,603,8.06606,-2.81212
476,421,8.26306,2.09253,0,0,0,0,0,0,0,-1,1700,603,8.26312,-2.09251
483,421,8.05322,0.798096,0,0,0,0,0,0,0,-1,1707,603,8.05323,-0.7981
490,421,7.51233,0.213074,0,0,0,0,0,0,0,-1,1714,603,7.51235,-0.213043
497,421,7.49634,-2.86688,0,0,0,0,0,0,0,-1,1721,603,7.4963,2.86688
504,421,6.90491,-2.18671,0,0,0,0,0,0,0,-1,1728,603,6.90491,2.18669
511,421,6.31348,-1.50653,0,0,0,0,0,0,0,-1,1735,603,6.31353,1.5065
518,421,6.27588,-2.49878,0,0,0,0,0,0,0,-1,1742,603,6.2759,2.4988
525,421,30.3931,-24.6738,0,0,0,0,0,0,0,-1,1749,603,30.3931,24.6737
532,421,30.6473,-23.5132,0,0,0,0,0,0,0,-1,1756,603,30.6474,23.5133
539,421,30.6045,-22.55,0.00225177,0.000598099,0.0016002,0.00322612,-0.000376256,0.546936,0.00228651,0.0267846,1763,603,30.6045,22.5501
546,421,30.5507,-21.6097,0.00190414,0.000578362,0.00124352,0.00265042,-0.000167922,0.540521,0.0018255,0.0145997,1770,603,30.5506,21.6097
553,421,30.4766,-20.6595,0.0016222,0.000809873,0.00102319,0.0023169,0.000115179,0.596457,0.00150767,0.0144773,1777,603,30.4765,20.6595
560,421,30.4193,-19.7305,0.00136762,0.00114444,0.000950109,0.00221267,0.000299389,0.72694,0.00138614,0.0163793,1784,603,30.4193,19.7305
567,421,30.3844,-18.8386,0.00128295,0.00168825,0.00111003,0.00261397,0.000357222,0.875686,0.00163662,0.0182245,1791,603,30.3844,18.8385
574,421,30.3351,-17.9341,0.00136195,0.00239066,0.00141072,0.00337787,0.00037474,0.960212,0.00213797,0.0217027,1798,603,30.3351,17.9341
581,421,30.2648,-16.9346,0.00159146,0.00325188,0.00194039,0.0045322,0.000311136,0.987542,0.00292328,0.021476,1805,603,30.2648,16.9346
588,421,30.1968,-16.028,0.00197703,0.00441459,0.00270901,0.00616636,0.00022526,0.996783,0.00403792,0.0143031,1812,603,30.1968,16.028
595,421,30.1995,-15.0575,0.00255526,0.00580925,0.00369532,0.00821989,0.000144616,0.992771,0.00543236,0.0208051,1819,603,30.1994,15.0575
602,421,30.1877,-14.0319,0,0,0,0,0,0,0,-1,1826,603,30.1878,14.0318
609,421,22.8762,-8.37524,0,0,0,0,0,0,0,-1,1833,603,22.8762,8.37525
616,421,17.7633,-4.72491,0,0,0,0,0,0,0,-1,1840,603,17.7633,4.7249
623,421,6.19885,0.376648,0,0,0,0,0,0,0,-1,1847,603,6.19881,-0.376624
630,421,6.54993,0.778748,0,0,0,0,0,0,0,-1,1854,603,6.54991,-0.778744
637,421,3.74512,1.65405,0,0,0,0,0,0,0,-1,1861,603,3.74517,-1.65407
644,421,3.58081,0.354675,0,0,0,0,0,0,0,-1,1868,603,3.58082,-0.354704
651,421,3.28687,3.66351,0,0,0,0,0,0,0,-1,1875,603,3.28688,-3.66353
658,421,0,0,0,0,0,0,0,0,0,-1,1882,603,0,0
665,421,0,0,0,0,0,0,0,0,0,-1,1889,603,0,0
672,421,0,0,0,0,0,0,0,0,0,-1,1896,603,0,0
679,421,0,0,0,0,0,0,0,0,0,-1,1903,603,0,0
686,421,0,0,0,0,0,0,0,0,0,-1,1910,603,0,0
693,421,0,0,0,0,0,0,0,0,0,-1,1917,603,0,0
700,421,0,0,0,0,0,0,0,0,0,-1,1924,603,0,0
707,421,0,0,0,0,0,0,0,0,0,-1,1931,603,0,0
714,421,0,0,0,0,0,0,0,0,0,-1,1938,603,0,0
721,421,0,0,0,0,0,0,0,0,0,-1,1945,603,0,0
728,421,0,0,0,0,0,0,0,0,0,-1,1952,603,0,0
735,421,0,0,0,0,0,0,0,0,0,-1,1959,603,0,0
742,421,0,0,0,0,0,0,0,0,0,-1,1966,603,0,0
749,421,0,0,0,0,0,0,0,0,0,-1,1973,603,0,0
756,421,0,0,0,0,0,0,0,0,0,-1,1980,603,0,0
763,421,0,0,0,0,0,0,0,0,0,-1,1987,603,0,0
770,421,0,0,0,0,0,0,0,0,0,-1,1994,603,0,0
777,421,0,0,0,0,0,0,0,0,0,-1,2001,603,0,0
784,421,0,0,0,0,0,0,0,0,0,-1,2008,603,0,0
791,421,0,0,0,0,0,0,0,0,0,-1,2015,603,0,0
798,421,0,0,0,0,0,0,0,0,0,-1,2022,603,0,0
805,421,0,0,0,0,0,0,0,0,0,-1,2029,603,0,0
812,421,0,0,0,0,0,0,0,0,0,-1,2036,603,0,0
-700,414,0,0,0,0,0,0,0,0,0,-1,524,610,0,0
-693,414,0,0,0,0,0,0,0,0,0,-1,531,610,0,0
-686,414,0,0,0,0,0,0,0,0,0,-1,538,610,0,0
-679,414,0,0,0,0,0,0,0,0,0,-1,545,610,0,0
-672,414,0,0,0,0,0,0,0,0,0,-1,552,610,0,0
-665,414,0,0,0,0,0,0,0,0,0,-1,559,610,0,0
-658,414,0,0,0,0,0,0,0,0,0,-1,566,610,0,0
-651,414,0,0,0,0,0,0,0,0,0,-1,573,610,0,0
-644,414,0,0,0,0,0,0,0,0,0,-1,580,610,0,0
-637,414,0,0,0,0,0,0,0,0,0,-1,587,610,0,0
-630,414,0,0,0,0,0,0,0,0,0,-1,594,610,0,0
-623,414,0,0,0,0,0,0,0,0,0,-1,601,610,0,0
-616,414,0,0,0,0,0,0,0,0,0,-1,608,610,0,0
-609,414,0,0,0,0,0,0,0,0,0,-1,615,610,0,0
-602,414,0,0,0,0,0,0,0,0,0,-1,622,610,0,0
-595,414,0,0,0,0,0,0,0,0,0,-1,629,610,0,0
-588,414,0,0,0,0,0,0,0,0,0,-1,636,610,0,0
-581,414,0,0,0,0,0,0,0,0,0,-1,643,610,0,0
-574,414,0,0,0,0,0,0,0,0,0,-1,650,610,0,0
-567,414,0,0,0,0,0,0,0,0,0,-1,657,610,0,0
-560,414,0,0,0,0,0,0,0,0,0,-1,664,610,0,0
-553,414,0,0,0,0,0,0,0,0,0,-1,671,610,0,0
-546,414,0,0,0,0,0,0,0,0,0,-1,678,610,0,0
-539,414,-7.50146,5.65619,0,0,0,0,0,0,0,-1,685,610,-7.50149,-5.65617
-532,414,-8.15204,4.01605,0,0,0,0,0,0,0,-1,692,610,-8.15206,-4.01606
-525,414,-3.47137,-3.27924,0,0,0,0,0,0,0,-1,699,610,-3.47136,3.27922
-518,414,-4.12909,-4.36908,0,0,0,0,0,0,0,-1,706,610,-4.12909,4.36909
-511,414,-3.92542,-4.97021,0,0,0,0,0,0,0,-1,713,610,-3.92542,4.97023
-504,414,-9.35394,-5.49896,0,0,0,0,0,0,0,-1,720,610,-9.35394,5.49898
-497,414,-9.67627,-6.54761,0,0,0,0,0,0,0,-1,727,610,-9.6763,6.5476
-490,414,-10.9006,-8.3277,0,0,0,0,0,0,0,-1,734,610,-10.9006,8.3277
-483,414,-14.8337,-13.5119,0,0,0,0,0,0,0,-1,741,610,-14.8337,13.5119
-476,414,-15.0212,-14.4283,-0.00429172,0.00229348,0.00196469,0.0028351,-0.00483334,1.3018,0.0044772,0.0257426,748,610,-15.0212,14.4283
-469,414,-15.1156,-15.334,-0.00326085,0.00191623,0.00128663,0.00221836,-0.00356297,1.34015,0.00336781,0.0158245,755,610,-15.1156,15.334
-462,414,-15.1687,-16.3005,-0.00213303,0.00153571,0.000717871,0.00167118,-0.0022685,1.38429,0.00228327,0.0241062,762,610,-15.1687,16.3005
-455,414,-15.259,-17.2744,-0.00109917,0.0011824,0.000231105,0.00120557,-0.00112235,1.47086,0.00134431,0.0257498,769,610,-15.259,17.2744
-448,414,-15.304,-18.1933,-0.000130319,0.000919015,-0.000207576,0.000958584,-0.000169889,-1.38243,0.000702567,0.0254936,776,610,-15.304,18.1933
-441,414,-15.326,-19.1583,0.000734843,0.00076986,-0.00060652,0.00135912,0.000145579,-0.799828,0.000861666,0.0196423,783,610,-15.326,19.1582
-434,414,-15.4028,-20.1188,0.0014952,0.000705584,-0.000960401,0.00213877,6.20052e-05,-0.590386,0.00140564,0.0114093,790,610,-15.4028,20.1188
-427,414,-15.4467,-21.0472,0.0021708,0.000791369,-0.00134181,0.00298978,-2.7612e-05,-0.547999,0.00200245,0.0117868,797,610,-15.4467,21.0472
-420,414,-15.4835,-21.9609,0.00272849,0.000956058,-0.00167046,0.00373326,-4.87108e-05,-0.541516,0.00250523,0.0106458,804,610,-15.4835,21.9609
-413,414,-15.5486,-22.8924,0.00311859,0.00124012,-0.00193556,0.00433076,2.79485e-05,-0.559508,0.0028779,0.0113704,811,610,-15.5487,22.8924
-406,414,-15.5656,-24.0231,0.00355183,0.00188253,-0.00240943,0.00526709,0.000167277,-0.618661,0.00345698,0.0443675,818,610,-15.5655,24.0231
-399,414,-15.4319,-25.1762,0,0,0,0,0,0,0,-1,825,610,-15.432,25.1762
-392,414,-9.43781,-14.5624,0,0,0,0,0,0,0,-1,832,610,-9.43779,14.5624
-385,414,-8.14691,-13.0653,0,0,0,0,0,0,0,-1,839,610,-8.14692,13.0653
-378,414,-8.04907,-11.3331,0,0,0,0,0,0,0,-1,846,610,-8.04905,11.3331
-371,414,-5.20886,-8.05151,0,0,0,0,0,0,0,-1,853,610,-5.20887,8.05153
-364,414,-6.76282,-6.58759,0,0,0,0,0,0,0,-1,860,610,-6.7628,6.58756
-357,414,-9.08685,-8.86188,0,0,0,0,0,0,0,-1,867,610,-9.08688,8.86187
-350,414,-6.4502,-2.41821,0,0,0,0,0,0,0,-1,874,610,-6.45021,2.41822
-343,414,-6.80249,-2.32117,0,0,0,0,0,0,0,-1,881,610,-6.80252,2.32116
-336,414,-7.11017,-2.52026,0,0,0,0,0,0,0,-1,888,610,-7.11016,2.52026
-329,414,-7.59747,-2.70313,0,0,0,0,0,0,0,-1,895,610,-7.59747,2.70315
-322,414,-4.42236,-1.29163,0,0,0,0,0,0,0,-1,902,610,-4.42238,1.2916
-315,414,0,0,0,0,0,0,0,0,0,-1,909,610,0,0
-308,414,0,0,0,0,0,0,0,0,0,-1,916,610,0,0
-301,414,0,0,0,0,0,0,0,0,0,-1,923,610,0,0
-294,414,0,0,0,0,0,0,0,0,0,-1,930,610,0,0
-287,414,0,0,0,0,0,0,0,0,0,-1,937,610,0,0
-280,414,0,0,0,0,0,0,0,0,0,-1,944,610,0,0
-273,414,0,0,0,0,0,0,0,0,0,-1,951,610,0,0
-266,414,0,0,0,0,0,0,0,0,0,-1,958,610,0,0
-259,414,0,0,0,0,0,0,0,0,0,-1,965,610,0,0
-252,414,0,0,0,0,0,0,0,0,0,-1,972,610,0,0
-245,414,0,0,0,0,0,0,0,0,0,-1,979,610,0,0
-238,414,0,0,0,0,0,0,0,0,0,-1,986,610,0,0
-231,414,0,0,0,0,0,0,0,0,0,-1,993,610,0,0
-224,414,0,0,0,0,0,0,0,0,0,-1,1000,610,0,0
-217,414,0,0,0,0,0,0,0,0,0,-1,1007,610,0,0
-210,414,0,0,0,0,0,0,0,0,0,-1,1014,610,0,0
-203,414,0,0,0,0,0,0,0,0,0,-1,1021,610,0,0
-196,414,0,0,0,0,0,0,0,0,0,-1,1028,610,0,0
-189,414,0,0,0,0,0,0,0,0,0,-1,1035,610,0,0
-182,414,0,0,0,0,0,0,0,0,0,-1,1042,610,0,0
-175,414,0,0,0,0,0,0,0,0,0,-1,1049,610,0,0
-168,414,0,0,0,0,0,0,0,0,0,-1,1056,610,0,0
-161,414,0,0,0,0,0,0,0,0,0,-1,1063,610,0,0
-154,414,0,0,0,0,0,0,0,0,0,-1,1070,610,0,0
-147,414,0,0,0,0,0,0,0,0,0,-1,1077,610,0,0
-140,414,0,0,0,0,0,0,0,0,0,-1,1084,610,0,0
-133,414,0,0,0,0,0,0,0,0,0,-1,1091,610,0,0
-126,414,0,0,0,0,0,0,0,0,0,-1,1098,610,0,0
-119,414,0,0,0,0,0,0,0,0,0,-1,1105,610,0,0
-112,414,0,0,0,0,0,0,0,0,0,-1,1112,610,0,0
-105,414,0,0,0,0,0,0,0,0,0,-1,1119,610,0,0
-98,414,0,0,0,0,0,0,0,0,0,-1,1126,610,0,0
-91,414,0,0,0,0,0,0,0,0,0,-1,1133,610,0,0
-84,414,0,0,0,0,0,0,0,0,0,-1,1140,610,0,0
-77,414,0,0,0,0,0,0,0,0,0,-1,1147,610,0,0
-70,414,0,0,0,0,0,0,0,0,0,-1,1154,610,0,0
-63,414,0,0,0,0,0,0,0,0,0,-1,1161,610,0,0
-56,414,0,0,0,0,0,0,0,0,0,-1,1168,610,0,0
-49,414,0,0,0,0,0,0,0,0,0,-1,1175,610,0,0
-42,414,0,0,0,0,0,0,0,0,0,-1,1182,610,0,0
-35,414,0,0,0,0,0,0,0,0,0,-1,1189,610,0,0
-28,414,0,0,0,0,0,0,0,0,0,-1,1196,610,0,0
-21,414,0,0,0,0,0,0,0,0,0,-1,1203,610,0,0
-14,414,0,0,0,0,0,0,0,0,0,-1,1210,610,0,0
-7,414,0,0,0,0,0,0,0,0,0,-1,1217,610,0,0
0,414,0,0,0,0,0,0,0,0,0,-1,1224,610,0,0
7,414,0,0,0,0,0,0,0,0,0,-1,1231,610,0,0
14,414,0,0,0,0,0,0,0,0,0,-1,1238,610,0,0
21,414,0,0,0,0,0,0,0,0,0,-1,1245,610,0,0
28,414,0,0,0,0,0,0,0,0,0,-1,1252,610,0,0
35,414,0,0,0,0,0,0,0,0,0,-1,1259,610,0,0
42,414,0,0,0,0,0,0,0,0,0,-1,1266,610,0,0
49,414,0,0,0,0,0,0,0,0,0,-1,1273,610,0,0
56,414,0,0,0,0,0,0,0,0,0,-1,1280,610,0,0
63,414,0,0,0,0,0,0,0,0,0,-1,1287,610,0,0
70,414,0,0,0,0,0,0,0,0,0,-1,1294,610,0,0
77,414,0,0,0,0,0,0,0,0,0,-1,1301,610,0,0
84,414,0,0,0,0,0,0,0,0,0,-1,1308,610,0,0
91,414,0,0,0,0,0,0,0,0,0,-1,1315,610,0,0
98,414,0,0,0,0,0,0,0,0,0,-1,1322,610,0,0
105,414,0,0,0,0,0,0,0,0,0,-1,1329,610,0,0
112,414,0,0,0,0,0,0,0,0,0,-1,1336,610,0,0
119,414,0,0,0,0,0,0,0,0,0,-1,1343,610,0,0
126,414,0,0,0,0,0,0,0,0,0,-1,1350,610,0,0
133,414,0,0,0,0,0,0,0,0,0,-1,1357,610,0,0
140,414,0,0,0,0,0,0,0,0,0,-1,1364,610,0,0
147,414,0,0,0,0,0,0,0,0,0,-1,1371,610,0,0
154,414,0,0,0,0,0,0,0,0,0,-1,1378,610,0,0
161,414,0,0,0,0,0,0,0,0,0,-1,1385,610,0,0
168,414,0,0,0,0,0,0,0,0,0,-1,1392,610,0,0
175,414,0,0,0,0,0,0,0,0,0,-1,1399,610,0,0
182,414,0,0,0,0,0,0,0,0,0,-1,1406,610,0,0
189,414,0,0,0,0,0,0,0,0,0,-1,1413,610,0,0
196,414,0,0,0,0,0,0,0,0,0,-1,1420,610,0,0
203,414,0,0,0,0,0,0,0,0,0,-1,1427,610,0,0
210,414,0,0,0,0,0,0,0,0,0,-1,1434,610,0,0
217,414,0,0,0,0,0,0,0,0,0,-1,1441,610,0,0
224,414,0,0,0,0,0,0,0,0,0,-1,1448,610,0,0
231,414,0,0,0,0,0,0,0,0,0,-1,1455,610,0,0
238,414,0,0,0,0,0,0,0,0,0,-1,1462,610,0,0
245,414,0,0,0,0,0,0,0,0,0,-1,1469,610,0,0
252,414,0,0,0,0,0,0,0,0,0,-1,1476,610,0,0
259,414,0,0,0,0,0,0,0,0,0,-1,1483,610,0,0
266,414,0,0,0,0,0,0,0,0,0,-1,1490,610,0,0
273,414,0,0,0,0,0,0,0,0,0,-1,1497,610,0,0
280,414,0,0,0,0,0,0,0,0,0,-1,1504,610,0,0
287,414,0,0,0,0,0,0,0,0,0,-1,1511,610,0,0
294,414,0,0,0,0,0,0,0,0,0,-1,1518,610,0,0
301,414,0,0,0,0,0,0,0,0,0,-1,1525,610,0,0
308,414,0,0,0,0,0,0,0,0,0,-1,1532,610,0,0
315,414,0,0,0,0,0,0,0,0,0,-1,1539,610,0,0
322,414,0,0,0,0,0,0,0,0,0,-1,1546,610,0,0
329,414,0,0,0,0,0,0,0,0,0,-1,1553,610,0,0
336,414,0,0,0,0,0,0,0,0,0,-1,1560,610,0,0
343,414,0,0,0,0,0,0,0,0,0,-1,1567,610,0,0
350,414,0,0,0,0,0,0,0,0,0,-1,1574,610,0,0
357,414,0,0,0,0,0,0,0,0,0,-1,1581,610,0,0
364,414,0,0,0,0,0,0,0,0,0,-1,1588,610,0,0
371,414,0,0,0,0,0,0,0,0,0,-1,1595,610,0,0
378,414,0,0,0,0,0,0,0,0,0,-1,1602,610,0,0
385,414,0,0,0,0,0,0,0,0,0,-1,1609,610,0,0
392,414,0,0,0,0,0,0,0,0,0,-1,1616,610,0,0
399,414,0,0,0,0,0,0,0,0,0,-1,1623,610,0,0
406,414,0,0,0,0,0,0,0,0,0,-1,1630,610,0,0
413,414,0,0,0,0,0,0,0,0,0,-1,1637,610,0,0
420,414,0,0,0,0,0,0,0,0,0,-1,1644,610,0,0
427,414,0,0,0,0,0,0,0,0,0,-1,1651,610,0,0
434,414,0,0,0,0,0,0,0,0,0,-1,1658,610,0,0
441,414,7.84375,0.584412,0,0,0,0,0,0,0,-1,1665,610,7.84379,-0.584394
448,414,7.40808,1.25446,0,0,0,0,0,0,0,-1,1672,610,7.40807,-1.25446
455,414,6.3512,1.73846,0,0,0,0,0,0,0,-1,1679,610,6.3512,-1.73847
462,414,8.18103,3.22113,0,0,0,0,0,0,0,-1,1686,610,8.18108,-3.22112
469,414,8.38513,2.49579,0,0,0,0,0,0,0,-1,1693,610,8.38516,-2.49576
476,414,8.64099,1.71161,0,0,0,0,0,0,0,-1,1700,610,8.64097,-1.71164
483,414,8.62744,0.687622,0,0,0,0,0,0,0,-1,1707,610,8.62749,-0.687615
490,414,8.38831,-0.0302734,0,0,0,0,0,0,0,-1,1714,610,8.38835,0.0302913
497,414,4.71094,-0.110046,0,0,0,0,0,0,0,-1,1721,610,4.71089,0.110024
504,414,7.19568,-1.43835,0,0,0,0,0,0,0,-1,1728,610,7.19563,1.43836
511,414,5.94153,-1.28772,0,0,0,0,0,0,0,-1,1735,610,5.94151,1.28769
518,414,4.53381,-0.0996704,0,0,0,0,0,0,0,-1,1742,610,4.53378,0.0996819
525,414,6.18811,-1.64056,0,0,0,0,0,0,0,-1,1749,610,6.18814,1.64055
532,414,31.6218,-23.5004,0,0,0,0,0,0,0,-1,1756,610,31.6218,23.5004
539,414,31.5464,-22.5101,0,0,0,0,0,0,0,-1,1763,610,31.5464,22.5101
546,414,31.4811,-21.5562,0.0021897,0.000377875,0.00132302,0.00288724,-0.000319664,0.485195,0.00203975,0.0186175,1770,610,31.4811,21.5562
553,414,31.4296,-20.6218,0.00181549,0.000481685,0.00100831,0.00235749,-6.03147e-05,0.493222,0.00159215,0.0144413,1777,610,31.4296,20.6218
560,414,31.3762,-19.6996,0.00146031,0.000668217,0.000842991,0.00199566,0.000132875,0.565794,0.00128843,0.0170526,1784,610,31.3762,19.6997
567,414,31.3176,-18.7645,0.00126179,0.00103037,0.000901109,0.00205458,0.000237569,0.721544,0.0012978,0.0266723,1791,610,31.3176,18.7645
574,414,31.2439,-17.8387,0.00126857,0.00158639,0.0011298,0.0025684,0.000286561,0.855267,0.00162519,0.0247171,1798,610,31.244,17.8387
581,414,31.2068,-16.8727,0.00142293,0.00228355,0.00155718,0.00346878,0.000237701,0.920204,0.0022375,0.0203198,1805,610,31.2068,16.8727
588,414,31.1633,-15.9701,0.00174616,0.00330358,0.00222504,0.00488224,0.000167497,0.953725,0.00320045,0.0184697,1812,610,31.1634,15.9701
595,414,31.0846,-14.9664,0.00226647,0.00451969,0.0030876,0.0066798,0.000106353,0.960333,0.00441818,0.020949,1819,610,31.0847,14.9664
602,414,30.9911,-14.0172,0.00299403,0.00610591,0.00417719,0.00900753,9.24137e-05,0.96368,0.00597446,0.0280352,1826,610,30.9911,14.0172
609,414,30.9332,-13.0135,0,0,0,0,0,0,0,-1,1833,610,30.9332,13.0135
616,414,31.2966,-11.7104,0,0,0,0,0,0,0,-1,1840,610,31.2967,11.7105
623,414,9.6969,0.0378418,0,0,0,0,0,0,0,-1,1847,610,9.69685,-0.0378644
630,414,5.47144,0.499329,0,0,0,0,0,0,0,-1,1854,610,5.47142,-0.499303
637,414,8.36707,4.16278,0,0,0,0,0,0,0,-1,1861,610,8.36709,-4.16278
644,414,5.87073,1.51422,0,0,0,0,0,0,0,-1,1868,610,5.87076,-1.51424
651,414,3.6377,0.820557,0,0,0,0,0,0,0,-1,1875,610,3.6377,-0.820543
658,414,2.29761,3.87323,0,0,0,0,0,0,0,-1,1882,610,2.29758,-3.87325
665,414,0,0,0,0,0,0,0,0,0,-1,1889,610,0,0
672,414,0,0,0,0,0,0,0,0,0,-1,1896,610,0,0
679,414,0,0,0,0,0,0,0,0,0,-1,1903,610,0,0
686,414,0,0,0,0,0,0,0,0,0,-1,1910,610,0,0
693,414,0,0,0,0,0,0,0,0,0,-1,1917,610,0,0
700,414,0,0,0,0,0,0,0,0,0,-1,1924,610,0,0
707,414,0,0,0,0,0,0,0,0,0,-1,1931,610,0,0
714,414,0,0,0,0,0,0,0,0,0,-1,1938,610,0,0
721,414,0,0,0,0,0,0,0,0,0,-1,1945,610,0,0
728,414,0,0,0,0,0,0,0,0,0,-1,1952,610,0,0
735,414,0,0,0,0,0,0,0,0,0,-1,1959,610,0,0
742,414,0,0,0,0,0,0,0,0,0,-1,1966,610,0,0
749,414,0,0,0,0,0,0,0,0,0,-1,1973,610,0,0
756,414,0,0,0,0,0,0,0,0,0,-1,1980,610,0,0
763,414,0,0,0,0,0,0,0,0,0,-1,1987,610,0,0
770,414,0,0,0,0,0,0,0,0,0,-1,1994,610,0,0
777,414,0,0,0,0,0,0,0,0,0,-1,2001,610,0,0
784,414,0,0,0,0,0,0,0,0,0,-1,2008,610,0,0
791,414,0,0,0,0,0,0,0,0,0,-1,2015,610,0,0
798,414,0,0,0,0,0,0,0,0,0,-1,2022,610,0,0
805,414,0,0,0,0,0,0,0,0,0,-1,2029,610,0,0
812,414,0,0,0,0,0,0,0,0,0,-1,2036,610,0,0
-700,407,0,0,0,0,0,0,0,0,0,-1,524,617,0,0
-693,407,0,0,0,0,0,0,0,0,0,-1,531,617,0,0
-686,407,0,0,0,0,0,0,0,0,0,-1,538,617,0,0
-679,407,0,0,0,0,0,0,0,0,0,-1,545,617,0,0
-672,407,0,0,0,0,0,0,0,0,0,-1,552,617,0,0
-665,407,0,0,0,0,0,0,0,0,0,-1,559,617,0,0
-658,407,0,0,0,0,0,0,0,0,0,-1,566,617,0,0
-651,407,0,0,0,0,0,0,0,0,0,-1,573,617,0,0
-644,407,0,0,0,0,0,0,0,0,0,-1,580,617,0,0
-637,407,0,0,0,0,0,0,0,0,0,-1,587,617,0,0
-630,407,0,0,0,0,0,0,0,0,0,-1,594,617,0,0
-623,407,0,0,0,0,0,0,0,0,0,-1,601,617,0,0
-616,407,0,0,0,0,0,0,0,0,0,-1,608,617,0,0
-609,407,0,0,0,0,0,0,0,0,0,-1,615,617,0,0
-602,407,0,0,0,0,0,0,0,0,0,-1,622,617,0,0
-595,407,0,0,0,0,0,0,0,0,0,-1,629,617,0,0
-588,407,0,0,0,0,0,0,0,0,0,-1,636,617,0,0
-581,407,0,0,0,0,0,0,0,0,0,-1,643,617,0,0
-574,407,0,0,0,0,0,0,0,0,0,-1,650,617,0,0
-567,407,0,0,0,0,0,0,0,0,0,-1,657,617,0,0
-560,407,0,0,0,0,0,0,0,0,0,-1,664,617,0,0
-553,407,0,0,0,0,0,0,0,0,0,-1,671,617,0,0
-546,407,-8.54517,-0.658142,0,0,0,0,0,0,0,-1,678,617,-8.54515,0.658112
-539,407,-6.09442,-1.01154,0,0,0,0,0,0,0,-1,685,617,-6.09441,1.01155
-532,407,-7.75665,1.62152,0,0,0,0,0,0,0,-1,692,617,-7.75667,-1.62154
-525,407,-3.78247,-2.67639,0,0,0,0,0,0,0,-1,699,617,-3.78246,2.67638
-518,407,-5.013,-5.87323,0,0,0,0,0,0,0,-1,706,617,-5.013,5.87324
-511,407,-9.42743,-4.94189,0,0,0,0,0,0,0,-1,713,617,-9.42745,4.94191
-504,407,-10.8291,-8.05927,0,0,0,0,0,0,0,-1,720,617,-10.8291,8.05927
-497,407,-9.84467,-6.81641,0,0,0,0,0,0,0,-1,727,617,-9.84468,6.8164
-490,407,-15.8975,-11.8431,0,0,0,0,0,0,0,-1,734,617,-15.8975,11.8432
-483,407,-15.8454,-13.3522,0,0,0,0,0,0,0,-1,741,617,-15.8454,13.3522
-476,407,-15.9366,-14.3035,-0.00282468,0.00168645,0.00125786,0.00201348,-0.00315171,1.31644,0.00300616,0.0164063,748,617,-15.9366,14.3035
-469,407,-16.0203,-15.2299,-0.00210746,0.00134648,0.000802412,0.00152379,-0.00228477,1.35332,0.00221346,0.0138284,755,617,-16.0203,15.2298
-462,407,-16.1234,-16.2152,-0.00123946,0.00101099,0.000378442,0.00107292,-0.00130139,1.40858,0.00137293,0.0207575,762,617,-16.1234,16.2152
-455,407,-16.1851,-17.22,-0.000381309,0.000781385,-4.48818e-05,0.000783115,-0.000383039,-1.53227,0.00068636,0.0220786,769,617,-16.1851,17.22
-448,407,-16.1845,-18.1507,0.000491147,0.000591781,-0.000445029,0.000989328,9.35995e-05,-0.841691,0.000630672,0.0196945,776,617,-16.1845,18.1507
-441,407,-16.241,-19.0796,0.00132844,0.000535695,-0.000853119,0.00187277,-8.63604e-06,-0.567927,0.0012514,0.0154095,783,617,-16.241,19.0796
-434,407,-16.3429,-20.0128,0.00213036,0.000588569,-0.00126197,0.00283826,-0.000119331,-0.511212,0.00193318,0.0119147,790,617,-16.3429,20.0128
-427,407,-16.3912,-20.9467,0.00288728,0.000808318,-0.00173846,0.00387333,-0.000177726,-0.515949,0.00264345,0.0124467,797,617,-16.3912,20.9467
-420,407,-16.4086,-21.8759,0.00350136,0.00110333,-0.00215165,0.00476552,-0.000160831,-0.531201,0.00323195,0.0114066,804,617,-16.4086,21.8759
-413,407,-16.4537,-22.8197,0.00396813,0.00162337,-0.00256461,0.00561562,-2.41317e-05,-0.571012,0.00375182,0.0198968,811,617,-16.4537,22.8197
-406,407,-16.3105,-23.9327,0,0,0,0,0,0,0,-1,818,617,-16.3105,23.9327
-399,407,-16.5686,-23.1791,0,0,0,0,0,0,0,-1,825,617,-16.5686,23.1791
-392,407,-8.33612,-12.195,0,0,0,0,0,0,0,-1,832,617,-8.33611,12.195
-385,407,-7.65765,-10.7744,0,0,0,0,0,0,0,-1,839,617,-7.65767,10.7744
-378,407,-6.08655,-7.42291,0,0,0,0,0,0,0,-1,846,617,-6.08652,7.42292
-371,407,-7.4007,-5.79449,0,0,0,0,0,0,0,-1,853,617,-7.40072,5.79447
-364,407,-10.0638,-6.6228,0,0,0,0,0,0,0,-1,860,617,-10.0639,6.62279
-357,407,-6.64447,-1.83337,0,0,0,0,0,0,0,-1,867,617,-6.64446,1.8334
-350,407,-7.03351,-1.77551,0,0,0,0,0,0,0,-1,874,617,-7.03349,1.77551
-343,407,-7.40967,-1.95026,0,0,0,0,0,0,0,-1,881,617,-7.40969,1.95026
-336,407,-8.10229,-2.40662,0,0,0,0,0,0,0,-1,888,617,-8.10229,2.40664
-329,407,-8.81232,-2.76331,0,0,0,0,0,0,0,-1,895,617,-8.81235,2.76331
-322,407,0,0,0,0,0,0,0,0,0,-1,902,617,0,0
-315,407,0,0,0,0,0,0,0,0,0,-1,909,617,0,0
-308,407,0,0,0,0,0,0,0,0,0,-1,916,617,0,0
-301,407,0,0,0,0,0,0,0,0,0,-1,923,617,0,0
-294,407,0,0,0,0,0,0,0,0,0,-1,930,617,0,0
-287,407,0,0,0,0,0,0,0,0,0,-1,937,617,0,0
-280,407,0,0,0,0,0,0,0,0,0,-1,944,617,0,0
-273,407,0,0,0,0,0,0,0,0,0,-1,951,617,0,0
-266,407,0,0,0,0,0,0,0,0,0,-1,958,617,0,0
-259,407,0,0,0,0,0,0,0,0,0,-1,965,617,0,0
-252,407,0,0,0,0,0,0,0,0,0,-1,972,617,0,0
-245,407,0,0,0,0,0,0,0,0,0,-1,979,617,0,0
-238,407,0,0,0,0,0,0,0,0,0,-1,986,617,0,0
-231,407,0,0,0,0,0,0,0,0,0,-1,993,617,0,0
-224,407,0,0,0,0,0,0,0,0,0,-1,1000,617,0,0
-217,407,0,0,0,0,0,0,0,0,0,-1,1007,617,0,0
-210,407,0,0,0,0,0,0,0,0,0,-1,1014,617,0,0
-203,407,0,0,0,0,0,0,0,0,0,-1,1021,617,0,0
-196,407,0,0,0,0,0,0,0,0,0,-1,1028,617,0,0
-189,407,0,0,0,0,0,0,0,0,0,-1,1035,617,0,0
-182,407,0,0,0,0,0,0,0,0,0,-1,1042,617,0,0
-175,407,0,0,0,0,0,0,0,0,0,-1,1049,617,0,0
-168,407,0,0,0,0,0,0,0,0,0,-1,1056,617,0,0
-161,407,0,0,0,0,0,0,0,0,0,-1,1063,617,0,0
-154,407,0,0,0,0,0,0,0,0,0,-1,1070,617,0,0
-147,407,0,0,0,0,0,0,0,0,0,-1,1077,617,0,0
-140,407,0,0,0,0,0,0,0,0,0,-1,1084,617,0,0
-133,407,0,0,0,0,0,0,0,0,0,-1,1091,617,0,0
-126,407,0,0,0,0,0,0,0,0,0,-1,1098,617,0,0
-119,407,0,0,0,0,0,0,0,0,0,-1,1105,617,0,0
-112,407,0,0,0,0,0,0,0,0,0,-1,1112,617,0,0
-105,407,0,0,0,0,0,0,0,0,0,-1,1119,617,0,0
-98,407,0,0,0,0,0,0,0,0,0,-1,1126,617,0,0
-91,407,0,0,0,0,0,0,0,0,0,-1,1133,617,0,0
-84,407,0,0,0,0,0,0,0,0,0,-1,1140,617,0,0
-77,407,0,0,0,0,0,0,0,0,0,-1,1147,617,0,0
-70,407,0,0,0,0,0,0,0,0,0,-1,1154,617,0,0
-63,407,0,0,0,0,0,0,0,0,0,-1,1161,617,0,0
-56,407,0,0,0,0,0,0,0,0,0,-1,1168,617,0,0
-49,407,0,0,0,0,0,0,0,0,0,-1,1175,617,0,0
-42,407,0,0,0,0,0,0,0,0,0,-1,1182,617,0,0
-35,407,0,0,0,0,0,0,0,0,0,-1,1189,617,0,0
-28,407,0,0,0,0,0,0,0,0,0,-1,1196,617,0,0
-21,407,0,0,0,0,0,0,0,0,0,-1,1203,617,0,0
-14,407,0,0,0,0,0,0,0,0,0,-1,1210,617,0,0
-7,407,0,0,0,0,0,0,0,0,0,-1,1217,617,0,0
0,407,0,0,0,0,0,0,0,0,0,-1,1224,617,0,0
7,407,0,0,0,0,0,0,0,0,0,-1,1231,617,0,0
14,407,0,0,0,0,0,0,0,0,0,-1,1238,617,0,0
21,407,0,0,0,0,0,0,0,0,0,-1,1245,617,0,0
28,407,0,0,0,0,0,0,0,0,0,-1,1252,617,0,0
35,407,0,0,0,0,0,0,0,0,0,-1,1259,617,0,0
42,407,0,0,0,0,0,0,0,0,0,-1,1266,617,0,0
49,407,0,0,0,0,0,0,0,0,0,-1,1273,617,0,0
56,407,0,0,0,0,0,0,0,0,0,-1,1280,617,0,0
63,407,0,0,0,0,0,0,0,0,0,-1,1287,617,0,0
70,407,0,0,0,0,0,0,0,0,0,-1,1294,617,0,0
77,407,0,0,0,0,0,0,0,0,0,-1,1301,617,0,0
84,407,0,0,0,0,0,0,0,0,0,-1,1308,617,0,0
91,407,0,0,0,0,0,0,0,0,0,-1,1315,617,0,0
98,407,0,0,0,0,0,0,0,0,0,-1,1322,617,0,0
105,407,0,0,0,0,0,0,0,0,0,-1,1329,617,0,0
112,407,0,0,0,0,0,0,0,0,0,-1,1336,617,0,0
119,407,0,0,0,0,0,0,0,0,0,-1,1343,617,0,0
126,407,0,0,0,0,0,0,0,0,0,-1,1350,617,0,0
133,407,0,0,0,0,0,0,0,0,0,-1,1357,617,0,0
140,407,0,0,0,0,0,0,0,0,0,-1,1364,617,0,0
147,407,0,0,0,0,0,0,0,0,0,-1,1371,617,0,0
154,407,0,0,0,0,0,0,0,0,0,-1,1378,617,0,0
161,407,0,0,0,0,0,0,0,0,0,-1,1385,617,0,0
168,407,0,0,0,0,0,0,0,0,0,-1,1392,617,0,0
175,407,0,0,0,0,0,0,0,0,0,-1,1399,617,0,0
182,407,0,0,0,0,0,0,0,0,0,-1,1406,617,0,0
189,407,0,0,0,0,0,0,0,0,0,-1,1413,617,0,0
196,407,0,0,0,0,0,0,0,0,0,-1,1420,617,0,0
203,407,0,0,0,0,0,0,0,0,0,-1,1427,617,0,0
210,407,0,0,0,0,0,0,0,0,0,-1,1434,617,0,0
217,407,0,0,0,0,0,0,0,0,0,-1,1441,617,0,0
224,407,0,0,0,0,0,0,0,0,0,-1,1448,617,0,0
231,407,0,0,0,0,0,0,0,0,0,-1,1455,617,0,0
238,407,0,0,0,0,0,0,0,0,0,-1,1462,617,0,0
245,407,0,0,0,0,0,0,0,0,0,-1,1469,617,0,0
252,407,0,0,0,0,0,0,0,0,0,-1,1476,617,0,0
259,407,0,0,0,0,0,0,0,0,0,-1,1483,617,0,0
266,407,0,0,0,0,0,0,0,0,0,-1,1490,617,0,0
273,407,0,0,0,0,0,0,0,0,0,-1,1497,617,0,0
280,407,0,0,0,0,0,0,0,0,0,-1,1504,617,0,0
287,407,0,0,0,0,0,0,0,0,0,-1,1511,617,0,0
294,407,0,0,0,0,0,0,0,0,0,-1,1518,617,0,0
301,407,0,0,0,0,0,0,0,0,0,-1,1525,617,0,0
308,407,0,0,0,0,0,0,0,0,0,-1,1532,617,0,0
315,407,0,0,0,0,0,0,0,0,0,-1,1539,617,0,0
322,407,0,0,0,0,0,0,0,0,0,-1,1546,617,0,0
329,407,0,0,0,0,0,0,0,0,0,-1,1553,617,0,0
336,407,0,0,0,0,0,0,0,0,0,-1,1560,617,0,0
343,407,0,0,0,0,0,0,0,0,0,-1,1567,617,0,0
350,407,0,0,0,0,0,0,0,0,0,-1,1574,617,0,0
357,407,0,0,0,0,0,0,0,0,0,-1,1581,617,0,0
364,407,0,0,0,0,0,0,0,0,0,-1,1588,617,0,0
371,407,0,0,0,0,0,0,0,0,0,-1,1595,617,0,0
378,407,0,0,0,0,0,0,0,0,0,-1,1602,617,0,0
385,407,0,0,0,0,0,0,0,0,0,-1,1609,617,0,0
392,407,0,0,0,0,0,0,0,0,0,-1,1616,617,0,0
399,407,0,0,0,0,0,0,0,0,0,-1,1623,617,0,0
406,407,0,0,0,0,0,0,0,0,0,-1,1630,617,0,0
413,407,0,0,0,0,0,0,0,0,0,-1,1637,617,0,0
420,407,0,0,0,0,0,0,0,0,0,-1,1644,617,0,0
427,407,0,0,0,0,0,0,0,0,0,-1,1651,617,0,0
434,407,0,0,0,0,0,0,0,0,0,-1,1658,617,0,0
441,407,0,0,0,0,0,0,0,0,0,-1,1665,617,0,0
448,407,7.02893,2.13843,0,0,0,0,0,0,0,-1,1672,617,7.02899,-2.13844
455,407,7.55237,2.29242,0,0,0,0,0,0,0,-1,1679,617,7.55236,-2.29244
462,407,8.2926,2.46173,0,0,0,0,0,0,0,-1,1686,617,8.29261,-2.46174
469,407,8.71509,2.22681,0,0,0,0,0,0,0,-1,1693,617,8.71511,-2.22681
476,407,8.89917,1.47766,0,0,0,0,0,0,0,-1,1700,617,8.89914,-1.47768
483,407,9.02612,0.682983,0,0,0,0,0,0,0,-1,1707,617,9.02608,-0.683004
490,407,9.12659,0.000671387,0,0,0,0,0,0,0,-1,1714,617,9.12653,-0.000675931
497,407,7.76819,0.855835,0,0,0,0,0,0,0,-1,1721,617,7.7682,-0.855865
504,407,4.69336,0.160706,0,0,0,0,0,0,0,-1,1728,617,4.69337,-0.1607
511,407,4.07104,-0.00140381,0,0,0,0,0,0,0,-1,1735,617,4.07109,0.00141425
518,407,6.09534,1.9411,0,0,0,0,0,0,0,-1,1742,617,6.09532,-1.94113
525,407,5.72534,-1.35986,0,0,0,0,0,0,0,-1,1749,617,5.72529,1.35988
532,407,18.5767,-10.6388,0,0,0,0,0,0,0,-1,1756,617,18.5766,10.6388
539,407,32.3538,-22.5666,0,0,0,0,0,0,0,-1,1763,617,32.3538,22.5666
546,407,32.4403,-21.5232,0.00226276,0.000442988,0.00152812,0.00313137,-0.000425618,0.516872,0.00224295,0.0305284,1770,617,32.4403,21.5232
553,407,32.3613,-20.5871,0.00187347,0.000374574,0.00107274,0.00243262,-0.000184578,0.480494,0.00168664,0.0174663,1777,617,32.3613,20.5871
560,407,32.3379,-19.6392,0.00149335,0.000372558,0.000767967,0.00188365,-1.77392e-05,0.470203,0.00126172,0.0194418,1784,617,32.3379,19.6392
567,407,32.2556,-18.7256,0.00123555,0.000514385,0.000677662,0.00164259,0.000107346,0.540899,0.00106109,0.0337202,1791,617,32.2556,18.7256
574,407,32.1777,-17.777,0.00121412,0.000918862,0.000819254,0.00189894,0.000234044,0.696254,0.00119561,0.0284796,1798,617,32.1778,17.777
581,407,32.1108,-16.7521,0.00133348,0.00147545,0.00115072,0.00255737,0.000251551,0.816203,0.00162756,0.0192634,1805,617,32.1108,16.7521
588,407,32.036,-15.8489,0.00163203,0.00236489,0.00173152,0.00376833,0.00022859,0.889672,0.0024396,0.0148628,1812,617,32.036,15.8489
595,407,32.0565,-14.9361,0.00212265,0.00342179,0.00249341,0.00534885,0.000195583,0.912823,0.00350253,0.0291617,1819,617,32.0565,14.9361
602,407,31.9855,-13.8959,0.0028203,0.00477926,0.00345567,0.00739158,0.000207978,0.923497,0.00485988,0.0234364,1826,617,31.9855,13.896
609,407,31.829,-12.9159,0.00385452,0.00645479,0.00471236,0.0100431,0.000266227,0.919999,0.00660843,0.0220541,1833,617,31.829,12.9159
616,407,31.8777,-11.7731,0.00522668,0.00846012,0.00621128,0.0132616,0.000425167,0.912717,0.00870283,0.0394552,1840,617,31.8777,11.7731
623,407,32.1698,-10.4664,0,0,0,0,0,0,0,-1,1847,617,32.1698,10.4664
630,407,7.06177,0.814575,0,0,0,0,0,0,0,-1,1854,617,7.06178,-0.814579
637,407,11.1063,0.391846,0,0,0,0,0,0,0,-1,1861,617,11.1063,-0.391862
644,407,5.09766,2.27747,0,0,0,0,0,0,0,-1,1868,617,5.09764,-2.27746
651,407,7.37524,0.0513916,0,0,0,0,0,0,0,-1,1875,617,7.3752,-0.0513923
658,407,3.76685,0.594177,0,0,0,0,0,0,0,-1,1882,617,3.76683,-0.594184
665,407,5.76123,0.375061,0,0,0,0,0,0,0,-1,1889,617,5.76118,-0.37509
672,407,0,0,0,0,0,0,0,0,0,-1,1896,617,0,0
679,407,0,0,0,0,0,0,0,0,0,-1,1903,617,0,0
686,407,0,0,0,0,0,0,0,0,0,-1,1910,617,0,0
693,407,0,0,0,0,0,0,0,0,0,-1,1917,617,0,0
700,407,0,0,0,0,0,0,0,0,0,-1,1924,617,0,0
707,407,0,0,0,0,0,0,0,0,0,-1,1931,617,0,0
714,407,0,0,0,0,0,0,0,0,0,-1,1938,617,0,0
721,407,0,0,0,0,0,0,0,0,0,-1,1945,617,0,0
728,407,0,0,0,0,0,0,0,0,0,-1,1952,617,0,0
735,407,0,0,0,0,0,0,0,0,0,-1,1959,617,0,0
742,407,0,0,0,0,0,0,0,0,0,-1,1966,617,0,0
749,407,0,0,0,0,0,0,0,0,0,-1,1973,617,0,0
756,407,0,0,0,0,0,0,0,0,0,-1,1980,617,0,0
763,407,0,0,0,0,0,0,0,0,0,-1,1987,617,0,0
770,407,0,0,0,0,0,0,0,0,0,-1,1994,617,0,0
777,407,0,0,0,0,0,0,0,0,0,-1,2001,617,0,0
784,407,0,0,0,0,0,0,0,0,0,-1,2008,617,0,0
791,407,0,0,0,0,0,0,0,0,0,-1,2015,617,0,0
798,407,0,0,0,0,0,0,0,0,0,-1,2022,617,0,0
805,407,0,0,0,0,0,0,0,0,0,-1,2029,617,0,0
812,407,0,0,0,0,0,0,0,0,0,-1,2036,617,0,0
-700,400,0,0,0,0,0,0,0,0,0,-1,524,624,0,0
-693,400,0,0,0,0,0,0,0,0,0,-1,531,624,0,0
-686,400,0,0,0,0,0,0,0,0,0,-1,538,624,0,0
-679,400,0,0,0,0,0,0,0,0,0,-1,545,624,0,0
-672,400,0,0,0,0,0,0,0,0,0,-1,552,624,0,0
-665,400,0,0,0,0,0,0,0,0,0,-1,559,624,0,0
-658,400,0,0,0,0,0,0,0,0,0,-1,566,624,0,0
-651,400,0,0,0,0,0,0,0,0,0,-1,573,624,0,0
-644,400,0,0,0,0,0,0,0,0,0,-1,580,624,0,0
-637,400,0,0,0,0,0,0,0,0,0,-1,587,624,0,0
-630,400,0,0,0,0,0,0,0,0,0,-1,594,624,0,0
-623,400,0,0,0,0,0,0,0,0,0,-1,601,624,0,0
-616,400,0,0,0,0,0,0,0,0,0,-1,608,624,0,0
-609,400,0,0,0,0,0,0,0,0,0,-1,615,624,0,0
-602,400,0,0,0,0,0,0,0,0,0,-1,622,624,0,0
-595,400,0,0,0,0,0,0,0,0,0,-1,629,624,0,0
-588,400,0,0,0,0,0,0,0,0,0,-1,636,624,0,0
-581,400,0,0,0,0,0,0,0,0,0,-1,643,624,0,0
-574,400,0,0,0,0,0,0,0,0,0,-1,650,624,0,0
-567,400,0,0,0,0,0,0,0,0,0,-1,657,624,0,0
-560,400,0,0,0,0,0,0,0,0,0,-1,664,624,0,0
-553,400,0,0,0,0,0,0,0,0,0,-1,671,624,0,0
-546,400,-8.41174,-1.4599,0,0,0,0,0,0,0,-1,678,624,-8.41173,1.45989
-539,400,-5.69104,-1.7337,0,0,0,0,0,0,0,-1,685,624,-5.69103,1.7337
-532,400,-3.03632,-2.03912,0,0,0,0,0,0,0,-1,692,624,-3.03632,2.03909
-525,400,-6.20813,-7.04071,0,0,0,0,0,0,0,-1,699,624,-6.20814,7.04071
-518,400,-5.26544,-1.58661,0,0,0,0,0,0,0,-1,706,624,-5.26544,1.58658
-511,400,-10.6307,-6.7121,0,0,0,0,0,0,0,-1,713,624,-10.6307,6.71209
-504,400,-10.2663,-6.55109,0,0,0,0,0,0,0,-1,720,624,-10.2663,6.55106
-497,400,-17.0034,-10.8596,0,0,0,0,0,0,0,-1,727,624,-17.0034,10.8595
-490,400,-16.8345,-12.1366,0,0,0,0,0,0,0,-1,734,624,-16.8345,12.1366
-483,400,-16.8235,-13.2888,-0.00189136,0.00139364,0.000999417,0.0016738,-0.00217153,1.29748,0.00222629,0.0174948,741,624,-16.8236,13.2888
-476,400,-16.8719,-14.2362,-0.00163438,0.00113662,0.000699509,0.00130319,-0.00180095,1.33703,0.00179984,0.015142,748,624,-16.8719,14.2362
-469,400,-16.9399,-15.1908,-0.00111308,0.000860944,0.000370054,0.000928035,-0.00118017,1.39144,0.00122007,0.0164691,755,624,-16.94,15.1908
-462,400,-17.0235,-16.176,-0.000428458,0.000586678,3.13118e-05,0.000587643,-0.000429423,1.53999,0.000589567,0.0204845,762,624,-17.0235,16.176
-455,400,-17.0878,-17.1232,0.000318145,0.000467051,-0.000364543,0.000764666,2.05297e-05,-0.886132,0.000503074,0.0212819,769,624,-17.0878,17.1232
-448,400,-17.1196,-18.0727,0.0011352,0.000348266,-0.000750373,0.00158901,-0.000105543,-0.543925,0.00109622,0.015685,776,624,-17.1196,18.0727
-441,400,-17.186,-18.9811,0.00196763,0.000373,-0.00117766,0.0025925,-0.000251867,-0.487826,0.00181811,0.0145552,783,624,-17.186,18.9811
-434,400,-17.2674,-19.9155,0.00282851,0.000540258,-0.00164464,0.00368785,-0.00031908,-0.481491,0.00257153,0.0129117,790,624,-17.2674,19.9155
-427,400,-17.3445,-20.8441,0.00368569,0.000882892,-0.00220187,0.0048943,-0.000325719,-0.501999,0.00337668,0.0109799,797,624,-17.3446,20.8441
-420,400,-17.3035,-21.8395,0.00436392,0.00129488,-0.0026802,0.00591781,-0.000259002,-0.525407,0.00403431,0.0241406,804,624,-17.3035,21.8395
-413,400,-17.2731,-22.7254,0,0,0,0,0,0,0,-1,811,624,-17.2731,22.7254
-406,400,-17.7786,-23.2725,0,0,0,0,0,0,0,-1,818,624,-17.7785,23.2725
-399,400,-11.0176,-13.2944,0,0,0,0,0,0,0,-1,825,624,-11.0176,13.2944
-392,400,-4.92285,-6.63354,0,0,0,0,0,0,0,-1,832,624,-4.92285,6.63354
-385,400,-3.68738,-5.04205,0,0,0,0,0,0,0,-1,839,624,-3.68736,5.04207
-378,400,-6.84064,-1.28662,0,0,0,0,0,0,0,-1,846,624,-6.84062,1.28662
-371,400,-6.98865,-1.2572,0,0,0,0,0,0,0,-1,853,624,-6.98865,1.25721
-364,400,-6.97247,-1.24133,0,0,0,0,0,0,0,-1,860,624,-6.97249,1.24135
-357,400,-7.18329,-1.23218,0,0,0,0,0,0,0,-1,867,624,-7.18327,1.2322
-350,400,-7.40186,-1.19409,0,0,0,0,0,0,0,-1,874,624,-7.40187,1.19407
-343,400,-8.09357,-1.51147,0,0,0,0,0,0,0,-1,881,624,-8.09355,1.51148
-336,400,0,0,0,0,0,0,0,0,0,-1,888,624,0,0
-329,400,0,0,0,0,0,0,0,0,0,-1,895,624,0,0
-322,400,0,0,0,0,0,0,0,0,0,-1,902,624,0,0
-315,400,0,0,0,0,0,0,0,0,0,-1,909,624,0,0
-308,400,0,0,0,0,0,0,0,0,0,-1,916,624,0,0
-301,400,0,0,0,0,0,0,0,0,0,-1,923,624,0,0
-294,400,0,0,0,0,0,0,0,0,0,-1,930,624,0,0
-287,400,0,0,0,0,0,0,0,0,0,-1,937,624,0,0
-280,400,0,0,0,0,0,0,0,0,0,-1,944,624,0,0
-273,400,0,0,0,0,0,0,0,0,0,-1,951,624,0,0
-266,400,0,0,0,0,0,0,0,0,0,-1,958,624,0,0
-259,400,0,0,0,0,0,0,0,0,0,-1,965,624,0,0
-252,400,0,0,0,0,0,0,0,0,0,-1,972,624,0,0
-245,400,0,0,0,0,0,0,0,0,0,-1,979,624,0,0
-238,400,0,0,0,0,0,0,0,0,0,-1,986,624,0,0
-231,400,0,0,0,0,0,0,0,0,0,-1,993,624,0,0
-224,400,0,0,0,0,0,0,0,0,0,-1,1000,624,0,0
-217,400,0,0,0,0,0,0,0,0,0,-1,1007,624,0,0
-210,400,0,0,0,0,0,0,0,0,0,-1,1014,624,0,0
-203,400,0,0,0,0,0,0,0,0,0,-1,1021,624,0,0
-196,400,0,0,0,0,0,0,0,0,0,-1,1028,624,0,0
-189,400,0,0,0,0,0,0,0,0,0,-1,1035,624,0,0
-182,400,0,0,0,0,0,0,0,0,0,-1,1042,624,0,0
-175,400,0,0,0,0,0,0,0,0,0,-1,1049,624,0,0
-168,400,0,0,0,0,0,0,0,0,0,-1,1056,624,0,0
-161,400,0,0,0,0,0,0,0,0,0,-1,1063,624,0,0
-154,400,0,0,0,0,0,0,0,0,0,-1,1070,624,0,0
-147,400,0,0,0,0,0,0,0,0,0,-1,1077,624,0,0
-140,400,0,0,0,0,0,0,0,0,0,-1,1084,624,0,0
-133,400,0,0,0,0,0,0,0,0,0,-1,1091,624,0,0
-126,400,0,0,0,0,0,0,0,0,0,-1,1098,624,0,0
-119,400,0,0,0,0,0,0,0,0,0,-1,1105,624,0,0
-112,400,0,0,0,0,0,0,0,0,0,-1,1112,624,0,0
-105,400,0,0,0,0,0,0,0,0,0,-1,1119,624,0,0
-98,400,0,0,0,0,0,0,0,0,0,-1,1126,624,0,0
-91,400,0,0,0,0,0,0,0,0,0,-1,1133,624,0,0
-84,400,0,0,0,0,0,0,0,0,0,-1,1140,624,0,0
-77,400,0,0,0,0,0,0,0,0,0,-1,1147,624,0,0
-70,400,0,0,0,0,0,0,0,0,0,-1,1154,624,0,0
-63,400,0,0,0,0,0,0,0,0,0,-1,1161,624,0,0
-56,400,0,0,0,0,0,0,0,0,0,-1,1168,624,0,0
-49,400,0,0,0,0,0,0,0,0,0,-1,1175,624,0,0
-42,400,0,0,0,0,0,0,0,0,0,-1,1182,624,0,0
-35,400,0,0,0,0,0,0,0,0,0,-1,1189,624,0,0
-28,400,0,0,0,0,0,0,0,0,0,-1,1196,624,0,0
-21,400,0,0,0,0,0,0,0,0,0,-1,1203,624,0,0
-14,400,0,0,0,0,0,0,0,0,0,-1,1210,624,0,0
-7,400,0,0,0,0,0,0,0,0,0,-1,1217,624,0,0
0,400,0,0,0,0,0,0,0,0,0,-1,1224,624,0,0
7,400,0,0,0,0,0,0,0,0,0,-1,1231,624,0,0
14,400,0,0,0,0,0,0,0,0,0,-1,1238,624,0,0
21,400,0,0,0,0,0,0,0,0,0,-1,1245,624,0,0
28,400,0,0,0,0,0,0,0,0,0,-1,1252,624,0,0
35,400,0,0,0,0,0,0,0,0,0,-1,1259,624,0,0
42,400,0,0,0,0,0,0,0,0,0,-1,1266,624,0,0
49,400,0,0,0,0,0,0,0,0,0,-1,1273,624,0,0
56,400,0,0,0,0,0,0,0,0,0,-1,1280,624,0,0
63,400,0,0,0,0,0,0,0,0,0,-1,1287,624,0,0
70,400,0,0,0,0,0,0,0,0,0,-1,1294,624,0,0
77,400,0,0,0,0,0,0,0,0,0,-1,1301,624,0,0
84,400,0,0,0,0,0,0,0,0,0,-1,1308,624,0,0
91,400,0,0,0,0,0,0,0,0,0,-1,1315,624,0,0
98,400,0,0,0,0,0,0,0,0,0,-1,1322,624,0,0
105,400,0,0,0,0,0,0,0,0,0,-1,1329,624,0,0
112,400,0,0,0,0,0,0,0,0,0,-1,1336,624,0,0
119,400,0,0,0,0,0,0,0,0,0,-1,1343,624,0,0
126,400,0,0,0,0,0,0,0,0,0,-1,1350,624,0,0
133,400,0,0,0,0,0,0,0,0,0,-1,1357,624,0,0
140,400,0,0,0,0,0,0,0,0,0,-1,1364,624,0,0
147,400,0,0,0,0,0,0,0,0,0,-1,1371,624,0,0
154,400,0,0,0,0,0,0,0,0,0,-1,1378,624,0,0
161,400,0,0,0,0,0,0,0,0,0,-1,1385,624,0,0
168,400,0,0,0,0,0,0,0,0,0,-1,1392,624,0,0
175,400,0,0,0,0,0,0,0,0,0,-1,1399,624,0,0
182,400,0,0,0,0,0,0,0,0,0,-1,1406,624,0,0
189,400,0,0,0,0,0,0,0,0,0,-1,1413,624,0,0
196,400,0,0,0,0,0,0,0,0,0,-1,1420,624,0,0
203,400,0,0,0,0,0,0,0,0,0,-1,1427,624,0,0
210,400,0,0,0,0,0,0,0,0,0,-1,1434,624,0,0
217,400,0,0,0,0,0,0,0,0,0,-1,1441,624,0,0
224,400,0,0,0,0,0,0,0,0,0,-1,1448,624,0,0
231,400,0,0,0,0,0,0,0,0,0,-1,1455,624,0,0
238,400,0,0,0,0,0,0,0,0,0,-1,1462,624,0,0
245,400,0,0,0,0,0,0,0,0,0,-1,1469,624,0,0
252,400,0,0,0,0,0,0,0,0,0,-1,1476,624,0,0
259,400,0,0,0,0,0,0,0,0,0,-1,1483,624,0,0
266,400,0,0,0,0,0,0,0,0,0,-1,1490,624,0,0
273,400,0,0,0,0,0,0,0,0,0,-1,1497,624,0,0
280,400,0,0,0,0,0,0,0,0,0,-1,1504,624,0,0
287,400,0,0,0,0,0,0,0,0,0,-1,1511,624,0,0
294,400,0,0,0,0,0,0,0,0,0,-1,1518,624,0,0
301,400,0,0,0,0,0,0,0,0,0,-1,1525,624,0,0
308,400,0,0,0,0,0,0,0,0,0,-1,1532,624,0,0
315,400,0,0,0,0,0,0,0,0,0,-1,1539,624,0,0
322,400,0,0,0,0,0,0,0,0,0,-1,1546,624,0,0
329,400,0,0,0,0,0,0,0,0,0,-1,1553,624,0,0
336,400,0,0,0,0,0,0,0,0,0,-1,1560,624,0,0
343,400,0,0,0,0,0,0,0,0,0,-1,1567,624,0,0
350,400,0,0,0,0,0,0,0,0,0,-1,1574,624,0,0
357,400,0,0,0,0,0,0,0,0,0,-1,1581,624,0,0
364,400,0,0,0,0,0,0,0,0,0,-1,1588,624,0,0
371,400,0,0,0,0,0,0,0,0,0,-1,1595,624,0,0
378,400,0,0,0,0,0,0,0,0,0,-1,1602,624,0,0
385,400,0,0,0,0,0,0,0,0,0,-1,1609,624,0,0
392,400,0,0,0,0,0,0,0,0,0,-1,1616,624,0,0
399,400,0,0,0,0,0,0,0,0,0,-1,1623,624,0,0
406,400,0,0,0,0,0,0,0,0,0,-1,1630,624,0,0
413,400,0,0,0,0,0,0,0,0,0,-1,1637,624,0,0
420,400,0,0,0,0,0,0,0,0,0,-1,1644,624,0,0
427,400,0,0,0,0,0,0,0,0,0,-1,1651,624,0,0
434,400,0,0,0,0,0,0,0,0,0,-1,1658,624,0,0
441,400,0,0,0,0,0,0,0,0,0,-1,1665,624,0,0
448,400,0,0,0,0,0,0,0,0,0,-1,1672,624,0,0
455,400,8.91309,2.75885,0,0,0,0,0,0,0,-1,1679,624,8.91312,-2.75885
462,400,8.90356,2.37878,0,0,0,0,0,0,0,-1,1686,624,8.90353,-2.37878
469,400,9.14429,1.76849,0,0,0,0,0,0,0,-1,1693,624,9.14432,-1.76847
476,400,9.23254,1.25995,0,0,0,0,0,0,0,-1,1700,624,9.23252,-1.25994
483,400,9.59766,0.562439,0,0,0,0,0,0,0,-1,1707,624,9.59771,-0.56242
490,400,9.92578,-0.213745,0,0,0,0,0,0,0,-1,1714,624,9.92579,0.21376
497,400,9.19141,0.175232,0,0,0,0,0,0,0,-1,1721,624,9.19138,-0.175209
504,400,9.23438,0.00823975,0,0,0,0,0,0,0,-1,1728,624,9.23436,-0.00823766
511,400,6.16687,3.3501,0,0,0,0,0,0,0,-1,1735,624,6.16682,-3.35007
518,400,6.55237,1.74994,0,0,0,0,0,0,0,-1,1742,624,6.55236,-1.74993
525,400,6.99731,1.08783,0,0,0,0,0,0,0,-1,1749,624,6.99736,-1.08785
532,400,6.96582,-1.74982,0,0,0,0,0,0,0,-1,1756,624,6.96585,1.74983
539,400,21.2305,-10.5841,0,0,0,0,0,0,0,-1,1763,624,21.2304,10.5841
546,400,33.0524,-21.7616,0,0,0,0,0,0,0,-1,1770,624,33.0524,21.7616
553,400,33.2122,-20.551,0.00208966,0.000431398,0.00109159,0.0026313,-0.000110247,0.460602,0.00179208,0.045908,1777,624,33.2122,20.551
560,400,33.2633,-19.5551,0.00164742,0.000277326,0.000661811,0.00191489,9.85881e-06,0.384074,0.00127332,0.0176721,1784,624,33.2633,19.5551
567,400,33.2284,-18.6053,0.00126017,0.000211089,0.000422847,0.00140938,6.18768e-05,0.339234,0.000919655,0.0200064,1791,624,33.2284,18.6053
574,400,33.1383,-17.654,0.00114291,0.000480039,0.000493245,0.00140573,0.00021722,0.489571,0.000873796,0.0224255,1798,624,33.1384,17.654
581,400,33.0336,-16.6934,0.00117012,0.000920529,0.000749892,0.00180553,0.000285119,0.702944,0.0011208,0.0233973,1805,624,33.0336,16.6933
588,400,32.9246,-15.6899,0.00140154,0.00167832,0.00126226,0.00280975,0.000270105,0.839999,0.00178994,0.0206246,1812,624,32.9246,15.6899
595,400,32.9495,-14.7497,0.00182306,0.00258268,0.00194307,0.00418271,0.000223025,0.881915,0.00271719,0.0196049,1819,624,32.9495,14.7497
602,400,32.9225,-13.8265,0.0024343,0.00372235,0.0027993,0.00595075,0.000205899,0.898464,0.00390034,0.0180101,1826,624,32.9225,13.8265
609,400,32.7385,-12.8642,0.00327911,0.00509855,0.00386482,0.00815928,0.000218382,0.900986,0.00536821,0.0166138,1833,624,32.7385,12.8642
616,400,32.6637,-11.89,0.00439484,0.00674326,0.00512986,0.0108316,0.000306517,0.897908,0.00712108,0.0196535,1840,624,32.6637,11.89
623,400,32.6614,-10.8785,0,0,0,0,0,0,0,-1,1847,624,32.6613,10.8785
630,400,11.9432,0.09021,0,0,0,0,0,0,0,-1,1854,624,11.9432,-0.0902007
637,400,6.92896,1.01917,0,0,0,0,0,0,0,-1,1861,624,6.92899,-1.01918
644,400,8.65381,1.4599,0,0,0,0,0,0,0,-1,1868,624,8.65379,-1.45991
651,400,7.90601,0.424072,0,0,0,0,0,0,0,-1,1875,624,7.90598,-0.424097
658,400,8.69031,1.0484,0,0,0,0,0,0,0,-1,1882,624,8.6903,-1.0484
665,400,5.98438,0.522522,0,0,0,0,0,0,0,-1,1889,624,5.98442,-0.522552
672,400,0,0,0,0,0,0,0,0,0,-1,1896,624,0,0
679,400,0,0,0,0,0,0,0,0,0,-1,1903,624,0,0
686,400,0,0,0,0,0,0,0,0,0,-1,1910,624,0,0
693,400,0,0,0,0,0,0,0,0,0,-1,1917,624,0,0
700,400,0,0,0,0,0,0,0,0,0,-1,1924,624,0,0
707,400,0,0,0,0,0,0,0,0,0,-1,1931,624,0,0
714,400,0,0,0,0,0,0,0,0,0,-1,1938,624,0,0
721,400,0,0,0,0,0,0,0,0,0,-1,1945,624,0,0
728,400,0,0,0,0,0,0,0,0,0,-1,1952,624,0,0
735,400,0,0,0,0,0,0,0,0,0,-1,1959,624,0,0
742,400,0,0,0,0,0,0,0,0,0,-1,1966,624,0,0
749,400,0,0,0,0,0,0,0,0,0,-1,1973,624,0,0
756,400,0,0,0,0,0,0,0,0,0,-1,1980,624,0,0
763,400,0,0,0,0,0,0,0,0,0,-1,1987,624,0,0
770,400,0,0,0,0,0,0,0,0,0,-1,1994,624,0,0
777,400,0,0,0,0,0,0,0,0,0,-1,2001,624,0,0
784,400,0,0,0,0,0,0,0,0,0,-1,2008,624,0,0
791,400,0,0,0,0,0,0,0,0,0,-1,2015,624,0,0
798,400,0,0,0,0,0,0,0,0,0,-1,2022,624,0,0
805,400,0,0,0,0,0,0,0,0,0,-1,2029,624,0,0
812,400,0,0,0,0,0,0,0,0,0,-1,2036,624,0,0
-700,393,0,0,0,0,0,0,0,0,0,-1,524,631,0,0
-693,393,0,0,0,0,0,0,0,0,0,-1,531,631,0,0
-686,393,0,0,0,0,0,0,0,0,0,-1,538,631,0,0
-679,393,0,0,0,0,0,0,0,0,0,-1,545,631,0,0
-672,393,0,0,0,0,0,0,0,0,0,-1,552,631,0,0
-665,393,0,0,0,0,0,0,0,0,0,-1,559,631,0,0
-658,393,0,0,0,0,0,0,0,0,0,-1,566,631,0,0
-651,393,0,0,0,0,0,0,0,0,0,-1,573,631,0,0
-644,393,0,0,0,0,0,0,0,0,0,-1,580,631,0,0
-637,393,0,0,0,0,0,0,0,0,0,-1,587,631,0,0
-630,393,0,0,0,0,0,0,0,0,0,-1,594,631,0,0
-623,393,0,0,0,0,0,0,0,0,0,-1,601,631,0,0
-616,393,0,0,0,0,0,0,0,0,0,-1,608,631,0,0
-609,393,0,0,0,0,0,0,0,0,0,-1,615,631,0,0
-602,393,0,0,0,0,0,0,0,0,0,-1,622,631,0,0
-595,393,0,0,0,0,0,0,0,0,0,-1,629,631,0,0
-588,393,0,0,0,0,0,0,0,0,0,-1,636,631,0,0
-581,393,0,0,0,0,0,0,0,0,0,-1,643,631,0,0
-574,393,0,0,0,0,0,0,0,0,0,-1,650,631,0,0
-567,393,0,0,0,0,0,0,0,0,0,-1,657,631,0,0
-560,393,0,0,0,0,0,0,0,0,0,-1,664,631,0,0
-553,393,-2.35107,3.92633,0,0,0,0,0,0,0,-1,671,631,-2.35108,-3.92634
-546,393,-1.78778,2.4856,0,0,0,0,0,0,0,-1,678,631,-1.78778,-2.48557
-539,393,-5.2113,-2.20245,0,0,0,0,0,0,0,-1,685,631,-5.21128,2.20247
-532,393,-2.83643,-2.01624,0,0,0,0,0,0,0,-1,692,631,-2.83642,2.01626
-525,393,-5.9505,-0.952698,0,0,0,0,0,0,0,-1,699,631,-5.95053,0.95268
-518,393,-5.80219,-1.57739,0,0,0,0,0,0,0,-1,706,631,-5.80219,1.57738
-511,393,-6.15527,-2.09906,0,0,0,0,0,0,0,-1,713,631,-6.15526,2.09903
-504,393,-13.6063,-6.95947,0,0,0,0,0,0,0,-1,720,631,-13.6063,6.95946
-497,393,-17.7635,-11.1451,0,0,0,0,0,0,0,-1,727,631,-17.7635,11.1451
-490,393,-17.7317,-12.2127,-0.000749465,0.00111237,0.000585765,0.00128133,-0.000918424,1.28998,0.00127577,0.0271751,734,631,-17.7317,12.2127
-483,393,-17.7543,-13.2493,-0.000829226,0.00090834,0.000450858,0.00101836,-0.000939246,1.33145,0.00113053,0.020414,741,631,-17.7543,13.2493
-476,393,-17.797,-14.1829,-0.000677486,0.00073855,0.000244961,0.000779728,-0.000718665,1.40425,0.000865337,0.0184791,748,631,-17.797,14.1828
-469,393,-17.8844,-15.1354,-0.000271739,0.000543068,-9.56188e-06,0.000543181,-0.000271852,-1.55906,0.000479172,0.0146911,755,631,-17.8844,15.1354
-462,393,-17.9707,-16.1354,0.000290948,0.000332486,-0.000293146,0.000605598,1.78367e-05,-0.820763,0.00039792,0.016577,762,631,-17.9707,16.1355
-455,393,-18.0359,-17.0885,0.000958074,0.00029193,-0.000667858,0.00137131,-0.000121304,-0.554088,0.000957205,0.0162213,769,631,-18.0359,17.0885
-448,393,-18.1056,-18.0276,0.00173018,0.000223865,-0.00104314,0.00226365,-0.000309598,-0.472725,0.00162217,0.0144578,776,631,-18.1056,18.0276
-441,393,-18.1607,-18.9374,0.00255408,0.000299032,-0.00148712,0.00329279,-0.000439684,-0.461037,0.00235548,0.0137181,783,631,-18.1607,18.9374
-434,393,-18.2191,-19.851,0.00346498,0.000556275,-0.00201429,0.00449508,-0.000473821,-0.472722,0.0031665,0.013509,790,631,-18.2191,19.851
-427,393,-18.2126,-20.8248,0.00441447,0.000985131,-0.00264543,0.00585232,-0.000452716,-0.497856,0.00406087,0.0264598,797,631,-18.2126,20.8249
-420,393,-18.1324,-21.8796,0,0,0,0,0,0,0,-1,804,631,-18.1324,21.8796
-413,393,-15.0913,-18.3777,0,0,0,0,0,0,0,-1,811,631,-15.0913,18.3777
-406,393,-11.826,-12.7987,0,0,0,0,0,0,0,-1,818,631,-11.8261,12.7987
-399,393,-5.07343,-5.92365,0,0,0,0,0,0,0,-1,825,631,-5.07344,5.92364
-392,393,-2.08063,-3.02386,0,0,0,0,0,0,0,-1,832,631,-2.08063,3.02384
-385,393,-3.16931,-0.624756,0,0,0,0,0,0,0,-1,839,631,-3.16928,0.624764
-378,393,-7.33081,-0.872314,0,0,0,0,0,0,0,-1,846,631,-7.33081,0.872325
-371,393,-7.47858,-0.811096,0,0,0,0,0,0,0,-1,853,631,-7.47859,0.811075
-364,393,-7.64917,-0.662415,0,0,0,0,0,0,0,-1,860,631,-7.64917,0.662406
-357,393,-8.09686,-0.726013,0,0,0,0,0,0,0,-1,867,631,-8.09689,0.726029
-350,393,-8.38788,-0.511841,0,0,0,0,0,0,0,-1,874,631,-8.38785,0.511811
-343,393,0,0,0,0,0,0,0,0,0,-1,881,631,0,0
-336,393,0,0,0,0,0,0,0,0,0,-1,888,631,0,0
-329,393,0,0,0,0,0,0,0,0,0,-1,895,631,0,0
-322,393,0,0,0,0,0,0,0,0,0,-1,902,631,0,0
-315,393,0,0,0,0,0,0,0,0,0,-1,909,631,0,0
-308,393,0,0,0,0,0,0,0,0,0,-1,916,631,0,0
-301,393,0,0,0,0,0,0,0,0,0,-1,923,631,0,0
-294,393,0,0,0,0,0,0,0,0,0,-1,930,631,0,0
-287,393,0,0,0,0,0,0,0,0,0,-1,937,631,0,0
-280,393,0,0,0,0,0,0,0,0,0,-1,944,631,0,0
-273,393,0,0,0,0,0,0,0,0,0,-1,951,631,0,0
-266,393,0,0,0,0,0,0,0,0,0,-1,958,631,0,0
-259,393,0,0,0,0,0,0,0,0,0,-1,965,631,0,0
-252,393,0,0,0,0,0,0,0,0,0,-1,972,631,0,0
-245,393,0,0,0,0,0,0,0,0,0,-1,979,631,0,0
-238,393,0,0,0,0,0,0,0,0,0,-1,986,631,0,0
-231,393,0,0,0,0,0,0,0,0,0,-1,993,631,0,0
-224,393,0,0,0,0,0,0,0,0,0,-1,1000,631,0,0
-217,393,0,0,0,0,0,0,0,0,0,-1,1007,631,0,0
-210,393,0,0,0,0,0,0,0,0,0,-1,1014,631,0,0
-203,393,0,0,0,0,0,0,0,0,0,-1,1021,631,0,0
-196,393,0,0,0,0,0,0,0,0,0,-1,1028,631,0,0
-189,393,0,0,0,0,0,0,0,0,0,-1,1035,631,0,0
-182,393,0,0,0,0,0,0,0,0,0,-1,1042,631,0,0
-175,393,0,0,0,0,0,0,0,0,0,-1,1049,631,0,0
-168,393,0,0,0,0,0,0,0,0,0,-1,1056,631,0,0
-161,393,0,0,0,0,0,0,0,0,0,-1,1063,631,0,0
-154,393,0,0,0,0,0,0,0,0,0,-1,1070,631,0,0
-147,393,0,0,0,0,0,0,0,0,0,-1,1077,631,0,0
-140,393,0,0,0,0,0,0,0,0,0,-1,1084,631,0,0
-133,393,0,0,0,0,0,0,0,0,0,-1,1091,631,0,0
-126,393,0,0,0,0,0,0,0,0,0,-1,1098,631,0,0
-119,393,0,0,0,0,0,0,0,0,0,-1,1105,631,0,0
-112,393,0,0,0,0,0,0,0,0,0,-1,1112,631,0,0
-105,393,0,0,0,0,0,0,0,0,0,-1,1119,631,0,0
-98,393,0,0,0,0,0,0,0,0,0,-1,1126,631,0,0
-91,393,0,0,0,0,0,0,0,0,0,-1,1133,631,0,0
-84,393,0,0,0,0,0,0,0,0,0,-1,1140,631,0,0
-77,393,0,0,0,0,0,0,0,0,0,-1,1147,631,0,0
-70,393,0,0,0,0,0,0,0,0,0,-1,1154,631,0,0
-63,393,0,0,0,0,0,0,0,0,0,-1,1161,631,0,0
-56,393,0,0,0,0,0,0,0,0,0,-1,1168,631,0,0
-49,393,0,0,0,0,0,0,0,0,0,-1,1175,631,0,0
-42,393,0,0,0,0,0,0,0,0,0,-1,1182,631,0,0
-35,393,0,0,0,0,0,0,0,0,0,-1,1189,631,0,0
-28,393,0,0,0,0,0,0,0,0,0,-1,1196,631,0,0
-21,393,0,0,0,0,0,0,0,0,0,-1,1203,631,0,0
-14,393,0,0,0,0,0,0,0,0,0,-1,1210,631,0,0
-7,393,0,0,0,0,0,0,0,0,0,-1,1217,631,0,0
0,393,0,0,0,0,0,0,0,0,0,-1,1224,631,0,0
7,393,0,0,0,0,0,0,0,0,0,-1,1231,631,0,0
14,393,0,0,0,0,0,0,0,0,0,-1,1238,631,0,0
21,393,0,0,0,0,0,0,0,0,0,-1,1245,631,0,0
28,393,0,0,0,0,0,0,0,0,0,-1,1252,631,0,0
35,393,0,0,0,0,0,0,0,0,0,-1,1259,631,0,0
42,393,0,0,0,0,0,0,0,0,0,-1,1266,631,0,0
49,393,0,0,0,0,0,0,0,0,0,-1,1273,631,0,0
56,393,0,0,0,0,0,0,0,0,0,-1,1280,631,0,0
63,393,0,0,0,0,0,0,0,0,0,-1,1287,631,0,0
70,393,0,0,0,0,0,0,0,0,0,-1,1294,631,0,0
77,393,0,0,0,0,0,0,0,0,0,-1,1301,631,0,0
84,393,0,0,0,0,0,0,0,0,0,-1,1308,631,0,0
91,393,0,0,0,0,0,0,0,0,0,-1,1315,631,0,0
98,393,0,0,0,0,0,0,0,0,0,-1,1322,631,0,0
105,393,0,0,0,0,0,0,0,0,0,-1,1329,631,0,0
112,393,0,0,0,0,0,0,0,0,0,-1,1336,631,0,0
119,393,0,0,0,0,0,0,0,0,0,-1,1343,631,0,0
126,393,0,0,0,0,0,0,0,0,0,-1,1350,631,0,0
133,393,0,0,0,0,0,0,0,0,0,-1,1357,631,0,0
140,393,0,0,0,0,0,0,0,0,0,-1,1364,631,0,0
147,393,0,0,0,0,0,0,0,0,0,-1,1371,631,0,0
154,393,0,0,0,0,0,0,0,0,0,-1,1378,631,0,0
161,393,0,0,0,0,0,0,0,0,0,-1,1385,631,0,0
168,393,0,0,0,0,0,0,0,0,0,-1,1392,631,0,0
175,393,0,0,0,0,0,0,0,0,0,-1,1399,631,0,0
182,393,0,0,0,0,0,0,0,0,0,-1,1406,631,0,0
189,393,0,0,0,0,0,0,0,0,0,-1,1413,631,0,0
196,393,0,0,0,0,0,0,0,0,0,-1,1420,631,0,0
203,393,0,0,0,0,0,0,0,0,0,-1,1427,631,0,0
210,393,0,0,0,0,0,0,0,0,0,-1,1434,631,0,0
217,393,0,0,0,0,0,0,0,0,0,-1,1441,631,0,0
224,393,0,0,0,0,0,0,0,0,0,-1,1448,631,0,0
231,393,0,0,0,0,0,0,0,0,0,-1,1455,631,0,0
238,393,0,0,0,0,0,0,0,0,0,-1,1462,631,0,0
245,393,0,0,0,0,0,0,0,0,0,-1,1469,631,0,0
252,393,0,0,0,0,0,0,0,0,0,-1,1476,631,0,0
259,393,0,0,0,0,0,0,0,0,0,-1,1483,631,0,0
266,393,0,0,0,0,0,0,0,0,0,-1,1490,631,0,0
273,393,0,0,0,0,0,0,0,0,0,-1,1497,631,0,0
280,393,0,0,0,0,0,0,0,0,0,-1,1504,631,0,0
287,393,0,0,0,0,0,0,0,0,0,-1,1511,631,0,0
294,393,0,0,0,0,0,0,0,0,0,-1,1518,631,0,0
301,393,0,0,0,0,0,0,0,0,0,-1,1525,631,0,0
308,393,0,0,0,0,0,0,0,0,0,-1,1532,631,0,0
315,393,0,0,0,0,0,0,0,0,0,-1,1539,631,0,0
322,393,0,0,0,0,0,0,0,0,0,-1,1546,631,0,0
329,393,0,0,0,0,0,0,0,0,0,-1,1553,631,0,0
336,393,0,0,0,0,0,0,0,0,0,-1,1560,631,0,0
343,393,0,0,0,0,0,0,0,0,0,-1,1567,631,0,0
350,393,0,0,0,0,0,0,0,0,0,-1,1574,631,0,0
357,393,0,0,0,0,0,0,0,0,0,-1,1581,631,0,0
364,393,0,0,0,0,0,0,0,0,0,-1,1588,631,0,0
371,393,0,0,0,0,0,0,0,0,0,-1,1595,631,0,0
378,393,0,0,0,0,0,0,0,0,0,-1,1602,631,0,0
385,393,0,0,0,0,0,0,0,0,0,-1,1609,631,0,0
392,393,0,0,0,0,0,0,0,0,0,-1,1616,631,0,0
399,393,0,0,0,0,0,0,0,0,0,-1,1623,631,0,0
406,393,0,0,0,0,0,0,0,0,0,-1,1630,631,0,0
413,393,0,0,0,0,0,0,0,0,0,-1,1637,631,0,0
420,393,0,0,0,0,0,0,0,0,0,-1,1644,631,0,0
427,393,0,0,0,0,0,0,0,0,0,-1,1651,631,0,0
434,393,0,0,0,0,0,0,0,0,0,-1,1658,631,0,0
441,393,0,0,0,0,0,0,0,0,0,-1,1665,631,0,0
448,393,0,0,0,0,0,0,0,0,0,-1,1672,631,0,0
455,393,0,0,0,0,0,0,0,0,0,-1,1679,631,0,0
462,393,8.51099,1.89502,0,0,0,0,0,0,0,-1,1686,631,8.51103,-1.89504
469,393,9.39465,1.51703,0,0,0,0,0,0,0,-1,1693,631,9.39465,-1.51703
476,393,9.95569,1.185,0,0,0,0,0,0,0,-1,1700,631,9.95575,-1.18497
483,393,10.5267,0.887329,0,0,0,0,0,0,0,-1,1707,631,10.5267,-0.887321
490,393,10.9303,0.761414,0,0,0,0,0,0,0,-1,1714,631,10.9303,-0.761386
497,393,8.32153,1.88104,0,0,0,0,0,0,0,-1,1721,631,8.32148,-1.88103
504,393,9.46985,1.78711,0,0,0,0,0,0,0,-1,1728,631,9.46986,-1.78713
511,393,9.66565,-0.375977,0,0,0,0,0,0,0,-1,1735,631,9.66571,0.375949
518,393,7.01599,1.62482,0,0,0,0,0,0,0,-1,1742,631,7.01597,-1.62483
525,393,7.88245,-1.13422,0,0,0,0,0,0,0,-1,1749,631,7.88246,1.13423
532,393,7.06335,-1.18103,0,0,0,0,0,0,0,-1,1756,631,7.06332,1.18101
539,393,9.91626,-2.46301,0,0,0,0,0,0,0,-1,1763,631,9.91625,2.46302
546,393,16.4094,-8.04651,0,0,0,0,0,0,0,-1,1770,631,16.4094,8.04649
553,393,33.8778,-20.7451,0,0,0,0,0,0,0,-1,1777,631,33.8779,20.7451
560,393,34.17,-19.5226,0.00172869,0.000256837,0.000551835,0.00191261,7.29217e-05,0.321702,0.00125147,0.0426751,1784,631,34.17,19.5226
567,393,34.1351,-18.5302,0.00116844,-5.29083e-05,0.000139669,0.00118421,-6.86768e-05,0.112423,0.000813333,0.0172782,1791,631,34.1351,18.5301
574,393,34.1052,-17.5778,0.000939248,6.84066e-05,0.000137178,0.000960346,4.73091e-05,0.152601,0.000625058,0.0168694,1798,631,34.1053,17.5778
581,393,33.979,-16.6029,0.000879519,0.000412984,0.000322099,0.00104395,0.000248556,0.472003,0.000629683,0.0183688,1805,631,33.979,16.6029
588,393,33.8788,-15.5925,0.00107734,0.00105825,0.00076466,0.00183251,0.000303073,0.779157,0.00113423,0.0213966,1812,631,33.8787,15.5925
595,393,33.8944,-14.7203,0.00148593,0.00185275,0.00136682,0.00304841,0.000290267,0.852093,0.00194276,0.0187541,1819,631,33.8944,14.7203
602,393,33.8507,-13.8177,0.00208364,0.0028459,0.00212464,0.00462332,0.000306216,0.874148,0.00298538,0.0198909,1826,631,33.8507,13.8177
609,393,33.7266,-12.8421,0.00283938,0.00404136,0.00302599,0.00652546,0.000355271,0.883427,0.00423685,0.0173299,1833,631,33.7265,12.8421
616,393,33.658,-11.8753,0.00376256,0.00547116,0.00404689,0.00875294,0.000480781,0.889421,0.00568182,0.0159921,1840,631,33.658,11.8753
623,393,33.6384,-10.7875,0.00480768,0.00699836,0.00517391,0.0111916,0.000614435,0.88971,0.00726492,0.0361656,1847,631,33.6385,10.7876
630,393,33.662,-9.58148,0,0,0,0,0,0,0,-1,1854,631,33.6619,9.58146
637,393,11.4626,0.608887,0,0,0,0,0,0,0,-1,1861,631,11.4627,-0.608904
644,393,8.97583,1.30585,0,0,0,0,0,0,0,-1,1868,631,8.97586,-1.30584
651,393,11.348,0.53302,0,0,0,0,0,0,0,-1,1875,631,11.348,-0.53305
658,393,9.21338,1.50836,0,0,0,0,0,0,0,-1,1882,631,9.21338,-1.50834
665,393,6.1001,2.32129,0,0,0,0,0,0,0,-1,1889,631,6.10012,-2.3213
672,393,7.14575,2.43225,0,0,0,0,0,0,0,-1,1896,631,7.14572,-2.43222
679,393,0,0,0,0,0,0,0,0,0,-1,1903,631,0,0
686,393,0,0,0,0,0,0,0,0,0,-1,1910,631,0,0
693,393,0,0,0,0,0,0,0,0,0,-1,1917,631,0,0
700,393,0,0,0,0,0,0,0,0,0,-1,1924,631,0,0
707,393,0,0,0,0,0,0,0,0,0,-1,1931,631,0,0
714,393,0,0,0,0,0,0,0,0,0,-1,1938,631,0,0
721,393,0,0,0,0,0,0,0,0,0,-1,1945,631,0,0
728,393,0,0,0,0,0,0,0,0,0,-1,1952,631,0,0
735,393,0,0,0,0,0,0,0,0,0,-1,1959,631,0,0
742,393,0,0,0,0,0,0,0,0,0,-1,1966,631,0,0
749,393,0,0,0,0,0,0,0,0,0,-1,1973,631,0,0
756,393,0,0,0,0,0,0,0,0,0,-1,1980,631,0,0
763,393,0,0,0,0,0,0,0,0,0,-1,1987,631,0,0
770,393,0,0,0,0,0,0,0,0,0,-1,1994,631,0,0
777,393,0,0,0,0,0,0,0,0,0,-1,2001,631,0,0
784,393,0,0,0,0,0,0,0,0,0,-1,2008,631,0,0
791,393,0,0,0,0,0,0,0,0,0,-1,2015,631,0,0
798,393,0,0,0,0,0,0,0,0,0,-1,2022,631,0,0
805,393,0,0,0,0,0,0,0,0,0,-1,2029,631,0,0
812,393,0,0,0,0,0,0,0,0,0,-1,2036,631,0,0
-700,386,0,0,0,0,0,0,0,0,0,-1,524,638,0,0
-693,386,0,0,0,0,0,0,0,0,0,-1,531,638,0,0
-686,386,0,0,0,0,0,0,0,0,0,-1,538,638,0,0
-679,386,0,0,0,0,0,0,0,0,0,-1,545,638,0,0
-672,386,0,0,0,0,0,0,0,0,0,-1,552,638,0,0
-665,386,0,0,0,0,0,0,0,0,0,-1,559,638,0,0
-658,386,0,0,0,0,0,0,0,0,0,-1,566,638,0,0
-651,386,0,0,0,0,0,0,0,0,0,-1,573,638,0,0
-644,386,0,0,0,0,0,0,0,0,0,-1,580,638,0,0
-637,386,0,0,0,0,0,0,0,0,0,-1,587,638,0,0
-630,386,0,0,0,0,0,0,0,0,0,-1,594,638,0,0
-623,386,0,0,0,0,0,0,0,0,0,-1,601,638,0,0
-616,386,0,0,0,0,0,0,0,0,0,-1,608,638,0,0
-609,386,0,0,0,0,0,0,0,0,0,-1,615,638,0,0
-602,386,0,0,0,0,0,0,0,0,0,-1,622,638,0,0
-595,386,0,0,0,0,0,0,0,0,0,-1,629,638,0,0
-588,386,0,0,0,0,0,0,0,0,0,-1,636,638,0,0
-581,386,0,0,0,0,0,0,0,0,0,-1,643,638,0,0
-574,386,0,0,0,0,0,0,0,0,0,-1,650,638,0,0
-567,386,0,0,0,0,0,0,0,0,0,-1,657,638,0,0
-560,386,-3.97229,-5.13898,0,0,0,0,0,0,0,-1,664,638,-3.97232,5.13897
-553,386,-4.94244,-5.54309,0,0,0,0,0,0,0,-1,671,638,-4.94242,5.5431
-546,386,-1.78668,1.72827,0,0,0,0,0,0,0,-1,678,638,-1.78668,-1.72829
-539,386,-0.879456,-2.90009,0,0,0,0,0,0,0,-1,685,638,-0.879442,2.90008
-532,386,-5.4884,1.73328,0,0,0,0,0,0,0,-1,692,638,-5.4884,-1.73325
-525,386,-6.64148,-1.50604,0,0,0,0,0,0,0,-1,699,638,-6.64149,1.50603
-518,386,-11.1217,-4.10382,0,0,0,0,0,0,0,-1,706,638,-11.1217,4.1038
-511,386,-13.0612,-5.05151,0,0,0,0,0,0,0,-1,713,638,-13.0612,5.05149
-504,386,-18.6318,-9.85223,0,0,0,0,0,0,0,-1,720,638,-18.6319,9.85225
-497,386,-18.6008,-11.27,0,0,0,0,0,0,0,-1,727,638,-18.6008,11.27
-490,386,-18.6685,-12.2505,0.000139053,0.000697949,0.000140554,0.000731305,0.000105697,1.33779,0.000456403,0.0141823,734,638,-18.6685,12.2505
-483,386,-18.7197,-13.2245,-2.90051e-05,0.000575104,7.70499e-05,0.000584776,-3.86774e-05,1.44592,0.000403362,0.0174906,741,638,-18.7197,13.2246
-476,386,-18.7702,-14.1636,3.93581e-05,0.000460432,-6.69574e-05,0.000470823,2.89672e-05,-1.41684,0.000304685,0.016614,748,638,-18.7702,14.1636
-469,386,-18.8589,-15.0829,0.000343862,0.000318662,-0.000270708,0.000602264,6.02613e-05,-0.762143,0.000383005,0.0130342,755,638,-18.8589,15.0829
-462,386,-18.9172,-16.0715,0.000814247,0.00016625,-0.000526677,0.0011086,-0.000128108,-0.509647,0.000785263,0.0121793,762,638,-18.9172,16.0715
-455,386,-18.9646,-17.034,0.00143684,0.00018595,-0.000898052,0.00190578,-0.00028299,-0.48123,0.00137459,0.0139055,769,638,-18.9646,17.034
-448,386,-19.0416,-17.9453,0.00219808,0.000177837,-0.00129539,0.00283064,-0.000454719,-0.454254,0.0020555,0.0137206,776,638,-19.0416,17.9452
-441,386,-19.1141,-18.864,0.00305286,0.000318317,-0.00180007,0.00394604,-0.00057487,-0.460601,0.00284177,0.0147647,783,638,-19.114,18.864
-434,386,-19.1289,-19.8696,0.00406462,0.000700062,-0.00244774,0.00535245,-0.000587762,-0.48433,0.00377948,0.0329533,790,638,-19.1289,19.8696
-427,386,-19.0453,-20.8517,0,0,0,0,0,0,0,-1,797,638,-19.0453,20.8517
-420,386,-14.5338,-16.0451,0,0,0,0,0,0,0,-1,804,638,-14.5338,16.0451
-413,386,-5.45691,-5.35785,0,0,0,0,0,0,0,-1,811,638,-5.45691,5.35783
-406,386,-4.51135,-4.10999,0,0,0,0,0,0,0,-1,818,638,-4.51135,4.10996
-399,386,-3.57117,-3.42126,0,0,0,0,0,0,0,-1,825,638,-3.57116,3.42129
-392,386,-4.00977,0.403625,0,0,0,0,0,0,0,-1,832,638,-4.0098,-0.403616
-385,386,-3.2406,-0.118469,0,0,0,0,0,0,0,-1,839,638,-3.24058,0.118485
-378,386,-2.55243,-1.22748,0,0,0,0,0,0,0,-1,846,638,-2.55243,1.22748
-371,386,-7.95807,-0.330261,0,0,0,0,0,0,0,-1,853,638,-7.95806,0.330284
-364,386,-8.90637,-0.665955,0,0,0,0,0,0,0,-1,860,638,-8.90635,0.665951
-357,386,-9.10364,-0.388733,0,0,0,0,0,0,0,-1,867,638,-9.10364,0.388744
-350,386,0,0,0,0,0,0,0,0,0,-1,874,638,0,0
-343,386,0,0,0,0,0,0,0,0,0,-1,881,638,0,0
-336,386,0,0,0,0,0,0,0,0,0,-1,888,638,0,0
-329,386,0,0,0,0,0,0,0,0,0,-1,895,638,0,0
-322,386,0,0,0,0,0,0,0,0,0,-1,902,638,0,0
-315,386,0,0,0,0,0,0,0,0,0,-1,909,638,0,0
-308,386,0,0,0,0,0,0,0,0,0,-1,916,638,0,0
-301,386,0,0,0,0,0,0,0,0,0,-1,923,638,0,0
-294,386,0,0,0,0,0,0,0,0,0,-1,930,638,0,0
-287,386,0,0,0,0,0,0,0,0,0,-1,937,638,0,0
-280,386,0,0,0,0,0,0,0,0,0,-1,944,638,0,0
-273,386,0,0,0,0,0,0,0,0,0,-1,951,638,0,0
-266,386,0,0,0,0,0,0,0,0,0,-1,958,638,0,0
-259,386,0,0,0,0,0,0,0,0,0,-1,965,638,0,0
-252,386,0,0,0,0,0,0,0,0,0,-1,972,638,0,0
-245,386,0,0,0,0,0,0,0,0,0,-1,979,638,0,0
-238,386,0,0,0,0,0,0,0,0,0,-1,986,638,0,0
-231,386,0,0,0,0,0,0,0,0,0,-1,993,638,0,0
-224,386,0,0,0,0,0,0,0,0,0,-1,1000,638,0,0
-217,386,0,0,0,0,0,0,0,0,0,-1,1007,638,0,0
-210,386,0,0,0,0,0,0,0,0,0,-1,1014,638,0,0
-203,386,0,0,0,0,0,0,0,0,0,-1,1021,638,0,0
-196,386,0,0,0,0,0,0,0,0,0,-1,1028,638,0,0
-189,386,0,0,0,0,0,0,0,0,0,-1,1035,638,0,0
-182,386,0,0,0,0,0,0,0,0,0,-1,1042,638,0,0
-175,386,0,0,0,0,0,0,0,0,0,-1,1049,638,0,0
-168,386,0,0,0,0,0,0,0,0,0,-1,1056,638,0,0
-161,386,0,0,0,0,0,0,0,0,0,-1,1063,638,0,0
-154,386,0,0,0,0,0,0,0,0,0,-1,1070,638,0,0
-147,386,0,0,0,0,0,0,0,0,0,-1,1077,638,0,0
-140,386,0,0,0,0,0,0,0,0,0,-1,1084,638,0,0
-133,386,0,0,0,0,0,0,0,0,0,-1,1091,638,0,0
-126,386,0,0,0,0,0,0,0,0,0,-1,1098,638,0,0
-119,386,0,0,0,0,0,0,0,0,0,-1,1105,638,0,0
-112,386,0,0,0,0,0,0,0,0,0,-1,1112,638,0,0
-105,386,0,0,0,0,0,0,0,0,0,-1,1119,638,0,0
-98,386,0,0,0,0,0,0,0,0,0,-1,1126,638,0,0
-91,386,0,0,0,0,0,0,0,0,0,-1,1133,638,0,0
-84,386,0,0,0,0,0,0,0,0,0,-1,1140,638,0,0
-77,386,0,0,0,0,0,0,0,0,0,-1,1147,638,0,0
-70,386,0,0,0,0,0,0,0,0,0,-1,1154,638,0,0
-63,386,0,0,0,0,0,0,0,0,0,-1,1161,638,0,0
-56,386,0,0,0,0,0,0,0,0,0,-1,1168,638,0,0
-49,386,0,0,0,0,0,0,0,0,0,-1,1175,638,0,0
-42,386,0,0,0,0,0,0,0,0,0,-1,1182,638,0,0
-35,386,0,0,0,0,0,0,0,0,0,-1,1189,638,0,0
-28,386,0,0,0,0,0,0,0,0,0,-1,1196,638,0,0
-21,386,0,0,0,0,0,0,0,0,0,-1,1203,638,0,0
-14,386,0,0,0,0,0,0,0,0,0,-1,1210,638,0,0
-7,386,0,0,0,0,0,0,0,0,0,-1,1217,638,0,0
0,386,0,0,0,0,0,0,0,0,0,-1,1224,638,0,0
7,386,0,0,0,0,0,0,0,0,0,-1,1231,638,0,0
14,386,0,0,0,0,0,0,0,0,0,-1,1238,638,0,0
21,386,0,0,0,0,0,0,0,0,0,-1,1245,638,0,0
28,386,0,0,0,0,0,0,0,0,0,-1,1252,638,0,0
35,386,0,0,0,0,0,0,0,0,0,-1,1259,638,0,0
42,386,0,0,0,0,0,0,0,0,0,-1,1266,638,0,0
49,386,0,0,0,0,0,0,0,0,0,-1,1273,638,0,0
56,386,0,0,0,0,0,0,0,0,0,-1,1280,638,0,0
63,386,0,0,0,0,0,0,0,0,0,-1,1287,638,0,0
70,386,0,0,0,0,0,0,0,0,0,-1,1294,638,0,0
77,386,0,0,0,0,0,0,0,0,0,-1,1301,638,0,0
84,386,0,0,0,0,0,0,0,0,0,-1,1308,638,0,0
91,386,0,0,0,0,0,0,0,0,0,-1,1315,638,0,0
98,386,0,0,0,0,0,0,0,0,0,-1,1322,638,0,0
105,386,0,0,0,0,0,0,0,0,0,-1,1329,638,0,0
112,386,0,0,0,0,0,0,0,0,0,-1,1336,638,0,0
119,386,0,0,0,0,0,0,0,0,0,-1,1343,638,0,0
126,386,0,0,0,0,0,0,0,0,0,-1,1350,638,0,0
133,386,0,0,0,0,0,0,0,0,0,-1,1357,638,0,0
140,386,0,0,0,0,0,0,0,0,0,-1,1364,638,0,0
147,386,0,0,0,0,0,0,0,0,0,-1,1371,638,0,0
154,386,0,0,0,0,0,0,0,0,0,-1,1378,638,0,0
161,386,0,0,0,0,0,0,0,0,0,-1,1385,638,0,0
168,386,0,0,0,0,0,0,0,0,0,-1,1392,638,0,0
175,386,0,0,0,0,0,0,0,0,0,-1,1399,638,0,0
182,386,0,0,0,0,0,0,0,0,0,-1,1406,638,0,0
189,386,0,0,0,0,0,0,0,0,0,-1,1413,638,0,0
196,386,0,0,0,0,0,0,0,0,0,-1,1420,638,0,0
203,386,0,0,0,0,0,0,0,0,0,-1,1427,638,0,0
210,386,0,0,0,0,0,0,0,0,0,-1,1434,638,0,0
217,386,0,0,0,0,0,0,0,0,0,-1,1441,638,0,0
224,386,0,0,0,0,0,0,0,0,0,-1,1448,638,0,0
231,386,0,0,0,0,0,0,0,0,0,-1,1455,638,0,0
238,386,0,0,0,0,0,0,0,0,0,-1,1462,638,0,0
245,386,0,0,0,0,0,0,0,0,0,-1,1469,638,0,0
252,386,0,0,0,0,0,0,0,0,0,-1,1476,638,0,0
259,386,0,0,0,0,0,0,0,0,0,-1,1483,638,0,0
266,386,0,0,0,0,0,0,0,0,0,-1,1490,638,0,0
273,386,0,0,0,0,0,0,0,0,0,-1,1497,638,0,0
280,386,0,0,0,0,0,0,0,0,0,-1,1504,638,0,0
287,386,0,0,0,0,0,0,0,0,0,-1,1511,638,0,0
294,386,0,0,0,0,0,0,0,0,0,-1,1518,638,0,0
301,386,0,0,0,0,0,0,0,0,0,-1,1525,638,0,0
308,386,0,0,0,0,0,0,0,0,0,-1,1532,638,0,0
315,386,0,0,0,0,0,0,0,0,0,-1,1539,638,0,0
322,386,0,0,0,0,0,0,0,0,0,-1,1546,638,0,0
329,386,0,0,0,0,0,0,0,0,0,-1,1553,638,0,0
336,386,0,0,0,0,0,0,0,0,0,-1,1560,638,0,0
343,386,0,0,0,0,0,0,0,0,0,-1,1567,638,0,0
350,386,0,0,0,0,0,0,0,0,0,-1,1574,638,0,0
357,386,0,0,0,0,0,0,0,0,0,-1,1581,638,0,0
364,386,0,0,0,0,0,0,0,0,0,-1,1588,638,0,0
371,386,0,0,0,0,0,0,0,0,0,-1,1595,638,0,0
378,386,0,0,0,0,0,0,0,0,0,-1,1602,638,0,0
385,386,0,0,0,0,0,0,0,0,0,-1,1609,638,0,0
392,386,0,0,0,0,0,0,0,0,0,-1,1616,638,0,0
399,386,0,0,0,0,0,0,0,0,0,-1,1623,638,0,0
406,386,0,0,0,0,0,0,0,0,0,-1,1630,638,0,0
413,386,0,0,0,0,0,0,0,0,0,-1,1637,638,0,0
420,386,0,0,0,0,0,0,0,0,0,-1,1644,638,0,0
427,386,0,0,0,0,0,0,0,0,0,-1,1651,638,0,0
434,386,0,0,0,0,0,0,0,0,0,-1,1658,638,0,0
441,386,0,0,0,0,0,0,0,0,0,-1,1665,638,0,0
448,386,0,0,0,0,0,0,0,0,0,-1,1672,638,0,0
455,386,0,0,0,0,0,0,0,0,0,-1,1679,638,0,0
462,386,0,0,0,0,0,0,0,0,0,-1,1686,638,0,0
469,386,9.84692,1.55804,0,0,0,0,0,0,0,-1,1693,638,9.84691,-1.55807
476,386,10.6145,0.986511,0,0,0,0,0,0,0,-1,1700,638,10.6145,-0.986529
483,386,11.4113,0.732971,0,0,0,0,0,0,0,-1,1707,638,11.4112,-0.732958
490,386,7.79785,1.79572,0,0,0,0,0,0,0,-1,1714,638,7.79788,-1.7957
497,386,8.96362,1.77081,0,0,0,0,0,0,0,-1,1721,638,8.96357,-1.77081
504,386,10.0555,1.69427,0,0,0,0,0,0,0,-1,1728,638,10.0555,-1.69426
511,386,11.2172,1.534,0,0,0,0,0,0,0,-1,1735,638,11.2172,-1.53398
518,386,7.41553,1.75238,0,0,0,0,0,0,0,-1,1742,638,7.41547,-1.75238
525,386,8.82422,-1.1449,0,0,0,0,0,0,0,-1,1749,638,8.82426,1.14492
532,386,10.6432,0.617371,0,0,0,0,0,0,0,-1,1756,638,10.6432,-0.617359
539,386,9.62061,-0.393616,0,0,0,0,0,0,0,-1,1763,638,9.62059,0.393634
546,386,10.7963,-2.854,0,0,0,0,0,0,0,-1,1770,638,10.7962,2.854
553,386,16.9939,-7.27942,0,0,0,0,0,0,0,-1,1777,638,16.9939,7.27944
560,386,35.0223,-19.5973,0,0,0,0,0,0,0,-1,1784,638,35.0223,19.5973
567,386,35.1033,-18.4269,0,0,0,0,0,0,0,-1,1791,638,35.1033,18.4269
574,386,35.0416,-17.5126,0.00084866,-0.000226604,-0.000138169,0.000866131,-0.000244075,-0.125776,0.000673682,0.0161165,1798,638,35.0416,17.5126
581,386,34.9375,-16.5922,0.00066224,1.77323e-05,-3.96548e-05,0.00066467,1.53016e-05,-0.0612195,0.000438102,0.0164016,1805,638,34.9375,16.5922
588,386,34.8868,-15.6367,0.000795934,0.000533767,0.000315987,0.00100695,0.000322753,0.588782,0.000593715,0.0140752,1812,638,34.8869,15.6367
595,386,34.8248,-14.7134,0.00115213,0.00121671,0.000825437,0.00201049,0.000358355,0.804947,0.00123828,0.0157108,1819,638,34.8248,14.7134
602,386,34.7603,-13.7926,0.00168638,0.00206634,0.00146706,0.00335567,0.00039705,0.849789,0.00211721,0.0173004,1826,638,34.7602,13.7926
609,386,34.7335,-12.8209,0.00232534,0.00308579,0.00220112,0.00493929,0.000471844,0.870924,0.00314739,0.0158757,1833,638,34.7335,12.8209
616,386,34.6835,-11.8303,0.0030815,0.00428998,0.00299804,0.00674407,0.00062741,0.884838,0.00430219,0.0130359,1840,638,34.6834,11.8304
623,386,34.5983,-10.8719,0.00393534,0.00551055,0.00384115,0.00864401,0.000801885,0.886519,0.00551485,0.0108445,1847,638,34.5983,10.872
630,386,34.6788,-9.87012,0.00474841,0.00677949,0.00464047,0.0105142,0.00101365,0.893122,0.00669723,0.0372621,1854,638,34.6788,9.8701
637,386,34.8447,-8.84308,0,0,0,0,0,0,0,-1,1861,638,34.8447,8.84309
644,386,11.6521,0.723328,0,0,0,0,0,0,0,-1,1868,638,11.6521,-0.723355
651,386,9.3866,1.31097,0,0,0,0,0,0,0,-1,1875,638,9.3866,-1.31095
658,386,12.0731,-0.00415039,0,0,0,0,0,0,0,-1,1882,638,12.0731,0.00412803
665,386,6.33167,1.78601,0,0,0,0,0,0,0,-1,1889,638,6.33171,-1.78601
672,386,7.23352,2.14435,0,0,0,0,0,0,0,-1,1896,638,7.23353,-2.14433
679,386,8.07764,2.57104,0,0,0,0,0,0,0,-1,1903,638,8.07758,-2.57103
686,386,0,0,0,0,0,0,0,0,0,-1,1910,638,0,0
693,386,0,0,0,0,0,0,0,0,0,-1,1917,638,0,0
700,386,0,0,0,0,0,0,0,0,0,-1,1924,638,0,0
707,386,0,0,0,0,0,0,0,0,0,-1,1931,638,0,0
714,386,0,0,0,0,0,0,0,0,0,-1,1938,638,0,0
721,386,0,0,0,0,0,0,0,0,0,-1,1945,638,0,0
728,386,0,0,0,0,0,0,0,0,0,-1,1952,638,0,0
735,386,0,0,0,0,0,0,0,0,0,-1,1959,638,0,0
742,386,0,0,0,0,0,0,0,0,0,-1,1966,638,0,0
749,386,0,0,0,0,0,0,0,0,0,-1,1973,638,0,0
756,386,0,0,0,0,0,0,0,0,0,-1,1980,638,0,0
763,386,0,0,0,0,0,0,0,0,0,-1,1987,638,0,0
770,386,0,0,0,0,0,0,0,0,0,-1,1994,638,0,0
777,386,0,0,0,0,0,0,0,0,0,-1,2001,638,0,0
784,386,0,0,0,0,0,0,0,0,0,-1,2008,638,0,0
791,386,0,0,0,0,0,0,0,0,0,-1,2015,638,0,0
798,386,0,0,0,0,0,0,0,0,0,-1,2022,638,0,0
805,386,0,0,0,0,0,0,0,0,0,-1,2029,638,0,0
812,386,0,0,0,0,0,0,0,0,0,-1,2036,638,0,0
-700,379,0,0,0,0,0,0,0,0,0,-1,524,645,0,0
-693,379,0,0,0,0,0,0,0,0,0,-1,531,645,0,0
-686,379,0,0,0,0,0,0,0,0,0,-1,538,645,0,0
-679,379,0,0,0,0,0,0,0,0,0,-1,545,645,0,0
-672,379,0,0,0,0,0,0,0,0,0,-1,552,645,0,0
-665,379,0,0,0,0,0,0,0,0,0,-1,559,645,0,0
-658,379,0,0,0,0,0,0,0,0,0,-1,566,645,0,0
-651,379,0,0,0,0,0,0,0,0,0,-1,573,645,0,0
-644,379,0,0,0,0,0,0,0,0,0,-1,580,645,0,0
-637,379,0,0,0,0,0,0,0,0,0,-1,587,645,0,0
-630,379,0,0,0,0,0,0,0,0,0,-1,594,645,0,0
-623,379,0,0,0,0,0,0,0,0,0,-1,601,645,0,0
-616,379,0,0,0,0,0,0,0,0,0,-1,608,645,0,0
-609,379,0,0,0,0,0,0,0,0,0,-1,615,645,0,0
-602,379,0,0,0,0,0,0,0,0,0,-1,622,645,0,0
-595,379,0,0,0,0,0,0,0,0,0,-1,629,645,0,0
-588,379,0,0,0,0,0,0,0,0,0,-1,636,645,0,0
-581,379,0,0,0,0,0,0,0,0,0,-1,643,645,0,0
-574,379,0,0,0,0,0,0,0,0,0,-1,650,645,0,0
-567,379,-8.78058,0.59668,0,0,0,0,0,0,0,-1,657,645,-8.7806,-0.596692
-560,379,-9.53485,-0.211304,0,0,0,0,0,0,0,-1,664,645,-9.53487,0.211282
-553,379,-5.17108,-4.53119,0,0,0,0,0,0,0,-1,671,645,-5.17106,4.53117
-546,379,-6.23053,-4.92102,0,0,0,0,0,0,0,-1,678,645,-6.23054,4.92105
-539,379,-0.71698,-2.19427,0,0,0,0,0,0,0,-1,685,645,-0.716959,2.19427
-532,379,-7.69611,0.217224,0,0,0,0,0,0,0,-1,692,645,-7.69614,-0.217204
-525,379,-7.09833,-1.13043,0,0,0,0,0,0,0,-1,699,645,-7.0983,1.13041
-518,379,-13.126,-5.33893,0,0,0,0,0,0,0,-1,706,645,-13.126,5.33895
-511,379,-19.386,-9.38849,0,0,0,0,0,0,0,-1,713,645,-19.386,9.3885
-504,379,-19.5437,-10.2264,0,0,0,0,0,0,0,-1,720,645,-19.5437,10.2264
-497,379,-19.5717,-11.2138,0.00111169,0.000457449,-0.000230461,0.00118472,0.00038442,-0.306873,0.000697907,0.016377,727,645,-19.5717,11.2138
-490,379,-19.6287,-12.1697,0.000698938,0.000420616,-0.000139374,0.000756731,0.000362823,-0.393082,0.000437022,0.0118133,734,645,-19.6287,12.1697
-483,379,-19.6865,-13.1197,0.000492817,0.000345184,-0.000152113,0.000588078,0.000249923,-0.5595,0.000340798,0.0132258,741,645,-19.6864,13.1197
-476,379,-19.7366,-14.0562,0.000511673,0.000268029,-0.000252587,0.000670281,0.000109421,-0.560706,0.000415214,0.0129159,748,645,-19.7366,14.0561
-469,379,-19.8077,-14.9983,0.000764607,0.000176871,-0.000442986,0.00100234,-6.08581e-05,-0.492536,0.000689406,0.0127136,755,645,-19.8078,14.9983
-462,379,-19.8771,-15.9677,0.00119147,8.38602e-05,-0.000709744,0.00153791,-0.000262577,-0.454096,0.00112308,0.0101638,762,645,-19.8771,15.9677
-455,379,-19.9515,-16.9192,0.00181797,0.000150919,-0.00111112,0.00237345,-0.000404566,-0.463594,0.00173297,0.0104403,769,645,-19.9515,16.9192
-448,379,-19.9891,-17.8406,0.00262713,0.000214375,-0.00157577,0.00340529,-0.000563785,-0.458699,0.00247958,0.0125797,776,645,-19.9891,17.8406
-441,379,-20.0137,-18.8269,0.00357694,0.000428257,-0.00218829,0.00469837,-0.000693168,-0.473571,0.00338703,0.0242061,783,645,-20.0137,18.8269
-434,379,-19.9781,-19.9945,0,0,0,0,0,0,0,-1,790,645,-19.9781,19.9945
-427,379,-4.16113,-4.13452,0,0,0,0,0,0,0,-1,797,645,-4.16116,4.1345
-420,379,-4.63953,-3.46869,0,0,0,0,0,0,0,-1,804,645,-4.63953,3.46872
-413,379,-4.62543,-3.7912,0,0,0,0,0,0,0,-1,811,645,-4.62541,3.79123
-406,379,-4.64063,-4.38489,0,0,0,0,0,0,0,-1,818,645,-4.64065,4.3849
-399,379,-2.93536,-1.40118,0,0,0,0,0,0,0,-1,825,645,-2.93534,1.40119
-392,379,-4.16711,-0.466003,0,0,0,0,0,0,0,-1,832,645,-4.16714,0.465992
-385,379,-3.51862,0.441101,0,0,0,0,0,0,0,-1,839,645,-3.51859,-0.441072
-378,379,-5.3504,0.212219,0,0,0,0,0,0,0,-1,846,645,-5.35038,-0.212241
-371,379,-4.32092,-0.186707,0,0,0,0,0,0,0,-1,853,645,-4.3209,0.186707
-364,379,-3.40887,-0.549805,0,0,0,0,0,0,0,-1,860,645,-3.4089,0.549802
-357,379,0,0,0,0,0,0,0,0,0,-1,867,645,0,0
-350,379,0,0,0,0,0,0,0,0,0,-1,874,645,0,0
-343,379,0,0,0,0,0,0,0,0,0,-1,881,645,0,0
-336,379,0,0,0,0,0,0,0,0,0,-1,888,645,0,0
-329,379,0,0,0,0,0,0,0,0,0,-1,895,645,0,0
-322,379,0,0,0,0,0,0,0,0,0,-1,902,645,0,0
-315,379,0,0,0,0,0,0,0,0,0,-1,909,645,0,0
-308,379,0,0,0,0,0,0,0,0,0,-1,916,645,0,0
-301,379,0,0,0,0,0,0,0,0,0,-1,923,645,0,0
-294,379,0,0,0,0,0,0,0,0,0,-1,930,645,0,0
-287,379,0,0,0,0,0,0,0,0,0,-1,937,645,0,0
-280,379,0,0,0,0,0,0,0,0,0,-1,944,645,0,0
-273,379,0,0,0,0,0,0,0,0,0,-1,951,645,0,0
-266,379,0,0,0,0,0,0,0,0,0,-1,958,645,0,0
-259,379,0,0,0,0,0,0,0,0,0,-1,965,645,0,0
-252,379,0,0,0,0,0,0,0,0,0,-1,972,645,0,0
-245,379,0,0,0,0,0,0,0,0,0,-1,979,645,0,0
-238,379,0,0,0,0,0,0,0,0,0,-1,986,645,0,0
-231,379,0,0,0,0,0,0,0,0,0,-1,993,645,0,0
-224,379,0,0,0,0,0,0,0,0,0,-1,1000,645,0,0
-217,379,0,0,0,0,0,0,0,0,0,-1,1007,645,0,0
-210,379,0,0,0,0,0,0,0,0,0,-1,1014,645,0,0
-203,379,0,0,0,0,0,0,0,0,0,-1,1021,645,0,0
-196,379,0,0,0,0,0,0,0,0,0,-1,1028,645,0,0
-189,379,0,0,0,0,0,0,0,0,0,-1,1035,645,0,0
-182,379,0,0,0,0,0,0,0,0,0,-1,1042,645,0,0
-175,379,0,0,0,0,0,0,0,0,0,-1,1049,645,0,0
-168,379,0,0,0,0,0,0,0,0,0,-1,1056,645,0,0
-161,379,0,0,0,0,0,0,0,0,0,-1,1063,645,0,0
-154,379,0,0,0,0,0,0,0,0,0,-1,1070,645,0,0
-147,379,0,0,0,0,0,0,0,0,0,-1,1077,645,0,0
-140,379,0,0,0,0,0,0,0,0,0,-1,1084,645,0,0
-133,379,0,0,0,0,0,0,0,0,0,-1,1091,645,0,0
-126,379,0,0,0,0,0,0,0,0,0,-1,1098,645,0,0
-119,379,0,0,0,0,0,0,0,0,0,-1,1105,645,0,0
-112,379,0,0,0,0,0,0,0,0,0,-1,1112,645,0,0
-105,379,0,0,0,0,0,0,0,0,0,-1,1119,645,0,0
-98,379,0,0,0,0,0,0,0,0,0,-1,1126,645,0,0
-91,379,0,0,0,0,0,0,0,0,0,-1,1133,645,0,0
-84,379,0,0,0,0,0,0,0,0,0,-1,1140,645,0,0
-77,379,0,0,0,0,0,0,0,0,0,-1,1147,645,0,0
-70,379,0,0,0,0,0,0,0,0,0,-1,1154,645,0,0
-63,379,0,0,0,0,0,0,0,0,0,-1,1161,645,0,0
-56,379,0,0,0,0,0,0,0,0,0,-1,1168,645,0,0
-49,379,0,0,0,0,0,0,0,0,0,-1,1175,645,0,0
-42,379,0,0,0,0,0,0,0,0,0,-1,1182,645,0,0
-35,379,0,0,0,0,0,0,0,0,0,-1,1189,645,0,0
-28,379,0,0,0,0,0,0,0,0,0,-1,1196,645,0,0
-21,379,0,0,0,0,0,0,0,0,0,-1,1203,645,0,0
-14,379,0,0,0,0,0,0,0,0,0,-1,1210,645,0,0
-7,379,0,0,0,0,0,0,0,0,0,-1,1217,645,0,0
0,379,0,0,0,0,0,0,0,0,0,-1,1224,645,0,0
7,379,0,0,0,0,0,0,0,0,0,-1,1231,645,0,0
14,379,0,0,0,0,0,0,0,0,0,-1,1238,645,0,0
21,379,0,0,0,0,0,0,0,0,0,-1,1245,645,0,0
28,379,0,0,0,0,0,0,0,0,0,-1,1252,645,0,0
35,379,0,0,0,0,0,0,0,0,0,-1,1259,645,0,0
42,379,0,0,0,0,0,0,0,0,0,-1,1266,645,0,0
49,379,0,0,0,0,0,0,0,0,0,-1,1273,645,0,0
56,379,0,0,0,0,0,0,0,0,0,-1,1280,645,0,0
63,379,0,0,0,0,0,0,0,0,0,-1,1287,645,0,0
70,379,0,0,0,0,0,0,0,0,0,-1,1294,645,0,0
77,379,0,0,0,0,0,0,0,0,0,-1,1301,645,0,0
84,379,0,0,0,0,0,0,0,0,0,-1,1308,645,0,0
91,379,0,0,0,0,0,0,0,0,0,-1,1315,645,0,0
98,379,0,0,0,0,0,0,0,0,0,-1,1322,645,0,0
105,379,0,0,0,0,0,0,0,0,0,-1,1329,645,0,0
112,379,0,0,0,0,0,0,0,0,0,-1,1336,645,0,0
119,379,0,0,0,0,0,0,0,0,0,-1,1343,645,0,0
126,379,0,0,0,0,0,0,0,0,0,-1,1350,645,0,0
133,379,0,0,0,0,0,0,0,0,0,-1,1357,645,0,0
140,379,0,0,0,0,0,0,0,0,0,-1,1364,645,0,0
147,379,0,0,0,0,0,0,0,0,0,-1,1371,645,0,0
154,379,0,0,0,0,0,0,0,0,0,-1,1378,645,0,0
161,379,0,0,0,0,0,0,0,0,0,-1,1385,645,0,0
168,379,0,0,0,0,0,0,0,0,0,-1,1392,645,0,0
175,379,0,0,0,0,0,0,0,0,0,-1,1399,645,0,0
182,379,0,0,0,0,0,0,0,0,0,-1,1406,645,0,0
189,379,0,0,0,0,0,0,0,0,0,-1,1413,645,0,0
196,379,0,0,0,0,0,0,0,0,0,-1,1420,645,0,0
203,379,0,0,0,0,0,0,0,0,0,-1,1427,645,0,0
210,379,0,0,0,0,0,0,0,0,0,-1,1434,645,0,0
217,379,0,0,0,0,0,0,0,0,0,-1,1441,645,0,0
224,379,0,0,0,0,0,0,0,0,0,-1,1448,645,0,0
231,379,0,0,0,0,0,0,0,0,0,-1,1455,645,0,0
238,379,0,0,0,0,0,0,0,0,0,-1,1462,645,0,0
245,379,0,0,0,0,0,0,0,0,0,-1,1469,645,0,0
252,379,0,0,0,0,0,0,0,0,0,-1,1476,645,0,0
259,379,0,0,0,0,0,0,0,0,0,-1,1483,645,0,0
266,379,0,0,0,0,0,0,0,0,0,-1,1490,645,0,0
273,379,0,0,0,0,0,0,0,0,0,-1,1497,645,0,0
280,379,0,0,0,0,0,0,0,0,0,-1,1504,645,0,0
287,379,0,0,0,0,0,0,0,0,0,-1,1511,645,0,0
294,379,0,0,0,0,0,0,0,0,0,-1,1518,645,0,0
301,379,0,0,0,0,0,0,0,0,0,-1,1525,645,0,0
308,379,0,0,0,0,0,0,0,0,0,-1,1532,645,0,0
315,379,0,0,0,0,0,0,0,0,0,-1,1539,645,0,0
322,379,0,0,0,0,0,0,0,0,0,-1,1546,645,0,0
329,379,0,0,0,0,0,0,0,0,0,-1,1553,645,0,0
336,379,0,0,0,0,0,0,0,0,0,-1,1560,645,0,0
343,379,0,0,0,0,0,0,0,0,0,-1,1567,645,0,0
350,379,0,0,0,0,0,0,0,0,0,-1,1574,645,0,0
357,379,0,0,0,0,0,0,0,0,0,-1,1581,645,0,0
364,379,0,0,0,0,0,0,0,0,0,-1,1588,645,0,0
371,379,0,0,0,0,0,0,0,0,0,-1,1595,645,0,0
378,379,0,0,0,0,0,0,0,0,0,-1,1602,645,0,0
385,379,0,0,0,0,0,0,0,0,0,-1,1609,645,0,0
392,379,0,0,0,0,0,0,0,0,0,-1,1616,645,0,0
399,379,0,0,0,0,0,0,0,0,0,-1,1623,645,0,0
406,379,0,0,0,0,0,0,0,0,0,-1,1630,645,0,0
413,379,0,0,0,0,0,0,0,0,0,-1,1637,645,0,0
420,379,0,0,0,0,0,0,0,0,0,-1,1644,645,0,0
427,379,0,0,0,0,0,0,0,0,0,-1,1651,645,0,0
434,379,0,0,0,0,0,0,0,0,0,-1,1658,645,0,0
441,379,0,0,0,0,0,0,0,0,0,-1,1665,645,0,0
448,379,0,0,0,0,0,0,0,0,0,-1,1672,645,0,0
455,379,0,0,0,0,0,0,0,0,0,-1,1679,645,0,0
462,379,0,0,0,0,0,0,0,0,0,-1,1686,645,0,0
469,379,0,0,0,0,0,0,0,0,0,-1,1693,645,0,0
476,379,11.1787,0.830383,0,0,0,0,0,0,0,-1,1700,645,11.1787,-0.830365
483,379,7.4231,1.54321,0,0,0,0,0,0,0,-1,1707,645,7.42314,-1.54324
490,379,8.52881,1.56677,0,0,0,0,0,0,0,-1,1714,645,8.52878,-1.56677
497,379,9.63599,1.49573,0,0,0,0,0,0,0,-1,1721,645,9.63604,-1.4957
504,379,10.0833,1.35229,0,0,0,0,0,0,0,-1,1728,645,10.0832,-1.35227
511,379,8.14343,1.59912,0,0,0,0,0,0,0,-1,1735,645,8.14347,-1.59912
518,379,12.7955,-0.324097,0,0,0,0,0,0,0,-1,1742,645,12.7955,0.324101
525,379,6.03711,1.10352,0,0,0,0,0,0,0,-1,1749,645,6.03711,-1.10351
532,379,8.70947,0.887817,0,0,0,0,0,0,0,-1,1756,645,8.70953,-0.887808
539,379,9.87097,0.111389,0,0,0,0,0,0,0,-1,1763,645,9.87095,-0.111395
546,379,8.42383,-0.730652,0,0,0,0,0,0,0,-1,1770,645,8.42378,0.730638
553,379,19.2905,-7.67834,0,0,0,0,0,0,0,-1,1777,645,19.2905,7.67837
560,379,22.5734,-10.4749,0,0,0,0,0,0,0,-1,1784,645,22.5734,10.4749
567,379,36.0128,-18.4719,0,0,0,0,0,0,0,-1,1791,645,36.0128,18.4719
574,379,35.9829,-17.4327,0.000713142,-0.00052062,-0.000471875,0.000872926,-0.000680404,-0.326496,0.000899108,0.019276,1798,645,35.9829,17.4328
581,379,35.9285,-16.5004,0.000461252,-0.000321497,-0.000395954,0.000626613,-0.000486857,-0.395607,0.000644548,0.0178865,1805,645,35.9285,16.5004
588,379,35.8334,-15.5538,0.000575883,7.75856e-05,-8.35681e-05,0.000589524,6.3944e-05,-0.161811,0.000373531,0.0182493,1812,645,35.8334,15.5539
595,379,35.7766,-14.6349,0.000906411,0.000675909,0.000368736,0.00117749,0.000404832,0.63393,0.000690791,0.0152471,1819,645,35.7766,14.6349
602,379,35.7356,-13.7133,0.00139236,0.00140216,0.000922215,0.00231949,0.000475034,0.788056,0.00141482,0.0178909,1826,645,35.7355,13.7132
609,379,35.6719,-12.7799,0.00192785,0.00226207,0.00152994,0.00363399,0.00055592,0.839795,0.00226026,0.0202886,1833,645,35.6719,12.7799
616,379,35.5994,-11.8145,0.00254243,0.00325883,0.00216715,0.00509718,0.000704074,0.8673,0.00318944,0.0160696,1840,645,35.5993,11.8144
623,379,35.559,-10.8059,0.00326855,0.00421903,0.00282586,0.00660933,0.000878249,0.868707,0.0041446,0.0125925,1847,645,35.559,10.8059
630,379,35.5109,-9.862,0.0039172,0.00521177,0.0034248,0.00804992,0.00107906,0.878796,0.00504554,0.014078,1854,645,35.5108,9.86199
637,379,35.4895,-8.78491,0.0044064,0.00629685,0.00394012,0.00940354,0.00129971,0.903122,0.00588383,0.0449462,1861,645,35.4895,8.78492
644,379,35.6698,-7.57904,0,0,0,0,0,0,0,-1,1868,645,35.6698,7.57902
651,379,12.9515,0.220825,0,0,0,0,0,0,0,-1,1875,645,12.9515,-0.220814
658,379,13.7498,0.37439,0,0,0,0,0,0,0,-1,1882,645,13.7498,-0.374371
665,379,11.9719,0.353333,0,0,0,0,0,0,0,-1,1889,645,11.9719,-0.353321
672,379,7.57605,2.15326,0,0,0,0,0,0,0,-1,1896,645,7.57599,-2.15326
679,379,8.55078,2.50409,0,0,0,0,0,0,0,-1,1903,645,8.55073,-2.50406
686,379,0,0,0,0,0,0,0,0,0,-1,1910,645,0,0
693,379,0,0,0,0,0,0,0,0,0,-1,1917,645,0,0
700,379,0,0,0,0,0,0,0,0,0,-1,1924,645,0,0
707,379,0,0,0,0,0,0,0,0,0,-1,1931,645,0,0
714,379,0,0,0,0,0,0,0,0,0,-1,1938,645,0,0
721,379,0,0,0,0,0,0,0,0,0,-1,1945,645,0,0
728,379,0,0,0,0,0,0,0,0,0,-1,1952,645,0,0
735,379,0,0,0,0,0,0,0,0,0,-1,1959,645,0,0
742,379,0,0,0,0,0,0,0,0,0,-1,1966,645,0,0
749,379,0,0,0,0,0,0,0,0,0,-1,1973,645,0,0
756,379,0,0,0,0,0,0,0,0,0,-1,1980,645,0,0
763,379,0,0,0,0,0,0,0,0,0,-1,1987,645,0,0
770,379,0,0,0,0,0,0,0,0,0,-1,1994,645,0,0
777,379,0,0,0,0,0,0,0,0,0,-1,2001,645,0,0
784,379,0,0,0,0,0,0,0,0,0,-1,2008,645,0,0
791,379,0,0,0,0,0,0,0,0,0,-1,2015,645,0,0
798,379,0,0,0,0,0,0,0,0,0,-1,2022,645,0,0
805,379,0,0,0,0,0,0,0,0,0,-1,2029,645,0,0
812,379,0,0,0,0,0,0,0,0,0,-1,2036,645,0,0
-700,372,0,0,0,0,0,0,0,0,0,-1,524,652,0,0
-693,372,0,0,0,0,0,0,0,0,0,-1,531,652,0,0
-686,372,0,0,0,0,0,0,0,0,0,-1,538,652,0,0
-679,372,0,0,0,0,0,0,0,0,0,-1,545,652,0,0
-672,372,0,0,0,0,0,0,0,0,0,-1,552,652,0,0
-665,372,0,0,0,0,0,0,0,0,0,-1,559,652,0,0
-658,372,0,0,0,0,0,0,0,0,0,-1,566,652,0,0
-651,372,0,0,0,0,0,0,0,0,0,-1,573,652,0,0
-644,372,0,0,0,0,0,0,0,0,0,-1,580,652,0,0
-637,372,0,0,0,0,0,0,0,0,0,-1,587,652,0,0
-630,372,0,0,0,0,0,0,0,0,0,-1,594,652,0,0
-623,372,0,0,0,0,0,0,0,0,0,-1,601,652,0,0
-616,372,0,0,0,0,0,0,0,0,0,-1,608,652,0,0
-609,372,0,0,0,0,0,0,0,0,0,-1,615,652,0,0
-602,372,0,0,0,0,0,0,0,0,0,-1,622,652,0,0
-595,372,0,0,0,0,0,0,0,0,0,-1,629,652,0,0
-588,372,0,0,0,0,0,0,0,0,0,-1,636,652,0,0
-581,372,0,0,0,0,0,0,0,0,0,-1,643,652,0,0
-574,372,0,0,0,0,0,0,0,0,0,-1,650,652,0,0
-567,372,-7.93744,0.73407,0,0,0,0,0,0,0,-1,657,652,-7.93741,-0.734076
-560,372,-8.78552,-0.158203,0,0,0,0,0,0,0,-1,664,652,-8.78552,0.158216
-553,372,-7.95551,1.61694,0,0,0,0,0,0,0,-1,671,652,-7.95552,-1.61697
-546,372,-4.2403,-3.75372,0,0,0,0,0,0,0,-1,678,652,-4.24028,3.75369
-539,372,-7.92285,-0.0650024,0,0,0,0,0,0,0,-1,685,652,-7.92287,0.0649772
-532,372,-8.59589,-0.419556,0,0,0,0,0,0,0,-1,692,652,-8.59591,0.419539
-525,372,-8.03674,-1.36804,0,0,0,0,0,0,0,-1,699,652,-8.03676,1.36806
-518,372,-20.3967,-8.18256,0,0,0,0,0,0,0,-1,706,652,-20.3967,8.18256
-511,372,-20.3948,-9.26758,0.00269123,0.000119877,-0.00112459,0.00311368,-0.000302566,-0.359332,0.00218364,0.0408867,713,652,-20.3947,9.26758
-504,372,-20.4556,-10.1638,0.00205739,0.000219099,-0.000771541,0.00233829,-6.17998e-05,-0.349158,0.00157986,0.0188176,720,652,-20.4556,10.1637
-497,372,-20.4811,-11.1574,0.0015421,0.00022645,-0.000556192,0.00174572,2.28328e-05,-0.350938,0.00115628,0.0124994,727,652,-20.4811,11.1574
-490,372,-20.5639,-12.0925,0.00115961,0.000180081,-0.000415459,0.00131209,2.76038e-05,-0.351747,0.000865673,0.0132449,734,652,-20.5639,12.0925
-483,372,-20.6318,-13.0334,0.000941506,0.000135519,-0.00038326,0.00109465,-1.76274e-05,-0.380152,0.000735714,0.0127983,741,652,-20.6318,13.0334
-476,372,-20.6835,-13.9631,0.000902524,0.000122164,-0.000443634,0.00110315,-7.84619e-05,-0.424709,0.000762933,0.0140126,748,652,-20.6835,13.9631
-469,372,-20.7722,-14.8923,0.00106655,0.000122698,-0.000609167,0.00136521,-0.000175959,-0.455835,0.000974102,0.0118013,755,652,-20.7722,14.8923
-462,372,-20.8165,-15.8599,0.0013981,0.000143658,-0.000864069,0.0018386,-0.000296839,-0.471452,0.00133572,0.0103405,762,652,-20.8165,15.8599
-455,372,-20.8945,-16.8122,0.0019606,0.000305605,-0.0012618,0.00264204,-0.000375836,-0.495175,0.00189908,0.0109362,769,652,-20.8946,16.8122
-448,372,-20.9434,-17.7659,0.00273268,0.000517604,-0.00176193,0.00370625,-0.000455972,-0.504809,0.002636,0.0169517,776,652,-20.9433,17.7659
-441,372,-20.918,-18.8351,0,0,0,0,0,0,0,-1,783,652,-20.918,18.8351
-434,372,-9.86865,-9.68494,0,0,0,0,0,0,0,-1,790,652,-9.86863,9.68492
-427,372,-4.54248,-3.56268,0,0,0,0,0,0,0,-1,797,652,-4.54247,3.56266
-420,372,-4.66168,-2.93597,0,0,0,0,0,0,0,-1,804,652,-4.66166,2.93599
-413,372,-4.74762,-3.29541,0,0,0,0,0,0,0,-1,811,652,-4.74763,3.29542
-406,372,-0.885437,-0.583923,0,0,0,0,0,0,0,-1,818,652,-0.885437,0.5839
-399,372,-3.97357,-0.825012,0,0,0,0,0,0,0,-1,825,652,-3.97359,0.825037
-392,372,-7.64337,0.173035,0,0,0,0,0,0,0,-1,832,652,-7.64337,-0.173019
-385,372,-6.48871,-0.0271606,0,0,0,0,0,0,0,-1,839,652,-6.48874,0.0271353
-378,372,-5.33044,-0.242432,0,0,0,0,0,0,0,-1,846,652,-5.33042,0.242457
-371,372,-4.40802,-0.495667,0,0,0,0,0,0,0,-1,853,652,-4.40802,0.495661
-364,372,0,0,0,0,0,0,0,0,0,-1,860,652,0,0
-357,372,0,0,0,0,0,0,0,0,0,-1,867,652,0,0
-350,372,0,0,0,0,0,0,0,0,0,-1,874,652,0,0
-343,372,0,0,0,0,0,0,0,0,0,-1,881,652,0,0
-336,372,0,0,0,0,0,0,0,0,0,-1,888,652,0,0
-329,372,0,0,0,0,0,0,0,0,0,-1,895,652,0,0
-322,372,0,0,0,0,0,0,0,0,0,-1,902,652,0,0
-315,372,0,0,0,0,0,0,0,0,0,-1,909,652,0,0
-308,372,0,0,0,0,0,0,0,0,0,-1,916,652,0,0
-301,372,0,0,0,0,0,0,0,0,0,-1,923,652,0,0
-294,372,0,0,0,0,0,0,0,0,0,-1,930,652,0,0
-287,372,0,0,0,0,0,0,0,0,0,-1,937,652,0,0
-280,372,0,0,0,0,0,0,0,0,0,-1,944,652,0,0
-273,372,0,0,0,0,0,0,0,0,0,-1,951,652,0,0
-266,372,0,0,0,0,0,0,0,0,0,-1,958,652,0,0
-259,372,0,0,0,0,0,0,0,0,0,-1,965,652,0,0
-252,372,0,0,0,0,0,0,0,0,0,-1,972,652,0,0
-245,372,0,0,0,0,0,0,0,0,0,-1,979,652,0,0
-238,372,0,0,0,0,0,0,0,0,0,-1,986,652,0,0
-231,372,0,0,0,0,0,0,0,0,0,-1,993,652,0,0
-224,372,0,0,0,0,0,0,0,0,0,-1,1000,652,0,0
-217,372,0,0,0,0,0,0,0,0,0,-1,1007,652,0,0
-210,372,0,0,0,0,0,0,0,0,0,-1,1014,652,0,0
-203,372,0,0,0,0,0,0,0,0,0,-1,1021,652,0,0
-196,372,0,0,0,0,0,0,0,0,0,-1,1028,652,0,0
-189,372,0,0,0,0,0,0,0,0,0,-1,1035,652,0,0
-182,372,0,0,0,0,0,0,0,0,0,-1,1042,652,0,0
-175,372,0,0,0,0,0,0,0,0,0,-1,1049,652,0,0
-168,372,0,0,0,0,0,0,0,0,0,-1,1056,652,0,0
-161,372,0,0,0,0,0,0,0,0,0,-1,1063,652,0,0
-154,372,0,0,0,0,0,0,0,0,0,-1,1070,652,0,0
-147,372,0,0,0,0,0,0,0,0,0,-1,1077,652,0,0
-140,372,0,0,0,0,0,0,0,0,0,-1,1084,652,0,0
-133,372,0,0,0,0,0,0,0,0,0,-1,1091,652,0,0
-126,372,0,0,0,0,0,0,0,0,0,-1,1098,652,0,0
-119,372,0,0,0,0,0,0,0,0,0,-1,1105,652,0,0
-112,372,0,0,0,0,0,0,0,0,0,-1,1112,652,0,0
-105,372,0,0,0,0,0,0,0,0,0,-1,1119,652,0,0
-98,372,0,0,0,0,0,0,0,0,0,-1,1126,652,0,0
-91,372,0,0,0,0,0,0,0,0,0,-1,1133,652,0,0
-84,372,0,0,0,0,0,0,0,0,0,-1,1140,652,0,0
-77,372,0,0,0,0,0,0,0,0,0,-1,1147,652,0,0
-70,372,0,0,0,0,0,0,0,0,0,-1,1154,652,0,0
-63,372,0,0,0,0,0,0,0,0,0,-1,1161,652,0,0
-56,372,0,0,0,0,0,0,0,0,0,-1,1168,652,0,0
-49,372,0,0,0,0,0,0,0,0,0,-1,1175,652,0,0
-42,372,0,0,0,0,0,0,0,0,0,-1,1182,652,0,0
-35,372,0,0,0,0,0,0,0,0,0,-1,1189,652,0,0
-28,372,0,0,0,0,0,0,0,0,0,-1,1196,652,0,0
-21,372,0,0,0,0,0,0,0,0,0,-1,1203,652,0,0
-14,372,0,0,0,0,0,0,0,0,0,-1,1210,652,0,0
-7,372,0,0,0,0,0,0,0,0,0,-1,1217,652,0,0
0,372,0,0,0,0,0,0,0,0,0,-1,1224,652,0,0
7,372,0,0,0,0,0,0,0,0,0,-1,1231,652,0,0
14,372,0,0,0,0,0,0,0,0,0,-1,1238,652,0,0
21,372,0,0,0,0,0,0,0,0,0,-1,1245,652,0,0
28,372,0,0,0,0,0,0,0,0,0,-1,1252,652,0,0
35,372,0,0,0,0,0,0,0,0,0,-1,1259,652,0,0
42,372,0,0,0,0,0,0,0,0,0,-1,1266,652,0,0
49,372,0,0,0,0,0,0,0,0,0,-1,1273,652,0,0
56,372,0,0,0,0,0,0,0,0,0,-1,1280,652,0,0
63,372,0,0,0,0,0,0,0,0,0,-1,1287,652,0,0
70,372,0,0,0,0,0,0,0,0,0,-1,1294,652,0,0
77,372,0,0,0,0,0,0,0,0,0,-1,1301,652,0,0
84,372,0,0,0,0,0,0,0,0,0,-1,1308,652,0,0
91,372,0,0,0,0,0,0,0,0,0,-1,1315,652,0,0
98,372,0,0,0,0,0,0,0,0,0,-1,1322,652,0,0
105,372,0,0,0,0,0,0,0,0,0,-1,1329,652,0,0
112,372,0,0,0,0,0,0,0,0,0,-1,1336,652,0,0
119,372,0,0,0,0,0,0,0,0,0,-1,1343,652,0,0
126,372,0,0,0,0,0,0,0,0,0,-1,1350,652,0,0
133,372,0,0,0,0,0,0,0,0,0,-1,1357,652,0,0
140,372,0,0,0,0,0,0,0,0,0,-1,1364,652,0,0
147,372,0,0,0,0,0,0,0,0,0,-1,1371,652,0,0
154,372,0,0,0,0,0,0,0,0,0,-1,1378,652,0,0
161,372,0,0,0,0,0,0,0,0,0,-1,1385,652,0,0
168,372,0,0,0,0,0,0,0,0,0,-1,1392,652,0,0
175,372,0,0,0,0,0,0,0,0,0,-1,1399,652,0,0
182,372,0,0,0,0,0,0,0,0,0,-1,1406,652,0,0
189,372,0,0,0,0,0,0,0,0,0,-1,1413,652,0,0
196,372,0,0,0,0,0,0,0,0,0,-1,1420,652,0,0
203,372,0,0,0,0,0,0,0,0,0,-1,1427,652,0,0
210,372,0,0,0,0,0,0,0,0,0,-1,1434,652,0,0
217,372,0,0,0,0,0,0,0,0,0,-1,1441,652,0,0
224,372,0,0,0,0,0,0,0,0,0,-1,1448,652,0,0
231,372,0,0,0,0,0,0,0,0,0,-1,1455,652,0,0
238,372,0,0,0,0,0,0,0,0,0,-1,1462,652,0,0
245,372,0,0,0,0,0,0,0,0,0,-1,1469,652,0,0
252,372,0,0,0,0,0,0,0,0,0,-1,1476,652,0,0
259,372,0,0,0,0,0,0,0,0,0,-1,1483,652,0,0
266,372,0,0,0,0,0,0,0,0,0,-1,1490,652,0,0
273,372,0,0,0,0,0,0,0,0,0,-1,1497,652,0,0
280,372,0,0,0,0,0,0,0,0,0,-1,1504,652,0,0
287,372,0,0,0,0,0,0,0,0,0,-1,1511,652,0,0
294,372,0,0,0,0,0,0,0,0,0,-1,1518,652,0,0
301,372,0,0,0,0,0,0,0,0,0,-1,1525,652,0,0
308,372,0,0,0,0,0,0,0,0,0,-1,1532,652,0,0
315,372,0,0,0,0,0,0,0,0,0,-1,1539,652,0,0
322,372,0,0,0,0,0,0,0,0,0,-1,1546,652,0,0
329,372,0,0,0,0,0,0,0,0,0,-1,1553,652,0,0
336,372,0,0,0,0,0,0,0,0,0,-1,1560,652,0,0
343,372,0,0,0,0,0,0,0,0,0,-1,1567,652,0,0
350,372,0,0,0,0,0,0,0,0,0,-1,1574,652,0,0
357,372,0,0,0,0,0,0,0,0,0,-1,1581,652,0,0
364,372,0,0,0,0,0,0,0,0,0,-1,1588,652,0,0
371,372,0,0,0,0,0,0,0,0,0,-1,1595,652,0,0
378,372,0,0,0,0,0,0,0,0,0,-1,1602,652,0,0
385,372,0,0,0,0,0,0,0,0,0,-1,1609,652,0,0
392,372,0,0,0,0,0,0,0,0,0,-1,1616,652,0,0
399,372,0,0,0,0,0,0,0,0,0,-1,1623,652,0,0
406,372,0,0,0,0,0,0,0,0,0,-1,1630,652,0,0
413,372,0,0,0,0,0,0,0,0,0,-1,1637,652,0,0
420,372,0,0,0,0,0,0,0,0,0,-1,1644,652,0,0
427,372,0,0,0,0,0,0,0,0,0,-1,1651,652,0,0
434,372,0,0,0,0,0,0,0,0,0,-1,1658,652,0,0
441,372,0,0,0,0,0,0,0,0,0,-1,1665,652,0,0
448,372,0,0,0,0,0,0,0,0,0,-1,1672,652,0,0
455,372,0,0,0,0,0,0,0,0,0,-1,1679,652,0,0
462,372,0,0,0,0,0,0,0,0,0,-1,1686,652,0,0
469,372,0,0,0,0,0,0,0,0,0,-1,1693,652,0,0
476,372,0,0,0,0,0,0,0,0,0,-1,1700,652,0,0
483,372,8.74182,1.53125,0,0,0,0,0,0,0,-1,1707,652,8.74186,-1.53126
490,372,9.78455,1.67096,0,0,0,0,0,0,0,-1,1714,652,9.7846,-1.67093
497,372,9.97644,1.46069,0,0,0,0,0,0,0,-1,1721,652,9.97647,-1.46071
504,372,10.1216,1.28375,0,0,0,0,0,0,0,-1,1728,652,10.1216,-1.28376
511,372,11.7367,-0.0272217,0,0,0,0,0,0,0,-1,1735,652,11.7367,0.0272326
518,372,12.0657,-0.0995483,0,0,0,0,0,0,0,-1,1742,652,12.0657,0.0995285
525,372,12.3947,-0.171814,0,0,0,0,0,0,0,-1,1749,652,12.3946,0.171824
532,372,9.36597,1.72034,0,0,0,0,0,0,0,-1,1756,652,9.36597,-1.72036
539,372,7.82886,-0.0865479,0,0,0,0,0,0,0,-1,1763,652,7.82882,0.0865771
546,372,10.953,-0.187195,0,0,0,0,0,0,0,-1,1770,652,10.953,0.187181
553,372,14.1201,-4.83234,0,0,0,0,0,0,0,-1,1777,652,14.1201,4.83235
560,372,20.1057,-8.06934,0,0,0,0,0,0,0,-1,1784,652,20.1058,8.06936
567,372,36.9982,-18.5748,0,0,0,0,0,0,0,-1,1791,652,36.9982,18.5747
574,372,36.9514,-17.3077,0.000576031,-0.000746987,-0.000812137,0.000961976,-0.00113293,-0.443629,0.00121084,0.0450569,1798,652,36.9514,17.3077
581,372,36.8959,-16.452,0.000356747,-0.000598323,-0.00068996,0.000718309,-0.000959885,-0.482689,0.000972246,0.0239528,1805,652,36.8958,16.4521
588,372,36.787,-15.5257,0.000502172,-0.000356333,-0.000392764,0.000654745,-0.000508906,-0.370519,0.00067359,0.0179057,1812,652,36.7869,15.5257
595,372,36.7177,-14.6006,0.000822282,0.000146555,1.61728e-05,0.000822669,0.000146169,0.0239157,0.000506799,0.0152626,1819,652,36.7177,14.6006
602,372,36.7328,-13.674,0.00125388,0.000747228,0.000493665,0.00155542,0.000445685,0.548341,0.000924901,0.019658,1826,652,36.7328,13.674
609,372,36.597,-12.736,0.00167922,0.0014613,0.000998314,0.0025745,0.000566018,0.731039,0.00156222,0.0214177,1833,652,36.597,12.736
616,372,36.5164,-11.7402,0.00213384,0.00228742,0.00150553,0.00371811,0.000703143,0.810878,0.00228078,0.0191503,1840,652,36.5164,11.7402
623,372,36.4935,-10.7319,0.00268361,0.00306838,0.00202176,0.00490689,0.000845105,0.832834,0.00302911,0.01341,1847,652,36.4936,10.732
630,372,36.4683,-9.78821,0.00312503,0.00388539,0.00247742,0.00601163,0.000998792,0.861533,0.00371979,0.0172416,1854,652,36.4682,9.78818
637,372,36.4441,-8.86877,0.00342943,0.00472002,0.00284126,0.00698834,0.00116111,0.897061,0.00432414,0.0283669,1861,652,36.4441,8.86874
644,372,36.5763,-7.89294,0,0,0,0,0,0,0,-1,1868,652,36.5762,7.89295
651,372,21.3998,-0.888,0,0,0,0,0,0,0,-1,1875,652,21.3998,0.887992
658,372,14.157,0.280273,0,0,0,0,0,0,0,-1,1882,652,14.157,-0.280264
665,372,15.2286,0.463867,0,0,0,0,0,0,0,-1,1889,652,15.2287,-0.463854
672,372,9.34106,1.48444,0,0,0,0,0,0,0,-1,1896,652,9.34109,-1.48444
679,372,10.7308,2.32391,0,0,0,0,0,0,0,-1,1903,652,10.7309,-2.3239
686,372,11.6295,2.52997,0,0,0,0,0,0,0,-1,1910,652,11.6296,-2.52996
693,372,0,0,0,0,0,0,0,0,0,-1,1917,652,0,0
700,372,0,0,0,0,0,0,0,0,0,-1,1924,652,0,0
707,372,0,0,0,0,0,0,0,0,0,-1,1931,652,0,0
714,372,0,0,0,0,0,0,0,0,0,-1,1938,652,0,0
721,372,0,0,0,0,0,0,0,0,0,-1,1945,652,0,0
728,372,0,0,0,0,0,0,0,0,0,-1,1952,652,0,0
735,372,0,0,0,0,0,0,0,0,0,-1,1959,652,0,0
742,372,0,0,0,0,0,0,0,0,0,-1,1966,652,0,0
749,372,0,0,0,0,0,0,0,0,0,-1,1973,652,0,0
756,372,0,0,0,0,0,0,0,0,0,-1,1980,652,0,0
763,372,0,0,0,0,0,0,0,0,0,-1,1987,652,0,0
770,372,0,0,0,0,0,0,0,0,0,-1,1994,652,0,0
777,372,0,0,0,0,0,0,0,0,0,-1,2001,652,0,0
784,372,0,0,0,0,0,0,0,0,0,-1,2008,652,0,0
791,372,0,0,0,0,0,0,0,0,0,-1,2015,652,0,0
798,372,0,0,0,0,0,0,0,0,0,-1,2022,652,0,0
805,372,0,0,0,0,0,0,0,0,0,-1,2029,652,0,0
812,372,0,0,0,0,0,0,0,0,0,-1,2036,652,0,0
-700,365,0,0,0,0,0,0,0,0,0,-1,524,659,0,0
-693,365,0,0,0,0,0,0,0,0,0,-1,531,659,0,0
-686,365,0,0,0,0,0,0,0,0,0,-1,538,659,0,0
-679,365,0,0,0,0,0,0,0,0,0,-1,545,659,0,0
-672,365,0,0,0,0,0,0,0,0,0,-1,552,659,0,0
-665,365,0,0,0,0,0,0,0,0,0,-1,559,659,0,0
-658,365,0,0,0,0,0,0,0,0,0,-1,566,659,0,0
-651,365,0,0,0,0,0,0,0,0,0,-1,573,659,0,0
-644,365,0,0,0,0,0,0,0,0,0,-1,580,659,0,0
-637,365,0,0,0,0,0,0,0,0,0,-1,587,659,0,0
-630,365,0,0,0,0,0,0,0,0,0,-1,594,659,0,0
-623,365,0,0,0,0,0,0,0,0,0,-1,601,659,0,0
-616,365,0,0,0,0,0,0,0,0,0,-1,608,659,0,0
-609,365,0,0,0,0,0,0,0,0,0,-1,615,659,0,0
-602,365,0,0,0,0,0,0,0,0,0,-1,622,659,0,0
-595,365,0,0,0,0,0,0,0,0,0,-1,629,659,0,0
-588,365,0,0,0,0,0,0,0,0,0,-1,636,659,0,0
-581,365,0,0,0,0,0,0,0,0,0,-1,643,659,0,0
-574,365,-7.69281,1.59015,0,0,0,0,0,0,0,-1,650,659,-7.69282,-1.59018
-567,365,-8.2583,1.72638,0,0,0,0,0,0,0,-1,657,659,-8.25827,-1.72637
-560,365,-7.17767,0.275757,0,0,0,0,0,0,0,-1,664,659,-7.17768,-0.27577
-553,365,-10.0349,-0.169617,0,0,0,0,0,0,0,-1,671,659,-10.0349,0.169593
-546,365,-10.6303,-1.51642,0,0,0,0,0,0,0,-1,678,659,-10.6303,1.5164
-539,365,-8.38599,1.52936,0,0,0,0,0,0,0,-1,685,659,-8.38598,-1.52935
-532,365,-8.52863,0.166504,0,0,0,0,0,0,0,-1,692,659,-8.52863,-0.166501
-525,365,-9.28229,-2.62726,0,0,0,0,0,0,0,-1,699,659,-9.28227,2.62724
-518,365,-21.3195,-8.08844,0,0,0,0,0,0,0,-1,706,659,-21.3194,8.08845
-511,365,-21.3643,-9.13751,0.0027298,0.00030531,-0.00133371,0.00331986,-0.000284757,-0.416536,0.00231401,0.0372428,713,659,-21.3643,9.13754
-504,365,-21.3702,-10.1034,0.00222298,0.000232113,-0.000983549,0.00262692,-0.000171831,-0.389696,0.00181128,0.0125168,720,659,-21.3702,10.1034
-497,365,-21.4303,-11.0944,0.0017846,0.000159383,-0.00074813,0.00207654,-0.000132559,-0.372054,0.0014306,0.0130452,727,659,-21.4303,11.0943
-490,365,-21.5161,-12.0557,0.00142996,0.000103613,-0.000596026,0.00165844,-0.000124867,-0.366061,0.00114951,0.0149148,734,659,-21.5161,12.0557
-483,365,-21.5951,-12.9756,0.00119987,8.9563e-05,-0.000547125,0.00142417,-0.000134733,-0.389058,0.000997393,0.0141219,741,659,-21.5951,12.9757
-476,365,-21.5906,-13.9226,0.00110529,0.000135669,-0.000585835,0.0013809,-0.000139944,-0.439739,0.000970618,0.0192053,748,659,-21.5906,13.9226
-469,365,-21.6691,-14.8683,0.00118529,0.000224579,-0.000731956,0.00158043,-0.000170566,-0.495016,0.00111484,0.0192315,755,659,-21.669,14.8683
-462,365,-21.7685,-15.7865,0.00143292,0.000361907,-0.000975265,0.00201002,-0.000215201,-0.534327,0.00141721,0.0156225,762,659,-21.7685,15.7865
-455,365,-21.819,-16.7322,0.00195677,0.000593748,-0.00134207,0.00278045,-0.000229937,-0.550462,0.00193484,0.0186612,769,659,-21.819,16.7322
-448,365,-21.8851,-17.7906,0,0,0,0,0,0,0,-1,776,659,-21.8851,17.7907
-441,365,-16.9571,-15.1896,0,0,0,0,0,0,0,-1,783,659,-16.9571,15.1896
-434,365,-5.45056,-3.98041,0,0,0,0,0,0,0,-1,790,659,-5.45055,3.98042
-427,365,-5.05377,-4.74689,0,0,0,0,0,0,0,-1,797,659,-5.05376,4.7469
-420,365,-4.58813,-3.16376,0,0,0,0,0,0,0,-1,804,659,-4.58816,3.16374
-413,365,0.141357,0.672729,0,0,0,0,0,0,0,-1,811,659,0.141365,-0.672714
-406,365,-1.75067,-0.934448,0,0,0,0,0,0,0,-1,818,659,-1.7507,0.934424
-399,365,-4.10242,-1.25439,0,0,0,0,0,0,0,-1,825,659,-4.10244,1.25438
-392,365,-7.46545,-0.779724,0,0,0,0,0,0,0,-1,832,659,-7.46543,0.779744
-385,365,-6.27875,-0.887573,0,0,0,0,0,0,0,-1,839,659,-6.27874,0.887545
-378,365,-5.34503,-0.263306,0,0,0,0,0,0,0,-1,846,659,-5.34504,0.263275
-371,365,0,0,0,0,0,0,0,0,0,-1,853,659,0,0
-364,365,0,0,0,0,0,0,0,0,0,-1,860,659,0,0
-357,365,0,0,0,0,0,0,0,0,0,-1,867,659,0,0
-350,365,0,0,0,0,0,0,0,0,0,-1,874,659,0,0
-343,365,0,0,0,0,0,0,0,0,0,-1,881,659,0,0
-336,365,0,0,0,0,0,0,0,0,0,-1,888,659,0,0
-329,365,0,0,0,0,0,0,0,0,0,-1,895,659,0,0
-322,365,0,0,0,0,0,0,0,0,0,-1,902,659,0,0
-315,365,0,0,0,0,0,0,0,0,0,-1,909,659,0,0
-308,365,0,0,0,0,0,0,0,0,0,-1,916,659,0,0
-301,365,0,0,0,0,0,0,0,0,0,-1,923,659,0,0
-294,365,0,0,0,0,0,0,0,0,0,-1,930,659,0,0
-287,365,0,0,0,0,0,0,0,0,0,-1,937,659,0,0
-280,365,0,0,0,0,0,0,0,0,0,-1,944,659,0,0
-273,365,0,0,0,0,0,0,0,0,0,-1,951,659,0,0
-266,365,0,0,0,0,0,0,0,0,0,-1,958,659,0,0
-259,365,0,0,0,0,0,0,0,0,0,-1,965,659,0,0
-252,365,0,0,0,0,0,0,0,0,0,-1,972,659,0,0
-245,365,0,0,0,0,0,0,0,0,0,-1,979,659,0,0
-238,365,0,0,0,0,0,0,0,0,0,-1,986,659,0,0
-231,365,0,0,0,0,0,0,0,0,0,-1,993,659,0,0
-224,365,0,0,0,0,0,0,0,0,0,-1,1000,659,0,0
-217,365,0,0,0,0,0,0,0,0,0,-1,1007,659,0,0
-210,365,0,0,0,0,0,0,0,0,0,-1,1014,659,0,0
-203,365,0,0,0,0,0,0,0,0,0,-1,1021,659,0,0
-196,365,0,0,0,0,0,0,0,0,0,-1,1028,659,0,0
-189,365,0,0,0,0,0,0,0,0,0,-1,1035,659,0,0
-182,365,0,0,0,0,0,0,0,0,0,-1,1042,659,0,0
-175,365,0,0,0,0,0,0,0,0,0,-1,1049,659,0,0
-168,365,0,0,0,0,0,0,0,0,0,-1,1056,659,0,0
-161,365,0,0,0,0,0,0,0,0,0,-1,1063,659,0,0
-154,365,0,0,0,0,0,0,0,0,0,-1,1070,659,0,0
-147,365,0,0,0,0,0,0,0,0,0,-1,1077,659,0,0
-140,365,0,0,0,0,0,0,0,0,0,-1,1084,659,0,0
-133,365,0,0,0,0,0,0,0,0,0,-1,1091,659,0,0
-126,365,0,0,0,0,0,0,0,0,0,-1,1098,659,0,0
-119,365,0,0,0,0,0,0,0,0,0,-1,1105,659,0,0
-112,365,0,0,0,0,0,0,0,0,0,-1,1112,659,0,0
-105,365,0,0,0,0,0,0,0,0,0,-1,1119,659,0,0
-98,365,0,0,0,0,0,0,0,0,0,-1,1126,659,0,0
-91,365,0,0,0,0,0,0,0,0,0,-1,1133,659,0,0
-84,365,0,0,0,0,0,0,0,0,0,-1,1140,659,0,0
-77,365,0,0,0,0,0,0,0,0,0,-1,1147,659,0,0
-70,365,0,0,0,0,0,0,0,0,0,-1,1154,659,0,0
-63,365,0,0,0,0,0,0,0,0,0,-1,1161,659,0,0
-56,365,0,0,0,0,0,0,0,0,0,-1,1168,659,0,0
-49,365,0,0,0,0,0,0,0,0,0,-1,1175,659,0,0
-42,365,0,0,0,0,0,0,0,0,0,-1,1182,659,0,0
-35,365,0,0,0,0,0,0,0,0,0,-1,1189,659,0,0
-28,365,0,0,0,0,0,0,0,0,0,-1,1196,659,0,0
-21,365,0,0,0,0,0,0,0,0,0,-1,1203,659,0,0
-14,365,0,0,0,0,0,0,0,0,0,-1,1210,659,0,0
-7,365,0,0,0,0,0,0,0,0,0,-1,1217,659,0,0
0,365,0,0,0,0,0,0,0,0,0,-1,1224,659,0,0
7,365,0,0,0,0,0,0,0,0,0,-1,1231,659,0,0
14,365,0,0,0,0,0,0,0,0,0,-1,1238,659,0,0
21,365,0,0,0,0,0,0,0,0,0,-1,1245,659,0,0
28,365,0,0,0,0,0,0,0,0,0,-1,1252,659,0,0
35,365,0,0,0,0,0,0,0,0,0,-1,1259,659,0,0
42,365,0,0,0,0,0,0,0,0,0,-1,1266,659,0,0
49,365,0,0,0,0,0,0,0,0,0,-1,1273,659,0,0
56,365,0,0,0,0,0,0,0,0,0,-1,1280,659,0,0
63,365,0,0,0,0,0,0,0,0,0,-1,1287,659,0,0
70,365,0,0,0,0,0,0,0,0,0,-1,1294,659,0,0
77,365,0,0,0,0,0,0,0,0,0,-1,1301,659,0,0
84,365,0,0,0,0,0,0,0,0,0,-1,1308,659,0,0
91,365,0,0,0,0,0,0,0,0,0,-1,1315,659,0,0
98,365,0,0,0,0,0,0,0,0,0,-1,1322,659,0,0
105,365,0,0,0,0,0,0,0,0,0,-1,1329,659,0,0
112,365,0,0,0,0,0,0,0,0,0,-1,1336,659,0,0
119,365,0,0,0,0,0,0,0,0,0,-1,1343,659,0,0
126,365,0,0,0,0,0,0,0,0,0,-1,1350,659,0,0
133,365,0,0,0,0,0,0,0,0,0,-1,1357,659,0,0
140,365,0,0,0,0,0,0,0,0,0,-1,1364,659,0,0
147,365,0,0,0,0,0,0,0,0,0,-1,1371,659,0,0
154,365,0,0,0,0,0,0,0,0,0,-1,1378,659,0,0
161,365,0,0,0,0,0,0,0,0,0,-1,1385,659,0,0
168,365,0,0,0,0,0,0,0,0,0,-1,1392,659,0,0
175,365,0,0,0,0,0,0,0,0,0,-1,1399,659,0,0
182,365,0,0,0,0,0,0,0,0,0,-1,1406,659,0,0
189,365,0,0,0,0,0,0,0,0,0,-1,1413,659,0,0
196,365,0,0,0,0,0,0,0,0,0,-1,1420,659,0,0
203,365,0,0,0,0,0,0,0,0,0,-1,1427,659,0,0
210,365,0,0,0,0,0,0,0,0,0,-1,1434,659,0,0
217,365,0,0,0,0,0,0,0,0,0,-1,1441,659,0,0
224,365,0,0,0,0,0,0,0,0,0,-1,1448,659,0,0
231,365,0,0,0,0,0,0,0,0,0,-1,1455,659,0,0
238,365,0,0,0,0,0,0,0,0,0,-1,1462,659,0,0
245,365,0,0,0,0,0,0,0,0,0,-1,1469,659,0,0
252,365,0,0,0,0,0,0,0,0,0,-1,1476,659,0,0
259,365,0,0,0,0,0,0,0,0,0,-1,1483,659,0,0
266,365,0,0,0,0,0,0,0,0,0,-1,1490,659,0,0
273,365,0,0,0,0,0,0,0,0,0,-1,1497,659,0,0
280,365,0,0,0,0,0,0,0,0,0,-1,1504,659,0,0
287,365,0,0,0,0,0,0,0,0,0,-1,1511,659,0,0
294,365,0,0,0,0,0,0,0,0,0,-1,1518,659,0,0
301,365,0,0,0,0,0,0,0,0,0,-1,1525,659,0,0
308,365,0,0,0,0,0,0,0,0,0,-1,1532,659,0,0
315,365,0,0,0,0,0,0,0,0,0,-1,1539,659,0,0
322,365,0,0,0,0,0,0,0,0,0,-1,1546,659,0,0
329,365,0,0,0,0,0,0,0,0,0,-1,1553,659,0,0
336,365,0,0,0,0,0,0,0,0,0,-1,1560,659,0,0
343,365,0,0,0,0,0,0,0,0,0,-1,1567,659,0,0
350,365,0,0,0,0,0,0,0,0,0,-1,1574,659,0,0
357,365,0,0,0,0,0,0,0,0,0,-1,1581,659,0,0
364,365,0,0,0,0,0,0,0,0,0,-1,1588,659,0,0
371,365,0,0,0,0,0,0,0,0,0,-1,1595,659,0,0
378,365,0,0,0,0,0,0,0,0,0,-1,1602,659,0,0
385,365,0,0,0,0,0,0,0,0,0,-1,1609,659,0,0
392,365,0,0,0,0,0,0,0,0,0,-1,1616,659,0,0
399,365,0,0,0,0,0,0,0,0,0,-1,1623,659,0,0
406,365,0,0,0,0,0,0,0,0,0,-1,1630,659,0,0
413,365,0,0,0,0,0,0,0,0,0,-1,1637,659,0,0
420,365,0,0,0,0,0,0,0,0,0,-1,1644,659,0,0
427,365,0,0,0,0,0,0,0,0,0,-1,1651,659,0,0
434,365,0,0,0,0,0,0,0,0,0,-1,1658,659,0,0
441,365,0,0,0,0,0,0,0,0,0,-1,1665,659,0,0
448,365,0,0,0,0,0,0,0,0,0,-1,1672,659,0,0
455,365,0,0,0,0,0,0,0,0,0,-1,1679,659,0,0
462,365,0,0,0,0,0,0,0,0,0,-1,1686,659,0,0
469,365,0,0,0,0,0,0,0,0,0,-1,1693,659,0,0
476,365,0,0,0,0,0,0,0,0,0,-1,1700,659,0,0
483,365,0,0,0,0,0,0,0,0,0,-1,1707,659,0,0
490,365,8.39551,0.471252,0,0,0,0,0,0,0,-1,1714,659,8.39551,-0.471241
497,365,9.89233,1.35394,0,0,0,0,0,0,0,-1,1721,659,9.89237,-1.35396
504,365,10.1414,1.18005,0,0,0,0,0,0,0,-1,1728,659,10.1413,-1.18004
511,365,10.5151,0.993896,0,0,0,0,0,0,0,-1,1735,659,10.5152,-0.993894
518,365,11.2029,0.398132,0,0,0,0,0,0,0,-1,1742,659,11.2029,-0.398136
525,365,15.5748,3.85303,0,0,0,0,0,0,0,-1,1749,659,15.5748,-3.85303
532,365,11.2446,1.00629,0,0,0,0,0,0,0,-1,1756,659,11.2446,-1.00631
539,365,12.6301,1.03204,0,0,0,0,0,0,0,-1,1763,659,12.6302,-1.03204
546,365,11.647,0.84198,0,0,0,0,0,0,0,-1,1770,659,11.6469,-0.841955
553,365,12.028,-0.558899,0,0,0,0,0,0,0,-1,1777,659,12.028,0.558873
560,365,14.5372,-4.55548,0,0,0,0,0,0,0,-1,1784,659,14.5373,4.55547
567,365,20.5676,-7.53888,0,0,0,0,0,0,0,-1,1791,659,20.5676,7.53887
574,365,38.1675,-17.1957,0,0,0,0,0,0,0,-1,1798,659,38.1675,17.1957
581,365,37.7397,-16.5323,0,0,0,0,0,0,0,-1,1805,659,37.7397,16.5323
588,365,37.7275,-15.5271,0.000392378,-0.00073963,-0.000660216,0.000695998,-0.00104325,-0.431039,0.0010108,0.0234995,1812,659,37.7275,15.5271
595,365,37.6802,-14.5364,0.000679821,-0.000270905,-0.000273541,0.000752905,-0.000343989,-0.261081,0.000647795,0.0151115,1819,659,37.6802,14.5364
602,365,37.6254,-13.5482,0.00106259,0.000239259,0.000148103,0.00108842,0.000213428,0.172674,0.000665971,0.019956,1826,659,37.6254,13.5482
609,365,37.502,-12.6054,0.00141676,0.000836342,0.000580455,0.00177551,0.000477591,0.553586,0.00106094,0.0220874,1833,659,37.502,12.6054
616,365,37.4631,-11.6395,0.00176992,0.0015165,0.000995435,0.00264668,0.000639746,0.722094,0.00159457,0.021392,1840,659,37.4632,11.6395
623,365,37.4578,-10.6649,0.00220918,0.00214636,0.00140101,0.00357913,0.000776412,0.77419,0.002174,0.0122418,1847,659,37.4577,10.6649
630,365,37.4023,-9.74292,0.00253783,0.00280714,0.0017555,0.00443314,0.000911831,0.823675,0.00270324,0.0160135,1854,659,37.4024,9.74292
637,365,37.329,-8.83337,0.00275707,0.00343839,0.00200688,0.00513331,0.00106214,0.869471,0.00312884,0.0226146,1861,659,37.329,8.83337
644,365,37.2814,-7.85748,0.00287894,0.00411794,0.00217615,0.00576105,0.00123583,0.924069,0.00350221,0.0271392,1868,659,37.2814,7.85745
651,365,37.4208,-6.68964,0,0,0,0,0,0,0,-1,1875,659,37.4208,6.68965
658,365,24.745,-2.13275,0,0,0,0,0,0,0,-1,1882,659,24.745,2.13277
665,365,14.0961,0.769043,0,0,0,0,0,0,0,-1,1889,659,14.0961,-0.769063
672,365,10.0579,2.15088,0,0,0,0,0,0,0,-1,1896,659,10.0579,-2.15088
679,365,10.9718,2.19208,0,0,0,0,0,0,0,-1,1903,659,10.9718,-2.19211
686,365,12.2134,2.17108,0,0,0,0,0,0,0,-1,1910,659,12.2134,-2.17109
693,365,13.7141,1.98279,0,0,0,0,0,0,0,-1,1917,659,13.7141,-1.98278
700,365,0,0,0,0,0,0,0,0,0,-1,1924,659,0,0
707,365,0,0,0,0,0,0,0,0,0,-1,1931,659,0,0
714,365,0,0,0,0,0,0,0,0,0,-1,1938,659,0,0
721,365,0,0,0,0,0,0,0,0,0,-1,1945,659,0,0
728,365,0,0,0,0,0,0,0,0,0,-1,1952,659,0,0
735,365,0,0,0,0,0,0,0,0,0,-1,1959,659,0,0
742,365,0,0,0,0,0,0,0,0,0,-1,1966,659,0,0
749,365,0,0,0,0,0,0,0,0,0,-1,1973,659,0,0
756,365,0,0,0,0,0,0,0,0,0,-1,1980,659,0,0
763,365,0,0,0,0,0,0,0,0,0,-1,1987,659,0,0
770,365,0,0,0,0,0,0,0,0,0,-1,1994,659,0,0
777,365,0,0,0,0,0,0,0,0,0,-1,2001,659,0,0
784,365,0,0,0,0,0,0,0,0,0,-1,2008,659,0,0
791,365,0,0,0,0,0,0,0,0,0,-1,2015,659,0,0
798,365,0,0,0,0,0,0,0,0,0,-1,2022,659,0,0
805,365,0,0,0,0,0,0,0,0,0,-1,2029,659,0,0
812,365,0,0,0,0,0,0,0,0,0,-1,2036,659,0,0
-700,358,0,0,0,0,0,0,0,0,0,-1,524,666,0,0
-693,358,0,0,0,0,0,0,0,0,0,-1,531,666,0,0
-686,358,0,0,0,0,0,0,0,0,0,-1,538,666,0,0
-679,358,0,0,0,0,0,0,0,0,0,-1,545,666,0,0
-672,358,0,0,0,0,0,0,0,0,0,-1,552,666,0,0
-665,358,0,0,0,0,0,0,0,0,0,-1,559,666,0,0
-658,358,0,0,0,0,0,0,0,0,0,-1,566,666,0,0
-651,358,0,0,0,0,0,0,0,0,0,-1,573,666,0,0
-644,358,0,0,0,0,0,0,0,0,0,-1,580,666,0,0
-637,358,0,0,0,0,0,0,0,0,0,-1,587,666,0,0
-630,358,0,0,0,0,0,0,0,0,0,-1,594,666,0,0
-623,358,0,0,0,0,0,0,0,0,0,-1,601,666,0,0
-616,358,0,0,0,0,0,0,0,0,0,-1,608,666,0,0
-609,358,0,0,0,0,0,0,0,0,0,-1,615,666,0,0
-602,358,0,0,0,0,0,0,0,0,0,-1,622,666,0,0
-595,358,0,0,0,0,0,0,0,0,0,-1,629,666,0,0
-588,358,0,0,0,0,0,0,0,0,0,-1,636,666,0,0
-581,358,-8.31616,1.61993,0,0,0,0,0,0,0,-1,643,666,-8.31614,-1.61993
-574,358,-8.22406,1.75385,0,0,0,0,0,0,0,-1,650,666,-8.22408,-1.75383
-567,358,-8.14215,1.91577,0,0,0,0,0,0,0,-1,657,666,-8.14214,-1.91579
-560,358,-10.6086,2.18872,0,0,0,0,0,0,0,-1,664,666,-10.6086,-2.18873
-553,358,-13.4767,1.09552,0,0,0,0,0,0,0,-1,671,666,-13.4767,-1.09551
-546,358,-13.3743,-0.185059,0,0,0,0,0,0,0,-1,678,666,-13.3743,0.185037
-539,358,-9.43884,-2.04785,0,0,0,0,0,0,0,-1,685,666,-9.43884,2.04785
-532,358,-12.4141,-2.36572,0,0,0,0,0,0,0,-1,692,666,-12.4141,2.3657
-525,358,-12.731,-3.88031,0,0,0,0,0,0,0,-1,699,666,-12.731,3.88029
-518,358,-22.2141,-8.05359,0,0,0,0,0,0,0,-1,706,666,-22.214,8.05356
-511,358,-22.2892,-9.06604,0.00275134,0.000558947,-0.00140944,0.00344069,-0.000130402,-0.454884,0.00233848,0.016701,713,666,-22.2892,9.06602
-504,358,-22.3373,-10.0192,0.00222865,0.000366319,-0.00100943,0.00267081,-7.5842e-05,-0.412854,0.00180635,0.012133,720,666,-22.3374,10.0192
-497,358,-22.3914,-11.0153,0.00179478,0.000237415,-0.00073612,0.00208764,-5.54532e-05,-0.378655,0.00141061,0.0117483,727,666,-22.3914,11.0152
-490,358,-22.4534,-11.9791,0.00143656,0.000171314,-0.000567712,0.00165394,-4.60676e-05,-0.365686,0.0011183,0.0113995,734,666,-22.4534,11.979
-483,358,-22.5278,-12.8983,0.00121975,0.000197455,-0.000535031,0.00144856,-3.13502e-05,-0.404112,0.000976322,0.0106077,741,666,-22.5277,12.8982
-476,358,-22.5236,-13.8271,0.00112965,0.00030057,-0.000607303,0.0014504,-2.0187e-05,-0.485926,0.000973734,0.014956,748,666,-22.5235,13.8272
-469,358,-22.6231,-14.7823,0.00120426,0.000466296,-0.000801315,0.00171746,-4.69101e-05,-0.569636,0.00116093,0.0197881,755,666,-22.6231,14.7823
-462,358,-22.7406,-15.7461,0.00144254,0.000701794,-0.00110577,0.00223832,-9.39831e-05,-0.623797,0.00152451,0.0204411,762,666,-22.7406,15.7461
-455,358,-22.7425,-16.7385,0,0,0,0,0,0,0,-1,769,666,-22.7425,16.7385
-448,358,-17.7847,-14.434,0,0,0,0,0,0,0,-1,776,666,-17.7847,14.434
-441,358,-5.56293,-3.98041,0,0,0,0,0,0,0,-1,783,666,-5.56291,3.98043
-434,358,-5.21558,-4.43127,0,0,0,0,0,0,0,-1,790,666,-5.21559,4.43125
-427,358,-3.56189,-3.15729,0,0,0,0,0,0,0,-1,797,666,-3.56192,3.15729
-420,358,0.200195,1.08234,0,0,0,0,0,0,0,-1,804,666,0.200174,-1.08231
-413,358,0.0325317,0.161072,0,0,0,0,0,0,0,-1,811,666,0.0325501,-0.161098
-406,358,-3.85846,0.753113,0,0,0,0,0,0,0,-1,818,666,-3.85846,-0.753129
-399,358,-1.31213,0.190735,0,0,0,0,0,0,0,-1,825,666,-1.31215,-0.190763
-392,358,-3.73914,-0.832214,0,0,0,0,0,0,0,-1,832,666,-3.73915,0.832202
-385,358,-5.95178,-1.69141,0,0,0,0,0,0,0,-1,839,666,-5.9518,1.69143
-378,358,0,0,0,0,0,0,0,0,0,-1,846,666,0,0
-371,358,0,0,0,0,0,0,0,0,0,-1,853,666,0,0
-364,358,0,0,0,0,0,0,0,0,0,-1,860,666,0,0
-357,358,0,0,0,0,0,0,0,0,0,-1,867,666,0,0
-350,358,0,0,0,0,0,0,0,0,0,-1,874,666,0,0
-343,358,0,0,0,0,0,0,0,0,0,-1,881,666,0,0
-336,358,0,0,0,0,0,0,0,0,0,-1,888,666,0,0
-329,358,0,0,0,0,0,0,0,0,0,-1,895,666,0,0
-322,358,0,0,0,0,0,0,0,0,0,-1,902,666,0,0
-315,358,0,0,0,0,0,0,0,0,0,-1,909,666,0,0
-308,358,0,0,0,0,0,0,0,0,0,-1,916,666,0,0
-301,358,0,0,0,0,0,0,0,0,0,-1,923,666,0,0
-294,358,0,0,0,0,0,0,0,0,0,-1,930,666,0,0
-287,358,0,0,0,0,0,0,0,0,0,-1,937,666,0,0
-280,358,0,0,0,0,0,0,0,0,0,-1,944,666,0,0
-273,358,0,0,0,0,0,0,0,0,0,-1,951,666,0,0
-266,358,0,0,0,0,0,0,0,0,0,-1,958,666,0,0
-259,358,0,0,0,0,0,0,0,0,0,-1,965,666,0,0
-252,358,0,0,0,0,0,0,0,0,0,-1,972,666,0,0
-245,358,0,0,0,0,0,0,0,0,0,-1,979,666,0,0
-238,358,0,0,0,0,0,0,0,0,0,-1,986,666,0,0
-231,358,0,0,0,0,0,0,0,0,0,-1,993,666,0,0
-224,358,0,0,0,0,0,0,0,0,0,-1,1000,666,0,0
-217,358,0,0,0,0,0,0,0,0,0,-1,1007,666,0,0
-210,358,0,0,0,0,0,0,0,0,0,-1,1014,666,0,0
-203,358,0,0,0,0,0,0,0,0,0,-1,1021,666,0,0
-196,358,0,0,0,0,0,0,0,0,0,-1,1028,666,0,0
-189,358,0,0,0,0,0,0,0,0,0,-1,1035,666,0,0
-182,358,0,0,0,0,0,0,0,0,0,-1,1042,666,0,0
-175,358,0,0,0,0,0,0,0,0,0,-1,1049,666,0,0
-168,358,0,0,0,0,0,0,0,0,0,-1,1056,666,0,0
-161,358,0,0,0,0,0,0,0,0,0,-1,1063,666,0,0
-154,358,0,0,0,0,0,0,0,0,0,-1,1070,666,0,0
-147,358,0,0,0,0,0,0,0,0,0,-1,1077,666,0,0
-140,358,0,0,0,0,0,0,0,0,0,-1,1084,666,0,0
-133,358,0,0,0,0,0,0,0,0,0,-1,1091,666,0,0
-126,358,0,0,0,0,0,0,0,0,0,-1,1098,666,0,0
-119,358,0,0,0,0,0,0,0,0,0,-1,1105,666,0,0
-112,358,0,0,0,0,0,0,0,0,0,-1,1112,666,0,0
-105,358,0,0,0,0,0,0,0,0,0,-1,1119,666,0,0
-98,358,0,0,0,0,0,0,0,0,0,-1,1126,666,0,0
-91,358,0,0,0,0,0,0,0,0,0,-1,1133,666,0,0
-84,358,0,0,0,0,0,0,0,0,0,-1,1140,666,0,0
-77,358,0,0,0,0,0,0,0,0,0,-1,1147,666,0,0
-70,358,0,0,0,0,0,0,0,0,0,-1,1154,666,0,0
-63,358,0,0,0,0,0,0,0,0,0,-1,1161,666,0,0
-56,358,0,0,0,0,0,0,0,0,0,-1,1168,666,0,0
-49,358,0,0,0,0,0,0,0,0,0,-1,1175,666,0,0
-42,358,0,0,0,0,0,0,0,0,0,-1,1182,666,0,0
-35,358,0,0,0,0,0,0,0,0,0,-1,1189,666,0,0
-28,358,0,0,0,0,0,0,0,0,0,-1,1196,666,0,0
-21,358,0,0,0,0,0,0,0,0,0,-1,1203,666,0,0
-14,358,0,0,0,0,0,0,0,0,0,-1,1210,666,0,0
-7,358,0,0,0,0,0,0,0,0,0,-1,1217,666,0,0
0,358,0,0,0,0,0,0,0,0,0,-1,1224,666,0,0
7,358,0,0,0,0,0,0,0,0,0,-1,1231,666,0,0
14,358,0,0,0,0,0,0,0,0,0,-1,1238,666,0,0
21,358,0,0,0,0,0,0,0,0,0,-1,1245,666,0,0
28,358,0,0,0,0,0,0,0,0,0,-1,1252,666,0,0
35,358,0,0,0,0,0,0,0,0,0,-1,1259,666,0,0
42,358,0,0,0,0,0,0,0,0,0,-1,1266,666,0,0
49,358,0,0,0,0,0,0,0,0,0,-1,1273,666,0,0
56,358,0,0,0,0,0,0,0,0,0,-1,1280,666,0,0
63,358,0,0,0,0,0,0,0,0,0,-1,1287,666,0,0
70,358,0,0,0,0,0,0,0,0,0,-1,1294,666,0,0
77,358,0,0,0,0,0,0,0,0,0,-1,1301,666,0,0
84,358,0,0,0,0,0,0,0,0,0,-1,1308,666,0,0
91,358,0,0,0,0,0,0,0,0,0,-1,1315,666,0,0
98,358,0,0,0,0,0,0,0,0,0,-1,1322,666,0,0
105,358,0,0,0,0,0,0,0,0,0,-1,1329,666,0,0
112,358,0,0,0,0,0,0,0,0,0,-1,1336,666,0,0
119,358,0,0,0,0,0,0,0,0,0,-1,1343,666,0,0
126,358,0,0,0,0,0,0,0,0,0,-1,1350,666,0,0
133,358,0,0,0,0,0,0,0,0,0,-1,1357,666,0,0
140,358,0,0,0,0,0,0,0,0,0,-1,1364,666,0,0
147,358,0,0,0,0,0,0,0,0,0,-1,1371,666,0,0
154,358,0,0,0,0,0,0,0,0,0,-1,1378,666,0,0
161,358,0,0,0,0,0,0,0,0,0,-1,1385,666,0,0
168,358,0,0,0,0,0,0,0,0,0,-1,1392,666,0,0
175,358,0,0,0,0,0,0,0,0,0,-1,1399,666,0,0
182,358,0,0,0,0,0,0,0,0,0,-1,1406,666,0,0
189,358,0,0,0,0,0,0,0,0,0,-1,1413,666,0,0
196,358,0,0,0,0,0,0,0,0,0,-1,1420,666,0,0
203,358,0,0,0,0,0,0,0,0,0,-1,1427,666,0,0
210,358,0,0,0,0,0,0,0,0,0,-1,1434,666,0,0
217,358,0,0,0,0,0,0,0,0,0,-1,1441,666,0,0
224,358,0,0,0,0,0,0,0,0,0,-1,1448,666,0,0
231,358,0,0,0,0,0,0,0,0,0,-1,1455,666,0,0
238,358,0,0,0,0,0,0,0,0,0,-1,1462,666,0,0
245,358,0,0,0,0,0,0,0,0,0,-1,1469,666,0,0
252,358,0,0,0,0,0,0,0,0,0,-1,1476,666,0,0
259,358,0,0,0,0,0,0,0,0,0,-1,1483,666,0,0
266,358,0,0,0,0,0,0,0,0,0,-1,1490,666,0,0
273,358,0,0,0,0,0,0,0,0,0,-1,1497,666,0,0
280,358,0,0,0,0,0,0,0,0,0,-1,1504,666,0,0
287,358,0,0,0,0,0,0,0,0,0,-1,1511,666,0,0
294,358,0,0,0,0,0,0,0,0,0,-1,1518,666,0,0
301,358,0,0,0,0,0,0,0,0,0,-1,1525,666,0,0
308,358,0,0,0,0,0,0,0,0,0,-1,1532,666,0,0
315,358,0,0,0,0,0,0,0,0,0,-1,1539,666,0,0
322,358,0,0,0,0,0,0,0,0,0,-1,1546,666,0,0
329,358,0,0,0,0,0,0,0,0,0,-1,1553,666,0,0
336,358,0,0,0,0,0,0,0,0,0,-1,1560,666,0,0
343,358,0,0,0,0,0,0,0,0,0,-1,1567,666,0,0
350,358,0,0,0,0,0,0,0,0,0,-1,1574,666,0,0
357,358,0,0,0,0,0,0,0,0,0,-1,1581,666,0,0
364,358,0,0,0,0,0,0,0,0,0,-1,1588,666,0,0
371,358,0,0,0,0,0,0,0,0,0,-1,1595,666,0,0
378,358,0,0,0,0,0,0,0,0,0,-1,1602,666,0,0
385,358,0,0,0,0,0,0,0,0,0,-1,1609,666,0,0
392,358,0,0,0,0,0,0,0,0,0,-1,1616,666,0,0
399,358,0,0,0,0,0,0,0,0,0,-1,1623,666,0,0
406,358,0,0,0,0,0,0,0,0,0,-1,1630,666,0,0
413,358,0,0,0,0,0,0,0,0,0,-1,1637,666,0,0
420,358,0,0,0,0,0,0,0,0,0,-1,1644,666,0,0
427,358,0,0,0,0,0,0,0,0,0,-1,1651,666,0,0
434,358,0,0,0,0,0,0,0,0,0,-1,1658,666,0,0
441,358,0,0,0,0,0,0,0,0,0,-1,1665,666,0,0
448,358,0,0,0,0,0,0,0,0,0,-1,1672,666,0,0
455,358,0,0,0,0,0,0,0,0,0,-1,1679,666,0,0
462,358,0,0,0,0,0,0,0,0,0,-1,1686,666,0,0
469,358,0,0,0,0,0,0,0,0,0,-1,1693,666,0,0
476,358,0,0,0,0,0,0,0,0,0,-1,1700,666,0,0
483,358,0,0,0,0,0,0,0,0,0,-1,1707,666,0,0
490,358,0,0,0,0,0,0,0,0,0,-1,1714,666,0,0
497,358,8.57239,1.1322,0,0,0,0,0,0,0,-1,1721,666,8.57234,-1.13219
504,358,10.5972,0.832947,0,0,0,0,0,0,0,-1,1728,666,10.5972,-0.832968
511,358,10.6873,0.868469,0,0,0,0,0,0,0,-1,1735,666,10.6872,-0.868484
518,358,16.5884,2.34894,0,0,0,0,0,0,0,-1,1742,666,16.5884,-2.34894
525,358,15.7626,3.65344,0,0,0,0,0,0,0,-1,1749,666,15.7626,-3.65342
532,358,14.9368,4.95789,0,0,0,0,0,0,0,-1,1756,666,14.9367,-4.9579
539,358,15.1597,3.42694,0,0,0,0,0,0,0,-1,1763,666,15.1597,-3.42692
546,358,12.3792,1.53558,0,0,0,0,0,0,0,-1,1770,666,12.3792,-1.5356
553,358,11.6584,1.26172,0,0,0,0,0,0,0,-1,1777,666,11.6585,-1.26175
560,358,10.8234,1.43042,0,0,0,0,0,0,0,-1,1784,666,10.8233,-1.43041
567,358,10.1333,-0.955139,0,0,0,0,0,0,0,-1,1791,666,10.1333,0.955132
574,358,14.7886,-2.69293,0,0,0,0,0,0,0,-1,1798,666,14.7885,2.6929
581,358,20.1738,-6.76135,0,0,0,0,0,0,0,-1,1805,666,20.1738,6.76137
588,358,38.6082,-15.4489,0,0,0,0,0,0,0,-1,1812,666,38.6081,15.4489
595,358,38.608,-14.4416,0.000546388,-0.000607456,-0.000417405,0.000681552,-0.00074262,-0.313163,0.000822498,0.0172974,1819,666,38.608,14.4416
602,358,38.524,-13.4336,0.000932198,-0.00013592,-6.00259e-05,0.000935561,-0.000139283,-0.0559629,0.000674942,0.0159749,1826,666,38.5241,13.4336
609,358,38.4216,-12.5029,0.00126879,0.000382084,0.000305098,0.00136362,0.000287248,0.301368,0.000830069,0.0208229,1833,666,38.4216,12.503
616,358,38.4034,-11.5613,0.001559,0.000943974,0.000646928,0.00196778,0.000535189,0.563535,0.00117482,0.0184778,1840,666,38.4035,11.5613
623,358,38.4164,-10.6255,0.00190933,0.00144884,0.000964698,0.00267088,0.000687292,0.668253,0.00160143,0.0158973,1847,666,38.4163,10.6255
630,358,38.364,-9.69794,0.00217369,0.00198388,0.00125333,0.00333571,0.000821869,0.747609,0.00200676,0.0186433,1854,666,38.364,9.69796
637,358,38.2777,-8.75867,0.0023555,0.00245612,0.0014373,0.00384399,0.000967631,0.802892,0.00230873,0.0257358,1861,666,38.2777,8.75869
644,358,38.2439,-7.80121,0.0024662,0.00293319,0.00154189,0.00425916,0.00114022,0.860544,0.00254595,0.0216294,1868,666,38.2439,7.80122
651,358,38.2601,-6.80933,0,0,0,0,0,0,0,-1,1875,666,38.2601,6.80931
658,358,38.0231,-5.53729,0,0,0,0,0,0,0,-1,1882,666,38.023,5.53731
665,358,28.0272,-2.07764,0,0,0,0,0,0,0,-1,1889,666,28.0272,2.07764
672,358,12.4299,1.47272,0,0,0,0,0,0,0,-1,1896,666,12.4299,-1.4727
679,358,12.1294,2.19702,0,0,0,0,0,0,0,-1,1903,666,12.1294,-2.19703
686,358,11.9557,2.2002,0,0,0,0,0,0,0,-1,1910,666,11.9557,-2.20021
693,358,13.188,2.52203,0,0,0,0,0,0,0,-1,1917,666,13.188,-2.52202
700,358,0,0,0,0,0,0,0,0,0,-1,1924,666,0,0
707,358,0,0,0,0,0,0,0,0,0,-1,1931,666,0,0
714,358,0,0,0,0,0,0,0,0,0,-1,1938,666,0,0
721,358,0,0,0,0,0,0,0,0,0,-1,1945,666,0,0
728,358,0,0,0,0,0,0,0,0,0,-1,1952,666,0,0
735,358,0,0,0,0,0,0,0,0,0,-1,1959,666,0,0
742,358,0,0,0,0,0,0,0,0,0,-1,1966,666,0,0
749,358,0,0,0,0,0,0,0,0,0,-1,1973,666,0,0
756,358,0,0,0,0,0,0,0,0,0,-1,1980,666,0,0
763,358,0,0,0,0,0,0,0,0,0,-1,1987,666,0,0
770,358,0,0,0,0,0,0,0,0,0,-1,1994,666,0,0
777,358,0,0,0,0,0,0,0,0,0,-1,2001,666,0,0
784,358,0,0,0,0,0,0,0,0,0,-1,2008,666,0,0
791,358,0,0,0,0,0,0,0,0,0,-1,2015,666,0,0
798,358,0,0,0,0,0,0,0,0,0,-1,2022,666,0,0
805,358,0,0,0,0,0,0,0,0,0,-1,2029,666,0,0
812,358,0,0,0,0,0,0,0,0,0,-1,2036,666,0,0
-700,351,0,0,0,0,0,0,0,0,0,-1,524,673,0,0
-693,351,0,0,0,0,0,0,0,0,0,-1,531,673,0,0
-686,351,0,0,0,0,0,0,0,0,0,-1,538,673,0,0
-679,351,0,0,0,0,0,0,0,0,0,-1,545,673,0,0
-672,351,0,0,0,0,0,0,0,0,0,-1,552,673,0,0
-665,351,0,0,0,0,0,0,0,0,0,-1,559,673,0,0
-658,351,0,0,0,0,0,0,0,0,0,-1,566,673,0,0
-651,351,0,0,0,0,0,0,0,0,0,-1,573,673,0,0
-644,351,0,0,0,0,0,0,0,0,0,-1,580,673,0,0
-637,351,0,0,0,0,0,0,0,0,0,-1,587,673,0,0
-630,351,0,0,0,0,0,0,0,0,0,-1,594,673,0,0
-623,351,0,0,0,0,0,0,0,0,0,-1,601,673,0,0
-616,351,0,0,0,0,0,0,0,0,0,-1,608,673,0,0
-609,351,0,0,0,0,0,0,0,0,0,-1,615,673,0,0
-602,351,0,0,0,0,0,0,0,0,0,-1,622,673,0,0
-595,351,0,0,0,0,0,0,0,0,0,-1,629,673,0,0
-588,351,0,0,0,0,0,0,0,0,0,-1,636,673,0,0
-581,351,-9.0647,1.71906,0,0,0,0,0,0,0,-1,643,673,-9.06472,-1.71908
-574,351,-8.23584,2.64764,0,0,0,0,0,0,0,-1,650,673,-8.23584,-2.64764
-567,351,-10.8027,4.56836,0,0,0,0,0,0,0,-1,657,673,-10.8027,-4.56839
-560,351,-14.2001,2.17084,0,0,0,0,0,0,0,-1,664,673,-14.2002,-2.17086
-553,351,-13.4979,0.779541,0,0,0,0,0,0,0,-1,671,673,-13.4978,-0.779519
-546,351,-14.0065,0.73645,0,0,0,0,0,0,0,-1,678,673,-14.0065,-0.736473
-539,351,-12.8123,-1.46393,0,0,0,0,0,0,0,-1,685,673,-12.8123,1.46395
-532,351,-16.0198,-4.03937,0,0,0,0,0,0,0,-1,692,673,-16.0198,4.03936
-525,351,-23.2441,-7.06726,0,0,0,0,0,0,0,-1,699,673,-23.2442,7.06729
-518,351,-23.212,-8.0033,0.00328467,0.00149121,-0.00211515,0.00468532,9.05527e-05,-0.584905,0.00309381,0.0227221,706,673,-23.2121,8.00328
-511,351,-23.2316,-8.99219,0.00266168,0.000874062,-0.00139562,0.00342517,0.000110569,-0.500586,0.0022475,0.0121067,713,673,-23.2316,8.9922
-504,351,-23.3025,-9.95697,0.00213458,0.000529053,-0.00094792,0.00257398,8.96483e-05,-0.434062,0.0016869,0.0111501,720,673,-23.3025,9.95695
-497,351,-23.3615,-10.925,0.00170153,0.000299275,-0.000633376,0.00194525,5.55501e-05,-0.367337,0.00127872,0.0105377,727,673,-23.3614,10.925
-490,351,-23.4164,-11.8657,0.00135662,0.000220823,-0.000473632,0.0015282,4.92373e-05,-0.347568,0.00100279,0.0104537,734,673,-23.4164,11.8657
-483,351,-23.4648,-12.8053,0.00115074,0.000287243,-0.000476842,0.00136226,7.5731e-05,-0.417492,0.000884009,0.0126438,741,673,-23.4649,12.8053
-476,351,-23.5375,-13.7452,0.00105825,0.000456251,-0.000614129,0.00144117,7.33239e-05,-0.557541,0.000937298,0.011733,748,673,-23.5375,13.7452
-469,351,-23.5924,-14.6834,0.00112721,0.000716197,-0.000894216,0.00183923,4.17698e-06,-0.67245,0.00122476,0.0146232,755,673,-23.5924,14.6834
-462,351,-23.6346,-15.717,0.00137068,0.00108537,-0.00133282,0.00256846,-0.000112404,-0.732086,0.00175098,0.041733,762,673,-23.6346,15.7171
-455,351,-23.5948,-16.7695,0,0,0,0,0,0,0,-1,769,673,-23.5948,16.7695
-448,351,-6.61456,-4.38654,0,0,0,0,0,0,0,-1,776,673,-6.61456,4.38654
-441,351,-4.31567,-2.3009,0,0,0,0,0,0,0,-1,783,673,-4.31565,2.30089
-434,351,-3.81708,-2.28003,0,0,0,0,0,0,0,-1,790,673,-3.81706,2.28006
-427,351,-2.05157,-2.7785,0,0,0,0,0,0,0,-1,797,673,-2.05157,2.77848
-420,351,-1.06989,-2.43665,0,0,0,0,0,0,0,-1,804,673,-1.06991,2.43663
-413,351,-0.392334,-2.06671,0,0,0,0,0,0,0,-1,811,673,-0.392363,2.06672
-406,351,-1.86316,-2.58105,0,0,0,0,0,0,0,-1,818,673,-1.86313,2.58106
-399,351,1.00952,-1.53455,0,0,0,0,0,0,0,-1,825,673,1.00954,1.53457
-392,351,-1.02197,0.877136,0,0,0,0,0,0,0,-1,832,673,-1.02195,-0.877143
-385,351,-1.47205,1.04437,0,0,0,0,0,0,0,-1,839,673,-1.47207,-1.04435
-378,351,0,0,0,0,0,0,0,0,0,-1,846,673,0,0
-371,351,0,0,0,0,0,0,0,0,0,-1,853,673,0,0
-364,351,0,0,0,0,0,0,0,0,0,-1,860,673,0,0
-357,351,0,0,0,0,0,0,0,0,0,-1,867,673,0,0
-350,351,0,0,0,0,0,0,0,0,0,-1,874,673,0,0
-343,351,0,0,0,0,0,0,0,0,0,-1,881,673,0,0
-336,351,0,0,0,0,0,0,0,0,0,-1,888,673,0,0
-329,351,0,0,0,0,0,0,0,0,0,-1,895,673,0,0
-322,351,0,0,0,0,0,0,0,0,0,-1,902,673,0,0
-315,351,0,0,0,0,0,0,0,0,0,-1,909,673,0,0
-308,351,0,0,0,0,0,0,0,0,0,-1,916,673,0,0
-301,351,0,0,0,0,0,0,0,0,0,-1,923,673,0,0
-294,351,0,0,0,0,0,0,0,0,0,-1,930,673,0,0
-287,351,0,0,0,0,0,0,0,0,0,-1,937,673,0,0
-280,351,0,0,0,0,0,0,0,0,0,-1,944,673,0,0
-273,351,0,0,0,0,0,0,0,0,0,-1,951,673,0,0
-266,351,0,0,0,0,0,0,0,0,0,-1,958,673,0,0
-259,351,0,0,0,0,0,0,0,0,0,-1,965,673,0,0
-252,351,0,0,0,0,0,0,0,0,0,-1,972,673,0,0
-245,351,0,0,0,0,0,0,0,0,0,-1,979,673,0,0
-238,351,0,0,0,0,0,0,0,0,0,-1,986,673,0,0
-231,351,0,0,0,0,0,0,0,0,0,-1,993,673,0,0
-224,351,0,0,0,0,0,0,0,0,0,-1,1000,673,0,0
-217,351,0,0,0,0,0,0,0,0,0,-1,1007,673,0,0
-210,351,0,0,0,0,0,0,0,0,0,-1,1014,673,0,0
-203,351,0,0,0,0,0,0,0,0,0,-1,1021,673,0,0
-196,351,0,0,0,0,0,0,0,0,0,-1,1028,673,0,0
-189,351,0,0,0,0,0,0,0,0,0,-1,1035,673,0,0
-182,351,0,0,0,0,0,0,0,0,0,-1,1042,673,0,0
-175,351,0,0,0,0,0,0,0,0,0,-1,1049,673,0,0
-168,351,0,0,0,0,0,0,0,0,0,-1,1056,673,0,0
-161,351,0,0,0,0,0,0,0,0,0,-1,1063,673,0,0
-154,351,0,0,0,0,0,0,0,0,0,-1,1070,673,0,0
-147,351,0,0,0,0,0,0,0,0,0,-1,1077,673,0,0
-140,351,0,0,0,0,0,0,0,0,0,-1,1084,673,0,0
-133,351,0,0,0,0,0,0,0,0,0,-1,1091,673,0,0
-126,351,0,0,0,0,0,0,0,0,0,-1,1098,673,0,0
-119,351,0,0,0,0,0,0,0,0,0,-1,1105,673,0,0
-112,351,0,0,0,0,0,0,0,0,0,-1,1112,673,0,0
-105,351,0,0,0,0,0,0,0,0,0,-1,1119,673,0,0
-98,351,0,0,0,0,0,0,0,0,0,-1,1126,673,0,0
-91,351,0,0,0,0,0,0,0,0,0,-1,1133,673,0,0
-84,351,0,0,0,0,0,0,0,0,0,-1,1140,673,0,0
-77,351,0,0,0,0,0,0,0,0,0,-1,1147,673,0,0
-70,351,0,0,0,0,0,0,0,0,0,-1,1154,673,0,0
-63,351,0,0,0,0,0,0,0,0,0,-1,1161,673,0,0
-56,351,0,0,0,0,0,0,0,0,0,-1,1168,673,0,0
-49,351,0,0,0,0,0,0,0,0,0,-1,1175,673,0,0
-42,351,0,0,0,0,0,0,0,0,0,-1,1182,673,0,0
-35,351,0,0,0,0,0,0,0,0,0,-1,1189,673,0,0
-28,351,0,0,0,0,0,0,0,0,0,-1,1196,673,0,0
-21,351,0,0,0,0,0,0,0,0,0,-1,1203,673,0,0
-14,351,0,0,0,0,0,0,0,0,0,-1,1210,673,0,0
-7,351,0,0,0,0,0,0,0,0,0,-1,1217,673,0,0
0,351,0,0,0,0,0,0,0,0,0,-1,1224,673,0,0
7,351,0,0,0,0,0,0,0,0,0,-1,1231,673,0,0
14,351,0,0,0,0,0,0,0,0,0,-1,1238,673,0,0
21,351,0,0,0,0,0,0,0,0,0,-1,1245,673,0,0
28,351,0,0,0,0,0,0,0,0,0,-1,1252,673,0,0
35,351,0,0,0,0,0,0,0,0,0,-1,1259,673,0,0
42,351,0,0,0,0,0,0,0,0,0,-1,1266,673,0,0
49,351,0,0,0,0,0,0,0,0,0,-1,1273,673,0,0
56,351,0,0,0,0,0,0,0,0,0,-1,1280,673,0,0
63,351,0,0,0,0,0,0,0,0,0,-1,1287,673,0,0
70,351,0,0,0,0,0,0,0,0,0,-1,1294,673,0,0
77,351,0,0,0,0,0,0,0,0,0,-1,1301,673,0,0
84,351,0,0,0,0,0,0,0,0,0,-1,1308,673,0,0
91,351,0,0,0,0,0,0,0,0,0,-1,1315,673,0,0
98,351,0,0,0,0,0,0,0,0,0,-1,1322,673,0,0
105,351,0,0,0,0,0,0,0,0,0,-1,1329,673,0,0
112,351,0,0,0,0,0,0,0,0,0,-1,1336,673,0,0
119,351,0,0,0,0,0,0,0,0,0,-1,1343,673,0,0
126,351,0,0,0,0,0,0,0,0,0,-1,1350,673,0,0
133,351,0,0,0,0,0,0,0,0,0,-1,1357,673,0,0
140,351,0,0,0,0,0,0,0,0,0,-1,1364,673,0,0
147,351,0,0,0,0,0,0,0,0,0,-1,1371,673,0,0
154,351,0,0,0,0,0,0,0,0,0,-1,1378,673,0,0
161,351,0,0,0,0,0,0,0,0,0,-1,1385,673,0,0
168,351,0,0,0,0,0,0,0,0,0,-1,1392,673,0,0
175,351,0,0,0,0,0,0,0,0,0,-1,1399,673,0,0
182,351,0,0,0,0,0,0,0,0,0,-1,1406,673,0,0
189,351,0,0,0,0,0,0,0,0,0,-1,1413,673,0,0
196,351,0,0,0,0,0,0,0,0,0,-1,1420,673,0,0
203,351,0,0,0,0,0,0,0,0,0,-1,1427,673,0,0
210,351,0,0,0,0,0,0,0,0,0,-1,1434,673,0,0
217,351,0,0,0,0,0,0,0,0,0,-1,1441,673,0,0
224,351,0,0,0,0,0,0,0,0,0,-1,1448,673,0,0
231,351,0,0,0,0,0,0,0,0,0,-1,1455,673,0,0
238,351,0,0,0,0,0,0,0,0,0,-1,1462,673,0,0
245,351,0,0,0,0,0,0,0,0,0,-1,1469,673,0,0
252,351,0,0,0,0,0,0,0,0,0,-1,1476,673,0,0
259,351,0,0,0,0,0,0,0,0,0,-1,1483,673,0,0
266,351,0,0,0,0,0,0,0,0,0,-1,1490,673,0,0
273,351,0,0,0,0,0,0,0,0,0,-1,1497,673,0,0
280,351,0,0,0,0,0,0,0,0,0,-1,1504,673,0,0
287,351,0,0,0,0,0,0,0,0,0,-1,1511,673,0,0
294,351,0,0,0,0,0,0,0,0,0,-1,1518,673,0,0
301,351,0,0,0,0,0,0,0,0,0,-1,1525,673,0,0
308,351,0,0,0,0,0,0,0,0,0,-1,1532,673,0,0
315,351,0,0,0,0,0,0,0,0,0,-1,1539,673,0,0
322,351,0,0,0,0,0,0,0,0,0,-1,1546,673,0,0
329,351,0,0,0,0,0,0,0,0,0,-1,1553,673,0,0
336,351,0,0,0,0,0,0,0,0,0,-1,1560,673,0,0
343,351,0,0,0,0,0,0,0,0,0,-1,1567,673,0,0
350,351,0,0,0,0,0,0,0,0,0,-1,1574,673,0,0
357,351,0,0,0,0,0,0,0,0,0,-1,1581,673,0,0
364,351,0,0,0,0,0,0,0,0,0,-1,1588,673,0,0
371,351,0,0,0,0,0,0,0,0,0,-1,1595,673,0,0
378,351,0,0,0,0,0,0,0,0,0,-1,1602,673,0,0
385,351,0,0,0,0,0,0,0,0,0,-1,1609,673,0,0
392,351,0,0,0,0,0,0,0,0,0,-1,1616,673,0,0
399,351,0,0,0,0,0,0,0,0,0,-1,1623,673,0,0
406,351,0,0,0,0,0,0,0,0,0,-1,1630,673,0,0
413,351,0,0,0,0,0,0,0,0,0,-1,1637,673,0,0
420,351,0,0,0,0,0,0,0,0,0,-1,1644,673,0,0
427,351,0,0,0,0,0,0,0,0,0,-1,1651,673,0,0
434,351,0,0,0,0,0,0,0,0,0,-1,1658,673,0,0
441,351,0,0,0,0,0,0,0,0,0,-1,1665,673,0,0
448,351,0,0,0,0,0,0,0,0,0,-1,1672,673,0,0
455,351,0,0,0,0,0,0,0,0,0,-1,1679,673,0,0
462,351,0,0,0,0,0,0,0,0,0,-1,1686,673,0,0
469,351,0,0,0,0,0,0,0,0,0,-1,1693,673,0,0
476,351,0,0,0,0,0,0,0,0,0,-1,1700,673,0,0
483,351,0,0,0,0,0,0,0,0,0,-1,1707,673,0,0
490,351,0,0,0,0,0,0,0,0,0,-1,1714,673,0,0
497,351,0,0,0,0,0,0,0,0,0,-1,1721,673,0,0
504,351,10.8842,1.61615,0,0,0,0,0,0,0,-1,1728,673,10.8842,-1.61618
511,351,15.4548,0.0236816,0,0,0,0,0,0,0,-1,1735,673,15.4549,-0.0236664
518,351,16.7448,2.49268,0,0,0,0,0,0,0,-1,1742,673,16.7448,-2.49269
525,351,16.0701,3.43225,0,0,0,0,0,0,0,-1,1749,673,16.07,-3.43227
532,351,32.3822,3.03021,0,0,0,0,0,0,0,-1,1756,673,32.3822,-3.03019
539,351,15.3387,3.54486,0,0,0,0,0,0,0,-1,1763,673,15.3387,-3.54485
546,351,13.9387,4.59357,0,0,0,0,0,0,0,-1,1770,673,13.9388,-4.59359
553,351,12.0682,2.02832,0,0,0,0,0,0,0,-1,1777,673,12.0683,-2.02831
560,351,12.0173,0.55304,0,0,0,0,0,0,0,-1,1784,673,12.0174,-0.553028
567,351,10.7827,0.130188,0,0,0,0,0,0,0,-1,1791,673,10.7827,-0.130183
574,351,13.405,-1.09204,0,0,0,0,0,0,0,-1,1798,673,13.405,1.09207
581,351,15.2351,-3.06049,0,0,0,0,0,0,0,-1,1805,673,15.2351,3.06046
588,351,39.4644,-15.4673,0,0,0,0,0,0,0,-1,1812,673,39.4643,15.4673
595,351,39.5365,-14.4223,0.000567038,-0.000825729,-0.000356231,0.000652863,-0.000911554,-0.23642,0.000907323,0.0427079,1819,673,39.5365,14.4223
602,351,39.5316,-13.4219,0.00089105,-0.000430008,-0.000152093,0.000908334,-0.000447292,-0.113157,0.000797616,0.0205691,1826,673,39.5316,13.4219
609,351,39.4834,-12.5193,0.00117648,-2.29847e-05,9.3381e-05,0.00118371,-3.02111e-05,0.0772322,0.000799397,0.0194567,1833,673,39.4833,12.5194
616,351,39.3939,-11.5643,0.00138015,0.000407777,0.00034195,0.00148836,0.000299567,0.306478,0.000908992,0.0168546,1840,673,39.394,11.5643
623,351,39.3951,-10.6056,0.00161914,0.000809843,0.000567432,0.00191143,0.000517555,0.475659,0.00114157,0.0171512,1847,673,39.3951,10.6056
630,351,39.3182,-9.66223,0.00181787,0.00124531,0.000797752,0.00237915,0.000684024,0.613126,0.00141435,0.026269,1854,673,39.3182,9.66223
637,351,39.2424,-8.68237,0.00197515,0.0016372,0.000955491,0.00277649,0.000835858,0.697882,0.00164476,0.0302279,1861,673,39.2425,8.68238
644,351,39.1902,-7.70795,0.0020987,0.00201288,0.00105388,0.00311054,0.00100104,0.765052,0.00183349,0.0223959,1868,673,39.1902,7.70796
651,351,39.1432,-6.70953,0.00226997,0.0023837,0.00111753,0.00344581,0.00120786,0.810819,0.00201885,0.018017,1875,673,39.1432,6.70955
658,351,39.0321,-5.70184,0.00242964,0.00262953,0.00105359,0.00358791,0.00147126,0.832689,0.00208262,0.0471749,1882,673,39.0321,5.70183
665,351,38.6139,-4.62476,0,0,0,0,0,0,0,-1,1889,673,38.6139,4.62473
672,351,34.9646,-3.1748,0,0,0,0,0,0,0,-1,1896,673,34.9646,3.17482
679,351,14.1252,1.85681,0,0,0,0,0,0,0,-1,1903,673,14.1253,-1.85682
686,351,13.0294,2.1189,0,0,0,0,0,0,0,-1,1910,673,13.0294,-2.11892
693,351,13.5187,2.34595,0,0,0,0,0,0,0,-1,1917,673,13.5187,-2.34596
700,351,14.5629,-2.40173,0,0,0,0,0,0,0,-1,1924,673,14.5629,2.40172
707,351,0,0,0,0,0,0,0,0,0,-1,1931,673,0,0
714,351,0,0,0,0,0,0,0,0,0,-1,1938,673,0,0
721,351,0,0,0,0,0,0,0,0,0,-1,1945,673,0,0
728,351,0,0,0,0,0,0,0,0,0,-1,1952,673,0,0
735,351,0,0,0,0,0,0,0,0,0,-1,1959,673,0,0
742,351,0,0,0,0,0,0,0,0,0,-1,1966,673,0,0
749,351,0,0,0,0,0,0,0,0,0,-1,1973,673,0,0
756,351,0,0,0,0,0,0,0,0,0,-1,1980,673,0,0
763,351,0,0,0,0,0,0,0,0,0,-1,1987,673,0,0
770,351,0,0,0,0,0,0,0,0,0,-1,1994,673,0,0
777,351,0,0,0,0,0,0,0,0,0,-1,2001,673,0,0
784,351,0,0,0,0,0,0,0,0,0,-1,2008,673,0,0
791,351,0,0,0,0,0,0,0,0,0,-1,2015,673,0,0
798,351,0,0,0,0,0,0,0,0,0,-1,2022,673,0,0
805,351,0,0,0,0,0,0,0,0,0,-1,2029,673,0,0
812,351,0,0,0,0,0,0,0,0,0,-1,2036,673,0,0
-700,344,0,0,0,0,0,0,0,0,0,-1,524,680,0,0
-693,344,0,0,0,0,0,0,0,0,0,-1,531,680,0,0
-686,344,0,0,0,0,0,0,0,0,0,-1,538,680,0,0
-679,344,0,0,0,0,0,0,0,0,0,-1,545,680,0,0
-672,344,0,0,0,0,0,0,0,0,0,-1,552,680,0,0
-665,344,0,0,0,0,0,0,0,0,0,-1,559,680,0,0
-658,344,0,0,0,0,0,0,0,0,0,-1,566,680,0,0
-651,344,0,0,0,0,0,0,0,0,0,-1,573,680,0,0
-644,344,0,0,0,0,0,0,0,0,0,-1,580,680,0,0
-637,344,0,0,0,0,0,0,0,0,0,-1,587,680,0,0
-630,344,0,0,0,0,0,0,0,0,0,-1,594,680,0,0
-623,344,0,0,0,0,0,0,0,0,0,-1,601,680,0,0
-616,344,0,0,0,0,0,0,0,0,0,-1,608,680,0,0
-609,344,0,0,0,0,0,0,0,0,0,-1,615,680,0,0
-602,344,0,0,0,0,0,0,0,0,0,-1,622,680,0,0
-595,344,0,0,0,0,0,0,0,0,0,-1,629,680,0,0
-588,344,-9.27826,1.47302,0,0,0,0,0,0,0,-1,636,680,-9.27829,-1.473
-581,344,-10.0098,1.71753,0,0,0,0,0,0,0,-1,643,680,-10.0098,-1.7175
-574,344,-10.2208,3.04871,0,0,0,0,0,0,0,-1,650,680,-10.2208,-3.04869
-567,344,-14.3779,2.29016,0,0,0,0,0,0,0,-1,657,680,-14.3779,-2.29014
-560,344,-14.1238,1.8374,0,0,0,0,0,0,0,-1,664,680,-14.1238,-1.83743
-553,344,-14.7884,2.00116,0,0,0,0,0,0,0,-1,671,680,-14.7884,-2.00115
-546,344,-17.4192,0.157654,0,0,0,0,0,0,0,-1,678,680,-17.4192,-0.157635
-539,344,-17.2671,-2.75714,0,0,0,0,0,0,0,-1,685,680,-17.2671,2.75712
-532,344,-18.4417,-4.38605,0,0,0,0,0,0,0,-1,692,680,-18.4417,4.38603
-525,344,-24.0948,-7.00964,0,0,0,0,0,0,0,-1,699,680,-24.0949,7.00966
-518,344,-24.1436,-7.95007,0.00305008,0.00180971,-0.00199489,0.00451897,0.000340827,-0.634691,0.00290571,0.0215154,706,680,-24.1435,7.95006
-511,344,-24.2089,-8.93445,0.00244374,0.00101452,-0.00128656,0.00320084,0.000257426,-0.531892,0.00205347,0.0171823,713,680,-24.2089,8.93443
-504,344,-24.2712,-9.92084,0.0019316,0.000493044,-0.000809133,0.00229494,0.000129707,-0.42206,0.00148861,0.0170093,720,680,-24.2712,9.92083
-497,344,-24.3205,-10.8787,0.00151733,0.000149778,-0.000471777,0.00166429,2.81748e-06,-0.301978,0.00110859,0.0155792,727,680,-24.3205,10.8786
-490,344,-24.3787,-11.8151,0.00119307,2.51555e-05,-0.000324225,0.00127704,-5.88152e-05,-0.253421,0.000871629,0.0149262,734,680,-24.3787,11.8151
-483,344,-24.3976,-12.7571,0.000993533,0.000105648,-0.000358406,0.00112015,-2.09706e-05,-0.339596,0.000753855,0.0151488,741,680,-24.3976,12.7571
-476,344,-24.4734,-13.7019,0.000899519,0.000326264,-0.000562814,0.00124449,-1.87058e-05,-0.549878,0.000835964,0.0152098,748,680,-24.4734,13.7019
-469,344,-24.5112,-14.7031,0.000945476,0.000699924,-0.000928816,0.00175959,-0.000114196,-0.719686,0.00121292,0.0236492,755,680,-24.5112,14.7032
-462,344,-24.5345,-15.7087,0,0,0,0,0,0,0,-1,762,680,-24.5345,15.7087
-455,344,-12.1653,-7.99176,0,0,0,0,0,0,0,-1,769,680,-12.1653,7.99174
-448,344,-5.67657,-2.72864,0,0,0,0,0,0,0,-1,776,680,-5.6766,2.72863
-441,344,-5.09229,-2.34167,0,0,0,0,0,0,0,-1,783,680,-5.09229,2.34168
-434,344,-4.28778,-2.08807,0,0,0,0,0,0,0,-1,790,680,-4.28778,2.08809
-427,344,-3.06506,-1.45404,0,0,0,0,0,0,0,-1,797,680,-3.06505,1.45402
-420,344,-1.96582,-1.57574,0,0,0,0,0,0,0,-1,804,680,-1.96579,1.57574
-413,344,-0.817993,-1.4751,0,0,0,0,0,0,0,-1,811,680,-0.818017,1.47511
-406,344,-0.00714111,-1.25189,0,0,0,0,0,0,0,-1,818,680,-0.00714956,1.25191
-399,344,0.240051,-1.75769,0,0,0,0,0,0,0,-1,825,680,0.240079,1.75767
-392,344,1.11353,-2.05615,0,0,0,0,0,0,0,-1,832,680,1.11351,2.05616
-385,344,0,0,0,0,0,0,0,0,0,-1,839,680,0,0
-378,344,0,0,0,0,0,0,0,0,0,-1,846,680,0,0
-371,344,0,0,0,0,0,0,0,0,0,-1,853,680,0,0
-364,344,0,0,0,0,0,0,0,0,0,-1,860,680,0,0
-357,344,0,0,0,0,0,0,0,0,0,-1,867,680,0,0
-350,344,0,0,0,0,0,0,0,0,0,-1,874,680,0,0
-343,344,0,0,0,0,0,0,0,0,0,-1,881,680,0,0
-336,344,0,0,0,0,0,0,0,0,0,-1,888,680,0,0
-329,344,0,0,0,0,0,0,0,0,0,-1,895,680,0,0
-322,344,0,0,0,0,0,0,0,0,0,-1,902,680,0,0
-315,344,0,0,0,0,0,0,0,0,0,-1,909,680,0,0
-308,344,0,0,0,0,0,0,0,0,0,-1,916,680,0,0
-301,344,0,0,0,0,0,0,0,0,0,-1,923,680,0,0
-294,344,0,0,0,0,0,0,0,0,0,-1,930,680,0,0
-287,344,0,0,0,0,0,0,0,0,0,-1,937,680,0,0
-280,344,0,0,0,0,0,0,0,0,0,-1,944,680,0,0
-273,344,0,0,0,0,0,0,0,0,0,-1,951,680,0,0
-266,344,0,0,0,0,0,0,0,0,0,-1,958,680,0,0
-259,344,0,0,0,0,0,0,0,0,0,-1,965,680,0,0
-252,344,0,0,0,0,0,0,0,0,0,-1,972,680,0,0
-245,344,0,0,0,0,0,0,0,0,0,-1,979,680,0,0
-238,344,0,0,0,0,0,0,0,0,0,-1,986,680,0,0
-231,344,0,0,0,0,0,0,0,0,0,-1,993,680,0,0
-224,344,0,0,0,0,0,0,0,0,0,-1,1000,680,0,0
-217,344,0,0,0,0,0,0,0,0,0,-1,1007,680,0,0
-210,344,0,0,0,0,0,0,0,0,0,-1,1014,680,0,0
-203,344,0,0,0,0,0,0,0,0,0,-1,1021,680,0,0
-196,344,0,0,0,0,0,0,0,0,0,-1,1028,680,0,0
-189,344,0,0,0,0,0,0,0,0,0,-1,1035,680,0,0
-182,344,0,0,0,0,0,0,0,0,0,-1,1042,680,0,0
-175,344,0,0,0,0,0,0,0,0,0,-1,1049,680,0,0
-168,344,0,0,0,0,0,0,0,0,0,-1,1056,680,0,0
-161,344,0,0,0,0,0,0,0,0,0,-1,1063,680,0,0
-154,344,0,0,0,0,0,0,0,0,0,-1,1070,680,0,0
-147,344,0,0,0,0,0,0,0,0,0,-1,1077,680,0,0
-140,344,0,0,0,0,0,0,0,0,0,-1,1084,680,0,0
-133,344,0,0,0,0,0,0,0,0,0,-1,1091,680,0,0
-126,344,0,0,0,0,0,0,0,0,0,-1,1098,680,0,0
-119,344,0,0,0,0,0,0,0,0,0,-1,1105,680,0,0
-112,344,0,0,0,0,0,0,0,0,0,-1,1112,680,0,0
-105,344,0,0,0,0,0,0,0,0,0,-1,1119,680,0,0
-98,344,0,0,0,0,0,0,0,0,0,-1,1126,680,0,0
-91,344,0,0,0,0,0,0,0,0,0,-1,1133,680,0,0
-84,344,0,0,0,0,0,0,0,0,0,-1,1140,680,0,0
-77,344,0,0,0,0,0,0,0,0,0,-1,1147,680,0,0
-70,344,0,0,0,0,0,0,0,0,0,-1,1154,680,0,0
-63,344,0,0,0,0,0,0,0,0,0,-1,1161,680,0,0
-56,344,0,0,0,0,0,0,0,0,0,-1,1168,680,0,0
-49,344,0,0,0,0,0,0,0,0,0,-1,1175,680,0,0
-42,344,0,0,0,0,0,0,0,0,0,-1,1182,680,0,0
-35,344,0,0,0,0,0,0,0,0,0,-1,1189,680,0,0
-28,344,0,0,0,0,0,0,0,0,0,-1,1196,680,0,0
-21,344,0,0,0,0,0,0,0,0,0,-1,1203,680,0,0
-14,344,0,0,0,0,0,0,0,0,0,-1,1210,680,0,0
-7,344,0,0,0,0,0,0,0,0,0,-1,1217,680,0,0
0,344,0,0,0,0,0,0,0,0,0,-1,1224,680,0,0
7,344,0,0,0,0,0,0,0,0,0,-1,1231,680,0,0
14,344,0,0,0,0,0,0,0,0,0,-1,1238,680,0,0
21,344,0,0,0,0,0,0,0,0,0,-1,1245,680,0,0
28,344,0,0,0,0,0,0,0,0,0,-1,1252,680,0,0
35,344,0,0,0,0,0,0,0,0,0,-1,1259,680,0,0
42,344,0,0,0,0,0,0,0,0,0,-1,1266,680,0,0
49,344,0,0,0,0,0,0,0,0,0,-1,1273,680,0,0
56,344,0,0,0,0,0,0,0,0,0,-1,1280,680,0,0
63,344,0,0,0,0,0,0,0,0,0,-1,1287,680,0,0
70,344,0,0,0,0,0,0,0,0,0,-1,1294,680,0,0
77,344,0,0,0,0,0,0,0,0,0,-1,1301,680,0,0
84,344,0,0,0,0,0,0,0,0,0,-1,1308,680,0,0
91,344,0,0,0,0,0,0,0,0,0,-1,1315,680,0,0
98,344,0,0,0,0,0,0,0,0,0,-1,1322,680,0,0
105,344,0,0,0,0,0,0,0,0,0,-1,1329,680,0,0
112,344,0,0,0,0,0,0,0,0,0,-1,1336,680,0,0
119,344,0,0,0,0,0,0,0,0,0,-1,1343,680,0,0
126,344,0,0,0,0,0,0,0,0,0,-1,1350,680,0,0
133,344,0,0,0,0,0,0,0,0,0,-1,1357,680,0,0
140,344,0,0,0,0,0,0,0,0,0,-1,1364,680,0,0
147,344,0,0,0,0,0,0,0,0,0,-1,1371,680,0,0
154,344,0,0,0,0,0,0,0,0,0,-1,1378,680,0,0
161,344,0,0,0,0,0,0,0,0,0,-1,1385,680,0,0
168,344,0,0,0,0,0,0,0,0,0,-1,1392,680,0,0
175,344,0,0,0,0,0,0,0,0,0,-1,1399,680,0,0
182,344,0,0,0,0,0,0,0,0,0,-1,1406,680,0,0
189,344,0,0,0,0,0,0,0,0,0,-1,1413,680,0,0
196,344,0,0,0,0,0,0,0,0,0,-1,1420,680,0,0
203,344,0,0,0,0,0,0,0,0,0,-1,1427,680,0,0
210,344,0,0,0,0,0,0,0,0,0,-1,1434,680,0,0
217,344,0,0,0,0,0,0,0,0,0,-1,1441,680,0,0
224,344,0,0,0,0,0,0,0,0,0,-1,1448,680,0,0
231,344,0,0,0,0,0,0,0,0,0,-1,1455,680,0,0
238,344,0,0,0,0,0,0,0,0,0,-1,1462,680,0,0
245,344,0,0,0,0,0,0,0,0,0,-1,1469,680,0,0
252,344,0,0,0,0,0,0,0,0,0,-1,1476,680,0,0
259,344,0,0,0,0,0,0,0,0,0,-1,1483,680,0,0
266,344,0,0,0,0,0,0,0,0,0,-1,1490,680,0,0
273,344,0,0,0,0,0,0,0,0,0,-1,1497,680,0,0
280,344,0,0,0,0,0,0,0,0,0,-1,1504,680,0,0
287,344,0,0,0,0,0,0,0,0,0,-1,1511,680,0,0
294,344,0,0,0,0,0,0,0,0,0,-1,1518,680,0,0
301,344,0,0,0,0,0,0,0,0,0,-1,1525,680,0,0
308,344,0,0,0,0,0,0,0,0,0,-1,1532,680,0,0
315,344,0,0,0,0,0,0,0,0,0,-1,1539,680,0,0
322,344,0,0,0,0,0,0,0,0,0,-1,1546,680,0,0
329,344,0,0,0,0,0,0,0,0,0,-1,1553,680,0,0
336,344,0,0,0,0,0,0,0,0,0,-1,1560,680,0,0
343,344,0,0,0,0,0,0,0,0,0,-1,1567,680,0,0
350,344,0,0,0,0,0,0,0,0,0,-1,1574,680,0,0
357,344,0,0,0,0,0,0,0,0,0,-1,1581,680,0,0
364,344,0,0,0,0,0,0,0,0,0,-1,1588,680,0,0
371,344,0,0,0,0,0,0,0,0,0,-1,1595,680,0,0
378,344,0,0,0,0,0,0,0,0,0,-1,1602,680,0,0
385,344,0,0,0,0,0,0,0,0,0,-1,1609,680,0,0
392,344,0,0,0,0,0,0,0,0,0,-1,1616,680,0,0
399,344,0,0,0,0,0,0,0,0,0,-1,1623,680,0,0
406,344,0,0,0,0,0,0,0,0,0,-1,1630,680,0,0
413,344,0,0,0,0,0,0,0,0,0,-1,1637,680,0,0
420,344,0,0,0,0,0,0,0,0,0,-1,1644,680,0,0
427,344,0,0,0,0,0,0,0,0,0,-1,1651,680,0,0
434,344,0,0,0,0,0,0,0,0,0,-1,1658,680,0,0
441,344,0,0,0,0,0,0,0,0,0,-1,1665,680,0,0
448,344,0,0,0,0,0,0,0,0,0,-1,1672,680,0,0
455,344,0,0,0,0,0,0,0,0,0,-1,1679,680,0,0
462,344,0,0,0,0,0,0,0,0,0,-1,1686,680,0,0
469,344,0,0,0,0,0,0,0,0,0,-1,1693,680,0,0
476,344,0,0,0,0,0,0,0,0,0,-1,1700,680,0,0
483,344,0,0,0,0,0,0,0,0,0,-1,1707,680,0,0
490,344,0,0,0,0,0,0,0,0,0,-1,1714,680,0,0
497,344,0,0,0,0,0,0,0,0,0,-1,1721,680,0,0
504,344,0,0,0,0,0,0,0,0,0,-1,1728,680,0,0
511,344,15.4819,0.452637,0,0,0,0,0,0,0,-1,1735,680,15.4819,-0.452656
518,344,17.1357,2.31207,0,0,0,0,0,0,0,-1,1742,680,17.1358,-2.31207
525,344,31.5201,2.6217,0,0,0,0,0,0,0,-1,1749,680,31.5201,-2.62168
532,344,31.9766,2.61047,0,0,0,0,0,0,0,-1,1756,680,31.9765,-2.6105
539,344,32.4379,2.65314,0,0,0,0,0,0,0,-1,1763,680,32.4378,-2.65316
546,344,14.6722,4.30243,0,0,0,0,0,0,0,-1,1770,680,14.6722,-4.30241
553,344,14.8136,4.35681,0,0,0,0,0,0,0,-1,1777,680,14.8136,-4.35679
560,344,11.9363,2.14185,0,0,0,0,0,0,0,-1,1784,680,11.9362,-2.14182
567,344,11.397,0.925842,0,0,0,0,0,0,0,-1,1791,680,11.397,-0.92583
574,344,10.0004,0.504639,0,0,0,0,0,0,0,-1,1798,680,10.0004,-0.504645
581,344,13.6709,-0.969604,0,0,0,0,0,0,0,-1,1805,680,13.6709,0.969629
588,344,16.1447,-3.15948,0,0,0,0,0,0,0,-1,1812,680,16.1447,3.15946
595,344,40.4114,-14.3792,0,0,0,0,0,0,0,-1,1819,680,40.4114,14.3791
602,344,40.5907,-13.3211,0.000891332,-0.000646232,-0.000192241,0.000915003,-0.000669904,-0.122517,0.000918686,0.0336828,1826,680,40.5907,13.3211
609,344,40.4431,-12.4267,0.00123573,-0.000368278,2.22204e-05,0.00123603,-0.000368586,0.0138496,0.000970502,0.0172836,1833,680,40.4431,12.4267
616,344,40.359,-11.4713,0.00139964,-6.09215e-05,0.000245284,0.00143973,-0.000101014,0.162019,0.000995201,0.0246011,1840,680,40.359,11.4713
623,344,40.3318,-10.5297,0.00153479,0.00027199,0.000421011,0.00166228,0.000144498,0.294044,0.0010633,0.020775,1847,680,40.3318,10.5297
630,344,40.2727,-9.59845,0.00167616,0.000634434,0.000611055,0.00195822,0.000352373,0.432455,0.00120532,0.0261963,1854,680,40.2728,9.59845
637,344,40.2036,-8.61261,0.00180855,0.000983248,0.000749526,0.00225151,0.000540288,0.533766,0.00135724,0.0254617,1861,680,40.2036,8.61258
644,344,40.1558,-7.64441,0.00193841,0.00131233,0.000841576,0.00252328,0.000727461,0.607342,0.00149971,0.0176223,1868,680,40.1558,7.64441
651,344,40.0852,-6.68958,0.00213475,0.00166523,0.000909729,0.00283952,0.000960458,0.659124,0.00166775,0.0121778,1875,680,40.0852,6.68955
658,344,40.0269,-5.63385,0.00239131,0.00196943,0.00091641,0.00312074,0.00124,0.67228,0.00181438,0.0285766,1882,680,40.0268,5.63387
665,344,39.8263,-4.71802,0.00299591,0.00220427,0.000863746,0.00355021,0.00164997,0.570546,0.00205141,0.048787,1889,680,39.8263,4.71802
672,344,40.0291,-4.21375,0,0,0,0,0,0,0,-1,1896,680,40.0291,4.21374
679,344,36.7468,-2.59857,0,0,0,0,0,0,0,-1,1903,680,36.7468,2.59857
686,344,15.024,1.82709,0,0,0,0,0,0,0,-1,1910,680,15.024,-1.82706
693,344,12.4362,-1.42346,0,0,0,0,0,0,0,-1,1917,680,12.4361,1.42348
700,344,17.5396,2.61206,0,0,0,0,0,0,0,-1,1924,680,17.5396,-2.61204
707,344,18.5829,3.29352,0,0,0,0,0,0,0,-1,1931,680,18.5828,-3.2935
714,344,0,0,0,0,0,0,0,0,0,-1,1938,680,0,0
721,344,0,0,0,0,0,0,0,0,0,-1,1945,680,0,0
728,344,0,0,0,0,0,0,0,0,0,-1,1952,680,0,0
735,344,0,0,0,0,0,0,0,0,0,-1,1959,680,0,0
742,344,0,0,0,0,0,0,0,0,0,-1,1966,680,0,0
749,344,0,0,0,0,0,0,0,0,0,-1,1973,680,0,0
756,344,0,0,0,0,0,0,0,0,0,-1,1980,680,0,0
763,344,0,0,0,0,0,0,0,0,0,-1,1987,680,0,0
770,344,0,0,0,0,0,0,0,0,0,-1,1994,680,0,0
777,344,0,0,0,0,0,0,0,0,0,-1,2001,680,0,0
784,344,0,0,0,0,0,0,0,0,0,-1,2008,680,0,0
791,344,0,0,0,0,0,0,0,0,0,-1,2015,680,0,0
798,344,0,0,0,0,0,0,0,0,0,-1,2022,680,0,0
805,344,0,0,0,0,0,0,0,0,0,-1,2029,680,0,0
812,344,0,0,0,0,0,0,0,0,0,-1,2036,680,0,0
-700,337,0,0,0,0,0,0,0,0,0,-1,524,687,0,0
-693,337,0,0,0,0,0,0,0,0,0,-1,531,687,0,0
-686,337,0,0,0,0,0,0,0,0,0,-1,538,687,0,0
-679,337,0,0,0,0,0,0,0,0,0,-1,545,687,0,0
-672,337,0,0,0,0,0,0,0,0,0,-1,552,687,0,0
-665,337,0,0,0,0,0,0,0,0,0,-1,559,687,0,0
-658,337,0,0,0,0,0,0,0,0,0,-1,566,687,0,0
-651,337,0,0,0,0,0,0,0,0,0,-1,573,687,0,0
-644,337,0,0,0,0,0,0,0,0,0,-1,580,687,0,0
-637,337,0,0,0,0,0,0,0,0,0,-1,587,687,0,0
-630,337,0,0,0,0,0,0,0,0,0,-1,594,687,0,0
-623,337,0,0,0,0,0,0,0,0,0,-1,601,687,0,0
-616,337,0,0,0,0,0,0,0,0,0,-1,608,687,0,0
-609,337,0,0,0,0,0,0,0,0,0,-1,615,687,0,0
-602,337,0,0,0,0,0,0,0,0,0,-1,622,687,0,0
-595,337,0,0,0,0,0,0,0,0,0,-1,629,687,0,0
-588,337,-10.8413,1.27863,0,0,0,0,0,0,0,-1,636,687,-10.8413,-1.27861
-581,337,-11.2157,1.31567,0,0,0,0,0,0,0,-1,643,687,-11.2157,-1.3157
-574,337,-6.03339,2.0321,0,0,0,0,0,0,0,-1,650,687,-6.03337,-2.03213
-567,337,-13.8102,1.56787,0,0,0,0,0,0,0,-1,657,687,-13.8102,-1.56789
-560,337,-15.5435,2.34247,0,0,0,0,0,0,0,-1,664,687,-15.5435,-2.34247
-553,337,-18.0128,1.12927,0,0,0,0,0,0,0,-1,671,687,-18.0128,-1.12926
-546,337,-18.0244,-2.03845,0,0,0,0,0,0,0,-1,678,687,-18.0244,2.03846
-539,337,-19.2426,-3.53815,0,0,0,0,0,0,0,-1,685,687,-19.2426,3.53813
-532,337,-25.08,-5.89874,0,0,0,0,0,0,0,-1,692,687,-25.08,5.89874
-525,337,-25.1016,-6.94543,0.003101,0.00292865,-0.00267479,0.005691,0.000338647,-0.769295,0.00368631,0.022165,699,687,-25.1015,6.94542
-518,337,-25.0935,-7.9198,0.00255731,0.00170372,-0.00176316,0.0039446,0.000316436,-0.666652,0.00253086,0.0244019,706,687,-25.0935,7.9198
-511,337,-25.1796,-8.91992,0.00211835,0.000818906,-0.00106421,0.00271549,0.00022176,-0.511339,0.00174112,0.0252215,713,687,-25.1796,8.91991
-504,337,-25.2487,-9.87927,0.00168069,0.000166127,-0.00051997,0.00184202,4.79922e-06,-0.300847,0.00122642,0.024959,720,687,-25.2487,9.87926
-497,337,-25.2697,-10.8253,0.00131885,-0.000276535,-0.000122451,0.00132819,-0.000285879,-0.0761588,0.000994546,0.0185894,727,687,-25.2697,10.8252
-490,337,-25.3282,-11.7681,0.00105916,-0.000459508,5.80553e-05,0.00106138,-0.000461724,0.0381534,0.000901796,0.016304,734,687,-25.3282,11.7681
-483,337,-25.3701,-12.7302,0.00089046,-0.00038844,3.83535e-05,0.00089161,-0.000389589,0.0299536,0.000758393,0.0161827,741,687,-25.3701,12.7302
-476,337,-25.4348,-13.716,0.000813941,-0.000148086,-0.000211493,0.000858383,-0.000192528,-0.207121,0.000646065,0.0195727,748,687,-25.4348,13.716
-469,337,-25.4493,-14.7654,0,0,0,0,0,0,0,-1,755,687,-25.4493,14.7654
-462,337,-14.186,-8.89264,0,0,0,0,0,0,0,-1,762,687,-14.186,8.89266
-455,337,-6.00574,-3.12933,0,0,0,0,0,0,0,-1,769,687,-6.00576,3.12934
-448,337,-5.30627,-2.07202,0,0,0,0,0,0,0,-1,776,687,-5.30628,2.07205
-441,337,-4.24762,-1.49597,0,0,0,0,0,0,0,-1,783,687,-4.24762,1.49598
-434,337,-6.86908,1.37531,0,0,0,0,0,0,0,-1,790,687,-6.86908,-1.3753
-427,337,-9.92004,2.487,0,0,0,0,0,0,0,-1,797,687,-9.92002,-2.48701
-420,337,-2.95996,-1.76697,0,0,0,0,0,0,0,-1,804,687,-2.95998,1.76696
-413,337,-1.29169,-1.99487,0,0,0,0,0,0,0,-1,811,687,-1.29171,1.9949
-406,337,-1.02356,-1.89563,0,0,0,0,0,0,0,-1,818,687,-1.02357,1.89564
-399,337,-0.472839,-2.21338,0,0,0,0,0,0,0,-1,825,687,-0.472837,2.2134
-392,337,0,0,0,0,0,0,0,0,0,-1,832,687,0,0
-385,337,0,0,0,0,0,0,0,0,0,-1,839,687,0,0
-378,337,0,0,0,0,0,0,0,0,0,-1,846,687,0,0
-371,337,0,0,0,0,0,0,0,0,0,-1,853,687,0,0
-364,337,0,0,0,0,0,0,0,0,0,-1,860,687,0,0
-357,337,0,0,0,0,0,0,0,0,0,-1,867,687,0,0
-350,337,0,0,0,0,0,0,0,0,0,-1,874,687,0,0
-343,337,0,0,0,0,0,0,0,0,0,-1,881,687,0,0
-336,337,0,0,0,0,0,0,0,0,0,-1,888,687,0,0
-329,337,0,0,0,0,0,0,0,0,0,-1,895,687,0,0
-322,337,0,0,0,0,0,0,0,0,0,-1,902,687,0,0
-315,337,0,0,0,0,0,0,0,0,0,-1,909,687,0,0
-308,337,0,0,0,0,0,0,0,0,0,-1,916,687,0,0
-301,337,0,0,0,0,0,0,0,0,0,-1,923,687,0,0
-294,337,0,0,0,0,0,0,0,0,0,-1,930,687,0,0
-287,337,0,0,0,0,0,0,0,0,0,-1,937,687,0,0
-280,337,0,0,0,0,0,0,0,0,0,-1,944,687,0,0
-273,337,0,0,0,0,0,0,0,0,0,-1,951,687,0,0
-266,337,0,0,0,0,0,0,0,0,0,-1,958,687,0,0
-259,337,0,0,0,0,0,0,0,0,0,-1,965,687,0,0
-252,337,0,0,0,0,0,0,0,0,0,-1,972,687,0,0
-245,337,0,0,0,0,0,0,0,0,0,-1,979,687,0,0
-238,337,0,0,0,0,0,0,0,0,0,-1,986,687,0,0
-231,337,0,0,0,0,0,0,0,0,0,-1,993,687,0,0
-224,337,0,0,0,0,0,0,0,0,0,-1,1000,687,0,0
-217,337,0,0,0,0,0,0,0,0,0,-1,1007,687,0,0
-210,337,0,0,0,0,0,0,0,0,0,-1,1014,687,0,0
-203,337,0,0,0,0,0,0,0,0,0,-1,1021,687,0,0
-196,337,0,0,0,0,0,0,0,0,0,-1,1028,687,0,0
-189,337,0,0,0,0,0,0,0,0,0,-1,1035,687,0,0
-182,337,0,0,0,0,0,0,0,0,0,-1,1042,687,0,0
-175,337,0,0,0,0,0,0,0,0,0,-1,1049,687,0,0
-168,337,0,0,0,0,0,0,0,0,0,-1,1056,687,0,0
-161,337,0,0,0,0,0,0,0,0,0,-1,1063,687,0,0
-154,337,0,0,0,0,0,0,0,0,0,-1,1070,687,0,0
-147,337,0,0,0,0,0,0,0,0,0,-1,1077,687,0,0
-140,337,0,0,0,0,0,0,0,0,0,-1,1084,687,0,0
-133,337,0,0,0,0,0,0,0,0,0,-1,1091,687,0,0
-126,337,0,0,0,0,0,0,0,0,0,-1,1098,687,0,0
-119,337,0,0,0,0,0,0,0,0,0,-1,1105,687,0,0
-112,337,0,0,0,0,0,0,0,0,0,-1,1112,687,0,0
-105,337,0,0,0,0,0,0,0,0,0,-1,1119,687,0,0
-98,337,0,0,0,0,0,0,0,0,0,-1,1126,687,0,0
-91,337,0,0,0,0,0,0,0,0,0,-1,1133,687,0,0
-84,337,0,0,0,0,0,0,0,0,0,-1,1140,687,0,0
-77,337,0,0,0,0,0,0,0,0,0,-1,1147,687,0,0
-70,337,0,0,0,0,0,0,0,0,0,-1,1154,687,0,0
-63,337,0,0,0,0,0,0,0,0,0,-1,1161,687,0,0
-56,337,0,0,0,0,0,0,0,0,0,-1,1168,687,0,0
-49,337,0,0,0,0,0,0,0,0,0,-1,1175,687,0,0
-42,337,0,0,0,0,0,0,0,0,0,-1,1182,687,0,0
-35,337,0,0,0,0,0,0,0,0,0,-1,1189,687,0,0
-28,337,0,0,0,0,0,0,0,0,0,-1,1196,687,0,0
-21,337,0,0,0,0,0,0,0,0,0,-1,1203,687,0,0
-14,337,0,0,0,0,0,0,0,0,0,-1,1210,687,0,0
-7,337,0,0,0,0,0,0,0,0,0,-1,1217,687,0,0
0,337,0,0,0,0,0,0,0,0,0,-1,1224,687,0,0
7,337,0,0,0,0,0,0,0,0,0,-1,1231,687,0,0
14,337,0,0,0,0,0,0,0,0,0,-1,1238,687,0,0
21,337,0,0,0,0,0,0,0,0,0,-1,1245,687,0,0
28,337,0,0,0,0,0,0,0,0,0,-1,1252,687,0,0
35,337,0,0,0,0,0,0,0,0,0,-1,1259,687,0,0
42,337,0,0,0,0,0,0,0,0,0,-1,1266,687,0,0
49,337,0,0,0,0,0,0,0,0,0,-1,1273,687,0,0
56,337,0,0,0,0,0,0,0,0,0,-1,1280,687,0,0
63,337,0,0,0,0,0,0,0,0,0,-1,1287,687,0,0
70,337,0,0,0,0,0,0,0,0,0,-1,1294,687,0,0
77,337,0,0,0,0,0,0,0,0,0,-1,1301,687,0,0
84,337,0,0,0,0,0,0,0,0,0,-1,1308,687,0,0
91,337,0,0,0,0,0,0,0,0,0,-1,1315,687,0,0
98,337,0,0,0,0,0,0,0,0,0,-1,1322,687,0,0
105,337,0,0,0,0,0,0,0,0,0,-1,1329,687,0,0
112,337,0,0,0,0,0,0,0,0,0,-1,1336,687,0,0
119,337,0,0,0,0,0,0,0,0,0,-1,1343,687,0,0
126,337,0,0,0,0,0,0,0,0,0,-1,1350,687,0,0
133,337,0,0,0,0,0,0,0,0,0,-1,1357,687,0,0
140,337,0,0,0,0,0,0,0,0,0,-1,1364,687,0,0
147,337,0,0,0,0,0,0,0,0,0,-1,1371,687,0,0
154,337,0,0,0,0,0,0,0,0,0,-1,1378,687,0,0
161,337,0,0,0,0,0,0,0,0,0,-1,1385,687,0,0
168,337,0,0,0,0,0,0,0,0,0,-1,1392,687,0,0
175,337,0,0,0,0,0,0,0,0,0,-1,1399,687,0,0
182,337,0,0,0,0,0,0,0,0,0,-1,1406,687,0,0
189,337,0,0,0,0,0,0,0,0,0,-1,1413,687,0,0
196,337,0,0,0,0,0,0,0,0,0,-1,1420,687,0,0
203,337,0,0,0,0,0,0,0,0,0,-1,1427,687,0,0
210,337,0,0,0,0,0,0,0,0,0,-1,1434,687,0,0
217,337,0,0,0,0,0,0,0,0,0,-1,1441,687,0,0
224,337,0,0,0,0,0,0,0,0,0,-1,1448,687,0,0
231,337,0,0,0,0,0,0,0,0,0,-1,1455,687,0,0
238,337,0,0,0,0,0,0,0,0,0,-1,1462,687,0,0
245,337,0,0,0,0,0,0,0,0,0,-1,1469,687,0,0
252,337,0,0,0,0,0,0,0,0,0,-1,1476,687,0,0
259,337,0,0,0,0,0,0,0,0,0,-1,1483,687,0,0
266,337,0,0,0,0,0,0,0,0,0,-1,1490,687,0,0
273,337,0,0,0,0,0,0,0,0,0,-1,1497,687,0,0
280,337,0,0,0,0,0,0,0,0,0,-1,1504,687,0,0
287,337,0,0,0,0,0,0,0,0,0,-1,1511,687,0,0
294,337,0,0,0,0,0,0,0,0,0,-1,1518,687,0,0
301,337,0,0,0,0,0,0,0,0,0,-1,1525,687,0,0
308,337,0,0,0,0,0,0,0,0,0,-1,1532,687,0,0
315,337,0,0,0,0,0,0,0,0,0,-1,1539,687,0,0
322,337,0,0,0,0,0,0,0,0,0,-1,1546,687,0,0
329,337,0,0,0,0,0,0,0,0,0,-1,1553,687,0,0
336,337,0,0,0,0,0,0,0,0,0,-1,1560,687,0,0
343,337,0,0,0,0,0,0,0,0,0,-1,1567,687,0,0
350,337,0,0,0,0,0,0,0,0,0,-1,1574,687,0,0
357,337,0,0,0,0,0,0,0,0,0,-1,1581,687,0,0
364,337,0,0,0,0,0,0,0,0,0,-1,1588,687,0,0
371,337,0,0,0,0,0,0,0,0,0,-1,1595,687,0,0
378,337,0,0,0,0,0,0,0,0,0,-1,1602,687,0,0
385,337,0,0,0,0,0,0,0,0,0,-1,1609,687,0,0
392,337,0,0,0,0,0,0,0,0,0,-1,1616,687,0,0
399,337,0,0,0,0,0,0,0,0,0,-1,1623,687,0,0
406,337,0,0,0,0,0,0,0,0,0,-1,1630,687,0,0
413,337,0,0,0,0,0,0,0,0,0,-1,1637,687,0,0
420,337,0,0,0,0,0,0,0,0,0,-1,1644,687,0,0
427,337,0,0,0,0,0,0,0,0,0,-1,1651,687,0,0
434,337,0,0,0,0,0,0,0,0,0,-1,1658,687,0,0
441,337,0,0,0,0,0,0,0,0,0,-1,1665,687,0,0
448,337,0,0,0,0,0,0,0,0,0,-1,1672,687,0,0
455,337,0,0,0,0,0,0,0,0,0,-1,1679,687,0,0
462,337,0,0,0,0,0,0,0,0,0,-1,1686,687,0,0
469,337,0,0,0,0,0,0,0,0,0,-1,1693,687,0,0
476,337,0,0,0,0,0,0,0,0,0,-1,1700,687,0,0
483,337,0,0,0,0,0,0,0,0,0,-1,1707,687,0,0
490,337,0,0,0,0,0,0,0,0,0,-1,1714,687,0,0
497,337,0,0,0,0,0,0,0,0,0,-1,1721,687,0,0
504,337,0,0,0,0,0,0,0,0,0,-1,1728,687,0,0
511,337,0,0,0,0,0,0,0,0,0,-1,1735,687,0,0
518,337,18.0369,1.64581,0,0,0,0,0,0,0,-1,1742,687,18.0368,-1.64581
525,337,31.0717,2.13745,0,0,0,0,0,0,0,-1,1749,687,31.0717,-2.13747
532,337,31.5126,2.13904,0,0,0,0,0,0,0,-1,1756,687,31.5125,-2.13905
539,337,31.9684,2.15594,0,0,0,0,0,0,0,-1,1763,687,31.9684,-2.15596
546,337,32.3584,1.43719,0,0,0,0,0,0,0,-1,1770,687,32.3585,-1.43722
553,337,32.1809,1.36395,0,0,0,0,0,0,0,-1,1777,687,32.181,-1.36396
560,337,18.4053,3.62793,0,0,0,0,0,0,0,-1,1784,687,18.4052,-3.6279
567,337,11.9288,1.38776,0,0,0,0,0,0,0,-1,1791,687,11.9288,-1.38777
574,337,10.704,1.19476,0,0,0,0,0,0,0,-1,1798,687,10.704,-1.19478
581,337,8.50427,0.561768,0,0,0,0,0,0,0,-1,1805,687,8.5043,-0.561754
588,337,8.5885,-0.0536499,0,0,0,0,0,0,0,-1,1812,687,8.58844,0.0536788
595,337,41.1992,-14.4067,0,0,0,0,0,0,0,-1,1819,687,41.1992,14.4066
602,337,41.4291,-13.252,0.00121484,-0.000866953,-0.000119208,0.00122164,-0.000873757,-0.057014,0.00121532,0.0445695,1826,687,41.4291,13.2519
609,337,41.3882,-12.3266,0.00150822,-0.000728968,4.6833e-05,0.0015092,-0.000729948,0.0209216,0.00131861,0.0227376,1833,687,41.3881,12.3266
616,337,41.3268,-11.3859,0.00157006,-0.000525222,0.000257581,0.00160126,-0.000556422,0.120543,0.00129351,0.0181228,1840,687,41.3268,11.3859
623,337,41.2759,-10.4507,0.00155179,-0.000227075,0.000383841,0.00163108,-0.000306365,0.203706,0.00120259,0.0158587,1847,687,41.2759,10.4507
630,337,41.233,-9.50018,0.00160316,8.85159e-05,0.000525978,0.00176789,-7.6219e-05,0.30352,0.00120481,0.0201277,1854,687,41.2331,9.5002
637,337,41.2031,-8.53522,0.00167952,0.000423212,0.000643609,0.0019507,0.000152027,0.398776,0.00125287,0.0183573,1861,687,41.2031,8.53524
644,337,41.1199,-7.54767,0.0017994,0.000771062,0.000746736,0.00219186,0.000378598,0.483896,0.00135282,0.0119106,1868,687,41.1199,7.54766
651,337,41.0146,-6.61316,0.00200047,0.00115678,0.000839557,0.0025182,0.000639046,0.552592,0.00151151,0.0103522,1875,687,41.0147,6.61314
658,337,40.9749,-5.66083,0.00232011,0.00155456,0.000934977,0.00294763,0.000927042,0.591109,0.00174042,0.0125662,1882,687,40.9748,5.66084
665,337,40.953,-4.72119,0.00297029,0.00195051,0.00104173,0.00362022,0.00130058,0.557805,0.00211756,0.0173973,1889,687,40.953,4.72117
672,337,40.932,-3.81146,0.00395044,0.00250659,0.00109393,0.00453919,0.00191784,0.493732,0.00263117,0.0437731,1896,687,40.932,3.81145
679,337,41.4054,-2.90735,0,0,0,0,0,0,0,-1,1903,687,41.4054,2.90735
686,337,18.5614,1.68597,0,0,0,0,0,0,0,-1,1910,687,18.5614,-1.68598
693,337,16.5415,2.21411,0,0,0,0,0,0,0,-1,1917,687,16.5415,-2.2141
700,337,17.2661,2.44379,0,0,0,0,0,0,0,-1,1924,687,17.2661,-2.44378
707,337,17.3544,5.61853,0,0,0,0,0,0,0,-1,1931,687,17.3543,-5.61851
714,337,0,0,0,0,0,0,0,0,0,-1,1938,687,0,0
721,337,0,0,0,0,0,0,0,0,0,-1,1945,687,0,0
728,337,0,0,0,0,0,0,0,0,0,-1,1952,687,0,0
735,337,0,0,0,0,0,0,0,0,0,-1,1959,687,0,0
742,337,0,0,0,0,0,0,0,0,0,-1,1966,687,0,0
749,337,0,0,0,0,0,0,0,0,0,-1,1973,687,0,0
756,337,0,0,0,0,0,0,0,0,0,-1,1980,687,0,0
763,337,0,0,0,0,0,0,0,0,0,-1,1987,687,0,0
770,337,0,0,0,0,0,0,0,0,0,-1,1994,687,0,0
777,337,0,0,0,0,0,0,0,0,0,-1,2001,687,0,0
784,337,0,0,0,0,0,0,0,0,0,-1,2008,687,0,0
791,337,0,0,0,0,0,0,0,0,0,-1,2015,687,0,0
798,337,0,0,0,0,0,0,0,0,0,-1,2022,687,0,0
805,337,0,0,0,0,0,0,0,0,0,-1,2029,687,0,0
812,337,0,0,0,0,0,0,0,0,0,-1,2036,687,0,0
-700,330,0,0,0,0,0,0,0,0,0,-1,524,694,0,0
-693,330,0,0,0,0,0,0,0,0,0,-1,531,694,0,0
-686,330,0,0,0,0,0,0,0,0,0,-1,538,694,0,0
-679,330,0,0,0,0,0,0,0,0,0,-1,545,694,0,0
-672,330,0,0,0,0,0,0,0,0,0,-1,552,694,0,0
-665,330,0,0,0,0,0,0,0,0,0,-1,559,694,0,0
-658,330,0,0,0,0,0,0,0,0,0,-1,566,694,0,0
-651,330,0,0,0,0,0,0,0,0,0,-1,573,694,0,0
-644,330,0,0,0,0,0,0,0,0,0,-1,580,694,0,0
-637,330,0,0,0,0,0,0,0,0,0,-1,587,694,0,0
-630,330,0,0,0,0,0,0,0,0,0,-1,594,694,0,0
-623,330,0,0,0,0,0,0,0,0,0,-1,601,694,0,0
-616,330,0,0,0,0,0,0,0,0,0,-1,608,694,0,0
-609,330,0,0,0,0,0,0,0,0,0,-1,615,694,0,0
-602,330,0,0,0,0,0,0,0,0,0,-1,622,694,0,0
-595,330,-4.67883,1.65515,0,0,0,0,0,0,0,-1,629,694,-4.67881,-1.65515
-588,330,-8.5047,2.67346,0,0,0,0,0,0,0,-1,636,694,-8.50469,-2.67348
-581,330,-12.4227,0.947083,0,0,0,0,0,0,0,-1,643,694,-12.4227,-0.947109
-574,330,-9.02118,1.87952,0,0,0,0,0,0,0,-1,650,694,-9.02115,-1.87953
-567,330,-8.35577,0.909973,0,0,0,0,0,0,0,-1,657,694,-8.35575,-0.909945
-560,330,-13.1036,-0.584656,0,0,0,0,0,0,0,-1,664,694,-13.1035,0.584658
-553,330,-17.5484,-1.21545,0,0,0,0,0,0,0,-1,671,694,-17.5484,1.21547
-546,330,-25.6704,-3.69751,0,0,0,0,0,0,0,-1,678,694,-25.6704,3.69749
-539,330,-25.853,-4.75824,0,0,0,0,0,0,0,-1,685,694,-25.853,4.75826
-532,330,-26.0074,-5.92346,0.00293578,0.00391861,-0.00311914,0.00658481,0.000269574,-0.86353,0.00430283,0.0285265,692,694,-26.0074,5.92343
-525,330,-26.0101,-6.95294,0.00257761,0.00249748,-0.00220409,0.00474199,0.000333095,-0.77631,0.00305635,0.0114804,699,694,-26.0102,6.95295
-518,330,-26.0716,-7.89441,0.00219979,0.00136739,-0.00138627,0.00323099,0.000336185,-0.639564,0.00205114,0.0157134,706,694,-26.0716,7.89443
-511,330,-26.1225,-8.86542,0.00181671,0.000515199,-0.000743699,0.00215417,0.000177738,-0.425977,0.00138068,0.0218327,713,694,-26.1225,8.86544
-504,330,-26.1859,-9.81152,0.00138316,-0.000149549,-0.000191217,0.00140665,-0.000173045,-0.122261,0.00100045,0.020458,720,694,-26.1859,9.81154
-497,330,-26.2435,-10.7333,0.00102496,-0.000602449,0.000217775,0.0010536,-0.000631087,0.130753,0.000982799,0.0154244,727,694,-26.2435,10.7333
-490,330,-26.2866,-11.6965,0.000786575,-0.000788062,0.000411985,0.000887852,-0.000889339,0.241047,0.00102606,0.0160866,734,694,-26.2866,11.6965
-483,330,-26.3295,-12.6804,0.000599084,-0.000709345,0.000435015,0.000730512,-0.000840774,0.293404,0.000907927,0.0167236,741,694,-26.3295,12.6804
-476,330,-26.371,-13.7017,0,0,0,0,0,0,0,-1,748,694,-26.3709,13.7018
-469,330,-16.1478,-9.23303,0,0,0,0,0,0,0,-1,755,694,-16.1478,9.23301
-462,330,-7.26733,-3.84833,0,0,0,0,0,0,0,-1,762,694,-7.26731,3.84832
-455,330,-5.04254,-1.79303,0,0,0,0,0,0,0,-1,769,694,-5.04252,1.79305
-448,330,-4.89886,-1.66156,0,0,0,0,0,0,0,-1,776,694,-4.89886,1.66157
-441,330,-5.30676,-2.34045,0,0,0,0,0,0,0,-1,783,694,-5.30679,2.34048
-434,330,-7.20428,1.00024,0,0,0,0,0,0,0,-1,790,694,-7.20431,-1.00027
-427,330,-16.0428,2.89258,0,0,0,0,0,0,0,-1,797,694,-16.0428,-2.89259
-420,330,-29.0331,0.271606,0,0,0,0,0,0,0,-1,804,694,-29.0331,-0.27158
-413,330,-29.0896,0.56366,0,0,0,0,0,0,0,-1,811,694,-29.0896,-0.563671
-406,330,-1.65375,-1.74371,0,0,0,0,0,0,0,-1,818,694,-1.65375,1.74371
-399,330,0,0,0,0,0,0,0,0,0,-1,825,694,0,0
-392,330,0,0,0,0,0,0,0,0,0,-1,832,694,0,0
-385,330,0,0,0,0,0,0,0,0,0,-1,839,694,0,0
-378,330,0,0,0,0,0,0,0,0,0,-1,846,694,0,0
-371,330,0,0,0,0,0,0,0,0,0,-1,853,694,0,0
-364,330,0,0,0,0,0,0,0,0,0,-1,860,694,0,0
-357,330,0,0,0,0,0,0,0,0,0,-1,867,694,0,0
-350,330,0,0,0,0,0,0,0,0,0,-1,874,694,0,0
-343,330,0,0,0,0,0,0,0,0,0,-1,881,694,0,0
-336,330,0,0,0,0,0,0,0,0,0,-1,888,694,0,0
-329,330,0,0,0,0,0,0,0,0,0,-1,895,694,0,0
-322,330,0,0,0,0,0,0,0,0,0,-1,902,694,0,0
-315,330,0,0,0,0,0,0,0,0,0,-1,909,694,0,0
-308,330,0,0,0,0,0,0,0,0,0,-1,916,694,0,0
-301,330,0,0,0,0,0,0,0,0,0,-1,923,694,0,0
-294,330,0,0,0,0,0,0,0,0,0,-1,930,694,0,0
-287,330,0,0,0,0,0,0,0,0,0,-1,937,694,0,0
-280,330,0,0,0,0,0,0,0,0,0,-1,944,694,0,0
-273,330,0,0,0,0,0,0,0,0,0,-1,951,694,0,0
-266,330,0,0,0,0,0,0,0,0,0,-1,958,694,0,0
-259,330,0,0,0,0,0,0,0,0,0,-1,965,694,0,0
-252,330,0,0,0,0,0,0,0,0,0,-1,972,694,0,0
-245,330,0,0,0,0,0,0,0,0,0,-1,979,694,0,0
-238,330,0,0,0,0,0,0,0,0,0,-1,986,694,0,0
-231,330,0,0,0,0,0,0,0,0,0,-1,993,694,0,0
-224,330,0,0,0,0,0,0,0,0,0,-1,1000,694,0,0
-217,330,0,0,0,0,0,0,0,0,0,-1,1007,694,0,0
-210,330,0,0,0,0,0,0,0,0,0,-1,1014,694,0,0
-203,330,0,0,0,0,0,0,0,0,0,-1,1021,694,0,0
-196,330,0,0,0,0,0,0,0,0,0,-1,1028,694,0,0
-189,330,0,0,0,0,0,0,0,0,0,-1,1035,694,0,0
-182,330,0,0,0,0,0,0,0,0,0,-1,1042,694,0,0
-175,330,0,0,0,0,0,0,0,0,0,-1,1049,694,0,0
-168,330,0,0,0,0,0,0,0,0,0,-1,1056,694,0,0
-161,330,0,0,0,0,0,0,0,0,0,-1,1063,694,0,0
-154,330,0,0,0,0,0,0,0,0,0,-1,1070,694,0,0
-147,330,0,0,0,0,0,0,0,0,0,-1,1077,694,0,0
-140,330,0,0,0,0,0,0,0,0,0,-1,1084,694,0,0
-133,330,0,0,0,0,0,0,0,0,0,-1,1091,694,0,0
-126,330,0,0,0,0,0,0,0,0,0,-1,1098,694,0,0
-119,330,0,0,0,0,0,0,0,0,0,-1,1105,694,0,0
-112,330,0,0,0,0,0,0,0,0,0,-1,1112,694,0,0
-105,330,0,0,0,0,0,0,0,0,0,-1,1119,694,0,0
-98,330,0,0,0,0,0,0,0,0,0,-1,1126,694,0,0
-91,330,0,0,0,0,0,0,0,0,0,-1,1133,694,0,0
-84,330,0,0,0,0,0,0,0,0,0,-1,1140,694,0,0
-77,330,0,0,0,0,0,0,0,0,0,-1,1147,694,0,0
-70,330,0,0,0,0,0,0,0,0,0,-1,1154,694,0,0
-63,330,0,0,0,0,0,0,0,0,0,-1,1161,694,0,0
-56,330,0,0,0,0,0,0,0,0,0,-1,1168,694,0,0
-49,330,0,0,0,0,0,0,0,0,0,-1,1175,694,0,0
-42,330,0,0,0,0,0,0,0,0,0,-1,1182,694,0,0
-35,330,0,0,0,0,0,0,0,0,0,-1,1189,694,0,0
-28,330,0,0,0,0,0,0,0,0,0,-1,1196,694,0,0
-21,330,0,0,0,0,0,0,0,0,0,-1,1203,694,0,0
-14,330,0,0,0,0,0,0,0,0,0,-1,1210,694,0,0
-7,330,0,0,0,0,0,0,0,0,0,-1,1217,694,0,0
0,330,0,0,0,0,0,0,0,0,0,-1,1224,694,0,0
7,330,0,0,0,0,0,0,0,0,0,-1,1231,694,0,0
14,330,0,0,0,0,0,0,0,0,0,-1,1238,694,0,0
21,330,0,0,0,0,0,0,0,0,0,-1,1245,694,0,0
28,330,0,0,0,0,0,0,0,0,0,-1,1252,694,0,0
35,330,0,0,0,0,0,0,0,0,0,-1,1259,694,0,0
42,330,0,0,0,0,0,0,0,0,0,-1,1266,694,0,0
49,330,0,0,0,0,0,0,0,0,0,-1,1273,694,0,0
56,330,0,0,0,0,0,0,0,0,0,-1,1280,694,0,0
63,330,0,0,0,0,0,0,0,0,0,-1,1287,694,0,0
70,330,0,0,0,0,0,0,0,0,0,-1,1294,694,0,0
77,330,0,0,0,0,0,0,0,0,0,-1,1301,694,0,0
84,330,0,0,0,0,0,0,0,0,0,-1,1308,694,0,0
91,330,0,0,0,0,0,0,0,0,0,-1,1315,694,0,0
98,330,0,0,0,0,0,0,0,0,0,-1,1322,694,0,0
105,330,0,0,0,0,0,0,0,0,0,-1,1329,694,0,0
112,330,0,0,0,0,0,0,0,0,0,-1,1336,694,0,0
119,330,0,0,0,0,0,0,0,0,0,-1,1343,694,0,0
126,330,0,0,0,0,0,0,0,0,0,-1,1350,694,0,0
133,330,0,0,0,0,0,0,0,0,0,-1,1357,694,0,0
140,330,0,0,0,0,0,0,0,0,0,-1,1364,694,0,0
147,330,0,0,0,0,0,0,0,0,0,-1,1371,694,0,0
154,330,0,0,0,0,0,0,0,0,0,-1,1378,694,0,0
161,330,0,0,0,0,0,0,0,0,0,-1,1385,694,0,0
168,330,0,0,0,0,0,0,0,0,0,-1,1392,694,0,0
175,330,0,0,0,0,0,0,0,0,0,-1,1399,694,0,0
182,330,0,0,0,0,0,0,0,0,0,-1,1406,694,0,0
189,330,0,0,0,0,0,0,0,0,0,-1,1413,694,0,0
196,330,0,0,0,0,0,0,0,0,0,-1,1420,694,0,0
203,330,0,0,0,0,0,0,0,0,0,-1,1427,694,0,0
210,330,0,0,0,0,0,0,0,0,0,-1,1434,694,0,0
217,330,0,0,0,0,0,0,0,0,0,-1,1441,694,0,0
224,330,0,0,0,0,0,0,0,0,0,-1,1448,694,0,0
231,330,0,0,0,0,0,0,0,0,0,-1,1455,694,0,0
238,330,0,0,0,0,0,0,0,0,0,-1,1462,694,0,0
245,330,0,0,0,0,0,0,0,0,0,-1,1469,694,0,0
252,330,0,0,0,0,0,0,0,0,0,-1,1476,694,0,0
259,330,0,0,0,0,0,0,0,0,0,-1,1483,694,0,0
266,330,0,0,0,0,0,0,0,0,0,-1,1490,694,0,0
273,330,0,0,0,0,0,0,0,0,0,-1,1497,694,0,0
280,330,0,0,0,0,0,0,0,0,0,-1,1504,694,0,0
287,330,0,0,0,0,0,0,0,0,0,-1,1511,694,0,0
294,330,0,0,0,0,0,0,0,0,0,-1,1518,694,0,0
301,330,0,0,0,0,0,0,0,0,0,-1,1525,694,0,0
308,330,0,0,0,0,0,0,0,0,0,-1,1532,694,0,0
315,330,0,0,0,0,0,0,0,0,0,-1,1539,694,0,0
322,330,0,0,0,0,0,0,0,0,0,-1,1546,694,0,0
329,330,0,0,0,0,0,0,0,0,0,-1,1553,694,0,0
336,330,0,0,0,0,0,0,0,0,0,-1,1560,694,0,0
343,330,0,0,0,0,0,0,0,0,0,-1,1567,694,0,0
350,330,0,0,0,0,0,0,0,0,0,-1,1574,694,0,0
357,330,0,0,0,0,0,0,0,0,0,-1,1581,694,0,0
364,330,0,0,0,0,0,0,0,0,0,-1,1588,694,0,0
371,330,0,0,0,0,0,0,0,0,0,-1,1595,694,0,0
378,330,0,0,0,0,0,0,0,0,0,-1,1602,694,0,0
385,330,0,0,0,0,0,0,0,0,0,-1,1609,694,0,0
392,330,0,0,0,0,0,0,0,0,0,-1,1616,694,0,0
399,330,0,0,0,0,0,0,0,0,0,-1,1623,694,0,0
406,330,0,0,0,0,0,0,0,0,0,-1,1630,694,0,0
413,330,0,0,0,0,0,0,0,0,0,-1,1637,694,0,0
420,330,0,0,0,0,0,0,0,0,0,-1,1644,694,0,0
427,330,0,0,0,0,0,0,0,0,0,-1,1651,694,0,0
434,330,0,0,0,0,0,0,0,0,0,-1,1658,694,0,0
441,330,0,0,0,0,0,0,0,0,0,-1,1665,694,0,0
448,330,0,0,0,0,0,0,0,0,0,-1,1672,694,0,0
455,330,0,0,0,0,0,0,0,0,0,-1,1679,694,0,0
462,330,0,0,0,0,0,0,0,0,0,-1,1686,694,0,0
469,330,0,0,0,0,0,0,0,0,0,-1,1693,694,0,0
476,330,0,0,0,0,0,0,0,0,0,-1,1700,694,0,0
483,330,0,0,0,0,0,0,0,0,0,-1,1707,694,0,0
490,330,0,0,0,0,0,0,0,0,0,-1,1714,694,0,0
497,330,0,0,0,0,0,0,0,0,0,-1,1721,694,0,0
504,330,0,0,0,0,0,0,0,0,0,-1,1728,694,0,0
511,330,0,0,0,0,0,0,0,0,0,-1,1735,694,0,0
518,330,0,0,0,0,0,0,0,0,0,-1,1742,694,0,0
525,330,30.6694,0.69519,0,0,0,0,0,0,0,-1,1749,694,30.6694,-0.695206
532,330,30.9469,1.32501,0,0,0,0,0,0,0,-1,1756,694,30.9469,-1.32501
539,330,31.5155,1.62506,0,0,0,0,0,0,0,-1,1763,694,31.5155,-1.62507
546,330,31.4187,1.85651,0,0,0,0,0,0,0,-1,1770,694,31.4187,-1.85651
553,330,31.8452,1.81476,0,0,0,0,0,0,0,-1,1777,694,31.8452,-1.81475
560,330,32.2401,2.43225,0,0,0,0,0,0,0,-1,1784,694,32.2401,-2.43227
567,330,18.0321,3.98578,0,0,0,0,0,0,0,-1,1791,694,18.0321,-3.98576
574,330,12.0454,2.1662,0,0,0,0,0,0,0,-1,1798,694,12.0455,-2.16618
581,330,11.4215,4.50836,0,0,0,0,0,0,0,-1,1805,694,11.4215,-4.50837
588,330,6.45667,-0.0630493,0,0,0,0,0,0,0,-1,1812,694,6.45661,0.0630695
595,330,8.23193,-0.258484,0,0,0,0,0,0,0,-1,1819,694,8.23188,0.258459
602,330,42.0784,-13.4122,0,0,0,0,0,0,0,-1,1826,694,42.0784,13.4122
609,330,42.3018,-12.2923,0.00200691,-0.000942705,0.000194968,0.00201974,-0.000955536,0.0657183,0.00175402,0.0274065,1833,694,42.3018,12.2923
616,330,42.2959,-11.3595,0.00188478,-0.000815313,0.000357845,0.0019314,-0.000861934,0.129552,0.00165166,0.011543,1840,694,42.2959,11.3595
623,330,42.2097,-10.3987,0.00165765,-0.000520725,0.000419531,0.00173565,-0.000598729,0.183832,0.00140002,0.0135806,1847,694,42.2097,10.3988
630,330,42.1741,-9.42419,0.0015937,-0.000242659,0.000508038,0.00172488,-0.000373839,0.25269,0.00129268,0.0142926,1854,694,42.1741,9.42419
637,330,42.15,-8.46246,0.00159635,7.87662e-05,0.000598487,0.00180397,-0.000128854,0.333917,0.00124782,0.0140375,1861,694,42.1501,8.46249
644,330,42.0476,-7.4989,0.00167717,0.000435594,0.00070694,0.0019972,0.000115561,0.425098,0.00129467,0.00893843,1868,694,42.0476,7.49893
651,330,41.9816,-6.53992,0.00185021,0.000837709,0.000828374,0.00231478,0.00037314,0.511113,0.00143507,0.0119964,1875,694,41.9816,6.53989
658,330,41.9105,-5.59436,0.00217474,0.00128473,0.00098863,0.0028139,0.000645565,0.57392,0.00170205,0.0131415,1882,694,41.9105,5.59437
665,330,41.8372,-4.63171,0.00278198,0.00176795,0.00120861,0.00358562,0.000964314,0.586796,0.00214257,0.0120909,1889,694,41.8371,4.6317
672,330,41.9413,-3.61646,0.00366298,0.00242777,0.00146588,0.00463605,0.0014547,0.586023,0.0027378,0.0393009,1896,694,41.9413,3.61647
679,330,42.1896,-2.4801,0,0,0,0,0,0,0,-1,1903,694,42.1895,2.48008
686,330,30.6691,0.582825,0,0,0,0,0,0,0,-1,1910,694,30.6691,-0.582798
693,330,17.3999,2.5976,0,0,0,0,0,0,0,-1,1917,694,17.4,-2.59759
700,330,17.1072,4.13,0,0,0,0,0,0,0,-1,1924,694,17.1071,-4.13002
707,330,16.663,4.88672,0,0,0,0,0,0,0,-1,1931,694,16.6629,-4.88673
714,330,16.5454,5.80896,0,0,0,0,0,0,0,-1,1938,694,16.5454,-5.80899
721,330,0,0,0,0,0,0,0,0,0,-1,1945,694,0,0
728,330,0,0,0,0,0,0,0,0,0,-1,1952,694,0,0
735,330,0,0,0,0,0,0,0,0,0,-1,1959,694,0,0
742,330,0,0,0,0,0,0,0,0,0,-1,1966,694,0,0
749,330,0,0,0,0,0,0,0,0,0,-1,1973,694,0,0
756,330,0,0,0,0,0,0,0,0,0,-1,1980,694,0,0
763,330,0,0,0,0,0,0,0,0,0,-1,1987,694,0,0
770,330,0,0,0,0,0,0,0,0,0,-1,1994,694,0,0
777,330,0,0,0,0,0,0,0,0,0,-1,2001,694,0,0
784,330,0,0,0,0,0,0,0,0,0,-1,2008,694,0,0
791,330,0,0,0,0,0,0,0,0,0,-1,2015,694,0,0
798,330,0,0,0,0,0,0,0,0,0,-1,2022,694,0,0
805,330,0,0,0,0,0,0,0,0,0,-1,2029,694,0,0
812,330,0,0,0,0,0,0,0,0,0,-1,2036,694,0,0
-700,323,0,0,0,0,0,0,0,0,0,-1,524,701,0,0
-693,323,0,0,0,0,0,0,0,0,0,-1,531,701,0,0
-686,323,0,0,0,0,0,0,0,0,0,-1,538,701,0,0
-679,323,0,0,0,0,0,0,0,0,0,-1,545,701,0,0
-672,323,0,0,0,0,0,0,0,0,0,-1,552,701,0,0
-665,323,0,0,0,0,0,0,0,0,0,-1,559,701,0,0
-658,323,0,0,0,0,0,0,0,0,0,-1,566,701,0,0
-651,323,0,0,0,0,0,0,0,0,0,-1,573,701,0,0
-644,323,0,0,0,0,0,0,0,0,0,-1,580,701,0,0
-637,323,0,0,0,0,0,0,0,0,0,-1,587,701,0,0
-630,323,0,0,0,0,0,0,0,0,0,-1,594,701,0,0
-623,323,0,0,0,0,0,0,0,0,0,-1,601,701,0,0
-616,323,0,0,0,0,0,0,0,0,0,-1,608,701,0,0
-609,323,0,0,0,0,0,0,0,0,0,-1,615,701,0,0
-602,323,-4.15833,2.12256,0,0,0,0,0,0,0,-1,622,701,-4.1583,-2.12257
-595,323,-4.052,1.79156,0,0,0,0,0,0,0,-1,629,701,-4.05198,-1.79158
-588,323,-4.07019,1.94543,0,0,0,0,0,0,0,-1,636,701,-4.07019,-1.94542
-581,323,-6.63727,0.562805,0,0,0,0,0,0,0,-1,643,701,-6.63728,-0.56279
-574,323,-6.15887,0.426697,0,0,0,0,0,0,0,-1,650,701,-6.15887,-0.426727
-567,323,-10.0015,0.0371094,0,0,0,0,0,0,0,-1,657,701,-10.0015,-0.037126
-560,323,-16.3503,-1.16956,0,0,0,0,0,0,0,-1,664,701,-16.3503,1.16957
-553,323,-26.8848,-3.17871,0,0,0,0,0,0,0,-1,671,701,-26.8848,3.17873
-546,323,-26.8077,-3.99432,0,0,0,0,0,0,0,-1,678,701,-26.8077,3.99433
-539,323,-26.7701,-4.85651,0.00219,0.00449772,-0.00316917,0.00671655,-2.88286e-05,-0.959983,0.00448734,0.0313214,685,701,-26.7701,4.85648
-532,323,-26.8791,-5.88751,0.00221131,0.00314455,-0.00239931,0.00512219,0.00023367,-0.881439,0.00333963,0.0129241,692,701,-26.8791,5.88749
-525,323,-26.9642,-6.87506,0.00202103,0.00196474,-0.00165386,0.00364698,0.000338793,-0.77689,0.00232663,0.00894991,699,701,-26.9642,6.87508
-518,323,-27.0206,-7.81311,0.0017856,0.000983424,-0.000970508,0.00243464,0.000334391,-0.589448,0.00152391,0.0110917,706,701,-27.0205,7.81308
-511,323,-27.0873,-8.77472,0.00142683,0.000200703,-0.000405028,0.00154854,7.89905e-05,-0.291918,0.00100706,0.0149795,713,701,-27.0873,8.77471
-504,323,-27.1661,-9.71265,0.000968557,-0.000440961,0.000120009,0.000978702,-0.000451106,0.084333,0.000844025,0.0155417,720,701,-27.1661,9.71265
-497,323,-27.1992,-10.6523,0.000578215,-0.000879103,0.000512362,0.000740319,-0.00104121,0.306421,0.00103344,0.0128459,727,701,-27.1992,10.6523
-490,323,-27.2744,-11.6101,0.000322901,-0.00106477,0.000710599,0.000622221,-0.00136409,0.398667,0.00117316,0.0148225,734,701,-27.2744,11.6101
-483,323,-27.3423,-12.5893,9.92959e-05,-0.000957118,0.000775611,0.000509478,-0.0013673,0.486461,0.00112065,0.0335072,741,701,-27.3423,12.5893
-476,323,-27.3981,-13.5713,0,0,0,0,0,0,0,-1,748,701,-27.3981,13.5713
-469,323,-8.33301,-3.64001,0,0,0,0,0,0,0,-1,755,701,-8.33298,3.64
-462,323,-5.29431,-1.45697,0,0,0,0,0,0,0,-1,762,701,-5.29431,1.45699
-455,323,-5.0658,-1.36639,0,0,0,0,0,0,0,-1,769,701,-5.06578,1.3664
-448,323,-4.91608,-1.59601,0,0,0,0,0,0,0,-1,776,701,-4.91606,1.59604
-441,323,-14.4006,0.535217,0,0,0,0,0,0,0,-1,783,701,-14.4006,-0.535203
-434,323,-15.3158,2.479,0,0,0,0,0,0,0,-1,790,701,-15.3158,-2.47898
-427,323,-28.3923,1.16797,0,0,0,0,0,0,0,-1,797,701,-28.3923,-1.16796
-420,323,-28.7292,1.09302,0,0,0,0,0,0,0,-1,804,701,-28.7292,-1.09304
-413,323,-28.7955,1.22418,0,0,0,0,0,0,0,-1,811,701,-28.7956,-1.22419
-406,323,0,0,0,0,0,0,0,0,0,-1,818,701,0,0
-399,323,0,0,0,0,0,0,0,0,0,-1,825,701,0,0
-392,323,0,0,0,0,0,0,0,0,0,-1,832,701,0,0
-385,323,0,0,0,0,0,0,0,0,0,-1,839,701,0,0
-378,323,0,0,0,0,0,0,0,0,0,-1,846,701,0,0
-371,323,0,0,0,0,0,0,0,0,0,-1,853,701,0,0
-364,323,0,0,0,0,0,0,0,0,0,-1,860,701,0,0
-357,323,0,0,0,0,0,0,0,0,0,-1,867,701,0,0
-350,323,0,0,0,0,0,0,0,0,0,-1,874,701,0,0
-343,323,0,0,0,0,0,0,0,0,0,-1,881,701,0,0
-336,323,0,0,0,0,0,0,0,0,0,-1,888,701,0,0
-329,323,0,0,0,0,0,0,0,0,0,-1,895,701,0,0
-322,323,0,0,0,0,0,0,0,0,0,-1,902,701,0,0
-315,323,0,0,0,0,0,0,0,0,0,-1,909,701,0,0
-308,323,0,0,0,0,0,0,0,0,0,-1,916,701,0,0
-301,323,0,0,0,0,0,0,0,0,0,-1,923,701,0,0
-294,323,0,0,0,0,0,0,0,0,0,-1,930,701,0,0
-287,323,0,0,0,0,0,0,0,0,0,-1,937,701,0,0
-280,323,0,0,0,0,0,0,0,0,0,-1,944,701,0,0
-273,323,0,0,0,0,0,0,0,0,0,-1,951,701,0,0
-266,323,0,0,0,0,0,0,0,0,0,-1,958,701,0,0
-259,323,0,0,0,0,0,0,0,0,0,-1,965,701,0,0
-252,323,0,0,0,0,0,0,0,0,0,-1,972,701,0,0
-245,323,0,0,0,0,0,0,0,0,0,-1,979,701,0,0
-238,323,0,0,0,0,0,0,0,0,0,-1,986,701,0,0
-231,323,0,0,0,0,0,0,0,0,0,-1,993,701,0,0
-224,323,0,0,0,0,0,0,0,0,0,-1,1000,701,0,0
-217,323,0,0,0,0,0,0,0,0,0,-1,1007,701,0,0
-210,323,0,0,0,0,0,0,0,0,0,-1,1014,701,0,0
-203,323,0,0,0,0,0,0,0,0,0,-1,1021,701,0,0
-196,323,0,0,0,0,0,0,0,0,0,-1,1028,701,0,0
-189,323,0,0,0,0,0,0,0,0,0,-1,1035,701,0,0
-182,323,0,0,0,0,0,0,0,0,0,-1,1042,701,0,0
-175,323,0,0,0,0,0,0,0,0,0,-1,1049,701,0,0
-168,323,0,0,0,0,0,0,0,0,0,-1,1056,701,0,0
-161,323,0,0,0,0,0,0,0,0,0,-1,1063,701,0,0
-154,323,0,0,0,0,0,0,0,0,0,-1,1070,701,0,0
-147,323,0,0,0,0,0,0,0,0,0,-1,1077,701,0,0
-140,323,0,0,0,0,0,0,0,0,0,-1,1084,701,0,0
-133,323,0,0,0,0,0,0,0,0,0,-1,1091,701,0,0
-126,323,0,0,0,0,0,0,0,0,0,-1,1098,701,0,0
-119,323,0,0,0,0,0,0,0,0,0,-1,1105,701,0,0
-112,323,0,0,0,0,0,0,0,0,0,-1,1112,701,0,0
-105,323,0,0,0,0,0,0,0,0,0,-1,1119,701,0,0
-98,323,0,0,0,0,0,0,0,0,0,-1,1126,701,0,0
-91,323,0,0,0,0,0,0,0,0,0,-1,1133,701,0,0
-84,323,0,0,0,0,0,0,0,0,0,-1,1140,701,0,0
-77,323,0,0,0,0,0,0,0,0,0,-1,1147,701,0,0
-70,323,0,0,0,0,0,0,0,0,0,-1,1154,701,0,0
-63,323,0,0,0,0,0,0,0,0,0,-1,1161,701,0,0
-56,323,0,0,0,0,0,0,0,0,0,-1,1168,701,0,0
-49,323,0,0,0,0,0,0,0,0,0,-1,1175,701,0,0
-42,323,0,0,0,0,0,0,0,0,0,-1,1182,701,0,0
-35,323,0,0,0,0,0,0,0,0,0,-1,1189,701,0,0
-28,323,0,0,0,0,0,0,0,0,0,-1,1196,701,0,0
-21,323,0,0,0,0,0,0,0,0,0,-1,1203,701,0,0
-14,323,0,0,0,0,0,0,0,0,0,-1,1210,701,0,0
-7,323,0,0,0,0,0,0,0,0,0,-1,1217,701,0,0
0,323,0,0,0,0,0,0,0,0,0,-1,1224,701,0,0
7,323,0,0,0,0,0,0,0,0,0,-1,1231,701,0,0
14,323,0,0,0,0,0,0,0,0,0,-1,1238,701,0,0
21,323,0,0,0,0,0,0,0,0,0,-1,1245,701,0,0
28,323,0,0,0,0,0,0,0,0,0,-1,1252,701,0,0
35,323,0,0,0,0,0,0,0,0,0,-1,1259,701,0,0
42,323,0,0,0,0,0,0,0,0,0,-1,1266,701,0,0
49,323,0,0,0,0,0,0,0,0,0,-1,1273,701,0,0
56,323,0,0,0,0,0,0,0,0,0,-1,1280,701,0,0
63,323,0,0,0,0,0,0,0,0,0,-1,1287,701,0,0
70,323,0,0,0,0,0,0,0,0,0,-1,1294,701,0,0
77,323,0,0,0,0,0,0,0,0,0,-1,1301,701,0,0
84,323,0,0,0,0,0,0,0,0,0,-1,1308,701,0,0
91,323,0,0,0,0,0,0,0,0,0,-1,1315,701,0,0
98,323,0,0,0,0,0,0,0,0,0,-1,1322,701,0,0
105,323,0,0,0,0,0,0,0,0,0,-1,1329,701,0,0
112,323,0,0,0,0,0,0,0,0,0,-1,1336,701,0,0
119,323,0,0,0,0,0,0,0,0,0,-1,1343,701,0,0
126,323,0,0,0,0,0,0,0,0,0,-1,1350,701,0,0
133,323,0,0,0,0,0,0,0,0,0,-1,1357,701,0,0
140,323,0,0,0,0,0,0,0,0,0,-1,1364,701,0,0
147,323,0,0,0,0,0,0,0,0,0,-1,1371,701,0,0
154,323,0,0,0,0,0,0,0,0,0,-1,1378,701,0,0
161,323,0,0,0,0,0,0,0,0,0,-1,1385,701,0,0
168,323,0,0,0,0,0,0,0,0,0,-1,1392,701,0,0
175,323,0,0,0,0,0,0,0,0,0,-1,1399,701,0,0
182,323,0,0,0,0,0,0,0,0,0,-1,1406,701,0,0
189,323,0,0,0,0,0,0,0,0,0,-1,1413,701,0,0
196,323,0,0,0,0,0,0,0,0,0,-1,1420,701,0,0
203,323,0,0,0,0,0,0,0,0,0,-1,1427,701,0,0
210,323,0,0,0,0,0,0,0,0,0,-1,1434,701,0,0
217,323,0,0,0,0,0,0,0,0,0,-1,1441,701,0,0
224,323,0,0,0,0,0,0,0,0,0,-1,1448,701,0,0
231,323,0,0,0,0,0,0,0,0,0,-1,1455,701,0,0
238,323,0,0,0,0,0,0,0,0,0,-1,1462,701,0,0
245,323,0,0,0,0,0,0,0,0,0,-1,1469,701,0,0
252,323,0,0,0,0,0,0,0,0,0,-1,1476,701,0,0
259,323,0,0,0,0,0,0,0,0,0,-1,1483,701,0,0
266,323,0,0,0,0,0,0,0,0,0,-1,1490,701,0,0
273,323,0,0,0,0,0,0,0,0,0,-1,1497,701,0,0
280,323,0,0,0,0,0,0,0,0,0,-1,1504,701,0,0
287,323,0,0,0,0,0,0,0,0,0,-1,1511,701,0,0
294,323,0,0,0,0,0,0,0,0,0,-1,1518,701,0,0
301,323,0,0,0,0,0,0,0,0,0,-1,1525,701,0,0
308,323,0,0,0,0,0,0,0,0,0,-1,1532,701,0,0
315,323,0,0,0,0,0,0,0,0,0,-1,1539,701,0,0
322,323,0,0,0,0,0,0,0,0,0,-1,1546,701,0,0
329,323,0,0,0,0,0,0,0,0,0,-1,1553,701,0,0
336,323,0,0,0,0,0,0,0,0,0,-1,1560,701,0,0
343,323,0,0,0,0,0,0,0,0,0,-1,1567,701,0,0
350,323,0,0,0,0,0,0,0,0,0,-1,1574,701,0,0
357,323,0,0,0,0,0,0,0,0,0,-1,1581,701,0,0
364,323,0,0,0,0,0,0,0,0,0,-1,1588,701,0,0
371,323,0,0,0,0,0,0,0,0,0,-1,1595,701,0,0
378,323,0,0,0,0,0,0,0,0,0,-1,1602,701,0,0
385,323,0,0,0,0,0,0,0,0,0,-1,1609,701,0,0
392,323,0,0,0,0,0,0,0,0,0,-1,1616,701,0,0
399,323,0,0,0,0,0,0,0,0,0,-1,1623,701,0,0
406,323,0,0,0,0,0,0,0,0,0,-1,1630,701,0,0
413,323,0,0,0,0,0,0,0,0,0,-1,1637,701,0,0
420,323,0,0,0,0,0,0,0,0,0,-1,1644,701,0,0
427,323,0,0,0,0,0,0,0,0,0,-1,1651,701,0,0
434,323,0,0,0,0,0,0,0,0,0,-1,1658,701,0,0
441,323,0,0,0,0,0,0,0,0,0,-1,1665,701,0,0
448,323,0,0,0,0,0,0,0,0,0,-1,1672,701,0,0
455,323,0,0,0,0,0,0,0,0,0,-1,1679,701,0,0
462,323,0,0,0,0,0,0,0,0,0,-1,1686,701,0,0
469,323,0,0,0,0,0,0,0,0,0,-1,1693,701,0,0
476,323,0,0,0,0,0,0,0,0,0,-1,1700,701,0,0
483,323,0,0,0,0,0,0,0,0,0,-1,1707,701,0,0
490,323,0,0,0,0,0,0,0,0,0,-1,1714,701,0,0
497,323,0,0,0,0,0,0,0,0,0,-1,1721,701,0,0
504,323,0,0,0,0,0,0,0,0,0,-1,1728,701,0,0
511,323,0,0,0,0,0,0,0,0,0,-1,1735,701,0,0
518,323,0,0,0,0,0,0,0,0,0,-1,1742,701,0,0
525,323,0,0,0,0,0,0,0,0,0,-1,1749,701,0,0
532,323,33.6193,1.69446,0,0,0,0,0,0,0,-1,1756,701,33.6193,-1.69444
539,323,32.2698,2.44037,0,0,0,0,0,0,0,-1,1763,701,32.2697,-2.44036
546,323,31.1644,3.9444,0,0,0,0,0,0,0,-1,1770,701,31.1644,-3.94438
553,323,30.2488,5.8775,0,0,0,0,0,0,0,-1,1777,701,30.2487,-5.87752
560,323,40.6711,1.25153,0,0,0,0,0,0,0,-1,1784,701,40.6711,-1.25154
567,323,42.1637,2.01208,0,0,0,0,0,0,0,-1,1791,701,42.1637,-2.01207
574,323,12.514,5.89685,0,0,0,0,0,0,0,-1,1798,701,12.5141,-5.89683
581,323,11.821,5.3476,0,0,0,0,0,0,0,-1,1805,701,11.821,-5.34762
588,323,11.7933,7.00818,0,0,0,0,0,0,0,-1,1812,701,11.7933,-7.00819
595,323,6.67847,0.06604,0,0,0,0,0,0,0,-1,1819,701,6.67841,-0.0660418
602,323,42.9548,-13.2025,0,0,0,0,0,0,0,-1,1826,701,42.9549,13.2024
609,323,43.1654,-12.2065,0.00261538,-0.000839921,0.000506095,0.00268798,-0.000912523,0.142483,0.00216136,0.0406364,1833,701,43.1655,12.2065
616,323,43.2388,-11.2504,0.00234009,-0.000822652,0.000595305,0.00244843,-0.000930992,0.18002,0.00201561,0.0135251,1840,701,43.2387,11.2504
623,323,43.1681,-10.3038,0.00191648,-0.000561337,0.000567234,0.00204017,-0.000685017,0.214681,0.00163694,0.0136024,1847,701,43.168,10.3038
630,323,43.1086,-9.33252,0.00176043,-0.000356324,0.000579884,0.00190887,-0.000504772,0.250615,0.00147002,0.0143354,1854,701,43.1086,9.33251
637,323,43.0735,-8.38208,0.00168919,-8.56414e-05,0.000622954,0.00188602,-0.000282466,0.306029,0.0013613,0.0117054,1861,701,43.0735,8.38208
644,323,42.9957,-7.44604,0.0017145,0.000241089,0.00071116,0.00200175,-4.61608e-05,0.383878,0.00135015,0.00875983,1868,701,42.9957,7.44605
651,323,42.9628,-6.4726,0.00182639,0.000626724,0.000829211,0.00224998,0.000203136,0.472276,0.00143707,0.0128598,1875,701,42.9628,6.47258
658,323,42.8394,-5.49829,0.00206203,0.00110505,0.000987297,0.00268067,0.000486405,0.559755,0.00164907,0.0226158,1882,701,42.8393,5.49832
665,323,42.7391,-4.53821,0.00251338,0.00164235,0.00122977,0.00338247,0.000773257,0.615216,0.00204652,0.0184782,1889,701,42.7392,4.53821
672,323,42.7676,-3.5271,0.00314687,0.00237109,0.00153883,0.00434595,0.00117201,0.661937,0.00259635,0.0225497,1896,701,42.7676,3.5271
679,323,42.8403,-2.40131,0,0,0,0,0,0,0,-1,1903,701,42.8403,2.40129
686,323,30.4916,0.378235,0,0,0,0,0,0,0,-1,1910,701,30.4916,-0.37825
693,323,23.8806,1.08844,0,0,0,0,0,0,0,-1,1917,701,23.8806,-1.08845
700,323,10.7705,0.828613,0,0,0,0,0,0,0,-1,1924,701,10.7705,-0.828591
707,323,16.9005,4.79193,0,0,0,0,0,0,0,-1,1931,701,16.9005,-4.7919
714,323,16.2346,6.25958,0,0,0,0,0,0,0,-1,1938,701,16.2346,-6.25956
721,323,0,0,0,0,0,0,0,0,0,-1,1945,701,0,0
728,323,0,0,0,0,0,0,0,0,0,-1,1952,701,0,0
735,323,0,0,0,0,0,0,0,0,0,-1,1959,701,0,0
742,323,0,0,0,0,0,0,0,0,0,-1,1966,701,0,0
749,323,0,0,0,0,0,0,0,0,0,-1,1973,701,0,0
756,323,0,0,0,0,0,0,0,0,0,-1,1980,701,0,0
763,323,0,0,0,0,0,0,0,0,0,-1,1987,701,0,0
770,323,0,0,0,0,0,0,0,0,0,-1,1994,701,0,0
777,323,0,0,0,0,0,0,0,0,0,-1,2001,701,0,0
784,323,0,0,0,0,0,0,0,0,0,-1,2008,701,0,0
791,323,0,0,0,0,0,0,0,0,0,-1,2015,701,0,0
798,323,0,0,0,0,0,0,0,0,0,-1,2022,701,0,0
805,323,0,0,0,0,0,0,0,0,0,-1,2029,701,0,0
812,323,0,0,0,0,0,0,0,0,0,-1,2036,701,0,0
-700,316,0,0,0,0,0,0,0,0,0,-1,524,708,0,0
-693,316,0,0,0,0,0,0,0,0,0,-1,531,708,0,0
-686,316,0,0,0,0,0,0,0,0,0,-1,538,708,0,0
-679,316,0,0,0,0,0,0,0,0,0,-1,545,708,0,0
-672,316,0,0,0,0,0,0,0,0,0,-1,552,708,0,0
-665,316,0,0,0,0,0,0,0,0,0,-1,559,708,0,0
-658,316,0,0,0,0,0,0,0,0,0,-1,566,708,0,0
-651,316,0,0,0,0,0,0,0,0,0,-1,573,708,0,0
-644,316,0,0,0,0,0,0,0,0,0,-1,580,708,0,0
-637,316,0,0,0,0,0,0,0,0,0,-1,587,708,0,0
-630,316,0,0,0,0,0,0,0,0,0,-1,594,708,0,0
-623,316,0,0,0,0,0,0,0,0,0,-1,601,708,0,0
-616,316,0,0,0,0,0,0,0,0,0,-1,608,708,0,0
-609,316,0,0,0,0,0,0,0,0,0,-1,615,708,0,0
-602,316,-0.451782,-0.0494995,0,0,0,0,0,0,0,-1,622,708,-0.451768,0.0495022
-595,316,-3.3761,2.17188,0,0,0,0,0,0,0,-1,629,708,-3.37609,-2.17189
-588,316,-5.00177,2.60675,0,0,0,0,0,0,0,-1,636,708,-5.00175,-2.60676
-581,316,-3.94653,0.393433,0,0,0,0,0,0,0,-1,643,708,-3.94655,-0.39342
-574,316,-9.67395,1.06067,0,0,0,0,0,0,0,-1,650,708,-9.67396,-1.06065
-567,316,-10.1962,0.448425,0,0,0,0,0,0,0,-1,657,708,-10.1962,-0.448411
-560,316,-18.9941,-1.75067,0,0,0,0,0,0,0,-1,664,708,-18.9941,1.75068
-553,316,-25.6896,-2.78827,0,0,0,0,0,0,0,-1,671,708,-25.6896,2.78827
-546,316,-27.9451,-4.2912,0,0,0,0,0,0,0,-1,678,708,-27.9451,4.29118
-539,316,-27.7561,-4.87695,0.00138516,0.00390627,-0.00247443,0.00542272,-0.000131298,-1.02098,0.0036597,0.0145294,685,708,-27.7561,4.87696
-532,316,-27.8324,-5.82874,0.00157502,0.00262659,-0.00184522,0.00401947,0.00018214,-0.924192,0.00262104,0.0113601,692,708,-27.8324,5.82874
-525,316,-27.9023,-6.75665,0.0015123,0.00145268,-0.00120698,0.00268984,0.000275146,-0.773051,0.00170891,0.0106554,699,708,-27.9023,6.75664
-518,316,-27.9462,-7.7124,0.00138612,0.000520567,-0.000600494,0.00169354,0.000213149,-0.473155,0.00106511,0.0109816,706,708,-27.9462,7.71241
-511,316,-28.0231,-8.68121,0.00107063,-0.000275127,-6.22213e-05,0.0010735,-0.000277997,-0.0461042,0.000824112,0.0120042,713,708,-28.0231,8.68122
-504,316,-28.1038,-9.66046,0.000622027,-0.000975221,0.000478602,0.000754456,-0.00110765,0.269946,0.00108152,0.0153373,720,708,-28.1037,9.66044
-497,316,-28.1387,-10.5748,0.000231119,-0.00147487,0.000896627,0.000615679,-0.00185943,0.405165,0.00148793,0.0136881,727,708,-28.1387,10.5748
-490,316,-28.1766,-11.5302,2.56362e-06,-0.0017293,0.00113232,0.00056211,-0.00228884,0.458964,0.00174373,0.0196435,734,708,-28.1766,11.5302
-483,316,-28.2299,-12.5557,0,0,0,0,0,0,0,-1,741,708,-28.2299,12.5557
-476,316,-8.90894,-3.31207,0,0,0,0,0,0,0,-1,748,708,-8.90896,3.31206
-469,316,-6.24194,-1.42725,0,0,0,0,0,0,0,-1,755,708,-6.24192,1.42725
-462,316,-5.74237,-1.40039,0,0,0,0,0,0,0,-1,762,708,-5.74238,1.40039
-455,316,-5.44745,-1.21899,0,0,0,0,0,0,0,-1,769,708,-5.44746,1.21898
-448,316,-14.8945,0.655396,0,0,0,0,0,0,0,-1,776,708,-14.8946,-0.655396
-441,316,-14.9626,0.576111,0,0,0,0,0,0,0,-1,783,708,-14.9626,-0.576115
-434,316,-27.7723,1.15576,0,0,0,0,0,0,0,-1,790,708,-27.7723,-1.15579
-427,316,-28.0504,1.31427,0,0,0,0,0,0,0,-1,797,708,-28.0504,-1.31427
-420,316,-28.198,1.62891,0,0,0,0,0,0,0,-1,804,708,-28.198,-1.62889
-413,316,0,0,0,0,0,0,0,0,0,-1,811,708,0,0
-406,316,0,0,0,0,0,0,0,0,0,-1,818,708,0,0
-399,316,0,0,0,0,0,0,0,0,0,-1,825,708,0,0
-392,316,0,0,0,0,0,0,0,0,0,-1,832,708,0,0
-385,316,0,0,0,0,0,0,0,0,0,-1,839,708,0,0
-378,316,0,0,0,0,0,0,0,0,0,-1,846,708,0,0
-371,316,0,0,0,0,0,0,0,0,0,-1,853,708,0,0
-364,316,0,0,0,0,0,0,0,0,0,-1,860,708,0,0
-357,316,0,0,0,0,0,0,0,0,0,-1,867,708,0,0
-350,316,0,0,0,0,0,0,0,0,0,-1,874,708,0,0
-343,316,0,0,0,0,0,0,0,0,0,-1,881,708,0,0
-336,316,0,0,0,0,0,0,0,0,0,-1,888,708,0,0
-329,316,0,0,0,0,0,0,0,0,0,-1,895,708,0,0
-322,316,0,0,0,0,0,0,0,0,0,-1,902,708,0,0
-315,316,0,0,0,0,0,0,0,0,0,-1,909,708,0,0
-308,316,0,0,0,0,0,0,0,0,0,-1,916,708,0,0
-301,316,0,0,0,0,0,0,0,0,0,-1,923,708,0,0
-294,316,0,0,0,0,0,0,0,0,0,-1,930,708,0,0
-287,316,0,0,0,0,0,0,0,0,0,-1,937,708,0,0
-280,316,0,0,0,0,0,0,0,0,0,-1,944,708,0,0
-273,316,0,0,0,0,0,0,0,0,0,-1,951,708,0,0
-266,316,0,0,0,0,0,0,0,0,0,-1,958,708,0,0
-259,316,0,0,0,0,0,0,0,0,0,-1,965,708,0,0
-252,316,0,0,0,0,0,0,0,0,0,-1,972,708,0,0
-245,316,0,0,0,0,0,0,0,0,0,-1,979,708,0,0
-238,316,0,0,0,0,0,0,0,0,0,-1,986,708,0,0
-231,316,0,0,0,0,0,0,0,0,0,-1,993,708,0,0
-224,316,0,0,0,0,0,0,0,0,0,-1,1000,708,0,0
-217,316,0,0,0,0,0,0,0,0,0,-1,1007,708,0,0
-210,316,0,0,0,0,0,0,0,0,0,-1,1014,708,0,0
-203,316,0,0,0,0,0,0,0,0,0,-1,1021,708,0,0
-196,316,0,0,0,0,0,0,0,0,0,-1,1028,708,0,0
-189,316,0,0,0,0,0,0,0,0,0,-1,1035,708,0,0
-182,316,0,0,0,0,0,0,0,0,0,-1,1042,708,0,0
-175,316,0,0,0,0,0,0,0,0,0,-1,1049,708,0,0
-168,316,0,0,0,0,0,0,0,0,0,-1,1056,708,0,0
-161,316,0,0,0,0,0,0,0,0,0,-1,1063,708,0,0
-154,316,0,0,0,0,0,0,0,0,0,-1,1070,708,0,0
-147,316,0,0,0,0,0,0,0,0,0,-1,1077,708,0,0
-140,316,0,0,0,0,0,0,0,0,0,-1,1084,708,0,0
-133,316,0,0,0,0,0,0,0,0,0,-1,1091,708,0,0
-126,316,0,0,0,0,0,0,0,0,0,-1,1098,708,0,0
-119,316,0,0,0,0,0,0,0,0,0,-1,1105,708,0,0
-112,316,0,0,0,0,0,0,0,0,0,-1,1112,708,0,0
-105,316,0,0,0,0,0,0,0,0,0,-1,1119,708,0,0
-98,316,0,0,0,0,0,0,0,0,0,-1,1126,708,0,0
-91,316,0,0,0,0,0,0,0,0,0,-1,1133,708,0,0
-84,316,0,0,0,0,0,0,0,0,0,-1,1140,708,0,0
-77,316,0,0,0,0,0,0,0,0,0,-1,1147,708,0,0
-70,316,0,0,0,0,0,0,0,0,0,-1,1154,708,0,0
-63,316,0,0,0,0,0,0,0,0,0,-1,1161,708,0,0
-56,316,0,0,0,0,0,0,0,0,0,-1,1168,708,0,0
-49,316,0,0,0,0,0,0,0,0,0,-1,1175,708,0,0
-42,316,0,0,0,0,0,0,0,0,0,-1,1182,708,0,0
-35,316,0,0,0,0,0,0,0,0,0,-1,1189,708,0,0
-28,316,0,0,0,0,0,0,0,0,0,-1,1196,708,0,0
-21,316,0,0,0,0,0,0,0,0,0,-1,1203,708,0,0
-14,316,0,0,0,0,0,0,0,0,0,-1,1210,708,0,0
-7,316,0,0,0,0,0,0,0,0,0,-1,1217,708,0,0
0,316,0,0,0,0,0,0,0,0,0,-1,1224,708,0,0
7,316,0,0,0,0,0,0,0,0,0,-1,1231,708,0,0
14,316,0,0,0,0,0,0,0,0,0,-1,1238,708,0,0
21,316,0,0,0,0,0,0,0,0,0,-1,1245,708,0,0
28,316,0,0,0,0,0,0,0,0,0,-1,1252,708,0,0
35,316,0,0,0,0,0,0,0,0,0,-1,1259,708,0,0
42,316,0,0,0,0,0,0,0,0,0,-1,1266,708,0,0
49,316,0,0,0,0,0,0,0,0,0,-1,1273,708,0,0
56,316,0,0,0,0,0,0,0,0,0,-1,1280,708,0,0
63,316,0,0,0,0,0,0,0,0,0,-1,1287,708,0,0
70,316,0,0,0,0,0,0,0,0,0,-1,1294,708,0,0
77,316,0,0,0,0,0,0,0,0,0,-1,1301,708,0,0
84,316,0,0,0,0,0,0,0,0,0,-1,1308,708,0,0
91,316,0,0,0,0,0,0,0,0,0,-1,1315,708,0,0
98,316,0,0,0,0,0,0,0,0,0,-1,1322,708,0,0
105,316,0,0,0,0,0,0,0,0,0,-1,1329,708,0,0
112,316,0,0,0,0,0,0,0,0,0,-1,1336,708,0,0
119,316,0,0,0,0,0,0,0,0,0,-1,1343,708,0,0
126,316,0,0,0,0,0,0,0,0,0,-1,1350,708,0,0
133,316,0,0,0,0,0,0,0,0,0,-1,1357,708,0,0
140,316,0,0,0,0,0,0,0,0,0,-1,1364,708,0,0
147,316,0,0,0,0,0,0,0,0,0,-1,1371,708,0,0
154,316,0,0,0,0,0,0,0,0,0,-1,1378,708,0,0
161,316,0,0,0,0,0,0,0,0,0,-1,1385,708,0,0
168,316,0,0,0,0,0,0,0,0,0,-1,1392,708,0,0
175,316,0,0,0,0,0,0,0,0,0,-1,1399,708,0,0
182,316,0,0,0,0,0,0,0,0,0,-1,1406,708,0,0
189,316,0,0,0,0,0,0,0,0,0,-1,1413,708,0,0
196,316,0,0,0,0,0,0,0,0,0,-1,1420,708,0,0
203,316,0,0,0,0,0,0,0,0,0,-1,1427,708,0,0
210,316,0,0,0,0,0,0,0,0,0,-1,1434,708,0,0
217,316,0,0,0,0,0,0,0,0,0,-1,1441,708,0,0
224,316,0,0,0,0,0,0,0,0,0,-1,1448,708,0,0
231,316,0,0,0,0,0,0,0,0,0,-1,1455,708,0,0
238,316,0,0,0,0,0,0,0,0,0,-1,1462,708,0,0
245,316,0,0,0,0,0,0,0,0,0,-1,1469,708,0,0
252,316,0,0,0,0,0,0,0,0,0,-1,1476,708,0,0
259,316,0,0,0,0,0,0,0,0,0,-1,1483,708,0,0
266,316,0,0,0,0,0,0,0,0,0,-1,1490,708,0,0
273,316,0,0,0,0,0,0,0,0,0,-1,1497,708,0,0
280,316,0,0,0,0,0,0,0,0,0,-1,1504,708,0,0
287,316,0,0,0,0,0,0,0,0,0,-1,1511,708,0,0
294,316,0,0,0,0,0,0,0,0,0,-1,1518,708,0,0
301,316,0,0,0,0,0,0,0,0,0,-1,1525,708,0,0
308,316,0,0,0,0,0,0,0,0,0,-1,1532,708,0,0
315,316,0,0,0,0,0,0,0,0,0,-1,1539,708,0,0
322,316,0,0,0,0,0,0,0,0,0,-1,1546,708,0,0
329,316,0,0,0,0,0,0,0,0,0,-1,1553,708,0,0
336,316,0,0,0,0,0,0,0,0,0,-1,1560,708,0,0
343,316,0,0,0,0,0,0,0,0,0,-1,1567,708,0,0
350,316,0,0,0,0,0,0,0,0,0,-1,1574,708,0,0
357,316,0,0,0,0,0,0,0,0,0,-1,1581,708,0,0
364,316,0,0,0,0,0,0,0,0,0,-1,1588,708,0,0
371,316,0,0,0,0,0,0,0,0,0,-1,1595,708,0,0
378,316,0,0,0,0,0,0,0,0,0,-1,1602,708,0,0
385,316,0,0,0,0,0,0,0,0,0,-1,1609,708,0,0
392,316,0,0,0,0,0,0,0,0,0,-1,1616,708,0,0
399,316,0,0,0,0,0,0,0,0,0,-1,1623,708,0,0
406,316,0,0,0,0,0,0,0,0,0,-1,1630,708,0,0
413,316,0,0,0,0,0,0,0,0,0,-1,1637,708,0,0
420,316,0,0,0,0,0,0,0,0,0,-1,1644,708,0,0
427,316,0,0,0,0,0,0,0,0,0,-1,1651,708,0,0
434,316,0,0,0,0,0,0,0,0,0,-1,1658,708,0,0
441,316,0,0,0,0,0,0,0,0,0,-1,1665,708,0,0
448,316,0,0,0,0,0,0,0,0,0,-1,1672,708,0,0
455,316,0,0,0,0,0,0,0,0,0,-1,1679,708,0,0
462,316,0,0,0,0,0,0,0,0,0,-1,1686,708,0,0
469,316,0,0,0,0,0,0,0,0,0,-1,1693,708,0,0
476,316,0,0,0,0,0,0,0,0,0,-1,1700,708,0,0
483,316,0,0,0,0,0,0,0,0,0,-1,1707,708,0,0
490,316,0,0,0,0,0,0,0,0,0,-1,1714,708,0,0
497,316,0,0,0,0,0,0,0,0,0,-1,1721,708,0,0
504,316,0,0,0,0,0,0,0,0,0,-1,1728,708,0,0
511,316,0,0,0,0,0,0,0,0,0,-1,1735,708,0,0
518,316,0,0,0,0,0,0,0,0,0,-1,1742,708,0,0
525,316,0,0,0,0,0,0,0,0,0,-1,1749,708,0,0
532,316,33.8604,0.531128,0,0,0,0,0,0,0,-1,1756,708,33.8604,-0.531151
539,316,44.4543,2.73468,0,0,0,0,0,0,0,-1,1763,708,44.4543,-2.7347
546,316,44.713,3.35498,0,0,0,0,0,0,0,-1,1770,708,44.7131,-3.35501
553,316,39.9031,6.57275,0,0,0,0,0,0,0,-1,1777,708,39.9031,-6.57274
560,316,39.1196,1.10046,0,0,0,0,0,0,0,-1,1784,708,39.1197,-1.10048
567,316,47.3683,6.04919,0,0,0,0,0,0,0,-1,1791,708,47.3683,-6.04918
574,316,45.9872,6.7655,0,0,0,0,0,0,0,-1,1798,708,45.9871,-6.76552
581,316,24.6815,7.77496,0,0,0,0,0,0,0,-1,1805,708,24.6815,-7.77499
588,316,19.7659,2.90198,0,0,0,0,0,0,0,-1,1812,708,19.7659,-2.902
595,316,12.5363,1.50702,0,0,0,0,0,0,0,-1,1819,708,12.5363,-1.50701
602,316,7.79919,0.0422363,0,0,0,0,0,0,0,-1,1826,708,7.79923,-0.0422066
609,316,44.0525,-12.0905,0,0,0,0,0,0,0,-1,1833,708,44.0524,12.0905
616,316,44.1715,-11.1537,0.00286105,-0.000800843,0.000839476,0.00304432,-0.000984118,0.214947,0.00242509,0.0155183,1840,708,44.1715,11.1537
623,316,44.1101,-10.2131,0.00222849,-0.000533821,0.000734794,0.00241179,-0.000717119,0.244465,0.00189274,0.0116993,1847,708,44.1101,10.2131
630,316,44.0367,-9.30756,0.00198333,-0.000375015,0.000680095,0.0021654,-0.000557084,0.261576,0.00166074,0.0129852,1854,708,44.0367,9.30758
637,316,43.9849,-8.31738,0.00183972,-0.000132425,0.000692396,0.00205853,-0.000351239,0.306093,0.00150318,0.0122577,1861,708,43.9849,8.31739
644,316,43.9523,-7.35553,0.00180649,0.00018613,0.000768949,0.0021133,-0.000120684,0.379648,0.00145077,0.0123789,1868,708,43.9523,7.3555
651,316,43.8877,-6.40735,0.00186467,0.000570529,0.000888796,0.00231699,0.000118209,0.470753,0.0015068,0.0181522,1875,708,43.8876,6.40738
658,316,43.7942,-5.414,0.00203604,0.00107546,0.00104429,0.00270519,0.000406307,0.56986,0.00168444,0.0384542,1882,708,43.7942,5.41402
665,316,43.6653,-4.46405,0.0023663,0.00165657,0.00129477,0.00335396,0.00066892,0.651645,0.00204971,0.0270052,1889,708,43.6653,4.46406
672,316,43.681,-3.53821,0.00284789,0.00243331,0.00162792,0.00428166,0.000999533,0.722073,0.00258646,0.0142128,1896,708,43.681,3.53818
679,316,43.6847,-2.57642,0,0,0,0,0,0,0,-1,1903,708,43.6847,2.57645
686,316,34.0828,0.223206,0,0,0,0,0,0,0,-1,1910,708,34.0828,-0.223183
693,316,26.4315,1.80652,0,0,0,0,0,0,0,-1,1917,708,26.4315,-1.80651
700,316,12.8749,2.89136,0,0,0,0,0,0,0,-1,1924,708,12.8748,-2.89137
707,316,15.7089,5.41486,0,0,0,0,0,0,0,-1,1931,708,15.7088,-5.41487
714,316,16.1727,5.52045,0,0,0,0,0,0,0,-1,1938,708,16.1728,-5.52042
721,316,16.7094,6.53351,0,0,0,0,0,0,0,-1,1945,708,16.7094,-6.5335
728,316,0,0,0,0,0,0,0,0,0,-1,1952,708,0,0
735,316,0,0,0,0,0,0,0,0,0,-1,1959,708,0,0
742,316,0,0,0,0,0,0,0,0,0,-1,1966,708,0,0
749,316,0,0,0,0,0,0,0,0,0,-1,1973,708,0,0
756,316,0,0,0,0,0,0,0,0,0,-1,1980,708,0,0
763,316,0,0,0,0,0,0,0,0,0,-1,1987,708,0,0
770,316,0,0,0,0,0,0,0,0,0,-1,1994,708,0,0
777,316,0,0,0,0,0,0,0,0,0,-1,2001,708,0,0
784,316,0,0,0,0,0,0,0,0,0,-1,2008,708,0,0
791,316,0,0,0,0,0,0,0,0,0,-1,2015,708,0,0
798,316,0,0,0,0,0,0,0,0,0,-1,2022,708,0,0
805,316,0,0,0,0,0,0,0,0,0,-1,2029,708,0,0
812,316,0,0,0,0,0,0,0,0,0,-1,2036,708,0,0
-700,309,0,0,0,0,0,0,0,0,0,-1,524,715,0,0
-693,309,0,0,0,0,0,0,0,0,0,-1,531,715,0,0
-686,309,0,0,0,0,0,0,0,0,0,-1,538,715,0,0
-679,309,0,0,0,0,0,0,0,0,0,-1,545,715,0,0
-672,309,0,0,0,0,0,0,0,0,0,-1,552,715,0,0
-665,309,0,0,0,0,0,0,0,0,0,-1,559,715,0,0
-658,309,0,0,0,0,0,0,0,0,0,-1,566,715,0,0
-651,309,0,0,0,0,0,0,0,0,0,-1,573,715,0,0
-644,309,0,0,0,0,0,0,0,0,0,-1,580,715,0,0
-637,309,0,0,0,0,0,0,0,0,0,-1,587,715,0,0
-630,309,0,0,0,0,0,0,0,0,0,-1,594,715,0,0
-623,309,0,0,0,0,0,0,0,0,0,-1,601,715,0,0
-616,309,0,0,0,0,0,0,0,0,0,-1,608,715,0,0
-609,309,-5.95392,-3.93689,0,0,0,0,0,0,0,-1,615,715,-5.95392,3.93686
-602,309,-4.99786,-3.31287,0,0,0,0,0,0,0,-1,622,715,-4.99786,3.31284
-595,309,-6.80847,2.4046,0,0,0,0,0,0,0,-1,629,715,-6.80845,-2.40458
-588,309,-6.08795,2.19324,0,0,0,0,0,0,0,-1,636,715,-6.08793,-2.19325
-581,309,-5.97552,1.3277,0,0,0,0,0,0,0,-1,643,715,-5.97552,-1.32769
-574,309,-8.73602,0.208435,0,0,0,0,0,0,0,-1,650,715,-8.73604,-0.208437
-567,309,-10.3909,0.85968,0,0,0,0,0,0,0,-1,657,715,-10.3909,-0.859696
-560,309,-18.6088,-1.73389,0,0,0,0,0,0,0,-1,664,715,-18.6088,1.73389
-553,309,-28.9626,-2.80774,0,0,0,0,0,0,0,-1,671,715,-28.9626,2.80777
-546,309,-28.8268,-3.78961,0.000331945,0.00454285,-0.00221622,0.00549428,-0.000619487,-1.16529,0.00388585,0.0409714,678,715,-28.8268,3.78963
-539,309,-28.735,-4.80292,0.000857145,0.00319065,-0.00173607,0.00411561,-6.78168e-05,-1.08126,0.00276662,0.0152514,685,715,-28.735,4.80293
-532,309,-28.7816,-5.76025,0.0010481,0.00199687,-0.00123025,0.00284103,0.000203943,-0.969415,0.00182983,0.0122333,692,715,-28.7815,5.76028
-525,309,-28.8325,-6.72864,0.000968183,0.000867867,-0.000699002,0.00161882,0.000217225,-0.749581,0.00101459,0.0169463,699,715,-28.8325,6.72861
-518,309,-28.8892,-7.67151,0.000827754,-1.00903e-05,-0.000160654,0.000857503,-3.98388e-05,-0.183098,0.0005854,0.0176802,706,715,-28.8892,7.67154
-511,309,-28.9707,-8.59619,0.000482316,-0.000728517,0.000404175,0.000604832,-0.000851033,0.294324,0.000844541,0.0134906,713,715,-28.9707,8.59617
-504,309,-29.0474,-9.55389,5.56729e-05,-0.0011702,0.0010919,0.00069491,-0.00180944,0.529641,0.00149285,0.0107014,720,715,-29.0474,9.55392
-497,309,-29.0973,-10.4871,-0.000270189,-0.00131043,0.00173703,0.00102292,-0.00260354,0.63993,0.00215901,0.0150763,727,715,-29.0973,10.4871
-490,309,-29.1542,-11.4391,0,0,0,0,0,0,0,-1,734,715,-29.1542,11.4391
-483,309,-17.7261,-7.75836,0,0,0,0,0,0,0,-1,741,715,-17.7261,7.75839
-476,309,-5.29486,-1.2262,0,0,0,0,0,0,0,-1,748,715,-5.29484,1.22622
-469,309,-4.22717,-0.592896,0,0,0,0,0,0,0,-1,755,715,-4.2272,0.592905
-462,309,-10.428,2.46948,0,0,0,0,0,0,0,-1,762,715,-10.428,-2.46947
-455,309,-15.8216,0.00915527,0,0,0,0,0,0,0,-1,769,715,-15.8216,-0.00913359
-448,309,-37.3543,-1.02441,0,0,0,0,0,0,0,-1,776,715,-37.3543,1.02444
-441,309,-19.8181,1.4425,0,0,0,0,0,0,0,-1,783,715,-19.8181,-1.44249
-434,309,-46.7953,1.72064,0,0,0,0,0,0,0,-1,790,715,-46.7953,-1.72067
-427,309,-27.8553,1.40332,0,0,0,0,0,0,0,-1,797,715,-27.8553,-1.40334
-420,309,-27.3148,1.90747,0,0,0,0,0,0,0,-1,804,715,-27.3148,-1.90745
-413,309,0,0,0,0,0,0,0,0,0,-1,811,715,0,0
-406,309,0,0,0,0,0,0,0,0,0,-1,818,715,0,0
-399,309,0,0,0,0,0,0,0,0,0,-1,825,715,0,0
-392,309,0,0,0,0,0,0,0,0,0,-1,832,715,0,0
-385,309,0,0,0,0,0,0,0,0,0,-1,839,715,0,0
-378,309,0,0,0,0,0,0,0,0,0,-1,846,715,0,0
-371,309,0,0,0,0,0,0,0,0,0,-1,853,715,0,0
-364,309,0,0,0,0,0,0,0,0,0,-1,860,715,0,0
-357,309,0,0,0,0,0,0,0,0,0,-1,867,715,0,0
-350,309,0,0,0,0,0,0,0,0,0,-1,874,715,0,0
-343,309,0,0,0,0,0,0,0,0,0,-1,881,715,0,0
-336,309,0,0,0,0,0,0,0,0,0,-1,888,715,0,0
-329,309,0,0,0,0,0,0,0,0,0,-1,895,715,0,0
-322,309,0,0,0,0,0,0,0,0,0,-1,902,715,0,0
-315,309,0,0,0,0,0,0,0,0,0,-1,909,715,0,0
-308,309,0,0,0,0,0,0,0,0,0,-1,916,715,0,0
-301,309,0,0,0,0,0,0,0,0,0,-1,923,715,0,0
-294,309,0,0,0,0,0,0,0,0,0,-1,930,715,0,0
-287,309,0,0,0,0,0,0,0,0,0,-1,937,715,0,0
-280,309,0,0,0,0,0,0,0,0,0,-1,944,715,0,0
-273,309,0,0,0,0,0,0,0,0,0,-1,951,715,0,0
-266,309,0,0,0,0,0,0,0,0,0,-1,958,715,0,0
-259,309,0,0,0,0,0,0,0,0,0,-1,965,715,0,0
-252,309,0,0,0,0,0,0,0,0,0,-1,972,715,0,0
-245,309,0,0,0,0,0,0,0,0,0,-1,979,715,0,0
-238,309,0,0,0,0,0,0,0,0,0,-1,986,715,0,0
-231,309,0,0,0,0,0,0,0,0,0,-1,993,715,0,0
-224,309,0,0,0,0,0,0,0,0,0,-1,1000,715,0,0
-217,309,0,0,0,0,0,0,0,0,0,-1,1007,715,0,0
-210,309,0,0,0,0,0,0,0,0,0,-1,1014,715,0,0
-203,309,0,0,0,0,0,0,0,0,0,-1,1021,715,0,0
-196,309,0,0,0,0,0,0,0,0,0,-1,1028,715,0,0
-189,309,0,0,0,0,0,0,0,0,0,-1,1035,715,0,0
-182,309,0,0,0,0,0,0,0,0,0,-1,1042,715,0,0
-175,309,0,0,0,0,0,0,0,0,0,-1,1049,715,0,0
-168,309,0,0,0,0,0,0,0,0,0,-1,1056,715,0,0
-161,309,0,0,0,0,0,0,0,0,0,-1,1063,715,0,0
-154,309,0,0,0,0,0,0,0,0,0,-1,1070,715,0,0
-147,309,0,0,0,0,0,0,0,0,0,-1,1077,715,0,0
-140,309,0,0,0,0,0,0,0,0,0,-1,1084,715,0,0
-133,309,0,0,0,0,0,0,0,0,0,-1,1091,715,0,0
-126,309,0,0,0,0,0,0,0,0,0,-1,1098,715,0,0
-119,309,0,0,0,0,0,0,0,0,0,-1,1105,715,0,0
-112,309,0,0,0,0,0,0,0,0,0,-1,1112,715,0,0
-105,309,0,0,0,0,0,0,0,0,0,-1,1119,715,0,0
-98,309,0,0,0,0,0,0,0,0,0,-1,1126,715,0,0
-91,309,0,0,0,0,0,0,0,0,0,-1,1133,715,0,0
-84,309,0,0,0,0,0,0,0,0,0,-1,1140,715,0,0
-77,309,0,0,0,0,0,0,0,0,0,-1,1147,715,0,0
-70,309,0,0,0,0,0,0,0,0,0,-1,1154,715,0,0
-63,309,0,0,0,0,0,0,0,0,0,-1,1161,715,0,0
-56,309,0,0,0,0,0,0,0,0,0,-1,1168,715,0,0
-49,309,0,0,0,0,0,0,0,0,0,-1,1175,715,0,0
-42,309,0,0,0,0,0,0,0,0,0,-1,1182,715,0,0
-35,309,0,0,0,0,0,0,0,0,0,-1,1189,715,0,0
-28,309,0,0,0,0,0,0,0,0,0,-1,1196,715,0,0
-21,309,0,0,0,0,0,0,0,0,0,-1,1203,715,0,0
-14,309,0,0,0,0,0,0,0,0,0,-1,1210,715,0,0
-7,309,0,0,0,0,0,0,0,0,0,-1,1217,715,0,0
0,309,0,0,0,0,0,0,0,0,0,-1,1224,715,0,0
7,309,0,0,0,0,0,0,0,0,0,-1,1231,715,0,0
14,309,0,0,0,0,0,0,0,0,0,-1,1238,715,0,0
21,309,0,0,0,0,0,0,0,0,0,-1,1245,715,0,0
28,309,0,0,0,0,0,0,0,0,0,-1,1252,715,0,0
35,309,0,0,0,0,0,0,0,0,0,-1,1259,715,0,0
42,309,0,0,0,0,0,0,0,0,0,-1,1266,715,0,0
49,309,0,0,0,0,0,0,0,0,0,-1,1273,715,0,0
56,309,0,0,0,0,0,0,0,0,0,-1,1280,715,0,0
63,309,0,0,0,0,0,0,0,0,0,-1,1287,715,0,0
70,309,0,0,0,0,0,0,0,0,0,-1,1294,715,0,0
77,309,0,0,0,0,0,0,0,0,0,-1,1301,715,0,0
84,309,0,0,0,0,0,0,0,0,0,-1,1308,715,0,0
91,309,0,0,0,0,0,0,0,0,0,-1,1315,715,0,0
98,309,0,0,0,0,0,0,0,0,0,-1,1322,715,0,0
105,309,0,0,0,0,0,0,0,0,0,-1,1329,715,0,0
112,309,0,0,0,0,0,0,0,0,0,-1,1336,715,0,0
119,309,0,0,0,0,0,0,0,0,0,-1,1343,715,0,0
126,309,0,0,0,0,0,0,0,0,0,-1,1350,715,0,0
133,309,0,0,0,0,0,0,0,0,0,-1,1357,715,0,0
140,309,0,0,0,0,0,0,0,0,0,-1,1364,715,0,0
147,309,0,0,0,0,0,0,0,0,0,-1,1371,715,0,0
154,309,0,0,0,0,0,0,0,0,0,-1,1378,715,0,0
161,309,0,0,0,0,0,0,0,0,0,-1,1385,715,0,0
168,309,0,0,0,0,0,0,0,0,0,-1,1392,715,0,0
175,309,0,0,0,0,0,0,0,0,0,-1,1399,715,0,0
182,309,0,0,0,0,0,0,0,0,0,-1,1406,715,0,0
189,309,0,0,0,0,0,0,0,0,0,-1,1413,715,0,0
196,309,0,0,0,0,0,0,0,0,0,-1,1420,715,0,0
203,309,0,0,0,0,0,0,0,0,0,-1,1427,715,0,0
210,309,0,0,0,0,0,0,0,0,0,-1,1434,715,0,0
217,309,0,0,0,0,0,0,0,0,0,-1,1441,715,0,0
224,309,0,0,0,0,0,0,0,0,0,-1,1448,715,0,0
231,309,0,0,0,0,0,0,0,0,0,-1,1455,715,0,0
238,309,0,0,0,0,0,0,0,0,0,-1,1462,715,0,0
245,309,0,0,0,0,0,0,0,0,0,-1,1469,715,0,0
252,309,0,0,0,0,0,0,0,0,0,-1,1476,715,0,0
259,309,0,0,0,0,0,0,0,0,0,-1,1483,715,0,0
266,309,0,0,0,0,0,0,0,0,0,-1,1490,715,0,0
273,309,0,0,0,0,0,0,0,0,0,-1,1497,715,0,0
280,309,0,0,0,0,0,0,0,0,0,-1,1504,715,0,0
287,309,0,0,0,0,0,0,0,0,0,-1,1511,715,0,0
294,309,0,0,0,0,0,0,0,0,0,-1,1518,715,0,0
301,309,0,0,0,0,0,0,0,0,0,-1,1525,715,0,0
308,309,0,0,0,0,0,0,0,0,0,-1,1532,715,0,0
315,309,0,0,0,0,0,0,0,0,0,-1,1539,715,0,0
322,309,0,0,0,0,0,0,0,0,0,-1,1546,715,0,0
329,309,0,0,0,0,0,0,0,0,0,-1,1553,715,0,0
336,309,0,0,0,0,0,0,0,0,0,-1,1560,715,0,0
343,309,0,0,0,0,0,0,0,0,0,-1,1567,715,0,0
350,309,0,0,0,0,0,0,0,0,0,-1,1574,715,0,0
357,309,0,0,0,0,0,0,0,0,0,-1,1581,715,0,0
364,309,0,0,0,0,0,0,0,0,0,-1,1588,715,0,0
371,309,0,0,0,0,0,0,0,0,0,-1,1595,715,0,0
378,309,0,0,0,0,0,0,0,0,0,-1,1602,715,0,0
385,309,0,0,0,0,0,0,0,0,0,-1,1609,715,0,0
392,309,0,0,0,0,0,0,0,0,0,-1,1616,715,0,0
399,309,0,0,0,0,0,0,0,0,0,-1,1623,715,0,0
406,309,0,0,0,0,0,0,0,0,0,-1,1630,715,0,0
413,309,0,0,0,0,0,0,0,0,0,-1,1637,715,0,0
420,309,0,0,0,0,0,0,0,0,0,-1,1644,715,0,0
427,309,0,0,0,0,0,0,0,0,0,-1,1651,715,0,0
434,309,0,0,0,0,0,0,0,0,0,-1,1658,715,0,0
441,309,0,0,0,0,0,0,0,0,0,-1,1665,715,0,0
448,309,0,0,0,0,0,0,0,0,0,-1,1672,715,0,0
455,309,0,0,0,0,0,0,0,0,0,-1,1679,715,0,0
462,309,0,0,0,0,0,0,0,0,0,-1,1686,715,0,0
469,309,0,0,0,0,0,0,0,0,0,-1,1693,715,0,0
476,309,0,0,0,0,0,0,0,0,0,-1,1700,715,0,0
483,309,0,0,0,0,0,0,0,0,0,-1,1707,715,0,0
490,309,0,0,0,0,0,0,0,0,0,-1,1714,715,0,0
497,309,0,0,0,0,0,0,0,0,0,-1,1721,715,0,0
504,309,0,0,0,0,0,0,0,0,0,-1,1728,715,0,0
511,309,0,0,0,0,0,0,0,0,0,-1,1735,715,0,0
518,309,0,0,0,0,0,0,0,0,0,-1,1742,715,0,0
525,309,0,0,0,0,0,0,0,0,0,-1,1749,715,0,0
532,309,0,0,0,0,0,0,0,0,0,-1,1756,715,0,0
539,309,44.2073,2.66235,0,0,0,0,0,0,0,-1,1763,715,44.2073,-2.66238
546,309,44.4976,3.25531,0,0,0,0,0,0,0,-1,1770,715,44.4976,-3.25533
553,309,47.9611,4.06433,0,0,0,0,0,0,0,-1,1777,715,47.9611,-4.06434
560,309,47.9784,4.64801,0,0,0,0,0,0,0,-1,1784,715,47.9784,-4.64799
567,309,47.0073,5.43121,0,0,0,0,0,0,0,-1,1791,715,47.0073,-5.43121
574,309,45.8746,6.53271,0,0,0,0,0,0,0,-1,1798,715,45.8747,-6.53269
581,309,45.0629,7.73468,0,0,0,0,0,0,0,-1,1805,715,45.0629,-7.73471
588,309,26.2064,7.76422,0,0,0,0,0,0,0,-1,1812,715,26.2064,-7.7642
595,309,19.585,3.71558,0,0,0,0,0,0,0,-1,1819,715,19.5849,-3.71555
602,309,11.0811,3.47772,0,0,0,0,0,0,0,-1,1826,715,11.0811,-3.47772
609,309,45.2371,-12.187,0,0,0,0,0,0,0,-1,1833,715,45.2371,12.1869
616,309,45.1572,-11.1409,0.00317761,-0.000716268,0.000861084,0.00335952,-0.000898188,0.208206,0.00259149,0.0333329,1840,715,45.1572,11.1409
623,309,45.0786,-10.1344,0.00235668,-0.00045062,0.000738504,0.0025391,-0.000633042,0.242167,0.00193851,0.0121019,1847,715,45.0786,10.1344
630,309,44.9749,-9.22992,0.00203427,-0.000335962,0.000655809,0.00220363,-0.000505314,0.252714,0.00166331,0.0113783,1854,715,44.9749,9.22991
637,309,44.91,-8.27173,0.00182702,-0.000137172,0.000656032,0.00202598,-0.000336131,0.294459,0.00147552,0.0139253,1861,715,44.9101,8.27173
644,309,44.8206,-7.29865,0.00174623,0.000167276,0.000730564,0.0020324,-0.000118884,0.373329,0.00139625,0.014692,1868,715,44.8206,7.29864
651,309,44.7729,-6.34479,0.00177006,0.00054308,0.000864249,0.00221643,9.67126e-05,0.476745,0.00144646,0.0159567,1875,715,44.7729,6.3448
658,309,44.7725,-5.38,0.0019098,0.00105554,0.00103383,0.00260126,0.000364073,0.589502,0.00162645,0.0235247,1882,715,44.7725,5.38002
665,309,44.7236,-4.43506,0.00218201,0.00164307,0.00129205,0.00323239,0.000592689,0.682592,0.00198705,0.0186567,1889,715,44.7236,4.43503
672,309,44.6401,-3.5119,0.00260584,0.00241587,0.00164518,0.00415877,0.000862937,0.756563,0.00253432,0.0169578,1896,715,44.6401,3.5119
679,309,44.6279,-2.46545,0.0031031,0.00335068,0.00207822,0.00530879,0.00114499,0.815146,0.00322599,0.0319467,1903,715,44.628,2.46547
686,309,44.6414,-1.31335,0,0,0,0,0,0,0,-1,1910,715,44.6413,1.31334
693,309,32.7026,1.51727,0,0,0,0,0,0,0,-1,1917,715,32.7026,-1.51727
700,309,23.0179,3.08337,0,0,0,0,0,0,0,-1,1924,715,23.018,-3.08336
707,309,15.6318,4.58655,0,0,0,0,0,0,0,-1,1931,715,15.6318,-4.58657
714,309,16.7573,6.68286,0,0,0,0,0,0,0,-1,1938,715,16.7574,-6.68284
721,309,16.8337,5.4458,0,0,0,0,0,0,0,-1,1945,715,16.8338,-5.44582
728,309,0,0,0,0,0,0,0,0,0,-1,1952,715,0,0
735,309,0,0,0,0,0,0,0,0,0,-1,1959,715,0,0
742,309,0,0,0,0,0,0,0,0,0,-1,1966,715,0,0
749,309,0,0,0,0,0,0,0,0,0,-1,1973,715,0,0
756,309,0,0,0,0,0,0,0,0,0,-1,1980,715,0,0
763,309,0,0,0,0,0,0,0,0,0,-1,1987,715,0,0
770,309,0,0,0,0,0,0,0,0,0,-1,1994,715,0,0
777,309,0,0,0,0,0,0,0,0,0,-1,2001,715,0,0
784,309,0,0,0,0,0,0,0,0,0,-1,2008,715,0,0
791,309,0,0,0,0,0,0,0,0,0,-1,2015,715,0,0
798,309,0,0,0,0,0,0,0,0,0,-1,2022,715,0,0
805,309,0,0,0,0,0,0,0,0,0,-1,2029,715,0,0
812,309,0,0,0,0,0,0,0,0,0,-1,2036,715,0,0
-700,302,0,0,0,0,0,0,0,0,0,-1,524,722,0,0
-693,302,0,0,0,0,0,0,0,0,0,-1,531,722,0,0
-686,302,0,0,0,0,0,0,0,0,0,-1,538,722,0,0
-679,302,0,0,0,0,0,0,0,0,0,-1,545,722,0,0
-672,302,0,0,0,0,0,0,0,0,0,-1,552,722,0,0
-665,302,0,0,0,0,0,0,0,0,0,-1,559,722,0,0
-658,302,0,0,0,0,0,0,0,0,0,-1,566,722,0,0
-651,302,0,0,0,0,0,0,0,0,0,-1,573,722,0,0
-644,302,0,0,0,0,0,0,0,0,0,-1,580,722,0,0
-637,302,0,0,0,0,0,0,0,0,0,-1,587,722,0,0
-630,302,0,0,0,0,0,0,0,0,0,-1,594,722,0,0
-623,302,0,0,0,0,0,0,0,0,0,-1,601,722,0,0
-616,302,0,0,0,0,0,0,0,0,0,-1,608,722,0,0
-609,302,-7.79266,-3.71649,0,0,0,0,0,0,0,-1,615,722,-7.79267,3.7165
-602,302,0.92865,-1.99158,0,0,0,0,0,0,0,-1,622,722,0.928637,1.99157
-595,302,-7.89941,2.13641,0,0,0,0,0,0,0,-1,629,722,-7.89939,-2.13639
-588,302,-7.10895,1.79163,0,0,0,0,0,0,0,-1,636,722,-7.10896,-1.79163
-581,302,-9.17566,1.09448,0,0,0,0,0,0,0,-1,643,722,-9.17569,-1.09445
-574,302,-11.5183,-0.344543,0,0,0,0,0,0,0,-1,650,722,-11.5183,0.344557
-567,302,-12.1534,-0.672241,0,0,0,0,0,0,0,-1,657,722,-12.1535,0.672246
-560,302,-29.7538,-1.74945,0,0,0,0,0,0,0,-1,664,722,-29.7538,1.74943
-553,302,-29.6389,-2.77014,-0.00118285,0.00465183,-0.0015485,0.00503732,-0.00156834,-1.32681,0.00398522,0.0443798,671,722,-29.6389,2.77014
-546,302,-29.6575,-3.81836,-0.000203162,0.00356989,-0.00139711,0.00403089,-0.000664166,-1.25208,0.00293382,0.0196699,678,722,-29.6575,3.81835
-539,302,-29.7081,-4.72302,0.000315752,0.00239281,-0.00106771,0.00284376,-0.000135201,-1.17117,0.00194247,0.0150176,685,722,-29.7081,4.72302
-532,302,-29.7532,-5.67444,0.000495989,0.00135637,-0.000687163,0.00173689,0.000115466,-1.06507,0.00112142,0.0146116,692,722,-29.7532,5.67446
-525,302,-29.7549,-6.69861,0.000392458,0.000361175,-0.00027311,0.000650373,0.000103259,-0.756794,0.00040359,0.0216898,699,722,-29.7549,6.69861
-518,302,-29.8094,-7.63,0.000246363,-0.000422211,0.00019699,0.000300088,-0.000475935,0.266252,0.000451855,0.0240686,706,722,-29.8094,7.63001
-511,302,-29.9151,-8.5304,-4.07754e-05,-0.000973257,0.000836865,0.000450963,-0.001465,0.531249,0.00115667,0.0115389,713,722,-29.9151,8.53041
-504,302,-29.9943,-9.4823,-0.000252875,-0.000994993,0.00171693,0.00113263,-0.0023805,0.678976,0.00207052,0.00970044,720,722,-29.9942,9.48231
-497,302,-30.0798,-10.4304,-0.000248635,-0.000722048,0.00264926,0.00217447,-0.00314516,0.740842,0.00308829,0.0159605,727,722,-30.0798,10.4303
-490,302,-30.1644,-11.3854,0,0,0,0,0,0,0,-1,734,722,-30.1643,11.3854
-483,302,-9.53412,-3.1673,0,0,0,0,0,0,0,-1,741,722,-9.53411,3.1673
-476,302,-4.29749,-0.203491,0,0,0,0,0,0,0,-1,748,722,-4.29751,0.203464
-469,302,-12.369,1.42859,0,0,0,0,0,0,0,-1,755,722,-12.3689,-1.42857
-462,302,-17.4766,0.310791,0,0,0,0,0,0,0,-1,762,722,-17.4766,-0.310788
-455,302,-36.7368,-2.97418,0,0,0,0,0,0,0,-1,769,722,-36.7368,2.97416
-448,302,-42.1174,-1.44232,0,0,0,0,0,0,0,-1,776,722,-42.1174,1.44229
-441,302,-46.7637,0.580078,0,0,0,0,0,0,0,-1,783,722,-46.7636,-0.58007
-434,302,-46.574,1.30511,0,0,0,0,0,0,0,-1,790,722,-46.574,-1.30509
-427,302,-46.7514,1.51532,0,0,0,0,0,0,0,-1,797,722,-46.7514,-1.51532
-420,302,0,0,0,0,0,0,0,0,0,-1,804,722,0,0
-413,302,0,0,0,0,0,0,0,0,0,-1,811,722,0,0
-406,302,0,0,0,0,0,0,0,0,0,-1,818,722,0,0
-399,302,0,0,0,0,0,0,0,0,0,-1,825,722,0,0
-392,302,0,0,0,0,0,0,0,0,0,-1,832,722,0,0
-385,302,0,0,0,0,0,0,0,0,0,-1,839,722,0,0
-378,302,0,0,0,0,0,0,0,0,0,-1,846,722,0,0
-371,302,0,0,0,0,0,0,0,0,0,-1,853,722,0,0
-364,302,0,0,0,0,0,0,0,0,0,-1,860,722,0,0
-357,302,0,0,0,0,0,0,0,0,0,-1,867,722,0,0
-350,302,0,0,0,0,0,0,0,0,0,-1,874,722,0,0
-343,302,0,0,0,0,0,0,0,0,0,-1,881,722,0,0
-336,302,0,0,0,0,0,0,0,0,0,-1,888,722,0,0
-329,302,0,0,0,0,0,0,0,0,0,-1,895,722,0,0
-322,302,0,0,0,0,0,0,0,0,0,-1,902,722,0,0
-315,302,0,0,0,0,0,0,0,0,0,-1,909,722,0,0
-308,302,0,0,0,0,0,0,0,0,0,-1,916,722,0,0
-301,302,0,0,0,0,0,0,0,0,0,-1,923,722,0,0
-294,302,0,0,0,0,0,0,0,0,0,-1,930,722,0,0
-287,302,0,0,0,0,0,0,0,0,0,-1,937,722,0,0
-280,302,0,0,0,0,0,0,0,0,0,-1,944,722,0,0
-273,302,0,0,0,0,0,0,0,0,0,-1,951,722,0,0
-266,302,0,0,0,0,0,0,0,0,0,-1,958,722,0,0
-259,302,0,0,0,0,0,0,0,0,0,-1,965,722,0,0
-252,302,0,0,0,0,0,0,0,0,0,-1,972,722,0,0
-245,302,0,0,0,0,0,0,0,0,0,-1,979,722,0,0
-238,302,0,0,0,0,0,0,0,0,0,-1,986,722,0,0
-231,302,0,0,0,0,0,0,0,0,0,-1,993,722,0,0
-224,302,0,0,0,0,0,0,0,0,0,-1,1000,722,0,0
-217,302,0,0,0,0,0,0,0,0,0,-1,1007,722,0,0
-210,302,0,0,0,0,0,0,0,0,0,-1,1014,722,0,0
-203,302,0,0,0,0,0,0,0,0,0,-1,1021,722,0,0
-196,302,0,0,0,0,0,0,0,0,0,-1,1028,722,0,0
-189,302,0,0,0,0,0,0,0,0,0,-1,1035,722,0,0
-182,302,0,0,0,0,0,0,0,0,0,-1,1042,722,0,0
-175,302,0,0,0,0,0,0,0,0,0,-1,1049,722,0,0
-168,302,0,0,0,0,0,0,0,0,0,-1,1056,722,0,0
-161,302,0,0,0,0,0,0,0,0,0,-1,1063,722,0,0
-154,302,0,0,0,0,0,0,0,0,0,-1,1070,722,0,0
-147,302,0,0,0,0,0,0,0,0,0,-1,1077,722,0,0
-140,302,0,0,0,0,0,0,0,0,0,-1,1084,722,0,0
-133,302,0,0,0,0,0,0,0,0,0,-1,1091,722,0,0
-126,302,0,0,0,0,0,0,0,0,0,-1,1098,722,0,0
-119,302,0,0,0,0,0,0,0,0,0,-1,1105,722,0,0
-112,302,0,0,0,0,0,0,0,0,0,-1,1112,722,0,0
-105,302,0,0,0,0,0,0,0,0,0,-1,1119,722,0,0
-98,302,0,0,0,0,0,0,0,0,0,-1,1126,722,0,0
-91,302,0,0,0,0,0,0,0,0,0,-1,1133,722,0,0
-84,302,0,0,0,0,0,0,0,0,0,-1,1140,722,0,0
-77,302,0,0,0,0,0,0,0,0,0,-1,1147,722,0,0
-70,302,0,0,0,0,0,0,0,0,0,-1,1154,722,0,0
-63,302,0,0,0,0,0,0,0,0,0,-1,1161,722,0,0
-56,302,0,0,0,0,0,0,0,0,0,-1,1168,722,0,0
-49,302,0,0,0,0,0,0,0,0,0,-1,1175,722,0,0
-42,302,0,0,0,0,0,0,0,0,0,-1,1182,722,0,0
-35,302,0,0,0,0,0,0,0,0,0,-1,1189,722,0,0
-28,302,0,0,0,0,0,0,0,0,0,-1,1196,722,0,0
-21,302,0,0,0,0,0,0,0,0,0,-1,1203,722,0,0
-14,302,0,0,0,0,0,0,0,0,0,-1,1210,722,0,0
-7,302,0,0,0,0,0,0,0,0,0,-1,1217,722,0,0
0,302,0,0,0,0,0,0,0,0,0,-1,1224,722,0,0
7,302,0,0,0,0,0,0,0,0,0,-1,1231,722,0,0
14,302,0,0,0,0,0,0,0,0,0,-1,1238,722,0,0
21,302,0,0,0,0,0,0,0,0,0,-1,1245,722,0,0
28,302,0,0,0,0,0,0,0,0,0,-1,1252,722,0,0
35,302,0,0,0,0,0,0,0,0,0,-1,1259,722,0,0
42,302,0,0,0,0,0,0,0,0,0,-1,1266,722,0,0
49,302,0,0,0,0,0,0,0,0,0,-1,1273,722,0,0
56,302,0,0,0,0,0,0,0,0,0,-1,1280,722,0,0
63,302,0,0,0,0,0,0,0,0,0,-1,1287,722,0,0
70,302,0,0,0,0,0,0,0,0,0,-1,1294,722,0,0
77,302,0,0,0,0,0,0,0,0,0,-1,1301,722,0,0
84,302,0,0,0,0,0,0,0,0,0,-1,1308,722,0,0
91,302,0,0,0,0,0,0,0,0,0,-1,1315,722,0,0
98,302,0,0,0,0,0,0,0,0,0,-1,1322,722,0,0
105,302,0,0,0,0,0,0,0,0,0,-1,1329,722,0,0
112,302,0,0,0,0,0,0,0,0,0,-1,1336,722,0,0
119,302,0,0,0,0,0,0,0,0,0,-1,1343,722,0,0
126,302,0,0,0,0,0,0,0,0,0,-1,1350,722,0,0
133,302,0,0,0,0,0,0,0,0,0,-1,1357,722,0,0
140,302,0,0,0,0,0,0,0,0,0,-1,1364,722,0,0
147,302,0,0,0,0,0,0,0,0,0,-1,1371,722,0,0
154,302,0,0,0,0,0,0,0,0,0,-1,1378,722,0,0
161,302,0,0,0,0,0,0,0,0,0,-1,1385,722,0,0
168,302,0,0,0,0,0,0,0,0,0,-1,1392,722,0,0
175,302,0,0,0,0,0,0,0,0,0,-1,1399,722,0,0
182,302,0,0,0,0,0,0,0,0,0,-1,1406,722,0,0
189,302,0,0,0,0,0,0,0,0,0,-1,1413,722,0,0
196,302,0,0,0,0,0,0,0,0,0,-1,1420,722,0,0
203,302,0,0,0,0,0,0,0,0,0,-1,1427,722,0,0
210,302,0,0,0,0,0,0,0,0,0,-1,1434,722,0,0
217,302,0,0,0,0,0,0,0,0,0,-1,1441,722,0,0
224,302,0,0,0,0,0,0,0,0,0,-1,1448,722,0,0
231,302,0,0,0,0,0,0,0,0,0,-1,1455,722,0,0
238,302,0,0,0,0,0,0,0,0,0,-1,1462,722,0,0
245,302,0,0,0,0,0,0,0,0,0,-1,1469,722,0,0
252,302,0,0,0,0,0,0,0,0,0,-1,1476,722,0,0
259,302,0,0,0,0,0,0,0,0,0,-1,1483,722,0,0
266,302,0,0,0,0,0,0,0,0,0,-1,1490,722,0,0
273,302,0,0,0,0,0,0,0,0,0,-1,1497,722,0,0
280,302,0,0,0,0,0,0,0,0,0,-1,1504,722,0,0
287,302,0,0,0,0,0,0,0,0,0,-1,1511,722,0,0
294,302,0,0,0,0,0,0,0,0,0,-1,1518,722,0,0
301,302,0,0,0,0,0,0,0,0,0,-1,1525,722,0,0
308,302,0,0,0,0,0,0,0,0,0,-1,1532,722,0,0
315,302,0,0,0,0,0,0,0,0,0,-1,1539,722,0,0
322,302,0,0,0,0,0,0,0,0,0,-1,1546,722,0,0
329,302,0,0,0,0,0,0,0,0,0,-1,1553,722,0,0
336,302,0,0,0,0,0,0,0,0,0,-1,1560,722,0,0
343,302,0,0,0,0,0,0,0,0,0,-1,1567,722,0,0
350,302,0,0,0,0,0,0,0,0,0,-1,1574,722,0,0
357,302,0,0,0,0,0,0,0,0,0,-1,1581,722,0,0
364,302,0,0,0,0,0,0,0,0,0,-1,1588,722,0,0
371,302,0,0,0,0,0,0,0,0,0,-1,1595,722,0,0
378,302,0,0,0,0,0,0,0,0,0,-1,1602,722,0,0
385,302,0,0,0,0,0,0,0,0,0,-1,1609,722,0,0
392,302,0,0,0,0,0,0,0,0,0,-1,1616,722,0,0
399,302,0,0,0,0,0,0,0,0,0,-1,1623,722,0,0
406,302,0,0,0,0,0,0,0,0,0,-1,1630,722,0,0
413,302,0,0,0,0,0,0,0,0,0,-1,1637,722,0,0
420,302,0,0,0,0,0,0,0,0,0,-1,1644,722,0,0
427,302,0,0,0,0,0,0,0,0,0,-1,1651,722,0,0
434,302,0,0,0,0,0,0,0,0,0,-1,1658,722,0,0
441,302,0,0,0,0,0,0,0,0,0,-1,1665,722,0,0
448,302,0,0,0,0,0,0,0,0,0,-1,1672,722,0,0
455,302,0,0,0,0,0,0,0,0,0,-1,1679,722,0,0
462,302,0,0,0,0,0,0,0,0,0,-1,1686,722,0,0
469,302,0,0,0,0,0,0,0,0,0,-1,1693,722,0,0
476,302,0,0,0,0,0,0,0,0,0,-1,1700,722,0,0
483,302,0,0,0,0,0,0,0,0,0,-1,1707,722,0,0
490,302,0,0,0,0,0,0,0,0,0,-1,1714,722,0,0
497,302,0,0,0,0,0,0,0,0,0,-1,1721,722,0,0
504,302,0,0,0,0,0,0,0,0,0,-1,1728,722,0,0
511,302,0,0,0,0,0,0,0,0,0,-1,1735,722,0,0
518,302,0,0,0,0,0,0,0,0,0,-1,1742,722,0,0
525,302,0,0,0,0,0,0,0,0,0,-1,1749,722,0,0
532,302,0,0,0,0,0,0,0,0,0,-1,1756,722,0,0
539,302,0,0,0,0,0,0,0,0,0,-1,1763,722,0,0
546,302,48.9873,1.50562,0,0,0,0,0,0,0,-1,1770,722,48.9873,-1.50562
553,302,56.7844,3.46533,0,0,0,0,0,0,0,-1,1777,722,56.7844,-3.4653
560,302,56.7115,3.84808,0,0,0,0,0,0,0,-1,1784,722,56.7116,-3.84806
567,302,55.9475,4.24542,0,0,0,0,0,0,0,-1,1791,722,55.9475,-4.24542
574,302,45.9537,6.00867,0,0,0,0,0,0,0,-1,1798,722,45.9537,-6.00864
581,302,45.137,7.38043,0,0,0,0,0,0,0,-1,1805,722,45.1369,-7.38044
588,302,26.9731,7.19983,0,0,0,0,0,0,0,-1,1812,722,26.9732,-7.19981
595,302,27.3826,8.13104,0,0,0,0,0,0,0,-1,1819,722,27.3825,-8.13102
602,302,14.7349,5.21246,0,0,0,0,0,0,0,-1,1826,722,14.7349,-5.21247
609,302,31.1039,-6.34253,0,0,0,0,0,0,0,-1,1833,722,31.1039,6.34254
616,302,46.153,-11.1053,0,0,0,0,0,0,0,-1,1840,722,46.1529,11.1053
623,302,46.0261,-10.0569,0.00260976,-0.000386136,0.000816995,0.00281807,-0.000594449,0.249656,0.00210503,0.0183039,1847,722,46.0261,10.0569
630,302,45.9272,-9.13867,0.0021741,-0.000319527,0.000681707,0.0023483,-0.000493723,0.250176,0.00175343,0.0121252,1854,722,45.9273,9.13864
637,302,45.8455,-8.19263,0.00186396,-0.000167088,0.000643688,0.00205077,-0.000353905,0.282469,0.00149914,0.0155899,1861,722,45.8454,8.19262
644,302,45.7708,-7.23639,0.00169604,0.000113689,0.000679544,0.00194781,-0.000138083,0.354821,0.00134693,0.0165709,1868,722,45.7708,7.23636
651,302,45.728,-6.27124,0.00165021,0.000485212,0.000797225,0.00205507,8.03561e-05,0.469894,0.00134406,0.016217,1875,722,45.7281,6.27126
658,302,45.7371,-5.36725,0.00172477,0.000998636,0.000951046,0.00237969,0.000343712,0.603058,0.00148521,0.0173236,1882,722,45.7371,5.36725
665,302,45.675,-4.4201,0.00191431,0.00157661,0.00118815,0.00294555,0.000545365,0.714815,0.00180951,0.0152538,1889,722,45.675,4.42011
672,302,45.584,-3.4458,0.00225329,0.002308,0.00152287,0.00380376,0.000757528,0.794379,0.00232484,0.01301,1896,722,45.584,3.44581
679,302,45.5179,-2.47461,0.00268352,0.00320557,0.00193134,0.00489345,0.000995648,0.852567,0.00298627,0.0112388,1903,722,45.5179,2.47464
686,302,45.481,-1.44336,0.00332873,0.00424332,0.00248021,0.00630804,0.00126401,0.876563,0.00385375,0.026375,1910,722,45.481,1.44337
693,302,45.3925,-0.42572,0,0,0,0,0,0,0,-1,1917,722,45.3925,0.425734
700,302,25.4069,1.97308,0,0,0,0,0,0,0,-1,1924,722,25.4068,-1.97311
707,302,16.7321,4.76685,0,0,0,0,0,0,0,-1,1931,722,16.7321,-4.76687
714,302,17.2,5.77594,0,0,0,0,0,0,0,-1,1938,722,17.2,-5.77595
721,302,17.7914,6.60394,0,0,0,0,0,0,0,-1,1945,722,17.7914,-6.60395
728,302,17.2798,4.81702,0,0,0,0,0,0,0,-1,1952,722,17.2798,-4.81703
735,302,0,0,0,0,0,0,0,0,0,-1,1959,722,0,0
742,302,0,0,0,0,0,0,0,0,0,-1,1966,722,0,0
749,302,0,0,0,0,0,0,0,0,0,-1,1973,722,0,0
756,302,0,0,0,0,0,0,0,0,0,-1,1980,722,0,0
763,302,0,0,0,0,0,0,0,0,0,-1,1987,722,0,0
770,302,0,0,0,0,0,0,0,0,0,-1,1994,722,0,0
777,302,0,0,0,0,0,0,0,0,0,-1,2001,722,0,0
784,302,0,0,0,0,0,0,0,0,0,-1,2008,722,0,0
791,302,0,0,0,0,0,0,0,0,0,-1,2015,722,0,0
798,302,0,0,0,0,0,0,0,0,0,-1,2022,722,0,0
805,302,0,0,0,0,0,0,0,0,0,-1,2029,722,0,0
812,302,0,0,0,0,0,0,0,0,0,-1,2036,722,0,0
-700,295,0,0,0,0,0,0,0,0,0,-1,524,729,0,0
-693,295,0,0,0,0,0,0,0,0,0,-1,531,729,0,0
-686,295,0,0,0,0,0,0,0,0,0,-1,538,729,0,0
-679,295,0,0,0,0,0,0,0,0,0,-1,545,729,0,0
-672,295,0,0,0,0,0,0,0,0,0,-1,552,729,0,0
-665,295,0,0,0,0,0,0,0,0,0,-1,559,729,0,0
-658,295,0,0,0,0,0,0,0,0,0,-1,566,729,0,0
-651,295,0,0,0,0,0,0,0,0,0,-1,573,729,0,0
-644,295,0,0,0,0,0,0,0,0,0,-1,580,729,0,0
-637,295,0,0,0,0,0,0,0,0,0,-1,587,729,0,0
-630,295,0,0,0,0,0,0,0,0,0,-1,594,729,0,0
-623,295,0,0,0,0,0,0,0,0,0,-1,601,729,0,0
-616,295,-13.4911,1.31738,0,0,0,0,0,0,0,-1,608,729,-13.4911,-1.3174
-609,295,-10.2864,0.832031,0,0,0,0,0,0,0,-1,615,729,-10.2863,-0.832034
-602,295,-8.19006,3.01587,0,0,0,0,0,0,0,-1,622,729,-8.19005,-3.01588
-595,295,-0.615479,-1.95447,0,0,0,0,0,0,0,-1,629,729,-0.615481,1.95445
-588,295,-7.98999,1.56903,0,0,0,0,0,0,0,-1,636,729,-7.98997,-1.56905
-581,295,-12.0404,0.150574,0,0,0,0,0,0,0,-1,643,729,-12.0404,-0.150604
-574,295,-12.1605,-0.0739746,0,0,0,0,0,0,0,-1,650,729,-12.1605,0.0739856
-567,295,-30.2168,-0.701477,0,0,0,0,0,0,0,-1,657,729,-30.2168,0.701459
-560,295,-30.4531,-1.87042,-0.00347578,0.00538159,-0.00141082,0.00560088,-0.00369507,-1.4166,0.00540449,0.0418627,664,729,-30.4531,1.8704
-553,295,-30.4902,-2.87939,-0.00178486,0.00371782,-0.00117628,0.00395873,-0.00202576,-1.36879,0.00351471,0.0216732,671,729,-30.4903,2.87939
-546,295,-30.6387,-3.81378,-0.000813995,0.00271274,-0.000941215,0.00294821,-0.00104946,-1.32565,0.00239327,0.0207703,678,729,-30.6386,3.81379
-539,295,-30.7044,-4.6825,-0.000258121,0.00169358,-0.000583227,0.00185458,-0.000419124,-1.30145,0.00139721,0.0189716,685,729,-30.7044,4.68252
-532,295,-30.7282,-5.60938,-5.50016e-05,0.000807248,-0.000253374,0.00087619,-0.000123944,-1.30513,0.000629522,0.0164865,692,729,-30.7282,5.60938
-525,295,-30.7528,-6.61206,-0.000154956,-7.04026e-05,7.82466e-05,-2.3742e-05,-0.000201616,1.03308,0.000127238,0.0163003,699,729,-30.7528,6.61207
-518,295,-30.7881,-7.53949,-0.000277244,-0.000801441,0.00048848,1.50117e-05,-0.0010937,0.539166,0.000734186,0.012499,706,729,-30.7882,7.53951
-511,295,-30.8672,-8.453,-0.000458108,-0.00117961,0.00118364,0.000418535,-0.00205626,0.637479,0.00152956,0.0099903,713,729,-30.8672,8.45301
-504,295,-30.9468,-9.38489,-0.000462454,-0.000902821,0.00217228,0.00150077,-0.00286605,0.73489,0.00256193,0.0113296,720,729,-30.9468,9.38488
-497,295,-31.0379,-10.2642,-0.000193689,-0.000446503,0.0032168,0.00289919,-0.00353938,0.76576,0.00372343,0.0262611,727,729,-31.0379,10.2642
-490,295,-31.1332,-11.1224,0,0,0,0,0,0,0,-1,734,729,-31.1332,11.1224
-483,295,-6.84503,-0.454651,0,0,0,0,0,0,0,-1,741,729,-6.84505,0.454639
-476,295,-13.1738,-0.836243,0,0,0,0,0,0,0,-1,748,729,-13.1738,0.836223
-469,295,-26.5608,-0.466187,0,0,0,0,0,0,0,-1,755,729,-26.5608,0.466162
-462,295,-29.7701,-0.792664,0,0,0,0,0,0,0,-1,762,729,-29.7701,0.792642
-455,295,-45.11,-2.79272,0,0,0,0,0,0,0,-1,769,729,-45.11,2.79272
-448,295,-48.0288,1.41229,0,0,0,0,0,0,0,-1,776,729,-48.0288,-1.41227
-441,295,-47.1089,1.03058,0,0,0,0,0,0,0,-1,783,729,-47.109,-1.0306
-434,295,-46.2319,1.10614,0,0,0,0,0,0,0,-1,790,729,-46.2319,-1.10612
-427,295,0,0,0,0,0,0,0,0,0,-1,797,729,0,0
-420,295,0,0,0,0,0,0,0,0,0,-1,804,729,0,0
-413,295,0,0,0,0,0,0,0,0,0,-1,811,729,0,0
-406,295,0,0,0,0,0,0,0,0,0,-1,818,729,0,0
-399,295,0,0,0,0,0,0,0,0,0,-1,825,729,0,0
-392,295,0,0,0,0,0,0,0,0,0,-1,832,729,0,0
-385,295,0,0,0,0,0,0,0,0,0,-1,839,729,0,0
-378,295,0,0,0,0,0,0,0,0,0,-1,846,729,0,0
-371,295,0,0,0,0,0,0,0,0,0,-1,853,729,0,0
-364,295,0,0,0,0,0,0,0,0,0,-1,860,729,0,0
-357,295,0,0,0,0,0,0,0,0,0,-1,867,729,0,0
-350,295,0,0,0,0,0,0,0,0,0,-1,874,729,0,0
-343,295,0,0,0,0,0,0,0,0,0,-1,881,729,0,0
-336,295,0,0,0,0,0,0,0,0,0,-1,888,729,0,0
-329,295,0,0,0,0,0,0,0,0,0,-1,895,729,0,0
-322,295,0,0,0,0,0,0,0,0,0,-1,902,729,0,0
-315,295,0,0,0,0,0,0,0,0,0,-1,909,729,0,0
-308,295,0,0,0,0,0,0,0,0,0,-1,916,729,0,0
-301,295,0,0,0,0,0,0,0,0,0,-1,923,729,0,0
-294,295,0,0,0,0,0,0,0,0,0,-1,930,729,0,0
-287,295,0,0,0,0,0,0,0,0,0,-1,937,729,0,0
-280,295,0,0,0,0,0,0,0,0,0,-1,944,729,0,0
-273,295,0,0,0,0,0,0,0,0,0,-1,951,729,0,0
-266,295,0,0,0,0,0,0,0,0,0,-1,958,729,0,0
-259,295,0,0,0,0,0,0,0,0,0,-1,965,729,0,0
-252,295,0,0,0,0,0,0,0,0,0,-1,972,729,0,0
-245,295,0,0,0,0,0,0,0,0,0,-1,979,729,0,0
-238,295,0,0,0,0,0,0,0,0,0,-1,986,729,0,0
-231,295,0,0,0,0,0,0,0,0,0,-1,993,729,0,0
-224,295,0,0,0,0,0,0,0,0,0,-1,1000,729,0,0
-217,295,0,0,0,0,0,0,0,0,0,-1,1007,729,0,0
-210,295,0,0,0,0,0,0,0,0,0,-1,1014,729,0,0
-203,295,0,0,0,0,0,0,0,0,0,-1,1021,729,0,0
-196,295,0,0,0,0,0,0,0,0,0,-1,1028,729,0,0
-189,295,0,0,0,0,0,0,0,0,0,-1,1035,729,0,0
-182,295,0,0,0,0,0,0,0,0,0,-1,1042,729,0,0
-175,295,0,0,0,0,0,0,0,0,0,-1,1049,729,0,0
-168,295,0,0,0,0,0,0,0,0,0,-1,1056,729,0,0
-161,295,0,0,0,0,0,0,0,0,0,-1,1063,729,0,0
-154,295,0,0,0,0,0,0,0,0,0,-1,1070,729,0,0
-147,295,0,0,0,0,0,0,0,0,0,-1,1077,729,0,0
-140,295,0,0,0,0,0,0,0,0,0,-1,1084,729,0,0
-133,295,0,0,0,0,0,0,0,0,0,-1,1091,729,0,0
-126,295,0,0,0,0,0,0,0,0,0,-1,1098,729,0,0
-119,295,0,0,0,0,0,0,0,0,0,-1,1105,729,0,0
-112,295,0,0,0,0,0,0,0,0,0,-1,1112,729,0,0
-105,295,0,0,0,0,0,0,0,0,0,-1,1119,729,0,0
-98,295,0,0,0,0,0,0,0,0,0,-1,1126,729,0,0
-91,295,0,0,0,0,0,0,0,0,0,-1,1133,729,0,0
-84,295,0,0,0,0,0,0,0,0,0,-1,1140,729,0,0
-77,295,0,0,0,0,0,0,0,0,0,-1,1147,729,0,0
-70,295,0,0,0,0,0,0,0,0,0,-1,1154,729,0,0
-63,295,0,0,0,0,0,0,0,0,0,-1,1161,729,0,0
-56,295,0,0,0,0,0,0,0,0,0,-1,1168,729,0,0
-49,295,0,0,0,0,0,0,0,0,0,-1,1175,729,0,0
-42,295,0,0,0,0,0,0,0,0,0,-1,1182,729,0,0
-35,295,0,0,0,0,0,0,0,0,0,-1,1189,729,0,0
-28,295,0,0,0,0,0,0,0,0,0,-1,1196,729,0,0
-21,295,0,0,0,0,0,0,0,0,0,-1,1203,729,0,0
-14,295,0,0,0,0,0,0,0,0,0,-1,1210,729,0,0
-7,295,0,0,0,0,0,0,0,0,0,-1,1217,729,0,0
0,295,0,0,0,0,0,0,0,0,0,-1,1224,729,0,0
7,295,0,0,0,0,0,0,0,0,0,-1,1231,729,0,0
14,295,0,0,0,0,0,0,0,0,0,-1,1238,729,0,0
21,295,0,0,0,0,0,0,0,0,0,-1,1245,729,0,0
28,295,0,0,0,0,0,0,0,0,0,-1,1252,729,0,0
35,295,0,0,0,0,0,0,0,0,0,-1,1259,729,0,0
42,295,0,0,0,0,0,0,0,0,0,-1,1266,729,0,0
49,295,0,0,0,0,0,0,0,0,0,-1,1273,729,0,0
56,295,0,0,0,0,0,0,0,0,0,-1,1280,729,0,0
63,295,0,0,0,0,0,0,0,0,0,-1,1287,729,0,0
70,295,0,0,0,0,0,0,0,0,0,-1,1294,729,0,0
77,295,0,0,0,0,0,0,0,0,0,-1,1301,729,0,0
84,295,0,0,0,0,0,0,0,0,0,-1,1308,729,0,0
91,295,0,0,0,0,0,0,0,0,0,-1,1315,729,0,0
98,295,0,0,0,0,0,0,0,0,0,-1,1322,729,0,0
105,295,0,0,0,0,0,0,0,0,0,-1,1329,729,0,0
112,295,0,0,0,0,0,0,0,0,0,-1,1336,729,0,0
119,295,0,0,0,0,0,0,0,0,0,-1,1343,729,0,0
126,295,0,0,0,0,0,0,0,0,0,-1,1350,729,0,0
133,295,0,0,0,0,0,0,0,0,0,-1,1357,729,0,0
140,295,0,0,0,0,0,0,0,0,0,-1,1364,729,0,0
147,295,0,0,0,0,0,0,0,0,0,-1,1371,729,0,0
154,295,0,0,0,0,0,0,0,0,0,-1,1378,729,0,0
161,295,0,0,0,0,0,0,0,0,0,-1,1385,729,0,0
168,295,0,0,0,0,0,0,0,0,0,-1,1392,729,0,0
175,295,0,0,0,0,0,0,0,0,0,-1,1399,729,0,0
182,295,0,0,0,0,0,0,0,0,0,-1,1406,729,0,0
189,295,0,0,0,0,0,0,0,0,0,-1,1413,729,0,0
196,295,0,0,0,0,0,0,0,0,0,-1,1420,729,0,0
203,295,0,0,0,0,0,0,0,0,0,-1,1427,729,0,0
210,295,0,0,0,0,0,0,0,0,0,-1,1434,729,0,0
217,295,0,0,0,0,0,0,0,0,0,-1,1441,729,0,0
224,295,0,0,0,0,0,0,0,0,0,-1,1448,729,0,0
231,295,0,0,0,0,0,0,0,0,0,-1,1455,729,0,0
238,295,0,0,0,0,0,0,0,0,0,-1,1462,729,0,0
245,295,0,0,0,0,0,0,0,0,0,-1,1469,729,0,0
252,295,0,0,0,0,0,0,0,0,0,-1,1476,729,0,0
259,295,0,0,0,0,0,0,0,0,0,-1,1483,729,0,0
266,295,0,0,0,0,0,0,0,0,0,-1,1490,729,0,0
273,295,0,0,0,0,0,0,0,0,0,-1,1497,729,0,0
280,295,0,0,0,0,0,0,0,0,0,-1,1504,729,0,0
287,295,0,0,0,0,0,0,0,0,0,-1,1511,729,0,0
294,295,0,0,0,0,0,0,0,0,0,-1,1518,729,0,0
301,295,0,0,0,0,0,0,0,0,0,-1,1525,729,0,0
308,295,0,0,0,0,0,0,0,0,0,-1,1532,729,0,0
315,295,0,0,0,0,0,0,0,0,0,-1,1539,729,0,0
322,295,0,0,0,0,0,0,0,0,0,-1,1546,729,0,0
329,295,0,0,0,0,0,0,0,0,0,-1,1553,729,0,0
336,295,0,0,0,0,0,0,0,0,0,-1,1560,729,0,0
343,295,0,0,0,0,0,0,0,0,0,-1,1567,729,0,0
350,295,0,0,0,0,0,0,0,0,0,-1,1574,729,0,0
357,295,0,0,0,0,0,0,0,0,0,-1,1581,729,0,0
364,295,0,0,0,0,0,0,0,0,0,-1,1588,729,0,0
371,295,0,0,0,0,0,0,0,0,0,-1,1595,729,0,0
378,295,0,0,0,0,0,0,0,0,0,-1,1602,729,0,0
385,295,0,0,0,0,0,0,0,0,0,-1,1609,729,0,0
392,295,0,0,0,0,0,0,0,0,0,-1,1616,729,0,0
399,295,0,0,0,0,0,0,0,0,0,-1,1623,729,0,0
406,295,0,0,0,0,0,0,0,0,0,-1,1630,729,0,0
413,295,0,0,0,0,0,0,0,0,0,-1,1637,729,0,0
420,295,0,0,0,0,0,0,0,0,0,-1,1644,729,0,0
427,295,0,0,0,0,0,0,0,0,0,-1,1651,729,0,0
434,295,0,0,0,0,0,0,0,0,0,-1,1658,729,0,0
441,295,0,0,0,0,0,0,0,0,0,-1,1665,729,0,0
448,295,0,0,0,0,0,0,0,0,0,-1,1672,729,0,0
455,295,0,0,0,0,0,0,0,0,0,-1,1679,729,0,0
462,295,0,0,0,0,0,0,0,0,0,-1,1686,729,0,0
469,295,0,0,0,0,0,0,0,0,0,-1,1693,729,0,0
476,295,0,0,0,0,0,0,0,0,0,-1,1700,729,0,0
483,295,0,0,0,0,0,0,0,0,0,-1,1707,729,0,0
490,295,0,0,0,0,0,0,0,0,0,-1,1714,729,0,0
497,295,0,0,0,0,0,0,0,0,0,-1,1721,729,0,0
504,295,0,0,0,0,0,0,0,0,0,-1,1728,729,0,0
511,295,0,0,0,0,0,0,0,0,0,-1,1735,729,0,0
518,295,0,0,0,0,0,0,0,0,0,-1,1742,729,0,0
525,295,0,0,0,0,0,0,0,0,0,-1,1749,729,0,0
532,295,0,0,0,0,0,0,0,0,0,-1,1756,729,0,0
539,295,0,0,0,0,0,0,0,0,0,-1,1763,729,0,0
546,295,57.4674,2.36884,0,0,0,0,0,0,0,-1,1770,729,57.4674,-2.36883
553,295,57.1969,2.73846,0,0,0,0,0,0,0,-1,1777,729,57.197,-2.73843
560,295,57.0291,3.27454,0,0,0,0,0,0,0,-1,1784,729,57.029,-3.27454
567,295,56.6243,3.88239,0,0,0,0,0,0,0,-1,1791,729,56.6242,-3.8824
574,295,56.5275,4.755,0,0,0,0,0,0,0,-1,1798,729,56.5274,-4.75501
581,295,37.8191,2.19592,0,0,0,0,0,0,0,-1,1805,729,37.8191,-2.19594
588,295,39.0542,2.45679,0,0,0,0,0,0,0,-1,1812,729,39.0542,-2.45676
595,295,27.2102,6.99121,0,0,0,0,0,0,0,-1,1819,729,27.2103,-6.99121
602,295,26.9065,7.82141,0,0,0,0,0,0,0,-1,1826,729,26.9064,-7.8214
609,295,11.7737,2.19989,0,0,0,0,0,0,0,-1,1833,729,11.7736,-2.19988
616,295,45.2537,-10.4867,0,0,0,0,0,0,0,-1,1840,729,45.2537,10.4867
623,295,46.9143,-10.0181,0,0,0,0,0,0,0,-1,1847,729,46.9144,10.0182
630,295,46.8658,-9.06561,0.00199448,-0.000610628,0.0015269,0.00269893,-0.00131508,0.432261,0.00236295,0.0147116,1854,729,46.8658,9.06561
637,295,46.8138,-8.10443,0.00192301,-0.000175681,0.000949164,0.0022886,-0.00054127,0.367656,0.00173454,0.0152789,1861,729,46.8138,8.10444
644,295,46.7644,-7.15234,0.00172138,0.000132635,0.000696325,0.00198336,-0.000129353,0.359861,0.0013674,0.0147886,1868,729,46.7645,7.15234
651,295,46.7111,-6.20166,0.00158308,0.000395238,0.000686694,0.00189706,8.12543e-05,0.428858,0.00123851,0.0146531,1875,729,46.711,6.20168
658,295,46.6594,-5.27899,0.00158707,0.000865971,0.000804757,0.00210835,0.000344687,0.574794,0.00130593,0.0139467,1882,729,46.6594,5.27898
665,295,46.5894,-4.34357,0.00168458,0.00140666,0.00100335,0.00255855,0.000532699,0.716588,0.00155877,0.0123485,1889,729,46.5894,4.34354
672,295,46.5237,-3.39734,0.00195604,0.00208499,0.00129963,0.00332175,0.000719284,0.810184,0.00201793,0.0148927,1896,729,46.5237,3.39736
679,295,46.4534,-2.44183,0.00240807,0.00296447,0.00170564,0.00441445,0.000958087,0.866239,0.00268128,0.0120744,1903,729,46.4533,2.44183
686,295,46.4441,-1.48822,0.00302146,0.00398148,0.00220784,0.00576089,0.00124205,0.892439,0.00350081,0.0129124,1910,729,46.4441,1.48821
693,295,46.4504,-0.535767,0,0,0,0,0,0,0,-1,1917,729,46.4504,0.535743
700,295,31.3757,2.06982,0,0,0,0,0,0,0,-1,1924,729,31.3758,-2.0698
707,295,22.2661,3.05206,0,0,0,0,0,0,0,-1,1931,729,22.2662,-3.05207
714,295,17.4906,4.63068,0,0,0,0,0,0,0,-1,1938,729,17.4906,-4.63066
721,295,18.3792,5.32281,0,0,0,0,0,0,0,-1,1945,729,18.3791,-5.32283
728,295,17.379,3.74866,0,0,0,0,0,0,0,-1,1952,729,17.379,-3.74863
735,295,0,0,0,0,0,0,0,0,0,-1,1959,729,0,0
742,295,0,0,0,0,0,0,0,0,0,-1,1966,729,0,0
749,295,0,0,0,0,0,0,0,0,0,-1,1973,729,0,0
756,295,0,0,0,0,0,0,0,0,0,-1,1980,729,0,0
763,295,0,0,0,0,0,0,0,0,0,-1,1987,729,0,0
770,295,0,0,0,0,0,0,0,0,0,-1,1994,729,0,0
777,295,0,0,0,0,0,0,0,0,0,-1,2001,729,0,0
784,295,0,0,0,0,0,0,0,0,0,-1,2008,729,0,0
791,295,0,0,0,0,0,0,0,0,0,-1,2015,729,0,0
798,295,0,0,0,0,0,0,0,0,0,-1,2022,729,0,0
805,295,0,0,0,0,0,0,0,0,0,-1,2029,729,0,0
812,295,0,0,0,0,0,0,0,0,0,-1,2036,729,0,0
-700,288,0,0,0,0,0,0,0,0,0,-1,524,736,0,0
-693,288,0,0,0,0,0,0,0,0,0,-1,531,736,0,0
-686,288,0,0,0,0,0,0,0,0,0,-1,538,736,0,0
-679,288,0,0,0,0,0,0,0,0,0,-1,545,736,0,0
-672,288,0,0,0,0,0,0,0,0,0,-1,552,736,0,0
-665,288,0,0,0,0,0,0,0,0,0,-1,559,736,0,0
-658,288,0,0,0,0,0,0,0,0,0,-1,566,736,0,0
-651,288,0,0,0,0,0,0,0,0,0,-1,573,736,0,0
-644,288,0,0,0,0,0,0,0,0,0,-1,580,736,0,0
-637,288,0,0,0,0,0,0,0,0,0,-1,587,736,0,0
-630,288,0,0,0,0,0,0,0,0,0,-1,594,736,0,0
-623,288,0,0,0,0,0,0,0,0,0,-1,601,736,0,0
-616,288,-11.7584,2.4425,0,0,0,0,0,0,0,-1,608,736,-11.7584,-2.44251
-609,288,-10.3007,2.32178,0,0,0,0,0,0,0,-1,615,736,-10.3007,-2.32178
-602,288,-10.1458,-1.85559,0,0,0,0,0,0,0,-1,622,736,-10.1458,1.85556
-595,288,-7.63208,1.81769,0,0,0,0,0,0,0,-1,629,736,-7.63205,-1.81766
-588,288,-8.19269,1.50598,0,0,0,0,0,0,0,-1,636,736,-8.19268,-1.50601
-581,288,-13.1915,0.659241,0,0,0,0,0,0,0,-1,643,736,-13.1915,-0.659228
-574,288,-30.9372,0.0419312,0,0,0,0,0,0,0,-1,650,736,-30.9372,-0.0419023
-567,288,-31.1443,-0.905579,-0.00559578,0.0060685,-0.00192785,0.00637887,-0.00590615,-1.41117,0.00709451,0.0384984,657,736,-31.1443,0.905602
-560,288,-31.4323,-1.8692,-0.00360022,0.00438353,-0.00126127,0.00457805,-0.00379474,-1.41778,0.00484108,0.0189469,664,736,-31.4322,1.86922
-553,288,-31.4304,-2.78082,-0.00214406,0.00297347,-0.000892451,0.00312464,-0.00229523,-1.403,0.00314136,0.0188519,671,736,-31.4304,2.78085
-546,288,-31.5368,-3.72162,-0.00128065,0.00201187,-0.000583203,0.00211212,-0.0013809,-1.40056,0.00203137,0.0206859,678,736,-31.5368,3.7216
-539,288,-31.6297,-4.61108,-0.000777268,0.00111228,-0.000199864,0.00113318,-0.000798177,-1.46656,0.00112065,0.0182204,685,736,-31.6297,4.61111
-532,288,-31.5995,-5.534,-0.000627725,0.000349881,9.14295e-05,0.000358359,-0.000636202,1.47834,0.000581631,0.0161285,692,736,-31.5995,5.53399
-525,288,-31.6737,-6.50763,-0.000753354,-0.000368712,0.000317585,-0.000189755,-0.000932312,1.05765,0.000568937,0.0145383,699,736,-31.6737,6.50764
-518,288,-31.7642,-7.45923,-0.000814829,-0.00100522,0.000591101,-0.000311305,-0.00150874,0.705562,0.000919789,0.0126998,706,736,-31.7642,7.45923
-511,288,-31.8464,-8.37775,-0.000784758,-0.00113615,0.00119096,0.000243393,-0.0021643,0.712164,0.00153046,0.00984216,713,736,-31.8464,8.37772
-504,288,-31.9147,-9.30682,-0.000501446,-0.000541473,0.00210719,0.00158582,-0.00262874,0.780649,0.00245799,0.012039,720,736,-31.9147,9.3068
-497,288,-31.9003,-9.96887,6.34053e-05,2.78247e-05,0.0029941,0.00303977,-0.00294854,0.782427,0.00345749,0.0379698,727,736,-31.9003,9.96886
-490,288,-31.704,-10.5182,0,0,0,0,0,0,0,-1,734,736,-31.7041,10.5183
-483,288,-17.3287,0.564758,0,0,0,0,0,0,0,-1,741,736,-17.3287,-0.56477
-476,288,-26.136,0.452148,0,0,0,0,0,0,0,-1,748,736,-26.136,-0.452177
-469,288,-27.7904,0.649841,0,0,0,0,0,0,0,-1,755,736,-27.7904,-0.649854
-462,288,-44.999,-2.65112,0,0,0,0,0,0,0,-1,762,736,-44.999,2.65111
-455,288,-49.1631,1.86432,0,0,0,0,0,0,0,-1,769,736,-49.1632,-1.8643
-448,288,-55.5283,0.0455933,0,0,0,0,0,0,0,-1,776,736,-55.5284,-0.0456
-441,288,-55.0096,0.39325,0,0,0,0,0,0,0,-1,783,736,-55.0096,-0.393269
-434,288,-46.7119,1.66388,0,0,0,0,0,0,0,-1,790,736,-46.7119,-1.66385
-427,288,0,0,0,0,0,0,0,0,0,-1,797,736,0,0
-420,288,0,0,0,0,0,0,0,0,0,-1,804,736,0,0
-413,288,0,0,0,0,0,0,0,0,0,-1,811,736,0,0
-406,288,0,0,0,0,0,0,0,0,0,-1,818,736,0,0
-399,288,0,0,0,0,0,0,0,0,0,-1,825,736,0,0
-392,288,0,0,0,0,0,0,0,0,0,-1,832,736,0,0
-385,288,0,0,0,0,0,0,0,0,0,-1,839,736,0,0
-378,288,0,0,0,0,0,0,0,0,0,-1,846,736,0,0
-371,288,0,0,0,0,0,0,0,0,0,-1,853,736,0,0
-364,288,0,0,0,0,0,0,0,0,0,-1,860,736,0,0
-357,288,0,0,0,0,0,0,0,0,0,-1,867,736,0,0
-350,288,0,0,0,0,0,0,0,0,0,-1,874,736,0,0
-343,288,0,0,0,0,0,0,0,0,0,-1,881,736,0,0
-336,288,0,0,0,0,0,0,0,0,0,-1,888,736,0,0
-329,288,0,0,0,0,0,0,0,0,0,-1,895,736,0,0
-322,288,0,0,0,0,0,0,0,0,0,-1,902,736,0,0
-315,288,0,0,0,0,0,0,0,0,0,-1,909,736,0,0
-308,288,0,0,0,0,0,0,0,0,0,-1,916,736,0,0
-301,288,0,0,0,0,0,0,0,0,0,-1,923,736,0,0
-294,288,0,0,0,0,0,0,0,0,0,-1,930,736,0,0
-287,288,0,0,0,0,0,0,0,0,0,-1,937,736,0,0
-280,288,0,0,0,0,0,0,0,0,0,-1,944,736,0,0
-273,288,0,0,0,0,0,0,0,0,0,-1,951,736,0,0
-266,288,0,0,0,0,0,0,0,0,0,-1,958,736,0,0
-259,288,0,0,0,0,0,0,0,0,0,-1,965,736,0,0
-252,288,0,0,0,0,0,0,0,0,0,-1,972,736,0,0
-245,288,0,0,0,0,0,0,0,0,0,-1,979,736,0,0
-238,288,0,0,0,0,0,0,0,0,0,-1,986,736,0,0
-231,288,0,0,0,0,0,0,0,0,0,-1,993,736,0,0
-224,288,0,0,0,0,0,0,0,0,0,-1,1000,736,0,0
-217,288,0,0,0,0,0,0,0,0,0,-1,1007,736,0,0
-210,288,0,0,0,0,0,0,0,0,0,-1,1014,736,0,0
-203,288,0,0,0,0,0,0,0,0,0,-1,1021,736,0,0
-196,288,0,0,0,0,0,0,0,0,0,-1,1028,736,0,0
-189,288,0,0,0,0,0,0,0,0,0,-1,1035,736,0,0
-182,288,0,0,0,0,0,0,0,0,0,-1,1042,736,0,0
-175,288,0,0,0,0,0,0,0,0,0,-1,1049,736,0,0
-168,288,0,0,0,0,0,0,0,0,0,-1,1056,736,0,0
-161,288,0,0,0,0,0,0,0,0,0,-1,1063,736,0,0
-154,288,0,0,0,0,0,0,0,0,0,-1,1070,736,0,0
-147,288,0,0,0,0,0,0,0,0,0,-1,1077,736,0,0
-140,288,0,0,0,0,0,0,0,0,0,-1,1084,736,0,0
-133,288,0,0,0,0,0,0,0,0,0,-1,1091,736,0,0
-126,288,0,0,0,0,0,0,0,0,0,-1,1098,736,0,0
-119,288,0,0,0,0,0,0,0,0,0,-1,1105,736,0,0
-112,288,0,0,0,0,0,0,0,0,0,-1,1112,736,0,0
-105,288,0,0,0,0,0,0,0,0,0,-1,1119,736,0,0
-98,288,0,0,0,0,0,0,0,0,0,-1,1126,736,0,0
-91,288,0,0,0,0,0,0,0,0,0,-1,1133,736,0,0
-84,288,0,0,0,0,0,0,0,0,0,-1,1140,736,0,0
-77,288,0,0,0,0,0,0,0,0,0,-1,1147,736,0,0
-70,288,0,0,0,0,0,0,0,0,0,-1,1154,736,0,0
-63,288,0,0,0,0,0,0,0,0,0,-1,1161,736,0,0
-56,288,0,0,0,0,0,0,0,0,0,-1,1168,736,0,0
-49,288,0,0,0,0,0,0,0,0,0,-1,1175,736,0,0
-42,288,0,0,0,0,0,0,0,0,0,-1,1182,736,0,0
-35,288,0,0,0,0,0,0,0,0,0,-1,1189,736,0,0
-28,288,0,0,0,0,0,0,0,0,0,-1,1196,736,0,0
-21,288,0,0,0,0,0,0,0,0,0,-1,1203,736,0,0
-14,288,0,0,0,0,0,0,0,0,0,-1,1210,736,0,0
-7,288,0,0,0,0,0,0,0,0,0,-1,1217,736,0,0
0,288,0,0,0,0,0,0,0,0,0,-1,1224,736,0,0
7,288,0,0,0,0,0,0,0,0,0,-1,1231,736,0,0
14,288,0,0,0,0,0,0,0,0,0,-1,1238,736,0,0
21,288,0,0,0,0,0,0,0,0,0,-1,1245,736,0,0
28,288,0,0,0,0,0,0,0,0,0,-1,1252,736,0,0
35,288,0,0,0,0,0,0,0,0,0,-1,1259,736,0,0
42,288,0,0,0,0,0,0,0,0,0,-1,1266,736,0,0
49,288,0,0,0,0,0,0,0,0,0,-1,1273,736,0,0
56,288,0,0,0,0,0,0,0,0,0,-1,1280,736,0,0
63,288,0,0,0,0,0,0,0,0,0,-1,1287,736,0,0
70,288,0,0,0,0,0,0,0,0,0,-1,1294,736,0,0
77,288,0,0,0,0,0,0,0,0,0,-1,1301,736,0,0
84,288,0,0,0,0,0,0,0,0,0,-1,1308,736,0,0
91,288,0,0,0,0,0,0,0,0,0,-1,1315,736,0,0
98,288,0,0,0,0,0,0,0,0,0,-1,1322,736,0,0
105,288,0,0,0,0,0,0,0,0,0,-1,1329,736,0,0
112,288,0,0,0,0,0,0,0,0,0,-1,1336,736,0,0
119,288,0,0,0,0,0,0,0,0,0,-1,1343,736,0,0
126,288,0,0,0,0,0,0,0,0,0,-1,1350,736,0,0
133,288,0,0,0,0,0,0,0,0,0,-1,1357,736,0,0
140,288,0,0,0,0,0,0,0,0,0,-1,1364,736,0,0
147,288,0,0,0,0,0,0,0,0,0,-1,1371,736,0,0
154,288,0,0,0,0,0,0,0,0,0,-1,1378,736,0,0
161,288,0,0,0,0,0,0,0,0,0,-1,1385,736,0,0
168,288,0,0,0,0,0,0,0,0,0,-1,1392,736,0,0
175,288,0,0,0,0,0,0,0,0,0,-1,1399,736,0,0
182,288,0,0,0,0,0,0,0,0,0,-1,1406,736,0,0
189,288,0,0,0,0,0,0,0,0,0,-1,1413,736,0,0
196,288,0,0,0,0,0,0,0,0,0,-1,1420,736,0,0
203,288,0,0,0,0,0,0,0,0,0,-1,1427,736,0,0
210,288,0,0,0,0,0,0,0,0,0,-1,1434,736,0,0
217,288,0,0,0,0,0,0,0,0,0,-1,1441,736,0,0
224,288,0,0,0,0,0,0,0,0,0,-1,1448,736,0,0
231,288,0,0,0,0,0,0,0,0,0,-1,1455,736,0,0
238,288,0,0,0,0,0,0,0,0,0,-1,1462,736,0,0
245,288,0,0,0,0,0,0,0,0,0,-1,1469,736,0,0
252,288,0,0,0,0,0,0,0,0,0,-1,1476,736,0,0
259,288,0,0,0,0,0,0,0,0,0,-1,1483,736,0,0
266,288,0,0,0,0,0,0,0,0,0,-1,1490,736,0,0
273,288,0,0,0,0,0,0,0,0,0,-1,1497,736,0,0
280,288,0,0,0,0,0,0,0,0,0,-1,1504,736,0,0
287,288,0,0,0,0,0,0,0,0,0,-1,1511,736,0,0
294,288,0,0,0,0,0,0,0,0,0,-1,1518,736,0,0
301,288,0,0,0,0,0,0,0,0,0,-1,1525,736,0,0
308,288,0,0,0,0,0,0,0,0,0,-1,1532,736,0,0
315,288,0,0,0,0,0,0,0,0,0,-1,1539,736,0,0
322,288,0,0,0,0,0,0,0,0,0,-1,1546,736,0,0
329,288,0,0,0,0,0,0,0,0,0,-1,1553,736,0,0
336,288,0,0,0,0,0,0,0,0,0,-1,1560,736,0,0
343,288,0,0,0,0,0,0,0,0,0,-1,1567,736,0,0
350,288,0,0,0,0,0,0,0,0,0,-1,1574,736,0,0
357,288,0,0,0,0,0,0,0,0,0,-1,1581,736,0,0
364,288,0,0,0,0,0,0,0,0,0,-1,1588,736,0,0
371,288,0,0,0,0,0,0,0,0,0,-1,1595,736,0,0
378,288,0,0,0,0,0,0,0,0,0,-1,1602,736,0,0
385,288,0,0,0,0,0,0,0,0,0,-1,1609,736,0,0
392,288,0,0,0,0,0,0,0,0,0,-1,1616,736,0,0
399,288,0,0,0,0,0,0,0,0,0,-1,1623,736,0,0
406,288,0,0,0,0,0,0,0,0,0,-1,1630,736,0,0
413,288,0,0,0,0,0,0,0,0,0,-1,1637,736,0,0
420,288,0,0,0,0,0,0,0,0,0,-1,1644,736,0,0
427,288,0,0,0,0,0,0,0,0,0,-1,1651,736,0,0
434,288,0,0,0,0,0,0,0,0,0,-1,1658,736,0,0
441,288,0,0,0,0,0,0,0,0,0,-1,1665,736,0,0
448,288,0,0,0,0,0,0,0,0,0,-1,1672,736,0,0
455,288,0,0,0,0,0,0,0,0,0,-1,1679,736,0,0
462,288,0,0,0,0,0,0,0,0,0,-1,1686,736,0,0
469,288,0,0,0,0,0,0,0,0,0,-1,1693,736,0,0
476,288,0,0,0,0,0,0,0,0,0,-1,1700,736,0,0
483,288,0,0,0,0,0,0,0,0,0,-1,1707,736,0,0
490,288,0,0,0,0,0,0,0,0,0,-1,1714,736,0,0
497,288,0,0,0,0,0,0,0,0,0,-1,1721,736,0,0
504,288,0,0,0,0,0,0,0,0,0,-1,1728,736,0,0
511,288,0,0,0,0,0,0,0,0,0,-1,1735,736,0,0
518,288,0,0,0,0,0,0,0,0,0,-1,1742,736,0,0
525,288,0,0,0,0,0,0,0,0,0,-1,1749,736,0,0
532,288,0,0,0,0,0,0,0,0,0,-1,1756,736,0,0
539,288,0,0,0,0,0,0,0,0,0,-1,1763,736,0,0
546,288,0,0,0,0,0,0,0,0,0,-1,1770,736,0,0
553,288,57.4934,2.28064,0,0,0,0,0,0,0,-1,1777,736,57.4934,-2.28064
560,288,57.3807,3.02881,0,0,0,0,0,0,0,-1,1784,736,57.3808,-3.0288
567,288,57.2081,3.74274,0,0,0,0,0,0,0,-1,1791,736,57.2081,-3.74273
574,288,56.9817,4.36981,0,0,0,0,0,0,0,-1,1798,736,56.9816,-4.36984
581,288,53.4904,5.33215,0,0,0,0,0,0,0,-1,1805,736,53.4904,-5.33218
588,288,54.9313,3.29852,0,0,0,0,0,0,0,-1,1812,736,54.9313,-3.29849
595,288,47.035,3.35156,0,0,0,0,0,0,0,-1,1819,736,47.035,-3.35157
602,288,26.7634,7.61279,0,0,0,0,0,0,0,-1,1826,736,26.7635,-7.61279
609,288,17.5223,4.86414,0,0,0,0,0,0,0,-1,1833,736,17.5223,-4.86412
616,288,13.4886,0.801331,0,0,0,0,0,0,0,-1,1840,736,13.4886,-0.80132
623,288,47.7054,-9.90039,0,0,0,0,0,0,0,-1,1847,736,47.7055,9.9004
630,288,47.7371,-8.96246,0.00223588,-0.000611485,0.00223647,0.00346336,-0.00183896,0.501958,0.00310882,0.0376594,1854,736,47.7371,8.96249
637,288,47.7705,-8.0376,0.00228421,0.00011306,0.00123558,0.00284336,-0.00044609,0.424966,0.00206043,0.0125132,1861,736,47.7705,8.03761
644,288,47.7233,-7.10205,0.00193277,0.000334219,0.000756744,0.00223418,3.28106e-05,0.379036,0.00147863,0.0109942,1868,736,47.7232,7.10204
651,288,47.6565,-6.1604,0.00159996,0.000335092,0.000606099,0.0018435,9.1552e-05,0.38207,0.00119964,0.0123766,1875,736,47.6565,6.16041
658,288,47.6047,-5.18286,0.00149875,0.000658829,0.000675314,0.00187403,0.000283543,0.507224,0.00116639,0.0172022,1882,736,47.6048,5.18289
665,288,47.5441,-4.25562,0.00152407,0.00113209,0.000839373,0.00219003,0.000466129,0.670703,0.00133211,0.0180276,1889,736,47.544,4.25561
672,288,47.483,-3.34259,0.00172809,0.00174511,0.00108706,0.0028237,0.000649503,0.789313,0.00170765,0.0183367,1896,736,47.483,3.34257
679,288,47.4147,-2.38202,0.00213487,0.00260411,0.00145215,0.00384047,0.000898515,0.86549,0.00231956,0.0157062,1903,736,47.4147,2.38203
686,288,47.3542,-1.46674,0.00264286,0.00360386,0.00186766,0.00505184,0.00119488,0.911305,0.00304868,0.0124733,1910,736,47.3543,1.46673
693,288,47.3569,-0.414185,0.00349711,0.0049721,0.00241923,0.00676374,0.00170546,0.933348,0.00406183,0.0284466,1917,736,47.3569,0.414202
700,288,47.3591,0.719666,0,0,0,0,0,0,0,-1,1924,736,47.3591,-0.719667
707,288,30.9496,3.07977,0,0,0,0,0,0,0,-1,1931,736,30.9496,-3.07975
714,288,23.0149,3.82544,0,0,0,0,0,0,0,-1,1938,736,23.0149,-3.82541
721,288,18.0732,3.69385,0,0,0,0,0,0,0,-1,1945,736,18.0732,-3.69387
728,288,19.3208,3.91455,0,0,0,0,0,0,0,-1,1952,736,19.3209,-3.91455
735,288,18.7712,3.51312,0,0,0,0,0,0,0,-1,1959,736,18.7713,-3.51309
742,288,0,0,0,0,0,0,0,0,0,-1,1966,736,0,0
749,288,0,0,0,0,0,0,0,0,0,-1,1973,736,0,0
756,288,0,0,0,0,0,0,0,0,0,-1,1980,736,0,0
763,288,0,0,0,0,0,0,0,0,0,-1,1987,736,0,0
770,288,0,0,0,0,0,0,0,0,0,-1,1994,736,0,0
777,288,0,0,0,0,0,0,0,0,0,-1,2001,736,0,0
784,288,0,0,0,0,0,0,0,0,0,-1,2008,736,0,0
791,288,0,0,0,0,0,0,0,0,0,-1,2015,736,0,0
798,288,0,0,0,0,0,0,0,0,0,-1,2022,736,0,0
805,288,0,0,0,0,0,0,0,0,0,-1,2029,736,0,0
812,288,0,0,0,0,0,0,0,0,0,-1,2036,736,0,0
-700,281,0,0,0,0,0,0,0,0,0,-1,524,743,0,0
-693,281,0,0,0,0,0,0,0,0,0,-1,531,743,0,0
-686,281,0,0,0,0,0,0,0,0,0,-1,538,743,0,0
-679,281,0,0,0,0,0,0,0,0,0,-1,545,743,0,0
-672,281,0,0,0,0,0,0,0,0,0,-1,552,743,0,0
-665,281,0,0,0,0,0,0,0,0,0,-1,559,743,0,0
-658,281,0,0,0,0,0,0,0,0,0,-1,566,743,0,0
-651,281,0,0,0,0,0,0,0,0,0,-1,573,743,0,0
-644,281,0,0,0,0,0,0,0,0,0,-1,580,743,0,0
-637,281,0,0,0,0,0,0,0,0,0,-1,587,743,0,0
-630,281,0,0,0,0,0,0,0,0,0,-1,594,743,0,0
-623,281,-19.1697,5.67017,0,0,0,0,0,0,0,-1,601,743,-19.1697,-5.67019
-616,281,-11.5906,2.6853,0,0,0,0,0,0,0,-1,608,743,-11.5906,-2.68529
-609,281,-16.1972,4.14838,0,0,0,0,0,0,0,-1,615,743,-16.1972,-4.14837
-602,281,-21.9772,6.77417,0,0,0,0,0,0,0,-1,622,743,-21.9771,-6.77415
-595,281,-10.4797,-1.07404,0,0,0,0,0,0,0,-1,629,743,-10.4798,1.07402
-588,281,-13.277,1.49817,0,0,0,0,0,0,0,-1,636,743,-13.2771,-1.49817
-581,281,-32.041,1.14801,0,0,0,0,0,0,0,-1,643,743,-32.041,-1.14804
-574,281,-32.0263,0.124756,-0.00790409,0.00766366,-0.00334349,0.00835137,-0.0085918,-1.36794,0.00978247,0.0462354,650,743,-32.0263,-0.124727
-567,281,-32.2872,-0.805725,-0.00525421,0.00539935,-0.00203857,0.00577611,-0.00563097,-1.38804,0.00658606,0.0226597,657,743,-32.2872,0.805696
-560,281,-32.4012,-1.75067,-0.00357959,0.00376081,-0.00120658,0.00395406,-0.00377283,-1.41199,0.00446153,0.00952137,664,743,-32.4012,1.75069
-553,281,-32.4157,-2.70062,-0.00236015,0.00246561,-0.000713299,0.00256884,-0.00246338,-1.42708,0.00290556,0.0154918,671,743,-32.4157,2.70061
-546,281,-32.4827,-3.61719,-0.00162124,0.00149562,-0.000334353,0.00153108,-0.0016567,-1.46513,0.00184094,0.0167781,678,743,-32.4827,3.61719
-539,281,-32.548,-4.5271,-0.00120521,0.000645929,7.85945e-05,0.00064926,-0.00120854,1.52844,0.00108868,0.0144715,685,743,-32.5481,4.52713
-532,281,-32.5634,-5.42529,-0.00109812,3.2544e-06,0.000311649,8.53243e-05,-0.00118019,1.3133,0.00081672,0.0150785,692,743,-32.5633,5.42527
-525,281,-32.6612,-6.42004,-0.00116852,-0.000497259,0.000369711,-0.000333556,-0.00133222,1.15396,0.000800475,0.0180681,699,743,-32.6612,6.42007
-518,281,-32.7269,-7.39307,-0.00104828,-0.000965713,0.00046379,-0.00054137,-0.00147262,0.829785,0.000860091,0.0142434,706,743,-32.7269,7.39305
-511,281,-32.7928,-8.34674,-0.00073779,-0.000832219,0.000981248,0.000197379,-0.00176739,0.761358,0.00124926,0.0134241,713,743,-32.7928,8.34672
-504,281,-32.9008,-9.28345,-0.000168926,3.93637e-05,0.00183639,0.00177456,-0.00190412,0.813724,0.00212433,0.0180396,720,743,-32.9008,9.28342
-497,281,-32.7079,-9.93433,0,0,0,0,0,0,0,-1,727,743,-32.7079,9.93431
-490,281,-27.6985,-9.63165,0,0,0,0,0,0,0,-1,734,743,-27.6986,9.63165
-483,281,-22.1078,-2.34973,0,0,0,0,0,0,0,-1,741,743,-22.1078,2.3497
-476,281,-28.0016,2.17786,0,0,0,0,0,0,0,-1,748,743,-28.0016,-2.17786
-469,281,-34.6448,0.171692,0,0,0,0,0,0,0,-1,755,743,-34.6448,-0.171685
-462,281,-46.6214,0.0193481,0,0,0,0,0,0,0,-1,762,743,-46.6214,-0.0193665
-455,281,-56.0239,-0.1521,0,0,0,0,0,0,0,-1,769,743,-56.024,0.152123
-448,281,-55.8145,0.304321,0,0,0,0,0,0,0,-1,776,743,-55.8145,-0.304294
-441,281,-55.4486,0.766052,0,0,0,0,0,0,0,-1,783,743,-55.4486,-0.766078
-434,281,0,0,0,0,0,0,0,0,0,-1,790,743,0,0
-427,281,0,0,0,0,0,0,0,0,0,-1,797,743,0,0
-420,281,0,0,0,0,0,0,0,0,0,-1,804,743,0,0
-413,281,0,0,0,0,0,0,0,0,0,-1,811,743,0,0
-406,281,0,0,0,0,0,0,0,0,0,-1,818,743,0,0
-399,281,0,0,0,0,0,0,0,0,0,-1,825,743,0,0
-392,281,0,0,0,0,0,0,0,0,0,-1,832,743,0,0
-385,281,0,0,0,0,0,0,0,0,0,-1,839,743,0,0
-378,281,0,0,0,0,0,0,0,0,0,-1,846,743,0,0
-371,281,0,0,0,0,0,0,0,0,0,-1,853,743,0,0
-364,281,0,0,0,0,0,0,0,0,0,-1,860,743,0,0
-357,281,0,0,0,0,0,0,0,0,0,-1,867,743,0,0
-350,281,0,0,0,0,0,0,0,0,0,-1,874,743,0,0
-343,281,0,0,0,0,0,0,0,0,0,-1,881,743,0,0
-336,281,0,0,0,0,0,0,0,0,0,-1,888,743,0,0
-329,281,0,0,0,0,0,0,0,0,0,-1,895,743,0,0
-322,281,0,0,0,0,0,0,0,0,0,-1,902,743,0,0
-315,281,0,0,0,0,0,0,0,0,0,-1,909,743,0,0
-308,281,0,0,0,0,0,0,0,0,0,-1,916,743,0,0
-301,281,0,0,0,0,0,0,0,0,0,-1,923,743,0,0
-294,281,0,0,0,0,0,0,0,0,0,-1,930,743,0,0
-287,281,0,0,0,0,0,0,0,0,0,-1,937,743,0,0
-280,281,0,0,0,0,0,0,0,0,0,-1,944,743,0,0
-273,281,0,0,0,0,0,0,0,0,0,-1,951,743,0,0
-266,281,0,0,0,0,0,0,0,0,0,-1,958,743,0,0
-259,281,0,0,0,0,0,0,0,0,0,-1,965,743,0,0
-252,281,0,0,0,0,0,0,0,0,0,-1,972,743,0,0
-245,281,0,0,0,0,0,0,0,0,0,-1,979,743,0,0
-238,281,0,0,0,0,0,0,0,0,0,-1,986,743,0,0
-231,281,0,0,0,0,0,0,0,0,0,-1,993,743,0,0
-224,281,0,0,0,0,0,0,0,0,0,-1,1000,743,0,0
-217,281,0,0,0,0,0,0,0,0,0,-1,1007,743,0,0
-210,281,0,0,0,0,0,0,0,0,0,-1,1014,743,0,0
-203,281,0,0,0,0,0,0,0,0,0,-1,1021,743,0,0
-196,281,0,0,0,0,0,0,0,0,0,-1,1028,743,0,0
-189,281,0,0,0,0,0,0,0,0,0,-1,1035,743,0,0
-182,281,0,0,0,0,0,0,0,0,0,-1,1042,743,0,0
-175,281,0,0,0,0,0,0,0,0,0,-1,1049,743,0,0
-168,281,0,0,0,0,0,0,0,0,0,-1,1056,743,0,0
-161,281,0,0,0,0,0,0,0,0,0,-1,1063,743,0,0
-154,281,0,0,0,0,0,0,0,0,0,-1,1070,743,0,0
-147,281,0,0,0,0,0,0,0,0,0,-1,1077,743,0,0
-140,281,0,0,0,0,0,0,0,0,0,-1,1084,743,0,0
-133,281,0,0,0,0,0,0,0,0,0,-1,1091,743,0,0
-126,281,0,0,0,0,0,0,0,0,0,-1,1098,743,0,0
-119,281,0,0,0,0,0,0,0,0,0,-1,1105,743,0,0
-112,281,0,0,0,0,0,0,0,0,0,-1,1112,743,0,0
-105,281,0,0,0,0,0,0,0,0,0,-1,1119,743,0,0
-98,281,0,0,0,0,0,0,0,0,0,-1,1126,743,0,0
-91,281,0,0,0,0,0,0,0,0,0,-1,1133,743,0,0
-84,281,0,0,0,0,0,0,0,0,0,-1,1140,743,0,0
-77,281,0,0,0,0,0,0,0,0,0,-1,1147,743,0,0
-70,281,0,0,0,0,0,0,0,0,0,-1,1154,743,0,0
-63,281,0,0,0,0,0,0,0,0,0,-1,1161,743,0,0
-56,281,0,0,0,0,0,0,0,0,0,-1,1168,743,0,0
-49,281,0,0,0,0,0,0,0,0,0,-1,1175,743,0,0
-42,281,0,0,0,0,0,0,0,0,0,-1,1182,743,0,0
-35,281,0,0,0,0,0,0,0,0,0,-1,1189,743,0,0
-28,281,0,0,0,0,0,0,0,0,0,-1,1196,743,0,0
-21,281,0,0,0,0,0,0,0,0,0,-1,1203,743,0,0
-14,281,0,0,0,0,0,0,0,0,0,-1,1210,743,0,0
-7,281,0,0,0,0,0,0,0,0,0,-1,1217,743,0,0
0,281,0,0,0,0,0,0,0,0,0,-1,1224,743,0,0
7,281,0,0,0,0,0,0,0,0,0,-1,1231,743,0,0
14,281,0,0,0,0,0,0,0,0,0,-1,1238,743,0,0
21,281,0,0,0,0,0,0,0,0,0,-1,1245,743,0,0
28,281,0,0,0,0,0,0,0,0,0,-1,1252,743,0,0
35,281,0,0,0,0,0,0,0,0,0,-1,1259,743,0,0
42,281,0,0,0,0,0,0,0,0,0,-1,1266,743,0,0
49,281,0,0,0,0,0,0,0,0,0,-1,1273,743,0,0
56,281,0,0,0,0,0,0,0,0,0,-1,1280,743,0,0
63,281,0,0,0,0,0,0,0,0,0,-1,1287,743,0,0
70,281,0,0,0,0,0,0,0,0,0,-1,1294,743,0,0
77,281,0,0,0,0,0,0,0,0,0,-1,1301,743,0,0
84,281,0,0,0,0,0,0,0,0,0,-1,1308,743,0,0
91,281,0,0,0,0,0,0,0,0,0,-1,1315,743,0,0
98,281,0,0,0,0,0,0,0,0,0,-1,1322,743,0,0
105,281,0,0,0,0,0,0,0,0,0,-1,1329,743,0,0
112,281,0,0,0,0,0,0,0,0,0,-1,1336,743,0,0
119,281,0,0,0,0,0,0,0,0,0,-1,1343,743,0,0
126,281,0,0,0,0,0,0,0,0,0,-1,1350,743,0,0
133,281,0,0,0,0,0,0,0,0,0,-1,1357,743,0,0
140,281,0,0,0,0,0,0,0,0,0,-1,1364,743,0,0
147,281,0,0,0,0,0,0,0,0,0,-1,1371,743,0,0
154,281,0,0,0,0,0,0,0,0,0,-1,1378,743,0,0
161,281,0,0,0,0,0,0,0,0,0,-1,1385,743,0,0
168,281,0,0,0,0,0,0,0,0,0,-1,1392,743,0,0
175,281,0,0,0,0,0,0,0,0,0,-1,1399,743,0,0
182,281,0,0,0,0,0,0,0,0,0,-1,1406,743,0,0
189,281,0,0,0,0,0,0,0,0,0,-1,1413,743,0,0
196,281,0,0,0,0,0,0,0,0,0,-1,1420,743,0,0
203,281,0,0,0,0,0,0,0,0,0,-1,1427,743,0,0
210,281,0,0,0,0,0,0,0,0,0,-1,1434,743,0,0
217,281,0,0,0,0,0,0,0,0,0,-1,1441,743,0,0
224,281,0,0,0,0,0,0,0,0,0,-1,1448,743,0,0
231,281,0,0,0,0,0,0,0,0,0,-1,1455,743,0,0
238,281,0,0,0,0,0,0,0,0,0,-1,1462,743,0,0
245,281,0,0,0,0,0,0,0,0,0,-1,1469,743,0,0
252,281,0,0,0,0,0,0,0,0,0,-1,1476,743,0,0
259,281,0,0,0,0,0,0,0,0,0,-1,1483,743,0,0
266,281,0,0,0,0,0,0,0,0,0,-1,1490,743,0,0
273,281,0,0,0,0,0,0,0,0,0,-1,1497,743,0,0
280,281,0,0,0,0,0,0,0,0,0,-1,1504,743,0,0
287,281,0,0,0,0,0,0,0,0,0,-1,1511,743,0,0
294,281,0,0,0,0,0,0,0,0,0,-1,1518,743,0,0
301,281,0,0,0,0,0,0,0,0,0,-1,1525,743,0,0
308,281,0,0,0,0,0,0,0,0,0,-1,1532,743,0,0
315,281,0,0,0,0,0,0,0,0,0,-1,1539,743,0,0
322,281,0,0,0,0,0,0,0,0,0,-1,1546,743,0,0
329,281,0,0,0,0,0,0,0,0,0,-1,1553,743,0,0
336,281,0,0,0,0,0,0,0,0,0,-1,1560,743,0,0
343,281,0,0,0,0,0,0,0,0,0,-1,1567,743,0,0
350,281,0,0,0,0,0,0,0,0,0,-1,1574,743,0,0
357,281,0,0,0,0,0,0,0,0,0,-1,1581,743,0,0
364,281,0,0,0,0,0,0,0,0,0,-1,1588,743,0,0
371,281,0,0,0,0,0,0,0,0,0,-1,1595,743,0,0
378,281,0,0,0,0,0,0,0,0,0,-1,1602,743,0,0
385,281,0,0,0,0,0,0,0,0,0,-1,1609,743,0,0
392,281,0,0,0,0,0,0,0,0,0,-1,1616,743,0,0
399,281,0,0,0,0,0,0,0,0,0,-1,1623,743,0,0
406,281,0,0,0,0,0,0,0,0,0,-1,1630,743,0,0
413,281,0,0,0,0,0,0,0,0,0,-1,1637,743,0,0
420,281,0,0,0,0,0,0,0,0,0,-1,1644,743,0,0
427,281,0,0,0,0,0,0,0,0,0,-1,1651,743,0,0
434,281,0,0,0,0,0,0,0,0,0,-1,1658,743,0,0
441,281,0,0,0,0,0,0,0,0,0,-1,1665,743,0,0
448,281,0,0,0,0,0,0,0,0,0,-1,1672,743,0,0
455,281,0,0,0,0,0,0,0,0,0,-1,1679,743,0,0
462,281,0,0,0,0,0,0,0,0,0,-1,1686,743,0,0
469,281,0,0,0,0,0,0,0,0,0,-1,1693,743,0,0
476,281,0,0,0,0,0,0,0,0,0,-1,1700,743,0,0
483,281,0,0,0,0,0,0,0,0,0,-1,1707,743,0,0
490,281,0,0,0,0,0,0,0,0,0,-1,1714,743,0,0
497,281,0,0,0,0,0,0,0,0,0,-1,1721,743,0,0
504,281,0,0,0,0,0,0,0,0,0,-1,1728,743,0,0
511,281,0,0,0,0,0,0,0,0,0,-1,1735,743,0,0
518,281,0,0,0,0,0,0,0,0,0,-1,1742,743,0,0
525,281,0,0,0,0,0,0,0,0,0,-1,1749,743,0,0
532,281,0,0,0,0,0,0,0,0,0,-1,1756,743,0,0
539,281,0,0,0,0,0,0,0,0,0,-1,1763,743,0,0
546,281,0,0,0,0,0,0,0,0,0,-1,1770,743,0,0
553,281,0,0,0,0,0,0,0,0,0,-1,1777,743,0,0
560,281,57.8354,3.06482,0,0,0,0,0,0,0,-1,1784,743,57.8354,-3.06479
567,281,57.6156,3.64508,0,0,0,0,0,0,0,-1,1791,743,57.6156,-3.64511
574,281,57.3431,4.17767,0,0,0,0,0,0,0,-1,1798,743,57.3431,-4.17769
581,281,57.0648,4.53906,0,0,0,0,0,0,0,-1,1805,743,57.0648,-4.53908
588,281,53.5422,6.00092,0,0,0,0,0,0,0,-1,1812,743,53.5422,-6.00092
595,281,54.8569,3.32269,0,0,0,0,0,0,0,-1,1819,743,54.857,-3.32269
602,281,45.9985,3.98254,0,0,0,0,0,0,0,-1,1826,743,45.9985,-3.98254
609,281,32.7925,1.28723,0,0,0,0,0,0,0,-1,1833,743,32.7925,-1.28722
616,281,21.3191,-0.253906,0,0,0,0,0,0,0,-1,1840,743,21.3191,0.253931
623,281,31.8741,-4.74182,0,0,0,0,0,0,0,-1,1847,743,31.8741,4.74184
630,281,48.5531,-8.83069,0,0,0,0,0,0,0,-1,1854,743,48.5531,8.8307
637,281,48.6216,-7.96478,0.00246797,0.000399917,0.00138448,0.00316195,-0.000294059,0.46465,0.00221251,0.0252446,1861,743,48.6215,7.96476
644,281,48.6449,-7.04816,0.0020213,0.000547161,0.000845119,0.00240562,0.00016285,0.426791,0.00155231,0.0118596,1868,743,48.6449,7.04817
651,281,48.611,-6.10553,0.0014888,0.000308953,0.000534345,0.00169482,0.000102928,0.368002,0.00109718,0.0127566,1875,743,48.611,6.10554
658,281,48.5667,-5.12189,0.00127189,0.000490231,0.00051726,0.00152937,0.00023275,0.461869,0.000951531,0.0219265,1882,743,48.5666,5.12191
665,281,48.4863,-4.19678,0.00121088,0.000929522,0.000629058,0.0017148,0.000425606,0.675391,0.00103104,0.0227525,1889,743,48.4864,4.19676
672,281,48.4131,-3.27173,0.0013272,0.00149827,0.000832937,0.00225005,0.00057542,0.836564,0.00134975,0.0147449,1896,743,48.4131,3.27173
679,281,48.356,-2.34497,0.00166886,0.00232234,0.00114698,0.00318821,0.00080299,0.924156,0.00191478,0.0237311,1903,743,48.3559,2.34496
686,281,48.2325,-1.43024,0.00208578,0.00326781,0.00147939,0.00426988,0.00108372,0.975435,0.00256289,0.0188261,1910,743,48.2325,1.43023
693,281,48.2063,-0.469482,0.00278898,0.00448557,0.00190098,0.00571894,0.00155561,0.995259,0.00341433,0.0133279,1917,743,48.2063,0.469462
700,281,48.1436,0.573425,0.0037906,0.00601981,0.00247692,0.00762135,0.00218906,0.996824,0.00453105,0.047626,1924,743,48.1436,-0.573422
707,281,48.2214,1.59924,0,0,0,0,0,0,0,-1,1931,743,48.2215,-1.59927
714,281,25.0125,2.5105,0,0,0,0,0,0,0,-1,1938,743,25.0124,-2.51053
721,281,16.9656,3.22174,0,0,0,0,0,0,0,-1,1945,743,16.9656,-3.22172
728,281,19.0251,3.63934,0,0,0,0,0,0,0,-1,1952,743,19.0252,-3.63932
735,281,19.0869,2.50311,0,0,0,0,0,0,0,-1,1959,743,19.0869,-2.5031
742,281,0,0,0,0,0,0,0,0,0,-1,1966,743,0,0
749,281,0,0,0,0,0,0,0,0,0,-1,1973,743,0,0
756,281,0,0,0,0,0,0,0,0,0,-1,1980,743,0,0
763,281,0,0,0,0,0,0,0,0,0,-1,1987,743,0,0
770,281,0,0,0,0,0,0,0,0,0,-1,1994,743,0,0
777,281,0,0,0,0,0,0,0,0,0,-1,2001,743,0,0
784,281,0,0,0,0,0,0,0,0,0,-1,2008,743,0,0
791,281,0,0,0,0,0,0,0,0,0,-1,2015,743,0,0
798,281,0,0,0,0,0,0,0,0,0,-1,2022,743,0,0
805,281,0,0,0,0,0,0,0,0,0,-1,2029,743,0,0
812,281,0,0,0,0,0,0,0,0,0,-1,2036,743,0,0
-700,274,0,0,0,0,0,0,0,0,0,-1,524,750,0,0
-693,274,0,0,0,0,0,0,0,0,0,-1,531,750,0,0
-686,274,0,0,0,0,0,0,0,0,0,-1,538,750,0,0
-679,274,0,0,0,0,0,0,0,0,0,-1,545,750,0,0
-672,274,0,0,0,0,0,0,0,0,0,-1,552,750,0,0
-665,274,0,0,0,0,0,0,0,0,0,-1,559,750,0,0
-658,274,0,0,0,0,0,0,0,0,0,-1,566,750,0,0
-651,274,0,0,0,0,0,0,0,0,0,-1,573,750,0,0
-644,274,0,0,0,0,0,0,0,0,0,-1,580,750,0,0
-637,274,0,0,0,0,0,0,0,0,0,-1,587,750,0,0
-630,274,0,0,0,0,0,0,0,0,0,-1,594,750,0,0
-623,274,-19.6909,5.12701,0,0,0,0,0,0,0,-1,601,750,-19.6908,-5.12703
-616,274,-17.9133,3.9024,0,0,0,0,0,0,0,-1,608,750,-17.9133,-3.90239
-609,274,-26.0861,5.57306,0,0,0,0,0,0,0,-1,615,750,-26.0861,-5.57307
-602,274,-25.7372,3.73846,0,0,0,0,0,0,0,-1,622,750,-25.7372,-3.73849
-595,274,-25.258,2.53473,0,0,0,0,0,0,0,-1,629,750,-25.258,-2.53474
-588,274,-24.9805,2.2334,0,0,0,0,0,0,0,-1,636,750,-24.9805,-2.23341
-581,274,-32.9467,1.07556,0,0,0,0,0,0,0,-1,643,750,-32.9467,-1.07556
-574,274,-32.913,0.115295,-0.00729154,0.00672655,-0.00315948,0.00740574,-0.00797073,-1.35905,0.00887961,0.0311198,650,750,-32.913,-0.115266
-567,274,-33.238,-0.775696,-0.00499463,0.00469976,-0.00183576,0.00503574,-0.00533061,-1.38978,0.00598582,0.0295866,657,750,-33.2379,0.775679
-560,274,-33.277,-1.69214,-0.00352309,0.00322589,-0.000993085,0.00336899,-0.00366618,-1.42769,0.00406296,0.0159044,664,750,-33.277,1.69214
-553,274,-33.3657,-2.63116,-0.0024785,0.00211631,-0.000469598,0.00216381,-0.002526,-1.46998,0.00271035,0.0106248,671,750,-33.3656,2.63118
-546,274,-33.4389,-3.56384,-0.00181667,0.00123008,-0.000101443,0.00123345,-0.00182005,-1.53755,0.00177375,0.0120159,678,750,-33.4389,3.56386
-539,274,-33.4922,-4.48798,-0.00148865,0.000456223,0.000285262,0.0004972,-0.00152963,1.42813,0.00121974,0.011985,685,750,-33.4922,4.48797
-532,274,-33.5446,-5.40674,-0.00141002,-5.32554e-05,0.000408965,6.04828e-05,-0.00152376,1.29954,0.00103659,0.0129783,692,750,-33.5446,5.40676
-525,274,-33.616,-6.33246,-0.00142518,-0.000347398,0.000228291,-0.000301037,-0.00147154,1.37044,0.000897669,0.0144618,699,750,-33.616,6.33248
-518,274,-33.6758,-7.32452,-0.00125555,-0.000703998,0.000134553,-0.000672924,-0.00128662,1.34383,0.000743094,0.0144458,706,750,-33.6758,7.32452
-511,274,-33.7268,-8.32532,-0.000808014,-0.000443101,0.000544602,-5.12039e-05,-0.00119991,0.947035,0.00078343,0.0222275,713,750,-33.7268,8.32531
-504,274,-33.9,-9.35913,-0.00018714,0.000518324,0.00130334,0.00151582,-0.00118463,0.917551,0.00156301,0.0407914,720,750,-33.9,9.35913
-497,274,-34.1733,-10.4342,0,0,0,0,0,0,0,-1,727,750,-34.1733,10.4342
-490,274,-13.6545,-3.58826,0,0,0,0,0,0,0,-1,734,750,-13.6546,3.58825
-483,274,-27.8608,1.30981,0,0,0,0,0,0,0,-1,741,750,-27.8608,-1.30979
-476,274,-33.7561,-0.508606,0,0,0,0,0,0,0,-1,748,750,-33.7561,0.508636
-469,274,-41.1387,0.907715,0,0,0,0,0,0,0,-1,755,750,-41.1387,-0.907744
-462,274,-56.4362,0.240723,0,0,0,0,0,0,0,-1,762,750,-56.4362,-0.240732
-455,274,-56.3354,0.39563,0,0,0,0,0,0,0,-1,769,750,-56.3354,-0.395609
-448,274,-56.1052,0.421143,0,0,0,0,0,0,0,-1,776,750,-56.1052,-0.421134
-441,274,0,0,0,0,0,0,0,0,0,-1,783,750,0,0
-434,274,0,0,0,0,0,0,0,0,0,-1,790,750,0,0
-427,274,0,0,0,0,0,0,0,0,0,-1,797,750,0,0
-420,274,0,0,0,0,0,0,0,0,0,-1,804,750,0,0
-413,274,0,0,0,0,0,0,0,0,0,-1,811,750,0,0
-406,274,0,0,0,0,0,0,0,0,0,-1,818,750,0,0
-399,274,0,0,0,0,0,0,0,0,0,-1,825,750,0,0
-392,274,0,0,0,0,0,0,0,0,0,-1,832,750,0,0
-385,274,0,0,0,0,0,0,0,0,0,-1,839,750,0,0
-378,274,0,0,0,0,0,0,0,0,0,-1,846,750,0,0
-371,274,0,0,0,0,0,0,0,0,0,-1,853,750,0,0
-364,274,0,0,0,0,0,0,0,0,0,-1,860,750,0,0
-357,274,0,0,0,0,0,0,0,0,0,-1,867,750,0,0
-350,274,0,0,0,0,0,0,0,0,0,-1,874,750,0,0
-343,274,0,0,0,0,0,0,0,0,0,-1,881,750,0,0
-336,274,0,0,0,0,0,0,0,0,0,-1,888,750,0,0
-329,274,0,0,0,0,0,0,0,0,0,-1,895,750,0,0
-322,274,0,0,0,0,0,0,0,0,0,-1,902,750,0,0
-315,274,0,0,0,0,0,0,0,0,0,-1,909,750,0,0
-308,274,0,0,0,0,0,0,0,0,0,-1,916,750,0,0
-301,274,0,0,0,0,0,0,0,0,0,-1,923,750,0,0
-294,274,0,0,0,0,0,0,0,0,0,-1,930,750,0,0
-287,274,0,0,0,0,0,0,0,0,0,-1,937,750,0,0
-280,274,0,0,0,0,0,0,0,0,0,-1,944,750,0,0
-273,274,0,0,0,0,0,0,0,0,0,-1,951,750,0,0
-266,274,0,0,0,0,0,0,0,0,0,-1,958,750,0,0
-259,274,0,0,0,0,0,0,0,0,0,-1,965,750,0,0
-252,274,0,0,0,0,0,0,0,0,0,-1,972,750,0,0
-245,274,0,0,0,0,0,0,0,0,0,-1,979,750,0,0
-238,274,0,0,0,0,0,0,0,0,0,-1,986,750,0,0
-231,274,0,0,0,0,0,0,0,0,0,-1,993,750,0,0
-224,274,0,0,0,0,0,0,0,0,0,-1,1000,750,0,0
-217,274,0,0,0,0,0,0,0,0,0,-1,1007,750,0,0
-210,274,0,0,0,0,0,0,0,0,0,-1,1014,750,0,0
-203,274,0,0,0,0,0,0,0,0,0,-1,1021,750,0,0
-196,274,0,0,0,0,0,0,0,0,0,-1,1028,750,0,0
-189,274,0,0,0,0,0,0,0,0,0,-1,1035,750,0,0
-182,274,0,0,0,0,0,0,0,0,0,-1,1042,750,0,0
-175,274,0,0,0,0,0,0,0,0,0,-1,1049,750,0,0
-168,274,0,0,0,0,0,0,0,0,0,-1,1056,750,0,0
-161,274,0,0,0,0,0,0,0,0,0,-1,1063,750,0,0
-154,274,0,0,0,0,0,0,0,0,0,-1,1070,750,0,0
-147,274,0,0,0,0,0,0,0,0,0,-1,1077,750,0,0
-140,274,0,0,0,0,0,0,0,0,0,-1,1084,750,0,0
-133,274,0,0,0,0,0,0,0,0,0,-1,1091,750,0,0
-126,274,0,0,0,0,0,0,0,0,0,-1,1098,750,0,0
-119,274,0,0,0,0,0,0,0,0,0,-1,1105,750,0,0
-112,274,0,0,0,0,0,0,0,0,0,-1,1112,750,0,0
-105,274,0,0,0,0,0,0,0,0,0,-1,1119,750,0,0
-98,274,0,0,0,0,0,0,0,0,0,-1,1126,750,0,0
-91,274,0,0,0,0,0,0,0,0,0,-1,1133,750,0,0
-84,274,0,0,0,0,0,0,0,0,0,-1,1140,750,0,0
-77,274,0,0,0,0,0,0,0,0,0,-1,1147,750,0,0
-70,274,0,0,0,0,0,0,0,0,0,-1,1154,750,0,0
-63,274,0,0,0,0,0,0,0,0,0,-1,1161,750,0,0
-56,274,0,0,0,0,0,0,0,0,0,-1,1168,750,0,0
-49,274,0,0,0,0,0,0,0,0,0,-1,1175,750,0,0
-42,274,0,0,0,0,0,0,0,0,0,-1,1182,750,0,0
-35,274,0,0,0,0,0,0,0,0,0,-1,1189,750,0,0
-28,274,0,0,0,0,0,0,0,0,0,-1,1196,750,0,0
-21,274,0,0,0,0,0,0,0,0,0,-1,1203,750,0,0
-14,274,0,0,0,0,0,0,0,0,0,-1,1210,750,0,0
-7,274,0,0,0,0,0,0,0,0,0,-1,1217,750,0,0
0,274,0,0,0,0,0,0,0,0,0,-1,1224,750,0,0
7,274,0,0,0,0,0,0,0,0,0,-1,1231,750,0,0
14,274,0,0,0,0,0,0,0,0,0,-1,1238,750,0,0
21,274,0,0,0,0,0,0,0,0,0,-1,1245,750,0,0
28,274,0,0,0,0,0,0,0,0,0,-1,1252,750,0,0
35,274,0,0,0,0,0,0,0,0,0,-1,1259,750,0,0
42,274,0,0,0,0,0,0,0,0,0,-1,1266,750,0,0
49,274,0,0,0,0,0,0,0,0,0,-1,1273,750,0,0
56,274,0,0,0,0,0,0,0,0,0,-1,1280,750,0,0
63,274,0,0,0,0,0,0,0,0,0,-1,1287,750,0,0
70,274,0,0,0,0,0,0,0,0,0,-1,1294,750,0,0
77,274,0,0,0,0,0,0,0,0,0,-1,1301,750,0,0
84,274,0,0,0,0,0,0,0,0,0,-1,1308,750,0,0
91,274,0,0,0,0,0,0,0,0,0,-1,1315,750,0,0
98,274,0,0,0,0,0,0,0,0,0,-1,1322,750,0,0
105,274,0,0,0,0,0,0,0,0,0,-1,1329,750,0,0
112,274,0,0,0,0,0,0,0,0,0,-1,1336,750,0,0
119,274,0,0,0,0,0,0,0,0,0,-1,1343,750,0,0
126,274,0,0,0,0,0,0,0,0,0,-1,1350,750,0,0
133,274,0,0,0,0,0,0,0,0,0,-1,1357,750,0,0
140,274,0,0,0,0,0,0,0,0,0,-1,1364,750,0,0
147,274,0,0,0,0,0,0,0,0,0,-1,1371,750,0,0
154,274,0,0,0,0,0,0,0,0,0,-1,1378,750,0,0
161,274,0,0,0,0,0,0,0,0,0,-1,1385,750,0,0
168,274,0,0,0,0,0,0,0,0,0,-1,1392,750,0,0
175,274,0,0,0,0,0,0,0,0,0,-1,1399,750,0,0
182,274,0,0,0,0,0,0,0,0,0,-1,1406,750,0,0
189,274,0,0,0,0,0,0,0,0,0,-1,1413,750,0,0
196,274,0,0,0,0,0,0,0,0,0,-1,1420,750,0,0
203,274,0,0,0,0,0,0,0,0,0,-1,1427,750,0,0
210,274,0,0,0,0,0,0,0,0,0,-1,1434,750,0,0
217,274,0,0,0,0,0,0,0,0,0,-1,1441,750,0,0
224,274,0,0,0,0,0,0,0,0,0,-1,1448,750,0,0
231,274,0,0,0,0,0,0,0,0,0,-1,1455,750,0,0
238,274,0,0,0,0,0,0,0,0,0,-1,1462,750,0,0
245,274,0,0,0,0,0,0,0,0,0,-1,1469,750,0,0
252,274,0,0,0,0,0,0,0,0,0,-1,1476,750,0,0
259,274,0,0,0,0,0,0,0,0,0,-1,1483,750,0,0
266,274,0,0,0,0,0,0,0,0,0,-1,1490,750,0,0
273,274,0,0,0,0,0,0,0,0,0,-1,1497,750,0,0
280,274,0,0,0,0,0,0,0,0,0,-1,1504,750,0,0
287,274,0,0,0,0,0,0,0,0,0,-1,1511,750,0,0
294,274,0,0,0,0,0,0,0,0,0,-1,1518,750,0,0
301,274,0,0,0,0,0,0,0,0,0,-1,1525,750,0,0
308,274,0,0,0,0,0,0,0,0,0,-1,1532,750,0,0
315,274,0,0,0,0,0,0,0,0,0,-1,1539,750,0,0
322,274,0,0,0,0,0,0,0,0,0,-1,1546,750,0,0
329,274,0,0,0,0,0,0,0,0,0,-1,1553,750,0,0
336,274,0,0,0,0,0,0,0,0,0,-1,1560,750,0,0
343,274,0,0,0,0,0,0,0,0,0,-1,1567,750,0,0
350,274,0,0,0,0,0,0,0,0,0,-1,1574,750,0,0
357,274,0,0,0,0,0,0,0,0,0,-1,1581,750,0,0
364,274,0,0,0,0,0,0,0,0,0,-1,1588,750,0,0
371,274,0,0,0,0,0,0,0,0,0,-1,1595,750,0,0
378,274,0,0,0,0,0,0,0,0,0,-1,1602,750,0,0
385,274,0,0,0,0,0,0,0,0,0,-1,1609,750,0,0
392,274,0,0,0,0,0,0,0,0,0,-1,1616,750,0,0
399,274,0,0,0,0,0,0,0,0,0,-1,1623,750,0,0
406,274,0,0,0,0,0,0,0,0,0,-1,1630,750,0,0
413,274,0,0,0,0,0,0,0,0,0,-1,1637,750,0,0
420,274,0,0,0,0,0,0,0,0,0,-1,1644,750,0,0
427,274,0,0,0,0,0,0,0,0,0,-1,1651,750,0,0
434,274,0,0,0,0,0,0,0,0,0,-1,1658,750,0,0
441,274,0,0,0,0,0,0,0,0,0,-1,1665,750,0,0
448,274,0,0,0,0,0,0,0,0,0,-1,1672,750,0,0
455,274,0,0,0,0,0,0,0,0,0,-1,1679,750,0,0
462,274,0,0,0,0,0,0,0,0,0,-1,1686,750,0,0
469,274,0,0,0,0,0,0,0,0,0,-1,1693,750,0,0
476,274,0,0,0,0,0,0,0,0,0,-1,1700,750,0,0
483,274,0,0,0,0,0,0,0,0,0,-1,1707,750,0,0
490,274,0,0,0,0,0,0,0,0,0,-1,1714,750,0,0
497,274,0,0,0,0,0,0,0,0,0,-1,1721,750,0,0
504,274,0,0,0,0,0,0,0,0,0,-1,1728,750,0,0
511,274,0,0,0,0,0,0,0,0,0,-1,1735,750,0,0
518,274,0,0,0,0,0,0,0,0,0,-1,1742,750,0,0
525,274,0,0,0,0,0,0,0,0,0,-1,1749,750,0,0
532,274,0,0,0,0,0,0,0,0,0,-1,1756,750,0,0
539,274,0,0,0,0,0,0,0,0,0,-1,1763,750,0,0
546,274,0,0,0,0,0,0,0,0,0,-1,1770,750,0,0
553,274,0,0,0,0,0,0,0,0,0,-1,1777,750,0,0
560,274,57.9182,3.24518,0,0,0,0,0,0,0,-1,1784,750,57.9182,-3.24516
567,274,57.8315,3.4137,0,0,0,0,0,0,0,-1,1791,750,57.8315,-3.41368
574,274,58.2571,3.11115,0,0,0,0,0,0,0,-1,1798,750,58.2571,-3.11114
581,274,54.4941,4.68127,0,0,0,0,0,0,0,-1,1805,750,54.4941,-4.68125
588,274,53.9908,5.6676,0,0,0,0,0,0,0,-1,1812,750,53.9908,-5.66763
595,274,66.2316,2.66986,0,0,0,0,0,0,0,-1,1819,750,66.2315,-2.66988
602,274,55.6321,2.56519,0,0,0,0,0,0,0,-1,1826,750,55.6321,-2.56521
609,274,44.6676,3.10461,0,0,0,0,0,0,0,-1,1833,750,44.6676,-3.1046
616,274,32.7869,1.78436,0,0,0,0,0,0,0,-1,1840,750,32.7868,-1.78437
623,274,24.8231,-1.80353,0,0,0,0,0,0,0,-1,1847,750,24.8232,1.80351
630,274,49.7166,-8.87164,0,0,0,0,0,0,0,-1,1854,750,49.7165,8.87164
637,274,49.5336,-8.00031,0.00235054,0.000321081,0.00159245,0.00322408,-0.000552462,0.501731,0.00235524,0.0339626,1861,750,49.5336,8.00033
644,274,49.5491,-7.00867,0.00203136,0.000457375,0.00111847,0.00261197,-0.000123235,0.478818,0.00178381,0.0168889,1868,750,49.549,7.00864
651,274,49.522,-6.03711,0.00143788,8.94605e-05,0.000646271,0.0016976,-0.00017026,0.382122,0.00119255,0.014502,1875,750,49.5219,6.03713
658,274,49.4701,-5.07751,0.0011387,0.000179735,0.00043531,0.00130683,1.16072e-05,0.368574,0.000867375,0.0177595,1882,750,49.4701,5.07752
665,274,49.4047,-4.14099,0.000987469,0.000623179,0.000407607,0.00125178,0.000358871,0.575276,0.000744314,0.0176356,1889,750,49.4046,4.14097
672,274,49.3534,-3.22668,0.000981814,0.00116461,0.000504861,0.00158628,0.000560144,0.874946,0.000928918,0.0147155,1896,750,49.3534,3.22666
679,274,49.2826,-2.27893,0.00121337,0.00189998,0.000723296,0.00235731,0.000756038,1.00698,0.00138985,0.0168399,1903,750,49.2826,2.27892
686,274,49.2009,-1.33514,0.00151502,0.0027415,0.00094094,0.00325139,0.00100512,1.07419,0.00192224,0.0187648,1910,750,49.2009,1.33514
693,274,49.1133,-0.374023,0.00205196,0.00375547,0.00121298,0.00438588,0.00142155,1.0915,0.00258388,0.0134086,1917,750,49.1133,0.373997
700,274,49.0724,0.606445,0.0028702,0.00500035,0.00159392,0.00585229,0.00201826,1.07993,0.0034326,0.0203621,1924,750,49.0724,-0.60644
707,274,48.9066,1.57849,0.00379896,0.00635583,0.0018539,0.00732935,0.00282544,1.08725,0.00426843,0.0485923,1931,750,48.9066,-1.5785
714,274,48.6736,2.62653,0,0,0,0,0,0,0,-1,1938,750,48.6736,-2.62651
721,274,25.6215,3.91144,0,0,0,0,0,0,0,-1,1945,750,25.6214,-3.91141
728,274,19.2209,3.95154,0,0,0,0,0,0,0,-1,1952,750,19.221,-3.95151
735,274,20.6608,4.10931,0,0,0,0,0,0,0,-1,1959,750,20.6607,-4.10932
742,274,11.7815,-0.740234,0,0,0,0,0,0,0,-1,1966,750,11.7815,0.740253
749,274,0,0,0,0,0,0,0,0,0,-1,1973,750,0,0
756,274,0,0,0,0,0,0,0,0,0,-1,1980,750,0,0
763,274,0,0,0,0,0,0,0,0,0,-1,1987,750,0,0
770,274,0,0,0,0,0,0,0,0,0,-1,1994,750,0,0
777,274,0,0,0,0,0,0,0,0,0,-1,2001,750,0,0
784,274,0,0,0,0,0,0,0,0,0,-1,2008,750,0,0
791,274,0,0,0,0,0,0,0,0,0,-1,2015,750,0,0
798,274,0,0,0,0,0,0,0,0,0,-1,2022,750,0,0
805,274,0,0,0,0,0,0,0,0,0,-1,2029,750,0,0
812,274,0,0,0,0,0,0,0,0,0,-1,2036,750,0,0
-700,267,0,0,0,0,0,0,0,0,0,-1,524,757,0,0
-693,267,0,0,0,0,0,0,0,0,0,-1,531,757,0,0
-686,267,0,0,0,0,0,0,0,0,0,-1,538,757,0,0
-679,267,0,0,0,0,0,0,0,0,0,-1,545,757,0,0
-672,267,0,0,0,0,0,0,0,0,0,-1,552,757,0,0
-665,267,0,0,0,0,0,0,0,0,0,-1,559,757,0,0
-658,267,0,0,0,0,0,0,0,0,0,-1,566,757,0,0
-651,267,0,0,0,0,0,0,0,0,0,-1,573,757,0,0
-644,267,0,0,0,0,0,0,0,0,0,-1,580,757,0,0
-637,267,0,0,0,0,0,0,0,0,0,-1,587,757,0,0
-630,267,-21.3979,5.17529,0,0,0,0,0,0,0,-1,594,757,-21.3979,-5.17529
-623,267,-20.043,4.43115,0,0,0,0,0,0,0,-1,601,757,-20.043,-4.43116
-616,267,-27.1628,5.9325,0,0,0,0,0,0,0,-1,608,757,-27.1629,-5.93249
-609,267,-26.9868,4.99658,0,0,0,0,0,0,0,-1,615,757,-26.9868,-4.99656
-602,267,-26.6637,3.74072,0,0,0,0,0,0,0,-1,622,757,-26.6637,-3.74075
-595,267,-32.7299,2.1203,0,0,0,0,0,0,0,-1,629,757,-32.7299,-2.12028
-588,267,-33.7927,2.672,0,0,0,0,0,0,0,-1,636,757,-33.7927,-2.67201
-581,267,-33.8787,1.44879,-0.00884823,0.00757734,-0.0048908,0.0089233,-0.0101942,-1.30224,0.0110456,0.0456651,643,757,-33.8787,-1.4488
-574,267,-33.9538,0.275024,-0.00631274,0.00566867,-0.00304846,0.00639969,-0.00704376,-1.33544,0.00776455,0.027325,650,757,-33.9538,-0.275039
-567,267,-34.1409,-0.672058,-0.00442295,0.0040028,-0.00173495,0.00434606,-0.00476621,-1.37547,0.00526284,0.0306957,657,757,-34.1409,0.672063
-560,267,-34.2023,-1.56366,-0.00320719,0.0027762,-0.000886761,0.00290486,-0.00333585,-1.42672,0.00360593,0.0245068,664,757,-34.2023,1.56369
-553,267,-34.2857,-2.55316,-0.00239893,0.00189749,-0.000335572,0.00192354,-0.00242499,-1.49332,0.00251618,0.0196277,671,757,-34.2857,2.55318
-546,267,-34.361,-3.50488,-0.00189845,0.00116157,3.25554e-05,0.00116192,-0.0018988,1.56016,0.00178409,0.0124916,678,757,-34.361,3.50488
-539,267,-34.3997,-4.45648,-0.00172183,0.000501611,0.000375215,0.000563223,-0.00178345,1.40804,0.00141459,0.0123326,685,757,-34.3997,4.4565
-532,267,-34.4202,-5.38391,-0.00167893,9.80903e-05,0.000369181,0.000171737,-0.00175258,1.3739,0.00122963,0.0136837,692,757,-34.4202,5.38389
-525,267,-34.5293,-6.26849,-0.00157209,-7.54372e-05,-2.39339e-05,-7.50546e-05,-0.00157247,-1.55481,0.00102421,0.0130726,699,757,-34.5293,6.26852
-518,267,-34.622,-7.24103,-0.00125973,-0.000448587,-0.000239165,-0.000383321,-0.001325,-1.30439,0.000787304,0.0164528,706,757,-34.622,7.24101
-511,267,-34.6182,-8.24365,-0.000626612,-0.000180904,9.5055e-05,-0.000161479,-0.000646037,1.36921,0.000388226,0.0372404,713,757,-34.6182,8.24364
-504,267,-34.8344,-9.31329,0,0,0,0,0,0,0,-1,720,757,-34.8344,9.31332
-497,267,-31.5913,-8.72119,0,0,0,0,0,0,0,-1,727,757,-31.5913,8.72117
-490,267,-23.4949,-0.494995,0,0,0,0,0,0,0,-1,734,757,-23.4949,0.494981
-483,267,-33.2785,-0.448425,0,0,0,0,0,0,0,-1,741,757,-33.2785,0.448407
-476,267,-40.2954,0.52002,0,0,0,0,0,0,0,-1,748,757,-40.2954,-0.520037
-469,267,-52.9857,0.187744,0,0,0,0,0,0,0,-1,755,757,-52.9857,-0.187726
-462,267,-60.0258,0.743225,0,0,0,0,0,0,0,-1,762,757,-60.0258,-0.743229
-455,267,-60.1163,0.966919,0,0,0,0,0,0,0,-1,769,757,-60.1163,-0.966897
-448,267,-56.4718,0.802429,0,0,0,0,0,0,0,-1,776,757,-56.4718,-0.802434
-441,267,0,0,0,0,0,0,0,0,0,-1,783,757,0,0
-434,267,0,0,0,0,0,0,0,0,0,-1,790,757,0,0
-427,267,0,0,0,0,0,0,0,0,0,-1,797,757,0,0
-420,267,0,0,0,0,0,0,0,0,0,-1,804,757,0,0
-413,267,0,0,0,0,0,0,0,0,0,-1,811,757,0,0
-406,267,0,0,0,0,0,0,0,0,0,-1,818,757,0,0
-399,267,0,0,0,0,0,0,0,0,0,-1,825,757,0,0
-392,267,0,0,0,0,0,0,0,0,0,-1,832,757,0,0
-385,267,0,0,0,0,0,0,0,0,0,-1,839,757,0,0
-378,267,0,0,0,0,0,0,0,0,0,-1,846,757,0,0
-371,267,0,0,0,0,0,0,0,0,0,-1,853,757,0,0
-364,267,0,0,0,0,0,0,0,0,0,-1,860,757,0,0
-357,267,0,0,0,0,0,0,0,0,0,-1,867,757,0,0
-350,267,0,0,0,0,0,0,0,0,0,-1,874,757,0,0
-343,267,0,0,0,0,0,0,0,0,0,-1,881,757,0,0
-336,267,0,0,0,0,0,0,0,0,0,-1,888,757,0,0
-329,267,0,0,0,0,0,0,0,0,0,-1,895,757,0,0
-322,267,0,0,0,0,0,0,0,0,0,-1,902,757,0,0
-315,267,0,0,0,0,0,0,0,0,0,-1,909,757,0,0
-308,267,0,0,0,0,0,0,0,0,0,-1,916,757,0,0
-301,267,0,0,0,0,0,0,0,0,0,-1,923,757,0,0
-294,267,0,0,0,0,0,0,0,0,0,-1,930,757,0,0
-287,267,0,0,0,0,0,0,0,0,0,-1,937,757,0,0
-280,267,0,0,0,0,0,0,0,0,0,-1,944,757,0,0
-273,267,0,0,0,0,0,0,0,0,0,-1,951,757,0,0
-266,267,0,0,0,0,0,0,0,0,0,-1,958,757,0,0
-259,267,0,0,0,0,0,0,0,0,0,-1,965,757,0,0
-252,267,0,0,0,0,0,0,0,0,0,-1,972,757,0,0
-245,267,0,0,0,0,0,0,0,0,0,-1,979,757,0,0
-238,267,0,0,0,0,0,0,0,0,0,-1,986,757,0,0
-231,267,0,0,0,0,0,0,0,0,0,-1,993,757,0,0
-224,267,0,0,0,0,0,0,0,0,0,-1,1000,757,0,0
-217,267,0,0,0,0,0,0,0,0,0,-1,1007,757,0,0
-210,267,0,0,0,0,0,0,0,0,0,-1,1014,757,0,0
-203,267,0,0,0,0,0,0,0,0,0,-1,1021,757,0,0
-196,267,0,0,0,0,0,0,0,0,0,-1,1028,757,0,0
-189,267,0,0,0,0,0,0,0,0,0,-1,1035,757,0,0
-182,267,0,0,0,0,0,0,0,0,0,-1,1042,757,0,0
-175,267,0,0,0,0,0,0,0,0,0,-1,1049,757,0,0
-168,267,0,0,0,0,0,0,0,0,0,-1,1056,757,0,0
-161,267,0,0,0,0,0,0,0,0,0,-1,1063,757,0,0
-154,267,0,0,0,0,0,0,0,0,0,-1,1070,757,0,0
-147,267,0,0,0,0,0,0,0,0,0,-1,1077,757,0,0
-140,267,0,0,0,0,0,0,0,0,0,-1,1084,757,0,0
-133,267,0,0,0,0,0,0,0,0,0,-1,1091,757,0,0
-126,267,0,0,0,0,0,0,0,0,0,-1,1098,757,0,0
-119,267,0,0,0,0,0,0,0,0,0,-1,1105,757,0,0
-112,267,0,0,0,0,0,0,0,0,0,-1,1112,757,0,0
-105,267,0,0,0,0,0,0,0,0,0,-1,1119,757,0,0
-98,267,0,0,0,0,0,0,0,0,0,-1,1126,757,0,0
-91,267,0,0,0,0,0,0,0,0,0,-1,1133,757,0,0
-84,267,0,0,0,0,0,0,0,0,0,-1,1140,757,0,0
-77,267,0,0,0,0,0,0,0,0,0,-1,1147,757,0,0
-70,267,0,0,0,0,0,0,0,0,0,-1,1154,757,0,0
-63,267,0,0,0,0,0,0,0,0,0,-1,1161,757,0,0
-56,267,0,0,0,0,0,0,0,0,0,-1,1168,757,0,0
-49,267,0,0,0,0,0,0,0,0,0,-1,1175,757,0,0
-42,267,0,0,0,0,0,0,0,0,0,-1,1182,757,0,0
-35,267,0,0,0,0,0,0,0,0,0,-1,1189,757,0,0
-28,267,0,0,0,0,0,0,0,0,0,-1,1196,757,0,0
-21,267,0,0,0,0,0,0,0,0,0,-1,1203,757,0,0
-14,267,0,0,0,0,0,0,0,0,0,-1,1210,757,0,0
-7,267,0,0,0,0,0,0,0,0,0,-1,1217,757,0,0
0,267,0,0,0,0,0,0,0,0,0,-1,1224,757,0,0
7,267,0,0,0,0,0,0,0,0,0,-1,1231,757,0,0
14,267,0,0,0,0,0,0,0,0,0,-1,1238,757,0,0
21,267,0,0,0,0,0,0,0,0,0,-1,1245,757,0,0
28,267,0,0,0,0,0,0,0,0,0,-1,1252,757,0,0
35,267,0,0,0,0,0,0,0,0,0,-1,1259,757,0,0
42,267,0,0,0,0,0,0,0,0,0,-1,1266,757,0,0
49,267,0,0,0,0,0,0,0,0,0,-1,1273,757,0,0
56,267,0,0,0,0,0,0,0,0,0,-1,1280,757,0,0
63,267,0,0,0,0,0,0,0,0,0,-1,1287,757,0,0
70,267,0,0,0,0,0,0,0,0,0,-1,1294,757,0,0
77,267,0,0,0,0,0,0,0,0,0,-1,1301,757,0,0
84,267,0,0,0,0,0,0,0,0,0,-1,1308,757,0,0
91,267,0,0,0,0,0,0,0,0,0,-1,1315,757,0,0
98,267,0,0,0,0,0,0,0,0,0,-1,1322,757,0,0
105,267,0,0,0,0,0,0,0,0,0,-1,1329,757,0,0
112,267,0,0,0,0,0,0,0,0,0,-1,1336,757,0,0
119,267,0,0,0,0,0,0,0,0,0,-1,1343,757,0,0
126,267,0,0,0,0,0,0,0,0,0,-1,1350,757,0,0
133,267,0,0,0,0,0,0,0,0,0,-1,1357,757,0,0
140,267,0,0,0,0,0,0,0,0,0,-1,1364,757,0,0
147,267,0,0,0,0,0,0,0,0,0,-1,1371,757,0,0
154,267,0,0,0,0,0,0,0,0,0,-1,1378,757,0,0
161,267,0,0,0,0,0,0,0,0,0,-1,1385,757,0,0
168,267,0,0,0,0,0,0,0,0,0,-1,1392,757,0,0
175,267,0,0,0,0,0,0,0,0,0,-1,1399,757,0,0
182,267,0,0,0,0,0,0,0,0,0,-1,1406,757,0,0
189,267,0,0,0,0,0,0,0,0,0,-1,1413,757,0,0
196,267,0,0,0,0,0,0,0,0,0,-1,1420,757,0,0
203,267,0,0,0,0,0,0,0,0,0,-1,1427,757,0,0
210,267,0,0,0,0,0,0,0,0,0,-1,1434,757,0,0
217,267,0,0,0,0,0,0,0,0,0,-1,1441,757,0,0
224,267,0,0,0,0,0,0,0,0,0,-1,1448,757,0,0
231,267,0,0,0,0,0,0,0,0,0,-1,1455,757,0,0
238,267,0,0,0,0,0,0,0,0,0,-1,1462,757,0,0
245,267,0,0,0,0,0,0,0,0,0,-1,1469,757,0,0
252,267,0,0,0,0,0,0,0,0,0,-1,1476,757,0,0
259,267,0,0,0,0,0,0,0,0,0,-1,1483,757,0,0
266,267,0,0,0,0,0,0,0,0,0,-1,1490,757,0,0
273,267,0,0,0,0,0,0,0,0,0,-1,1497,757,0,0
280,267,0,0,0,0,0,0,0,0,0,-1,1504,757,0,0
287,267,0,0,0,0,0,0,0,0,0,-1,1511,757,0,0
294,267,0,0,0,0,0,0,0,0,0,-1,1518,757,0,0
301,267,0,0,0,0,0,0,0,0,0,-1,1525,757,0,0
308,267,0,0,0,0,0,0,0,0,0,-1,1532,757,0,0
315,267,0,0,0,0,0,0,0,0,0,-1,1539,757,0,0
322,267,0,0,0,0,0,0,0,0,0,-1,1546,757,0,0
329,267,0,0,0,0,0,0,0,0,0,-1,1553,757,0,0
336,267,0,0,0,0,0,0,0,0,0,-1,1560,757,0,0
343,267,0,0,0,0,0,0,0,0,0,-1,1567,757,0,0
350,267,0,0,0,0,0,0,0,0,0,-1,1574,757,0,0
357,267,0,0,0,0,0,0,0,0,0,-1,1581,757,0,0
364,267,0,0,0,0,0,0,0,0,0,-1,1588,757,0,0
371,267,0,0,0,0,0,0,0,0,0,-1,1595,757,0,0
378,267,0,0,0,0,0,0,0,0,0,-1,1602,757,0,0
385,267,0,0,0,0,0,0,0,0,0,-1,1609,757,0,0
392,267,0,0,0,0,0,0,0,0,0,-1,1616,757,0,0
399,267,0,0,0,0,0,0,0,0,0,-1,1623,757,0,0
406,267,0,0,0,0,0,0,0,0,0,-1,1630,757,0,0
413,267,0,0,0,0,0,0,0,0,0,-1,1637,757,0,0
420,267,0,0,0,0,0,0,0,0,0,-1,1644,757,0,0
427,267,0,0,0,0,0,0,0,0,0,-1,1651,757,0,0
434,267,0,0,0,0,0,0,0,0,0,-1,1658,757,0,0
441,267,0,0,0,0,0,0,0,0,0,-1,1665,757,0,0
448,267,0,0,0,0,0,0,0,0,0,-1,1672,757,0,0
455,267,0,0,0,0,0,0,0,0,0,-1,1679,757,0,0
462,267,0,0,0,0,0,0,0,0,0,-1,1686,757,0,0
469,267,0,0,0,0,0,0,0,0,0,-1,1693,757,0,0
476,267,0,0,0,0,0,0,0,0,0,-1,1700,757,0,0
483,267,0,0,0,0,0,0,0,0,0,-1,1707,757,0,0
490,267,0,0,0,0,0,0,0,0,0,-1,1714,757,0,0
497,267,0,0,0,0,0,0,0,0,0,-1,1721,757,0,0
504,267,0,0,0,0,0,0,0,0,0,-1,1728,757,0,0
511,267,0,0,0,0,0,0,0,0,0,-1,1735,757,0,0
518,267,0,0,0,0,0,0,0,0,0,-1,1742,757,0,0
525,267,0,0,0,0,0,0,0,0,0,-1,1749,757,0,0
532,267,0,0,0,0,0,0,0,0,0,-1,1756,757,0,0
539,267,0,0,0,0,0,0,0,0,0,-1,1763,757,0,0
546,267,0,0,0,0,0,0,0,0,0,-1,1770,757,0,0
553,267,0,0,0,0,0,0,0,0,0,-1,1777,757,0,0
560,267,0,0,0,0,0,0,0,0,0,-1,1784,757,0,0
567,267,58.0104,3.24304,0,0,0,0,0,0,0,-1,1791,757,58.0104,-3.24306
574,267,64.5414,2.91858,0,0,0,0,0,0,0,-1,1798,757,64.5414,-2.91855
581,267,58.374,2.95636,0,0,0,0,0,0,0,-1,1805,757,58.3741,-2.95639
588,267,65.9681,2.6438,0,0,0,0,0,0,0,-1,1812,757,65.9682,-2.64382
595,267,66.191,2.60791,0,0,0,0,0,0,0,-1,1819,757,66.191,-2.60792
602,267,66.4139,2.57202,0,0,0,0,0,0,0,-1,1826,757,66.4139,-2.57203
609,267,54.5498,3.24054,0,0,0,0,0,0,0,-1,1833,757,54.5498,-3.24052
616,267,44.2543,3.28918,0,0,0,0,0,0,0,-1,1840,757,44.2542,-3.28918
623,267,24.1475,-1.1391,0,0,0,0,0,0,0,-1,1847,757,24.1475,1.13913
630,267,40.7198,-5.42108,0,0,0,0,0,0,0,-1,1854,757,40.7198,5.4211
637,267,50.3925,-7.78949,0,0,0,0,0,0,0,-1,1861,757,50.3925,7.78951
644,267,50.4659,-7.01819,0.00171426,0.000443466,0.00136744,0.00258672,-0.000428993,0.567908,0.00188383,0.026014,1868,757,50.4659,7.0182
651,267,50.4207,-5.96069,0.00127474,-1.78087e-05,0.000818801,0.00167159,-0.000414657,0.451309,0.00127528,0.0173676,1875,757,50.4206,5.96071
658,267,50.3945,-5.02734,0.00106297,-9.72494e-05,0.000422595,0.00120058,-0.000234854,0.31479,0.000889071,0.0157652,1882,757,50.3945,5.02735
665,267,50.3448,-4.09137,0.000933843,0.000290062,0.00023205,0.00100877,0.000215139,0.312307,0.000613503,0.0163503,1889,757,50.3448,4.09137
672,267,50.2993,-3.16736,0.00085062,0.000779003,0.000228002,0.00104561,0.000584015,0.707508,0.00060506,0.0148213,1896,757,50.2994,3.16733
679,267,50.2423,-2.20667,0.000998602,0.00139219,0.000363161,0.00160845,0.000782341,1.03369,0.000928752,0.0136644,1903,757,50.2424,2.20667
686,267,50.1671,-1.2395,0.00123344,0.00212845,0.000489443,0.00234413,0.00101776,1.15573,0.00135729,0.0186943,1910,757,50.1671,1.23948
693,267,50.0638,-0.342468,0.00166517,0.00296649,0.000653495,0.00323801,0.00139365,1.17701,0.00187549,0.0183344,1917,757,50.0638,0.342478
700,267,50.0166,0.588867,0.00236705,0.00397771,0.000900061,0.00438014,0.00196463,1.15035,0.00253333,0.016331,1924,757,50.0166,-0.58886
707,267,50.0139,1.53778,0.00321589,0.00507659,0.00108374,0.00557454,0.00271794,1.14009,0.00321879,0.024595,1931,757,50.0139,-1.53776
714,267,50.0243,2.55249,0,0,0,0,0,0,0,-1,1938,757,50.0243,-2.55247
721,267,47.0829,3.73804,0,0,0,0,0,0,0,-1,1945,757,47.0828,-3.73803
728,267,26.7886,3.90027,0,0,0,0,0,0,0,-1,1952,757,26.7886,-3.90028
735,267,24.6713,2.82483,0,0,0,0,0,0,0,-1,1959,757,24.6713,-2.82483
742,267,18.1177,3.56561,0,0,0,0,0,0,0,-1,1966,757,18.1176,-3.56564
749,267,0,0,0,0,0,0,0,0,0,-1,1973,757,0,0
756,267,0,0,0,0,0,0,0,0,0,-1,1980,757,0,0
763,267,0,0,0,0,0,0,0,0,0,-1,1987,757,0,0
770,267,0,0,0,0,0,0,0,0,0,-1,1994,757,0,0
777,267,0,0,0,0,0,0,0,0,0,-1,2001,757,0,0
784,267,0,0,0,0,0,0,0,0,0,-1,2008,757,0,0
791,267,0,0,0,0,0,0,0,0,0,-1,2015,757,0,0
798,267,0,0,0,0,0,0,0,0,0,-1,2022,757,0,0
805,267,0,0,0,0,0,0,0,0,0,-1,2029,757,0,0
812,267,0,0,0,0,0,0,0,0,0,-1,2036,757,0,0
-700,260,0,0,0,0,0,0,0,0,0,-1,524,764,0,0
-693,260,0,0,0,0,0,0,0,0,0,-1,531,764,0,0
-686,260,0,0,0,0,0,0,0,0,0,-1,538,764,0,0
-679,260,0,0,0,0,0,0,0,0,0,-1,545,764,0,0
-672,260,0,0,0,0,0,0,0,0,0,-1,552,764,0,0
-665,260,0,0,0,0,0,0,0,0,0,-1,559,764,0,0
-658,260,0,0,0,0,0,0,0,0,0,-1,566,764,0,0
-651,260,0,0,0,0,0,0,0,0,0,-1,573,764,0,0
-644,260,0,0,0,0,0,0,0,0,0,-1,580,764,0,0
-637,260,0,0,0,0,0,0,0,0,0,-1,587,764,0,0
-630,260,-21.8905,4.49341,0,0,0,0,0,0,0,-1,594,764,-21.8905,-4.49342
-623,260,-20.3127,3.53546,0,0,0,0,0,0,0,-1,601,764,-20.3127,-3.53544
-616,260,-23.4346,3.65009,0,0,0,0,0,0,0,-1,608,764,-23.4345,-3.65008
-609,260,-27.8874,4.42004,0,0,0,0,0,0,0,-1,615,764,-27.8874,-4.42005
-602,260,-32.8671,3.61243,0,0,0,0,0,0,0,-1,622,764,-32.867,-3.61241
-595,260,-35.5386,3.36578,0,0,0,0,0,0,0,-1,629,764,-35.5386,-3.36578
-588,260,-35.3186,2.22736,0,0,0,0,0,0,0,-1,636,764,-35.3186,-2.22735
-581,260,-35.0495,1.18732,-0.00788249,0.00671261,-0.00476073,0.0081282,-0.00929807,-1.28178,0.0100686,0.0321512,643,764,-35.0495,-1.18729
-574,260,-35.0368,0.306335,-0.00562994,0.00503455,-0.00301353,0.00582719,-0.00642257,-1.3136,0.00707519,0.0212083,650,764,-35.0368,-0.306311
-567,260,-35.0833,-0.555725,-0.00398591,0.00356569,-0.00169874,0.00393023,-0.00435045,-1.35941,0.0047829,0.018131,657,764,-35.0833,0.555754
-560,260,-35.167,-1.505,-0.00290654,0.00244672,-0.000798858,0.00256339,-0.00302321,-1.42578,0.00322907,0.0212812,664,764,-35.167,1.50499
-553,260,-35.2489,-2.47791,-0.00222232,0.0016693,-0.00017104,0.0016768,-0.00222982,-1.52696,0.00226301,0.0185619,671,764,-35.2489,2.47789
-546,260,-35.2864,-3.44122,-0.00182101,0.00102524,0.000270123,0.00105065,-0.00184641,1.47701,0.00169352,0.0120554,678,764,-35.2864,3.4412
-539,260,-35.3109,-4.37421,-0.0017428,0.000462966,0.000597312,0.000614329,-0.00189417,1.32261,0.00150981,0.0141639,685,764,-35.3109,4.3742
-532,260,-35.3362,-5.24182,-0.00168041,0.000205392,0.000495727,0.000327764,-0.00180278,1.32878,0.00132469,0.0198108,692,764,-35.3363,5.24179
-525,260,-35.4619,-6.14905,-0.00148361,0.000178581,-4.31069e-05,0.000179699,-0.00148472,-1.54489,0.00105483,0.0202603,699,764,-35.4619,6.14903
-518,260,-35.6912,-7.11371,-0.00114752,-0.000102973,-0.000347619,2.13599e-06,-0.00125263,-1.27717,0.0008358,0.0301672,706,764,-35.6912,7.11372
-511,260,-36.0197,-8.26752,0,0,0,0,0,0,0,-1,713,764,-36.0197,8.26752
-504,260,-34.7117,-8.67163,0,0,0,0,0,0,0,-1,720,764,-34.7117,8.6716
-497,260,-16.6542,-3.67334,0,0,0,0,0,0,0,-1,727,764,-16.6542,3.67331
-490,260,-29.4557,0.921387,0,0,0,0,0,0,0,-1,734,764,-29.4557,-0.921369
-483,260,-40.8972,1.04193,0,0,0,0,0,0,0,-1,741,764,-40.8972,-1.04193
-476,260,-53.8282,0.00378418,0,0,0,0,0,0,0,-1,748,764,-53.8283,-0.00378825
-469,260,-60.4601,0.137939,0,0,0,0,0,0,0,-1,755,764,-60.4602,-0.137954
-462,260,-60.2482,0.535156,0.00537488,0.01428,0.014432,0.0249306,-0.00527581,0.935025,0.0186297,0.0435296,762,764,-60.2482,-0.535158
-455,260,-60.2372,0.733521,0.00622793,0.0202414,0.0188989,0.0333907,-0.00692134,0.962917,0.0248904,0.0469746,769,764,-60.2373,-0.733542
-448,260,0,0,0,0,0,0,0,0,0,-1,776,764,0,0
-441,260,0,0,0,0,0,0,0,0,0,-1,783,764,0,0
-434,260,0,0,0,0,0,0,0,0,0,-1,790,764,0,0
-427,260,0,0,0,0,0,0,0,0,0,-1,797,764,0,0
-420,260,0,0,0,0,0,0,0,0,0,-1,804,764,0,0
-413,260,0,0,0,0,0,0,0,0,0,-1,811,764,0,0
-406,260,0,0,0,0,0,0,0,0,0,-1,818,764,0,0
-399,260,0,0,0,0,0,0,0,0,0,-1,825,764,0,0
-392,260,0,0,0,0,0,0,0,0,0,-1,832,764,0,0
-385,260,0,0,0,0,0,0,0,0,0,-1,839,764,0,0
-378,260,0,0,0,0,0,0,0,0,0,-1,846,764,0,0
-371,260,0,0,0,0,0,0,0,0,0,-1,853,764,0,0
-364,260,0,0,0,0,0,0,0,0,0,-1,860,764,0,0
-357,260,0,0,0,0,0,0,0,0,0,-1,867,764,0,0
-350,260,0,0,0,0,0,0,0,0,0,-1,874,764,0,0
-343,260,0,0,0,0,0,0,0,0,0,-1,881,764,0,0
-336,260,0,0,0,0,0,0,0,0,0,-1,888,764,0,0
-329,260,0,0,0,0,0,0,0,0,0,-1,895,764,0,0
-322,260,0,0,0,0,0,0,0,0,0,-1,902,764,0,0
-315,260,0,0,0,0,0,0,0,0,0,-1,909,764,0,0
-308,260,0,0,0,0,0,0,0,0,0,-1,916,764,0,0
-301,260,0,0,0,0,0,0,0,0,0,-1,923,764,0,0
-294,260,0,0,0,0,0,0,0,0,0,-1,930,764,0,0
-287,260,0,0,0,0,0,0,0,0,0,-1,937,764,0,0
-280,260,0,0,0,0,0,0,0,0,0,-1,944,764,0,0
-273,260,0,0,0,0,0,0,0,0,0,-1,951,764,0,0
-266,260,0,0,0,0,0,0,0,0,0,-1,958,764,0,0
-259,260,0,0,0,0,0,0,0,0,0,-1,965,764,0,0
-252,260,0,0,0,0,0,0,0,0,0,-1,972,764,0,0
-245,260,0,0,0,0,0,0,0,0,0,-1,979,764,0,0
-238,260,0,0,0,0,0,0,0,0,0,-1,986,764,0,0
-231,260,0,0,0,0,0,0,0,0,0,-1,993,764,0,0
-224,260,0,0,0,0,0,0,0,0,0,-1,1000,764,0,0
-217,260,0,0,0,0,0,0,0,0,0,-1,1007,764,0,0
-210,260,0,0,0,0,0,0,0,0,0,-1,1014,764,0,0
-203,260,0,0,0,0,0,0,0,0,0,-1,1021,764,0,0
-196,260,0,0,0,0,0,0,0,0,0,-1,1028,764,0,0
-189,260,0,0,0,0,0,0,0,0,0,-1,1035,764,0,0
-182,260,0,0,0,0,0,0,0,0,0,-1,1042,764,0,0
-175,260,0,0,0,0,0,0,0,0,0,-1,1049,764,0,0
-168,260,0,0,0,0,0,0,0,0,0,-1,1056,764,0,0
-161,260,0,0,0,0,0,0,0,0,0,-1,1063,764,0,0
-154,260,0,0,0,0,0,0,0,0,0,-1,1070,764,0,0
-147,260,0,0,0,0,0,0,0,0,0,-1,1077,764,0,0
-140,260,0,0,0,0,0,0,0,0,0,-1,1084,764,0,0
-133,260,0,0,0,0,0,0,0,0,0,-1,1091,764,0,0
-126,260,0,0,0,0,0,0,0,0,0,-1,1098,764,0,0
-119,260,0,0,0,0,0,0,0,0,0,-1,1105,764,0,0
-112,260,0,0,0,0,0,0,0,0,0,-1,1112,764,0,0
-105,260,0,0,0,0,0,0,0,0,0,-1,1119,764,0,0
-98,260,0,0,0,0,0,0,0,0,0,-1,1126,764,0,0
-91,260,0,0,0,0,0,0,0,0,0,-1,1133,764,0,0
-84,260,0,0,0,0,0,0,0,0,0,-1,1140,764,0,0
-77,260,0,0,0,0,0,0,0,0,0,-1,1147,764,0,0
-70,260,0,0,0,0,0,0,0,0,0,-1,1154,764,0,0
-63,260,0,0,0,0,0,0,0,0,0,-1,1161,764,0,0
-56,260,0,0,0,0,0,0,0,0,0,-1,1168,764,0,0
-49,260,0,0,0,0,0,0,0,0,0,-1,1175,764,0,0
-42,260,0,0,0,0,0,0,0,0,0,-1,1182,764,0,0
-35,260,0,0,0,0,0,0,0,0,0,-1,1189,764,0,0
-28,260,0,0,0,0,0,0,0,0,0,-1,1196,764,0,0
-21,260,0,0,0,0,0,0,0,0,0,-1,1203,764,0,0
-14,260,0,0,0,0,0,0,0,0,0,-1,1210,764,0,0
-7,260,0,0,0,0,0,0,0,0,0,-1,1217,764,0,0
0,260,0,0,0,0,0,0,0,0,0,-1,1224,764,0,0
7,260,0,0,0,0,0,0,0,0,0,-1,1231,764,0,0
14,260,0,0,0,0,0,0,0,0,0,-1,1238,764,0,0
21,260,0,0,0,0,0,0,0,0,0,-1,1245,764,0,0
28,260,0,0,0,0,0,0,0,0,0,-1,1252,764,0,0
35,260,0,0,0,0,0,0,0,0,0,-1,1259,764,0,0
42,260,0,0,0,0,0,0,0,0,0,-1,1266,764,0,0
49,260,0,0,0,0,0,0,0,0,0,-1,1273,764,0,0
56,260,0,0,0,0,0,0,0,0,0,-1,1280,764,0,0
63,260,0,0,0,0,0,0,0,0,0,-1,1287,764,0,0
70,260,0,0,0,0,0,0,0,0,0,-1,1294,764,0,0
77,260,0,0,0,0,0,0,0,0,0,-1,1301,764,0,0
84,260,0,0,0,0,0,0,0,0,0,-1,1308,764,0,0
91,260,0,0,0,0,0,0,0,0,0,-1,1315,764,0,0
98,260,0,0,0,0,0,0,0,0,0,-1,1322,764,0,0
105,260,0,0,0,0,0,0,0,0,0,-1,1329,764,0,0
112,260,0,0,0,0,0,0,0,0,0,-1,1336,764,0,0
119,260,0,0,0,0,0,0,0,0,0,-1,1343,764,0,0
126,260,0,0,0,0,0,0,0,0,0,-1,1350,764,0,0
133,260,0,0,0,0,0,0,0,0,0,-1,1357,764,0,0
140,260,0,0,0,0,0,0,0,0,0,-1,1364,764,0,0
147,260,0,0,0,0,0,0,0,0,0,-1,1371,764,0,0
154,260,0,0,0,0,0,0,0,0,0,-1,1378,764,0,0
161,260,0,0,0,0,0,0,0,0,0,-1,1385,764,0,0
168,260,0,0,0,0,0,0,0,0,0,-1,1392,764,0,0
175,260,0,0,0,0,0,0,0,0,0,-1,1399,764,0,0
182,260,0,0,0,0,0,0,0,0,0,-1,1406,764,0,0
189,260,0,0,0,0,0,0,0,0,0,-1,1413,764,0,0
196,260,0,0,0,0,0,0,0,0,0,-1,1420,764,0,0
203,260,0,0,0,0,0,0,0,0,0,-1,1427,764,0,0
210,260,0,0,0,0,0,0,0,0,0,-1,1434,764,0,0
217,260,0,0,0,0,0,0,0,0,0,-1,1441,764,0,0
224,260,0,0,0,0,0,0,0,0,0,-1,1448,764,0,0
231,260,0,0,0,0,0,0,0,0,0,-1,1455,764,0,0
238,260,0,0,0,0,0,0,0,0,0,-1,1462,764,0,0
245,260,0,0,0,0,0,0,0,0,0,-1,1469,764,0,0
252,260,0,0,0,0,0,0,0,0,0,-1,1476,764,0,0
259,260,0,0,0,0,0,0,0,0,0,-1,1483,764,0,0
266,260,0,0,0,0,0,0,0,0,0,-1,1490,764,0,0
273,260,0,0,0,0,0,0,0,0,0,-1,1497,764,0,0
280,260,0,0,0,0,0,0,0,0,0,-1,1504,764,0,0
287,260,0,0,0,0,0,0,0,0,0,-1,1511,764,0,0
294,260,0,0,0,0,0,0,0,0,0,-1,1518,764,0,0
301,260,0,0,0,0,0,0,0,0,0,-1,1525,764,0,0
308,260,0,0,0,0,0,0,0,0,0,-1,1532,764,0,0
315,260,0,0,0,0,0,0,0,0,0,-1,1539,764,0,0
322,260,0,0,0,0,0,0,0,0,0,-1,1546,764,0,0
329,260,0,0,0,0,0,0,0,0,0,-1,1553,764,0,0
336,260,0,0,0,0,0,0,0,0,0,-1,1560,764,0,0
343,260,0,0,0,0,0,0,0,0,0,-1,1567,764,0,0
350,260,0,0,0,0,0,0,0,0,0,-1,1574,764,0,0
357,260,0,0,0,0,0,0,0,0,0,-1,1581,764,0,0
364,260,0,0,0,0,0,0,0,0,0,-1,1588,764,0,0
371,260,0,0,0,0,0,0,0,0,0,-1,1595,764,0,0
378,260,0,0,0,0,0,0,0,0,0,-1,1602,764,0,0
385,260,0,0,0,0,0,0,0,0,0,-1,1609,764,0,0
392,260,0,0,0,0,0,0,0,0,0,-1,1616,764,0,0
399,260,0,0,0,0,0,0,0,0,0,-1,1623,764,0,0
406,260,0,0,0,0,0,0,0,0,0,-1,1630,764,0,0
413,260,0,0,0,0,0,0,0,0,0,-1,1637,764,0,0
420,260,0,0,0,0,0,0,0,0,0,-1,1644,764,0,0
427,260,0,0,0,0,0,0,0,0,0,-1,1651,764,0,0
434,260,0,0,0,0,0,0,0,0,0,-1,1658,764,0,0
441,260,0,0,0,0,0,0,0,0,0,-1,1665,764,0,0
448,260,0,0,0,0,0,0,0,0,0,-1,1672,764,0,0
455,260,0,0,0,0,0,0,0,0,0,-1,1679,764,0,0
462,260,0,0,0,0,0,0,0,0,0,-1,1686,764,0,0
469,260,0,0,0,0,0,0,0,0,0,-1,1693,764,0,0
476,260,0,0,0,0,0,0,0,0,0,-1,1700,764,0,0
483,260,0,0,0,0,0,0,0,0,0,-1,1707,764,0,0
490,260,0,0,0,0,0,0,0,0,0,-1,1714,764,0,0
497,260,0,0,0,0,0,0,0,0,0,-1,1721,764,0,0
504,260,0,0,0,0,0,0,0,0,0,-1,1728,764,0,0
511,260,0,0,0,0,0,0,0,0,0,-1,1735,764,0,0
518,260,0,0,0,0,0,0,0,0,0,-1,1742,764,0,0
525,260,0,0,0,0,0,0,0,0,0,-1,1749,764,0,0
532,260,0,0,0,0,0,0,0,0,0,-1,1756,764,0,0
539,260,0,0,0,0,0,0,0,0,0,-1,1763,764,0,0
546,260,0,0,0,0,0,0,0,0,0,-1,1770,764,0,0
553,260,0,0,0,0,0,0,0,0,0,-1,1777,764,0,0
560,260,0,0,0,0,0,0,0,0,0,-1,1784,764,0,0
567,260,0,0,0,0,0,0,0,0,0,-1,1791,764,0,0
574,260,76.8076,2.01233,0,0,0,0,0,0,0,-1,1798,764,76.8076,-2.01234
581,260,77.1418,1.81262,0,0,0,0,0,0,0,-1,1805,764,77.1418,-1.81263
588,260,70.8303,2.6853,0,0,0,0,0,0,0,-1,1812,764,70.8304,-2.6853
595,260,66.1678,2.56989,0,0,0,0,0,0,0,-1,1819,764,66.1678,-2.56989
602,260,65.9274,2.69824,0,0,0,0,0,0,0,-1,1826,764,65.9274,-2.69825
609,260,65.4674,3.08105,0,0,0,0,0,0,0,-1,1833,764,65.4673,-3.08107
616,260,46.0709,2.74542,0,0,0,0,0,0,0,-1,1840,764,46.0709,-2.74545
623,260,32.2268,3.25836,0,0,0,0,0,0,0,-1,1847,764,32.2268,-3.25833
630,260,24.3739,-0.536316,0,0,0,0,0,0,0,-1,1854,764,24.3739,0.536343
637,260,42.7155,-5.35486,0,0,0,0,0,0,0,-1,1861,764,42.7154,5.35488
644,260,51.433,-7.10907,0,0,0,0,0,0,0,-1,1868,764,51.433,7.10906
651,260,51.6012,-5.87604,0.00132665,-6.86791e-05,0.000846732,0.00172611,-0.000468143,0.440811,0.00133445,0.0289473,1875,764,51.6012,5.87602
658,260,51.3856,-4.922,0.00119392,-0.000226115,0.000366469,0.00128291,-0.000315112,0.238239,0.000977395,0.0179818,1882,764,51.3856,4.92201
665,260,51.2777,-4.02032,0.00106786,8.80845e-05,6.36336e-05,0.00107197,8.39689e-05,0.0645857,0.000688368,0.0165409,1889,764,51.2777,4.0203
672,260,51.2366,-3.07098,0.000862979,0.000476431,2.83103e-05,0.000865041,0.000474369,0.0727215,0.00050021,0.01481,1896,764,51.2366,3.07097
679,260,51.1733,-2.12158,0.000891216,0.000927475,0.000129345,0.00103996,0.000778736,0.855027,0.000624708,0.0132712,1903,764,51.1734,2.12157
686,260,51.0822,-1.17334,0.00109232,0.0015638,0.000222563,0.00165227,0.00100386,1.19247,0.000961266,0.0239866,1910,764,51.0822,1.17332
693,260,50.9813,-0.302856,0.00148376,0.00226597,0.000330743,0.00238707,0.00136266,1.21981,0.00138278,0.0239335,1917,764,50.9813,0.302831
700,260,50.9089,0.608459,0.00214146,0.00311153,0.000506395,0.0033277,0.00192528,1.16733,0.00192914,0.017269,1924,764,50.9089,-0.60848
707,260,50.9248,1.55054,0.00298947,0.00405151,0.000681445,0.00438441,0.00265658,1.11638,0.0025502,0.0179607,1931,764,50.9248,-1.55056
714,260,50.8997,2.42969,0.00403726,0.00495738,0.000924597,0.00553005,0.00346459,1.01625,0.00322666,0.0379946,1938,764,50.8997,-2.42971
721,260,50.8739,3.31439,0,0,0,0,0,0,0,-1,1945,764,50.8739,-3.31441
728,260,33.4344,5.75409,0,0,0,0,0,0,0,-1,1952,764,33.4345,-5.75408
735,260,26.9788,4.85681,0,0,0,0,0,0,0,-1,1959,764,26.9787,-4.85678
742,260,32.1443,1.73688,0,0,0,0,0,0,0,-1,1966,764,32.1442,-1.73688
749,260,33.6013,2.94733,0,0,0,0,0,0,0,-1,1973,764,33.6013,-2.9473
756,260,0,0,0,0,0,0,0,0,0,-1,1980,764,0,0
763,260,0,0,0,0,0,0,0,0,0,-1,1987,764,0,0
770,260,0,0,0,0,0,0,0,0,0,-1,1994,764,0,0
777,260,0,0,0,0,0,0,0,0,0,-1,2001,764,0,0
784,260,0,0,0,0,0,0,0,0,0,-1,2008,764,0,0
791,260,0,0,0,0,0,0,0,0,0,-1,2015,764,0,0
798,260,0,0,0,0,0,0,0,0,0,-1,2022,764,0,0
805,260,0,0,0,0,0,0,0,0,0,-1,2029,764,0,0
812,260,0,0,0,0,0,0,0,0,0,-1,2036,764,0,0
-700,253,0,0,0,0,0,0,0,0,0,-1,524,771,0,0
-693,253,0,0,0,0,0,0,0,0,0,-1,531,771,0,0
-686,253,0,0,0,0,0,0,0,0,0,-1,538,771,0,0
-679,253,0,0,0,0,0,0,0,0,0,-1,545,771,0,0
-672,253,0,0,0,0,0,0,0,0,0,-1,552,771,0,0
-665,253,0,0,0,0,0,0,0,0,0,-1,559,771,0,0
-658,253,0,0,0,0,0,0,0,0,0,-1,566,771,0,0
-651,253,0,0,0,0,0,0,0,0,0,-1,573,771,0,0
-644,253,0,0,0,0,0,0,0,0,0,-1,580,771,0,0
-637,253,-24.7979,-0.491394,0,0,0,0,0,0,0,-1,587,771,-24.7978,0.491371
-630,253,-25.156,0.540405,0,0,0,0,0,0,0,-1,594,771,-25.156,-0.540421
-623,253,-20.808,2.84314,0,0,0,0,0,0,0,-1,601,771,-20.8081,-2.84312
-616,253,-25.0877,2.96875,0,0,0,0,0,0,0,-1,608,771,-25.0877,-2.96876
-609,253,-24.28,2.08228,0,0,0,0,0,0,0,-1,615,771,-24.2801,-2.08227
-602,253,-35.3259,5.40613,0,0,0,0,0,0,0,-1,622,771,-35.3259,-5.4061
-595,253,-35.6328,3.97333,0,0,0,0,0,0,0,-1,629,771,-35.6328,-3.97334
-588,253,-36.6279,1.8446,0,0,0,0,0,0,0,-1,636,771,-36.6279,-1.84461
-581,253,-35.9595,1.19342,-0.00719792,0.00597641,-0.00430309,0.00725736,-0.00847888,-1.28147,0.00909444,0.029688,643,771,-35.9596,-1.19344
-574,253,-35.9771,0.335083,-0.00505058,0.00446834,-0.00274352,0.00520245,-0.0057847,-1.30934,0.0063464,0.0239854,650,771,-35.977,-0.335084
-567,253,-36.048,-0.58844,-0.00351745,0.00316829,-0.00153014,0.00350185,-0.003851,-1.35616,0.00424677,0.0177693,657,771,-36.048,0.58847
-560,253,-36.072,-1.46307,-0.00248898,0.0021577,-0.000664612,0.00225089,-0.00258218,-1.43149,0.00279255,0.0144578,664,771,-36.072,1.4631
-553,253,-36.1608,-2.40338,-0.00186229,0.00148021,-3.65623e-05,0.00148061,-0.00186269,-1.55986,0.00193445,0.0121694,671,771,-36.1608,2.40338
-546,253,-36.2347,-3.35016,-0.0015298,0.00101706,0.000430547,0.00108787,-0.00160061,1.40778,0.00156158,0.01009,678,771,-36.2347,3.35015
-539,253,-36.3128,-4.28534,-0.0014934,0.000631788,0.000691662,0.000837068,-0.00169868,1.28229,0.00149192,0.0128055,685,771,-36.3128,4.28537
-532,253,-36.3348,-5.19922,-0.00129947,0.000527405,0.000505349,0.000657877,-0.00142994,1.31813,0.00123257,0.0206696,692,771,-36.3348,5.19919
-525,253,-36.4343,-6.07098,-0.00100442,0.000594745,-0.000102481,0.000601285,-0.00101096,-1.50706,0.000940792,0.0302006,699,771,-36.4343,6.07097
-518,253,-36.6475,-7.13672,-0.000678788,0.000372842,-0.000418244,0.000518897,-0.000824843,-1.23483,0.000782483,0.0480148,706,771,-36.6475,7.13671
-511,253,-37.1023,-8.16718,0,0,0,0,0,0,0,-1,713,771,-37.1023,8.16715
-504,253,-19.317,-4.1723,0,0,0,0,0,0,0,-1,720,771,-19.317,4.1723
-497,253,-21.7737,-1.76837,0,0,0,0,0,0,0,-1,727,771,-21.7738,1.7684
-490,253,-29.7674,0.438354,0,0,0,0,0,0,0,-1,734,771,-29.7674,-0.438339
-483,253,-45.4489,1.59302,0,0,0,0,0,0,0,-1,741,771,-45.4489,-1.59303
-476,253,-60.5043,0.239929,0,0,0,0,0,0,0,-1,748,771,-60.5043,-0.239925
-469,253,-60.5379,0.166748,0.00470433,0.00835965,0.00722206,0.0139817,-0.000917743,0.909329,0.00964163,0.0456457,755,771,-60.5379,-0.166721
-462,253,-60.4296,0.374634,0.00516837,0.0122416,0.0105157,0.0197995,-0.00238954,0.947614,0.014064,0.0445311,762,771,-60.4296,-0.374636
-455,253,-60.3871,0.482422,0.00562356,0.0173408,0.0139313,0.0265952,-0.00363083,0.984441,0.0190561,0.033891,769,771,-60.3871,-0.482444
-448,253,0,0,0,0,0,0,0,0,0,-1,776,771,0,0
-441,253,0,0,0,0,0,0,0,0,0,-1,783,771,0,0
-434,253,0,0,0,0,0,0,0,0,0,-1,790,771,0,0
-427,253,0,0,0,0,0,0,0,0,0,-1,797,771,0,0
-420,253,0,0,0,0,0,0,0,0,0,-1,804,771,0,0
-413,253,0,0,0,0,0,0,0,0,0,-1,811,771,0,0
-406,253,0,0,0,0,0,0,0,0,0,-1,818,771,0,0
-399,253,0,0,0,0,0,0,0,0,0,-1,825,771,0,0
-392,253,0,0,0,0,0,0,0,0,0,-1,832,771,0,0
-385,253,0,0,0,0,0,0,0,0,0,-1,839,771,0,0
-378,253,0,0,0,0,0,0,0,0,0,-1,846,771,0,0
-371,253,0,0,0,0,0,0,0,0,0,-1,853,771,0,0
-364,253,0,0,0,0,0,0,0,0,0,-1,860,771,0,0
-357,253,0,0,0,0,0,0,0,0,0,-1,867,771,0,0
-350,253,0,0,0,0,0,0,0,0,0,-1,874,771,0,0
-343,253,0,0,0,0,0,0,0,0,0,-1,881,771,0,0
-336,253,0,0,0,0,0,0,0,0,0,-1,888,771,0,0
-329,253,0,0,0,0,0,0,0,0,0,-1,895,771,0,0
-322,253,0,0,0,0,0,0,0,0,0,-1,902,771,0,0
-315,253,0,0,0,0,0,0,0,0,0,-1,909,771,0,0
-308,253,0,0,0,0,0,0,0,0,0,-1,916,771,0,0
-301,253,0,0,0,0,0,0,0,0,0,-1,923,771,0,0
-294,253,0,0,0,0,0,0,0,0,0,-1,930,771,0,0
-287,253,0,0,0,0,0,0,0,0,0,-1,937,771,0,0
-280,253,0,0,0,0,0,0,0,0,0,-1,944,771,0,0
-273,253,0,0,0,0,0,0,0,0,0,-1,951,771,0,0
-266,253,0,0,0,0,0,0,0,0,0,-1,958,771,0,0
-259,253,0,0,0,0,0,0,0,0,0,-1,965,771,0,0
-252,253,0,0,0,0,0,0,0,0,0,-1,972,771,0,0
-245,253,0,0,0,0,0,0,0,0,0,-1,979,771,0,0
-238,253,0,0,0,0,0,0,0,0,0,-1,986,771,0,0
-231,253,0,0,0,0,0,0,0,0,0,-1,993,771,0,0
-224,253,0,0,0,0,0,0,0,0,0,-1,1000,771,0,0
-217,253,0,0,0,0,0,0,0,0,0,-1,1007,771,0,0
-210,253,0,0,0,0,0,0,0,0,0,-1,1014,771,0,0
-203,253,0,0,0,0,0,0,0,0,0,-1,1021,771,0,0
-196,253,0,0,0,0,0,0,0,0,0,-1,1028,771,0,0
-189,253,0,0,0,0,0,0,0,0,0,-1,1035,771,0,0
-182,253,0,0,0,0,0,0,0,0,0,-1,1042,771,0,0
-175,253,0,0,0,0,0,0,0,0,0,-1,1049,771,0,0
-168,253,0,0,0,0,0,0,0,0,0,-1,1056,771,0,0
-161,253,0,0,0,0,0,0,0,0,0,-1,1063,771,0,0
-154,253,0,0,0,0,0,0,0,0,0,-1,1070,771,0,0
-147,253,0,0,0,0,0,0,0,0,0,-1,1077,771,0,0
-140,253,0,0,0,0,0,0,0,0,0,-1,1084,771,0,0
-133,253,0,0,0,0,0,0,0,0,0,-1,1091,771,0,0
-126,253,0,0,0,0,0,0,0,0,0,-1,1098,771,0,0
-119,253,0,0,0,0,0,0,0,0,0,-1,1105,771,0,0
-112,253,0,0,0,0,0,0,0,0,0,-1,1112,771,0,0
-105,253,0,0,0,0,0,0,0,0,0,-1,1119,771,0,0
-98,253,0,0,0,0,0,0,0,0,0,-1,1126,771,0,0
-91,253,0,0,0,0,0,0,0,0,0,-1,1133,771,0,0
-84,253,0,0,0,0,0,0,0,0,0,-1,1140,771,0,0
-77,253,0,0,0,0,0,0,0,0,0,-1,1147,771,0,0
-70,253,0,0,0,0,0,0,0,0,0,-1,1154,771,0,0
-63,253,0,0,0,0,0,0,0,0,0,-1,1161,771,0,0
-56,253,0,0,0,0,0,0,0,0,0,-1,1168,771,0,0
-49,253,0,0,0,0,0,0,0,0,0,-1,1175,771,0,0
-42,253,0,0,0,0,0,0,0,0,0,-1,1182,771,0,0
-35,253,0,0,0,0,0,0,0,0,0,-1,1189,771,0,0
-28,253,0,0,0,0,0,0,0,0,0,-1,1196,771,0,0
-21,253,0,0,0,0,0,0,0,0,0,-1,1203,771,0,0
-14,253,0,0,0,0,0,0,0,0,0,-1,1210,771,0,0
-7,253,0,0,0,0,0,0,0,0,0,-1,1217,771,0,0
0,253,0,0,0,0,0,0,0,0,0,-1,1224,771,0,0
7,253,0,0,0,0,0,0,0,0,0,-1,1231,771,0,0
14,253,0,0,0,0,0,0,0,0,0,-1,1238,771,0,0
21,253,0,0,0,0,0,0,0,0,0,-1,1245,771,0,0
28,253,0,0,0,0,0,0,0,0,0,-1,1252,771,0,0
35,253,0,0,0,0,0,0,0,0,0,-1,1259,771,0,0
42,253,0,0,0,0,0,0,0,0,0,-1,1266,771,0,0
49,253,0,0,0,0,0,0,0,0,0,-1,1273,771,0,0
56,253,0,0,0,0,0,0,0,0,0,-1,1280,771,0,0
63,253,0,0,0,0,0,0,0,0,0,-1,1287,771,0,0
70,253,0,0,0,0,0,0,0,0,0,-1,1294,771,0,0
77,253,0,0,0,0,0,0,0,0,0,-1,1301,771,0,0
84,253,0,0,0,0,0,0,0,0,0,-1,1308,771,0,0
91,253,0,0,0,0,0,0,0,0,0,-1,1315,771,0,0
98,253,0,0,0,0,0,0,0,0,0,-1,1322,771,0,0
105,253,0,0,0,0,0,0,0,0,0,-1,1329,771,0,0
112,253,0,0,0,0,0,0,0,0,0,-1,1336,771,0,0
119,253,0,0,0,0,0,0,0,0,0,-1,1343,771,0,0
126,253,0,0,0,0,0,0,0,0,0,-1,1350,771,0,0
133,253,0,0,0,0,0,0,0,0,0,-1,1357,771,0,0
140,253,0,0,0,0,0,0,0,0,0,-1,1364,771,0,0
147,253,0,0,0,0,0,0,0,0,0,-1,1371,771,0,0
154,253,0,0,0,0,0,0,0,0,0,-1,1378,771,0,0
161,253,0,0,0,0,0,0,0,0,0,-1,1385,771,0,0
168,253,0,0,0,0,0,0,0,0,0,-1,1392,771,0,0
175,253,0,0,0,0,0,0,0,0,0,-1,1399,771,0,0
182,253,0,0,0,0,0,0,0,0,0,-1,1406,771,0,0
189,253,0,0,0,0,0,0,0,0,0,-1,1413,771,0,0
196,253,0,0,0,0,0,0,0,0,0,-1,1420,771,0,0
203,253,0,0,0,0,0,0,0,0,0,-1,1427,771,0,0
210,253,0,0,0,0,0,0,0,0,0,-1,1434,771,0,0
217,253,0,0,0,0,0,0,0,0,0,-1,1441,771,0,0
224,253,0,0,0,0,0,0,0,0,0,-1,1448,771,0,0
231,253,0,0,0,0,0,0,0,0,0,-1,1455,771,0,0
238,253,0,0,0,0,0,0,0,0,0,-1,1462,771,0,0
245,253,0,0,0,0,0,0,0,0,0,-1,1469,771,0,0
252,253,0,0,0,0,0,0,0,0,0,-1,1476,771,0,0
259,253,0,0,0,0,0,0,0,0,0,-1,1483,771,0,0
266,253,0,0,0,0,0,0,0,0,0,-1,1490,771,0,0
273,253,0,0,0,0,0,0,0,0,0,-1,1497,771,0,0
280,253,0,0,0,0,0,0,0,0,0,-1,1504,771,0,0
287,253,0,0,0,0,0,0,0,0,0,-1,1511,771,0,0
294,253,0,0,0,0,0,0,0,0,0,-1,1518,771,0,0
301,253,0,0,0,0,0,0,0,0,0,-1,1525,771,0,0
308,253,0,0,0,0,0,0,0,0,0,-1,1532,771,0,0
315,253,0,0,0,0,0,0,0,0,0,-1,1539,771,0,0
322,253,0,0,0,0,0,0,0,0,0,-1,1546,771,0,0
329,253,0,0,0,0,0,0,0,0,0,-1,1553,771,0,0
336,253,0,0,0,0,0,0,0,0,0,-1,1560,771,0,0
343,253,0,0,0,0,0,0,0,0,0,-1,1567,771,0,0
350,253,0,0,0,0,0,0,0,0,0,-1,1574,771,0,0
357,253,0,0,0,0,0,0,0,0,0,-1,1581,771,0,0
364,253,0,0,0,0,0,0,0,0,0,-1,1588,771,0,0
371,253,0,0,0,0,0,0,0,0,0,-1,1595,771,0,0
378,253,0,0,0,0,0,0,0,0,0,-1,1602,771,0,0
385,253,0,0,0,0,0,0,0,0,0,-1,1609,771,0,0
392,253,0,0,0,0,0,0,0,0,0,-1,1616,771,0,0
399,253,0,0,0,0,0,0,0,0,0,-1,1623,771,0,0
406,253,0,0,0,0,0,0,0,0,0,-1,1630,771,0,0
413,253,0,0,0,0,0,0,0,0,0,-1,1637,771,0,0
420,253,0,0,0,0,0,0,0,0,0,-1,1644,771,0,0
427,253,0,0,0,0,0,0,0,0,0,-1,1651,771,0,0
434,253,0,0,0,0,0,0,0,0,0,-1,1658,771,0,0
441,253,0,0,0,0,0,0,0,0,0,-1,1665,771,0,0
448,253,0,0,0,0,0,0,0,0,0,-1,1672,771,0,0
455,253,0,0,0,0,0,0,0,0,0,-1,1679,771,0,0
462,253,0,0,0,0,0,0,0,0,0,-1,1686,771,0,0
469,253,0,0,0,0,0,0,0,0,0,-1,1693,771,0,0
476,253,0,0,0,0,0,0,0,0,0,-1,1700,771,0,0
483,253,0,0,0,0,0,0,0,0,0,-1,1707,771,0,0
490,253,0,0,0,0,0,0,0,0,0,-1,1714,771,0,0
497,253,0,0,0,0,0,0,0,0,0,-1,1721,771,0,0
504,253,0,0,0,0,0,0,0,0,0,-1,1728,771,0,0
511,253,0,0,0,0,0,0,0,0,0,-1,1735,771,0,0
518,253,0,0,0,0,0,0,0,0,0,-1,1742,771,0,0
525,253,0,0,0,0,0,0,0,0,0,-1,1749,771,0,0
532,253,0,0,0,0,0,0,0,0,0,-1,1756,771,0,0
539,253,0,0,0,0,0,0,0,0,0,-1,1763,771,0,0
546,253,0,0,0,0,0,0,0,0,0,-1,1770,771,0,0
553,253,0,0,0,0,0,0,0,0,0,-1,1777,771,0,0
560,253,0,0,0,0,0,0,0,0,0,-1,1784,771,0,0
567,253,0,0,0,0,0,0,0,0,0,-1,1791,771,0,0
574,253,76.8971,1.89343,0,0,0,0,0,0,0,-1,1798,771,76.8971,-1.89342
581,253,77.0295,1.82184,0,0,0,0,0,0,0,-1,1805,771,77.0295,-1.82184
588,253,76.9055,2.04492,0,0,0,0,0,0,0,-1,1812,771,76.9056,-2.04494
595,253,77.0297,2.43896,0,0,0,0,0,0,0,-1,1819,771,77.0296,-2.43898
602,253,66.4502,2.6098,0,0,0,0,0,0,0,-1,1826,771,66.4502,-2.60979
609,253,65.2542,3.18195,0,0,0,0,0,0,0,-1,1833,771,65.2541,-3.18193
616,253,58.416,2.69031,0,0,0,0,0,0,0,-1,1840,771,58.4161,-2.69031
623,253,48.8328,3.01001,0,0,0,0,0,0,0,-1,1847,771,48.8328,-3.01002
630,253,33.561,2.96838,0,0,0,0,0,0,0,-1,1854,771,33.561,-2.96836
637,253,22.3192,-0.604004,0,0,0,0,0,0,0,-1,1861,771,22.3192,0.603986
644,253,48.2843,-5.22784,0,0,0,0,0,0,0,-1,1868,771,48.2843,5.22783
651,253,52.5171,-5.5246,0,0,0,0,0,0,0,-1,1875,771,52.517,5.52457
658,253,52.3217,-4.7998,0.00113059,-0.000113117,0.000225941,0.00117036,-0.000152891,0.174252,0.00083588,0.027385,1882,771,52.3216,4.79978
665,253,52.1962,-3.95404,0.00103615,0.000152166,-0.000105748,0.00104862,0.000139692,-0.117419,0.000657483,0.0224626,1889,771,52.1961,3.95404
672,253,52.1388,-3.04895,0.000756347,0.000412844,-0.000109993,0.000788549,0.000380642,-0.284805,0.00045536,0.0175495,1896,771,52.1388,3.04894
679,253,52.115,-2.08063,0.000689787,0.000628649,-3.96275e-05,0.000709266,0.00060917,-0.456867,0.000443262,0.0136929,1903,771,52.115,2.08065
686,253,51.9998,-1.11285,0.000862168,0.00111543,1.12937e-06,0.00111543,0.000862163,1.56634,0.000675221,0.0266437,1910,771,51.9998,1.11285
693,253,51.9108,-0.219055,0.00123277,0.00166858,5.69449e-05,0.00167589,0.00122545,1.44299,0.00100147,0.0254768,1917,771,51.9107,0.219043
700,253,51.8748,0.662292,0.00185811,0.00236022,0.000178814,0.00241739,0.00180094,1.26135,0.00145045,0.0176444,1924,771,51.8748,-0.662315
707,253,51.8589,1.59796,0.00268593,0.00315023,0.000345522,0.00333435,0.00250181,1.0812,0.00200389,0.0165544,1931,771,51.8589,-1.59795
714,253,51.8165,2.50879,0.00368373,0.00393936,0.000574962,0.00440055,0.00322255,0.89477,0.00263048,0.0266991,1938,771,51.8166,-2.50877
721,253,51.7595,3.42804,0.00521793,0.00491793,0.00105956,0.00613805,0.00399781,0.715081,0.0035975,0.0441649,1945,771,51.7596,-3.42804
728,253,51.7559,4.3634,0,0,0,0,0,0,0,-1,1952,771,51.7559,-4.36339
735,253,34.5735,6.15118,0,0,0,0,0,0,0,-1,1959,771,34.5734,-6.1512
742,253,31.0571,5.7337,0,0,0,0,0,0,0,-1,1966,771,31.0571,-5.73373
749,253,33.7754,3.21533,0,0,0,0,0,0,0,-1,1973,771,33.7754,-3.21533
756,253,0,0,0,0,0,0,0,0,0,-1,1980,771,0,0
763,253,0,0,0,0,0,0,0,0,0,-1,1987,771,0,0
770,253,0,0,0,0,0,0,0,0,0,-1,1994,771,0,0
777,253,0,0,0,0,0,0,0,0,0,-1,2001,771,0,0
784,253,0,0,0,0,0,0,0,0,0,-1,2008,771,0,0
791,253,0,0,0,0,0,0,0,0,0,-1,2015,771,0,0
798,253,0,0,0,0,0,0,0,0,0,-1,2022,771,0,0
805,253,0,0,0,0,0,0,0,0,0,-1,2029,771,0,0
812,253,0,0,0,0,0,0,0,0,0,-1,2036,771,0,0
-700,246,0,0,0,0,0,0,0,0,0,-1,524,778,0,0
-693,246,0,0,0,0,0,0,0,0,0,-1,531,778,0,0
-686,246,0,0,0,0,0,0,0,0,0,-1,538,778,0,0
-679,246,0,0,0,0,0,0,0,0,0,-1,545,778,0,0
-672,246,0,0,0,0,0,0,0,0,0,-1,552,778,0,0
-665,246,0,0,0,0,0,0,0,0,0,-1,559,778,0,0
-658,246,0,0,0,0,0,0,0,0,0,-1,566,778,0,0
-651,246,0,0,0,0,0,0,0,0,0,-1,573,778,0,0
-644,246,0,0,0,0,0,0,0,0,0,-1,580,778,0,0
-637,246,-24.1234,0.130432,0,0,0,0,0,0,0,-1,587,778,-24.1234,-0.130438
-630,246,-24.0781,1.38916,0,0,0,0,0,0,0,-1,594,778,-24.0781,-1.38913
-623,246,-23.9183,2.49573,0,0,0,0,0,0,0,-1,601,778,-23.9183,-2.49575
-616,246,-26.8182,2.0705,0,0,0,0,0,0,0,-1,608,778,-26.8182,-2.07052
-609,246,-26.0615,1.16388,0,0,0,0,0,0,0,-1,615,778,-26.0615,-1.16388
-602,246,-36.1459,5.32855,0,0,0,0,0,0,0,-1,622,778,-36.1459,-5.32855
-595,246,-36.4518,3.90912,-0.012898,0.00849472,-0.00698103,0.0105712,-0.0149746,-1.28168,0.0148217,0.044483,629,778,-36.4518,-3.90911
-588,246,-36.7626,2.3479,-0.0090891,0.00683415,-0.00529737,0.00843545,-0.0106904,-1.27725,0.0110679,0.0320817,636,778,-36.7626,-2.34787
-581,246,-36.8956,1.36188,-0.00643627,0.00525925,-0.00371218,0.006338,-0.00751502,-1.28799,0.00800766,0.0199333,643,778,-36.8956,-1.36189
-574,246,-36.8801,0.345825,-0.00435439,0.00392991,-0.00234961,0.0045499,-0.00497439,-1.3128,0.00550068,0.0195489,650,778,-36.8801,-0.345797
-567,246,-36.9291,-0.568604,-0.00289741,0.00280756,-0.00125094,0.0030698,-0.00315965,-1.36415,0.0035967,0.0263131,657,778,-36.9291,0.568612
-560,246,-37.0458,-1.42926,-0.00190475,0.0019224,-0.000424804,0.00196899,-0.00195133,-1.46157,0.00226341,0.0205715,664,778,-37.0458,1.42928
-553,246,-37.0994,-2.3067,-0.00132574,0.00135241,0.000200276,0.00136731,-0.00134064,1.49657,0.00156346,0.012735,671,778,-37.0994,2.30668
-546,246,-37.1773,-3.26099,-0.00107225,0.00117301,0.000765549,0.00140919,-0.00130843,1.27155,0.00156938,0.0101415,678,778,-37.1773,3.26099
-539,246,-37.2419,-4.22736,-0.00100003,0.000940077,0.00100299,0.00136537,-0.00142533,1.16975,0.00161133,0.0122153,685,778,-37.2419,4.22733
-532,246,-37.284,-5.1756,-0.000518884,0.000849968,0.000810759,0.00122656,-0.00089548,1.13595,0.00123012,0.0302077,692,778,-37.284,5.17561
-525,246,-37.4581,-6.07056,0,0,0,0,0,0,0,-1,699,778,-37.4582,6.07053
-518,246,-37.632,-7.41626,0,0,0,0,0,0,0,-1,706,778,-37.632,7.41624
-511,246,-28.5886,-5.38635,0,0,0,0,0,0,0,-1,713,778,-28.5886,5.38633
-504,246,-20.0047,-2.88214,0,0,0,0,0,0,0,-1,720,778,-20.0047,2.88216
-497,246,-29.4669,1.82684,0,0,0,0,0,0,0,-1,727,778,-29.4669,-1.82687
-490,246,-40.4299,1.04309,0,0,0,0,0,0,0,-1,734,778,-40.4299,-1.04308
-483,246,-55.5514,-0.0795898,0,0,0,0,0,0,0,-1,741,778,-55.5514,0.0795595
-476,246,-60.6169,0.553284,0,0,0,0,0,0,0,-1,748,778,-60.617,-0.553295
-469,246,-60.5767,0.282227,0.00476326,0.00732141,0.00468283,0.0108967,0.00118796,0.918717,0.00690265,0.0421152,755,778,-60.5767,-0.282202
-462,246,-60.5269,0.294434,0.00487107,0.0105999,0.00711705,0.0154074,6.36471e-05,0.976717,0.0102504,0.0454644,762,778,-60.5269,-0.294441
-455,246,0,0,0,0,0,0,0,0,0,-1,769,778,0,0
-448,246,0,0,0,0,0,0,0,0,0,-1,776,778,0,0
-441,246,0,0,0,0,0,0,0,0,0,-1,783,778,0,0
-434,246,0,0,0,0,0,0,0,0,0,-1,790,778,0,0
-427,246,0,0,0,0,0,0,0,0,0,-1,797,778,0,0
-420,246,0,0,0,0,0,0,0,0,0,-1,804,778,0,0
-413,246,0,0,0,0,0,0,0,0,0,-1,811,778,0,0
-406,246,0,0,0,0,0,0,0,0,0,-1,818,778,0,0
-399,246,0,0,0,0,0,0,0,0,0,-1,825,778,0,0
-392,246,0,0,0,0,0,0,0,0,0,-1,832,778,0,0
-385,246,0,0,0,0,0,0,0,0,0,-1,839,778,0,0
-378,246,0,0,0,0,0,0,0,0,0,-1,846,778,0,0
-371,246,0,0,0,0,0,0,0,0,0,-1,853,778,0,0
-364,246,0,0,0,0,0,0,0,0,0,-1,860,778,0,0
-357,246,0,0,0,0,0,0,0,0,0,-1,867,778,0,0
-350,246,0,0,0,0,0,0,0,0,0,-1,874,778,0,0
-343,246,0,0,0,0,0,0,0,0,0,-1,881,778,0,0
-336,246,0,0,0,0,0,0,0,0,0,-1,888,778,0,0
-329,246,0,0,0,0,0,0,0,0,0,-1,895,778,0,0
-322,246,0,0,0,0,0,0,0,0,0,-1,902,778,0,0
-315,246,0,0,0,0,0,0,0,0,0,-1,909,778,0,0
-308,246,0,0,0,0,0,0,0,0,0,-1,916,778,0,0
-301,246,0,0,0,0,0,0,0,0,0,-1,923,778,0,0
-294,246,0,0,0,0,0,0,0,0,0,-1,930,778,0,0
-287,246,0,0,0,0,0,0,0,0,0,-1,937,778,0,0
-280,246,0,0,0,0,0,0,0,0,0,-1,944,778,0,0
-273,246,0,0,0,0,0,0,0,0,0,-1,951,778,0,0
-266,246,0,0,0,0,0,0,0,0,0,-1,958,778,0,0
-259,246,0,0,0,0,0,0,0,0,0,-1,965,778,0,0
-252,246,0,0,0,0,0,0,0,0,0,-1,972,778,0,0
-245,246,0,0,0,0,0,0,0,0,0,-1,979,778,0,0
-238,246,0,0,0,0,0,0,0,0,0,-1,986,778,0,0
-231,246,0,0,0,0,0,0,0,0,0,-1,993,778,0,0
-224,246,0,0,0,0,0,0,0,0,0,-1,1000,778,0,0
-217,246,0,0,0,0,0,0,0,0,0,-1,1007,778,0,0
-210,246,0,0,0,0,0,0,0,0,0,-1,1014,778,0,0
-203,246,0,0,0,0,0,0,0,0,0,-1,1021,778,0,0
-196,246,0,0,0,0,0,0,0,0,0,-1,1028,778,0,0
-189,246,0,0,0,0,0,0,0,0,0,-1,1035,778,0,0
-182,246,0,0,0,0,0,0,0,0,0,-1,1042,778,0,0
-175,246,0,0,0,0,0,0,0,0,0,-1,1049,778,0,0
-168,246,0,0,0,0,0,0,0,0,0,-1,1056,778,0,0
-161,246,0,0,0,0,0,0,0,0,0,-1,1063,778,0,0
-154,246,0,0,0,0,0,0,0,0,0,-1,1070,778,0,0
-147,246,0,0,0,0,0,0,0,0,0,-1,1077,778,0,0
-140,246,0,0,0,0,0,0,0,0,0,-1,1084,778,0,0
-133,246,0,0,0,0,0,0,0,0,0,-1,1091,778,0,0
-126,246,0,0,0,0,0,0,0,0,0,-1,1098,778,0,0
-119,246,0,0,0,0,0,0,0,0,0,-1,1105,778,0,0
-112,246,0,0,0,0,0,0,0,0,0,-1,1112,778,0,0
-105,246,0,0,0,0,0,0,0,0,0,-1,1119,778,0,0
-98,246,0,0,0,0,0,0,0,0,0,-1,1126,778,0,0
-91,246,0,0,0,0,0,0,0,0,0,-1,1133,778,0,0
-84,246,0,0,0,0,0,0,0,0,0,-1,1140,778,0,0
-77,246,0,0,0,0,0,0,0,0,0,-1,1147,778,0,0
-70,246,0,0,0,0,0,0,0,0,0,-1,1154,778,0,0
-63,246,0,0,0,0,0,0,0,0,0,-1,1161,778,0,0
-56,246,0,0,0,0,0,0,0,0,0,-1,1168,778,0,0
-49,246,0,0,0,0,0,0,0,0,0,-1,1175,778,0,0
-42,246,0,0,0,0,0,0,0,0,0,-1,1182,778,0,0
-35,246,0,0,0,0,0,0,0,0,0,-1,1189,778,0,0
-28,246,0,0,0,0,0,0,0,0,0,-1,1196,778,0,0
-21,246,0,0,0,0,0,0,0,0,0,-1,1203,778,0,0
-14,246,0,0,0,0,0,0,0,0,0,-1,1210,778,0,0
-7,246,0,0,0,0,0,0,0,0,0,-1,1217,778,0,0
0,246,0,0,0,0,0,0,0,0,0,-1,1224,778,0,0
7,246,0,0,0,0,0,0,0,0,0,-1,1231,778,0,0
14,246,0,0,0,0,0,0,0,0,0,-1,1238,778,0,0
21,246,0,0,0,0,0,0,0,0,0,-1,1245,778,0,0
28,246,0,0,0,0,0,0,0,0,0,-1,1252,778,0,0
35,246,0,0,0,0,0,0,0,0,0,-1,1259,778,0,0
42,246,0,0,0,0,0,0,0,0,0,-1,1266,778,0,0
49,246,0,0,0,0,0,0,0,0,0,-1,1273,778,0,0
56,246,0,0,0,0,0,0,0,0,0,-1,1280,778,0,0
63,246,0,0,0,0,0,0,0,0,0,-1,1287,778,0,0
70,246,0,0,0,0,0,0,0,0,0,-1,1294,778,0,0
77,246,0,0,0,0,0,0,0,0,0,-1,1301,778,0,0
84,246,0,0,0,0,0,0,0,0,0,-1,1308,778,0,0
91,246,0,0,0,0,0,0,0,0,0,-1,1315,778,0,0
98,246,0,0,0,0,0,0,0,0,0,-1,1322,778,0,0
105,246,0,0,0,0,0,0,0,0,0,-1,1329,778,0,0
112,246,0,0,0,0,0,0,0,0,0,-1,1336,778,0,0
119,246,0,0,0,0,0,0,0,0,0,-1,1343,778,0,0
126,246,0,0,0,0,0,0,0,0,0,-1,1350,778,0,0
133,246,0,0,0,0,0,0,0,0,0,-1,1357,778,0,0
140,246,0,0,0,0,0,0,0,0,0,-1,1364,778,0,0
147,246,0,0,0,0,0,0,0,0,0,-1,1371,778,0,0
154,246,0,0,0,0,0,0,0,0,0,-1,1378,778,0,0
161,246,0,0,0,0,0,0,0,0,0,-1,1385,778,0,0
168,246,0,0,0,0,0,0,0,0,0,-1,1392,778,0,0
175,246,0,0,0,0,0,0,0,0,0,-1,1399,778,0,0
182,246,0,0,0,0,0,0,0,0,0,-1,1406,778,0,0
189,246,0,0,0,0,0,0,0,0,0,-1,1413,778,0,0
196,246,0,0,0,0,0,0,0,0,0,-1,1420,778,0,0
203,246,0,0,0,0,0,0,0,0,0,-1,1427,778,0,0
210,246,0,0,0,0,0,0,0,0,0,-1,1434,778,0,0
217,246,0,0,0,0,0,0,0,0,0,-1,1441,778,0,0
224,246,0,0,0,0,0,0,0,0,0,-1,1448,778,0,0
231,246,0,0,0,0,0,0,0,0,0,-1,1455,778,0,0
238,246,0,0,0,0,0,0,0,0,0,-1,1462,778,0,0
245,246,0,0,0,0,0,0,0,0,0,-1,1469,778,0,0
252,246,0,0,0,0,0,0,0,0,0,-1,1476,778,0,0
259,246,0,0,0,0,0,0,0,0,0,-1,1483,778,0,0
266,246,0,0,0,0,0,0,0,0,0,-1,1490,778,0,0
273,246,0,0,0,0,0,0,0,0,0,-1,1497,778,0,0
280,246,0,0,0,0,0,0,0,0,0,-1,1504,778,0,0
287,246,0,0,0,0,0,0,0,0,0,-1,1511,778,0,0
294,246,0,0,0,0,0,0,0,0,0,-1,1518,778,0,0
301,246,0,0,0,0,0,0,0,0,0,-1,1525,778,0,0
308,246,0,0,0,0,0,0,0,0,0,-1,1532,778,0,0
315,246,0,0,0,0,0,0,0,0,0,-1,1539,778,0,0
322,246,0,0,0,0,0,0,0,0,0,-1,1546,778,0,0
329,246,0,0,0,0,0,0,0,0,0,-1,1553,778,0,0
336,246,0,0,0,0,0,0,0,0,0,-1,1560,778,0,0
343,246,0,0,0,0,0,0,0,0,0,-1,1567,778,0,0
350,246,0,0,0,0,0,0,0,0,0,-1,1574,778,0,0
357,246,0,0,0,0,0,0,0,0,0,-1,1581,778,0,0
364,246,0,0,0,0,0,0,0,0,0,-1,1588,778,0,0
371,246,0,0,0,0,0,0,0,0,0,-1,1595,778,0,0
378,246,0,0,0,0,0,0,0,0,0,-1,1602,778,0,0
385,246,0,0,0,0,0,0,0,0,0,-1,1609,778,0,0
392,246,0,0,0,0,0,0,0,0,0,-1,1616,778,0,0
399,246,0,0,0,0,0,0,0,0,0,-1,1623,778,0,0
406,246,0,0,0,0,0,0,0,0,0,-1,1630,778,0,0
413,246,0,0,0,0,0,0,0,0,0,-1,1637,778,0,0
420,246,0,0,0,0,0,0,0,0,0,-1,1644,778,0,0
427,246,0,0,0,0,0,0,0,0,0,-1,1651,778,0,0
434,246,0,0,0,0,0,0,0,0,0,-1,1658,778,0,0
441,246,0,0,0,0,0,0,0,0,0,-1,1665,778,0,0
448,246,0,0,0,0,0,0,0,0,0,-1,1672,778,0,0
455,246,0,0,0,0,0,0,0,0,0,-1,1679,778,0,0
462,246,0,0,0,0,0,0,0,0,0,-1,1686,778,0,0
469,246,0,0,0,0,0,0,0,0,0,-1,1693,778,0,0
476,246,0,0,0,0,0,0,0,0,0,-1,1700,778,0,0
483,246,0,0,0,0,0,0,0,0,0,-1,1707,778,0,0
490,246,0,0,0,0,0,0,0,0,0,-1,1714,778,0,0
497,246,0,0,0,0,0,0,0,0,0,-1,1721,778,0,0
504,246,0,0,0,0,0,0,0,0,0,-1,1728,778,0,0
511,246,0,0,0,0,0,0,0,0,0,-1,1735,778,0,0
518,246,0,0,0,0,0,0,0,0,0,-1,1742,778,0,0
525,246,0,0,0,0,0,0,0,0,0,-1,1749,778,0,0
532,246,0,0,0,0,0,0,0,0,0,-1,1756,778,0,0
539,246,0,0,0,0,0,0,0,0,0,-1,1763,778,0,0
546,246,0,0,0,0,0,0,0,0,0,-1,1770,778,0,0
553,246,0,0,0,0,0,0,0,0,0,-1,1777,778,0,0
560,246,0,0,0,0,0,0,0,0,0,-1,1784,778,0,0
567,246,0,0,0,0,0,0,0,0,0,-1,1791,778,0,0
574,246,0,0,0,0,0,0,0,0,0,-1,1798,778,0,0
581,246,76.9369,1.96002,-0.00738119,-0.0139045,0.0130573,0.00281567,-0.0241014,0.663005,0.0170837,0.0390665,1805,778,76.9369,-1.96
588,246,76.7234,2.04962,-0.00392427,-0.00974695,0.0111742,0.00471162,-0.0183828,0.657961,0.0140908,0.0458511,1812,778,76.7233,-2.04961
595,246,76.7919,2.21265,-0.00185125,-0.00674988,0.00927348,0.00529092,-0.013892,0.656286,0.0114404,0.0490116,1819,778,76.7919,-2.21264
602,246,76.7651,2.35748,0,0,0,0,0,0,0,-1,1826,778,76.7652,-2.35751
609,246,65.04,3.03278,0,0,0,0,0,0,0,-1,1833,778,65.04,-3.03277
616,246,60.4568,3.98492,0,0,0,0,0,0,0,-1,1840,778,60.4568,-3.98491
623,246,55.8947,3.95953,0,0,0,0,0,0,0,-1,1847,778,55.8947,-3.95952
630,246,49.5938,1.99902,0,0,0,0,0,0,0,-1,1854,778,49.5937,-1.999
637,246,29.5785,0.837585,0,0,0,0,0,0,0,-1,1861,778,29.5785,-0.837606
644,246,28.1232,-1.43188,0,0,0,0,0,0,0,-1,1868,778,28.1232,1.43188
651,246,48.5865,-4.32922,0,0,0,0,0,0,0,-1,1875,778,48.5865,4.32921
658,246,53.2006,-4.68445,0,0,0,0,0,0,0,-1,1882,778,53.2006,4.68444
665,246,53.1233,-3.92761,0.00099283,3.17014e-05,-1.67889e-05,0.000993123,3.14082e-05,-0.0174608,0.000651865,0.0322962,1889,778,53.1233,3.92759
672,246,53.0848,-2.98962,0.000711032,0.000310395,3.57676e-05,0.0007142,0.000307227,0.0883457,0.000413682,0.022608,1896,778,53.0849,2.98964
679,246,53.0471,-2.01978,0.000604586,0.000430998,6.67124e-05,0.000627262,0.000408322,0.327658,0.000367611,0.0223913,1903,778,53.0471,2.01979
686,246,52.9703,-1.02045,0.000732656,0.000818451,-7.72196e-06,0.00081914,0.000731967,-1.48174,0.00051948,0.0243209,1910,778,52.9703,1.02043
693,246,52.91,-0.16272,0.00106227,0.00123161,-5.56963e-05,0.00124828,0.00104559,-1.27987,0.000773529,0.0187031,1917,778,52.91,0.162736
700,246,52.8615,0.703308,0.00162784,0.00178496,-2.37482e-05,0.00178847,0.00162433,-1.42402,0.00114154,0.0152602,1924,778,52.8615,-0.703306
707,246,52.8008,1.65436,0.00238744,0.00244429,9.06951e-05,0.00251091,0.00232082,0.937238,0.00161431,0.0151915,1931,778,52.8008,-1.65436
714,246,52.71,2.62567,0.00328902,0.00313145,0.000268655,0.0034902,0.00293027,0.642769,0.00216444,0.0155126,1938,778,52.71,-2.62566
721,246,52.6539,3.48737,0.00457675,0.00395032,0.000658445,0.00499268,0.00353439,0.563394,0.00296443,0.0196982,1945,778,52.6539,-3.48736
728,246,52.8416,4.50183,0.00624551,0.00471944,0.00124385,0.00694171,0.00402323,0.510275,0.00402468,0.0432661,1952,778,52.8415,-4.50182
735,246,53.1479,5.5636,0,0,0,0,0,0,0,-1,1959,778,53.148,-5.5636
742,246,31.7356,6.70013,0,0,0,0,0,0,0,-1,1966,778,31.7356,-6.70011
749,246,32.3883,7.69324,0,0,0,0,0,0,0,-1,1973,778,32.3883,-7.69322
756,246,33.6919,3.45264,0,0,0,0,0,0,0,-1,1980,778,33.6919,-3.45262
763,246,0,0,0,0,0,0,0,0,0,-1,1987,778,0,0
770,246,0,0,0,0,0,0,0,0,0,-1,1994,778,0,0
777,246,0,0,0,0,0,0,0,0,0,-1,2001,778,0,0
784,246,0,0,0,0,0,0,0,0,0,-1,2008,778,0,0
791,246,0,0,0,0,0,0,0,0,0,-1,2015,778,0,0
798,246,0,0,0,0,0,0,0,0,0,-1,2022,778,0,0
805,246,0,0,0,0,0,0,0,0,0,-1,2029,778,0,0
812,246,0,0,0,0,0,0,0,0,0,-1,2036,778,0,0
-700,239,0,0,0,0,0,0,0,0,0,-1,524,785,0,0
-693,239,0,0,0,0,0,0,0,0,0,-1,531,785,0,0
-686,239,0,0,0,0,0,0,0,0,0,-1,538,785,0,0
-679,239,0,0,0,0,0,0,0,0,0,-1,545,785,0,0
-672,239,0,0,0,0,0,0,0,0,0,-1,552,785,0,0
-665,239,0,0,0,0,0,0,0,0,0,-1,559,785,0,0
-658,239,0,0,0,0,0,0,0,0,0,-1,566,785,0,0
-651,239,0,0,0,0,0,0,0,0,0,-1,573,785,0,0
-644,239,0,0,0,0,0,0,0,0,0,-1,580,785,0,0
-637,239,-23.2709,0.465088,0,0,0,0,0,0,0,-1,587,785,-23.271,-0.465116
-630,239,-23.4006,0.956299,0,0,0,0,0,0,0,-1,594,785,-23.4005,-0.956285
-623,239,-30.6328,2.52185,0,0,0,0,0,0,0,-1,601,785,-30.6328,-2.52183
-616,239,-29.1425,1.42139,0,0,0,0,0,0,0,-1,608,785,-29.1425,-1.42139
-609,239,-27.8569,0.322937,0,0,0,0,0,0,0,-1,615,785,-27.857,-0.322963
-602,239,-37.0615,5.39099,0,0,0,0,0,0,0,-1,622,785,-37.0614,-5.39102
-595,239,-37.3536,3.93298,-0.0122572,0.00723789,-0.00533509,0.0086024,-0.0136217,-1.3204,0.0129397,0.0422196,629,785,-37.3536,-3.93299
-588,239,-37.6538,2.4975,-0.00838549,0.0059487,-0.00422387,0.00710076,-0.00953755,-1.30452,0.00964042,0.0213992,636,785,-37.6538,-2.49747
-581,239,-37.8302,1.41791,-0.00564007,0.00466654,-0.00302956,0.00549109,-0.00646463,-1.30506,0.00691026,0.0118128,643,785,-37.8302,-1.41788
-574,239,-37.8441,0.42981,-0.00351835,0.00354577,-0.00193195,0.00403961,-0.00401219,-1.32054,0.00464872,0.0127122,650,785,-37.8441,-0.429812
-567,239,-37.8873,-0.491699,-0.00204673,0.00261036,-0.000998159,0.00281528,-0.00225165,-1.36831,0.00293142,0.0189478,657,785,-37.8873,0.491689
-560,239,-37.9766,-1.36023,-0.00103116,0.00185411,-0.000239899,0.00187393,-0.00105097,-1.4884,0.00171082,0.0192967,664,785,-37.9766,1.36021
-553,239,-38.0388,-2.25226,-0.000459273,0.0013784,0.000373454,0.0014514,-0.000532268,1.37777,0.00118554,0.0148407,671,785,-38.0388,2.25226
-546,239,-38.1057,-3.20581,-0.000332174,0.00149293,0.0010539,0.00197446,-0.000813704,1.14222,0.00165559,0.0169138,678,785,-38.1057,3.20581
-539,239,-38.3059,-4.15039,-0.000299635,0.00140332,0.00120642,0.00202848,-0.000924797,1.0927,0.00174431,0.0362387,685,785,-38.3059,4.15039
-532,239,-38.6843,-5.2359,0,0,0,0,0,0,0,-1,692,785,-38.6842,5.23592
-525,239,-38.2922,-5.47571,0,0,0,0,0,0,0,-1,699,785,-38.2922,5.47569
-518,239,-38.3489,-6.02283,0,0,0,0,0,0,0,-1,706,785,-38.3489,6.02283
-511,239,-20.9849,-2.09235,0,0,0,0,0,0,0,-1,713,785,-20.9848,2.09234
-504,239,-25.5015,2.00421,0,0,0,0,0,0,0,-1,720,785,-25.5015,-2.00422
-497,239,-40.2453,1.4447,0,0,0,0,0,0,0,-1,727,785,-40.2453,-1.4447
-490,239,-55.7633,-0.30426,0,0,0,0,0,0,0,-1,734,785,-55.7633,0.304271
-483,239,-60.6,0.442139,0,0,0,0,0,0,0,-1,741,785,-60.6001,-0.442111
-476,239,-60.5133,0.466492,0.00451998,0.00445459,0.00126883,0.00575654,0.00321803,0.772517,0.00333125,0.0402536,748,785,-60.5133,-0.466518
-469,239,-60.4396,0.377197,0.00510809,0.00623378,0.0027973,0.0085243,0.00281757,0.884677,0.00501485,0.0422513,755,785,-60.4396,-0.377194
-462,239,-60.428,0.328369,0.00471573,0.00887532,0.00477958,0.012008,0.00158305,0.990613,0.0075333,0.0444034,762,785,-60.4281,-0.328358
-455,239,0,0,0,0,0,0,0,0,0,-1,769,785,0,0
-448,239,0,0,0,0,0,0,0,0,0,-1,776,785,0,0
-441,239,0,0,0,0,0,0,0,0,0,-1,783,785,0,0
-434,239,0,0,0,0,0,0,0,0,0,-1,790,785,0,0
-427,239,0,0,0,0,0,0,0,0,0,-1,797,785,0,0
-420,239,0,0,0,0,0,0,0,0,0,-1,804,785,0,0
-413,239,0,0,0,0,0,0,0,0,0,-1,811,785,0,0
-406,239,0,0,0,0,0,0,0,0,0,-1,818,785,0,0
-399,239,0,0,0,0,0,0,0,0,0,-1,825,785,0,0
-392,239,0,0,0,0,0,0,0,0,0,-1,832,785,0,0
-385,239,0,0,0,0,0,0,0,0,0,-1,839,785,0,0
-378,239,0,0,0,0,0,0,0,0,0,-1,846,785,0,0
-371,239,0,0,0,0,0,0,0,0,0,-1,853,785,0,0
-364,239,0,0,0,0,0,0,0,0,0,-1,860,785,0,0
-357,239,0,0,0,0,0,0,0,0,0,-1,867,785,0,0
-350,239,0,0,0,0,0,0,0,0,0,-1,874,785,0,0
-343,239,0,0,0,0,0,0,0,0,0,-1,881,785,0,0
-336,239,0,0,0,0,0,0,0,0,0,-1,888,785,0,0
-329,239,0,0,0,0,0,0,0,0,0,-1,895,785,0,0
-322,239,0,0,0,0,0,0,0,0,0,-1,902,785,0,0
-315,239,0,0,0,0,0,0,0,0,0,-1,909,785,0,0
-308,239,0,0,0,0,0,0,0,0,0,-1,916,785,0,0
-301,239,0,0,0,0,0,0,0,0,0,-1,923,785,0,0
-294,239,0,0,0,0,0,0,0,0,0,-1,930,785,0,0
-287,239,0,0,0,0,0,0,0,0,0,-1,937,785,0,0
-280,239,0,0,0,0,0,0,0,0,0,-1,944,785,0,0
-273,239,0,0,0,0,0,0,0,0,0,-1,951,785,0,0
-266,239,0,0,0,0,0,0,0,0,0,-1,958,785,0,0
-259,239,0,0,0,0,0,0,0,0,0,-1,965,785,0,0
-252,239,0,0,0,0,0,0,0,0,0,-1,972,785,0,0
-245,239,0,0,0,0,0,0,0,0,0,-1,979,785,0,0
-238,239,0,0,0,0,0,0,0,0,0,-1,986,785,0,0
-231,239,0,0,0,0,0,0,0,0,0,-1,993,785,0,0
-224,239,0,0,0,0,0,0,0,0,0,-1,1000,785,0,0
-217,239,0,0,0,0,0,0,0,0,0,-1,1007,785,0,0
-210,239,0,0,0,0,0,0,0,0,0,-1,1014,785,0,0
-203,239,0,0,0,0,0,0,0,0,0,-1,1021,785,0,0
-196,239,0,0,0,0,0,0,0,0,0,-1,1028,785,0,0
-189,239,0,0,0,0,0,0,0,0,0,-1,1035,785,0,0
-182,239,0,0,0,0,0,0,0,0,0,-1,1042,785,0,0
-175,239,0,0,0,0,0,0,0,0,0,-1,1049,785,0,0
-168,239,0,0,0,0,0,0,0,0,0,-1,1056,785,0,0
-161,239,0,0,0,0,0,0,0,0,0,-1,1063,785,0,0
-154,239,0,0,0,0,0,0,0,0,0,-1,1070,785,0,0
-147,239,0,0,0,0,0,0,0,0,0,-1,1077,785,0,0
-140,239,0,0,0,0,0,0,0,0,0,-1,1084,785,0,0
-133,239,0,0,0,0,0,0,0,0,0,-1,1091,785,0,0
-126,239,0,0,0,0,0,0,0,0,0,-1,1098,785,0,0
-119,239,0,0,0,0,0,0,0,0,0,-1,1105,785,0,0
-112,239,0,0,0,0,0,0,0,0,0,-1,1112,785,0,0
-105,239,0,0,0,0,0,0,0,0,0,-1,1119,785,0,0
-98,239,0,0,0,0,0,0,0,0,0,-1,1126,785,0,0
-91,239,0,0,0,0,0,0,0,0,0,-1,1133,785,0,0
-84,239,0,0,0,0,0,0,0,0,0,-1,1140,785,0,0
-77,239,0,0,0,0,0,0,0,0,0,-1,1147,785,0,0
-70,239,0,0,0,0,0,0,0,0,0,-1,1154,785,0,0
-63,239,0,0,0,0,0,0,0,0,0,-1,1161,785,0,0
-56,239,0,0,0,0,0,0,0,0,0,-1,1168,785,0,0
-49,239,0,0,0,0,0,0,0,0,0,-1,1175,785,0,0
-42,239,0,0,0,0,0,0,0,0,0,-1,1182,785,0,0
-35,239,0,0,0,0,0,0,0,0,0,-1,1189,785,0,0
-28,239,0,0,0,0,0,0,0,0,0,-1,1196,785,0,0
-21,239,0,0,0,0,0,0,0,0,0,-1,1203,785,0,0
-14,239,0,0,0,0,0,0,0,0,0,-1,1210,785,0,0
-7,239,0,0,0,0,0,0,0,0,0,-1,1217,785,0,0
0,239,0,0,0,0,0,0,0,0,0,-1,1224,785,0,0
7,239,0,0,0,0,0,0,0,0,0,-1,1231,785,0,0
14,239,0,0,0,0,0,0,0,0,0,-1,1238,785,0,0
21,239,0,0,0,0,0,0,0,0,0,-1,1245,785,0,0
28,239,0,0,0,0,0,0,0,0,0,-1,1252,785,0,0
35,239,0,0,0,0,0,0,0,0,0,-1,1259,785,0,0
42,239,0,0,0,0,0,0,0,0,0,-1,1266,785,0,0
49,239,0,0,0,0,0,0,0,0,0,-1,1273,785,0,0
56,239,0,0,0,0,0,0,0,0,0,-1,1280,785,0,0
63,239,0,0,0,0,0,0,0,0,0,-1,1287,785,0,0
70,239,0,0,0,0,0,0,0,0,0,-1,1294,785,0,0
77,239,0,0,0,0,0,0,0,0,0,-1,1301,785,0,0
84,239,0,0,0,0,0,0,0,0,0,-1,1308,785,0,0
91,239,0,0,0,0,0,0,0,0,0,-1,1315,785,0,0
98,239,0,0,0,0,0,0,0,0,0,-1,1322,785,0,0
105,239,0,0,0,0,0,0,0,0,0,-1,1329,785,0,0
112,239,0,0,0,0,0,0,0,0,0,-1,1336,785,0,0
119,239,0,0,0,0,0,0,0,0,0,-1,1343,785,0,0
126,239,0,0,0,0,0,0,0,0,0,-1,1350,785,0,0
133,239,0,0,0,0,0,0,0,0,0,-1,1357,785,0,0
140,239,0,0,0,0,0,0,0,0,0,-1,1364,785,0,0
147,239,0,0,0,0,0,0,0,0,0,-1,1371,785,0,0
154,239,0,0,0,0,0,0,0,0,0,-1,1378,785,0,0
161,239,0,0,0,0,0,0,0,0,0,-1,1385,785,0,0
168,239,0,0,0,0,0,0,0,0,0,-1,1392,785,0,0
175,239,0,0,0,0,0,0,0,0,0,-1,1399,785,0,0
182,239,0,0,0,0,0,0,0,0,0,-1,1406,785,0,0
189,239,0,0,0,0,0,0,0,0,0,-1,1413,785,0,0
196,239,0,0,0,0,0,0,0,0,0,-1,1420,785,0,0
203,239,0,0,0,0,0,0,0,0,0,-1,1427,785,0,0
210,239,0,0,0,0,0,0,0,0,0,-1,1434,785,0,0
217,239,0,0,0,0,0,0,0,0,0,-1,1441,785,0,0
224,239,0,0,0,0,0,0,0,0,0,-1,1448,785,0,0
231,239,0,0,0,0,0,0,0,0,0,-1,1455,785,0,0
238,239,0,0,0,0,0,0,0,0,0,-1,1462,785,0,0
245,239,0,0,0,0,0,0,0,0,0,-1,1469,785,0,0
252,239,0,0,0,0,0,0,0,0,0,-1,1476,785,0,0
259,239,0,0,0,0,0,0,0,0,0,-1,1483,785,0,0
266,239,0,0,0,0,0,0,0,0,0,-1,1490,785,0,0
273,239,0,0,0,0,0,0,0,0,0,-1,1497,785,0,0
280,239,0,0,0,0,0,0,0,0,0,-1,1504,785,0,0
287,239,0,0,0,0,0,0,0,0,0,-1,1511,785,0,0
294,239,0,0,0,0,0,0,0,0,0,-1,1518,785,0,0
301,239,0,0,0,0,0,0,0,0,0,-1,1525,785,0,0
308,239,0,0,0,0,0,0,0,0,0,-1,1532,785,0,0
315,239,0,0,0,0,0,0,0,0,0,-1,1539,785,0,0
322,239,0,0,0,0,0,0,0,0,0,-1,1546,785,0,0
329,239,0,0,0,0,0,0,0,0,0,-1,1553,785,0,0
336,239,0,0,0,0,0,0,0,0,0,-1,1560,785,0,0
343,239,0,0,0,0,0,0,0,0,0,-1,1567,785,0,0
350,239,0,0,0,0,0,0,0,0,0,-1,1574,785,0,0
357,239,0,0,0,0,0,0,0,0,0,-1,1581,785,0,0
364,239,0,0,0,0,0,0,0,0,0,-1,1588,785,0,0
371,239,0,0,0,0,0,0,0,0,0,-1,1595,785,0,0
378,239,0,0,0,0,0,0,0,0,0,-1,1602,785,0,0
385,239,0,0,0,0,0,0,0,0,0,-1,1609,785,0,0
392,239,0,0,0,0,0,0,0,0,0,-1,1616,785,0,0
399,239,0,0,0,0,0,0,0,0,0,-1,1623,785,0,0
406,239,0,0,0,0,0,0,0,0,0,-1,1630,785,0,0
413,239,0,0,0,0,0,0,0,0,0,-1,1637,785,0,0
420,239,0,0,0,0,0,0,0,0,0,-1,1644,785,0,0
427,239,0,0,0,0,0,0,0,0,0,-1,1651,785,0,0
434,239,0,0,0,0,0,0,0,0,0,-1,1658,785,0,0
441,239,0,0,0,0,0,0,0,0,0,-1,1665,785,0,0
448,239,0,0,0,0,0,0,0,0,0,-1,1672,785,0,0
455,239,0,0,0,0,0,0,0,0,0,-1,1679,785,0,0
462,239,0,0,0,0,0,0,0,0,0,-1,1686,785,0,0
469,239,0,0,0,0,0,0,0,0,0,-1,1693,785,0,0
476,239,0,0,0,0,0,0,0,0,0,-1,1700,785,0,0
483,239,0,0,0,0,0,0,0,0,0,-1,1707,785,0,0
490,239,0,0,0,0,0,0,0,0,0,-1,1714,785,0,0
497,239,0,0,0,0,0,0,0,0,0,-1,1721,785,0,0
504,239,0,0,0,0,0,0,0,0,0,-1,1728,785,0,0
511,239,0,0,0,0,0,0,0,0,0,-1,1735,785,0,0
518,239,0,0,0,0,0,0,0,0,0,-1,1742,785,0,0
525,239,0,0,0,0,0,0,0,0,0,-1,1749,785,0,0
532,239,0,0,0,0,0,0,0,0,0,-1,1756,785,0,0
539,239,0,0,0,0,0,0,0,0,0,-1,1763,785,0,0
546,239,0,0,0,0,0,0,0,0,0,-1,1770,785,0,0
553,239,0,0,0,0,0,0,0,0,0,-1,1777,785,0,0
560,239,0,0,0,0,0,0,0,0,0,-1,1784,785,0,0
567,239,0,0,0,0,0,0,0,0,0,-1,1791,785,0,0
574,239,0,0,0,0,0,0,0,0,0,-1,1798,785,0,0
581,239,76.62,2.24774,-0.00856155,-0.0118208,0.00898217,-0.00106238,-0.01932,0.695659,0.0125409,0.0351647,1805,785,76.62,-2.24774
588,239,76.4948,2.27344,-0.004231,-0.00816005,0.00867987,0.00270389,-0.0150949,0.674108,0.0110752,0.0387607,1812,785,76.4948,-2.27345
595,239,76.6443,2.09778,-0.00173868,-0.00559917,0.0076332,0.00420455,-0.0115424,0.661557,0.00941478,0.0368286,1819,785,76.6443,-2.09778
602,239,76.7253,2.15106,-0.000499793,-0.00378645,0.00619043,0.00426171,-0.00854796,0.655659,0.00753241,0.0465373,1826,785,76.7254,-2.15103
609,239,76.6017,2.37048,0,0,0,0,0,0,0,-1,1833,785,76.6017,-2.37049
616,239,55.8469,3.72443,0,0,0,0,0,0,0,-1,1840,785,55.8469,-3.72445
623,239,65.0618,2.66516,0,0,0,0,0,0,0,-1,1847,785,65.0617,-2.66519
630,239,54.5767,3.64667,0,0,0,0,0,0,0,-1,1854,785,54.5766,-3.64667
637,239,39.5542,2.54114,0,0,0,0,0,0,0,-1,1861,785,39.5543,-2.54114
644,239,18.3466,0.735413,0,0,0,0,0,0,0,-1,1868,785,18.3465,-0.735414
651,239,34.2471,-2.15778,0,0,0,0,0,0,0,-1,1875,785,34.2471,2.1578
658,239,53.7979,-5.00433,0,0,0,0,0,0,0,-1,1882,785,53.7979,5.00435
665,239,54.0226,-3.86597,0.000798218,-4.59865e-05,6.79462e-05,0.000803652,-5.14201e-05,0.0798009,0.000553704,0.0442933,1889,785,54.0226,3.86599
672,239,54.0441,-2.85736,0.000537529,0.000290978,0.00011896,0.000585568,0.00024294,0.383793,0.000339707,0.0256895,1896,785,54.044,2.85733
679,239,53.9802,-1.88947,0.000452599,0.000439437,0.000149248,0.000595411,0.000296625,0.763366,0.000343761,0.0243289,1903,785,53.9802,1.88944
686,239,53.8826,-0.895325,0.000541764,0.000774994,3.40277e-05,0.000779857,0.000536901,1.42884,0.000460788,0.0255906,1910,785,53.8826,0.895344
693,239,53.8376,-0.0950928,0.000850124,0.00104645,-6.60227e-05,0.00106659,0.000829986,-1.27475,0.000646781,0.017264,1917,785,53.8377,0.0950639
700,239,53.7859,0.781494,0.00139343,0.00145494,-8.12255e-05,0.00151103,0.00133733,-0.966373,0.000954736,0.012326,1924,785,53.7858,-0.781503
707,239,53.7307,1.72137,0.00211581,0.00200078,1.20154e-05,0.00211705,0.00199954,0.102978,0.00137387,0.0121684,1931,785,53.7307,-1.72135
714,239,53.6578,2.63495,0.00297371,0.00259097,0.00017002,0.00303832,0.00252635,0.363193,0.0018783,0.0113824,1938,785,53.6578,-2.63496
721,239,53.5923,3.52405,0.00412648,0.00327541,0.000504793,0.00436117,0.00304072,0.435193,0.00258239,0.0213802,1945,785,53.5923,-3.52403
728,239,53.5857,4.43549,0.00559006,0.00394668,0.00101107,0.00607123,0.00346551,0.444182,0.00351692,0.045359,1952,785,53.5857,-4.43551
735,239,53.8311,5.43842,0,0,0,0,0,0,0,-1,1959,785,53.8311,-5.43842
742,239,32.4141,7.6665,0,0,0,0,0,0,0,-1,1966,785,32.4141,-7.6665
749,239,32.1489,3.4411,0,0,0,0,0,0,0,-1,1973,785,32.149,-3.44109
756,239,32.9064,3.6687,0,0,0,0,0,0,0,-1,1980,785,32.9063,-3.66873
763,239,0,0,0,0,0,0,0,0,0,-1,1987,785,0,0
770,239,0,0,0,0,0,0,0,0,0,-1,1994,785,0,0
777,239,0,0,0,0,0,0,0,0,0,-1,2001,785,0,0
784,239,0,0,0,0,0,0,0,0,0,-1,2008,785,0,0
791,239,0,0,0,0,0,0,0,0,0,-1,2015,785,0,0
798,239,0,0,0,0,0,0,0,0,0,-1,2022,785,0,0
805,239,0,0,0,0,0,0,0,0,0,-1,2029,785,0,0
812,239,0,0,0,0,0,0,0,0,0,-1,2036,785,0,0
-700,232,0,0,0,0,0,0,0,0,0,-1,524,792,0,0
-693,232,0,0,0,0,0,0,0,0,0,-1,531,792,0,0
-686,232,0,0,0,0,0,0,0,0,0,-1,538,792,0,0
-679,232,0,0,0,0,0,0,0,0,0,-1,545,792,0,0
-672,232,0,0,0,0,0,0,0,0,0,-1,552,792,0,0
-665,232,0,0,0,0,0,0,0,0,0,-1,559,792,0,0
-658,232,0,0,0,0,0,0,0,0,0,-1,566,792,0,0
-651,232,0,0,0,0,0,0,0,0,0,-1,573,792,0,0
-644,232,-41.2348,4.28168,0,0,0,0,0,0,0,-1,580,792,-41.2348,-4.28166
-637,232,-42.1427,3.51453,0,0,0,0,0,0,0,-1,587,792,-42.1427,-3.51452
-630,232,-32.2345,1.80212,0,0,0,0,0,0,0,-1,594,792,-32.2345,-1.80211
-623,232,-31.5665,1.05115,0,0,0,0,0,0,0,-1,601,792,-31.5664,-1.05112
-616,232,-30.6812,0.432861,0,0,0,0,0,0,0,-1,608,792,-30.6812,-0.432881
-609,232,-29.7142,-0.478943,0,0,0,0,0,0,0,-1,615,792,-29.7142,0.478965
-602,232,-38.4667,5.39771,0,0,0,0,0,0,0,-1,622,792,-38.4667,-5.3977
-595,232,-38.5284,3.93756,-0.0111299,0.00661368,-0.00401987,0.00748191,-0.0119981,-1.35808,0.0113471,0.0368417,629,792,-38.5285,-3.93758
-588,232,-38.653,2.48651,-0.0073672,0.00544598,-0.00328785,0.00624038,-0.00816161,-1.33372,0.00833962,0.0142015,636,792,-38.653,-2.4865
-581,232,-38.7319,1.45874,-0.00462013,0.00430131,-0.00238194,0.00489744,-0.00521625,-1.32557,0.00584011,0.00931423,643,792,-38.7319,-1.45876
-574,232,-38.7825,0.5354,-0.00250536,0.00328579,-0.00148487,0.00364432,-0.0028639,-1.33388,0.00376651,0.00948999,650,792,-38.7825,-0.535422
-567,232,-38.8386,-0.381042,-0.00104654,0.00243506,-0.000665288,0.00255785,-0.00116934,-1.38827,0.00220111,0.0112376,657,792,-38.8386,0.381039
-560,232,-38.914,-1.30347,-6.87683e-05,0.00176286,0.000110748,0.00176953,-7.54402e-05,1.51062,0.00120562,0.0146615,664,792,-38.914,1.30348
-553,232,-39.0076,-2.23334,0.000346782,0.00149629,0.000857851,0.00195413,-0.000111058,1.08055,0.0013413,0.0157614,671,792,-39.0076,2.23334
-546,232,-39.0137,-3.13507,0.000171715,0.00215946,0.00170721,0.00314102,-0.000809849,1.049,0.00240976,0.0374304,678,792,-39.0137,3.13508
-539,232,-39.3721,-4.06622,0,0,0,0,0,0,0,-1,685,792,-39.3721,4.06624
-532,232,-39.6265,-4.53656,0,0,0,0,0,0,0,-1,692,792,-39.6264,4.53658
-525,232,-39.379,-5.69604,0,0,0,0,0,0,0,-1,699,792,-39.379,5.69604
-518,232,-20.8098,-3.08154,0,0,0,0,0,0,0,-1,706,792,-20.8098,3.08155
-511,232,-21.6708,-0.962708,0,0,0,0,0,0,0,-1,713,792,-21.6708,0.962731
-504,232,-34.2155,0.346985,0,0,0,0,0,0,0,-1,720,792,-34.2155,-0.346955
-497,232,-52.7195,0.518677,0,0,0,0,0,0,0,-1,727,792,-52.7195,-0.518678
-490,232,-60.3735,0.370117,0,0,0,0,0,0,0,-1,734,792,-60.3735,-0.37012
-483,232,-60.4897,0.396057,0.00421538,0.00357349,-0.000240508,0.0042955,0.00349338,-0.321551,0.00263727,0.04034,741,792,-60.4897,-0.396087
-476,232,-60.3708,0.365051,0.0049942,0.00416234,0.000290444,0.00508558,0.00407097,0.304792,0.00310789,0.032847,748,792,-60.3709,-0.365061
-469,232,-60.3396,0.324036,0.00555103,0.00505502,0.00145502,0.00677902,0.00382702,0.700985,0.00392472,0.0333776,755,792,-60.3396,-0.324036
-462,232,0,0,0,0,0,0,0,0,0,-1,762,792,0,0
-455,232,0,0,0,0,0,0,0,0,0,-1,769,792,0,0
-448,232,0,0,0,0,0,0,0,0,0,-1,776,792,0,0
-441,232,0,0,0,0,0,0,0,0,0,-1,783,792,0,0
-434,232,0,0,0,0,0,0,0,0,0,-1,790,792,0,0
-427,232,0,0,0,0,0,0,0,0,0,-1,797,792,0,0
-420,232,0,0,0,0,0,0,0,0,0,-1,804,792,0,0
-413,232,0,0,0,0,0,0,0,0,0,-1,811,792,0,0
-406,232,0,0,0,0,0,0,0,0,0,-1,818,792,0,0
-399,232,0,0,0,0,0,0,0,0,0,-1,825,792,0,0
-392,232,0,0,0,0,0,0,0,0,0,-1,832,792,0,0
-385,232,0,0,0,0,0,0,0,0,0,-1,839,792,0,0
-378,232,0,0,0,0,0,0,0,0,0,-1,846,792,0,0
-371,232,0,0,0,0,0,0,0,0,0,-1,853,792,0,0
-364,232,0,0,0,0,0,0,0,0,0,-1,860,792,0,0
-357,232,0,0,0,0,0,0,0,0,0,-1,867,792,0,0
-350,232,0,0,0,0,0,0,0,0,0,-1,874,792,0,0
-343,232,0,0,0,0,0,0,0,0,0,-1,881,792,0,0
-336,232,0,0,0,0,0,0,0,0,0,-1,888,792,0,0
-329,232,0,0,0,0,0,0,0,0,0,-1,895,792,0,0
-322,232,0,0,0,0,0,0,0,0,0,-1,902,792,0,0
-315,232,0,0,0,0,0,0,0,0,0,-1,909,792,0,0
-308,232,0,0,0,0,0,0,0,0,0,-1,916,792,0,0
-301,232,0,0,0,0,0,0,0,0,0,-1,923,792,0,0
-294,232,0,0,0,0,0,0,0,0,0,-1,930,792,0,0
-287,232,0,0,0,0,0,0,0,0,0,-1,937,792,0,0
-280,232,0,0,0,0,0,0,0,0,0,-1,944,792,0,0
-273,232,0,0,0,0,0,0,0,0,0,-1,951,792,0,0
-266,232,0,0,0,0,0,0,0,0,0,-1,958,792,0,0
-259,232,0,0,0,0,0,0,0,0,0,-1,965,792,0,0
-252,232,0,0,0,0,0,0,0,0,0,-1,972,792,0,0
-245,232,0,0,0,0,0,0,0,0,0,-1,979,792,0,0
-238,232,0,0,0,0,0,0,0,0,0,-1,986,792,0,0
-231,232,0,0,0,0,0,0,0,0,0,-1,993,792,0,0
-224,232,0,0,0,0,0,0,0,0,0,-1,1000,792,0,0
-217,232,0,0,0,0,0,0,0,0,0,-1,1007,792,0,0
-210,232,0,0,0,0,0,0,0,0,0,-1,1014,792,0,0
-203,232,0,0,0,0,0,0,0,0,0,-1,1021,792,0,0
-196,232,0,0,0,0,0,0,0,0,0,-1,1028,792,0,0
-189,232,0,0,0,0,0,0,0,0,0,-1,1035,792,0,0
-182,232,0,0,0,0,0,0,0,0,0,-1,1042,792,0,0
-175,232,0,0,0,0,0,0,0,0,0,-1,1049,792,0,0
-168,232,0,0,0,0,0,0,0,0,0,-1,1056,792,0,0
-161,232,0,0,0,0,0,0,0,0,0,-1,1063,792,0,0
-154,232,0,0,0,0,0,0,0,0,0,-1,1070,792,0,0
-147,232,0,0,0,0,0,0,0,0,0,-1,1077,792,0,0
-140,232,0,0,0,0,0,0,0,0,0,-1,1084,792,0,0
-133,232,0,0,0,0,0,0,0,0,0,-1,1091,792,0,0
-126,232,0,0,0,0,0,0,0,0,0,-1,1098,792,0,0
-119,232,0,0,0,0,0,0,0,0,0,-1,1105,792,0,0
-112,232,0,0,0,0,0,0,0,0,0,-1,1112,792,0,0
-105,232,0,0,0,0,0,0,0,0,0,-1,1119,792,0,0
-98,232,0,0,0,0,0,0,0,0,0,-1,1126,792,0,0
-91,232,0,0,0,0,0,0,0,0,0,-1,1133,792,0,0
-84,232,0,0,0,0,0,0,0,0,0,-1,1140,792,0,0
-77,232,0,0,0,0,0,0,0,0,0,-1,1147,792,0,0
-70,232,0,0,0,0,0,0,0,0,0,-1,1154,792,0,0
-63,232,0,0,0,0,0,0,0,0,0,-1,1161,792,0,0
-56,232,0,0,0,0,0,0,0,0,0,-1,1168,792,0,0
-49,232,0,0,0,0,0,0,0,0,0,-1,1175,792,0,0
-42,232,0,0,0,0,0,0,0,0,0,-1,1182,792,0,0
-35,232,0,0,0,0,0,0,0,0,0,-1,1189,792,0,0
-28,232,0,0,0,0,0,0,0,0,0,-1,1196,792,0,0
-21,232,0,0,0,0,0,0,0,0,0,-1,1203,792,0,0
-14,232,0,0,0,0,0,0,0,0,0,-1,1210,792,0,0
-7,232,0,0,0,0,0,0,0,0,0,-1,1217,792,0,0
0,232,0,0,0,0,0,0,0,0,0,-1,1224,792,0,0
7,232,0,0,0,0,0,0,0,0,0,-1,1231,792,0,0
14,232,0,0,0,0,0,0,0,0,0,-1,1238,792,0,0
21,232,0,0,0,0,0,0,0,0,0,-1,1245,792,0,0
28,232,0,0,0,0,0,0,0,0,0,-1,1252,792,0,0
35,232,0,0,0,0,0,0,0,0,0,-1,1259,792,0,0
42,232,0,0,0,0,0,0,0,0,0,-1,1266,792,0,0
49,232,0,0,0,0,0,0,0,0,0,-1,1273,792,0,0
56,232,0,0,0,0,0,0,0,0,0,-1,1280,792,0,0
63,232,0,0,0,0,0,0,0,0,0,-1,1287,792,0,0
70,232,0,0,0,0,0,0,0,0,0,-1,1294,792,0,0
77,232,0,0,0,0,0,0,0,0,0,-1,1301,792,0,0
84,232,0,0,0,0,0,0,0,0,0,-1,1308,792,0,0
91,232,0,0,0,0,0,0,0,0,0,-1,1315,792,0,0
98,232,0,0,0,0,0,0,0,0,0,-1,1322,792,0,0
105,232,0,0,0,0,0,0,0,0,0,-1,1329,792,0,0
112,232,0,0,0,0,0,0,0,0,0,-1,1336,792,0,0
119,232,0,0,0,0,0,0,0,0,0,-1,1343,792,0,0
126,232,0,0,0,0,0,0,0,0,0,-1,1350,792,0,0
133,232,0,0,0,0,0,0,0,0,0,-1,1357,792,0,0
140,232,0,0,0,0,0,0,0,0,0,-1,1364,792,0,0
147,232,0,0,0,0,0,0,0,0,0,-1,1371,792,0,0
154,232,0,0,0,0,0,0,0,0,0,-1,1378,792,0,0
161,232,0,0,0,0,0,0,0,0,0,-1,1385,792,0,0
168,232,0,0,0,0,0,0,0,0,0,-1,1392,792,0,0
175,232,0,0,0,0,0,0,0,0,0,-1,1399,792,0,0
182,232,0,0,0,0,0,0,0,0,0,-1,1406,792,0,0
189,232,0,0,0,0,0,0,0,0,0,-1,1413,792,0,0
196,232,0,0,0,0,0,0,0,0,0,-1,1420,792,0,0
203,232,0,0,0,0,0,0,0,0,0,-1,1427,792,0,0
210,232,0,0,0,0,0,0,0,0,0,-1,1434,792,0,0
217,232,0,0,0,0,0,0,0,0,0,-1,1441,792,0,0
224,232,0,0,0,0,0,0,0,0,0,-1,1448,792,0,0
231,232,0,0,0,0,0,0,0,0,0,-1,1455,792,0,0
238,232,0,0,0,0,0,0,0,0,0,-1,1462,792,0,0
245,232,0,0,0,0,0,0,0,0,0,-1,1469,792,0,0
252,232,0,0,0,0,0,0,0,0,0,-1,1476,792,0,0
259,232,0,0,0,0,0,0,0,0,0,-1,1483,792,0,0
266,232,0,0,0,0,0,0,0,0,0,-1,1490,792,0,0
273,232,0,0,0,0,0,0,0,0,0,-1,1497,792,0,0
280,232,0,0,0,0,0,0,0,0,0,-1,1504,792,0,0
287,232,0,0,0,0,0,0,0,0,0,-1,1511,792,0,0
294,232,0,0,0,0,0,0,0,0,0,-1,1518,792,0,0
301,232,0,0,0,0,0,0,0,0,0,-1,1525,792,0,0
308,232,0,0,0,0,0,0,0,0,0,-1,1532,792,0,0
315,232,0,0,0,0,0,0,0,0,0,-1,1539,792,0,0
322,232,0,0,0,0,0,0,0,0,0,-1,1546,792,0,0
329,232,0,0,0,0,0,0,0,0,0,-1,1553,792,0,0
336,232,0,0,0,0,0,0,0,0,0,-1,1560,792,0,0
343,232,0,0,0,0,0,0,0,0,0,-1,1567,792,0,0
350,232,0,0,0,0,0,0,0,0,0,-1,1574,792,0,0
357,232,0,0,0,0,0,0,0,0,0,-1,1581,792,0,0
364,232,0,0,0,0,0,0,0,0,0,-1,1588,792,0,0
371,232,0,0,0,0,0,0,0,0,0,-1,1595,792,0,0
378,232,0,0,0,0,0,0,0,0,0,-1,1602,792,0,0
385,232,0,0,0,0,0,0,0,0,0,-1,1609,792,0,0
392,232,0,0,0,0,0,0,0,0,0,-1,1616,792,0,0
399,232,0,0,0,0,0,0,0,0,0,-1,1623,792,0,0
406,232,0,0,0,0,0,0,0,0,0,-1,1630,792,0,0
413,232,0,0,0,0,0,0,0,0,0,-1,1637,792,0,0
420,232,0,0,0,0,0,0,0,0,0,-1,1644,792,0,0
427,232,0,0,0,0,0,0,0,0,0,-1,1651,792,0,0
434,232,0,0,0,0,0,0,0,0,0,-1,1658,792,0,0
441,232,0,0,0,0,0,0,0,0,0,-1,1665,792,0,0
448,232,0,0,0,0,0,0,0,0,0,-1,1672,792,0,0
455,232,0,0,0,0,0,0,0,0,0,-1,1679,792,0,0
462,232,0,0,0,0,0,0,0,0,0,-1,1686,792,0,0
469,232,0,0,0,0,0,0,0,0,0,-1,1693,792,0,0
476,232,0,0,0,0,0,0,0,0,0,-1,1700,792,0,0
483,232,0,0,0,0,0,0,0,0,0,-1,1707,792,0,0
490,232,0,0,0,0,0,0,0,0,0,-1,1714,792,0,0
497,232,0,0,0,0,0,0,0,0,0,-1,1721,792,0,0
504,232,0,0,0,0,0,0,0,0,0,-1,1728,792,0,0
511,232,0,0,0,0,0,0,0,0,0,-1,1735,792,0,0
518,232,0,0,0,0,0,0,0,0,0,-1,1742,792,0,0
525,232,0,0,0,0,0,0,0,0,0,-1,1749,792,0,0
532,232,0,0,0,0,0,0,0,0,0,-1,1756,792,0,0
539,232,0,0,0,0,0,0,0,0,0,-1,1763,792,0,0
546,232,0,0,0,0,0,0,0,0,0,-1,1770,792,0,0
553,232,0,0,0,0,0,0,0,0,0,-1,1777,792,0,0
560,232,0,0,0,0,0,0,0,0,0,-1,1784,792,0,0
567,232,0,0,0,0,0,0,0,0,0,-1,1791,792,0,0
574,232,0,0,0,0,0,0,0,0,0,-1,1798,792,0,0
581,232,0,0,0,0,0,0,0,0,0,-1,1805,792,0,0
588,232,76.5355,2.25073,-0.0055358,-0.00730105,0.00614234,-0.000212998,-0.0126239,0.714039,0.00834581,0.0379478,1812,792,76.5355,-2.25071
595,232,76.6031,2.07343,-0.00248287,-0.00512284,0.0059447,0.00228662,-0.00989234,0.676149,0.00747461,0.0371565,1819,792,76.6031,-2.0734
602,232,76.6694,2.06274,-0.00090033,-0.00346573,0.00510823,0.00308378,-0.00744984,0.662389,0.0062533,0.0386507,1826,792,76.6695,-2.06272
609,232,76.6422,2.12927,-0.000318799,-0.00247724,0.00402192,0.00276618,-0.00556222,0.654319,0.0048979,0.0481566,1833,792,76.6422,-2.1293
616,232,76.8121,2.01526,0,0,0,0,0,0,0,-1,1840,792,76.8122,-2.01524
623,232,74.9668,2.53278,0,0,0,0,0,0,0,-1,1847,792,74.9667,-2.5328
630,232,64.9034,2.97992,0,0,0,0,0,0,0,-1,1854,792,64.9035,-2.9799
637,232,47.0471,4.04309,0,0,0,0,0,0,0,-1,1861,792,47.0471,-4.04309
644,232,30.7756,4.24139,0,0,0,0,0,0,0,-1,1868,792,30.7757,-4.24141
651,232,31.6797,-0.564087,0,0,0,0,0,0,0,-1,1875,792,31.6797,0.564059
658,232,46.7423,-3.10736,0,0,0,0,0,0,0,-1,1882,792,46.7423,3.10735
665,232,54.6917,-3.74304,0,0,0,0,0,0,0,-1,1889,792,54.6916,3.74307
672,232,54.9205,-2.71924,0,0,0,0,0,0,0,-1,1896,792,54.9206,2.71925
679,232,54.8855,-1.84216,0.000351444,0.00052013,5.55833e-05,0.000536798,0.000334776,1.27945,0.000313064,0.0215028,1903,792,54.8855,1.84218
686,232,54.8375,-0.877869,0.000362629,0.000730749,-4.23262e-05,0.000735553,0.000357826,-1.45778,0.000424724,0.0203523,1910,792,54.8376,0.877883
693,232,54.7634,-0.0482788,0.000626135,0.00086195,-0.000136304,0.000924267,0.000563818,-1.14198,0.000537915,0.0122535,1917,792,54.7634,0.0482555
700,232,54.7207,0.843445,0.00114238,0.00115032,-0.00017477,0.00132117,0.000971535,-0.796765,0.000790443,0.0139328,1924,792,54.7207,-0.843425
707,232,54.6791,1.77081,0.00183844,0.0016394,-8.09186e-05,0.00186719,0.00161065,-0.341335,0.0011687,0.0132787,1931,792,54.6791,-1.77084
714,232,54.5962,2.67175,0.00268088,0.0022107,9.0988e-05,0.00269787,0.00219371,0.184642,0.0016563,0.0139826,1938,792,54.5962,-2.67176
721,232,54.5322,3.56812,0.00375442,0.00287051,0.000414212,0.00391818,0.00270675,0.376504,0.00231642,0.019831,1945,792,54.5323,-3.5681
728,232,54.4917,4.34802,0.00509662,0.00356431,0.0008918,0.00550618,0.00315476,0.430518,0.00319025,0.0492379,1952,792,54.4917,-4.348
735,232,54.707,5.3645,0,0,0,0,0,0,0,-1,1959,792,54.707,-5.36453
742,232,25.6461,6.00684,0,0,0,0,0,0,0,-1,1966,792,25.6461,-6.00684
749,232,31.2874,3.74713,0,0,0,0,0,0,0,-1,1973,792,31.2874,-3.74713
756,232,34.9586,15.3984,0,0,0,0,0,0,0,-1,1980,792,34.9586,-15.3984
763,232,33.09,17.3107,0,0,0,0,0,0,0,-1,1987,792,33.0899,-17.3106
770,232,0,0,0,0,0,0,0,0,0,-1,1994,792,0,0
777,232,0,0,0,0,0,0,0,0,0,-1,2001,792,0,0
784,232,0,0,0,0,0,0,0,0,0,-1,2008,792,0,0
791,232,0,0,0,0,0,0,0,0,0,-1,2015,792,0,0
798,232,0,0,0,0,0,0,0,0,0,-1,2022,792,0,0
805,232,0,0,0,0,0,0,0,0,0,-1,2029,792,0,0
812,232,0,0,0,0,0,0,0,0,0,-1,2036,792,0,0
-700,225,0,0,0,0,0,0,0,0,0,-1,524,799,0,0
-693,225,0,0,0,0,0,0,0,0,0,-1,531,799,0,0
-686,225,0,0,0,0,0,0,0,0,0,-1,538,799,0,0
-679,225,0,0,0,0,0,0,0,0,0,-1,545,799,0,0
-672,225,0,0,0,0,0,0,0,0,0,-1,552,799,0,0
-665,225,0,0,0,0,0,0,0,0,0,-1,559,799,0,0
-658,225,0,0,0,0,0,0,0,0,0,-1,566,799,0,0
-651,225,0,0,0,0,0,0,0,0,0,-1,573,799,0,0
-644,225,-40.8898,4.14661,0,0,0,0,0,0,0,-1,580,799,-40.8898,-4.14661
-637,225,-41.61,3.36749,0,0,0,0,0,0,0,-1,587,799,-41.61,-3.36751
-630,225,-30.244,4.82196,0,0,0,0,0,0,0,-1,594,799,-30.244,-4.82193
-623,225,-32.8276,-0.00836182,0,0,0,0,0,0,0,-1,601,799,-32.8276,0.00837668
-616,225,-32.0569,-0.549255,0,0,0,0,0,0,0,-1,608,799,-32.0569,0.549265
-609,225,-38.8967,4.83521,0,0,0,0,0,0,0,-1,615,799,-38.8967,-4.83522
-602,225,-39.2733,3.98981,-0.0142351,0.00740152,-0.00274702,0.00774484,-0.0145784,-1.44646,0.0130881,0.0465308,622,799,-39.2733,-3.98981
-595,225,-39.6066,3.42645,-0.00977723,0.00601043,-0.00272378,0.00646714,-0.0102339,-1.40467,0.00972378,0.0295372,629,799,-39.6066,-3.42646
-588,225,-39.6058,2.42108,-0.00626328,0.00491166,-0.0022806,0.00535917,-0.00671079,-1.37703,0.00698315,0.0132522,636,799,-39.6058,-2.4211
-581,225,-39.6565,1.51282,-0.00359544,0.0038671,-0.00162126,0.00420411,-0.00393245,-1.36585,0.00469852,0.0121474,643,799,-39.6565,-1.5128
-574,225,-39.7079,0.599609,-0.00152076,0.00293901,-0.00090877,0.00311708,-0.00169883,-1.3773,0.00282037,0.0103611,650,799,-39.7079,-0.599627
-567,225,-39.7555,-0.339417,-8.88513e-05,0.00217482,-0.000232122,0.00219838,-0.000112408,-1.46966,0.00150445,0.0125512,657,799,-39.7555,0.339435
-560,225,-39.8265,-1.22888,0.000825055,0.0016371,0.00049253,0.00186939,0.000592768,1.13011,0.0011031,0.0131097,664,799,-39.8266,1.22886
-553,225,-39.9251,-2.15161,0.0010702,0.00172104,0.00127907,0.00271543,7.58041e-05,0.909964,0.00178556,0.0127051,671,799,-39.9251,2.15163
-546,225,-39.9188,-2.99048,0.000707425,0.0029327,0.00214527,0.0042367,-0.000596575,1.02462,0.00304288,0.0394951,678,799,-39.9188,2.99048
-539,225,-39.8433,-3.64166,0,0,0,0,0,0,0,-1,685,799,-39.8433,3.64166
-532,225,-40.9899,-4.36157,0,0,0,0,0,0,0,-1,692,799,-40.9899,4.36158
-525,225,-29.1705,-3.88239,0,0,0,0,0,0,0,-1,699,799,-29.1705,3.88237
-518,225,-21.963,0.171326,0,0,0,0,0,0,0,-1,706,799,-21.9629,-0.171319
-511,225,-33.0002,0.660217,0,0,0,0,0,0,0,-1,713,799,-33.0002,-0.660239
-504,225,-50.4542,0.524109,0,0,0,0,0,0,0,-1,720,799,-50.4542,-0.524105
-497,225,-60.4833,0.307739,0,0,0,0,0,0,0,-1,727,799,-60.4834,-0.30773
-490,225,-60.3978,0.349426,0.00393003,0.0038427,0.000144492,0.00403731,0.00373542,0.638671,0.00259677,0.038492,734,799,-60.3978,-0.349399
-483,225,-60.3672,0.407471,0.00482952,0.00402406,-0.000257858,0.004905,0.00394858,-0.284754,0.00300241,0.0304136,741,799,-60.3672,-0.40746
-476,225,-60.2662,0.36792,0.0056828,0.00415655,-8.36253e-06,0.00568285,0.00415651,-0.00547892,0.00339611,0.0282801,748,799,-60.2662,-0.367905
-469,225,-60.4867,0.230713,0.00598625,0.00456543,0.000829738,0.00636815,0.00418353,0.43136,0.00373654,0.0334594,755,799,-60.4867,-0.230707
-462,225,0,0,0,0,0,0,0,0,0,-1,762,799,0,0
-455,225,0,0,0,0,0,0,0,0,0,-1,769,799,0,0
-448,225,0,0,0,0,0,0,0,0,0,-1,776,799,0,0
-441,225,0,0,0,0,0,0,0,0,0,-1,783,799,0,0
-434,225,0,0,0,0,0,0,0,0,0,-1,790,799,0,0
-427,225,0,0,0,0,0,0,0,0,0,-1,797,799,0,0
-420,225,0,0,0,0,0,0,0,0,0,-1,804,799,0,0
-413,225,0,0,0,0,0,0,0,0,0,-1,811,799,0,0
-406,225,0,0,0,0,0,0,0,0,0,-1,818,799,0,0
-399,225,0,0,0,0,0,0,0,0,0,-1,825,799,0,0
-392,225,0,0,0,0,0,0,0,0,0,-1,832,799,0,0
-385,225,0,0,0,0,0,0,0,0,0,-1,839,799,0,0
-378,225,0,0,0,0,0,0,0,0,0,-1,846,799,0,0
-371,225,0,0,0,0,0,0,0,0,0,-1,853,799,0,0
-364,225,0,0,0,0,0,0,0,0,0,-1,860,799,0,0
-357,225,0,0,0,0,0,0,0,0,0,-1,867,799,0,0
-350,225,0,0,0,0,0,0,0,0,0,-1,874,799,0,0
-343,225,0,0,0,0,0,0,0,0,0,-1,881,799,0,0
-336,225,0,0,0,0,0,0,0,0,0,-1,888,799,0,0
-329,225,0,0,0,0,0,0,0,0,0,-1,895,799,0,0
-322,225,0,0,0,0,0,0,0,0,0,-1,902,799,0,0
-315,225,0,0,0,0,0,0,0,0,0,-1,909,799,0,0
-308,225,0,0,0,0,0,0,0,0,0,-1,916,799,0,0
-301,225,0,0,0,0,0,0,0,0,0,-1,923,799,0,0
-294,225,0,0,0,0,0,0,0,0,0,-1,930,799,0,0
-287,225,0,0,0,0,0,0,0,0,0,-1,937,799,0,0
-280,225,0,0,0,0,0,0,0,0,0,-1,944,799,0,0
-273,225,0,0,0,0,0,0,0,0,0,-1,951,799,0,0
-266,225,0,0,0,0,0,0,0,0,0,-1,958,799,0,0
-259,225,0,0,0,0,0,0,0,0,0,-1,965,799,0,0
-252,225,0,0,0,0,0,0,0,0,0,-1,972,799,0,0
-245,225,0,0,0,0,0,0,0,0,0,-1,979,799,0,0
-238,225,0,0,0,0,0,0,0,0,0,-1,986,799,0,0
-231,225,0,0,0,0,0,0,0,0,0,-1,993,799,0,0
-224,225,0,0,0,0,0,0,0,0,0,-1,1000,799,0,0
-217,225,0,0,0,0,0,0,0,0,0,-1,1007,799,0,0
-210,225,0,0,0,0,0,0,0,0,0,-1,1014,799,0,0
-203,225,0,0,0,0,0,0,0,0,0,-1,1021,799,0,0
-196,225,0,0,0,0,0,0,0,0,0,-1,1028,799,0,0
-189,225,0,0,0,0,0,0,0,0,0,-1,1035,799,0,0
-182,225,0,0,0,0,0,0,0,0,0,-1,1042,799,0,0
-175,225,0,0,0,0,0,0,0,0,0,-1,1049,799,0,0
-168,225,0,0,0,0,0,0,0,0,0,-1,1056,799,0,0
-161,225,0,0,0,0,0,0,0,0,0,-1,1063,799,0,0
-154,225,0,0,0,0,0,0,0,0,0,-1,1070,799,0,0
-147,225,0,0,0,0,0,0,0,0,0,-1,1077,799,0,0
-140,225,0,0,0,0,0,0,0,0,0,-1,1084,799,0,0
-133,225,0,0,0,0,0,0,0,0,0,-1,1091,799,0,0
-126,225,0,0,0,0,0,0,0,0,0,-1,1098,799,0,0
-119,225,0,0,0,0,0,0,0,0,0,-1,1105,799,0,0
-112,225,0,0,0,0,0,0,0,0,0,-1,1112,799,0,0
-105,225,0,0,0,0,0,0,0,0,0,-1,1119,799,0,0
-98,225,0,0,0,0,0,0,0,0,0,-1,1126,799,0,0
-91,225,0,0,0,0,0,0,0,0,0,-1,1133,799,0,0
-84,225,0,0,0,0,0,0,0,0,0,-1,1140,799,0,0
-77,225,0,0,0,0,0,0,0,0,0,-1,1147,799,0,0
-70,225,0,0,0,0,0,0,0,0,0,-1,1154,799,0,0
-63,225,0,0,0,0,0,0,0,0,0,-1,1161,799,0,0
-56,225,0,0,0,0,0,0,0,0,0,-1,1168,799,0,0
-49,225,0,0,0,0,0,0,0,0,0,-1,1175,799,0,0
-42,225,0,0,0,0,0,0,0,0,0,-1,1182,799,0,0
-35,225,0,0,0,0,0,0,0,0,0,-1,1189,799,0,0
-28,225,0,0,0,0,0,0,0,0,0,-1,1196,799,0,0
-21,225,0,0,0,0,0,0,0,0,0,-1,1203,799,0,0
-14,225,0,0,0,0,0,0,0,0,0,-1,1210,799,0,0
-7,225,0,0,0,0,0,0,0,0,0,-1,1217,799,0,0
0,225,0,0,0,0,0,0,0,0,0,-1,1224,799,0,0
7,225,0,0,0,0,0,0,0,0,0,-1,1231,799,0,0
14,225,0,0,0,0,0,0,0,0,0,-1,1238,799,0,0
21,225,0,0,0,0,0,0,0,0,0,-1,1245,799,0,0
28,225,0,0,0,0,0,0,0,0,0,-1,1252,799,0,0
35,225,0,0,0,0,0,0,0,0,0,-1,1259,799,0,0
42,225,0,0,0,0,0,0,0,0,0,-1,1266,799,0,0
49,225,0,0,0,0,0,0,0,0,0,-1,1273,799,0,0
56,225,0,0,0,0,0,0,0,0,0,-1,1280,799,0,0
63,225,0,0,0,0,0,0,0,0,0,-1,1287,799,0,0
70,225,0,0,0,0,0,0,0,0,0,-1,1294,799,0,0
77,225,0,0,0,0,0,0,0,0,0,-1,1301,799,0,0
84,225,0,0,0,0,0,0,0,0,0,-1,1308,799,0,0
91,225,0,0,0,0,0,0,0,0,0,-1,1315,799,0,0
98,225,0,0,0,0,0,0,0,0,0,-1,1322,799,0,0
105,225,0,0,0,0,0,0,0,0,0,-1,1329,799,0,0
112,225,0,0,0,0,0,0,0,0,0,-1,1336,799,0,0
119,225,0,0,0,0,0,0,0,0,0,-1,1343,799,0,0
126,225,0,0,0,0,0,0,0,0,0,-1,1350,799,0,0
133,225,0,0,0,0,0,0,0,0,0,-1,1357,799,0,0
140,225,0,0,0,0,0,0,0,0,0,-1,1364,799,0,0
147,225,0,0,0,0,0,0,0,0,0,-1,1371,799,0,0
154,225,0,0,0,0,0,0,0,0,0,-1,1378,799,0,0
161,225,0,0,0,0,0,0,0,0,0,-1,1385,799,0,0
168,225,0,0,0,0,0,0,0,0,0,-1,1392,799,0,0
175,225,0,0,0,0,0,0,0,0,0,-1,1399,799,0,0
182,225,0,0,0,0,0,0,0,0,0,-1,1406,799,0,0
189,225,0,0,0,0,0,0,0,0,0,-1,1413,799,0,0
196,225,0,0,0,0,0,0,0,0,0,-1,1420,799,0,0
203,225,0,0,0,0,0,0,0,0,0,-1,1427,799,0,0
210,225,0,0,0,0,0,0,0,0,0,-1,1434,799,0,0
217,225,0,0,0,0,0,0,0,0,0,-1,1441,799,0,0
224,225,0,0,0,0,0,0,0,0,0,-1,1448,799,0,0
231,225,0,0,0,0,0,0,0,0,0,-1,1455,799,0,0
238,225,0,0,0,0,0,0,0,0,0,-1,1462,799,0,0
245,225,0,0,0,0,0,0,0,0,0,-1,1469,799,0,0
252,225,0,0,0,0,0,0,0,0,0,-1,1476,799,0,0
259,225,0,0,0,0,0,0,0,0,0,-1,1483,799,0,0
266,225,0,0,0,0,0,0,0,0,0,-1,1490,799,0,0
273,225,0,0,0,0,0,0,0,0,0,-1,1497,799,0,0
280,225,0,0,0,0,0,0,0,0,0,-1,1504,799,0,0
287,225,0,0,0,0,0,0,0,0,0,-1,1511,799,0,0
294,225,0,0,0,0,0,0,0,0,0,-1,1518,799,0,0
301,225,0,0,0,0,0,0,0,0,0,-1,1525,799,0,0
308,225,0,0,0,0,0,0,0,0,0,-1,1532,799,0,0
315,225,0,0,0,0,0,0,0,0,0,-1,1539,799,0,0
322,225,0,0,0,0,0,0,0,0,0,-1,1546,799,0,0
329,225,0,0,0,0,0,0,0,0,0,-1,1553,799,0,0
336,225,0,0,0,0,0,0,0,0,0,-1,1560,799,0,0
343,225,0,0,0,0,0,0,0,0,0,-1,1567,799,0,0
350,225,0,0,0,0,0,0,0,0,0,-1,1574,799,0,0
357,225,0,0,0,0,0,0,0,0,0,-1,1581,799,0,0
364,225,0,0,0,0,0,0,0,0,0,-1,1588,799,0,0
371,225,0,0,0,0,0,0,0,0,0,-1,1595,799,0,0
378,225,0,0,0,0,0,0,0,0,0,-1,1602,799,0,0
385,225,0,0,0,0,0,0,0,0,0,-1,1609,799,0,0
392,225,0,0,0,0,0,0,0,0,0,-1,1616,799,0,0
399,225,0,0,0,0,0,0,0,0,0,-1,1623,799,0,0
406,225,0,0,0,0,0,0,0,0,0,-1,1630,799,0,0
413,225,0,0,0,0,0,0,0,0,0,-1,1637,799,0,0
420,225,0,0,0,0,0,0,0,0,0,-1,1644,799,0,0
427,225,0,0,0,0,0,0,0,0,0,-1,1651,799,0,0
434,225,0,0,0,0,0,0,0,0,0,-1,1658,799,0,0
441,225,0,0,0,0,0,0,0,0,0,-1,1665,799,0,0
448,225,0,0,0,0,0,0,0,0,0,-1,1672,799,0,0
455,225,0,0,0,0,0,0,0,0,0,-1,1679,799,0,0
462,225,0,0,0,0,0,0,0,0,0,-1,1686,799,0,0
469,225,0,0,0,0,0,0,0,0,0,-1,1693,799,0,0
476,225,0,0,0,0,0,0,0,0,0,-1,1700,799,0,0
483,225,0,0,0,0,0,0,0,0,0,-1,1707,799,0,0
490,225,0,0,0,0,0,0,0,0,0,-1,1714,799,0,0
497,225,0,0,0,0,0,0,0,0,0,-1,1721,799,0,0
504,225,0,0,0,0,0,0,0,0,0,-1,1728,799,0,0
511,225,0,0,0,0,0,0,0,0,0,-1,1735,799,0,0
518,225,0,0,0,0,0,0,0,0,0,-1,1742,799,0,0
525,225,0,0,0,0,0,0,0,0,0,-1,1749,799,0,0
532,225,0,0,0,0,0,0,0,0,0,-1,1756,799,0,0
539,225,0,0,0,0,0,0,0,0,0,-1,1763,799,0,0
546,225,0,0,0,0,0,0,0,0,0,-1,1770,799,0,0
553,225,0,0,0,0,0,0,0,0,0,-1,1777,799,0,0
560,225,0,0,0,0,0,0,0,0,0,-1,1784,799,0,0
567,225,0,0,0,0,0,0,0,0,0,-1,1791,799,0,0
574,225,0,0,0,0,0,0,0,0,0,-1,1798,799,0,0
581,225,0,0,0,0,0,0,0,0,0,-1,1805,799,0,0
588,225,76.6807,2.12878,-0.00720434,-0.00602224,0.00369705,-0.00286929,-0.0103573,0.864663,0.0061748,0.0370323,1812,799,76.6806,-2.12879
595,225,76.6527,2.0293,-0.00370461,-0.00456185,0.00408667,-2.41376e-05,-0.00824232,0.733148,0.00548685,0.0351398,1819,799,76.6527,-2.02927
602,225,76.6121,2.0589,-0.00152216,-0.00327488,0.00396018,0.00165747,-0.00645451,0.676506,0.0049489,0.0337268,1826,799,76.6121,-2.05887
609,225,76.584,2.16473,-0.000603351,-0.00242799,0.0032584,0.00186804,-0.00489938,0.648898,0.00403572,0.0330617,1833,799,76.584,-2.16471
616,225,76.6049,2.14783,-0.000147378,-0.00174897,0.00248411,0.00166182,-0.00355817,0.629473,0.00307934,0.0393352,1840,799,76.6049,-2.1478
623,225,76.5834,2.18555,0,0,0,0,0,0,0,-1,1847,799,76.5833,-2.18557
630,225,75.2485,2.28778,0,0,0,0,0,0,0,-1,1854,799,75.2485,-2.28778
637,225,55.6359,2.8064,0,0,0,0,0,0,0,-1,1861,799,55.6359,-2.80637
644,225,42.0298,2.46411,0,0,0,0,0,0,0,-1,1868,799,42.0298,-2.4641
651,225,27.9657,0.579529,0,0,0,0,0,0,0,-1,1875,799,27.9657,-0.579541
658,225,47.9047,-1.92926,0,0,0,0,0,0,0,-1,1882,799,47.9047,1.92927
665,225,47.541,-2.27985,0,0,0,0,0,0,0,-1,1889,799,47.5411,2.27983
672,225,55.8551,-3.15741,0,0,0,0,0,0,0,-1,1896,799,55.8552,3.15741
679,225,55.7489,-1.83466,0.000246142,0.000387276,-0.000140058,0.00047354,0.000159878,-1.01876,0.000278163,0.0457355,1903,799,55.7489,1.83465
686,225,55.7361,-0.8927,0.000102751,0.000538339,-0.000203625,0.000618702,2.23884e-05,-1.1949,0.000405211,0.0135949,1910,799,55.7361,0.892685
693,225,55.6775,0.00549316,0.000353487,0.000583607,-0.000263962,0.000756496,0.000180598,-0.99093,0.000456207,0.0109254,1917,799,55.6775,-0.00549286
700,225,55.6263,0.908752,0.000909734,0.000831944,-0.000293092,0.0011665,0.000575177,-0.719431,0.000673501,0.012377,1924,799,55.6263,-0.908764
707,225,55.5565,1.8266,0.00162001,0.00132303,-0.000180794,0.00170548,0.00123756,-0.441591,0.00101753,0.0120108,1931,799,55.5565,-1.82658
714,225,55.5016,2.76324,0.00251447,0.00193938,3.97727e-05,0.00251721,0.00193664,0.0687227,0.00152198,0.0128667,1938,799,55.5016,-2.76325
721,225,55.4905,3.67468,0.00362407,0.00265034,0.000403404,0.00376948,0.00250493,0.345963,0.00221524,0.0164188,1945,799,55.4905,-3.67469
728,225,55.3413,4.42072,0.00501158,0.00343723,0.00092428,0.00543847,0.00301035,0.432669,0.00314589,0.037533,1952,799,55.3413,-4.42072
735,225,55.2808,5.40906,0,0,0,0,0,0,0,-1,1959,799,55.2807,-5.40904
742,225,55.3708,6.5321,0,0,0,0,0,0,0,-1,1966,799,55.3709,-6.53213
749,225,29.9529,4.45538,0,0,0,0,0,0,0,-1,1973,799,29.9529,-4.45537
756,225,39.1752,11.743,0,0,0,0,0,0,0,-1,1980,799,39.1751,-11.743
763,225,39.9703,12.194,0,0,0,0,0,0,0,-1,1987,799,39.9703,-12.194
770,225,0,0,0,0,0,0,0,0,0,-1,1994,799,0,0
777,225,0,0,0,0,0,0,0,0,0,-1,2001,799,0,0
784,225,0,0,0,0,0,0,0,0,0,-1,2008,799,0,0
791,225,0,0,0,0,0,0,0,0,0,-1,2015,799,0,0
798,225,0,0,0,0,0,0,0,0,0,-1,2022,799,0,0
805,225,0,0,0,0,0,0,0,0,0,-1,2029,799,0,0
812,225,0,0,0,0,0,0,0,0,0,-1,2036,799,0,0
-700,218,0,0,0,0,0,0,0,0,0,-1,524,806,0,0
-693,218,0,0,0,0,0,0,0,0,0,-1,531,806,0,0
-686,218,0,0,0,0,0,0,0,0,0,-1,538,806,0,0
-679,218,0,0,0,0,0,0,0,0,0,-1,545,806,0,0
-672,218,0,0,0,0,0,0,0,0,0,-1,552,806,0,0
-665,218,0,0,0,0,0,0,0,0,0,-1,559,806,0,0
-658,218,0,0,0,0,0,0,0,0,0,-1,566,806,0,0
-651,218,-40.3778,5.1792,0,0,0,0,0,0,0,-1,573,806,-40.3778,-5.1792
-644,218,-40.7704,4.19714,0,0,0,0,0,0,0,-1,580,806,-40.7704,-4.19714
-637,218,-41.541,3.36328,0,0,0,0,0,0,0,-1,587,806,-41.541,-3.36326
-630,218,-42.1423,2.85565,0,0,0,0,0,0,0,-1,594,806,-42.1423,-2.85567
-623,218,-42.7292,2.59015,0,0,0,0,0,0,0,-1,601,806,-42.7292,-2.59015
-616,218,-20.0258,1.87585,0,0,0,0,0,0,0,-1,608,806,-20.0258,-1.87585
-609,218,-40.0402,4.99554,0,0,0,0,0,0,0,-1,615,806,-40.0402,-4.99554
-602,218,-40.2817,4.14716,-0.0121904,0.00672676,-0.00144237,0.00683611,-0.0122998,-1.49513,0.0111972,0.0418285,622,806,-40.2817,-4.14718
-595,218,-40.5167,3.37439,-0.00826915,0.00545784,-0.00159939,0.00564173,-0.00845304,-1.45632,0.0081914,0.0185247,629,806,-40.5167,-3.37437
-588,218,-40.5525,2.46265,-0.00507132,0.00443247,-0.00134558,0.00461931,-0.00525816,-1.43282,0.00570673,0.0127453,636,806,-40.5525,-2.46262
-581,218,-40.593,1.56781,-0.00253249,0.00347933,-0.000872719,0.00360346,-0.00265661,-1.42951,0.00362801,0.0127161,643,806,-40.593,-1.56782
-574,218,-40.6455,0.663635,-0.000556153,0.00264906,-0.000330093,0.0026827,-0.000589796,-1.46923,0.00201406,0.0110053,650,806,-40.6455,-0.663663
-567,218,-40.678,-0.287598,0.000750698,0.00203148,0.000149728,0.00204875,0.000733428,1.45596,0.00119865,0.0178191,657,806,-40.678,0.287572
-560,218,-40.7322,-1.15955,0.00148669,0.00174566,0.000725416,0.00235306,0.000879293,0.873719,0.00137291,0.0181402,664,806,-40.7322,1.15954
-553,218,-40.7001,-2.26672,0.00150284,0.00222317,0.00142807,0.00333579,0.000390218,0.908926,0.00210588,0.0219056,671,806,-40.7001,2.2667
-546,218,-40.9138,-3.284,0.0010393,0.00381203,0.00224275,0.00506232,-0.000210982,1.06223,0.00344736,0.0314241,678,806,-40.9138,3.28398
-539,218,-41.0571,-4.00958,0.00125052,0.00426231,0.00214831,0.00537995,0.000132873,1.09109,0.00354318,0.0345593,685,806,-41.0571,4.00959
-532,218,-41.0007,-4.62042,0,0,0,0,0,0,0,-1,692,806,-41.0007,4.62043
-525,218,-29.3521,-3.64417,0,0,0,0,0,0,0,-1,699,806,-29.3521,3.64414
-518,218,-23.61,2.54181,0,0,0,0,0,0,0,-1,706,806,-23.61,-2.54183
-511,218,-41.0953,1.06879,0,0,0,0,0,0,0,-1,713,806,-41.0953,-1.06876
-504,218,-59.1388,0.682068,0,0,0,0,0,0,0,-1,720,806,-59.1388,-0.682072
-497,218,-60.2994,0.453308,0,0,0,0,0,0,0,-1,727,806,-60.2994,-0.453308
-490,218,-60.2871,0.418457,0.00444919,0.00463818,0.000590137,0.00514134,0.00394603,0.86479,0.00310674,0.03336,734,806,-60.2871,-0.418485
-483,218,-60.2427,0.444824,0.00546879,0.00465512,6.54666e-05,0.00547403,0.00464989,0.0797745,0.00340802,0.0313391,741,806,-60.2427,-0.444815
-476,218,-60.1799,0.454468,0.00640492,0.00456436,8.71806e-05,0.00640904,0.00456024,0.0472255,0.00380904,0.0332232,748,806,-60.1799,-0.454494
-469,218,0,0,0,0,0,0,0,0,0,-1,755,806,0,0
-462,218,0,0,0,0,0,0,0,0,0,-1,762,806,0,0
-455,218,0,0,0,0,0,0,0,0,0,-1,769,806,0,0
-448,218,0,0,0,0,0,0,0,0,0,-1,776,806,0,0
-441,218,0,0,0,0,0,0,0,0,0,-1,783,806,0,0
-434,218,0,0,0,0,0,0,0,0,0,-1,790,806,0,0
-427,218,0,0,0,0,0,0,0,0,0,-1,797,806,0,0
-420,218,0,0,0,0,0,0,0,0,0,-1,804,806,0,0
-413,218,0,0,0,0,0,0,0,0,0,-1,811,806,0,0
-406,218,0,0,0,0,0,0,0,0,0,-1,818,806,0,0
-399,218,0,0,0,0,0,0,0,0,0,-1,825,806,0,0
-392,218,0,0,0,0,0,0,0,0,0,-1,832,806,0,0
-385,218,0,0,0,0,0,0,0,0,0,-1,839,806,0,0
-378,218,0,0,0,0,0,0,0,0,0,-1,846,806,0,0
-371,218,0,0,0,0,0,0,0,0,0,-1,853,806,0,0
-364,218,0,0,0,0,0,0,0,0,0,-1,860,806,0,0
-357,218,0,0,0,0,0,0,0,0,0,-1,867,806,0,0
-350,218,0,0,0,0,0,0,0,0,0,-1,874,806,0,0
-343,218,0,0,0,0,0,0,0,0,0,-1,881,806,0,0
-336,218,0,0,0,0,0,0,0,0,0,-1,888,806,0,0
-329,218,0,0,0,0,0,0,0,0,0,-1,895,806,0,0
-322,218,0,0,0,0,0,0,0,0,0,-1,902,806,0,0
-315,218,0,0,0,0,0,0,0,0,0,-1,909,806,0,0
-308,218,0,0,0,0,0,0,0,0,0,-1,916,806,0,0
-301,218,0,0,0,0,0,0,0,0,0,-1,923,806,0,0
-294,218,0,0,0,0,0,0,0,0,0,-1,930,806,0,0
-287,218,0,0,0,0,0,0,0,0,0,-1,937,806,0,0
-280,218,0,0,0,0,0,0,0,0,0,-1,944,806,0,0
-273,218,0,0,0,0,0,0,0,0,0,-1,951,806,0,0
-266,218,0,0,0,0,0,0,0,0,0,-1,958,806,0,0
-259,218,0,0,0,0,0,0,0,0,0,-1,965,806,0,0
-252,218,0,0,0,0,0,0,0,0,0,-1,972,806,0,0
-245,218,0,0,0,0,0,0,0,0,0,-1,979,806,0,0
-238,218,0,0,0,0,0,0,0,0,0,-1,986,806,0,0
-231,218,0,0,0,0,0,0,0,0,0,-1,993,806,0,0
-224,218,0,0,0,0,0,0,0,0,0,-1,1000,806,0,0
-217,218,0,0,0,0,0,0,0,0,0,-1,1007,806,0,0
-210,218,0,0,0,0,0,0,0,0,0,-1,1014,806,0,0
-203,218,0,0,0,0,0,0,0,0,0,-1,1021,806,0,0
-196,218,0,0,0,0,0,0,0,0,0,-1,1028,806,0,0
-189,218,0,0,0,0,0,0,0,0,0,-1,1035,806,0,0
-182,218,0,0,0,0,0,0,0,0,0,-1,1042,806,0,0
-175,218,0,0,0,0,0,0,0,0,0,-1,1049,806,0,0
-168,218,0,0,0,0,0,0,0,0,0,-1,1056,806,0,0
-161,218,0,0,0,0,0,0,0,0,0,-1,1063,806,0,0
-154,218,0,0,0,0,0,0,0,0,0,-1,1070,806,0,0
-147,218,0,0,0,0,0,0,0,0,0,-1,1077,806,0,0
-140,218,0,0,0,0,0,0,0,0,0,-1,1084,806,0,0
-133,218,0,0,0,0,0,0,0,0,0,-1,1091,806,0,0
-126,218,0,0,0,0,0,0,0,0,0,-1,1098,806,0,0
-119,218,0,0,0,0,0,0,0,0,0,-1,1105,806,0,0
-112,218,0,0,0,0,0,0,0,0,0,-1,1112,806,0,0
-105,218,0,0,0,0,0,0,0,0,0,-1,1119,806,0,0
-98,218,0,0,0,0,0,0,0,0,0,-1,1126,806,0,0
-91,218,0,0,0,0,0,0,0,0,0,-1,1133,806,0,0
-84,218,0,0,0,0,0,0,0,0,0,-1,1140,806,0,0
-77,218,0,0,0,0,0,0,0,0,0,-1,1147,806,0,0
-70,218,0,0,0,0,0,0,0,0,0,-1,1154,806,0,0
-63,218,0,0,0,0,0,0,0,0,0,-1,1161,806,0,0
-56,218,0,0,0,0,0,0,0,0,0,-1,1168,806,0,0
-49,218,0,0,0,0,0,0,0,0,0,-1,1175,806,0,0
-42,218,0,0,0,0,0,0,0,0,0,-1,1182,806,0,0
-35,218,0,0,0,0,0,0,0,0,0,-1,1189,806,0,0
-28,218,0,0,0,0,0,0,0,0,0,-1,1196,806,0,0
-21,218,0,0,0,0,0,0,0,0,0,-1,1203,806,0,0
-14,218,0,0,0,0,0,0,0,0,0,-1,1210,806,0,0
-7,218,0,0,0,0,0,0,0,0,0,-1,1217,806,0,0
0,218,0,0,0,0,0,0,0,0,0,-1,1224,806,0,0
7,218,0,0,0,0,0,0,0,0,0,-1,1231,806,0,0
14,218,0,0,0,0,0,0,0,0,0,-1,1238,806,0,0
21,218,0,0,0,0,0,0,0,0,0,-1,1245,806,0,0
28,218,0,0,0,0,0,0,0,0,0,-1,1252,806,0,0
35,218,0,0,0,0,0,0,0,0,0,-1,1259,806,0,0
42,218,0,0,0,0,0,0,0,0,0,-1,1266,806,0,0
49,218,0,0,0,0,0,0,0,0,0,-1,1273,806,0,0
56,218,0,0,0,0,0,0,0,0,0,-1,1280,806,0,0
63,218,0,0,0,0,0,0,0,0,0,-1,1287,806,0,0
70,218,0,0,0,0,0,0,0,0,0,-1,1294,806,0,0
77,218,0,0,0,0,0,0,0,0,0,-1,1301,806,0,0
84,218,0,0,0,0,0,0,0,0,0,-1,1308,806,0,0
91,218,0,0,0,0,0,0,0,0,0,-1,1315,806,0,0
98,218,0,0,0,0,0,0,0,0,0,-1,1322,806,0,0
105,218,0,0,0,0,0,0,0,0,0,-1,1329,806,0,0
112,218,0,0,0,0,0,0,0,0,0,-1,1336,806,0,0
119,218,0,0,0,0,0,0,0,0,0,-1,1343,806,0,0
126,218,0,0,0,0,0,0,0,0,0,-1,1350,806,0,0
133,218,0,0,0,0,0,0,0,0,0,-1,1357,806,0,0
140,218,0,0,0,0,0,0,0,0,0,-1,1364,806,0,0
147,218,0,0,0,0,0,0,0,0,0,-1,1371,806,0,0
154,218,0,0,0,0,0,0,0,0,0,-1,1378,806,0,0
161,218,0,0,0,0,0,0,0,0,0,-1,1385,806,0,0
168,218,0,0,0,0,0,0,0,0,0,-1,1392,806,0,0
175,218,0,0,0,0,0,0,0,0,0,-1,1399,806,0,0
182,218,0,0,0,0,0,0,0,0,0,-1,1406,806,0,0
189,218,0,0,0,0,0,0,0,0,0,-1,1413,806,0,0
196,218,0,0,0,0,0,0,0,0,0,-1,1420,806,0,0
203,218,0,0,0,0,0,0,0,0,0,-1,1427,806,0,0
210,218,0,0,0,0,0,0,0,0,0,-1,1434,806,0,0
217,218,0,0,0,0,0,0,0,0,0,-1,1441,806,0,0
224,218,0,0,0,0,0,0,0,0,0,-1,1448,806,0,0
231,218,0,0,0,0,0,0,0,0,0,-1,1455,806,0,0
238,218,0,0,0,0,0,0,0,0,0,-1,1462,806,0,0
245,218,0,0,0,0,0,0,0,0,0,-1,1469,806,0,0
252,218,0,0,0,0,0,0,0,0,0,-1,1476,806,0,0
259,218,0,0,0,0,0,0,0,0,0,-1,1483,806,0,0
266,218,0,0,0,0,0,0,0,0,0,-1,1490,806,0,0
273,218,0,0,0,0,0,0,0,0,0,-1,1497,806,0,0
280,218,0,0,0,0,0,0,0,0,0,-1,1504,806,0,0
287,218,0,0,0,0,0,0,0,0,0,-1,1511,806,0,0
294,218,0,0,0,0,0,0,0,0,0,-1,1518,806,0,0
301,218,0,0,0,0,0,0,0,0,0,-1,1525,806,0,0
308,218,0,0,0,0,0,0,0,0,0,-1,1532,806,0,0
315,218,0,0,0,0,0,0,0,0,0,-1,1539,806,0,0
322,218,0,0,0,0,0,0,0,0,0,-1,1546,806,0,0
329,218,0,0,0,0,0,0,0,0,0,-1,1553,806,0,0
336,218,0,0,0,0,0,0,0,0,0,-1,1560,806,0,0
343,218,0,0,0,0,0,0,0,0,0,-1,1567,806,0,0
350,218,0,0,0,0,0,0,0,0,0,-1,1574,806,0,0
357,218,0,0,0,0,0,0,0,0,0,-1,1581,806,0,0
364,218,0,0,0,0,0,0,0,0,0,-1,1588,806,0,0
371,218,0,0,0,0,0,0,0,0,0,-1,1595,806,0,0
378,218,0,0,0,0,0,0,0,0,0,-1,1602,806,0,0
385,218,0,0,0,0,0,0,0,0,0,-1,1609,806,0,0
392,218,0,0,0,0,0,0,0,0,0,-1,1616,806,0,0
399,218,0,0,0,0,0,0,0,0,0,-1,1623,806,0,0
406,218,0,0,0,0,0,0,0,0,0,-1,1630,806,0,0
413,218,0,0,0,0,0,0,0,0,0,-1,1637,806,0,0
420,218,0,0,0,0,0,0,0,0,0,-1,1644,806,0,0
427,218,0,0,0,0,0,0,0,0,0,-1,1651,806,0,0
434,218,0,0,0,0,0,0,0,0,0,-1,1658,806,0,0
441,218,0,0,0,0,0,0,0,0,0,-1,1665,806,0,0
448,218,0,0,0,0,0,0,0,0,0,-1,1672,806,0,0
455,218,0,0,0,0,0,0,0,0,0,-1,1679,806,0,0
462,218,0,0,0,0,0,0,0,0,0,-1,1686,806,0,0
469,218,0,0,0,0,0,0,0,0,0,-1,1693,806,0,0
476,218,0,0,0,0,0,0,0,0,0,-1,1700,806,0,0
483,218,0,0,0,0,0,0,0,0,0,-1,1707,806,0,0
490,218,0,0,0,0,0,0,0,0,0,-1,1714,806,0,0
497,218,0,0,0,0,0,0,0,0,0,-1,1721,806,0,0
504,218,0,0,0,0,0,0,0,0,0,-1,1728,806,0,0
511,218,0,0,0,0,0,0,0,0,0,-1,1735,806,0,0
518,218,0,0,0,0,0,0,0,0,0,-1,1742,806,0,0
525,218,0,0,0,0,0,0,0,0,0,-1,1749,806,0,0
532,218,0,0,0,0,0,0,0,0,0,-1,1756,806,0,0
539,218,0,0,0,0,0,0,0,0,0,-1,1763,806,0,0
546,218,0,0,0,0,0,0,0,0,0,-1,1770,806,0,0
553,218,0,0,0,0,0,0,0,0,0,-1,1777,806,0,0
560,218,0,0,0,0,0,0,0,0,0,-1,1784,806,0,0
567,218,0,0,0,0,0,0,0,0,0,-1,1791,806,0,0
574,218,0,0,0,0,0,0,0,0,0,-1,1798,806,0,0
581,218,0,0,0,0,0,0,0,0,0,-1,1805,806,0,0
588,218,0,0,0,0,0,0,0,0,0,-1,1812,806,0,0
595,218,76.7173,2.03931,-0.0049618,-0.00352425,0.00215008,-0.00197598,-0.00651007,0.946709,0.0038541,0.0383599,1819,806,76.7173,-2.03933
602,218,76.6024,2.08771,-0.0023353,-0.00281829,0.00257282,7.333e-06,-0.00516093,0.738604,0.00344306,0.0327549,1826,806,76.6024,-2.08769
609,218,76.5094,2.24103,-0.00096337,-0.00232057,0.00236754,0.000820907,-0.00410485,0.645827,0.00304728,0.0285513,1833,806,76.5094,-2.241
616,218,76.5015,2.28894,-0.000327188,-0.00184432,0.00184312,0.000907361,-0.00307886,0.59018,0.00241259,0.0302376,1840,806,76.5015,-2.28896
623,218,76.5437,2.2124,5.07572e-05,-0.00154683,0.00124172,0.000728425,-0.0022245,0.499574,0.00177631,0.0362179,1847,806,76.5437,-2.21242
630,218,76.6576,2.07629,0,0,0,0,0,0,0,-1,1854,806,76.6576,-2.0763
637,218,75.0532,2.44513,0,0,0,0,0,0,0,-1,1861,806,75.0532,-2.44515
644,218,52.4042,2.47949,0,0,0,0,0,0,0,-1,1868,806,52.4041,-2.47949
651,218,41.7338,1.99164,0,0,0,0,0,0,0,-1,1875,806,41.7338,-1.99162
658,218,28.41,0.514954,0,0,0,0,0,0,0,-1,1882,806,28.41,-0.514983
665,218,52.1176,-2.84406,0,0,0,0,0,0,0,-1,1889,806,52.1176,2.84404
672,218,52.8506,-2.1853,0,0,0,0,0,0,0,-1,1896,806,52.8506,2.18533
679,218,56.6362,-2.09088,0,0,0,0,0,0,0,-1,1903,806,56.6362,2.09087
686,218,56.601,-0.842224,-6.00937e-05,0.000445042,-0.000285978,0.000574016,-0.000189067,-1.14712,0.000458872,0.027756,1910,806,56.6009,0.842196
693,218,56.6072,0.0706787,0.000205904,0.000399285,-0.000303802,0.000621412,-1.62234e-05,-0.939464,0.000419787,0.0128487,1917,806,56.6072,-0.0706801
700,218,56.5345,0.970947,0.000817645,0.000555567,-0.000314734,0.00102753,0.000345682,-0.588139,0.000603734,0.0106139,1924,806,56.5346,-0.97096
707,218,56.4646,1.88342,0.00149626,0.00100585,-0.000184096,0.00155767,0.00094443,-0.322003,0.000906073,0.0085037,1931,806,56.4646,-1.88343
714,218,56.418,2.80414,0.00235448,0.0016217,7.21711e-05,0.00236152,0.00161466,0.097244,0.00139377,0.0105449,1938,806,56.4179,-2.80417
721,218,56.389,3.70941,0.00338791,0.00233447,0.000447474,0.00355233,0.00217006,0.352117,0.00206768,0.0143765,1945,806,56.3891,-3.70942
728,218,56.3312,4.68457,0.00466893,0.00314611,0.000962999,0.00513517,0.00267988,0.450886,0.00296573,0.0307695,1952,806,56.3311,-4.68458
735,218,56.4373,5.77435,0,0,0,0,0,0,0,-1,1959,806,56.4373,-5.77436
742,218,47.8733,6.84155,0,0,0,0,0,0,0,-1,1966,806,47.8733,-6.84158
749,218,42.0249,6.64703,0,0,0,0,0,0,0,-1,1973,806,42.0249,-6.64703
756,218,52.5194,6.16064,0,0,0,0,0,0,0,-1,1980,806,52.5194,-6.16066
763,218,44.9403,8.54736,0,0,0,0,0,0,0,-1,1987,806,44.9403,-8.54737
770,218,0,0,0,0,0,0,0,0,0,-1,1994,806,0,0
777,218,0,0,0,0,0,0,0,0,0,-1,2001,806,0,0
784,218,0,0,0,0,0,0,0,0,0,-1,2008,806,0,0
791,218,0,0,0,0,0,0,0,0,0,-1,2015,806,0,0
798,218,0,0,0,0,0,0,0,0,0,-1,2022,806,0,0
805,218,0,0,0,0,0,0,0,0,0,-1,2029,806,0,0
812,218,0,0,0,0,0,0,0,0,0,-1,2036,806,0,0
-700,211,0,0,0,0,0,0,0,0,0,-1,524,813,0,0
-693,211,0,0,0,0,0,0,0,0,0,-1,531,813,0,0
-686,211,0,0,0,0,0,0,0,0,0,-1,538,813,0,0
-679,211,0,0,0,0,0,0,0,0,0,-1,545,813,0,0
-672,211,0,0,0,0,0,0,0,0,0,-1,552,813,0,0
-665,211,0,0,0,0,0,0,0,0,0,-1,559,813,0,0
-658,211,0,0,0,0,0,0,0,0,0,-1,566,813,0,0
-651,211,-40.2495,5.20386,0,0,0,0,0,0,0,-1,573,813,-40.2494,-5.20384
-644,211,-40.6288,4.32092,0,0,0,0,0,0,0,-1,580,813,-40.6288,-4.3209
-637,211,-41.3664,3.51849,0,0,0,0,0,0,0,-1,587,813,-41.3664,-3.51847
-630,211,-41.9262,2.94977,0,0,0,0,0,0,0,-1,594,813,-41.9262,-2.94975
-623,211,-42.5012,2.62903,0,0,0,0,0,0,0,-1,601,813,-42.5011,-2.629
-616,211,-40.9678,6.19128,0,0,0,0,0,0,0,-1,608,813,-40.9678,-6.19126
-609,211,-41.0582,5.22961,-0.0139696,0.00773423,-0.000569957,0.00774919,-0.0139845,-1.54456,0.0127189,0.0427358,615,813,-41.0582,-5.22961
-602,211,-41.2471,4.3111,-0.0103831,0.00600496,-0.000507088,0.00602064,-0.0103988,-1.53989,0.00959142,0.0231656,622,813,-41.2471,-4.31108
-595,211,-41.4182,3.43347,-0.00700898,0.00476834,-0.000702318,0.00481008,-0.00705071,-1.51144,0.00688844,0.0119357,629,813,-41.4182,-3.43346
-588,211,-41.4814,2.51691,-0.00414039,0.00377205,-0.000548595,0.0038099,-0.00417825,-1.5019,0.0046136,0.0122191,636,813,-41.4815,-2.51693
-581,211,-41.5334,1.61603,-0.00173188,0.00289975,-0.000207591,0.00290903,-0.00174116,-1.5261,0.00271287,0.0124109,643,813,-41.5334,-1.61603
-574,211,-41.5729,0.704407,0.00013259,0.00220041,0.000141466,0.00221005,0.000122957,1.50281,0.00143414,0.0124966,650,813,-41.573,-0.704418
-567,211,-41.6367,-0.216797,0.00130588,0.00177514,0.00032569,0.00194192,0.00113911,1.09754,0.00112676,0.0192101,657,813,-41.6367,0.216785
-560,211,-41.7018,-1.18054,0.00184443,0.00167973,0.000681326,0.00244836,0.00107579,0.725255,0.00141702,0.0382874,664,813,-41.7019,1.18055
-553,211,-41.4227,-2.47998,0,0,0,0,0,0,0,-1,671,813,-41.4227,2.47997
-546,211,-41.9681,-3.1546,0.00124562,0.00416382,0.00195582,0.00514484,0.000264598,1.10588,0.00334519,0.0479212,678,813,-41.9681,3.15463
-539,211,-41.9343,-3.89008,0.00156486,0.00457662,0.00193917,0.00552595,0.000615533,1.11554,0.00349689,0.0296043,685,813,-41.9343,3.89006
-532,211,-41.8568,-4.5827,0,0,0,0,0,0,0,-1,692,813,-41.8567,4.58271
-525,211,-14.3009,2.3233,0,0,0,0,0,0,0,-1,699,813,-14.3009,-2.3233
-518,211,-34.952,1.93011,0,0,0,0,0,0,0,-1,706,813,-34.952,-1.9301
-511,211,-53.0876,0.677734,0,0,0,0,0,0,0,-1,713,813,-53.0876,-0.677737
-504,211,-60.0765,0.694885,0,0,0,0,0,0,0,-1,720,813,-60.0765,-0.694866
-497,211,-60.1412,0.557007,0.00389906,0.00534626,0.00166109,0.00643451,0.00281081,0.990813,0.00372484,0.0458551,727,813,-60.1412,-0.557032
-490,211,-60.1716,0.465393,0.0048201,0.00536794,0.000895641,0.00603061,0.00415742,0.933801,0.00356406,0.0337213,734,813,-60.1717,-0.465366
-483,211,-60.1725,0.47876,0.00610083,0.00516473,0.000381059,0.00623633,0.00502922,0.341651,0.00381931,0.0322022,741,813,-60.1725,-0.478758
-476,211,-60.1683,0.518738,0.00741099,0.00471781,0.000316868,0.00744777,0.00468103,0.115553,0.00434706,0.0356515,748,813,-60.1683,-0.518741
-469,211,0,0,0,0,0,0,0,0,0,-1,755,813,0,0
-462,211,0,0,0,0,0,0,0,0,0,-1,762,813,0,0
-455,211,0,0,0,0,0,0,0,0,0,-1,769,813,0,0
-448,211,0,0,0,0,0,0,0,0,0,-1,776,813,0,0
-441,211,0,0,0,0,0,0,0,0,0,-1,783,813,0,0
-434,211,0,0,0,0,0,0,0,0,0,-1,790,813,0,0
-427,211,0,0,0,0,0,0,0,0,0,-1,797,813,0,0
-420,211,0,0,0,0,0,0,0,0,0,-1,804,813,0,0
-413,211,0,0,0,0,0,0,0,0,0,-1,811,813,0,0
-406,211,0,0,0,0,0,0,0,0,0,-1,818,813,0,0
-399,211,0,0,0,0,0,0,0,0,0,-1,825,813,0,0
-392,211,0,0,0,0,0,0,0,0,0,-1,832,813,0,0
-385,211,0,0,0,0,0,0,0,0,0,-1,839,813,0,0
-378,211,0,0,0,0,0,0,0,0,0,-1,846,813,0,0
-371,211,0,0,0,0,0,0,0,0,0,-1,853,813,0,0
-364,211,0,0,0,0,0,0,0,0,0,-1,860,813,0,0
-357,211,0,0,0,0,0,0,0,0,0,-1,867,813,0,0
-350,211,0,0,0,0,0,0,0,0,0,-1,874,813,0,0
-343,211,0,0,0,0,0,0,0,0,0,-1,881,813,0,0
-336,211,0,0,0,0,0,0,0,0,0,-1,888,813,0,0
-329,211,0,0,0,0,0,0,0,0,0,-1,895,813,0,0
-322,211,0,0,0,0,0,0,0,0,0,-1,902,813,0,0
-315,211,0,0,0,0,0,0,0,0,0,-1,909,813,0,0
-308,211,0,0,0,0,0,0,0,0,0,-1,916,813,0,0
-301,211,0,0,0,0,0,0,0,0,0,-1,923,813,0,0
-294,211,0,0,0,0,0,0,0,0,0,-1,930,813,0,0
-287,211,0,0,0,0,0,0,0,0,0,-1,937,813,0,0
-280,211,0,0,0,0,0,0,0,0,0,-1,944,813,0,0
-273,211,0,0,0,0,0,0,0,0,0,-1,951,813,0,0
-266,211,0,0,0,0,0,0,0,0,0,-1,958,813,0,0
-259,211,0,0,0,0,0,0,0,0,0,-1,965,813,0,0
-252,211,0,0,0,0,0,0,0,0,0,-1,972,813,0,0
-245,211,0,0,0,0,0,0,0,0,0,-1,979,813,0,0
-238,211,0,0,0,0,0,0,0,0,0,-1,986,813,0,0
-231,211,0,0,0,0,0,0,0,0,0,-1,993,813,0,0
-224,211,0,0,0,0,0,0,0,0,0,-1,1000,813,0,0
-217,211,0,0,0,0,0,0,0,0,0,-1,1007,813,0,0
-210,211,0,0,0,0,0,0,0,0,0,-1,1014,813,0,0
-203,211,0,0,0,0,0,0,0,0,0,-1,1021,813,0,0
-196,211,0,0,0,0,0,0,0,0,0,-1,1028,813,0,0
-189,211,0,0,0,0,0,0,0,0,0,-1,1035,813,0,0
-182,211,0,0,0,0,0,0,0,0,0,-1,1042,813,0,0
-175,211,0,0,0,0,0,0,0,0,0,-1,1049,813,0,0
-168,211,0,0,0,0,0,0,0,0,0,-1,1056,813,0,0
-161,211,0,0,0,0,0,0,0,0,0,-1,1063,813,0,0
-154,211,0,0,0,0,0,0,0,0,0,-1,1070,813,0,0
-147,211,0,0,0,0,0,0,0,0,0,-1,1077,813,0,0
-140,211,0,0,0,0,0,0,0,0,0,-1,1084,813,0,0
-133,211,0,0,0,0,0,0,0,0,0,-1,1091,813,0,0
-126,211,0,0,0,0,0,0,0,0,0,-1,1098,813,0,0
-119,211,0,0,0,0,0,0,0,0,0,-1,1105,813,0,0
-112,211,0,0,0,0,0,0,0,0,0,-1,1112,813,0,0
-105,211,0,0,0,0,0,0,0,0,0,-1,1119,813,0,0
-98,211,0,0,0,0,0,0,0,0,0,-1,1126,813,0,0
-91,211,0,0,0,0,0,0,0,0,0,-1,1133,813,0,0
-84,211,0,0,0,0,0,0,0,0,0,-1,1140,813,0,0
-77,211,0,0,0,0,0,0,0,0,0,-1,1147,813,0,0
-70,211,0,0,0,0,0,0,0,0,0,-1,1154,813,0,0
-63,211,0,0,0,0,0,0,0,0,0,-1,1161,813,0,0
-56,211,0,0,0,0,0,0,0,0,0,-1,1168,813,0,0
-49,211,0,0,0,0,0,0,0,0,0,-1,1175,813,0,0
-42,211,0,0,0,0,0,0,0,0,0,-1,1182,813,0,0
-35,211,0,0,0,0,0,0,0,0,0,-1,1189,813,0,0
-28,211,0,0,0,0,0,0,0,0,0,-1,1196,813,0,0
-21,211,0,0,0,0,0,0,0,0,0,-1,1203,813,0,0
-14,211,0,0,0,0,0,0,0,0,0,-1,1210,813,0,0
-7,211,0,0,0,0,0,0,0,0,0,-1,1217,813,0,0
0,211,0,0,0,0,0,0,0,0,0,-1,1224,813,0,0
7,211,0,0,0,0,0,0,0,0,0,-1,1231,813,0,0
14,211,0,0,0,0,0,0,0,0,0,-1,1238,813,0,0
21,211,0,0,0,0,0,0,0,0,0,-1,1245,813,0,0
28,211,0,0,0,0,0,0,0,0,0,-1,1252,813,0,0
35,211,0,0,0,0,0,0,0,0,0,-1,1259,813,0,0
42,211,0,0,0,0,0,0,0,0,0,-1,1266,813,0,0
49,211,0,0,0,0,0,0,0,0,0,-1,1273,813,0,0
56,211,0,0,0,0,0,0,0,0,0,-1,1280,813,0,0
63,211,0,0,0,0,0,0,0,0,0,-1,1287,813,0,0
70,211,0,0,0,0,0,0,0,0,0,-1,1294,813,0,0
77,211,0,0,0,0,0,0,0,0,0,-1,1301,813,0,0
84,211,0,0,0,0,0,0,0,0,0,-1,1308,813,0,0
91,211,0,0,0,0,0,0,0,0,0,-1,1315,813,0,0
98,211,0,0,0,0,0,0,0,0,0,-1,1322,813,0,0
105,211,0,0,0,0,0,0,0,0,0,-1,1329,813,0,0
112,211,0,0,0,0,0,0,0,0,0,-1,1336,813,0,0
119,211,0,0,0,0,0,0,0,0,0,-1,1343,813,0,0
126,211,0,0,0,0,0,0,0,0,0,-1,1350,813,0,0
133,211,0,0,0,0,0,0,0,0,0,-1,1357,813,0,0
140,211,0,0,0,0,0,0,0,0,0,-1,1364,813,0,0
147,211,0,0,0,0,0,0,0,0,0,-1,1371,813,0,0
154,211,0,0,0,0,0,0,0,0,0,-1,1378,813,0,0
161,211,0,0,0,0,0,0,0,0,0,-1,1385,813,0,0
168,211,0,0,0,0,0,0,0,0,0,-1,1392,813,0,0
175,211,0,0,0,0,0,0,0,0,0,-1,1399,813,0,0
182,211,0,0,0,0,0,0,0,0,0,-1,1406,813,0,0
189,211,0,0,0,0,0,0,0,0,0,-1,1413,813,0,0
196,211,0,0,0,0,0,0,0,0,0,-1,1420,813,0,0
203,211,0,0,0,0,0,0,0,0,0,-1,1427,813,0,0
210,211,0,0,0,0,0,0,0,0,0,-1,1434,813,0,0
217,211,0,0,0,0,0,0,0,0,0,-1,1441,813,0,0
224,211,0,0,0,0,0,0,0,0,0,-1,1448,813,0,0
231,211,0,0,0,0,0,0,0,0,0,-1,1455,813,0,0
238,211,0,0,0,0,0,0,0,0,0,-1,1462,813,0,0
245,211,0,0,0,0,0,0,0,0,0,-1,1469,813,0,0
252,211,0,0,0,0,0,0,0,0,0,-1,1476,813,0,0
259,211,0,0,0,0,0,0,0,0,0,-1,1483,813,0,0
266,211,0,0,0,0,0,0,0,0,0,-1,1490,813,0,0
273,211,0,0,0,0,0,0,0,0,0,-1,1497,813,0,0
280,211,0,0,0,0,0,0,0,0,0,-1,1504,813,0,0
287,211,0,0,0,0,0,0,0,0,0,-1,1511,813,0,0
294,211,0,0,0,0,0,0,0,0,0,-1,1518,813,0,0
301,211,0,0,0,0,0,0,0,0,0,-1,1525,813,0,0
308,211,0,0,0,0,0,0,0,0,0,-1,1532,813,0,0
315,211,0,0,0,0,0,0,0,0,0,-1,1539,813,0,0
322,211,0,0,0,0,0,0,0,0,0,-1,1546,813,0,0
329,211,0,0,0,0,0,0,0,0,0,-1,1553,813,0,0
336,211,0,0,0,0,0,0,0,0,0,-1,1560,813,0,0
343,211,0,0,0,0,0,0,0,0,0,-1,1567,813,0,0
350,211,0,0,0,0,0,0,0,0,0,-1,1574,813,0,0
357,211,0,0,0,0,0,0,0,0,0,-1,1581,813,0,0
364,211,0,0,0,0,0,0,0,0,0,-1,1588,813,0,0
371,211,0,0,0,0,0,0,0,0,0,-1,1595,813,0,0
378,211,0,0,0,0,0,0,0,0,0,-1,1602,813,0,0
385,211,0,0,0,0,0,0,0,0,0,-1,1609,813,0,0
392,211,0,0,0,0,0,0,0,0,0,-1,1616,813,0,0
399,211,0,0,0,0,0,0,0,0,0,-1,1623,813,0,0
406,211,0,0,0,0,0,0,0,0,0,-1,1630,813,0,0
413,211,0,0,0,0,0,0,0,0,0,-1,1637,813,0,0
420,211,0,0,0,0,0,0,0,0,0,-1,1644,813,0,0
427,211,0,0,0,0,0,0,0,0,0,-1,1651,813,0,0
434,211,0,0,0,0,0,0,0,0,0,-1,1658,813,0,0
441,211,0,0,0,0,0,0,0,0,0,-1,1665,813,0,0
448,211,0,0,0,0,0,0,0,0,0,-1,1672,813,0,0
455,211,0,0,0,0,0,0,0,0,0,-1,1679,813,0,0
462,211,0,0,0,0,0,0,0,0,0,-1,1686,813,0,0
469,211,0,0,0,0,0,0,0,0,0,-1,1693,813,0,0
476,211,0,0,0,0,0,0,0,0,0,-1,1700,813,0,0
483,211,0,0,0,0,0,0,0,0,0,-1,1707,813,0,0
490,211,0,0,0,0,0,0,0,0,0,-1,1714,813,0,0
497,211,0,0,0,0,0,0,0,0,0,-1,1721,813,0,0
504,211,0,0,0,0,0,0,0,0,0,-1,1728,813,0,0
511,211,0,0,0,0,0,0,0,0,0,-1,1735,813,0,0
518,211,0,0,0,0,0,0,0,0,0,-1,1742,813,0,0
525,211,0,0,0,0,0,0,0,0,0,-1,1749,813,0,0
532,211,0,0,0,0,0,0,0,0,0,-1,1756,813,0,0
539,211,0,0,0,0,0,0,0,0,0,-1,1763,813,0,0
546,211,0,0,0,0,0,0,0,0,0,-1,1770,813,0,0
553,211,0,0,0,0,0,0,0,0,0,-1,1777,813,0,0
560,211,0,0,0,0,0,0,0,0,0,-1,1784,813,0,0
567,211,0,0,0,0,0,0,0,0,0,-1,1791,813,0,0
574,211,0,0,0,0,0,0,0,0,0,-1,1798,813,0,0
581,211,0,0,0,0,0,0,0,0,0,-1,1805,813,0,0
588,211,0,0,0,0,0,0,0,0,0,-1,1812,813,0,0
595,211,76.6317,2.10352,-0.00570499,-0.00212054,0.000718427,-0.00198191,-0.00584362,1.38017,0.00343151,0.0386077,1819,813,76.6317,-2.10352
602,211,76.572,2.03467,-0.00303199,-0.00190479,0.00121378,-0.00113014,-0.00380664,1.00275,0.0022574,0.0355864,1826,813,76.572,-2.03468
609,211,76.4906,2.22723,-0.00132322,-0.00178552,0.00139696,-0.000138415,-0.00297033,0.703408,0.00193573,0.0353736,1833,813,76.4906,-2.22722
616,211,76.4729,2.28192,-0.000443544,-0.00160315,0.0012077,0.000316319,-0.00236302,0.561601,0.00169068,0.0294047,1840,813,76.473,-2.28194
623,211,76.5446,2.19452,3.06393e-05,-0.00140734,0.000825956,0.000406706,-0.00178341,0.427261,0.00134516,0.0301292,1847,813,76.5446,-2.1945
630,211,76.6322,2.11792,0.000199635,-0.000736427,0.00063376,0.000519452,-0.00105624,0.467348,0.000927159,0.0361827,1854,813,76.6322,-2.1179
637,211,76.5604,2.26575,0,0,0,0,0,0,0,-1,1861,813,76.5605,-2.26577
644,211,66.401,2.3595,0,0,0,0,0,0,0,-1,1868,813,66.401,-2.35952
651,211,48.5043,2.95557,0,0,0,0,0,0,0,-1,1875,813,48.5043,-2.95558
658,211,27.7909,1.52234,0,0,0,0,0,0,0,-1,1882,813,27.7909,-1.52234
665,211,42.2053,-0.745605,0,0,0,0,0,0,0,-1,1889,813,42.2054,0.745605
672,211,53.189,-1.99603,0,0,0,0,0,0,0,-1,1896,813,53.189,1.99603
679,211,57.4625,-1.57043,0,0,0,0,0,0,0,-1,1903,813,57.4625,1.57042
686,211,57.5574,-0.806641,-0.000414552,0.000498724,-0.000500409,0.000719528,-0.000635356,-1.15525,0.000782746,0.0324078,1910,813,57.5573,0.806647
693,211,57.4895,0.0684204,-0.000262061,0.000335169,-0.000513181,0.000630292,-0.000557185,-1.0489,0.000686023,0.0156098,1917,813,57.4895,-0.0684231
700,211,57.3912,0.967957,0.000340368,0.000335436,-0.000512973,0.000850881,-0.000175077,-0.782994,0.000633726,0.0153346,1924,813,57.3912,-0.96797
707,211,57.3862,1.93176,0.000986798,0.000702167,-0.000360312,0.00123188,0.000457083,-0.597313,0.000719069,0.0230612,1931,813,57.3862,-1.93177
714,211,57.3754,2.8761,0.00186174,0.00131104,-4.6796e-05,0.00186569,0.0013071,-0.0841721,0.00110567,0.0230096,1938,813,57.3754,-2.87609
721,211,57.3219,3.72137,0.00291293,0.00202775,0.000364461,0.00304368,0.001897,0.344445,0.00177498,0.0185423,1945,813,57.3219,-3.72135
728,211,57.2719,4.65173,0.0042014,0.00283854,0.000893336,0.00464353,0.0023964,0.459579,0.00268141,0.0208848,1952,813,57.2719,-4.65176
735,211,57.3408,5.65778,0.00584925,0.00395861,0.00160888,0.00676998,0.00303789,0.519786,0.00391549,0.0396023,1959,813,57.3408,-5.65779
742,211,57.1473,6.3692,0,0,0,0,0,0,0,-1,1966,813,57.1474,-6.3692
749,211,56.4197,7.422,0,0,0,0,0,0,0,-1,1973,813,56.4197,-7.42201
756,211,53.679,6.68317,0,0,0,0,0,0,0,-1,1980,813,53.6789,-6.68316
763,211,53.2612,7.49786,0,0,0,0,0,0,0,-1,1987,813,53.2612,-7.49788
770,211,46.2148,12.9099,0,0,0,0,0,0,0,-1,1994,813,46.2148,-12.9099
777,211,0,0,0,0,0,0,0,0,0,-1,2001,813,0,0
784,211,0,0,0,0,0,0,0,0,0,-1,2008,813,0,0
791,211,0,0,0,0,0,0,0,0,0,-1,2015,813,0,0
798,211,0,0,0,0,0,0,0,0,0,-1,2022,813,0,0
805,211,0,0,0,0,0,0,0,0,0,-1,2029,813,0,0
812,211,0,0,0,0,0,0,0,0,0,-1,2036,813,0,0
-700,204,0,0,0,0,0,0,0,0,0,-1,524,820,0,0
-693,204,0,0,0,0,0,0,0,0,0,-1,531,820,0,0
-686,204,0,0,0,0,0,0,0,0,0,-1,538,820,0,0
-679,204,0,0,0,0,0,0,0,0,0,-1,545,820,0,0
-672,204,0,0,0,0,0,0,0,0,0,-1,552,820,0,0
-665,204,0,0,0,0,0,0,0,0,0,-1,559,820,0,0
-658,204,0,0,0,0,0,0,0,0,0,-1,566,820,0,0
-651,204,-40.064,5.25806,0,0,0,0,0,0,0,-1,573,820,-40.064,-5.25806
-644,204,-40.4117,4.54321,0,0,0,0,0,0,0,-1,580,820,-40.4117,-4.54323
-637,204,-40.8671,3.93817,0,0,0,0,0,0,0,-1,587,820,-40.8671,-3.93819
-630,204,-41.7101,3.04382,0,0,0,0,0,0,0,-1,594,820,-41.7101,-3.04383
-623,204,-41.8597,2.11951,0,0,0,0,0,0,0,-1,601,820,-41.8597,-2.11951
-616,204,-42.0419,6.28906,0,0,0,0,0,0,0,-1,608,820,-42.0419,-6.28906
-609,204,-42.0809,5.33331,-0.0114619,0.00736943,-9.66431e-05,0.00736992,-0.0114624,-1.56566,0.0109581,0.0382393,615,820,-42.0809,-5.33332
-602,204,-42.2497,4.39752,-0.00862743,0.00557474,7.92918e-06,0.00557474,-0.00862744,1.57024,0.00826253,0.0192278,622,820,-42.2497,-4.39753
-595,204,-42.3422,3.48199,-0.00586329,0.00424516,-7.92584e-05,0.00424578,-0.00586391,-1.56296,0.0058617,0.0164314,629,820,-42.3422,-3.48197
-588,204,-42.3889,2.57068,-0.00340614,0.003163,9.65511e-05,0.00316442,-0.00340756,1.5561,0.0037952,0.0136897,636,820,-42.3889,-2.57067
-581,204,-42.4615,1.6601,-0.0012159,0.00225987,0.00040862,0.00230726,-0.0012633,1.45533,0.00209063,0.013067,643,820,-42.4616,-1.66009
-574,204,-42.4964,0.766113,0.000432406,0.00162523,0.000590702,0.00186825,0.000189392,1.1805,0.00118741,0.0137201,650,820,-42.4964,-0.766093
-567,204,-42.5234,-0.12915,0.00145304,0.00129717,0.000471222,0.00185273,0.000897481,0.703441,0.00106985,0.0148015,657,820,-42.5234,0.129144
-560,204,-42.3644,-1.13062,0.00187938,0.0012073,0.000586102,0.00221894,0.000867737,0.525103,0.0012912,0.0369789,664,820,-42.3644,1.1306
-553,204,-42.7364,-2.05737,0,0,0,0,0,0,0,-1,671,820,-42.7364,2.05738
-546,204,-43.0466,-2.74548,0,0,0,0,0,0,0,-1,678,820,-43.0466,2.74547
-539,204,-42.7792,-3.61493,0,0,0,0,0,0,0,-1,685,820,-42.7792,3.61494
-532,204,-30.0565,-3.29065,0,0,0,0,0,0,0,-1,692,820,-30.0565,3.29063
-525,204,-25.7137,1.52496,0,0,0,0,0,0,0,-1,699,820,-25.7137,-1.52496
-518,204,-43.4591,0.383972,0,0,0,0,0,0,0,-1,706,820,-43.4591,-0.383942
-511,204,-59.0981,0.594971,0,0,0,0,0,0,0,-1,713,820,-59.0982,-0.594998
-504,204,-60.3677,0.269958,0,0,0,0,0,0,0,-1,720,820,-60.3677,-0.269937
-497,204,-60.305,0.407593,0.00449522,0.00561953,0.00151569,0.00667395,0.0034408,0.96298,0.00385383,0.0403761,727,820,-60.305,-0.407574
-490,204,-60.263,0.35907,0.0055401,0.00564336,0.000679803,0.00627349,0.00490997,0.823301,0.00381004,0.0341372,734,820,-60.263,-0.3591
-483,204,-60.1393,0.345764,0.00678853,0.00497111,0.00012933,0.00679769,0.00496195,0.0706869,0.00406064,0.0379248,741,820,-60.1393,-0.34576
-476,204,0,0,0,0,0,0,0,0,0,-1,748,820,0,0
-469,204,0,0,0,0,0,0,0,0,0,-1,755,820,0,0
-462,204,0,0,0,0,0,0,0,0,0,-1,762,820,0,0
-455,204,0,0,0,0,0,0,0,0,0,-1,769,820,0,0
-448,204,0,0,0,0,0,0,0,0,0,-1,776,820,0,0
-441,204,0,0,0,0,0,0,0,0,0,-1,783,820,0,0
-434,204,0,0,0,0,0,0,0,0,0,-1,790,820,0,0
-427,204,0,0,0,0,0,0,0,0,0,-1,797,820,0,0
-420,204,0,0,0,0,0,0,0,0,0,-1,804,820,0,0
-413,204,0,0,0,0,0,0,0,0,0,-1,811,820,0,0
-406,204,0,0,0,0,0,0,0,0,0,-1,818,820,0,0
-399,204,0,0,0,0,0,0,0,0,0,-1,825,820,0,0
-392,204,0,0,0,0,0,0,0,0,0,-1,832,820,0,0
-385,204,0,0,0,0,0,0,0,0,0,-1,839,820,0,0
-378,204,0,0,0,0,0,0,0,0,0,-1,846,820,0,0
-371,204,0,0,0,0,0,0,0,0,0,-1,853,820,0,0
-364,204,0,0,0,0,0,0,0,0,0,-1,860,820,0,0
-357,204,0,0,0,0,0,0,0,0,0,-1,867,820,0,0
-350,204,0,0,0,0,0,0,0,0,0,-1,874,820,0,0
-343,204,0,0,0,0,0,0,0,0,0,-1,881,820,0,0
-336,204,0,0,0,0,0,0,0,0,0,-1,888,820,0,0
-329,204,0,0,0,0,0,0,0,0,0,-1,895,820,0,0
-322,204,0,0,0,0,0,0,0,0,0,-1,902,820,0,0
-315,204,0,0,0,0,0,0,0,0,0,-1,909,820,0,0
-308,204,0,0,0,0,0,0,0,0,0,-1,916,820,0,0
-301,204,0,0,0,0,0,0,0,0,0,-1,923,820,0,0
-294,204,0,0,0,0,0,0,0,0,0,-1,930,820,0,0
-287,204,0,0,0,0,0,0,0,0,0,-1,937,820,0,0
-280,204,0,0,0,0,0,0,0,0,0,-1,944,820,0,0
-273,204,0,0,0,0,0,0,0,0,0,-1,951,820,0,0
-266,204,0,0,0,0,0,0,0,0,0,-1,958,820,0,0
-259,204,0,0,0,0,0,0,0,0,0,-1,965,820,0,0
-252,204,0,0,0,0,0,0,0,0,0,-1,972,820,0,0
-245,204,0,0,0,0,0,0,0,0,0,-1,979,820,0,0
-238,204,0,0,0,0,0,0,0,0,0,-1,986,820,0,0
-231,204,0,0,0,0,0,0,0,0,0,-1,993,820,0,0
-224,204,0,0,0,0,0,0,0,0,0,-1,1000,820,0,0
-217,204,0,0,0,0,0,0,0,0,0,-1,1007,820,0,0
-210,204,0,0,0,0,0,0,0,0,0,-1,1014,820,0,0
-203,204,0,0,0,0,0,0,0,0,0,-1,1021,820,0,0
-196,204,0,0,0,0,0,0,0,0,0,-1,1028,820,0,0
-189,204,0,0,0,0,0,0,0,0,0,-1,1035,820,0,0
-182,204,0,0,0,0,0,0,0,0,0,-1,1042,820,0,0
-175,204,0,0,0,0,0,0,0,0,0,-1,1049,820,0,0
-168,204,0,0,0,0,0,0,0,0,0,-1,1056,820,0,0
-161,204,0,0,0,0,0,0,0,0,0,-1,1063,820,0,0
-154,204,0,0,0,0,0,0,0,0,0,-1,1070,820,0,0
-147,204,0,0,0,0,0,0,0,0,0,-1,1077,820,0,0
-140,204,0,0,0,0,0,0,0,0,0,-1,1084,820,0,0
-133,204,0,0,0,0,0,0,0,0,0,-1,1091,820,0,0
-126,204,0,0,0,0,0,0,0,0,0,-1,1098,820,0,0
-119,204,0,0,0,0,0,0,0,0,0,-1,1105,820,0,0
-112,204,0,0,0,0,0,0,0,0,0,-1,1112,820,0,0
-105,204,0,0,0,0,0,0,0,0,0,-1,1119,820,0,0
-98,204,0,0,0,0,0,0,0,0,0,-1,1126,820,0,0
-91,204,0,0,0,0,0,0,0,0,0,-1,1133,820,0,0
-84,204,0,0,0,0,0,0,0,0,0,-1,1140,820,0,0
-77,204,0,0,0,0,0,0,0,0,0,-1,1147,820,0,0
-70,204,0,0,0,0,0,0,0,0,0,-1,1154,820,0,0
-63,204,0,0,0,0,0,0,0,0,0,-1,1161,820,0,0
-56,204,0,0,0,0,0,0,0,0,0,-1,1168,820,0,0
-49,204,0,0,0,0,0,0,0,0,0,-1,1175,820,0,0
-42,204,0,0,0,0,0,0,0,0,0,-1,1182,820,0,0
-35,204,0,0,0,0,0,0,0,0,0,-1,1189,820,0,0
-28,204,0,0,0,0,0,0,0,0,0,-1,1196,820,0,0
-21,204,0,0,0,0,0,0,0,0,0,-1,1203,820,0,0
-14,204,0,0,0,0,0,0,0,0,0,-1,1210,820,0,0
-7,204,0,0,0,0,0,0,0,0,0,-1,1217,820,0,0
0,204,0,0,0,0,0,0,0,0,0,-1,1224,820,0,0
7,204,0,0,0,0,0,0,0,0,0,-1,1231,820,0,0
14,204,0,0,0,0,0,0,0,0,0,-1,1238,820,0,0
21,204,0,0,0,0,0,0,0,0,0,-1,1245,820,0,0
28,204,0,0,0,0,0,0,0,0,0,-1,1252,820,0,0
35,204,0,0,0,0,0,0,0,0,0,-1,1259,820,0,0
42,204,0,0,0,0,0,0,0,0,0,-1,1266,820,0,0
49,204,0,0,0,0,0,0,0,0,0,-1,1273,820,0,0
56,204,0,0,0,0,0,0,0,0,0,-1,1280,820,0,0
63,204,0,0,0,0,0,0,0,0,0,-1,1287,820,0,0
70,204,0,0,0,0,0,0,0,0,0,-1,1294,820,0,0
77,204,0,0,0,0,0,0,0,0,0,-1,1301,820,0,0
84,204,0,0,0,0,0,0,0,0,0,-1,1308,820,0,0
91,204,0,0,0,0,0,0,0,0,0,-1,1315,820,0,0
98,204,0,0,0,0,0,0,0,0,0,-1,1322,820,0,0
105,204,0,0,0,0,0,0,0,0,0,-1,1329,820,0,0
112,204,0,0,0,0,0,0,0,0,0,-1,1336,820,0,0
119,204,0,0,0,0,0,0,0,0,0,-1,1343,820,0,0
126,204,0,0,0,0,0,0,0,0,0,-1,1350,820,0,0
133,204,0,0,0,0,0,0,0,0,0,-1,1357,820,0,0
140,204,0,0,0,0,0,0,0,0,0,-1,1364,820,0,0
147,204,0,0,0,0,0,0,0,0,0,-1,1371,820,0,0
154,204,0,0,0,0,0,0,0,0,0,-1,1378,820,0,0
161,204,0,0,0,0,0,0,0,0,0,-1,1385,820,0,0
168,204,0,0,0,0,0,0,0,0,0,-1,1392,820,0,0
175,204,0,0,0,0,0,0,0,0,0,-1,1399,820,0,0
182,204,0,0,0,0,0,0,0,0,0,-1,1406,820,0,0
189,204,0,0,0,0,0,0,0,0,0,-1,1413,820,0,0
196,204,0,0,0,0,0,0,0,0,0,-1,1420,820,0,0
203,204,0,0,0,0,0,0,0,0,0,-1,1427,820,0,0
210,204,0,0,0,0,0,0,0,0,0,-1,1434,820,0,0
217,204,0,0,0,0,0,0,0,0,0,-1,1441,820,0,0
224,204,0,0,0,0,0,0,0,0,0,-1,1448,820,0,0
231,204,0,0,0,0,0,0,0,0,0,-1,1455,820,0,0
238,204,0,0,0,0,0,0,0,0,0,-1,1462,820,0,0
245,204,0,0,0,0,0,0,0,0,0,-1,1469,820,0,0
252,204,0,0,0,0,0,0,0,0,0,-1,1476,820,0,0
259,204,0,0,0,0,0,0,0,0,0,-1,1483,820,0,0
266,204,0,0,0,0,0,0,0,0,0,-1,1490,820,0,0
273,204,0,0,0,0,0,0,0,0,0,-1,1497,820,0,0
280,204,0,0,0,0,0,0,0,0,0,-1,1504,820,0,0
287,204,0,0,0,0,0,0,0,0,0,-1,1511,820,0,0
294,204,0,0,0,0,0,0,0,0,0,-1,1518,820,0,0
301,204,0,0,0,0,0,0,0,0,0,-1,1525,820,0,0
308,204,0,0,0,0,0,0,0,0,0,-1,1532,820,0,0
315,204,0,0,0,0,0,0,0,0,0,-1,1539,820,0,0
322,204,0,0,0,0,0,0,0,0,0,-1,1546,820,0,0
329,204,0,0,0,0,0,0,0,0,0,-1,1553,820,0,0
336,204,0,0,0,0,0,0,0,0,0,-1,1560,820,0,0
343,204,0,0,0,0,0,0,0,0,0,-1,1567,820,0,0
350,204,0,0,0,0,0,0,0,0,0,-1,1574,820,0,0
357,204,0,0,0,0,0,0,0,0,0,-1,1581,820,0,0
364,204,0,0,0,0,0,0,0,0,0,-1,1588,820,0,0
371,204,0,0,0,0,0,0,0,0,0,-1,1595,820,0,0
378,204,0,0,0,0,0,0,0,0,0,-1,1602,820,0,0
385,204,0,0,0,0,0,0,0,0,0,-1,1609,820,0,0
392,204,0,0,0,0,0,0,0,0,0,-1,1616,820,0,0
399,204,0,0,0,0,0,0,0,0,0,-1,1623,820,0,0
406,204,0,0,0,0,0,0,0,0,0,-1,1630,820,0,0
413,204,0,0,0,0,0,0,0,0,0,-1,1637,820,0,0
420,204,0,0,0,0,0,0,0,0,0,-1,1644,820,0,0
427,204,0,0,0,0,0,0,0,0,0,-1,1651,820,0,0
434,204,0,0,0,0,0,0,0,0,0,-1,1658,820,0,0
441,204,0,0,0,0,0,0,0,0,0,-1,1665,820,0,0
448,204,0,0,0,0,0,0,0,0,0,-1,1672,820,0,0
455,204,0,0,0,0,0,0,0,0,0,-1,1679,820,0,0
462,204,0,0,0,0,0,0,0,0,0,-1,1686,820,0,0
469,204,0,0,0,0,0,0,0,0,0,-1,1693,820,0,0
476,204,0,0,0,0,0,0,0,0,0,-1,1700,820,0,0
483,204,0,0,0,0,0,0,0,0,0,-1,1707,820,0,0
490,204,0,0,0,0,0,0,0,0,0,-1,1714,820,0,0
497,204,0,0,0,0,0,0,0,0,0,-1,1721,820,0,0
504,204,0,0,0,0,0,0,0,0,0,-1,1728,820,0,0
511,204,0,0,0,0,0,0,0,0,0,-1,1735,820,0,0
518,204,0,0,0,0,0,0,0,0,0,-1,1742,820,0,0
525,204,0,0,0,0,0,0,0,0,0,-1,1749,820,0,0
532,204,0,0,0,0,0,0,0,0,0,-1,1756,820,0,0
539,204,0,0,0,0,0,0,0,0,0,-1,1763,820,0,0
546,204,0,0,0,0,0,0,0,0,0,-1,1770,820,0,0
553,204,0,0,0,0,0,0,0,0,0,-1,1777,820,0,0
560,204,0,0,0,0,0,0,0,0,0,-1,1784,820,0,0
567,204,0,0,0,0,0,0,0,0,0,-1,1791,820,0,0
574,204,0,0,0,0,0,0,0,0,0,-1,1798,820,0,0
581,204,0,0,0,0,0,0,0,0,0,-1,1805,820,0,0
588,204,0,0,0,0,0,0,0,0,0,-1,1812,820,0,0
595,204,0,0,0,0,0,0,0,0,0,-1,1819,820,0,0
602,204,76.5579,2.20569,-0.00343159,-0.000501218,0.00019939,-0.000487713,-0.0034451,1.50317,0.00215266,0.0385274,1826,820,76.5579,-2.20566
609,204,76.4862,2.33221,-0.00164436,-0.000771258,0.000494241,-0.000548377,-0.00186724,1.14715,0.00110822,0.040652,1833,820,76.4863,-2.33224
616,204,76.5889,2.2262,-0.000497953,-0.00101671,0.000603185,-0.000100742,-0.00141392,0.582344,0.000910891,0.0362673,1840,820,76.5888,-2.2262
623,204,76.5739,2.14606,0.000193284,-0.00109784,0.000544469,0.000392232,-0.00129679,0.350325,0.00102071,0.02773,1847,820,76.5738,-2.14608
630,204,76.6019,2.12488,0.000453112,-0.000473294,0.000495035,0.00066786,-0.000688041,0.409303,0.000782859,0.0270932,1854,820,76.6019,-2.12489
637,204,76.5875,2.18091,0.000458323,-0.000200339,7.06289e-05,0.000465811,-0.000207827,0.105631,0.000398319,0.0382688,1861,820,76.5875,-2.1809
644,204,76.5757,2.22009,0,0,0,0,0,0,0,-1,1868,820,76.5756,-2.22008
651,204,53.7611,2.32251,0,0,0,0,0,0,0,-1,1875,820,53.7611,-2.32249
658,204,34.9631,1.64844,0,0,0,0,0,0,0,-1,1882,820,34.9631,-1.64842
665,204,21.8292,1.51099,0,0,0,0,0,0,0,-1,1889,820,21.8292,-1.51099
672,204,58.6624,-2.25623,0,0,0,0,0,0,0,-1,1896,820,58.6623,2.25622
679,204,58.6563,-1.50861,-4.71524e-05,0.000222711,-0.000539761,0.00064415,-0.000468591,-0.90788,0.000645101,0.0461316,1903,820,58.6562,1.50863
686,204,58.6226,-0.743713,-0.000575554,0.000303361,-0.00049124,0.000523024,-0.000795216,-1.15031,0.000766475,0.0285875,1910,820,58.6225,0.743743
693,204,58.2673,0.113831,-0.000546155,9.5563e-05,-0.000522277,0.000387667,-0.000838259,-1.06085,0.000723549,0.0303183,1917,820,58.2673,-0.113825
700,204,58.3062,1.06525,-4.27596e-06,2.33059e-05,-0.000610835,0.000620505,-0.000601475,-0.796685,0.000705539,0.0199457,1924,820,58.3061,-1.06528
707,204,58.2603,2.00012,0.000539468,0.000367107,-0.000532261,0.00099248,-8.59049e-05,-0.705137,0.000692068,0.0179629,1931,820,58.2603,-2.00014
714,204,58.2437,2.96289,0.00138412,0.00102633,-0.000216554,0.00148611,0.000924337,-0.440176,0.000866477,0.0265917,1938,820,58.2437,-2.96288
721,204,58.2133,3.79327,0.00241261,0.00180143,0.000216664,0.00248162,0.00173242,0.308373,0.00146977,0.0231796,1945,820,58.2133,-3.79328
728,204,58.1528,4.65179,0.0036599,0.00265567,0.00076207,0.0040704,0.00224517,0.4941,0.00235421,0.0147222,1952,820,58.1528,-4.65179
735,204,58.0524,5.58636,0.0052147,0.00374173,0.00144803,0.00610277,0.00285366,0.550142,0.0035259,0.019244,1959,820,58.0524,-5.58636
742,204,57.9594,6.44708,0.00721979,0.00474829,0.00219645,0.00850426,0.00346382,0.529161,0.00493798,0.037238,1966,820,57.9593,-6.44711
749,204,57.8726,7.31299,0,0,0,0,0,0,0,-1,1973,820,57.8725,-7.31297
756,204,56.7339,7.99963,0,0,0,0,0,0,0,-1,1980,820,56.7339,-7.99961
763,204,54.1107,7.71759,0,0,0,0,0,0,0,-1,1987,820,54.1107,-7.71761
770,204,53.3718,8.26947,0,0,0,0,0,0,0,-1,1994,820,53.3718,-8.26946
777,204,0,0,0,0,0,0,0,0,0,-1,2001,820,0,0
784,204,0,0,0,0,0,0,0,0,0,-1,2008,820,0,0
791,204,0,0,0,0,0,0,0,0,0,-1,2015,820,0,0
798,204,0,0,0,0,0,0,0,0,0,-1,2022,820,0,0
805,204,0,0,0,0,0,0,0,0,0,-1,2029,820,0,0
812,204,0,0,0,0,0,0,0,0,0,-1,2036,820,0,0
-700,197,0,0,0,0,0,0,0,0,0,-1,524,827,0,0
-693,197,0,0,0,0,0,0,0,0,0,-1,531,827,0,0
-686,197,0,0,0,0,0,0,0,0,0,-1,538,827,0,0
-679,197,0,0,0,0,0,0,0,0,0,-1,545,827,0,0
-672,197,0,0,0,0,0,0,0,0,0,-1,552,827,0,0
-665,197,0,0,0,0,0,0,0,0,0,-1,559,827,0,0
-658,197,-39.9774,5.66638,0,0,0,0,0,0,0,-1,566,827,-39.9774,-5.66637
-651,197,-39.9665,5.23578,0,0,0,0,0,0,0,-1,573,827,-39.9665,-5.23575
-644,197,-38.9225,4.75665,0,0,0,0,0,0,0,-1,580,827,-38.9225,-4.75665
-637,197,-45.2572,7.41498,0,0,0,0,0,0,0,-1,587,827,-45.2572,-7.415
-630,197,-40.4908,2.45648,0,0,0,0,0,0,0,-1,594,827,-40.4908,-2.45649
-623,197,-43.6929,7.67633,0,0,0,0,0,0,0,-1,601,827,-43.6929,-7.67635
-616,197,-42.9368,5.97125,0,0,0,0,0,0,0,-1,608,827,-42.9368,-5.97127
-609,197,-42.9949,5.2207,-0.00955724,0.00703114,0.000158125,0.00703264,-0.00955875,1.56127,0.00961598,0.0356639,615,827,-42.9949,-5.22073
-602,197,-43.1399,4.43182,-0.00721207,0.00524444,0.000368382,0.00525533,-0.00722296,1.54126,0.00723414,0.0207559,622,827,-43.1399,-4.43184
-595,197,-43.2546,3.56763,-0.00486222,0.00387452,0.000428756,0.00389551,-0.00488321,1.52188,0.00507908,0.019598,629,827,-43.2546,-3.56763
-588,197,-43.2857,2.61664,-0.00271669,0.00273447,0.000667249,0.00281496,-0.00279718,1.45075,0.00324017,0.021201,636,827,-43.2857,-2.61666
-581,197,-43.3724,1.71588,-0.000788982,0.00184046,0.000987433,0.00216997,-0.0011185,1.24871,0.00193068,0.0128001,643,827,-43.3724,-1.71591
-574,197,-43.4133,0.811584,0.000537405,0.00134728,0.00100286,0.00202387,-0.000139185,0.977279,0.00139795,0.0140973,650,827,-43.4133,-0.81157
-567,197,-43.3459,-0.0464478,0.00137636,0.0011104,0.000659221,0.00191588,0.000570881,0.685873,0.00113583,0.0207581,657,827,-43.3459,0.0464597
-560,197,-43.2674,-1.09357,0,0,0,0,0,0,0,-1,664,827,-43.2674,1.09357
-553,197,-33.1771,-1.4881,0,0,0,0,0,0,0,-1,671,827,-33.1771,1.4881
-546,197,-44.0825,-2.47827,0,0,0,0,0,0,0,-1,678,827,-44.0825,2.47828
-539,197,-32.8993,-2.61737,0,0,0,0,0,0,0,-1,685,827,-32.8993,2.61737
-532,197,-16.0519,0.0410156,0,0,0,0,0,0,0,-1,692,827,-16.0519,-0.0410415
-525,197,-35.3785,2.11829,0,0,0,0,0,0,0,-1,699,827,-35.3785,-2.11826
-518,197,-57.6698,0.308533,0,0,0,0,0,0,0,-1,706,827,-57.6698,-0.308561
-511,197,-60.0079,0.762207,0,0,0,0,0,0,0,-1,713,827,-60.0079,-0.762199
-504,197,-60.4697,0.108276,0,0,0,0,0,0,0,-1,720,827,-60.4697,-0.108268
-497,197,-60.5407,0.267334,0.00502318,0.00598372,0.00128002,0.00687061,0.00413629,0.964874,0.00399418,0.0390069,727,827,-60.5407,-0.267364
-490,197,-60.4532,0.381042,0.00620351,0.00610166,0.000181041,0.00634065,0.00596452,0.648304,0.00410747,0.0378119,734,827,-60.4532,-0.381032
-483,197,-60.1774,0.44574,0.0075416,0.00475698,-0.000929444,0.00782332,0.00447525,-0.294309,0.0045324,0.0399979,741,827,-60.1774,-0.445715
-476,197,0,0,0,0,0,0,0,0,0,-1,748,827,0,0
-469,197,0,0,0,0,0,0,0,0,0,-1,755,827,0,0
-462,197,0,0,0,0,0,0,0,0,0,-1,762,827,0,0
-455,197,0,0,0,0,0,0,0,0,0,-1,769,827,0,0
-448,197,0,0,0,0,0,0,0,0,0,-1,776,827,0,0
-441,197,0,0,0,0,0,0,0,0,0,-1,783,827,0,0
-434,197,0,0,0,0,0,0,0,0,0,-1,790,827,0,0
-427,197,0,0,0,0,0,0,0,0,0,-1,797,827,0,0
-420,197,0,0,0,0,0,0,0,0,0,-1,804,827,0,0
-413,197,0,0,0,0,0,0,0,0,0,-1,811,827,0,0
-406,197,0,0,0,0,0,0,0,0,0,-1,818,827,0,0
-399,197,0,0,0,0,0,0,0,0,0,-1,825,827,0,0
-392,197,0,0,0,0,0,0,0,0,0,-1,832,827,0,0
-385,197,0,0,0,0,0,0,0,0,0,-1,839,827,0,0
-378,197,0,0,0,0,0,0,0,0,0,-1,846,827,0,0
-371,197,0,0,0,0,0,0,0,0,0,-1,853,827,0,0
-364,197,0,0,0,0,0,0,0,0,0,-1,860,827,0,0
-357,197,0,0,0,0,0,0,0,0,0,-1,867,827,0,0
-350,197,0,0,0,0,0,0,0,0,0,-1,874,827,0,0
-343,197,0,0,0,0,0,0,0,0,0,-1,881,827,0,0
-336,197,0,0,0,0,0,0,0,0,0,-1,888,827,0,0
-329,197,0,0,0,0,0,0,0,0,0,-1,895,827,0,0
-322,197,0,0,0,0,0,0,0,0,0,-1,902,827,0,0
-315,197,0,0,0,0,0,0,0,0,0,-1,909,827,0,0
-308,197,0,0,0,0,0,0,0,0,0,-1,916,827,0,0
-301,197,0,0,0,0,0,0,0,0,0,-1,923,827,0,0
-294,197,0,0,0,0,0,0,0,0,0,-1,930,827,0,0
-287,197,0,0,0,0,0,0,0,0,0,-1,937,827,0,0
-280,197,0,0,0,0,0,0,0,0,0,-1,944,827,0,0
-273,197,0,0,0,0,0,0,0,0,0,-1,951,827,0,0
-266,197,0,0,0,0,0,0,0,0,0,-1,958,827,0,0
-259,197,0,0,0,0,0,0,0,0,0,-1,965,827,0,0
-252,197,0,0,0,0,0,0,0,0,0,-1,972,827,0,0
-245,197,0,0,0,0,0,0,0,0,0,-1,979,827,0,0
-238,197,0,0,0,0,0,0,0,0,0,-1,986,827,0,0
-231,197,0,0,0,0,0,0,0,0,0,-1,993,827,0,0
-224,197,0,0,0,0,0,0,0,0,0,-1,1000,827,0,0
-217,197,0,0,0,0,0,0,0,0,0,-1,1007,827,0,0
-210,197,0,0,0,0,0,0,0,0,0,-1,1014,827,0,0
-203,197,0,0,0,0,0,0,0,0,0,-1,1021,827,0,0
-196,197,0,0,0,0,0,0,0,0,0,-1,1028,827,0,0
-189,197,0,0,0,0,0,0,0,0,0,-1,1035,827,0,0
-182,197,0,0,0,0,0,0,0,0,0,-1,1042,827,0,0
-175,197,0,0,0,0,0,0,0,0,0,-1,1049,827,0,0
-168,197,0,0,0,0,0,0,0,0,0,-1,1056,827,0,0
-161,197,0,0,0,0,0,0,0,0,0,-1,1063,827,0,0
-154,197,0,0,0,0,0,0,0,0,0,-1,1070,827,0,0
-147,197,0,0,0,0,0,0,0,0,0,-1,1077,827,0,0
-140,197,0,0,0,0,0,0,0,0,0,-1,1084,827,0,0
-133,197,0,0,0,0,0,0,0,0,0,-1,1091,827,0,0
-126,197,0,0,0,0,0,0,0,0,0,-1,1098,827,0,0
-119,197,0,0,0,0,0,0,0,0,0,-1,1105,827,0,0
-112,197,0,0,0,0,0,0,0,0,0,-1,1112,827,0,0
-105,197,0,0,0,0,0,0,0,0,0,-1,1119,827,0,0
-98,197,0,0,0,0,0,0,0,0,0,-1,1126,827,0,0
-91,197,0,0,0,0,0,0,0,0,0,-1,1133,827,0,0
-84,197,0,0,0,0,0,0,0,0,0,-1,1140,827,0,0
-77,197,0,0,0,0,0,0,0,0,0,-1,1147,827,0,0
-70,197,0,0,0,0,0,0,0,0,0,-1,1154,827,0,0
-63,197,0,0,0,0,0,0,0,0,0,-1,1161,827,0,0
-56,197,0,0,0,0,0,0,0,0,0,-1,1168,827,0,0
-49,197,0,0,0,0,0,0,0,0,0,-1,1175,827,0,0
-42,197,0,0,0,0,0,0,0,0,0,-1,1182,827,0,0
-35,197,0,0,0,0,0,0,0,0,0,-1,1189,827,0,0
-28,197,0,0,0,0,0,0,0,0,0,-1,1196,827,0,0
-21,197,0,0,0,0,0,0,0,0,0,-1,1203,827,0,0
-14,197,0,0,0,0,0,0,0,0,0,-1,1210,827,0,0
-7,197,0,0,0,0,0,0,0,0,0,-1,1217,827,0,0
0,197,0,0,0,0,0,0,0,0,0,-1,1224,827,0,0
7,197,0,0,0,0,0,0,0,0,0,-1,1231,827,0,0
14,197,0,0,0,0,0,0,0,0,0,-1,1238,827,0,0
21,197,0,0,0,0,0,0,0,0,0,-1,1245,827,0,0
28,197,0,0,0,0,0,0,0,0,0,-1,1252,827,0,0
35,197,0,0,0,0,0,0,0,0,0,-1,1259,827,0,0
42,197,0,0,0,0,0,0,0,0,0,-1,1266,827,0,0
49,197,0,0,0,0,0,0,0,0,0,-1,1273,827,0,0
56,197,0,0,0,0,0,0,0,0,0,-1,1280,827,0,0
63,197,0,0,0,0,0,0,0,0,0,-1,1287,827,0,0
70,197,0,0,0,0,0,0,0,0,0,-1,1294,827,0,0
77,197,0,0,0,0,0,0,0,0,0,-1,1301,827,0,0
84,197,0,0,0,0,0,0,0,0,0,-1,1308,827,0,0
91,197,0,0,0,0,0,0,0,0,0,-1,1315,827,0,0
98,197,0,0,0,0,0,0,0,0,0,-1,1322,827,0,0
105,197,0,0,0,0,0,0,0,0,0,-1,1329,827,0,0
112,197,0,0,0,0,0,0,0,0,0,-1,1336,827,0,0
119,197,0,0,0,0,0,0,0,0,0,-1,1343,827,0,0
126,197,0,0,0,0,0,0,0,0,0,-1,1350,827,0,0
133,197,0,0,0,0,0,0,0,0,0,-1,1357,827,0,0
140,197,0,0,0,0,0,0,0,0,0,-1,1364,827,0,0
147,197,0,0,0,0,0,0,0,0,0,-1,1371,827,0,0
154,197,0,0,0,0,0,0,0,0,0,-1,1378,827,0,0
161,197,0,0,0,0,0,0,0,0,0,-1,1385,827,0,0
168,197,0,0,0,0,0,0,0,0,0,-1,1392,827,0,0
175,197,0,0,0,0,0,0,0,0,0,-1,1399,827,0,0
182,197,0,0,0,0,0,0,0,0,0,-1,1406,827,0,0
189,197,0,0,0,0,0,0,0,0,0,-1,1413,827,0,0
196,197,0,0,0,0,0,0,0,0,0,-1,1420,827,0,0
203,197,0,0,0,0,0,0,0,0,0,-1,1427,827,0,0
210,197,0,0,0,0,0,0,0,0,0,-1,1434,827,0,0
217,197,0,0,0,0,0,0,0,0,0,-1,1441,827,0,0
224,197,0,0,0,0,0,0,0,0,0,-1,1448,827,0,0
231,197,0,0,0,0,0,0,0,0,0,-1,1455,827,0,0
238,197,0,0,0,0,0,0,0,0,0,-1,1462,827,0,0
245,197,0,0,0,0,0,0,0,0,0,-1,1469,827,0,0
252,197,0,0,0,0,0,0,0,0,0,-1,1476,827,0,0
259,197,0,0,0,0,0,0,0,0,0,-1,1483,827,0,0
266,197,0,0,0,0,0,0,0,0,0,-1,1490,827,0,0
273,197,0,0,0,0,0,0,0,0,0,-1,1497,827,0,0
280,197,0,0,0,0,0,0,0,0,0,-1,1504,827,0,0
287,197,0,0,0,0,0,0,0,0,0,-1,1511,827,0,0
294,197,0,0,0,0,0,0,0,0,0,-1,1518,827,0,0
301,197,0,0,0,0,0,0,0,0,0,-1,1525,827,0,0
308,197,0,0,0,0,0,0,0,0,0,-1,1532,827,0,0
315,197,0,0,0,0,0,0,0,0,0,-1,1539,827,0,0
322,197,0,0,0,0,0,0,0,0,0,-1,1546,827,0,0
329,197,0,0,0,0,0,0,0,0,0,-1,1553,827,0,0
336,197,0,0,0,0,0,0,0,0,0,-1,1560,827,0,0
343,197,0,0,0,0,0,0,0,0,0,-1,1567,827,0,0
350,197,0,0,0,0,0,0,0,0,0,-1,1574,827,0,0
357,197,0,0,0,0,0,0,0,0,0,-1,1581,827,0,0
364,197,0,0,0,0,0,0,0,0,0,-1,1588,827,0,0
371,197,0,0,0,0,0,0,0,0,0,-1,1595,827,0,0
378,197,0,0,0,0,0,0,0,0,0,-1,1602,827,0,0
385,197,0,0,0,0,0,0,0,0,0,-1,1609,827,0,0
392,197,0,0,0,0,0,0,0,0,0,-1,1616,827,0,0
399,197,0,0,0,0,0,0,0,0,0,-1,1623,827,0,0
406,197,0,0,0,0,0,0,0,0,0,-1,1630,827,0,0
413,197,0,0,0,0,0,0,0,0,0,-1,1637,827,0,0
420,197,0,0,0,0,0,0,0,0,0,-1,1644,827,0,0
427,197,0,0,0,0,0,0,0,0,0,-1,1651,827,0,0
434,197,0,0,0,0,0,0,0,0,0,-1,1658,827,0,0
441,197,0,0,0,0,0,0,0,0,0,-1,1665,827,0,0
448,197,0,0,0,0,0,0,0,0,0,-1,1672,827,0,0
455,197,0,0,0,0,0,0,0,0,0,-1,1679,827,0,0
462,197,0,0,0,0,0,0,0,0,0,-1,1686,827,0,0
469,197,0,0,0,0,0,0,0,0,0,-1,1693,827,0,0
476,197,0,0,0,0,0,0,0,0,0,-1,1700,827,0,0
483,197,0,0,0,0,0,0,0,0,0,-1,1707,827,0,0
490,197,0,0,0,0,0,0,0,0,0,-1,1714,827,0,0
497,197,0,0,0,0,0,0,0,0,0,-1,1721,827,0,0
504,197,0,0,0,0,0,0,0,0,0,-1,1728,827,0,0
511,197,0,0,0,0,0,0,0,0,0,-1,1735,827,0,0
518,197,0,0,0,0,0,0,0,0,0,-1,1742,827,0,0
525,197,0,0,0,0,0,0,0,0,0,-1,1749,827,0,0
532,197,0,0,0,0,0,0,0,0,0,-1,1756,827,0,0
539,197,0,0,0,0,0,0,0,0,0,-1,1763,827,0,0
546,197,0,0,0,0,0,0,0,0,0,-1,1770,827,0,0
553,197,0,0,0,0,0,0,0,0,0,-1,1777,827,0,0
560,197,0,0,0,0,0,0,0,0,0,-1,1784,827,0,0
567,197,0,0,0,0,0,0,0,0,0,-1,1791,827,0,0
574,197,0,0,0,0,0,0,0,0,0,-1,1798,827,0,0
581,197,0,0,0,0,0,0,0,0,0,-1,1805,827,0,0
588,197,0,0,0,0,0,0,0,0,0,-1,1812,827,0,0
595,197,0,0,0,0,0,0,0,0,0,-1,1819,827,0,0
602,197,76.5261,2.27533,-0.00341681,0.00139311,-0.000427261,0.00143077,-0.00345447,-1.48288,0.00290004,0.0404826,1826,827,76.5261,-2.27534
609,197,76.568,2.30536,-0.00180991,0.000754216,-0.000218759,0.000772746,-0.00182844,-1.48629,0.00154247,0.0416189,1833,827,76.568,-2.30533
616,197,76.759,2.21802,-0.000719049,5.48613e-05,-3.94729e-05,5.68694e-05,-0.000721057,-1.51997,0.000500739,0.0409985,1840,827,76.7591,-2.21804
623,197,76.6455,2.06964,-3.02827e-05,-0.000479028,0.000115765,-2.17854e-06,-0.000507133,0.238162,0.000337365,0.0360813,1847,827,76.6455,-2.06964
630,197,76.5979,2.07544,0.000279561,-0.000155651,0.000232072,0.00038009,-0.00025618,0.408778,0.000369665,0.0303395,1854,827,76.5979,-2.07545
637,197,76.5791,2.16339,0.000313742,2.84239e-05,-6.23483e-05,0.000326772,1.53945e-05,-0.206014,0.000212902,0.0271448,1861,827,76.5792,-2.16341
644,197,76.4989,2.34119,0,0,0,0,0,0,0,-1,1868,827,76.4989,-2.34117
651,197,73.8147,2.2644,0,0,0,0,0,0,0,-1,1875,827,73.8147,-2.26442
658,197,40.4694,3.05927,0,0,0,0,0,0,0,-1,1882,827,40.4694,-3.05926
665,197,14.0618,1.80304,0,0,0,0,0,0,0,-1,1889,827,14.0617,-1.80303
672,197,59.7051,-2.76007,0,0,0,0,0,0,0,-1,1896,827,59.7051,2.76007
679,197,59.5605,-1.54639,-0.000384122,3.25335e-05,-0.000503506,0.000369108,-0.000720696,-0.981552,0.00064002,0.0411973,1903,827,59.5606,1.54641
686,197,59.4945,-0.556641,-0.00101017,4.13008e-05,-0.000400594,0.000176529,-0.0011454,-1.24524,0.000828733,0.0304068,1910,827,59.4946,0.556616
693,197,59.3345,0.164673,0,0,0,0,0,0,0,-1,1917,827,59.3345,-0.164672
700,197,59.2325,1.1297,-0.000616452,-0.000353471,-0.000590714,0.00012021,-0.00109013,-0.894911,0.00076996,0.034066,1924,827,59.2326,-1.12972
707,197,59.1904,2.08722,-0.000183017,-3.48045e-05,-0.000616662,0.000512189,-0.00073001,-0.845198,0.000720849,0.010573,1931,827,59.1904,-2.08721
714,197,59.1356,2.96649,0.000640231,0.000673863,-0.000361112,0.00101855,0.000295543,-0.808665,0.000605076,0.0132074,1938,827,59.1356,-2.96649
721,197,59.0923,3.83734,0.00171627,0.00154331,4.8409e-05,0.00172889,0.00153068,0.255158,0.00109253,0.0130676,1945,827,59.0923,-3.83734
728,197,59.0319,4.72681,0.00302621,0.00247642,0.000577951,0.00339131,0.00211132,0.563416,0.00197749,0.0111778,1952,827,59.0318,-4.72682
735,197,58.9556,5.6181,0.00461162,0.00357076,0.00120513,0.00540389,0.00277849,0.581569,0.00312035,0.0129498,1959,827,58.9556,-5.61809
742,197,58.848,6.54126,0.00661508,0.00461639,0.0018872,0.00775121,0.00348027,0.541899,0.00448291,0.024237,1966,827,58.848,-6.54125
749,197,58.8547,7.52118,0.00903098,0.00575379,0.0029159,0.0107372,0.00404762,0.529412,0.00626134,0.0480651,1973,827,58.8548,-7.52115
756,197,58.8221,8.49561,0,0,0,0,0,0,0,-1,1980,827,58.8221,-8.49563
763,197,57.4331,9.17389,0,0,0,0,0,0,0,-1,1987,827,57.4331,-9.17388
770,197,54.2329,8.28735,0,0,0,0,0,0,0,-1,1994,827,54.233,-8.28735
777,197,0,0,0,0,0,0,0,0,0,-1,2001,827,0,0
784,197,0,0,0,0,0,0,0,0,0,-1,2008,827,0,0
791,197,0,0,0,0,0,0,0,0,0,-1,2015,827,0,0
798,197,0,0,0,0,0,0,0,0,0,-1,2022,827,0,0
805,197,0,0,0,0,0,0,0,0,0,-1,2029,827,0,0
812,197,0,0,0,0,0,0,0,0,0,-1,2036,827,0,0
-700,190,0,0,0,0,0,0,0,0,0,-1,524,834,0,0
-693,190,0,0,0,0,0,0,0,0,0,-1,531,834,0,0
-686,190,0,0,0,0,0,0,0,0,0,-1,538,834,0,0
-679,190,0,0,0,0,0,0,0,0,0,-1,545,834,0,0
-672,190,0,0,0,0,0,0,0,0,0,-1,552,834,0,0
-665,190,0,0,0,0,0,0,0,0,0,-1,559,834,0,0
-658,190,-41.9736,5.50092,0,0,0,0,0,0,0,-1,566,834,-41.9736,-5.50089
-651,190,-40.1895,4.99677,0,0,0,0,0,0,0,-1,573,834,-40.1894,-4.99677
-644,190,-43.4772,11.1134,0,0,0,0,0,0,0,-1,580,834,-43.4771,-11.1134
-637,190,-43.1797,9.53918,0,0,0,0,0,0,0,-1,587,834,-43.1797,-9.53917
-630,190,-43.9639,8.85596,0,0,0,0,0,0,0,-1,594,834,-43.9639,-8.85598
-623,190,-43.6919,7.56421,0,0,0,0,0,0,0,-1,601,834,-43.6919,-7.56424
-616,190,-43.8235,6.04114,0,0,0,0,0,0,0,-1,608,834,-43.8235,-6.04112
-609,190,-43.9195,5.28784,-0.00781515,0.00689574,0.000604582,0.00692054,-0.00783996,1.52979,0.00852749,0.0268887,615,834,-43.9195,-5.28782
-602,190,-44.0724,4.49762,-0.00609042,0.00505564,0.000917218,0.00513061,-0.0061654,1.48924,0.00653087,0.0183909,622,834,-44.0725,-4.4976
-595,190,-44.1569,3.60773,-0.00431239,0.00358203,0.00108187,0.00372761,-0.00445797,1.43704,0.00473221,0.0210611,629,834,-44.1569,-3.60775
-588,190,-44.2129,2.64648,-0.00267409,0.00233619,0.00132517,0.0026651,-0.00300299,1.32752,0.00327441,0.0212772,636,834,-44.2129,-2.64649
-581,190,-44.242,1.75616,-0.00120522,0.00145493,0.00156599,0.00217946,-0.00192975,1.13746,0.00237392,0.0159499,643,834,-44.242,-1.75619
-574,190,-44.2852,0.870728,-0.00022802,0.00112354,0.00135607,0.00196288,-0.00106737,1.01656,0.0017748,0.0146649,650,834,-44.2852,-0.870744
-567,190,-44.1653,-0.159546,0.00058551,0.000998231,0.000811688,0.00162938,-4.56385e-05,0.909879,0.00110178,0.0334088,657,834,-44.1653,0.159566
-560,190,-43.9293,-1.22577,0,0,0,0,0,0,0,-1,664,834,-43.9292,1.22577
-553,190,-33.9625,-1.6355,0,0,0,0,0,0,0,-1,671,834,-33.9625,1.63552
-546,190,-33.7621,-2.04889,0,0,0,0,0,0,0,-1,678,834,-33.7621,2.04886
-539,190,-16.4624,-0.542542,0,0,0,0,0,0,0,-1,685,834,-16.4624,0.542527
-532,190,-21.6292,2.06122,0,0,0,0,0,0,0,-1,692,834,-21.6292,-2.06123
-525,190,-38.9377,1.03369,0,0,0,0,0,0,0,-1,699,834,-38.9377,-1.0337
-518,190,-59.9504,0.87384,0,0,0,0,0,0,0,-1,706,834,-59.9504,-0.873822
-511,190,-60.1885,0.382813,0,0,0,0,0,0,0,-1,713,834,-60.1885,-0.382788
-504,190,-60.1855,0.838501,0,0,0,0,0,0,0,-1,720,834,-60.1855,-0.838501
-497,190,-60.4041,0.849487,0,0,0,0,0,0,0,-1,727,834,-60.4041,-0.849496
-490,190,-60.4883,0.553955,0,0,0,0,0,0,0,-1,734,834,-60.4883,-0.553961
-483,190,0,0,0,0,0,0,0,0,0,-1,741,834,0,0
-476,190,0,0,0,0,0,0,0,0,0,-1,748,834,0,0
-469,190,0,0,0,0,0,0,0,0,0,-1,755,834,0,0
-462,190,0,0,0,0,0,0,0,0,0,-1,762,834,0,0
-455,190,0,0,0,0,0,0,0,0,0,-1,769,834,0,0
-448,190,0,0,0,0,0,0,0,0,0,-1,776,834,0,0
-441,190,0,0,0,0,0,0,0,0,0,-1,783,834,0,0
-434,190,0,0,0,0,0,0,0,0,0,-1,790,834,0,0
-427,190,0,0,0,0,0,0,0,0,0,-1,797,834,0,0
-420,190,0,0,0,0,0,0,0,0,0,-1,804,834,0,0
-413,190,0,0,0,0,0,0,0,0,0,-1,811,834,0,0
-406,190,0,0,0,0,0,0,0,0,0,-1,818,834,0,0
-399,190,0,0,0,0,0,0,0,0,0,-1,825,834,0,0
-392,190,0,0,0,0,0,0,0,0,0,-1,832,834,0,0
-385,190,0,0,0,0,0,0,0,0,0,-1,839,834,0,0
-378,190,0,0,0,0,0,0,0,0,0,-1,846,834,0,0
-371,190,0,0,0,0,0,0,0,0,0,-1,853,834,0,0
-364,190,0,0,0,0,0,0,0,0,0,-1,860,834,0,0
-357,190,0,0,0,0,0,0,0,0,0,-1,867,834,0,0
-350,190,0,0,0,0,0,0,0,0,0,-1,874,834,0,0
-343,190,0,0,0,0,0,0,0,0,0,-1,881,834,0,0
-336,190,0,0,0,0,0,0,0,0,0,-1,888,834,0,0
-329,190,0,0,0,0,0,0,0,0,0,-1,895,834,0,0
-322,190,0,0,0,0,0,0,0,0,0,-1,902,834,0,0
-315,190,0,0,0,0,0,0,0,0,0,-1,909,834,0,0
-308,190,0,0,0,0,0,0,0,0,0,-1,916,834,0,0
-301,190,0,0,0,0,0,0,0,0,0,-1,923,834,0,0
-294,190,0,0,0,0,0,0,0,0,0,-1,930,834,0,0
-287,190,0,0,0,0,0,0,0,0,0,-1,937,834,0,0
-280,190,0,0,0,0,0,0,0,0,0,-1,944,834,0,0
-273,190,0,0,0,0,0,0,0,0,0,-1,951,834,0,0
-266,190,0,0,0,0,0,0,0,0,0,-1,958,834,0,0
-259,190,0,0,0,0,0,0,0,0,0,-1,965,834,0,0
-252,190,0,0,0,0,0,0,0,0,0,-1,972,834,0,0
-245,190,0,0,0,0,0,0,0,0,0,-1,979,834,0,0
-238,190,0,0,0,0,0,0,0,0,0,-1,986,834,0,0
-231,190,0,0,0,0,0,0,0,0,0,-1,993,834,0,0
-224,190,0,0,0,0,0,0,0,0,0,-1,1000,834,0,0
-217,190,0,0,0,0,0,0,0,0,0,-1,1007,834,0,0
-210,190,0,0,0,0,0,0,0,0,0,-1,1014,834,0,0
-203,190,0,0,0,0,0,0,0,0,0,-1,1021,834,0,0
-196,190,0,0,0,0,0,0,0,0,0,-1,1028,834,0,0
-189,190,0,0,0,0,0,0,0,0,0,-1,1035,834,0,0
-182,190,0,0,0,0,0,0,0,0,0,-1,1042,834,0,0
-175,190,0,0,0,0,0,0,0,0,0,-1,1049,834,0,0
-168,190,0,0,0,0,0,0,0,0,0,-1,1056,834,0,0
-161,190,0,0,0,0,0,0,0,0,0,-1,1063,834,0,0
-154,190,0,0,0,0,0,0,0,0,0,-1,1070,834,0,0
-147,190,0,0,0,0,0,0,0,0,0,-1,1077,834,0,0
-140,190,0,0,0,0,0,0,0,0,0,-1,1084,834,0,0
-133,190,0,0,0,0,0,0,0,0,0,-1,1091,834,0,0
-126,190,0,0,0,0,0,0,0,0,0,-1,1098,834,0,0
-119,190,0,0,0,0,0,0,0,0,0,-1,1105,834,0,0
-112,190,0,0,0,0,0,0,0,0,0,-1,1112,834,0,0
-105,190,0,0,0,0,0,0,0,0,0,-1,1119,834,0,0
-98,190,0,0,0,0,0,0,0,0,0,-1,1126,834,0,0
-91,190,0,0,0,0,0,0,0,0,0,-1,1133,834,0,0
-84,190,0,0,0,0,0,0,0,0,0,-1,1140,834,0,0
-77,190,0,0,0,0,0,0,0,0,0,-1,1147,834,0,0
-70,190,0,0,0,0,0,0,0,0,0,-1,1154,834,0,0
-63,190,0,0,0,0,0,0,0,0,0,-1,1161,834,0,0
-56,190,0,0,0,0,0,0,0,0,0,-1,1168,834,0,0
-49,190,0,0,0,0,0,0,0,0,0,-1,1175,834,0,0
-42,190,0,0,0,0,0,0,0,0,0,-1,1182,834,0,0
-35,190,0,0,0,0,0,0,0,0,0,-1,1189,834,0,0
-28,190,0,0,0,0,0,0,0,0,0,-1,1196,834,0,0
-21,190,0,0,0,0,0,0,0,0,0,-1,1203,834,0,0
-14,190,0,0,0,0,0,0,0,0,0,-1,1210,834,0,0
-7,190,0,0,0,0,0,0,0,0,0,-1,1217,834,0,0
0,190,0,0,0,0,0,0,0,0,0,-1,1224,834,0,0
7,190,0,0,0,0,0,0,0,0,0,-1,1231,834,0,0
14,190,0,0,0,0,0,0,0,0,0,-1,1238,834,0,0
21,190,0,0,0,0,0,0,0,0,0,-1,1245,834,0,0
28,190,0,0,0,0,0,0,0,0,0,-1,1252,834,0,0
35,190,0,0,0,0,0,0,0,0,0,-1,1259,834,0,0
42,190,0,0,0,0,0,0,0,0,0,-1,1266,834,0,0
49,190,0,0,0,0,0,0,0,0,0,-1,1273,834,0,0
56,190,0,0,0,0,0,0,0,0,0,-1,1280,834,0,0
63,190,0,0,0,0,0,0,0,0,0,-1,1287,834,0,0
70,190,0,0,0,0,0,0,0,0,0,-1,1294,834,0,0
77,190,0,0,0,0,0,0,0,0,0,-1,1301,834,0,0
84,190,0,0,0,0,0,0,0,0,0,-1,1308,834,0,0
91,190,0,0,0,0,0,0,0,0,0,-1,1315,834,0,0
98,190,0,0,0,0,0,0,0,0,0,-1,1322,834,0,0
105,190,0,0,0,0,0,0,0,0,0,-1,1329,834,0,0
112,190,0,0,0,0,0,0,0,0,0,-1,1336,834,0,0
119,190,0,0,0,0,0,0,0,0,0,-1,1343,834,0,0
126,190,0,0,0,0,0,0,0,0,0,-1,1350,834,0,0
133,190,0,0,0,0,0,0,0,0,0,-1,1357,834,0,0
140,190,0,0,0,0,0,0,0,0,0,-1,1364,834,0,0
147,190,0,0,0,0,0,0,0,0,0,-1,1371,834,0,0
154,190,0,0,0,0,0,0,0,0,0,-1,1378,834,0,0
161,190,0,0,0,0,0,0,0,0,0,-1,1385,834,0,0
168,190,0,0,0,0,0,0,0,0,0,-1,1392,834,0,0
175,190,0,0,0,0,0,0,0,0,0,-1,1399,834,0,0
182,190,0,0,0,0,0,0,0,0,0,-1,1406,834,0,0
189,190,0,0,0,0,0,0,0,0,0,-1,1413,834,0,0
196,190,0,0,0,0,0,0,0,0,0,-1,1420,834,0,0
203,190,0,0,0,0,0,0,0,0,0,-1,1427,834,0,0
210,190,0,0,0,0,0,0,0,0,0,-1,1434,834,0,0
217,190,0,0,0,0,0,0,0,0,0,-1,1441,834,0,0
224,190,0,0,0,0,0,0,0,0,0,-1,1448,834,0,0
231,190,0,0,0,0,0,0,0,0,0,-1,1455,834,0,0
238,190,0,0,0,0,0,0,0,0,0,-1,1462,834,0,0
245,190,0,0,0,0,0,0,0,0,0,-1,1469,834,0,0
252,190,0,0,0,0,0,0,0,0,0,-1,1476,834,0,0
259,190,0,0,0,0,0,0,0,0,0,-1,1483,834,0,0
266,190,0,0,0,0,0,0,0,0,0,-1,1490,834,0,0
273,190,0,0,0,0,0,0,0,0,0,-1,1497,834,0,0
280,190,0,0,0,0,0,0,0,0,0,-1,1504,834,0,0
287,190,0,0,0,0,0,0,0,0,0,-1,1511,834,0,0
294,190,0,0,0,0,0,0,0,0,0,-1,1518,834,0,0
301,190,0,0,0,0,0,0,0,0,0,-1,1525,834,0,0
308,190,0,0,0,0,0,0,0,0,0,-1,1532,834,0,0
315,190,0,0,0,0,0,0,0,0,0,-1,1539,834,0,0
322,190,0,0,0,0,0,0,0,0,0,-1,1546,834,0,0
329,190,0,0,0,0,0,0,0,0,0,-1,1553,834,0,0
336,190,0,0,0,0,0,0,0,0,0,-1,1560,834,0,0
343,190,0,0,0,0,0,0,0,0,0,-1,1567,834,0,0
350,190,0,0,0,0,0,0,0,0,0,-1,1574,834,0,0
357,190,0,0,0,0,0,0,0,0,0,-1,1581,834,0,0
364,190,0,0,0,0,0,0,0,0,0,-1,1588,834,0,0
371,190,0,0,0,0,0,0,0,0,0,-1,1595,834,0,0
378,190,0,0,0,0,0,0,0,0,0,-1,1602,834,0,0
385,190,0,0,0,0,0,0,0,0,0,-1,1609,834,0,0
392,190,0,0,0,0,0,0,0,0,0,-1,1616,834,0,0
399,190,0,0,0,0,0,0,0,0,0,-1,1623,834,0,0
406,190,0,0,0,0,0,0,0,0,0,-1,1630,834,0,0
413,190,0,0,0,0,0,0,0,0,0,-1,1637,834,0,0
420,190,0,0,0,0,0,0,0,0,0,-1,1644,834,0,0
427,190,0,0,0,0,0,0,0,0,0,-1,1651,834,0,0
434,190,0,0,0,0,0,0,0,0,0,-1,1658,834,0,0
441,190,0,0,0,0,0,0,0,0,0,-1,1665,834,0,0
448,190,0,0,0,0,0,0,0,0,0,-1,1672,834,0,0
455,190,0,0,0,0,0,0,0,0,0,-1,1679,834,0,0
462,190,0,0,0,0,0,0,0,0,0,-1,1686,834,0,0
469,190,0,0,0,0,0,0,0,0,0,-1,1693,834,0,0
476,190,0,0,0,0,0,0,0,0,0,-1,1700,834,0,0
483,190,0,0,0,0,0,0,0,0,0,-1,1707,834,0,0
490,190,0,0,0,0,0,0,0,0,0,-1,1714,834,0,0
497,190,0,0,0,0,0,0,0,0,0,-1,1721,834,0,0
504,190,0,0,0,0,0,0,0,0,0,-1,1728,834,0,0
511,190,0,0,0,0,0,0,0,0,0,-1,1735,834,0,0
518,190,0,0,0,0,0,0,0,0,0,-1,1742,834,0,0
525,190,0,0,0,0,0,0,0,0,0,-1,1749,834,0,0
532,190,0,0,0,0,0,0,0,0,0,-1,1756,834,0,0
539,190,0,0,0,0,0,0,0,0,0,-1,1763,834,0,0
546,190,0,0,0,0,0,0,0,0,0,-1,1770,834,0,0
553,190,0,0,0,0,0,0,0,0,0,-1,1777,834,0,0
560,190,0,0,0,0,0,0,0,0,0,-1,1784,834,0,0
567,190,0,0,0,0,0,0,0,0,0,-1,1791,834,0,0
574,190,0,0,0,0,0,0,0,0,0,-1,1798,834,0,0
581,190,0,0,0,0,0,0,0,0,0,-1,1805,834,0,0
588,190,0,0,0,0,0,0,0,0,0,-1,1812,834,0,0
595,190,0,0,0,0,0,0,0,0,0,-1,1819,834,0,0
602,190,76.7013,2.24194,-0.0024659,0.00343344,-0.000787758,0.00353682,-0.00256928,-1.44031,0.00354008,0.0432132,1826,834,76.7012,-2.24195
609,190,76.5369,2.24756,-0.00118491,0.00237548,-0.000625819,0.00248228,-0.00129171,-1.40177,0.00221476,0.0439115,1833,834,76.5368,-2.24759
616,190,76.6868,2.21783,-0.000456027,0.00136129,-0.000543633,0.0015115,-0.000606234,-1.30122,0.00125936,0.0421734,1840,834,76.6867,-2.21784
623,190,76.5823,2.35376,-0.000125391,0.000478631,-0.000411124,0.000686751,-0.000333512,-1.10218,0.000600702,0.0377812,1847,834,76.5823,-2.35375
630,190,76.4976,2.35248,-3.41882e-05,0.000374378,-0.000254608,0.000496526,-0.000156336,-1.12348,0.000393618,0.0391054,1854,834,76.4976,-2.3525
637,190,76.5664,2.21466,-4.60859e-05,0.000405099,-0.000369198,0.000612172,-0.000253159,-1.05964,0.000513732,0.0334199,1861,834,76.5664,-2.21467
644,190,76.5092,2.25171,-0.000267416,0.000466622,-0.000236942,0.00053646,-0.000337254,-1.28416,0.000508791,0.0294358,1868,834,76.5092,-2.25172
651,190,76.5313,2.33997,0,0,0,0,0,0,0,-1,1875,834,76.5313,-2.33999
658,190,54.0599,3.0943,0,0,0,0,0,0,0,-1,1882,834,54.0599,-3.09428
665,190,25.9916,3.05157,0,0,0,0,0,0,0,-1,1889,834,25.9916,-3.05156
672,190,27.2662,1.70862,0,0,0,0,0,0,0,-1,1896,834,27.2662,-1.70861
679,190,60.4292,-1.22723,0,0,0,0,0,0,0,-1,1903,834,60.4292,1.22726
686,190,60.3688,-0.462891,-0.00149173,0.000198704,-0.000594787,0.000387007,-0.00168003,-1.26419,0.00126885,0.0300055,1910,834,60.3688,0.462885
693,190,60.3975,0.447632,-0.00152971,-3.24049e-06,-0.000588574,0.000197343,-0.0017303,-1.24234,0.00122462,0.0373596,1917,834,60.3974,-0.447644
700,190,60.1327,1.24805,-0.00104165,-0.000155231,-0.000781236,0.00029976,-0.00149664,-1.04342,0.00111124,0.0256074,1924,834,60.1326,-1.24807
707,190,60.0762,2.1311,-0.000723376,4.44763e-05,-0.000854154,0.000597021,-0.00127592,-0.996609,0.00110477,0.0137477,1931,834,60.0761,-2.1311
714,190,60.0496,3.00348,-1.82397e-05,0.000617343,-0.000633853,0.00100861,-0.000409505,-1.01777,0.00084275,0.0129924,1938,834,60.0495,-3.00348
721,190,59.9897,3.89716,0.00096787,0.00141727,-0.00024948,0.00152832,0.000856815,-1.15199,0.000884536,0.0122948,1945,834,59.9897,-3.89714
728,190,59.9316,4.76917,0.0021971,0.00231188,0.000280545,0.00254084,0.00196813,0.886289,0.00153893,0.0139152,1952,834,59.9316,-4.76915
735,190,59.8994,5.62128,0.0036665,0.00334597,0.000882524,0.00440319,0.00260928,0.695577,0.00255667,0.0139519,1959,834,59.8994,-5.62131
742,190,59.7979,6.58606,0.00547143,0.00434159,0.00155293,0.006559,0.00325402,0.61095,0.00378688,0.0199831,1966,834,59.7978,-6.58609
749,190,59.855,7.58936,0.0076552,0.00532957,0.00251011,0.00925875,0.00372602,0.568488,0.00537936,0.0435654,1973,834,59.855,-7.58936
756,190,59.8567,8.5979,0,0,0,0,0,0,0,-1,1980,834,59.8567,-8.59791
763,190,58.5272,9.88953,0,0,0,0,0,0,0,-1,1987,834,58.5273,-9.88955
770,190,54.7947,10.1494,0,0,0,0,0,0,0,-1,1994,834,54.7947,-10.1494
777,190,51.4365,10.3331,0,0,0,0,0,0,0,-1,2001,834,51.4366,-10.3331
784,190,0,0,0,0,0,0,0,0,0,-1,2008,834,0,0
791,190,0,0,0,0,0,0,0,0,0,-1,2015,834,0,0
798,190,0,0,0,0,0,0,0,0,0,-1,2022,834,0,0
805,190,0,0,0,0,0,0,0,0,0,-1,2029,834,0,0
812,190,0,0,0,0,0,0,0,0,0,-1,2036,834,0,0
-700,183,0,0,0,0,0,0,0,0,0,-1,524,841,0,0
-693,183,0,0,0,0,0,0,0,0,0,-1,531,841,0,0
-686,183,0,0,0,0,0,0,0,0,0,-1,538,841,0,0
-679,183,0,0,0,0,0,0,0,0,0,-1,545,841,0,0
-672,183,0,0,0,0,0,0,0,0,0,-1,552,841,0,0
-665,183,0,0,0,0,0,0,0,0,0,-1,559,841,0,0
-658,183,-56.7401,1.32843,0,0,0,0,0,0,0,-1,566,841,-56.7401,-1.32844
-651,183,-44.3059,12.2423,0,0,0,0,0,0,0,-1,573,841,-44.3059,-12.2423
-644,183,-44.0252,10.6679,0,0,0,0,0,0,0,-1,580,841,-44.0252,-10.6679
-637,183,-44.7339,9.56293,0,0,0,0,0,0,0,-1,587,841,-44.7339,-9.5629
-630,183,-44.6268,8.51459,0,0,0,0,0,0,0,-1,594,841,-44.6267,-8.51457
-623,183,-44.5671,7.48248,-0.00842902,0.012006,-0.00154258,0.0121218,-0.00854481,-1.49587,0.0119913,0.047142,601,841,-44.5671,-7.48248
-616,183,-44.6944,6.32623,-0.00796602,0.00894268,-0.000199257,0.00894503,-0.00796837,-1.55901,0.00977038,0.0399444,608,841,-44.6944,-6.32626
-609,183,-44.9467,5.38342,-0.00680671,0.00666031,0.000665192,0.00669309,-0.00683949,1.52156,0.00781319,0.0184599,615,841,-44.9467,-5.38344
-602,183,-45.0171,4.50171,-0.00539669,0.00471518,0.00115246,0.00484486,-0.00552637,1.45874,0.00599214,0.0122059,622,841,-45.0171,-4.50171
-595,183,-45.0679,3.58002,-0.00396631,0.00311551,0.00148791,0.00341542,-0.00426622,1.37189,0.00444406,0.0129358,629,841,-45.0678,-3.58
-588,183,-45.0692,2.69135,-0.00271847,0.0018203,0.00177883,0.00243437,-0.00333255,1.23839,0.00334296,0.0160838,636,841,-45.0692,-2.69132
-581,183,-45.1544,1.82312,-0.00165411,0.00105905,0.00195684,0.00208354,-0.00267861,1.08849,0.00275657,0.0172672,643,841,-45.1544,-1.82309
-574,183,-45.1967,0.949158,-0.000876249,0.000926747,0.00155208,0.00182015,-0.00176965,1.0485,0.00207264,0.022798,650,841,-45.1966,-0.94918
-567,183,-45.0248,-0.195435,0,0,0,0,0,0,0,-1,657,841,-45.0248,0.19541
-560,183,-34.0303,-1.05511,0,0,0,0,0,0,0,-1,664,841,-34.0303,1.05511
-553,183,-32.2224,-1.71942,0,0,0,0,0,0,0,-1,671,841,-32.2224,1.71944
-546,183,-27.8053,-1.91199,0,0,0,0,0,0,0,-1,678,841,-27.8053,1.91201
-539,183,-16.8032,-0.417297,0,0,0,0,0,0,0,-1,685,841,-16.8032,0.41732
-532,183,-29.9686,0.953613,0,0,0,0,0,0,0,-1,692,841,-29.9686,-0.953627
-525,183,-55.6847,0.842468,0,0,0,0,0,0,0,-1,699,841,-55.6847,-0.842446
-518,183,-60.3866,0.163818,0,0,0,0,0,0,0,-1,706,841,-60.3866,-0.163821
-511,183,-60.1965,0.207581,0.00424229,0.0057693,0.0011798,0.00641109,0.0036005,1.07258,0.0037108,0.0427843,713,841,-60.1965,-0.207589
-504,183,-60.2109,0.558167,0.00485177,0.00647695,0.00138719,0.00727203,0.00405669,1.05035,0.00420786,0.0429132,720,841,-60.2109,-0.558177
-497,183,-60.3359,0.701904,0.00628465,0.00699538,0.000612895,0.00734848,0.00593155,1.04812,0.00450163,0.0430271,727,841,-60.3359,-0.701892
-490,183,-60.2916,0.57605,0.00848659,0.00718295,-0.000618793,0.00873353,0.00693601,-0.379707,0.00532528,0.0404807,734,841,-60.2916,-0.576067
-483,183,0,0,0,0,0,0,0,0,0,-1,741,841,0,0
-476,183,0,0,0,0,0,0,0,0,0,-1,748,841,0,0
-469,183,0,0,0,0,0,0,0,0,0,-1,755,841,0,0
-462,183,0,0,0,0,0,0,0,0,0,-1,762,841,0,0
-455,183,0,0,0,0,0,0,0,0,0,-1,769,841,0,0
-448,183,0,0,0,0,0,0,0,0,0,-1,776,841,0,0
-441,183,0,0,0,0,0,0,0,0,0,-1,783,841,0,0
-434,183,0,0,0,0,0,0,0,0,0,-1,790,841,0,0
-427,183,0,0,0,0,0,0,0,0,0,-1,797,841,0,0
-420,183,0,0,0,0,0,0,0,0,0,-1,804,841,0,0
-413,183,0,0,0,0,0,0,0,0,0,-1,811,841,0,0
-406,183,0,0,0,0,0,0,0,0,0,-1,818,841,0,0
-399,183,0,0,0,0,0,0,0,0,0,-1,825,841,0,0
-392,183,0,0,0,0,0,0,0,0,0,-1,832,841,0,0
-385,183,0,0,0,0,0,0,0,0,0,-1,839,841,0,0
-378,183,0,0,0,0,0,0,0,0,0,-1,846,841,0,0
-371,183,0,0,0,0,0,0,0,0,0,-1,853,841,0,0
-364,183,0,0,0,0,0,0,0,0,0,-1,860,841,0,0
-357,183,0,0,0,0,0,0,0,0,0,-1,867,841,0,0
-350,183,0,0,0,0,0,0,0,0,0,-1,874,841,0,0
-343,183,0,0,0,0,0,0,0,0,0,-1,881,841,0,0
-336,183,0,0,0,0,0,0,0,0,0,-1,888,841,0,0
-329,183,0,0,0,0,0,0,0,0,0,-1,895,841,0,0
-322,183,0,0,0,0,0,0,0,0,0,-1,902,841,0,0
-315,183,0,0,0,0,0,0,0,0,0,-1,909,841,0,0
-308,183,0,0,0,0,0,0,0,0,0,-1,916,841,0,0
-301,183,0,0,0,0,0,0,0,0,0,-1,923,841,0,0
-294,183,0,0,0,0,0,0,0,0,0,-1,930,841,0,0
-287,183,0,0,0,0,0,0,0,0,0,-1,937,841,0,0
-280,183,0,0,0,0,0,0,0,0,0,-1,944,841,0,0
-273,183,0,0,0,0,0,0,0,0,0,-1,951,841,0,0
-266,183,0,0,0,0,0,0,0,0,0,-1,958,841,0,0
-259,183,0,0,0,0,0,0,0,0,0,-1,965,841,0,0
-252,183,0,0,0,0,0,0,0,0,0,-1,972,841,0,0
-245,183,0,0,0,0,0,0,0,0,0,-1,979,841,0,0
-238,183,0,0,0,0,0,0,0,0,0,-1,986,841,0,0
-231,183,0,0,0,0,0,0,0,0,0,-1,993,841,0,0
-224,183,0,0,0,0,0,0,0,0,0,-1,1000,841,0,0
-217,183,0,0,0,0,0,0,0,0,0,-1,1007,841,0,0
-210,183,0,0,0,0,0,0,0,0,0,-1,1014,841,0,0
-203,183,0,0,0,0,0,0,0,0,0,-1,1021,841,0,0
-196,183,0,0,0,0,0,0,0,0,0,-1,1028,841,0,0
-189,183,0,0,0,0,0,0,0,0,0,-1,1035,841,0,0
-182,183,0,0,0,0,0,0,0,0,0,-1,1042,841,0,0
-175,183,0,0,0,0,0,0,0,0,0,-1,1049,841,0,0
-168,183,0,0,0,0,0,0,0,0,0,-1,1056,841,0,0
-161,183,0,0,0,0,0,0,0,0,0,-1,1063,841,0,0
-154,183,0,0,0,0,0,0,0,0,0,-1,1070,841,0,0
-147,183,0,0,0,0,0,0,0,0,0,-1,1077,841,0,0
-140,183,0,0,0,0,0,0,0,0,0,-1,1084,841,0,0
-133,183,0,0,0,0,0,0,0,0,0,-1,1091,841,0,0
-126,183,0,0,0,0,0,0,0,0,0,-1,1098,841,0,0
-119,183,0,0,0,0,0,0,0,0,0,-1,1105,841,0,0
-112,183,0,0,0,0,0,0,0,0,0,-1,1112,841,0,0
-105,183,0,0,0,0,0,0,0,0,0,-1,1119,841,0,0
-98,183,0,0,0,0,0,0,0,0,0,-1,1126,841,0,0
-91,183,0,0,0,0,0,0,0,0,0,-1,1133,841,0,0
-84,183,0,0,0,0,0,0,0,0,0,-1,1140,841,0,0
-77,183,0,0,0,0,0,0,0,0,0,-1,1147,841,0,0
-70,183,0,0,0,0,0,0,0,0,0,-1,1154,841,0,0
-63,183,0,0,0,0,0,0,0,0,0,-1,1161,841,0,0
-56,183,0,0,0,0,0,0,0,0,0,-1,1168,841,0,0
-49,183,0,0,0,0,0,0,0,0,0,-1,1175,841,0,0
-42,183,0,0,0,0,0,0,0,0,0,-1,1182,841,0,0
-35,183,0,0,0,0,0,0,0,0,0,-1,1189,841,0,0
-28,183,0,0,0,0,0,0,0,0,0,-1,1196,841,0,0
-21,183,0,0,0,0,0,0,0,0,0,-1,1203,841,0,0
-14,183,0,0,0,0,0,0,0,0,0,-1,1210,841,0,0
-7,183,0,0,0,0,0,0,0,0,0,-1,1217,841,0,0
0,183,0,0,0,0,0,0,0,0,0,-1,1224,841,0,0
7,183,0,0,0,0,0,0,0,0,0,-1,1231,841,0,0
14,183,0,0,0,0,0,0,0,0,0,-1,1238,841,0,0
21,183,0,0,0,0,0,0,0,0,0,-1,1245,841,0,0
28,183,0,0,0,0,0,0,0,0,0,-1,1252,841,0,0
35,183,0,0,0,0,0,0,0,0,0,-1,1259,841,0,0
42,183,0,0,0,0,0,0,0,0,0,-1,1266,841,0,0
49,183,0,0,0,0,0,0,0,0,0,-1,1273,841,0,0
56,183,0,0,0,0,0,0,0,0,0,-1,1280,841,0,0
63,183,0,0,0,0,0,0,0,0,0,-1,1287,841,0,0
70,183,0,0,0,0,0,0,0,0,0,-1,1294,841,0,0
77,183,0,0,0,0,0,0,0,0,0,-1,1301,841,0,0
84,183,0,0,0,0,0,0,0,0,0,-1,1308,841,0,0
91,183,0,0,0,0,0,0,0,0,0,-1,1315,841,0,0
98,183,0,0,0,0,0,0,0,0,0,-1,1322,841,0,0
105,183,0,0,0,0,0,0,0,0,0,-1,1329,841,0,0
112,183,0,0,0,0,0,0,0,0,0,-1,1336,841,0,0
119,183,0,0,0,0,0,0,0,0,0,-1,1343,841,0,0
126,183,0,0,0,0,0,0,0,0,0,-1,1350,841,0,0
133,183,0,0,0,0,0,0,0,0,0,-1,1357,841,0,0
140,183,0,0,0,0,0,0,0,0,0,-1,1364,841,0,0
147,183,0,0,0,0,0,0,0,0,0,-1,1371,841,0,0
154,183,0,0,0,0,0,0,0,0,0,-1,1378,841,0,0
161,183,0,0,0,0,0,0,0,0,0,-1,1385,841,0,0
168,183,0,0,0,0,0,0,0,0,0,-1,1392,841,0,0
175,183,0,0,0,0,0,0,0,0,0,-1,1399,841,0,0
182,183,0,0,0,0,0,0,0,0,0,-1,1406,841,0,0
189,183,0,0,0,0,0,0,0,0,0,-1,1413,841,0,0
196,183,0,0,0,0,0,0,0,0,0,-1,1420,841,0,0
203,183,0,0,0,0,0,0,0,0,0,-1,1427,841,0,0
210,183,0,0,0,0,0,0,0,0,0,-1,1434,841,0,0
217,183,0,0,0,0,0,0,0,0,0,-1,1441,841,0,0
224,183,0,0,0,0,0,0,0,0,0,-1,1448,841,0,0
231,183,0,0,0,0,0,0,0,0,0,-1,1455,841,0,0
238,183,0,0,0,0,0,0,0,0,0,-1,1462,841,0,0
245,183,0,0,0,0,0,0,0,0,0,-1,1469,841,0,0
252,183,0,0,0,0,0,0,0,0,0,-1,1476,841,0,0
259,183,0,0,0,0,0,0,0,0,0,-1,1483,841,0,0
266,183,0,0,0,0,0,0,0,0,0,-1,1490,841,0,0
273,183,0,0,0,0,0,0,0,0,0,-1,1497,841,0,0
280,183,0,0,0,0,0,0,0,0,0,-1,1504,841,0,0
287,183,0,0,0,0,0,0,0,0,0,-1,1511,841,0,0
294,183,0,0,0,0,0,0,0,0,0,-1,1518,841,0,0
301,183,0,0,0,0,0,0,0,0,0,-1,1525,841,0,0
308,183,0,0,0,0,0,0,0,0,0,-1,1532,841,0,0
315,183,0,0,0,0,0,0,0,0,0,-1,1539,841,0,0
322,183,0,0,0,0,0,0,0,0,0,-1,1546,841,0,0
329,183,0,0,0,0,0,0,0,0,0,-1,1553,841,0,0
336,183,0,0,0,0,0,0,0,0,0,-1,1560,841,0,0
343,183,0,0,0,0,0,0,0,0,0,-1,1567,841,0,0
350,183,0,0,0,0,0,0,0,0,0,-1,1574,841,0,0
357,183,0,0,0,0,0,0,0,0,0,-1,1581,841,0,0
364,183,0,0,0,0,0,0,0,0,0,-1,1588,841,0,0
371,183,0,0,0,0,0,0,0,0,0,-1,1595,841,0,0
378,183,0,0,0,0,0,0,0,0,0,-1,1602,841,0,0
385,183,0,0,0,0,0,0,0,0,0,-1,1609,841,0,0
392,183,0,0,0,0,0,0,0,0,0,-1,1616,841,0,0
399,183,0,0,0,0,0,0,0,0,0,-1,1623,841,0,0
406,183,0,0,0,0,0,0,0,0,0,-1,1630,841,0,0
413,183,0,0,0,0,0,0,0,0,0,-1,1637,841,0,0
420,183,0,0,0,0,0,0,0,0,0,-1,1644,841,0,0
427,183,0,0,0,0,0,0,0,0,0,-1,1651,841,0,0
434,183,0,0,0,0,0,0,0,0,0,-1,1658,841,0,0
441,183,0,0,0,0,0,0,0,0,0,-1,1665,841,0,0
448,183,0,0,0,0,0,0,0,0,0,-1,1672,841,0,0
455,183,0,0,0,0,0,0,0,0,0,-1,1679,841,0,0
462,183,0,0,0,0,0,0,0,0,0,-1,1686,841,0,0
469,183,0,0,0,0,0,0,0,0,0,-1,1693,841,0,0
476,183,0,0,0,0,0,0,0,0,0,-1,1700,841,0,0
483,183,0,0,0,0,0,0,0,0,0,-1,1707,841,0,0
490,183,0,0,0,0,0,0,0,0,0,-1,1714,841,0,0
497,183,0,0,0,0,0,0,0,0,0,-1,1721,841,0,0
504,183,0,0,0,0,0,0,0,0,0,-1,1728,841,0,0
511,183,0,0,0,0,0,0,0,0,0,-1,1735,841,0,0
518,183,0,0,0,0,0,0,0,0,0,-1,1742,841,0,0
525,183,0,0,0,0,0,0,0,0,0,-1,1749,841,0,0
532,183,0,0,0,0,0,0,0,0,0,-1,1756,841,0,0
539,183,0,0,0,0,0,0,0,0,0,-1,1763,841,0,0
546,183,0,0,0,0,0,0,0,0,0,-1,1770,841,0,0
553,183,0,0,0,0,0,0,0,0,0,-1,1777,841,0,0
560,183,0,0,0,0,0,0,0,0,0,-1,1784,841,0,0
567,183,0,0,0,0,0,0,0,0,0,-1,1791,841,0,0
574,183,0,0,0,0,0,0,0,0,0,-1,1798,841,0,0
581,183,0,0,0,0,0,0,0,0,0,-1,1805,841,0,0
588,183,0,0,0,0,0,0,0,0,0,-1,1812,841,0,0
595,183,0,0,0,0,0,0,0,0,0,-1,1819,841,0,0
602,183,0,0,0,0,0,0,0,0,0,-1,1826,841,0,0
609,183,76.5012,2.17072,-0.000472195,0.00306268,-0.000356,0.00309817,-0.000507691,-1.47142,0.00225382,0.0440437,1833,841,76.5012,-2.17072
616,183,76.4664,2.19757,4.31702e-05,0.00199463,-0.000430378,0.00208533,-4.75302e-05,-1.36309,0.00140633,0.0396578,1840,841,76.4664,-2.1976
623,183,76.4988,2.42432,4.12463e-05,0.0010757,-0.000471378,0.00125828,-0.000141327,-1.20127,0.00088971,0.041929,1847,841,76.4988,-2.42431
630,183,76.4774,2.42114,-0.000212595,0.000747669,-0.000480922,0.000947105,-0.000412031,-1.17769,0.000804712,0.0421632,1854,841,76.4774,-2.42116
637,183,76.5781,2.20154,-0.000386695,0.000662025,-0.000548795,0.000896697,-0.000621367,-1.16671,0.000881246,0.0363289,1861,841,76.5782,-2.20156
644,183,76.5004,2.12128,-0.000625048,0.000631091,-0.000413265,0.000754859,-0.000748816,-1.27981,0.00086815,0.0282853,1868,841,76.5003,-2.12128
651,183,76.5677,2.19415,-0.00071919,0.000505028,-0.000483119,0.000672715,-0.000886877,-1.23671,0.000903256,0.0381131,1875,841,76.5677,-2.19416
658,183,76.6135,2.32526,0,0,0,0,0,0,0,-1,1882,841,76.6136,-2.32523
665,183,38.4337,2.66992,0,0,0,0,0,0,0,-1,1889,841,38.4337,-2.6699
672,183,29.168,1.54572,0,0,0,0,0,0,0,-1,1896,841,29.168,-1.54574
679,183,61.2518,-1.20276,0,0,0,0,0,0,0,-1,1903,841,61.2518,1.20276
686,183,61.2581,-0.374573,-0.00183613,0.000328591,-0.000787025,0.00058448,-0.00209202,-1.25644,0.00162493,0.0387606,1910,841,61.258,0.374559
693,183,61.2162,0.404541,-0.00181328,0.000276635,-0.00077507,0.000532705,-0.00206935,-1.2517,0.00158722,0.0357433,1917,841,61.2161,-0.404563
700,183,61.0669,1.30341,-0.00126105,0.000224766,-0.000959711,0.000695513,-0.0017318,-1.11477,0.00144335,0.0419862,1924,841,61.0669,-1.30343
707,183,60.9529,2.19586,-0.00100867,0.00036771,-0.0010436,0.000929605,-0.00157057,-1.07689,0.0014592,0.0143254,1931,841,60.9528,-2.19586
714,183,60.9562,3.05737,-0.000419949,0.000814265,-0.000848523,0.00124635,-0.000852039,-1.0998,0.00121862,0.0180153,1938,841,60.9561,-3.0574
721,183,60.91,3.93713,0.000451637,0.00150403,-0.000492336,0.00169845,0.000257224,-1.19471,0.00105704,0.0173478,1945,841,60.91,-3.93716
728,183,60.8379,4.81464,0.00155963,0.00231329,5.07292e-05,0.00231669,0.00155623,1.50389,0.00136359,0.0152819,1952,841,60.8378,-4.81466
735,183,60.7982,5.66534,0.00288797,0.00326707,0.000654014,0.00375845,0.00239659,0.926449,0.00219718,0.0137443,1959,841,60.7982,-5.66534
742,183,60.7573,6.56152,0.00445207,0.00423554,0.00132419,0.00567242,0.00301519,0.744609,0.00327714,0.0139235,1966,841,60.7573,-6.56154
749,183,60.7891,7.65717,0.00629932,0.00516152,0.00222038,0.00802253,0.00343831,0.659987,0.00464753,0.0367471,1973,841,60.7891,-7.65714
756,183,60.9254,8.53766,0,0,0,0,0,0,0,-1,1980,841,60.9254,-8.53765
763,183,60.7762,9.37976,0,0,0,0,0,0,0,-1,1987,841,60.7762,-9.37978
770,183,51.5659,9.50665,0,0,0,0,0,0,0,-1,1994,841,51.5659,-9.50663
777,183,42.1948,7.22906,0,0,0,0,0,0,0,-1,2001,841,42.1948,-7.22905
784,183,0,0,0,0,0,0,0,0,0,-1,2008,841,0,0
791,183,0,0,0,0,0,0,0,0,0,-1,2015,841,0,0
798,183,0,0,0,0,0,0,0,0,0,-1,2022,841,0,0
805,183,0,0,0,0,0,0,0,0,0,-1,2029,841,0,0
812,183,0,0,0,0,0,0,0,0,0,-1,2036,841,0,0
-700,176,0,0,0,0,0,0,0,0,0,-1,524,848,0,0
-693,176,0,0,0,0,0,0,0,0,0,-1,531,848,0,0
-686,176,0,0,0,0,0,0,0,0,0,-1,538,848,0,0
-679,176,0,0,0,0,0,0,0,0,0,-1,545,848,0,0
-672,176,0,0,0,0,0,0,0,0,0,-1,552,848,0,0
-665,176,-59.6962,8.75854,0,0,0,0,0,0,0,-1,559,848,-59.6962,-8.75853
-658,176,-59.6349,7.95142,0,0,0,0,0,0,0,-1,566,848,-59.6349,-7.95144
-651,176,-44.4019,11.7273,0,0,0,0,0,0,0,-1,573,848,-44.4018,-11.7273
-644,176,-44.2437,10.2178,0,0,0,0,0,0,0,-1,580,848,-44.2437,-10.2178
-637,176,-44.488,9.01129,0,0,0,0,0,0,0,-1,587,848,-44.488,-9.01132
-630,176,-45.5538,8.35248,0,0,0,0,0,0,0,-1,594,848,-45.5538,-8.35249
-623,176,-45.6656,7.35883,-0.00753623,0.0116229,-0.00182438,0.0117951,-0.00770841,-1.4767,0.0113424,0.0426496,601,848,-45.6656,-7.35883
-616,176,-45.7671,6.36035,-0.00715119,0.00855053,-0.000341452,0.00855795,-0.00715861,-1.54906,0.00908594,0.0280165,608,848,-45.7671,-6.36036
-609,176,-45.8619,5.41907,-0.00623553,0.00619577,0.000686264,0.00623354,-0.0062733,1.51581,0.00722084,0.0125362,615,848,-45.8619,-5.41909
-602,176,-45.9211,4.52759,-0.00515819,0.0041859,0.00138009,0.00438547,-0.00535776,1.42718,0.00563459,0.0127768,622,848,-45.9211,-4.52759
-595,176,-45.9786,3.60779,-0.00410506,0.00254948,0.00189514,0.00305135,-0.00460693,1.31192,0.00445181,0.0129523,629,848,-45.9786,-3.60782
-588,176,-45.9805,2.75684,-0.00326009,0.00132448,0.00223182,0.00223151,-0.00416711,1.18478,0.00375017,0.0160135,636,848,-45.9805,-2.75683
-581,176,-46.0847,1.94269,-0.00254733,0.000782916,0.0023318,0.00198309,-0.0037475,1.09546,0.00336043,0.0156697,643,848,-46.0847,-1.94267
-574,176,-46.231,1.09479,-0.00184231,0.000787011,0.00175865,0.00166807,-0.00272337,1.10636,0.00255968,0.0317282,650,848,-46.231,-1.09477
-567,176,-46.2442,0.103333,0,0,0,0,0,0,0,-1,657,848,-46.2442,-0.103323
-560,176,-31.6935,-0.0994873,0,0,0,0,0,0,0,-1,664,848,-31.6936,0.0994584
-553,176,-29.4605,-1.50214,0,0,0,0,0,0,0,-1,671,848,-29.4605,1.50211
-546,176,-16.657,-0.403198,0,0,0,0,0,0,0,-1,678,848,-16.657,0.403182
-539,176,-22.7061,1.48657,0,0,0,0,0,0,0,-1,685,848,-22.7061,-1.48657
-532,176,-38.8326,1.29749,0,0,0,0,0,0,0,-1,692,848,-38.8326,-1.29747
-525,176,-60.2613,0.348267,0,0,0,0,0,0,0,-1,699,848,-60.2613,-0.34826
-518,176,-60.2932,0.231873,0.00436939,0.0048564,0.000176172,0.00491345,0.00431235,1.25764,0.00309478,0.0425767,706,848,-60.2932,-0.231886
-511,176,-60.2213,0.184509,0.00431582,0.00550922,0.000779505,0.00589419,0.00393085,1.11207,0.00346564,0.0393211,713,848,-60.2213,-0.184498
-504,176,-60.2328,0.257263,0.00543878,0.00625172,0.000789917,0.00673361,0.00495689,1.02302,0.00402959,0.0410463,720,848,-60.2329,-0.257276
-497,176,-60.2791,0.503174,0.00745971,0.00676669,-0.000151589,0.00749142,0.00673498,-0.206192,0.0047622,0.0434051,727,848,-60.2791,-0.503189
-490,176,-60.2319,0.420471,0.0102754,0.00676015,-0.0013735,0.0107484,0.00628714,-0.331662,0.00623539,0.0414353,734,848,-60.2318,-0.420478
-483,176,0,0,0,0,0,0,0,0,0,-1,741,848,0,0
-476,176,0,0,0,0,0,0,0,0,0,-1,748,848,0,0
-469,176,0,0,0,0,0,0,0,0,0,-1,755,848,0,0
-462,176,0,0,0,0,0,0,0,0,0,-1,762,848,0,0
-455,176,0,0,0,0,0,0,0,0,0,-1,769,848,0,0
-448,176,0,0,0,0,0,0,0,0,0,-1,776,848,0,0
-441,176,0,0,0,0,0,0,0,0,0,-1,783,848,0,0
-434,176,0,0,0,0,0,0,0,0,0,-1,790,848,0,0
-427,176,0,0,0,0,0,0,0,0,0,-1,797,848,0,0
-420,176,0,0,0,0,0,0,0,0,0,-1,804,848,0,0
-413,176,0,0,0,0,0,0,0,0,0,-1,811,848,0,0
-406,176,0,0,0,0,0,0,0,0,0,-1,818,848,0,0
-399,176,0,0,0,0,0,0,0,0,0,-1,825,848,0,0
-392,176,0,0,0,0,0,0,0,0,0,-1,832,848,0,0
-385,176,0,0,0,0,0,0,0,0,0,-1,839,848,0,0
-378,176,0,0,0,0,0,0,0,0,0,-1,846,848,0,0
-371,176,0,0,0,0,0,0,0,0,0,-1,853,848,0,0
-364,176,0,0,0,0,0,0,0,0,0,-1,860,848,0,0
-357,176,0,0,0,0,0,0,0,0,0,-1,867,848,0,0
-350,176,0,0,0,0,0,0,0,0,0,-1,874,848,0,0
-343,176,0,0,0,0,0,0,0,0,0,-1,881,848,0,0
-336,176,0,0,0,0,0,0,0,0,0,-1,888,848,0,0
-329,176,0,0,0,0,0,0,0,0,0,-1,895,848,0,0
-322,176,0,0,0,0,0,0,0,0,0,-1,902,848,0,0
-315,176,0,0,0,0,0,0,0,0,0,-1,909,848,0,0
-308,176,0,0,0,0,0,0,0,0,0,-1,916,848,0,0
-301,176,0,0,0,0,0,0,0,0,0,-1,923,848,0,0
-294,176,0,0,0,0,0,0,0,0,0,-1,930,848,0,0
-287,176,0,0,0,0,0,0,0,0,0,-1,937,848,0,0
-280,176,0,0,0,0,0,0,0,0,0,-1,944,848,0,0
-273,176,0,0,0,0,0,0,0,0,0,-1,951,848,0,0
-266,176,0,0,0,0,0,0,0,0,0,-1,958,848,0,0
-259,176,0,0,0,0,0,0,0,0,0,-1,965,848,0,0
-252,176,0,0,0,0,0,0,0,0,0,-1,972,848,0,0
-245,176,0,0,0,0,0,0,0,0,0,-1,979,848,0,0
-238,176,0,0,0,0,0,0,0,0,0,-1,986,848,0,0
-231,176,0,0,0,0,0,0,0,0,0,-1,993,848,0,0
-224,176,0,0,0,0,0,0,0,0,0,-1,1000,848,0,0
-217,176,0,0,0,0,0,0,0,0,0,-1,1007,848,0,0
-210,176,0,0,0,0,0,0,0,0,0,-1,1014,848,0,0
-203,176,0,0,0,0,0,0,0,0,0,-1,1021,848,0,0
-196,176,0,0,0,0,0,0,0,0,0,-1,1028,848,0,0
-189,176,0,0,0,0,0,0,0,0,0,-1,1035,848,0,0
-182,176,0,0,0,0,0,0,0,0,0,-1,1042,848,0,0
-175,176,0,0,0,0,0,0,0,0,0,-1,1049,848,0,0
-168,176,0,0,0,0,0,0,0,0,0,-1,1056,848,0,0
-161,176,0,0,0,0,0,0,0,0,0,-1,1063,848,0,0
-154,176,0,0,0,0,0,0,0,0,0,-1,1070,848,0,0
-147,176,0,0,0,0,0,0,0,0,0,-1,1077,848,0,0
-140,176,0,0,0,0,0,0,0,0,0,-1,1084,848,0,0
-133,176,0,0,0,0,0,0,0,0,0,-1,1091,848,0,0
-126,176,0,0,0,0,0,0,0,0,0,-1,1098,848,0,0
-119,176,0,0,0,0,0,0,0,0,0,-1,1105,848,0,0
-112,176,0,0,0,0,0,0,0,0,0,-1,1112,848,0,0
-105,176,0,0,0,0,0,0,0,0,0,-1,1119,848,0,0
-98,176,0,0,0,0,0,0,0,0,0,-1,1126,848,0,0
-91,176,0,0,0,0,0,0,0,0,0,-1,1133,848,0,0
-84,176,0,0,0,0,0,0,0,0,0,-1,1140,848,0,0
-77,176,0,0,0,0,0,0,0,0,0,-1,1147,848,0,0
-70,176,0,0,0,0,0,0,0,0,0,-1,1154,848,0,0
-63,176,0,0,0,0,0,0,0,0,0,-1,1161,848,0,0
-56,176,0,0,0,0,0,0,0,0,0,-1,1168,848,0,0
-49,176,0,0,0,0,0,0,0,0,0,-1,1175,848,0,0
-42,176,0,0,0,0,0,0,0,0,0,-1,1182,848,0,0
-35,176,0,0,0,0,0,0,0,0,0,-1,1189,848,0,0
-28,176,0,0,0,0,0,0,0,0,0,-1,1196,848,0,0
-21,176,0,0,0,0,0,0,0,0,0,-1,1203,848,0,0
-14,176,0,0,0,0,0,0,0,0,0,-1,1210,848,0,0
-7,176,0,0,0,0,0,0,0,0,0,-1,1217,848,0,0
0,176,0,0,0,0,0,0,0,0,0,-1,1224,848,0,0
7,176,0,0,0,0,0,0,0,0,0,-1,1231,848,0,0
14,176,0,0,0,0,0,0,0,0,0,-1,1238,848,0,0
21,176,0,0,0,0,0,0,0,0,0,-1,1245,848,0,0
28,176,0,0,0,0,0,0,0,0,0,-1,1252,848,0,0
35,176,0,0,0,0,0,0,0,0,0,-1,1259,848,0,0
42,176,0,0,0,0,0,0,0,0,0,-1,1266,848,0,0
49,176,0,0,0,0,0,0,0,0,0,-1,1273,848,0,0
56,176,0,0,0,0,0,0,0,0,0,-1,1280,848,0,0
63,176,0,0,0,0,0,0,0,0,0,-1,1287,848,0,0
70,176,0,0,0,0,0,0,0,0,0,-1,1294,848,0,0
77,176,0,0,0,0,0,0,0,0,0,-1,1301,848,0,0
84,176,0,0,0,0,0,0,0,0,0,-1,1308,848,0,0
91,176,0,0,0,0,0,0,0,0,0,-1,1315,848,0,0
98,176,0,0,0,0,0,0,0,0,0,-1,1322,848,0,0
105,176,0,0,0,0,0,0,0,0,0,-1,1329,848,0,0
112,176,0,0,0,0,0,0,0,0,0,-1,1336,848,0,0
119,176,0,0,0,0,0,0,0,0,0,-1,1343,848,0,0
126,176,0,0,0,0,0,0,0,0,0,-1,1350,848,0,0
133,176,0,0,0,0,0,0,0,0,0,-1,1357,848,0,0
140,176,0,0,0,0,0,0,0,0,0,-1,1364,848,0,0
147,176,0,0,0,0,0,0,0,0,0,-1,1371,848,0,0
154,176,0,0,0,0,0,0,0,0,0,-1,1378,848,0,0
161,176,0,0,0,0,0,0,0,0,0,-1,1385,848,0,0
168,176,0,0,0,0,0,0,0,0,0,-1,1392,848,0,0
175,176,0,0,0,0,0,0,0,0,0,-1,1399,848,0,0
182,176,0,0,0,0,0,0,0,0,0,-1,1406,848,0,0
189,176,0,0,0,0,0,0,0,0,0,-1,1413,848,0,0
196,176,0,0,0,0,0,0,0,0,0,-1,1420,848,0,0
203,176,0,0,0,0,0,0,0,0,0,-1,1427,848,0,0
210,176,0,0,0,0,0,0,0,0,0,-1,1434,848,0,0
217,176,0,0,0,0,0,0,0,0,0,-1,1441,848,0,0
224,176,0,0,0,0,0,0,0,0,0,-1,1448,848,0,0
231,176,0,0,0,0,0,0,0,0,0,-1,1455,848,0,0
238,176,0,0,0,0,0,0,0,0,0,-1,1462,848,0,0
245,176,0,0,0,0,0,0,0,0,0,-1,1469,848,0,0
252,176,0,0,0,0,0,0,0,0,0,-1,1476,848,0,0
259,176,0,0,0,0,0,0,0,0,0,-1,1483,848,0,0
266,176,0,0,0,0,0,0,0,0,0,-1,1490,848,0,0
273,176,0,0,0,0,0,0,0,0,0,-1,1497,848,0,0
280,176,0,0,0,0,0,0,0,0,0,-1,1504,848,0,0
287,176,0,0,0,0,0,0,0,0,0,-1,1511,848,0,0
294,176,0,0,0,0,0,0,0,0,0,-1,1518,848,0,0
301,176,0,0,0,0,0,0,0,0,0,-1,1525,848,0,0
308,176,0,0,0,0,0,0,0,0,0,-1,1532,848,0,0
315,176,0,0,0,0,0,0,0,0,0,-1,1539,848,0,0
322,176,0,0,0,0,0,0,0,0,0,-1,1546,848,0,0
329,176,0,0,0,0,0,0,0,0,0,-1,1553,848,0,0
336,176,0,0,0,0,0,0,0,0,0,-1,1560,848,0,0
343,176,0,0,0,0,0,0,0,0,0,-1,1567,848,0,0
350,176,0,0,0,0,0,0,0,0,0,-1,1574,848,0,0
357,176,0,0,0,0,0,0,0,0,0,-1,1581,848,0,0
364,176,0,0,0,0,0,0,0,0,0,-1,1588,848,0,0
371,176,0,0,0,0,0,0,0,0,0,-1,1595,848,0,0
378,176,0,0,0,0,0,0,0,0,0,-1,1602,848,0,0
385,176,0,0,0,0,0,0,0,0,0,-1,1609,848,0,0
392,176,0,0,0,0,0,0,0,0,0,-1,1616,848,0,0
399,176,0,0,0,0,0,0,0,0,0,-1,1623,848,0,0
406,176,0,0,0,0,0,0,0,0,0,-1,1630,848,0,0
413,176,0,0,0,0,0,0,0,0,0,-1,1637,848,0,0
420,176,0,0,0,0,0,0,0,0,0,-1,1644,848,0,0
427,176,0,0,0,0,0,0,0,0,0,-1,1651,848,0,0
434,176,0,0,0,0,0,0,0,0,0,-1,1658,848,0,0
441,176,0,0,0,0,0,0,0,0,0,-1,1665,848,0,0
448,176,0,0,0,0,0,0,0,0,0,-1,1672,848,0,0
455,176,0,0,0,0,0,0,0,0,0,-1,1679,848,0,0
462,176,0,0,0,0,0,0,0,0,0,-1,1686,848,0,0
469,176,0,0,0,0,0,0,0,0,0,-1,1693,848,0,0
476,176,0,0,0,0,0,0,0,0,0,-1,1700,848,0,0
483,176,0,0,0,0,0,0,0,0,0,-1,1707,848,0,0
490,176,0,0,0,0,0,0,0,0,0,-1,1714,848,0,0
497,176,0,0,0,0,0,0,0,0,0,-1,1721,848,0,0
504,176,0,0,0,0,0,0,0,0,0,-1,1728,848,0,0
511,176,0,0,0,0,0,0,0,0,0,-1,1735,848,0,0
518,176,0,0,0,0,0,0,0,0,0,-1,1742,848,0,0
525,176,0,0,0,0,0,0,0,0,0,-1,1749,848,0,0
532,176,0,0,0,0,0,0,0,0,0,-1,1756,848,0,0
539,176,0,0,0,0,0,0,0,0,0,-1,1763,848,0,0
546,176,0,0,0,0,0,0,0,0,0,-1,1770,848,0,0
553,176,0,0,0,0,0,0,0,0,0,-1,1777,848,0,0
560,176,0,0,0,0,0,0,0,0,0,-1,1784,848,0,0
567,176,0,0,0,0,0,0,0,0,0,-1,1791,848,0,0
574,176,0,0,0,0,0,0,0,0,0,-1,1798,848,0,0
581,176,0,0,0,0,0,0,0,0,0,-1,1805,848,0,0
588,176,0,0,0,0,0,0,0,0,0,-1,1812,848,0,0
595,176,0,0,0,0,0,0,0,0,0,-1,1819,848,0,0
602,176,0,0,0,0,0,0,0,0,0,-1,1826,848,0,0
609,176,76.489,2.21588,0.000692093,0.00344622,0.000510358,0.00353775,0.000600562,1.39334,0.00218599,0.039255,1833,848,76.4891,-2.2159
616,176,76.3636,1.90131,0.00101655,0.00243181,0.000121364,0.00244214,0.00100622,1.48587,0.00141723,0.0381004,1840,848,76.3637,-1.90129
623,176,76.2814,2.21814,0,0,0,0,0,0,0,-1,1847,848,76.2813,-2.21811
630,176,76.5067,2.24945,0.000142191,0.00103946,-0.000360063,0.00116608,1.55703e-05,-1.23264,0.00077225,0.0410488,1854,848,76.5068,-2.24945
637,176,76.7035,2.14709,-0.000305897,0.000853784,-0.00049678,0.00103749,-0.000489604,-1.2166,0.000900385,0.0335449,1861,848,76.7034,-2.14709
644,176,76.5399,2.13159,-0.000634021,0.000713004,-0.000433694,0.000840559,-0.000761577,-1.28475,0.000925368,0.030466,1868,848,76.5399,-2.13156
651,176,76.5297,2.12811,-0.000803559,0.000527337,-0.000513039,0.000702145,-0.000978366,-1.2424,0.000974603,0.0314954,1875,848,76.5296,-2.12811
658,176,76.5463,2.22034,0,0,0,0,0,0,0,-1,1882,848,76.5463,-2.22034
665,176,54.3333,2.34277,0,0,0,0,0,0,0,-1,1889,848,54.3333,-2.34279
672,176,16.9304,2.80719,0,0,0,0,0,0,0,-1,1896,848,16.9305,-2.80719
679,176,50.9341,0.315979,0,0,0,0,0,0,0,-1,1903,848,50.9341,-0.315984
686,176,62.0956,-0.305298,0,0,0,0,0,0,0,-1,1910,848,62.0956,0.305324
693,176,62.1235,0.57196,-0.00199989,0.000281564,-0.00087493,0.00057846,-0.00229679,-1.24365,0.00175606,0.0355768,1917,848,62.1235,-0.571931
700,176,62.031,1.56989,-0.00147581,0.000285082,-0.00106196,0.000784112,-0.00197484,-1.13151,0.00164159,0.0426367,1924,848,62.031,-1.56989
707,176,61.9819,2.3725,-0.00136076,0.00037996,-0.001172,0.000969432,-0.00195023,-1.10478,0.00171708,0.0322708,1931,848,61.982,-2.37251
714,176,61.8145,3.09961,-0.000968714,0.000782157,-0.00104821,0.00127242,-0.00145897,-1.13331,0.0015782,0.0154711,1938,848,61.8144,-3.09962
721,176,61.7958,3.95111,-0.000271899,0.00146777,-0.000773301,0.00176181,-0.000565939,-1.20744,0.0014018,0.0154806,1945,848,61.7957,-3.95113
728,176,61.7402,4.87128,0.000702881,0.00230214,-0.000238308,0.0023369,0.000668126,-1.42598,0.00138983,0.019317,1952,848,61.7402,-4.87126
735,176,61.6631,5.72913,0.00194464,0.00332163,0.00038133,0.00342018,0.00184609,1.3179,0.00197672,0.0166223,1959,848,61.6631,-5.72914
742,176,61.6184,6.56812,0.00336809,0.00443206,0.00105979,0.0050859,0.00271426,1.01801,0.00293856,0.023038,1966,848,61.6184,-6.56814
749,176,61.8561,7.60205,0.00500466,0.00553832,0.00191101,0.00720104,0.00334195,0.854763,0.00416109,0.034621,1973,848,61.8561,-7.60203
756,176,62.1797,8.6947,0,0,0,0,0,0,0,-1,1980,848,62.1796,-8.69472
763,176,44.4343,7.70581,0,0,0,0,0,0,0,-1,1987,848,44.4343,-7.70578
770,176,36.4186,4.25641,0,0,0,0,0,0,0,-1,1994,848,36.4186,-4.25639
777,176,43.8328,7.50177,0,0,0,0,0,0,0,-1,2001,848,43.8328,-7.50178
784,176,0,0,0,0,0,0,0,0,0,-1,2008,848,0,0
791,176,0,0,0,0,0,0,0,0,0,-1,2015,848,0,0
798,176,0,0,0,0,0,0,0,0,0,-1,2022,848,0,0
805,176,0,0,0,0,0,0,0,0,0,-1,2029,848,0,0
812,176,0,0,0,0,0,0,0,0,0,-1,2036,848,0,0
-700,169,0,0,0,0,0,0,0,0,0,-1,524,855,0,0
-693,169,0,0,0,0,0,0,0,0,0,-1,531,855,0,0
-686,169,0,0,0,0,0,0,0,0,0,-1,538,855,0,0
-679,169,0,0,0,0,0,0,0,0,0,-1,545,855,0,0
-672,169,0,0,0,0,0,0,0,0,0,-1,552,855,0,0
-665,169,-50.4697,8.3269,0,0,0,0,0,0,0,-1,559,855,-50.4697,-8.32688
-658,169,-58.8608,8.22839,0,0,0,0,0,0,0,-1,566,855,-58.8608,-8.2284
-651,169,-45.7366,10.7646,0,0,0,0,0,0,0,-1,573,855,-45.7366,-10.7647
-644,169,-45.5977,10.3019,0,0,0,0,0,0,0,-1,580,855,-45.5977,-10.3019
-637,169,-45.5289,9.14014,0,0,0,0,0,0,0,-1,587,855,-45.5289,-9.14013
-630,169,-46.6243,8.25153,0,0,0,0,0,0,0,-1,594,855,-46.6243,-8.25152
-623,169,-46.6545,7.28943,-0.00704408,0.0115121,-0.00226437,0.0117844,-0.0073164,-1.45111,0.011128,0.0407768,601,855,-46.6545,-7.28942
-616,169,-46.6929,6.33911,-0.00653322,0.0084145,-0.000712106,0.00844835,-0.00656707,-1.5233,0.00869181,0.0233593,608,855,-46.6929,-6.33909
-609,169,-46.7545,5.47797,-0.00573087,0.00592771,0.000509802,0.00594996,-0.00575312,1.52718,0.0067571,0.0141571,615,855,-46.7545,-5.47798
-602,169,-46.8025,4.59949,-0.00491145,0.00375835,0.00150497,0.00401216,-0.00516526,1.40372,0.00531251,0.0134967,622,855,-46.8025,-4.5995
-595,169,-46.8677,3.67767,-0.00420424,0.00199807,0.00227029,0.00274027,-0.00494644,1.25483,0.00449844,0.0126981,629,855,-46.8677,-3.67769
-588,169,-46.8836,2.83307,-0.00370679,0.000792724,0.00264886,0.00201829,-0.00493235,1.13745,0.00412884,0.0123353,636,855,-46.8836,-2.8331
-581,169,-46.9608,2.01172,-0.00326304,0.000470261,0.00264903,0.00184425,-0.00463703,1.09232,0.00385603,0.0275106,643,855,-46.9608,-2.01171
-574,169,-47.3315,1.13129,-0.00258802,0.000565821,0.00193698,0.00148661,-0.00350882,1.12704,0.00296184,0.0435671,650,855,-47.3315,-1.1313
-567,169,-47.1744,0.21106,0,0,0,0,0,0,0,-1,657,855,-47.1744,-0.211077
-560,169,-47.2136,-0.566101,0,0,0,0,0,0,0,-1,664,855,-47.2136,0.566074
-553,169,-32.1944,-0.787964,0,0,0,0,0,0,0,-1,671,855,-32.1944,0.787959
-546,169,-19.0852,-1.05609,0,0,0,0,0,0,0,-1,678,855,-19.0852,1.05612
-539,169,-33.2307,1.10706,0,0,0,0,0,0,0,-1,685,855,-33.2307,-1.10708
-532,169,-60.2139,0.391357,0,0,0,0,0,0,0,-1,692,855,-60.2139,-0.391346
-525,169,-60.239,0.328979,0.00394925,0.00329465,-0.000180836,0.00399588,0.00324801,-0.252383,0.00245293,0.0490927,699,855,-60.239,-0.328965
-518,169,-60.2543,0.20697,0.00421464,0.00420784,-0.000181004,0.00439228,0.00403021,-0.776001,0.00281527,0.0396719,706,855,-60.2543,-0.20694
-511,169,-60.241,0.0792847,0.00465355,0.00491234,0.000335097,0.00514216,0.00442373,0.969651,0.00321549,0.0389834,713,855,-60.241,-0.0792618
-504,169,-60.1921,0.0857544,0.0066094,0.00546809,0.000130936,0.00662423,0.00545326,0.112772,0.0040822,0.0408312,720,855,-60.1921,-0.085734
-497,169,-60.1982,0.323364,0.00927613,0.00568564,-0.000774691,0.00943615,0.00552562,-0.203692,0.0054745,0.0443552,727,855,-60.1982,-0.323387
-490,169,0,0,0,0,0,0,0,0,0,-1,734,855,0,0
-483,169,0,0,0,0,0,0,0,0,0,-1,741,855,0,0
-476,169,0,0,0,0,0,0,0,0,0,-1,748,855,0,0
-469,169,0,0,0,0,0,0,0,0,0,-1,755,855,0,0
-462,169,0,0,0,0,0,0,0,0,0,-1,762,855,0,0
-455,169,0,0,0,0,0,0,0,0,0,-1,769,855,0,0
-448,169,0,0,0,0,0,0,0,0,0,-1,776,855,0,0
-441,169,0,0,0,0,0,0,0,0,0,-1,783,855,0,0
-434,169,0,0,0,0,0,0,0,0,0,-1,790,855,0,0
-427,169,0,0,0,0,0,0,0,0,0,-1,797,855,0,0
-420,169,0,0,0,0,0,0,0,0,0,-1,804,855,0,0
-413,169,0,0,0,0,0,0,0,0,0,-1,811,855,0,0
-406,169,0,0,0,0,0,0,0,0,0,-1,818,855,0,0
-399,169,0,0,0,0,0,0,0,0,0,-1,825,855,0,0
-392,169,0,0,0,0,0,0,0,0,0,-1,832,855,0,0
-385,169,0,0,0,0,0,0,0,0,0,-1,839,855,0,0
-378,169,0,0,0,0,0,0,0,0,0,-1,846,855,0,0
-371,169,0,0,0,0,0,0,0,0,0,-1,853,855,0,0
-364,169,0,0,0,0,0,0,0,0,0,-1,860,855,0,0
-357,169,0,0,0,0,0,0,0,0,0,-1,867,855,0,0
-350,169,0,0,0,0,0,0,0,0,0,-1,874,855,0,0
-343,169,0,0,0,0,0,0,0,0,0,-1,881,855,0,0
-336,169,0,0,0,0,0,0,0,0,0,-1,888,855,0,0
-329,169,0,0,0,0,0,0,0,0,0,-1,895,855,0,0
-322,169,0,0,0,0,0,0,0,0,0,-1,902,855,0,0
-315,169,0,0,0,0,0,0,0,0,0,-1,909,855,0,0
-308,169,0,0,0,0,0,0,0,0,0,-1,916,855,0,0
-301,169,0,0,0,0,0,0,0,0,0,-1,923,855,0,0
-294,169,0,0,0,0,0,0,0,0,0,-1,930,855,0,0
-287,169,0,0,0,0,0,0,0,0,0,-1,937,855,0,0
-280,169,0,0,0,0,0,0,0,0,0,-1,944,855,0,0
-273,169,0,0,0,0,0,0,0,0,0,-1,951,855,0,0
-266,169,0,0,0,0,0,0,0,0,0,-1,958,855,0,0
-259,169,0,0,0,0,0,0,0,0,0,-1,965,855,0,0
-252,169,0,0,0,0,0,0,0,0,0,-1,972,855,0,0
-245,169,0,0,0,0,0,0,0,0,0,-1,979,855,0,0
-238,169,0,0,0,0,0,0,0,0,0,-1,986,855,0,0
-231,169,0,0,0,0,0,0,0,0,0,-1,993,855,0,0
-224,169,0,0,0,0,0,0,0,0,0,-1,1000,855,0,0
-217,169,0,0,0,0,0,0,0,0,0,-1,1007,855,0,0
-210,169,0,0,0,0,0,0,0,0,0,-1,1014,855,0,0
-203,169,0,0,0,0,0,0,0,0,0,-1,1021,855,0,0
-196,169,0,0,0,0,0,0,0,0,0,-1,1028,855,0,0
-189,169,0,0,0,0,0,0,0,0,0,-1,1035,855,0,0
-182,169,0,0,0,0,0,0,0,0,0,-1,1042,855,0,0
-175,169,0,0,0,0,0,0,0,0,0,-1,1049,855,0,0
-168,169,0,0,0,0,0,0,0,0,0,-1,1056,855,0,0
-161,169,0,0,0,0,0,0,0,0,0,-1,1063,855,0,0
-154,169,0,0,0,0,0,0,0,0,0,-1,1070,855,0,0
-147,169,0,0,0,0,0,0,0,0,0,-1,1077,855,0,0
-140,169,0,0,0,0,0,0,0,0,0,-1,1084,855,0,0
-133,169,0,0,0,0,0,0,0,0,0,-1,1091,855,0,0
-126,169,0,0,0,0,0,0,0,0,0,-1,1098,855,0,0
-119,169,0,0,0,0,0,0,0,0,0,-1,1105,855,0,0
-112,169,0,0,0,0,0,0,0,0,0,-1,1112,855,0,0
-105,169,0,0,0,0,0,0,0,0,0,-1,1119,855,0,0
-98,169,0,0,0,0,0,0,0,0,0,-1,1126,855,0,0
-91,169,0,0,0,0,0,0,0,0,0,-1,1133,855,0,0
-84,169,0,0,0,0,0,0,0,0,0,-1,1140,855,0,0
-77,169,0,0,0,0,0,0,0,0,0,-1,1147,855,0,0
-70,169,0,0,0,0,0,0,0,0,0,-1,1154,855,0,0
-63,169,0,0,0,0,0,0,0,0,0,-1,1161,855,0,0
-56,169,0,0,0,0,0,0,0,0,0,-1,1168,855,0,0
-49,169,0,0,0,0,0,0,0,0,0,-1,1175,855,0,0
-42,169,0,0,0,0,0,0,0,0,0,-1,1182,855,0,0
-35,169,0,0,0,0,0,0,0,0,0,-1,1189,855,0,0
-28,169,0,0,0,0,0,0,0,0,0,-1,1196,855,0,0
-21,169,0,0,0,0,0,0,0,0,0,-1,1203,855,0,0
-14,169,0,0,0,0,0,0,0,0,0,-1,1210,855,0,0
-7,169,0,0,0,0,0,0,0,0,0,-1,1217,855,0,0
0,169,0,0,0,0,0,0,0,0,0,-1,1224,855,0,0
7,169,0,0,0,0,0,0,0,0,0,-1,1231,855,0,0
14,169,0,0,0,0,0,0,0,0,0,-1,1238,855,0,0
21,169,0,0,0,0,0,0,0,0,0,-1,1245,855,0,0
28,169,0,0,0,0,0,0,0,0,0,-1,1252,855,0,0
35,169,0,0,0,0,0,0,0,0,0,-1,1259,855,0,0
42,169,0,0,0,0,0,0,0,0,0,-1,1266,855,0,0
49,169,0,0,0,0,0,0,0,0,0,-1,1273,855,0,0
56,169,0,0,0,0,0,0,0,0,0,-1,1280,855,0,0
63,169,0,0,0,0,0,0,0,0,0,-1,1287,855,0,0
70,169,0,0,0,0,0,0,0,0,0,-1,1294,855,0,0
77,169,0,0,0,0,0,0,0,0,0,-1,1301,855,0,0
84,169,0,0,0,0,0,0,0,0,0,-1,1308,855,0,0
91,169,0,0,0,0,0,0,0,0,0,-1,1315,855,0,0
98,169,0,0,0,0,0,0,0,0,0,-1,1322,855,0,0
105,169,0,0,0,0,0,0,0,0,0,-1,1329,855,0,0
112,169,0,0,0,0,0,0,0,0,0,-1,1336,855,0,0
119,169,0,0,0,0,0,0,0,0,0,-1,1343,855,0,0
126,169,0,0,0,0,0,0,0,0,0,-1,1350,855,0,0
133,169,0,0,0,0,0,0,0,0,0,-1,1357,855,0,0
140,169,0,0,0,0,0,0,0,0,0,-1,1364,855,0,0
147,169,0,0,0,0,0,0,0,0,0,-1,1371,855,0,0
154,169,0,0,0,0,0,0,0,0,0,-1,1378,855,0,0
161,169,0,0,0,0,0,0,0,0,0,-1,1385,855,0,0
168,169,0,0,0,0,0,0,0,0,0,-1,1392,855,0,0
175,169,0,0,0,0,0,0,0,0,0,-1,1399,855,0,0
182,169,0,0,0,0,0,0,0,0,0,-1,1406,855,0,0
189,169,0,0,0,0,0,0,0,0,0,-1,1413,855,0,0
196,169,0,0,0,0,0,0,0,0,0,-1,1420,855,0,0
203,169,0,0,0,0,0,0,0,0,0,-1,1427,855,0,0
210,169,0,0,0,0,0,0,0,0,0,-1,1434,855,0,0
217,169,0,0,0,0,0,0,0,0,0,-1,1441,855,0,0
224,169,0,0,0,0,0,0,0,0,0,-1,1448,855,0,0
231,169,0,0,0,0,0,0,0,0,0,-1,1455,855,0,0
238,169,0,0,0,0,0,0,0,0,0,-1,1462,855,0,0
245,169,0,0,0,0,0,0,0,0,0,-1,1469,855,0,0
252,169,0,0,0,0,0,0,0,0,0,-1,1476,855,0,0
259,169,0,0,0,0,0,0,0,0,0,-1,1483,855,0,0
266,169,0,0,0,0,0,0,0,0,0,-1,1490,855,0,0
273,169,0,0,0,0,0,0,0,0,0,-1,1497,855,0,0
280,169,0,0,0,0,0,0,0,0,0,-1,1504,855,0,0
287,169,0,0,0,0,0,0,0,0,0,-1,1511,855,0,0
294,169,0,0,0,0,0,0,0,0,0,-1,1518,855,0,0
301,169,0,0,0,0,0,0,0,0,0,-1,1525,855,0,0
308,169,0,0,0,0,0,0,0,0,0,-1,1532,855,0,0
315,169,0,0,0,0,0,0,0,0,0,-1,1539,855,0,0
322,169,0,0,0,0,0,0,0,0,0,-1,1546,855,0,0
329,169,0,0,0,0,0,0,0,0,0,-1,1553,855,0,0
336,169,0,0,0,0,0,0,0,0,0,-1,1560,855,0,0
343,169,0,0,0,0,0,0,0,0,0,-1,1567,855,0,0
350,169,0,0,0,0,0,0,0,0,0,-1,1574,855,0,0
357,169,0,0,0,0,0,0,0,0,0,-1,1581,855,0,0
364,169,0,0,0,0,0,0,0,0,0,-1,1588,855,0,0
371,169,0,0,0,0,0,0,0,0,0,-1,1595,855,0,0
378,169,0,0,0,0,0,0,0,0,0,-1,1602,855,0,0
385,169,0,0,0,0,0,0,0,0,0,-1,1609,855,0,0
392,169,0,0,0,0,0,0,0,0,0,-1,1616,855,0,0
399,169,0,0,0,0,0,0,0,0,0,-1,1623,855,0,0
406,169,0,0,0,0,0,0,0,0,0,-1,1630,855,0,0
413,169,0,0,0,0,0,0,0,0,0,-1,1637,855,0,0
420,169,0,0,0,0,0,0,0,0,0,-1,1644,855,0,0
427,169,0,0,0,0,0,0,0,0,0,-1,1651,855,0,0
434,169,0,0,0,0,0,0,0,0,0,-1,1658,855,0,0
441,169,0,0,0,0,0,0,0,0,0,-1,1665,855,0,0
448,169,0,0,0,0,0,0,0,0,0,-1,1672,855,0,0
455,169,0,0,0,0,0,0,0,0,0,-1,1679,855,0,0
462,169,0,0,0,0,0,0,0,0,0,-1,1686,855,0,0
469,169,0,0,0,0,0,0,0,0,0,-1,1693,855,0,0
476,169,0,0,0,0,0,0,0,0,0,-1,1700,855,0,0
483,169,0,0,0,0,0,0,0,0,0,-1,1707,855,0,0
490,169,0,0,0,0,0,0,0,0,0,-1,1714,855,0,0
497,169,0,0,0,0,0,0,0,0,0,-1,1721,855,0,0
504,169,0,0,0,0,0,0,0,0,0,-1,1728,855,0,0
511,169,0,0,0,0,0,0,0,0,0,-1,1735,855,0,0
518,169,0,0,0,0,0,0,0,0,0,-1,1742,855,0,0
525,169,0,0,0,0,0,0,0,0,0,-1,1749,855,0,0
532,169,0,0,0,0,0,0,0,0,0,-1,1756,855,0,0
539,169,0,0,0,0,0,0,0,0,0,-1,1763,855,0,0
546,169,0,0,0,0,0,0,0,0,0,-1,1770,855,0,0
553,169,0,0,0,0,0,0,0,0,0,-1,1777,855,0,0
560,169,0,0,0,0,0,0,0,0,0,-1,1784,855,0,0
567,169,0,0,0,0,0,0,0,0,0,-1,1791,855,0,0
574,169,0,0,0,0,0,0,0,0,0,-1,1798,855,0,0
581,169,0,0,0,0,0,0,0,0,0,-1,1805,855,0,0
588,169,0,0,0,0,0,0,0,0,0,-1,1812,855,0,0
595,169,0,0,0,0,0,0,0,0,0,-1,1819,855,0,0
602,169,0,0,0,0,0,0,0,0,0,-1,1826,855,0,0
609,169,0,0,0,0,0,0,0,0,0,-1,1833,855,0,0
616,169,76.4353,2.17755,0,0,0,0,0,0,0,-1,1840,855,76.4353,-2.17754
623,169,76.4375,2.33527,0.00164934,0.00187892,2.06901e-05,0.00188077,0.0016475,1.48163,0.00118378,0.0438361,1847,855,76.4376,-2.33527
630,169,76.5219,2.31433,0.000747425,0.00132686,-0.000283611,0.00144257,0.000631716,-1.18342,0.000835008,0.0421658,1854,855,76.5219,-2.31435
637,169,76.8025,2.08862,-3.54843e-05,0.0010961,-0.000480269,0.00127245,-0.000211837,-1.21888,0.000927016,0.0362153,1861,855,76.8025,-2.08865
644,169,76.5819,2.26044,-0.00054727,0.000869629,-0.000498734,0.00102757,-0.000705213,-1.2641,0.00100618,0.0334263,1868,855,76.5819,-2.26042
651,169,76.4709,2.24561,-0.000831718,0.000624476,-0.000599941,0.000839806,-0.00104705,-1.2262,0.00109156,0.0335421,1875,855,76.471,-2.2456
658,169,76.4366,2.28339,0,0,0,0,0,0,0,-1,1882,855,76.4366,-2.2834
665,169,74.1068,1.9809,0,0,0,0,0,0,0,-1,1889,855,74.1069,-1.98093
672,169,31.2465,2.96387,0,0,0,0,0,0,0,-1,1896,855,31.2464,-2.9639
679,169,38.4297,1.08197,0,0,0,0,0,0,0,-1,1903,855,38.4296,-1.08194
686,169,62.9594,-0.239746,0,0,0,0,0,0,0,-1,1910,855,62.9593,0.23972
693,169,63.1313,0.709717,-0.00213407,0.000413175,-0.000953577,0.000730597,-0.00245149,-1.24946,0.00192465,0.0421745,1917,855,63.1314,-0.709729
700,169,63.1537,1.6814,-0.00166691,0.000460815,-0.00108613,0.000917309,-0.0021234,-1.17292,0.001801,0.0352225,1924,855,63.1537,-1.68138
707,169,63.3608,2.76874,0,0,0,0,0,0,0,-1,1931,855,63.3608,-2.76871
714,169,62.6725,3.13611,-0.00149263,0.000880984,-0.00114231,0.00134141,-0.00195306,-1.18765,0.00191296,0.0222807,1938,855,62.6725,-3.13613
721,169,62.6619,3.99841,-0.00101499,0.00154852,-0.000995114,0.00188946,-0.00135594,-1.24071,0.00188215,0.0211029,1945,855,62.6618,-3.99842
728,169,62.6238,4.90784,-0.000257815,0.00236639,-0.000551621,0.00247763,-0.000369053,-1.37181,0.00178752,0.0175846,1952,855,62.6238,-4.90781
735,169,62.5436,5.78326,0.000810649,0.00339571,-1.20639e-06,0.00339571,0.000810648,-1.57033,0.00204779,0.0224823,1959,855,62.5435,-5.78328
742,169,62.5139,6.63574,0.00205007,0.00457542,0.000615549,0.00471747,0.00190802,1.344,0.00274016,0.018787,1966,855,62.5139,-6.63576
749,169,62.4976,7.45892,0.00339053,0.00576189,0.00135638,0.00637777,0.00277465,1.14457,0.00369255,0.0287811,1973,855,62.4976,-7.45892
756,169,62.7643,8.30884,0,0,0,0,0,0,0,-1,1980,855,62.7643,-8.30883
763,169,61.2976,7.40009,0,0,0,0,0,0,0,-1,1987,855,61.2975,-7.40007
770,169,37.2059,3.97021,0,0,0,0,0,0,0,-1,1994,855,37.2059,-3.97022
777,169,41.7505,8.7085,0,0,0,0,0,0,0,-1,2001,855,41.7505,-8.70852
784,169,40.7385,9.24359,0,0,0,0,0,0,0,-1,2008,855,40.7384,-9.24361
791,169,0,0,0,0,0,0,0,0,0,-1,2015,855,0,0
798,169,0,0,0,0,0,0,0,0,0,-1,2022,855,0,0
805,169,0,0,0,0,0,0,0,0,0,-1,2029,855,0,0
812,169,0,0,0,0,0,0,0,0,0,-1,2036,855,0,0
-700,162,0,0,0,0,0,0,0,0,0,-1,524,862,0,0
-693,162,0,0,0,0,0,0,0,0,0,-1,531,862,0,0
-686,162,0,0,0,0,0,0,0,0,0,-1,538,862,0,0
-679,162,0,0,0,0,0,0,0,0,0,-1,545,862,0,0
-672,162,0,0,0,0,0,0,0,0,0,-1,552,862,0,0
-665,162,-50.6751,7.18884,0,0,0,0,0,0,0,-1,559,862,-50.6751,-7.18885
-658,162,-50.7888,6.02673,0,0,0,0,0,0,0,-1,566,862,-50.7888,-6.02673
-651,162,-46.6468,10.7962,0,0,0,0,0,0,0,-1,573,862,-46.6468,-10.7962
-644,162,-46.5665,9.83966,0,0,0,0,0,0,0,-1,580,862,-46.5665,-9.83966
-637,162,-47.3486,9.13879,0,0,0,0,0,0,0,-1,587,862,-47.3486,-9.1388
-630,162,-47.4874,8.27704,0,0,0,0,0,0,0,-1,594,862,-47.4874,-8.27703
-623,162,-47.5234,7.32458,-0.00714324,0.0113864,-0.00214482,0.0116314,-0.00738826,-1.45705,0.0110717,0.034207,601,862,-47.5234,-7.32456
-616,162,-47.5468,6.35944,-0.00642144,0.00836468,-0.000563635,0.00838614,-0.00644289,-1.53275,0.00858601,0.0203003,608,862,-47.5467,-6.35942
-609,162,-47.6469,5.49097,-0.00561352,0.00580884,0.00079339,0.00586369,-0.00566836,1.50178,0.00665835,0.0138699,615,862,-47.6468,-5.49096
-602,162,-47.7117,4.60345,-0.00492995,0.00348772,0.00202071,0.00394767,-0.00538991,1.34699,0.00541244,0.0120143,622,862,-47.7117,-4.60346
-595,162,-47.7568,3.74634,-0.00440346,0.00165188,0.00289606,0.00281395,-0.00556554,1.1892,0.00492407,0.0117691,629,862,-47.7568,-3.74632
-588,162,-47.7606,2.90393,-0.00401251,0.000492996,0.00314956,0.00211254,-0.00563205,1.09584,0.00462268,0.0185309,636,862,-47.7606,-2.90393
-581,162,-48.0482,2.04327,-0.00359698,0.000262586,0.00296298,0.0018688,-0.0052032,1.07404,0.0042316,0.0476091,643,862,-48.0482,-2.04329
-574,162,-48.2069,1.19678,0,0,0,0,0,0,0,-1,650,862,-48.2069,-1.19681
-567,162,-48.548,0.134888,0,0,0,0,0,0,0,-1,657,862,-48.548,-0.134864
-560,162,-36.5075,-0.831665,0,0,0,0,0,0,0,-1,664,862,-36.5075,0.831657
-553,162,-35.9823,-1.60956,0,0,0,0,0,0,0,-1,671,862,-35.9823,1.60954
-546,162,-22.8181,-1.51154,0,0,0,0,0,0,0,-1,678,862,-22.8181,1.51155
-539,162,-53.0229,0.9328,0,0,0,0,0,0,0,-1,685,862,-53.0229,-0.932798
-532,162,-60.1841,0.385864,0,0,0,0,0,0,0,-1,692,862,-60.1842,-0.385861
-525,162,-60.2327,0.270264,0.00389653,0.00264793,-0.000320866,0.00397416,0.0025703,-0.237378,0.00232719,0.0389194,699,862,-60.2327,-0.270259
-518,162,-60.2494,0.0619507,0.00428827,0.00353341,-0.000458462,0.00450468,0.003317,-0.441018,0.00269589,0.0376101,706,862,-60.2494,-0.0619763
-511,162,-60.2028,-0.0549316,0.00518025,0.00398009,-0.000170915,0.00520412,0.00395622,-0.138736,0.0031373,0.0409239,713,862,-60.2028,0.0549436
-504,162,-60.2146,0.148193,0.00749713,0.00406023,-0.000566423,0.00758808,0.00396929,-0.159199,0.00438254,0.0425547,720,862,-60.2146,-0.148178
-497,162,-60.1882,0.252197,0.010071,0.00388045,-0.0011725,0.0102857,0.00366582,-0.18105,0.00601952,0.0431064,727,862,-60.1882,-0.252212
-490,162,0,0,0,0,0,0,0,0,0,-1,734,862,0,0
-483,162,0,0,0,0,0,0,0,0,0,-1,741,862,0,0
-476,162,0,0,0,0,0,0,0,0,0,-1,748,862,0,0
-469,162,0,0,0,0,0,0,0,0,0,-1,755,862,0,0
-462,162,0,0,0,0,0,0,0,0,0,-1,762,862,0,0
-455,162,0,0,0,0,0,0,0,0,0,-1,769,862,0,0
-448,162,0,0,0,0,0,0,0,0,0,-1,776,862,0,0
-441,162,0,0,0,0,0,0,0,0,0,-1,783,862,0,0
-434,162,0,0,0,0,0,0,0,0,0,-1,790,862,0,0
-427,162,0,0,0,0,0,0,0,0,0,-1,797,862,0,0
-420,162,0,0,0,0,0,0,0,0,0,-1,804,862,0,0
-413,162,0,0,0,0,0,0,0,0,0,-1,811,862,0,0
-406,162,0,0,0,0,0,0,0,0,0,-1,818,862,0,0
-399,162,0,0,0,0,0,0,0,0,0,-1,825,862,0,0
-392,162,0,0,0,0,0,0,0,0,0,-1,832,862,0,0
-385,162,0,0,0,0,0,0,0,0,0,-1,839,862,0,0
-378,162,0,0,0,0,0,0,0,0,0,-1,846,862,0,0
-371,162,0,0,0,0,0,0,0,0,0,-1,853,862,0,0
-364,162,0,0,0,0,0,0,0,0,0,-1,860,862,0,0
-357,162,0,0,0,0,0,0,0,0,0,-1,867,862,0,0
-350,162,0,0,0,0,0,0,0,0,0,-1,874,862,0,0
-343,162,0,0,0,0,0,0,0,0,0,-1,881,862,0,0
-336,162,0,0,0,0,0,0,0,0,0,-1,888,862,0,0
-329,162,0,0,0,0,0,0,0,0,0,-1,895,862,0,0
-322,162,0,0,0,0,0,0,0,0,0,-1,902,862,0,0
-315,162,0,0,0,0,0,0,0,0,0,-1,909,862,0,0
-308,162,0,0,0,0,0,0,0,0,0,-1,916,862,0,0
-301,162,0,0,0,0,0,0,0,0,0,-1,923,862,0,0
-294,162,0,0,0,0,0,0,0,0,0,-1,930,862,0,0
-287,162,0,0,0,0,0,0,0,0,0,-1,937,862,0,0
-280,162,0,0,0,0,0,0,0,0,0,-1,944,862,0,0
-273,162,0,0,0,0,0,0,0,0,0,-1,951,862,0,0
-266,162,0,0,0,0,0,0,0,0,0,-1,958,862,0,0
-259,162,0,0,0,0,0,0,0,0,0,-1,965,862,0,0
-252,162,0,0,0,0,0,0,0,0,0,-1,972,862,0,0
-245,162,0,0,0,0,0,0,0,0,0,-1,979,862,0,0
-238,162,0,0,0,0,0,0,0,0,0,-1,986,862,0,0
-231,162,0,0,0,0,0,0,0,0,0,-1,993,862,0,0
-224,162,0,0,0,0,0,0,0,0,0,-1,1000,862,0,0
-217,162,0,0,0,0,0,0,0,0,0,-1,1007,862,0,0
-210,162,0,0,0,0,0,0,0,0,0,-1,1014,862,0,0
-203,162,0,0,0,0,0,0,0,0,0,-1,1021,862,0,0
-196,162,0,0,0,0,0,0,0,0,0,-1,1028,862,0,0
-189,162,0,0,0,0,0,0,0,0,0,-1,1035,862,0,0
-182,162,0,0,0,0,0,0,0,0,0,-1,1042,862,0,0
-175,162,0,0,0,0,0,0,0,0,0,-1,1049,862,0,0
-168,162,0,0,0,0,0,0,0,0,0,-1,1056,862,0,0
-161,162,0,0,0,0,0,0,0,0,0,-1,1063,862,0,0
-154,162,0,0,0,0,0,0,0,0,0,-1,1070,862,0,0
-147,162,0,0,0,0,0,0,0,0,0,-1,1077,862,0,0
-140,162,0,0,0,0,0,0,0,0,0,-1,1084,862,0,0
-133,162,0,0,0,0,0,0,0,0,0,-1,1091,862,0,0
-126,162,0,0,0,0,0,0,0,0,0,-1,1098,862,0,0
-119,162,0,0,0,0,0,0,0,0,0,-1,1105,862,0,0
-112,162,0,0,0,0,0,0,0,0,0,-1,1112,862,0,0
-105,162,0,0,0,0,0,0,0,0,0,-1,1119,862,0,0
-98,162,0,0,0,0,0,0,0,0,0,-1,1126,862,0,0
-91,162,0,0,0,0,0,0,0,0,0,-1,1133,862,0,0
-84,162,0,0,0,0,0,0,0,0,0,-1,1140,862,0,0
-77,162,0,0,0,0,0,0,0,0,0,-1,1147,862,0,0
-70,162,0,0,0,0,0,0,0,0,0,-1,1154,862,0,0
-63,162,0,0,0,0,0,0,0,0,0,-1,1161,862,0,0
-56,162,0,0,0,0,0,0,0,0,0,-1,1168,862,0,0
-49,162,0,0,0,0,0,0,0,0,0,-1,1175,862,0,0
-42,162,0,0,0,0,0,0,0,0,0,-1,1182,862,0,0
-35,162,0,0,0,0,0,0,0,0,0,-1,1189,862,0,0
-28,162,0,0,0,0,0,0,0,0,0,-1,1196,862,0,0
-21,162,0,0,0,0,0,0,0,0,0,-1,1203,862,0,0
-14,162,0,0,0,0,0,0,0,0,0,-1,1210,862,0,0
-7,162,0,0,0,0,0,0,0,0,0,-1,1217,862,0,0
0,162,0,0,0,0,0,0,0,0,0,-1,1224,862,0,0
7,162,0,0,0,0,0,0,0,0,0,-1,1231,862,0,0
14,162,0,0,0,0,0,0,0,0,0,-1,1238,862,0,0
21,162,0,0,0,0,0,0,0,0,0,-1,1245,862,0,0
28,162,0,0,0,0,0,0,0,0,0,-1,1252,862,0,0
35,162,0,0,0,0,0,0,0,0,0,-1,1259,862,0,0
42,162,0,0,0,0,0,0,0,0,0,-1,1266,862,0,0
49,162,0,0,0,0,0,0,0,0,0,-1,1273,862,0,0
56,162,0,0,0,0,0,0,0,0,0,-1,1280,862,0,0
63,162,0,0,0,0,0,0,0,0,0,-1,1287,862,0,0
70,162,0,0,0,0,0,0,0,0,0,-1,1294,862,0,0
77,162,0,0,0,0,0,0,0,0,0,-1,1301,862,0,0
84,162,0,0,0,0,0,0,0,0,0,-1,1308,862,0,0
91,162,0,0,0,0,0,0,0,0,0,-1,1315,862,0,0
98,162,0,0,0,0,0,0,0,0,0,-1,1322,862,0,0
105,162,0,0,0,0,0,0,0,0,0,-1,1329,862,0,0
112,162,0,0,0,0,0,0,0,0,0,-1,1336,862,0,0
119,162,0,0,0,0,0,0,0,0,0,-1,1343,862,0,0
126,162,0,0,0,0,0,0,0,0,0,-1,1350,862,0,0
133,162,0,0,0,0,0,0,0,0,0,-1,1357,862,0,0
140,162,0,0,0,0,0,0,0,0,0,-1,1364,862,0,0
147,162,0,0,0,0,0,0,0,0,0,-1,1371,862,0,0
154,162,0,0,0,0,0,0,0,0,0,-1,1378,862,0,0
161,162,0,0,0,0,0,0,0,0,0,-1,1385,862,0,0
168,162,0,0,0,0,0,0,0,0,0,-1,1392,862,0,0
175,162,0,0,0,0,0,0,0,0,0,-1,1399,862,0,0
182,162,0,0,0,0,0,0,0,0,0,-1,1406,862,0,0
189,162,0,0,0,0,0,0,0,0,0,-1,1413,862,0,0
196,162,0,0,0,0,0,0,0,0,0,-1,1420,862,0,0
203,162,0,0,0,0,0,0,0,0,0,-1,1427,862,0,0
210,162,0,0,0,0,0,0,0,0,0,-1,1434,862,0,0
217,162,0,0,0,0,0,0,0,0,0,-1,1441,862,0,0
224,162,0,0,0,0,0,0,0,0,0,-1,1448,862,0,0
231,162,0,0,0,0,0,0,0,0,0,-1,1455,862,0,0
238,162,0,0,0,0,0,0,0,0,0,-1,1462,862,0,0
245,162,0,0,0,0,0,0,0,0,0,-1,1469,862,0,0
252,162,0,0,0,0,0,0,0,0,0,-1,1476,862,0,0
259,162,0,0,0,0,0,0,0,0,0,-1,1483,862,0,0
266,162,0,0,0,0,0,0,0,0,0,-1,1490,862,0,0
273,162,0,0,0,0,0,0,0,0,0,-1,1497,862,0,0
280,162,0,0,0,0,0,0,0,0,0,-1,1504,862,0,0
287,162,0,0,0,0,0,0,0,0,0,-1,1511,862,0,0
294,162,0,0,0,0,0,0,0,0,0,-1,1518,862,0,0
301,162,0,0,0,0,0,0,0,0,0,-1,1525,862,0,0
308,162,0,0,0,0,0,0,0,0,0,-1,1532,862,0,0
315,162,0,0,0,0,0,0,0,0,0,-1,1539,862,0,0
322,162,0,0,0,0,0,0,0,0,0,-1,1546,862,0,0
329,162,0,0,0,0,0,0,0,0,0,-1,1553,862,0,0
336,162,0,0,0,0,0,0,0,0,0,-1,1560,862,0,0
343,162,0,0,0,0,0,0,0,0,0,-1,1567,862,0,0
350,162,0,0,0,0,0,0,0,0,0,-1,1574,862,0,0
357,162,0,0,0,0,0,0,0,0,0,-1,1581,862,0,0
364,162,0,0,0,0,0,0,0,0,0,-1,1588,862,0,0
371,162,0,0,0,0,0,0,0,0,0,-1,1595,862,0,0
378,162,0,0,0,0,0,0,0,0,0,-1,1602,862,0,0
385,162,0,0,0,0,0,0,0,0,0,-1,1609,862,0,0
392,162,0,0,0,0,0,0,0,0,0,-1,1616,862,0,0
399,162,0,0,0,0,0,0,0,0,0,-1,1623,862,0,0
406,162,0,0,0,0,0,0,0,0,0,-1,1630,862,0,0
413,162,0,0,0,0,0,0,0,0,0,-1,1637,862,0,0
420,162,0,0,0,0,0,0,0,0,0,-1,1644,862,0,0
427,162,0,0,0,0,0,0,0,0,0,-1,1651,862,0,0
434,162,0,0,0,0,0,0,0,0,0,-1,1658,862,0,0
441,162,0,0,0,0,0,0,0,0,0,-1,1665,862,0,0
448,162,0,0,0,0,0,0,0,0,0,-1,1672,862,0,0
455,162,0,0,0,0,0,0,0,0,0,-1,1679,862,0,0
462,162,0,0,0,0,0,0,0,0,0,-1,1686,862,0,0
469,162,0,0,0,0,0,0,0,0,0,-1,1693,862,0,0
476,162,0,0,0,0,0,0,0,0,0,-1,1700,862,0,0
483,162,0,0,0,0,0,0,0,0,0,-1,1707,862,0,0
490,162,0,0,0,0,0,0,0,0,0,-1,1714,862,0,0
497,162,0,0,0,0,0,0,0,0,0,-1,1721,862,0,0
504,162,0,0,0,0,0,0,0,0,0,-1,1728,862,0,0
511,162,0,0,0,0,0,0,0,0,0,-1,1735,862,0,0
518,162,0,0,0,0,0,0,0,0,0,-1,1742,862,0,0
525,162,0,0,0,0,0,0,0,0,0,-1,1749,862,0,0
532,162,0,0,0,0,0,0,0,0,0,-1,1756,862,0,0
539,162,0,0,0,0,0,0,0,0,0,-1,1763,862,0,0
546,162,0,0,0,0,0,0,0,0,0,-1,1770,862,0,0
553,162,0,0,0,0,0,0,0,0,0,-1,1777,862,0,0
560,162,0,0,0,0,0,0,0,0,0,-1,1784,862,0,0
567,162,0,0,0,0,0,0,0,0,0,-1,1791,862,0,0
574,162,0,0,0,0,0,0,0,0,0,-1,1798,862,0,0
581,162,0,0,0,0,0,0,0,0,0,-1,1805,862,0,0
588,162,0,0,0,0,0,0,0,0,0,-1,1812,862,0,0
595,162,0,0,0,0,0,0,0,0,0,-1,1819,862,0,0
602,162,0,0,0,0,0,0,0,0,0,-1,1826,862,0,0
609,162,0,0,0,0,0,0,0,0,0,-1,1833,862,0,0
616,162,76.4702,2.23987,0.00396384,0.00286509,0.000376748,0.00408061,0.00274832,0.300558,0.00240276,0.0445541,1840,862,76.4702,-2.23987
623,162,76.5348,2.39294,0.00289986,0.00197871,-5.63574e-05,0.0029033,0.00197528,-0.0608788,0.00171218,0.0447341,1847,862,76.5348,-2.39292
630,162,76.5471,2.34552,0.00161038,0.00139745,-0.000352178,0.00187183,0.001136,-0.638613,0.0010889,0.0427292,1854,862,76.5471,-2.34554
637,162,76.678,2.11224,0.000477889,0.00119457,-0.000528938,0.00147512,0.000197337,-1.08312,0.00092468,0.0398208,1861,862,76.678,-2.11227
644,162,76.6078,2.14233,-0.000284841,0.000958045,-0.000572209,0.00118136,-0.000508155,-1.19871,0.00100092,0.0345493,1868,862,76.6077,-2.14231
651,162,76.5342,2.17773,-0.000730769,0.00070154,-0.000674293,0.000969026,-0.000998254,-1.19315,0.00113585,0.033158,1875,862,76.5342,-2.17772
658,162,76.5404,2.16071,-0.00109505,0.000279379,-0.000952657,0.000766821,-0.00158249,-1.09786,0.00138336,0.0366369,1882,862,76.5404,-2.1607
665,162,76.5947,2.09326,0,0,0,0,0,0,0,-1,1889,862,76.5947,-2.09326
672,162,56.9712,3.04034,0,0,0,0,0,0,0,-1,1896,862,56.9711,-3.04034
679,162,26.5077,2.54785,0,0,0,0,0,0,0,-1,1903,862,26.5077,-2.54787
686,162,63.5131,-0.3927,0,0,0,0,0,0,0,-1,1910,862,63.5131,0.392689
693,162,64.0573,0.857971,-0.00213508,0.000593429,-0.00102917,0.000938086,-0.00247974,-1.24765,0.0020391,0.046645,1917,862,64.0573,-0.857964
700,162,64.0221,1.65955,-0.00170029,0.000704852,-0.00106561,0.00110905,-0.00210449,-1.20825,0.00188477,0.0477545,1924,862,64.022,-1.65954
707,162,63.8281,2.46429,-0.0017827,0.000739547,-0.00113749,0.00117675,-0.00221991,-1.20385,0.00199165,0.0330869,1931,862,63.8282,-2.46429
714,162,63.5776,3.11102,-0.00174199,0.0010506,-0.00116891,0.00147529,-0.00216668,-1.2223,0.00211529,0.0375943,1938,862,63.5776,-3.11105
721,162,63.4172,4.11731,-0.00150515,0.00166524,-0.00115509,0.00204144,-0.00188136,-1.25594,0.00226546,0.0348413,1945,862,63.4173,-4.11731
728,162,63.3862,4.98291,-0.00108889,0.00243408,-0.000825775,0.00261804,-0.00127284,-1.35161,0.00229072,0.0285723,1952,862,63.3862,-4.98291
735,162,63.4348,5.83179,-0.00036685,0.00342988,-0.000367471,0.00346511,-0.000402089,-1.47519,0.00245511,0.0131138,1959,862,63.4348,-5.83181
742,162,63.3655,6.66541,0.000541839,0.00464628,0.000186465,0.00465473,0.000533385,1.52549,0.00294152,0.0143394,1966,862,63.3655,-6.66542
749,162,63.2343,7.49396,0.00144492,0.00589553,0.000853576,0.00605363,0.00128683,1.38766,0.00368253,0.0206026,1973,862,63.2342,-7.49395
756,162,63.1675,8.23645,0.00214999,0.00732996,0.00156828,0.00776777,0.00171218,1.29856,0.00471263,0.0476329,1980,862,63.1675,-8.23646
763,162,63.1279,9.03082,0,0,0,0,0,0,0,-1,1987,862,63.1279,-9.0308
770,162,54.8257,9.36987,0,0,0,0,0,0,0,-1,1994,862,54.8256,-9.36988
777,162,54.9807,10.2266,0,0,0,0,0,0,0,-1,2001,862,54.9806,-10.2265
784,162,55.6492,10.6049,0,0,0,0,0,0,0,-1,2008,862,55.6491,-10.6049
791,162,0,0,0,0,0,0,0,0,0,-1,2015,862,0,0
798,162,0,0,0,0,0,0,0,0,0,-1,2022,862,0,0
805,162,0,0,0,0,0,0,0,0,0,-1,2029,862,0,0
812,162,0,0,0,0,0,0,0,0,0,-1,2036,862,0,0
-700,155,0,0,0,0,0,0,0,0,0,-1,524,869,0,0
-693,155,0,0,0,0,0,0,0,0,0,-1,531,869,0,0
-686,155,0,0,0,0,0,0,0,0,0,-1,538,869,0,0
-679,155,0,0,0,0,0,0,0,0,0,-1,545,869,0,0
-672,155,0,0,0,0,0,0,0,0,0,-1,552,869,0,0
-665,155,-50.9639,6.01917,0,0,0,0,0,0,0,-1,559,869,-50.9639,-6.01917
-658,155,-51.2028,4.90723,0,0,0,0,0,0,0,-1,566,869,-51.2028,-4.90722
-651,155,-51.22,3.81226,0,0,0,0,0,0,0,-1,573,869,-51.2201,-3.81228
-644,155,-47.5779,9.1366,0,0,0,0,0,0,0,-1,580,869,-47.5779,-9.13658
-637,155,-47.4189,8.37805,0,0,0,0,0,0,0,-1,587,869,-47.4189,-8.37807
-630,155,-48.3013,8.02362,0,0,0,0,0,0,0,-1,594,869,-48.3013,-8.02363
-623,155,-48.3558,7.27728,-0.00858333,0.0113125,-0.00156472,0.0114349,-0.00870564,-1.49279,0.0116637,0.0294453,601,869,-48.3558,-7.27727
-616,155,-48.4047,6.41034,-0.00723688,0.00832119,-6.60133e-05,0.00832147,-0.00723716,-1.56655,0.00899005,0.0156954,608,869,-48.4048,-6.41032
-609,155,-48.514,5.505,-0.00612249,0.00566369,0.0013398,0.00581407,-0.00627288,1.45902,0.00698008,0.014218,615,869,-48.514,-5.50502
-602,155,-48.588,4.64093,-0.00534235,0.00321091,0.00268179,0.0039822,-0.00611365,1.29075,0.00587198,0.0139587,622,869,-48.5879,-4.64094
-595,155,-48.6487,3.82178,-0.00484573,0.00148977,0.00343168,0.00299226,-0.00634822,1.15811,0.00550753,0.0136557,629,869,-48.6487,-3.82177
-588,155,-48.6515,3.03418,-0.00444297,0.000511846,0.00342959,0.00226523,-0.00619636,1.09819,0.00505799,0.0257509,636,869,-48.6515,-3.03417
-581,155,-48.9777,2.36218,-0.00399345,0.000344081,0.00299711,0.0018748,-0.00552417,1.0986,0.00444163,0.0491452,643,869,-48.9776,-2.36216
-574,155,-49.2437,1.82166,0,0,0,0,0,0,0,-1,650,869,-49.2436,-1.82168
-567,155,-38.0134,0.582214,0,0,0,0,0,0,0,-1,657,869,-38.0134,-0.582192
-560,155,-37.1416,-0.708008,0,0,0,0,0,0,0,-1,664,869,-37.1416,0.70801
-553,155,-36.7729,-1.71521,0,0,0,0,0,0,0,-1,671,869,-36.7729,1.71523
-546,155,-22.7988,0.873657,0,0,0,0,0,0,0,-1,678,869,-22.7988,-0.873645
-539,155,-60.2579,0.166443,0,0,0,0,0,0,0,-1,685,869,-60.2579,-0.166435
-532,155,-60.1599,0.518433,0,0,0,0,0,0,0,-1,692,869,-60.1599,-0.51844
-525,155,-60.1904,0.332275,0.00352927,0.0022509,-0.000828871,0.00393678,0.00184338,-0.456947,0.00227443,0.0354866,699,869,-60.1904,-0.332281
-518,155,-60.1907,0.232727,0.00435443,0.00266763,-0.000995673,0.0048159,0.00220616,-0.434005,0.00278371,0.0381298,706,869,-60.1907,-0.232746
-511,155,-60.1526,0.315369,0.00627865,0.00221446,-0.000653024,0.00638099,0.00211211,-0.155466,0.00375356,0.0407004,713,869,-60.1526,-0.315368
-504,155,-60.0909,0.230591,0.00922514,0.00152224,-0.000737161,0.00929505,0.00145233,-0.0945555,0.0057738,0.0431274,720,869,-60.091,-0.230602
-497,155,0,0,0,0,0,0,0,0,0,-1,727,869,0,0
-490,155,0,0,0,0,0,0,0,0,0,-1,734,869,0,0
-483,155,0,0,0,0,0,0,0,0,0,-1,741,869,0,0
-476,155,0,0,0,0,0,0,0,0,0,-1,748,869,0,0
-469,155,0,0,0,0,0,0,0,0,0,-1,755,869,0,0
-462,155,0,0,0,0,0,0,0,0,0,-1,762,869,0,0
-455,155,0,0,0,0,0,0,0,0,0,-1,769,869,0,0
-448,155,0,0,0,0,0,0,0,0,0,-1,776,869,0,0
-441,155,0,0,0,0,0,0,0,0,0,-1,783,869,0,0
-434,155,0,0,0,0,0,0,0,0,0,-1,790,869,0,0
-427,155,0,0,0,0,0,0,0,0,0,-1,797,869,0,0
-420,155,0,0,0,0,0,0,0,0,0,-1,804,869,0,0
-413,155,0,0,0,0,0,0,0,0,0,-1,811,869,0,0
-406,155,0,0,0,0,0,0,0,0,0,-1,818,869,0,0
-399,155,0,0,0,0,0,0,0,0,0,-1,825,869,0,0
-392,155,0,0,0,0,0,0,0,0,0,-1,832,869,0,0
-385,155,0,0,0,0,0,0,0,0,0,-1,839,869,0,0
-378,155,0,0,0,0,0,0,0,0,0,-1,846,869,0,0
-371,155,0,0,0,0,0,0,0,0,0,-1,853,869,0,0
-364,155,0,0,0,0,0,0,0,0,0,-1,860,869,0,0
-357,155,0,0,0,0,0,0,0,0,0,-1,867,869,0,0
-350,155,0,0,0,0,0,0,0,0,0,-1,874,869,0,0
-343,155,0,0,0,0,0,0,0,0,0,-1,881,869,0,0
-336,155,0,0,0,0,0,0,0,0,0,-1,888,869,0,0
-329,155,0,0,0,0,0,0,0,0,0,-1,895,869,0,0
-322,155,0,0,0,0,0,0,0,0,0,-1,902,869,0,0
-315,155,0,0,0,0,0,0,0,0,0,-1,909,869,0,0
-308,155,0,0,0,0,0,0,0,0,0,-1,916,869,0,0
-301,155,0,0,0,0,0,0,0,0,0,-1,923,869,0,0
-294,155,0,0,0,0,0,0,0,0,0,-1,930,869,0,0
-287,155,0,0,0,0,0,0,0,0,0,-1,937,869,0,0
-280,155,0,0,0,0,0,0,0,0,0,-1,944,869,0,0
-273,155,0,0,0,0,0,0,0,0,0,-1,951,869,0,0
-266,155,0,0,0,0,0,0,0,0,0,-1,958,869,0,0
-259,155,0,0,0,0,0,0,0,0,0,-1,965,869,0,0
-252,155,0,0,0,0,0,0,0,0,0,-1,972,869,0,0
-245,155,0,0,0,0,0,0,0,0,0,-1,979,869,0,0
-238,155,0,0,0,0,0,0,0,0,0,-1,986,869,0,0
-231,155,0,0,0,0,0,0,0,0,0,-1,993,869,0,0
-224,155,0,0,0,0,0,0,0,0,0,-1,1000,869,0,0
-217,155,0,0,0,0,0,0,0,0,0,-1,1007,869,0,0
-210,155,0,0,0,0,0,0,0,0,0,-1,1014,869,0,0
-203,155,0,0,0,0,0,0,0,0,0,-1,1021,869,0,0
-196,155,0,0,0,0,0,0,0,0,0,-1,1028,869,0,0
-189,155,0,0,0,0,0,0,0,0,0,-1,1035,869,0,0
-182,155,0,0,0,0,0,0,0,0,0,-1,1042,869,0,0
-175,155,0,0,0,0,0,0,0,0,0,-1,1049,869,0,0
-168,155,0,0,0,0,0,0,0,0,0,-1,1056,869,0,0
-161,155,0,0,0,0,0,0,0,0,0,-1,1063,869,0,0
-154,155,0,0,0,0,0,0,0,0,0,-1,1070,869,0,0
-147,155,0,0,0,0,0,0,0,0,0,-1,1077,869,0,0
-140,155,0,0,0,0,0,0,0,0,0,-1,1084,869,0,0
-133,155,0,0,0,0,0,0,0,0,0,-1,1091,869,0,0
-126,155,0,0,0,0,0,0,0,0,0,-1,1098,869,0,0
-119,155,0,0,0,0,0,0,0,0,0,-1,1105,869,0,0
-112,155,0,0,0,0,0,0,0,0,0,-1,1112,869,0,0
-105,155,0,0,0,0,0,0,0,0,0,-1,1119,869,0,0
-98,155,0,0,0,0,0,0,0,0,0,-1,1126,869,0,0
-91,155,0,0,0,0,0,0,0,0,0,-1,1133,869,0,0
-84,155,0,0,0,0,0,0,0,0,0,-1,1140,869,0,0
-77,155,0,0,0,0,0,0,0,0,0,-1,1147,869,0,0
-70,155,0,0,0,0,0,0,0,0,0,-1,1154,869,0,0
-63,155,0,0,0,0,0,0,0,0,0,-1,1161,869,0,0
-56,155,0,0,0,0,0,0,0,0,0,-1,1168,869,0,0
-49,155,0,0,0,0,0,0,0,0,0,-1,1175,869,0,0
-42,155,0,0,0,0,0,0,0,0,0,-1,1182,869,0,0
-35,155,0,0,0,0,0,0,0,0,0,-1,1189,869,0,0
-28,155,0,0,0,0,0,0,0,0,0,-1,1196,869,0,0
-21,155,0,0,0,0,0,0,0,0,0,-1,1203,869,0,0
-14,155,0,0,0,0,0,0,0,0,0,-1,1210,869,0,0
-7,155,0,0,0,0,0,0,0,0,0,-1,1217,869,0,0
0,155,0,0,0,0,0,0,0,0,0,-1,1224,869,0,0
7,155,0,0,0,0,0,0,0,0,0,-1,1231,869,0,0
14,155,0,0,0,0,0,0,0,0,0,-1,1238,869,0,0
21,155,0,0,0,0,0,0,0,0,0,-1,1245,869,0,0
28,155,0,0,0,0,0,0,0,0,0,-1,1252,869,0,0
35,155,0,0,0,0,0,0,0,0,0,-1,1259,869,0,0
42,155,0,0,0,0,0,0,0,0,0,-1,1266,869,0,0
49,155,0,0,0,0,0,0,0,0,0,-1,1273,869,0,0
56,155,0,0,0,0,0,0,0,0,0,-1,1280,869,0,0
63,155,0,0,0,0,0,0,0,0,0,-1,1287,869,0,0
70,155,0,0,0,0,0,0,0,0,0,-1,1294,869,0,0
77,155,0,0,0,0,0,0,0,0,0,-1,1301,869,0,0
84,155,0,0,0,0,0,0,0,0,0,-1,1308,869,0,0
91,155,0,0,0,0,0,0,0,0,0,-1,1315,869,0,0
98,155,0,0,0,0,0,0,0,0,0,-1,1322,869,0,0
105,155,0,0,0,0,0,0,0,0,0,-1,1329,869,0,0
112,155,0,0,0,0,0,0,0,0,0,-1,1336,869,0,0
119,155,0,0,0,0,0,0,0,0,0,-1,1343,869,0,0
126,155,0,0,0,0,0,0,0,0,0,-1,1350,869,0,0
133,155,0,0,0,0,0,0,0,0,0,-1,1357,869,0,0
140,155,0,0,0,0,0,0,0,0,0,-1,1364,869,0,0
147,155,0,0,0,0,0,0,0,0,0,-1,1371,869,0,0
154,155,0,0,0,0,0,0,0,0,0,-1,1378,869,0,0
161,155,0,0,0,0,0,0,0,0,0,-1,1385,869,0,0
168,155,0,0,0,0,0,0,0,0,0,-1,1392,869,0,0
175,155,0,0,0,0,0,0,0,0,0,-1,1399,869,0,0
182,155,0,0,0,0,0,0,0,0,0,-1,1406,869,0,0
189,155,0,0,0,0,0,0,0,0,0,-1,1413,869,0,0
196,155,0,0,0,0,0,0,0,0,0,-1,1420,869,0,0
203,155,0,0,0,0,0,0,0,0,0,-1,1427,869,0,0
210,155,0,0,0,0,0,0,0,0,0,-1,1434,869,0,0
217,155,0,0,0,0,0,0,0,0,0,-1,1441,869,0,0
224,155,0,0,0,0,0,0,0,0,0,-1,1448,869,0,0
231,155,0,0,0,0,0,0,0,0,0,-1,1455,869,0,0
238,155,0,0,0,0,0,0,0,0,0,-1,1462,869,0,0
245,155,0,0,0,0,0,0,0,0,0,-1,1469,869,0,0
252,155,0,0,0,0,0,0,0,0,0,-1,1476,869,0,0
259,155,0,0,0,0,0,0,0,0,0,-1,1483,869,0,0
266,155,0,0,0,0,0,0,0,0,0,-1,1490,869,0,0
273,155,0,0,0,0,0,0,0,0,0,-1,1497,869,0,0
280,155,0,0,0,0,0,0,0,0,0,-1,1504,869,0,0
287,155,0,0,0,0,0,0,0,0,0,-1,1511,869,0,0
294,155,0,0,0,0,0,0,0,0,0,-1,1518,869,0,0
301,155,0,0,0,0,0,0,0,0,0,-1,1525,869,0,0
308,155,0,0,0,0,0,0,0,0,0,-1,1532,869,0,0
315,155,0,0,0,0,0,0,0,0,0,-1,1539,869,0,0
322,155,0,0,0,0,0,0,0,0,0,-1,1546,869,0,0
329,155,0,0,0,0,0,0,0,0,0,-1,1553,869,0,0
336,155,0,0,0,0,0,0,0,0,0,-1,1560,869,0,0
343,155,0,0,0,0,0,0,0,0,0,-1,1567,869,0,0
350,155,0,0,0,0,0,0,0,0,0,-1,1574,869,0,0
357,155,0,0,0,0,0,0,0,0,0,-1,1581,869,0,0
364,155,0,0,0,0,0,0,0,0,0,-1,1588,869,0,0
371,155,0,0,0,0,0,0,0,0,0,-1,1595,869,0,0
378,155,0,0,0,0,0,0,0,0,0,-1,1602,869,0,0
385,155,0,0,0,0,0,0,0,0,0,-1,1609,869,0,0
392,155,0,0,0,0,0,0,0,0,0,-1,1616,869,0,0
399,155,0,0,0,0,0,0,0,0,0,-1,1623,869,0,0
406,155,0,0,0,0,0,0,0,0,0,-1,1630,869,0,0
413,155,0,0,0,0,0,0,0,0,0,-1,1637,869,0,0
420,155,0,0,0,0,0,0,0,0,0,-1,1644,869,0,0
427,155,0,0,0,0,0,0,0,0,0,-1,1651,869,0,0
434,155,0,0,0,0,0,0,0,0,0,-1,1658,869,0,0
441,155,0,0,0,0,0,0,0,0,0,-1,1665,869,0,0
448,155,0,0,0,0,0,0,0,0,0,-1,1672,869,0,0
455,155,0,0,0,0,0,0,0,0,0,-1,1679,869,0,0
462,155,0,0,0,0,0,0,0,0,0,-1,1686,869,0,0
469,155,0,0,0,0,0,0,0,0,0,-1,1693,869,0,0
476,155,0,0,0,0,0,0,0,0,0,-1,1700,869,0,0
483,155,0,0,0,0,0,0,0,0,0,-1,1707,869,0,0
490,155,0,0,0,0,0,0,0,0,0,-1,1714,869,0,0
497,155,0,0,0,0,0,0,0,0,0,-1,1721,869,0,0
504,155,0,0,0,0,0,0,0,0,0,-1,1728,869,0,0
511,155,0,0,0,0,0,0,0,0,0,-1,1735,869,0,0
518,155,0,0,0,0,0,0,0,0,0,-1,1742,869,0,0
525,155,0,0,0,0,0,0,0,0,0,-1,1749,869,0,0
532,155,0,0,0,0,0,0,0,0,0,-1,1756,869,0,0
539,155,0,0,0,0,0,0,0,0,0,-1,1763,869,0,0
546,155,0,0,0,0,0,0,0,0,0,-1,1770,869,0,0
553,155,0,0,0,0,0,0,0,0,0,-1,1777,869,0,0
560,155,0,0,0,0,0,0,0,0,0,-1,1784,869,0,0
567,155,0,0,0,0,0,0,0,0,0,-1,1791,869,0,0
574,155,0,0,0,0,0,0,0,0,0,-1,1798,869,0,0
581,155,0,0,0,0,0,0,0,0,0,-1,1805,869,0,0
588,155,0,0,0,0,0,0,0,0,0,-1,1812,869,0,0
595,155,0,0,0,0,0,0,0,0,0,-1,1819,869,0,0
602,155,0,0,0,0,0,0,0,0,0,-1,1826,869,0,0
609,155,0,0,0,0,0,0,0,0,0,-1,1833,869,0,0
616,155,76.5648,2.14081,0.00608659,0.00323137,0.000224145,0.00610408,0.00321388,0.0778679,0.00352584,0.043695,1840,869,76.5648,-2.14079
623,155,76.6506,2.35693,0.0044427,0.00221482,-0.000251407,0.00447072,0.0021868,-0.110986,0.00258137,0.0455891,1847,869,76.6506,-2.35694
630,155,76.587,2.39484,0.00266922,0.00154,-0.000511013,0.00286613,0.00134309,-0.367806,0.00165585,0.0437175,1854,869,76.587,-2.39485
637,155,76.618,2.23004,0.00115377,0.001306,-0.000641313,0.0018757,0.000584071,-0.844465,0.00110832,0.0398394,1861,869,76.618,-2.23007
644,155,76.5859,2.12152,9.01235e-05,0.00105928,-0.00066387,0.00139661,-0.00024721,-1.10066,0.00102348,0.0335815,1868,869,76.5859,-2.12153
651,155,76.6219,2.07697,-0.00055044,0.000801988,-0.000740635,0.00112867,-0.000877124,-1.15538,0.00116108,0.0332502,1875,869,76.622,-2.07699
658,155,76.5929,2.09253,-0.00104142,0.000376601,-0.00101563,0.000906219,-0.00157103,-1.09012,0.00144731,0.0303631,1882,869,76.5928,-2.0925
665,155,76.5049,2.16528,-0.00147459,0.000619318,-0.000851734,0.000922017,-0.00177729,-1.22933,0.00158431,0.0419378,1889,869,76.5049,-2.16526
672,155,76.4103,2.31317,0,0,0,0,0,0,0,-1,1896,869,76.4102,-2.31314
679,155,35.1565,2.78528,0,0,0,0,0,0,0,-1,1903,869,35.1565,-2.7853
686,155,43.6101,1.63361,0,0,0,0,0,0,0,-1,1910,869,43.6101,-1.63362
693,155,65.1221,1.06177,0,0,0,0,0,0,0,-1,1917,869,65.122,-1.06176
700,155,64.3923,1.81378,0,0,0,0,0,0,0,-1,1924,869,64.3923,-1.81376
707,155,64.7915,2.61749,0,0,0,0,0,0,0,-1,1931,869,64.7915,-2.6175
714,155,64.5592,3.12854,0,0,0,0,0,0,0,-1,1938,869,64.5592,-3.12857
721,155,64.3961,4.14587,-0.00193264,0.0018328,-0.00136389,0.00227491,-0.00237475,-1.25733,0.00268469,0.0480912,1945,869,64.3961,-4.14587
728,155,64.3153,5.02936,-0.00184912,0.00256408,-0.00114971,0.00284563,-0.00213067,-1.33063,0.00288294,0.0212285,1952,869,64.3153,-5.02933
735,155,64.2667,5.84973,-0.00150638,0.00354477,-0.00078883,0.00366509,-0.00162671,-1.41943,0.00312986,0.0187935,1959,869,64.2668,-5.84976
742,155,64.2515,6.69135,-0.000951669,0.00482435,-0.000315257,0.00484151,-0.000968825,-1.51643,0.0035944,0.0207281,1966,869,64.2514,-6.69135
749,155,64.12,7.50385,-0.000432673,0.0062015,0.000302552,0.00621527,-0.000446443,1.52532,0.00430006,0.0180374,1973,869,64.1199,-7.50383
756,155,63.9866,8.37555,-0.000147828,0.00782722,0.00101158,0.00795353,-0.000274139,1.44657,0.00539606,0.0309017,1980,869,63.9866,-8.37554
763,155,63.8726,9.28638,0,0,0,0,0,0,0,-1,1987,869,63.8726,-9.28639
770,155,62.4395,10.1653,0,0,0,0,0,0,0,-1,1994,869,62.4394,-10.1653
777,155,66.1169,10.5297,0,0,0,0,0,0,0,-1,2001,869,66.1171,-10.5298
784,155,55.3955,10.5024,0,0,0,0,0,0,0,-1,2008,869,55.3955,-10.5024
791,155,0,0,0,0,0,0,0,0,0,-1,2015,869,0,0
798,155,0,0,0,0,0,0,0,0,0,-1,2022,869,0,0
805,155,0,0,0,0,0,0,0,0,0,-1,2029,869,0,0
812,155,0,0,0,0,0,0,0,0,0,-1,2036,869,0,0
-700,148,0,0,0,0,0,0,0,0,0,-1,524,876,0,0
-693,148,0,0,0,0,0,0,0,0,0,-1,531,876,0,0
-686,148,0,0,0,0,0,0,0,0,0,-1,538,876,0,0
-679,148,0,0,0,0,0,0,0,0,0,-1,545,876,0,0
-672,148,-48.1407,-0.726746,0,0,0,0,0,0,0,-1,552,876,-48.1407,0.726755
-665,148,-48.2041,-3.97095,0,0,0,0,0,0,0,-1,559,876,-48.2041,3.97096
-658,148,-51.7661,3.82794,0,0,0,0,0,0,0,-1,566,876,-51.7661,-3.82797
-651,148,-52.0392,2.79663,0,0,0,0,0,0,0,-1,573,876,-52.0392,-2.79661
-644,148,-52.2687,1.81482,0,0,0,0,0,0,0,-1,580,876,-52.2687,-1.81482
-637,148,-52.5708,0.881165,0,0,0,0,0,0,0,-1,587,876,-52.5708,-0.88117
-630,148,-48.9182,8.28253,0,0,0,0,0,0,0,-1,594,876,-48.9182,-8.28254
-623,148,-49.1013,7.33539,-0.0102276,0.0110824,-0.00029898,0.0110866,-0.0102318,-1.55677,0.0123115,0.0313373,601,876,-49.1013,-7.33536
-616,148,-49.2665,6.41895,-0.00816782,0.00809614,0.000870053,0.00814255,-0.00821424,1.5175,0.00944363,0.0144675,608,876,-49.2666,-6.41896
-609,148,-49.3958,5.53967,-0.00659294,0.00536015,0.00206231,0.00570596,-0.00693875,1.40466,0.00731199,0.0141624,615,876,-49.3958,-5.53969
-602,148,-49.4988,4.68292,-0.00555708,0.00285929,0.00322516,0.00395303,-0.00665083,1.24384,0.00618784,0.0167515,622,876,-49.4988,-4.68295
-595,148,-49.5196,3.86475,-0.00497279,0.00127291,0.00370456,0.00299526,-0.00669514,1.1356,0.00572907,0.0147071,629,876,-49.5196,-3.86472
-588,148,-49.5317,2.94965,-0.00449141,0.000418954,0.00353698,0.00226937,-0.00634182,1.08879,0.00515367,0.0340806,636,876,-49.5317,-2.94962
-581,148,-49.546,2.66559,0,0,0,0,0,0,0,-1,643,876,-49.5459,-2.66558
-574,148,-49.5073,2.12958,0,0,0,0,0,0,0,-1,650,876,-49.5073,-2.12956
-567,148,-35.6293,0.615784,0,0,0,0,0,0,0,-1,657,876,-35.6293,-0.615792
-560,148,-37.7973,-0.588135,0,0,0,0,0,0,0,-1,664,876,-37.7973,0.588143
-553,148,-18.3896,-0.00280762,0,0,0,0,0,0,0,-1,671,876,-18.3897,0.00278524
-546,148,-60.2957,0.119385,0,0,0,0,0,0,0,-1,678,876,-60.2956,-0.119402
-539,148,-60.1331,0.220093,-0.000193947,-0.000222053,0.000731101,0.000523236,-0.000939236,0.775788,0.000855669,0.0471548,685,876,-60.1331,-0.22012
-532,148,-60.1749,0.355835,0.00120628,3.2362e-05,-6.0963e-05,0.00120944,2.92046e-05,-0.0517455,0.000796738,0.0339926,692,876,-60.1749,-0.355843
-525,148,-60.1868,0.320068,0.00318711,0.00107667,-0.000786906,0.00344821,0.000815563,-0.320381,0.00208093,0.0344661,699,876,-60.1868,-0.320062
-518,148,-60.1221,0.345886,0.00461903,0.000837881,-0.00094999,0.00484429,0.000612622,-0.232818,0.00304592,0.0415032,706,876,-60.1221,-0.345863
-511,148,-60.0569,0.436279,0.00692438,1.64128e-05,-0.000700526,0.0069947,-5.39108e-05,-0.100051,0.00468121,0.0415082,713,876,-60.0569,-0.436259
-504,148,-59.9288,0.18573,0.00936114,-0.000728085,-0.000581922,0.00939459,-0.000761539,-0.0574238,0.00653172,0.0432697,720,876,-59.9288,-0.18575
-497,148,0,0,0,0,0,0,0,0,0,-1,727,876,0,0
-490,148,0,0,0,0,0,0,0,0,0,-1,734,876,0,0
-483,148,0,0,0,0,0,0,0,0,0,-1,741,876,0,0
-476,148,0,0,0,0,0,0,0,0,0,-1,748,876,0,0
-469,148,0,0,0,0,0,0,0,0,0,-1,755,876,0,0
-462,148,0,0,0,0,0,0,0,0,0,-1,762,876,0,0
-455,148,0,0,0,0,0,0,0,0,0,-1,769,876,0,0
-448,148,0,0,0,0,0,0,0,0,0,-1,776,876,0,0
-441,148,0,0,0,0,0,0,0,0,0,-1,783,876,0,0
-434,148,0,0,0,0,0,0,0,0,0,-1,790,876,0,0
-427,148,0,0,0,0,0,0,0,0,0,-1,797,876,0,0
-420,148,0,0,0,0,0,0,0,0,0,-1,804,876,0,0
-413,148,0,0,0,0,0,0,0,0,0,-1,811,876,0,0
-406,148,0,0,0,0,0,0,0,0,0,-1,818,876,0,0
-399,148,0,0,0,0,0,0,0,0,0,-1,825,876,0,0
-392,148,0,0,0,0,0,0,0,0,0,-1,832,876,0,0
-385,148,0,0,0,0,0,0,0,0,0,-1,839,876,0,0
-378,148,0,0,0,0,0,0,0,0,0,-1,846,876,0,0
-371,148,0,0,0,0,0,0,0,0,0,-1,853,876,0,0
-364,148,0,0,0,0,0,0,0,0,0,-1,860,876,0,0
-357,148,0,0,0,0,0,0,0,0,0,-1,867,876,0,0
-350,148,0,0,0,0,0,0,0,0,0,-1,874,876,0,0
-343,148,0,0,0,0,0,0,0,0,0,-1,881,876,0,0
-336,148,0,0,0,0,0,0,0,0,0,-1,888,876,0,0
-329,148,0,0,0,0,0,0,0,0,0,-1,895,876,0,0
-322,148,0,0,0,0,0,0,0,0,0,-1,902,876,0,0
-315,148,0,0,0,0,0,0,0,0,0,-1,909,876,0,0
-308,148,0,0,0,0,0,0,0,0,0,-1,916,876,0,0
-301,148,0,0,0,0,0,0,0,0,0,-1,923,876,0,0
-294,148,0,0,0,0,0,0,0,0,0,-1,930,876,0,0
-287,148,0,0,0,0,0,0,0,0,0,-1,937,876,0,0
-280,148,0,0,0,0,0,0,0,0,0,-1,944,876,0,0
-273,148,0,0,0,0,0,0,0,0,0,-1,951,876,0,0
-266,148,0,0,0,0,0,0,0,0,0,-1,958,876,0,0
-259,148,0,0,0,0,0,0,0,0,0,-1,965,876,0,0
-252,148,0,0,0,0,0,0,0,0,0,-1,972,876,0,0
-245,148,0,0,0,0,0,0,0,0,0,-1,979,876,0,0
-238,148,0,0,0,0,0,0,0,0,0,-1,986,876,0,0
-231,148,0,0,0,0,0,0,0,0,0,-1,993,876,0,0
-224,148,0,0,0,0,0,0,0,0,0,-1,1000,876,0,0
-217,148,0,0,0,0,0,0,0,0,0,-1,1007,876,0,0
-210,148,0,0,0,0,0,0,0,0,0,-1,1014,876,0,0
-203,148,0,0,0,0,0,0,0,0,0,-1,1021,876,0,0
-196,148,0,0,0,0,0,0,0,0,0,-1,1028,876,0,0
-189,148,0,0,0,0,0,0,0,0,0,-1,1035,876,0,0
-182,148,0,0,0,0,0,0,0,0,0,-1,1042,876,0,0
-175,148,0,0,0,0,0,0,0,0,0,-1,1049,876,0,0
-168,148,0,0,0,0,0,0,0,0,0,-1,1056,876,0,0
-161,148,0,0,0,0,0,0,0,0,0,-1,1063,876,0,0
-154,148,0,0,0,0,0,0,0,0,0,-1,1070,876,0,0
-147,148,0,0,0,0,0,0,0,0,0,-1,1077,876,0,0
-140,148,0,0,0,0,0,0,0,0,0,-1,1084,876,0,0
-133,148,0,0,0,0,0,0,0,0,0,-1,1091,876,0,0
-126,148,0,0,0,0,0,0,0,0,0,-1,1098,876,0,0
-119,148,0,0,0,0,0,0,0,0,0,-1,1105,876,0,0
-112,148,0,0,0,0,0,0,0,0,0,-1,1112,876,0,0
-105,148,0,0,0,0,0,0,0,0,0,-1,1119,876,0,0
-98,148,0,0,0,0,0,0,0,0,0,-1,1126,876,0,0
-91,148,0,0,0,0,0,0,0,0,0,-1,1133,876,0,0
-84,148,0,0,0,0,0,0,0,0,0,-1,1140,876,0,0
-77,148,0,0,0,0,0,0,0,0,0,-1,1147,876,0,0
-70,148,0,0,0,0,0,0,0,0,0,-1,1154,876,0,0
-63,148,0,0,0,0,0,0,0,0,0,-1,1161,876,0,0
-56,148,0,0,0,0,0,0,0,0,0,-1,1168,876,0,0
-49,148,0,0,0,0,0,0,0,0,0,-1,1175,876,0,0
-42,148,0,0,0,0,0,0,0,0,0,-1,1182,876,0,0
-35,148,0,0,0,0,0,0,0,0,0,-1,1189,876,0,0
-28,148,0,0,0,0,0,0,0,0,0,-1,1196,876,0,0
-21,148,0,0,0,0,0,0,0,0,0,-1,1203,876,0,0
-14,148,0,0,0,0,0,0,0,0,0,-1,1210,876,0,0
-7,148,0,0,0,0,0,0,0,0,0,-1,1217,876,0,0
0,148,0,0,0,0,0,0,0,0,0,-1,1224,876,0,0
7,148,0,0,0,0,0,0,0,0,0,-1,1231,876,0,0
14,148,0,0,0,0,0,0,0,0,0,-1,1238,876,0,0
21,148,0,0,0,0,0,0,0,0,0,-1,1245,876,0,0
28,148,0,0,0,0,0,0,0,0,0,-1,1252,876,0,0
35,148,0,0,0,0,0,0,0,0,0,-1,1259,876,0,0
42,148,0,0,0,0,0,0,0,0,0,-1,1266,876,0,0
49,148,0,0,0,0,0,0,0,0,0,-1,1273,876,0,0
56,148,0,0,0,0,0,0,0,0,0,-1,1280,876,0,0
63,148,0,0,0,0,0,0,0,0,0,-1,1287,876,0,0
70,148,0,0,0,0,0,0,0,0,0,-1,1294,876,0,0
77,148,0,0,0,0,0,0,0,0,0,-1,1301,876,0,0
84,148,0,0,0,0,0,0,0,0,0,-1,1308,876,0,0
91,148,0,0,0,0,0,0,0,0,0,-1,1315,876,0,0
98,148,0,0,0,0,0,0,0,0,0,-1,1322,876,0,0
105,148,0,0,0,0,0,0,0,0,0,-1,1329,876,0,0
112,148,0,0,0,0,0,0,0,0,0,-1,1336,876,0,0
119,148,0,0,0,0,0,0,0,0,0,-1,1343,876,0,0
126,148,0,0,0,0,0,0,0,0,0,-1,1350,876,0,0
133,148,0,0,0,0,0,0,0,0,0,-1,1357,876,0,0
140,148,0,0,0,0,0,0,0,0,0,-1,1364,876,0,0
147,148,0,0,0,0,0,0,0,0,0,-1,1371,876,0,0
154,148,0,0,0,0,0,0,0,0,0,-1,1378,876,0,0
161,148,0,0,0,0,0,0,0,0,0,-1,1385,876,0,0
168,148,0,0,0,0,0,0,0,0,0,-1,1392,876,0,0
175,148,0,0,0,0,0,0,0,0,0,-1,1399,876,0,0
182,148,0,0,0,0,0,0,0,0,0,-1,1406,876,0,0
189,148,0,0,0,0,0,0,0,0,0,-1,1413,876,0,0
196,148,0,0,0,0,0,0,0,0,0,-1,1420,876,0,0
203,148,0,0,0,0,0,0,0,0,0,-1,1427,876,0,0
210,148,0,0,0,0,0,0,0,0,0,-1,1434,876,0,0
217,148,0,0,0,0,0,0,0,0,0,-1,1441,876,0,0
224,148,0,0,0,0,0,0,0,0,0,-1,1448,876,0,0
231,148,0,0,0,0,0,0,0,0,0,-1,1455,876,0,0
238,148,0,0,0,0,0,0,0,0,0,-1,1462,876,0,0
245,148,0,0,0,0,0,0,0,0,0,-1,1469,876,0,0
252,148,0,0,0,0,0,0,0,0,0,-1,1476,876,0,0
259,148,0,0,0,0,0,0,0,0,0,-1,1483,876,0,0
266,148,0,0,0,0,0,0,0,0,0,-1,1490,876,0,0
273,148,0,0,0,0,0,0,0,0,0,-1,1497,876,0,0
280,148,0,0,0,0,0,0,0,0,0,-1,1504,876,0,0
287,148,0,0,0,0,0,0,0,0,0,-1,1511,876,0,0
294,148,0,0,0,0,0,0,0,0,0,-1,1518,876,0,0
301,148,0,0,0,0,0,0,0,0,0,-1,1525,876,0,0
308,148,0,0,0,0,0,0,0,0,0,-1,1532,876,0,0
315,148,0,0,0,0,0,0,0,0,0,-1,1539,876,0,0
322,148,0,0,0,0,0,0,0,0,0,-1,1546,876,0,0
329,148,0,0,0,0,0,0,0,0,0,-1,1553,876,0,0
336,148,0,0,0,0,0,0,0,0,0,-1,1560,876,0,0
343,148,0,0,0,0,0,0,0,0,0,-1,1567,876,0,0
350,148,0,0,0,0,0,0,0,0,0,-1,1574,876,0,0
357,148,0,0,0,0,0,0,0,0,0,-1,1581,876,0,0
364,148,0,0,0,0,0,0,0,0,0,-1,1588,876,0,0
371,148,0,0,0,0,0,0,0,0,0,-1,1595,876,0,0
378,148,0,0,0,0,0,0,0,0,0,-1,1602,876,0,0
385,148,0,0,0,0,0,0,0,0,0,-1,1609,876,0,0
392,148,0,0,0,0,0,0,0,0,0,-1,1616,876,0,0
399,148,0,0,0,0,0,0,0,0,0,-1,1623,876,0,0
406,148,0,0,0,0,0,0,0,0,0,-1,1630,876,0,0
413,148,0,0,0,0,0,0,0,0,0,-1,1637,876,0,0
420,148,0,0,0,0,0,0,0,0,0,-1,1644,876,0,0
427,148,0,0,0,0,0,0,0,0,0,-1,1651,876,0,0
434,148,0,0,0,0,0,0,0,0,0,-1,1658,876,0,0
441,148,0,0,0,0,0,0,0,0,0,-1,1665,876,0,0
448,148,0,0,0,0,0,0,0,0,0,-1,1672,876,0,0
455,148,0,0,0,0,0,0,0,0,0,-1,1679,876,0,0
462,148,0,0,0,0,0,0,0,0,0,-1,1686,876,0,0
469,148,0,0,0,0,0,0,0,0,0,-1,1693,876,0,0
476,148,0,0,0,0,0,0,0,0,0,-1,1700,876,0,0
483,148,0,0,0,0,0,0,0,0,0,-1,1707,876,0,0
490,148,0,0,0,0,0,0,0,0,0,-1,1714,876,0,0
497,148,0,0,0,0,0,0,0,0,0,-1,1721,876,0,0
504,148,0,0,0,0,0,0,0,0,0,-1,1728,876,0,0
511,148,0,0,0,0,0,0,0,0,0,-1,1735,876,0,0
518,148,0,0,0,0,0,0,0,0,0,-1,1742,876,0,0
525,148,0,0,0,0,0,0,0,0,0,-1,1749,876,0,0
532,148,0,0,0,0,0,0,0,0,0,-1,1756,876,0,0
539,148,0,0,0,0,0,0,0,0,0,-1,1763,876,0,0
546,148,0,0,0,0,0,0,0,0,0,-1,1770,876,0,0
553,148,0,0,0,0,0,0,0,0,0,-1,1777,876,0,0
560,148,0,0,0,0,0,0,0,0,0,-1,1784,876,0,0
567,148,0,0,0,0,0,0,0,0,0,-1,1791,876,0,0
574,148,0,0,0,0,0,0,0,0,0,-1,1798,876,0,0
581,148,0,0,0,0,0,0,0,0,0,-1,1805,876,0,0
588,148,0,0,0,0,0,0,0,0,0,-1,1812,876,0,0
595,148,0,0,0,0,0,0,0,0,0,-1,1819,876,0,0
602,148,0,0,0,0,0,0,0,0,0,-1,1826,876,0,0
609,148,0,0,0,0,0,0,0,0,0,-1,1833,876,0,0
616,148,0,0,0,0,0,0,0,0,0,-1,1840,876,0,0
623,148,76.5759,2.14038,0.00597758,0.00234329,-0.000283137,0.00599951,0.00232137,-0.0772856,0.00349322,0.0442907,1847,876,76.5759,-2.14035
630,148,76.605,2.24255,0.00382424,0.00164512,-0.00056502,0.00396203,0.00150733,-0.2392,0.00230917,0.0443069,1854,876,76.605,-2.24253
637,148,76.6362,2.22351,0.00199663,0.00136969,-0.00069988,0.00245003,0.000916285,-0.57485,0.00142942,0.0384944,1861,876,76.6362,-2.22348
644,148,76.4888,2.21985,0.000656283,0.00112798,-0.000703626,0.00163423,0.00015003,-0.947108,0.00104308,0.0360162,1868,876,76.4888,-2.21982
651,148,76.4813,2.13428,-0.000191874,0.00088584,-0.000740457,0.00126276,-0.000568791,-1.09995,0.00108245,0.0355227,1875,876,76.4813,-2.13428
658,148,76.4338,2.22406,-0.000815163,0.000483367,-0.000973913,0.00100459,-0.00133639,-1.0794,0.00135609,0.0325599,1882,876,76.4339,-2.22403
665,148,76.425,2.30835,-0.00131802,0.00077889,-0.000766361,0.00102911,-0.00156824,-1.2552,0.00151032,0.0266086,1889,876,76.425,-2.30837
672,148,76.3755,2.33948,0,0,0,0,0,0,0,-1,1896,876,76.3755,-2.3395
679,148,76.2781,2.38544,0,0,0,0,0,0,0,-1,1903,876,76.278,-2.38543
686,148,21.6195,2.40845,0,0,0,0,0,0,0,-1,1910,876,21.6196,-2.40846
693,148,48.1387,1.97351,0,0,0,0,0,0,0,-1,1917,876,48.1387,-1.97351
700,148,65.6813,2.2998,0,0,0,0,0,0,0,-1,1924,876,65.6812,-2.29983
707,148,65.7059,2.88989,0,0,0,0,0,0,0,-1,1931,876,65.706,-2.88989
714,148,65.6024,3.5376,-0.00201074,0.00145257,-0.00127787,0.00187302,-0.0024312,-1.25293,0.002492,0.0430107,1938,876,65.6024,-3.53758
721,148,65.2054,4.29596,-0.00205751,0.00204719,-0.00149464,0.00253375,-0.00254408,-1.25608,0.00293169,0.0350453,1945,876,65.2054,-4.29593
728,148,65.2009,5.07788,-0.00213761,0.00275096,-0.00134323,0.00309572,-0.00248237,-1.31955,0.003227,0.0226068,1952,876,65.2009,-5.07788
735,148,65.1736,5.90533,-0.00186885,0.00368322,-0.000998931,0.00385748,-0.00204311,-1.39809,0.00345998,0.0233049,1959,876,65.1736,-5.90534
742,148,65.0802,6.71918,-0.00124646,0.00494881,-0.000506399,0.00498993,-0.00128758,-1.48977,0.00382868,0.0248616,1966,876,65.0802,-6.71919
749,148,64.9708,7.51373,-0.000394837,0.00628,0.000258595,0.00629001,-0.000404841,1.53213,0.00433459,0.022351,1973,876,64.9709,-7.51376
756,148,64.866,8.38635,0.000627381,0.00770116,0.00129218,0.00792981,0.000398727,1.39566,0.00515877,0.0268206,1980,876,64.866,-8.38635
763,148,64.76,9.39941,0.00175655,0.00890007,0.00253866,0.00971034,0.000946274,1.26184,0.00618232,0.0462685,1987,876,64.7601,-9.39941
770,148,64.657,10.394,0,0,0,0,0,0,0,-1,1994,876,64.6571,-10.3941
777,148,67.3845,10.6894,0,0,0,0,0,0,0,-1,2001,876,67.3844,-10.6894
784,148,69.7029,11.9343,0,0,0,0,0,0,0,-1,2008,876,69.7029,-11.9343
791,148,71.9668,12.1055,0,0,0,0,0,0,0,-1,2015,876,71.9667,-12.1055
798,148,0,0,0,0,0,0,0,0,0,-1,2022,876,0,0
805,148,0,0,0,0,0,0,0,0,0,-1,2029,876,0,0
812,148,0,0,0,0,0,0,0,0,0,-1,2036,876,0,0
-700,141,0,0,0,0,0,0,0,0,0,-1,524,883,0,0
-693,141,0,0,0,0,0,0,0,0,0,-1,531,883,0,0
-686,141,0,0,0,0,0,0,0,0,0,-1,538,883,0,0
-679,141,0,0,0,0,0,0,0,0,0,-1,545,883,0,0
-672,141,-48.7804,-0.600891,0,0,0,0,0,0,0,-1,552,883,-48.7804,0.600898
-665,141,-48.764,-3.67065,0,0,0,0,0,0,0,-1,559,883,-48.764,3.67066
-658,141,-52.3438,3.12531,0,0,0,0,0,0,0,-1,566,883,-52.3438,-3.1253
-651,141,-53.1779,1.50293,0,0,0,0,0,0,0,-1,573,883,-53.1778,-1.50292
-644,141,-52.4205,-0.191956,0,0,0,0,0,0,0,-1,580,883,-52.4205,0.191941
-637,141,-52.859,0.400024,0,0,0,0,0,0,0,-1,587,883,-52.859,-0.400006
-630,141,-49.5998,8.40271,0,0,0,0,0,0,0,-1,594,883,-49.5998,-8.40271
-623,141,-49.8784,7.31818,-0.0112661,0.0110509,0.00102099,0.0110975,-0.0113128,1.52517,0.0129388,0.0366497,601,883,-49.8784,-7.31817
-616,141,-50.1634,6.38458,-0.00867902,0.00800986,0.00181427,0.00820482,-0.00887397,1.46375,0.00986296,0.0152241,608,883,-50.1634,-6.3846
-609,141,-50.2936,5.56848,-0.00676208,0.0051541,0.00270273,0.00573846,-0.00734643,1.35786,0.00757355,0.0154125,615,883,-50.2936,-5.56847
-602,141,-50.3575,4.73505,-0.00566643,0.00268545,0.00356606,0.00400089,-0.00698187,1.2174,0.00641828,0.0163567,622,883,-50.3575,-4.73502
-595,141,-50.3154,3.87622,-0.00515989,0.00124188,0.00378429,0.00299746,-0.00691546,1.13643,0.00587035,0.0205232,629,883,-50.3154,-3.8762
-588,141,-50.758,2.99054,-0.00468289,0.00045383,0.00349144,0.00221982,-0.00644889,1.10251,0.00519962,0.0404946,636,883,-50.758,-2.99054
-581,141,-51.1401,2.08264,0,0,0,0,0,0,0,-1,643,883,-51.1401,-2.08266
-574,141,-42.7302,0.864685,0,0,0,0,0,0,0,-1,650,883,-42.7301,-0.864692
-567,141,-30.5335,0.480103,0,0,0,0,0,0,0,-1,657,883,-30.5335,-0.480081
-560,141,-30.5542,0.23175,0,0,0,0,0,0,0,-1,664,883,-30.5542,-0.231742
-553,141,-32.0876,1.39459,0,0,0,0,0,0,0,-1,671,883,-32.0876,-1.3946
-546,141,-60.1357,0.325134,0,0,0,0,0,0,0,-1,678,883,-60.1357,-0.325123
-539,141,-60.1982,0.279663,-0.000813349,-0.00065928,0.000861959,0.000129079,-0.00160171,0.829966,0.00111333,0.0320865,685,883,-60.1982,-0.279666
-532,141,-60.2249,0.258484,0.000943743,-0.000587386,-2.66421e-05,0.000944206,-0.000587849,-0.0173933,0.000892473,0.0289092,692,883,-60.2249,-0.258462
-525,141,-60.224,0.243042,0.00312448,1.36383e-05,-0.000735144,0.00328946,-0.000151339,-0.220758,0.00224512,0.0359993,699,883,-60.224,-0.243016
-518,141,-60.1428,0.437012,0.00485029,-0.000508103,-0.000716833,0.00494453,-0.000602342,-0.130716,0.00351438,0.041482,706,883,-60.1427,-0.43702
-511,141,-60.0473,0.425964,0.00691064,-0.00119196,-0.000443575,0.00693486,-0.00121617,-0.0545275,0.00507741,0.0374723,713,883,-60.0473,-0.425989
-504,141,-59.9512,0.285461,0.00881219,-0.00176275,-0.000225441,0.00881699,-0.00176756,-0.0213055,0.0065472,0.0405874,720,883,-59.9512,-0.285444
-497,141,0,0,0,0,0,0,0,0,0,-1,727,883,0,0
-490,141,0,0,0,0,0,0,0,0,0,-1,734,883,0,0
-483,141,0,0,0,0,0,0,0,0,0,-1,741,883,0,0
-476,141,0,0,0,0,0,0,0,0,0,-1,748,883,0,0
-469,141,0,0,0,0,0,0,0,0,0,-1,755,883,0,0
-462,141,0,0,0,0,0,0,0,0,0,-1,762,883,0,0
-455,141,0,0,0,0,0,0,0,0,0,-1,769,883,0,0
-448,141,0,0,0,0,0,0,0,0,0,-1,776,883,0,0
-441,141,0,0,0,0,0,0,0,0,0,-1,783,883,0,0
-434,141,0,0,0,0,0,0,0,0,0,-1,790,883,0,0
-427,141,0,0,0,0,0,0,0,0,0,-1,797,883,0,0
-420,141,0,0,0,0,0,0,0,0,0,-1,804,883,0,0
-413,141,0,0,0,0,0,0,0,0,0,-1,811,883,0,0
-406,141,0,0,0,0,0,0,0,0,0,-1,818,883,0,0
-399,141,0,0,0,0,0,0,0,0,0,-1,825,883,0,0
-392,141,0,0,0,0,0,0,0,0,0,-1,832,883,0,0
-385,141,0,0,0,0,0,0,0,0,0,-1,839,883,0,0
-378,141,0,0,0,0,0,0,0,0,0,-1,846,883,0,0
-371,141,0,0,0,0,0,0,0,0,0,-1,853,883,0,0
-364,141,0,0,0,0,0,0,0,0,0,-1,860,883,0,0
-357,141,0,0,0,0,0,0,0,0,0,-1,867,883,0,0
-350,141,0,0,0,0,0,0,0,0,0,-1,874,883,0,0
-343,141,0,0,0,0,0,0,0,0,0,-1,881,883,0,0
-336,141,0,0,0,0,0,0,0,0,0,-1,888,883,0,0
-329,141,0,0,0,0,0,0,0,0,0,-1,895,883,0,0
-322,141,0,0,0,0,0,0,0,0,0,-1,902,883,0,0
-315,141,0,0,0,0,0,0,0,0,0,-1,909,883,0,0
-308,141,0,0,0,0,0,0,0,0,0,-1,916,883,0,0
-301,141,0,0,0,0,0,0,0,0,0,-1,923,883,0,0
-294,141,0,0,0,0,0,0,0,0,0,-1,930,883,0,0
-287,141,0,0,0,0,0,0,0,0,0,-1,937,883,0,0
-280,141,0,0,0,0,0,0,0,0,0,-1,944,883,0,0
-273,141,0,0,0,0,0,0,0,0,0,-1,951,883,0,0
-266,141,0,0,0,0,0,0,0,0,0,-1,958,883,0,0
-259,141,0,0,0,0,0,0,0,0,0,-1,965,883,0,0
-252,141,0,0,0,0,0,0,0,0,0,-1,972,883,0,0
-245,141,0,0,0,0,0,0,0,0,0,-1,979,883,0,0
-238,141,0,0,0,0,0,0,0,0,0,-1,986,883,0,0
-231,141,0,0,0,0,0,0,0,0,0,-1,993,883,0,0
-224,141,0,0,0,0,0,0,0,0,0,-1,1000,883,0,0
-217,141,0,0,0,0,0,0,0,0,0,-1,1007,883,0,0
-210,141,0,0,0,0,0,0,0,0,0,-1,1014,883,0,0
-203,141,0,0,0,0,0,0,0,0,0,-1,1021,883,0,0
-196,141,0,0,0,0,0,0,0,0,0,-1,1028,883,0,0
-189,141,0,0,0,0,0,0,0,0,0,-1,1035,883,0,0
-182,141,0,0,0,0,0,0,0,0,0,-1,1042,883,0,0
-175,141,0,0,0,0,0,0,0,0,0,-1,1049,883,0,0
-168,141,0,0,0,0,0,0,0,0,0,-1,1056,883,0,0
-161,141,0,0,0,0,0,0,0,0,0,-1,1063,883,0,0
-154,141,0,0,0,0,0,0,0,0,0,-1,1070,883,0,0
-147,141,0,0,0,0,0,0,0,0,0,-1,1077,883,0,0
-140,141,0,0,0,0,0,0,0,0,0,-1,1084,883,0,0
-133,141,0,0,0,0,0,0,0,0,0,-1,1091,883,0,0
-126,141,0,0,0,0,0,0,0,0,0,-1,1098,883,0,0
-119,141,0,0,0,0,0,0,0,0,0,-1,1105,883,0,0
-112,141,0,0,0,0,0,0,0,0,0,-1,1112,883,0,0
-105,141,0,0,0,0,0,0,0,0,0,-1,1119,883,0,0
-98,141,0,0,0,0,0,0,0,0,0,-1,1126,883,0,0
-91,141,0,0,0,0,0,0,0,0,0,-1,1133,883,0,0
-84,141,0,0,0,0,0,0,0,0,0,-1,1140,883,0,0
-77,141,0,0,0,0,0,0,0,0,0,-1,1147,883,0,0
-70,141,0,0,0,0,0,0,0,0,0,-1,1154,883,0,0
-63,141,0,0,0,0,0,0,0,0,0,-1,1161,883,0,0
-56,141,0,0,0,0,0,0,0,0,0,-1,1168,883,0,0
-49,141,0,0,0,0,0,0,0,0,0,-1,1175,883,0,0
-42,141,0,0,0,0,0,0,0,0,0,-1,1182,883,0,0
-35,141,0,0,0,0,0,0,0,0,0,-1,1189,883,0,0
-28,141,0,0,0,0,0,0,0,0,0,-1,1196,883,0,0
-21,141,0,0,0,0,0,0,0,0,0,-1,1203,883,0,0
-14,141,0,0,0,0,0,0,0,0,0,-1,1210,883,0,0
-7,141,0,0,0,0,0,0,0,0,0,-1,1217,883,0,0
0,141,0,0,0,0,0,0,0,0,0,-1,1224,883,0,0
7,141,0,0,0,0,0,0,0,0,0,-1,1231,883,0,0
14,141,0,0,0,0,0,0,0,0,0,-1,1238,883,0,0
21,141,0,0,0,0,0,0,0,0,0,-1,1245,883,0,0
28,141,0,0,0,0,0,0,0,0,0,-1,1252,883,0,0
35,141,0,0,0,0,0,0,0,0,0,-1,1259,883,0,0
42,141,0,0,0,0,0,0,0,0,0,-1,1266,883,0,0
49,141,0,0,0,0,0,0,0,0,0,-1,1273,883,0,0
56,141,0,0,0,0,0,0,0,0,0,-1,1280,883,0,0
63,141,0,0,0,0,0,0,0,0,0,-1,1287,883,0,0
70,141,0,0,0,0,0,0,0,0,0,-1,1294,883,0,0
77,141,0,0,0,0,0,0,0,0,0,-1,1301,883,0,0
84,141,0,0,0,0,0,0,0,0,0,-1,1308,883,0,0
91,141,0,0,0,0,0,0,0,0,0,-1,1315,883,0,0
98,141,0,0,0,0,0,0,0,0,0,-1,1322,883,0,0
105,141,0,0,0,0,0,0,0,0,0,-1,1329,883,0,0
112,141,0,0,0,0,0,0,0,0,0,-1,1336,883,0,0
119,141,0,0,0,0,0,0,0,0,0,-1,1343,883,0,0
126,141,0,0,0,0,0,0,0,0,0,-1,1350,883,0,0
133,141,0,0,0,0,0,0,0,0,0,-1,1357,883,0,0
140,141,0,0,0,0,0,0,0,0,0,-1,1364,883,0,0
147,141,0,0,0,0,0,0,0,0,0,-1,1371,883,0,0
154,141,0,0,0,0,0,0,0,0,0,-1,1378,883,0,0
161,141,0,0,0,0,0,0,0,0,0,-1,1385,883,0,0
168,141,0,0,0,0,0,0,0,0,0,-1,1392,883,0,0
175,141,0,0,0,0,0,0,0,0,0,-1,1399,883,0,0
182,141,0,0,0,0,0,0,0,0,0,-1,1406,883,0,0
189,141,0,0,0,0,0,0,0,0,0,-1,1413,883,0,0
196,141,0,0,0,0,0,0,0,0,0,-1,1420,883,0,0
203,141,0,0,0,0,0,0,0,0,0,-1,1427,883,0,0
210,141,0,0,0,0,0,0,0,0,0,-1,1434,883,0,0
217,141,0,0,0,0,0,0,0,0,0,-1,1441,883,0,0
224,141,0,0,0,0,0,0,0,0,0,-1,1448,883,0,0
231,141,0,0,0,0,0,0,0,0,0,-1,1455,883,0,0
238,141,0,0,0,0,0,0,0,0,0,-1,1462,883,0,0
245,141,0,0,0,0,0,0,0,0,0,-1,1469,883,0,0
252,141,0,0,0,0,0,0,0,0,0,-1,1476,883,0,0
259,141,0,0,0,0,0,0,0,0,0,-1,1483,883,0,0
266,141,0,0,0,0,0,0,0,0,0,-1,1490,883,0,0
273,141,0,0,0,0,0,0,0,0,0,-1,1497,883,0,0
280,141,0,0,0,0,0,0,0,0,0,-1,1504,883,0,0
287,141,0,0,0,0,0,0,0,0,0,-1,1511,883,0,0
294,141,0,0,0,0,0,0,0,0,0,-1,1518,883,0,0
301,141,0,0,0,0,0,0,0,0,0,-1,1525,883,0,0
308,141,0,0,0,0,0,0,0,0,0,-1,1532,883,0,0
315,141,0,0,0,0,0,0,0,0,0,-1,1539,883,0,0
322,141,0,0,0,0,0,0,0,0,0,-1,1546,883,0,0
329,141,0,0,0,0,0,0,0,0,0,-1,1553,883,0,0
336,141,0,0,0,0,0,0,0,0,0,-1,1560,883,0,0
343,141,0,0,0,0,0,0,0,0,0,-1,1567,883,0,0
350,141,0,0,0,0,0,0,0,0,0,-1,1574,883,0,0
357,141,0,0,0,0,0,0,0,0,0,-1,1581,883,0,0
364,141,0,0,0,0,0,0,0,0,0,-1,1588,883,0,0
371,141,0,0,0,0,0,0,0,0,0,-1,1595,883,0,0
378,141,0,0,0,0,0,0,0,0,0,-1,1602,883,0,0
385,141,0,0,0,0,0,0,0,0,0,-1,1609,883,0,0
392,141,0,0,0,0,0,0,0,0,0,-1,1616,883,0,0
399,141,0,0,0,0,0,0,0,0,0,-1,1623,883,0,0
406,141,0,0,0,0,0,0,0,0,0,-1,1630,883,0,0
413,141,0,0,0,0,0,0,0,0,0,-1,1637,883,0,0
420,141,0,0,0,0,0,0,0,0,0,-1,1644,883,0,0
427,141,0,0,0,0,0,0,0,0,0,-1,1651,883,0,0
434,141,0,0,0,0,0,0,0,0,0,-1,1658,883,0,0
441,141,0,0,0,0,0,0,0,0,0,-1,1665,883,0,0
448,141,0,0,0,0,0,0,0,0,0,-1,1672,883,0,0
455,141,0,0,0,0,0,0,0,0,0,-1,1679,883,0,0
462,141,0,0,0,0,0,0,0,0,0,-1,1686,883,0,0
469,141,0,0,0,0,0,0,0,0,0,-1,1693,883,0,0
476,141,0,0,0,0,0,0,0,0,0,-1,1700,883,0,0
483,141,0,0,0,0,0,0,0,0,0,-1,1707,883,0,0
490,141,0,0,0,0,0,0,0,0,0,-1,1714,883,0,0
497,141,0,0,0,0,0,0,0,0,0,-1,1721,883,0,0
504,141,0,0,0,0,0,0,0,0,0,-1,1728,883,0,0
511,141,0,0,0,0,0,0,0,0,0,-1,1735,883,0,0
518,141,0,0,0,0,0,0,0,0,0,-1,1742,883,0,0
525,141,0,0,0,0,0,0,0,0,0,-1,1749,883,0,0
532,141,0,0,0,0,0,0,0,0,0,-1,1756,883,0,0
539,141,0,0,0,0,0,0,0,0,0,-1,1763,883,0,0
546,141,0,0,0,0,0,0,0,0,0,-1,1770,883,0,0
553,141,0,0,0,0,0,0,0,0,0,-1,1777,883,0,0
560,141,0,0,0,0,0,0,0,0,0,-1,1784,883,0,0
567,141,0,0,0,0,0,0,0,0,0,-1,1791,883,0,0
574,141,0,0,0,0,0,0,0,0,0,-1,1798,883,0,0
581,141,0,0,0,0,0,0,0,0,0,-1,1805,883,0,0
588,141,0,0,0,0,0,0,0,0,0,-1,1812,883,0,0
595,141,0,0,0,0,0,0,0,0,0,-1,1819,883,0,0
602,141,0,0,0,0,0,0,0,0,0,-1,1826,883,0,0
609,141,0,0,0,0,0,0,0,0,0,-1,1833,883,0,0
616,141,0,0,0,0,0,0,0,0,0,-1,1840,883,0,0
623,141,76.5524,1.88446,0.00741614,0.0020721,-0.000539943,0.00747015,0.00201809,-0.0996939,0.0044622,0.0451054,1847,883,76.5524,-1.88444
630,141,76.746,2.14624,0.0049807,0.00156229,-0.00080039,0.00515882,0.00138417,-0.218977,0.00308319,0.0471021,1854,883,76.746,-2.14621
637,141,76.677,2.14771,0.00296012,0.00136552,-0.000925233,0.00338419,0.000941451,-0.429766,0.00201693,0.0419211,1861,883,76.677,-2.1477
644,141,76.4951,2.19373,0.00136838,0.00120052,-0.000902573,0.00219092,0.000377985,-0.739037,0.00135234,0.0375041,1868,883,76.4951,-2.19373
651,141,76.468,2.24493,0.000286386,0.000990565,-0.000889891,0.00159549,-0.000318537,-0.973775,0.00118421,0.036349,1875,883,76.4681,-2.24495
658,141,76.455,2.15698,-0.00050872,0.000620831,-0.00105284,0.00125082,-0.0011387,-1.03158,0.0013801,0.0364128,1882,883,76.4549,-2.15699
665,141,76.4166,2.21558,-0.00109888,0.000918526,-0.000787167,0.00118932,-0.00136968,-1.23947,0.00147866,0.0305088,1889,883,76.4167,-2.21556
672,141,76.4612,2.21741,-0.00132086,0.000651311,-0.00096359,0.00104395,-0.00171349,-1.18387,0.00160758,0.027367,1896,883,76.4612,-2.21742
679,141,76.4296,2.16907,-0.00146691,0.000574626,-0.00115501,0.00109529,-0.00198758,-1.14729,0.00180457,0.0427878,1903,883,76.4296,-2.16906
686,141,76.3882,2.10028,0,0,0,0,0,0,0,-1,1910,883,76.3882,-2.10029
693,141,51.7202,1.76593,0,0,0,0,0,0,0,-1,1917,883,51.7202,-1.76595
700,141,62.7651,1.95361,0,0,0,0,0,0,0,-1,1924,883,62.7651,-1.95364
707,141,66.3735,2.91669,0,0,0,0,0,0,0,-1,1931,883,66.3735,-2.9167
714,141,66.0371,3.61218,-0.00223481,0.00143354,-0.00137629,0.00189248,-0.00269375,-1.24893,0.0026613,0.0407992,1938,883,66.0371,-3.61219
721,141,65.9817,4.31805,-0.00238432,0.00198707,-0.00164548,0.00253723,-0.00293447,-1.24814,0.00316186,0.0234124,1945,883,65.9816,-4.31808
728,141,66.1123,5.07294,-0.0026112,0.0026891,-0.00152497,0.00309654,-0.00301863,-1.30972,0.00353069,0.0184265,1952,883,66.1123,-5.07295
735,141,66.0137,5.99042,-0.00240645,0.00368138,-0.00114197,0.00388854,-0.00261361,-1.39134,0.003778,0.0215694,1959,883,66.0136,-5.99042
742,141,65.8979,6.763,-0.00171922,0.00508348,-0.000550332,0.00512771,-0.00176345,-1.49059,0.00413364,0.022083,1966,883,65.8979,-6.763
749,141,65.8727,7.5108,-0.000601368,0.00660463,0.000487158,0.00663741,-0.000634153,1.5036,0.00465076,0.0155133,1973,883,65.8727,-7.51082
756,141,65.8063,8.4071,0.000948385,0.00815865,0.00199894,0.00867574,0.000431294,1.31766,0.00564555,0.0221965,1980,883,65.8063,-8.40709
763,141,65.7339,9.4411,0.00297105,0.00947669,0.00401177,0.0113887,0.00105907,1.12605,0.0072652,0.0443899,1987,883,65.7338,-9.44111
770,141,65.6426,10.4535,0,0,0,0,0,0,0,-1,1994,883,65.6427,-10.4535
777,141,68.2373,10.8281,0,0,0,0,0,0,0,-1,2001,883,68.2373,-10.8281
784,141,70.6033,11.7555,0,0,0,0,0,0,0,-1,2008,883,70.6033,-11.7555
791,141,72.6221,12.8146,0,0,0,0,0,0,0,-1,2015,883,72.622,-12.8147
798,141,0,0,0,0,0,0,0,0,0,-1,2022,883,0,0
805,141,0,0,0,0,0,0,0,0,0,-1,2029,883,0,0
812,141,0,0,0,0,0,0,0,0,0,-1,2036,883,0,0
-700,134,0,0,0,0,0,0,0,0,0,-1,524,890,0,0
-693,134,0,0,0,0,0,0,0,0,0,-1,531,890,0,0
-686,134,0,0,0,0,0,0,0,0,0,-1,538,890,0,0
-679,134,0,0,0,0,0,0,0,0,0,-1,545,890,0,0
-672,134,-49.3306,-0.500671,0,0,0,0,0,0,0,-1,552,890,-49.3306,0.500651
-665,134,-49.3356,-3.00098,0,0,0,0,0,0,0,-1,559,890,-49.3356,3.00096
-658,134,-49.3368,-5.46246,0,0,0,0,0,0,0,-1,566,890,-49.3368,5.46248
-651,134,-53.0905,0.530762,0,0,0,0,0,0,0,-1,573,890,-53.0905,-0.530792
-644,134,-51.8253,-1.26782,0,0,0,0,0,0,0,-1,580,890,-51.8253,1.26783
-637,134,-50.5067,-2.83545,0,0,0,0,0,0,0,-1,587,890,-50.5066,2.83545
-630,134,-50.437,7.98798,0,0,0,0,0,0,0,-1,594,890,-50.4369,-7.98799
-623,134,-50.6863,7.22821,-0.0145135,0.0102782,0.00345574,0.0107509,-0.0149862,1.43486,0.0149262,0.0356453,601,890,-50.6863,-7.2282
-616,134,-51.0219,6.38849,-0.0103242,0.00754863,0.0032729,0.00812912,-0.0109047,1.39526,0.0110281,0.0151205,608,890,-51.0219,-6.38847
-609,134,-51.1669,5.59863,-0.00719062,0.00478316,0.0035222,0.0057424,-0.00814987,1.3049,0.00806075,0.0123211,615,890,-51.1669,-5.59862
-602,134,-51.1884,4.77716,-0.00552552,0.0024767,0.00393201,0.00408537,-0.00713418,1.18245,0.00655685,0.0137378,622,890,-51.1884,-4.77714
-595,134,-51.0357,3.99707,-0.005005,0.00120967,0.00401657,0.00318056,-0.00697589,1.11462,0.00599875,0.0324977,629,890,-51.0357,-3.99706
-588,134,-50.8699,3.1698,0,0,0,0,0,0,0,-1,636,890,-50.8699,-3.16982
-581,134,-51.3468,2.29413,0,0,0,0,0,0,0,-1,643,890,-51.3468,-2.29414
-574,134,-31.1517,0.757751,0,0,0,0,0,0,0,-1,650,890,-31.1517,-0.757758
-567,134,-30.9003,0.296326,0,0,0,0,0,0,0,-1,657,890,-30.9002,-0.296302
-560,134,-22.9123,0.106567,0,0,0,0,0,0,0,-1,664,890,-22.9123,-0.106594
-553,134,-60.1181,0.355652,0,0,0,0,0,0,0,-1,671,890,-60.1181,-0.355677
-546,134,-60.1045,0.305054,-0.00132303,-0.00133033,0.00173577,0.000409094,-0.00306245,0.784348,0.00219077,0.0332523,678,890,-60.1045,-0.305037
-539,134,-60.1683,0.251099,-0.00123401,-0.00102644,0.00127864,0.000152624,-0.00241307,0.825893,0.00166193,0.0189876,685,890,-60.1683,-0.251107
-532,134,-60.2327,0.220825,0.000829935,-0.00108932,0.000435891,0.000924293,-0.00118368,0.213183,0.00122011,0.023025,692,890,-60.2327,-0.220822
-525,134,-60.2145,0.300415,0.00317755,-0.000968901,-8.59201e-05,0.00317933,-0.00097068,-0.0207095,0.00250657,0.035036,699,890,-60.2146,-0.300398
-518,134,-60.0903,0.383545,0.00502066,-0.00177824,0.000123753,0.00502291,-0.00178049,0.0181939,0.00407393,0.042164,706,890,-60.0903,-0.38355
-511,134,-59.9257,0.358765,0.0068066,-0.00268292,0.000471998,0.00683002,-0.00270634,0.0495757,0.00567481,0.0416911,713,890,-59.9257,-0.358741
-504,134,0,0,0,0,0,0,0,0,0,-1,720,890,0,0
-497,134,0,0,0,0,0,0,0,0,0,-1,727,890,0,0
-490,134,0,0,0,0,0,0,0,0,0,-1,734,890,0,0
-483,134,0,0,0,0,0,0,0,0,0,-1,741,890,0,0
-476,134,0,0,0,0,0,0,0,0,0,-1,748,890,0,0
-469,134,0,0,0,0,0,0,0,0,0,-1,755,890,0,0
-462,134,0,0,0,0,0,0,0,0,0,-1,762,890,0,0
-455,134,0,0,0,0,0,0,0,0,0,-1,769,890,0,0
-448,134,0,0,0,0,0,0,0,0,0,-1,776,890,0,0
-441,134,0,0,0,0,0,0,0,0,0,-1,783,890,0,0
-434,134,0,0,0,0,0,0,0,0,0,-1,790,890,0,0
-427,134,0,0,0,0,0,0,0,0,0,-1,797,890,0,0
-420,134,0,0,0,0,0,0,0,0,0,-1,804,890,0,0
-413,134,0,0,0,0,0,0,0,0,0,-1,811,890,0,0
-406,134,0,0,0,0,0,0,0,0,0,-1,818,890,0,0
-399,134,0,0,0,0,0,0,0,0,0,-1,825,890,0,0
-392,134,0,0,0,0,0,0,0,0,0,-1,832,890,0,0
-385,134,0,0,0,0,0,0,0,0,0,-1,839,890,0,0
-378,134,0,0,0,0,0,0,0,0,0,-1,846,890,0,0
-371,134,0,0,0,0,0,0,0,0,0,-1,853,890,0,0
-364,134,0,0,0,0,0,0,0,0,0,-1,860,890,0,0
-357,134,0,0,0,0,0,0,0,0,0,-1,867,890,0,0
-350,134,0,0,0,0,0,0,0,0,0,-1,874,890,0,0
-343,134,0,0,0,0,0,0,0,0,0,-1,881,890,0,0
-336,134,0,0,0,0,0,0,0,0,0,-1,888,890,0,0
-329,134,0,0,0,0,0,0,0,0,0,-1,895,890,0,0
-322,134,0,0,0,0,0,0,0,0,0,-1,902,890,0,0
-315,134,0,0,0,0,0,0,0,0,0,-1,909,890,0,0
-308,134,0,0,0,0,0,0,0,0,0,-1,916,890,0,0
-301,134,0,0,0,0,0,0,0,0,0,-1,923,890,0,0
-294,134,0,0,0,0,0,0,0,0,0,-1,930,890,0,0
-287,134,0,0,0,0,0,0,0,0,0,-1,937,890,0,0
-280,134,0,0,0,0,0,0,0,0,0,-1,944,890,0,0
-273,134,0,0,0,0,0,0,0,0,0,-1,951,890,0,0
-266,134,0,0,0,0,0,0,0,0,0,-1,958,890,0,0
-259,134,0,0,0,0,0,0,0,0,0,-1,965,890,0,0
-252,134,0,0,0,0,0,0,0,0,0,-1,972,890,0,0
-245,134,0,0,0,0,0,0,0,0,0,-1,979,890,0,0
-238,134,0,0,0,0,0,0,0,0,0,-1,986,890,0,0
-231,134,0,0,0,0,0,0,0,0,0,-1,993,890,0,0
-224,134,0,0,0,0,0,0,0,0,0,-1,1000,890,0,0
-217,134,0,0,0,0,0,0,0,0,0,-1,1007,890,0,0
-210,134,0,0,0,0,0,0,0,0,0,-1,1014,890,0,0
-203,134,0,0,0,0,0,0,0,0,0,-1,1021,890,0,0
-196,134,0,0,0,0,0,0,0,0,0,-1,1028,890,0,0
-189,134,0,0,0,0,0,0,0,0,0,-1,1035,890,0,0
-182,134,0,0,0,0,0,0,0,0,0,-1,1042,890,0,0
-175,134,0,0,0,0,0,0,0,0,0,-1,1049,890,0,0
-168,134,0,0,0,0,0,0,0,0,0,-1,1056,890,0,0
-161,134,0,0,0,0,0,0,0,0,0,-1,1063,890,0,0
-154,134,0,0,0,0,0,0,0,0,0,-1,1070,890,0,0
-147,134,0,0,0,0,0,0,0,0,0,-1,1077,890,0,0
-140,134,0,0,0,0,0,0,0,0,0,-1,1084,890,0,0
-133,134,0,0,0,0,0,0,0,0,0,-1,1091,890,0,0
-126,134,0,0,0,0,0,0,0,0,0,-1,1098,890,0,0
-119,134,0,0,0,0,0,0,0,0,0,-1,1105,890,0,0
-112,134,0,0,0,0,0,0,0,0,0,-1,1112,890,0,0
-105,134,0,0,0,0,0,0,0,0,0,-1,1119,890,0,0
-98,134,0,0,0,0,0,0,0,0,0,-1,1126,890,0,0
-91,134,0,0,0,0,0,0,0,0,0,-1,1133,890,0,0
-84,134,0,0,0,0,0,0,0,0,0,-1,1140,890,0,0
-77,134,0,0,0,0,0,0,0,0,0,-1,1147,890,0,0
-70,134,0,0,0,0,0,0,0,0,0,-1,1154,890,0,0
-63,134,0,0,0,0,0,0,0,0,0,-1,1161,890,0,0
-56,134,0,0,0,0,0,0,0,0,0,-1,1168,890,0,0
-49,134,0,0,0,0,0,0,0,0,0,-1,1175,890,0,0
-42,134,0,0,0,0,0,0,0,0,0,-1,1182,890,0,0
-35,134,0,0,0,0,0,0,0,0,0,-1,1189,890,0,0
-28,134,0,0,0,0,0,0,0,0,0,-1,1196,890,0,0
-21,134,0,0,0,0,0,0,0,0,0,-1,1203,890,0,0
-14,134,0,0,0,0,0,0,0,0,0,-1,1210,890,0,0
-7,134,0,0,0,0,0,0,0,0,0,-1,1217,890,0,0
0,134,0,0,0,0,0,0,0,0,0,-1,1224,890,0,0
7,134,0,0,0,0,0,0,0,0,0,-1,1231,890,0,0
14,134,0,0,0,0,0,0,0,0,0,-1,1238,890,0,0
21,134,0,0,0,0,0,0,0,0,0,-1,1245,890,0,0
28,134,0,0,0,0,0,0,0,0,0,-1,1252,890,0,0
35,134,0,0,0,0,0,0,0,0,0,-1,1259,890,0,0
42,134,0,0,0,0,0,0,0,0,0,-1,1266,890,0,0
49,134,0,0,0,0,0,0,0,0,0,-1,1273,890,0,0
56,134,0,0,0,0,0,0,0,0,0,-1,1280,890,0,0
63,134,0,0,0,0,0,0,0,0,0,-1,1287,890,0,0
70,134,0,0,0,0,0,0,0,0,0,-1,1294,890,0,0
77,134,0,0,0,0,0,0,0,0,0,-1,1301,890,0,0
84,134,0,0,0,0,0,0,0,0,0,-1,1308,890,0,0
91,134,0,0,0,0,0,0,0,0,0,-1,1315,890,0,0
98,134,0,0,0,0,0,0,0,0,0,-1,1322,890,0,0
105,134,0,0,0,0,0,0,0,0,0,-1,1329,890,0,0
112,134,0,0,0,0,0,0,0,0,0,-1,1336,890,0,0
119,134,0,0,0,0,0,0,0,0,0,-1,1343,890,0,0
126,134,0,0,0,0,0,0,0,0,0,-1,1350,890,0,0
133,134,0,0,0,0,0,0,0,0,0,-1,1357,890,0,0
140,134,0,0,0,0,0,0,0,0,0,-1,1364,890,0,0
147,134,0,0,0,0,0,0,0,0,0,-1,1371,890,0,0
154,134,0,0,0,0,0,0,0,0,0,-1,1378,890,0,0
161,134,0,0,0,0,0,0,0,0,0,-1,1385,890,0,0
168,134,0,0,0,0,0,0,0,0,0,-1,1392,890,0,0
175,134,0,0,0,0,0,0,0,0,0,-1,1399,890,0,0
182,134,0,0,0,0,0,0,0,0,0,-1,1406,890,0,0
189,134,0,0,0,0,0,0,0,0,0,-1,1413,890,0,0
196,134,0,0,0,0,0,0,0,0,0,-1,1420,890,0,0
203,134,0,0,0,0,0,0,0,0,0,-1,1427,890,0,0
210,134,0,0,0,0,0,0,0,0,0,-1,1434,890,0,0
217,134,0,0,0,0,0,0,0,0,0,-1,1441,890,0,0
224,134,0,0,0,0,0,0,0,0,0,-1,1448,890,0,0
231,134,0,0,0,0,0,0,0,0,0,-1,1455,890,0,0
238,134,0,0,0,0,0,0,0,0,0,-1,1462,890,0,0
245,134,0,0,0,0,0,0,0,0,0,-1,1469,890,0,0
252,134,0,0,0,0,0,0,0,0,0,-1,1476,890,0,0
259,134,0,0,0,0,0,0,0,0,0,-1,1483,890,0,0
266,134,0,0,0,0,0,0,0,0,0,-1,1490,890,0,0
273,134,0,0,0,0,0,0,0,0,0,-1,1497,890,0,0
280,134,0,0,0,0,0,0,0,0,0,-1,1504,890,0,0
287,134,0,0,0,0,0,0,0,0,0,-1,1511,890,0,0
294,134,0,0,0,0,0,0,0,0,0,-1,1518,890,0,0
301,134,0,0,0,0,0,0,0,0,0,-1,1525,890,0,0
308,134,0,0,0,0,0,0,0,0,0,-1,1532,890,0,0
315,134,0,0,0,0,0,0,0,0,0,-1,1539,890,0,0
322,134,0,0,0,0,0,0,0,0,0,-1,1546,890,0,0
329,134,0,0,0,0,0,0,0,0,0,-1,1553,890,0,0
336,134,0,0,0,0,0,0,0,0,0,-1,1560,890,0,0
343,134,0,0,0,0,0,0,0,0,0,-1,1567,890,0,0
350,134,0,0,0,0,0,0,0,0,0,-1,1574,890,0,0
357,134,0,0,0,0,0,0,0,0,0,-1,1581,890,0,0
364,134,0,0,0,0,0,0,0,0,0,-1,1588,890,0,0
371,134,0,0,0,0,0,0,0,0,0,-1,1595,890,0,0
378,134,0,0,0,0,0,0,0,0,0,-1,1602,890,0,0
385,134,0,0,0,0,0,0,0,0,0,-1,1609,890,0,0
392,134,0,0,0,0,0,0,0,0,0,-1,1616,890,0,0
399,134,0,0,0,0,0,0,0,0,0,-1,1623,890,0,0
406,134,0,0,0,0,0,0,0,0,0,-1,1630,890,0,0
413,134,0,0,0,0,0,0,0,0,0,-1,1637,890,0,0
420,134,0,0,0,0,0,0,0,0,0,-1,1644,890,0,0
427,134,0,0,0,0,0,0,0,0,0,-1,1651,890,0,0
434,134,0,0,0,0,0,0,0,0,0,-1,1658,890,0,0
441,134,0,0,0,0,0,0,0,0,0,-1,1665,890,0,0
448,134,0,0,0,0,0,0,0,0,0,-1,1672,890,0,0
455,134,0,0,0,0,0,0,0,0,0,-1,1679,890,0,0
462,134,0,0,0,0,0,0,0,0,0,-1,1686,890,0,0
469,134,0,0,0,0,0,0,0,0,0,-1,1693,890,0,0
476,134,0,0,0,0,0,0,0,0,0,-1,1700,890,0,0
483,134,0,0,0,0,0,0,0,0,0,-1,1707,890,0,0
490,134,0,0,0,0,0,0,0,0,0,-1,1714,890,0,0
497,134,0,0,0,0,0,0,0,0,0,-1,1721,890,0,0
504,134,0,0,0,0,0,0,0,0,0,-1,1728,890,0,0
511,134,0,0,0,0,0,0,0,0,0,-1,1735,890,0,0
518,134,0,0,0,0,0,0,0,0,0,-1,1742,890,0,0
525,134,0,0,0,0,0,0,0,0,0,-1,1749,890,0,0
532,134,0,0,0,0,0,0,0,0,0,-1,1756,890,0,0
539,134,0,0,0,0,0,0,0,0,0,-1,1763,890,0,0
546,134,0,0,0,0,0,0,0,0,0,-1,1770,890,0,0
553,134,0,0,0,0,0,0,0,0,0,-1,1777,890,0,0
560,134,0,0,0,0,0,0,0,0,0,-1,1784,890,0,0
567,134,0,0,0,0,0,0,0,0,0,-1,1791,890,0,0
574,134,0,0,0,0,0,0,0,0,0,-1,1798,890,0,0
581,134,0,0,0,0,0,0,0,0,0,-1,1805,890,0,0
588,134,0,0,0,0,0,0,0,0,0,-1,1812,890,0,0
595,134,0,0,0,0,0,0,0,0,0,-1,1819,890,0,0
602,134,0,0,0,0,0,0,0,0,0,-1,1826,890,0,0
609,134,0,0,0,0,0,0,0,0,0,-1,1833,890,0,0
616,134,0,0,0,0,0,0,0,0,0,-1,1840,890,0,0
623,134,76.5442,2.09015,0.0090585,0.00170515,-0.00138921,0.0093122,0.00145145,-0.180631,0.00578533,0.0430915,1847,890,76.5442,-2.09016
630,134,76.579,2.18713,0.0061424,0.00138172,-0.00149002,0.00657029,0.000953819,-0.279649,0.00409941,0.0440034,1854,890,76.579,-2.18711
637,134,76.6818,2.24597,0.00393932,0.00125949,-0.00147285,0.00459055,0.000608258,-0.416313,0.00287911,0.0417594,1861,890,76.6817,-2.246
644,134,76.604,2.32867,0.0021393,0.00115549,-0.00128866,0.00302675,0.000268045,-0.603075,0.00193469,0.0369556,1868,890,76.604,-2.32865
651,134,76.5682,2.24469,0.000855478,0.000967077,-0.00109263,0.00200533,-0.000182777,-0.81091,0.00140179,0.0401126,1875,890,76.5683,-2.24466
658,134,76.5588,2.08191,-0.000113031,0.000635617,-0.00105692,0.00138254,-0.000859958,-0.955588,0.00130637,0.0408906,1882,890,76.5589,-2.08191
665,134,76.4613,2.00867,-0.000797522,0.00091484,-0.00067578,0.0011494,-0.00103209,-1.23671,0.00126009,0.0370503,1889,890,76.4614,-2.00866
672,134,76.4874,2.10681,-0.00112196,0.000639463,-0.000794836,0.000945098,-0.00142759,-1.2037,0.00137928,0.0276437,1896,890,76.4874,-2.10679
679,134,76.5142,2.06158,-0.00134694,0.000483933,-0.000957641,0.000893298,-0.00175631,-1.16683,0.00155656,0.026146,1903,890,76.5141,-2.0616
686,134,76.5159,2.00183,0,0,0,0,0,0,0,-1,1910,890,76.5158,-2.00185
693,134,34.5778,2.48096,0,0,0,0,0,0,0,-1,1917,890,34.5777,-2.48099
700,134,66.6935,1.53656,0,0,0,0,0,0,0,-1,1924,890,66.6934,-1.53656
707,134,66.7242,2.38702,0,0,0,0,0,0,0,-1,1931,890,66.7243,-2.38701
714,134,66.8385,3.32587,-0.00249465,0.00132427,-0.00129496,0.00172196,-0.00289235,-1.27283,0.00269249,0.0286534,1938,890,66.8385,-3.32588
721,134,66.9504,4.17291,-0.00275761,0.00183806,-0.00161539,0.00234906,-0.00326861,-1.26443,0.00325781,0.027434,1945,890,66.9504,-4.17292
728,134,66.9597,5.02466,-0.00311721,0.00254544,-0.00158137,0.00295713,-0.0035289,-1.31611,0.00374956,0.0233761,1952,890,66.9597,-5.02466
735,134,66.866,5.96979,-0.00297144,0.00362135,-0.00124767,0.00384957,-0.00319966,-1.38988,0.00407563,0.0306047,1959,890,66.866,-5.96979
742,134,66.7606,6.81494,-0.00222391,0.00521587,-0.000646084,0.00527156,-0.0022796,-1.48481,0.00447229,0.0200092,1966,890,66.7606,-6.81494
749,134,66.7494,7.55609,-0.000851192,0.00704721,0.000571737,0.00708838,-0.000892363,1.49891,0.00504939,0.0136562,1973,890,66.7494,-7.5561
756,134,66.6842,8.3349,0.0012099,0.00894377,0.0024839,0.0096728,0.000480862,1.28531,0.00629437,0.018006,1980,890,66.6842,-8.3349
763,134,66.5847,9.2561,0.00399325,0.010634,0.00508184,0.013384,0.0012432,1.07477,0.00853849,0.0375995,1987,890,66.5847,-9.25611
770,134,66.4824,10.1778,0,0,0,0,0,0,0,-1,1994,890,66.4825,-10.1778
777,134,69.6218,11.1589,0,0,0,0,0,0,0,-1,2001,890,69.6219,-11.1589
784,134,71.5513,12.4056,0,0,0,0,0,0,0,-1,2008,890,71.5512,-12.4055
791,134,73.1692,13.4717,0,0,0,0,0,0,0,-1,2015,890,73.1691,-13.4717
798,134,0,0,0,0,0,0,0,0,0,-1,2022,890,0,0
805,134,0,0,0,0,0,0,0,0,0,-1,2029,890,0,0
812,134,0,0,0,0,0,0,0,0,0,-1,2036,890,0,0
-700,127,0,0,0,0,0,0,0,0,0,-1,524,897,0,0
-693,127,0,0,0,0,0,0,0,0,0,-1,531,897,0,0
-686,127,0,0,0,0,0,0,0,0,0,-1,538,897,0,0
-679,127,-52.0821,4.30957,0,0,0,0,0,0,0,-1,545,897,-52.0821,-4.30955
-672,127,-50.373,4.8219,0,0,0,0,0,0,0,-1,552,897,-50.373,-4.8219
-665,127,-49.6271,-2.44153,0,0,0,0,0,0,0,-1,559,897,-49.6271,2.44154
-658,127,-48.965,-4.18744,0,0,0,0,0,0,0,-1,566,897,-48.965,4.18745
-651,127,-52.9149,-0.455505,0,0,0,0,0,0,0,-1,573,897,-52.9149,0.455524
-644,127,-51.6913,-2.33765,0,0,0,0,0,0,0,-1,580,897,-51.6914,2.33763
-637,127,-50.3104,-4.18658,0,0,0,0,0,0,0,-1,587,897,-50.3104,4.18656
-630,127,-51.7328,7.75525,0,0,0,0,0,0,0,-1,594,897,-51.7328,-7.75527
-623,127,-51.8205,7.12299,-0.0169538,0.0097441,0.00581355,0.0109551,-0.0181648,1.36543,0.0169833,0.0232843,601,897,-51.8205,-7.12297
-616,127,-51.9147,6.40149,-0.0114834,0.00709954,0.00470979,0.00822506,-0.0126089,1.33622,0.0121169,0.0126458,608,897,-51.9146,-6.40151
-609,127,-52.0063,5.60004,-0.00732292,0.00440833,0.00415097,0.00572853,-0.00864312,1.26287,0.00835416,0.0141544,615,897,-52.0063,-5.60001
-602,127,-52.0176,4.81354,-0.00522292,0.00222364,0.00402423,0.00398281,-0.00698209,1.15869,0.00640904,0.0172268,622,897,-52.0176,-4.81351
-595,127,-51.7867,4.08301,0,0,0,0,0,0,0,-1,629,897,-51.7867,-4.083
-588,127,-51.6306,3.16003,0,0,0,0,0,0,0,-1,636,897,-51.6306,-3.16006
-581,127,-51.0927,1.99628,0,0,0,0,0,0,0,-1,643,897,-51.0927,-1.99627
-574,127,-25.2603,0.511169,0,0,0,0,0,0,0,-1,650,897,-25.2603,-0.51117
-567,127,-24.5417,-0.0447388,0,0,0,0,0,0,0,-1,657,897,-24.5417,0.0447226
-560,127,-18.9678,1.21667,0,0,0,0,0,0,0,-1,664,897,-18.9677,-1.2167
-553,127,-60.1193,0.344849,0,0,0,0,0,0,0,-1,671,897,-60.1193,-0.344868
-546,127,-60.0795,0.28894,-0.00118156,-0.00176718,0.00181781,0.000366875,-0.00331561,0.705546,0.0023423,0.0218992,678,897,-60.0795,-0.288966
-539,127,-60.085,0.253723,-0.00101852,-0.00149367,0.00137143,0.000135758,-0.00264795,0.699634,0.00181225,0.0200859,685,897,-60.085,-0.253742
-532,127,-60.1284,0.271179,0.00118897,-0.00174683,0.000743015,0.00136631,-0.00192417,0.234287,0.00190884,0.0175459,692,897,-60.1283,-0.271173
-525,127,-60.1675,0.285339,0.00340375,-0.00227727,0.000556766,0.0034578,-0.00233133,0.0967777,0.00336338,0.0343188,699,897,-60.1675,-0.285352
-518,127,-60.0969,0.292725,0.00514079,-0.0034866,0.000945624,0.00524322,-0.00358903,0.1079,0.00512903,0.0418585,706,897,-60.0969,-0.292749
-511,127,-59.8874,0.118164,0.00679444,-0.00478417,0.00136856,0.006954,-0.00494374,0.116067,0.00690177,0.043735,713,897,-59.8874,-0.118194
-504,127,0,0,0,0,0,0,0,0,0,-1,720,897,0,0
-497,127,0,0,0,0,0,0,0,0,0,-1,727,897,0,0
-490,127,0,0,0,0,0,0,0,0,0,-1,734,897,0,0
-483,127,0,0,0,0,0,0,0,0,0,-1,741,897,0,0
-476,127,0,0,0,0,0,0,0,0,0,-1,748,897,0,0
-469,127,0,0,0,0,0,0,0,0,0,-1,755,897,0,0
-462,127,0,0,0,0,0,0,0,0,0,-1,762,897,0,0
-455,127,0,0,0,0,0,0,0,0,0,-1,769,897,0,0
-448,127,0,0,0,0,0,0,0,0,0,-1,776,897,0,0
-441,127,0,0,0,0,0,0,0,0,0,-1,783,897,0,0
-434,127,0,0,0,0,0,0,0,0,0,-1,790,897,0,0
-427,127,0,0,0,0,0,0,0,0,0,-1,797,897,0,0
-420,127,0,0,0,0,0,0,0,0,0,-1,804,897,0,0
-413,127,0,0,0,0,0,0,0,0,0,-1,811,897,0,0
-406,127,0,0,0,0,0,0,0,0,0,-1,818,897,0,0
-399,127,0,0,0,0,0,0,0,0,0,-1,825,897,0,0
-392,127,0,0,0,0,0,0,0,0,0,-1,832,897,0,0
-385,127,0,0,0,0,0,0,0,0,0,-1,839,897,0,0
-378,127,0,0,0,0,0,0,0,0,0,-1,846,897,0,0
-371,127,0,0,0,0,0,0,0,0,0,-1,853,897,0,0
-364,127,0,0,0,0,0,0,0,0,0,-1,860,897,0,0
-357,127,0,0,0,0,0,0,0,0,0,-1,867,897,0,0
-350,127,0,0,0,0,0,0,0,0,0,-1,874,897,0,0
-343,127,0,0,0,0,0,0,0,0,0,-1,881,897,0,0
-336,127,0,0,0,0,0,0,0,0,0,-1,888,897,0,0
-329,127,0,0,0,0,0,0,0,0,0,-1,895,897,0,0
-322,127,0,0,0,0,0,0,0,0,0,-1,902,897,0,0
-315,127,0,0,0,0,0,0,0,0,0,-1,909,897,0,0
-308,127,0,0,0,0,0,0,0,0,0,-1,916,897,0,0
-301,127,0,0,0,0,0,0,0,0,0,-1,923,897,0,0
-294,127,0,0,0,0,0,0,0,0,0,-1,930,897,0,0
-287,127,0,0,0,0,0,0,0,0,0,-1,937,897,0,0
-280,127,0,0,0,0,0,0,0,0,0,-1,944,897,0,0
-273,127,0,0,0,0,0,0,0,0,0,-1,951,897,0,0
-266,127,0,0,0,0,0,0,0,0,0,-1,958,897,0,0
-259,127,0,0,0,0,0,0,0,0,0,-1,965,897,0,0
-252,127,0,0,0,0,0,0,0,0,0,-1,972,897,0,0
-245,127,0,0,0,0,0,0,0,0,0,-1,979,897,0,0
-238,127,0,0,0,0,0,0,0,0,0,-1,986,897,0,0
-231,127,0,0,0,0,0,0,0,0,0,-1,993,897,0,0
-224,127,0,0,0,0,0,0,0,0,0,-1,1000,897,0,0
-217,127,0,0,0,0,0,0,0,0,0,-1,1007,897,0,0
-210,127,0,0,0,0,0,0,0,0,0,-1,1014,897,0,0
-203,127,0,0,0,0,0,0,0,0,0,-1,1021,897,0,0
-196,127,0,0,0,0,0,0,0,0,0,-1,1028,897,0,0
-189,127,0,0,0,0,0,0,0,0,0,-1,1035,897,0,0
-182,127,0,0,0,0,0,0,0,0,0,-1,1042,897,0,0
-175,127,0,0,0,0,0,0,0,0,0,-1,1049,897,0,0
-168,127,0,0,0,0,0,0,0,0,0,-1,1056,897,0,0
-161,127,0,0,0,0,0,0,0,0,0,-1,1063,897,0,0
-154,127,0,0,0,0,0,0,0,0,0,-1,1070,897,0,0
-147,127,0,0,0,0,0,0,0,0,0,-1,1077,897,0,0
-140,127,0,0,0,0,0,0,0,0,0,-1,1084,897,0,0
-133,127,0,0,0,0,0,0,0,0,0,-1,1091,897,0,0
-126,127,0,0,0,0,0,0,0,0,0,-1,1098,897,0,0
-119,127,0,0,0,0,0,0,0,0,0,-1,1105,897,0,0
-112,127,0,0,0,0,0,0,0,0,0,-1,1112,897,0,0
-105,127,0,0,0,0,0,0,0,0,0,-1,1119,897,0,0
-98,127,0,0,0,0,0,0,0,0,0,-1,1126,897,0,0
-91,127,0,0,0,0,0,0,0,0,0,-1,1133,897,0,0
-84,127,0,0,0,0,0,0,0,0,0,-1,1140,897,0,0
-77,127,0,0,0,0,0,0,0,0,0,-1,1147,897,0,0
-70,127,0,0,0,0,0,0,0,0,0,-1,1154,897,0,0
-63,127,0,0,0,0,0,0,0,0,0,-1,1161,897,0,0
-56,127,0,0,0,0,0,0,0,0,0,-1,1168,897,0,0
-49,127,0,0,0,0,0,0,0,0,0,-1,1175,897,0,0
-42,127,0,0,0,0,0,0,0,0,0,-1,1182,897,0,0
-35,127,0,0,0,0,0,0,0,0,0,-1,1189,897,0,0
-28,127,0,0,0,0,0,0,0,0,0,-1,1196,897,0,0
-21,127,0,0,0,0,0,0,0,0,0,-1,1203,897,0,0
-14,127,0,0,0,0,0,0,0,0,0,-1,1210,897,0,0
-7,127,0,0,0,0,0,0,0,0,0,-1,1217,897,0,0
0,127,0,0,0,0,0,0,0,0,0,-1,1224,897,0,0
7,127,0,0,0,0,0,0,0,0,0,-1,1231,897,0,0
14,127,0,0,0,0,0,0,0,0,0,-1,1238,897,0,0
21,127,0,0,0,0,0,0,0,0,0,-1,1245,897,0,0
28,127,0,0,0,0,0,0,0,0,0,-1,1252,897,0,0
35,127,0,0,0,0,0,0,0,0,0,-1,1259,897,0,0
42,127,0,0,0,0,0,0,0,0,0,-1,1266,897,0,0
49,127,0,0,0,0,0,0,0,0,0,-1,1273,897,0,0
56,127,0,0,0,0,0,0,0,0,0,-1,1280,897,0,0
63,127,0,0,0,0,0,0,0,0,0,-1,1287,897,0,0
70,127,0,0,0,0,0,0,0,0,0,-1,1294,897,0,0
77,127,0,0,0,0,0,0,0,0,0,-1,1301,897,0,0
84,127,0,0,0,0,0,0,0,0,0,-1,1308,897,0,0
91,127,0,0,0,0,0,0,0,0,0,-1,1315,897,0,0
98,127,0,0,0,0,0,0,0,0,0,-1,1322,897,0,0
105,127,0,0,0,0,0,0,0,0,0,-1,1329,897,0,0
112,127,0,0,0,0,0,0,0,0,0,-1,1336,897,0,0
119,127,0,0,0,0,0,0,0,0,0,-1,1343,897,0,0
126,127,0,0,0,0,0,0,0,0,0,-1,1350,897,0,0
133,127,0,0,0,0,0,0,0,0,0,-1,1357,897,0,0
140,127,0,0,0,0,0,0,0,0,0,-1,1364,897,0,0
147,127,0,0,0,0,0,0,0,0,0,-1,1371,897,0,0
154,127,0,0,0,0,0,0,0,0,0,-1,1378,897,0,0
161,127,0,0,0,0,0,0,0,0,0,-1,1385,897,0,0
168,127,0,0,0,0,0,0,0,0,0,-1,1392,897,0,0
175,127,0,0,0,0,0,0,0,0,0,-1,1399,897,0,0
182,127,0,0,0,0,0,0,0,0,0,-1,1406,897,0,0
189,127,0,0,0,0,0,0,0,0,0,-1,1413,897,0,0
196,127,0,0,0,0,0,0,0,0,0,-1,1420,897,0,0
203,127,0,0,0,0,0,0,0,0,0,-1,1427,897,0,0
210,127,0,0,0,0,0,0,0,0,0,-1,1434,897,0,0
217,127,0,0,0,0,0,0,0,0,0,-1,1441,897,0,0
224,127,0,0,0,0,0,0,0,0,0,-1,1448,897,0,0
231,127,0,0,0,0,0,0,0,0,0,-1,1455,897,0,0
238,127,0,0,0,0,0,0,0,0,0,-1,1462,897,0,0
245,127,0,0,0,0,0,0,0,0,0,-1,1469,897,0,0
252,127,0,0,0,0,0,0,0,0,0,-1,1476,897,0,0
259,127,0,0,0,0,0,0,0,0,0,-1,1483,897,0,0
266,127,0,0,0,0,0,0,0,0,0,-1,1490,897,0,0
273,127,0,0,0,0,0,0,0,0,0,-1,1497,897,0,0
280,127,0,0,0,0,0,0,0,0,0,-1,1504,897,0,0
287,127,0,0,0,0,0,0,0,0,0,-1,1511,897,0,0
294,127,0,0,0,0,0,0,0,0,0,-1,1518,897,0,0
301,127,0,0,0,0,0,0,0,0,0,-1,1525,897,0,0
308,127,0,0,0,0,0,0,0,0,0,-1,1532,897,0,0
315,127,0,0,0,0,0,0,0,0,0,-1,1539,897,0,0
322,127,0,0,0,0,0,0,0,0,0,-1,1546,897,0,0
329,127,0,0,0,0,0,0,0,0,0,-1,1553,897,0,0
336,127,0,0,0,0,0,0,0,0,0,-1,1560,897,0,0
343,127,0,0,0,0,0,0,0,0,0,-1,1567,897,0,0
350,127,0,0,0,0,0,0,0,0,0,-1,1574,897,0,0
357,127,0,0,0,0,0,0,0,0,0,-1,1581,897,0,0
364,127,0,0,0,0,0,0,0,0,0,-1,1588,897,0,0
371,127,0,0,0,0,0,0,0,0,0,-1,1595,897,0,0
378,127,0,0,0,0,0,0,0,0,0,-1,1602,897,0,0
385,127,0,0,0,0,0,0,0,0,0,-1,1609,897,0,0
392,127,0,0,0,0,0,0,0,0,0,-1,1616,897,0,0
399,127,0,0,0,0,0,0,0,0,0,-1,1623,897,0,0
406,127,0,0,0,0,0,0,0,0,0,-1,1630,897,0,0
413,127,0,0,0,0,0,0,0,0,0,-1,1637,897,0,0
420,127,0,0,0,0,0,0,0,0,0,-1,1644,897,0,0
427,127,0,0,0,0,0,0,0,0,0,-1,1651,897,0,0
434,127,0,0,0,0,0,0,0,0,0,-1,1658,897,0,0
441,127,0,0,0,0,0,0,0,0,0,-1,1665,897,0,0
448,127,0,0,0,0,0,0,0,0,0,-1,1672,897,0,0
455,127,0,0,0,0,0,0,0,0,0,-1,1679,897,0,0
462,127,0,0,0,0,0,0,0,0,0,-1,1686,897,0,0
469,127,0,0,0,0,0,0,0,0,0,-1,1693,897,0,0
476,127,0,0,0,0,0,0,0,0,0,-1,1700,897,0,0
483,127,0,0,0,0,0,0,0,0,0,-1,1707,897,0,0
490,127,0,0,0,0,0,0,0,0,0,-1,1714,897,0,0
497,127,0,0,0,0,0,0,0,0,0,-1,1721,897,0,0
504,127,0,0,0,0,0,0,0,0,0,-1,1728,897,0,0
511,127,0,0,0,0,0,0,0,0,0,-1,1735,897,0,0
518,127,0,0,0,0,0,0,0,0,0,-1,1742,897,0,0
525,127,0,0,0,0,0,0,0,0,0,-1,1749,897,0,0
532,127,0,0,0,0,0,0,0,0,0,-1,1756,897,0,0
539,127,0,0,0,0,0,0,0,0,0,-1,1763,897,0,0
546,127,0,0,0,0,0,0,0,0,0,-1,1770,897,0,0
553,127,0,0,0,0,0,0,0,0,0,-1,1777,897,0,0
560,127,0,0,0,0,0,0,0,0,0,-1,1784,897,0,0
567,127,0,0,0,0,0,0,0,0,0,-1,1791,897,0,0
574,127,0,0,0,0,0,0,0,0,0,-1,1798,897,0,0
581,127,0,0,0,0,0,0,0,0,0,-1,1805,897,0,0
588,127,0,0,0,0,0,0,0,0,0,-1,1812,897,0,0
595,127,0,0,0,0,0,0,0,0,0,-1,1819,897,0,0
602,127,0,0,0,0,0,0,0,0,0,-1,1826,897,0,0
609,127,0,0,0,0,0,0,0,0,0,-1,1833,897,0,0
616,127,0,0,0,0,0,0,0,0,0,-1,1840,897,0,0
623,127,0,0,0,0,0,0,0,0,0,-1,1847,897,0,0
630,127,76.3251,2.42615,0.00719973,0.00105445,-0.0021906,0.00790066,0.000353521,-0.309678,0.00515331,0.0408867,1854,897,76.3251,-2.42613
637,127,76.4635,2.39685,0.00480951,0.00104532,-0.00197999,0.0056592,0.000195628,-0.40537,0.00370931,0.0402746,1861,897,76.4635,-2.39684
644,127,76.4998,2.36542,0.00284952,0.0010344,-0.00162611,0.00380418,7.97318e-05,-0.530871,0.00250997,0.0381235,1868,897,76.4997,-2.3654
651,127,76.48,2.2049,0.00138559,0.000944288,-0.00125155,0.00243579,-0.000105917,-0.698144,0.00166029,0.0433041,1875,897,76.4799,-2.20487
658,127,76.4996,2.07172,0.000266172,0.000764727,-0.000999475,0.00154554,-0.000514642,-0.907609,0.00123809,0.0448038,1882,897,76.4997,-2.0717
665,127,76.4668,2.00891,-0.000520555,0.00109289,-0.000498214,0.00123433,-0.000661998,-1.29417,0.00111134,0.0410892,1889,897,76.4668,-2.0089
672,127,76.4456,2.04492,-0.000939122,0.000852304,-0.000527399,0.000996038,-0.00108286,-1.30472,0.0012006,0.0349908,1896,897,76.4456,-2.04494
679,127,76.5349,2.08386,-0.00122942,0.000658856,-0.000650505,0.000861258,-0.00143182,-1.26915,0.0013375,0.0279039,1903,897,76.5349,-2.08385
686,127,76.5758,2.02478,0,0,0,0,0,0,0,-1,1910,897,76.5759,-2.02479
693,127,59.2523,2.33673,0,0,0,0,0,0,0,-1,1917,897,59.2524,-2.33674
700,127,58.717,1.80957,0,0,0,0,0,0,0,-1,1924,897,58.717,-1.80956
707,127,67.2356,1.96423,0,0,0,0,0,0,0,-1,1931,897,67.2356,-1.96422
714,127,68.2527,3.81873,0,0,0,0,0,0,0,-1,1938,897,68.2526,-3.81872
721,127,67.9708,4.39124,-0.00310544,0.00196065,-0.00153082,0.00238729,-0.00353208,-1.29899,0.00343878,0.0267015,1945,897,67.9708,-4.39121
728,127,67.8108,5.1557,-0.00356393,0.00258467,-0.00158823,0.00297069,-0.00394995,-1.33237,0.00400894,0.0248052,1952,897,67.8108,-5.15567
735,127,67.7202,5.98975,-0.00351642,0.00361926,-0.00134358,0.00386386,-0.00376102,-1.39072,0.00440236,0.0219435,1959,897,67.7202,-5.98978
742,127,67.6454,6.80981,-0.00281183,0.00525975,-0.000808962,0.00534003,-0.00289211,-1.47188,0.00482236,0.0202904,1966,897,67.6454,-6.80981
749,127,67.5704,7.57141,-0.0013387,0.00726659,0.000453495,0.00729042,-0.00136253,1.51829,0.00537236,0.0137624,1973,897,67.5705,-7.57138
756,127,67.4932,8.27911,0.00097061,0.00937984,0.00257977,0.0101082,0.000242274,1.29563,0.0066595,0.0161636,1980,897,67.4932,-8.27913
763,127,67.4084,9.03186,0.00414034,0.0112523,0.00550408,0.0142492,0.00114347,1.0722,0.00914217,0.0261215,1987,897,67.4085,-9.03187
770,127,67.3901,9.80505,0,0,0,0,0,0,0,-1,1994,897,67.3902,-9.80503
777,127,42.703,5.33789,0,0,0,0,0,0,0,-1,2001,897,42.7031,-5.33791
784,127,71.8792,12.5832,0,0,0,0,0,0,0,-1,2008,897,71.8792,-12.5832
791,127,73.6824,14.1336,0,0,0,0,0,0,0,-1,2015,897,73.6823,-14.1336
798,127,0,0,0,0,0,0,0,0,0,-1,2022,897,0,0
805,127,0,0,0,0,0,0,0,0,0,-1,2029,897,0,0
812,127,0,0,0,0,0,0,0,0,0,-1,2036,897,0,0
-700,120,0,0,0,0,0,0,0,0,0,-1,524,904,0,0
-693,120,0,0,0,0,0,0,0,0,0,-1,531,904,0,0
-686,120,0,0,0,0,0,0,0,0,0,-1,538,904,0,0
-679,120,-52.0888,4.76025,0,0,0,0,0,0,0,-1,545,904,-52.0888,-4.76024
-672,120,-51.1454,5.42755,0,0,0,0,0,0,0,-1,552,904,-51.1454,-5.42753
-665,120,-50.2376,-2.67987,0,0,0,0,0,0,0,-1,559,904,-50.2376,2.67988
-658,120,-54.6443,7.5307,0,0,0,0,0,0,0,-1,566,904,-54.6443,-7.53071
-651,120,-52.9452,-1.22644,0,0,0,0,0,0,0,-1,573,904,-52.9452,1.22647
-644,120,-51.6526,-3.15863,0,0,0,0,0,0,0,-1,580,904,-51.6526,3.15864
-637,120,-52.497,8.47101,0,0,0,0,0,0,0,-1,587,904,-52.497,-8.47104
-630,120,-52.5741,7.81824,-0.0222797,0.0135041,0.00989367,0.0160574,-0.024833,1.31824,0.0237886,0.0430877,594,904,-52.5741,-7.81822
-623,120,-52.7153,7.10669,-0.0169144,0.010387,0.00764984,0.0123843,-0.0189118,1.3154,0.0181993,0.0149324,601,904,-52.7153,-7.10669
-616,120,-52.7875,6.36389,-0.0113401,0.00708377,0.00587732,0.00879898,-0.0130554,1.28685,0.0126971,0.0110523,608,904,-52.7875,-6.3639
-609,120,-52.8354,5.6134,-0.00695046,0.00416283,0.00462054,0.00583292,-0.00862054,1.22396,0.00839629,0.0139199,615,904,-52.8355,-5.6134
-602,120,-52.8757,4.86176,-0.00485392,0.00188246,0.0041356,0.00384793,-0.00681938,1.12714,0.00623791,0.0175168,622,904,-52.8757,-4.86177
-595,120,-52.7927,4.12512,-0.00432688,0.000725507,0.00406146,0.00298232,-0.00658369,1.06361,0.0056519,0.038726,629,904,-52.7927,-4.12514
-588,120,-52.5276,3.39972,0,0,0,0,0,0,0,-1,636,904,-52.5277,-3.39974
-581,120,-52.9219,2.77563,0,0,0,0,0,0,0,-1,643,904,-52.9219,-2.77566
-574,120,-27.5438,0.505066,0,0,0,0,0,0,0,-1,650,904,-27.5438,-0.505085
-567,120,-25.2822,-0.410645,0,0,0,0,0,0,0,-1,657,904,-25.2821,0.410629
-560,120,-27.3358,1.10327,0,0,0,0,0,0,0,-1,664,904,-27.3358,-1.10324
-553,120,-60.0616,0.398499,0,0,0,0,0,0,0,-1,671,904,-60.0616,-0.398527
-546,120,-60.0319,0.325806,-0.000878808,-0.00231249,0.00198831,0.000517929,-0.00370923,0.612386,0.00266231,0.0295623,678,904,-60.0319,-0.325822
-539,120,-60.0291,0.26123,-0.00065113,-0.00208737,0.00163258,0.000414289,-0.00315279,0.5782,0.00225269,0.0248165,685,904,-60.0291,-0.261203
-532,120,-60.0465,0.212708,0.00146141,-0.00241076,0.0013652,0.00189433,-0.00284369,0.307082,0.00275374,0.0271102,692,904,-60.0465,-0.212708
-525,120,-60.1213,0.380798,0.0034011,-0.00325185,0.00149563,0.00372186,-0.00357262,0.211266,0.00421176,0.0359344,699,904,-60.1213,-0.380829
-518,120,-60.1301,0.543457,0.00500453,-0.00455717,0.00196502,0.00539261,-0.00494525,0.194985,0.00597043,0.0403271,706,904,-60.1301,-0.543479
-511,120,-60.0872,0.562195,0.00653841,-0.00606106,0.00243665,0.00699323,-0.00651587,0.184532,0.0078011,0.0410336,713,904,-60.0872,-0.562211
-504,120,0,0,0,0,0,0,0,0,0,-1,720,904,0,0
-497,120,0,0,0,0,0,0,0,0,0,-1,727,904,0,0
-490,120,0,0,0,0,0,0,0,0,0,-1,734,904,0,0
-483,120,0,0,0,0,0,0,0,0,0,-1,741,904,0,0
-476,120,0,0,0,0,0,0,0,0,0,-1,748,904,0,0
-469,120,0,0,0,0,0,0,0,0,0,-1,755,904,0,0
-462,120,0,0,0,0,0,0,0,0,0,-1,762,904,0,0
-455,120,0,0,0,0,0,0,0,0,0,-1,769,904,0,0
-448,120,0,0,0,0,0,0,0,0,0,-1,776,904,0,0
-441,120,0,0,0,0,0,0,0,0,0,-1,783,904,0,0
-434,120,0,0,0,0,0,0,0,0,0,-1,790,904,0,0
-427,120,0,0,0,0,0,0,0,0,0,-1,797,904,0,0
-420,120,0,0,0,0,0,0,0,0,0,-1,804,904,0,0
-413,120,0,0,0,0,0,0,0,0,0,-1,811,904,0,0
-406,120,0,0,0,0,0,0,0,0,0,-1,818,904,0,0
-399,120,0,0,0,0,0,0,0,0,0,-1,825,904,0,0
-392,120,0,0,0,0,0,0,0,0,0,-1,832,904,0,0
-385,120,0,0,0,0,0,0,0,0,0,-1,839,904,0,0
-378,120,0,0,0,0,0,0,0,0,0,-1,846,904,0,0
-371,120,0,0,0,0,0,0,0,0,0,-1,853,904,0,0
-364,120,0,0,0,0,0,0,0,0,0,-1,860,904,0,0
-357,120,0,0,0,0,0,0,0,0,0,-1,867,904,0,0
-350,120,0,0,0,0,0,0,0,0,0,-1,874,904,0,0
-343,120,0,0,0,0,0,0,0,0,0,-1,881,904,0,0
-336,120,0,0,0,0,0,0,0,0,0,-1,888,904,0,0
-329,120,0,0,0,0,0,0,0,0,0,-1,895,904,0,0
-322,120,0,0,0,0,0,0,0,0,0,-1,902,904,0,0
-315,120,0,0,0,0,0,0,0,0,0,-1,909,904,0,0
-308,120,0,0,0,0,0,0,0,0,0,-1,916,904,0,0
-301,120,0,0,0,0,0,0,0,0,0,-1,923,904,0,0
-294,120,0,0,0,0,0,0,0,0,0,-1,930,904,0,0
-287,120,0,0,0,0,0,0,0,0,0,-1,937,904,0,0
-280,120,0,0,0,0,0,0,0,0,0,-1,944,904,0,0
-273,120,0,0,0,0,0,0,0,0,0,-1,951,904,0,0
-266,120,0,0,0,0,0,0,0,0,0,-1,958,904,0,0
-259,120,0,0,0,0,0,0,0,0,0,-1,965,904,0,0
-252,120,0,0,0,0,0,0,0,0,0,-1,972,904,0,0
-245,120,0,0,0,0,0,0,0,0,0,-1,979,904,0,0
-238,120,0,0,0,0,0,0,0,0,0,-1,986,904,0,0
-231,120,0,0,0,0,0,0,0,0,0,-1,993,904,0,0
-224,120,0,0,0,0,0,0,0,0,0,-1,1000,904,0,0
-217,120,0,0,0,0,0,0,0,0,0,-1,1007,904,0,0
-210,120,0,0,0,0,0,0,0,0,0,-1,1014,904,0,0
-203,120,0,0,0,0,0,0,0,0,0,-1,1021,904,0,0
-196,120,0,0,0,0,0,0,0,0,0,-1,1028,904,0,0
-189,120,0,0,0,0,0,0,0,0,0,-1,1035,904,0,0
-182,120,0,0,0,0,0,0,0,0,0,-1,1042,904,0,0
-175,120,0,0,0,0,0,0,0,0,0,-1,1049,904,0,0
-168,120,0,0,0,0,0,0,0,0,0,-1,1056,904,0,0
-161,120,0,0,0,0,0,0,0,0,0,-1,1063,904,0,0
-154,120,0,0,0,0,0,0,0,0,0,-1,1070,904,0,0
-147,120,0,0,0,0,0,0,0,0,0,-1,1077,904,0,0
-140,120,0,0,0,0,0,0,0,0,0,-1,1084,904,0,0
-133,120,0,0,0,0,0,0,0,0,0,-1,1091,904,0,0
-126,120,0,0,0,0,0,0,0,0,0,-1,1098,904,0,0
-119,120,0,0,0,0,0,0,0,0,0,-1,1105,904,0,0
-112,120,0,0,0,0,0,0,0,0,0,-1,1112,904,0,0
-105,120,0,0,0,0,0,0,0,0,0,-1,1119,904,0,0
-98,120,0,0,0,0,0,0,0,0,0,-1,1126,904,0,0
-91,120,0,0,0,0,0,0,0,0,0,-1,1133,904,0,0
-84,120,0,0,0,0,0,0,0,0,0,-1,1140,904,0,0
-77,120,0,0,0,0,0,0,0,0,0,-1,1147,904,0,0
-70,120,0,0,0,0,0,0,0,0,0,-1,1154,904,0,0
-63,120,0,0,0,0,0,0,0,0,0,-1,1161,904,0,0
-56,120,0,0,0,0,0,0,0,0,0,-1,1168,904,0,0
-49,120,0,0,0,0,0,0,0,0,0,-1,1175,904,0,0
-42,120,0,0,0,0,0,0,0,0,0,-1,1182,904,0,0
-35,120,0,0,0,0,0,0,0,0,0,-1,1189,904,0,0
-28,120,0,0,0,0,0,0,0,0,0,-1,1196,904,0,0
-21,120,0,0,0,0,0,0,0,0,0,-1,1203,904,0,0
-14,120,0,0,0,0,0,0,0,0,0,-1,1210,904,0,0
-7,120,0,0,0,0,0,0,0,0,0,-1,1217,904,0,0
0,120,0,0,0,0,0,0,0,0,0,-1,1224,904,0,0
7,120,0,0,0,0,0,0,0,0,0,-1,1231,904,0,0
14,120,0,0,0,0,0,0,0,0,0,-1,1238,904,0,0
21,120,0,0,0,0,0,0,0,0,0,-1,1245,904,0,0
28,120,0,0,0,0,0,0,0,0,0,-1,1252,904,0,0
35,120,0,0,0,0,0,0,0,0,0,-1,1259,904,0,0
42,120,0,0,0,0,0,0,0,0,0,-1,1266,904,0,0
49,120,0,0,0,0,0,0,0,0,0,-1,1273,904,0,0
56,120,0,0,0,0,0,0,0,0,0,-1,1280,904,0,0
63,120,0,0,0,0,0,0,0,0,0,-1,1287,904,0,0
70,120,0,0,0,0,0,0,0,0,0,-1,1294,904,0,0
77,120,0,0,0,0,0,0,0,0,0,-1,1301,904,0,0
84,120,0,0,0,0,0,0,0,0,0,-1,1308,904,0,0
91,120,0,0,0,0,0,0,0,0,0,-1,1315,904,0,0
98,120,0,0,0,0,0,0,0,0,0,-1,1322,904,0,0
105,120,0,0,0,0,0,0,0,0,0,-1,1329,904,0,0
112,120,0,0,0,0,0,0,0,0,0,-1,1336,904,0,0
119,120,0,0,0,0,0,0,0,0,0,-1,1343,904,0,0
126,120,0,0,0,0,0,0,0,0,0,-1,1350,904,0,0
133,120,0,0,0,0,0,0,0,0,0,-1,1357,904,0,0
140,120,0,0,0,0,0,0,0,0,0,-1,1364,904,0,0
147,120,0,0,0,0,0,0,0,0,0,-1,1371,904,0,0
154,120,0,0,0,0,0,0,0,0,0,-1,1378,904,0,0
161,120,0,0,0,0,0,0,0,0,0,-1,1385,904,0,0
168,120,0,0,0,0,0,0,0,0,0,-1,1392,904,0,0
175,120,0,0,0,0,0,0,0,0,0,-1,1399,904,0,0
182,120,0,0,0,0,0,0,0,0,0,-1,1406,904,0,0
189,120,0,0,0,0,0,0,0,0,0,-1,1413,904,0,0
196,120,0,0,0,0,0,0,0,0,0,-1,1420,904,0,0
203,120,0,0,0,0,0,0,0,0,0,-1,1427,904,0,0
210,120,0,0,0,0,0,0,0,0,0,-1,1434,904,0,0
217,120,0,0,0,0,0,0,0,0,0,-1,1441,904,0,0
224,120,0,0,0,0,0,0,0,0,0,-1,1448,904,0,0
231,120,0,0,0,0,0,0,0,0,0,-1,1455,904,0,0
238,120,0,0,0,0,0,0,0,0,0,-1,1462,904,0,0
245,120,0,0,0,0,0,0,0,0,0,-1,1469,904,0,0
252,120,0,0,0,0,0,0,0,0,0,-1,1476,904,0,0
259,120,0,0,0,0,0,0,0,0,0,-1,1483,904,0,0
266,120,0,0,0,0,0,0,0,0,0,-1,1490,904,0,0
273,120,0,0,0,0,0,0,0,0,0,-1,1497,904,0,0
280,120,0,0,0,0,0,0,0,0,0,-1,1504,904,0,0
287,120,0,0,0,0,0,0,0,0,0,-1,1511,904,0,0
294,120,0,0,0,0,0,0,0,0,0,-1,1518,904,0,0
301,120,0,0,0,0,0,0,0,0,0,-1,1525,904,0,0
308,120,0,0,0,0,0,0,0,0,0,-1,1532,904,0,0
315,120,0,0,0,0,0,0,0,0,0,-1,1539,904,0,0
322,120,0,0,0,0,0,0,0,0,0,-1,1546,904,0,0
329,120,0,0,0,0,0,0,0,0,0,-1,1553,904,0,0
336,120,0,0,0,0,0,0,0,0,0,-1,1560,904,0,0
343,120,0,0,0,0,0,0,0,0,0,-1,1567,904,0,0
350,120,0,0,0,0,0,0,0,0,0,-1,1574,904,0,0
357,120,0,0,0,0,0,0,0,0,0,-1,1581,904,0,0
364,120,0,0,0,0,0,0,0,0,0,-1,1588,904,0,0
371,120,0,0,0,0,0,0,0,0,0,-1,1595,904,0,0
378,120,0,0,0,0,0,0,0,0,0,-1,1602,904,0,0
385,120,0,0,0,0,0,0,0,0,0,-1,1609,904,0,0
392,120,0,0,0,0,0,0,0,0,0,-1,1616,904,0,0
399,120,0,0,0,0,0,0,0,0,0,-1,1623,904,0,0
406,120,0,0,0,0,0,0,0,0,0,-1,1630,904,0,0
413,120,0,0,0,0,0,0,0,0,0,-1,1637,904,0,0
420,120,0,0,0,0,0,0,0,0,0,-1,1644,904,0,0
427,120,0,0,0,0,0,0,0,0,0,-1,1651,904,0,0
434,120,0,0,0,0,0,0,0,0,0,-1,1658,904,0,0
441,120,0,0,0,0,0,0,0,0,0,-1,1665,904,0,0
448,120,0,0,0,0,0,0,0,0,0,-1,1672,904,0,0
455,120,0,0,0,0,0,0,0,0,0,-1,1679,904,0,0
462,120,0,0,0,0,0,0,0,0,0,-1,1686,904,0,0
469,120,0,0,0,0,0,0,0,0,0,-1,1693,904,0,0
476,120,0,0,0,0,0,0,0,0,0,-1,1700,904,0,0
483,120,0,0,0,0,0,0,0,0,0,-1,1707,904,0,0
490,120,0,0,0,0,0,0,0,0,0,-1,1714,904,0,0
497,120,0,0,0,0,0,0,0,0,0,-1,1721,904,0,0
504,120,0,0,0,0,0,0,0,0,0,-1,1728,904,0,0
511,120,0,0,0,0,0,0,0,0,0,-1,1735,904,0,0
518,120,0,0,0,0,0,0,0,0,0,-1,1742,904,0,0
525,120,0,0,0,0,0,0,0,0,0,-1,1749,904,0,0
532,120,0,0,0,0,0,0,0,0,0,-1,1756,904,0,0
539,120,0,0,0,0,0,0,0,0,0,-1,1763,904,0,0
546,120,0,0,0,0,0,0,0,0,0,-1,1770,904,0,0
553,120,0,0,0,0,0,0,0,0,0,-1,1777,904,0,0
560,120,0,0,0,0,0,0,0,0,0,-1,1784,904,0,0
567,120,0,0,0,0,0,0,0,0,0,-1,1791,904,0,0
574,120,0,0,0,0,0,0,0,0,0,-1,1798,904,0,0
581,120,0,0,0,0,0,0,0,0,0,-1,1805,904,0,0
588,120,0,0,0,0,0,0,0,0,0,-1,1812,904,0,0
595,120,0,0,0,0,0,0,0,0,0,-1,1819,904,0,0
602,120,0,0,0,0,0,0,0,0,0,-1,1826,904,0,0
609,120,0,0,0,0,0,0,0,0,0,-1,1833,904,0,0
616,120,0,0,0,0,0,0,0,0,0,-1,1840,904,0,0
623,120,0,0,0,0,0,0,0,0,0,-1,1847,904,0,0
630,120,76.3315,2.54352,0.00850052,0.000655589,-0.00229489,0.00912253,3.35807e-05,-0.264682,0.00607052,0.0401049,1854,904,76.3316,-2.54351
637,120,76.3025,2.38141,0.00582776,0.000901676,-0.00206888,0.00658137,0.000148066,-0.349321,0.00433907,0.0426471,1861,904,76.3026,-2.38142
644,120,76.3038,2.12738,0.00370515,0.00106729,-0.00170859,0.00454466,0.000227785,-0.4567,0.00295677,0.0394128,1868,904,76.3039,-2.12737
651,120,76.4227,2.00977,0.00206379,0.00113707,-0.00128742,0.0029687,0.000232158,-0.612659,0.00190646,0.042344,1875,904,76.4228,-2.00979
658,120,76.4933,2.05426,0.00078364,0.00115323,-0.000908434,0.00189548,4.13975e-05,-0.885741,0.00125008,0.0443077,1882,904,76.4933,-2.05427
665,120,76.4362,2.15607,-0.000125084,0.0015295,-0.000332884,0.00159396,-0.000189545,-1.37952,0.00113113,0.0378814,1889,904,76.4361,-2.15604
672,120,76.4526,2.1167,-0.000713337,0.00131204,-0.000259756,0.00134483,-0.00074612,-1.44525,0.00122359,0.0349785,1896,904,76.4527,-2.11669
679,120,76.5022,2.10034,-0.00111901,0.00105662,-0.000317625,0.00110204,-0.00116443,-1.42875,0.00130871,0.031832,1903,904,76.5022,-2.10037
686,120,76.4987,2.08209,-0.00162025,0.0010511,-0.000460763,0.00112834,-0.00169749,-1.40471,0.00164249,0.0335422,1910,904,76.4987,-2.08207
693,120,76.6215,2.02814,0,0,0,0,0,0,0,-1,1917,904,76.6214,-2.02816
700,120,42.2007,3.00946,0,0,0,0,0,0,0,-1,1924,904,42.2007,-3.00944
707,120,68.7156,3.01648,0,0,0,0,0,0,0,-1,1931,904,68.7156,-3.01646
714,120,68.8757,3.86841,-0.0031542,0.00182563,-0.00102155,0.00202704,-0.00335561,-1.37613,0.00313907,0.0297429,1938,904,68.8758,-3.86842
721,120,68.7417,4.59338,-0.00358537,0.00219787,-0.00140123,0.00251949,-0.00390699,-1.34518,0.00373904,0.0259598,1945,904,68.7418,-4.59339
728,120,68.6189,5.35345,-0.00410747,0.00271062,-0.00150944,0.00302984,-0.00442669,-1.36238,0.00433014,0.0180495,1952,904,68.6189,-5.35348
735,120,68.5562,6.05664,-0.00412622,0.00374967,-0.00132006,0.00396503,-0.00434159,-1.40907,0.00479747,0.0161439,1959,904,68.5562,-6.05662
742,120,68.4585,6.85016,-0.00348444,0.00555844,-0.000851046,0.00563783,-0.00356384,-1.47777,0.00535738,0.0158485,1966,904,68.4584,-6.85018
749,120,68.4084,7.56854,-0.00194455,0.0080139,0.000427112,0.00803219,-0.00196284,1.52801,0.00611499,0.0115015,1973,904,68.4084,-7.56852
756,120,68.312,8.26947,0.000550666,0.0108051,0.00273906,0.0114908,-0.000135107,1.32547,0.00770599,0.0151937,1980,904,68.312,-8.26945
763,120,68.1638,8.97943,0.00398086,0.0135071,0.00596558,0.0163779,0.00111016,1.12229,0.010568,0.0341265,1987,904,68.1637,-8.97946
770,120,68.0549,9.73004,0,0,0,0,0,0,0,-1,1994,904,68.055,-9.73004
777,120,59.313,9.57587,0,0,0,0,0,0,0,-1,2001,904,59.3129,-9.57587
784,120,60.7788,13.7254,0,0,0,0,0,0,0,-1,2008,904,60.7789,-13.7254
791,120,74.3335,14.8156,0,0,0,0,0,0,0,-1,2015,904,74.3336,-14.8156
798,120,62.2224,11.3201,0,0,0,0,0,0,0,-1,2022,904,62.2225,-11.3201
805,120,0,0,0,0,0,0,0,0,0,-1,2029,904,0,0
812,120,0,0,0,0,0,0,0,0,0,-1,2036,904,0,0
-700,113,0,0,0,0,0,0,0,0,0,-1,524,911,0,0
-693,113,0,0,0,0,0,0,0,0,0,-1,531,911,0,0
-686,113,0,0,0,0,0,0,0,0,0,-1,538,911,0,0
-679,113,-55.4734,4.82983,0,0,0,0,0,0,0,-1,545,911,-55.4735,-4.82983
-672,113,-52.5881,5.49811,0,0,0,0,0,0,0,-1,552,911,-52.5881,-5.49808
-665,113,-56.8114,7.23682,0,0,0,0,0,0,0,-1,559,911,-56.8114,-7.23679
-658,113,-54.1535,7.58624,0,0,0,0,0,0,0,-1,566,911,-54.1535,-7.58627
-651,113,-53.3762,7.8313,0,0,0,0,0,0,0,-1,573,911,-53.3762,-7.8313
-644,113,-48.5211,7.83691,0,0,0,0,0,0,0,-1,580,911,-48.5211,-7.83694
-637,113,-53.2589,8.34937,0,0,0,0,0,0,0,-1,587,911,-53.2589,-8.34938
-630,113,-53.4496,7.81042,-0.0213023,0.0149913,0.011242,0.0181914,-0.0245024,1.29348,0.0247388,0.0268905,594,911,-53.4497,-7.8104
-623,113,-53.5742,7.08636,-0.0162684,0.0111527,0.00897392,0.0138284,-0.0189442,1.28102,0.0189979,0.0141985,601,911,-53.5742,-7.08636
-616,113,-53.6072,6.35602,-0.0107568,0.00719126,0.00676624,0.00945623,-0.0130218,1.24777,0.013032,0.0120147,608,911,-53.6072,-6.35599
-609,113,-53.6334,5.66718,-0.00646144,0.00400139,0.00503955,0.00603391,-0.00849396,1.18744,0.00842766,0.0116463,615,911,-53.6334,-5.66715
-602,113,-53.6794,4.90912,-0.00454563,0.00167837,0.00435886,0.00392213,-0.00678939,1.09541,0.00625772,0.0211881,622,911,-53.6794,-4.90912
-595,113,-53.7253,4.2782,-0.00401171,0.000557347,0.00424349,0.00309219,-0.00654655,1.03233,0.0056828,0.0304306,629,911,-53.7253,-4.27817
-588,113,-53.6391,3.44275,0,0,0,0,0,0,0,-1,636,911,-53.6391,-3.44274
-581,113,-53.6717,2.69855,0,0,0,0,0,0,0,-1,643,911,-53.6717,-2.69854
-574,113,-53.6675,1.71515,0,0,0,0,0,0,0,-1,650,911,-53.6675,-1.71516
-567,113,-21.8396,0.437378,0,0,0,0,0,0,0,-1,657,911,-21.8396,-0.437351
-560,113,-60.1295,0.162781,0,0,0,0,0,0,0,-1,664,911,-60.1294,-0.162762
-553,113,-60.1135,0.202576,-0.00055883,-0.0026327,0.00263306,0.00123412,-0.00442564,0.597817,0.00343648,0.0435398,671,911,-60.1135,-0.20256
-546,113,-60.1168,0.274902,-0.000577948,-0.00271526,0.00234203,0.000927713,-0.00422092,0.571359,0.00316878,0.0318827,678,911,-60.1168,-0.274929
-539,113,-60.081,0.317993,-0.000313397,-0.00251305,0.00212204,0.000976893,-0.00380334,0.546313,0.00291625,0.033628,685,911,-60.081,-0.318008
-532,113,-59.9567,0.0409546,0.00153233,-0.00278544,0.0021559,0.00242446,-0.00367757,0.392353,0.00354769,0.0367237,692,911,-59.9567,-0.0409246
-525,113,-59.9289,0.268677,0.00315204,-0.00368104,0.0024395,0.00393358,-0.00446258,0.310039,0.00485074,0.0380192,699,911,-59.9289,-0.268667
-518,113,-59.9218,0.641846,0.00450097,-0.00490786,0.00288022,0.00531264,-0.00571953,0.274685,0.00637087,0.041803,706,911,-59.9217,-0.641848
-511,113,-60.0444,0.778015,0.00571835,-0.00637056,0.00334576,0.00658256,-0.00723477,0.252773,0.0079804,0.0437677,713,911,-60.0444,-0.778006
-504,113,0,0,0,0,0,0,0,0,0,-1,720,911,0,0
-497,113,0,0,0,0,0,0,0,0,0,-1,727,911,0,0
-490,113,0,0,0,0,0,0,0,0,0,-1,734,911,0,0
-483,113,0,0,0,0,0,0,0,0,0,-1,741,911,0,0
-476,113,0,0,0,0,0,0,0,0,0,-1,748,911,0,0
-469,113,0,0,0,0,0,0,0,0,0,-1,755,911,0,0
-462,113,0,0,0,0,0,0,0,0,0,-1,762,911,0,0
-455,113,0,0,0,0,0,0,0,0,0,-1,769,911,0,0
-448,113,0,0,0,0,0,0,0,0,0,-1,776,911,0,0
-441,113,0,0,0,0,0,0,0,0,0,-1,783,911,0,0
-434,113,0,0,0,0,0,0,0,0,0,-1,790,911,0,0
-427,113,0,0,0,0,0,0,0,0,0,-1,797,911,0,0
-420,113,0,0,0,0,0,0,0,0,0,-1,804,911,0,0
-413,113,0,0,0,0,0,0,0,0,0,-1,811,911,0,0
-406,113,0,0,0,0,0,0,0,0,0,-1,818,911,0,0
-399,113,0,0,0,0,0,0,0,0,0,-1,825,911,0,0
-392,113,0,0,0,0,0,0,0,0,0,-1,832,911,0,0
-385,113,0,0,0,0,0,0,0,0,0,-1,839,911,0,0
-378,113,0,0,0,0,0,0,0,0,0,-1,846,911,0,0
-371,113,0,0,0,0,0,0,0,0,0,-1,853,911,0,0
-364,113,0,0,0,0,0,0,0,0,0,-1,860,911,0,0
-357,113,0,0,0,0,0,0,0,0,0,-1,867,911,0,0
-350,113,0,0,0,0,0,0,0,0,0,-1,874,911,0,0
-343,113,0,0,0,0,0,0,0,0,0,-1,881,911,0,0
-336,113,0,0,0,0,0,0,0,0,0,-1,888,911,0,0
-329,113,0,0,0,0,0,0,0,0,0,-1,895,911,0,0
-322,113,0,0,0,0,0,0,0,0,0,-1,902,911,0,0
-315,113,0,0,0,0,0,0,0,0,0,-1,909,911,0,0
-308,113,0,0,0,0,0,0,0,0,0,-1,916,911,0,0
-301,113,0,0,0,0,0,0,0,0,0,-1,923,911,0,0
-294,113,0,0,0,0,0,0,0,0,0,-1,930,911,0,0
-287,113,0,0,0,0,0,0,0,0,0,-1,937,911,0,0
-280,113,0,0,0,0,0,0,0,0,0,-1,944,911,0,0
-273,113,0,0,0,0,0,0,0,0,0,-1,951,911,0,0
-266,113,0,0,0,0,0,0,0,0,0,-1,958,911,0,0
-259,113,0,0,0,0,0,0,0,0,0,-1,965,911,0,0
-252,113,0,0,0,0,0,0,0,0,0,-1,972,911,0,0
-245,113,0,0,0,0,0,0,0,0,0,-1,979,911,0,0
-238,113,0,0,0,0,0,0,0,0,0,-1,986,911,0,0
-231,113,0,0,0,0,0,0,0,0,0,-1,993,911,0,0
-224,113,0,0,0,0,0,0,0,0,0,-1,1000,911,0,0
-217,113,0,0,0,0,0,0,0,0,0,-1,1007,911,0,0
-210,113,0,0,0,0,0,0,0,0,0,-1,1014,911,0,0
-203,113,0,0,0,0,0,0,0,0,0,-1,1021,911,0,0
-196,113,0,0,0,0,0,0,0,0,0,-1,1028,911,0,0
-189,113,0,0,0,0,0,0,0,0,0,-1,1035,911,0,0
-182,113,0,0,0,0,0,0,0,0,0,-1,1042,911,0,0
-175,113,0,0,0,0,0,0,0,0,0,-1,1049,911,0,0
-168,113,0,0,0,0,0,0,0,0,0,-1,1056,911,0,0
-161,113,0,0,0,0,0,0,0,0,0,-1,1063,911,0,0
-154,113,0,0,0,0,0,0,0,0,0,-1,1070,911,0,0
-147,113,0,0,0,0,0,0,0,0,0,-1,1077,911,0,0
-140,113,0,0,0,0,0,0,0,0,0,-1,1084,911,0,0
-133,113,0,0,0,0,0,0,0,0,0,-1,1091,911,0,0
-126,113,0,0,0,0,0,0,0,0,0,-1,1098,911,0,0
-119,113,0,0,0,0,0,0,0,0,0,-1,1105,911,0,0
-112,113,0,0,0,0,0,0,0,0,0,-1,1112,911,0,0
-105,113,0,0,0,0,0,0,0,0,0,-1,1119,911,0,0
-98,113,0,0,0,0,0,0,0,0,0,-1,1126,911,0,0
-91,113,0,0,0,0,0,0,0,0,0,-1,1133,911,0,0
-84,113,0,0,0,0,0,0,0,0,0,-1,1140,911,0,0
-77,113,0,0,0,0,0,0,0,0,0,-1,1147,911,0,0
-70,113,0,0,0,0,0,0,0,0,0,-1,1154,911,0,0
-63,113,0,0,0,0,0,0,0,0,0,-1,1161,911,0,0
-56,113,0,0,0,0,0,0,0,0,0,-1,1168,911,0,0
-49,113,0,0,0,0,0,0,0,0,0,-1,1175,911,0,0
-42,113,0,0,0,0,0,0,0,0,0,-1,1182,911,0,0
-35,113,0,0,0,0,0,0,0,0,0,-1,1189,911,0,0
-28,113,0,0,0,0,0,0,0,0,0,-1,1196,911,0,0
-21,113,0,0,0,0,0,0,0,0,0,-1,1203,911,0,0
-14,113,0,0,0,0,0,0,0,0,0,-1,1210,911,0,0
-7,113,0,0,0,0,0,0,0,0,0,-1,1217,911,0,0
0,113,0,0,0,0,0,0,0,0,0,-1,1224,911,0,0
7,113,0,0,0,0,0,0,0,0,0,-1,1231,911,0,0
14,113,0,0,0,0,0,0,0,0,0,-1,1238,911,0,0
21,113,0,0,0,0,0,0,0,0,0,-1,1245,911,0,0
28,113,0,0,0,0,0,0,0,0,0,-1,1252,911,0,0
35,113,0,0,0,0,0,0,0,0,0,-1,1259,911,0,0
42,113,0,0,0,0,0,0,0,0,0,-1,1266,911,0,0
49,113,0,0,0,0,0,0,0,0,0,-1,1273,911,0,0
56,113,0,0,0,0,0,0,0,0,0,-1,1280,911,0,0
63,113,0,0,0,0,0,0,0,0,0,-1,1287,911,0,0
70,113,0,0,0,0,0,0,0,0,0,-1,1294,911,0,0
77,113,0,0,0,0,0,0,0,0,0,-1,1301,911,0,0
84,113,0,0,0,0,0,0,0,0,0,-1,1308,911,0,0
91,113,0,0,0,0,0,0,0,0,0,-1,1315,911,0,0
98,113,0,0,0,0,0,0,0,0,0,-1,1322,911,0,0
105,113,0,0,0,0,0,0,0,0,0,-1,1329,911,0,0
112,113,0,0,0,0,0,0,0,0,0,-1,1336,911,0,0
119,113,0,0,0,0,0,0,0,0,0,-1,1343,911,0,0
126,113,0,0,0,0,0,0,0,0,0,-1,1350,911,0,0
133,113,0,0,0,0,0,0,0,0,0,-1,1357,911,0,0
140,113,0,0,0,0,0,0,0,0,0,-1,1364,911,0,0
147,113,0,0,0,0,0,0,0,0,0,-1,1371,911,0,0
154,113,0,0,0,0,0,0,0,0,0,-1,1378,911,0,0
161,113,0,0,0,0,0,0,0,0,0,-1,1385,911,0,0
168,113,0,0,0,0,0,0,0,0,0,-1,1392,911,0,0
175,113,0,0,0,0,0,0,0,0,0,-1,1399,911,0,0
182,113,0,0,0,0,0,0,0,0,0,-1,1406,911,0,0
189,113,0,0,0,0,0,0,0,0,0,-1,1413,911,0,0
196,113,0,0,0,0,0,0,0,0,0,-1,1420,911,0,0
203,113,0,0,0,0,0,0,0,0,0,-1,1427,911,0,0
210,113,0,0,0,0,0,0,0,0,0,-1,1434,911,0,0
217,113,0,0,0,0,0,0,0,0,0,-1,1441,911,0,0
224,113,0,0,0,0,0,0,0,0,0,-1,1448,911,0,0
231,113,0,0,0,0,0,0,0,0,0,-1,1455,911,0,0
238,113,0,0,0,0,0,0,0,0,0,-1,1462,911,0,0
245,113,0,0,0,0,0,0,0,0,0,-1,1469,911,0,0
252,113,0,0,0,0,0,0,0,0,0,-1,1476,911,0,0
259,113,0,0,0,0,0,0,0,0,0,-1,1483,911,0,0
266,113,0,0,0,0,0,0,0,0,0,-1,1490,911,0,0
273,113,0,0,0,0,0,0,0,0,0,-1,1497,911,0,0
280,113,0,0,0,0,0,0,0,0,0,-1,1504,911,0,0
287,113,0,0,0,0,0,0,0,0,0,-1,1511,911,0,0
294,113,0,0,0,0,0,0,0,0,0,-1,1518,911,0,0
301,113,0,0,0,0,0,0,0,0,0,-1,1525,911,0,0
308,113,0,0,0,0,0,0,0,0,0,-1,1532,911,0,0
315,113,0,0,0,0,0,0,0,0,0,-1,1539,911,0,0
322,113,0,0,0,0,0,0,0,0,0,-1,1546,911,0,0
329,113,0,0,0,0,0,0,0,0,0,-1,1553,911,0,0
336,113,0,0,0,0,0,0,0,0,0,-1,1560,911,0,0
343,113,0,0,0,0,0,0,0,0,0,-1,1567,911,0,0
350,113,0,0,0,0,0,0,0,0,0,-1,1574,911,0,0
357,113,0,0,0,0,0,0,0,0,0,-1,1581,911,0,0
364,113,0,0,0,0,0,0,0,0,0,-1,1588,911,0,0
371,113,0,0,0,0,0,0,0,0,0,-1,1595,911,0,0
378,113,0,0,0,0,0,0,0,0,0,-1,1602,911,0,0
385,113,0,0,0,0,0,0,0,0,0,-1,1609,911,0,0
392,113,0,0,0,0,0,0,0,0,0,-1,1616,911,0,0
399,113,0,0,0,0,0,0,0,0,0,-1,1623,911,0,0
406,113,0,0,0,0,0,0,0,0,0,-1,1630,911,0,0
413,113,0,0,0,0,0,0,0,0,0,-1,1637,911,0,0
420,113,0,0,0,0,0,0,0,0,0,-1,1644,911,0,0
427,113,0,0,0,0,0,0,0,0,0,-1,1651,911,0,0
434,113,0,0,0,0,0,0,0,0,0,-1,1658,911,0,0
441,113,0,0,0,0,0,0,0,0,0,-1,1665,911,0,0
448,113,0,0,0,0,0,0,0,0,0,-1,1672,911,0,0
455,113,0,0,0,0,0,0,0,0,0,-1,1679,911,0,0
462,113,0,0,0,0,0,0,0,0,0,-1,1686,911,0,0
469,113,0,0,0,0,0,0,0,0,0,-1,1693,911,0,0
476,113,0,0,0,0,0,0,0,0,0,-1,1700,911,0,0
483,113,0,0,0,0,0,0,0,0,0,-1,1707,911,0,0
490,113,0,0,0,0,0,0,0,0,0,-1,1714,911,0,0
497,113,0,0,0,0,0,0,0,0,0,-1,1721,911,0,0
504,113,0,0,0,0,0,0,0,0,0,-1,1728,911,0,0
511,113,0,0,0,0,0,0,0,0,0,-1,1735,911,0,0
518,113,0,0,0,0,0,0,0,0,0,-1,1742,911,0,0
525,113,0,0,0,0,0,0,0,0,0,-1,1749,911,0,0
532,113,0,0,0,0,0,0,0,0,0,-1,1756,911,0,0
539,113,0,0,0,0,0,0,0,0,0,-1,1763,911,0,0
546,113,0,0,0,0,0,0,0,0,0,-1,1770,911,0,0
553,113,0,0,0,0,0,0,0,0,0,-1,1777,911,0,0
560,113,0,0,0,0,0,0,0,0,0,-1,1784,911,0,0
567,113,0,0,0,0,0,0,0,0,0,-1,1791,911,0,0
574,113,0,0,0,0,0,0,0,0,0,-1,1798,911,0,0
581,113,0,0,0,0,0,0,0,0,0,-1,1805,911,0,0
588,113,0,0,0,0,0,0,0,0,0,-1,1812,911,0,0
595,113,0,0,0,0,0,0,0,0,0,-1,1819,911,0,0
602,113,0,0,0,0,0,0,0,0,0,-1,1826,911,0,0
609,113,0,0,0,0,0,0,0,0,0,-1,1833,911,0,0
616,113,0,0,0,0,0,0,0,0,0,-1,1840,911,0,0
623,113,0,0,0,0,0,0,0,0,0,-1,1847,911,0,0
630,113,76.3903,2.55743,0.00906452,0.000857561,-0.00304642,0.0100717,-0.000149657,-0.31931,0.00676493,0.0393181,1854,911,76.3903,-2.55743
637,113,76.4344,2.63141,0.0063516,0.00118082,-0.00259273,0.00742769,0.000104721,-0.393408,0.00491726,0.0396694,1861,911,76.4345,-2.63139
644,113,76.4756,2.06219,0.00423814,0.001382,-0.00208683,0.00533875,0.000281384,-0.485334,0.00346918,0.0372232,1868,911,76.4756,-2.06222
651,113,76.4915,1.88055,0.00255374,0.00148562,-0.00151612,0.00362711,0.000412241,-0.616057,0.00229305,0.0412827,1875,911,76.4915,-1.88053
658,113,76.526,2.04865,0.00119589,0.00154519,-0.000966205,0.0023524,0.000388675,-0.874812,0.0014561,0.0435628,1882,911,76.526,-2.04863
665,113,76.5015,2.18597,0.000174087,0.00184777,-0.000290204,0.00189666,0.000125196,-1.40389,0.00122484,0.0378721,1889,911,76.5014,-2.18599
672,113,76.442,2.25281,-0.000632793,0.00157558,-7.77433e-05,0.00157831,-0.000635527,-1.53565,0.00131623,0.0365402,1896,911,76.4421,-2.25283
679,113,76.4609,2.05518,-0.00121872,0.00121259,-5.79486e-05,0.00121397,-0.0012201,-1.54698,0.00140531,0.0321034,1903,911,76.4609,-2.05518
686,113,76.5063,2.09436,-0.00178253,0.00108868,-0.000210224,0.00110399,-0.00179784,-1.4981,0.00169126,0.031311,1910,911,76.5063,-2.09435
693,113,76.4419,2.23364,0,0,0,0,0,0,0,-1,1917,911,76.4419,-2.23362
700,113,43.897,2.79669,0,0,0,0,0,0,0,-1,1924,911,43.897,-2.79671
707,113,69.3839,3.14288,0,0,0,0,0,0,0,-1,1931,911,69.3839,-3.14286
714,113,69.4122,3.87061,-0.00367298,0.00182947,-0.000956242,0.00199092,-0.00383443,-1.40354,0.00341894,0.0325128,1938,911,69.4122,-3.8706
721,113,69.399,4.57318,-0.00415946,0.00217088,-0.00133267,0.00243999,-0.00442857,-1.37154,0.00402058,0.0278052,1945,911,69.399,-4.57321
728,113,69.4983,5.36066,-0.00466877,0.00265269,-0.00146792,0.00293603,-0.00495211,-1.38012,0.00460354,0.0296218,1952,911,69.4983,-5.36066
735,113,69.3529,6.10913,-0.00465405,0.00373794,-0.00136258,0.00395363,-0.00486975,-1.4138,0.00510333,0.0255885,1959,911,69.3529,-6.10913
742,113,69.2271,6.80469,-0.00403824,0.00571565,-0.00105287,0.005828,-0.0041506,-1.46448,0.00578822,0.0143164,1966,911,69.2271,-6.80471
749,113,69.2321,7.55627,-0.00244453,0.00854866,4.12626e-05,0.00854881,-0.00244468,1.56704,0.00666526,0.0107075,1973,911,69.232,-7.55629
756,113,69.1306,8.31232,0.000207463,0.011894,0.00224717,0.0123112,-0.000209744,1.38723,0.00827825,0.0159609,1980,911,69.1307,-8.3123
763,113,68.9236,9.16254,0.00379939,0.0152228,0.00539151,0.0173655,0.00165667,1.19251,0.0110662,0.038987,1987,911,68.9235,-9.16255
770,113,68.7942,10.0281,0,0,0,0,0,0,0,-1,1994,911,68.7942,-10.0281
777,113,58.1719,9.65338,0,0,0,0,0,0,0,-1,2001,911,58.172,-9.6534
784,113,59.4839,11.6239,0,0,0,0,0,0,0,-1,2008,911,59.4839,-11.6239
791,113,63.7207,8.32813,0,0,0,0,0,0,0,-1,2015,911,63.7207,-8.32813
798,113,67.3394,10.7512,0,0,0,0,0,0,0,-1,2022,911,67.3393,-10.7512
805,113,0,0,0,0,0,0,0,0,0,-1,2029,911,0,0
812,113,0,0,0,0,0,0,0,0,0,-1,2036,911,0,0
-700,106,0,0,0,0,0,0,0,0,0,-1,524,918,0,0
-693,106,0,0,0,0,0,0,0,0,0,-1,531,918,0,0
-686,106,0,0,0,0,0,0,0,0,0,-1,538,918,0,0
-679,106,-53.17,9.63623,0,0,0,0,0,0,0,-1,545,918,-53.17,-9.63625
-672,106,-54.8782,5.55206,0,0,0,0,0,0,0,-1,552,918,-54.8782,-5.55205
-665,106,-53.5263,9.70886,0,0,0,0,0,0,0,-1,559,918,-53.5263,-9.70888
-658,106,-53.7712,10.2163,0,0,0,0,0,0,0,-1,566,918,-53.7712,-10.2163
-651,106,-52.8008,8.01733,0,0,0,0,0,0,0,-1,573,918,-52.8008,-8.01734
-644,106,-53.2643,9.35089,0,0,0,0,0,0,0,-1,580,918,-53.2643,-9.35091
-637,106,-53.6951,8.56073,-0.025278,0.0196613,0.0147865,0.0240901,-0.0297068,1.27978,0.031116,0.0458483,587,918,-53.695,-8.56075
-630,106,-54.1735,7.89209,-0.0205224,0.0155858,0.0123222,0.0193901,-0.0243267,1.27135,0.0252934,0.0203398,594,918,-54.1735,-7.8921
-623,106,-54.3997,7.03302,-0.0154918,0.0114443,0.00986538,0.014671,-0.0187185,1.25469,0.0193246,0.0213486,601,918,-54.3997,-7.03302
-616,106,-54.4629,6.31445,-0.0101015,0.00725137,0.00735811,0.00995132,-0.0128015,1.21911,0.0131707,0.0209526,608,918,-54.4629,-6.31444
-609,106,-54.4405,5.66577,-0.00611377,0.00405934,0.00540136,0.0063922,-0.00844663,1.16309,0.00859453,0.0133406,615,918,-54.4405,-5.66579
-602,106,-54.4911,4.91418,-0.004382,0.00189483,0.00460762,0.00433134,-0.00681851,1.08437,0.00649054,0.0232915,622,918,-54.4911,-4.91419
-595,106,-54.6703,4.21912,-0.00377504,0.000852134,0.00441232,0.00352064,-0.00644354,1.02687,0.00583475,0.0292522,629,918,-54.6703,-4.21912
-588,106,-54.7931,3.50067,0,0,0,0,0,0,0,-1,636,918,-54.7931,-3.50064
-581,106,-54.5094,2.65802,0,0,0,0,0,0,0,-1,643,918,-54.5094,-2.65804
-574,106,-54.8176,1.85883,0,0,0,0,0,0,0,-1,650,918,-54.8176,-1.85885
-567,106,-41.3706,0.420776,0,0,0,0,0,0,0,-1,657,918,-41.3706,-0.420794
-560,106,-60.0732,0.325623,0,0,0,0,0,0,0,-1,664,918,-60.0732,-0.32561
-553,106,-60.142,0.262146,-0.000413984,-0.00245375,0.00290544,0.00164538,-0.00451311,0.616604,0.00368186,0.0325362,671,918,-60.1419,-0.262128
-546,106,-60.1642,0.246826,-0.000432442,-0.00245045,0.00270927,0.00144962,-0.00433251,0.607142,0.00347387,0.0355275,678,918,-60.1642,-0.246839
-539,106,-60.1272,0.336487,-9.30523e-05,-0.00223146,0.0026052,0.00165381,-0.00397832,0.590674,0.00334276,0.0387984,685,918,-60.1272,-0.336498
-532,106,-59.8864,0.355286,0.00154325,-0.00250963,0.0027323,0.00291856,-0.00388494,0.466326,0.00394119,0.0389265,692,918,-59.8863,-0.355284
-525,106,-59.9588,0.145142,0.00301874,-0.00341234,0.00297092,0.00418111,-0.0045747,0.372939,0.00505687,0.0399081,699,918,-59.9588,-0.145162
-518,106,-59.8858,0.448364,0.0042396,-0.00453508,0.00331981,0.00535407,-0.00564955,0.323881,0.0063537,0.0416121,706,918,-59.8858,-0.448392
-511,106,0,0,0,0,0,0,0,0,0,-1,713,918,0,0
-504,106,0,0,0,0,0,0,0,0,0,-1,720,918,0,0
-497,106,0,0,0,0,0,0,0,0,0,-1,727,918,0,0
-490,106,0,0,0,0,0,0,0,0,0,-1,734,918,0,0
-483,106,0,0,0,0,0,0,0,0,0,-1,741,918,0,0
-476,106,0,0,0,0,0,0,0,0,0,-1,748,918,0,0
-469,106,0,0,0,0,0,0,0,0,0,-1,755,918,0,0
-462,106,0,0,0,0,0,0,0,0,0,-1,762,918,0,0
-455,106,0,0,0,0,0,0,0,0,0,-1,769,918,0,0
-448,106,0,0,0,0,0,0,0,0,0,-1,776,918,0,0
-441,106,0,0,0,0,0,0,0,0,0,-1,783,918,0,0
-434,106,0,0,0,0,0,0,0,0,0,-1,790,918,0,0
-427,106,0,0,0,0,0,0,0,0,0,-1,797,918,0,0
-420,106,0,0,0,0,0,0,0,0,0,-1,804,918,0,0
-413,106,0,0,0,0,0,0,0,0,0,-1,811,918,0,0
-406,106,0,0,0,0,0,0,0,0,0,-1,818,918,0,0
-399,106,0,0,0,0,0,0,0,0,0,-1,825,918,0,0
-392,106,0,0,0,0,0,0,0,0,0,-1,832,918,0,0
-385,106,0,0,0,0,0,0,0,0,0,-1,839,918,0,0
-378,106,0,0,0,0,0,0,0,0,0,-1,846,918,0,0
-371,106,0,0,0,0,0,0,0,0,0,-1,853,918,0,0
-364,106,0,0,0,0,0,0,0,0,0,-1,860,918,0,0
-357,106,0,0,0,0,0,0,0,0,0,-1,867,918,0,0
-350,106,0,0,0,0,0,0,0,0,0,-1,874,918,0,0
-343,106,0,0,0,0,0,0,0,0,0,-1,881,918,0,0
-336,106,0,0,0,0,0,0,0,0,0,-1,888,918,0,0
-329,106,0,0,0,0,0,0,0,0,0,-1,895,918,0,0
-322,106,0,0,0,0,0,0,0,0,0,-1,902,918,0,0
-315,106,0,0,0,0,0,0,0,0,0,-1,909,918,0,0
-308,106,0,0,0,0,0,0,0,0,0,-1,916,918,0,0
-301,106,0,0,0,0,0,0,0,0,0,-1,923,918,0,0
-294,106,0,0,0,0,0,0,0,0,0,-1,930,918,0,0
-287,106,0,0,0,0,0,0,0,0,0,-1,937,918,0,0
-280,106,0,0,0,0,0,0,0,0,0,-1,944,918,0,0
-273,106,0,0,0,0,0,0,0,0,0,-1,951,918,0,0
-266,106,0,0,0,0,0,0,0,0,0,-1,958,918,0,0
-259,106,0,0,0,0,0,0,0,0,0,-1,965,918,0,0
-252,106,0,0,0,0,0,0,0,0,0,-1,972,918,0,0
-245,106,0,0,0,0,0,0,0,0,0,-1,979,918,0,0
-238,106,0,0,0,0,0,0,0,0,0,-1,986,918,0,0
-231,106,0,0,0,0,0,0,0,0,0,-1,993,918,0,0
-224,106,0,0,0,0,0,0,0,0,0,-1,1000,918,0,0
-217,106,0,0,0,0,0,0,0,0,0,-1,1007,918,0,0
-210,106,0,0,0,0,0,0,0,0,0,-1,1014,918,0,0
-203,106,0,0,0,0,0,0,0,0,0,-1,1021,918,0,0
-196,106,0,0,0,0,0,0,0,0,0,-1,1028,918,0,0
-189,106,0,0,0,0,0,0,0,0,0,-1,1035,918,0,0
-182,106,0,0,0,0,0,0,0,0,0,-1,1042,918,0,0
-175,106,0,0,0,0,0,0,0,0,0,-1,1049,918,0,0
-168,106,0,0,0,0,0,0,0,0,0,-1,1056,918,0,0
-161,106,0,0,0,0,0,0,0,0,0,-1,1063,918,0,0
-154,106,0,0,0,0,0,0,0,0,0,-1,1070,918,0,0
-147,106,0,0,0,0,0,0,0,0,0,-1,1077,918,0,0
-140,106,0,0,0,0,0,0,0,0,0,-1,1084,918,0,0
-133,106,0,0,0,0,0,0,0,0,0,-1,1091,918,0,0
-126,106,0,0,0,0,0,0,0,0,0,-1,1098,918,0,0
-119,106,0,0,0,0,0,0,0,0,0,-1,1105,918,0,0
-112,106,0,0,0,0,0,0,0,0,0,-1,1112,918,0,0
-105,106,0,0,0,0,0,0,0,0,0,-1,1119,918,0,0
-98,106,0,0,0,0,0,0,0,0,0,-1,1126,918,0,0
-91,106,0,0,0,0,0,0,0,0,0,-1,1133,918,0,0
-84,106,0,0,0,0,0,0,0,0,0,-1,1140,918,0,0
-77,106,0,0,0,0,0,0,0,0,0,-1,1147,918,0,0
-70,106,0,0,0,0,0,0,0,0,0,-1,1154,918,0,0
-63,106,0,0,0,0,0,0,0,0,0,-1,1161,918,0,0
-56,106,0,0,0,0,0,0,0,0,0,-1,1168,918,0,0
-49,106,0,0,0,0,0,0,0,0,0,-1,1175,918,0,0
-42,106,0,0,0,0,0,0,0,0,0,-1,1182,918,0,0
-35,106,0,0,0,0,0,0,0,0,0,-1,1189,918,0,0
-28,106,0,0,0,0,0,0,0,0,0,-1,1196,918,0,0
-21,106,0,0,0,0,0,0,0,0,0,-1,1203,918,0,0
-14,106,0,0,0,0,0,0,0,0,0,-1,1210,918,0,0
-7,106,0,0,0,0,0,0,0,0,0,-1,1217,918,0,0
0,106,0,0,0,0,0,0,0,0,0,-1,1224,918,0,0
7,106,0,0,0,0,0,0,0,0,0,-1,1231,918,0,0
14,106,0,0,0,0,0,0,0,0,0,-1,1238,918,0,0
21,106,0,0,0,0,0,0,0,0,0,-1,1245,918,0,0
28,106,0,0,0,0,0,0,0,0,0,-1,1252,918,0,0
35,106,0,0,0,0,0,0,0,0,0,-1,1259,918,0,0
42,106,0,0,0,0,0,0,0,0,0,-1,1266,918,0,0
49,106,0,0,0,0,0,0,0,0,0,-1,1273,918,0,0
56,106,0,0,0,0,0,0,0,0,0,-1,1280,918,0,0
63,106,0,0,0,0,0,0,0,0,0,-1,1287,918,0,0
70,106,0,0,0,0,0,0,0,0,0,-1,1294,918,0,0
77,106,0,0,0,0,0,0,0,0,0,-1,1301,918,0,0
84,106,0,0,0,0,0,0,0,0,0,-1,1308,918,0,0
91,106,0,0,0,0,0,0,0,0,0,-1,1315,918,0,0
98,106,0,0,0,0,0,0,0,0,0,-1,1322,918,0,0
105,106,0,0,0,0,0,0,0,0,0,-1,1329,918,0,0
112,106,0,0,0,0,0,0,0,0,0,-1,1336,918,0,0
119,106,0,0,0,0,0,0,0,0,0,-1,1343,918,0,0
126,106,0,0,0,0,0,0,0,0,0,-1,1350,918,0,0
133,106,0,0,0,0,0,0,0,0,0,-1,1357,918,0,0
140,106,0,0,0,0,0,0,0,0,0,-1,1364,918,0,0
147,106,0,0,0,0,0,0,0,0,0,-1,1371,918,0,0
154,106,0,0,0,0,0,0,0,0,0,-1,1378,918,0,0
161,106,0,0,0,0,0,0,0,0,0,-1,1385,918,0,0
168,106,0,0,0,0,0,0,0,0,0,-1,1392,918,0,0
175,106,0,0,0,0,0,0,0,0,0,-1,1399,918,0,0
182,106,0,0,0,0,0,0,0,0,0,-1,1406,918,0,0
189,106,0,0,0,0,0,0,0,0,0,-1,1413,918,0,0
196,106,0,0,0,0,0,0,0,0,0,-1,1420,918,0,0
203,106,0,0,0,0,0,0,0,0,0,-1,1427,918,0,0
210,106,0,0,0,0,0,0,0,0,0,-1,1434,918,0,0
217,106,0,0,0,0,0,0,0,0,0,-1,1441,918,0,0
224,106,0,0,0,0,0,0,0,0,0,-1,1448,918,0,0
231,106,0,0,0,0,0,0,0,0,0,-1,1455,918,0,0
238,106,0,0,0,0,0,0,0,0,0,-1,1462,918,0,0
245,106,0,0,0,0,0,0,0,0,0,-1,1469,918,0,0
252,106,0,0,0,0,0,0,0,0,0,-1,1476,918,0,0
259,106,0,0,0,0,0,0,0,0,0,-1,1483,918,0,0
266,106,0,0,0,0,0,0,0,0,0,-1,1490,918,0,0
273,106,0,0,0,0,0,0,0,0,0,-1,1497,918,0,0
280,106,0,0,0,0,0,0,0,0,0,-1,1504,918,0,0
287,106,0,0,0,0,0,0,0,0,0,-1,1511,918,0,0
294,106,0,0,0,0,0,0,0,0,0,-1,1518,918,0,0
301,106,0,0,0,0,0,0,0,0,0,-1,1525,918,0,0
308,106,0,0,0,0,0,0,0,0,0,-1,1532,918,0,0
315,106,0,0,0,0,0,0,0,0,0,-1,1539,918,0,0
322,106,0,0,0,0,0,0,0,0,0,-1,1546,918,0,0
329,106,0,0,0,0,0,0,0,0,0,-1,1553,918,0,0
336,106,0,0,0,0,0,0,0,0,0,-1,1560,918,0,0
343,106,0,0,0,0,0,0,0,0,0,-1,1567,918,0,0
350,106,0,0,0,0,0,0,0,0,0,-1,1574,918,0,0
357,106,0,0,0,0,0,0,0,0,0,-1,1581,918,0,0
364,106,0,0,0,0,0,0,0,0,0,-1,1588,918,0,0
371,106,0,0,0,0,0,0,0,0,0,-1,1595,918,0,0
378,106,0,0,0,0,0,0,0,0,0,-1,1602,918,0,0
385,106,0,0,0,0,0,0,0,0,0,-1,1609,918,0,0
392,106,0,0,0,0,0,0,0,0,0,-1,1616,918,0,0
399,106,0,0,0,0,0,0,0,0,0,-1,1623,918,0,0
406,106,0,0,0,0,0,0,0,0,0,-1,1630,918,0,0
413,106,0,0,0,0,0,0,0,0,0,-1,1637,918,0,0
420,106,0,0,0,0,0,0,0,0,0,-1,1644,918,0,0
427,106,0,0,0,0,0,0,0,0,0,-1,1651,918,0,0
434,106,0,0,0,0,0,0,0,0,0,-1,1658,918,0,0
441,106,0,0,0,0,0,0,0,0,0,-1,1665,918,0,0
448,106,0,0,0,0,0,0,0,0,0,-1,1672,918,0,0
455,106,0,0,0,0,0,0,0,0,0,-1,1679,918,0,0
462,106,0,0,0,0,0,0,0,0,0,-1,1686,918,0,0
469,106,0,0,0,0,0,0,0,0,0,-1,1693,918,0,0
476,106,0,0,0,0,0,0,0,0,0,-1,1700,918,0,0
483,106,0,0,0,0,0,0,0,0,0,-1,1707,918,0,0
490,106,0,0,0,0,0,0,0,0,0,-1,1714,918,0,0
497,106,0,0,0,0,0,0,0,0,0,-1,1721,918,0,0
504,106,0,0,0,0,0,0,0,0,0,-1,1728,918,0,0
511,106,0,0,0,0,0,0,0,0,0,-1,1735,918,0,0
518,106,0,0,0,0,0,0,0,0,0,-1,1742,918,0,0
525,106,0,0,0,0,0,0,0,0,0,-1,1749,918,0,0
532,106,0,0,0,0,0,0,0,0,0,-1,1756,918,0,0
539,106,0,0,0,0,0,0,0,0,0,-1,1763,918,0,0
546,106,0,0,0,0,0,0,0,0,0,-1,1770,918,0,0
553,106,0,0,0,0,0,0,0,0,0,-1,1777,918,0,0
560,106,0,0,0,0,0,0,0,0,0,-1,1784,918,0,0
567,106,0,0,0,0,0,0,0,0,0,-1,1791,918,0,0
574,106,0,0,0,0,0,0,0,0,0,-1,1798,918,0,0
581,106,0,0,0,0,0,0,0,0,0,-1,1805,918,0,0
588,106,0,0,0,0,0,0,0,0,0,-1,1812,918,0,0
595,106,0,0,0,0,0,0,0,0,0,-1,1819,918,0,0
602,106,0,0,0,0,0,0,0,0,0,-1,1826,918,0,0
609,106,0,0,0,0,0,0,0,0,0,-1,1833,918,0,0
616,106,0,0,0,0,0,0,0,0,0,-1,1840,918,0,0
623,106,0,0,0,0,0,0,0,0,0,-1,1847,918,0,0
630,106,76.1698,2.71484,0,0,0,0,0,0,0,-1,1854,918,76.1699,-2.71484
637,106,76.4504,2.4588,0.00699071,0.00148579,-0.00298934,0.00830177,0.000174727,-0.413315,0.0054772,0.038608,1861,918,76.4505,-2.45883
644,106,76.6869,2.13123,0.00476366,0.00168019,-0.00234444,0.00602788,0.000415976,-0.494544,0.00388735,0.0349909,1868,918,76.6869,-2.13124
651,106,76.6254,1.85706,0.00298789,0.00177084,-0.00164155,0.00413008,0.000628654,-0.607899,0.00256959,0.0384809,1875,918,76.6254,-1.85708
658,106,76.548,1.95673,0.00157037,0.00181938,-0.000929934,0.00263311,0.000756642,-0.851946,0.00156538,0.0410266,1882,918,76.5479,-1.95673
665,106,76.5101,2.15637,0.00052007,0.00202393,-0.000134664,0.00203589,0.000508107,-1.48219,0.00122358,0.0416066,1889,918,76.5102,-2.15635
672,106,76.4191,2.26465,-0.000420952,0.00168198,0.000246637,0.00171052,-0.000449491,1.4556,0.00131602,0.0401473,1896,918,76.4191,-2.26467
679,106,76.4308,2.18658,-0.00114273,0.00121128,0.000372438,0.0012688,-0.00120025,1.41757,0.00142569,0.0345444,1903,918,76.4308,-2.1866
686,106,76.4924,2.07538,-0.0017411,0.00096558,0.000217102,0.000982883,-0.0017584,1.49126,0.00160365,0.0349467,1910,918,76.4924,-2.07536
693,106,76.4435,2.11658,-0.00237271,0.000875829,8.7669e-05,0.000878193,-0.00237507,1.54384,0.00194342,0.0428034,1917,918,76.4435,-2.11655
700,106,76.5704,2.20691,0,0,0,0,0,0,0,-1,1924,918,76.5705,-2.2069
707,106,59.4137,3.22595,0,0,0,0,0,0,0,-1,1931,918,59.4136,-3.22598
714,106,70.3055,3.98285,0,0,0,0,0,0,0,-1,1938,918,70.3056,-3.98287
721,106,70.2994,4.70105,-0.00444428,0.00200507,-0.00111449,0.00219223,-0.00463143,-1.40442,0.00402267,0.0352999,1945,918,70.2994,-4.70104
728,106,70.3358,5.47461,-0.00496386,0.00249384,-0.00129146,0.00271115,-0.00518117,-1.40409,0.00463042,0.0340051,1952,918,70.3358,-5.47463
735,106,70.2108,6.1698,-0.00494466,0.00364614,-0.00128398,0.00383394,-0.00513246,-1.42556,0.00519482,0.0300466,1959,918,70.2108,-6.16977
742,106,70.0671,6.81696,-0.00443776,0.00572069,-0.00113289,0.00584549,-0.00456257,-1.46107,0.00602429,0.0147736,1966,918,70.0671,-6.81694
749,106,70.0236,7.54602,-0.00291913,0.00876822,-0.000247385,0.00877346,-0.00292436,-1.54964,0.00702953,0.0112582,1973,918,70.0236,-7.54604
756,106,69.9294,8.25067,-0.000219355,0.012477,0.00181814,0.0127322,-0.000474586,1.43133,0.0086507,0.0143354,1980,918,69.9293,-8.25066
763,106,69.7737,9.11859,0.00345382,0.0161974,0.00486297,0.0178411,0.00181012,1.24485,0.011339,0.0317213,1987,918,69.7737,-9.1186
770,106,70.0818,9.75616,0,0,0,0,0,0,0,-1,1994,918,70.0818,-9.75614
777,106,70.6499,10.5443,0,0,0,0,0,0,0,-1,2001,918,70.65,-10.5443
784,106,71.0554,11.2831,0,0,0,0,0,0,0,-1,2008,918,71.0554,-11.2831
791,106,70.8381,11.1007,0,0,0,0,0,0,0,-1,2015,918,70.8382,-11.1007
798,106,71.9023,11.7274,0,0,0,0,0,0,0,-1,2022,918,71.9024,-11.7274
805,106,0,0,0,0,0,0,0,0,0,-1,2029,918,0,0
812,106,0,0,0,0,0,0,0,0,0,-1,2036,918,0,0
-700,99,0,0,0,0,0,0,0,0,0,-1,524,925,0,0
-693,99,0,0,0,0,0,0,0,0,0,-1,531,925,0,0
-686,99,0,0,0,0,0,0,0,0,0,-1,538,925,0,0
-679,99,-51.5259,10.7083,0,0,0,0,0,0,0,-1,545,925,-51.5259,-10.7082
-672,99,-52.4904,10.1713,0,0,0,0,0,0,0,-1,552,925,-52.4904,-10.1713
-665,99,-53.4944,9.35168,0,0,0,0,0,0,0,-1,559,925,-53.4944,-9.35171
-658,99,-53.8534,9.78381,0,0,0,0,0,0,0,-1,566,925,-53.8534,-9.78379
-651,99,-53.5699,9.45013,0,0,0,0,0,0,0,-1,573,925,-53.5699,-9.45014
-644,99,-54.4459,9.12421,0,0,0,0,0,0,0,-1,580,925,-54.4459,-9.12418
-637,99,-54.6689,8.48737,-0.0240136,0.0205249,0.0156616,0.0254807,-0.0289694,1.26433,0.0314583,0.036974,587,925,-54.6689,-8.48736
-630,99,-54.9562,7.84906,-0.0193398,0.0162053,0.0130283,0.0204691,-0.0236036,1.25451,0.0254668,0.0209448,594,925,-54.9561,-7.84906
-623,99,-55.2189,7.06097,-0.0144605,0.0117331,0.0104196,0.0153723,-0.0180997,1.23478,0.0193465,0.0148855,601,925,-55.2189,-7.06098
-616,99,-55.2397,6.34253,-0.00935704,0.00733255,0.00772064,0.0103563,-0.0123808,1.19751,0.0131446,0.0171725,608,925,-55.2397,-6.34252
-609,99,-55.2353,5.70782,-0.00573355,0.00417797,0.00562044,0.00671546,-0.00827105,1.14672,0.00866799,0.0128165,615,925,-55.2353,-5.70784
-602,99,-55.2495,5.04388,-0.00411948,0.00215772,0.00471086,0.00467977,-0.00664154,1.07925,0.00656899,0.0189379,622,925,-55.2495,-5.04388
-595,99,-55.3956,4.36102,-0.00340473,0.00114933,0.0043886,0.00381645,-0.00607186,1.02471,0.00575831,0.0261283,629,925,-55.3956,-4.361
-588,99,-55.3915,3.63513,-0.00256472,0.000381939,0.00391781,0.00309429,-0.00527708,0.965248,0.00488767,0.0304364,636,925,-55.3914,-3.63511
-581,99,-55.0969,2.9696,0,0,0,0,0,0,0,-1,643,925,-55.0969,-2.96958
-574,99,-55.781,1.91925,0,0,0,0,0,0,0,-1,650,925,-55.781,-1.91925
-567,99,-50.5977,0.659485,0,0,0,0,0,0,0,-1,657,925,-50.5977,-0.659461
-560,99,-60.0862,0.25415,0,0,0,0,0,0,0,-1,664,925,-60.0862,-0.254127
-553,99,-60.1898,0.218933,-0.000300555,-0.00211657,0.0029704,0.00189752,-0.00431465,0.637066,0.00367598,0.0358007,671,925,-60.1898,-0.218926
-546,99,-60.1465,0.283508,-0.000320422,-0.00198168,0.00285843,0.00182562,-0.00412772,0.643998,0.00352178,0.0404127,678,925,-60.1465,-0.283513
-539,99,-60.0709,0.370972,7.89807e-05,-0.00171246,0.00282842,0.00215012,-0.0037836,0.632052,0.00346884,0.0394564,685,925,-60.0709,-0.370992
-532,99,-59.7765,0.495117,0.00153256,-0.00201915,0.00297615,0.00322241,-0.00370901,0.516405,0.00400514,0.0419076,692,925,-59.7765,-0.495132
-525,99,-59.9671,0.408203,0.00287748,-0.00285957,0.00319462,0.00430244,-0.00428454,0.419565,0.0049577,0.0412192,699,925,-59.9671,-0.408228
-518,99,-60.149,0.531433,0.00391968,-0.00382793,0.00356057,0.00530743,-0.00521569,0.371645,0.0060756,0.0415612,706,925,-60.149,-0.531436
-511,99,0,0,0,0,0,0,0,0,0,-1,713,925,0,0
-504,99,0,0,0,0,0,0,0,0,0,-1,720,925,0,0
-497,99,0,0,0,0,0,0,0,0,0,-1,727,925,0,0
-490,99,0,0,0,0,0,0,0,0,0,-1,734,925,0,0
-483,99,0,0,0,0,0,0,0,0,0,-1,741,925,0,0
-476,99,0,0,0,0,0,0,0,0,0,-1,748,925,0,0
-469,99,0,0,0,0,0,0,0,0,0,-1,755,925,0,0
-462,99,0,0,0,0,0,0,0,0,0,-1,762,925,0,0
-455,99,0,0,0,0,0,0,0,0,0,-1,769,925,0,0
-448,99,0,0,0,0,0,0,0,0,0,-1,776,925,0,0
-441,99,0,0,0,0,0,0,0,0,0,-1,783,925,0,0
-434,99,0,0,0,0,0,0,0,0,0,-1,790,925,0,0
-427,99,0,0,0,0,0,0,0,0,0,-1,797,925,0,0
-420,99,0,0,0,0,0,0,0,0,0,-1,804,925,0,0
-413,99,0,0,0,0,0,0,0,0,0,-1,811,925,0,0
-406,99,0,0,0,0,0,0,0,0,0,-1,818,925,0,0
-399,99,0,0,0,0,0,0,0,0,0,-1,825,925,0,0
-392,99,0,0,0,0,0,0,0,0,0,-1,832,925,0,0
-385,99,0,0,0,0,0,0,0,0,0,-1,839,925,0,0
-378,99,0,0,0,0,0,0,0,0,0,-1,846,925,0,0
-371,99,0,0,0,0,0,0,0,0,0,-1,853,925,0,0
-364,99,0,0,0,0,0,0,0,0,0,-1,860,925,0,0
-357,99,0,0,0,0,0,0,0,0,0,-1,867,925,0,0
-350,99,0,0,0,0,0,0,0,0,0,-1,874,925,0,0
-343,99,0,0,0,0,0,0,0,0,0,-1,881,925,0,0
-336,99,0,0,0,0,0,0,0,0,0,-1,888,925,0,0
-329,99,0,0,0,0,0,0,0,0,0,-1,895,925,0,0
-322,99,0,0,0,0,0,0,0,0,0,-1,902,925,0,0
-315,99,0,0,0,0,0,0,0,0,0,-1,909,925,0,0
-308,99,0,0,0,0,0,0,0,0,0,-1,916,925,0,0
-301,99,0,0,0,0,0,0,0,0,0,-1,923,925,0,0
-294,99,0,0,0,0,0,0,0,0,0,-1,930,925,0,0
-287,99,0,0,0,0,0,0,0,0,0,-1,937,925,0,0
-280,99,0,0,0,0,0,0,0,0,0,-1,944,925,0,0
-273,99,0,0,0,0,0,0,0,0,0,-1,951,925,0,0
-266,99,0,0,0,0,0,0,0,0,0,-1,958,925,0,0
-259,99,0,0,0,0,0,0,0,0,0,-1,965,925,0,0
-252,99,0,0,0,0,0,0,0,0,0,-1,972,925,0,0
-245,99,0,0,0,0,0,0,0,0,0,-1,979,925,0,0
-238,99,0,0,0,0,0,0,0,0,0,-1,986,925,0,0
-231,99,0,0,0,0,0,0,0,0,0,-1,993,925,0,0
-224,99,0,0,0,0,0,0,0,0,0,-1,1000,925,0,0
-217,99,0,0,0,0,0,0,0,0,0,-1,1007,925,0,0
-210,99,0,0,0,0,0,0,0,0,0,-1,1014,925,0,0
-203,99,0,0,0,0,0,0,0,0,0,-1,1021,925,0,0
-196,99,0,0,0,0,0,0,0,0,0,-1,1028,925,0,0
-189,99,0,0,0,0,0,0,0,0,0,-1,1035,925,0,0
-182,99,0,0,0,0,0,0,0,0,0,-1,1042,925,0,0
-175,99,0,0,0,0,0,0,0,0,0,-1,1049,925,0,0
-168,99,0,0,0,0,0,0,0,0,0,-1,1056,925,0,0
-161,99,0,0,0,0,0,0,0,0,0,-1,1063,925,0,0
-154,99,0,0,0,0,0,0,0,0,0,-1,1070,925,0,0
-147,99,0,0,0,0,0,0,0,0,0,-1,1077,925,0,0
-140,99,0,0,0,0,0,0,0,0,0,-1,1084,925,0,0
-133,99,0,0,0,0,0,0,0,0,0,-1,1091,925,0,0
-126,99,0,0,0,0,0,0,0,0,0,-1,1098,925,0,0
-119,99,0,0,0,0,0,0,0,0,0,-1,1105,925,0,0
-112,99,0,0,0,0,0,0,0,0,0,-1,1112,925,0,0
-105,99,0,0,0,0,0,0,0,0,0,-1,1119,925,0,0
-98,99,0,0,0,0,0,0,0,0,0,-1,1126,925,0,0
-91,99,0,0,0,0,0,0,0,0,0,-1,1133,925,0,0
-84,99,0,0,0,0,0,0,0,0,0,-1,1140,925,0,0
-77,99,0,0,0,0,0,0,0,0,0,-1,1147,925,0,0
-70,99,0,0,0,0,0,0,0,0,0,-1,1154,925,0,0
-63,99,0,0,0,0,0,0,0,0,0,-1,1161,925,0,0
-56,99,0,0,0,0,0,0,0,0,0,-1,1168,925,0,0
-49,99,0,0,0,0,0,0,0,0,0,-1,1175,925,0,0
-42,99,0,0,0,0,0,0,0,0,0,-1,1182,925,0,0
-35,99,0,0,0,0,0,0,0,0,0,-1,1189,925,0,0
-28,99,0,0,0,0,0,0,0,0,0,-1,1196,925,0,0
-21,99,0,0,0,0,0,0,0,0,0,-1,1203,925,0,0
-14,99,0,0,0,0,0,0,0,0,0,-1,1210,925,0,0
-7,99,0,0,0,0,0,0,0,0,0,-1,1217,925,0,0
0,99,0,0,0,0,0,0,0,0,0,-1,1224,925,0,0
7,99,0,0,0,0,0,0,0,0,0,-1,1231,925,0,0
14,99,0,0,0,0,0,0,0,0,0,-1,1238,925,0,0
21,99,0,0,0,0,0,0,0,0,0,-1,1245,925,0,0
28,99,0,0,0,0,0,0,0,0,0,-1,1252,925,0,0
35,99,0,0,0,0,0,0,0,0,0,-1,1259,925,0,0
42,99,0,0,0,0,0,0,0,0,0,-1,1266,925,0,0
49,99,0,0,0,0,0,0,0,0,0,-1,1273,925,0,0
56,99,0,0,0,0,0,0,0,0,0,-1,1280,925,0,0
63,99,0,0,0,0,0,0,0,0,0,-1,1287,925,0,0
70,99,0,0,0,0,0,0,0,0,0,-1,1294,925,0,0
77,99,0,0,0,0,0,0,0,0,0,-1,1301,925,0,0
84,99,0,0,0,0,0,0,0,0,0,-1,1308,925,0,0
91,99,0,0,0,0,0,0,0,0,0,-1,1315,925,0,0
98,99,0,0,0,0,0,0,0,0,0,-1,1322,925,0,0
105,99,0,0,0,0,0,0,0,0,0,-1,1329,925,0,0
112,99,0,0,0,0,0,0,0,0,0,-1,1336,925,0,0
119,99,0,0,0,0,0,0,0,0,0,-1,1343,925,0,0
126,99,0,0,0,0,0,0,0,0,0,-1,1350,925,0,0
133,99,0,0,0,0,0,0,0,0,0,-1,1357,925,0,0
140,99,0,0,0,0,0,0,0,0,0,-1,1364,925,0,0
147,99,0,0,0,0,0,0,0,0,0,-1,1371,925,0,0
154,99,0,0,0,0,0,0,0,0,0,-1,1378,925,0,0
161,99,0,0,0,0,0,0,0,0,0,-1,1385,925,0,0
168,99,0,0,0,0,0,0,0,0,0,-1,1392,925,0,0
175,99,0,0,0,0,0,0,0,0,0,-1,1399,925,0,0
182,99,0,0,0,0,0,0,0,0,0,-1,1406,925,0,0
189,99,0,0,0,0,0,0,0,0,0,-1,1413,925,0,0
196,99,0,0,0,0,0,0,0,0,0,-1,1420,925,0,0
203,99,0,0,0,0,0,0,0,0,0,-1,1427,925,0,0
210,99,0,0,0,0,0,0,0,0,0,-1,1434,925,0,0
217,99,0,0,0,0,0,0,0,0,0,-1,1441,925,0,0
224,99,0,0,0,0,0,0,0,0,0,-1,1448,925,0,0
231,99,0,0,0,0,0,0,0,0,0,-1,1455,925,0,0
238,99,0,0,0,0,0,0,0,0,0,-1,1462,925,0,0
245,99,0,0,0,0,0,0,0,0,0,-1,1469,925,0,0
252,99,0,0,0,0,0,0,0,0,0,-1,1476,925,0,0
259,99,0,0,0,0,0,0,0,0,0,-1,1483,925,0,0
266,99,0,0,0,0,0,0,0,0,0,-1,1490,925,0,0
273,99,0,0,0,0,0,0,0,0,0,-1,1497,925,0,0
280,99,0,0,0,0,0,0,0,0,0,-1,1504,925,0,0
287,99,0,0,0,0,0,0,0,0,0,-1,1511,925,0,0
294,99,0,0,0,0,0,0,0,0,0,-1,1518,925,0,0
301,99,0,0,0,0,0,0,0,0,0,-1,1525,925,0,0
308,99,0,0,0,0,0,0,0,0,0,-1,1532,925,0,0
315,99,0,0,0,0,0,0,0,0,0,-1,1539,925,0,0
322,99,0,0,0,0,0,0,0,0,0,-1,1546,925,0,0
329,99,0,0,0,0,0,0,0,0,0,-1,1553,925,0,0
336,99,0,0,0,0,0,0,0,0,0,-1,1560,925,0,0
343,99,0,0,0,0,0,0,0,0,0,-1,1567,925,0,0
350,99,0,0,0,0,0,0,0,0,0,-1,1574,925,0,0
357,99,0,0,0,0,0,0,0,0,0,-1,1581,925,0,0
364,99,0,0,0,0,0,0,0,0,0,-1,1588,925,0,0
371,99,0,0,0,0,0,0,0,0,0,-1,1595,925,0,0
378,99,0,0,0,0,0,0,0,0,0,-1,1602,925,0,0
385,99,0,0,0,0,0,0,0,0,0,-1,1609,925,0,0
392,99,0,0,0,0,0,0,0,0,0,-1,1616,925,0,0
399,99,0,0,0,0,0,0,0,0,0,-1,1623,925,0,0
406,99,0,0,0,0,0,0,0,0,0,-1,1630,925,0,0
413,99,0,0,0,0,0,0,0,0,0,-1,1637,925,0,0
420,99,0,0,0,0,0,0,0,0,0,-1,1644,925,0,0
427,99,0,0,0,0,0,0,0,0,0,-1,1651,925,0,0
434,99,0,0,0,0,0,0,0,0,0,-1,1658,925,0,0
441,99,0,0,0,0,0,0,0,0,0,-1,1665,925,0,0
448,99,0,0,0,0,0,0,0,0,0,-1,1672,925,0,0
455,99,0,0,0,0,0,0,0,0,0,-1,1679,925,0,0
462,99,0,0,0,0,0,0,0,0,0,-1,1686,925,0,0
469,99,0,0,0,0,0,0,0,0,0,-1,1693,925,0,0
476,99,0,0,0,0,0,0,0,0,0,-1,1700,925,0,0
483,99,0,0,0,0,0,0,0,0,0,-1,1707,925,0,0
490,99,0,0,0,0,0,0,0,0,0,-1,1714,925,0,0
497,99,0,0,0,0,0,0,0,0,0,-1,1721,925,0,0
504,99,0,0,0,0,0,0,0,0,0,-1,1728,925,0,0
511,99,0,0,0,0,0,0,0,0,0,-1,1735,925,0,0
518,99,0,0,0,0,0,0,0,0,0,-1,1742,925,0,0
525,99,0,0,0,0,0,0,0,0,0,-1,1749,925,0,0
532,99,0,0,0,0,0,0,0,0,0,-1,1756,925,0,0
539,99,0,0,0,0,0,0,0,0,0,-1,1763,925,0,0
546,99,0,0,0,0,0,0,0,0,0,-1,1770,925,0,0
553,99,0,0,0,0,0,0,0,0,0,-1,1777,925,0,0
560,99,0,0,0,0,0,0,0,0,0,-1,1784,925,0,0
567,99,0,0,0,0,0,0,0,0,0,-1,1791,925,0,0
574,99,0,0,0,0,0,0,0,0,0,-1,1798,925,0,0
581,99,0,0,0,0,0,0,0,0,0,-1,1805,925,0,0
588,99,0,0,0,0,0,0,0,0,0,-1,1812,925,0,0
595,99,0,0,0,0,0,0,0,0,0,-1,1819,925,0,0
602,99,0,0,0,0,0,0,0,0,0,-1,1826,925,0,0
609,99,0,0,0,0,0,0,0,0,0,-1,1833,925,0,0
616,99,0,0,0,0,0,0,0,0,0,-1,1840,925,0,0
623,99,0,0,0,0,0,0,0,0,0,-1,1847,925,0,0
630,99,0,0,0,0,0,0,0,0,0,-1,1854,925,0,0
637,99,76.4996,2.16443,0.0074408,0.00156617,-0.00358151,0.00913544,-0.000128473,-0.441949,0.00613356,0.0440277,1861,925,76.4996,-2.16446
644,99,76.6663,1.98798,0.00508962,0.00190626,-0.00274682,0.0066726,0.000323277,-0.522808,0.00434465,0.0370861,1868,925,76.6662,-1.98797
651,99,76.7112,1.82471,0.00326139,0.00207667,-0.00191484,0.0046734,0.000664656,-0.635391,0.00291938,0.0373094,1875,925,76.7111,-1.82468
658,99,76.5105,2.0506,0.00183402,0.00219724,-0.00107686,0.00310769,0.000923563,-0.868935,0.00184277,0.0387935,1882,925,76.5105,-2.05058
665,99,76.3892,2.32129,0.000758016,0.00238254,-0.000210056,0.00240926,0.000731295,-1.44427,0.00142633,0.0409654,1889,925,76.3892,-2.32132
672,99,76.5111,2.26868,-0.000304131,0.00203888,0.000343143,0.00208811,-0.000353351,1.42833,0.00152357,0.0402931,1896,925,76.5112,-2.2687
679,99,76.5491,2.15515,-0.00115366,0.00149528,0.000605699,0.00162721,-0.00128558,1.35634,0.00168555,0.0350154,1903,925,76.5491,-2.15515
686,99,76.5045,2.06171,-0.00179983,0.00111501,0.000498983,0.00119806,-0.00188289,1.40586,0.00179337,0.0310916,1910,925,76.5045,-2.06171
693,99,76.4709,2.13947,-0.00250293,0.000875828,0.000362287,0.000914238,-0.00254134,1.46517,0.00206749,0.0382894,1917,925,76.4709,-2.13946
700,99,76.4622,2.25745,0,0,0,0,0,0,0,-1,1924,925,76.4622,-2.25745
707,99,47.9915,3.27429,0,0,0,0,0,0,0,-1,1931,925,47.9914,-3.27427
714,99,70.7991,3.74335,0,0,0,0,0,0,0,-1,1938,925,70.799,-3.74336
721,99,71.0682,4.67084,-0.0048408,0.00193138,-0.000976851,0.00206947,-0.00497889,-1.43036,0.00418334,0.0384532,1945,925,71.0682,-4.67086
728,99,71.0469,5.4198,-0.00530854,0.00248482,-0.00119395,0.00266363,-0.00548735,-1.42214,0.00479918,0.0312081,1952,925,71.0468,-5.4198
735,99,70.9498,6.15656,-0.0052382,0.00372769,-0.00123388,0.00389439,-0.00540491,-1.4365,0.00539251,0.0253456,1959,925,70.9499,-6.15656
742,99,70.8542,6.85089,-0.00489361,0.00584035,-0.0011695,0.0059663,-0.00501956,-1.46352,0.00635053,0.0167111,1966,925,70.8543,-6.85091
749,99,70.7875,7.53516,-0.00351654,0.00889742,-0.000434998,0.00891264,-0.00353177,-1.53581,0.00740528,0.0140616,1973,925,70.7874,-7.53518
756,99,70.7053,8.16431,-0.000743661,0.0126187,0.00158208,0.0128035,-0.000928422,1.45454,0.00886135,0.0146046,1980,925,70.7054,-8.16433
763,99,70.6677,8.8479,0.00313278,0.0164365,0.00466769,0.0179108,0.00165847,1.26486,0.0114279,0.0187516,1987,925,70.6677,-8.84788
770,99,70.9016,9.52881,0.00836567,0.0200427,0.00895312,0.0248928,0.00351556,1.07433,0.0155563,0.0343222,1994,925,70.9017,-9.52882
777,99,71.3308,10.1224,0.0158411,0.0228171,0.0157423,0.0354532,0.00320495,0.894421,0.0226429,0.0484637,2001,925,71.3309,-10.1224
784,99,71.7732,10.7997,0.0274264,0.0239624,0.0254175,0.0511709,0.000217976,0.75138,0.0340415,0.048464,2008,925,71.7731,-10.7998
791,99,72.1597,11.423,0,0,0,0,0,0,0,-1,2015,925,72.1597,-11.4231
798,99,73.1311,11.1252,0,0,0,0,0,0,0,-1,2022,925,73.1311,-11.1252
805,99,0,0,0,0,0,0,0,0,0,-1,2029,925,0,0
812,99,0,0,0,0,0,0,0,0,0,-1,2036,925,0,0
-700,92,0,0,0,0,0,0,0,0,0,-1,524,932,0,0
-693,92,0,0,0,0,0,0,0,0,0,-1,531,932,0,0
-686,92,-52.4837,11.3424,-0.0409254,0.0480173,0.0218252,0.0530842,-0.0459923,1.34268,0.0572507,0.0466956,538,932,-52.4837,-11.3424
-679,92,-52.6934,10.821,-0.0398625,0.0447619,0.0228276,0.050527,-0.0456275,1.32342,0.0555389,0.0483987,545,932,-52.6934,-10.821
-672,92,-52.7903,9.83527,0,0,0,0,0,0,0,-1,552,932,-52.7903,-9.83525
-665,92,-53.1157,8.94098,0,0,0,0,0,0,0,-1,559,932,-53.1157,-8.94099
-658,92,-53.3717,8.53912,0,0,0,0,0,0,0,-1,566,932,-53.3717,-8.53911
-651,92,-54.1599,8.28943,0,0,0,0,0,0,0,-1,573,932,-54.1599,-8.28945
-644,92,-55.6859,9.04126,0,0,0,0,0,0,0,-1,580,932,-55.6859,-9.04124
-637,92,-55.6959,8.40936,-0.0222127,0.0216703,0.0161921,0.0269981,-0.0275404,1.25292,0.0314884,0.0331437,587,932,-55.6958,-8.40936
-630,92,-55.7755,7.73767,-0.0177903,0.0169636,0.0134637,0.0215691,-0.0223958,1.2412,0.0253847,0.0166759,594,932,-55.7755,-7.73769
-623,92,-55.9334,7.07123,-0.0132553,0.0120804,0.0107995,0.016059,-0.0172339,1.21782,0.0192257,0.0112085,601,932,-55.9334,-7.0712
-616,92,-55.9636,6.39941,-0.00867225,0.00741002,0.00806027,0.0107543,-0.0120165,1.1775,0.0131535,0.0106861,608,932,-55.9636,-6.39944
-609,92,-56.0074,5.74591,-0.00554374,0.00419373,0.0059427,0.00700746,-0.00835747,1.12859,0.00888235,0.00993721,615,932,-56.0074,-5.74591
-602,92,-56.0009,5.07025,-0.0040818,0.00218699,0.00496085,0.00492069,-0.0068155,1.06714,0.00680526,0.0121919,622,932,-56.0009,-5.07027
-595,92,-55.8965,4.28339,-0.00331437,0.0010985,0.00447676,0.00388303,-0.0060989,1.01436,0.00581021,0.0253398,629,932,-55.8965,-4.28336
-588,92,-55.8743,3.63947,-0.00239224,0.000239869,0.00393655,0.00307453,-0.0052269,0.946716,0.00484623,0.035922,636,932,-55.8743,-3.63949
-581,92,-56.6868,2.94611,0,0,0,0,0,0,0,-1,643,932,-56.6868,-2.94609
-574,92,-57.6474,2.09113,0,0,0,0,0,0,0,-1,650,932,-57.6474,-2.0911
-567,92,-60.0267,0.278137,0,0,0,0,0,0,0,-1,657,932,-60.0267,-0.278107
-560,92,-59.9166,0.21582,-0.000451267,-0.00206103,0.00314816,0.00199328,-0.00450557,0.660246,0.00384443,0.0393063,664,932,-59.9166,-0.215803
-553,92,-60.1211,0.392578,-0.000455494,-0.00209135,0.0029828,0.00181948,-0.00436633,0.65158,0.0036709,0.0372385,671,932,-60.1211,-0.392573
-546,92,-60.1545,0.469055,-0.000379012,-0.00183157,0.00289301,0.00187749,-0.00408807,0.662416,0.00352216,0.0414961,678,932,-60.1545,-0.469039
-539,92,-60.0833,0.403198,0.000184904,-0.00151667,0.00284617,0.00230472,-0.00363649,0.640163,0.00345877,0.0416907,685,932,-60.0833,-0.403227
-532,92,-60.0455,0.198792,0.00158246,-0.00185141,0.00292759,0.00325944,-0.00352839,0.520193,0.00391998,0.0455479,692,932,-60.0456,-0.198798
-525,92,-60.1575,0.162292,0.00280117,-0.00263328,0.00310385,0.00420914,-0.00404124,0.425859,0.00476369,0.0420881,699,932,-60.1574,-0.16231
-518,92,-60.1991,0.479187,0.0036721,-0.00346522,0.00343928,0.00505965,-0.00485277,0.38347,0.00572335,0.0399672,706,932,-60.1991,-0.479162
-511,92,0,0,0,0,0,0,0,0,0,-1,713,932,0,0
-504,92,0,0,0,0,0,0,0,0,0,-1,720,932,0,0
-497,92,0,0,0,0,0,0,0,0,0,-1,727,932,0,0
-490,92,0,0,0,0,0,0,0,0,0,-1,734,932,0,0
-483,92,0,0,0,0,0,0,0,0,0,-1,741,932,0,0
-476,92,0,0,0,0,0,0,0,0,0,-1,748,932,0,0
-469,92,0,0,0,0,0,0,0,0,0,-1,755,932,0,0
-462,92,0,0,0,0,0,0,0,0,0,-1,762,932,0,0
-455,92,0,0,0,0,0,0,0,0,0,-1,769,932,0,0
-448,92,0,0,0,0,0,0,0,0,0,-1,776,932,0,0
-441,92,0,0,0,0,0,0,0,0,0,-1,783,932,0,0
-434,92,0,0,0,0,0,0,0,0,0,-1,790,932,0,0
-427,92,0,0,0,0,0,0,0,0,0,-1,797,932,0,0
-420,92,0,0,0,0,0,0,0,0,0,-1,804,932,0,0
-413,92,0,0,0,0,0,0,0,0,0,-1,811,932,0,0
-406,92,0,0,0,0,0,0,0,0,0,-1,818,932,0,0
-399,92,0,0,0,0,0,0,0,0,0,-1,825,932,0,0
-392,92,0,0,0,0,0,0,0,0,0,-1,832,932,0,0
-385,92,0,0,0,0,0,0,0,0,0,-1,839,932,0,0
-378,92,0,0,0,0,0,0,0,0,0,-1,846,932,0,0
-371,92,0,0,0,0,0,0,0,0,0,-1,853,932,0,0
-364,92,0,0,0,0,0,0,0,0,0,-1,860,932,0,0
-357,92,0,0,0,0,0,0,0,0,0,-1,867,932,0,0
-350,92,0,0,0,0,0,0,0,0,0,-1,874,932,0,0
-343,92,0,0,0,0,0,0,0,0,0,-1,881,932,0,0
-336,92,0,0,0,0,0,0,0,0,0,-1,888,932,0,0
-329,92,0,0,0,0,0,0,0,0,0,-1,895,932,0,0
-322,92,0,0,0,0,0,0,0,0,0,-1,902,932,0,0
-315,92,0,0,0,0,0,0,0,0,0,-1,909,932,0,0
-308,92,0,0,0,0,0,0,0,0,0,-1,916,932,0,0
-301,92,0,0,0,0,0,0,0,0,0,-1,923,932,0,0
-294,92,0,0,0,0,0,0,0,0,0,-1,930,932,0,0
-287,92,0,0,0,0,0,0,0,0,0,-1,937,932,0,0
-280,92,0,0,0,0,0,0,0,0,0,-1,944,932,0,0
-273,92,0,0,0,0,0,0,0,0,0,-1,951,932,0,0
-266,92,0,0,0,0,0,0,0,0,0,-1,958,932,0,0
-259,92,0,0,0,0,0,0,0,0,0,-1,965,932,0,0
-252,92,0,0,0,0,0,0,0,0,0,-1,972,932,0,0
-245,92,0,0,0,0,0,0,0,0,0,-1,979,932,0,0
-238,92,0,0,0,0,0,0,0,0,0,-1,986,932,0,0
-231,92,0,0,0,0,0,0,0,0,0,-1,993,932,0,0
-224,92,0,0,0,0,0,0,0,0,0,-1,1000,932,0,0
-217,92,0,0,0,0,0,0,0,0,0,-1,1007,932,0,0
-210,92,0,0,0,0,0,0,0,0,0,-1,1014,932,0,0
-203,92,0,0,0,0,0,0,0,0,0,-1,1021,932,0,0
-196,92,0,0,0,0,0,0,0,0,0,-1,1028,932,0,0
-189,92,0,0,0,0,0,0,0,0,0,-1,1035,932,0,0
-182,92,0,0,0,0,0,0,0,0,0,-1,1042,932,0,0
-175,92,0,0,0,0,0,0,0,0,0,-1,1049,932,0,0
-168,92,0,0,0,0,0,0,0,0,0,-1,1056,932,0,0
-161,92,0,0,0,0,0,0,0,0,0,-1,1063,932,0,0
-154,92,0,0,0,0,0,0,0,0,0,-1,1070,932,0,0
-147,92,0,0,0,0,0,0,0,0,0,-1,1077,932,0,0
-140,92,0,0,0,0,0,0,0,0,0,-1,1084,932,0,0
-133,92,0,0,0,0,0,0,0,0,0,-1,1091,932,0,0
-126,92,0,0,0,0,0,0,0,0,0,-1,1098,932,0,0
-119,92,0,0,0,0,0,0,0,0,0,-1,1105,932,0,0
-112,92,0,0,0,0,0,0,0,0,0,-1,1112,932,0,0
-105,92,0,0,0,0,0,0,0,0,0,-1,1119,932,0,0
-98,92,0,0,0,0,0,0,0,0,0,-1,1126,932,0,0
-91,92,0,0,0,0,0,0,0,0,0,-1,1133,932,0,0
-84,92,0,0,0,0,0,0,0,0,0,-1,1140,932,0,0
-77,92,0,0,0,0,0,0,0,0,0,-1,1147,932,0,0
-70,92,0,0,0,0,0,0,0,0,0,-1,1154,932,0,0
-63,92,0,0,0,0,0,0,0,0,0,-1,1161,932,0,0
-56,92,0,0,0,0,0,0,0,0,0,-1,1168,932,0,0
-49,92,0,0,0,0,0,0,0,0,0,-1,1175,932,0,0
-42,92,0,0,0,0,0,0,0,0,0,-1,1182,932,0,0
-35,92,0,0,0,0,0,0,0,0,0,-1,1189,932,0,0
-28,92,0,0,0,0,0,0,0,0,0,-1,1196,932,0,0
-21,92,0,0,0,0,0,0,0,0,0,-1,1203,932,0,0
-14,92,0,0,0,0,0,0,0,0,0,-1,1210,932,0,0
-7,92,0,0,0,0,0,0,0,0,0,-1,1217,932,0,0
0,92,0,0,0,0,0,0,0,0,0,-1,1224,932,0,0
7,92,0,0,0,0,0,0,0,0,0,-1,1231,932,0,0
14,92,0,0,0,0,0,0,0,0,0,-1,1238,932,0,0
21,92,0,0,0,0,0,0,0,0,0,-1,1245,932,0,0
28,92,0,0,0,0,0,0,0,0,0,-1,1252,932,0,0
35,92,0,0,0,0,0,0,0,0,0,-1,1259,932,0,0
42,92,0,0,0,0,0,0,0,0,0,-1,1266,932,0,0
49,92,0,0,0,0,0,0,0,0,0,-1,1273,932,0,0
56,92,0,0,0,0,0,0,0,0,0,-1,1280,932,0,0
63,92,0,0,0,0,0,0,0,0,0,-1,1287,932,0,0
70,92,0,0,0,0,0,0,0,0,0,-1,1294,932,0,0
77,92,0,0,0,0,0,0,0,0,0,-1,1301,932,0,0
84,92,0,0,0,0,0,0,0,0,0,-1,1308,932,0,0
91,92,0,0,0,0,0,0,0,0,0,-1,1315,932,0,0
98,92,0,0,0,0,0,0,0,0,0,-1,1322,932,0,0
105,92,0,0,0,0,0,0,0,0,0,-1,1329,932,0,0
112,92,0,0,0,0,0,0,0,0,0,-1,1336,932,0,0
119,92,0,0,0,0,0,0,0,0,0,-1,1343,932,0,0
126,92,0,0,0,0,0,0,0,0,0,-1,1350,932,0,0
133,92,0,0,0,0,0,0,0,0,0,-1,1357,932,0,0
140,92,0,0,0,0,0,0,0,0,0,-1,1364,932,0,0
147,92,0,0,0,0,0,0,0,0,0,-1,1371,932,0,0
154,92,0,0,0,0,0,0,0,0,0,-1,1378,932,0,0
161,92,0,0,0,0,0,0,0,0,0,-1,1385,932,0,0
168,92,0,0,0,0,0,0,0,0,0,-1,1392,932,0,0
175,92,0,0,0,0,0,0,0,0,0,-1,1399,932,0,0
182,92,0,0,0,0,0,0,0,0,0,-1,1406,932,0,0
189,92,0,0,0,0,0,0,0,0,0,-1,1413,932,0,0
196,92,0,0,0,0,0,0,0,0,0,-1,1420,932,0,0
203,92,0,0,0,0,0,0,0,0,0,-1,1427,932,0,0
210,92,0,0,0,0,0,0,0,0,0,-1,1434,932,0,0
217,92,0,0,0,0,0,0,0,0,0,-1,1441,932,0,0
224,92,0,0,0,0,0,0,0,0,0,-1,1448,932,0,0
231,92,0,0,0,0,0,0,0,0,0,-1,1455,932,0,0
238,92,0,0,0,0,0,0,0,0,0,-1,1462,932,0,0
245,92,0,0,0,0,0,0,0,0,0,-1,1469,932,0,0
252,92,0,0,0,0,0,0,0,0,0,-1,1476,932,0,0
259,92,0,0,0,0,0,0,0,0,0,-1,1483,932,0,0
266,92,0,0,0,0,0,0,0,0,0,-1,1490,932,0,0
273,92,0,0,0,0,0,0,0,0,0,-1,1497,932,0,0
280,92,0,0,0,0,0,0,0,0,0,-1,1504,932,0,0
287,92,0,0,0,0,0,0,0,0,0,-1,1511,932,0,0
294,92,0,0,0,0,0,0,0,0,0,-1,1518,932,0,0
301,92,0,0,0,0,0,0,0,0,0,-1,1525,932,0,0
308,92,0,0,0,0,0,0,0,0,0,-1,1532,932,0,0
315,92,0,0,0,0,0,0,0,0,0,-1,1539,932,0,0
322,92,0,0,0,0,0,0,0,0,0,-1,1546,932,0,0
329,92,0,0,0,0,0,0,0,0,0,-1,1553,932,0,0
336,92,0,0,0,0,0,0,0,0,0,-1,1560,932,0,0
343,92,0,0,0,0,0,0,0,0,0,-1,1567,932,0,0
350,92,0,0,0,0,0,0,0,0,0,-1,1574,932,0,0
357,92,0,0,0,0,0,0,0,0,0,-1,1581,932,0,0
364,92,0,0,0,0,0,0,0,0,0,-1,1588,932,0,0
371,92,0,0,0,0,0,0,0,0,0,-1,1595,932,0,0
378,92,0,0,0,0,0,0,0,0,0,-1,1602,932,0,0
385,92,0,0,0,0,0,0,0,0,0,-1,1609,932,0,0
392,92,0,0,0,0,0,0,0,0,0,-1,1616,932,0,0
399,92,0,0,0,0,0,0,0,0,0,-1,1623,932,0,0
406,92,0,0,0,0,0,0,0,0,0,-1,1630,932,0,0
413,92,0,0,0,0,0,0,0,0,0,-1,1637,932,0,0
420,92,0,0,0,0,0,0,0,0,0,-1,1644,932,0,0
427,92,0,0,0,0,0,0,0,0,0,-1,1651,932,0,0
434,92,0,0,0,0,0,0,0,0,0,-1,1658,932,0,0
441,92,0,0,0,0,0,0,0,0,0,-1,1665,932,0,0
448,92,0,0,0,0,0,0,0,0,0,-1,1672,932,0,0
455,92,0,0,0,0,0,0,0,0,0,-1,1679,932,0,0
462,92,0,0,0,0,0,0,0,0,0,-1,1686,932,0,0
469,92,0,0,0,0,0,0,0,0,0,-1,1693,932,0,0
476,92,0,0,0,0,0,0,0,0,0,-1,1700,932,0,0
483,92,0,0,0,0,0,0,0,0,0,-1,1707,932,0,0
490,92,0,0,0,0,0,0,0,0,0,-1,1714,932,0,0
497,92,0,0,0,0,0,0,0,0,0,-1,1721,932,0,0
504,92,0,0,0,0,0,0,0,0,0,-1,1728,932,0,0
511,92,0,0,0,0,0,0,0,0,0,-1,1735,932,0,0
518,92,0,0,0,0,0,0,0,0,0,-1,1742,932,0,0
525,92,0,0,0,0,0,0,0,0,0,-1,1749,932,0,0
532,92,0,0,0,0,0,0,0,0,0,-1,1756,932,0,0
539,92,0,0,0,0,0,0,0,0,0,-1,1763,932,0,0
546,92,0,0,0,0,0,0,0,0,0,-1,1770,932,0,0
553,92,0,0,0,0,0,0,0,0,0,-1,1777,932,0,0
560,92,0,0,0,0,0,0,0,0,0,-1,1784,932,0,0
567,92,0,0,0,0,0,0,0,0,0,-1,1791,932,0,0
574,92,0,0,0,0,0,0,0,0,0,-1,1798,932,0,0
581,92,0,0,0,0,0,0,0,0,0,-1,1805,932,0,0
588,92,0,0,0,0,0,0,0,0,0,-1,1812,932,0,0
595,92,0,0,0,0,0,0,0,0,0,-1,1819,932,0,0
602,92,0,0,0,0,0,0,0,0,0,-1,1826,932,0,0
609,92,0,0,0,0,0,0,0,0,0,-1,1833,932,0,0
616,92,0,0,0,0,0,0,0,0,0,-1,1840,932,0,0
623,92,0,0,0,0,0,0,0,0,0,-1,1847,932,0,0
630,92,0,0,0,0,0,0,0,0,0,-1,1854,932,0,0
637,92,76.3977,2.10785,0.00787611,0.00139822,-0.00399293,0.0097786,-0.000504263,-0.444641,0.00669349,0.0494548,1861,932,76.3977,-2.10785
644,92,76.5292,1.86292,0.00537869,0.00187351,-0.00307322,0.00716393,8.82694e-05,-0.52626,0.00474681,0.0384936,1868,932,76.5292,-1.86289
651,92,76.5707,1.87616,0.00346881,0.00213459,-0.00218786,0.00508901,0.000514395,-0.637418,0.00323487,0.0369339,1875,932,76.5706,-1.87617
658,92,76.4086,2.13531,0.00201235,0.00234797,-0.00127437,0.00346553,0.000894789,-0.850863,0.00207735,0.0389296,1882,932,76.4085,-2.13532
665,92,76.3607,2.26868,0.000927259,0.0025765,-0.00036337,0.00265301,0.000850749,-1.36327,0.00156421,0.0406491,1889,932,76.3607,-2.26865
672,92,76.5605,2.16687,-0.000194482,0.00228082,0.000328682,0.00232372,-0.000237382,1.44101,0.00163403,0.0423447,1896,932,76.5605,-2.1669
679,92,76.5793,2.22681,-0.0011098,0.00171318,0.000729736,0.00189066,-0.00128728,1.33222,0.00184577,0.0374765,1903,932,76.5793,-2.22678
686,92,76.51,2.09705,-0.00174483,0.0012331,0.000690468,0.0013854,-0.00189713,1.35369,0.00190283,0.0311852,1910,932,76.51,-2.09705
693,92,76.5065,2.11981,-0.0024664,0.000885954,0.000558896,0.000976676,-0.00255712,1.40988,0.00210716,0.0295017,1917,932,76.5064,-2.11984
700,92,76.5564,2.18268,0,0,0,0,0,0,0,-1,1924,932,76.5564,-2.18266
707,92,32.9893,3.26874,0,0,0,0,0,0,0,-1,1931,932,32.9893,-3.26874
714,92,72.2043,4.04309,0,0,0,0,0,0,0,-1,1938,932,72.2043,-4.0431
721,92,71.9834,4.86218,-0.00499555,0.00190607,-0.000850124,0.00200924,-0.00509872,-1.45002,0.00423103,0.0372684,1945,932,71.9834,-4.86219
728,92,71.7344,5.56696,-0.00543146,0.00253375,-0.00109287,0.00268098,-0.00557869,-1.43689,0.00486556,0.0310934,1952,932,71.7343,-5.56694
735,92,71.6521,6.22137,-0.00536937,0.00387073,-0.00117233,0.00401715,-0.00551579,-1.44654,0.00552647,0.0245011,1959,932,71.6521,-6.22139
742,92,71.668,6.84454,-0.00523768,0.0060455,-0.00118452,0.00616851,-0.00536069,-1.46732,0.00666183,0.0231483,1966,932,71.6679,-6.84455
749,92,71.5688,7.50781,-0.00414679,0.00913997,-0.000610955,0.00916801,-0.00417483,-1.52494,0.00788124,0.0201181,1973,932,71.5688,-7.50782
756,92,71.4387,8.11713,-0.00162459,0.0129031,0.00127548,0.0130142,-0.00173572,1.48389,0.00930883,0.0163027,1980,932,71.4387,-8.1171
763,92,71.4143,8.75293,0.00209623,0.016894,0.00428944,0.0180475,0.000942756,1.3081,0.01173,0.0185462,1987,932,71.4143,-8.75295
770,92,71.3889,9.41278,0.00711383,0.0204698,0.00842325,0.0245411,0.00304256,1.12057,0.0154468,0.0290365,1994,932,71.3888,-9.41278
777,92,71.5652,10.1962,0.0141232,0.0230807,0.0148343,0.0340977,0.00310631,0.932006,0.0217703,0.0483647,2001,932,71.5652,-10.1962
784,92,71.8044,11.1444,0.0250608,0.023838,0.0239903,0.0484475,0.000451244,0.772658,0.032149,0.0492576,2008,932,71.8043,-11.1444
791,92,72.1428,12.0556,0,0,0,0,0,0,0,-1,2015,932,72.1427,-12.0556
798,92,72.4561,12.777,0,0,0,0,0,0,0,-1,2022,932,72.456,-12.777
805,92,0,0,0,0,0,0,0,0,0,-1,2029,932,0,0
812,92,0,0,0,0,0,0,0,0,0,-1,2036,932,0,0
-700,85,0,0,0,0,0,0,0,0,0,-1,524,939,0,0
-693,85,0,0,0,0,0,0,0,0,0,-1,531,939,0,0
-686,85,-53.3481,11.126,-0.0282487,0.0648968,0.0140227,0.0669621,-0.0303139,1.42457,0.0574756,0.0468384,538,939,-53.3481,-11.126
-679,85,-53.7653,10.7091,-0.0312805,0.0560089,0.0196327,0.0602213,-0.0354929,1.35944,0.055872,0.0464676,545,939,-53.7653,-10.7091
-672,85,-54.0503,9.73773,-0.0318259,0.0498355,0.0217896,0.0552858,-0.0372762,1.32569,0.0537768,0.043454,552,939,-54.0503,-9.73776
-665,85,-54.2443,9.11066,0,0,0,0,0,0,0,-1,559,939,-54.2443,-9.11066
-658,85,-54.4788,8.81311,-0.0296495,0.0388362,0.0222772,0.0454448,-0.0362582,1.28241,0.0472705,0.0460933,566,939,-54.4788,-8.81314
-651,85,-55.0372,8.63287,-0.0271879,0.0335526,0.0210511,0.040135,-0.0337704,1.26774,0.042722,0.0435352,573,939,-55.0372,-8.63287
-644,85,-55.9527,8.47339,-0.0238948,0.0283427,0.0189692,0.0345043,-0.0300564,1.25673,0.0373036,0.0391491,580,939,-55.9527,-8.47338
-637,85,-56.3886,8.2229,-0.0201054,0.0231204,0.0163721,0.0286213,-0.0256064,1.24665,0.0313245,0.0255234,587,939,-56.3886,-8.22287
-630,85,-56.537,7.61951,-0.0159912,0.0179106,0.0136181,0.0227033,-0.020784,1.2324,0.0251156,0.0152382,594,939,-56.5371,-7.61948
-623,85,-56.6598,6.99738,-0.0118576,0.0125616,0.0109632,0.0167613,-0.0160574,1.20497,0.0189493,0.0113955,601,939,-56.6598,-6.99737
-616,85,-56.6971,6.37445,-0.00782027,0.00760195,0.00826989,0.011198,-0.0114163,1.16062,0.0130566,0.0117155,608,939,-56.6971,-6.37446
-609,85,-56.7535,5.74921,-0.00511747,0.00428442,0.00619896,0.00736332,-0.00819637,1.10981,0.00898768,0.0138982,615,939,-56.7535,-5.74921
-602,85,-56.759,5.0993,-0.00373572,0.00224267,0.00516876,0.00522435,-0.0067174,1.04756,0.00691251,0.0174407,622,939,-56.7589,-5.0993
-595,85,-56.6428,4.41394,-0.00291915,0.00103618,0.00450134,0.00397514,-0.00585811,0.99238,0.00571182,0.0207337,629,939,-56.6428,-4.41393
-588,85,-56.5604,3.74237,-0.00194782,7.9089e-05,0.00390812,0.00310302,-0.00497176,0.912264,0.00470341,0.0282795,636,939,-56.5604,-3.74236
-581,85,-57.8759,3.19849,0,0,0,0,0,0,0,-1,643,939,-57.8759,-3.19846
-574,85,-57.1787,1.97198,0,0,0,0,0,0,0,-1,650,939,-57.1787,-1.97196
-567,85,-60.0294,0.248413,0,0,0,0,0,0,0,-1,657,939,-60.0294,-0.248387
-560,85,-59.9808,0.159729,-0.000357587,-0.00209093,0.00307571,0.00197122,-0.00441974,0.648069,0.00377901,0.0358887,664,939,-59.9809,-0.159739
-553,85,-60.1275,0.177856,-0.000378197,-0.00194955,0.002936,0.00187543,-0.00420318,0.654661,0.00359423,0.0403839,671,939,-60.1275,-0.177838
-546,85,-60.204,0.501587,-0.00017469,-0.00154015,0.00283189,0.0020556,-0.00377044,0.667112,0.00341189,0.041734,678,939,-60.204,-0.501604
-539,85,-60.1675,0.806763,0,0,0,0,0,0,0,-1,685,939,-60.1675,-0.806758
-532,85,-59.9404,0.0667114,0.00207377,-0.00135376,0.00264314,0.0035101,-0.0027901,0.49778,0.00364533,0.0432998,692,939,-59.9403,-0.0667176
-525,85,-59.9199,0.0845337,0.00339415,-0.00187829,0.00265958,0.00450266,-0.00298681,0.394905,0.00435347,0.040167,699,939,-59.9198,-0.0845079
-518,85,-59.9546,0.324829,0.00434342,-0.00239837,0.00279531,0.00535164,-0.00340659,0.346161,0.00509796,0.037784,706,939,-59.9546,-0.324801
-511,85,0,0,0,0,0,0,0,0,0,-1,713,939,0,0
-504,85,0,0,0,0,0,0,0,0,0,-1,720,939,0,0
-497,85,0,0,0,0,0,0,0,0,0,-1,727,939,0,0
-490,85,0,0,0,0,0,0,0,0,0,-1,734,939,0,0
-483,85,0,0,0,0,0,0,0,0,0,-1,741,939,0,0
-476,85,0,0,0,0,0,0,0,0,0,-1,748,939,0,0
-469,85,0,0,0,0,0,0,0,0,0,-1,755,939,0,0
-462,85,0,0,0,0,0,0,0,0,0,-1,762,939,0,0
-455,85,0,0,0,0,0,0,0,0,0,-1,769,939,0,0
-448,85,0,0,0,0,0,0,0,0,0,-1,776,939,0,0
-441,85,0,0,0,0,0,0,0,0,0,-1,783,939,0,0
-434,85,0,0,0,0,0,0,0,0,0,-1,790,939,0,0
-427,85,0,0,0,0,0,0,0,0,0,-1,797,939,0,0
-420,85,0,0,0,0,0,0,0,0,0,-1,804,939,0,0
-413,85,0,0,0,0,0,0,0,0,0,-1,811,939,0,0
-406,85,0,0,0,0,0,0,0,0,0,-1,818,939,0,0
-399,85,0,0,0,0,0,0,0,0,0,-1,825,939,0,0
-392,85,0,0,0,0,0,0,0,0,0,-1,832,939,0,0
-385,85,0,0,0,0,0,0,0,0,0,-1,839,939,0,0
-378,85,0,0,0,0,0,0,0,0,0,-1,846,939,0,0
-371,85,0,0,0,0,0,0,0,0,0,-1,853,939,0,0
-364,85,0,0,0,0,0,0,0,0,0,-1,860,939,0,0
-357,85,0,0,0,0,0,0,0,0,0,-1,867,939,0,0
-350,85,0,0,0,0,0,0,0,0,0,-1,874,939,0,0
-343,85,0,0,0,0,0,0,0,0,0,-1,881,939,0,0
-336,85,0,0,0,0,0,0,0,0,0,-1,888,939,0,0
-329,85,0,0,0,0,0,0,0,0,0,-1,895,939,0,0
-322,85,0,0,0,0,0,0,0,0,0,-1,902,939,0,0
-315,85,0,0,0,0,0,0,0,0,0,-1,909,939,0,0
-308,85,0,0,0,0,0,0,0,0,0,-1,916,939,0,0
-301,85,0,0,0,0,0,0,0,0,0,-1,923,939,0,0
-294,85,0,0,0,0,0,0,0,0,0,-1,930,939,0,0
-287,85,0,0,0,0,0,0,0,0,0,-1,937,939,0,0
-280,85,0,0,0,0,0,0,0,0,0,-1,944,939,0,0
-273,85,0,0,0,0,0,0,0,0,0,-1,951,939,0,0
-266,85,0,0,0,0,0,0,0,0,0,-1,958,939,0,0
-259,85,0,0,0,0,0,0,0,0,0,-1,965,939,0,0
-252,85,0,0,0,0,0,0,0,0,0,-1,972,939,0,0
-245,85,0,0,0,0,0,0,0,0,0,-1,979,939,0,0
-238,85,0,0,0,0,0,0,0,0,0,-1,986,939,0,0
-231,85,0,0,0,0,0,0,0,0,0,-1,993,939,0,0
-224,85,0,0,0,0,0,0,0,0,0,-1,1000,939,0,0
-217,85,0,0,0,0,0,0,0,0,0,-1,1007,939,0,0
-210,85,0,0,0,0,0,0,0,0,0,-1,1014,939,0,0
-203,85,0,0,0,0,0,0,0,0,0,-1,1021,939,0,0
-196,85,0,0,0,0,0,0,0,0,0,-1,1028,939,0,0
-189,85,0,0,0,0,0,0,0,0,0,-1,1035,939,0,0
-182,85,0,0,0,0,0,0,0,0,0,-1,1042,939,0,0
-175,85,0,0,0,0,0,0,0,0,0,-1,1049,939,0,0
-168,85,0,0,0,0,0,0,0,0,0,-1,1056,939,0,0
-161,85,0,0,0,0,0,0,0,0,0,-1,1063,939,0,0
-154,85,0,0,0,0,0,0,0,0,0,-1,1070,939,0,0
-147,85,0,0,0,0,0,0,0,0,0,-1,1077,939,0,0
-140,85,0,0,0,0,0,0,0,0,0,-1,1084,939,0,0
-133,85,0,0,0,0,0,0,0,0,0,-1,1091,939,0,0
-126,85,0,0,0,0,0,0,0,0,0,-1,1098,939,0,0
-119,85,0,0,0,0,0,0,0,0,0,-1,1105,939,0,0
-112,85,0,0,0,0,0,0,0,0,0,-1,1112,939,0,0
-105,85,0,0,0,0,0,0,0,0,0,-1,1119,939,0,0
-98,85,0,0,0,0,0,0,0,0,0,-1,1126,939,0,0
-91,85,0,0,0,0,0,0,0,0,0,-1,1133,939,0,0
-84,85,0,0,0,0,0,0,0,0,0,-1,1140,939,0,0
-77,85,0,0,0,0,0,0,0,0,0,-1,1147,939,0,0
-70,85,0,0,0,0,0,0,0,0,0,-1,1154,939,0,0
-63,85,0,0,0,0,0,0,0,0,0,-1,1161,939,0,0
-56,85,0,0,0,0,0,0,0,0,0,-1,1168,939,0,0
-49,85,0,0,0,0,0,0,0,0,0,-1,1175,939,0,0
-42,85,0,0,0,0,0,0,0,0,0,-1,1182,939,0,0
-35,85,0,0,0,0,0,0,0,0,0,-1,1189,939,0,0
-28,85,0,0,0,0,0,0,0,0,0,-1,1196,939,0,0
-21,85,0,0,0,0,0,0,0,0,0,-1,1203,939,0,0
-14,85,0,0,0,0,0,0,0,0,0,-1,1210,939,0,0
-7,85,0,0,0,0,0,0,0,0,0,-1,1217,939,0,0
0,85,0,0,0,0,0,0,0,0,0,-1,1224,939,0,0
7,85,0,0,0,0,0,0,0,0,0,-1,1231,939,0,0
14,85,0,0,0,0,0,0,0,0,0,-1,1238,939,0,0
21,85,0,0,0,0,0,0,0,0,0,-1,1245,939,0,0
28,85,0,0,0,0,0,0,0,0,0,-1,1252,939,0,0
35,85,0,0,0,0,0,0,0,0,0,-1,1259,939,0,0
42,85,0,0,0,0,0,0,0,0,0,-1,1266,939,0,0
49,85,0,0,0,0,0,0,0,0,0,-1,1273,939,0,0
56,85,0,0,0,0,0,0,0,0,0,-1,1280,939,0,0
63,85,0,0,0,0,0,0,0,0,0,-1,1287,939,0,0
70,85,0,0,0,0,0,0,0,0,0,-1,1294,939,0,0
77,85,0,0,0,0,0,0,0,0,0,-1,1301,939,0,0
84,85,0,0,0,0,0,0,0,0,0,-1,1308,939,0,0
91,85,0,0,0,0,0,0,0,0,0,-1,1315,939,0,0
98,85,0,0,0,0,0,0,0,0,0,-1,1322,939,0,0
105,85,0,0,0,0,0,0,0,0,0,-1,1329,939,0,0
112,85,0,0,0,0,0,0,0,0,0,-1,1336,939,0,0
119,85,0,0,0,0,0,0,0,0,0,-1,1343,939,0,0
126,85,0,0,0,0,0,0,0,0,0,-1,1350,939,0,0
133,85,0,0,0,0,0,0,0,0,0,-1,1357,939,0,0
140,85,0,0,0,0,0,0,0,0,0,-1,1364,939,0,0
147,85,0,0,0,0,0,0,0,0,0,-1,1371,939,0,0
154,85,0,0,0,0,0,0,0,0,0,-1,1378,939,0,0
161,85,0,0,0,0,0,0,0,0,0,-1,1385,939,0,0
168,85,0,0,0,0,0,0,0,0,0,-1,1392,939,0,0
175,85,0,0,0,0,0,0,0,0,0,-1,1399,939,0,0
182,85,0,0,0,0,0,0,0,0,0,-1,1406,939,0,0
189,85,0,0,0,0,0,0,0,0,0,-1,1413,939,0,0
196,85,0,0,0,0,0,0,0,0,0,-1,1420,939,0,0
203,85,0,0,0,0,0,0,0,0,0,-1,1427,939,0,0
210,85,0,0,0,0,0,0,0,0,0,-1,1434,939,0,0
217,85,0,0,0,0,0,0,0,0,0,-1,1441,939,0,0
224,85,0,0,0,0,0,0,0,0,0,-1,1448,939,0,0
231,85,0,0,0,0,0,0,0,0,0,-1,1455,939,0,0
238,85,0,0,0,0,0,0,0,0,0,-1,1462,939,0,0
245,85,0,0,0,0,0,0,0,0,0,-1,1469,939,0,0
252,85,0,0,0,0,0,0,0,0,0,-1,1476,939,0,0
259,85,0,0,0,0,0,0,0,0,0,-1,1483,939,0,0
266,85,0,0,0,0,0,0,0,0,0,-1,1490,939,0,0
273,85,0,0,0,0,0,0,0,0,0,-1,1497,939,0,0
280,85,0,0,0,0,0,0,0,0,0,-1,1504,939,0,0
287,85,0,0,0,0,0,0,0,0,0,-1,1511,939,0,0
294,85,0,0,0,0,0,0,0,0,0,-1,1518,939,0,0
301,85,0,0,0,0,0,0,0,0,0,-1,1525,939,0,0
308,85,0,0,0,0,0,0,0,0,0,-1,1532,939,0,0
315,85,0,0,0,0,0,0,0,0,0,-1,1539,939,0,0
322,85,0,0,0,0,0,0,0,0,0,-1,1546,939,0,0
329,85,0,0,0,0,0,0,0,0,0,-1,1553,939,0,0
336,85,0,0,0,0,0,0,0,0,0,-1,1560,939,0,0
343,85,0,0,0,0,0,0,0,0,0,-1,1567,939,0,0
350,85,0,0,0,0,0,0,0,0,0,-1,1574,939,0,0
357,85,0,0,0,0,0,0,0,0,0,-1,1581,939,0,0
364,85,0,0,0,0,0,0,0,0,0,-1,1588,939,0,0
371,85,0,0,0,0,0,0,0,0,0,-1,1595,939,0,0
378,85,0,0,0,0,0,0,0,0,0,-1,1602,939,0,0
385,85,0,0,0,0,0,0,0,0,0,-1,1609,939,0,0
392,85,0,0,0,0,0,0,0,0,0,-1,1616,939,0,0
399,85,0,0,0,0,0,0,0,0,0,-1,1623,939,0,0
406,85,0,0,0,0,0,0,0,0,0,-1,1630,939,0,0
413,85,0,0,0,0,0,0,0,0,0,-1,1637,939,0,0
420,85,0,0,0,0,0,0,0,0,0,-1,1644,939,0,0
427,85,0,0,0,0,0,0,0,0,0,-1,1651,939,0,0
434,85,0,0,0,0,0,0,0,0,0,-1,1658,939,0,0
441,85,0,0,0,0,0,0,0,0,0,-1,1665,939,0,0
448,85,0,0,0,0,0,0,0,0,0,-1,1672,939,0,0
455,85,0,0,0,0,0,0,0,0,0,-1,1679,939,0,0
462,85,0,0,0,0,0,0,0,0,0,-1,1686,939,0,0
469,85,0,0,0,0,0,0,0,0,0,-1,1693,939,0,0
476,85,0,0,0,0,0,0,0,0,0,-1,1700,939,0,0
483,85,0,0,0,0,0,0,0,0,0,-1,1707,939,0,0
490,85,0,0,0,0,0,0,0,0,0,-1,1714,939,0,0
497,85,0,0,0,0,0,0,0,0,0,-1,1721,939,0,0
504,85,0,0,0,0,0,0,0,0,0,-1,1728,939,0,0
511,85,0,0,0,0,0,0,0,0,0,-1,1735,939,0,0
518,85,0,0,0,0,0,0,0,0,0,-1,1742,939,0,0
525,85,0,0,0,0,0,0,0,0,0,-1,1749,939,0,0
532,85,0,0,0,0,0,0,0,0,0,-1,1756,939,0,0
539,85,0,0,0,0,0,0,0,0,0,-1,1763,939,0,0
546,85,0,0,0,0,0,0,0,0,0,-1,1770,939,0,0
553,85,0,0,0,0,0,0,0,0,0,-1,1777,939,0,0
560,85,0,0,0,0,0,0,0,0,0,-1,1784,939,0,0
567,85,0,0,0,0,0,0,0,0,0,-1,1791,939,0,0
574,85,0,0,0,0,0,0,0,0,0,-1,1798,939,0,0
581,85,0,0,0,0,0,0,0,0,0,-1,1805,939,0,0
588,85,0,0,0,0,0,0,0,0,0,-1,1812,939,0,0
595,85,0,0,0,0,0,0,0,0,0,-1,1819,939,0,0
602,85,0,0,0,0,0,0,0,0,0,-1,1826,939,0,0
609,85,0,0,0,0,0,0,0,0,0,-1,1833,939,0,0
616,85,0,0,0,0,0,0,0,0,0,-1,1840,939,0,0
623,85,0,0,0,0,0,0,0,0,0,-1,1847,939,0,0
630,85,0,0,0,0,0,0,0,0,0,-1,1854,939,0,0
637,85,76.5336,2.13599,0.00815138,0.00161578,-0.00432096,0.0103011,-0.00053391,-0.461648,0.0070521,0.0491394,1861,939,76.5336,-2.13598
644,85,76.5461,1.89575,0.00555398,0.00192294,-0.00326009,0.00746998,6.92671e-06,-0.531338,0.00497768,0.0400215,1868,939,76.5462,-1.89573
651,85,76.5472,1.86511,0.00358016,0.00207497,-0.00229721,0.00524491,0.000410217,-0.627101,0.0033682,0.0384075,1875,939,76.5473,-1.86514
658,85,76.4172,2.24762,0.00210698,0.00223718,-0.00130294,0.00347665,0.000867513,-0.810359,0.00208951,0.0375945,1882,939,76.4173,-2.24763
665,85,76.4519,2.21643,0.000991145,0.00241823,-0.000329585,0.00249067,0.000918705,-1.35444,0.00145438,0.0417804,1889,939,76.452,-2.21644
672,85,76.6083,2.18048,-0.000221897,0.00212349,0.000489287,0.00222147,-0.000319877,1.37316,0.00159831,0.0435503,1896,939,76.6082,-2.18046
679,85,76.5624,2.31299,-0.001209,0.00152056,0.00102035,0.00185982,-0.00154826,1.2498,0.00197039,0.0398684,1903,939,76.5624,-2.31301
686,85,76.474,2.18695,-0.00185409,0.000955296,0.00105636,0.00130817,-0.00220697,1.2484,0.00205147,0.0352224,1910,939,76.474,-2.18697
693,85,76.45,2.16669,-0.00260939,0.000527293,0.000942742,0.00078883,-0.00287092,1.30018,0.00222402,0.0323894,1917,939,76.4499,-2.16667
700,85,76.4601,2.2597,-0.00339988,0.000434865,0.00074452,0.000574342,-0.00353936,1.38561,0.00257248,0.0467113,1924,939,76.4601,-2.25969
707,85,76.5555,2.35712,0,0,0,0,0,0,0,-1,1931,939,76.5555,-2.35713
714,85,73.0433,4.21136,0,0,0,0,0,0,0,-1,1938,939,73.0434,-4.21137
721,85,72.7115,5.00519,-0.00535899,0.00160141,-0.000536516,0.00164252,-0.00540011,-1.49432,0.00425461,0.0351898,1945,939,72.7116,-5.00516
728,85,72.3966,5.84479,-0.00576966,0.00234932,-0.000823935,0.00243209,-0.00585243,-1.47067,0.00491707,0.0381133,1952,939,72.3966,-5.8448
735,85,72.3772,6.33063,-0.00571234,0.00384281,-0.000985159,0.00394333,-0.00581286,-1.46912,0.0056671,0.0362776,1959,939,72.3773,-6.33065
742,85,72.4315,6.90503,-0.0057472,0.00610736,-0.00110301,0.00620911,-0.00584896,-1.4788,0.00696277,0.0245565,1966,939,72.4315,-6.905
749,85,72.3062,7.50824,-0.00492495,0.00929701,-0.000743072,0.00933573,-0.00496367,-1.51874,0.0083834,0.0167795,1973,939,72.3061,-7.50821
756,85,72.1426,8.07788,-0.00273853,0.0132211,0.000847928,0.013266,-0.00278345,1.51787,0.00990307,0.0141057,1980,939,72.1426,-8.07788
763,85,72.075,8.6615,0.000687959,0.0175425,0.00358079,0.0182717,-4.12418e-05,1.3699,0.0121949,0.0146482,1987,939,72.075,-8.66152
770,85,71.9631,9.21393,0.00537098,0.0213899,0.00737392,0.0242674,0.00249346,1.19874,0.0154145,0.0219071,1994,939,71.9632,-9.21391
777,85,71.8259,9.83826,0.0118116,0.0242653,0.0131494,0.0325877,0.00348927,1.00653,0.0206605,0.0440717,2001,939,71.826,-9.83829
784,85,72.1653,10.9086,0.0219914,0.0252647,0.0215083,0.0451986,0.0020576,0.823372,0.0294705,0.0480112,2008,939,72.1654,-10.9085
791,85,72.3774,11.873,0,0,0,0,0,0,0,-1,2015,939,72.3774,-11.873
798,85,75.4956,11.9659,0,0,0,0,0,0,0,-1,2022,939,75.4955,-11.966
805,85,67.4045,8.44751,0,0,0,0,0,0,0,-1,2029,939,67.4046,-8.4475
812,85,0,0,0,0,0,0,0,0,0,-1,2036,939,0,0
-700,78,0,0,0,0,0,0,0,0,0,-1,524,946,0,0
-693,78,0,0,0,0,0,0,0,0,0,-1,531,946,0,0
-686,78,-54.3117,10.4775,0,0,0,0,0,0,0,-1,538,946,-54.3117,-10.4775
-679,78,-54.9533,10.4633,0,0,0,0,0,0,0,-1,545,946,-54.9533,-10.4633
-672,78,-55.2589,9.60699,0,0,0,0,0,0,0,-1,552,946,-55.2589,-9.60697
-665,78,-55.3729,9.28033,0,0,0,0,0,0,0,-1,559,946,-55.3729,-9.28033
-658,78,-55.4095,8.89587,-0.0261523,0.0431164,0.0215399,0.0492682,-0.032304,1.2926,0.047434,0.0482034,566,946,-55.4095,-8.8959
-651,78,-55.8881,8.97272,-0.0242569,0.0367759,0.0205799,0.0430669,-0.0305479,1.27413,0.0427059,0.0447726,573,946,-55.8881,-8.97273
-644,78,-56.5584,8.49567,-0.0214668,0.0307216,0.0186627,0.0367086,-0.0274538,1.26037,0.0371724,0.0330668,580,946,-56.5584,-8.49568
-637,78,-57.0538,8.01477,-0.0181645,0.0248124,0.0161813,0.0302236,-0.0235756,1.24808,0.0311399,0.0232552,587,946,-57.0538,-8.01475
-630,78,-57.2787,7.49121,-0.0144707,0.0190471,0.0134773,0.023794,-0.0192176,1.23215,0.0248796,0.0196793,594,946,-57.2787,-7.49119
-623,78,-57.3405,6.92578,-0.010867,0.013248,0.0109051,0.0174479,-0.015067,1.20317,0.0187893,0.014654,601,946,-57.3405,-6.9258
-616,78,-57.3878,6.33118,-0.00747852,0.00804065,0.0083274,0.0116634,-0.0111012,1.16046,0.0131445,0.0138224,608,946,-57.3878,-6.33116
-609,78,-57.4117,5.77325,-0.00525958,0.00462944,0.00633354,0.00771997,-0.00835011,1.11682,0.00928044,0.0133884,615,946,-57.4117,-5.77323
-602,78,-57.4194,5.17236,-0.00400704,0.00251936,0.00527314,0.00545733,-0.006945,1.06247,0.00717764,0.0184049,622,946,-57.4194,-5.17238
-595,78,-57.3067,4.50061,-0.00315265,0.00113208,0.00443312,0.00391336,-0.00593393,1.01048,0.00572509,0.018185,629,946,-57.3067,-4.50061
-588,78,-57.2975,3.91425,-0.00211905,3.5024e-05,0.0037687,0.00287756,-0.00496159,0.924581,0.00457894,0.015368,636,946,-57.2975,-3.91422
-581,78,-57.2695,3.24939,0,0,0,0,0,0,0,-1,643,946,-57.2695,-3.24936
-574,78,-60.0367,0.113342,0,0,0,0,0,0,0,-1,650,946,-60.0368,-0.113372
-567,78,-60.0057,0.267883,-0.000579996,-0.00180326,0.00305317,0.0019222,-0.00430546,0.686543,0.00368225,0.0357346,657,946,-60.0057,-0.267861
-560,78,-60.0382,0.214172,-0.00055829,-0.00197124,0.00286732,0.00168831,-0.00421784,0.66461,0.00351262,0.0322421,664,946,-60.0382,-0.214162
-553,78,-60.1209,0.0722046,-0.000432617,-0.0016993,0.00269548,0.00170293,-0.00383484,0.670009,0.00327525,0.0408607,671,946,-60.1209,-0.0721806
-546,78,-60.2033,0.386841,4.02106e-05,-0.00119657,0.00251386,0.00201063,-0.00316698,0.664797,0.00301404,0.0408761,678,946,-60.2033,-0.386851
-539,78,-60.1833,0.699158,0,0,0,0,0,0,0,-1,685,946,-60.1834,-0.699166
-532,78,-59.9796,0.366638,0.00269602,-0.00104781,0.00191518,0.00350216,-0.00185395,0.398411,0.00314078,0.042716,692,946,-59.9796,-0.366656
-525,78,-59.9352,0.392944,0.00406355,-0.00146963,0.00166061,0.00452367,-0.00192975,0.270297,0.00382489,0.0403211,699,946,-59.9352,-0.392954
-518,78,-59.8571,0.434937,0.00504114,-0.00186656,0.00144748,0.00533219,-0.00215761,0.198428,0.00445183,0.0407372,706,946,-59.857,-0.434946
-511,78,0,0,0,0,0,0,0,0,0,-1,713,946,0,0
-504,78,0,0,0,0,0,0,0,0,0,-1,720,946,0,0
-497,78,0,0,0,0,0,0,0,0,0,-1,727,946,0,0
-490,78,0,0,0,0,0,0,0,0,0,-1,734,946,0,0
-483,78,0,0,0,0,0,0,0,0,0,-1,741,946,0,0
-476,78,0,0,0,0,0,0,0,0,0,-1,748,946,0,0
-469,78,0,0,0,0,0,0,0,0,0,-1,755,946,0,0
-462,78,0,0,0,0,0,0,0,0,0,-1,762,946,0,0
-455,78,0,0,0,0,0,0,0,0,0,-1,769,946,0,0
-448,78,0,0,0,0,0,0,0,0,0,-1,776,946,0,0
-441,78,0,0,0,0,0,0,0,0,0,-1,783,946,0,0
-434,78,0,0,0,0,0,0,0,0,0,-1,790,946,0,0
-427,78,0,0,0,0,0,0,0,0,0,-1,797,946,0,0
-420,78,0,0,0,0,0,0,0,0,0,-1,804,946,0,0
-413,78,0,0,0,0,0,0,0,0,0,-1,811,946,0,0
-406,78,0,0,0,0,0,0,0,0,0,-1,818,946,0,0
-399,78,0,0,0,0,0,0,0,0,0,-1,825,946,0,0
-392,78,0,0,0,0,0,0,0,0,0,-1,832,946,0,0
-385,78,0,0,0,0,0,0,0,0,0,-1,839,946,0,0
-378,78,0,0,0,0,0,0,0,0,0,-1,846,946,0,0
-371,78,0,0,0,0,0,0,0,0,0,-1,853,946,0,0
-364,78,0,0,0,0,0,0,0,0,0,-1,860,946,0,0
-357,78,0,0,0,0,0,0,0,0,0,-1,867,946,0,0
-350,78,0,0,0,0,0,0,0,0,0,-1,874,946,0,0
-343,78,0,0,0,0,0,0,0,0,0,-1,881,946,0,0
-336,78,0,0,0,0,0,0,0,0,0,-1,888,946,0,0
-329,78,0,0,0,0,0,0,0,0,0,-1,895,946,0,0
-322,78,0,0,0,0,0,0,0,0,0,-1,902,946,0,0
-315,78,0,0,0,0,0,0,0,0,0,-1,909,946,0,0
-308,78,0,0,0,0,0,0,0,0,0,-1,916,946,0,0
-301,78,0,0,0,0,0,0,0,0,0,-1,923,946,0,0
-294,78,0,0,0,0,0,0,0,0,0,-1,930,946,0,0
-287,78,0,0,0,0,0,0,0,0,0,-1,937,946,0,0
-280,78,0,0,0,0,0,0,0,0,0,-1,944,946,0,0
-273,78,0,0,0,0,0,0,0,0,0,-1,951,946,0,0
-266,78,0,0,0,0,0,0,0,0,0,-1,958,946,0,0
-259,78,0,0,0,0,0,0,0,0,0,-1,965,946,0,0
-252,78,0,0,0,0,0,0,0,0,0,-1,972,946,0,0
-245,78,0,0,0,0,0,0,0,0,0,-1,979,946,0,0
-238,78,0,0,0,0,0,0,0,0,0,-1,986,946,0,0
-231,78,0,0,0,0,0,0,0,0,0,-1,993,946,0,0
-224,78,0,0,0,0,0,0,0,0,0,-1,1000,946,0,0
-217,78,0,0,0,0,0,0,0,0,0,-1,1007,946,0,0
-210,78,0,0,0,0,0,0,0,0,0,-1,1014,946,0,0
-203,78,0,0,0,0,0,0,0,0,0,-1,1021,946,0,0
-196,78,0,0,0,0,0,0,0,0,0,-1,1028,946,0,0
-189,78,0,0,0,0,0,0,0,0,0,-1,1035,946,0,0
-182,78,0,0,0,0,0,0,0,0,0,-1,1042,946,0,0
-175,78,0,0,0,0,0,0,0,0,0,-1,1049,946,0,0
-168,78,0,0,0,0,0,0,0,0,0,-1,1056,946,0,0
-161,78,0,0,0,0,0,0,0,0,0,-1,1063,946,0,0
-154,78,0,0,0,0,0,0,0,0,0,-1,1070,946,0,0
-147,78,0,0,0,0,0,0,0,0,0,-1,1077,946,0,0
-140,78,0,0,0,0,0,0,0,0,0,-1,1084,946,0,0
-133,78,0,0,0,0,0,0,0,0,0,-1,1091,946,0,0
-126,78,0,0,0,0,0,0,0,0,0,-1,1098,946,0,0
-119,78,0,0,0,0,0,0,0,0,0,-1,1105,946,0,0
-112,78,0,0,0,0,0,0,0,0,0,-1,1112,946,0,0
-105,78,0,0,0,0,0,0,0,0,0,-1,1119,946,0,0
-98,78,0,0,0,0,0,0,0,0,0,-1,1126,946,0,0
-91,78,0,0,0,0,0,0,0,0,0,-1,1133,946,0,0
-84,78,0,0,0,0,0,0,0,0,0,-1,1140,946,0,0
-77,78,0,0,0,0,0,0,0,0,0,-1,1147,946,0,0
-70,78,0,0,0,0,0,0,0,0,0,-1,1154,946,0,0
-63,78,0,0,0,0,0,0,0,0,0,-1,1161,946,0,0
-56,78,0,0,0,0,0,0,0,0,0,-1,1168,946,0,0
-49,78,0,0,0,0,0,0,0,0,0,-1,1175,946,0,0
-42,78,0,0,0,0,0,0,0,0,0,-1,1182,946,0,0
-35,78,0,0,0,0,0,0,0,0,0,-1,1189,946,0,0
-28,78,0,0,0,0,0,0,0,0,0,-1,1196,946,0,0
-21,78,0,0,0,0,0,0,0,0,0,-1,1203,946,0,0
-14,78,0,0,0,0,0,0,0,0,0,-1,1210,946,0,0
-7,78,0,0,0,0,0,0,0,0,0,-1,1217,946,0,0
0,78,0,0,0,0,0,0,0,0,0,-1,1224,946,0,0
7,78,0,0,0,0,0,0,0,0,0,-1,1231,946,0,0
14,78,0,0,0,0,0,0,0,0,0,-1,1238,946,0,0
21,78,0,0,0,0,0,0,0,0,0,-1,1245,946,0,0
28,78,0,0,0,0,0,0,0,0,0,-1,1252,946,0,0
35,78,0,0,0,0,0,0,0,0,0,-1,1259,946,0,0
42,78,0,0,0,0,0,0,0,0,0,-1,1266,946,0,0
49,78,0,0,0,0,0,0,0,0,0,-1,1273,946,0,0
56,78,0,0,0,0,0,0,0,0,0,-1,1280,946,0,0
63,78,0,0,0,0,0,0,0,0,0,-1,1287,946,0,0
70,78,0,0,0,0,0,0,0,0,0,-1,1294,946,0,0
77,78,0,0,0,0,0,0,0,0,0,-1,1301,946,0,0
84,78,0,0,0,0,0,0,0,0,0,-1,1308,946,0,0
91,78,0,0,0,0,0,0,0,0,0,-1,1315,946,0,0
98,78,0,0,0,0,0,0,0,0,0,-1,1322,946,0,0
105,78,0,0,0,0,0,0,0,0,0,-1,1329,946,0,0
112,78,0,0,0,0,0,0,0,0,0,-1,1336,946,0,0
119,78,0,0,0,0,0,0,0,0,0,-1,1343,946,0,0
126,78,0,0,0,0,0,0,0,0,0,-1,1350,946,0,0
133,78,0,0,0,0,0,0,0,0,0,-1,1357,946,0,0
140,78,0,0,0,0,0,0,0,0,0,-1,1364,946,0,0
147,78,0,0,0,0,0,0,0,0,0,-1,1371,946,0,0
154,78,0,0,0,0,0,0,0,0,0,-1,1378,946,0,0
161,78,0,0,0,0,0,0,0,0,0,-1,1385,946,0,0
168,78,0,0,0,0,0,0,0,0,0,-1,1392,946,0,0
175,78,0,0,0,0,0,0,0,0,0,-1,1399,946,0,0
182,78,0,0,0,0,0,0,0,0,0,-1,1406,946,0,0
189,78,0,0,0,0,0,0,0,0,0,-1,1413,946,0,0
196,78,0,0,0,0,0,0,0,0,0,-1,1420,946,0,0
203,78,0,0,0,0,0,0,0,0,0,-1,1427,946,0,0
210,78,0,0,0,0,0,0,0,0,0,-1,1434,946,0,0
217,78,0,0,0,0,0,0,0,0,0,-1,1441,946,0,0
224,78,0,0,0,0,0,0,0,0,0,-1,1448,946,0,0
231,78,0,0,0,0,0,0,0,0,0,-1,1455,946,0,0
238,78,0,0,0,0,0,0,0,0,0,-1,1462,946,0,0
245,78,0,0,0,0,0,0,0,0,0,-1,1469,946,0,0
252,78,0,0,0,0,0,0,0,0,0,-1,1476,946,0,0
259,78,0,0,0,0,0,0,0,0,0,-1,1483,946,0,0
266,78,0,0,0,0,0,0,0,0,0,-1,1490,946,0,0
273,78,0,0,0,0,0,0,0,0,0,-1,1497,946,0,0
280,78,0,0,0,0,0,0,0,0,0,-1,1504,946,0,0
287,78,0,0,0,0,0,0,0,0,0,-1,1511,946,0,0
294,78,0,0,0,0,0,0,0,0,0,-1,1518,946,0,0
301,78,0,0,0,0,0,0,0,0,0,-1,1525,946,0,0
308,78,0,0,0,0,0,0,0,0,0,-1,1532,946,0,0
315,78,0,0,0,0,0,0,0,0,0,-1,1539,946,0,0
322,78,0,0,0,0,0,0,0,0,0,-1,1546,946,0,0
329,78,0,0,0,0,0,0,0,0,0,-1,1553,946,0,0
336,78,0,0,0,0,0,0,0,0,0,-1,1560,946,0,0
343,78,0,0,0,0,0,0,0,0,0,-1,1567,946,0,0
350,78,0,0,0,0,0,0,0,0,0,-1,1574,946,0,0
357,78,0,0,0,0,0,0,0,0,0,-1,1581,946,0,0
364,78,0,0,0,0,0,0,0,0,0,-1,1588,946,0,0
371,78,0,0,0,0,0,0,0,0,0,-1,1595,946,0,0
378,78,0,0,0,0,0,0,0,0,0,-1,1602,946,0,0
385,78,0,0,0,0,0,0,0,0,0,-1,1609,946,0,0
392,78,0,0,0,0,0,0,0,0,0,-1,1616,946,0,0
399,78,0,0,0,0,0,0,0,0,0,-1,1623,946,0,0
406,78,0,0,0,0,0,0,0,0,0,-1,1630,946,0,0
413,78,0,0,0,0,0,0,0,0,0,-1,1637,946,0,0
420,78,0,0,0,0,0,0,0,0,0,-1,1644,946,0,0
427,78,0,0,0,0,0,0,0,0,0,-1,1651,946,0,0
434,78,0,0,0,0,0,0,0,0,0,-1,1658,946,0,0
441,78,0,0,0,0,0,0,0,0,0,-1,1665,946,0,0
448,78,0,0,0,0,0,0,0,0,0,-1,1672,946,0,0
455,78,0,0,0,0,0,0,0,0,0,-1,1679,946,0,0
462,78,0,0,0,0,0,0,0,0,0,-1,1686,946,0,0
469,78,0,0,0,0,0,0,0,0,0,-1,1693,946,0,0
476,78,0,0,0,0,0,0,0,0,0,-1,1700,946,0,0
483,78,0,0,0,0,0,0,0,0,0,-1,1707,946,0,0
490,78,0,0,0,0,0,0,0,0,0,-1,1714,946,0,0
497,78,0,0,0,0,0,0,0,0,0,-1,1721,946,0,0
504,78,0,0,0,0,0,0,0,0,0,-1,1728,946,0,0
511,78,0,0,0,0,0,0,0,0,0,-1,1735,946,0,0
518,78,0,0,0,0,0,0,0,0,0,-1,1742,946,0,0
525,78,0,0,0,0,0,0,0,0,0,-1,1749,946,0,0
532,78,0,0,0,0,0,0,0,0,0,-1,1756,946,0,0
539,78,0,0,0,0,0,0,0,0,0,-1,1763,946,0,0
546,78,0,0,0,0,0,0,0,0,0,-1,1770,946,0,0
553,78,0,0,0,0,0,0,0,0,0,-1,1777,946,0,0
560,78,0,0,0,0,0,0,0,0,0,-1,1784,946,0,0
567,78,0,0,0,0,0,0,0,0,0,-1,1791,946,0,0
574,78,0,0,0,0,0,0,0,0,0,-1,1798,946,0,0
581,78,0,0,0,0,0,0,0,0,0,-1,1805,946,0,0
588,78,0,0,0,0,0,0,0,0,0,-1,1812,946,0,0
595,78,0,0,0,0,0,0,0,0,0,-1,1819,946,0,0
602,78,0,0,0,0,0,0,0,0,0,-1,1826,946,0,0
609,78,0,0,0,0,0,0,0,0,0,-1,1833,946,0,0
616,78,0,0,0,0,0,0,0,0,0,-1,1840,946,0,0
623,78,0,0,0,0,0,0,0,0,0,-1,1847,946,0,0
630,78,0,0,0,0,0,0,0,0,0,-1,1854,946,0,0
637,78,76.3878,2.02728,0.00824295,0.00252004,-0.00428573,0.0105347,0.000228305,-0.491049,0.00694828,0.0460451,1861,946,76.3878,-2.02726
644,78,76.469,1.98932,0.00552605,0.0024179,-0.00317558,0.00750743,0.000436518,-0.55784,0.00486598,0.0434134,1868,946,76.469,-1.98935
651,78,76.5337,2.10443,0.00349905,0.00230422,-0.00221241,0.00519329,0.00060998,-0.653529,0.00327784,0.0399506,1875,946,76.5337,-2.10443
658,78,76.5146,2.14368,0.00203511,0.0023106,-0.00121226,0.00339292,0.000952792,-0.841968,0.00202067,0.0369979,1882,946,76.5146,-2.14366
665,78,76.5052,2.12128,0.000924351,0.00237897,-0.000242409,0.0024183,0.000885018,-1.40994,0.00141283,0.0420974,1889,946,76.5053,-2.12125
672,78,76.5522,2.18567,-0.000325179,0.00205434,0.000641126,0.00221609,-0.000486926,1.32367,0.00166363,0.0429329,1896,946,76.5522,-2.18565
679,78,76.4082,2.45355,-0.00135874,0.00141958,0.00125622,0.00190335,-0.00184251,1.2032,0.00216277,0.040157,1903,946,76.4082,-2.45356
686,78,76.4323,2.17639,-0.00200215,0.000771563,0.0013557,0.00132411,-0.0025547,1.18378,0.00227669,0.0378792,1910,946,76.4323,-2.17639
693,78,76.4468,2.10059,-0.00275687,0.000268253,0.00125847,0.000723328,-0.00321194,1.22382,0.00241873,0.0337263,1917,946,76.4468,-2.1006
700,78,76.3912,2.18951,-0.0035501,0.000138614,0.0010461,0.000414627,-0.00382612,1.31282,0.00269959,0.0322102,1924,946,76.3912,-2.18949
707,78,76.3995,2.40533,0,0,0,0,0,0,0,-1,1931,946,76.3995,-2.40531
714,78,73.4829,4.34583,0,0,0,0,0,0,0,-1,1938,946,73.4829,-4.34583
721,78,73.2611,5.08478,-0.00568134,0.00138594,-0.000277305,0.0013968,-0.0056922,-1.53164,0.00433606,0.032475,1945,946,73.2611,-5.08478
728,78,73.1396,5.96881,-0.00608021,0.00227288,-0.000596712,0.00231529,-0.00612262,-1.49984,0.00503422,0.0464927,1952,946,73.1396,-5.96882
735,78,73.1362,6.4245,-0.00606565,0.00390526,-0.000829855,0.00397386,-0.00613424,-1.48832,0.00588018,0.0321251,1959,946,73.1362,-6.4245
742,78,73.1064,6.92767,-0.00629642,0.00622776,-0.00103162,0.00631217,-0.00638083,-1.48916,0.00732834,0.024767,1966,946,73.1065,-6.92769
749,78,72.9554,7.487,-0.0057626,0.00943536,-0.000829108,0.00948046,-0.00580769,-1.51646,0.00891112,0.0183672,1973,946,72.9554,-7.48697
756,78,72.8711,8.00647,-0.00396386,0.0134045,0.000525316,0.0134204,-0.00397973,1.54059,0.0105273,0.0160936,1980,946,72.8711,-8.0065
763,78,72.7461,8.5069,-0.000927719,0.017936,0.0030176,0.018407,-0.00139868,1.41597,0.0127631,0.0185752,1987,946,72.7462,-8.50688
770,78,72.6274,9.00305,0.0033713,0.0219587,0.0065427,0.0240307,0.00129927,1.2641,0.0156054,0.0255054,1994,946,72.6274,-9.00308
777,78,72.4287,9.71521,0.00927392,0.0249403,0.0118017,0.0312718,0.00294243,1.07838,0.0199396,0.044361,2001,946,72.4287,-9.71521
784,78,72.6526,10.6243,0,0,0,0,0,0,0,-1,2008,946,72.6525,-10.6243
791,78,71.0723,11.4932,0,0,0,0,0,0,0,-1,2015,946,71.0722,-11.4931
798,78,67.9287,7.90448,0,0,0,0,0,0,0,-1,2022,946,67.9287,-7.90446
805,78,68.5852,7.34106,0,0,0,0,0,0,0,-1,2029,946,68.5853,-7.34105
812,78,0,0,0,0,0,0,0,0,0,-1,2036,946,0,0
-700,71,0,0,0,0,0,0,0,0,0,-1,524,953,0,0
-693,71,0,0,0,0,0,0,0,0,0,-1,531,953,0,0
-686,71,-55.2553,9.84918,0,0,0,0,0,0,0,-1,538,953,-55.2553,-9.84919
-679,71,-56.4131,10.9778,-0.0184289,0.0761005,0.0108491,0.0773296,-0.0196581,1.45798,0.0592038,0.0477249,545,953,-56.4131,-10.9778
-672,71,-56.6174,9.32544,-0.0219325,0.0649027,0.0167578,0.0680244,-0.0250542,1.38662,0.0556151,0.0454336,552,953,-56.6174,-9.32547
-665,71,-56.8321,7.37109,0,0,0,0,0,0,0,-1,559,953,-56.8321,-7.37108
-658,71,-58.0793,8.81,0,0,0,0,0,0,0,-1,566,953,-58.0793,-8.80998
-651,71,-57.7487,8.62756,-0.0220155,0.0401514,0.0197693,0.0459055,-0.0277696,1.28756,0.0429638,0.0490153,573,953,-57.7487,-8.62759
-644,71,-57.1171,8.60486,-0.019712,0.0332107,0.0180628,0.0387879,-0.0252892,1.27132,0.0372675,0.0371225,580,953,-57.1171,-8.60484
-637,71,-57.7211,7.94562,-0.0168393,0.0265911,0.0157286,0.0316889,-0.0219371,1.25737,0.0311312,0.0216851,587,953,-57.721,-7.94561
-630,71,-57.9083,7.39636,-0.0135401,0.0202361,0.0131082,0.0247263,-0.0180303,1.24077,0.0247862,0.0186761,594,953,-57.9083,-7.39638
-623,71,-57.9662,6.86255,-0.0104003,0.0139994,0.0106415,0.0179884,-0.0143892,1.21216,0.0187317,0.0155822,601,953,-57.9662,-6.86252
-616,71,-58.0162,6.27179,-0.00752416,0.00857649,0.00819991,0.0120173,-0.010965,1.17349,0.0132735,0.0155079,608,953,-58.0162,-6.27178
-609,71,-58.0174,5.7594,-0.00564052,0.00506614,0.00629308,0.00797483,-0.00854921,1.13784,0.00954208,0.0164421,615,953,-58.0174,-5.75937
-602,71,-57.9933,5.26154,-0.00445421,0.00285128,0.00522044,0.00557,-0.00717293,1.09066,0.00737651,0.0192181,622,953,-57.9933,-5.26153
-595,71,-57.962,4.74323,-0.00354791,0.00128285,0.00424806,0.0037542,-0.00601925,1.0439,0.00569299,0.0228346,629,953,-57.962,-4.7432
-588,71,-57.9291,4.17114,-0.00243107,1.39811e-05,0.00351767,0.00251551,-0.00493259,0.952638,0.00437499,0.0297413,636,953,-57.9292,-4.17114
-581,71,-57.7177,3.49329,0,0,0,0,0,0,0,-1,643,953,-57.7177,-3.49329
-574,71,-60.0378,0.104919,0,0,0,0,0,0,0,-1,650,953,-60.0378,-0.104914
-567,71,-60.0201,0.215881,-0.000749545,-0.00179127,0.00269533,0.00147478,-0.0040156,0.689951,0.00328107,0.0206246,657,953,-60.0201,-0.215858
-560,71,-60.0588,0.340332,-0.000617167,-0.00178369,0.0024934,0.00136028,-0.00376114,0.670502,0.00306324,0.0278245,664,953,-60.0588,-0.34031
-553,71,-60.131,0.433594,-0.000285949,-0.0013908,0.00227868,0.00150631,-0.00318306,0.666476,0.0027645,0.0414449,671,953,-60.131,-0.433622
-546,71,-60.161,0.502686,0.000467317,-0.000826971,0.00202562,0.00194665,-0.00230631,0.630782,0.00245837,0.0420108,678,953,-60.161,-0.502662
-539,71,-60.0711,0.222961,0.00175517,-0.000458194,0.00165447,0.00263897,-0.00134199,0.490622,0.00233872,0.0402571,685,953,-60.0711,-0.222948
-532,71,-60.1568,0.403687,0.00357137,-0.000804178,0.00109992,0.00383231,-0.00106512,0.232926,0.00297418,0.0470729,692,953,-60.1568,-0.403686
-525,71,-60.0211,0.464233,0.00505844,-0.0011331,0.000615013,0.00511894,-0.00119359,0.0980545,0.0038723,0.0444246,699,953,-60.0211,-0.464218
-518,71,0,0,0,0,0,0,0,0,0,-1,706,953,0,0
-511,71,0,0,0,0,0,0,0,0,0,-1,713,953,0,0
-504,71,0,0,0,0,0,0,0,0,0,-1,720,953,0,0
-497,71,0,0,0,0,0,0,0,0,0,-1,727,953,0,0
-490,71,0,0,0,0,0,0,0,0,0,-1,734,953,0,0
-483,71,0,0,0,0,0,0,0,0,0,-1,741,953,0,0
-476,71,0,0,0,0,0,0,0,0,0,-1,748,953,0,0
-469,71,0,0,0,0,0,0,0,0,0,-1,755,953,0,0
-462,71,0,0,0,0,0,0,0,0,0,-1,762,953,0,0
-455,71,0,0,0,0,0,0,0,0,0,-1,769,953,0,0
-448,71,0,0,0,0,0,0,0,0,0,-1,776,953,0,0
-441,71,0,0,0,0,0,0,0,0,0,-1,783,953,0,0
-434,71,0,0,0,0,0,0,0,0,0,-1,790,953,0,0
-427,71,0,0,0,0,0,0,0,0,0,-1,797,953,0,0
-420,71,0,0,0,0,0,0,0,0,0,-1,804,953,0,0
-413,71,0,0,0,0,0,0,0,0,0,-1,811,953,0,0
-406,71,0,0,0,0,0,0,0,0,0,-1,818,953,0,0
-399,71,0,0,0,0,0,0,0,0,0,-1,825,953,0,0
-392,71,0,0,0,0,0,0,0,0,0,-1,832,953,0,0
-385,71,0,0,0,0,0,0,0,0,0,-1,839,953,0,0
-378,71,0,0,0,0,0,0,0,0,0,-1,846,953,0,0
-371,71,0,0,0,0,0,0,0,0,0,-1,853,953,0,0
-364,71,0,0,0,0,0,0,0,0,0,-1,860,953,0,0
-357,71,0,0,0,0,0,0,0,0,0,-1,867,953,0,0
-350,71,0,0,0,0,0,0,0,0,0,-1,874,953,0,0
-343,71,0,0,0,0,0,0,0,0,0,-1,881,953,0,0
-336,71,0,0,0,0,0,0,0,0,0,-1,888,953,0,0
-329,71,0,0,0,0,0,0,0,0,0,-1,895,953,0,0
-322,71,0,0,0,0,0,0,0,0,0,-1,902,953,0,0
-315,71,0,0,0,0,0,0,0,0,0,-1,909,953,0,0
-308,71,0,0,0,0,0,0,0,0,0,-1,916,953,0,0
-301,71,0,0,0,0,0,0,0,0,0,-1,923,953,0,0
-294,71,0,0,0,0,0,0,0,0,0,-1,930,953,0,0
-287,71,0,0,0,0,0,0,0,0,0,-1,937,953,0,0
-280,71,0,0,0,0,0,0,0,0,0,-1,944,953,0,0
-273,71,0,0,0,0,0,0,0,0,0,-1,951,953,0,0
-266,71,0,0,0,0,0,0,0,0,0,-1,958,953,0,0
-259,71,0,0,0,0,0,0,0,0,0,-1,965,953,0,0
-252,71,0,0,0,0,0,0,0,0,0,-1,972,953,0,0
-245,71,0,0,0,0,0,0,0,0,0,-1,979,953,0,0
-238,71,0,0,0,0,0,0,0,0,0,-1,986,953,0,0
-231,71,0,0,0,0,0,0,0,0,0,-1,993,953,0,0
-224,71,0,0,0,0,0,0,0,0,0,-1,1000,953,0,0
-217,71,0,0,0,0,0,0,0,0,0,-1,1007,953,0,0
-210,71,0,0,0,0,0,0,0,0,0,-1,1014,953,0,0
-203,71,0,0,0,0,0,0,0,0,0,-1,1021,953,0,0
-196,71,0,0,0,0,0,0,0,0,0,-1,1028,953,0,0
-189,71,0,0,0,0,0,0,0,0,0,-1,1035,953,0,0
-182,71,0,0,0,0,0,0,0,0,0,-1,1042,953,0,0
-175,71,0,0,0,0,0,0,0,0,0,-1,1049,953,0,0
-168,71,0,0,0,0,0,0,0,0,0,-1,1056,953,0,0
-161,71,0,0,0,0,0,0,0,0,0,-1,1063,953,0,0
-154,71,0,0,0,0,0,0,0,0,0,-1,1070,953,0,0
-147,71,0,0,0,0,0,0,0,0,0,-1,1077,953,0,0
-140,71,0,0,0,0,0,0,0,0,0,-1,1084,953,0,0
-133,71,0,0,0,0,0,0,0,0,0,-1,1091,953,0,0
-126,71,0,0,0,0,0,0,0,0,0,-1,1098,953,0,0
-119,71,0,0,0,0,0,0,0,0,0,-1,1105,953,0,0
-112,71,0,0,0,0,0,0,0,0,0,-1,1112,953,0,0
-105,71,0,0,0,0,0,0,0,0,0,-1,1119,953,0,0
-98,71,0,0,0,0,0,0,0,0,0,-1,1126,953,0,0
-91,71,0,0,0,0,0,0,0,0,0,-1,1133,953,0,0
-84,71,0,0,0,0,0,0,0,0,0,-1,1140,953,0,0
-77,71,0,0,0,0,0,0,0,0,0,-1,1147,953,0,0
-70,71,0,0,0,0,0,0,0,0,0,-1,1154,953,0,0
-63,71,0,0,0,0,0,0,0,0,0,-1,1161,953,0,0
-56,71,0,0,0,0,0,0,0,0,0,-1,1168,953,0,0
-49,71,0,0,0,0,0,0,0,0,0,-1,1175,953,0,0
-42,71,0,0,0,0,0,0,0,0,0,-1,1182,953,0,0
-35,71,0,0,0,0,0,0,0,0,0,-1,1189,953,0,0
-28,71,0,0,0,0,0,0,0,0,0,-1,1196,953,0,0
-21,71,0,0,0,0,0,0,0,0,0,-1,1203,953,0,0
-14,71,0,0,0,0,0,0,0,0,0,-1,1210,953,0,0
-7,71,0,0,0,0,0,0,0,0,0,-1,1217,953,0,0
0,71,0,0,0,0,0,0,0,0,0,-1,1224,953,0,0
7,71,0,0,0,0,0,0,0,0,0,-1,1231,953,0,0
14,71,0,0,0,0,0,0,0,0,0,-1,1238,953,0,0
21,71,0,0,0,0,0,0,0,0,0,-1,1245,953,0,0
28,71,0,0,0,0,0,0,0,0,0,-1,1252,953,0,0
35,71,0,0,0,0,0,0,0,0,0,-1,1259,953,0,0
42,71,0,0,0,0,0,0,0,0,0,-1,1266,953,0,0
49,71,0,0,0,0,0,0,0,0,0,-1,1273,953,0,0
56,71,0,0,0,0,0,0,0,0,0,-1,1280,953,0,0
63,71,0,0,0,0,0,0,0,0,0,-1,1287,953,0,0
70,71,0,0,0,0,0,0,0,0,0,-1,1294,953,0,0
77,71,0,0,0,0,0,0,0,0,0,-1,1301,953,0,0
84,71,0,0,0,0,0,0,0,0,0,-1,1308,953,0,0
91,71,0,0,0,0,0,0,0,0,0,-1,1315,953,0,0
98,71,0,0,0,0,0,0,0,0,0,-1,1322,953,0,0
105,71,0,0,0,0,0,0,0,0,0,-1,1329,953,0,0
112,71,0,0,0,0,0,0,0,0,0,-1,1336,953,0,0
119,71,0,0,0,0,0,0,0,0,0,-1,1343,953,0,0
126,71,0,0,0,0,0,0,0,0,0,-1,1350,953,0,0
133,71,0,0,0,0,0,0,0,0,0,-1,1357,953,0,0
140,71,0,0,0,0,0,0,0,0,0,-1,1364,953,0,0
147,71,0,0,0,0,0,0,0,0,0,-1,1371,953,0,0
154,71,0,0,0,0,0,0,0,0,0,-1,1378,953,0,0
161,71,0,0,0,0,0,0,0,0,0,-1,1385,953,0,0
168,71,0,0,0,0,0,0,0,0,0,-1,1392,953,0,0
175,71,0,0,0,0,0,0,0,0,0,-1,1399,953,0,0
182,71,0,0,0,0,0,0,0,0,0,-1,1406,953,0,0
189,71,0,0,0,0,0,0,0,0,0,-1,1413,953,0,0
196,71,0,0,0,0,0,0,0,0,0,-1,1420,953,0,0
203,71,0,0,0,0,0,0,0,0,0,-1,1427,953,0,0
210,71,0,0,0,0,0,0,0,0,0,-1,1434,953,0,0
217,71,0,0,0,0,0,0,0,0,0,-1,1441,953,0,0
224,71,0,0,0,0,0,0,0,0,0,-1,1448,953,0,0
231,71,0,0,0,0,0,0,0,0,0,-1,1455,953,0,0
238,71,0,0,0,0,0,0,0,0,0,-1,1462,953,0,0
245,71,0,0,0,0,0,0,0,0,0,-1,1469,953,0,0
252,71,0,0,0,0,0,0,0,0,0,-1,1476,953,0,0
259,71,0,0,0,0,0,0,0,0,0,-1,1483,953,0,0
266,71,0,0,0,0,0,0,0,0,0,-1,1490,953,0,0
273,71,0,0,0,0,0,0,0,0,0,-1,1497,953,0,0
280,71,0,0,0,0,0,0,0,0,0,-1,1504,953,0,0
287,71,0,0,0,0,0,0,0,0,0,-1,1511,953,0,0
294,71,0,0,0,0,0,0,0,0,0,-1,1518,953,0,0
301,71,0,0,0,0,0,0,0,0,0,-1,1525,953,0,0
308,71,0,0,0,0,0,0,0,0,0,-1,1532,953,0,0
315,71,0,0,0,0,0,0,0,0,0,-1,1539,953,0,0
322,71,0,0,0,0,0,0,0,0,0,-1,1546,953,0,0
329,71,0,0,0,0,0,0,0,0,0,-1,1553,953,0,0
336,71,0,0,0,0,0,0,0,0,0,-1,1560,953,0,0
343,71,0,0,0,0,0,0,0,0,0,-1,1567,953,0,0
350,71,0,0,0,0,0,0,0,0,0,-1,1574,953,0,0
357,71,0,0,0,0,0,0,0,0,0,-1,1581,953,0,0
364,71,0,0,0,0,0,0,0,0,0,-1,1588,953,0,0
371,71,0,0,0,0,0,0,0,0,0,-1,1595,953,0,0
378,71,0,0,0,0,0,0,0,0,0,-1,1602,953,0,0
385,71,0,0,0,0,0,0,0,0,0,-1,1609,953,0,0
392,71,0,0,0,0,0,0,0,0,0,-1,1616,953,0,0
399,71,0,0,0,0,0,0,0,0,0,-1,1623,953,0,0
406,71,0,0,0,0,0,0,0,0,0,-1,1630,953,0,0
413,71,0,0,0,0,0,0,0,0,0,-1,1637,953,0,0
420,71,0,0,0,0,0,0,0,0,0,-1,1644,953,0,0
427,71,0,0,0,0,0,0,0,0,0,-1,1651,953,0,0
434,71,0,0,0,0,0,0,0,0,0,-1,1658,953,0,0
441,71,0,0,0,0,0,0,0,0,0,-1,1665,953,0,0
448,71,0,0,0,0,0,0,0,0,0,-1,1672,953,0,0
455,71,0,0,0,0,0,0,0,0,0,-1,1679,953,0,0
462,71,0,0,0,0,0,0,0,0,0,-1,1686,953,0,0
469,71,0,0,0,0,0,0,0,0,0,-1,1693,953,0,0
476,71,0,0,0,0,0,0,0,0,0,-1,1700,953,0,0
483,71,0,0,0,0,0,0,0,0,0,-1,1707,953,0,0
490,71,0,0,0,0,0,0,0,0,0,-1,1714,953,0,0
497,71,0,0,0,0,0,0,0,0,0,-1,1721,953,0,0
504,71,0,0,0,0,0,0,0,0,0,-1,1728,953,0,0
511,71,0,0,0,0,0,0,0,0,0,-1,1735,953,0,0
518,71,0,0,0,0,0,0,0,0,0,-1,1742,953,0,0
525,71,0,0,0,0,0,0,0,0,0,-1,1749,953,0,0
532,71,0,0,0,0,0,0,0,0,0,-1,1756,953,0,0
539,71,0,0,0,0,0,0,0,0,0,-1,1763,953,0,0
546,71,0,0,0,0,0,0,0,0,0,-1,1770,953,0,0
553,71,0,0,0,0,0,0,0,0,0,-1,1777,953,0,0
560,71,0,0,0,0,0,0,0,0,0,-1,1784,953,0,0
567,71,0,0,0,0,0,0,0,0,0,-1,1791,953,0,0
574,71,0,0,0,0,0,0,0,0,0,-1,1798,953,0,0
581,71,0,0,0,0,0,0,0,0,0,-1,1805,953,0,0
588,71,0,0,0,0,0,0,0,0,0,-1,1812,953,0,0
595,71,0,0,0,0,0,0,0,0,0,-1,1819,953,0,0
602,71,0,0,0,0,0,0,0,0,0,-1,1826,953,0,0
609,71,0,0,0,0,0,0,0,0,0,-1,1833,953,0,0
616,71,0,0,0,0,0,0,0,0,0,-1,1840,953,0,0
623,71,0,0,0,0,0,0,0,0,0,-1,1847,953,0,0
630,71,0,0,0,0,0,0,0,0,0,-1,1854,953,0,0
637,71,76.3036,1.97931,0.00769346,0.00274087,-0.00356495,0.00955777,0.000876556,-0.481844,0.00610069,0.0418192,1861,953,76.3036,-1.9793
644,71,76.4418,2.17902,0.00506479,0.00250545,-0.00267261,0.00674829,0.000821951,-0.562123,0.00425145,0.04325,1868,953,76.4417,-2.17904
651,71,76.515,2.07556,0.00311818,0.00230428,-0.00188518,0.00463983,0.000782632,-0.679095,0.00286816,0.0389663,1875,953,76.515,-2.07556
658,71,76.5319,2.04211,0.00174859,0.00226323,-0.00100813,0.00304636,0.000965463,-0.910354,0.00179769,0.0375783,1882,953,76.5319,-2.04209
665,71,76.519,2.00989,0.000729323,0.00232106,-0.000143222,0.00233385,0.000716539,-1.48177,0.0013805,0.0417523,1889,953,76.5191,-2.00992
672,71,76.4918,1.96423,-0.000429719,0.00206077,0.000717891,0.00225288,-0.000621834,1.30931,0.0017465,0.0415222,1896,953,76.4918,-1.96426
679,71,76.3821,2.17584,-0.0013962,0.00149451,0.0013746,0.00204379,-0.00194549,1.19064,0.00230344,0.0398985,1903,953,76.3821,-2.17585
686,71,76.3979,2.00317,-0.00195716,0.00083251,0.00153438,0.00151129,-0.00263594,1.1543,0.00242358,0.0382071,1910,953,76.398,-2.00316
693,71,76.4525,1.94171,-0.00263632,0.00030197,0.00146597,0.000908267,-0.00324262,1.17864,0.00251967,0.0346881,1917,953,76.4525,-1.94172
700,71,76.4124,2.05005,-0.00335923,0.000156632,0.00126245,0.000562981,-0.00376558,1.2594,0.00271755,0.0383005,1924,953,76.4124,-2.05006
707,71,76.3872,2.30133,0,0,0,0,0,0,0,-1,1931,953,76.3872,-2.30135
714,71,74.3057,4.48724,0,0,0,0,0,0,0,-1,1938,953,74.3056,-4.48727
721,71,73.9399,5.18451,-0.00561825,0.00148989,-2.34869e-05,0.00148997,-0.00561832,-1.56749,0.00432854,0.0378696,1945,953,73.94,-5.18451
728,71,73.6794,5.94739,-0.0060559,0.00252021,-0.000362873,0.00253554,-0.00607123,-1.52858,0.00510697,0.0371879,1952,953,73.6794,-5.94738
735,71,73.681,6.492,-0.00614906,0.0042635,-0.000651913,0.00430416,-0.00618972,-1.50851,0.00609116,0.0255846,1959,953,73.6811,-6.49203
742,71,73.6898,6.98016,-0.00664582,0.00659874,-0.000927638,0.00666339,-0.00671047,-1.50121,0.00772142,0.0253746,1966,953,73.6898,-6.98017
749,71,73.6075,7.46851,-0.00646776,0.00974303,-0.000863851,0.00978893,-0.00651366,-1.51771,0.00947542,0.0224789,1973,953,73.6076,-7.46851
756,71,73.5356,7.91016,-0.00515733,0.0136436,0.000259582,0.0136472,-0.00516091,1.55699,0.0112213,0.0196625,1980,953,73.5356,-7.91017
763,71,73.4287,8.42102,-0.00265975,0.0182593,0.00247986,0.0185492,-0.0029497,1.4544,0.0134576,0.0231789,1987,953,73.4288,-8.42103
770,71,73.1433,8.86017,0.00117432,0.0223637,0.00573453,0.0238161,-0.000278073,1.32274,0.0159709,0.0272563,1994,953,73.1433,-8.8602
777,71,72.9126,9.56274,0.00656967,0.0253429,0.0105369,0.0300678,0.00184475,1.14926,0.0194595,0.0469887,2001,953,72.9126,-9.56272
784,71,72.8386,10.3944,0.0152148,0.0263399,0.0174634,0.0391053,0.00244941,0.939582,0.0252933,0.0476456,2008,953,72.8387,-10.3944
791,71,72.5503,11.1042,0,0,0,0,0,0,0,-1,2015,953,72.5504,-11.1042
798,71,68.2634,9.50574,0,0,0,0,0,0,0,-1,2022,953,68.2634,-9.50571
805,71,59.978,6.41992,0,0,0,0,0,0,0,-1,2029,953,59.9781,-6.41992
812,71,0,0,0,0,0,0,0,0,0,-1,2036,953,0,0
-700,64,0,0,0,0,0,0,0,0,0,-1,524,960,0,0
-693,64,0,0,0,0,0,0,0,0,0,-1,531,960,0,0
-686,64,-56.2009,9.22595,0,0,0,0,0,0,0,-1,538,960,-56.2009,-9.22593
-679,64,-58.0588,10.5155,-0.0140722,0.0848745,0.00544991,0.0851738,-0.0143715,1.51594,0.0621296,0.0469985,545,960,-58.0588,-10.5155
-672,64,-58.2828,8.67126,-0.0183832,0.0718371,0.0131958,0.0737275,-0.0202736,1.4285,0.0571217,0.0477092,552,960,-58.2828,-8.67129
-665,64,-60.287,7.02545,0,0,0,0,0,0,0,-1,559,960,-60.287,-7.02543
-658,64,-59.5444,7.85278,0,0,0,0,0,0,0,-1,566,960,-59.5444,-7.85278
-651,64,-58.7882,8.31287,-0.0201238,0.0433957,0.0185539,0.0484181,-0.0251462,1.30644,0.043175,0.048331,573,960,-58.7882,-8.31285
-644,64,-58.4184,8.1629,-0.0182212,0.0355977,0.0171156,0.0405797,-0.0232031,1.28755,0.0372778,0.0379104,580,960,-58.4184,-8.1629
-637,64,-58.4036,7.67822,-0.0157213,0.0282827,0.0149689,0.0328919,-0.0203305,1.27209,0.0310119,0.0206361,587,960,-58.4035,-7.67822
-630,64,-58.4879,7.23285,-0.0127975,0.0213471,0.0124748,0.0254192,-0.0168696,1.25528,0.0245812,0.0150581,594,960,-58.4879,-7.23284
-623,64,-58.5377,6.78375,-0.0100852,0.0147169,0.0101414,0.0183357,-0.013704,1.22805,0.0185624,0.0146669,601,960,-58.5377,-6.78374
-616,64,-58.5986,6.28027,-0.00766144,0.00912973,0.00785583,0.012232,-0.0107637,1.1947,0.0132856,0.0183283,608,960,-58.5986,-6.28027
-609,64,-58.5825,5.8266,-0.00606017,0.00554047,0.0060669,0.00813366,-0.00865336,1.16687,0.00969354,0.0190957,615,960,-58.5825,-5.82662
-602,64,-58.5621,5.33289,-0.00495641,0.00323005,0.00502549,0.00561833,-0.00734469,1.12716,0.0075063,0.0193697,622,960,-58.5621,-5.33287
-595,64,-58.5897,4.88458,-0.00402262,0.00151487,0.00398162,0.00359579,-0.00610354,1.08921,0.00566196,0.0298851,629,960,-58.5897,-4.88458
-588,64,-58.415,4.39185,-0.00283092,8.42229e-05,0.00320828,0.00215051,-0.00489721,0.998617,0.00417073,0.0466316,636,960,-58.415,-4.39186
-581,64,-58.095,3.71893,0,0,0,0,0,0,0,-1,643,960,-58.095,-3.71895
-574,64,-59.9962,0.173157,0,0,0,0,0,0,0,-1,650,960,-59.9962,-0.173132
-567,64,-59.9833,0.225342,-0.000877441,-0.00178737,0.00223818,0.000951552,-0.00361636,0.685127,0.00278286,0.0257813,657,960,-59.9833,-0.225338
-560,64,-60.1265,0.411621,-0.000528611,-0.00163941,0.00199459,0.00098646,-0.00315448,0.649611,0.00249761,0.036058,664,960,-60.1265,-0.41164
-553,64,-60.3035,0.659241,8.70161e-05,-0.0011674,0.00172581,0.00129605,-0.00237644,0.611104,0.00215068,0.0429737,671,960,-60.3035,-0.659239
-546,64,-60.2232,0.580017,0.00118464,-0.000577949,0.00138959,0.00194884,-0.00134215,0.502801,0.00191078,0.042519,678,960,-60.2232,-0.580043
-539,64,-60.03,0.256592,0.00278446,-0.000287266,0.000890854,0.00302413,-0.00052693,0.262805,0.00221274,0.042842,685,960,-60.03,-0.25657
-532,64,-59.9149,0.205444,0.00489219,-0.000695036,0.000122501,0.00489487,-0.00069772,0.0219112,0.00351895,0.0433728,692,960,-59.9148,-0.205466
-525,64,-60.039,0.414368,0.00663616,-0.000899655,-0.000609948,0.00668521,-0.000948705,-0.0802437,0.00480437,0.0422414,699,960,-60.039,-0.414363
-518,64,0,0,0,0,0,0,0,0,0,-1,706,960,0,0
-511,64,0,0,0,0,0,0,0,0,0,-1,713,960,0,0
-504,64,0,0,0,0,0,0,0,0,0,-1,720,960,0,0
-497,64,0,0,0,0,0,0,0,0,0,-1,727,960,0,0
-490,64,0,0,0,0,0,0,0,0,0,-1,734,960,0,0
-483,64,0,0,0,0,0,0,0,0,0,-1,741,960,0,0
-476,64,0,0,0,0,0,0,0,0,0,-1,748,960,0,0
-469,64,0,0,0,0,0,0,0,0,0,-1,755,960,0,0
-462,64,0,0,0,0,0,0,0,0,0,-1,762,960,0,0
-455,64,0,0,0,0,0,0,0,0,0,-1,769,960,0,0
-448,64,0,0,0,0,0,0,0,0,0,-1,776,960,0,0
-441,64,0,0,0,0,0,0,0,0,0,-1,783,960,0,0
-434,64,0,0,0,0,0,0,0,0,0,-1,790,960,0,0
-427,64,0,0,0,0,0,0,0,0,0,-1,797,960,0,0
-420,64,0,0,0,0,0,0,0,0,0,-1,804,960,0,0
-413,64,0,0,0,0,0,0,0,0,0,-1,811,960,0,0
-406,64,0,0,0,0,0,0,0,0,0,-1,818,960,0,0
-399,64,0,0,0,0,0,0,0,0,0,-1,825,960,0,0
-392,64,0,0,0,0,0,0,0,0,0,-1,832,960,0,0
-385,64,0,0,0,0,0,0,0,0,0,-1,839,960,0,0
-378,64,0,0,0,0,0,0,0,0,0,-1,846,960,0,0
-371,64,0,0,0,0,0,0,0,0,0,-1,853,960,0,0
-364,64,0,0,0,0,0,0,0,0,0,-1,860,960,0,0
-357,64,0,0,0,0,0,0,0,0,0,-1,867,960,0,0
-350,64,0,0,0,0,0,0,0,0,0,-1,874,960,0,0
-343,64,0,0,0,0,0,0,0,0,0,-1,881,960,0,0
-336,64,0,0,0,0,0,0,0,0,0,-1,888,960,0,0
-329,64,0,0,0,0,0,0,0,0,0,-1,895,960,0,0
-322,64,0,0,0,0,0,0,0,0,0,-1,902,960,0,0
-315,64,0,0,0,0,0,0,0,0,0,-1,909,960,0,0
-308,64,0,0,0,0,0,0,0,0,0,-1,916,960,0,0
-301,64,0,0,0,0,0,0,0,0,0,-1,923,960,0,0
-294,64,0,0,0,0,0,0,0,0,0,-1,930,960,0,0
-287,64,0,0,0,0,0,0,0,0,0,-1,937,960,0,0
-280,64,0,0,0,0,0,0,0,0,0,-1,944,960,0,0
-273,64,0,0,0,0,0,0,0,0,0,-1,951,960,0,0
-266,64,0,0,0,0,0,0,0,0,0,-1,958,960,0,0
-259,64,0,0,0,0,0,0,0,0,0,-1,965,960,0,0
-252,64,0,0,0,0,0,0,0,0,0,-1,972,960,0,0
-245,64,0,0,0,0,0,0,0,0,0,-1,979,960,0,0
-238,64,0,0,0,0,0,0,0,0,0,-1,986,960,0,0
-231,64,0,0,0,0,0,0,0,0,0,-1,993,960,0,0
-224,64,0,0,0,0,0,0,0,0,0,-1,1000,960,0,0
-217,64,0,0,0,0,0,0,0,0,0,-1,1007,960,0,0
-210,64,0,0,0,0,0,0,0,0,0,-1,1014,960,0,0
-203,64,0,0,0,0,0,0,0,0,0,-1,1021,960,0,0
-196,64,0,0,0,0,0,0,0,0,0,-1,1028,960,0,0
-189,64,0,0,0,0,0,0,0,0,0,-1,1035,960,0,0
-182,64,0,0,0,0,0,0,0,0,0,-1,1042,960,0,0
-175,64,0,0,0,0,0,0,0,0,0,-1,1049,960,0,0
-168,64,0,0,0,0,0,0,0,0,0,-1,1056,960,0,0
-161,64,0,0,0,0,0,0,0,0,0,-1,1063,960,0,0
-154,64,0,0,0,0,0,0,0,0,0,-1,1070,960,0,0
-147,64,0,0,0,0,0,0,0,0,0,-1,1077,960,0,0
-140,64,0,0,0,0,0,0,0,0,0,-1,1084,960,0,0
-133,64,0,0,0,0,0,0,0,0,0,-1,1091,960,0,0
-126,64,0,0,0,0,0,0,0,0,0,-1,1098,960,0,0
-119,64,0,0,0,0,0,0,0,0,0,-1,1105,960,0,0
-112,64,0,0,0,0,0,0,0,0,0,-1,1112,960,0,0
-105,64,0,0,0,0,0,0,0,0,0,-1,1119,960,0,0
-98,64,0,0,0,0,0,0,0,0,0,-1,1126,960,0,0
-91,64,0,0,0,0,0,0,0,0,0,-1,1133,960,0,0
-84,64,0,0,0,0,0,0,0,0,0,-1,1140,960,0,0
-77,64,0,0,0,0,0,0,0,0,0,-1,1147,960,0,0
-70,64,0,0,0,0,0,0,0,0,0,-1,1154,960,0,0
-63,64,0,0,0,0,0,0,0,0,0,-1,1161,960,0,0
-56,64,0,0,0,0,0,0,0,0,0,-1,1168,960,0,0
-49,64,0,0,0,0,0,0,0,0,0,-1,1175,960,0,0
-42,64,0,0,0,0,0,0,0,0,0,-1,1182,960,0,0
-35,64,0,0,0,0,0,0,0,0,0,-1,1189,960,0,0
-28,64,0,0,0,0,0,0,0,0,0,-1,1196,960,0,0
-21,64,0,0,0,0,0,0,0,0,0,-1,1203,960,0,0
-14,64,0,0,0,0,0,0,0,0,0,-1,1210,960,0,0
-7,64,0,0,0,0,0,0,0,0,0,-1,1217,960,0,0
0,64,0,0,0,0,0,0,0,0,0,-1,1224,960,0,0
7,64,0,0,0,0,0,0,0,0,0,-1,1231,960,0,0
14,64,0,0,0,0,0,0,0,0,0,-1,1238,960,0,0
21,64,0,0,0,0,0,0,0,0,0,-1,1245,960,0,0
28,64,0,0,0,0,0,0,0,0,0,-1,1252,960,0,0
35,64,0,0,0,0,0,0,0,0,0,-1,1259,960,0,0
42,64,0,0,0,0,0,0,0,0,0,-1,1266,960,0,0
49,64,0,0,0,0,0,0,0,0,0,-1,1273,960,0,0
56,64,0,0,0,0,0,0,0,0,0,-1,1280,960,0,0
63,64,0,0,0,0,0,0,0,0,0,-1,1287,960,0,0
70,64,0,0,0,0,0,0,0,0,0,-1,1294,960,0,0
77,64,0,0,0,0,0,0,0,0,0,-1,1301,960,0,0
84,64,0,0,0,0,0,0,0,0,0,-1,1308,960,0,0
91,64,0,0,0,0,0,0,0,0,0,-1,1315,960,0,0
98,64,0,0,0,0,0,0,0,0,0,-1,1322,960,0,0
105,64,0,0,0,0,0,0,0,0,0,-1,1329,960,0,0
112,64,0,0,0,0,0,0,0,0,0,-1,1336,960,0,0
119,64,0,0,0,0,0,0,0,0,0,-1,1343,960,0,0
126,64,0,0,0,0,0,0,0,0,0,-1,1350,960,0,0
133,64,0,0,0,0,0,0,0,0,0,-1,1357,960,0,0
140,64,0,0,0,0,0,0,0,0,0,-1,1364,960,0,0
147,64,0,0,0,0,0,0,0,0,0,-1,1371,960,0,0
154,64,0,0,0,0,0,0,0,0,0,-1,1378,960,0,0
161,64,0,0,0,0,0,0,0,0,0,-1,1385,960,0,0
168,64,0,0,0,0,0,0,0,0,0,-1,1392,960,0,0
175,64,0,0,0,0,0,0,0,0,0,-1,1399,960,0,0
182,64,0,0,0,0,0,0,0,0,0,-1,1406,960,0,0
189,64,0,0,0,0,0,0,0,0,0,-1,1413,960,0,0
196,64,0,0,0,0,0,0,0,0,0,-1,1420,960,0,0
203,64,0,0,0,0,0,0,0,0,0,-1,1427,960,0,0
210,64,0,0,0,0,0,0,0,0,0,-1,1434,960,0,0
217,64,0,0,0,0,0,0,0,0,0,-1,1441,960,0,0
224,64,0,0,0,0,0,0,0,0,0,-1,1448,960,0,0
231,64,0,0,0,0,0,0,0,0,0,-1,1455,960,0,0
238,64,0,0,0,0,0,0,0,0,0,-1,1462,960,0,0
245,64,0,0,0,0,0,0,0,0,0,-1,1469,960,0,0
252,64,0,0,0,0,0,0,0,0,0,-1,1476,960,0,0
259,64,0,0,0,0,0,0,0,0,0,-1,1483,960,0,0
266,64,0,0,0,0,0,0,0,0,0,-1,1490,960,0,0
273,64,0,0,0,0,0,0,0,0,0,-1,1497,960,0,0
280,64,0,0,0,0,0,0,0,0,0,-1,1504,960,0,0
287,64,0,0,0,0,0,0,0,0,0,-1,1511,960,0,0
294,64,0,0,0,0,0,0,0,0,0,-1,1518,960,0,0
301,64,0,0,0,0,0,0,0,0,0,-1,1525,960,0,0
308,64,0,0,0,0,0,0,0,0,0,-1,1532,960,0,0
315,64,0,0,0,0,0,0,0,0,0,-1,1539,960,0,0
322,64,0,0,0,0,0,0,0,0,0,-1,1546,960,0,0
329,64,0,0,0,0,0,0,0,0,0,-1,1553,960,0,0
336,64,0,0,0,0,0,0,0,0,0,-1,1560,960,0,0
343,64,0,0,0,0,0,0,0,0,0,-1,1567,960,0,0
350,64,0,0,0,0,0,0,0,0,0,-1,1574,960,0,0
357,64,0,0,0,0,0,0,0,0,0,-1,1581,960,0,0
364,64,0,0,0,0,0,0,0,0,0,-1,1588,960,0,0
371,64,0,0,0,0,0,0,0,0,0,-1,1595,960,0,0
378,64,0,0,0,0,0,0,0,0,0,-1,1602,960,0,0
385,64,0,0,0,0,0,0,0,0,0,-1,1609,960,0,0
392,64,0,0,0,0,0,0,0,0,0,-1,1616,960,0,0
399,64,0,0,0,0,0,0,0,0,0,-1,1623,960,0,0
406,64,0,0,0,0,0,0,0,0,0,-1,1630,960,0,0
413,64,0,0,0,0,0,0,0,0,0,-1,1637,960,0,0
420,64,0,0,0,0,0,0,0,0,0,-1,1644,960,0,0
427,64,0,0,0,0,0,0,0,0,0,-1,1651,960,0,0
434,64,0,0,0,0,0,0,0,0,0,-1,1658,960,0,0
441,64,0,0,0,0,0,0,0,0,0,-1,1665,960,0,0
448,64,0,0,0,0,0,0,0,0,0,-1,1672,960,0,0
455,64,0,0,0,0,0,0,0,0,0,-1,1679,960,0,0
462,64,0,0,0,0,0,0,0,0,0,-1,1686,960,0,0
469,64,0,0,0,0,0,0,0,0,0,-1,1693,960,0,0
476,64,0,0,0,0,0,0,0,0,0,-1,1700,960,0,0
483,64,0,0,0,0,0,0,0,0,0,-1,1707,960,0,0
490,64,0,0,0,0,0,0,0,0,0,-1,1714,960,0,0
497,64,0,0,0,0,0,0,0,0,0,-1,1721,960,0,0
504,64,0,0,0,0,0,0,0,0,0,-1,1728,960,0,0
511,64,0,0,0,0,0,0,0,0,0,-1,1735,960,0,0
518,64,0,0,0,0,0,0,0,0,0,-1,1742,960,0,0
525,64,0,0,0,0,0,0,0,0,0,-1,1749,960,0,0
532,64,0,0,0,0,0,0,0,0,0,-1,1756,960,0,0
539,64,0,0,0,0,0,0,0,0,0,-1,1763,960,0,0
546,64,0,0,0,0,0,0,0,0,0,-1,1770,960,0,0
553,64,0,0,0,0,0,0,0,0,0,-1,1777,960,0,0
560,64,0,0,0,0,0,0,0,0,0,-1,1784,960,0,0
567,64,0,0,0,0,0,0,0,0,0,-1,1791,960,0,0
574,64,0,0,0,0,0,0,0,0,0,-1,1798,960,0,0
581,64,0,0,0,0,0,0,0,0,0,-1,1805,960,0,0
588,64,0,0,0,0,0,0,0,0,0,-1,1812,960,0,0
595,64,0,0,0,0,0,0,0,0,0,-1,1819,960,0,0
602,64,0,0,0,0,0,0,0,0,0,-1,1826,960,0,0
609,64,0,0,0,0,0,0,0,0,0,-1,1833,960,0,0
616,64,0,0,0,0,0,0,0,0,0,-1,1840,960,0,0
623,64,0,0,0,0,0,0,0,0,0,-1,1847,960,0,0
630,64,0,0,0,0,0,0,0,0,0,-1,1854,960,0,0
637,64,0,0,0,0,0,0,0,0,0,-1,1861,960,0,0
644,64,76.5232,2.20038,0.00485723,0.00211257,-0.00181274,0.00575851,0.0012113,-0.461399,0.00350571,0.0465632,1868,960,76.5232,-2.20038
651,64,76.5652,2.16486,0.00293963,0.00194944,-0.00133355,0.00386702,0.00102205,-0.607653,0.00231384,0.0417589,1875,960,76.5652,-2.16485
658,64,76.4655,2.0755,0.00161495,0.00195208,-0.000665508,0.00247004,0.00109699,-0.909432,0.00142904,0.0370153,1882,960,76.4655,-2.07552
665,64,76.4696,1.89191,0.000654928,0.00208935,3.1666e-05,0.00209005,0.000654229,1.54873,0.00123449,0.0418914,1889,960,76.4696,-1.89188
672,64,76.5159,1.75861,-0.000418885,0.0019584,0.000792549,0.00219839,-0.000658881,1.27676,0.00172762,0.0436074,1896,960,76.5158,-1.75863
679,64,76.42,1.76855,-0.00131627,0.00150288,0.00143614,0.00210561,-0.00191901,1.17343,0.00232445,0.041614,1903,960,76.42,-1.76856
686,64,76.3062,1.80597,-0.00180357,0.000868731,0.00162546,0.00163672,-0.00257156,1.12941,0.00244955,0.0379236,1910,960,76.3061,-1.80597
693,64,76.3326,1.91772,-0.00240335,0.000315507,0.00157267,0.00103486,-0.0031227,1.1418,0.00249922,0.034797,1917,960,76.3326,-1.91774
700,64,76.4305,2.0816,-0.00303951,0.000150416,0.00137121,0.000658811,-0.0035479,1.21574,0.00261271,0.0341974,1924,960,76.4305,-2.0816
707,64,76.4268,2.31372,0,0,0,0,0,0,0,-1,1931,960,76.4267,-2.31369
714,64,75.1638,4.71899,0,0,0,0,0,0,0,-1,1938,960,75.1638,-4.71902
721,64,74.4982,5.30151,-0.00540671,0.00160728,0.000135883,0.00160991,-0.00540934,1.55143,0.00424585,0.0382231,1945,960,74.4981,-5.30152
728,64,74.161,5.95544,-0.00591045,0.00275713,-0.00022201,0.00276281,-0.00591613,-1.5452,0.00511985,0.0266559,1952,960,74.1609,-5.95543
735,64,74.1228,6.54193,-0.0061377,0.00457732,-0.000548312,0.00460531,-0.00616569,-1.5198,0.00624035,0.0338103,1959,960,74.1228,-6.54195
742,64,74.2429,6.94476,-0.00688224,0.00691993,-0.000880976,0.00697593,-0.00693824,-1.50731,0.00803336,0.028931,1966,960,74.243,-6.94475
749,64,74.1799,7.41162,-0.00704056,0.00999629,-0.000925437,0.0100464,-0.00709069,-1.51669,0.00994304,0.0175259,1973,960,74.18,-7.41164
756,64,74.1064,7.86749,-0.00622852,0.0138296,-1.03755e-06,0.0138296,-0.00622852,-1.57074,0.0118545,0.0173522,1980,960,74.1065,-7.86752
763,64,74.0649,8.35968,-0.00433721,0.0185033,0.00195687,0.0186697,-0.00450365,1.48594,0.014188,0.0201737,1987,960,74.065,-8.35968
770,64,73.7605,8.71539,-0.0010001,0.0226944,0.00498252,0.0236995,-0.0020052,1.37174,0.0165087,0.020769,1994,960,73.7605,-8.71542
777,64,73.4248,9.12744,0.00389904,0.0256366,0.00943124,0.0291581,0.000377595,1.21345,0.0193141,0.0376952,2001,960,73.4247,-9.12743
784,64,73.3528,9.04156,0.0119031,0.0264696,0.0158698,0.0366476,0.00172511,1.00053,0.0238775,0.0447642,2008,960,73.3528,-9.04155
791,64,73.2852,9.13037,0,0,0,0,0,0,0,-1,2015,960,73.2853,-9.13038
798,64,70.9221,7.01788,0,0,0,0,0,0,0,-1,2022,960,70.9221,-7.01791
805,64,71.8018,7.16925,0,0,0,0,0,0,0,-1,2029,960,71.8016,-7.16926
812,64,0,0,0,0,0,0,0,0,0,-1,2036,960,0,0
-700,57,0,0,0,0,0,0,0,0,0,-1,524,967,0,0
-693,57,0,0,0,0,0,0,0,0,0,-1,531,967,0,0
-686,57,-59.4932,11.7616,0,0,0,0,0,0,0,-1,538,967,-59.4932,-11.7616
-679,57,-59.6888,9.91016,0,0,0,0,0,0,0,-1,545,967,-59.6888,-9.91018
-672,57,-59.932,7.85175,0,0,0,0,0,0,0,-1,552,967,-59.9321,-7.85172
-665,57,-59.2086,5.76245,0,0,0,0,0,0,0,-1,559,967,-59.2086,-5.76246
-658,57,-59.908,7.21674,0,0,0,0,0,0,0,-1,566,967,-59.908,-7.21672
-651,57,-59.8837,7.91931,0,0,0,0,0,0,0,-1,573,967,-59.8837,-7.91931
-644,57,-59.0298,7.78998,-0.0172722,0.0378628,0.016316,0.0423293,-0.0217388,1.30359,0.0376211,0.0385566,580,967,-59.0298,-7.79001
-637,57,-58.9539,7.43463,-0.0151337,0.0298623,0.0141644,0.0339498,-0.0192213,1.28985,0.0310884,0.0220957,587,967,-58.9539,-7.43465
-630,57,-59.0595,7.06189,-0.0125425,0.0223441,0.0117409,0.0259273,-0.0161257,1.27458,0.0244982,0.0144516,594,967,-59.0595,-7.0619
-623,57,-59.1046,6.69928,-0.0101401,0.0153607,0.00955211,0.0185419,-0.0133213,1.24931,0.0184783,0.0139385,601,967,-59.1046,-6.6993
-616,57,-59.1101,6.28949,-0.00803327,0.00962439,0.00741847,0.0123273,-0.0107362,1.22139,0.0133263,0.0161635,608,967,-59.1101,-6.28949
-609,57,-59.1285,5.84387,-0.0066044,0.00591687,0.00575336,0.00815898,-0.00884651,1.1992,0.0098208,0.0159271,615,967,-59.1285,-5.84389
-602,57,-59.1178,5.3587,-0.00554853,0.00347739,0.00475817,0.0055224,-0.00759354,1.16488,0.0076039,0.0124593,622,967,-59.1178,-5.35868
-595,57,-59.123,4.90375,-0.00458391,0.00162534,0.00369023,0.00334321,-0.00630179,1.13511,0.0056552,0.022476,629,967,-59.123,-4.90377
-588,57,-58.8203,4.66803,0,0,0,0,0,0,0,-1,636,967,-58.8203,-4.66803
-581,57,-59.9188,0.396606,0,0,0,0,0,0,0,-1,643,967,-59.9188,-0.396585
-574,57,-59.9501,0.266357,-0.00153256,-0.00175496,0.00200168,0.000361008,-0.00364853,0.75765,0.00256118,0.0331398,650,967,-59.9501,-0.266374
-567,57,-60.0223,0.176758,-0.00103643,-0.00196679,0.00177324,0.000331636,-0.00333485,0.657122,0.00234162,0.0329175,657,967,-60.0223,-0.176745
-560,57,-60.2454,0.247314,-0.000435995,-0.00176421,0.00149105,0.000532159,-0.00273236,0.575889,0.00202244,0.0418543,664,967,-60.2454,-0.247341
-553,57,-60.3024,0.367676,0.000478845,-0.00128055,0.0011716,0.00106424,-0.00186595,0.463374,0.00171272,0.0416628,671,967,-60.3023,-0.367666
-546,57,-60.1527,0.450928,0.00192651,-0.000752959,0.000760739,0.00212743,-0.000953878,0.258214,0.00182149,0.0403694,678,967,-60.1527,-0.450934
-539,57,-60.0464,0.380737,0.00386671,-0.000669672,0.000156805,0.00387212,-0.000675086,0.0345112,0.00283338,0.0400188,685,967,-60.0464,-0.380732
-532,57,-60.0986,0.422058,0.00636654,-0.00132105,-0.000755835,0.00644014,-0.00139466,-0.0970803,0.00482596,0.0386869,692,967,-60.0986,-0.422075
-525,57,-60.017,0.313965,0.0085076,-0.00165167,-0.0016772,0.00877733,-0.0019214,-0.159456,0.00658611,0.0396617,699,967,-60.0171,-0.313947
-518,57,0,0,0,0,0,0,0,0,0,-1,706,967,0,0
-511,57,0,0,0,0,0,0,0,0,0,-1,713,967,0,0
-504,57,0,0,0,0,0,0,0,0,0,-1,720,967,0,0
-497,57,0,0,0,0,0,0,0,0,0,-1,727,967,0,0
-490,57,0,0,0,0,0,0,0,0,0,-1,734,967,0,0
-483,57,0,0,0,0,0,0,0,0,0,-1,741,967,0,0
-476,57,0,0,0,0,0,0,0,0,0,-1,748,967,0,0
-469,57,0,0,0,0,0,0,0,0,0,-1,755,967,0,0
-462,57,0,0,0,0,0,0,0,0,0,-1,762,967,0,0
-455,57,0,0,0,0,0,0,0,0,0,-1,769,967,0,0
-448,57,0,0,0,0,0,0,0,0,0,-1,776,967,0,0
-441,57,0,0,0,0,0,0,0,0,0,-1,783,967,0,0
-434,57,0,0,0,0,0,0,0,0,0,-1,790,967,0,0
-427,57,0,0,0,0,0,0,0,0,0,-1,797,967,0,0
-420,57,0,0,0,0,0,0,0,0,0,-1,804,967,0,0
-413,57,0,0,0,0,0,0,0,0,0,-1,811,967,0,0
-406,57,0,0,0,0,0,0,0,0,0,-1,818,967,0,0
-399,57,0,0,0,0,0,0,0,0,0,-1,825,967,0,0
-392,57,0,0,0,0,0,0,0,0,0,-1,832,967,0,0
-385,57,0,0,0,0,0,0,0,0,0,-1,839,967,0,0
-378,57,0,0,0,0,0,0,0,0,0,-1,846,967,0,0
-371,57,0,0,0,0,0,0,0,0,0,-1,853,967,0,0
-364,57,0,0,0,0,0,0,0,0,0,-1,860,967,0,0
-357,57,0,0,0,0,0,0,0,0,0,-1,867,967,0,0
-350,57,0,0,0,0,0,0,0,0,0,-1,874,967,0,0
-343,57,0,0,0,0,0,0,0,0,0,-1,881,967,0,0
-336,57,0,0,0,0,0,0,0,0,0,-1,888,967,0,0
-329,57,0,0,0,0,0,0,0,0,0,-1,895,967,0,0
-322,57,0,0,0,0,0,0,0,0,0,-1,902,967,0,0
-315,57,0,0,0,0,0,0,0,0,0,-1,909,967,0,0
-308,57,0,0,0,0,0,0,0,0,0,-1,916,967,0,0
-301,57,0,0,0,0,0,0,0,0,0,-1,923,967,0,0
-294,57,0,0,0,0,0,0,0,0,0,-1,930,967,0,0
-287,57,0,0,0,0,0,0,0,0,0,-1,937,967,0,0
-280,57,0,0,0,0,0,0,0,0,0,-1,944,967,0,0
-273,57,0,0,0,0,0,0,0,0,0,-1,951,967,0,0
-266,57,0,0,0,0,0,0,0,0,0,-1,958,967,0,0
-259,57,0,0,0,0,0,0,0,0,0,-1,965,967,0,0
-252,57,0,0,0,0,0,0,0,0,0,-1,972,967,0,0
-245,57,0,0,0,0,0,0,0,0,0,-1,979,967,0,0
-238,57,0,0,0,0,0,0,0,0,0,-1,986,967,0,0
-231,57,0,0,0,0,0,0,0,0,0,-1,993,967,0,0
-224,57,0,0,0,0,0,0,0,0,0,-1,1000,967,0,0
-217,57,0,0,0,0,0,0,0,0,0,-1,1007,967,0,0
-210,57,0,0,0,0,0,0,0,0,0,-1,1014,967,0,0
-203,57,0,0,0,0,0,0,0,0,0,-1,1021,967,0,0
-196,57,0,0,0,0,0,0,0,0,0,-1,1028,967,0,0
-189,57,0,0,0,0,0,0,0,0,0,-1,1035,967,0,0
-182,57,0,0,0,0,0,0,0,0,0,-1,1042,967,0,0
-175,57,0,0,0,0,0,0,0,0,0,-1,1049,967,0,0
-168,57,0,0,0,0,0,0,0,0,0,-1,1056,967,0,0
-161,57,0,0,0,0,0,0,0,0,0,-1,1063,967,0,0
-154,57,0,0,0,0,0,0,0,0,0,-1,1070,967,0,0
-147,57,0,0,0,0,0,0,0,0,0,-1,1077,967,0,0
-140,57,0,0,0,0,0,0,0,0,0,-1,1084,967,0,0
-133,57,0,0,0,0,0,0,0,0,0,-1,1091,967,0,0
-126,57,0,0,0,0,0,0,0,0,0,-1,1098,967,0,0
-119,57,0,0,0,0,0,0,0,0,0,-1,1105,967,0,0
-112,57,0,0,0,0,0,0,0,0,0,-1,1112,967,0,0
-105,57,0,0,0,0,0,0,0,0,0,-1,1119,967,0,0
-98,57,0,0,0,0,0,0,0,0,0,-1,1126,967,0,0
-91,57,0,0,0,0,0,0,0,0,0,-1,1133,967,0,0
-84,57,0,0,0,0,0,0,0,0,0,-1,1140,967,0,0
-77,57,0,0,0,0,0,0,0,0,0,-1,1147,967,0,0
-70,57,0,0,0,0,0,0,0,0,0,-1,1154,967,0,0
-63,57,0,0,0,0,0,0,0,0,0,-1,1161,967,0,0
-56,57,0,0,0,0,0,0,0,0,0,-1,1168,967,0,0
-49,57,0,0,0,0,0,0,0,0,0,-1,1175,967,0,0
-42,57,0,0,0,0,0,0,0,0,0,-1,1182,967,0,0
-35,57,0,0,0,0,0,0,0,0,0,-1,1189,967,0,0
-28,57,0,0,0,0,0,0,0,0,0,-1,1196,967,0,0
-21,57,0,0,0,0,0,0,0,0,0,-1,1203,967,0,0
-14,57,0,0,0,0,0,0,0,0,0,-1,1210,967,0,0
-7,57,0,0,0,0,0,0,0,0,0,-1,1217,967,0,0
0,57,0,0,0,0,0,0,0,0,0,-1,1224,967,0,0
7,57,0,0,0,0,0,0,0,0,0,-1,1231,967,0,0
14,57,0,0,0,0,0,0,0,0,0,-1,1238,967,0,0
21,57,0,0,0,0,0,0,0,0,0,-1,1245,967,0,0
28,57,0,0,0,0,0,0,0,0,0,-1,1252,967,0,0
35,57,0,0,0,0,0,0,0,0,0,-1,1259,967,0,0
42,57,0,0,0,0,0,0,0,0,0,-1,1266,967,0,0
49,57,0,0,0,0,0,0,0,0,0,-1,1273,967,0,0
56,57,0,0,0,0,0,0,0,0,0,-1,1280,967,0,0
63,57,0,0,0,0,0,0,0,0,0,-1,1287,967,0,0
70,57,0,0,0,0,0,0,0,0,0,-1,1294,967,0,0
77,57,0,0,0,0,0,0,0,0,0,-1,1301,967,0,0
84,57,0,0,0,0,0,0,0,0,0,-1,1308,967,0,0
91,57,0,0,0,0,0,0,0,0,0,-1,1315,967,0,0
98,57,0,0,0,0,0,0,0,0,0,-1,1322,967,0,0
105,57,0,0,0,0,0,0,0,0,0,-1,1329,967,0,0
112,57,0,0,0,0,0,0,0,0,0,-1,1336,967,0,0
119,57,0,0,0,0,0,0,0,0,0,-1,1343,967,0,0
126,57,0,0,0,0,0,0,0,0,0,-1,1350,967,0,0
133,57,0,0,0,0,0,0,0,0,0,-1,1357,967,0,0
140,57,0,0,0,0,0,0,0,0,0,-1,1364,967,0,0
147,57,0,0,0,0,0,0,0,0,0,-1,1371,967,0,0
154,57,0,0,0,0,0,0,0,0,0,-1,1378,967,0,0
161,57,0,0,0,0,0,0,0,0,0,-1,1385,967,0,0
168,57,0,0,0,0,0,0,0,0,0,-1,1392,967,0,0
175,57,0,0,0,0,0,0,0,0,0,-1,1399,967,0,0
182,57,0,0,0,0,0,0,0,0,0,-1,1406,967,0,0
189,57,0,0,0,0,0,0,0,0,0,-1,1413,967,0,0
196,57,0,0,0,0,0,0,0,0,0,-1,1420,967,0,0
203,57,0,0,0,0,0,0,0,0,0,-1,1427,967,0,0
210,57,0,0,0,0,0,0,0,0,0,-1,1434,967,0,0
217,57,0,0,0,0,0,0,0,0,0,-1,1441,967,0,0
224,57,0,0,0,0,0,0,0,0,0,-1,1448,967,0,0
231,57,0,0,0,0,0,0,0,0,0,-1,1455,967,0,0
238,57,0,0,0,0,0,0,0,0,0,-1,1462,967,0,0
245,57,0,0,0,0,0,0,0,0,0,-1,1469,967,0,0
252,57,0,0,0,0,0,0,0,0,0,-1,1476,967,0,0
259,57,0,0,0,0,0,0,0,0,0,-1,1483,967,0,0
266,57,0,0,0,0,0,0,0,0,0,-1,1490,967,0,0
273,57,0,0,0,0,0,0,0,0,0,-1,1497,967,0,0
280,57,0,0,0,0,0,0,0,0,0,-1,1504,967,0,0
287,57,0,0,0,0,0,0,0,0,0,-1,1511,967,0,0
294,57,0,0,0,0,0,0,0,0,0,-1,1518,967,0,0
301,57,0,0,0,0,0,0,0,0,0,-1,1525,967,0,0
308,57,0,0,0,0,0,0,0,0,0,-1,1532,967,0,0
315,57,0,0,0,0,0,0,0,0,0,-1,1539,967,0,0
322,57,0,0,0,0,0,0,0,0,0,-1,1546,967,0,0
329,57,0,0,0,0,0,0,0,0,0,-1,1553,967,0,0
336,57,0,0,0,0,0,0,0,0,0,-1,1560,967,0,0
343,57,0,0,0,0,0,0,0,0,0,-1,1567,967,0,0
350,57,0,0,0,0,0,0,0,0,0,-1,1574,967,0,0
357,57,0,0,0,0,0,0,0,0,0,-1,1581,967,0,0
364,57,0,0,0,0,0,0,0,0,0,-1,1588,967,0,0
371,57,0,0,0,0,0,0,0,0,0,-1,1595,967,0,0
378,57,0,0,0,0,0,0,0,0,0,-1,1602,967,0,0
385,57,0,0,0,0,0,0,0,0,0,-1,1609,967,0,0
392,57,0,0,0,0,0,0,0,0,0,-1,1616,967,0,0
399,57,0,0,0,0,0,0,0,0,0,-1,1623,967,0,0
406,57,0,0,0,0,0,0,0,0,0,-1,1630,967,0,0
413,57,0,0,0,0,0,0,0,0,0,-1,1637,967,0,0
420,57,0,0,0,0,0,0,0,0,0,-1,1644,967,0,0
427,57,0,0,0,0,0,0,0,0,0,-1,1651,967,0,0
434,57,0,0,0,0,0,0,0,0,0,-1,1658,967,0,0
441,57,0,0,0,0,0,0,0,0,0,-1,1665,967,0,0
448,57,0,0,0,0,0,0,0,0,0,-1,1672,967,0,0
455,57,0,0,0,0,0,0,0,0,0,-1,1679,967,0,0
462,57,0,0,0,0,0,0,0,0,0,-1,1686,967,0,0
469,57,0,0,0,0,0,0,0,0,0,-1,1693,967,0,0
476,57,0,0,0,0,0,0,0,0,0,-1,1700,967,0,0
483,57,0,0,0,0,0,0,0,0,0,-1,1707,967,0,0
490,57,0,0,0,0,0,0,0,0,0,-1,1714,967,0,0
497,57,0,0,0,0,0,0,0,0,0,-1,1721,967,0,0
504,57,0,0,0,0,0,0,0,0,0,-1,1728,967,0,0
511,57,0,0,0,0,0,0,0,0,0,-1,1735,967,0,0
518,57,0,0,0,0,0,0,0,0,0,-1,1742,967,0,0
525,57,0,0,0,0,0,0,0,0,0,-1,1749,967,0,0
532,57,0,0,0,0,0,0,0,0,0,-1,1756,967,0,0
539,57,0,0,0,0,0,0,0,0,0,-1,1763,967,0,0
546,57,0,0,0,0,0,0,0,0,0,-1,1770,967,0,0
553,57,0,0,0,0,0,0,0,0,0,-1,1777,967,0,0
560,57,0,0,0,0,0,0,0,0,0,-1,1784,967,0,0
567,57,0,0,0,0,0,0,0,0,0,-1,1791,967,0,0
574,57,0,0,0,0,0,0,0,0,0,-1,1798,967,0,0
581,57,0,0,0,0,0,0,0,0,0,-1,1805,967,0,0
588,57,0,0,0,0,0,0,0,0,0,-1,1812,967,0,0
595,57,0,0,0,0,0,0,0,0,0,-1,1819,967,0,0
602,57,0,0,0,0,0,0,0,0,0,-1,1826,967,0,0
609,57,0,0,0,0,0,0,0,0,0,-1,1833,967,0,0
616,57,0,0,0,0,0,0,0,0,0,-1,1840,967,0,0
623,57,0,0,0,0,0,0,0,0,0,-1,1847,967,0,0
630,57,0,0,0,0,0,0,0,0,0,-1,1854,967,0,0
637,57,0,0,0,0,0,0,0,0,0,-1,1861,967,0,0
644,57,76.4424,2.10547,0.00464013,0.00146348,-0.00103693,0.00494865,0.00115497,-0.289187,0.00298943,0.0463265,1868,967,76.4424,-2.10547
651,57,76.5363,2.15997,0.00283254,0.00134318,-0.000838074,0.00320898,0.000966738,-0.422169,0.00190087,0.0381292,1875,967,76.5363,-2.15997
658,57,76.4178,2.10559,0.00157281,0.0013698,-0.000364769,0.00184994,0.00109268,-0.649696,0.0010739,0.0355489,1882,967,76.4178,-2.10562
665,57,76.4341,1.72675,0.000664224,0.00155933,0.000173841,0.0015919,0.000631647,1.38555,0.00092559,0.0424242,1889,967,76.4341,-1.72676
672,57,76.5013,1.62903,-0.000346784,0.00154281,0.000820377,0.00184927,-0.00065325,1.21328,0.00149883,0.0440585,1896,967,76.5014,-1.629
679,57,76.4049,1.73877,-0.00120244,0.00120348,0.00142741,0.00186723,-0.00186619,1.13553,0.00215549,0.0416453,1903,967,76.4049,-1.73876
686,57,76.3279,1.95007,-0.00164715,0.000632173,0.00164524,0.00149392,-0.0025089,1.0883,0.00233566,0.039037,1910,967,76.3279,-1.95005
693,57,76.2653,1.9342,-0.00218769,0.000100457,0.00161602,0.000936386,-0.00302362,1.09342,0.00238983,0.0342296,1917,967,76.2653,-1.93422
700,57,76.3844,2.09961,-0.00274988,-6.37317e-05,0.00142173,0.000548999,-0.00336261,1.16388,0.00244537,0.0271863,1924,967,76.3844,-2.09961
707,57,76.5171,2.25848,0,0,0,0,0,0,0,-1,1931,967,76.5171,-2.25848
714,57,75.6135,4.95959,0,0,0,0,0,0,0,-1,1938,967,75.6135,-4.95962
721,57,75.0074,5.47137,-0.00526995,0.00165747,0.00024904,0.00166641,-0.00527889,1.53491,0.00418678,0.049704,1945,967,75.0075,-5.47134
728,57,74.7346,6.07025,-0.00587935,0.00299134,-0.000110185,0.00299271,-0.00588072,-1.55838,0.00521274,0.0258674,1952,967,74.7346,-6.07028
735,57,74.7533,6.56531,-0.00626343,0.00491701,-0.000451784,0.00493524,-0.00628165,-1.53048,0.00649161,0.031897,1959,967,74.7533,-6.56529
742,57,74.7953,6.88965,-0.00725023,0.00727391,-0.000819052,0.00731995,-0.00729628,-1.51464,0.00843868,0.0232861,1966,967,74.7953,-6.88963
749,57,74.6929,7.38434,-0.00771442,0.0102637,-0.000945661,0.0103133,-0.00776403,-1.51839,0.0104715,0.0146597,1973,967,74.6929,-7.38432
756,57,74.6204,7.81952,-0.00736497,0.0139881,-0.000201381,0.01399,-0.00736687,-1.56137,0.0125265,0.0123693,1980,967,74.6204,-7.8195
763,57,74.519,8.22571,-0.00606231,0.0186336,0.00149985,0.0187243,-0.00615307,1.51036,0.0149618,0.0144484,1987,967,74.519,-8.22574
770,57,74.3286,8.57544,-0.00319029,0.0228463,0.00431868,0.0235439,-0.00388794,1.41064,0.0171396,0.0142054,1994,967,74.3286,-8.57541
777,57,74.135,8.95123,0.00128249,0.0256999,0.00851678,0.028377,-0.00139464,1.26624,0.0193996,0.0293045,2001,967,74.1351,-8.95123
784,57,74.0928,9.26007,0.00880621,0.026296,0.0146456,0.0346089,0.000493335,1.05454,0.0229099,0.0462386,2008,967,74.0927,-9.26009
791,57,74.2888,9.30457,0,0,0,0,0,0,0,-1,2015,967,74.2888,-9.30455
798,57,74.2542,10.6193,0,0,0,0,0,0,0,-1,2022,967,74.2542,-10.6193
805,57,74.7366,11.4809,0,0,0,0,0,0,0,-1,2029,967,74.7367,-11.4809
812,57,0,0,0,0,0,0,0,0,0,-1,2036,967,0,0
-700,50,0,0,0,0,0,0,0,0,0,-1,524,974,0,0
-693,50,-54.0315,0.366699,0,0,0,0,0,0,0,-1,531,974,-54.0315,-0.366708
-686,50,-61.2307,11.1642,0,0,0,0,0,0,0,-1,538,974,-61.2308,-11.1642
-679,50,-61.2935,9.32159,0,0,0,0,0,0,0,-1,545,974,-61.2936,-9.3216
-672,50,-57.1591,3.89862,0,0,0,0,0,0,0,-1,552,974,-57.1591,-3.89863
-665,50,-59.9923,5.35925,0,0,0,0,0,0,0,-1,559,974,-59.9923,-5.35923
-658,50,-58.3775,7.42145,0,0,0,0,0,0,0,-1,566,974,-58.3775,-7.42143
-651,50,-58.9608,7.66418,0,0,0,0,0,0,0,-1,573,974,-58.9608,-7.66416
-644,50,-59.2289,7.4787,-0.0167381,0.0394244,0.0155622,0.0434483,-0.020762,1.31777,0.0378353,0.0352622,580,974,-59.2289,-7.4787
-637,50,-59.4181,7.21484,-0.0148556,0.0308985,0.0132389,0.034453,-0.0184101,1.30849,0.0309854,0.0198233,587,974,-59.4181,-7.21485
-630,50,-59.5514,6.92175,-0.0124788,0.0229264,0.0108521,0.025988,-0.0155404,1.29583,0.024228,0.0118087,594,974,-59.5514,-6.92174
-623,50,-59.5933,6.63354,-0.0102364,0.0157043,0.00883183,0.0184257,-0.0129578,1.27189,0.0182107,0.0138027,601,974,-59.5933,-6.63352
-616,50,-59.5992,6.29559,-0.00832681,0.00990426,0.00686673,0.0122012,-0.0106238,1.24799,0.0131885,0.014099,608,974,-59.5992,-6.2956
-609,50,-59.6068,5.84125,-0.00699163,0.00612233,0.00534217,0.00802306,-0.00889236,1.22897,0.00977042,0.0117766,615,974,-59.6068,-5.84127
-602,50,-59.6058,5.40265,-0.00595736,0.00359054,0.00441751,0.00532082,-0.00768765,1.19748,0.00755176,0.0127144,622,974,-59.6058,-5.40264
-595,50,-59.632,5.02332,-0.0049697,0.00163544,0.00338002,0.00305849,-0.00639275,1.1723,0.00556871,0.0188226,629,974,-59.632,-5.02332
-588,50,-59.6216,4.42102,0,0,0,0,0,0,0,-1,636,974,-59.6216,-4.42102
-581,50,-59.5884,3.50433,0,0,0,0,0,0,0,-1,643,974,-59.5884,-3.50434
-574,50,-59.9811,0.138794,-0.00179241,-0.00194117,0.00167184,-0.000193296,-0.00354028,0.763168,0.00229846,0.0249582,650,974,-59.9811,-0.138806
-567,50,-60.0005,0.117615,-0.00117005,-0.00215782,0.00139539,-0.000183715,-0.00314415,0.615309,0.00203763,0.0366686,657,974,-60.0006,-0.117621
-560,50,-60.0844,0.0922241,-0.000377564,-0.00193762,0.00109773,0.000189054,-0.00250424,0.476502,0.00173594,0.0443233,664,974,-60.0843,-0.0922405
-553,50,-60.1514,0.184204,0.000742921,-0.00143397,0.000749314,0.000975909,-0.00166695,0.301458,0.00154315,0.040014,671,974,-60.1513,-0.184213
-546,50,-59.9568,0.241577,0.0023839,-0.000943283,0.000296408,0.0024101,-0.000969483,0.0881617,0.00200943,0.0382798,678,974,-59.9568,-0.24157
-539,50,-59.8184,0.342834,0.004411,-0.000998884,-0.000353282,0.00443397,-0.00102186,-0.0649355,0.00334897,0.0407119,685,974,-59.8184,-0.342845
-532,50,-59.8729,0.278809,0.00693193,-0.00177225,-0.00129966,0.00712185,-0.00196217,-0.145099,0.00551946,0.0400329,692,974,-59.8728,-0.278817
-525,50,-59.8557,0.248108,0.00910044,-0.00217736,-0.00231427,0.00955687,-0.00263379,-0.194725,0.00740695,0.040847,699,974,-59.8557,-0.248123
-518,50,0,0,0,0,0,0,0,0,0,-1,706,974,0,0
-511,50,0,0,0,0,0,0,0,0,0,-1,713,974,0,0
-504,50,0,0,0,0,0,0,0,0,0,-1,720,974,0,0
-497,50,0,0,0,0,0,0,0,0,0,-1,727,974,0,0
-490,50,0,0,0,0,0,0,0,0,0,-1,734,974,0,0
-483,50,0,0,0,0,0,0,0,0,0,-1,741,974,0,0
-476,50,0,0,0,0,0,0,0,0,0,-1,748,974,0,0
-469,50,0,0,0,0,0,0,0,0,0,-1,755,974,0,0
-462,50,0,0,0,0,0,0,0,0,0,-1,762,974,0,0
-455,50,0,0,0,0,0,0,0,0,0,-1,769,974,0,0
-448,50,0,0,0,0,0,0,0,0,0,-1,776,974,0,0
-441,50,0,0,0,0,0,0,0,0,0,-1,783,974,0,0
-434,50,0,0,0,0,0,0,0,0,0,-1,790,974,0,0
-427,50,0,0,0,0,0,0,0,0,0,-1,797,974,0,0
-420,50,0,0,0,0,0,0,0,0,0,-1,804,974,0,0
-413,50,0,0,0,0,0,0,0,0,0,-1,811,974,0,0
-406,50,0,0,0,0,0,0,0,0,0,-1,818,974,0,0
-399,50,0,0,0,0,0,0,0,0,0,-1,825,974,0,0
-392,50,0,0,0,0,0,0,0,0,0,-1,832,974,0,0
-385,50,0,0,0,0,0,0,0,0,0,-1,839,974,0,0
-378,50,0,0,0,0,0,0,0,0,0,-1,846,974,0,0
-371,50,0,0,0,0,0,0,0,0,0,-1,853,974,0,0
-364,50,0,0,0,0,0,0,0,0,0,-1,860,974,0,0
-357,50,0,0,0,0,0,0,0,0,0,-1,867,974,0,0
-350,50,0,0,0,0,0,0,0,0,0,-1,874,974,0,0
-343,50,0,0,0,0,0,0,0,0,0,-1,881,974,0,0
-336,50,0,0,0,0,0,0,0,0,0,-1,888,974,0,0
-329,50,0,0,0,0,0,0,0,0,0,-1,895,974,0,0
-322,50,0,0,0,0,0,0,0,0,0,-1,902,974,0,0
-315,50,0,0,0,0,0,0,0,0,0,-1,909,974,0,0
-308,50,0,0,0,0,0,0,0,0,0,-1,916,974,0,0
-301,50,0,0,0,0,0,0,0,0,0,-1,923,974,0,0
-294,50,0,0,0,0,0,0,0,0,0,-1,930,974,0,0
-287,50,0,0,0,0,0,0,0,0,0,-1,937,974,0,0
-280,50,0,0,0,0,0,0,0,0,0,-1,944,974,0,0
-273,50,0,0,0,0,0,0,0,0,0,-1,951,974,0,0
-266,50,0,0,0,0,0,0,0,0,0,-1,958,974,0,0
-259,50,0,0,0,0,0,0,0,0,0,-1,965,974,0,0
-252,50,0,0,0,0,0,0,0,0,0,-1,972,974,0,0
-245,50,0,0,0,0,0,0,0,0,0,-1,979,974,0,0
-238,50,0,0,0,0,0,0,0,0,0,-1,986,974,0,0
-231,50,0,0,0,0,0,0,0,0,0,-1,993,974,0,0
-224,50,0,0,0,0,0,0,0,0,0,-1,1000,974,0,0
-217,50,0,0,0,0,0,0,0,0,0,-1,1007,974,0,0
-210,50,0,0,0,0,0,0,0,0,0,-1,1014,974,0,0
-203,50,0,0,0,0,0,0,0,0,0,-1,1021,974,0,0
-196,50,0,0,0,0,0,0,0,0,0,-1,1028,974,0,0
-189,50,0,0,0,0,0,0,0,0,0,-1,1035,974,0,0
-182,50,0,0,0,0,0,0,0,0,0,-1,1042,974,0,0
-175,50,0,0,0,0,0,0,0,0,0,-1,1049,974,0,0
-168,50,0,0,0,0,0,0,0,0,0,-1,1056,974,0,0
-161,50,0,0,0,0,0,0,0,0,0,-1,1063,974,0,0
-154,50,0,0,0,0,0,0,0,0,0,-1,1070,974,0,0
-147,50,0,0,0,0,0,0,0,0,0,-1,1077,974,0,0
-140,50,0,0,0,0,0,0,0,0,0,-1,1084,974,0,0
-133,50,0,0,0,0,0,0,0,0,0,-1,1091,974,0,0
-126,50,0,0,0,0,0,0,0,0,0,-1,1098,974,0,0
-119,50,0,0,0,0,0,0,0,0,0,-1,1105,974,0,0
-112,50,0,0,0,0,0,0,0,0,0,-1,1112,974,0,0
-105,50,0,0,0,0,0,0,0,0,0,-1,1119,974,0,0
-98,50,0,0,0,0,0,0,0,0,0,-1,1126,974,0,0
-91,50,0,0,0,0,0,0,0,0,0,-1,1133,974,0,0
-84,50,0,0,0,0,0,0,0,0,0,-1,1140,974,0,0
-77,50,0,0,0,0,0,0,0,0,0,-1,1147,974,0,0
-70,50,0,0,0,0,0,0,0,0,0,-1,1154,974,0,0
-63,50,0,0,0,0,0,0,0,0,0,-1,1161,974,0,0
-56,50,0,0,0,0,0,0,0,0,0,-1,1168,974,0,0
-49,50,0,0,0,0,0,0,0,0,0,-1,1175,974,0,0
-42,50,0,0,0,0,0,0,0,0,0,-1,1182,974,0,0
-35,50,0,0,0,0,0,0,0,0,0,-1,1189,974,0,0
-28,50,0,0,0,0,0,0,0,0,0,-1,1196,974,0,0
-21,50,0,0,0,0,0,0,0,0,0,-1,1203,974,0,0
-14,50,0,0,0,0,0,0,0,0,0,-1,1210,974,0,0
-7,50,0,0,0,0,0,0,0,0,0,-1,1217,974,0,0
0,50,0,0,0,0,0,0,0,0,0,-1,1224,974,0,0
7,50,0,0,0,0,0,0,0,0,0,-1,1231,974,0,0
14,50,0,0,0,0,0,0,0,0,0,-1,1238,974,0,0
21,50,0,0,0,0,0,0,0,0,0,-1,1245,974,0,0
28,50,0,0,0,0,0,0,0,0,0,-1,1252,974,0,0
35,50,0,0,0,0,0,0,0,0,0,-1,1259,974,0,0
42,50,0,0,0,0,0,0,0,0,0,-1,1266,974,0,0
49,50,0,0,0,0,0,0,0,0,0,-1,1273,974,0,0
56,50,0,0,0,0,0,0,0,0,0,-1,1280,974,0,0
63,50,0,0,0,0,0,0,0,0,0,-1,1287,974,0,0
70,50,0,0,0,0,0,0,0,0,0,-1,1294,974,0,0
77,50,0,0,0,0,0,0,0,0,0,-1,1301,974,0,0
84,50,0,0,0,0,0,0,0,0,0,-1,1308,974,0,0
91,50,0,0,0,0,0,0,0,0,0,-1,1315,974,0,0
98,50,0,0,0,0,0,0,0,0,0,-1,1322,974,0,0
105,50,0,0,0,0,0,0,0,0,0,-1,1329,974,0,0
112,50,0,0,0,0,0,0,0,0,0,-1,1336,974,0,0
119,50,0,0,0,0,0,0,0,0,0,-1,1343,974,0,0
126,50,0,0,0,0,0,0,0,0,0,-1,1350,974,0,0
133,50,0,0,0,0,0,0,0,0,0,-1,1357,974,0,0
140,50,0,0,0,0,0,0,0,0,0,-1,1364,974,0,0
147,50,0,0,0,0,0,0,0,0,0,-1,1371,974,0,0
154,50,0,0,0,0,0,0,0,0,0,-1,1378,974,0,0
161,50,0,0,0,0,0,0,0,0,0,-1,1385,974,0,0
168,50,0,0,0,0,0,0,0,0,0,-1,1392,974,0,0
175,50,0,0,0,0,0,0,0,0,0,-1,1399,974,0,0
182,50,0,0,0,0,0,0,0,0,0,-1,1406,974,0,0
189,50,0,0,0,0,0,0,0,0,0,-1,1413,974,0,0
196,50,0,0,0,0,0,0,0,0,0,-1,1420,974,0,0
203,50,0,0,0,0,0,0,0,0,0,-1,1427,974,0,0
210,50,0,0,0,0,0,0,0,0,0,-1,1434,974,0,0
217,50,0,0,0,0,0,0,0,0,0,-1,1441,974,0,0
224,50,0,0,0,0,0,0,0,0,0,-1,1448,974,0,0
231,50,0,0,0,0,0,0,0,0,0,-1,1455,974,0,0
238,50,0,0,0,0,0,0,0,0,0,-1,1462,974,0,0
245,50,0,0,0,0,0,0,0,0,0,-1,1469,974,0,0
252,50,0,0,0,0,0,0,0,0,0,-1,1476,974,0,0
259,50,0,0,0,0,0,0,0,0,0,-1,1483,974,0,0
266,50,0,0,0,0,0,0,0,0,0,-1,1490,974,0,0
273,50,0,0,0,0,0,0,0,0,0,-1,1497,974,0,0
280,50,0,0,0,0,0,0,0,0,0,-1,1504,974,0,0
287,50,0,0,0,0,0,0,0,0,0,-1,1511,974,0,0
294,50,0,0,0,0,0,0,0,0,0,-1,1518,974,0,0
301,50,0,0,0,0,0,0,0,0,0,-1,1525,974,0,0
308,50,0,0,0,0,0,0,0,0,0,-1,1532,974,0,0
315,50,0,0,0,0,0,0,0,0,0,-1,1539,974,0,0
322,50,0,0,0,0,0,0,0,0,0,-1,1546,974,0,0
329,50,0,0,0,0,0,0,0,0,0,-1,1553,974,0,0
336,50,0,0,0,0,0,0,0,0,0,-1,1560,974,0,0
343,50,0,0,0,0,0,0,0,0,0,-1,1567,974,0,0
350,50,0,0,0,0,0,0,0,0,0,-1,1574,974,0,0
357,50,0,0,0,0,0,0,0,0,0,-1,1581,974,0,0
364,50,0,0,0,0,0,0,0,0,0,-1,1588,974,0,0
371,50,0,0,0,0,0,0,0,0,0,-1,1595,974,0,0
378,50,0,0,0,0,0,0,0,0,0,-1,1602,974,0,0
385,50,0,0,0,0,0,0,0,0,0,-1,1609,974,0,0
392,50,0,0,0,0,0,0,0,0,0,-1,1616,974,0,0
399,50,0,0,0,0,0,0,0,0,0,-1,1623,974,0,0
406,50,0,0,0,0,0,0,0,0,0,-1,1630,974,0,0
413,50,0,0,0,0,0,0,0,0,0,-1,1637,974,0,0
420,50,0,0,0,0,0,0,0,0,0,-1,1644,974,0,0
427,50,0,0,0,0,0,0,0,0,0,-1,1651,974,0,0
434,50,0,0,0,0,0,0,0,0,0,-1,1658,974,0,0
441,50,0,0,0,0,0,0,0,0,0,-1,1665,974,0,0
448,50,0,0,0,0,0,0,0,0,0,-1,1672,974,0,0
455,50,0,0,0,0,0,0,0,0,0,-1,1679,974,0,0
462,50,0,0,0,0,0,0,0,0,0,-1,1686,974,0,0
469,50,0,0,0,0,0,0,0,0,0,-1,1693,974,0,0
476,50,0,0,0,0,0,0,0,0,0,-1,1700,974,0,0
483,50,0,0,0,0,0,0,0,0,0,-1,1707,974,0,0
490,50,0,0,0,0,0,0,0,0,0,-1,1714,974,0,0
497,50,0,0,0,0,0,0,0,0,0,-1,1721,974,0,0
504,50,0,0,0,0,0,0,0,0,0,-1,1728,974,0,0
511,50,0,0,0,0,0,0,0,0,0,-1,1735,974,0,0
518,50,0,0,0,0,0,0,0,0,0,-1,1742,974,0,0
525,50,0,0,0,0,0,0,0,0,0,-1,1749,974,0,0
532,50,0,0,0,0,0,0,0,0,0,-1,1756,974,0,0
539,50,0,0,0,0,0,0,0,0,0,-1,1763,974,0,0
546,50,0,0,0,0,0,0,0,0,0,-1,1770,974,0,0
553,50,0,0,0,0,0,0,0,0,0,-1,1777,974,0,0
560,50,0,0,0,0,0,0,0,0,0,-1,1784,974,0,0
567,50,0,0,0,0,0,0,0,0,0,-1,1791,974,0,0
574,50,0,0,0,0,0,0,0,0,0,-1,1798,974,0,0
581,50,0,0,0,0,0,0,0,0,0,-1,1805,974,0,0
588,50,0,0,0,0,0,0,0,0,0,-1,1812,974,0,0
595,50,0,0,0,0,0,0,0,0,0,-1,1819,974,0,0
602,50,0,0,0,0,0,0,0,0,0,-1,1826,974,0,0
609,50,0,0,0,0,0,0,0,0,0,-1,1833,974,0,0
616,50,0,0,0,0,0,0,0,0,0,-1,1840,974,0,0
623,50,0,0,0,0,0,0,0,0,0,-1,1847,974,0,0
630,50,0,0,0,0,0,0,0,0,0,-1,1854,974,0,0
637,50,0,0,0,0,0,0,0,0,0,-1,1861,974,0,0
644,50,76.4672,2.17548,0.00423322,0.000726503,-0.000419559,0.00428272,0.000677004,-0.117436,0.00265837,0.0397883,1868,974,76.4671,-2.17547
651,50,76.4198,2.00909,0.00266888,0.000649688,-0.000450158,0.00276469,0.000553877,-0.209711,0.00168905,0.0333397,1875,974,76.4197,-2.00907
658,50,76.3627,1.93079,0.00153735,0.000670552,-0.000129521,0.00155629,0.000651612,-0.1452,0.000902477,0.0377401,1882,974,76.3627,-1.93076
665,50,76.447,1.62128,0.000710045,0.000869932,0.000290581,0.00109137,0.000488612,0.919635,0.000631248,0.0414905,1889,974,76.447,-1.62128
672,50,76.5266,1.54797,-0.000210219,0.000935065,0.000845057,0.00138323,-0.00065838,1.08318,0.00120323,0.0425456,1896,974,76.5266,-1.548
679,50,76.2747,2.16443,-0.00100268,0.000704042,0.00141649,0.00150437,-0.00180301,1.05651,0.00191211,0.0435023,1903,974,76.2746,-2.16444
686,50,76.2599,2.09912,-0.00140788,0.000207084,0.00166312,0.00124838,-0.00244918,1.0114,0.00217199,0.0444483,1910,974,76.2598,-2.09913
693,50,76.3271,2.01978,-0.00187731,-0.000275296,0.00166722,0.000773352,-0.00292596,1.00934,0.00225311,0.040385,1917,974,76.3271,-2.0198
700,50,76.3606,2.07672,-0.00235711,-0.000433651,0.00149398,0.000381388,-0.00317215,1.07138,0.00225268,0.0228294,1924,974,76.3606,-2.07674
707,50,76.4163,2.24109,-0.0029733,-0.000164271,0.00110934,0.000220993,-0.00335856,1.23654,0.00231622,0.0380195,1931,974,76.4162,-2.24112
714,50,76.3292,2.44592,0,0,0,0,0,0,0,-1,1938,974,76.3292,-2.44595
721,50,75.2361,5.67987,0,0,0,0,0,0,0,-1,1945,974,75.2361,-5.67987
728,50,75.26,6.12598,-0.00585209,0.0031459,-1.85263e-05,0.00314594,-0.00585213,-1.56874,0.00527277,0.0228759,1952,974,75.26,-6.126
735,50,75.285,6.56586,-0.00644549,0.0051722,-0.000379759,0.0051846,-0.00645789,-1.53815,0.00673518,0.0232401,1959,974,75.285,-6.56587
742,50,75.2911,6.9798,-0.00770128,0.0075315,-0.000788004,0.00757216,-0.00774193,-1.51925,0.00884178,0.017306,1966,974,75.2911,-6.97977
749,50,75.2068,7.34253,-0.00849823,0.0104329,-0.00100147,0.0104857,-0.00855106,-1.51809,0.0110098,0.0164516,1973,974,75.2069,-7.34251
756,50,75.1138,7.70026,-0.00864565,0.0140278,-0.000444955,0.0140365,-0.00865438,-1.55118,0.0132228,0.014833,1980,974,75.1139,-7.70023
763,50,74.9824,8.08911,-0.00800454,0.0185776,0.000976703,0.0186134,-0.00804038,1.53412,0.015787,0.0156367,1987,974,74.9824,-8.08909
770,50,74.8389,8.4433,-0.00570041,0.0227853,0.0035634,0.0232243,-0.00613941,1.44822,0.0178841,0.0146107,1994,974,74.8388,-8.44327
777,50,74.7324,8.85248,-0.00174777,0.025582,0.00751418,0.0275117,-0.0036775,1.31942,0.0196818,0.0263139,2001,974,74.7324,-8.8525
784,50,74.4214,9.84442,0.00521768,0.0260257,0.0133486,0.0325459,-0.0013025,1.11643,0.0221442,0.040546,2008,974,74.4213,-9.84442
791,50,74.1902,10.7173,0,0,0,0,0,0,0,-1,2015,974,74.1902,-10.7173
798,50,74.5713,10.8295,0.0352665,0.0133391,0.0321679,0.0582878,-0.00968219,0.621158,0.0424555,0.0437409,2022,974,74.5714,-10.8295
805,50,75.3291,11.5511,0.0598075,-0.00270369,0.04603,0.0841906,-0.0270868,0.487143,0.0670065,0.0497812,2029,974,75.3292,-11.5511
812,50,0,0,0,0,0,0,0,0,0,-1,2036,974,0,0
-700,43,0,0,0,0,0,0,0,0,0,-1,524,981,0,0
-693,43,-73.9099,-5.63873,0,0,0,0,0,0,0,-1,531,981,-73.9099,5.63874
-686,43,-73.2479,-2.8576,0,0,0,0,0,0,0,-1,538,981,-73.2479,2.85763
-679,43,-72.5858,-0.0765381,0,0,0,0,0,0,0,-1,545,981,-72.5858,0.0765161
-672,43,-54.7086,-1.5506,0,0,0,0,0,0,0,-1,552,981,-54.7086,1.55062
-665,43,-55.2656,-1.75293,0,0,0,0,0,0,0,-1,559,981,-55.2656,1.75292
-658,43,-59.0924,7.76605,0,0,0,0,0,0,0,-1,566,981,-59.0924,-7.76605
-651,43,-59.399,7.53888,-0.0182983,0.0499302,0.0165389,0.0537279,-0.0220961,1.34509,0.0450289,0.0459457,573,981,-59.3991,-7.5389
-644,43,-59.6783,7.30463,-0.0167177,0.0404834,0.0143754,0.0438929,-0.0201272,1.33792,0.0378014,0.026742,580,981,-59.6783,-7.30462
-637,43,-59.879,7.03882,-0.0149884,0.0315586,0.0118786,0.0344147,-0.0178445,1.33483,0.0306733,0.0183891,587,981,-59.879,-7.0388
-630,43,-59.95,6.8006,-0.0127274,0.0232138,0.00956831,0.0256023,-0.015116,1.32616,0.0237672,0.0138352,594,981,-59.9499,-6.8006
-623,43,-59.9626,6.53412,-0.0105659,0.0158211,0.00778735,0.0179479,-0.0126926,1.30419,0.0177768,0.0135595,601,981,-59.9627,-6.53412
-616,43,-59.9709,6.19873,-0.00877048,0.0100236,0.00606547,0.0118111,-0.010558,1.28421,0.0129216,0.0134812,608,981,-59.9709,-6.19875
-609,43,-59.9928,5.83972,-0.0074468,0.00621665,0.00475143,0.0077065,-0.00893664,1.26695,0.00961766,0.0150696,615,981,-59.9928,-5.8397
-602,43,-59.9806,5.48431,-0.00640324,0.00364513,0.00396535,0.00502145,-0.00777956,1.23672,0.00744763,0.018368,622,981,-59.9806,-5.48428
-595,43,-60.1516,5.16797,-0.00539278,0.00165395,0.00304461,0.00278717,-0.006526,1.21448,0.0055195,0.0209615,629,981,-60.1516,-5.16795
-588,43,-60.4639,5.00427,0,0,0,0,0,0,0,-1,636,981,-60.4639,-5.00429
-581,43,-60.0115,0.247559,0,0,0,0,0,0,0,-1,643,981,-60.0115,-0.247584
-574,43,-59.9818,0.113647,-0.00205915,-0.00204057,0.0014149,-0.000634931,-0.00346479,0.788681,0.00213,0.0265145,650,981,-59.9818,-0.113644
-567,43,-59.9041,-0.0662231,-0.00129109,-0.00226102,0.00111728,-0.000558069,-0.00299405,0.580638,0.00183846,0.0364841,657,981,-59.9041,0.0662516
-560,43,-59.8315,-0.197449,-0.000308661,-0.00202252,0.00080312,8.85758e-06,-0.00234004,0.376497,0.00156299,0.0421407,664,981,-59.8315,0.197472
-553,43,-59.931,0.0809326,0.00101776,-0.00148937,0.000413693,0.00108426,-0.00155587,0.15938,0.00153236,0.0410366,671,981,-59.931,-0.0809495
-546,43,-59.9598,0.308777,0.00285078,-0.00100066,-0.000109673,0.0028539,-0.00100378,-0.0284452,0.00231104,0.0432179,678,981,-59.9598,-0.308777
-539,43,-59.8453,0.408264,0.00494528,-0.00109358,-0.00083301,0.00505808,-0.00120638,-0.134594,0.00383791,0.0447384,685,981,-59.8453,-0.408238
-532,43,-59.8011,0.412109,0.00743492,-0.00176542,-0.00180003,0.00777456,-0.00210506,-0.186491,0.00600891,0.0410143,692,981,-59.8011,-0.412127
-525,43,-59.7934,0.266846,0.00966432,-0.0020312,-0.00293221,0.0103583,-0.00272516,-0.232393,0.00797074,0.0411064,699,981,-59.7934,-0.266871
-518,43,0,0,0,0,0,0,0,0,0,-1,706,981,0,0
-511,43,0,0,0,0,0,0,0,0,0,-1,713,981,0,0
-504,43,0,0,0,0,0,0,0,0,0,-1,720,981,0,0
-497,43,0,0,0,0,0,0,0,0,0,-1,727,981,0,0
-490,43,0,0,0,0,0,0,0,0,0,-1,734,981,0,0
-483,43,0,0,0,0,0,0,0,0,0,-1,741,981,0,0
-476,43,0,0,0,0,0,0,0,0,0,-1,748,981,0,0
-469,43,0,0,0,0,0,0,0,0,0,-1,755,981,0,0
-462,43,0,0,0,0,0,0,0,0,0,-1,762,981,0,0
-455,43,0,0,0,0,0,0,0,0,0,-1,769,981,0,0
-448,43,0,0,0,0,0,0,0,0,0,-1,776,981,0,0
-441,43,0,0,0,0,0,0,0,0,0,-1,783,981,0,0
-434,43,0,0,0,0,0,0,0,0,0,-1,790,981,0,0
-427,43,0,0,0,0,0,0,0,0,0,-1,797,981,0,0
-420,43,0,0,0,0,0,0,0,0,0,-1,804,981,0,0
-413,43,0,0,0,0,0,0,0,0,0,-1,811,981,0,0
-406,43,0,0,0,0,0,0,0,0,0,-1,818,981,0,0
-399,43,0,0,0,0,0,0,0,0,0,-1,825,981,0,0
-392,43,0,0,0,0,0,0,0,0,0,-1,832,981,0,0
-385,43,0,0,0,0,0,0,0,0,0,-1,839,981,0,0
-378,43,0,0,0,0,0,0,0,0,0,-1,846,981,0,0
-371,43,0,0,0,0,0,0,0,0,0,-1,853,981,0,0
-364,43,0,0,0,0,0,0,0,0,0,-1,860,981,0,0
-357,43,0,0,0,0,0,0,0,0,0,-1,867,981,0,0
-350,43,0,0,0,0,0,0,0,0,0,-1,874,981,0,0
-343,43,0,0,0,0,0,0,0,0,0,-1,881,981,0,0
-336,43,0,0,0,0,0,0,0,0,0,-1,888,981,0,0
-329,43,0,0,0,0,0,0,0,0,0,-1,895,981,0,0
-322,43,0,0,0,0,0,0,0,0,0,-1,902,981,0,0
-315,43,0,0,0,0,0,0,0,0,0,-1,909,981,0,0
-308,43,0,0,0,0,0,0,0,0,0,-1,916,981,0,0
-301,43,0,0,0,0,0,0,0,0,0,-1,923,981,0,0
-294,43,0,0,0,0,0,0,0,0,0,-1,930,981,0,0
-287,43,0,0,0,0,0,0,0,0,0,-1,937,981,0,0
-280,43,0,0,0,0,0,0,0,0,0,-1,944,981,0,0
-273,43,0,0,0,0,0,0,0,0,0,-1,951,981,0,0
-266,43,0,0,0,0,0,0,0,0,0,-1,958,981,0,0
-259,43,0,0,0,0,0,0,0,0,0,-1,965,981,0,0
-252,43,0,0,0,0,0,0,0,0,0,-1,972,981,0,0
-245,43,0,0,0,0,0,0,0,0,0,-1,979,981,0,0
-238,43,0,0,0,0,0,0,0,0,0,-1,986,981,0,0
-231,43,0,0,0,0,0,0,0,0,0,-1,993,981,0,0
-224,43,0,0,0,0,0,0,0,0,0,-1,1000,981,0,0
-217,43,0,0,0,0,0,0,0,0,0,-1,1007,981,0,0
-210,43,0,0,0,0,0,0,0,0,0,-1,1014,981,0,0
-203,43,0,0,0,0,0,0,0,0,0,-1,1021,981,0,0
-196,43,0,0,0,0,0,0,0,0,0,-1,1028,981,0,0
-189,43,0,0,0,0,0,0,0,0,0,-1,1035,981,0,0
-182,43,0,0,0,0,0,0,0,0,0,-1,1042,981,0,0
-175,43,0,0,0,0,0,0,0,0,0,-1,1049,981,0,0
-168,43,0,0,0,0,0,0,0,0,0,-1,1056,981,0,0
-161,43,0,0,0,0,0,0,0,0,0,-1,1063,981,0,0
-154,43,0,0,0,0,0,0,0,0,0,-1,1070,981,0,0
-147,43,0,0,0,0,0,0,0,0,0,-1,1077,981,0,0
-140,43,0,0,0,0,0,0,0,0,0,-1,1084,981,0,0
-133,43,0,0,0,0,0,0,0,0,0,-1,1091,981,0,0
-126,43,0,0,0,0,0,0,0,0,0,-1,1098,981,0,0
-119,43,0,0,0,0,0,0,0,0,0,-1,1105,981,0,0
-112,43,0,0,0,0,0,0,0,0,0,-1,1112,981,0,0
-105,43,0,0,0,0,0,0,0,0,0,-1,1119,981,0,0
-98,43,0,0,0,0,0,0,0,0,0,-1,1126,981,0,0
-91,43,0,0,0,0,0,0,0,0,0,-1,1133,981,0,0
-84,43,0,0,0,0,0,0,0,0,0,-1,1140,981,0,0
-77,43,0,0,0,0,0,0,0,0,0,-1,1147,981,0,0
-70,43,0,0,0,0,0,0,0,0,0,-1,1154,981,0,0
-63,43,0,0,0,0,0,0,0,0,0,-1,1161,981,0,0
-56,43,0,0,0,0,0,0,0,0,0,-1,1168,981,0,0
-49,43,0,0,0,0,0,0,0,0,0,-1,1175,981,0,0
-42,43,0,0,0,0,0,0,0,0,0,-1,1182,981,0,0
-35,43,0,0,0,0,0,0,0,0,0,-1,1189,981,0,0
-28,43,0,0,0,0,0,0,0,0,0,-1,1196,981,0,0
-21,43,0,0,0,0,0,0,0,0,0,-1,1203,981,0,0
-14,43,0,0,0,0,0,0,0,0,0,-1,1210,981,0,0
-7,43,0,0,0,0,0,0,0,0,0,-1,1217,981,0,0
0,43,0,0,0,0,0,0,0,0,0,-1,1224,981,0,0
7,43,0,0,0,0,0,0,0,0,0,-1,1231,981,0,0
14,43,0,0,0,0,0,0,0,0,0,-1,1238,981,0,0
21,43,0,0,0,0,0,0,0,0,0,-1,1245,981,0,0
28,43,0,0,0,0,0,0,0,0,0,-1,1252,981,0,0
35,43,0,0,0,0,0,0,0,0,0,-1,1259,981,0,0
42,43,0,0,0,0,0,0,0,0,0,-1,1266,981,0,0
49,43,0,0,0,0,0,0,0,0,0,-1,1273,981,0,0
56,43,0,0,0,0,0,0,0,0,0,-1,1280,981,0,0
63,43,0,0,0,0,0,0,0,0,0,-1,1287,981,0,0
70,43,0,0,0,0,0,0,0,0,0,-1,1294,981,0,0
77,43,0,0,0,0,0,0,0,0,0,-1,1301,981,0,0
84,43,0,0,0,0,0,0,0,0,0,-1,1308,981,0,0
91,43,0,0,0,0,0,0,0,0,0,-1,1315,981,0,0
98,43,0,0,0,0,0,0,0,0,0,-1,1322,981,0,0
105,43,0,0,0,0,0,0,0,0,0,-1,1329,981,0,0
112,43,0,0,0,0,0,0,0,0,0,-1,1336,981,0,0
119,43,0,0,0,0,0,0,0,0,0,-1,1343,981,0,0
126,43,0,0,0,0,0,0,0,0,0,-1,1350,981,0,0
133,43,0,0,0,0,0,0,0,0,0,-1,1357,981,0,0
140,43,0,0,0,0,0,0,0,0,0,-1,1364,981,0,0
147,43,0,0,0,0,0,0,0,0,0,-1,1371,981,0,0
154,43,0,0,0,0,0,0,0,0,0,-1,1378,981,0,0
161,43,0,0,0,0,0,0,0,0,0,-1,1385,981,0,0
168,43,0,0,0,0,0,0,0,0,0,-1,1392,981,0,0
175,43,0,0,0,0,0,0,0,0,0,-1,1399,981,0,0
182,43,0,0,0,0,0,0,0,0,0,-1,1406,981,0,0
189,43,0,0,0,0,0,0,0,0,0,-1,1413,981,0,0
196,43,0,0,0,0,0,0,0,0,0,-1,1420,981,0,0
203,43,0,0,0,0,0,0,0,0,0,-1,1427,981,0,0
210,43,0,0,0,0,0,0,0,0,0,-1,1434,981,0,0
217,43,0,0,0,0,0,0,0,0,0,-1,1441,981,0,0
224,43,0,0,0,0,0,0,0,0,0,-1,1448,981,0,0
231,43,0,0,0,0,0,0,0,0,0,-1,1455,981,0,0
238,43,0,0,0,0,0,0,0,0,0,-1,1462,981,0,0
245,43,0,0,0,0,0,0,0,0,0,-1,1469,981,0,0
252,43,0,0,0,0,0,0,0,0,0,-1,1476,981,0,0
259,43,0,0,0,0,0,0,0,0,0,-1,1483,981,0,0
266,43,0,0,0,0,0,0,0,0,0,-1,1490,981,0,0
273,43,0,0,0,0,0,0,0,0,0,-1,1497,981,0,0
280,43,0,0,0,0,0,0,0,0,0,-1,1504,981,0,0
287,43,0,0,0,0,0,0,0,0,0,-1,1511,981,0,0
294,43,0,0,0,0,0,0,0,0,0,-1,1518,981,0,0
301,43,0,0,0,0,0,0,0,0,0,-1,1525,981,0,0
308,43,0,0,0,0,0,0,0,0,0,-1,1532,981,0,0
315,43,0,0,0,0,0,0,0,0,0,-1,1539,981,0,0
322,43,0,0,0,0,0,0,0,0,0,-1,1546,981,0,0
329,43,0,0,0,0,0,0,0,0,0,-1,1553,981,0,0
336,43,0,0,0,0,0,0,0,0,0,-1,1560,981,0,0
343,43,0,0,0,0,0,0,0,0,0,-1,1567,981,0,0
350,43,0,0,0,0,0,0,0,0,0,-1,1574,981,0,0
357,43,0,0,0,0,0,0,0,0,0,-1,1581,981,0,0
364,43,0,0,0,0,0,0,0,0,0,-1,1588,981,0,0
371,43,0,0,0,0,0,0,0,0,0,-1,1595,981,0,0
378,43,0,0,0,0,0,0,0,0,0,-1,1602,981,0,0
385,43,0,0,0,0,0,0,0,0,0,-1,1609,981,0,0
392,43,0,0,0,0,0,0,0,0,0,-1,1616,981,0,0
399,43,0,0,0,0,0,0,0,0,0,-1,1623,981,0,0
406,43,0,0,0,0,0,0,0,0,0,-1,1630,981,0,0
413,43,0,0,0,0,0,0,0,0,0,-1,1637,981,0,0
420,43,0,0,0,0,0,0,0,0,0,-1,1644,981,0,0
427,43,0,0,0,0,0,0,0,0,0,-1,1651,981,0,0
434,43,0,0,0,0,0,0,0,0,0,-1,1658,981,0,0
441,43,0,0,0,0,0,0,0,0,0,-1,1665,981,0,0
448,43,0,0,0,0,0,0,0,0,0,-1,1672,981,0,0
455,43,0,0,0,0,0,0,0,0,0,-1,1679,981,0,0
462,43,0,0,0,0,0,0,0,0,0,-1,1686,981,0,0
469,43,0,0,0,0,0,0,0,0,0,-1,1693,981,0,0
476,43,0,0,0,0,0,0,0,0,0,-1,1700,981,0,0
483,43,0,0,0,0,0,0,0,0,0,-1,1707,981,0,0
490,43,0,0,0,0,0,0,0,0,0,-1,1714,981,0,0
497,43,0,0,0,0,0,0,0,0,0,-1,1721,981,0,0
504,43,0,0,0,0,0,0,0,0,0,-1,1728,981,0,0
511,43,0,0,0,0,0,0,0,0,0,-1,1735,981,0,0
518,43,0,0,0,0,0,0,0,0,0,-1,1742,981,0,0
525,43,0,0,0,0,0,0,0,0,0,-1,1749,981,0,0
532,43,0,0,0,0,0,0,0,0,0,-1,1756,981,0,0
539,43,0,0,0,0,0,0,0,0,0,-1,1763,981,0,0
546,43,0,0,0,0,0,0,0,0,0,-1,1770,981,0,0
553,43,0,0,0,0,0,0,0,0,0,-1,1777,981,0,0
560,43,0,0,0,0,0,0,0,0,0,-1,1784,981,0,0
567,43,0,0,0,0,0,0,0,0,0,-1,1791,981,0,0
574,43,0,0,0,0,0,0,0,0,0,-1,1798,981,0,0
581,43,0,0,0,0,0,0,0,0,0,-1,1805,981,0,0
588,43,0,0,0,0,0,0,0,0,0,-1,1812,981,0,0
595,43,0,0,0,0,0,0,0,0,0,-1,1819,981,0,0
602,43,0,0,0,0,0,0,0,0,0,-1,1826,981,0,0
609,43,0,0,0,0,0,0,0,0,0,-1,1833,981,0,0
616,43,0,0,0,0,0,0,0,0,0,-1,1840,981,0,0
623,43,0,0,0,0,0,0,0,0,0,-1,1847,981,0,0
630,43,0,0,0,0,0,0,0,0,0,-1,1854,981,0,0
637,43,0,0,0,0,0,0,0,0,0,-1,1861,981,0,0
644,43,76.4391,2.06354,0.0038418,0.000212418,-0.000273332,0.00386227,0.000191948,-0.0747489,0.00251331,0.0377223,1868,981,76.4391,-2.06355
651,43,76.3329,2.04877,0.00244613,0.000117602,-0.000371614,0.002504,5.97336e-05,-0.154481,0.00164978,0.0361188,1875,981,76.3329,-2.04877
658,43,76.5164,1.87152,0.0013921,9.86161e-05,-9.65172e-05,0.00139927,9.14539e-05,-0.0740711,0.000903903,0.0383882,1882,981,76.5163,-1.87152
665,43,76.692,1.70148,0.000618713,0.000272484,0.000271284,0.000767411,0.000123785,0.501406,0.000475745,0.0386294,1889,981,76.692,-1.70145
672,43,76.494,1.72162,-0.000207879,0.000391585,0.000764431,0.000912946,-0.000729241,0.972236,0.000950093,0.0397673,1896,981,76.494,-1.72161
679,43,76.4138,1.95728,-0.000918335,0.000265661,0.00130144,0.00110342,-0.0017561,0.99885,0.00166522,0.0409262,1903,981,76.4138,-1.95725
686,43,76.4242,2.07733,-0.00127119,-0.000149691,0.00156501,0.000951997,-0.00237287,0.957424,0.00197718,0.0392374,1910,981,76.4241,-2.07733
693,43,76.4592,2.04883,-0.00165758,-0.000587966,0.00159985,0.000564098,-0.00280964,0.946702,0.0020867,0.0359934,1917,981,76.4592,-2.04884
700,43,76.3789,2.04071,-0.00203927,-0.000737009,0.00145048,0.00020179,-0.00297807,0.99637,0.00205595,0.0333429,1924,981,76.3789,-2.04072
707,43,76.4817,2.12164,-0.0026816,-0.000408043,0.00109903,3.63605e-05,-0.003126,1.18654,0.00209623,0.0341576,1931,981,76.4817,-2.12162
714,43,76.4142,2.27094,0,0,0,0,0,0,0,-1,1938,981,76.4142,-2.27096
721,43,75.6448,5.7323,0,0,0,0,0,0,0,-1,1945,981,75.6448,-5.73228
728,43,75.693,6.16638,-0.00600791,0.00340209,-4.32743e-05,0.00340228,-0.00600811,-1.5662,0.00550209,0.0203068,1952,981,75.693,-6.16641
735,43,75.7356,6.58899,-0.00685104,0.00554591,-0.000398295,0.0055587,-0.00686382,-1.53871,0.00718533,0.0162249,1959,981,75.7356,-6.58902
742,43,75.6869,6.97113,-0.00839772,0.00791608,-0.000816561,0.00795685,-0.00843849,-1.52091,0.00946722,0.0175662,1966,981,75.6869,-6.97115
749,43,75.6184,7.32898,-0.00958273,0.0107676,-0.00109177,0.010826,-0.00964113,-1.51735,0.0118233,0.0198675,1973,981,75.6185,-7.32897
756,43,75.5767,7.62512,-0.0103056,0.0143152,-0.000696636,0.0143349,-0.0103253,-1.54253,0.0143002,0.0241231,1980,981,75.5767,-7.62511
763,43,75.468,7.92133,-0.0104382,0.018896,0.000459248,0.0189032,-0.0104454,1.55515,0.0171773,0.0275645,1987,981,75.468,-7.9213
770,43,75.3562,8.29669,-0.00886329,0.0232942,0.00278805,0.0235342,-0.00910322,1.48495,0.0194475,0.0228905,1994,981,75.3563,-8.29671
777,43,75.3577,8.6842,-0.00554192,0.0262666,0.00646558,0.0275306,-0.00680592,1.37773,0.0209934,0.0282464,2001,981,75.3577,-8.6842
784,43,75.1768,9.56268,0.000818857,0.0268283,0.0119739,0.0315012,-0.003854,1.19872,0.0223963,0.0439567,2008,981,75.1767,-9.56271
791,43,74.8193,10.4138,0,0,0,0,0,0,0,-1,2015,981,74.8193,-10.4137
798,43,74.7886,11.1443,0.029757,0.0139318,0.0302334,0.0530961,-0.0094073,0.65741,0.038914,0.0448593,2022,981,74.7886,-11.1443
805,43,75.0488,11.8196,0.0537888,-0.00234743,0.0438245,0.0777631,-0.0263217,0.500576,0.0624919,0.0494551,2029,981,75.0487,-11.8197
812,43,75.2178,12.5287,0,0,0,0,0,0,0,-1,2036,981,75.2178,-12.5287
-700,36,0,0,0,0,0,0,0,0,0,-1,524,988,0,0
-693,36,-72.9533,-5.49408,0,0,0,0,0,0,0,-1,531,988,-72.9533,5.49406
-686,36,-72.3343,-2.78955,0,0,0,0,0,0,0,-1,538,988,-72.3343,2.78957
-679,36,-71.7153,-0.085083,0,0,0,0,0,0,0,-1,545,988,-71.7153,0.0850845
-672,36,-55.0911,-1.58173,0,0,0,0,0,0,0,-1,552,988,-55.0911,1.58172
-665,36,-55.481,-1.90393,0,0,0,0,0,0,0,-1,559,988,-55.481,1.90391
-658,36,-59.476,7.27032,0,0,0,0,0,0,0,-1,566,988,-59.476,-7.27029
-651,36,-59.8137,7.15125,-0.0165944,0.0506574,0.018745,0.0555292,-0.0214663,1.31652,0.0458805,0.0483739,573,988,-59.8138,-7.15126
-644,36,-60.0933,7.06818,-0.0154053,0.0411712,0.0153852,0.0450843,-0.0193185,1.32173,0.038162,0.0306977,580,988,-60.0933,-7.06815
-637,36,-60.2709,6.82874,-0.0141816,0.032283,0.0120598,0.0352267,-0.0171252,1.33139,0.0308217,0.0219836,587,988,-60.2709,-6.82873
-630,36,-60.3066,6.67224,-0.0124177,0.0233887,0.00916123,0.0255966,-0.0146255,1.33431,0.0235084,0.0157576,594,988,-60.3067,-6.67222
-623,36,-60.3421,6.43732,-0.0105973,0.0158742,0.00718213,0.0176973,-0.0124204,1.32221,0.0174772,0.0137615,601,988,-60.3421,-6.43734
-616,36,-60.3489,6.2019,-0.00903992,0.010147,0.00546005,0.011592,-0.0104849,1.31209,0.0127514,0.0124102,608,988,-60.3489,-6.20189
-609,36,-60.2634,5.97186,-0.00778336,0.00629234,0.00417621,0.00743813,-0.00892916,1.30302,0.00946272,0.019026,615,988,-60.2634,-5.97185
-602,36,-60.3411,5.58307,-0.00671699,0.00365964,0.00346557,0.00471062,-0.00776796,1.27635,0.00727623,0.0225718,622,988,-60.341,-5.58309
-595,36,-60.6587,5.25952,-0.00568078,0.00167043,0.00267235,0.00253922,-0.00654957,1.25647,0.00541501,0.0274509,629,988,-60.6587,-5.25951
-588,36,-60.9648,5.0661,0,0,0,0,0,0,0,-1,636,988,-60.9649,-5.06608
-581,36,-59.9532,0.266541,0,0,0,0,0,0,0,-1,643,988,-59.9532,-0.266566
-574,36,-59.9529,0.136292,-0.00213441,-0.00216291,0.00124281,-0.000905766,-0.00339156,0.779666,0.00202771,0.0264107,650,988,-59.953,-0.136308
-567,36,-59.9435,-0.010498,-0.00125352,-0.00240296,0.000985796,-0.000687149,-0.00296934,0.521485,0.0017949,0.0320481,657,988,-59.9435,0.0104677
-560,36,-59.8239,-0.0582275,-0.000139388,-0.00217132,0.000719175,8.93946e-05,-0.00240011,0.307995,0.00163069,0.0373781,664,988,-59.8239,0.0582258
-553,36,-59.8928,0.236816,0.00129651,-0.00164605,0.000368742,0.00134201,-0.00169155,0.122784,0.0017553,0.0422382,671,988,-59.8927,-0.236834
-546,36,-59.9433,0.406189,0.00315721,-0.00120063,-0.000122329,0.00316064,-0.00120406,-0.0280416,0.00260299,0.0463806,678,988,-59.9433,-0.406168
-539,36,-59.9506,0.295105,0.00503081,-0.00134713,-0.000789021,0.00512697,-0.0014433,-0.121275,0.00398713,0.0453421,685,988,-59.9506,-0.295083
-532,36,-59.826,0.310852,0.00725038,-0.00189957,-0.00166697,0.00754461,-0.0021938,-0.174708,0.0058986,0.0424479,692,988,-59.8261,-0.310832
-525,36,-59.6285,0.280945,0.00927205,-0.00207141,-0.00282068,0.00993473,-0.00273409,-0.230752,0.0076981,0.0451115,699,988,-59.6285,-0.280937
-518,36,0,0,0,0,0,0,0,0,0,-1,706,988,0,0
-511,36,0,0,0,0,0,0,0,0,0,-1,713,988,0,0
-504,36,0,0,0,0,0,0,0,0,0,-1,720,988,0,0
-497,36,0,0,0,0,0,0,0,0,0,-1,727,988,0,0
-490,36,0,0,0,0,0,0,0,0,0,-1,734,988,0,0
-483,36,0,0,0,0,0,0,0,0,0,-1,741,988,0,0
-476,36,0,0,0,0,0,0,0,0,0,-1,748,988,0,0
-469,36,0,0,0,0,0,0,0,0,0,-1,755,988,0,0
-462,36,0,0,0,0,0,0,0,0,0,-1,762,988,0,0
-455,36,0,0,0,0,0,0,0,0,0,-1,769,988,0,0
-448,36,0,0,0,0,0,0,0,0,0,-1,776,988,0,0
-441,36,0,0,0,0,0,0,0,0,0,-1,783,988,0,0
-434,36,0,0,0,0,0,0,0,0,0,-1,790,988,0,0
-427,36,0,0,0,0,0,0,0,0,0,-1,797,988,0,0
-420,36,0,0,0,0,0,0,0,0,0,-1,804,988,0,0
-413,36,0,0,0,0,0,0,0,0,0,-1,811,988,0,0
-406,36,0,0,0,0,0,0,0,0,0,-1,818,988,0,0
-399,36,0,0,0,0,0,0,0,0,0,-1,825,988,0,0
-392,36,0,0,0,0,0,0,0,0,0,-1,832,988,0,0
-385,36,0,0,0,0,0,0,0,0,0,-1,839,988,0,0
-378,36,0,0,0,0,0,0,0,0,0,-1,846,988,0,0
-371,36,0,0,0,0,0,0,0,0,0,-1,853,988,0,0
-364,36,0,0,0,0,0,0,0,0,0,-1,860,988,0,0
-357,36,0,0,0,0,0,0,0,0,0,-1,867,988,0,0
-350,36,0,0,0,0,0,0,0,0,0,-1,874,988,0,0
-343,36,0,0,0,0,0,0,0,0,0,-1,881,988,0,0
-336,36,0,0,0,0,0,0,0,0,0,-1,888,988,0,0
-329,36,0,0,0,0,0,0,0,0,0,-1,895,988,0,0
-322,36,0,0,0,0,0,0,0,0,0,-1,902,988,0,0
-315,36,0,0,0,0,0,0,0,0,0,-1,909,988,0,0
-308,36,0,0,0,0,0,0,0,0,0,-1,916,988,0,0
-301,36,0,0,0,0,0,0,0,0,0,-1,923,988,0,0
-294,36,0,0,0,0,0,0,0,0,0,-1,930,988,0,0
-287,36,0,0,0,0,0,0,0,0,0,-1,937,988,0,0
-280,36,0,0,0,0,0,0,0,0,0,-1,944,988,0,0
-273,36,0,0,0,0,0,0,0,0,0,-1,951,988,0,0
-266,36,0,0,0,0,0,0,0,0,0,-1,958,988,0,0
-259,36,0,0,0,0,0,0,0,0,0,-1,965,988,0,0
-252,36,0,0,0,0,0,0,0,0,0,-1,972,988,0,0
-245,36,0,0,0,0,0,0,0,0,0,-1,979,988,0,0
-238,36,0,0,0,0,0,0,0,0,0,-1,986,988,0,0
-231,36,0,0,0,0,0,0,0,0,0,-1,993,988,0,0
-224,36,0,0,0,0,0,0,0,0,0,-1,1000,988,0,0
-217,36,0,0,0,0,0,0,0,0,0,-1,1007,988,0,0
-210,36,0,0,0,0,0,0,0,0,0,-1,1014,988,0,0
-203,36,0,0,0,0,0,0,0,0,0,-1,1021,988,0,0
-196,36,0,0,0,0,0,0,0,0,0,-1,1028,988,0,0
-189,36,0,0,0,0,0,0,0,0,0,-1,1035,988,0,0
-182,36,0,0,0,0,0,0,0,0,0,-1,1042,988,0,0
-175,36,0,0,0,0,0,0,0,0,0,-1,1049,988,0,0
-168,36,0,0,0,0,0,0,0,0,0,-1,1056,988,0,0
-161,36,0,0,0,0,0,0,0,0,0,-1,1063,988,0,0
-154,36,0,0,0,0,0,0,0,0,0,-1,1070,988,0,0
-147,36,0,0,0,0,0,0,0,0,0,-1,1077,988,0,0
-140,36,0,0,0,0,0,0,0,0,0,-1,1084,988,0,0
-133,36,0,0,0,0,0,0,0,0,0,-1,1091,988,0,0
-126,36,0,0,0,0,0,0,0,0,0,-1,1098,988,0,0
-119,36,0,0,0,0,0,0,0,0,0,-1,1105,988,0,0
-112,36,0,0,0,0,0,0,0,0,0,-1,1112,988,0,0
-105,36,0,0,0,0,0,0,0,0,0,-1,1119,988,0,0
-98,36,0,0,0,0,0,0,0,0,0,-1,1126,988,0,0
-91,36,0,0,0,0,0,0,0,0,0,-1,1133,988,0,0
-84,36,0,0,0,0,0,0,0,0,0,-1,1140,988,0,0
-77,36,0,0,0,0,0,0,0,0,0,-1,1147,988,0,0
-70,36,0,0,0,0,0,0,0,0,0,-1,1154,988,0,0
-63,36,0,0,0,0,0,0,0,0,0,-1,1161,988,0,0
-56,36,0,0,0,0,0,0,0,0,0,-1,1168,988,0,0
-49,36,0,0,0,0,0,0,0,0,0,-1,1175,988,0,0
-42,36,0,0,0,0,0,0,0,0,0,-1,1182,988,0,0
-35,36,0,0,0,0,0,0,0,0,0,-1,1189,988,0,0
-28,36,0,0,0,0,0,0,0,0,0,-1,1196,988,0,0
-21,36,0,0,0,0,0,0,0,0,0,-1,1203,988,0,0
-14,36,0,0,0,0,0,0,0,0,0,-1,1210,988,0,0
-7,36,0,0,0,0,0,0,0,0,0,-1,1217,988,0,0
0,36,0,0,0,0,0,0,0,0,0,-1,1224,988,0,0
7,36,0,0,0,0,0,0,0,0,0,-1,1231,988,0,0
14,36,0,0,0,0,0,0,0,0,0,-1,1238,988,0,0
21,36,0,0,0,0,0,0,0,0,0,-1,1245,988,0,0
28,36,0,0,0,0,0,0,0,0,0,-1,1252,988,0,0
35,36,0,0,0,0,0,0,0,0,0,-1,1259,988,0,0
42,36,0,0,0,0,0,0,0,0,0,-1,1266,988,0,0
49,36,0,0,0,0,0,0,0,0,0,-1,1273,988,0,0
56,36,0,0,0,0,0,0,0,0,0,-1,1280,988,0,0
63,36,0,0,0,0,0,0,0,0,0,-1,1287,988,0,0
70,36,0,0,0,0,0,0,0,0,0,-1,1294,988,0,0
77,36,0,0,0,0,0,0,0,0,0,-1,1301,988,0,0
84,36,0,0,0,0,0,0,0,0,0,-1,1308,988,0,0
91,36,0,0,0,0,0,0,0,0,0,-1,1315,988,0,0
98,36,0,0,0,0,0,0,0,0,0,-1,1322,988,0,0
105,36,0,0,0,0,0,0,0,0,0,-1,1329,988,0,0
112,36,0,0,0,0,0,0,0,0,0,-1,1336,988,0,0
119,36,0,0,0,0,0,0,0,0,0,-1,1343,988,0,0
126,36,0,0,0,0,0,0,0,0,0,-1,1350,988,0,0
133,36,0,0,0,0,0,0,0,0,0,-1,1357,988,0,0
140,36,0,0,0,0,0,0,0,0,0,-1,1364,988,0,0
147,36,0,0,0,0,0,0,0,0,0,-1,1371,988,0,0
154,36,0,0,0,0,0,0,0,0,0,-1,1378,988,0,0
161,36,0,0,0,0,0,0,0,0,0,-1,1385,988,0,0
168,36,0,0,0,0,0,0,0,0,0,-1,1392,988,0,0
175,36,0,0,0,0,0,0,0,0,0,-1,1399,988,0,0
182,36,0,0,0,0,0,0,0,0,0,-1,1406,988,0,0
189,36,0,0,0,0,0,0,0,0,0,-1,1413,988,0,0
196,36,0,0,0,0,0,0,0,0,0,-1,1420,988,0,0
203,36,0,0,0,0,0,0,0,0,0,-1,1427,988,0,0
210,36,0,0,0,0,0,0,0,0,0,-1,1434,988,0,0
217,36,0,0,0,0,0,0,0,0,0,-1,1441,988,0,0
224,36,0,0,0,0,0,0,0,0,0,-1,1448,988,0,0
231,36,0,0,0,0,0,0,0,0,0,-1,1455,988,0,0
238,36,0,0,0,0,0,0,0,0,0,-1,1462,988,0,0
245,36,0,0,0,0,0,0,0,0,0,-1,1469,988,0,0
252,36,0,0,0,0,0,0,0,0,0,-1,1476,988,0,0
259,36,0,0,0,0,0,0,0,0,0,-1,1483,988,0,0
266,36,0,0,0,0,0,0,0,0,0,-1,1490,988,0,0
273,36,0,0,0,0,0,0,0,0,0,-1,1497,988,0,0
280,36,0,0,0,0,0,0,0,0,0,-1,1504,988,0,0
287,36,0,0,0,0,0,0,0,0,0,-1,1511,988,0,0
294,36,0,0,0,0,0,0,0,0,0,-1,1518,988,0,0
301,36,0,0,0,0,0,0,0,0,0,-1,1525,988,0,0
308,36,0,0,0,0,0,0,0,0,0,-1,1532,988,0,0
315,36,0,0,0,0,0,0,0,0,0,-1,1539,988,0,0
322,36,0,0,0,0,0,0,0,0,0,-1,1546,988,0,0
329,36,0,0,0,0,0,0,0,0,0,-1,1553,988,0,0
336,36,0,0,0,0,0,0,0,0,0,-1,1560,988,0,0
343,36,0,0,0,0,0,0,0,0,0,-1,1567,988,0,0
350,36,0,0,0,0,0,0,0,0,0,-1,1574,988,0,0
357,36,0,0,0,0,0,0,0,0,0,-1,1581,988,0,0
364,36,0,0,0,0,0,0,0,0,0,-1,1588,988,0,0
371,36,0,0,0,0,0,0,0,0,0,-1,1595,988,0,0
378,36,0,0,0,0,0,0,0,0,0,-1,1602,988,0,0
385,36,0,0,0,0,0,0,0,0,0,-1,1609,988,0,0
392,36,0,0,0,0,0,0,0,0,0,-1,1616,988,0,0
399,36,0,0,0,0,0,0,0,0,0,-1,1623,988,0,0
406,36,0,0,0,0,0,0,0,0,0,-1,1630,988,0,0
413,36,0,0,0,0,0,0,0,0,0,-1,1637,988,0,0
420,36,0,0,0,0,0,0,0,0,0,-1,1644,988,0,0
427,36,0,0,0,0,0,0,0,0,0,-1,1651,988,0,0
434,36,0,0,0,0,0,0,0,0,0,-1,1658,988,0,0
441,36,0,0,0,0,0,0,0,0,0,-1,1665,988,0,0
448,36,0,0,0,0,0,0,0,0,0,-1,1672,988,0,0
455,36,0,0,0,0,0,0,0,0,0,-1,1679,988,0,0
462,36,0,0,0,0,0,0,0,0,0,-1,1686,988,0,0
469,36,0,0,0,0,0,0,0,0,0,-1,1693,988,0,0
476,36,0,0,0,0,0,0,0,0,0,-1,1700,988,0,0
483,36,0,0,0,0,0,0,0,0,0,-1,1707,988,0,0
490,36,0,0,0,0,0,0,0,0,0,-1,1714,988,0,0
497,36,0,0,0,0,0,0,0,0,0,-1,1721,988,0,0
504,36,0,0,0,0,0,0,0,0,0,-1,1728,988,0,0
511,36,0,0,0,0,0,0,0,0,0,-1,1735,988,0,0
518,36,0,0,0,0,0,0,0,0,0,-1,1742,988,0,0
525,36,0,0,0,0,0,0,0,0,0,-1,1749,988,0,0
532,36,0,0,0,0,0,0,0,0,0,-1,1756,988,0,0
539,36,0,0,0,0,0,0,0,0,0,-1,1763,988,0,0
546,36,0,0,0,0,0,0,0,0,0,-1,1770,988,0,0
553,36,0,0,0,0,0,0,0,0,0,-1,1777,988,0,0
560,36,0,0,0,0,0,0,0,0,0,-1,1784,988,0,0
567,36,0,0,0,0,0,0,0,0,0,-1,1791,988,0,0
574,36,0,0,0,0,0,0,0,0,0,-1,1798,988,0,0
581,36,0,0,0,0,0,0,0,0,0,-1,1805,988,0,0
588,36,0,0,0,0,0,0,0,0,0,-1,1812,988,0,0
595,36,0,0,0,0,0,0,0,0,0,-1,1819,988,0,0
602,36,0,0,0,0,0,0,0,0,0,-1,1826,988,0,0
609,36,0,0,0,0,0,0,0,0,0,-1,1833,988,0,0
616,36,0,0,0,0,0,0,0,0,0,-1,1840,988,0,0
623,36,0,0,0,0,0,0,0,0,0,-1,1847,988,0,0
630,36,0,0,0,0,0,0,0,0,0,-1,1854,988,0,0
637,36,0,0,0,0,0,0,0,0,0,-1,1861,988,0,0
644,36,76.4193,1.97052,0.00321008,-2.68048e-05,-0.000155741,0.00321756,-3.42809e-05,-0.0479667,0.00215656,0.0398657,1868,988,76.4193,-1.97051
651,36,76.3064,2.10486,0.00203987,-0.000225332,-0.000250741,0.00206729,-0.000252755,-0.108936,0.00146971,0.0403416,1875,988,76.3064,-2.10484
658,36,76.7264,1.93726,0.00111494,-0.00032457,-1.33544e-06,0.00111494,-0.000324571,-0.000927704,0.000871858,0.0405968,1882,988,76.7265,-1.93727
665,36,76.7841,1.93884,0.000437683,-0.000206022,0.000323666,0.000572282,-0.000340621,0.394104,0.000532692,0.0379949,1889,988,76.784,-1.93883
672,36,76.6123,1.92896,-0.000251866,-6.17518e-05,0.000750947,0.00060013,-0.000913748,0.848355,0.000880267,0.037809,1896,988,76.6123,-1.92898
679,36,76.4916,1.98871,-0.000829054,-8.12919e-05,0.0012391,0.000839105,-0.00174945,0.931922,0.001525,0.0395049,1903,988,76.4916,-1.98872
686,36,76.4755,2.08423,-0.00109567,-0.000403997,0.00149424,0.000783901,-0.00228357,0.89912,0.0018402,0.0359853,1910,988,76.4754,-2.08421
693,36,76.4792,2.10632,-0.00136792,-0.000757759,0.0015593,0.000526029,-0.00265171,0.882003,0.00196674,0.0354232,1917,988,76.4792,-2.10633
700,36,76.4094,2.13831,-0.00162486,-0.000864108,0.0014456,0.00025032,-0.00273929,0.914046,0.00191509,0.0362039,1924,988,76.4094,-2.13829
707,36,76.4855,2.10114,-0.00223989,-0.000470044,0.00114681,9.35743e-05,-0.00280351,1.114,0.00190096,0.0316992,1931,988,76.4855,-2.10113
714,36,76.4803,2.065,0,0,0,0,0,0,0,-1,1938,988,76.4803,-2.06498
721,36,75.8856,5.81842,0,0,0,0,0,0,0,-1,1945,988,75.8856,-5.81842
728,36,75.9493,6.26343,-0.00586451,0.00369653,-2.38772e-05,0.00369659,-0.00586457,-1.5683,0.00556724,0.0254476,1952,988,75.9493,-6.26341
735,36,76.024,6.68524,-0.00683948,0.00587938,-0.00036526,0.00588986,-0.00684996,-1.54211,0.0073623,0.0207223,1959,988,76.024,-6.68526
742,36,75.9427,6.9411,-0.0085161,0.00822388,-0.000796733,0.00826171,-0.00855393,-1.52334,0.009709,0.0169661,1966,988,75.9428,-6.94107
749,36,75.9084,7.28302,-0.00996583,0.0110036,-0.00113938,0.0110653,-0.0100276,-1.51667,0.0121829,0.0193314,1973,988,75.9084,-7.28303
756,36,75.897,7.61511,-0.0111332,0.0144708,-0.000946926,0.0145058,-0.0111681,-1.53388,0.0148646,0.0197099,1980,988,75.897,-7.61512
763,36,75.7678,7.8009,-0.011901,0.0189948,-0.000151198,0.0189956,-0.0119018,-1.5659,0.0179946,0.0222343,1987,988,75.7679,-7.80092
770,36,75.6921,8.07495,-0.0110316,0.0235037,0.00174863,0.023592,-0.0111199,1.52034,0.0204676,0.0189601,1994,988,75.6922,-8.07497
777,36,75.6772,8.45142,-0.00835891,0.0266533,0.00492359,0.0273325,-0.00903811,1.43371,0.0218661,0.0276138,2001,988,75.6772,-8.45145
784,36,75.7979,8.78296,-0.00272859,0.0274904,0.00978641,0.0303828,-0.00562106,1.28342,0.0223656,0.0491004,2008,988,75.7978,-8.78297
791,36,75.863,9.11194,0,0,0,0,0,0,0,-1,2015,988,75.8631,-9.11191
798,36,75.1245,11.2658,0,0,0,0,0,0,0,-1,2022,988,75.1245,-11.2658
805,36,75.2385,11.7408,0,0,0,0,0,0,0,-1,2029,988,75.2385,-11.7408
812,36,71.4768,9.2749,0,0,0,0,0,0,0,-1,2036,988,71.4769,-9.27489
-700,29,0,0,0,0,0,0,0,0,0,-1,524,995,0,0
-693,29,-72.0915,-5.29596,0,0,0,0,0,0,0,-1,531,995,-72.0915,5.29595
-686,29,-71.477,-2.59906,0,0,0,0,0,0,0,-1,538,995,-71.477,2.59905
-679,29,-70.9157,-0.0524292,0,0,0,0,0,0,0,-1,545,995,-70.9157,0.0524263
-672,29,-59.3404,4.76837,0,0,0,0,0,0,0,-1,552,995,-59.3404,-4.76836
-665,29,-59.0006,5.09985,0,0,0,0,0,0,0,-1,559,995,-59.0006,-5.09983
-658,29,-55.8938,-2.22638,0,0,0,0,0,0,0,-1,566,995,-55.8938,2.22638
-651,29,-59.8876,6.38855,0,0,0,0,0,0,0,-1,573,995,-59.8876,-6.38854
-644,29,-60.2888,6.55548,-0.0114334,0.0421861,0.0121127,0.0447954,-0.0140427,1.35862,0.0354832,0.0488883,580,995,-60.2888,-6.55548
-637,29,-60.5546,6.6106,-0.010876,0.0333063,0.00959296,0.0352993,-0.0128689,1.36596,0.0287975,0.0285242,587,995,-60.5546,-6.61058
-630,29,-60.5802,6.50775,-0.0101953,0.0238184,0.00729503,0.025317,-0.0116938,1.36819,0.0218454,0.015415,594,995,-60.5802,-6.50772
-623,29,-60.5731,6.35669,-0.0094507,0.0160422,0.00577233,0.0172883,-0.0106968,1.35818,0.0163059,0.0140673,601,995,-60.5731,-6.35668
-616,29,-60.6599,6.1723,-0.00861691,0.0102328,0.00458006,0.0112867,-0.00967084,1.34462,0.0121118,0.0168781,608,995,-60.6599,-6.17228
-609,29,-60.5772,6.03827,-0.00773021,0.00632607,0.0034496,0.00712701,-0.00853115,1.34266,0.00905235,0.0287469,615,995,-60.5772,-6.03826
-602,29,-60.7455,5.77008,-0.00688253,0.00361786,0.0028344,0.0043341,-0.00759877,1.32328,0.00697486,0.0276802,622,995,-60.7455,-5.7701
-595,29,-61.0874,5.41998,-0.00599938,0.00164811,0.00218467,0.0022282,-0.00657947,1.31126,0.00528792,0.0277686,629,995,-61.0874,-5.41997
-588,29,-61.4042,5.07489,0,0,0,0,0,0,0,-1,636,995,-61.4042,-5.07487
-581,29,-59.9209,0.331543,0,0,0,0,0,0,0,-1,643,995,-59.9209,-0.33156
-574,29,-59.9256,0.248596,-0.00250731,-0.00217309,0.00106066,-0.00126645,-0.00341395,0.863533,0.0019928,0.0310162,650,995,-59.9256,-0.248572
-567,29,-59.9229,0.147949,-0.00158346,-0.00238687,0.000893437,-0.00100557,-0.00296476,0.57413,0.00174097,0.0303462,657,995,-59.9229,-0.147936
-560,29,-59.9016,0.00653076,-0.000414712,-0.00211345,0.000725085,-0.00014731,-0.00238085,0.353312,0.00154048,0.0339058,664,995,-59.9016,-0.00651265
-553,29,-59.9932,0.303162,0.00104227,-0.0015245,0.000472594,0.00112651,-0.00160875,0.176416,0.00158737,0.0395513,671,995,-59.9932,-0.303159
-546,29,-59.9671,0.495789,0.00284181,-0.000998028,9.11218e-05,0.00284397,-0.00100019,0.0237129,0.00230295,0.0454355,678,995,-59.9671,-0.495813
-539,29,-59.8488,0.0406494,0.00442008,-0.00096922,-0.00041985,0.00445259,-0.00100173,-0.0772831,0.00335256,0.0455579,685,995,-59.8488,-0.0406297
-532,29,-59.7737,0.0368652,0,0,0,0,0,0,0,-1,692,995,-59.7737,-0.0368685
-525,29,-59.6486,-0.0446777,0,0,0,0,0,0,0,-1,699,995,-59.6486,0.0446794
-518,29,0,0,0,0,0,0,0,0,0,-1,706,995,0,0
-511,29,0,0,0,0,0,0,0,0,0,-1,713,995,0,0
-504,29,0,0,0,0,0,0,0,0,0,-1,720,995,0,0
-497,29,0,0,0,0,0,0,0,0,0,-1,727,995,0,0
-490,29,0,0,0,0,0,0,0,0,0,-1,734,995,0,0
-483,29,0,0,0,0,0,0,0,0,0,-1,741,995,0,0
-476,29,0,0,0,0,0,0,0,0,0,-1,748,995,0,0
-469,29,0,0,0,0,0,0,0,0,0,-1,755,995,0,0
-462,29,0,0,0,0,0,0,0,0,0,-1,762,995,0,0
-455,29,0,0,0,0,0,0,0,0,0,-1,769,995,0,0
-448,29,0,0,0,0,0,0,0,0,0,-1,776,995,0,0
-441,29,0,0,0,0,0,0,0,0,0,-1,783,995,0,0
-434,29,0,0,0,0,0,0,0,0,0,-1,790,995,0,0
-427,29,0,0,0,0,0,0,0,0,0,-1,797,995,0,0
-420,29,0,0,0,0,0,0,0,0,0,-1,804,995,0,0
-413,29,0,0,0,0,0,0,0,0,0,-1,811,995,0,0
-406,29,0,0,0,0,0,0,0,0,0,-1,818,995,0,0
-399,29,0,0,0,0,0,0,0,0,0,-1,825,995,0,0
-392,29,0,0,0,0,0,0,0,0,0,-1,832,995,0,0
-385,29,0,0,0,0,0,0,0,0,0,-1,839,995,0,0
-378,29,0,0,0,0,0,0,0,0,0,-1,846,995,0,0
-371,29,0,0,0,0,0,0,0,0,0,-1,853,995,0,0
-364,29,0,0,0,0,0,0,0,0,0,-1,860,995,0,0
-357,29,0,0,0,0,0,0,0,0,0,-1,867,995,0,0
-350,29,0,0,0,0,0,0,0,0,0,-1,874,995,0,0
-343,29,0,0,0,0,0,0,0,0,0,-1,881,995,0,0
-336,29,0,0,0,0,0,0,0,0,0,-1,888,995,0,0
-329,29,0,0,0,0,0,0,0,0,0,-1,895,995,0,0
-322,29,0,0,0,0,0,0,0,0,0,-1,902,995,0,0
-315,29,0,0,0,0,0,0,0,0,0,-1,909,995,0,0
-308,29,0,0,0,0,0,0,0,0,0,-1,916,995,0,0
-301,29,0,0,0,0,0,0,0,0,0,-1,923,995,0,0
-294,29,0,0,0,0,0,0,0,0,0,-1,930,995,0,0
-287,29,0,0,0,0,0,0,0,0,0,-1,937,995,0,0
-280,29,0,0,0,0,0,0,0,0,0,-1,944,995,0,0
-273,29,0,0,0,0,0,0,0,0,0,-1,951,995,0,0
-266,29,0,0,0,0,0,0,0,0,0,-1,958,995,0,0
-259,29,0,0,0,0,0,0,0,0,0,-1,965,995,0,0
-252,29,0,0,0,0,0,0,0,0,0,-1,972,995,0,0
-245,29,0,0,0,0,0,0,0,0,0,-1,979,995,0,0
-238,29,0,0,0,0,0,0,0,0,0,-1,986,995,0,0
-231,29,0,0,0,0,0,0,0,0,0,-1,993,995,0,0
-224,29,0,0,0,0,0,0,0,0,0,-1,1000,995,0,0
-217,29,0,0,0,0,0,0,0,0,0,-1,1007,995,0,0
-210,29,0,0,0,0,0,0,0,0,0,-1,1014,995,0,0
-203,29,0,0,0,0,0,0,0,0,0,-1,1021,995,0,0
-196,29,0,0,0,0,0,0,0,0,0,-1,1028,995,0,0
-189,29,0,0,0,0,0,0,0,0,0,-1,1035,995,0,0
-182,29,0,0,0,0,0,0,0,0,0,-1,1042,995,0,0
-175,29,0,0,0,0,0,0,0,0,0,-1,1049,995,0,0
-168,29,0,0,0,0,0,0,0,0,0,-1,1056,995,0,0
-161,29,0,0,0,0,0,0,0,0,0,-1,1063,995,0,0
-154,29,0,0,0,0,0,0,0,0,0,-1,1070,995,0,0
-147,29,0,0,0,0,0,0,0,0,0,-1,1077,995,0,0
-140,29,0,0,0,0,0,0,0,0,0,-1,1084,995,0,0
-133,29,0,0,0,0,0,0,0,0,0,-1,1091,995,0,0
-126,29,0,0,0,0,0,0,0,0,0,-1,1098,995,0,0
-119,29,0,0,0,0,0,0,0,0,0,-1,1105,995,0,0
-112,29,0,0,0,0,0,0,0,0,0,-1,1112,995,0,0
-105,29,0,0,0,0,0,0,0,0,0,-1,1119,995,0,0
-98,29,0,0,0,0,0,0,0,0,0,-1,1126,995,0,0
-91,29,0,0,0,0,0,0,0,0,0,-1,1133,995,0,0
-84,29,0,0,0,0,0,0,0,0,0,-1,1140,995,0,0
-77,29,0,0,0,0,0,0,0,0,0,-1,1147,995,0,0
-70,29,0,0,0,0,0,0,0,0,0,-1,1154,995,0,0
-63,29,0,0,0,0,0,0,0,0,0,-1,1161,995,0,0
-56,29,0,0,0,0,0,0,0,0,0,-1,1168,995,0,0
-49,29,0,0,0,0,0,0,0,0,0,-1,1175,995,0,0
-42,29,0,0,0,0,0,0,0,0,0,-1,1182,995,0,0
-35,29,0,0,0,0,0,0,0,0,0,-1,1189,995,0,0
-28,29,0,0,0,0,0,0,0,0,0,-1,1196,995,0,0
-21,29,0,0,0,0,0,0,0,0,0,-1,1203,995,0,0
-14,29,0,0,0,0,0,0,0,0,0,-1,1210,995,0,0
-7,29,0,0,0,0,0,0,0,0,0,-1,1217,995,0,0
0,29,0,0,0,0,0,0,0,0,0,-1,1224,995,0,0
7,29,0,0,0,0,0,0,0,0,0,-1,1231,995,0,0
14,29,0,0,0,0,0,0,0,0,0,-1,1238,995,0,0
21,29,0,0,0,0,0,0,0,0,0,-1,1245,995,0,0
28,29,0,0,0,0,0,0,0,0,0,-1,1252,995,0,0
35,29,0,0,0,0,0,0,0,0,0,-1,1259,995,0,0
42,29,0,0,0,0,0,0,0,0,0,-1,1266,995,0,0
49,29,0,0,0,0,0,0,0,0,0,-1,1273,995,0,0
56,29,0,0,0,0,0,0,0,0,0,-1,1280,995,0,0
63,29,0,0,0,0,0,0,0,0,0,-1,1287,995,0,0
70,29,0,0,0,0,0,0,0,0,0,-1,1294,995,0,0
77,29,0,0,0,0,0,0,0,0,0,-1,1301,995,0,0
84,29,0,0,0,0,0,0,0,0,0,-1,1308,995,0,0
91,29,0,0,0,0,0,0,0,0,0,-1,1315,995,0,0
98,29,0,0,0,0,0,0,0,0,0,-1,1322,995,0,0
105,29,0,0,0,0,0,0,0,0,0,-1,1329,995,0,0
112,29,0,0,0,0,0,0,0,0,0,-1,1336,995,0,0
119,29,0,0,0,0,0,0,0,0,0,-1,1343,995,0,0
126,29,0,0,0,0,0,0,0,0,0,-1,1350,995,0,0
133,29,0,0,0,0,0,0,0,0,0,-1,1357,995,0,0
140,29,0,0,0,0,0,0,0,0,0,-1,1364,995,0,0
147,29,0,0,0,0,0,0,0,0,0,-1,1371,995,0,0
154,29,0,0,0,0,0,0,0,0,0,-1,1378,995,0,0
161,29,0,0,0,0,0,0,0,0,0,-1,1385,995,0,0
168,29,0,0,0,0,0,0,0,0,0,-1,1392,995,0,0
175,29,0,0,0,0,0,0,0,0,0,-1,1399,995,0,0
182,29,0,0,0,0,0,0,0,0,0,-1,1406,995,0,0
189,29,0,0,0,0,0,0,0,0,0,-1,1413,995,0,0
196,29,0,0,0,0,0,0,0,0,0,-1,1420,995,0,0
203,29,0,0,0,0,0,0,0,0,0,-1,1427,995,0,0
210,29,0,0,0,0,0,0,0,0,0,-1,1434,995,0,0
217,29,0,0,0,0,0,0,0,0,0,-1,1441,995,0,0
224,29,0,0,0,0,0,0,0,0,0,-1,1448,995,0,0
231,29,0,0,0,0,0,0,0,0,0,-1,1455,995,0,0
238,29,0,0,0,0,0,0,0,0,0,-1,1462,995,0,0
245,29,0,0,0,0,0,0,0,0,0,-1,1469,995,0,0
252,29,0,0,0,0,0,0,0,0,0,-1,1476,995,0,0
259,29,0,0,0,0,0,0,0,0,0,-1,1483,995,0,0
266,29,0,0,0,0,0,0,0,0,0,-1,1490,995,0,0
273,29,0,0,0,0,0,0,0,0,0,-1,1497,995,0,0
280,29,0,0,0,0,0,0,0,0,0,-1,1504,995,0,0
287,29,0,0,0,0,0,0,0,0,0,-1,1511,995,0,0
294,29,0,0,0,0,0,0,0,0,0,-1,1518,995,0,0
301,29,0,0,0,0,0,0,0,0,0,-1,1525,995,0,0
308,29,0,0,0,0,0,0,0,0,0,-1,1532,995,0,0
315,29,0,0,0,0,0,0,0,0,0,-1,1539,995,0,0
322,29,0,0,0,0,0,0,0,0,0,-1,1546,995,0,0
329,29,0,0,0,0,0,0,0,0,0,-1,1553,995,0,0
336,29,0,0,0,0,0,0,0,0,0,-1,1560,995,0,0
343,29,0,0,0,0,0,0,0,0,0,-1,1567,995,0,0
350,29,0,0,0,0,0,0,0,0,0,-1,1574,995,0,0
357,29,0,0,0,0,0,0,0,0,0,-1,1581,995,0,0
364,29,0,0,0,0,0,0,0,0,0,-1,1588,995,0,0
371,29,0,0,0,0,0,0,0,0,0,-1,1595,995,0,0
378,29,0,0,0,0,0,0,0,0,0,-1,1602,995,0,0
385,29,0,0,0,0,0,0,0,0,0,-1,1609,995,0,0
392,29,0,0,0,0,0,0,0,0,0,-1,1616,995,0,0
399,29,0,0,0,0,0,0,0,0,0,-1,1623,995,0,0
406,29,0,0,0,0,0,0,0,0,0,-1,1630,995,0,0
413,29,0,0,0,0,0,0,0,0,0,-1,1637,995,0,0
420,29,0,0,0,0,0,0,0,0,0,-1,1644,995,0,0
427,29,0,0,0,0,0,0,0,0,0,-1,1651,995,0,0
434,29,0,0,0,0,0,0,0,0,0,-1,1658,995,0,0
441,29,0,0,0,0,0,0,0,0,0,-1,1665,995,0,0
448,29,0,0,0,0,0,0,0,0,0,-1,1672,995,0,0
455,29,0,0,0,0,0,0,0,0,0,-1,1679,995,0,0
462,29,0,0,0,0,0,0,0,0,0,-1,1686,995,0,0
469,29,0,0,0,0,0,0,0,0,0,-1,1693,995,0,0
476,29,0,0,0,0,0,0,0,0,0,-1,1700,995,0,0
483,29,0,0,0,0,0,0,0,0,0,-1,1707,995,0,0
490,29,0,0,0,0,0,0,0,0,0,-1,1714,995,0,0
497,29,0,0,0,0,0,0,0,0,0,-1,1721,995,0,0
504,29,0,0,0,0,0,0,0,0,0,-1,1728,995,0,0
511,29,0,0,0,0,0,0,0,0,0,-1,1735,995,0,0
518,29,0,0,0,0,0,0,0,0,0,-1,1742,995,0,0
525,29,0,0,0,0,0,0,0,0,0,-1,1749,995,0,0
532,29,0,0,0,0,0,0,0,0,0,-1,1756,995,0,0
539,29,0,0,0,0,0,0,0,0,0,-1,1763,995,0,0
546,29,0,0,0,0,0,0,0,0,0,-1,1770,995,0,0
553,29,0,0,0,0,0,0,0,0,0,-1,1777,995,0,0
560,29,0,0,0,0,0,0,0,0,0,-1,1784,995,0,0
567,29,0,0,0,0,0,0,0,0,0,-1,1791,995,0,0
574,29,0,0,0,0,0,0,0,0,0,-1,1798,995,0,0
581,29,0,0,0,0,0,0,0,0,0,-1,1805,995,0,0
588,29,0,0,0,0,0,0,0,0,0,-1,1812,995,0,0
595,29,0,0,0,0,0,0,0,0,0,-1,1819,995,0,0
602,29,0,0,0,0,0,0,0,0,0,-1,1826,995,0,0
609,29,0,0,0,0,0,0,0,0,0,-1,1833,995,0,0
616,29,0,0,0,0,0,0,0,0,0,-1,1840,995,0,0
623,29,0,0,0,0,0,0,0,0,0,-1,1847,995,0,0
630,29,0,0,0,0,0,0,0,0,0,-1,1854,995,0,0
637,29,0,0,0,0,0,0,0,0,0,-1,1861,995,0,0
644,29,76.5031,1.90735,0.00257925,-0.000469846,-5.88884e-05,0.00258038,-0.000470982,-0.0193038,0.00189684,0.0403945,1868,995,76.503,-1.90738
651,29,76.4108,1.94745,0.00166362,-0.000710517,-0.000127577,0.00167045,-0.000717352,-0.0535309,0.00141473,0.0438869,1875,995,76.4107,-1.94745
658,29,76.545,2.20679,0.000874478,-0.000848625,8.10512e-05,0.000878283,-0.000852429,0.0468999,0.000999264,0.0430687,1882,995,76.5451,-2.20678
665,29,76.7114,2.21277,0.000294436,-0.000750372,0.000349239,0.000400422,-0.000856358,0.294643,0.000741347,0.0401251,1889,995,76.7114,-2.21277
672,29,76.5905,2.13104,-0.000270251,-0.000564697,0.000687798,0.000285904,-0.00112085,0.679964,0.000858554,0.0387121,1896,995,76.5904,-2.13103
679,29,76.4109,1.97559,-0.000732464,-0.000474615,0.00109395,0.000497984,-0.00170506,0.844054,0.00133405,0.039017,1903,995,76.4109,-1.97561
686,29,76.4125,2.04932,-0.000983553,-0.000701284,0.0013065,0.000471679,-0.00215652,0.839202,0.00161799,0.0368406,1910,995,76.4125,-2.04932
693,29,76.4684,2.10858,-0.00121738,-0.000979462,0.00137421,0.000280926,-0.00247777,0.828573,0.00175301,0.0365584,1917,995,76.4684,-2.10857
700,29,76.4397,2.16852,-0.00140263,-0.00105037,0.00129267,7.8114e-05,-0.00253111,0.853108,0.00171404,0.0339497,1924,995,76.4397,-2.16852
707,29,76.4375,2.09326,-0.00202699,-0.000598083,0.00105033,-4.22475e-05,-0.00258283,1.08406,0.00170798,0.0252757,1931,995,76.4375,-2.09324
714,29,76.4501,1.98694,0,0,0,0,0,0,0,-1,1938,995,76.4501,-1.98693
721,29,74.6213,6.08148,0,0,0,0,0,0,0,-1,1945,995,74.6214,-6.08147
728,29,76.1459,6.39911,0,0,0,0,0,0,0,-1,1952,995,76.1459,-6.3991
735,29,76.2631,6.76886,-0.00706393,0.00599509,-0.000390891,0.00600678,-0.00707562,-1.5409,0.00756153,0.016691,1959,995,76.263,-6.76888
742,29,76.2192,6.97076,-0.00877986,0.00828217,-0.000800207,0.00831962,-0.00881731,-1.52403,0.0098954,0.0149341,1966,995,76.2192,-6.97077
749,29,76.1934,7.25385,-0.0103338,0.0109539,-0.00116759,0.0110178,-0.0103976,-1.51617,0.0123659,0.0165785,1973,995,76.1934,-7.25383
756,29,76.1743,7.5307,-0.0117476,0.0143101,-0.00113754,0.0143597,-0.0117972,-1.52725,0.0151258,0.0155868,1980,995,76.1744,-7.53069
763,29,76.1177,7.66284,-0.0128847,0.0186747,-0.000669162,0.0186889,-0.0128989,-1.54961,0.018339,0.0139385,1987,995,76.1177,-7.66283
770,29,75.9731,7.78857,-0.0124817,0.023183,0.000774938,0.0231998,-0.0124985,1.54908,0.0209168,0.0198056,1994,995,75.9732,-7.7886
777,29,75.8091,8.09198,-0.0102262,0.0264355,0.00333326,0.0267361,-0.0105268,1.48086,0.0221819,0.0332001,2001,995,75.8091,-8.09199
784,29,75.752,8.39453,-0.00513901,0.0275243,0.00732581,0.0290921,-0.0067068,1.35997,0.0219742,0.0473768,2008,995,75.7519,-8.39454
791,29,75.6646,8.77277,0,0,0,0,0,0,0,-1,2015,995,75.6646,-8.77275
798,29,75.4714,8.9671,0,0,0,0,0,0,0,-1,2022,995,75.4714,-8.9671
805,29,74.6421,8.94165,0,0,0,0,0,0,0,-1,2029,995,74.6421,-8.94166
812,29,71.2014,6.55267,0,0,0,0,0,0,0,-1,2036,995,71.2014,-6.55267
-700,22,0,0,0,0,0,0,0,0,0,-1,524,1002,0,0
-693,22,-70.8194,-4.94739,0,0,0,0,0,0,0,-1,531,1002,-70.8194,4.94738
-686,22,-71.9847,0.130127,0,0,0,0,0,0,0,-1,538,1002,-71.9847,-0.130142
-679,22,-60.3727,4.12701,0,0,0,0,0,0,0,-1,545,1002,-60.3727,-4.127
-672,22,-59.425,4.79077,0,0,0,0,0,0,0,-1,552,1002,-59.4249,-4.79074
-665,22,-59.0871,5.10864,0,0,0,0,0,0,0,-1,559,1002,-59.0871,-5.10862
-658,22,-58.7256,5.39417,0,0,0,0,0,0,0,-1,566,1002,-58.7256,-5.39416
-651,22,-59.5903,5.95355,0,0,0,0,0,0,0,-1,573,1002,-59.5903,-5.95353
-644,22,-60.3569,6.18561,-0.0116443,0.0412666,0.00775763,0.0423805,-0.0127582,1.42818,0.0333305,0.0462982,580,1002,-60.3569,-6.18562
-637,22,-60.8133,6.36865,-0.0106356,0.0328784,0.00620528,0.033746,-0.0115032,1.43188,0.0271564,0.0308579,587,1002,-60.8133,-6.36867
-630,22,-60.7974,6.32745,-0.0097986,0.0234683,0.0048672,0.0241658,-0.0104961,1.42846,0.0205242,0.0171929,594,1002,-60.7974,-6.32747
-623,22,-60.8061,6.20343,-0.00916307,0.0158016,0.00406891,0.016448,-0.00980951,1.41324,0.0153204,0.013661,601,1002,-60.8061,-6.2034
-616,22,-60.8451,6.03949,-0.00840824,0.00999753,0.00353152,0.0106519,-0.00906257,1.38759,0.0113945,0.0222733,608,1002,-60.8451,-6.03948
-609,22,-60.9086,5.93121,-0.00757903,0.00610085,0.00269849,0.00661392,-0.00809209,1.38291,0.0085048,0.0375914,615,1002,-60.9086,-5.93122
-602,22,-61.118,5.80414,-0.00677818,0.0033512,0.00222556,0.00381862,-0.0072456,1.36378,0.00648926,0.0329882,622,1002,-61.118,-5.80414
-595,22,-61.437,5.47931,-0.00597381,0.00143169,0.00174052,0.00182037,-0.00636249,1.35109,0.00496105,0.038267,629,1002,-61.437,-5.47933
-588,22,-61.5796,5.03229,0,0,0,0,0,0,0,-1,636,1002,-61.5796,-5.03228
-581,22,-59.9632,0.315369,0,0,0,0,0,0,0,-1,643,1002,-59.9632,-0.315347
-574,22,-59.9073,0.254639,-0.00261761,-0.00236319,0.000959826,-0.00152218,-0.00345862,0.851281,0.0020016,0.0365648,650,1002,-59.9073,-0.254612
-567,22,-59.9003,0.24176,-0.00172466,-0.00255142,0.000917972,-0.00113129,-0.0031448,0.573838,0.00183931,0.0330152,657,1002,-59.9003,-0.241784
-560,22,-59.9367,0.160278,-0.000593847,-0.00223547,0.000879612,-0.000211559,-0.00261776,0.409982,0.0016791,0.0346039,664,1002,-59.9367,-0.160271
-553,22,-60.0156,0.319885,0.000777231,-0.00158165,0.000747293,0.000994046,-0.00179846,0.28238,0.0016344,0.0372236,671,1002,-60.0156,-0.319882
-546,22,-59.9938,0.523987,0.00240486,-0.000965154,0.000472088,0.00246974,-0.00103004,0.136583,0.00207681,0.0412508,678,1002,-59.9938,-0.523971
-539,22,-59.8865,0.192871,0.00362164,-0.000730368,8.33342e-05,0.00362324,-0.000731963,0.0191391,0.00269285,0.0429616,685,1002,-59.8864,-0.192849
-532,22,-59.795,0.174133,0.00503224,-0.000511822,-0.000511414,0.00507902,-0.000558603,-0.0912197,0.00358674,0.0431567,692,1002,-59.795,-0.17415
-525,22,0,0,0,0,0,0,0,0,0,-1,699,1002,0,0
-518,22,0,0,0,0,0,0,0,0,0,-1,706,1002,0,0
-511,22,0,0,0,0,0,0,0,0,0,-1,713,1002,0,0
-504,22,0,0,0,0,0,0,0,0,0,-1,720,1002,0,0
-497,22,0,0,0,0,0,0,0,0,0,-1,727,1002,0,0
-490,22,0,0,0,0,0,0,0,0,0,-1,734,1002,0,0
-483,22,0,0,0,0,0,0,0,0,0,-1,741,1002,0,0
-476,22,0,0,0,0,0,0,0,0,0,-1,748,1002,0,0
-469,22,0,0,0,0,0,0,0,0,0,-1,755,1002,0,0
-462,22,0,0,0,0,0,0,0,0,0,-1,762,1002,0,0
-455,22,0,0,0,0,0,0,0,0,0,-1,769,1002,0,0
-448,22,0,0,0,0,0,0,0,0,0,-1,776,1002,0,0
-441,22,0,0,0,0,0,0,0,0,0,-1,783,1002,0,0
-434,22,0,0,0,0,0,0,0,0,0,-1,790,1002,0,0
-427,22,0,0,0,0,0,0,0,0,0,-1,797,1002,0,0
-420,22,0,0,0,0,0,0,0,0,0,-1,804,1002,0,0
-413,22,0,0,0,0,0,0,0,0,0,-1,811,1002,0,0
-406,22,0,0,0,0,0,0,0,0,0,-1,818,1002,0,0
-399,22,0,0,0,0,0,0,0,0,0,-1,825,1002,0,0
-392,22,0,0,0,0,0,0,0,0,0,-1,832,1002,0,0
-385,22,0,0,0,0,0,0,0,0,0,-1,839,1002,0,0
-378,22,0,0,0,0,0,0,0,0,0,-1,846,1002,0,0
-371,22,0,0,0,0,0,0,0,0,0,-1,853,1002,0,0
-364,22,0,0,0,0,0,0,0,0,0,-1,860,1002,0,0
-357,22,0,0,0,0,0,0,0,0,0,-1,867,1002,0,0
-350,22,0,0,0,0,0,0,0,0,0,-1,874,1002,0,0
-343,22,0,0,0,0,0,0,0,0,0,-1,881,1002,0,0
-336,22,0,0,0,0,0,0,0,0,0,-1,888,1002,0,0
-329,22,0,0,0,0,0,0,0,0,0,-1,895,1002,0,0
-322,22,0,0,0,0,0,0,0,0,0,-1,902,1002,0,0
-315,22,0,0,0,0,0,0,0,0,0,-1,909,1002,0,0
-308,22,0,0,0,0,0,0,0,0,0,-1,916,1002,0,0
-301,22,0,0,0,0,0,0,0,0,0,-1,923,1002,0,0
-294,22,0,0,0,0,0,0,0,0,0,-1,930,1002,0,0
-287,22,0,0,0,0,0,0,0,0,0,-1,937,1002,0,0
-280,22,0,0,0,0,0,0,0,0,0,-1,944,1002,0,0
-273,22,0,0,0,0,0,0,0,0,0,-1,951,1002,0,0
-266,22,0,0,0,0,0,0,0,0,0,-1,958,1002,0,0
-259,22,0,0,0,0,0,0,0,0,0,-1,965,1002,0,0
-252,22,0,0,0,0,0,0,0,0,0,-1,972,1002,0,0
-245,22,0,0,0,0,0,0,0,0,0,-1,979,1002,0,0
-238,22,0,0,0,0,0,0,0,0,0,-1,986,1002,0,0
-231,22,0,0,0,0,0,0,0,0,0,-1,993,1002,0,0
-224,22,0,0,0,0,0,0,0,0,0,-1,1000,1002,0,0
-217,22,0,0,0,0,0,0,0,0,0,-1,1007,1002,0,0
-210,22,0,0,0,0,0,0,0,0,0,-1,1014,1002,0,0
-203,22,0,0,0,0,0,0,0,0,0,-1,1021,1002,0,0
-196,22,0,0,0,0,0,0,0,0,0,-1,1028,1002,0,0
-189,22,0,0,0,0,0,0,0,0,0,-1,1035,1002,0,0
-182,22,0,0,0,0,0,0,0,0,0,-1,1042,1002,0,0
-175,22,0,0,0,0,0,0,0,0,0,-1,1049,1002,0,0
-168,22,0,0,0,0,0,0,0,0,0,-1,1056,1002,0,0
-161,22,0,0,0,0,0,0,0,0,0,-1,1063,1002,0,0
-154,22,0,0,0,0,0,0,0,0,0,-1,1070,1002,0,0
-147,22,0,0,0,0,0,0,0,0,0,-1,1077,1002,0,0
-140,22,0,0,0,0,0,0,0,0,0,-1,1084,1002,0,0
-133,22,0,0,0,0,0,0,0,0,0,-1,1091,1002,0,0
-126,22,0,0,0,0,0,0,0,0,0,-1,1098,1002,0,0
-119,22,0,0,0,0,0,0,0,0,0,-1,1105,1002,0,0
-112,22,0,0,0,0,0,0,0,0,0,-1,1112,1002,0,0
-105,22,0,0,0,0,0,0,0,0,0,-1,1119,1002,0,0
-98,22,0,0,0,0,0,0,0,0,0,-1,1126,1002,0,0
-91,22,0,0,0,0,0,0,0,0,0,-1,1133,1002,0,0
-84,22,0,0,0,0,0,0,0,0,0,-1,1140,1002,0,0
-77,22,0,0,0,0,0,0,0,0,0,-1,1147,1002,0,0
-70,22,0,0,0,0,0,0,0,0,0,-1,1154,1002,0,0
-63,22,0,0,0,0,0,0,0,0,0,-1,1161,1002,0,0
-56,22,0,0,0,0,0,0,0,0,0,-1,1168,1002,0,0
-49,22,0,0,0,0,0,0,0,0,0,-1,1175,1002,0,0
-42,22,0,0,0,0,0,0,0,0,0,-1,1182,1002,0,0
-35,22,0,0,0,0,0,0,0,0,0,-1,1189,1002,0,0
-28,22,0,0,0,0,0,0,0,0,0,-1,1196,1002,0,0
-21,22,0,0,0,0,0,0,0,0,0,-1,1203,1002,0,0
-14,22,0,0,0,0,0,0,0,0,0,-1,1210,1002,0,0
-7,22,0,0,0,0,0,0,0,0,0,-1,1217,1002,0,0
0,22,0,0,0,0,0,0,0,0,0,-1,1224,1002,0,0
7,22,0,0,0,0,0,0,0,0,0,-1,1231,1002,0,0
14,22,0,0,0,0,0,0,0,0,0,-1,1238,1002,0,0
21,22,0,0,0,0,0,0,0,0,0,-1,1245,1002,0,0
28,22,0,0,0,0,0,0,0,0,0,-1,1252,1002,0,0
35,22,0,0,0,0,0,0,0,0,0,-1,1259,1002,0,0
42,22,0,0,0,0,0,0,0,0,0,-1,1266,1002,0,0
49,22,0,0,0,0,0,0,0,0,0,-1,1273,1002,0,0
56,22,0,0,0,0,0,0,0,0,0,-1,1280,1002,0,0
63,22,0,0,0,0,0,0,0,0,0,-1,1287,1002,0,0
70,22,0,0,0,0,0,0,0,0,0,-1,1294,1002,0,0
77,22,0,0,0,0,0,0,0,0,0,-1,1301,1002,0,0
84,22,0,0,0,0,0,0,0,0,0,-1,1308,1002,0,0
91,22,0,0,0,0,0,0,0,0,0,-1,1315,1002,0,0
98,22,0,0,0,0,0,0,0,0,0,-1,1322,1002,0,0
105,22,0,0,0,0,0,0,0,0,0,-1,1329,1002,0,0
112,22,0,0,0,0,0,0,0,0,0,-1,1336,1002,0,0
119,22,0,0,0,0,0,0,0,0,0,-1,1343,1002,0,0
126,22,0,0,0,0,0,0,0,0,0,-1,1350,1002,0,0
133,22,0,0,0,0,0,0,0,0,0,-1,1357,1002,0,0
140,22,0,0,0,0,0,0,0,0,0,-1,1364,1002,0,0
147,22,0,0,0,0,0,0,0,0,0,-1,1371,1002,0,0
154,22,0,0,0,0,0,0,0,0,0,-1,1378,1002,0,0
161,22,0,0,0,0,0,0,0,0,0,-1,1385,1002,0,0
168,22,0,0,0,0,0,0,0,0,0,-1,1392,1002,0,0
175,22,0,0,0,0,0,0,0,0,0,-1,1399,1002,0,0
182,22,0,0,0,0,0,0,0,0,0,-1,1406,1002,0,0
189,22,0,0,0,0,0,0,0,0,0,-1,1413,1002,0,0
196,22,0,0,0,0,0,0,0,0,0,-1,1420,1002,0,0
203,22,0,0,0,0,0,0,0,0,0,-1,1427,1002,0,0
210,22,0,0,0,0,0,0,0,0,0,-1,1434,1002,0,0
217,22,0,0,0,0,0,0,0,0,0,-1,1441,1002,0,0
224,22,0,0,0,0,0,0,0,0,0,-1,1448,1002,0,0
231,22,0,0,0,0,0,0,0,0,0,-1,1455,1002,0,0
238,22,0,0,0,0,0,0,0,0,0,-1,1462,1002,0,0
245,22,0,0,0,0,0,0,0,0,0,-1,1469,1002,0,0
252,22,0,0,0,0,0,0,0,0,0,-1,1476,1002,0,0
259,22,0,0,0,0,0,0,0,0,0,-1,1483,1002,0,0
266,22,0,0,0,0,0,0,0,0,0,-1,1490,1002,0,0
273,22,0,0,0,0,0,0,0,0,0,-1,1497,1002,0,0
280,22,0,0,0,0,0,0,0,0,0,-1,1504,1002,0,0
287,22,0,0,0,0,0,0,0,0,0,-1,1511,1002,0,0
294,22,0,0,0,0,0,0,0,0,0,-1,1518,1002,0,0
301,22,0,0,0,0,0,0,0,0,0,-1,1525,1002,0,0
308,22,0,0,0,0,0,0,0,0,0,-1,1532,1002,0,0
315,22,0,0,0,0,0,0,0,0,0,-1,1539,1002,0,0
322,22,0,0,0,0,0,0,0,0,0,-1,1546,1002,0,0
329,22,0,0,0,0,0,0,0,0,0,-1,1553,1002,0,0
336,22,0,0,0,0,0,0,0,0,0,-1,1560,1002,0,0
343,22,0,0,0,0,0,0,0,0,0,-1,1567,1002,0,0
350,22,0,0,0,0,0,0,0,0,0,-1,1574,1002,0,0
357,22,0,0,0,0,0,0,0,0,0,-1,1581,1002,0,0
364,22,0,0,0,0,0,0,0,0,0,-1,1588,1002,0,0
371,22,0,0,0,0,0,0,0,0,0,-1,1595,1002,0,0
378,22,0,0,0,0,0,0,0,0,0,-1,1602,1002,0,0
385,22,0,0,0,0,0,0,0,0,0,-1,1609,1002,0,0
392,22,0,0,0,0,0,0,0,0,0,-1,1616,1002,0,0
399,22,0,0,0,0,0,0,0,0,0,-1,1623,1002,0,0
406,22,0,0,0,0,0,0,0,0,0,-1,1630,1002,0,0
413,22,0,0,0,0,0,0,0,0,0,-1,1637,1002,0,0
420,22,0,0,0,0,0,0,0,0,0,-1,1644,1002,0,0
427,22,0,0,0,0,0,0,0,0,0,-1,1651,1002,0,0
434,22,0,0,0,0,0,0,0,0,0,-1,1658,1002,0,0
441,22,0,0,0,0,0,0,0,0,0,-1,1665,1002,0,0
448,22,0,0,0,0,0,0,0,0,0,-1,1672,1002,0,0
455,22,0,0,0,0,0,0,0,0,0,-1,1679,1002,0,0
462,22,0,0,0,0,0,0,0,0,0,-1,1686,1002,0,0
469,22,0,0,0,0,0,0,0,0,0,-1,1693,1002,0,0
476,22,0,0,0,0,0,0,0,0,0,-1,1700,1002,0,0
483,22,0,0,0,0,0,0,0,0,0,-1,1707,1002,0,0
490,22,0,0,0,0,0,0,0,0,0,-1,1714,1002,0,0
497,22,0,0,0,0,0,0,0,0,0,-1,1721,1002,0,0
504,22,0,0,0,0,0,0,0,0,0,-1,1728,1002,0,0
511,22,0,0,0,0,0,0,0,0,0,-1,1735,1002,0,0
518,22,0,0,0,0,0,0,0,0,0,-1,1742,1002,0,0
525,22,0,0,0,0,0,0,0,0,0,-1,1749,1002,0,0
532,22,0,0,0,0,0,0,0,0,0,-1,1756,1002,0,0
539,22,0,0,0,0,0,0,0,0,0,-1,1763,1002,0,0
546,22,0,0,0,0,0,0,0,0,0,-1,1770,1002,0,0
553,22,0,0,0,0,0,0,0,0,0,-1,1777,1002,0,0
560,22,0,0,0,0,0,0,0,0,0,-1,1784,1002,0,0
567,22,0,0,0,0,0,0,0,0,0,-1,1791,1002,0,0
574,22,0,0,0,0,0,0,0,0,0,-1,1798,1002,0,0
581,22,0,0,0,0,0,0,0,0,0,-1,1805,1002,0,0
588,22,0,0,0,0,0,0,0,0,0,-1,1812,1002,0,0
595,22,0,0,0,0,0,0,0,0,0,-1,1819,1002,0,0
602,22,0,0,0,0,0,0,0,0,0,-1,1826,1002,0,0
609,22,0,0,0,0,0,0,0,0,0,-1,1833,1002,0,0
616,22,0,0,0,0,0,0,0,0,0,-1,1840,1002,0,0
623,22,0,0,0,0,0,0,0,0,0,-1,1847,1002,0,0
630,22,0,0,0,0,0,0,0,0,0,-1,1854,1002,0,0
637,22,0,0,0,0,0,0,0,0,0,-1,1861,1002,0,0
644,22,76.491,1.86597,0.00177063,-0.00139243,-0.000506889,0.00184988,-0.00147167,-0.155081,0.00192184,0.0395223,1868,1002,76.491,-1.86597
651,22,76.4276,1.84332,0.00116348,-0.00163422,-0.000362006,0.00120956,-0.0016803,-0.126616,0.00167583,0.0424024,1875,1002,76.4276,-1.84332
658,22,76.3668,2.02905,0.000552465,-0.00175061,-6.03838e-05,0.000554047,-0.0017522,-0.0261948,0.00139012,0.0415861,1882,1002,76.3668,-2.02905
665,22,76.5316,2.28882,8.89201e-05,-0.00161821,0.000251923,0.000125321,-0.00165461,0.143498,0.00114713,0.0397461,1889,1002,76.5316,-2.2888
672,22,76.572,2.23297,-0.000354828,-0.00135442,0.000592155,-7.97413e-05,-0.00162951,0.434889,0.00106076,0.0393178,1896,1002,76.572,-2.23298
679,22,76.3778,2.05164,-0.00072651,-0.00113318,0.000973499,6.46618e-05,-0.00192435,0.682443,0.00130499,0.0386603,1903,1002,76.3778,-2.05161
686,22,76.4526,2.06976,-0.000985239,-0.00123658,0.00118369,7.94374e-05,-0.00230125,0.732513,0.00156132,0.0372438,1910,1002,76.4527,-2.06974
693,22,76.4695,2.12207,-0.00120531,-0.00141711,0.00127048,-3.63229e-05,-0.00258609,0.743818,0.00171208,0.0358647,1917,1002,76.4694,-2.12204
700,22,76.4374,2.10254,-0.00135218,-0.00143974,0.0012256,-0.00016958,-0.00262234,0.767546,0.00169453,0.0321686,1924,1002,76.4374,-2.10254
707,22,76.3944,2.1095,-0.00200724,-0.000915857,0.0010402,-0.000286901,-0.0026362,1.02697,0.00167007,0.0325905,1931,1002,76.3944,-2.10947
714,22,76.2693,2.24097,0,0,0,0,0,0,0,-1,1938,1002,76.2693,-2.24098
721,22,74.8076,2.73041,0,0,0,0,0,0,0,-1,1945,1002,74.8076,-2.73038
728,22,76.4685,6.7135,0,0,0,0,0,0,0,-1,1952,1002,76.4685,-6.7135
735,22,76.4597,6.87927,-0.0073467,0.00594929,-0.000269322,0.00595474,-0.00735216,-1.55055,0.00769685,0.0179062,1959,1002,76.4597,-6.87924
742,22,76.4779,7.02197,-0.00903101,0.00819745,-0.000641165,0.00822127,-0.00905484,-1.53365,0.00997824,0.0191463,1966,1002,76.478,-7.02195
749,22,76.4243,7.20239,-0.0105733,0.0108065,-0.00100115,0.0108533,-0.0106201,-1.52411,0.0123979,0.0144825,1973,1002,76.4243,-7.20238
756,22,76.4082,7.40106,-0.012083,0.014095,-0.0010626,0.0141381,-0.012126,-1.53029,0.0151784,0.0187084,1980,1002,76.4083,-7.40108
763,22,76.3164,7.57574,-0.0133786,0.0183704,-0.000813103,0.0183912,-0.0133994,-1.54521,0.0184296,0.0206905,1987,1002,76.3164,-7.57577
770,22,76.0862,7.66748,-0.0132362,0.0229839,0.000267125,0.0229859,-0.0132382,1.56342,0.0211649,0.0217352,1994,1002,76.0861,-7.66747
777,22,75.6748,7.68158,-0.0112366,0.0265044,0.0022983,0.0266439,-0.011376,1.5102,0.022533,0.0450102,2001,1002,75.6747,-7.68156
784,22,75.4495,7.86981,0,0,0,0,0,0,0,-1,2008,1002,75.4495,-7.86978
791,22,74.9978,7.63776,0,0,0,0,0,0,0,-1,2015,1002,74.9978,-7.63775
798,22,73.9695,8.43646,0,0,0,0,0,0,0,-1,2022,1002,73.9694,-8.43649
805,22,74.3533,8.9101,0,0,0,0,0,0,0,-1,2029,1002,74.3533,-8.91011
812,22,74.7207,4.20471,0,0,0,0,0,0,0,-1,2036,1002,74.7206,-4.20471
-700,15,0,0,0,0,0,0,0,0,0,-1,524,1009,0,0
-693,15,-70.7791,-1.98688,0,0,0,0,0,0,0,-1,531,1009,-70.7791,1.98688
-686,15,-70.9951,-0.409363,0,0,0,0,0,0,0,-1,538,1009,-70.9951,0.40937
-679,15,-71.2112,1.16815,0,0,0,0,0,0,0,-1,545,1009,-71.2112,-1.16814
-672,15,-59.5018,4.77869,0,0,0,0,0,0,0,-1,552,1009,-59.5018,-4.77866
-665,15,-59.3424,4.46161,0,0,0,0,0,0,0,-1,559,1009,-59.3424,-4.46161
-658,15,-59.0594,4.48022,0,0,0,0,0,0,0,-1,566,1009,-59.0594,-4.48023
-651,15,-51.4943,3.62128,0,0,0,0,0,0,0,-1,573,1009,-51.4943,-3.62128
-644,15,-60.9676,6.39819,0,0,0,0,0,0,0,-1,580,1009,-60.9676,-6.39817
-637,15,-60.8784,6.30139,-0.01137,0.0314839,0.00431253,0.0319136,-0.0117997,1.47149,0.0261133,0.0336326,587,1009,-60.8784,-6.30138
-630,15,-60.9036,6.20813,-0.0100641,0.0224942,0.00334397,0.0228341,-0.010404,1.4695,0.0196322,0.0184144,594,1009,-60.9036,-6.20813
-623,15,-60.9553,6.13721,-0.00922539,0.0151905,0.00280364,0.0155083,-0.00954319,1.45792,0.0145995,0.0119504,601,1009,-60.9553,-6.13718
-616,15,-60.9607,6.04041,-0.00836276,0.00959102,0.00261232,0.0099634,-0.00873513,1.4292,0.0108034,0.0188148,608,1009,-60.9607,-6.04043
-609,15,-61.0976,5.98346,-0.00747918,0.00574928,0.00195108,0.00603104,-0.00776094,1.42737,0.00798366,0.0267952,615,1009,-61.0976,-5.98346
-602,15,-61.2172,5.92816,-0.00662632,0.00297977,0.00155112,0.00322402,-0.00687058,1.41461,0.00595352,0.026624,622,1009,-61.2173,-5.92817
-595,15,-61.7386,5.39795,0,0,0,0,0,0,0,-1,629,1009,-61.7386,-5.39796
-588,15,-59.9049,0.235718,0,0,0,0,0,0,0,-1,636,1009,-59.9049,-0.235714
-581,15,-59.9168,0.247375,-0.00355503,-0.00190874,0.000926737,-0.00149237,-0.00397141,1.14853,0.00231636,0.0412844,643,1009,-59.9168,-0.247393
-574,15,-59.9192,0.245667,-0.0026993,-0.00262934,0.000849284,-0.00181432,-0.00351433,0.805982,0.00202935,0.0348864,650,1009,-59.9192,-0.245681
-567,15,-59.9946,0.192993,-0.0019107,-0.00282388,0.000934051,-0.00132761,-0.00340696,0.558064,0.00198291,0.0350644,657,1009,-59.9946,-0.192996
-560,15,-59.9304,0.210815,-0.000917745,-0.00250627,0.00103167,-0.00041001,-0.00301401,0.457346,0.00188757,0.037463,664,1009,-59.9304,-0.210802
-553,15,-59.8684,0.450439,0.000242869,-0.00185495,0.00103392,0.000666784,-0.00227886,0.389102,0.00178355,0.0377148,671,1009,-59.8684,-0.45046
-546,15,-60.0346,0.541321,0.00155919,-0.00125675,0.000874812,0.00180883,-0.00150639,0.277977,0.0019167,0.0402591,678,1009,-60.0346,-0.541331
-539,15,-59.9433,0.401672,0.00231165,-0.000968883,0.00059005,0.00241455,-0.00107178,0.172658,0.002062,0.0424708,685,1009,-59.9433,-0.4017
-532,15,-59.7971,0.322021,0.00324025,-0.000593595,8.79435e-05,0.00324226,-0.000595611,0.0229226,0.00238497,0.0432876,692,1009,-59.797,-0.322028
-525,15,0,0,0,0,0,0,0,0,0,-1,699,1009,0,0
-518,15,0,0,0,0,0,0,0,0,0,-1,706,1009,0,0
-511,15,0,0,0,0,0,0,0,0,0,-1,713,1009,0,0
-504,15,0,0,0,0,0,0,0,0,0,-1,720,1009,0,0
-497,15,0,0,0,0,0,0,0,0,0,-1,727,1009,0,0
-490,15,0,0,0,0,0,0,0,0,0,-1,734,1009,0,0
-483,15,0,0,0,0,0,0,0,0,0,-1,741,1009,0,0
-476,15,0,0,0,0,0,0,0,0,0,-1,748,1009,0,0
-469,15,0,0,0,0,0,0,0,0,0,-1,755,1009,0,0
-462,15,0,0,0,0,0,0,0,0,0,-1,762,1009,0,0
-455,15,0,0,0,0,0,0,0,0,0,-1,769,1009,0,0
-448,15,0,0,0,0,0,0,0,0,0,-1,776,1009,0,0
-441,15,0,0,0,0,0,0,0,0,0,-1,783,1009,0,0
-434,15,0,0,0,0,0,0,0,0,0,-1,790,1009,0,0
-427,15,0,0,0,0,0,0,0,0,0,-1,797,1009,0,0
-420,15,0,0,0,0,0,0,0,0,0,-1,804,1009,0,0
-413,15,0,0,0,0,0,0,0,0,0,-1,811,1009,0,0
-406,15,0,0,0,0,0,0,0,0,0,-1,818,1009,0,0
-399,15,0,0,0,0,0,0,0,0,0,-1,825,1009,0,0
-392,15,0,0,0,0,0,0,0,0,0,-1,832,1009,0,0
-385,15,0,0,0,0,0,0,0,0,0,-1,839,1009,0,0
-378,15,0,0,0,0,0,0,0,0,0,-1,846,1009,0,0
-371,15,0,0,0,0,0,0,0,0,0,-1,853,1009,0,0
-364,15,0,0,0,0,0,0,0,0,0,-1,860,1009,0,0
-357,15,0,0,0,0,0,0,0,0,0,-1,867,1009,0,0
-350,15,0,0,0,0,0,0,0,0,0,-1,874,1009,0,0
-343,15,0,0,0,0,0,0,0,0,0,-1,881,1009,0,0
-336,15,0,0,0,0,0,0,0,0,0,-1,888,1009,0,0
-329,15,0,0,0,0,0,0,0,0,0,-1,895,1009,0,0
-322,15,0,0,0,0,0,0,0,0,0,-1,902,1009,0,0
-315,15,0,0,0,0,0,0,0,0,0,-1,909,1009,0,0
-308,15,0,0,0,0,0,0,0,0,0,-1,916,1009,0,0
-301,15,0,0,0,0,0,0,0,0,0,-1,923,1009,0,0
-294,15,0,0,0,0,0,0,0,0,0,-1,930,1009,0,0
-287,15,0,0,0,0,0,0,0,0,0,-1,937,1009,0,0
-280,15,0,0,0,0,0,0,0,0,0,-1,944,1009,0,0
-273,15,0,0,0,0,0,0,0,0,0,-1,951,1009,0,0
-266,15,0,0,0,0,0,0,0,0,0,-1,958,1009,0,0
-259,15,0,0,0,0,0,0,0,0,0,-1,965,1009,0,0
-252,15,0,0,0,0,0,0,0,0,0,-1,972,1009,0,0
-245,15,0,0,0,0,0,0,0,0,0,-1,979,1009,0,0
-238,15,0,0,0,0,0,0,0,0,0,-1,986,1009,0,0
-231,15,0,0,0,0,0,0,0,0,0,-1,993,1009,0,0
-224,15,0,0,0,0,0,0,0,0,0,-1,1000,1009,0,0
-217,15,0,0,0,0,0,0,0,0,0,-1,1007,1009,0,0
-210,15,0,0,0,0,0,0,0,0,0,-1,1014,1009,0,0
-203,15,0,0,0,0,0,0,0,0,0,-1,1021,1009,0,0
-196,15,0,0,0,0,0,0,0,0,0,-1,1028,1009,0,0
-189,15,0,0,0,0,0,0,0,0,0,-1,1035,1009,0,0
-182,15,0,0,0,0,0,0,0,0,0,-1,1042,1009,0,0
-175,15,0,0,0,0,0,0,0,0,0,-1,1049,1009,0,0
-168,15,0,0,0,0,0,0,0,0,0,-1,1056,1009,0,0
-161,15,0,0,0,0,0,0,0,0,0,-1,1063,1009,0,0
-154,15,0,0,0,0,0,0,0,0,0,-1,1070,1009,0,0
-147,15,0,0,0,0,0,0,0,0,0,-1,1077,1009,0,0
-140,15,0,0,0,0,0,0,0,0,0,-1,1084,1009,0,0
-133,15,0,0,0,0,0,0,0,0,0,-1,1091,1009,0,0
-126,15,0,0,0,0,0,0,0,0,0,-1,1098,1009,0,0
-119,15,0,0,0,0,0,0,0,0,0,-1,1105,1009,0,0
-112,15,0,0,0,0,0,0,0,0,0,-1,1112,1009,0,0
-105,15,0,0,0,0,0,0,0,0,0,-1,1119,1009,0,0
-98,15,0,0,0,0,0,0,0,0,0,-1,1126,1009,0,0
-91,15,0,0,0,0,0,0,0,0,0,-1,1133,1009,0,0
-84,15,0,0,0,0,0,0,0,0,0,-1,1140,1009,0,0
-77,15,0,0,0,0,0,0,0,0,0,-1,1147,1009,0,0
-70,15,0,0,0,0,0,0,0,0,0,-1,1154,1009,0,0
-63,15,0,0,0,0,0,0,0,0,0,-1,1161,1009,0,0
-56,15,0,0,0,0,0,0,0,0,0,-1,1168,1009,0,0
-49,15,0,0,0,0,0,0,0,0,0,-1,1175,1009,0,0
-42,15,0,0,0,0,0,0,0,0,0,-1,1182,1009,0,0
-35,15,0,0,0,0,0,0,0,0,0,-1,1189,1009,0,0
-28,15,0,0,0,0,0,0,0,0,0,-1,1196,1009,0,0
-21,15,0,0,0,0,0,0,0,0,0,-1,1203,1009,0,0
-14,15,0,0,0,0,0,0,0,0,0,-1,1210,1009,0,0
-7,15,0,0,0,0,0,0,0,0,0,-1,1217,1009,0,0
0,15,0,0,0,0,0,0,0,0,0,-1,1224,1009,0,0
7,15,0,0,0,0,0,0,0,0,0,-1,1231,1009,0,0
14,15,0,0,0,0,0,0,0,0,0,-1,1238,1009,0,0
21,15,0,0,0,0,0,0,0,0,0,-1,1245,1009,0,0
28,15,0,0,0,0,0,0,0,0,0,-1,1252,1009,0,0
35,15,0,0,0,0,0,0,0,0,0,-1,1259,1009,0,0
42,15,0,0,0,0,0,0,0,0,0,-1,1266,1009,0,0
49,15,0,0,0,0,0,0,0,0,0,-1,1273,1009,0,0
56,15,0,0,0,0,0,0,0,0,0,-1,1280,1009,0,0
63,15,0,0,0,0,0,0,0,0,0,-1,1287,1009,0,0
70,15,0,0,0,0,0,0,0,0,0,-1,1294,1009,0,0
77,15,0,0,0,0,0,0,0,0,0,-1,1301,1009,0,0
84,15,0,0,0,0,0,0,0,0,0,-1,1308,1009,0,0
91,15,0,0,0,0,0,0,0,0,0,-1,1315,1009,0,0
98,15,0,0,0,0,0,0,0,0,0,-1,1322,1009,0,0
105,15,0,0,0,0,0,0,0,0,0,-1,1329,1009,0,0
112,15,0,0,0,0,0,0,0,0,0,-1,1336,1009,0,0
119,15,0,0,0,0,0,0,0,0,0,-1,1343,1009,0,0
126,15,0,0,0,0,0,0,0,0,0,-1,1350,1009,0,0
133,15,0,0,0,0,0,0,0,0,0,-1,1357,1009,0,0
140,15,0,0,0,0,0,0,0,0,0,-1,1364,1009,0,0
147,15,0,0,0,0,0,0,0,0,0,-1,1371,1009,0,0
154,15,0,0,0,0,0,0,0,0,0,-1,1378,1009,0,0
161,15,0,0,0,0,0,0,0,0,0,-1,1385,1009,0,0
168,15,0,0,0,0,0,0,0,0,0,-1,1392,1009,0,0
175,15,0,0,0,0,0,0,0,0,0,-1,1399,1009,0,0
182,15,0,0,0,0,0,0,0,0,0,-1,1406,1009,0,0
189,15,0,0,0,0,0,0,0,0,0,-1,1413,1009,0,0
196,15,0,0,0,0,0,0,0,0,0,-1,1420,1009,0,0
203,15,0,0,0,0,0,0,0,0,0,-1,1427,1009,0,0
210,15,0,0,0,0,0,0,0,0,0,-1,1434,1009,0,0
217,15,0,0,0,0,0,0,0,0,0,-1,1441,1009,0,0
224,15,0,0,0,0,0,0,0,0,0,-1,1448,1009,0,0
231,15,0,0,0,0,0,0,0,0,0,-1,1455,1009,0,0
238,15,0,0,0,0,0,0,0,0,0,-1,1462,1009,0,0
245,15,0,0,0,0,0,0,0,0,0,-1,1469,1009,0,0
252,15,0,0,0,0,0,0,0,0,0,-1,1476,1009,0,0
259,15,0,0,0,0,0,0,0,0,0,-1,1483,1009,0,0
266,15,0,0,0,0,0,0,0,0,0,-1,1490,1009,0,0
273,15,0,0,0,0,0,0,0,0,0,-1,1497,1009,0,0
280,15,0,0,0,0,0,0,0,0,0,-1,1504,1009,0,0
287,15,0,0,0,0,0,0,0,0,0,-1,1511,1009,0,0
294,15,0,0,0,0,0,0,0,0,0,-1,1518,1009,0,0
301,15,0,0,0,0,0,0,0,0,0,-1,1525,1009,0,0
308,15,0,0,0,0,0,0,0,0,0,-1,1532,1009,0,0
315,15,0,0,0,0,0,0,0,0,0,-1,1539,1009,0,0
322,15,0,0,0,0,0,0,0,0,0,-1,1546,1009,0,0
329,15,0,0,0,0,0,0,0,0,0,-1,1553,1009,0,0
336,15,0,0,0,0,0,0,0,0,0,-1,1560,1009,0,0
343,15,0,0,0,0,0,0,0,0,0,-1,1567,1009,0,0
350,15,0,0,0,0,0,0,0,0,0,-1,1574,1009,0,0
357,15,0,0,0,0,0,0,0,0,0,-1,1581,1009,0,0
364,15,0,0,0,0,0,0,0,0,0,-1,1588,1009,0,0
371,15,0,0,0,0,0,0,0,0,0,-1,1595,1009,0,0
378,15,0,0,0,0,0,0,0,0,0,-1,1602,1009,0,0
385,15,0,0,0,0,0,0,0,0,0,-1,1609,1009,0,0
392,15,0,0,0,0,0,0,0,0,0,-1,1616,1009,0,0
399,15,0,0,0,0,0,0,0,0,0,-1,1623,1009,0,0
406,15,0,0,0,0,0,0,0,0,0,-1,1630,1009,0,0
413,15,0,0,0,0,0,0,0,0,0,-1,1637,1009,0,0
420,15,0,0,0,0,0,0,0,0,0,-1,1644,1009,0,0
427,15,0,0,0,0,0,0,0,0,0,-1,1651,1009,0,0
434,15,0,0,0,0,0,0,0,0,0,-1,1658,1009,0,0
441,15,0,0,0,0,0,0,0,0,0,-1,1665,1009,0,0
448,15,0,0,0,0,0,0,0,0,0,-1,1672,1009,0,0
455,15,0,0,0,0,0,0,0,0,0,-1,1679,1009,0,0
462,15,0,0,0,0,0,0,0,0,0,-1,1686,1009,0,0
469,15,0,0,0,0,0,0,0,0,0,-1,1693,1009,0,0
476,15,0,0,0,0,0,0,0,0,0,-1,1700,1009,0,0
483,15,0,0,0,0,0,0,0,0,0,-1,1707,1009,0,0
490,15,0,0,0,0,0,0,0,0,0,-1,1714,1009,0,0
497,15,0,0,0,0,0,0,0,0,0,-1,1721,1009,0,0
504,15,0,0,0,0,0,0,0,0,0,-1,1728,1009,0,0
511,15,0,0,0,0,0,0,0,0,0,-1,1735,1009,0,0
518,15,0,0,0,0,0,0,0,0,0,-1,1742,1009,0,0
525,15,0,0,0,0,0,0,0,0,0,-1,1749,1009,0,0
532,15,0,0,0,0,0,0,0,0,0,-1,1756,1009,0,0
539,15,0,0,0,0,0,0,0,0,0,-1,1763,1009,0,0
546,15,0,0,0,0,0,0,0,0,0,-1,1770,1009,0,0
553,15,0,0,0,0,0,0,0,0,0,-1,1777,1009,0,0
560,15,0,0,0,0,0,0,0,0,0,-1,1784,1009,0,0
567,15,0,0,0,0,0,0,0,0,0,-1,1791,1009,0,0
574,15,0,0,0,0,0,0,0,0,0,-1,1798,1009,0,0
581,15,0,0,0,0,0,0,0,0,0,-1,1805,1009,0,0
588,15,0,0,0,0,0,0,0,0,0,-1,1812,1009,0,0
595,15,0,0,0,0,0,0,0,0,0,-1,1819,1009,0,0
602,15,0,0,0,0,0,0,0,0,0,-1,1826,1009,0,0
609,15,0,0,0,0,0,0,0,0,0,-1,1833,1009,0,0
616,15,0,0,0,0,0,0,0,0,0,-1,1840,1009,0,0
623,15,0,0,0,0,0,0,0,0,0,-1,1847,1009,0,0
630,15,0,0,0,0,0,0,0,0,0,-1,1854,1009,0,0
637,15,0,0,0,0,0,0,0,0,0,-1,1861,1009,0,0
644,15,76.3453,1.93207,0.000706353,-0.0025139,-0.000956853,0.000969212,-0.00277676,-0.268099,0.0022451,0.0403127,1868,1009,76.3453,-1.9321
651,15,76.3365,1.82733,0.000432974,-0.00276657,-0.000579518,0.000534705,-0.00286831,-0.173773,0.00211311,0.0396317,1875,1009,76.3366,-1.82734
658,15,76.332,1.948,3.50425e-05,-0.00283226,-0.0001854,4.69807e-05,-0.0028442,-0.0643031,0.00191199,0.0383927,1882,1009,76.332,-1.948
665,15,76.4834,2.19611,-0.000286566,-0.00263525,0.000163613,-0.000275223,-0.0026466,0.0692158,0.00168019,0.0384905,1889,1009,76.4834,-2.19612
672,15,76.5597,2.22723,-0.000585613,-0.00227165,0.000506615,-0.000445097,-0.00241216,0.270561,0.00148219,0.0372769,1896,1009,76.5597,-2.22724
679,15,76.5175,2.10754,-0.000829715,-0.00190069,0.000858092,-0.000353734,-0.00237667,0.506442,0.00148069,0.0386565,1903,1009,76.5175,-2.10754
686,15,76.5514,1.98737,-0.00105972,-0.00184779,0.00104413,-0.000337745,-0.00256977,0.60497,0.00161243,0.04136,1910,1009,76.5514,-1.98737
693,15,76.4469,2.00439,-0.00124351,-0.00187783,0.00114019,-0.000377186,-0.00274415,0.649746,0.00171756,0.0370649,1917,1009,76.4469,-2.00442
700,15,76.3887,2.04553,-0.0013395,-0.00180551,0.00113052,-0.000418231,-0.00272679,0.683769,0.00169573,0.0297858,1924,1009,76.3887,-2.04554
707,15,76.3738,2.12909,-0.0020131,-0.00118841,0.000997928,-0.000520992,-0.00268052,0.981316,0.00164115,0.0327798,1931,1009,76.3738,-2.1291
714,15,76.3936,2.21619,-0.00321281,-7.03439e-05,0.000733393,9.23895e-05,-0.00337554,1.35244,0.00228178,0.0430495,1938,1009,76.3935,-2.21618
721,15,76.3447,2.22058,0,0,0,0,0,0,0,-1,1945,1009,76.3447,-2.22056
728,15,76.7056,6.82727,0,0,0,0,0,0,0,-1,1952,1009,76.7056,-6.82724
735,15,76.5872,7.01276,-0.00757326,0.00587433,-0.000162921,0.00587631,-0.00757523,-1.55868,0.00778687,0.0243037,1959,1009,76.5872,-7.01275
742,15,76.6172,7.20233,-0.00921057,0.00806776,-0.000476717,0.0080809,-0.00922371,-1.54323,0.00999808,0.0482933,1966,1009,76.6171,-7.20234
749,15,76.6042,7.2821,-0.0107042,0.0105772,-0.000815185,0.0106084,-0.0107353,-1.53257,0.0123229,0.0301793,1973,1009,76.6044,-7.28209
756,15,76.6021,7.22925,-0.0122662,0.0136984,-0.000947949,0.013733,-0.0123008,-1.53435,0.0150382,0.0210589,1980,1009,76.6021,-7.22923
763,15,76.4841,7.38855,-0.0136539,0.0177076,-0.000907826,0.0177338,-0.0136801,-1.54188,0.0181871,0.0152734,1987,1009,76.484,-7.38858
770,15,76.2654,7.40338,-0.0137012,0.0221282,-0.000234585,0.0221297,-0.0137028,-1.56425,0.0208777,0.022009,1994,1009,76.2653,-7.40336
777,15,75.8152,7.40564,-0.011868,0.0256113,0.001211,0.0256504,-0.0119071,1.53853,0.0221625,0.0478623,2001,1009,75.8152,-7.40567
784,15,75.4238,7.43982,0,0,0,0,0,0,0,-1,2008,1009,75.4238,-7.43985
791,15,71.5635,6.11658,0,0,0,0,0,0,0,-1,2015,1009,71.5636,-6.1166
798,15,73.218,8.20026,0,0,0,0,0,0,0,-1,2022,1009,73.2179,-8.20025
805,15,73.0918,5.70203,0,0,0,0,0,0,0,-1,2029,1009,73.0919,-5.70202
812,15,74.7666,4.17609,0,0,0,0,0,0,0,-1,2036,1009,74.7665,-4.17609
-700,8,0,0,0,0,0,0,0,0,0,-1,524,1016,0,0
-693,8,-69.7901,-2.56525,-0.0332113,0.0887527,0.0319628,0.0966214,-0.04108,1.32941,0.0816292,0.0487772,531,1016,-69.7901,2.56522
-686,8,-70.0362,-1.00653,-0.027942,0.0800127,0.0227245,0.0846012,-0.0325305,1.37156,0.0698179,0.0479808,538,1016,-70.0362,1.00655
-679,8,-70.2738,0.579956,0,0,0,0,0,0,0,-1,545,1016,-70.2738,-0.579983
-672,8,-59.5292,4.77765,0,0,0,0,0,0,0,-1,552,1016,-59.5292,-4.77765
-665,8,-59.1773,4.76471,0,0,0,0,0,0,0,-1,559,1016,-59.1773,-4.76471
-658,8,-58.8746,4.82581,0,0,0,0,0,0,0,-1,566,1016,-58.8746,-4.82578
-651,8,-58.2461,5.43817,0,0,0,0,0,0,0,-1,573,1016,-58.2461,-5.43819
-644,8,-60.6519,5.71796,0,0,0,0,0,0,0,-1,580,1016,-60.6519,-5.71794
-637,8,-60.7044,5.91254,-0.0101774,0.0292237,0.00359123,0.0295484,-0.010502,1.48064,0.0239789,0.0464559,587,1016,-60.7044,-5.91256
-630,8,-60.9469,6.06927,-0.00910714,0.021107,0.00270067,0.0213465,-0.00934663,1.48235,0.0181665,0.0282266,594,1016,-60.9469,-6.06924
-623,8,-60.9512,6.13086,-0.00865831,0.0145136,0.00204165,0.0146921,-0.00883682,1.48358,0.0137239,0.0184223,601,1016,-60.9512,-6.13087
-616,8,-61.0071,6.05304,-0.00796697,0.00916353,0.00195586,0.009384,-0.00818744,1.45855,0.0101527,0.0206339,608,1016,-61.0071,-6.05301
-609,8,-61.1227,5.95471,-0.00719651,0.00539723,0.00132357,0.00553483,-0.00733411,1.46721,0.00745405,0.0237952,615,1016,-61.1227,-5.9547
-602,8,-61.0909,6.0249,-0.00638587,0.00254545,0.000888487,0.00263297,-0.0064734,1.4726,0.00541117,0.0278213,622,1016,-61.0909,-6.02492
-595,8,-60.8146,6.05414,0,0,0,0,0,0,0,-1,629,1016,-60.8146,-6.05415
-588,8,-59.781,0.140747,0,0,0,0,0,0,0,-1,636,1016,-59.781,-0.140739
-581,8,-59.8635,0.204712,-0.00349212,-0.00218696,0.000652097,-0.00191699,-0.00376209,1.17828,0.00217218,0.0315698,643,1016,-59.8635,-0.204713
-574,8,-59.947,0.257263,-0.00270264,-0.0029085,0.000697651,-0.00210036,-0.00351077,0.712156,0.00203995,0.036746,650,1016,-59.947,-0.257292
-567,8,-60.0683,0.195862,-0.00203587,-0.00307631,0.000897313,-0.00151888,-0.0035933,0.522698,0.00208284,0.040153,657,1016,-60.0683,-0.195843
-560,8,-59.9802,0.295654,-0.00120447,-0.00271264,0.00111944,-0.000608818,-0.00330828,0.488994,0.0020332,0.0391082,664,1016,-59.9801,-0.29568
-553,8,-59.8846,0.416077,-0.000263982,-0.00199099,0.001252,0.000393417,-0.00264839,0.483509,0.00191028,0.0406574,671,1016,-59.8847,-0.416072
-546,8,-60.0567,0.399231,0.000771961,-0.00129837,0.00121105,0.00132997,-0.00185638,0.431771,0.00184799,0.0413953,678,1016,-60.0567,-0.399248
-539,8,-60.1006,0.648621,0.00119199,-0.000831851,0.00101783,0.00161533,-0.00125519,0.394156,0.00166164,0.0421623,685,1016,-60.1006,-0.648615
-532,8,-59.887,0.567139,0.00178228,-0.000224092,0.000617459,0.00195708,-0.000398886,0.275868,0.00145601,0.0416007,692,1016,-59.887,-0.567129
-525,8,0,0,0,0,0,0,0,0,0,-1,699,1016,0,0
-518,8,0,0,0,0,0,0,0,0,0,-1,706,1016,0,0
-511,8,0,0,0,0,0,0,0,0,0,-1,713,1016,0,0
-504,8,0,0,0,0,0,0,0,0,0,-1,720,1016,0,0
-497,8,0,0,0,0,0,0,0,0,0,-1,727,1016,0,0
-490,8,0,0,0,0,0,0,0,0,0,-1,734,1016,0,0
-483,8,0,0,0,0,0,0,0,0,0,-1,741,1016,0,0
-476,8,0,0,0,0,0,0,0,0,0,-1,748,1016,0,0
-469,8,0,0,0,0,0,0,0,0,0,-1,755,1016,0,0
-462,8,0,0,0,0,0,0,0,0,0,-1,762,1016,0,0
-455,8,0,0,0,0,0,0,0,0,0,-1,769,1016,0,0
-448,8,0,0,0,0,0,0,0,0,0,-1,776,1016,0,0
-441,8,0,0,0,0,0,0,0,0,0,-1,783,1016,0,0
-434,8,0,0,0,0,0,0,0,0,0,-1,790,1016,0,0
-427,8,0,0,0,0,0,0,0,0,0,-1,797,1016,0,0
-420,8,0,0,0,0,0,0,0,0,0,-1,804,1016,0,0
-413,8,0,0,0,0,0,0,0,0,0,-1,811,1016,0,0
-406,8,0,0,0,0,0,0,0,0,0,-1,818,1016,0,0
-399,8,0,0,0,0,0,0,0,0,0,-1,825,1016,0,0
-392,8,0,0,0,0,0,0,0,0,0,-1,832,1016,0,0
-385,8,0,0,0,0,0,0,0,0,0,-1,839,1016,0,0
-378,8,0,0,0,0,0,0,0,0,0,-1,846,1016,0,0
-371,8,0,0,0,0,0,0,0,0,0,-1,853,1016,0,0
-364,8,0,0,0,0,0,0,0,0,0,-1,860,1016,0,0
-357,8,0,0,0,0,0,0,0,0,0,-1,867,1016,0,0
-350,8,0,0,0,0,0,0,0,0,0,-1,874,1016,0,0
-343,8,0,0,0,0,0,0,0,0,0,-1,881,1016,0,0
-336,8,0,0,0,0,0,0,0,0,0,-1,888,1016,0,0
-329,8,0,0,0,0,0,0,0,0,0,-1,895,1016,0,0
-322,8,0,0,0,0,0,0,0,0,0,-1,902,1016,0,0
-315,8,0,0,0,0,0,0,0,0,0,-1,909,1016,0,0
-308,8,0,0,0,0,0,0,0,0,0,-1,916,1016,0,0
-301,8,0,0,0,0,0,0,0,0,0,-1,923,1016,0,0
-294,8,0,0,0,0,0,0,0,0,0,-1,930,1016,0,0
-287,8,0,0,0,0,0,0,0,0,0,-1,937,1016,0,0
-280,8,0,0,0,0,0,0,0,0,0,-1,944,1016,0,0
-273,8,0,0,0,0,0,0,0,0,0,-1,951,1016,0,0
-266,8,0,0,0,0,0,0,0,0,0,-1,958,1016,0,0
-259,8,0,0,0,0,0,0,0,0,0,-1,965,1016,0,0
-252,8,0,0,0,0,0,0,0,0,0,-1,972,1016,0,0
-245,8,0,0,0,0,0,0,0,0,0,-1,979,1016,0,0
-238,8,0,0,0,0,0,0,0,0,0,-1,986,1016,0,0
-231,8,0,0,0,0,0,0,0,0,0,-1,993,1016,0,0
-224,8,0,0,0,0,0,0,0,0,0,-1,1000,1016,0,0
-217,8,0,0,0,0,0,0,0,0,0,-1,1007,1016,0,0
-210,8,0,0,0,0,0,0,0,0,0,-1,1014,1016,0,0
-203,8,0,0,0,0,0,0,0,0,0,-1,1021,1016,0,0
-196,8,0,0,0,0,0,0,0,0,0,-1,1028,1016,0,0
-189,8,0,0,0,0,0,0,0,0,0,-1,1035,1016,0,0
-182,8,0,0,0,0,0,0,0,0,0,-1,1042,1016,0,0
-175,8,0,0,0,0,0,0,0,0,0,-1,1049,1016,0,0
-168,8,0,0,0,0,0,0,0,0,0,-1,1056,1016,0,0
-161,8,0,0,0,0,0,0,0,0,0,-1,1063,1016,0,0
-154,8,0,0,0,0,0,0,0,0,0,-1,1070,1016,0,0
-147,8,0,0,0,0,0,0,0,0,0,-1,1077,1016,0,0
-140,8,0,0,0,0,0,0,0,0,0,-1,1084,1016,0,0
-133,8,0,0,0,0,0,0,0,0,0,-1,1091,1016,0,0
-126,8,0,0,0,0,0,0,0,0,0,-1,1098,1016,0,0
-119,8,0,0,0,0,0,0,0,0,0,-1,1105,1016,0,0
-112,8,0,0,0,0,0,0,0,0,0,-1,1112,1016,0,0
-105,8,0,0,0,0,0,0,0,0,0,-1,1119,1016,0,0
-98,8,0,0,0,0,0,0,0,0,0,-1,1126,1016,0,0
-91,8,0,0,0,0,0,0,0,0,0,-1,1133,1016,0,0
-84,8,0,0,0,0,0,0,0,0,0,-1,1140,1016,0,0
-77,8,0,0,0,0,0,0,0,0,0,-1,1147,1016,0,0
-70,8,0,0,0,0,0,0,0,0,0,-1,1154,1016,0,0
-63,8,0,0,0,0,0,0,0,0,0,-1,1161,1016,0,0
-56,8,0,0,0,0,0,0,0,0,0,-1,1168,1016,0,0
-49,8,0,0,0,0,0,0,0,0,0,-1,1175,1016,0,0
-42,8,0,0,0,0,0,0,0,0,0,-1,1182,1016,0,0
-35,8,0,0,0,0,0,0,0,0,0,-1,1189,1016,0,0
-28,8,0,0,0,0,0,0,0,0,0,-1,1196,1016,0,0
-21,8,0,0,0,0,0,0,0,0,0,-1,1203,1016,0,0
-14,8,0,0,0,0,0,0,0,0,0,-1,1210,1016,0,0
-7,8,0,0,0,0,0,0,0,0,0,-1,1217,1016,0,0
0,8,0,0,0,0,0,0,0,0,0,-1,1224,1016,0,0
7,8,0,0,0,0,0,0,0,0,0,-1,1231,1016,0,0
14,8,0,0,0,0,0,0,0,0,0,-1,1238,1016,0,0
21,8,0,0,0,0,0,0,0,0,0,-1,1245,1016,0,0
28,8,0,0,0,0,0,0,0,0,0,-1,1252,1016,0,0
35,8,0,0,0,0,0,0,0,0,0,-1,1259,1016,0,0
42,8,0,0,0,0,0,0,0,0,0,-1,1266,1016,0,0
49,8,0,0,0,0,0,0,0,0,0,-1,1273,1016,0,0
56,8,0,0,0,0,0,0,0,0,0,-1,1280,1016,0,0
63,8,0,0,0,0,0,0,0,0,0,-1,1287,1016,0,0
70,8,0,0,0,0,0,0,0,0,0,-1,1294,1016,0,0
77,8,0,0,0,0,0,0,0,0,0,-1,1301,1016,0,0
84,8,0,0,0,0,0,0,0,0,0,-1,1308,1016,0,0
91,8,0,0,0,0,0,0,0,0,0,-1,1315,1016,0,0
98,8,0,0,0,0,0,0,0,0,0,-1,1322,1016,0,0
105,8,0,0,0,0,0,0,0,0,0,-1,1329,1016,0,0
112,8,0,0,0,0,0,0,0,0,0,-1,1336,1016,0,0
119,8,0,0,0,0,0,0,0,0,0,-1,1343,1016,0,0
126,8,0,0,0,0,0,0,0,0,0,-1,1350,1016,0,0
133,8,0,0,0,0,0,0,0,0,0,-1,1357,1016,0,0
140,8,0,0,0,0,0,0,0,0,0,-1,1364,1016,0,0
147,8,0,0,0,0,0,0,0,0,0,-1,1371,1016,0,0
154,8,0,0,0,0,0,0,0,0,0,-1,1378,1016,0,0
161,8,0,0,0,0,0,0,0,0,0,-1,1385,1016,0,0
168,8,0,0,0,0,0,0,0,0,0,-1,1392,1016,0,0
175,8,0,0,0,0,0,0,0,0,0,-1,1399,1016,0,0
182,8,0,0,0,0,0,0,0,0,0,-1,1406,1016,0,0
189,8,0,0,0,0,0,0,0,0,0,-1,1413,1016,0,0
196,8,0,0,0,0,0,0,0,0,0,-1,1420,1016,0,0
203,8,0,0,0,0,0,0,0,0,0,-1,1427,1016,0,0
210,8,0,0,0,0,0,0,0,0,0,-1,1434,1016,0,0
217,8,0,0,0,0,0,0,0,0,0,-1,1441,1016,0,0
224,8,0,0,0,0,0,0,0,0,0,-1,1448,1016,0,0
231,8,0,0,0,0,0,0,0,0,0,-1,1455,1016,0,0
238,8,0,0,0,0,0,0,0,0,0,-1,1462,1016,0,0
245,8,0,0,0,0,0,0,0,0,0,-1,1469,1016,0,0
252,8,0,0,0,0,0,0,0,0,0,-1,1476,1016,0,0
259,8,0,0,0,0,0,0,0,0,0,-1,1483,1016,0,0
266,8,0,0,0,0,0,0,0,0,0,-1,1490,1016,0,0
273,8,0,0,0,0,0,0,0,0,0,-1,1497,1016,0,0
280,8,0,0,0,0,0,0,0,0,0,-1,1504,1016,0,0
287,8,0,0,0,0,0,0,0,0,0,-1,1511,1016,0,0
294,8,0,0,0,0,0,0,0,0,0,-1,1518,1016,0,0
301,8,0,0,0,0,0,0,0,0,0,-1,1525,1016,0,0
308,8,0,0,0,0,0,0,0,0,0,-1,1532,1016,0,0
315,8,0,0,0,0,0,0,0,0,0,-1,1539,1016,0,0
322,8,0,0,0,0,0,0,0,0,0,-1,1546,1016,0,0
329,8,0,0,0,0,0,0,0,0,0,-1,1553,1016,0,0
336,8,0,0,0,0,0,0,0,0,0,-1,1560,1016,0,0
343,8,0,0,0,0,0,0,0,0,0,-1,1567,1016,0,0
350,8,0,0,0,0,0,0,0,0,0,-1,1574,1016,0,0
357,8,0,0,0,0,0,0,0,0,0,-1,1581,1016,0,0
364,8,0,0,0,0,0,0,0,0,0,-1,1588,1016,0,0
371,8,0,0,0,0,0,0,0,0,0,-1,1595,1016,0,0
378,8,0,0,0,0,0,0,0,0,0,-1,1602,1016,0,0
385,8,0,0,0,0,0,0,0,0,0,-1,1609,1016,0,0
392,8,0,0,0,0,0,0,0,0,0,-1,1616,1016,0,0
399,8,0,0,0,0,0,0,0,0,0,-1,1623,1016,0,0
406,8,0,0,0,0,0,0,0,0,0,-1,1630,1016,0,0
413,8,0,0,0,0,0,0,0,0,0,-1,1637,1016,0,0
420,8,0,0,0,0,0,0,0,0,0,-1,1644,1016,0,0
427,8,0,0,0,0,0,0,0,0,0,-1,1651,1016,0,0
434,8,0,0,0,0,0,0,0,0,0,-1,1658,1016,0,0
441,8,0,0,0,0,0,0,0,0,0,-1,1665,1016,0,0
448,8,0,0,0,0,0,0,0,0,0,-1,1672,1016,0,0
455,8,0,0,0,0,0,0,0,0,0,-1,1679,1016,0,0
462,8,0,0,0,0,0,0,0,0,0,-1,1686,1016,0,0
469,8,0,0,0,0,0,0,0,0,0,-1,1693,1016,0,0
476,8,0,0,0,0,0,0,0,0,0,-1,1700,1016,0,0
483,8,0,0,0,0,0,0,0,0,0,-1,1707,1016,0,0
490,8,0,0,0,0,0,0,0,0,0,-1,1714,1016,0,0
497,8,0,0,0,0,0,0,0,0,0,-1,1721,1016,0,0
504,8,0,0,0,0,0,0,0,0,0,-1,1728,1016,0,0
511,8,0,0,0,0,0,0,0,0,0,-1,1735,1016,0,0
518,8,0,0,0,0,0,0,0,0,0,-1,1742,1016,0,0
525,8,0,0,0,0,0,0,0,0,0,-1,1749,1016,0,0
532,8,0,0,0,0,0,0,0,0,0,-1,1756,1016,0,0
539,8,0,0,0,0,0,0,0,0,0,-1,1763,1016,0,0
546,8,0,0,0,0,0,0,0,0,0,-1,1770,1016,0,0
553,8,0,0,0,0,0,0,0,0,0,-1,1777,1016,0,0
560,8,0,0,0,0,0,0,0,0,0,-1,1784,1016,0,0
567,8,0,0,0,0,0,0,0,0,0,-1,1791,1016,0,0
574,8,0,0,0,0,0,0,0,0,0,-1,1798,1016,0,0
581,8,0,0,0,0,0,0,0,0,0,-1,1805,1016,0,0
588,8,0,0,0,0,0,0,0,0,0,-1,1812,1016,0,0
595,8,0,0,0,0,0,0,0,0,0,-1,1819,1016,0,0
602,8,0,0,0,0,0,0,0,0,0,-1,1826,1016,0,0
609,8,0,0,0,0,0,0,0,0,0,-1,1833,1016,0,0
616,8,0,0,0,0,0,0,0,0,0,-1,1840,1016,0,0
623,8,0,0,0,0,0,0,0,0,0,-1,1847,1016,0,0
630,8,0,0,0,0,0,0,0,0,0,-1,1854,1016,0,0
637,8,0,0,0,0,0,0,0,0,0,-1,1861,1016,0,0
644,8,76.2817,2.12451,-0.000218005,-0.00365532,-0.000967274,3.54947e-05,-0.00390882,-0.256312,0.00261779,0.0419754,1868,1016,76.2817,-2.12452
651,8,76.3162,1.99969,-0.000180927,-0.00365268,-0.000442712,-0.000125363,-0.00370824,-0.124857,0.00243145,0.0403567,1875,1016,76.3162,-1.99971
658,8,76.392,2.02179,-0.000392579,-0.00350753,-4.54769e-05,-0.000391915,-0.00350819,-0.0145954,0.00221972,0.0400253,1882,1016,76.392,-2.0218
665,8,76.4934,2.13153,-0.000598136,-0.00316259,0.00026348,-0.000571345,-0.00318938,0.101333,0.00196371,0.0412119,1889,1016,76.4935,-2.13155
672,8,76.5452,2.14093,-0.00078426,-0.00267151,0.000544454,-0.000638455,-0.00281732,0.261661,0.0017057,0.0387504,1896,1016,76.5452,-2.14092
679,8,76.5048,2.05658,-0.000922557,-0.00215881,0.000809561,-0.000522121,-0.00255925,0.459344,0.0015615,0.0392962,1903,1016,76.5048,-2.05659
686,8,76.5359,1.89294,-0.00114643,-0.00199637,0.000926321,-0.000552245,-0.00259055,0.570335,0.00157555,0.0408935,1910,1016,76.5359,-1.89296
693,8,76.4849,1.83185,-0.00133087,-0.00194658,0.000999888,-0.000592517,-0.00268493,0.63606,0.00162878,0.0376624,1917,1016,76.4849,-1.83187
700,8,76.426,1.95911,-0.00139922,-0.00183229,0.00101778,-0.000575193,-0.00265632,0.680587,0.00161369,0.0295108,1924,1016,76.426,-1.95913
707,8,76.3833,2.06598,-0.00209523,-0.00119147,0.000942019,-0.000598559,-0.00268815,1.00903,0.00162964,0.0276199,1931,1016,76.3833,-2.06596
714,8,76.4196,2.0589,-0.00329548,-5.10493e-05,0.000740436,0.000109943,-0.00345648,1.3567,0.00234182,0.0380548,1938,1016,76.4195,-2.0589
721,8,76.4768,2.05072,0,0,0,0,0,0,0,-1,1945,1016,76.4768,-2.05075
728,8,52.1681,5.36774,0,0,0,0,0,0,0,-1,1952,1016,52.168,-5.36773
735,8,76.6835,7.1828,0,0,0,0,0,0,0,-1,1959,1016,76.6835,-7.18282
742,8,76.5255,7.37939,0,0,0,0,0,0,0,-1,1966,1016,76.5255,-7.37937
749,8,76.9824,7.25684,0,0,0,0,0,0,0,-1,1973,1016,76.9824,-7.25684
756,8,76.698,7.06982,-0.0124705,0.0134861,-0.000595332,0.0134998,-0.0124841,-1.54788,0.0150056,0.0438262,1980,1016,76.6981,-7.0698
763,8,76.5986,7.20709,-0.0139331,0.0173931,-0.000659457,0.017407,-0.013947,-1.54976,0.0181389,0.0172074,1987,1016,76.5986,-7.20707
770,8,76.4246,7.17236,-0.0141977,0.0218635,-0.000276576,0.0218657,-0.0141998,-1.56313,0.0209786,0.0230496,1994,1016,76.4245,-7.17235
777,8,76.0156,7.12238,-0.0126434,0.0256363,0.000699774,0.025649,-0.0126562,1.55252,0.0225356,0.0377377,2001,1016,76.0157,-7.12239
784,8,75.6045,7.07343,0,0,0,0,0,0,0,-1,2008,1016,75.6046,-7.07341
791,8,75.3254,6.65082,0,0,0,0,0,0,0,-1,2015,1016,75.3255,-6.65082
798,8,72.3938,5.91559,0,0,0,0,0,0,0,-1,2022,1016,72.3939,-5.91561
805,8,74.0225,5.54028,0,0,0,0,0,0,0,-1,2029,1016,74.0224,-5.54026
812,8,75.1099,3.87701,0,0,0,0,0,0,0,-1,2036,1016,75.1098,-3.877
-700,1,0,0,0,0,0,0,0,0,0,-1,524,1023,0,0
-693,1,-68.8531,-3.23425,-0.0339311,0.0797814,0.0170495,0.0822827,-0.0364324,1.42513,0.0702235,0.0466696,531,1023,-68.8531,3.23423
-686,1,-69.0966,-1.65271,-0.0275609,0.0732797,0.0125554,0.0748195,-0.0291007,1.44877,0.0619035,0.0495145,538,1023,-69.0966,1.65273
-679,1,-69.3311,-0.0705566,0,0,0,0,0,0,0,-1,545,1023,-69.3311,0.0705502
-672,1,-59.5455,4.8078,0,0,0,0,0,0,0,-1,552,1023,-59.5455,-4.80781
-665,1,-59.6253,2.46619,0,0,0,0,0,0,0,-1,559,1023,-59.6253,-2.46619
-658,1,-60.7065,5.63171,0,0,0,0,0,0,0,-1,566,1023,-60.7065,-5.63173
-651,1,-60.356,5.88428,0,0,0,0,0,0,0,-1,573,1023,-60.356,-5.8843
-644,1,-60.4728,5.89893,0,0,0,0,0,0,0,-1,580,1023,-60.4728,-5.89891
-637,1,-60.6851,5.84772,-0.00828276,0.0274886,0.00317278,0.0277678,-0.00856199,1.48301,0.0219303,0.0442883,587,1023,-60.6851,-5.84773
-630,1,-61.0549,5.9198,-0.00756948,0.0201727,0.00246064,0.0203892,-0.00778604,1.48301,0.0168007,0.0388009,594,1023,-61.0549,-5.91981
-623,1,-60.9138,6.03809,-0.00753629,0.014022,0.0016744,0.0141512,-0.00766556,1.49374,0.0127801,0.0192547,601,1023,-60.9138,-6.03809
-616,1,-61.0748,5.91882,-0.00707213,0.00874228,0.00158822,0.0089002,-0.00723006,1.47169,0.00932944,0.0251878,608,1023,-61.0748,-5.91885
-609,1,-61.0757,5.98053,-0.0064428,0.00496487,0.000906763,0.0050365,-0.00651443,1.49197,0.0066871,0.0274137,615,1023,-61.0757,-5.98056
-602,1,-60.8878,6.14508,-0.00573345,0.00197163,0.000364389,0.00198882,-0.00575065,1.52364,0.004641,0.0175034,622,1023,-60.8878,-6.14508
-595,1,-60.8535,6.17963,0,0,0,0,0,0,0,-1,629,1023,-60.8535,-6.17962
-588,1,-60.7112,6.27936,0,0,0,0,0,0,0,-1,636,1023,-60.7112,-6.27937
-581,1,-59.8733,0.258301,-0.00323364,-0.00263736,0.000365283,-0.00246399,-0.00340701,1.12767,0.00203132,0.0297772,643,1023,-59.8733,-0.258313
-574,1,-59.9442,0.307678,-0.00258179,-0.00333024,0.000547301,-0.002293,-0.00361902,0.485523,0.00211416,0.0373312,650,1023,-59.9442,-0.307678
-567,1,-60.0323,0.254883,-0.00211165,-0.00343057,0.000867171,-0.00168167,-0.00386055,0.460313,0.00223504,0.0423588,657,1023,-60.0323,-0.254885
-560,1,-59.9915,0.435181,-0.00154992,-0.00296074,0.0012282,-0.000838967,-0.00367169,0.524727,0.00222159,0.0415525,664,1023,-59.9915,-0.435154
-553,1,-59.7991,0.442627,-0.000947651,-0.00207641,0.00152365,0.000112785,-0.00313684,0.608027,0.00212982,0.0416282,671,1023,-59.7991,-0.442642
-546,1,-59.8299,0.452759,-0.000301919,-0.00114537,0.00166586,0.000994772,-0.00244206,0.661424,0.00204206,0.0430566,678,1023,-59.8299,-0.452739
-539,1,-60.0181,0.722595,-0.000257338,-0.000351647,0.00164341,0.00133959,-0.00194858,0.771055,0.00190925,0.042736,685,1023,-60.018,-0.722611
-532,1,-60.1173,0.999695,-4.45594e-05,0.000575929,0.00147318,0.00177118,-0.00123981,0.889179,0.0017474,0.0438596,692,1023,-60.1173,-0.999723
-525,1,0,0,0,0,0,0,0,0,0,-1,699,1023,0,0
-518,1,0,0,0,0,0,0,0,0,0,-1,706,1023,0,0
-511,1,0,0,0,0,0,0,0,0,0,-1,713,1023,0,0
-504,1,0,0,0,0,0,0,0,0,0,-1,720,1023,0,0
-497,1,0,0,0,0,0,0,0,0,0,-1,727,1023,0,0
-490,1,0,0,0,0,0,0,0,0,0,-1,734,1023,0,0
-483,1,0,0,0,0,0,0,0,0,0,-1,741,1023,0,0
-476,1,0,0,0,0,0,0,0,0,0,-1,748,1023,0,0
-469,1,0,0,0,0,0,0,0,0,0,-1,755,1023,0,0
-462,1,0,0,0,0,0,0,0,0,0,-1,762,1023,0,0
-455,1,0,0,0,0,0,0,0,0,0,-1,769,1023,0,0
-448,1,0,0,0,0,0,0,0,0,0,-1,776,1023,0,0
-441,1,0,0,0,0,0,0,0,0,0,-1,783,1023,0,0
-434,1,0,0,0,0,0,0,0,0,0,-1,790,1023,0,0
-427,1,0,0,0,0,0,0,0,0,0,-1,797,1023,0,0
-420,1,0,0,0,0,0,0,0,0,0,-1,804,1023,0,0
-413,1,0,0,0,0,0,0,0,0,0,-1,811,1023,0,0
-406,1,0,0,0,0,0,0,0,0,0,-1,818,1023,0,0
-399,1,0,0,0,0,0,0,0,0,0,-1,825,1023,0,0
-392,1,0,0,0,0,0,0,0,0,0,-1,832,1023,0,0
-385,1,0,0,0,0,0,0,0,0,0,-1,839,1023,0,0
-378,1,0,0,0,0,0,0,0,0,0,-1,846,1023,0,0
-371,1,0,0,0,0,0,0,0,0,0,-1,853,1023,0,0
-364,1,0,0,0,0,0,0,0,0,0,-1,860,1023,0,0
-357,1,0,0,0,0,0,0,0,0,0,-1,867,1023,0,0
-350,1,0,0,0,0,0,0,0,0,0,-1,874,1023,0,0
-343,1,0,0,0,0,0,0,0,0,0,-1,881,1023,0,0
-336,1,0,0,0,0,0,0,0,0,0,-1,888,1023,0,0
-329,1,0,0,0,0,0,0,0,0,0,-1,895,1023,0,0
-322,1,0,0,0,0,0,0,0,0,0,-1,902,1023,0,0
-315,1,0,0,0,0,0,0,0,0,0,-1,909,1023,0,0
-308,1,0,0,0,0,0,0,0,0,0,-1,916,1023,0,0
-301,1,0,0,0,0,0,0,0,0,0,-1,923,1023,0,0
-294,1,0,0,0,0,0,0,0,0,0,-1,930,1023,0,0
-287,1,0,0,0,0,0,0,0,0,0,-1,937,1023,0,0
-280,1,0,0,0,0,0,0,0,0,0,-1,944,1023,0,0
-273,1,0,0,0,0,0,0,0,0,0,-1,951,1023,0,0
-266,1,0,0,0,0,0,0,0,0,0,-1,958,1023,0,0
-259,1,0,0,0,0,0,0,0,0,0,-1,965,1023,0,0
-252,1,0,0,0,0,0,0,0,0,0,-1,972,1023,0,0
-245,1,0,0,0,0,0,0,0,0,0,-1,979,1023,0,0
-238,1,0,0,0,0,0,0,0,0,0,-1,986,1023,0,0
-231,1,0,0,0,0,0,0,0,0,0,-1,993,1023,0,0
-224,1,0,0,0,0,0,0,0,0,0,-1,1000,1023,0,0
-217,1,0,0,0,0,0,0,0,0,0,-1,1007,1023,0,0
-210,1,0,0,0,0,0,0,0,0,0,-1,1014,1023,0,0
-203,1,0,0,0,0,0,0,0,0,0,-1,1021,1023,0,0
-196,1,0,0,0,0,0,0,0,0,0,-1,1028,1023,0,0
-189,1,0,0,0,0,0,0,0,0,0,-1,1035,1023,0,0
-182,1,0,0,0,0,0,0,0,0,0,-1,1042,1023,0,0
-175,1,0,0,0,0,0,0,0,0,0,-1,1049,1023,0,0
-168,1,0,0,0,0,0,0,0,0,0,-1,1056,1023,0,0
-161,1,0,0,0,0,0,0,0,0,0,-1,1063,1023,0,0
-154,1,0,0,0,0,0,0,0,0,0,-1,1070,1023,0,0
-147,1,0,0,0,0,0,0,0,0,0,-1,1077,1023,0,0
-140,1,0,0,0,0,0,0,0,0,0,-1,1084,1023,0,0
-133,1,0,0,0,0,0,0,0,0,0,-1,1091,1023,0,0
-126,1,0,0,0,0,0,0,0,0,0,-1,1098,1023,0,0
-119,1,0,0,0,0,0,0,0,0,0,-1,1105,1023,0,0
-112,1,0,0,0,0,0,0,0,0,0,-1,1112,1023,0,0
-105,1,0,0,0,0,0,0,0,0,0,-1,1119,1023,0,0
-98,1,0,0,0,0,0,0,0,0,0,-1,1126,1023,0,0
-91,1,0,0,0,0,0,0,0,0,0,-1,1133,1023,0,0
-84,1,0,0,0,0,0,0,0,0,0,-1,1140,1023,0,0
-77,1,0,0,0,0,0,0,0,0,0,-1,1147,1023,0,0
-70,1,0,0,0,0,0,0,0,0,0,-1,1154,1023,0,0
-63,1,0,0,0,0,0,0,0,0,0,-1,1161,1023,0,0
-56,1,0,0,0,0,0,0,0,0,0,-1,1168,1023,0,0
-49,1,0,0,0,0,0,0,0,0,0,-1,1175,1023,0,0
-42,1,0,0,0,0,0,0,0,0,0,-1,1182,1023,0,0
-35,1,0,0,0,0,0,0,0,0,0,-1,1189,1023,0,0
-28,1,0,0,0,0,0,0,0,0,0,-1,1196,1023,0,0
-21,1,0,0,0,0,0,0,0,0,0,-1,1203,1023,0,0
-14,1,0,0,0,0,0,0,0,0,0,-1,1210,1023,0,0
-7,1,0,0,0,0,0,0,0,0,0,-1,1217,1023,0,0
0,1,0,0,0,0,0,0,0,0,0,-1,1224,1023,0,0
7,1,0,0,0,0,0,0,0,0,0,-1,1231,1023,0,0
14,1,0,0,0,0,0,0,0,0,0,-1,1238,1023,0,0
21,1,0,0,0,0,0,0,0,0,0,-1,1245,1023,0,0
28,1,0,0,0,0,0,0,0,0,0,-1,1252,1023,0,0
35,1,0,0,0,0,0,0,0,0,0,-1,1259,1023,0,0
42,1,0,0,0,0,0,0,0,0,0,-1,1266,1023,0,0
49,1,0,0,0,0,0,0,0,0,0,-1,1273,1023,0,0
56,1,0,0,0,0,0,0,0,0,0,-1,1280,1023,0,0
63,1,0,0,0,0,0,0,0,0,0,-1,1287,1023,0,0
70,1,0,0,0,0,0,0,0,0,0,-1,1294,1023,0,0
77,1,0,0,0,0,0,0,0,0,0,-1,1301,1023,0,0
84,1,0,0,0,0,0,0,0,0,0,-1,1308,1023,0,0
91,1,0,0,0,0,0,0,0,0,0,-1,1315,1023,0,0
98,1,0,0,0,0,0,0,0,0,0,-1,1322,1023,0,0
105,1,0,0,0,0,0,0,0,0,0,-1,1329,1023,0,0
112,1,0,0,0,0,0,0,0,0,0,-1,1336,1023,0,0
119,1,0,0,0,0,0,0,0,0,0,-1,1343,1023,0,0
126,1,0,0,0,0,0,0,0,0,0,-1,1350,1023,0,0
133,1,0,0,0,0,0,0,0,0,0,-1,1357,1023,0,0
140,1,0,0,0,0,0,0,0,0,0,-1,1364,1023,0,0
147,1,0,0,0,0,0,0,0,0,0,-1,1371,1023,0,0
154,1,0,0,0,0,0,0,0,0,0,-1,1378,1023,0,0
161,1,0,0,0,0,0,0,0,0,0,-1,1385,1023,0,0
168,1,0,0,0,0,0,0,0,0,0,-1,1392,1023,0,0
175,1,0,0,0,0,0,0,0,0,0,-1,1399,1023,0,0
182,1,0,0,0,0,0,0,0,0,0,-1,1406,1023,0,0
189,1,0,0,0,0,0,0,0,0,0,-1,1413,1023,0,0
196,1,0,0,0,0,0,0,0,0,0,-1,1420,1023,0,0
203,1,0,0,0,0,0,0,0,0,0,-1,1427,1023,0,0
210,1,0,0,0,0,0,0,0,0,0,-1,1434,1023,0,0
217,1,0,0,0,0,0,0,0,0,0,-1,1441,1023,0,0
224,1,0,0,0,0,0,0,0,0,0,-1,1448,1023,0,0
231,1,0,0,0,0,0,0,0,0,0,-1,1455,1023,0,0
238,1,0,0,0,0,0,0,0,0,0,-1,1462,1023,0,0
245,1,0,0,0,0,0,0,0,0,0,-1,1469,1023,0,0
252,1,0,0,0,0,0,0,0,0,0,-1,1476,1023,0,0
259,1,0,0,0,0,0,0,0,0,0,-1,1483,1023,0,0
266,1,0,0,0,0,0,0,0,0,0,-1,1490,1023,0,0
273,1,0,0,0,0,0,0,0,0,0,-1,1497,1023,0,0
280,1,0,0,0,0,0,0,0,0,0,-1,1504,1023,0,0
287,1,0,0,0,0,0,0,0,0,0,-1,1511,1023,0,0
294,1,0,0,0,0,0,0,0,0,0,-1,1518,1023,0,0
301,1,0,0,0,0,0,0,0,0,0,-1,1525,1023,0,0
308,1,0,0,0,0,0,0,0,0,0,-1,1532,1023,0,0
315,1,0,0,0,0,0,0,0,0,0,-1,1539,1023,0,0
322,1,0,0,0,0,0,0,0,0,0,-1,1546,1023,0,0
329,1,0,0,0,0,0,0,0,0,0,-1,1553,1023,0,0
336,1,0,0,0,0,0,0,0,0,0,-1,1560,1023,0,0
343,1,0,0,0,0,0,0,0,0,0,-1,1567,1023,0,0
350,1,0,0,0,0,0,0,0,0,0,-1,1574,1023,0,0
357,1,0,0,0,0,0,0,0,0,0,-1,1581,1023,0,0
364,1,0,0,0,0,0,0,0,0,0,-1,1588,1023,0,0
371,1,0,0,0,0,0,0,0,0,0,-1,1595,1023,0,0
378,1,0,0,0,0,0,0,0,0,0,-1,1602,1023,0,0
385,1,0,0,0,0,0,0,0,0,0,-1,1609,1023,0,0
392,1,0,0,0,0,0,0,0,0,0,-1,1616,1023,0,0
399,1,0,0,0,0,0,0,0,0,0,-1,1623,1023,0,0
406,1,0,0,0,0,0,0,0,0,0,-1,1630,1023,0,0
413,1,0,0,0,0,0,0,0,0,0,-1,1637,1023,0,0
420,1,0,0,0,0,0,0,0,0,0,-1,1644,1023,0,0
427,1,0,0,0,0,0,0,0,0,0,-1,1651,1023,0,0
434,1,0,0,0,0,0,0,0,0,0,-1,1658,1023,0,0
441,1,0,0,0,0,0,0,0,0,0,-1,1665,1023,0,0
448,1,0,0,0,0,0,0,0,0,0,-1,1672,1023,0,0
455,1,0,0,0,0,0,0,0,0,0,-1,1679,1023,0,0
462,1,0,0,0,0,0,0,0,0,0,-1,1686,1023,0,0
469,1,0,0,0,0,0,0,0,0,0,-1,1693,1023,0,0
476,1,0,0,0,0,0,0,0,0,0,-1,1700,1023,0,0
483,1,0,0,0,0,0,0,0,0,0,-1,1707,1023,0,0
490,1,0,0,0,0,0,0,0,0,0,-1,1714,1023,0,0
497,1,0,0,0,0,0,0,0,0,0,-1,1721,1023,0,0
504,1,0,0,0,0,0,0,0,0,0,-1,1728,1023,0,0
511,1,0,0,0,0,0,0,0,0,0,-1,1735,1023,0,0
518,1,0,0,0,0,0,0,0,0,0,-1,1742,1023,0,0
525,1,0,0,0,0,0,0,0,0,0,-1,1749,1023,0,0
532,1,0,0,0,0,0,0,0,0,0,-1,1756,1023,0,0
539,1,0,0,0,0,0,0,0,0,0,-1,1763,1023,0,0
546,1,0,0,0,0,0,0,0,0,0,-1,1770,1023,0,0
553,1,0,0,0,0,0,0,0,0,0,-1,1777,1023,0,0
560,1,0,0,0,0,0,0,0,0,0,-1,1784,1023,0,0
567,1,0,0,0,0,0,0,0,0,0,-1,1791,1023,0,0
574,1,0,0,0,0,0,0,0,0,0,-1,1798,1023,0,0
581,1,0,0,0,0,0,0,0,0,0,-1,1805,1023,0,0
588,1,0,0,0,0,0,0,0,0,0,-1,1812,1023,0,0
595,1,0,0,0,0,0,0,0,0,0,-1,1819,1023,0,0
602,1,0,0,0,0,0,0,0,0,0,-1,1826,1023,0,0
609,1,0,0,0,0,0,0,0,0,0,-1,1833,1023,0,0
616,1,0,0,0,0,0,0,0,0,0,-1,1840,1023,0,0
623,1,0,0,0,0,0,0,0,0,0,-1,1847,1023,0,0
630,1,0,0,0,0,0,0,0,0,0,-1,1854,1023,0,0
637,1,0,0,0,0,0,0,0,0,0,-1,1861,1023,0,0
644,1,0,0,0,0,0,0,0,0,0,-1,1868,1023,0,0
651,1,76.3666,2.11707,-0.00097042,-0.00439062,-0.000477745,-0.00090494,-0.0044561,-0.136211,0.00271974,0.0408591,1875,1023,76.3666,-2.11707
658,1,76.4414,2.03809,-0.000929139,-0.00391532,-3.57333e-05,-0.000928712,-0.00391575,-0.0119639,0.00236258,0.0421652,1882,1023,76.4414,-2.03808
665,1,76.489,2.05713,-0.000968465,-0.00335049,0.000272893,-0.000937602,-0.00338135,0.11262,0.00201575,0.0436483,1889,1023,76.4891,-2.05713
672,1,76.5121,2.07819,-0.00100861,-0.00270016,0.000537711,-0.000852155,-0.00285661,0.283151,0.0016934,0.0410053,1896,1023,76.512,-2.07817
679,1,76.4375,2.22064,-0.00102025,-0.00204477,0.000766631,-0.000610486,-0.00245454,0.490867,0.00147558,0.0398383,1903,1023,76.4375,-2.22063
686,1,76.4606,2.00464,-0.00123443,-0.00181116,0.000857339,-0.000618261,-0.00242733,0.623166,0.00145655,0.0380584,1910,1023,76.4606,-2.00462
693,1,76.4869,1.96344,-0.00142967,-0.00173341,0.00092642,-0.000642751,-0.00252032,0.704155,0.0015122,0.0356676,1917,1023,76.4869,-1.96342
700,1,76.4329,2.12219,-0.00149237,-0.00163568,0.000976906,-0.000584496,-0.00254356,0.74879,0.00153834,0.0313536,1924,1023,76.4328,-2.1222
707,1,76.4005,2.10736,-0.00220786,-0.0010367,0.000963744,-0.000494578,-0.00274998,1.0584,0.00169272,0.0283294,1931,1023,76.4006,-2.10738
714,1,76.3694,2.07715,-0.00339654,6.07548e-05,0.00082712,0.000248444,-0.00358423,1.34766,0.00247646,0.0339083,1938,1023,76.3694,-2.07715
721,1,76.4752,2.13116,0,0,0,0,0,0,0,-1,1945,1023,76.4752,-2.13119
728,1,52.4639,5.59277,0,0,0,0,0,0,0,-1,1952,1023,52.4639,-5.59276
735,1,53.3617,6.10699,0,0,0,0,0,0,0,-1,1959,1023,53.3617,-6.10698
742,1,52.4393,5.81525,0,0,0,0,0,0,0,-1,1966,1023,52.4393,-5.81527
749,1,76.9536,7.07153,0,0,0,0,0,0,0,-1,1973,1023,76.9535,-7.07155
756,1,76.7947,7.159,-0.0124039,0.0133575,-0.000453288,0.0133655,-0.0124119,-1.55321,0.014886,0.0475301,1980,1023,76.7947,-7.15898
763,1,76.5579,7.04724,-0.0137293,0.0172669,-0.000742093,0.0172847,-0.013747,-1.54687,0.0179549,0.0187622,1987,1023,76.5578,-7.04724
770,1,76.4734,6.97668,-0.0138901,0.0219195,-0.000887669,0.0219415,-0.0139121,-1.54603,0.0208724,0.0204852,1994,1023,76.4734,-6.97667
777,1,76.1296,6.84326,-0.0122565,0.0261904,-0.000708286,0.0262035,-0.0122696,-1.55238,0.0226928,0.027618,2001,1023,76.1297,-6.84327
784,1,75.8018,6.72308,-0.00855426,0.0291849,-0.000165513,0.0291856,-0.00855498,-1.56641,0.022849,0.0498752,2008,1023,75.8017,-6.72307
791,1,75.4836,6.59589,0,0,0,0,0,0,0,-1,2015,1023,75.4836,-6.5959
798,1,75.0864,6.56366,0,0,0,0,0,0,0,-1,2022,1023,75.0865,-6.56366
805,1,74.8782,4.77771,0,0,0,0,0,0,0,-1,2029,1023,74.8782,-4.77768
812,1,76.012,3.40363,0,0,0,0,0,0,0,-1,2036,1023,76.012,-3.40363
-700,-6,0,0,0,0,0,0,0,0,0,-1,524,1030,0,0
-693,-6,-67.5855,-4.30615,0,0,0,0,0,0,0,-1,531,1030,-67.5855,4.30621
-686,-6,-67.9797,-2.19116,0,0,0,0,0,0,0,-1,538,1030,-67.9797,2.19122
-679,-6,-68.1573,-0.615479,0,0,0,0,0,0,0,-1,545,1030,-68.1573,0.615485
-672,-6,-60.0334,1.4303,0,0,0,0,0,0,0,-1,552,1030,-60.0334,-1.43025
-665,-6,-59.8328,4.33179,0,0,0,0,0,0,0,-1,559,1030,-59.8328,-4.33179
-658,-6,-59.9966,4.93921,0,0,0,0,0,0,0,-1,566,1030,-59.9966,-4.9392
-651,-6,-60.6288,4.91577,0,0,0,0,0,0,0,-1,573,1030,-60.6288,-4.91578
-644,-6,-60.4778,5.77856,0,0,0,0,0,0,0,-1,580,1030,-60.4778,-5.77851
-637,-6,-60.668,6.0011,-0.00650277,0.025957,0.00297382,0.0262272,-0.00677297,1.48019,0.020126,0.0494255,587,1030,-60.6681,-6.00112
-630,-6,-60.8715,5.8988,-0.00596083,0.01934,0.00246347,0.0195776,-0.00619846,1.47463,0.0155357,0.0279315,594,1030,-60.8714,-5.89875
-623,-6,-60.8445,5.94409,-0.00615654,0.013559,0.00155113,0.0136803,-0.00627783,1.49276,0.0117841,0.0212372,601,1030,-60.8445,-5.94409
-616,-6,-60.9139,5.93396,-0.00585463,0.00825845,0.00143618,0.00840311,-0.0059993,1.4704,0.00835375,0.0248833,608,1030,-60.9139,-5.93401
-609,-6,-60.8989,6.08398,-0.00533556,0.0044326,0.000704625,0.00448317,-0.00538613,1.49916,0.00570598,0.0249788,615,1030,-60.8989,-6.08401
-602,-6,-60.7682,6.23663,-0.00472681,0.00130212,6.23378e-05,0.00130276,-0.00472746,1.56046,0.00366393,0.0152085,622,1030,-60.7682,-6.23661
-595,-6,-60.8165,6.35327,0,0,0,0,0,0,0,-1,629,1030,-60.8166,-6.35328
-588,-6,-59.8588,0.300781,0,0,0,0,0,0,0,-1,636,1030,-59.8588,-0.300762
-581,-6,-59.8947,0.273071,-0.00274552,-0.0031394,0.000242719,-0.00262989,-0.00325502,0.444576,0.00199456,0.0241156,643,1030,-59.8947,-0.273019
-574,-6,-59.9256,0.273315,-0.00224299,-0.00377037,0.000554395,-0.00206297,-0.00395038,0.313963,0.0022815,0.0305104,650,1030,-59.9256,-0.27337
-567,-6,-59.9871,0.310303,-0.00198541,-0.00377466,0.000993162,-0.00154335,-0.00421672,0.418773,0.00246349,0.0391277,657,1030,-59.987,-0.310268
-560,-6,-59.8579,0.376465,-0.00171842,-0.00316879,0.0014899,-0.000786587,-0.00410062,0.558908,0.00251293,0.0427585,664,1030,-59.8579,-0.376499
-553,-6,-59.5925,0.341064,-0.00146515,-0.00209874,0.00193592,0.000179726,-0.00374361,0.704296,0.00255775,0.04336,671,1030,-59.5925,-0.341005
-546,-6,-59.6932,0.496582,-0.00119406,-0.000889945,0.00222875,0.00119192,-0.00327593,0.819458,0.00267142,0.043516,678,1030,-59.6932,-0.496641
-539,-6,-59.8392,0.707031,-0.00143814,0.000265917,0.002318,0.00188352,-0.00305574,0.961518,0.00287833,0.0424922,685,1030,-59.8391,-0.707034
-532,-6,-59.9802,0.603882,-0.00154991,0.00156996,0.00230674,0.00279471,-0.00277466,1.0827,0.00321548,0.042222,692,1030,-59.9802,-0.603933
-525,-6,0,0,0,0,0,0,0,0,0,-1,699,1030,0,0
-518,-6,0,0,0,0,0,0,0,0,0,-1,706,1030,0,0
-511,-6,0,0,0,0,0,0,0,0,0,-1,713,1030,0,0
-504,-6,0,0,0,0,0,0,0,0,0,-1,720,1030,0,0
-497,-6,0,0,0,0,0,0,0,0,0,-1,727,1030,0,0
-490,-6,0,0,0,0,0,0,0,0,0,-1,734,1030,0,0
-483,-6,0,0,0,0,0,0,0,0,0,-1,741,1030,0,0
-476,-6,0,0,0,0,0,0,0,0,0,-1,748,1030,0,0
-469,-6,0,0,0,0,0,0,0,0,0,-1,755,1030,0,0
-462,-6,0,0,0,0,0,0,0,0,0,-1,762,1030,0,0
-455,-6,0,0,0,0,0,0,0,0,0,-1,769,1030,0,0
-448,-6,0,0,0,0,0,0,0,0,0,-1,776,1030,0,0
-441,-6,0,0,0,0,0,0,0,0,0,-1,783,1030,0,0
-434,-6,0,0,0,0,0,0,0,0,0,-1,790,1030,0,0
-427,-6,0,0,0,0,0,0,0,0,0,-1,797,1030,0,0
-420,-6,0,0,0,0,0,0,0,0,0,-1,804,1030,0,0
-413,-6,0,0,0,0,0,0,0,0,0,-1,811,1030,0,0
-406,-6,0,0,0,0,0,0,0,0,0,-1,818,1030,0,0
-399,-6,0,0,0,0,0,0,0,0,0,-1,825,1030,0,0
-392,-6,0,0,0,0,0,0,0,0,0,-1,832,1030,0,0
-385,-6,0,0,0,0,0,0,0,0,0,-1,839,1030,0,0
-378,-6,0,0,0,0,0,0,0,0,0,-1,846,1030,0,0
-371,-6,0,0,0,0,0,0,0,0,0,-1,853,1030,0,0
-364,-6,0,0,0,0,0,0,0,0,0,-1,860,1030,0,0
-357,-6,0,0,0,0,0,0,0,0,0,-1,867,1030,0,0
-350,-6,0,0,0,0,0,0,0,0,0,-1,874,1030,0,0
-343,-6,0,0,0,0,0,0,0,0,0,-1,881,1030,0,0
-336,-6,0,0,0,0,0,0,0,0,0,-1,888,1030,0,0
-329,-6,0,0,0,0,0,0,0,0,0,-1,895,1030,0,0
-322,-6,0,0,0,0,0,0,0,0,0,-1,902,1030,0,0
-315,-6,0,0,0,0,0,0,0,0,0,-1,909,1030,0,0
-308,-6,0,0,0,0,0,0,0,0,0,-1,916,1030,0,0
-301,-6,0,0,0,0,0,0,0,0,0,-1,923,1030,0,0
-294,-6,0,0,0,0,0,0,0,0,0,-1,930,1030,0,0
-287,-6,0,0,0,0,0,0,0,0,0,-1,937,1030,0,0
-280,-6,0,0,0,0,0,0,0,0,0,-1,944,1030,0,0
-273,-6,0,0,0,0,0,0,0,0,0,-1,951,1030,0,0
-266,-6,0,0,0,0,0,0,0,0,0,-1,958,1030,0,0
-259,-6,0,0,0,0,0,0,0,0,0,-1,965,1030,0,0
-252,-6,0,0,0,0,0,0,0,0,0,-1,972,1030,0,0
-245,-6,0,0,0,0,0,0,0,0,0,-1,979,1030,0,0
-238,-6,0,0,0,0,0,0,0,0,0,-1,986,1030,0,0
-231,-6,0,0,0,0,0,0,0,0,0,-1,993,1030,0,0
-224,-6,0,0,0,0,0,0,0,0,0,-1,1000,1030,0,0
-217,-6,0,0,0,0,0,0,0,0,0,-1,1007,1030,0,0
-210,-6,0,0,0,0,0,0,0,0,0,-1,1014,1030,0,0
-203,-6,0,0,0,0,0,0,0,0,0,-1,1021,1030,0,0
-196,-6,0,0,0,0,0,0,0,0,0,-1,1028,1030,0,0
-189,-6,0,0,0,0,0,0,0,0,0,-1,1035,1030,0,0
-182,-6,0,0,0,0,0,0,0,0,0,-1,1042,1030,0,0
-175,-6,0,0,0,0,0,0,0,0,0,-1,1049,1030,0,0
-168,-6,0,0,0,0,0,0,0,0,0,-1,1056,1030,0,0
-161,-6,0,0,0,0,0,0,0,0,0,-1,1063,1030,0,0
-154,-6,0,0,0,0,0,0,0,0,0,-1,1070,1030,0,0
-147,-6,0,0,0,0,0,0,0,0,0,-1,1077,1030,0,0
-140,-6,0,0,0,0,0,0,0,0,0,-1,1084,1030,0,0
-133,-6,0,0,0,0,0,0,0,0,0,-1,1091,1030,0,0
-126,-6,0,0,0,0,0,0,0,0,0,-1,1098,1030,0,0
-119,-6,0,0,0,0,0,0,0,0,0,-1,1105,1030,0,0
-112,-6,0,0,0,0,0,0,0,0,0,-1,1112,1030,0,0
-105,-6,0,0,0,0,0,0,0,0,0,-1,1119,1030,0,0
-98,-6,0,0,0,0,0,0,0,0,0,-1,1126,1030,0,0
-91,-6,0,0,0,0,0,0,0,0,0,-1,1133,1030,0,0
-84,-6,0,0,0,0,0,0,0,0,0,-1,1140,1030,0,0
-77,-6,0,0,0,0,0,0,0,0,0,-1,1147,1030,0,0
-70,-6,0,0,0,0,0,0,0,0,0,-1,1154,1030,0,0
-63,-6,0,0,0,0,0,0,0,0,0,-1,1161,1030,0,0
-56,-6,0,0,0,0,0,0,0,0,0,-1,1168,1030,0,0
-49,-6,0,0,0,0,0,0,0,0,0,-1,1175,1030,0,0
-42,-6,0,0,0,0,0,0,0,0,0,-1,1182,1030,0,0
-35,-6,0,0,0,0,0,0,0,0,0,-1,1189,1030,0,0
-28,-6,0,0,0,0,0,0,0,0,0,-1,1196,1030,0,0
-21,-6,0,0,0,0,0,0,0,0,0,-1,1203,1030,0,0
-14,-6,0,0,0,0,0,0,0,0,0,-1,1210,1030,0,0
-7,-6,0,0,0,0,0,0,0,0,0,-1,1217,1030,0,0
0,-6,0,0,0,0,0,0,0,0,0,-1,1224,1030,0,0
7,-6,0,0,0,0,0,0,0,0,0,-1,1231,1030,0,0
14,-6,0,0,0,0,0,0,0,0,0,-1,1238,1030,0,0
21,-6,0,0,0,0,0,0,0,0,0,-1,1245,1030,0,0
28,-6,0,0,0,0,0,0,0,0,0,-1,1252,1030,0,0
35,-6,0,0,0,0,0,0,0,0,0,-1,1259,1030,0,0
42,-6,0,0,0,0,0,0,0,0,0,-1,1266,1030,0,0
49,-6,0,0,0,0,0,0,0,0,0,-1,1273,1030,0,0
56,-6,0,0,0,0,0,0,0,0,0,-1,1280,1030,0,0
63,-6,0,0,0,0,0,0,0,0,0,-1,1287,1030,0,0
70,-6,0,0,0,0,0,0,0,0,0,-1,1294,1030,0,0
77,-6,0,0,0,0,0,0,0,0,0,-1,1301,1030,0,0
84,-6,0,0,0,0,0,0,0,0,0,-1,1308,1030,0,0
91,-6,0,0,0,0,0,0,0,0,0,-1,1315,1030,0,0
98,-6,0,0,0,0,0,0,0,0,0,-1,1322,1030,0,0
105,-6,0,0,0,0,0,0,0,0,0,-1,1329,1030,0,0
112,-6,0,0,0,0,0,0,0,0,0,-1,1336,1030,0,0
119,-6,0,0,0,0,0,0,0,0,0,-1,1343,1030,0,0
126,-6,0,0,0,0,0,0,0,0,0,-1,1350,1030,0,0
133,-6,0,0,0,0,0,0,0,0,0,-1,1357,1030,0,0
140,-6,0,0,0,0,0,0,0,0,0,-1,1364,1030,0,0
147,-6,0,0,0,0,0,0,0,0,0,-1,1371,1030,0,0
154,-6,0,0,0,0,0,0,0,0,0,-1,1378,1030,0,0
161,-6,0,0,0,0,0,0,0,0,0,-1,1385,1030,0,0
168,-6,0,0,0,0,0,0,0,0,0,-1,1392,1030,0,0
175,-6,0,0,0,0,0,0,0,0,0,-1,1399,1030,0,0
182,-6,0,0,0,0,0,0,0,0,0,-1,1406,1030,0,0
189,-6,0,0,0,0,0,0,0,0,0,-1,1413,1030,0,0
196,-6,0,0,0,0,0,0,0,0,0,-1,1420,1030,0,0
203,-6,0,0,0,0,0,0,0,0,0,-1,1427,1030,0,0
210,-6,0,0,0,0,0,0,0,0,0,-1,1434,1030,0,0
217,-6,0,0,0,0,0,0,0,0,0,-1,1441,1030,0,0
224,-6,0,0,0,0,0,0,0,0,0,-1,1448,1030,0,0
231,-6,0,0,0,0,0,0,0,0,0,-1,1455,1030,0,0
238,-6,0,0,0,0,0,0,0,0,0,-1,1462,1030,0,0
245,-6,0,0,0,0,0,0,0,0,0,-1,1469,1030,0,0
252,-6,0,0,0,0,0,0,0,0,0,-1,1476,1030,0,0
259,-6,0,0,0,0,0,0,0,0,0,-1,1483,1030,0,0
266,-6,0,0,0,0,0,0,0,0,0,-1,1490,1030,0,0
273,-6,0,0,0,0,0,0,0,0,0,-1,1497,1030,0,0
280,-6,0,0,0,0,0,0,0,0,0,-1,1504,1030,0,0
287,-6,0,0,0,0,0,0,0,0,0,-1,1511,1030,0,0
294,-6,0,0,0,0,0,0,0,0,0,-1,1518,1030,0,0
301,-6,0,0,0,0,0,0,0,0,0,-1,1525,1030,0,0
308,-6,0,0,0,0,0,0,0,0,0,-1,1532,1030,0,0
315,-6,0,0,0,0,0,0,0,0,0,-1,1539,1030,0,0
322,-6,0,0,0,0,0,0,0,0,0,-1,1546,1030,0,0
329,-6,0,0,0,0,0,0,0,0,0,-1,1553,1030,0,0
336,-6,0,0,0,0,0,0,0,0,0,-1,1560,1030,0,0
343,-6,0,0,0,0,0,0,0,0,0,-1,1567,1030,0,0
350,-6,0,0,0,0,0,0,0,0,0,-1,1574,1030,0,0
357,-6,0,0,0,0,0,0,0,0,0,-1,1581,1030,0,0
364,-6,0,0,0,0,0,0,0,0,0,-1,1588,1030,0,0
371,-6,0,0,0,0,0,0,0,0,0,-1,1595,1030,0,0
378,-6,0,0,0,0,0,0,0,0,0,-1,1602,1030,0,0
385,-6,0,0,0,0,0,0,0,0,0,-1,1609,1030,0,0
392,-6,0,0,0,0,0,0,0,0,0,-1,1616,1030,0,0
399,-6,0,0,0,0,0,0,0,0,0,-1,1623,1030,0,0
406,-6,0,0,0,0,0,0,0,0,0,-1,1630,1030,0,0
413,-6,0,0,0,0,0,0,0,0,0,-1,1637,1030,0,0
420,-6,0,0,0,0,0,0,0,0,0,-1,1644,1030,0,0
427,-6,0,0,0,0,0,0,0,0,0,-1,1651,1030,0,0
434,-6,0,0,0,0,0,0,0,0,0,-1,1658,1030,0,0
441,-6,0,0,0,0,0,0,0,0,0,-1,1665,1030,0,0
448,-6,0,0,0,0,0,0,0,0,0,-1,1672,1030,0,0
455,-6,0,0,0,0,0,0,0,0,0,-1,1679,1030,0,0
462,-6,0,0,0,0,0,0,0,0,0,-1,1686,1030,0,0
469,-6,0,0,0,0,0,0,0,0,0,-1,1693,1030,0,0
476,-6,0,0,0,0,0,0,0,0,0,-1,1700,1030,0,0
483,-6,0,0,0,0,0,0,0,0,0,-1,1707,1030,0,0
490,-6,0,0,0,0,0,0,0,0,0,-1,1714,1030,0,0
497,-6,0,0,0,0,0,0,0,0,0,-1,1721,1030,0,0
504,-6,0,0,0,0,0,0,0,0,0,-1,1728,1030,0,0
511,-6,0,0,0,0,0,0,0,0,0,-1,1735,1030,0,0
518,-6,0,0,0,0,0,0,0,0,0,-1,1742,1030,0,0
525,-6,0,0,0,0,0,0,0,0,0,-1,1749,1030,0,0
532,-6,0,0,0,0,0,0,0,0,0,-1,1756,1030,0,0
539,-6,0,0,0,0,0,0,0,0,0,-1,1763,1030,0,0
546,-6,0,0,0,0,0,0,0,0,0,-1,1770,1030,0,0
553,-6,0,0,0,0,0,0,0,0,0,-1,1777,1030,0,0
560,-6,0,0,0,0,0,0,0,0,0,-1,1784,1030,0,0
567,-6,0,0,0,0,0,0,0,0,0,-1,1791,1030,0,0
574,-6,0,0,0,0,0,0,0,0,0,-1,1798,1030,0,0
581,-6,0,0,0,0,0,0,0,0,0,-1,1805,1030,0,0
588,-6,0,0,0,0,0,0,0,0,0,-1,1812,1030,0,0
595,-6,0,0,0,0,0,0,0,0,0,-1,1819,1030,0,0
602,-6,0,0,0,0,0,0,0,0,0,-1,1826,1030,0,0
609,-6,0,0,0,0,0,0,0,0,0,-1,1833,1030,0,0
616,-6,0,0,0,0,0,0,0,0,0,-1,1840,1030,0,0
623,-6,0,0,0,0,0,0,0,0,0,-1,1847,1030,0,0
630,-6,0,0,0,0,0,0,0,0,0,-1,1854,1030,0,0
637,-6,0,0,0,0,0,0,0,0,0,-1,1861,1030,0,0
644,-6,0,0,0,0,0,0,0,0,0,-1,1868,1030,0,0
651,-6,76.4706,2.11023,-0.00146498,-0.00475415,-0.000376172,-0.00142251,-0.00479662,-0.112433,0.00284471,0.039555,1875,1030,76.4706,-2.11021
658,-6,76.4584,2.03125,-0.0012604,-0.00405093,3.93172e-05,-0.00125984,-0.00405149,0.0140858,0.00239421,0.0414569,1882,1030,76.4584,-2.03128
665,-6,76.5017,1.92114,0,0,0,0,0,0,0,-1,1889,1030,76.5017,-1.92118
672,-6,76.5731,2.16711,-0.00113807,-0.00263478,0.000546674,-0.000959659,-0.00281318,0.315452,0.0016513,0.0430854,1896,1030,76.5731,-2.16717
679,-6,76.4279,2.22278,-0.00107655,-0.00193379,0.000748725,-0.000642437,-0.0023679,0.525433,0.00141397,0.0430207,1903,1030,76.4279,-2.22272
686,-6,76.2966,2.09143,-0.00130715,-0.00169867,0.000823739,-0.000656229,-0.00234959,0.66874,0.00139989,0.0393288,1910,1030,76.2967,-2.09137
693,-6,76.3103,2.04004,-0.00153973,-0.00163818,0.000893473,-0.000694129,-0.00248379,0.75788,0.00147978,0.0368855,1917,1030,76.3103,-2.03999
700,-6,76.353,2.18066,-0.00164348,-0.00157792,0.000981869,-0.000628285,-0.00259312,0.802083,0.00156202,0.0336467,1924,1030,76.353,-2.18071
707,-6,76.3512,2.05713,-0.00238246,-0.00104168,0.00103256,-0.000480975,-0.00294317,1.07332,0.00182306,0.031636,1931,1030,76.3512,-2.05716
714,-6,76.3409,1.94702,-0.003549,-2.74388e-06,0.000969244,0.000244875,-0.00379662,1.32067,0.00261652,0.0418192,1938,1030,76.341,-1.94701
721,-6,76.3981,2.00281,0,0,0,0,0,0,0,-1,1945,1030,76.3981,-2.00284
728,-6,53.1713,6.25494,0,0,0,0,0,0,0,-1,1952,1030,53.1713,-6.25495
735,-6,76.4771,7.22229,0,0,0,0,0,0,0,-1,1959,1030,76.4771,-7.2223
742,-6,76.6749,7.49402,0,0,0,0,0,0,0,-1,1966,1030,76.675,-7.49405
749,-6,76.7837,6.94574,0,0,0,0,0,0,0,-1,1973,1030,76.7838,-6.94573
756,-6,76.7607,6.98224,-0.0123208,0.0130475,-0.000501699,0.0130574,-0.0123307,-1.55103,0.0146598,0.0396578,1980,1030,76.7608,-6.98226
763,-6,76.4998,6.85742,-0.0135377,0.0170219,-0.00112071,0.017063,-0.0135788,-1.53419,0.0177291,0.0242631,1987,1030,76.4996,-6.85743
770,-6,76.3591,6.73157,-0.0137404,0.0219119,-0.00198483,0.022022,-0.0138506,-1.51535,0.0208894,0.0209987,1994,1030,76.3592,-6.73157
777,-6,76.1919,6.67358,-0.0124016,0.0268085,-0.00292346,0.0270253,-0.0126184,-1.49678,0.0233866,0.0211911,2001,1030,76.192,-6.67356
784,-6,75.98,6.65033,-0.00946863,0.0308266,-0.00383668,0.0311886,-0.00983068,-1.47671,0.0247295,0.0462689,2008,1030,75.98,-6.65034
791,-6,76.3191,6.24567,0,0,0,0,0,0,0,-1,2015,1030,76.319,-6.24569
798,-6,75.428,6.29785,0,0,0,0,0,0,0,-1,2022,1030,75.428,-6.29787
805,-6,75.8367,3.92761,0,0,0,0,0,0,0,-1,2029,1030,75.8366,-3.92757
812,-6,76.9097,2.96362,0,0,0,0,0,0,0,-1,2036,1030,76.9098,-2.96358
-700,-13,0,0,0,0,0,0,0,0,0,-1,524,1037,0,0
-693,-13,-66.2211,-4.24951,-0.0300856,0.0547504,-0.00476033,0.0550167,-0.0303518,-1.51492,0.0499686,0.0482618,531,1037,-66.2211,4.24955
-686,-13,-66.7104,-2.70544,-0.0221192,0.05583,-0.00313818,0.0559562,-0.0222453,-1.53062,0.046527,0.0452315,538,1037,-66.7104,2.70539
-679,-13,-66.8156,-1.22229,0,0,0,0,0,0,0,-1,545,1037,-66.8156,1.22229
-672,-13,-61.2061,3.10864,0,0,0,0,0,0,0,-1,552,1037,-61.2061,-3.1086
-665,-13,-60.5761,3.78333,-0.0100343,0.0451342,0.000257148,0.0451354,-0.0100355,1.56614,0.0339338,0.0470474,559,1037,-60.5761,-3.78329
-658,-13,-60.2798,4.43909,-0.00790833,0.0403913,0.00150232,0.040438,-0.00795501,1.53973,0.0299644,0.0478041,566,1037,-60.2797,-4.43905
-651,-13,-60.5126,4.84363,-0.0065141,0.0352112,0.00241075,0.03535,-0.00665292,1.51327,0.0260688,0.0424307,573,1037,-60.5127,-4.84367
-644,-13,-60.3463,5.41382,-0.0058029,0.029697,0.00284718,0.0299239,-0.0060298,1.49127,0.0222334,0.0380337,580,1037,-60.3462,-5.41378
-637,-13,-60.4756,5.62854,-0.00465569,0.024466,0.00274366,0.0247222,-0.00491192,1.47767,0.0183394,0.0294174,587,1037,-60.4756,-5.62856
-630,-13,-60.6597,5.6781,-0.00418103,0.0185102,0.00232062,0.0187451,-0.00441593,1.46992,0.0141995,0.0180421,594,1037,-60.6596,-5.67815
-623,-13,-60.7108,5.83984,-0.00456402,0.0131763,0.00131396,0.0132731,-0.00466081,1.49726,0.0107448,0.0154563,601,1037,-60.7108,-5.83985
-616,-13,-60.7085,6.02136,-0.00446343,0.00788078,0.00113494,0.00798426,-0.00456691,1.47987,0.00733541,0.0154678,608,1037,-60.7085,-6.02134
-609,-13,-60.6727,6.17676,-0.00412402,0.00407245,0.000330562,0.00408576,-0.00413733,1.53055,0.00474763,0.0204541,615,1037,-60.6727,-6.17675
-602,-13,-60.64,6.31104,-0.00361959,0.000883159,-0.000403037,0.00091895,-0.00365538,-1.48223,0.00279407,0.0142048,622,1037,-60.64,-6.31103
-595,-13,-60.6422,6.42041,0,0,0,0,0,0,0,-1,629,1037,-60.6422,-6.42036
-588,-13,-59.8358,0.266968,0,0,0,0,0,0,0,-1,636,1037,-59.8357,-0.266947
-581,-13,-59.8651,0.188354,-0.00214111,-0.00332206,-0.000162579,-0.00211914,-0.00334404,-0.134339,0.00195356,0.0185434,643,1037,-59.865,-0.188355
-574,-13,-59.876,0.23938,-0.00179634,-0.00388328,0.000215623,-0.00177429,-0.00390533,0.101886,0.00225788,0.0297119,650,1037,-59.876,-0.23938
-567,-13,-59.9739,0.32019,-0.00174617,-0.00381543,0.000707813,-0.00152722,-0.00403438,0.299995,0.00235204,0.0387325,657,1037,-59.9739,-0.32019
-560,-13,-59.8972,0.316406,-0.00175411,-0.00312807,0.00127692,-0.000991101,-0.00389108,0.538607,0.00233489,0.0448727,664,1037,-59.8972,-0.316418
-553,-13,-59.6846,0.402344,-0.00180639,-0.00195761,0.00181902,-6.1412e-05,-0.00370259,0.764626,0.00244818,0.0442558,671,1037,-59.6846,-0.402372
-546,-13,-59.8318,0.441406,-0.00183957,-0.000580923,0.00222638,0.00110337,-0.00352386,0.923138,0.00279071,0.0407232,678,1037,-59.8319,-0.441461
-539,-13,-59.9409,0.40271,-0.00225799,0.000809351,0.00241798,0.00213903,-0.00358767,1.06802,0.00334139,0.0414577,685,1037,-59.9409,-0.40268
-532,-13,-60.0493,0.429688,-0.00261893,0.00237349,0.00257794,0.00346571,-0.00371115,1.17004,0.00414437,0.0417549,692,1037,-60.0493,-0.429666
-525,-13,0,0,0,0,0,0,0,0,0,-1,699,1037,0,0
-518,-13,0,0,0,0,0,0,0,0,0,-1,706,1037,0,0
-511,-13,0,0,0,0,0,0,0,0,0,-1,713,1037,0,0
-504,-13,0,0,0,0,0,0,0,0,0,-1,720,1037,0,0
-497,-13,0,0,0,0,0,0,0,0,0,-1,727,1037,0,0
-490,-13,0,0,0,0,0,0,0,0,0,-1,734,1037,0,0
-483,-13,0,0,0,0,0,0,0,0,0,-1,741,1037,0,0
-476,-13,0,0,0,0,0,0,0,0,0,-1,748,1037,0,0
-469,-13,0,0,0,0,0,0,0,0,0,-1,755,1037,0,0
-462,-13,0,0,0,0,0,0,0,0,0,-1,762,1037,0,0
-455,-13,0,0,0,0,0,0,0,0,0,-1,769,1037,0,0
-448,-13,0,0,0,0,0,0,0,0,0,-1,776,1037,0,0
-441,-13,0,0,0,0,0,0,0,0,0,-1,783,1037,0,0
-434,-13,0,0,0,0,0,0,0,0,0,-1,790,1037,0,0
-427,-13,0,0,0,0,0,0,0,0,0,-1,797,1037,0,0
-420,-13,0,0,0,0,0,0,0,0,0,-1,804,1037,0,0
-413,-13,0,0,0,0,0,0,0,0,0,-1,811,1037,0,0
-406,-13,0,0,0,0,0,0,0,0,0,-1,818,1037,0,0
-399,-13,0,0,0,0,0,0,0,0,0,-1,825,1037,0,0
-392,-13,0,0,0,0,0,0,0,0,0,-1,832,1037,0,0
-385,-13,0,0,0,0,0,0,0,0,0,-1,839,1037,0,0
-378,-13,0,0,0,0,0,0,0,0,0,-1,846,1037,0,0
-371,-13,0,0,0,0,0,0,0,0,0,-1,853,1037,0,0
-364,-13,0,0,0,0,0,0,0,0,0,-1,860,1037,0,0
-357,-13,0,0,0,0,0,0,0,0,0,-1,867,1037,0,0
-350,-13,0,0,0,0,0,0,0,0,0,-1,874,1037,0,0
-343,-13,0,0,0,0,0,0,0,0,0,-1,881,1037,0,0
-336,-13,0,0,0,0,0,0,0,0,0,-1,888,1037,0,0
-329,-13,0,0,0,0,0,0,0,0,0,-1,895,1037,0,0
-322,-13,0,0,0,0,0,0,0,0,0,-1,902,1037,0,0
-315,-13,0,0,0,0,0,0,0,0,0,-1,909,1037,0,0
-308,-13,0,0,0,0,0,0,0,0,0,-1,916,1037,0,0
-301,-13,0,0,0,0,0,0,0,0,0,-1,923,1037,0,0
-294,-13,0,0,0,0,0,0,0,0,0,-1,930,1037,0,0
-287,-13,0,0,0,0,0,0,0,0,0,-1,937,1037,0,0
-280,-13,0,0,0,0,0,0,0,0,0,-1,944,1037,0,0
-273,-13,0,0,0,0,0,0,0,0,0,-1,951,1037,0,0
-266,-13,0,0,0,0,0,0,0,0,0,-1,958,1037,0,0
-259,-13,0,0,0,0,0,0,0,0,0,-1,965,1037,0,0
-252,-13,0,0,0,0,0,0,0,0,0,-1,972,1037,0,0
-245,-13,0,0,0,0,0,0,0,0,0,-1,979,1037,0,0
-238,-13,0,0,0,0,0,0,0,0,0,-1,986,1037,0,0
-231,-13,0,0,0,0,0,0,0,0,0,-1,993,1037,0,0
-224,-13,0,0,0,0,0,0,0,0,0,-1,1000,1037,0,0
-217,-13,0,0,0,0,0,0,0,0,0,-1,1007,1037,0,0
-210,-13,0,0,0,0,0,0,0,0,0,-1,1014,1037,0,0
-203,-13,0,0,0,0,0,0,0,0,0,-1,1021,1037,0,0
-196,-13,0,0,0,0,0,0,0,0,0,-1,1028,1037,0,0
-189,-13,0,0,0,0,0,0,0,0,0,-1,1035,1037,0,0
-182,-13,0,0,0,0,0,0,0,0,0,-1,1042,1037,0,0
-175,-13,0,0,0,0,0,0,0,0,0,-1,1049,1037,0,0
-168,-13,0,0,0,0,0,0,0,0,0,-1,1056,1037,0,0
-161,-13,0,0,0,0,0,0,0,0,0,-1,1063,1037,0,0
-154,-13,0,0,0,0,0,0,0,0,0,-1,1070,1037,0,0
-147,-13,0,0,0,0,0,0,0,0,0,-1,1077,1037,0,0
-140,-13,0,0,0,0,0,0,0,0,0,-1,1084,1037,0,0
-133,-13,0,0,0,0,0,0,0,0,0,-1,1091,1037,0,0
-126,-13,0,0,0,0,0,0,0,0,0,-1,1098,1037,0,0
-119,-13,0,0,0,0,0,0,0,0,0,-1,1105,1037,0,0
-112,-13,0,0,0,0,0,0,0,0,0,-1,1112,1037,0,0
-105,-13,0,0,0,0,0,0,0,0,0,-1,1119,1037,0,0
-98,-13,0,0,0,0,0,0,0,0,0,-1,1126,1037,0,0
-91,-13,0,0,0,0,0,0,0,0,0,-1,1133,1037,0,0
-84,-13,0,0,0,0,0,0,0,0,0,-1,1140,1037,0,0
-77,-13,0,0,0,0,0,0,0,0,0,-1,1147,1037,0,0
-70,-13,0,0,0,0,0,0,0,0,0,-1,1154,1037,0,0
-63,-13,0,0,0,0,0,0,0,0,0,-1,1161,1037,0,0
-56,-13,0,0,0,0,0,0,0,0,0,-1,1168,1037,0,0
-49,-13,0,0,0,0,0,0,0,0,0,-1,1175,1037,0,0
-42,-13,0,0,0,0,0,0,0,0,0,-1,1182,1037,0,0
-35,-13,0,0,0,0,0,0,0,0,0,-1,1189,1037,0,0
-28,-13,0,0,0,0,0,0,0,0,0,-1,1196,1037,0,0
-21,-13,0,0,0,0,0,0,0,0,0,-1,1203,1037,0,0
-14,-13,0,0,0,0,0,0,0,0,0,-1,1210,1037,0,0
-7,-13,0,0,0,0,0,0,0,0,0,-1,1217,1037,0,0
0,-13,0,0,0,0,0,0,0,0,0,-1,1224,1037,0,0
7,-13,0,0,0,0,0,0,0,0,0,-1,1231,1037,0,0
14,-13,0,0,0,0,0,0,0,0,0,-1,1238,1037,0,0
21,-13,0,0,0,0,0,0,0,0,0,-1,1245,1037,0,0
28,-13,0,0,0,0,0,0,0,0,0,-1,1252,1037,0,0
35,-13,0,0,0,0,0,0,0,0,0,-1,1259,1037,0,0
42,-13,0,0,0,0,0,0,0,0,0,-1,1266,1037,0,0
49,-13,0,0,0,0,0,0,0,0,0,-1,1273,1037,0,0
56,-13,0,0,0,0,0,0,0,0,0,-1,1280,1037,0,0
63,-13,0,0,0,0,0,0,0,0,0,-1,1287,1037,0,0
70,-13,0,0,0,0,0,0,0,0,0,-1,1294,1037,0,0
77,-13,0,0,0,0,0,0,0,0,0,-1,1301,1037,0,0
84,-13,0,0,0,0,0,0,0,0,0,-1,1308,1037,0,0
91,-13,0,0,0,0,0,0,0,0,0,-1,1315,1037,0,0
98,-13,0,0,0,0,0,0,0,0,0,-1,1322,1037,0,0
105,-13,0,0,0,0,0,0,0,0,0,-1,1329,1037,0,0
112,-13,0,0,0,0,0,0,0,0,0,-1,1336,1037,0,0
119,-13,0,0,0,0,0,0,0,0,0,-1,1343,1037,0,0
126,-13,0,0,0,0,0,0,0,0,0,-1,1350,1037,0,0
133,-13,0,0,0,0,0,0,0,0,0,-1,1357,1037,0,0
140,-13,0,0,0,0,0,0,0,0,0,-1,1364,1037,0,0
147,-13,0,0,0,0,0,0,0,0,0,-1,1371,1037,0,0
154,-13,0,0,0,0,0,0,0,0,0,-1,1378,1037,0,0
161,-13,0,0,0,0,0,0,0,0,0,-1,1385,1037,0,0
168,-13,0,0,0,0,0,0,0,0,0,-1,1392,1037,0,0
175,-13,0,0,0,0,0,0,0,0,0,-1,1399,1037,0,0
182,-13,0,0,0,0,0,0,0,0,0,-1,1406,1037,0,0
189,-13,0,0,0,0,0,0,0,0,0,-1,1413,1037,0,0
196,-13,0,0,0,0,0,0,0,0,0,-1,1420,1037,0,0
203,-13,0,0,0,0,0,0,0,0,0,-1,1427,1037,0,0
210,-13,0,0,0,0,0,0,0,0,0,-1,1434,1037,0,0
217,-13,0,0,0,0,0,0,0,0,0,-1,1441,1037,0,0
224,-13,0,0,0,0,0,0,0,0,0,-1,1448,1037,0,0
231,-13,0,0,0,0,0,0,0,0,0,-1,1455,1037,0,0
238,-13,0,0,0,0,0,0,0,0,0,-1,1462,1037,0,0
245,-13,0,0,0,0,0,0,0,0,0,-1,1469,1037,0,0
252,-13,0,0,0,0,0,0,0,0,0,-1,1476,1037,0,0
259,-13,0,0,0,0,0,0,0,0,0,-1,1483,1037,0,0
266,-13,0,0,0,0,0,0,0,0,0,-1,1490,1037,0,0
273,-13,0,0,0,0,0,0,0,0,0,-1,1497,1037,0,0
280,-13,0,0,0,0,0,0,0,0,0,-1,1504,1037,0,0
287,-13,0,0,0,0,0,0,0,0,0,-1,1511,1037,0,0
294,-13,0,0,0,0,0,0,0,0,0,-1,1518,1037,0,0
301,-13,0,0,0,0,0,0,0,0,0,-1,1525,1037,0,0
308,-13,0,0,0,0,0,0,0,0,0,-1,1532,1037,0,0
315,-13,0,0,0,0,0,0,0,0,0,-1,1539,1037,0,0
322,-13,0,0,0,0,0,0,0,0,0,-1,1546,1037,0,0
329,-13,0,0,0,0,0,0,0,0,0,-1,1553,1037,0,0
336,-13,0,0,0,0,0,0,0,0,0,-1,1560,1037,0,0
343,-13,0,0,0,0,0,0,0,0,0,-1,1567,1037,0,0
350,-13,0,0,0,0,0,0,0,0,0,-1,1574,1037,0,0
357,-13,0,0,0,0,0,0,0,0,0,-1,1581,1037,0,0
364,-13,0,0,0,0,0,0,0,0,0,-1,1588,1037,0,0
371,-13,0,0,0,0,0,0,0,0,0,-1,1595,1037,0,0
378,-13,0,0,0,0,0,0,0,0,0,-1,1602,1037,0,0
385,-13,0,0,0,0,0,0,0,0,0,-1,1609,1037,0,0
392,-13,0,0,0,0,0,0,0,0,0,-1,1616,1037,0,0
399,-13,0,0,0,0,0,0,0,0,0,-1,1623,1037,0,0
406,-13,0,0,0,0,0,0,0,0,0,-1,1630,1037,0,0
413,-13,0,0,0,0,0,0,0,0,0,-1,1637,1037,0,0
420,-13,0,0,0,0,0,0,0,0,0,-1,1644,1037,0,0
427,-13,0,0,0,0,0,0,0,0,0,-1,1651,1037,0,0
434,-13,0,0,0,0,0,0,0,0,0,-1,1658,1037,0,0
441,-13,0,0,0,0,0,0,0,0,0,-1,1665,1037,0,0
448,-13,0,0,0,0,0,0,0,0,0,-1,1672,1037,0,0
455,-13,0,0,0,0,0,0,0,0,0,-1,1679,1037,0,0
462,-13,0,0,0,0,0,0,0,0,0,-1,1686,1037,0,0
469,-13,0,0,0,0,0,0,0,0,0,-1,1693,1037,0,0
476,-13,0,0,0,0,0,0,0,0,0,-1,1700,1037,0,0
483,-13,0,0,0,0,0,0,0,0,0,-1,1707,1037,0,0
490,-13,0,0,0,0,0,0,0,0,0,-1,1714,1037,0,0
497,-13,0,0,0,0,0,0,0,0,0,-1,1721,1037,0,0
504,-13,0,0,0,0,0,0,0,0,0,-1,1728,1037,0,0
511,-13,0,0,0,0,0,0,0,0,0,-1,1735,1037,0,0
518,-13,0,0,0,0,0,0,0,0,0,-1,1742,1037,0,0
525,-13,0,0,0,0,0,0,0,0,0,-1,1749,1037,0,0
532,-13,0,0,0,0,0,0,0,0,0,-1,1756,1037,0,0
539,-13,0,0,0,0,0,0,0,0,0,-1,1763,1037,0,0
546,-13,0,0,0,0,0,0,0,0,0,-1,1770,1037,0,0
553,-13,0,0,0,0,0,0,0,0,0,-1,1777,1037,0,0
560,-13,0,0,0,0,0,0,0,0,0,-1,1784,1037,0,0
567,-13,0,0,0,0,0,0,0,0,0,-1,1791,1037,0,0
574,-13,0,0,0,0,0,0,0,0,0,-1,1798,1037,0,0
581,-13,0,0,0,0,0,0,0,0,0,-1,1805,1037,0,0
588,-13,0,0,0,0,0,0,0,0,0,-1,1812,1037,0,0
595,-13,0,0,0,0,0,0,0,0,0,-1,1819,1037,0,0
602,-13,0,0,0,0,0,0,0,0,0,-1,1826,1037,0,0
609,-13,0,0,0,0,0,0,0,0,0,-1,1833,1037,0,0
616,-13,0,0,0,0,0,0,0,0,0,-1,1840,1037,0,0
623,-13,0,0,0,0,0,0,0,0,0,-1,1847,1037,0,0
630,-13,0,0,0,0,0,0,0,0,0,-1,1854,1037,0,0
637,-13,0,0,0,0,0,0,0,0,0,-1,1861,1037,0,0
644,-13,0,0,0,0,0,0,0,0,0,-1,1868,1037,0,0
651,-13,76.5177,2.05994,-0.00180319,-0.00454111,-0.000242707,-0.00178184,-0.00456246,-0.0877347,0.0026551,0.0403927,1875,1037,76.5177,-2.05997
658,-13,76.2924,1.85059,-0.00146501,-0.00374568,0.000143882,-0.00145597,-0.00375472,0.062756,0.00218592,0.0448017,1882,1037,76.2923,-1.85058
665,-13,76.3104,1.56201,-0.00131664,-0.00301945,0.000368749,-0.00124021,-0.00309588,0.204358,0.00179914,0.0442012,1889,1037,76.3104,-1.56197
672,-13,76.5363,2.05371,-0.00118065,-0.00230757,0.000568111,-0.000943963,-0.00254426,0.394754,0.00148513,0.0393392,1896,1037,76.5362,-2.0537
679,-13,76.3467,2.16675,-0.00105623,-0.00162827,0.000721904,-0.00056575,-0.00211875,0.596784,0.00126675,0.0393839,1903,1037,76.3466,-2.16671
686,-13,76.1967,2.14233,-0.00130751,-0.00143167,0.000764533,-0.000602541,-0.00213664,0.74489,0.00127207,0.0409087,1910,1037,76.1967,-2.14233
693,-13,76.2131,2.0824,-0.00159238,-0.00142846,0.000820637,-0.000685703,-0.00233514,0.83517,0.00138594,0.039011,1917,1037,76.2132,-2.08242
700,-13,76.3729,2.0946,-0.00177043,-0.00142339,0.000947868,-0.000633289,-0.00256053,0.875928,0.00153996,0.0362884,1924,1037,76.3729,-2.0946
707,-13,76.4053,2.01636,-0.00253445,-0.000970053,0.00105821,-0.000436331,-0.00306818,1.10367,0.00191663,0.0332709,1931,1037,76.4053,-2.01637
714,-13,76.3862,2.25854,-0.00367028,-2.36776e-05,0.00106556,0.000264856,-0.00395881,1.30636,0.00273178,0.0356886,1938,1037,76.3862,-2.25858
721,-13,76.1846,2.53333,0,0,0,0,0,0,0,-1,1945,1037,76.1845,-2.53326
728,-13,76.4735,7.35437,0,0,0,0,0,0,0,-1,1952,1037,76.4735,-7.35438
735,-13,76.3849,7.31909,-0.00815109,0.00507236,0.000604033,0.0050999,-0.00817863,1.52524,0.00773474,0.047344,1959,1037,76.3849,-7.31906
742,-13,76.3823,7.22583,-0.00949742,0.00702976,0.000342319,0.00703685,-0.00950451,1.5501,0.00958551,0.0326805,1966,1037,76.3823,-7.2258
749,-13,76.5168,7.05774,-0.0107025,0.0093571,-1.58392e-05,0.00935711,-0.0107025,-1.57001,0.0115901,0.0434343,1973,1037,76.5169,-7.05773
756,-13,76.49,6.9325,-0.0119829,0.012327,-0.000467083,0.012336,-0.0119919,-1.55159,0.0140462,0.0243141,1980,1037,76.4899,-6.9325
763,-13,76.426,6.7749,-0.012869,0.0161354,-0.00131909,0.0161953,-0.0129289,-1.52544,0.0168501,0.0331833,1987,1037,76.4259,-6.77489
770,-13,76.292,6.63599,-0.0126817,0.0208453,-0.00270972,0.0210629,-0.0128993,-1.49067,0.019796,0.0273321,1994,1037,76.292,-6.63604
777,-13,76.0442,6.4353,-0.0109119,0.0257822,-0.00452405,0.0263318,-0.0114615,-1.44992,0.0223759,0.0189341,2001,1037,76.0441,-6.43528
784,-13,76.0344,6.26941,-0.00777161,0.030145,-0.00660613,0.031263,-0.00888961,-1.40315,0.0243522,0.0385217,2008,1037,76.0343,-6.26945
791,-13,76.0288,5.90552,-0.00245612,0.0333232,-0.00949239,0.0356856,-0.00481851,-1.32688,0.0255485,0.0477226,2015,1037,76.0288,-5.90546
798,-13,75.8894,5.42529,0,0,0,0,0,0,0,-1,2022,1037,75.8894,-5.42532
805,-13,75.7749,6.0127,0,0,0,0,0,0,0,-1,2029,1037,75.7749,-6.01269
812,-13,78.4478,5.44641,0,0,0,0,0,0,0,-1,2036,1037,78.4478,-5.44636
-700,-20,-64.5159,-5.89172,0,0,0,0,0,0,0,-1,524,1044,-64.5159,5.89171
-693,-20,-64.8536,-4.11011,-0.0281469,0.0404875,-0.010831,0.0421561,-0.0298155,-1.41794,0.041756,0.0470506,531,1044,-64.8536,4.11016
-686,-20,-65.4739,-3.46655,-0.0189261,0.0454569,-0.00721932,0.0462564,-0.0197256,-1.46049,0.0391078,0.0460264,538,1044,-65.4739,3.4665
-679,-20,-61.9472,3.38025,0,0,0,0,0,0,0,-1,545,1044,-61.9472,-3.3802
-672,-20,-61.6075,3.29932,-0.00943181,0.0440649,-0.0022104,0.0441561,-0.00952298,-1.52957,0.0330719,0.0485473,552,1044,-61.6075,-3.29938
-665,-20,-61.4007,3.30615,-0.00673374,0.041159,-9.72062e-05,0.0411592,-0.00673394,-1.56877,0.0299376,0.0476957,559,1044,-61.4007,-3.30615
-658,-20,-60.8585,4.08643,-0.00489582,0.0374483,0.00166249,0.0375135,-0.00496099,1.53162,0.026816,0.0470294,566,1044,-60.8585,-4.0864
-651,-20,-60.2911,4.75647,-0.00379977,0.0330226,0.00280335,0.0332348,-0.00401197,1.49524,0.0236077,0.0439002,573,1044,-60.2911,-4.75642
-644,-20,-60.1668,5.08374,-0.00341981,0.0281034,0.00321776,0.0284285,-0.00374491,1.4701,0.020316,0.0294547,580,1044,-60.1668,-5.08375
-637,-20,-60.2482,5.23035,-0.00258625,0.0232575,0.0030863,0.023621,-0.00294971,1.45357,0.016817,0.0217378,587,1044,-60.2481,-5.2304
-630,-20,-60.3878,5.50769,-0.00231973,0.0178372,0.00258046,0.0181623,-0.00264483,1.44547,0.0130792,0.0170009,594,1044,-60.3878,-5.50773
-623,-20,-60.4705,5.79541,-0.00293253,0.0128382,0.00131171,0.0129466,-0.00304089,1.48838,0.00980318,0.0151746,601,1044,-60.4705,-5.79541
-616,-20,-60.4824,6.01428,-0.0030602,0.00757812,0.000872726,0.00764924,-0.00313132,1.48948,0.00640376,0.0158846,608,1044,-60.4824,-6.01423
-609,-20,-60.5009,6.21448,-0.00291917,0.00382,-7.97565e-05,0.00382094,-0.00292012,-1.55896,0.00390352,0.0171451,615,1044,-60.5009,-6.21452
-602,-20,-60.455,6.38953,-0.00252263,0.000615469,-0.000915538,0.000863045,-0.00277021,-1.3067,0.00219188,0.0148637,622,1044,-60.455,-6.38951
-595,-20,-60.4745,6.5686,0,0,0,0,0,0,0,-1,629,1044,-60.4745,-6.56864
-588,-20,-59.8142,0.283081,0,0,0,0,0,0,0,-1,636,1044,-59.8142,-0.283022
-581,-20,-59.8279,0.12207,-0.00146745,-0.00339832,-0.000665384,-0.00126037,-0.0036054,-0.301723,0.00211275,0.0249466,643,1044,-59.828,-0.122015
-574,-20,-59.8734,0.22168,-0.00127123,-0.00393406,-0.000252666,-0.00124746,-0.00395782,-0.0937711,0.0023365,0.0351301,650,1044,-59.8734,-0.221686
-567,-20,-59.9533,0.315552,-0.00139253,-0.00386188,0.000264993,-0.00136441,-0.00388999,0.105709,0.002279,0.0447912,657,1044,-59.9533,-0.315591
-560,-20,-59.6199,-0.386353,0,0,0,0,0,0,0,-1,664,1044,-59.6199,0.386371
-553,-20,-59.7102,-0.306763,0,0,0,0,0,0,0,-1,671,1044,-59.7102,0.30676
-546,-20,-59.8018,0.171753,-0.00225452,-0.000732528,0.00192759,0.000578846,-0.0035659,0.973402,0.00259185,0.0406915,678,1044,-59.8018,-0.171748
-539,-20,-60.0054,0.226807,-0.00286916,0.000609866,0.00215151,0.0016371,-0.0038964,1.12535,0.00328233,0.042243,685,1044,-60.0054,-0.226855
-532,-20,-60.1249,0.401978,-0.00352078,0.00211466,0.00238103,0.00298596,-0.00439208,1.22,0.00428542,0.0416193,692,1044,-60.1249,-0.401944
-525,-20,0,0,0,0,0,0,0,0,0,-1,699,1044,0,0
-518,-20,0,0,0,0,0,0,0,0,0,-1,706,1044,0,0
-511,-20,0,0,0,0,0,0,0,0,0,-1,713,1044,0,0
-504,-20,0,0,0,0,0,0,0,0,0,-1,720,1044,0,0
-497,-20,0,0,0,0,0,0,0,0,0,-1,727,1044,0,0
-490,-20,0,0,0,0,0,0,0,0,0,-1,734,1044,0,0
-483,-20,0,0,0,0,0,0,0,0,0,-1,741,1044,0,0
-476,-20,0,0,0,0,0,0,0,0,0,-1,748,1044,0,0
-469,-20,0,0,0,0,0,0,0,0,0,-1,755,1044,0,0
-462,-20,0,0,0,0,0,0,0,0,0,-1,762,1044,0,0
-455,-20,0,0,0,0,0,0,0,0,0,-1,769,1044,0,0
-448,-20,0,0,0,0,0,0,0,0,0,-1,776,1044,0,0
-441,-20,0,0,0,0,0,0,0,0,0,-1,783,1044,0,0
-434,-20,0,0,0,0,0,0,0,0,0,-1,790,1044,0,0
-427,-20,0,0,0,0,0,0,0,0,0,-1,797,1044,0,0
-420,-20,0,0,0,0,0,0,0,0,0,-1,804,1044,0,0
-413,-20,0,0,0,0,0,0,0,0,0,-1,811,1044,0,0
-406,-20,0,0,0,0,0,0,0,0,0,-1,818,1044,0,0
-399,-20,0,0,0,0,0,0,0,0,0,-1,825,1044,0,0
-392,-20,0,0,0,0,0,0,0,0,0,-1,832,1044,0,0
-385,-20,0,0,0,0,0,0,0,0,0,-1,839,1044,0,0
-378,-20,0,0,0,0,0,0,0,0,0,-1,846,1044,0,0
-371,-20,0,0,0,0,0,0,0,0,0,-1,853,1044,0,0
-364,-20,0,0,0,0,0,0,0,0,0,-1,860,1044,0,0
-357,-20,0,0,0,0,0,0,0,0,0,-1,867,1044,0,0
-350,-20,0,0,0,0,0,0,0,0,0,-1,874,1044,0,0
-343,-20,0,0,0,0,0,0,0,0,0,-1,881,1044,0,0
-336,-20,0,0,0,0,0,0,0,0,0,-1,888,1044,0,0
-329,-20,0,0,0,0,0,0,0,0,0,-1,895,1044,0,0
-322,-20,0,0,0,0,0,0,0,0,0,-1,902,1044,0,0
-315,-20,0,0,0,0,0,0,0,0,0,-1,909,1044,0,0
-308,-20,0,0,0,0,0,0,0,0,0,-1,916,1044,0,0
-301,-20,0,0,0,0,0,0,0,0,0,-1,923,1044,0,0
-294,-20,0,0,0,0,0,0,0,0,0,-1,930,1044,0,0
-287,-20,0,0,0,0,0,0,0,0,0,-1,937,1044,0,0
-280,-20,0,0,0,0,0,0,0,0,0,-1,944,1044,0,0
-273,-20,0,0,0,0,0,0,0,0,0,-1,951,1044,0,0
-266,-20,0,0,0,0,0,0,0,0,0,-1,958,1044,0,0
-259,-20,0,0,0,0,0,0,0,0,0,-1,965,1044,0,0
-252,-20,0,0,0,0,0,0,0,0,0,-1,972,1044,0,0
-245,-20,0,0,0,0,0,0,0,0,0,-1,979,1044,0,0
-238,-20,0,0,0,0,0,0,0,0,0,-1,986,1044,0,0
-231,-20,0,0,0,0,0,0,0,0,0,-1,993,1044,0,0
-224,-20,0,0,0,0,0,0,0,0,0,-1,1000,1044,0,0
-217,-20,0,0,0,0,0,0,0,0,0,-1,1007,1044,0,0
-210,-20,0,0,0,0,0,0,0,0,0,-1,1014,1044,0,0
-203,-20,0,0,0,0,0,0,0,0,0,-1,1021,1044,0,0
-196,-20,0,0,0,0,0,0,0,0,0,-1,1028,1044,0,0
-189,-20,0,0,0,0,0,0,0,0,0,-1,1035,1044,0,0
-182,-20,0,0,0,0,0,0,0,0,0,-1,1042,1044,0,0
-175,-20,0,0,0,0,0,0,0,0,0,-1,1049,1044,0,0
-168,-20,0,0,0,0,0,0,0,0,0,-1,1056,1044,0,0
-161,-20,0,0,0,0,0,0,0,0,0,-1,1063,1044,0,0
-154,-20,0,0,0,0,0,0,0,0,0,-1,1070,1044,0,0
-147,-20,0,0,0,0,0,0,0,0,0,-1,1077,1044,0,0
-140,-20,0,0,0,0,0,0,0,0,0,-1,1084,1044,0,0
-133,-20,0,0,0,0,0,0,0,0,0,-1,1091,1044,0,0
-126,-20,0,0,0,0,0,0,0,0,0,-1,1098,1044,0,0
-119,-20,0,0,0,0,0,0,0,0,0,-1,1105,1044,0,0
-112,-20,0,0,0,0,0,0,0,0,0,-1,1112,1044,0,0
-105,-20,0,0,0,0,0,0,0,0,0,-1,1119,1044,0,0
-98,-20,0,0,0,0,0,0,0,0,0,-1,1126,1044,0,0
-91,-20,0,0,0,0,0,0,0,0,0,-1,1133,1044,0,0
-84,-20,0,0,0,0,0,0,0,0,0,-1,1140,1044,0,0
-77,-20,0,0,0,0,0,0,0,0,0,-1,1147,1044,0,0
-70,-20,0,0,0,0,0,0,0,0,0,-1,1154,1044,0,0
-63,-20,0,0,0,0,0,0,0,0,0,-1,1161,1044,0,0
-56,-20,0,0,0,0,0,0,0,0,0,-1,1168,1044,0,0
-49,-20,0,0,0,0,0,0,0,0,0,-1,1175,1044,0,0
-42,-20,0,0,0,0,0,0,0,0,0,-1,1182,1044,0,0
-35,-20,0,0,0,0,0,0,0,0,0,-1,1189,1044,0,0
-28,-20,0,0,0,0,0,0,0,0,0,-1,1196,1044,0,0
-21,-20,0,0,0,0,0,0,0,0,0,-1,1203,1044,0,0
-14,-20,0,0,0,0,0,0,0,0,0,-1,1210,1044,0,0
-7,-20,0,0,0,0,0,0,0,0,0,-1,1217,1044,0,0
0,-20,0,0,0,0,0,0,0,0,0,-1,1224,1044,0,0
7,-20,0,0,0,0,0,0,0,0,0,-1,1231,1044,0,0
14,-20,0,0,0,0,0,0,0,0,0,-1,1238,1044,0,0
21,-20,0,0,0,0,0,0,0,0,0,-1,1245,1044,0,0
28,-20,0,0,0,0,0,0,0,0,0,-1,1252,1044,0,0
35,-20,0,0,0,0,0,0,0,0,0,-1,1259,1044,0,0
42,-20,0,0,0,0,0,0,0,0,0,-1,1266,1044,0,0
49,-20,0,0,0,0,0,0,0,0,0,-1,1273,1044,0,0
56,-20,0,0,0,0,0,0,0,0,0,-1,1280,1044,0,0
63,-20,0,0,0,0,0,0,0,0,0,-1,1287,1044,0,0
70,-20,0,0,0,0,0,0,0,0,0,-1,1294,1044,0,0
77,-20,0,0,0,0,0,0,0,0,0,-1,1301,1044,0,0
84,-20,0,0,0,0,0,0,0,0,0,-1,1308,1044,0,0
91,-20,0,0,0,0,0,0,0,0,0,-1,1315,1044,0,0
98,-20,0,0,0,0,0,0,0,0,0,-1,1322,1044,0,0
105,-20,0,0,0,0,0,0,0,0,0,-1,1329,1044,0,0
112,-20,0,0,0,0,0,0,0,0,0,-1,1336,1044,0,0
119,-20,0,0,0,0,0,0,0,0,0,-1,1343,1044,0,0
126,-20,0,0,0,0,0,0,0,0,0,-1,1350,1044,0,0
133,-20,0,0,0,0,0,0,0,0,0,-1,1357,1044,0,0
140,-20,0,0,0,0,0,0,0,0,0,-1,1364,1044,0,0
147,-20,0,0,0,0,0,0,0,0,0,-1,1371,1044,0,0
154,-20,0,0,0,0,0,0,0,0,0,-1,1378,1044,0,0
161,-20,0,0,0,0,0,0,0,0,0,-1,1385,1044,0,0
168,-20,0,0,0,0,0,0,0,0,0,-1,1392,1044,0,0
175,-20,0,0,0,0,0,0,0,0,0,-1,1399,1044,0,0
182,-20,0,0,0,0,0,0,0,0,0,-1,1406,1044,0,0
189,-20,0,0,0,0,0,0,0,0,0,-1,1413,1044,0,0
196,-20,0,0,0,0,0,0,0,0,0,-1,1420,1044,0,0
203,-20,0,0,0,0,0,0,0,0,0,-1,1427,1044,0,0
210,-20,0,0,0,0,0,0,0,0,0,-1,1434,1044,0,0
217,-20,0,0,0,0,0,0,0,0,0,-1,1441,1044,0,0
224,-20,0,0,0,0,0,0,0,0,0,-1,1448,1044,0,0
231,-20,0,0,0,0,0,0,0,0,0,-1,1455,1044,0,0
238,-20,0,0,0,0,0,0,0,0,0,-1,1462,1044,0,0
245,-20,0,0,0,0,0,0,0,0,0,-1,1469,1044,0,0
252,-20,0,0,0,0,0,0,0,0,0,-1,1476,1044,0,0
259,-20,0,0,0,0,0,0,0,0,0,-1,1483,1044,0,0
266,-20,0,0,0,0,0,0,0,0,0,-1,1490,1044,0,0
273,-20,0,0,0,0,0,0,0,0,0,-1,1497,1044,0,0
280,-20,0,0,0,0,0,0,0,0,0,-1,1504,1044,0,0
287,-20,0,0,0,0,0,0,0,0,0,-1,1511,1044,0,0
294,-20,0,0,0,0,0,0,0,0,0,-1,1518,1044,0,0
301,-20,0,0,0,0,0,0,0,0,0,-1,1525,1044,0,0
308,-20,0,0,0,0,0,0,0,0,0,-1,1532,1044,0,0
315,-20,0,0,0,0,0,0,0,0,0,-1,1539,1044,0,0
322,-20,0,0,0,0,0,0,0,0,0,-1,1546,1044,0,0
329,-20,0,0,0,0,0,0,0,0,0,-1,1553,1044,0,0
336,-20,0,0,0,0,0,0,0,0,0,-1,1560,1044,0,0
343,-20,0,0,0,0,0,0,0,0,0,-1,1567,1044,0,0
350,-20,0,0,0,0,0,0,0,0,0,-1,1574,1044,0,0
357,-20,0,0,0,0,0,0,0,0,0,-1,1581,1044,0,0
364,-20,0,0,0,0,0,0,0,0,0,-1,1588,1044,0,0
371,-20,0,0,0,0,0,0,0,0,0,-1,1595,1044,0,0
378,-20,0,0,0,0,0,0,0,0,0,-1,1602,1044,0,0
385,-20,0,0,0,0,0,0,0,0,0,-1,1609,1044,0,0
392,-20,0,0,0,0,0,0,0,0,0,-1,1616,1044,0,0
399,-20,0,0,0,0,0,0,0,0,0,-1,1623,1044,0,0
406,-20,0,0,0,0,0,0,0,0,0,-1,1630,1044,0,0
413,-20,0,0,0,0,0,0,0,0,0,-1,1637,1044,0,0
420,-20,0,0,0,0,0,0,0,0,0,-1,1644,1044,0,0
427,-20,0,0,0,0,0,0,0,0,0,-1,1651,1044,0,0
434,-20,0,0,0,0,0,0,0,0,0,-1,1658,1044,0,0
441,-20,0,0,0,0,0,0,0,0,0,-1,1665,1044,0,0
448,-20,0,0,0,0,0,0,0,0,0,-1,1672,1044,0,0
455,-20,0,0,0,0,0,0,0,0,0,-1,1679,1044,0,0
462,-20,0,0,0,0,0,0,0,0,0,-1,1686,1044,0,0
469,-20,0,0,0,0,0,0,0,0,0,-1,1693,1044,0,0
476,-20,0,0,0,0,0,0,0,0,0,-1,1700,1044,0,0
483,-20,0,0,0,0,0,0,0,0,0,-1,1707,1044,0,0
490,-20,0,0,0,0,0,0,0,0,0,-1,1714,1044,0,0
497,-20,0,0,0,0,0,0,0,0,0,-1,1721,1044,0,0
504,-20,0,0,0,0,0,0,0,0,0,-1,1728,1044,0,0
511,-20,0,0,0,0,0,0,0,0,0,-1,1735,1044,0,0
518,-20,0,0,0,0,0,0,0,0,0,-1,1742,1044,0,0
525,-20,0,0,0,0,0,0,0,0,0,-1,1749,1044,0,0
532,-20,0,0,0,0,0,0,0,0,0,-1,1756,1044,0,0
539,-20,0,0,0,0,0,0,0,0,0,-1,1763,1044,0,0
546,-20,0,0,0,0,0,0,0,0,0,-1,1770,1044,0,0
553,-20,0,0,0,0,0,0,0,0,0,-1,1777,1044,0,0
560,-20,0,0,0,0,0,0,0,0,0,-1,1784,1044,0,0
567,-20,0,0,0,0,0,0,0,0,0,-1,1791,1044,0,0
574,-20,0,0,0,0,0,0,0,0,0,-1,1798,1044,0,0
581,-20,0,0,0,0,0,0,0,0,0,-1,1805,1044,0,0
588,-20,0,0,0,0,0,0,0,0,0,-1,1812,1044,0,0
595,-20,0,0,0,0,0,0,0,0,0,-1,1819,1044,0,0
602,-20,0,0,0,0,0,0,0,0,0,-1,1826,1044,0,0
609,-20,0,0,0,0,0,0,0,0,0,-1,1833,1044,0,0
616,-20,0,0,0,0,0,0,0,0,0,-1,1840,1044,0,0
623,-20,0,0,0,0,0,0,0,0,0,-1,1847,1044,0,0
630,-20,0,0,0,0,0,0,0,0,0,-1,1854,1044,0,0
637,-20,0,0,0,0,0,0,0,0,0,-1,1861,1044,0,0
644,-20,0,0,0,0,0,0,0,0,0,-1,1868,1044,0,0
651,-20,76.4911,1.97534,-0.00224023,-0.00402672,-0.000182937,-0.00222169,-0.00404526,-0.101003,0.0023393,0.0408511,1875,1044,76.4911,-1.97531
658,-20,76.2897,1.85266,-0.0017162,-0.00320354,0.000165491,-0.00169801,-0.00322174,0.109482,0.00186098,0.0429419,1882,1044,76.2897,-1.85264
665,-20,76.2874,1.77905,-0.00143938,-0.00249025,0.000352248,-0.00133223,-0.0025974,0.295289,0.00149978,0.0396291,1889,1044,76.2873,-1.77901
672,-20,76.3785,2.01062,-0.00119264,-0.00181833,0.000515877,-0.000902163,-0.00210881,0.51283,0.00122175,0.0259753,1896,1044,76.3785,-2.0106
679,-20,76.3595,2.12598,-0.000980077,-0.00118417,0.000624546,-0.000449297,-0.00171495,0.704417,0.00102684,0.0279197,1903,1044,76.3595,-2.12596
686,-20,76.3448,2.172,-0.00123225,-0.00104825,0.000647702,-0.000486045,-0.00179445,0.855945,0.00107168,0.0374584,1910,1044,76.3448,-2.17199
693,-20,76.4292,2.12219,-0.00157786,-0.0011218,0.000707049,-0.000606921,-0.00209274,0.941387,0.00124326,0.0406891,1917,1044,76.4292,-2.12219
700,-20,76.4655,2.09863,-0.0018462,-0.00118879,0.000877375,-0.000580567,-0.00245442,0.964629,0.00148119,0.0361414,1924,1044,76.4654,-2.09868
707,-20,76.3904,2.04553,-0.00261646,-0.000831375,0.00104629,-0.000348653,-0.00309918,1.13853,0.00196026,0.0335379,1931,1044,76.3903,-2.04549
714,-20,76.4023,2.19958,-0.00372104,-1.08298e-05,0.00114557,0.000314372,-0.00404624,1.29419,0.00280816,0.0355834,1938,1044,76.4023,-2.1996
721,-20,76.25,2.20203,0,0,0,0,0,0,0,-1,1945,1044,76.25,-2.20203
728,-20,76.8362,7.526,0,0,0,0,0,0,0,-1,1952,1044,76.8362,-7.52603
735,-20,76.4761,7.40039,-0.00813748,0.00459895,0.000832942,0.00465319,-0.00819172,1.50577,0.00750923,0.0347458,1959,1044,76.4761,-7.40035
742,-20,76.1343,7.07056,-0.00937325,0.00643271,0.000581385,0.00645406,-0.00939461,1.53408,0.00920259,0.0378409,1966,1044,76.1342,-7.07061
749,-20,76.2803,6.99194,-0.0103544,0.00857116,0.000240502,0.00857421,-0.0103575,1.55809,0.0109464,0.0382529,1973,1044,76.2802,-6.99199
756,-20,76.2815,6.88403,-0.0112869,0.0113012,-0.000221846,0.0113033,-0.0112891,-1.56098,0.0130438,0.022774,1980,1044,76.2814,-6.88408
763,-20,76.2126,6.70752,-0.0116427,0.0147822,-0.00117278,0.0148341,-0.0116946,-1.52653,0.0153521,0.033726,1987,1044,76.2125,-6.70752
770,-20,76.0811,6.60461,-0.0107187,0.0190001,-0.00279955,0.0192615,-0.0109801,-1.47769,0.0176769,0.0279759,1994,1044,76.081,-6.60464
777,-20,75.8591,6.29773,-0.00791743,0.0234299,-0.00502372,0.0242153,-0.00870285,-1.41571,0.0196962,0.0188394,2001,1044,75.8592,-6.29776
784,-20,75.8499,6.09692,-0.00375635,0.0273203,-0.00759461,0.029077,-0.00551304,-1.34349,0.0214597,0.0236145,2008,1044,75.8498,-6.09691
791,-20,76.0034,5.62451,0.00260277,0.030115,-0.0110485,0.0340026,-0.00128482,-1.23246,0.0231086,0.0379812,2015,1044,76.0033,-5.62448
798,-20,76.1416,5.13525,0.0128005,0.0316534,-0.0151565,0.0400756,0.00437826,-1.0636,0.0253839,0.0470011,2022,1044,76.1417,-5.13523
805,-20,76.2917,4.67566,0,0,0,0,0,0,0,-1,2029,1044,76.2918,-4.67568
812,-20,77.5579,4.92126,0,0,0,0,0,0,0,-1,2036,1044,77.5578,-4.92128
-700,-27,-63.1896,-5.83923,0,0,0,0,0,0,0,-1,524,1051,-63.1896,5.83923
-693,-27,-63.4788,-4.01062,-0.0254001,0.0265642,-0.0127022,0.029503,-0.0283389,-1.34344,0.0333973,0.0473481,531,1051,-63.4788,4.01068
-686,-27,-63.9528,-3.27588,-0.015163,0.0346347,-0.00750568,0.0357414,-0.0162697,-1.4244,0.030722,0.0467572,538,1051,-63.9527,3.27582
-679,-27,-57.6172,2.61536,0,0,0,0,0,0,0,-1,545,1051,-57.6172,-2.61532
-672,-27,-58.2753,3.10754,-0.00565485,0.0381645,-0.000793304,0.0381788,-0.0056692,-1.5527,0.0275375,0.047094,552,1051,-58.2753,-3.10751
-665,-27,-58.9276,3.66772,-0.00334447,0.0368764,0.00156461,0.0369372,-0.00340525,1.53197,0.0258348,0.0452223,559,1051,-58.9276,-3.66772
-658,-27,-59.557,4.14075,-0.00196726,0.034325,0.00324355,0.0346126,-0.00225487,1.48236,0.0238622,0.0437833,566,1051,-59.557,-4.14077
-651,-27,-60.0039,4.48181,-0.00129074,0.030736,0.00411789,0.0312569,-0.00181173,1.44495,0.0214674,0.0373577,573,1051,-60.0039,-4.48182
-644,-27,-59.9679,4.79761,-0.0012574,0.0264231,0.0041397,0.0270289,-0.00186325,1.42548,0.0186714,0.0191739,580,1051,-59.9679,-4.79765
-637,-27,-60.014,5.02478,-0.000767995,0.0219478,0.00372782,0.0225439,-0.00136411,1.41223,0.015504,0.0159526,587,1051,-60.014,-5.02475
-630,-27,-60.151,5.44714,-0.00068808,0.0169948,0.00299156,0.0174872,-0.00118048,1.40766,0.0120709,0.0201372,594,1051,-60.151,-5.44712
-623,-27,-60.1981,5.78027,-0.00145639,0.0122959,0.00140748,0.0124385,-0.00159896,1.46985,0.00887344,0.0177777,601,1051,-60.1981,-5.78032
-616,-27,-60.1593,6.05493,-0.00176552,0.00706574,0.000661653,0.00711504,-0.00181482,1.49643,0.00544997,0.0145576,608,1051,-60.1593,-6.0549
-609,-27,-60.1276,6.27942,-0.0017967,0.00334906,-0.000414486,0.00338223,-0.00182987,-1.49093,0.00305338,0.0134824,615,1051,-60.1276,-6.27945
-602,-27,-60.1069,6.52344,-0.00150986,0.000148655,-0.00133821,0.000893716,-0.00225492,-1.06278,0.00187363,0.0135871,622,1051,-60.1069,-6.52346
-595,-27,-60.1312,6.78186,-0.00135216,-0.00169551,-0.00164758,0.00013266,-0.00318033,-0.733486,0.0021658,0.0268852,629,1051,-60.1312,-6.7819
-588,-27,-60.3511,7.01416,0,0,0,0,0,0,0,-1,636,1051,-60.3511,-7.01415
-581,-27,-59.8145,0.184692,-0.000770273,-0.0036962,-0.00107378,-0.000418499,-0.00404797,-0.316584,0.00257053,0.0226531,643,1051,-59.8145,-0.184744
-574,-27,-59.8193,0.194214,-0.000648267,-0.00418601,-0.000638771,-0.000536465,-0.00429781,-0.173272,0.00270418,0.0346638,650,1051,-59.8193,-0.194267
-567,-27,-59.5333,-0.358521,0,0,0,0,0,0,0,-1,657,1051,-59.5333,0.358492
-560,-27,-59.6963,-0.128052,-0.00118397,-0.00344216,0.000529568,-0.00106595,-0.00356019,0.219279,0.00210989,0.0498411,664,1051,-59.6963,0.128098
-553,-27,-59.8026,0.0323486,-0.0015747,-0.00232509,0.0011658,-0.000725202,-0.00317459,0.629714,0.00192085,0.0446121,671,1051,-59.8026,-0.032292
-546,-27,-59.6952,-0.0854492,-0.00188806,-0.000968099,0.00166819,0.000302369,-0.00315853,0.919923,0.00221337,0.0423353,678,1051,-59.6952,0.0854045
-539,-27,-59.8116,0.296021,0,0,0,0,0,0,0,-1,685,1051,-59.8116,-0.29608
-532,-27,-60.0417,0.326416,0,0,0,0,0,0,0,-1,692,1051,-60.0417,-0.326407
-525,-27,0,0,0,0,0,0,0,0,0,-1,699,1051,0,0
-518,-27,0,0,0,0,0,0,0,0,0,-1,706,1051,0,0
-511,-27,0,0,0,0,0,0,0,0,0,-1,713,1051,0,0
-504,-27,0,0,0,0,0,0,0,0,0,-1,720,1051,0,0
-497,-27,0,0,0,0,0,0,0,0,0,-1,727,1051,0,0
-490,-27,0,0,0,0,0,0,0,0,0,-1,734,1051,0,0
-483,-27,0,0,0,0,0,0,0,0,0,-1,741,1051,0,0
-476,-27,0,0,0,0,0,0,0,0,0,-1,748,1051,0,0
-469,-27,0,0,0,0,0,0,0,0,0,-1,755,1051,0,0
-462,-27,0,0,0,0,0,0,0,0,0,-1,762,1051,0,0
-455,-27,0,0,0,0,0,0,0,0,0,-1,769,1051,0,0
-448,-27,0,0,0,0,0,0,0,0,0,-1,776,1051,0,0
-441,-27,0,0,0,0,0,0,0,0,0,-1,783,1051,0,0
-434,-27,0,0,0,0,0,0,0,0,0,-1,790,1051,0,0
-427,-27,0,0,0,0,0,0,0,0,0,-1,797,1051,0,0
-420,-27,0,0,0,0,0,0,0,0,0,-1,804,1051,0,0
-413,-27,0,0,0,0,0,0,0,0,0,-1,811,1051,0,0
-406,-27,0,0,0,0,0,0,0,0,0,-1,818,1051,0,0
-399,-27,0,0,0,0,0,0,0,0,0,-1,825,1051,0,0
-392,-27,0,0,0,0,0,0,0,0,0,-1,832,1051,0,0
-385,-27,0,0,0,0,0,0,0,0,0,-1,839,1051,0,0
-378,-27,0,0,0,0,0,0,0,0,0,-1,846,1051,0,0
-371,-27,0,0,0,0,0,0,0,0,0,-1,853,1051,0,0
-364,-27,0,0,0,0,0,0,0,0,0,-1,860,1051,0,0
-357,-27,0,0,0,0,0,0,0,0,0,-1,867,1051,0,0
-350,-27,0,0,0,0,0,0,0,0,0,-1,874,1051,0,0
-343,-27,0,0,0,0,0,0,0,0,0,-1,881,1051,0,0
-336,-27,0,0,0,0,0,0,0,0,0,-1,888,1051,0,0
-329,-27,0,0,0,0,0,0,0,0,0,-1,895,1051,0,0
-322,-27,0,0,0,0,0,0,0,0,0,-1,902,1051,0,0
-315,-27,0,0,0,0,0,0,0,0,0,-1,909,1051,0,0
-308,-27,0,0,0,0,0,0,0,0,0,-1,916,1051,0,0
-301,-27,0,0,0,0,0,0,0,0,0,-1,923,1051,0,0
-294,-27,0,0,0,0,0,0,0,0,0,-1,930,1051,0,0
-287,-27,0,0,0,0,0,0,0,0,0,-1,937,1051,0,0
-280,-27,0,0,0,0,0,0,0,0,0,-1,944,1051,0,0
-273,-27,0,0,0,0,0,0,0,0,0,-1,951,1051,0,0
-266,-27,0,0,0,0,0,0,0,0,0,-1,958,1051,0,0
-259,-27,0,0,0,0,0,0,0,0,0,-1,965,1051,0,0
-252,-27,0,0,0,0,0,0,0,0,0,-1,972,1051,0,0
-245,-27,0,0,0,0,0,0,0,0,0,-1,979,1051,0,0
-238,-27,0,0,0,0,0,0,0,0,0,-1,986,1051,0,0
-231,-27,0,0,0,0,0,0,0,0,0,-1,993,1051,0,0
-224,-27,0,0,0,0,0,0,0,0,0,-1,1000,1051,0,0
-217,-27,0,0,0,0,0,0,0,0,0,-1,1007,1051,0,0
-210,-27,0,0,0,0,0,0,0,0,0,-1,1014,1051,0,0
-203,-27,0,0,0,0,0,0,0,0,0,-1,1021,1051,0,0
-196,-27,0,0,0,0,0,0,0,0,0,-1,1028,1051,0,0
-189,-27,0,0,0,0,0,0,0,0,0,-1,1035,1051,0,0
-182,-27,0,0,0,0,0,0,0,0,0,-1,1042,1051,0,0
-175,-27,0,0,0,0,0,0,0,0,0,-1,1049,1051,0,0
-168,-27,0,0,0,0,0,0,0,0,0,-1,1056,1051,0,0
-161,-27,0,0,0,0,0,0,0,0,0,-1,1063,1051,0,0
-154,-27,0,0,0,0,0,0,0,0,0,-1,1070,1051,0,0
-147,-27,0,0,0,0,0,0,0,0,0,-1,1077,1051,0,0
-140,-27,0,0,0,0,0,0,0,0,0,-1,1084,1051,0,0
-133,-27,0,0,0,0,0,0,0,0,0,-1,1091,1051,0,0
-126,-27,0,0,0,0,0,0,0,0,0,-1,1098,1051,0,0
-119,-27,0,0,0,0,0,0,0,0,0,-1,1105,1051,0,0
-112,-27,0,0,0,0,0,0,0,0,0,-1,1112,1051,0,0
-105,-27,0,0,0,0,0,0,0,0,0,-1,1119,1051,0,0
-98,-27,0,0,0,0,0,0,0,0,0,-1,1126,1051,0,0
-91,-27,0,0,0,0,0,0,0,0,0,-1,1133,1051,0,0
-84,-27,0,0,0,0,0,0,0,0,0,-1,1140,1051,0,0
-77,-27,0,0,0,0,0,0,0,0,0,-1,1147,1051,0,0
-70,-27,0,0,0,0,0,0,0,0,0,-1,1154,1051,0,0
-63,-27,0,0,0,0,0,0,0,0,0,-1,1161,1051,0,0
-56,-27,0,0,0,0,0,0,0,0,0,-1,1168,1051,0,0
-49,-27,0,0,0,0,0,0,0,0,0,-1,1175,1051,0,0
-42,-27,0,0,0,0,0,0,0,0,0,-1,1182,1051,0,0
-35,-27,0,0,0,0,0,0,0,0,0,-1,1189,1051,0,0
-28,-27,0,0,0,0,0,0,0,0,0,-1,1196,1051,0,0
-21,-27,0,0,0,0,0,0,0,0,0,-1,1203,1051,0,0
-14,-27,0,0,0,0,0,0,0,0,0,-1,1210,1051,0,0
-7,-27,0,0,0,0,0,0,0,0,0,-1,1217,1051,0,0
0,-27,0,0,0,0,0,0,0,0,0,-1,1224,1051,0,0
7,-27,0,0,0,0,0,0,0,0,0,-1,1231,1051,0,0
14,-27,0,0,0,0,0,0,0,0,0,-1,1238,1051,0,0
21,-27,0,0,0,0,0,0,0,0,0,-1,1245,1051,0,0
28,-27,0,0,0,0,0,0,0,0,0,-1,1252,1051,0,0
35,-27,0,0,0,0,0,0,0,0,0,-1,1259,1051,0,0
42,-27,0,0,0,0,0,0,0,0,0,-1,1266,1051,0,0
49,-27,0,0,0,0,0,0,0,0,0,-1,1273,1051,0,0
56,-27,0,0,0,0,0,0,0,0,0,-1,1280,1051,0,0
63,-27,0,0,0,0,0,0,0,0,0,-1,1287,1051,0,0
70,-27,0,0,0,0,0,0,0,0,0,-1,1294,1051,0,0
77,-27,0,0,0,0,0,0,0,0,0,-1,1301,1051,0,0
84,-27,0,0,0,0,0,0,0,0,0,-1,1308,1051,0,0
91,-27,0,0,0,0,0,0,0,0,0,-1,1315,1051,0,0
98,-27,0,0,0,0,0,0,0,0,0,-1,1322,1051,0,0
105,-27,0,0,0,0,0,0,0,0,0,-1,1329,1051,0,0
112,-27,0,0,0,0,0,0,0,0,0,-1,1336,1051,0,0
119,-27,0,0,0,0,0,0,0,0,0,-1,1343,1051,0,0
126,-27,0,0,0,0,0,0,0,0,0,-1,1350,1051,0,0
133,-27,0,0,0,0,0,0,0,0,0,-1,1357,1051,0,0
140,-27,0,0,0,0,0,0,0,0,0,-1,1364,1051,0,0
147,-27,0,0,0,0,0,0,0,0,0,-1,1371,1051,0,0
154,-27,0,0,0,0,0,0,0,0,0,-1,1378,1051,0,0
161,-27,0,0,0,0,0,0,0,0,0,-1,1385,1051,0,0
168,-27,0,0,0,0,0,0,0,0,0,-1,1392,1051,0,0
175,-27,0,0,0,0,0,0,0,0,0,-1,1399,1051,0,0
182,-27,0,0,0,0,0,0,0,0,0,-1,1406,1051,0,0
189,-27,0,0,0,0,0,0,0,0,0,-1,1413,1051,0,0
196,-27,0,0,0,0,0,0,0,0,0,-1,1420,1051,0,0
203,-27,0,0,0,0,0,0,0,0,0,-1,1427,1051,0,0
210,-27,0,0,0,0,0,0,0,0,0,-1,1434,1051,0,0
217,-27,0,0,0,0,0,0,0,0,0,-1,1441,1051,0,0
224,-27,0,0,0,0,0,0,0,0,0,-1,1448,1051,0,0
231,-27,0,0,0,0,0,0,0,0,0,-1,1455,1051,0,0
238,-27,0,0,0,0,0,0,0,0,0,-1,1462,1051,0,0
245,-27,0,0,0,0,0,0,0,0,0,-1,1469,1051,0,0
252,-27,0,0,0,0,0,0,0,0,0,-1,1476,1051,0,0
259,-27,0,0,0,0,0,0,0,0,0,-1,1483,1051,0,0
266,-27,0,0,0,0,0,0,0,0,0,-1,1490,1051,0,0
273,-27,0,0,0,0,0,0,0,0,0,-1,1497,1051,0,0
280,-27,0,0,0,0,0,0,0,0,0,-1,1504,1051,0,0
287,-27,0,0,0,0,0,0,0,0,0,-1,1511,1051,0,0
294,-27,0,0,0,0,0,0,0,0,0,-1,1518,1051,0,0
301,-27,0,0,0,0,0,0,0,0,0,-1,1525,1051,0,0
308,-27,0,0,0,0,0,0,0,0,0,-1,1532,1051,0,0
315,-27,0,0,0,0,0,0,0,0,0,-1,1539,1051,0,0
322,-27,0,0,0,0,0,0,0,0,0,-1,1546,1051,0,0
329,-27,0,0,0,0,0,0,0,0,0,-1,1553,1051,0,0
336,-27,0,0,0,0,0,0,0,0,0,-1,1560,1051,0,0
343,-27,0,0,0,0,0,0,0,0,0,-1,1567,1051,0,0
350,-27,0,0,0,0,0,0,0,0,0,-1,1574,1051,0,0
357,-27,0,0,0,0,0,0,0,0,0,-1,1581,1051,0,0
364,-27,0,0,0,0,0,0,0,0,0,-1,1588,1051,0,0
371,-27,0,0,0,0,0,0,0,0,0,-1,1595,1051,0,0
378,-27,0,0,0,0,0,0,0,0,0,-1,1602,1051,0,0
385,-27,0,0,0,0,0,0,0,0,0,-1,1609,1051,0,0
392,-27,0,0,0,0,0,0,0,0,0,-1,1616,1051,0,0
399,-27,0,0,0,0,0,0,0,0,0,-1,1623,1051,0,0
406,-27,0,0,0,0,0,0,0,0,0,-1,1630,1051,0,0
413,-27,0,0,0,0,0,0,0,0,0,-1,1637,1051,0,0
420,-27,0,0,0,0,0,0,0,0,0,-1,1644,1051,0,0
427,-27,0,0,0,0,0,0,0,0,0,-1,1651,1051,0,0
434,-27,0,0,0,0,0,0,0,0,0,-1,1658,1051,0,0
441,-27,0,0,0,0,0,0,0,0,0,-1,1665,1051,0,0
448,-27,0,0,0,0,0,0,0,0,0,-1,1672,1051,0,0
455,-27,0,0,0,0,0,0,0,0,0,-1,1679,1051,0,0
462,-27,0,0,0,0,0,0,0,0,0,-1,1686,1051,0,0
469,-27,0,0,0,0,0,0,0,0,0,-1,1693,1051,0,0
476,-27,0,0,0,0,0,0,0,0,0,-1,1700,1051,0,0
483,-27,0,0,0,0,0,0,0,0,0,-1,1707,1051,0,0
490,-27,0,0,0,0,0,0,0,0,0,-1,1714,1051,0,0
497,-27,0,0,0,0,0,0,0,0,0,-1,1721,1051,0,0
504,-27,0,0,0,0,0,0,0,0,0,-1,1728,1051,0,0
511,-27,0,0,0,0,0,0,0,0,0,-1,1735,1051,0,0
518,-27,0,0,0,0,0,0,0,0,0,-1,1742,1051,0,0
525,-27,0,0,0,0,0,0,0,0,0,-1,1749,1051,0,0
532,-27,0,0,0,0,0,0,0,0,0,-1,1756,1051,0,0
539,-27,0,0,0,0,0,0,0,0,0,-1,1763,1051,0,0
546,-27,0,0,0,0,0,0,0,0,0,-1,1770,1051,0,0
553,-27,0,0,0,0,0,0,0,0,0,-1,1777,1051,0,0
560,-27,0,0,0,0,0,0,0,0,0,-1,1784,1051,0,0
567,-27,0,0,0,0,0,0,0,0,0,-1,1791,1051,0,0
574,-27,0,0,0,0,0,0,0,0,0,-1,1798,1051,0,0
581,-27,0,0,0,0,0,0,0,0,0,-1,1805,1051,0,0
588,-27,0,0,0,0,0,0,0,0,0,-1,1812,1051,0,0
595,-27,0,0,0,0,0,0,0,0,0,-1,1819,1051,0,0
602,-27,0,0,0,0,0,0,0,0,0,-1,1826,1051,0,0
609,-27,0,0,0,0,0,0,0,0,0,-1,1833,1051,0,0
616,-27,0,0,0,0,0,0,0,0,0,-1,1840,1051,0,0
623,-27,0,0,0,0,0,0,0,0,0,-1,1847,1051,0,0
630,-27,0,0,0,0,0,0,0,0,0,-1,1854,1051,0,0
637,-27,0,0,0,0,0,0,0,0,0,-1,1861,1051,0,0
644,-27,0,0,0,0,0,0,0,0,0,-1,1868,1051,0,0
651,-27,76.4874,2.05762,-0.00242913,-0.00341,-9.3373e-05,-0.00242033,-0.00341881,-0.0940683,0.00202996,0.0407629,1875,1051,76.4874,-2.05767
658,-27,76.4718,1.95874,-0.00178963,-0.00265165,0.000168334,-0.00175793,-0.00268336,0.18617,0.00157389,0.0405383,1882,1051,76.4719,-1.95872
665,-27,76.4292,1.98682,-0.0014272,-0.00201337,0.000299759,-0.00130105,-0.00213952,0.398325,0.00124484,0.0381643,1889,1051,76.4292,-1.98679
672,-27,76.3967,2.0824,-0.00110328,-0.00141456,0.000420232,-0.000810791,-0.00170705,0.608048,0.000985975,0.0308734,1896,1051,76.3967,-2.08244
679,-27,76.3635,2.07556,-0.000819904,-0.000856381,0.000488561,-0.000349241,-0.00132704,0.766741,0.000794302,0.0303448,1903,1051,76.3635,-2.07561
686,-27,76.433,2.16589,-0.00105245,-0.00078806,0.000504444,-0.000398776,-0.00144173,0.913545,0.000859633,0.0405424,1910,1051,76.433,-2.16588
693,-27,76.5054,2.22583,-0.00144091,-0.00093552,0.000584345,-0.000551573,-0.00182486,0.989478,0.0010807,0.0431576,1917,1051,76.5053,-2.22584
700,-27,76.4403,2.12158,-0.00177464,-0.001067,0.000800034,-0.000546039,-0.0022956,0.993596,0.00138475,0.0384938,1924,1051,76.4403,-2.12156
707,-27,76.3182,2.04651,-0.00254439,-0.000805441,0.00103132,-0.000325988,-0.00302385,1.13563,0.0019165,0.0276621,1931,1051,76.3182,-2.0465
714,-27,76.3669,2.15723,-0.00360775,-0.000104586,0.001241,0.000290488,-0.00400282,1.26259,0.00277046,0.027501,1938,1051,76.3669,-2.15723
721,-27,76.3307,2.31421,0,0,0,0,0,0,0,-1,1945,1051,76.3307,-2.31418
728,-27,76.7249,7.66479,0,0,0,0,0,0,0,-1,1952,1051,76.7249,-7.66482
735,-27,76.2466,7.53748,-0.00773608,0.00402998,0.00112818,0.00413717,-0.00784328,1.47606,0.00702637,0.0303452,1959,1051,76.2466,-7.5375
742,-27,76.0232,7.32178,-0.00877213,0.00574177,0.00088722,0.0057958,-0.00882617,1.50997,0.00850222,0.021481,1966,1051,76.0232,-7.32176
749,-27,76.0591,7.03271,-0.00942249,0.00773179,0.000531218,0.00774822,-0.00943892,1.53987,0.00993899,0.0176356,1973,1051,76.059,-7.03277
756,-27,76.0295,6.81848,-0.00989169,0.0103242,6.05827e-07,0.0103242,-0.00989169,1.57077,0.0116726,0.0173506,1980,1051,76.0296,-6.81852
763,-27,75.9473,6.54053,-0.00960765,0.0136125,-0.00112621,0.013667,-0.00966214,-1.52245,0.0135351,0.0165837,1987,1051,75.9473,-6.54057
770,-27,75.8306,6.27673,-0.00782254,0.0175908,-0.00309248,0.0179617,-0.00819344,-1.45143,0.0154477,0.0176834,1994,1051,75.8305,-6.27669
777,-27,75.6946,6.1543,-0.00382545,0.0218192,-0.00587395,0.0231006,-0.00510685,-1.35601,0.017355,0.0226131,2001,1051,75.6946,-6.15427
784,-27,75.605,6.06213,0.00158829,0.0255782,-0.00911168,0.0286465,-0.00148001,-1.24598,0.0196096,0.0323547,2008,1051,75.6051,-6.06217
791,-27,75.5015,5.57141,0.0093173,0.0284163,-0.013363,0.0352912,0.00244236,-1.09563,0.0227571,0.0427988,2015,1051,75.5015,-5.57137
798,-27,75.7385,5.04968,0.0207342,0.0301808,-0.0185656,0.0446145,0.00630052,-0.909962,0.0278811,0.044864,2022,1051,75.7384,-5.04964
805,-27,75.9822,4.5144,0,0,0,0,0,0,0,-1,2029,1051,75.9821,-4.51437
812,-27,76.6206,4.48853,0,0,0,0,0,0,0,-1,2036,1051,76.6205,-4.48849
-700,-34,-62.0986,-5.47021,0,0,0,0,0,0,0,-1,524,1058,-62.0986,5.47021
-693,-34,-62.0778,-4.09875,-0.0247788,0.0182336,-0.0101767,0.0205199,-0.0270651,-1.34981,0.0275597,0.0479981,531,1058,-62.0778,4.09881
-686,-34,-62.3839,-3.15247,-0.0133815,0.0269758,-0.0040346,0.0273752,-0.0137809,-1.47213,0.0241897,0.0483892,538,1058,-62.3839,3.15243
-679,-34,-61.6559,-2.49512,0,0,0,0,0,0,0,-1,545,1058,-61.6559,2.49509
-672,-34,-58.1832,2.93164,0,0,0,0,0,0,0,-1,552,1058,-58.1832,-2.93169
-665,-34,-59.0654,3.06104,0,0,0,0,0,0,0,-1,559,1058,-59.0654,-3.06099
-658,-34,-59.3664,3.74695,-0.000343601,0.0318302,0.00619172,0.0329806,-0.00149404,1.38709,0.0225016,0.0429422,566,1058,-59.3664,-3.74691
-651,-34,-59.6352,4.25623,5.21866e-05,0.0289021,0.00640149,0.0302587,-0.00130445,1.36196,0.0206211,0.0318294,573,1058,-59.6352,-4.2562
-644,-34,-59.7432,4.61462,-4.83175e-05,0.025032,0.00573814,0.0262825,-0.0012988,1.35623,0.0179703,0.0156484,580,1058,-59.7432,-4.61464
-637,-34,-59.7681,4.93359,0.000326737,0.0207699,0.00478985,0.0218365,-0.000739882,1.35169,0.0148105,0.0163909,587,1058,-59.7681,-4.93361
-630,-34,-59.8271,5.34448,0.00033004,0.0161703,0.003642,0.0169676,-0.000467202,1.35529,0.0114706,0.0187454,594,1058,-59.8272,-5.34443
-623,-34,-59.8134,5.70166,-0.000404624,0.0117063,0.00167108,0.0119326,-0.000630973,1.43617,0.00817353,0.0158093,601,1058,-59.8134,-5.70168
-616,-34,-59.7589,6.08203,-0.000730139,0.00649554,0.000521606,0.006533,-0.000767598,1.4991,0.00463245,0.021712,608,1058,-59.7588,-6.08205
-609,-34,-59.7363,6.37817,-0.000823384,0.00281531,-0.000674305,0.00293625,-0.000944324,-1.39333,0.00233677,0.0196802,615,1058,-59.7362,-6.37814
-602,-34,-59.7509,6.61694,-0.000577046,-0.000354265,-0.0016316,0.00116974,-0.00210105,-0.819481,0.00191374,0.0151562,622,1058,-59.7509,-6.61697
-595,-34,-59.8994,6.87903,-0.000491295,-0.00223938,-0.00197047,0.000790284,-0.00352096,-0.576651,0.0026503,0.0206427,629,1058,-59.8993,-6.87902
-588,-34,-60.2671,7.09802,0,0,0,0,0,0,0,-1,636,1058,-60.2671,-7.09796
-581,-34,-59.801,0.239624,-4.73489e-05,-0.00410206,-0.00138667,0.000381515,-0.00453092,-0.299946,0.00315548,0.0244112,643,1058,-59.801,-0.239585
-574,-34,-59.7628,0.273682,1.82169e-05,-0.00454782,-0.000945176,0.000206136,-0.00473574,-0.19626,0.00322807,0.0354584,650,1058,-59.7628,-0.273728
-567,-34,-59.7085,0.18396,-0.000231062,-0.00444011,-0.000411737,-0.000191163,-0.00448001,-0.0966018,0.00292503,0.0419315,657,1058,-59.7085,-0.184003
-560,-34,-59.8319,0.235474,-0.000637213,-0.00376218,0.000209829,-0.000623187,-0.0037762,0.0667468,0.0023376,0.0429605,664,1058,-59.8319,-0.235464
-553,-34,-59.8553,0.262085,-0.0010714,-0.00259819,0.000828844,-0.000707966,-0.00296163,0.41324,0.00178584,0.0452138,671,1058,-59.8553,-0.262073
-546,-34,-59.8314,0.163208,-0.0013389,-0.00112109,0.00127925,5.38835e-05,-0.00251387,0.827863,0.00169416,0.0453584,678,1058,-59.8313,-0.163257
-539,-34,-59.8068,0.312012,-0.0015581,0.000465133,0.00137668,0.00116191,-0.00225488,1.10226,0.00200604,0.0425616,685,1058,-59.8068,-0.31205
-532,-34,-59.8704,0.213013,-0.00178346,0.00227289,0.00147948,0.00275516,-0.00226573,1.25568,0.0029034,0.0413678,692,1058,-59.8704,-0.213028
-525,-34,0,0,0,0,0,0,0,0,0,-1,699,1058,0,0
-518,-34,0,0,0,0,0,0,0,0,0,-1,706,1058,0,0
-511,-34,0,0,0,0,0,0,0,0,0,-1,713,1058,0,0
-504,-34,0,0,0,0,0,0,0,0,0,-1,720,1058,0,0
-497,-34,0,0,0,0,0,0,0,0,0,-1,727,1058,0,0
-490,-34,0,0,0,0,0,0,0,0,0,-1,734,1058,0,0
-483,-34,0,0,0,0,0,0,0,0,0,-1,741,1058,0,0
-476,-34,0,0,0,0,0,0,0,0,0,-1,748,1058,0,0
-469,-34,0,0,0,0,0,0,0,0,0,-1,755,1058,0,0
-462,-34,0,0,0,0,0,0,0,0,0,-1,762,1058,0,0
-455,-34,0,0,0,0,0,0,0,0,0,-1,769,1058,0,0
-448,-34,0,0,0,0,0,0,0,0,0,-1,776,1058,0,0
-441,-34,0,0,0,0,0,0,0,0,0,-1,783,1058,0,0
-434,-34,0,0,0,0,0,0,0,0,0,-1,790,1058,0,0
-427,-34,0,0,0,0,0,0,0,0,0,-1,797,1058,0,0
-420,-34,0,0,0,0,0,0,0,0,0,-1,804,1058,0,0
-413,-34,0,0,0,0,0,0,0,0,0,-1,811,1058,0,0
-406,-34,0,0,0,0,0,0,0,0,0,-1,818,1058,0,0
-399,-34,0,0,0,0,0,0,0,0,0,-1,825,1058,0,0
-392,-34,0,0,0,0,0,0,0,0,0,-1,832,1058,0,0
-385,-34,0,0,0,0,0,0,0,0,0,-1,839,1058,0,0
-378,-34,0,0,0,0,0,0,0,0,0,-1,846,1058,0,0
-371,-34,0,0,0,0,0,0,0,0,0,-1,853,1058,0,0
-364,-34,0,0,0,0,0,0,0,0,0,-1,860,1058,0,0
-357,-34,0,0,0,0,0,0,0,0,0,-1,867,1058,0,0
-350,-34,0,0,0,0,0,0,0,0,0,-1,874,1058,0,0
-343,-34,0,0,0,0,0,0,0,0,0,-1,881,1058,0,0
-336,-34,0,0,0,0,0,0,0,0,0,-1,888,1058,0,0
-329,-34,0,0,0,0,0,0,0,0,0,-1,895,1058,0,0
-322,-34,0,0,0,0,0,0,0,0,0,-1,902,1058,0,0
-315,-34,0,0,0,0,0,0,0,0,0,-1,909,1058,0,0
-308,-34,0,0,0,0,0,0,0,0,0,-1,916,1058,0,0
-301,-34,0,0,0,0,0,0,0,0,0,-1,923,1058,0,0
-294,-34,0,0,0,0,0,0,0,0,0,-1,930,1058,0,0
-287,-34,0,0,0,0,0,0,0,0,0,-1,937,1058,0,0
-280,-34,0,0,0,0,0,0,0,0,0,-1,944,1058,0,0
-273,-34,0,0,0,0,0,0,0,0,0,-1,951,1058,0,0
-266,-34,0,0,0,0,0,0,0,0,0,-1,958,1058,0,0
-259,-34,0,0,0,0,0,0,0,0,0,-1,965,1058,0,0
-252,-34,0,0,0,0,0,0,0,0,0,-1,972,1058,0,0
-245,-34,0,0,0,0,0,0,0,0,0,-1,979,1058,0,0
-238,-34,0,0,0,0,0,0,0,0,0,-1,986,1058,0,0
-231,-34,0,0,0,0,0,0,0,0,0,-1,993,1058,0,0
-224,-34,0,0,0,0,0,0,0,0,0,-1,1000,1058,0,0
-217,-34,0,0,0,0,0,0,0,0,0,-1,1007,1058,0,0
-210,-34,0,0,0,0,0,0,0,0,0,-1,1014,1058,0,0
-203,-34,0,0,0,0,0,0,0,0,0,-1,1021,1058,0,0
-196,-34,0,0,0,0,0,0,0,0,0,-1,1028,1058,0,0
-189,-34,0,0,0,0,0,0,0,0,0,-1,1035,1058,0,0
-182,-34,0,0,0,0,0,0,0,0,0,-1,1042,1058,0,0
-175,-34,0,0,0,0,0,0,0,0,0,-1,1049,1058,0,0
-168,-34,0,0,0,0,0,0,0,0,0,-1,1056,1058,0,0
-161,-34,0,0,0,0,0,0,0,0,0,-1,1063,1058,0,0
-154,-34,0,0,0,0,0,0,0,0,0,-1,1070,1058,0,0
-147,-34,0,0,0,0,0,0,0,0,0,-1,1077,1058,0,0
-140,-34,0,0,0,0,0,0,0,0,0,-1,1084,1058,0,0
-133,-34,0,0,0,0,0,0,0,0,0,-1,1091,1058,0,0
-126,-34,0,0,0,0,0,0,0,0,0,-1,1098,1058,0,0
-119,-34,0,0,0,0,0,0,0,0,0,-1,1105,1058,0,0
-112,-34,0,0,0,0,0,0,0,0,0,-1,1112,1058,0,0
-105,-34,0,0,0,0,0,0,0,0,0,-1,1119,1058,0,0
-98,-34,0,0,0,0,0,0,0,0,0,-1,1126,1058,0,0
-91,-34,0,0,0,0,0,0,0,0,0,-1,1133,1058,0,0
-84,-34,0,0,0,0,0,0,0,0,0,-1,1140,1058,0,0
-77,-34,0,0,0,0,0,0,0,0,0,-1,1147,1058,0,0
-70,-34,0,0,0,0,0,0,0,0,0,-1,1154,1058,0,0
-63,-34,0,0,0,0,0,0,0,0,0,-1,1161,1058,0,0
-56,-34,0,0,0,0,0,0,0,0,0,-1,1168,1058,0,0
-49,-34,0,0,0,0,0,0,0,0,0,-1,1175,1058,0,0
-42,-34,0,0,0,0,0,0,0,0,0,-1,1182,1058,0,0
-35,-34,0,0,0,0,0,0,0,0,0,-1,1189,1058,0,0
-28,-34,0,0,0,0,0,0,0,0,0,-1,1196,1058,0,0
-21,-34,0,0,0,0,0,0,0,0,0,-1,1203,1058,0,0
-14,-34,0,0,0,0,0,0,0,0,0,-1,1210,1058,0,0
-7,-34,0,0,0,0,0,0,0,0,0,-1,1217,1058,0,0
0,-34,0,0,0,0,0,0,0,0,0,-1,1224,1058,0,0
7,-34,0,0,0,0,0,0,0,0,0,-1,1231,1058,0,0
14,-34,0,0,0,0,0,0,0,0,0,-1,1238,1058,0,0
21,-34,0,0,0,0,0,0,0,0,0,-1,1245,1058,0,0
28,-34,0,0,0,0,0,0,0,0,0,-1,1252,1058,0,0
35,-34,0,0,0,0,0,0,0,0,0,-1,1259,1058,0,0
42,-34,0,0,0,0,0,0,0,0,0,-1,1266,1058,0,0
49,-34,0,0,0,0,0,0,0,0,0,-1,1273,1058,0,0
56,-34,0,0,0,0,0,0,0,0,0,-1,1280,1058,0,0
63,-34,0,0,0,0,0,0,0,0,0,-1,1287,1058,0,0
70,-34,0,0,0,0,0,0,0,0,0,-1,1294,1058,0,0
77,-34,0,0,0,0,0,0,0,0,0,-1,1301,1058,0,0
84,-34,0,0,0,0,0,0,0,0,0,-1,1308,1058,0,0
91,-34,0,0,0,0,0,0,0,0,0,-1,1315,1058,0,0
98,-34,0,0,0,0,0,0,0,0,0,-1,1322,1058,0,0
105,-34,0,0,0,0,0,0,0,0,0,-1,1329,1058,0,0
112,-34,0,0,0,0,0,0,0,0,0,-1,1336,1058,0,0
119,-34,0,0,0,0,0,0,0,0,0,-1,1343,1058,0,0
126,-34,0,0,0,0,0,0,0,0,0,-1,1350,1058,0,0
133,-34,0,0,0,0,0,0,0,0,0,-1,1357,1058,0,0
140,-34,0,0,0,0,0,0,0,0,0,-1,1364,1058,0,0
147,-34,0,0,0,0,0,0,0,0,0,-1,1371,1058,0,0
154,-34,0,0,0,0,0,0,0,0,0,-1,1378,1058,0,0
161,-34,0,0,0,0,0,0,0,0,0,-1,1385,1058,0,0
168,-34,0,0,0,0,0,0,0,0,0,-1,1392,1058,0,0
175,-34,0,0,0,0,0,0,0,0,0,-1,1399,1058,0,0
182,-34,0,0,0,0,0,0,0,0,0,-1,1406,1058,0,0
189,-34,0,0,0,0,0,0,0,0,0,-1,1413,1058,0,0
196,-34,0,0,0,0,0,0,0,0,0,-1,1420,1058,0,0
203,-34,0,0,0,0,0,0,0,0,0,-1,1427,1058,0,0
210,-34,0,0,0,0,0,0,0,0,0,-1,1434,1058,0,0
217,-34,0,0,0,0,0,0,0,0,0,-1,1441,1058,0,0
224,-34,0,0,0,0,0,0,0,0,0,-1,1448,1058,0,0
231,-34,0,0,0,0,0,0,0,0,0,-1,1455,1058,0,0
238,-34,0,0,0,0,0,0,0,0,0,-1,1462,1058,0,0
245,-34,0,0,0,0,0,0,0,0,0,-1,1469,1058,0,0
252,-34,0,0,0,0,0,0,0,0,0,-1,1476,1058,0,0
259,-34,0,0,0,0,0,0,0,0,0,-1,1483,1058,0,0
266,-34,0,0,0,0,0,0,0,0,0,-1,1490,1058,0,0
273,-34,0,0,0,0,0,0,0,0,0,-1,1497,1058,0,0
280,-34,0,0,0,0,0,0,0,0,0,-1,1504,1058,0,0
287,-34,0,0,0,0,0,0,0,0,0,-1,1511,1058,0,0
294,-34,0,0,0,0,0,0,0,0,0,-1,1518,1058,0,0
301,-34,0,0,0,0,0,0,0,0,0,-1,1525,1058,0,0
308,-34,0,0,0,0,0,0,0,0,0,-1,1532,1058,0,0
315,-34,0,0,0,0,0,0,0,0,0,-1,1539,1058,0,0
322,-34,0,0,0,0,0,0,0,0,0,-1,1546,1058,0,0
329,-34,0,0,0,0,0,0,0,0,0,-1,1553,1058,0,0
336,-34,0,0,0,0,0,0,0,0,0,-1,1560,1058,0,0
343,-34,0,0,0,0,0,0,0,0,0,-1,1567,1058,0,0
350,-34,0,0,0,0,0,0,0,0,0,-1,1574,1058,0,0
357,-34,0,0,0,0,0,0,0,0,0,-1,1581,1058,0,0
364,-34,0,0,0,0,0,0,0,0,0,-1,1588,1058,0,0
371,-34,0,0,0,0,0,0,0,0,0,-1,1595,1058,0,0
378,-34,0,0,0,0,0,0,0,0,0,-1,1602,1058,0,0
385,-34,0,0,0,0,0,0,0,0,0,-1,1609,1058,0,0
392,-34,0,0,0,0,0,0,0,0,0,-1,1616,1058,0,0
399,-34,0,0,0,0,0,0,0,0,0,-1,1623,1058,0,0
406,-34,0,0,0,0,0,0,0,0,0,-1,1630,1058,0,0
413,-34,0,0,0,0,0,0,0,0,0,-1,1637,1058,0,0
420,-34,0,0,0,0,0,0,0,0,0,-1,1644,1058,0,0
427,-34,0,0,0,0,0,0,0,0,0,-1,1651,1058,0,0
434,-34,0,0,0,0,0,0,0,0,0,-1,1658,1058,0,0
441,-34,0,0,0,0,0,0,0,0,0,-1,1665,1058,0,0
448,-34,0,0,0,0,0,0,0,0,0,-1,1672,1058,0,0
455,-34,0,0,0,0,0,0,0,0,0,-1,1679,1058,0,0
462,-34,0,0,0,0,0,0,0,0,0,-1,1686,1058,0,0
469,-34,0,0,0,0,0,0,0,0,0,-1,1693,1058,0,0
476,-34,0,0,0,0,0,0,0,0,0,-1,1700,1058,0,0
483,-34,0,0,0,0,0,0,0,0,0,-1,1707,1058,0,0
490,-34,0,0,0,0,0,0,0,0,0,-1,1714,1058,0,0
497,-34,0,0,0,0,0,0,0,0,0,-1,1721,1058,0,0
504,-34,0,0,0,0,0,0,0,0,0,-1,1728,1058,0,0
511,-34,0,0,0,0,0,0,0,0,0,-1,1735,1058,0,0
518,-34,0,0,0,0,0,0,0,0,0,-1,1742,1058,0,0
525,-34,0,0,0,0,0,0,0,0,0,-1,1749,1058,0,0
532,-34,0,0,0,0,0,0,0,0,0,-1,1756,1058,0,0
539,-34,0,0,0,0,0,0,0,0,0,-1,1763,1058,0,0
546,-34,0,0,0,0,0,0,0,0,0,-1,1770,1058,0,0
553,-34,0,0,0,0,0,0,0,0,0,-1,1777,1058,0,0
560,-34,0,0,0,0,0,0,0,0,0,-1,1784,1058,0,0
567,-34,0,0,0,0,0,0,0,0,0,-1,1791,1058,0,0
574,-34,0,0,0,0,0,0,0,0,0,-1,1798,1058,0,0
581,-34,0,0,0,0,0,0,0,0,0,-1,1805,1058,0,0
588,-34,0,0,0,0,0,0,0,0,0,-1,1812,1058,0,0
595,-34,0,0,0,0,0,0,0,0,0,-1,1819,1058,0,0
602,-34,0,0,0,0,0,0,0,0,0,-1,1826,1058,0,0
609,-34,0,0,0,0,0,0,0,0,0,-1,1833,1058,0,0
616,-34,0,0,0,0,0,0,0,0,0,-1,1840,1058,0,0
623,-34,0,0,0,0,0,0,0,0,0,-1,1847,1058,0,0
630,-34,0,0,0,0,0,0,0,0,0,-1,1854,1058,0,0
637,-34,0,0,0,0,0,0,0,0,0,-1,1861,1058,0,0
644,-34,0,0,0,0,0,0,0,0,0,-1,1868,1058,0,0
651,-34,76.5216,2.21826,-0.00245222,-0.0026191,3.82277e-05,-0.00244388,-0.00262744,0.214802,0.00169376,0.0404066,1875,1058,76.5216,-2.21825
658,-34,76.5463,2.23828,-0.00173394,-0.00199834,0.000252472,-0.00158115,-0.00215113,0.544214,0.00128688,0.0412031,1882,1058,76.5462,-2.23828
665,-34,76.4557,2.26465,-0.00131346,-0.00148097,0.000330971,-0.00105581,-0.00173862,0.661466,0.00101146,0.0425219,1889,1058,76.4557,-2.26468
672,-34,76.3606,2.13147,-0.000938841,-0.000979922,0.00039145,-0.000567393,-0.00135137,0.759186,0.000783547,0.0422726,1896,1058,76.3606,-2.13145
679,-34,76.3657,1.75293,0,0,0,0,0,0,0,-1,1903,1058,76.3657,-1.75298
686,-34,76.3583,2.20398,-0.000833326,-0.000516861,0.000378906,-0.000264475,-0.00108571,0.983193,0.000653733,0.0449254,1910,1058,76.3583,-2.20397
693,-34,76.4092,2.1709,-0.0012356,-0.000728405,0.000465671,-0.000451757,-0.00151225,1.03474,0.000896367,0.0456513,1917,1058,76.4092,-2.17095
700,-34,76.3738,2.02759,-0.00160081,-0.000897471,0.000705802,-0.000460579,-0.0020377,1.01652,0.00123393,0.0424823,1924,1058,76.3737,-2.02756
707,-34,76.3074,2.0918,-0.00235696,-0.000718012,0.000970236,-0.000267487,-0.00280748,1.13608,0.00178917,0.0271299,1931,1058,76.3074,-2.09176
714,-34,76.3119,2.17883,-0.00336539,-0.000121435,0.00125654,0.000308345,-0.00379517,1.24124,0.00263891,0.0248405,1938,1058,76.3119,-2.17889
721,-34,76.2935,2.27429,0,0,0,0,0,0,0,-1,1945,1058,76.2934,-2.27429
728,-34,75.9756,7.87427,0,0,0,0,0,0,0,-1,1952,1058,75.9755,-7.87428
735,-34,75.8319,7.63489,-0.00704718,0.00358744,0.00140038,0.00376875,-0.00722849,1.44204,0.00645315,0.0226125,1959,1058,75.832,-7.63492
742,-34,75.7451,7.32275,-0.00774154,0.00516351,0.00122106,0.00527803,-0.00785605,1.47728,0.0076315,0.0189135,1966,1058,75.7451,-7.32281
749,-34,75.749,7.0603,-0.00794264,0.00701669,0.000847886,0.0070646,-0.00799054,1.51436,0.00869757,0.0168854,1973,1058,75.749,-7.06032
756,-34,75.7332,6.75061,-0.00783976,0.00950078,0.000271269,0.00950502,-0.007844,1.55516,0.0100317,0.0129412,1980,1058,75.733,-6.75067
763,-34,75.6221,6.43604,-0.00676031,0.0126016,-0.000999103,0.012653,-0.00681173,-1.51938,0.0114054,0.0135768,1987,1058,75.6221,-6.43609
770,-34,75.4519,6.15869,-0.00393716,0.0163817,-0.00326893,0.0168947,-0.00445012,-1.41515,0.0130028,0.0190285,1994,1058,75.4519,-6.15865
777,-34,75.2593,5.96069,0.0014405,0.0204332,-0.00659747,0.0225,-0.00062634,-1.2672,0.0152131,0.024028,2001,1058,75.2592,-5.96072
784,-34,75.0818,5.60364,0.00826366,0.0240735,-0.0105196,0.0293272,0.00300998,-1.10761,0.0186294,0.0444761,2008,1058,75.0819,-5.60358
791,-34,74.8286,5.58667,0.0174032,0.0269405,-0.0155971,0.0384816,0.00586207,-0.933755,0.0239408,0.0467778,2015,1058,74.8285,-5.58664
798,-34,75.2361,4.823,0.0299759,0.0288997,-0.0219592,0.0514036,0.00747195,-0.773148,0.0320699,0.0463108,2022,1058,75.2362,-4.82304
805,-34,75.561,4.32507,0,0,0,0,0,0,0,-1,2029,1058,75.561,-4.32507
812,-34,75.5359,4.203,0,0,0,0,0,0,0,-1,2036,1058,75.5358,-4.20295
-700,-41,-60.781,-5.28674,0,0,0,0,0,0,0,-1,524,1065,-60.781,5.28671
-693,-41,-60.8692,-4.1814,-0.0247125,0.0116716,-0.00574114,0.012556,-0.0255969,-1.41795,0.0224524,0.0453774,531,1065,-60.8692,4.18141
-686,-41,-60.9194,-3.12634,-0.012869,0.0210726,0.00124471,0.0211181,-0.0129145,1.53419,0.0198382,0.0453724,538,1065,-60.9194,3.1263
-679,-41,-60.6223,-2.18787,-0.00634334,0.0266949,0.00550971,0.0275895,-0.00723796,1.40983,0.0212212,0.0447882,545,1065,-60.6223,2.18791
-672,-41,-60.035,-0.42981,-0.00274161,0.0296269,0.00815268,0.0315644,-0.00467906,1.33748,0.0227635,0.0430795,552,1065,-60.035,0.429796
-665,-41,-59.9012,0.813965,-0.000816199,0.0304522,0.00953897,0.0331324,-0.00349648,1.29688,0.0233412,0.0450704,559,1065,-59.9012,-0.813943
-658,-41,-58.8416,2.94885,9.40893e-05,0.0295188,0.00984265,0.0325076,-0.00289471,1.27599,0.0226983,0.0420983,566,1065,-58.8416,-2.9488
-651,-41,-59.0513,4.03711,0.000392778,0.0271179,0.00922366,0.0299921,-0.00248147,1.26872,0.0208711,0.0325777,573,1065,-59.0513,-4.03714
-644,-41,-59.3205,4.49695,0.000314922,0.0236116,0.00779987,0.0259819,-0.00205536,1.27578,0.0180454,0.0169968,580,1065,-59.3205,-4.49693
-637,-41,-59.3789,4.84595,0.000654046,0.0195649,0.00622111,0.0214279,-0.00120898,1.27983,0.0147048,0.018309,587,1065,-59.3789,-4.84598
-630,-41,-59.4161,5.23364,0.000686812,0.0152418,0.00453639,0.0165399,-0.000611287,1.29209,0.0112359,0.0171772,594,1065,-59.4161,-5.2336
-623,-41,-59.4186,5.65649,0.000127359,0.0110093,0.00216158,0.0114229,-0.000286292,1.38172,0.00771248,0.0146175,601,1065,-59.4186,-5.65655
-616,-41,-59.4088,6.08582,-0.000147046,0.00587646,0.000565059,0.00592901,-0.000199595,1.47807,0.00402086,0.0184122,608,1065,-59.4087,-6.08581
-609,-41,-59.3734,6.45105,-0.000242583,0.00227209,-0.000761506,0.00248472,-0.000455208,-1.29851,0.00182721,0.0230209,615,1065,-59.3734,-6.45107
-602,-41,-59.4418,6.72375,1.42646e-05,-0.000813828,-0.00170688,0.0013566,-0.00215616,-0.666409,0.00204553,0.0138062,622,1065,-59.4418,-6.72377
-595,-41,-59.569,6.96191,8.78231e-05,-0.00265351,-0.00205747,0.00118939,-0.00375507,-0.491562,0.00298004,0.0254363,629,1065,-59.569,-6.96188
-588,-41,-59.9999,7.03296,0,0,0,0,0,0,0,-1,636,1065,-59.9999,-7.033
-581,-41,-59.772,0.212891,0.000500426,-0.00439268,-0.00151964,0.000933968,-0.00482622,-0.277908,0.00356976,0.0353751,643,1065,-59.772,-0.212916
-574,-41,-59.7642,0.476929,0.000541749,-0.00478494,-0.00107637,0.000751029,-0.00499422,-0.192036,0.00360599,0.0378633,650,1065,-59.7642,-0.476987
-567,-41,-59.7443,0.356445,0.00029715,-0.0046466,-0.00054893,0.000357367,-0.00470681,-0.109262,0.00326353,0.040721,657,1065,-59.7443,-0.356451
-560,-41,-59.773,0.191162,-0.000110062,-0.00393943,5.46344e-05,-0.000109283,-0.00394021,0.0142633,0.00259115,0.0408763,664,1065,-59.773,-0.191191
-553,-41,-59.8537,0.300293,-0.000500571,-0.00272391,0.000640396,-0.000329308,-0.00289518,0.261317,0.00183025,0.0438665,671,1065,-59.8537,-0.300237
-546,-41,-59.8382,0.256714,-0.000638153,-0.00114931,0.00101983,0.000157641,-0.0019451,0.662623,0.00135235,0.0429065,678,1065,-59.8382,-0.25668
-539,-41,-59.7974,0.351563,-0.000541435,0.00054483,0.000943862,0.00109067,-0.00108728,1.04648,0.00125744,0.0391411,685,1065,-59.7974,-0.351583
-532,-41,-59.7438,0.313354,-0.000431499,0.00246891,0.000868972,0.00270933,-0.000671917,1.30088,0.00206692,0.0380429,692,1065,-59.7438,-0.3134
-525,-41,0,0,0,0,0,0,0,0,0,-1,699,1065,0,0
-518,-41,0,0,0,0,0,0,0,0,0,-1,706,1065,0,0
-511,-41,0,0,0,0,0,0,0,0,0,-1,713,1065,0,0
-504,-41,0,0,0,0,0,0,0,0,0,-1,720,1065,0,0
-497,-41,0,0,0,0,0,0,0,0,0,-1,727,1065,0,0
-490,-41,0,0,0,0,0,0,0,0,0,-1,734,1065,0,0
-483,-41,0,0,0,0,0,0,0,0,0,-1,741,1065,0,0
-476,-41,0,0,0,0,0,0,0,0,0,-1,748,1065,0,0
-469,-41,0,0,0,0,0,0,0,0,0,-1,755,1065,0,0
-462,-41,0,0,0,0,0,0,0,0,0,-1,762,1065,0,0
-455,-41,0,0,0,0,0,0,0,0,0,-1,769,1065,0,0
-448,-41,0,0,0,0,0,0,0,0,0,-1,776,1065,0,0
-441,-41,0,0,0,0,0,0,0,0,0,-1,783,1065,0,0
-434,-41,0,0,0,0,0,0,0,0,0,-1,790,1065,0,0
-427,-41,0,0,0,0,0,0,0,0,0,-1,797,1065,0,0
-420,-41,0,0,0,0,0,0,0,0,0,-1,804,1065,0,0
-413,-41,0,0,0,0,0,0,0,0,0,-1,811,1065,0,0
-406,-41,0,0,0,0,0,0,0,0,0,-1,818,1065,0,0
-399,-41,0,0,0,0,0,0,0,0,0,-1,825,1065,0,0
-392,-41,0,0,0,0,0,0,0,0,0,-1,832,1065,0,0
-385,-41,0,0,0,0,0,0,0,0,0,-1,839,1065,0,0
-378,-41,0,0,0,0,0,0,0,0,0,-1,846,1065,0,0
-371,-41,0,0,0,0,0,0,0,0,0,-1,853,1065,0,0
-364,-41,0,0,0,0,0,0,0,0,0,-1,860,1065,0,0
-357,-41,0,0,0,0,0,0,0,0,0,-1,867,1065,0,0
-350,-41,0,0,0,0,0,0,0,0,0,-1,874,1065,0,0
-343,-41,0,0,0,0,0,0,0,0,0,-1,881,1065,0,0
-336,-41,0,0,0,0,0,0,0,0,0,-1,888,1065,0,0
-329,-41,0,0,0,0,0,0,0,0,0,-1,895,1065,0,0
-322,-41,0,0,0,0,0,0,0,0,0,-1,902,1065,0,0
-315,-41,0,0,0,0,0,0,0,0,0,-1,909,1065,0,0
-308,-41,0,0,0,0,0,0,0,0,0,-1,916,1065,0,0
-301,-41,0,0,0,0,0,0,0,0,0,-1,923,1065,0,0
-294,-41,0,0,0,0,0,0,0,0,0,-1,930,1065,0,0
-287,-41,0,0,0,0,0,0,0,0,0,-1,937,1065,0,0
-280,-41,0,0,0,0,0,0,0,0,0,-1,944,1065,0,0
-273,-41,0,0,0,0,0,0,0,0,0,-1,951,1065,0,0
-266,-41,0,0,0,0,0,0,0,0,0,-1,958,1065,0,0
-259,-41,0,0,0,0,0,0,0,0,0,-1,965,1065,0,0
-252,-41,0,0,0,0,0,0,0,0,0,-1,972,1065,0,0
-245,-41,0,0,0,0,0,0,0,0,0,-1,979,1065,0,0
-238,-41,0,0,0,0,0,0,0,0,0,-1,986,1065,0,0
-231,-41,0,0,0,0,0,0,0,0,0,-1,993,1065,0,0
-224,-41,0,0,0,0,0,0,0,0,0,-1,1000,1065,0,0
-217,-41,0,0,0,0,0,0,0,0,0,-1,1007,1065,0,0
-210,-41,0,0,0,0,0,0,0,0,0,-1,1014,1065,0,0
-203,-41,0,0,0,0,0,0,0,0,0,-1,1021,1065,0,0
-196,-41,0,0,0,0,0,0,0,0,0,-1,1028,1065,0,0
-189,-41,0,0,0,0,0,0,0,0,0,-1,1035,1065,0,0
-182,-41,0,0,0,0,0,0,0,0,0,-1,1042,1065,0,0
-175,-41,0,0,0,0,0,0,0,0,0,-1,1049,1065,0,0
-168,-41,0,0,0,0,0,0,0,0,0,-1,1056,1065,0,0
-161,-41,0,0,0,0,0,0,0,0,0,-1,1063,1065,0,0
-154,-41,0,0,0,0,0,0,0,0,0,-1,1070,1065,0,0
-147,-41,0,0,0,0,0,0,0,0,0,-1,1077,1065,0,0
-140,-41,0,0,0,0,0,0,0,0,0,-1,1084,1065,0,0
-133,-41,0,0,0,0,0,0,0,0,0,-1,1091,1065,0,0
-126,-41,0,0,0,0,0,0,0,0,0,-1,1098,1065,0,0
-119,-41,0,0,0,0,0,0,0,0,0,-1,1105,1065,0,0
-112,-41,0,0,0,0,0,0,0,0,0,-1,1112,1065,0,0
-105,-41,0,0,0,0,0,0,0,0,0,-1,1119,1065,0,0
-98,-41,0,0,0,0,0,0,0,0,0,-1,1126,1065,0,0
-91,-41,0,0,0,0,0,0,0,0,0,-1,1133,1065,0,0
-84,-41,0,0,0,0,0,0,0,0,0,-1,1140,1065,0,0
-77,-41,0,0,0,0,0,0,0,0,0,-1,1147,1065,0,0
-70,-41,0,0,0,0,0,0,0,0,0,-1,1154,1065,0,0
-63,-41,0,0,0,0,0,0,0,0,0,-1,1161,1065,0,0
-56,-41,0,0,0,0,0,0,0,0,0,-1,1168,1065,0,0
-49,-41,0,0,0,0,0,0,0,0,0,-1,1175,1065,0,0
-42,-41,0,0,0,0,0,0,0,0,0,-1,1182,1065,0,0
-35,-41,0,0,0,0,0,0,0,0,0,-1,1189,1065,0,0
-28,-41,0,0,0,0,0,0,0,0,0,-1,1196,1065,0,0
-21,-41,0,0,0,0,0,0,0,0,0,-1,1203,1065,0,0
-14,-41,0,0,0,0,0,0,0,0,0,-1,1210,1065,0,0
-7,-41,0,0,0,0,0,0,0,0,0,-1,1217,1065,0,0
0,-41,0,0,0,0,0,0,0,0,0,-1,1224,1065,0,0
7,-41,0,0,0,0,0,0,0,0,0,-1,1231,1065,0,0
14,-41,0,0,0,0,0,0,0,0,0,-1,1238,1065,0,0
21,-41,0,0,0,0,0,0,0,0,0,-1,1245,1065,0,0
28,-41,0,0,0,0,0,0,0,0,0,-1,1252,1065,0,0
35,-41,0,0,0,0,0,0,0,0,0,-1,1259,1065,0,0
42,-41,0,0,0,0,0,0,0,0,0,-1,1266,1065,0,0
49,-41,0,0,0,0,0,0,0,0,0,-1,1273,1065,0,0
56,-41,0,0,0,0,0,0,0,0,0,-1,1280,1065,0,0
63,-41,0,0,0,0,0,0,0,0,0,-1,1287,1065,0,0
70,-41,0,0,0,0,0,0,0,0,0,-1,1294,1065,0,0
77,-41,0,0,0,0,0,0,0,0,0,-1,1301,1065,0,0
84,-41,0,0,0,0,0,0,0,0,0,-1,1308,1065,0,0
91,-41,0,0,0,0,0,0,0,0,0,-1,1315,1065,0,0
98,-41,0,0,0,0,0,0,0,0,0,-1,1322,1065,0,0
105,-41,0,0,0,0,0,0,0,0,0,-1,1329,1065,0,0
112,-41,0,0,0,0,0,0,0,0,0,-1,1336,1065,0,0
119,-41,0,0,0,0,0,0,0,0,0,-1,1343,1065,0,0
126,-41,0,0,0,0,0,0,0,0,0,-1,1350,1065,0,0
133,-41,0,0,0,0,0,0,0,0,0,-1,1357,1065,0,0
140,-41,0,0,0,0,0,0,0,0,0,-1,1364,1065,0,0
147,-41,0,0,0,0,0,0,0,0,0,-1,1371,1065,0,0
154,-41,0,0,0,0,0,0,0,0,0,-1,1378,1065,0,0
161,-41,0,0,0,0,0,0,0,0,0,-1,1385,1065,0,0
168,-41,0,0,0,0,0,0,0,0,0,-1,1392,1065,0,0
175,-41,0,0,0,0,0,0,0,0,0,-1,1399,1065,0,0
182,-41,0,0,0,0,0,0,0,0,0,-1,1406,1065,0,0
189,-41,0,0,0,0,0,0,0,0,0,-1,1413,1065,0,0
196,-41,0,0,0,0,0,0,0,0,0,-1,1420,1065,0,0
203,-41,0,0,0,0,0,0,0,0,0,-1,1427,1065,0,0
210,-41,0,0,0,0,0,0,0,0,0,-1,1434,1065,0,0
217,-41,0,0,0,0,0,0,0,0,0,-1,1441,1065,0,0
224,-41,0,0,0,0,0,0,0,0,0,-1,1448,1065,0,0
231,-41,0,0,0,0,0,0,0,0,0,-1,1455,1065,0,0
238,-41,0,0,0,0,0,0,0,0,0,-1,1462,1065,0,0
245,-41,0,0,0,0,0,0,0,0,0,-1,1469,1065,0,0
252,-41,0,0,0,0,0,0,0,0,0,-1,1476,1065,0,0
259,-41,0,0,0,0,0,0,0,0,0,-1,1483,1065,0,0
266,-41,0,0,0,0,0,0,0,0,0,-1,1490,1065,0,0
273,-41,0,0,0,0,0,0,0,0,0,-1,1497,1065,0,0
280,-41,0,0,0,0,0,0,0,0,0,-1,1504,1065,0,0
287,-41,0,0,0,0,0,0,0,0,0,-1,1511,1065,0,0
294,-41,0,0,0,0,0,0,0,0,0,-1,1518,1065,0,0
301,-41,0,0,0,0,0,0,0,0,0,-1,1525,1065,0,0
308,-41,0,0,0,0,0,0,0,0,0,-1,1532,1065,0,0
315,-41,0,0,0,0,0,0,0,0,0,-1,1539,1065,0,0
322,-41,0,0,0,0,0,0,0,0,0,-1,1546,1065,0,0
329,-41,0,0,0,0,0,0,0,0,0,-1,1553,1065,0,0
336,-41,0,0,0,0,0,0,0,0,0,-1,1560,1065,0,0
343,-41,0,0,0,0,0,0,0,0,0,-1,1567,1065,0,0
350,-41,0,0,0,0,0,0,0,0,0,-1,1574,1065,0,0
357,-41,0,0,0,0,0,0,0,0,0,-1,1581,1065,0,0
364,-41,0,0,0,0,0,0,0,0,0,-1,1588,1065,0,0
371,-41,0,0,0,0,0,0,0,0,0,-1,1595,1065,0,0
378,-41,0,0,0,0,0,0,0,0,0,-1,1602,1065,0,0
385,-41,0,0,0,0,0,0,0,0,0,-1,1609,1065,0,0
392,-41,0,0,0,0,0,0,0,0,0,-1,1616,1065,0,0
399,-41,0,0,0,0,0,0,0,0,0,-1,1623,1065,0,0
406,-41,0,0,0,0,0,0,0,0,0,-1,1630,1065,0,0
413,-41,0,0,0,0,0,0,0,0,0,-1,1637,1065,0,0
420,-41,0,0,0,0,0,0,0,0,0,-1,1644,1065,0,0
427,-41,0,0,0,0,0,0,0,0,0,-1,1651,1065,0,0
434,-41,0,0,0,0,0,0,0,0,0,-1,1658,1065,0,0
441,-41,0,0,0,0,0,0,0,0,0,-1,1665,1065,0,0
448,-41,0,0,0,0,0,0,0,0,0,-1,1672,1065,0,0
455,-41,0,0,0,0,0,0,0,0,0,-1,1679,1065,0,0
462,-41,0,0,0,0,0,0,0,0,0,-1,1686,1065,0,0
469,-41,0,0,0,0,0,0,0,0,0,-1,1693,1065,0,0
476,-41,0,0,0,0,0,0,0,0,0,-1,1700,1065,0,0
483,-41,0,0,0,0,0,0,0,0,0,-1,1707,1065,0,0
490,-41,0,0,0,0,0,0,0,0,0,-1,1714,1065,0,0
497,-41,0,0,0,0,0,0,0,0,0,-1,1721,1065,0,0
504,-41,0,0,0,0,0,0,0,0,0,-1,1728,1065,0,0
511,-41,0,0,0,0,0,0,0,0,0,-1,1735,1065,0,0
518,-41,0,0,0,0,0,0,0,0,0,-1,1742,1065,0,0
525,-41,0,0,0,0,0,0,0,0,0,-1,1749,1065,0,0
532,-41,0,0,0,0,0,0,0,0,0,-1,1756,1065,0,0
539,-41,0,0,0,0,0,0,0,0,0,-1,1763,1065,0,0
546,-41,0,0,0,0,0,0,0,0,0,-1,1770,1065,0,0
553,-41,0,0,0,0,0,0,0,0,0,-1,1777,1065,0,0
560,-41,0,0,0,0,0,0,0,0,0,-1,1784,1065,0,0
567,-41,0,0,0,0,0,0,0,0,0,-1,1791,1065,0,0
574,-41,0,0,0,0,0,0,0,0,0,-1,1798,1065,0,0
581,-41,0,0,0,0,0,0,0,0,0,-1,1805,1065,0,0
588,-41,0,0,0,0,0,0,0,0,0,-1,1812,1065,0,0
595,-41,0,0,0,0,0,0,0,0,0,-1,1819,1065,0,0
602,-41,0,0,0,0,0,0,0,0,0,-1,1826,1065,0,0
609,-41,0,0,0,0,0,0,0,0,0,-1,1833,1065,0,0
616,-41,0,0,0,0,0,0,0,0,0,-1,1840,1065,0,0
623,-41,0,0,0,0,0,0,0,0,0,-1,1847,1065,0,0
630,-41,0,0,0,0,0,0,0,0,0,-1,1854,1065,0,0
637,-41,0,0,0,0,0,0,0,0,0,-1,1861,1065,0,0
644,-41,0,0,0,0,0,0,0,0,0,-1,1868,1065,0,0
651,-41,76.4762,2.27026,-0.00273424,-0.0019868,0.000401917,-0.0018117,-0.00290934,1.15993,0.00169649,0.0368996,1875,1065,76.4762,-2.27021
658,-41,76.4448,2.30542,-0.00182117,-0.00148245,0.00052459,-0.00110056,-0.00220306,0.941539,0.00127194,0.0397257,1882,1065,76.4448,-2.30538
665,-41,76.3252,2.40161,-0.00127326,-0.00107003,0.00050345,-0.000658041,-0.00168525,0.884979,0.000980728,0.0414112,1889,1065,76.3252,-2.40161
672,-41,76.4403,2.21875,-0.000809005,-0.000667013,0.000452592,-0.000279883,-0.00119614,0.863197,0.000722433,0.0420891,1896,1065,76.4404,-2.21875
679,-41,76.3108,2.22583,-0.00041551,-0.000291326,0.000338139,-9.62539e-06,-0.000697211,0.876201,0.000461633,0.041493,1903,1065,76.3108,-2.22579
686,-41,76.3435,2.29492,-0.000612333,-0.000356305,0.000252636,-0.0002011,-0.000767537,1.0199,0.000459566,0.041521,1910,1065,76.3436,-2.29495
693,-41,76.4832,2.25928,-0.000963506,-0.000609957,0.000304248,-0.000434857,-0.00113861,1.04857,0.000663457,0.0446377,1917,1065,76.4832,-2.25926
700,-41,76.447,2.05627,-0.00129541,-0.000786434,0.000548796,-0.000435991,-0.00164585,1.0025,0.000984625,0.0413317,1924,1065,76.447,-2.0563
707,-41,76.3727,2.09851,-0.00201046,-0.000661165,0.000835049,-0.000262288,-0.00240934,1.12517,0.00152633,0.0295763,1931,1065,76.3726,-2.09845
714,-41,76.348,2.11169,-0.0029528,-0.000158605,0.00117977,0.000272889,-0.0033843,1.22017,0.00235244,0.0296897,1938,1065,76.348,-2.11167
721,-41,76.3389,2.14624,0,0,0,0,0,0,0,-1,1945,1065,76.3389,-2.14626
728,-41,75.6003,7.93384,0,0,0,0,0,0,0,-1,1952,1065,75.6003,-7.93389
735,-41,75.4664,7.61267,-0.00621189,0.0031597,0.00158032,0.00341901,-0.0064712,1.40816,0.00580005,0.0241591,1959,1065,75.4665,-7.6127
742,-41,75.3794,7.26208,-0.00645388,0.00460035,0.00148907,0.00479743,-0.00665095,1.43921,0.00663854,0.0204781,1966,1065,75.3793,-7.26214
749,-41,75.3611,7.00159,-0.00609062,0.00633972,0.00120491,0.00645544,-0.00620634,1.47505,0.00731075,0.0176413,1973,1065,75.361,-7.00161
756,-41,75.3601,6.70813,-0.00538947,0.00871409,0.000657009,0.00874463,-0.00542001,1.52435,0.00825271,0.0154968,1980,1065,75.36,-6.70814
763,-41,75.2385,6.34338,-0.00349038,0.0116704,-0.000623273,0.011696,-0.00351596,-1.52978,0.00919617,0.013732,1987,1065,75.2384,-6.34341
770,-41,75.0806,6.05078,0.000481987,0.0153592,-0.00298869,0.0159371,-9.59598e-05,-1.37978,0.0106569,0.0146682,1994,1065,75.0805,-6.05082
777,-41,74.8728,5.72681,0.00726614,0.0193392,-0.00651318,0.022183,0.00442228,-1.15912,0.0135572,0.0185402,2001,1065,74.8728,-5.72683
784,-41,74.6777,5.29419,0.0154799,0.0229719,-0.0107096,0.0305717,0.00788001,-0.953638,0.0183281,0.0318645,2008,1065,74.6777,-5.29425
791,-41,74.5642,4.83752,0,0,0,0,0,0,0,-1,2015,1065,74.5641,-4.83748
798,-41,74.9797,3.22571,0,0,0,0,0,0,0,-1,2022,1065,74.9796,-3.22574
805,-41,74.4941,2.88342,0,0,0,0,0,0,0,-1,2029,1065,74.4941,-2.88337
812,-41,74.6741,3.55652,0,0,0,0,0,0,0,-1,2036,1065,74.674,-3.55652
-700,-48,-59.4634,-5.10327,0,0,0,0,0,0,0,-1,524,1072,-59.4634,5.10322
-693,-48,-59.8515,-3.96375,0,0,0,0,0,0,0,-1,531,1072,-59.8515,3.96371
-686,-48,-59.7151,-2.8512,-0.0150737,0.0191128,0.00610665,0.0201709,-0.0161318,1.39923,0.0210026,0.0471941,538,1072,-59.7151,2.85115
-679,-48,-59.6171,-1.75525,-0.00800259,0.0243463,0.0105955,0.0275078,-0.0111641,1.28083,0.0229822,0.046066,545,1072,-59.6171,1.75527
-672,-48,-59.4014,-0.318604,-0.00400509,0.027269,0.0129259,0.0319198,-0.00865586,1.22542,0.0246765,0.0454439,552,1072,-59.4014,0.318549
-665,-48,-59.1421,0.981689,-0.00180609,0.0282541,0.0136988,0.0335602,-0.00711219,1.20125,0.0250826,0.0467777,559,1072,-59.1421,-0.981658
-658,-48,-58.8591,2.07336,-0.000674935,0.0275436,0.0132479,0.0327883,-0.00591968,1.19384,0.0240759,0.0480696,566,1072,-58.8591,-2.07336
-651,-48,-58.6782,3.41492,-0.000173864,0.02539,0.0118513,0.0300388,-0.0048227,1.19698,0.0218119,0.0428003,573,1072,-58.6782,-3.41487
-644,-48,-58.7836,4.45435,-8.07072e-06,0.022101,0.00973092,0.0257738,-0.00368084,1.20989,0.0185317,0.0254106,580,1072,-58.7836,-4.4544
-637,-48,-58.8377,4.70837,0.000494237,0.0181524,0.00753831,0.0209327,-0.00228611,1.21745,0.0147763,0.0262406,587,1072,-58.8377,-4.70838
-630,-48,-58.9037,5.14783,0.000648907,0.0140971,0.00530825,0.0159399,-0.00119385,1.23666,0.0110461,0.0309744,594,1072,-58.9037,-5.14789
-623,-48,-59.0391,5.58447,0.000370011,0.0101081,0.00257406,0.0107467,-0.000268515,1.32764,0.0072556,0.0143642,601,1072,-59.0391,-5.58446
-616,-48,-59.0463,6.00256,0.000202965,0.00517642,0.000568188,0.00524051,0.000138879,1.45848,0.00344831,0.0123939,608,1072,-59.0462,-6.00255
-609,-48,-59.0001,6.42725,0.000128517,0.00175117,-0.000854502,0.00211816,-0.00023847,-1.16514,0.00149794,0.0140832,615,1072,-59.0001,-6.42728
-602,-48,-58.9915,6.80261,0.000422888,-0.00111691,-0.00176931,0.00158255,-0.00227657,-0.580184,0.00224004,0.0135165,622,1072,-58.9915,-6.80262
-595,-48,-59.0155,7.12549,0.000527873,-0.00277778,-0.00217703,0.00160841,-0.00385832,-0.460713,0.0032441,0.0349622,629,1072,-59.0155,-7.12545
-588,-48,-59.2621,7.38525,0,0,0,0,0,0,0,-1,636,1072,-59.2621,-7.38523
-581,-48,-59.769,0.214966,0,0,0,0,0,0,0,-1,643,1072,-59.769,-0.214915
-574,-48,-59.7682,0.7052,0,0,0,0,0,0,0,-1,650,1072,-59.7682,-0.705208
-567,-48,-59.6422,0.373413,0.00087885,-0.00449021,-0.00088941,0.00102235,-0.00463371,-0.159964,0.00348034,0.0399332,657,1072,-59.6421,-0.373395
-560,-48,-59.7021,0.0904541,0.000534223,-0.00375382,-0.000371057,0.000566095,-0.00378569,-0.0856842,0.00273211,0.0410669,664,1072,-59.7022,-0.0904014
-553,-48,-59.6624,0.0596924,0.000231319,-0.00251315,0.000144944,0.000238952,-0.00252078,0.0526181,0.00176557,0.0425282,671,1072,-59.6623,-0.0596763
-546,-48,-59.7633,0.230835,0.000232142,-0.000891132,0.000473223,0.000404928,-0.00106392,0.350085,0.000876025,0.0403944,678,1072,-59.7633,-0.230889
-539,-48,-59.7864,0.343628,0.00066334,0.000801126,0.000307929,0.00104777,0.000416692,0.89545,0.000609139,0.0391863,685,1072,-59.7864,-0.343579
-532,-48,-59.777,0.38562,0.00110793,0.00273093,0.000164517,0.00274744,0.00109143,1.47079,0.00159736,0.0383356,692,1072,-59.777,-0.385679
-525,-48,0,0,0,0,0,0,0,0,0,-1,699,1072,0,0
-518,-48,0,0,0,0,0,0,0,0,0,-1,706,1072,0,0
-511,-48,0,0,0,0,0,0,0,0,0,-1,713,1072,0,0
-504,-48,0,0,0,0,0,0,0,0,0,-1,720,1072,0,0
-497,-48,0,0,0,0,0,0,0,0,0,-1,727,1072,0,0
-490,-48,0,0,0,0,0,0,0,0,0,-1,734,1072,0,0
-483,-48,0,0,0,0,0,0,0,0,0,-1,741,1072,0,0
-476,-48,0,0,0,0,0,0,0,0,0,-1,748,1072,0,0
-469,-48,0,0,0,0,0,0,0,0,0,-1,755,1072,0,0
-462,-48,0,0,0,0,0,0,0,0,0,-1,762,1072,0,0
-455,-48,0,0,0,0,0,0,0,0,0,-1,769,1072,0,0
-448,-48,0,0,0,0,0,0,0,0,0,-1,776,1072,0,0
-441,-48,0,0,0,0,0,0,0,0,0,-1,783,1072,0,0
-434,-48,0,0,0,0,0,0,0,0,0,-1,790,1072,0,0
-427,-48,0,0,0,0,0,0,0,0,0,-1,797,1072,0,0
-420,-48,0,0,0,0,0,0,0,0,0,-1,804,1072,0,0
-413,-48,0,0,0,0,0,0,0,0,0,-1,811,1072,0,0
-406,-48,0,0,0,0,0,0,0,0,0,-1,818,1072,0,0
-399,-48,0,0,0,0,0,0,0,0,0,-1,825,1072,0,0
-392,-48,0,0,0,0,0,0,0,0,0,-1,832,1072,0,0
-385,-48,0,0,0,0,0,0,0,0,0,-1,839,1072,0,0
-378,-48,0,0,0,0,0,0,0,0,0,-1,846,1072,0,0
-371,-48,0,0,0,0,0,0,0,0,0,-1,853,1072,0,0
-364,-48,0,0,0,0,0,0,0,0,0,-1,860,1072,0,0
-357,-48,0,0,0,0,0,0,0,0,0,-1,867,1072,0,0
-350,-48,0,0,0,0,0,0,0,0,0,-1,874,1072,0,0
-343,-48,0,0,0,0,0,0,0,0,0,-1,881,1072,0,0
-336,-48,0,0,0,0,0,0,0,0,0,-1,888,1072,0,0
-329,-48,0,0,0,0,0,0,0,0,0,-1,895,1072,0,0
-322,-48,0,0,0,0,0,0,0,0,0,-1,902,1072,0,0
-315,-48,0,0,0,0,0,0,0,0,0,-1,909,1072,0,0
-308,-48,0,0,0,0,0,0,0,0,0,-1,916,1072,0,0
-301,-48,0,0,0,0,0,0,0,0,0,-1,923,1072,0,0
-294,-48,0,0,0,0,0,0,0,0,0,-1,930,1072,0,0
-287,-48,0,0,0,0,0,0,0,0,0,-1,937,1072,0,0
-280,-48,0,0,0,0,0,0,0,0,0,-1,944,1072,0,0
-273,-48,0,0,0,0,0,0,0,0,0,-1,951,1072,0,0
-266,-48,0,0,0,0,0,0,0,0,0,-1,958,1072,0,0
-259,-48,0,0,0,0,0,0,0,0,0,-1,965,1072,0,0
-252,-48,0,0,0,0,0,0,0,0,0,-1,972,1072,0,0
-245,-48,0,0,0,0,0,0,0,0,0,-1,979,1072,0,0
-238,-48,0,0,0,0,0,0,0,0,0,-1,986,1072,0,0
-231,-48,0,0,0,0,0,0,0,0,0,-1,993,1072,0,0
-224,-48,0,0,0,0,0,0,0,0,0,-1,1000,1072,0,0
-217,-48,0,0,0,0,0,0,0,0,0,-1,1007,1072,0,0
-210,-48,0,0,0,0,0,0,0,0,0,-1,1014,1072,0,0
-203,-48,0,0,0,0,0,0,0,0,0,-1,1021,1072,0,0
-196,-48,0,0,0,0,0,0,0,0,0,-1,1028,1072,0,0
-189,-48,0,0,0,0,0,0,0,0,0,-1,1035,1072,0,0
-182,-48,0,0,0,0,0,0,0,0,0,-1,1042,1072,0,0
-175,-48,0,0,0,0,0,0,0,0,0,-1,1049,1072,0,0
-168,-48,0,0,0,0,0,0,0,0,0,-1,1056,1072,0,0
-161,-48,0,0,0,0,0,0,0,0,0,-1,1063,1072,0,0
-154,-48,0,0,0,0,0,0,0,0,0,-1,1070,1072,0,0
-147,-48,0,0,0,0,0,0,0,0,0,-1,1077,1072,0,0
-140,-48,0,0,0,0,0,0,0,0,0,-1,1084,1072,0,0
-133,-48,0,0,0,0,0,0,0,0,0,-1,1091,1072,0,0
-126,-48,0,0,0,0,0,0,0,0,0,-1,1098,1072,0,0
-119,-48,0,0,0,0,0,0,0,0,0,-1,1105,1072,0,0
-112,-48,0,0,0,0,0,0,0,0,0,-1,1112,1072,0,0
-105,-48,0,0,0,0,0,0,0,0,0,-1,1119,1072,0,0
-98,-48,0,0,0,0,0,0,0,0,0,-1,1126,1072,0,0
-91,-48,0,0,0,0,0,0,0,0,0,-1,1133,1072,0,0
-84,-48,0,0,0,0,0,0,0,0,0,-1,1140,1072,0,0
-77,-48,0,0,0,0,0,0,0,0,0,-1,1147,1072,0,0
-70,-48,0,0,0,0,0,0,0,0,0,-1,1154,1072,0,0
-63,-48,0,0,0,0,0,0,0,0,0,-1,1161,1072,0,0
-56,-48,0,0,0,0,0,0,0,0,0,-1,1168,1072,0,0
-49,-48,0,0,0,0,0,0,0,0,0,-1,1175,1072,0,0
-42,-48,0,0,0,0,0,0,0,0,0,-1,1182,1072,0,0
-35,-48,0,0,0,0,0,0,0,0,0,-1,1189,1072,0,0
-28,-48,0,0,0,0,0,0,0,0,0,-1,1196,1072,0,0
-21,-48,0,0,0,0,0,0,0,0,0,-1,1203,1072,0,0
-14,-48,0,0,0,0,0,0,0,0,0,-1,1210,1072,0,0
-7,-48,0,0,0,0,0,0,0,0,0,-1,1217,1072,0,0
0,-48,0,0,0,0,0,0,0,0,0,-1,1224,1072,0,0
7,-48,0,0,0,0,0,0,0,0,0,-1,1231,1072,0,0
14,-48,0,0,0,0,0,0,0,0,0,-1,1238,1072,0,0
21,-48,0,0,0,0,0,0,0,0,0,-1,1245,1072,0,0
28,-48,0,0,0,0,0,0,0,0,0,-1,1252,1072,0,0
35,-48,0,0,0,0,0,0,0,0,0,-1,1259,1072,0,0
42,-48,0,0,0,0,0,0,0,0,0,-1,1266,1072,0,0
49,-48,0,0,0,0,0,0,0,0,0,-1,1273,1072,0,0
56,-48,0,0,0,0,0,0,0,0,0,-1,1280,1072,0,0
63,-48,0,0,0,0,0,0,0,0,0,-1,1287,1072,0,0
70,-48,0,0,0,0,0,0,0,0,0,-1,1294,1072,0,0
77,-48,0,0,0,0,0,0,0,0,0,-1,1301,1072,0,0
84,-48,0,0,0,0,0,0,0,0,0,-1,1308,1072,0,0
91,-48,0,0,0,0,0,0,0,0,0,-1,1315,1072,0,0
98,-48,0,0,0,0,0,0,0,0,0,-1,1322,1072,0,0
105,-48,0,0,0,0,0,0,0,0,0,-1,1329,1072,0,0
112,-48,0,0,0,0,0,0,0,0,0,-1,1336,1072,0,0
119,-48,0,0,0,0,0,0,0,0,0,-1,1343,1072,0,0
126,-48,0,0,0,0,0,0,0,0,0,-1,1350,1072,0,0
133,-48,0,0,0,0,0,0,0,0,0,-1,1357,1072,0,0
140,-48,0,0,0,0,0,0,0,0,0,-1,1364,1072,0,0
147,-48,0,0,0,0,0,0,0,0,0,-1,1371,1072,0,0
154,-48,0,0,0,0,0,0,0,0,0,-1,1378,1072,0,0
161,-48,0,0,0,0,0,0,0,0,0,-1,1385,1072,0,0
168,-48,0,0,0,0,0,0,0,0,0,-1,1392,1072,0,0
175,-48,0,0,0,0,0,0,0,0,0,-1,1399,1072,0,0
182,-48,0,0,0,0,0,0,0,0,0,-1,1406,1072,0,0
189,-48,0,0,0,0,0,0,0,0,0,-1,1413,1072,0,0
196,-48,0,0,0,0,0,0,0,0,0,-1,1420,1072,0,0
203,-48,0,0,0,0,0,0,0,0,0,-1,1427,1072,0,0
210,-48,0,0,0,0,0,0,0,0,0,-1,1434,1072,0,0
217,-48,0,0,0,0,0,0,0,0,0,-1,1441,1072,0,0
224,-48,0,0,0,0,0,0,0,0,0,-1,1448,1072,0,0
231,-48,0,0,0,0,0,0,0,0,0,-1,1455,1072,0,0
238,-48,0,0,0,0,0,0,0,0,0,-1,1462,1072,0,0
245,-48,0,0,0,0,0,0,0,0,0,-1,1469,1072,0,0
252,-48,0,0,0,0,0,0,0,0,0,-1,1476,1072,0,0
259,-48,0,0,0,0,0,0,0,0,0,-1,1483,1072,0,0
266,-48,0,0,0,0,0,0,0,0,0,-1,1490,1072,0,0
273,-48,0,0,0,0,0,0,0,0,0,-1,1497,1072,0,0
280,-48,0,0,0,0,0,0,0,0,0,-1,1504,1072,0,0
287,-48,0,0,0,0,0,0,0,0,0,-1,1511,1072,0,0
294,-48,0,0,0,0,0,0,0,0,0,-1,1518,1072,0,0
301,-48,0,0,0,0,0,0,0,0,0,-1,1525,1072,0,0
308,-48,0,0,0,0,0,0,0,0,0,-1,1532,1072,0,0
315,-48,0,0,0,0,0,0,0,0,0,-1,1539,1072,0,0
322,-48,0,0,0,0,0,0,0,0,0,-1,1546,1072,0,0
329,-48,0,0,0,0,0,0,0,0,0,-1,1553,1072,0,0
336,-48,0,0,0,0,0,0,0,0,0,-1,1560,1072,0,0
343,-48,0,0,0,0,0,0,0,0,0,-1,1567,1072,0,0
350,-48,0,0,0,0,0,0,0,0,0,-1,1574,1072,0,0
357,-48,0,0,0,0,0,0,0,0,0,-1,1581,1072,0,0
364,-48,0,0,0,0,0,0,0,0,0,-1,1588,1072,0,0
371,-48,0,0,0,0,0,0,0,0,0,-1,1595,1072,0,0
378,-48,0,0,0,0,0,0,0,0,0,-1,1602,1072,0,0
385,-48,0,0,0,0,0,0,0,0,0,-1,1609,1072,0,0
392,-48,0,0,0,0,0,0,0,0,0,-1,1616,1072,0,0
399,-48,0,0,0,0,0,0,0,0,0,-1,1623,1072,0,0
406,-48,0,0,0,0,0,0,0,0,0,-1,1630,1072,0,0
413,-48,0,0,0,0,0,0,0,0,0,-1,1637,1072,0,0
420,-48,0,0,0,0,0,0,0,0,0,-1,1644,1072,0,0
427,-48,0,0,0,0,0,0,0,0,0,-1,1651,1072,0,0
434,-48,0,0,0,0,0,0,0,0,0,-1,1658,1072,0,0
441,-48,0,0,0,0,0,0,0,0,0,-1,1665,1072,0,0
448,-48,0,0,0,0,0,0,0,0,0,-1,1672,1072,0,0
455,-48,0,0,0,0,0,0,0,0,0,-1,1679,1072,0,0
462,-48,0,0,0,0,0,0,0,0,0,-1,1686,1072,0,0
469,-48,0,0,0,0,0,0,0,0,0,-1,1693,1072,0,0
476,-48,0,0,0,0,0,0,0,0,0,-1,1700,1072,0,0
483,-48,0,0,0,0,0,0,0,0,0,-1,1707,1072,0,0
490,-48,0,0,0,0,0,0,0,0,0,-1,1714,1072,0,0
497,-48,0,0,0,0,0,0,0,0,0,-1,1721,1072,0,0
504,-48,0,0,0,0,0,0,0,0,0,-1,1728,1072,0,0
511,-48,0,0,0,0,0,0,0,0,0,-1,1735,1072,0,0
518,-48,0,0,0,0,0,0,0,0,0,-1,1742,1072,0,0
525,-48,0,0,0,0,0,0,0,0,0,-1,1749,1072,0,0
532,-48,0,0,0,0,0,0,0,0,0,-1,1756,1072,0,0
539,-48,0,0,0,0,0,0,0,0,0,-1,1763,1072,0,0
546,-48,0,0,0,0,0,0,0,0,0,-1,1770,1072,0,0
553,-48,0,0,0,0,0,0,0,0,0,-1,1777,1072,0,0
560,-48,0,0,0,0,0,0,0,0,0,-1,1784,1072,0,0
567,-48,0,0,0,0,0,0,0,0,0,-1,1791,1072,0,0
574,-48,0,0,0,0,0,0,0,0,0,-1,1798,1072,0,0
581,-48,0,0,0,0,0,0,0,0,0,-1,1805,1072,0,0
588,-48,0,0,0,0,0,0,0,0,0,-1,1812,1072,0,0
595,-48,0,0,0,0,0,0,0,0,0,-1,1819,1072,0,0
602,-48,0,0,0,0,0,0,0,0,0,-1,1826,1072,0,0
609,-48,0,0,0,0,0,0,0,0,0,-1,1833,1072,0,0
616,-48,0,0,0,0,0,0,0,0,0,-1,1840,1072,0,0
623,-48,0,0,0,0,0,0,0,0,0,-1,1847,1072,0,0
630,-48,0,0,0,0,0,0,0,0,0,-1,1854,1072,0,0
637,-48,0,0,0,0,0,0,0,0,0,-1,1861,1072,0,0
644,-48,0,0,0,0,0,0,0,0,0,-1,1868,1072,0,0
651,-48,76.3573,2.25623,-0.0027249,-0.00164583,0.000788176,-0.00123021,-0.00314052,1.08553,0.0018273,0.034342,1875,1072,76.3573,-2.25625
658,-48,76.3785,2.37073,-0.00169567,-0.00117459,0.000753561,-0.000637801,-0.00223246,0.951835,0.00132779,0.037231,1882,1072,76.3786,-2.37073
665,-48,76.2905,2.28992,-0.00108571,-0.000797997,0.000609454,-0.000315651,-0.00156805,0.901297,0.000957653,0.0403379,1889,1072,76.2905,-2.28995
672,-48,76.3502,1.99512,-0.00059018,-0.000430099,0.000433881,-6.89375e-05,-0.000951342,0.876611,0.000612543,0.0394365,1896,1072,76.3503,-1.99517
679,-48,76.1315,2.00403,-0.000197316,-8.68077e-05,0.000198109,6.36078e-05,-0.000347732,0.921396,0.000255675,0.0373118,1903,1072,76.1315,-2.00401
686,-48,76.2389,2.18384,-0.00039985,-0.000178857,3.36432e-05,-0.000173849,-0.000404858,1.42302,0.00023452,0.0377494,1910,1072,76.2389,-2.18379
693,-48,76.4635,2.2301,-0.000726438,-0.000458368,4.90646e-05,-0.00044967,-0.000735136,1.39534,0.000427946,0.0389413,1917,1072,76.4634,-2.23015
700,-48,76.517,2.16736,-0.00102162,-0.000645372,0.000281665,-0.000494785,-0.00117221,1.07983,0.000679509,0.0349953,1924,1072,76.517,-2.16734
707,-48,76.4274,2.10718,-0.00168012,-0.000567867,0.00056993,-0.000327692,-0.00192029,1.17197,0.00118615,0.0292766,1931,1072,76.4273,-2.10716
714,-48,76.3738,2.06799,-0.00255494,-0.000175499,0.000956748,0.000161477,-0.00289192,1.23215,0.00198396,0.0470741,1938,1072,76.3738,-2.06799
721,-48,76.4227,2.04565,0,0,0,0,0,0,0,-1,1945,1072,76.4227,-2.04561
728,-48,75.1608,8.13965,0,0,0,0,0,0,0,-1,1952,1072,75.1607,-8.13962
735,-48,75.0615,7.79956,-0.00540171,0.00270195,0.00157795,0.00299836,-0.00569813,1.38511,0.00510093,0.0254007,1959,1072,75.0615,-7.79951
742,-48,74.9312,7.39746,-0.00531036,0.00400431,0.00156738,0.00426098,-0.00556703,1.40848,0.00569088,0.019318,1966,1072,74.9312,-7.39746
749,-48,74.9283,6.99426,-0.0042937,0.00566326,0.00140943,0.00585892,-0.00448936,1.43285,0.005992,0.0163043,1973,1072,74.9284,-6.99421
756,-48,74.8936,6.6449,-0.00280541,0.00796558,0.000867557,0.00803501,-0.00287484,1.49094,0.00652944,0.0136151,1980,1072,74.8936,-6.64487
763,-48,74.8027,6.28821,2.12281e-05,0.0108703,-0.00043712,0.0108879,3.64427e-06,-1.53059,0.00725738,0.0136556,1987,1072,74.8028,-6.28818
770,-48,74.741,5.93738,0.00536152,0.0146044,-0.0028701,0.0154231,0.00454282,-1.29292,0.00915171,0.0150234,1994,1072,74.7409,-5.93742
777,-48,74.551,5.52979,0.0138254,0.0186812,-0.00651172,0.0232029,0.00930368,-0.96384,0.0134835,0.014587,2001,1072,74.5511,-5.52976
784,-48,74.3743,5.06824,0.0239172,0.0224739,-0.0109314,0.0341507,0.0122404,-0.752437,0.0199787,0.0270278,2008,1072,74.3743,-5.06827
791,-48,74.3757,4.35645,0.0363421,0.0257635,-0.0165992,0.0484743,0.0136313,-0.631161,0.028866,0.0396121,2015,1072,74.3758,-4.35645
798,-48,74.7664,3.22119,0.0520521,0.0283669,-0.0240691,0.0670343,0.0133847,-0.556775,0.0409635,0.0495149,2022,1072,74.7663,-3.22121
805,-48,75.2556,2.63452,0,0,0,0,0,0,0,-1,2029,1072,75.2557,-2.63454
812,-48,76.0405,2.03345,0,0,0,0,0,0,0,-1,2036,1072,76.0405,-2.03343
-700,-55,-58.3967,-6.42908,0,0,0,0,0,0,0,-1,524,1079,-58.3967,6.42912
-693,-55,-58.7151,-3.6593,0,0,0,0,0,0,0,-1,531,1079,-58.7151,3.65935
-686,-55,-58.5936,-2.52112,-0.0173483,0.0177051,0.0121654,0.0215134,-0.0211566,1.26742,0.0246358,0.0492235,538,1079,-58.5936,2.52108
-679,-55,-58.7922,-1.32129,-0.00966096,0.0225556,0.0161927,0.0292877,-0.016393,1.17679,0.0267217,0.0461896,545,1079,-58.7922,1.32127
-672,-55,-58.1171,-0.552856,0,0,0,0,0,0,0,-1,552,1079,-58.1171,0.552849
-665,-55,-58.2782,0.647705,-0.00268325,0.0263227,0.01753,0.0345713,-0.0109319,1.13099,0.0274276,0.0480236,559,1079,-58.2782,-0.647731
-658,-55,-58.5591,1.70288,-0.0013282,0.025718,0.0161683,0.0332731,-0.00888327,1.13367,0.0256609,0.0475416,566,1079,-58.5591,-1.70294
-651,-55,-58.4742,2.93005,-0.000657035,0.0237407,0.0139698,0.0300882,-0.00700455,1.14431,0.0227559,0.0486885,573,1079,-58.4742,-2.93007
-644,-55,-58.3812,4.28284,-0.000336919,0.0206338,0.0112049,0.0254942,-0.00519731,1.16152,0.0189674,0.0323199,580,1079,-58.3812,-4.28284
-637,-55,-58.4296,4.60889,0.000229752,0.0167764,0.00844669,0.0203265,-0.00332039,1.17291,0.0147827,0.0249492,587,1079,-58.4296,-4.60887
-630,-55,-58.4915,5.09229,0.000425403,0.0129413,0.00571585,0.0151588,-0.00179207,1.20072,0.0107531,0.0271233,594,1079,-58.4915,-5.09229
-623,-55,-58.6633,5.61304,0.000314681,0.00915014,0.00273583,0.00992867,-0.000463847,1.29356,0.00677902,0.0200622,601,1079,-58.6633,-5.61308
-616,-55,-58.6722,6.03186,0.000208106,0.00449148,0.000477203,0.004544,0.000155586,1.46118,0.00297883,0.018473,608,1079,-58.6723,-6.03183
-609,-55,-58.6021,6.50378,0.000153667,0.0012983,-0.000943544,0.00182953,-0.000377565,-1.05801,0.00136309,0.0198151,615,1079,-58.6021,-6.50383
-602,-55,-58.5361,6.91626,0.000440313,-0.00124508,-0.00178362,0.00157029,-0.00237505,-0.56471,0.00229359,0.0154256,622,1079,-58.5361,-6.91627
-595,-55,-58.3596,7.35974,0.000570955,-0.00271647,-0.00221077,0.00168211,-0.00382763,-0.465733,0.00326045,0.0344124,629,1079,-58.3596,-7.35977
-588,-55,-58.3104,7.86914,0,0,0,0,0,0,0,-1,636,1079,-58.3104,-7.86914
-581,-55,-59.7945,0.624756,0,0,0,0,0,0,0,-1,643,1079,-59.7945,-0.624723
-574,-55,-59.7617,0.659546,0,0,0,0,0,0,0,-1,650,1079,-59.7617,-0.659594
-567,-55,-59.714,-0.0257568,0,0,0,0,0,0,0,-1,657,1079,-59.714,0.025814
-560,-55,-59.7998,0.139893,0.00121108,-0.00389376,-0.000645736,0.00129149,-0.00397417,-0.123895,0.00316892,0.0428145,664,1079,-59.7998,-0.139898
-553,-55,-59.673,0.265259,0.0011133,-0.00283285,-0.000162668,0.00112,-0.00283954,-0.0411291,0.0023568,0.0425949,671,1079,-59.673,-0.265283
-546,-55,-59.7511,0.135498,0,0,0,0,0,0,0,-1,678,1079,-59.7511,-0.135468
-539,-55,-59.7586,0.163696,0.00245981,-0.000188265,8.60231e-05,0.0024626,-0.000191057,0.0324395,0.00170898,0.0395319,685,1079,-59.7586,-0.163641
-532,-55,-59.7919,0.250488,0.00350428,0.00129819,7.44365e-05,0.00350679,0.00129568,0.0336903,0.00204751,0.0387336,692,1079,-59.7919,-0.250521
-525,-55,0,0,0,0,0,0,0,0,0,-1,699,1079,0,0
-518,-55,0,0,0,0,0,0,0,0,0,-1,706,1079,0,0
-511,-55,0,0,0,0,0,0,0,0,0,-1,713,1079,0,0
-504,-55,0,0,0,0,0,0,0,0,0,-1,720,1079,0,0
-497,-55,0,0,0,0,0,0,0,0,0,-1,727,1079,0,0
-490,-55,0,0,0,0,0,0,0,0,0,-1,734,1079,0,0
-483,-55,0,0,0,0,0,0,0,0,0,-1,741,1079,0,0
-476,-55,0,0,0,0,0,0,0,0,0,-1,748,1079,0,0
-469,-55,0,0,0,0,0,0,0,0,0,-1,755,1079,0,0
-462,-55,0,0,0,0,0,0,0,0,0,-1,762,1079,0,0
-455,-55,0,0,0,0,0,0,0,0,0,-1,769,1079,0,0
-448,-55,0,0,0,0,0,0,0,0,0,-1,776,1079,0,0
-441,-55,0,0,0,0,0,0,0,0,0,-1,783,1079,0,0
-434,-55,0,0,0,0,0,0,0,0,0,-1,790,1079,0,0
-427,-55,0,0,0,0,0,0,0,0,0,-1,797,1079,0,0
-420,-55,0,0,0,0,0,0,0,0,0,-1,804,1079,0,0
-413,-55,0,0,0,0,0,0,0,0,0,-1,811,1079,0,0
-406,-55,0,0,0,0,0,0,0,0,0,-1,818,1079,0,0
-399,-55,0,0,0,0,0,0,0,0,0,-1,825,1079,0,0
-392,-55,0,0,0,0,0,0,0,0,0,-1,832,1079,0,0
-385,-55,0,0,0,0,0,0,0,0,0,-1,839,1079,0,0
-378,-55,0,0,0,0,0,0,0,0,0,-1,846,1079,0,0
-371,-55,0,0,0,0,0,0,0,0,0,-1,853,1079,0,0
-364,-55,0,0,0,0,0,0,0,0,0,-1,860,1079,0,0
-357,-55,0,0,0,0,0,0,0,0,0,-1,867,1079,0,0
-350,-55,0,0,0,0,0,0,0,0,0,-1,874,1079,0,0
-343,-55,0,0,0,0,0,0,0,0,0,-1,881,1079,0,0
-336,-55,0,0,0,0,0,0,0,0,0,-1,888,1079,0,0
-329,-55,0,0,0,0,0,0,0,0,0,-1,895,1079,0,0
-322,-55,0,0,0,0,0,0,0,0,0,-1,902,1079,0,0
-315,-55,0,0,0,0,0,0,0,0,0,-1,909,1079,0,0
-308,-55,0,0,0,0,0,0,0,0,0,-1,916,1079,0,0
-301,-55,0,0,0,0,0,0,0,0,0,-1,923,1079,0,0
-294,-55,0,0,0,0,0,0,0,0,0,-1,930,1079,0,0
-287,-55,0,0,0,0,0,0,0,0,0,-1,937,1079,0,0
-280,-55,0,0,0,0,0,0,0,0,0,-1,944,1079,0,0
-273,-55,0,0,0,0,0,0,0,0,0,-1,951,1079,0,0
-266,-55,0,0,0,0,0,0,0,0,0,-1,958,1079,0,0
-259,-55,0,0,0,0,0,0,0,0,0,-1,965,1079,0,0
-252,-55,0,0,0,0,0,0,0,0,0,-1,972,1079,0,0
-245,-55,0,0,0,0,0,0,0,0,0,-1,979,1079,0,0
-238,-55,0,0,0,0,0,0,0,0,0,-1,986,1079,0,0
-231,-55,0,0,0,0,0,0,0,0,0,-1,993,1079,0,0
-224,-55,0,0,0,0,0,0,0,0,0,-1,1000,1079,0,0
-217,-55,0,0,0,0,0,0,0,0,0,-1,1007,1079,0,0
-210,-55,0,0,0,0,0,0,0,0,0,-1,1014,1079,0,0
-203,-55,0,0,0,0,0,0,0,0,0,-1,1021,1079,0,0
-196,-55,0,0,0,0,0,0,0,0,0,-1,1028,1079,0,0
-189,-55,0,0,0,0,0,0,0,0,0,-1,1035,1079,0,0
-182,-55,0,0,0,0,0,0,0,0,0,-1,1042,1079,0,0
-175,-55,0,0,0,0,0,0,0,0,0,-1,1049,1079,0,0
-168,-55,0,0,0,0,0,0,0,0,0,-1,1056,1079,0,0
-161,-55,0,0,0,0,0,0,0,0,0,-1,1063,1079,0,0
-154,-55,0,0,0,0,0,0,0,0,0,-1,1070,1079,0,0
-147,-55,0,0,0,0,0,0,0,0,0,-1,1077,1079,0,0
-140,-55,0,0,0,0,0,0,0,0,0,-1,1084,1079,0,0
-133,-55,0,0,0,0,0,0,0,0,0,-1,1091,1079,0,0
-126,-55,0,0,0,0,0,0,0,0,0,-1,1098,1079,0,0
-119,-55,0,0,0,0,0,0,0,0,0,-1,1105,1079,0,0
-112,-55,0,0,0,0,0,0,0,0,0,-1,1112,1079,0,0
-105,-55,0,0,0,0,0,0,0,0,0,-1,1119,1079,0,0
-98,-55,0,0,0,0,0,0,0,0,0,-1,1126,1079,0,0
-91,-55,0,0,0,0,0,0,0,0,0,-1,1133,1079,0,0
-84,-55,0,0,0,0,0,0,0,0,0,-1,1140,1079,0,0
-77,-55,0,0,0,0,0,0,0,0,0,-1,1147,1079,0,0
-70,-55,0,0,0,0,0,0,0,0,0,-1,1154,1079,0,0
-63,-55,0,0,0,0,0,0,0,0,0,-1,1161,1079,0,0
-56,-55,0,0,0,0,0,0,0,0,0,-1,1168,1079,0,0
-49,-55,0,0,0,0,0,0,0,0,0,-1,1175,1079,0,0
-42,-55,0,0,0,0,0,0,0,0,0,-1,1182,1079,0,0
-35,-55,0,0,0,0,0,0,0,0,0,-1,1189,1079,0,0
-28,-55,0,0,0,0,0,0,0,0,0,-1,1196,1079,0,0
-21,-55,0,0,0,0,0,0,0,0,0,-1,1203,1079,0,0
-14,-55,0,0,0,0,0,0,0,0,0,-1,1210,1079,0,0
-7,-55,0,0,0,0,0,0,0,0,0,-1,1217,1079,0,0
0,-55,0,0,0,0,0,0,0,0,0,-1,1224,1079,0,0
7,-55,0,0,0,0,0,0,0,0,0,-1,1231,1079,0,0
14,-55,0,0,0,0,0,0,0,0,0,-1,1238,1079,0,0
21,-55,0,0,0,0,0,0,0,0,0,-1,1245,1079,0,0
28,-55,0,0,0,0,0,0,0,0,0,-1,1252,1079,0,0
35,-55,0,0,0,0,0,0,0,0,0,-1,1259,1079,0,0
42,-55,0,0,0,0,0,0,0,0,0,-1,1266,1079,0,0
49,-55,0,0,0,0,0,0,0,0,0,-1,1273,1079,0,0
56,-55,0,0,0,0,0,0,0,0,0,-1,1280,1079,0,0
63,-55,0,0,0,0,0,0,0,0,0,-1,1287,1079,0,0
70,-55,0,0,0,0,0,0,0,0,0,-1,1294,1079,0,0
77,-55,0,0,0,0,0,0,0,0,0,-1,1301,1079,0,0
84,-55,0,0,0,0,0,0,0,0,0,-1,1308,1079,0,0
91,-55,0,0,0,0,0,0,0,0,0,-1,1315,1079,0,0
98,-55,0,0,0,0,0,0,0,0,0,-1,1322,1079,0,0
105,-55,0,0,0,0,0,0,0,0,0,-1,1329,1079,0,0
112,-55,0,0,0,0,0,0,0,0,0,-1,1336,1079,0,0
119,-55,0,0,0,0,0,0,0,0,0,-1,1343,1079,0,0
126,-55,0,0,0,0,0,0,0,0,0,-1,1350,1079,0,0
133,-55,0,0,0,0,0,0,0,0,0,-1,1357,1079,0,0
140,-55,0,0,0,0,0,0,0,0,0,-1,1364,1079,0,0
147,-55,0,0,0,0,0,0,0,0,0,-1,1371,1079,0,0
154,-55,0,0,0,0,0,0,0,0,0,-1,1378,1079,0,0
161,-55,0,0,0,0,0,0,0,0,0,-1,1385,1079,0,0
168,-55,0,0,0,0,0,0,0,0,0,-1,1392,1079,0,0
175,-55,0,0,0,0,0,0,0,0,0,-1,1399,1079,0,0
182,-55,0,0,0,0,0,0,0,0,0,-1,1406,1079,0,0
189,-55,0,0,0,0,0,0,0,0,0,-1,1413,1079,0,0
196,-55,0,0,0,0,0,0,0,0,0,-1,1420,1079,0,0
203,-55,0,0,0,0,0,0,0,0,0,-1,1427,1079,0,0
210,-55,0,0,0,0,0,0,0,0,0,-1,1434,1079,0,0
217,-55,0,0,0,0,0,0,0,0,0,-1,1441,1079,0,0
224,-55,0,0,0,0,0,0,0,0,0,-1,1448,1079,0,0
231,-55,0,0,0,0,0,0,0,0,0,-1,1455,1079,0,0
238,-55,0,0,0,0,0,0,0,0,0,-1,1462,1079,0,0
245,-55,0,0,0,0,0,0,0,0,0,-1,1469,1079,0,0
252,-55,0,0,0,0,0,0,0,0,0,-1,1476,1079,0,0
259,-55,0,0,0,0,0,0,0,0,0,-1,1483,1079,0,0
266,-55,0,0,0,0,0,0,0,0,0,-1,1490,1079,0,0
273,-55,0,0,0,0,0,0,0,0,0,-1,1497,1079,0,0
280,-55,0,0,0,0,0,0,0,0,0,-1,1504,1079,0,0
287,-55,0,0,0,0,0,0,0,0,0,-1,1511,1079,0,0
294,-55,0,0,0,0,0,0,0,0,0,-1,1518,1079,0,0
301,-55,0,0,0,0,0,0,0,0,0,-1,1525,1079,0,0
308,-55,0,0,0,0,0,0,0,0,0,-1,1532,1079,0,0
315,-55,0,0,0,0,0,0,0,0,0,-1,1539,1079,0,0
322,-55,0,0,0,0,0,0,0,0,0,-1,1546,1079,0,0
329,-55,0,0,0,0,0,0,0,0,0,-1,1553,1079,0,0
336,-55,0,0,0,0,0,0,0,0,0,-1,1560,1079,0,0
343,-55,0,0,0,0,0,0,0,0,0,-1,1567,1079,0,0
350,-55,0,0,0,0,0,0,0,0,0,-1,1574,1079,0,0
357,-55,0,0,0,0,0,0,0,0,0,-1,1581,1079,0,0
364,-55,0,0,0,0,0,0,0,0,0,-1,1588,1079,0,0
371,-55,0,0,0,0,0,0,0,0,0,-1,1595,1079,0,0
378,-55,0,0,0,0,0,0,0,0,0,-1,1602,1079,0,0
385,-55,0,0,0,0,0,0,0,0,0,-1,1609,1079,0,0
392,-55,0,0,0,0,0,0,0,0,0,-1,1616,1079,0,0
399,-55,0,0,0,0,0,0,0,0,0,-1,1623,1079,0,0
406,-55,0,0,0,0,0,0,0,0,0,-1,1630,1079,0,0
413,-55,0,0,0,0,0,0,0,0,0,-1,1637,1079,0,0
420,-55,0,0,0,0,0,0,0,0,0,-1,1644,1079,0,0
427,-55,0,0,0,0,0,0,0,0,0,-1,1651,1079,0,0
434,-55,0,0,0,0,0,0,0,0,0,-1,1658,1079,0,0
441,-55,0,0,0,0,0,0,0,0,0,-1,1665,1079,0,0
448,-55,0,0,0,0,0,0,0,0,0,-1,1672,1079,0,0
455,-55,0,0,0,0,0,0,0,0,0,-1,1679,1079,0,0
462,-55,0,0,0,0,0,0,0,0,0,-1,1686,1079,0,0
469,-55,0,0,0,0,0,0,0,0,0,-1,1693,1079,0,0
476,-55,0,0,0,0,0,0,0,0,0,-1,1700,1079,0,0
483,-55,0,0,0,0,0,0,0,0,0,-1,1707,1079,0,0
490,-55,0,0,0,0,0,0,0,0,0,-1,1714,1079,0,0
497,-55,0,0,0,0,0,0,0,0,0,-1,1721,1079,0,0
504,-55,0,0,0,0,0,0,0,0,0,-1,1728,1079,0,0
511,-55,0,0,0,0,0,0,0,0,0,-1,1735,1079,0,0
518,-55,0,0,0,0,0,0,0,0,0,-1,1742,1079,0,0
525,-55,0,0,0,0,0,0,0,0,0,-1,1749,1079,0,0
532,-55,0,0,0,0,0,0,0,0,0,-1,1756,1079,0,0
539,-55,0,0,0,0,0,0,0,0,0,-1,1763,1079,0,0
546,-55,0,0,0,0,0,0,0,0,0,-1,1770,1079,0,0
553,-55,0,0,0,0,0,0,0,0,0,-1,1777,1079,0,0
560,-55,0,0,0,0,0,0,0,0,0,-1,1784,1079,0,0
567,-55,0,0,0,0,0,0,0,0,0,-1,1791,1079,0,0
574,-55,0,0,0,0,0,0,0,0,0,-1,1798,1079,0,0
581,-55,0,0,0,0,0,0,0,0,0,-1,1805,1079,0,0
588,-55,0,0,0,0,0,0,0,0,0,-1,1812,1079,0,0
595,-55,0,0,0,0,0,0,0,0,0,-1,1819,1079,0,0
602,-55,0,0,0,0,0,0,0,0,0,-1,1826,1079,0,0
609,-55,0,0,0,0,0,0,0,0,0,-1,1833,1079,0,0
616,-55,0,0,0,0,0,0,0,0,0,-1,1840,1079,0,0
623,-55,0,0,0,0,0,0,0,0,0,-1,1847,1079,0,0
630,-55,0,0,0,0,0,0,0,0,0,-1,1854,1079,0,0
637,-55,0,0,0,0,0,0,0,0,0,-1,1861,1079,0,0
644,-55,0,0,0,0,0,0,0,0,0,-1,1868,1079,0,0
651,-55,76.2264,2.19006,-0.00211424,-0.00158318,0.00105397,-0.000761804,-0.00293562,0.908795,0.00175902,0.0375023,1875,1079,76.2264,-2.19007
658,-55,76.3138,2.35291,-0.00119598,-0.00104176,0.000882685,-0.000232826,-0.00200492,0.828967,0.00126616,0.0343102,1882,1079,76.3138,-2.35294
665,-55,76.3876,2.13403,-0.000663146,-0.000623447,0.000634519,-8.46694e-06,-0.00127813,0.801035,0.000849276,0.0369959,1889,1079,76.3876,-2.13399
672,-55,76.3406,2.01001,-0.000235932,-0.000242009,0.000347205,0.000108247,-0.000586189,0.781023,0.000431426,0.037965,1896,1079,76.3406,-2.01001
679,-55,76.1025,2.02722,9.22906e-05,9.69618e-05,6.82748e-06,0.000101842,8.74103e-05,0.950203,6.3632e-05,0.0358878,1903,1079,76.1025,-2.02726
686,-55,76.1477,2.09058,-0.000140536,-2.1656e-05,-0.000214735,0.000141713,-0.000303906,-0.920421,0.000262897,0.035785,1910,1079,76.1477,-2.0906
693,-55,76.347,2.18091,-0.000456377,-0.000331795,-0.000211254,-0.00017384,-0.000614333,-0.928767,0.000365653,0.037725,1917,1079,76.3471,-2.18085
700,-55,76.4669,2.11304,-0.000716645,-0.000524504,2.41756e-05,-0.000521509,-0.00071964,1.44753,0.00042924,0.0352941,1924,1079,76.4669,-2.11298
707,-55,76.4197,2.07556,-0.00130597,-0.000486215,0.00033544,-0.000366451,-0.00142573,1.22787,0.000854932,0.0296263,1931,1079,76.4197,-2.07562
714,-55,76.2758,1.88098,0,0,0,0,0,0,0,-1,1938,1079,76.2757,-1.88094
721,-55,75.7639,2.17676,0,0,0,0,0,0,0,-1,1945,1079,75.7639,-2.1768
728,-55,74.6362,8.3551,0,0,0,0,0,0,0,-1,1952,1079,74.6363,-8.35509
735,-55,74.5488,7.9231,-0.00460983,0.00235121,0.00156328,0.00268616,-0.00494479,1.35972,0.00446959,0.0240442,1959,1079,74.5488,-7.92311
742,-55,74.5525,7.49487,-0.00421307,0.00355384,0.00163649,0.00388456,-0.00454379,1.37139,0.00487107,0.0240738,1966,1079,74.5524,-7.49488
749,-55,74.554,7.04956,-0.00274794,0.00519976,0.00156373,0.00549635,-0.00304454,1.38335,0.00499835,0.0162237,1973,1079,74.554,-7.04961
756,-55,74.4165,6.6377,-0.0007354,0.00748145,0.00101394,0.00760472,-0.000858668,1.44982,0.00537893,0.0130376,1980,1079,74.4165,-6.63773
763,-55,74.3511,6.25171,0.00275912,0.0104256,-0.00035088,0.0104416,0.00274309,-1.52516,0.00625065,0.0154166,1987,1079,74.3512,-6.25165
770,-55,74.2771,5.83264,0.00909692,0.0143107,-0.00291143,0.0156118,0.00779584,-1.15053,0.00901347,0.0170015,1994,1079,74.2772,-5.83261
777,-55,74.1321,5.41345,0.018614,0.0185963,-0.00672979,0.025335,0.0118754,-0.784739,0.0146367,0.0140094,2001,1079,74.1321,-5.4135
784,-55,74.0078,4.90845,0.0298811,0.022656,-0.0114065,0.0382335,0.0143036,-0.632041,0.0223061,0.0299209,2008,1079,74.0079,-4.90844
791,-55,74.1326,4.03027,0.0434838,0.0263159,-0.0173716,0.0542765,0.0155231,-0.555925,0.0322791,0.0419448,2015,1079,74.1326,-4.03024
798,-55,74.4861,3.22388,0.0604439,0.0293644,-0.0252687,0.0745688,0.0152395,-0.509717,0.0454917,0.0473951,2022,1079,74.4862,-3.22391
805,-55,74.8384,2.71289,0,0,0,0,0,0,0,-1,2029,1079,74.8385,-2.71283
812,-55,77.1287,1.93933,0,0,0,0,0,0,0,-1,2036,1079,77.1286,-1.93928
-700,-62,-58.4833,-6.41736,0,0,0,0,0,0,0,-1,524,1086,-58.4833,6.41737
-693,-62,-57.3426,-3.5835,0,0,0,0,0,0,0,-1,531,1086,-57.3426,3.58352
-686,-62,-57.1962,-2.20374,-0.0213118,0.0203484,0.0200543,0.0284331,-0.0293966,1.18758,0.0333895,0.0498591,538,1086,-57.1962,2.20379
-679,-62,-58.2296,-0.310303,-0.0130303,0.0235869,0.0227151,0.0344533,-0.0238967,1.1246,0.0338716,0.0444487,545,1086,-58.2296,0.310302
-672,-62,-58.4227,-0.837524,-0.00798861,0.0252679,0.0228144,0.0368708,-0.0195915,1.10031,0.0331034,0.0454336,552,1086,-58.4227,0.837465
-665,-62,-58.1039,0.127441,-0.00501107,0.0255606,0.0213619,0.0365424,-0.0159929,1.09595,0.0310951,0.0464246,559,1086,-58.1039,-0.127393
-658,-62,-58.1977,1.44751,0,0,0,0,0,0,0,-1,566,1086,-58.1977,-1.44755
-651,-62,-57.7975,3.34656,0,0,0,0,0,0,0,-1,573,1086,-57.7975,-3.34651
-644,-62,-57.9508,4.11182,-0.00164959,0.0193812,0.0124275,0.0251451,-0.00741351,1.13652,0.0197051,0.0395432,580,1086,-57.9508,-4.11187
-637,-62,-58.012,4.65002,-0.000879086,0.0154642,0.00909788,0.0195215,-0.00493639,1.15131,0.0149343,0.017124,587,1086,-58.012,-4.65007
-630,-62,-58.0967,5.10754,-0.000535533,0.0117793,0.00589106,0.0141435,-0.00289976,1.18915,0.0105296,0.0170683,594,1086,-58.0967,-5.10757
-623,-62,-58.1812,5.64038,-0.00040262,0.00814069,0.00271935,0.00893282,-0.00119475,1.28735,0.0063908,0.0189837,601,1086,-58.1812,-5.64044
-616,-62,-58.1796,6.16089,-0.000363351,0.00379425,0.000320028,0.00381874,-0.00038784,1.49442,0.00268446,0.0198442,608,1086,-58.1796,-6.1609
-609,-62,-58.1403,6.6217,-0.000321026,0.0008776,-0.00104138,0.00147981,-0.000923236,-1.0465,0.00139975,0.0204168,615,1086,-58.1403,-6.62175
-602,-62,-58.0075,7.00928,3.89507e-05,-0.0013109,-0.00178329,0.00127077,-0.00254271,-0.604493,0.00224217,0.0171611,622,1086,-58.0075,-7.00922
-595,-62,-57.7991,7.44885,0.000239443,-0.00259781,-0.00222285,0.00145778,-0.00381614,-0.50138,0.00314474,0.040996,629,1086,-57.7991,-7.44887
-588,-62,-57.6404,7.90588,0,0,0,0,0,0,0,-1,636,1086,-57.6404,-7.90583
-581,-62,-59.7533,0.380371,0,0,0,0,0,0,0,-1,643,1086,-59.7533,-0.380358
-574,-62,-59.8081,0.369995,0.00148661,-0.00479591,-0.00160456,0.00187269,-0.00518198,-0.236125,0.00421975,0.0351763,650,1086,-59.8081,-0.369948
-567,-62,-59.8393,0.165161,0.00168076,-0.00485905,-0.00125565,0.00191355,-0.00509185,-0.183319,0.00418102,0.0400915,657,1086,-59.8393,-0.165117
-560,-62,-59.8745,0.209229,0.00173241,-0.00451327,-0.000857842,0.00184809,-0.00462896,-0.134043,0.0038527,0.0418537,664,1086,-59.8745,-0.209287
-553,-62,-59.6934,0.458008,0.00187077,-0.00381486,-0.000386008,0.00189686,-0.00384095,-0.0674792,0.00337551,0.0375573,671,1086,-59.6934,-0.457951
-546,-62,-59.7164,0.239014,0.00251098,-0.002924,2.53534e-05,0.0025111,-0.00292412,0.00466471,0.00314104,0.0329331,678,1086,-59.7165,-0.238988
-539,-62,-59.8387,0.115967,0.00422211,-0.00240911,0.000116442,0.00422415,-0.00241116,0.0175524,0.00387827,0.0387731,685,1086,-59.8387,-0.115968
-532,-62,-59.7772,0.183228,0.00595169,-0.00171176,0.000373046,0.00596981,-0.00172988,0.0485257,0.00466467,0.0397972,692,1086,-59.7772,-0.183263
-525,-62,0,0,0,0,0,0,0,0,0,-1,699,1086,0,0
-518,-62,0,0,0,0,0,0,0,0,0,-1,706,1086,0,0
-511,-62,0,0,0,0,0,0,0,0,0,-1,713,1086,0,0
-504,-62,0,0,0,0,0,0,0,0,0,-1,720,1086,0,0
-497,-62,0,0,0,0,0,0,0,0,0,-1,727,1086,0,0
-490,-62,0,0,0,0,0,0,0,0,0,-1,734,1086,0,0
-483,-62,0,0,0,0,0,0,0,0,0,-1,741,1086,0,0
-476,-62,0,0,0,0,0,0,0,0,0,-1,748,1086,0,0
-469,-62,0,0,0,0,0,0,0,0,0,-1,755,1086,0,0
-462,-62,0,0,0,0,0,0,0,0,0,-1,762,1086,0,0
-455,-62,0,0,0,0,0,0,0,0,0,-1,769,1086,0,0
-448,-62,0,0,0,0,0,0,0,0,0,-1,776,1086,0,0
-441,-62,0,0,0,0,0,0,0,0,0,-1,783,1086,0,0
-434,-62,0,0,0,0,0,0,0,0,0,-1,790,1086,0,0
-427,-62,0,0,0,0,0,0,0,0,0,-1,797,1086,0,0
-420,-62,0,0,0,0,0,0,0,0,0,-1,804,1086,0,0
-413,-62,0,0,0,0,0,0,0,0,0,-1,811,1086,0,0
-406,-62,0,0,0,0,0,0,0,0,0,-1,818,1086,0,0
-399,-62,0,0,0,0,0,0,0,0,0,-1,825,1086,0,0
-392,-62,0,0,0,0,0,0,0,0,0,-1,832,1086,0,0
-385,-62,0,0,0,0,0,0,0,0,0,-1,839,1086,0,0
-378,-62,0,0,0,0,0,0,0,0,0,-1,846,1086,0,0
-371,-62,0,0,0,0,0,0,0,0,0,-1,853,1086,0,0
-364,-62,0,0,0,0,0,0,0,0,0,-1,860,1086,0,0
-357,-62,0,0,0,0,0,0,0,0,0,-1,867,1086,0,0
-350,-62,0,0,0,0,0,0,0,0,0,-1,874,1086,0,0
-343,-62,0,0,0,0,0,0,0,0,0,-1,881,1086,0,0
-336,-62,0,0,0,0,0,0,0,0,0,-1,888,1086,0,0
-329,-62,0,0,0,0,0,0,0,0,0,-1,895,1086,0,0
-322,-62,0,0,0,0,0,0,0,0,0,-1,902,1086,0,0
-315,-62,0,0,0,0,0,0,0,0,0,-1,909,1086,0,0
-308,-62,0,0,0,0,0,0,0,0,0,-1,916,1086,0,0
-301,-62,0,0,0,0,0,0,0,0,0,-1,923,1086,0,0
-294,-62,0,0,0,0,0,0,0,0,0,-1,930,1086,0,0
-287,-62,0,0,0,0,0,0,0,0,0,-1,937,1086,0,0
-280,-62,0,0,0,0,0,0,0,0,0,-1,944,1086,0,0
-273,-62,0,0,0,0,0,0,0,0,0,-1,951,1086,0,0
-266,-62,0,0,0,0,0,0,0,0,0,-1,958,1086,0,0
-259,-62,0,0,0,0,0,0,0,0,0,-1,965,1086,0,0
-252,-62,0,0,0,0,0,0,0,0,0,-1,972,1086,0,0
-245,-62,0,0,0,0,0,0,0,0,0,-1,979,1086,0,0
-238,-62,0,0,0,0,0,0,0,0,0,-1,986,1086,0,0
-231,-62,0,0,0,0,0,0,0,0,0,-1,993,1086,0,0
-224,-62,0,0,0,0,0,0,0,0,0,-1,1000,1086,0,0
-217,-62,0,0,0,0,0,0,0,0,0,-1,1007,1086,0,0
-210,-62,0,0,0,0,0,0,0,0,0,-1,1014,1086,0,0
-203,-62,0,0,0,0,0,0,0,0,0,-1,1021,1086,0,0
-196,-62,0,0,0,0,0,0,0,0,0,-1,1028,1086,0,0
-189,-62,0,0,0,0,0,0,0,0,0,-1,1035,1086,0,0
-182,-62,0,0,0,0,0,0,0,0,0,-1,1042,1086,0,0
-175,-62,0,0,0,0,0,0,0,0,0,-1,1049,1086,0,0
-168,-62,0,0,0,0,0,0,0,0,0,-1,1056,1086,0,0
-161,-62,0,0,0,0,0,0,0,0,0,-1,1063,1086,0,0
-154,-62,0,0,0,0,0,0,0,0,0,-1,1070,1086,0,0
-147,-62,0,0,0,0,0,0,0,0,0,-1,1077,1086,0,0
-140,-62,0,0,0,0,0,0,0,0,0,-1,1084,1086,0,0
-133,-62,0,0,0,0,0,0,0,0,0,-1,1091,1086,0,0
-126,-62,0,0,0,0,0,0,0,0,0,-1,1098,1086,0,0
-119,-62,0,0,0,0,0,0,0,0,0,-1,1105,1086,0,0
-112,-62,0,0,0,0,0,0,0,0,0,-1,1112,1086,0,0
-105,-62,0,0,0,0,0,0,0,0,0,-1,1119,1086,0,0
-98,-62,0,0,0,0,0,0,0,0,0,-1,1126,1086,0,0
-91,-62,0,0,0,0,0,0,0,0,0,-1,1133,1086,0,0
-84,-62,0,0,0,0,0,0,0,0,0,-1,1140,1086,0,0
-77,-62,0,0,0,0,0,0,0,0,0,-1,1147,1086,0,0
-70,-62,0,0,0,0,0,0,0,0,0,-1,1154,1086,0,0
-63,-62,0,0,0,0,0,0,0,0,0,-1,1161,1086,0,0
-56,-62,0,0,0,0,0,0,0,0,0,-1,1168,1086,0,0
-49,-62,0,0,0,0,0,0,0,0,0,-1,1175,1086,0,0
-42,-62,0,0,0,0,0,0,0,0,0,-1,1182,1086,0,0
-35,-62,0,0,0,0,0,0,0,0,0,-1,1189,1086,0,0
-28,-62,0,0,0,0,0,0,0,0,0,-1,1196,1086,0,0
-21,-62,0,0,0,0,0,0,0,0,0,-1,1203,1086,0,0
-14,-62,0,0,0,0,0,0,0,0,0,-1,1210,1086,0,0
-7,-62,0,0,0,0,0,0,0,0,0,-1,1217,1086,0,0
0,-62,0,0,0,0,0,0,0,0,0,-1,1224,1086,0,0
7,-62,0,0,0,0,0,0,0,0,0,-1,1231,1086,0,0
14,-62,0,0,0,0,0,0,0,0,0,-1,1238,1086,0,0
21,-62,0,0,0,0,0,0,0,0,0,-1,1245,1086,0,0
28,-62,0,0,0,0,0,0,0,0,0,-1,1252,1086,0,0
35,-62,0,0,0,0,0,0,0,0,0,-1,1259,1086,0,0
42,-62,0,0,0,0,0,0,0,0,0,-1,1266,1086,0,0
49,-62,0,0,0,0,0,0,0,0,0,-1,1273,1086,0,0
56,-62,0,0,0,0,0,0,0,0,0,-1,1280,1086,0,0
63,-62,0,0,0,0,0,0,0,0,0,-1,1287,1086,0,0
70,-62,0,0,0,0,0,0,0,0,0,-1,1294,1086,0,0
77,-62,0,0,0,0,0,0,0,0,0,-1,1301,1086,0,0
84,-62,0,0,0,0,0,0,0,0,0,-1,1308,1086,0,0
91,-62,0,0,0,0,0,0,0,0,0,-1,1315,1086,0,0
98,-62,0,0,0,0,0,0,0,0,0,-1,1322,1086,0,0
105,-62,0,0,0,0,0,0,0,0,0,-1,1329,1086,0,0
112,-62,0,0,0,0,0,0,0,0,0,-1,1336,1086,0,0
119,-62,0,0,0,0,0,0,0,0,0,-1,1343,1086,0,0
126,-62,0,0,0,0,0,0,0,0,0,-1,1350,1086,0,0
133,-62,0,0,0,0,0,0,0,0,0,-1,1357,1086,0,0
140,-62,0,0,0,0,0,0,0,0,0,-1,1364,1086,0,0
147,-62,0,0,0,0,0,0,0,0,0,-1,1371,1086,0,0
154,-62,0,0,0,0,0,0,0,0,0,-1,1378,1086,0,0
161,-62,0,0,0,0,0,0,0,0,0,-1,1385,1086,0,0
168,-62,0,0,0,0,0,0,0,0,0,-1,1392,1086,0,0
175,-62,0,0,0,0,0,0,0,0,0,-1,1399,1086,0,0
182,-62,0,0,0,0,0,0,0,0,0,-1,1406,1086,0,0
189,-62,0,0,0,0,0,0,0,0,0,-1,1413,1086,0,0
196,-62,0,0,0,0,0,0,0,0,0,-1,1420,1086,0,0
203,-62,0,0,0,0,0,0,0,0,0,-1,1427,1086,0,0
210,-62,0,0,0,0,0,0,0,0,0,-1,1434,1086,0,0
217,-62,0,0,0,0,0,0,0,0,0,-1,1441,1086,0,0
224,-62,0,0,0,0,0,0,0,0,0,-1,1448,1086,0,0
231,-62,0,0,0,0,0,0,0,0,0,-1,1455,1086,0,0
238,-62,0,0,0,0,0,0,0,0,0,-1,1462,1086,0,0
245,-62,0,0,0,0,0,0,0,0,0,-1,1469,1086,0,0
252,-62,0,0,0,0,0,0,0,0,0,-1,1476,1086,0,0
259,-62,0,0,0,0,0,0,0,0,0,-1,1483,1086,0,0
266,-62,0,0,0,0,0,0,0,0,0,-1,1490,1086,0,0
273,-62,0,0,0,0,0,0,0,0,0,-1,1497,1086,0,0
280,-62,0,0,0,0,0,0,0,0,0,-1,1504,1086,0,0
287,-62,0,0,0,0,0,0,0,0,0,-1,1511,1086,0,0
294,-62,0,0,0,0,0,0,0,0,0,-1,1518,1086,0,0
301,-62,0,0,0,0,0,0,0,0,0,-1,1525,1086,0,0
308,-62,0,0,0,0,0,0,0,0,0,-1,1532,1086,0,0
315,-62,0,0,0,0,0,0,0,0,0,-1,1539,1086,0,0
322,-62,0,0,0,0,0,0,0,0,0,-1,1546,1086,0,0
329,-62,0,0,0,0,0,0,0,0,0,-1,1553,1086,0,0
336,-62,0,0,0,0,0,0,0,0,0,-1,1560,1086,0,0
343,-62,0,0,0,0,0,0,0,0,0,-1,1567,1086,0,0
350,-62,0,0,0,0,0,0,0,0,0,-1,1574,1086,0,0
357,-62,0,0,0,0,0,0,0,0,0,-1,1581,1086,0,0
364,-62,0,0,0,0,0,0,0,0,0,-1,1588,1086,0,0
371,-62,0,0,0,0,0,0,0,0,0,-1,1595,1086,0,0
378,-62,0,0,0,0,0,0,0,0,0,-1,1602,1086,0,0
385,-62,0,0,0,0,0,0,0,0,0,-1,1609,1086,0,0
392,-62,0,0,0,0,0,0,0,0,0,-1,1616,1086,0,0
399,-62,0,0,0,0,0,0,0,0,0,-1,1623,1086,0,0
406,-62,0,0,0,0,0,0,0,0,0,-1,1630,1086,0,0
413,-62,0,0,0,0,0,0,0,0,0,-1,1637,1086,0,0
420,-62,0,0,0,0,0,0,0,0,0,-1,1644,1086,0,0
427,-62,0,0,0,0,0,0,0,0,0,-1,1651,1086,0,0
434,-62,0,0,0,0,0,0,0,0,0,-1,1658,1086,0,0
441,-62,0,0,0,0,0,0,0,0,0,-1,1665,1086,0,0
448,-62,0,0,0,0,0,0,0,0,0,-1,1672,1086,0,0
455,-62,0,0,0,0,0,0,0,0,0,-1,1679,1086,0,0
462,-62,0,0,0,0,0,0,0,0,0,-1,1686,1086,0,0
469,-62,0,0,0,0,0,0,0,0,0,-1,1693,1086,0,0
476,-62,0,0,0,0,0,0,0,0,0,-1,1700,1086,0,0
483,-62,0,0,0,0,0,0,0,0,0,-1,1707,1086,0,0
490,-62,0,0,0,0,0,0,0,0,0,-1,1714,1086,0,0
497,-62,0,0,0,0,0,0,0,0,0,-1,1721,1086,0,0
504,-62,0,0,0,0,0,0,0,0,0,-1,1728,1086,0,0
511,-62,0,0,0,0,0,0,0,0,0,-1,1735,1086,0,0
518,-62,0,0,0,0,0,0,0,0,0,-1,1742,1086,0,0
525,-62,0,0,0,0,0,0,0,0,0,-1,1749,1086,0,0
532,-62,0,0,0,0,0,0,0,0,0,-1,1756,1086,0,0
539,-62,0,0,0,0,0,0,0,0,0,-1,1763,1086,0,0
546,-62,0,0,0,0,0,0,0,0,0,-1,1770,1086,0,0
553,-62,0,0,0,0,0,0,0,0,0,-1,1777,1086,0,0
560,-62,0,0,0,0,0,0,0,0,0,-1,1784,1086,0,0
567,-62,0,0,0,0,0,0,0,0,0,-1,1791,1086,0,0
574,-62,0,0,0,0,0,0,0,0,0,-1,1798,1086,0,0
581,-62,0,0,0,0,0,0,0,0,0,-1,1805,1086,0,0
588,-62,0,0,0,0,0,0,0,0,0,-1,1812,1086,0,0
595,-62,0,0,0,0,0,0,0,0,0,-1,1819,1086,0,0
602,-62,0,0,0,0,0,0,0,0,0,-1,1826,1086,0,0
609,-62,0,0,0,0,0,0,0,0,0,-1,1833,1086,0,0
616,-62,0,0,0,0,0,0,0,0,0,-1,1840,1086,0,0
623,-62,0,0,0,0,0,0,0,0,0,-1,1847,1086,0,0
630,-62,0,0,0,0,0,0,0,0,0,-1,1854,1086,0,0
637,-62,0,0,0,0,0,0,0,0,0,-1,1861,1086,0,0
644,-62,0,0,0,0,0,0,0,0,0,-1,1868,1086,0,0
651,-62,76.1981,2.06677,-0.00141094,-0.0016281,0.00103976,-0.000474098,-0.00256494,0.733372,0.00157588,0.04113,1875,1086,76.1981,-2.06678
658,-62,76.3481,2.28064,-0.000575741,-0.00106079,0.00087835,9.29524e-05,-0.00172948,0.650698,0.00118519,0.0397573,1882,1086,76.3481,-2.28059
665,-62,76.391,2.05542,-0.000114509,-0.000637329,0.000616327,0.000293554,-0.00104539,0.584826,0.00081265,0.0388944,1889,1086,76.391,-2.05547
672,-62,76.2601,2.00513,0.000227012,-0.000261627,0.00028433,0.000357573,-0.000392188,0.430469,0.000433029,0.0371226,1896,1086,76.2601,-2.00513
679,-62,76.2177,2.026,0.000468226,5.18855e-05,-0.000104858,0.000493144,2.69677e-05,-0.233307,0.000320152,0.0365367,1903,1086,76.2176,-2.02605
686,-62,76.3645,2.09302,0.000189937,-0.000100195,-0.000343763,0.000417988,-0.000328247,-0.585737,0.000431876,0.037702,1910,1086,76.3645,-2.093
693,-62,76.4138,2.18384,-0.000116046,-0.000430601,-0.000335592,9.72949e-05,-0.000643943,-0.566268,0.000465131,0.0386978,1917,1086,76.4138,-2.18387
700,-62,76.4135,2.08337,-0.000333322,-0.000609472,-9.60182e-05,-0.000303218,-0.000639576,-0.303818,0.000369425,0.0348687,1924,1086,76.4135,-2.08336
707,-62,76.3412,2.01611,-0.00085794,-0.00058892,0.000229085,-0.000457774,-0.000989086,1.05086,0.000571575,0.0270805,1931,1086,76.3412,-2.0161
714,-62,76.3442,1.87219,-0.00163426,-0.000350328,0.000681151,-5.62979e-05,-0.00192829,1.16329,0.00126718,0.0430098,1938,1086,76.3442,-1.87224
721,-62,76.3551,1.71179,0,0,0,0,0,0,0,-1,1945,1086,76.3551,-1.71183
728,-62,74.1863,8.53235,0,0,0,0,0,0,0,-1,1952,1086,74.1863,-8.53234
735,-62,74.1094,7.9491,-0.0038858,0.0019648,0.00148388,0.00231963,-0.00424064,1.33608,0.00384132,0.0333653,1959,1086,74.1093,-7.94904
742,-62,74.0465,7.55493,-0.0032636,0.00308808,0.00163679,0.00348506,-0.00366058,1.33286,0.00412595,0.0340885,1966,1086,74.0465,-7.55492
749,-62,74.007,7.08008,-0.00149739,0.00482028,0.00170992,0.00525339,-0.0019305,1.32272,0.00429297,0.0255498,1973,1086,74.007,-7.08003
756,-62,73.8875,6.68872,0.000913946,0.00712676,0.00117269,0.00734074,0.000699966,1.39031,0.00467799,0.016514,1980,1086,73.8873,-6.68867
763,-62,73.8352,6.22607,0.00499489,0.0101584,-0.000207698,0.0101667,0.00498655,-1.53066,0.00587013,0.0196972,1987,1086,73.8353,-6.2261
770,-62,73.7708,5.74707,0.0122609,0.0142509,-0.002777,0.0162057,0.010306,-0.95742,0.00947097,0.0177722,1994,1086,73.7707,-5.74704
777,-62,73.5901,5.24683,0.0227143,0.0188211,-0.00655024,0.0276011,0.0139344,-0.640966,0.0159357,0.0172393,2001,1086,73.5901,-5.24686
784,-62,73.5051,4.76221,0.0350593,0.0232411,-0.0112154,0.041827,0.0164734,-0.542939,0.0243296,0.0284491,2008,1086,73.5052,-4.76225
791,-62,73.7778,4.02368,0.0497774,0.0273714,-0.0171693,0.0590754,0.0180733,-0.496332,0.0349531,0.042526,2015,1086,73.7778,-4.02369
798,-62,74.0269,3.23157,0.0679124,0.0310091,-0.0251077,0.0806193,0.0183021,-0.468515,0.0488032,0.0451488,2022,1086,74.027,-3.23158
805,-62,74.293,2.44238,0,0,0,0,0,0,0,-1,2029,1086,74.2929,-2.44241
812,-62,75.2153,2.72083,0,0,0,0,0,0,0,-1,2036,1086,75.2154,-2.72085
-700,-69,-59.7918,-5.1864,0,0,0,0,0,0,0,-1,524,1093,-59.7918,5.18634
-693,-69,-55.9398,-3.77869,0,0,0,0,0,0,0,-1,531,1093,-55.9398,3.77871
-686,-69,-55.5777,-2.17981,0,0,0,0,0,0,0,-1,538,1093,-55.5777,2.17985
-679,-69,-58.8603,-2.40723,0,0,0,0,0,0,0,-1,545,1093,-58.8603,2.40726
-672,-69,-58.5261,-1.68176,-0.0114156,0.0256099,0.0266344,0.0395334,-0.0253392,1.0891,0.0377519,0.0492337,552,1093,-58.5261,1.68173
-665,-69,-58.275,-0.287476,-0.00783543,0.0249097,0.0239293,0.0375314,-0.0204572,1.08542,0.0339601,0.0475704,559,1093,-58.275,0.287421
-658,-69,-58.0127,0.984985,0,0,0,0,0,0,0,-1,566,1093,-58.0127,-0.984984
-651,-69,-55.8527,3.82422,0,0,0,0,0,0,0,-1,573,1093,-55.8526,-3.82421
-644,-69,-57.3906,4.06433,0,0,0,0,0,0,0,-1,580,1093,-57.3906,-4.06429
-637,-69,-57.3787,4.56274,-0.00220176,0.01381,0.00910191,0.0179259,-0.00631772,1.14611,0.0145221,0.019862,587,1093,-57.3787,-4.56276
-630,-69,-57.4556,5.08081,-0.00163925,0.0102957,0.00559076,0.0125055,-0.00384902,1.19439,0.00987332,0.0153142,594,1093,-57.4556,-5.08079
-623,-69,-57.4734,5.59558,-0.00121101,0.00678799,0.00238265,0.00744392,-0.00186694,1.30216,0.00568799,0.0199815,601,1093,-57.4734,-5.59554
-616,-69,-57.512,6.10095,-0.000968924,0.0028417,3.11496e-05,0.00284196,-0.000969179,1.56262,0.0022872,0.0259029,608,1093,-57.512,-6.10094
-609,-69,-57.5362,6.57092,-0.000779049,0.000308123,-0.00115822,0.00104397,-0.0015149,-1.0048,0.00148568,0.0226816,615,1093,-57.5362,-6.57093
-602,-69,-57.486,7.03979,-0.000334757,-0.00143702,-0.00174825,0.000947181,-0.00271896,-0.632706,0.00219749,0.0217102,622,1093,-57.486,-7.03977
-595,-69,-57.3828,7.39001,-5.94339e-05,-0.00249138,-0.00215082,0.00119535,-0.00374616,-0.528121,0.00297699,0.0467263,629,1093,-57.3828,-7.39002
-588,-69,-57.4307,7.67322,0,0,0,0,0,0,0,-1,636,1093,-57.4307,-7.67327
-581,-69,-59.7149,0.269653,0,0,0,0,0,0,0,-1,643,1093,-59.7149,-0.269685
-574,-69,-59.7231,0.200073,0.00155116,-0.00487427,-0.00163031,0.00194115,-0.00526426,-0.234797,0.00430499,0.0338943,650,1093,-59.7231,-0.200091
-567,-69,-59.707,0.156372,0.00189993,-0.00507411,-0.00134162,0.00214912,-0.0053233,-0.183645,0.00444206,0.0387763,657,1093,-59.7071,-0.156319
-560,-69,-59.7584,0.396362,0.00212173,-0.00492513,-0.001018,0.00226585,-0.00506924,-0.140632,0.00433679,0.0393619,664,1093,-59.7584,-0.396342
-553,-69,-59.7474,0.538818,0.00242144,-0.00449212,-0.000593368,0.002472,-0.00454268,-0.0849983,0.00410832,0.0365057,671,1093,-59.7474,-0.538879
-546,-69,-59.6633,0.277832,0.0032943,-0.00396223,-0.000165895,0.00329809,-0.00396602,-0.0228456,0.00419984,0.0342732,678,1093,-59.6633,-0.277891
-539,-69,-59.8259,0.159546,0.00545841,-0.00399987,5.85386e-05,0.00545877,-0.00400023,0.00618882,0.00548276,0.0394469,685,1093,-59.8258,-0.159514
-532,-69,-59.6442,0.179199,0.00765371,-0.00387211,0.000511931,0.0076764,-0.0038948,0.0442997,0.00679852,0.0417831,692,1093,-59.6442,-0.179206
-525,-69,0,0,0,0,0,0,0,0,0,-1,699,1093,0,0
-518,-69,0,0,0,0,0,0,0,0,0,-1,706,1093,0,0
-511,-69,0,0,0,0,0,0,0,0,0,-1,713,1093,0,0
-504,-69,0,0,0,0,0,0,0,0,0,-1,720,1093,0,0
-497,-69,0,0,0,0,0,0,0,0,0,-1,727,1093,0,0
-490,-69,0,0,0,0,0,0,0,0,0,-1,734,1093,0,0
-483,-69,0,0,0,0,0,0,0,0,0,-1,741,1093,0,0
-476,-69,0,0,0,0,0,0,0,0,0,-1,748,1093,0,0
-469,-69,0,0,0,0,0,0,0,0,0,-1,755,1093,0,0
-462,-69,0,0,0,0,0,0,0,0,0,-1,762,1093,0,0
-455,-69,0,0,0,0,0,0,0,0,0,-1,769,1093,0,0
-448,-69,0,0,0,0,0,0,0,0,0,-1,776,1093,0,0
-441,-69,0,0,0,0,0,0,0,0,0,-1,783,1093,0,0
-434,-69,0,0,0,0,0,0,0,0,0,-1,790,1093,0,0
-427,-69,0,0,0,0,0,0,0,0,0,-1,797,1093,0,0
-420,-69,0,0,0,0,0,0,0,0,0,-1,804,1093,0,0
-413,-69,0,0,0,0,0,0,0,0,0,-1,811,1093,0,0
-406,-69,0,0,0,0,0,0,0,0,0,-1,818,1093,0,0
-399,-69,0,0,0,0,0,0,0,0,0,-1,825,1093,0,0
-392,-69,0,0,0,0,0,0,0,0,0,-1,832,1093,0,0
-385,-69,0,0,0,0,0,0,0,0,0,-1,839,1093,0,0
-378,-69,0,0,0,0,0,0,0,0,0,-1,846,1093,0,0
-371,-69,0,0,0,0,0,0,0,0,0,-1,853,1093,0,0
-364,-69,0,0,0,0,0,0,0,0,0,-1,860,1093,0,0
-357,-69,0,0,0,0,0,0,0,0,0,-1,867,1093,0,0
-350,-69,0,0,0,0,0,0,0,0,0,-1,874,1093,0,0
-343,-69,0,0,0,0,0,0,0,0,0,-1,881,1093,0,0
-336,-69,0,0,0,0,0,0,0,0,0,-1,888,1093,0,0
-329,-69,0,0,0,0,0,0,0,0,0,-1,895,1093,0,0
-322,-69,0,0,0,0,0,0,0,0,0,-1,902,1093,0,0
-315,-69,0,0,0,0,0,0,0,0,0,-1,909,1093,0,0
-308,-69,0,0,0,0,0,0,0,0,0,-1,916,1093,0,0
-301,-69,0,0,0,0,0,0,0,0,0,-1,923,1093,0,0
-294,-69,0,0,0,0,0,0,0,0,0,-1,930,1093,0,0
-287,-69,0,0,0,0,0,0,0,0,0,-1,937,1093,0,0
-280,-69,0,0,0,0,0,0,0,0,0,-1,944,1093,0,0
-273,-69,0,0,0,0,0,0,0,0,0,-1,951,1093,0,0
-266,-69,0,0,0,0,0,0,0,0,0,-1,958,1093,0,0
-259,-69,0,0,0,0,0,0,0,0,0,-1,965,1093,0,0
-252,-69,0,0,0,0,0,0,0,0,0,-1,972,1093,0,0
-245,-69,0,0,0,0,0,0,0,0,0,-1,979,1093,0,0
-238,-69,0,0,0,0,0,0,0,0,0,-1,986,1093,0,0
-231,-69,0,0,0,0,0,0,0,0,0,-1,993,1093,0,0
-224,-69,0,0,0,0,0,0,0,0,0,-1,1000,1093,0,0
-217,-69,0,0,0,0,0,0,0,0,0,-1,1007,1093,0,0
-210,-69,0,0,0,0,0,0,0,0,0,-1,1014,1093,0,0
-203,-69,0,0,0,0,0,0,0,0,0,-1,1021,1093,0,0
-196,-69,0,0,0,0,0,0,0,0,0,-1,1028,1093,0,0
-189,-69,0,0,0,0,0,0,0,0,0,-1,1035,1093,0,0
-182,-69,0,0,0,0,0,0,0,0,0,-1,1042,1093,0,0
-175,-69,0,0,0,0,0,0,0,0,0,-1,1049,1093,0,0
-168,-69,0,0,0,0,0,0,0,0,0,-1,1056,1093,0,0
-161,-69,0,0,0,0,0,0,0,0,0,-1,1063,1093,0,0
-154,-69,0,0,0,0,0,0,0,0,0,-1,1070,1093,0,0
-147,-69,0,0,0,0,0,0,0,0,0,-1,1077,1093,0,0
-140,-69,0,0,0,0,0,0,0,0,0,-1,1084,1093,0,0
-133,-69,0,0,0,0,0,0,0,0,0,-1,1091,1093,0,0
-126,-69,0,0,0,0,0,0,0,0,0,-1,1098,1093,0,0
-119,-69,0,0,0,0,0,0,0,0,0,-1,1105,1093,0,0
-112,-69,0,0,0,0,0,0,0,0,0,-1,1112,1093,0,0
-105,-69,0,0,0,0,0,0,0,0,0,-1,1119,1093,0,0
-98,-69,0,0,0,0,0,0,0,0,0,-1,1126,1093,0,0
-91,-69,0,0,0,0,0,0,0,0,0,-1,1133,1093,0,0
-84,-69,0,0,0,0,0,0,0,0,0,-1,1140,1093,0,0
-77,-69,0,0,0,0,0,0,0,0,0,-1,1147,1093,0,0
-70,-69,0,0,0,0,0,0,0,0,0,-1,1154,1093,0,0
-63,-69,0,0,0,0,0,0,0,0,0,-1,1161,1093,0,0
-56,-69,0,0,0,0,0,0,0,0,0,-1,1168,1093,0,0
-49,-69,0,0,0,0,0,0,0,0,0,-1,1175,1093,0,0
-42,-69,0,0,0,0,0,0,0,0,0,-1,1182,1093,0,0
-35,-69,0,0,0,0,0,0,0,0,0,-1,1189,1093,0,0
-28,-69,0,0,0,0,0,0,0,0,0,-1,1196,1093,0,0
-21,-69,0,0,0,0,0,0,0,0,0,-1,1203,1093,0,0
-14,-69,0,0,0,0,0,0,0,0,0,-1,1210,1093,0,0
-7,-69,0,0,0,0,0,0,0,0,0,-1,1217,1093,0,0
0,-69,0,0,0,0,0,0,0,0,0,-1,1224,1093,0,0
7,-69,0,0,0,0,0,0,0,0,0,-1,1231,1093,0,0
14,-69,0,0,0,0,0,0,0,0,0,-1,1238,1093,0,0
21,-69,0,0,0,0,0,0,0,0,0,-1,1245,1093,0,0
28,-69,0,0,0,0,0,0,0,0,0,-1,1252,1093,0,0
35,-69,0,0,0,0,0,0,0,0,0,-1,1259,1093,0,0
42,-69,0,0,0,0,0,0,0,0,0,-1,1266,1093,0,0
49,-69,0,0,0,0,0,0,0,0,0,-1,1273,1093,0,0
56,-69,0,0,0,0,0,0,0,0,0,-1,1280,1093,0,0
63,-69,0,0,0,0,0,0,0,0,0,-1,1287,1093,0,0
70,-69,0,0,0,0,0,0,0,0,0,-1,1294,1093,0,0
77,-69,0,0,0,0,0,0,0,0,0,-1,1301,1093,0,0
84,-69,0,0,0,0,0,0,0,0,0,-1,1308,1093,0,0
91,-69,0,0,0,0,0,0,0,0,0,-1,1315,1093,0,0
98,-69,0,0,0,0,0,0,0,0,0,-1,1322,1093,0,0
105,-69,0,0,0,0,0,0,0,0,0,-1,1329,1093,0,0
112,-69,0,0,0,0,0,0,0,0,0,-1,1336,1093,0,0
119,-69,0,0,0,0,0,0,0,0,0,-1,1343,1093,0,0
126,-69,0,0,0,0,0,0,0,0,0,-1,1350,1093,0,0
133,-69,0,0,0,0,0,0,0,0,0,-1,1357,1093,0,0
140,-69,0,0,0,0,0,0,0,0,0,-1,1364,1093,0,0
147,-69,0,0,0,0,0,0,0,0,0,-1,1371,1093,0,0
154,-69,0,0,0,0,0,0,0,0,0,-1,1378,1093,0,0
161,-69,0,0,0,0,0,0,0,0,0,-1,1385,1093,0,0
168,-69,0,0,0,0,0,0,0,0,0,-1,1392,1093,0,0
175,-69,0,0,0,0,0,0,0,0,0,-1,1399,1093,0,0
182,-69,0,0,0,0,0,0,0,0,0,-1,1406,1093,0,0
189,-69,0,0,0,0,0,0,0,0,0,-1,1413,1093,0,0
196,-69,0,0,0,0,0,0,0,0,0,-1,1420,1093,0,0
203,-69,0,0,0,0,0,0,0,0,0,-1,1427,1093,0,0
210,-69,0,0,0,0,0,0,0,0,0,-1,1434,1093,0,0
217,-69,0,0,0,0,0,0,0,0,0,-1,1441,1093,0,0
224,-69,0,0,0,0,0,0,0,0,0,-1,1448,1093,0,0
231,-69,0,0,0,0,0,0,0,0,0,-1,1455,1093,0,0
238,-69,0,0,0,0,0,0,0,0,0,-1,1462,1093,0,0
245,-69,0,0,0,0,0,0,0,0,0,-1,1469,1093,0,0
252,-69,0,0,0,0,0,0,0,0,0,-1,1476,1093,0,0
259,-69,0,0,0,0,0,0,0,0,0,-1,1483,1093,0,0
266,-69,0,0,0,0,0,0,0,0,0,-1,1490,1093,0,0
273,-69,0,0,0,0,0,0,0,0,0,-1,1497,1093,0,0
280,-69,0,0,0,0,0,0,0,0,0,-1,1504,1093,0,0
287,-69,0,0,0,0,0,0,0,0,0,-1,1511,1093,0,0
294,-69,0,0,0,0,0,0,0,0,0,-1,1518,1093,0,0
301,-69,0,0,0,0,0,0,0,0,0,-1,1525,1093,0,0
308,-69,0,0,0,0,0,0,0,0,0,-1,1532,1093,0,0
315,-69,0,0,0,0,0,0,0,0,0,-1,1539,1093,0,0
322,-69,0,0,0,0,0,0,0,0,0,-1,1546,1093,0,0
329,-69,0,0,0,0,0,0,0,0,0,-1,1553,1093,0,0
336,-69,0,0,0,0,0,0,0,0,0,-1,1560,1093,0,0
343,-69,0,0,0,0,0,0,0,0,0,-1,1567,1093,0,0
350,-69,0,0,0,0,0,0,0,0,0,-1,1574,1093,0,0
357,-69,0,0,0,0,0,0,0,0,0,-1,1581,1093,0,0
364,-69,0,0,0,0,0,0,0,0,0,-1,1588,1093,0,0
371,-69,0,0,0,0,0,0,0,0,0,-1,1595,1093,0,0
378,-69,0,0,0,0,0,0,0,0,0,-1,1602,1093,0,0
385,-69,0,0,0,0,0,0,0,0,0,-1,1609,1093,0,0
392,-69,0,0,0,0,0,0,0,0,0,-1,1616,1093,0,0
399,-69,0,0,0,0,0,0,0,0,0,-1,1623,1093,0,0
406,-69,0,0,0,0,0,0,0,0,0,-1,1630,1093,0,0
413,-69,0,0,0,0,0,0,0,0,0,-1,1637,1093,0,0
420,-69,0,0,0,0,0,0,0,0,0,-1,1644,1093,0,0
427,-69,0,0,0,0,0,0,0,0,0,-1,1651,1093,0,0
434,-69,0,0,0,0,0,0,0,0,0,-1,1658,1093,0,0
441,-69,0,0,0,0,0,0,0,0,0,-1,1665,1093,0,0
448,-69,0,0,0,0,0,0,0,0,0,-1,1672,1093,0,0
455,-69,0,0,0,0,0,0,0,0,0,-1,1679,1093,0,0
462,-69,0,0,0,0,0,0,0,0,0,-1,1686,1093,0,0
469,-69,0,0,0,0,0,0,0,0,0,-1,1693,1093,0,0
476,-69,0,0,0,0,0,0,0,0,0,-1,1700,1093,0,0
483,-69,0,0,0,0,0,0,0,0,0,-1,1707,1093,0,0
490,-69,0,0,0,0,0,0,0,0,0,-1,1714,1093,0,0
497,-69,0,0,0,0,0,0,0,0,0,-1,1721,1093,0,0
504,-69,0,0,0,0,0,0,0,0,0,-1,1728,1093,0,0
511,-69,0,0,0,0,0,0,0,0,0,-1,1735,1093,0,0
518,-69,0,0,0,0,0,0,0,0,0,-1,1742,1093,0,0
525,-69,0,0,0,0,0,0,0,0,0,-1,1749,1093,0,0
532,-69,0,0,0,0,0,0,0,0,0,-1,1756,1093,0,0
539,-69,0,0,0,0,0,0,0,0,0,-1,1763,1093,0,0
546,-69,0,0,0,0,0,0,0,0,0,-1,1770,1093,0,0
553,-69,0,0,0,0,0,0,0,0,0,-1,1777,1093,0,0
560,-69,0,0,0,0,0,0,0,0,0,-1,1784,1093,0,0
567,-69,0,0,0,0,0,0,0,0,0,-1,1791,1093,0,0
574,-69,0,0,0,0,0,0,0,0,0,-1,1798,1093,0,0
581,-69,0,0,0,0,0,0,0,0,0,-1,1805,1093,0,0
588,-69,0,0,0,0,0,0,0,0,0,-1,1812,1093,0,0
595,-69,0,0,0,0,0,0,0,0,0,-1,1819,1093,0,0
602,-69,0,0,0,0,0,0,0,0,0,-1,1826,1093,0,0
609,-69,0,0,0,0,0,0,0,0,0,-1,1833,1093,0,0
616,-69,0,0,0,0,0,0,0,0,0,-1,1840,1093,0,0
623,-69,0,0,0,0,0,0,0,0,0,-1,1847,1093,0,0
630,-69,0,0,0,0,0,0,0,0,0,-1,1854,1093,0,0
637,-69,0,0,0,0,0,0,0,0,0,-1,1861,1093,0,0
644,-69,0,0,0,0,0,0,0,0,0,-1,1868,1093,0,0
651,-69,76.2859,2.00134,-0.000565952,-0.00119735,0.000559208,-0.000239482,-0.00152382,0.528427,0.000946208,0.0411597,1875,1093,76.2859,-2.00129
658,-69,76.3678,2.05786,6.50853e-05,-0.000737564,0.000547217,0.000342368,-0.00101485,0.469005,0.00081502,0.044719,1882,1093,76.3679,-2.05789
665,-69,76.4052,1.89868,0.000385017,-0.000408728,0.000367969,0.000529355,-0.000553066,0.373813,0.000624986,0.043333,1889,1093,76.4052,-1.89874
672,-69,76.0848,2.09607,0.000600837,-0.000122436,6.38619e-05,0.000606433,-0.000128032,0.0873945,0.000453037,0.0377252,1896,1093,76.0849,-2.09603
679,-69,76.194,2.15369,0.000737221,8.76755e-05,-0.000313903,0.000864125,-3.9229e-05,-0.38419,0.000589595,0.03597,1903,1093,76.1939,-2.15366
686,-69,76.4879,2.13269,0.000423494,-0.000136788,-0.000531201,0.000743898,-0.000457192,-0.542745,0.000700004,0.0376945,1910,1093,76.488,-2.13263
693,-69,76.4099,2.05847,0.00013714,-0.000529166,-0.000510019,0.000413175,-0.000805201,-0.496081,0.000715465,0.0360293,1917,1093,76.4099,-2.05848
700,-69,76.3539,1.96106,-3.75797e-05,-0.000745153,-0.000258617,4.6866e-05,-0.000829599,-0.315614,0.000569331,0.0309756,1924,1093,76.3539,-1.96102
707,-69,76.318,1.97449,-0.000521924,-0.000746432,8.65012e-05,-0.000492462,-0.000775894,0.328272,0.000453349,0.0248767,1931,1093,76.318,-1.97447
714,-69,76.3192,1.86145,-0.00127779,-0.000551883,0.000549428,-0.000256348,-0.00157332,1.07729,0.000974733,0.0384082,1938,1093,76.3192,-1.86142
721,-69,76.3364,1.68848,0,0,0,0,0,0,0,-1,1945,1093,76.3364,-1.68843
728,-69,73.1971,8.67834,0,0,0,0,0,0,0,-1,1952,1093,73.1972,-8.67836
735,-69,73.551,8.08582,-0.00338441,0.00155293,0.0013294,0.00188812,-0.0037196,1.32381,0.00329468,0.0475043,1959,1093,73.5511,-8.08586
742,-69,73.4528,7.70398,-0.00262844,0.00261365,0.00155793,0.0030417,-0.00305649,1.30265,0.0035208,0.0353617,1966,1093,73.4528,-7.70401
749,-69,73.2557,7.17114,-0.000676041,0.0043853,0.00173543,0.00492319,-0.00121392,1.27024,0.00375279,0.0361597,1973,1093,73.2558,-7.1712
756,-69,73.3433,6.68262,0.00199341,0.0066939,0.00123592,0.00699906,0.00168825,1.32873,0.00421747,0.0183888,1980,1093,73.3433,-6.68266
763,-69,73.2927,6.18481,0.00661325,0.00980704,-0.000126678,0.00981206,0.00660823,-1.53122,0.00577754,0.0208788,1987,1093,73.2928,-6.18486
770,-69,73.1675,5.74561,0.0148185,0.0140939,-0.0026652,0.0171459,0.0117665,-0.71784,0.0101256,0.0227404,1994,1093,73.1674,-5.74556
777,-69,73.0105,5.29126,0.0262657,0.0189095,-0.00636265,0.0299369,0.0152383,-0.523325,0.017285,0.0273105,2001,1093,73.0106,-5.29127
784,-69,73.0471,4.75574,0.0397758,0.0236595,-0.0109651,0.0453252,0.01811,-0.468518,0.0263439,0.0337335,2008,1093,73.0472,-4.75574
791,-69,73.4143,4.1062,0.0557888,0.028231,-0.0168589,0.0637833,0.0202365,-0.442796,0.0376361,0.0418234,2015,1093,73.4143,-4.10618
798,-69,73.9512,3.3595,0.0752694,0.0324402,-0.0247267,0.0865656,0.0211441,-0.428528,0.0521124,0.0444478,2022,1093,73.9513,-3.3595
805,-69,74.5193,2.77173,0.098024,0.0359678,-0.0350948,0.11384,0.0201516,-0.423411,0.0701478,0.0445171,2029,1093,74.5193,-2.77169
812,-69,74.8987,2.40137,0,0,0,0,0,0,0,-1,2036,1093,74.8987,-2.40131
-700,-76,0,0,0,0,0,0,0,0,0,-1,524,1100,0,0
-693,-76,-54.1625,1.10803,0,0,0,0,0,0,0,-1,531,1100,-54.1625,-1.10801
-686,-76,-53.7427,-2.37927,0,0,0,0,0,0,0,-1,538,1100,-53.7427,2.37933
-679,-76,-58.6841,-0.268433,0,0,0,0,0,0,0,-1,545,1100,-58.6841,0.268455
-672,-76,-55.0846,1.41748,0,0,0,0,0,0,0,-1,552,1100,-55.0846,-1.41751
-665,-76,-56.4724,2.71436,0,0,0,0,0,0,0,-1,559,1100,-56.4724,-2.7143
-658,-76,-56.3342,2.80078,0,0,0,0,0,0,0,-1,566,1100,-56.3342,-2.80072
-651,-76,-55.1196,3.9519,0,0,0,0,0,0,0,-1,573,1100,-55.1196,-3.95193
-644,-76,-56.7282,3.95349,0,0,0,0,0,0,0,-1,580,1100,-56.7282,-3.95352
-637,-76,-56.7878,4.51245,-0.00382546,0.0120585,0.00957433,0.0165561,-0.00832304,1.13164,0.0146238,0.0252469,587,1100,-56.7878,-4.51249
-630,-76,-56.8317,5.02551,-0.00303484,0.0087036,0.00552982,0.0108983,-0.00522953,1.19298,0.0095012,0.0170377,594,1100,-56.8316,-5.0255
-623,-76,-56.8752,5.5426,-0.00229509,0.00531714,0.00214405,0.00587949,-0.00285744,1.31429,0.00514387,0.0225156,601,1100,-56.8752,-5.54258
-616,-76,-56.9623,6.12134,-0.00184203,0.00186376,-0.000154159,0.00187016,-0.00184843,-1.52929,0.00214694,0.0236043,608,1100,-56.9624,-6.12139
-609,-76,-56.9823,6.61121,-0.0015106,-0.000188363,-0.00112033,0.000451367,-0.00215033,-1.05196,0.0016053,0.0223881,615,1100,-56.9823,-6.61124
-602,-76,-56.9032,7.13916,-0.00100686,-0.001422,-0.00155,0.000349406,-0.00277827,-0.718837,0.00197896,0.0219011,622,1100,-56.9032,-7.13919
-595,-76,-56.9249,7.58215,-0.000657443,-0.00215381,-0.00191567,0.000650964,-0.00346221,-0.599227,0.00255295,0.0420559,629,1100,-56.9249,-7.58209
-588,-76,-57.0818,7.98682,0,0,0,0,0,0,0,-1,636,1100,-57.0819,-7.9868
-581,-76,-59.7072,0.160889,0,0,0,0,0,0,0,-1,643,1100,-59.7072,-0.16093
-574,-76,-59.6351,0.100708,0.00135264,-0.00470471,-0.00147724,0.0016937,-0.00504577,-0.226901,0.00404829,0.0360384,650,1100,-59.6351,-0.100698
-567,-76,-59.5731,0.187134,0.00189424,-0.00502321,-0.00124645,0.00211198,-0.00524095,-0.172946,0.00437147,0.0403977,657,1100,-59.573,-0.18708
-560,-76,-59.6957,0.462402,0.0023278,-0.00504703,-0.00100859,0.00246325,-0.00518247,-0.133496,0.00450636,0.0409099,664,1100,-59.6957,-0.462364
-553,-76,-59.8177,0.4729,0.002806,-0.00485918,-0.000649492,0.00286065,-0.00491383,-0.0839353,0.00454047,0.0414855,671,1100,-59.8177,-0.47287
-546,-76,-59.7352,0.423218,0.00387752,-0.00466814,-0.000235806,0.00388402,-0.00467464,-0.0275657,0.00494837,0.0389324,678,1100,-59.7352,-0.423278
-539,-76,-59.7175,0.324341,0.00631906,-0.00519809,8.23417e-05,0.00631964,-0.00519868,0.007149,0.0066606,0.0395994,685,1100,-59.7175,-0.324333
-532,-76,-59.4377,0.296631,0.00880449,-0.00558155,0.000657044,0.00883443,-0.00561149,0.0455459,0.00840927,0.0418311,692,1100,-59.4377,-0.296621
-525,-76,0,0,0,0,0,0,0,0,0,-1,699,1100,0,0
-518,-76,0,0,0,0,0,0,0,0,0,-1,706,1100,0,0
-511,-76,0,0,0,0,0,0,0,0,0,-1,713,1100,0,0
-504,-76,0,0,0,0,0,0,0,0,0,-1,720,1100,0,0
-497,-76,0,0,0,0,0,0,0,0,0,-1,727,1100,0,0
-490,-76,0,0,0,0,0,0,0,0,0,-1,734,1100,0,0
-483,-76,0,0,0,0,0,0,0,0,0,-1,741,1100,0,0
-476,-76,0,0,0,0,0,0,0,0,0,-1,748,1100,0,0
-469,-76,0,0,0,0,0,0,0,0,0,-1,755,1100,0,0
-462,-76,0,0,0,0,0,0,0,0,0,-1,762,1100,0,0
-455,-76,0,0,0,0,0,0,0,0,0,-1,769,1100,0,0
-448,-76,0,0,0,0,0,0,0,0,0,-1,776,1100,0,0
-441,-76,0,0,0,0,0,0,0,0,0,-1,783,1100,0,0
-434,-76,0,0,0,0,0,0,0,0,0,-1,790,1100,0,0
-427,-76,0,0,0,0,0,0,0,0,0,-1,797,1100,0,0
-420,-76,0,0,0,0,0,0,0,0,0,-1,804,1100,0,0
-413,-76,0,0,0,0,0,0,0,0,0,-1,811,1100,0,0
-406,-76,0,0,0,0,0,0,0,0,0,-1,818,1100,0,0
-399,-76,0,0,0,0,0,0,0,0,0,-1,825,1100,0,0
-392,-76,0,0,0,0,0,0,0,0,0,-1,832,1100,0,0
-385,-76,0,0,0,0,0,0,0,0,0,-1,839,1100,0,0
-378,-76,0,0,0,0,0,0,0,0,0,-1,846,1100,0,0
-371,-76,0,0,0,0,0,0,0,0,0,-1,853,1100,0,0
-364,-76,0,0,0,0,0,0,0,0,0,-1,860,1100,0,0
-357,-76,0,0,0,0,0,0,0,0,0,-1,867,1100,0,0
-350,-76,0,0,0,0,0,0,0,0,0,-1,874,1100,0,0
-343,-76,0,0,0,0,0,0,0,0,0,-1,881,1100,0,0
-336,-76,0,0,0,0,0,0,0,0,0,-1,888,1100,0,0
-329,-76,0,0,0,0,0,0,0,0,0,-1,895,1100,0,0
-322,-76,0,0,0,0,0,0,0,0,0,-1,902,1100,0,0
-315,-76,0,0,0,0,0,0,0,0,0,-1,909,1100,0,0
-308,-76,0,0,0,0,0,0,0,0,0,-1,916,1100,0,0
-301,-76,0,0,0,0,0,0,0,0,0,-1,923,1100,0,0
-294,-76,0,0,0,0,0,0,0,0,0,-1,930,1100,0,0
-287,-76,0,0,0,0,0,0,0,0,0,-1,937,1100,0,0
-280,-76,0,0,0,0,0,0,0,0,0,-1,944,1100,0,0
-273,-76,0,0,0,0,0,0,0,0,0,-1,951,1100,0,0
-266,-76,0,0,0,0,0,0,0,0,0,-1,958,1100,0,0
-259,-76,0,0,0,0,0,0,0,0,0,-1,965,1100,0,0
-252,-76,0,0,0,0,0,0,0,0,0,-1,972,1100,0,0
-245,-76,0,0,0,0,0,0,0,0,0,-1,979,1100,0,0
-238,-76,0,0,0,0,0,0,0,0,0,-1,986,1100,0,0
-231,-76,0,0,0,0,0,0,0,0,0,-1,993,1100,0,0
-224,-76,0,0,0,0,0,0,0,0,0,-1,1000,1100,0,0
-217,-76,0,0,0,0,0,0,0,0,0,-1,1007,1100,0,0
-210,-76,0,0,0,0,0,0,0,0,0,-1,1014,1100,0,0
-203,-76,0,0,0,0,0,0,0,0,0,-1,1021,1100,0,0
-196,-76,0,0,0,0,0,0,0,0,0,-1,1028,1100,0,0
-189,-76,0,0,0,0,0,0,0,0,0,-1,1035,1100,0,0
-182,-76,0,0,0,0,0,0,0,0,0,-1,1042,1100,0,0
-175,-76,0,0,0,0,0,0,0,0,0,-1,1049,1100,0,0
-168,-76,0,0,0,0,0,0,0,0,0,-1,1056,1100,0,0
-161,-76,0,0,0,0,0,0,0,0,0,-1,1063,1100,0,0
-154,-76,0,0,0,0,0,0,0,0,0,-1,1070,1100,0,0
-147,-76,0,0,0,0,0,0,0,0,0,-1,1077,1100,0,0
-140,-76,0,0,0,0,0,0,0,0,0,-1,1084,1100,0,0
-133,-76,0,0,0,0,0,0,0,0,0,-1,1091,1100,0,0
-126,-76,0,0,0,0,0,0,0,0,0,-1,1098,1100,0,0
-119,-76,0,0,0,0,0,0,0,0,0,-1,1105,1100,0,0
-112,-76,0,0,0,0,0,0,0,0,0,-1,1112,1100,0,0
-105,-76,0,0,0,0,0,0,0,0,0,-1,1119,1100,0,0
-98,-76,0,0,0,0,0,0,0,0,0,-1,1126,1100,0,0
-91,-76,0,0,0,0,0,0,0,0,0,-1,1133,1100,0,0
-84,-76,0,0,0,0,0,0,0,0,0,-1,1140,1100,0,0
-77,-76,0,0,0,0,0,0,0,0,0,-1,1147,1100,0,0
-70,-76,0,0,0,0,0,0,0,0,0,-1,1154,1100,0,0
-63,-76,0,0,0,0,0,0,0,0,0,-1,1161,1100,0,0
-56,-76,0,0,0,0,0,0,0,0,0,-1,1168,1100,0,0
-49,-76,0,0,0,0,0,0,0,0,0,-1,1175,1100,0,0
-42,-76,0,0,0,0,0,0,0,0,0,-1,1182,1100,0,0
-35,-76,0,0,0,0,0,0,0,0,0,-1,1189,1100,0,0
-28,-76,0,0,0,0,0,0,0,0,0,-1,1196,1100,0,0
-21,-76,0,0,0,0,0,0,0,0,0,-1,1203,1100,0,0
-14,-76,0,0,0,0,0,0,0,0,0,-1,1210,1100,0,0
-7,-76,0,0,0,0,0,0,0,0,0,-1,1217,1100,0,0
0,-76,0,0,0,0,0,0,0,0,0,-1,1224,1100,0,0
7,-76,0,0,0,0,0,0,0,0,0,-1,1231,1100,0,0
14,-76,0,0,0,0,0,0,0,0,0,-1,1238,1100,0,0
21,-76,0,0,0,0,0,0,0,0,0,-1,1245,1100,0,0
28,-76,0,0,0,0,0,0,0,0,0,-1,1252,1100,0,0
35,-76,0,0,0,0,0,0,0,0,0,-1,1259,1100,0,0
42,-76,0,0,0,0,0,0,0,0,0,-1,1266,1100,0,0
49,-76,0,0,0,0,0,0,0,0,0,-1,1273,1100,0,0
56,-76,0,0,0,0,0,0,0,0,0,-1,1280,1100,0,0
63,-76,0,0,0,0,0,0,0,0,0,-1,1287,1100,0,0
70,-76,0,0,0,0,0,0,0,0,0,-1,1294,1100,0,0
77,-76,0,0,0,0,0,0,0,0,0,-1,1301,1100,0,0
84,-76,0,0,0,0,0,0,0,0,0,-1,1308,1100,0,0
91,-76,0,0,0,0,0,0,0,0,0,-1,1315,1100,0,0
98,-76,0,0,0,0,0,0,0,0,0,-1,1322,1100,0,0
105,-76,0,0,0,0,0,0,0,0,0,-1,1329,1100,0,0
112,-76,0,0,0,0,0,0,0,0,0,-1,1336,1100,0,0
119,-76,0,0,0,0,0,0,0,0,0,-1,1343,1100,0,0
126,-76,0,0,0,0,0,0,0,0,0,-1,1350,1100,0,0
133,-76,0,0,0,0,0,0,0,0,0,-1,1357,1100,0,0
140,-76,0,0,0,0,0,0,0,0,0,-1,1364,1100,0,0
147,-76,0,0,0,0,0,0,0,0,0,-1,1371,1100,0,0
154,-76,0,0,0,0,0,0,0,0,0,-1,1378,1100,0,0
161,-76,0,0,0,0,0,0,0,0,0,-1,1385,1100,0,0
168,-76,0,0,0,0,0,0,0,0,0,-1,1392,1100,0,0
175,-76,0,0,0,0,0,0,0,0,0,-1,1399,1100,0,0
182,-76,0,0,0,0,0,0,0,0,0,-1,1406,1100,0,0
189,-76,0,0,0,0,0,0,0,0,0,-1,1413,1100,0,0
196,-76,0,0,0,0,0,0,0,0,0,-1,1420,1100,0,0
203,-76,0,0,0,0,0,0,0,0,0,-1,1427,1100,0,0
210,-76,0,0,0,0,0,0,0,0,0,-1,1434,1100,0,0
217,-76,0,0,0,0,0,0,0,0,0,-1,1441,1100,0,0
224,-76,0,0,0,0,0,0,0,0,0,-1,1448,1100,0,0
231,-76,0,0,0,0,0,0,0,0,0,-1,1455,1100,0,0
238,-76,0,0,0,0,0,0,0,0,0,-1,1462,1100,0,0
245,-76,0,0,0,0,0,0,0,0,0,-1,1469,1100,0,0
252,-76,0,0,0,0,0,0,0,0,0,-1,1476,1100,0,0
259,-76,0,0,0,0,0,0,0,0,0,-1,1483,1100,0,0
266,-76,0,0,0,0,0,0,0,0,0,-1,1490,1100,0,0
273,-76,0,0,0,0,0,0,0,0,0,-1,1497,1100,0,0
280,-76,0,0,0,0,0,0,0,0,0,-1,1504,1100,0,0
287,-76,0,0,0,0,0,0,0,0,0,-1,1511,1100,0,0
294,-76,0,0,0,0,0,0,0,0,0,-1,1518,1100,0,0
301,-76,0,0,0,0,0,0,0,0,0,-1,1525,1100,0,0
308,-76,0,0,0,0,0,0,0,0,0,-1,1532,1100,0,0
315,-76,0,0,0,0,0,0,0,0,0,-1,1539,1100,0,0
322,-76,0,0,0,0,0,0,0,0,0,-1,1546,1100,0,0
329,-76,0,0,0,0,0,0,0,0,0,-1,1553,1100,0,0
336,-76,0,0,0,0,0,0,0,0,0,-1,1560,1100,0,0
343,-76,0,0,0,0,0,0,0,0,0,-1,1567,1100,0,0
350,-76,0,0,0,0,0,0,0,0,0,-1,1574,1100,0,0
357,-76,0,0,0,0,0,0,0,0,0,-1,1581,1100,0,0
364,-76,0,0,0,0,0,0,0,0,0,-1,1588,1100,0,0
371,-76,0,0,0,0,0,0,0,0,0,-1,1595,1100,0,0
378,-76,0,0,0,0,0,0,0,0,0,-1,1602,1100,0,0
385,-76,0,0,0,0,0,0,0,0,0,-1,1609,1100,0,0
392,-76,0,0,0,0,0,0,0,0,0,-1,1616,1100,0,0
399,-76,0,0,0,0,0,0,0,0,0,-1,1623,1100,0,0
406,-76,0,0,0,0,0,0,0,0,0,-1,1630,1100,0,0
413,-76,0,0,0,0,0,0,0,0,0,-1,1637,1100,0,0
420,-76,0,0,0,0,0,0,0,0,0,-1,1644,1100,0,0
427,-76,0,0,0,0,0,0,0,0,0,-1,1651,1100,0,0
434,-76,0,0,0,0,0,0,0,0,0,-1,1658,1100,0,0
441,-76,0,0,0,0,0,0,0,0,0,-1,1665,1100,0,0
448,-76,0,0,0,0,0,0,0,0,0,-1,1672,1100,0,0
455,-76,0,0,0,0,0,0,0,0,0,-1,1679,1100,0,0
462,-76,0,0,0,0,0,0,0,0,0,-1,1686,1100,0,0
469,-76,0,0,0,0,0,0,0,0,0,-1,1693,1100,0,0
476,-76,0,0,0,0,0,0,0,0,0,-1,1700,1100,0,0
483,-76,0,0,0,0,0,0,0,0,0,-1,1707,1100,0,0
490,-76,0,0,0,0,0,0,0,0,0,-1,1714,1100,0,0
497,-76,0,0,0,0,0,0,0,0,0,-1,1721,1100,0,0
504,-76,0,0,0,0,0,0,0,0,0,-1,1728,1100,0,0
511,-76,0,0,0,0,0,0,0,0,0,-1,1735,1100,0,0
518,-76,0,0,0,0,0,0,0,0,0,-1,1742,1100,0,0
525,-76,0,0,0,0,0,0,0,0,0,-1,1749,1100,0,0
532,-76,0,0,0,0,0,0,0,0,0,-1,1756,1100,0,0
539,-76,0,0,0,0,0,0,0,0,0,-1,1763,1100,0,0
546,-76,0,0,0,0,0,0,0,0,0,-1,1770,1100,0,0
553,-76,0,0,0,0,0,0,0,0,0,-1,1777,1100,0,0
560,-76,0,0,0,0,0,0,0,0,0,-1,1784,1100,0,0
567,-76,0,0,0,0,0,0,0,0,0,-1,1791,1100,0,0
574,-76,0,0,0,0,0,0,0,0,0,-1,1798,1100,0,0
581,-76,0,0,0,0,0,0,0,0,0,-1,1805,1100,0,0
588,-76,0,0,0,0,0,0,0,0,0,-1,1812,1100,0,0
595,-76,0,0,0,0,0,0,0,0,0,-1,1819,1100,0,0
602,-76,0,0,0,0,0,0,0,0,0,-1,1826,1100,0,0
609,-76,0,0,0,0,0,0,0,0,0,-1,1833,1100,0,0
616,-76,0,0,0,0,0,0,0,0,0,-1,1840,1100,0,0
623,-76,0,0,0,0,0,0,0,0,0,-1,1847,1100,0,0
630,-76,0,0,0,0,0,0,0,0,0,-1,1854,1100,0,0
637,-76,0,0,0,0,0,0,0,0,0,-1,1861,1100,0,0
644,-76,0,0,0,0,0,0,0,0,0,-1,1868,1100,0,0
651,-76,76.3452,1.98401,9.77663e-05,-0.000534354,-6.66862e-05,0.000104725,-0.000541312,-0.103971,0.000400375,0.0398422,1875,1100,76.3453,-1.98396
658,-76,76.3712,1.94946,0.000529388,-0.000253926,0.000152405,0.000557996,-0.000282534,0.18555,0.000493891,0.0439347,1882,1100,76.3712,-1.94948
665,-76,76.3461,1.91162,0.000725597,-7.68632e-05,0.000110619,0.000740567,-9.18328e-05,0.134508,0.000526996,0.0390579,1889,1100,76.346,-1.91168
672,-76,76.0817,2.16248,0.000840081,5.78158e-05,-0.00011832,0.000857585,4.03113e-05,-0.146877,0.000558771,0.0364497,1896,1100,76.0817,-2.16247
679,-76,76.1766,2.2627,0.000914963,0.000102227,-0.000443598,0.00111019,-9.29981e-05,-0.414586,0.000772992,0.0363529,1903,1100,76.1766,-2.2627
686,-76,76.3845,2.1875,0.000649581,-0.000231546,-0.000617659,0.0009677,-0.000549664,-0.475607,0.000887064,0.0364051,1910,1100,76.3846,-2.18746
693,-76,76.3693,2.03076,0.000450009,-0.000660715,-0.000568636,0.000689489,-0.000900195,-0.398604,0.000920488,0.0373737,1917,1100,76.3693,-2.03077
700,-76,76.3285,1.91956,0.00035401,-0.000897635,-0.000311557,0.000427274,-0.000970899,-0.230957,0.000827324,0.0331245,1924,1100,76.3284,-1.91958
707,-76,76.3097,2.00305,-5.5869e-05,-0.000908529,5.04459e-05,-5.28949e-05,-0.000911503,0.0588892,0.000590827,0.026103,1931,1100,76.3097,-2.00307
714,-76,76.3698,2.01392,0,0,0,0,0,0,0,-1,1938,1100,76.3698,-2.01394
721,-76,45.1713,3.04919,0,0,0,0,0,0,0,-1,1945,1100,45.1713,-3.04915
728,-76,60.937,8.08447,0,0,0,0,0,0,0,-1,1952,1100,60.937,-8.08446
735,-76,72.7043,8.36328,0,0,0,0,0,0,0,-1,1959,1100,72.7043,-8.36333
742,-76,72.8169,7.78613,-0.00182979,0.00220798,0.00151191,0.00271135,-0.00233316,1.2494,0.00291518,0.0367825,1966,1100,72.8169,-7.78612
749,-76,72.6921,7.20776,0.000154175,0.004124,0.00178143,0.00480618,-0.000528002,1.20508,0.00339384,0.0335773,1973,1100,72.6922,-7.20781
756,-76,72.761,6.68762,0.00285368,0.0066163,0.00132132,0.00703395,0.00243603,1.26465,0.00412449,0.0186498,1980,1100,72.7611,-6.68761
763,-76,72.6819,6.15869,0.00776525,0.0100569,-3.35752e-05,0.0100574,0.00776476,-1.55615,0.00608638,0.019434,1987,1100,72.6819,-6.15868
770,-76,72.5583,5.67383,0.0163727,0.014941,-0.00251678,0.0182734,0.0130402,-0.64684,0.0108664,0.01965,1994,1100,72.5584,-5.67387
777,-76,72.4246,5.30554,0.0280242,0.0205215,-0.00607167,0.0314099,0.0171357,-0.508678,0.0181596,0.0230193,2001,1100,72.4245,-5.30552
784,-76,72.5432,4.64099,0.0417885,0.0262357,-0.0105167,0.0470916,0.0209326,-0.467045,0.0272441,0.0334945,2008,1100,72.5431,-4.641
791,-76,73.1504,3.95264,0.0581107,0.0320092,-0.0162402,0.0658942,0.0242257,-0.44693,0.0384858,0.0392061,2015,1100,73.1505,-3.95258
798,-76,73.845,3.2533,0.0778155,0.0377235,-0.0238883,0.0889543,0.0265847,-0.436316,0.0527248,0.0422995,2022,1100,73.845,-3.25324
805,-76,74.4636,2.38928,0.100683,0.0429884,-0.0340397,0.116455,0.0272165,-0.433891,0.0703418,0.0447271,2029,1100,74.4637,-2.38934
812,-76,74.582,2.08179,0,0,0,0,0,0,0,-1,2036,1100,74.582,-2.08177
-700,-83,0,0,0,0,0,0,0,0,0,-1,524,1107,0,0
-693,-83,-53.7899,0.115112,-0.0546191,0.0465056,0.0365254,0.0583184,-0.0664319,1.258,0.0720753,0.0480269,531,1107,-53.7899,-0.115103
-686,-83,-54.4491,0.909912,0,0,0,0,0,0,0,-1,538,1107,-54.4491,-0.909879
-679,-83,-54.5957,0.18396,0,0,0,0,0,0,0,-1,545,1107,-54.5957,-0.183991
-672,-83,-54.8747,1.11279,-0.0174833,0.027612,0.0353426,0.0469869,-0.0368581,1.06934,0.0485255,0.0465579,552,1107,-54.8747,-1.11284
-665,-83,-55.4929,2.17871,-0.0122654,0.0241527,0.0305247,0.041487,-0.0295996,1.05433,0.0412327,0.044606,559,1107,-55.4929,-2.17873
-658,-83,-55.858,2.71851,-0.0089727,0.0210579,0.0252469,0.0354171,-0.0233319,1.05367,0.0341572,0.0477768,566,1107,-55.858,-2.71854
-651,-83,-55.4966,3.57739,0,0,0,0,0,0,0,-1,573,1107,-55.4967,-3.57737
-644,-83,-55.9171,3.96533,-0.00551431,0.014593,0.0145822,0.0222514,-0.0131727,1.0872,0.0206748,0.0334616,580,1107,-55.917,-3.96538
-637,-83,-56.1612,4.44299,-0.00424216,0.0104002,0.00964872,0.0151909,-0.00903285,1.10994,0.0141354,0.0165019,587,1107,-56.1612,-4.44302
-630,-83,-56.2164,5.03943,-0.00359691,0.0071782,0.00515987,0.00925054,-0.00566926,1.18889,0.00869627,0.0186444,594,1107,-56.2164,-5.0394
-623,-83,-56.28,5.54602,-0.0029532,0.00388518,0.00166524,0.00426913,-0.00333715,1.34419,0.00440247,0.0224702,601,1107,-56.28,-5.54598
-616,-83,-56.4271,6.09778,-0.00258152,0.000973621,-0.000328152,0.00100366,-0.00261156,-1.47952,0.00215496,0.018741,608,1107,-56.4271,-6.09772
-609,-83,-56.3844,6.63501,-0.00226827,-0.000513964,-0.000974489,-8.00012e-05,-0.00270224,-1.15184,0.00177542,0.0234836,615,1107,-56.3844,-6.63507
-602,-83,-56.3505,7.25525,-0.00183728,-0.00122403,-0.00126556,-0.000228477,-0.00283283,-0.904251,0.00181719,0.0202523,622,1107,-56.3504,-7.25524
-595,-83,-56.2885,7.8158,-0.00158335,-0.00160078,-0.00160583,1.37879e-05,-0.00319792,-0.782685,0.00213656,0.031264,629,1107,-56.2885,-7.81574
-588,-83,-56.405,8.22852,0,0,0,0,0,0,0,-1,636,1107,-56.405,-8.2285
-581,-83,-59.7475,0.214722,0,0,0,0,0,0,0,-1,643,1107,-59.7475,-0.214736
-574,-83,-59.5856,0.17627,0.000683114,-0.00425727,-0.00122467,0.000970035,-0.00454419,-0.230133,0.00339926,0.0359486,650,1107,-59.5856,-0.176317
-567,-83,-59.534,0.30542,0.00139071,-0.00462265,-0.00105234,0.00156955,-0.00480149,-0.168337,0.00383284,0.0410158,657,1107,-59.534,-0.305363
-560,-83,-59.6887,0.442261,0.00202641,-0.00471057,-0.000898842,0.00214427,-0.00482843,-0.130381,0.00412392,0.0412266,664,1107,-59.6886,-0.442217
-553,-83,-59.7004,0.391479,0.00264493,-0.00463639,-0.00059103,0.0026926,-0.00468405,-0.0804686,0.00431033,0.0422456,671,1107,-59.7004,-0.39142
-546,-83,-59.7311,0.544067,0.00384347,-0.00463101,-0.000151767,0.00384619,-0.00463373,-0.0179011,0.00490291,0.0401137,678,1107,-59.7311,-0.544021
-539,-83,-59.7607,0.579834,0.00642801,-0.00545887,0.000330154,0.00643717,-0.00546804,0.0277461,0.00688106,0.0406084,685,1107,-59.7608,-0.579867
-532,-83,-59.5338,0.299072,0.00911367,-0.00619936,0.0011062,0.00919317,-0.00627886,0.0717425,0.00898545,0.0428289,692,1107,-59.5338,-0.299101
-525,-83,0,0,0,0,0,0,0,0,0,-1,699,1107,0,0
-518,-83,0,0,0,0,0,0,0,0,0,-1,706,1107,0,0
-511,-83,0,0,0,0,0,0,0,0,0,-1,713,1107,0,0
-504,-83,0,0,0,0,0,0,0,0,0,-1,720,1107,0,0
-497,-83,0,0,0,0,0,0,0,0,0,-1,727,1107,0,0
-490,-83,0,0,0,0,0,0,0,0,0,-1,734,1107,0,0
-483,-83,0,0,0,0,0,0,0,0,0,-1,741,1107,0,0
-476,-83,0,0,0,0,0,0,0,0,0,-1,748,1107,0,0
-469,-83,0,0,0,0,0,0,0,0,0,-1,755,1107,0,0
-462,-83,0,0,0,0,0,0,0,0,0,-1,762,1107,0,0
-455,-83,0,0,0,0,0,0,0,0,0,-1,769,1107,0,0
-448,-83,0,0,0,0,0,0,0,0,0,-1,776,1107,0,0
-441,-83,0,0,0,0,0,0,0,0,0,-1,783,1107,0,0
-434,-83,0,0,0,0,0,0,0,0,0,-1,790,1107,0,0
-427,-83,0,0,0,0,0,0,0,0,0,-1,797,1107,0,0
-420,-83,0,0,0,0,0,0,0,0,0,-1,804,1107,0,0
-413,-83,0,0,0,0,0,0,0,0,0,-1,811,1107,0,0
-406,-83,0,0,0,0,0,0,0,0,0,-1,818,1107,0,0
-399,-83,0,0,0,0,0,0,0,0,0,-1,825,1107,0,0
-392,-83,0,0,0,0,0,0,0,0,0,-1,832,1107,0,0
-385,-83,0,0,0,0,0,0,0,0,0,-1,839,1107,0,0
-378,-83,0,0,0,0,0,0,0,0,0,-1,846,1107,0,0
-371,-83,0,0,0,0,0,0,0,0,0,-1,853,1107,0,0
-364,-83,0,0,0,0,0,0,0,0,0,-1,860,1107,0,0
-357,-83,0,0,0,0,0,0,0,0,0,-1,867,1107,0,0
-350,-83,0,0,0,0,0,0,0,0,0,-1,874,1107,0,0
-343,-83,0,0,0,0,0,0,0,0,0,-1,881,1107,0,0
-336,-83,0,0,0,0,0,0,0,0,0,-1,888,1107,0,0
-329,-83,0,0,0,0,0,0,0,0,0,-1,895,1107,0,0
-322,-83,0,0,0,0,0,0,0,0,0,-1,902,1107,0,0
-315,-83,0,0,0,0,0,0,0,0,0,-1,909,1107,0,0
-308,-83,0,0,0,0,0,0,0,0,0,-1,916,1107,0,0
-301,-83,0,0,0,0,0,0,0,0,0,-1,923,1107,0,0
-294,-83,0,0,0,0,0,0,0,0,0,-1,930,1107,0,0
-287,-83,0,0,0,0,0,0,0,0,0,-1,937,1107,0,0
-280,-83,0,0,0,0,0,0,0,0,0,-1,944,1107,0,0
-273,-83,0,0,0,0,0,0,0,0,0,-1,951,1107,0,0
-266,-83,0,0,0,0,0,0,0,0,0,-1,958,1107,0,0
-259,-83,0,0,0,0,0,0,0,0,0,-1,965,1107,0,0
-252,-83,0,0,0,0,0,0,0,0,0,-1,972,1107,0,0
-245,-83,0,0,0,0,0,0,0,0,0,-1,979,1107,0,0
-238,-83,0,0,0,0,0,0,0,0,0,-1,986,1107,0,0
-231,-83,0,0,0,0,0,0,0,0,0,-1,993,1107,0,0
-224,-83,0,0,0,0,0,0,0,0,0,-1,1000,1107,0,0
-217,-83,0,0,0,0,0,0,0,0,0,-1,1007,1107,0,0
-210,-83,0,0,0,0,0,0,0,0,0,-1,1014,1107,0,0
-203,-83,0,0,0,0,0,0,0,0,0,-1,1021,1107,0,0
-196,-83,0,0,0,0,0,0,0,0,0,-1,1028,1107,0,0
-189,-83,0,0,0,0,0,0,0,0,0,-1,1035,1107,0,0
-182,-83,0,0,0,0,0,0,0,0,0,-1,1042,1107,0,0
-175,-83,0,0,0,0,0,0,0,0,0,-1,1049,1107,0,0
-168,-83,0,0,0,0,0,0,0,0,0,-1,1056,1107,0,0
-161,-83,0,0,0,0,0,0,0,0,0,-1,1063,1107,0,0
-154,-83,0,0,0,0,0,0,0,0,0,-1,1070,1107,0,0
-147,-83,0,0,0,0,0,0,0,0,0,-1,1077,1107,0,0
-140,-83,0,0,0,0,0,0,0,0,0,-1,1084,1107,0,0
-133,-83,0,0,0,0,0,0,0,0,0,-1,1091,1107,0,0
-126,-83,0,0,0,0,0,0,0,0,0,-1,1098,1107,0,0
-119,-83,0,0,0,0,0,0,0,0,0,-1,1105,1107,0,0
-112,-83,0,0,0,0,0,0,0,0,0,-1,1112,1107,0,0
-105,-83,0,0,0,0,0,0,0,0,0,-1,1119,1107,0,0
-98,-83,0,0,0,0,0,0,0,0,0,-1,1126,1107,0,0
-91,-83,0,0,0,0,0,0,0,0,0,-1,1133,1107,0,0
-84,-83,0,0,0,0,0,0,0,0,0,-1,1140,1107,0,0
-77,-83,0,0,0,0,0,0,0,0,0,-1,1147,1107,0,0
-70,-83,0,0,0,0,0,0,0,0,0,-1,1154,1107,0,0
-63,-83,0,0,0,0,0,0,0,0,0,-1,1161,1107,0,0
-56,-83,0,0,0,0,0,0,0,0,0,-1,1168,1107,0,0
-49,-83,0,0,0,0,0,0,0,0,0,-1,1175,1107,0,0
-42,-83,0,0,0,0,0,0,0,0,0,-1,1182,1107,0,0
-35,-83,0,0,0,0,0,0,0,0,0,-1,1189,1107,0,0
-28,-83,0,0,0,0,0,0,0,0,0,-1,1196,1107,0,0
-21,-83,0,0,0,0,0,0,0,0,0,-1,1203,1107,0,0
-14,-83,0,0,0,0,0,0,0,0,0,-1,1210,1107,0,0
-7,-83,0,0,0,0,0,0,0,0,0,-1,1217,1107,0,0
0,-83,0,0,0,0,0,0,0,0,0,-1,1224,1107,0,0
7,-83,0,0,0,0,0,0,0,0,0,-1,1231,1107,0,0
14,-83,0,0,0,0,0,0,0,0,0,-1,1238,1107,0,0
21,-83,0,0,0,0,0,0,0,0,0,-1,1245,1107,0,0
28,-83,0,0,0,0,0,0,0,0,0,-1,1252,1107,0,0
35,-83,0,0,0,0,0,0,0,0,0,-1,1259,1107,0,0
42,-83,0,0,0,0,0,0,0,0,0,-1,1266,1107,0,0
49,-83,0,0,0,0,0,0,0,0,0,-1,1273,1107,0,0
56,-83,0,0,0,0,0,0,0,0,0,-1,1280,1107,0,0
63,-83,0,0,0,0,0,0,0,0,0,-1,1287,1107,0,0
70,-83,0,0,0,0,0,0,0,0,0,-1,1294,1107,0,0
77,-83,0,0,0,0,0,0,0,0,0,-1,1301,1107,0,0
84,-83,0,0,0,0,0,0,0,0,0,-1,1308,1107,0,0
91,-83,0,0,0,0,0,0,0,0,0,-1,1315,1107,0,0
98,-83,0,0,0,0,0,0,0,0,0,-1,1322,1107,0,0
105,-83,0,0,0,0,0,0,0,0,0,-1,1329,1107,0,0
112,-83,0,0,0,0,0,0,0,0,0,-1,1336,1107,0,0
119,-83,0,0,0,0,0,0,0,0,0,-1,1343,1107,0,0
126,-83,0,0,0,0,0,0,0,0,0,-1,1350,1107,0,0
133,-83,0,0,0,0,0,0,0,0,0,-1,1357,1107,0,0
140,-83,0,0,0,0,0,0,0,0,0,-1,1364,1107,0,0
147,-83,0,0,0,0,0,0,0,0,0,-1,1371,1107,0,0
154,-83,0,0,0,0,0,0,0,0,0,-1,1378,1107,0,0
161,-83,0,0,0,0,0,0,0,0,0,-1,1385,1107,0,0
168,-83,0,0,0,0,0,0,0,0,0,-1,1392,1107,0,0
175,-83,0,0,0,0,0,0,0,0,0,-1,1399,1107,0,0
182,-83,0,0,0,0,0,0,0,0,0,-1,1406,1107,0,0
189,-83,0,0,0,0,0,0,0,0,0,-1,1413,1107,0,0
196,-83,0,0,0,0,0,0,0,0,0,-1,1420,1107,0,0
203,-83,0,0,0,0,0,0,0,0,0,-1,1427,1107,0,0
210,-83,0,0,0,0,0,0,0,0,0,-1,1434,1107,0,0
217,-83,0,0,0,0,0,0,0,0,0,-1,1441,1107,0,0
224,-83,0,0,0,0,0,0,0,0,0,-1,1448,1107,0,0
231,-83,0,0,0,0,0,0,0,0,0,-1,1455,1107,0,0
238,-83,0,0,0,0,0,0,0,0,0,-1,1462,1107,0,0
245,-83,0,0,0,0,0,0,0,0,0,-1,1469,1107,0,0
252,-83,0,0,0,0,0,0,0,0,0,-1,1476,1107,0,0
259,-83,0,0,0,0,0,0,0,0,0,-1,1483,1107,0,0
266,-83,0,0,0,0,0,0,0,0,0,-1,1490,1107,0,0
273,-83,0,0,0,0,0,0,0,0,0,-1,1497,1107,0,0
280,-83,0,0,0,0,0,0,0,0,0,-1,1504,1107,0,0
287,-83,0,0,0,0,0,0,0,0,0,-1,1511,1107,0,0
294,-83,0,0,0,0,0,0,0,0,0,-1,1518,1107,0,0
301,-83,0,0,0,0,0,0,0,0,0,-1,1525,1107,0,0
308,-83,0,0,0,0,0,0,0,0,0,-1,1532,1107,0,0
315,-83,0,0,0,0,0,0,0,0,0,-1,1539,1107,0,0
322,-83,0,0,0,0,0,0,0,0,0,-1,1546,1107,0,0
329,-83,0,0,0,0,0,0,0,0,0,-1,1553,1107,0,0
336,-83,0,0,0,0,0,0,0,0,0,-1,1560,1107,0,0
343,-83,0,0,0,0,0,0,0,0,0,-1,1567,1107,0,0
350,-83,0,0,0,0,0,0,0,0,0,-1,1574,1107,0,0
357,-83,0,0,0,0,0,0,0,0,0,-1,1581,1107,0,0
364,-83,0,0,0,0,0,0,0,0,0,-1,1588,1107,0,0
371,-83,0,0,0,0,0,0,0,0,0,-1,1595,1107,0,0
378,-83,0,0,0,0,0,0,0,0,0,-1,1602,1107,0,0
385,-83,0,0,0,0,0,0,0,0,0,-1,1609,1107,0,0
392,-83,0,0,0,0,0,0,0,0,0,-1,1616,1107,0,0
399,-83,0,0,0,0,0,0,0,0,0,-1,1623,1107,0,0
406,-83,0,0,0,0,0,0,0,0,0,-1,1630,1107,0,0
413,-83,0,0,0,0,0,0,0,0,0,-1,1637,1107,0,0
420,-83,0,0,0,0,0,0,0,0,0,-1,1644,1107,0,0
427,-83,0,0,0,0,0,0,0,0,0,-1,1651,1107,0,0
434,-83,0,0,0,0,0,0,0,0,0,-1,1658,1107,0,0
441,-83,0,0,0,0,0,0,0,0,0,-1,1665,1107,0,0
448,-83,0,0,0,0,0,0,0,0,0,-1,1672,1107,0,0
455,-83,0,0,0,0,0,0,0,0,0,-1,1679,1107,0,0
462,-83,0,0,0,0,0,0,0,0,0,-1,1686,1107,0,0
469,-83,0,0,0,0,0,0,0,0,0,-1,1693,1107,0,0
476,-83,0,0,0,0,0,0,0,0,0,-1,1700,1107,0,0
483,-83,0,0,0,0,0,0,0,0,0,-1,1707,1107,0,0
490,-83,0,0,0,0,0,0,0,0,0,-1,1714,1107,0,0
497,-83,0,0,0,0,0,0,0,0,0,-1,1721,1107,0,0
504,-83,0,0,0,0,0,0,0,0,0,-1,1728,1107,0,0
511,-83,0,0,0,0,0,0,0,0,0,-1,1735,1107,0,0
518,-83,0,0,0,0,0,0,0,0,0,-1,1742,1107,0,0
525,-83,0,0,0,0,0,0,0,0,0,-1,1749,1107,0,0
532,-83,0,0,0,0,0,0,0,0,0,-1,1756,1107,0,0
539,-83,0,0,0,0,0,0,0,0,0,-1,1763,1107,0,0
546,-83,0,0,0,0,0,0,0,0,0,-1,1770,1107,0,0
553,-83,0,0,0,0,0,0,0,0,0,-1,1777,1107,0,0
560,-83,0,0,0,0,0,0,0,0,0,-1,1784,1107,0,0
567,-83,0,0,0,0,0,0,0,0,0,-1,1791,1107,0,0
574,-83,0,0,0,0,0,0,0,0,0,-1,1798,1107,0,0
581,-83,0,0,0,0,0,0,0,0,0,-1,1805,1107,0,0
588,-83,0,0,0,0,0,0,0,0,0,-1,1812,1107,0,0
595,-83,0,0,0,0,0,0,0,0,0,-1,1819,1107,0,0
602,-83,0,0,0,0,0,0,0,0,0,-1,1826,1107,0,0
609,-83,0,0,0,0,0,0,0,0,0,-1,1833,1107,0,0
616,-83,0,0,0,0,0,0,0,0,0,-1,1840,1107,0,0
623,-83,0,0,0,0,0,0,0,0,0,-1,1847,1107,0,0
630,-83,0,0,0,0,0,0,0,0,0,-1,1854,1107,0,0
637,-83,0,0,0,0,0,0,0,0,0,-1,1861,1107,0,0
644,-83,76.3716,2.01746,-0.000478891,-0.000403063,-0.00161688,0.00117635,-0.0020583,-0.79712,0.00189052,0.0350712,1868,1107,76.3716,-2.0175
651,-83,76.3234,1.93188,0.000110915,-0.000177959,-0.000603807,0.00058732,-0.000654364,-0.667999,0.000717235,0.0415242,1875,1107,76.3234,-1.93183
658,-83,76.2837,1.86902,0.000542512,-9.87771e-05,-0.000177888,0.000588551,-0.000144816,-0.253254,0.000448502,0.045583,1882,1107,76.2837,-1.86905
665,-83,76.2919,1.85815,0.00075756,-7.67294e-05,-9.42209e-05,0.000768069,-8.72379e-05,-0.111072,0.000543464,0.0397034,1889,1107,76.2919,-1.85814
672,-83,76.2548,2.15442,0.000883373,-7.75532e-05,-0.000251163,0.00094506,-0.000139241,-0.240841,0.000681214,0.0365456,1896,1107,76.2548,-2.1544
679,-83,76.2998,2.32288,0.00098937,-0.000166404,-0.000522402,0.00119049,-0.000367527,-0.367506,0.000940423,0.0377988,1903,1107,76.2998,-2.32285
686,-83,76.377,2.16516,0.000805142,-0.000566197,-0.000672321,0.00107976,-0.000840818,-0.387784,0.0011117,0.0355923,1910,1107,76.3769,-2.16513
693,-83,76.3766,2.10254,0.000699073,-0.000958213,-0.000610656,0.000899775,-0.00115891,-0.317544,0.00119172,0.0355315,1917,1107,76.3766,-2.10253
700,-83,76.3347,2.09607,0.000695682,-0.00114721,-0.000350966,0.000760258,-0.00121179,-0.181961,0.00114847,0.0329088,1924,1107,76.3347,-2.09605
707,-83,76.3303,2.03479,0.000368094,-0.00113114,2.27711e-05,0.000368439,-0.00113149,0.0151838,0.000902562,0.0251771,1931,1107,76.3303,-2.03478
714,-83,76.354,1.93872,0,0,0,0,0,0,0,-1,1938,1107,76.354,-1.93873
721,-83,49.1162,7.36719,0,0,0,0,0,0,0,-1,1945,1107,49.1162,-7.36721
728,-83,66.6315,8.32141,0,0,0,0,0,0,0,-1,1952,1107,66.6314,-8.32147
735,-83,72.0226,8.41235,0,0,0,0,0,0,0,-1,1959,1107,72.0225,-8.41235
742,-83,72.1382,7.80933,-0.00118306,0.00186752,0.0014271,0.00243104,-0.00174658,1.19472,0.00242272,0.0328046,1966,1107,72.1382,-7.80937
749,-83,72.2422,7.2229,0.000704486,0.00393912,0.00176409,0.00471507,-7.1466e-05,1.15641,0.00316747,0.0216004,1973,1107,72.2421,-7.22294
756,-83,72.2156,6.67346,0.00333313,0.00669263,0.00130422,0.00713951,0.00288625,1.24069,0.00414711,0.0192523,1980,1107,72.2155,-6.67346
763,-83,72.1504,6.10632,0.00835871,0.0105694,-8.15061e-05,0.0105725,0.00835571,-1.53399,0.00643788,0.0145361,1987,1107,72.1504,-6.10636
770,-83,72.0317,5.61328,0.0169162,0.0161936,-0.00253553,0.019116,0.0139937,-0.714628,0.0114259,0.0166126,1994,1107,72.0317,-5.61326
777,-83,71.8704,5.10339,0.0281698,0.0227276,-0.0059763,0.0320153,0.0188821,-0.571764,0.0185831,0.0176881,2001,1107,71.8703,-5.1034
784,-83,71.7283,4.58569,0.041474,0.0296664,-0.0102874,0.0474313,0.0237092,-0.5249,0.0273845,0.0267418,2008,1107,71.7283,-4.58571
791,-83,72.5247,3.8291,0.0573331,0.0369991,-0.0158706,0.0660141,0.0283182,-0.500523,0.0382412,0.0410593,2015,1107,72.5247,-3.82912
798,-83,74.6199,2.84094,0.0763808,0.044716,-0.0233147,0.0887307,0.0323661,-0.487127,0.0518495,0.0479296,2022,1107,74.6198,-2.8409
805,-83,74.6064,1.8031,0.0984092,0.0524105,-0.0331944,0.115794,0.0350261,-0.482436,0.0685701,0.0465824,2029,1107,74.6065,-1.80311
812,-83,74.9238,0.437622,0.121996,0.0592768,-0.0461804,0.146458,0.0348147,-0.487131,0.0883504,0.0469907,2036,1107,74.9239,-0.437654
-700,-90,0,0,0,0,0,0,0,0,0,-1,524,1114,0,0
-693,-90,-53.5421,-0.80249,0,0,0,0,0,0,0,-1,531,1114,-53.5421,0.802497
-686,-90,-54.114,-0.861816,0,0,0,0,0,0,0,-1,538,1114,-54.114,0.861865
-679,-90,-54.3737,-0.0777588,-0.0310413,0.0361442,0.0411813,0.0556963,-0.0505933,1.12753,0.0613899,0.0442799,545,1114,-54.3737,0.0777016
-672,-90,-54.6744,0.85022,-0.0213532,0.0292731,0.0364504,0.0483377,-0.0404178,1.0889,0.051311,0.042344,552,1114,-54.6744,-0.850177
-665,-90,-54.9806,2.04565,-0.0149489,0.024239,0.0308297,0.0411744,-0.0318843,1.06847,0.042294,0.0442845,559,1114,-54.9806,-2.04562
-658,-90,-55.2248,2.6687,-0.010887,0.0202193,0.0249699,0.0340837,-0.0247515,1.06393,0.0341107,0.0442523,566,1114,-55.2248,-2.66866
-651,-90,-55.3207,2.94214,-0.00832946,0.0166707,0.0191968,0.0270785,-0.0187372,1.07399,0.0265975,0.0388919,573,1114,-55.3207,-2.94217
-644,-90,-55.4662,3.68848,-0.00666422,0.0131834,0.0137273,0.0201984,-0.0136792,1.09837,0.0196796,0.0213698,580,1114,-55.4663,-3.68848
-637,-90,-55.5458,4.38806,-0.00521489,0.00898007,0.00868463,0.0130985,-0.00933333,1.12798,0.0130117,0.0165762,587,1114,-55.5458,-4.38802
-630,-90,-55.6047,5.00232,-0.00452719,0.00592426,0.00418776,0.00739521,-0.00599814,1.23301,0.00774667,0.0133548,594,1114,-55.6047,-5.00227
-623,-90,-55.6523,5.59998,-0.00389072,0.00274873,0.000864047,0.00285933,-0.00400133,1.44348,0.00397925,0.0143118,601,1114,-55.6524,-5.59995
-616,-90,-55.7131,6.19836,-0.00355107,0.000362723,-0.00062391,0.000459776,-0.00364813,-1.41648,0.00259893,0.0161221,608,1114,-55.7131,-6.19833
-609,-90,-55.677,6.79395,-0.00324044,-0.000599819,-0.000847505,-0.000351217,-0.00348904,-1.28547,0.00221824,0.0252138,615,1114,-55.677,-6.79395
-602,-90,-55.7951,7.31995,-0.00286717,-0.000888567,-0.0010341,-0.000446757,-0.00330898,-1.16703,0.00207317,0.024886,622,1114,-55.7951,-7.31997
-595,-90,-55.692,7.99683,-0.00266797,-0.000987555,-0.0013795,-0.000212534,-0.00344299,-1.05893,0.00222786,0.0251456,629,1114,-55.692,-7.99678
-588,-90,-55.8307,8.50452,0,0,0,0,0,0,0,-1,636,1114,-55.8307,-8.50452
-581,-90,-59.7596,0.328247,0,0,0,0,0,0,0,-1,643,1114,-59.7596,-0.328191
-574,-90,-59.7208,0.351929,-0.000187887,-0.00376793,-0.00110106,0.000123642,-0.00407946,-0.275728,0.00276177,0.0391933,650,1114,-59.7208,-0.351962
-567,-90,-59.8304,0.348877,0.000687395,-0.00417332,-0.000993569,0.000882645,-0.00436857,-0.194041,0.00324684,0.0376409,657,1114,-59.8304,-0.348875
-560,-90,-59.8053,0.373291,0.00158174,-0.00431104,-0.000923884,0.00172319,-0.00445249,-0.151927,0.00367977,0.0391328,664,1114,-59.8053,-0.373255
-553,-90,-59.7151,0.401978,0.00240789,-0.00430707,-0.000666279,0.00247336,-0.00437254,-0.0979506,0.00400286,0.038611,671,1114,-59.7152,-0.401933
-546,-90,-59.7179,0.759888,0.00382884,-0.00442346,-0.000188286,0.00383314,-0.00442775,-0.0228004,0.00477354,0.0398709,678,1114,-59.7179,-0.759888
-539,-90,-59.7421,-0.262207,0,0,0,0,0,0,0,-1,685,1114,-59.7421,0.262234
-532,-90,-59.626,-0.0479736,0,0,0,0,0,0,0,-1,692,1114,-59.626,0.0479401
-525,-90,0,0,0,0,0,0,0,0,0,-1,699,1114,0,0
-518,-90,0,0,0,0,0,0,0,0,0,-1,706,1114,0,0
-511,-90,0,0,0,0,0,0,0,0,0,-1,713,1114,0,0
-504,-90,0,0,0,0,0,0,0,0,0,-1,720,1114,0,0
-497,-90,0,0,0,0,0,0,0,0,0,-1,727,1114,0,0
-490,-90,0,0,0,0,0,0,0,0,0,-1,734,1114,0,0
-483,-90,0,0,0,0,0,0,0,0,0,-1,741,1114,0,0
-476,-90,0,0,0,0,0,0,0,0,0,-1,748,1114,0,0
-469,-90,0,0,0,0,0,0,0,0,0,-1,755,1114,0,0
-462,-90,0,0,0,0,0,0,0,0,0,-1,762,1114,0,0
-455,-90,0,0,0,0,0,0,0,0,0,-1,769,1114,0,0
-448,-90,0,0,0,0,0,0,0,0,0,-1,776,1114,0,0
-441,-90,0,0,0,0,0,0,0,0,0,-1,783,1114,0,0
-434,-90,0,0,0,0,0,0,0,0,0,-1,790,1114,0,0
-427,-90,0,0,0,0,0,0,0,0,0,-1,797,1114,0,0
-420,-90,0,0,0,0,0,0,0,0,0,-1,804,1114,0,0
-413,-90,0,0,0,0,0,0,0,0,0,-1,811,1114,0,0
-406,-90,0,0,0,0,0,0,0,0,0,-1,818,1114,0,0
-399,-90,0,0,0,0,0,0,0,0,0,-1,825,1114,0,0
-392,-90,0,0,0,0,0,0,0,0,0,-1,832,1114,0,0
-385,-90,0,0,0,0,0,0,0,0,0,-1,839,1114,0,0
-378,-90,0,0,0,0,0,0,0,0,0,-1,846,1114,0,0
-371,-90,0,0,0,0,0,0,0,0,0,-1,853,1114,0,0
-364,-90,0,0,0,0,0,0,0,0,0,-1,860,1114,0,0
-357,-90,0,0,0,0,0,0,0,0,0,-1,867,1114,0,0
-350,-90,0,0,0,0,0,0,0,0,0,-1,874,1114,0,0
-343,-90,0,0,0,0,0,0,0,0,0,-1,881,1114,0,0
-336,-90,0,0,0,0,0,0,0,0,0,-1,888,1114,0,0
-329,-90,0,0,0,0,0,0,0,0,0,-1,895,1114,0,0
-322,-90,0,0,0,0,0,0,0,0,0,-1,902,1114,0,0
-315,-90,0,0,0,0,0,0,0,0,0,-1,909,1114,0,0
-308,-90,0,0,0,0,0,0,0,0,0,-1,916,1114,0,0
-301,-90,0,0,0,0,0,0,0,0,0,-1,923,1114,0,0
-294,-90,0,0,0,0,0,0,0,0,0,-1,930,1114,0,0
-287,-90,0,0,0,0,0,0,0,0,0,-1,937,1114,0,0
-280,-90,0,0,0,0,0,0,0,0,0,-1,944,1114,0,0
-273,-90,0,0,0,0,0,0,0,0,0,-1,951,1114,0,0
-266,-90,0,0,0,0,0,0,0,0,0,-1,958,1114,0,0
-259,-90,0,0,0,0,0,0,0,0,0,-1,965,1114,0,0
-252,-90,0,0,0,0,0,0,0,0,0,-1,972,1114,0,0
-245,-90,0,0,0,0,0,0,0,0,0,-1,979,1114,0,0
-238,-90,0,0,0,0,0,0,0,0,0,-1,986,1114,0,0
-231,-90,0,0,0,0,0,0,0,0,0,-1,993,1114,0,0
-224,-90,0,0,0,0,0,0,0,0,0,-1,1000,1114,0,0
-217,-90,0,0,0,0,0,0,0,0,0,-1,1007,1114,0,0
-210,-90,0,0,0,0,0,0,0,0,0,-1,1014,1114,0,0
-203,-90,0,0,0,0,0,0,0,0,0,-1,1021,1114,0,0
-196,-90,0,0,0,0,0,0,0,0,0,-1,1028,1114,0,0
-189,-90,0,0,0,0,0,0,0,0,0,-1,1035,1114,0,0
-182,-90,0,0,0,0,0,0,0,0,0,-1,1042,1114,0,0
-175,-90,0,0,0,0,0,0,0,0,0,-1,1049,1114,0,0
-168,-90,0,0,0,0,0,0,0,0,0,-1,1056,1114,0,0
-161,-90,0,0,0,0,0,0,0,0,0,-1,1063,1114,0,0
-154,-90,0,0,0,0,0,0,0,0,0,-1,1070,1114,0,0
-147,-90,0,0,0,0,0,0,0,0,0,-1,1077,1114,0,0
-140,-90,0,0,0,0,0,0,0,0,0,-1,1084,1114,0,0
-133,-90,0,0,0,0,0,0,0,0,0,-1,1091,1114,0,0
-126,-90,0,0,0,0,0,0,0,0,0,-1,1098,1114,0,0
-119,-90,0,0,0,0,0,0,0,0,0,-1,1105,1114,0,0
-112,-90,0,0,0,0,0,0,0,0,0,-1,1112,1114,0,0
-105,-90,0,0,0,0,0,0,0,0,0,-1,1119,1114,0,0
-98,-90,0,0,0,0,0,0,0,0,0,-1,1126,1114,0,0
-91,-90,0,0,0,0,0,0,0,0,0,-1,1133,1114,0,0
-84,-90,0,0,0,0,0,0,0,0,0,-1,1140,1114,0,0
-77,-90,0,0,0,0,0,0,0,0,0,-1,1147,1114,0,0
-70,-90,0,0,0,0,0,0,0,0,0,-1,1154,1114,0,0
-63,-90,0,0,0,0,0,0,0,0,0,-1,1161,1114,0,0
-56,-90,0,0,0,0,0,0,0,0,0,-1,1168,1114,0,0
-49,-90,0,0,0,0,0,0,0,0,0,-1,1175,1114,0,0
-42,-90,0,0,0,0,0,0,0,0,0,-1,1182,1114,0,0
-35,-90,0,0,0,0,0,0,0,0,0,-1,1189,1114,0,0
-28,-90,0,0,0,0,0,0,0,0,0,-1,1196,1114,0,0
-21,-90,0,0,0,0,0,0,0,0,0,-1,1203,1114,0,0
-14,-90,0,0,0,0,0,0,0,0,0,-1,1210,1114,0,0
-7,-90,0,0,0,0,0,0,0,0,0,-1,1217,1114,0,0
0,-90,0,0,0,0,0,0,0,0,0,-1,1224,1114,0,0
7,-90,0,0,0,0,0,0,0,0,0,-1,1231,1114,0,0
14,-90,0,0,0,0,0,0,0,0,0,-1,1238,1114,0,0
21,-90,0,0,0,0,0,0,0,0,0,-1,1245,1114,0,0
28,-90,0,0,0,0,0,0,0,0,0,-1,1252,1114,0,0
35,-90,0,0,0,0,0,0,0,0,0,-1,1259,1114,0,0
42,-90,0,0,0,0,0,0,0,0,0,-1,1266,1114,0,0
49,-90,0,0,0,0,0,0,0,0,0,-1,1273,1114,0,0
56,-90,0,0,0,0,0,0,0,0,0,-1,1280,1114,0,0
63,-90,0,0,0,0,0,0,0,0,0,-1,1287,1114,0,0
70,-90,0,0,0,0,0,0,0,0,0,-1,1294,1114,0,0
77,-90,0,0,0,0,0,0,0,0,0,-1,1301,1114,0,0
84,-90,0,0,0,0,0,0,0,0,0,-1,1308,1114,0,0
91,-90,0,0,0,0,0,0,0,0,0,-1,1315,1114,0,0
98,-90,0,0,0,0,0,0,0,0,0,-1,1322,1114,0,0
105,-90,0,0,0,0,0,0,0,0,0,-1,1329,1114,0,0
112,-90,0,0,0,0,0,0,0,0,0,-1,1336,1114,0,0
119,-90,0,0,0,0,0,0,0,0,0,-1,1343,1114,0,0
126,-90,0,0,0,0,0,0,0,0,0,-1,1350,1114,0,0
133,-90,0,0,0,0,0,0,0,0,0,-1,1357,1114,0,0
140,-90,0,0,0,0,0,0,0,0,0,-1,1364,1114,0,0
147,-90,0,0,0,0,0,0,0,0,0,-1,1371,1114,0,0
154,-90,0,0,0,0,0,0,0,0,0,-1,1378,1114,0,0
161,-90,0,0,0,0,0,0,0,0,0,-1,1385,1114,0,0
168,-90,0,0,0,0,0,0,0,0,0,-1,1392,1114,0,0
175,-90,0,0,0,0,0,0,0,0,0,-1,1399,1114,0,0
182,-90,0,0,0,0,0,0,0,0,0,-1,1406,1114,0,0
189,-90,0,0,0,0,0,0,0,0,0,-1,1413,1114,0,0
196,-90,0,0,0,0,0,0,0,0,0,-1,1420,1114,0,0
203,-90,0,0,0,0,0,0,0,0,0,-1,1427,1114,0,0
210,-90,0,0,0,0,0,0,0,0,0,-1,1434,1114,0,0
217,-90,0,0,0,0,0,0,0,0,0,-1,1441,1114,0,0
224,-90,0,0,0,0,0,0,0,0,0,-1,1448,1114,0,0
231,-90,0,0,0,0,0,0,0,0,0,-1,1455,1114,0,0
238,-90,0,0,0,0,0,0,0,0,0,-1,1462,1114,0,0
245,-90,0,0,0,0,0,0,0,0,0,-1,1469,1114,0,0
252,-90,0,0,0,0,0,0,0,0,0,-1,1476,1114,0,0
259,-90,0,0,0,0,0,0,0,0,0,-1,1483,1114,0,0
266,-90,0,0,0,0,0,0,0,0,0,-1,1490,1114,0,0
273,-90,0,0,0,0,0,0,0,0,0,-1,1497,1114,0,0
280,-90,0,0,0,0,0,0,0,0,0,-1,1504,1114,0,0
287,-90,0,0,0,0,0,0,0,0,0,-1,1511,1114,0,0
294,-90,0,0,0,0,0,0,0,0,0,-1,1518,1114,0,0
301,-90,0,0,0,0,0,0,0,0,0,-1,1525,1114,0,0
308,-90,0,0,0,0,0,0,0,0,0,-1,1532,1114,0,0
315,-90,0,0,0,0,0,0,0,0,0,-1,1539,1114,0,0
322,-90,0,0,0,0,0,0,0,0,0,-1,1546,1114,0,0
329,-90,0,0,0,0,0,0,0,0,0,-1,1553,1114,0,0
336,-90,0,0,0,0,0,0,0,0,0,-1,1560,1114,0,0
343,-90,0,0,0,0,0,0,0,0,0,-1,1567,1114,0,0
350,-90,0,0,0,0,0,0,0,0,0,-1,1574,1114,0,0
357,-90,0,0,0,0,0,0,0,0,0,-1,1581,1114,0,0
364,-90,0,0,0,0,0,0,0,0,0,-1,1588,1114,0,0
371,-90,0,0,0,0,0,0,0,0,0,-1,1595,1114,0,0
378,-90,0,0,0,0,0,0,0,0,0,-1,1602,1114,0,0
385,-90,0,0,0,0,0,0,0,0,0,-1,1609,1114,0,0
392,-90,0,0,0,0,0,0,0,0,0,-1,1616,1114,0,0
399,-90,0,0,0,0,0,0,0,0,0,-1,1623,1114,0,0
406,-90,0,0,0,0,0,0,0,0,0,-1,1630,1114,0,0
413,-90,0,0,0,0,0,0,0,0,0,-1,1637,1114,0,0
420,-90,0,0,0,0,0,0,0,0,0,-1,1644,1114,0,0
427,-90,0,0,0,0,0,0,0,0,0,-1,1651,1114,0,0
434,-90,0,0,0,0,0,0,0,0,0,-1,1658,1114,0,0
441,-90,0,0,0,0,0,0,0,0,0,-1,1665,1114,0,0
448,-90,0,0,0,0,0,0,0,0,0,-1,1672,1114,0,0
455,-90,0,0,0,0,0,0,0,0,0,-1,1679,1114,0,0
462,-90,0,0,0,0,0,0,0,0,0,-1,1686,1114,0,0
469,-90,0,0,0,0,0,0,0,0,0,-1,1693,1114,0,0
476,-90,0,0,0,0,0,0,0,0,0,-1,1700,1114,0,0
483,-90,0,0,0,0,0,0,0,0,0,-1,1707,1114,0,0
490,-90,0,0,0,0,0,0,0,0,0,-1,1714,1114,0,0
497,-90,0,0,0,0,0,0,0,0,0,-1,1721,1114,0,0
504,-90,0,0,0,0,0,0,0,0,0,-1,1728,1114,0,0
511,-90,0,0,0,0,0,0,0,0,0,-1,1735,1114,0,0
518,-90,0,0,0,0,0,0,0,0,0,-1,1742,1114,0,0
525,-90,0,0,0,0,0,0,0,0,0,-1,1749,1114,0,0
532,-90,0,0,0,0,0,0,0,0,0,-1,1756,1114,0,0
539,-90,0,0,0,0,0,0,0,0,0,-1,1763,1114,0,0
546,-90,0,0,0,0,0,0,0,0,0,-1,1770,1114,0,0
553,-90,0,0,0,0,0,0,0,0,0,-1,1777,1114,0,0
560,-90,0,0,0,0,0,0,0,0,0,-1,1784,1114,0,0
567,-90,0,0,0,0,0,0,0,0,0,-1,1791,1114,0,0
574,-90,0,0,0,0,0,0,0,0,0,-1,1798,1114,0,0
581,-90,0,0,0,0,0,0,0,0,0,-1,1805,1114,0,0
588,-90,0,0,0,0,0,0,0,0,0,-1,1812,1114,0,0
595,-90,0,0,0,0,0,0,0,0,0,-1,1819,1114,0,0
602,-90,0,0,0,0,0,0,0,0,0,-1,1826,1114,0,0
609,-90,0,0,0,0,0,0,0,0,0,-1,1833,1114,0,0
616,-90,0,0,0,0,0,0,0,0,0,-1,1840,1114,0,0
623,-90,0,0,0,0,0,0,0,0,0,-1,1847,1114,0,0
630,-90,0,0,0,0,0,0,0,0,0,-1,1854,1114,0,0
637,-90,0,0,0,0,0,0,0,0,0,-1,1861,1114,0,0
644,-90,76.3799,2.03149,-0.000673831,-0.00029991,-0.00243198,0.00195228,-0.00292602,-0.823761,0.00283513,0.0345033,1868,1114,76.3799,-2.03153
651,-90,76.2438,1.97229,-1.87195e-05,-0.000175265,-0.00112532,0.00103104,-0.00122503,-0.750676,0.00130415,0.0403764,1875,1114,76.2438,-1.97229
658,-90,76.1915,1.87244,0.000485856,-0.000161115,-0.000505615,0.000762612,-0.000437871,-0.500817,0.000701501,0.0438027,1882,1114,76.1916,-1.8724
665,-90,76.2788,1.82227,0.000762293,-0.000184222,-0.000291954,0.000845101,-0.000267031,-0.276378,0.00067038,0.0432682,1889,1114,76.2788,-1.82225
672,-90,76.2661,2.09497,0.00093083,-0.000220067,-0.000367133,0.00103797,-0.000327207,-0.283944,0.000823024,0.0437005,1896,1114,76.2662,-2.09495
679,-90,76.3717,2.23145,0.0010893,-0.000368723,-0.000575882,0.00128932,-0.000568742,-0.334291,0.00109931,0.0397915,1903,1114,76.3717,-2.23148
686,-90,76.3956,2.15442,0.000992398,-0.000810658,-0.000700887,0.0012328,-0.00105106,-0.330418,0.00131997,0.0336424,1910,1114,76.3957,-2.15447
693,-90,76.325,2.1167,0.000961947,-0.00118447,-0.000649344,0.0011431,-0.00136563,-0.272062,0.00145031,0.0340003,1917,1114,76.325,-2.11676
700,-90,76.2911,2.11389,0.00103193,-0.00136266,-0.000395661,0.00109561,-0.00142634,-0.159582,0.00146022,0.0339897,1924,1114,76.2911,-2.11388
707,-90,76.3187,1.96362,0.000780774,-0.00134121,-1.69655e-05,0.00078091,-0.00134134,-0.00799444,0.00123944,0.0259321,1931,1114,76.3187,-1.96361
714,-90,76.3196,1.72632,0,0,0,0,0,0,0,-1,1938,1114,76.3196,-1.72637
721,-90,63.521,8.76965,0,0,0,0,0,0,0,-1,1945,1114,63.521,-8.7697
728,-90,71.6145,8.88098,0,0,0,0,0,0,0,-1,1952,1114,71.6146,-8.88097
735,-90,71.3208,8.49255,0,0,0,0,0,0,0,-1,1959,1114,71.3208,-8.49261
742,-90,71.4388,7.78967,-0.000627102,0.00141514,0.00127954,0.00203106,-0.00124302,1.12217,0.00190846,0.0393121,1966,1114,71.4389,-7.78972
749,-90,71.7905,7.06738,0.00107175,0.00355646,0.00169471,0.00441541,0.000212798,1.10169,0.0028753,0.0241058,1973,1114,71.7906,-7.06738
756,-90,71.7109,6.57947,0.00359902,0.00653744,0.00127452,0.00701322,0.00312325,1.21352,0.00405714,0.0201267,1980,1114,71.7109,-6.57948
763,-90,71.6062,6.0531,0.00863749,0.0108754,-9.75997e-05,0.0108796,0.00863325,-1.52729,0.00663234,0.0149754,1987,1114,71.6061,-6.05312
770,-90,71.4934,5.50513,0.0169022,0.0171828,-0.00242361,0.0194701,0.0146148,-0.814309,0.0117024,0.018637,1994,1114,71.4933,-5.50509
777,-90,71.3669,4.98352,0.0275234,0.0245557,-0.00562093,0.031853,0.0202261,-0.656351,0.0186124,0.0173793,2001,1114,71.367,-4.98348
784,-90,71.2393,4.49622,0.0400805,0.0326208,-0.0096447,0.0466914,0.0260098,-0.600894,0.0270157,0.0301997,2008,1114,71.2392,-4.49625
791,-90,70.7424,4.09302,0.0551144,0.0414818,-0.0148966,0.0646801,0.0319161,-0.570831,0.0373442,0.0407813,2015,1114,70.7424,-4.09303
798,-90,74.7505,2.56738,0.0730842,0.051259,-0.0219241,0.0866615,0.0376818,-0.554478,0.0501755,0.0472504,2022,1114,74.7504,-2.56741
805,-90,74.5239,1.58923,0.0936831,0.061623,-0.0312616,0.112785,0.0425212,-0.548492,0.0657698,0.0447919,2029,1114,74.5239,-1.58926
812,-90,74.3833,0.482788,0.115515,0.0718392,-0.0435251,0.142374,0.0449808,-0.552882,0.0840355,0.0453958,2036,1114,74.3834,-0.482735
-700,-97,0,0,0,0,0,0,0,0,0,-1,524,1121,0,0
-693,-97,-53.3351,-1.77783,-0.0699102,0.0741509,0.0476814,0.0885027,-0.0842621,1.27843,0.0997558,0.0449495,531,1121,-53.3351,1.77779
-686,-97,-53.686,-1.0564,0,0,0,0,0,0,0,-1,538,1121,-53.686,1.05638
-679,-97,-53.7943,-0.345459,-0.0361043,0.0407817,0.0430535,0.0600575,-0.0553802,1.14984,0.0666662,0.0463969,545,1121,-53.7943,0.345519
-672,-97,-54.4607,0.594116,-0.0256042,0.0315168,0.0372197,0.0498712,-0.0439587,1.11265,0.0542085,0.0447871,552,1121,-54.4607,-0.594154
-665,-97,-54.783,2.00366,-0.0183937,0.0249169,0.0307292,0.0408546,-0.0343315,1.09234,0.0434631,0.047425,559,1121,-54.783,-2.00362
-658,-97,-54.7238,2.56763,-0.0136271,0.0198719,0.0242411,0.0325872,-0.0263424,1.08771,0.0340867,0.0421662,566,1121,-54.7238,-2.5676
-651,-97,-54.765,3.01392,-0.0104811,0.0157517,0.0181099,0.0249962,-0.0197256,1.09881,0.0258799,0.0382371,573,1121,-54.765,-3.01388
-644,-97,-54.8693,3.68677,-0.00830069,0.0120345,0.0125051,0.0179839,-0.0142501,1.12673,0.0186519,0.0165956,580,1121,-54.8693,-3.68677
-637,-97,-54.9246,4.35974,-0.0064139,0.00777325,0.00748508,0.0109921,-0.00963271,1.16467,0.0119163,0.0163597,587,1121,-54.9246,-4.35977
-630,-97,-54.9791,4.98169,-0.00541347,0.00486466,0.00315082,0.00575367,-0.00630248,1.29579,0.00696302,0.011506,594,1121,-54.9791,-4.9817
-623,-97,-55.0286,5.52502,-0.00465307,0.00185507,9.58108e-05,0.00185648,-0.00465448,1.55608,0.00387308,0.0155153,601,1121,-55.0286,-5.52508
-616,-97,-55.1165,6.19299,-0.0043834,-6.36042e-06,-0.000832162,0.000146511,-0.00453627,-1.38912,0.00307418,0.0222684,608,1121,-55.1165,-6.19301
-609,-97,-55.2001,6.86365,-0.00416516,-0.000539796,-0.000681501,-0.000415919,-0.00428903,-1.39099,0.00273129,0.0309501,615,1121,-55.2001,-6.86368
-602,-97,-55.2899,7.37488,-0.00385901,-0.000511837,-0.000847074,-0.000309677,-0.00406117,-1.33652,0.00261035,0.033295,622,1121,-55.2899,-7.37492
-595,-97,-55.0697,7.93933,0,0,0,0,0,0,0,-1,629,1121,-55.0697,-7.93932
-588,-97,-55.293,8.68591,0,0,0,0,0,0,0,-1,636,1121,-55.293,-8.6859
-581,-97,-51.2355,3.23926,0,0,0,0,0,0,0,-1,643,1121,-51.2355,-3.23926
-574,-97,-59.7501,0.375732,0,0,0,0,0,0,0,-1,650,1121,-59.7501,-0.375747
-567,-97,-59.7436,0.37854,-0.000290339,-0.00379607,-0.000991506,-2.93471e-05,-0.00405706,-0.257389,0.00269498,0.0384345,657,1121,-59.7436,-0.378479
-560,-97,-59.804,0.384277,0.00084721,-0.004068,-0.000990217,0.0010392,-0.00425999,-0.19151,0.00324239,0.0403137,664,1121,-59.804,-0.384324
-553,-97,-59.7973,0.441162,0.00186399,-0.00424266,-0.000768043,0.00195911,-0.00433777,-0.123215,0.00372097,0.0415428,671,1121,-59.7973,-0.441182
-546,-97,-59.6393,-0.180786,0.00344647,-0.00460562,-0.000246244,0.003454,-0.00461314,-0.0305434,0.00467356,0.0446768,678,1121,-59.6393,0.180743
-539,-97,-59.5748,-0.623779,0.00640191,-0.00583172,0.000589935,0.00643029,-0.00586011,0.0480737,0.00709841,0.04095,685,1121,-59.5748,0.623813
-532,-97,-59.649,-0.247803,0.00959838,-0.00706617,0.00181424,0.00979361,-0.0072614,0.107195,0.00988282,0.0384153,692,1121,-59.649,0.247842
-525,-97,0,0,0,0,0,0,0,0,0,-1,699,1121,0,0
-518,-97,0,0,0,0,0,0,0,0,0,-1,706,1121,0,0
-511,-97,0,0,0,0,0,0,0,0,0,-1,713,1121,0,0
-504,-97,0,0,0,0,0,0,0,0,0,-1,720,1121,0,0
-497,-97,0,0,0,0,0,0,0,0,0,-1,727,1121,0,0
-490,-97,0,0,0,0,0,0,0,0,0,-1,734,1121,0,0
-483,-97,0,0,0,0,0,0,0,0,0,-1,741,1121,0,0
-476,-97,0,0,0,0,0,0,0,0,0,-1,748,1121,0,0
-469,-97,0,0,0,0,0,0,0,0,0,-1,755,1121,0,0
-462,-97,0,0,0,0,0,0,0,0,0,-1,762,1121,0,0
-455,-97,0,0,0,0,0,0,0,0,0,-1,769,1121,0,0
-448,-97,0,0,0,0,0,0,0,0,0,-1,776,1121,0,0
-441,-97,0,0,0,0,0,0,0,0,0,-1,783,1121,0,0
-434,-97,0,0,0,0,0,0,0,0,0,-1,790,1121,0,0
-427,-97,0,0,0,0,0,0,0,0,0,-1,797,1121,0,0
-420,-97,0,0,0,0,0,0,0,0,0,-1,804,1121,0,0
-413,-97,0,0,0,0,0,0,0,0,0,-1,811,1121,0,0
-406,-97,0,0,0,0,0,0,0,0,0,-1,818,1121,0,0
-399,-97,0,0,0,0,0,0,0,0,0,-1,825,1121,0,0
-392,-97,0,0,0,0,0,0,0,0,0,-1,832,1121,0,0
-385,-97,0,0,0,0,0,0,0,0,0,-1,839,1121,0,0
-378,-97,0,0,0,0,0,0,0,0,0,-1,846,1121,0,0
-371,-97,0,0,0,0,0,0,0,0,0,-1,853,1121,0,0
-364,-97,0,0,0,0,0,0,0,0,0,-1,860,1121,0,0
-357,-97,0,0,0,0,0,0,0,0,0,-1,867,1121,0,0
-350,-97,0,0,0,0,0,0,0,0,0,-1,874,1121,0,0
-343,-97,0,0,0,0,0,0,0,0,0,-1,881,1121,0,0
-336,-97,0,0,0,0,0,0,0,0,0,-1,888,1121,0,0
-329,-97,0,0,0,0,0,0,0,0,0,-1,895,1121,0,0
-322,-97,0,0,0,0,0,0,0,0,0,-1,902,1121,0,0
-315,-97,0,0,0,0,0,0,0,0,0,-1,909,1121,0,0
-308,-97,0,0,0,0,0,0,0,0,0,-1,916,1121,0,0
-301,-97,0,0,0,0,0,0,0,0,0,-1,923,1121,0,0
-294,-97,0,0,0,0,0,0,0,0,0,-1,930,1121,0,0
-287,-97,0,0,0,0,0,0,0,0,0,-1,937,1121,0,0
-280,-97,0,0,0,0,0,0,0,0,0,-1,944,1121,0,0
-273,-97,0,0,0,0,0,0,0,0,0,-1,951,1121,0,0
-266,-97,0,0,0,0,0,0,0,0,0,-1,958,1121,0,0
-259,-97,0,0,0,0,0,0,0,0,0,-1,965,1121,0,0
-252,-97,0,0,0,0,0,0,0,0,0,-1,972,1121,0,0
-245,-97,0,0,0,0,0,0,0,0,0,-1,979,1121,0,0
-238,-97,0,0,0,0,0,0,0,0,0,-1,986,1121,0,0
-231,-97,0,0,0,0,0,0,0,0,0,-1,993,1121,0,0
-224,-97,0,0,0,0,0,0,0,0,0,-1,1000,1121,0,0
-217,-97,0,0,0,0,0,0,0,0,0,-1,1007,1121,0,0
-210,-97,0,0,0,0,0,0,0,0,0,-1,1014,1121,0,0
-203,-97,0,0,0,0,0,0,0,0,0,-1,1021,1121,0,0
-196,-97,0,0,0,0,0,0,0,0,0,-1,1028,1121,0,0
-189,-97,0,0,0,0,0,0,0,0,0,-1,1035,1121,0,0
-182,-97,0,0,0,0,0,0,0,0,0,-1,1042,1121,0,0
-175,-97,0,0,0,0,0,0,0,0,0,-1,1049,1121,0,0
-168,-97,0,0,0,0,0,0,0,0,0,-1,1056,1121,0,0
-161,-97,0,0,0,0,0,0,0,0,0,-1,1063,1121,0,0
-154,-97,0,0,0,0,0,0,0,0,0,-1,1070,1121,0,0
-147,-97,0,0,0,0,0,0,0,0,0,-1,1077,1121,0,0
-140,-97,0,0,0,0,0,0,0,0,0,-1,1084,1121,0,0
-133,-97,0,0,0,0,0,0,0,0,0,-1,1091,1121,0,0
-126,-97,0,0,0,0,0,0,0,0,0,-1,1098,1121,0,0
-119,-97,0,0,0,0,0,0,0,0,0,-1,1105,1121,0,0
-112,-97,0,0,0,0,0,0,0,0,0,-1,1112,1121,0,0
-105,-97,0,0,0,0,0,0,0,0,0,-1,1119,1121,0,0
-98,-97,0,0,0,0,0,0,0,0,0,-1,1126,1121,0,0
-91,-97,0,0,0,0,0,0,0,0,0,-1,1133,1121,0,0
-84,-97,0,0,0,0,0,0,0,0,0,-1,1140,1121,0,0
-77,-97,0,0,0,0,0,0,0,0,0,-1,1147,1121,0,0
-70,-97,0,0,0,0,0,0,0,0,0,-1,1154,1121,0,0
-63,-97,0,0,0,0,0,0,0,0,0,-1,1161,1121,0,0
-56,-97,0,0,0,0,0,0,0,0,0,-1,1168,1121,0,0
-49,-97,0,0,0,0,0,0,0,0,0,-1,1175,1121,0,0
-42,-97,0,0,0,0,0,0,0,0,0,-1,1182,1121,0,0
-35,-97,0,0,0,0,0,0,0,0,0,-1,1189,1121,0,0
-28,-97,0,0,0,0,0,0,0,0,0,-1,1196,1121,0,0
-21,-97,0,0,0,0,0,0,0,0,0,-1,1203,1121,0,0
-14,-97,0,0,0,0,0,0,0,0,0,-1,1210,1121,0,0
-7,-97,0,0,0,0,0,0,0,0,0,-1,1217,1121,0,0
0,-97,0,0,0,0,0,0,0,0,0,-1,1224,1121,0,0
7,-97,0,0,0,0,0,0,0,0,0,-1,1231,1121,0,0
14,-97,0,0,0,0,0,0,0,0,0,-1,1238,1121,0,0
21,-97,0,0,0,0,0,0,0,0,0,-1,1245,1121,0,0
28,-97,0,0,0,0,0,0,0,0,0,-1,1252,1121,0,0
35,-97,0,0,0,0,0,0,0,0,0,-1,1259,1121,0,0
42,-97,0,0,0,0,0,0,0,0,0,-1,1266,1121,0,0
49,-97,0,0,0,0,0,0,0,0,0,-1,1273,1121,0,0
56,-97,0,0,0,0,0,0,0,0,0,-1,1280,1121,0,0
63,-97,0,0,0,0,0,0,0,0,0,-1,1287,1121,0,0
70,-97,0,0,0,0,0,0,0,0,0,-1,1294,1121,0,0
77,-97,0,0,0,0,0,0,0,0,0,-1,1301,1121,0,0
84,-97,0,0,0,0,0,0,0,0,0,-1,1308,1121,0,0
91,-97,0,0,0,0,0,0,0,0,0,-1,1315,1121,0,0
98,-97,0,0,0,0,0,0,0,0,0,-1,1322,1121,0,0
105,-97,0,0,0,0,0,0,0,0,0,-1,1329,1121,0,0
112,-97,0,0,0,0,0,0,0,0,0,-1,1336,1121,0,0
119,-97,0,0,0,0,0,0,0,0,0,-1,1343,1121,0,0
126,-97,0,0,0,0,0,0,0,0,0,-1,1350,1121,0,0
133,-97,0,0,0,0,0,0,0,0,0,-1,1357,1121,0,0
140,-97,0,0,0,0,0,0,0,0,0,-1,1364,1121,0,0
147,-97,0,0,0,0,0,0,0,0,0,-1,1371,1121,0,0
154,-97,0,0,0,0,0,0,0,0,0,-1,1378,1121,0,0
161,-97,0,0,0,0,0,0,0,0,0,-1,1385,1121,0,0
168,-97,0,0,0,0,0,0,0,0,0,-1,1392,1121,0,0
175,-97,0,0,0,0,0,0,0,0,0,-1,1399,1121,0,0
182,-97,0,0,0,0,0,0,0,0,0,-1,1406,1121,0,0
189,-97,0,0,0,0,0,0,0,0,0,-1,1413,1121,0,0
196,-97,0,0,0,0,0,0,0,0,0,-1,1420,1121,0,0
203,-97,0,0,0,0,0,0,0,0,0,-1,1427,1121,0,0
210,-97,0,0,0,0,0,0,0,0,0,-1,1434,1121,0,0
217,-97,0,0,0,0,0,0,0,0,0,-1,1441,1121,0,0
224,-97,0,0,0,0,0,0,0,0,0,-1,1448,1121,0,0
231,-97,0,0,0,0,0,0,0,0,0,-1,1455,1121,0,0
238,-97,0,0,0,0,0,0,0,0,0,-1,1462,1121,0,0
245,-97,0,0,0,0,0,0,0,0,0,-1,1469,1121,0,0
252,-97,0,0,0,0,0,0,0,0,0,-1,1476,1121,0,0
259,-97,0,0,0,0,0,0,0,0,0,-1,1483,1121,0,0
266,-97,0,0,0,0,0,0,0,0,0,-1,1490,1121,0,0
273,-97,0,0,0,0,0,0,0,0,0,-1,1497,1121,0,0
280,-97,0,0,0,0,0,0,0,0,0,-1,1504,1121,0,0
287,-97,0,0,0,0,0,0,0,0,0,-1,1511,1121,0,0
294,-97,0,0,0,0,0,0,0,0,0,-1,1518,1121,0,0
301,-97,0,0,0,0,0,0,0,0,0,-1,1525,1121,0,0
308,-97,0,0,0,0,0,0,0,0,0,-1,1532,1121,0,0
315,-97,0,0,0,0,0,0,0,0,0,-1,1539,1121,0,0
322,-97,0,0,0,0,0,0,0,0,0,-1,1546,1121,0,0
329,-97,0,0,0,0,0,0,0,0,0,-1,1553,1121,0,0
336,-97,0,0,0,0,0,0,0,0,0,-1,1560,1121,0,0
343,-97,0,0,0,0,0,0,0,0,0,-1,1567,1121,0,0
350,-97,0,0,0,0,0,0,0,0,0,-1,1574,1121,0,0
357,-97,0,0,0,0,0,0,0,0,0,-1,1581,1121,0,0
364,-97,0,0,0,0,0,0,0,0,0,-1,1588,1121,0,0
371,-97,0,0,0,0,0,0,0,0,0,-1,1595,1121,0,0
378,-97,0,0,0,0,0,0,0,0,0,-1,1602,1121,0,0
385,-97,0,0,0,0,0,0,0,0,0,-1,1609,1121,0,0
392,-97,0,0,0,0,0,0,0,0,0,-1,1616,1121,0,0
399,-97,0,0,0,0,0,0,0,0,0,-1,1623,1121,0,0
406,-97,0,0,0,0,0,0,0,0,0,-1,1630,1121,0,0
413,-97,0,0,0,0,0,0,0,0,0,-1,1637,1121,0,0
420,-97,0,0,0,0,0,0,0,0,0,-1,1644,1121,0,0
427,-97,0,0,0,0,0,0,0,0,0,-1,1651,1121,0,0
434,-97,0,0,0,0,0,0,0,0,0,-1,1658,1121,0,0
441,-97,0,0,0,0,0,0,0,0,0,-1,1665,1121,0,0
448,-97,0,0,0,0,0,0,0,0,0,-1,1672,1121,0,0
455,-97,0,0,0,0,0,0,0,0,0,-1,1679,1121,0,0
462,-97,0,0,0,0,0,0,0,0,0,-1,1686,1121,0,0
469,-97,0,0,0,0,0,0,0,0,0,-1,1693,1121,0,0
476,-97,0,0,0,0,0,0,0,0,0,-1,1700,1121,0,0
483,-97,0,0,0,0,0,0,0,0,0,-1,1707,1121,0,0
490,-97,0,0,0,0,0,0,0,0,0,-1,1714,1121,0,0
497,-97,0,0,0,0,0,0,0,0,0,-1,1721,1121,0,0
504,-97,0,0,0,0,0,0,0,0,0,-1,1728,1121,0,0
511,-97,0,0,0,0,0,0,0,0,0,-1,1735,1121,0,0
518,-97,0,0,0,0,0,0,0,0,0,-1,1742,1121,0,0
525,-97,0,0,0,0,0,0,0,0,0,-1,1749,1121,0,0
532,-97,0,0,0,0,0,0,0,0,0,-1,1756,1121,0,0
539,-97,0,0,0,0,0,0,0,0,0,-1,1763,1121,0,0
546,-97,0,0,0,0,0,0,0,0,0,-1,1770,1121,0,0
553,-97,0,0,0,0,0,0,0,0,0,-1,1777,1121,0,0
560,-97,0,0,0,0,0,0,0,0,0,-1,1784,1121,0,0
567,-97,0,0,0,0,0,0,0,0,0,-1,1791,1121,0,0
574,-97,0,0,0,0,0,0,0,0,0,-1,1798,1121,0,0
581,-97,0,0,0,0,0,0,0,0,0,-1,1805,1121,0,0
588,-97,0,0,0,0,0,0,0,0,0,-1,1812,1121,0,0
595,-97,0,0,0,0,0,0,0,0,0,-1,1819,1121,0,0
602,-97,0,0,0,0,0,0,0,0,0,-1,1826,1121,0,0
609,-97,0,0,0,0,0,0,0,0,0,-1,1833,1121,0,0
616,-97,0,0,0,0,0,0,0,0,0,-1,1840,1121,0,0
623,-97,0,0,0,0,0,0,0,0,0,-1,1847,1121,0,0
630,-97,0,0,0,0,0,0,0,0,0,-1,1854,1121,0,0
637,-97,0,0,0,0,0,0,0,0,0,-1,1861,1121,0,0
644,-97,76.2737,2.26172,-0.000898991,3.53626e-06,-0.00317246,0.00275666,-0.00365212,-0.856046,0.00371213,0.0370009,1868,1121,76.2737,-2.26169
651,-97,76.1923,2.23779,-0.000208848,-6.88777e-05,-0.00169666,0.00155924,-0.00183696,-0.806011,0.00196298,0.0386648,1875,1121,76.1923,-2.23776
658,-97,76.2874,2.09814,0.000350164,-0.000152928,-0.000929892,0.00106193,-0.000864696,-0.653304,0.00111428,0.0396424,1882,1121,76.2873,-2.09813
665,-97,76.3497,1.89624,0.000687353,-0.000207267,-0.000584103,0.000975749,-0.000495663,-0.458628,0.000864461,0.0430509,1889,1121,76.3497,-1.89626
672,-97,76.363,2.22925,0.000912848,-0.000236795,-0.00054969,0.00113337,-0.000457321,-0.381526,0.000945633,0.0460784,1896,1121,76.3631,-2.22919
679,-97,76.4258,2.2428,0.00114317,-0.000420945,-0.000657261,0.00138268,-0.000660458,-0.349455,0.00120392,0.0435246,1903,1121,76.4258,-2.24276
686,-97,76.3823,2.22119,0.00114026,-0.00089145,-0.000712509,0.00136522,-0.00111641,-0.305829,0.00143517,0.0353996,1910,1121,76.3823,-2.22119
693,-97,76.3206,2.07947,0.00114966,-0.00126249,-0.000628881,0.00130377,-0.0014166,-0.240321,0.00157106,0.0341124,1917,1121,76.3206,-2.07952
700,-97,76.3026,2.05505,0.00125337,-0.00146109,-0.00036008,0.00130033,-0.00150804,-0.129665,0.00162289,0.0313393,1924,1121,76.3026,-2.05506
707,-97,76.3046,1.99792,0.00105307,-0.00145532,3.44748e-05,0.00105355,-0.00145579,0.0137403,0.00145496,0.028923,1931,1121,76.3046,-1.99791
714,-97,76.3179,1.81775,0,0,0,0,0,0,0,-1,1938,1121,76.3178,-1.81775
721,-97,71.1353,9.24341,0,0,0,0,0,0,0,-1,1945,1121,71.1353,-9.24335
728,-97,71.1025,8.90295,-0.000473931,-0.000423424,0.000627278,0.000179109,-0.00107646,0.805517,0.000784194,0.0428565,1952,1121,71.1026,-8.903
735,-97,71.0303,8.29187,-0.000940479,0.000139854,0.000864486,0.000619058,-0.00141968,1.06464,0.00120694,0.0312366,1959,1121,71.0302,-8.2919
742,-97,70.9703,7.76489,-0.000302733,0.000980177,0.00128606,0.00177588,-0.00109844,1.01673,0.00167478,0.0272664,1966,1121,70.9703,-7.76487
749,-97,71.0702,7.15173,0.00106693,0.00314068,0.00176298,0.0041491,5.85173e-05,1.05122,0.00274677,0.0254684,1973,1121,71.0702,-7.15171
756,-97,71.0508,6.58154,0.00335163,0.00640279,0.00139501,0.00694445,0.00280997,1.20044,0.00403361,0.018522,1980,1121,71.0507,-6.58149
763,-97,70.9421,6.05347,0.00815034,0.0113238,6.19202e-05,0.0113251,0.00814913,1.55129,0.0067454,0.0153946,1987,1121,70.9422,-6.05344
770,-97,70.8506,5.5293,0.0156748,0.0184163,-0.00209992,0.0195532,0.0145378,-1.07456,0.0117268,0.0142691,1994,1121,70.8506,-5.52929
777,-97,70.7761,4.97388,0.0251492,0.0267748,-0.00502641,0.0310537,0.0208703,-0.86556,0.0182793,0.0186557,2001,1121,70.7762,-4.97385
784,-97,70.6936,4.35767,0.0363174,0.036202,-0.00874358,0.0450035,0.027516,-0.7821,0.0261969,0.0394317,2008,1121,70.6936,-4.3577
791,-97,70.167,3.68286,0.0496394,0.0469694,-0.0136339,0.0620035,0.0346052,-0.736595,0.0358783,0.0448077,2015,1121,70.167,-3.68286
798,-97,69.7324,3.1261,0.0654247,0.0593865,-0.0202347,0.0828643,0.0419469,-0.711343,0.047843,0.0476091,2022,1121,69.7325,-3.12611
805,-97,74.0771,1.5675,0.0832584,0.0732015,-0.0290718,0.107733,0.0487265,-0.699762,0.0622942,0.0412613,2029,1121,74.0772,-1.56756
812,-97,74.4246,0.41272,0.101769,0.0877958,-0.0407473,0.136124,0.0534404,-0.700493,0.0791936,0.0481625,2036,1121,74.4245,-0.41274
-700,-104,0,0,0,0,0,0,0,0,0,-1,524,1128,0,0
-693,-104,-53.0979,-2.66638,0,0,0,0,0,0,0,-1,531,1128,-53.0979,2.66638
-686,-104,-53.2043,-0.85376,0,0,0,0,0,0,0,-1,538,1128,-53.2043,0.853814
-679,-104,-53.3914,-0.500366,0,0,0,0,0,0,0,-1,545,1128,-53.3914,0.500394
-672,-104,-54.2323,0.428467,0,0,0,0,0,0,0,-1,552,1128,-54.2323,-0.428416
-665,-104,-54.6277,2.07263,0,0,0,0,0,0,0,-1,559,1128,-54.6277,-2.0726
-658,-104,-54.6774,2.73254,-0.0155855,0.0194225,0.0219111,0.0299629,-0.0261258,1.12242,0.0324081,0.0461354,566,1128,-54.6774,-2.73256
-651,-104,-54.1401,3.01965,-0.0120325,0.0147927,0.0159381,0.0222109,-0.0194507,1.13518,0.0240709,0.0485621,573,1128,-54.1401,-3.01968
-644,-104,-54.1768,3.68176,-0.00949556,0.0108925,0.0105849,0.0153939,-0.013997,1.16869,0.0169753,0.0184092,580,1128,-54.1768,-3.6817
-637,-104,-54.2433,4.35767,-0.00735287,0.00669905,0.00590738,0.00885248,-0.0095063,1.22123,0.0106017,0.0138709,587,1128,-54.2434,-4.35761
-630,-104,-54.2752,4.92285,-0.00618059,0.00402662,0.00200054,0.00440471,-0.00655868,1.38401,0.00637031,0.0193403,594,1128,-54.2752,-4.92282
-623,-104,-54.3703,5.52454,-0.00543013,0.00132944,-0.000618496,0.00138556,-0.00548626,-1.4803,0.00419631,0.0215348,601,1128,-54.3703,-5.52459
-616,-104,-54.7581,6.27527,-0.00526969,-0.000107394,-0.00101248,8.40805e-05,-0.00546117,-1.38389,0.00366913,0.0315411,608,1128,-54.7581,-6.27526
-609,-104,-54.9238,6.80798,-0.00510771,-0.000377024,-0.000565336,-0.000310403,-0.00517433,-1.45349,0.00335088,0.0422936,615,1128,-54.9238,-6.80803
-602,-104,-54.8592,7.35449,0,0,0,0,0,0,0,-1,622,1128,-54.8592,-7.35453
-595,-104,-54.1658,8.25537,0,0,0,0,0,0,0,-1,629,1128,-54.1658,-8.25534
-588,-104,-54.3781,9.04419,0,0,0,0,0,0,0,-1,636,1128,-54.3781,-9.04414
-581,-104,-23.9373,2.85864,0,0,0,0,0,0,0,-1,643,1128,-23.9373,-2.85861
-574,-104,-59.6672,0.233521,0,0,0,0,0,0,0,-1,650,1128,-59.6671,-0.233577
-567,-104,-59.6608,0.317017,-0.00158853,-0.00318284,-0.000921818,-0.00116699,-0.00360437,-0.428896,0.00212363,0.0360498,657,1128,-59.6608,-0.317051
-560,-104,-59.748,0.447632,-0.000228056,-0.00357896,-0.000953924,2.44722e-05,-0.00383149,-0.25879,0.00256252,0.0412223,664,1128,-59.7481,-0.447637
-553,-104,-59.7883,0.246582,0.00107349,-0.00398589,-0.000782123,0.00119164,-0.00410404,-0.149928,0.00320788,0.0454319,671,1128,-59.7883,-0.24653
-546,-104,-59.7609,-0.356934,0.00296156,-0.00474806,-0.000296833,0.00297297,-0.00475947,-0.0384258,0.00450387,0.0452759,678,1128,-59.7609,0.356984
-539,-104,-59.6907,-0.510864,0.00615307,-0.00635635,0.000571771,0.00617915,-0.00638243,0.0455806,0.00725275,0.0407737,685,1128,-59.6907,0.51084
-532,-104,-59.5794,-0.316895,0.00967351,-0.0080453,0.0018562,0.00986587,-0.00823766,0.103265,0.0104662,0.0415481,692,1128,-59.5794,0.31693
-525,-104,-59.6112,0.153198,0.0133482,-0.0096001,0.00357777,0.013893,-0.010145,0.151129,0.0139344,0.0391563,699,1128,-59.6112,-0.153162
-518,-104,0,0,0,0,0,0,0,0,0,-1,706,1128,0,0
-511,-104,0,0,0,0,0,0,0,0,0,-1,713,1128,0,0
-504,-104,0,0,0,0,0,0,0,0,0,-1,720,1128,0,0
-497,-104,0,0,0,0,0,0,0,0,0,-1,727,1128,0,0
-490,-104,0,0,0,0,0,0,0,0,0,-1,734,1128,0,0
-483,-104,0,0,0,0,0,0,0,0,0,-1,741,1128,0,0
-476,-104,0,0,0,0,0,0,0,0,0,-1,748,1128,0,0
-469,-104,0,0,0,0,0,0,0,0,0,-1,755,1128,0,0
-462,-104,0,0,0,0,0,0,0,0,0,-1,762,1128,0,0
-455,-104,0,0,0,0,0,0,0,0,0,-1,769,1128,0,0
-448,-104,0,0,0,0,0,0,0,0,0,-1,776,1128,0,0
-441,-104,0,0,0,0,0,0,0,0,0,-1,783,1128,0,0
-434,-104,0,0,0,0,0,0,0,0,0,-1,790,1128,0,0
-427,-104,0,0,0,0,0,0,0,0,0,-1,797,1128,0,0
-420,-104,0,0,0,0,0,0,0,0,0,-1,804,1128,0,0
-413,-104,0,0,0,0,0,0,0,0,0,-1,811,1128,0,0
-406,-104,0,0,0,0,0,0,0,0,0,-1,818,1128,0,0
-399,-104,0,0,0,0,0,0,0,0,0,-1,825,1128,0,0
-392,-104,0,0,0,0,0,0,0,0,0,-1,832,1128,0,0
-385,-104,0,0,0,0,0,0,0,0,0,-1,839,1128,0,0
-378,-104,0,0,0,0,0,0,0,0,0,-1,846,1128,0,0
-371,-104,0,0,0,0,0,0,0,0,0,-1,853,1128,0,0
-364,-104,0,0,0,0,0,0,0,0,0,-1,860,1128,0,0
-357,-104,0,0,0,0,0,0,0,0,0,-1,867,1128,0,0
-350,-104,0,0,0,0,0,0,0,0,0,-1,874,1128,0,0
-343,-104,0,0,0,0,0,0,0,0,0,-1,881,1128,0,0
-336,-104,0,0,0,0,0,0,0,0,0,-1,888,1128,0,0
-329,-104,0,0,0,0,0,0,0,0,0,-1,895,1128,0,0
-322,-104,0,0,0,0,0,0,0,0,0,-1,902,1128,0,0
-315,-104,0,0,0,0,0,0,0,0,0,-1,909,1128,0,0
-308,-104,0,0,0,0,0,0,0,0,0,-1,916,1128,0,0
-301,-104,0,0,0,0,0,0,0,0,0,-1,923,1128,0,0
-294,-104,0,0,0,0,0,0,0,0,0,-1,930,1128,0,0
-287,-104,0,0,0,0,0,0,0,0,0,-1,937,1128,0,0
-280,-104,0,0,0,0,0,0,0,0,0,-1,944,1128,0,0
-273,-104,0,0,0,0,0,0,0,0,0,-1,951,1128,0,0
-266,-104,0,0,0,0,0,0,0,0,0,-1,958,1128,0,0
-259,-104,0,0,0,0,0,0,0,0,0,-1,965,1128,0,0
-252,-104,0,0,0,0,0,0,0,0,0,-1,972,1128,0,0
-245,-104,0,0,0,0,0,0,0,0,0,-1,979,1128,0,0
-238,-104,0,0,0,0,0,0,0,0,0,-1,986,1128,0,0
-231,-104,0,0,0,0,0,0,0,0,0,-1,993,1128,0,0
-224,-104,0,0,0,0,0,0,0,0,0,-1,1000,1128,0,0
-217,-104,0,0,0,0,0,0,0,0,0,-1,1007,1128,0,0
-210,-104,0,0,0,0,0,0,0,0,0,-1,1014,1128,0,0
-203,-104,0,0,0,0,0,0,0,0,0,-1,1021,1128,0,0
-196,-104,0,0,0,0,0,0,0,0,0,-1,1028,1128,0,0
-189,-104,0,0,0,0,0,0,0,0,0,-1,1035,1128,0,0
-182,-104,0,0,0,0,0,0,0,0,0,-1,1042,1128,0,0
-175,-104,0,0,0,0,0,0,0,0,0,-1,1049,1128,0,0
-168,-104,0,0,0,0,0,0,0,0,0,-1,1056,1128,0,0
-161,-104,0,0,0,0,0,0,0,0,0,-1,1063,1128,0,0
-154,-104,0,0,0,0,0,0,0,0,0,-1,1070,1128,0,0
-147,-104,0,0,0,0,0,0,0,0,0,-1,1077,1128,0,0
-140,-104,0,0,0,0,0,0,0,0,0,-1,1084,1128,0,0
-133,-104,0,0,0,0,0,0,0,0,0,-1,1091,1128,0,0
-126,-104,0,0,0,0,0,0,0,0,0,-1,1098,1128,0,0
-119,-104,0,0,0,0,0,0,0,0,0,-1,1105,1128,0,0
-112,-104,0,0,0,0,0,0,0,0,0,-1,1112,1128,0,0
-105,-104,0,0,0,0,0,0,0,0,0,-1,1119,1128,0,0
-98,-104,0,0,0,0,0,0,0,0,0,-1,1126,1128,0,0
-91,-104,0,0,0,0,0,0,0,0,0,-1,1133,1128,0,0
-84,-104,0,0,0,0,0,0,0,0,0,-1,1140,1128,0,0
-77,-104,0,0,0,0,0,0,0,0,0,-1,1147,1128,0,0
-70,-104,0,0,0,0,0,0,0,0,0,-1,1154,1128,0,0
-63,-104,0,0,0,0,0,0,0,0,0,-1,1161,1128,0,0
-56,-104,0,0,0,0,0,0,0,0,0,-1,1168,1128,0,0
-49,-104,0,0,0,0,0,0,0,0,0,-1,1175,1128,0,0
-42,-104,0,0,0,0,0,0,0,0,0,-1,1182,1128,0,0
-35,-104,0,0,0,0,0,0,0,0,0,-1,1189,1128,0,0
-28,-104,0,0,0,0,0,0,0,0,0,-1,1196,1128,0,0
-21,-104,0,0,0,0,0,0,0,0,0,-1,1203,1128,0,0
-14,-104,0,0,0,0,0,0,0,0,0,-1,1210,1128,0,0
-7,-104,0,0,0,0,0,0,0,0,0,-1,1217,1128,0,0
0,-104,0,0,0,0,0,0,0,0,0,-1,1224,1128,0,0
7,-104,0,0,0,0,0,0,0,0,0,-1,1231,1128,0,0
14,-104,0,0,0,0,0,0,0,0,0,-1,1238,1128,0,0
21,-104,0,0,0,0,0,0,0,0,0,-1,1245,1128,0,0
28,-104,0,0,0,0,0,0,0,0,0,-1,1252,1128,0,0
35,-104,0,0,0,0,0,0,0,0,0,-1,1259,1128,0,0
42,-104,0,0,0,0,0,0,0,0,0,-1,1266,1128,0,0
49,-104,0,0,0,0,0,0,0,0,0,-1,1273,1128,0,0
56,-104,0,0,0,0,0,0,0,0,0,-1,1280,1128,0,0
63,-104,0,0,0,0,0,0,0,0,0,-1,1287,1128,0,0
70,-104,0,0,0,0,0,0,0,0,0,-1,1294,1128,0,0
77,-104,0,0,0,0,0,0,0,0,0,-1,1301,1128,0,0
84,-104,0,0,0,0,0,0,0,0,0,-1,1308,1128,0,0
91,-104,0,0,0,0,0,0,0,0,0,-1,1315,1128,0,0
98,-104,0,0,0,0,0,0,0,0,0,-1,1322,1128,0,0
105,-104,0,0,0,0,0,0,0,0,0,-1,1329,1128,0,0
112,-104,0,0,0,0,0,0,0,0,0,-1,1336,1128,0,0
119,-104,0,0,0,0,0,0,0,0,0,-1,1343,1128,0,0
126,-104,0,0,0,0,0,0,0,0,0,-1,1350,1128,0,0
133,-104,0,0,0,0,0,0,0,0,0,-1,1357,1128,0,0
140,-104,0,0,0,0,0,0,0,0,0,-1,1364,1128,0,0
147,-104,0,0,0,0,0,0,0,0,0,-1,1371,1128,0,0
154,-104,0,0,0,0,0,0,0,0,0,-1,1378,1128,0,0
161,-104,0,0,0,0,0,0,0,0,0,-1,1385,1128,0,0
168,-104,0,0,0,0,0,0,0,0,0,-1,1392,1128,0,0
175,-104,0,0,0,0,0,0,0,0,0,-1,1399,1128,0,0
182,-104,0,0,0,0,0,0,0,0,0,-1,1406,1128,0,0
189,-104,0,0,0,0,0,0,0,0,0,-1,1413,1128,0,0
196,-104,0,0,0,0,0,0,0,0,0,-1,1420,1128,0,0
203,-104,0,0,0,0,0,0,0,0,0,-1,1427,1128,0,0
210,-104,0,0,0,0,0,0,0,0,0,-1,1434,1128,0,0
217,-104,0,0,0,0,0,0,0,0,0,-1,1441,1128,0,0
224,-104,0,0,0,0,0,0,0,0,0,-1,1448,1128,0,0
231,-104,0,0,0,0,0,0,0,0,0,-1,1455,1128,0,0
238,-104,0,0,0,0,0,0,0,0,0,-1,1462,1128,0,0
245,-104,0,0,0,0,0,0,0,0,0,-1,1469,1128,0,0
252,-104,0,0,0,0,0,0,0,0,0,-1,1476,1128,0,0
259,-104,0,0,0,0,0,0,0,0,0,-1,1483,1128,0,0
266,-104,0,0,0,0,0,0,0,0,0,-1,1490,1128,0,0
273,-104,0,0,0,0,0,0,0,0,0,-1,1497,1128,0,0
280,-104,0,0,0,0,0,0,0,0,0,-1,1504,1128,0,0
287,-104,0,0,0,0,0,0,0,0,0,-1,1511,1128,0,0
294,-104,0,0,0,0,0,0,0,0,0,-1,1518,1128,0,0
301,-104,0,0,0,0,0,0,0,0,0,-1,1525,1128,0,0
308,-104,0,0,0,0,0,0,0,0,0,-1,1532,1128,0,0
315,-104,0,0,0,0,0,0,0,0,0,-1,1539,1128,0,0
322,-104,0,0,0,0,0,0,0,0,0,-1,1546,1128,0,0
329,-104,0,0,0,0,0,0,0,0,0,-1,1553,1128,0,0
336,-104,0,0,0,0,0,0,0,0,0,-1,1560,1128,0,0
343,-104,0,0,0,0,0,0,0,0,0,-1,1567,1128,0,0
350,-104,0,0,0,0,0,0,0,0,0,-1,1574,1128,0,0
357,-104,0,0,0,0,0,0,0,0,0,-1,1581,1128,0,0
364,-104,0,0,0,0,0,0,0,0,0,-1,1588,1128,0,0
371,-104,0,0,0,0,0,0,0,0,0,-1,1595,1128,0,0
378,-104,0,0,0,0,0,0,0,0,0,-1,1602,1128,0,0
385,-104,0,0,0,0,0,0,0,0,0,-1,1609,1128,0,0
392,-104,0,0,0,0,0,0,0,0,0,-1,1616,1128,0,0
399,-104,0,0,0,0,0,0,0,0,0,-1,1623,1128,0,0
406,-104,0,0,0,0,0,0,0,0,0,-1,1630,1128,0,0
413,-104,0,0,0,0,0,0,0,0,0,-1,1637,1128,0,0
420,-104,0,0,0,0,0,0,0,0,0,-1,1644,1128,0,0
427,-104,0,0,0,0,0,0,0,0,0,-1,1651,1128,0,0
434,-104,0,0,0,0,0,0,0,0,0,-1,1658,1128,0,0
441,-104,0,0,0,0,0,0,0,0,0,-1,1665,1128,0,0
448,-104,0,0,0,0,0,0,0,0,0,-1,1672,1128,0,0
455,-104,0,0,0,0,0,0,0,0,0,-1,1679,1128,0,0
462,-104,0,0,0,0,0,0,0,0,0,-1,1686,1128,0,0
469,-104,0,0,0,0,0,0,0,0,0,-1,1693,1128,0,0
476,-104,0,0,0,0,0,0,0,0,0,-1,1700,1128,0,0
483,-104,0,0,0,0,0,0,0,0,0,-1,1707,1128,0,0
490,-104,0,0,0,0,0,0,0,0,0,-1,1714,1128,0,0
497,-104,0,0,0,0,0,0,0,0,0,-1,1721,1128,0,0
504,-104,0,0,0,0,0,0,0,0,0,-1,1728,1128,0,0
511,-104,0,0,0,0,0,0,0,0,0,-1,1735,1128,0,0
518,-104,0,0,0,0,0,0,0,0,0,-1,1742,1128,0,0
525,-104,0,0,0,0,0,0,0,0,0,-1,1749,1128,0,0
532,-104,0,0,0,0,0,0,0,0,0,-1,1756,1128,0,0
539,-104,0,0,0,0,0,0,0,0,0,-1,1763,1128,0,0
546,-104,0,0,0,0,0,0,0,0,0,-1,1770,1128,0,0
553,-104,0,0,0,0,0,0,0,0,0,-1,1777,1128,0,0
560,-104,0,0,0,0,0,0,0,0,0,-1,1784,1128,0,0
567,-104,0,0,0,0,0,0,0,0,0,-1,1791,1128,0,0
574,-104,0,0,0,0,0,0,0,0,0,-1,1798,1128,0,0
581,-104,0,0,0,0,0,0,0,0,0,-1,1805,1128,0,0
588,-104,0,0,0,0,0,0,0,0,0,-1,1812,1128,0,0
595,-104,0,0,0,0,0,0,0,0,0,-1,1819,1128,0,0
602,-104,0,0,0,0,0,0,0,0,0,-1,1826,1128,0,0
609,-104,0,0,0,0,0,0,0,0,0,-1,1833,1128,0,0
616,-104,0,0,0,0,0,0,0,0,0,-1,1840,1128,0,0
623,-104,0,0,0,0,0,0,0,0,0,-1,1847,1128,0,0
630,-104,0,0,0,0,0,0,0,0,0,-1,1854,1128,0,0
637,-104,0,0,0,0,0,0,0,0,0,-1,1861,1128,0,0
644,-104,76.2633,2.3645,-0.000950798,0.000692953,-0.0034574,0.00342482,-0.00368267,-0.90209,0.00410441,0.0373786,1868,1128,76.2632,-2.36446
651,-104,76.2485,2.3634,-0.000332237,0.000322655,-0.00191844,0.00194139,-0.00195097,-0.869925,0.00224726,0.0365709,1875,1128,76.2485,-2.36334
658,-104,76.3975,2.18811,0.000212502,6.2353e-05,-0.00108764,0.00122765,-0.000952797,-0.75094,0.00126221,0.0404054,1882,1128,76.3974,-2.18816
665,-104,76.5527,2.06628,0.000573526,-8.97594e-05,-0.000673181,0.000992324,-0.000508556,-0.556523,0.00088141,0.0438209,1889,1128,76.5528,-2.06627
672,-104,76.6069,2.24524,0.000839641,-0.000169898,-0.000585914,0.00110823,-0.00043849,-0.429829,0.000920483,0.0447694,1896,1128,76.6069,-2.24528
679,-104,76.42,2.33276,0.00113815,-0.000430233,-0.000636133,0.00136372,-0.000655804,-0.340765,0.00118961,0.0416529,1903,1128,76.42,-2.33271
686,-104,76.3182,2.23694,0.0012401,-0.000950219,-0.000649038,0.00141798,-0.0011281,-0.267496,0.00147315,0.0389407,1910,1128,76.3183,-2.23691
693,-104,76.3213,2.05212,0.00129366,-0.00130769,-0.000533075,0.00139866,-0.00141269,-0.194482,0.00162314,0.0352769,1917,1128,76.3213,-2.05211
700,-104,76.3536,2.02454,0.00142745,-0.00152378,-0.000242588,0.00144726,-0.00154359,-0.0814702,0.00172707,0.0290733,1924,1128,76.3536,-2.02449
707,-104,76.2965,2.07593,0,0,0,0,0,0,0,-1,1931,1128,76.2965,-2.07593
714,-104,45.5221,2.32166,0,0,0,0,0,0,0,-1,1938,1128,45.5221,-2.3216
721,-104,70.3774,9.70361,0,0,0,0,0,0,0,-1,1945,1128,70.3774,-9.70356
728,-104,70.5979,8.92639,-2.68981e-05,-0.000586908,0.000635637,0.000387674,-0.00100148,0.577931,0.000827715,0.0459592,1952,1128,70.598,-8.92644
735,-104,70.6802,8.3136,-0.000470246,-0.000152873,0.000908485,0.00061068,-0.0012338,0.871862,0.00108498,0.0392911,1959,1128,70.6802,-8.31364
742,-104,70.4594,7.80615,-1.23247e-05,0.000598669,0.00137579,0.00170247,-0.00111613,0.894652,0.00163901,0.0265021,1966,1128,70.4593,-7.80619
749,-104,70.3387,7.24121,0.00096355,0.00276483,0.00189458,0.00396194,-0.000233566,1.00728,0.00272249,0.0245269,1973,1128,70.3387,-7.24127
756,-104,70.3418,6.6217,0.00294747,0.00634898,0.00157512,0.00696632,0.00233013,1.19726,0.00409481,0.0182315,1980,1128,70.3419,-6.62173
763,-104,70.2683,6.06006,0.00735511,0.0118637,0.000264842,0.0118793,0.00733961,1.51232,0.0069217,0.0194924,1987,1128,70.2682,-6.06005
770,-104,70.189,5.52539,0.0140044,0.0196231,-0.00178787,0.0201437,0.0134838,-1.28742,0.0118503,0.0175678,1994,1128,70.1889,-5.52534
777,-104,70.0879,4.88782,0.0222991,0.0287988,-0.00454695,0.0311379,0.01996,-1.09567,0.0182142,0.0253725,2001,1128,70.0879,-4.88785
784,-104,69.9126,4.05664,0.0321169,0.0393572,-0.00810189,0.044611,0.0268631,-0.995506,0.0259348,0.0422012,2008,1128,69.9126,-4.05669
791,-104,69.731,3.27673,0.0437857,0.0516628,-0.012814,0.0611299,0.0343186,-0.934496,0.035382,0.0464669,2015,1128,69.7309,-3.27672
798,-104,69.5615,2.41711,0.0574942,0.0661868,-0.019219,0.0815448,0.0421362,-0.896602,0.0470887,0.0488427,2022,1128,69.5616,-2.41711
805,-104,69.1826,1.88354,0,0,0,0,0,0,0,-1,2029,1128,69.1827,-1.88352
812,-104,74.3684,0.260498,0,0,0,0,0,0,0,-1,2036,1128,74.3685,-0.260533
-700,-111,0,0,0,0,0,0,0,0,0,-1,524,1135,0,0
-693,-111,-52.9041,-3.52136,0,0,0,0,0,0,0,-1,531,1135,-52.9041,3.52138
-686,-111,-52.0363,-1.66309,0,0,0,0,0,0,0,-1,538,1135,-52.0363,1.66306
-679,-111,-53.1861,-0.635132,0,0,0,0,0,0,0,-1,545,1135,-53.1861,0.635158
-672,-111,-52.6997,-1.04944,0,0,0,0,0,0,0,-1,552,1135,-52.6997,1.04945
-665,-111,-54.1876,-0.150513,0,0,0,0,0,0,0,-1,559,1135,-54.1876,0.150564
-658,-111,-54.4313,2.57825,0,0,0,0,0,0,0,-1,566,1135,-54.4313,-2.57828
-651,-111,-53.2982,2.87671,0,0,0,0,0,0,0,-1,573,1135,-53.2982,-2.87669
-644,-111,-53.4229,3.63831,-0.00975342,0.0112324,0.0085817,0.0142948,-0.0128158,1.22803,0.0156601,0.0300648,580,1135,-53.4229,-3.63829
-637,-111,-53.5511,4.34424,-0.00770514,0.00663376,0.00430726,0.00782814,-0.00889951,1.3003,0.00966431,0.0141179,587,1135,-53.5511,-4.34423
-630,-111,-53.5928,4.88489,-0.00669804,0.00373023,0.000887579,0.00380523,-0.00677304,1.48649,0.00618697,0.0293417,594,1135,-53.5928,-4.88492
-623,-111,-53.6345,5.58667,-0.00620841,0.00128067,-0.00125651,0.00148587,-0.00641361,-1.40892,0.00484754,0.024723,601,1135,-53.6344,-5.5867
-616,-111,-54.047,6.23694,-0.00620488,0.000138985,-0.00122551,0.000367497,-0.00643339,-1.38645,0.00441652,0.0317165,608,1135,-54.047,-6.23688
-609,-111,-54.2958,6.81079,-0.00604582,-4.9672e-05,-0.000646511,1.92435e-05,-0.00611473,-1.4646,0.00408292,0.0397405,615,1135,-54.2958,-6.81073
-602,-111,-54.2814,7.57727,0,0,0,0,0,0,0,-1,622,1135,-54.2814,-7.57726
-595,-111,-53.4669,8.31482,0,0,0,0,0,0,0,-1,629,1135,-53.4669,-8.31477
-588,-111,-53.1042,9.20911,0,0,0,0,0,0,0,-1,636,1135,-53.1043,-9.20914
-581,-111,-21.0555,3.14551,0,0,0,0,0,0,0,-1,643,1135,-21.0555,-3.14548
-574,-111,-59.6525,0.194458,0,0,0,0,0,0,0,-1,650,1135,-59.6526,-0.19449
-567,-111,-59.6543,0.296875,-0.0031659,-0.00229195,-0.000934033,-0.00169773,-0.00376012,-1.00419,0.00217431,0.0373478,657,1135,-59.6543,-0.296837
-560,-111,-59.6795,0.380371,-0.00173888,-0.0026948,-0.00103003,-0.00108132,-0.00335236,-0.56817,0.0019757,0.0394086,664,1135,-59.6795,-0.380395
-553,-111,-59.6581,0.157471,-0.000176199,-0.00322052,-0.000958505,0.000100446,-0.00349717,-0.280986,0.00236564,0.0442148,671,1135,-59.6581,-0.157489
-546,-111,-59.6821,-0.114014,0.0021085,-0.00436765,-0.000569198,0.00215815,-0.0044173,-0.0870025,0.0038703,0.0404903,678,1135,-59.6821,0.113996
-539,-111,-59.8011,-0.128906,0.00565368,-0.00634734,0.000256446,0.00565916,-0.00635282,0.0213557,0.00693897,0.0402033,685,1135,-59.8011,0.128889
-532,-111,-59.6814,0.0640869,0.00963036,-0.00848111,0.00149755,0.00975335,-0.0086041,0.0819434,0.0106056,0.0441958,692,1135,-59.6814,-0.0640556
-525,-111,-59.5446,0.147705,0.0138187,-0.010508,0.00315465,0.0142211,-0.0109105,0.126883,0.0145516,0.0438327,699,1135,-59.5445,-0.147764
-518,-111,0,0,0,0,0,0,0,0,0,-1,706,1135,0,0
-511,-111,0,0,0,0,0,0,0,0,0,-1,713,1135,0,0
-504,-111,0,0,0,0,0,0,0,0,0,-1,720,1135,0,0
-497,-111,0,0,0,0,0,0,0,0,0,-1,727,1135,0,0
-490,-111,0,0,0,0,0,0,0,0,0,-1,734,1135,0,0
-483,-111,0,0,0,0,0,0,0,0,0,-1,741,1135,0,0
-476,-111,0,0,0,0,0,0,0,0,0,-1,748,1135,0,0
-469,-111,0,0,0,0,0,0,0,0,0,-1,755,1135,0,0
-462,-111,0,0,0,0,0,0,0,0,0,-1,762,1135,0,0
-455,-111,0,0,0,0,0,0,0,0,0,-1,769,1135,0,0
-448,-111,0,0,0,0,0,0,0,0,0,-1,776,1135,0,0
-441,-111,0,0,0,0,0,0,0,0,0,-1,783,1135,0,0
-434,-111,0,0,0,0,0,0,0,0,0,-1,790,1135,0,0
-427,-111,0,0,0,0,0,0,0,0,0,-1,797,1135,0,0
-420,-111,0,0,0,0,0,0,0,0,0,-1,804,1135,0,0
-413,-111,0,0,0,0,0,0,0,0,0,-1,811,1135,0,0
-406,-111,0,0,0,0,0,0,0,0,0,-1,818,1135,0,0
-399,-111,0,0,0,0,0,0,0,0,0,-1,825,1135,0,0
-392,-111,0,0,0,0,0,0,0,0,0,-1,832,1135,0,0
-385,-111,0,0,0,0,0,0,0,0,0,-1,839,1135,0,0
-378,-111,0,0,0,0,0,0,0,0,0,-1,846,1135,0,0
-371,-111,0,0,0,0,0,0,0,0,0,-1,853,1135,0,0
-364,-111,0,0,0,0,0,0,0,0,0,-1,860,1135,0,0
-357,-111,0,0,0,0,0,0,0,0,0,-1,867,1135,0,0
-350,-111,0,0,0,0,0,0,0,0,0,-1,874,1135,0,0
-343,-111,0,0,0,0,0,0,0,0,0,-1,881,1135,0,0
-336,-111,0,0,0,0,0,0,0,0,0,-1,888,1135,0,0
-329,-111,0,0,0,0,0,0,0,0,0,-1,895,1135,0,0
-322,-111,0,0,0,0,0,0,0,0,0,-1,902,1135,0,0
-315,-111,0,0,0,0,0,0,0,0,0,-1,909,1135,0,0
-308,-111,0,0,0,0,0,0,0,0,0,-1,916,1135,0,0
-301,-111,0,0,0,0,0,0,0,0,0,-1,923,1135,0,0
-294,-111,0,0,0,0,0,0,0,0,0,-1,930,1135,0,0
-287,-111,0,0,0,0,0,0,0,0,0,-1,937,1135,0,0
-280,-111,0,0,0,0,0,0,0,0,0,-1,944,1135,0,0
-273,-111,0,0,0,0,0,0,0,0,0,-1,951,1135,0,0
-266,-111,0,0,0,0,0,0,0,0,0,-1,958,1135,0,0
-259,-111,0,0,0,0,0,0,0,0,0,-1,965,1135,0,0
-252,-111,0,0,0,0,0,0,0,0,0,-1,972,1135,0,0
-245,-111,0,0,0,0,0,0,0,0,0,-1,979,1135,0,0
-238,-111,0,0,0,0,0,0,0,0,0,-1,986,1135,0,0
-231,-111,0,0,0,0,0,0,0,0,0,-1,993,1135,0,0
-224,-111,0,0,0,0,0,0,0,0,0,-1,1000,1135,0,0
-217,-111,0,0,0,0,0,0,0,0,0,-1,1007,1135,0,0
-210,-111,0,0,0,0,0,0,0,0,0,-1,1014,1135,0,0
-203,-111,0,0,0,0,0,0,0,0,0,-1,1021,1135,0,0
-196,-111,0,0,0,0,0,0,0,0,0,-1,1028,1135,0,0
-189,-111,0,0,0,0,0,0,0,0,0,-1,1035,1135,0,0
-182,-111,0,0,0,0,0,0,0,0,0,-1,1042,1135,0,0
-175,-111,0,0,0,0,0,0,0,0,0,-1,1049,1135,0,0
-168,-111,0,0,0,0,0,0,0,0,0,-1,1056,1135,0,0
-161,-111,0,0,0,0,0,0,0,0,0,-1,1063,1135,0,0
-154,-111,0,0,0,0,0,0,0,0,0,-1,1070,1135,0,0
-147,-111,0,0,0,0,0,0,0,0,0,-1,1077,1135,0,0
-140,-111,0,0,0,0,0,0,0,0,0,-1,1084,1135,0,0
-133,-111,0,0,0,0,0,0,0,0,0,-1,1091,1135,0,0
-126,-111,0,0,0,0,0,0,0,0,0,-1,1098,1135,0,0
-119,-111,0,0,0,0,0,0,0,0,0,-1,1105,1135,0,0
-112,-111,0,0,0,0,0,0,0,0,0,-1,1112,1135,0,0
-105,-111,0,0,0,0,0,0,0,0,0,-1,1119,1135,0,0
-98,-111,0,0,0,0,0,0,0,0,0,-1,1126,1135,0,0
-91,-111,0,0,0,0,0,0,0,0,0,-1,1133,1135,0,0
-84,-111,0,0,0,0,0,0,0,0,0,-1,1140,1135,0,0
-77,-111,0,0,0,0,0,0,0,0,0,-1,1147,1135,0,0
-70,-111,0,0,0,0,0,0,0,0,0,-1,1154,1135,0,0
-63,-111,0,0,0,0,0,0,0,0,0,-1,1161,1135,0,0
-56,-111,0,0,0,0,0,0,0,0,0,-1,1168,1135,0,0
-49,-111,0,0,0,0,0,0,0,0,0,-1,1175,1135,0,0
-42,-111,0,0,0,0,0,0,0,0,0,-1,1182,1135,0,0
-35,-111,0,0,0,0,0,0,0,0,0,-1,1189,1135,0,0
-28,-111,0,0,0,0,0,0,0,0,0,-1,1196,1135,0,0
-21,-111,0,0,0,0,0,0,0,0,0,-1,1203,1135,0,0
-14,-111,0,0,0,0,0,0,0,0,0,-1,1210,1135,0,0
-7,-111,0,0,0,0,0,0,0,0,0,-1,1217,1135,0,0
0,-111,0,0,0,0,0,0,0,0,0,-1,1224,1135,0,0
7,-111,0,0,0,0,0,0,0,0,0,-1,1231,1135,0,0
14,-111,0,0,0,0,0,0,0,0,0,-1,1238,1135,0,0
21,-111,0,0,0,0,0,0,0,0,0,-1,1245,1135,0,0
28,-111,0,0,0,0,0,0,0,0,0,-1,1252,1135,0,0
35,-111,0,0,0,0,0,0,0,0,0,-1,1259,1135,0,0
42,-111,0,0,0,0,0,0,0,0,0,-1,1266,1135,0,0
49,-111,0,0,0,0,0,0,0,0,0,-1,1273,1135,0,0
56,-111,0,0,0,0,0,0,0,0,0,-1,1280,1135,0,0
63,-111,0,0,0,0,0,0,0,0,0,-1,1287,1135,0,0
70,-111,0,0,0,0,0,0,0,0,0,-1,1294,1135,0,0
77,-111,0,0,0,0,0,0,0,0,0,-1,1301,1135,0,0
84,-111,0,0,0,0,0,0,0,0,0,-1,1308,1135,0,0
91,-111,0,0,0,0,0,0,0,0,0,-1,1315,1135,0,0
98,-111,0,0,0,0,0,0,0,0,0,-1,1322,1135,0,0
105,-111,0,0,0,0,0,0,0,0,0,-1,1329,1135,0,0
112,-111,0,0,0,0,0,0,0,0,0,-1,1336,1135,0,0
119,-111,0,0,0,0,0,0,0,0,0,-1,1343,1135,0,0
126,-111,0,0,0,0,0,0,0,0,0,-1,1350,1135,0,0
133,-111,0,0,0,0,0,0,0,0,0,-1,1357,1135,0,0
140,-111,0,0,0,0,0,0,0,0,0,-1,1364,1135,0,0
147,-111,0,0,0,0,0,0,0,0,0,-1,1371,1135,0,0
154,-111,0,0,0,0,0,0,0,0,0,-1,1378,1135,0,0
161,-111,0,0,0,0,0,0,0,0,0,-1,1385,1135,0,0
168,-111,0,0,0,0,0,0,0,0,0,-1,1392,1135,0,0
175,-111,0,0,0,0,0,0,0,0,0,-1,1399,1135,0,0
182,-111,0,0,0,0,0,0,0,0,0,-1,1406,1135,0,0
189,-111,0,0,0,0,0,0,0,0,0,-1,1413,1135,0,0
196,-111,0,0,0,0,0,0,0,0,0,-1,1420,1135,0,0
203,-111,0,0,0,0,0,0,0,0,0,-1,1427,1135,0,0
210,-111,0,0,0,0,0,0,0,0,0,-1,1434,1135,0,0
217,-111,0,0,0,0,0,0,0,0,0,-1,1441,1135,0,0
224,-111,0,0,0,0,0,0,0,0,0,-1,1448,1135,0,0
231,-111,0,0,0,0,0,0,0,0,0,-1,1455,1135,0,0
238,-111,0,0,0,0,0,0,0,0,0,-1,1462,1135,0,0
245,-111,0,0,0,0,0,0,0,0,0,-1,1469,1135,0,0
252,-111,0,0,0,0,0,0,0,0,0,-1,1476,1135,0,0
259,-111,0,0,0,0,0,0,0,0,0,-1,1483,1135,0,0
266,-111,0,0,0,0,0,0,0,0,0,-1,1490,1135,0,0
273,-111,0,0,0,0,0,0,0,0,0,-1,1497,1135,0,0
280,-111,0,0,0,0,0,0,0,0,0,-1,1504,1135,0,0
287,-111,0,0,0,0,0,0,0,0,0,-1,1511,1135,0,0
294,-111,0,0,0,0,0,0,0,0,0,-1,1518,1135,0,0
301,-111,0,0,0,0,0,0,0,0,0,-1,1525,1135,0,0
308,-111,0,0,0,0,0,0,0,0,0,-1,1532,1135,0,0
315,-111,0,0,0,0,0,0,0,0,0,-1,1539,1135,0,0
322,-111,0,0,0,0,0,0,0,0,0,-1,1546,1135,0,0
329,-111,0,0,0,0,0,0,0,0,0,-1,1553,1135,0,0
336,-111,0,0,0,0,0,0,0,0,0,-1,1560,1135,0,0
343,-111,0,0,0,0,0,0,0,0,0,-1,1567,1135,0,0
350,-111,0,0,0,0,0,0,0,0,0,-1,1574,1135,0,0
357,-111,0,0,0,0,0,0,0,0,0,-1,1581,1135,0,0
364,-111,0,0,0,0,0,0,0,0,0,-1,1588,1135,0,0
371,-111,0,0,0,0,0,0,0,0,0,-1,1595,1135,0,0
378,-111,0,0,0,0,0,0,0,0,0,-1,1602,1135,0,0
385,-111,0,0,0,0,0,0,0,0,0,-1,1609,1135,0,0
392,-111,0,0,0,0,0,0,0,0,0,-1,1616,1135,0,0
399,-111,0,0,0,0,0,0,0,0,0,-1,1623,1135,0,0
406,-111,0,0,0,0,0,0,0,0,0,-1,1630,1135,0,0
413,-111,0,0,0,0,0,0,0,0,0,-1,1637,1135,0,0
420,-111,0,0,0,0,0,0,0,0,0,-1,1644,1135,0,0
427,-111,0,0,0,0,0,0,0,0,0,-1,1651,1135,0,0
434,-111,0,0,0,0,0,0,0,0,0,-1,1658,1135,0,0
441,-111,0,0,0,0,0,0,0,0,0,-1,1665,1135,0,0
448,-111,0,0,0,0,0,0,0,0,0,-1,1672,1135,0,0
455,-111,0,0,0,0,0,0,0,0,0,-1,1679,1135,0,0
462,-111,0,0,0,0,0,0,0,0,0,-1,1686,1135,0,0
469,-111,0,0,0,0,0,0,0,0,0,-1,1693,1135,0,0
476,-111,0,0,0,0,0,0,0,0,0,-1,1700,1135,0,0
483,-111,0,0,0,0,0,0,0,0,0,-1,1707,1135,0,0
490,-111,0,0,0,0,0,0,0,0,0,-1,1714,1135,0,0
497,-111,0,0,0,0,0,0,0,0,0,-1,1721,1135,0,0
504,-111,0,0,0,0,0,0,0,0,0,-1,1728,1135,0,0
511,-111,0,0,0,0,0,0,0,0,0,-1,1735,1135,0,0
518,-111,0,0,0,0,0,0,0,0,0,-1,1742,1135,0,0
525,-111,0,0,0,0,0,0,0,0,0,-1,1749,1135,0,0
532,-111,0,0,0,0,0,0,0,0,0,-1,1756,1135,0,0
539,-111,0,0,0,0,0,0,0,0,0,-1,1763,1135,0,0
546,-111,0,0,0,0,0,0,0,0,0,-1,1770,1135,0,0
553,-111,0,0,0,0,0,0,0,0,0,-1,1777,1135,0,0
560,-111,0,0,0,0,0,0,0,0,0,-1,1784,1135,0,0
567,-111,0,0,0,0,0,0,0,0,0,-1,1791,1135,0,0
574,-111,0,0,0,0,0,0,0,0,0,-1,1798,1135,0,0
581,-111,0,0,0,0,0,0,0,0,0,-1,1805,1135,0,0
588,-111,0,0,0,0,0,0,0,0,0,-1,1812,1135,0,0
595,-111,0,0,0,0,0,0,0,0,0,-1,1819,1135,0,0
602,-111,0,0,0,0,0,0,0,0,0,-1,1826,1135,0,0
609,-111,0,0,0,0,0,0,0,0,0,-1,1833,1135,0,0
616,-111,0,0,0,0,0,0,0,0,0,-1,1840,1135,0,0
623,-111,0,0,0,0,0,0,0,0,0,-1,1847,1135,0,0
630,-111,0,0,0,0,0,0,0,0,0,-1,1854,1135,0,0
637,-111,0,0,0,0,0,0,0,0,0,-1,1861,1135,0,0
644,-111,76.2863,2.50928,-0.00106996,0.00103708,-0.00361531,0.00374925,-0.00378213,-0.927175,0.00434825,0.0376205,1868,1135,76.2863,-2.50931
651,-111,76.1635,2.35852,-0.000508841,0.000578867,-0.00197562,0.00208413,-0.0020141,-0.919712,0.00236623,0.0364397,1875,1135,76.1635,-2.35851
658,-111,76.2858,2.03955,3.77485e-05,0.000280231,-0.00106462,0.00123049,-0.000912511,-0.842095,0.00124179,0.0410855,1882,1135,76.2857,-2.03949
665,-111,76.4972,2.15002,0.000443172,0.00012115,-0.000587812,0.000891626,-0.000327304,-0.651719,0.000728456,0.0447699,1889,1135,76.4972,-2.15001
672,-111,76.5076,2.24792,0.000770863,6.23639e-05,-0.000468938,0.00100432,-0.00017109,-0.461915,0.000733259,0.0445538,1896,1135,76.5076,-2.24789
679,-111,76.3153,2.34839,0.00114592,-0.000216131,-0.000488386,0.00130294,-0.000373149,-0.311066,0.00101611,0.0405119,1903,1135,76.3153,-2.34841
686,-111,76.238,2.25476,0.00133488,-0.000771496,-0.000482968,0.00144034,-0.000876955,-0.214982,0.00135101,0.0394743,1910,1135,76.2381,-2.25476
693,-111,76.2507,2.14172,0.00138353,-0.00112501,-0.000343888,0.00142982,-0.00117129,-0.133799,0.00150422,0.036981,1917,1135,76.2508,-2.14174
700,-111,76.3619,2.05383,0.00151488,-0.00137007,-4.15186e-05,0.00151547,-0.00137067,-0.0143875,0.00166702,0.029977,1924,1135,76.362,-2.05387
707,-111,76.3479,2.03137,0,0,0,0,0,0,0,-1,1931,1135,76.3479,-2.03131
714,-111,45.1654,7.39746,0,0,0,0,0,0,0,-1,1938,1135,45.1654,-7.39745
721,-111,69.8042,9.84167,0,0,0,0,0,0,0,-1,1945,1135,69.8041,-9.84162
728,-111,69.8712,9.07129,0.000235829,-0.000639296,0.000721671,0.000642228,-0.00104569,0.512872,0.000983759,0.0319775,1952,1135,69.8712,-9.07124
735,-111,69.9254,8.46655,-0.00020624,-0.000389417,0.00102463,0.000730884,-0.00132654,0.740823,0.00120434,0.031925,1959,1135,69.9254,-8.46651
742,-111,69.7954,7.88953,1.21006e-05,0.000218488,0.00148518,0.00160405,-0.00137347,0.820084,0.00172079,0.0211596,1966,1135,69.7954,-7.8895
749,-111,69.6924,7.26782,0.000538605,0.0022962,0.00198384,0.00358717,-0.00075237,0.993897,0.00267771,0.0208568,1973,1135,69.6923,-7.26782
756,-111,69.677,6.63672,0.0021775,0.00623427,0.00168239,0.00684118,0.00157059,1.22458,0.00413783,0.0174135,1980,1135,69.6769,-6.63674
763,-111,69.644,6.06128,0.00607922,0.0123217,0.000353537,0.0123417,0.00605926,1.5144,0.00712587,0.0170216,1987,1135,69.6441,-6.06131
770,-111,69.5688,5.46497,0.0118058,0.0206158,-0.00166733,0.0209208,0.0115009,-1.38987,0.0120985,0.0142347,1994,1135,69.5689,-5.46493
777,-111,69.3633,4.78027,0.0189669,0.0304722,-0.00437451,0.0319465,0.0174926,-1.24572,0.0184721,0.0283829,2001,1135,69.3634,-4.78031
784,-111,69.1897,3.8551,0.0275421,0.0419765,-0.00789492,0.0454559,0.0240627,-1.15569,0.0262591,0.044005,2008,1135,69.1896,-3.85511
791,-111,69.354,2.76685,0,0,0,0,0,0,0,-1,2015,1135,69.3541,-2.76683
798,-111,68.8914,1.45801,0.0497274,0.0717101,-0.0189164,0.0825966,0.0388409,-1.04858,0.0477153,0.0465148,2022,1135,68.8914,-1.45806
805,-111,68.3064,2.21594,0,0,0,0,0,0,0,-1,2029,1135,68.3064,-2.21594
812,-111,67.6274,3.29858,0,0,0,0,0,0,0,-1,2036,1135,67.6273,-3.29856
-700,-118,0,0,0,0,0,0,0,0,0,-1,524,1142,0,0
-693,-118,-50.8243,3.26917,0,0,0,0,0,0,0,-1,531,1142,-50.8243,-3.26916
-686,-118,-51.348,3.60291,0,0,0,0,0,0,0,-1,538,1142,-51.348,-3.60287
-679,-118,-51.8872,3.98279,0,0,0,0,0,0,0,-1,545,1142,-51.8872,-3.98278
-672,-118,-52.4264,4.36267,0,0,0,0,0,0,0,-1,552,1142,-52.4264,-4.3627
-665,-118,-53.1361,-0.695679,0,0,0,0,0,0,0,-1,559,1142,-53.1362,0.695645
-658,-118,-55.0958,-1.94812,0,0,0,0,0,0,0,-1,566,1142,-55.0958,1.94813
-651,-118,-52.2878,2.79224,0,0,0,0,0,0,0,-1,573,1142,-52.2878,-2.7922
-644,-118,-52.6221,3.57849,-0.009955,0.0121725,0.00752528,0.0144892,-0.0122717,1.27215,0.0154681,0.039604,580,1142,-52.6221,-3.57849
-637,-118,-52.8611,4.35242,-0.00797614,0.00701265,0.00344811,0.00776783,-0.00873131,1.35519,0.0095312,0.0208106,587,1142,-52.8612,-4.35242
-630,-118,-52.9215,4.96814,-0.00710135,0.00370432,0.000271223,0.00371112,-0.00710816,1.54572,0.00634832,0.0291778,594,1142,-52.9215,-4.96812
-623,-118,-52.9019,5.65051,-0.00681761,0.00140241,-0.00159154,0.0016998,-0.007115,-1.38607,0.00539986,0.0232577,601,1142,-52.9019,-5.65054
-616,-118,-52.8425,6.37976,0,0,0,0,0,0,0,-1,608,1142,-52.8425,-6.37972
-609,-118,-53.4036,6.71936,0,0,0,0,0,0,0,-1,615,1142,-53.4035,-6.71941
-602,-118,-53.1754,7.52051,0,0,0,0,0,0,0,-1,622,1142,-53.1754,-7.52051
-595,-118,-52.9353,8.25842,0,0,0,0,0,0,0,-1,629,1142,-52.9353,-8.25844
-588,-118,-52.242,9.30591,0,0,0,0,0,0,0,-1,636,1142,-52.242,-9.30589
-581,-118,-24.6116,3.89648,0,0,0,0,0,0,0,-1,643,1142,-24.6116,-3.89645
-574,-118,-59.7086,0.301514,0,0,0,0,0,0,0,-1,650,1142,-59.7086,-0.301459
-567,-118,-59.6317,0.352173,-0.00454909,-0.00147176,-0.000730683,-0.00130708,-0.00471377,-1.34912,0.00281005,0.0416322,657,1142,-59.6317,-0.352227
-560,-118,-59.611,0.326416,-0.00330688,-0.00172972,-0.000805418,-0.00139111,-0.00364549,-1.17282,0.0021243,0.0367865,664,1142,-59.611,-0.326392
-553,-118,-59.5589,0.264038,-0.00162806,-0.00215888,-0.000782493,-0.00106719,-0.00271975,-0.621894,0.00158232,0.0385126,671,1142,-59.5589,-0.264084
-546,-118,-59.5571,0.28479,0.00107726,-0.00350238,-0.000504477,0.00113217,-0.00355729,-0.108424,0.00282557,0.0392664,678,1142,-59.557,-0.284831
-539,-118,-59.666,0.391602,0.00493919,-0.00558508,0.000194672,0.00494279,-0.00558868,0.018489,0.00608416,0.0419143,685,1142,-59.6659,-0.391569
-532,-118,-59.9754,0.47168,0,0,0,0,0,0,0,-1,692,1142,-59.9754,-0.471692
-525,-118,-59.7395,0.139771,0,0,0,0,0,0,0,-1,699,1142,-59.7395,-0.139768
-518,-118,0,0,0,0,0,0,0,0,0,-1,706,1142,0,0
-511,-118,0,0,0,0,0,0,0,0,0,-1,713,1142,0,0
-504,-118,0,0,0,0,0,0,0,0,0,-1,720,1142,0,0
-497,-118,0,0,0,0,0,0,0,0,0,-1,727,1142,0,0
-490,-118,0,0,0,0,0,0,0,0,0,-1,734,1142,0,0
-483,-118,0,0,0,0,0,0,0,0,0,-1,741,1142,0,0
-476,-118,0,0,0,0,0,0,0,0,0,-1,748,1142,0,0
-469,-118,0,0,0,0,0,0,0,0,0,-1,755,1142,0,0
-462,-118,0,0,0,0,0,0,0,0,0,-1,762,1142,0,0
-455,-118,0,0,0,0,0,0,0,0,0,-1,769,1142,0,0
-448,-118,0,0,0,0,0,0,0,0,0,-1,776,1142,0,0
-441,-118,0,0,0,0,0,0,0,0,0,-1,783,1142,0,0
-434,-118,0,0,0,0,0,0,0,0,0,-1,790,1142,0,0
-427,-118,0,0,0,0,0,0,0,0,0,-1,797,1142,0,0
-420,-118,0,0,0,0,0,0,0,0,0,-1,804,1142,0,0
-413,-118,0,0,0,0,0,0,0,0,0,-1,811,1142,0,0
-406,-118,0,0,0,0,0,0,0,0,0,-1,818,1142,0,0
-399,-118,0,0,0,0,0,0,0,0,0,-1,825,1142,0,0
-392,-118,0,0,0,0,0,0,0,0,0,-1,832,1142,0,0
-385,-118,0,0,0,0,0,0,0,0,0,-1,839,1142,0,0
-378,-118,0,0,0,0,0,0,0,0,0,-1,846,1142,0,0
-371,-118,0,0,0,0,0,0,0,0,0,-1,853,1142,0,0
-364,-118,0,0,0,0,0,0,0,0,0,-1,860,1142,0,0
-357,-118,0,0,0,0,0,0,0,0,0,-1,867,1142,0,0
-350,-118,0,0,0,0,0,0,0,0,0,-1,874,1142,0,0
-343,-118,0,0,0,0,0,0,0,0,0,-1,881,1142,0,0
-336,-118,0,0,0,0,0,0,0,0,0,-1,888,1142,0,0
-329,-118,0,0,0,0,0,0,0,0,0,-1,895,1142,0,0
-322,-118,0,0,0,0,0,0,0,0,0,-1,902,1142,0,0
-315,-118,0,0,0,0,0,0,0,0,0,-1,909,1142,0,0
-308,-118,0,0,0,0,0,0,0,0,0,-1,916,1142,0,0
-301,-118,0,0,0,0,0,0,0,0,0,-1,923,1142,0,0
-294,-118,0,0,0,0,0,0,0,0,0,-1,930,1142,0,0
-287,-118,0,0,0,0,0,0,0,0,0,-1,937,1142,0,0
-280,-118,0,0,0,0,0,0,0,0,0,-1,944,1142,0,0
-273,-118,0,0,0,0,0,0,0,0,0,-1,951,1142,0,0
-266,-118,0,0,0,0,0,0,0,0,0,-1,958,1142,0,0
-259,-118,0,0,0,0,0,0,0,0,0,-1,965,1142,0,0
-252,-118,0,0,0,0,0,0,0,0,0,-1,972,1142,0,0
-245,-118,0,0,0,0,0,0,0,0,0,-1,979,1142,0,0
-238,-118,0,0,0,0,0,0,0,0,0,-1,986,1142,0,0
-231,-118,0,0,0,0,0,0,0,0,0,-1,993,1142,0,0
-224,-118,0,0,0,0,0,0,0,0,0,-1,1000,1142,0,0
-217,-118,0,0,0,0,0,0,0,0,0,-1,1007,1142,0,0
-210,-118,0,0,0,0,0,0,0,0,0,-1,1014,1142,0,0
-203,-118,0,0,0,0,0,0,0,0,0,-1,1021,1142,0,0
-196,-118,0,0,0,0,0,0,0,0,0,-1,1028,1142,0,0
-189,-118,0,0,0,0,0,0,0,0,0,-1,1035,1142,0,0
-182,-118,0,0,0,0,0,0,0,0,0,-1,1042,1142,0,0
-175,-118,0,0,0,0,0,0,0,0,0,-1,1049,1142,0,0
-168,-118,0,0,0,0,0,0,0,0,0,-1,1056,1142,0,0
-161,-118,0,0,0,0,0,0,0,0,0,-1,1063,1142,0,0
-154,-118,0,0,0,0,0,0,0,0,0,-1,1070,1142,0,0
-147,-118,0,0,0,0,0,0,0,0,0,-1,1077,1142,0,0
-140,-118,0,0,0,0,0,0,0,0,0,-1,1084,1142,0,0
-133,-118,0,0,0,0,0,0,0,0,0,-1,1091,1142,0,0
-126,-118,0,0,0,0,0,0,0,0,0,-1,1098,1142,0,0
-119,-118,0,0,0,0,0,0,0,0,0,-1,1105,1142,0,0
-112,-118,0,0,0,0,0,0,0,0,0,-1,1112,1142,0,0
-105,-118,0,0,0,0,0,0,0,0,0,-1,1119,1142,0,0
-98,-118,0,0,0,0,0,0,0,0,0,-1,1126,1142,0,0
-91,-118,0,0,0,0,0,0,0,0,0,-1,1133,1142,0,0
-84,-118,0,0,0,0,0,0,0,0,0,-1,1140,1142,0,0
-77,-118,0,0,0,0,0,0,0,0,0,-1,1147,1142,0,0
-70,-118,0,0,0,0,0,0,0,0,0,-1,1154,1142,0,0
-63,-118,0,0,0,0,0,0,0,0,0,-1,1161,1142,0,0
-56,-118,0,0,0,0,0,0,0,0,0,-1,1168,1142,0,0
-49,-118,0,0,0,0,0,0,0,0,0,-1,1175,1142,0,0
-42,-118,0,0,0,0,0,0,0,0,0,-1,1182,1142,0,0
-35,-118,0,0,0,0,0,0,0,0,0,-1,1189,1142,0,0
-28,-118,0,0,0,0,0,0,0,0,0,-1,1196,1142,0,0
-21,-118,0,0,0,0,0,0,0,0,0,-1,1203,1142,0,0
-14,-118,0,0,0,0,0,0,0,0,0,-1,1210,1142,0,0
-7,-118,0,0,0,0,0,0,0,0,0,-1,1217,1142,0,0
0,-118,0,0,0,0,0,0,0,0,0,-1,1224,1142,0,0
7,-118,0,0,0,0,0,0,0,0,0,-1,1231,1142,0,0
14,-118,0,0,0,0,0,0,0,0,0,-1,1238,1142,0,0
21,-118,0,0,0,0,0,0,0,0,0,-1,1245,1142,0,0
28,-118,0,0,0,0,0,0,0,0,0,-1,1252,1142,0,0
35,-118,0,0,0,0,0,0,0,0,0,-1,1259,1142,0,0
42,-118,0,0,0,0,0,0,0,0,0,-1,1266,1142,0,0
49,-118,0,0,0,0,0,0,0,0,0,-1,1273,1142,0,0
56,-118,0,0,0,0,0,0,0,0,0,-1,1280,1142,0,0
63,-118,0,0,0,0,0,0,0,0,0,-1,1287,1142,0,0
70,-118,0,0,0,0,0,0,0,0,0,-1,1294,1142,0,0
77,-118,0,0,0,0,0,0,0,0,0,-1,1301,1142,0,0
84,-118,0,0,0,0,0,0,0,0,0,-1,1308,1142,0,0
91,-118,0,0,0,0,0,0,0,0,0,-1,1315,1142,0,0
98,-118,0,0,0,0,0,0,0,0,0,-1,1322,1142,0,0
105,-118,0,0,0,0,0,0,0,0,0,-1,1329,1142,0,0
112,-118,0,0,0,0,0,0,0,0,0,-1,1336,1142,0,0
119,-118,0,0,0,0,0,0,0,0,0,-1,1343,1142,0,0
126,-118,0,0,0,0,0,0,0,0,0,-1,1350,1142,0,0
133,-118,0,0,0,0,0,0,0,0,0,-1,1357,1142,0,0
140,-118,0,0,0,0,0,0,0,0,0,-1,1364,1142,0,0
147,-118,0,0,0,0,0,0,0,0,0,-1,1371,1142,0,0
154,-118,0,0,0,0,0,0,0,0,0,-1,1378,1142,0,0
161,-118,0,0,0,0,0,0,0,0,0,-1,1385,1142,0,0
168,-118,0,0,0,0,0,0,0,0,0,-1,1392,1142,0,0
175,-118,0,0,0,0,0,0,0,0,0,-1,1399,1142,0,0
182,-118,0,0,0,0,0,0,0,0,0,-1,1406,1142,0,0
189,-118,0,0,0,0,0,0,0,0,0,-1,1413,1142,0,0
196,-118,0,0,0,0,0,0,0,0,0,-1,1420,1142,0,0
203,-118,0,0,0,0,0,0,0,0,0,-1,1427,1142,0,0
210,-118,0,0,0,0,0,0,0,0,0,-1,1434,1142,0,0
217,-118,0,0,0,0,0,0,0,0,0,-1,1441,1142,0,0
224,-118,0,0,0,0,0,0,0,0,0,-1,1448,1142,0,0
231,-118,0,0,0,0,0,0,0,0,0,-1,1455,1142,0,0
238,-118,0,0,0,0,0,0,0,0,0,-1,1462,1142,0,0
245,-118,0,0,0,0,0,0,0,0,0,-1,1469,1142,0,0
252,-118,0,0,0,0,0,0,0,0,0,-1,1476,1142,0,0
259,-118,0,0,0,0,0,0,0,0,0,-1,1483,1142,0,0
266,-118,0,0,0,0,0,0,0,0,0,-1,1490,1142,0,0
273,-118,0,0,0,0,0,0,0,0,0,-1,1497,1142,0,0
280,-118,0,0,0,0,0,0,0,0,0,-1,1504,1142,0,0
287,-118,0,0,0,0,0,0,0,0,0,-1,1511,1142,0,0
294,-118,0,0,0,0,0,0,0,0,0,-1,1518,1142,0,0
301,-118,0,0,0,0,0,0,0,0,0,-1,1525,1142,0,0
308,-118,0,0,0,0,0,0,0,0,0,-1,1532,1142,0,0
315,-118,0,0,0,0,0,0,0,0,0,-1,1539,1142,0,0
322,-118,0,0,0,0,0,0,0,0,0,-1,1546,1142,0,0
329,-118,0,0,0,0,0,0,0,0,0,-1,1553,1142,0,0
336,-118,0,0,0,0,0,0,0,0,0,-1,1560,1142,0,0
343,-118,0,0,0,0,0,0,0,0,0,-1,1567,1142,0,0
350,-118,0,0,0,0,0,0,0,0,0,-1,1574,1142,0,0
357,-118,0,0,0,0,0,0,0,0,0,-1,1581,1142,0,0
364,-118,0,0,0,0,0,0,0,0,0,-1,1588,1142,0,0
371,-118,0,0,0,0,0,0,0,0,0,-1,1595,1142,0,0
378,-118,0,0,0,0,0,0,0,0,0,-1,1602,1142,0,0
385,-118,0,0,0,0,0,0,0,0,0,-1,1609,1142,0,0
392,-118,0,0,0,0,0,0,0,0,0,-1,1616,1142,0,0
399,-118,0,0,0,0,0,0,0,0,0,-1,1623,1142,0,0
406,-118,0,0,0,0,0,0,0,0,0,-1,1630,1142,0,0
413,-118,0,0,0,0,0,0,0,0,0,-1,1637,1142,0,0
420,-118,0,0,0,0,0,0,0,0,0,-1,1644,1142,0,0
427,-118,0,0,0,0,0,0,0,0,0,-1,1651,1142,0,0
434,-118,0,0,0,0,0,0,0,0,0,-1,1658,1142,0,0
441,-118,0,0,0,0,0,0,0,0,0,-1,1665,1142,0,0
448,-118,0,0,0,0,0,0,0,0,0,-1,1672,1142,0,0
455,-118,0,0,0,0,0,0,0,0,0,-1,1679,1142,0,0
462,-118,0,0,0,0,0,0,0,0,0,-1,1686,1142,0,0
469,-118,0,0,0,0,0,0,0,0,0,-1,1693,1142,0,0
476,-118,0,0,0,0,0,0,0,0,0,-1,1700,1142,0,0
483,-118,0,0,0,0,0,0,0,0,0,-1,1707,1142,0,0
490,-118,0,0,0,0,0,0,0,0,0,-1,1714,1142,0,0
497,-118,0,0,0,0,0,0,0,0,0,-1,1721,1142,0,0
504,-118,0,0,0,0,0,0,0,0,0,-1,1728,1142,0,0
511,-118,0,0,0,0,0,0,0,0,0,-1,1735,1142,0,0
518,-118,0,0,0,0,0,0,0,0,0,-1,1742,1142,0,0
525,-118,0,0,0,0,0,0,0,0,0,-1,1749,1142,0,0
532,-118,0,0,0,0,0,0,0,0,0,-1,1756,1142,0,0
539,-118,0,0,0,0,0,0,0,0,0,-1,1763,1142,0,0
546,-118,0,0,0,0,0,0,0,0,0,-1,1770,1142,0,0
553,-118,0,0,0,0,0,0,0,0,0,-1,1777,1142,0,0
560,-118,0,0,0,0,0,0,0,0,0,-1,1784,1142,0,0
567,-118,0,0,0,0,0,0,0,0,0,-1,1791,1142,0,0
574,-118,0,0,0,0,0,0,0,0,0,-1,1798,1142,0,0
581,-118,0,0,0,0,0,0,0,0,0,-1,1805,1142,0,0
588,-118,0,0,0,0,0,0,0,0,0,-1,1812,1142,0,0
595,-118,0,0,0,0,0,0,0,0,0,-1,1819,1142,0,0
602,-118,0,0,0,0,0,0,0,0,0,-1,1826,1142,0,0
609,-118,0,0,0,0,0,0,0,0,0,-1,1833,1142,0,0
616,-118,0,0,0,0,0,0,0,0,0,-1,1840,1142,0,0
623,-118,0,0,0,0,0,0,0,0,0,-1,1847,1142,0,0
630,-118,0,0,0,0,0,0,0,0,0,-1,1854,1142,0,0
637,-118,0,0,0,0,0,0,0,0,0,-1,1861,1142,0,0
644,-118,76.1559,2.52405,-0.00176382,0.000905036,-0.0033664,0.00319184,-0.00405062,-0.974096,0.00419123,0.0401591,1868,1142,76.1559,-2.52406
651,-118,76.1833,2.21985,-0.00109615,0.00050293,-0.00179895,0.00167202,-0.00226523,-0.994512,0.00228176,0.0373644,1875,1142,76.1834,-2.21983
658,-118,76.234,2.05066,-0.000417877,0.000276986,-0.000910798,0.000904368,-0.00104526,-0.967608,0.0011266,0.0381661,1882,1142,76.234,-2.05066
665,-118,76.2549,2.22937,0.000143036,0.000204116,-0.000439489,0.000614125,-0.000266973,-0.820087,0.000521698,0.0414613,1889,1142,76.2549,-2.22937
672,-118,76.2177,2.30737,0.000636219,0.000252263,-0.000330493,0.000826446,6.20354e-05,-0.522276,0.000531494,0.0466751,1896,1142,76.2177,-2.30741
679,-118,76.3119,2.20776,0.00115523,3.05931e-05,-0.000336223,0.00124808,-6.22584e-05,-0.269445,0.000853566,0.0424371,1903,1142,76.3119,-2.20782
686,-118,76.2604,2.19763,0.00149123,-0.000441089,-0.00034627,0.00155141,-0.000501266,-0.172068,0.00123573,0.0367137,1910,1142,76.2604,-2.19766
693,-118,76.2028,2.17371,0.0015537,-0.000742726,-0.000223696,0.00157529,-0.000764313,-0.0962053,0.00137755,0.0359542,1917,1142,76.2027,-2.17369
700,-118,76.3164,2.08362,0.00168449,-0.000969126,5.75836e-05,0.00168574,-0.000970375,0.0216864,0.00155194,0.0255416,1924,1142,76.3164,-2.08359
707,-118,76.3782,2.00916,0,0,0,0,0,0,0,-1,1931,1142,76.3782,-2.00916
714,-118,50.4819,8.53809,0,0,0,0,0,0,0,-1,1938,1142,50.4819,-8.53809
721,-118,69.2032,9.84644,0,0,0,0,0,0,0,-1,1945,1142,69.2032,-9.84646
728,-118,69.1813,9.20044,0.000612053,-0.00039842,0.000689526,0.000961632,-0.000747999,0.46922,0.000989622,0.024723,1952,1142,69.1813,-9.20044
735,-118,69.1742,8.5769,0.000210742,-0.000350643,0.00101725,0.000985319,-0.00112522,0.650782,0.00121941,0.0240747,1959,1142,69.1742,-8.57691
742,-118,69.1467,7.97339,0.000218969,3.88929e-05,0.00144868,0.0015804,-0.00132254,0.754362,0.00167822,0.0356155,1966,1142,69.1467,-7.97335
749,-118,69.0267,7.30151,0.000305402,0.00191193,0.00187937,0.0031525,-0.00093517,0.987354,0.00247305,0.0259442,1973,1142,69.0267,-7.30156
756,-118,69.0488,6.63574,0.00151686,0.00621696,0.00156828,0.0066922,0.00104162,1.27656,0.00415798,0.0190955,1980,1142,69.0489,-6.63578
763,-118,69.032,6.02917,0.00473766,0.0128898,0.000210698,0.0128952,0.00473222,1.54497,0.00753239,0.0113351,1987,1142,69.0321,-6.02921
770,-118,68.9121,5.44348,0.00937938,0.0217499,-0.00179282,0.0220045,0.00912479,-1.42974,0.0127658,0.0144868,1994,1142,68.9121,-5.44352
777,-118,68.7075,4.84082,0.0152002,0.0323329,-0.00445984,0.0334243,0.0141088,-1.33079,0.0193754,0.0329875,2001,1142,68.7076,-4.84082
784,-118,68.7068,3.97058,0.0222487,0.0449037,-0.00796534,0.0474239,0.0197285,-1.26437,0.0275087,0.0460691,2008,1142,68.7068,-3.97056
791,-118,68.7659,3.06201,0,0,0,0,0,0,0,-1,2015,1142,68.7659,-3.06202
798,-118,68.2681,0.178711,0,0,0,0,0,0,0,-1,2022,1142,68.268,-0.178651
805,-118,67.7637,0.374512,0,0,0,0,0,0,0,-1,2029,1142,67.7637,-0.374481
812,-118,71.6758,-0.97998,0,0,0,0,0,0,0,-1,2036,1142,71.6757,0.980001
-700,-125,0,0,0,0,0,0,0,0,0,-1,524,1149,0,0
-693,-125,-49.7296,2.52979,0,0,0,0,0,0,0,-1,531,1149,-49.7295,-2.52977
-686,-125,-50.2384,2.93286,0,0,0,0,0,0,0,-1,538,1149,-50.2384,-2.93288
-679,-125,-50.787,3.2605,0,0,0,0,0,0,0,-1,545,1149,-50.787,-3.26056
-672,-125,-51.5613,3.55005,0,0,0,0,0,0,0,-1,552,1149,-51.5613,-3.55006
-665,-125,-52.0304,-5.15369,0,0,0,0,0,0,0,-1,559,1149,-52.0304,5.15363
-658,-125,-52.029,1.78296,0,0,0,0,0,0,0,-1,566,1149,-52.029,-1.783
-651,-125,-51.9072,2.79053,-0.0143711,0.0199833,0.0111648,0.0232929,-0.0176807,1.28262,0.0237299,0.04992,573,1149,-51.9072,-2.79048
-644,-125,-51.9711,3.62427,-0.0111039,0.0130993,0.00649391,0.0147316,-0.0127362,1.32454,0.0158725,0.0381128,580,1149,-51.9712,-3.6243
-637,-125,-52.1848,4.323,-0.00874496,0.00752696,0.00279438,0.00799347,-0.00921147,1.40538,0.00994157,0.0159517,587,1149,-52.1847,-4.323
-630,-125,-52.2088,5.0094,-0.00753918,0.00382018,-9.98125e-06,0.00382019,-0.00753919,-1.56992,0.00667447,0.0156068,594,1149,-52.2088,-5.00939
-623,-125,-52.2143,5.69189,-0.00728107,0.00156385,-0.00142593,0.00178805,-0.00750527,-1.41484,0.0056939,0.0144927,601,1149,-52.2143,-5.69186
-616,-125,-52.3109,6.29333,0,0,0,0,0,0,0,-1,608,1149,-52.3109,-6.29333
-609,-125,-52.5557,7.19971,0,0,0,0,0,0,0,-1,615,1149,-52.5557,-7.19976
-602,-125,-53.2485,7.57849,0,0,0,0,0,0,0,-1,622,1149,-53.2485,-7.57849
-595,-125,-52.2925,8.42493,0,0,0,0,0,0,0,-1,629,1149,-52.2926,-8.42487
-588,-125,-51.3366,9.27124,0,0,0,0,0,0,0,-1,636,1149,-51.3366,-9.27125
-581,-125,-26.4055,4.83203,0,0,0,0,0,0,0,-1,643,1149,-26.4055,-4.83204
-574,-125,-37.674,0.655151,0,0,0,0,0,0,0,-1,650,1149,-37.674,-0.655195
-567,-125,-59.6255,0.370483,0,0,0,0,0,0,0,-1,657,1149,-59.6255,-0.370491
-560,-125,-59.5869,0.319336,-0.00484014,-0.000911408,-0.000791691,-0.000757873,-0.00499368,-1.37924,0.00310746,0.0364082,664,1149,-59.5869,-0.319353
-553,-125,-59.6277,0.322754,-0.00332841,-0.00103239,-0.000786828,-0.000788631,-0.00357217,-1.27037,0.00216694,0.0375178,671,1149,-59.6277,-0.322764
-546,-125,-59.6783,0.369751,-0.0002749,-0.00248346,-0.000552409,-0.000144438,-0.00261392,-0.231921,0.00169652,0.0402819,678,1149,-59.6783,-0.369713
-539,-125,-59.7274,0.401611,0.00380183,-0.00452954,0.000136173,0.00380405,-0.00453176,0.0163388,0.00481879,0.0428529,685,1149,-59.7274,-0.40157
-532,-125,-59.7102,0.0797119,0.00835373,-0.00676027,0.00120727,0.00844956,-0.0068561,0.0792082,0.00885268,0.0403858,692,1149,-59.7102,-0.0797219
-525,-125,-59.6934,0.127808,0.0131321,-0.00890336,0.00264314,0.0134447,-0.00921597,0.117725,0.0131589,0.0385507,699,1149,-59.6934,-0.127765
-518,-125,0,0,0,0,0,0,0,0,0,-1,706,1149,0,0
-511,-125,0,0,0,0,0,0,0,0,0,-1,713,1149,0,0
-504,-125,0,0,0,0,0,0,0,0,0,-1,720,1149,0,0
-497,-125,0,0,0,0,0,0,0,0,0,-1,727,1149,0,0
-490,-125,0,0,0,0,0,0,0,0,0,-1,734,1149,0,0
-483,-125,0,0,0,0,0,0,0,0,0,-1,741,1149,0,0
-476,-125,0,0,0,0,0,0,0,0,0,-1,748,1149,0,0
-469,-125,0,0,0,0,0,0,0,0,0,-1,755,1149,0,0
-462,-125,0,0,0,0,0,0,0,0,0,-1,762,1149,0,0
-455,-125,0,0,0,0,0,0,0,0,0,-1,769,1149,0,0
-448,-125,0,0,0,0,0,0,0,0,0,-1,776,1149,0,0
-441,-125,0,0,0,0,0,0,0,0,0,-1,783,1149,0,0
-434,-125,0,0,0,0,0,0,0,0,0,-1,790,1149,0,0
-427,-125,0,0,0,0,0,0,0,0,0,-1,797,1149,0,0
-420,-125,0,0,0,0,0,0,0,0,0,-1,804,1149,0,0
-413,-125,0,0,0,0,0,0,0,0,0,-1,811,1149,0,0
-406,-125,0,0,0,0,0,0,0,0,0,-1,818,1149,0,0
-399,-125,0,0,0,0,0,0,0,0,0,-1,825,1149,0,0
-392,-125,0,0,0,0,0,0,0,0,0,-1,832,1149,0,0
-385,-125,0,0,0,0,0,0,0,0,0,-1,839,1149,0,0
-378,-125,0,0,0,0,0,0,0,0,0,-1,846,1149,0,0
-371,-125,0,0,0,0,0,0,0,0,0,-1,853,1149,0,0
-364,-125,0,0,0,0,0,0,0,0,0,-1,860,1149,0,0
-357,-125,0,0,0,0,0,0,0,0,0,-1,867,1149,0,0
-350,-125,0,0,0,0,0,0,0,0,0,-1,874,1149,0,0
-343,-125,0,0,0,0,0,0,0,0,0,-1,881,1149,0,0
-336,-125,0,0,0,0,0,0,0,0,0,-1,888,1149,0,0
-329,-125,0,0,0,0,0,0,0,0,0,-1,895,1149,0,0
-322,-125,0,0,0,0,0,0,0,0,0,-1,902,1149,0,0
-315,-125,0,0,0,0,0,0,0,0,0,-1,909,1149,0,0
-308,-125,0,0,0,0,0,0,0,0,0,-1,916,1149,0,0
-301,-125,0,0,0,0,0,0,0,0,0,-1,923,1149,0,0
-294,-125,0,0,0,0,0,0,0,0,0,-1,930,1149,0,0
-287,-125,0,0,0,0,0,0,0,0,0,-1,937,1149,0,0
-280,-125,0,0,0,0,0,0,0,0,0,-1,944,1149,0,0
-273,-125,0,0,0,0,0,0,0,0,0,-1,951,1149,0,0
-266,-125,0,0,0,0,0,0,0,0,0,-1,958,1149,0,0
-259,-125,0,0,0,0,0,0,0,0,0,-1,965,1149,0,0
-252,-125,0,0,0,0,0,0,0,0,0,-1,972,1149,0,0
-245,-125,0,0,0,0,0,0,0,0,0,-1,979,1149,0,0
-238,-125,0,0,0,0,0,0,0,0,0,-1,986,1149,0,0
-231,-125,0,0,0,0,0,0,0,0,0,-1,993,1149,0,0
-224,-125,0,0,0,0,0,0,0,0,0,-1,1000,1149,0,0
-217,-125,0,0,0,0,0,0,0,0,0,-1,1007,1149,0,0
-210,-125,0,0,0,0,0,0,0,0,0,-1,1014,1149,0,0
-203,-125,0,0,0,0,0,0,0,0,0,-1,1021,1149,0,0
-196,-125,0,0,0,0,0,0,0,0,0,-1,1028,1149,0,0
-189,-125,0,0,0,0,0,0,0,0,0,-1,1035,1149,0,0
-182,-125,0,0,0,0,0,0,0,0,0,-1,1042,1149,0,0
-175,-125,0,0,0,0,0,0,0,0,0,-1,1049,1149,0,0
-168,-125,0,0,0,0,0,0,0,0,0,-1,1056,1149,0,0
-161,-125,0,0,0,0,0,0,0,0,0,-1,1063,1149,0,0
-154,-125,0,0,0,0,0,0,0,0,0,-1,1070,1149,0,0
-147,-125,0,0,0,0,0,0,0,0,0,-1,1077,1149,0,0
-140,-125,0,0,0,0,0,0,0,0,0,-1,1084,1149,0,0
-133,-125,0,0,0,0,0,0,0,0,0,-1,1091,1149,0,0
-126,-125,0,0,0,0,0,0,0,0,0,-1,1098,1149,0,0
-119,-125,0,0,0,0,0,0,0,0,0,-1,1105,1149,0,0
-112,-125,0,0,0,0,0,0,0,0,0,-1,1112,1149,0,0
-105,-125,0,0,0,0,0,0,0,0,0,-1,1119,1149,0,0
-98,-125,0,0,0,0,0,0,0,0,0,-1,1126,1149,0,0
-91,-125,0,0,0,0,0,0,0,0,0,-1,1133,1149,0,0
-84,-125,0,0,0,0,0,0,0,0,0,-1,1140,1149,0,0
-77,-125,0,0,0,0,0,0,0,0,0,-1,1147,1149,0,0
-70,-125,0,0,0,0,0,0,0,0,0,-1,1154,1149,0,0
-63,-125,0,0,0,0,0,0,0,0,0,-1,1161,1149,0,0
-56,-125,0,0,0,0,0,0,0,0,0,-1,1168,1149,0,0
-49,-125,0,0,0,0,0,0,0,0,0,-1,1175,1149,0,0
-42,-125,0,0,0,0,0,0,0,0,0,-1,1182,1149,0,0
-35,-125,0,0,0,0,0,0,0,0,0,-1,1189,1149,0,0
-28,-125,0,0,0,0,0,0,0,0,0,-1,1196,1149,0,0
-21,-125,0,0,0,0,0,0,0,0,0,-1,1203,1149,0,0
-14,-125,0,0,0,0,0,0,0,0,0,-1,1210,1149,0,0
-7,-125,0,0,0,0,0,0,0,0,0,-1,1217,1149,0,0
0,-125,0,0,0,0,0,0,0,0,0,-1,1224,1149,0,0
7,-125,0,0,0,0,0,0,0,0,0,-1,1231,1149,0,0
14,-125,0,0,0,0,0,0,0,0,0,-1,1238,1149,0,0
21,-125,0,0,0,0,0,0,0,0,0,-1,1245,1149,0,0
28,-125,0,0,0,0,0,0,0,0,0,-1,1252,1149,0,0
35,-125,0,0,0,0,0,0,0,0,0,-1,1259,1149,0,0
42,-125,0,0,0,0,0,0,0,0,0,-1,1266,1149,0,0
49,-125,0,0,0,0,0,0,0,0,0,-1,1273,1149,0,0
56,-125,0,0,0,0,0,0,0,0,0,-1,1280,1149,0,0
63,-125,0,0,0,0,0,0,0,0,0,-1,1287,1149,0,0
70,-125,0,0,0,0,0,0,0,0,0,-1,1294,1149,0,0
77,-125,0,0,0,0,0,0,0,0,0,-1,1301,1149,0,0
84,-125,0,0,0,0,0,0,0,0,0,-1,1308,1149,0,0
91,-125,0,0,0,0,0,0,0,0,0,-1,1315,1149,0,0
98,-125,0,0,0,0,0,0,0,0,0,-1,1322,1149,0,0
105,-125,0,0,0,0,0,0,0,0,0,-1,1329,1149,0,0
112,-125,0,0,0,0,0,0,0,0,0,-1,1336,1149,0,0
119,-125,0,0,0,0,0,0,0,0,0,-1,1343,1149,0,0
126,-125,0,0,0,0,0,0,0,0,0,-1,1350,1149,0,0
133,-125,0,0,0,0,0,0,0,0,0,-1,1357,1149,0,0
140,-125,0,0,0,0,0,0,0,0,0,-1,1364,1149,0,0
147,-125,0,0,0,0,0,0,0,0,0,-1,1371,1149,0,0
154,-125,0,0,0,0,0,0,0,0,0,-1,1378,1149,0,0
161,-125,0,0,0,0,0,0,0,0,0,-1,1385,1149,0,0
168,-125,0,0,0,0,0,0,0,0,0,-1,1392,1149,0,0
175,-125,0,0,0,0,0,0,0,0,0,-1,1399,1149,0,0
182,-125,0,0,0,0,0,0,0,0,0,-1,1406,1149,0,0
189,-125,0,0,0,0,0,0,0,0,0,-1,1413,1149,0,0
196,-125,0,0,0,0,0,0,0,0,0,-1,1420,1149,0,0
203,-125,0,0,0,0,0,0,0,0,0,-1,1427,1149,0,0
210,-125,0,0,0,0,0,0,0,0,0,-1,1434,1149,0,0
217,-125,0,0,0,0,0,0,0,0,0,-1,1441,1149,0,0
224,-125,0,0,0,0,0,0,0,0,0,-1,1448,1149,0,0
231,-125,0,0,0,0,0,0,0,0,0,-1,1455,1149,0,0
238,-125,0,0,0,0,0,0,0,0,0,-1,1462,1149,0,0
245,-125,0,0,0,0,0,0,0,0,0,-1,1469,1149,0,0
252,-125,0,0,0,0,0,0,0,0,0,-1,1476,1149,0,0
259,-125,0,0,0,0,0,0,0,0,0,-1,1483,1149,0,0
266,-125,0,0,0,0,0,0,0,0,0,-1,1490,1149,0,0
273,-125,0,0,0,0,0,0,0,0,0,-1,1497,1149,0,0
280,-125,0,0,0,0,0,0,0,0,0,-1,1504,1149,0,0
287,-125,0,0,0,0,0,0,0,0,0,-1,1511,1149,0,0
294,-125,0,0,0,0,0,0,0,0,0,-1,1518,1149,0,0
301,-125,0,0,0,0,0,0,0,0,0,-1,1525,1149,0,0
308,-125,0,0,0,0,0,0,0,0,0,-1,1532,1149,0,0
315,-125,0,0,0,0,0,0,0,0,0,-1,1539,1149,0,0
322,-125,0,0,0,0,0,0,0,0,0,-1,1546,1149,0,0
329,-125,0,0,0,0,0,0,0,0,0,-1,1553,1149,0,0
336,-125,0,0,0,0,0,0,0,0,0,-1,1560,1149,0,0
343,-125,0,0,0,0,0,0,0,0,0,-1,1567,1149,0,0
350,-125,0,0,0,0,0,0,0,0,0,-1,1574,1149,0,0
357,-125,0,0,0,0,0,0,0,0,0,-1,1581,1149,0,0
364,-125,0,0,0,0,0,0,0,0,0,-1,1588,1149,0,0
371,-125,0,0,0,0,0,0,0,0,0,-1,1595,1149,0,0
378,-125,0,0,0,0,0,0,0,0,0,-1,1602,1149,0,0
385,-125,0,0,0,0,0,0,0,0,0,-1,1609,1149,0,0
392,-125,0,0,0,0,0,0,0,0,0,-1,1616,1149,0,0
399,-125,0,0,0,0,0,0,0,0,0,-1,1623,1149,0,0
406,-125,0,0,0,0,0,0,0,0,0,-1,1630,1149,0,0
413,-125,0,0,0,0,0,0,0,0,0,-1,1637,1149,0,0
420,-125,0,0,0,0,0,0,0,0,0,-1,1644,1149,0,0
427,-125,0,0,0,0,0,0,0,0,0,-1,1651,1149,0,0
434,-125,0,0,0,0,0,0,0,0,0,-1,1658,1149,0,0
441,-125,0,0,0,0,0,0,0,0,0,-1,1665,1149,0,0
448,-125,0,0,0,0,0,0,0,0,0,-1,1672,1149,0,0
455,-125,0,0,0,0,0,0,0,0,0,-1,1679,1149,0,0
462,-125,0,0,0,0,0,0,0,0,0,-1,1686,1149,0,0
469,-125,0,0,0,0,0,0,0,0,0,-1,1693,1149,0,0
476,-125,0,0,0,0,0,0,0,0,0,-1,1700,1149,0,0
483,-125,0,0,0,0,0,0,0,0,0,-1,1707,1149,0,0
490,-125,0,0,0,0,0,0,0,0,0,-1,1714,1149,0,0
497,-125,0,0,0,0,0,0,0,0,0,-1,1721,1149,0,0
504,-125,0,0,0,0,0,0,0,0,0,-1,1728,1149,0,0
511,-125,0,0,0,0,0,0,0,0,0,-1,1735,1149,0,0
518,-125,0,0,0,0,0,0,0,0,0,-1,1742,1149,0,0
525,-125,0,0,0,0,0,0,0,0,0,-1,1749,1149,0,0
532,-125,0,0,0,0,0,0,0,0,0,-1,1756,1149,0,0
539,-125,0,0,0,0,0,0,0,0,0,-1,1763,1149,0,0
546,-125,0,0,0,0,0,0,0,0,0,-1,1770,1149,0,0
553,-125,0,0,0,0,0,0,0,0,0,-1,1777,1149,0,0
560,-125,0,0,0,0,0,0,0,0,0,-1,1784,1149,0,0
567,-125,0,0,0,0,0,0,0,0,0,-1,1791,1149,0,0
574,-125,0,0,0,0,0,0,0,0,0,-1,1798,1149,0,0
581,-125,0,0,0,0,0,0,0,0,0,-1,1805,1149,0,0
588,-125,0,0,0,0,0,0,0,0,0,-1,1812,1149,0,0
595,-125,0,0,0,0,0,0,0,0,0,-1,1819,1149,0,0
602,-125,0,0,0,0,0,0,0,0,0,-1,1826,1149,0,0
609,-125,0,0,0,0,0,0,0,0,0,-1,1833,1149,0,0
616,-125,0,0,0,0,0,0,0,0,0,-1,1840,1149,0,0
623,-125,0,0,0,0,0,0,0,0,0,-1,1847,1149,0,0
630,-125,0,0,0,0,0,0,0,0,0,-1,1854,1149,0,0
637,-125,0,0,0,0,0,0,0,0,0,-1,1861,1149,0,0
644,-125,76.2338,2.15161,-0.00191056,0.00112509,-0.00263128,0.00264493,-0.0034304,-1.04701,0.00351735,0.0409761,1868,1149,76.2338,-2.15156
651,-125,76.3505,2.03296,-0.00128124,0.000719731,-0.00134497,0.00139553,-0.00195704,-1.10518,0.00194463,0.0384192,1875,1149,76.3504,-2.03291
658,-125,76.4009,1.82971,-0.000584939,0.000508487,-0.000632677,0.000797941,-0.000874393,-1.14172,0.000965859,0.0375999,1882,1149,76.4009,-1.8297
665,-125,76.2151,2.06079,4.32108e-05,0.000473429,-0.000292025,0.000621019,-0.000104379,-1.10284,0.000452833,0.0421928,1889,1149,76.2151,-2.06077
672,-125,76.0494,2.21143,0.000634047,0.000586277,-0.000290543,0.000901686,0.000318639,-0.744386,0.000527996,0.045699,1896,1149,76.0494,-2.21144
679,-125,76.2292,2.08032,0.00124629,0.00039563,-0.000334164,0.00136186,0.000280062,-0.332966,0.000830447,0.0408679,1903,1149,76.2293,-2.08035
686,-125,76.3549,2.2334,0.00172695,2.39902e-05,-0.000379818,0.00180782,-5.68814e-05,-0.209789,0.00122462,0.0375651,1910,1149,76.3548,-2.23339
693,-125,76.2367,2.23389,0.00180039,-0.000224081,-0.000253221,0.00183158,-0.000255273,-0.122565,0.00131444,0.0337513,1917,1149,76.2367,-2.23384
700,-125,76.2926,2.09192,0.00191571,-0.000419881,2.84397e-05,0.00191606,-0.000420227,0.0121743,0.00143806,0.021352,1924,1149,76.2926,-2.09191
707,-125,76.3684,1.92981,0,0,0,0,0,0,0,-1,1931,1149,76.3685,-1.92976
714,-125,54.8745,9.21375,0,0,0,0,0,0,0,-1,1938,1149,54.8746,-9.21371
721,-125,68.4562,9.88879,0,0,0,0,0,0,0,-1,1945,1149,68.4561,-9.88885
728,-125,68.4591,9.30762,0.00113088,4.6456e-05,0.000641525,0.00142864,-0.000251301,0.434549,0.0010463,0.0208529,1952,1149,68.4592,-9.30763
735,-125,68.4897,8.71277,0.000815488,-9.99822e-05,0.00102853,0.00148354,-0.00076803,0.576037,0.00132164,0.0242675,1959,1149,68.4898,-8.71271
742,-125,68.4684,8.09546,0.000687526,6.44804e-05,0.0014387,0.00184804,-0.00109603,0.678779,0.00171815,0.0362352,1966,1149,68.4683,-8.09541
749,-125,68.3351,7.44116,0.000415423,0.0016167,0.00178574,0.00290011,-0.000867985,0.947631,0.00227853,0.026873,1973,1149,68.335,-7.44113
756,-125,68.3713,6.67786,0.00117299,0.0061939,0.00143821,0.00657669,0.000790208,1.31067,0.00414623,0.0219863,1980,1149,68.3712,-6.67781
763,-125,68.3335,6.03271,0.00365318,0.0132913,3.74134e-05,0.0132915,0.00365304,1.56691,0.00792894,0.0128812,1987,1149,68.3335,-6.03274
770,-125,68.2451,5.3894,0.00725731,0.022526,-0.00198331,0.0227794,0.0070039,-1.44371,0.0134728,0.0168938,1994,1149,68.2451,-5.38943
777,-125,68.1091,4.86194,0.0118481,0.0336306,-0.00466646,0.0345882,0.0108905,-1.3684,0.0204207,0.0351893,2001,1149,68.1091,-4.86188
784,-125,68.2944,4.12,0.0175194,0.0470247,-0.00822083,0.0491605,0.0153835,-1.3166,0.0290375,0.0472726,2008,1149,68.2944,-4.12
791,-125,68.6248,3.42285,0,0,0,0,0,0,0,-1,2015,1149,68.6248,-3.42291
798,-125,67.6697,-0.81897,0.0322828,0.082703,-0.0192926,0.089238,0.0257478,-1.24419,0.0530354,0.0448429,2022,1149,67.6697,0.818992
805,-125,66.8789,-1.56787,0.0414757,0.105747,-0.0277342,0.11606,0.0311627,-1.21479,0.0693597,0.0476743,2029,1149,66.8788,1.56792
812,-125,66.0593,-2.22534,0,0,0,0,0,0,0,-1,2036,1149,66.0593,2.22534
-700,-132,0,0,0,0,0,0,0,0,0,-1,524,1156,0,0
-693,-132,-48.6347,1.79041,0,0,0,0,0,0,0,-1,531,1156,-48.6347,-1.79037
-686,-132,-49.0325,2.33484,0,0,0,0,0,0,0,-1,538,1156,-49.0325,-2.33481
-679,-132,-49.7212,2.76099,0,0,0,0,0,0,0,-1,545,1156,-49.7212,-2.76104
-672,-132,-50.4529,3.3634,0,0,0,0,0,0,0,-1,552,1156,-50.4529,-3.36343
-665,-132,-51.143,3.98743,0,0,0,0,0,0,0,-1,559,1156,-51.143,-3.98747
-658,-132,-52.0321,2.21619,0,0,0,0,0,0,0,-1,566,1156,-52.0321,-2.21618
-651,-132,-51.6735,2.98267,-0.0149545,0.0221455,0.0107355,0.025028,-0.017837,1.30848,0.024864,0.0469082,573,1156,-51.6735,-2.98271
-644,-132,-51.4042,3.68579,-0.0114981,0.014583,0.00623189,0.0159955,-0.0129106,1.3479,0.0167206,0.0304535,580,1156,-51.4042,-3.68578
-637,-132,-51.494,4.33838,-0.00894753,0.00843206,0.0027033,0.00884283,-0.0093583,1.42,0.0105098,0.0144105,587,1156,-51.494,-4.33842
-630,-132,-51.4905,5.026,-0.00752766,0.00409287,3.78505e-05,0.004093,-0.00752779,1.56754,0.00680625,0.0100545,594,1156,-51.4905,-5.02598
-623,-132,-51.5317,5.74072,-0.0072623,0.00164021,-0.00115747,0.00178824,-0.00741033,-1.4436,0.00563174,0.0161974,601,1156,-51.5316,-5.74077
-616,-132,-51.5712,6.45374,0,0,0,0,0,0,0,-1,608,1156,-51.5712,-6.45378
-609,-132,-51.3542,7.31079,0,0,0,0,0,0,0,-1,615,1156,-51.3542,-7.3108
-602,-132,-51.2123,7.94373,0,0,0,0,0,0,0,-1,622,1156,-51.2123,-7.94373
-595,-132,-51.6408,8.68225,0,0,0,0,0,0,0,-1,629,1156,-51.6408,-8.68221
-588,-132,-42.6534,6.92969,0,0,0,0,0,0,0,-1,636,1156,-42.6535,-6.92967
-581,-132,-35.9343,6.42957,0,0,0,0,0,0,0,-1,643,1156,-35.9342,-6.42957
-574,-132,-33.2071,2.86963,0,0,0,0,0,0,0,-1,650,1156,-33.2071,-2.86963
-567,-132,-59.6237,0.380127,0,0,0,0,0,0,0,-1,657,1156,-59.6237,-0.380113
-560,-132,-59.655,0.298828,-0.00572041,-0.000444414,-0.000942794,-0.000281003,-0.00588382,-1.39917,0.00383231,0.034266,664,1156,-59.6551,-0.298841
-553,-132,-59.7726,0.324219,-0.0046408,-0.000178485,-0.000910268,5.68107e-08,-0.00481934,-1.37711,0.00321291,0.0360824,671,1156,-59.7726,-0.324233
-546,-132,-59.8604,0.46106,-0.00168499,-0.00148539,-0.000739607,-0.000838877,-0.0023315,-0.852462,0.00136362,0.0409987,678,1156,-59.8604,-0.461097
-539,-132,-59.9009,0.475952,0.00242411,-0.00344617,-0.000156152,0.00242826,-0.00345032,-0.0265754,0.00341105,0.0424388,685,1156,-59.9009,-0.476009
-532,-132,-59.6856,0.117188,0.00703511,-0.0056863,0.000787021,0.00708362,-0.0057348,0.061553,0.00741436,0.0394194,692,1156,-59.6856,-0.11721
-525,-132,-59.6196,0.169434,0.0119232,-0.0079726,0.00204765,0.0121318,-0.00818116,0.101501,0.0118014,0.0381072,699,1156,-59.6195,-0.169391
-518,-132,0,0,0,0,0,0,0,0,0,-1,706,1156,0,0
-511,-132,0,0,0,0,0,0,0,0,0,-1,713,1156,0,0
-504,-132,0,0,0,0,0,0,0,0,0,-1,720,1156,0,0
-497,-132,0,0,0,0,0,0,0,0,0,-1,727,1156,0,0
-490,-132,0,0,0,0,0,0,0,0,0,-1,734,1156,0,0
-483,-132,0,0,0,0,0,0,0,0,0,-1,741,1156,0,0
-476,-132,0,0,0,0,0,0,0,0,0,-1,748,1156,0,0
-469,-132,0,0,0,0,0,0,0,0,0,-1,755,1156,0,0
-462,-132,0,0,0,0,0,0,0,0,0,-1,762,1156,0,0
-455,-132,0,0,0,0,0,0,0,0,0,-1,769,1156,0,0
-448,-132,0,0,0,0,0,0,0,0,0,-1,776,1156,0,0
-441,-132,0,0,0,0,0,0,0,0,0,-1,783,1156,0,0
-434,-132,0,0,0,0,0,0,0,0,0,-1,790,1156,0,0
-427,-132,0,0,0,0,0,0,0,0,0,-1,797,1156,0,0
-420,-132,0,0,0,0,0,0,0,0,0,-1,804,1156,0,0
-413,-132,0,0,0,0,0,0,0,0,0,-1,811,1156,0,0
-406,-132,0,0,0,0,0,0,0,0,0,-1,818,1156,0,0
-399,-132,0,0,0,0,0,0,0,0,0,-1,825,1156,0,0
-392,-132,0,0,0,0,0,0,0,0,0,-1,832,1156,0,0
-385,-132,0,0,0,0,0,0,0,0,0,-1,839,1156,0,0
-378,-132,0,0,0,0,0,0,0,0,0,-1,846,1156,0,0
-371,-132,0,0,0,0,0,0,0,0,0,-1,853,1156,0,0
-364,-132,0,0,0,0,0,0,0,0,0,-1,860,1156,0,0
-357,-132,0,0,0,0,0,0,0,0,0,-1,867,1156,0,0
-350,-132,0,0,0,0,0,0,0,0,0,-1,874,1156,0,0
-343,-132,0,0,0,0,0,0,0,0,0,-1,881,1156,0,0
-336,-132,0,0,0,0,0,0,0,0,0,-1,888,1156,0,0
-329,-132,0,0,0,0,0,0,0,0,0,-1,895,1156,0,0
-322,-132,0,0,0,0,0,0,0,0,0,-1,902,1156,0,0
-315,-132,0,0,0,0,0,0,0,0,0,-1,909,1156,0,0
-308,-132,0,0,0,0,0,0,0,0,0,-1,916,1156,0,0
-301,-132,0,0,0,0,0,0,0,0,0,-1,923,1156,0,0
-294,-132,0,0,0,0,0,0,0,0,0,-1,930,1156,0,0
-287,-132,0,0,0,0,0,0,0,0,0,-1,937,1156,0,0
-280,-132,0,0,0,0,0,0,0,0,0,-1,944,1156,0,0
-273,-132,0,0,0,0,0,0,0,0,0,-1,951,1156,0,0
-266,-132,0,0,0,0,0,0,0,0,0,-1,958,1156,0,0
-259,-132,0,0,0,0,0,0,0,0,0,-1,965,1156,0,0
-252,-132,0,0,0,0,0,0,0,0,0,-1,972,1156,0,0
-245,-132,0,0,0,0,0,0,0,0,0,-1,979,1156,0,0
-238,-132,0,0,0,0,0,0,0,0,0,-1,986,1156,0,0
-231,-132,0,0,0,0,0,0,0,0,0,-1,993,1156,0,0
-224,-132,0,0,0,0,0,0,0,0,0,-1,1000,1156,0,0
-217,-132,0,0,0,0,0,0,0,0,0,-1,1007,1156,0,0
-210,-132,0,0,0,0,0,0,0,0,0,-1,1014,1156,0,0
-203,-132,0,0,0,0,0,0,0,0,0,-1,1021,1156,0,0
-196,-132,0,0,0,0,0,0,0,0,0,-1,1028,1156,0,0
-189,-132,0,0,0,0,0,0,0,0,0,-1,1035,1156,0,0
-182,-132,0,0,0,0,0,0,0,0,0,-1,1042,1156,0,0
-175,-132,0,0,0,0,0,0,0,0,0,-1,1049,1156,0,0
-168,-132,0,0,0,0,0,0,0,0,0,-1,1056,1156,0,0
-161,-132,0,0,0,0,0,0,0,0,0,-1,1063,1156,0,0
-154,-132,0,0,0,0,0,0,0,0,0,-1,1070,1156,0,0
-147,-132,0,0,0,0,0,0,0,0,0,-1,1077,1156,0,0
-140,-132,0,0,0,0,0,0,0,0,0,-1,1084,1156,0,0
-133,-132,0,0,0,0,0,0,0,0,0,-1,1091,1156,0,0
-126,-132,0,0,0,0,0,0,0,0,0,-1,1098,1156,0,0
-119,-132,0,0,0,0,0,0,0,0,0,-1,1105,1156,0,0
-112,-132,0,0,0,0,0,0,0,0,0,-1,1112,1156,0,0
-105,-132,0,0,0,0,0,0,0,0,0,-1,1119,1156,0,0
-98,-132,0,0,0,0,0,0,0,0,0,-1,1126,1156,0,0
-91,-132,0,0,0,0,0,0,0,0,0,-1,1133,1156,0,0
-84,-132,0,0,0,0,0,0,0,0,0,-1,1140,1156,0,0
-77,-132,0,0,0,0,0,0,0,0,0,-1,1147,1156,0,0
-70,-132,0,0,0,0,0,0,0,0,0,-1,1154,1156,0,0
-63,-132,0,0,0,0,0,0,0,0,0,-1,1161,1156,0,0
-56,-132,0,0,0,0,0,0,0,0,0,-1,1168,1156,0,0
-49,-132,0,0,0,0,0,0,0,0,0,-1,1175,1156,0,0
-42,-132,0,0,0,0,0,0,0,0,0,-1,1182,1156,0,0
-35,-132,0,0,0,0,0,0,0,0,0,-1,1189,1156,0,0
-28,-132,0,0,0,0,0,0,0,0,0,-1,1196,1156,0,0
-21,-132,0,0,0,0,0,0,0,0,0,-1,1203,1156,0,0
-14,-132,0,0,0,0,0,0,0,0,0,-1,1210,1156,0,0
-7,-132,0,0,0,0,0,0,0,0,0,-1,1217,1156,0,0
0,-132,0,0,0,0,0,0,0,0,0,-1,1224,1156,0,0
7,-132,0,0,0,0,0,0,0,0,0,-1,1231,1156,0,0
14,-132,0,0,0,0,0,0,0,0,0,-1,1238,1156,0,0
21,-132,0,0,0,0,0,0,0,0,0,-1,1245,1156,0,0
28,-132,0,0,0,0,0,0,0,0,0,-1,1252,1156,0,0
35,-132,0,0,0,0,0,0,0,0,0,-1,1259,1156,0,0
42,-132,0,0,0,0,0,0,0,0,0,-1,1266,1156,0,0
49,-132,0,0,0,0,0,0,0,0,0,-1,1273,1156,0,0
56,-132,0,0,0,0,0,0,0,0,0,-1,1280,1156,0,0
63,-132,0,0,0,0,0,0,0,0,0,-1,1287,1156,0,0
70,-132,0,0,0,0,0,0,0,0,0,-1,1294,1156,0,0
77,-132,0,0,0,0,0,0,0,0,0,-1,1301,1156,0,0
84,-132,0,0,0,0,0,0,0,0,0,-1,1308,1156,0,0
91,-132,0,0,0,0,0,0,0,0,0,-1,1315,1156,0,0
98,-132,0,0,0,0,0,0,0,0,0,-1,1322,1156,0,0
105,-132,0,0,0,0,0,0,0,0,0,-1,1329,1156,0,0
112,-132,0,0,0,0,0,0,0,0,0,-1,1336,1156,0,0
119,-132,0,0,0,0,0,0,0,0,0,-1,1343,1156,0,0
126,-132,0,0,0,0,0,0,0,0,0,-1,1350,1156,0,0
133,-132,0,0,0,0,0,0,0,0,0,-1,1357,1156,0,0
140,-132,0,0,0,0,0,0,0,0,0,-1,1364,1156,0,0
147,-132,0,0,0,0,0,0,0,0,0,-1,1371,1156,0,0
154,-132,0,0,0,0,0,0,0,0,0,-1,1378,1156,0,0
161,-132,0,0,0,0,0,0,0,0,0,-1,1385,1156,0,0
168,-132,0,0,0,0,0,0,0,0,0,-1,1392,1156,0,0
175,-132,0,0,0,0,0,0,0,0,0,-1,1399,1156,0,0
182,-132,0,0,0,0,0,0,0,0,0,-1,1406,1156,0,0
189,-132,0,0,0,0,0,0,0,0,0,-1,1413,1156,0,0
196,-132,0,0,0,0,0,0,0,0,0,-1,1420,1156,0,0
203,-132,0,0,0,0,0,0,0,0,0,-1,1427,1156,0,0
210,-132,0,0,0,0,0,0,0,0,0,-1,1434,1156,0,0
217,-132,0,0,0,0,0,0,0,0,0,-1,1441,1156,0,0
224,-132,0,0,0,0,0,0,0,0,0,-1,1448,1156,0,0
231,-132,0,0,0,0,0,0,0,0,0,-1,1455,1156,0,0
238,-132,0,0,0,0,0,0,0,0,0,-1,1462,1156,0,0
245,-132,0,0,0,0,0,0,0,0,0,-1,1469,1156,0,0
252,-132,0,0,0,0,0,0,0,0,0,-1,1476,1156,0,0
259,-132,0,0,0,0,0,0,0,0,0,-1,1483,1156,0,0
266,-132,0,0,0,0,0,0,0,0,0,-1,1490,1156,0,0
273,-132,0,0,0,0,0,0,0,0,0,-1,1497,1156,0,0
280,-132,0,0,0,0,0,0,0,0,0,-1,1504,1156,0,0
287,-132,0,0,0,0,0,0,0,0,0,-1,1511,1156,0,0
294,-132,0,0,0,0,0,0,0,0,0,-1,1518,1156,0,0
301,-132,0,0,0,0,0,0,0,0,0,-1,1525,1156,0,0
308,-132,0,0,0,0,0,0,0,0,0,-1,1532,1156,0,0
315,-132,0,0,0,0,0,0,0,0,0,-1,1539,1156,0,0
322,-132,0,0,0,0,0,0,0,0,0,-1,1546,1156,0,0
329,-132,0,0,0,0,0,0,0,0,0,-1,1553,1156,0,0
336,-132,0,0,0,0,0,0,0,0,0,-1,1560,1156,0,0
343,-132,0,0,0,0,0,0,0,0,0,-1,1567,1156,0,0
350,-132,0,0,0,0,0,0,0,0,0,-1,1574,1156,0,0
357,-132,0,0,0,0,0,0,0,0,0,-1,1581,1156,0,0
364,-132,0,0,0,0,0,0,0,0,0,-1,1588,1156,0,0
371,-132,0,0,0,0,0,0,0,0,0,-1,1595,1156,0,0
378,-132,0,0,0,0,0,0,0,0,0,-1,1602,1156,0,0
385,-132,0,0,0,0,0,0,0,0,0,-1,1609,1156,0,0
392,-132,0,0,0,0,0,0,0,0,0,-1,1616,1156,0,0
399,-132,0,0,0,0,0,0,0,0,0,-1,1623,1156,0,0
406,-132,0,0,0,0,0,0,0,0,0,-1,1630,1156,0,0
413,-132,0,0,0,0,0,0,0,0,0,-1,1637,1156,0,0
420,-132,0,0,0,0,0,0,0,0,0,-1,1644,1156,0,0
427,-132,0,0,0,0,0,0,0,0,0,-1,1651,1156,0,0
434,-132,0,0,0,0,0,0,0,0,0,-1,1658,1156,0,0
441,-132,0,0,0,0,0,0,0,0,0,-1,1665,1156,0,0
448,-132,0,0,0,0,0,0,0,0,0,-1,1672,1156,0,0
455,-132,0,0,0,0,0,0,0,0,0,-1,1679,1156,0,0
462,-132,0,0,0,0,0,0,0,0,0,-1,1686,1156,0,0
469,-132,0,0,0,0,0,0,0,0,0,-1,1693,1156,0,0
476,-132,0,0,0,0,0,0,0,0,0,-1,1700,1156,0,0
483,-132,0,0,0,0,0,0,0,0,0,-1,1707,1156,0,0
490,-132,0,0,0,0,0,0,0,0,0,-1,1714,1156,0,0
497,-132,0,0,0,0,0,0,0,0,0,-1,1721,1156,0,0
504,-132,0,0,0,0,0,0,0,0,0,-1,1728,1156,0,0
511,-132,0,0,0,0,0,0,0,0,0,-1,1735,1156,0,0
518,-132,0,0,0,0,0,0,0,0,0,-1,1742,1156,0,0
525,-132,0,0,0,0,0,0,0,0,0,-1,1749,1156,0,0
532,-132,0,0,0,0,0,0,0,0,0,-1,1756,1156,0,0
539,-132,0,0,0,0,0,0,0,0,0,-1,1763,1156,0,0
546,-132,0,0,0,0,0,0,0,0,0,-1,1770,1156,0,0
553,-132,0,0,0,0,0,0,0,0,0,-1,1777,1156,0,0
560,-132,0,0,0,0,0,0,0,0,0,-1,1784,1156,0,0
567,-132,0,0,0,0,0,0,0,0,0,-1,1791,1156,0,0
574,-132,0,0,0,0,0,0,0,0,0,-1,1798,1156,0,0
581,-132,0,0,0,0,0,0,0,0,0,-1,1805,1156,0,0
588,-132,0,0,0,0,0,0,0,0,0,-1,1812,1156,0,0
595,-132,0,0,0,0,0,0,0,0,0,-1,1819,1156,0,0
602,-132,0,0,0,0,0,0,0,0,0,-1,1826,1156,0,0
609,-132,0,0,0,0,0,0,0,0,0,-1,1833,1156,0,0
616,-132,0,0,0,0,0,0,0,0,0,-1,1840,1156,0,0
623,-132,0,0,0,0,0,0,0,0,0,-1,1847,1156,0,0
630,-132,0,0,0,0,0,0,0,0,0,-1,1854,1156,0,0
637,-132,0,0,0,0,0,0,0,0,0,-1,1861,1156,0,0
644,-132,76.3702,2.08521,-0.00185348,0.00164723,-0.00195652,0.00252208,-0.00272833,-1.15032,0.00303211,0.0432904,1868,1156,76.3703,-2.08523
651,-132,76.2913,1.97729,-0.00129776,0.00121771,-0.00090345,0.00150856,-0.00158861,-1.25934,0.00178835,0.0400619,1875,1156,76.2913,-1.97726
658,-132,76.36,1.78918,-0.000621475,0.00101346,-0.000351605,0.00108587,-0.000693884,-1.3677,0.00103581,0.038484,1882,1156,76.36,-1.78916
665,-132,76.2002,2.07178,4.29175e-05,0.00101387,-0.000153463,0.00103755,1.92396e-05,-1.41771,0.000685378,0.0406203,1889,1156,76.2002,-2.07177
672,-132,76.0189,2.2959,0.000705614,0.00119286,-0.000284148,0.00132353,0.000574948,-1.13978,0.000766327,0.0411269,1896,1156,76.0189,-2.29594
679,-132,76.1543,2.17773,0.00138661,0.00104243,-0.000399845,0.00164983,0.000779212,-0.582181,0.000953014,0.0412901,1903,1156,76.1543,-2.17772
686,-132,76.3312,2.19995,0.00193499,0.00074885,-0.000486618,0.00210908,0.000574763,-0.343561,0.00125898,0.0382964,1910,1156,76.3311,-2.20001
693,-132,76.2712,2.23755,0.00196291,0.00050441,-0.000337102,0.00203706,0.000430265,-0.2165,0.00123976,0.0300348,1917,1156,76.2713,-2.23759
700,-132,76.2925,2.09753,0,0,0,0,0,0,0,-1,1924,1156,76.2924,-2.09753
707,-132,57.9275,3.01367,0,0,0,0,0,0,0,-1,1931,1156,57.9275,-3.01369
714,-132,57.8083,9.22156,0,0,0,0,0,0,0,-1,1938,1156,57.8084,-9.22151
721,-132,67.8262,9.89709,0,0,0,0,0,0,0,-1,1945,1156,67.8262,-9.89709
728,-132,67.7378,9.42822,0.00149632,0.000613331,0.000568335,0.0017745,0.000335158,0.455174,0.00108861,0.0313438,1952,1156,67.7378,-9.42818
735,-132,67.7314,8.76367,0.00124772,0.000309101,0.00103869,0.0019182,-0.000361381,0.573212,0.00141473,0.0329396,1959,1156,67.7315,-8.76365
742,-132,67.7119,8.07727,0.00105508,0.000235406,0.00145698,0.00215877,-0.00086828,0.648294,0.00179983,0.0278444,1966,1156,67.7119,-8.07722
749,-132,67.6782,7.4043,0.000583763,0.00139488,0.0017399,0.00277586,-0.000797222,0.8999,0.00216579,0.0242605,1973,1156,67.6783,-7.40424
756,-132,67.6759,6.70605,0.00100218,0.00610436,0.00134219,0.00643589,0.000670645,1.32863,0.00408544,0.0231506,1980,1156,67.6759,-6.70601
763,-132,67.6145,6.06201,0.00286706,0.013386,-8.45227e-05,0.0133867,0.00286638,-1.56276,0.008139,0.01448,1987,1156,67.6146,-6.06207
770,-132,67.5957,5.43604,0.00565586,0.0227286,-0.00212162,0.0229883,0.00539615,-1.44899,0.0138809,0.0149303,1994,1156,67.5958,-5.43601
777,-132,67.5149,4.79614,0.00929257,0.0340526,-0.00483203,0.0349622,0.008383,-1.38473,0.021077,0.0273119,2001,1156,67.5148,-4.79614
784,-132,67.4639,4.22327,0.0139074,0.0478709,-0.00844006,0.0498526,0.0119257,-1.34017,0.030059,0.0481023,2008,1156,67.4638,-4.22322
791,-132,67.5461,3.66968,0,0,0,0,0,0,0,-1,2015,1156,67.546,-3.66965
798,-132,67.1208,-2.04382,0.0261305,0.0850175,-0.0195691,0.0909275,0.0202206,-1.2775,0.0551284,0.0459905,2022,1156,67.1208,2.04383
805,-132,66.2161,-3.26172,0.0339465,0.109261,-0.0278655,0.11845,0.0247577,-1.25227,0.0721444,0.0484831,2029,1156,66.2162,3.26177
812,-132,65.3079,-4.45605,0,0,0,0,0,0,0,-1,2036,1156,65.3079,4.45601
-700,-139,0,0,0,0,0,0,0,0,0,-1,524,1163,0,0
-693,-139,-51.4747,-4.83777,0,0,0,0,0,0,0,-1,531,1163,-51.4747,4.83779
-686,-139,-51.5807,-4.75842,0,0,0,0,0,0,0,-1,538,1163,-51.5807,4.75841
-679,-139,-49.0771,2.95605,0,0,0,0,0,0,0,-1,545,1163,-49.077,-2.95606
-672,-139,-49.5725,3.30859,0,0,0,0,0,0,0,-1,552,1163,-49.5725,-3.30857
-665,-139,-50.1755,3.69092,0,0,0,0,0,0,0,-1,559,1163,-50.1755,-3.69097
-658,-139,-48.239,1.87109,0,0,0,0,0,0,0,-1,566,1163,-48.239,-1.87108
-651,-139,-50.691,2.8905,0,0,0,0,0,0,0,-1,573,1163,-50.6911,-2.89054
-644,-139,-50.6546,3.7063,-0.01092,0.0158565,0.00594347,0.0171164,-0.0121799,1.3619,0.0169941,0.0311477,580,1163,-50.6546,-3.70631
-637,-139,-50.7564,4.33875,-0.00829652,0.00928034,0.002593,0.00965489,-0.00867106,1.42734,0.0105856,0.0169064,587,1163,-50.7564,-4.33869
-630,-139,-50.7676,5.0271,-0.00673215,0.00432889,2.78394e-05,0.00432896,-0.00673222,1.56828,0.00643623,0.0103996,594,1163,-50.7676,-5.02704
-623,-139,-50.8144,5.75537,-0.00659374,0.00170902,-0.00101352,0.00183095,-0.00671567,-1.45107,0.00519609,0.0174291,601,1163,-50.8144,-5.75541
-616,-139,-50.9158,6.4425,-0.00711763,0.000678743,-0.00115885,0.000847348,-0.00728623,-1.42632,0.00516317,0.0223329,608,1163,-50.9158,-6.44246
-609,-139,-51.088,7.18103,0,0,0,0,0,0,0,-1,615,1163,-51.088,-7.18102
-602,-139,-50.4112,7.96228,0,0,0,0,0,0,0,-1,622,1163,-50.4112,-7.96224
-595,-139,-50.6539,8.62317,0,0,0,0,0,0,0,-1,629,1163,-50.6539,-8.62318
-588,-139,-51.0773,9.1781,0,0,0,0,0,0,0,-1,636,1163,-51.0773,-9.17806
-581,-139,-34.4892,6.72473,0,0,0,0,0,0,0,-1,643,1163,-34.4892,-6.72476
-574,-139,-23.0725,2.4043,0,0,0,0,0,0,0,-1,650,1163,-23.0725,-2.40433
-567,-139,-59.6409,0.369385,0,0,0,0,0,0,0,-1,657,1163,-59.6409,-0.369337
-560,-139,-59.6635,0.300537,-0.00578721,-8.75152e-05,-0.001264,0.000180221,-0.00605494,-1.36206,0.00409802,0.0341472,664,1163,-59.6635,-0.300556
-553,-139,-59.7475,0.358521,-0.00519216,0.000454547,-0.00117656,0.000689891,-0.0054275,-1.37338,0.00386886,0.0373346,671,1163,-59.7475,-0.358484
-546,-139,-59.8765,0.497314,-0.00273418,-0.00063886,-0.000965921,-0.000261531,-0.00311151,-1.19838,0.00199289,0.041789,678,1163,-59.8765,-0.497309
-539,-139,-59.8069,0.387695,0.00122642,-0.0025393,-0.000390385,0.00126646,-0.00257935,-0.10222,0.00226309,0.0407134,685,1163,-59.807,-0.38766
-532,-139,-59.7263,-0.024292,0.00580694,-0.00486784,0.000473307,0.00582788,-0.00488879,0.0442232,0.00619518,0.0411632,692,1163,-59.7263,0.0243406
-525,-139,-59.61,0.105835,0.0109187,-0.00750892,0.00155435,0.0110489,-0.00763911,0.0835625,0.0108492,0.0416523,699,1163,-59.61,-0.105825
-518,-139,0,0,0,0,0,0,0,0,0,-1,706,1163,0,0
-511,-139,0,0,0,0,0,0,0,0,0,-1,713,1163,0,0
-504,-139,0,0,0,0,0,0,0,0,0,-1,720,1163,0,0
-497,-139,0,0,0,0,0,0,0,0,0,-1,727,1163,0,0
-490,-139,0,0,0,0,0,0,0,0,0,-1,734,1163,0,0
-483,-139,0,0,0,0,0,0,0,0,0,-1,741,1163,0,0
-476,-139,0,0,0,0,0,0,0,0,0,-1,748,1163,0,0
-469,-139,0,0,0,0,0,0,0,0,0,-1,755,1163,0,0
-462,-139,0,0,0,0,0,0,0,0,0,-1,762,1163,0,0
-455,-139,0,0,0,0,0,0,0,0,0,-1,769,1163,0,0
-448,-139,0,0,0,0,0,0,0,0,0,-1,776,1163,0,0
-441,-139,0,0,0,0,0,0,0,0,0,-1,783,1163,0,0
-434,-139,0,0,0,0,0,0,0,0,0,-1,790,1163,0,0
-427,-139,0,0,0,0,0,0,0,0,0,-1,797,1163,0,0
-420,-139,0,0,0,0,0,0,0,0,0,-1,804,1163,0,0
-413,-139,0,0,0,0,0,0,0,0,0,-1,811,1163,0,0
-406,-139,0,0,0,0,0,0,0,0,0,-1,818,1163,0,0
-399,-139,0,0,0,0,0,0,0,0,0,-1,825,1163,0,0
-392,-139,0,0,0,0,0,0,0,0,0,-1,832,1163,0,0
-385,-139,0,0,0,0,0,0,0,0,0,-1,839,1163,0,0
-378,-139,0,0,0,0,0,0,0,0,0,-1,846,1163,0,0
-371,-139,0,0,0,0,0,0,0,0,0,-1,853,1163,0,0
-364,-139,0,0,0,0,0,0,0,0,0,-1,860,1163,0,0
-357,-139,0,0,0,0,0,0,0,0,0,-1,867,1163,0,0
-350,-139,0,0,0,0,0,0,0,0,0,-1,874,1163,0,0
-343,-139,0,0,0,0,0,0,0,0,0,-1,881,1163,0,0
-336,-139,0,0,0,0,0,0,0,0,0,-1,888,1163,0,0
-329,-139,0,0,0,0,0,0,0,0,0,-1,895,1163,0,0
-322,-139,0,0,0,0,0,0,0,0,0,-1,902,1163,0,0
-315,-139,0,0,0,0,0,0,0,0,0,-1,909,1163,0,0
-308,-139,0,0,0,0,0,0,0,0,0,-1,916,1163,0,0
-301,-139,0,0,0,0,0,0,0,0,0,-1,923,1163,0,0
-294,-139,0,0,0,0,0,0,0,0,0,-1,930,1163,0,0
-287,-139,0,0,0,0,0,0,0,0,0,-1,937,1163,0,0
-280,-139,0,0,0,0,0,0,0,0,0,-1,944,1163,0,0
-273,-139,0,0,0,0,0,0,0,0,0,-1,951,1163,0,0
-266,-139,0,0,0,0,0,0,0,0,0,-1,958,1163,0,0
-259,-139,0,0,0,0,0,0,0,0,0,-1,965,1163,0,0
-252,-139,0,0,0,0,0,0,0,0,0,-1,972,1163,0,0
-245,-139,0,0,0,0,0,0,0,0,0,-1,979,1163,0,0
-238,-139,0,0,0,0,0,0,0,0,0,-1,986,1163,0,0
-231,-139,0,0,0,0,0,0,0,0,0,-1,993,1163,0,0
-224,-139,0,0,0,0,0,0,0,0,0,-1,1000,1163,0,0
-217,-139,0,0,0,0,0,0,0,0,0,-1,1007,1163,0,0
-210,-139,0,0,0,0,0,0,0,0,0,-1,1014,1163,0,0
-203,-139,0,0,0,0,0,0,0,0,0,-1,1021,1163,0,0
-196,-139,0,0,0,0,0,0,0,0,0,-1,1028,1163,0,0
-189,-139,0,0,0,0,0,0,0,0,0,-1,1035,1163,0,0
-182,-139,0,0,0,0,0,0,0,0,0,-1,1042,1163,0,0
-175,-139,0,0,0,0,0,0,0,0,0,-1,1049,1163,0,0
-168,-139,0,0,0,0,0,0,0,0,0,-1,1056,1163,0,0
-161,-139,0,0,0,0,0,0,0,0,0,-1,1063,1163,0,0
-154,-139,0,0,0,0,0,0,0,0,0,-1,1070,1163,0,0
-147,-139,0,0,0,0,0,0,0,0,0,-1,1077,1163,0,0
-140,-139,0,0,0,0,0,0,0,0,0,-1,1084,1163,0,0
-133,-139,0,0,0,0,0,0,0,0,0,-1,1091,1163,0,0
-126,-139,0,0,0,0,0,0,0,0,0,-1,1098,1163,0,0
-119,-139,0,0,0,0,0,0,0,0,0,-1,1105,1163,0,0
-112,-139,0,0,0,0,0,0,0,0,0,-1,1112,1163,0,0
-105,-139,0,0,0,0,0,0,0,0,0,-1,1119,1163,0,0
-98,-139,0,0,0,0,0,0,0,0,0,-1,1126,1163,0,0
-91,-139,0,0,0,0,0,0,0,0,0,-1,1133,1163,0,0
-84,-139,0,0,0,0,0,0,0,0,0,-1,1140,1163,0,0
-77,-139,0,0,0,0,0,0,0,0,0,-1,1147,1163,0,0
-70,-139,0,0,0,0,0,0,0,0,0,-1,1154,1163,0,0
-63,-139,0,0,0,0,0,0,0,0,0,-1,1161,1163,0,0
-56,-139,0,0,0,0,0,0,0,0,0,-1,1168,1163,0,0
-49,-139,0,0,0,0,0,0,0,0,0,-1,1175,1163,0,0
-42,-139,0,0,0,0,0,0,0,0,0,-1,1182,1163,0,0
-35,-139,0,0,0,0,0,0,0,0,0,-1,1189,1163,0,0
-28,-139,0,0,0,0,0,0,0,0,0,-1,1196,1163,0,0
-21,-139,0,0,0,0,0,0,0,0,0,-1,1203,1163,0,0
-14,-139,0,0,0,0,0,0,0,0,0,-1,1210,1163,0,0
-7,-139,0,0,0,0,0,0,0,0,0,-1,1217,1163,0,0
0,-139,0,0,0,0,0,0,0,0,0,-1,1224,1163,0,0
7,-139,0,0,0,0,0,0,0,0,0,-1,1231,1163,0,0
14,-139,0,0,0,0,0,0,0,0,0,-1,1238,1163,0,0
21,-139,0,0,0,0,0,0,0,0,0,-1,1245,1163,0,0
28,-139,0,0,0,0,0,0,0,0,0,-1,1252,1163,0,0
35,-139,0,0,0,0,0,0,0,0,0,-1,1259,1163,0,0
42,-139,0,0,0,0,0,0,0,0,0,-1,1266,1163,0,0
49,-139,0,0,0,0,0,0,0,0,0,-1,1273,1163,0,0
56,-139,0,0,0,0,0,0,0,0,0,-1,1280,1163,0,0
63,-139,0,0,0,0,0,0,0,0,0,-1,1287,1163,0,0
70,-139,0,0,0,0,0,0,0,0,0,-1,1294,1163,0,0
77,-139,0,0,0,0,0,0,0,0,0,-1,1301,1163,0,0
84,-139,0,0,0,0,0,0,0,0,0,-1,1308,1163,0,0
91,-139,0,0,0,0,0,0,0,0,0,-1,1315,1163,0,0
98,-139,0,0,0,0,0,0,0,0,0,-1,1322,1163,0,0
105,-139,0,0,0,0,0,0,0,0,0,-1,1329,1163,0,0
112,-139,0,0,0,0,0,0,0,0,0,-1,1336,1163,0,0
119,-139,0,0,0,0,0,0,0,0,0,-1,1343,1163,0,0
126,-139,0,0,0,0,0,0,0,0,0,-1,1350,1163,0,0
133,-139,0,0,0,0,0,0,0,0,0,-1,1357,1163,0,0
140,-139,0,0,0,0,0,0,0,0,0,-1,1364,1163,0,0
147,-139,0,0,0,0,0,0,0,0,0,-1,1371,1163,0,0
154,-139,0,0,0,0,0,0,0,0,0,-1,1378,1163,0,0
161,-139,0,0,0,0,0,0,0,0,0,-1,1385,1163,0,0
168,-139,0,0,0,0,0,0,0,0,0,-1,1392,1163,0,0
175,-139,0,0,0,0,0,0,0,0,0,-1,1399,1163,0,0
182,-139,0,0,0,0,0,0,0,0,0,-1,1406,1163,0,0
189,-139,0,0,0,0,0,0,0,0,0,-1,1413,1163,0,0
196,-139,0,0,0,0,0,0,0,0,0,-1,1420,1163,0,0
203,-139,0,0,0,0,0,0,0,0,0,-1,1427,1163,0,0
210,-139,0,0,0,0,0,0,0,0,0,-1,1434,1163,0,0
217,-139,0,0,0,0,0,0,0,0,0,-1,1441,1163,0,0
224,-139,0,0,0,0,0,0,0,0,0,-1,1448,1163,0,0
231,-139,0,0,0,0,0,0,0,0,0,-1,1455,1163,0,0
238,-139,0,0,0,0,0,0,0,0,0,-1,1462,1163,0,0
245,-139,0,0,0,0,0,0,0,0,0,-1,1469,1163,0,0
252,-139,0,0,0,0,0,0,0,0,0,-1,1476,1163,0,0
259,-139,0,0,0,0,0,0,0,0,0,-1,1483,1163,0,0
266,-139,0,0,0,0,0,0,0,0,0,-1,1490,1163,0,0
273,-139,0,0,0,0,0,0,0,0,0,-1,1497,1163,0,0
280,-139,0,0,0,0,0,0,0,0,0,-1,1504,1163,0,0
287,-139,0,0,0,0,0,0,0,0,0,-1,1511,1163,0,0
294,-139,0,0,0,0,0,0,0,0,0,-1,1518,1163,0,0
301,-139,0,0,0,0,0,0,0,0,0,-1,1525,1163,0,0
308,-139,0,0,0,0,0,0,0,0,0,-1,1532,1163,0,0
315,-139,0,0,0,0,0,0,0,0,0,-1,1539,1163,0,0
322,-139,0,0,0,0,0,0,0,0,0,-1,1546,1163,0,0
329,-139,0,0,0,0,0,0,0,0,0,-1,1553,1163,0,0
336,-139,0,0,0,0,0,0,0,0,0,-1,1560,1163,0,0
343,-139,0,0,0,0,0,0,0,0,0,-1,1567,1163,0,0
350,-139,0,0,0,0,0,0,0,0,0,-1,1574,1163,0,0
357,-139,0,0,0,0,0,0,0,0,0,-1,1581,1163,0,0
364,-139,0,0,0,0,0,0,0,0,0,-1,1588,1163,0,0
371,-139,0,0,0,0,0,0,0,0,0,-1,1595,1163,0,0
378,-139,0,0,0,0,0,0,0,0,0,-1,1602,1163,0,0
385,-139,0,0,0,0,0,0,0,0,0,-1,1609,1163,0,0
392,-139,0,0,0,0,0,0,0,0,0,-1,1616,1163,0,0
399,-139,0,0,0,0,0,0,0,0,0,-1,1623,1163,0,0
406,-139,0,0,0,0,0,0,0,0,0,-1,1630,1163,0,0
413,-139,0,0,0,0,0,0,0,0,0,-1,1637,1163,0,0
420,-139,0,0,0,0,0,0,0,0,0,-1,1644,1163,0,0
427,-139,0,0,0,0,0,0,0,0,0,-1,1651,1163,0,0
434,-139,0,0,0,0,0,0,0,0,0,-1,1658,1163,0,0
441,-139,0,0,0,0,0,0,0,0,0,-1,1665,1163,0,0
448,-139,0,0,0,0,0,0,0,0,0,-1,1672,1163,0,0
455,-139,0,0,0,0,0,0,0,0,0,-1,1679,1163,0,0
462,-139,0,0,0,0,0,0,0,0,0,-1,1686,1163,0,0
469,-139,0,0,0,0,0,0,0,0,0,-1,1693,1163,0,0
476,-139,0,0,0,0,0,0,0,0,0,-1,1700,1163,0,0
483,-139,0,0,0,0,0,0,0,0,0,-1,1707,1163,0,0
490,-139,0,0,0,0,0,0,0,0,0,-1,1714,1163,0,0
497,-139,0,0,0,0,0,0,0,0,0,-1,1721,1163,0,0
504,-139,0,0,0,0,0,0,0,0,0,-1,1728,1163,0,0
511,-139,0,0,0,0,0,0,0,0,0,-1,1735,1163,0,0
518,-139,0,0,0,0,0,0,0,0,0,-1,1742,1163,0,0
525,-139,0,0,0,0,0,0,0,0,0,-1,1749,1163,0,0
532,-139,0,0,0,0,0,0,0,0,0,-1,1756,1163,0,0
539,-139,0,0,0,0,0,0,0,0,0,-1,1763,1163,0,0
546,-139,0,0,0,0,0,0,0,0,0,-1,1770,1163,0,0
553,-139,0,0,0,0,0,0,0,0,0,-1,1777,1163,0,0
560,-139,0,0,0,0,0,0,0,0,0,-1,1784,1163,0,0
567,-139,0,0,0,0,0,0,0,0,0,-1,1791,1163,0,0
574,-139,0,0,0,0,0,0,0,0,0,-1,1798,1163,0,0
581,-139,0,0,0,0,0,0,0,0,0,-1,1805,1163,0,0
588,-139,0,0,0,0,0,0,0,0,0,-1,1812,1163,0,0
595,-139,0,0,0,0,0,0,0,0,0,-1,1819,1163,0,0
602,-139,0,0,0,0,0,0,0,0,0,-1,1826,1163,0,0
609,-139,0,0,0,0,0,0,0,0,0,-1,1833,1163,0,0
616,-139,0,0,0,0,0,0,0,0,0,-1,1840,1163,0,0
623,-139,0,0,0,0,0,0,0,0,0,-1,1847,1163,0,0
630,-139,0,0,0,0,0,0,0,0,0,-1,1854,1163,0,0
637,-139,0,0,0,0,0,0,0,0,0,-1,1861,1163,0,0
644,-139,76.3242,2.00867,-0.00195751,0.00170893,-0.00122496,0.00208053,-0.00232911,-1.27626,0.00254725,0.0441878,1868,1163,76.3242,-2.00861
651,-139,76.1543,1.89807,-0.00141367,0.00136315,-0.000434165,0.00142945,-0.00147997,-1.41926,0.00167984,0.0411976,1875,1163,76.1543,-1.89811
658,-139,76.1349,2.0929,-0.000721026,0.00125754,-7.8156e-05,0.00126063,-0.000724108,-1.53138,0.00115976,0.0400551,1882,1163,76.1348,-2.09284
665,-139,76.1688,2.38794,4.90395e-06,0.00137741,-5.16219e-05,0.00137935,2.96516e-06,-1.53326,0.000918578,0.0390206,1889,1163,76.1688,-2.38793
672,-139,76.2388,2.41479,0.000760426,0.00170221,-0.000336177,0.00180989,0.000652738,-1.26079,0.00105838,0.0389434,1896,1163,76.2388,-2.41476
679,-139,76.3033,2.28638,0.00152585,0.00165179,-0.000556946,0.00214932,0.00102833,-0.841694,0.00124129,0.0373291,1903,1163,76.3034,-2.28643
686,-139,76.27,2.21228,0.00214367,0.00149008,-0.000707112,0.00259585,0.0010379,-0.568941,0.00150871,0.0370025,1910,1163,76.27,-2.21224
693,-139,76.2845,2.17358,0.00209332,0.00124554,-0.00053243,0.00234999,0.000988871,-0.449209,0.00136243,0.0275665,1917,1163,76.2845,-2.17354
700,-139,76.3615,2.05542,0,0,0,0,0,0,0,-1,1924,1163,76.3614,-2.05546
707,-139,32.116,6.54346,0,0,0,0,0,0,0,-1,1931,1163,32.116,-6.54343
714,-139,62.1425,10.1428,0,0,0,0,0,0,0,-1,1938,1163,62.1424,-10.1428
721,-139,65.8013,9.82837,0,0,0,0,0,0,0,-1,1945,1163,65.8013,-9.82837
728,-139,67.0132,9.67273,0,0,0,0,0,0,0,-1,1952,1163,67.0132,-9.67267
735,-139,66.9684,8.87488,0.00166158,0.000799533,0.000890432,0.00221982,0.000241289,0.559991,0.00140637,0.0376441,1959,1163,66.9684,-8.87488
742,-139,67.0289,8.00867,0.00147444,0.000530402,0.00135481,0.0024371,-0.000432259,0.617772,0.00178634,0.0261036,1966,1163,67.0289,-8.00871
749,-139,66.9893,7.35168,0.000945389,0.00137637,0.00163036,0.00280542,-0.000483661,0.851104,0.0020506,0.0200277,1973,1163,66.9893,-7.35172
756,-139,66.934,6.7207,0.00113621,0.00612151,0.00115996,0.00637819,0.000879532,1.35302,0.00399138,0.0114088,1980,1163,66.934,-6.72069
763,-139,66.9031,6.06165,0.00253398,0.0134335,-0.000274641,0.0134404,0.00252707,-1.54562,0.008248,0.0115943,1987,1163,66.9031,-6.06166
770,-139,66.8967,5.41663,0.00475025,0.0227531,-0.00231602,0.0230463,0.00445707,-1.44488,0.014115,0.0130077,1994,1163,66.8968,-5.41663
777,-139,66.8555,4.797,0.00775527,0.0341347,-0.0050427,0.0350658,0.00682417,-1.38821,0.0214672,0.0269802,2001,1163,66.8555,-4.79696
784,-139,66.7944,4.16919,0.0117547,0.0481478,-0.00868517,0.0501143,0.00978825,-1.34814,0.0306719,0.0469488,2008,1163,66.7945,-4.16921
791,-139,66.7834,3.50952,0,0,0,0,0,0,0,-1,2015,1163,66.7835,-3.5095
798,-139,67.3545,2.94385,0,0,0,0,0,0,0,-1,2022,1163,67.3546,-2.94386
805,-139,65.6533,-4.76648,0,0,0,0,0,0,0,-1,2029,1163,65.6533,4.76652
812,-139,0,0,0,0,0,0,0,0,0,-1,2036,1163,0,0
-700,-146,0,0,0,0,0,0,0,0,0,-1,524,1170,0,0
-693,-146,-51.506,-5.797,0,0,0,0,0,0,0,-1,531,1170,-51.506,5.79697
-686,-146,-51.814,-6.34314,0,0,0,0,0,0,0,-1,538,1170,-51.814,6.34313
-679,-146,-48.1238,2.80457,0,0,0,0,0,0,0,-1,545,1170,-48.1238,-2.80453
-672,-146,-48.5766,3.09644,0,0,0,0,0,0,0,-1,552,1170,-48.5766,-3.09646
-665,-146,-49.2606,3.46606,0,0,0,0,0,0,0,-1,559,1170,-49.2606,-3.46606
-658,-146,-49.7117,3.58276,0,0,0,0,0,0,0,-1,566,1170,-49.7118,-3.5828
-651,-146,-49.7191,2.76831,0,0,0,0,0,0,0,-1,573,1170,-49.7191,-2.76826
-644,-146,-49.8687,3.59009,-0.0108796,0.0176073,0.00559257,0.0186659,-0.0119382,1.38372,0.0178111,0.0290051,580,1170,-49.8687,-3.59005
-637,-146,-49.9957,4.33374,-0.00795156,0.0103793,0.00235768,0.0106777,-0.00824994,1.44491,0.0109578,0.0134062,587,1170,-49.9957,-4.33378
-630,-146,-50.0233,5.02881,-0.00617477,0.00477143,-0.000181045,0.00477442,-0.00617777,-1.55426,0.00634053,0.0107698,594,1170,-50.0233,-5.02885
-623,-146,-50.0718,5.74194,-0.00605395,0.00178893,-0.00114003,0.00195128,-0.0062163,-1.42934,0.0049252,0.0139374,601,1170,-50.0718,-5.74189
-616,-146,-50.1652,6.44653,-0.00690391,0.00067589,-0.00139973,0.000926112,-0.00715414,-1.3939,0.0051062,0.0205999,608,1170,-50.1652,-6.44654
-609,-146,-50.2601,7.14783,0,0,0,0,0,0,0,-1,615,1170,-50.2601,-7.1478
-602,-146,-49.7178,7.99854,0,0,0,0,0,0,0,-1,622,1170,-49.7178,-7.99849
-595,-146,-49.8962,8.69519,0,0,0,0,0,0,0,-1,629,1170,-49.8963,-8.6952
-588,-146,-45.0034,7.81934,0,0,0,0,0,0,0,-1,636,1170,-45.0034,-7.81931
-581,-146,-31.7815,6.30347,0,0,0,0,0,0,0,-1,643,1170,-31.7815,-6.3035
-574,-146,-17.9915,3.79114,0,0,0,0,0,0,0,-1,650,1170,-17.9915,-3.79118
-567,-146,-44.4572,0.6604,0,0,0,0,0,0,0,-1,657,1170,-44.4572,-0.660404
-560,-146,-59.6058,0.272949,0,0,0,0,0,0,0,-1,664,1170,-59.6059,-0.272987
-553,-146,-59.5616,0.220337,-0.00575629,0.000909651,-0.00141103,0.00119603,-0.00604267,-1.37056,0.00448065,0.0352171,671,1170,-59.5616,-0.220298
-546,-146,-59.5935,0.312744,-0.00380076,9.89533e-05,-0.00122632,0.00045253,-0.00415433,-1.29009,0.00293206,0.039383,678,1170,-59.5935,-0.31279
-539,-146,-59.7197,0.421753,0.00016006,-0.00163844,-0.000697443,0.000398825,-0.00187721,-0.329837,0.00140343,0.0414212,685,1170,-59.7197,-0.421714
-532,-146,-59.695,-0.00830078,0.00470093,-0.00377228,3.06261e-05,0.00470104,-0.00377239,0.0036144,0.00490192,0.0433641,692,1170,-59.695,0.00825745
-525,-146,-59.58,0.0806885,0.00994184,-0.00636812,0.000906098,0.00999202,-0.00641831,0.0553279,0.0095491,0.0439771,699,1170,-59.58,-0.0806819
-518,-146,0,0,0,0,0,0,0,0,0,-1,706,1170,0,0
-511,-146,0,0,0,0,0,0,0,0,0,-1,713,1170,0,0
-504,-146,0,0,0,0,0,0,0,0,0,-1,720,1170,0,0
-497,-146,0,0,0,0,0,0,0,0,0,-1,727,1170,0,0
-490,-146,0,0,0,0,0,0,0,0,0,-1,734,1170,0,0
-483,-146,0,0,0,0,0,0,0,0,0,-1,741,1170,0,0
-476,-146,0,0,0,0,0,0,0,0,0,-1,748,1170,0,0
-469,-146,0,0,0,0,0,0,0,0,0,-1,755,1170,0,0
-462,-146,0,0,0,0,0,0,0,0,0,-1,762,1170,0,0
-455,-146,0,0,0,0,0,0,0,0,0,-1,769,1170,0,0
-448,-146,0,0,0,0,0,0,0,0,0,-1,776,1170,0,0
-441,-146,0,0,0,0,0,0,0,0,0,-1,783,1170,0,0
-434,-146,0,0,0,0,0,0,0,0,0,-1,790,1170,0,0
-427,-146,0,0,0,0,0,0,0,0,0,-1,797,1170,0,0
-420,-146,0,0,0,0,0,0,0,0,0,-1,804,1170,0,0
-413,-146,0,0,0,0,0,0,0,0,0,-1,811,1170,0,0
-406,-146,0,0,0,0,0,0,0,0,0,-1,818,1170,0,0
-399,-146,0,0,0,0,0,0,0,0,0,-1,825,1170,0,0
-392,-146,0,0,0,0,0,0,0,0,0,-1,832,1170,0,0
-385,-146,0,0,0,0,0,0,0,0,0,-1,839,1170,0,0
-378,-146,0,0,0,0,0,0,0,0,0,-1,846,1170,0,0
-371,-146,0,0,0,0,0,0,0,0,0,-1,853,1170,0,0
-364,-146,0,0,0,0,0,0,0,0,0,-1,860,1170,0,0
-357,-146,0,0,0,0,0,0,0,0,0,-1,867,1170,0,0
-350,-146,0,0,0,0,0,0,0,0,0,-1,874,1170,0,0
-343,-146,0,0,0,0,0,0,0,0,0,-1,881,1170,0,0
-336,-146,0,0,0,0,0,0,0,0,0,-1,888,1170,0,0
-329,-146,0,0,0,0,0,0,0,0,0,-1,895,1170,0,0
-322,-146,0,0,0,0,0,0,0,0,0,-1,902,1170,0,0
-315,-146,0,0,0,0,0,0,0,0,0,-1,909,1170,0,0
-308,-146,0,0,0,0,0,0,0,0,0,-1,916,1170,0,0
-301,-146,0,0,0,0,0,0,0,0,0,-1,923,1170,0,0
-294,-146,0,0,0,0,0,0,0,0,0,-1,930,1170,0,0
-287,-146,0,0,0,0,0,0,0,0,0,-1,937,1170,0,0
-280,-146,0,0,0,0,0,0,0,0,0,-1,944,1170,0,0
-273,-146,0,0,0,0,0,0,0,0,0,-1,951,1170,0,0
-266,-146,0,0,0,0,0,0,0,0,0,-1,958,1170,0,0
-259,-146,0,0,0,0,0,0,0,0,0,-1,965,1170,0,0
-252,-146,0,0,0,0,0,0,0,0,0,-1,972,1170,0,0
-245,-146,0,0,0,0,0,0,0,0,0,-1,979,1170,0,0
-238,-146,0,0,0,0,0,0,0,0,0,-1,986,1170,0,0
-231,-146,0,0,0,0,0,0,0,0,0,-1,993,1170,0,0
-224,-146,0,0,0,0,0,0,0,0,0,-1,1000,1170,0,0
-217,-146,0,0,0,0,0,0,0,0,0,-1,1007,1170,0,0
-210,-146,0,0,0,0,0,0,0,0,0,-1,1014,1170,0,0
-203,-146,0,0,0,0,0,0,0,0,0,-1,1021,1170,0,0
-196,-146,0,0,0,0,0,0,0,0,0,-1,1028,1170,0,0
-189,-146,0,0,0,0,0,0,0,0,0,-1,1035,1170,0,0
-182,-146,0,0,0,0,0,0,0,0,0,-1,1042,1170,0,0
-175,-146,0,0,0,0,0,0,0,0,0,-1,1049,1170,0,0
-168,-146,0,0,0,0,0,0,0,0,0,-1,1056,1170,0,0
-161,-146,0,0,0,0,0,0,0,0,0,-1,1063,1170,0,0
-154,-146,0,0,0,0,0,0,0,0,0,-1,1070,1170,0,0
-147,-146,0,0,0,0,0,0,0,0,0,-1,1077,1170,0,0
-140,-146,0,0,0,0,0,0,0,0,0,-1,1084,1170,0,0
-133,-146,0,0,0,0,0,0,0,0,0,-1,1091,1170,0,0
-126,-146,0,0,0,0,0,0,0,0,0,-1,1098,1170,0,0
-119,-146,0,0,0,0,0,0,0,0,0,-1,1105,1170,0,0
-112,-146,0,0,0,0,0,0,0,0,0,-1,1112,1170,0,0
-105,-146,0,0,0,0,0,0,0,0,0,-1,1119,1170,0,0
-98,-146,0,0,0,0,0,0,0,0,0,-1,1126,1170,0,0
-91,-146,0,0,0,0,0,0,0,0,0,-1,1133,1170,0,0
-84,-146,0,0,0,0,0,0,0,0,0,-1,1140,1170,0,0
-77,-146,0,0,0,0,0,0,0,0,0,-1,1147,1170,0,0
-70,-146,0,0,0,0,0,0,0,0,0,-1,1154,1170,0,0
-63,-146,0,0,0,0,0,0,0,0,0,-1,1161,1170,0,0
-56,-146,0,0,0,0,0,0,0,0,0,-1,1168,1170,0,0
-49,-146,0,0,0,0,0,0,0,0,0,-1,1175,1170,0,0
-42,-146,0,0,0,0,0,0,0,0,0,-1,1182,1170,0,0
-35,-146,0,0,0,0,0,0,0,0,0,-1,1189,1170,0,0
-28,-146,0,0,0,0,0,0,0,0,0,-1,1196,1170,0,0
-21,-146,0,0,0,0,0,0,0,0,0,-1,1203,1170,0,0
-14,-146,0,0,0,0,0,0,0,0,0,-1,1210,1170,0,0
-7,-146,0,0,0,0,0,0,0,0,0,-1,1217,1170,0,0
0,-146,0,0,0,0,0,0,0,0,0,-1,1224,1170,0,0
7,-146,0,0,0,0,0,0,0,0,0,-1,1231,1170,0,0
14,-146,0,0,0,0,0,0,0,0,0,-1,1238,1170,0,0
21,-146,0,0,0,0,0,0,0,0,0,-1,1245,1170,0,0
28,-146,0,0,0,0,0,0,0,0,0,-1,1252,1170,0,0
35,-146,0,0,0,0,0,0,0,0,0,-1,1259,1170,0,0
42,-146,0,0,0,0,0,0,0,0,0,-1,1266,1170,0,0
49,-146,0,0,0,0,0,0,0,0,0,-1,1273,1170,0,0
56,-146,0,0,0,0,0,0,0,0,0,-1,1280,1170,0,0
63,-146,0,0,0,0,0,0,0,0,0,-1,1287,1170,0,0
70,-146,0,0,0,0,0,0,0,0,0,-1,1294,1170,0,0
77,-146,0,0,0,0,0,0,0,0,0,-1,1301,1170,0,0
84,-146,0,0,0,0,0,0,0,0,0,-1,1308,1170,0,0
91,-146,0,0,0,0,0,0,0,0,0,-1,1315,1170,0,0
98,-146,0,0,0,0,0,0,0,0,0,-1,1322,1170,0,0
105,-146,0,0,0,0,0,0,0,0,0,-1,1329,1170,0,0
112,-146,0,0,0,0,0,0,0,0,0,-1,1336,1170,0,0
119,-146,0,0,0,0,0,0,0,0,0,-1,1343,1170,0,0
126,-146,0,0,0,0,0,0,0,0,0,-1,1350,1170,0,0
133,-146,0,0,0,0,0,0,0,0,0,-1,1357,1170,0,0
140,-146,0,0,0,0,0,0,0,0,0,-1,1364,1170,0,0
147,-146,0,0,0,0,0,0,0,0,0,-1,1371,1170,0,0
154,-146,0,0,0,0,0,0,0,0,0,-1,1378,1170,0,0
161,-146,0,0,0,0,0,0,0,0,0,-1,1385,1170,0,0
168,-146,0,0,0,0,0,0,0,0,0,-1,1392,1170,0,0
175,-146,0,0,0,0,0,0,0,0,0,-1,1399,1170,0,0
182,-146,0,0,0,0,0,0,0,0,0,-1,1406,1170,0,0
189,-146,0,0,0,0,0,0,0,0,0,-1,1413,1170,0,0
196,-146,0,0,0,0,0,0,0,0,0,-1,1420,1170,0,0
203,-146,0,0,0,0,0,0,0,0,0,-1,1427,1170,0,0
210,-146,0,0,0,0,0,0,0,0,0,-1,1434,1170,0,0
217,-146,0,0,0,0,0,0,0,0,0,-1,1441,1170,0,0
224,-146,0,0,0,0,0,0,0,0,0,-1,1448,1170,0,0
231,-146,0,0,0,0,0,0,0,0,0,-1,1455,1170,0,0
238,-146,0,0,0,0,0,0,0,0,0,-1,1462,1170,0,0
245,-146,0,0,0,0,0,0,0,0,0,-1,1469,1170,0,0
252,-146,0,0,0,0,0,0,0,0,0,-1,1476,1170,0,0
259,-146,0,0,0,0,0,0,0,0,0,-1,1483,1170,0,0
266,-146,0,0,0,0,0,0,0,0,0,-1,1490,1170,0,0
273,-146,0,0,0,0,0,0,0,0,0,-1,1497,1170,0,0
280,-146,0,0,0,0,0,0,0,0,0,-1,1504,1170,0,0
287,-146,0,0,0,0,0,0,0,0,0,-1,1511,1170,0,0
294,-146,0,0,0,0,0,0,0,0,0,-1,1518,1170,0,0
301,-146,0,0,0,0,0,0,0,0,0,-1,1525,1170,0,0
308,-146,0,0,0,0,0,0,0,0,0,-1,1532,1170,0,0
315,-146,0,0,0,0,0,0,0,0,0,-1,1539,1170,0,0
322,-146,0,0,0,0,0,0,0,0,0,-1,1546,1170,0,0
329,-146,0,0,0,0,0,0,0,0,0,-1,1553,1170,0,0
336,-146,0,0,0,0,0,0,0,0,0,-1,1560,1170,0,0
343,-146,0,0,0,0,0,0,0,0,0,-1,1567,1170,0,0
350,-146,0,0,0,0,0,0,0,0,0,-1,1574,1170,0,0
357,-146,0,0,0,0,0,0,0,0,0,-1,1581,1170,0,0
364,-146,0,0,0,0,0,0,0,0,0,-1,1588,1170,0,0
371,-146,0,0,0,0,0,0,0,0,0,-1,1595,1170,0,0
378,-146,0,0,0,0,0,0,0,0,0,-1,1602,1170,0,0
385,-146,0,0,0,0,0,0,0,0,0,-1,1609,1170,0,0
392,-146,0,0,0,0,0,0,0,0,0,-1,1616,1170,0,0
399,-146,0,0,0,0,0,0,0,0,0,-1,1623,1170,0,0
406,-146,0,0,0,0,0,0,0,0,0,-1,1630,1170,0,0
413,-146,0,0,0,0,0,0,0,0,0,-1,1637,1170,0,0
420,-146,0,0,0,0,0,0,0,0,0,-1,1644,1170,0,0
427,-146,0,0,0,0,0,0,0,0,0,-1,1651,1170,0,0
434,-146,0,0,0,0,0,0,0,0,0,-1,1658,1170,0,0
441,-146,0,0,0,0,0,0,0,0,0,-1,1665,1170,0,0
448,-146,0,0,0,0,0,0,0,0,0,-1,1672,1170,0,0
455,-146,0,0,0,0,0,0,0,0,0,-1,1679,1170,0,0
462,-146,0,0,0,0,0,0,0,0,0,-1,1686,1170,0,0
469,-146,0,0,0,0,0,0,0,0,0,-1,1693,1170,0,0
476,-146,0,0,0,0,0,0,0,0,0,-1,1700,1170,0,0
483,-146,0,0,0,0,0,0,0,0,0,-1,1707,1170,0,0
490,-146,0,0,0,0,0,0,0,0,0,-1,1714,1170,0,0
497,-146,0,0,0,0,0,0,0,0,0,-1,1721,1170,0,0
504,-146,0,0,0,0,0,0,0,0,0,-1,1728,1170,0,0
511,-146,0,0,0,0,0,0,0,0,0,-1,1735,1170,0,0
518,-146,0,0,0,0,0,0,0,0,0,-1,1742,1170,0,0
525,-146,0,0,0,0,0,0,0,0,0,-1,1749,1170,0,0
532,-146,0,0,0,0,0,0,0,0,0,-1,1756,1170,0,0
539,-146,0,0,0,0,0,0,0,0,0,-1,1763,1170,0,0
546,-146,0,0,0,0,0,0,0,0,0,-1,1770,1170,0,0
553,-146,0,0,0,0,0,0,0,0,0,-1,1777,1170,0,0
560,-146,0,0,0,0,0,0,0,0,0,-1,1784,1170,0,0
567,-146,0,0,0,0,0,0,0,0,0,-1,1791,1170,0,0
574,-146,0,0,0,0,0,0,0,0,0,-1,1798,1170,0,0
581,-146,0,0,0,0,0,0,0,0,0,-1,1805,1170,0,0
588,-146,0,0,0,0,0,0,0,0,0,-1,1812,1170,0,0
595,-146,0,0,0,0,0,0,0,0,0,-1,1819,1170,0,0
602,-146,0,0,0,0,0,0,0,0,0,-1,1826,1170,0,0
609,-146,0,0,0,0,0,0,0,0,0,-1,1833,1170,0,0
616,-146,0,0,0,0,0,0,0,0,0,-1,1840,1170,0,0
623,-146,0,0,0,0,0,0,0,0,0,-1,1847,1170,0,0
630,-146,0,0,0,0,0,0,0,0,0,-1,1854,1170,0,0
637,-146,76.3441,2.047,-0.00235247,0.00233461,-0.00144878,0.00274627,-0.00276413,-1.29395,0.00318144,0.0405141,1861,1170,76.3441,-2.04701
644,-146,76.2665,2.04504,-0.00189643,0.00162103,-0.000485478,0.0016868,-0.00196221,-1.43613,0.00210876,0.0397679,1868,1170,76.2665,-2.04507
651,-146,76.1747,2.04822,-0.00139548,0.00141466,-2.69659e-05,0.00141492,-0.00139574,-1.5612,0.00162275,0.0376018,1875,1170,76.1747,-2.04824
658,-146,76.1998,2.09021,-0.000710277,0.00142424,6.11731e-05,0.00142599,-0.000712029,1.54217,0.00125712,0.0399024,1882,1170,76.1999,-2.09017
665,-146,76.2007,2.23584,5.8915e-05,0.00166139,-0.000149703,0.00167526,4.50499e-05,-1.47844,0.00110213,0.0378544,1889,1170,76.2007,-2.23583
672,-146,76.2711,2.2373,0.000896117,0.00210996,-0.000643672,0.00238772,0.000618353,-1.16341,0.00143095,0.0369534,1896,1170,76.2712,-2.23729
679,-146,76.3198,2.18506,0.00173113,0.00213161,-0.00101445,0.0029654,0.000897349,-0.882839,0.00175598,0.030969,1903,1170,76.3198,-2.1851
686,-146,76.2352,2.09827,0.00237197,0.00211336,-0.00120813,0.00345769,0.00102763,-0.732086,0.0020503,0.0266339,1910,1170,76.2352,-2.09827
693,-146,76.2836,2.02869,0.00217901,0.00187072,-0.000931945,0.00296947,0.00108026,-0.70344,0.0017355,0.0234502,1917,1170,76.2836,-2.02867
700,-146,76.3226,1.87976,0,0,0,0,0,0,0,-1,1924,1170,76.3226,-1.87974
707,-146,29.9441,6.94653,0,0,0,0,0,0,0,-1,1931,1170,29.9441,-6.94652
714,-146,31.325,6.13245,0,0,0,0,0,0,0,-1,1938,1170,31.325,-6.1325
721,-146,61.3608,9.47766,0,0,0,0,0,0,0,-1,1945,1170,61.3608,-9.47767
728,-146,65.7382,9.26538,0,0,0,0,0,0,0,-1,1952,1170,65.7382,-9.26537
735,-146,66.5343,8.55066,0,0,0,0,0,0,0,-1,1959,1170,66.5343,-8.5507
742,-146,66.4244,8.02588,0.00171037,0.000861735,0.0011628,0.00252385,4.82495e-05,0.610451,0.00166672,0.0202763,1966,1170,66.4245,-8.02593
749,-146,66.3076,7.42505,0.00121638,0.00155608,0.00148149,0.00287743,-0.000104971,0.842473,0.00195421,0.0175363,1973,1170,66.3076,-7.42509
756,-146,66.2601,6.73206,0.00133489,0.00626967,0.000792685,0.00639387,0.00121068,1.41537,0.00392181,0.0135427,1980,1170,66.2602,-6.7321
763,-146,66.2004,6.04749,0.00254044,0.0133891,-0.000834459,0.0134529,0.00247663,-1.49448,0.00826762,0.0123126,1987,1170,66.2005,-6.0475
770,-146,66.1716,5.37329,0.00454024,0.0224382,-0.00311704,0.0229655,0.00401293,-1.40321,0.0141635,0.0131119,1994,1170,66.1717,-5.37332
777,-146,66.1926,4.81409,0.00737383,0.0335394,-0.00613378,0.0349059,0.00600731,-1.35159,0.0215491,0.0252836,2001,1170,66.1926,-4.81405
784,-146,66.0286,4.13977,0,0,0,0,0,0,0,-1,2008,1170,66.0285,-4.13978
791,-146,66.5525,3.31665,0,0,0,0,0,0,0,-1,2015,1170,66.5526,-3.3167
798,-146,67.1738,2.61401,0,0,0,0,0,0,0,-1,2022,1170,67.1739,-2.61398
805,-146,67.613,1.81836,0,0,0,0,0,0,0,-1,2029,1170,67.613,-1.81839
812,-146,0,0,0,0,0,0,0,0,0,-1,2036,1170,0,0
-700,-153,0,0,0,0,0,0,0,0,0,-1,524,1177,0,0
-693,-153,0,0,0,0,0,0,0,0,0,-1,531,1177,0,0
-686,-153,-45.7,3.04272,0,0,0,0,0,0,0,-1,538,1177,-45.7,-3.04271
-679,-153,-46.0246,3.82935,0,0,0,0,0,0,0,-1,545,1177,-46.0246,-3.82934
-672,-153,-48.2269,3.06213,0,0,0,0,0,0,0,-1,552,1177,-48.2269,-3.06215
-665,-153,-48.4665,3.22314,-0.0268036,0.0526242,0.0207779,0.0577312,-0.0319107,1.32978,0.0524656,0.0488963,559,1177,-48.4665,-3.22312
-658,-153,-48.8251,3.48645,-0.020635,0.039701,0.0143095,0.0429227,-0.0238566,1.34935,0.0390753,0.0464835,566,1177,-48.8251,-3.48643
-651,-153,-49.0365,3.37488,0,0,0,0,0,0,0,-1,573,1177,-49.0365,-3.37486
-644,-153,-49.0416,3.56604,-0.0112019,0.0195014,0.00524503,0.0203727,-0.0120732,1.40618,0.0189358,0.0316278,580,1177,-49.0416,-3.56598
-637,-153,-49.2168,4.35437,-0.00790991,0.0118141,0.00217348,0.0120507,-0.00814658,1.46234,0.0117333,0.0127912,587,1177,-49.2168,-4.35439
-630,-153,-49.2789,5.05237,-0.005725,0.00552369,-0.000475081,0.00554372,-0.00574503,-1.52866,0.00651791,0.0102724,594,1177,-49.2789,-5.05232
-623,-153,-49.334,5.76843,-0.00518022,0.00183078,-0.00158507,0.00217249,-0.00552193,-1.35847,0.00458052,0.011549,601,1177,-49.334,-5.76841
-616,-153,-49.4041,6.47827,-0.00594434,0.000259511,-0.00203718,0.000868656,-0.00655348,-1.28024,0.00468546,0.0153418,608,1177,-49.4041,-6.47824
-609,-153,-49.5466,7.07971,-0.00667354,0.000564634,-0.00242386,0.00130133,-0.00741024,-1.27573,0.0054262,0.0484233,615,1177,-49.5466,-7.07972
-602,-153,-49.619,7.39832,0,0,0,0,0,0,0,-1,622,1177,-49.619,-7.39833
-595,-153,-43.9551,7.35718,0,0,0,0,0,0,0,-1,629,1177,-43.9551,-7.35722
-588,-153,-32.348,5.51038,0,0,0,0,0,0,0,-1,636,1177,-32.348,-5.51034
-581,-153,-33.4568,6.41492,0,0,0,0,0,0,0,-1,643,1177,-33.4568,-6.41497
-574,-153,-25.4814,5.16956,0,0,0,0,0,0,0,-1,650,1177,-25.4814,-5.16961
-567,-153,-35.3121,1.09485,0,0,0,0,0,0,0,-1,657,1177,-35.3121,-1.09482
-560,-153,-59.5859,0.222168,0,0,0,0,0,0,0,-1,664,1177,-59.5859,-0.22219
-553,-153,-59.4795,0.0925293,-0.00483499,0.000134147,-0.00169108,0.000655043,-0.00535589,-1.27199,0.00380777,0.036124,671,1177,-59.4795,-0.0925428
-546,-153,-59.4691,0.185425,-0.00378635,-0.000137995,-0.00137343,0.000321231,-0.00424557,-1.24812,0.00294331,0.0383337,678,1177,-59.4691,-0.185387
-539,-153,-59.8077,0.402222,-0.000552746,-0.00130221,-0.000641315,-0.000184707,-0.00167025,-0.520994,0.00105732,0.0425149,685,1177,-59.8078,-0.40219
-532,-153,-59.8553,0.190918,0.00343756,-0.00294905,0.000165847,0.00344187,-0.00295336,0.0259446,0.00369587,0.0443545,692,1177,-59.8553,-0.190936
-525,-153,-59.619,0.229126,0.00868236,-0.00544055,0.000926676,0.00874291,-0.0055011,0.0652422,0.00829447,0.0402486,699,1177,-59.619,-0.229168
-518,-153,0,0,0,0,0,0,0,0,0,-1,706,1177,0,0
-511,-153,0,0,0,0,0,0,0,0,0,-1,713,1177,0,0
-504,-153,0,0,0,0,0,0,0,0,0,-1,720,1177,0,0
-497,-153,0,0,0,0,0,0,0,0,0,-1,727,1177,0,0
-490,-153,0,0,0,0,0,0,0,0,0,-1,734,1177,0,0
-483,-153,0,0,0,0,0,0,0,0,0,-1,741,1177,0,0
-476,-153,0,0,0,0,0,0,0,0,0,-1,748,1177,0,0
-469,-153,0,0,0,0,0,0,0,0,0,-1,755,1177,0,0
-462,-153,0,0,0,0,0,0,0,0,0,-1,762,1177,0,0
-455,-153,0,0,0,0,0,0,0,0,0,-1,769,1177,0,0
-448,-153,0,0,0,0,0,0,0,0,0,-1,776,1177,0,0
-441,-153,0,0,0,0,0,0,0,0,0,-1,783,1177,0,0
-434,-153,0,0,0,0,0,0,0,0,0,-1,790,1177,0,0
-427,-153,0,0,0,0,0,0,0,0,0,-1,797,1177,0,0
-420,-153,0,0,0,0,0,0,0,0,0,-1,804,1177,0,0
-413,-153,0,0,0,0,0,0,0,0,0,-1,811,1177,0,0
-406,-153,0,0,0,0,0,0,0,0,0,-1,818,1177,0,0
-399,-153,0,0,0,0,0,0,0,0,0,-1,825,1177,0,0
-392,-153,0,0,0,0,0,0,0,0,0,-1,832,1177,0,0
-385,-153,0,0,0,0,0,0,0,0,0,-1,839,1177,0,0
-378,-153,0,0,0,0,0,0,0,0,0,-1,846,1177,0,0
-371,-153,0,0,0,0,0,0,0,0,0,-1,853,1177,0,0
-364,-153,0,0,0,0,0,0,0,0,0,-1,860,1177,0,0
-357,-153,0,0,0,0,0,0,0,0,0,-1,867,1177,0,0
-350,-153,0,0,0,0,0,0,0,0,0,-1,874,1177,0,0
-343,-153,0,0,0,0,0,0,0,0,0,-1,881,1177,0,0
-336,-153,0,0,0,0,0,0,0,0,0,-1,888,1177,0,0
-329,-153,0,0,0,0,0,0,0,0,0,-1,895,1177,0,0
-322,-153,0,0,0,0,0,0,0,0,0,-1,902,1177,0,0
-315,-153,0,0,0,0,0,0,0,0,0,-1,909,1177,0,0
-308,-153,0,0,0,0,0,0,0,0,0,-1,916,1177,0,0
-301,-153,0,0,0,0,0,0,0,0,0,-1,923,1177,0,0
-294,-153,0,0,0,0,0,0,0,0,0,-1,930,1177,0,0
-287,-153,0,0,0,0,0,0,0,0,0,-1,937,1177,0,0
-280,-153,0,0,0,0,0,0,0,0,0,-1,944,1177,0,0
-273,-153,0,0,0,0,0,0,0,0,0,-1,951,1177,0,0
-266,-153,0,0,0,0,0,0,0,0,0,-1,958,1177,0,0
-259,-153,0,0,0,0,0,0,0,0,0,-1,965,1177,0,0
-252,-153,0,0,0,0,0,0,0,0,0,-1,972,1177,0,0
-245,-153,0,0,0,0,0,0,0,0,0,-1,979,1177,0,0
-238,-153,0,0,0,0,0,0,0,0,0,-1,986,1177,0,0
-231,-153,0,0,0,0,0,0,0,0,0,-1,993,1177,0,0
-224,-153,0,0,0,0,0,0,0,0,0,-1,1000,1177,0,0
-217,-153,0,0,0,0,0,0,0,0,0,-1,1007,1177,0,0
-210,-153,0,0,0,0,0,0,0,0,0,-1,1014,1177,0,0
-203,-153,0,0,0,0,0,0,0,0,0,-1,1021,1177,0,0
-196,-153,0,0,0,0,0,0,0,0,0,-1,1028,1177,0,0
-189,-153,0,0,0,0,0,0,0,0,0,-1,1035,1177,0,0
-182,-153,0,0,0,0,0,0,0,0,0,-1,1042,1177,0,0
-175,-153,0,0,0,0,0,0,0,0,0,-1,1049,1177,0,0
-168,-153,0,0,0,0,0,0,0,0,0,-1,1056,1177,0,0
-161,-153,0,0,0,0,0,0,0,0,0,-1,1063,1177,0,0
-154,-153,0,0,0,0,0,0,0,0,0,-1,1070,1177,0,0
-147,-153,0,0,0,0,0,0,0,0,0,-1,1077,1177,0,0
-140,-153,0,0,0,0,0,0,0,0,0,-1,1084,1177,0,0
-133,-153,0,0,0,0,0,0,0,0,0,-1,1091,1177,0,0
-126,-153,0,0,0,0,0,0,0,0,0,-1,1098,1177,0,0
-119,-153,0,0,0,0,0,0,0,0,0,-1,1105,1177,0,0
-112,-153,0,0,0,0,0,0,0,0,0,-1,1112,1177,0,0
-105,-153,0,0,0,0,0,0,0,0,0,-1,1119,1177,0,0
-98,-153,0,0,0,0,0,0,0,0,0,-1,1126,1177,0,0
-91,-153,0,0,0,0,0,0,0,0,0,-1,1133,1177,0,0
-84,-153,0,0,0,0,0,0,0,0,0,-1,1140,1177,0,0
-77,-153,0,0,0,0,0,0,0,0,0,-1,1147,1177,0,0
-70,-153,0,0,0,0,0,0,0,0,0,-1,1154,1177,0,0
-63,-153,0,0,0,0,0,0,0,0,0,-1,1161,1177,0,0
-56,-153,0,0,0,0,0,0,0,0,0,-1,1168,1177,0,0
-49,-153,0,0,0,0,0,0,0,0,0,-1,1175,1177,0,0
-42,-153,0,0,0,0,0,0,0,0,0,-1,1182,1177,0,0
-35,-153,0,0,0,0,0,0,0,0,0,-1,1189,1177,0,0
-28,-153,0,0,0,0,0,0,0,0,0,-1,1196,1177,0,0
-21,-153,0,0,0,0,0,0,0,0,0,-1,1203,1177,0,0
-14,-153,0,0,0,0,0,0,0,0,0,-1,1210,1177,0,0
-7,-153,0,0,0,0,0,0,0,0,0,-1,1217,1177,0,0
0,-153,0,0,0,0,0,0,0,0,0,-1,1224,1177,0,0
7,-153,0,0,0,0,0,0,0,0,0,-1,1231,1177,0,0
14,-153,0,0,0,0,0,0,0,0,0,-1,1238,1177,0,0
21,-153,0,0,0,0,0,0,0,0,0,-1,1245,1177,0,0
28,-153,0,0,0,0,0,0,0,0,0,-1,1252,1177,0,0
35,-153,0,0,0,0,0,0,0,0,0,-1,1259,1177,0,0
42,-153,0,0,0,0,0,0,0,0,0,-1,1266,1177,0,0
49,-153,0,0,0,0,0,0,0,0,0,-1,1273,1177,0,0
56,-153,0,0,0,0,0,0,0,0,0,-1,1280,1177,0,0
63,-153,0,0,0,0,0,0,0,0,0,-1,1287,1177,0,0
70,-153,0,0,0,0,0,0,0,0,0,-1,1294,1177,0,0
77,-153,0,0,0,0,0,0,0,0,0,-1,1301,1177,0,0
84,-153,0,0,0,0,0,0,0,0,0,-1,1308,1177,0,0
91,-153,0,0,0,0,0,0,0,0,0,-1,1315,1177,0,0
98,-153,0,0,0,0,0,0,0,0,0,-1,1322,1177,0,0
105,-153,0,0,0,0,0,0,0,0,0,-1,1329,1177,0,0
112,-153,0,0,0,0,0,0,0,0,0,-1,1336,1177,0,0
119,-153,0,0,0,0,0,0,0,0,0,-1,1343,1177,0,0
126,-153,0,0,0,0,0,0,0,0,0,-1,1350,1177,0,0
133,-153,0,0,0,0,0,0,0,0,0,-1,1357,1177,0,0
140,-153,0,0,0,0,0,0,0,0,0,-1,1364,1177,0,0
147,-153,0,0,0,0,0,0,0,0,0,-1,1371,1177,0,0
154,-153,0,0,0,0,0,0,0,0,0,-1,1378,1177,0,0
161,-153,0,0,0,0,0,0,0,0,0,-1,1385,1177,0,0
168,-153,0,0,0,0,0,0,0,0,0,-1,1392,1177,0,0
175,-153,0,0,0,0,0,0,0,0,0,-1,1399,1177,0,0
182,-153,0,0,0,0,0,0,0,0,0,-1,1406,1177,0,0
189,-153,0,0,0,0,0,0,0,0,0,-1,1413,1177,0,0
196,-153,0,0,0,0,0,0,0,0,0,-1,1420,1177,0,0
203,-153,0,0,0,0,0,0,0,0,0,-1,1427,1177,0,0
210,-153,0,0,0,0,0,0,0,0,0,-1,1434,1177,0,0
217,-153,0,0,0,0,0,0,0,0,0,-1,1441,1177,0,0
224,-153,0,0,0,0,0,0,0,0,0,-1,1448,1177,0,0
231,-153,0,0,0,0,0,0,0,0,0,-1,1455,1177,0,0
238,-153,0,0,0,0,0,0,0,0,0,-1,1462,1177,0,0
245,-153,0,0,0,0,0,0,0,0,0,-1,1469,1177,0,0
252,-153,0,0,0,0,0,0,0,0,0,-1,1476,1177,0,0
259,-153,0,0,0,0,0,0,0,0,0,-1,1483,1177,0,0
266,-153,0,0,0,0,0,0,0,0,0,-1,1490,1177,0,0
273,-153,0,0,0,0,0,0,0,0,0,-1,1497,1177,0,0
280,-153,0,0,0,0,0,0,0,0,0,-1,1504,1177,0,0
287,-153,0,0,0,0,0,0,0,0,0,-1,1511,1177,0,0
294,-153,0,0,0,0,0,0,0,0,0,-1,1518,1177,0,0
301,-153,0,0,0,0,0,0,0,0,0,-1,1525,1177,0,0
308,-153,0,0,0,0,0,0,0,0,0,-1,1532,1177,0,0
315,-153,0,0,0,0,0,0,0,0,0,-1,1539,1177,0,0
322,-153,0,0,0,0,0,0,0,0,0,-1,1546,1177,0,0
329,-153,0,0,0,0,0,0,0,0,0,-1,1553,1177,0,0
336,-153,0,0,0,0,0,0,0,0,0,-1,1560,1177,0,0
343,-153,0,0,0,0,0,0,0,0,0,-1,1567,1177,0,0
350,-153,0,0,0,0,0,0,0,0,0,-1,1574,1177,0,0
357,-153,0,0,0,0,0,0,0,0,0,-1,1581,1177,0,0
364,-153,0,0,0,0,0,0,0,0,0,-1,1588,1177,0,0
371,-153,0,0,0,0,0,0,0,0,0,-1,1595,1177,0,0
378,-153,0,0,0,0,0,0,0,0,0,-1,1602,1177,0,0
385,-153,0,0,0,0,0,0,0,0,0,-1,1609,1177,0,0
392,-153,0,0,0,0,0,0,0,0,0,-1,1616,1177,0,0
399,-153,0,0,0,0,0,0,0,0,0,-1,1623,1177,0,0
406,-153,0,0,0,0,0,0,0,0,0,-1,1630,1177,0,0
413,-153,0,0,0,0,0,0,0,0,0,-1,1637,1177,0,0
420,-153,0,0,0,0,0,0,0,0,0,-1,1644,1177,0,0
427,-153,0,0,0,0,0,0,0,0,0,-1,1651,1177,0,0
434,-153,0,0,0,0,0,0,0,0,0,-1,1658,1177,0,0
441,-153,0,0,0,0,0,0,0,0,0,-1,1665,1177,0,0
448,-153,0,0,0,0,0,0,0,0,0,-1,1672,1177,0,0
455,-153,0,0,0,0,0,0,0,0,0,-1,1679,1177,0,0
462,-153,0,0,0,0,0,0,0,0,0,-1,1686,1177,0,0
469,-153,0,0,0,0,0,0,0,0,0,-1,1693,1177,0,0
476,-153,0,0,0,0,0,0,0,0,0,-1,1700,1177,0,0
483,-153,0,0,0,0,0,0,0,0,0,-1,1707,1177,0,0
490,-153,0,0,0,0,0,0,0,0,0,-1,1714,1177,0,0
497,-153,0,0,0,0,0,0,0,0,0,-1,1721,1177,0,0
504,-153,0,0,0,0,0,0,0,0,0,-1,1728,1177,0,0
511,-153,0,0,0,0,0,0,0,0,0,-1,1735,1177,0,0
518,-153,0,0,0,0,0,0,0,0,0,-1,1742,1177,0,0
525,-153,0,0,0,0,0,0,0,0,0,-1,1749,1177,0,0
532,-153,0,0,0,0,0,0,0,0,0,-1,1756,1177,0,0
539,-153,0,0,0,0,0,0,0,0,0,-1,1763,1177,0,0
546,-153,0,0,0,0,0,0,0,0,0,-1,1770,1177,0,0
553,-153,0,0,0,0,0,0,0,0,0,-1,1777,1177,0,0
560,-153,0,0,0,0,0,0,0,0,0,-1,1784,1177,0,0
567,-153,0,0,0,0,0,0,0,0,0,-1,1791,1177,0,0
574,-153,0,0,0,0,0,0,0,0,0,-1,1798,1177,0,0
581,-153,0,0,0,0,0,0,0,0,0,-1,1805,1177,0,0
588,-153,0,0,0,0,0,0,0,0,0,-1,1812,1177,0,0
595,-153,0,0,0,0,0,0,0,0,0,-1,1819,1177,0,0
602,-153,0,0,0,0,0,0,0,0,0,-1,1826,1177,0,0
609,-153,0,0,0,0,0,0,0,0,0,-1,1833,1177,0,0
616,-153,0,0,0,0,0,0,0,0,0,-1,1840,1177,0,0
623,-153,0,0,0,0,0,0,0,0,0,-1,1847,1177,0,0
630,-153,0,0,0,0,0,0,0,0,0,-1,1854,1177,0,0
637,-153,76.283,1.86853,-0.00220121,0.00204449,-0.000320058,0.00206848,-0.0022252,-1.49598,0.00247951,0.0403986,1861,1177,76.2829,-1.86858
644,-153,76.3342,1.92969,-0.00187742,0.00154338,0.000247223,0.00156116,-0.00189519,1.49902,0.00199863,0.0363594,1868,1177,76.3342,-1.92967
651,-153,76.3292,2.02734,-0.00138639,0.00146518,0.000387157,0.00151681,-0.00143802,1.43822,0.00170617,0.0302208,1875,1177,76.3293,-2.02731
658,-153,76.2844,2.05505,-0.000677539,0.0015904,0.000198145,0.00160758,-0.00069472,1.4843,0.00136362,0.0357982,1882,1177,76.2845,-2.05504
665,-153,76.2645,2.13538,0.000114863,0.00193974,-0.000208166,0.00196319,9.14188e-05,-1.45864,0.00127941,0.037104,1889,1177,76.2645,-2.13542
672,-153,76.2474,2.14539,0.000968564,0.0025466,-0.0008173,0.0028936,0.000621568,-1.1693,0.00175887,0.0345334,1896,1177,76.2474,-2.14542
679,-153,76.2365,2.14209,0.00179066,0.00267964,-0.00121933,0.00353298,0.000937326,-0.960182,0.00211334,0.0276619,1903,1177,76.2364,-2.14211
686,-153,76.2593,2.12488,0.00238049,0.00278997,-0.00133414,0.00393499,0.00123547,-0.861535,0.00232369,0.0202506,1910,1177,76.2593,-2.12484
693,-153,76.3075,1.93909,0,0,0,0,0,0,0,-1,1917,1177,76.3075,-1.93904
700,-153,74.8911,2.25464,0,0,0,0,0,0,0,-1,1924,1177,74.8911,-2.25461
707,-153,29.6483,6.6842,0,0,0,0,0,0,0,-1,1931,1177,29.6483,-6.68415
714,-153,36.0046,6.78418,0,0,0,0,0,0,0,-1,1938,1177,36.0046,-6.78418
721,-153,36.4866,6.47595,0,0,0,0,0,0,0,-1,1945,1177,36.4866,-6.47593
728,-153,47.7305,7.37024,0,0,0,0,0,0,0,-1,1952,1177,47.7304,-7.37022
735,-153,65.5262,8.73608,0,0,0,0,0,0,0,-1,1959,1177,65.5262,-8.73605
742,-153,65.6039,8.13684,0.00178756,0.00142984,0.00110355,0.00272665,0.000490746,0.705059,0.00167827,0.018587,1966,1177,65.6038,-8.13684
749,-153,65.6134,7.48938,0.00153395,0.00217881,0.00135461,0.00324883,0.000463925,0.902235,0.002029,0.0179598,1973,1177,65.6134,-7.48935
756,-153,65.5557,6.77051,0.00186387,0.00669918,0.000428957,0.00673694,0.00182611,1.483,0.00402319,0.0125625,1980,1177,65.5557,-6.77054
763,-153,65.4954,6.0553,0.00305242,0.0132839,-0.00130855,0.0134486,0.00288772,-1.44559,0.00817496,0.0120041,1987,1177,65.4954,-6.05528
770,-153,65.4868,5.37891,0.00497236,0.0217698,-0.00372852,0.0225602,0.00418194,-1.36189,0.0138581,0.0134338,1994,1177,65.4869,-5.37887
777,-153,65.4507,4.74951,0.00771302,0.0322689,-0.00690731,0.0340785,0.00590343,-1.31457,0.0210293,0.0270982,2001,1177,65.4507,-4.74957
784,-153,65.6946,4.05798,0,0,0,0,0,0,0,-1,2008,1177,65.6946,-4.05804
791,-153,66.1497,3.15576,0.0172025,0.0610267,-0.0163164,0.0664343,0.0117949,-1.25077,0.0409284,0.0465353,2015,1177,66.1497,-3.15578
798,-153,66.6563,2.33533,0.0236049,0.0806318,-0.0230058,0.0887555,0.0154811,-1.23135,0.0547446,0.0473092,2022,1177,66.6562,-2.33535
805,-153,67.1748,1.51343,0.0308671,0.104272,-0.0311133,0.115685,0.019454,-1.21921,0.0715263,0.0479524,2029,1177,67.1747,-1.51341
812,-153,0,0,0,0,0,0,0,0,0,-1,2036,1177,0,0
-700,-160,0,0,0,0,0,0,0,0,0,-1,524,1184,0,0
-693,-160,0,0,0,0,0,0,0,0,0,-1,531,1184,0,0
-686,-160,-45.3687,2.0741,-0.0544205,0.108413,0.0527427,0.124004,-0.0700114,1.28338,0.113451,0.0481667,538,1184,-45.3687,-2.07404
-679,-160,-45.745,2.91089,-0.0451028,0.0871433,0.0398448,0.0982204,-0.0561799,1.29964,0.0902378,0.0488198,545,1184,-45.745,-2.91085
-672,-160,-47.8455,2.80542,0,0,0,0,0,0,0,-1,552,1184,-47.8455,-2.80542
-665,-160,-47.8249,3.14966,-0.0294061,0.0548158,0.0218012,0.0601245,-0.0347148,1.33194,0.0554067,0.0499256,559,1184,-47.8249,-3.14969
-658,-160,-47.9688,3.38806,-0.0226221,0.0419508,0.0153611,0.0454188,-0.0260901,1.34876,0.0417854,0.0496527,566,1184,-47.9688,-3.38801
-651,-160,-48.3946,2.94666,0,0,0,0,0,0,0,-1,573,1184,-48.3946,-2.94661
-644,-160,-48.3718,3.66504,-0.0119974,0.0212781,0.00605778,0.0223466,-0.0130659,1.39621,0.0206781,0.0386944,580,1184,-48.3718,-3.665
-637,-160,-48.4393,4.37671,-0.00820334,0.0132586,0.00281425,0.0136215,-0.00856623,1.44256,0.0129204,0.0160283,587,1184,-48.4393,-4.37672
-630,-160,-48.5512,5.05627,-0.00554032,0.00656778,-0.000150361,0.00656965,-0.00554219,-1.55838,0.00700115,0.00921082,594,1184,-48.5512,-5.05626
-623,-160,-48.6227,5.77112,-0.00438428,0.00226232,-0.00159717,0.0026262,-0.00474816,-1.34679,0.00431594,0.0147601,601,1184,-48.6227,-5.77113
-616,-160,-48.6733,6.50549,-0.00482677,0.000270871,-0.00228433,0.00114472,-0.00570061,-1.20543,0.00423388,0.0134636,608,1184,-48.6733,-6.50546
-609,-160,-48.8552,7.19531,-0.0056196,0.000213378,-0.00283331,0.00136304,-0.00676925,-1.18533,0.00502913,0.0270149,615,1184,-48.8552,-7.19527
-602,-160,-49.097,7.89429,0,0,0,0,0,0,0,-1,622,1184,-49.097,-7.89427
-595,-160,-33.0669,5.93445,0,0,0,0,0,0,0,-1,629,1184,-33.0669,-5.93446
-588,-160,-33.4845,5.66699,0,0,0,0,0,0,0,-1,636,1184,-33.4845,-5.66697
-581,-160,-33.1338,6.41174,0,0,0,0,0,0,0,-1,643,1184,-33.1338,-6.41176
-574,-160,-32.7831,7.15649,0,0,0,0,0,0,0,-1,650,1184,-32.7831,-7.15655
-567,-160,-29.5828,0.643921,0,0,0,0,0,0,0,-1,657,1184,-29.5828,-0.643968
-560,-160,-57.0784,0.200806,0,0,0,0,0,0,0,-1,664,1184,-57.0784,-0.200768
-553,-160,-59.4411,-0.0115967,0,0,0,0,0,0,0,-1,671,1184,-59.4411,0.0116212
-546,-160,-59.4323,0.00976563,-0.00346153,-0.000540828,-0.00127713,-6.11552e-05,-0.0039412,-1.21151,0.00260732,0.0396935,678,1184,-59.4323,-0.00981555
-539,-160,-59.5427,0.169434,-0.00126631,-0.00125275,-0.000474585,-0.000784898,-0.00173417,-0.792543,0.00100272,0.0425246,685,1184,-59.5427,-0.169404
-532,-160,-59.6636,0.381958,0,0,0,0,0,0,0,-1,692,1184,-59.6635,-0.381903
-525,-160,-59.614,0.394531,0.00665248,-0.00435296,0.000929345,0.00673041,-0.00443088,0.0836548,0.0064894,0.0417683,699,1184,-59.614,-0.394477
-518,-160,-59.4431,0.21228,0.0118623,-0.00643504,0.00197022,0.012072,-0.00664478,0.106058,0.0109565,0.0390025,706,1184,-59.443,-0.212235
-511,-160,0,0,0,0,0,0,0,0,0,-1,713,1184,0,0
-504,-160,0,0,0,0,0,0,0,0,0,-1,720,1184,0,0
-497,-160,0,0,0,0,0,0,0,0,0,-1,727,1184,0,0
-490,-160,0,0,0,0,0,0,0,0,0,-1,734,1184,0,0
-483,-160,0,0,0,0,0,0,0,0,0,-1,741,1184,0,0
-476,-160,0,0,0,0,0,0,0,0,0,-1,748,1184,0,0
-469,-160,0,0,0,0,0,0,0,0,0,-1,755,1184,0,0
-462,-160,0,0,0,0,0,0,0,0,0,-1,762,1184,0,0
-455,-160,0,0,0,0,0,0,0,0,0,-1,769,1184,0,0
-448,-160,0,0,0,0,0,0,0,0,0,-1,776,1184,0,0
-441,-160,0,0,0,0,0,0,0,0,0,-1,783,1184,0,0
-434,-160,0,0,0,0,0,0,0,0,0,-1,790,1184,0,0
-427,-160,0,0,0,0,0,0,0,0,0,-1,797,1184,0,0
-420,-160,0,0,0,0,0,0,0,0,0,-1,804,1184,0,0
-413,-160,0,0,0,0,0,0,0,0,0,-1,811,1184,0,0
-406,-160,0,0,0,0,0,0,0,0,0,-1,818,1184,0,0
-399,-160,0,0,0,0,0,0,0,0,0,-1,825,1184,0,0
-392,-160,0,0,0,0,0,0,0,0,0,-1,832,1184,0,0
-385,-160,0,0,0,0,0,0,0,0,0,-1,839,1184,0,0
-378,-160,0,0,0,0,0,0,0,0,0,-1,846,1184,0,0
-371,-160,0,0,0,0,0,0,0,0,0,-1,853,1184,0,0
-364,-160,0,0,0,0,0,0,0,0,0,-1,860,1184,0,0
-357,-160,0,0,0,0,0,0,0,0,0,-1,867,1184,0,0
-350,-160,0,0,0,0,0,0,0,0,0,-1,874,1184,0,0
-343,-160,0,0,0,0,0,0,0,0,0,-1,881,1184,0,0
-336,-160,0,0,0,0,0,0,0,0,0,-1,888,1184,0,0
-329,-160,0,0,0,0,0,0,0,0,0,-1,895,1184,0,0
-322,-160,0,0,0,0,0,0,0,0,0,-1,902,1184,0,0
-315,-160,0,0,0,0,0,0,0,0,0,-1,909,1184,0,0
-308,-160,0,0,0,0,0,0,0,0,0,-1,916,1184,0,0
-301,-160,0,0,0,0,0,0,0,0,0,-1,923,1184,0,0
-294,-160,0,0,0,0,0,0,0,0,0,-1,930,1184,0,0
-287,-160,0,0,0,0,0,0,0,0,0,-1,937,1184,0,0
-280,-160,0,0,0,0,0,0,0,0,0,-1,944,1184,0,0
-273,-160,0,0,0,0,0,0,0,0,0,-1,951,1184,0,0
-266,-160,0,0,0,0,0,0,0,0,0,-1,958,1184,0,0
-259,-160,0,0,0,0,0,0,0,0,0,-1,965,1184,0,0
-252,-160,0,0,0,0,0,0,0,0,0,-1,972,1184,0,0
-245,-160,0,0,0,0,0,0,0,0,0,-1,979,1184,0,0
-238,-160,0,0,0,0,0,0,0,0,0,-1,986,1184,0,0
-231,-160,0,0,0,0,0,0,0,0,0,-1,993,1184,0,0
-224,-160,0,0,0,0,0,0,0,0,0,-1,1000,1184,0,0
-217,-160,0,0,0,0,0,0,0,0,0,-1,1007,1184,0,0
-210,-160,0,0,0,0,0,0,0,0,0,-1,1014,1184,0,0
-203,-160,0,0,0,0,0,0,0,0,0,-1,1021,1184,0,0
-196,-160,0,0,0,0,0,0,0,0,0,-1,1028,1184,0,0
-189,-160,0,0,0,0,0,0,0,0,0,-1,1035,1184,0,0
-182,-160,0,0,0,0,0,0,0,0,0,-1,1042,1184,0,0
-175,-160,0,0,0,0,0,0,0,0,0,-1,1049,1184,0,0
-168,-160,0,0,0,0,0,0,0,0,0,-1,1056,1184,0,0
-161,-160,0,0,0,0,0,0,0,0,0,-1,1063,1184,0,0
-154,-160,0,0,0,0,0,0,0,0,0,-1,1070,1184,0,0
-147,-160,0,0,0,0,0,0,0,0,0,-1,1077,1184,0,0
-140,-160,0,0,0,0,0,0,0,0,0,-1,1084,1184,0,0
-133,-160,0,0,0,0,0,0,0,0,0,-1,1091,1184,0,0
-126,-160,0,0,0,0,0,0,0,0,0,-1,1098,1184,0,0
-119,-160,0,0,0,0,0,0,0,0,0,-1,1105,1184,0,0
-112,-160,0,0,0,0,0,0,0,0,0,-1,1112,1184,0,0
-105,-160,0,0,0,0,0,0,0,0,0,-1,1119,1184,0,0
-98,-160,0,0,0,0,0,0,0,0,0,-1,1126,1184,0,0
-91,-160,0,0,0,0,0,0,0,0,0,-1,1133,1184,0,0
-84,-160,0,0,0,0,0,0,0,0,0,-1,1140,1184,0,0
-77,-160,0,0,0,0,0,0,0,0,0,-1,1147,1184,0,0
-70,-160,0,0,0,0,0,0,0,0,0,-1,1154,1184,0,0
-63,-160,0,0,0,0,0,0,0,0,0,-1,1161,1184,0,0
-56,-160,0,0,0,0,0,0,0,0,0,-1,1168,1184,0,0
-49,-160,0,0,0,0,0,0,0,0,0,-1,1175,1184,0,0
-42,-160,0,0,0,0,0,0,0,0,0,-1,1182,1184,0,0
-35,-160,0,0,0,0,0,0,0,0,0,-1,1189,1184,0,0
-28,-160,0,0,0,0,0,0,0,0,0,-1,1196,1184,0,0
-21,-160,0,0,0,0,0,0,0,0,0,-1,1203,1184,0,0
-14,-160,0,0,0,0,0,0,0,0,0,-1,1210,1184,0,0
-7,-160,0,0,0,0,0,0,0,0,0,-1,1217,1184,0,0
0,-160,0,0,0,0,0,0,0,0,0,-1,1224,1184,0,0
7,-160,0,0,0,0,0,0,0,0,0,-1,1231,1184,0,0
14,-160,0,0,0,0,0,0,0,0,0,-1,1238,1184,0,0
21,-160,0,0,0,0,0,0,0,0,0,-1,1245,1184,0,0
28,-160,0,0,0,0,0,0,0,0,0,-1,1252,1184,0,0
35,-160,0,0,0,0,0,0,0,0,0,-1,1259,1184,0,0
42,-160,0,0,0,0,0,0,0,0,0,-1,1266,1184,0,0
49,-160,0,0,0,0,0,0,0,0,0,-1,1273,1184,0,0
56,-160,0,0,0,0,0,0,0,0,0,-1,1280,1184,0,0
63,-160,0,0,0,0,0,0,0,0,0,-1,1287,1184,0,0
70,-160,0,0,0,0,0,0,0,0,0,-1,1294,1184,0,0
77,-160,0,0,0,0,0,0,0,0,0,-1,1301,1184,0,0
84,-160,0,0,0,0,0,0,0,0,0,-1,1308,1184,0,0
91,-160,0,0,0,0,0,0,0,0,0,-1,1315,1184,0,0
98,-160,0,0,0,0,0,0,0,0,0,-1,1322,1184,0,0
105,-160,0,0,0,0,0,0,0,0,0,-1,1329,1184,0,0
112,-160,0,0,0,0,0,0,0,0,0,-1,1336,1184,0,0
119,-160,0,0,0,0,0,0,0,0,0,-1,1343,1184,0,0
126,-160,0,0,0,0,0,0,0,0,0,-1,1350,1184,0,0
133,-160,0,0,0,0,0,0,0,0,0,-1,1357,1184,0,0
140,-160,0,0,0,0,0,0,0,0,0,-1,1364,1184,0,0
147,-160,0,0,0,0,0,0,0,0,0,-1,1371,1184,0,0
154,-160,0,0,0,0,0,0,0,0,0,-1,1378,1184,0,0
161,-160,0,0,0,0,0,0,0,0,0,-1,1385,1184,0,0
168,-160,0,0,0,0,0,0,0,0,0,-1,1392,1184,0,0
175,-160,0,0,0,0,0,0,0,0,0,-1,1399,1184,0,0
182,-160,0,0,0,0,0,0,0,0,0,-1,1406,1184,0,0
189,-160,0,0,0,0,0,0,0,0,0,-1,1413,1184,0,0
196,-160,0,0,0,0,0,0,0,0,0,-1,1420,1184,0,0
203,-160,0,0,0,0,0,0,0,0,0,-1,1427,1184,0,0
210,-160,0,0,0,0,0,0,0,0,0,-1,1434,1184,0,0
217,-160,0,0,0,0,0,0,0,0,0,-1,1441,1184,0,0
224,-160,0,0,0,0,0,0,0,0,0,-1,1448,1184,0,0
231,-160,0,0,0,0,0,0,0,0,0,-1,1455,1184,0,0
238,-160,0,0,0,0,0,0,0,0,0,-1,1462,1184,0,0
245,-160,0,0,0,0,0,0,0,0,0,-1,1469,1184,0,0
252,-160,0,0,0,0,0,0,0,0,0,-1,1476,1184,0,0
259,-160,0,0,0,0,0,0,0,0,0,-1,1483,1184,0,0
266,-160,0,0,0,0,0,0,0,0,0,-1,1490,1184,0,0
273,-160,0,0,0,0,0,0,0,0,0,-1,1497,1184,0,0
280,-160,0,0,0,0,0,0,0,0,0,-1,1504,1184,0,0
287,-160,0,0,0,0,0,0,0,0,0,-1,1511,1184,0,0
294,-160,0,0,0,0,0,0,0,0,0,-1,1518,1184,0,0
301,-160,0,0,0,0,0,0,0,0,0,-1,1525,1184,0,0
308,-160,0,0,0,0,0,0,0,0,0,-1,1532,1184,0,0
315,-160,0,0,0,0,0,0,0,0,0,-1,1539,1184,0,0
322,-160,0,0,0,0,0,0,0,0,0,-1,1546,1184,0,0
329,-160,0,0,0,0,0,0,0,0,0,-1,1553,1184,0,0
336,-160,0,0,0,0,0,0,0,0,0,-1,1560,1184,0,0
343,-160,0,0,0,0,0,0,0,0,0,-1,1567,1184,0,0
350,-160,0,0,0,0,0,0,0,0,0,-1,1574,1184,0,0
357,-160,0,0,0,0,0,0,0,0,0,-1,1581,1184,0,0
364,-160,0,0,0,0,0,0,0,0,0,-1,1588,1184,0,0
371,-160,0,0,0,0,0,0,0,0,0,-1,1595,1184,0,0
378,-160,0,0,0,0,0,0,0,0,0,-1,1602,1184,0,0
385,-160,0,0,0,0,0,0,0,0,0,-1,1609,1184,0,0
392,-160,0,0,0,0,0,0,0,0,0,-1,1616,1184,0,0
399,-160,0,0,0,0,0,0,0,0,0,-1,1623,1184,0,0
406,-160,0,0,0,0,0,0,0,0,0,-1,1630,1184,0,0
413,-160,0,0,0,0,0,0,0,0,0,-1,1637,1184,0,0
420,-160,0,0,0,0,0,0,0,0,0,-1,1644,1184,0,0
427,-160,0,0,0,0,0,0,0,0,0,-1,1651,1184,0,0
434,-160,0,0,0,0,0,0,0,0,0,-1,1658,1184,0,0
441,-160,0,0,0,0,0,0,0,0,0,-1,1665,1184,0,0
448,-160,0,0,0,0,0,0,0,0,0,-1,1672,1184,0,0
455,-160,0,0,0,0,0,0,0,0,0,-1,1679,1184,0,0
462,-160,0,0,0,0,0,0,0,0,0,-1,1686,1184,0,0
469,-160,0,0,0,0,0,0,0,0,0,-1,1693,1184,0,0
476,-160,0,0,0,0,0,0,0,0,0,-1,1700,1184,0,0
483,-160,0,0,0,0,0,0,0,0,0,-1,1707,1184,0,0
490,-160,0,0,0,0,0,0,0,0,0,-1,1714,1184,0,0
497,-160,0,0,0,0,0,0,0,0,0,-1,1721,1184,0,0
504,-160,0,0,0,0,0,0,0,0,0,-1,1728,1184,0,0
511,-160,0,0,0,0,0,0,0,0,0,-1,1735,1184,0,0
518,-160,0,0,0,0,0,0,0,0,0,-1,1742,1184,0,0
525,-160,0,0,0,0,0,0,0,0,0,-1,1749,1184,0,0
532,-160,0,0,0,0,0,0,0,0,0,-1,1756,1184,0,0
539,-160,0,0,0,0,0,0,0,0,0,-1,1763,1184,0,0
546,-160,0,0,0,0,0,0,0,0,0,-1,1770,1184,0,0
553,-160,0,0,0,0,0,0,0,0,0,-1,1777,1184,0,0
560,-160,0,0,0,0,0,0,0,0,0,-1,1784,1184,0,0
567,-160,0,0,0,0,0,0,0,0,0,-1,1791,1184,0,0
574,-160,0,0,0,0,0,0,0,0,0,-1,1798,1184,0,0
581,-160,0,0,0,0,0,0,0,0,0,-1,1805,1184,0,0
588,-160,0,0,0,0,0,0,0,0,0,-1,1812,1184,0,0
595,-160,0,0,0,0,0,0,0,0,0,-1,1819,1184,0,0
602,-160,0,0,0,0,0,0,0,0,0,-1,1826,1184,0,0
609,-160,0,0,0,0,0,0,0,0,0,-1,1833,1184,0,0
616,-160,0,0,0,0,0,0,0,0,0,-1,1840,1184,0,0
623,-160,0,0,0,0,0,0,0,0,0,-1,1847,1184,0,0
630,-160,0,0,0,0,0,0,0,0,0,-1,1854,1184,0,0
637,-160,76.2526,1.89661,-0.0021494,0.00176191,0.000812473,0.00192397,-0.00231145,1.37392,0.00244873,0.0428007,1861,1184,76.2526,-1.8966
644,-160,76.3933,1.69958,-0.00184014,0.00133882,0.000909729,0.00158075,-0.00208207,1.31088,0.00212132,0.0414169,1868,1184,76.3933,-1.69961
651,-160,76.274,1.9314,-0.00127894,0.00135146,0.000669103,0.00151188,-0.00143936,1.33549,0.00170407,0.0373018,1875,1184,76.2741,-1.93143
658,-160,76.1929,2.12659,-0.00049225,0.0016108,0.000175698,0.00162537,-0.000506828,1.48802,0.00128625,0.0393307,1882,1184,76.1929,-2.12654
665,-160,76.2893,2.21411,0.000371558,0.00211284,-0.000406884,0.00220323,0.000281174,-1.35221,0.00138464,0.0385808,1889,1184,76.2893,-2.21409
672,-160,76.2528,2.13684,0.00127952,0.00291333,-0.00105462,0.00343042,0.000762423,-1.11493,0.00207992,0.0329649,1896,1184,76.2528,-2.13681
679,-160,76.2386,2.09998,0.00203021,0.00319749,-0.00140032,0.00413093,0.00109677,-0.982847,0.00247088,0.0249305,1903,1184,76.2386,-2.09996
686,-160,76.2711,2.08484,0.00251758,0.003403,-0.0014515,0.00447781,0.00144278,-0.933417,0.00263918,0.0177785,1910,1184,76.2711,-2.08481
693,-160,76.3389,2.05286,0,0,0,0,0,0,0,-1,1917,1184,76.3388,-2.05287
700,-160,42.8784,2.44617,0,0,0,0,0,0,0,-1,1924,1184,42.8785,-2.4462
707,-160,24.5115,6.27405,0,0,0,0,0,0,0,-1,1931,1184,24.5115,-6.27401
714,-160,35.6892,6.8905,0,0,0,0,0,0,0,-1,1938,1184,35.6892,-6.89048
721,-160,36.2388,6.37878,0,0,0,0,0,0,0,-1,1945,1184,36.2388,-6.37876
728,-160,52.2174,8.57385,0,0,0,0,0,0,0,-1,1952,1184,52.2174,-8.57381
735,-160,64.8239,8.82922,0,0,0,0,0,0,0,-1,1959,1184,64.8238,-8.82917
742,-160,64.873,8.10779,0.00192728,0.00197999,0.000920093,0.00287411,0.00103317,0.799716,0.00168107,0.0196969,1966,1184,64.873,-8.10778
749,-160,64.8708,7.44922,0.00185714,0.00278216,0.00111447,0.00352628,0.00111302,0.982084,0.00208152,0.0186163,1973,1184,64.8709,-7.44926
756,-160,64.8271,6.7926,0.00279147,0.0069873,0.000195519,0.00699639,0.00278238,1.52433,0.00406746,0.0123448,1980,1184,64.8271,-6.79261
763,-160,64.7795,6.11401,0.00473727,0.0128443,-0.00142452,0.0130873,0.00449425,-1.40182,0.00767848,0.0126834,1987,1184,64.7795,-6.11402
770,-160,64.6543,5.35815,0.00768166,0.0205571,-0.00376245,0.021576,0.00666282,-1.30635,0.0127569,0.0303111,1994,1184,64.6544,-5.35815
777,-160,64.4546,4.77551,0.0117663,0.0301587,-0.00692684,0.0324756,0.00944943,-1.24801,0.0192882,0.0408682,2001,1184,64.4545,-4.77555
784,-160,64.4346,4.07629,0,0,0,0,0,0,0,-1,2008,1184,64.4345,-4.07633
791,-160,65.7566,2.96301,0.0254763,0.0561489,-0.0165165,0.0633514,0.0182739,-1.15958,0.0376514,0.0476071,2015,1184,65.7566,-2.96297
798,-160,66.0859,2.03113,0.0354409,0.0733034,-0.0234067,0.0844764,0.0242679,-1.12544,0.0502223,0.046505,2022,1184,66.0859,-2.03111
805,-160,66.7344,1.19507,0.0475685,0.0928358,-0.0316976,0.109151,0.0312531,-1.09544,0.0649082,0.04798,2029,1184,66.7344,-1.19507
812,-160,0,0,0,0,0,0,0,0,0,-1,2036,1184,0,0
-700,-167,0,0,0,0,0,0,0,0,0,-1,524,1191,0,0
-693,-167,0,0,0,0,0,0,0,0,0,-1,531,1191,0,0
-686,-167,-45.092,0.868896,-0.0543125,0.104143,0.0527544,0.1201,-0.0702691,1.27708,0.111157,0.0454912,538,1191,-45.092,-0.868933
-679,-167,-45.5177,1.95996,-0.0448224,0.0851746,0.0404371,0.0967265,-0.0563743,1.29253,0.0894103,0.042205,545,1191,-45.5177,-1.95999
-672,-167,-47.0906,2.15942,0,0,0,0,0,0,0,-1,552,1191,-47.0906,-2.15947
-665,-167,-47.3031,2.78796,0,0,0,0,0,0,0,-1,559,1191,-47.3031,-2.78794
-658,-167,-47.2234,3.25403,0,0,0,0,0,0,0,-1,566,1191,-47.2234,-3.25402
-651,-167,-47.4886,2.96399,0,0,0,0,0,0,0,-1,573,1191,-47.4886,-2.96403
-644,-167,-47.5423,3.68884,-0.0113107,0.0224998,0.00709901,0.0239298,-0.0127408,1.37201,0.0214978,0.0422584,580,1191,-47.5423,-3.68889
-637,-167,-47.6647,4.39807,-0.00746401,0.0144266,0.00369477,0.0150334,-0.0080708,1.40802,0.0135396,0.0203961,587,1191,-47.6647,-4.39811
-630,-167,-47.8085,5.06152,-0.00468172,0.00756217,0.000441075,0.00757804,-0.00469759,1.53483,0.00715208,0.00983913,594,1191,-47.8086,-5.06149
-623,-167,-47.8526,5.75989,-0.00321504,0.00274857,-0.00133076,0.00303205,-0.00349852,-1.36091,0.00377363,0.0143094,601,1191,-47.8526,-5.7599
-616,-167,-47.8815,6.51172,-0.00352949,0.000441699,-0.00221118,0.00142796,-0.00451574,-1.15125,0.00358263,0.0184194,608,1191,-47.8815,-6.51171
-609,-167,-47.9642,7.29785,-0.0044483,-8.1539e-05,-0.00296085,0.00141391,-0.00594375,-1.1031,0.00450832,0.0189939,615,1191,-47.9642,-7.29788
-602,-167,-48.1332,8.01599,0,0,0,0,0,0,0,-1,622,1191,-48.1332,-8.01596
-595,-167,-47.733,8.40173,0,0,0,0,0,0,0,-1,629,1191,-47.733,-8.40171
-588,-167,-42.7112,7.92004,0,0,0,0,0,0,0,-1,636,1191,-42.7112,-7.92007
-581,-167,-32.8646,6.30542,0,0,0,0,0,0,0,-1,643,1191,-32.8646,-6.30537
-574,-167,-32.4808,7.37524,0,0,0,0,0,0,0,-1,650,1191,-32.4808,-7.37525
-567,-167,-27.3643,2.55859,0,0,0,0,0,0,0,-1,657,1191,-27.3643,-2.55864
-560,-167,-48.2598,0.834839,0,0,0,0,0,0,0,-1,664,1191,-48.2598,-0.834822
-553,-167,-59.4163,-0.0554199,0,0,0,0,0,0,0,-1,671,1191,-59.4163,0.0553916
-546,-167,-59.5302,0.0115967,-0.00307954,-0.000491561,-0.00147552,0.000176988,-0.00374809,-1.14537,0.00255976,0.0360726,678,1191,-59.5302,-0.0115597
-539,-167,-59.6127,0.141724,-0.00165306,-0.000985466,-0.000482498,-0.000732557,-0.00190597,-1.088,0.00111018,0.0386271,685,1191,-59.6127,-0.141694
-532,-167,-59.7244,0.395996,0.000454179,-0.00160635,0.000593634,0.000612967,-0.00176513,0.261367,0.0014257,0.0432069,692,1191,-59.7244,-0.395997
-525,-167,-59.6788,0.487427,0.00453427,-0.00296157,0.00140048,0.00478738,-0.00321468,0.178802,0.00464964,0.0456147,699,1191,-59.6788,-0.48739
-518,-167,-59.5763,0.261597,0.00928132,-0.00454918,0.00260726,0.0097565,-0.00502436,0.180275,0.00867829,0.041776,706,1191,-59.5763,-0.261623
-511,-167,0,0,0,0,0,0,0,0,0,-1,713,1191,0,0
-504,-167,0,0,0,0,0,0,0,0,0,-1,720,1191,0,0
-497,-167,0,0,0,0,0,0,0,0,0,-1,727,1191,0,0
-490,-167,0,0,0,0,0,0,0,0,0,-1,734,1191,0,0
-483,-167,0,0,0,0,0,0,0,0,0,-1,741,1191,0,0
-476,-167,0,0,0,0,0,0,0,0,0,-1,748,1191,0,0
-469,-167,0,0,0,0,0,0,0,0,0,-1,755,1191,0,0
-462,-167,0,0,0,0,0,0,0,0,0,-1,762,1191,0,0
-455,-167,0,0,0,0,0,0,0,0,0,-1,769,1191,0,0
-448,-167,0,0,0,0,0,0,0,0,0,-1,776,1191,0,0
-441,-167,0,0,0,0,0,0,0,0,0,-1,783,1191,0,0
-434,-167,0,0,0,0,0,0,0,0,0,-1,790,1191,0,0
-427,-167,0,0,0,0,0,0,0,0,0,-1,797,1191,0,0
-420,-167,0,0,0,0,0,0,0,0,0,-1,804,1191,0,0
-413,-167,0,0,0,0,0,0,0,0,0,-1,811,1191,0,0
-406,-167,0,0,0,0,0,0,0,0,0,-1,818,1191,0,0
-399,-167,0,0,0,0,0,0,0,0,0,-1,825,1191,0,0
-392,-167,0,0,0,0,0,0,0,0,0,-1,832,1191,0,0
-385,-167,0,0,0,0,0,0,0,0,0,-1,839,1191,0,0
-378,-167,0,0,0,0,0,0,0,0,0,-1,846,1191,0,0
-371,-167,0,0,0,0,0,0,0,0,0,-1,853,1191,0,0
-364,-167,0,0,0,0,0,0,0,0,0,-1,860,1191,0,0
-357,-167,0,0,0,0,0,0,0,0,0,-1,867,1191,0,0
-350,-167,0,0,0,0,0,0,0,0,0,-1,874,1191,0,0
-343,-167,0,0,0,0,0,0,0,0,0,-1,881,1191,0,0
-336,-167,0,0,0,0,0,0,0,0,0,-1,888,1191,0,0
-329,-167,0,0,0,0,0,0,0,0,0,-1,895,1191,0,0
-322,-167,0,0,0,0,0,0,0,0,0,-1,902,1191,0,0
-315,-167,0,0,0,0,0,0,0,0,0,-1,909,1191,0,0
-308,-167,0,0,0,0,0,0,0,0,0,-1,916,1191,0,0
-301,-167,0,0,0,0,0,0,0,0,0,-1,923,1191,0,0
-294,-167,0,0,0,0,0,0,0,0,0,-1,930,1191,0,0
-287,-167,0,0,0,0,0,0,0,0,0,-1,937,1191,0,0
-280,-167,0,0,0,0,0,0,0,0,0,-1,944,1191,0,0
-273,-167,0,0,0,0,0,0,0,0,0,-1,951,1191,0,0
-266,-167,0,0,0,0,0,0,0,0,0,-1,958,1191,0,0
-259,-167,0,0,0,0,0,0,0,0,0,-1,965,1191,0,0
-252,-167,0,0,0,0,0,0,0,0,0,-1,972,1191,0,0
-245,-167,0,0,0,0,0,0,0,0,0,-1,979,1191,0,0
-238,-167,0,0,0,0,0,0,0,0,0,-1,986,1191,0,0
-231,-167,0,0,0,0,0,0,0,0,0,-1,993,1191,0,0
-224,-167,0,0,0,0,0,0,0,0,0,-1,1000,1191,0,0
-217,-167,0,0,0,0,0,0,0,0,0,-1,1007,1191,0,0
-210,-167,0,0,0,0,0,0,0,0,0,-1,1014,1191,0,0
-203,-167,0,0,0,0,0,0,0,0,0,-1,1021,1191,0,0
-196,-167,0,0,0,0,0,0,0,0,0,-1,1028,1191,0,0
-189,-167,0,0,0,0,0,0,0,0,0,-1,1035,1191,0,0
-182,-167,0,0,0,0,0,0,0,0,0,-1,1042,1191,0,0
-175,-167,0,0,0,0,0,0,0,0,0,-1,1049,1191,0,0
-168,-167,0,0,0,0,0,0,0,0,0,-1,1056,1191,0,0
-161,-167,0,0,0,0,0,0,0,0,0,-1,1063,1191,0,0
-154,-167,0,0,0,0,0,0,0,0,0,-1,1070,1191,0,0
-147,-167,0,0,0,0,0,0,0,0,0,-1,1077,1191,0,0
-140,-167,0,0,0,0,0,0,0,0,0,-1,1084,1191,0,0
-133,-167,0,0,0,0,0,0,0,0,0,-1,1091,1191,0,0
-126,-167,0,0,0,0,0,0,0,0,0,-1,1098,1191,0,0
-119,-167,0,0,0,0,0,0,0,0,0,-1,1105,1191,0,0
-112,-167,0,0,0,0,0,0,0,0,0,-1,1112,1191,0,0
-105,-167,0,0,0,0,0,0,0,0,0,-1,1119,1191,0,0
-98,-167,0,0,0,0,0,0,0,0,0,-1,1126,1191,0,0
-91,-167,0,0,0,0,0,0,0,0,0,-1,1133,1191,0,0
-84,-167,0,0,0,0,0,0,0,0,0,-1,1140,1191,0,0
-77,-167,0,0,0,0,0,0,0,0,0,-1,1147,1191,0,0
-70,-167,0,0,0,0,0,0,0,0,0,-1,1154,1191,0,0
-63,-167,0,0,0,0,0,0,0,0,0,-1,1161,1191,0,0
-56,-167,0,0,0,0,0,0,0,0,0,-1,1168,1191,0,0
-49,-167,0,0,0,0,0,0,0,0,0,-1,1175,1191,0,0
-42,-167,0,0,0,0,0,0,0,0,0,-1,1182,1191,0,0
-35,-167,0,0,0,0,0,0,0,0,0,-1,1189,1191,0,0
-28,-167,0,0,0,0,0,0,0,0,0,-1,1196,1191,0,0
-21,-167,0,0,0,0,0,0,0,0,0,-1,1203,1191,0,0
-14,-167,0,0,0,0,0,0,0,0,0,-1,1210,1191,0,0
-7,-167,0,0,0,0,0,0,0,0,0,-1,1217,1191,0,0
0,-167,0,0,0,0,0,0,0,0,0,-1,1224,1191,0,0
7,-167,0,0,0,0,0,0,0,0,0,-1,1231,1191,0,0
14,-167,0,0,0,0,0,0,0,0,0,-1,1238,1191,0,0
21,-167,0,0,0,0,0,0,0,0,0,-1,1245,1191,0,0
28,-167,0,0,0,0,0,0,0,0,0,-1,1252,1191,0,0
35,-167,0,0,0,0,0,0,0,0,0,-1,1259,1191,0,0
42,-167,0,0,0,0,0,0,0,0,0,-1,1266,1191,0,0
49,-167,0,0,0,0,0,0,0,0,0,-1,1273,1191,0,0
56,-167,0,0,0,0,0,0,0,0,0,-1,1280,1191,0,0
63,-167,0,0,0,0,0,0,0,0,0,-1,1287,1191,0,0
70,-167,0,0,0,0,0,0,0,0,0,-1,1294,1191,0,0
77,-167,0,0,0,0,0,0,0,0,0,-1,1301,1191,0,0
84,-167,0,0,0,0,0,0,0,0,0,-1,1308,1191,0,0
91,-167,0,0,0,0,0,0,0,0,0,-1,1315,1191,0,0
98,-167,0,0,0,0,0,0,0,0,0,-1,1322,1191,0,0
105,-167,0,0,0,0,0,0,0,0,0,-1,1329,1191,0,0
112,-167,0,0,0,0,0,0,0,0,0,-1,1336,1191,0,0
119,-167,0,0,0,0,0,0,0,0,0,-1,1343,1191,0,0
126,-167,0,0,0,0,0,0,0,0,0,-1,1350,1191,0,0
133,-167,0,0,0,0,0,0,0,0,0,-1,1357,1191,0,0
140,-167,0,0,0,0,0,0,0,0,0,-1,1364,1191,0,0
147,-167,0,0,0,0,0,0,0,0,0,-1,1371,1191,0,0
154,-167,0,0,0,0,0,0,0,0,0,-1,1378,1191,0,0
161,-167,0,0,0,0,0,0,0,0,0,-1,1385,1191,0,0
168,-167,0,0,0,0,0,0,0,0,0,-1,1392,1191,0,0
175,-167,0,0,0,0,0,0,0,0,0,-1,1399,1191,0,0
182,-167,0,0,0,0,0,0,0,0,0,-1,1406,1191,0,0
189,-167,0,0,0,0,0,0,0,0,0,-1,1413,1191,0,0
196,-167,0,0,0,0,0,0,0,0,0,-1,1420,1191,0,0
203,-167,0,0,0,0,0,0,0,0,0,-1,1427,1191,0,0
210,-167,0,0,0,0,0,0,0,0,0,-1,1434,1191,0,0
217,-167,0,0,0,0,0,0,0,0,0,-1,1441,1191,0,0
224,-167,0,0,0,0,0,0,0,0,0,-1,1448,1191,0,0
231,-167,0,0,0,0,0,0,0,0,0,-1,1455,1191,0,0
238,-167,0,0,0,0,0,0,0,0,0,-1,1462,1191,0,0
245,-167,0,0,0,0,0,0,0,0,0,-1,1469,1191,0,0
252,-167,0,0,0,0,0,0,0,0,0,-1,1476,1191,0,0
259,-167,0,0,0,0,0,0,0,0,0,-1,1483,1191,0,0
266,-167,0,0,0,0,0,0,0,0,0,-1,1490,1191,0,0
273,-167,0,0,0,0,0,0,0,0,0,-1,1497,1191,0,0
280,-167,0,0,0,0,0,0,0,0,0,-1,1504,1191,0,0
287,-167,0,0,0,0,0,0,0,0,0,-1,1511,1191,0,0
294,-167,0,0,0,0,0,0,0,0,0,-1,1518,1191,0,0
301,-167,0,0,0,0,0,0,0,0,0,-1,1525,1191,0,0
308,-167,0,0,0,0,0,0,0,0,0,-1,1532,1191,0,0
315,-167,0,0,0,0,0,0,0,0,0,-1,1539,1191,0,0
322,-167,0,0,0,0,0,0,0,0,0,-1,1546,1191,0,0
329,-167,0,0,0,0,0,0,0,0,0,-1,1553,1191,0,0
336,-167,0,0,0,0,0,0,0,0,0,-1,1560,1191,0,0
343,-167,0,0,0,0,0,0,0,0,0,-1,1567,1191,0,0
350,-167,0,0,0,0,0,0,0,0,0,-1,1574,1191,0,0
357,-167,0,0,0,0,0,0,0,0,0,-1,1581,1191,0,0
364,-167,0,0,0,0,0,0,0,0,0,-1,1588,1191,0,0
371,-167,0,0,0,0,0,0,0,0,0,-1,1595,1191,0,0
378,-167,0,0,0,0,0,0,0,0,0,-1,1602,1191,0,0
385,-167,0,0,0,0,0,0,0,0,0,-1,1609,1191,0,0
392,-167,0,0,0,0,0,0,0,0,0,-1,1616,1191,0,0
399,-167,0,0,0,0,0,0,0,0,0,-1,1623,1191,0,0
406,-167,0,0,0,0,0,0,0,0,0,-1,1630,1191,0,0
413,-167,0,0,0,0,0,0,0,0,0,-1,1637,1191,0,0
420,-167,0,0,0,0,0,0,0,0,0,-1,1644,1191,0,0
427,-167,0,0,0,0,0,0,0,0,0,-1,1651,1191,0,0
434,-167,0,0,0,0,0,0,0,0,0,-1,1658,1191,0,0
441,-167,0,0,0,0,0,0,0,0,0,-1,1665,1191,0,0
448,-167,0,0,0,0,0,0,0,0,0,-1,1672,1191,0,0
455,-167,0,0,0,0,0,0,0,0,0,-1,1679,1191,0,0
462,-167,0,0,0,0,0,0,0,0,0,-1,1686,1191,0,0
469,-167,0,0,0,0,0,0,0,0,0,-1,1693,1191,0,0
476,-167,0,0,0,0,0,0,0,0,0,-1,1700,1191,0,0
483,-167,0,0,0,0,0,0,0,0,0,-1,1707,1191,0,0
490,-167,0,0,0,0,0,0,0,0,0,-1,1714,1191,0,0
497,-167,0,0,0,0,0,0,0,0,0,-1,1721,1191,0,0
504,-167,0,0,0,0,0,0,0,0,0,-1,1728,1191,0,0
511,-167,0,0,0,0,0,0,0,0,0,-1,1735,1191,0,0
518,-167,0,0,0,0,0,0,0,0,0,-1,1742,1191,0,0
525,-167,0,0,0,0,0,0,0,0,0,-1,1749,1191,0,0
532,-167,0,0,0,0,0,0,0,0,0,-1,1756,1191,0,0
539,-167,0,0,0,0,0,0,0,0,0,-1,1763,1191,0,0
546,-167,0,0,0,0,0,0,0,0,0,-1,1770,1191,0,0
553,-167,0,0,0,0,0,0,0,0,0,-1,1777,1191,0,0
560,-167,0,0,0,0,0,0,0,0,0,-1,1784,1191,0,0
567,-167,0,0,0,0,0,0,0,0,0,-1,1791,1191,0,0
574,-167,0,0,0,0,0,0,0,0,0,-1,1798,1191,0,0
581,-167,0,0,0,0,0,0,0,0,0,-1,1805,1191,0,0
588,-167,0,0,0,0,0,0,0,0,0,-1,1812,1191,0,0
595,-167,0,0,0,0,0,0,0,0,0,-1,1819,1191,0,0
602,-167,0,0,0,0,0,0,0,0,0,-1,1826,1191,0,0
609,-167,0,0,0,0,0,0,0,0,0,-1,1833,1191,0,0
616,-167,0,0,0,0,0,0,0,0,0,-1,1840,1191,0,0
623,-167,0,0,0,0,0,0,0,0,0,-1,1847,1191,0,0
630,-167,0,0,0,0,0,0,0,0,0,-1,1854,1191,0,0
637,-167,76.4987,1.99866,-0.00158989,0.00133555,0.00186515,0.00224314,-0.00249747,1.11793,0.0027383,0.0435791,1861,1191,76.4986,-1.99868
644,-167,76.4818,1.9845,-0.00137034,0.0010246,0.00145867,0.00171436,-0.00206011,1.12909,0.00218224,0.0433296,1868,1191,76.4818,-1.98445
651,-167,76.1718,1.94434,-0.000840292,0.00116678,0.000797389,0.00144501,-0.00111852,1.23508,0.00148405,0.0418533,1875,1191,76.1717,-1.94433
658,-167,76.0562,2.25867,-9.57774e-05,0.00158862,-6.94948e-06,0.00158865,-9.58061e-05,-1.56667,0.00109244,0.0438143,1882,1191,76.0561,-2.25862
665,-167,76.2542,2.24048,0.000688627,0.00225182,-0.000742131,0.00254802,0.000392424,-1.19104,0.00158416,0.0389757,1889,1191,76.2542,-2.2405
672,-167,76.2214,2.06421,0.00147326,0.00320012,-0.00136588,0.00395259,0.00072079,-1.06726,0.00243069,0.0294391,1896,1191,76.2214,-2.06419
679,-167,76.2211,2.03882,0.00205373,0.00358151,-0.00162147,0.00461002,0.00102522,-1.00553,0.002795,0.0218352,1903,1191,76.2211,-2.03879
686,-167,76.2412,1.98535,0.00240242,0.00382943,-0.00162711,0.0048926,0.00133925,-0.992027,0.00291957,0.0352198,1910,1191,76.2412,-1.98534
693,-167,76.2406,1.91882,0,0,0,0,0,0,0,-1,1917,1191,76.2405,-1.91886
700,-167,28.0459,2.70508,0,0,0,0,0,0,0,-1,1924,1191,28.0459,-2.70513
707,-167,29.4708,7.10168,0,0,0,0,0,0,0,-1,1931,1191,29.4708,-7.10172
714,-167,35.9202,6.84668,0,0,0,0,0,0,0,-1,1938,1191,35.9202,-6.84664
721,-167,36.2072,6.38892,0,0,0,0,0,0,0,-1,1945,1191,36.2072,-6.38891
728,-167,63.7198,9.84265,0,0,0,0,0,0,0,-1,1952,1191,63.7199,-9.8427
735,-167,64.1766,9.18201,0.00221162,0.00291622,0.000329357,0.0030462,0.00208165,1.19492,0.00179771,0.0399658,1959,1191,64.1766,-9.18203
742,-167,64.1807,8.21423,0.00195556,0.00249285,0.000709431,0.0029828,0.00146561,0.966394,0.00172221,0.0176866,1966,1191,64.1806,-8.21417
749,-167,64.1505,7.49268,0.00217801,0.00324433,0.000854385,0.00371826,0.00170408,1.06435,0.00214923,0.0157727,1973,1191,64.1506,-7.49267
756,-167,64.145,6.8219,0.00372392,0.00701173,-9.40727e-05,0.00701442,0.00372123,-1.54221,0.00405229,0.0117988,1980,1191,64.145,-6.82196
763,-167,64.0703,6.12366,0.00636278,0.0121237,-0.00169578,0.0125858,0.00590068,-1.30476,0.00727113,0.0142859,1987,1191,64.0703,-6.12361
770,-167,63.7576,5.3053,0,0,0,0,0,0,0,-1,1994,1191,63.7575,-5.30533
777,-167,63.6721,4.77991,0,0,0,0,0,0,0,-1,2001,1191,63.672,-4.7799
784,-167,65.9761,5.13391,0,0,0,0,0,0,0,-1,2008,1191,65.976,-5.13389
791,-167,65.3518,2.74902,0,0,0,0,0,0,0,-1,2015,1191,65.3517,-2.74897
798,-167,65.4727,1.72888,0,0,0,0,0,0,0,-1,2022,1191,65.4728,-1.72882
805,-167,66.1406,0.778931,0,0,0,0,0,0,0,-1,2029,1191,66.1407,-0.778899
812,-167,0,0,0,0,0,0,0,0,0,-1,2036,1191,0,0
-700,-174,0,0,0,0,0,0,0,0,0,-1,524,1198,0,0
-693,-174,0,0,0,0,0,0,0,0,0,-1,531,1198,0,0
-686,-174,-45.0504,0.125488,-0.053516,0.0985245,0.0533627,0.115384,-0.0703755,1.26478,0.108293,0.0468548,538,1198,-45.0504,-0.125512
-679,-174,-45.5024,1.23474,-0.0438495,0.0822352,0.0414831,0.0946593,-0.0562736,1.2798,0.0880755,0.044623,545,1198,-45.5024,-1.23469
-672,-174,-46.5062,1.81177,0,0,0,0,0,0,0,-1,552,1198,-46.5062,-1.81177
-665,-174,-46.836,2.28638,-0.0278129,0.0549993,0.0243389,0.0616228,-0.0344364,1.30509,0.0561953,0.0469268,559,1198,-46.836,-2.28635
-658,-174,-47.1917,2.71729,0,0,0,0,0,0,0,-1,566,1198,-47.1917,-2.71723
-651,-174,-46.5068,2.23669,0,0,0,0,0,0,0,-1,573,1198,-46.5068,-2.2367
-644,-174,-46.6609,3.27454,-0.0104342,0.0235766,0.00820313,0.0254518,-0.0123093,1.34607,0.0222372,0.0485477,580,1198,-46.6609,-3.27457
-637,-174,-46.8528,4.37793,-0.00665937,0.0155855,0.00461789,0.0165061,-0.00757992,1.37403,0.0142208,0.0276945,587,1198,-46.8528,-4.3779
-630,-174,-47.0428,5.09229,-0.00387894,0.00868142,0.00106847,0.00877166,-0.00396918,1.48654,0.0075281,0.0142117,594,1198,-47.0429,-5.0923
-623,-174,-47.0813,5.83752,-0.00224057,0.00346458,-0.00103136,0.0036453,-0.00242129,-1.39733,0.00352623,0.0159609,601,1198,-47.0813,-5.83753
-616,-174,-47.0822,6.59009,-0.00253913,0.000967581,-0.00205831,0.00191809,-0.00348964,-1.13818,0.0031658,0.0219926,608,1198,-47.0822,-6.59014
-609,-174,-47.1824,7.31396,-0.00358654,-2.52283e-05,-0.00297665,0.00166271,-0.00527448,-1.05495,0.00418222,0.0232677,615,1198,-47.1824,-7.31392
-602,-174,-47.2738,8.01648,0,0,0,0,0,0,0,-1,622,1198,-47.2738,-8.01649
-595,-174,-46.5652,8.5835,0,0,0,0,0,0,0,-1,629,1198,-46.5653,-8.58348
-588,-174,-47.4969,9.65112,0,0,0,0,0,0,0,-1,636,1198,-47.4969,-9.65108
-581,-174,-47.768,10.4076,0,0,0,0,0,0,0,-1,643,1198,-47.768,-10.4075
-574,-174,-31.7448,7.09595,0,0,0,0,0,0,0,-1,650,1198,-31.7448,-7.09599
-567,-174,-26.6597,3.04041,0,0,0,0,0,0,0,-1,657,1198,-26.6597,-3.04039
-560,-174,-42.6953,1.07178,0,0,0,0,0,0,0,-1,664,1198,-42.6953,-1.07181
-553,-174,-59.4726,0.25647,0,0,0,0,0,0,0,-1,671,1198,-59.4726,-0.256514
-546,-174,-59.5471,0.27417,-0.00246655,-0.00100468,-0.00168119,9.76037e-05,-0.00356883,-0.990457,0.00241241,0.0336849,678,1198,-59.5471,-0.274117
-539,-174,-59.632,0.272461,-0.00171682,-0.00152808,-0.000536937,-0.00107729,-0.00216762,-0.872387,0.00125148,0.0342156,685,1198,-59.632,-0.272431
-532,-174,-59.6399,0.129883,-0.000555958,-0.00199151,0.000828345,-0.000177669,-0.0023698,0.428395,0.0015241,0.0425515,692,1198,-59.6399,-0.129878
-525,-174,-59.5931,0.0491943,0.00253438,-0.00298062,0.0022092,0.0033102,-0.00375644,0.337724,0.00408264,0.0464893,699,1198,-59.5931,-0.0491786
-518,-174,-59.6953,0.382324,0.00667136,-0.00431618,0.00393043,0.00793257,-0.0055774,0.310505,0.00783939,0.0441516,706,1198,-59.6952,-0.382331
-511,-174,0,0,0,0,0,0,0,0,0,-1,713,1198,0,0
-504,-174,0,0,0,0,0,0,0,0,0,-1,720,1198,0,0
-497,-174,0,0,0,0,0,0,0,0,0,-1,727,1198,0,0
-490,-174,0,0,0,0,0,0,0,0,0,-1,734,1198,0,0
-483,-174,0,0,0,0,0,0,0,0,0,-1,741,1198,0,0
-476,-174,0,0,0,0,0,0,0,0,0,-1,748,1198,0,0
-469,-174,0,0,0,0,0,0,0,0,0,-1,755,1198,0,0
-462,-174,0,0,0,0,0,0,0,0,0,-1,762,1198,0,0
-455,-174,0,0,0,0,0,0,0,0,0,-1,769,1198,0,0
-448,-174,0,0,0,0,0,0,0,0,0,-1,776,1198,0,0
-441,-174,0,0,0,0,0,0,0,0,0,-1,783,1198,0,0
-434,-174,0,0,0,0,0,0,0,0,0,-1,790,1198,0,0
-427,-174,0,0,0,0,0,0,0,0,0,-1,797,1198,0,0
-420,-174,0,0,0,0,0,0,0,0,0,-1,804,1198,0,0
-413,-174,0,0,0,0,0,0,0,0,0,-1,811,1198,0,0
-406,-174,0,0,0,0,0,0,0,0,0,-1,818,1198,0,0
-399,-174,0,0,0,0,0,0,0,0,0,-1,825,1198,0,0
-392,-174,0,0,0,0,0,0,0,0,0,-1,832,1198,0,0
-385,-174,0,0,0,0,0,0,0,0,0,-1,839,1198,0,0
-378,-174,0,0,0,0,0,0,0,0,0,-1,846,1198,0,0
-371,-174,0,0,0,0,0,0,0,0,0,-1,853,1198,0,0
-364,-174,0,0,0,0,0,0,0,0,0,-1,860,1198,0,0
-357,-174,0,0,0,0,0,0,0,0,0,-1,867,1198,0,0
-350,-174,0,0,0,0,0,0,0,0,0,-1,874,1198,0,0
-343,-174,0,0,0,0,0,0,0,0,0,-1,881,1198,0,0
-336,-174,0,0,0,0,0,0,0,0,0,-1,888,1198,0,0
-329,-174,0,0,0,0,0,0,0,0,0,-1,895,1198,0,0
-322,-174,0,0,0,0,0,0,0,0,0,-1,902,1198,0,0
-315,-174,0,0,0,0,0,0,0,0,0,-1,909,1198,0,0
-308,-174,0,0,0,0,0,0,0,0,0,-1,916,1198,0,0
-301,-174,0,0,0,0,0,0,0,0,0,-1,923,1198,0,0
-294,-174,0,0,0,0,0,0,0,0,0,-1,930,1198,0,0
-287,-174,0,0,0,0,0,0,0,0,0,-1,937,1198,0,0
-280,-174,0,0,0,0,0,0,0,0,0,-1,944,1198,0,0
-273,-174,0,0,0,0,0,0,0,0,0,-1,951,1198,0,0
-266,-174,0,0,0,0,0,0,0,0,0,-1,958,1198,0,0
-259,-174,0,0,0,0,0,0,0,0,0,-1,965,1198,0,0
-252,-174,0,0,0,0,0,0,0,0,0,-1,972,1198,0,0
-245,-174,0,0,0,0,0,0,0,0,0,-1,979,1198,0,0
-238,-174,0,0,0,0,0,0,0,0,0,-1,986,1198,0,0
-231,-174,0,0,0,0,0,0,0,0,0,-1,993,1198,0,0
-224,-174,0,0,0,0,0,0,0,0,0,-1,1000,1198,0,0
-217,-174,0,0,0,0,0,0,0,0,0,-1,1007,1198,0,0
-210,-174,0,0,0,0,0,0,0,0,0,-1,1014,1198,0,0
-203,-174,0,0,0,0,0,0,0,0,0,-1,1021,1198,0,0
-196,-174,0,0,0,0,0,0,0,0,0,-1,1028,1198,0,0
-189,-174,0,0,0,0,0,0,0,0,0,-1,1035,1198,0,0
-182,-174,0,0,0,0,0,0,0,0,0,-1,1042,1198,0,0
-175,-174,0,0,0,0,0,0,0,0,0,-1,1049,1198,0,0
-168,-174,0,0,0,0,0,0,0,0,0,-1,1056,1198,0,0
-161,-174,0,0,0,0,0,0,0,0,0,-1,1063,1198,0,0
-154,-174,0,0,0,0,0,0,0,0,0,-1,1070,1198,0,0
-147,-174,0,0,0,0,0,0,0,0,0,-1,1077,1198,0,0
-140,-174,0,0,0,0,0,0,0,0,0,-1,1084,1198,0,0
-133,-174,0,0,0,0,0,0,0,0,0,-1,1091,1198,0,0
-126,-174,0,0,0,0,0,0,0,0,0,-1,1098,1198,0,0
-119,-174,0,0,0,0,0,0,0,0,0,-1,1105,1198,0,0
-112,-174,0,0,0,0,0,0,0,0,0,-1,1112,1198,0,0
-105,-174,0,0,0,0,0,0,0,0,0,-1,1119,1198,0,0
-98,-174,0,0,0,0,0,0,0,0,0,-1,1126,1198,0,0
-91,-174,0,0,0,0,0,0,0,0,0,-1,1133,1198,0,0
-84,-174,0,0,0,0,0,0,0,0,0,-1,1140,1198,0,0
-77,-174,0,0,0,0,0,0,0,0,0,-1,1147,1198,0,0
-70,-174,0,0,0,0,0,0,0,0,0,-1,1154,1198,0,0
-63,-174,0,0,0,0,0,0,0,0,0,-1,1161,1198,0,0
-56,-174,0,0,0,0,0,0,0,0,0,-1,1168,1198,0,0
-49,-174,0,0,0,0,0,0,0,0,0,-1,1175,1198,0,0
-42,-174,0,0,0,0,0,0,0,0,0,-1,1182,1198,0,0
-35,-174,0,0,0,0,0,0,0,0,0,-1,1189,1198,0,0
-28,-174,0,0,0,0,0,0,0,0,0,-1,1196,1198,0,0
-21,-174,0,0,0,0,0,0,0,0,0,-1,1203,1198,0,0
-14,-174,0,0,0,0,0,0,0,0,0,-1,1210,1198,0,0
-7,-174,0,0,0,0,0,0,0,0,0,-1,1217,1198,0,0
0,-174,0,0,0,0,0,0,0,0,0,-1,1224,1198,0,0
7,-174,0,0,0,0,0,0,0,0,0,-1,1231,1198,0,0
14,-174,0,0,0,0,0,0,0,0,0,-1,1238,1198,0,0
21,-174,0,0,0,0,0,0,0,0,0,-1,1245,1198,0,0
28,-174,0,0,0,0,0,0,0,0,0,-1,1252,1198,0,0
35,-174,0,0,0,0,0,0,0,0,0,-1,1259,1198,0,0
42,-174,0,0,0,0,0,0,0,0,0,-1,1266,1198,0,0
49,-174,0,0,0,0,0,0,0,0,0,-1,1273,1198,0,0
56,-174,0,0,0,0,0,0,0,0,0,-1,1280,1198,0,0
63,-174,0,0,0,0,0,0,0,0,0,-1,1287,1198,0,0
70,-174,0,0,0,0,0,0,0,0,0,-1,1294,1198,0,0
77,-174,0,0,0,0,0,0,0,0,0,-1,1301,1198,0,0
84,-174,0,0,0,0,0,0,0,0,0,-1,1308,1198,0,0
91,-174,0,0,0,0,0,0,0,0,0,-1,1315,1198,0,0
98,-174,0,0,0,0,0,0,0,0,0,-1,1322,1198,0,0
105,-174,0,0,0,0,0,0,0,0,0,-1,1329,1198,0,0
112,-174,0,0,0,0,0,0,0,0,0,-1,1336,1198,0,0
119,-174,0,0,0,0,0,0,0,0,0,-1,1343,1198,0,0
126,-174,0,0,0,0,0,0,0,0,0,-1,1350,1198,0,0
133,-174,0,0,0,0,0,0,0,0,0,-1,1357,1198,0,0
140,-174,0,0,0,0,0,0,0,0,0,-1,1364,1198,0,0
147,-174,0,0,0,0,0,0,0,0,0,-1,1371,1198,0,0
154,-174,0,0,0,0,0,0,0,0,0,-1,1378,1198,0,0
161,-174,0,0,0,0,0,0,0,0,0,-1,1385,1198,0,0
168,-174,0,0,0,0,0,0,0,0,0,-1,1392,1198,0,0
175,-174,0,0,0,0,0,0,0,0,0,-1,1399,1198,0,0
182,-174,0,0,0,0,0,0,0,0,0,-1,1406,1198,0,0
189,-174,0,0,0,0,0,0,0,0,0,-1,1413,1198,0,0
196,-174,0,0,0,0,0,0,0,0,0,-1,1420,1198,0,0
203,-174,0,0,0,0,0,0,0,0,0,-1,1427,1198,0,0
210,-174,0,0,0,0,0,0,0,0,0,-1,1434,1198,0,0
217,-174,0,0,0,0,0,0,0,0,0,-1,1441,1198,0,0
224,-174,0,0,0,0,0,0,0,0,0,-1,1448,1198,0,0
231,-174,0,0,0,0,0,0,0,0,0,-1,1455,1198,0,0
238,-174,0,0,0,0,0,0,0,0,0,-1,1462,1198,0,0
245,-174,0,0,0,0,0,0,0,0,0,-1,1469,1198,0,0
252,-174,0,0,0,0,0,0,0,0,0,-1,1476,1198,0,0
259,-174,0,0,0,0,0,0,0,0,0,-1,1483,1198,0,0
266,-174,0,0,0,0,0,0,0,0,0,-1,1490,1198,0,0
273,-174,0,0,0,0,0,0,0,0,0,-1,1497,1198,0,0
280,-174,0,0,0,0,0,0,0,0,0,-1,1504,1198,0,0
287,-174,0,0,0,0,0,0,0,0,0,-1,1511,1198,0,0
294,-174,0,0,0,0,0,0,0,0,0,-1,1518,1198,0,0
301,-174,0,0,0,0,0,0,0,0,0,-1,1525,1198,0,0
308,-174,0,0,0,0,0,0,0,0,0,-1,1532,1198,0,0
315,-174,0,0,0,0,0,0,0,0,0,-1,1539,1198,0,0
322,-174,0,0,0,0,0,0,0,0,0,-1,1546,1198,0,0
329,-174,0,0,0,0,0,0,0,0,0,-1,1553,1198,0,0
336,-174,0,0,0,0,0,0,0,0,0,-1,1560,1198,0,0
343,-174,0,0,0,0,0,0,0,0,0,-1,1567,1198,0,0
350,-174,0,0,0,0,0,0,0,0,0,-1,1574,1198,0,0
357,-174,0,0,0,0,0,0,0,0,0,-1,1581,1198,0,0
364,-174,0,0,0,0,0,0,0,0,0,-1,1588,1198,0,0
371,-174,0,0,0,0,0,0,0,0,0,-1,1595,1198,0,0
378,-174,0,0,0,0,0,0,0,0,0,-1,1602,1198,0,0
385,-174,0,0,0,0,0,0,0,0,0,-1,1609,1198,0,0
392,-174,0,0,0,0,0,0,0,0,0,-1,1616,1198,0,0
399,-174,0,0,0,0,0,0,0,0,0,-1,1623,1198,0,0
406,-174,0,0,0,0,0,0,0,0,0,-1,1630,1198,0,0
413,-174,0,0,0,0,0,0,0,0,0,-1,1637,1198,0,0
420,-174,0,0,0,0,0,0,0,0,0,-1,1644,1198,0,0
427,-174,0,0,0,0,0,0,0,0,0,-1,1651,1198,0,0
434,-174,0,0,0,0,0,0,0,0,0,-1,1658,1198,0,0
441,-174,0,0,0,0,0,0,0,0,0,-1,1665,1198,0,0
448,-174,0,0,0,0,0,0,0,0,0,-1,1672,1198,0,0
455,-174,0,0,0,0,0,0,0,0,0,-1,1679,1198,0,0
462,-174,0,0,0,0,0,0,0,0,0,-1,1686,1198,0,0
469,-174,0,0,0,0,0,0,0,0,0,-1,1693,1198,0,0
476,-174,0,0,0,0,0,0,0,0,0,-1,1700,1198,0,0
483,-174,0,0,0,0,0,0,0,0,0,-1,1707,1198,0,0
490,-174,0,0,0,0,0,0,0,0,0,-1,1714,1198,0,0
497,-174,0,0,0,0,0,0,0,0,0,-1,1721,1198,0,0
504,-174,0,0,0,0,0,0,0,0,0,-1,1728,1198,0,0
511,-174,0,0,0,0,0,0,0,0,0,-1,1735,1198,0,0
518,-174,0,0,0,0,0,0,0,0,0,-1,1742,1198,0,0
525,-174,0,0,0,0,0,0,0,0,0,-1,1749,1198,0,0
532,-174,0,0,0,0,0,0,0,0,0,-1,1756,1198,0,0
539,-174,0,0,0,0,0,0,0,0,0,-1,1763,1198,0,0
546,-174,0,0,0,0,0,0,0,0,0,-1,1770,1198,0,0
553,-174,0,0,0,0,0,0,0,0,0,-1,1777,1198,0,0
560,-174,0,0,0,0,0,0,0,0,0,-1,1784,1198,0,0
567,-174,0,0,0,0,0,0,0,0,0,-1,1791,1198,0,0
574,-174,0,0,0,0,0,0,0,0,0,-1,1798,1198,0,0
581,-174,0,0,0,0,0,0,0,0,0,-1,1805,1198,0,0
588,-174,0,0,0,0,0,0,0,0,0,-1,1812,1198,0,0
595,-174,0,0,0,0,0,0,0,0,0,-1,1819,1198,0,0
602,-174,0,0,0,0,0,0,0,0,0,-1,1826,1198,0,0
609,-174,0,0,0,0,0,0,0,0,0,-1,1833,1198,0,0
616,-174,0,0,0,0,0,0,0,0,0,-1,1840,1198,0,0
623,-174,0,0,0,0,0,0,0,0,0,-1,1847,1198,0,0
630,-174,0,0,0,0,0,0,0,0,0,-1,1854,1198,0,0
637,-174,76.295,2.08496,-0.00137774,0.000387683,0.00275281,0.00239584,-0.0033859,0.940548,0.00335436,0.0412162,1861,1198,76.2951,-2.08501
644,-174,76.4283,2.14734,-0.00106482,0.000426519,0.00190112,0.00172297,-0.00236128,0.972292,0.00236762,0.041331,1868,1198,76.4283,-2.14734
651,-174,76.2092,2.07666,-0.000449757,0.000891495,0.000834433,0.00129139,-0.000849653,1.12389,0.00124487,0.0425523,1875,1198,76.2092,-2.07666
658,-174,76.1921,2.58496,0.000312092,0.00160216,-0.000236786,0.00164425,0.000270004,-1.39489,0.00101817,0.0436791,1882,1198,76.1921,-2.58498
665,-174,76.2196,2.29797,0.000979452,0.00242624,-0.00101431,0.00294869,0.000457005,-1.09516,0.00183255,0.0356739,1889,1198,76.2196,-2.29796
672,-174,76.219,2.08679,0.00155732,0.0034203,-0.00149714,0.00425207,0.000725547,-1.06368,0.00262649,0.0278344,1896,1198,76.219,-2.08684
679,-174,76.2479,1.99817,0.00191858,0.00371916,-0.00159636,0.0046516,0.000986137,-1.04215,0.00283021,0.0252241,1903,1198,76.248,-1.99817
686,-174,76.2235,1.8938,0,0,0,0,0,0,0,-1,1910,1198,76.2235,-1.89379
693,-174,51.1324,2.57349,0,0,0,0,0,0,0,-1,1917,1198,51.1325,-2.57343
700,-174,25.4004,6.11792,0,0,0,0,0,0,0,-1,1924,1198,25.4004,-6.11797
707,-174,34.7908,7.34473,0,0,0,0,0,0,0,-1,1931,1198,34.7908,-7.34475
714,-174,40.1135,7.79871,0,0,0,0,0,0,0,-1,1938,1198,40.1135,-7.79875
721,-174,40.8693,7.59863,0,0,0,0,0,0,0,-1,1945,1198,40.8693,-7.59859
728,-174,63.2489,9.67432,0,0,0,0,0,0,0,-1,1952,1198,63.2489,-9.6743
735,-174,63.3663,9.01086,0.00206499,0.00337334,0.000360347,0.00346602,0.00197231,1.31905,0.00200746,0.0276204,1959,1198,63.3663,-9.01086
742,-174,63.4438,8.24329,0.00190599,0.00295052,0.000684818,0.0032895,0.00156701,1.11117,0.0018999,0.0227322,1966,1198,63.4438,-8.24331
749,-174,63.4402,7.53699,0.00237124,0.00365604,0.000801846,0.00404108,0.0019862,1.12312,0.00233323,0.0198239,1973,1198,63.4401,-7.53698
756,-174,63.4144,6.83044,0.0042868,0.00699917,-3.46334e-05,0.00699962,0.00428636,-1.55803,0.00407511,0.0118702,1980,1198,63.4144,-6.83041
763,-174,63.3794,6.14136,0.00728742,0.0115024,-0.00141226,0.0119318,0.00685798,-1.2756,0.00691446,0.0183355,1987,1198,63.3795,-6.14131
770,-174,63.6116,5.35132,0,0,0,0,0,0,0,-1,1994,1198,63.6115,-5.35134
777,-174,64.1311,4.38794,0,0,0,0,0,0,0,-1,2001,1198,64.1311,-4.388
784,-174,66.8398,5.16162,0,0,0,0,0,0,0,-1,2008,1198,66.8399,-5.16161
791,-174,66.0564,4.69263,0,0,0,0,0,0,0,-1,2015,1198,66.0563,-4.69261
798,-174,65.564,0.703979,0,0,0,0,0,0,0,-1,2022,1198,65.564,-0.703927
805,-174,65.4634,1.38306,0,0,0,0,0,0,0,-1,2029,1198,65.4635,-1.38304
812,-174,0,0,0,0,0,0,0,0,0,-1,2036,1198,0,0
-700,-181,0,0,0,0,0,0,0,0,0,-1,524,1205,0,0
-693,-181,0,0,0,0,0,0,0,0,0,-1,531,1205,0,0
-686,-181,-45.3968,0.324097,-0.0518899,0.0905919,0.0547676,0.109211,-0.0705086,1.24309,0.10456,0.0469916,538,1205,-45.3968,-0.324039
-679,-181,-45.4095,0.594116,-0.0421267,0.0777482,0.0431255,0.0916505,-0.056029,1.25895,0.0860856,0.0460048,545,1205,-45.4095,-0.594139
-672,-181,-45.9633,1.33801,-0.0338774,0.0655352,0.0336989,0.0758816,-0.0442239,1.27291,0.0701413,0.0448634,552,1205,-45.9633,-1.33799
-665,-181,-46.3013,1.76758,-0.0264003,0.0540645,0.0258909,0.0616754,-0.0340112,1.28489,0.056009,0.0481997,559,1205,-46.3013,-1.76764
-658,-181,-46.6886,2.21338,0,0,0,0,0,0,0,-1,566,1205,-46.6886,-2.21341
-651,-181,-46.8257,2.73169,0,0,0,0,0,0,0,-1,573,1205,-46.8257,-2.73167
-644,-181,-46.2479,3.38525,-0.00943969,0.0244952,0.0092773,0.0268659,-0.0118104,1.32062,0.0228867,0.0491615,580,1205,-46.248,-3.38528
-637,-181,-46.1459,4.39624,-0.0057564,0.01665,0.00550157,0.017928,-0.00703434,1.34256,0.0148624,0.0274143,587,1205,-46.1459,-4.39621
-630,-181,-46.3243,5.11462,-0.00298726,0.00979847,0.00169268,0.0100188,-0.00320755,1.44138,0.00796659,0.0145536,594,1205,-46.3243,-5.11456
-623,-181,-46.3766,5.85583,-0.00116715,0.00424952,-0.000675188,0.00433241,-0.00125004,-1.44864,0.00338284,0.0160394,601,1205,-46.3767,-5.85581
-616,-181,-46.3583,6.60547,-0.00132971,0.00161512,-0.00178074,0.00245334,-0.00216793,-1.13085,0.00266979,0.0155398,608,1205,-46.3583,-6.6055
-609,-181,-46.4033,7.37598,-0.00231323,0.000262882,-0.00277348,0.00203281,-0.00408316,-1.00279,0.00359659,0.0145884,615,1205,-46.4033,-7.37593
-602,-181,-46.3641,8.17456,-0.00285891,9.08014e-05,-0.00347073,0.00238704,-0.00515515,-0.986308,0.00445117,0.0309541,622,1205,-46.3641,-8.17453
-595,-181,-46.0541,8.98022,0,0,0,0,0,0,0,-1,629,1205,-46.0541,-8.9802
-588,-181,-46.7619,9.63525,-0.00300407,-2.78929e-05,-0.00282119,0.00167361,-0.00470557,-1.02809,0.00381917,0.038479,636,1205,-46.7619,-9.63528
-581,-181,-46.9675,10.3375,-0.00227744,3.52479e-05,-0.00320599,0.00228706,-0.00452925,-0.958478,0.00400574,0.0478097,643,1205,-46.9675,-10.3376
-574,-181,-46.2592,11.0441,0,0,0,0,0,0,0,-1,650,1205,-46.2592,-11.044
-567,-181,-25.8839,3.34485,0,0,0,0,0,0,0,-1,657,1205,-25.8839,-3.3449
-560,-181,-31.7396,1.63306,0,0,0,0,0,0,0,-1,664,1205,-31.7396,-1.63303
-553,-181,-57.8761,0.527832,0,0,0,0,0,0,0,-1,671,1205,-57.8761,-0.527787
-546,-181,-59.5284,0.395264,0,0,0,0,0,0,0,-1,678,1205,-59.5285,-0.395248
-539,-181,-59.5092,0.278442,-0.00161469,-0.00240605,-0.000376855,-0.00146394,-0.00255679,-0.380517,0.00148134,0.0357212,685,1205,-59.5092,-0.278399
-532,-181,-59.4898,0.231323,-0.00131946,-0.00290865,0.00113865,-0.000725563,-0.00350255,0.480761,0.00213468,0.0413402,692,1205,-59.4898,-0.231301
-525,-181,-59.5244,0.166748,0.000596626,-0.00362896,0.00309229,0.00222898,-0.00526132,0.485702,0.00444108,0.044059,699,1205,-59.5244,-0.166775
-518,-181,-59.5971,0.286133,0.00400001,-0.00459852,0.00545446,0.00664588,-0.00724438,0.451643,0.00802203,0.0422887,706,1205,-59.5971,-0.286183
-511,-181,0,0,0,0,0,0,0,0,0,-1,713,1205,0,0
-504,-181,0,0,0,0,0,0,0,0,0,-1,720,1205,0,0
-497,-181,0,0,0,0,0,0,0,0,0,-1,727,1205,0,0
-490,-181,0,0,0,0,0,0,0,0,0,-1,734,1205,0,0
-483,-181,0,0,0,0,0,0,0,0,0,-1,741,1205,0,0
-476,-181,0,0,0,0,0,0,0,0,0,-1,748,1205,0,0
-469,-181,0,0,0,0,0,0,0,0,0,-1,755,1205,0,0
-462,-181,0,0,0,0,0,0,0,0,0,-1,762,1205,0,0
-455,-181,0,0,0,0,0,0,0,0,0,-1,769,1205,0,0
-448,-181,0,0,0,0,0,0,0,0,0,-1,776,1205,0,0
-441,-181,0,0,0,0,0,0,0,0,0,-1,783,1205,0,0
-434,-181,0,0,0,0,0,0,0,0,0,-1,790,1205,0,0
-427,-181,0,0,0,0,0,0,0,0,0,-1,797,1205,0,0
-420,-181,0,0,0,0,0,0,0,0,0,-1,804,1205,0,0
-413,-181,0,0,0,0,0,0,0,0,0,-1,811,1205,0,0
-406,-181,0,0,0,0,0,0,0,0,0,-1,818,1205,0,0
-399,-181,0,0,0,0,0,0,0,0,0,-1,825,1205,0,0
-392,-181,0,0,0,0,0,0,0,0,0,-1,832,1205,0,0
-385,-181,0,0,0,0,0,0,0,0,0,-1,839,1205,0,0
-378,-181,0,0,0,0,0,0,0,0,0,-1,846,1205,0,0
-371,-181,0,0,0,0,0,0,0,0,0,-1,853,1205,0,0
-364,-181,0,0,0,0,0,0,0,0,0,-1,860,1205,0,0
-357,-181,0,0,0,0,0,0,0,0,0,-1,867,1205,0,0
-350,-181,0,0,0,0,0,0,0,0,0,-1,874,1205,0,0
-343,-181,0,0,0,0,0,0,0,0,0,-1,881,1205,0,0
-336,-181,0,0,0,0,0,0,0,0,0,-1,888,1205,0,0
-329,-181,0,0,0,0,0,0,0,0,0,-1,895,1205,0,0
-322,-181,0,0,0,0,0,0,0,0,0,-1,902,1205,0,0
-315,-181,0,0,0,0,0,0,0,0,0,-1,909,1205,0,0
-308,-181,0,0,0,0,0,0,0,0,0,-1,916,1205,0,0
-301,-181,0,0,0,0,0,0,0,0,0,-1,923,1205,0,0
-294,-181,0,0,0,0,0,0,0,0,0,-1,930,1205,0,0
-287,-181,0,0,0,0,0,0,0,0,0,-1,937,1205,0,0
-280,-181,0,0,0,0,0,0,0,0,0,-1,944,1205,0,0
-273,-181,0,0,0,0,0,0,0,0,0,-1,951,1205,0,0
-266,-181,0,0,0,0,0,0,0,0,0,-1,958,1205,0,0
-259,-181,0,0,0,0,0,0,0,0,0,-1,965,1205,0,0
-252,-181,0,0,0,0,0,0,0,0,0,-1,972,1205,0,0
-245,-181,0,0,0,0,0,0,0,0,0,-1,979,1205,0,0
-238,-181,0,0,0,0,0,0,0,0,0,-1,986,1205,0,0
-231,-181,0,0,0,0,0,0,0,0,0,-1,993,1205,0,0
-224,-181,0,0,0,0,0,0,0,0,0,-1,1000,1205,0,0
-217,-181,0,0,0,0,0,0,0,0,0,-1,1007,1205,0,0
-210,-181,0,0,0,0,0,0,0,0,0,-1,1014,1205,0,0
-203,-181,0,0,0,0,0,0,0,0,0,-1,1021,1205,0,0
-196,-181,0,0,0,0,0,0,0,0,0,-1,1028,1205,0,0
-189,-181,0,0,0,0,0,0,0,0,0,-1,1035,1205,0,0
-182,-181,0,0,0,0,0,0,0,0,0,-1,1042,1205,0,0
-175,-181,0,0,0,0,0,0,0,0,0,-1,1049,1205,0,0
-168,-181,0,0,0,0,0,0,0,0,0,-1,1056,1205,0,0
-161,-181,0,0,0,0,0,0,0,0,0,-1,1063,1205,0,0
-154,-181,0,0,0,0,0,0,0,0,0,-1,1070,1205,0,0
-147,-181,0,0,0,0,0,0,0,0,0,-1,1077,1205,0,0
-140,-181,0,0,0,0,0,0,0,0,0,-1,1084,1205,0,0
-133,-181,0,0,0,0,0,0,0,0,0,-1,1091,1205,0,0
-126,-181,0,0,0,0,0,0,0,0,0,-1,1098,1205,0,0
-119,-181,0,0,0,0,0,0,0,0,0,-1,1105,1205,0,0
-112,-181,0,0,0,0,0,0,0,0,0,-1,1112,1205,0,0
-105,-181,0,0,0,0,0,0,0,0,0,-1,1119,1205,0,0
-98,-181,0,0,0,0,0,0,0,0,0,-1,1126,1205,0,0
-91,-181,0,0,0,0,0,0,0,0,0,-1,1133,1205,0,0
-84,-181,0,0,0,0,0,0,0,0,0,-1,1140,1205,0,0
-77,-181,0,0,0,0,0,0,0,0,0,-1,1147,1205,0,0
-70,-181,0,0,0,0,0,0,0,0,0,-1,1154,1205,0,0
-63,-181,0,0,0,0,0,0,0,0,0,-1,1161,1205,0,0
-56,-181,0,0,0,0,0,0,0,0,0,-1,1168,1205,0,0
-49,-181,0,0,0,0,0,0,0,0,0,-1,1175,1205,0,0
-42,-181,0,0,0,0,0,0,0,0,0,-1,1182,1205,0,0
-35,-181,0,0,0,0,0,0,0,0,0,-1,1189,1205,0,0
-28,-181,0,0,0,0,0,0,0,0,0,-1,1196,1205,0,0
-21,-181,0,0,0,0,0,0,0,0,0,-1,1203,1205,0,0
-14,-181,0,0,0,0,0,0,0,0,0,-1,1210,1205,0,0
-7,-181,0,0,0,0,0,0,0,0,0,-1,1217,1205,0,0
0,-181,0,0,0,0,0,0,0,0,0,-1,1224,1205,0,0
7,-181,0,0,0,0,0,0,0,0,0,-1,1231,1205,0,0
14,-181,0,0,0,0,0,0,0,0,0,-1,1238,1205,0,0
21,-181,0,0,0,0,0,0,0,0,0,-1,1245,1205,0,0
28,-181,0,0,0,0,0,0,0,0,0,-1,1252,1205,0,0
35,-181,0,0,0,0,0,0,0,0,0,-1,1259,1205,0,0
42,-181,0,0,0,0,0,0,0,0,0,-1,1266,1205,0,0
49,-181,0,0,0,0,0,0,0,0,0,-1,1273,1205,0,0
56,-181,0,0,0,0,0,0,0,0,0,-1,1280,1205,0,0
63,-181,0,0,0,0,0,0,0,0,0,-1,1287,1205,0,0
70,-181,0,0,0,0,0,0,0,0,0,-1,1294,1205,0,0
77,-181,0,0,0,0,0,0,0,0,0,-1,1301,1205,0,0
84,-181,0,0,0,0,0,0,0,0,0,-1,1308,1205,0,0
91,-181,0,0,0,0,0,0,0,0,0,-1,1315,1205,0,0
98,-181,0,0,0,0,0,0,0,0,0,-1,1322,1205,0,0
105,-181,0,0,0,0,0,0,0,0,0,-1,1329,1205,0,0
112,-181,0,0,0,0,0,0,0,0,0,-1,1336,1205,0,0
119,-181,0,0,0,0,0,0,0,0,0,-1,1343,1205,0,0
126,-181,0,0,0,0,0,0,0,0,0,-1,1350,1205,0,0
133,-181,0,0,0,0,0,0,0,0,0,-1,1357,1205,0,0
140,-181,0,0,0,0,0,0,0,0,0,-1,1364,1205,0,0
147,-181,0,0,0,0,0,0,0,0,0,-1,1371,1205,0,0
154,-181,0,0,0,0,0,0,0,0,0,-1,1378,1205,0,0
161,-181,0,0,0,0,0,0,0,0,0,-1,1385,1205,0,0
168,-181,0,0,0,0,0,0,0,0,0,-1,1392,1205,0,0
175,-181,0,0,0,0,0,0,0,0,0,-1,1399,1205,0,0
182,-181,0,0,0,0,0,0,0,0,0,-1,1406,1205,0,0
189,-181,0,0,0,0,0,0,0,0,0,-1,1413,1205,0,0
196,-181,0,0,0,0,0,0,0,0,0,-1,1420,1205,0,0
203,-181,0,0,0,0,0,0,0,0,0,-1,1427,1205,0,0
210,-181,0,0,0,0,0,0,0,0,0,-1,1434,1205,0,0
217,-181,0,0,0,0,0,0,0,0,0,-1,1441,1205,0,0
224,-181,0,0,0,0,0,0,0,0,0,-1,1448,1205,0,0
231,-181,0,0,0,0,0,0,0,0,0,-1,1455,1205,0,0
238,-181,0,0,0,0,0,0,0,0,0,-1,1462,1205,0,0
245,-181,0,0,0,0,0,0,0,0,0,-1,1469,1205,0,0
252,-181,0,0,0,0,0,0,0,0,0,-1,1476,1205,0,0
259,-181,0,0,0,0,0,0,0,0,0,-1,1483,1205,0,0
266,-181,0,0,0,0,0,0,0,0,0,-1,1490,1205,0,0
273,-181,0,0,0,0,0,0,0,0,0,-1,1497,1205,0,0
280,-181,0,0,0,0,0,0,0,0,0,-1,1504,1205,0,0
287,-181,0,0,0,0,0,0,0,0,0,-1,1511,1205,0,0
294,-181,0,0,0,0,0,0,0,0,0,-1,1518,1205,0,0
301,-181,0,0,0,0,0,0,0,0,0,-1,1525,1205,0,0
308,-181,0,0,0,0,0,0,0,0,0,-1,1532,1205,0,0
315,-181,0,0,0,0,0,0,0,0,0,-1,1539,1205,0,0
322,-181,0,0,0,0,0,0,0,0,0,-1,1546,1205,0,0
329,-181,0,0,0,0,0,0,0,0,0,-1,1553,1205,0,0
336,-181,0,0,0,0,0,0,0,0,0,-1,1560,1205,0,0
343,-181,0,0,0,0,0,0,0,0,0,-1,1567,1205,0,0
350,-181,0,0,0,0,0,0,0,0,0,-1,1574,1205,0,0
357,-181,0,0,0,0,0,0,0,0,0,-1,1581,1205,0,0
364,-181,0,0,0,0,0,0,0,0,0,-1,1588,1205,0,0
371,-181,0,0,0,0,0,0,0,0,0,-1,1595,1205,0,0
378,-181,0,0,0,0,0,0,0,0,0,-1,1602,1205,0,0
385,-181,0,0,0,0,0,0,0,0,0,-1,1609,1205,0,0
392,-181,0,0,0,0,0,0,0,0,0,-1,1616,1205,0,0
399,-181,0,0,0,0,0,0,0,0,0,-1,1623,1205,0,0
406,-181,0,0,0,0,0,0,0,0,0,-1,1630,1205,0,0
413,-181,0,0,0,0,0,0,0,0,0,-1,1637,1205,0,0
420,-181,0,0,0,0,0,0,0,0,0,-1,1644,1205,0,0
427,-181,0,0,0,0,0,0,0,0,0,-1,1651,1205,0,0
434,-181,0,0,0,0,0,0,0,0,0,-1,1658,1205,0,0
441,-181,0,0,0,0,0,0,0,0,0,-1,1665,1205,0,0
448,-181,0,0,0,0,0,0,0,0,0,-1,1672,1205,0,0
455,-181,0,0,0,0,0,0,0,0,0,-1,1679,1205,0,0
462,-181,0,0,0,0,0,0,0,0,0,-1,1686,1205,0,0
469,-181,0,0,0,0,0,0,0,0,0,-1,1693,1205,0,0
476,-181,0,0,0,0,0,0,0,0,0,-1,1700,1205,0,0
483,-181,0,0,0,0,0,0,0,0,0,-1,1707,1205,0,0
490,-181,0,0,0,0,0,0,0,0,0,-1,1714,1205,0,0
497,-181,0,0,0,0,0,0,0,0,0,-1,1721,1205,0,0
504,-181,0,0,0,0,0,0,0,0,0,-1,1728,1205,0,0
511,-181,0,0,0,0,0,0,0,0,0,-1,1735,1205,0,0
518,-181,0,0,0,0,0,0,0,0,0,-1,1742,1205,0,0
525,-181,0,0,0,0,0,0,0,0,0,-1,1749,1205,0,0
532,-181,0,0,0,0,0,0,0,0,0,-1,1756,1205,0,0
539,-181,0,0,0,0,0,0,0,0,0,-1,1763,1205,0,0
546,-181,0,0,0,0,0,0,0,0,0,-1,1770,1205,0,0
553,-181,0,0,0,0,0,0,0,0,0,-1,1777,1205,0,0
560,-181,0,0,0,0,0,0,0,0,0,-1,1784,1205,0,0
567,-181,0,0,0,0,0,0,0,0,0,-1,1791,1205,0,0
574,-181,0,0,0,0,0,0,0,0,0,-1,1798,1205,0,0
581,-181,0,0,0,0,0,0,0,0,0,-1,1805,1205,0,0
588,-181,0,0,0,0,0,0,0,0,0,-1,1812,1205,0,0
595,-181,0,0,0,0,0,0,0,0,0,-1,1819,1205,0,0
602,-181,0,0,0,0,0,0,0,0,0,-1,1826,1205,0,0
609,-181,0,0,0,0,0,0,0,0,0,-1,1833,1205,0,0
616,-181,0,0,0,0,0,0,0,0,0,-1,1840,1205,0,0
623,-181,0,0,0,0,0,0,0,0,0,-1,1847,1205,0,0
630,-181,76.2299,2.12268,-0.00128816,-0.000253714,0.00398927,0.00325172,-0.0047936,0.849865,0.00467332,0.0363043,1854,1205,76.2298,-2.12273
637,-181,76.2686,2.0376,-0.0012472,-0.000289583,0.00300021,0.00226979,-0.00380657,0.864526,0.00354539,0.0374831,1861,1205,76.2685,-2.03763
644,-181,76.3131,2.04773,-0.000833941,0.000178349,0.00186123,0.00160103,-0.00225662,0.918158,0.00223791,0.0401621,1868,1205,76.3131,-2.04774
651,-181,76.3512,2.10205,-0.00013297,0.00101473,0.000511476,0.00120959,-0.000327828,1.2068,0.000935025,0.0411637,1875,1205,76.3512,-2.10204
658,-181,76.2563,2.32043,0.000564412,0.00191804,-0.000607337,0.00215059,0.000331866,-1.20512,0.0013369,0.0368452,1882,1205,76.2563,-2.32038
665,-181,76.2034,2.2572,0.000996653,0.00267191,-0.00117527,0.0032775,0.000391062,-1.095,0.00206701,0.0312083,1889,1205,76.2034,-2.25718
672,-181,76.2207,2.12207,0.00132398,0.00344073,-0.00135154,0.00409899,0.000665724,-1.11757,0.00254,0.0239376,1896,1205,76.2207,-2.12211
679,-181,76.2928,2.0177,0.00150593,0.00350253,-0.00129083,0.00413606,0.000872405,-1.11455,0.00251747,0.0415808,1903,1205,76.2929,-2.01775
686,-181,76.3788,1.94458,0,0,0,0,0,0,0,-1,1910,1205,76.3787,-1.94457
693,-181,36.1301,2.91016,0,0,0,0,0,0,0,-1,1917,1205,36.1302,-2.9102
700,-181,29.5845,6.58398,0,0,0,0,0,0,0,-1,1924,1205,29.5844,-6.58395
707,-181,55.4949,10.6722,0,0,0,0,0,0,0,-1,1931,1205,55.4949,-10.6722
714,-181,55.6268,10.3521,0,0,0,0,0,0,0,-1,1938,1205,55.6268,-10.3521
721,-181,51.2217,9.59631,0,0,0,0,0,0,0,-1,1945,1205,51.2217,-9.59637
728,-181,62.7953,9.6842,0,0,0,0,0,0,0,-1,1952,1205,62.7952,-9.68422
735,-181,62.775,8.98035,0.00177554,0.00347264,0.000492179,0.00360504,0.00164313,1.308,0.00208408,0.0188786,1959,1205,62.775,-8.98033
742,-181,62.7323,8.30249,0.00177807,0.00307014,0.000728843,0.00339805,0.00145016,1.14802,0.00196887,0.0186123,1966,1205,62.7323,-8.30243
749,-181,62.6865,7.5575,0.00253203,0.00357963,0.000817598,0.00402683,0.00208483,1.07029,0.00232538,0.0169404,1973,1205,62.6865,-7.55754
756,-181,62.6688,6.82874,0.00492867,0.00592264,0.000176472,0.00595304,0.00489826,1.4002,0.00366801,0.0127446,1980,1205,62.6688,-6.82871
763,-181,62.6812,6.12439,0.00844154,0.00920345,-0.000856456,0.00975985,0.00788513,-0.994661,0.00598042,0.0189724,1987,1205,62.6813,-6.12436
770,-181,62.7852,5.43335,0,0,0,0,0,0,0,-1,1994,1205,62.7852,-5.43336
777,-181,69.6453,-1.67188,0,0,0,0,0,0,0,-1,2001,1205,69.6452,1.6719
784,-181,68.8472,-0.41748,0,0,0,0,0,0,0,-1,2008,1205,68.8471,0.417431
791,-181,67.9812,0.871338,0,0,0,0,0,0,0,-1,2015,1205,67.9812,-0.871396
798,-181,64.188,1.08887,0,0,0,0,0,0,0,-1,2022,1205,64.1879,-1.08881
805,-181,0,0,0,0,0,0,0,0,0,-1,2029,1205,0,0
812,-181,0,0,0,0,0,0,0,0,0,-1,2036,1205,0,0
-700,-188,0,0,0,0,0,0,0,0,0,-1,524,1212,0,0
-693,-188,0,0,0,0,0,0,0,0,0,-1,531,1212,0,0
-686,-188,0,0,0,0,0,0,0,0,0,-1,538,1212,0,0
-679,-188,-44.9916,0.227295,-0.0384458,0.0709445,0.045168,0.0871839,-0.0546852,1.22565,0.0826214,0.0473551,545,1212,-44.9916,-0.227252
-672,-188,-45.6163,0.922119,-0.0312781,0.0618861,0.0357743,0.0740381,-0.0434301,1.24334,0.0685835,0.048605,552,1212,-45.6163,-0.922074
-665,-188,-45.8389,1.34021,0,0,0,0,0,0,0,-1,559,1212,-45.8389,-1.34024
-658,-188,-46.2953,1.5343,0,0,0,0,0,0,0,-1,566,1212,-46.2953,-1.53429
-651,-188,-46.0682,2.48315,-0.0129701,0.0336135,0.015224,0.0381476,-0.0175041,1.28134,0.0328591,0.0484471,573,1212,-46.0682,-2.48317
-644,-188,-45.748,3.5509,-0.00849213,0.0250173,0.0104327,0.0279999,-0.0114747,1.29233,0.0234469,0.0464131,580,1212,-45.748,-3.55095
-637,-188,-45.546,4.43726,-0.0049411,0.0173354,0.00645978,0.0190731,-0.00667877,1.30802,0.0154312,0.024409,587,1212,-45.546,-4.43727
-630,-188,-45.5649,5.14807,-0.0022184,0.010596,0.00243598,0.0110434,-0.00266585,1.38914,0.00839324,0.0113736,594,1212,-45.5649,-5.14812
-623,-188,-45.5926,5.89246,-0.00025023,0.00484,-0.000169472,0.00484563,-0.000255867,-1.53755,0.003319,0.0116324,601,1212,-45.5926,-5.89241
-616,-188,-45.6,6.6394,-0.000231913,0.00209231,-0.00141833,0.00276382,-0.000903422,-1.12861,0.00220623,0.0111734,608,1212,-45.6,-6.63939
-609,-188,-45.6074,7.42065,-0.00102887,0.00049261,-0.00252505,0.00236902,-0.00290529,-0.931712,0.00305037,0.0141422,615,1212,-45.6074,-7.42068
-602,-188,-45.5594,8.25732,-0.00164211,1.51271e-05,-0.00356825,0.00284971,-0.00447669,-0.899486,0.00426453,0.0298142,622,1212,-45.5595,-8.2573
-595,-188,-45.4808,9.25427,0,0,0,0,0,0,0,-1,629,1212,-45.4809,-9.25423
-588,-188,-46.0331,9.71191,-0.00188591,-0.000378288,-0.00333886,0.0022908,-0.004555,-0.896422,0.00402384,0.0294557,636,1212,-46.0332,-9.71187
-581,-188,-46.0861,10.3995,-0.0012815,-0.000327816,-0.00372104,0.00294681,-0.00455613,-0.849125,0.00436491,0.0327995,643,1212,-46.0861,-10.3996
-574,-188,-46.0967,11.0338,0,0,0,0,0,0,0,-1,650,1212,-46.0967,-11.0339
-567,-188,-19.5786,4.10388,0,0,0,0,0,0,0,-1,657,1212,-19.5785,-4.10383
-560,-188,-23.9507,0.416626,0,0,0,0,0,0,0,-1,664,1212,-23.9508,-0.416602
-553,-188,-49.2368,1.03101,0,0,0,0,0,0,0,-1,671,1212,-49.2367,-1.03099
-546,-188,-59.5986,0.420288,0,0,0,0,0,0,0,-1,678,1212,-59.5986,-0.42025
-539,-188,-59.4971,0.326904,-0.00135493,-0.00352595,-7.6681e-05,-0.00135223,-0.00352866,-0.0352617,0.00205571,0.0354091,685,1212,-59.4971,-0.326889
-532,-188,-59.4141,0.241211,-0.00177163,-0.00419216,0.00157756,-0.000993573,-0.00497022,0.458197,0.00303696,0.040489,692,1212,-59.414,-0.24122
-525,-188,-59.5559,0.281982,-0.00127119,-0.00488098,0.00403027,0.00133987,-0.00749205,0.574872,0.00549603,0.0419685,699,1212,-59.5559,-0.281981
-518,-188,-59.5789,0.467285,0.00101152,-0.00559885,0.0070223,0.00546758,-0.0100549,0.565443,0.00909143,0.0428241,706,1212,-59.5789,-0.467341
-511,-188,-59.5233,0.574097,0.0034692,-0.00651336,0.010267,0.00989389,-0.0129381,0.559146,0.013221,0.0405127,713,1212,-59.5233,-0.574112
-504,-188,0,0,0,0,0,0,0,0,0,-1,720,1212,0,0
-497,-188,0,0,0,0,0,0,0,0,0,-1,727,1212,0,0
-490,-188,0,0,0,0,0,0,0,0,0,-1,734,1212,0,0
-483,-188,0,0,0,0,0,0,0,0,0,-1,741,1212,0,0
-476,-188,0,0,0,0,0,0,0,0,0,-1,748,1212,0,0
-469,-188,0,0,0,0,0,0,0,0,0,-1,755,1212,0,0
-462,-188,0,0,0,0,0,0,0,0,0,-1,762,1212,0,0
-455,-188,0,0,0,0,0,0,0,0,0,-1,769,1212,0,0
-448,-188,0,0,0,0,0,0,0,0,0,-1,776,1212,0,0
-441,-188,0,0,0,0,0,0,0,0,0,-1,783,1212,0,0
-434,-188,0,0,0,0,0,0,0,0,0,-1,790,1212,0,0
-427,-188,0,0,0,0,0,0,0,0,0,-1,797,1212,0,0
-420,-188,0,0,0,0,0,0,0,0,0,-1,804,1212,0,0
-413,-188,0,0,0,0,0,0,0,0,0,-1,811,1212,0,0
-406,-188,0,0,0,0,0,0,0,0,0,-1,818,1212,0,0
-399,-188,0,0,0,0,0,0,0,0,0,-1,825,1212,0,0
-392,-188,0,0,0,0,0,0,0,0,0,-1,832,1212,0,0
-385,-188,0,0,0,0,0,0,0,0,0,-1,839,1212,0,0
-378,-188,0,0,0,0,0,0,0,0,0,-1,846,1212,0,0
-371,-188,0,0,0,0,0,0,0,0,0,-1,853,1212,0,0
-364,-188,0,0,0,0,0,0,0,0,0,-1,860,1212,0,0
-357,-188,0,0,0,0,0,0,0,0,0,-1,867,1212,0,0
-350,-188,0,0,0,0,0,0,0,0,0,-1,874,1212,0,0
-343,-188,0,0,0,0,0,0,0,0,0,-1,881,1212,0,0
-336,-188,0,0,0,0,0,0,0,0,0,-1,888,1212,0,0
-329,-188,0,0,0,0,0,0,0,0,0,-1,895,1212,0,0
-322,-188,0,0,0,0,0,0,0,0,0,-1,902,1212,0,0
-315,-188,0,0,0,0,0,0,0,0,0,-1,909,1212,0,0
-308,-188,0,0,0,0,0,0,0,0,0,-1,916,1212,0,0
-301,-188,0,0,0,0,0,0,0,0,0,-1,923,1212,0,0
-294,-188,0,0,0,0,0,0,0,0,0,-1,930,1212,0,0
-287,-188,0,0,0,0,0,0,0,0,0,-1,937,1212,0,0
-280,-188,0,0,0,0,0,0,0,0,0,-1,944,1212,0,0
-273,-188,0,0,0,0,0,0,0,0,0,-1,951,1212,0,0
-266,-188,0,0,0,0,0,0,0,0,0,-1,958,1212,0,0
-259,-188,0,0,0,0,0,0,0,0,0,-1,965,1212,0,0
-252,-188,0,0,0,0,0,0,0,0,0,-1,972,1212,0,0
-245,-188,0,0,0,0,0,0,0,0,0,-1,979,1212,0,0
-238,-188,0,0,0,0,0,0,0,0,0,-1,986,1212,0,0
-231,-188,0,0,0,0,0,0,0,0,0,-1,993,1212,0,0
-224,-188,0,0,0,0,0,0,0,0,0,-1,1000,1212,0,0
-217,-188,0,0,0,0,0,0,0,0,0,-1,1007,1212,0,0
-210,-188,0,0,0,0,0,0,0,0,0,-1,1014,1212,0,0
-203,-188,0,0,0,0,0,0,0,0,0,-1,1021,1212,0,0
-196,-188,0,0,0,0,0,0,0,0,0,-1,1028,1212,0,0
-189,-188,0,0,0,0,0,0,0,0,0,-1,1035,1212,0,0
-182,-188,0,0,0,0,0,0,0,0,0,-1,1042,1212,0,0
-175,-188,0,0,0,0,0,0,0,0,0,-1,1049,1212,0,0
-168,-188,0,0,0,0,0,0,0,0,0,-1,1056,1212,0,0
-161,-188,0,0,0,0,0,0,0,0,0,-1,1063,1212,0,0
-154,-188,0,0,0,0,0,0,0,0,0,-1,1070,1212,0,0
-147,-188,0,0,0,0,0,0,0,0,0,-1,1077,1212,0,0
-140,-188,0,0,0,0,0,0,0,0,0,-1,1084,1212,0,0
-133,-188,0,0,0,0,0,0,0,0,0,-1,1091,1212,0,0
-126,-188,0,0,0,0,0,0,0,0,0,-1,1098,1212,0,0
-119,-188,0,0,0,0,0,0,0,0,0,-1,1105,1212,0,0
-112,-188,0,0,0,0,0,0,0,0,0,-1,1112,1212,0,0
-105,-188,0,0,0,0,0,0,0,0,0,-1,1119,1212,0,0
-98,-188,0,0,0,0,0,0,0,0,0,-1,1126,1212,0,0
-91,-188,0,0,0,0,0,0,0,0,0,-1,1133,1212,0,0
-84,-188,0,0,0,0,0,0,0,0,0,-1,1140,1212,0,0
-77,-188,0,0,0,0,0,0,0,0,0,-1,1147,1212,0,0
-70,-188,0,0,0,0,0,0,0,0,0,-1,1154,1212,0,0
-63,-188,0,0,0,0,0,0,0,0,0,-1,1161,1212,0,0
-56,-188,0,0,0,0,0,0,0,0,0,-1,1168,1212,0,0
-49,-188,0,0,0,0,0,0,0,0,0,-1,1175,1212,0,0
-42,-188,0,0,0,0,0,0,0,0,0,-1,1182,1212,0,0
-35,-188,0,0,0,0,0,0,0,0,0,-1,1189,1212,0,0
-28,-188,0,0,0,0,0,0,0,0,0,-1,1196,1212,0,0
-21,-188,0,0,0,0,0,0,0,0,0,-1,1203,1212,0,0
-14,-188,0,0,0,0,0,0,0,0,0,-1,1210,1212,0,0
-7,-188,0,0,0,0,0,0,0,0,0,-1,1217,1212,0,0
0,-188,0,0,0,0,0,0,0,0,0,-1,1224,1212,0,0
7,-188,0,0,0,0,0,0,0,0,0,-1,1231,1212,0,0
14,-188,0,0,0,0,0,0,0,0,0,-1,1238,1212,0,0
21,-188,0,0,0,0,0,0,0,0,0,-1,1245,1212,0,0
28,-188,0,0,0,0,0,0,0,0,0,-1,1252,1212,0,0
35,-188,0,0,0,0,0,0,0,0,0,-1,1259,1212,0,0
42,-188,0,0,0,0,0,0,0,0,0,-1,1266,1212,0,0
49,-188,0,0,0,0,0,0,0,0,0,-1,1273,1212,0,0
56,-188,0,0,0,0,0,0,0,0,0,-1,1280,1212,0,0
63,-188,0,0,0,0,0,0,0,0,0,-1,1287,1212,0,0
70,-188,0,0,0,0,0,0,0,0,0,-1,1294,1212,0,0
77,-188,0,0,0,0,0,0,0,0,0,-1,1301,1212,0,0
84,-188,0,0,0,0,0,0,0,0,0,-1,1308,1212,0,0
91,-188,0,0,0,0,0,0,0,0,0,-1,1315,1212,0,0
98,-188,0,0,0,0,0,0,0,0,0,-1,1322,1212,0,0
105,-188,0,0,0,0,0,0,0,0,0,-1,1329,1212,0,0
112,-188,0,0,0,0,0,0,0,0,0,-1,1336,1212,0,0
119,-188,0,0,0,0,0,0,0,0,0,-1,1343,1212,0,0
126,-188,0,0,0,0,0,0,0,0,0,-1,1350,1212,0,0
133,-188,0,0,0,0,0,0,0,0,0,-1,1357,1212,0,0
140,-188,0,0,0,0,0,0,0,0,0,-1,1364,1212,0,0
147,-188,0,0,0,0,0,0,0,0,0,-1,1371,1212,0,0
154,-188,0,0,0,0,0,0,0,0,0,-1,1378,1212,0,0
161,-188,0,0,0,0,0,0,0,0,0,-1,1385,1212,0,0
168,-188,0,0,0,0,0,0,0,0,0,-1,1392,1212,0,0
175,-188,0,0,0,0,0,0,0,0,0,-1,1399,1212,0,0
182,-188,0,0,0,0,0,0,0,0,0,-1,1406,1212,0,0
189,-188,0,0,0,0,0,0,0,0,0,-1,1413,1212,0,0
196,-188,0,0,0,0,0,0,0,0,0,-1,1420,1212,0,0
203,-188,0,0,0,0,0,0,0,0,0,-1,1427,1212,0,0
210,-188,0,0,0,0,0,0,0,0,0,-1,1434,1212,0,0
217,-188,0,0,0,0,0,0,0,0,0,-1,1441,1212,0,0
224,-188,0,0,0,0,0,0,0,0,0,-1,1448,1212,0,0
231,-188,0,0,0,0,0,0,0,0,0,-1,1455,1212,0,0
238,-188,0,0,0,0,0,0,0,0,0,-1,1462,1212,0,0
245,-188,0,0,0,0,0,0,0,0,0,-1,1469,1212,0,0
252,-188,0,0,0,0,0,0,0,0,0,-1,1476,1212,0,0
259,-188,0,0,0,0,0,0,0,0,0,-1,1483,1212,0,0
266,-188,0,0,0,0,0,0,0,0,0,-1,1490,1212,0,0
273,-188,0,0,0,0,0,0,0,0,0,-1,1497,1212,0,0
280,-188,0,0,0,0,0,0,0,0,0,-1,1504,1212,0,0
287,-188,0,0,0,0,0,0,0,0,0,-1,1511,1212,0,0
294,-188,0,0,0,0,0,0,0,0,0,-1,1518,1212,0,0
301,-188,0,0,0,0,0,0,0,0,0,-1,1525,1212,0,0
308,-188,0,0,0,0,0,0,0,0,0,-1,1532,1212,0,0
315,-188,0,0,0,0,0,0,0,0,0,-1,1539,1212,0,0
322,-188,0,0,0,0,0,0,0,0,0,-1,1546,1212,0,0
329,-188,0,0,0,0,0,0,0,0,0,-1,1553,1212,0,0
336,-188,0,0,0,0,0,0,0,0,0,-1,1560,1212,0,0
343,-188,0,0,0,0,0,0,0,0,0,-1,1567,1212,0,0
350,-188,0,0,0,0,0,0,0,0,0,-1,1574,1212,0,0
357,-188,0,0,0,0,0,0,0,0,0,-1,1581,1212,0,0
364,-188,0,0,0,0,0,0,0,0,0,-1,1588,1212,0,0
371,-188,0,0,0,0,0,0,0,0,0,-1,1595,1212,0,0
378,-188,0,0,0,0,0,0,0,0,0,-1,1602,1212,0,0
385,-188,0,0,0,0,0,0,0,0,0,-1,1609,1212,0,0
392,-188,0,0,0,0,0,0,0,0,0,-1,1616,1212,0,0
399,-188,0,0,0,0,0,0,0,0,0,-1,1623,1212,0,0
406,-188,0,0,0,0,0,0,0,0,0,-1,1630,1212,0,0
413,-188,0,0,0,0,0,0,0,0,0,-1,1637,1212,0,0
420,-188,0,0,0,0,0,0,0,0,0,-1,1644,1212,0,0
427,-188,0,0,0,0,0,0,0,0,0,-1,1651,1212,0,0
434,-188,0,0,0,0,0,0,0,0,0,-1,1658,1212,0,0
441,-188,0,0,0,0,0,0,0,0,0,-1,1665,1212,0,0
448,-188,0,0,0,0,0,0,0,0,0,-1,1672,1212,0,0
455,-188,0,0,0,0,0,0,0,0,0,-1,1679,1212,0,0
462,-188,0,0,0,0,0,0,0,0,0,-1,1686,1212,0,0
469,-188,0,0,0,0,0,0,0,0,0,-1,1693,1212,0,0
476,-188,0,0,0,0,0,0,0,0,0,-1,1700,1212,0,0
483,-188,0,0,0,0,0,0,0,0,0,-1,1707,1212,0,0
490,-188,0,0,0,0,0,0,0,0,0,-1,1714,1212,0,0
497,-188,0,0,0,0,0,0,0,0,0,-1,1721,1212,0,0
504,-188,0,0,0,0,0,0,0,0,0,-1,1728,1212,0,0
511,-188,0,0,0,0,0,0,0,0,0,-1,1735,1212,0,0
518,-188,0,0,0,0,0,0,0,0,0,-1,1742,1212,0,0
525,-188,0,0,0,0,0,0,0,0,0,-1,1749,1212,0,0
532,-188,0,0,0,0,0,0,0,0,0,-1,1756,1212,0,0
539,-188,0,0,0,0,0,0,0,0,0,-1,1763,1212,0,0
546,-188,0,0,0,0,0,0,0,0,0,-1,1770,1212,0,0
553,-188,0,0,0,0,0,0,0,0,0,-1,1777,1212,0,0
560,-188,0,0,0,0,0,0,0,0,0,-1,1784,1212,0,0
567,-188,0,0,0,0,0,0,0,0,0,-1,1791,1212,0,0
574,-188,0,0,0,0,0,0,0,0,0,-1,1798,1212,0,0
581,-188,0,0,0,0,0,0,0,0,0,-1,1805,1212,0,0
588,-188,0,0,0,0,0,0,0,0,0,-1,1812,1212,0,0
595,-188,0,0,0,0,0,0,0,0,0,-1,1819,1212,0,0
602,-188,0,0,0,0,0,0,0,0,0,-1,1826,1212,0,0
609,-188,0,0,0,0,0,0,0,0,0,-1,1833,1212,0,0
616,-188,0,0,0,0,0,0,0,0,0,-1,1840,1212,0,0
623,-188,0,0,0,0,0,0,0,0,0,-1,1847,1212,0,0
630,-188,76.3168,2.01245,-0.00103476,-0.00028986,0.00412709,0.00348156,-0.00480618,0.830399,0.00480525,0.0389422,1854,1212,76.3168,-2.01239
637,-188,76.2874,2.04504,-0.000931279,8.85355e-06,0.00290698,0.00248353,-0.00340595,0.865556,0.00341417,0.0393232,1861,1212,76.2873,-2.04505
644,-188,76.1824,2.06934,-0.000512601,0.000717239,0.00153901,0.00175963,-0.00155499,0.97546,0.00191491,0.0363049,1868,1212,76.1824,-2.06939
651,-188,76.2247,2.05554,0.000161619,0.00169954,2.05162e-06,0.00169955,0.000161616,1.56946,0.00108319,0.0328459,1875,1212,76.2247,-2.05553
658,-188,76.2179,2.07446,0.000616269,0.00244368,-0.000922434,0.00282834,0.000231614,-1.17572,0.00181329,0.0329484,1882,1212,76.2179,-2.07442
665,-188,76.1763,2.1499,0.000743573,0.00286349,-0.00115603,0.00337195,0.00023512,-1.15643,0.00217383,0.0298656,1889,1212,76.1762,-2.14993
672,-188,76.2111,2.04907,0.000887731,0.00330714,-0.0010649,0.00370908,0.000485792,-1.20988,0.00232775,0.0246573,1896,1212,76.2111,-2.04905
679,-188,76.3169,2.08118,0,0,0,0,0,0,0,-1,1903,1212,76.3169,-2.08123
686,-188,60.1007,2.41321,0,0,0,0,0,0,0,-1,1910,1212,60.1007,-2.41325
693,-188,35.9054,2.18042,0,0,0,0,0,0,0,-1,1917,1212,35.9054,-2.18038
700,-188,54.452,11.2678,0,0,0,0,0,0,0,-1,1924,1212,54.452,-11.2678
707,-188,62.4385,12.1448,0,0,0,0,0,0,0,-1,1931,1212,62.4385,-12.1447
714,-188,54.7506,10.1539,0,0,0,0,0,0,0,-1,1938,1212,54.7507,-10.1539
721,-188,61.637,10.8645,0,0,0,0,0,0,0,-1,1945,1212,61.6369,-10.8645
728,-188,62.036,9.83472,0.00148745,0.00337157,0.000289804,0.00341514,0.00144388,1.42158,0.00197955,0.0344625,1952,1212,62.036,-9.83477
735,-188,62.0514,9.04272,0.00146692,0.00315973,0.000604419,0.00335339,0.00127326,1.26073,0.00195467,0.014385,1959,1212,62.0514,-9.04272
742,-188,61.9872,8.31396,0.00165835,0.00279099,0.000781351,0.00318967,0.00125967,1.09899,0.00185506,0.0154831,1966,1212,61.9871,-8.31394
749,-188,61.9634,7.59021,0.00262919,0.00303686,0.000957639,0.00381212,0.00185393,0.890261,0.0022012,0.015077,1973,1212,61.9634,-7.59019
756,-188,61.9318,6.85254,0.00531407,0.0043224,0.000701674,0.00567742,0.00395905,0.477813,0.00336188,0.0142879,1980,1212,61.9317,-6.85252
763,-188,61.9277,6.13293,0.00915369,0.00630428,0.000273511,0.0091797,0.00627826,0.0948349,0.00541811,0.0205301,1987,1212,61.9277,-6.13294
770,-188,61.9771,5.43042,0,0,0,0,0,0,0,-1,1994,1212,61.977,-5.43044
777,-188,61.4719,4.67664,0,0,0,0,0,0,0,-1,2001,1212,61.4719,-4.67659
784,-188,69.1482,-1.87268,0,0,0,0,0,0,0,-1,2008,1212,69.1481,1.87266
791,-188,68.3596,-0.192261,0,0,0,0,0,0,0,-1,2015,1212,68.3596,0.192286
798,-188,67.5286,1.23303,0,0,0,0,0,0,0,-1,2022,1212,67.5285,-1.23298
805,-188,0,0,0,0,0,0,0,0,0,-1,2029,1212,0,0
812,-188,0,0,0,0,0,0,0,0,0,-1,2036,1212,0,0
-700,-195,0,0,0,0,0,0,0,0,0,-1,524,1219,0,0
-693,-195,0,0,0,0,0,0,0,0,0,-1,531,1219,0,0
-686,-195,0,0,0,0,0,0,0,0,0,-1,538,1219,0,0
-679,-195,-44.2733,-0.262695,0,0,0,0,0,0,0,-1,545,1219,-44.2733,0.262648
-672,-195,-45.2201,0.631958,0,0,0,0,0,0,0,-1,552,1219,-45.2201,-0.632012
-665,-195,-46.6998,4.67078,0,0,0,0,0,0,0,-1,559,1219,-46.6998,-4.67073
-658,-195,-45.3693,1.47375,0,0,0,0,0,0,0,-1,566,1219,-45.3693,-1.47377
-651,-195,-45.1137,2.40332,-0.0118141,0.0333288,0.0164265,0.0386733,-0.0171586,1.25624,0.0330227,0.0451716,573,1219,-45.1137,-2.40328
-644,-195,-44.8759,3.4563,-0.00740263,0.0250331,0.0115404,0.02872,-0.0110896,1.26157,0.0237235,0.0478302,580,1219,-44.8758,-3.45635
-637,-195,-44.6696,4.47412,-0.00385106,0.017405,0.00742476,0.0197416,-0.00618768,1.2659,0.0156372,0.0266107,587,1219,-44.6695,-4.47412
-630,-195,-44.7671,5.17236,-0.00115185,0.01078,0.0033008,0.0116322,-0.0020041,1.31812,0.00850195,0.0098574,594,1219,-44.7671,-5.17231
-623,-195,-44.8102,5.92493,0.000870011,0.0049729,0.000543785,0.00504375,0.000799163,1.44124,0.0031303,0.00939783,601,1219,-44.8102,-5.92495
-616,-195,-44.8312,6.69128,0.000930159,0.00223659,-0.000845172,0.00265155,0.000515195,-1.11439,0.00162345,0.0110094,608,1219,-44.8312,-6.69132
-609,-195,-44.8307,7.4884,0.000172743,0.000534406,-0.00204059,0.00240216,-0.00169501,-0.829591,0.00237722,0.0191693,615,1219,-44.8307,-7.48839
-602,-195,-44.8835,8.21411,-0.000549198,-0.0001783,-0.00329894,0.0029404,-0.0036679,-0.813476,0.003823,0.0248788,622,1219,-44.8835,-8.21416
-595,-195,-44.9346,9.02295,0,0,0,0,0,0,0,-1,629,1219,-44.9346,-9.0229
-588,-195,-45.1468,9.8916,0,0,0,0,0,0,0,-1,636,1219,-45.1468,-9.89158
-581,-195,-45.1207,10.4244,0,0,0,0,0,0,0,-1,643,1219,-45.1207,-10.4244
-574,-195,-45.329,10.9236,0,0,0,0,0,0,0,-1,650,1219,-45.329,-10.9236
-567,-195,-20.6388,3.78369,0,0,0,0,0,0,0,-1,657,1219,-20.6388,-3.78369
-560,-195,-20.878,2.10388,0,0,0,0,0,0,0,-1,664,1219,-20.878,-2.10385
-553,-195,-41.595,0.613281,0,0,0,0,0,0,0,-1,671,1219,-41.595,-0.61334
-546,-195,-59.4969,0.556885,0,0,0,0,0,0,0,-1,678,1219,-59.4969,-0.556864
-539,-195,-59.5002,0.376831,-0.00136986,-0.00500472,0.000626117,-0.00126503,-0.00510955,0.165886,0.00307275,0.0426648,685,1219,-59.5002,-0.376799
-532,-195,-59.4483,0.219727,-0.00211455,-0.00588196,0.00240062,-0.000946811,-0.0070497,0.452735,0.00441815,0.0362674,692,1219,-59.4483,-0.21976
-525,-195,-59.3283,0.130737,-0.00255567,-0.00666298,0.00509196,0.000881174,-0.0100998,0.593719,0.00704533,0.041826,699,1219,-59.3283,-0.130778
-518,-195,-59.5363,0.657104,-0.00182971,-0.00697652,0.00852747,0.00450419,-0.0133104,0.638855,0.010696,0.0439245,706,1219,-59.5363,-0.657054
-511,-195,-59.424,0.688843,-0.000496456,-0.0073744,0.0124708,0.00900085,-0.0168717,0.650861,0.0151662,0.0431132,713,1219,-59.424,-0.688883
-504,-195,0,0,0,0,0,0,0,0,0,-1,720,1219,0,0
-497,-195,0,0,0,0,0,0,0,0,0,-1,727,1219,0,0
-490,-195,0,0,0,0,0,0,0,0,0,-1,734,1219,0,0
-483,-195,0,0,0,0,0,0,0,0,0,-1,741,1219,0,0
-476,-195,0,0,0,0,0,0,0,0,0,-1,748,1219,0,0
-469,-195,0,0,0,0,0,0,0,0,0,-1,755,1219,0,0
-462,-195,0,0,0,0,0,0,0,0,0,-1,762,1219,0,0
-455,-195,0,0,0,0,0,0,0,0,0,-1,769,1219,0,0
-448,-195,0,0,0,0,0,0,0,0,0,-1,776,1219,0,0
-441,-195,0,0,0,0,0,0,0,0,0,-1,783,1219,0,0
-434,-195,0,0,0,0,0,0,0,0,0,-1,790,1219,0,0
-427,-195,0,0,0,0,0,0,0,0,0,-1,797,1219,0,0
-420,-195,0,0,0,0,0,0,0,0,0,-1,804,1219,0,0
-413,-195,0,0,0,0,0,0,0,0,0,-1,811,1219,0,0
-406,-195,0,0,0,0,0,0,0,0,0,-1,818,1219,0,0
-399,-195,0,0,0,0,0,0,0,0,0,-1,825,1219,0,0
-392,-195,0,0,0,0,0,0,0,0,0,-1,832,1219,0,0
-385,-195,0,0,0,0,0,0,0,0,0,-1,839,1219,0,0
-378,-195,0,0,0,0,0,0,0,0,0,-1,846,1219,0,0
-371,-195,0,0,0,0,0,0,0,0,0,-1,853,1219,0,0
-364,-195,0,0,0,0,0,0,0,0,0,-1,860,1219,0,0
-357,-195,0,0,0,0,0,0,0,0,0,-1,867,1219,0,0
-350,-195,0,0,0,0,0,0,0,0,0,-1,874,1219,0,0
-343,-195,0,0,0,0,0,0,0,0,0,-1,881,1219,0,0
-336,-195,0,0,0,0,0,0,0,0,0,-1,888,1219,0,0
-329,-195,0,0,0,0,0,0,0,0,0,-1,895,1219,0,0
-322,-195,0,0,0,0,0,0,0,0,0,-1,902,1219,0,0
-315,-195,0,0,0,0,0,0,0,0,0,-1,909,1219,0,0
-308,-195,0,0,0,0,0,0,0,0,0,-1,916,1219,0,0
-301,-195,0,0,0,0,0,0,0,0,0,-1,923,1219,0,0
-294,-195,0,0,0,0,0,0,0,0,0,-1,930,1219,0,0
-287,-195,0,0,0,0,0,0,0,0,0,-1,937,1219,0,0
-280,-195,0,0,0,0,0,0,0,0,0,-1,944,1219,0,0
-273,-195,0,0,0,0,0,0,0,0,0,-1,951,1219,0,0
-266,-195,0,0,0,0,0,0,0,0,0,-1,958,1219,0,0
-259,-195,0,0,0,0,0,0,0,0,0,-1,965,1219,0,0
-252,-195,0,0,0,0,0,0,0,0,0,-1,972,1219,0,0
-245,-195,0,0,0,0,0,0,0,0,0,-1,979,1219,0,0
-238,-195,0,0,0,0,0,0,0,0,0,-1,986,1219,0,0
-231,-195,0,0,0,0,0,0,0,0,0,-1,993,1219,0,0
-224,-195,0,0,0,0,0,0,0,0,0,-1,1000,1219,0,0
-217,-195,0,0,0,0,0,0,0,0,0,-1,1007,1219,0,0
-210,-195,0,0,0,0,0,0,0,0,0,-1,1014,1219,0,0
-203,-195,0,0,0,0,0,0,0,0,0,-1,1021,1219,0,0
-196,-195,0,0,0,0,0,0,0,0,0,-1,1028,1219,0,0
-189,-195,0,0,0,0,0,0,0,0,0,-1,1035,1219,0,0
-182,-195,0,0,0,0,0,0,0,0,0,-1,1042,1219,0,0
-175,-195,0,0,0,0,0,0,0,0,0,-1,1049,1219,0,0
-168,-195,0,0,0,0,0,0,0,0,0,-1,1056,1219,0,0
-161,-195,0,0,0,0,0,0,0,0,0,-1,1063,1219,0,0
-154,-195,0,0,0,0,0,0,0,0,0,-1,1070,1219,0,0
-147,-195,0,0,0,0,0,0,0,0,0,-1,1077,1219,0,0
-140,-195,0,0,0,0,0,0,0,0,0,-1,1084,1219,0,0
-133,-195,0,0,0,0,0,0,0,0,0,-1,1091,1219,0,0
-126,-195,0,0,0,0,0,0,0,0,0,-1,1098,1219,0,0
-119,-195,0,0,0,0,0,0,0,0,0,-1,1105,1219,0,0
-112,-195,0,0,0,0,0,0,0,0,0,-1,1112,1219,0,0
-105,-195,0,0,0,0,0,0,0,0,0,-1,1119,1219,0,0
-98,-195,0,0,0,0,0,0,0,0,0,-1,1126,1219,0,0
-91,-195,0,0,0,0,0,0,0,0,0,-1,1133,1219,0,0
-84,-195,0,0,0,0,0,0,0,0,0,-1,1140,1219,0,0
-77,-195,0,0,0,0,0,0,0,0,0,-1,1147,1219,0,0
-70,-195,0,0,0,0,0,0,0,0,0,-1,1154,1219,0,0
-63,-195,0,0,0,0,0,0,0,0,0,-1,1161,1219,0,0
-56,-195,0,0,0,0,0,0,0,0,0,-1,1168,1219,0,0
-49,-195,0,0,0,0,0,0,0,0,0,-1,1175,1219,0,0
-42,-195,0,0,0,0,0,0,0,0,0,-1,1182,1219,0,0
-35,-195,0,0,0,0,0,0,0,0,0,-1,1189,1219,0,0
-28,-195,0,0,0,0,0,0,0,0,0,-1,1196,1219,0,0
-21,-195,0,0,0,0,0,0,0,0,0,-1,1203,1219,0,0
-14,-195,0,0,0,0,0,0,0,0,0,-1,1210,1219,0,0
-7,-195,0,0,0,0,0,0,0,0,0,-1,1217,1219,0,0
0,-195,0,0,0,0,0,0,0,0,0,-1,1224,1219,0,0
7,-195,0,0,0,0,0,0,0,0,0,-1,1231,1219,0,0
14,-195,0,0,0,0,0,0,0,0,0,-1,1238,1219,0,0
21,-195,0,0,0,0,0,0,0,0,0,-1,1245,1219,0,0
28,-195,0,0,0,0,0,0,0,0,0,-1,1252,1219,0,0
35,-195,0,0,0,0,0,0,0,0,0,-1,1259,1219,0,0
42,-195,0,0,0,0,0,0,0,0,0,-1,1266,1219,0,0
49,-195,0,0,0,0,0,0,0,0,0,-1,1273,1219,0,0
56,-195,0,0,0,0,0,0,0,0,0,-1,1280,1219,0,0
63,-195,0,0,0,0,0,0,0,0,0,-1,1287,1219,0,0
70,-195,0,0,0,0,0,0,0,0,0,-1,1294,1219,0,0
77,-195,0,0,0,0,0,0,0,0,0,-1,1301,1219,0,0
84,-195,0,0,0,0,0,0,0,0,0,-1,1308,1219,0,0
91,-195,0,0,0,0,0,0,0,0,0,-1,1315,1219,0,0
98,-195,0,0,0,0,0,0,0,0,0,-1,1322,1219,0,0
105,-195,0,0,0,0,0,0,0,0,0,-1,1329,1219,0,0
112,-195,0,0,0,0,0,0,0,0,0,-1,1336,1219,0,0
119,-195,0,0,0,0,0,0,0,0,0,-1,1343,1219,0,0
126,-195,0,0,0,0,0,0,0,0,0,-1,1350,1219,0,0
133,-195,0,0,0,0,0,0,0,0,0,-1,1357,1219,0,0
140,-195,0,0,0,0,0,0,0,0,0,-1,1364,1219,0,0
147,-195,0,0,0,0,0,0,0,0,0,-1,1371,1219,0,0
154,-195,0,0,0,0,0,0,0,0,0,-1,1378,1219,0,0
161,-195,0,0,0,0,0,0,0,0,0,-1,1385,1219,0,0
168,-195,0,0,0,0,0,0,0,0,0,-1,1392,1219,0,0
175,-195,0,0,0,0,0,0,0,0,0,-1,1399,1219,0,0
182,-195,0,0,0,0,0,0,0,0,0,-1,1406,1219,0,0
189,-195,0,0,0,0,0,0,0,0,0,-1,1413,1219,0,0
196,-195,0,0,0,0,0,0,0,0,0,-1,1420,1219,0,0
203,-195,0,0,0,0,0,0,0,0,0,-1,1427,1219,0,0
210,-195,0,0,0,0,0,0,0,0,0,-1,1434,1219,0,0
217,-195,0,0,0,0,0,0,0,0,0,-1,1441,1219,0,0
224,-195,0,0,0,0,0,0,0,0,0,-1,1448,1219,0,0
231,-195,0,0,0,0,0,0,0,0,0,-1,1455,1219,0,0
238,-195,0,0,0,0,0,0,0,0,0,-1,1462,1219,0,0
245,-195,0,0,0,0,0,0,0,0,0,-1,1469,1219,0,0
252,-195,0,0,0,0,0,0,0,0,0,-1,1476,1219,0,0
259,-195,0,0,0,0,0,0,0,0,0,-1,1483,1219,0,0
266,-195,0,0,0,0,0,0,0,0,0,-1,1490,1219,0,0
273,-195,0,0,0,0,0,0,0,0,0,-1,1497,1219,0,0
280,-195,0,0,0,0,0,0,0,0,0,-1,1504,1219,0,0
287,-195,0,0,0,0,0,0,0,0,0,-1,1511,1219,0,0
294,-195,0,0,0,0,0,0,0,0,0,-1,1518,1219,0,0
301,-195,0,0,0,0,0,0,0,0,0,-1,1525,1219,0,0
308,-195,0,0,0,0,0,0,0,0,0,-1,1532,1219,0,0
315,-195,0,0,0,0,0,0,0,0,0,-1,1539,1219,0,0
322,-195,0,0,0,0,0,0,0,0,0,-1,1546,1219,0,0
329,-195,0,0,0,0,0,0,0,0,0,-1,1553,1219,0,0
336,-195,0,0,0,0,0,0,0,0,0,-1,1560,1219,0,0
343,-195,0,0,0,0,0,0,0,0,0,-1,1567,1219,0,0
350,-195,0,0,0,0,0,0,0,0,0,-1,1574,1219,0,0
357,-195,0,0,0,0,0,0,0,0,0,-1,1581,1219,0,0
364,-195,0,0,0,0,0,0,0,0,0,-1,1588,1219,0,0
371,-195,0,0,0,0,0,0,0,0,0,-1,1595,1219,0,0
378,-195,0,0,0,0,0,0,0,0,0,-1,1602,1219,0,0
385,-195,0,0,0,0,0,0,0,0,0,-1,1609,1219,0,0
392,-195,0,0,0,0,0,0,0,0,0,-1,1616,1219,0,0
399,-195,0,0,0,0,0,0,0,0,0,-1,1623,1219,0,0
406,-195,0,0,0,0,0,0,0,0,0,-1,1630,1219,0,0
413,-195,0,0,0,0,0,0,0,0,0,-1,1637,1219,0,0
420,-195,0,0,0,0,0,0,0,0,0,-1,1644,1219,0,0
427,-195,0,0,0,0,0,0,0,0,0,-1,1651,1219,0,0
434,-195,0,0,0,0,0,0,0,0,0,-1,1658,1219,0,0
441,-195,0,0,0,0,0,0,0,0,0,-1,1665,1219,0,0
448,-195,0,0,0,0,0,0,0,0,0,-1,1672,1219,0,0
455,-195,0,0,0,0,0,0,0,0,0,-1,1679,1219,0,0
462,-195,0,0,0,0,0,0,0,0,0,-1,1686,1219,0,0
469,-195,0,0,0,0,0,0,0,0,0,-1,1693,1219,0,0
476,-195,0,0,0,0,0,0,0,0,0,-1,1700,1219,0,0
483,-195,0,0,0,0,0,0,0,0,0,-1,1707,1219,0,0
490,-195,0,0,0,0,0,0,0,0,0,-1,1714,1219,0,0
497,-195,0,0,0,0,0,0,0,0,0,-1,1721,1219,0,0
504,-195,0,0,0,0,0,0,0,0,0,-1,1728,1219,0,0
511,-195,0,0,0,0,0,0,0,0,0,-1,1735,1219,0,0
518,-195,0,0,0,0,0,0,0,0,0,-1,1742,1219,0,0
525,-195,0,0,0,0,0,0,0,0,0,-1,1749,1219,0,0
532,-195,0,0,0,0,0,0,0,0,0,-1,1756,1219,0,0
539,-195,0,0,0,0,0,0,0,0,0,-1,1763,1219,0,0
546,-195,0,0,0,0,0,0,0,0,0,-1,1770,1219,0,0
553,-195,0,0,0,0,0,0,0,0,0,-1,1777,1219,0,0
560,-195,0,0,0,0,0,0,0,0,0,-1,1784,1219,0,0
567,-195,0,0,0,0,0,0,0,0,0,-1,1791,1219,0,0
574,-195,0,0,0,0,0,0,0,0,0,-1,1798,1219,0,0
581,-195,0,0,0,0,0,0,0,0,0,-1,1805,1219,0,0
588,-195,0,0,0,0,0,0,0,0,0,-1,1812,1219,0,0
595,-195,0,0,0,0,0,0,0,0,0,-1,1819,1219,0,0
602,-195,0,0,0,0,0,0,0,0,0,-1,1826,1219,0,0
609,-195,0,0,0,0,0,0,0,0,0,-1,1833,1219,0,0
616,-195,0,0,0,0,0,0,0,0,0,-1,1840,1219,0,0
623,-195,0,0,0,0,0,0,0,0,0,-1,1847,1219,0,0
630,-195,76.312,2.05139,-0.000788638,5.03496e-05,0.00403604,0.00368863,-0.00442692,0.837181,0.00469198,0.0413594,1854,1219,76.312,-2.05134
637,-195,76.3224,2.13672,-0.00075028,0.000550291,0.00260099,0.00258105,-0.00278104,0.907894,0.00309653,0.0387013,1861,1219,76.3224,-2.13672
644,-195,76.2758,2.11438,-0.000401973,0.00137645,0.00104087,0.00185622,-0.000881744,1.13889,0.00161379,0.03472,1868,1219,76.2758,-2.11444
651,-195,76.2855,2.11121,0.000199459,0.00230262,-0.000536319,0.00243149,7.05904e-05,-1.33498,0.00159798,0.0287764,1875,1219,76.2856,-2.11119
658,-195,76.2554,2.10486,0.000467926,0.0026915,-0.00109386,0.00313939,2.00355e-05,-1.18216,0.00208628,0.0255816,1882,1219,76.2554,-2.10484
665,-195,76.2292,2.10742,0.00047115,0.00275609,-0.000998342,0.00313083,9.64107e-05,-1.21171,0.00205584,0.0233938,1889,1219,76.2292,-2.10748
672,-195,76.2976,1.94434,0.000590694,0.00295217,-0.000742454,0.0031662,0.000376664,-1.29013,0.00199712,0.0370819,1896,1219,76.2977,-1.94438
679,-195,76.325,1.75317,0,0,0,0,0,0,0,-1,1903,1219,76.325,-1.75313
686,-195,51.2117,1.94312,0,0,0,0,0,0,0,-1,1910,1219,51.2117,-1.9431
693,-195,24.4368,5.68298,0,0,0,0,0,0,0,-1,1917,1219,24.4368,-5.68293
700,-195,61.5626,12.8521,0,0,0,0,0,0,0,-1,1924,1219,61.5626,-12.8521
707,-195,61.5713,12.0527,0,0,0,0,0,0,0,-1,1931,1219,61.5713,-12.0528
714,-195,61.6036,11.7446,0,0,0,0,0,0,0,-1,1938,1219,61.6036,-11.7447
721,-195,61.2588,10.713,0,0,0,0,0,0,0,-1,1945,1219,61.2588,-10.713
728,-195,61.3378,9.85376,0.00110127,0.00286619,0.000696768,0.00310811,0.000859352,1.23662,0.00185327,0.0128851,1952,1219,61.3378,-9.85376
735,-195,61.3313,9.04333,0.00108709,0.00262859,0.000925228,0.00306204,0.000653637,1.13268,0.00186212,0.0133364,1959,1219,61.3313,-9.04337
742,-195,61.2653,8.32739,0.00131624,0.00226256,0.00109604,0.00298321,0.000595592,0.989163,0.001823,0.015111,1966,1219,61.2653,-8.32743
749,-195,61.2092,7.63818,0.00219029,0.002373,0.00134836,0.0036331,0.0009302,0.819223,0.00217921,0.014948,1973,1219,61.2092,-7.63823
756,-195,61.2068,6.9104,0.00449488,0.00331164,0.00129952,0.00533111,0.00247541,0.571789,0.00308053,0.0149582,1980,1219,61.2068,-6.91038
763,-195,61.217,6.1377,0.0078022,0.00485233,0.00124722,0.00825884,0.00439569,0.35097,0.00477155,0.0230637,1987,1219,61.2171,-6.13764
770,-195,61.095,5.4873,0,0,0,0,0,0,0,-1,1994,1219,61.0949,-5.48725
777,-195,61.0623,5.0022,0,0,0,0,0,0,0,-1,2001,1219,61.0622,-5.00217
784,-195,69.7437,-3.15942,0,0,0,0,0,0,0,-1,2008,1219,69.7437,3.15944
791,-195,68.9104,-1.24268,0,0,0,0,0,0,0,-1,2015,1219,68.9103,1.24264
798,-195,66.05,2.49902,0,0,0,0,0,0,0,-1,2022,1219,66.0501,-2.499
805,-195,0,0,0,0,0,0,0,0,0,-1,2029,1219,0,0
812,-195,0,0,0,0,0,0,0,0,0,-1,2036,1219,0,0
-700,-202,0,0,0,0,0,0,0,0,0,-1,524,1226,0,0
-693,-202,0,0,0,0,0,0,0,0,0,-1,531,1226,0,0
-686,-202,0,0,0,0,0,0,0,0,0,-1,538,1226,0,0
-679,-202,-44.165,-2.40588,0,0,0,0,0,0,0,-1,545,1226,-44.1651,2.4059
-672,-202,-43.8438,-2.58093,0,0,0,0,0,0,0,-1,552,1226,-43.8437,2.58095
-665,-202,-47.0174,4.41162,0,0,0,0,0,0,0,-1,559,1226,-47.0174,-4.41162
-658,-202,-48.6339,4.83545,0,0,0,0,0,0,0,-1,566,1226,-48.6338,-4.83547
-651,-202,-44.1332,2.57898,0,0,0,0,0,0,0,-1,573,1226,-44.1332,-2.57897
-644,-202,-43.988,3.51306,0,0,0,0,0,0,0,-1,580,1226,-43.988,-3.51311
-637,-202,-43.8705,4.50732,0,0,0,0,0,0,0,-1,587,1226,-43.8705,-4.5073
-630,-202,-43.9998,5.15784,-0.000193921,0.01033,0.00388639,0.0116096,-0.00147354,1.25272,0.00827478,0.0251285,594,1226,-43.9998,-5.15781
-623,-202,-44.0264,5.9519,0.00182743,0.00467921,0.00108942,0.00504775,0.00145888,1.24459,0.00299956,0.0103945,601,1226,-44.0264,-5.95192
-616,-202,-44.0566,6.72107,0.00188678,0.0021179,-0.000348399,0.00236941,0.00163528,-0.945535,0.00140057,0.0093614,608,1226,-44.0565,-6.72108
-609,-202,-44.0563,7.48682,0.00114122,0.000518647,-0.0014934,0.00235543,-0.000695566,-0.682649,0.00184635,0.022908,615,1226,-44.0563,-7.48678
-602,-202,-44.1544,8.2262,0.000331729,-0.000248875,-0.00275542,0.0028121,-0.00272925,-0.732913,0.00319942,0.023615,622,1226,-44.1544,-8.22616
-595,-202,-44.2169,9.01331,0,0,0,0,0,0,0,-1,629,1226,-44.2169,-9.01328
-588,-202,-44.416,9.79773,-0.000283758,-0.00167803,-0.00345935,0.002548,-0.00450978,-0.685969,0.00412695,0.0250948,636,1226,-44.416,-9.79778
-581,-202,-44.2966,10.4064,8.54508e-05,-0.00180553,-0.00386111,0.00311515,-0.00483523,-0.665324,0.00462583,0.0410396,643,1226,-44.2967,-10.4064
-574,-202,-44.3624,11.325,0,0,0,0,0,0,0,-1,650,1226,-44.3623,-11.325
-567,-202,-22.1768,4.56995,0,0,0,0,0,0,0,-1,657,1226,-22.1768,-4.56991
-560,-202,-10.929,2.73096,0,0,0,0,0,0,0,-1,664,1226,-10.929,-2.73092
-553,-202,-30.2701,1.474,0,0,0,0,0,0,0,-1,671,1226,-30.2701,-1.47395
-546,-202,-53.2803,0.580933,0,0,0,0,0,0,0,-1,678,1226,-53.2803,-0.580945
-539,-202,-59.5139,0.515015,0,0,0,0,0,0,0,-1,685,1226,-59.5139,-0.514984
-532,-202,-59.4496,0.268677,-0.00265484,-0.0075199,0.00380315,-0.000572822,-0.00960192,0.50088,0.00621914,0.0298879,692,1226,-59.4496,-0.268725
-525,-202,-59.295,0.0270996,-0.00369342,-0.00868867,0.00666961,0.000930877,-0.013313,0.606242,0.00920131,0.0353129,699,1226,-59.2951,-0.0271542
-518,-202,-59.3778,0.365356,-0.00420622,-0.00889337,0.0104404,0.00415037,-0.01725,0.674992,0.0131044,0.0423056,706,1226,-59.3778,-0.365323
-511,-202,-59.4257,0.632446,-0.00418935,-0.00882664,0.0149267,0.00859768,-0.0216137,0.708346,0.017974,0.0431583,713,1226,-59.4257,-0.632468
-504,-202,0,0,0,0,0,0,0,0,0,-1,720,1226,0,0
-497,-202,0,0,0,0,0,0,0,0,0,-1,727,1226,0,0
-490,-202,0,0,0,0,0,0,0,0,0,-1,734,1226,0,0
-483,-202,0,0,0,0,0,0,0,0,0,-1,741,1226,0,0
-476,-202,0,0,0,0,0,0,0,0,0,-1,748,1226,0,0
-469,-202,0,0,0,0,0,0,0,0,0,-1,755,1226,0,0
-462,-202,0,0,0,0,0,0,0,0,0,-1,762,1226,0,0
-455,-202,0,0,0,0,0,0,0,0,0,-1,769,1226,0,0
-448,-202,0,0,0,0,0,0,0,0,0,-1,776,1226,0,0
-441,-202,0,0,0,0,0,0,0,0,0,-1,783,1226,0,0
-434,-202,0,0,0,0,0,0,0,0,0,-1,790,1226,0,0
-427,-202,0,0,0,0,0,0,0,0,0,-1,797,1226,0,0
-420,-202,0,0,0,0,0,0,0,0,0,-1,804,1226,0,0
-413,-202,0,0,0,0,0,0,0,0,0,-1,811,1226,0,0
-406,-202,0,0,0,0,0,0,0,0,0,-1,818,1226,0,0
-399,-202,0,0,0,0,0,0,0,0,0,-1,825,1226,0,0
-392,-202,0,0,0,0,0,0,0,0,0,-1,832,1226,0,0
-385,-202,0,0,0,0,0,0,0,0,0,-1,839,1226,0,0
-378,-202,0,0,0,0,0,0,0,0,0,-1,846,1226,0,0
-371,-202,0,0,0,0,0,0,0,0,0,-1,853,1226,0,0
-364,-202,0,0,0,0,0,0,0,0,0,-1,860,1226,0,0
-357,-202,0,0,0,0,0,0,0,0,0,-1,867,1226,0,0
-350,-202,0,0,0,0,0,0,0,0,0,-1,874,1226,0,0
-343,-202,0,0,0,0,0,0,0,0,0,-1,881,1226,0,0
-336,-202,0,0,0,0,0,0,0,0,0,-1,888,1226,0,0
-329,-202,0,0,0,0,0,0,0,0,0,-1,895,1226,0,0
-322,-202,0,0,0,0,0,0,0,0,0,-1,902,1226,0,0
-315,-202,0,0,0,0,0,0,0,0,0,-1,909,1226,0,0
-308,-202,0,0,0,0,0,0,0,0,0,-1,916,1226,0,0
-301,-202,0,0,0,0,0,0,0,0,0,-1,923,1226,0,0
-294,-202,0,0,0,0,0,0,0,0,0,-1,930,1226,0,0
-287,-202,0,0,0,0,0,0,0,0,0,-1,937,1226,0,0
-280,-202,0,0,0,0,0,0,0,0,0,-1,944,1226,0,0
-273,-202,0,0,0,0,0,0,0,0,0,-1,951,1226,0,0
-266,-202,0,0,0,0,0,0,0,0,0,-1,958,1226,0,0
-259,-202,0,0,0,0,0,0,0,0,0,-1,965,1226,0,0
-252,-202,0,0,0,0,0,0,0,0,0,-1,972,1226,0,0
-245,-202,0,0,0,0,0,0,0,0,0,-1,979,1226,0,0
-238,-202,0,0,0,0,0,0,0,0,0,-1,986,1226,0,0
-231,-202,0,0,0,0,0,0,0,0,0,-1,993,1226,0,0
-224,-202,0,0,0,0,0,0,0,0,0,-1,1000,1226,0,0
-217,-202,0,0,0,0,0,0,0,0,0,-1,1007,1226,0,0
-210,-202,0,0,0,0,0,0,0,0,0,-1,1014,1226,0,0
-203,-202,0,0,0,0,0,0,0,0,0,-1,1021,1226,0,0
-196,-202,0,0,0,0,0,0,0,0,0,-1,1028,1226,0,0
-189,-202,0,0,0,0,0,0,0,0,0,-1,1035,1226,0,0
-182,-202,0,0,0,0,0,0,0,0,0,-1,1042,1226,0,0
-175,-202,0,0,0,0,0,0,0,0,0,-1,1049,1226,0,0
-168,-202,0,0,0,0,0,0,0,0,0,-1,1056,1226,0,0
-161,-202,0,0,0,0,0,0,0,0,0,-1,1063,1226,0,0
-154,-202,0,0,0,0,0,0,0,0,0,-1,1070,1226,0,0
-147,-202,0,0,0,0,0,0,0,0,0,-1,1077,1226,0,0
-140,-202,0,0,0,0,0,0,0,0,0,-1,1084,1226,0,0
-133,-202,0,0,0,0,0,0,0,0,0,-1,1091,1226,0,0
-126,-202,0,0,0,0,0,0,0,0,0,-1,1098,1226,0,0
-119,-202,0,0,0,0,0,0,0,0,0,-1,1105,1226,0,0
-112,-202,0,0,0,0,0,0,0,0,0,-1,1112,1226,0,0
-105,-202,0,0,0,0,0,0,0,0,0,-1,1119,1226,0,0
-98,-202,0,0,0,0,0,0,0,0,0,-1,1126,1226,0,0
-91,-202,0,0,0,0,0,0,0,0,0,-1,1133,1226,0,0
-84,-202,0,0,0,0,0,0,0,0,0,-1,1140,1226,0,0
-77,-202,0,0,0,0,0,0,0,0,0,-1,1147,1226,0,0
-70,-202,0,0,0,0,0,0,0,0,0,-1,1154,1226,0,0
-63,-202,0,0,0,0,0,0,0,0,0,-1,1161,1226,0,0
-56,-202,0,0,0,0,0,0,0,0,0,-1,1168,1226,0,0
-49,-202,0,0,0,0,0,0,0,0,0,-1,1175,1226,0,0
-42,-202,0,0,0,0,0,0,0,0,0,-1,1182,1226,0,0
-35,-202,0,0,0,0,0,0,0,0,0,-1,1189,1226,0,0
-28,-202,0,0,0,0,0,0,0,0,0,-1,1196,1226,0,0
-21,-202,0,0,0,0,0,0,0,0,0,-1,1203,1226,0,0
-14,-202,0,0,0,0,0,0,0,0,0,-1,1210,1226,0,0
-7,-202,0,0,0,0,0,0,0,0,0,-1,1217,1226,0,0
0,-202,0,0,0,0,0,0,0,0,0,-1,1224,1226,0,0
7,-202,0,0,0,0,0,0,0,0,0,-1,1231,1226,0,0
14,-202,0,0,0,0,0,0,0,0,0,-1,1238,1226,0,0
21,-202,0,0,0,0,0,0,0,0,0,-1,1245,1226,0,0
28,-202,0,0,0,0,0,0,0,0,0,-1,1252,1226,0,0
35,-202,0,0,0,0,0,0,0,0,0,-1,1259,1226,0,0
42,-202,0,0,0,0,0,0,0,0,0,-1,1266,1226,0,0
49,-202,0,0,0,0,0,0,0,0,0,-1,1273,1226,0,0
56,-202,0,0,0,0,0,0,0,0,0,-1,1280,1226,0,0
63,-202,0,0,0,0,0,0,0,0,0,-1,1287,1226,0,0
70,-202,0,0,0,0,0,0,0,0,0,-1,1294,1226,0,0
77,-202,0,0,0,0,0,0,0,0,0,-1,1301,1226,0,0
84,-202,0,0,0,0,0,0,0,0,0,-1,1308,1226,0,0
91,-202,0,0,0,0,0,0,0,0,0,-1,1315,1226,0,0
98,-202,0,0,0,0,0,0,0,0,0,-1,1322,1226,0,0
105,-202,0,0,0,0,0,0,0,0,0,-1,1329,1226,0,0
112,-202,0,0,0,0,0,0,0,0,0,-1,1336,1226,0,0
119,-202,0,0,0,0,0,0,0,0,0,-1,1343,1226,0,0
126,-202,0,0,0,0,0,0,0,0,0,-1,1350,1226,0,0
133,-202,0,0,0,0,0,0,0,0,0,-1,1357,1226,0,0
140,-202,0,0,0,0,0,0,0,0,0,-1,1364,1226,0,0
147,-202,0,0,0,0,0,0,0,0,0,-1,1371,1226,0,0
154,-202,0,0,0,0,0,0,0,0,0,-1,1378,1226,0,0
161,-202,0,0,0,0,0,0,0,0,0,-1,1385,1226,0,0
168,-202,0,0,0,0,0,0,0,0,0,-1,1392,1226,0,0
175,-202,0,0,0,0,0,0,0,0,0,-1,1399,1226,0,0
182,-202,0,0,0,0,0,0,0,0,0,-1,1406,1226,0,0
189,-202,0,0,0,0,0,0,0,0,0,-1,1413,1226,0,0
196,-202,0,0,0,0,0,0,0,0,0,-1,1420,1226,0,0
203,-202,0,0,0,0,0,0,0,0,0,-1,1427,1226,0,0
210,-202,0,0,0,0,0,0,0,0,0,-1,1434,1226,0,0
217,-202,0,0,0,0,0,0,0,0,0,-1,1441,1226,0,0
224,-202,0,0,0,0,0,0,0,0,0,-1,1448,1226,0,0
231,-202,0,0,0,0,0,0,0,0,0,-1,1455,1226,0,0
238,-202,0,0,0,0,0,0,0,0,0,-1,1462,1226,0,0
245,-202,0,0,0,0,0,0,0,0,0,-1,1469,1226,0,0
252,-202,0,0,0,0,0,0,0,0,0,-1,1476,1226,0,0
259,-202,0,0,0,0,0,0,0,0,0,-1,1483,1226,0,0
266,-202,0,0,0,0,0,0,0,0,0,-1,1490,1226,0,0
273,-202,0,0,0,0,0,0,0,0,0,-1,1497,1226,0,0
280,-202,0,0,0,0,0,0,0,0,0,-1,1504,1226,0,0
287,-202,0,0,0,0,0,0,0,0,0,-1,1511,1226,0,0
294,-202,0,0,0,0,0,0,0,0,0,-1,1518,1226,0,0
301,-202,0,0,0,0,0,0,0,0,0,-1,1525,1226,0,0
308,-202,0,0,0,0,0,0,0,0,0,-1,1532,1226,0,0
315,-202,0,0,0,0,0,0,0,0,0,-1,1539,1226,0,0
322,-202,0,0,0,0,0,0,0,0,0,-1,1546,1226,0,0
329,-202,0,0,0,0,0,0,0,0,0,-1,1553,1226,0,0
336,-202,0,0,0,0,0,0,0,0,0,-1,1560,1226,0,0
343,-202,0,0,0,0,0,0,0,0,0,-1,1567,1226,0,0
350,-202,0,0,0,0,0,0,0,0,0,-1,1574,1226,0,0
357,-202,0,0,0,0,0,0,0,0,0,-1,1581,1226,0,0
364,-202,0,0,0,0,0,0,0,0,0,-1,1588,1226,0,0
371,-202,0,0,0,0,0,0,0,0,0,-1,1595,1226,0,0
378,-202,0,0,0,0,0,0,0,0,0,-1,1602,1226,0,0
385,-202,0,0,0,0,0,0,0,0,0,-1,1609,1226,0,0
392,-202,0,0,0,0,0,0,0,0,0,-1,1616,1226,0,0
399,-202,0,0,0,0,0,0,0,0,0,-1,1623,1226,0,0
406,-202,0,0,0,0,0,0,0,0,0,-1,1630,1226,0,0
413,-202,0,0,0,0,0,0,0,0,0,-1,1637,1226,0,0
420,-202,0,0,0,0,0,0,0,0,0,-1,1644,1226,0,0
427,-202,0,0,0,0,0,0,0,0,0,-1,1651,1226,0,0
434,-202,0,0,0,0,0,0,0,0,0,-1,1658,1226,0,0
441,-202,0,0,0,0,0,0,0,0,0,-1,1665,1226,0,0
448,-202,0,0,0,0,0,0,0,0,0,-1,1672,1226,0,0
455,-202,0,0,0,0,0,0,0,0,0,-1,1679,1226,0,0
462,-202,0,0,0,0,0,0,0,0,0,-1,1686,1226,0,0
469,-202,0,0,0,0,0,0,0,0,0,-1,1693,1226,0,0
476,-202,0,0,0,0,0,0,0,0,0,-1,1700,1226,0,0
483,-202,0,0,0,0,0,0,0,0,0,-1,1707,1226,0,0
490,-202,0,0,0,0,0,0,0,0,0,-1,1714,1226,0,0
497,-202,0,0,0,0,0,0,0,0,0,-1,1721,1226,0,0
504,-202,0,0,0,0,0,0,0,0,0,-1,1728,1226,0,0
511,-202,0,0,0,0,0,0,0,0,0,-1,1735,1226,0,0
518,-202,0,0,0,0,0,0,0,0,0,-1,1742,1226,0,0
525,-202,0,0,0,0,0,0,0,0,0,-1,1749,1226,0,0
532,-202,0,0,0,0,0,0,0,0,0,-1,1756,1226,0,0
539,-202,0,0,0,0,0,0,0,0,0,-1,1763,1226,0,0
546,-202,0,0,0,0,0,0,0,0,0,-1,1770,1226,0,0
553,-202,0,0,0,0,0,0,0,0,0,-1,1777,1226,0,0
560,-202,0,0,0,0,0,0,0,0,0,-1,1784,1226,0,0
567,-202,0,0,0,0,0,0,0,0,0,-1,1791,1226,0,0
574,-202,0,0,0,0,0,0,0,0,0,-1,1798,1226,0,0
581,-202,0,0,0,0,0,0,0,0,0,-1,1805,1226,0,0
588,-202,0,0,0,0,0,0,0,0,0,-1,1812,1226,0,0
595,-202,0,0,0,0,0,0,0,0,0,-1,1819,1226,0,0
602,-202,0,0,0,0,0,0,0,0,0,-1,1826,1226,0,0
609,-202,0,0,0,0,0,0,0,0,0,-1,1833,1226,0,0
616,-202,0,0,0,0,0,0,0,0,0,-1,1840,1226,0,0
623,-202,0,0,0,0,0,0,0,0,0,-1,1847,1226,0,0
630,-202,76.2759,2.21436,-0.000675335,0.000106981,0.00397613,0.00371115,-0.0042795,0.834429,0.00461729,0.0374045,1854,1226,76.2759,-2.21431
637,-202,76.3689,2.27344,-0.000605393,0.000874935,0.00224452,0.00249818,-0.00222864,0.944666,0.00273051,0.0362469,1861,1226,76.3689,-2.27343
644,-202,76.343,2.18701,-0.000236485,0.00187405,0.00042474,0.00195632,-0.000318755,1.37947,0.00142242,0.0337923,1868,1226,76.343,-2.187
651,-202,76.2748,2.12512,0.000311373,0.00270994,-0.00113577,0.0031624,-0.000141085,-1.19169,0.00215683,0.027129,1875,1226,76.2748,-2.12511
658,-202,76.2717,2.12427,0.000391921,0.00270432,-0.00128252,0.00327486,-0.000178626,-1.15222,0.00224515,0.0229623,1882,1226,76.2718,-2.12423
665,-202,76.3225,2.08484,0.000261007,0.0024604,-0.000901184,0.00278249,-6.10779e-05,-1.22754,0.00187568,0.021611,1889,1226,76.3225,-2.08483
672,-202,76.4783,1.98401,0,0,0,0,0,0,0,-1,1896,1226,76.4782,-1.98399
679,-202,72.3511,2.32935,0,0,0,0,0,0,0,-1,1903,1226,72.3511,-2.32932
686,-202,49.1708,2.15198,0,0,0,0,0,0,0,-1,1910,1226,49.1708,-2.15195
693,-202,52.1176,12.0886,0,0,0,0,0,0,0,-1,1917,1226,52.1176,-12.0886
700,-202,60.8528,12.8715,0,0,0,0,0,0,0,-1,1924,1226,60.8527,-12.8714
707,-202,60.7507,11.9572,0.000918524,0.00224652,-0.000132497,0.00225961,0.000905433,-1.47232,0.00131314,0.0319073,1931,1226,60.7507,-11.9571
714,-202,60.624,11.3832,0.000991514,0.00242109,-9.36774e-05,0.0024272,0.000985402,-1.50564,0.00140958,0.0405764,1938,1226,60.624,-11.3832
721,-202,60.624,10.7733,0.000801842,0.00245511,0.00051433,0.00260206,0.000654896,1.29251,0.00156283,0.0296564,1945,1226,60.624,-10.7733
728,-202,60.6285,9.85669,0.000786341,0.00222533,0.00102391,0.00275726,0.000254409,1.09166,0.00175951,0.0115843,1952,1226,60.6286,-9.85666
735,-202,60.5903,9.10449,0.000740177,0.00202072,0.00120902,0.00274854,1.23525e-05,1.02891,0.00182826,0.0115904,1959,1226,60.5904,-9.10449
742,-202,60.5393,8.36145,0.000867021,0.00172406,0.00140714,0.00276648,-0.000175404,0.933203,0.00190548,0.0128616,1966,1226,60.5393,-8.36145
749,-202,60.4635,7.64087,0.00147456,0.00178718,0.00174356,0.00338143,-0.000119683,0.830104,0.00229522,0.0135926,1973,1226,60.4635,-7.64088
756,-202,60.4752,6.92993,0.00320853,0.0024683,0.00190324,0.00477731,0.000899518,0.689364,0.00293141,0.0131021,1980,1226,60.4753,-6.92998
763,-202,60.5537,6.2218,0.00574409,0.00360865,0.00222515,0.00714443,0.00220832,0.561702,0.00422387,0.0274215,1987,1226,60.5537,-6.22185
770,-202,60.5935,5.57507,0,0,0,0,0,0,0,-1,1994,1226,60.5934,-5.57505
777,-202,67.5615,-0.236572,0,0,0,0,0,0,0,-1,2001,1226,67.5615,0.236573
784,-202,66.7117,0.754517,0,0,0,0,0,0,0,-1,2008,1226,66.7118,-0.754543
791,-202,66.512,1.74207,0,0,0,0,0,0,0,-1,2015,1226,66.512,-1.74201
798,-202,51.8999,3.58789,0,0,0,0,0,0,0,-1,2022,1226,51.9,-3.58791
805,-202,0,0,0,0,0,0,0,0,0,-1,2029,1226,0,0
812,-202,0,0,0,0,0,0,0,0,0,-1,2036,1226,0,0
-700,-209,0,0,0,0,0,0,0,0,0,-1,524,1233,0,0
-693,-209,0,0,0,0,0,0,0,0,0,-1,531,1233,0,0
-686,-209,0,0,0,0,0,0,0,0,0,-1,538,1233,0,0
-679,-209,-43.5651,-1.98669,0,0,0,0,0,0,0,-1,545,1233,-43.5651,1.98668
-672,-209,-45.7134,3.70813,0,0,0,0,0,0,0,-1,552,1233,-45.7134,-3.70808
-665,-209,-47.3203,4.17615,0,0,0,0,0,0,0,-1,559,1233,-47.3203,-4.17618
-658,-209,-48.9473,4.63306,0,0,0,0,0,0,0,-1,566,1233,-48.9473,-4.63302
-651,-209,-40.8797,2.51941,0,0,0,0,0,0,0,-1,573,1233,-40.8797,-2.51942
-644,-209,-43.4648,-7.04663,0,0,0,0,0,0,0,-1,580,1233,-43.4648,7.04659
-637,-209,-43.0322,4.39868,0,0,0,0,0,0,0,-1,587,1233,-43.0322,-4.39863
-630,-209,-43.071,5.17249,0.000827702,0.00985822,0.00468089,0.0118467,-0.00116075,1.16909,0.00831176,0.0424722,594,1233,-43.071,-5.17247
-623,-209,-43.22,5.99902,0.00279957,0.00440318,0.00179924,0.00557119,0.00163156,0.995007,0.00330726,0.0185339,601,1233,-43.22,-5.99899
-616,-209,-43.2563,6.76978,0.00276066,0.00201133,0.000248314,0.00283548,0.00193651,0.292648,0.0016732,0.0131727,608,1233,-43.2563,-6.76974
-609,-209,-43.3002,7.52295,0.00189514,0.000554611,-0.000946031,0.00238429,6.54671e-05,-0.477193,0.00156816,0.0156573,615,1233,-43.3002,-7.52289
-602,-209,-43.368,8.2937,0.000975822,-0.000195228,-0.00223449,0.00270023,-0.00191963,-0.657259,0.00267994,0.0175665,622,1233,-43.368,-8.29369
-595,-209,-43.4182,9.11597,0.000319731,-0.00120518,-0.00311183,0.00276115,-0.0036466,-0.665255,0.00371127,0.0221155,629,1233,-43.4182,-9.11597
-588,-209,-43.5585,9.87146,0.000269157,-0.00205832,-0.00347238,0.00276762,-0.00455678,-0.62371,0.00427059,0.0432512,636,1233,-43.5585,-9.87144
-581,-209,-43.3179,10.615,0.000521367,-0.00233823,-0.00398775,0.00332789,-0.00514476,-0.613263,0.00492903,0.0485865,643,1233,-43.3179,-10.6149
-574,-209,-43.4104,11.4109,0.000178077,-0.00261787,-0.00337496,0.00243314,-0.00487294,-0.589046,0.00429585,0.0467246,650,1233,-43.4104,-11.4109
-567,-209,-43.3347,12.2043,0,0,0,0,0,0,0,-1,657,1233,-43.3347,-12.2043
-560,-209,-13.9294,4.16626,0,0,0,0,0,0,0,-1,664,1233,-13.9294,-4.16621
-553,-209,-22.7542,0.748779,0,0,0,0,0,0,0,-1,671,1233,-22.7541,-0.748796
-546,-209,-44.691,0.142822,0,0,0,0,0,0,0,-1,678,1233,-44.6911,-0.142844
-539,-209,-59.2997,0.372681,0,0,0,0,0,0,0,-1,685,1233,-59.2997,-0.372686
-532,-209,-59.3331,0.319824,-0.00404976,-0.00888142,0.00563604,-0.00033361,-0.0125976,0.582923,0.00828941,0.0364853,692,1233,-59.3331,-0.319825
-525,-209,-59.3857,0.260986,-0.00564642,-0.0107155,0.00908792,0.00125378,-0.0176157,0.649409,0.0121832,0.0343814,699,1233,-59.3857,-0.260976
-518,-209,-59.7038,0.664795,-0.0070296,-0.0113099,0.0137506,0.00474641,-0.0230859,0.708197,0.0171925,0.0421038,706,1233,-59.7038,-0.664746
-511,-209,-60.0078,1.09851,0,0,0,0,0,0,0,-1,713,1233,-60.0077,-1.09846
-504,-209,0,0,0,0,0,0,0,0,0,-1,720,1233,0,0
-497,-209,0,0,0,0,0,0,0,0,0,-1,727,1233,0,0
-490,-209,0,0,0,0,0,0,0,0,0,-1,734,1233,0,0
-483,-209,0,0,0,0,0,0,0,0,0,-1,741,1233,0,0
-476,-209,0,0,0,0,0,0,0,0,0,-1,748,1233,0,0
-469,-209,0,0,0,0,0,0,0,0,0,-1,755,1233,0,0
-462,-209,0,0,0,0,0,0,0,0,0,-1,762,1233,0,0
-455,-209,0,0,0,0,0,0,0,0,0,-1,769,1233,0,0
-448,-209,0,0,0,0,0,0,0,0,0,-1,776,1233,0,0
-441,-209,0,0,0,0,0,0,0,0,0,-1,783,1233,0,0
-434,-209,0,0,0,0,0,0,0,0,0,-1,790,1233,0,0
-427,-209,0,0,0,0,0,0,0,0,0,-1,797,1233,0,0
-420,-209,0,0,0,0,0,0,0,0,0,-1,804,1233,0,0
-413,-209,0,0,0,0,0,0,0,0,0,-1,811,1233,0,0
-406,-209,0,0,0,0,0,0,0,0,0,-1,818,1233,0,0
-399,-209,0,0,0,0,0,0,0,0,0,-1,825,1233,0,0
-392,-209,0,0,0,0,0,0,0,0,0,-1,832,1233,0,0
-385,-209,0,0,0,0,0,0,0,0,0,-1,839,1233,0,0
-378,-209,0,0,0,0,0,0,0,0,0,-1,846,1233,0,0
-371,-209,0,0,0,0,0,0,0,0,0,-1,853,1233,0,0
-364,-209,0,0,0,0,0,0,0,0,0,-1,860,1233,0,0
-357,-209,0,0,0,0,0,0,0,0,0,-1,867,1233,0,0
-350,-209,0,0,0,0,0,0,0,0,0,-1,874,1233,0,0
-343,-209,0,0,0,0,0,0,0,0,0,-1,881,1233,0,0
-336,-209,0,0,0,0,0,0,0,0,0,-1,888,1233,0,0
-329,-209,0,0,0,0,0,0,0,0,0,-1,895,1233,0,0
-322,-209,0,0,0,0,0,0,0,0,0,-1,902,1233,0,0
-315,-209,0,0,0,0,0,0,0,0,0,-1,909,1233,0,0
-308,-209,0,0,0,0,0,0,0,0,0,-1,916,1233,0,0
-301,-209,0,0,0,0,0,0,0,0,0,-1,923,1233,0,0
-294,-209,0,0,0,0,0,0,0,0,0,-1,930,1233,0,0
-287,-209,0,0,0,0,0,0,0,0,0,-1,937,1233,0,0
-280,-209,0,0,0,0,0,0,0,0,0,-1,944,1233,0,0
-273,-209,0,0,0,0,0,0,0,0,0,-1,951,1233,0,0
-266,-209,0,0,0,0,0,0,0,0,0,-1,958,1233,0,0
-259,-209,0,0,0,0,0,0,0,0,0,-1,965,1233,0,0
-252,-209,0,0,0,0,0,0,0,0,0,-1,972,1233,0,0
-245,-209,0,0,0,0,0,0,0,0,0,-1,979,1233,0,0
-238,-209,0,0,0,0,0,0,0,0,0,-1,986,1233,0,0
-231,-209,0,0,0,0,0,0,0,0,0,-1,993,1233,0,0
-224,-209,0,0,0,0,0,0,0,0,0,-1,1000,1233,0,0
-217,-209,0,0,0,0,0,0,0,0,0,-1,1007,1233,0,0
-210,-209,0,0,0,0,0,0,0,0,0,-1,1014,1233,0,0
-203,-209,0,0,0,0,0,0,0,0,0,-1,1021,1233,0,0
-196,-209,0,0,0,0,0,0,0,0,0,-1,1028,1233,0,0
-189,-209,0,0,0,0,0,0,0,0,0,-1,1035,1233,0,0
-182,-209,0,0,0,0,0,0,0,0,0,-1,1042,1233,0,0
-175,-209,0,0,0,0,0,0,0,0,0,-1,1049,1233,0,0
-168,-209,0,0,0,0,0,0,0,0,0,-1,1056,1233,0,0
-161,-209,0,0,0,0,0,0,0,0,0,-1,1063,1233,0,0
-154,-209,0,0,0,0,0,0,0,0,0,-1,1070,1233,0,0
-147,-209,0,0,0,0,0,0,0,0,0,-1,1077,1233,0,0
-140,-209,0,0,0,0,0,0,0,0,0,-1,1084,1233,0,0
-133,-209,0,0,0,0,0,0,0,0,0,-1,1091,1233,0,0
-126,-209,0,0,0,0,0,0,0,0,0,-1,1098,1233,0,0
-119,-209,0,0,0,0,0,0,0,0,0,-1,1105,1233,0,0
-112,-209,0,0,0,0,0,0,0,0,0,-1,1112,1233,0,0
-105,-209,0,0,0,0,0,0,0,0,0,-1,1119,1233,0,0
-98,-209,0,0,0,0,0,0,0,0,0,-1,1126,1233,0,0
-91,-209,0,0,0,0,0,0,0,0,0,-1,1133,1233,0,0
-84,-209,0,0,0,0,0,0,0,0,0,-1,1140,1233,0,0
-77,-209,0,0,0,0,0,0,0,0,0,-1,1147,1233,0,0
-70,-209,0,0,0,0,0,0,0,0,0,-1,1154,1233,0,0
-63,-209,0,0,0,0,0,0,0,0,0,-1,1161,1233,0,0
-56,-209,0,0,0,0,0,0,0,0,0,-1,1168,1233,0,0
-49,-209,0,0,0,0,0,0,0,0,0,-1,1175,1233,0,0
-42,-209,0,0,0,0,0,0,0,0,0,-1,1182,1233,0,0
-35,-209,0,0,0,0,0,0,0,0,0,-1,1189,1233,0,0
-28,-209,0,0,0,0,0,0,0,0,0,-1,1196,1233,0,0
-21,-209,0,0,0,0,0,0,0,0,0,-1,1203,1233,0,0
-14,-209,0,0,0,0,0,0,0,0,0,-1,1210,1233,0,0
-7,-209,0,0,0,0,0,0,0,0,0,-1,1217,1233,0,0
0,-209,0,0,0,0,0,0,0,0,0,-1,1224,1233,0,0
7,-209,0,0,0,0,0,0,0,0,0,-1,1231,1233,0,0
14,-209,0,0,0,0,0,0,0,0,0,-1,1238,1233,0,0
21,-209,0,0,0,0,0,0,0,0,0,-1,1245,1233,0,0
28,-209,0,0,0,0,0,0,0,0,0,-1,1252,1233,0,0
35,-209,0,0,0,0,0,0,0,0,0,-1,1259,1233,0,0
42,-209,0,0,0,0,0,0,0,0,0,-1,1266,1233,0,0
49,-209,0,0,0,0,0,0,0,0,0,-1,1273,1233,0,0
56,-209,0,0,0,0,0,0,0,0,0,-1,1280,1233,0,0
63,-209,0,0,0,0,0,0,0,0,0,-1,1287,1233,0,0
70,-209,0,0,0,0,0,0,0,0,0,-1,1294,1233,0,0
77,-209,0,0,0,0,0,0,0,0,0,-1,1301,1233,0,0
84,-209,0,0,0,0,0,0,0,0,0,-1,1308,1233,0,0
91,-209,0,0,0,0,0,0,0,0,0,-1,1315,1233,0,0
98,-209,0,0,0,0,0,0,0,0,0,-1,1322,1233,0,0
105,-209,0,0,0,0,0,0,0,0,0,-1,1329,1233,0,0
112,-209,0,0,0,0,0,0,0,0,0,-1,1336,1233,0,0
119,-209,0,0,0,0,0,0,0,0,0,-1,1343,1233,0,0
126,-209,0,0,0,0,0,0,0,0,0,-1,1350,1233,0,0
133,-209,0,0,0,0,0,0,0,0,0,-1,1357,1233,0,0
140,-209,0,0,0,0,0,0,0,0,0,-1,1364,1233,0,0
147,-209,0,0,0,0,0,0,0,0,0,-1,1371,1233,0,0
154,-209,0,0,0,0,0,0,0,0,0,-1,1378,1233,0,0
161,-209,0,0,0,0,0,0,0,0,0,-1,1385,1233,0,0
168,-209,0,0,0,0,0,0,0,0,0,-1,1392,1233,0,0
175,-209,0,0,0,0,0,0,0,0,0,-1,1399,1233,0,0
182,-209,0,0,0,0,0,0,0,0,0,-1,1406,1233,0,0
189,-209,0,0,0,0,0,0,0,0,0,-1,1413,1233,0,0
196,-209,0,0,0,0,0,0,0,0,0,-1,1420,1233,0,0
203,-209,0,0,0,0,0,0,0,0,0,-1,1427,1233,0,0
210,-209,0,0,0,0,0,0,0,0,0,-1,1434,1233,0,0
217,-209,0,0,0,0,0,0,0,0,0,-1,1441,1233,0,0
224,-209,0,0,0,0,0,0,0,0,0,-1,1448,1233,0,0
231,-209,0,0,0,0,0,0,0,0,0,-1,1455,1233,0,0
238,-209,0,0,0,0,0,0,0,0,0,-1,1462,1233,0,0
245,-209,0,0,0,0,0,0,0,0,0,-1,1469,1233,0,0
252,-209,0,0,0,0,0,0,0,0,0,-1,1476,1233,0,0
259,-209,0,0,0,0,0,0,0,0,0,-1,1483,1233,0,0
266,-209,0,0,0,0,0,0,0,0,0,-1,1490,1233,0,0
273,-209,0,0,0,0,0,0,0,0,0,-1,1497,1233,0,0
280,-209,0,0,0,0,0,0,0,0,0,-1,1504,1233,0,0
287,-209,0,0,0,0,0,0,0,0,0,-1,1511,1233,0,0
294,-209,0,0,0,0,0,0,0,0,0,-1,1518,1233,0,0
301,-209,0,0,0,0,0,0,0,0,0,-1,1525,1233,0,0
308,-209,0,0,0,0,0,0,0,0,0,-1,1532,1233,0,0
315,-209,0,0,0,0,0,0,0,0,0,-1,1539,1233,0,0
322,-209,0,0,0,0,0,0,0,0,0,-1,1546,1233,0,0
329,-209,0,0,0,0,0,0,0,0,0,-1,1553,1233,0,0
336,-209,0,0,0,0,0,0,0,0,0,-1,1560,1233,0,0
343,-209,0,0,0,0,0,0,0,0,0,-1,1567,1233,0,0
350,-209,0,0,0,0,0,0,0,0,0,-1,1574,1233,0,0
357,-209,0,0,0,0,0,0,0,0,0,-1,1581,1233,0,0
364,-209,0,0,0,0,0,0,0,0,0,-1,1588,1233,0,0
371,-209,0,0,0,0,0,0,0,0,0,-1,1595,1233,0,0
378,-209,0,0,0,0,0,0,0,0,0,-1,1602,1233,0,0
385,-209,0,0,0,0,0,0,0,0,0,-1,1609,1233,0,0
392,-209,0,0,0,0,0,0,0,0,0,-1,1616,1233,0,0
399,-209,0,0,0,0,0,0,0,0,0,-1,1623,1233,0,0
406,-209,0,0,0,0,0,0,0,0,0,-1,1630,1233,0,0
413,-209,0,0,0,0,0,0,0,0,0,-1,1637,1233,0,0
420,-209,0,0,0,0,0,0,0,0,0,-1,1644,1233,0,0
427,-209,0,0,0,0,0,0,0,0,0,-1,1651,1233,0,0
434,-209,0,0,0,0,0,0,0,0,0,-1,1658,1233,0,0
441,-209,0,0,0,0,0,0,0,0,0,-1,1665,1233,0,0
448,-209,0,0,0,0,0,0,0,0,0,-1,1672,1233,0,0
455,-209,0,0,0,0,0,0,0,0,0,-1,1679,1233,0,0
462,-209,0,0,0,0,0,0,0,0,0,-1,1686,1233,0,0
469,-209,0,0,0,0,0,0,0,0,0,-1,1693,1233,0,0
476,-209,0,0,0,0,0,0,0,0,0,-1,1700,1233,0,0
483,-209,0,0,0,0,0,0,0,0,0,-1,1707,1233,0,0
490,-209,0,0,0,0,0,0,0,0,0,-1,1714,1233,0,0
497,-209,0,0,0,0,0,0,0,0,0,-1,1721,1233,0,0
504,-209,0,0,0,0,0,0,0,0,0,-1,1728,1233,0,0
511,-209,0,0,0,0,0,0,0,0,0,-1,1735,1233,0,0
518,-209,0,0,0,0,0,0,0,0,0,-1,1742,1233,0,0
525,-209,0,0,0,0,0,0,0,0,0,-1,1749,1233,0,0
532,-209,0,0,0,0,0,0,0,0,0,-1,1756,1233,0,0
539,-209,0,0,0,0,0,0,0,0,0,-1,1763,1233,0,0
546,-209,0,0,0,0,0,0,0,0,0,-1,1770,1233,0,0
553,-209,0,0,0,0,0,0,0,0,0,-1,1777,1233,0,0
560,-209,0,0,0,0,0,0,0,0,0,-1,1784,1233,0,0
567,-209,0,0,0,0,0,0,0,0,0,-1,1791,1233,0,0
574,-209,0,0,0,0,0,0,0,0,0,-1,1798,1233,0,0
581,-209,0,0,0,0,0,0,0,0,0,-1,1805,1233,0,0
588,-209,0,0,0,0,0,0,0,0,0,-1,1812,1233,0,0
595,-209,0,0,0,0,0,0,0,0,0,-1,1819,1233,0,0
602,-209,0,0,0,0,0,0,0,0,0,-1,1826,1233,0,0
609,-209,0,0,0,0,0,0,0,0,0,-1,1833,1233,0,0
616,-209,0,0,0,0,0,0,0,0,0,-1,1840,1233,0,0
623,-209,76.2266,2.09851,-0.000942358,-0.000292441,0.00534201,0.00473449,-0.00596929,0.815776,0.00619352,0.0326755,1847,1233,76.2266,-2.09855
630,-209,76.2856,2.12891,-0.000955486,0.00053095,0.00358595,0.00344989,-0.00387443,0.887581,0.00423107,0.0361129,1854,1233,76.2856,-2.12894
637,-209,76.3268,2.172,-0.000693004,0.00153671,0.00168098,0.00243893,-0.00159523,1.0782,0.00234604,0.0369798,1861,1233,76.3268,-2.17194
644,-209,76.2837,2.15149,-0.000175697,0.00263047,-0.000225879,0.00264853,-0.000193762,-1.49099,0.00183369,0.031258,1868,1233,76.2837,-2.15147
651,-209,76.2351,2.10181,0.000354217,0.00323059,-0.0015283,0.003891,-0.000306188,-1.16291,0.00270185,0.0239098,1875,1233,76.2351,-2.10181
658,-209,76.2749,2.12219,0.000286142,0.00281068,-0.00126461,0.00333519,-0.000238362,-1.17763,0.00230702,0.021602,1882,1233,76.2749,-2.12216
665,-209,76.3988,2.06909,6.33537e-05,0.0023482,-0.000744694,0.00256949,-0.000157931,-1.28196,0.00176799,0.0388436,1889,1233,76.3988,-2.06913
672,-209,76.5891,1.94885,0,0,0,0,0,0,0,-1,1896,1233,76.5891,-1.94881
679,-209,55.2465,2.78674,0,0,0,0,0,0,0,-1,1903,1233,55.2464,-2.78678
686,-209,33.3711,3.89856,0,0,0,0,0,0,0,-1,1910,1233,33.3711,-3.89855
693,-209,60.0106,13.6167,0,0,0,0,0,0,0,-1,1917,1233,60.0106,-13.6167
700,-209,59.9395,12.787,0,0,0,0,0,0,0,-1,1924,1233,59.9394,-12.7869
707,-209,59.8654,12.0138,0.000554184,0.00176746,0.000165236,0.00178956,0.000532083,1.43783,0.00106112,0.0352274,1931,1233,59.8653,-12.0138
714,-209,59.8584,11.3801,0.000519456,0.00187512,0.000295914,0.0019369,0.000457679,1.36499,0.00116896,0.0242713,1938,1233,59.8584,-11.3801
721,-209,59.9388,10.6146,0.000272903,0.00183368,0.000902224,0.00224619,-0.000139611,1.14196,0.0015461,0.013705,1945,1233,59.9389,-10.6146
728,-209,59.9219,9.90222,0.000188126,0.00159462,0.00134207,0.00240653,-0.000623787,1.02673,0.00184772,0.0135562,1952,1233,59.9219,-9.90223
735,-209,59.8647,9.16956,9.18808e-05,0.00141608,0.00152822,0.00241947,-0.000911502,0.989817,0.00198774,0.0169139,1959,1233,59.8648,-9.16959
742,-209,59.8092,8.40039,4.97523e-05,0.0011758,0.00179967,0.00249846,-0.00127291,0.936999,0.0022154,0.0168065,1966,1233,59.8092,-8.40041
749,-209,59.7357,7.66748,0.00022759,0.00112222,0.00225227,0.00297116,-0.00162136,0.883425,0.0026894,0.0148324,1973,1233,59.7357,-7.66753
756,-209,59.7222,6.96729,0.000998413,0.00138046,0.00274152,0.0039376,-0.00155873,0.820181,0.00327088,0.0134615,1980,1233,59.7222,-6.9673
763,-209,59.6874,6.31079,0.00212011,0.00182498,0.00365577,0.00563129,-0.0016862,0.765226,0.00442469,0.0297649,1987,1233,59.6874,-6.31075
770,-209,59.7881,5.7915,0,0,0,0,0,0,0,-1,1994,1233,59.7881,-5.79152
777,-209,68.0347,-0.36377,0,0,0,0,0,0,0,-1,2001,1233,68.0346,0.363742
784,-209,67.6289,0.771729,0,0,0,0,0,0,0,-1,2008,1233,67.6289,-0.771742
791,-209,67.1841,1.90906,0,0,0,0,0,0,0,-1,2015,1233,67.1841,-1.90909
798,-209,53.6404,3.71179,0,0,0,0,0,0,0,-1,2022,1233,53.6404,-3.71185
805,-209,0,0,0,0,0,0,0,0,0,-1,2029,1233,0,0
812,-209,0,0,0,0,0,0,0,0,0,-1,2036,1233,0,0
-700,-216,0,0,0,0,0,0,0,0,0,-1,524,1240,0,0
-693,-216,0,0,0,0,0,0,0,0,0,-1,531,1240,0,0
-686,-216,0,0,0,0,0,0,0,0,0,-1,538,1240,0,0
-679,-216,-44.4113,2.96509,0,0,0,0,0,0,0,-1,545,1240,-44.4113,-2.96514
-672,-216,-46.0019,3.48901,0,0,0,0,0,0,0,-1,552,1240,-46.0019,-3.48904
-665,-216,-47.6393,4.02075,0,0,0,0,0,0,0,-1,559,1240,-47.6392,-4.02069
-658,-216,-49.2646,4.4613,0,0,0,0,0,0,0,-1,566,1240,-49.2646,-4.4613
-651,-216,-42.788,-8.0509,0,0,0,0,0,0,0,-1,573,1240,-42.788,8.05092
-644,-216,-45.6099,1.72839,0,0,0,0,0,0,0,-1,580,1240,-45.6099,-1.72843
-637,-216,-41.9562,4.32642,0,0,0,0,0,0,0,-1,587,1240,-41.9562,-4.32644
-630,-216,-42.2216,5.34045,0,0,0,0,0,0,0,-1,594,1240,-42.2216,-5.34049
-623,-216,-42.3845,6.15491,0.00372011,0.00390877,0.00263833,0.00645446,0.00117442,0.803267,0.00396983,0.0255382,601,1240,-42.3845,-6.15497
-616,-216,-42.4941,6.82202,0.00352857,0.00174825,0.000957384,0.00394568,0.00133113,0.410883,0.00231786,0.015409,608,1240,-42.4942,-6.82201
-609,-216,-42.5455,7.57178,0.00248076,0.000502027,-0.000331521,0.00253483,0.000447961,-0.161662,0.00156212,0.0145783,615,1240,-42.5455,-7.57181
-602,-216,-42.5847,8.31897,0.00140829,-0.000181725,-0.00162872,0.00242568,-0.00119911,-0.558351,0.00213234,0.0138019,622,1240,-42.5847,-8.31894
-595,-216,-42.6119,9.0791,0.00058109,-0.00116765,-0.00268976,0.00253503,-0.00312159,-0.628249,0.0032717,0.0208495,629,1240,-42.6119,-9.07912
-588,-216,-42.6474,9.75537,0.000353286,-0.00220464,-0.00335446,0.00266433,-0.00451568,-0.603268,0.00419106,0.0409605,636,1240,-42.6474,-9.75535
-581,-216,-42.7263,10.1693,0,0,0,0,0,0,0,-1,643,1240,-42.7263,-10.1693
-574,-216,-42.808,11.379,0,0,0,0,0,0,0,-1,650,1240,-42.808,-11.379
-567,-216,-42.8372,12.0493,0,0,0,0,0,0,0,-1,657,1240,-42.8372,-12.0493
-560,-216,-16.5087,5.4574,0,0,0,0,0,0,0,-1,664,1240,-16.5087,-5.45746
-553,-216,-16.2355,1.22351,0,0,0,0,0,0,0,-1,671,1240,-16.2356,-1.22356
-546,-216,-37.1617,-0.25415,0,0,0,0,0,0,0,-1,678,1240,-37.1618,0.254161
-539,-216,-47.7817,1.47327,0,0,0,0,0,0,0,-1,685,1240,-47.7818,-1.4733
-532,-216,-59.2854,0.371826,0,0,0,0,0,0,0,-1,692,1240,-59.2854,-0.371805
-525,-216,-59.3666,0.426147,0,0,0,0,0,0,0,-1,699,1240,-59.3667,-0.426164
-518,-216,-59.9948,1.16895,0,0,0,0,0,0,0,-1,706,1240,-59.9948,-1.169
-511,-216,-58.7864,0.32959,0,0,0,0,0,0,0,-1,713,1240,-58.7864,-0.329603
-504,-216,-58.7058,0.238037,0,0,0,0,0,0,0,-1,720,1240,-58.7058,-0.238039
-497,-216,0,0,0,0,0,0,0,0,0,-1,727,1240,0,0
-490,-216,0,0,0,0,0,0,0,0,0,-1,734,1240,0,0
-483,-216,0,0,0,0,0,0,0,0,0,-1,741,1240,0,0
-476,-216,0,0,0,0,0,0,0,0,0,-1,748,1240,0,0
-469,-216,0,0,0,0,0,0,0,0,0,-1,755,1240,0,0
-462,-216,0,0,0,0,0,0,0,0,0,-1,762,1240,0,0
-455,-216,0,0,0,0,0,0,0,0,0,-1,769,1240,0,0
-448,-216,0,0,0,0,0,0,0,0,0,-1,776,1240,0,0
-441,-216,0,0,0,0,0,0,0,0,0,-1,783,1240,0,0
-434,-216,0,0,0,0,0,0,0,0,0,-1,790,1240,0,0
-427,-216,0,0,0,0,0,0,0,0,0,-1,797,1240,0,0
-420,-216,0,0,0,0,0,0,0,0,0,-1,804,1240,0,0
-413,-216,0,0,0,0,0,0,0,0,0,-1,811,1240,0,0
-406,-216,0,0,0,0,0,0,0,0,0,-1,818,1240,0,0
-399,-216,0,0,0,0,0,0,0,0,0,-1,825,1240,0,0
-392,-216,0,0,0,0,0,0,0,0,0,-1,832,1240,0,0
-385,-216,0,0,0,0,0,0,0,0,0,-1,839,1240,0,0
-378,-216,0,0,0,0,0,0,0,0,0,-1,846,1240,0,0
-371,-216,0,0,0,0,0,0,0,0,0,-1,853,1240,0,0
-364,-216,0,0,0,0,0,0,0,0,0,-1,860,1240,0,0
-357,-216,0,0,0,0,0,0,0,0,0,-1,867,1240,0,0
-350,-216,0,0,0,0,0,0,0,0,0,-1,874,1240,0,0
-343,-216,0,0,0,0,0,0,0,0,0,-1,881,1240,0,0
-336,-216,0,0,0,0,0,0,0,0,0,-1,888,1240,0,0
-329,-216,0,0,0,0,0,0,0,0,0,-1,895,1240,0,0
-322,-216,0,0,0,0,0,0,0,0,0,-1,902,1240,0,0
-315,-216,0,0,0,0,0,0,0,0,0,-1,909,1240,0,0
-308,-216,0,0,0,0,0,0,0,0,0,-1,916,1240,0,0
-301,-216,0,0,0,0,0,0,0,0,0,-1,923,1240,0,0
-294,-216,0,0,0,0,0,0,0,0,0,-1,930,1240,0,0
-287,-216,0,0,0,0,0,0,0,0,0,-1,937,1240,0,0
-280,-216,0,0,0,0,0,0,0,0,0,-1,944,1240,0,0
-273,-216,0,0,0,0,0,0,0,0,0,-1,951,1240,0,0
-266,-216,0,0,0,0,0,0,0,0,0,-1,958,1240,0,0
-259,-216,0,0,0,0,0,0,0,0,0,-1,965,1240,0,0
-252,-216,0,0,0,0,0,0,0,0,0,-1,972,1240,0,0
-245,-216,0,0,0,0,0,0,0,0,0,-1,979,1240,0,0
-238,-216,0,0,0,0,0,0,0,0,0,-1,986,1240,0,0
-231,-216,0,0,0,0,0,0,0,0,0,-1,993,1240,0,0
-224,-216,0,0,0,0,0,0,0,0,0,-1,1000,1240,0,0
-217,-216,0,0,0,0,0,0,0,0,0,-1,1007,1240,0,0
-210,-216,0,0,0,0,0,0,0,0,0,-1,1014,1240,0,0
-203,-216,0,0,0,0,0,0,0,0,0,-1,1021,1240,0,0
-196,-216,0,0,0,0,0,0,0,0,0,-1,1028,1240,0,0
-189,-216,0,0,0,0,0,0,0,0,0,-1,1035,1240,0,0
-182,-216,0,0,0,0,0,0,0,0,0,-1,1042,1240,0,0
-175,-216,0,0,0,0,0,0,0,0,0,-1,1049,1240,0,0
-168,-216,0,0,0,0,0,0,0,0,0,-1,1056,1240,0,0
-161,-216,0,0,0,0,0,0,0,0,0,-1,1063,1240,0,0
-154,-216,0,0,0,0,0,0,0,0,0,-1,1070,1240,0,0
-147,-216,0,0,0,0,0,0,0,0,0,-1,1077,1240,0,0
-140,-216,0,0,0,0,0,0,0,0,0,-1,1084,1240,0,0
-133,-216,0,0,0,0,0,0,0,0,0,-1,1091,1240,0,0
-126,-216,0,0,0,0,0,0,0,0,0,-1,1098,1240,0,0
-119,-216,0,0,0,0,0,0,0,0,0,-1,1105,1240,0,0
-112,-216,0,0,0,0,0,0,0,0,0,-1,1112,1240,0,0
-105,-216,0,0,0,0,0,0,0,0,0,-1,1119,1240,0,0
-98,-216,0,0,0,0,0,0,0,0,0,-1,1126,1240,0,0
-91,-216,0,0,0,0,0,0,0,0,0,-1,1133,1240,0,0
-84,-216,0,0,0,0,0,0,0,0,0,-1,1140,1240,0,0
-77,-216,0,0,0,0,0,0,0,0,0,-1,1147,1240,0,0
-70,-216,0,0,0,0,0,0,0,0,0,-1,1154,1240,0,0
-63,-216,0,0,0,0,0,0,0,0,0,-1,1161,1240,0,0
-56,-216,0,0,0,0,0,0,0,0,0,-1,1168,1240,0,0
-49,-216,0,0,0,0,0,0,0,0,0,-1,1175,1240,0,0
-42,-216,0,0,0,0,0,0,0,0,0,-1,1182,1240,0,0
-35,-216,0,0,0,0,0,0,0,0,0,-1,1189,1240,0,0
-28,-216,0,0,0,0,0,0,0,0,0,-1,1196,1240,0,0
-21,-216,0,0,0,0,0,0,0,0,0,-1,1203,1240,0,0
-14,-216,0,0,0,0,0,0,0,0,0,-1,1210,1240,0,0
-7,-216,0,0,0,0,0,0,0,0,0,-1,1217,1240,0,0
0,-216,0,0,0,0,0,0,0,0,0,-1,1224,1240,0,0
7,-216,0,0,0,0,0,0,0,0,0,-1,1231,1240,0,0
14,-216,0,0,0,0,0,0,0,0,0,-1,1238,1240,0,0
21,-216,0,0,0,0,0,0,0,0,0,-1,1245,1240,0,0
28,-216,0,0,0,0,0,0,0,0,0,-1,1252,1240,0,0
35,-216,0,0,0,0,0,0,0,0,0,-1,1259,1240,0,0
42,-216,0,0,0,0,0,0,0,0,0,-1,1266,1240,0,0
49,-216,0,0,0,0,0,0,0,0,0,-1,1273,1240,0,0
56,-216,0,0,0,0,0,0,0,0,0,-1,1280,1240,0,0
63,-216,0,0,0,0,0,0,0,0,0,-1,1287,1240,0,0
70,-216,0,0,0,0,0,0,0,0,0,-1,1294,1240,0,0
77,-216,0,0,0,0,0,0,0,0,0,-1,1301,1240,0,0
84,-216,0,0,0,0,0,0,0,0,0,-1,1308,1240,0,0
91,-216,0,0,0,0,0,0,0,0,0,-1,1315,1240,0,0
98,-216,0,0,0,0,0,0,0,0,0,-1,1322,1240,0,0
105,-216,0,0,0,0,0,0,0,0,0,-1,1329,1240,0,0
112,-216,0,0,0,0,0,0,0,0,0,-1,1336,1240,0,0
119,-216,0,0,0,0,0,0,0,0,0,-1,1343,1240,0,0
126,-216,0,0,0,0,0,0,0,0,0,-1,1350,1240,0,0
133,-216,0,0,0,0,0,0,0,0,0,-1,1357,1240,0,0
140,-216,0,0,0,0,0,0,0,0,0,-1,1364,1240,0,0
147,-216,0,0,0,0,0,0,0,0,0,-1,1371,1240,0,0
154,-216,0,0,0,0,0,0,0,0,0,-1,1378,1240,0,0
161,-216,0,0,0,0,0,0,0,0,0,-1,1385,1240,0,0
168,-216,0,0,0,0,0,0,0,0,0,-1,1392,1240,0,0
175,-216,0,0,0,0,0,0,0,0,0,-1,1399,1240,0,0
182,-216,0,0,0,0,0,0,0,0,0,-1,1406,1240,0,0
189,-216,0,0,0,0,0,0,0,0,0,-1,1413,1240,0,0
196,-216,0,0,0,0,0,0,0,0,0,-1,1420,1240,0,0
203,-216,0,0,0,0,0,0,0,0,0,-1,1427,1240,0,0
210,-216,0,0,0,0,0,0,0,0,0,-1,1434,1240,0,0
217,-216,0,0,0,0,0,0,0,0,0,-1,1441,1240,0,0
224,-216,0,0,0,0,0,0,0,0,0,-1,1448,1240,0,0
231,-216,0,0,0,0,0,0,0,0,0,-1,1455,1240,0,0
238,-216,0,0,0,0,0,0,0,0,0,-1,1462,1240,0,0
245,-216,0,0,0,0,0,0,0,0,0,-1,1469,1240,0,0
252,-216,0,0,0,0,0,0,0,0,0,-1,1476,1240,0,0
259,-216,0,0,0,0,0,0,0,0,0,-1,1483,1240,0,0
266,-216,0,0,0,0,0,0,0,0,0,-1,1490,1240,0,0
273,-216,0,0,0,0,0,0,0,0,0,-1,1497,1240,0,0
280,-216,0,0,0,0,0,0,0,0,0,-1,1504,1240,0,0
287,-216,0,0,0,0,0,0,0,0,0,-1,1511,1240,0,0
294,-216,0,0,0,0,0,0,0,0,0,-1,1518,1240,0,0
301,-216,0,0,0,0,0,0,0,0,0,-1,1525,1240,0,0
308,-216,0,0,0,0,0,0,0,0,0,-1,1532,1240,0,0
315,-216,0,0,0,0,0,0,0,0,0,-1,1539,1240,0,0
322,-216,0,0,0,0,0,0,0,0,0,-1,1546,1240,0,0
329,-216,0,0,0,0,0,0,0,0,0,-1,1553,1240,0,0
336,-216,0,0,0,0,0,0,0,0,0,-1,1560,1240,0,0
343,-216,0,0,0,0,0,0,0,0,0,-1,1567,1240,0,0
350,-216,0,0,0,0,0,0,0,0,0,-1,1574,1240,0,0
357,-216,0,0,0,0,0,0,0,0,0,-1,1581,1240,0,0
364,-216,0,0,0,0,0,0,0,0,0,-1,1588,1240,0,0
371,-216,0,0,0,0,0,0,0,0,0,-1,1595,1240,0,0
378,-216,0,0,0,0,0,0,0,0,0,-1,1602,1240,0,0
385,-216,0,0,0,0,0,0,0,0,0,-1,1609,1240,0,0
392,-216,0,0,0,0,0,0,0,0,0,-1,1616,1240,0,0
399,-216,0,0,0,0,0,0,0,0,0,-1,1623,1240,0,0
406,-216,0,0,0,0,0,0,0,0,0,-1,1630,1240,0,0
413,-216,0,0,0,0,0,0,0,0,0,-1,1637,1240,0,0
420,-216,0,0,0,0,0,0,0,0,0,-1,1644,1240,0,0
427,-216,0,0,0,0,0,0,0,0,0,-1,1651,1240,0,0
434,-216,0,0,0,0,0,0,0,0,0,-1,1658,1240,0,0
441,-216,0,0,0,0,0,0,0,0,0,-1,1665,1240,0,0
448,-216,0,0,0,0,0,0,0,0,0,-1,1672,1240,0,0
455,-216,0,0,0,0,0,0,0,0,0,-1,1679,1240,0,0
462,-216,0,0,0,0,0,0,0,0,0,-1,1686,1240,0,0
469,-216,0,0,0,0,0,0,0,0,0,-1,1693,1240,0,0
476,-216,0,0,0,0,0,0,0,0,0,-1,1700,1240,0,0
483,-216,0,0,0,0,0,0,0,0,0,-1,1707,1240,0,0
490,-216,0,0,0,0,0,0,0,0,0,-1,1714,1240,0,0
497,-216,0,0,0,0,0,0,0,0,0,-1,1721,1240,0,0
504,-216,0,0,0,0,0,0,0,0,0,-1,1728,1240,0,0
511,-216,0,0,0,0,0,0,0,0,0,-1,1735,1240,0,0
518,-216,0,0,0,0,0,0,0,0,0,-1,1742,1240,0,0
525,-216,0,0,0,0,0,0,0,0,0,-1,1749,1240,0,0
532,-216,0,0,0,0,0,0,0,0,0,-1,1756,1240,0,0
539,-216,0,0,0,0,0,0,0,0,0,-1,1763,1240,0,0
546,-216,0,0,0,0,0,0,0,0,0,-1,1770,1240,0,0
553,-216,0,0,0,0,0,0,0,0,0,-1,1777,1240,0,0
560,-216,0,0,0,0,0,0,0,0,0,-1,1784,1240,0,0
567,-216,0,0,0,0,0,0,0,0,0,-1,1791,1240,0,0
574,-216,0,0,0,0,0,0,0,0,0,-1,1798,1240,0,0
581,-216,0,0,0,0,0,0,0,0,0,-1,1805,1240,0,0
588,-216,0,0,0,0,0,0,0,0,0,-1,1812,1240,0,0
595,-216,0,0,0,0,0,0,0,0,0,-1,1819,1240,0,0
602,-216,0,0,0,0,0,0,0,0,0,-1,1826,1240,0,0
609,-216,0,0,0,0,0,0,0,0,0,-1,1833,1240,0,0
616,-216,0,0,0,0,0,0,0,0,0,-1,1840,1240,0,0
623,-216,76.1134,1.91248,-0.00160513,0.000727627,0.00491298,0.00461078,-0.00548828,0.901944,0.00583803,0.0369608,1847,1240,76.1134,-1.91254
630,-216,76.1764,2.05713,-0.00140332,0.00180314,0.00292265,0.00353341,-0.0031336,1.03626,0.0038515,0.0374443,1854,1240,76.1764,-2.05714
637,-216,76.2207,2.15588,-0.00098872,0.00298821,0.00079409,0.0031409,-0.00114142,1.38082,0.00256066,0.0333005,1861,1240,76.2207,-2.15584
644,-216,76.2262,2.18176,-0.000359048,0.00392038,-0.00108964,0.00418185,-0.00062052,-1.33529,0.00301609,0.0264035,1868,1240,76.2261,-2.18171
651,-216,76.2567,2.14111,0.000126515,0.00400965,-0.00194806,0.00481847,-0.000682301,-1.17726,0.00346223,0.0228946,1875,1240,76.2567,-2.14114
658,-216,76.3066,2.13708,-1.28334e-05,0.00314644,-0.00130997,0.00361894,-0.000485333,-1.22462,0.00258961,0.0345452,1882,1240,76.3066,-2.13704
665,-216,76.3707,2.13708,0,0,0,0,0,0,0,-1,1889,1240,76.3707,-2.13706
672,-216,68.6339,1.33826,0,0,0,0,0,0,0,-1,1896,1240,68.6339,-1.33828
679,-216,47.3159,3.82703,0,0,0,0,0,0,0,-1,1903,1240,47.316,-3.82708
686,-216,21.5172,6.19458,0,0,0,0,0,0,0,-1,1910,1240,21.5172,-6.19453
693,-216,56.1224,12.7039,0,0,0,0,0,0,0,-1,1917,1240,56.1224,-12.7038
700,-216,59.0439,12.7543,0,0,0,0,0,0,0,-1,1924,1240,59.0439,-12.7543
707,-216,59.3162,11.9524,0,0,0,0,0,0,0,-1,1931,1240,59.3162,-11.9524
714,-216,59.2394,11.3284,3.40631e-05,0.00125411,0.000718303,0.00158647,-0.000298297,1.13743,0.00116983,0.0273381,1938,1240,59.2394,-11.3284
721,-216,59.2097,10.6698,-0.000266935,0.00113838,0.00131136,0.00192347,-0.00105203,1.03134,0.00174229,0.0145566,1945,1240,59.2097,-10.6698
728,-216,59.22,9.93909,-0.000361968,0.000942862,0.00168608,0.00209835,-0.00151745,0.969998,0.00209654,0.0144146,1952,1240,59.2199,-9.93909
735,-216,59.213,9.21423,-0.000394689,0.000828001,0.00190054,0.0022131,-0.00177979,0.941007,0.00230981,0.0163685,1959,1240,59.2131,-9.21426
742,-216,59.1075,8.47253,-0.00041169,0.000644077,0.00227064,0.00244738,-0.002215,0.899611,0.00269294,0.0179124,1966,1240,59.1075,-8.4725
749,-216,59.0259,7.7196,-0.000386186,0.000479925,0.00284364,0.0029233,-0.00282956,0.860962,0.00332156,0.0132218,1973,1240,59.0259,-7.71958
756,-216,58.975,6.98425,-0.00029005,0.000332648,0.00364704,0.00368161,-0.00363901,0.82798,0.00422658,0.0115482,1980,1240,58.975,-6.9842
763,-216,58.9227,6.30847,-0.000300925,1.84458e-05,0.00516016,0.00502139,-0.00530387,0.800866,0.00596203,0.0234809,1987,1240,58.9227,-6.30843
770,-216,59.0276,5.64429,0,0,0,0,0,0,0,-1,1994,1240,59.0276,-5.64427
777,-216,59.2256,4.94763,0,0,0,0,0,0,0,-1,2001,1240,59.2256,-4.94769
784,-216,68.2205,0.660034,0,0,0,0,0,0,0,-1,2008,1240,68.2204,-0.660033
791,-216,67.71,1.8468,0,0,0,0,0,0,0,-1,2015,1240,67.7099,-1.84686
798,-216,0,0,0,0,0,0,0,0,0,-1,2022,1240,0,0
805,-216,0,0,0,0,0,0,0,0,0,-1,2029,1240,0,0
812,-216,0,0,0,0,0,0,0,0,0,-1,2036,1240,0,0
-700,-223,0,0,0,0,0,0,0,0,0,-1,524,1247,0,0
-693,-223,0,0,0,0,0,0,0,0,0,-1,531,1247,0,0
-686,-223,0,0,0,0,0,0,0,0,0,-1,538,1247,0,0
-679,-223,0,0,0,0,0,0,0,0,0,-1,545,1247,0,0
-672,-223,-46.3007,3.27185,0,0,0,0,0,0,0,-1,552,1247,-46.3007,-3.27184
-665,-223,-47.9709,3.83252,0,0,0,0,0,0,0,-1,559,1247,-47.9709,-3.83247
-658,-223,-39.6435,-8.36633,0,0,0,0,0,0,0,-1,566,1247,-39.6435,8.36633
-651,-223,-40.2339,-7.32275,0,0,0,0,0,0,0,-1,573,1247,-40.234,7.32277
-644,-223,-45.9081,3.8446,0,0,0,0,0,0,0,-1,580,1247,-45.9081,-3.84463
-637,-223,-49.2922,0.294189,0,0,0,0,0,0,0,-1,587,1247,-49.2922,-0.294245
-630,-223,-41.6746,5.15442,0,0,0,0,0,0,0,-1,594,1247,-41.6746,-5.15438
-623,-223,-41.767,6.29468,0.00426441,0.00294897,0.00298769,0.00666592,0.000547457,0.677055,0.00427317,0.0455521,601,1247,-41.767,-6.29466
-616,-223,-41.7384,6.83533,0.0039006,0.00117298,0.00134667,0.00445342,0.000620151,0.389537,0.00278534,0.0175449,608,1247,-41.7384,-6.83529
-609,-223,-41.782,7.61609,0.00272938,0.00025678,0.00010863,0.00273414,0.000252017,0.0438209,0.00174483,0.012525,615,1247,-41.782,-7.61604
-602,-223,-41.8125,8.36462,0.00157256,-0.000278591,-0.00109935,0.00208409,-0.000790119,-0.435503,0.00171457,0.0150608,622,1247,-41.8125,-8.36467
-595,-223,-41.8038,9.16138,0.000627084,-0.00107961,-0.00219648,0.00213016,-0.00258268,-0.600119,0.00272514,0.0216694,629,1247,-41.8037,-9.16142
-588,-223,-41.7912,9.93958,0.000226745,-0.0020476,-0.00310493,0.0023962,-0.00421705,-0.609861,0.0038661,0.0372613,636,1247,-41.7912,-9.9396
-581,-223,-41.8013,10.5825,0,0,0,0,0,0,0,-1,643,1247,-41.8013,-10.5825
-574,-223,-42.2881,10.9781,0,0,0,0,0,0,0,-1,650,1247,-42.2881,-10.9782
-567,-223,-42.4053,11.7667,0,0,0,0,0,0,0,-1,657,1247,-42.4054,-11.7667
-560,-223,-31.8748,9.50732,0,0,0,0,0,0,0,-1,664,1247,-31.8748,-9.50735
-553,-223,-11.4025,4.14722,0,0,0,0,0,0,0,-1,671,1247,-11.4025,-4.14719
-546,-223,-26.9034,-0.148682,0,0,0,0,0,0,0,-1,678,1247,-26.9034,0.14867
-539,-223,-36.7405,0.35376,0,0,0,0,0,0,0,-1,685,1247,-36.7405,-0.353807
-532,-223,-47.6184,1.39844,0,0,0,0,0,0,0,-1,692,1247,-47.6184,-1.3984
-525,-223,-59.3369,0.39624,0,0,0,0,0,0,0,-1,699,1247,-59.3368,-0.396275
-518,-223,-58.6414,0.282959,0,0,0,0,0,0,0,-1,706,1247,-58.6414,-0.282927
-511,-223,-58.6152,0.127075,0,0,0,0,0,0,0,-1,713,1247,-58.6152,-0.127072
-504,-223,-58.7078,0.0635986,0,0,0,0,0,0,0,-1,720,1247,-58.7077,-0.0635483
-497,-223,0,0,0,0,0,0,0,0,0,-1,727,1247,0,0
-490,-223,0,0,0,0,0,0,0,0,0,-1,734,1247,0,0
-483,-223,0,0,0,0,0,0,0,0,0,-1,741,1247,0,0
-476,-223,0,0,0,0,0,0,0,0,0,-1,748,1247,0,0
-469,-223,0,0,0,0,0,0,0,0,0,-1,755,1247,0,0
-462,-223,0,0,0,0,0,0,0,0,0,-1,762,1247,0,0
-455,-223,0,0,0,0,0,0,0,0,0,-1,769,1247,0,0
-448,-223,0,0,0,0,0,0,0,0,0,-1,776,1247,0,0
-441,-223,0,0,0,0,0,0,0,0,0,-1,783,1247,0,0
-434,-223,0,0,0,0,0,0,0,0,0,-1,790,1247,0,0
-427,-223,0,0,0,0,0,0,0,0,0,-1,797,1247,0,0
-420,-223,0,0,0,0,0,0,0,0,0,-1,804,1247,0,0
-413,-223,0,0,0,0,0,0,0,0,0,-1,811,1247,0,0
-406,-223,0,0,0,0,0,0,0,0,0,-1,818,1247,0,0
-399,-223,0,0,0,0,0,0,0,0,0,-1,825,1247,0,0
-392,-223,0,0,0,0,0,0,0,0,0,-1,832,1247,0,0
-385,-223,0,0,0,0,0,0,0,0,0,-1,839,1247,0,0
-378,-223,0,0,0,0,0,0,0,0,0,-1,846,1247,0,0
-371,-223,0,0,0,0,0,0,0,0,0,-1,853,1247,0,0
-364,-223,0,0,0,0,0,0,0,0,0,-1,860,1247,0,0
-357,-223,0,0,0,0,0,0,0,0,0,-1,867,1247,0,0
-350,-223,0,0,0,0,0,0,0,0,0,-1,874,1247,0,0
-343,-223,0,0,0,0,0,0,0,0,0,-1,881,1247,0,0
-336,-223,0,0,0,0,0,0,0,0,0,-1,888,1247,0,0
-329,-223,0,0,0,0,0,0,0,0,0,-1,895,1247,0,0
-322,-223,0,0,0,0,0,0,0,0,0,-1,902,1247,0,0
-315,-223,0,0,0,0,0,0,0,0,0,-1,909,1247,0,0
-308,-223,0,0,0,0,0,0,0,0,0,-1,916,1247,0,0
-301,-223,0,0,0,0,0,0,0,0,0,-1,923,1247,0,0
-294,-223,0,0,0,0,0,0,0,0,0,-1,930,1247,0,0
-287,-223,0,0,0,0,0,0,0,0,0,-1,937,1247,0,0
-280,-223,0,0,0,0,0,0,0,0,0,-1,944,1247,0,0
-273,-223,0,0,0,0,0,0,0,0,0,-1,951,1247,0,0
-266,-223,0,0,0,0,0,0,0,0,0,-1,958,1247,0,0
-259,-223,0,0,0,0,0,0,0,0,0,-1,965,1247,0,0
-252,-223,0,0,0,0,0,0,0,0,0,-1,972,1247,0,0
-245,-223,0,0,0,0,0,0,0,0,0,-1,979,1247,0,0
-238,-223,0,0,0,0,0,0,0,0,0,-1,986,1247,0,0
-231,-223,0,0,0,0,0,0,0,0,0,-1,993,1247,0,0
-224,-223,0,0,0,0,0,0,0,0,0,-1,1000,1247,0,0
-217,-223,0,0,0,0,0,0,0,0,0,-1,1007,1247,0,0
-210,-223,0,0,0,0,0,0,0,0,0,-1,1014,1247,0,0
-203,-223,0,0,0,0,0,0,0,0,0,-1,1021,1247,0,0
-196,-223,0,0,0,0,0,0,0,0,0,-1,1028,1247,0,0
-189,-223,0,0,0,0,0,0,0,0,0,-1,1035,1247,0,0
-182,-223,0,0,0,0,0,0,0,0,0,-1,1042,1247,0,0
-175,-223,0,0,0,0,0,0,0,0,0,-1,1049,1247,0,0
-168,-223,0,0,0,0,0,0,0,0,0,-1,1056,1247,0,0
-161,-223,0,0,0,0,0,0,0,0,0,-1,1063,1247,0,0
-154,-223,0,0,0,0,0,0,0,0,0,-1,1070,1247,0,0
-147,-223,0,0,0,0,0,0,0,0,0,-1,1077,1247,0,0
-140,-223,0,0,0,0,0,0,0,0,0,-1,1084,1247,0,0
-133,-223,0,0,0,0,0,0,0,0,0,-1,1091,1247,0,0
-126,-223,0,0,0,0,0,0,0,0,0,-1,1098,1247,0,0
-119,-223,0,0,0,0,0,0,0,0,0,-1,1105,1247,0,0
-112,-223,0,0,0,0,0,0,0,0,0,-1,1112,1247,0,0
-105,-223,0,0,0,0,0,0,0,0,0,-1,1119,1247,0,0
-98,-223,0,0,0,0,0,0,0,0,0,-1,1126,1247,0,0
-91,-223,0,0,0,0,0,0,0,0,0,-1,1133,1247,0,0
-84,-223,0,0,0,0,0,0,0,0,0,-1,1140,1247,0,0
-77,-223,0,0,0,0,0,0,0,0,0,-1,1147,1247,0,0
-70,-223,0,0,0,0,0,0,0,0,0,-1,1154,1247,0,0
-63,-223,0,0,0,0,0,0,0,0,0,-1,1161,1247,0,0
-56,-223,0,0,0,0,0,0,0,0,0,-1,1168,1247,0,0
-49,-223,0,0,0,0,0,0,0,0,0,-1,1175,1247,0,0
-42,-223,0,0,0,0,0,0,0,0,0,-1,1182,1247,0,0
-35,-223,0,0,0,0,0,0,0,0,0,-1,1189,1247,0,0
-28,-223,0,0,0,0,0,0,0,0,0,-1,1196,1247,0,0
-21,-223,0,0,0,0,0,0,0,0,0,-1,1203,1247,0,0
-14,-223,0,0,0,0,0,0,0,0,0,-1,1210,1247,0,0
-7,-223,0,0,0,0,0,0,0,0,0,-1,1217,1247,0,0
0,-223,0,0,0,0,0,0,0,0,0,-1,1224,1247,0,0
7,-223,0,0,0,0,0,0,0,0,0,-1,1231,1247,0,0
14,-223,0,0,0,0,0,0,0,0,0,-1,1238,1247,0,0
21,-223,0,0,0,0,0,0,0,0,0,-1,1245,1247,0,0
28,-223,0,0,0,0,0,0,0,0,0,-1,1252,1247,0,0
35,-223,0,0,0,0,0,0,0,0,0,-1,1259,1247,0,0
42,-223,0,0,0,0,0,0,0,0,0,-1,1266,1247,0,0
49,-223,0,0,0,0,0,0,0,0,0,-1,1273,1247,0,0
56,-223,0,0,0,0,0,0,0,0,0,-1,1280,1247,0,0
63,-223,0,0,0,0,0,0,0,0,0,-1,1287,1247,0,0
70,-223,0,0,0,0,0,0,0,0,0,-1,1294,1247,0,0
77,-223,0,0,0,0,0,0,0,0,0,-1,1301,1247,0,0
84,-223,0,0,0,0,0,0,0,0,0,-1,1308,1247,0,0
91,-223,0,0,0,0,0,0,0,0,0,-1,1315,1247,0,0
98,-223,0,0,0,0,0,0,0,0,0,-1,1322,1247,0,0
105,-223,0,0,0,0,0,0,0,0,0,-1,1329,1247,0,0
112,-223,0,0,0,0,0,0,0,0,0,-1,1336,1247,0,0
119,-223,0,0,0,0,0,0,0,0,0,-1,1343,1247,0,0
126,-223,0,0,0,0,0,0,0,0,0,-1,1350,1247,0,0
133,-223,0,0,0,0,0,0,0,0,0,-1,1357,1247,0,0
140,-223,0,0,0,0,0,0,0,0,0,-1,1364,1247,0,0
147,-223,0,0,0,0,0,0,0,0,0,-1,1371,1247,0,0
154,-223,0,0,0,0,0,0,0,0,0,-1,1378,1247,0,0
161,-223,0,0,0,0,0,0,0,0,0,-1,1385,1247,0,0
168,-223,0,0,0,0,0,0,0,0,0,-1,1392,1247,0,0
175,-223,0,0,0,0,0,0,0,0,0,-1,1399,1247,0,0
182,-223,0,0,0,0,0,0,0,0,0,-1,1406,1247,0,0
189,-223,0,0,0,0,0,0,0,0,0,-1,1413,1247,0,0
196,-223,0,0,0,0,0,0,0,0,0,-1,1420,1247,0,0
203,-223,0,0,0,0,0,0,0,0,0,-1,1427,1247,0,0
210,-223,0,0,0,0,0,0,0,0,0,-1,1434,1247,0,0
217,-223,0,0,0,0,0,0,0,0,0,-1,1441,1247,0,0
224,-223,0,0,0,0,0,0,0,0,0,-1,1448,1247,0,0
231,-223,0,0,0,0,0,0,0,0,0,-1,1455,1247,0,0
238,-223,0,0,0,0,0,0,0,0,0,-1,1462,1247,0,0
245,-223,0,0,0,0,0,0,0,0,0,-1,1469,1247,0,0
252,-223,0,0,0,0,0,0,0,0,0,-1,1476,1247,0,0
259,-223,0,0,0,0,0,0,0,0,0,-1,1483,1247,0,0
266,-223,0,0,0,0,0,0,0,0,0,-1,1490,1247,0,0
273,-223,0,0,0,0,0,0,0,0,0,-1,1497,1247,0,0
280,-223,0,0,0,0,0,0,0,0,0,-1,1504,1247,0,0
287,-223,0,0,0,0,0,0,0,0,0,-1,1511,1247,0,0
294,-223,0,0,0,0,0,0,0,0,0,-1,1518,1247,0,0
301,-223,0,0,0,0,0,0,0,0,0,-1,1525,1247,0,0
308,-223,0,0,0,0,0,0,0,0,0,-1,1532,1247,0,0
315,-223,0,0,0,0,0,0,0,0,0,-1,1539,1247,0,0
322,-223,0,0,0,0,0,0,0,0,0,-1,1546,1247,0,0
329,-223,0,0,0,0,0,0,0,0,0,-1,1553,1247,0,0
336,-223,0,0,0,0,0,0,0,0,0,-1,1560,1247,0,0
343,-223,0,0,0,0,0,0,0,0,0,-1,1567,1247,0,0
350,-223,0,0,0,0,0,0,0,0,0,-1,1574,1247,0,0
357,-223,0,0,0,0,0,0,0,0,0,-1,1581,1247,0,0
364,-223,0,0,0,0,0,0,0,0,0,-1,1588,1247,0,0
371,-223,0,0,0,0,0,0,0,0,0,-1,1595,1247,0,0
378,-223,0,0,0,0,0,0,0,0,0,-1,1602,1247,0,0
385,-223,0,0,0,0,0,0,0,0,0,-1,1609,1247,0,0
392,-223,0,0,0,0,0,0,0,0,0,-1,1616,1247,0,0
399,-223,0,0,0,0,0,0,0,0,0,-1,1623,1247,0,0
406,-223,0,0,0,0,0,0,0,0,0,-1,1630,1247,0,0
413,-223,0,0,0,0,0,0,0,0,0,-1,1637,1247,0,0
420,-223,0,0,0,0,0,0,0,0,0,-1,1644,1247,0,0
427,-223,0,0,0,0,0,0,0,0,0,-1,1651,1247,0,0
434,-223,0,0,0,0,0,0,0,0,0,-1,1658,1247,0,0
441,-223,0,0,0,0,0,0,0,0,0,-1,1665,1247,0,0
448,-223,0,0,0,0,0,0,0,0,0,-1,1672,1247,0,0
455,-223,0,0,0,0,0,0,0,0,0,-1,1679,1247,0,0
462,-223,0,0,0,0,0,0,0,0,0,-1,1686,1247,0,0
469,-223,0,0,0,0,0,0,0,0,0,-1,1693,1247,0,0
476,-223,0,0,0,0,0,0,0,0,0,-1,1700,1247,0,0
483,-223,0,0,0,0,0,0,0,0,0,-1,1707,1247,0,0
490,-223,0,0,0,0,0,0,0,0,0,-1,1714,1247,0,0
497,-223,0,0,0,0,0,0,0,0,0,-1,1721,1247,0,0
504,-223,0,0,0,0,0,0,0,0,0,-1,1728,1247,0,0
511,-223,0,0,0,0,0,0,0,0,0,-1,1735,1247,0,0
518,-223,0,0,0,0,0,0,0,0,0,-1,1742,1247,0,0
525,-223,0,0,0,0,0,0,0,0,0,-1,1749,1247,0,0
532,-223,0,0,0,0,0,0,0,0,0,-1,1756,1247,0,0
539,-223,0,0,0,0,0,0,0,0,0,-1,1763,1247,0,0
546,-223,0,0,0,0,0,0,0,0,0,-1,1770,1247,0,0
553,-223,0,0,0,0,0,0,0,0,0,-1,1777,1247,0,0
560,-223,0,0,0,0,0,0,0,0,0,-1,1784,1247,0,0
567,-223,0,0,0,0,0,0,0,0,0,-1,1791,1247,0,0
574,-223,0,0,0,0,0,0,0,0,0,-1,1798,1247,0,0
581,-223,0,0,0,0,0,0,0,0,0,-1,1805,1247,0,0
588,-223,0,0,0,0,0,0,0,0,0,-1,1812,1247,0,0
595,-223,0,0,0,0,0,0,0,0,0,-1,1819,1247,0,0
602,-223,0,0,0,0,0,0,0,0,0,-1,1826,1247,0,0
609,-223,0,0,0,0,0,0,0,0,0,-1,1833,1247,0,0
616,-223,0,0,0,0,0,0,0,0,0,-1,1840,1247,0,0
623,-223,76.2047,1.77551,-0.00170026,0.0020589,0.00388656,0.00449651,-0.00413787,1.01062,0.0049865,0.0400819,1847,1247,76.2048,-1.77546
630,-223,76.0421,1.96594,-0.00145874,0.00359033,0.00162369,0.0040674,-0.00193581,1.28502,0.00353804,0.0389739,1854,1247,76.0421,-1.96599
637,-223,76.1758,2.10474,-0.00108177,0.00507714,-0.000739577,0.0051647,-0.00116934,-1.45295,0.00389192,0.0314036,1861,1247,76.1758,-2.10472
644,-223,76.2245,2.11267,-0.000486689,0.00564464,-0.00230022,0.00641164,-0.00125369,-1.24894,0.00474782,0.0237536,1868,1247,76.2244,-2.11266
651,-223,76.2566,2.05042,-9.84055e-05,0.00508154,-0.00248651,0.00608193,-0.0010988,-1.18829,0.00446617,0.0303912,1875,1247,76.2566,-2.05044
658,-223,76.4005,2.08826,0,0,0,0,0,0,0,-1,1882,1247,76.4006,-2.08825
665,-223,68.7177,1.6427,0,0,0,0,0,0,0,-1,1889,1247,68.7176,-1.64275
672,-223,56.4625,2.72424,0,0,0,0,0,0,0,-1,1896,1247,56.4626,-2.72418
679,-223,43.2783,2.46973,0,0,0,0,0,0,0,-1,1903,1247,43.2784,-2.46978
686,-223,40.7926,10.0316,0,0,0,0,0,0,0,-1,1910,1247,40.7926,-10.0316
693,-223,55.5261,12.8093,0,0,0,0,0,0,0,-1,1917,1247,55.5261,-12.8093
700,-223,55.0945,12.2452,0,0,0,0,0,0,0,-1,1924,1247,55.0944,-12.2452
707,-223,58.7408,12.0057,0,0,0,0,0,0,0,-1,1931,1247,58.7409,-12.0058
714,-223,58.5656,11.3684,-0.000455979,0.000541049,0.001187,0.00132997,-0.0012449,0.984202,0.00148687,0.0240063,1938,1247,58.5655,-11.3684
721,-223,58.4626,10.6949,-0.000788469,0.000403163,0.00176272,0.00166804,-0.00205335,0.948375,0.00215238,0.0167224,1945,1247,58.4627,-10.6949
728,-223,58.4471,9.94604,-0.000894946,0.000299144,0.00213238,0.00191648,-0.00251229,0.921898,0.00256465,0.0206295,1952,1247,58.4472,-9.94604
735,-223,58.3969,9.2522,-0.000907352,0.000279825,0.0024335,0.00219109,-0.00281861,0.905024,0.0028999,0.0202016,1959,1247,58.3969,-9.25218
742,-223,58.3098,8.55103,-0.000902321,0.000202914,0.00289724,0.00259977,-0.00329917,0.879636,0.00341372,0.0182876,1966,1247,58.3098,-8.55097
749,-223,58.2651,7.75037,-0.000854138,0.000120085,0.00353783,0.00320418,-0.00393823,0.853811,0.00413093,0.0136079,1973,1247,58.2651,-7.75042
756,-223,58.2004,7.00244,-0.000761282,3.63145e-05,0.00441262,0.00406812,-0.00479309,0.830464,0.00512172,0.0146332,1980,1247,58.2005,-7.00241
763,-223,58.1694,6.35107,-0.00081285,-0.000239279,0.00599184,0.00547264,-0.00652477,0.809311,0.00693558,0.0213028,1987,1247,58.1694,-6.35103
770,-223,58.3894,5.67004,0,0,0,0,0,0,0,-1,1994,1247,58.3895,-5.67002
777,-223,53.7227,4.88562,0,0,0,0,0,0,0,-1,2001,1247,53.7227,-4.8856
784,-223,68.8677,0.507813,0,0,0,0,0,0,0,-1,2008,1247,68.8676,-0.507816
791,-223,34.7136,2.92554,0,0,0,0,0,0,0,-1,2015,1247,34.7137,-2.92555
798,-223,0,0,0,0,0,0,0,0,0,-1,2022,1247,0,0
805,-223,0,0,0,0,0,0,0,0,0,-1,2029,1247,0,0
812,-223,0,0,0,0,0,0,0,0,0,-1,2036,1247,0,0
-700,-230,0,0,0,0,0,0,0,0,0,-1,524,1254,0,0
-693,-230,0,0,0,0,0,0,0,0,0,-1,531,1254,0,0
-686,-230,0,0,0,0,0,0,0,0,0,-1,538,1254,0,0
-679,-230,0,0,0,0,0,0,0,0,0,-1,545,1254,0,0
-672,-230,-38.5905,2.07617,0,0,0,0,0,0,0,-1,552,1254,-38.5905,-2.07614
-665,-230,-38.168,-9.9397,0,0,0,0,0,0,0,-1,559,1254,-38.168,9.93971
-658,-230,-38.8468,-8.48303,0,0,0,0,0,0,0,-1,566,1254,-38.8468,8.48304
-651,-230,-39.3627,-7.38525,0,0,0,0,0,0,0,-1,573,1254,-39.3627,7.38529
-644,-230,-48.2715,0.872925,0,0,0,0,0,0,0,-1,580,1254,-48.2715,-0.87288
-637,-230,-49.1636,-0.158325,0,0,0,0,0,0,0,-1,587,1254,-49.1636,0.158288
-630,-230,-41.3331,5.24744,0,0,0,0,0,0,0,-1,594,1254,-41.3331,-5.24744
-623,-230,-40.9172,6.07898,0,0,0,0,0,0,0,-1,601,1254,-40.9172,-6.07895
-616,-230,-40.9387,6.85925,0.00448237,0.000548634,0.00161417,0.00505993,-2.89269e-05,0.343612,0.00338297,0.0182648,608,1254,-40.9387,-6.85926
-609,-230,-40.9815,7.63586,0.00299419,0.000138094,0.000455721,0.00306514,6.71411e-05,0.154453,0.00202142,0.012001,615,1254,-40.9815,-7.63589
-602,-230,-41.008,8.42566,0.0017205,-0.000290427,-0.000635538,0.00190452,-0.000474445,-0.281839,0.00145386,0.0124419,622,1254,-41.008,-8.42568
-595,-230,-41.0383,9.23206,0.000662752,-0.000962698,-0.00167764,0.00171417,-0.00201411,-0.559835,0.00215484,0.0205241,629,1254,-41.0382,-9.23209
-588,-230,-41.1265,10.0593,6.21045e-05,-0.00183987,-0.0026181,0.00189659,-0.00367435,-0.61119,0.00327052,0.0308274,636,1254,-41.1265,-10.0593
-581,-230,-41.2279,11.0194,-8.58988e-05,-0.00280039,-0.00348997,0.00230145,-0.00518774,-0.599948,0.00442963,0.0443734,643,1254,-41.2279,-11.0195
-574,-230,-41.5248,11.9548,0,0,0,0,0,0,0,-1,650,1254,-41.5248,-11.9549
-567,-230,-40.7749,11.8311,0,0,0,0,0,0,0,-1,657,1254,-40.7749,-11.8311
-560,-230,-41.2172,12.1694,0,0,0,0,0,0,0,-1,664,1254,-41.2172,-12.1695
-553,-230,-13.1939,4.9718,0,0,0,0,0,0,0,-1,671,1254,-13.1939,-4.97175
-546,-230,-15.23,0.453979,0,0,0,0,0,0,0,-1,678,1254,-15.23,-0.453996
-539,-230,-25.8232,0.512817,0,0,0,0,0,0,0,-1,685,1254,-25.8232,-0.512878
-532,-230,-21.1644,1.52966,0,0,0,0,0,0,0,-1,692,1254,-21.1644,-1.52969
-525,-230,-29.4775,0.731445,0,0,0,0,0,0,0,-1,699,1254,-29.4775,-0.731432
-518,-230,-58.4527,0.306763,0,0,0,0,0,0,0,-1,706,1254,-58.4527,-0.306713
-511,-230,-58.5638,0.119385,0,0,0,0,0,0,0,-1,713,1254,-58.5638,-0.119355
-504,-230,-58.7014,-0.0012207,0,0,0,0,0,0,0,-1,720,1254,-58.7014,0.00119704
-497,-230,0,0,0,0,0,0,0,0,0,-1,727,1254,0,0
-490,-230,0,0,0,0,0,0,0,0,0,-1,734,1254,0,0
-483,-230,0,0,0,0,0,0,0,0,0,-1,741,1254,0,0
-476,-230,0,0,0,0,0,0,0,0,0,-1,748,1254,0,0
-469,-230,0,0,0,0,0,0,0,0,0,-1,755,1254,0,0
-462,-230,0,0,0,0,0,0,0,0,0,-1,762,1254,0,0
-455,-230,0,0,0,0,0,0,0,0,0,-1,769,1254,0,0
-448,-230,0,0,0,0,0,0,0,0,0,-1,776,1254,0,0
-441,-230,0,0,0,0,0,0,0,0,0,-1,783,1254,0,0
-434,-230,0,0,0,0,0,0,0,0,0,-1,790,1254,0,0
-427,-230,0,0,0,0,0,0,0,0,0,-1,797,1254,0,0
-420,-230,0,0,0,0,0,0,0,0,0,-1,804,1254,0,0
-413,-230,0,0,0,0,0,0,0,0,0,-1,811,1254,0,0
-406,-230,0,0,0,0,0,0,0,0,0,-1,818,1254,0,0
-399,-230,0,0,0,0,0,0,0,0,0,-1,825,1254,0,0
-392,-230,0,0,0,0,0,0,0,0,0,-1,832,1254,0,0
-385,-230,0,0,0,0,0,0,0,0,0,-1,839,1254,0,0
-378,-230,0,0,0,0,0,0,0,0,0,-1,846,1254,0,0
-371,-230,0,0,0,0,0,0,0,0,0,-1,853,1254,0,0
-364,-230,0,0,0,0,0,0,0,0,0,-1,860,1254,0,0
-357,-230,0,0,0,0,0,0,0,0,0,-1,867,1254,0,0
-350,-230,0,0,0,0,0,0,0,0,0,-1,874,1254,0,0
-343,-230,0,0,0,0,0,0,0,0,0,-1,881,1254,0,0
-336,-230,0,0,0,0,0,0,0,0,0,-1,888,1254,0,0
-329,-230,0,0,0,0,0,0,0,0,0,-1,895,1254,0,0
-322,-230,0,0,0,0,0,0,0,0,0,-1,902,1254,0,0
-315,-230,0,0,0,0,0,0,0,0,0,-1,909,1254,0,0
-308,-230,0,0,0,0,0,0,0,0,0,-1,916,1254,0,0
-301,-230,0,0,0,0,0,0,0,0,0,-1,923,1254,0,0
-294,-230,0,0,0,0,0,0,0,0,0,-1,930,1254,0,0
-287,-230,0,0,0,0,0,0,0,0,0,-1,937,1254,0,0
-280,-230,0,0,0,0,0,0,0,0,0,-1,944,1254,0,0
-273,-230,0,0,0,0,0,0,0,0,0,-1,951,1254,0,0
-266,-230,0,0,0,0,0,0,0,0,0,-1,958,1254,0,0
-259,-230,0,0,0,0,0,0,0,0,0,-1,965,1254,0,0
-252,-230,0,0,0,0,0,0,0,0,0,-1,972,1254,0,0
-245,-230,0,0,0,0,0,0,0,0,0,-1,979,1254,0,0
-238,-230,0,0,0,0,0,0,0,0,0,-1,986,1254,0,0
-231,-230,0,0,0,0,0,0,0,0,0,-1,993,1254,0,0
-224,-230,0,0,0,0,0,0,0,0,0,-1,1000,1254,0,0
-217,-230,0,0,0,0,0,0,0,0,0,-1,1007,1254,0,0
-210,-230,0,0,0,0,0,0,0,0,0,-1,1014,1254,0,0
-203,-230,0,0,0,0,0,0,0,0,0,-1,1021,1254,0,0
-196,-230,0,0,0,0,0,0,0,0,0,-1,1028,1254,0,0
-189,-230,0,0,0,0,0,0,0,0,0,-1,1035,1254,0,0
-182,-230,0,0,0,0,0,0,0,0,0,-1,1042,1254,0,0
-175,-230,0,0,0,0,0,0,0,0,0,-1,1049,1254,0,0
-168,-230,0,0,0,0,0,0,0,0,0,-1,1056,1254,0,0
-161,-230,0,0,0,0,0,0,0,0,0,-1,1063,1254,0,0
-154,-230,0,0,0,0,0,0,0,0,0,-1,1070,1254,0,0
-147,-230,0,0,0,0,0,0,0,0,0,-1,1077,1254,0,0
-140,-230,0,0,0,0,0,0,0,0,0,-1,1084,1254,0,0
-133,-230,0,0,0,0,0,0,0,0,0,-1,1091,1254,0,0
-126,-230,0,0,0,0,0,0,0,0,0,-1,1098,1254,0,0
-119,-230,0,0,0,0,0,0,0,0,0,-1,1105,1254,0,0
-112,-230,0,0,0,0,0,0,0,0,0,-1,1112,1254,0,0
-105,-230,0,0,0,0,0,0,0,0,0,-1,1119,1254,0,0
-98,-230,0,0,0,0,0,0,0,0,0,-1,1126,1254,0,0
-91,-230,0,0,0,0,0,0,0,0,0,-1,1133,1254,0,0
-84,-230,0,0,0,0,0,0,0,0,0,-1,1140,1254,0,0
-77,-230,0,0,0,0,0,0,0,0,0,-1,1147,1254,0,0
-70,-230,0,0,0,0,0,0,0,0,0,-1,1154,1254,0,0
-63,-230,0,0,0,0,0,0,0,0,0,-1,1161,1254,0,0
-56,-230,0,0,0,0,0,0,0,0,0,-1,1168,1254,0,0
-49,-230,0,0,0,0,0,0,0,0,0,-1,1175,1254,0,0
-42,-230,0,0,0,0,0,0,0,0,0,-1,1182,1254,0,0
-35,-230,0,0,0,0,0,0,0,0,0,-1,1189,1254,0,0
-28,-230,0,0,0,0,0,0,0,0,0,-1,1196,1254,0,0
-21,-230,0,0,0,0,0,0,0,0,0,-1,1203,1254,0,0
-14,-230,0,0,0,0,0,0,0,0,0,-1,1210,1254,0,0
-7,-230,0,0,0,0,0,0,0,0,0,-1,1217,1254,0,0
0,-230,0,0,0,0,0,0,0,0,0,-1,1224,1254,0,0
7,-230,0,0,0,0,0,0,0,0,0,-1,1231,1254,0,0
14,-230,0,0,0,0,0,0,0,0,0,-1,1238,1254,0,0
21,-230,0,0,0,0,0,0,0,0,0,-1,1245,1254,0,0
28,-230,0,0,0,0,0,0,0,0,0,-1,1252,1254,0,0
35,-230,0,0,0,0,0,0,0,0,0,-1,1259,1254,0,0
42,-230,0,0,0,0,0,0,0,0,0,-1,1266,1254,0,0
49,-230,0,0,0,0,0,0,0,0,0,-1,1273,1254,0,0
56,-230,0,0,0,0,0,0,0,0,0,-1,1280,1254,0,0
63,-230,0,0,0,0,0,0,0,0,0,-1,1287,1254,0,0
70,-230,0,0,0,0,0,0,0,0,0,-1,1294,1254,0,0
77,-230,0,0,0,0,0,0,0,0,0,-1,1301,1254,0,0
84,-230,0,0,0,0,0,0,0,0,0,-1,1308,1254,0,0
91,-230,0,0,0,0,0,0,0,0,0,-1,1315,1254,0,0
98,-230,0,0,0,0,0,0,0,0,0,-1,1322,1254,0,0
105,-230,0,0,0,0,0,0,0,0,0,-1,1329,1254,0,0
112,-230,0,0,0,0,0,0,0,0,0,-1,1336,1254,0,0
119,-230,0,0,0,0,0,0,0,0,0,-1,1343,1254,0,0
126,-230,0,0,0,0,0,0,0,0,0,-1,1350,1254,0,0
133,-230,0,0,0,0,0,0,0,0,0,-1,1357,1254,0,0
140,-230,0,0,0,0,0,0,0,0,0,-1,1364,1254,0,0
147,-230,0,0,0,0,0,0,0,0,0,-1,1371,1254,0,0
154,-230,0,0,0,0,0,0,0,0,0,-1,1378,1254,0,0
161,-230,0,0,0,0,0,0,0,0,0,-1,1385,1254,0,0
168,-230,0,0,0,0,0,0,0,0,0,-1,1392,1254,0,0
175,-230,0,0,0,0,0,0,0,0,0,-1,1399,1254,0,0
182,-230,0,0,0,0,0,0,0,0,0,-1,1406,1254,0,0
189,-230,0,0,0,0,0,0,0,0,0,-1,1413,1254,0,0
196,-230,0,0,0,0,0,0,0,0,0,-1,1420,1254,0,0
203,-230,0,0,0,0,0,0,0,0,0,-1,1427,1254,0,0
210,-230,0,0,0,0,0,0,0,0,0,-1,1434,1254,0,0
217,-230,0,0,0,0,0,0,0,0,0,-1,1441,1254,0,0
224,-230,0,0,0,0,0,0,0,0,0,-1,1448,1254,0,0
231,-230,0,0,0,0,0,0,0,0,0,-1,1455,1254,0,0
238,-230,0,0,0,0,0,0,0,0,0,-1,1462,1254,0,0
245,-230,0,0,0,0,0,0,0,0,0,-1,1469,1254,0,0
252,-230,0,0,0,0,0,0,0,0,0,-1,1476,1254,0,0
259,-230,0,0,0,0,0,0,0,0,0,-1,1483,1254,0,0
266,-230,0,0,0,0,0,0,0,0,0,-1,1490,1254,0,0
273,-230,0,0,0,0,0,0,0,0,0,-1,1497,1254,0,0
280,-230,0,0,0,0,0,0,0,0,0,-1,1504,1254,0,0
287,-230,0,0,0,0,0,0,0,0,0,-1,1511,1254,0,0
294,-230,0,0,0,0,0,0,0,0,0,-1,1518,1254,0,0
301,-230,0,0,0,0,0,0,0,0,0,-1,1525,1254,0,0
308,-230,0,0,0,0,0,0,0,0,0,-1,1532,1254,0,0
315,-230,0,0,0,0,0,0,0,0,0,-1,1539,1254,0,0
322,-230,0,0,0,0,0,0,0,0,0,-1,1546,1254,0,0
329,-230,0,0,0,0,0,0,0,0,0,-1,1553,1254,0,0
336,-230,0,0,0,0,0,0,0,0,0,-1,1560,1254,0,0
343,-230,0,0,0,0,0,0,0,0,0,-1,1567,1254,0,0
350,-230,0,0,0,0,0,0,0,0,0,-1,1574,1254,0,0
357,-230,0,0,0,0,0,0,0,0,0,-1,1581,1254,0,0
364,-230,0,0,0,0,0,0,0,0,0,-1,1588,1254,0,0
371,-230,0,0,0,0,0,0,0,0,0,-1,1595,1254,0,0
378,-230,0,0,0,0,0,0,0,0,0,-1,1602,1254,0,0
385,-230,0,0,0,0,0,0,0,0,0,-1,1609,1254,0,0
392,-230,0,0,0,0,0,0,0,0,0,-1,1616,1254,0,0
399,-230,0,0,0,0,0,0,0,0,0,-1,1623,1254,0,0
406,-230,0,0,0,0,0,0,0,0,0,-1,1630,1254,0,0
413,-230,0,0,0,0,0,0,0,0,0,-1,1637,1254,0,0
420,-230,0,0,0,0,0,0,0,0,0,-1,1644,1254,0,0
427,-230,0,0,0,0,0,0,0,0,0,-1,1651,1254,0,0
434,-230,0,0,0,0,0,0,0,0,0,-1,1658,1254,0,0
441,-230,0,0,0,0,0,0,0,0,0,-1,1665,1254,0,0
448,-230,0,0,0,0,0,0,0,0,0,-1,1672,1254,0,0
455,-230,0,0,0,0,0,0,0,0,0,-1,1679,1254,0,0
462,-230,0,0,0,0,0,0,0,0,0,-1,1686,1254,0,0
469,-230,0,0,0,0,0,0,0,0,0,-1,1693,1254,0,0
476,-230,0,0,0,0,0,0,0,0,0,-1,1700,1254,0,0
483,-230,0,0,0,0,0,0,0,0,0,-1,1707,1254,0,0
490,-230,0,0,0,0,0,0,0,0,0,-1,1714,1254,0,0
497,-230,0,0,0,0,0,0,0,0,0,-1,1721,1254,0,0
504,-230,0,0,0,0,0,0,0,0,0,-1,1728,1254,0,0
511,-230,0,0,0,0,0,0,0,0,0,-1,1735,1254,0,0
518,-230,0,0,0,0,0,0,0,0,0,-1,1742,1254,0,0
525,-230,0,0,0,0,0,0,0,0,0,-1,1749,1254,0,0
532,-230,0,0,0,0,0,0,0,0,0,-1,1756,1254,0,0
539,-230,0,0,0,0,0,0,0,0,0,-1,1763,1254,0,0
546,-230,0,0,0,0,0,0,0,0,0,-1,1770,1254,0,0
553,-230,0,0,0,0,0,0,0,0,0,-1,1777,1254,0,0
560,-230,0,0,0,0,0,0,0,0,0,-1,1784,1254,0,0
567,-230,0,0,0,0,0,0,0,0,0,-1,1791,1254,0,0
574,-230,0,0,0,0,0,0,0,0,0,-1,1798,1254,0,0
581,-230,0,0,0,0,0,0,0,0,0,-1,1805,1254,0,0
588,-230,0,0,0,0,0,0,0,0,0,-1,1812,1254,0,0
595,-230,0,0,0,0,0,0,0,0,0,-1,1819,1254,0,0
602,-230,0,0,0,0,0,0,0,0,0,-1,1826,1254,0,0
609,-230,0,0,0,0,0,0,0,0,0,-1,1833,1254,0,0
616,-230,76.3602,2.09631,-0.00255467,0.00135457,0.0047133,0.00450248,-0.00570258,0.981957,0.00590545,0.0397968,1840,1254,76.3602,-2.09636
623,-230,76.3008,2.04956,-0.00225472,0.00328151,0.00248742,0.00423492,-0.00320812,1.20478,0.00431085,0.0393652,1847,1254,76.3008,-2.04956
630,-230,76.2303,2.04175,-0.00186901,0.00518942,0.000103623,0.00519094,-0.00187053,1.55612,0.00422451,0.0357573,1854,1254,76.2303,-2.04174
637,-230,76.2233,2.1095,-0.00136162,0.00687619,-0.00225377,0.00745248,-0.00193791,-1.32046,0.00572469,0.028092,1861,1254,76.2232,-2.10954
644,-230,76.1718,2.02356,-0.000666253,0.00676453,-0.00307425,0.00787149,-0.00177322,-1.22517,0.00592781,0.0212455,1868,1254,76.1717,-2.02355
651,-230,76.0898,1.86877,-0.000314397,0.00564944,-0.00264205,0.00665153,-0.00131648,-1.20828,0.0049321,0.045515,1875,1254,76.0899,-1.86882
658,-230,75.9954,1.71423,0,0,0,0,0,0,0,-1,1882,1254,75.9953,-1.71429
665,-230,56.2585,2.51587,0,0,0,0,0,0,0,-1,1889,1254,56.2586,-2.51586
672,-230,43.0962,2.78699,0,0,0,0,0,0,0,-1,1896,1254,43.0962,-2.78698
679,-230,27.9967,2.37708,0,0,0,0,0,0,0,-1,1903,1254,27.9967,-2.3771
686,-230,40.8854,10.1788,0,0,0,0,0,0,0,-1,1910,1254,40.8853,-10.1788
693,-230,50.7637,12.0411,0,0,0,0,0,0,0,-1,1917,1254,50.7636,-12.0412
700,-230,57.6554,13.0481,0,0,0,0,0,0,0,-1,1924,1254,57.6555,-13.0481
707,-230,57.8948,12.1442,-0.000356895,0.000225227,0.00112462,0.00109584,-0.00122751,0.912023,0.00134211,0.0338198,1931,1254,57.8948,-12.1441
714,-230,57.7146,11.4761,-0.00081193,2.65523e-05,0.00153547,0.00119898,-0.00198436,0.918669,0.00185645,0.0199159,1938,1254,57.7146,-11.476
721,-230,57.6753,10.7505,-0.00119316,-8.00655e-05,0.00203182,0.00147005,-0.00274328,0.919077,0.00246931,0.0145712,1945,1254,57.6753,-10.7505
728,-230,57.6343,10.0411,-0.00134723,-0.000110862,0.00240531,0.00175444,-0.00321252,0.911179,0.00290857,0.0163132,1952,1254,57.6343,-10.0412
735,-230,57.6021,9.31799,-0.00142931,-7.50204e-05,0.00280164,0.00213015,-0.00363448,0.903972,0.00336577,0.0165885,1959,1254,57.602,-9.31795
742,-230,57.5404,8.54138,-0.00150715,-9.11341e-05,0.00336941,0.00264385,-0.00424213,0.888956,0.00401116,0.0126572,1966,1254,57.5404,-8.54139
749,-230,57.5055,7.7561,-0.00153325,-0.000127711,0.00409742,0.00332677,-0.00498773,0.870329,0.0048322,0.0119501,1973,1254,57.5055,-7.7561
756,-230,57.4584,7.03235,-0.0015438,-0.000188651,0.00508268,0.00426142,-0.00599387,0.851663,0.00594899,0.0159112,1980,1254,57.4584,-7.03234
763,-230,57.447,6.29114,-0.00173263,-0.000481455,0.00678365,0.0057054,-0.00791948,0.831378,0.00790087,0.0380367,1987,1254,57.4471,-6.29115
770,-230,57.7698,5.5249,0,0,0,0,0,0,0,-1,1994,1254,57.7697,-5.52495
777,-230,41.8693,3.74707,0,0,0,0,0,0,0,-1,2001,1254,41.8692,-3.74713
784,-230,35.8896,1.80334,0,0,0,0,0,0,0,-1,2008,1254,35.8897,-1.80338
791,-230,35.6028,2.20642,0,0,0,0,0,0,0,-1,2015,1254,35.6027,-2.2064
798,-230,0,0,0,0,0,0,0,0,0,-1,2022,1254,0,0
805,-230,0,0,0,0,0,0,0,0,0,-1,2029,1254,0,0
812,-230,0,0,0,0,0,0,0,0,0,-1,2036,1254,0,0
-700,-237,0,0,0,0,0,0,0,0,0,-1,524,1261,0,0
-693,-237,0,0,0,0,0,0,0,0,0,-1,531,1261,0,0
-686,-237,0,0,0,0,0,0,0,0,0,-1,538,1261,0,0
-679,-237,0,0,0,0,0,0,0,0,0,-1,545,1261,0,0
-672,-237,-36.6405,-12.5112,0,0,0,0,0,0,0,-1,552,1261,-36.6405,12.5113
-665,-237,-37.1436,-10.5648,0,0,0,0,0,0,0,-1,559,1261,-37.1436,10.5649
-658,-237,-37.8344,-8.67175,0,0,0,0,0,0,0,-1,566,1261,-37.8344,8.67179
-651,-237,-46.9487,1.65137,0,0,0,0,0,0,0,-1,573,1261,-46.9487,-1.65142
-644,-237,-47.6604,0.785034,0,0,0,0,0,0,0,-1,580,1261,-47.6604,-0.785034
-637,-237,-33.4961,2.71313,0,0,0,0,0,0,0,-1,587,1261,-33.4961,-2.71312
-630,-237,-40.1954,5.08655,0,0,0,0,0,0,0,-1,594,1261,-40.1955,-5.0866
-623,-237,-40.0521,5.93457,0.00615833,0.000563518,0.00333366,0.00771279,-0.000990946,0.436321,0.005502,0.0436905,601,1261,-40.0521,-5.93458
-616,-237,-40.0848,6.85364,0.00478467,0.000163186,0.00192359,0.00548054,-0.000532684,0.34711,0.00384358,0.015897,608,1261,-40.0848,-6.85361
-609,-237,-40.1456,7.65417,0.0030876,0.000206514,0.000822471,0.00330585,-1.17442e-05,0.259391,0.00220783,0.0162407,615,1261,-40.1457,-7.65413
-602,-237,-40.1949,8.46692,0.00180769,-0.000180872,-0.00018761,0.00182524,-0.000198418,-0.0932481,0.00128807,0.012311,622,1261,-40.195,-8.4669
-595,-237,-40.2687,9.29224,0.000764664,-0.000843489,-0.00115382,0.00136695,-0.00144577,-0.481084,0.00162414,0.0164374,629,1261,-40.2687,-9.29221
-588,-237,-40.3077,10.121,8.04168e-05,-0.00175098,-0.00205668,0.00141604,-0.0030866,-0.575957,0.00265857,0.0288008,636,1261,-40.3077,-10.121
-581,-237,-40.3336,10.8666,-0.000197558,-0.00279401,-0.00292353,0.00170303,-0.0046946,-0.576446,0.00382591,0.0272106,643,1261,-40.3335,-10.8666
-574,-237,-40.3027,11.4448,-0.000716217,-0.00393655,-0.00307981,0.00114894,-0.0058017,-0.544532,0.00430222,0.037911,650,1261,-40.3027,-11.4448
-567,-237,-40.4425,12.0103,0,0,0,0,0,0,0,-1,657,1261,-40.4425,-12.0102
-560,-237,-40.5389,12.8042,0,0,0,0,0,0,0,-1,664,1261,-40.5389,-12.8042
-553,-237,-20.6102,6.92139,0,0,0,0,0,0,0,-1,671,1261,-20.6102,-6.92138
-546,-237,-11.192,1.14014,0,0,0,0,0,0,0,-1,678,1261,-11.192,-1.14011
-539,-237,-16.512,1.53455,0,0,0,0,0,0,0,-1,685,1261,-16.512,-1.53457
-532,-237,-29.7025,1.23621,0,0,0,0,0,0,0,-1,692,1261,-29.7025,-1.23618
-525,-237,-47.2925,0.590942,0,0,0,0,0,0,0,-1,699,1261,-47.2925,-0.590989
-518,-237,-48.2897,0.765869,0,0,0,0,0,0,0,-1,706,1261,-48.2897,-0.765854
-511,-237,-58.5406,0.300781,0,0,0,0,0,0,0,-1,713,1261,-58.5406,-0.300817
-504,-237,-58.7148,0.260864,0,0,0,0,0,0,0,-1,720,1261,-58.7149,-0.260881
-497,-237,-58.7267,0.338013,0,0,0,0,0,0,0,-1,727,1261,-58.7267,-0.338018
-490,-237,0,0,0,0,0,0,0,0,0,-1,734,1261,0,0
-483,-237,0,0,0,0,0,0,0,0,0,-1,741,1261,0,0
-476,-237,0,0,0,0,0,0,0,0,0,-1,748,1261,0,0
-469,-237,0,0,0,0,0,0,0,0,0,-1,755,1261,0,0
-462,-237,0,0,0,0,0,0,0,0,0,-1,762,1261,0,0
-455,-237,0,0,0,0,0,0,0,0,0,-1,769,1261,0,0
-448,-237,0,0,0,0,0,0,0,0,0,-1,776,1261,0,0
-441,-237,0,0,0,0,0,0,0,0,0,-1,783,1261,0,0
-434,-237,0,0,0,0,0,0,0,0,0,-1,790,1261,0,0
-427,-237,0,0,0,0,0,0,0,0,0,-1,797,1261,0,0
-420,-237,0,0,0,0,0,0,0,0,0,-1,804,1261,0,0
-413,-237,0,0,0,0,0,0,0,0,0,-1,811,1261,0,0
-406,-237,0,0,0,0,0,0,0,0,0,-1,818,1261,0,0
-399,-237,0,0,0,0,0,0,0,0,0,-1,825,1261,0,0
-392,-237,0,0,0,0,0,0,0,0,0,-1,832,1261,0,0
-385,-237,0,0,0,0,0,0,0,0,0,-1,839,1261,0,0
-378,-237,0,0,0,0,0,0,0,0,0,-1,846,1261,0,0
-371,-237,0,0,0,0,0,0,0,0,0,-1,853,1261,0,0
-364,-237,0,0,0,0,0,0,0,0,0,-1,860,1261,0,0
-357,-237,0,0,0,0,0,0,0,0,0,-1,867,1261,0,0
-350,-237,0,0,0,0,0,0,0,0,0,-1,874,1261,0,0
-343,-237,0,0,0,0,0,0,0,0,0,-1,881,1261,0,0
-336,-237,0,0,0,0,0,0,0,0,0,-1,888,1261,0,0
-329,-237,0,0,0,0,0,0,0,0,0,-1,895,1261,0,0
-322,-237,0,0,0,0,0,0,0,0,0,-1,902,1261,0,0
-315,-237,0,0,0,0,0,0,0,0,0,-1,909,1261,0,0
-308,-237,0,0,0,0,0,0,0,0,0,-1,916,1261,0,0
-301,-237,0,0,0,0,0,0,0,0,0,-1,923,1261,0,0
-294,-237,0,0,0,0,0,0,0,0,0,-1,930,1261,0,0
-287,-237,0,0,0,0,0,0,0,0,0,-1,937,1261,0,0
-280,-237,0,0,0,0,0,0,0,0,0,-1,944,1261,0,0
-273,-237,0,0,0,0,0,0,0,0,0,-1,951,1261,0,0
-266,-237,0,0,0,0,0,0,0,0,0,-1,958,1261,0,0
-259,-237,0,0,0,0,0,0,0,0,0,-1,965,1261,0,0
-252,-237,0,0,0,0,0,0,0,0,0,-1,972,1261,0,0
-245,-237,0,0,0,0,0,0,0,0,0,-1,979,1261,0,0
-238,-237,0,0,0,0,0,0,0,0,0,-1,986,1261,0,0
-231,-237,0,0,0,0,0,0,0,0,0,-1,993,1261,0,0
-224,-237,0,0,0,0,0,0,0,0,0,-1,1000,1261,0,0
-217,-237,0,0,0,0,0,0,0,0,0,-1,1007,1261,0,0
-210,-237,0,0,0,0,0,0,0,0,0,-1,1014,1261,0,0
-203,-237,0,0,0,0,0,0,0,0,0,-1,1021,1261,0,0
-196,-237,0,0,0,0,0,0,0,0,0,-1,1028,1261,0,0
-189,-237,0,0,0,0,0,0,0,0,0,-1,1035,1261,0,0
-182,-237,0,0,0,0,0,0,0,0,0,-1,1042,1261,0,0
-175,-237,0,0,0,0,0,0,0,0,0,-1,1049,1261,0,0
-168,-237,0,0,0,0,0,0,0,0,0,-1,1056,1261,0,0
-161,-237,0,0,0,0,0,0,0,0,0,-1,1063,1261,0,0
-154,-237,0,0,0,0,0,0,0,0,0,-1,1070,1261,0,0
-147,-237,0,0,0,0,0,0,0,0,0,-1,1077,1261,0,0
-140,-237,0,0,0,0,0,0,0,0,0,-1,1084,1261,0,0
-133,-237,0,0,0,0,0,0,0,0,0,-1,1091,1261,0,0
-126,-237,0,0,0,0,0,0,0,0,0,-1,1098,1261,0,0
-119,-237,0,0,0,0,0,0,0,0,0,-1,1105,1261,0,0
-112,-237,0,0,0,0,0,0,0,0,0,-1,1112,1261,0,0
-105,-237,0,0,0,0,0,0,0,0,0,-1,1119,1261,0,0
-98,-237,0,0,0,0,0,0,0,0,0,-1,1126,1261,0,0
-91,-237,0,0,0,0,0,0,0,0,0,-1,1133,1261,0,0
-84,-237,0,0,0,0,0,0,0,0,0,-1,1140,1261,0,0
-77,-237,0,0,0,0,0,0,0,0,0,-1,1147,1261,0,0
-70,-237,0,0,0,0,0,0,0,0,0,-1,1154,1261,0,0
-63,-237,0,0,0,0,0,0,0,0,0,-1,1161,1261,0,0
-56,-237,0,0,0,0,0,0,0,0,0,-1,1168,1261,0,0
-49,-237,0,0,0,0,0,0,0,0,0,-1,1175,1261,0,0
-42,-237,0,0,0,0,0,0,0,0,0,-1,1182,1261,0,0
-35,-237,0,0,0,0,0,0,0,0,0,-1,1189,1261,0,0
-28,-237,0,0,0,0,0,0,0,0,0,-1,1196,1261,0,0
-21,-237,0,0,0,0,0,0,0,0,0,-1,1203,1261,0,0
-14,-237,0,0,0,0,0,0,0,0,0,-1,1210,1261,0,0
-7,-237,0,0,0,0,0,0,0,0,0,-1,1217,1261,0,0
0,-237,0,0,0,0,0,0,0,0,0,-1,1224,1261,0,0
7,-237,0,0,0,0,0,0,0,0,0,-1,1231,1261,0,0
14,-237,0,0,0,0,0,0,0,0,0,-1,1238,1261,0,0
21,-237,0,0,0,0,0,0,0,0,0,-1,1245,1261,0,0
28,-237,0,0,0,0,0,0,0,0,0,-1,1252,1261,0,0
35,-237,0,0,0,0,0,0,0,0,0,-1,1259,1261,0,0
42,-237,0,0,0,0,0,0,0,0,0,-1,1266,1261,0,0
49,-237,0,0,0,0,0,0,0,0,0,-1,1273,1261,0,0
56,-237,0,0,0,0,0,0,0,0,0,-1,1280,1261,0,0
63,-237,0,0,0,0,0,0,0,0,0,-1,1287,1261,0,0
70,-237,0,0,0,0,0,0,0,0,0,-1,1294,1261,0,0
77,-237,0,0,0,0,0,0,0,0,0,-1,1301,1261,0,0
84,-237,0,0,0,0,0,0,0,0,0,-1,1308,1261,0,0
91,-237,0,0,0,0,0,0,0,0,0,-1,1315,1261,0,0
98,-237,0,0,0,0,0,0,0,0,0,-1,1322,1261,0,0
105,-237,0,0,0,0,0,0,0,0,0,-1,1329,1261,0,0
112,-237,0,0,0,0,0,0,0,0,0,-1,1336,1261,0,0
119,-237,0,0,0,0,0,0,0,0,0,-1,1343,1261,0,0
126,-237,0,0,0,0,0,0,0,0,0,-1,1350,1261,0,0
133,-237,0,0,0,0,0,0,0,0,0,-1,1357,1261,0,0
140,-237,0,0,0,0,0,0,0,0,0,-1,1364,1261,0,0
147,-237,0,0,0,0,0,0,0,0,0,-1,1371,1261,0,0
154,-237,0,0,0,0,0,0,0,0,0,-1,1378,1261,0,0
161,-237,0,0,0,0,0,0,0,0,0,-1,1385,1261,0,0
168,-237,0,0,0,0,0,0,0,0,0,-1,1392,1261,0,0
175,-237,0,0,0,0,0,0,0,0,0,-1,1399,1261,0,0
182,-237,0,0,0,0,0,0,0,0,0,-1,1406,1261,0,0
189,-237,0,0,0,0,0,0,0,0,0,-1,1413,1261,0,0
196,-237,0,0,0,0,0,0,0,0,0,-1,1420,1261,0,0
203,-237,0,0,0,0,0,0,0,0,0,-1,1427,1261,0,0
210,-237,0,0,0,0,0,0,0,0,0,-1,1434,1261,0,0
217,-237,0,0,0,0,0,0,0,0,0,-1,1441,1261,0,0
224,-237,0,0,0,0,0,0,0,0,0,-1,1448,1261,0,0
231,-237,0,0,0,0,0,0,0,0,0,-1,1455,1261,0,0
238,-237,0,0,0,0,0,0,0,0,0,-1,1462,1261,0,0
245,-237,0,0,0,0,0,0,0,0,0,-1,1469,1261,0,0
252,-237,0,0,0,0,0,0,0,0,0,-1,1476,1261,0,0
259,-237,0,0,0,0,0,0,0,0,0,-1,1483,1261,0,0
266,-237,0,0,0,0,0,0,0,0,0,-1,1490,1261,0,0
273,-237,0,0,0,0,0,0,0,0,0,-1,1497,1261,0,0
280,-237,0,0,0,0,0,0,0,0,0,-1,1504,1261,0,0
287,-237,0,0,0,0,0,0,0,0,0,-1,1511,1261,0,0
294,-237,0,0,0,0,0,0,0,0,0,-1,1518,1261,0,0
301,-237,0,0,0,0,0,0,0,0,0,-1,1525,1261,0,0
308,-237,0,0,0,0,0,0,0,0,0,-1,1532,1261,0,0
315,-237,0,0,0,0,0,0,0,0,0,-1,1539,1261,0,0
322,-237,0,0,0,0,0,0,0,0,0,-1,1546,1261,0,0
329,-237,0,0,0,0,0,0,0,0,0,-1,1553,1261,0,0
336,-237,0,0,0,0,0,0,0,0,0,-1,1560,1261,0,0
343,-237,0,0,0,0,0,0,0,0,0,-1,1567,1261,0,0
350,-237,0,0,0,0,0,0,0,0,0,-1,1574,1261,0,0
357,-237,0,0,0,0,0,0,0,0,0,-1,1581,1261,0,0
364,-237,0,0,0,0,0,0,0,0,0,-1,1588,1261,0,0
371,-237,0,0,0,0,0,0,0,0,0,-1,1595,1261,0,0
378,-237,0,0,0,0,0,0,0,0,0,-1,1602,1261,0,0
385,-237,0,0,0,0,0,0,0,0,0,-1,1609,1261,0,0
392,-237,0,0,0,0,0,0,0,0,0,-1,1616,1261,0,0
399,-237,0,0,0,0,0,0,0,0,0,-1,1623,1261,0,0
406,-237,0,0,0,0,0,0,0,0,0,-1,1630,1261,0,0
413,-237,0,0,0,0,0,0,0,0,0,-1,1637,1261,0,0
420,-237,0,0,0,0,0,0,0,0,0,-1,1644,1261,0,0
427,-237,0,0,0,0,0,0,0,0,0,-1,1651,1261,0,0
434,-237,0,0,0,0,0,0,0,0,0,-1,1658,1261,0,0
441,-237,0,0,0,0,0,0,0,0,0,-1,1665,1261,0,0
448,-237,0,0,0,0,0,0,0,0,0,-1,1672,1261,0,0
455,-237,0,0,0,0,0,0,0,0,0,-1,1679,1261,0,0
462,-237,0,0,0,0,0,0,0,0,0,-1,1686,1261,0,0
469,-237,0,0,0,0,0,0,0,0,0,-1,1693,1261,0,0
476,-237,0,0,0,0,0,0,0,0,0,-1,1700,1261,0,0
483,-237,0,0,0,0,0,0,0,0,0,-1,1707,1261,0,0
490,-237,0,0,0,0,0,0,0,0,0,-1,1714,1261,0,0
497,-237,0,0,0,0,0,0,0,0,0,-1,1721,1261,0,0
504,-237,0,0,0,0,0,0,0,0,0,-1,1728,1261,0,0
511,-237,0,0,0,0,0,0,0,0,0,-1,1735,1261,0,0
518,-237,0,0,0,0,0,0,0,0,0,-1,1742,1261,0,0
525,-237,0,0,0,0,0,0,0,0,0,-1,1749,1261,0,0
532,-237,0,0,0,0,0,0,0,0,0,-1,1756,1261,0,0
539,-237,0,0,0,0,0,0,0,0,0,-1,1763,1261,0,0
546,-237,0,0,0,0,0,0,0,0,0,-1,1770,1261,0,0
553,-237,0,0,0,0,0,0,0,0,0,-1,1777,1261,0,0
560,-237,0,0,0,0,0,0,0,0,0,-1,1784,1261,0,0
567,-237,0,0,0,0,0,0,0,0,0,-1,1791,1261,0,0
574,-237,0,0,0,0,0,0,0,0,0,-1,1798,1261,0,0
581,-237,0,0,0,0,0,0,0,0,0,-1,1805,1261,0,0
588,-237,0,0,0,0,0,0,0,0,0,-1,1812,1261,0,0
595,-237,0,0,0,0,0,0,0,0,0,-1,1819,1261,0,0
602,-237,0,0,0,0,0,0,0,0,0,-1,1826,1261,0,0
609,-237,0,0,0,0,0,0,0,0,0,-1,1833,1261,0,0
616,-237,76.343,2.11145,-0.00316264,0.00224754,0.00359403,0.00404073,-0.00495583,1.108,0.00520312,0.0379077,1840,1261,76.343,-2.11139
623,-237,76.3047,2.07935,-0.0026733,0.00476787,0.00102002,0.00490516,-0.00281059,1.43701,0.00450907,0.0350249,1847,1261,76.3047,-2.07938
630,-237,76.2427,2.12451,-0.00215354,0.00719814,-0.00166728,0.0074865,-0.0024419,-1.39954,0.00597372,0.027972,1854,1261,76.2426,-2.12452
637,-237,76.1455,2.04102,-0.00153904,0.00889641,-0.0039579,0.0102277,-0.00287033,-1.24632,0.00794989,0.0201168,1861,1261,76.1456,-2.04102
644,-237,76.02,1.88037,-0.000866216,0.00773995,-0.00386022,0.00921768,-0.00234395,-1.2052,0.0070574,0.0385676,1868,1261,76.02,-1.88032
651,-237,75.8982,1.70972,0,0,0,0,0,0,0,-1,1875,1261,75.8982,-1.70967
658,-237,74.9572,1.44421,0,0,0,0,0,0,0,-1,1882,1261,74.9572,-1.44419
665,-237,57.9302,3.30676,0,0,0,0,0,0,0,-1,1889,1261,57.9302,-3.30671
672,-237,45.3922,1.95618,0,0,0,0,0,0,0,-1,1896,1261,45.3922,-1.95623
679,-237,23.1501,7.37488,0,0,0,0,0,0,0,-1,1903,1261,23.1502,-7.37493
686,-237,36.8348,9.99426,0,0,0,0,0,0,0,-1,1910,1261,36.8349,-9.99424
693,-237,57.402,13.7354,0,0,0,0,0,0,0,-1,1917,1261,57.402,-13.7354
700,-237,57.1884,13.054,-0.000196989,0.000297399,0.000865417,0.000950233,-0.000849823,0.924512,0.0010398,0.0385236,1924,1261,57.1884,-13.0539
707,-237,57.0446,12.3481,-0.000495331,-0.000324936,0.00124001,0.000832804,-0.00165307,0.819698,0.00146103,0.025265,1931,1261,57.0445,-12.3481
714,-237,56.9438,11.5546,-0.001008,-0.000348008,0.0016812,0.00103528,-0.00239129,0.882309,0.00202931,0.0170618,1938,1261,56.9439,-11.5546
721,-237,56.8633,10.8395,-0.00134903,-0.000329587,0.00214634,0.00136672,-0.00304534,0.901981,0.00260804,0.0187218,1945,1261,56.8633,-10.8395
728,-237,56.8652,10.0886,-0.00148944,-0.000255191,0.00255109,0.00175236,-0.00349699,0.904072,0.003086,0.0164832,1952,1261,56.8652,-10.0886
735,-237,56.8462,9.32532,-0.00160369,-0.000163579,0.00303431,0.00223494,-0.00400221,0.901895,0.00364888,0.020187,1959,1261,56.8462,-9.32527
742,-237,56.7933,8.56714,-0.00173557,-0.000128678,0.00368581,0.00284023,-0.00470448,0.892711,0.00440005,0.01604,1966,1261,56.7934,-8.56713
749,-237,56.7144,7.82874,-0.00181911,-0.000133995,0.00448478,0.00358669,-0.00553979,0.878251,0.00530925,0.0107525,1973,1261,56.7144,-7.82874
756,-237,56.6672,7.08179,-0.00192847,-0.000197337,0.00557421,0.00457811,-0.00670391,0.862423,0.00655211,0.0177944,1980,1261,56.6672,-7.08175
763,-237,56.5624,6.25171,-0.00225728,-0.000549456,0.00738604,0.00603187,-0.00883861,0.842948,0.0086363,0.0423442,1987,1261,56.5623,-6.2517
770,-237,56.8098,5.18604,0,0,0,0,0,0,0,-1,1994,1261,56.8099,-5.18608
777,-237,54.4185,3.49426,0,0,0,0,0,0,0,-1,2001,1261,54.4184,-3.4943
784,-237,36.3441,1.68591,0,0,0,0,0,0,0,-1,2008,1261,36.3441,-1.68592
791,-237,32.3025,6.03235,0,0,0,0,0,0,0,-1,2015,1261,32.3025,-6.03229
798,-237,0,0,0,0,0,0,0,0,0,-1,2022,1261,0,0
805,-237,0,0,0,0,0,0,0,0,0,-1,2029,1261,0,0
812,-237,0,0,0,0,0,0,0,0,0,-1,2036,1261,0,0
-700,-244,0,0,0,0,0,0,0,0,0,-1,524,1268,0,0
-693,-244,0,0,0,0,0,0,0,0,0,-1,531,1268,0,0
-686,-244,0,0,0,0,0,0,0,0,0,-1,538,1268,0,0
-679,-244,0,0,0,0,0,0,0,0,0,-1,545,1268,0,0
-672,-244,-44.7993,4.39575,0,0,0,0,0,0,0,-1,552,1268,-44.7992,-4.39576
-665,-244,-46.0868,3.64392,0,0,0,0,0,0,0,-1,559,1268,-46.0868,-3.64391
-658,-244,-45.9758,2.05481,0,0,0,0,0,0,0,-1,566,1268,-45.9758,-2.05486
-651,-244,-46.4749,1.28564,0,0,0,0,0,0,0,-1,573,1268,-46.4749,-1.28561
-644,-244,-32.7362,1.51355,0,0,0,0,0,0,0,-1,580,1268,-32.7362,-1.51355
-637,-244,-34.8414,3.00073,0,0,0,0,0,0,0,-1,587,1268,-34.8414,-3.00078
-630,-244,-39.4537,4.83362,0,0,0,0,0,0,0,-1,594,1268,-39.4537,-4.83358
-623,-244,-39.3381,5.88037,0.00631322,-0.00051575,0.00361029,0.00786793,-0.00207046,0.406632,0.00605462,0.0407407,601,1268,-39.3381,-5.88032
-616,-244,-39.2763,6.9032,0.00463585,-0.000157461,0.00237167,0.00561096,-0.00113257,0.390079,0.00416975,0.0174606,608,1268,-39.2763,-6.90318
-609,-244,-39.3435,7.71692,0.00303316,0.000167608,0.00128712,0.00352639,-0.000325626,0.365948,0.00246664,0.0147783,615,1268,-39.3435,-7.71688
-602,-244,-39.3894,8.51611,0.00173521,-0.000136727,0.000307706,0.00178449,-0.00018601,0.158813,0.00125627,0.0149759,622,1268,-39.3894,-8.51615
-595,-244,-39.4686,9.3175,0.000676637,-0.00073991,-0.000606328,0.000900718,-0.000963991,-0.354003,0.0010768,0.0159519,629,1268,-39.4686,-9.31748
-588,-244,-39.493,10.135,-0.000160485,-0.00163167,-0.0014665,0.00074457,-0.00253673,-0.552936,0.00198641,0.0202901,636,1268,-39.4931,-10.135
-581,-244,-39.5505,10.8763,-0.000637517,-0.00273853,-0.0023257,0.000863923,-0.00423997,-0.573267,0.0031543,0.0182372,643,1268,-39.5506,-10.8764
-574,-244,-39.6095,11.6105,-0.00113937,-0.00404353,-0.00269677,0.000471403,-0.0056543,-0.538432,0.00393609,0.0305417,650,1268,-39.6095,-11.6105
-567,-244,-39.7358,12.4133,-0.00186667,-0.0056208,-0.0019649,-0.00102635,-0.00646112,-0.404128,0.00400933,0.0379822,657,1268,-39.7358,-12.4134
-560,-244,-39.7693,13.132,-0.00215044,-0.00662377,-0.0012001,-0.00184882,-0.00692539,-0.246232,0.00414061,0.0434054,664,1268,-39.7693,-13.132
-553,-244,-39.7214,13.8505,0,0,0,0,0,0,0,-1,671,1268,-39.7214,-13.8505
-546,-244,-11.2686,4.41772,0,0,0,0,0,0,0,-1,678,1268,-11.2686,-4.41767
-539,-244,-12.8706,0.3302,0,0,0,0,0,0,0,-1,685,1268,-12.8706,-0.330156
-532,-244,-18.1502,0.816528,0,0,0,0,0,0,0,-1,692,1268,-18.1502,-0.816514
-525,-244,-33.0835,0.693604,0,0,0,0,0,0,0,-1,699,1268,-33.0835,-0.69365
-518,-244,-47.5015,0.609131,0,0,0,0,0,0,0,-1,706,1268,-47.5015,-0.60919
-511,-244,-48.6138,1.11877,0,0,0,0,0,0,0,-1,713,1268,-48.6138,-1.11872
-504,-244,-58.7918,0.535522,0,0,0,0,0,0,0,-1,720,1268,-58.7918,-0.535556
-497,-244,-58.8702,0.640625,0,0,0,0,0,0,0,-1,727,1268,-58.8702,-0.640581
-490,-244,0,0,0,0,0,0,0,0,0,-1,734,1268,0,0
-483,-244,0,0,0,0,0,0,0,0,0,-1,741,1268,0,0
-476,-244,0,0,0,0,0,0,0,0,0,-1,748,1268,0,0
-469,-244,0,0,0,0,0,0,0,0,0,-1,755,1268,0,0
-462,-244,0,0,0,0,0,0,0,0,0,-1,762,1268,0,0
-455,-244,0,0,0,0,0,0,0,0,0,-1,769,1268,0,0
-448,-244,0,0,0,0,0,0,0,0,0,-1,776,1268,0,0
-441,-244,0,0,0,0,0,0,0,0,0,-1,783,1268,0,0
-434,-244,0,0,0,0,0,0,0,0,0,-1,790,1268,0,0
-427,-244,0,0,0,0,0,0,0,0,0,-1,797,1268,0,0
-420,-244,0,0,0,0,0,0,0,0,0,-1,804,1268,0,0
-413,-244,0,0,0,0,0,0,0,0,0,-1,811,1268,0,0
-406,-244,0,0,0,0,0,0,0,0,0,-1,818,1268,0,0
-399,-244,0,0,0,0,0,0,0,0,0,-1,825,1268,0,0
-392,-244,0,0,0,0,0,0,0,0,0,-1,832,1268,0,0
-385,-244,0,0,0,0,0,0,0,0,0,-1,839,1268,0,0
-378,-244,0,0,0,0,0,0,0,0,0,-1,846,1268,0,0
-371,-244,0,0,0,0,0,0,0,0,0,-1,853,1268,0,0
-364,-244,0,0,0,0,0,0,0,0,0,-1,860,1268,0,0
-357,-244,0,0,0,0,0,0,0,0,0,-1,867,1268,0,0
-350,-244,0,0,0,0,0,0,0,0,0,-1,874,1268,0,0
-343,-244,0,0,0,0,0,0,0,0,0,-1,881,1268,0,0
-336,-244,0,0,0,0,0,0,0,0,0,-1,888,1268,0,0
-329,-244,0,0,0,0,0,0,0,0,0,-1,895,1268,0,0
-322,-244,0,0,0,0,0,0,0,0,0,-1,902,1268,0,0
-315,-244,0,0,0,0,0,0,0,0,0,-1,909,1268,0,0
-308,-244,0,0,0,0,0,0,0,0,0,-1,916,1268,0,0
-301,-244,0,0,0,0,0,0,0,0,0,-1,923,1268,0,0
-294,-244,0,0,0,0,0,0,0,0,0,-1,930,1268,0,0
-287,-244,0,0,0,0,0,0,0,0,0,-1,937,1268,0,0
-280,-244,0,0,0,0,0,0,0,0,0,-1,944,1268,0,0
-273,-244,0,0,0,0,0,0,0,0,0,-1,951,1268,0,0
-266,-244,0,0,0,0,0,0,0,0,0,-1,958,1268,0,0
-259,-244,0,0,0,0,0,0,0,0,0,-1,965,1268,0,0
-252,-244,0,0,0,0,0,0,0,0,0,-1,972,1268,0,0
-245,-244,0,0,0,0,0,0,0,0,0,-1,979,1268,0,0
-238,-244,0,0,0,0,0,0,0,0,0,-1,986,1268,0,0
-231,-244,0,0,0,0,0,0,0,0,0,-1,993,1268,0,0
-224,-244,0,0,0,0,0,0,0,0,0,-1,1000,1268,0,0
-217,-244,0,0,0,0,0,0,0,0,0,-1,1007,1268,0,0
-210,-244,0,0,0,0,0,0,0,0,0,-1,1014,1268,0,0
-203,-244,0,0,0,0,0,0,0,0,0,-1,1021,1268,0,0
-196,-244,0,0,0,0,0,0,0,0,0,-1,1028,1268,0,0
-189,-244,0,0,0,0,0,0,0,0,0,-1,1035,1268,0,0
-182,-244,0,0,0,0,0,0,0,0,0,-1,1042,1268,0,0
-175,-244,0,0,0,0,0,0,0,0,0,-1,1049,1268,0,0
-168,-244,0,0,0,0,0,0,0,0,0,-1,1056,1268,0,0
-161,-244,0,0,0,0,0,0,0,0,0,-1,1063,1268,0,0
-154,-244,0,0,0,0,0,0,0,0,0,-1,1070,1268,0,0
-147,-244,0,0,0,0,0,0,0,0,0,-1,1077,1268,0,0
-140,-244,0,0,0,0,0,0,0,0,0,-1,1084,1268,0,0
-133,-244,0,0,0,0,0,0,0,0,0,-1,1091,1268,0,0
-126,-244,0,0,0,0,0,0,0,0,0,-1,1098,1268,0,0
-119,-244,0,0,0,0,0,0,0,0,0,-1,1105,1268,0,0
-112,-244,0,0,0,0,0,0,0,0,0,-1,1112,1268,0,0
-105,-244,0,0,0,0,0,0,0,0,0,-1,1119,1268,0,0
-98,-244,0,0,0,0,0,0,0,0,0,-1,1126,1268,0,0
-91,-244,0,0,0,0,0,0,0,0,0,-1,1133,1268,0,0
-84,-244,0,0,0,0,0,0,0,0,0,-1,1140,1268,0,0
-77,-244,0,0,0,0,0,0,0,0,0,-1,1147,1268,0,0
-70,-244,0,0,0,0,0,0,0,0,0,-1,1154,1268,0,0
-63,-244,0,0,0,0,0,0,0,0,0,-1,1161,1268,0,0
-56,-244,0,0,0,0,0,0,0,0,0,-1,1168,1268,0,0
-49,-244,0,0,0,0,0,0,0,0,0,-1,1175,1268,0,0
-42,-244,0,0,0,0,0,0,0,0,0,-1,1182,1268,0,0
-35,-244,0,0,0,0,0,0,0,0,0,-1,1189,1268,0,0
-28,-244,0,0,0,0,0,0,0,0,0,-1,1196,1268,0,0
-21,-244,0,0,0,0,0,0,0,0,0,-1,1203,1268,0,0
-14,-244,0,0,0,0,0,0,0,0,0,-1,1210,1268,0,0
-7,-244,0,0,0,0,0,0,0,0,0,-1,1217,1268,0,0
0,-244,0,0,0,0,0,0,0,0,0,-1,1224,1268,0,0
7,-244,0,0,0,0,0,0,0,0,0,-1,1231,1268,0,0
14,-244,0,0,0,0,0,0,0,0,0,-1,1238,1268,0,0
21,-244,0,0,0,0,0,0,0,0,0,-1,1245,1268,0,0
28,-244,0,0,0,0,0,0,0,0,0,-1,1252,1268,0,0
35,-244,0,0,0,0,0,0,0,0,0,-1,1259,1268,0,0
42,-244,0,0,0,0,0,0,0,0,0,-1,1266,1268,0,0
49,-244,0,0,0,0,0,0,0,0,0,-1,1273,1268,0,0
56,-244,0,0,0,0,0,0,0,0,0,-1,1280,1268,0,0
63,-244,0,0,0,0,0,0,0,0,0,-1,1287,1268,0,0
70,-244,0,0,0,0,0,0,0,0,0,-1,1294,1268,0,0
77,-244,0,0,0,0,0,0,0,0,0,-1,1301,1268,0,0
84,-244,0,0,0,0,0,0,0,0,0,-1,1308,1268,0,0
91,-244,0,0,0,0,0,0,0,0,0,-1,1315,1268,0,0
98,-244,0,0,0,0,0,0,0,0,0,-1,1322,1268,0,0
105,-244,0,0,0,0,0,0,0,0,0,-1,1329,1268,0,0
112,-244,0,0,0,0,0,0,0,0,0,-1,1336,1268,0,0
119,-244,0,0,0,0,0,0,0,0,0,-1,1343,1268,0,0
126,-244,0,0,0,0,0,0,0,0,0,-1,1350,1268,0,0
133,-244,0,0,0,0,0,0,0,0,0,-1,1357,1268,0,0
140,-244,0,0,0,0,0,0,0,0,0,-1,1364,1268,0,0
147,-244,0,0,0,0,0,0,0,0,0,-1,1371,1268,0,0
154,-244,0,0,0,0,0,0,0,0,0,-1,1378,1268,0,0
161,-244,0,0,0,0,0,0,0,0,0,-1,1385,1268,0,0
168,-244,0,0,0,0,0,0,0,0,0,-1,1392,1268,0,0
175,-244,0,0,0,0,0,0,0,0,0,-1,1399,1268,0,0
182,-244,0,0,0,0,0,0,0,0,0,-1,1406,1268,0,0
189,-244,0,0,0,0,0,0,0,0,0,-1,1413,1268,0,0
196,-244,0,0,0,0,0,0,0,0,0,-1,1420,1268,0,0
203,-244,0,0,0,0,0,0,0,0,0,-1,1427,1268,0,0
210,-244,0,0,0,0,0,0,0,0,0,-1,1434,1268,0,0
217,-244,0,0,0,0,0,0,0,0,0,-1,1441,1268,0,0
224,-244,0,0,0,0,0,0,0,0,0,-1,1448,1268,0,0
231,-244,0,0,0,0,0,0,0,0,0,-1,1455,1268,0,0
238,-244,0,0,0,0,0,0,0,0,0,-1,1462,1268,0,0
245,-244,0,0,0,0,0,0,0,0,0,-1,1469,1268,0,0
252,-244,0,0,0,0,0,0,0,0,0,-1,1476,1268,0,0
259,-244,0,0,0,0,0,0,0,0,0,-1,1483,1268,0,0
266,-244,0,0,0,0,0,0,0,0,0,-1,1490,1268,0,0
273,-244,0,0,0,0,0,0,0,0,0,-1,1497,1268,0,0
280,-244,0,0,0,0,0,0,0,0,0,-1,1504,1268,0,0
287,-244,0,0,0,0,0,0,0,0,0,-1,1511,1268,0,0
294,-244,0,0,0,0,0,0,0,0,0,-1,1518,1268,0,0
301,-244,0,0,0,0,0,0,0,0,0,-1,1525,1268,0,0
308,-244,0,0,0,0,0,0,0,0,0,-1,1532,1268,0,0
315,-244,0,0,0,0,0,0,0,0,0,-1,1539,1268,0,0
322,-244,0,0,0,0,0,0,0,0,0,-1,1546,1268,0,0
329,-244,0,0,0,0,0,0,0,0,0,-1,1553,1268,0,0
336,-244,0,0,0,0,0,0,0,0,0,-1,1560,1268,0,0
343,-244,0,0,0,0,0,0,0,0,0,-1,1567,1268,0,0
350,-244,0,0,0,0,0,0,0,0,0,-1,1574,1268,0,0
357,-244,0,0,0,0,0,0,0,0,0,-1,1581,1268,0,0
364,-244,0,0,0,0,0,0,0,0,0,-1,1588,1268,0,0
371,-244,0,0,0,0,0,0,0,0,0,-1,1595,1268,0,0
378,-244,0,0,0,0,0,0,0,0,0,-1,1602,1268,0,0
385,-244,0,0,0,0,0,0,0,0,0,-1,1609,1268,0,0
392,-244,0,0,0,0,0,0,0,0,0,-1,1616,1268,0,0
399,-244,0,0,0,0,0,0,0,0,0,-1,1623,1268,0,0
406,-244,0,0,0,0,0,0,0,0,0,-1,1630,1268,0,0
413,-244,0,0,0,0,0,0,0,0,0,-1,1637,1268,0,0
420,-244,0,0,0,0,0,0,0,0,0,-1,1644,1268,0,0
427,-244,0,0,0,0,0,0,0,0,0,-1,1651,1268,0,0
434,-244,0,0,0,0,0,0,0,0,0,-1,1658,1268,0,0
441,-244,0,0,0,0,0,0,0,0,0,-1,1665,1268,0,0
448,-244,0,0,0,0,0,0,0,0,0,-1,1672,1268,0,0
455,-244,0,0,0,0,0,0,0,0,0,-1,1679,1268,0,0
462,-244,0,0,0,0,0,0,0,0,0,-1,1686,1268,0,0
469,-244,0,0,0,0,0,0,0,0,0,-1,1693,1268,0,0
476,-244,0,0,0,0,0,0,0,0,0,-1,1700,1268,0,0
483,-244,0,0,0,0,0,0,0,0,0,-1,1707,1268,0,0
490,-244,0,0,0,0,0,0,0,0,0,-1,1714,1268,0,0
497,-244,0,0,0,0,0,0,0,0,0,-1,1721,1268,0,0
504,-244,0,0,0,0,0,0,0,0,0,-1,1728,1268,0,0
511,-244,0,0,0,0,0,0,0,0,0,-1,1735,1268,0,0
518,-244,0,0,0,0,0,0,0,0,0,-1,1742,1268,0,0
525,-244,0,0,0,0,0,0,0,0,0,-1,1749,1268,0,0
532,-244,0,0,0,0,0,0,0,0,0,-1,1756,1268,0,0
539,-244,0,0,0,0,0,0,0,0,0,-1,1763,1268,0,0
546,-244,0,0,0,0,0,0,0,0,0,-1,1770,1268,0,0
553,-244,0,0,0,0,0,0,0,0,0,-1,1777,1268,0,0
560,-244,0,0,0,0,0,0,0,0,0,-1,1784,1268,0,0
567,-244,0,0,0,0,0,0,0,0,0,-1,1791,1268,0,0
574,-244,0,0,0,0,0,0,0,0,0,-1,1798,1268,0,0
581,-244,0,0,0,0,0,0,0,0,0,-1,1805,1268,0,0
588,-244,0,0,0,0,0,0,0,0,0,-1,1812,1268,0,0
595,-244,0,0,0,0,0,0,0,0,0,-1,1819,1268,0,0
602,-244,0,0,0,0,0,0,0,0,0,-1,1826,1268,0,0
609,-244,0,0,0,0,0,0,0,0,0,-1,1833,1268,0,0
616,-244,76.2756,2.09009,-0.00332798,0.00437188,0.00171217,0.00473544,-0.00369154,1.36157,0.00487775,0.033609,1840,1268,76.2757,-2.09014
623,-244,76.2677,2.09045,-0.0027575,0.0074425,-0.00110974,0.00756184,-0.00287684,-1.46367,0.00622582,0.0274998,1847,1268,76.2677,-2.09046
630,-244,76.217,2.11084,-0.00221339,0.0101046,-0.00385354,0.0112108,-0.00331958,-1.29125,0.00879182,0.0254655,1854,1268,76.217,-2.11087
637,-244,76.1202,1.97351,-0.00160108,0.0108359,-0.00535655,0.0128248,-0.00359004,-1.21526,0.00996452,0.0377904,1861,1268,76.1202,-1.97346
644,-244,75.9808,1.96265,-0.00101551,0.0086113,-0.00438753,0.0103109,-0.00271512,-1.20122,0.00793535,0.0431601,1868,1268,75.9809,-1.96264
651,-244,75.8474,1.93298,0,0,0,0,0,0,0,-1,1875,1268,75.8474,-1.93294
658,-244,71.6105,1.55334,0,0,0,0,0,0,0,-1,1882,1268,71.6104,-1.55332
665,-244,50.7988,1.09888,0,0,0,0,0,0,0,-1,1889,1268,50.7989,-1.09893
672,-244,32.224,3.6123,0,0,0,0,0,0,0,-1,1896,1268,32.224,-3.6123
679,-244,27.2593,7.90649,0,0,0,0,0,0,0,-1,1903,1268,27.2592,-7.9065
686,-244,56.3094,14.6049,0,0,0,0,0,0,0,-1,1910,1268,56.3095,-14.6049
693,-244,56.2759,13.931,-0.000466395,0.000628618,-0.000207681,0.000666683,-0.000504461,-1.38952,0.000678319,0.0407429,1917,1268,56.2759,-13.931
700,-244,56.311,13.152,-0.000227667,-0.000173827,0.000826559,0.00062625,-0.00102774,0.801677,0.000964266,0.0154638,1924,1268,56.3111,-13.152
707,-244,56.2424,12.39,-0.000580279,-0.000719342,0.00122428,0.000576439,-0.00187606,0.757032,0.00148074,0.0129167,1931,1268,56.2425,-12.39
714,-244,56.2806,11.6193,-0.00106588,-0.000592547,0.0016907,0.000877967,-0.00253639,0.854937,0.00204733,0.0156468,1938,1268,56.2806,-11.6193
721,-244,56.1495,10.9188,-0.00135141,-0.000449139,0.00216424,0.00131049,-0.00311104,0.888151,0.00262238,0.022481,1945,1268,56.1495,-10.9189
728,-244,56.1016,10.1306,-0.00148005,-0.000298821,0.00262809,0.0018042,-0.00358308,0.895928,0.00316636,0.0294672,1952,1268,56.1016,-10.1306
735,-244,56.0577,9.28296,-0.00160306,-0.000185293,0.00320151,0.00238488,-0.00417323,0.894351,0.00383297,0.0292283,1959,1268,56.0578,-9.28293
742,-244,55.9866,8.6261,-0.00173978,-0.000134543,0.00393093,0.00307487,-0.0049492,0.886104,0.00467464,0.0182624,1966,1268,55.9865,-8.62605
749,-244,55.8217,8.0061,-0.00182335,-0.000134221,0.00480431,0.00389919,-0.00585676,0.872406,0.00567027,0.0244677,1973,1268,55.8217,-8.00614
756,-244,55.6698,7.38928,-0.00196574,-0.00021538,0.00600947,0.00498231,-0.00716343,0.857706,0.00704993,0.034939,1980,1268,55.6698,-7.38927
763,-244,55.6649,6.55286,0,0,0,0,0,0,0,-1,1987,1268,55.6649,-6.55286
770,-244,53.8104,4.70557,0,0,0,0,0,0,0,-1,1994,1268,53.8104,-4.70556
777,-244,48.7119,2.7002,0,0,0,0,0,0,0,-1,2001,1268,48.712,-2.70019
784,-244,31.7908,5.20081,0,0,0,0,0,0,0,-1,2008,1268,31.7907,-5.20083
791,-244,0,0,0,0,0,0,0,0,0,-1,2015,1268,0,0
798,-244,0,0,0,0,0,0,0,0,0,-1,2022,1268,0,0
805,-244,0,0,0,0,0,0,0,0,0,-1,2029,1268,0,0
812,-244,0,0,0,0,0,0,0,0,0,-1,2036,1268,0,0
-700,-251,0,0,0,0,0,0,0,0,0,-1,524,1275,0,0
-693,-251,0,0,0,0,0,0,0,0,0,-1,531,1275,0,0
-686,-251,0,0,0,0,0,0,0,0,0,-1,538,1275,0,0
-679,-251,0,0,0,0,0,0,0,0,0,-1,545,1275,0,0
-672,-251,0,0,0,0,0,0,0,0,0,-1,552,1275,0,0
-665,-251,-45.2521,2.44568,0,0,0,0,0,0,0,-1,559,1275,-45.2521,-2.44573
-658,-251,-45.5222,1.44397,0,0,0,0,0,0,0,-1,566,1275,-45.5221,-1.44401
-651,-251,-45.8498,0.382935,0,0,0,0,0,0,0,-1,573,1275,-45.8498,-0.382965
-644,-251,-46.2018,-0.658325,0,0,0,0,0,0,0,-1,580,1275,-46.2019,0.658365
-637,-251,-35.2292,3.33899,0,0,0,0,0,0,0,-1,587,1275,-35.2292,-3.33904
-630,-251,-38.6719,5.38806,0,0,0,0,0,0,0,-1,594,1275,-38.6719,-5.388
-623,-251,-38.5992,6.16064,0.00622273,-0.00137674,0.00426427,0.00813456,-0.00328858,0.42147,0.00679009,0.0412326,601,1275,-38.5992,-6.16068
-616,-251,-38.5122,6.95752,0.00493268,-0.000548291,0.00295361,0.00622135,-0.00183696,0.411405,0.00487661,0.0210227,608,1275,-38.5122,-6.95754
-609,-251,-38.5661,7.73352,0.00337043,0.000121098,0.00183101,0.00419364,-0.00070212,0.42252,0.0030568,0.0205218,615,1275,-38.5661,-7.73352
-602,-251,-38.6099,8.53845,0.00200015,-6.16274e-05,0.000832667,0.00229443,-0.000355905,0.339714,0.00166101,0.0143345,622,1275,-38.61,-8.5384
-595,-251,-38.6554,9.32886,0.000885198,-0.000569322,-7.93695e-05,0.000889516,-0.00057364,-0.0543524,0.00085129,0.0129877,629,1275,-38.6554,-9.3289
-588,-251,-38.7098,10.0995,-4.47575e-05,-0.00137994,-0.000905959,0.000413013,-0.00183771,-0.467869,0.00138352,0.0149388,636,1275,-38.7098,-10.0995
-581,-251,-38.7517,10.9209,-0.000740109,-0.00246284,-0.00172041,0.000322521,-0.00352547,-0.553304,0.00246487,0.0147149,643,1275,-38.7517,-10.9209
-574,-251,-38.7891,11.7798,-0.00132984,-0.00387501,-0.00224654,-2.04861e-05,-0.00518437,-0.527701,0.00344944,0.0203349,650,1275,-38.789,-11.7798
-567,-251,-38.9473,12.5243,-0.00195018,-0.00570177,-0.00194082,-0.00112683,-0.00652512,-0.401217,0.00402736,0.0352348,657,1275,-38.9473,-12.5243
-560,-251,-38.9869,13.4294,-0.00218845,-0.00716947,-0.00134649,-0.00184777,-0.00751016,-0.247818,0.00451859,0.0478267,664,1275,-38.9869,-13.4295
-553,-251,-38.8598,14.2126,0,0,0,0,0,0,0,-1,671,1275,-38.8598,-14.2127
-546,-251,-12.995,4.5675,0,0,0,0,0,0,0,-1,678,1275,-12.995,-4.56745
-539,-251,-10.7916,0.366333,0,0,0,0,0,0,0,-1,685,1275,-10.7916,-0.366282
-532,-251,-10.7391,-0.00769043,0,0,0,0,0,0,0,-1,692,1275,-10.7391,0.00773227
-525,-251,-29.4286,-0.250244,0,0,0,0,0,0,0,-1,699,1275,-29.4286,0.250266
-518,-251,-32.6981,0.678833,0,0,0,0,0,0,0,-1,706,1275,-32.6981,-0.678787
-511,-251,-29.4731,0.637085,0,0,0,0,0,0,0,-1,713,1275,-29.4731,-0.637025
-504,-251,-30.6428,0.792358,0,0,0,0,0,0,0,-1,720,1275,-30.6427,-0.792335
-497,-251,-54.1249,0.753784,0,0,0,0,0,0,0,-1,727,1275,-54.1249,-0.753774
-490,-251,0,0,0,0,0,0,0,0,0,-1,734,1275,0,0
-483,-251,0,0,0,0,0,0,0,0,0,-1,741,1275,0,0
-476,-251,0,0,0,0,0,0,0,0,0,-1,748,1275,0,0
-469,-251,0,0,0,0,0,0,0,0,0,-1,755,1275,0,0
-462,-251,0,0,0,0,0,0,0,0,0,-1,762,1275,0,0
-455,-251,0,0,0,0,0,0,0,0,0,-1,769,1275,0,0
-448,-251,0,0,0,0,0,0,0,0,0,-1,776,1275,0,0
-441,-251,0,0,0,0,0,0,0,0,0,-1,783,1275,0,0
-434,-251,0,0,0,0,0,0,0,0,0,-1,790,1275,0,0
-427,-251,0,0,0,0,0,0,0,0,0,-1,797,1275,0,0
-420,-251,0,0,0,0,0,0,0,0,0,-1,804,1275,0,0
-413,-251,0,0,0,0,0,0,0,0,0,-1,811,1275,0,0
-406,-251,0,0,0,0,0,0,0,0,0,-1,818,1275,0,0
-399,-251,0,0,0,0,0,0,0,0,0,-1,825,1275,0,0
-392,-251,0,0,0,0,0,0,0,0,0,-1,832,1275,0,0
-385,-251,0,0,0,0,0,0,0,0,0,-1,839,1275,0,0
-378,-251,0,0,0,0,0,0,0,0,0,-1,846,1275,0,0
-371,-251,0,0,0,0,0,0,0,0,0,-1,853,1275,0,0
-364,-251,0,0,0,0,0,0,0,0,0,-1,860,1275,0,0
-357,-251,0,0,0,0,0,0,0,0,0,-1,867,1275,0,0
-350,-251,0,0,0,0,0,0,0,0,0,-1,874,1275,0,0
-343,-251,0,0,0,0,0,0,0,0,0,-1,881,1275,0,0
-336,-251,0,0,0,0,0,0,0,0,0,-1,888,1275,0,0
-329,-251,0,0,0,0,0,0,0,0,0,-1,895,1275,0,0
-322,-251,0,0,0,0,0,0,0,0,0,-1,902,1275,0,0
-315,-251,0,0,0,0,0,0,0,0,0,-1,909,1275,0,0
-308,-251,0,0,0,0,0,0,0,0,0,-1,916,1275,0,0
-301,-251,0,0,0,0,0,0,0,0,0,-1,923,1275,0,0
-294,-251,0,0,0,0,0,0,0,0,0,-1,930,1275,0,0
-287,-251,0,0,0,0,0,0,0,0,0,-1,937,1275,0,0
-280,-251,0,0,0,0,0,0,0,0,0,-1,944,1275,0,0
-273,-251,0,0,0,0,0,0,0,0,0,-1,951,1275,0,0
-266,-251,0,0,0,0,0,0,0,0,0,-1,958,1275,0,0
-259,-251,0,0,0,0,0,0,0,0,0,-1,965,1275,0,0
-252,-251,0,0,0,0,0,0,0,0,0,-1,972,1275,0,0
-245,-251,0,0,0,0,0,0,0,0,0,-1,979,1275,0,0
-238,-251,0,0,0,0,0,0,0,0,0,-1,986,1275,0,0
-231,-251,0,0,0,0,0,0,0,0,0,-1,993,1275,0,0
-224,-251,0,0,0,0,0,0,0,0,0,-1,1000,1275,0,0
-217,-251,0,0,0,0,0,0,0,0,0,-1,1007,1275,0,0
-210,-251,0,0,0,0,0,0,0,0,0,-1,1014,1275,0,0
-203,-251,0,0,0,0,0,0,0,0,0,-1,1021,1275,0,0
-196,-251,0,0,0,0,0,0,0,0,0,-1,1028,1275,0,0
-189,-251,0,0,0,0,0,0,0,0,0,-1,1035,1275,0,0
-182,-251,0,0,0,0,0,0,0,0,0,-1,1042,1275,0,0
-175,-251,0,0,0,0,0,0,0,0,0,-1,1049,1275,0,0
-168,-251,0,0,0,0,0,0,0,0,0,-1,1056,1275,0,0
-161,-251,0,0,0,0,0,0,0,0,0,-1,1063,1275,0,0
-154,-251,0,0,0,0,0,0,0,0,0,-1,1070,1275,0,0
-147,-251,0,0,0,0,0,0,0,0,0,-1,1077,1275,0,0
-140,-251,0,0,0,0,0,0,0,0,0,-1,1084,1275,0,0
-133,-251,0,0,0,0,0,0,0,0,0,-1,1091,1275,0,0
-126,-251,0,0,0,0,0,0,0,0,0,-1,1098,1275,0,0
-119,-251,0,0,0,0,0,0,0,0,0,-1,1105,1275,0,0
-112,-251,0,0,0,0,0,0,0,0,0,-1,1112,1275,0,0
-105,-251,0,0,0,0,0,0,0,0,0,-1,1119,1275,0,0
-98,-251,0,0,0,0,0,0,0,0,0,-1,1126,1275,0,0
-91,-251,0,0,0,0,0,0,0,0,0,-1,1133,1275,0,0
-84,-251,0,0,0,0,0,0,0,0,0,-1,1140,1275,0,0
-77,-251,0,0,0,0,0,0,0,0,0,-1,1147,1275,0,0
-70,-251,0,0,0,0,0,0,0,0,0,-1,1154,1275,0,0
-63,-251,0,0,0,0,0,0,0,0,0,-1,1161,1275,0,0
-56,-251,0,0,0,0,0,0,0,0,0,-1,1168,1275,0,0
-49,-251,0,0,0,0,0,0,0,0,0,-1,1175,1275,0,0
-42,-251,0,0,0,0,0,0,0,0,0,-1,1182,1275,0,0
-35,-251,0,0,0,0,0,0,0,0,0,-1,1189,1275,0,0
-28,-251,0,0,0,0,0,0,0,0,0,-1,1196,1275,0,0
-21,-251,0,0,0,0,0,0,0,0,0,-1,1203,1275,0,0
-14,-251,0,0,0,0,0,0,0,0,0,-1,1210,1275,0,0
-7,-251,0,0,0,0,0,0,0,0,0,-1,1217,1275,0,0
0,-251,0,0,0,0,0,0,0,0,0,-1,1224,1275,0,0
7,-251,0,0,0,0,0,0,0,0,0,-1,1231,1275,0,0
14,-251,0,0,0,0,0,0,0,0,0,-1,1238,1275,0,0
21,-251,0,0,0,0,0,0,0,0,0,-1,1245,1275,0,0
28,-251,0,0,0,0,0,0,0,0,0,-1,1252,1275,0,0
35,-251,0,0,0,0,0,0,0,0,0,-1,1259,1275,0,0
42,-251,0,0,0,0,0,0,0,0,0,-1,1266,1275,0,0
49,-251,0,0,0,0,0,0,0,0,0,-1,1273,1275,0,0
56,-251,0,0,0,0,0,0,0,0,0,-1,1280,1275,0,0
63,-251,0,0,0,0,0,0,0,0,0,-1,1287,1275,0,0
70,-251,0,0,0,0,0,0,0,0,0,-1,1294,1275,0,0
77,-251,0,0,0,0,0,0,0,0,0,-1,1301,1275,0,0
84,-251,0,0,0,0,0,0,0,0,0,-1,1308,1275,0,0
91,-251,0,0,0,0,0,0,0,0,0,-1,1315,1275,0,0
98,-251,0,0,0,0,0,0,0,0,0,-1,1322,1275,0,0
105,-251,0,0,0,0,0,0,0,0,0,-1,1329,1275,0,0
112,-251,0,0,0,0,0,0,0,0,0,-1,1336,1275,0,0
119,-251,0,0,0,0,0,0,0,0,0,-1,1343,1275,0,0
126,-251,0,0,0,0,0,0,0,0,0,-1,1350,1275,0,0
133,-251,0,0,0,0,0,0,0,0,0,-1,1357,1275,0,0
140,-251,0,0,0,0,0,0,0,0,0,-1,1364,1275,0,0
147,-251,0,0,0,0,0,0,0,0,0,-1,1371,1275,0,0
154,-251,0,0,0,0,0,0,0,0,0,-1,1378,1275,0,0
161,-251,0,0,0,0,0,0,0,0,0,-1,1385,1275,0,0
168,-251,0,0,0,0,0,0,0,0,0,-1,1392,1275,0,0
175,-251,0,0,0,0,0,0,0,0,0,-1,1399,1275,0,0
182,-251,0,0,0,0,0,0,0,0,0,-1,1406,1275,0,0
189,-251,0,0,0,0,0,0,0,0,0,-1,1413,1275,0,0
196,-251,0,0,0,0,0,0,0,0,0,-1,1420,1275,0,0
203,-251,0,0,0,0,0,0,0,0,0,-1,1427,1275,0,0
210,-251,0,0,0,0,0,0,0,0,0,-1,1434,1275,0,0
217,-251,0,0,0,0,0,0,0,0,0,-1,1441,1275,0,0
224,-251,0,0,0,0,0,0,0,0,0,-1,1448,1275,0,0
231,-251,0,0,0,0,0,0,0,0,0,-1,1455,1275,0,0
238,-251,0,0,0,0,0,0,0,0,0,-1,1462,1275,0,0
245,-251,0,0,0,0,0,0,0,0,0,-1,1469,1275,0,0
252,-251,0,0,0,0,0,0,0,0,0,-1,1476,1275,0,0
259,-251,0,0,0,0,0,0,0,0,0,-1,1483,1275,0,0
266,-251,0,0,0,0,0,0,0,0,0,-1,1490,1275,0,0
273,-251,0,0,0,0,0,0,0,0,0,-1,1497,1275,0,0
280,-251,0,0,0,0,0,0,0,0,0,-1,1504,1275,0,0
287,-251,0,0,0,0,0,0,0,0,0,-1,1511,1275,0,0
294,-251,0,0,0,0,0,0,0,0,0,-1,1518,1275,0,0
301,-251,0,0,0,0,0,0,0,0,0,-1,1525,1275,0,0
308,-251,0,0,0,0,0,0,0,0,0,-1,1532,1275,0,0
315,-251,0,0,0,0,0,0,0,0,0,-1,1539,1275,0,0
322,-251,0,0,0,0,0,0,0,0,0,-1,1546,1275,0,0
329,-251,0,0,0,0,0,0,0,0,0,-1,1553,1275,0,0
336,-251,0,0,0,0,0,0,0,0,0,-1,1560,1275,0,0
343,-251,0,0,0,0,0,0,0,0,0,-1,1567,1275,0,0
350,-251,0,0,0,0,0,0,0,0,0,-1,1574,1275,0,0
357,-251,0,0,0,0,0,0,0,0,0,-1,1581,1275,0,0
364,-251,0,0,0,0,0,0,0,0,0,-1,1588,1275,0,0
371,-251,0,0,0,0,0,0,0,0,0,-1,1595,1275,0,0
378,-251,0,0,0,0,0,0,0,0,0,-1,1602,1275,0,0
385,-251,0,0,0,0,0,0,0,0,0,-1,1609,1275,0,0
392,-251,0,0,0,0,0,0,0,0,0,-1,1616,1275,0,0
399,-251,0,0,0,0,0,0,0,0,0,-1,1623,1275,0,0
406,-251,0,0,0,0,0,0,0,0,0,-1,1630,1275,0,0
413,-251,0,0,0,0,0,0,0,0,0,-1,1637,1275,0,0
420,-251,0,0,0,0,0,0,0,0,0,-1,1644,1275,0,0
427,-251,0,0,0,0,0,0,0,0,0,-1,1651,1275,0,0
434,-251,0,0,0,0,0,0,0,0,0,-1,1658,1275,0,0
441,-251,0,0,0,0,0,0,0,0,0,-1,1665,1275,0,0
448,-251,0,0,0,0,0,0,0,0,0,-1,1672,1275,0,0
455,-251,0,0,0,0,0,0,0,0,0,-1,1679,1275,0,0
462,-251,0,0,0,0,0,0,0,0,0,-1,1686,1275,0,0
469,-251,0,0,0,0,0,0,0,0,0,-1,1693,1275,0,0
476,-251,0,0,0,0,0,0,0,0,0,-1,1700,1275,0,0
483,-251,0,0,0,0,0,0,0,0,0,-1,1707,1275,0,0
490,-251,0,0,0,0,0,0,0,0,0,-1,1714,1275,0,0
497,-251,0,0,0,0,0,0,0,0,0,-1,1721,1275,0,0
504,-251,0,0,0,0,0,0,0,0,0,-1,1728,1275,0,0
511,-251,0,0,0,0,0,0,0,0,0,-1,1735,1275,0,0
518,-251,0,0,0,0,0,0,0,0,0,-1,1742,1275,0,0
525,-251,0,0,0,0,0,0,0,0,0,-1,1749,1275,0,0
532,-251,0,0,0,0,0,0,0,0,0,-1,1756,1275,0,0
539,-251,0,0,0,0,0,0,0,0,0,-1,1763,1275,0,0
546,-251,0,0,0,0,0,0,0,0,0,-1,1770,1275,0,0
553,-251,0,0,0,0,0,0,0,0,0,-1,1777,1275,0,0
560,-251,0,0,0,0,0,0,0,0,0,-1,1784,1275,0,0
567,-251,0,0,0,0,0,0,0,0,0,-1,1791,1275,0,0
574,-251,0,0,0,0,0,0,0,0,0,-1,1798,1275,0,0
581,-251,0,0,0,0,0,0,0,0,0,-1,1805,1275,0,0
588,-251,0,0,0,0,0,0,0,0,0,-1,1812,1275,0,0
595,-251,0,0,0,0,0,0,0,0,0,-1,1819,1275,0,0
602,-251,0,0,0,0,0,0,0,0,0,-1,1826,1275,0,0
609,-251,76.1844,2.11597,-0.00412667,0.00379277,0.00204425,0.00428932,-0.00462322,1.33251,0.00514686,0.0315703,1833,1275,76.1845,-2.11596
616,-251,76.1702,2.12659,-0.0034223,0.00765525,-0.000839447,0.00771851,-0.00348556,-1.49559,0.00662077,0.0268284,1840,1275,76.1702,-2.12658
623,-251,76.1965,2.09314,-0.00271942,0.0111152,-0.00377432,0.0120779,-0.00368213,-1.32105,0.00951972,0.0231581,1847,1275,76.1966,-2.09315
630,-251,76.1912,2.04297,-0.0020931,0.0130331,-0.00583346,0.0150215,-0.00408142,-1.2423,0.0116163,0.0364841,1854,1275,76.1912,-2.04295
637,-251,76.2504,2.00586,-0.00151264,0.0121424,-0.00602323,0.0144195,-0.00378976,-1.20935,0.0110942,0.0426694,1861,1275,76.2503,-2.00587
644,-251,76.3179,1.89355,-0.00105962,0.00944296,-0.00464784,0.0112044,-0.00282107,-1.20854,0.00856622,0.0455672,1868,1275,76.3178,-1.89357
651,-251,76.3577,1.81921,0,0,0,0,0,0,0,-1,1875,1275,76.3577,-1.81922
658,-251,64.3931,2.57288,0,0,0,0,0,0,0,-1,1882,1275,64.393,-2.57287
665,-251,32.9579,2.60229,0,0,0,0,0,0,0,-1,1889,1275,32.9579,-2.60231
672,-251,26.0721,4.53064,0,0,0,0,0,0,0,-1,1896,1275,26.0721,-4.53063
679,-251,29.1344,8.63782,0,0,0,0,0,0,0,-1,1903,1275,29.1344,-8.63778
686,-251,55.6953,14.6189,0,0,0,0,0,0,0,-1,1910,1275,55.6954,-14.6188
693,-251,55.5667,13.9662,-0.000396555,0.0005042,-0.000207669,0.000549772,-0.000442128,-1.35477,0.000573796,0.0373062,1917,1275,55.5667,-13.9662
700,-251,55.5199,13.1951,-0.000207954,-0.000362354,0.000830504,0.00054893,-0.00111924,0.739053,0.0009817,0.012677,1924,1275,55.5199,-13.1951
707,-251,55.49,12.415,-0.000563643,-0.000815329,0.00119113,0.000508276,-0.00188725,0.732768,0.00145744,0.0115337,1931,1275,55.49,-12.415
714,-251,55.4849,11.6493,-0.000992105,-0.000668845,0.0016598,0.000837176,-0.00249813,0.833935,0.00200365,0.0156063,1938,1275,55.4849,-11.6493
721,-251,55.3519,10.9413,-0.00125351,-0.000523407,0.00217378,0.00131576,-0.00309268,0.868589,0.00261322,0.0252323,1945,1275,55.352,-10.9413
728,-251,55.3239,10.2391,-0.00141973,-0.000408649,0.00274606,0.00187802,-0.00370639,0.876427,0.00328126,0.0303489,1952,1275,55.3239,-10.2391
735,-251,55.3029,9.35645,-0.00158579,-0.000343405,0.00344421,0.00253518,-0.00446438,0.874618,0.00409204,0.0238244,1959,1275,55.3028,-9.35649
742,-251,55.2146,8.69861,-0.00174923,-0.000331213,0.00428398,0.00330203,-0.00538247,0.867406,0.00506173,0.0195083,1966,1275,55.2146,-8.69866
749,-251,54.9647,8.20288,-0.00183497,-0.000358358,0.00526512,0.00421996,-0.00641329,0.855057,0.0061825,0.0380147,1973,1275,54.9647,-8.20293
756,-251,54.7694,7.63013,0,0,0,0,0,0,0,-1,1980,1275,54.7694,-7.63018
763,-251,43.3652,5.7583,0,0,0,0,0,0,0,-1,1987,1275,43.3653,-5.75827
770,-251,49.4386,3.45508,0,0,0,0,0,0,0,-1,1994,1275,49.4386,-3.4551
777,-251,31.5731,4.33252,0,0,0,0,0,0,0,-1,2001,1275,31.5731,-4.33251
784,-251,32.0776,5.78247,0,0,0,0,0,0,0,-1,2008,1275,32.0776,-5.78247
791,-251,0,0,0,0,0,0,0,0,0,-1,2015,1275,0,0
798,-251,0,0,0,0,0,0,0,0,0,-1,2022,1275,0,0
805,-251,0,0,0,0,0,0,0,0,0,-1,2029,1275,0,0
812,-251,0,0,0,0,0,0,0,0,0,-1,2036,1275,0,0
-700,-258,0,0,0,0,0,0,0,0,0,-1,524,1282,0,0
-693,-258,0,0,0,0,0,0,0,0,0,-1,531,1282,0,0
-686,-258,0,0,0,0,0,0,0,0,0,-1,538,1282,0,0
-679,-258,0,0,0,0,0,0,0,0,0,-1,545,1282,0,0
-672,-258,0,0,0,0,0,0,0,0,0,-1,552,1282,0,0
-665,-258,-44.8717,2.03601,0,0,0,0,0,0,0,-1,559,1282,-44.8717,-2.03603
-658,-258,-45.2628,1.20544,0,0,0,0,0,0,0,-1,566,1282,-45.2627,-1.20545
-651,-258,-45.5418,0.0863037,0,0,0,0,0,0,0,-1,573,1282,-45.5418,-0.0863288
-644,-258,-45.1855,0.336792,0,0,0,0,0,0,0,-1,580,1282,-45.1855,-0.336733
-637,-258,-45.329,0.234253,0,0,0,0,0,0,0,-1,587,1282,-45.329,-0.234296
-630,-258,-34.6896,4.45715,0,0,0,0,0,0,0,-1,594,1282,-34.6896,-4.45712
-623,-258,-37.8407,6.24243,0,0,0,0,0,0,0,-1,601,1282,-37.8407,-6.2424
-616,-258,-37.7744,7.00232,0.00605642,-0.000490833,0.00336249,0.00747565,-0.00191007,0.399394,0.00572762,0.0358408,608,1282,-37.7744,-7.00234
-609,-258,-37.7524,7.78284,0.00415709,0.000356248,0.0022563,0.00520666,-0.000693326,0.435402,0.00372379,0.0176746,615,1282,-37.7524,-7.78289
-602,-258,-37.8007,8.59338,0.00250932,0.000229431,0.00129357,0.00309356,-0.000354808,0.424223,0.00219024,0.0135412,622,1282,-37.8006,-8.59342
-595,-258,-37.8445,9.37646,0.00118758,-0.000222284,0.00043829,0.00131272,-0.000347429,0.278129,0.00101106,0.012005,629,1282,-37.8445,-9.37652
-588,-258,-37.9019,10.1575,0.000127073,-0.000951852,-0.000303459,0.000206567,-0.00103135,-0.256203,0.000765764,0.0137939,636,1282,-37.9018,-10.1575
-581,-258,-37.9421,10.9594,-0.000748069,-0.00194968,-0.000990614,-0.000190305,-0.00250744,-0.512806,0.00161194,0.015279,643,1282,-37.9422,-10.9593
-574,-258,-37.9388,11.7971,-0.00147721,-0.00325572,-0.0015221,-0.000603633,-0.00412929,-0.521027,0.00257534,0.0152456,650,1282,-37.9388,-11.7971
-567,-258,-38.1624,12.5049,-0.00211201,-0.00503443,-0.00159491,-0.00141015,-0.0057363,-0.41456,0.00345154,0.0210906,657,1282,-38.1624,-12.5048
-560,-258,-38.4938,13.0201,0,0,0,0,0,0,0,-1,664,1282,-38.4938,-13.0201
-553,-258,-32.5081,11.6642,0,0,0,0,0,0,0,-1,671,1282,-32.5081,-11.6641
-546,-258,-14.2231,5.92029,0,0,0,0,0,0,0,-1,678,1282,-14.2231,-5.92028
-539,-258,-10.2228,4.05823,0,0,0,0,0,0,0,-1,685,1282,-10.2228,-4.05823
-532,-258,-10.2173,-0.353882,0,0,0,0,0,0,0,-1,692,1282,-10.2173,0.353836
-525,-258,-21.8661,-1.5929,0,0,0,0,0,0,0,-1,699,1282,-21.8661,1.59285
-518,-258,-29.2484,0.123169,0,0,0,0,0,0,0,-1,706,1282,-29.2484,-0.123186
-511,-258,-23.5061,1.16833,0,0,0,0,0,0,0,-1,713,1282,-23.5061,-1.16833
-504,-258,-22.9178,0.484131,0,0,0,0,0,0,0,-1,720,1282,-22.9178,-0.484106
-497,-258,-17.8047,0.730469,0,0,0,0,0,0,0,-1,727,1282,-17.8048,-0.730489
-490,-258,-15.4346,0.632935,0,0,0,0,0,0,0,-1,734,1282,-15.4346,-0.632917
-483,-258,0,0,0,0,0,0,0,0,0,-1,741,1282,0,0
-476,-258,0,0,0,0,0,0,0,0,0,-1,748,1282,0,0
-469,-258,0,0,0,0,0,0,0,0,0,-1,755,1282,0,0
-462,-258,0,0,0,0,0,0,0,0,0,-1,762,1282,0,0
-455,-258,0,0,0,0,0,0,0,0,0,-1,769,1282,0,0
-448,-258,0,0,0,0,0,0,0,0,0,-1,776,1282,0,0
-441,-258,0,0,0,0,0,0,0,0,0,-1,783,1282,0,0
-434,-258,0,0,0,0,0,0,0,0,0,-1,790,1282,0,0
-427,-258,0,0,0,0,0,0,0,0,0,-1,797,1282,0,0
-420,-258,0,0,0,0,0,0,0,0,0,-1,804,1282,0,0
-413,-258,0,0,0,0,0,0,0,0,0,-1,811,1282,0,0
-406,-258,0,0,0,0,0,0,0,0,0,-1,818,1282,0,0
-399,-258,0,0,0,0,0,0,0,0,0,-1,825,1282,0,0
-392,-258,0,0,0,0,0,0,0,0,0,-1,832,1282,0,0
-385,-258,0,0,0,0,0,0,0,0,0,-1,839,1282,0,0
-378,-258,0,0,0,0,0,0,0,0,0,-1,846,1282,0,0
-371,-258,0,0,0,0,0,0,0,0,0,-1,853,1282,0,0
-364,-258,0,0,0,0,0,0,0,0,0,-1,860,1282,0,0
-357,-258,0,0,0,0,0,0,0,0,0,-1,867,1282,0,0
-350,-258,0,0,0,0,0,0,0,0,0,-1,874,1282,0,0
-343,-258,0,0,0,0,0,0,0,0,0,-1,881,1282,0,0
-336,-258,0,0,0,0,0,0,0,0,0,-1,888,1282,0,0
-329,-258,0,0,0,0,0,0,0,0,0,-1,895,1282,0,0
-322,-258,0,0,0,0,0,0,0,0,0,-1,902,1282,0,0
-315,-258,0,0,0,0,0,0,0,0,0,-1,909,1282,0,0
-308,-258,0,0,0,0,0,0,0,0,0,-1,916,1282,0,0
-301,-258,0,0,0,0,0,0,0,0,0,-1,923,1282,0,0
-294,-258,0,0,0,0,0,0,0,0,0,-1,930,1282,0,0
-287,-258,0,0,0,0,0,0,0,0,0,-1,937,1282,0,0
-280,-258,0,0,0,0,0,0,0,0,0,-1,944,1282,0,0
-273,-258,0,0,0,0,0,0,0,0,0,-1,951,1282,0,0
-266,-258,0,0,0,0,0,0,0,0,0,-1,958,1282,0,0
-259,-258,0,0,0,0,0,0,0,0,0,-1,965,1282,0,0
-252,-258,0,0,0,0,0,0,0,0,0,-1,972,1282,0,0
-245,-258,0,0,0,0,0,0,0,0,0,-1,979,1282,0,0
-238,-258,0,0,0,0,0,0,0,0,0,-1,986,1282,0,0
-231,-258,0,0,0,0,0,0,0,0,0,-1,993,1282,0,0
-224,-258,0,0,0,0,0,0,0,0,0,-1,1000,1282,0,0
-217,-258,0,0,0,0,0,0,0,0,0,-1,1007,1282,0,0
-210,-258,0,0,0,0,0,0,0,0,0,-1,1014,1282,0,0
-203,-258,0,0,0,0,0,0,0,0,0,-1,1021,1282,0,0
-196,-258,0,0,0,0,0,0,0,0,0,-1,1028,1282,0,0
-189,-258,0,0,0,0,0,0,0,0,0,-1,1035,1282,0,0
-182,-258,0,0,0,0,0,0,0,0,0,-1,1042,1282,0,0
-175,-258,0,0,0,0,0,0,0,0,0,-1,1049,1282,0,0
-168,-258,0,0,0,0,0,0,0,0,0,-1,1056,1282,0,0
-161,-258,0,0,0,0,0,0,0,0,0,-1,1063,1282,0,0
-154,-258,0,0,0,0,0,0,0,0,0,-1,1070,1282,0,0
-147,-258,0,0,0,0,0,0,0,0,0,-1,1077,1282,0,0
-140,-258,0,0,0,0,0,0,0,0,0,-1,1084,1282,0,0
-133,-258,0,0,0,0,0,0,0,0,0,-1,1091,1282,0,0
-126,-258,0,0,0,0,0,0,0,0,0,-1,1098,1282,0,0
-119,-258,0,0,0,0,0,0,0,0,0,-1,1105,1282,0,0
-112,-258,0,0,0,0,0,0,0,0,0,-1,1112,1282,0,0
-105,-258,0,0,0,0,0,0,0,0,0,-1,1119,1282,0,0
-98,-258,0,0,0,0,0,0,0,0,0,-1,1126,1282,0,0
-91,-258,0,0,0,0,0,0,0,0,0,-1,1133,1282,0,0
-84,-258,0,0,0,0,0,0,0,0,0,-1,1140,1282,0,0
-77,-258,0,0,0,0,0,0,0,0,0,-1,1147,1282,0,0
-70,-258,0,0,0,0,0,0,0,0,0,-1,1154,1282,0,0
-63,-258,0,0,0,0,0,0,0,0,0,-1,1161,1282,0,0
-56,-258,0,0,0,0,0,0,0,0,0,-1,1168,1282,0,0
-49,-258,0,0,0,0,0,0,0,0,0,-1,1175,1282,0,0
-42,-258,0,0,0,0,0,0,0,0,0,-1,1182,1282,0,0
-35,-258,0,0,0,0,0,0,0,0,0,-1,1189,1282,0,0
-28,-258,0,0,0,0,0,0,0,0,0,-1,1196,1282,0,0
-21,-258,0,0,0,0,0,0,0,0,0,-1,1203,1282,0,0
-14,-258,0,0,0,0,0,0,0,0,0,-1,1210,1282,0,0
-7,-258,0,0,0,0,0,0,0,0,0,-1,1217,1282,0,0
0,-258,0,0,0,0,0,0,0,0,0,-1,1224,1282,0,0
7,-258,0,0,0,0,0,0,0,0,0,-1,1231,1282,0,0
14,-258,0,0,0,0,0,0,0,0,0,-1,1238,1282,0,0
21,-258,0,0,0,0,0,0,0,0,0,-1,1245,1282,0,0
28,-258,0,0,0,0,0,0,0,0,0,-1,1252,1282,0,0
35,-258,0,0,0,0,0,0,0,0,0,-1,1259,1282,0,0
42,-258,0,0,0,0,0,0,0,0,0,-1,1266,1282,0,0
49,-258,0,0,0,0,0,0,0,0,0,-1,1273,1282,0,0
56,-258,0,0,0,0,0,0,0,0,0,-1,1280,1282,0,0
63,-258,0,0,0,0,0,0,0,0,0,-1,1287,1282,0,0
70,-258,0,0,0,0,0,0,0,0,0,-1,1294,1282,0,0
77,-258,0,0,0,0,0,0,0,0,0,-1,1301,1282,0,0
84,-258,0,0,0,0,0,0,0,0,0,-1,1308,1282,0,0
91,-258,0,0,0,0,0,0,0,0,0,-1,1315,1282,0,0
98,-258,0,0,0,0,0,0,0,0,0,-1,1322,1282,0,0
105,-258,0,0,0,0,0,0,0,0,0,-1,1329,1282,0,0
112,-258,0,0,0,0,0,0,0,0,0,-1,1336,1282,0,0
119,-258,0,0,0,0,0,0,0,0,0,-1,1343,1282,0,0
126,-258,0,0,0,0,0,0,0,0,0,-1,1350,1282,0,0
133,-258,0,0,0,0,0,0,0,0,0,-1,1357,1282,0,0
140,-258,0,0,0,0,0,0,0,0,0,-1,1364,1282,0,0
147,-258,0,0,0,0,0,0,0,0,0,-1,1371,1282,0,0
154,-258,0,0,0,0,0,0,0,0,0,-1,1378,1282,0,0
161,-258,0,0,0,0,0,0,0,0,0,-1,1385,1282,0,0
168,-258,0,0,0,0,0,0,0,0,0,-1,1392,1282,0,0
175,-258,0,0,0,0,0,0,0,0,0,-1,1399,1282,0,0
182,-258,0,0,0,0,0,0,0,0,0,-1,1406,1282,0,0
189,-258,0,0,0,0,0,0,0,0,0,-1,1413,1282,0,0
196,-258,0,0,0,0,0,0,0,0,0,-1,1420,1282,0,0
203,-258,0,0,0,0,0,0,0,0,0,-1,1427,1282,0,0
210,-258,0,0,0,0,0,0,0,0,0,-1,1434,1282,0,0
217,-258,0,0,0,0,0,0,0,0,0,-1,1441,1282,0,0
224,-258,0,0,0,0,0,0,0,0,0,-1,1448,1282,0,0
231,-258,0,0,0,0,0,0,0,0,0,-1,1455,1282,0,0
238,-258,0,0,0,0,0,0,0,0,0,-1,1462,1282,0,0
245,-258,0,0,0,0,0,0,0,0,0,-1,1469,1282,0,0
252,-258,0,0,0,0,0,0,0,0,0,-1,1476,1282,0,0
259,-258,0,0,0,0,0,0,0,0,0,-1,1483,1282,0,0
266,-258,0,0,0,0,0,0,0,0,0,-1,1490,1282,0,0
273,-258,0,0,0,0,0,0,0,0,0,-1,1497,1282,0,0
280,-258,0,0,0,0,0,0,0,0,0,-1,1504,1282,0,0
287,-258,0,0,0,0,0,0,0,0,0,-1,1511,1282,0,0
294,-258,0,0,0,0,0,0,0,0,0,-1,1518,1282,0,0
301,-258,0,0,0,0,0,0,0,0,0,-1,1525,1282,0,0
308,-258,0,0,0,0,0,0,0,0,0,-1,1532,1282,0,0
315,-258,0,0,0,0,0,0,0,0,0,-1,1539,1282,0,0
322,-258,0,0,0,0,0,0,0,0,0,-1,1546,1282,0,0
329,-258,0,0,0,0,0,0,0,0,0,-1,1553,1282,0,0
336,-258,0,0,0,0,0,0,0,0,0,-1,1560,1282,0,0
343,-258,0,0,0,0,0,0,0,0,0,-1,1567,1282,0,0
350,-258,0,0,0,0,0,0,0,0,0,-1,1574,1282,0,0
357,-258,0,0,0,0,0,0,0,0,0,-1,1581,1282,0,0
364,-258,0,0,0,0,0,0,0,0,0,-1,1588,1282,0,0
371,-258,0,0,0,0,0,0,0,0,0,-1,1595,1282,0,0
378,-258,0,0,0,0,0,0,0,0,0,-1,1602,1282,0,0
385,-258,0,0,0,0,0,0,0,0,0,-1,1609,1282,0,0
392,-258,0,0,0,0,0,0,0,0,0,-1,1616,1282,0,0
399,-258,0,0,0,0,0,0,0,0,0,-1,1623,1282,0,0
406,-258,0,0,0,0,0,0,0,0,0,-1,1630,1282,0,0
413,-258,0,0,0,0,0,0,0,0,0,-1,1637,1282,0,0
420,-258,0,0,0,0,0,0,0,0,0,-1,1644,1282,0,0
427,-258,0,0,0,0,0,0,0,0,0,-1,1651,1282,0,0
434,-258,0,0,0,0,0,0,0,0,0,-1,1658,1282,0,0
441,-258,0,0,0,0,0,0,0,0,0,-1,1665,1282,0,0
448,-258,0,0,0,0,0,0,0,0,0,-1,1672,1282,0,0
455,-258,0,0,0,0,0,0,0,0,0,-1,1679,1282,0,0
462,-258,0,0,0,0,0,0,0,0,0,-1,1686,1282,0,0
469,-258,0,0,0,0,0,0,0,0,0,-1,1693,1282,0,0
476,-258,0,0,0,0,0,0,0,0,0,-1,1700,1282,0,0
483,-258,0,0,0,0,0,0,0,0,0,-1,1707,1282,0,0
490,-258,0,0,0,0,0,0,0,0,0,-1,1714,1282,0,0
497,-258,0,0,0,0,0,0,0,0,0,-1,1721,1282,0,0
504,-258,0,0,0,0,0,0,0,0,0,-1,1728,1282,0,0
511,-258,0,0,0,0,0,0,0,0,0,-1,1735,1282,0,0
518,-258,0,0,0,0,0,0,0,0,0,-1,1742,1282,0,0
525,-258,0,0,0,0,0,0,0,0,0,-1,1749,1282,0,0
532,-258,0,0,0,0,0,0,0,0,0,-1,1756,1282,0,0
539,-258,0,0,0,0,0,0,0,0,0,-1,1763,1282,0,0
546,-258,0,0,0,0,0,0,0,0,0,-1,1770,1282,0,0
553,-258,0,0,0,0,0,0,0,0,0,-1,1777,1282,0,0
560,-258,0,0,0,0,0,0,0,0,0,-1,1784,1282,0,0
567,-258,0,0,0,0,0,0,0,0,0,-1,1791,1282,0,0
574,-258,0,0,0,0,0,0,0,0,0,-1,1798,1282,0,0
581,-258,0,0,0,0,0,0,0,0,0,-1,1805,1282,0,0
588,-258,0,0,0,0,0,0,0,0,0,-1,1812,1282,0,0
595,-258,0,0,0,0,0,0,0,0,0,-1,1819,1282,0,0
602,-258,0,0,0,0,0,0,0,0,0,-1,1826,1282,0,0
609,-258,76.1388,2.0813,-0.00415256,0.00753938,-0.000895532,0.00760757,-0.00422076,-1.49479,0.00692177,0.0260929,1833,1282,76.1388,-2.08134
616,-258,76.1198,2.1261,-0.00322426,0.0119797,-0.00399662,0.0129663,-0.00421083,-1.32879,0.0103377,0.0246222,1840,1282,76.1197,-2.12605
623,-258,76.1021,2.06201,-0.00240583,0.0151984,-0.0065705,0.0173803,-0.00458773,-1.25018,0.0133809,0.0334842,1847,1282,76.102,-2.06207
630,-258,76.1268,1.92871,-0.0018343,0.0154723,-0.00734763,0.018171,-0.00453297,-1.21881,0.0138741,0.0424513,1854,1282,76.1268,-1.92874
637,-258,76.2614,1.99316,-0.00142597,0.0131054,-0.00642191,0.0155367,-0.00385724,-1.20888,0.0118546,0.0432416,1861,1282,76.2613,-1.99316
644,-258,76.3474,1.90552,0,0,0,0,0,0,0,-1,1868,1282,76.3474,-1.90553
651,-258,73.8274,1.62305,0,0,0,0,0,0,0,-1,1875,1282,73.8274,-1.62306
658,-258,45.4424,3.1405,0,0,0,0,0,0,0,-1,1882,1282,45.4423,-3.14046
665,-258,35.4747,1.1864,0,0,0,0,0,0,0,-1,1889,1282,35.4747,-1.18637
672,-258,22.703,2.80957,0,0,0,0,0,0,0,-1,1896,1282,22.703,-2.80962
679,-258,26.8693,8.19543,0,0,0,0,0,0,0,-1,1903,1282,26.8692,-8.19548
686,-258,54.9644,14.8811,0,0,0,0,0,0,0,-1,1910,1282,54.9644,-14.881
693,-258,54.813,14.0444,-0.000209137,0.000359603,-0.000431423,0.000591946,-0.00044148,-1.07679,0.000598753,0.0289945,1917,1282,54.813,-14.0444
700,-258,54.7396,13.2452,-8.77033e-05,-0.000495942,0.000553185,0.00029782,-0.000881466,0.608653,0.000708111,0.0101669,1924,1282,54.7396,-13.2453
707,-258,54.7278,12.4553,-0.00041796,-0.000868711,0.000958082,0.000340898,-0.00162757,0.66988,0.00121473,0.0115382,1931,1282,54.7277,-12.4553
714,-258,54.6964,11.7,-0.000775067,-0.000750236,0.00151027,0.000747668,-0.00227297,0.789509,0.00181657,0.0122975,1938,1282,54.6964,-11.6999
721,-258,54.6201,10.9285,-0.00102367,-0.000641706,0.00212798,0.00130385,-0.00296922,0.830152,0.00252874,0.0227701,1945,1282,54.6201,-10.9285
728,-258,54.5338,10.1998,-0.00122015,-0.00056238,0.00282455,0.00195237,-0.0037349,0.843356,0.00333687,0.0223709,1952,1282,54.5338,-10.1999
735,-258,54.5612,9.41931,-0.00141096,-0.000509907,0.0036327,0.00270009,-0.00462096,0.847093,0.00427503,0.0193363,1959,1282,54.5611,-9.41937
742,-258,54.5063,8.69702,-0.0015898,-0.000491302,0.00456648,0.00355884,-0.00563994,0.84525,0.00535603,0.0191108,1966,1282,54.5064,-8.69708
749,-258,54.4121,8.11975,-0.00166994,-0.000482793,0.00564267,0.00459744,-0.00675017,0.837802,0.00659073,0.0414279,1973,1282,54.4122,-8.11973
756,-258,54.3811,7.40991,0,0,0,0,0,0,0,-1,1980,1282,54.3811,-7.40994
763,-258,39.3638,5.09753,0,0,0,0,0,0,0,-1,1987,1282,39.3638,-5.09751
770,-258,40.3713,4.08325,0,0,0,0,0,0,0,-1,1994,1282,40.3713,-4.08323
777,-258,31.912,4.83093,0,0,0,0,0,0,0,-1,2001,1282,31.912,-4.8309
784,-258,32.6525,6.43091,0,0,0,0,0,0,0,-1,2008,1282,32.6525,-6.43091
791,-258,0,0,0,0,0,0,0,0,0,-1,2015,1282,0,0
798,-258,0,0,0,0,0,0,0,0,0,-1,2022,1282,0,0
805,-258,0,0,0,0,0,0,0,0,0,-1,2029,1282,0,0
812,-258,0,0,0,0,0,0,0,0,0,-1,2036,1282,0,0
-700,-265,0,0,0,0,0,0,0,0,0,-1,524,1289,0,0
-693,-265,0,0,0,0,0,0,0,0,0,-1,531,1289,0,0
-686,-265,0,0,0,0,0,0,0,0,0,-1,538,1289,0,0
-679,-265,0,0,0,0,0,0,0,0,0,-1,545,1289,0,0
-672,-265,0,0,0,0,0,0,0,0,0,-1,552,1289,0,0
-665,-265,-44.553,1.771,0,0,0,0,0,0,0,-1,559,1289,-44.553,-1.77096
-658,-265,-44.9351,1.32117,0,0,0,0,0,0,0,-1,566,1289,-44.9351,-1.32118
-651,-265,-44.821,1.0614,0,0,0,0,0,0,0,-1,573,1289,-44.821,-1.06141
-644,-265,-44.4684,0.304932,0,0,0,0,0,0,0,-1,580,1289,-44.4684,-0.304991
-637,-265,-44.6157,0.250122,0,0,0,0,0,0,0,-1,587,1289,-44.6157,-0.250067
-630,-265,-44.5689,0.900269,0,0,0,0,0,0,0,-1,594,1289,-44.5689,-0.900302
-623,-265,-37.2662,6.01453,0,0,0,0,0,0,0,-1,601,1289,-37.2662,-6.01449
-616,-265,-37.0609,6.88306,0.00745885,1.46383e-05,0.00396441,0.00917463,-0.00170114,0.408455,0.00675525,0.0488692,608,1289,-37.0609,-6.88303
-609,-265,-36.9569,7.80408,0.00522475,0.000906824,0.0027875,0.00659159,-0.000460012,0.455894,0.00455548,0.0201669,615,1289,-36.9569,-7.80402
-602,-265,-37.0163,8.64343,0.00330551,0.000719342,0.00177337,0.00420717,-0.000182323,0.470382,0.00286749,0.0148618,622,1289,-37.0163,-8.64339
-595,-265,-37.0567,9.46436,0.00179208,0.000216498,0.000877934,0.00218386,-0.00017528,0.41973,0.00151771,0.0129576,629,1289,-37.0567,-9.46438
-588,-265,-37.0858,10.2434,0.000629857,-0.000528231,0.000113556,0.000640887,-0.000539261,0.0968258,0.0006822,0.0125647,636,1289,-37.0858,-10.2435
-581,-265,-37.1368,11.0349,-0.000309065,-0.00150613,-0.000574855,-7.77192e-05,-0.00173748,-0.38261,0.0011333,0.0144696,643,1289,-37.1369,-11.0349
-574,-265,-37.1856,11.8912,-0.0010016,-0.00269628,-0.00118838,-0.00038941,-0.00330847,-0.475693,0.00208798,0.0145424,650,1289,-37.1856,-11.8912
-567,-265,-37.311,12.6417,-0.00136136,-0.00415301,-0.00169832,-0.000558862,-0.0049555,-0.441426,0.00313403,0.0219484,657,1289,-37.311,-12.6418
-560,-265,-37.5316,13.3969,-0.00117211,-0.00566521,-0.00201856,-0.000398467,-0.00643886,-0.365997,0.00416611,0.0325448,664,1289,-37.5316,-13.3969
-553,-265,-37.657,14.2343,0,0,0,0,0,0,0,-1,671,1289,-37.657,-14.2342
-546,-265,-24.2283,10.2581,0,0,0,0,0,0,0,-1,678,1289,-24.2283,-10.258
-539,-265,-13.7668,6.39917,0,0,0,0,0,0,0,-1,685,1289,-13.7668,-6.39915
-532,-265,-8.53998,3.41467,0,0,0,0,0,0,0,-1,692,1289,-8.53996,-3.41473
-525,-265,-12.1317,0.514648,0,0,0,0,0,0,0,-1,699,1289,-12.1317,-0.514634
-518,-265,-24.1604,0.712402,0,0,0,0,0,0,0,-1,706,1289,-24.1604,-0.712425
-511,-265,-23.233,0.791626,0,0,0,0,0,0,0,-1,713,1289,-23.233,-0.791617
-504,-265,-22.3056,0.87085,0,0,0,0,0,0,0,-1,720,1289,-22.3056,-0.87081
-497,-265,-18.689,-0.278442,0,0,0,0,0,0,0,-1,727,1289,-18.689,0.278423
-490,-265,-15.1696,0.492676,0,0,0,0,0,0,0,-1,734,1289,-15.1696,-0.492688
-483,-265,0,0,0,0,0,0,0,0,0,-1,741,1289,0,0
-476,-265,0,0,0,0,0,0,0,0,0,-1,748,1289,0,0
-469,-265,0,0,0,0,0,0,0,0,0,-1,755,1289,0,0
-462,-265,0,0,0,0,0,0,0,0,0,-1,762,1289,0,0
-455,-265,0,0,0,0,0,0,0,0,0,-1,769,1289,0,0
-448,-265,0,0,0,0,0,0,0,0,0,-1,776,1289,0,0
-441,-265,0,0,0,0,0,0,0,0,0,-1,783,1289,0,0
-434,-265,0,0,0,0,0,0,0,0,0,-1,790,1289,0,0
-427,-265,0,0,0,0,0,0,0,0,0,-1,797,1289,0,0
-420,-265,0,0,0,0,0,0,0,0,0,-1,804,1289,0,0
-413,-265,0,0,0,0,0,0,0,0,0,-1,811,1289,0,0
-406,-265,0,0,0,0,0,0,0,0,0,-1,818,1289,0,0
-399,-265,0,0,0,0,0,0,0,0,0,-1,825,1289,0,0
-392,-265,0,0,0,0,0,0,0,0,0,-1,832,1289,0,0
-385,-265,0,0,0,0,0,0,0,0,0,-1,839,1289,0,0
-378,-265,0,0,0,0,0,0,0,0,0,-1,846,1289,0,0
-371,-265,0,0,0,0,0,0,0,0,0,-1,853,1289,0,0
-364,-265,0,0,0,0,0,0,0,0,0,-1,860,1289,0,0
-357,-265,0,0,0,0,0,0,0,0,0,-1,867,1289,0,0
-350,-265,0,0,0,0,0,0,0,0,0,-1,874,1289,0,0
-343,-265,0,0,0,0,0,0,0,0,0,-1,881,1289,0,0
-336,-265,0,0,0,0,0,0,0,0,0,-1,888,1289,0,0
-329,-265,0,0,0,0,0,0,0,0,0,-1,895,1289,0,0
-322,-265,0,0,0,0,0,0,0,0,0,-1,902,1289,0,0
-315,-265,0,0,0,0,0,0,0,0,0,-1,909,1289,0,0
-308,-265,0,0,0,0,0,0,0,0,0,-1,916,1289,0,0
-301,-265,0,0,0,0,0,0,0,0,0,-1,923,1289,0,0
-294,-265,0,0,0,0,0,0,0,0,0,-1,930,1289,0,0
-287,-265,0,0,0,0,0,0,0,0,0,-1,937,1289,0,0
-280,-265,0,0,0,0,0,0,0,0,0,-1,944,1289,0,0
-273,-265,0,0,0,0,0,0,0,0,0,-1,951,1289,0,0
-266,-265,0,0,0,0,0,0,0,0,0,-1,958,1289,0,0
-259,-265,0,0,0,0,0,0,0,0,0,-1,965,1289,0,0
-252,-265,0,0,0,0,0,0,0,0,0,-1,972,1289,0,0
-245,-265,0,0,0,0,0,0,0,0,0,-1,979,1289,0,0
-238,-265,0,0,0,0,0,0,0,0,0,-1,986,1289,0,0
-231,-265,0,0,0,0,0,0,0,0,0,-1,993,1289,0,0
-224,-265,0,0,0,0,0,0,0,0,0,-1,1000,1289,0,0
-217,-265,0,0,0,0,0,0,0,0,0,-1,1007,1289,0,0
-210,-265,0,0,0,0,0,0,0,0,0,-1,1014,1289,0,0
-203,-265,0,0,0,0,0,0,0,0,0,-1,1021,1289,0,0
-196,-265,0,0,0,0,0,0,0,0,0,-1,1028,1289,0,0
-189,-265,0,0,0,0,0,0,0,0,0,-1,1035,1289,0,0
-182,-265,0,0,0,0,0,0,0,0,0,-1,1042,1289,0,0
-175,-265,0,0,0,0,0,0,0,0,0,-1,1049,1289,0,0
-168,-265,0,0,0,0,0,0,0,0,0,-1,1056,1289,0,0
-161,-265,0,0,0,0,0,0,0,0,0,-1,1063,1289,0,0
-154,-265,0,0,0,0,0,0,0,0,0,-1,1070,1289,0,0
-147,-265,0,0,0,0,0,0,0,0,0,-1,1077,1289,0,0
-140,-265,0,0,0,0,0,0,0,0,0,-1,1084,1289,0,0
-133,-265,0,0,0,0,0,0,0,0,0,-1,1091,1289,0,0
-126,-265,0,0,0,0,0,0,0,0,0,-1,1098,1289,0,0
-119,-265,0,0,0,0,0,0,0,0,0,-1,1105,1289,0,0
-112,-265,0,0,0,0,0,0,0,0,0,-1,1112,1289,0,0
-105,-265,0,0,0,0,0,0,0,0,0,-1,1119,1289,0,0
-98,-265,0,0,0,0,0,0,0,0,0,-1,1126,1289,0,0
-91,-265,0,0,0,0,0,0,0,0,0,-1,1133,1289,0,0
-84,-265,0,0,0,0,0,0,0,0,0,-1,1140,1289,0,0
-77,-265,0,0,0,0,0,0,0,0,0,-1,1147,1289,0,0
-70,-265,0,0,0,0,0,0,0,0,0,-1,1154,1289,0,0
-63,-265,0,0,0,0,0,0,0,0,0,-1,1161,1289,0,0
-56,-265,0,0,0,0,0,0,0,0,0,-1,1168,1289,0,0
-49,-265,0,0,0,0,0,0,0,0,0,-1,1175,1289,0,0
-42,-265,0,0,0,0,0,0,0,0,0,-1,1182,1289,0,0
-35,-265,0,0,0,0,0,0,0,0,0,-1,1189,1289,0,0
-28,-265,0,0,0,0,0,0,0,0,0,-1,1196,1289,0,0
-21,-265,0,0,0,0,0,0,0,0,0,-1,1203,1289,0,0
-14,-265,0,0,0,0,0,0,0,0,0,-1,1210,1289,0,0
-7,-265,0,0,0,0,0,0,0,0,0,-1,1217,1289,0,0
0,-265,0,0,0,0,0,0,0,0,0,-1,1224,1289,0,0
7,-265,0,0,0,0,0,0,0,0,0,-1,1231,1289,0,0
14,-265,0,0,0,0,0,0,0,0,0,-1,1238,1289,0,0
21,-265,0,0,0,0,0,0,0,0,0,-1,1245,1289,0,0
28,-265,0,0,0,0,0,0,0,0,0,-1,1252,1289,0,0
35,-265,0,0,0,0,0,0,0,0,0,-1,1259,1289,0,0
42,-265,0,0,0,0,0,0,0,0,0,-1,1266,1289,0,0
49,-265,0,0,0,0,0,0,0,0,0,-1,1273,1289,0,0
56,-265,0,0,0,0,0,0,0,0,0,-1,1280,1289,0,0
63,-265,0,0,0,0,0,0,0,0,0,-1,1287,1289,0,0
70,-265,0,0,0,0,0,0,0,0,0,-1,1294,1289,0,0
77,-265,0,0,0,0,0,0,0,0,0,-1,1301,1289,0,0
84,-265,0,0,0,0,0,0,0,0,0,-1,1308,1289,0,0
91,-265,0,0,0,0,0,0,0,0,0,-1,1315,1289,0,0
98,-265,0,0,0,0,0,0,0,0,0,-1,1322,1289,0,0
105,-265,0,0,0,0,0,0,0,0,0,-1,1329,1289,0,0
112,-265,0,0,0,0,0,0,0,0,0,-1,1336,1289,0,0
119,-265,0,0,0,0,0,0,0,0,0,-1,1343,1289,0,0
126,-265,0,0,0,0,0,0,0,0,0,-1,1350,1289,0,0
133,-265,0,0,0,0,0,0,0,0,0,-1,1357,1289,0,0
140,-265,0,0,0,0,0,0,0,0,0,-1,1364,1289,0,0
147,-265,0,0,0,0,0,0,0,0,0,-1,1371,1289,0,0
154,-265,0,0,0,0,0,0,0,0,0,-1,1378,1289,0,0
161,-265,0,0,0,0,0,0,0,0,0,-1,1385,1289,0,0
168,-265,0,0,0,0,0,0,0,0,0,-1,1392,1289,0,0
175,-265,0,0,0,0,0,0,0,0,0,-1,1399,1289,0,0
182,-265,0,0,0,0,0,0,0,0,0,-1,1406,1289,0,0
189,-265,0,0,0,0,0,0,0,0,0,-1,1413,1289,0,0
196,-265,0,0,0,0,0,0,0,0,0,-1,1420,1289,0,0
203,-265,0,0,0,0,0,0,0,0,0,-1,1427,1289,0,0
210,-265,0,0,0,0,0,0,0,0,0,-1,1434,1289,0,0
217,-265,0,0,0,0,0,0,0,0,0,-1,1441,1289,0,0
224,-265,0,0,0,0,0,0,0,0,0,-1,1448,1289,0,0
231,-265,0,0,0,0,0,0,0,0,0,-1,1455,1289,0,0
238,-265,0,0,0,0,0,0,0,0,0,-1,1462,1289,0,0
245,-265,0,0,0,0,0,0,0,0,0,-1,1469,1289,0,0
252,-265,0,0,0,0,0,0,0,0,0,-1,1476,1289,0,0
259,-265,0,0,0,0,0,0,0,0,0,-1,1483,1289,0,0
266,-265,0,0,0,0,0,0,0,0,0,-1,1490,1289,0,0
273,-265,0,0,0,0,0,0,0,0,0,-1,1497,1289,0,0
280,-265,0,0,0,0,0,0,0,0,0,-1,1504,1289,0,0
287,-265,0,0,0,0,0,0,0,0,0,-1,1511,1289,0,0
294,-265,0,0,0,0,0,0,0,0,0,-1,1518,1289,0,0
301,-265,0,0,0,0,0,0,0,0,0,-1,1525,1289,0,0
308,-265,0,0,0,0,0,0,0,0,0,-1,1532,1289,0,0
315,-265,0,0,0,0,0,0,0,0,0,-1,1539,1289,0,0
322,-265,0,0,0,0,0,0,0,0,0,-1,1546,1289,0,0
329,-265,0,0,0,0,0,0,0,0,0,-1,1553,1289,0,0
336,-265,0,0,0,0,0,0,0,0,0,-1,1560,1289,0,0
343,-265,0,0,0,0,0,0,0,0,0,-1,1567,1289,0,0
350,-265,0,0,0,0,0,0,0,0,0,-1,1574,1289,0,0
357,-265,0,0,0,0,0,0,0,0,0,-1,1581,1289,0,0
364,-265,0,0,0,0,0,0,0,0,0,-1,1588,1289,0,0
371,-265,0,0,0,0,0,0,0,0,0,-1,1595,1289,0,0
378,-265,0,0,0,0,0,0,0,0,0,-1,1602,1289,0,0
385,-265,0,0,0,0,0,0,0,0,0,-1,1609,1289,0,0
392,-265,0,0,0,0,0,0,0,0,0,-1,1616,1289,0,0
399,-265,0,0,0,0,0,0,0,0,0,-1,1623,1289,0,0
406,-265,0,0,0,0,0,0,0,0,0,-1,1630,1289,0,0
413,-265,0,0,0,0,0,0,0,0,0,-1,1637,1289,0,0
420,-265,0,0,0,0,0,0,0,0,0,-1,1644,1289,0,0
427,-265,0,0,0,0,0,0,0,0,0,-1,1651,1289,0,0
434,-265,0,0,0,0,0,0,0,0,0,-1,1658,1289,0,0
441,-265,0,0,0,0,0,0,0,0,0,-1,1665,1289,0,0
448,-265,0,0,0,0,0,0,0,0,0,-1,1672,1289,0,0
455,-265,0,0,0,0,0,0,0,0,0,-1,1679,1289,0,0
462,-265,0,0,0,0,0,0,0,0,0,-1,1686,1289,0,0
469,-265,0,0,0,0,0,0,0,0,0,-1,1693,1289,0,0
476,-265,0,0,0,0,0,0,0,0,0,-1,1700,1289,0,0
483,-265,0,0,0,0,0,0,0,0,0,-1,1707,1289,0,0
490,-265,0,0,0,0,0,0,0,0,0,-1,1714,1289,0,0
497,-265,0,0,0,0,0,0,0,0,0,-1,1721,1289,0,0
504,-265,0,0,0,0,0,0,0,0,0,-1,1728,1289,0,0
511,-265,0,0,0,0,0,0,0,0,0,-1,1735,1289,0,0
518,-265,0,0,0,0,0,0,0,0,0,-1,1742,1289,0,0
525,-265,0,0,0,0,0,0,0,0,0,-1,1749,1289,0,0
532,-265,0,0,0,0,0,0,0,0,0,-1,1756,1289,0,0
539,-265,0,0,0,0,0,0,0,0,0,-1,1763,1289,0,0
546,-265,0,0,0,0,0,0,0,0,0,-1,1770,1289,0,0
553,-265,0,0,0,0,0,0,0,0,0,-1,1777,1289,0,0
560,-265,0,0,0,0,0,0,0,0,0,-1,1784,1289,0,0
567,-265,0,0,0,0,0,0,0,0,0,-1,1791,1289,0,0
574,-265,0,0,0,0,0,0,0,0,0,-1,1798,1289,0,0
581,-265,0,0,0,0,0,0,0,0,0,-1,1805,1289,0,0
588,-265,0,0,0,0,0,0,0,0,0,-1,1812,1289,0,0
595,-265,0,0,0,0,0,0,0,0,0,-1,1819,1289,0,0
602,-265,76.1879,2.13477,-0.00504804,0.00707282,-0.00118068,0.00718676,-0.00516198,-1.47459,0.00716142,0.0277017,1826,1289,76.1879,-2.13472
609,-265,76.0984,2.02136,-0.00369819,0.0127204,-0.00442991,0.0138394,-0.00481716,-1.32338,0.0111833,0.027012,1833,1289,76.0984,-2.02142
616,-265,76.1288,2.06726,-0.00247336,0.0175488,-0.00747535,0.0200319,-0.00495638,-1.2501,0.0152771,0.0332598,1840,1289,76.1288,-2.06727
623,-265,76.1207,1.8573,-0.00162925,0.0187428,-0.00857912,0.0218743,-0.00476074,-1.22081,0.0164017,0.0459455,1847,1289,76.1207,-1.85735
630,-265,76.0514,1.76172,-0.00124063,0.0167983,-0.00792859,0.0197877,-0.00423005,-1.21024,0.0148046,0.0476246,1854,1289,76.0514,-1.76177
637,-265,76.2539,1.98352,0,0,0,0,0,0,0,-1,1861,1289,76.2539,-1.98354
644,-265,72.2863,0.399658,0,0,0,0,0,0,0,-1,1868,1289,72.2863,-0.39967
651,-265,53.6781,1.57166,0,0,0,0,0,0,0,-1,1875,1289,53.6781,-1.57167
658,-265,41.7163,3.71619,0,0,0,0,0,0,0,-1,1882,1289,41.7163,-3.71624
665,-265,34.7902,1.43164,0,0,0,0,0,0,0,-1,1889,1289,34.7901,-1.43162
672,-265,20.0045,6.62671,0,0,0,0,0,0,0,-1,1896,1289,20.0045,-6.62668
679,-265,48.9694,14.0298,0,0,0,0,0,0,0,-1,1903,1289,48.9694,-14.0297
686,-265,54.0959,14.9646,0,0,0,0,0,0,0,-1,1910,1289,54.0959,-14.9645
693,-265,54.0209,14.0844,-0.000174123,0.000209402,-0.000616314,0.000663097,-0.000627818,-0.936223,0.000745403,0.0163139,1917,1289,54.0208,-14.0843
700,-265,53.9847,13.2848,-0.000131926,-0.000532054,0.000349181,7.04437e-05,-0.000734424,0.525251,0.000514707,0.0103022,1924,1289,53.9848,-13.2848
707,-265,53.9539,12.5071,-0.000374743,-0.000803966,0.000831037,0.000268946,-0.00144766,0.659036,0.00106612,0.011252,1931,1289,53.9539,-12.5071
714,-265,53.9027,11.7333,-0.000608491,-0.000709522,0.00145001,0.000791888,-0.0021099,0.767986,0.001732,0.0138022,1938,1289,53.9027,-11.7333
721,-265,53.7939,10.9567,-0.000791931,-0.000642819,0.00213955,0.00142348,-0.00285823,0.802814,0.00251788,0.0157049,1945,1289,53.7939,-10.9567
728,-265,53.7358,10.2255,-0.000941505,-0.000604516,0.0029114,0.00214327,-0.00368929,0.814303,0.00340663,0.01583,1952,1289,53.7358,-10.2255
735,-265,53.783,9.46558,-0.00106811,-0.000585654,0.00378703,0.00296782,-0.00462158,0.817205,0.00441628,0.0165224,1959,1289,53.783,-9.46559
742,-265,53.7408,8.72168,-0.00116351,-0.000593248,0.00477486,0.00390499,-0.00566175,0.81522,0.00555432,0.0199111,1966,1289,53.7408,-8.72166
749,-265,53.9061,8.07776,-0.00110502,-0.000599637,0.00591148,0.00506455,-0.00676921,0.806758,0.00685581,0.0480265,1973,1289,53.9061,-8.07772
756,-265,54.2563,7.40247,0,0,0,0,0,0,0,-1,1980,1289,54.2563,-7.40246
763,-265,39.1299,4.9679,0,0,0,0,0,0,0,-1,1987,1289,39.1299,-4.96791
770,-265,35.1674,5.07715,0,0,0,0,0,0,0,-1,1994,1289,35.1673,-5.07718
777,-265,32.1664,5.3457,0,0,0,0,0,0,0,-1,2001,1289,32.1664,-5.34568
784,-265,0,0,0,0,0,0,0,0,0,-1,2008,1289,0,0
791,-265,0,0,0,0,0,0,0,0,0,-1,2015,1289,0,0
798,-265,0,0,0,0,0,0,0,0,0,-1,2022,1289,0,0
805,-265,0,0,0,0,0,0,0,0,0,-1,2029,1289,0,0
812,-265,0,0,0,0,0,0,0,0,0,-1,2036,1289,0,0
-700,-272,0,0,0,0,0,0,0,0,0,-1,524,1296,0,0
-693,-272,0,0,0,0,0,0,0,0,0,-1,531,1296,0,0
-686,-272,0,0,0,0,0,0,0,0,0,-1,538,1296,0,0
-679,-272,0,0,0,0,0,0,0,0,0,-1,545,1296,0,0
-672,-272,0,0,0,0,0,0,0,0,0,-1,552,1296,0,0
-665,-272,0,0,0,0,0,0,0,0,0,-1,559,1296,0,0
-658,-272,-44.6526,1.54443,0,0,0,0,0,0,0,-1,566,1296,-44.6526,-1.5444
-651,-272,-44.3723,1.53772,0,0,0,0,0,0,0,-1,573,1296,-44.3723,-1.53774
-644,-272,-44.1104,1.46021,0,0,0,0,0,0,0,-1,580,1296,-44.1104,-1.46022
-637,-272,-43.9348,1.25171,0,0,0,0,0,0,0,-1,587,1296,-43.9348,-1.25175
-630,-272,-43.5906,0.784912,0,0,0,0,0,0,0,-1,594,1296,-43.5906,-0.784935
-623,-272,-34.1035,5.31335,0,0,0,0,0,0,0,-1,601,1296,-34.1035,-5.31331
-616,-272,-36.1564,6.98608,0,0,0,0,0,0,0,-1,608,1296,-36.1564,-6.98612
-609,-272,-36.0891,8.00415,0.00604986,0.00159453,0.00319038,0.00771334,-6.89535e-05,0.480625,0.00516537,0.0295789,615,1296,-36.0891,-8.00419
-602,-272,-36.1812,8.66968,0.00398577,0.00131941,0.00218542,0.00521255,9.26249e-05,0.511516,0.00344457,0.0161189,622,1296,-36.1811,-8.66972
-595,-272,-36.2503,9.51733,0.00238493,0.000765942,0.00129368,0.00310151,4.93608e-05,0.505838,0.00205142,0.0123143,629,1296,-36.2503,-9.51739
-588,-272,-36.2884,10.3162,0.00122815,2.44607e-05,0.000541698,0.00143603,-0.000183419,0.366424,0.00102399,0.0124159,636,1296,-36.2884,-10.3161
-581,-272,-36.3418,11.0967,0.000350192,-0.000883822,-0.000112639,0.000360389,-0.000894019,-0.0902841,0.000745757,0.0114892,643,1296,-36.3418,-11.0967
-574,-272,-36.3964,11.9194,-0.000252298,-0.00193427,-0.000683082,-9.83709e-06,-0.00217673,-0.34108,0.00144789,0.0156385,650,1296,-36.3964,-11.9194
-567,-272,-36.4466,12.7056,-0.000527219,-0.00312689,-0.0011559,-8.76087e-05,-0.0035665,-0.363426,0.00234901,0.0221346,657,1296,-36.4466,-12.7056
-560,-272,-36.5963,13.49,-0.000269553,-0.00435061,-0.00143827,0.000186394,-0.00480656,-0.306988,0.00326827,0.0235195,664,1296,-36.5963,-13.49
-553,-272,-36.6126,14.2828,0.000400619,-0.00588605,-0.00174955,0.000854712,-0.00634014,-0.253945,0.00453857,0.0363609,671,1296,-36.6126,-14.2828
-546,-272,-36.7536,15.1862,0,0,0,0,0,0,0,-1,678,1296,-36.7536,-15.1861
-539,-272,-24.1416,11.0325,0,0,0,0,0,0,0,-1,685,1296,-24.1416,-11.0324
-532,-272,-10.5572,4.53943,0,0,0,0,0,0,0,-1,692,1296,-10.5572,-4.53943
-525,-272,-11.9599,0.0393066,0,0,0,0,0,0,0,-1,699,1296,-11.9599,-0.0393577
-518,-272,-21.1357,-1.41382,0,0,0,0,0,0,0,-1,706,1296,-21.1357,1.41379
-511,-272,-23.2565,0.226318,0,0,0,0,0,0,0,-1,713,1296,-23.2565,-0.22626
-504,-272,-19.7397,0.114746,0,0,0,0,0,0,0,-1,720,1296,-19.7397,-0.114701
-497,-272,-19.2225,1.71301,0,0,0,0,0,0,0,-1,727,1296,-19.2225,-1.71302
-490,-272,-20.1948,2.4032,0,0,0,0,0,0,0,-1,734,1296,-20.1948,-2.40322
-483,-272,-15.3736,0.792603,0,0,0,0,0,0,0,-1,741,1296,-15.3736,-0.79263
-476,-272,0,0,0,0,0,0,0,0,0,-1,748,1296,0,0
-469,-272,0,0,0,0,0,0,0,0,0,-1,755,1296,0,0
-462,-272,0,0,0,0,0,0,0,0,0,-1,762,1296,0,0
-455,-272,0,0,0,0,0,0,0,0,0,-1,769,1296,0,0
-448,-272,0,0,0,0,0,0,0,0,0,-1,776,1296,0,0
-441,-272,0,0,0,0,0,0,0,0,0,-1,783,1296,0,0
-434,-272,0,0,0,0,0,0,0,0,0,-1,790,1296,0,0
-427,-272,0,0,0,0,0,0,0,0,0,-1,797,1296,0,0
-420,-272,0,0,0,0,0,0,0,0,0,-1,804,1296,0,0
-413,-272,0,0,0,0,0,0,0,0,0,-1,811,1296,0,0
-406,-272,0,0,0,0,0,0,0,0,0,-1,818,1296,0,0
-399,-272,0,0,0,0,0,0,0,0,0,-1,825,1296,0,0
-392,-272,0,0,0,0,0,0,0,0,0,-1,832,1296,0,0
-385,-272,0,0,0,0,0,0,0,0,0,-1,839,1296,0,0
-378,-272,0,0,0,0,0,0,0,0,0,-1,846,1296,0,0
-371,-272,0,0,0,0,0,0,0,0,0,-1,853,1296,0,0
-364,-272,0,0,0,0,0,0,0,0,0,-1,860,1296,0,0
-357,-272,0,0,0,0,0,0,0,0,0,-1,867,1296,0,0
-350,-272,0,0,0,0,0,0,0,0,0,-1,874,1296,0,0
-343,-272,0,0,0,0,0,0,0,0,0,-1,881,1296,0,0
-336,-272,0,0,0,0,0,0,0,0,0,-1,888,1296,0,0
-329,-272,0,0,0,0,0,0,0,0,0,-1,895,1296,0,0
-322,-272,0,0,0,0,0,0,0,0,0,-1,902,1296,0,0
-315,-272,0,0,0,0,0,0,0,0,0,-1,909,1296,0,0
-308,-272,0,0,0,0,0,0,0,0,0,-1,916,1296,0,0
-301,-272,0,0,0,0,0,0,0,0,0,-1,923,1296,0,0
-294,-272,0,0,0,0,0,0,0,0,0,-1,930,1296,0,0
-287,-272,0,0,0,0,0,0,0,0,0,-1,937,1296,0,0
-280,-272,0,0,0,0,0,0,0,0,0,-1,944,1296,0,0
-273,-272,0,0,0,0,0,0,0,0,0,-1,951,1296,0,0
-266,-272,0,0,0,0,0,0,0,0,0,-1,958,1296,0,0
-259,-272,0,0,0,0,0,0,0,0,0,-1,965,1296,0,0
-252,-272,0,0,0,0,0,0,0,0,0,-1,972,1296,0,0
-245,-272,0,0,0,0,0,0,0,0,0,-1,979,1296,0,0
-238,-272,0,0,0,0,0,0,0,0,0,-1,986,1296,0,0
-231,-272,0,0,0,0,0,0,0,0,0,-1,993,1296,0,0
-224,-272,0,0,0,0,0,0,0,0,0,-1,1000,1296,0,0
-217,-272,0,0,0,0,0,0,0,0,0,-1,1007,1296,0,0
-210,-272,0,0,0,0,0,0,0,0,0,-1,1014,1296,0,0
-203,-272,0,0,0,0,0,0,0,0,0,-1,1021,1296,0,0
-196,-272,0,0,0,0,0,0,0,0,0,-1,1028,1296,0,0
-189,-272,0,0,0,0,0,0,0,0,0,-1,1035,1296,0,0
-182,-272,0,0,0,0,0,0,0,0,0,-1,1042,1296,0,0
-175,-272,0,0,0,0,0,0,0,0,0,-1,1049,1296,0,0
-168,-272,0,0,0,0,0,0,0,0,0,-1,1056,1296,0,0
-161,-272,0,0,0,0,0,0,0,0,0,-1,1063,1296,0,0
-154,-272,0,0,0,0,0,0,0,0,0,-1,1070,1296,0,0
-147,-272,0,0,0,0,0,0,0,0,0,-1,1077,1296,0,0
-140,-272,0,0,0,0,0,0,0,0,0,-1,1084,1296,0,0
-133,-272,0,0,0,0,0,0,0,0,0,-1,1091,1296,0,0
-126,-272,0,0,0,0,0,0,0,0,0,-1,1098,1296,0,0
-119,-272,0,0,0,0,0,0,0,0,0,-1,1105,1296,0,0
-112,-272,0,0,0,0,0,0,0,0,0,-1,1112,1296,0,0
-105,-272,0,0,0,0,0,0,0,0,0,-1,1119,1296,0,0
-98,-272,0,0,0,0,0,0,0,0,0,-1,1126,1296,0,0
-91,-272,0,0,0,0,0,0,0,0,0,-1,1133,1296,0,0
-84,-272,0,0,0,0,0,0,0,0,0,-1,1140,1296,0,0
-77,-272,0,0,0,0,0,0,0,0,0,-1,1147,1296,0,0
-70,-272,0,0,0,0,0,0,0,0,0,-1,1154,1296,0,0
-63,-272,0,0,0,0,0,0,0,0,0,-1,1161,1296,0,0
-56,-272,0,0,0,0,0,0,0,0,0,-1,1168,1296,0,0
-49,-272,0,0,0,0,0,0,0,0,0,-1,1175,1296,0,0
-42,-272,0,0,0,0,0,0,0,0,0,-1,1182,1296,0,0
-35,-272,0,0,0,0,0,0,0,0,0,-1,1189,1296,0,0
-28,-272,0,0,0,0,0,0,0,0,0,-1,1196,1296,0,0
-21,-272,0,0,0,0,0,0,0,0,0,-1,1203,1296,0,0
-14,-272,0,0,0,0,0,0,0,0,0,-1,1210,1296,0,0
-7,-272,0,0,0,0,0,0,0,0,0,-1,1217,1296,0,0
0,-272,0,0,0,0,0,0,0,0,0,-1,1224,1296,0,0
7,-272,0,0,0,0,0,0,0,0,0,-1,1231,1296,0,0
14,-272,0,0,0,0,0,0,0,0,0,-1,1238,1296,0,0
21,-272,0,0,0,0,0,0,0,0,0,-1,1245,1296,0,0
28,-272,0,0,0,0,0,0,0,0,0,-1,1252,1296,0,0
35,-272,0,0,0,0,0,0,0,0,0,-1,1259,1296,0,0
42,-272,0,0,0,0,0,0,0,0,0,-1,1266,1296,0,0
49,-272,0,0,0,0,0,0,0,0,0,-1,1273,1296,0,0
56,-272,0,0,0,0,0,0,0,0,0,-1,1280,1296,0,0
63,-272,0,0,0,0,0,0,0,0,0,-1,1287,1296,0,0
70,-272,0,0,0,0,0,0,0,0,0,-1,1294,1296,0,0
77,-272,0,0,0,0,0,0,0,0,0,-1,1301,1296,0,0
84,-272,0,0,0,0,0,0,0,0,0,-1,1308,1296,0,0
91,-272,0,0,0,0,0,0,0,0,0,-1,1315,1296,0,0
98,-272,0,0,0,0,0,0,0,0,0,-1,1322,1296,0,0
105,-272,0,0,0,0,0,0,0,0,0,-1,1329,1296,0,0
112,-272,0,0,0,0,0,0,0,0,0,-1,1336,1296,0,0
119,-272,0,0,0,0,0,0,0,0,0,-1,1343,1296,0,0
126,-272,0,0,0,0,0,0,0,0,0,-1,1350,1296,0,0
133,-272,0,0,0,0,0,0,0,0,0,-1,1357,1296,0,0
140,-272,0,0,0,0,0,0,0,0,0,-1,1364,1296,0,0
147,-272,0,0,0,0,0,0,0,0,0,-1,1371,1296,0,0
154,-272,0,0,0,0,0,0,0,0,0,-1,1378,1296,0,0
161,-272,0,0,0,0,0,0,0,0,0,-1,1385,1296,0,0
168,-272,0,0,0,0,0,0,0,0,0,-1,1392,1296,0,0
175,-272,0,0,0,0,0,0,0,0,0,-1,1399,1296,0,0
182,-272,0,0,0,0,0,0,0,0,0,-1,1406,1296,0,0
189,-272,0,0,0,0,0,0,0,0,0,-1,1413,1296,0,0
196,-272,0,0,0,0,0,0,0,0,0,-1,1420,1296,0,0
203,-272,0,0,0,0,0,0,0,0,0,-1,1427,1296,0,0
210,-272,0,0,0,0,0,0,0,0,0,-1,1434,1296,0,0
217,-272,0,0,0,0,0,0,0,0,0,-1,1441,1296,0,0
224,-272,0,0,0,0,0,0,0,0,0,-1,1448,1296,0,0
231,-272,0,0,0,0,0,0,0,0,0,-1,1455,1296,0,0
238,-272,0,0,0,0,0,0,0,0,0,-1,1462,1296,0,0
245,-272,0,0,0,0,0,0,0,0,0,-1,1469,1296,0,0
252,-272,0,0,0,0,0,0,0,0,0,-1,1476,1296,0,0
259,-272,0,0,0,0,0,0,0,0,0,-1,1483,1296,0,0
266,-272,0,0,0,0,0,0,0,0,0,-1,1490,1296,0,0
273,-272,0,0,0,0,0,0,0,0,0,-1,1497,1296,0,0
280,-272,0,0,0,0,0,0,0,0,0,-1,1504,1296,0,0
287,-272,0,0,0,0,0,0,0,0,0,-1,1511,1296,0,0
294,-272,0,0,0,0,0,0,0,0,0,-1,1518,1296,0,0
301,-272,0,0,0,0,0,0,0,0,0,-1,1525,1296,0,0
308,-272,0,0,0,0,0,0,0,0,0,-1,1532,1296,0,0
315,-272,0,0,0,0,0,0,0,0,0,-1,1539,1296,0,0
322,-272,0,0,0,0,0,0,0,0,0,-1,1546,1296,0,0
329,-272,0,0,0,0,0,0,0,0,0,-1,1553,1296,0,0
336,-272,0,0,0,0,0,0,0,0,0,-1,1560,1296,0,0
343,-272,0,0,0,0,0,0,0,0,0,-1,1567,1296,0,0
350,-272,0,0,0,0,0,0,0,0,0,-1,1574,1296,0,0
357,-272,0,0,0,0,0,0,0,0,0,-1,1581,1296,0,0
364,-272,0,0,0,0,0,0,0,0,0,-1,1588,1296,0,0
371,-272,0,0,0,0,0,0,0,0,0,-1,1595,1296,0,0
378,-272,0,0,0,0,0,0,0,0,0,-1,1602,1296,0,0
385,-272,0,0,0,0,0,0,0,0,0,-1,1609,1296,0,0
392,-272,0,0,0,0,0,0,0,0,0,-1,1616,1296,0,0
399,-272,0,0,0,0,0,0,0,0,0,-1,1623,1296,0,0
406,-272,0,0,0,0,0,0,0,0,0,-1,1630,1296,0,0
413,-272,0,0,0,0,0,0,0,0,0,-1,1637,1296,0,0
420,-272,0,0,0,0,0,0,0,0,0,-1,1644,1296,0,0
427,-272,0,0,0,0,0,0,0,0,0,-1,1651,1296,0,0
434,-272,0,0,0,0,0,0,0,0,0,-1,1658,1296,0,0
441,-272,0,0,0,0,0,0,0,0,0,-1,1665,1296,0,0
448,-272,0,0,0,0,0,0,0,0,0,-1,1672,1296,0,0
455,-272,0,0,0,0,0,0,0,0,0,-1,1679,1296,0,0
462,-272,0,0,0,0,0,0,0,0,0,-1,1686,1296,0,0
469,-272,0,0,0,0,0,0,0,0,0,-1,1693,1296,0,0
476,-272,0,0,0,0,0,0,0,0,0,-1,1700,1296,0,0
483,-272,0,0,0,0,0,0,0,0,0,-1,1707,1296,0,0
490,-272,0,0,0,0,0,0,0,0,0,-1,1714,1296,0,0
497,-272,0,0,0,0,0,0,0,0,0,-1,1721,1296,0,0
504,-272,0,0,0,0,0,0,0,0,0,-1,1728,1296,0,0
511,-272,0,0,0,0,0,0,0,0,0,-1,1735,1296,0,0
518,-272,0,0,0,0,0,0,0,0,0,-1,1742,1296,0,0
525,-272,0,0,0,0,0,0,0,0,0,-1,1749,1296,0,0
532,-272,0,0,0,0,0,0,0,0,0,-1,1756,1296,0,0
539,-272,0,0,0,0,0,0,0,0,0,-1,1763,1296,0,0
546,-272,0,0,0,0,0,0,0,0,0,-1,1770,1296,0,0
553,-272,0,0,0,0,0,0,0,0,0,-1,1777,1296,0,0
560,-272,0,0,0,0,0,0,0,0,0,-1,1784,1296,0,0
567,-272,0,0,0,0,0,0,0,0,0,-1,1791,1296,0,0
574,-272,0,0,0,0,0,0,0,0,0,-1,1798,1296,0,0
581,-272,0,0,0,0,0,0,0,0,0,-1,1805,1296,0,0
588,-272,0,0,0,0,0,0,0,0,0,-1,1812,1296,0,0
595,-272,0,0,0,0,0,0,0,0,0,-1,1819,1296,0,0
602,-272,76.1589,2.08826,-0.00410279,0.0141068,-0.00507794,0.0154271,-0.0054231,-1.31642,0.0124912,0.0331271,1826,1296,76.1589,-2.08823
609,-272,76.0579,1.90442,-0.00246316,0.0206156,-0.00851386,0.0234164,-0.00526405,-1.25297,0.0176296,0.0393127,1833,1296,76.0579,-1.90447
616,-272,76.2104,1.95654,-0.00124045,0.0232832,-0.0102295,0.0269899,-0.00494719,-1.22316,0.0198489,0.0437696,1840,1296,76.2104,-1.95655
623,-272,76.1393,1.64832,-0.000774254,0.0209761,-0.00939552,0.0244726,-0.00427076,-1.21453,0.0179092,0.0469182,1847,1296,76.1393,-1.64834
630,-272,76.078,1.14966,-0.000714539,0.0174713,-0.00799221,0.0204845,-0.00372767,-1.21027,0.0150535,0.0478908,1854,1296,76.078,-1.14967
637,-272,76.3324,1.53564,0,0,0,0,0,0,0,-1,1861,1296,76.3324,-1.53569
644,-272,53.563,1.44336,0,0,0,0,0,0,0,-1,1868,1296,53.5629,-1.4433
651,-272,41.9225,4.27161,0,0,0,0,0,0,0,-1,1875,1296,41.9225,-4.27157
658,-272,35.1527,2.10571,0,0,0,0,0,0,0,-1,1882,1296,35.1527,-2.10573
665,-272,22.0238,4.14417,0,0,0,0,0,0,0,-1,1889,1296,22.0238,-4.14421
672,-272,22.661,7.21765,0,0,0,0,0,0,0,-1,1896,1296,22.661,-7.21761
679,-272,51.5885,15.1158,0,0,0,0,0,0,0,-1,1903,1296,51.5885,-15.1159
686,-272,53.1992,14.8982,0,0,0,0,0,0,0,-1,1910,1296,53.1993,-14.8982
693,-272,53.218,14.1182,8.17106e-05,9.06556e-05,-0.000705661,0.000791858,-0.000619492,-0.788567,0.000816867,0.0131919,1917,1296,53.218,-14.1181
700,-272,53.2061,13.3329,8.64638e-05,-0.00046601,0.000230653,0.000170099,-0.000549645,0.347855,0.000434377,0.0123613,1924,1296,53.206,-13.3328
707,-272,53.1698,12.542,-0.000133859,-0.000664549,0.000789865,0.000434039,-0.00123245,0.623352,0.000998276,0.0116886,1931,1296,53.1698,-12.542
714,-272,53.1106,11.7606,-0.00036182,-0.000639392,0.00145656,0.000962555,-0.00196377,0.7379,0.00172216,0.0145106,1938,1296,53.1106,-11.7606
721,-272,53.0294,11.0419,-0.000559974,-0.000649232,0.00219454,0.00159039,-0.0027996,0.775231,0.00256641,0.0184737,1945,1296,53.0294,-11.0418
728,-272,53.017,10.2369,-0.000713355,-0.000683906,0.00301519,0.0023166,-0.00371386,0.78784,0.0035127,0.0198247,1952,1296,53.017,-10.237
735,-272,53.0006,9.48975,-0.000832139,-0.000738895,0.00394548,0.00316024,-0.00473127,0.791306,0.00458616,0.0168991,1959,1296,53.0006,-9.48979
742,-272,52.9159,8.82837,-0.000900306,-0.000817783,0.004988,0.00412913,-0.00584722,0.789534,0.00578825,0.0256417,1966,1296,52.9159,-8.82843
749,-272,53.0474,8.11182,-0.000766306,-0.000899541,0.00620811,0.00537555,-0.00704139,0.780033,0.0071904,0.0472776,1973,1296,53.0473,-8.11179
756,-272,53.3467,7.44226,0,0,0,0,0,0,0,-1,1980,1296,53.3466,-7.44223
763,-272,34.3995,5.88416,0,0,0,0,0,0,0,-1,1987,1296,34.3996,-5.88419
770,-272,25.9485,3.67749,0,0,0,0,0,0,0,-1,1994,1296,25.9485,-3.67744
777,-272,32.3619,6.13257,0,0,0,0,0,0,0,-1,2001,1296,32.362,-6.1326
784,-272,0,0,0,0,0,0,0,0,0,-1,2008,1296,0,0
791,-272,0,0,0,0,0,0,0,0,0,-1,2015,1296,0,0
798,-272,0,0,0,0,0,0,0,0,0,-1,2022,1296,0,0
805,-272,0,0,0,0,0,0,0,0,0,-1,2029,1296,0,0
812,-272,0,0,0,0,0,0,0,0,0,-1,2036,1296,0,0
-700,-279,0,0,0,0,0,0,0,0,0,-1,524,1303,0,0
-693,-279,0,0,0,0,0,0,0,0,0,-1,531,1303,0,0
-686,-279,0,0,0,0,0,0,0,0,0,-1,538,1303,0,0
-679,-279,0,0,0,0,0,0,0,0,0,-1,545,1303,0,0
-672,-279,0,0,0,0,0,0,0,0,0,-1,552,1303,0,0
-665,-279,0,0,0,0,0,0,0,0,0,-1,559,1303,0,0
-658,-279,-44.3733,1.65881,0,0,0,0,0,0,0,-1,566,1303,-44.3733,-1.65883
-651,-279,-44.1603,1.61462,0,0,0,0,0,0,0,-1,573,1303,-44.1604,-1.61462
-644,-279,-43.8069,1.50903,0,0,0,0,0,0,0,-1,580,1303,-43.8069,-1.50909
-637,-279,-43.2951,1.33704,0,0,0,0,0,0,0,-1,587,1303,-43.2951,-1.33703
-630,-279,-42.6152,1.22852,0,0,0,0,0,0,0,-1,594,1303,-42.6152,-1.22856
-623,-279,-41.8359,0.907715,0,0,0,0,0,0,0,-1,601,1303,-41.8358,-0.907688
-616,-279,-33.9639,7.0083,0,0,0,0,0,0,0,-1,608,1303,-33.964,-7.00832
-609,-279,-35.5121,8.28613,0,0,0,0,0,0,0,-1,615,1303,-35.5121,-8.28612
-602,-279,-35.3599,8.70813,0.00457736,0.00200473,0.00268187,0.00626544,0.000316644,0.561787,0.00407552,0.0163023,622,1303,-35.3599,-8.70814
-595,-279,-35.4473,9.53796,0.00287613,0.00142624,0.00172702,0.00402419,0.000278175,0.586683,0.00259504,0.0110926,629,1303,-35.4473,-9.53795
-588,-279,-35.5065,10.3558,0.00172635,0.0006931,0.000932698,0.00227595,0.000143506,0.532479,0.0014718,0.0124008,636,1303,-35.5065,-10.3559
-581,-279,-35.5427,11.1277,0.000918764,-0.000153057,0.000283463,0.000989114,-0.000223407,0.243264,0.000745127,0.0135194,643,1303,-35.5427,-11.1277
-574,-279,-35.5875,11.9286,0.000417016,-0.00108827,-0.000251672,0.000457979,-0.00112923,-0.161349,0.000943296,0.0141805,650,1303,-35.5875,-11.9286
-567,-279,-35.628,12.7223,0.000236314,-0.00208917,-0.000677689,0.000419392,-0.00227225,-0.263852,0.00167225,0.0194742,657,1303,-35.628,-12.7223
-560,-279,-35.6942,13.5811,0.000540596,-0.00311572,-0.000902065,0.000751036,-0.00332616,-0.229188,0.00250559,0.0187301,664,1303,-35.6942,-13.5811
-553,-279,-35.7274,14.42,0.00127157,-0.00429186,-0.00104972,0.00146304,-0.00448333,-0.180421,0.00357771,0.0230189,671,1303,-35.7274,-14.42
-546,-279,-35.7289,15.2065,0.00243522,-0.00522322,-0.00085386,0.00252926,-0.00531726,-0.109698,0.00462453,0.0326144,678,1303,-35.7289,-15.2065
-539,-279,-36.1801,16.0416,0,0,0,0,0,0,0,-1,685,1303,-36.1801,-16.0416
-532,-279,-14.9813,7.89917,0,0,0,0,0,0,0,-1,692,1303,-14.9813,-7.89918
-525,-279,-11.7063,-0.539185,0,0,0,0,0,0,0,-1,699,1303,-11.7063,0.539166
-518,-279,-16.8138,1.11963,0,0,0,0,0,0,0,-1,706,1303,-16.8138,-1.11968
-511,-279,-20.1063,-1.37915,0,0,0,0,0,0,0,-1,713,1303,-20.1062,1.37918
-504,-279,-18.3766,1.04578,0,0,0,0,0,0,0,-1,720,1303,-18.3767,-1.04577
-497,-279,-19.0046,2.08911,0,0,0,0,0,0,0,-1,727,1303,-19.0046,-2.08905
-490,-279,-20.0176,2.55188,0,0,0,0,0,0,0,-1,734,1303,-20.0176,-2.55183
-483,-279,-20.8064,2.99792,0,0,0,0,0,0,0,-1,741,1303,-20.8064,-2.99797
-476,-279,0,0,0,0,0,0,0,0,0,-1,748,1303,0,0
-469,-279,0,0,0,0,0,0,0,0,0,-1,755,1303,0,0
-462,-279,0,0,0,0,0,0,0,0,0,-1,762,1303,0,0
-455,-279,0,0,0,0,0,0,0,0,0,-1,769,1303,0,0
-448,-279,0,0,0,0,0,0,0,0,0,-1,776,1303,0,0
-441,-279,0,0,0,0,0,0,0,0,0,-1,783,1303,0,0
-434,-279,0,0,0,0,0,0,0,0,0,-1,790,1303,0,0
-427,-279,0,0,0,0,0,0,0,0,0,-1,797,1303,0,0
-420,-279,0,0,0,0,0,0,0,0,0,-1,804,1303,0,0
-413,-279,0,0,0,0,0,0,0,0,0,-1,811,1303,0,0
-406,-279,0,0,0,0,0,0,0,0,0,-1,818,1303,0,0
-399,-279,0,0,0,0,0,0,0,0,0,-1,825,1303,0,0
-392,-279,0,0,0,0,0,0,0,0,0,-1,832,1303,0,0
-385,-279,0,0,0,0,0,0,0,0,0,-1,839,1303,0,0
-378,-279,0,0,0,0,0,0,0,0,0,-1,846,1303,0,0
-371,-279,0,0,0,0,0,0,0,0,0,-1,853,1303,0,0
-364,-279,0,0,0,0,0,0,0,0,0,-1,860,1303,0,0
-357,-279,0,0,0,0,0,0,0,0,0,-1,867,1303,0,0
-350,-279,0,0,0,0,0,0,0,0,0,-1,874,1303,0,0
-343,-279,0,0,0,0,0,0,0,0,0,-1,881,1303,0,0
-336,-279,0,0,0,0,0,0,0,0,0,-1,888,1303,0,0
-329,-279,0,0,0,0,0,0,0,0,0,-1,895,1303,0,0
-322,-279,0,0,0,0,0,0,0,0,0,-1,902,1303,0,0
-315,-279,0,0,0,0,0,0,0,0,0,-1,909,1303,0,0
-308,-279,0,0,0,0,0,0,0,0,0,-1,916,1303,0,0
-301,-279,0,0,0,0,0,0,0,0,0,-1,923,1303,0,0
-294,-279,0,0,0,0,0,0,0,0,0,-1,930,1303,0,0
-287,-279,0,0,0,0,0,0,0,0,0,-1,937,1303,0,0
-280,-279,0,0,0,0,0,0,0,0,0,-1,944,1303,0,0
-273,-279,0,0,0,0,0,0,0,0,0,-1,951,1303,0,0
-266,-279,0,0,0,0,0,0,0,0,0,-1,958,1303,0,0
-259,-279,0,0,0,0,0,0,0,0,0,-1,965,1303,0,0
-252,-279,0,0,0,0,0,0,0,0,0,-1,972,1303,0,0
-245,-279,0,0,0,0,0,0,0,0,0,-1,979,1303,0,0
-238,-279,0,0,0,0,0,0,0,0,0,-1,986,1303,0,0
-231,-279,0,0,0,0,0,0,0,0,0,-1,993,1303,0,0
-224,-279,0,0,0,0,0,0,0,0,0,-1,1000,1303,0,0
-217,-279,0,0,0,0,0,0,0,0,0,-1,1007,1303,0,0
-210,-279,0,0,0,0,0,0,0,0,0,-1,1014,1303,0,0
-203,-279,0,0,0,0,0,0,0,0,0,-1,1021,1303,0,0
-196,-279,0,0,0,0,0,0,0,0,0,-1,1028,1303,0,0
-189,-279,0,0,0,0,0,0,0,0,0,-1,1035,1303,0,0
-182,-279,0,0,0,0,0,0,0,0,0,-1,1042,1303,0,0
-175,-279,0,0,0,0,0,0,0,0,0,-1,1049,1303,0,0
-168,-279,0,0,0,0,0,0,0,0,0,-1,1056,1303,0,0
-161,-279,0,0,0,0,0,0,0,0,0,-1,1063,1303,0,0
-154,-279,0,0,0,0,0,0,0,0,0,-1,1070,1303,0,0
-147,-279,0,0,0,0,0,0,0,0,0,-1,1077,1303,0,0
-140,-279,0,0,0,0,0,0,0,0,0,-1,1084,1303,0,0
-133,-279,0,0,0,0,0,0,0,0,0,-1,1091,1303,0,0
-126,-279,0,0,0,0,0,0,0,0,0,-1,1098,1303,0,0
-119,-279,0,0,0,0,0,0,0,0,0,-1,1105,1303,0,0
-112,-279,0,0,0,0,0,0,0,0,0,-1,1112,1303,0,0
-105,-279,0,0,0,0,0,0,0,0,0,-1,1119,1303,0,0
-98,-279,0,0,0,0,0,0,0,0,0,-1,1126,1303,0,0
-91,-279,0,0,0,0,0,0,0,0,0,-1,1133,1303,0,0
-84,-279,0,0,0,0,0,0,0,0,0,-1,1140,1303,0,0
-77,-279,0,0,0,0,0,0,0,0,0,-1,1147,1303,0,0
-70,-279,0,0,0,0,0,0,0,0,0,-1,1154,1303,0,0
-63,-279,0,0,0,0,0,0,0,0,0,-1,1161,1303,0,0
-56,-279,0,0,0,0,0,0,0,0,0,-1,1168,1303,0,0
-49,-279,0,0,0,0,0,0,0,0,0,-1,1175,1303,0,0
-42,-279,0,0,0,0,0,0,0,0,0,-1,1182,1303,0,0
-35,-279,0,0,0,0,0,0,0,0,0,-1,1189,1303,0,0
-28,-279,0,0,0,0,0,0,0,0,0,-1,1196,1303,0,0
-21,-279,0,0,0,0,0,0,0,0,0,-1,1203,1303,0,0
-14,-279,0,0,0,0,0,0,0,0,0,-1,1210,1303,0,0
-7,-279,0,0,0,0,0,0,0,0,0,-1,1217,1303,0,0
0,-279,0,0,0,0,0,0,0,0,0,-1,1224,1303,0,0
7,-279,0,0,0,0,0,0,0,0,0,-1,1231,1303,0,0
14,-279,0,0,0,0,0,0,0,0,0,-1,1238,1303,0,0
21,-279,0,0,0,0,0,0,0,0,0,-1,1245,1303,0,0
28,-279,0,0,0,0,0,0,0,0,0,-1,1252,1303,0,0
35,-279,0,0,0,0,0,0,0,0,0,-1,1259,1303,0,0
42,-279,0,0,0,0,0,0,0,0,0,-1,1266,1303,0,0
49,-279,0,0,0,0,0,0,0,0,0,-1,1273,1303,0,0
56,-279,0,0,0,0,0,0,0,0,0,-1,1280,1303,0,0
63,-279,0,0,0,0,0,0,0,0,0,-1,1287,1303,0,0
70,-279,0,0,0,0,0,0,0,0,0,-1,1294,1303,0,0
77,-279,0,0,0,0,0,0,0,0,0,-1,1301,1303,0,0
84,-279,0,0,0,0,0,0,0,0,0,-1,1308,1303,0,0
91,-279,0,0,0,0,0,0,0,0,0,-1,1315,1303,0,0
98,-279,0,0,0,0,0,0,0,0,0,-1,1322,1303,0,0
105,-279,0,0,0,0,0,0,0,0,0,-1,1329,1303,0,0
112,-279,0,0,0,0,0,0,0,0,0,-1,1336,1303,0,0
119,-279,0,0,0,0,0,0,0,0,0,-1,1343,1303,0,0
126,-279,0,0,0,0,0,0,0,0,0,-1,1350,1303,0,0
133,-279,0,0,0,0,0,0,0,0,0,-1,1357,1303,0,0
140,-279,0,0,0,0,0,0,0,0,0,-1,1364,1303,0,0
147,-279,0,0,0,0,0,0,0,0,0,-1,1371,1303,0,0
154,-279,0,0,0,0,0,0,0,0,0,-1,1378,1303,0,0
161,-279,0,0,0,0,0,0,0,0,0,-1,1385,1303,0,0
168,-279,0,0,0,0,0,0,0,0,0,-1,1392,1303,0,0
175,-279,0,0,0,0,0,0,0,0,0,-1,1399,1303,0,0
182,-279,0,0,0,0,0,0,0,0,0,-1,1406,1303,0,0
189,-279,0,0,0,0,0,0,0,0,0,-1,1413,1303,0,0
196,-279,0,0,0,0,0,0,0,0,0,-1,1420,1303,0,0
203,-279,0,0,0,0,0,0,0,0,0,-1,1427,1303,0,0
210,-279,0,0,0,0,0,0,0,0,0,-1,1434,1303,0,0
217,-279,0,0,0,0,0,0,0,0,0,-1,1441,1303,0,0
224,-279,0,0,0,0,0,0,0,0,0,-1,1448,1303,0,0
231,-279,0,0,0,0,0,0,0,0,0,-1,1455,1303,0,0
238,-279,0,0,0,0,0,0,0,0,0,-1,1462,1303,0,0
245,-279,0,0,0,0,0,0,0,0,0,-1,1469,1303,0,0
252,-279,0,0,0,0,0,0,0,0,0,-1,1476,1303,0,0
259,-279,0,0,0,0,0,0,0,0,0,-1,1483,1303,0,0
266,-279,0,0,0,0,0,0,0,0,0,-1,1490,1303,0,0
273,-279,0,0,0,0,0,0,0,0,0,-1,1497,1303,0,0
280,-279,0,0,0,0,0,0,0,0,0,-1,1504,1303,0,0
287,-279,0,0,0,0,0,0,0,0,0,-1,1511,1303,0,0
294,-279,0,0,0,0,0,0,0,0,0,-1,1518,1303,0,0
301,-279,0,0,0,0,0,0,0,0,0,-1,1525,1303,0,0
308,-279,0,0,0,0,0,0,0,0,0,-1,1532,1303,0,0
315,-279,0,0,0,0,0,0,0,0,0,-1,1539,1303,0,0
322,-279,0,0,0,0,0,0,0,0,0,-1,1546,1303,0,0
329,-279,0,0,0,0,0,0,0,0,0,-1,1553,1303,0,0
336,-279,0,0,0,0,0,0,0,0,0,-1,1560,1303,0,0
343,-279,0,0,0,0,0,0,0,0,0,-1,1567,1303,0,0
350,-279,0,0,0,0,0,0,0,0,0,-1,1574,1303,0,0
357,-279,0,0,0,0,0,0,0,0,0,-1,1581,1303,0,0
364,-279,0,0,0,0,0,0,0,0,0,-1,1588,1303,0,0
371,-279,0,0,0,0,0,0,0,0,0,-1,1595,1303,0,0
378,-279,0,0,0,0,0,0,0,0,0,-1,1602,1303,0,0
385,-279,0,0,0,0,0,0,0,0,0,-1,1609,1303,0,0
392,-279,0,0,0,0,0,0,0,0,0,-1,1616,1303,0,0
399,-279,0,0,0,0,0,0,0,0,0,-1,1623,1303,0,0
406,-279,0,0,0,0,0,0,0,0,0,-1,1630,1303,0,0
413,-279,0,0,0,0,0,0,0,0,0,-1,1637,1303,0,0
420,-279,0,0,0,0,0,0,0,0,0,-1,1644,1303,0,0
427,-279,0,0,0,0,0,0,0,0,0,-1,1651,1303,0,0
434,-279,0,0,0,0,0,0,0,0,0,-1,1658,1303,0,0
441,-279,0,0,0,0,0,0,0,0,0,-1,1665,1303,0,0
448,-279,0,0,0,0,0,0,0,0,0,-1,1672,1303,0,0
455,-279,0,0,0,0,0,0,0,0,0,-1,1679,1303,0,0
462,-279,0,0,0,0,0,0,0,0,0,-1,1686,1303,0,0
469,-279,0,0,0,0,0,0,0,0,0,-1,1693,1303,0,0
476,-279,0,0,0,0,0,0,0,0,0,-1,1700,1303,0,0
483,-279,0,0,0,0,0,0,0,0,0,-1,1707,1303,0,0
490,-279,0,0,0,0,0,0,0,0,0,-1,1714,1303,0,0
497,-279,0,0,0,0,0,0,0,0,0,-1,1721,1303,0,0
504,-279,0,0,0,0,0,0,0,0,0,-1,1728,1303,0,0
511,-279,0,0,0,0,0,0,0,0,0,-1,1735,1303,0,0
518,-279,0,0,0,0,0,0,0,0,0,-1,1742,1303,0,0
525,-279,0,0,0,0,0,0,0,0,0,-1,1749,1303,0,0
532,-279,0,0,0,0,0,0,0,0,0,-1,1756,1303,0,0
539,-279,0,0,0,0,0,0,0,0,0,-1,1763,1303,0,0
546,-279,0,0,0,0,0,0,0,0,0,-1,1770,1303,0,0
553,-279,0,0,0,0,0,0,0,0,0,-1,1777,1303,0,0
560,-279,0,0,0,0,0,0,0,0,0,-1,1784,1303,0,0
567,-279,0,0,0,0,0,0,0,0,0,-1,1791,1303,0,0
574,-279,0,0,0,0,0,0,0,0,0,-1,1798,1303,0,0
581,-279,0,0,0,0,0,0,0,0,0,-1,1805,1303,0,0
588,-279,0,0,0,0,0,0,0,0,0,-1,1812,1303,0,0
595,-279,0,0,0,0,0,0,0,0,0,-1,1819,1303,0,0
602,-279,76.1477,1.97717,0,0,0,0,0,0,0,-1,1826,1303,76.1477,-1.97717
609,-279,75.9739,1.75183,0,0,0,0,0,0,0,-1,1833,1303,75.9739,-1.75179
616,-279,76.1842,1.88965,0,0,0,0,0,0,0,-1,1840,1303,76.1842,-1.88963
623,-279,76.1909,1.4917,0,0,0,0,0,0,0,-1,1847,1303,76.191,-1.49175
630,-279,76.303,0.56604,0,0,0,0,0,0,0,-1,1854,1303,76.303,-0.566036
637,-279,73.1141,1.62744,0,0,0,0,0,0,0,-1,1861,1303,73.1142,-1.62742
644,-279,33.5021,3.40234,0,0,0,0,0,0,0,-1,1868,1303,33.5021,-3.40237
651,-279,29.8456,2.3562,0,0,0,0,0,0,0,-1,1875,1303,29.8455,-2.35615
658,-279,21.5076,7.65649,0,0,0,0,0,0,0,-1,1882,1303,21.5076,-7.65648
665,-279,18.9794,6.09607,0,0,0,0,0,0,0,-1,1889,1303,18.9793,-6.09601
672,-279,23.5206,8.32507,0,0,0,0,0,0,0,-1,1896,1303,23.5206,-8.32512
679,-279,52.2843,15.7041,0,0,0,0,0,0,0,-1,1903,1303,52.2843,-15.7041
686,-279,52.4166,14.9358,0.000518708,0.00037336,-0.00141151,0.00185942,-0.000967348,-0.759678,0.0016589,0.0350148,1910,1303,52.4167,-14.9358
693,-279,52.4321,14.167,0.000420941,-6.48603e-05,-0.000745936,0.000962528,-0.000606448,-0.627996,0.000913592,0.0178084,1917,1303,52.4321,-14.167
700,-279,52.4218,13.3951,0.000374291,-0.000399392,0.000132315,0.000396293,-0.000421395,0.164782,0.000472167,0.0127941,1924,1303,52.4217,-13.3951
707,-279,52.3684,12.603,0.00014184,-0.000547315,0.000757714,0.000629647,-0.00103512,0.571996,0.000970612,0.00982111,1931,1303,52.3684,-12.603
714,-279,52.3193,11.8197,-0.000101725,-0.000620826,0.00146182,0.00112341,-0.00184596,0.697537,0.0017312,0.0108026,1938,1303,52.3193,-11.8197
721,-279,52.3147,11.0529,-0.000319256,-0.000741161,0.0022459,0.00172557,-0.00278599,0.738572,0.00262863,0.0151937,1945,1303,52.3147,-11.0529
728,-279,52.3121,10.2863,-0.000493385,-0.000894091,0.00312543,0.00243811,-0.00382558,0.75339,0.0036458,0.0178331,1952,1303,52.3122,-10.2863
735,-279,52.2368,9.54846,-0.00063356,-0.00108243,0.00413273,0.00328082,-0.00499681,0.758272,0.00481321,0.017272,1959,1303,52.2368,-9.54851
742,-279,52.1338,8.83594,-0.000712114,-0.00130199,0.00526553,0.00426674,-0.00628084,0.757421,0.00612654,0.0289014,1966,1303,52.1338,-8.83598
749,-279,52.0416,8.11426,0,0,0,0,0,0,0,-1,1973,1303,52.0417,-8.11424
756,-279,23.2091,4.43433,0,0,0,0,0,0,0,-1,1980,1303,23.2092,-4.43432
763,-279,27.1613,3.46265,0,0,0,0,0,0,0,-1,1987,1303,27.1613,-3.4627
770,-279,21.5828,3.54199,0,0,0,0,0,0,0,-1,1994,1303,21.5827,-3.54198
777,-279,32.5369,6.99609,0,0,0,0,0,0,0,-1,2001,1303,32.5369,-6.99608
784,-279,0,0,0,0,0,0,0,0,0,-1,2008,1303,0,0
791,-279,0,0,0,0,0,0,0,0,0,-1,2015,1303,0,0
798,-279,0,0,0,0,0,0,0,0,0,-1,2022,1303,0,0
805,-279,0,0,0,0,0,0,0,0,0,-1,2029,1303,0,0
812,-279,0,0,0,0,0,0,0,0,0,-1,2036,1303,0,0
-700,-286,0,0,0,0,0,0,0,0,0,-1,524,1310,0,0
-693,-286,0,0,0,0,0,0,0,0,0,-1,531,1310,0,0
-686,-286,0,0,0,0,0,0,0,0,0,-1,538,1310,0,0
-679,-286,0,0,0,0,0,0,0,0,0,-1,545,1310,0,0
-672,-286,0,0,0,0,0,0,0,0,0,-1,552,1310,0,0
-665,-286,0,0,0,0,0,0,0,0,0,-1,559,1310,0,0
-658,-286,-44.103,1.76782,0,0,0,0,0,0,0,-1,566,1310,-44.103,-1.76778
-651,-286,-43.6417,1.98254,0,0,0,0,0,0,0,-1,573,1310,-43.6416,-1.98254
-644,-286,-43.3175,1.59558,0,0,0,0,0,0,0,-1,580,1310,-43.3175,-1.59556
-637,-286,-42.8448,1.15039,0,0,0,0,0,0,0,-1,587,1310,-42.8448,-1.15043
-630,-286,-42.1176,0.443848,0,0,0,0,0,0,0,-1,594,1310,-42.1176,-0.443802
-623,-286,-41.3121,-0.468384,0,0,0,0,0,0,0,-1,601,1310,-41.3121,0.468376
-616,-286,-22.0634,2.37744,0,0,0,0,0,0,0,-1,608,1310,-22.0633,-2.37746
-609,-286,-34.7214,7.69348,0,0,0,0,0,0,0,-1,615,1310,-34.7214,-7.69345
-602,-286,-34.5945,8.67456,0.00523651,0.00277656,0.00323437,0.00746688,0.000546192,0.603701,0.00480621,0.0233057,622,1310,-34.5945,-8.6746
-595,-286,-34.6449,9.56836,0.0034363,0.00208811,0.00216485,0.00502958,0.000494832,0.634465,0.00320088,0.0132136,629,1310,-34.6449,-9.56837
-588,-286,-34.7046,10.3774,0.00228633,0.00129497,0.00128941,0.00317205,0.000409247,0.601895,0.00199234,0.0142491,636,1310,-34.7046,-10.3774
-581,-286,-34.7073,11.1722,0.00153604,0.000459836,0.000625446,0.001823,0.00017287,0.430163,0.00116201,0.0157207,643,1310,-34.7073,-11.1723
-574,-286,-34.747,11.9752,0.00110406,-0.000410835,0.000106828,0.00111156,-0.000418331,0.0700567,0.000913006,0.0156658,650,1310,-34.747,-11.9752
-567,-286,-34.8249,12.7856,0.00097844,-0.00128207,-0.000280856,0.00101281,-0.00131644,-0.121778,0.0013486,0.0161139,657,1310,-34.8249,-12.7857
-560,-286,-34.852,13.6102,0.00128434,-0.00216832,-0.000462484,0.00134522,-0.00222919,-0.130877,0.00208462,0.0153599,664,1310,-34.852,-13.6102
-553,-286,-34.8568,14.4581,0.00200602,-0.00308664,-0.000496183,0.00205391,-0.00313453,-0.0962253,0.00301713,0.0124787,671,1310,-34.8567,-14.4581
-546,-286,-34.7977,15.3457,0.00311533,-0.0038065,-0.000217951,0.00312218,-0.00381335,-0.0314461,0.00401085,0.0299752,678,1310,-34.7977,-15.3458
-539,-286,-34.88,16.3293,0,0,0,0,0,0,0,-1,685,1310,-34.88,-16.3293
-532,-286,-21.6771,10.4924,0,0,0,0,0,0,0,-1,692,1310,-21.6771,-10.4924
-525,-286,-11.4528,-1.11768,0,0,0,0,0,0,0,-1,699,1310,-11.4528,1.11769
-518,-286,-11.0701,1.37329,0,0,0,0,0,0,0,-1,706,1310,-11.0701,-1.37332
-511,-286,-17.7545,-0.0791016,0,0,0,0,0,0,0,-1,713,1310,-17.7544,0.0791606
-504,-286,-18.0455,1.29602,0,0,0,0,0,0,0,-1,720,1310,-18.0455,-1.29601
-497,-286,-18.3367,2.67114,0,0,0,0,0,0,0,-1,727,1310,-18.3366,-2.67118
-490,-286,-19.5795,2.47266,0,0,0,0,0,0,0,-1,734,1310,-19.5795,-2.4727
-483,-286,-19.7277,2.74744,0,0,0,0,0,0,0,-1,741,1310,-19.7277,-2.74747
-476,-286,-20.0391,3.06177,0,0,0,0,0,0,0,-1,748,1310,-20.0391,-3.06178
-469,-286,0,0,0,0,0,0,0,0,0,-1,755,1310,0,0
-462,-286,0,0,0,0,0,0,0,0,0,-1,762,1310,0,0
-455,-286,0,0,0,0,0,0,0,0,0,-1,769,1310,0,0
-448,-286,0,0,0,0,0,0,0,0,0,-1,776,1310,0,0
-441,-286,0,0,0,0,0,0,0,0,0,-1,783,1310,0,0
-434,-286,0,0,0,0,0,0,0,0,0,-1,790,1310,0,0
-427,-286,0,0,0,0,0,0,0,0,0,-1,797,1310,0,0
-420,-286,0,0,0,0,0,0,0,0,0,-1,804,1310,0,0
-413,-286,0,0,0,0,0,0,0,0,0,-1,811,1310,0,0
-406,-286,0,0,0,0,0,0,0,0,0,-1,818,1310,0,0
-399,-286,0,0,0,0,0,0,0,0,0,-1,825,1310,0,0
-392,-286,0,0,0,0,0,0,0,0,0,-1,832,1310,0,0
-385,-286,0,0,0,0,0,0,0,0,0,-1,839,1310,0,0
-378,-286,0,0,0,0,0,0,0,0,0,-1,846,1310,0,0
-371,-286,0,0,0,0,0,0,0,0,0,-1,853,1310,0,0
-364,-286,0,0,0,0,0,0,0,0,0,-1,860,1310,0,0
-357,-286,0,0,0,0,0,0,0,0,0,-1,867,1310,0,0
-350,-286,0,0,0,0,0,0,0,0,0,-1,874,1310,0,0
-343,-286,0,0,0,0,0,0,0,0,0,-1,881,1310,0,0
-336,-286,0,0,0,0,0,0,0,0,0,-1,888,1310,0,0
-329,-286,0,0,0,0,0,0,0,0,0,-1,895,1310,0,0
-322,-286,0,0,0,0,0,0,0,0,0,-1,902,1310,0,0
-315,-286,0,0,0,0,0,0,0,0,0,-1,909,1310,0,0
-308,-286,0,0,0,0,0,0,0,0,0,-1,916,1310,0,0
-301,-286,0,0,0,0,0,0,0,0,0,-1,923,1310,0,0
-294,-286,0,0,0,0,0,0,0,0,0,-1,930,1310,0,0
-287,-286,0,0,0,0,0,0,0,0,0,-1,937,1310,0,0
-280,-286,0,0,0,0,0,0,0,0,0,-1,944,1310,0,0
-273,-286,0,0,0,0,0,0,0,0,0,-1,951,1310,0,0
-266,-286,0,0,0,0,0,0,0,0,0,-1,958,1310,0,0
-259,-286,0,0,0,0,0,0,0,0,0,-1,965,1310,0,0
-252,-286,0,0,0,0,0,0,0,0,0,-1,972,1310,0,0
-245,-286,0,0,0,0,0,0,0,0,0,-1,979,1310,0,0
-238,-286,0,0,0,0,0,0,0,0,0,-1,986,1310,0,0
-231,-286,0,0,0,0,0,0,0,0,0,-1,993,1310,0,0
-224,-286,0,0,0,0,0,0,0,0,0,-1,1000,1310,0,0
-217,-286,0,0,0,0,0,0,0,0,0,-1,1007,1310,0,0
-210,-286,0,0,0,0,0,0,0,0,0,-1,1014,1310,0,0
-203,-286,0,0,0,0,0,0,0,0,0,-1,1021,1310,0,0
-196,-286,0,0,0,0,0,0,0,0,0,-1,1028,1310,0,0
-189,-286,0,0,0,0,0,0,0,0,0,-1,1035,1310,0,0
-182,-286,0,0,0,0,0,0,0,0,0,-1,1042,1310,0,0
-175,-286,0,0,0,0,0,0,0,0,0,-1,1049,1310,0,0
-168,-286,0,0,0,0,0,0,0,0,0,-1,1056,1310,0,0
-161,-286,0,0,0,0,0,0,0,0,0,-1,1063,1310,0,0
-154,-286,0,0,0,0,0,0,0,0,0,-1,1070,1310,0,0
-147,-286,0,0,0,0,0,0,0,0,0,-1,1077,1310,0,0
-140,-286,0,0,0,0,0,0,0,0,0,-1,1084,1310,0,0
-133,-286,0,0,0,0,0,0,0,0,0,-1,1091,1310,0,0
-126,-286,0,0,0,0,0,0,0,0,0,-1,1098,1310,0,0
-119,-286,0,0,0,0,0,0,0,0,0,-1,1105,1310,0,0
-112,-286,0,0,0,0,0,0,0,0,0,-1,1112,1310,0,0
-105,-286,0,0,0,0,0,0,0,0,0,-1,1119,1310,0,0
-98,-286,0,0,0,0,0,0,0,0,0,-1,1126,1310,0,0
-91,-286,0,0,0,0,0,0,0,0,0,-1,1133,1310,0,0
-84,-286,0,0,0,0,0,0,0,0,0,-1,1140,1310,0,0
-77,-286,0,0,0,0,0,0,0,0,0,-1,1147,1310,0,0
-70,-286,0,0,0,0,0,0,0,0,0,-1,1154,1310,0,0
-63,-286,0,0,0,0,0,0,0,0,0,-1,1161,1310,0,0
-56,-286,0,0,0,0,0,0,0,0,0,-1,1168,1310,0,0
-49,-286,0,0,0,0,0,0,0,0,0,-1,1175,1310,0,0
-42,-286,0,0,0,0,0,0,0,0,0,-1,1182,1310,0,0
-35,-286,0,0,0,0,0,0,0,0,0,-1,1189,1310,0,0
-28,-286,0,0,0,0,0,0,0,0,0,-1,1196,1310,0,0
-21,-286,0,0,0,0,0,0,0,0,0,-1,1203,1310,0,0
-14,-286,0,0,0,0,0,0,0,0,0,-1,1210,1310,0,0
-7,-286,0,0,0,0,0,0,0,0,0,-1,1217,1310,0,0
0,-286,0,0,0,0,0,0,0,0,0,-1,1224,1310,0,0
7,-286,0,0,0,0,0,0,0,0,0,-1,1231,1310,0,0
14,-286,0,0,0,0,0,0,0,0,0,-1,1238,1310,0,0
21,-286,0,0,0,0,0,0,0,0,0,-1,1245,1310,0,0
28,-286,0,0,0,0,0,0,0,0,0,-1,1252,1310,0,0
35,-286,0,0,0,0,0,0,0,0,0,-1,1259,1310,0,0
42,-286,0,0,0,0,0,0,0,0,0,-1,1266,1310,0,0
49,-286,0,0,0,0,0,0,0,0,0,-1,1273,1310,0,0
56,-286,0,0,0,0,0,0,0,0,0,-1,1280,1310,0,0
63,-286,0,0,0,0,0,0,0,0,0,-1,1287,1310,0,0
70,-286,0,0,0,0,0,0,0,0,0,-1,1294,1310,0,0
77,-286,0,0,0,0,0,0,0,0,0,-1,1301,1310,0,0
84,-286,0,0,0,0,0,0,0,0,0,-1,1308,1310,0,0
91,-286,0,0,0,0,0,0,0,0,0,-1,1315,1310,0,0
98,-286,0,0,0,0,0,0,0,0,0,-1,1322,1310,0,0
105,-286,0,0,0,0,0,0,0,0,0,-1,1329,1310,0,0
112,-286,0,0,0,0,0,0,0,0,0,-1,1336,1310,0,0
119,-286,0,0,0,0,0,0,0,0,0,-1,1343,1310,0,0
126,-286,0,0,0,0,0,0,0,0,0,-1,1350,1310,0,0
133,-286,0,0,0,0,0,0,0,0,0,-1,1357,1310,0,0
140,-286,0,0,0,0,0,0,0,0,0,-1,1364,1310,0,0
147,-286,0,0,0,0,0,0,0,0,0,-1,1371,1310,0,0
154,-286,0,0,0,0,0,0,0,0,0,-1,1378,1310,0,0
161,-286,0,0,0,0,0,0,0,0,0,-1,1385,1310,0,0
168,-286,0,0,0,0,0,0,0,0,0,-1,1392,1310,0,0
175,-286,0,0,0,0,0,0,0,0,0,-1,1399,1310,0,0
182,-286,0,0,0,0,0,0,0,0,0,-1,1406,1310,0,0
189,-286,0,0,0,0,0,0,0,0,0,-1,1413,1310,0,0
196,-286,0,0,0,0,0,0,0,0,0,-1,1420,1310,0,0
203,-286,0,0,0,0,0,0,0,0,0,-1,1427,1310,0,0
210,-286,0,0,0,0,0,0,0,0,0,-1,1434,1310,0,0
217,-286,0,0,0,0,0,0,0,0,0,-1,1441,1310,0,0
224,-286,0,0,0,0,0,0,0,0,0,-1,1448,1310,0,0
231,-286,0,0,0,0,0,0,0,0,0,-1,1455,1310,0,0
238,-286,0,0,0,0,0,0,0,0,0,-1,1462,1310,0,0
245,-286,0,0,0,0,0,0,0,0,0,-1,1469,1310,0,0
252,-286,0,0,0,0,0,0,0,0,0,-1,1476,1310,0,0
259,-286,0,0,0,0,0,0,0,0,0,-1,1483,1310,0,0
266,-286,0,0,0,0,0,0,0,0,0,-1,1490,1310,0,0
273,-286,0,0,0,0,0,0,0,0,0,-1,1497,1310,0,0
280,-286,0,0,0,0,0,0,0,0,0,-1,1504,1310,0,0
287,-286,0,0,0,0,0,0,0,0,0,-1,1511,1310,0,0
294,-286,0,0,0,0,0,0,0,0,0,-1,1518,1310,0,0
301,-286,0,0,0,0,0,0,0,0,0,-1,1525,1310,0,0
308,-286,0,0,0,0,0,0,0,0,0,-1,1532,1310,0,0
315,-286,0,0,0,0,0,0,0,0,0,-1,1539,1310,0,0
322,-286,0,0,0,0,0,0,0,0,0,-1,1546,1310,0,0
329,-286,0,0,0,0,0,0,0,0,0,-1,1553,1310,0,0
336,-286,0,0,0,0,0,0,0,0,0,-1,1560,1310,0,0
343,-286,0,0,0,0,0,0,0,0,0,-1,1567,1310,0,0
350,-286,0,0,0,0,0,0,0,0,0,-1,1574,1310,0,0
357,-286,0,0,0,0,0,0,0,0,0,-1,1581,1310,0,0
364,-286,0,0,0,0,0,0,0,0,0,-1,1588,1310,0,0
371,-286,0,0,0,0,0,0,0,0,0,-1,1595,1310,0,0
378,-286,0,0,0,0,0,0,0,0,0,-1,1602,1310,0,0
385,-286,0,0,0,0,0,0,0,0,0,-1,1609,1310,0,0
392,-286,0,0,0,0,0,0,0,0,0,-1,1616,1310,0,0
399,-286,0,0,0,0,0,0,0,0,0,-1,1623,1310,0,0
406,-286,0,0,0,0,0,0,0,0,0,-1,1630,1310,0,0
413,-286,0,0,0,0,0,0,0,0,0,-1,1637,1310,0,0
420,-286,0,0,0,0,0,0,0,0,0,-1,1644,1310,0,0
427,-286,0,0,0,0,0,0,0,0,0,-1,1651,1310,0,0
434,-286,0,0,0,0,0,0,0,0,0,-1,1658,1310,0,0
441,-286,0,0,0,0,0,0,0,0,0,-1,1665,1310,0,0
448,-286,0,0,0,0,0,0,0,0,0,-1,1672,1310,0,0
455,-286,0,0,0,0,0,0,0,0,0,-1,1679,1310,0,0
462,-286,0,0,0,0,0,0,0,0,0,-1,1686,1310,0,0
469,-286,0,0,0,0,0,0,0,0,0,-1,1693,1310,0,0
476,-286,0,0,0,0,0,0,0,0,0,-1,1700,1310,0,0
483,-286,0,0,0,0,0,0,0,0,0,-1,1707,1310,0,0
490,-286,0,0,0,0,0,0,0,0,0,-1,1714,1310,0,0
497,-286,0,0,0,0,0,0,0,0,0,-1,1721,1310,0,0
504,-286,0,0,0,0,0,0,0,0,0,-1,1728,1310,0,0
511,-286,0,0,0,0,0,0,0,0,0,-1,1735,1310,0,0
518,-286,0,0,0,0,0,0,0,0,0,-1,1742,1310,0,0
525,-286,0,0,0,0,0,0,0,0,0,-1,1749,1310,0,0
532,-286,0,0,0,0,0,0,0,0,0,-1,1756,1310,0,0
539,-286,0,0,0,0,0,0,0,0,0,-1,1763,1310,0,0
546,-286,0,0,0,0,0,0,0,0,0,-1,1770,1310,0,0
553,-286,0,0,0,0,0,0,0,0,0,-1,1777,1310,0,0
560,-286,0,0,0,0,0,0,0,0,0,-1,1784,1310,0,0
567,-286,0,0,0,0,0,0,0,0,0,-1,1791,1310,0,0
574,-286,0,0,0,0,0,0,0,0,0,-1,1798,1310,0,0
581,-286,0,0,0,0,0,0,0,0,0,-1,1805,1310,0,0
588,-286,0,0,0,0,0,0,0,0,0,-1,1812,1310,0,0
595,-286,69.8951,2.40527,0,0,0,0,0,0,0,-1,1819,1310,69.8951,-2.40522
602,-286,76.1968,1.83557,0,0,0,0,0,0,0,-1,1826,1310,76.1968,-1.83559
609,-286,76.2424,2.13806,0,0,0,0,0,0,0,-1,1833,1310,76.2424,-2.13811
616,-286,75.874,1.66504,0,0,0,0,0,0,0,-1,1840,1310,75.874,-1.66505
623,-286,75.5056,1.19202,0,0,0,0,0,0,0,-1,1847,1310,75.5056,-1.192
630,-286,73.3732,1.46594,0,0,0,0,0,0,0,-1,1854,1310,73.3731,-1.46595
637,-286,47.8409,3.69824,0,0,0,0,0,0,0,-1,1861,1310,47.841,-3.69823
644,-286,25.6433,1.33862,0,0,0,0,0,0,0,-1,1868,1310,25.6433,-1.33858
651,-286,25.2507,1.88245,0,0,0,0,0,0,0,-1,1875,1310,25.2508,-1.88245
658,-286,25.9475,9.43689,0,0,0,0,0,0,0,-1,1882,1310,25.9475,-9.43693
665,-286,24.9838,8.03101,0,0,0,0,0,0,0,-1,1889,1310,24.9837,-8.03104
672,-286,40.2175,12.9626,0,0,0,0,0,0,0,-1,1896,1310,40.2175,-12.9627
679,-286,51.7266,15.749,0,0,0,0,0,0,0,-1,1903,1310,51.7266,-15.749
686,-286,51.7174,14.9888,0.0011167,0.000158962,-0.00144303,0.00215824,-0.000882585,-0.625192,0.00180639,0.0230249,1910,1310,51.7174,-14.9888
693,-286,51.6685,14.2145,0.000880293,-8.3304e-05,-0.000760927,0.00129913,-0.000502139,-0.503171,0.00107336,0.016918,1917,1310,51.6684,-14.2144
700,-286,51.6296,13.4192,0.00068339,-0.000261115,5.79301e-05,0.00068693,-0.000264654,0.0610289,0.000567143,0.0121851,1924,1310,51.6296,-13.4192
707,-286,51.5804,12.6688,0.000379182,-0.000419022,0.00072894,0.000811125,-0.000850966,0.534934,0.0009597,0.00898829,1931,1310,51.5805,-12.6688
714,-286,51.5404,11.8943,8.85597e-05,-0.000616261,0.00147138,0.00124914,-0.00177684,0.667857,0.00175589,0.00948572,1938,1310,51.5404,-11.8943
721,-286,51.5343,11.1106,-0.000180756,-0.000874004,0.00230785,0.00180636,-0.00286112,0.710859,0.0027176,0.0124929,1945,1310,51.5344,-11.1106
728,-286,51.5168,10.3396,-0.000417838,-0.00118888,0.00326131,0.00248066,-0.00408737,0.726566,0.00382969,0.0159878,1952,1310,51.5169,-10.3396
735,-286,51.4789,9.55408,-0.000640267,-0.00158531,0.00437502,0.00328768,-0.00551326,0.731604,0.00513509,0.0207845,1959,1310,51.4789,-9.55403
742,-286,51.4242,8.78577,-0.000813091,-0.00205624,0.00564671,0.00424615,-0.00711548,0.73058,0.006629,0.0382122,1966,1310,51.4242,-8.78583
749,-286,51.4601,7.99878,0,0,0,0,0,0,0,-1,1973,1310,51.4601,-7.99881
756,-286,24.8226,4.43481,0,0,0,0,0,0,0,-1,1980,1310,24.8227,-4.43479
763,-286,20.6671,3.99683,0,0,0,0,0,0,0,-1,1987,1310,20.6671,-3.99683
770,-286,23.9147,4.45679,0,0,0,0,0,0,0,-1,1994,1310,23.9146,-4.45675
777,-286,0,0,0,0,0,0,0,0,0,-1,2001,1310,0,0
784,-286,0,0,0,0,0,0,0,0,0,-1,2008,1310,0,0
791,-286,0,0,0,0,0,0,0,0,0,-1,2015,1310,0,0
798,-286,0,0,0,0,0,0,0,0,0,-1,2022,1310,0,0
805,-286,0,0,0,0,0,0,0,0,0,-1,2029,1310,0,0
812,-286,0,0,0,0,0,0,0,0,0,-1,2036,1310,0,0
-700,-293,0,0,0,0,0,0,0,0,0,-1,524,1317,0,0
-693,-293,0,0,0,0,0,0,0,0,0,-1,531,1317,0,0
-686,-293,0,0,0,0,0,0,0,0,0,-1,538,1317,0,0
-679,-293,0,0,0,0,0,0,0,0,0,-1,545,1317,0,0
-672,-293,0,0,0,0,0,0,0,0,0,-1,552,1317,0,0
-665,-293,0,0,0,0,0,0,0,0,0,-1,559,1317,0,0
-658,-293,0,0,0,0,0,0,0,0,0,-1,566,1317,0,0
-651,-293,-42.6636,2.1897,0,0,0,0,0,0,0,-1,573,1317,-42.6636,-2.18965
-644,-293,-42.6672,1.56262,0,0,0,0,0,0,0,-1,580,1317,-42.6672,-1.5626
-637,-293,-42.7898,0.963745,0,0,0,0,0,0,0,-1,587,1317,-42.7898,-0.963689
-630,-293,-42.7558,0.296021,0,0,0,0,0,0,0,-1,594,1317,-42.7558,-0.295997
-623,-293,-15.6058,0.229614,0,0,0,0,0,0,0,-1,601,1317,-15.6058,-0.229666
-616,-293,-15.5056,2.17737,0,0,0,0,0,0,0,-1,608,1317,-15.5055,-2.17742
-609,-293,-25.3796,5.07373,0,0,0,0,0,0,0,-1,615,1317,-25.3796,-5.07369
-602,-293,-33.8758,8.60986,0,0,0,0,0,0,0,-1,622,1317,-33.8758,-8.60988
-595,-293,-33.851,9.58521,0.00410341,0.00272155,0.00244824,0.00595635,0.000868609,0.647867,0.00371537,0.0225548,629,1317,-33.851,-9.58522
-588,-293,-33.8569,10.4338,0.00285704,0.00188932,0.00156368,0.00401001,0.00073635,0.635352,0.00246483,0.0171554,636,1317,-33.8568,-10.4339
-581,-293,-33.8664,11.2281,0.00209336,0.00109099,0.00095418,0.00266997,0.000514377,0.543576,0.00163571,0.0195851,643,1317,-33.8664,-11.2282
-574,-293,-33.9196,12.0575,0.00166941,0.000290547,0.00050192,0.00183276,0.000127195,0.314643,0.00118172,0.0172662,650,1317,-33.9196,-12.0574
-567,-293,-34.0159,12.8724,0.00156409,-0.000468188,0.000202126,0.001584,-0.000488096,0.0981764,0.00125086,0.0171982,657,1317,-34.0159,-12.8724
-560,-293,-34.0505,13.6915,0.00184341,-0.0012424,8.62794e-05,0.00184582,-0.00124481,0.027931,0.00179558,0.0187548,664,1317,-34.0505,-13.6916
-553,-293,-34.0627,14.495,0.00253058,-0.00197698,0.000157392,0.00253607,-0.00198247,0.0348608,0.00261529,0.0121552,671,1317,-34.0628,-14.495
-546,-293,-34.0355,15.3602,0.00358095,-0.00257768,0.000498878,0.0036211,-0.00261783,0.0803068,0.00361754,0.0218739,678,1317,-34.0355,-15.3602
-539,-293,-33.9811,16.2377,0,0,0,0,0,0,0,-1,685,1317,-33.9811,-16.2377
-532,-293,-27.4858,13.6715,0,0,0,0,0,0,0,-1,692,1317,-27.4858,-13.6715
-525,-293,-8.20642,3.62256,0,0,0,0,0,0,0,-1,699,1317,-8.20639,-3.6226
-518,-293,-10.1053,0.314209,0,0,0,0,0,0,0,-1,706,1317,-10.1053,-0.314234
-511,-293,-11.6276,0.235352,0,0,0,0,0,0,0,-1,713,1317,-11.6276,-0.235372
-504,-293,-17.9086,1.25427,0,0,0,0,0,0,0,-1,720,1317,-17.9086,-1.25423
-497,-293,-18.8006,1.62122,0,0,0,0,0,0,0,-1,727,1317,-18.8006,-1.62119
-490,-293,-18.8961,1.99255,0,0,0,0,0,0,0,-1,734,1317,-18.8961,-1.99251
-483,-293,-19.0831,2.35498,0,0,0,0,0,0,0,-1,741,1317,-19.0831,-2.35497
-476,-293,-19.5228,2.61243,0,0,0,0,0,0,0,-1,748,1317,-19.5228,-2.61237
-469,-293,0,0,0,0,0,0,0,0,0,-1,755,1317,0,0
-462,-293,0,0,0,0,0,0,0,0,0,-1,762,1317,0,0
-455,-293,0,0,0,0,0,0,0,0,0,-1,769,1317,0,0
-448,-293,0,0,0,0,0,0,0,0,0,-1,776,1317,0,0
-441,-293,0,0,0,0,0,0,0,0,0,-1,783,1317,0,0
-434,-293,0,0,0,0,0,0,0,0,0,-1,790,1317,0,0
-427,-293,0,0,0,0,0,0,0,0,0,-1,797,1317,0,0
-420,-293,0,0,0,0,0,0,0,0,0,-1,804,1317,0,0
-413,-293,0,0,0,0,0,0,0,0,0,-1,811,1317,0,0
-406,-293,0,0,0,0,0,0,0,0,0,-1,818,1317,0,0
-399,-293,0,0,0,0,0,0,0,0,0,-1,825,1317,0,0
-392,-293,0,0,0,0,0,0,0,0,0,-1,832,1317,0,0
-385,-293,0,0,0,0,0,0,0,0,0,-1,839,1317,0,0
-378,-293,0,0,0,0,0,0,0,0,0,-1,846,1317,0,0
-371,-293,0,0,0,0,0,0,0,0,0,-1,853,1317,0,0
-364,-293,0,0,0,0,0,0,0,0,0,-1,860,1317,0,0
-357,-293,0,0,0,0,0,0,0,0,0,-1,867,1317,0,0
-350,-293,0,0,0,0,0,0,0,0,0,-1,874,1317,0,0
-343,-293,0,0,0,0,0,0,0,0,0,-1,881,1317,0,0
-336,-293,0,0,0,0,0,0,0,0,0,-1,888,1317,0,0
-329,-293,0,0,0,0,0,0,0,0,0,-1,895,1317,0,0
-322,-293,0,0,0,0,0,0,0,0,0,-1,902,1317,0,0
-315,-293,0,0,0,0,0,0,0,0,0,-1,909,1317,0,0
-308,-293,0,0,0,0,0,0,0,0,0,-1,916,1317,0,0
-301,-293,0,0,0,0,0,0,0,0,0,-1,923,1317,0,0
-294,-293,0,0,0,0,0,0,0,0,0,-1,930,1317,0,0
-287,-293,0,0,0,0,0,0,0,0,0,-1,937,1317,0,0
-280,-293,0,0,0,0,0,0,0,0,0,-1,944,1317,0,0
-273,-293,0,0,0,0,0,0,0,0,0,-1,951,1317,0,0
-266,-293,0,0,0,0,0,0,0,0,0,-1,958,1317,0,0
-259,-293,0,0,0,0,0,0,0,0,0,-1,965,1317,0,0
-252,-293,0,0,0,0,0,0,0,0,0,-1,972,1317,0,0
-245,-293,0,0,0,0,0,0,0,0,0,-1,979,1317,0,0
-238,-293,0,0,0,0,0,0,0,0,0,-1,986,1317,0,0
-231,-293,0,0,0,0,0,0,0,0,0,-1,993,1317,0,0
-224,-293,0,0,0,0,0,0,0,0,0,-1,1000,1317,0,0
-217,-293,0,0,0,0,0,0,0,0,0,-1,1007,1317,0,0
-210,-293,0,0,0,0,0,0,0,0,0,-1,1014,1317,0,0
-203,-293,0,0,0,0,0,0,0,0,0,-1,1021,1317,0,0
-196,-293,0,0,0,0,0,0,0,0,0,-1,1028,1317,0,0
-189,-293,0,0,0,0,0,0,0,0,0,-1,1035,1317,0,0
-182,-293,0,0,0,0,0,0,0,0,0,-1,1042,1317,0,0
-175,-293,0,0,0,0,0,0,0,0,0,-1,1049,1317,0,0
-168,-293,0,0,0,0,0,0,0,0,0,-1,1056,1317,0,0
-161,-293,0,0,0,0,0,0,0,0,0,-1,1063,1317,0,0
-154,-293,0,0,0,0,0,0,0,0,0,-1,1070,1317,0,0
-147,-293,0,0,0,0,0,0,0,0,0,-1,1077,1317,0,0
-140,-293,0,0,0,0,0,0,0,0,0,-1,1084,1317,0,0
-133,-293,0,0,0,0,0,0,0,0,0,-1,1091,1317,0,0
-126,-293,0,0,0,0,0,0,0,0,0,-1,1098,1317,0,0
-119,-293,0,0,0,0,0,0,0,0,0,-1,1105,1317,0,0
-112,-293,0,0,0,0,0,0,0,0,0,-1,1112,1317,0,0
-105,-293,0,0,0,0,0,0,0,0,0,-1,1119,1317,0,0
-98,-293,0,0,0,0,0,0,0,0,0,-1,1126,1317,0,0
-91,-293,0,0,0,0,0,0,0,0,0,-1,1133,1317,0,0
-84,-293,0,0,0,0,0,0,0,0,0,-1,1140,1317,0,0
-77,-293,0,0,0,0,0,0,0,0,0,-1,1147,1317,0,0
-70,-293,0,0,0,0,0,0,0,0,0,-1,1154,1317,0,0
-63,-293,0,0,0,0,0,0,0,0,0,-1,1161,1317,0,0
-56,-293,0,0,0,0,0,0,0,0,0,-1,1168,1317,0,0
-49,-293,0,0,0,0,0,0,0,0,0,-1,1175,1317,0,0
-42,-293,0,0,0,0,0,0,0,0,0,-1,1182,1317,0,0
-35,-293,0,0,0,0,0,0,0,0,0,-1,1189,1317,0,0
-28,-293,0,0,0,0,0,0,0,0,0,-1,1196,1317,0,0
-21,-293,0,0,0,0,0,0,0,0,0,-1,1203,1317,0,0
-14,-293,0,0,0,0,0,0,0,0,0,-1,1210,1317,0,0
-7,-293,0,0,0,0,0,0,0,0,0,-1,1217,1317,0,0
0,-293,0,0,0,0,0,0,0,0,0,-1,1224,1317,0,0
7,-293,0,0,0,0,0,0,0,0,0,-1,1231,1317,0,0
14,-293,0,0,0,0,0,0,0,0,0,-1,1238,1317,0,0
21,-293,0,0,0,0,0,0,0,0,0,-1,1245,1317,0,0
28,-293,0,0,0,0,0,0,0,0,0,-1,1252,1317,0,0
35,-293,0,0,0,0,0,0,0,0,0,-1,1259,1317,0,0
42,-293,0,0,0,0,0,0,0,0,0,-1,1266,1317,0,0
49,-293,0,0,0,0,0,0,0,0,0,-1,1273,1317,0,0
56,-293,0,0,0,0,0,0,0,0,0,-1,1280,1317,0,0
63,-293,0,0,0,0,0,0,0,0,0,-1,1287,1317,0,0
70,-293,0,0,0,0,0,0,0,0,0,-1,1294,1317,0,0
77,-293,0,0,0,0,0,0,0,0,0,-1,1301,1317,0,0
84,-293,0,0,0,0,0,0,0,0,0,-1,1308,1317,0,0
91,-293,0,0,0,0,0,0,0,0,0,-1,1315,1317,0,0
98,-293,0,0,0,0,0,0,0,0,0,-1,1322,1317,0,0
105,-293,0,0,0,0,0,0,0,0,0,-1,1329,1317,0,0
112,-293,0,0,0,0,0,0,0,0,0,-1,1336,1317,0,0
119,-293,0,0,0,0,0,0,0,0,0,-1,1343,1317,0,0
126,-293,0,0,0,0,0,0,0,0,0,-1,1350,1317,0,0
133,-293,0,0,0,0,0,0,0,0,0,-1,1357,1317,0,0
140,-293,0,0,0,0,0,0,0,0,0,-1,1364,1317,0,0
147,-293,0,0,0,0,0,0,0,0,0,-1,1371,1317,0,0
154,-293,0,0,0,0,0,0,0,0,0,-1,1378,1317,0,0
161,-293,0,0,0,0,0,0,0,0,0,-1,1385,1317,0,0
168,-293,0,0,0,0,0,0,0,0,0,-1,1392,1317,0,0
175,-293,0,0,0,0,0,0,0,0,0,-1,1399,1317,0,0
182,-293,0,0,0,0,0,0,0,0,0,-1,1406,1317,0,0
189,-293,0,0,0,0,0,0,0,0,0,-1,1413,1317,0,0
196,-293,0,0,0,0,0,0,0,0,0,-1,1420,1317,0,0
203,-293,0,0,0,0,0,0,0,0,0,-1,1427,1317,0,0
210,-293,0,0,0,0,0,0,0,0,0,-1,1434,1317,0,0
217,-293,0,0,0,0,0,0,0,0,0,-1,1441,1317,0,0
224,-293,0,0,0,0,0,0,0,0,0,-1,1448,1317,0,0
231,-293,0,0,0,0,0,0,0,0,0,-1,1455,1317,0,0
238,-293,0,0,0,0,0,0,0,0,0,-1,1462,1317,0,0
245,-293,0,0,0,0,0,0,0,0,0,-1,1469,1317,0,0
252,-293,0,0,0,0,0,0,0,0,0,-1,1476,1317,0,0
259,-293,0,0,0,0,0,0,0,0,0,-1,1483,1317,0,0
266,-293,0,0,0,0,0,0,0,0,0,-1,1490,1317,0,0
273,-293,0,0,0,0,0,0,0,0,0,-1,1497,1317,0,0
280,-293,0,0,0,0,0,0,0,0,0,-1,1504,1317,0,0
287,-293,0,0,0,0,0,0,0,0,0,-1,1511,1317,0,0
294,-293,0,0,0,0,0,0,0,0,0,-1,1518,1317,0,0
301,-293,0,0,0,0,0,0,0,0,0,-1,1525,1317,0,0
308,-293,0,0,0,0,0,0,0,0,0,-1,1532,1317,0,0
315,-293,0,0,0,0,0,0,0,0,0,-1,1539,1317,0,0
322,-293,0,0,0,0,0,0,0,0,0,-1,1546,1317,0,0
329,-293,0,0,0,0,0,0,0,0,0,-1,1553,1317,0,0
336,-293,0,0,0,0,0,0,0,0,0,-1,1560,1317,0,0
343,-293,0,0,0,0,0,0,0,0,0,-1,1567,1317,0,0
350,-293,0,0,0,0,0,0,0,0,0,-1,1574,1317,0,0
357,-293,0,0,0,0,0,0,0,0,0,-1,1581,1317,0,0
364,-293,0,0,0,0,0,0,0,0,0,-1,1588,1317,0,0
371,-293,0,0,0,0,0,0,0,0,0,-1,1595,1317,0,0
378,-293,0,0,0,0,0,0,0,0,0,-1,1602,1317,0,0
385,-293,0,0,0,0,0,0,0,0,0,-1,1609,1317,0,0
392,-293,0,0,0,0,0,0,0,0,0,-1,1616,1317,0,0
399,-293,0,0,0,0,0,0,0,0,0,-1,1623,1317,0,0
406,-293,0,0,0,0,0,0,0,0,0,-1,1630,1317,0,0
413,-293,0,0,0,0,0,0,0,0,0,-1,1637,1317,0,0
420,-293,0,0,0,0,0,0,0,0,0,-1,1644,1317,0,0
427,-293,0,0,0,0,0,0,0,0,0,-1,1651,1317,0,0
434,-293,0,0,0,0,0,0,0,0,0,-1,1658,1317,0,0
441,-293,0,0,0,0,0,0,0,0,0,-1,1665,1317,0,0
448,-293,0,0,0,0,0,0,0,0,0,-1,1672,1317,0,0
455,-293,0,0,0,0,0,0,0,0,0,-1,1679,1317,0,0
462,-293,0,0,0,0,0,0,0,0,0,-1,1686,1317,0,0
469,-293,0,0,0,0,0,0,0,0,0,-1,1693,1317,0,0
476,-293,0,0,0,0,0,0,0,0,0,-1,1700,1317,0,0
483,-293,0,0,0,0,0,0,0,0,0,-1,1707,1317,0,0
490,-293,0,0,0,0,0,0,0,0,0,-1,1714,1317,0,0
497,-293,0,0,0,0,0,0,0,0,0,-1,1721,1317,0,0
504,-293,0,0,0,0,0,0,0,0,0,-1,1728,1317,0,0
511,-293,0,0,0,0,0,0,0,0,0,-1,1735,1317,0,0
518,-293,0,0,0,0,0,0,0,0,0,-1,1742,1317,0,0
525,-293,0,0,0,0,0,0,0,0,0,-1,1749,1317,0,0
532,-293,0,0,0,0,0,0,0,0,0,-1,1756,1317,0,0
539,-293,0,0,0,0,0,0,0,0,0,-1,1763,1317,0,0
546,-293,0,0,0,0,0,0,0,0,0,-1,1770,1317,0,0
553,-293,0,0,0,0,0,0,0,0,0,-1,1777,1317,0,0
560,-293,0,0,0,0,0,0,0,0,0,-1,1784,1317,0,0
567,-293,0,0,0,0,0,0,0,0,0,-1,1791,1317,0,0
574,-293,0,0,0,0,0,0,0,0,0,-1,1798,1317,0,0
581,-293,0,0,0,0,0,0,0,0,0,-1,1805,1317,0,0
588,-293,0,0,0,0,0,0,0,0,0,-1,1812,1317,0,0
595,-293,70.0999,2.25085,0,0,0,0,0,0,0,-1,1819,1317,70.0998,-2.25088
602,-293,70.2273,2.05859,0,0,0,0,0,0,0,-1,1826,1317,70.2273,-2.05859
609,-293,76.5005,2.45483,0,0,0,0,0,0,0,-1,1833,1317,76.5005,-2.45489
616,-293,75.8549,1.28406,0,0,0,0,0,0,0,-1,1840,1317,75.8548,-1.28409
623,-293,64.6224,0.448364,0,0,0,0,0,0,0,-1,1847,1317,64.6224,-0.448318
630,-293,46.6716,3.21558,0,0,0,0,0,0,0,-1,1854,1317,46.6716,-3.2156
637,-293,42.7729,4.95544,0,0,0,0,0,0,0,-1,1861,1317,42.773,-4.95546
644,-293,24.4565,0.520752,0,0,0,0,0,0,0,-1,1868,1317,24.4566,-0.520709
651,-293,25.8926,9.51245,0,0,0,0,0,0,0,-1,1875,1317,25.8926,-9.51246
658,-293,25.4904,9.10205,0,0,0,0,0,0,0,-1,1882,1317,25.4904,-9.10209
665,-293,39.7999,13.4221,0,0,0,0,0,0,0,-1,1889,1317,39.8,-13.4221
672,-293,51.0297,16.7703,0,0,0,0,0,0,0,-1,1896,1317,51.0297,-16.7703
679,-293,51.0033,15.7949,0.00148359,0.00275084,-0.00221346,0.00441959,-0.000185154,-0.9248,0.00301001,0.0220003,1903,1317,51.0033,-15.7949
686,-293,50.9688,15.0281,0.00155872,0.000185865,-0.00126613,0.00231253,-0.000567937,-0.537001,0.00176178,0.0170794,1910,1317,50.9687,-15.0281
693,-293,50.9163,14.2518,0.00114415,-6.03942e-06,-0.000619063,0.00141402,-0.000275915,-0.411101,0.00104684,0.0125935,1917,1317,50.9162,-14.2518
700,-293,50.8506,13.4583,0.000825563,-0.000196308,0.000125179,0.000840674,-0.00021142,0.120134,0.000642621,0.0111988,1924,1317,50.8506,-13.4583
707,-293,50.8109,12.7081,0.000477278,-0.000424361,0.000805719,0.000949725,-0.000896808,0.530335,0.00106624,0.0114355,1931,1317,50.811,-12.7082
714,-293,50.7739,11.9319,0.000137715,-0.000722373,0.00156865,0.0013342,-0.00191886,0.65161,0.00188824,0.00814518,1938,1317,50.7739,-11.9318
721,-293,50.7434,11.1433,-0.000180285,-0.00109152,0.00243468,0.00184104,-0.00311285,0.6929,0.00289138,0.0100902,1945,1317,50.7434,-11.1433
728,-293,50.7257,10.3451,-0.00047263,-0.00153918,0.00344109,0.00247626,-0.00448807,0.708523,0.0040764,0.013737,1952,1317,50.7257,-10.3451
735,-293,50.691,9.52307,-0.000766472,-0.00212404,0.00464099,0.00324511,-0.00613562,0.712784,0.005501,0.0248689,1959,1317,50.691,-9.52305
742,-293,50.7473,8.68054,0,0,0,0,0,0,0,-1,1966,1317,50.7473,-8.68057
749,-293,29.439,5.35339,0,0,0,0,0,0,0,-1,1973,1317,29.4389,-5.35334
756,-293,24.978,3.9718,0,0,0,0,0,0,0,-1,1980,1317,24.978,-3.97186
763,-293,26.6713,4.74097,0,0,0,0,0,0,0,-1,1987,1317,26.6713,-4.74098
770,-293,24.1349,4.69153,0,0,0,0,0,0,0,-1,1994,1317,24.1348,-4.69159
777,-293,0,0,0,0,0,0,0,0,0,-1,2001,1317,0,0
784,-293,0,0,0,0,0,0,0,0,0,-1,2008,1317,0,0
791,-293,0,0,0,0,0,0,0,0,0,-1,2015,1317,0,0
798,-293,0,0,0,0,0,0,0,0,0,-1,2022,1317,0,0
805,-293,0,0,0,0,0,0,0,0,0,-1,2029,1317,0,0
812,-293,0,0,0,0,0,0,0,0,0,-1,2036,1317,0,0
-700,-300,0,0,0,0,0,0,0,0,0,-1,524,1324,0,0
-693,-300,0,0,0,0,0,0,0,0,0,-1,531,1324,0,0
-686,-300,0,0,0,0,0,0,0,0,0,-1,538,1324,0,0
-679,-300,0,0,0,0,0,0,0,0,0,-1,545,1324,0,0
-672,-300,0,0,0,0,0,0,0,0,0,-1,552,1324,0,0
-665,-300,0,0,0,0,0,0,0,0,0,-1,559,1324,0,0
-658,-300,0,0,0,0,0,0,0,0,0,-1,566,1324,0,0
-651,-300,-41.7632,2.33789,0,0,0,0,0,0,0,-1,573,1324,-41.7632,-2.33789
-644,-300,-42.3084,1.3728,0,0,0,0,0,0,0,-1,580,1324,-42.3084,-1.37282
-637,-300,-42.6259,0.807251,0,0,0,0,0,0,0,-1,587,1324,-42.6259,-0.807209
-630,-300,-21.1108,2.26306,0,0,0,0,0,0,0,-1,594,1324,-21.1109,-2.2631
-623,-300,-12.7067,1.48462,0,0,0,0,0,0,0,-1,601,1324,-12.7067,-1.48462
-616,-300,-14.9988,1.68628,0,0,0,0,0,0,0,-1,608,1324,-14.9988,-1.68627
-609,-300,-15.5027,3.29907,0,0,0,0,0,0,0,-1,615,1324,-15.5027,-3.29902
-602,-300,-33.0458,8.5531,0,0,0,0,0,0,0,-1,622,1324,-33.0458,-8.55307
-595,-300,-33.0865,9.59399,0.00442632,0.00345076,0.00280081,0.0067815,0.00109558,0.699185,0.00420367,0.0408011,629,1324,-33.0865,-9.59396
-588,-300,-33.0258,10.4791,0.0031649,0.00251883,0.00184941,0.00471928,0.000964451,0.698937,0.00287906,0.0223519,636,1324,-33.0258,-10.4791
-581,-300,-33.0759,11.3025,0.00245986,0.00173571,0.00125507,0.00340404,0.000791526,0.644966,0.00205693,0.0223569,643,1324,-33.0759,-11.3025
-574,-300,-33.1273,12.1119,0.00209264,0.000984615,0.000833282,0.00253927,0.000537982,0.492025,0.00154506,0.0173755,650,1324,-33.1273,-12.1119
-567,-300,-33.1802,12.8915,0.00204246,0.000308613,0.000592383,0.00222552,0.00012555,0.29972,0.00144365,0.0174679,657,1324,-33.1802,-12.8915
-560,-300,-33.2389,13.7195,0.00231465,-0.000357394,0.000519909,0.00241225,-0.00045499,0.185558,0.00177933,0.0170446,664,1324,-33.2389,-13.7195
-553,-300,-33.2603,14.5479,0.00295835,-0.000937205,0.00065832,0.00306659,-0.00104545,0.162966,0.00246783,0.0117848,671,1324,-33.2602,-14.5478
-546,-300,-33.2897,15.363,0.00392452,-0.00142973,0.00103641,0.00411814,-0.00162334,0.184683,0.00341757,0.0119877,678,1324,-33.2897,-15.363
-539,-300,-33.1728,16.2856,0.00543931,-0.00182941,0.00177942,0.00585154,-0.00224165,0.227651,0.00482506,0.031656,685,1324,-33.1728,-16.2856
-532,-300,-32.9797,17.2084,0,0,0,0,0,0,0,-1,692,1324,-32.9797,-17.2084
-525,-300,-13.5115,6.27783,0,0,0,0,0,0,0,-1,699,1324,-13.5115,-6.2778
-518,-300,-9.8349,-0.537109,0,0,0,0,0,0,0,-1,706,1324,-9.83487,0.537068
-511,-300,-12.8644,0.081665,0,0,0,0,0,0,0,-1,713,1324,-12.8644,-0.0817016
-504,-300,-13.4829,-0.165527,0,0,0,0,0,0,0,-1,720,1324,-13.4829,0.165544
-497,-300,-18.1063,0.956543,0,0,0,0,0,0,0,-1,727,1324,-18.1063,-0.9565
-490,-300,-18.2293,1.53625,0,0,0,0,0,0,0,-1,734,1324,-18.2293,-1.53626
-483,-300,-18.3522,1.61084,0,0,0,0,0,0,0,-1,741,1324,-18.3522,-1.6108
-476,-300,-18.7489,1.96387,0,0,0,0,0,0,0,-1,748,1324,-18.7489,-1.96387
-469,-300,0,0,0,0,0,0,0,0,0,-1,755,1324,0,0
-462,-300,0,0,0,0,0,0,0,0,0,-1,762,1324,0,0
-455,-300,0,0,0,0,0,0,0,0,0,-1,769,1324,0,0
-448,-300,0,0,0,0,0,0,0,0,0,-1,776,1324,0,0
-441,-300,0,0,0,0,0,0,0,0,0,-1,783,1324,0,0
-434,-300,0,0,0,0,0,0,0,0,0,-1,790,1324,0,0
-427,-300,0,0,0,0,0,0,0,0,0,-1,797,1324,0,0
-420,-300,0,0,0,0,0,0,0,0,0,-1,804,1324,0,0
-413,-300,0,0,0,0,0,0,0,0,0,-1,811,1324,0,0
-406,-300,0,0,0,0,0,0,0,0,0,-1,818,1324,0,0
-399,-300,0,0,0,0,0,0,0,0,0,-1,825,1324,0,0
-392,-300,0,0,0,0,0,0,0,0,0,-1,832,1324,0,0
-385,-300,0,0,0,0,0,0,0,0,0,-1,839,1324,0,0
-378,-300,0,0,0,0,0,0,0,0,0,-1,846,1324,0,0
-371,-300,0,0,0,0,0,0,0,0,0,-1,853,1324,0,0
-364,-300,0,0,0,0,0,0,0,0,0,-1,860,1324,0,0
-357,-300,0,0,0,0,0,0,0,0,0,-1,867,1324,0,0
-350,-300,0,0,0,0,0,0,0,0,0,-1,874,1324,0,0
-343,-300,0,0,0,0,0,0,0,0,0,-1,881,1324,0,0
-336,-300,0,0,0,0,0,0,0,0,0,-1,888,1324,0,0
-329,-300,0,0,0,0,0,0,0,0,0,-1,895,1324,0,0
-322,-300,0,0,0,0,0,0,0,0,0,-1,902,1324,0,0
-315,-300,0,0,0,0,0,0,0,0,0,-1,909,1324,0,0
-308,-300,0,0,0,0,0,0,0,0,0,-1,916,1324,0,0
-301,-300,0,0,0,0,0,0,0,0,0,-1,923,1324,0,0
-294,-300,0,0,0,0,0,0,0,0,0,-1,930,1324,0,0
-287,-300,0,0,0,0,0,0,0,0,0,-1,937,1324,0,0
-280,-300,0,0,0,0,0,0,0,0,0,-1,944,1324,0,0
-273,-300,0,0,0,0,0,0,0,0,0,-1,951,1324,0,0
-266,-300,0,0,0,0,0,0,0,0,0,-1,958,1324,0,0
-259,-300,0,0,0,0,0,0,0,0,0,-1,965,1324,0,0
-252,-300,0,0,0,0,0,0,0,0,0,-1,972,1324,0,0
-245,-300,0,0,0,0,0,0,0,0,0,-1,979,1324,0,0
-238,-300,0,0,0,0,0,0,0,0,0,-1,986,1324,0,0
-231,-300,0,0,0,0,0,0,0,0,0,-1,993,1324,0,0
-224,-300,0,0,0,0,0,0,0,0,0,-1,1000,1324,0,0
-217,-300,0,0,0,0,0,0,0,0,0,-1,1007,1324,0,0
-210,-300,0,0,0,0,0,0,0,0,0,-1,1014,1324,0,0
-203,-300,0,0,0,0,0,0,0,0,0,-1,1021,1324,0,0
-196,-300,0,0,0,0,0,0,0,0,0,-1,1028,1324,0,0
-189,-300,0,0,0,0,0,0,0,0,0,-1,1035,1324,0,0
-182,-300,0,0,0,0,0,0,0,0,0,-1,1042,1324,0,0
-175,-300,0,0,0,0,0,0,0,0,0,-1,1049,1324,0,0
-168,-300,0,0,0,0,0,0,0,0,0,-1,1056,1324,0,0
-161,-300,0,0,0,0,0,0,0,0,0,-1,1063,1324,0,0
-154,-300,0,0,0,0,0,0,0,0,0,-1,1070,1324,0,0
-147,-300,0,0,0,0,0,0,0,0,0,-1,1077,1324,0,0
-140,-300,0,0,0,0,0,0,0,0,0,-1,1084,1324,0,0
-133,-300,0,0,0,0,0,0,0,0,0,-1,1091,1324,0,0
-126,-300,0,0,0,0,0,0,0,0,0,-1,1098,1324,0,0
-119,-300,0,0,0,0,0,0,0,0,0,-1,1105,1324,0,0
-112,-300,0,0,0,0,0,0,0,0,0,-1,1112,1324,0,0
-105,-300,0,0,0,0,0,0,0,0,0,-1,1119,1324,0,0
-98,-300,0,0,0,0,0,0,0,0,0,-1,1126,1324,0,0
-91,-300,0,0,0,0,0,0,0,0,0,-1,1133,1324,0,0
-84,-300,0,0,0,0,0,0,0,0,0,-1,1140,1324,0,0
-77,-300,0,0,0,0,0,0,0,0,0,-1,1147,1324,0,0
-70,-300,0,0,0,0,0,0,0,0,0,-1,1154,1324,0,0
-63,-300,0,0,0,0,0,0,0,0,0,-1,1161,1324,0,0
-56,-300,0,0,0,0,0,0,0,0,0,-1,1168,1324,0,0
-49,-300,0,0,0,0,0,0,0,0,0,-1,1175,1324,0,0
-42,-300,0,0,0,0,0,0,0,0,0,-1,1182,1324,0,0
-35,-300,0,0,0,0,0,0,0,0,0,-1,1189,1324,0,0
-28,-300,0,0,0,0,0,0,0,0,0,-1,1196,1324,0,0
-21,-300,0,0,0,0,0,0,0,0,0,-1,1203,1324,0,0
-14,-300,0,0,0,0,0,0,0,0,0,-1,1210,1324,0,0
-7,-300,0,0,0,0,0,0,0,0,0,-1,1217,1324,0,0
0,-300,0,0,0,0,0,0,0,0,0,-1,1224,1324,0,0
7,-300,0,0,0,0,0,0,0,0,0,-1,1231,1324,0,0
14,-300,0,0,0,0,0,0,0,0,0,-1,1238,1324,0,0
21,-300,0,0,0,0,0,0,0,0,0,-1,1245,1324,0,0
28,-300,0,0,0,0,0,0,0,0,0,-1,1252,1324,0,0
35,-300,0,0,0,0,0,0,0,0,0,-1,1259,1324,0,0
42,-300,0,0,0,0,0,0,0,0,0,-1,1266,1324,0,0
49,-300,0,0,0,0,0,0,0,0,0,-1,1273,1324,0,0
56,-300,0,0,0,0,0,0,0,0,0,-1,1280,1324,0,0
63,-300,0,0,0,0,0,0,0,0,0,-1,1287,1324,0,0
70,-300,0,0,0,0,0,0,0,0,0,-1,1294,1324,0,0
77,-300,0,0,0,0,0,0,0,0,0,-1,1301,1324,0,0
84,-300,0,0,0,0,0,0,0,0,0,-1,1308,1324,0,0
91,-300,0,0,0,0,0,0,0,0,0,-1,1315,1324,0,0
98,-300,0,0,0,0,0,0,0,0,0,-1,1322,1324,0,0
105,-300,0,0,0,0,0,0,0,0,0,-1,1329,1324,0,0
112,-300,0,0,0,0,0,0,0,0,0,-1,1336,1324,0,0
119,-300,0,0,0,0,0,0,0,0,0,-1,1343,1324,0,0
126,-300,0,0,0,0,0,0,0,0,0,-1,1350,1324,0,0
133,-300,0,0,0,0,0,0,0,0,0,-1,1357,1324,0,0
140,-300,0,0,0,0,0,0,0,0,0,-1,1364,1324,0,0
147,-300,0,0,0,0,0,0,0,0,0,-1,1371,1324,0,0
154,-300,0,0,0,0,0,0,0,0,0,-1,1378,1324,0,0
161,-300,0,0,0,0,0,0,0,0,0,-1,1385,1324,0,0
168,-300,0,0,0,0,0,0,0,0,0,-1,1392,1324,0,0
175,-300,0,0,0,0,0,0,0,0,0,-1,1399,1324,0,0
182,-300,0,0,0,0,0,0,0,0,0,-1,1406,1324,0,0
189,-300,0,0,0,0,0,0,0,0,0,-1,1413,1324,0,0
196,-300,0,0,0,0,0,0,0,0,0,-1,1420,1324,0,0
203,-300,0,0,0,0,0,0,0,0,0,-1,1427,1324,0,0
210,-300,0,0,0,0,0,0,0,0,0,-1,1434,1324,0,0
217,-300,0,0,0,0,0,0,0,0,0,-1,1441,1324,0,0
224,-300,0,0,0,0,0,0,0,0,0,-1,1448,1324,0,0
231,-300,0,0,0,0,0,0,0,0,0,-1,1455,1324,0,0
238,-300,0,0,0,0,0,0,0,0,0,-1,1462,1324,0,0
245,-300,0,0,0,0,0,0,0,0,0,-1,1469,1324,0,0
252,-300,0,0,0,0,0,0,0,0,0,-1,1476,1324,0,0
259,-300,0,0,0,0,0,0,0,0,0,-1,1483,1324,0,0
266,-300,0,0,0,0,0,0,0,0,0,-1,1490,1324,0,0
273,-300,0,0,0,0,0,0,0,0,0,-1,1497,1324,0,0
280,-300,0,0,0,0,0,0,0,0,0,-1,1504,1324,0,0
287,-300,0,0,0,0,0,0,0,0,0,-1,1511,1324,0,0
294,-300,0,0,0,0,0,0,0,0,0,-1,1518,1324,0,0
301,-300,0,0,0,0,0,0,0,0,0,-1,1525,1324,0,0
308,-300,0,0,0,0,0,0,0,0,0,-1,1532,1324,0,0
315,-300,0,0,0,0,0,0,0,0,0,-1,1539,1324,0,0
322,-300,0,0,0,0,0,0,0,0,0,-1,1546,1324,0,0
329,-300,0,0,0,0,0,0,0,0,0,-1,1553,1324,0,0
336,-300,0,0,0,0,0,0,0,0,0,-1,1560,1324,0,0
343,-300,0,0,0,0,0,0,0,0,0,-1,1567,1324,0,0
350,-300,0,0,0,0,0,0,0,0,0,-1,1574,1324,0,0
357,-300,0,0,0,0,0,0,0,0,0,-1,1581,1324,0,0
364,-300,0,0,0,0,0,0,0,0,0,-1,1588,1324,0,0
371,-300,0,0,0,0,0,0,0,0,0,-1,1595,1324,0,0
378,-300,0,0,0,0,0,0,0,0,0,-1,1602,1324,0,0
385,-300,0,0,0,0,0,0,0,0,0,-1,1609,1324,0,0
392,-300,0,0,0,0,0,0,0,0,0,-1,1616,1324,0,0
399,-300,0,0,0,0,0,0,0,0,0,-1,1623,1324,0,0
406,-300,0,0,0,0,0,0,0,0,0,-1,1630,1324,0,0
413,-300,0,0,0,0,0,0,0,0,0,-1,1637,1324,0,0
420,-300,0,0,0,0,0,0,0,0,0,-1,1644,1324,0,0
427,-300,0,0,0,0,0,0,0,0,0,-1,1651,1324,0,0
434,-300,0,0,0,0,0,0,0,0,0,-1,1658,1324,0,0
441,-300,0,0,0,0,0,0,0,0,0,-1,1665,1324,0,0
448,-300,0,0,0,0,0,0,0,0,0,-1,1672,1324,0,0
455,-300,0,0,0,0,0,0,0,0,0,-1,1679,1324,0,0
462,-300,0,0,0,0,0,0,0,0,0,-1,1686,1324,0,0
469,-300,0,0,0,0,0,0,0,0,0,-1,1693,1324,0,0
476,-300,0,0,0,0,0,0,0,0,0,-1,1700,1324,0,0
483,-300,0,0,0,0,0,0,0,0,0,-1,1707,1324,0,0
490,-300,0,0,0,0,0,0,0,0,0,-1,1714,1324,0,0
497,-300,0,0,0,0,0,0,0,0,0,-1,1721,1324,0,0
504,-300,0,0,0,0,0,0,0,0,0,-1,1728,1324,0,0
511,-300,0,0,0,0,0,0,0,0,0,-1,1735,1324,0,0
518,-300,0,0,0,0,0,0,0,0,0,-1,1742,1324,0,0
525,-300,0,0,0,0,0,0,0,0,0,-1,1749,1324,0,0
532,-300,0,0,0,0,0,0,0,0,0,-1,1756,1324,0,0
539,-300,0,0,0,0,0,0,0,0,0,-1,1763,1324,0,0
546,-300,0,0,0,0,0,0,0,0,0,-1,1770,1324,0,0
553,-300,0,0,0,0,0,0,0,0,0,-1,1777,1324,0,0
560,-300,0,0,0,0,0,0,0,0,0,-1,1784,1324,0,0
567,-300,0,0,0,0,0,0,0,0,0,-1,1791,1324,0,0
574,-300,0,0,0,0,0,0,0,0,0,-1,1798,1324,0,0
581,-300,0,0,0,0,0,0,0,0,0,-1,1805,1324,0,0
588,-300,66.4561,1.99207,0,0,0,0,0,0,0,-1,1812,1324,66.456,-1.99202
595,-300,66.4685,1.95496,0,0,0,0,0,0,0,-1,1819,1324,66.4685,-1.95499
602,-300,66.5259,1.72363,0,0,0,0,0,0,0,-1,1826,1324,66.5259,-1.72367
609,-300,64.2576,2.90149,0,0,0,0,0,0,0,-1,1833,1324,64.2575,-2.90154
616,-300,65.1267,2.84033,0,0,0,0,0,0,0,-1,1840,1324,65.1267,-2.84037
623,-300,47.4474,2.43188,0,0,0,0,0,0,0,-1,1847,1324,47.4474,-2.43194
630,-300,42.4099,3.9165,0,0,0,0,0,0,0,-1,1854,1324,42.4099,-3.91649
637,-300,31.1719,4.6366,0,0,0,0,0,0,0,-1,1861,1324,31.1718,-4.63665
644,-300,22.9836,3.44934,0,0,0,0,0,0,0,-1,1868,1324,22.9836,-3.4493
651,-300,25.5004,9.11853,0,0,0,0,0,0,0,-1,1875,1324,25.5004,-9.11851
658,-300,25.4012,9.20032,0,0,0,0,0,0,0,-1,1882,1324,25.4012,-9.20036
665,-300,50.4426,17.3727,0,0,0,0,0,0,0,-1,1889,1324,50.4427,-17.3726
672,-300,50.2449,16.6926,0.00172924,0.00444316,-0.00292683,0.00631229,-0.000139898,-1.00246,0.00425559,0.0363236,1896,1324,50.2449,-16.6926
679,-300,50.2285,15.8627,0.00172882,0.00227127,-0.00178484,0.00380538,0.000194716,-0.860802,0.00247457,0.0136691,1903,1324,50.2285,-15.8627
686,-300,50.1833,15.073,0.00156416,0.000154041,-0.000929851,0.00202604,-0.000307831,-0.461017,0.00146413,0.0140123,1910,1324,50.1834,-15.073
693,-300,50.1195,14.3063,0.00109536,-3.67372e-05,-0.000377967,0.00120995,-0.000151328,-0.29437,0.000861516,0.0115411,1917,1324,50.1195,-14.3062
700,-300,50.0713,13.5094,0.000806544,-0.000227881,0.0002476,0.000862755,-0.000284092,0.22324,0.000689655,0.0132803,1924,1324,50.0712,-13.5094
707,-300,50.0507,12.7086,0.000542308,-0.000459958,0.000865713,0.00104147,-0.000959121,0.52303,0.00115537,0.00955847,1931,1324,50.0507,-12.7086
714,-300,50.0245,11.9459,0.000271421,-0.000778613,0.00157646,0.00140799,-0.00191518,0.624657,0.00192607,0.0109812,1938,1324,50.0246,-11.9459
721,-300,49.9764,11.1758,1.31193e-05,-0.00117973,0.0023954,0.00188522,-0.00305184,0.663385,0.00287682,0.0128205,1945,1324,49.9764,-11.1757
728,-300,49.9727,10.351,-0.000239546,-0.00167036,0.00337088,0.00249101,-0.00440091,0.680834,0.00402966,0.0185118,1952,1324,49.9727,-10.351
735,-300,49.7794,9.84692,-0.000530257,-0.00234764,0.00455791,0.00320866,-0.00608656,0.687005,0.00545166,0.0336391,1959,1324,49.7794,-9.8469
742,-300,49.6945,9.19507,0,0,0,0,0,0,0,-1,1966,1324,49.6944,-9.19511
749,-300,27.4065,5.9718,0,0,0,0,0,0,0,-1,1973,1324,27.4065,-5.97181
756,-300,22.1423,3.45642,0,0,0,0,0,0,0,-1,1980,1324,22.1423,-3.45638
763,-300,22.6136,5.1571,0,0,0,0,0,0,0,-1,1987,1324,22.6136,-5.15706
770,-300,24.859,4.77979,0,0,0,0,0,0,0,-1,1994,1324,24.859,-4.77972
777,-300,0,0,0,0,0,0,0,0,0,-1,2001,1324,0,0
784,-300,0,0,0,0,0,0,0,0,0,-1,2008,1324,0,0
791,-300,0,0,0,0,0,0,0,0,0,-1,2015,1324,0,0
798,-300,0,0,0,0,0,0,0,0,0,-1,2022,1324,0,0
805,-300,0,0,0,0,0,0,0,0,0,-1,2029,1324,0,0
812,-300,0,0,0,0,0,0,0,0,0,-1,2036,1324,0,0
-700,-307,0,0,0,0,0,0,0,0,0,-1,524,1331,0,0
-693,-307,0,0,0,0,0,0,0,0,0,-1,531,1331,0,0
-686,-307,0,0,0,0,0,0,0,0,0,-1,538,1331,0,0
-679,-307,0,0,0,0,0,0,0,0,0,-1,545,1331,0,0
-672,-307,0,0,0,0,0,0,0,0,0,-1,552,1331,0,0
-665,-307,0,0,0,0,0,0,0,0,0,-1,559,1331,0,0
-658,-307,0,0,0,0,0,0,0,0,0,-1,566,1331,0,0
-651,-307,-40.7436,1.98755,0,0,0,0,0,0,0,-1,573,1331,-40.7436,-1.98753
-644,-307,-41.7838,1.24817,0,0,0,0,0,0,0,-1,580,1331,-41.7838,-1.2482
-637,-307,-41.9006,0.477783,0,0,0,0,0,0,0,-1,587,1331,-41.9006,-0.477844
-630,-307,-12.0005,0.767212,0,0,0,0,0,0,0,-1,594,1331,-12.0005,-0.767266
-623,-307,-12.2128,2.93811,0,0,0,0,0,0,0,-1,601,1331,-12.2128,-2.93813
-616,-307,-12.6612,2.08289,0,0,0,0,0,0,0,-1,608,1331,-12.6612,-2.08293
-609,-307,-12.2767,1.83228,0,0,0,0,0,0,0,-1,615,1331,-12.2768,-1.83224
-602,-307,-27.5659,6.93335,0,0,0,0,0,0,0,-1,622,1331,-27.5658,-6.9333
-595,-307,-32.3926,9.60461,0,0,0,0,0,0,0,-1,629,1331,-32.3926,-9.6046
-588,-307,-32.2513,10.5222,0.00353288,0.00323627,0.00236451,0.00575373,0.00101542,0.754078,0.00354615,0.0244496,636,1331,-32.2513,-10.5222
-581,-307,-32.2678,11.3411,0.00284091,0.00236511,0.00167067,0.00429053,0.000915488,0.714675,0.00260928,0.0180183,643,1331,-32.2678,-11.3411
-574,-307,-32.3049,12.1298,0.00247152,0.00157082,0.0011845,0.00328839,0.000753945,0.603736,0.00198916,0.0140971,650,1331,-32.3049,-12.1297
-567,-307,-32.3488,12.9307,0.002413,0.000879668,0.000905783,0.00283302,0.000459649,0.434195,0.00175563,0.0136793,657,1331,-32.3488,-12.9307
-560,-307,-32.389,13.7496,0.002623,0.000260065,0.00080535,0.00287138,1.16882e-05,0.299153,0.00191037,0.0155659,664,1331,-32.3891,-13.7497
-553,-307,-32.4424,14.5892,0.00316206,-0.000244192,0.000925883,0.00339746,-0.000479596,0.248972,0.0024406,0.012667,671,1331,-32.4424,-14.5893
-546,-307,-32.5015,15.4104,0.00398732,-0.0006846,0.0012573,0.00430419,-0.00100147,0.246884,0.00325505,0.0114722,678,1331,-32.5015,-15.4104
-539,-307,-32.4966,16.2964,0.00523542,-0.00102783,0.00189506,0.00576417,-0.00155658,0.272094,0.00445326,0.0233377,685,1331,-32.4966,-16.2964
-532,-307,-32.433,17.2134,0,0,0,0,0,0,0,-1,692,1331,-32.433,-17.2134
-525,-307,-13.2009,6.91309,0,0,0,0,0,0,0,-1,699,1331,-13.2009,-6.9131
-518,-307,-9.77777,-1.56653,0,0,0,0,0,0,0,-1,706,1331,-9.77777,1.56651
-511,-307,-12.5226,0.26709,0,0,0,0,0,0,0,-1,713,1331,-12.5226,-0.267038
-504,-307,-12.5913,-0.308105,0,0,0,0,0,0,0,-1,720,1331,-12.5913,0.308124
-497,-307,-13.8586,-0.115845,0,0,0,0,0,0,0,-1,727,1331,-13.8587,0.115861
-490,-307,-17.9429,0.982178,0,0,0,0,0,0,0,-1,734,1331,-17.9429,-0.982198
-483,-307,-18.1066,0.927612,0,0,0,0,0,0,0,-1,741,1331,-18.1066,-0.927609
-476,-307,-18.1288,1.1228,0,0,0,0,0,0,0,-1,748,1331,-18.1289,-1.12286
-469,-307,-18.2028,0.798584,0,0,0,0,0,0,0,-1,755,1331,-18.2027,-0.798546
-462,-307,0,0,0,0,0,0,0,0,0,-1,762,1331,0,0
-455,-307,0,0,0,0,0,0,0,0,0,-1,769,1331,0,0
-448,-307,0,0,0,0,0,0,0,0,0,-1,776,1331,0,0
-441,-307,0,0,0,0,0,0,0,0,0,-1,783,1331,0,0
-434,-307,0,0,0,0,0,0,0,0,0,-1,790,1331,0,0
-427,-307,0,0,0,0,0,0,0,0,0,-1,797,1331,0,0
-420,-307,0,0,0,0,0,0,0,0,0,-1,804,1331,0,0
-413,-307,0,0,0,0,0,0,0,0,0,-1,811,1331,0,0
-406,-307,0,0,0,0,0,0,0,0,0,-1,818,1331,0,0
-399,-307,0,0,0,0,0,0,0,0,0,-1,825,1331,0,0
-392,-307,0,0,0,0,0,0,0,0,0,-1,832,1331,0,0
-385,-307,0,0,0,0,0,0,0,0,0,-1,839,1331,0,0
-378,-307,0,0,0,0,0,0,0,0,0,-1,846,1331,0,0
-371,-307,0,0,0,0,0,0,0,0,0,-1,853,1331,0,0
-364,-307,0,0,0,0,0,0,0,0,0,-1,860,1331,0,0
-357,-307,0,0,0,0,0,0,0,0,0,-1,867,1331,0,0
-350,-307,0,0,0,0,0,0,0,0,0,-1,874,1331,0,0
-343,-307,0,0,0,0,0,0,0,0,0,-1,881,1331,0,0
-336,-307,0,0,0,0,0,0,0,0,0,-1,888,1331,0,0
-329,-307,0,0,0,0,0,0,0,0,0,-1,895,1331,0,0
-322,-307,0,0,0,0,0,0,0,0,0,-1,902,1331,0,0
-315,-307,0,0,0,0,0,0,0,0,0,-1,909,1331,0,0
-308,-307,0,0,0,0,0,0,0,0,0,-1,916,1331,0,0
-301,-307,0,0,0,0,0,0,0,0,0,-1,923,1331,0,0
-294,-307,0,0,0,0,0,0,0,0,0,-1,930,1331,0,0
-287,-307,0,0,0,0,0,0,0,0,0,-1,937,1331,0,0
-280,-307,0,0,0,0,0,0,0,0,0,-1,944,1331,0,0
-273,-307,0,0,0,0,0,0,0,0,0,-1,951,1331,0,0
-266,-307,0,0,0,0,0,0,0,0,0,-1,958,1331,0,0
-259,-307,0,0,0,0,0,0,0,0,0,-1,965,1331,0,0
-252,-307,0,0,0,0,0,0,0,0,0,-1,972,1331,0,0
-245,-307,0,0,0,0,0,0,0,0,0,-1,979,1331,0,0
-238,-307,0,0,0,0,0,0,0,0,0,-1,986,1331,0,0
-231,-307,0,0,0,0,0,0,0,0,0,-1,993,1331,0,0
-224,-307,0,0,0,0,0,0,0,0,0,-1,1000,1331,0,0
-217,-307,0,0,0,0,0,0,0,0,0,-1,1007,1331,0,0
-210,-307,0,0,0,0,0,0,0,0,0,-1,1014,1331,0,0
-203,-307,0,0,0,0,0,0,0,0,0,-1,1021,1331,0,0
-196,-307,0,0,0,0,0,0,0,0,0,-1,1028,1331,0,0
-189,-307,0,0,0,0,0,0,0,0,0,-1,1035,1331,0,0
-182,-307,0,0,0,0,0,0,0,0,0,-1,1042,1331,0,0
-175,-307,0,0,0,0,0,0,0,0,0,-1,1049,1331,0,0
-168,-307,0,0,0,0,0,0,0,0,0,-1,1056,1331,0,0
-161,-307,0,0,0,0,0,0,0,0,0,-1,1063,1331,0,0
-154,-307,0,0,0,0,0,0,0,0,0,-1,1070,1331,0,0
-147,-307,0,0,0,0,0,0,0,0,0,-1,1077,1331,0,0
-140,-307,0,0,0,0,0,0,0,0,0,-1,1084,1331,0,0
-133,-307,0,0,0,0,0,0,0,0,0,-1,1091,1331,0,0
-126,-307,0,0,0,0,0,0,0,0,0,-1,1098,1331,0,0
-119,-307,0,0,0,0,0,0,0,0,0,-1,1105,1331,0,0
-112,-307,0,0,0,0,0,0,0,0,0,-1,1112,1331,0,0
-105,-307,0,0,0,0,0,0,0,0,0,-1,1119,1331,0,0
-98,-307,0,0,0,0,0,0,0,0,0,-1,1126,1331,0,0
-91,-307,0,0,0,0,0,0,0,0,0,-1,1133,1331,0,0
-84,-307,0,0,0,0,0,0,0,0,0,-1,1140,1331,0,0
-77,-307,0,0,0,0,0,0,0,0,0,-1,1147,1331,0,0
-70,-307,0,0,0,0,0,0,0,0,0,-1,1154,1331,0,0
-63,-307,0,0,0,0,0,0,0,0,0,-1,1161,1331,0,0
-56,-307,0,0,0,0,0,0,0,0,0,-1,1168,1331,0,0
-49,-307,0,0,0,0,0,0,0,0,0,-1,1175,1331,0,0
-42,-307,0,0,0,0,0,0,0,0,0,-1,1182,1331,0,0
-35,-307,0,0,0,0,0,0,0,0,0,-1,1189,1331,0,0
-28,-307,0,0,0,0,0,0,0,0,0,-1,1196,1331,0,0
-21,-307,0,0,0,0,0,0,0,0,0,-1,1203,1331,0,0
-14,-307,0,0,0,0,0,0,0,0,0,-1,1210,1331,0,0
-7,-307,0,0,0,0,0,0,0,0,0,-1,1217,1331,0,0
0,-307,0,0,0,0,0,0,0,0,0,-1,1224,1331,0,0
7,-307,0,0,0,0,0,0,0,0,0,-1,1231,1331,0,0
14,-307,0,0,0,0,0,0,0,0,0,-1,1238,1331,0,0
21,-307,0,0,0,0,0,0,0,0,0,-1,1245,1331,0,0
28,-307,0,0,0,0,0,0,0,0,0,-1,1252,1331,0,0
35,-307,0,0,0,0,0,0,0,0,0,-1,1259,1331,0,0
42,-307,0,0,0,0,0,0,0,0,0,-1,1266,1331,0,0
49,-307,0,0,0,0,0,0,0,0,0,-1,1273,1331,0,0
56,-307,0,0,0,0,0,0,0,0,0,-1,1280,1331,0,0
63,-307,0,0,0,0,0,0,0,0,0,-1,1287,1331,0,0
70,-307,0,0,0,0,0,0,0,0,0,-1,1294,1331,0,0
77,-307,0,0,0,0,0,0,0,0,0,-1,1301,1331,0,0
84,-307,0,0,0,0,0,0,0,0,0,-1,1308,1331,0,0
91,-307,0,0,0,0,0,0,0,0,0,-1,1315,1331,0,0
98,-307,0,0,0,0,0,0,0,0,0,-1,1322,1331,0,0
105,-307,0,0,0,0,0,0,0,0,0,-1,1329,1331,0,0
112,-307,0,0,0,0,0,0,0,0,0,-1,1336,1331,0,0
119,-307,0,0,0,0,0,0,0,0,0,-1,1343,1331,0,0
126,-307,0,0,0,0,0,0,0,0,0,-1,1350,1331,0,0
133,-307,0,0,0,0,0,0,0,0,0,-1,1357,1331,0,0
140,-307,0,0,0,0,0,0,0,0,0,-1,1364,1331,0,0
147,-307,0,0,0,0,0,0,0,0,0,-1,1371,1331,0,0
154,-307,0,0,0,0,0,0,0,0,0,-1,1378,1331,0,0
161,-307,0,0,0,0,0,0,0,0,0,-1,1385,1331,0,0
168,-307,0,0,0,0,0,0,0,0,0,-1,1392,1331,0,0
175,-307,0,0,0,0,0,0,0,0,0,-1,1399,1331,0,0
182,-307,0,0,0,0,0,0,0,0,0,-1,1406,1331,0,0
189,-307,0,0,0,0,0,0,0,0,0,-1,1413,1331,0,0
196,-307,0,0,0,0,0,0,0,0,0,-1,1420,1331,0,0
203,-307,0,0,0,0,0,0,0,0,0,-1,1427,1331,0,0
210,-307,0,0,0,0,0,0,0,0,0,-1,1434,1331,0,0
217,-307,0,0,0,0,0,0,0,0,0,-1,1441,1331,0,0
224,-307,0,0,0,0,0,0,0,0,0,-1,1448,1331,0,0
231,-307,0,0,0,0,0,0,0,0,0,-1,1455,1331,0,0
238,-307,0,0,0,0,0,0,0,0,0,-1,1462,1331,0,0
245,-307,0,0,0,0,0,0,0,0,0,-1,1469,1331,0,0
252,-307,0,0,0,0,0,0,0,0,0,-1,1476,1331,0,0
259,-307,0,0,0,0,0,0,0,0,0,-1,1483,1331,0,0
266,-307,0,0,0,0,0,0,0,0,0,-1,1490,1331,0,0
273,-307,0,0,0,0,0,0,0,0,0,-1,1497,1331,0,0
280,-307,0,0,0,0,0,0,0,0,0,-1,1504,1331,0,0
287,-307,0,0,0,0,0,0,0,0,0,-1,1511,1331,0,0
294,-307,0,0,0,0,0,0,0,0,0,-1,1518,1331,0,0
301,-307,0,0,0,0,0,0,0,0,0,-1,1525,1331,0,0
308,-307,0,0,0,0,0,0,0,0,0,-1,1532,1331,0,0
315,-307,0,0,0,0,0,0,0,0,0,-1,1539,1331,0,0
322,-307,0,0,0,0,0,0,0,0,0,-1,1546,1331,0,0
329,-307,0,0,0,0,0,0,0,0,0,-1,1553,1331,0,0
336,-307,0,0,0,0,0,0,0,0,0,-1,1560,1331,0,0
343,-307,0,0,0,0,0,0,0,0,0,-1,1567,1331,0,0
350,-307,0,0,0,0,0,0,0,0,0,-1,1574,1331,0,0
357,-307,0,0,0,0,0,0,0,0,0,-1,1581,1331,0,0
364,-307,0,0,0,0,0,0,0,0,0,-1,1588,1331,0,0
371,-307,0,0,0,0,0,0,0,0,0,-1,1595,1331,0,0
378,-307,0,0,0,0,0,0,0,0,0,-1,1602,1331,0,0
385,-307,0,0,0,0,0,0,0,0,0,-1,1609,1331,0,0
392,-307,0,0,0,0,0,0,0,0,0,-1,1616,1331,0,0
399,-307,0,0,0,0,0,0,0,0,0,-1,1623,1331,0,0
406,-307,0,0,0,0,0,0,0,0,0,-1,1630,1331,0,0
413,-307,0,0,0,0,0,0,0,0,0,-1,1637,1331,0,0
420,-307,0,0,0,0,0,0,0,0,0,-1,1644,1331,0,0
427,-307,0,0,0,0,0,0,0,0,0,-1,1651,1331,0,0
434,-307,0,0,0,0,0,0,0,0,0,-1,1658,1331,0,0
441,-307,0,0,0,0,0,0,0,0,0,-1,1665,1331,0,0
448,-307,0,0,0,0,0,0,0,0,0,-1,1672,1331,0,0
455,-307,0,0,0,0,0,0,0,0,0,-1,1679,1331,0,0
462,-307,0,0,0,0,0,0,0,0,0,-1,1686,1331,0,0
469,-307,0,0,0,0,0,0,0,0,0,-1,1693,1331,0,0
476,-307,0,0,0,0,0,0,0,0,0,-1,1700,1331,0,0
483,-307,0,0,0,0,0,0,0,0,0,-1,1707,1331,0,0
490,-307,0,0,0,0,0,0,0,0,0,-1,1714,1331,0,0
497,-307,0,0,0,0,0,0,0,0,0,-1,1721,1331,0,0
504,-307,0,0,0,0,0,0,0,0,0,-1,1728,1331,0,0
511,-307,0,0,0,0,0,0,0,0,0,-1,1735,1331,0,0
518,-307,0,0,0,0,0,0,0,0,0,-1,1742,1331,0,0
525,-307,0,0,0,0,0,0,0,0,0,-1,1749,1331,0,0
532,-307,0,0,0,0,0,0,0,0,0,-1,1756,1331,0,0
539,-307,0,0,0,0,0,0,0,0,0,-1,1763,1331,0,0
546,-307,0,0,0,0,0,0,0,0,0,-1,1770,1331,0,0
553,-307,0,0,0,0,0,0,0,0,0,-1,1777,1331,0,0
560,-307,0,0,0,0,0,0,0,0,0,-1,1784,1331,0,0
567,-307,0,0,0,0,0,0,0,0,0,-1,1791,1331,0,0
574,-307,0,0,0,0,0,0,0,0,0,-1,1798,1331,0,0
581,-307,0,0,0,0,0,0,0,0,0,-1,1805,1331,0,0
588,-307,66.5917,1.60864,0,0,0,0,0,0,0,-1,1812,1331,66.5917,-1.60867
595,-307,66.708,1.85352,0,0,0,0,0,0,0,-1,1819,1331,66.708,-1.85351
602,-307,66.111,1.49976,0,0,0,0,0,0,0,-1,1826,1331,66.1109,-1.49974
609,-307,63.8848,2.78992,0,0,0,0,0,0,0,-1,1833,1331,63.8848,-2.78989
616,-307,53.2878,0.135498,0,0,0,0,0,0,0,-1,1840,1331,53.2878,-0.135477
623,-307,44.3966,2.84888,0,0,0,0,0,0,0,-1,1847,1331,44.3966,-2.84884
630,-307,29.8116,1.51184,0,0,0,0,0,0,0,-1,1854,1331,29.8116,-1.51188
637,-307,24.6407,4.09106,0,0,0,0,0,0,0,-1,1861,1331,24.6407,-4.09103
644,-307,22.6885,5.80408,0,0,0,0,0,0,0,-1,1868,1331,22.6884,-5.80408
651,-307,17.5013,5.80078,0,0,0,0,0,0,0,-1,1875,1331,17.5014,-5.80072
658,-307,37.4427,13.9775,0,0,0,0,0,0,0,-1,1882,1331,37.4427,-13.9776
665,-307,49.6099,17.4625,0,0,0,0,0,0,0,-1,1889,1331,49.6098,-17.4625
672,-307,49.4752,16.6945,0.00144072,0.00349766,-0.00220341,0.0049008,3.75719e-05,-1.00375,0.00325475,0.0219805,1896,1331,49.4752,-16.6945
679,-307,49.4214,15.9098,0.0014747,0.00157658,-0.001213,0.00273971,0.000311567,-0.806383,0.00173198,0.011244,1903,1331,49.4214,-15.9098
686,-307,49.3768,15.1147,0.00135928,2.99025e-05,-0.000564635,0.00156673,-0.000177546,-0.352094,0.00110842,0.0101779,1910,1331,49.3768,-15.1148
693,-307,49.329,14.3302,0.00103772,-0.000126384,-0.000164485,0.00106051,-0.000149179,-0.137707,0.000761619,0.0114763,1917,1331,49.329,-14.3301
700,-307,49.309,13.5145,0.000840938,-0.000288606,0.000323636,0.000927094,-0.000374762,0.260179,0.000773847,0.0139638,1924,1331,49.309,-13.5145
707,-307,49.2899,12.7245,0.000620871,-0.000530855,0.000890135,0.00110518,-0.00101516,0.498288,0.00122455,0.0161611,1931,1331,49.2899,-12.7245
714,-307,49.2384,12.0114,0.00037492,-0.000871196,0.00156266,0.00143415,-0.00193043,0.595698,0.00194957,0.0139509,1938,1331,49.2385,-12.0113
721,-307,49.2306,11.2344,0.00013334,-0.00133398,0.00236581,0.00187664,-0.00307728,0.635045,0.00288801,0.0184122,1945,1331,49.2305,-11.2344
728,-307,49.1973,10.6234,-0.000137107,-0.00193978,0.00337414,0.00245401,-0.0045309,0.65488,0.00409173,0.0480556,1952,1331,49.1973,-10.6234
735,-307,49.2811,9.67102,0,0,0,0,0,0,0,-1,1959,1331,49.2812,-9.67108
742,-307,26.677,6.09192,0,0,0,0,0,0,0,-1,1966,1331,26.677,-6.0919
749,-307,26.7727,5.9032,0,0,0,0,0,0,0,-1,1973,1331,26.7727,-5.90323
756,-307,27.1556,5.74756,0,0,0,0,0,0,0,-1,1980,1331,27.1557,-5.7475
763,-307,18.7522,3.55298,0,0,0,0,0,0,0,-1,1987,1331,18.7522,-3.55301
770,-307,0,0,0,0,0,0,0,0,0,-1,1994,1331,0,0
777,-307,0,0,0,0,0,0,0,0,0,-1,2001,1331,0,0
784,-307,0,0,0,0,0,0,0,0,0,-1,2008,1331,0,0
791,-307,0,0,0,0,0,0,0,0,0,-1,2015,1331,0,0
798,-307,0,0,0,0,0,0,0,0,0,-1,2022,1331,0,0
805,-307,0,0,0,0,0,0,0,0,0,-1,2029,1331,0,0
812,-307,0,0,0,0,0,0,0,0,0,-1,2036,1331,0,0
-700,-314,0,0,0,0,0,0,0,0,0,-1,524,1338,0,0
-693,-314,0,0,0,0,0,0,0,0,0,-1,531,1338,0,0
-686,-314,0,0,0,0,0,0,0,0,0,-1,538,1338,0,0
-679,-314,0,0,0,0,0,0,0,0,0,-1,545,1338,0,0
-672,-314,0,0,0,0,0,0,0,0,0,-1,552,1338,0,0
-665,-314,0,0,0,0,0,0,0,0,0,-1,559,1338,0,0
-658,-314,0,0,0,0,0,0,0,0,0,-1,566,1338,0,0
-651,-314,0,0,0,0,0,0,0,0,0,-1,573,1338,0,0
-644,-314,-41.2806,1.17566,0,0,0,0,0,0,0,-1,580,1338,-41.2806,-1.17565
-637,-314,-58.369,7.97375,0,0,0,0,0,0,0,-1,587,1338,-58.369,-7.97376
-630,-314,-59.7463,6.72742,0,0,0,0,0,0,0,-1,594,1338,-59.7463,-6.72739
-623,-314,-13.3542,3.00903,0,0,0,0,0,0,0,-1,601,1338,-13.3542,-3.00907
-616,-314,-9.93311,1.15088,0,0,0,0,0,0,0,-1,608,1338,-9.93308,-1.15093
-609,-314,-9.4361,2.86292,0,0,0,0,0,0,0,-1,615,1338,-9.43612,-2.86286
-602,-314,-11.8027,2.42798,0,0,0,0,0,0,0,-1,622,1338,-11.8027,-2.42802
-595,-314,-31.6763,9.58203,0,0,0,0,0,0,0,-1,629,1338,-31.6763,-9.58202
-588,-314,-31.4833,10.4838,0.00380659,0.00390995,0.00278825,0.006647,0.00106954,0.794664,0.00412134,0.0365745,636,1338,-31.4833,-10.4838
-581,-314,-31.4355,11.3629,0.00312845,0.00298696,0.00202771,0.00508665,0.00102876,0.76796,0.00310551,0.0136759,643,1338,-31.4355,-11.3629
-574,-314,-31.4904,12.1683,0.00275365,0.00212079,0.00150364,0.0039738,0.000900645,0.68169,0.00240585,0.0132075,650,1338,-31.4904,-12.1683
-567,-314,-31.5168,12.9791,0.00267366,0.0013734,0.00120213,0.0033902,0.000656856,0.537517,0.00207611,0.0152254,657,1338,-31.5168,-12.9791
-560,-314,-31.5423,13.8127,0.00284213,0.000711622,0.00108871,0.00330005,0.000253702,0.398144,0.00212053,0.0164249,664,1338,-31.5423,-13.8128
-553,-314,-31.5907,14.6476,0.00329107,0.00017174,0.00118765,0.00369178,-0.000228971,0.325404,0.00254095,0.0184439,671,1338,-31.5907,-14.6476
-546,-314,-31.6735,15.4728,0.00399051,-0.000307317,0.00147159,0.00444609,-0.000762899,0.300228,0.00324836,0.0185226,678,1338,-31.6735,-15.4728
-539,-314,-31.6987,16.3147,0.00501842,-0.000681658,0.00200717,0.00565428,-0.00131751,0.30679,0.00427688,0.0211201,685,1338,-31.6987,-16.3147
-532,-314,-31.6517,17.1289,0,0,0,0,0,0,0,-1,692,1338,-31.6517,-17.1289
-525,-314,-13.3017,7.50671,0,0,0,0,0,0,0,-1,699,1338,-13.3017,-7.50669
-518,-314,-8.52753,4.70032,0,0,0,0,0,0,0,-1,706,1338,-8.52755,-4.70034
-511,-314,-11.8597,0.384888,0,0,0,0,0,0,0,-1,713,1338,-11.8597,-0.384927
-504,-314,-11.4322,-0.187378,0,0,0,0,0,0,0,-1,720,1338,-11.4322,0.187381
-497,-314,-11.0047,-0.759644,0,0,0,0,0,0,0,-1,727,1338,-11.0047,0.759689
-490,-314,-18.5143,0.471069,0,0,0,0,0,0,0,-1,734,1338,-18.5143,-0.47103
-483,-314,-17.8528,0.577271,0,0,0,0,0,0,0,-1,741,1338,-17.8528,-0.577327
-476,-314,-17.714,0.665405,0,0,0,0,0,0,0,-1,748,1338,-17.714,-0.665388
-469,-314,-17.7246,0.794678,0,0,0,0,0,0,0,-1,755,1338,-17.7246,-0.794645
-462,-314,0,0,0,0,0,0,0,0,0,-1,762,1338,0,0
-455,-314,0,0,0,0,0,0,0,0,0,-1,769,1338,0,0
-448,-314,0,0,0,0,0,0,0,0,0,-1,776,1338,0,0
-441,-314,0,0,0,0,0,0,0,0,0,-1,783,1338,0,0
-434,-314,0,0,0,0,0,0,0,0,0,-1,790,1338,0,0
-427,-314,0,0,0,0,0,0,0,0,0,-1,797,1338,0,0
-420,-314,0,0,0,0,0,0,0,0,0,-1,804,1338,0,0
-413,-314,0,0,0,0,0,0,0,0,0,-1,811,1338,0,0
-406,-314,0,0,0,0,0,0,0,0,0,-1,818,1338,0,0
-399,-314,0,0,0,0,0,0,0,0,0,-1,825,1338,0,0
-392,-314,0,0,0,0,0,0,0,0,0,-1,832,1338,0,0
-385,-314,0,0,0,0,0,0,0,0,0,-1,839,1338,0,0
-378,-314,0,0,0,0,0,0,0,0,0,-1,846,1338,0,0
-371,-314,0,0,0,0,0,0,0,0,0,-1,853,1338,0,0
-364,-314,0,0,0,0,0,0,0,0,0,-1,860,1338,0,0
-357,-314,0,0,0,0,0,0,0,0,0,-1,867,1338,0,0
-350,-314,0,0,0,0,0,0,0,0,0,-1,874,1338,0,0
-343,-314,0,0,0,0,0,0,0,0,0,-1,881,1338,0,0
-336,-314,0,0,0,0,0,0,0,0,0,-1,888,1338,0,0
-329,-314,0,0,0,0,0,0,0,0,0,-1,895,1338,0,0
-322,-314,0,0,0,0,0,0,0,0,0,-1,902,1338,0,0
-315,-314,0,0,0,0,0,0,0,0,0,-1,909,1338,0,0
-308,-314,0,0,0,0,0,0,0,0,0,-1,916,1338,0,0
-301,-314,0,0,0,0,0,0,0,0,0,-1,923,1338,0,0
-294,-314,0,0,0,0,0,0,0,0,0,-1,930,1338,0,0
-287,-314,0,0,0,0,0,0,0,0,0,-1,937,1338,0,0
-280,-314,0,0,0,0,0,0,0,0,0,-1,944,1338,0,0
-273,-314,0,0,0,0,0,0,0,0,0,-1,951,1338,0,0
-266,-314,0,0,0,0,0,0,0,0,0,-1,958,1338,0,0
-259,-314,0,0,0,0,0,0,0,0,0,-1,965,1338,0,0
-252,-314,0,0,0,0,0,0,0,0,0,-1,972,1338,0,0
-245,-314,0,0,0,0,0,0,0,0,0,-1,979,1338,0,0
-238,-314,0,0,0,0,0,0,0,0,0,-1,986,1338,0,0
-231,-314,0,0,0,0,0,0,0,0,0,-1,993,1338,0,0
-224,-314,0,0,0,0,0,0,0,0,0,-1,1000,1338,0,0
-217,-314,0,0,0,0,0,0,0,0,0,-1,1007,1338,0,0
-210,-314,0,0,0,0,0,0,0,0,0,-1,1014,1338,0,0
-203,-314,0,0,0,0,0,0,0,0,0,-1,1021,1338,0,0
-196,-314,0,0,0,0,0,0,0,0,0,-1,1028,1338,0,0
-189,-314,0,0,0,0,0,0,0,0,0,-1,1035,1338,0,0
-182,-314,0,0,0,0,0,0,0,0,0,-1,1042,1338,0,0
-175,-314,0,0,0,0,0,0,0,0,0,-1,1049,1338,0,0
-168,-314,0,0,0,0,0,0,0,0,0,-1,1056,1338,0,0
-161,-314,0,0,0,0,0,0,0,0,0,-1,1063,1338,0,0
-154,-314,0,0,0,0,0,0,0,0,0,-1,1070,1338,0,0
-147,-314,0,0,0,0,0,0,0,0,0,-1,1077,1338,0,0
-140,-314,0,0,0,0,0,0,0,0,0,-1,1084,1338,0,0
-133,-314,0,0,0,0,0,0,0,0,0,-1,1091,1338,0,0
-126,-314,0,0,0,0,0,0,0,0,0,-1,1098,1338,0,0
-119,-314,0,0,0,0,0,0,0,0,0,-1,1105,1338,0,0
-112,-314,0,0,0,0,0,0,0,0,0,-1,1112,1338,0,0
-105,-314,0,0,0,0,0,0,0,0,0,-1,1119,1338,0,0
-98,-314,0,0,0,0,0,0,0,0,0,-1,1126,1338,0,0
-91,-314,0,0,0,0,0,0,0,0,0,-1,1133,1338,0,0
-84,-314,0,0,0,0,0,0,0,0,0,-1,1140,1338,0,0
-77,-314,0,0,0,0,0,0,0,0,0,-1,1147,1338,0,0
-70,-314,0,0,0,0,0,0,0,0,0,-1,1154,1338,0,0
-63,-314,0,0,0,0,0,0,0,0,0,-1,1161,1338,0,0
-56,-314,0,0,0,0,0,0,0,0,0,-1,1168,1338,0,0
-49,-314,0,0,0,0,0,0,0,0,0,-1,1175,1338,0,0
-42,-314,0,0,0,0,0,0,0,0,0,-1,1182,1338,0,0
-35,-314,0,0,0,0,0,0,0,0,0,-1,1189,1338,0,0
-28,-314,0,0,0,0,0,0,0,0,0,-1,1196,1338,0,0
-21,-314,0,0,0,0,0,0,0,0,0,-1,1203,1338,0,0
-14,-314,0,0,0,0,0,0,0,0,0,-1,1210,1338,0,0
-7,-314,0,0,0,0,0,0,0,0,0,-1,1217,1338,0,0
0,-314,0,0,0,0,0,0,0,0,0,-1,1224,1338,0,0
7,-314,0,0,0,0,0,0,0,0,0,-1,1231,1338,0,0
14,-314,0,0,0,0,0,0,0,0,0,-1,1238,1338,0,0
21,-314,0,0,0,0,0,0,0,0,0,-1,1245,1338,0,0
28,-314,0,0,0,0,0,0,0,0,0,-1,1252,1338,0,0
35,-314,0,0,0,0,0,0,0,0,0,-1,1259,1338,0,0
42,-314,0,0,0,0,0,0,0,0,0,-1,1266,1338,0,0
49,-314,0,0,0,0,0,0,0,0,0,-1,1273,1338,0,0
56,-314,0,0,0,0,0,0,0,0,0,-1,1280,1338,0,0
63,-314,0,0,0,0,0,0,0,0,0,-1,1287,1338,0,0
70,-314,0,0,0,0,0,0,0,0,0,-1,1294,1338,0,0
77,-314,0,0,0,0,0,0,0,0,0,-1,1301,1338,0,0
84,-314,0,0,0,0,0,0,0,0,0,-1,1308,1338,0,0
91,-314,0,0,0,0,0,0,0,0,0,-1,1315,1338,0,0
98,-314,0,0,0,0,0,0,0,0,0,-1,1322,1338,0,0
105,-314,0,0,0,0,0,0,0,0,0,-1,1329,1338,0,0
112,-314,0,0,0,0,0,0,0,0,0,-1,1336,1338,0,0
119,-314,0,0,0,0,0,0,0,0,0,-1,1343,1338,0,0
126,-314,0,0,0,0,0,0,0,0,0,-1,1350,1338,0,0
133,-314,0,0,0,0,0,0,0,0,0,-1,1357,1338,0,0
140,-314,0,0,0,0,0,0,0,0,0,-1,1364,1338,0,0
147,-314,0,0,0,0,0,0,0,0,0,-1,1371,1338,0,0
154,-314,0,0,0,0,0,0,0,0,0,-1,1378,1338,0,0
161,-314,0,0,0,0,0,0,0,0,0,-1,1385,1338,0,0
168,-314,0,0,0,0,0,0,0,0,0,-1,1392,1338,0,0
175,-314,0,0,0,0,0,0,0,0,0,-1,1399,1338,0,0
182,-314,0,0,0,0,0,0,0,0,0,-1,1406,1338,0,0
189,-314,0,0,0,0,0,0,0,0,0,-1,1413,1338,0,0
196,-314,0,0,0,0,0,0,0,0,0,-1,1420,1338,0,0
203,-314,0,0,0,0,0,0,0,0,0,-1,1427,1338,0,0
210,-314,0,0,0,0,0,0,0,0,0,-1,1434,1338,0,0
217,-314,0,0,0,0,0,0,0,0,0,-1,1441,1338,0,0
224,-314,0,0,0,0,0,0,0,0,0,-1,1448,1338,0,0
231,-314,0,0,0,0,0,0,0,0,0,-1,1455,1338,0,0
238,-314,0,0,0,0,0,0,0,0,0,-1,1462,1338,0,0
245,-314,0,0,0,0,0,0,0,0,0,-1,1469,1338,0,0
252,-314,0,0,0,0,0,0,0,0,0,-1,1476,1338,0,0
259,-314,0,0,0,0,0,0,0,0,0,-1,1483,1338,0,0
266,-314,0,0,0,0,0,0,0,0,0,-1,1490,1338,0,0
273,-314,0,0,0,0,0,0,0,0,0,-1,1497,1338,0,0
280,-314,0,0,0,0,0,0,0,0,0,-1,1504,1338,0,0
287,-314,0,0,0,0,0,0,0,0,0,-1,1511,1338,0,0
294,-314,0,0,0,0,0,0,0,0,0,-1,1518,1338,0,0
301,-314,0,0,0,0,0,0,0,0,0,-1,1525,1338,0,0
308,-314,0,0,0,0,0,0,0,0,0,-1,1532,1338,0,0
315,-314,0,0,0,0,0,0,0,0,0,-1,1539,1338,0,0
322,-314,0,0,0,0,0,0,0,0,0,-1,1546,1338,0,0
329,-314,0,0,0,0,0,0,0,0,0,-1,1553,1338,0,0
336,-314,0,0,0,0,0,0,0,0,0,-1,1560,1338,0,0
343,-314,0,0,0,0,0,0,0,0,0,-1,1567,1338,0,0
350,-314,0,0,0,0,0,0,0,0,0,-1,1574,1338,0,0
357,-314,0,0,0,0,0,0,0,0,0,-1,1581,1338,0,0
364,-314,0,0,0,0,0,0,0,0,0,-1,1588,1338,0,0
371,-314,0,0,0,0,0,0,0,0,0,-1,1595,1338,0,0
378,-314,0,0,0,0,0,0,0,0,0,-1,1602,1338,0,0
385,-314,0,0,0,0,0,0,0,0,0,-1,1609,1338,0,0
392,-314,0,0,0,0,0,0,0,0,0,-1,1616,1338,0,0
399,-314,0,0,0,0,0,0,0,0,0,-1,1623,1338,0,0
406,-314,0,0,0,0,0,0,0,0,0,-1,1630,1338,0,0
413,-314,0,0,0,0,0,0,0,0,0,-1,1637,1338,0,0
420,-314,0,0,0,0,0,0,0,0,0,-1,1644,1338,0,0
427,-314,0,0,0,0,0,0,0,0,0,-1,1651,1338,0,0
434,-314,0,0,0,0,0,0,0,0,0,-1,1658,1338,0,0
441,-314,0,0,0,0,0,0,0,0,0,-1,1665,1338,0,0
448,-314,0,0,0,0,0,0,0,0,0,-1,1672,1338,0,0
455,-314,0,0,0,0,0,0,0,0,0,-1,1679,1338,0,0
462,-314,0,0,0,0,0,0,0,0,0,-1,1686,1338,0,0
469,-314,0,0,0,0,0,0,0,0,0,-1,1693,1338,0,0
476,-314,0,0,0,0,0,0,0,0,0,-1,1700,1338,0,0
483,-314,0,0,0,0,0,0,0,0,0,-1,1707,1338,0,0
490,-314,0,0,0,0,0,0,0,0,0,-1,1714,1338,0,0
497,-314,0,0,0,0,0,0,0,0,0,-1,1721,1338,0,0
504,-314,0,0,0,0,0,0,0,0,0,-1,1728,1338,0,0
511,-314,0,0,0,0,0,0,0,0,0,-1,1735,1338,0,0
518,-314,0,0,0,0,0,0,0,0,0,-1,1742,1338,0,0
525,-314,0,0,0,0,0,0,0,0,0,-1,1749,1338,0,0
532,-314,0,0,0,0,0,0,0,0,0,-1,1756,1338,0,0
539,-314,0,0,0,0,0,0,0,0,0,-1,1763,1338,0,0
546,-314,0,0,0,0,0,0,0,0,0,-1,1770,1338,0,0
553,-314,0,0,0,0,0,0,0,0,0,-1,1777,1338,0,0
560,-314,0,0,0,0,0,0,0,0,0,-1,1784,1338,0,0
567,-314,0,0,0,0,0,0,0,0,0,-1,1791,1338,0,0
574,-314,0,0,0,0,0,0,0,0,0,-1,1798,1338,0,0
581,-314,66.1637,1.86658,0,0,0,0,0,0,0,-1,1805,1338,66.1637,-1.86663
588,-314,66.4303,1.43481,0,0,0,0,0,0,0,-1,1812,1338,66.4303,-1.43487
595,-314,66.7465,0.982788,0,0,0,0,0,0,0,-1,1819,1338,66.7464,-0.982795
602,-314,66.322,1.38416,0,0,0,0,0,0,0,-1,1826,1338,66.322,-1.3842
609,-314,60.2225,1.27014,0,0,0,0,0,0,0,-1,1833,1338,60.2225,-1.27017
616,-314,48.1149,3.005,0,0,0,0,0,0,0,-1,1840,1338,48.1149,-3.00505
623,-314,38.7728,2.71741,0,0,0,0,0,0,0,-1,1847,1338,38.7728,-2.71737
630,-314,29.4308,6.23206,0,0,0,0,0,0,0,-1,1854,1338,29.4308,-6.23202
637,-314,22.1349,5.16418,0,0,0,0,0,0,0,-1,1861,1338,22.1349,-5.16414
644,-314,18.7517,6.2605,0,0,0,0,0,0,0,-1,1868,1338,18.7517,-6.26053
651,-314,23.1317,8.005,0,0,0,0,0,0,0,-1,1875,1338,23.1317,-8.00506
658,-314,48.7136,18.2872,0,0,0,0,0,0,0,-1,1882,1338,48.7136,-18.2873
665,-314,48.6418,17.5516,0.00108754,0.00445055,-0.00291155,0.00613127,-0.000593183,-1.04726,0.0042989,0.047389,1889,1338,48.6419,-17.5517
672,-314,48.6866,16.7762,0.0011453,0.0022994,-0.00184507,0.00365556,-0.000210852,-0.936954,0.00251027,0.015283,1896,1338,48.6867,-16.7763
679,-314,48.6477,15.9614,0.00127275,0.00094538,-0.00100412,0.00212644,9.16937e-05,-0.704601,0.00138807,0.0116041,1903,1338,48.6477,-15.9614
686,-314,48.5808,15.157,0.00127843,-2.52398e-05,-0.000468968,0.0014296,-0.000176412,-0.311833,0.00101698,0.0124761,1910,1338,48.5808,-15.1569
693,-314,48.5217,14.3568,0.00113813,-0.000133868,-0.000139052,0.00115316,-0.000148891,-0.107624,0.000822905,0.0121727,1917,1338,48.5218,-14.3569
700,-314,48.5054,13.554,0.00104197,-0.000273421,0.000260256,0.00109159,-0.000323042,0.188401,0.000855973,0.0146152,1924,1338,48.5054,-13.554
707,-314,48.5044,12.7866,0.000891868,-0.000490979,0.000737112,0.00121109,-0.000810199,0.408685,0.00117462,0.0146197,1931,1338,48.5044,-12.7867
714,-314,48.4404,12.0571,0.000689833,-0.000814425,0.00133672,0.00147149,-0.00159609,0.529139,0.00177155,0.0125137,1938,1338,48.4404,-12.0572
721,-314,48.4006,11.3057,0.000462552,-0.00131951,0.00210752,0.00185966,-0.00271662,0.585401,0.00265751,0.0267606,1945,1338,48.4006,-11.3056
728,-314,48.7008,10.8844,0,0,0,0,0,0,0,-1,1952,1338,48.7008,-10.8844
735,-314,26.3665,6.21582,0,0,0,0,0,0,0,-1,1959,1338,26.3664,-6.21581
742,-314,26.2235,6.0166,0,0,0,0,0,0,0,-1,1966,1338,26.2235,-6.01662
749,-314,26.2223,5.47046,0,0,0,0,0,0,0,-1,1973,1338,26.2223,-5.47041
756,-314,24.2521,5.93408,0,0,0,0,0,0,0,-1,1980,1338,24.252,-5.93413
763,-314,19.2207,4.07239,0,0,0,0,0,0,0,-1,1987,1338,19.2206,-4.07239
770,-314,0,0,0,0,0,0,0,0,0,-1,1994,1338,0,0
777,-314,0,0,0,0,0,0,0,0,0,-1,2001,1338,0,0
784,-314,0,0,0,0,0,0,0,0,0,-1,2008,1338,0,0
791,-314,0,0,0,0,0,0,0,0,0,-1,2015,1338,0,0
798,-314,0,0,0,0,0,0,0,0,0,-1,2022,1338,0,0
805,-314,0,0,0,0,0,0,0,0,0,-1,2029,1338,0,0
812,-314,0,0,0,0,0,0,0,0,0,-1,2036,1338,0,0
-700,-321,0,0,0,0,0,0,0,0,0,-1,524,1345,0,0
-693,-321,0,0,0,0,0,0,0,0,0,-1,531,1345,0,0
-686,-321,0,0,0,0,0,0,0,0,0,-1,538,1345,0,0
-679,-321,0,0,0,0,0,0,0,0,0,-1,545,1345,0,0
-672,-321,0,0,0,0,0,0,0,0,0,-1,552,1345,0,0
-665,-321,0,0,0,0,0,0,0,0,0,-1,559,1345,0,0
-658,-321,0,0,0,0,0,0,0,0,0,-1,566,1345,0,0
-651,-321,0,0,0,0,0,0,0,0,0,-1,573,1345,0,0
-644,-321,-58.7329,10.2313,0,0,0,0,0,0,0,-1,580,1345,-58.7329,-10.2313
-637,-321,-59.9981,9.06421,0,0,0,0,0,0,0,-1,587,1345,-59.9981,-9.06417
-630,-321,-61.377,8.07166,0,0,0,0,0,0,0,-1,594,1345,-61.3769,-8.07168
-623,-321,-13.2242,3.14148,0,0,0,0,0,0,0,-1,601,1345,-13.2243,-3.14146
-616,-321,-11.6754,3.13794,0,0,0,0,0,0,0,-1,608,1345,-11.6754,-3.13789
-609,-321,-7.95209,1.14758,0,0,0,0,0,0,0,-1,615,1345,-7.95208,-1.14757
-602,-321,-8.85791,2.50049,0,0,0,0,0,0,0,-1,622,1345,-8.85791,-2.50048
-595,-321,-19.8463,5.36584,0,0,0,0,0,0,0,-1,629,1345,-19.8462,-5.36589
-588,-321,-30.789,10.4949,0,0,0,0,0,0,0,-1,636,1345,-30.789,-10.4949
-581,-321,-30.6546,11.4209,0.00343606,0.00367174,0.00238571,0.00594252,0.00116528,0.810075,0.00363603,0.0149621,643,1345,-30.6546,-11.4209
-574,-321,-30.7036,12.2432,0.00307391,0.00272069,0.00183991,0.00474566,0.00104893,0.73755,0.00287856,0.0162732,650,1345,-30.7036,-12.2431
-567,-321,-30.7322,13.0676,0.0029634,0.00190369,0.00151127,0.00403501,0.000832075,0.616793,0.00246001,0.0231605,657,1345,-30.7322,-13.0676
-560,-321,-30.7531,13.875,0.00307407,0.00119613,0.00137735,0.00380206,0.000468142,0.486222,0.00239396,0.0263112,664,1345,-30.753,-13.875
-553,-321,-30.7563,14.6874,0.00339289,0.000595766,0.00142329,0.00398976,-1.10175e-06,0.397081,0.00266021,0.0271062,671,1345,-30.7563,-14.6874
-546,-321,-30.8284,15.524,0.00391496,6.99988e-05,0.0016287,0.00451212,-0.00052716,0.351429,0.00319831,0.0262872,678,1345,-30.8284,-15.524
-539,-321,-30.8857,16.3116,0.00468342,-0.000347791,0.00203707,0.00540477,-0.00106915,0.340336,0.00400739,0.0242377,685,1345,-30.8858,-16.3117
-532,-321,-30.8554,17.1158,0.00580531,-0.000627051,0.00267433,0.00677194,-0.00159368,0.346835,0.00512906,0.0367365,692,1345,-30.8554,-17.1159
-525,-321,-30.8506,17.9183,0,0,0,0,0,0,0,-1,699,1345,-30.8506,-17.9184
-518,-321,-10.3564,6.75696,0,0,0,0,0,0,0,-1,706,1345,-10.3564,-6.75694
-511,-321,-9.3302,5.29297,0,0,0,0,0,0,0,-1,713,1345,-9.33023,-5.29294
-504,-321,-10.4713,0.0145264,0,0,0,0,0,0,0,-1,720,1345,-10.4713,-0.0145296
-497,-321,-9.96771,0.313599,0,0,0,0,0,0,0,-1,727,1345,-9.96769,-0.313618
-490,-321,-10.7631,0.973511,0,0,0,0,0,0,0,-1,734,1345,-10.7631,-0.97353
-483,-321,-17.5908,0.2323,0,0,0,0,0,0,0,-1,741,1345,-17.5908,-0.232355
-476,-321,-17.2915,0.297363,0,0,0,0,0,0,0,-1,748,1345,-17.2915,-0.297342
-469,-321,-17.2441,0.478027,0,0,0,0,0,0,0,-1,755,1345,-17.2441,-0.477994
-462,-321,-17.1672,0.526489,0,0,0,0,0,0,0,-1,762,1345,-17.1672,-0.526533
-455,-321,0,0,0,0,0,0,0,0,0,-1,769,1345,0,0
-448,-321,0,0,0,0,0,0,0,0,0,-1,776,1345,0,0
-441,-321,0,0,0,0,0,0,0,0,0,-1,783,1345,0,0
-434,-321,0,0,0,0,0,0,0,0,0,-1,790,1345,0,0
-427,-321,0,0,0,0,0,0,0,0,0,-1,797,1345,0,0
-420,-321,0,0,0,0,0,0,0,0,0,-1,804,1345,0,0
-413,-321,0,0,0,0,0,0,0,0,0,-1,811,1345,0,0
-406,-321,0,0,0,0,0,0,0,0,0,-1,818,1345,0,0
-399,-321,0,0,0,0,0,0,0,0,0,-1,825,1345,0,0
-392,-321,0,0,0,0,0,0,0,0,0,-1,832,1345,0,0
-385,-321,0,0,0,0,0,0,0,0,0,-1,839,1345,0,0
-378,-321,0,0,0,0,0,0,0,0,0,-1,846,1345,0,0
-371,-321,0,0,0,0,0,0,0,0,0,-1,853,1345,0,0
-364,-321,0,0,0,0,0,0,0,0,0,-1,860,1345,0,0
-357,-321,0,0,0,0,0,0,0,0,0,-1,867,1345,0,0
-350,-321,0,0,0,0,0,0,0,0,0,-1,874,1345,0,0
-343,-321,0,0,0,0,0,0,0,0,0,-1,881,1345,0,0
-336,-321,0,0,0,0,0,0,0,0,0,-1,888,1345,0,0
-329,-321,0,0,0,0,0,0,0,0,0,-1,895,1345,0,0
-322,-321,0,0,0,0,0,0,0,0,0,-1,902,1345,0,0
-315,-321,0,0,0,0,0,0,0,0,0,-1,909,1345,0,0
-308,-321,0,0,0,0,0,0,0,0,0,-1,916,1345,0,0
-301,-321,0,0,0,0,0,0,0,0,0,-1,923,1345,0,0
-294,-321,0,0,0,0,0,0,0,0,0,-1,930,1345,0,0
-287,-321,0,0,0,0,0,0,0,0,0,-1,937,1345,0,0
-280,-321,0,0,0,0,0,0,0,0,0,-1,944,1345,0,0
-273,-321,0,0,0,0,0,0,0,0,0,-1,951,1345,0,0
-266,-321,0,0,0,0,0,0,0,0,0,-1,958,1345,0,0
-259,-321,0,0,0,0,0,0,0,0,0,-1,965,1345,0,0
-252,-321,0,0,0,0,0,0,0,0,0,-1,972,1345,0,0
-245,-321,0,0,0,0,0,0,0,0,0,-1,979,1345,0,0
-238,-321,0,0,0,0,0,0,0,0,0,-1,986,1345,0,0
-231,-321,0,0,0,0,0,0,0,0,0,-1,993,1345,0,0
-224,-321,0,0,0,0,0,0,0,0,0,-1,1000,1345,0,0
-217,-321,0,0,0,0,0,0,0,0,0,-1,1007,1345,0,0
-210,-321,0,0,0,0,0,0,0,0,0,-1,1014,1345,0,0
-203,-321,0,0,0,0,0,0,0,0,0,-1,1021,1345,0,0
-196,-321,0,0,0,0,0,0,0,0,0,-1,1028,1345,0,0
-189,-321,0,0,0,0,0,0,0,0,0,-1,1035,1345,0,0
-182,-321,0,0,0,0,0,0,0,0,0,-1,1042,1345,0,0
-175,-321,0,0,0,0,0,0,0,0,0,-1,1049,1345,0,0
-168,-321,0,0,0,0,0,0,0,0,0,-1,1056,1345,0,0
-161,-321,0,0,0,0,0,0,0,0,0,-1,1063,1345,0,0
-154,-321,0,0,0,0,0,0,0,0,0,-1,1070,1345,0,0
-147,-321,0,0,0,0,0,0,0,0,0,-1,1077,1345,0,0
-140,-321,0,0,0,0,0,0,0,0,0,-1,1084,1345,0,0
-133,-321,0,0,0,0,0,0,0,0,0,-1,1091,1345,0,0
-126,-321,0,0,0,0,0,0,0,0,0,-1,1098,1345,0,0
-119,-321,0,0,0,0,0,0,0,0,0,-1,1105,1345,0,0
-112,-321,0,0,0,0,0,0,0,0,0,-1,1112,1345,0,0
-105,-321,0,0,0,0,0,0,0,0,0,-1,1119,1345,0,0
-98,-321,0,0,0,0,0,0,0,0,0,-1,1126,1345,0,0
-91,-321,0,0,0,0,0,0,0,0,0,-1,1133,1345,0,0
-84,-321,0,0,0,0,0,0,0,0,0,-1,1140,1345,0,0
-77,-321,0,0,0,0,0,0,0,0,0,-1,1147,1345,0,0
-70,-321,0,0,0,0,0,0,0,0,0,-1,1154,1345,0,0
-63,-321,0,0,0,0,0,0,0,0,0,-1,1161,1345,0,0
-56,-321,0,0,0,0,0,0,0,0,0,-1,1168,1345,0,0
-49,-321,0,0,0,0,0,0,0,0,0,-1,1175,1345,0,0
-42,-321,0,0,0,0,0,0,0,0,0,-1,1182,1345,0,0
-35,-321,0,0,0,0,0,0,0,0,0,-1,1189,1345,0,0
-28,-321,0,0,0,0,0,0,0,0,0,-1,1196,1345,0,0
-21,-321,0,0,0,0,0,0,0,0,0,-1,1203,1345,0,0
-14,-321,0,0,0,0,0,0,0,0,0,-1,1210,1345,0,0
-7,-321,0,0,0,0,0,0,0,0,0,-1,1217,1345,0,0
0,-321,0,0,0,0,0,0,0,0,0,-1,1224,1345,0,0
7,-321,0,0,0,0,0,0,0,0,0,-1,1231,1345,0,0
14,-321,0,0,0,0,0,0,0,0,0,-1,1238,1345,0,0
21,-321,0,0,0,0,0,0,0,0,0,-1,1245,1345,0,0
28,-321,0,0,0,0,0,0,0,0,0,-1,1252,1345,0,0
35,-321,0,0,0,0,0,0,0,0,0,-1,1259,1345,0,0
42,-321,0,0,0,0,0,0,0,0,0,-1,1266,1345,0,0
49,-321,0,0,0,0,0,0,0,0,0,-1,1273,1345,0,0
56,-321,0,0,0,0,0,0,0,0,0,-1,1280,1345,0,0
63,-321,0,0,0,0,0,0,0,0,0,-1,1287,1345,0,0
70,-321,0,0,0,0,0,0,0,0,0,-1,1294,1345,0,0
77,-321,0,0,0,0,0,0,0,0,0,-1,1301,1345,0,0
84,-321,0,0,0,0,0,0,0,0,0,-1,1308,1345,0,0
91,-321,0,0,0,0,0,0,0,0,0,-1,1315,1345,0,0
98,-321,0,0,0,0,0,0,0,0,0,-1,1322,1345,0,0
105,-321,0,0,0,0,0,0,0,0,0,-1,1329,1345,0,0
112,-321,0,0,0,0,0,0,0,0,0,-1,1336,1345,0,0
119,-321,0,0,0,0,0,0,0,0,0,-1,1343,1345,0,0
126,-321,0,0,0,0,0,0,0,0,0,-1,1350,1345,0,0
133,-321,0,0,0,0,0,0,0,0,0,-1,1357,1345,0,0
140,-321,0,0,0,0,0,0,0,0,0,-1,1364,1345,0,0
147,-321,0,0,0,0,0,0,0,0,0,-1,1371,1345,0,0
154,-321,0,0,0,0,0,0,0,0,0,-1,1378,1345,0,0
161,-321,0,0,0,0,0,0,0,0,0,-1,1385,1345,0,0
168,-321,0,0,0,0,0,0,0,0,0,-1,1392,1345,0,0
175,-321,0,0,0,0,0,0,0,0,0,-1,1399,1345,0,0
182,-321,0,0,0,0,0,0,0,0,0,-1,1406,1345,0,0
189,-321,0,0,0,0,0,0,0,0,0,-1,1413,1345,0,0
196,-321,0,0,0,0,0,0,0,0,0,-1,1420,1345,0,0
203,-321,0,0,0,0,0,0,0,0,0,-1,1427,1345,0,0
210,-321,0,0,0,0,0,0,0,0,0,-1,1434,1345,0,0
217,-321,0,0,0,0,0,0,0,0,0,-1,1441,1345,0,0
224,-321,0,0,0,0,0,0,0,0,0,-1,1448,1345,0,0
231,-321,0,0,0,0,0,0,0,0,0,-1,1455,1345,0,0
238,-321,0,0,0,0,0,0,0,0,0,-1,1462,1345,0,0
245,-321,0,0,0,0,0,0,0,0,0,-1,1469,1345,0,0
252,-321,0,0,0,0,0,0,0,0,0,-1,1476,1345,0,0
259,-321,0,0,0,0,0,0,0,0,0,-1,1483,1345,0,0
266,-321,0,0,0,0,0,0,0,0,0,-1,1490,1345,0,0
273,-321,0,0,0,0,0,0,0,0,0,-1,1497,1345,0,0
280,-321,0,0,0,0,0,0,0,0,0,-1,1504,1345,0,0
287,-321,0,0,0,0,0,0,0,0,0,-1,1511,1345,0,0
294,-321,0,0,0,0,0,0,0,0,0,-1,1518,1345,0,0
301,-321,0,0,0,0,0,0,0,0,0,-1,1525,1345,0,0
308,-321,0,0,0,0,0,0,0,0,0,-1,1532,1345,0,0
315,-321,0,0,0,0,0,0,0,0,0,-1,1539,1345,0,0
322,-321,0,0,0,0,0,0,0,0,0,-1,1546,1345,0,0
329,-321,0,0,0,0,0,0,0,0,0,-1,1553,1345,0,0
336,-321,0,0,0,0,0,0,0,0,0,-1,1560,1345,0,0
343,-321,0,0,0,0,0,0,0,0,0,-1,1567,1345,0,0
350,-321,0,0,0,0,0,0,0,0,0,-1,1574,1345,0,0
357,-321,0,0,0,0,0,0,0,0,0,-1,1581,1345,0,0
364,-321,0,0,0,0,0,0,0,0,0,-1,1588,1345,0,0
371,-321,0,0,0,0,0,0,0,0,0,-1,1595,1345,0,0
378,-321,0,0,0,0,0,0,0,0,0,-1,1602,1345,0,0
385,-321,0,0,0,0,0,0,0,0,0,-1,1609,1345,0,0
392,-321,0,0,0,0,0,0,0,0,0,-1,1616,1345,0,0
399,-321,0,0,0,0,0,0,0,0,0,-1,1623,1345,0,0
406,-321,0,0,0,0,0,0,0,0,0,-1,1630,1345,0,0
413,-321,0,0,0,0,0,0,0,0,0,-1,1637,1345,0,0
420,-321,0,0,0,0,0,0,0,0,0,-1,1644,1345,0,0
427,-321,0,0,0,0,0,0,0,0,0,-1,1651,1345,0,0
434,-321,0,0,0,0,0,0,0,0,0,-1,1658,1345,0,0
441,-321,0,0,0,0,0,0,0,0,0,-1,1665,1345,0,0
448,-321,0,0,0,0,0,0,0,0,0,-1,1672,1345,0,0
455,-321,0,0,0,0,0,0,0,0,0,-1,1679,1345,0,0
462,-321,0,0,0,0,0,0,0,0,0,-1,1686,1345,0,0
469,-321,0,0,0,0,0,0,0,0,0,-1,1693,1345,0,0
476,-321,0,0,0,0,0,0,0,0,0,-1,1700,1345,0,0
483,-321,0,0,0,0,0,0,0,0,0,-1,1707,1345,0,0
490,-321,0,0,0,0,0,0,0,0,0,-1,1714,1345,0,0
497,-321,0,0,0,0,0,0,0,0,0,-1,1721,1345,0,0
504,-321,0,0,0,0,0,0,0,0,0,-1,1728,1345,0,0
511,-321,0,0,0,0,0,0,0,0,0,-1,1735,1345,0,0
518,-321,0,0,0,0,0,0,0,0,0,-1,1742,1345,0,0
525,-321,0,0,0,0,0,0,0,0,0,-1,1749,1345,0,0
532,-321,0,0,0,0,0,0,0,0,0,-1,1756,1345,0,0
539,-321,0,0,0,0,0,0,0,0,0,-1,1763,1345,0,0
546,-321,0,0,0,0,0,0,0,0,0,-1,1770,1345,0,0
553,-321,0,0,0,0,0,0,0,0,0,-1,1777,1345,0,0
560,-321,0,0,0,0,0,0,0,0,0,-1,1784,1345,0,0
567,-321,0,0,0,0,0,0,0,0,0,-1,1791,1345,0,0
574,-321,0,0,0,0,0,0,0,0,0,-1,1798,1345,0,0
581,-321,66.1073,1.6543,0,0,0,0,0,0,0,-1,1805,1345,66.1073,-1.65427
588,-321,66.6576,0.7948,0,0,0,0,0,0,0,-1,1812,1345,66.6575,-0.794774
595,-321,67.2585,-0.216431,0,0,0,0,0,0,0,-1,1819,1345,67.2586,0.216484
602,-321,60.3523,1.24133,0,0,0,0,0,0,0,-1,1826,1345,60.3523,-1.2413
609,-321,48.311,3.39575,0,0,0,0,0,0,0,-1,1833,1345,48.311,-3.39571
616,-321,37.8107,2.58704,0,0,0,0,0,0,0,-1,1840,1345,37.8106,-2.58705
623,-321,37.6854,3.68933,0,0,0,0,0,0,0,-1,1847,1345,37.6854,-3.68931
630,-321,23.6674,4.34106,0,0,0,0,0,0,0,-1,1854,1345,23.6674,-4.34112
637,-321,21.7925,6.79224,0,0,0,0,0,0,0,-1,1861,1345,21.7925,-6.7922
644,-321,16.8844,6.71973,0,0,0,0,0,0,0,-1,1868,1345,16.8844,-6.71971
651,-321,27.4924,10.0319,0,0,0,0,0,0,0,-1,1875,1345,27.4924,-10.0319
658,-321,47.8949,18.3759,0,0,0,0,0,0,0,-1,1882,1345,47.8949,-18.3758
665,-321,47.9359,17.5867,0.00119166,0.00228554,-0.00206487,0.00387468,-0.000397478,-0.914863,0.00272529,0.0302316,1889,1345,47.9359,-17.5867
672,-321,47.9038,16.8021,0.00121356,0.00103373,-0.00131584,0.00244256,-0.000195261,-0.751285,0.00169721,0.0146386,1896,1345,47.9038,-16.8021
679,-321,47.8643,16.0013,0.00128076,0.000422993,-0.000795252,0.00175541,-5.16532e-05,-0.5381,0.00118786,0.0124585,1903,1345,47.8642,-16.0013
686,-321,47.7872,15.2043,0.0012797,-8.12263e-06,-0.000446908,0.00141959,-0.000148015,-0.303361,0.000999395,0.0129059,1910,1345,47.7873,-15.2044
693,-321,47.7322,14.4362,0.00122181,-6.02986e-05,-0.00022437,0.00125994,-9.84294e-05,-0.168338,0.000874618,0.0125888,1917,1345,47.7322,-14.4362
700,-321,47.7201,13.6558,0.00116314,-0.000147833,6.433e-05,0.00116629,-0.000150982,0.0489139,0.000832428,0.0132787,1924,1345,47.7201,-13.6558
707,-321,47.7008,12.863,0.00102888,-0.0003027,0.000428795,0.00115502,-0.000428832,0.286086,0.000945931,0.0152235,1931,1345,47.7008,-12.863
714,-321,47.6517,12.0717,0.000802567,-0.000552171,0.000919441,0.00126721,-0.00101682,0.467925,0.00132133,0.0145532,1938,1345,47.6517,-12.0717
721,-321,47.5465,11.2994,0.000489317,-0.00103993,0.0016127,0.00150948,-0.00206009,0.56403,0.00206905,0.0404383,1945,1345,47.5465,-11.2995
728,-321,47.5415,10.5803,0,0,0,0,0,0,0,-1,1952,1345,47.5415,-10.5803
735,-321,22.0081,5.65479,0,0,0,0,0,0,0,-1,1959,1345,22.008,-5.65481
742,-321,24.5398,5.05725,0,0,0,0,0,0,0,-1,1966,1345,24.5398,-5.05729
749,-321,24.0675,5.4458,0,0,0,0,0,0,0,-1,1973,1345,24.0675,-5.44581
756,-321,19.6251,4.98315,0,0,0,0,0,0,0,-1,1980,1345,19.6251,-4.98311
763,-321,19.6747,4.61438,0,0,0,0,0,0,0,-1,1987,1345,19.6747,-4.61436
770,-321,0,0,0,0,0,0,0,0,0,-1,1994,1345,0,0
777,-321,0,0,0,0,0,0,0,0,0,-1,2001,1345,0,0
784,-321,0,0,0,0,0,0,0,0,0,-1,2008,1345,0,0
791,-321,0,0,0,0,0,0,0,0,0,-1,2015,1345,0,0
798,-321,0,0,0,0,0,0,0,0,0,-1,2022,1345,0,0
805,-321,0,0,0,0,0,0,0,0,0,-1,2029,1345,0,0
812,-321,0,0,0,0,0,0,0,0,0,-1,2036,1345,0,0
-700,-328,0,0,0,0,0,0,0,0,0,-1,524,1352,0,0
-693,-328,0,0,0,0,0,0,0,0,0,-1,531,1352,0,0
-686,-328,0,0,0,0,0,0,0,0,0,-1,538,1352,0,0
-679,-328,0,0,0,0,0,0,0,0,0,-1,545,1352,0,0
-672,-328,0,0,0,0,0,0,0,0,0,-1,552,1352,0,0
-665,-328,0,0,0,0,0,0,0,0,0,-1,559,1352,0,0
-658,-328,0,0,0,0,0,0,0,0,0,-1,566,1352,0,0
-651,-328,0,0,0,0,0,0,0,0,0,-1,573,1352,0,0
-644,-328,0,0,0,0,0,0,0,0,0,-1,580,1352,0,0
-637,-328,-61.3883,10.1125,0,0,0,0,0,0,0,-1,587,1352,-61.3883,-10.1126
-630,-328,-62.8012,9.14563,0,0,0,0,0,0,0,-1,594,1352,-62.8012,-9.14564
-623,-328,-10.7739,4.55042,0,0,0,0,0,0,0,-1,601,1352,-10.7739,-4.55041
-616,-328,-8.22198,-0.25708,0,0,0,0,0,0,0,-1,608,1352,-8.22201,0.257067
-609,-328,-7.87439,0.192871,0,0,0,0,0,0,0,-1,615,1352,-7.87441,-0.192822
-602,-328,-7.63062,1.31665,0,0,0,0,0,0,0,-1,622,1352,-7.63064,-1.3166
-595,-328,-9.42639,2.93494,0,0,0,0,0,0,0,-1,629,1352,-9.42638,-2.93499
-588,-328,-29.9008,10.3795,0,0,0,0,0,0,0,-1,636,1352,-29.9008,-10.3795
-581,-328,-29.8332,11.4086,0.00413269,0.00455118,0.00298987,0.00733912,0.00134475,0.820333,0.0045118,0.0280442,643,1352,-29.8332,-11.4086
-574,-328,-29.8788,12.2865,0.00352789,0.00338082,0.00229763,0.00575316,0.00115555,0.7694,0.00351417,0.0162098,650,1352,-29.8788,-12.2865
-567,-328,-29.9406,13.1149,0.00322435,0.00242183,0.00186157,0.00472741,0.000918769,0.679248,0.00289437,0.0213381,657,1352,-29.9406,-13.1149
-560,-328,-29.9736,13.9534,0.00316919,0.00162319,0.00164944,0.00421778,0.000574604,0.566274,0.00264123,0.0278552,664,1352,-29.9736,-13.9533
-553,-328,-29.9457,14.7379,0.0033075,0.000951286,0.00161142,0.00412554,0.000133246,0.469751,0.00270704,0.0294532,671,1352,-29.9457,-14.7379
-546,-328,-29.989,15.5615,0.00364697,0.000390437,0.00173476,0.00439791,-0.000360506,0.408527,0.0030592,0.0274539,678,1352,-29.989,-15.5615
-539,-328,-30.0649,16.3577,0.00419255,-5.72065e-05,0.00203109,0.00500714,-0.000871787,0.381417,0.00366343,0.0228888,685,1352,-30.0649,-16.3576
-532,-328,-30.097,17.1798,0.00501354,-0.000378588,0.00251477,0.00600432,-0.00136937,0.37531,0.00452888,0.0190591,692,1352,-30.097,-17.1798
-525,-328,-30.1113,18.0858,0.00602714,-0.000597469,0.00316391,0.00729541,-0.00186574,0.381244,0.00559028,0.0344406,699,1352,-30.1113,-18.0859
-518,-328,-30.2676,19.0293,0,0,0,0,0,0,0,-1,706,1352,-30.2676,-19.0293
-511,-328,-9.39868,7.16113,0,0,0,0,0,0,0,-1,713,1352,-9.39869,-7.16113
-504,-328,-8.60626,-0.905762,0,0,0,0,0,0,0,-1,720,1352,-8.60623,0.905787
-497,-328,-9.29102,-0.0517578,0,0,0,0,0,0,0,-1,727,1352,-9.29104,0.0518175
-490,-328,-10.0663,0.882813,0,0,0,0,0,0,0,-1,734,1352,-10.0663,-0.882795
-483,-328,-10.8181,1.72375,0,0,0,0,0,0,0,-1,741,1352,-10.8181,-1.72374
-476,-328,-16.8951,-0.150757,0,0,0,0,0,0,0,-1,748,1352,-16.8951,0.150795
-469,-328,-16.8412,0.00158691,0,0,0,0,0,0,0,-1,755,1352,-16.8412,-0.00161515
-462,-328,-16.3546,-0.203491,0,0,0,0,0,0,0,-1,762,1352,-16.3545,0.203532
-455,-328,0,0,0,0,0,0,0,0,0,-1,769,1352,0,0
-448,-328,0,0,0,0,0,0,0,0,0,-1,776,1352,0,0
-441,-328,0,0,0,0,0,0,0,0,0,-1,783,1352,0,0
-434,-328,0,0,0,0,0,0,0,0,0,-1,790,1352,0,0
-427,-328,0,0,0,0,0,0,0,0,0,-1,797,1352,0,0
-420,-328,0,0,0,0,0,0,0,0,0,-1,804,1352,0,0
-413,-328,0,0,0,0,0,0,0,0,0,-1,811,1352,0,0
-406,-328,0,0,0,0,0,0,0,0,0,-1,818,1352,0,0
-399,-328,0,0,0,0,0,0,0,0,0,-1,825,1352,0,0
-392,-328,0,0,0,0,0,0,0,0,0,-1,832,1352,0,0
-385,-328,0,0,0,0,0,0,0,0,0,-1,839,1352,0,0
-378,-328,0,0,0,0,0,0,0,0,0,-1,846,1352,0,0
-371,-328,0,0,0,0,0,0,0,0,0,-1,853,1352,0,0
-364,-328,0,0,0,0,0,0,0,0,0,-1,860,1352,0,0
-357,-328,0,0,0,0,0,0,0,0,0,-1,867,1352,0,0
-350,-328,0,0,0,0,0,0,0,0,0,-1,874,1352,0,0
-343,-328,0,0,0,0,0,0,0,0,0,-1,881,1352,0,0
-336,-328,0,0,0,0,0,0,0,0,0,-1,888,1352,0,0
-329,-328,0,0,0,0,0,0,0,0,0,-1,895,1352,0,0
-322,-328,0,0,0,0,0,0,0,0,0,-1,902,1352,0,0
-315,-328,0,0,0,0,0,0,0,0,0,-1,909,1352,0,0
-308,-328,0,0,0,0,0,0,0,0,0,-1,916,1352,0,0
-301,-328,0,0,0,0,0,0,0,0,0,-1,923,1352,0,0
-294,-328,0,0,0,0,0,0,0,0,0,-1,930,1352,0,0
-287,-328,0,0,0,0,0,0,0,0,0,-1,937,1352,0,0
-280,-328,0,0,0,0,0,0,0,0,0,-1,944,1352,0,0
-273,-328,0,0,0,0,0,0,0,0,0,-1,951,1352,0,0
-266,-328,0,0,0,0,0,0,0,0,0,-1,958,1352,0,0
-259,-328,0,0,0,0,0,0,0,0,0,-1,965,1352,0,0
-252,-328,0,0,0,0,0,0,0,0,0,-1,972,1352,0,0
-245,-328,0,0,0,0,0,0,0,0,0,-1,979,1352,0,0
-238,-328,0,0,0,0,0,0,0,0,0,-1,986,1352,0,0
-231,-328,0,0,0,0,0,0,0,0,0,-1,993,1352,0,0
-224,-328,0,0,0,0,0,0,0,0,0,-1,1000,1352,0,0
-217,-328,0,0,0,0,0,0,0,0,0,-1,1007,1352,0,0
-210,-328,0,0,0,0,0,0,0,0,0,-1,1014,1352,0,0
-203,-328,0,0,0,0,0,0,0,0,0,-1,1021,1352,0,0
-196,-328,0,0,0,0,0,0,0,0,0,-1,1028,1352,0,0
-189,-328,0,0,0,0,0,0,0,0,0,-1,1035,1352,0,0
-182,-328,0,0,0,0,0,0,0,0,0,-1,1042,1352,0,0
-175,-328,0,0,0,0,0,0,0,0,0,-1,1049,1352,0,0
-168,-328,0,0,0,0,0,0,0,0,0,-1,1056,1352,0,0
-161,-328,0,0,0,0,0,0,0,0,0,-1,1063,1352,0,0
-154,-328,0,0,0,0,0,0,0,0,0,-1,1070,1352,0,0
-147,-328,0,0,0,0,0,0,0,0,0,-1,1077,1352,0,0
-140,-328,0,0,0,0,0,0,0,0,0,-1,1084,1352,0,0
-133,-328,0,0,0,0,0,0,0,0,0,-1,1091,1352,0,0
-126,-328,0,0,0,0,0,0,0,0,0,-1,1098,1352,0,0
-119,-328,0,0,0,0,0,0,0,0,0,-1,1105,1352,0,0
-112,-328,0,0,0,0,0,0,0,0,0,-1,1112,1352,0,0
-105,-328,0,0,0,0,0,0,0,0,0,-1,1119,1352,0,0
-98,-328,0,0,0,0,0,0,0,0,0,-1,1126,1352,0,0
-91,-328,0,0,0,0,0,0,0,0,0,-1,1133,1352,0,0
-84,-328,0,0,0,0,0,0,0,0,0,-1,1140,1352,0,0
-77,-328,0,0,0,0,0,0,0,0,0,-1,1147,1352,0,0
-70,-328,0,0,0,0,0,0,0,0,0,-1,1154,1352,0,0
-63,-328,0,0,0,0,0,0,0,0,0,-1,1161,1352,0,0
-56,-328,0,0,0,0,0,0,0,0,0,-1,1168,1352,0,0
-49,-328,0,0,0,0,0,0,0,0,0,-1,1175,1352,0,0
-42,-328,0,0,0,0,0,0,0,0,0,-1,1182,1352,0,0
-35,-328,0,0,0,0,0,0,0,0,0,-1,1189,1352,0,0
-28,-328,0,0,0,0,0,0,0,0,0,-1,1196,1352,0,0
-21,-328,0,0,0,0,0,0,0,0,0,-1,1203,1352,0,0
-14,-328,0,0,0,0,0,0,0,0,0,-1,1210,1352,0,0
-7,-328,0,0,0,0,0,0,0,0,0,-1,1217,1352,0,0
0,-328,0,0,0,0,0,0,0,0,0,-1,1224,1352,0,0
7,-328,0,0,0,0,0,0,0,0,0,-1,1231,1352,0,0
14,-328,0,0,0,0,0,0,0,0,0,-1,1238,1352,0,0
21,-328,0,0,0,0,0,0,0,0,0,-1,1245,1352,0,0
28,-328,0,0,0,0,0,0,0,0,0,-1,1252,1352,0,0
35,-328,0,0,0,0,0,0,0,0,0,-1,1259,1352,0,0
42,-328,0,0,0,0,0,0,0,0,0,-1,1266,1352,0,0
49,-328,0,0,0,0,0,0,0,0,0,-1,1273,1352,0,0
56,-328,0,0,0,0,0,0,0,0,0,-1,1280,1352,0,0
63,-328,0,0,0,0,0,0,0,0,0,-1,1287,1352,0,0
70,-328,0,0,0,0,0,0,0,0,0,-1,1294,1352,0,0
77,-328,0,0,0,0,0,0,0,0,0,-1,1301,1352,0,0
84,-328,0,0,0,0,0,0,0,0,0,-1,1308,1352,0,0
91,-328,0,0,0,0,0,0,0,0,0,-1,1315,1352,0,0
98,-328,0,0,0,0,0,0,0,0,0,-1,1322,1352,0,0
105,-328,0,0,0,0,0,0,0,0,0,-1,1329,1352,0,0
112,-328,0,0,0,0,0,0,0,0,0,-1,1336,1352,0,0
119,-328,0,0,0,0,0,0,0,0,0,-1,1343,1352,0,0
126,-328,0,0,0,0,0,0,0,0,0,-1,1350,1352,0,0
133,-328,0,0,0,0,0,0,0,0,0,-1,1357,1352,0,0
140,-328,0,0,0,0,0,0,0,0,0,-1,1364,1352,0,0
147,-328,0,0,0,0,0,0,0,0,0,-1,1371,1352,0,0
154,-328,0,0,0,0,0,0,0,0,0,-1,1378,1352,0,0
161,-328,0,0,0,0,0,0,0,0,0,-1,1385,1352,0,0
168,-328,0,0,0,0,0,0,0,0,0,-1,1392,1352,0,0
175,-328,0,0,0,0,0,0,0,0,0,-1,1399,1352,0,0
182,-328,0,0,0,0,0,0,0,0,0,-1,1406,1352,0,0
189,-328,0,0,0,0,0,0,0,0,0,-1,1413,1352,0,0
196,-328,0,0,0,0,0,0,0,0,0,-1,1420,1352,0,0
203,-328,0,0,0,0,0,0,0,0,0,-1,1427,1352,0,0
210,-328,0,0,0,0,0,0,0,0,0,-1,1434,1352,0,0
217,-328,0,0,0,0,0,0,0,0,0,-1,1441,1352,0,0
224,-328,0,0,0,0,0,0,0,0,0,-1,1448,1352,0,0
231,-328,0,0,0,0,0,0,0,0,0,-1,1455,1352,0,0
238,-328,0,0,0,0,0,0,0,0,0,-1,1462,1352,0,0
245,-328,0,0,0,0,0,0,0,0,0,-1,1469,1352,0,0
252,-328,0,0,0,0,0,0,0,0,0,-1,1476,1352,0,0
259,-328,0,0,0,0,0,0,0,0,0,-1,1483,1352,0,0
266,-328,0,0,0,0,0,0,0,0,0,-1,1490,1352,0,0
273,-328,0,0,0,0,0,0,0,0,0,-1,1497,1352,0,0
280,-328,0,0,0,0,0,0,0,0,0,-1,1504,1352,0,0
287,-328,0,0,0,0,0,0,0,0,0,-1,1511,1352,0,0
294,-328,0,0,0,0,0,0,0,0,0,-1,1518,1352,0,0
301,-328,0,0,0,0,0,0,0,0,0,-1,1525,1352,0,0
308,-328,0,0,0,0,0,0,0,0,0,-1,1532,1352,0,0
315,-328,0,0,0,0,0,0,0,0,0,-1,1539,1352,0,0
322,-328,0,0,0,0,0,0,0,0,0,-1,1546,1352,0,0
329,-328,0,0,0,0,0,0,0,0,0,-1,1553,1352,0,0
336,-328,0,0,0,0,0,0,0,0,0,-1,1560,1352,0,0
343,-328,0,0,0,0,0,0,0,0,0,-1,1567,1352,0,0
350,-328,0,0,0,0,0,0,0,0,0,-1,1574,1352,0,0
357,-328,0,0,0,0,0,0,0,0,0,-1,1581,1352,0,0
364,-328,0,0,0,0,0,0,0,0,0,-1,1588,1352,0,0
371,-328,0,0,0,0,0,0,0,0,0,-1,1595,1352,0,0
378,-328,0,0,0,0,0,0,0,0,0,-1,1602,1352,0,0
385,-328,0,0,0,0,0,0,0,0,0,-1,1609,1352,0,0
392,-328,0,0,0,0,0,0,0,0,0,-1,1616,1352,0,0
399,-328,0,0,0,0,0,0,0,0,0,-1,1623,1352,0,0
406,-328,0,0,0,0,0,0,0,0,0,-1,1630,1352,0,0
413,-328,0,0,0,0,0,0,0,0,0,-1,1637,1352,0,0
420,-328,0,0,0,0,0,0,0,0,0,-1,1644,1352,0,0
427,-328,0,0,0,0,0,0,0,0,0,-1,1651,1352,0,0
434,-328,0,0,0,0,0,0,0,0,0,-1,1658,1352,0,0
441,-328,0,0,0,0,0,0,0,0,0,-1,1665,1352,0,0
448,-328,0,0,0,0,0,0,0,0,0,-1,1672,1352,0,0
455,-328,0,0,0,0,0,0,0,0,0,-1,1679,1352,0,0
462,-328,0,0,0,0,0,0,0,0,0,-1,1686,1352,0,0
469,-328,0,0,0,0,0,0,0,0,0,-1,1693,1352,0,0
476,-328,0,0,0,0,0,0,0,0,0,-1,1700,1352,0,0
483,-328,0,0,0,0,0,0,0,0,0,-1,1707,1352,0,0
490,-328,0,0,0,0,0,0,0,0,0,-1,1714,1352,0,0
497,-328,0,0,0,0,0,0,0,0,0,-1,1721,1352,0,0
504,-328,0,0,0,0,0,0,0,0,0,-1,1728,1352,0,0
511,-328,0,0,0,0,0,0,0,0,0,-1,1735,1352,0,0
518,-328,0,0,0,0,0,0,0,0,0,-1,1742,1352,0,0
525,-328,0,0,0,0,0,0,0,0,0,-1,1749,1352,0,0
532,-328,0,0,0,0,0,0,0,0,0,-1,1756,1352,0,0
539,-328,0,0,0,0,0,0,0,0,0,-1,1763,1352,0,0
546,-328,0,0,0,0,0,0,0,0,0,-1,1770,1352,0,0
553,-328,0,0,0,0,0,0,0,0,0,-1,1777,1352,0,0
560,-328,0,0,0,0,0,0,0,0,0,-1,1784,1352,0,0
567,-328,0,0,0,0,0,0,0,0,0,-1,1791,1352,0,0
574,-328,65.0565,3.09021,0,0,0,0,0,0,0,-1,1798,1352,65.0565,-3.09019
581,-328,66.3988,1.74048,0,0,0,0,0,0,0,-1,1805,1352,66.3989,-1.74051
588,-328,67.0304,0.506714,0,0,0,0,0,0,0,-1,1812,1352,67.0304,-0.506669
595,-328,60.5831,1.52856,0,0,0,0,0,0,0,-1,1819,1352,60.5832,-1.52861
602,-328,48.7734,3.66785,0,0,0,0,0,0,0,-1,1826,1352,48.7734,-3.66782
609,-328,37.0468,1.17407,0,0,0,0,0,0,0,-1,1833,1352,37.0468,-1.17407
616,-328,36.999,2.42859,0,0,0,0,0,0,0,-1,1840,1352,36.999,-2.42862
623,-328,34.345,5.14722,0,0,0,0,0,0,0,-1,1847,1352,34.3449,-5.14718
630,-328,22.0211,5.026,0,0,0,0,0,0,0,-1,1854,1352,22.0212,-5.02603
637,-328,21.15,5.53699,0,0,0,0,0,0,0,-1,1861,1352,21.15,-5.53704
644,-328,16.9579,6.3396,0,0,0,0,0,0,0,-1,1868,1352,16.9579,-6.33959
651,-328,36.2629,14.6906,0,0,0,0,0,0,0,-1,1875,1352,36.263,-14.6905
658,-328,47.149,18.4408,0,0,0,0,0,0,0,-1,1882,1352,47.149,-18.4408
665,-328,47.1547,17.6436,0.00100056,0.000345452,-0.000737632,0.00148009,-0.000134083,-0.576446,0.00103433,0.0150794,1889,1352,47.1547,-17.6435
672,-328,47.1112,16.866,0.00114186,0.000141121,-0.000659113,0.00146902,-0.000186035,-0.46073,0.00104688,0.0124477,1896,1352,47.1112,-16.8659
679,-328,47.0676,16.0574,0.00128803,0.000128441,-0.000594483,0.00153864,-0.00012217,-0.398954,0.00106881,0.0149312,1903,1352,47.0676,-16.0574
686,-328,47.0074,15.2557,0.00141207,8.09193e-05,-0.000501524,0.00157987,-8.68822e-05,-0.322875,0.00108337,0.0156459,1910,1352,47.0074,-15.2557
693,-328,46.9615,14.4958,0.00151277,8.52038e-05,-0.000408469,0.00162138,-2.3408e-05,-0.259886,0.00108881,0.0103299,1917,1352,46.9616,-14.4959
700,-328,46.9398,13.7018,0.00157473,6.46841e-05,-0.000270414,0.00162169,1.77198e-05,-0.17196,0.00107527,0.014236,1924,1352,46.9398,-13.7018
707,-328,46.9072,12.9017,0.00154144,-9.96098e-06,-5.95672e-05,0.00154372,-1.22447e-05,-0.0383206,0.00103325,0.0163437,1931,1352,46.9072,-12.9018
714,-328,46.8727,12.0992,0.00138145,-0.000148966,0.000264432,0.00142585,-0.000193367,0.166361,0.00102114,0.0171288,1938,1352,46.8726,-12.0992
721,-328,46.826,11.3533,0,0,0,0,0,0,0,-1,1945,1352,46.826,-11.3532
728,-328,29.2787,6.74695,0,0,0,0,0,0,0,-1,1952,1352,29.2787,-6.74693
735,-328,20.8927,5.23523,0,0,0,0,0,0,0,-1,1959,1352,20.8927,-5.23528
742,-328,20.3547,4.11316,0,0,0,0,0,0,0,-1,1966,1352,20.3547,-4.11321
749,-328,20.0669,5.66321,0,0,0,0,0,0,0,-1,1973,1352,20.0669,-5.66319
756,-328,19.9543,5.50464,0,0,0,0,0,0,0,-1,1980,1352,19.9543,-5.50463
763,-328,0,0,0,0,0,0,0,0,0,-1,1987,1352,0,0
770,-328,0,0,0,0,0,0,0,0,0,-1,1994,1352,0,0
777,-328,0,0,0,0,0,0,0,0,0,-1,2001,1352,0,0
784,-328,0,0,0,0,0,0,0,0,0,-1,2008,1352,0,0
791,-328,0,0,0,0,0,0,0,0,0,-1,2015,1352,0,0
798,-328,0,0,0,0,0,0,0,0,0,-1,2022,1352,0,0
805,-328,0,0,0,0,0,0,0,0,0,-1,2029,1352,0,0
812,-328,0,0,0,0,0,0,0,0,0,-1,2036,1352,0,0
-700,-335,0,0,0,0,0,0,0,0,0,-1,524,1359,0,0
-693,-335,0,0,0,0,0,0,0,0,0,-1,531,1359,0,0
-686,-335,0,0,0,0,0,0,0,0,0,-1,538,1359,0,0
-679,-335,0,0,0,0,0,0,0,0,0,-1,545,1359,0,0
-672,-335,0,0,0,0,0,0,0,0,0,-1,552,1359,0,0
-665,-335,0,0,0,0,0,0,0,0,0,-1,559,1359,0,0
-658,-335,0,0,0,0,0,0,0,0,0,-1,566,1359,0,0
-651,-335,0,0,0,0,0,0,0,0,0,-1,573,1359,0,0
-644,-335,0,0,0,0,0,0,0,0,0,-1,580,1359,0,0
-637,-335,-62.7114,11.0491,0,0,0,0,0,0,0,-1,587,1359,-62.7114,-11.0491
-630,-335,-64.2532,9.91284,0,0,0,0,0,0,0,-1,594,1359,-64.2532,-9.91285
-623,-335,-8.43304,1.09509,0,0,0,0,0,0,0,-1,601,1359,-8.43301,-1.09507
-616,-335,-7.80927,-0.485352,0,0,0,0,0,0,0,-1,608,1359,-7.80926,0.485291
-609,-335,-7.12256,-2.03601,0,0,0,0,0,0,0,-1,615,1359,-7.12253,2.03601
-602,-335,-9.39935,2.25146,0,0,0,0,0,0,0,-1,622,1359,-9.39935,-2.25145
-595,-335,-9.54767,3.01917,0,0,0,0,0,0,0,-1,629,1359,-9.54768,-3.01911
-588,-335,-29.0137,10.3333,0,0,0,0,0,0,0,-1,636,1359,-29.0137,-10.3333
-581,-335,-29.0246,11.3782,0,0,0,0,0,0,0,-1,643,1359,-29.0246,-11.3782
-574,-335,-29.0518,12.2848,0.00403587,0.00392014,0.00262717,0.00660582,0.0013502,0.774387,0.00402992,0.0140396,650,1359,-29.0518,-12.2848
-567,-335,-29.0826,13.1934,0.0035014,0.00283484,0.0020963,0.00529075,0.00104549,0.706566,0.00323548,0.0174288,657,1359,-29.0826,-13.1934
-560,-335,-29.0863,13.9493,0.00326353,0.00195401,0.00181714,0.00454028,0.000677262,0.612477,0.00282826,0.0252087,664,1359,-29.0863,-13.9493
-553,-335,-29.1268,14.7389,0.0032244,0.00122451,0.00171453,0.00420928,0.000239632,0.521404,0.00272981,0.0282779,671,1359,-29.1268,-14.7388
-546,-335,-29.179,15.6097,0.00339111,0.00063337,0.00177625,0.00426087,-0.000236391,0.455343,0.00292257,0.0259543,678,1359,-29.179,-15.6097
-539,-335,-29.2513,16.4458,0.00375278,0.000168646,0.00199859,0.00464509,-0.000723661,0.419913,0.00336399,0.0204938,685,1359,-29.2513,-16.4458
-532,-335,-29.3047,17.2814,0.0043566,-0.000163179,0.00239152,0.00538708,-0.00119365,0.406845,0.00404836,0.0148608,692,1359,-29.3047,-17.2813
-525,-335,-29.3037,18.1239,0.00515397,-0.000365178,0.00294072,0.00642714,-0.00163836,0.408583,0.00492262,0.0130737,699,1359,-29.3037,-18.1239
-518,-335,-29.4738,18.8855,0,0,0,0,0,0,0,-1,706,1359,-29.4738,-18.8855
-511,-335,-17.3098,11.6718,0,0,0,0,0,0,0,-1,713,1359,-17.3097,-11.6717
-504,-335,-9.35767,5.99695,0,0,0,0,0,0,0,-1,720,1359,-9.35767,-5.99694
-497,-335,-8.75024,-0.650513,0,0,0,0,0,0,0,-1,727,1359,-8.75024,0.650521
-490,-335,-9.51971,0.417603,0,0,0,0,0,0,0,-1,734,1359,-9.51974,-0.41765
-483,-335,-10.2883,1.29224,0,0,0,0,0,0,0,-1,741,1359,-10.2883,-1.2922
-476,-335,-11.9938,-0.173462,0,0,0,0,0,0,0,-1,748,1359,-11.9938,0.173429
-469,-335,-12.8704,-0.204102,0,0,0,0,0,0,0,-1,755,1359,-12.8704,0.204117
-462,-335,-13.486,0.0218506,0,0,0,0,0,0,0,-1,762,1359,-13.4859,-0.0217908
-455,-335,-14.1504,0.549561,0,0,0,0,0,0,0,-1,769,1359,-14.1504,-0.549583
-448,-335,0,0,0,0,0,0,0,0,0,-1,776,1359,0,0
-441,-335,0,0,0,0,0,0,0,0,0,-1,783,1359,0,0
-434,-335,0,0,0,0,0,0,0,0,0,-1,790,1359,0,0
-427,-335,0,0,0,0,0,0,0,0,0,-1,797,1359,0,0
-420,-335,0,0,0,0,0,0,0,0,0,-1,804,1359,0,0
-413,-335,0,0,0,0,0,0,0,0,0,-1,811,1359,0,0
-406,-335,0,0,0,0,0,0,0,0,0,-1,818,1359,0,0
-399,-335,0,0,0,0,0,0,0,0,0,-1,825,1359,0,0
-392,-335,0,0,0,0,0,0,0,0,0,-1,832,1359,0,0
-385,-335,0,0,0,0,0,0,0,0,0,-1,839,1359,0,0
-378,-335,0,0,0,0,0,0,0,0,0,-1,846,1359,0,0
-371,-335,0,0,0,0,0,0,0,0,0,-1,853,1359,0,0
-364,-335,0,0,0,0,0,0,0,0,0,-1,860,1359,0,0
-357,-335,0,0,0,0,0,0,0,0,0,-1,867,1359,0,0
-350,-335,0,0,0,0,0,0,0,0,0,-1,874,1359,0,0
-343,-335,0,0,0,0,0,0,0,0,0,-1,881,1359,0,0
-336,-335,0,0,0,0,0,0,0,0,0,-1,888,1359,0,0
-329,-335,0,0,0,0,0,0,0,0,0,-1,895,1359,0,0
-322,-335,0,0,0,0,0,0,0,0,0,-1,902,1359,0,0
-315,-335,0,0,0,0,0,0,0,0,0,-1,909,1359,0,0
-308,-335,0,0,0,0,0,0,0,0,0,-1,916,1359,0,0
-301,-335,0,0,0,0,0,0,0,0,0,-1,923,1359,0,0
-294,-335,0,0,0,0,0,0,0,0,0,-1,930,1359,0,0
-287,-335,0,0,0,0,0,0,0,0,0,-1,937,1359,0,0
-280,-335,0,0,0,0,0,0,0,0,0,-1,944,1359,0,0
-273,-335,0,0,0,0,0,0,0,0,0,-1,951,1359,0,0
-266,-335,0,0,0,0,0,0,0,0,0,-1,958,1359,0,0
-259,-335,0,0,0,0,0,0,0,0,0,-1,965,1359,0,0
-252,-335,0,0,0,0,0,0,0,0,0,-1,972,1359,0,0
-245,-335,0,0,0,0,0,0,0,0,0,-1,979,1359,0,0
-238,-335,0,0,0,0,0,0,0,0,0,-1,986,1359,0,0
-231,-335,0,0,0,0,0,0,0,0,0,-1,993,1359,0,0
-224,-335,0,0,0,0,0,0,0,0,0,-1,1000,1359,0,0
-217,-335,0,0,0,0,0,0,0,0,0,-1,1007,1359,0,0
-210,-335,0,0,0,0,0,0,0,0,0,-1,1014,1359,0,0
-203,-335,0,0,0,0,0,0,0,0,0,-1,1021,1359,0,0
-196,-335,0,0,0,0,0,0,0,0,0,-1,1028,1359,0,0
-189,-335,0,0,0,0,0,0,0,0,0,-1,1035,1359,0,0
-182,-335,0,0,0,0,0,0,0,0,0,-1,1042,1359,0,0
-175,-335,0,0,0,0,0,0,0,0,0,-1,1049,1359,0,0
-168,-335,0,0,0,0,0,0,0,0,0,-1,1056,1359,0,0
-161,-335,0,0,0,0,0,0,0,0,0,-1,1063,1359,0,0
-154,-335,0,0,0,0,0,0,0,0,0,-1,1070,1359,0,0
-147,-335,0,0,0,0,0,0,0,0,0,-1,1077,1359,0,0
-140,-335,0,0,0,0,0,0,0,0,0,-1,1084,1359,0,0
-133,-335,0,0,0,0,0,0,0,0,0,-1,1091,1359,0,0
-126,-335,0,0,0,0,0,0,0,0,0,-1,1098,1359,0,0
-119,-335,0,0,0,0,0,0,0,0,0,-1,1105,1359,0,0
-112,-335,0,0,0,0,0,0,0,0,0,-1,1112,1359,0,0
-105,-335,0,0,0,0,0,0,0,0,0,-1,1119,1359,0,0
-98,-335,0,0,0,0,0,0,0,0,0,-1,1126,1359,0,0
-91,-335,0,0,0,0,0,0,0,0,0,-1,1133,1359,0,0
-84,-335,0,0,0,0,0,0,0,0,0,-1,1140,1359,0,0
-77,-335,0,0,0,0,0,0,0,0,0,-1,1147,1359,0,0
-70,-335,0,0,0,0,0,0,0,0,0,-1,1154,1359,0,0
-63,-335,0,0,0,0,0,0,0,0,0,-1,1161,1359,0,0
-56,-335,0,0,0,0,0,0,0,0,0,-1,1168,1359,0,0
-49,-335,0,0,0,0,0,0,0,0,0,-1,1175,1359,0,0
-42,-335,0,0,0,0,0,0,0,0,0,-1,1182,1359,0,0
-35,-335,0,0,0,0,0,0,0,0,0,-1,1189,1359,0,0
-28,-335,0,0,0,0,0,0,0,0,0,-1,1196,1359,0,0
-21,-335,0,0,0,0,0,0,0,0,0,-1,1203,1359,0,0
-14,-335,0,0,0,0,0,0,0,0,0,-1,1210,1359,0,0
-7,-335,0,0,0,0,0,0,0,0,0,-1,1217,1359,0,0
0,-335,0,0,0,0,0,0,0,0,0,-1,1224,1359,0,0
7,-335,0,0,0,0,0,0,0,0,0,-1,1231,1359,0,0
14,-335,0,0,0,0,0,0,0,0,0,-1,1238,1359,0,0
21,-335,0,0,0,0,0,0,0,0,0,-1,1245,1359,0,0
28,-335,0,0,0,0,0,0,0,0,0,-1,1252,1359,0,0
35,-335,0,0,0,0,0,0,0,0,0,-1,1259,1359,0,0
42,-335,0,0,0,0,0,0,0,0,0,-1,1266,1359,0,0
49,-335,0,0,0,0,0,0,0,0,0,-1,1273,1359,0,0
56,-335,0,0,0,0,0,0,0,0,0,-1,1280,1359,0,0
63,-335,0,0,0,0,0,0,0,0,0,-1,1287,1359,0,0
70,-335,0,0,0,0,0,0,0,0,0,-1,1294,1359,0,0
77,-335,0,0,0,0,0,0,0,0,0,-1,1301,1359,0,0
84,-335,0,0,0,0,0,0,0,0,0,-1,1308,1359,0,0
91,-335,0,0,0,0,0,0,0,0,0,-1,1315,1359,0,0
98,-335,0,0,0,0,0,0,0,0,0,-1,1322,1359,0,0
105,-335,0,0,0,0,0,0,0,0,0,-1,1329,1359,0,0
112,-335,0,0,0,0,0,0,0,0,0,-1,1336,1359,0,0
119,-335,0,0,0,0,0,0,0,0,0,-1,1343,1359,0,0
126,-335,0,0,0,0,0,0,0,0,0,-1,1350,1359,0,0
133,-335,0,0,0,0,0,0,0,0,0,-1,1357,1359,0,0
140,-335,0,0,0,0,0,0,0,0,0,-1,1364,1359,0,0
147,-335,0,0,0,0,0,0,0,0,0,-1,1371,1359,0,0
154,-335,0,0,0,0,0,0,0,0,0,-1,1378,1359,0,0
161,-335,0,0,0,0,0,0,0,0,0,-1,1385,1359,0,0
168,-335,0,0,0,0,0,0,0,0,0,-1,1392,1359,0,0
175,-335,0,0,0,0,0,0,0,0,0,-1,1399,1359,0,0
182,-335,0,0,0,0,0,0,0,0,0,-1,1406,1359,0,0
189,-335,0,0,0,0,0,0,0,0,0,-1,1413,1359,0,0
196,-335,0,0,0,0,0,0,0,0,0,-1,1420,1359,0,0
203,-335,0,0,0,0,0,0,0,0,0,-1,1427,1359,0,0
210,-335,0,0,0,0,0,0,0,0,0,-1,1434,1359,0,0
217,-335,0,0,0,0,0,0,0,0,0,-1,1441,1359,0,0
224,-335,0,0,0,0,0,0,0,0,0,-1,1448,1359,0,0
231,-335,0,0,0,0,0,0,0,0,0,-1,1455,1359,0,0
238,-335,0,0,0,0,0,0,0,0,0,-1,1462,1359,0,0
245,-335,0,0,0,0,0,0,0,0,0,-1,1469,1359,0,0
252,-335,0,0,0,0,0,0,0,0,0,-1,1476,1359,0,0
259,-335,0,0,0,0,0,0,0,0,0,-1,1483,1359,0,0
266,-335,0,0,0,0,0,0,0,0,0,-1,1490,1359,0,0
273,-335,0,0,0,0,0,0,0,0,0,-1,1497,1359,0,0
280,-335,0,0,0,0,0,0,0,0,0,-1,1504,1359,0,0
287,-335,0,0,0,0,0,0,0,0,0,-1,1511,1359,0,0
294,-335,0,0,0,0,0,0,0,0,0,-1,1518,1359,0,0
301,-335,0,0,0,0,0,0,0,0,0,-1,1525,1359,0,0
308,-335,0,0,0,0,0,0,0,0,0,-1,1532,1359,0,0
315,-335,0,0,0,0,0,0,0,0,0,-1,1539,1359,0,0
322,-335,0,0,0,0,0,0,0,0,0,-1,1546,1359,0,0
329,-335,0,0,0,0,0,0,0,0,0,-1,1553,1359,0,0
336,-335,0,0,0,0,0,0,0,0,0,-1,1560,1359,0,0
343,-335,0,0,0,0,0,0,0,0,0,-1,1567,1359,0,0
350,-335,0,0,0,0,0,0,0,0,0,-1,1574,1359,0,0
357,-335,0,0,0,0,0,0,0,0,0,-1,1581,1359,0,0
364,-335,0,0,0,0,0,0,0,0,0,-1,1588,1359,0,0
371,-335,0,0,0,0,0,0,0,0,0,-1,1595,1359,0,0
378,-335,0,0,0,0,0,0,0,0,0,-1,1602,1359,0,0
385,-335,0,0,0,0,0,0,0,0,0,-1,1609,1359,0,0
392,-335,0,0,0,0,0,0,0,0,0,-1,1616,1359,0,0
399,-335,0,0,0,0,0,0,0,0,0,-1,1623,1359,0,0
406,-335,0,0,0,0,0,0,0,0,0,-1,1630,1359,0,0
413,-335,0,0,0,0,0,0,0,0,0,-1,1637,1359,0,0
420,-335,0,0,0,0,0,0,0,0,0,-1,1644,1359,0,0
427,-335,0,0,0,0,0,0,0,0,0,-1,1651,1359,0,0
434,-335,0,0,0,0,0,0,0,0,0,-1,1658,1359,0,0
441,-335,0,0,0,0,0,0,0,0,0,-1,1665,1359,0,0
448,-335,0,0,0,0,0,0,0,0,0,-1,1672,1359,0,0
455,-335,0,0,0,0,0,0,0,0,0,-1,1679,1359,0,0
462,-335,0,0,0,0,0,0,0,0,0,-1,1686,1359,0,0
469,-335,0,0,0,0,0,0,0,0,0,-1,1693,1359,0,0
476,-335,0,0,0,0,0,0,0,0,0,-1,1700,1359,0,0
483,-335,0,0,0,0,0,0,0,0,0,-1,1707,1359,0,0
490,-335,0,0,0,0,0,0,0,0,0,-1,1714,1359,0,0
497,-335,0,0,0,0,0,0,0,0,0,-1,1721,1359,0,0
504,-335,0,0,0,0,0,0,0,0,0,-1,1728,1359,0,0
511,-335,0,0,0,0,0,0,0,0,0,-1,1735,1359,0,0
518,-335,0,0,0,0,0,0,0,0,0,-1,1742,1359,0,0
525,-335,0,0,0,0,0,0,0,0,0,-1,1749,1359,0,0
532,-335,0,0,0,0,0,0,0,0,0,-1,1756,1359,0,0
539,-335,0,0,0,0,0,0,0,0,0,-1,1763,1359,0,0
546,-335,0,0,0,0,0,0,0,0,0,-1,1770,1359,0,0
553,-335,0,0,0,0,0,0,0,0,0,-1,1777,1359,0,0
560,-335,0,0,0,0,0,0,0,0,0,-1,1784,1359,0,0
567,-335,0,0,0,0,0,0,0,0,0,-1,1791,1359,0,0
574,-335,65.0712,2.80188,0,0,0,0,0,0,0,-1,1798,1359,65.0712,-2.80193
581,-335,66.5206,1.60327,0,0,0,0,0,0,0,-1,1805,1359,66.5206,-1.60333
588,-335,67.826,0.334961,0,0,0,0,0,0,0,-1,1812,1359,67.8261,-0.335018
595,-335,49.984,3.76465,0,0,0,0,0,0,0,-1,1819,1359,49.984,-3.76467
602,-335,36.5643,0.0861816,0,0,0,0,0,0,0,-1,1826,1359,36.5643,-0.0862283
609,-335,36.2933,0.993896,0,0,0,0,0,0,0,-1,1833,1359,36.2934,-0.993911
616,-335,34.6969,4.82666,0,0,0,0,0,0,0,-1,1840,1359,34.6969,-4.82667
623,-335,26.6051,6.54333,0,0,0,0,0,0,0,-1,1847,1359,26.6051,-6.54339
630,-335,19.1707,1.00952,0,0,0,0,0,0,0,-1,1854,1359,19.1707,-1.00953
637,-335,18.2009,6.65454,0,0,0,0,0,0,0,-1,1861,1359,18.2009,-6.6546
644,-335,28.1042,12.067,0,0,0,0,0,0,0,-1,1868,1359,28.1042,-12.067
651,-335,46.3145,19.4655,0,0,0,0,0,0,0,-1,1875,1359,46.3145,-19.4654
658,-335,46.366,18.573,0.00032473,0.000919095,-0.000785769,0.001462,-0.000218177,-0.966187,0.00105494,0.0413121,1882,1359,46.3659,-18.5729
665,-335,46.3685,17.7083,0.000634401,0.000393426,-0.000561243,0.00108794,-6.01165e-05,-0.679663,0.000746142,0.0155798,1889,1359,46.3686,-17.7082
672,-335,46.3187,16.8882,0.00100242,0.000227245,-0.000550308,0.00128793,-5.82675e-05,-0.478592,0.000878688,0.017672,1896,1359,46.3187,-16.8882
679,-335,46.276,16.0859,0.00136937,0.000206782,-0.000573373,0.00160457,-2.84155e-05,-0.389268,0.00107931,0.0159194,1903,1359,46.276,-16.086
686,-335,46.2344,15.2875,0.00171623,0.000188645,-0.000590178,0.00191768,-1.28021e-05,-0.328933,0.00128274,0.0140131,1910,1359,46.2344,-15.2875
693,-335,46.1857,14.5197,0.00206686,0.000243981,-0.000636047,0.00226685,4.39895e-05,-0.304641,0.00149678,0.0110372,1917,1359,46.1857,-14.5196
700,-335,46.1456,13.7599,0.00238017,0.000300856,-0.000654373,0.00256897,0.000112062,-0.280883,0.00167654,0.0113802,1924,1359,46.1457,-13.7598
707,-335,46.0947,12.9711,0.00259353,0.000315043,-0.000607149,0.00274521,0.000163354,-0.244826,0.00177819,0.0145617,1931,1359,46.0947,-12.971
714,-335,46.0938,12.0433,0.00270925,0.000308832,-0.000467533,0.00279709,0.000220985,-0.18573,0.00179561,0.0361063,1938,1359,46.0937,-12.0433
721,-335,45.9977,11.0193,0,0,0,0,0,0,0,-1,1945,1359,45.9977,-11.0193
728,-335,20.8126,5.21167,0,0,0,0,0,0,0,-1,1952,1359,20.8127,-5.21172
735,-335,20.2725,5.34729,0,0,0,0,0,0,0,-1,1959,1359,20.2724,-5.34734
742,-335,19.8624,4.72229,0,0,0,0,0,0,0,-1,1966,1359,19.8624,-4.72225
749,-335,20.5887,6.05322,0,0,0,0,0,0,0,-1,1973,1359,20.5887,-6.05322
756,-335,20.7832,6.00452,0,0,0,0,0,0,0,-1,1980,1359,20.7832,-6.00447
763,-335,0,0,0,0,0,0,0,0,0,-1,1987,1359,0,0
770,-335,0,0,0,0,0,0,0,0,0,-1,1994,1359,0,0
777,-335,0,0,0,0,0,0,0,0,0,-1,2001,1359,0,0
784,-335,0,0,0,0,0,0,0,0,0,-1,2008,1359,0,0
791,-335,0,0,0,0,0,0,0,0,0,-1,2015,1359,0,0
798,-335,0,0,0,0,0,0,0,0,0,-1,2022,1359,0,0
805,-335,0,0,0,0,0,0,0,0,0,-1,2029,1359,0,0
812,-335,0,0,0,0,0,0,0,0,0,-1,2036,1359,0,0
-700,-342,0,0,0,0,0,0,0,0,0,-1,524,1366,0,0
-693,-342,0,0,0,0,0,0,0,0,0,-1,531,1366,0,0
-686,-342,0,0,0,0,0,0,0,0,0,-1,538,1366,0,0
-679,-342,0,0,0,0,0,0,0,0,0,-1,545,1366,0,0
-672,-342,0,0,0,0,0,0,0,0,0,-1,552,1366,0,0
-665,-342,0,0,0,0,0,0,0,0,0,-1,559,1366,0,0
-658,-342,0,0,0,0,0,0,0,0,0,-1,566,1366,0,0
-651,-342,0,0,0,0,0,0,0,0,0,-1,573,1366,0,0
-644,-342,0,0,0,0,0,0,0,0,0,-1,580,1366,0,0
-637,-342,-63.7546,12.2344,0,0,0,0,0,0,0,-1,587,1366,-63.7546,-12.2343
-630,-342,-8.60132,2.71777,0,0,0,0,0,0,0,-1,594,1366,-8.60135,-2.71779
-623,-342,-8.41168,0.662476,0,0,0,0,0,0,0,-1,601,1366,-8.41168,-0.662442
-616,-342,-6.625,-1.28015,0,0,0,0,0,0,0,-1,608,1366,-6.62499,1.28011
-609,-342,-7.83154,0.674561,0,0,0,0,0,0,0,-1,615,1366,-7.83155,-0.674598
-602,-342,-9.65765,2.25195,0,0,0,0,0,0,0,-1,622,1366,-9.65767,-2.25192
-595,-342,-9.47687,3.00671,0,0,0,0,0,0,0,-1,629,1366,-9.47686,-3.00668
-588,-342,-9.78467,3.57727,0,0,0,0,0,0,0,-1,636,1366,-9.78468,-3.57723
-581,-342,-28.3535,11.4915,0,0,0,0,0,0,0,-1,643,1366,-28.3534,-11.4915
-574,-342,-28.2672,12.3328,0.00479243,0.00454749,0.0031163,0.00778867,0.00155125,0.765759,0.00476037,0.0179941,650,1366,-28.2672,-12.3328
-567,-342,-28.2133,13.2203,0.00396994,0.00328449,0.0024229,0.00607423,0.0011802,0.715138,0.00371904,0.01709,657,1366,-28.2133,-13.2204
-560,-342,-28.2765,13.9807,0.00350869,0.00228637,0.00201591,0.00500404,0.000791013,0.638217,0.00310611,0.0263106,664,1366,-28.2765,-13.9807
-553,-342,-28.3461,14.7229,0.00324848,0.0014696,0.00179002,0.00435786,0.00036022,0.554822,0.00279292,0.0292921,671,1366,-28.3461,-14.7229
-546,-342,-28.3838,15.5774,0.00319013,0.000823211,0.00173278,0.00410503,-9.16906e-05,0.485792,0.00276776,0.0302359,678,1366,-28.3838,-15.5774
-539,-342,-28.3998,16.4645,0.00331936,0.00031946,0.00182623,0.00418267,-0.000543843,0.44159,0.00298628,0.0246443,685,1366,-28.3998,-16.4644
-532,-342,-28.4598,17.3508,0.00366616,-3.54009e-05,0.00207861,0.00459854,-0.000967784,0.421657,0.00343405,0.0177776,692,1366,-28.4599,-17.3508
-525,-342,-28.4683,18.1912,0.00420312,-0.000234419,0.0024801,0.00531209,-0.00134339,0.420479,0.00406389,0.0138142,699,1366,-28.4683,-18.1912
-518,-342,-28.4082,19.045,0.00505445,-6.22439e-05,0.00314432,0.00654973,-0.00155752,0.443896,0.00496772,0.0466733,706,1366,-28.4082,-19.045
-511,-342,-28.3773,19.8716,0,0,0,0,0,0,0,-1,713,1366,-28.3773,-19.8715
-504,-342,-8.95709,6.5719,0,0,0,0,0,0,0,-1,720,1366,-8.95707,-6.57192
-497,-342,-8.26587,-0.943604,0,0,0,0,0,0,0,-1,727,1366,-8.26586,0.943543
-490,-342,-9.07153,-0.0227051,0,0,0,0,0,0,0,-1,734,1366,-9.07155,0.0227087
-483,-342,-9.87726,0.898071,0,0,0,0,0,0,0,-1,741,1366,-9.87724,-0.898125
-476,-342,-11.6371,-0.736328,0,0,0,0,0,0,0,-1,748,1366,-11.6371,0.736281
-469,-342,-12.6245,-0.987549,0,0,0,0,0,0,0,-1,755,1366,-12.6245,0.987553
-462,-342,-13.0912,-0.533203,0,0,0,0,0,0,0,-1,762,1366,-13.0912,0.533224
-455,-342,-13.7612,0.122925,0,0,0,0,0,0,0,-1,769,1366,-13.7612,-0.122896
-448,-342,-14.5278,0.826904,0,0,0,0,0,0,0,-1,776,1366,-14.5277,-0.826861
-441,-342,0,0,0,0,0,0,0,0,0,-1,783,1366,0,0
-434,-342,0,0,0,0,0,0,0,0,0,-1,790,1366,0,0
-427,-342,0,0,0,0,0,0,0,0,0,-1,797,1366,0,0
-420,-342,0,0,0,0,0,0,0,0,0,-1,804,1366,0,0
-413,-342,0,0,0,0,0,0,0,0,0,-1,811,1366,0,0
-406,-342,0,0,0,0,0,0,0,0,0,-1,818,1366,0,0
-399,-342,0,0,0,0,0,0,0,0,0,-1,825,1366,0,0
-392,-342,0,0,0,0,0,0,0,0,0,-1,832,1366,0,0
-385,-342,0,0,0,0,0,0,0,0,0,-1,839,1366,0,0
-378,-342,0,0,0,0,0,0,0,0,0,-1,846,1366,0,0
-371,-342,0,0,0,0,0,0,0,0,0,-1,853,1366,0,0
-364,-342,0,0,0,0,0,0,0,0,0,-1,860,1366,0,0
-357,-342,0,0,0,0,0,0,0,0,0,-1,867,1366,0,0
-350,-342,0,0,0,0,0,0,0,0,0,-1,874,1366,0,0
-343,-342,0,0,0,0,0,0,0,0,0,-1,881,1366,0,0
-336,-342,0,0,0,0,0,0,0,0,0,-1,888,1366,0,0
-329,-342,0,0,0,0,0,0,0,0,0,-1,895,1366,0,0
-322,-342,0,0,0,0,0,0,0,0,0,-1,902,1366,0,0
-315,-342,0,0,0,0,0,0,0,0,0,-1,909,1366,0,0
-308,-342,0,0,0,0,0,0,0,0,0,-1,916,1366,0,0
-301,-342,0,0,0,0,0,0,0,0,0,-1,923,1366,0,0
-294,-342,0,0,0,0,0,0,0,0,0,-1,930,1366,0,0
-287,-342,0,0,0,0,0,0,0,0,0,-1,937,1366,0,0
-280,-342,0,0,0,0,0,0,0,0,0,-1,944,1366,0,0
-273,-342,0,0,0,0,0,0,0,0,0,-1,951,1366,0,0
-266,-342,0,0,0,0,0,0,0,0,0,-1,958,1366,0,0
-259,-342,0,0,0,0,0,0,0,0,0,-1,965,1366,0,0
-252,-342,0,0,0,0,0,0,0,0,0,-1,972,1366,0,0
-245,-342,0,0,0,0,0,0,0,0,0,-1,979,1366,0,0
-238,-342,0,0,0,0,0,0,0,0,0,-1,986,1366,0,0
-231,-342,0,0,0,0,0,0,0,0,0,-1,993,1366,0,0
-224,-342,0,0,0,0,0,0,0,0,0,-1,1000,1366,0,0
-217,-342,0,0,0,0,0,0,0,0,0,-1,1007,1366,0,0
-210,-342,0,0,0,0,0,0,0,0,0,-1,1014,1366,0,0
-203,-342,0,0,0,0,0,0,0,0,0,-1,1021,1366,0,0
-196,-342,0,0,0,0,0,0,0,0,0,-1,1028,1366,0,0
-189,-342,0,0,0,0,0,0,0,0,0,-1,1035,1366,0,0
-182,-342,0,0,0,0,0,0,0,0,0,-1,1042,1366,0,0
-175,-342,0,0,0,0,0,0,0,0,0,-1,1049,1366,0,0
-168,-342,0,0,0,0,0,0,0,0,0,-1,1056,1366,0,0
-161,-342,0,0,0,0,0,0,0,0,0,-1,1063,1366,0,0
-154,-342,0,0,0,0,0,0,0,0,0,-1,1070,1366,0,0
-147,-342,0,0,0,0,0,0,0,0,0,-1,1077,1366,0,0
-140,-342,0,0,0,0,0,0,0,0,0,-1,1084,1366,0,0
-133,-342,0,0,0,0,0,0,0,0,0,-1,1091,1366,0,0
-126,-342,0,0,0,0,0,0,0,0,0,-1,1098,1366,0,0
-119,-342,0,0,0,0,0,0,0,0,0,-1,1105,1366,0,0
-112,-342,0,0,0,0,0,0,0,0,0,-1,1112,1366,0,0
-105,-342,0,0,0,0,0,0,0,0,0,-1,1119,1366,0,0
-98,-342,0,0,0,0,0,0,0,0,0,-1,1126,1366,0,0
-91,-342,0,0,0,0,0,0,0,0,0,-1,1133,1366,0,0
-84,-342,0,0,0,0,0,0,0,0,0,-1,1140,1366,0,0
-77,-342,0,0,0,0,0,0,0,0,0,-1,1147,1366,0,0
-70,-342,0,0,0,0,0,0,0,0,0,-1,1154,1366,0,0
-63,-342,0,0,0,0,0,0,0,0,0,-1,1161,1366,0,0
-56,-342,0,0,0,0,0,0,0,0,0,-1,1168,1366,0,0
-49,-342,0,0,0,0,0,0,0,0,0,-1,1175,1366,0,0
-42,-342,0,0,0,0,0,0,0,0,0,-1,1182,1366,0,0
-35,-342,0,0,0,0,0,0,0,0,0,-1,1189,1366,0,0
-28,-342,0,0,0,0,0,0,0,0,0,-1,1196,1366,0,0
-21,-342,0,0,0,0,0,0,0,0,0,-1,1203,1366,0,0
-14,-342,0,0,0,0,0,0,0,0,0,-1,1210,1366,0,0
-7,-342,0,0,0,0,0,0,0,0,0,-1,1217,1366,0,0
0,-342,0,0,0,0,0,0,0,0,0,-1,1224,1366,0,0
7,-342,0,0,0,0,0,0,0,0,0,-1,1231,1366,0,0
14,-342,0,0,0,0,0,0,0,0,0,-1,1238,1366,0,0
21,-342,0,0,0,0,0,0,0,0,0,-1,1245,1366,0,0
28,-342,0,0,0,0,0,0,0,0,0,-1,1252,1366,0,0
35,-342,0,0,0,0,0,0,0,0,0,-1,1259,1366,0,0
42,-342,0,0,0,0,0,0,0,0,0,-1,1266,1366,0,0
49,-342,0,0,0,0,0,0,0,0,0,-1,1273,1366,0,0
56,-342,0,0,0,0,0,0,0,0,0,-1,1280,1366,0,0
63,-342,0,0,0,0,0,0,0,0,0,-1,1287,1366,0,0
70,-342,0,0,0,0,0,0,0,0,0,-1,1294,1366,0,0
77,-342,0,0,0,0,0,0,0,0,0,-1,1301,1366,0,0
84,-342,0,0,0,0,0,0,0,0,0,-1,1308,1366,0,0
91,-342,0,0,0,0,0,0,0,0,0,-1,1315,1366,0,0
98,-342,0,0,0,0,0,0,0,0,0,-1,1322,1366,0,0
105,-342,0,0,0,0,0,0,0,0,0,-1,1329,1366,0,0
112,-342,0,0,0,0,0,0,0,0,0,-1,1336,1366,0,0
119,-342,0,0,0,0,0,0,0,0,0,-1,1343,1366,0,0
126,-342,0,0,0,0,0,0,0,0,0,-1,1350,1366,0,0
133,-342,0,0,0,0,0,0,0,0,0,-1,1357,1366,0,0
140,-342,0,0,0,0,0,0,0,0,0,-1,1364,1366,0,0
147,-342,0,0,0,0,0,0,0,0,0,-1,1371,1366,0,0
154,-342,0,0,0,0,0,0,0,0,0,-1,1378,1366,0,0
161,-342,0,0,0,0,0,0,0,0,0,-1,1385,1366,0,0
168,-342,0,0,0,0,0,0,0,0,0,-1,1392,1366,0,0
175,-342,0,0,0,0,0,0,0,0,0,-1,1399,1366,0,0
182,-342,0,0,0,0,0,0,0,0,0,-1,1406,1366,0,0
189,-342,0,0,0,0,0,0,0,0,0,-1,1413,1366,0,0
196,-342,0,0,0,0,0,0,0,0,0,-1,1420,1366,0,0
203,-342,0,0,0,0,0,0,0,0,0,-1,1427,1366,0,0
210,-342,0,0,0,0,0,0,0,0,0,-1,1434,1366,0,0
217,-342,0,0,0,0,0,0,0,0,0,-1,1441,1366,0,0
224,-342,0,0,0,0,0,0,0,0,0,-1,1448,1366,0,0
231,-342,0,0,0,0,0,0,0,0,0,-1,1455,1366,0,0
238,-342,0,0,0,0,0,0,0,0,0,-1,1462,1366,0,0
245,-342,0,0,0,0,0,0,0,0,0,-1,1469,1366,0,0
252,-342,0,0,0,0,0,0,0,0,0,-1,1476,1366,0,0
259,-342,0,0,0,0,0,0,0,0,0,-1,1483,1366,0,0
266,-342,0,0,0,0,0,0,0,0,0,-1,1490,1366,0,0
273,-342,0,0,0,0,0,0,0,0,0,-1,1497,1366,0,0
280,-342,0,0,0,0,0,0,0,0,0,-1,1504,1366,0,0
287,-342,0,0,0,0,0,0,0,0,0,-1,1511,1366,0,0
294,-342,0,0,0,0,0,0,0,0,0,-1,1518,1366,0,0
301,-342,0,0,0,0,0,0,0,0,0,-1,1525,1366,0,0
308,-342,0,0,0,0,0,0,0,0,0,-1,1532,1366,0,0
315,-342,0,0,0,0,0,0,0,0,0,-1,1539,1366,0,0
322,-342,0,0,0,0,0,0,0,0,0,-1,1546,1366,0,0
329,-342,0,0,0,0,0,0,0,0,0,-1,1553,1366,0,0
336,-342,0,0,0,0,0,0,0,0,0,-1,1560,1366,0,0
343,-342,0,0,0,0,0,0,0,0,0,-1,1567,1366,0,0
350,-342,0,0,0,0,0,0,0,0,0,-1,1574,1366,0,0
357,-342,0,0,0,0,0,0,0,0,0,-1,1581,1366,0,0
364,-342,0,0,0,0,0,0,0,0,0,-1,1588,1366,0,0
371,-342,0,0,0,0,0,0,0,0,0,-1,1595,1366,0,0
378,-342,0,0,0,0,0,0,0,0,0,-1,1602,1366,0,0
385,-342,0,0,0,0,0,0,0,0,0,-1,1609,1366,0,0
392,-342,0,0,0,0,0,0,0,0,0,-1,1616,1366,0,0
399,-342,0,0,0,0,0,0,0,0,0,-1,1623,1366,0,0
406,-342,0,0,0,0,0,0,0,0,0,-1,1630,1366,0,0
413,-342,0,0,0,0,0,0,0,0,0,-1,1637,1366,0,0
420,-342,0,0,0,0,0,0,0,0,0,-1,1644,1366,0,0
427,-342,0,0,0,0,0,0,0,0,0,-1,1651,1366,0,0
434,-342,0,0,0,0,0,0,0,0,0,-1,1658,1366,0,0
441,-342,0,0,0,0,0,0,0,0,0,-1,1665,1366,0,0
448,-342,0,0,0,0,0,0,0,0,0,-1,1672,1366,0,0
455,-342,0,0,0,0,0,0,0,0,0,-1,1679,1366,0,0
462,-342,0,0,0,0,0,0,0,0,0,-1,1686,1366,0,0
469,-342,0,0,0,0,0,0,0,0,0,-1,1693,1366,0,0
476,-342,0,0,0,0,0,0,0,0,0,-1,1700,1366,0,0
483,-342,0,0,0,0,0,0,0,0,0,-1,1707,1366,0,0
490,-342,0,0,0,0,0,0,0,0,0,-1,1714,1366,0,0
497,-342,0,0,0,0,0,0,0,0,0,-1,1721,1366,0,0
504,-342,0,0,0,0,0,0,0,0,0,-1,1728,1366,0,0
511,-342,0,0,0,0,0,0,0,0,0,-1,1735,1366,0,0
518,-342,0,0,0,0,0,0,0,0,0,-1,1742,1366,0,0
525,-342,0,0,0,0,0,0,0,0,0,-1,1749,1366,0,0
532,-342,0,0,0,0,0,0,0,0,0,-1,1756,1366,0,0
539,-342,0,0,0,0,0,0,0,0,0,-1,1763,1366,0,0
546,-342,0,0,0,0,0,0,0,0,0,-1,1770,1366,0,0
553,-342,0,0,0,0,0,0,0,0,0,-1,1777,1366,0,0
560,-342,0,0,0,0,0,0,0,0,0,-1,1784,1366,0,0
567,-342,64.6937,3.24878,0,0,0,0,0,0,0,-1,1791,1366,64.6938,-3.24881
574,-342,65.4669,2.18384,0,0,0,0,0,0,0,-1,1798,1366,65.4669,-2.18381
581,-342,66.542,1.36292,0,0,0,0,0,0,0,-1,1805,1366,66.542,-1.36295
588,-342,43.9108,7.22559,0,0,0,0,0,0,0,-1,1812,1366,43.9107,-7.22554
595,-342,35.7993,0.709961,0,0,0,0,0,0,0,-1,1819,1366,35.7993,-0.709913
602,-342,36.3618,3.28723,0,0,0,0,0,0,0,-1,1826,1366,36.3619,-3.28719
609,-342,35.3777,4.14978,0,0,0,0,0,0,0,-1,1833,1366,35.3777,-4.14976
616,-342,34.199,5.8158,0,0,0,0,0,0,0,-1,1840,1366,34.199,-5.81579
623,-342,26.0299,6.86865,0,0,0,0,0,0,0,-1,1847,1366,26.0299,-6.86863
630,-342,17.3431,0.773071,0,0,0,0,0,0,0,-1,1854,1366,17.3432,-0.773095
637,-342,16.196,6.76172,0,0,0,0,0,0,0,-1,1861,1366,16.1961,-6.76174
644,-342,31.8916,14.0614,0,0,0,0,0,0,0,-1,1868,1366,31.8916,-14.0613
651,-342,45.5479,19.399,0,0,0,0,0,0,0,-1,1875,1366,45.5479,-19.399
658,-342,45.5681,18.5654,8.92693e-05,0.000716423,-0.00057464,0.00105748,-0.000251785,-1.03516,0.000802194,0.0230605,1882,1366,45.5681,-18.5654
665,-342,45.5741,17.7216,0.000569622,0.000317993,-0.000462384,0.000923003,-3.53882e-05,-0.652565,0.000627464,0.0186571,1889,1366,45.5741,-17.7215
672,-342,45.5095,16.9578,0.00109394,0.000211601,-0.000527523,0.00134046,-3.49137e-05,-0.437153,0.000905501,0.0146542,1896,1366,45.5095,-16.9577
679,-342,45.4629,16.1652,0.00162907,0.000222242,-0.000650269,0.00188359,-3.22797e-05,-0.373079,0.00126662,0.0143147,1903,1366,45.4629,-16.1652
686,-342,45.4547,15.3719,0.0021543,0.000262373,-0.000792415,0.00244234,-2.56682e-05,-0.348649,0.00163685,0.0125753,1910,1366,45.4547,-15.372
693,-342,45.401,14.5839,0.00270006,0.000384196,-0.000982527,0.00306074,2.35221e-05,-0.351816,0.0020327,0.0120735,1917,1366,45.4011,-14.5839
700,-342,45.3568,13.8181,0.00321598,0.000537339,-0.00117553,0.00365869,9.46255e-05,-0.36018,0.00240821,0.0140326,1924,1366,45.3569,-13.8181
707,-342,45.3073,12.9801,0.00361941,0.000651263,-0.00130824,0.00411371,0.000156963,-0.361255,0.00269168,0.0148909,1931,1366,45.3072,-12.9801
714,-342,45.2836,12.1252,0,0,0,0,0,0,0,-1,1938,1366,45.2836,-12.1252
721,-342,22.4666,6.08679,0,0,0,0,0,0,0,-1,1945,1366,22.4666,-6.08678
728,-342,19.8912,5.26636,0,0,0,0,0,0,0,-1,1952,1366,19.8913,-5.26636
735,-342,19.481,4.41968,0,0,0,0,0,0,0,-1,1959,1366,19.4809,-4.41962
742,-342,19.309,2.66943,0,0,0,0,0,0,0,-1,1966,1366,19.3089,-2.66948
749,-342,21.0934,6.47729,0,0,0,0,0,0,0,-1,1973,1366,21.0934,-6.4773
756,-342,0,0,0,0,0,0,0,0,0,-1,1980,1366,0,0
763,-342,0,0,0,0,0,0,0,0,0,-1,1987,1366,0,0
770,-342,0,0,0,0,0,0,0,0,0,-1,1994,1366,0,0
777,-342,0,0,0,0,0,0,0,0,0,-1,2001,1366,0,0
784,-342,0,0,0,0,0,0,0,0,0,-1,2008,1366,0,0
791,-342,0,0,0,0,0,0,0,0,0,-1,2015,1366,0,0
798,-342,0,0,0,0,0,0,0,0,0,-1,2022,1366,0,0
805,-342,0,0,0,0,0,0,0,0,0,-1,2029,1366,0,0
812,-342,0,0,0,0,0,0,0,0,0,-1,2036,1366,0,0
-700,-349,0,0,0,0,0,0,0,0,0,-1,524,1373,0,0
-693,-349,0,0,0,0,0,0,0,0,0,-1,531,1373,0,0
-686,-349,0,0,0,0,0,0,0,0,0,-1,538,1373,0,0
-679,-349,0,0,0,0,0,0,0,0,0,-1,545,1373,0,0
-672,-349,0,0,0,0,0,0,0,0,0,-1,552,1373,0,0
-665,-349,0,0,0,0,0,0,0,0,0,-1,559,1373,0,0
-658,-349,0,0,0,0,0,0,0,0,0,-1,566,1373,0,0
-651,-349,0,0,0,0,0,0,0,0,0,-1,573,1373,0,0
-644,-349,0,0,0,0,0,0,0,0,0,-1,580,1373,0,0
-637,-349,0,0,0,0,0,0,0,0,0,-1,587,1373,0,0
-630,-349,-7.64117,-5.06177,0,0,0,0,0,0,0,-1,594,1373,-7.64118,5.0618
-623,-349,-8.63507,0.51123,0,0,0,0,0,0,0,-1,601,1373,-8.63505,-0.511275
-616,-349,-5.2066,-0.188232,0,0,0,0,0,0,0,-1,608,1373,-5.20659,0.188211
-609,-349,-7.12073,1.37048,0,0,0,0,0,0,0,-1,615,1373,-7.12072,-1.37044
-602,-349,-9.00623,3.39587,0,0,0,0,0,0,0,-1,622,1373,-9.0062,-3.39591
-595,-349,-9.50568,2.96912,0,0,0,0,0,0,0,-1,629,1373,-9.50569,-2.96906
-588,-349,-8.60046,3.56042,0,0,0,0,0,0,0,-1,636,1373,-8.60046,-3.56047
-581,-349,-27.262,11.4696,0,0,0,0,0,0,0,-1,643,1373,-27.2621,-11.4696
-574,-349,-27.3835,12.2538,0.00571031,0.00535531,0.00384379,0.0093807,0.00168492,0.762325,0.00577468,0.0449618,650,1373,-27.3836,-12.2538
-567,-349,-27.4381,13.21,0.00462919,0.00384701,0.00291805,0.00718224,0.00129395,0.718783,0.00442043,0.0190137,657,1373,-27.4381,-13.2099
-560,-349,-27.4715,14.0709,0.00397004,0.00269684,0.0023379,0.00575647,0.00091042,0.652473,0.00357305,0.0228791,664,1373,-27.4715,-14.0709
-553,-349,-27.492,14.8361,0.00350459,0.00177209,0.00195683,0.00477833,0.000498342,0.577024,0.00303312,0.028146,671,1373,-27.492,-14.836
-546,-349,-27.5334,15.6267,0.00322749,0.00104512,0.00174738,0.0041964,7.62006e-05,0.506289,0.00277255,0.030925,678,1373,-27.5334,-15.6267
-539,-349,-27.5878,16.4691,0.00312821,0.000484402,0.00169091,0.00395261,-0.000339998,0.453636,0.00275541,0.0252272,685,1373,-27.5878,-16.4691
-532,-349,-27.6594,17.375,0.00322051,8.09508e-05,0.00178347,0.00402664,-0.000725182,0.424519,0.00295596,0.0184731,692,1373,-27.6594,-17.375
-525,-349,-27.676,18.2386,0.00349352,-0.000158858,0.00201903,0.00438973,-0.00105506,0.417753,0.00333428,0.015259,699,1373,-27.676,-18.2387
-518,-349,-27.6796,19.1056,0.00400437,-8.61548e-05,0.00245827,0.00515695,-0.00123873,0.438424,0.00391672,0.0286934,706,1373,-27.6796,-19.1056
-511,-349,-27.6395,19.9955,0,0,0,0,0,0,0,-1,713,1373,-27.6395,-19.9955
-504,-349,-9.60516,7.88831,0,0,0,0,0,0,0,-1,720,1373,-9.60519,-7.88825
-497,-349,-7.9339,5.58789,0,0,0,0,0,0,0,-1,727,1373,-7.93388,-5.58785
-490,-349,-8.73969,-0.503784,0,0,0,0,0,0,0,-1,734,1373,-8.73966,0.503752
-483,-349,-5.66974,3.7395,0,0,0,0,0,0,0,-1,741,1373,-5.66975,-3.73949
-476,-349,-10.8496,1.15759,0,0,0,0,0,0,0,-1,748,1373,-10.8496,-1.15756
-469,-349,-12.3314,-1.74878,0,0,0,0,0,0,0,-1,755,1373,-12.3314,1.74882
-462,-349,-12.6559,-0.995361,0,0,0,0,0,0,0,-1,762,1373,-12.656,0.995351
-455,-349,-13.2897,-0.234253,0,0,0,0,0,0,0,-1,769,1373,-13.2897,0.234261
-448,-349,-14.045,0.712891,0,0,0,0,0,0,0,-1,776,1373,-14.045,-0.712838
-441,-349,0,0,0,0,0,0,0,0,0,-1,783,1373,0,0
-434,-349,0,0,0,0,0,0,0,0,0,-1,790,1373,0,0
-427,-349,0,0,0,0,0,0,0,0,0,-1,797,1373,0,0
-420,-349,0,0,0,0,0,0,0,0,0,-1,804,1373,0,0
-413,-349,0,0,0,0,0,0,0,0,0,-1,811,1373,0,0
-406,-349,0,0,0,0,0,0,0,0,0,-1,818,1373,0,0
-399,-349,0,0,0,0,0,0,0,0,0,-1,825,1373,0,0
-392,-349,0,0,0,0,0,0,0,0,0,-1,832,1373,0,0
-385,-349,0,0,0,0,0,0,0,0,0,-1,839,1373,0,0
-378,-349,0,0,0,0,0,0,0,0,0,-1,846,1373,0,0
-371,-349,0,0,0,0,0,0,0,0,0,-1,853,1373,0,0
-364,-349,0,0,0,0,0,0,0,0,0,-1,860,1373,0,0
-357,-349,0,0,0,0,0,0,0,0,0,-1,867,1373,0,0
-350,-349,0,0,0,0,0,0,0,0,0,-1,874,1373,0,0
-343,-349,0,0,0,0,0,0,0,0,0,-1,881,1373,0,0
-336,-349,0,0,0,0,0,0,0,0,0,-1,888,1373,0,0
-329,-349,0,0,0,0,0,0,0,0,0,-1,895,1373,0,0
-322,-349,0,0,0,0,0,0,0,0,0,-1,902,1373,0,0
-315,-349,0,0,0,0,0,0,0,0,0,-1,909,1373,0,0
-308,-349,0,0,0,0,0,0,0,0,0,-1,916,1373,0,0
-301,-349,0,0,0,0,0,0,0,0,0,-1,923,1373,0,0
-294,-349,0,0,0,0,0,0,0,0,0,-1,930,1373,0,0
-287,-349,0,0,0,0,0,0,0,0,0,-1,937,1373,0,0
-280,-349,0,0,0,0,0,0,0,0,0,-1,944,1373,0,0
-273,-349,0,0,0,0,0,0,0,0,0,-1,951,1373,0,0
-266,-349,0,0,0,0,0,0,0,0,0,-1,958,1373,0,0
-259,-349,0,0,0,0,0,0,0,0,0,-1,965,1373,0,0
-252,-349,0,0,0,0,0,0,0,0,0,-1,972,1373,0,0
-245,-349,0,0,0,0,0,0,0,0,0,-1,979,1373,0,0
-238,-349,0,0,0,0,0,0,0,0,0,-1,986,1373,0,0
-231,-349,0,0,0,0,0,0,0,0,0,-1,993,1373,0,0
-224,-349,0,0,0,0,0,0,0,0,0,-1,1000,1373,0,0
-217,-349,0,0,0,0,0,0,0,0,0,-1,1007,1373,0,0
-210,-349,0,0,0,0,0,0,0,0,0,-1,1014,1373,0,0
-203,-349,0,0,0,0,0,0,0,0,0,-1,1021,1373,0,0
-196,-349,0,0,0,0,0,0,0,0,0,-1,1028,1373,0,0
-189,-349,0,0,0,0,0,0,0,0,0,-1,1035,1373,0,0
-182,-349,0,0,0,0,0,0,0,0,0,-1,1042,1373,0,0
-175,-349,0,0,0,0,0,0,0,0,0,-1,1049,1373,0,0
-168,-349,0,0,0,0,0,0,0,0,0,-1,1056,1373,0,0
-161,-349,0,0,0,0,0,0,0,0,0,-1,1063,1373,0,0
-154,-349,0,0,0,0,0,0,0,0,0,-1,1070,1373,0,0
-147,-349,0,0,0,0,0,0,0,0,0,-1,1077,1373,0,0
-140,-349,0,0,0,0,0,0,0,0,0,-1,1084,1373,0,0
-133,-349,0,0,0,0,0,0,0,0,0,-1,1091,1373,0,0
-126,-349,0,0,0,0,0,0,0,0,0,-1,1098,1373,0,0
-119,-349,0,0,0,0,0,0,0,0,0,-1,1105,1373,0,0
-112,-349,0,0,0,0,0,0,0,0,0,-1,1112,1373,0,0
-105,-349,0,0,0,0,0,0,0,0,0,-1,1119,1373,0,0
-98,-349,0,0,0,0,0,0,0,0,0,-1,1126,1373,0,0
-91,-349,0,0,0,0,0,0,0,0,0,-1,1133,1373,0,0
-84,-349,0,0,0,0,0,0,0,0,0,-1,1140,1373,0,0
-77,-349,0,0,0,0,0,0,0,0,0,-1,1147,1373,0,0
-70,-349,0,0,0,0,0,0,0,0,0,-1,1154,1373,0,0
-63,-349,0,0,0,0,0,0,0,0,0,-1,1161,1373,0,0
-56,-349,0,0,0,0,0,0,0,0,0,-1,1168,1373,0,0
-49,-349,0,0,0,0,0,0,0,0,0,-1,1175,1373,0,0
-42,-349,0,0,0,0,0,0,0,0,0,-1,1182,1373,0,0
-35,-349,0,0,0,0,0,0,0,0,0,-1,1189,1373,0,0
-28,-349,0,0,0,0,0,0,0,0,0,-1,1196,1373,0,0
-21,-349,0,0,0,0,0,0,0,0,0,-1,1203,1373,0,0
-14,-349,0,0,0,0,0,0,0,0,0,-1,1210,1373,0,0
-7,-349,0,0,0,0,0,0,0,0,0,-1,1217,1373,0,0
0,-349,0,0,0,0,0,0,0,0,0,-1,1224,1373,0,0
7,-349,0,0,0,0,0,0,0,0,0,-1,1231,1373,0,0
14,-349,0,0,0,0,0,0,0,0,0,-1,1238,1373,0,0
21,-349,0,0,0,0,0,0,0,0,0,-1,1245,1373,0,0
28,-349,0,0,0,0,0,0,0,0,0,-1,1252,1373,0,0
35,-349,0,0,0,0,0,0,0,0,0,-1,1259,1373,0,0
42,-349,0,0,0,0,0,0,0,0,0,-1,1266,1373,0,0
49,-349,0,0,0,0,0,0,0,0,0,-1,1273,1373,0,0
56,-349,0,0,0,0,0,0,0,0,0,-1,1280,1373,0,0
63,-349,0,0,0,0,0,0,0,0,0,-1,1287,1373,0,0
70,-349,0,0,0,0,0,0,0,0,0,-1,1294,1373,0,0
77,-349,0,0,0,0,0,0,0,0,0,-1,1301,1373,0,0
84,-349,0,0,0,0,0,0,0,0,0,-1,1308,1373,0,0
91,-349,0,0,0,0,0,0,0,0,0,-1,1315,1373,0,0
98,-349,0,0,0,0,0,0,0,0,0,-1,1322,1373,0,0
105,-349,0,0,0,0,0,0,0,0,0,-1,1329,1373,0,0
112,-349,0,0,0,0,0,0,0,0,0,-1,1336,1373,0,0
119,-349,0,0,0,0,0,0,0,0,0,-1,1343,1373,0,0
126,-349,0,0,0,0,0,0,0,0,0,-1,1350,1373,0,0
133,-349,0,0,0,0,0,0,0,0,0,-1,1357,1373,0,0
140,-349,0,0,0,0,0,0,0,0,0,-1,1364,1373,0,0
147,-349,0,0,0,0,0,0,0,0,0,-1,1371,1373,0,0
154,-349,0,0,0,0,0,0,0,0,0,-1,1378,1373,0,0
161,-349,0,0,0,0,0,0,0,0,0,-1,1385,1373,0,0
168,-349,0,0,0,0,0,0,0,0,0,-1,1392,1373,0,0
175,-349,0,0,0,0,0,0,0,0,0,-1,1399,1373,0,0
182,-349,0,0,0,0,0,0,0,0,0,-1,1406,1373,0,0
189,-349,0,0,0,0,0,0,0,0,0,-1,1413,1373,0,0
196,-349,0,0,0,0,0,0,0,0,0,-1,1420,1373,0,0
203,-349,0,0,0,0,0,0,0,0,0,-1,1427,1373,0,0
210,-349,0,0,0,0,0,0,0,0,0,-1,1434,1373,0,0
217,-349,0,0,0,0,0,0,0,0,0,-1,1441,1373,0,0
224,-349,0,0,0,0,0,0,0,0,0,-1,1448,1373,0,0
231,-349,0,0,0,0,0,0,0,0,0,-1,1455,1373,0,0
238,-349,0,0,0,0,0,0,0,0,0,-1,1462,1373,0,0
245,-349,0,0,0,0,0,0,0,0,0,-1,1469,1373,0,0
252,-349,0,0,0,0,0,0,0,0,0,-1,1476,1373,0,0
259,-349,0,0,0,0,0,0,0,0,0,-1,1483,1373,0,0
266,-349,0,0,0,0,0,0,0,0,0,-1,1490,1373,0,0
273,-349,0,0,0,0,0,0,0,0,0,-1,1497,1373,0,0
280,-349,0,0,0,0,0,0,0,0,0,-1,1504,1373,0,0
287,-349,0,0,0,0,0,0,0,0,0,-1,1511,1373,0,0
294,-349,0,0,0,0,0,0,0,0,0,-1,1518,1373,0,0
301,-349,0,0,0,0,0,0,0,0,0,-1,1525,1373,0,0
308,-349,0,0,0,0,0,0,0,0,0,-1,1532,1373,0,0
315,-349,0,0,0,0,0,0,0,0,0,-1,1539,1373,0,0
322,-349,0,0,0,0,0,0,0,0,0,-1,1546,1373,0,0
329,-349,0,0,0,0,0,0,0,0,0,-1,1553,1373,0,0
336,-349,0,0,0,0,0,0,0,0,0,-1,1560,1373,0,0
343,-349,0,0,0,0,0,0,0,0,0,-1,1567,1373,0,0
350,-349,0,0,0,0,0,0,0,0,0,-1,1574,1373,0,0
357,-349,0,0,0,0,0,0,0,0,0,-1,1581,1373,0,0
364,-349,0,0,0,0,0,0,0,0,0,-1,1588,1373,0,0
371,-349,0,0,0,0,0,0,0,0,0,-1,1595,1373,0,0
378,-349,0,0,0,0,0,0,0,0,0,-1,1602,1373,0,0
385,-349,0,0,0,0,0,0,0,0,0,-1,1609,1373,0,0
392,-349,0,0,0,0,0,0,0,0,0,-1,1616,1373,0,0
399,-349,0,0,0,0,0,0,0,0,0,-1,1623,1373,0,0
406,-349,0,0,0,0,0,0,0,0,0,-1,1630,1373,0,0
413,-349,0,0,0,0,0,0,0,0,0,-1,1637,1373,0,0
420,-349,0,0,0,0,0,0,0,0,0,-1,1644,1373,0,0
427,-349,0,0,0,0,0,0,0,0,0,-1,1651,1373,0,0
434,-349,0,0,0,0,0,0,0,0,0,-1,1658,1373,0,0
441,-349,0,0,0,0,0,0,0,0,0,-1,1665,1373,0,0
448,-349,0,0,0,0,0,0,0,0,0,-1,1672,1373,0,0
455,-349,0,0,0,0,0,0,0,0,0,-1,1679,1373,0,0
462,-349,0,0,0,0,0,0,0,0,0,-1,1686,1373,0,0
469,-349,0,0,0,0,0,0,0,0,0,-1,1693,1373,0,0
476,-349,0,0,0,0,0,0,0,0,0,-1,1700,1373,0,0
483,-349,0,0,0,0,0,0,0,0,0,-1,1707,1373,0,0
490,-349,0,0,0,0,0,0,0,0,0,-1,1714,1373,0,0
497,-349,0,0,0,0,0,0,0,0,0,-1,1721,1373,0,0
504,-349,0,0,0,0,0,0,0,0,0,-1,1728,1373,0,0
511,-349,0,0,0,0,0,0,0,0,0,-1,1735,1373,0,0
518,-349,0,0,0,0,0,0,0,0,0,-1,1742,1373,0,0
525,-349,0,0,0,0,0,0,0,0,0,-1,1749,1373,0,0
532,-349,0,0,0,0,0,0,0,0,0,-1,1756,1373,0,0
539,-349,0,0,0,0,0,0,0,0,0,-1,1763,1373,0,0
546,-349,0,0,0,0,0,0,0,0,0,-1,1770,1373,0,0
553,-349,0,0,0,0,0,0,0,0,0,-1,1777,1373,0,0
560,-349,63.5519,3.94397,0,0,0,0,0,0,0,-1,1784,1373,63.5519,-3.94394
567,-349,64.7863,2.54688,0,0,0,0,0,0,0,-1,1791,1373,64.7863,-2.5469
574,-349,65.8214,1.63818,0,0,0,0,0,0,0,-1,1798,1373,65.8214,-1.63813
581,-349,42.8947,6.78381,0,0,0,0,0,0,0,-1,1805,1373,42.8946,-6.78376
588,-349,44.8121,5.06213,0,0,0,0,0,0,0,-1,1812,1373,44.8121,-5.06215
595,-349,44.4338,6.14099,0,0,0,0,0,0,0,-1,1819,1373,44.4338,-6.14095
602,-349,35.6641,3.26465,0,0,0,0,0,0,0,-1,1826,1373,35.6641,-3.26468
609,-349,34.7175,4.401,0,0,0,0,0,0,0,-1,1833,1373,34.7175,-4.40096
616,-349,27.1451,6.68274,0,0,0,0,0,0,0,-1,1840,1373,27.1451,-6.6828
623,-349,18.8478,2.75769,0,0,0,0,0,0,0,-1,1847,1373,18.8478,-2.75774
630,-349,15.4948,6.47644,0,0,0,0,0,0,0,-1,1854,1373,15.4947,-6.4765
637,-349,16.5161,6.92639,0,0,0,0,0,0,0,-1,1861,1373,16.5161,-6.92636
644,-349,44.2694,19.8312,0,0,0,0,0,0,0,-1,1868,1373,44.2695,-19.8311
651,-349,45.0034,19.4197,0,0,0,0,0,0,0,-1,1875,1373,45.0034,-19.4197
658,-349,44.7745,18.5634,2.53923e-05,0.000493801,-0.000354616,0.000684572,-0.000165379,-1.07724,0.000520343,0.0281227,1882,1373,44.7745,-18.5634
665,-349,44.7004,17.7563,0.000615541,0.000212333,-0.000383752,0.000847422,-1.95483e-05,-0.543538,0.000571576,0.0220363,1889,1373,44.7005,-17.7564
672,-349,44.7064,16.9971,0.00126059,0.000154211,-0.000551986,0.00148888,-7.40773e-05,-0.392155,0.00101818,0.0160478,1896,1373,44.7064,-16.997
679,-349,44.6648,16.2329,0.00194612,0.000189197,-0.000790634,0.00224952,-0.000114204,-0.366414,0.00153916,0.0162892,1903,1373,44.6648,-16.2329
686,-349,44.6766,15.4128,0.00264862,0.000293074,-0.00107389,0.00306471,-0.000123013,-0.369647,0.00208535,0.0179059,1910,1373,44.6767,-15.4129
693,-349,44.6055,14.6162,0.00339037,0.000495773,-0.00141951,0.0039703,-8.41619e-05,-0.387852,0.00267536,0.019108,1917,1373,44.6055,-14.6162
700,-349,44.545,13.8459,0.00413082,0.000780512,-0.00181094,0.00492258,-1.12397e-05,-0.412164,0.00328547,0.0171348,1924,1373,44.5451,-13.8459
707,-349,44.5938,13.0068,0.00475609,0.00106425,-0.00215957,0.00575115,6.91928e-05,-0.431772,0.00381125,0.038291,1931,1373,44.5938,-13.0068
714,-349,44.6914,12.0527,0,0,0,0,0,0,0,-1,1938,1373,44.6913,-12.0527
721,-349,19.6688,5.93604,0,0,0,0,0,0,0,-1,1945,1373,19.6688,-5.93606
728,-349,18.6333,3.73218,0,0,0,0,0,0,0,-1,1952,1373,18.6333,-3.73214
735,-349,18.1918,3.39954,0,0,0,0,0,0,0,-1,1959,1373,18.1918,-3.3995
742,-349,20.7345,2.07483,0,0,0,0,0,0,0,-1,1966,1373,20.7345,-2.07485
749,-349,21.9037,1.45789,0,0,0,0,0,0,0,-1,1973,1373,21.9037,-1.45788
756,-349,0,0,0,0,0,0,0,0,0,-1,1980,1373,0,0
763,-349,0,0,0,0,0,0,0,0,0,-1,1987,1373,0,0
770,-349,0,0,0,0,0,0,0,0,0,-1,1994,1373,0,0
777,-349,0,0,0,0,0,0,0,0,0,-1,2001,1373,0,0
784,-349,0,0,0,0,0,0,0,0,0,-1,2008,1373,0,0
791,-349,0,0,0,0,0,0,0,0,0,-1,2015,1373,0,0
798,-349,0,0,0,0,0,0,0,0,0,-1,2022,1373,0,0
805,-349,0,0,0,0,0,0,0,0,0,-1,2029,1373,0,0
812,-349,0,0,0,0,0,0,0,0,0,-1,2036,1373,0,0
-700,-356,0,0,0,0,0,0,0,0,0,-1,524,1380,0,0
-693,-356,0,0,0,0,0,0,0,0,0,-1,531,1380,0,0
-686,-356,0,0,0,0,0,0,0,0,0,-1,538,1380,0,0
-679,-356,0,0,0,0,0,0,0,0,0,-1,545,1380,0,0
-672,-356,0,0,0,0,0,0,0,0,0,-1,552,1380,0,0
-665,-356,0,0,0,0,0,0,0,0,0,-1,559,1380,0,0
-658,-356,0,0,0,0,0,0,0,0,0,-1,566,1380,0,0
-651,-356,0,0,0,0,0,0,0,0,0,-1,573,1380,0,0
-644,-356,0,0,0,0,0,0,0,0,0,-1,580,1380,0,0
-637,-356,0,0,0,0,0,0,0,0,0,-1,587,1380,0,0
-630,-356,-8.23126,-5.01917,0,0,0,0,0,0,0,-1,594,1380,-8.23124,5.0192
-623,-356,-0.263855,-0.675781,0,0,0,0,0,0,0,-1,601,1380,-0.263835,0.675841
-616,-356,-8.26532,-3.43945,0,0,0,0,0,0,0,-1,608,1380,-8.2653,3.43948
-609,-356,-4.88483,0.734497,0,0,0,0,0,0,0,-1,615,1380,-4.88485,-0.734532
-602,-356,-9.06635,2.4021,0,0,0,0,0,0,0,-1,622,1380,-9.06634,-2.40206
-595,-356,-8.45703,3.61853,0,0,0,0,0,0,0,-1,629,1380,-8.45706,-3.61848
-588,-356,-9.31738,4.14258,0,0,0,0,0,0,0,-1,636,1380,-9.31736,-4.14255
-581,-356,-16.5185,7.32312,0,0,0,0,0,0,0,-1,643,1380,-16.5185,-7.32306
-574,-356,-26.5101,12.4442,0,0,0,0,0,0,0,-1,650,1380,-26.5101,-12.4442
-567,-356,-26.6811,13.1864,0.00540487,0.00448371,0.0035048,0.00847923,0.00140936,0.720065,0.00524651,0.0255551,657,1380,-26.6811,-13.1864
-560,-356,-26.6371,14.1251,0.00451911,0.00315046,0.00272207,0.00664156,0.00102802,0.662251,0.00412792,0.0193855,664,1380,-26.6371,-14.1251
-553,-356,-26.6747,14.9579,0.00383156,0.00210498,0.00217145,0.00530503,0.0006315,0.596196,0.00334611,0.021499,671,1380,-26.6747,-14.9578
-546,-356,-26.7584,15.7377,0.00332554,0.00128751,0.00180142,0.00437618,0.000236863,0.527999,0.00284179,0.023134,678,1380,-26.7584,-15.7377
-539,-356,-26.8105,16.5718,0.00301395,0.000663594,0.00160062,0.00382448,-0.000146933,0.468741,0.00260002,0.0169003,685,1380,-26.8106,-16.5718
-532,-356,-26.8714,17.4397,0.0029068,0.000237943,0.00157347,0.0036355,-0.000490763,0.43371,0.00260272,0.0159004,692,1380,-26.8714,-17.4397
-525,-356,-26.897,18.2758,0.00298837,-2.29388e-05,0.00169467,0.00374964,-0.0007842,0.422196,0.00279803,0.0136101,699,1380,-26.897,-18.2757
-518,-356,-26.9142,19.095,0.00330081,-8.00721e-06,0.0020112,0.00425063,-0.000957825,0.441214,0.00320116,0.0152018,706,1380,-26.9142,-19.095
-511,-356,-26.9207,19.9319,0,0,0,0,0,0,0,-1,713,1380,-26.9206,-19.9318
-504,-356,-14.3925,12.3971,0,0,0,0,0,0,0,-1,720,1380,-14.3925,-12.3971
-497,-356,-5.68604,4.96387,0,0,0,0,0,0,0,-1,727,1380,-5.68605,-4.96385
-490,-356,-7.95288,5.5625,0,0,0,0,0,0,0,-1,734,1380,-7.95285,-5.56246
-483,-356,-7.2627,4.07446,0,0,0,0,0,0,0,-1,741,1380,-7.2627,-4.07441
-476,-356,-5.1936,4.16016,0,0,0,0,0,0,0,-1,748,1380,-5.1936,-4.16012
-469,-356,-10.0883,0.536011,0,0,0,0,0,0,0,-1,755,1380,-10.0883,-0.535989
-462,-356,-12.3481,-0.215698,0,0,0,0,0,0,0,-1,762,1380,-12.3481,0.215641
-455,-356,-13.1367,-0.264648,0,0,0,0,0,0,0,-1,769,1380,-13.1367,0.264647
-448,-356,-13.9116,-0.310181,0,0,0,0,0,0,0,-1,776,1380,-13.9115,0.310207
-441,-356,-13.1602,3.05603,0,0,0,0,0,0,0,-1,783,1380,-13.1602,-3.05609
-434,-356,0,0,0,0,0,0,0,0,0,-1,790,1380,0,0
-427,-356,0,0,0,0,0,0,0,0,0,-1,797,1380,0,0
-420,-356,0,0,0,0,0,0,0,0,0,-1,804,1380,0,0
-413,-356,0,0,0,0,0,0,0,0,0,-1,811,1380,0,0
-406,-356,0,0,0,0,0,0,0,0,0,-1,818,1380,0,0
-399,-356,0,0,0,0,0,0,0,0,0,-1,825,1380,0,0
-392,-356,0,0,0,0,0,0,0,0,0,-1,832,1380,0,0
-385,-356,0,0,0,0,0,0,0,0,0,-1,839,1380,0,0
-378,-356,0,0,0,0,0,0,0,0,0,-1,846,1380,0,0
-371,-356,0,0,0,0,0,0,0,0,0,-1,853,1380,0,0
-364,-356,0,0,0,0,0,0,0,0,0,-1,860,1380,0,0
-357,-356,0,0,0,0,0,0,0,0,0,-1,867,1380,0,0
-350,-356,0,0,0,0,0,0,0,0,0,-1,874,1380,0,0
-343,-356,0,0,0,0,0,0,0,0,0,-1,881,1380,0,0
-336,-356,0,0,0,0,0,0,0,0,0,-1,888,1380,0,0
-329,-356,0,0,0,0,0,0,0,0,0,-1,895,1380,0,0
-322,-356,0,0,0,0,0,0,0,0,0,-1,902,1380,0,0
-315,-356,0,0,0,0,0,0,0,0,0,-1,909,1380,0,0
-308,-356,0,0,0,0,0,0,0,0,0,-1,916,1380,0,0
-301,-356,0,0,0,0,0,0,0,0,0,-1,923,1380,0,0
-294,-356,0,0,0,0,0,0,0,0,0,-1,930,1380,0,0
-287,-356,0,0,0,0,0,0,0,0,0,-1,937,1380,0,0
-280,-356,0,0,0,0,0,0,0,0,0,-1,944,1380,0,0
-273,-356,0,0,0,0,0,0,0,0,0,-1,951,1380,0,0
-266,-356,0,0,0,0,0,0,0,0,0,-1,958,1380,0,0
-259,-356,0,0,0,0,0,0,0,0,0,-1,965,1380,0,0
-252,-356,0,0,0,0,0,0,0,0,0,-1,972,1380,0,0
-245,-356,0,0,0,0,0,0,0,0,0,-1,979,1380,0,0
-238,-356,0,0,0,0,0,0,0,0,0,-1,986,1380,0,0
-231,-356,0,0,0,0,0,0,0,0,0,-1,993,1380,0,0
-224,-356,0,0,0,0,0,0,0,0,0,-1,1000,1380,0,0
-217,-356,0,0,0,0,0,0,0,0,0,-1,1007,1380,0,0
-210,-356,0,0,0,0,0,0,0,0,0,-1,1014,1380,0,0
-203,-356,0,0,0,0,0,0,0,0,0,-1,1021,1380,0,0
-196,-356,0,0,0,0,0,0,0,0,0,-1,1028,1380,0,0
-189,-356,0,0,0,0,0,0,0,0,0,-1,1035,1380,0,0
-182,-356,0,0,0,0,0,0,0,0,0,-1,1042,1380,0,0
-175,-356,0,0,0,0,0,0,0,0,0,-1,1049,1380,0,0
-168,-356,0,0,0,0,0,0,0,0,0,-1,1056,1380,0,0
-161,-356,0,0,0,0,0,0,0,0,0,-1,1063,1380,0,0
-154,-356,0,0,0,0,0,0,0,0,0,-1,1070,1380,0,0
-147,-356,0,0,0,0,0,0,0,0,0,-1,1077,1380,0,0
-140,-356,0,0,0,0,0,0,0,0,0,-1,1084,1380,0,0
-133,-356,0,0,0,0,0,0,0,0,0,-1,1091,1380,0,0
-126,-356,0,0,0,0,0,0,0,0,0,-1,1098,1380,0,0
-119,-356,0,0,0,0,0,0,0,0,0,-1,1105,1380,0,0
-112,-356,0,0,0,0,0,0,0,0,0,-1,1112,1380,0,0
-105,-356,0,0,0,0,0,0,0,0,0,-1,1119,1380,0,0
-98,-356,0,0,0,0,0,0,0,0,0,-1,1126,1380,0,0
-91,-356,0,0,0,0,0,0,0,0,0,-1,1133,1380,0,0
-84,-356,0,0,0,0,0,0,0,0,0,-1,1140,1380,0,0
-77,-356,0,0,0,0,0,0,0,0,0,-1,1147,1380,0,0
-70,-356,0,0,0,0,0,0,0,0,0,-1,1154,1380,0,0
-63,-356,0,0,0,0,0,0,0,0,0,-1,1161,1380,0,0
-56,-356,0,0,0,0,0,0,0,0,0,-1,1168,1380,0,0
-49,-356,0,0,0,0,0,0,0,0,0,-1,1175,1380,0,0
-42,-356,0,0,0,0,0,0,0,0,0,-1,1182,1380,0,0
-35,-356,0,0,0,0,0,0,0,0,0,-1,1189,1380,0,0
-28,-356,0,0,0,0,0,0,0,0,0,-1,1196,1380,0,0
-21,-356,0,0,0,0,0,0,0,0,0,-1,1203,1380,0,0
-14,-356,0,0,0,0,0,0,0,0,0,-1,1210,1380,0,0
-7,-356,0,0,0,0,0,0,0,0,0,-1,1217,1380,0,0
0,-356,0,0,0,0,0,0,0,0,0,-1,1224,1380,0,0
7,-356,0,0,0,0,0,0,0,0,0,-1,1231,1380,0,0
14,-356,0,0,0,0,0,0,0,0,0,-1,1238,1380,0,0
21,-356,0,0,0,0,0,0,0,0,0,-1,1245,1380,0,0
28,-356,0,0,0,0,0,0,0,0,0,-1,1252,1380,0,0
35,-356,0,0,0,0,0,0,0,0,0,-1,1259,1380,0,0
42,-356,0,0,0,0,0,0,0,0,0,-1,1266,1380,0,0
49,-356,0,0,0,0,0,0,0,0,0,-1,1273,1380,0,0
56,-356,0,0,0,0,0,0,0,0,0,-1,1280,1380,0,0
63,-356,0,0,0,0,0,0,0,0,0,-1,1287,1380,0,0
70,-356,0,0,0,0,0,0,0,0,0,-1,1294,1380,0,0
77,-356,0,0,0,0,0,0,0,0,0,-1,1301,1380,0,0
84,-356,0,0,0,0,0,0,0,0,0,-1,1308,1380,0,0
91,-356,0,0,0,0,0,0,0,0,0,-1,1315,1380,0,0
98,-356,0,0,0,0,0,0,0,0,0,-1,1322,1380,0,0
105,-356,0,0,0,0,0,0,0,0,0,-1,1329,1380,0,0
112,-356,0,0,0,0,0,0,0,0,0,-1,1336,1380,0,0
119,-356,0,0,0,0,0,0,0,0,0,-1,1343,1380,0,0
126,-356,0,0,0,0,0,0,0,0,0,-1,1350,1380,0,0
133,-356,0,0,0,0,0,0,0,0,0,-1,1357,1380,0,0
140,-356,0,0,0,0,0,0,0,0,0,-1,1364,1380,0,0
147,-356,0,0,0,0,0,0,0,0,0,-1,1371,1380,0,0
154,-356,0,0,0,0,0,0,0,0,0,-1,1378,1380,0,0
161,-356,0,0,0,0,0,0,0,0,0,-1,1385,1380,0,0
168,-356,0,0,0,0,0,0,0,0,0,-1,1392,1380,0,0
175,-356,0,0,0,0,0,0,0,0,0,-1,1399,1380,0,0
182,-356,0,0,0,0,0,0,0,0,0,-1,1406,1380,0,0
189,-356,0,0,0,0,0,0,0,0,0,-1,1413,1380,0,0
196,-356,0,0,0,0,0,0,0,0,0,-1,1420,1380,0,0
203,-356,0,0,0,0,0,0,0,0,0,-1,1427,1380,0,0
210,-356,0,0,0,0,0,0,0,0,0,-1,1434,1380,0,0
217,-356,0,0,0,0,0,0,0,0,0,-1,1441,1380,0,0
224,-356,0,0,0,0,0,0,0,0,0,-1,1448,1380,0,0
231,-356,0,0,0,0,0,0,0,0,0,-1,1455,1380,0,0
238,-356,0,0,0,0,0,0,0,0,0,-1,1462,1380,0,0
245,-356,0,0,0,0,0,0,0,0,0,-1,1469,1380,0,0
252,-356,0,0,0,0,0,0,0,0,0,-1,1476,1380,0,0
259,-356,0,0,0,0,0,0,0,0,0,-1,1483,1380,0,0
266,-356,0,0,0,0,0,0,0,0,0,-1,1490,1380,0,0
273,-356,0,0,0,0,0,0,0,0,0,-1,1497,1380,0,0
280,-356,0,0,0,0,0,0,0,0,0,-1,1504,1380,0,0
287,-356,0,0,0,0,0,0,0,0,0,-1,1511,1380,0,0
294,-356,0,0,0,0,0,0,0,0,0,-1,1518,1380,0,0
301,-356,0,0,0,0,0,0,0,0,0,-1,1525,1380,0,0
308,-356,0,0,0,0,0,0,0,0,0,-1,1532,1380,0,0
315,-356,0,0,0,0,0,0,0,0,0,-1,1539,1380,0,0
322,-356,0,0,0,0,0,0,0,0,0,-1,1546,1380,0,0
329,-356,0,0,0,0,0,0,0,0,0,-1,1553,1380,0,0
336,-356,0,0,0,0,0,0,0,0,0,-1,1560,1380,0,0
343,-356,0,0,0,0,0,0,0,0,0,-1,1567,1380,0,0
350,-356,0,0,0,0,0,0,0,0,0,-1,1574,1380,0,0
357,-356,0,0,0,0,0,0,0,0,0,-1,1581,1380,0,0
364,-356,0,0,0,0,0,0,0,0,0,-1,1588,1380,0,0
371,-356,0,0,0,0,0,0,0,0,0,-1,1595,1380,0,0
378,-356,0,0,0,0,0,0,0,0,0,-1,1602,1380,0,0
385,-356,0,0,0,0,0,0,0,0,0,-1,1609,1380,0,0
392,-356,0,0,0,0,0,0,0,0,0,-1,1616,1380,0,0
399,-356,0,0,0,0,0,0,0,0,0,-1,1623,1380,0,0
406,-356,0,0,0,0,0,0,0,0,0,-1,1630,1380,0,0
413,-356,0,0,0,0,0,0,0,0,0,-1,1637,1380,0,0
420,-356,0,0,0,0,0,0,0,0,0,-1,1644,1380,0,0
427,-356,0,0,0,0,0,0,0,0,0,-1,1651,1380,0,0
434,-356,0,0,0,0,0,0,0,0,0,-1,1658,1380,0,0
441,-356,0,0,0,0,0,0,0,0,0,-1,1665,1380,0,0
448,-356,0,0,0,0,0,0,0,0,0,-1,1672,1380,0,0
455,-356,0,0,0,0,0,0,0,0,0,-1,1679,1380,0,0
462,-356,0,0,0,0,0,0,0,0,0,-1,1686,1380,0,0
469,-356,0,0,0,0,0,0,0,0,0,-1,1693,1380,0,0
476,-356,0,0,0,0,0,0,0,0,0,-1,1700,1380,0,0
483,-356,0,0,0,0,0,0,0,0,0,-1,1707,1380,0,0
490,-356,0,0,0,0,0,0,0,0,0,-1,1714,1380,0,0
497,-356,0,0,0,0,0,0,0,0,0,-1,1721,1380,0,0
504,-356,0,0,0,0,0,0,0,0,0,-1,1728,1380,0,0
511,-356,0,0,0,0,0,0,0,0,0,-1,1735,1380,0,0
518,-356,0,0,0,0,0,0,0,0,0,-1,1742,1380,0,0
525,-356,0,0,0,0,0,0,0,0,0,-1,1749,1380,0,0
532,-356,0,0,0,0,0,0,0,0,0,-1,1756,1380,0,0
539,-356,0,0,0,0,0,0,0,0,0,-1,1763,1380,0,0
546,-356,0,0,0,0,0,0,0,0,0,-1,1770,1380,0,0
553,-356,0,0,0,0,0,0,0,0,0,-1,1777,1380,0,0
560,-356,63.6171,3.12183,0,0,0,0,0,0,0,-1,1784,1380,63.617,-3.12183
567,-356,65.0425,1.89966,0,0,0,0,0,0,0,-1,1791,1380,65.0424,-1.8996
574,-356,45.5742,3.39575,0,0,0,0,0,0,0,-1,1798,1380,45.5742,-3.39574
581,-356,45.6708,3.64172,0,0,0,0,0,0,0,-1,1805,1380,45.6707,-3.64175
588,-356,44.4739,4.87085,0,0,0,0,0,0,0,-1,1812,1380,44.4739,-4.87086
595,-356,32.0834,5.86084,0,0,0,0,0,0,0,-1,1819,1380,32.0834,-5.86079
602,-356,30.1604,6.07104,0,0,0,0,0,0,0,-1,1826,1380,30.1604,-6.07104
609,-356,28.3435,6.48901,0,0,0,0,0,0,0,-1,1833,1380,28.3435,-6.48899
616,-356,26.9358,6.80872,0,0,0,0,0,0,0,-1,1840,1380,26.9358,-6.80877
623,-356,16.1803,1.07532,0,0,0,0,0,0,0,-1,1847,1380,16.1803,-1.07529
630,-356,16.4138,6.91553,0,0,0,0,0,0,0,-1,1854,1380,16.4138,-6.9155
637,-356,24.8021,12.0151,0,0,0,0,0,0,0,-1,1861,1380,24.8022,-12.0151
644,-356,44.1659,20.2952,0,0,0,0,0,0,0,-1,1868,1380,44.1659,-20.2951
651,-356,44.1049,19.4075,-0.000788909,0.000704664,-0.000232724,0.000740087,-0.000824331,-1.41975,0.000903653,0.0225299,1875,1380,44.1049,-19.4074
658,-356,43.9894,18.5685,-7.21384e-05,0.000353702,-0.000194912,0.000429444,-0.00014788,-1.20016,0.00034628,0.0157898,1882,1380,43.9893,-18.5685
665,-356,43.9388,17.8099,0.000747804,0.000136985,-0.000341157,0.000900285,-1.54957e-05,-0.420315,0.000605421,0.0155532,1889,1380,43.9388,-17.81
672,-356,43.9081,17.0798,0.00162973,9.65558e-05,-0.000610403,0.00184306,-0.00011678,-0.336229,0.00126943,0.016098,1896,1380,43.9081,-17.0799
679,-356,43.8849,16.288,0.00258098,0.000153661,-0.000976144,0.00292483,-0.000190186,-0.338678,0.00201627,0.0181697,1903,1380,43.8849,-16.2879
686,-356,43.8485,15.4368,0.00360836,0.000351651,-0.00145271,0.00416219,-0.000202176,-0.364226,0.00284458,0.0196908,1910,1380,43.8485,-15.4368
693,-356,43.8044,14.6642,0.00469051,0.000679669,-0.00201629,0.00552888,-0.000158701,-0.394051,0.00373994,0.0160174,1917,1380,43.8044,-14.6642
700,-356,43.7822,13.877,0.00584637,0.00120009,-0.00272702,0.00710563,-5.91711e-05,-0.432601,0.00475693,0.0230251,1924,1380,43.7823,-13.8769
707,-356,43.8453,13.0829,0,0,0,0,0,0,0,-1,1931,1380,43.8453,-13.0828
714,-356,19.6907,5.82129,0,0,0,0,0,0,0,-1,1938,1380,19.6907,-5.82132
721,-356,17.2948,4.1958,0,0,0,0,0,0,0,-1,1945,1380,17.2948,-4.19584
728,-356,19.1846,2.31519,0,0,0,0,0,0,0,-1,1952,1380,19.1846,-2.31514
735,-356,20.0731,2.50842,0,0,0,0,0,0,0,-1,1959,1380,20.0731,-2.50844
742,-356,21.0111,2.43762,0,0,0,0,0,0,0,-1,1966,1380,21.0112,-2.43762
749,-356,22.1411,1.83276,0,0,0,0,0,0,0,-1,1973,1380,22.1411,-1.83275
756,-356,0,0,0,0,0,0,0,0,0,-1,1980,1380,0,0
763,-356,0,0,0,0,0,0,0,0,0,-1,1987,1380,0,0
770,-356,0,0,0,0,0,0,0,0,0,-1,1994,1380,0,0
777,-356,0,0,0,0,0,0,0,0,0,-1,2001,1380,0,0
784,-356,0,0,0,0,0,0,0,0,0,-1,2008,1380,0,0
791,-356,0,0,0,0,0,0,0,0,0,-1,2015,1380,0,0
798,-356,0,0,0,0,0,0,0,0,0,-1,2022,1380,0,0
805,-356,0,0,0,0,0,0,0,0,0,-1,2029,1380,0,0
812,-356,0,0,0,0,0,0,0,0,0,-1,2036,1380,0,0
-700,-363,0,0,0,0,0,0,0,0,0,-1,524,1387,0,0
-693,-363,0,0,0,0,0,0,0,0,0,-1,531,1387,0,0
-686,-363,0,0,0,0,0,0,0,0,0,-1,538,1387,0,0
-679,-363,0,0,0,0,0,0,0,0,0,-1,545,1387,0,0
-672,-363,0,0,0,0,0,0,0,0,0,-1,552,1387,0,0
-665,-363,0,0,0,0,0,0,0,0,0,-1,559,1387,0,0
-658,-363,0,0,0,0,0,0,0,0,0,-1,566,1387,0,0
-651,-363,0,0,0,0,0,0,0,0,0,-1,573,1387,0,0
-644,-363,0,0,0,0,0,0,0,0,0,-1,580,1387,0,0
-637,-363,0,0,0,0,0,0,0,0,0,-1,587,1387,0,0
-630,-363,0,0,0,0,0,0,0,0,0,-1,594,1387,0,0
-623,-363,-9.67566,-5.91846,0,0,0,0,0,0,0,-1,601,1387,-9.67563,5.91847
-616,-363,-9.02985,-2.98083,0,0,0,0,0,0,0,-1,608,1387,-9.02987,2.98079
-609,-363,-4.90265,0.195679,0,0,0,0,0,0,0,-1,615,1387,-4.90263,-0.195721
-602,-363,-9.65009,3.5321,0,0,0,0,0,0,0,-1,622,1387,-9.65007,-3.53211
-595,-363,-8.00256,3.48853,0,0,0,0,0,0,0,-1,629,1387,-8.00256,-3.48855
-588,-363,-10.8846,4.49768,0,0,0,0,0,0,0,-1,636,1387,-10.8846,-4.49773
-581,-363,-11.7469,5.15161,0,0,0,0,0,0,0,-1,643,1387,-11.747,-5.15167
-574,-363,-17.8334,8.33801,0,0,0,0,0,0,0,-1,650,1387,-17.8334,-8.33804
-567,-363,-25.9177,13.2338,0,0,0,0,0,0,0,-1,657,1387,-25.9177,-13.2338
-560,-363,-25.8383,14.1329,0.00510814,0.00356357,0.00320813,0.00763563,0.00103608,0.667282,0.00478262,0.0149418,664,1387,-25.8383,-14.1329
-553,-363,-25.8562,14.9926,0.00424088,0.00241914,0.00249582,0.00598686,0.000673167,0.610429,0.00378685,0.0137182,671,1387,-25.8562,-14.9926
-546,-363,-25.9174,15.7932,0.00355886,0.0015291,0.00197761,0.0047668,0.000321158,0.548328,0.0030764,0.0143672,678,1387,-25.9174,-15.7932
-539,-363,-25.9355,16.6407,0.00308577,0.000862581,0.00164297,0.00395786,-9.50485e-06,0.487982,0.00264175,0.0161039,685,1387,-25.9355,-16.6408
-532,-363,-26.0078,17.4828,0.00282434,0.000423153,0.00149269,0.00353935,-0.000291857,0.446714,0.00246263,0.0137424,692,1387,-26.0077,-17.4828
-525,-363,-26.0487,18.3127,0.00275303,0.000150946,0.00149105,0.00343086,-0.000526888,0.426673,0.00248158,0.012244,699,1387,-26.0487,-18.3128
-518,-363,-26.0781,19.131,0.00288985,0.000119822,0.00166273,0.00366885,-0.000659175,0.438135,0.00269265,0.0113403,706,1387,-26.0781,-19.131
-511,-363,-26.0764,19.978,0.00330786,0.000320066,0.00207406,0.00437002,-0.000742096,0.473295,0.00318962,0.0332094,713,1387,-26.0764,-19.978
-504,-363,-26.0462,20.8633,0,0,0,0,0,0,0,-1,720,1387,-26.0462,-20.8633
-497,-363,-7.18842,7.29944,0,0,0,0,0,0,0,-1,727,1387,-7.18839,-7.29945
-490,-363,-5.42413,4.6958,0,0,0,0,0,0,0,-1,734,1387,-5.42412,-4.69583
-483,-363,-6.28375,4.1394,0,0,0,0,0,0,0,-1,741,1387,-6.28374,-4.13944
-476,-363,-5.83807,4.31018,0,0,0,0,0,0,0,-1,748,1387,-5.8381,-4.31013
-469,-363,-10.7125,0.697754,0,0,0,0,0,0,0,-1,755,1387,-10.7125,-0.697811
-462,-363,-9.55951,-0.0830078,0,0,0,0,0,0,0,-1,762,1387,-9.55949,0.0830163
-455,-363,-13.1008,-0.290894,0,0,0,0,0,0,0,-1,769,1387,-13.1008,0.290921
-448,-363,-11.7324,2.46606,0,0,0,0,0,0,0,-1,776,1387,-11.7324,-2.46605
-441,-363,-12.4464,2.5354,0,0,0,0,0,0,0,-1,783,1387,-12.4463,-2.53537
-434,-363,-13.6918,2.14661,0,0,0,0,0,0,0,-1,790,1387,-13.6918,-2.14662
-427,-363,0,0,0,0,0,0,0,0,0,-1,797,1387,0,0
-420,-363,0,0,0,0,0,0,0,0,0,-1,804,1387,0,0
-413,-363,0,0,0,0,0,0,0,0,0,-1,811,1387,0,0
-406,-363,0,0,0,0,0,0,0,0,0,-1,818,1387,0,0
-399,-363,0,0,0,0,0,0,0,0,0,-1,825,1387,0,0
-392,-363,0,0,0,0,0,0,0,0,0,-1,832,1387,0,0
-385,-363,0,0,0,0,0,0,0,0,0,-1,839,1387,0,0
-378,-363,0,0,0,0,0,0,0,0,0,-1,846,1387,0,0
-371,-363,0,0,0,0,0,0,0,0,0,-1,853,1387,0,0
-364,-363,0,0,0,0,0,0,0,0,0,-1,860,1387,0,0
-357,-363,0,0,0,0,0,0,0,0,0,-1,867,1387,0,0
-350,-363,0,0,0,0,0,0,0,0,0,-1,874,1387,0,0
-343,-363,0,0,0,0,0,0,0,0,0,-1,881,1387,0,0
-336,-363,0,0,0,0,0,0,0,0,0,-1,888,1387,0,0
-329,-363,0,0,0,0,0,0,0,0,0,-1,895,1387,0,0
-322,-363,0,0,0,0,0,0,0,0,0,-1,902,1387,0,0
-315,-363,0,0,0,0,0,0,0,0,0,-1,909,1387,0,0
-308,-363,0,0,0,0,0,0,0,0,0,-1,916,1387,0,0
-301,-363,0,0,0,0,0,0,0,0,0,-1,923,1387,0,0
-294,-363,0,0,0,0,0,0,0,0,0,-1,930,1387,0,0
-287,-363,0,0,0,0,0,0,0,0,0,-1,937,1387,0,0
-280,-363,0,0,0,0,0,0,0,0,0,-1,944,1387,0,0
-273,-363,0,0,0,0,0,0,0,0,0,-1,951,1387,0,0
-266,-363,0,0,0,0,0,0,0,0,0,-1,958,1387,0,0
-259,-363,0,0,0,0,0,0,0,0,0,-1,965,1387,0,0
-252,-363,0,0,0,0,0,0,0,0,0,-1,972,1387,0,0
-245,-363,0,0,0,0,0,0,0,0,0,-1,979,1387,0,0
-238,-363,0,0,0,0,0,0,0,0,0,-1,986,1387,0,0
-231,-363,0,0,0,0,0,0,0,0,0,-1,993,1387,0,0
-224,-363,0,0,0,0,0,0,0,0,0,-1,1000,1387,0,0
-217,-363,0,0,0,0,0,0,0,0,0,-1,1007,1387,0,0
-210,-363,0,0,0,0,0,0,0,0,0,-1,1014,1387,0,0
-203,-363,0,0,0,0,0,0,0,0,0,-1,1021,1387,0,0
-196,-363,0,0,0,0,0,0,0,0,0,-1,1028,1387,0,0
-189,-363,0,0,0,0,0,0,0,0,0,-1,1035,1387,0,0
-182,-363,0,0,0,0,0,0,0,0,0,-1,1042,1387,0,0
-175,-363,0,0,0,0,0,0,0,0,0,-1,1049,1387,0,0
-168,-363,0,0,0,0,0,0,0,0,0,-1,1056,1387,0,0
-161,-363,0,0,0,0,0,0,0,0,0,-1,1063,1387,0,0
-154,-363,0,0,0,0,0,0,0,0,0,-1,1070,1387,0,0
-147,-363,0,0,0,0,0,0,0,0,0,-1,1077,1387,0,0
-140,-363,0,0,0,0,0,0,0,0,0,-1,1084,1387,0,0
-133,-363,0,0,0,0,0,0,0,0,0,-1,1091,1387,0,0
-126,-363,0,0,0,0,0,0,0,0,0,-1,1098,1387,0,0
-119,-363,0,0,0,0,0,0,0,0,0,-1,1105,1387,0,0
-112,-363,0,0,0,0,0,0,0,0,0,-1,1112,1387,0,0
-105,-363,0,0,0,0,0,0,0,0,0,-1,1119,1387,0,0
-98,-363,0,0,0,0,0,0,0,0,0,-1,1126,1387,0,0
-91,-363,0,0,0,0,0,0,0,0,0,-1,1133,1387,0,0
-84,-363,0,0,0,0,0,0,0,0,0,-1,1140,1387,0,0
-77,-363,0,0,0,0,0,0,0,0,0,-1,1147,1387,0,0
-70,-363,0,0,0,0,0,0,0,0,0,-1,1154,1387,0,0
-63,-363,0,0,0,0,0,0,0,0,0,-1,1161,1387,0,0
-56,-363,0,0,0,0,0,0,0,0,0,-1,1168,1387,0,0
-49,-363,0,0,0,0,0,0,0,0,0,-1,1175,1387,0,0
-42,-363,0,0,0,0,0,0,0,0,0,-1,1182,1387,0,0
-35,-363,0,0,0,0,0,0,0,0,0,-1,1189,1387,0,0
-28,-363,0,0,0,0,0,0,0,0,0,-1,1196,1387,0,0
-21,-363,0,0,0,0,0,0,0,0,0,-1,1203,1387,0,0
-14,-363,0,0,0,0,0,0,0,0,0,-1,1210,1387,0,0
-7,-363,0,0,0,0,0,0,0,0,0,-1,1217,1387,0,0
0,-363,0,0,0,0,0,0,0,0,0,-1,1224,1387,0,0
7,-363,0,0,0,0,0,0,0,0,0,-1,1231,1387,0,0
14,-363,0,0,0,0,0,0,0,0,0,-1,1238,1387,0,0
21,-363,0,0,0,0,0,0,0,0,0,-1,1245,1387,0,0
28,-363,0,0,0,0,0,0,0,0,0,-1,1252,1387,0,0
35,-363,0,0,0,0,0,0,0,0,0,-1,1259,1387,0,0
42,-363,0,0,0,0,0,0,0,0,0,-1,1266,1387,0,0
49,-363,0,0,0,0,0,0,0,0,0,-1,1273,1387,0,0
56,-363,0,0,0,0,0,0,0,0,0,-1,1280,1387,0,0
63,-363,0,0,0,0,0,0,0,0,0,-1,1287,1387,0,0
70,-363,0,0,0,0,0,0,0,0,0,-1,1294,1387,0,0
77,-363,0,0,0,0,0,0,0,0,0,-1,1301,1387,0,0
84,-363,0,0,0,0,0,0,0,0,0,-1,1308,1387,0,0
91,-363,0,0,0,0,0,0,0,0,0,-1,1315,1387,0,0
98,-363,0,0,0,0,0,0,0,0,0,-1,1322,1387,0,0
105,-363,0,0,0,0,0,0,0,0,0,-1,1329,1387,0,0
112,-363,0,0,0,0,0,0,0,0,0,-1,1336,1387,0,0
119,-363,0,0,0,0,0,0,0,0,0,-1,1343,1387,0,0
126,-363,0,0,0,0,0,0,0,0,0,-1,1350,1387,0,0
133,-363,0,0,0,0,0,0,0,0,0,-1,1357,1387,0,0
140,-363,0,0,0,0,0,0,0,0,0,-1,1364,1387,0,0
147,-363,0,0,0,0,0,0,0,0,0,-1,1371,1387,0,0
154,-363,0,0,0,0,0,0,0,0,0,-1,1378,1387,0,0
161,-363,0,0,0,0,0,0,0,0,0,-1,1385,1387,0,0
168,-363,0,0,0,0,0,0,0,0,0,-1,1392,1387,0,0
175,-363,0,0,0,0,0,0,0,0,0,-1,1399,1387,0,0
182,-363,0,0,0,0,0,0,0,0,0,-1,1406,1387,0,0
189,-363,0,0,0,0,0,0,0,0,0,-1,1413,1387,0,0
196,-363,0,0,0,0,0,0,0,0,0,-1,1420,1387,0,0
203,-363,0,0,0,0,0,0,0,0,0,-1,1427,1387,0,0
210,-363,0,0,0,0,0,0,0,0,0,-1,1434,1387,0,0
217,-363,0,0,0,0,0,0,0,0,0,-1,1441,1387,0,0
224,-363,0,0,0,0,0,0,0,0,0,-1,1448,1387,0,0
231,-363,0,0,0,0,0,0,0,0,0,-1,1455,1387,0,0
238,-363,0,0,0,0,0,0,0,0,0,-1,1462,1387,0,0
245,-363,0,0,0,0,0,0,0,0,0,-1,1469,1387,0,0
252,-363,0,0,0,0,0,0,0,0,0,-1,1476,1387,0,0
259,-363,0,0,0,0,0,0,0,0,0,-1,1483,1387,0,0
266,-363,0,0,0,0,0,0,0,0,0,-1,1490,1387,0,0
273,-363,0,0,0,0,0,0,0,0,0,-1,1497,1387,0,0
280,-363,0,0,0,0,0,0,0,0,0,-1,1504,1387,0,0
287,-363,0,0,0,0,0,0,0,0,0,-1,1511,1387,0,0
294,-363,0,0,0,0,0,0,0,0,0,-1,1518,1387,0,0
301,-363,0,0,0,0,0,0,0,0,0,-1,1525,1387,0,0
308,-363,0,0,0,0,0,0,0,0,0,-1,1532,1387,0,0
315,-363,0,0,0,0,0,0,0,0,0,-1,1539,1387,0,0
322,-363,0,0,0,0,0,0,0,0,0,-1,1546,1387,0,0
329,-363,0,0,0,0,0,0,0,0,0,-1,1553,1387,0,0
336,-363,0,0,0,0,0,0,0,0,0,-1,1560,1387,0,0
343,-363,0,0,0,0,0,0,0,0,0,-1,1567,1387,0,0
350,-363,0,0,0,0,0,0,0,0,0,-1,1574,1387,0,0
357,-363,0,0,0,0,0,0,0,0,0,-1,1581,1387,0,0
364,-363,0,0,0,0,0,0,0,0,0,-1,1588,1387,0,0
371,-363,0,0,0,0,0,0,0,0,0,-1,1595,1387,0,0
378,-363,0,0,0,0,0,0,0,0,0,-1,1602,1387,0,0
385,-363,0,0,0,0,0,0,0,0,0,-1,1609,1387,0,0
392,-363,0,0,0,0,0,0,0,0,0,-1,1616,1387,0,0
399,-363,0,0,0,0,0,0,0,0,0,-1,1623,1387,0,0
406,-363,0,0,0,0,0,0,0,0,0,-1,1630,1387,0,0
413,-363,0,0,0,0,0,0,0,0,0,-1,1637,1387,0,0
420,-363,0,0,0,0,0,0,0,0,0,-1,1644,1387,0,0
427,-363,0,0,0,0,0,0,0,0,0,-1,1651,1387,0,0
434,-363,0,0,0,0,0,0,0,0,0,-1,1658,1387,0,0
441,-363,0,0,0,0,0,0,0,0,0,-1,1665,1387,0,0
448,-363,0,0,0,0,0,0,0,0,0,-1,1672,1387,0,0
455,-363,0,0,0,0,0,0,0,0,0,-1,1679,1387,0,0
462,-363,0,0,0,0,0,0,0,0,0,-1,1686,1387,0,0
469,-363,0,0,0,0,0,0,0,0,0,-1,1693,1387,0,0
476,-363,0,0,0,0,0,0,0,0,0,-1,1700,1387,0,0
483,-363,0,0,0,0,0,0,0,0,0,-1,1707,1387,0,0
490,-363,0,0,0,0,0,0,0,0,0,-1,1714,1387,0,0
497,-363,0,0,0,0,0,0,0,0,0,-1,1721,1387,0,0
504,-363,0,0,0,0,0,0,0,0,0,-1,1728,1387,0,0
511,-363,0,0,0,0,0,0,0,0,0,-1,1735,1387,0,0
518,-363,0,0,0,0,0,0,0,0,0,-1,1742,1387,0,0
525,-363,0,0,0,0,0,0,0,0,0,-1,1749,1387,0,0
532,-363,0,0,0,0,0,0,0,0,0,-1,1756,1387,0,0
539,-363,0,0,0,0,0,0,0,0,0,-1,1763,1387,0,0
546,-363,0,0,0,0,0,0,0,0,0,-1,1770,1387,0,0
553,-363,62.1395,3.42249,0,0,0,0,0,0,0,-1,1777,1387,62.1395,-3.42245
560,-363,63.2896,2.40808,0,0,0,0,0,0,0,-1,1784,1387,63.2896,-2.40811
567,-363,64.4463,1.38135,0,0,0,0,0,0,0,-1,1791,1387,64.4463,-1.38131
574,-363,45.7261,2.8075,0,0,0,0,0,0,0,-1,1798,1387,45.7261,-2.80754
581,-363,39.2413,1.97632,0,0,0,0,0,0,0,-1,1805,1387,39.2413,-1.97636
588,-363,32.5608,6.72131,0,0,0,0,0,0,0,-1,1812,1387,32.5608,-6.72131
595,-363,31.4688,6.95435,0,0,0,0,0,0,0,-1,1819,1387,31.4688,-6.95431
602,-363,25.7437,5.33667,0,0,0,0,0,0,0,-1,1826,1387,25.7437,-5.33667
609,-363,27.7048,7.06885,0,0,0,0,0,0,0,-1,1833,1387,27.7048,-7.06882
616,-363,16.229,1.08704,0,0,0,0,0,0,0,-1,1840,1387,16.229,-1.08706
623,-363,15.7283,7.16663,0,0,0,0,0,0,0,-1,1847,1387,15.7282,-7.16665
630,-363,18.3192,9.27844,0,0,0,0,0,0,0,-1,1854,1387,18.3192,-9.27843
637,-363,43.2819,21.2872,0,0,0,0,0,0,0,-1,1861,1387,43.2819,-21.2872
644,-363,43.2876,20.3243,-0.00132594,0.000964507,-0.000240487,0.000989484,-0.00135092,-1.4673,0.00135659,0.0197831,1868,1387,43.2876,-20.3244
651,-363,43.267,19.4452,-0.000727697,0.000472356,-7.77524e-05,0.000477372,-0.000732714,-1.50636,0.000703809,0.0118091,1875,1387,43.2669,-19.4452
658,-363,43.229,18.6337,0.000121513,0.000215406,-0.000168667,0.000343538,-6.6191e-06,-0.921132,0.000231263,0.012571,1882,1387,43.229,-18.6337
665,-363,43.1636,17.8982,0.00108347,7.75918e-05,-0.000418775,0.00123499,-7.39312e-05,-0.347169,0.000849045,0.0129074,1889,1387,43.1636,-17.8982
672,-363,43.1106,17.1454,0.00213343,7.232e-05,-0.000786594,0.00239932,-0.000193572,-0.325971,0.00166782,0.0144267,1896,1387,43.1105,-17.1453
679,-363,43.0874,16.3464,0.00328893,0.00018522,-0.00128038,0.00374894,-0.000274796,-0.344919,0.00259575,0.0158222,1903,1387,43.0874,-16.3465
686,-363,43.0543,15.516,0.0045507,0.000437795,-0.00190385,0.00529668,-0.000308189,-0.373442,0.00363821,0.0155706,1910,1387,43.0544,-15.5161
693,-363,43.0094,14.713,0.00589679,0.000856556,-0.0026484,0.00703249,-0.000279143,-0.405106,0.00478409,0.0138002,1917,1387,43.0094,-14.713
700,-363,43.145,13.8296,0.00739581,0.00156117,-0.00364542,0.00914752,-0.000190537,-0.447946,0.00616284,0.0345526,1924,1387,43.145,-13.8296
707,-363,43.4456,12.9805,0,0,0,0,0,0,0,-1,1931,1387,43.4456,-12.9805
714,-363,16.5782,5.3147,0,0,0,0,0,0,0,-1,1938,1387,16.5783,-5.31472
721,-363,14.4045,4.51685,0,0,0,0,0,0,0,-1,1945,1387,14.4045,-4.51685
728,-363,19.9756,0.853027,0,0,0,0,0,0,0,-1,1952,1387,19.9756,-0.853059
735,-363,21.4297,1.2981,0,0,0,0,0,0,0,-1,1959,1387,21.4297,-1.29811
742,-363,21.3621,2.79663,0,0,0,0,0,0,0,-1,1966,1387,21.362,-2.7966
749,-363,0,0,0,0,0,0,0,0,0,-1,1973,1387,0,0
756,-363,0,0,0,0,0,0,0,0,0,-1,1980,1387,0,0
763,-363,0,0,0,0,0,0,0,0,0,-1,1987,1387,0,0
770,-363,0,0,0,0,0,0,0,0,0,-1,1994,1387,0,0
777,-363,0,0,0,0,0,0,0,0,0,-1,2001,1387,0,0
784,-363,0,0,0,0,0,0,0,0,0,-1,2008,1387,0,0
791,-363,0,0,0,0,0,0,0,0,0,-1,2015,1387,0,0
798,-363,0,0,0,0,0,0,0,0,0,-1,2022,1387,0,0
805,-363,0,0,0,0,0,0,0,0,0,-1,2029,1387,0,0
812,-363,0,0,0,0,0,0,0,0,0,-1,2036,1387,0,0
-700,-370,0,0,0,0,0,0,0,0,0,-1,524,1394,0,0
-693,-370,0,0,0,0,0,0,0,0,0,-1,531,1394,0,0
-686,-370,0,0,0,0,0,0,0,0,0,-1,538,1394,0,0
-679,-370,0,0,0,0,0,0,0,0,0,-1,545,1394,0,0
-672,-370,0,0,0,0,0,0,0,0,0,-1,552,1394,0,0
-665,-370,0,0,0,0,0,0,0,0,0,-1,559,1394,0,0
-658,-370,0,0,0,0,0,0,0,0,0,-1,566,1394,0,0
-651,-370,0,0,0,0,0,0,0,0,0,-1,573,1394,0,0
-644,-370,0,0,0,0,0,0,0,0,0,-1,580,1394,0,0
-637,-370,0,0,0,0,0,0,0,0,0,-1,587,1394,0,0
-630,-370,0,0,0,0,0,0,0,0,0,-1,594,1394,0,0
-623,-370,-10.1758,-7.10486,0,0,0,0,0,0,0,-1,601,1394,-10.1758,7.10483
-616,-370,-8.85925,-1.61475,0,0,0,0,0,0,0,-1,608,1394,-8.85925,1.61476
-609,-370,-5.39325,0.0421143,0,0,0,0,0,0,0,-1,615,1394,-5.39328,-0.0421372
-602,-370,-12.3151,3.44592,0,0,0,0,0,0,0,-1,622,1394,-12.3151,-3.44595
-595,-370,-7.53284,5.44214,0,0,0,0,0,0,0,-1,629,1394,-7.53284,-5.44216
-588,-370,-11.2422,4.50598,0,0,0,0,0,0,0,-1,636,1394,-11.2422,-4.50596
-581,-370,-13.1575,5.84888,0,0,0,0,0,0,0,-1,643,1394,-13.1575,-5.84887
-574,-370,-13.0107,6.69861,0,0,0,0,0,0,0,-1,650,1394,-13.0108,-6.69866
-567,-370,-25.1367,13.1448,0,0,0,0,0,0,0,-1,657,1394,-25.1367,-13.1447
-560,-370,-25.1198,14.1055,0.00572444,0.00400589,0.00363881,0.00860405,0.00112627,0.669451,0.0053999,0.039004,664,1394,-25.1198,-14.1055
-553,-370,-25.04,15.0273,0.00470743,0.00275823,0.00279793,0.00669565,0.00077002,0.617805,0.00423051,0.0110666,671,1394,-25.04,-15.0274
-546,-370,-25.0656,15.853,0.00386674,0.00178809,0.00215959,0.00522409,0.000430748,0.561127,0.00334839,0.0151906,678,1394,-25.0655,-15.8531
-539,-370,-25.0834,16.7236,0.00324698,0.00107645,0.00172181,0.00419701,0.000126414,0.504196,0.00275683,0.0195232,685,1394,-25.0834,-16.7237
-532,-370,-25.1766,17.5435,0.00284869,0.00060765,0.00147431,0.00357997,-0.000123632,0.460454,0.00242891,0.0230352,692,1394,-25.1767,-17.5434
-525,-370,-25.1987,18.3607,0.00264415,0.000311641,0.00137613,0.00328174,-0.000325953,0.43388,0.00230418,0.0203107,699,1394,-25.1987,-18.3608
-518,-370,-25.2297,19.1603,0.00263563,0.000224647,0.00143379,0.00330336,-0.000443083,0.435841,0.00236382,0.0145471,706,1394,-25.2297,-19.1603
-511,-370,-25.2823,20.0168,0.00288218,0.000368313,0.00169552,0.00373585,-0.000485359,0.466434,0.00266712,0.016262,713,1394,-25.2823,-20.0168
-504,-370,-25.3212,20.8961,0,0,0,0,0,0,0,-1,720,1394,-25.3212,-20.8962
-497,-370,-12.3546,11.7982,0,0,0,0,0,0,0,-1,727,1394,-12.3546,-11.7983
-490,-370,-5.30695,4.5271,0,0,0,0,0,0,0,-1,734,1394,-5.30698,-4.52704
-483,-370,-6.02997,4.59253,0,0,0,0,0,0,0,-1,741,1394,-6.02994,-4.5925
-476,-370,-6.75293,4.65796,0,0,0,0,0,0,0,-1,748,1394,-6.7529,-4.65795
-469,-370,-10.584,1.14294,0,0,0,0,0,0,0,-1,755,1394,-10.584,-1.14293
-462,-370,-9.54462,0.387207,0,0,0,0,0,0,0,-1,762,1394,-9.5446,-0.387176
-455,-370,-8.50525,-0.36853,0,0,0,0,0,0,0,-1,769,1394,-8.50523,0.368582
-448,-370,-10.9543,2.28833,0,0,0,0,0,0,0,-1,776,1394,-10.9543,-2.28835
-441,-370,-11.8699,1.8313,0,0,0,0,0,0,0,-1,783,1394,-11.8699,-1.83127
-434,-370,-12.7855,1.37415,0,0,0,0,0,0,0,-1,790,1394,-12.7855,-1.37419
-427,-370,0,0,0,0,0,0,0,0,0,-1,797,1394,0,0
-420,-370,0,0,0,0,0,0,0,0,0,-1,804,1394,0,0
-413,-370,0,0,0,0,0,0,0,0,0,-1,811,1394,0,0
-406,-370,0,0,0,0,0,0,0,0,0,-1,818,1394,0,0
-399,-370,0,0,0,0,0,0,0,0,0,-1,825,1394,0,0
-392,-370,0,0,0,0,0,0,0,0,0,-1,832,1394,0,0
-385,-370,0,0,0,0,0,0,0,0,0,-1,839,1394,0,0
-378,-370,0,0,0,0,0,0,0,0,0,-1,846,1394,0,0
-371,-370,0,0,0,0,0,0,0,0,0,-1,853,1394,0,0
-364,-370,0,0,0,0,0,0,0,0,0,-1,860,1394,0,0
-357,-370,0,0,0,0,0,0,0,0,0,-1,867,1394,0,0
-350,-370,0,0,0,0,0,0,0,0,0,-1,874,1394,0,0
-343,-370,0,0,0,0,0,0,0,0,0,-1,881,1394,0,0
-336,-370,0,0,0,0,0,0,0,0,0,-1,888,1394,0,0
-329,-370,0,0,0,0,0,0,0,0,0,-1,895,1394,0,0
-322,-370,0,0,0,0,0,0,0,0,0,-1,902,1394,0,0
-315,-370,0,0,0,0,0,0,0,0,0,-1,909,1394,0,0
-308,-370,0,0,0,0,0,0,0,0,0,-1,916,1394,0,0
-301,-370,0,0,0,0,0,0,0,0,0,-1,923,1394,0,0
-294,-370,0,0,0,0,0,0,0,0,0,-1,930,1394,0,0
-287,-370,0,0,0,0,0,0,0,0,0,-1,937,1394,0,0
-280,-370,0,0,0,0,0,0,0,0,0,-1,944,1394,0,0
-273,-370,0,0,0,0,0,0,0,0,0,-1,951,1394,0,0
-266,-370,0,0,0,0,0,0,0,0,0,-1,958,1394,0,0
-259,-370,0,0,0,0,0,0,0,0,0,-1,965,1394,0,0
-252,-370,0,0,0,0,0,0,0,0,0,-1,972,1394,0,0
-245,-370,0,0,0,0,0,0,0,0,0,-1,979,1394,0,0
-238,-370,0,0,0,0,0,0,0,0,0,-1,986,1394,0,0
-231,-370,0,0,0,0,0,0,0,0,0,-1,993,1394,0,0
-224,-370,0,0,0,0,0,0,0,0,0,-1,1000,1394,0,0
-217,-370,0,0,0,0,0,0,0,0,0,-1,1007,1394,0,0
-210,-370,0,0,0,0,0,0,0,0,0,-1,1014,1394,0,0
-203,-370,0,0,0,0,0,0,0,0,0,-1,1021,1394,0,0
-196,-370,0,0,0,0,0,0,0,0,0,-1,1028,1394,0,0
-189,-370,0,0,0,0,0,0,0,0,0,-1,1035,1394,0,0
-182,-370,0,0,0,0,0,0,0,0,0,-1,1042,1394,0,0
-175,-370,0,0,0,0,0,0,0,0,0,-1,1049,1394,0,0
-168,-370,0,0,0,0,0,0,0,0,0,-1,1056,1394,0,0
-161,-370,0,0,0,0,0,0,0,0,0,-1,1063,1394,0,0
-154,-370,0,0,0,0,0,0,0,0,0,-1,1070,1394,0,0
-147,-370,0,0,0,0,0,0,0,0,0,-1,1077,1394,0,0
-140,-370,0,0,0,0,0,0,0,0,0,-1,1084,1394,0,0
-133,-370,0,0,0,0,0,0,0,0,0,-1,1091,1394,0,0
-126,-370,0,0,0,0,0,0,0,0,0,-1,1098,1394,0,0
-119,-370,0,0,0,0,0,0,0,0,0,-1,1105,1394,0,0
-112,-370,0,0,0,0,0,0,0,0,0,-1,1112,1394,0,0
-105,-370,0,0,0,0,0,0,0,0,0,-1,1119,1394,0,0
-98,-370,0,0,0,0,0,0,0,0,0,-1,1126,1394,0,0
-91,-370,0,0,0,0,0,0,0,0,0,-1,1133,1394,0,0
-84,-370,0,0,0,0,0,0,0,0,0,-1,1140,1394,0,0
-77,-370,0,0,0,0,0,0,0,0,0,-1,1147,1394,0,0
-70,-370,0,0,0,0,0,0,0,0,0,-1,1154,1394,0,0
-63,-370,0,0,0,0,0,0,0,0,0,-1,1161,1394,0,0
-56,-370,0,0,0,0,0,0,0,0,0,-1,1168,1394,0,0
-49,-370,0,0,0,0,0,0,0,0,0,-1,1175,1394,0,0
-42,-370,0,0,0,0,0,0,0,0,0,-1,1182,1394,0,0
-35,-370,0,0,0,0,0,0,0,0,0,-1,1189,1394,0,0
-28,-370,0,0,0,0,0,0,0,0,0,-1,1196,1394,0,0
-21,-370,0,0,0,0,0,0,0,0,0,-1,1203,1394,0,0
-14,-370,0,0,0,0,0,0,0,0,0,-1,1210,1394,0,0
-7,-370,0,0,0,0,0,0,0,0,0,-1,1217,1394,0,0
0,-370,0,0,0,0,0,0,0,0,0,-1,1224,1394,0,0
7,-370,0,0,0,0,0,0,0,0,0,-1,1231,1394,0,0
14,-370,0,0,0,0,0,0,0,0,0,-1,1238,1394,0,0
21,-370,0,0,0,0,0,0,0,0,0,-1,1245,1394,0,0
28,-370,0,0,0,0,0,0,0,0,0,-1,1252,1394,0,0
35,-370,0,0,0,0,0,0,0,0,0,-1,1259,1394,0,0
42,-370,0,0,0,0,0,0,0,0,0,-1,1266,1394,0,0
49,-370,0,0,0,0,0,0,0,0,0,-1,1273,1394,0,0
56,-370,0,0,0,0,0,0,0,0,0,-1,1280,1394,0,0
63,-370,0,0,0,0,0,0,0,0,0,-1,1287,1394,0,0
70,-370,0,0,0,0,0,0,0,0,0,-1,1294,1394,0,0
77,-370,0,0,0,0,0,0,0,0,0,-1,1301,1394,0,0
84,-370,0,0,0,0,0,0,0,0,0,-1,1308,1394,0,0
91,-370,0,0,0,0,0,0,0,0,0,-1,1315,1394,0,0
98,-370,0,0,0,0,0,0,0,0,0,-1,1322,1394,0,0
105,-370,0,0,0,0,0,0,0,0,0,-1,1329,1394,0,0
112,-370,0,0,0,0,0,0,0,0,0,-1,1336,1394,0,0
119,-370,0,0,0,0,0,0,0,0,0,-1,1343,1394,0,0
126,-370,0,0,0,0,0,0,0,0,0,-1,1350,1394,0,0
133,-370,0,0,0,0,0,0,0,0,0,-1,1357,1394,0,0
140,-370,0,0,0,0,0,0,0,0,0,-1,1364,1394,0,0
147,-370,0,0,0,0,0,0,0,0,0,-1,1371,1394,0,0
154,-370,0,0,0,0,0,0,0,0,0,-1,1378,1394,0,0
161,-370,0,0,0,0,0,0,0,0,0,-1,1385,1394,0,0
168,-370,0,0,0,0,0,0,0,0,0,-1,1392,1394,0,0
175,-370,0,0,0,0,0,0,0,0,0,-1,1399,1394,0,0
182,-370,0,0,0,0,0,0,0,0,0,-1,1406,1394,0,0
189,-370,0,0,0,0,0,0,0,0,0,-1,1413,1394,0,0
196,-370,0,0,0,0,0,0,0,0,0,-1,1420,1394,0,0
203,-370,0,0,0,0,0,0,0,0,0,-1,1427,1394,0,0
210,-370,0,0,0,0,0,0,0,0,0,-1,1434,1394,0,0
217,-370,0,0,0,0,0,0,0,0,0,-1,1441,1394,0,0
224,-370,0,0,0,0,0,0,0,0,0,-1,1448,1394,0,0
231,-370,0,0,0,0,0,0,0,0,0,-1,1455,1394,0,0
238,-370,0,0,0,0,0,0,0,0,0,-1,1462,1394,0,0
245,-370,0,0,0,0,0,0,0,0,0,-1,1469,1394,0,0
252,-370,0,0,0,0,0,0,0,0,0,-1,1476,1394,0,0
259,-370,0,0,0,0,0,0,0,0,0,-1,1483,1394,0,0
266,-370,0,0,0,0,0,0,0,0,0,-1,1490,1394,0,0
273,-370,0,0,0,0,0,0,0,0,0,-1,1497,1394,0,0
280,-370,0,0,0,0,0,0,0,0,0,-1,1504,1394,0,0
287,-370,0,0,0,0,0,0,0,0,0,-1,1511,1394,0,0
294,-370,0,0,0,0,0,0,0,0,0,-1,1518,1394,0,0
301,-370,0,0,0,0,0,0,0,0,0,-1,1525,1394,0,0
308,-370,0,0,0,0,0,0,0,0,0,-1,1532,1394,0,0
315,-370,0,0,0,0,0,0,0,0,0,-1,1539,1394,0,0
322,-370,0,0,0,0,0,0,0,0,0,-1,1546,1394,0,0
329,-370,0,0,0,0,0,0,0,0,0,-1,1553,1394,0,0
336,-370,0,0,0,0,0,0,0,0,0,-1,1560,1394,0,0
343,-370,0,0,0,0,0,0,0,0,0,-1,1567,1394,0,0
350,-370,0,0,0,0,0,0,0,0,0,-1,1574,1394,0,0
357,-370,0,0,0,0,0,0,0,0,0,-1,1581,1394,0,0
364,-370,0,0,0,0,0,0,0,0,0,-1,1588,1394,0,0
371,-370,0,0,0,0,0,0,0,0,0,-1,1595,1394,0,0
378,-370,0,0,0,0,0,0,0,0,0,-1,1602,1394,0,0
385,-370,0,0,0,0,0,0,0,0,0,-1,1609,1394,0,0
392,-370,0,0,0,0,0,0,0,0,0,-1,1616,1394,0,0
399,-370,0,0,0,0,0,0,0,0,0,-1,1623,1394,0,0
406,-370,0,0,0,0,0,0,0,0,0,-1,1630,1394,0,0
413,-370,0,0,0,0,0,0,0,0,0,-1,1637,1394,0,0
420,-370,0,0,0,0,0,0,0,0,0,-1,1644,1394,0,0
427,-370,0,0,0,0,0,0,0,0,0,-1,1651,1394,0,0
434,-370,0,0,0,0,0,0,0,0,0,-1,1658,1394,0,0
441,-370,0,0,0,0,0,0,0,0,0,-1,1665,1394,0,0
448,-370,0,0,0,0,0,0,0,0,0,-1,1672,1394,0,0
455,-370,0,0,0,0,0,0,0,0,0,-1,1679,1394,0,0
462,-370,0,0,0,0,0,0,0,0,0,-1,1686,1394,0,0
469,-370,0,0,0,0,0,0,0,0,0,-1,1693,1394,0,0
476,-370,0,0,0,0,0,0,0,0,0,-1,1700,1394,0,0
483,-370,0,0,0,0,0,0,0,0,0,-1,1707,1394,0,0
490,-370,0,0,0,0,0,0,0,0,0,-1,1714,1394,0,0
497,-370,0,0,0,0,0,0,0,0,0,-1,1721,1394,0,0
504,-370,0,0,0,0,0,0,0,0,0,-1,1728,1394,0,0
511,-370,0,0,0,0,0,0,0,0,0,-1,1735,1394,0,0
518,-370,0,0,0,0,0,0,0,0,0,-1,1742,1394,0,0
525,-370,0,0,0,0,0,0,0,0,0,-1,1749,1394,0,0
532,-370,0,0,0,0,0,0,0,0,0,-1,1756,1394,0,0
539,-370,0,0,0,0,0,0,0,0,0,-1,1763,1394,0,0
546,-370,60.9257,3.80493,0,0,0,0,0,0,0,-1,1770,1394,60.9256,-3.80494
553,-370,61.9966,2.87524,0,0,0,0,0,0,0,-1,1777,1394,61.9966,-2.8753
560,-370,63.1577,1.82617,0,0,0,0,0,0,0,-1,1784,1394,63.1578,-1.82617
567,-370,46.1089,3.11719,0,0,0,0,0,0,0,-1,1791,1394,46.1089,-3.1172
574,-370,38.8953,1.49353,0,0,0,0,0,0,0,-1,1798,1394,38.8952,-1.49348
581,-370,39.178,2.86145,0,0,0,0,0,0,0,-1,1805,1394,39.1779,-2.86145
588,-370,39.2102,4.27661,0,0,0,0,0,0,0,-1,1812,1394,39.2102,-4.27657
595,-370,25.793,4.5271,0,0,0,0,0,0,0,-1,1819,1394,25.793,-4.52711
602,-370,25.1077,5.34937,0,0,0,0,0,0,0,-1,1826,1394,25.1077,-5.34932
609,-370,16.712,0.993286,0,0,0,0,0,0,0,-1,1833,1394,16.7121,-0.99323
616,-370,16.7764,7.23315,0,0,0,0,0,0,0,-1,1840,1394,16.7764,-7.23313
623,-370,17.6625,8.94263,0,0,0,0,0,0,0,-1,1847,1394,17.6624,-8.94258
630,-370,20.9681,11.1785,0,0,0,0,0,0,0,-1,1854,1394,20.9681,-11.1784
637,-370,42.5306,21.1537,0,0,0,0,0,0,0,-1,1861,1394,42.5306,-21.1537
644,-370,42.537,20.3173,-0.00133577,0.000474243,6.70017e-05,0.00047672,-0.00133825,1.53385,0.00108651,0.0154029,1868,1394,42.5369,-20.3173
651,-370,42.4954,19.4949,-0.000608326,0.000213451,5.51292e-05,0.000217133,-0.000612008,1.50411,0.000496471,0.0131155,1875,1394,42.4954,-19.4949
658,-370,42.4426,18.7198,0.000354157,9.58346e-05,-0.000158363,0.000429352,2.06394e-05,-0.443307,0.000279609,0.0123837,1882,1394,42.4426,-18.7198
665,-370,42.3827,17.9703,0.00145753,6.8243e-05,-0.000513819,0.00162692,-0.000101139,-0.318434,0.00111985,0.0147879,1889,1394,42.3827,-17.9703
672,-370,42.3152,17.1851,0.00269298,0.000114882,-0.000985505,0.00302654,-0.00021868,-0.326365,0.0020944,0.0161748,1896,1394,42.3152,-17.1851
679,-370,42.3104,16.3596,0.00407618,0.000252244,-0.00159223,0.00465234,-0.000323923,-0.347203,0.00321498,0.0158661,1903,1394,42.3104,-16.3596
686,-370,42.2722,15.5602,0.00561564,0.000501208,-0.00234758,0.00652981,-0.000412959,-0.371342,0.00449718,0.0159756,1910,1394,42.2722,-15.5602
693,-370,42.2258,14.7131,0.00728552,0.000900986,-0.00324934,0.00864834,-0.000461829,-0.397129,0.0059255,0.0167814,1917,1394,42.2259,-14.7131
700,-370,42.5302,13.7954,0,0,0,0,0,0,0,-1,1924,1394,42.5302,-13.7954
707,-370,39.2391,11.5549,0,0,0,0,0,0,0,-1,1931,1394,39.2392,-11.555
714,-370,16.9116,5.93018,0,0,0,0,0,0,0,-1,1938,1394,16.9116,-5.93014
721,-370,17.2007,4.69153,0,0,0,0,0,0,0,-1,1945,1394,17.2007,-4.69158
728,-370,20.5315,-0.313354,0,0,0,0,0,0,0,-1,1952,1394,20.5315,0.313332
735,-370,22.3652,0.233398,0,0,0,0,0,0,0,-1,1959,1394,22.3652,-0.233355
742,-370,24.1989,0.780029,0,0,0,0,0,0,0,-1,1966,1394,24.1989,-0.780041
749,-370,0,0,0,0,0,0,0,0,0,-1,1973,1394,0,0
756,-370,0,0,0,0,0,0,0,0,0,-1,1980,1394,0,0
763,-370,0,0,0,0,0,0,0,0,0,-1,1987,1394,0,0
770,-370,0,0,0,0,0,0,0,0,0,-1,1994,1394,0,0
777,-370,0,0,0,0,0,0,0,0,0,-1,2001,1394,0,0
784,-370,0,0,0,0,0,0,0,0,0,-1,2008,1394,0,0
791,-370,0,0,0,0,0,0,0,0,0,-1,2015,1394,0,0
798,-370,0,0,0,0,0,0,0,0,0,-1,2022,1394,0,0
805,-370,0,0,0,0,0,0,0,0,0,-1,2029,1394,0,0
812,-370,0,0,0,0,0,0,0,0,0,-1,2036,1394,0,0
-700,-377,0,0,0,0,0,0,0,0,0,-1,524,1401,0,0
-693,-377,0,0,0,0,0,0,0,0,0,-1,531,1401,0,0
-686,-377,0,0,0,0,0,0,0,0,0,-1,538,1401,0,0
-679,-377,0,0,0,0,0,0,0,0,0,-1,545,1401,0,0
-672,-377,0,0,0,0,0,0,0,0,0,-1,552,1401,0,0
-665,-377,0,0,0,0,0,0,0,0,0,-1,559,1401,0,0
-658,-377,0,0,0,0,0,0,0,0,0,-1,566,1401,0,0
-651,-377,0,0,0,0,0,0,0,0,0,-1,573,1401,0,0
-644,-377,0,0,0,0,0,0,0,0,0,-1,580,1401,0,0
-637,-377,0,0,0,0,0,0,0,0,0,-1,587,1401,0,0
-630,-377,0,0,0,0,0,0,0,0,0,-1,594,1401,0,0
-623,-377,0,0,0,0,0,0,0,0,0,-1,601,1401,0,0
-616,-377,-9.43915,-2.4906,0,0,0,0,0,0,0,-1,608,1401,-9.43915,2.49062
-609,-377,-7.2821,-1.35278,0,0,0,0,0,0,0,-1,615,1401,-7.28208,1.35279
-602,-377,-14.9736,3.98279,0,0,0,0,0,0,0,-1,622,1401,-14.9737,-3.98276
-595,-377,-6.9082,1.18201,0,0,0,0,0,0,0,-1,629,1401,-6.90822,-1.18204
-588,-377,-12.8003,3.44751,0,0,0,0,0,0,0,-1,636,1401,-12.8003,-3.44754
-581,-377,-11.8243,6.21521,0,0,0,0,0,0,0,-1,643,1401,-11.8244,-6.21519
-574,-377,-12.2761,6.60547,0,0,0,0,0,0,0,-1,650,1401,-12.2761,-6.60552
-567,-377,-13.4844,7.41931,0,0,0,0,0,0,0,-1,657,1401,-13.4845,-7.41926
-560,-377,-24.4493,14.0261,0,0,0,0,0,0,0,-1,664,1401,-24.4493,-14.0261
-553,-377,-24.2404,15.0326,0.00542164,0.00320381,0.00319987,0.00769929,0.000926162,0.618599,0.00485369,0.0186226,671,1401,-24.2403,-15.0326
-546,-377,-24.2699,15.9459,0.00434268,0.00213184,0.00242645,0.00590364,0.000570882,0.57166,0.00375994,0.0166149,678,1401,-24.2699,-15.946
-539,-377,-24.2968,16.709,0.00352454,0.00136227,0.00188169,0.00461357,0.000273239,0.524648,0.0029888,0.0218484,685,1401,-24.2968,-16.709
-532,-377,-24.3581,17.5331,0.00294697,0.000836493,0.00152872,0.00374929,3.41777e-05,0.483313,0.00248821,0.0215332,692,1401,-24.3581,-17.5331
-525,-377,-24.3252,18.4009,0.00258309,0.000501288,0.00133469,0.00323478,-0.000150403,0.454222,0.00220836,0.0256169,699,1401,-24.3252,-18.4009
-518,-377,-24.3926,19.2168,0.00241481,0.000342939,0.00128484,0.00302933,-0.000271575,0.446121,0.00211589,0.0166089,706,1401,-24.3927,-19.2168
-511,-377,-24.4612,20.057,0.00247755,0.000401713,0.0014087,0.00318941,-0.00031014,0.4679,0.00223683,0.0120444,713,1401,-24.4612,-20.057
-504,-377,-24.5258,20.9141,0.00285699,0.000684838,0.00175731,0.00383675,-0.000294923,0.508611,0.00266159,0.0163693,720,1401,-24.5258,-20.9141
-497,-377,-24.5677,21.7498,0,0,0,0,0,0,0,-1,727,1401,-24.5677,-21.7498
-490,-377,-8.88409,10.1245,0,0,0,0,0,0,0,-1,734,1401,-8.8841,-10.1245
-483,-377,-5.6524,5.07324,0,0,0,0,0,0,0,-1,741,1401,-5.6524,-5.07325
-476,-377,-6.11682,5.10535,0,0,0,0,0,0,0,-1,748,1401,-6.11681,-5.10537
-469,-377,-10.3211,1.9281,0,0,0,0,0,0,0,-1,755,1401,-10.3211,-1.92808
-462,-377,-9.2204,1.0022,0,0,0,0,0,0,0,-1,762,1401,-9.22039,-1.00218
-455,-377,-8.11969,0.0762939,0,0,0,0,0,0,0,-1,769,1401,-8.11968,-0.0762759
-448,-377,-9.05334,0.877319,0,0,0,0,0,0,0,-1,776,1401,-9.05332,-0.877324
-441,-377,-11.212,0.763428,0,0,0,0,0,0,0,-1,783,1401,-11.212,-0.763415
-434,-377,-11.0984,0.996216,0,0,0,0,0,0,0,-1,790,1401,-11.0984,-0.996265
-427,-377,-11.1733,1.25732,0,0,0,0,0,0,0,-1,797,1401,-11.1733,-1.25732
-420,-377,0,0,0,0,0,0,0,0,0,-1,804,1401,0,0
-413,-377,0,0,0,0,0,0,0,0,0,-1,811,1401,0,0
-406,-377,0,0,0,0,0,0,0,0,0,-1,818,1401,0,0
-399,-377,0,0,0,0,0,0,0,0,0,-1,825,1401,0,0
-392,-377,0,0,0,0,0,0,0,0,0,-1,832,1401,0,0
-385,-377,0,0,0,0,0,0,0,0,0,-1,839,1401,0,0
-378,-377,0,0,0,0,0,0,0,0,0,-1,846,1401,0,0
-371,-377,0,0,0,0,0,0,0,0,0,-1,853,1401,0,0
-364,-377,0,0,0,0,0,0,0,0,0,-1,860,1401,0,0
-357,-377,0,0,0,0,0,0,0,0,0,-1,867,1401,0,0
-350,-377,0,0,0,0,0,0,0,0,0,-1,874,1401,0,0
-343,-377,0,0,0,0,0,0,0,0,0,-1,881,1401,0,0
-336,-377,0,0,0,0,0,0,0,0,0,-1,888,1401,0,0
-329,-377,0,0,0,0,0,0,0,0,0,-1,895,1401,0,0
-322,-377,0,0,0,0,0,0,0,0,0,-1,902,1401,0,0
-315,-377,0,0,0,0,0,0,0,0,0,-1,909,1401,0,0
-308,-377,0,0,0,0,0,0,0,0,0,-1,916,1401,0,0
-301,-377,0,0,0,0,0,0,0,0,0,-1,923,1401,0,0
-294,-377,0,0,0,0,0,0,0,0,0,-1,930,1401,0,0
-287,-377,0,0,0,0,0,0,0,0,0,-1,937,1401,0,0
-280,-377,0,0,0,0,0,0,0,0,0,-1,944,1401,0,0
-273,-377,0,0,0,0,0,0,0,0,0,-1,951,1401,0,0
-266,-377,0,0,0,0,0,0,0,0,0,-1,958,1401,0,0
-259,-377,0,0,0,0,0,0,0,0,0,-1,965,1401,0,0
-252,-377,0,0,0,0,0,0,0,0,0,-1,972,1401,0,0
-245,-377,0,0,0,0,0,0,0,0,0,-1,979,1401,0,0
-238,-377,0,0,0,0,0,0,0,0,0,-1,986,1401,0,0
-231,-377,0,0,0,0,0,0,0,0,0,-1,993,1401,0,0
-224,-377,0,0,0,0,0,0,0,0,0,-1,1000,1401,0,0
-217,-377,0,0,0,0,0,0,0,0,0,-1,1007,1401,0,0
-210,-377,0,0,0,0,0,0,0,0,0,-1,1014,1401,0,0
-203,-377,0,0,0,0,0,0,0,0,0,-1,1021,1401,0,0
-196,-377,0,0,0,0,0,0,0,0,0,-1,1028,1401,0,0
-189,-377,0,0,0,0,0,0,0,0,0,-1,1035,1401,0,0
-182,-377,0,0,0,0,0,0,0,0,0,-1,1042,1401,0,0
-175,-377,0,0,0,0,0,0,0,0,0,-1,1049,1401,0,0
-168,-377,0,0,0,0,0,0,0,0,0,-1,1056,1401,0,0
-161,-377,0,0,0,0,0,0,0,0,0,-1,1063,1401,0,0
-154,-377,0,0,0,0,0,0,0,0,0,-1,1070,1401,0,0
-147,-377,0,0,0,0,0,0,0,0,0,-1,1077,1401,0,0
-140,-377,0,0,0,0,0,0,0,0,0,-1,1084,1401,0,0
-133,-377,0,0,0,0,0,0,0,0,0,-1,1091,1401,0,0
-126,-377,0,0,0,0,0,0,0,0,0,-1,1098,1401,0,0
-119,-377,0,0,0,0,0,0,0,0,0,-1,1105,1401,0,0
-112,-377,0,0,0,0,0,0,0,0,0,-1,1112,1401,0,0
-105,-377,0,0,0,0,0,0,0,0,0,-1,1119,1401,0,0
-98,-377,0,0,0,0,0,0,0,0,0,-1,1126,1401,0,0
-91,-377,0,0,0,0,0,0,0,0,0,-1,1133,1401,0,0
-84,-377,0,0,0,0,0,0,0,0,0,-1,1140,1401,0,0
-77,-377,0,0,0,0,0,0,0,0,0,-1,1147,1401,0,0
-70,-377,0,0,0,0,0,0,0,0,0,-1,1154,1401,0,0
-63,-377,0,0,0,0,0,0,0,0,0,-1,1161,1401,0,0
-56,-377,0,0,0,0,0,0,0,0,0,-1,1168,1401,0,0
-49,-377,0,0,0,0,0,0,0,0,0,-1,1175,1401,0,0
-42,-377,0,0,0,0,0,0,0,0,0,-1,1182,1401,0,0
-35,-377,0,0,0,0,0,0,0,0,0,-1,1189,1401,0,0
-28,-377,0,0,0,0,0,0,0,0,0,-1,1196,1401,0,0
-21,-377,0,0,0,0,0,0,0,0,0,-1,1203,1401,0,0
-14,-377,0,0,0,0,0,0,0,0,0,-1,1210,1401,0,0
-7,-377,0,0,0,0,0,0,0,0,0,-1,1217,1401,0,0
0,-377,0,0,0,0,0,0,0,0,0,-1,1224,1401,0,0
7,-377,0,0,0,0,0,0,0,0,0,-1,1231,1401,0,0
14,-377,0,0,0,0,0,0,0,0,0,-1,1238,1401,0,0
21,-377,0,0,0,0,0,0,0,0,0,-1,1245,1401,0,0
28,-377,0,0,0,0,0,0,0,0,0,-1,1252,1401,0,0
35,-377,0,0,0,0,0,0,0,0,0,-1,1259,1401,0,0
42,-377,0,0,0,0,0,0,0,0,0,-1,1266,1401,0,0
49,-377,0,0,0,0,0,0,0,0,0,-1,1273,1401,0,0
56,-377,0,0,0,0,0,0,0,0,0,-1,1280,1401,0,0
63,-377,0,0,0,0,0,0,0,0,0,-1,1287,1401,0,0
70,-377,0,0,0,0,0,0,0,0,0,-1,1294,1401,0,0
77,-377,0,0,0,0,0,0,0,0,0,-1,1301,1401,0,0
84,-377,0,0,0,0,0,0,0,0,0,-1,1308,1401,0,0
91,-377,0,0,0,0,0,0,0,0,0,-1,1315,1401,0,0
98,-377,0,0,0,0,0,0,0,0,0,-1,1322,1401,0,0
105,-377,0,0,0,0,0,0,0,0,0,-1,1329,1401,0,0
112,-377,0,0,0,0,0,0,0,0,0,-1,1336,1401,0,0
119,-377,0,0,0,0,0,0,0,0,0,-1,1343,1401,0,0
126,-377,0,0,0,0,0,0,0,0,0,-1,1350,1401,0,0
133,-377,0,0,0,0,0,0,0,0,0,-1,1357,1401,0,0
140,-377,0,0,0,0,0,0,0,0,0,-1,1364,1401,0,0
147,-377,0,0,0,0,0,0,0,0,0,-1,1371,1401,0,0
154,-377,0,0,0,0,0,0,0,0,0,-1,1378,1401,0,0
161,-377,0,0,0,0,0,0,0,0,0,-1,1385,1401,0,0
168,-377,0,0,0,0,0,0,0,0,0,-1,1392,1401,0,0
175,-377,0,0,0,0,0,0,0,0,0,-1,1399,1401,0,0
182,-377,0,0,0,0,0,0,0,0,0,-1,1406,1401,0,0
189,-377,0,0,0,0,0,0,0,0,0,-1,1413,1401,0,0
196,-377,0,0,0,0,0,0,0,0,0,-1,1420,1401,0,0
203,-377,0,0,0,0,0,0,0,0,0,-1,1427,1401,0,0
210,-377,0,0,0,0,0,0,0,0,0,-1,1434,1401,0,0
217,-377,0,0,0,0,0,0,0,0,0,-1,1441,1401,0,0
224,-377,0,0,0,0,0,0,0,0,0,-1,1448,1401,0,0
231,-377,0,0,0,0,0,0,0,0,0,-1,1455,1401,0,0
238,-377,0,0,0,0,0,0,0,0,0,-1,1462,1401,0,0
245,-377,0,0,0,0,0,0,0,0,0,-1,1469,1401,0,0
252,-377,0,0,0,0,0,0,0,0,0,-1,1476,1401,0,0
259,-377,0,0,0,0,0,0,0,0,0,-1,1483,1401,0,0
266,-377,0,0,0,0,0,0,0,0,0,-1,1490,1401,0,0
273,-377,0,0,0,0,0,0,0,0,0,-1,1497,1401,0,0
280,-377,0,0,0,0,0,0,0,0,0,-1,1504,1401,0,0
287,-377,0,0,0,0,0,0,0,0,0,-1,1511,1401,0,0
294,-377,0,0,0,0,0,0,0,0,0,-1,1518,1401,0,0
301,-377,0,0,0,0,0,0,0,0,0,-1,1525,1401,0,0
308,-377,0,0,0,0,0,0,0,0,0,-1,1532,1401,0,0
315,-377,0,0,0,0,0,0,0,0,0,-1,1539,1401,0,0
322,-377,0,0,0,0,0,0,0,0,0,-1,1546,1401,0,0
329,-377,0,0,0,0,0,0,0,0,0,-1,1553,1401,0,0
336,-377,0,0,0,0,0,0,0,0,0,-1,1560,1401,0,0
343,-377,0,0,0,0,0,0,0,0,0,-1,1567,1401,0,0
350,-377,0,0,0,0,0,0,0,0,0,-1,1574,1401,0,0
357,-377,0,0,0,0,0,0,0,0,0,-1,1581,1401,0,0
364,-377,0,0,0,0,0,0,0,0,0,-1,1588,1401,0,0
371,-377,0,0,0,0,0,0,0,0,0,-1,1595,1401,0,0
378,-377,0,0,0,0,0,0,0,0,0,-1,1602,1401,0,0
385,-377,0,0,0,0,0,0,0,0,0,-1,1609,1401,0,0
392,-377,0,0,0,0,0,0,0,0,0,-1,1616,1401,0,0
399,-377,0,0,0,0,0,0,0,0,0,-1,1623,1401,0,0
406,-377,0,0,0,0,0,0,0,0,0,-1,1630,1401,0,0
413,-377,0,0,0,0,0,0,0,0,0,-1,1637,1401,0,0
420,-377,0,0,0,0,0,0,0,0,0,-1,1644,1401,0,0
427,-377,0,0,0,0,0,0,0,0,0,-1,1651,1401,0,0
434,-377,0,0,0,0,0,0,0,0,0,-1,1658,1401,0,0
441,-377,0,0,0,0,0,0,0,0,0,-1,1665,1401,0,0
448,-377,0,0,0,0,0,0,0,0,0,-1,1672,1401,0,0
455,-377,0,0,0,0,0,0,0,0,0,-1,1679,1401,0,0
462,-377,0,0,0,0,0,0,0,0,0,-1,1686,1401,0,0
469,-377,0,0,0,0,0,0,0,0,0,-1,1693,1401,0,0
476,-377,0,0,0,0,0,0,0,0,0,-1,1700,1401,0,0
483,-377,0,0,0,0,0,0,0,0,0,-1,1707,1401,0,0
490,-377,0,0,0,0,0,0,0,0,0,-1,1714,1401,0,0
497,-377,0,0,0,0,0,0,0,0,0,-1,1721,1401,0,0
504,-377,0,0,0,0,0,0,0,0,0,-1,1728,1401,0,0
511,-377,0,0,0,0,0,0,0,0,0,-1,1735,1401,0,0
518,-377,0,0,0,0,0,0,0,0,0,-1,1742,1401,0,0
525,-377,0,0,0,0,0,0,0,0,0,-1,1749,1401,0,0
532,-377,0,0,0,0,0,0,0,0,0,-1,1756,1401,0,0
539,-377,0,0,0,0,0,0,0,0,0,-1,1763,1401,0,0
546,-377,27.8485,2.34094,0,0,0,0,0,0,0,-1,1770,1401,27.8486,-2.34091
553,-377,61.8907,2.39148,0,0,0,0,0,0,0,-1,1777,1401,61.8908,-2.39149
560,-377,38.3577,-2.15015,0,0,0,0,0,0,0,-1,1784,1401,38.3576,2.1501
567,-377,38.4889,-0.285645,0,0,0,0,0,0,0,-1,1791,1401,38.4889,0.2857
574,-377,38.6221,1.61694,0,0,0,0,0,0,0,-1,1798,1401,38.6221,-1.61689
581,-377,39.1818,3.76367,0,0,0,0,0,0,0,-1,1805,1401,39.1818,-3.76366
588,-377,25.882,4.35217,0,0,0,0,0,0,0,-1,1812,1401,25.8819,-4.3522
595,-377,25.5392,5.11804,0,0,0,0,0,0,0,-1,1819,1401,25.5392,-5.11808
602,-377,24.816,5.79126,0,0,0,0,0,0,0,-1,1826,1401,24.816,-5.79124
609,-377,15.0223,4.76135,0,0,0,0,0,0,0,-1,1833,1401,15.0224,-4.76129
616,-377,14.1842,5.78992,0,0,0,0,0,0,0,-1,1840,1401,14.1842,-5.78987
623,-377,15.8248,8.76721,0,0,0,0,0,0,0,-1,1847,1401,15.8248,-8.76725
630,-377,37.4343,20.0704,0,0,0,0,0,0,0,-1,1854,1401,37.4344,-20.0704
637,-377,41.7927,21.2006,0,0,0,0,0,0,0,-1,1861,1401,41.7927,-21.2006
644,-377,41.7457,20.3566,-0.00104279,5.32924e-05,0.000297225,0.000128702,-0.00111821,1.32233,0.000791865,0.013881,1868,1401,41.7457,-20.3565
651,-377,41.6934,19.5311,-0.000202433,4.15241e-05,7.51474e-05,6.28142e-05,-0.000223723,1.29472,0.00017391,0.0142927,1875,1401,41.6934,-19.5312
658,-377,41.6464,18.7709,0.000856392,9.98105e-05,-0.000295686,0.000958241,-2.03829e-06,-0.331721,0.000639508,0.0156511,1882,1401,41.6463,-18.7708
665,-377,41.6218,17.9817,0.00207802,0.000207577,-0.000779426,0.00236023,-7.46353e-05,-0.347393,0.00159895,0.0201956,1889,1401,41.6219,-17.9817
672,-377,41.5778,17.1785,0.00347958,0.000333012,-0.00137117,0.00399324,-0.000180643,-0.358431,0.00272437,0.0202702,1896,1401,41.5778,-17.1785
679,-377,41.4846,16.3922,0.00506828,0.000508872,-0.00209121,0.00588215,-0.000305,-0.37115,0.00402695,0.019173,1903,1401,41.4846,-16.3922
686,-377,41.4696,15.6194,0.00687341,0.000742333,-0.00295942,0.00806882,-0.000453081,-0.383894,0.00553643,0.0169301,1910,1401,41.4696,-15.6194
693,-377,41.5564,14.7546,0.00887316,0.00108435,-0.00398175,0.0105484,-0.000590867,-0.398244,0.00723725,0.0279154,1917,1401,41.5564,-14.7547
700,-377,41.8032,13.7269,0,0,0,0,0,0,0,-1,1924,1401,41.8033,-13.7269
707,-377,28.6234,9.18152,0,0,0,0,0,0,0,-1,1931,1401,28.6234,-9.18151
714,-377,16.5369,5.45959,0,0,0,0,0,0,0,-1,1938,1401,16.5369,-5.4596
721,-377,17.0913,5.42529,0,0,0,0,0,0,0,-1,1945,1401,17.0914,-5.42529
728,-377,14.5396,2.79724,0,0,0,0,0,0,0,-1,1952,1401,14.5396,-2.7972
735,-377,23.2977,-0.991089,0,0,0,0,0,0,0,-1,1959,1401,23.2978,0.991076
742,-377,0,0,0,0,0,0,0,0,0,-1,1966,1401,0,0
749,-377,0,0,0,0,0,0,0,0,0,-1,1973,1401,0,0
756,-377,0,0,0,0,0,0,0,0,0,-1,1980,1401,0,0
763,-377,0,0,0,0,0,0,0,0,0,-1,1987,1401,0,0
770,-377,0,0,0,0,0,0,0,0,0,-1,1994,1401,0,0
777,-377,0,0,0,0,0,0,0,0,0,-1,2001,1401,0,0
784,-377,0,0,0,0,0,0,0,0,0,-1,2008,1401,0,0
791,-377,0,0,0,0,0,0,0,0,0,-1,2015,1401,0,0
798,-377,0,0,0,0,0,0,0,0,0,-1,2022,1401,0,0
805,-377,0,0,0,0,0,0,0,0,0,-1,2029,1401,0,0
812,-377,0,0,0,0,0,0,0,0,0,-1,2036,1401,0,0
-700,-384,0,0,0,0,0,0,0,0,0,-1,524,1408,0,0
-693,-384,0,0,0,0,0,0,0,0,0,-1,531,1408,0,0
-686,-384,0,0,0,0,0,0,0,0,0,-1,538,1408,0,0
-679,-384,0,0,0,0,0,0,0,0,0,-1,545,1408,0,0
-672,-384,0,0,0,0,0,0,0,0,0,-1,552,1408,0,0
-665,-384,0,0,0,0,0,0,0,0,0,-1,559,1408,0,0
-658,-384,0,0,0,0,0,0,0,0,0,-1,566,1408,0,0
-651,-384,0,0,0,0,0,0,0,0,0,-1,573,1408,0,0
-644,-384,0,0,0,0,0,0,0,0,0,-1,580,1408,0,0
-637,-384,0,0,0,0,0,0,0,0,0,-1,587,1408,0,0
-630,-384,0,0,0,0,0,0,0,0,0,-1,594,1408,0,0
-623,-384,0,0,0,0,0,0,0,0,0,-1,601,1408,0,0
-616,-384,-10.019,-3.36646,0,0,0,0,0,0,0,-1,608,1408,-10.019,3.36648
-609,-384,-7.72357,-2.3418,0,0,0,0,0,0,0,-1,615,1408,-7.72358,2.34182
-602,-384,-11.7632,-2.85156,0,0,0,0,0,0,0,-1,622,1408,-11.7632,2.85157
-595,-384,-10.2217,2.8855,0,0,0,0,0,0,0,-1,629,1408,-10.2218,-2.88548
-588,-384,-12.1653,2.29041,0,0,0,0,0,0,0,-1,636,1408,-12.1654,-2.29038
-581,-384,-11.9297,3.60376,0,0,0,0,0,0,0,-1,643,1408,-11.9298,-3.6038
-574,-384,-11.8677,6.02722,0,0,0,0,0,0,0,-1,650,1408,-11.8677,-6.02722
-567,-384,-12.0743,7.04639,0,0,0,0,0,0,0,-1,657,1408,-12.0743,-7.04641
-560,-384,-19.9478,11.6345,0,0,0,0,0,0,0,-1,664,1408,-19.9478,-11.6345
-553,-384,-23.3694,15.1548,0,0,0,0,0,0,0,-1,671,1408,-23.3694,-15.1547
-546,-384,-23.4424,16.0017,0.00483953,0.00246117,0.00275087,0.00664725,0.000653451,0.581383,0.00423054,0.015131,678,1408,-23.4424,-16.0017
-539,-384,-23.4997,16.7867,0.00382416,0.00166521,0.00207868,0.00508694,0.000402428,0.545911,0.00326543,0.0166821,685,1408,-23.4997,-16.7867
-532,-384,-23.4658,17.5801,0.00308073,0.00109531,0.00160283,0.00397337,0.000202666,0.508136,0.00258401,0.0229125,692,1408,-23.4658,-17.5801
-525,-384,-23.4838,18.4622,0.00258945,0.000741208,0.00131116,0.00326943,6.12311e-05,0.478423,0.0021595,0.0234205,699,1408,-23.4838,-18.4622
-518,-384,-23.5835,19.2881,0.00230802,0.000536923,0.00116467,0.00288557,-4.06263e-05,0.460355,0.00193739,0.0138928,706,1408,-23.5835,-19.288
-511,-384,-23.6473,20.1254,0.00225047,0.000529437,0.00117803,0.0028488,-6.88932e-05,0.469955,0.00192257,0.0108552,713,1408,-23.6473,-20.1253
-504,-384,-23.6842,20.9727,0.00247103,0.000714746,0.00139171,0.00323849,-5.27073e-05,0.503953,0.00217677,0.0128936,720,1408,-23.6842,-20.9726
-497,-384,-23.6706,21.8363,0.00291237,0.00105827,0.00176042,0.00397491,-4.27826e-06,0.543045,0.00265137,0.0435155,727,1408,-23.6706,-21.8362
-490,-384,-23.5297,22.8091,0,0,0,0,0,0,0,-1,734,1408,-23.5297,-22.8091
-483,-384,-6.26471,7.61194,0,0,0,0,0,0,0,-1,741,1408,-6.26469,-7.61191
-476,-384,-6.02734,5.67761,0,0,0,0,0,0,0,-1,748,1408,-6.02736,-5.6776
-469,-384,-10.206,2.63721,0,0,0,0,0,0,0,-1,755,1408,-10.206,-2.6372
-462,-384,-9.04291,1.43542,0,0,0,0,0,0,0,-1,762,1408,-9.04293,-1.43545
-455,-384,-7.87988,0.233765,0,0,0,0,0,0,0,-1,769,1408,-7.87986,-0.233709
-448,-384,-9.35529,7.19226,0,0,0,0,0,0,0,-1,776,1408,-9.35531,-7.19226
-441,-384,-10.4697,1.79004,0,0,0,0,0,0,0,-1,783,1408,-10.4697,-1.79003
-434,-384,-10.6449,0.552246,0,0,0,0,0,0,0,-1,790,1408,-10.6449,-0.552216
-427,-384,-10.968,1.10583,0,0,0,0,0,0,0,-1,797,1408,-10.968,-1.10588
-420,-384,-12.5607,4.54858,0,0,0,0,0,0,0,-1,804,1408,-12.5607,-4.54859
-413,-384,0,0,0,0,0,0,0,0,0,-1,811,1408,0,0
-406,-384,0,0,0,0,0,0,0,0,0,-1,818,1408,0,0
-399,-384,0,0,0,0,0,0,0,0,0,-1,825,1408,0,0
-392,-384,0,0,0,0,0,0,0,0,0,-1,832,1408,0,0
-385,-384,0,0,0,0,0,0,0,0,0,-1,839,1408,0,0
-378,-384,0,0,0,0,0,0,0,0,0,-1,846,1408,0,0
-371,-384,0,0,0,0,0,0,0,0,0,-1,853,1408,0,0
-364,-384,0,0,0,0,0,0,0,0,0,-1,860,1408,0,0
-357,-384,0,0,0,0,0,0,0,0,0,-1,867,1408,0,0
-350,-384,0,0,0,0,0,0,0,0,0,-1,874,1408,0,0
-343,-384,0,0,0,0,0,0,0,0,0,-1,881,1408,0,0
-336,-384,0,0,0,0,0,0,0,0,0,-1,888,1408,0,0
-329,-384,0,0,0,0,0,0,0,0,0,-1,895,1408,0,0
-322,-384,0,0,0,0,0,0,0,0,0,-1,902,1408,0,0
-315,-384,0,0,0,0,0,0,0,0,0,-1,909,1408,0,0
-308,-384,0,0,0,0,0,0,0,0,0,-1,916,1408,0,0
-301,-384,0,0,0,0,0,0,0,0,0,-1,923,1408,0,0
-294,-384,0,0,0,0,0,0,0,0,0,-1,930,1408,0,0
-287,-384,0,0,0,0,0,0,0,0,0,-1,937,1408,0,0
-280,-384,0,0,0,0,0,0,0,0,0,-1,944,1408,0,0
-273,-384,0,0,0,0,0,0,0,0,0,-1,951,1408,0,0
-266,-384,0,0,0,0,0,0,0,0,0,-1,958,1408,0,0
-259,-384,0,0,0,0,0,0,0,0,0,-1,965,1408,0,0
-252,-384,0,0,0,0,0,0,0,0,0,-1,972,1408,0,0
-245,-384,0,0,0,0,0,0,0,0,0,-1,979,1408,0,0
-238,-384,0,0,0,0,0,0,0,0,0,-1,986,1408,0,0
-231,-384,0,0,0,0,0,0,0,0,0,-1,993,1408,0,0
-224,-384,0,0,0,0,0,0,0,0,0,-1,1000,1408,0,0
-217,-384,0,0,0,0,0,0,0,0,0,-1,1007,1408,0,0
-210,-384,0,0,0,0,0,0,0,0,0,-1,1014,1408,0,0
-203,-384,0,0,0,0,0,0,0,0,0,-1,1021,1408,0,0
-196,-384,0,0,0,0,0,0,0,0,0,-1,1028,1408,0,0
-189,-384,0,0,0,0,0,0,0,0,0,-1,1035,1408,0,0
-182,-384,0,0,0,0,0,0,0,0,0,-1,1042,1408,0,0
-175,-384,0,0,0,0,0,0,0,0,0,-1,1049,1408,0,0
-168,-384,0,0,0,0,0,0,0,0,0,-1,1056,1408,0,0
-161,-384,0,0,0,0,0,0,0,0,0,-1,1063,1408,0,0
-154,-384,0,0,0,0,0,0,0,0,0,-1,1070,1408,0,0
-147,-384,0,0,0,0,0,0,0,0,0,-1,1077,1408,0,0
-140,-384,0,0,0,0,0,0,0,0,0,-1,1084,1408,0,0
-133,-384,0,0,0,0,0,0,0,0,0,-1,1091,1408,0,0
-126,-384,0,0,0,0,0,0,0,0,0,-1,1098,1408,0,0
-119,-384,0,0,0,0,0,0,0,0,0,-1,1105,1408,0,0
-112,-384,0,0,0,0,0,0,0,0,0,-1,1112,1408,0,0
-105,-384,0,0,0,0,0,0,0,0,0,-1,1119,1408,0,0
-98,-384,0,0,0,0,0,0,0,0,0,-1,1126,1408,0,0
-91,-384,0,0,0,0,0,0,0,0,0,-1,1133,1408,0,0
-84,-384,0,0,0,0,0,0,0,0,0,-1,1140,1408,0,0
-77,-384,0,0,0,0,0,0,0,0,0,-1,1147,1408,0,0
-70,-384,0,0,0,0,0,0,0,0,0,-1,1154,1408,0,0
-63,-384,0,0,0,0,0,0,0,0,0,-1,1161,1408,0,0
-56,-384,0,0,0,0,0,0,0,0,0,-1,1168,1408,0,0
-49,-384,0,0,0,0,0,0,0,0,0,-1,1175,1408,0,0
-42,-384,0,0,0,0,0,0,0,0,0,-1,1182,1408,0,0
-35,-384,0,0,0,0,0,0,0,0,0,-1,1189,1408,0,0
-28,-384,0,0,0,0,0,0,0,0,0,-1,1196,1408,0,0
-21,-384,0,0,0,0,0,0,0,0,0,-1,1203,1408,0,0
-14,-384,0,0,0,0,0,0,0,0,0,-1,1210,1408,0,0
-7,-384,0,0,0,0,0,0,0,0,0,-1,1217,1408,0,0
0,-384,0,0,0,0,0,0,0,0,0,-1,1224,1408,0,0
7,-384,0,0,0,0,0,0,0,0,0,-1,1231,1408,0,0
14,-384,0,0,0,0,0,0,0,0,0,-1,1238,1408,0,0
21,-384,0,0,0,0,0,0,0,0,0,-1,1245,1408,0,0
28,-384,0,0,0,0,0,0,0,0,0,-1,1252,1408,0,0
35,-384,0,0,0,0,0,0,0,0,0,-1,1259,1408,0,0
42,-384,0,0,0,0,0,0,0,0,0,-1,1266,1408,0,0
49,-384,0,0,0,0,0,0,0,0,0,-1,1273,1408,0,0
56,-384,0,0,0,0,0,0,0,0,0,-1,1280,1408,0,0
63,-384,0,0,0,0,0,0,0,0,0,-1,1287,1408,0,0
70,-384,0,0,0,0,0,0,0,0,0,-1,1294,1408,0,0
77,-384,0,0,0,0,0,0,0,0,0,-1,1301,1408,0,0
84,-384,0,0,0,0,0,0,0,0,0,-1,1308,1408,0,0
91,-384,0,0,0,0,0,0,0,0,0,-1,1315,1408,0,0
98,-384,0,0,0,0,0,0,0,0,0,-1,1322,1408,0,0
105,-384,0,0,0,0,0,0,0,0,0,-1,1329,1408,0,0
112,-384,0,0,0,0,0,0,0,0,0,-1,1336,1408,0,0
119,-384,0,0,0,0,0,0,0,0,0,-1,1343,1408,0,0
126,-384,0,0,0,0,0,0,0,0,0,-1,1350,1408,0,0
133,-384,0,0,0,0,0,0,0,0,0,-1,1357,1408,0,0
140,-384,0,0,0,0,0,0,0,0,0,-1,1364,1408,0,0
147,-384,0,0,0,0,0,0,0,0,0,-1,1371,1408,0,0
154,-384,0,0,0,0,0,0,0,0,0,-1,1378,1408,0,0
161,-384,0,0,0,0,0,0,0,0,0,-1,1385,1408,0,0
168,-384,0,0,0,0,0,0,0,0,0,-1,1392,1408,0,0
175,-384,0,0,0,0,0,0,0,0,0,-1,1399,1408,0,0
182,-384,0,0,0,0,0,0,0,0,0,-1,1406,1408,0,0
189,-384,0,0,0,0,0,0,0,0,0,-1,1413,1408,0,0
196,-384,0,0,0,0,0,0,0,0,0,-1,1420,1408,0,0
203,-384,0,0,0,0,0,0,0,0,0,-1,1427,1408,0,0
210,-384,0,0,0,0,0,0,0,0,0,-1,1434,1408,0,0
217,-384,0,0,0,0,0,0,0,0,0,-1,1441,1408,0,0
224,-384,0,0,0,0,0,0,0,0,0,-1,1448,1408,0,0
231,-384,0,0,0,0,0,0,0,0,0,-1,1455,1408,0,0
238,-384,0,0,0,0,0,0,0,0,0,-1,1462,1408,0,0
245,-384,0,0,0,0,0,0,0,0,0,-1,1469,1408,0,0
252,-384,0,0,0,0,0,0,0,0,0,-1,1476,1408,0,0
259,-384,0,0,0,0,0,0,0,0,0,-1,1483,1408,0,0
266,-384,0,0,0,0,0,0,0,0,0,-1,1490,1408,0,0
273,-384,0,0,0,0,0,0,0,0,0,-1,1497,1408,0,0
280,-384,0,0,0,0,0,0,0,0,0,-1,1504,1408,0,0
287,-384,0,0,0,0,0,0,0,0,0,-1,1511,1408,0,0
294,-384,0,0,0,0,0,0,0,0,0,-1,1518,1408,0,0
301,-384,0,0,0,0,0,0,0,0,0,-1,1525,1408,0,0
308,-384,0,0,0,0,0,0,0,0,0,-1,1532,1408,0,0
315,-384,0,0,0,0,0,0,0,0,0,-1,1539,1408,0,0
322,-384,0,0,0,0,0,0,0,0,0,-1,1546,1408,0,0
329,-384,0,0,0,0,0,0,0,0,0,-1,1553,1408,0,0
336,-384,0,0,0,0,0,0,0,0,0,-1,1560,1408,0,0
343,-384,0,0,0,0,0,0,0,0,0,-1,1567,1408,0,0
350,-384,0,0,0,0,0,0,0,0,0,-1,1574,1408,0,0
357,-384,0,0,0,0,0,0,0,0,0,-1,1581,1408,0,0
364,-384,0,0,0,0,0,0,0,0,0,-1,1588,1408,0,0
371,-384,0,0,0,0,0,0,0,0,0,-1,1595,1408,0,0
378,-384,0,0,0,0,0,0,0,0,0,-1,1602,1408,0,0
385,-384,0,0,0,0,0,0,0,0,0,-1,1609,1408,0,0
392,-384,0,0,0,0,0,0,0,0,0,-1,1616,1408,0,0
399,-384,0,0,0,0,0,0,0,0,0,-1,1623,1408,0,0
406,-384,0,0,0,0,0,0,0,0,0,-1,1630,1408,0,0
413,-384,0,0,0,0,0,0,0,0,0,-1,1637,1408,0,0
420,-384,0,0,0,0,0,0,0,0,0,-1,1644,1408,0,0
427,-384,0,0,0,0,0,0,0,0,0,-1,1651,1408,0,0
434,-384,0,0,0,0,0,0,0,0,0,-1,1658,1408,0,0
441,-384,0,0,0,0,0,0,0,0,0,-1,1665,1408,0,0
448,-384,0,0,0,0,0,0,0,0,0,-1,1672,1408,0,0
455,-384,0,0,0,0,0,0,0,0,0,-1,1679,1408,0,0
462,-384,0,0,0,0,0,0,0,0,0,-1,1686,1408,0,0
469,-384,0,0,0,0,0,0,0,0,0,-1,1693,1408,0,0
476,-384,0,0,0,0,0,0,0,0,0,-1,1700,1408,0,0
483,-384,0,0,0,0,0,0,0,0,0,-1,1707,1408,0,0
490,-384,0,0,0,0,0,0,0,0,0,-1,1714,1408,0,0
497,-384,0,0,0,0,0,0,0,0,0,-1,1721,1408,0,0
504,-384,0,0,0,0,0,0,0,0,0,-1,1728,1408,0,0
511,-384,0,0,0,0,0,0,0,0,0,-1,1735,1408,0,0
518,-384,0,0,0,0,0,0,0,0,0,-1,1742,1408,0,0
525,-384,0,0,0,0,0,0,0,0,0,-1,1749,1408,0,0
532,-384,0,0,0,0,0,0,0,0,0,-1,1756,1408,0,0
539,-384,27.6886,2.85803,0,0,0,0,0,0,0,-1,1763,1408,27.6886,-2.85807
546,-384,27.5044,2.9425,0,0,0,0,0,0,0,-1,1770,1408,27.5044,-2.94255
553,-384,27.3052,2.78394,0,0,0,0,0,0,0,-1,1777,1408,27.3051,-2.78394
560,-384,26.833,3.19812,0,0,0,0,0,0,0,-1,1784,1408,26.833,-3.19816
567,-384,38.2566,0.109985,0,0,0,0,0,0,0,-1,1791,1408,38.2566,-0.110044
574,-384,38.4003,2.05945,0,0,0,0,0,0,0,-1,1798,1408,38.4003,-2.05949
581,-384,25.819,3.91846,0,0,0,0,0,0,0,-1,1805,1408,25.8189,-3.91848
588,-384,23.3721,4.25439,0,0,0,0,0,0,0,-1,1812,1408,23.3721,-4.25442
595,-384,24.981,5.59595,0,0,0,0,0,0,0,-1,1819,1408,24.981,-5.59598
602,-384,20.6605,4.17261,0,0,0,0,0,0,0,-1,1826,1408,20.6606,-4.17265
609,-384,14.158,5.49475,0,0,0,0,0,0,0,-1,1833,1408,14.158,-5.49474
616,-384,14.7997,7.6908,0,0,0,0,0,0,0,-1,1840,1408,14.7996,-7.69079
623,-384,16.4293,9.58899,0,0,0,0,0,0,0,-1,1847,1408,16.4294,-9.58901
630,-384,40.9127,22.0831,0,0,0,0,0,0,0,-1,1854,1408,40.9127,-22.0832
637,-384,40.969,21.2056,-0.000952804,-0.000174322,0.000481049,5.52403e-05,-0.00118237,1.12555,0.000807287,0.0266806,1861,1408,40.969,-21.2056
644,-384,40.8892,20.4279,-0.000510023,-5.07502e-05,0.000275397,7.81891e-05,-0.000638962,1.13292,0.000454286,0.0173029,1868,1408,40.8892,-20.4279
651,-384,40.8323,19.5889,0.000328167,4.53235e-05,-6.28891e-05,0.00034152,3.19707e-05,-0.209215,0.000217807,0.0164907,1875,1408,40.8323,-19.5889
658,-384,40.8057,18.7911,0.0013898,0.000172978,-0.00051604,0.00157918,-1.63963e-05,-0.351716,0.00105829,0.016646,1882,1408,40.8057,-18.7911
665,-384,40.8118,18.0276,0.00266769,0.000338912,-0.00108359,0.00309389,-8.72893e-05,-0.374736,0.0020923,0.0186239,1889,1408,40.8118,-18.0276
672,-384,40.7708,17.217,0.00417483,0.00050006,-0.00175374,0.00487744,-0.00020255,-0.381054,0.0033212,0.0165432,1896,1408,40.7708,-17.2171
679,-384,40.6901,16.4219,0.00592527,0.000681151,-0.0025503,0.00696098,-0.000354552,-0.385763,0.00476323,0.015997,1903,1408,40.6901,-16.4219
686,-384,40.6493,15.6423,0.00795648,0.000871726,-0.00348977,0.00938672,-0.000558518,-0.388959,0.00645205,0.0149844,1910,1408,40.6493,-15.6423
693,-384,40.7959,14.8403,0.0102428,0.00113706,-0.00457851,0.0121468,-0.000766954,-0.394103,0.00836526,0.0475055,1917,1408,40.7959,-14.8403
700,-384,41.0205,14.0906,0,0,0,0,0,0,0,-1,1924,1408,41.0205,-14.0906
707,-384,17.0566,6.62842,0,0,0,0,0,0,0,-1,1931,1408,17.0567,-6.62848
714,-384,16.038,5.0282,0,0,0,0,0,0,0,-1,1938,1408,16.038,-5.02819
721,-384,13.8843,2.8717,0,0,0,0,0,0,0,-1,1945,1408,13.8843,-2.87171
728,-384,15.4409,6.25745,0,0,0,0,0,0,0,-1,1952,1408,15.4409,-6.2574
735,-384,16.7598,6.71289,0,0,0,0,0,0,0,-1,1959,1408,16.7598,-6.71287
742,-384,0,0,0,0,0,0,0,0,0,-1,1966,1408,0,0
749,-384,0,0,0,0,0,0,0,0,0,-1,1973,1408,0,0
756,-384,0,0,0,0,0,0,0,0,0,-1,1980,1408,0,0
763,-384,0,0,0,0,0,0,0,0,0,-1,1987,1408,0,0
770,-384,0,0,0,0,0,0,0,0,0,-1,1994,1408,0,0
777,-384,0,0,0,0,0,0,0,0,0,-1,2001,1408,0,0
784,-384,0,0,0,0,0,0,0,0,0,-1,2008,1408,0,0
791,-384,0,0,0,0,0,0,0,0,0,-1,2015,1408,0,0
798,-384,0,0,0,0,0,0,0,0,0,-1,2022,1408,0,0
805,-384,0,0,0,0,0,0,0,0,0,-1,2029,1408,0,0
812,-384,0,0,0,0,0,0,0,0,0,-1,2036,1408,0,0
-700,-391,0,0,0,0,0,0,0,0,0,-1,524,1415,0,0
-693,-391,0,0,0,0,0,0,0,0,0,-1,531,1415,0,0
-686,-391,0,0,0,0,0,0,0,0,0,-1,538,1415,0,0
-679,-391,0,0,0,0,0,0,0,0,0,-1,545,1415,0,0
-672,-391,0,0,0,0,0,0,0,0,0,-1,552,1415,0,0
-665,-391,0,0,0,0,0,0,0,0,0,-1,559,1415,0,0
-658,-391,0,0,0,0,0,0,0,0,0,-1,566,1415,0,0
-651,-391,0,0,0,0,0,0,0,0,0,-1,573,1415,0,0
-644,-391,0,0,0,0,0,0,0,0,0,-1,580,1415,0,0
-637,-391,0,0,0,0,0,0,0,0,0,-1,587,1415,0,0
-630,-391,0,0,0,0,0,0,0,0,0,-1,594,1415,0,0
-623,-391,0,0,0,0,0,0,0,0,0,-1,601,1415,0,0
-616,-391,0,0,0,0,0,0,0,0,0,-1,608,1415,0,0
-609,-391,-7.71753,-3.69763,0,0,0,0,0,0,0,-1,615,1415,-7.71751,3.69759
-602,-391,-13.9493,-4.12805,0,0,0,0,0,0,0,-1,622,1415,-13.9493,4.12803
-595,-391,-10.8315,1.76172,0,0,0,0,0,0,0,-1,629,1415,-10.8315,-1.76171
-588,-391,-10.265,2.16431,0,0,0,0,0,0,0,-1,636,1415,-10.265,-2.16431
-581,-391,-11.3325,2.44836,0,0,0,0,0,0,0,-1,643,1415,-11.3325,-2.44842
-574,-391,-11.1471,6.19983,0,0,0,0,0,0,0,-1,650,1415,-11.1471,-6.19981
-567,-391,-11.5172,6.82458,0,0,0,0,0,0,0,-1,657,1415,-11.5171,-6.82454
-560,-391,-11.2459,7.37195,0,0,0,0,0,0,0,-1,664,1415,-11.2459,-7.37191
-553,-391,-22.7065,15.1007,0,0,0,0,0,0,0,-1,671,1415,-22.7066,-15.1008
-546,-391,-22.6376,16.0046,0.0054291,0.00295755,0.00320522,0.00762852,0.000758131,0.601403,0.00485275,0.0208523,678,1415,-22.6376,-16.0046
-539,-391,-22.6008,16.8636,0.0042365,0.00210422,0.00241897,0.00581385,0.000526866,0.577834,0.00371276,0.0140803,685,1415,-22.6008,-16.8637
-532,-391,-22.595,17.6942,0.00333093,0.00144812,0.00182176,0.00444014,0.000338906,0.546918,0.00285384,0.0254497,692,1415,-22.595,-17.6942
-525,-391,-22.6913,18.5532,0.00271493,0.00104212,0.00143362,0.00353829,0.000218752,0.521328,0.00228943,0.0248465,699,1415,-22.6913,-18.5532
-518,-391,-22.7928,19.3549,0.00230898,0.000773894,0.00118917,0.0029568,0.000126075,0.498815,0.00193055,0.0151162,706,1415,-22.7928,-19.3548
-511,-391,-22.8053,20.1824,0.00210456,0.000671829,0.00107728,0.00268192,9.44732e-05,0.491982,0.0017573,0.0140664,713,1415,-22.8053,-20.1824
-504,-391,-22.8369,21.0226,0.00213384,0.000734306,0.00113491,0.00276738,0.000100773,0.509135,0.00181226,0.0131137,720,1415,-22.8369,-21.0226
-497,-391,-22.8759,21.8497,0.0023715,0.000938751,0.00134246,0.00317677,0.000133487,0.540304,0.00207478,0.0151455,727,1415,-22.8759,-21.8498
-490,-391,-22.8766,22.7086,0,0,0,0,0,0,0,-1,734,1415,-22.8767,-22.7087
-483,-391,-11.1018,12.9382,0,0,0,0,0,0,0,-1,741,1415,-11.1018,-12.9382
-476,-391,-6.05731,6.85303,0,0,0,0,0,0,0,-1,748,1415,-6.05728,-6.85304
-469,-391,-3.88953,5.0979,0,0,0,0,0,0,0,-1,755,1415,-3.88955,-5.09794
-462,-391,-8.67688,2.03125,0,0,0,0,0,0,0,-1,762,1415,-8.67685,-2.03121
-455,-391,-8.65576,6.46997,0,0,0,0,0,0,0,-1,769,1415,-8.65579,-6.46999
-448,-391,-8.39618,4.38403,0,0,0,0,0,0,0,-1,776,1415,-8.39617,-4.38405
-441,-391,-9.77704,2.5946,0,0,0,0,0,0,0,-1,783,1415,-9.77702,-2.5946
-434,-391,-11.5403,2.12878,0,0,0,0,0,0,0,-1,790,1415,-11.5403,-2.12881
-427,-391,-10.5311,2.50403,0,0,0,0,0,0,0,-1,797,1415,-10.5311,-2.504
-420,-391,-14.7087,1.24365,0,0,0,0,0,0,0,-1,804,1415,-14.7088,-1.24365
-413,-391,0,0,0,0,0,0,0,0,0,-1,811,1415,0,0
-406,-391,0,0,0,0,0,0,0,0,0,-1,818,1415,0,0
-399,-391,0,0,0,0,0,0,0,0,0,-1,825,1415,0,0
-392,-391,0,0,0,0,0,0,0,0,0,-1,832,1415,0,0
-385,-391,0,0,0,0,0,0,0,0,0,-1,839,1415,0,0
-378,-391,0,0,0,0,0,0,0,0,0,-1,846,1415,0,0
-371,-391,0,0,0,0,0,0,0,0,0,-1,853,1415,0,0
-364,-391,0,0,0,0,0,0,0,0,0,-1,860,1415,0,0
-357,-391,0,0,0,0,0,0,0,0,0,-1,867,1415,0,0
-350,-391,0,0,0,0,0,0,0,0,0,-1,874,1415,0,0
-343,-391,0,0,0,0,0,0,0,0,0,-1,881,1415,0,0
-336,-391,0,0,0,0,0,0,0,0,0,-1,888,1415,0,0
-329,-391,0,0,0,0,0,0,0,0,0,-1,895,1415,0,0
-322,-391,0,0,0,0,0,0,0,0,0,-1,902,1415,0,0
-315,-391,0,0,0,0,0,0,0,0,0,-1,909,1415,0,0
-308,-391,0,0,0,0,0,0,0,0,0,-1,916,1415,0,0
-301,-391,0,0,0,0,0,0,0,0,0,-1,923,1415,0,0
-294,-391,0,0,0,0,0,0,0,0,0,-1,930,1415,0,0
-287,-391,0,0,0,0,0,0,0,0,0,-1,937,1415,0,0
-280,-391,0,0,0,0,0,0,0,0,0,-1,944,1415,0,0
-273,-391,0,0,0,0,0,0,0,0,0,-1,951,1415,0,0
-266,-391,0,0,0,0,0,0,0,0,0,-1,958,1415,0,0
-259,-391,0,0,0,0,0,0,0,0,0,-1,965,1415,0,0
-252,-391,0,0,0,0,0,0,0,0,0,-1,972,1415,0,0
-245,-391,0,0,0,0,0,0,0,0,0,-1,979,1415,0,0
-238,-391,0,0,0,0,0,0,0,0,0,-1,986,1415,0,0
-231,-391,0,0,0,0,0,0,0,0,0,-1,993,1415,0,0
-224,-391,0,0,0,0,0,0,0,0,0,-1,1000,1415,0,0
-217,-391,0,0,0,0,0,0,0,0,0,-1,1007,1415,0,0
-210,-391,0,0,0,0,0,0,0,0,0,-1,1014,1415,0,0
-203,-391,0,0,0,0,0,0,0,0,0,-1,1021,1415,0,0
-196,-391,0,0,0,0,0,0,0,0,0,-1,1028,1415,0,0
-189,-391,0,0,0,0,0,0,0,0,0,-1,1035,1415,0,0
-182,-391,0,0,0,0,0,0,0,0,0,-1,1042,1415,0,0
-175,-391,0,0,0,0,0,0,0,0,0,-1,1049,1415,0,0
-168,-391,0,0,0,0,0,0,0,0,0,-1,1056,1415,0,0
-161,-391,0,0,0,0,0,0,0,0,0,-1,1063,1415,0,0
-154,-391,0,0,0,0,0,0,0,0,0,-1,1070,1415,0,0
-147,-391,0,0,0,0,0,0,0,0,0,-1,1077,1415,0,0
-140,-391,0,0,0,0,0,0,0,0,0,-1,1084,1415,0,0
-133,-391,0,0,0,0,0,0,0,0,0,-1,1091,1415,0,0
-126,-391,0,0,0,0,0,0,0,0,0,-1,1098,1415,0,0
-119,-391,0,0,0,0,0,0,0,0,0,-1,1105,1415,0,0
-112,-391,0,0,0,0,0,0,0,0,0,-1,1112,1415,0,0
-105,-391,0,0,0,0,0,0,0,0,0,-1,1119,1415,0,0
-98,-391,0,0,0,0,0,0,0,0,0,-1,1126,1415,0,0
-91,-391,0,0,0,0,0,0,0,0,0,-1,1133,1415,0,0
-84,-391,0,0,0,0,0,0,0,0,0,-1,1140,1415,0,0
-77,-391,0,0,0,0,0,0,0,0,0,-1,1147,1415,0,0
-70,-391,0,0,0,0,0,0,0,0,0,-1,1154,1415,0,0
-63,-391,0,0,0,0,0,0,0,0,0,-1,1161,1415,0,0
-56,-391,0,0,0,0,0,0,0,0,0,-1,1168,1415,0,0
-49,-391,0,0,0,0,0,0,0,0,0,-1,1175,1415,0,0
-42,-391,0,0,0,0,0,0,0,0,0,-1,1182,1415,0,0
-35,-391,0,0,0,0,0,0,0,0,0,-1,1189,1415,0,0
-28,-391,0,0,0,0,0,0,0,0,0,-1,1196,1415,0,0
-21,-391,0,0,0,0,0,0,0,0,0,-1,1203,1415,0,0
-14,-391,0,0,0,0,0,0,0,0,0,-1,1210,1415,0,0
-7,-391,0,0,0,0,0,0,0,0,0,-1,1217,1415,0,0
0,-391,0,0,0,0,0,0,0,0,0,-1,1224,1415,0,0
7,-391,0,0,0,0,0,0,0,0,0,-1,1231,1415,0,0
14,-391,0,0,0,0,0,0,0,0,0,-1,1238,1415,0,0
21,-391,0,0,0,0,0,0,0,0,0,-1,1245,1415,0,0
28,-391,0,0,0,0,0,0,0,0,0,-1,1252,1415,0,0
35,-391,0,0,0,0,0,0,0,0,0,-1,1259,1415,0,0
42,-391,0,0,0,0,0,0,0,0,0,-1,1266,1415,0,0
49,-391,0,0,0,0,0,0,0,0,0,-1,1273,1415,0,0
56,-391,0,0,0,0,0,0,0,0,0,-1,1280,1415,0,0
63,-391,0,0,0,0,0,0,0,0,0,-1,1287,1415,0,0
70,-391,0,0,0,0,0,0,0,0,0,-1,1294,1415,0,0
77,-391,0,0,0,0,0,0,0,0,0,-1,1301,1415,0,0
84,-391,0,0,0,0,0,0,0,0,0,-1,1308,1415,0,0
91,-391,0,0,0,0,0,0,0,0,0,-1,1315,1415,0,0
98,-391,0,0,0,0,0,0,0,0,0,-1,1322,1415,0,0
105,-391,0,0,0,0,0,0,0,0,0,-1,1329,1415,0,0
112,-391,0,0,0,0,0,0,0,0,0,-1,1336,1415,0,0
119,-391,0,0,0,0,0,0,0,0,0,-1,1343,1415,0,0
126,-391,0,0,0,0,0,0,0,0,0,-1,1350,1415,0,0
133,-391,0,0,0,0,0,0,0,0,0,-1,1357,1415,0,0
140,-391,0,0,0,0,0,0,0,0,0,-1,1364,1415,0,0
147,-391,0,0,0,0,0,0,0,0,0,-1,1371,1415,0,0
154,-391,0,0,0,0,0,0,0,0,0,-1,1378,1415,0,0
161,-391,0,0,0,0,0,0,0,0,0,-1,1385,1415,0,0
168,-391,0,0,0,0,0,0,0,0,0,-1,1392,1415,0,0
175,-391,0,0,0,0,0,0,0,0,0,-1,1399,1415,0,0
182,-391,0,0,0,0,0,0,0,0,0,-1,1406,1415,0,0
189,-391,0,0,0,0,0,0,0,0,0,-1,1413,1415,0,0
196,-391,0,0,0,0,0,0,0,0,0,-1,1420,1415,0,0
203,-391,0,0,0,0,0,0,0,0,0,-1,1427,1415,0,0
210,-391,0,0,0,0,0,0,0,0,0,-1,1434,1415,0,0
217,-391,0,0,0,0,0,0,0,0,0,-1,1441,1415,0,0
224,-391,0,0,0,0,0,0,0,0,0,-1,1448,1415,0,0
231,-391,0,0,0,0,0,0,0,0,0,-1,1455,1415,0,0
238,-391,0,0,0,0,0,0,0,0,0,-1,1462,1415,0,0
245,-391,0,0,0,0,0,0,0,0,0,-1,1469,1415,0,0
252,-391,0,0,0,0,0,0,0,0,0,-1,1476,1415,0,0
259,-391,0,0,0,0,0,0,0,0,0,-1,1483,1415,0,0
266,-391,0,0,0,0,0,0,0,0,0,-1,1490,1415,0,0
273,-391,0,0,0,0,0,0,0,0,0,-1,1497,1415,0,0
280,-391,0,0,0,0,0,0,0,0,0,-1,1504,1415,0,0
287,-391,0,0,0,0,0,0,0,0,0,-1,1511,1415,0,0
294,-391,0,0,0,0,0,0,0,0,0,-1,1518,1415,0,0
301,-391,0,0,0,0,0,0,0,0,0,-1,1525,1415,0,0
308,-391,0,0,0,0,0,0,0,0,0,-1,1532,1415,0,0
315,-391,0,0,0,0,0,0,0,0,0,-1,1539,1415,0,0
322,-391,0,0,0,0,0,0,0,0,0,-1,1546,1415,0,0
329,-391,0,0,0,0,0,0,0,0,0,-1,1553,1415,0,0
336,-391,0,0,0,0,0,0,0,0,0,-1,1560,1415,0,0
343,-391,0,0,0,0,0,0,0,0,0,-1,1567,1415,0,0
350,-391,0,0,0,0,0,0,0,0,0,-1,1574,1415,0,0
357,-391,0,0,0,0,0,0,0,0,0,-1,1581,1415,0,0
364,-391,0,0,0,0,0,0,0,0,0,-1,1588,1415,0,0
371,-391,0,0,0,0,0,0,0,0,0,-1,1595,1415,0,0
378,-391,0,0,0,0,0,0,0,0,0,-1,1602,1415,0,0
385,-391,0,0,0,0,0,0,0,0,0,-1,1609,1415,0,0
392,-391,0,0,0,0,0,0,0,0,0,-1,1616,1415,0,0
399,-391,0,0,0,0,0,0,0,0,0,-1,1623,1415,0,0
406,-391,0,0,0,0,0,0,0,0,0,-1,1630,1415,0,0
413,-391,0,0,0,0,0,0,0,0,0,-1,1637,1415,0,0
420,-391,0,0,0,0,0,0,0,0,0,-1,1644,1415,0,0
427,-391,0,0,0,0,0,0,0,0,0,-1,1651,1415,0,0
434,-391,0,0,0,0,0,0,0,0,0,-1,1658,1415,0,0
441,-391,0,0,0,0,0,0,0,0,0,-1,1665,1415,0,0
448,-391,0,0,0,0,0,0,0,0,0,-1,1672,1415,0,0
455,-391,0,0,0,0,0,0,0,0,0,-1,1679,1415,0,0
462,-391,0,0,0,0,0,0,0,0,0,-1,1686,1415,0,0
469,-391,0,0,0,0,0,0,0,0,0,-1,1693,1415,0,0
476,-391,0,0,0,0,0,0,0,0,0,-1,1700,1415,0,0
483,-391,0,0,0,0,0,0,0,0,0,-1,1707,1415,0,0
490,-391,0,0,0,0,0,0,0,0,0,-1,1714,1415,0,0
497,-391,0,0,0,0,0,0,0,0,0,-1,1721,1415,0,0
504,-391,0,0,0,0,0,0,0,0,0,-1,1728,1415,0,0
511,-391,0,0,0,0,0,0,0,0,0,-1,1735,1415,0,0
518,-391,0,0,0,0,0,0,0,0,0,-1,1742,1415,0,0
525,-391,0,0,0,0,0,0,0,0,0,-1,1749,1415,0,0
532,-391,28.5959,3.02356,0,0,0,0,0,0,0,-1,1756,1415,28.596,-3.02358
539,-391,27.5881,3.25012,0,0,0,0,0,0,0,-1,1763,1415,27.5882,-3.25016
546,-391,27.2837,3.28064,0,0,0,0,0,0,0,-1,1770,1415,27.2837,-3.28064
553,-391,32.5952,5.04553,0,0,0,0,0,0,0,-1,1777,1415,32.5952,-5.04551
560,-391,31.2947,5.67017,0,0,0,0,0,0,0,-1,1784,1415,31.2947,-5.67011
567,-391,30.1473,6.17603,0,0,0,0,0,0,0,-1,1791,1415,30.1473,-6.17602
574,-391,27.5656,5.6842,0,0,0,0,0,0,0,-1,1798,1415,27.5655,-5.68422
581,-391,25.8883,5.76123,0,0,0,0,0,0,0,-1,1805,1415,25.8883,-5.76124
588,-391,24.2717,5.47986,0,0,0,0,0,0,0,-1,1812,1415,24.2717,-5.47982
595,-391,22.8827,6.1991,0,0,0,0,0,0,0,-1,1819,1415,22.8827,-6.19909
602,-391,15.1635,5.69849,0,0,0,0,0,0,0,-1,1826,1415,15.1635,-5.69847
609,-391,14.8285,7.50476,0,0,0,0,0,0,0,-1,1833,1415,14.8285,-7.50479
616,-391,20.7952,12.0503,0,0,0,0,0,0,0,-1,1840,1415,20.7952,-12.0503
623,-391,36.6426,20.3677,0,0,0,0,0,0,0,-1,1847,1415,36.6426,-20.3676
630,-391,40.1848,22.0042,0,0,0,0,0,0,0,-1,1854,1415,40.1848,-22.0042
637,-391,40.1467,21.2297,-0.000497073,-0.00022527,0.000455769,0.000114427,-0.00083677,0.930291,0.00059964,0.0170499,1861,1415,40.1467,-21.2298
644,-391,40.0896,20.4501,1.54819e-06,-6.30899e-05,0.000165172,0.000137534,-0.000199075,0.688785,0.000195421,0.0170651,1868,1415,40.0897,-20.4501
651,-391,40.0537,19.6807,0.000843289,0.000115001,-0.000253082,0.000922599,3.56912e-05,-0.303683,0.000603521,0.0176245,1875,1415,40.0537,-19.6807
658,-391,40.0187,18.8704,0.00195534,0.000337667,-0.000807147,0.00228918,3.83065e-06,-0.392176,0.00152485,0.0184831,1882,1415,40.0187,-18.8704
665,-391,39.991,18.082,0.00332917,0.000582308,-0.00147358,0.00397012,-5.86447e-05,-0.41028,0.00266651,0.0152599,1889,1415,39.991,-18.082
672,-391,39.9476,17.2839,0.00497266,0.000804736,-0.00223921,0.00594762,-0.000170219,-0.410647,0.00402302,0.0128287,1896,1415,39.9476,-17.2839
679,-391,39.8929,16.4716,0.00691897,0.00101212,-0.00312835,0.00826778,-0.000336699,-0.407076,0.00562745,0.0122269,1903,1415,39.893,-16.4716
686,-391,39.8806,15.6368,0.00921609,0.00115824,-0.00414445,0.0109672,-0.00059286,-0.399766,0.00751688,0.0203739,1910,1415,39.8806,-15.6368
693,-391,39.9072,15.1362,0,0,0,0,0,0,0,-1,1917,1415,39.9072,-15.1362
700,-391,39.8163,14.4929,0,0,0,0,0,0,0,-1,1924,1415,39.8163,-14.4929
707,-391,12.9524,5.96851,0,0,0,0,0,0,0,-1,1931,1415,12.9524,-5.96849
714,-391,15.6875,7.67896,0,0,0,0,0,0,0,-1,1938,1415,15.6875,-7.67893
721,-391,14.1808,8.08435,0,0,0,0,0,0,0,-1,1945,1415,14.1808,-8.08439
728,-391,13.8102,7.28174,0,0,0,0,0,0,0,-1,1952,1415,13.8102,-7.28174
735,-391,0,0,0,0,0,0,0,0,0,-1,1959,1415,0,0
742,-391,0,0,0,0,0,0,0,0,0,-1,1966,1415,0,0
749,-391,0,0,0,0,0,0,0,0,0,-1,1973,1415,0,0
756,-391,0,0,0,0,0,0,0,0,0,-1,1980,1415,0,0
763,-391,0,0,0,0,0,0,0,0,0,-1,1987,1415,0,0
770,-391,0,0,0,0,0,0,0,0,0,-1,1994,1415,0,0
777,-391,0,0,0,0,0,0,0,0,0,-1,2001,1415,0,0
784,-391,0,0,0,0,0,0,0,0,0,-1,2008,1415,0,0
791,-391,0,0,0,0,0,0,0,0,0,-1,2015,1415,0,0
798,-391,0,0,0,0,0,0,0,0,0,-1,2022,1415,0,0
805,-391,0,0,0,0,0,0,0,0,0,-1,2029,1415,0,0
812,-391,0,0,0,0,0,0,0,0,0,-1,2036,1415,0,0
-700,-398,0,0,0,0,0,0,0,0,0,-1,524,1422,0,0
-693,-398,0,0,0,0,0,0,0,0,0,-1,531,1422,0,0
-686,-398,0,0,0,0,0,0,0,0,0,-1,538,1422,0,0
-679,-398,0,0,0,0,0,0,0,0,0,-1,545,1422,0,0
-672,-398,0,0,0,0,0,0,0,0,0,-1,552,1422,0,0
-665,-398,0,0,0,0,0,0,0,0,0,-1,559,1422,0,0
-658,-398,0,0,0,0,0,0,0,0,0,-1,566,1422,0,0
-651,-398,0,0,0,0,0,0,0,0,0,-1,573,1422,0,0
-644,-398,0,0,0,0,0,0,0,0,0,-1,580,1422,0,0
-637,-398,0,0,0,0,0,0,0,0,0,-1,587,1422,0,0
-630,-398,0,0,0,0,0,0,0,0,0,-1,594,1422,0,0
-623,-398,0,0,0,0,0,0,0,0,0,-1,601,1422,0,0
-616,-398,0,0,0,0,0,0,0,0,0,-1,608,1422,0,0
-609,-398,-7.47125,-4.05322,0,0,0,0,0,0,0,-1,615,1422,-7.47128,4.05317
-602,-398,-4.58868,-2.77026,0,0,0,0,0,0,0,-1,622,1422,-4.58869,2.77023
-595,-398,-12.2224,-1.82007,0,0,0,0,0,0,0,-1,629,1422,-12.2224,1.82006
-588,-398,-10.6939,1.32336,0,0,0,0,0,0,0,-1,636,1422,-10.6939,-1.32337
-581,-398,-10.433,3.1123,0,0,0,0,0,0,0,-1,643,1422,-10.433,-3.11233
-574,-398,-10.4475,5.89807,0,0,0,0,0,0,0,-1,650,1422,-10.4475,-5.89802
-567,-398,-10.4904,6.80115,0,0,0,0,0,0,0,-1,657,1422,-10.4904,-6.80115
-560,-398,-10.5333,7.70435,0,0,0,0,0,0,0,-1,664,1422,-10.5333,-7.70429
-553,-398,-21.8411,15.0101,0,0,0,0,0,0,0,-1,671,1422,-21.841,-15.0101
-546,-398,-21.8442,16.0256,0.00614756,0.00355523,0.00386518,0.00892812,0.000774675,0.623619,0.00571139,0.0400373,678,1422,-21.8442,-16.0256
-539,-398,-21.7612,16.9301,0.00473053,0.00261951,0.00291607,0.00677624,0.000573795,0.611752,0.00433889,0.013039,685,1422,-21.7613,-16.93
-532,-398,-21.8005,17.769,0.00362152,0.0018372,0.00215254,0.00505947,0.000399257,0.58894,0.00324808,0.0218343,692,1422,-21.8006,-17.769
-525,-398,-21.8967,18.6091,0.00286025,0.00135892,0.00164306,0.003916,0.000303165,0.571122,0.00251571,0.0216916,699,1422,-21.8968,-18.6092
-518,-398,-21.9468,19.3999,0.00232683,0.00102031,0.00128416,0.00311434,0.0002328,0.550104,0.00200314,0.0182333,706,1422,-21.9468,-19.3999
-511,-398,-21.9598,20.2073,0.0019785,0.000825909,0.00104959,0.0025996,0.000204805,0.534336,0.00166899,0.0142114,713,1422,-21.9599,-20.2072
-504,-398,-22.0021,21.0675,0.00182602,0.000771463,0.000959972,0.00239399,0.000203494,0.534258,0.00153267,0.0147502,720,1422,-22.0021,-21.0675
-497,-398,-22.065,21.8805,0.0018815,0.000856651,0.00101744,0.00250827,0.000229886,0.552119,0.00160106,0.0113196,727,1422,-22.065,-21.8805
-490,-398,-22.0948,22.7146,0.00225009,0.00106637,0.00121464,0.0030094,0.000307065,0.558691,0.00191214,0.0228236,734,1422,-22.0949,-22.7146
-483,-398,-22.1365,23.532,0,0,0,0,0,0,0,-1,741,1422,-22.1365,-23.532
-476,-398,-8.64392,11.9448,0,0,0,0,0,0,0,-1,748,1422,-8.6439,-11.9448
-469,-398,-8.91699,10.6276,0,0,0,0,0,0,0,-1,755,1422,-8.91697,-10.6275
-462,-398,-9.59753,9.32532,0,0,0,0,0,0,0,-1,762,1422,-9.59753,-9.32531
-455,-398,-8.08331,6.75024,0,0,0,0,0,0,0,-1,769,1422,-8.08333,-6.75022
-448,-398,-7.4505,5.25293,0,0,0,0,0,0,0,-1,776,1422,-7.4505,-5.25291
-441,-398,-7.61639,3.32141,0,0,0,0,0,0,0,-1,783,1422,-7.61637,-3.32145
-434,-398,-10.7618,3.297,0,0,0,0,0,0,0,-1,790,1422,-10.7618,-3.29704
-427,-398,-11.9061,2.24939,0,0,0,0,0,0,0,-1,797,1422,-11.9061,-2.24941
-420,-398,-13.467,2.32788,0,0,0,0,0,0,0,-1,804,1422,-13.467,-2.32787
-413,-398,-14.7983,2.15515,0,0,0,0,0,0,0,-1,811,1422,-14.7983,-2.15516
-406,-398,0,0,0,0,0,0,0,0,0,-1,818,1422,0,0
-399,-398,0,0,0,0,0,0,0,0,0,-1,825,1422,0,0
-392,-398,0,0,0,0,0,0,0,0,0,-1,832,1422,0,0
-385,-398,0,0,0,0,0,0,0,0,0,-1,839,1422,0,0
-378,-398,0,0,0,0,0,0,0,0,0,-1,846,1422,0,0
-371,-398,0,0,0,0,0,0,0,0,0,-1,853,1422,0,0
-364,-398,0,0,0,0,0,0,0,0,0,-1,860,1422,0,0
-357,-398,0,0,0,0,0,0,0,0,0,-1,867,1422,0,0
-350,-398,0,0,0,0,0,0,0,0,0,-1,874,1422,0,0
-343,-398,0,0,0,0,0,0,0,0,0,-1,881,1422,0,0
-336,-398,0,0,0,0,0,0,0,0,0,-1,888,1422,0,0
-329,-398,0,0,0,0,0,0,0,0,0,-1,895,1422,0,0
-322,-398,0,0,0,0,0,0,0,0,0,-1,902,1422,0,0
-315,-398,0,0,0,0,0,0,0,0,0,-1,909,1422,0,0
-308,-398,0,0,0,0,0,0,0,0,0,-1,916,1422,0,0
-301,-398,0,0,0,0,0,0,0,0,0,-1,923,1422,0,0
-294,-398,0,0,0,0,0,0,0,0,0,-1,930,1422,0,0
-287,-398,0,0,0,0,0,0,0,0,0,-1,937,1422,0,0
-280,-398,0,0,0,0,0,0,0,0,0,-1,944,1422,0,0
-273,-398,0,0,0,0,0,0,0,0,0,-1,951,1422,0,0
-266,-398,0,0,0,0,0,0,0,0,0,-1,958,1422,0,0
-259,-398,0,0,0,0,0,0,0,0,0,-1,965,1422,0,0
-252,-398,0,0,0,0,0,0,0,0,0,-1,972,1422,0,0
-245,-398,0,0,0,0,0,0,0,0,0,-1,979,1422,0,0
-238,-398,0,0,0,0,0,0,0,0,0,-1,986,1422,0,0
-231,-398,0,0,0,0,0,0,0,0,0,-1,993,1422,0,0
-224,-398,0,0,0,0,0,0,0,0,0,-1,1000,1422,0,0
-217,-398,0,0,0,0,0,0,0,0,0,-1,1007,1422,0,0
-210,-398,0,0,0,0,0,0,0,0,0,-1,1014,1422,0,0
-203,-398,0,0,0,0,0,0,0,0,0,-1,1021,1422,0,0
-196,-398,0,0,0,0,0,0,0,0,0,-1,1028,1422,0,0
-189,-398,0,0,0,0,0,0,0,0,0,-1,1035,1422,0,0
-182,-398,0,0,0,0,0,0,0,0,0,-1,1042,1422,0,0
-175,-398,0,0,0,0,0,0,0,0,0,-1,1049,1422,0,0
-168,-398,0,0,0,0,0,0,0,0,0,-1,1056,1422,0,0
-161,-398,0,0,0,0,0,0,0,0,0,-1,1063,1422,0,0
-154,-398,0,0,0,0,0,0,0,0,0,-1,1070,1422,0,0
-147,-398,0,0,0,0,0,0,0,0,0,-1,1077,1422,0,0
-140,-398,0,0,0,0,0,0,0,0,0,-1,1084,1422,0,0
-133,-398,0,0,0,0,0,0,0,0,0,-1,1091,1422,0,0
-126,-398,0,0,0,0,0,0,0,0,0,-1,1098,1422,0,0
-119,-398,0,0,0,0,0,0,0,0,0,-1,1105,1422,0,0
-112,-398,0,0,0,0,0,0,0,0,0,-1,1112,1422,0,0
-105,-398,0,0,0,0,0,0,0,0,0,-1,1119,1422,0,0
-98,-398,0,0,0,0,0,0,0,0,0,-1,1126,1422,0,0
-91,-398,0,0,0,0,0,0,0,0,0,-1,1133,1422,0,0
-84,-398,0,0,0,0,0,0,0,0,0,-1,1140,1422,0,0
-77,-398,0,0,0,0,0,0,0,0,0,-1,1147,1422,0,0
-70,-398,0,0,0,0,0,0,0,0,0,-1,1154,1422,0,0
-63,-398,0,0,0,0,0,0,0,0,0,-1,1161,1422,0,0
-56,-398,0,0,0,0,0,0,0,0,0,-1,1168,1422,0,0
-49,-398,0,0,0,0,0,0,0,0,0,-1,1175,1422,0,0
-42,-398,0,0,0,0,0,0,0,0,0,-1,1182,1422,0,0
-35,-398,0,0,0,0,0,0,0,0,0,-1,1189,1422,0,0
-28,-398,0,0,0,0,0,0,0,0,0,-1,1196,1422,0,0
-21,-398,0,0,0,0,0,0,0,0,0,-1,1203,1422,0,0
-14,-398,0,0,0,0,0,0,0,0,0,-1,1210,1422,0,0
-7,-398,0,0,0,0,0,0,0,0,0,-1,1217,1422,0,0
0,-398,0,0,0,0,0,0,0,0,0,-1,1224,1422,0,0
7,-398,0,0,0,0,0,0,0,0,0,-1,1231,1422,0,0
14,-398,0,0,0,0,0,0,0,0,0,-1,1238,1422,0,0
21,-398,0,0,0,0,0,0,0,0,0,-1,1245,1422,0,0
28,-398,0,0,0,0,0,0,0,0,0,-1,1252,1422,0,0
35,-398,0,0,0,0,0,0,0,0,0,-1,1259,1422,0,0
42,-398,0,0,0,0,0,0,0,0,0,-1,1266,1422,0,0
49,-398,0,0,0,0,0,0,0,0,0,-1,1273,1422,0,0
56,-398,0,0,0,0,0,0,0,0,0,-1,1280,1422,0,0
63,-398,0,0,0,0,0,0,0,0,0,-1,1287,1422,0,0
70,-398,0,0,0,0,0,0,0,0,0,-1,1294,1422,0,0
77,-398,0,0,0,0,0,0,0,0,0,-1,1301,1422,0,0
84,-398,0,0,0,0,0,0,0,0,0,-1,1308,1422,0,0
91,-398,0,0,0,0,0,0,0,0,0,-1,1315,1422,0,0
98,-398,0,0,0,0,0,0,0,0,0,-1,1322,1422,0,0
105,-398,0,0,0,0,0,0,0,0,0,-1,1329,1422,0,0
112,-398,0,0,0,0,0,0,0,0,0,-1,1336,1422,0,0
119,-398,0,0,0,0,0,0,0,0,0,-1,1343,1422,0,0
126,-398,0,0,0,0,0,0,0,0,0,-1,1350,1422,0,0
133,-398,0,0,0,0,0,0,0,0,0,-1,1357,1422,0,0
140,-398,0,0,0,0,0,0,0,0,0,-1,1364,1422,0,0
147,-398,0,0,0,0,0,0,0,0,0,-1,1371,1422,0,0
154,-398,0,0,0,0,0,0,0,0,0,-1,1378,1422,0,0
161,-398,0,0,0,0,0,0,0,0,0,-1,1385,1422,0,0
168,-398,0,0,0,0,0,0,0,0,0,-1,1392,1422,0,0
175,-398,0,0,0,0,0,0,0,0,0,-1,1399,1422,0,0
182,-398,0,0,0,0,0,0,0,0,0,-1,1406,1422,0,0
189,-398,0,0,0,0,0,0,0,0,0,-1,1413,1422,0,0
196,-398,0,0,0,0,0,0,0,0,0,-1,1420,1422,0,0
203,-398,0,0,0,0,0,0,0,0,0,-1,1427,1422,0,0
210,-398,0,0,0,0,0,0,0,0,0,-1,1434,1422,0,0
217,-398,0,0,0,0,0,0,0,0,0,-1,1441,1422,0,0
224,-398,0,0,0,0,0,0,0,0,0,-1,1448,1422,0,0
231,-398,0,0,0,0,0,0,0,0,0,-1,1455,1422,0,0
238,-398,0,0,0,0,0,0,0,0,0,-1,1462,1422,0,0
245,-398,0,0,0,0,0,0,0,0,0,-1,1469,1422,0,0
252,-398,0,0,0,0,0,0,0,0,0,-1,1476,1422,0,0
259,-398,0,0,0,0,0,0,0,0,0,-1,1483,1422,0,0
266,-398,0,0,0,0,0,0,0,0,0,-1,1490,1422,0,0
273,-398,0,0,0,0,0,0,0,0,0,-1,1497,1422,0,0
280,-398,0,0,0,0,0,0,0,0,0,-1,1504,1422,0,0
287,-398,0,0,0,0,0,0,0,0,0,-1,1511,1422,0,0
294,-398,0,0,0,0,0,0,0,0,0,-1,1518,1422,0,0
301,-398,0,0,0,0,0,0,0,0,0,-1,1525,1422,0,0
308,-398,0,0,0,0,0,0,0,0,0,-1,1532,1422,0,0
315,-398,0,0,0,0,0,0,0,0,0,-1,1539,1422,0,0
322,-398,0,0,0,0,0,0,0,0,0,-1,1546,1422,0,0
329,-398,0,0,0,0,0,0,0,0,0,-1,1553,1422,0,0
336,-398,0,0,0,0,0,0,0,0,0,-1,1560,1422,0,0
343,-398,0,0,0,0,0,0,0,0,0,-1,1567,1422,0,0
350,-398,0,0,0,0,0,0,0,0,0,-1,1574,1422,0,0
357,-398,0,0,0,0,0,0,0,0,0,-1,1581,1422,0,0
364,-398,0,0,0,0,0,0,0,0,0,-1,1588,1422,0,0
371,-398,0,0,0,0,0,0,0,0,0,-1,1595,1422,0,0
378,-398,0,0,0,0,0,0,0,0,0,-1,1602,1422,0,0
385,-398,0,0,0,0,0,0,0,0,0,-1,1609,1422,0,0
392,-398,0,0,0,0,0,0,0,0,0,-1,1616,1422,0,0
399,-398,0,0,0,0,0,0,0,0,0,-1,1623,1422,0,0
406,-398,0,0,0,0,0,0,0,0,0,-1,1630,1422,0,0
413,-398,0,0,0,0,0,0,0,0,0,-1,1637,1422,0,0
420,-398,0,0,0,0,0,0,0,0,0,-1,1644,1422,0,0
427,-398,0,0,0,0,0,0,0,0,0,-1,1651,1422,0,0
434,-398,0,0,0,0,0,0,0,0,0,-1,1658,1422,0,0
441,-398,0,0,0,0,0,0,0,0,0,-1,1665,1422,0,0
448,-398,0,0,0,0,0,0,0,0,0,-1,1672,1422,0,0
455,-398,0,0,0,0,0,0,0,0,0,-1,1679,1422,0,0
462,-398,0,0,0,0,0,0,0,0,0,-1,1686,1422,0,0
469,-398,0,0,0,0,0,0,0,0,0,-1,1693,1422,0,0
476,-398,0,0,0,0,0,0,0,0,0,-1,1700,1422,0,0
483,-398,0,0,0,0,0,0,0,0,0,-1,1707,1422,0,0
490,-398,0,0,0,0,0,0,0,0,0,-1,1714,1422,0,0
497,-398,0,0,0,0,0,0,0,0,0,-1,1721,1422,0,0
504,-398,0,0,0,0,0,0,0,0,0,-1,1728,1422,0,0
511,-398,0,0,0,0,0,0,0,0,0,-1,1735,1422,0,0
518,-398,0,0,0,0,0,0,0,0,0,-1,1742,1422,0,0
525,-398,0,0,0,0,0,0,0,0,0,-1,1749,1422,0,0
532,-398,28.4558,3.84094,0,0,0,0,0,0,0,-1,1756,1422,28.4558,-3.8409
539,-398,27.0594,3.33887,0,0,0,0,0,0,0,-1,1763,1422,27.0595,-3.3389
546,-398,31.6873,5.58582,0,0,0,0,0,0,0,-1,1770,1422,31.6872,-5.58585
553,-398,30.4392,5.92383,0,0,0,0,0,0,0,-1,1777,1422,30.4392,-5.92386
560,-398,29.1621,6.30469,0,0,0,0,0,0,0,-1,1784,1422,29.1621,-6.30469
567,-398,27.8411,6.55029,0,0,0,0,0,0,0,-1,1791,1422,27.8411,-6.55033
574,-398,26.411,6.8916,0,0,0,0,0,0,0,-1,1798,1422,26.411,-6.8916
581,-398,24.75,7.11145,0,0,0,0,0,0,0,-1,1805,1422,24.7499,-7.11142
588,-398,23.1649,7.67969,0,0,0,0,0,0,0,-1,1812,1422,23.1649,-7.67975
595,-398,21.4253,7.86023,0,0,0,0,0,0,0,-1,1819,1422,21.4253,-7.86029
602,-398,19.6857,8.04077,0,0,0,0,0,0,0,-1,1826,1422,19.6856,-8.04083
609,-398,21.1835,13.2628,0,0,0,0,0,0,0,-1,1833,1422,21.1835,-13.2628
616,-398,35.7712,21.4,0,0,0,0,0,0,0,-1,1840,1422,35.7713,-21.4
623,-398,39.432,22.9559,0,0,0,0,0,0,0,-1,1847,1422,39.4321,-22.9559
630,-398,39.4163,22.0779,-0.000298478,-0.000187618,0.000422368,0.000182941,-0.000669037,0.850643,0.00051789,0.0145382,1854,1422,39.4163,-22.0779
637,-398,39.3729,21.2924,-1.74844e-06,-0.000128613,0.000215466,0.000159428,-0.000289789,0.642245,0.000262971,0.0146533,1861,1422,39.3729,-21.2923
644,-398,39.2969,20.533,0.000537566,5.03745e-05,-0.000116519,0.000563999,2.39416e-05,-0.22308,0.000368278,0.0204353,1868,1422,39.2969,-20.5329
651,-398,39.3188,19.7838,0.00139907,0.000315057,-0.000602643,0.00166758,4.65393e-05,-0.419162,0.00109654,0.0299396,1875,1422,39.3188,-19.7838
658,-398,39.3009,18.9762,0.00255965,0.000644473,-0.00123741,0.00316672,3.7404e-05,-0.456097,0.00209879,0.0265792,1882,1422,39.3009,-18.9761
665,-398,39.1951,18.1342,0.00401666,0.000997228,-0.00199124,0.0050058,8.08435e-06,-0.461041,0.00333451,0.0173402,1889,1422,39.1951,-18.1341
672,-398,39.1519,17.3313,0.00578706,0.00131825,-0.00284402,0.00716942,-6.41127e-05,-0.452433,0.00480113,0.0137224,1896,1422,39.1518,-17.3313
679,-398,39.1235,16.5242,0.00793639,0.00160161,-0.00382684,0.0097366,-0.000198602,-0.439702,0.00655827,0.0151072,1903,1422,39.1236,-16.5241
686,-398,39.0629,15.6975,0.0105237,0.00175395,-0.00492342,0.0127318,-0.000454145,-0.421595,0.00864322,0.0319076,1910,1422,39.0629,-15.6975
693,-398,38.9524,14.7145,0,0,0,0,0,0,0,-1,1917,1422,38.9524,-14.7145
700,-398,38.7251,14.4174,0,0,0,0,0,0,0,-1,1924,1422,38.725,-14.4174
707,-398,10.9731,5.479,0,0,0,0,0,0,0,-1,1931,1422,10.9732,-5.47896
714,-398,11.7313,6.17346,0,0,0,0,0,0,0,-1,1938,1422,11.7313,-6.17348
721,-398,13.9371,8.05103,0,0,0,0,0,0,0,-1,1945,1422,13.9372,-8.05102
728,-398,14.786,7.0282,0,0,0,0,0,0,0,-1,1952,1422,14.786,-7.0282
735,-398,0,0,0,0,0,0,0,0,0,-1,1959,1422,0,0
742,-398,0,0,0,0,0,0,0,0,0,-1,1966,1422,0,0
749,-398,0,0,0,0,0,0,0,0,0,-1,1973,1422,0,0
756,-398,0,0,0,0,0,0,0,0,0,-1,1980,1422,0,0
763,-398,0,0,0,0,0,0,0,0,0,-1,1987,1422,0,0
770,-398,0,0,0,0,0,0,0,0,0,-1,1994,1422,0,0
777,-398,0,0,0,0,0,0,0,0,0,-1,2001,1422,0,0
784,-398,0,0,0,0,0,0,0,0,0,-1,2008,1422,0,0
791,-398,0,0,0,0,0,0,0,0,0,-1,2015,1422,0,0
798,-398,0,0,0,0,0,0,0,0,0,-1,2022,1422,0,0
805,-398,0,0,0,0,0,0,0,0,0,-1,2029,1422,0,0
812,-398,0,0,0,0,0,0,0,0,0,-1,2036,1422,0,0
-700,-405,0,0,0,0,0,0,0,0,0,-1,524,1429,0,0
-693,-405,0,0,0,0,0,0,0,0,0,-1,531,1429,0,0
-686,-405,0,0,0,0,0,0,0,0,0,-1,538,1429,0,0
-679,-405,0,0,0,0,0,0,0,0,0,-1,545,1429,0,0
-672,-405,0,0,0,0,0,0,0,0,0,-1,552,1429,0,0
-665,-405,0,0,0,0,0,0,0,0,0,-1,559,1429,0,0
-658,-405,0,0,0,0,0,0,0,0,0,-1,566,1429,0,0
-651,-405,0,0,0,0,0,0,0,0,0,-1,573,1429,0,0
-644,-405,0,0,0,0,0,0,0,0,0,-1,580,1429,0,0
-637,-405,0,0,0,0,0,0,0,0,0,-1,587,1429,0,0
-630,-405,0,0,0,0,0,0,0,0,0,-1,594,1429,0,0
-623,-405,0,0,0,0,0,0,0,0,0,-1,601,1429,0,0
-616,-405,0,0,0,0,0,0,0,0,0,-1,608,1429,0,0
-609,-405,0,0,0,0,0,0,0,0,0,-1,615,1429,0,0
-602,-405,-5.80988,-3.46594,0,0,0,0,0,0,0,-1,622,1429,-5.80987,3.46592
-595,-405,-9.35413,2.01477,0,0,0,0,0,0,0,-1,629,1429,-9.35411,-2.01476
-588,-405,-7.35693,0.507202,0,0,0,0,0,0,0,-1,636,1429,-7.35696,-0.507187
-581,-405,-10.1284,1.62927,0,0,0,0,0,0,0,-1,643,1429,-10.1284,-1.62922
-574,-405,-9.32074,3.05896,0,0,0,0,0,0,0,-1,650,1429,-9.32077,-3.0589
-567,-405,-9.68781,6.92163,0,0,0,0,0,0,0,-1,657,1429,-9.68782,-6.92166
-560,-405,-9.28674,7.20886,0,0,0,0,0,0,0,-1,664,1429,-9.28675,-7.20885
-553,-405,-17.8088,12.9275,0,0,0,0,0,0,0,-1,671,1429,-17.8088,-12.9275
-546,-405,-20.9781,16.0586,0,0,0,0,0,0,0,-1,678,1429,-20.9782,-16.0586
-539,-405,-20.9868,16.8988,0.00523669,0.0033128,0.00352533,0.00792896,0.000620534,0.652207,0.00509175,0.0151838,685,1429,-20.9868,-16.8988
-532,-405,-21.0126,17.7438,0.00393144,0.00238243,0.00258976,0.00586002,0.000453841,0.640099,0.00376453,0.0183483,692,1429,-21.0126,-17.7438
-525,-405,-21.0683,18.6143,0.00305614,0.00181144,0.00195931,0.00448957,0.000378015,0.631619,0.00287534,0.0163537,699,1429,-21.0683,-18.6143
-518,-405,-21.0953,19.4591,0.00242945,0.00138369,0.00148809,0.00348386,0.000329288,0.616449,0.00222096,0.0148926,706,1429,-21.0953,-19.4591
-511,-405,-21.1176,20.2692,0.00199095,0.00107071,0.00113802,0.00275834,0.000303315,0.593287,0.00174659,0.0155907,713,1429,-21.1176,-20.2692
-504,-405,-21.1685,21.0928,0.00173556,0.000878783,0.000911396,0.00231423,0.000300117,0.565703,0.00145315,0.0180139,720,1429,-21.1685,-21.0928
-497,-405,-21.2344,21.9572,0.00169286,0.000833605,0.000832305,0.00219988,0.000326584,0.54714,0.00137076,0.0160839,727,1429,-21.2344,-21.9571
-490,-405,-21.2833,22.7728,0.00188215,0.000908382,0.000878378,0.00239956,0.000390974,0.532329,0.00148662,0.0148823,734,1429,-21.2832,-22.7728
-483,-405,-21.2206,23.7103,0.00222763,0.0011932,0.00103482,0.00286729,0.000553536,0.553649,0.00175634,0.0409789,741,1429,-21.2206,-23.7103
-476,-405,-21.0111,24.8724,0,0,0,0,0,0,0,-1,748,1429,-21.0111,-24.8725
-469,-405,-9.65692,12.8171,0,0,0,0,0,0,0,-1,755,1429,-9.65691,-12.8172
-462,-405,-9.14862,11.3597,0,0,0,0,0,0,0,-1,762,1429,-9.14865,-11.3597
-455,-405,-9.021,9.51111,0,0,0,0,0,0,0,-1,769,1429,-9.021,-9.51109
-448,-405,-8.4649,6.82813,0,0,0,0,0,0,0,-1,776,1429,-8.46492,-6.82817
-441,-405,-6.6712,4.23767,0,0,0,0,0,0,0,-1,783,1429,-6.67121,-4.23764
-434,-405,-9.62549,3.94189,0,0,0,0,0,0,0,-1,790,1429,-9.62546,-3.94191
-427,-405,-10.9764,3.73926,0,0,0,0,0,0,0,-1,797,1429,-10.9764,-3.73923
-420,-405,-12.1187,3.68506,0,0,0,0,0,0,0,-1,804,1429,-12.1187,-3.68512
-413,-405,-13.5353,3.75659,0,0,0,0,0,0,0,-1,811,1429,-13.5353,-3.75655
-406,-405,-14.7374,3.99817,0,0,0,0,0,0,0,-1,818,1429,-14.7374,-3.99814
-399,-405,0,0,0,0,0,0,0,0,0,-1,825,1429,0,0
-392,-405,0,0,0,0,0,0,0,0,0,-1,832,1429,0,0
-385,-405,0,0,0,0,0,0,0,0,0,-1,839,1429,0,0
-378,-405,0,0,0,0,0,0,0,0,0,-1,846,1429,0,0
-371,-405,0,0,0,0,0,0,0,0,0,-1,853,1429,0,0
-364,-405,0,0,0,0,0,0,0,0,0,-1,860,1429,0,0
-357,-405,0,0,0,0,0,0,0,0,0,-1,867,1429,0,0
-350,-405,0,0,0,0,0,0,0,0,0,-1,874,1429,0,0
-343,-405,0,0,0,0,0,0,0,0,0,-1,881,1429,0,0
-336,-405,0,0,0,0,0,0,0,0,0,-1,888,1429,0,0
-329,-405,0,0,0,0,0,0,0,0,0,-1,895,1429,0,0
-322,-405,0,0,0,0,0,0,0,0,0,-1,902,1429,0,0
-315,-405,0,0,0,0,0,0,0,0,0,-1,909,1429,0,0
-308,-405,0,0,0,0,0,0,0,0,0,-1,916,1429,0,0
-301,-405,0,0,0,0,0,0,0,0,0,-1,923,1429,0,0
-294,-405,0,0,0,0,0,0,0,0,0,-1,930,1429,0,0
-287,-405,0,0,0,0,0,0,0,0,0,-1,937,1429,0,0
-280,-405,0,0,0,0,0,0,0,0,0,-1,944,1429,0,0
-273,-405,0,0,0,0,0,0,0,0,0,-1,951,1429,0,0
-266,-405,0,0,0,0,0,0,0,0,0,-1,958,1429,0,0
-259,-405,0,0,0,0,0,0,0,0,0,-1,965,1429,0,0
-252,-405,0,0,0,0,0,0,0,0,0,-1,972,1429,0,0
-245,-405,0,0,0,0,0,0,0,0,0,-1,979,1429,0,0
-238,-405,0,0,0,0,0,0,0,0,0,-1,986,1429,0,0
-231,-405,0,0,0,0,0,0,0,0,0,-1,993,1429,0,0
-224,-405,0,0,0,0,0,0,0,0,0,-1,1000,1429,0,0
-217,-405,0,0,0,0,0,0,0,0,0,-1,1007,1429,0,0
-210,-405,0,0,0,0,0,0,0,0,0,-1,1014,1429,0,0
-203,-405,0,0,0,0,0,0,0,0,0,-1,1021,1429,0,0
-196,-405,0,0,0,0,0,0,0,0,0,-1,1028,1429,0,0
-189,-405,0,0,0,0,0,0,0,0,0,-1,1035,1429,0,0
-182,-405,0,0,0,0,0,0,0,0,0,-1,1042,1429,0,0
-175,-405,0,0,0,0,0,0,0,0,0,-1,1049,1429,0,0
-168,-405,0,0,0,0,0,0,0,0,0,-1,1056,1429,0,0
-161,-405,0,0,0,0,0,0,0,0,0,-1,1063,1429,0,0
-154,-405,0,0,0,0,0,0,0,0,0,-1,1070,1429,0,0
-147,-405,0,0,0,0,0,0,0,0,0,-1,1077,1429,0,0
-140,-405,0,0,0,0,0,0,0,0,0,-1,1084,1429,0,0
-133,-405,0,0,0,0,0,0,0,0,0,-1,1091,1429,0,0
-126,-405,0,0,0,0,0,0,0,0,0,-1,1098,1429,0,0
-119,-405,0,0,0,0,0,0,0,0,0,-1,1105,1429,0,0
-112,-405,0,0,0,0,0,0,0,0,0,-1,1112,1429,0,0
-105,-405,0,0,0,0,0,0,0,0,0,-1,1119,1429,0,0
-98,-405,0,0,0,0,0,0,0,0,0,-1,1126,1429,0,0
-91,-405,0,0,0,0,0,0,0,0,0,-1,1133,1429,0,0
-84,-405,0,0,0,0,0,0,0,0,0,-1,1140,1429,0,0
-77,-405,0,0,0,0,0,0,0,0,0,-1,1147,1429,0,0
-70,-405,0,0,0,0,0,0,0,0,0,-1,1154,1429,0,0
-63,-405,0,0,0,0,0,0,0,0,0,-1,1161,1429,0,0
-56,-405,0,0,0,0,0,0,0,0,0,-1,1168,1429,0,0
-49,-405,0,0,0,0,0,0,0,0,0,-1,1175,1429,0,0
-42,-405,0,0,0,0,0,0,0,0,0,-1,1182,1429,0,0
-35,-405,0,0,0,0,0,0,0,0,0,-1,1189,1429,0,0
-28,-405,0,0,0,0,0,0,0,0,0,-1,1196,1429,0,0
-21,-405,0,0,0,0,0,0,0,0,0,-1,1203,1429,0,0
-14,-405,0,0,0,0,0,0,0,0,0,-1,1210,1429,0,0
-7,-405,0,0,0,0,0,0,0,0,0,-1,1217,1429,0,0
0,-405,0,0,0,0,0,0,0,0,0,-1,1224,1429,0,0
7,-405,0,0,0,0,0,0,0,0,0,-1,1231,1429,0,0
14,-405,0,0,0,0,0,0,0,0,0,-1,1238,1429,0,0
21,-405,0,0,0,0,0,0,0,0,0,-1,1245,1429,0,0
28,-405,0,0,0,0,0,0,0,0,0,-1,1252,1429,0,0
35,-405,0,0,0,0,0,0,0,0,0,-1,1259,1429,0,0
42,-405,0,0,0,0,0,0,0,0,0,-1,1266,1429,0,0
49,-405,0,0,0,0,0,0,0,0,0,-1,1273,1429,0,0
56,-405,0,0,0,0,0,0,0,0,0,-1,1280,1429,0,0
63,-405,0,0,0,0,0,0,0,0,0,-1,1287,1429,0,0
70,-405,0,0,0,0,0,0,0,0,0,-1,1294,1429,0,0
77,-405,0,0,0,0,0,0,0,0,0,-1,1301,1429,0,0
84,-405,0,0,0,0,0,0,0,0,0,-1,1308,1429,0,0
91,-405,0,0,0,0,0,0,0,0,0,-1,1315,1429,0,0
98,-405,0,0,0,0,0,0,0,0,0,-1,1322,1429,0,0
105,-405,0,0,0,0,0,0,0,0,0,-1,1329,1429,0,0
112,-405,0,0,0,0,0,0,0,0,0,-1,1336,1429,0,0
119,-405,0,0,0,0,0,0,0,0,0,-1,1343,1429,0,0
126,-405,0,0,0,0,0,0,0,0,0,-1,1350,1429,0,0
133,-405,0,0,0,0,0,0,0,0,0,-1,1357,1429,0,0
140,-405,0,0,0,0,0,0,0,0,0,-1,1364,1429,0,0
147,-405,0,0,0,0,0,0,0,0,0,-1,1371,1429,0,0
154,-405,0,0,0,0,0,0,0,0,0,-1,1378,1429,0,0
161,-405,0,0,0,0,0,0,0,0,0,-1,1385,1429,0,0
168,-405,0,0,0,0,0,0,0,0,0,-1,1392,1429,0,0
175,-405,0,0,0,0,0,0,0,0,0,-1,1399,1429,0,0
182,-405,0,0,0,0,0,0,0,0,0,-1,1406,1429,0,0
189,-405,0,0,0,0,0,0,0,0,0,-1,1413,1429,0,0
196,-405,0,0,0,0,0,0,0,0,0,-1,1420,1429,0,0
203,-405,0,0,0,0,0,0,0,0,0,-1,1427,1429,0,0
210,-405,0,0,0,0,0,0,0,0,0,-1,1434,1429,0,0
217,-405,0,0,0,0,0,0,0,0,0,-1,1441,1429,0,0
224,-405,0,0,0,0,0,0,0,0,0,-1,1448,1429,0,0
231,-405,0,0,0,0,0,0,0,0,0,-1,1455,1429,0,0
238,-405,0,0,0,0,0,0,0,0,0,-1,1462,1429,0,0
245,-405,0,0,0,0,0,0,0,0,0,-1,1469,1429,0,0
252,-405,0,0,0,0,0,0,0,0,0,-1,1476,1429,0,0
259,-405,0,0,0,0,0,0,0,0,0,-1,1483,1429,0,0
266,-405,0,0,0,0,0,0,0,0,0,-1,1490,1429,0,0
273,-405,0,0,0,0,0,0,0,0,0,-1,1497,1429,0,0
280,-405,0,0,0,0,0,0,0,0,0,-1,1504,1429,0,0
287,-405,0,0,0,0,0,0,0,0,0,-1,1511,1429,0,0
294,-405,0,0,0,0,0,0,0,0,0,-1,1518,1429,0,0
301,-405,0,0,0,0,0,0,0,0,0,-1,1525,1429,0,0
308,-405,0,0,0,0,0,0,0,0,0,-1,1532,1429,0,0
315,-405,0,0,0,0,0,0,0,0,0,-1,1539,1429,0,0
322,-405,0,0,0,0,0,0,0,0,0,-1,1546,1429,0,0
329,-405,0,0,0,0,0,0,0,0,0,-1,1553,1429,0,0
336,-405,0,0,0,0,0,0,0,0,0,-1,1560,1429,0,0
343,-405,0,0,0,0,0,0,0,0,0,-1,1567,1429,0,0
350,-405,0,0,0,0,0,0,0,0,0,-1,1574,1429,0,0
357,-405,0,0,0,0,0,0,0,0,0,-1,1581,1429,0,0
364,-405,0,0,0,0,0,0,0,0,0,-1,1588,1429,0,0
371,-405,0,0,0,0,0,0,0,0,0,-1,1595,1429,0,0
378,-405,0,0,0,0,0,0,0,0,0,-1,1602,1429,0,0
385,-405,0,0,0,0,0,0,0,0,0,-1,1609,1429,0,0
392,-405,0,0,0,0,0,0,0,0,0,-1,1616,1429,0,0
399,-405,0,0,0,0,0,0,0,0,0,-1,1623,1429,0,0
406,-405,0,0,0,0,0,0,0,0,0,-1,1630,1429,0,0
413,-405,0,0,0,0,0,0,0,0,0,-1,1637,1429,0,0
420,-405,0,0,0,0,0,0,0,0,0,-1,1644,1429,0,0
427,-405,0,0,0,0,0,0,0,0,0,-1,1651,1429,0,0
434,-405,0,0,0,0,0,0,0,0,0,-1,1658,1429,0,0
441,-405,0,0,0,0,0,0,0,0,0,-1,1665,1429,0,0
448,-405,0,0,0,0,0,0,0,0,0,-1,1672,1429,0,0
455,-405,0,0,0,0,0,0,0,0,0,-1,1679,1429,0,0
462,-405,0,0,0,0,0,0,0,0,0,-1,1686,1429,0,0
469,-405,0,0,0,0,0,0,0,0,0,-1,1693,1429,0,0
476,-405,0,0,0,0,0,0,0,0,0,-1,1700,1429,0,0
483,-405,0,0,0,0,0,0,0,0,0,-1,1707,1429,0,0
490,-405,0,0,0,0,0,0,0,0,0,-1,1714,1429,0,0
497,-405,0,0,0,0,0,0,0,0,0,-1,1721,1429,0,0
504,-405,0,0,0,0,0,0,0,0,0,-1,1728,1429,0,0
511,-405,0,0,0,0,0,0,0,0,0,-1,1735,1429,0,0
518,-405,0,0,0,0,0,0,0,0,0,-1,1742,1429,0,0
525,-405,31.1563,-1.40942,0,0,0,0,0,0,0,-1,1749,1429,31.1563,1.40937
532,-405,28.156,4.8783,0,0,0,0,0,0,0,-1,1756,1429,28.1561,-4.87833
539,-405,26.5133,3.02454,0,0,0,0,0,0,0,-1,1763,1429,26.5133,-3.0246
546,-405,29.5735,6.53052,0,0,0,0,0,0,0,-1,1770,1429,29.5735,-6.53049
553,-405,28.2911,6.70654,0,0,0,0,0,0,0,-1,1777,1429,28.2912,-6.70656
560,-405,26.9299,7.08472,0,0,0,0,0,0,0,-1,1784,1429,26.9299,-7.08469
567,-405,25.804,7.14661,0,0,0,0,0,0,0,-1,1791,1429,25.8039,-7.14665
574,-405,25.1151,8.07971,0,0,0,0,0,0,0,-1,1798,1429,25.1151,-8.07965
581,-405,23.5055,8.505,0,0,0,0,0,0,0,-1,1805,1429,23.5054,-8.50501
588,-405,21.7491,8.98254,0,0,0,0,0,0,0,-1,1812,1429,21.7491,-8.98254
595,-405,21.6327,10.7795,0,0,0,0,0,0,0,-1,1819,1429,21.6327,-10.7796
602,-405,21.6461,13.9199,0,0,0,0,0,0,0,-1,1826,1429,21.6461,-13.92
609,-405,37.801,24.062,0,0,0,0,0,0,0,-1,1833,1429,37.8011,-24.062
616,-405,38.6672,23.8378,0,0,0,0,0,0,0,-1,1840,1429,38.6673,-23.8378
623,-405,38.6299,22.989,0.000395278,0.000131178,1.04323e-05,0.00039569,0.000130766,0.0394194,0.000232787,0.0159723,1847,1429,38.6299,-22.9891
630,-405,38.5961,22.1488,0.000273985,6.15447e-05,8.9328e-05,0.000306553,2.89764e-05,0.349614,0.000195427,0.0114928,1854,1429,38.596,-22.1488
637,-405,38.5581,21.3566,0.000540761,7.95273e-05,-0.000104849,0.000563477,5.68116e-05,-0.213355,0.000358219,0.0119116,1861,1429,38.5581,-21.3565
644,-405,38.4962,20.6149,0.00111955,0.000266546,-0.000487645,0.00134089,4.52035e-05,-0.426093,0.000879247,0.0296994,1868,1429,38.4962,-20.6149
651,-405,38.3917,19.8354,0.00199467,0.000598614,-0.00104446,0.00255288,4.04037e-05,-0.490826,0.00168862,0.0360448,1875,1429,38.3918,-19.8355
658,-405,38.4044,19.0396,0.00317489,0.00102762,-0.00175935,0.00416233,4.01856e-05,-0.511438,0.00276159,0.0273632,1882,1429,38.4044,-19.0396
665,-405,38.3715,18.1794,0.00468247,0.00149224,-0.00260286,0.00614011,3.46024e-05,-0.510498,0.00408192,0.0201994,1889,1429,38.3715,-18.1794
672,-405,38.3536,17.3621,0.00653512,0.00193694,-0.00355026,0.00846571,6.35115e-06,-0.498061,0.00564169,0.0237364,1896,1429,38.3536,-17.3621
679,-405,38.5596,16.645,0.00884549,0.00233826,-0.00464421,0.0112624,-7.86409e-05,-0.479842,0.00753461,0.0382086,1903,1429,38.5596,-16.645
686,-405,38.3781,15.6995,0,0,0,0,0,0,0,-1,1910,1429,38.378,-15.6995
693,-405,37.6653,14.9521,0,0,0,0,0,0,0,-1,1917,1429,37.6653,-14.9521
700,-405,9.1958,4.02026,0,0,0,0,0,0,0,-1,1924,1429,9.19579,-4.02025
707,-405,7.40308,3.83191,0,0,0,0,0,0,0,-1,1931,1429,7.40311,-3.83194
714,-405,7.33252,3.47388,0,0,0,0,0,0,0,-1,1938,1429,7.33255,-3.47383
721,-405,9.23523,0.993896,0,0,0,0,0,0,0,-1,1945,1429,9.23523,-0.993884
728,-405,0,0,0,0,0,0,0,0,0,-1,1952,1429,0,0
735,-405,0,0,0,0,0,0,0,0,0,-1,1959,1429,0,0
742,-405,0,0,0,0,0,0,0,0,0,-1,1966,1429,0,0
749,-405,0,0,0,0,0,0,0,0,0,-1,1973,1429,0,0
756,-405,0,0,0,0,0,0,0,0,0,-1,1980,1429,0,0
763,-405,0,0,0,0,0,0,0,0,0,-1,1987,1429,0,0
770,-405,0,0,0,0,0,0,0,0,0,-1,1994,1429,0,0
777,-405,0,0,0,0,0,0,0,0,0,-1,2001,1429,0,0
784,-405,0,0,0,0,0,0,0,0,0,-1,2008,1429,0,0
791,-405,0,0,0,0,0,0,0,0,0,-1,2015,1429,0,0
798,-405,0,0,0,0,0,0,0,0,0,-1,2022,1429,0,0
805,-405,0,0,0,0,0,0,0,0,0,-1,2029,1429,0,0
812,-405,0,0,0,0,0,0,0,0,0,-1,2036,1429,0,0
-700,-412,0,0,0,0,0,0,0,0,0,-1,524,1436,0,0
-693,-412,0,0,0,0,0,0,0,0,0,-1,531,1436,0,0
-686,-412,0,0,0,0,0,0,0,0,0,-1,538,1436,0,0
-679,-412,0,0,0,0,0,0,0,0,0,-1,545,1436,0,0
-672,-412,0,0,0,0,0,0,0,0,0,-1,552,1436,0,0
-665,-412,0,0,0,0,0,0,0,0,0,-1,559,1436,0,0
-658,-412,0,0,0,0,0,0,0,0,0,-1,566,1436,0,0
-651,-412,0,0,0,0,0,0,0,0,0,-1,573,1436,0,0
-644,-412,0,0,0,0,0,0,0,0,0,-1,580,1436,0,0
-637,-412,0,0,0,0,0,0,0,0,0,-1,587,1436,0,0
-630,-412,0,0,0,0,0,0,0,0,0,-1,594,1436,0,0
-623,-412,0,0,0,0,0,0,0,0,0,-1,601,1436,0,0
-616,-412,0,0,0,0,0,0,0,0,0,-1,608,1436,0,0
-609,-412,0,0,0,0,0,0,0,0,0,-1,615,1436,0,0
-602,-412,-3.72766,-3.50012,0,0,0,0,0,0,0,-1,622,1436,-3.72764,3.50017
-595,-412,-10.3706,0.65564,0,0,0,0,0,0,0,-1,629,1436,-10.3706,-0.655672
-588,-412,-8.17957,1.94934,0,0,0,0,0,0,0,-1,636,1436,-8.17956,-1.94939
-581,-412,-6.60065,-0.0554199,0,0,0,0,0,0,0,-1,643,1436,-6.60063,0.0554733
-574,-412,-8.34131,5.25012,0,0,0,0,0,0,0,-1,650,1436,-8.34129,-5.25012
-567,-412,-7.50354,3.65454,0,0,0,0,0,0,0,-1,657,1436,-7.50356,-3.65452
-560,-412,-8.52448,7.39014,0,0,0,0,0,0,0,-1,664,1436,-8.52447,-7.39019
-553,-412,-7.36761,6.54651,0,0,0,0,0,0,0,-1,671,1436,-7.36763,-6.54654
-546,-412,-20.2273,15.9707,0,0,0,0,0,0,0,-1,678,1436,-20.2273,-15.9707
-539,-412,-20.1311,16.8871,0.00576711,0.00430873,0.00428263,0.00938219,0.000693657,0.701073,0.00603687,0.0321728,685,1436,-20.1311,-16.8871
-532,-412,-20.1998,17.8132,0.00433822,0.00316579,0.0032196,0.00702454,0.000479469,0.695346,0.00453167,0.0175432,692,1436,-20.1998,-17.8133
-525,-412,-20.2438,18.6718,0.00338583,0.00246719,0.00249611,0.00546453,0.000388496,0.694409,0.00352067,0.0162105,699,1436,-20.2438,-18.6718
-518,-412,-20.2588,19.5121,0.00268175,0.00190853,0.00192119,0.00425485,0.00033543,0.686107,0.00273163,0.0155192,706,1436,-20.2588,-19.5121
-511,-412,-20.2974,20.3014,0.00215051,0.00145941,0.00145597,0.00330137,0.000308549,0.668887,0.00210561,0.0187464,713,1436,-20.2974,-20.3014
-504,-412,-20.3689,21.1224,0.00176298,0.0011129,0.00107959,0.0025654,0.000310477,0.639178,0.00161674,0.019153,720,1436,-20.3689,-21.1224
-497,-412,-20.4319,22.0116,0.00156065,0.000904729,0.000826763,0.00212213,0.000343254,0.596577,0.00131535,0.0154076,727,1436,-20.4319,-22.0116
-490,-412,-20.4662,22.8417,0.00151579,0.000801108,0.000672798,0.00192025,0.000396642,0.54128,0.00117057,0.0141779,734,1436,-20.4663,-22.8417
-483,-412,-20.4949,23.6279,0.00159674,0.000852954,0.000603647,0.00193385,0.000515838,0.50932,0.0011563,0.0125265,741,1436,-20.4949,-23.6279
-476,-412,-20.4879,24.5295,0,0,0,0,0,0,0,-1,748,1436,-20.4879,-24.5296
-469,-412,-12.7646,18.4785,0,0,0,0,0,0,0,-1,755,1436,-12.7647,-18.4785
-462,-412,-8.94659,13.3385,0,0,0,0,0,0,0,-1,762,1436,-8.94657,-13.3385
-455,-412,-8.25006,11.2572,0,0,0,0,0,0,0,-1,769,1436,-8.25007,-11.2572
-448,-412,-7.38086,8.78186,0,0,0,0,0,0,0,-1,776,1436,-7.38088,-8.78183
-441,-412,-8.79523,9.05286,0,0,0,0,0,0,0,-1,783,1436,-8.79521,-9.0529
-434,-412,-10.6305,8.03577,0,0,0,0,0,0,0,-1,790,1436,-10.6305,-8.0358
-427,-412,-10.0004,5.15271,0,0,0,0,0,0,0,-1,797,1436,-10.0004,-5.15266
-420,-412,-10.4468,4.9043,0,0,0,0,0,0,0,-1,804,1436,-10.4468,-4.90429
-413,-412,-11.5704,4.97766,0,0,0,0,0,0,0,-1,811,1436,-11.5704,-4.97771
-406,-412,-13.1968,5.70093,0,0,0,0,0,0,0,-1,818,1436,-13.1968,-5.70096
-399,-412,-10.5506,0.771973,0,0,0,0,0,0,0,-1,825,1436,-10.5506,-0.771954
-392,-412,0,0,0,0,0,0,0,0,0,-1,832,1436,0,0
-385,-412,0,0,0,0,0,0,0,0,0,-1,839,1436,0,0
-378,-412,0,0,0,0,0,0,0,0,0,-1,846,1436,0,0
-371,-412,0,0,0,0,0,0,0,0,0,-1,853,1436,0,0
-364,-412,0,0,0,0,0,0,0,0,0,-1,860,1436,0,0
-357,-412,0,0,0,0,0,0,0,0,0,-1,867,1436,0,0
-350,-412,0,0,0,0,0,0,0,0,0,-1,874,1436,0,0
-343,-412,0,0,0,0,0,0,0,0,0,-1,881,1436,0,0
-336,-412,0,0,0,0,0,0,0,0,0,-1,888,1436,0,0
-329,-412,0,0,0,0,0,0,0,0,0,-1,895,1436,0,0
-322,-412,0,0,0,0,0,0,0,0,0,-1,902,1436,0,0
-315,-412,0,0,0,0,0,0,0,0,0,-1,909,1436,0,0
-308,-412,0,0,0,0,0,0,0,0,0,-1,916,1436,0,0
-301,-412,0,0,0,0,0,0,0,0,0,-1,923,1436,0,0
-294,-412,0,0,0,0,0,0,0,0,0,-1,930,1436,0,0
-287,-412,0,0,0,0,0,0,0,0,0,-1,937,1436,0,0
-280,-412,0,0,0,0,0,0,0,0,0,-1,944,1436,0,0
-273,-412,0,0,0,0,0,0,0,0,0,-1,951,1436,0,0
-266,-412,0,0,0,0,0,0,0,0,0,-1,958,1436,0,0
-259,-412,0,0,0,0,0,0,0,0,0,-1,965,1436,0,0
-252,-412,0,0,0,0,0,0,0,0,0,-1,972,1436,0,0
-245,-412,0,0,0,0,0,0,0,0,0,-1,979,1436,0,0
-238,-412,0,0,0,0,0,0,0,0,0,-1,986,1436,0,0
-231,-412,0,0,0,0,0,0,0,0,0,-1,993,1436,0,0
-224,-412,0,0,0,0,0,0,0,0,0,-1,1000,1436,0,0
-217,-412,0,0,0,0,0,0,0,0,0,-1,1007,1436,0,0
-210,-412,0,0,0,0,0,0,0,0,0,-1,1014,1436,0,0
-203,-412,0,0,0,0,0,0,0,0,0,-1,1021,1436,0,0
-196,-412,0,0,0,0,0,0,0,0,0,-1,1028,1436,0,0
-189,-412,0,0,0,0,0,0,0,0,0,-1,1035,1436,0,0
-182,-412,0,0,0,0,0,0,0,0,0,-1,1042,1436,0,0
-175,-412,0,0,0,0,0,0,0,0,0,-1,1049,1436,0,0
-168,-412,0,0,0,0,0,0,0,0,0,-1,1056,1436,0,0
-161,-412,0,0,0,0,0,0,0,0,0,-1,1063,1436,0,0
-154,-412,0,0,0,0,0,0,0,0,0,-1,1070,1436,0,0
-147,-412,0,0,0,0,0,0,0,0,0,-1,1077,1436,0,0
-140,-412,0,0,0,0,0,0,0,0,0,-1,1084,1436,0,0
-133,-412,0,0,0,0,0,0,0,0,0,-1,1091,1436,0,0
-126,-412,0,0,0,0,0,0,0,0,0,-1,1098,1436,0,0
-119,-412,0,0,0,0,0,0,0,0,0,-1,1105,1436,0,0
-112,-412,0,0,0,0,0,0,0,0,0,-1,1112,1436,0,0
-105,-412,0,0,0,0,0,0,0,0,0,-1,1119,1436,0,0
-98,-412,0,0,0,0,0,0,0,0,0,-1,1126,1436,0,0
-91,-412,0,0,0,0,0,0,0,0,0,-1,1133,1436,0,0
-84,-412,0,0,0,0,0,0,0,0,0,-1,1140,1436,0,0
-77,-412,0,0,0,0,0,0,0,0,0,-1,1147,1436,0,0
-70,-412,0,0,0,0,0,0,0,0,0,-1,1154,1436,0,0
-63,-412,0,0,0,0,0,0,0,0,0,-1,1161,1436,0,0
-56,-412,0,0,0,0,0,0,0,0,0,-1,1168,1436,0,0
-49,-412,0,0,0,0,0,0,0,0,0,-1,1175,1436,0,0
-42,-412,0,0,0,0,0,0,0,0,0,-1,1182,1436,0,0
-35,-412,0,0,0,0,0,0,0,0,0,-1,1189,1436,0,0
-28,-412,0,0,0,0,0,0,0,0,0,-1,1196,1436,0,0
-21,-412,0,0,0,0,0,0,0,0,0,-1,1203,1436,0,0
-14,-412,0,0,0,0,0,0,0,0,0,-1,1210,1436,0,0
-7,-412,0,0,0,0,0,0,0,0,0,-1,1217,1436,0,0
0,-412,0,0,0,0,0,0,0,0,0,-1,1224,1436,0,0
7,-412,0,0,0,0,0,0,0,0,0,-1,1231,1436,0,0
14,-412,0,0,0,0,0,0,0,0,0,-1,1238,1436,0,0
21,-412,0,0,0,0,0,0,0,0,0,-1,1245,1436,0,0
28,-412,0,0,0,0,0,0,0,0,0,-1,1252,1436,0,0
35,-412,0,0,0,0,0,0,0,0,0,-1,1259,1436,0,0
42,-412,0,0,0,0,0,0,0,0,0,-1,1266,1436,0,0
49,-412,0,0,0,0,0,0,0,0,0,-1,1273,1436,0,0
56,-412,0,0,0,0,0,0,0,0,0,-1,1280,1436,0,0
63,-412,0,0,0,0,0,0,0,0,0,-1,1287,1436,0,0
70,-412,0,0,0,0,0,0,0,0,0,-1,1294,1436,0,0
77,-412,0,0,0,0,0,0,0,0,0,-1,1301,1436,0,0
84,-412,0,0,0,0,0,0,0,0,0,-1,1308,1436,0,0
91,-412,0,0,0,0,0,0,0,0,0,-1,1315,1436,0,0
98,-412,0,0,0,0,0,0,0,0,0,-1,1322,1436,0,0
105,-412,0,0,0,0,0,0,0,0,0,-1,1329,1436,0,0
112,-412,0,0,0,0,0,0,0,0,0,-1,1336,1436,0,0
119,-412,0,0,0,0,0,0,0,0,0,-1,1343,1436,0,0
126,-412,0,0,0,0,0,0,0,0,0,-1,1350,1436,0,0
133,-412,0,0,0,0,0,0,0,0,0,-1,1357,1436,0,0
140,-412,0,0,0,0,0,0,0,0,0,-1,1364,1436,0,0
147,-412,0,0,0,0,0,0,0,0,0,-1,1371,1436,0,0
154,-412,0,0,0,0,0,0,0,0,0,-1,1378,1436,0,0
161,-412,0,0,0,0,0,0,0,0,0,-1,1385,1436,0,0
168,-412,0,0,0,0,0,0,0,0,0,-1,1392,1436,0,0
175,-412,0,0,0,0,0,0,0,0,0,-1,1399,1436,0,0
182,-412,0,0,0,0,0,0,0,0,0,-1,1406,1436,0,0
189,-412,0,0,0,0,0,0,0,0,0,-1,1413,1436,0,0
196,-412,0,0,0,0,0,0,0,0,0,-1,1420,1436,0,0
203,-412,0,0,0,0,0,0,0,0,0,-1,1427,1436,0,0
210,-412,0,0,0,0,0,0,0,0,0,-1,1434,1436,0,0
217,-412,0,0,0,0,0,0,0,0,0,-1,1441,1436,0,0
224,-412,0,0,0,0,0,0,0,0,0,-1,1448,1436,0,0
231,-412,0,0,0,0,0,0,0,0,0,-1,1455,1436,0,0
238,-412,0,0,0,0,0,0,0,0,0,-1,1462,1436,0,0
245,-412,0,0,0,0,0,0,0,0,0,-1,1469,1436,0,0
252,-412,0,0,0,0,0,0,0,0,0,-1,1476,1436,0,0
259,-412,0,0,0,0,0,0,0,0,0,-1,1483,1436,0,0
266,-412,0,0,0,0,0,0,0,0,0,-1,1490,1436,0,0
273,-412,0,0,0,0,0,0,0,0,0,-1,1497,1436,0,0
280,-412,0,0,0,0,0,0,0,0,0,-1,1504,1436,0,0
287,-412,0,0,0,0,0,0,0,0,0,-1,1511,1436,0,0
294,-412,0,0,0,0,0,0,0,0,0,-1,1518,1436,0,0
301,-412,0,0,0,0,0,0,0,0,0,-1,1525,1436,0,0
308,-412,0,0,0,0,0,0,0,0,0,-1,1532,1436,0,0
315,-412,0,0,0,0,0,0,0,0,0,-1,1539,1436,0,0
322,-412,0,0,0,0,0,0,0,0,0,-1,1546,1436,0,0
329,-412,0,0,0,0,0,0,0,0,0,-1,1553,1436,0,0
336,-412,0,0,0,0,0,0,0,0,0,-1,1560,1436,0,0
343,-412,0,0,0,0,0,0,0,0,0,-1,1567,1436,0,0
350,-412,0,0,0,0,0,0,0,0,0,-1,1574,1436,0,0
357,-412,0,0,0,0,0,0,0,0,0,-1,1581,1436,0,0
364,-412,0,0,0,0,0,0,0,0,0,-1,1588,1436,0,0
371,-412,0,0,0,0,0,0,0,0,0,-1,1595,1436,0,0
378,-412,0,0,0,0,0,0,0,0,0,-1,1602,1436,0,0
385,-412,0,0,0,0,0,0,0,0,0,-1,1609,1436,0,0
392,-412,0,0,0,0,0,0,0,0,0,-1,1616,1436,0,0
399,-412,0,0,0,0,0,0,0,0,0,-1,1623,1436,0,0
406,-412,0,0,0,0,0,0,0,0,0,-1,1630,1436,0,0
413,-412,0,0,0,0,0,0,0,0,0,-1,1637,1436,0,0
420,-412,0,0,0,0,0,0,0,0,0,-1,1644,1436,0,0
427,-412,0,0,0,0,0,0,0,0,0,-1,1651,1436,0,0
434,-412,0,0,0,0,0,0,0,0,0,-1,1658,1436,0,0
441,-412,0,0,0,0,0,0,0,0,0,-1,1665,1436,0,0
448,-412,0,0,0,0,0,0,0,0,0,-1,1672,1436,0,0
455,-412,0,0,0,0,0,0,0,0,0,-1,1679,1436,0,0
462,-412,0,0,0,0,0,0,0,0,0,-1,1686,1436,0,0
469,-412,0,0,0,0,0,0,0,0,0,-1,1693,1436,0,0
476,-412,0,0,0,0,0,0,0,0,0,-1,1700,1436,0,0
483,-412,0,0,0,0,0,0,0,0,0,-1,1707,1436,0,0
490,-412,0,0,0,0,0,0,0,0,0,-1,1714,1436,0,0
497,-412,0,0,0,0,0,0,0,0,0,-1,1721,1436,0,0
504,-412,0,0,0,0,0,0,0,0,0,-1,1728,1436,0,0
511,-412,0,0,0,0,0,0,0,0,0,-1,1735,1436,0,0
518,-412,30.1038,-2.43384,0,0,0,0,0,0,0,-1,1742,1436,30.1038,2.43383
525,-412,29.5283,-1.42493,0,0,0,0,0,0,0,-1,1749,1436,29.5283,1.42495
532,-412,28.8533,-0.386597,0,0,0,0,0,0,0,-1,1756,1436,28.8533,0.386632
539,-412,25.8654,2.74683,0,0,0,0,0,0,0,-1,1763,1436,25.8654,-2.74685
546,-412,25.4265,2.4342,0,0,0,0,0,0,0,-1,1770,1436,25.4265,-2.4342
553,-412,26.3595,7.49255,0,0,0,0,0,0,0,-1,1777,1436,26.3595,-7.4925
560,-412,24.9116,7.94324,0,0,0,0,0,0,0,-1,1784,1436,24.9116,-7.94327
567,-412,23.668,7.94531,0,0,0,0,0,0,0,-1,1791,1436,23.6679,-7.94534
574,-412,23.0142,9.17236,0,0,0,0,0,0,0,-1,1798,1436,23.0141,-9.17235
581,-412,22.2615,10.0349,0,0,0,0,0,0,0,-1,1805,1436,22.2615,-10.0349
588,-412,21.6893,10.8069,0,0,0,0,0,0,0,-1,1812,1436,21.6893,-10.8069
595,-412,21.5137,14.3157,0,0,0,0,0,0,0,-1,1819,1436,21.5137,-14.3157
602,-412,37.0725,24.8387,0,0,0,0,0,0,0,-1,1826,1436,37.0725,-24.8388
609,-412,37.9408,24.5641,0,0,0,0,0,0,0,-1,1833,1436,37.9408,-24.5641
616,-412,37.8832,23.8148,0.00120775,0.000896544,-0.000621877,0.0016932,0.000411101,-0.662806,0.00101977,0.0148838,1840,1436,37.8831,-23.8148
623,-412,37.819,23.0236,0.000859394,0.000494429,-0.00033727,0.00106038,0.00029344,-0.537423,0.000632231,0.0097735,1847,1436,37.819,-23.0235
630,-412,37.7954,22.1792,0.000816742,0.000342781,-0.000263328,0.000934023,0.0002255,-0.419006,0.000562781,0.012583,1854,1436,37.7955,-22.1792
637,-412,37.767,21.3722,0.00108458,0.000357702,-0.000424697,0.00128012,0.000162164,-0.431484,0.000804821,0.0153224,1861,1436,37.7669,-21.3721
644,-412,37.7438,20.5923,0.00167738,0.000568468,-0.000822791,0.00211509,0.00013075,-0.488912,0.00136856,0.0161731,1868,1436,37.7438,-20.5923
651,-412,37.656,19.8046,0.00254711,0.000961549,-0.00142031,0.00338092,0.000127745,-0.530849,0.00221259,0.026056,1875,1436,37.6561,-19.8046
658,-412,37.604,19.0494,0.00373692,0.00148949,-0.0022136,0.0050957,0.000130716,-0.550527,0.00335441,0.0186674,1882,1436,37.604,-19.0494
665,-412,37.5815,18.2216,0.00528273,0.00206872,-0.00316137,0.00722209,0.000129361,-0.550255,0.00477219,0.0234377,1889,1436,37.5816,-18.2215
672,-412,37.6189,17.3762,0.00720787,0.00265793,-0.00424192,0.00974636,0.00011944,-0.539263,0.00645813,0.0408085,1896,1436,37.6189,-17.3762
679,-412,37.7025,16.5123,0,0,0,0,0,0,0,-1,1903,1436,37.7025,-16.5124
686,-412,35.3159,15.2073,0,0,0,0,0,0,0,-1,1910,1436,35.3159,-15.2072
693,-412,11.9346,6.02344,0,0,0,0,0,0,0,-1,1917,1436,11.9346,-6.02343
700,-412,8.82764,5.8844,0,0,0,0,0,0,0,-1,1924,1436,8.82761,-5.88444
707,-412,6.59998,1.68994,0,0,0,0,0,0,0,-1,1931,1436,6.60002,-1.68995
714,-412,4.77283,-2.39832,0,0,0,0,0,0,0,-1,1938,1436,4.77288,2.39835
721,-412,0,0,0,0,0,0,0,0,0,-1,1945,1436,0,0
728,-412,0,0,0,0,0,0,0,0,0,-1,1952,1436,0,0
735,-412,0,0,0,0,0,0,0,0,0,-1,1959,1436,0,0
742,-412,0,0,0,0,0,0,0,0,0,-1,1966,1436,0,0
749,-412,0,0,0,0,0,0,0,0,0,-1,1973,1436,0,0
756,-412,0,0,0,0,0,0,0,0,0,-1,1980,1436,0,0
763,-412,0,0,0,0,0,0,0,0,0,-1,1987,1436,0,0
770,-412,0,0,0,0,0,0,0,0,0,-1,1994,1436,0,0
777,-412,0,0,0,0,0,0,0,0,0,-1,2001,1436,0,0
784,-412,0,0,0,0,0,0,0,0,0,-1,2008,1436,0,0
791,-412,0,0,0,0,0,0,0,0,0,-1,2015,1436,0,0
798,-412,0,0,0,0,0,0,0,0,0,-1,2022,1436,0,0
805,-412,0,0,0,0,0,0,0,0,0,-1,2029,1436,0,0
812,-412,0,0,0,0,0,0,0,0,0,-1,2036,1436,0,0
-700,-419,0,0,0,0,0,0,0,0,0,-1,524,1443,0,0
-693,-419,0,0,0,0,0,0,0,0,0,-1,531,1443,0,0
-686,-419,0,0,0,0,0,0,0,0,0,-1,538,1443,0,0
-679,-419,0,0,0,0,0,0,0,0,0,-1,545,1443,0,0
-672,-419,0,0,0,0,0,0,0,0,0,-1,552,1443,0,0
-665,-419,0,0,0,0,0,0,0,0,0,-1,559,1443,0,0
-658,-419,0,0,0,0,0,0,0,0,0,-1,566,1443,0,0
-651,-419,0,0,0,0,0,0,0,0,0,-1,573,1443,0,0
-644,-419,0,0,0,0,0,0,0,0,0,-1,580,1443,0,0
-637,-419,0,0,0,0,0,0,0,0,0,-1,587,1443,0,0
-630,-419,0,0,0,0,0,0,0,0,0,-1,594,1443,0,0
-623,-419,0,0,0,0,0,0,0,0,0,-1,601,1443,0,0
-616,-419,0,0,0,0,0,0,0,0,0,-1,608,1443,0,0
-609,-419,0,0,0,0,0,0,0,0,0,-1,615,1443,0,0
-602,-419,0,0,0,0,0,0,0,0,0,-1,622,1443,0,0
-595,-419,-11.4904,-0.622681,0,0,0,0,0,0,0,-1,629,1443,-11.4903,0.622714
-588,-419,-9.09369,0.742432,0,0,0,0,0,0,0,-1,636,1443,-9.09366,-0.742482
-581,-419,-6.39172,2.14673,0,0,0,0,0,0,0,-1,643,1443,-6.39175,-2.14668
-574,-419,-4.09772,3.54773,0,0,0,0,0,0,0,-1,650,1443,-4.09772,-3.54767
-567,-419,-6.14038,3.22498,0,0,0,0,0,0,0,-1,657,1443,-6.14037,-3.22497
-560,-419,-4.52814,5.22253,0,0,0,0,0,0,0,-1,664,1443,-4.52816,-5.22251
-553,-419,-5.08331,6.11829,0,0,0,0,0,0,0,-1,671,1443,-5.08331,-6.1183
-546,-419,-10.3732,9.23279,0,0,0,0,0,0,0,-1,678,1443,-10.3732,-9.23275
-539,-419,-19.3171,16.816,0,0,0,0,0,0,0,-1,685,1443,-19.3171,-16.816
-532,-419,-19.3827,17.8557,0.0048912,0.00410359,0.0040575,0.00857396,0.00042083,0.737022,0.00558099,0.0325243,692,1443,-19.3827,-17.8557
-525,-419,-19.406,18.7411,0.00381597,0.00325006,0.00320686,0.00675234,0.000313697,0.741395,0.00440072,0.0129967,699,1443,-19.406,-18.7411
-518,-419,-19.439,19.5499,0.00301355,0.00254489,0.00250799,0.00529814,0.000260302,0.738817,0.0034486,0.0164582,706,1443,-19.439,-19.5499
-511,-419,-19.4852,20.3678,0.00237871,0.00195006,0.00191184,0.00408821,0.000240566,0.72958,0.00264893,0.0188938,713,1443,-19.4852,-20.3677
-504,-419,-19.5533,21.1947,0.0018675,0.0014539,0.00139172,0.0030677,0.000253697,0.711641,0.00196603,0.0187474,720,1443,-19.5533,-21.1947
-497,-419,-19.5849,22.0262,0.00152223,0.00108514,0.000976481,0.00230432,0.000303048,0.675309,0.00144583,0.0133316,727,1443,-19.5849,-22.0262
-490,-419,-19.6123,22.8503,0.00130601,0.000812203,0.000653599,0.00175779,0.000360428,0.604803,0.00107211,0.0122124,734,1443,-19.6123,-22.8504
-483,-419,-19.6642,23.6653,0.00125155,0.000716439,0.000456384,0.00151303,0.000454965,0.520274,0.000896379,0.0112265,741,1443,-19.6642,-23.6653
-476,-419,-19.6783,24.4966,0.00126004,0.000651483,0.000348031,0.00141805,0.000493473,0.426184,0.00083123,0.0233611,748,1443,-19.6784,-24.4965
-469,-419,-19.6749,25.3329,0,0,0,0,0,0,0,-1,755,1443,-19.6749,-25.3329
-462,-419,-11.5347,18.1563,0,0,0,0,0,0,0,-1,762,1443,-11.5347,-18.1562
-455,-419,-7.35645,11.9451,0,0,0,0,0,0,0,-1,769,1443,-7.35646,-11.9451
-448,-419,-7.49109,9.92444,0,0,0,0,0,0,0,-1,776,1443,-7.49109,-9.92442
-441,-419,-7.65527,8.75574,0,0,0,0,0,0,0,-1,783,1443,-7.65525,-8.75568
-434,-419,-11.3724,12.3643,0,0,0,0,0,0,0,-1,790,1443,-11.3724,-12.3643
-427,-419,-8.23193,7.89404,0,0,0,0,0,0,0,-1,797,1443,-8.23193,-7.89404
-420,-419,-8.74091,6.36597,0,0,0,0,0,0,0,-1,804,1443,-8.74089,-6.366
-413,-419,-9.88391,6.53955,0,0,0,0,0,0,0,-1,811,1443,-9.8839,-6.53955
-406,-419,-10.3372,2.75195,0,0,0,0,0,0,0,-1,818,1443,-10.3372,-2.75201
-399,-419,-11.5999,1.40002,0,0,0,0,0,0,0,-1,825,1443,-11.5999,-1.39998
-392,-419,0,0,0,0,0,0,0,0,0,-1,832,1443,0,0
-385,-419,0,0,0,0,0,0,0,0,0,-1,839,1443,0,0
-378,-419,0,0,0,0,0,0,0,0,0,-1,846,1443,0,0
-371,-419,0,0,0,0,0,0,0,0,0,-1,853,1443,0,0
-364,-419,0,0,0,0,0,0,0,0,0,-1,860,1443,0,0
-357,-419,0,0,0,0,0,0,0,0,0,-1,867,1443,0,0
-350,-419,0,0,0,0,0,0,0,0,0,-1,874,1443,0,0
-343,-419,0,0,0,0,0,0,0,0,0,-1,881,1443,0,0
-336,-419,0,0,0,0,0,0,0,0,0,-1,888,1443,0,0
-329,-419,0,0,0,0,0,0,0,0,0,-1,895,1443,0,0
-322,-419,0,0,0,0,0,0,0,0,0,-1,902,1443,0,0
-315,-419,0,0,0,0,0,0,0,0,0,-1,909,1443,0,0
-308,-419,0,0,0,0,0,0,0,0,0,-1,916,1443,0,0
-301,-419,0,0,0,0,0,0,0,0,0,-1,923,1443,0,0
-294,-419,0,0,0,0,0,0,0,0,0,-1,930,1443,0,0
-287,-419,0,0,0,0,0,0,0,0,0,-1,937,1443,0,0
-280,-419,0,0,0,0,0,0,0,0,0,-1,944,1443,0,0
-273,-419,0,0,0,0,0,0,0,0,0,-1,951,1443,0,0
-266,-419,0,0,0,0,0,0,0,0,0,-1,958,1443,0,0
-259,-419,0,0,0,0,0,0,0,0,0,-1,965,1443,0,0
-252,-419,0,0,0,0,0,0,0,0,0,-1,972,1443,0,0
-245,-419,0,0,0,0,0,0,0,0,0,-1,979,1443,0,0
-238,-419,0,0,0,0,0,0,0,0,0,-1,986,1443,0,0
-231,-419,0,0,0,0,0,0,0,0,0,-1,993,1443,0,0
-224,-419,0,0,0,0,0,0,0,0,0,-1,1000,1443,0,0
-217,-419,0,0,0,0,0,0,0,0,0,-1,1007,1443,0,0
-210,-419,0,0,0,0,0,0,0,0,0,-1,1014,1443,0,0
-203,-419,0,0,0,0,0,0,0,0,0,-1,1021,1443,0,0
-196,-419,0,0,0,0,0,0,0,0,0,-1,1028,1443,0,0
-189,-419,0,0,0,0,0,0,0,0,0,-1,1035,1443,0,0
-182,-419,0,0,0,0,0,0,0,0,0,-1,1042,1443,0,0
-175,-419,0,0,0,0,0,0,0,0,0,-1,1049,1443,0,0
-168,-419,0,0,0,0,0,0,0,0,0,-1,1056,1443,0,0
-161,-419,0,0,0,0,0,0,0,0,0,-1,1063,1443,0,0
-154,-419,0,0,0,0,0,0,0,0,0,-1,1070,1443,0,0
-147,-419,0,0,0,0,0,0,0,0,0,-1,1077,1443,0,0
-140,-419,0,0,0,0,0,0,0,0,0,-1,1084,1443,0,0
-133,-419,0,0,0,0,0,0,0,0,0,-1,1091,1443,0,0
-126,-419,0,0,0,0,0,0,0,0,0,-1,1098,1443,0,0
-119,-419,0,0,0,0,0,0,0,0,0,-1,1105,1443,0,0
-112,-419,0,0,0,0,0,0,0,0,0,-1,1112,1443,0,0
-105,-419,0,0,0,0,0,0,0,0,0,-1,1119,1443,0,0
-98,-419,0,0,0,0,0,0,0,0,0,-1,1126,1443,0,0
-91,-419,0,0,0,0,0,0,0,0,0,-1,1133,1443,0,0
-84,-419,0,0,0,0,0,0,0,0,0,-1,1140,1443,0,0
-77,-419,0,0,0,0,0,0,0,0,0,-1,1147,1443,0,0
-70,-419,0,0,0,0,0,0,0,0,0,-1,1154,1443,0,0
-63,-419,0,0,0,0,0,0,0,0,0,-1,1161,1443,0,0
-56,-419,0,0,0,0,0,0,0,0,0,-1,1168,1443,0,0
-49,-419,0,0,0,0,0,0,0,0,0,-1,1175,1443,0,0
-42,-419,0,0,0,0,0,0,0,0,0,-1,1182,1443,0,0
-35,-419,0,0,0,0,0,0,0,0,0,-1,1189,1443,0,0
-28,-419,0,0,0,0,0,0,0,0,0,-1,1196,1443,0,0
-21,-419,0,0,0,0,0,0,0,0,0,-1,1203,1443,0,0
-14,-419,0,0,0,0,0,0,0,0,0,-1,1210,1443,0,0
-7,-419,0,0,0,0,0,0,0,0,0,-1,1217,1443,0,0
0,-419,0,0,0,0,0,0,0,0,0,-1,1224,1443,0,0
7,-419,0,0,0,0,0,0,0,0,0,-1,1231,1443,0,0
14,-419,0,0,0,0,0,0,0,0,0,-1,1238,1443,0,0
21,-419,0,0,0,0,0,0,0,0,0,-1,1245,1443,0,0
28,-419,0,0,0,0,0,0,0,0,0,-1,1252,1443,0,0
35,-419,0,0,0,0,0,0,0,0,0,-1,1259,1443,0,0
42,-419,0,0,0,0,0,0,0,0,0,-1,1266,1443,0,0
49,-419,0,0,0,0,0,0,0,0,0,-1,1273,1443,0,0
56,-419,0,0,0,0,0,0,0,0,0,-1,1280,1443,0,0
63,-419,0,0,0,0,0,0,0,0,0,-1,1287,1443,0,0
70,-419,0,0,0,0,0,0,0,0,0,-1,1294,1443,0,0
77,-419,0,0,0,0,0,0,0,0,0,-1,1301,1443,0,0
84,-419,0,0,0,0,0,0,0,0,0,-1,1308,1443,0,0
91,-419,0,0,0,0,0,0,0,0,0,-1,1315,1443,0,0
98,-419,0,0,0,0,0,0,0,0,0,-1,1322,1443,0,0
105,-419,0,0,0,0,0,0,0,0,0,-1,1329,1443,0,0
112,-419,0,0,0,0,0,0,0,0,0,-1,1336,1443,0,0
119,-419,0,0,0,0,0,0,0,0,0,-1,1343,1443,0,0
126,-419,0,0,0,0,0,0,0,0,0,-1,1350,1443,0,0
133,-419,0,0,0,0,0,0,0,0,0,-1,1357,1443,0,0
140,-419,0,0,0,0,0,0,0,0,0,-1,1364,1443,0,0
147,-419,0,0,0,0,0,0,0,0,0,-1,1371,1443,0,0
154,-419,0,0,0,0,0,0,0,0,0,-1,1378,1443,0,0
161,-419,0,0,0,0,0,0,0,0,0,-1,1385,1443,0,0
168,-419,0,0,0,0,0,0,0,0,0,-1,1392,1443,0,0
175,-419,0,0,0,0,0,0,0,0,0,-1,1399,1443,0,0
182,-419,0,0,0,0,0,0,0,0,0,-1,1406,1443,0,0
189,-419,0,0,0,0,0,0,0,0,0,-1,1413,1443,0,0
196,-419,0,0,0,0,0,0,0,0,0,-1,1420,1443,0,0
203,-419,0,0,0,0,0,0,0,0,0,-1,1427,1443,0,0
210,-419,0,0,0,0,0,0,0,0,0,-1,1434,1443,0,0
217,-419,0,0,0,0,0,0,0,0,0,-1,1441,1443,0,0
224,-419,0,0,0,0,0,0,0,0,0,-1,1448,1443,0,0
231,-419,0,0,0,0,0,0,0,0,0,-1,1455,1443,0,0
238,-419,0,0,0,0,0,0,0,0,0,-1,1462,1443,0,0
245,-419,0,0,0,0,0,0,0,0,0,-1,1469,1443,0,0
252,-419,0,0,0,0,0,0,0,0,0,-1,1476,1443,0,0
259,-419,0,0,0,0,0,0,0,0,0,-1,1483,1443,0,0
266,-419,0,0,0,0,0,0,0,0,0,-1,1490,1443,0,0
273,-419,0,0,0,0,0,0,0,0,0,-1,1497,1443,0,0
280,-419,0,0,0,0,0,0,0,0,0,-1,1504,1443,0,0
287,-419,0,0,0,0,0,0,0,0,0,-1,1511,1443,0,0
294,-419,0,0,0,0,0,0,0,0,0,-1,1518,1443,0,0
301,-419,0,0,0,0,0,0,0,0,0,-1,1525,1443,0,0
308,-419,0,0,0,0,0,0,0,0,0,-1,1532,1443,0,0
315,-419,0,0,0,0,0,0,0,0,0,-1,1539,1443,0,0
322,-419,0,0,0,0,0,0,0,0,0,-1,1546,1443,0,0
329,-419,0,0,0,0,0,0,0,0,0,-1,1553,1443,0,0
336,-419,0,0,0,0,0,0,0,0,0,-1,1560,1443,0,0
343,-419,0,0,0,0,0,0,0,0,0,-1,1567,1443,0,0
350,-419,0,0,0,0,0,0,0,0,0,-1,1574,1443,0,0
357,-419,0,0,0,0,0,0,0,0,0,-1,1581,1443,0,0
364,-419,0,0,0,0,0,0,0,0,0,-1,1588,1443,0,0
371,-419,0,0,0,0,0,0,0,0,0,-1,1595,1443,0,0
378,-419,0,0,0,0,0,0,0,0,0,-1,1602,1443,0,0
385,-419,0,0,0,0,0,0,0,0,0,-1,1609,1443,0,0
392,-419,0,0,0,0,0,0,0,0,0,-1,1616,1443,0,0
399,-419,0,0,0,0,0,0,0,0,0,-1,1623,1443,0,0
406,-419,0,0,0,0,0,0,0,0,0,-1,1630,1443,0,0
413,-419,0,0,0,0,0,0,0,0,0,-1,1637,1443,0,0
420,-419,0,0,0,0,0,0,0,0,0,-1,1644,1443,0,0
427,-419,0,0,0,0,0,0,0,0,0,-1,1651,1443,0,0
434,-419,0,0,0,0,0,0,0,0,0,-1,1658,1443,0,0
441,-419,0,0,0,0,0,0,0,0,0,-1,1665,1443,0,0
448,-419,0,0,0,0,0,0,0,0,0,-1,1672,1443,0,0
455,-419,0,0,0,0,0,0,0,0,0,-1,1679,1443,0,0
462,-419,0,0,0,0,0,0,0,0,0,-1,1686,1443,0,0
469,-419,0,0,0,0,0,0,0,0,0,-1,1693,1443,0,0
476,-419,0,0,0,0,0,0,0,0,0,-1,1700,1443,0,0
483,-419,0,0,0,0,0,0,0,0,0,-1,1707,1443,0,0
490,-419,0,0,0,0,0,0,0,0,0,-1,1714,1443,0,0
497,-419,0,0,0,0,0,0,0,0,0,-1,1721,1443,0,0
504,-419,0,0,0,0,0,0,0,0,0,-1,1728,1443,0,0
511,-419,20.3005,3.7959,0,0,0,0,0,0,0,-1,1735,1443,20.3005,-3.79584
518,-419,21.3154,2.03027,0,0,0,0,0,0,0,-1,1742,1443,21.3155,-2.03029
525,-419,28.3439,-1.24475,0,0,0,0,0,0,0,-1,1749,1443,28.3438,1.24471
532,-419,27.5902,-0.272583,0,0,0,0,0,0,0,-1,1756,1443,27.5902,0.272526
539,-419,26.5278,1.60583,0,0,0,0,0,0,0,-1,1763,1443,26.5279,-1.60579
546,-419,24.9509,2.77539,0,0,0,0,0,0,0,-1,1770,1443,24.9509,-2.77537
553,-419,24.118,3.75525,0,0,0,0,0,0,0,-1,1777,1443,24.1181,-3.75526
560,-419,11.8199,8.26343,0,0,0,0,0,0,0,-1,1784,1443,11.82,-8.26341
567,-419,21.5143,8.74719,0,0,0,0,0,0,0,-1,1791,1443,21.5143,-8.74722
574,-419,19.5886,6.46155,0,0,0,0,0,0,0,-1,1798,1443,19.5886,-6.46157
581,-419,20.7926,11.4265,0,0,0,0,0,0,0,-1,1805,1443,20.7926,-11.4265
588,-419,19.4242,12.5363,0,0,0,0,0,0,0,-1,1812,1443,19.4242,-12.5362
595,-419,22.9375,16.0151,0,0,0,0,0,0,0,-1,1819,1443,22.9375,-16.0152
602,-419,37.1619,25.469,0,0,0,0,0,0,0,-1,1826,1443,37.1619,-25.469
609,-419,37.1306,24.6168,0.00216446,0.00197075,-0.001619,0.0036895,0.000445711,-0.755521,0.00232538,0.0289887,1833,1443,37.1306,-24.6169
616,-419,37.0748,23.8649,0.00155086,0.00107044,-0.000952474,0.00229295,0.000328356,-0.661877,0.00143179,0.0124335,1840,1443,37.0748,-23.8649
623,-419,37.0271,23.0728,0.00122609,0.000735461,-0.000627988,0.00165498,0.000306573,-0.599194,0.00101665,0.0100341,1847,1443,37.0271,-23.0727
630,-419,37.0126,22.2371,0.0011923,0.000544895,-0.000513811,0.00147587,0.00026132,-0.504305,0.00090941,0.0126035,1854,1443,37.0126,-22.2371
637,-419,36.9778,21.4514,0.00141569,0.000575869,-0.000615295,0.0017407,0.000250854,-0.485973,0.00108655,0.0145897,1861,1443,36.9778,-21.4514
644,-419,36.9456,20.6641,0.0019632,0.000817764,-0.000983238,0.00252836,0.000252605,-0.521679,0.001608,0.0127619,1868,1443,36.9456,-20.6641
651,-419,36.8824,19.8933,0.00277542,0.00127656,-0.00158137,0.00377596,0.000276031,-0.564118,0.00243052,0.011814,1875,1443,36.8825,-19.8934
658,-419,36.8077,19.0587,0.00394281,0.00191701,-0.00242848,0.00556116,0.000298662,-0.587821,0.003612,0.0138627,1882,1443,36.8078,-19.0587
665,-419,36.8,18.244,0.00549388,0.00262896,-0.00346567,0.00781147,0.000311377,-0.589426,0.00510702,0.0237325,1889,1443,36.8001,-18.244
672,-419,36.8411,17.429,0,0,0,0,0,0,0,-1,1896,1443,36.841,-17.4289
679,-419,35.5436,15.4066,0,0,0,0,0,0,0,-1,1903,1443,35.5436,-15.4067
686,-419,17.4127,8.03076,0,0,0,0,0,0,0,-1,1910,1443,17.4127,-8.03071
693,-419,8.76086,5.60535,0,0,0,0,0,0,0,-1,1917,1443,8.76091,-5.6054
700,-419,11.0498,4.85156,0,0,0,0,0,0,0,-1,1924,1443,11.0498,-4.85153
707,-419,9.5752,1.80042,0,0,0,0,0,0,0,-1,1931,1443,9.57523,-1.80037
714,-419,5.77576,-1.25061,0,0,0,0,0,0,0,-1,1938,1443,5.7757,1.25056
721,-419,0,0,0,0,0,0,0,0,0,-1,1945,1443,0,0
728,-419,0,0,0,0,0,0,0,0,0,-1,1952,1443,0,0
735,-419,0,0,0,0,0,0,0,0,0,-1,1959,1443,0,0
742,-419,0,0,0,0,0,0,0,0,0,-1,1966,1443,0,0
749,-419,0,0,0,0,0,0,0,0,0,-1,1973,1443,0,0
756,-419,0,0,0,0,0,0,0,0,0,-1,1980,1443,0,0
763,-419,0,0,0,0,0,0,0,0,0,-1,1987,1443,0,0
770,-419,0,0,0,0,0,0,0,0,0,-1,1994,1443,0,0
777,-419,0,0,0,0,0,0,0,0,0,-1,2001,1443,0,0
784,-419,0,0,0,0,0,0,0,0,0,-1,2008,1443,0,0
791,-419,0,0,0,0,0,0,0,0,0,-1,2015,1443,0,0
798,-419,0,0,0,0,0,0,0,0,0,-1,2022,1443,0,0
805,-419,0,0,0,0,0,0,0,0,0,-1,2029,1443,0,0
812,-419,0,0,0,0,0,0,0,0,0,-1,2036,1443,0,0
-700,-426,0,0,0,0,0,0,0,0,0,-1,524,1450,0,0
-693,-426,0,0,0,0,0,0,0,0,0,-1,531,1450,0,0
-686,-426,0,0,0,0,0,0,0,0,0,-1,538,1450,0,0
-679,-426,0,0,0,0,0,0,0,0,0,-1,545,1450,0,0
-672,-426,0,0,0,0,0,0,0,0,0,-1,552,1450,0,0
-665,-426,0,0,0,0,0,0,0,0,0,-1,559,1450,0,0
-658,-426,0,0,0,0,0,0,0,0,0,-1,566,1450,0,0
-651,-426,0,0,0,0,0,0,0,0,0,-1,573,1450,0,0
-644,-426,0,0,0,0,0,0,0,0,0,-1,580,1450,0,0
-637,-426,0,0,0,0,0,0,0,0,0,-1,587,1450,0,0
-630,-426,0,0,0,0,0,0,0,0,0,-1,594,1450,0,0
-623,-426,0,0,0,0,0,0,0,0,0,-1,601,1450,0,0
-616,-426,0,0,0,0,0,0,0,0,0,-1,608,1450,0,0
-609,-426,0,0,0,0,0,0,0,0,0,-1,615,1450,0,0
-602,-426,0,0,0,0,0,0,0,0,0,-1,622,1450,0,0
-595,-426,0,0,0,0,0,0,0,0,0,-1,629,1450,0,0
-588,-426,-10.184,-0.554321,0,0,0,0,0,0,0,-1,636,1450,-10.184,0.554321
-581,-426,-7.3349,1.48157,0,0,0,0,0,0,0,-1,643,1450,-7.33491,-1.48152
-574,-426,-5.02856,2.89319,0,0,0,0,0,0,0,-1,650,1450,-5.02858,-2.89319
-567,-426,-3.04797,1.72644,0,0,0,0,0,0,0,-1,657,1450,-3.04797,-1.72639
-560,-426,-5.55682,3.44397,0,0,0,0,0,0,0,-1,664,1450,-5.55684,-3.44399
-553,-426,-4.67017,6.66614,0,0,0,0,0,0,0,-1,671,1450,-4.67015,-6.66619
-546,-426,-7.58752,8.28882,0,0,0,0,0,0,0,-1,678,1450,-7.58752,-8.28878
-539,-426,-10.436,10.7441,0,0,0,0,0,0,0,-1,685,1450,-10.436,-10.7441
-532,-426,-18.6036,17.8076,0,0,0,0,0,0,0,-1,692,1450,-18.6036,-17.8076
-525,-426,-18.6226,18.699,0.00421382,0.00416246,0.00403921,0.00822743,0.000148846,0.782219,0.00543602,0.0254962,699,1450,-18.6226,-18.699
-518,-426,-18.6107,19.6047,0.00337567,0.00328933,0.00321692,0.00654971,0.000115287,0.778689,0.00432856,0.0167177,706,1450,-18.6107,-19.6047
-511,-426,-18.6431,20.4498,0.00268689,0.00254007,0.00249889,0.00511345,0.000113509,0.770714,0.00337177,0.016057,713,1450,-18.643,-20.4499
-504,-426,-18.6868,21.2714,0.00209732,0.0018917,0.00185088,0.00384824,0.000140772,0.757653,0.00251988,0.0154374,720,1450,-18.6867,-21.2714
-497,-426,-18.7266,22.0901,0.00163344,0.00136577,0.00128563,0.00279218,0.000207032,0.733534,0.00179642,0.0124533,727,1450,-18.7266,-22.0901
-490,-426,-18.7788,22.9081,0.00127048,0.000937394,0.000806811,0.00192776,0.000280116,0.683617,0.00120272,0.0125881,734,1450,-18.7788,-22.9081
-483,-426,-18.8415,23.7114,0.00109217,0.000702593,0.000484273,0.00141936,0.0003754,0.594187,0.000849229,0.0131977,741,1450,-18.8415,-23.7114
-476,-426,-18.8761,24.5349,0.00104035,0.000587141,0.000302259,0.00119151,0.000435975,0.463744,0.000696119,0.0106286,748,1450,-18.8761,-24.5349
-469,-426,-18.9274,25.3563,0.00115689,0.000685746,0.00026239,0.00127394,0.000568696,0.419599,0.000736919,0.0148978,755,1450,-18.9274,-25.3564
-462,-426,-18.873,26.2349,0,0,0,0,0,0,0,-1,762,1450,-18.8731,-26.2349
-455,-426,-10.215,17.7007,0,0,0,0,0,0,0,-1,769,1450,-10.215,-17.7007
-448,-426,-6.46545,10.1322,0,0,0,0,0,0,0,-1,776,1450,-6.46543,-10.1322
-441,-426,-10.9547,11.4747,0,0,0,0,0,0,0,-1,783,1450,-10.9546,-11.4748
-434,-426,-10.4998,13.6189,0,0,0,0,0,0,0,-1,790,1450,-10.4997,-13.6189
-427,-426,-9.36627,13.7396,0,0,0,0,0,0,0,-1,797,1450,-9.36628,-13.7396
-420,-426,-5.33765,7.95044,0,0,0,0,0,0,0,-1,804,1450,-5.33766,-7.95041
-413,-426,-10.1148,5.0415,0,0,0,0,0,0,0,-1,811,1450,-10.1148,-5.04152
-406,-426,-11.4199,3.6438,0,0,0,0,0,0,0,-1,818,1450,-11.4198,-3.64382
-399,-426,-12.7595,2.29004,0,0,0,0,0,0,0,-1,825,1450,-12.7595,-2.29003
-392,-426,-12.4147,0.537354,0,0,0,0,0,0,0,-1,832,1450,-12.4147,-0.53731
-385,-426,0,0,0,0,0,0,0,0,0,-1,839,1450,0,0
-378,-426,0,0,0,0,0,0,0,0,0,-1,846,1450,0,0
-371,-426,0,0,0,0,0,0,0,0,0,-1,853,1450,0,0
-364,-426,0,0,0,0,0,0,0,0,0,-1,860,1450,0,0
-357,-426,0,0,0,0,0,0,0,0,0,-1,867,1450,0,0
-350,-426,0,0,0,0,0,0,0,0,0,-1,874,1450,0,0
-343,-426,0,0,0,0,0,0,0,0,0,-1,881,1450,0,0
-336,-426,0,0,0,0,0,0,0,0,0,-1,888,1450,0,0
-329,-426,0,0,0,0,0,0,0,0,0,-1,895,1450,0,0
-322,-426,0,0,0,0,0,0,0,0,0,-1,902,1450,0,0
-315,-426,0,0,0,0,0,0,0,0,0,-1,909,1450,0,0
-308,-426,0,0,0,0,0,0,0,0,0,-1,916,1450,0,0
-301,-426,0,0,0,0,0,0,0,0,0,-1,923,1450,0,0
-294,-426,0,0,0,0,0,0,0,0,0,-1,930,1450,0,0
-287,-426,0,0,0,0,0,0,0,0,0,-1,937,1450,0,0
-280,-426,0,0,0,0,0,0,0,0,0,-1,944,1450,0,0
-273,-426,0,0,0,0,0,0,0,0,0,-1,951,1450,0,0
-266,-426,0,0,0,0,0,0,0,0,0,-1,958,1450,0,0
-259,-426,0,0,0,0,0,0,0,0,0,-1,965,1450,0,0
-252,-426,0,0,0,0,0,0,0,0,0,-1,972,1450,0,0
-245,-426,0,0,0,0,0,0,0,0,0,-1,979,1450,0,0
-238,-426,0,0,0,0,0,0,0,0,0,-1,986,1450,0,0
-231,-426,0,0,0,0,0,0,0,0,0,-1,993,1450,0,0
-224,-426,0,0,0,0,0,0,0,0,0,-1,1000,1450,0,0
-217,-426,0,0,0,0,0,0,0,0,0,-1,1007,1450,0,0
-210,-426,0,0,0,0,0,0,0,0,0,-1,1014,1450,0,0
-203,-426,0,0,0,0,0,0,0,0,0,-1,1021,1450,0,0
-196,-426,0,0,0,0,0,0,0,0,0,-1,1028,1450,0,0
-189,-426,0,0,0,0,0,0,0,0,0,-1,1035,1450,0,0
-182,-426,0,0,0,0,0,0,0,0,0,-1,1042,1450,0,0
-175,-426,0,0,0,0,0,0,0,0,0,-1,1049,1450,0,0
-168,-426,0,0,0,0,0,0,0,0,0,-1,1056,1450,0,0
-161,-426,0,0,0,0,0,0,0,0,0,-1,1063,1450,0,0
-154,-426,0,0,0,0,0,0,0,0,0,-1,1070,1450,0,0
-147,-426,0,0,0,0,0,0,0,0,0,-1,1077,1450,0,0
-140,-426,0,0,0,0,0,0,0,0,0,-1,1084,1450,0,0
-133,-426,0,0,0,0,0,0,0,0,0,-1,1091,1450,0,0
-126,-426,0,0,0,0,0,0,0,0,0,-1,1098,1450,0,0
-119,-426,0,0,0,0,0,0,0,0,0,-1,1105,1450,0,0
-112,-426,0,0,0,0,0,0,0,0,0,-1,1112,1450,0,0
-105,-426,0,0,0,0,0,0,0,0,0,-1,1119,1450,0,0
-98,-426,0,0,0,0,0,0,0,0,0,-1,1126,1450,0,0
-91,-426,0,0,0,0,0,0,0,0,0,-1,1133,1450,0,0
-84,-426,0,0,0,0,0,0,0,0,0,-1,1140,1450,0,0
-77,-426,0,0,0,0,0,0,0,0,0,-1,1147,1450,0,0
-70,-426,0,0,0,0,0,0,0,0,0,-1,1154,1450,0,0
-63,-426,0,0,0,0,0,0,0,0,0,-1,1161,1450,0,0
-56,-426,0,0,0,0,0,0,0,0,0,-1,1168,1450,0,0
-49,-426,0,0,0,0,0,0,0,0,0,-1,1175,1450,0,0
-42,-426,0,0,0,0,0,0,0,0,0,-1,1182,1450,0,0
-35,-426,0,0,0,0,0,0,0,0,0,-1,1189,1450,0,0
-28,-426,0,0,0,0,0,0,0,0,0,-1,1196,1450,0,0
-21,-426,0,0,0,0,0,0,0,0,0,-1,1203,1450,0,0
-14,-426,0,0,0,0,0,0,0,0,0,-1,1210,1450,0,0
-7,-426,0,0,0,0,0,0,0,0,0,-1,1217,1450,0,0
0,-426,0,0,0,0,0,0,0,0,0,-1,1224,1450,0,0
7,-426,0,0,0,0,0,0,0,0,0,-1,1231,1450,0,0
14,-426,0,0,0,0,0,0,0,0,0,-1,1238,1450,0,0
21,-426,0,0,0,0,0,0,0,0,0,-1,1245,1450,0,0
28,-426,0,0,0,0,0,0,0,0,0,-1,1252,1450,0,0
35,-426,0,0,0,0,0,0,0,0,0,-1,1259,1450,0,0
42,-426,0,0,0,0,0,0,0,0,0,-1,1266,1450,0,0
49,-426,0,0,0,0,0,0,0,0,0,-1,1273,1450,0,0
56,-426,0,0,0,0,0,0,0,0,0,-1,1280,1450,0,0
63,-426,0,0,0,0,0,0,0,0,0,-1,1287,1450,0,0
70,-426,0,0,0,0,0,0,0,0,0,-1,1294,1450,0,0
77,-426,0,0,0,0,0,0,0,0,0,-1,1301,1450,0,0
84,-426,0,0,0,0,0,0,0,0,0,-1,1308,1450,0,0
91,-426,0,0,0,0,0,0,0,0,0,-1,1315,1450,0,0
98,-426,0,0,0,0,0,0,0,0,0,-1,1322,1450,0,0
105,-426,0,0,0,0,0,0,0,0,0,-1,1329,1450,0,0
112,-426,0,0,0,0,0,0,0,0,0,-1,1336,1450,0,0
119,-426,0,0,0,0,0,0,0,0,0,-1,1343,1450,0,0
126,-426,0,0,0,0,0,0,0,0,0,-1,1350,1450,0,0
133,-426,0,0,0,0,0,0,0,0,0,-1,1357,1450,0,0
140,-426,0,0,0,0,0,0,0,0,0,-1,1364,1450,0,0
147,-426,0,0,0,0,0,0,0,0,0,-1,1371,1450,0,0
154,-426,0,0,0,0,0,0,0,0,0,-1,1378,1450,0,0
161,-426,0,0,0,0,0,0,0,0,0,-1,1385,1450,0,0
168,-426,0,0,0,0,0,0,0,0,0,-1,1392,1450,0,0
175,-426,0,0,0,0,0,0,0,0,0,-1,1399,1450,0,0
182,-426,0,0,0,0,0,0,0,0,0,-1,1406,1450,0,0
189,-426,0,0,0,0,0,0,0,0,0,-1,1413,1450,0,0
196,-426,0,0,0,0,0,0,0,0,0,-1,1420,1450,0,0
203,-426,0,0,0,0,0,0,0,0,0,-1,1427,1450,0,0
210,-426,0,0,0,0,0,0,0,0,0,-1,1434,1450,0,0
217,-426,0,0,0,0,0,0,0,0,0,-1,1441,1450,0,0
224,-426,0,0,0,0,0,0,0,0,0,-1,1448,1450,0,0
231,-426,0,0,0,0,0,0,0,0,0,-1,1455,1450,0,0
238,-426,0,0,0,0,0,0,0,0,0,-1,1462,1450,0,0
245,-426,0,0,0,0,0,0,0,0,0,-1,1469,1450,0,0
252,-426,0,0,0,0,0,0,0,0,0,-1,1476,1450,0,0
259,-426,0,0,0,0,0,0,0,0,0,-1,1483,1450,0,0
266,-426,0,0,0,0,0,0,0,0,0,-1,1490,1450,0,0
273,-426,0,0,0,0,0,0,0,0,0,-1,1497,1450,0,0
280,-426,0,0,0,0,0,0,0,0,0,-1,1504,1450,0,0
287,-426,0,0,0,0,0,0,0,0,0,-1,1511,1450,0,0
294,-426,0,0,0,0,0,0,0,0,0,-1,1518,1450,0,0
301,-426,0,0,0,0,0,0,0,0,0,-1,1525,1450,0,0
308,-426,0,0,0,0,0,0,0,0,0,-1,1532,1450,0,0
315,-426,0,0,0,0,0,0,0,0,0,-1,1539,1450,0,0
322,-426,0,0,0,0,0,0,0,0,0,-1,1546,1450,0,0
329,-426,0,0,0,0,0,0,0,0,0,-1,1553,1450,0,0
336,-426,0,0,0,0,0,0,0,0,0,-1,1560,1450,0,0
343,-426,0,0,0,0,0,0,0,0,0,-1,1567,1450,0,0
350,-426,0,0,0,0,0,0,0,0,0,-1,1574,1450,0,0
357,-426,0,0,0,0,0,0,0,0,0,-1,1581,1450,0,0
364,-426,0,0,0,0,0,0,0,0,0,-1,1588,1450,0,0
371,-426,0,0,0,0,0,0,0,0,0,-1,1595,1450,0,0
378,-426,0,0,0,0,0,0,0,0,0,-1,1602,1450,0,0
385,-426,0,0,0,0,0,0,0,0,0,-1,1609,1450,0,0
392,-426,0,0,0,0,0,0,0,0,0,-1,1616,1450,0,0
399,-426,0,0,0,0,0,0,0,0,0,-1,1623,1450,0,0
406,-426,0,0,0,0,0,0,0,0,0,-1,1630,1450,0,0
413,-426,0,0,0,0,0,0,0,0,0,-1,1637,1450,0,0
420,-426,0,0,0,0,0,0,0,0,0,-1,1644,1450,0,0
427,-426,0,0,0,0,0,0,0,0,0,-1,1651,1450,0,0
434,-426,0,0,0,0,0,0,0,0,0,-1,1658,1450,0,0
441,-426,0,0,0,0,0,0,0,0,0,-1,1665,1450,0,0
448,-426,0,0,0,0,0,0,0,0,0,-1,1672,1450,0,0
455,-426,0,0,0,0,0,0,0,0,0,-1,1679,1450,0,0
462,-426,0,0,0,0,0,0,0,0,0,-1,1686,1450,0,0
469,-426,0,0,0,0,0,0,0,0,0,-1,1693,1450,0,0
476,-426,0,0,0,0,0,0,0,0,0,-1,1700,1450,0,0
483,-426,0,0,0,0,0,0,0,0,0,-1,1707,1450,0,0
490,-426,0,0,0,0,0,0,0,0,0,-1,1714,1450,0,0
497,-426,0,0,0,0,0,0,0,0,0,-1,1721,1450,0,0
504,-426,20.6873,3.38367,0,0,0,0,0,0,0,-1,1728,1450,20.6873,-3.38361
511,-426,19.6676,3.53748,0,0,0,0,0,0,0,-1,1735,1450,19.6676,-3.53749
518,-426,18.6853,3.32288,0,0,0,0,0,0,0,-1,1742,1450,18.6853,-3.3229
525,-426,18.9552,2.71033,0,0,0,0,0,0,0,-1,1749,1450,18.9552,-2.71034
532,-426,19.4333,2.70764,0,0,0,0,0,0,0,-1,1756,1450,19.4334,-2.70764
539,-426,25.1482,2.56287,0,0,0,0,0,0,0,-1,1763,1450,25.1482,-2.56286
546,-426,24.1136,3.75659,0,0,0,0,0,0,0,-1,1770,1450,24.1136,-3.7566
553,-426,23.0791,4.95032,0,0,0,0,0,0,0,-1,1777,1450,23.0791,-4.95034
560,-426,12.9688,11.8289,0,0,0,0,0,0,0,-1,1784,1450,12.9688,-11.8288
567,-426,13.6388,11.5623,0,0,0,0,0,0,0,-1,1791,1450,13.6388,-11.5623
574,-426,14.3943,11.0286,0,0,0,0,0,0,0,-1,1798,1450,14.3942,-11.0285
581,-426,16.3879,11.4653,0,0,0,0,0,0,0,-1,1805,1450,16.3879,-11.4653
588,-426,18.1212,12.5547,0,0,0,0,0,0,0,-1,1812,1450,18.1212,-12.5547
595,-426,30.0474,21.0964,0,0,0,0,0,0,0,-1,1819,1450,30.0474,-21.0965
602,-426,36.349,25.5156,0,0,0,0,0,0,0,-1,1826,1450,36.349,-25.5156
609,-426,36.3306,24.6958,0.00245871,0.00185591,-0.00173298,0.0039163,0.000398314,-0.699299,0.00248874,0.0147114,1833,1450,36.3306,-24.6957
616,-426,36.286,23.8816,0.00180917,0.00119929,-0.0011479,0.00269195,0.000316514,-0.655572,0.00169898,0.0155081,1840,1450,36.2861,-23.8816
623,-426,36.2382,23.0942,0.0014944,0.000854663,-0.000790195,0.00202701,0.00032205,-0.593082,0.00125781,0.0119547,1847,1450,36.2382,-23.0943
630,-426,36.2458,22.3,0.00147835,0.00061194,-0.000644389,0.00182161,0.000268676,-0.489461,0.0011355,0.0124844,1854,1450,36.2459,-22.3
637,-426,36.2083,21.5037,0.00166871,0.000624542,-0.000694765,0.00201569,0.000277562,-0.463184,0.00126149,0.0139521,1861,1450,36.2082,-21.5037
644,-426,36.1346,20.7069,0.00218041,0.000874587,-0.00102131,0.00273967,0.000315319,-0.500995,0.00173094,0.0137939,1868,1450,36.1347,-20.7069
651,-426,36.064,19.9214,0.00297719,0.00139933,-0.00162932,0.00399854,0.000377985,-0.55993,0.00254905,0.0130466,1875,1450,36.0639,-19.9214
658,-426,36.0278,19.0465,0.00415315,0.00216516,-0.00252609,0.00587377,0.000444537,-0.597956,0.0037764,0.0144771,1882,1450,36.0278,-19.0465
665,-426,36.0471,18.0068,0.00574755,0.0030502,-0.00364832,0.0082885,0.000509249,-0.608354,0.00536398,0.0485696,1889,1450,36.0471,-18.0068
672,-426,36.2397,16.927,0,0,0,0,0,0,0,-1,1896,1450,36.2397,-16.9271
679,-426,17.1522,8.15784,0,0,0,0,0,0,0,-1,1903,1450,17.1522,-8.15784
686,-426,13.5326,8.03711,0,0,0,0,0,0,0,-1,1910,1450,13.5326,-8.03717
693,-426,11.8607,6.45215,0,0,0,0,0,0,0,-1,1917,1450,11.8607,-6.45215
700,-426,9.24304,2.95447,0,0,0,0,0,0,0,-1,1924,1450,9.24305,-2.95442
707,-426,8.44519,-1.21448,0,0,0,0,0,0,0,-1,1931,1450,8.44514,1.21454
714,-426,0,0,0,0,0,0,0,0,0,-1,1938,1450,0,0
721,-426,0,0,0,0,0,0,0,0,0,-1,1945,1450,0,0
728,-426,0,0,0,0,0,0,0,0,0,-1,1952,1450,0,0
735,-426,0,0,0,0,0,0,0,0,0,-1,1959,1450,0,0
742,-426,0,0,0,0,0,0,0,0,0,-1,1966,1450,0,0
749,-426,0,0,0,0,0,0,0,0,0,-1,1973,1450,0,0
756,-426,0,0,0,0,0,0,0,0,0,-1,1980,1450,0,0
763,-426,0,0,0,0,0,0,0,0,0,-1,1987,1450,0,0
770,-426,0,0,0,0,0,0,0,0,0,-1,1994,1450,0,0
777,-426,0,0,0,0,0,0,0,0,0,-1,2001,1450,0,0
784,-426,0,0,0,0,0,0,0,0,0,-1,2008,1450,0,0
791,-426,0,0,0,0,0,0,0,0,0,-1,2015,1450,0,0
798,-426,0,0,0,0,0,0,0,0,0,-1,2022,1450,0,0
805,-426,0,0,0,0,0,0,0,0,0,-1,2029,1450,0,0
812,-426,0,0,0,0,0,0,0,0,0,-1,2036,1450,0,0
-700,-433,0,0,0,0,0,0,0,0,0,-1,524,1457,0,0
-693,-433,0,0,0,0,0,0,0,0,0,-1,531,1457,0,0
-686,-433,0,0,0,0,0,0,0,0,0,-1,538,1457,0,0
-679,-433,0,0,0,0,0,0,0,0,0,-1,545,1457,0,0
-672,-433,0,0,0,0,0,0,0,0,0,-1,552,1457,0,0
-665,-433,0,0,0,0,0,0,0,0,0,-1,559,1457,0,0
-658,-433,0,0,0,0,0,0,0,0,0,-1,566,1457,0,0
-651,-433,0,0,0,0,0,0,0,0,0,-1,573,1457,0,0
-644,-433,0,0,0,0,0,0,0,0,0,-1,580,1457,0,0
-637,-433,0,0,0,0,0,0,0,0,0,-1,587,1457,0,0
-630,-433,0,0,0,0,0,0,0,0,0,-1,594,1457,0,0
-623,-433,0,0,0,0,0,0,0,0,0,-1,601,1457,0,0
-616,-433,0,0,0,0,0,0,0,0,0,-1,608,1457,0,0
-609,-433,0,0,0,0,0,0,0,0,0,-1,615,1457,0,0
-602,-433,0,0,0,0,0,0,0,0,0,-1,622,1457,0,0
-595,-433,0,0,0,0,0,0,0,0,0,-1,629,1457,0,0
-588,-433,-10.3756,-0.467041,0,0,0,0,0,0,0,-1,636,1457,-10.3756,0.467081
-581,-433,-8.12201,0.884033,0,0,0,0,0,0,0,-1,643,1457,-8.12204,-0.884056
-574,-433,-5.86847,2.23523,0,0,0,0,0,0,0,-1,650,1457,-5.86844,-2.23519
-567,-433,-5.42255,1.16833,0,0,0,0,0,0,0,-1,657,1457,-5.42254,-1.1683
-560,-433,-6.84027,1.86414,0,0,0,0,0,0,0,-1,664,1457,-6.84026,-1.86412
-553,-433,-5.74017,1.79163,0,0,0,0,0,0,0,-1,671,1457,-5.74015,-1.79166
-546,-433,-8.12451,7.35095,0,0,0,0,0,0,0,-1,678,1457,-8.12451,-7.35097
-539,-433,-7.3136,8.75659,0,0,0,0,0,0,0,-1,685,1457,-7.31362,-8.75659
-532,-433,-14.5645,14.8475,0,0,0,0,0,0,0,-1,692,1457,-14.5645,-14.8475
-525,-433,-17.7742,18.828,0,0,0,0,0,0,0,-1,699,1457,-17.7742,-18.8281
-518,-433,-17.7747,19.6711,0.00389583,0.00426396,0.00415356,0.00823754,-7.77417e-05,0.807541,0.00551779,0.0193475,706,1457,-17.7747,-19.6712
-511,-433,-17.8186,20.4946,0.00312009,0.00333837,0.00327333,0.00650437,-4.59156e-05,0.802064,0.00435163,0.0167383,713,1457,-17.8186,-20.4947
-504,-433,-17.8511,21.3014,0.00242879,0.00251526,0.00246435,0.00493675,7.29482e-06,0.794169,0.00328874,0.0130445,720,1457,-17.8511,-21.3013
-497,-433,-17.8906,22.1223,0.00184792,0.00182058,0.00174367,0.00357797,9.05226e-05,0.781479,0.00235572,0.0138873,727,1457,-17.8906,-22.1223
-490,-433,-17.9746,22.9463,0.00136401,0.00122939,0.00111342,0.00241215,0.000181244,0.755206,0.00155122,0.0160183,734,1457,-17.9746,-22.9463
-483,-433,-18.0295,23.7723,0.00107751,0.000835294,0.000663053,0.00163043,0.00028238,0.695067,0.00100612,0.0170963,741,1457,-18.0295,-23.7724
-476,-433,-18.0626,24.5946,0.000943066,0.000622651,0.000384675,0.00119956,0.000366156,0.588084,0.000709864,0.0116253,748,1457,-18.0626,-24.5946
-469,-433,-18.1077,25.4176,0.00095645,0.000579584,0.000249019,0.00108029,0.000455739,0.46151,0.000626242,0.0113168,755,1457,-18.1077,-25.4176
-462,-433,-18.1721,26.2311,0,0,0,0,0,0,0,-1,762,1457,-18.1721,-26.2311
-455,-433,-13.8576,22.7446,0,0,0,0,0,0,0,-1,769,1457,-13.8576,-22.7446
-448,-433,-6.94812,14.5563,0,0,0,0,0,0,0,-1,776,1457,-6.94809,-14.5562
-441,-433,-9.97485,14.0258,0,0,0,0,0,0,0,-1,783,1457,-9.97488,-14.0257
-434,-433,-9.41205,14.2297,0,0,0,0,0,0,0,-1,790,1457,-9.41205,-14.2297
-427,-433,-8.67419,13.6827,0,0,0,0,0,0,0,-1,797,1457,-8.67422,-13.6827
-420,-433,-5.74658,9.49121,0,0,0,0,0,0,0,-1,804,1457,-5.7466,-9.49119
-413,-433,-3.63074,5.5813,0,0,0,0,0,0,0,-1,811,1457,-3.63072,-5.58129
-406,-433,-12.3472,4.69373,0,0,0,0,0,0,0,-1,818,1457,-12.3472,-4.69374
-399,-433,-12.055,2.83594,0,0,0,0,0,0,0,-1,825,1457,-12.055,-2.83594
-392,-433,-12.9772,1.6228,0,0,0,0,0,0,0,-1,832,1457,-12.9772,-1.62282
-385,-433,-13.7999,0.514771,0,0,0,0,0,0,0,-1,839,1457,-13.7999,-0.514788
-378,-433,0,0,0,0,0,0,0,0,0,-1,846,1457,0,0
-371,-433,0,0,0,0,0,0,0,0,0,-1,853,1457,0,0
-364,-433,0,0,0,0,0,0,0,0,0,-1,860,1457,0,0
-357,-433,0,0,0,0,0,0,0,0,0,-1,867,1457,0,0
-350,-433,0,0,0,0,0,0,0,0,0,-1,874,1457,0,0
-343,-433,0,0,0,0,0,0,0,0,0,-1,881,1457,0,0
-336,-433,0,0,0,0,0,0,0,0,0,-1,888,1457,0,0
-329,-433,0,0,0,0,0,0,0,0,0,-1,895,1457,0,0
-322,-433,0,0,0,0,0,0,0,0,0,-1,902,1457,0,0
-315,-433,0,0,0,0,0,0,0,0,0,-1,909,1457,0,0
-308,-433,0,0,0,0,0,0,0,0,0,-1,916,1457,0,0
-301,-433,0,0,0,0,0,0,0,0,0,-1,923,1457,0,0
-294,-433,0,0,0,0,0,0,0,0,0,-1,930,1457,0,0
-287,-433,0,0,0,0,0,0,0,0,0,-1,937,1457,0,0
-280,-433,0,0,0,0,0,0,0,0,0,-1,944,1457,0,0
-273,-433,0,0,0,0,0,0,0,0,0,-1,951,1457,0,0
-266,-433,0,0,0,0,0,0,0,0,0,-1,958,1457,0,0
-259,-433,0,0,0,0,0,0,0,0,0,-1,965,1457,0,0
-252,-433,0,0,0,0,0,0,0,0,0,-1,972,1457,0,0
-245,-433,0,0,0,0,0,0,0,0,0,-1,979,1457,0,0
-238,-433,0,0,0,0,0,0,0,0,0,-1,986,1457,0,0
-231,-433,0,0,0,0,0,0,0,0,0,-1,993,1457,0,0
-224,-433,0,0,0,0,0,0,0,0,0,-1,1000,1457,0,0
-217,-433,0,0,0,0,0,0,0,0,0,-1,1007,1457,0,0
-210,-433,0,0,0,0,0,0,0,0,0,-1,1014,1457,0,0
-203,-433,0,0,0,0,0,0,0,0,0,-1,1021,1457,0,0
-196,-433,0,0,0,0,0,0,0,0,0,-1,1028,1457,0,0
-189,-433,0,0,0,0,0,0,0,0,0,-1,1035,1457,0,0
-182,-433,0,0,0,0,0,0,0,0,0,-1,1042,1457,0,0
-175,-433,0,0,0,0,0,0,0,0,0,-1,1049,1457,0,0
-168,-433,0,0,0,0,0,0,0,0,0,-1,1056,1457,0,0
-161,-433,0,0,0,0,0,0,0,0,0,-1,1063,1457,0,0
-154,-433,0,0,0,0,0,0,0,0,0,-1,1070,1457,0,0
-147,-433,0,0,0,0,0,0,0,0,0,-1,1077,1457,0,0
-140,-433,0,0,0,0,0,0,0,0,0,-1,1084,1457,0,0
-133,-433,0,0,0,0,0,0,0,0,0,-1,1091,1457,0,0
-126,-433,0,0,0,0,0,0,0,0,0,-1,1098,1457,0,0
-119,-433,0,0,0,0,0,0,0,0,0,-1,1105,1457,0,0
-112,-433,0,0,0,0,0,0,0,0,0,-1,1112,1457,0,0
-105,-433,0,0,0,0,0,0,0,0,0,-1,1119,1457,0,0
-98,-433,0,0,0,0,0,0,0,0,0,-1,1126,1457,0,0
-91,-433,0,0,0,0,0,0,0,0,0,-1,1133,1457,0,0
-84,-433,0,0,0,0,0,0,0,0,0,-1,1140,1457,0,0
-77,-433,0,0,0,0,0,0,0,0,0,-1,1147,1457,0,0
-70,-433,0,0,0,0,0,0,0,0,0,-1,1154,1457,0,0
-63,-433,0,0,0,0,0,0,0,0,0,-1,1161,1457,0,0
-56,-433,0,0,0,0,0,0,0,0,0,-1,1168,1457,0,0
-49,-433,0,0,0,0,0,0,0,0,0,-1,1175,1457,0,0
-42,-433,0,0,0,0,0,0,0,0,0,-1,1182,1457,0,0
-35,-433,0,0,0,0,0,0,0,0,0,-1,1189,1457,0,0
-28,-433,0,0,0,0,0,0,0,0,0,-1,1196,1457,0,0
-21,-433,0,0,0,0,0,0,0,0,0,-1,1203,1457,0,0
-14,-433,0,0,0,0,0,0,0,0,0,-1,1210,1457,0,0
-7,-433,0,0,0,0,0,0,0,0,0,-1,1217,1457,0,0
0,-433,0,0,0,0,0,0,0,0,0,-1,1224,1457,0,0
7,-433,0,0,0,0,0,0,0,0,0,-1,1231,1457,0,0
14,-433,0,0,0,0,0,0,0,0,0,-1,1238,1457,0,0
21,-433,0,0,0,0,0,0,0,0,0,-1,1245,1457,0,0
28,-433,0,0,0,0,0,0,0,0,0,-1,1252,1457,0,0
35,-433,0,0,0,0,0,0,0,0,0,-1,1259,1457,0,0
42,-433,0,0,0,0,0,0,0,0,0,-1,1266,1457,0,0
49,-433,0,0,0,0,0,0,0,0,0,-1,1273,1457,0,0
56,-433,0,0,0,0,0,0,0,0,0,-1,1280,1457,0,0
63,-433,0,0,0,0,0,0,0,0,0,-1,1287,1457,0,0
70,-433,0,0,0,0,0,0,0,0,0,-1,1294,1457,0,0
77,-433,0,0,0,0,0,0,0,0,0,-1,1301,1457,0,0
84,-433,0,0,0,0,0,0,0,0,0,-1,1308,1457,0,0
91,-433,0,0,0,0,0,0,0,0,0,-1,1315,1457,0,0
98,-433,0,0,0,0,0,0,0,0,0,-1,1322,1457,0,0
105,-433,0,0,0,0,0,0,0,0,0,-1,1329,1457,0,0
112,-433,0,0,0,0,0,0,0,0,0,-1,1336,1457,0,0
119,-433,0,0,0,0,0,0,0,0,0,-1,1343,1457,0,0
126,-433,0,0,0,0,0,0,0,0,0,-1,1350,1457,0,0
133,-433,0,0,0,0,0,0,0,0,0,-1,1357,1457,0,0
140,-433,0,0,0,0,0,0,0,0,0,-1,1364,1457,0,0
147,-433,0,0,0,0,0,0,0,0,0,-1,1371,1457,0,0
154,-433,0,0,0,0,0,0,0,0,0,-1,1378,1457,0,0
161,-433,0,0,0,0,0,0,0,0,0,-1,1385,1457,0,0
168,-433,0,0,0,0,0,0,0,0,0,-1,1392,1457,0,0
175,-433,0,0,0,0,0,0,0,0,0,-1,1399,1457,0,0
182,-433,0,0,0,0,0,0,0,0,0,-1,1406,1457,0,0
189,-433,0,0,0,0,0,0,0,0,0,-1,1413,1457,0,0
196,-433,0,0,0,0,0,0,0,0,0,-1,1420,1457,0,0
203,-433,0,0,0,0,0,0,0,0,0,-1,1427,1457,0,0
210,-433,0,0,0,0,0,0,0,0,0,-1,1434,1457,0,0
217,-433,0,0,0,0,0,0,0,0,0,-1,1441,1457,0,0
224,-433,0,0,0,0,0,0,0,0,0,-1,1448,1457,0,0
231,-433,0,0,0,0,0,0,0,0,0,-1,1455,1457,0,0
238,-433,0,0,0,0,0,0,0,0,0,-1,1462,1457,0,0
245,-433,0,0,0,0,0,0,0,0,0,-1,1469,1457,0,0
252,-433,0,0,0,0,0,0,0,0,0,-1,1476,1457,0,0
259,-433,0,0,0,0,0,0,0,0,0,-1,1483,1457,0,0
266,-433,0,0,0,0,0,0,0,0,0,-1,1490,1457,0,0
273,-433,0,0,0,0,0,0,0,0,0,-1,1497,1457,0,0
280,-433,0,0,0,0,0,0,0,0,0,-1,1504,1457,0,0
287,-433,0,0,0,0,0,0,0,0,0,-1,1511,1457,0,0
294,-433,0,0,0,0,0,0,0,0,0,-1,1518,1457,0,0
301,-433,0,0,0,0,0,0,0,0,0,-1,1525,1457,0,0
308,-433,0,0,0,0,0,0,0,0,0,-1,1532,1457,0,0
315,-433,0,0,0,0,0,0,0,0,0,-1,1539,1457,0,0
322,-433,0,0,0,0,0,0,0,0,0,-1,1546,1457,0,0
329,-433,0,0,0,0,0,0,0,0,0,-1,1553,1457,0,0
336,-433,0,0,0,0,0,0,0,0,0,-1,1560,1457,0,0
343,-433,0,0,0,0,0,0,0,0,0,-1,1567,1457,0,0
350,-433,0,0,0,0,0,0,0,0,0,-1,1574,1457,0,0
357,-433,0,0,0,0,0,0,0,0,0,-1,1581,1457,0,0
364,-433,0,0,0,0,0,0,0,0,0,-1,1588,1457,0,0
371,-433,0,0,0,0,0,0,0,0,0,-1,1595,1457,0,0
378,-433,0,0,0,0,0,0,0,0,0,-1,1602,1457,0,0
385,-433,0,0,0,0,0,0,0,0,0,-1,1609,1457,0,0
392,-433,0,0,0,0,0,0,0,0,0,-1,1616,1457,0,0
399,-433,0,0,0,0,0,0,0,0,0,-1,1623,1457,0,0
406,-433,0,0,0,0,0,0,0,0,0,-1,1630,1457,0,0
413,-433,0,0,0,0,0,0,0,0,0,-1,1637,1457,0,0
420,-433,0,0,0,0,0,0,0,0,0,-1,1644,1457,0,0
427,-433,0,0,0,0,0,0,0,0,0,-1,1651,1457,0,0
434,-433,0,0,0,0,0,0,0,0,0,-1,1658,1457,0,0
441,-433,0,0,0,0,0,0,0,0,0,-1,1665,1457,0,0
448,-433,0,0,0,0,0,0,0,0,0,-1,1672,1457,0,0
455,-433,0,0,0,0,0,0,0,0,0,-1,1679,1457,0,0
462,-433,0,0,0,0,0,0,0,0,0,-1,1686,1457,0,0
469,-433,0,0,0,0,0,0,0,0,0,-1,1693,1457,0,0
476,-433,0,0,0,0,0,0,0,0,0,-1,1700,1457,0,0
483,-433,0,0,0,0,0,0,0,0,0,-1,1707,1457,0,0
490,-433,0,0,0,0,0,0,0,0,0,-1,1714,1457,0,0
497,-433,0,0,0,0,0,0,0,0,0,-1,1721,1457,0,0
504,-433,19.9058,3.03662,0,0,0,0,0,0,0,-1,1728,1457,19.9058,-3.03656
511,-433,19.0145,3.07837,0,0,0,0,0,0,0,-1,1735,1457,19.0146,-3.07834
518,-433,18.071,3.06433,0,0,0,0,0,0,0,-1,1742,1457,18.071,-3.06432
525,-433,17.2048,3.37085,0,0,0,0,0,0,0,-1,1749,1457,17.2049,-3.37083
532,-433,16.5637,3.36646,0,0,0,0,0,0,0,-1,1756,1457,16.5637,-3.36643
539,-433,15.9193,3.30396,0,0,0,0,0,0,0,-1,1763,1457,15.9193,-3.30394
546,-433,23.1903,4.81775,0,0,0,0,0,0,0,-1,1770,1457,23.1903,-4.81775
553,-433,13.9674,11.5781,0,0,0,0,0,0,0,-1,1777,1457,13.9674,-11.5781
560,-433,13.9855,11.7341,0,0,0,0,0,0,0,-1,1784,1457,13.9855,-11.7341
567,-433,13.9264,11.3364,0,0,0,0,0,0,0,-1,1791,1457,13.9263,-11.3364
574,-433,15.5305,12.3673,0,0,0,0,0,0,0,-1,1798,1457,15.5305,-12.3673
581,-433,16.6405,12.1898,0,0,0,0,0,0,0,-1,1805,1457,16.6405,-12.1898
588,-433,26.4386,19.7478,0,0,0,0,0,0,0,-1,1812,1457,26.4386,-19.7478
595,-433,35.6228,26.4423,0,0,0,0,0,0,0,-1,1819,1457,35.6228,-26.4422
602,-433,35.5472,25.5607,0.00332444,0.00228151,-0.00231474,0.00517572,0.00043022,-0.674608,0.00331639,0.0296453,1826,1457,35.5473,-25.5607
609,-433,35.535,24.6915,0.00256797,0.00161021,-0.00166391,0.00382054,0.000357642,-0.645284,0.00243658,0.0175221,1833,1457,35.535,-24.6915
616,-433,35.5035,23.9115,0.00192253,0.00110285,-0.00115211,0.00273552,0.000289855,-0.614513,0.00173515,0.0151917,1840,1457,35.5035,-23.9115
623,-433,35.4487,23.1329,0.00161643,0.000756985,-0.000783825,0.0020806,0.000292816,-0.534653,0.0013005,0.0113566,1847,1457,35.4488,-23.133
630,-433,35.4454,22.3429,0.00160555,0.000483165,-0.000604848,0.00186945,0.000219265,-0.411409,0.00118002,0.0147077,1854,1457,35.4455,-22.3428
637,-433,35.4254,21.5394,0.00176077,0.000475836,-0.000606888,0.00200209,0.000234518,-0.378464,0.00126383,0.0163864,1861,1457,35.4254,-21.5395
644,-433,35.3531,20.7662,0.0022084,0.000741032,-0.000885105,0.00262437,0.000325063,-0.439333,0.00165192,0.0176153,1868,1457,35.3531,-20.7662
651,-433,35.2931,19.9513,0.0029682,0.0013378,-0.00149545,0.0038562,0.000449792,-0.535853,0.00243476,0.0140577,1875,1457,35.2931,-19.9513
658,-433,35.1766,19.0907,0.00411178,0.00223868,-0.00242236,0.00577233,0.000578126,-0.600936,0.00367072,0.0461328,1882,1457,35.1766,-19.0907
665,-433,35.2611,17.9547,0,0,0,0,0,0,0,-1,1889,1457,35.2612,-17.9547
672,-433,18.115,8.7207,0,0,0,0,0,0,0,-1,1896,1457,18.115,-8.72074
679,-433,17.2969,9.6355,0,0,0,0,0,0,0,-1,1903,1457,17.2968,-9.63548
686,-433,13.6356,8.61694,0,0,0,0,0,0,0,-1,1910,1457,13.6356,-8.61694
693,-433,13.4081,8.39624,0,0,0,0,0,0,0,-1,1917,1457,13.4081,-8.39624
700,-433,7.16809,-1.5166,0,0,0,0,0,0,0,-1,1924,1457,7.16806,1.51656
707,-433,8.68359,-2.82202,0,0,0,0,0,0,0,-1,1931,1457,8.68359,2.82197
714,-433,0,0,0,0,0,0,0,0,0,-1,1938,1457,0,0
721,-433,0,0,0,0,0,0,0,0,0,-1,1945,1457,0,0
728,-433,0,0,0,0,0,0,0,0,0,-1,1952,1457,0,0
735,-433,0,0,0,0,0,0,0,0,0,-1,1959,1457,0,0
742,-433,0,0,0,0,0,0,0,0,0,-1,1966,1457,0,0
749,-433,0,0,0,0,0,0,0,0,0,-1,1973,1457,0,0
756,-433,0,0,0,0,0,0,0,0,0,-1,1980,1457,0,0
763,-433,0,0,0,0,0,0,0,0,0,-1,1987,1457,0,0
770,-433,0,0,0,0,0,0,0,0,0,-1,1994,1457,0,0
777,-433,0,0,0,0,0,0,0,0,0,-1,2001,1457,0,0
784,-433,0,0,0,0,0,0,0,0,0,-1,2008,1457,0,0
791,-433,0,0,0,0,0,0,0,0,0,-1,2015,1457,0,0
798,-433,0,0,0,0,0,0,0,0,0,-1,2022,1457,0,0
805,-433,0,0,0,0,0,0,0,0,0,-1,2029,1457,0,0
812,-433,0,0,0,0,0,0,0,0,0,-1,2036,1457,0,0
-700,-440,0,0,0,0,0,0,0,0,0,-1,524,1464,0,0
-693,-440,0,0,0,0,0,0,0,0,0,-1,531,1464,0,0
-686,-440,0,0,0,0,0,0,0,0,0,-1,538,1464,0,0
-679,-440,0,0,0,0,0,0,0,0,0,-1,545,1464,0,0
-672,-440,0,0,0,0,0,0,0,0,0,-1,552,1464,0,0
-665,-440,0,0,0,0,0,0,0,0,0,-1,559,1464,0,0
-658,-440,0,0,0,0,0,0,0,0,0,-1,566,1464,0,0
-651,-440,0,0,0,0,0,0,0,0,0,-1,573,1464,0,0
-644,-440,0,0,0,0,0,0,0,0,0,-1,580,1464,0,0
-637,-440,0,0,0,0,0,0,0,0,0,-1,587,1464,0,0
-630,-440,0,0,0,0,0,0,0,0,0,-1,594,1464,0,0
-623,-440,0,0,0,0,0,0,0,0,0,-1,601,1464,0,0
-616,-440,0,0,0,0,0,0,0,0,0,-1,608,1464,0,0
-609,-440,0,0,0,0,0,0,0,0,0,-1,615,1464,0,0
-602,-440,0,0,0,0,0,0,0,0,0,-1,622,1464,0,0
-595,-440,0,0,0,0,0,0,0,0,0,-1,629,1464,0,0
-588,-440,0,0,0,0,0,0,0,0,0,-1,636,1464,0,0
-581,-440,-8.97278,0.254517,0,0,0,0,0,0,0,-1,643,1464,-8.97276,-0.254526
-574,-440,-7.00818,-0.918579,0,0,0,0,0,0,0,-1,650,1464,-7.00817,0.918538
-567,-440,-6.12152,-0.0766602,0,0,0,0,0,0,0,-1,657,1464,-6.12151,0.0767097
-560,-440,-5.46747,0.82251,0,0,0,0,0,0,0,-1,664,1464,-5.46748,-0.822551
-553,-440,-6.84729,0.0831299,0,0,0,0,0,0,0,-1,671,1464,-6.84732,-0.083136
-546,-440,-5.63446,-0.153198,0,0,0,0,0,0,0,-1,678,1464,-5.63447,0.153147
-539,-440,-6.80017,8.58252,0,0,0,0,0,0,0,-1,685,1464,-6.80015,-8.58257
-532,-440,-9.69647,11.3262,0,0,0,0,0,0,0,-1,692,1464,-9.69649,-11.3262
-525,-440,-17.0839,18.6572,0,0,0,0,0,0,0,-1,699,1464,-17.0839,-18.6572
-518,-440,-17.0194,19.5862,0.00475709,0.00561596,0.00552193,0.0107251,-0.000352079,0.824204,0.00727029,0.03391,706,1464,-17.0194,-19.5862
-511,-440,-17.0041,20.5157,0.00382847,0.00446445,0.00440809,0.008566,-0.00027308,0.821404,0.00580384,0.0166771,713,1464,-17.0041,-20.5157
-504,-440,-17.017,21.3522,0.00298108,0.00341396,0.00338224,0.00658667,-0.000191635,0.817351,0.00445637,0.0188732,720,1464,-17.017,-21.3522
-497,-440,-17.0715,22.1556,0.00223155,0.00249629,0.00245311,0.00482059,-9.27581e-05,0.812352,0.00324509,0.0227186,727,1464,-17.0716,-22.1556
-490,-440,-17.1262,22.9241,0.00158894,0.00170502,0.00163096,0.00327897,1.49815e-05,0.803183,0.002181,0.0237808,734,1464,-17.1262,-22.924
-483,-440,-17.1992,23.7924,0.00115823,0.00111424,0.00100375,0.00214023,0.000132248,0.774443,0.00138484,0.020987,741,1464,-17.1992,-23.7924
-476,-440,-17.2377,24.6243,0.000901767,0.000748037,0.00058044,0.00141041,0.000239394,0.719568,0.000871505,0.0141441,748,1464,-17.2377,-24.6243
-469,-440,-17.2855,25.452,0.000782116,0.000592052,0.000330825,0.00103129,0.00034288,0.645535,0.000606452,0.012371,755,1464,-17.2855,-25.452
-462,-440,-17.3605,26.2529,0.000899846,0.000742491,0.000363073,0.00119267,0.000449668,0.678698,0.000695495,0.0191048,762,1464,-17.3605,-26.253
-455,-440,-17.3699,27.1532,0,0,0,0,0,0,0,-1,769,1464,-17.37,-27.1532
-448,-440,-12.8837,23.5623,0,0,0,0,0,0,0,-1,776,1464,-12.8837,-23.5623
-441,-440,-7.28583,14.7465,0,0,0,0,0,0,0,-1,783,1464,-7.28584,-14.7464
-434,-440,-8.33636,14.5024,0,0,0,0,0,0,0,-1,790,1464,-8.33638,-14.5025
-427,-440,-8.28094,14.2512,0,0,0,0,0,0,0,-1,797,1464,-8.28094,-14.2512
-420,-440,-6.86603,8.09216,0,0,0,0,0,0,0,-1,804,1464,-6.86602,-8.09222
-413,-440,-3.46796,5.72278,0,0,0,0,0,0,0,-1,811,1464,-3.46797,-5.72276
-406,-440,-5.2887,5.20264,0,0,0,0,0,0,0,-1,818,1464,-5.2887,-5.20261
-399,-440,-12.7318,3.94421,0,0,0,0,0,0,0,-1,825,1464,-12.7318,-3.94419
-392,-440,-13.5565,2.51855,0,0,0,0,0,0,0,-1,832,1464,-13.5565,-2.51861
-385,-440,-14.6741,1.39795,0,0,0,0,0,0,0,-1,839,1464,-14.6741,-1.39801
-378,-440,-15.8063,0.293457,0,0,0,0,0,0,0,-1,846,1464,-15.8063,-0.293412
-371,-440,0,0,0,0,0,0,0,0,0,-1,853,1464,0,0
-364,-440,0,0,0,0,0,0,0,0,0,-1,860,1464,0,0
-357,-440,0,0,0,0,0,0,0,0,0,-1,867,1464,0,0
-350,-440,0,0,0,0,0,0,0,0,0,-1,874,1464,0,0
-343,-440,0,0,0,0,0,0,0,0,0,-1,881,1464,0,0
-336,-440,0,0,0,0,0,0,0,0,0,-1,888,1464,0,0
-329,-440,0,0,0,0,0,0,0,0,0,-1,895,1464,0,0
-322,-440,0,0,0,0,0,0,0,0,0,-1,902,1464,0,0
-315,-440,0,0,0,0,0,0,0,0,0,-1,909,1464,0,0
-308,-440,0,0,0,0,0,0,0,0,0,-1,916,1464,0,0
-301,-440,0,0,0,0,0,0,0,0,0,-1,923,1464,0,0
-294,-440,0,0,0,0,0,0,0,0,0,-1,930,1464,0,0
-287,-440,0,0,0,0,0,0,0,0,0,-1,937,1464,0,0
-280,-440,0,0,0,0,0,0,0,0,0,-1,944,1464,0,0
-273,-440,0,0,0,0,0,0,0,0,0,-1,951,1464,0,0
-266,-440,0,0,0,0,0,0,0,0,0,-1,958,1464,0,0
-259,-440,0,0,0,0,0,0,0,0,0,-1,965,1464,0,0
-252,-440,0,0,0,0,0,0,0,0,0,-1,972,1464,0,0
-245,-440,0,0,0,0,0,0,0,0,0,-1,979,1464,0,0
-238,-440,0,0,0,0,0,0,0,0,0,-1,986,1464,0,0
-231,-440,0,0,0,0,0,0,0,0,0,-1,993,1464,0,0
-224,-440,0,0,0,0,0,0,0,0,0,-1,1000,1464,0,0
-217,-440,0,0,0,0,0,0,0,0,0,-1,1007,1464,0,0
-210,-440,0,0,0,0,0,0,0,0,0,-1,1014,1464,0,0
-203,-440,0,0,0,0,0,0,0,0,0,-1,1021,1464,0,0
-196,-440,0,0,0,0,0,0,0,0,0,-1,1028,1464,0,0
-189,-440,0,0,0,0,0,0,0,0,0,-1,1035,1464,0,0
-182,-440,0,0,0,0,0,0,0,0,0,-1,1042,1464,0,0
-175,-440,0,0,0,0,0,0,0,0,0,-1,1049,1464,0,0
-168,-440,0,0,0,0,0,0,0,0,0,-1,1056,1464,0,0
-161,-440,0,0,0,0,0,0,0,0,0,-1,1063,1464,0,0
-154,-440,0,0,0,0,0,0,0,0,0,-1,1070,1464,0,0
-147,-440,0,0,0,0,0,0,0,0,0,-1,1077,1464,0,0
-140,-440,0,0,0,0,0,0,0,0,0,-1,1084,1464,0,0
-133,-440,0,0,0,0,0,0,0,0,0,-1,1091,1464,0,0
-126,-440,0,0,0,0,0,0,0,0,0,-1,1098,1464,0,0
-119,-440,0,0,0,0,0,0,0,0,0,-1,1105,1464,0,0
-112,-440,0,0,0,0,0,0,0,0,0,-1,1112,1464,0,0
-105,-440,0,0,0,0,0,0,0,0,0,-1,1119,1464,0,0
-98,-440,0,0,0,0,0,0,0,0,0,-1,1126,1464,0,0
-91,-440,0,0,0,0,0,0,0,0,0,-1,1133,1464,0,0
-84,-440,0,0,0,0,0,0,0,0,0,-1,1140,1464,0,0
-77,-440,0,0,0,0,0,0,0,0,0,-1,1147,1464,0,0
-70,-440,0,0,0,0,0,0,0,0,0,-1,1154,1464,0,0
-63,-440,0,0,0,0,0,0,0,0,0,-1,1161,1464,0,0
-56,-440,0,0,0,0,0,0,0,0,0,-1,1168,1464,0,0
-49,-440,0,0,0,0,0,0,0,0,0,-1,1175,1464,0,0
-42,-440,0,0,0,0,0,0,0,0,0,-1,1182,1464,0,0
-35,-440,0,0,0,0,0,0,0,0,0,-1,1189,1464,0,0
-28,-440,0,0,0,0,0,0,0,0,0,-1,1196,1464,0,0
-21,-440,0,0,0,0,0,0,0,0,0,-1,1203,1464,0,0
-14,-440,0,0,0,0,0,0,0,0,0,-1,1210,1464,0,0
-7,-440,0,0,0,0,0,0,0,0,0,-1,1217,1464,0,0
0,-440,0,0,0,0,0,0,0,0,0,-1,1224,1464,0,0
7,-440,0,0,0,0,0,0,0,0,0,-1,1231,1464,0,0
14,-440,0,0,0,0,0,0,0,0,0,-1,1238,1464,0,0
21,-440,0,0,0,0,0,0,0,0,0,-1,1245,1464,0,0
28,-440,0,0,0,0,0,0,0,0,0,-1,1252,1464,0,0
35,-440,0,0,0,0,0,0,0,0,0,-1,1259,1464,0,0
42,-440,0,0,0,0,0,0,0,0,0,-1,1266,1464,0,0
49,-440,0,0,0,0,0,0,0,0,0,-1,1273,1464,0,0
56,-440,0,0,0,0,0,0,0,0,0,-1,1280,1464,0,0
63,-440,0,0,0,0,0,0,0,0,0,-1,1287,1464,0,0
70,-440,0,0,0,0,0,0,0,0,0,-1,1294,1464,0,0
77,-440,0,0,0,0,0,0,0,0,0,-1,1301,1464,0,0
84,-440,0,0,0,0,0,0,0,0,0,-1,1308,1464,0,0
91,-440,0,0,0,0,0,0,0,0,0,-1,1315,1464,0,0
98,-440,0,0,0,0,0,0,0,0,0,-1,1322,1464,0,0
105,-440,0,0,0,0,0,0,0,0,0,-1,1329,1464,0,0
112,-440,0,0,0,0,0,0,0,0,0,-1,1336,1464,0,0
119,-440,0,0,0,0,0,0,0,0,0,-1,1343,1464,0,0
126,-440,0,0,0,0,0,0,0,0,0,-1,1350,1464,0,0
133,-440,0,0,0,0,0,0,0,0,0,-1,1357,1464,0,0
140,-440,0,0,0,0,0,0,0,0,0,-1,1364,1464,0,0
147,-440,0,0,0,0,0,0,0,0,0,-1,1371,1464,0,0
154,-440,0,0,0,0,0,0,0,0,0,-1,1378,1464,0,0
161,-440,0,0,0,0,0,0,0,0,0,-1,1385,1464,0,0
168,-440,0,0,0,0,0,0,0,0,0,-1,1392,1464,0,0
175,-440,0,0,0,0,0,0,0,0,0,-1,1399,1464,0,0
182,-440,0,0,0,0,0,0,0,0,0,-1,1406,1464,0,0
189,-440,0,0,0,0,0,0,0,0,0,-1,1413,1464,0,0
196,-440,0,0,0,0,0,0,0,0,0,-1,1420,1464,0,0
203,-440,0,0,0,0,0,0,0,0,0,-1,1427,1464,0,0
210,-440,0,0,0,0,0,0,0,0,0,-1,1434,1464,0,0
217,-440,0,0,0,0,0,0,0,0,0,-1,1441,1464,0,0
224,-440,0,0,0,0,0,0,0,0,0,-1,1448,1464,0,0
231,-440,0,0,0,0,0,0,0,0,0,-1,1455,1464,0,0
238,-440,0,0,0,0,0,0,0,0,0,-1,1462,1464,0,0
245,-440,0,0,0,0,0,0,0,0,0,-1,1469,1464,0,0
252,-440,0,0,0,0,0,0,0,0,0,-1,1476,1464,0,0
259,-440,0,0,0,0,0,0,0,0,0,-1,1483,1464,0,0
266,-440,0,0,0,0,0,0,0,0,0,-1,1490,1464,0,0
273,-440,0,0,0,0,0,0,0,0,0,-1,1497,1464,0,0
280,-440,0,0,0,0,0,0,0,0,0,-1,1504,1464,0,0
287,-440,0,0,0,0,0,0,0,0,0,-1,1511,1464,0,0
294,-440,0,0,0,0,0,0,0,0,0,-1,1518,1464,0,0
301,-440,0,0,0,0,0,0,0,0,0,-1,1525,1464,0,0
308,-440,0,0,0,0,0,0,0,0,0,-1,1532,1464,0,0
315,-440,0,0,0,0,0,0,0,0,0,-1,1539,1464,0,0
322,-440,0,0,0,0,0,0,0,0,0,-1,1546,1464,0,0
329,-440,0,0,0,0,0,0,0,0,0,-1,1553,1464,0,0
336,-440,0,0,0,0,0,0,0,0,0,-1,1560,1464,0,0
343,-440,0,0,0,0,0,0,0,0,0,-1,1567,1464,0,0
350,-440,0,0,0,0,0,0,0,0,0,-1,1574,1464,0,0
357,-440,0,0,0,0,0,0,0,0,0,-1,1581,1464,0,0
364,-440,0,0,0,0,0,0,0,0,0,-1,1588,1464,0,0
371,-440,0,0,0,0,0,0,0,0,0,-1,1595,1464,0,0
378,-440,0,0,0,0,0,0,0,0,0,-1,1602,1464,0,0
385,-440,0,0,0,0,0,0,0,0,0,-1,1609,1464,0,0
392,-440,0,0,0,0,0,0,0,0,0,-1,1616,1464,0,0
399,-440,0,0,0,0,0,0,0,0,0,-1,1623,1464,0,0
406,-440,0,0,0,0,0,0,0,0,0,-1,1630,1464,0,0
413,-440,0,0,0,0,0,0,0,0,0,-1,1637,1464,0,0
420,-440,0,0,0,0,0,0,0,0,0,-1,1644,1464,0,0
427,-440,0,0,0,0,0,0,0,0,0,-1,1651,1464,0,0
434,-440,0,0,0,0,0,0,0,0,0,-1,1658,1464,0,0
441,-440,0,0,0,0,0,0,0,0,0,-1,1665,1464,0,0
448,-440,0,0,0,0,0,0,0,0,0,-1,1672,1464,0,0
455,-440,0,0,0,0,0,0,0,0,0,-1,1679,1464,0,0
462,-440,0,0,0,0,0,0,0,0,0,-1,1686,1464,0,0
469,-440,0,0,0,0,0,0,0,0,0,-1,1693,1464,0,0
476,-440,0,0,0,0,0,0,0,0,0,-1,1700,1464,0,0
483,-440,0,0,0,0,0,0,0,0,0,-1,1707,1464,0,0
490,-440,0,0,0,0,0,0,0,0,0,-1,1714,1464,0,0
497,-440,16.965,-0.528442,0,0,0,0,0,0,0,-1,1721,1464,16.965,0.528492
504,-440,15.8052,0.670166,0,0,0,0,0,0,0,-1,1728,1464,15.8052,-0.670145
511,-440,17.5754,2.77832,0,0,0,0,0,0,0,-1,1735,1464,17.5754,-2.77826
518,-440,16.9017,3.07861,0,0,0,0,0,0,0,-1,1742,1464,16.9018,-3.07859
525,-440,18.4495,12.0867,0,0,0,0,0,0,0,-1,1749,1464,18.4495,-12.0867
532,-440,15.4319,3.64392,0,0,0,0,0,0,0,-1,1756,1464,15.4318,-3.64391
539,-440,14.8214,3.41321,0,0,0,0,0,0,0,-1,1763,1464,14.8214,-3.4132
546,-440,14.8651,10.7683,0,0,0,0,0,0,0,-1,1770,1464,14.8651,-10.7683
553,-440,15.1213,11.4121,0,0,0,0,0,0,0,-1,1777,1464,15.1213,-11.4121
560,-440,17.4325,12.5394,0,0,0,0,0,0,0,-1,1784,1464,17.4325,-12.5394
567,-440,16.9025,12.4249,0,0,0,0,0,0,0,-1,1791,1464,16.9025,-12.425
574,-440,19.2841,14.8679,0,0,0,0,0,0,0,-1,1798,1464,19.2841,-14.868
581,-440,26.4432,21.3477,0,0,0,0,0,0,0,-1,1805,1464,26.4432,-21.3476
588,-440,34.6965,27.3629,0,0,0,0,0,0,0,-1,1812,1464,34.6966,-27.3629
595,-440,34.7167,26.4431,0.00421755,0.00232663,-0.00259378,0.00603282,0.000511364,-0.610626,0.00386272,0.0348206,1819,1464,34.7167,-26.4432
602,-440,34.7848,25.5372,0.00326015,0.00174967,-0.00197927,0.00462337,0.000386442,-0.603136,0.00296185,0.0203233,1826,1464,34.7848,-25.5373
609,-440,34.7395,24.7361,0.00253347,0.00119967,-0.00142078,0.00343608,0.000297055,-0.565967,0.0021984,0.0173501,1833,1464,34.7395,-24.736
616,-440,34.7003,23.9674,0.00192973,0.000850558,-0.000995577,0.00252254,0.000257746,-0.537064,0.0016027,0.0187814,1840,1464,34.7003,-23.9675
623,-440,34.6505,23.1653,0.00165083,0.000543687,-0.000641631,0.00194468,0.000249831,-0.429472,0.00122172,0.0149232,1847,1464,34.6505,-23.1652
630,-440,34.6185,22.3549,0.00164499,0.000281142,-0.00043503,0.00177193,0.000154195,-0.283927,0.00113339,0.012894,1854,1464,34.6185,-22.3549
637,-440,34.6111,21.5953,0.00176745,0.0002742,-0.00039226,0.00186422,0.000177429,-0.241872,0.0011881,0.0170567,1861,1464,34.6111,-21.5953
644,-440,34.573,20.8287,0.0021259,0.000568389,-0.000623609,0.00234482,0.000349473,-0.337607,0.00146072,0.0168764,1868,1464,34.573,-20.8287
651,-440,34.5552,19.9827,0.00281312,0.00124172,-0.00123279,0.0034893,0.000565543,-0.501688,0.00216248,0.025988,1875,1464,34.5552,-19.9827
658,-440,34.6147,19.0127,0,0,0,0,0,0,0,-1,1882,1464,34.6147,-19.0128
665,-440,24.2067,12.5813,0,0,0,0,0,0,0,-1,1889,1464,24.2067,-12.5813
672,-440,18.9385,9.6394,0,0,0,0,0,0,0,-1,1896,1464,18.9384,-9.63939
679,-440,16.9508,10.2336,0,0,0,0,0,0,0,-1,1903,1464,16.9508,-10.2337
686,-440,15.2556,8.44177,0,0,0,0,0,0,0,-1,1910,1464,15.2556,-8.44177
693,-440,9.88635,2.89795,0,0,0,0,0,0,0,-1,1917,1464,9.88638,-2.89798
700,-440,7.07825,-2.62061,0,0,0,0,0,0,0,-1,1924,1464,7.07829,2.62057
707,-440,0,0,0,0,0,0,0,0,0,-1,1931,1464,0,0
714,-440,0,0,0,0,0,0,0,0,0,-1,1938,1464,0,0
721,-440,0,0,0,0,0,0,0,0,0,-1,1945,1464,0,0
728,-440,0,0,0,0,0,0,0,0,0,-1,1952,1464,0,0
735,-440,0,0,0,0,0,0,0,0,0,-1,1959,1464,0,0
742,-440,0,0,0,0,0,0,0,0,0,-1,1966,1464,0,0
749,-440,0,0,0,0,0,0,0,0,0,-1,1973,1464,0,0
756,-440,0,0,0,0,0,0,0,0,0,-1,1980,1464,0,0
763,-440,0,0,0,0,0,0,0,0,0,-1,1987,1464,0,0
770,-440,0,0,0,0,0,0,0,0,0,-1,1994,1464,0,0
777,-440,0,0,0,0,0,0,0,0,0,-1,2001,1464,0,0
784,-440,0,0,0,0,0,0,0,0,0,-1,2008,1464,0,0
791,-440,0,0,0,0,0,0,0,0,0,-1,2015,1464,0,0
798,-440,0,0,0,0,0,0,0,0,0,-1,2022,1464,0,0
805,-440,0,0,0,0,0,0,0,0,0,-1,2029,1464,0,0
812,-440,0,0,0,0,0,0,0,0,0,-1,2036,1464,0,0
-700,-447,0,0,0,0,0,0,0,0,0,-1,524,1471,0,0
-693,-447,0,0,0,0,0,0,0,0,0,-1,531,1471,0,0
-686,-447,0,0,0,0,0,0,0,0,0,-1,538,1471,0,0
-679,-447,0,0,0,0,0,0,0,0,0,-1,545,1471,0,0
-672,-447,0,0,0,0,0,0,0,0,0,-1,552,1471,0,0
-665,-447,0,0,0,0,0,0,0,0,0,-1,559,1471,0,0
-658,-447,0,0,0,0,0,0,0,0,0,-1,566,1471,0,0
-651,-447,0,0,0,0,0,0,0,0,0,-1,573,1471,0,0
-644,-447,0,0,0,0,0,0,0,0,0,-1,580,1471,0,0
-637,-447,0,0,0,0,0,0,0,0,0,-1,587,1471,0,0
-630,-447,0,0,0,0,0,0,0,0,0,-1,594,1471,0,0
-623,-447,0,0,0,0,0,0,0,0,0,-1,601,1471,0,0
-616,-447,0,0,0,0,0,0,0,0,0,-1,608,1471,0,0
-609,-447,0,0,0,0,0,0,0,0,0,-1,615,1471,0,0
-602,-447,0,0,0,0,0,0,0,0,0,-1,622,1471,0,0
-595,-447,0,0,0,0,0,0,0,0,0,-1,629,1471,0,0
-588,-447,0,0,0,0,0,0,0,0,0,-1,636,1471,0,0
-581,-447,-7.06482,-1.50476,0,0,0,0,0,0,0,-1,643,1471,-7.0648,1.50474
-574,-447,-6.88092,-0.00585938,0,0,0,0,0,0,0,-1,650,1471,-6.88095,0.00589852
-567,-447,-6.8205,-1.32178,0,0,0,0,0,0,0,-1,657,1471,-6.82047,1.32172
-560,-447,-8.85748,2.80774,0,0,0,0,0,0,0,-1,664,1471,-8.85748,-2.80775
-553,-447,-7.60486,3.26794,0,0,0,0,0,0,0,-1,671,1471,-7.60487,-3.26799
-546,-447,-3.94501,1.8656,0,0,0,0,0,0,0,-1,678,1471,-3.945,-1.86554
-539,-447,-5.35492,4.50024,0,0,0,0,0,0,0,-1,685,1471,-5.35492,-4.50018
-532,-447,-6.12781,8.81091,0,0,0,0,0,0,0,-1,692,1471,-6.12781,-8.81094
-525,-447,-9.44501,12.098,0,0,0,0,0,0,0,-1,699,1471,-9.44502,-12.098
-518,-447,-16.2733,19.5612,0,0,0,0,0,0,0,-1,706,1471,-16.2732,-19.5612
-511,-447,-16.2034,20.4857,0.00462891,0.00571898,0.00567805,0.0108781,-0.0005302,0.833247,0.0074351,0.0304693,713,1471,-16.2034,-20.4858
-504,-447,-16.1833,21.4426,0.0036656,0.00439269,0.00443891,0.00848292,-0.000424622,0.826257,0.005802,0.0201238,720,1471,-16.1833,-21.4426
-497,-447,-16.2946,22.2485,0.00277436,0.00322529,0.0033056,0.00631311,-0.00031346,0.819449,0.00431702,0.0255963,727,1471,-16.2946,-22.2485
-490,-447,-16.3137,22.9681,0.00201277,0.00224279,0.00230735,0.004438,-0.000182438,0.810299,0.00302131,0.0254555,734,1471,-16.3137,-22.9681
-483,-447,-16.3945,23.812,0.00145774,0.00147987,0.0015117,0.00298055,-4.29377e-05,0.789057,0.0020015,0.0221679,741,1471,-16.3945,-23.8121
-476,-447,-16.4141,24.6615,0.00109208,0.00100173,0.000958548,0.00200652,8.7293e-05,0.761853,0.00130955,0.0157103,748,1471,-16.4141,-24.6615
-469,-447,-16.4606,25.4948,0.000878901,0.000787962,0.00060177,0.00143692,0.000229946,0.74769,0.000891239,0.0141954,755,1471,-16.4606,-25.4948
-462,-447,-16.5129,26.3313,0.000936149,0.000901074,0.000543183,0.00146208,0.000375145,0.769261,0.000876841,0.0128574,762,1471,-16.5129,-26.3312
-455,-447,-16.5994,27.1249,0.00130787,0.0013842,0.000817981,0.00216491,0.000527163,0.808713,0.00130358,0.0258814,769,1471,-16.5994,-27.1249
-448,-447,-16.4908,28.1448,0,0,0,0,0,0,0,-1,776,1471,-16.4909,-28.1447
-441,-447,-8.68506,19.0931,0,0,0,0,0,0,0,-1,783,1471,-8.68504,-19.0932
-434,-447,-7.43402,15.6273,0,0,0,0,0,0,0,-1,790,1471,-7.43404,-15.6274
-427,-447,-7.21832,14.691,0,0,0,0,0,0,0,-1,797,1471,-7.21834,-14.6911
-420,-447,-8.0545,12.8055,0,0,0,0,0,0,0,-1,804,1471,-8.05452,-12.8055
-413,-447,-4.27393,6.59705,0,0,0,0,0,0,0,-1,811,1471,-4.27392,-6.59707
-406,-447,-1.04279,6.18591,0,0,0,0,0,0,0,-1,818,1471,-1.04276,-6.18586
-399,-447,0.0134888,0.687622,0,0,0,0,0,0,0,-1,825,1471,0.0134841,-0.68767
-392,-447,-14.0646,3.76147,0,0,0,0,0,0,0,-1,832,1471,-14.0646,-3.7615
-385,-447,-15.1695,2.61865,0,0,0,0,0,0,0,-1,839,1471,-15.1695,-2.61871
-378,-447,-15.9424,1.49316,0,0,0,0,0,0,0,-1,846,1471,-15.9424,-1.49313
-371,-447,-17.3655,0.73291,0,0,0,0,0,0,0,-1,853,1471,-17.3655,-0.732946
-364,-447,0,0,0,0,0,0,0,0,0,-1,860,1471,0,0
-357,-447,0,0,0,0,0,0,0,0,0,-1,867,1471,0,0
-350,-447,0,0,0,0,0,0,0,0,0,-1,874,1471,0,0
-343,-447,0,0,0,0,0,0,0,0,0,-1,881,1471,0,0
-336,-447,0,0,0,0,0,0,0,0,0,-1,888,1471,0,0
-329,-447,0,0,0,0,0,0,0,0,0,-1,895,1471,0,0
-322,-447,0,0,0,0,0,0,0,0,0,-1,902,1471,0,0
-315,-447,0,0,0,0,0,0,0,0,0,-1,909,1471,0,0
-308,-447,0,0,0,0,0,0,0,0,0,-1,916,1471,0,0
-301,-447,0,0,0,0,0,0,0,0,0,-1,923,1471,0,0
-294,-447,0,0,0,0,0,0,0,0,0,-1,930,1471,0,0
-287,-447,0,0,0,0,0,0,0,0,0,-1,937,1471,0,0
-280,-447,0,0,0,0,0,0,0,0,0,-1,944,1471,0,0
-273,-447,0,0,0,0,0,0,0,0,0,-1,951,1471,0,0
-266,-447,0,0,0,0,0,0,0,0,0,-1,958,1471,0,0
-259,-447,0,0,0,0,0,0,0,0,0,-1,965,1471,0,0
-252,-447,0,0,0,0,0,0,0,0,0,-1,972,1471,0,0
-245,-447,0,0,0,0,0,0,0,0,0,-1,979,1471,0,0
-238,-447,0,0,0,0,0,0,0,0,0,-1,986,1471,0,0
-231,-447,0,0,0,0,0,0,0,0,0,-1,993,1471,0,0
-224,-447,0,0,0,0,0,0,0,0,0,-1,1000,1471,0,0
-217,-447,0,0,0,0,0,0,0,0,0,-1,1007,1471,0,0
-210,-447,0,0,0,0,0,0,0,0,0,-1,1014,1471,0,0
-203,-447,0,0,0,0,0,0,0,0,0,-1,1021,1471,0,0
-196,-447,0,0,0,0,0,0,0,0,0,-1,1028,1471,0,0
-189,-447,0,0,0,0,0,0,0,0,0,-1,1035,1471,0,0
-182,-447,0,0,0,0,0,0,0,0,0,-1,1042,1471,0,0
-175,-447,0,0,0,0,0,0,0,0,0,-1,1049,1471,0,0
-168,-447,0,0,0,0,0,0,0,0,0,-1,1056,1471,0,0
-161,-447,0,0,0,0,0,0,0,0,0,-1,1063,1471,0,0
-154,-447,0,0,0,0,0,0,0,0,0,-1,1070,1471,0,0
-147,-447,0,0,0,0,0,0,0,0,0,-1,1077,1471,0,0
-140,-447,0,0,0,0,0,0,0,0,0,-1,1084,1471,0,0
-133,-447,0,0,0,0,0,0,0,0,0,-1,1091,1471,0,0
-126,-447,0,0,0,0,0,0,0,0,0,-1,1098,1471,0,0
-119,-447,0,0,0,0,0,0,0,0,0,-1,1105,1471,0,0
-112,-447,0,0,0,0,0,0,0,0,0,-1,1112,1471,0,0
-105,-447,0,0,0,0,0,0,0,0,0,-1,1119,1471,0,0
-98,-447,0,0,0,0,0,0,0,0,0,-1,1126,1471,0,0
-91,-447,0,0,0,0,0,0,0,0,0,-1,1133,1471,0,0
-84,-447,0,0,0,0,0,0,0,0,0,-1,1140,1471,0,0
-77,-447,0,0,0,0,0,0,0,0,0,-1,1147,1471,0,0
-70,-447,0,0,0,0,0,0,0,0,0,-1,1154,1471,0,0
-63,-447,0,0,0,0,0,0,0,0,0,-1,1161,1471,0,0
-56,-447,0,0,0,0,0,0,0,0,0,-1,1168,1471,0,0
-49,-447,0,0,0,0,0,0,0,0,0,-1,1175,1471,0,0
-42,-447,0,0,0,0,0,0,0,0,0,-1,1182,1471,0,0
-35,-447,0,0,0,0,0,0,0,0,0,-1,1189,1471,0,0
-28,-447,0,0,0,0,0,0,0,0,0,-1,1196,1471,0,0
-21,-447,0,0,0,0,0,0,0,0,0,-1,1203,1471,0,0
-14,-447,0,0,0,0,0,0,0,0,0,-1,1210,1471,0,0
-7,-447,0,0,0,0,0,0,0,0,0,-1,1217,1471,0,0
0,-447,0,0,0,0,0,0,0,0,0,-1,1224,1471,0,0
7,-447,0,0,0,0,0,0,0,0,0,-1,1231,1471,0,0
14,-447,0,0,0,0,0,0,0,0,0,-1,1238,1471,0,0
21,-447,0,0,0,0,0,0,0,0,0,-1,1245,1471,0,0
28,-447,0,0,0,0,0,0,0,0,0,-1,1252,1471,0,0
35,-447,0,0,0,0,0,0,0,0,0,-1,1259,1471,0,0
42,-447,0,0,0,0,0,0,0,0,0,-1,1266,1471,0,0
49,-447,0,0,0,0,0,0,0,0,0,-1,1273,1471,0,0
56,-447,0,0,0,0,0,0,0,0,0,-1,1280,1471,0,0
63,-447,0,0,0,0,0,0,0,0,0,-1,1287,1471,0,0
70,-447,0,0,0,0,0,0,0,0,0,-1,1294,1471,0,0
77,-447,0,0,0,0,0,0,0,0,0,-1,1301,1471,0,0
84,-447,0,0,0,0,0,0,0,0,0,-1,1308,1471,0,0
91,-447,0,0,0,0,0,0,0,0,0,-1,1315,1471,0,0
98,-447,0,0,0,0,0,0,0,0,0,-1,1322,1471,0,0
105,-447,0,0,0,0,0,0,0,0,0,-1,1329,1471,0,0
112,-447,0,0,0,0,0,0,0,0,0,-1,1336,1471,0,0
119,-447,0,0,0,0,0,0,0,0,0,-1,1343,1471,0,0
126,-447,0,0,0,0,0,0,0,0,0,-1,1350,1471,0,0
133,-447,0,0,0,0,0,0,0,0,0,-1,1357,1471,0,0
140,-447,0,0,0,0,0,0,0,0,0,-1,1364,1471,0,0
147,-447,0,0,0,0,0,0,0,0,0,-1,1371,1471,0,0
154,-447,0,0,0,0,0,0,0,0,0,-1,1378,1471,0,0
161,-447,0,0,0,0,0,0,0,0,0,-1,1385,1471,0,0
168,-447,0,0,0,0,0,0,0,0,0,-1,1392,1471,0,0
175,-447,0,0,0,0,0,0,0,0,0,-1,1399,1471,0,0
182,-447,0,0,0,0,0,0,0,0,0,-1,1406,1471,0,0
189,-447,0,0,0,0,0,0,0,0,0,-1,1413,1471,0,0
196,-447,0,0,0,0,0,0,0,0,0,-1,1420,1471,0,0
203,-447,0,0,0,0,0,0,0,0,0,-1,1427,1471,0,0
210,-447,0,0,0,0,0,0,0,0,0,-1,1434,1471,0,0
217,-447,0,0,0,0,0,0,0,0,0,-1,1441,1471,0,0
224,-447,0,0,0,0,0,0,0,0,0,-1,1448,1471,0,0
231,-447,0,0,0,0,0,0,0,0,0,-1,1455,1471,0,0
238,-447,0,0,0,0,0,0,0,0,0,-1,1462,1471,0,0
245,-447,0,0,0,0,0,0,0,0,0,-1,1469,1471,0,0
252,-447,0,0,0,0,0,0,0,0,0,-1,1476,1471,0,0
259,-447,0,0,0,0,0,0,0,0,0,-1,1483,1471,0,0
266,-447,0,0,0,0,0,0,0,0,0,-1,1490,1471,0,0
273,-447,0,0,0,0,0,0,0,0,0,-1,1497,1471,0,0
280,-447,0,0,0,0,0,0,0,0,0,-1,1504,1471,0,0
287,-447,0,0,0,0,0,0,0,0,0,-1,1511,1471,0,0
294,-447,0,0,0,0,0,0,0,0,0,-1,1518,1471,0,0
301,-447,0,0,0,0,0,0,0,0,0,-1,1525,1471,0,0
308,-447,0,0,0,0,0,0,0,0,0,-1,1532,1471,0,0
315,-447,0,0,0,0,0,0,0,0,0,-1,1539,1471,0,0
322,-447,0,0,0,0,0,0,0,0,0,-1,1546,1471,0,0
329,-447,0,0,0,0,0,0,0,0,0,-1,1553,1471,0,0
336,-447,0,0,0,0,0,0,0,0,0,-1,1560,1471,0,0
343,-447,0,0,0,0,0,0,0,0,0,-1,1567,1471,0,0
350,-447,0,0,0,0,0,0,0,0,0,-1,1574,1471,0,0
357,-447,0,0,0,0,0,0,0,0,0,-1,1581,1471,0,0
364,-447,0,0,0,0,0,0,0,0,0,-1,1588,1471,0,0
371,-447,0,0,0,0,0,0,0,0,0,-1,1595,1471,0,0
378,-447,0,0,0,0,0,0,0,0,0,-1,1602,1471,0,0
385,-447,0,0,0,0,0,0,0,0,0,-1,1609,1471,0,0
392,-447,0,0,0,0,0,0,0,0,0,-1,1616,1471,0,0
399,-447,0,0,0,0,0,0,0,0,0,-1,1623,1471,0,0
406,-447,0,0,0,0,0,0,0,0,0,-1,1630,1471,0,0
413,-447,0,0,0,0,0,0,0,0,0,-1,1637,1471,0,0
420,-447,0,0,0,0,0,0,0,0,0,-1,1644,1471,0,0
427,-447,0,0,0,0,0,0,0,0,0,-1,1651,1471,0,0
434,-447,0,0,0,0,0,0,0,0,0,-1,1658,1471,0,0
441,-447,0,0,0,0,0,0,0,0,0,-1,1665,1471,0,0
448,-447,0,0,0,0,0,0,0,0,0,-1,1672,1471,0,0
455,-447,0,0,0,0,0,0,0,0,0,-1,1679,1471,0,0
462,-447,0,0,0,0,0,0,0,0,0,-1,1686,1471,0,0
469,-447,0,0,0,0,0,0,0,0,0,-1,1693,1471,0,0
476,-447,0,0,0,0,0,0,0,0,0,-1,1700,1471,0,0
483,-447,0,0,0,0,0,0,0,0,0,-1,1707,1471,0,0
490,-447,18.2214,-0.810303,0,0,0,0,0,0,0,-1,1714,1471,18.2215,0.810307
497,-447,17.0237,0.352417,0,0,0,0,0,0,0,-1,1721,1471,17.0237,-0.352442
504,-447,15.8998,1.53479,0,0,0,0,0,0,0,-1,1728,1471,15.8997,-1.53478
511,-447,14.7201,2.76111,0,0,0,0,0,0,0,-1,1735,1471,14.7201,-2.76107
518,-447,17.7618,13.2864,0,0,0,0,0,0,0,-1,1742,1471,17.7619,-13.2863
525,-447,17.1191,11.9014,0,0,0,0,0,0,0,-1,1749,1471,17.1191,-11.9013
532,-447,16.3959,10.0455,0,0,0,0,0,0,0,-1,1756,1471,16.3959,-10.0456
539,-447,14.1699,10.0204,0,0,0,0,0,0,0,-1,1763,1471,14.1699,-10.0204
546,-447,16.3715,11.8046,0,0,0,0,0,0,0,-1,1770,1471,16.3714,-11.8046
553,-447,17.5106,13.4012,0,0,0,0,0,0,0,-1,1777,1471,17.5107,-13.4012
560,-447,17.0187,13.168,0,0,0,0,0,0,0,-1,1784,1471,17.0187,-13.168
567,-447,18.9286,15.1703,0,0,0,0,0,0,0,-1,1791,1471,18.9286,-15.1703
574,-447,32.1848,27.6504,0,0,0,0,0,0,0,-1,1798,1471,32.1848,-27.6503
581,-447,33.821,28.1216,0,0,0,0,0,0,0,-1,1805,1471,33.8211,-28.1215
588,-447,34.0302,27.2267,0.00506698,0.00187918,-0.00230898,0.00627877,0.000667391,-0.483303,0.00398207,0.0393997,1812,1471,34.0301,-27.2266
595,-447,34.0444,26.3713,0.00387666,0.00163993,-0.00200295,0.00505232,0.000464269,-0.530779,0.00322462,0.0144441,1819,1471,34.0444,-26.3714
602,-447,33.9832,25.5579,0.00301782,0.0012115,-0.001546,0.00390514,0.000324177,-0.521041,0.00250238,0.0120965,1826,1471,33.9832,-25.5579
609,-447,33.9386,24.7666,0.00238864,0.000821208,-0.00110779,0.00296191,0.000247936,-0.477542,0.00189737,0.0133953,1833,1471,33.9386,-24.7666
616,-447,33.9155,23.9844,0.00188924,0.000613679,-0.000776178,0.00225605,0.000246862,-0.441484,0.00142888,0.0151024,1840,1471,33.9156,-23.9844
623,-447,33.8707,23.213,0.00168285,0.000355659,-0.000448485,0.00182019,0.000218319,-0.297163,0.00114763,0.0168046,1847,1471,33.8707,-23.2131
630,-447,33.823,22.4272,0.00170283,0.000116743,-0.000209308,0.00172998,8.95865e-05,-0.129023,0.00112465,0.0109394,1854,1471,33.823,-22.4273
637,-447,33.8218,21.639,0.00182171,0.000104883,-0.000104784,0.00182808,9.85112e-05,-0.0607327,0.00118725,0.0110619,1861,1471,33.8218,-21.639
644,-447,33.795,20.8619,0.00214711,0.000383796,-0.000248664,0.00218151,0.0003494,-0.137451,0.00135299,0.0128285,1868,1471,33.795,-20.8619
651,-447,33.7869,19.9833,0,0,0,0,0,0,0,-1,1875,1471,33.7868,-19.9832
658,-447,30.2566,16.5862,0,0,0,0,0,0,0,-1,1882,1471,30.2566,-16.5862
665,-447,18.4946,9.79919,0,0,0,0,0,0,0,-1,1889,1471,18.4946,-9.79922
672,-447,18.9784,9.66077,0,0,0,0,0,0,0,-1,1896,1471,18.9784,-9.66081
679,-447,14.844,7.4248,0,0,0,0,0,0,0,-1,1903,1471,14.844,-7.42477
686,-447,9.81079,4.30859,0,0,0,0,0,0,0,-1,1910,1471,9.8108,-4.30864
693,-447,10.48,2.08643,0,0,0,0,0,0,0,-1,1917,1471,10.48,-2.08642
700,-447,0,0,0,0,0,0,0,0,0,-1,1924,1471,0,0
707,-447,0,0,0,0,0,0,0,0,0,-1,1931,1471,0,0
714,-447,0,0,0,0,0,0,0,0,0,-1,1938,1471,0,0
721,-447,0,0,0,0,0,0,0,0,0,-1,1945,1471,0,0
728,-447,0,0,0,0,0,0,0,0,0,-1,1952,1471,0,0
735,-447,0,0,0,0,0,0,0,0,0,-1,1959,1471,0,0
742,-447,0,0,0,0,0,0,0,0,0,-1,1966,1471,0,0
749,-447,0,0,0,0,0,0,0,0,0,-1,1973,1471,0,0
756,-447,0,0,0,0,0,0,0,0,0,-1,1980,1471,0,0
763,-447,0,0,0,0,0,0,0,0,0,-1,1987,1471,0,0
770,-447,0,0,0,0,0,0,0,0,0,-1,1994,1471,0,0
777,-447,0,0,0,0,0,0,0,0,0,-1,2001,1471,0,0
784,-447,0,0,0,0,0,0,0,0,0,-1,2008,1471,0,0
791,-447,0,0,0,0,0,0,0,0,0,-1,2015,1471,0,0
798,-447,0,0,0,0,0,0,0,0,0,-1,2022,1471,0,0
805,-447,0,0,0,0,0,0,0,0,0,-1,2029,1471,0,0
812,-447,0,0,0,0,0,0,0,0,0,-1,2036,1471,0,0
-700,-454,0,0,0,0,0,0,0,0,0,-1,524,1478,0,0
-693,-454,0,0,0,0,0,0,0,0,0,-1,531,1478,0,0
-686,-454,0,0,0,0,0,0,0,0,0,-1,538,1478,0,0
-679,-454,0,0,0,0,0,0,0,0,0,-1,545,1478,0,0
-672,-454,0,0,0,0,0,0,0,0,0,-1,552,1478,0,0
-665,-454,0,0,0,0,0,0,0,0,0,-1,559,1478,0,0
-658,-454,0,0,0,0,0,0,0,0,0,-1,566,1478,0,0
-651,-454,0,0,0,0,0,0,0,0,0,-1,573,1478,0,0
-644,-454,0,0,0,0,0,0,0,0,0,-1,580,1478,0,0
-637,-454,0,0,0,0,0,0,0,0,0,-1,587,1478,0,0
-630,-454,0,0,0,0,0,0,0,0,0,-1,594,1478,0,0
-623,-454,0,0,0,0,0,0,0,0,0,-1,601,1478,0,0
-616,-454,0,0,0,0,0,0,0,0,0,-1,608,1478,0,0
-609,-454,0,0,0,0,0,0,0,0,0,-1,615,1478,0,0
-602,-454,0,0,0,0,0,0,0,0,0,-1,622,1478,0,0
-595,-454,0,0,0,0,0,0,0,0,0,-1,629,1478,0,0
-588,-454,0,0,0,0,0,0,0,0,0,-1,636,1478,0,0
-581,-454,0,0,0,0,0,0,0,0,0,-1,643,1478,0,0
-574,-454,-8.4881,-0.465942,0,0,0,0,0,0,0,-1,650,1478,-8.4881,0.465885
-567,-454,-8.10046,0.922974,0,0,0,0,0,0,0,-1,657,1478,-8.10047,-0.923034
-560,-454,-10.656,3.51172,0,0,0,0,0,0,0,-1,664,1478,-10.656,-3.51176
-553,-454,-9.01129,3.95251,0,0,0,0,0,0,0,-1,671,1478,-9.0113,-3.95256
-546,-454,-9.61896,6.05237,0,0,0,0,0,0,0,-1,678,1478,-9.61897,-6.05239
-539,-454,-7.72589,4.96533,0,0,0,0,0,0,0,-1,685,1478,-7.72592,-4.96532
-532,-454,-7.03931,7.59985,0,0,0,0,0,0,0,-1,692,1478,-7.03929,-7.59981
-525,-454,-5.78723,9.677,0,0,0,0,0,0,0,-1,699,1478,-5.78722,-9.67703
-518,-454,-9.82098,13.8295,0,0,0,0,0,0,0,-1,706,1478,-9.82098,-13.8295
-511,-454,-15.5017,20.5004,0,0,0,0,0,0,0,-1,713,1478,-15.5017,-20.5003
-504,-454,-15.4133,21.4188,0.00449476,0.00549043,0.00565214,0.0106666,-0.000681431,0.829324,0.00734876,0.0219237,720,1478,-15.4132,-21.4189
-497,-454,-15.4869,22.3151,0.0034476,0.00405146,0.00428214,0.0080423,-0.000543239,0.820595,0.00555148,0.0197524,727,1478,-15.4869,-22.3151
-490,-454,-15.5208,23.1147,0.00256752,0.00288,0.00309277,0.00582048,-0.000372953,0.810636,0.00401042,0.0184609,734,1478,-15.5207,-23.1148
-483,-454,-15.561,23.9192,0.00187195,0.00194438,0.00211232,0.0040208,-0.000204467,0.79397,0.00275122,0.015702,741,1478,-15.561,-23.9192
-476,-454,-15.6317,24.7234,0.00138902,0.00135505,0.00142351,0.00279564,-5.15741e-05,0.779431,0.00188119,0.0154394,748,1478,-15.6317,-24.7234
-469,-454,-15.6633,25.5601,0.00108426,0.00107296,0.000968899,0.00204752,0.000109695,0.78248,0.00132996,0.0118807,755,1478,-15.6633,-25.5601
-462,-454,-15.7195,26.3828,0.00105614,0.0011222,0.000824084,0.00191391,0.000264423,0.805426,0.00119757,0.0110312,762,1478,-15.7195,-26.3829
-455,-454,-15.7811,27.183,0.00135393,0.00154271,0.00104586,0.00249843,0.000398209,0.830402,0.00155003,0.0120636,769,1478,-15.781,-27.183
-448,-454,-15.7831,28.0294,0.0021309,0.00264586,0.00194335,0.00434871,0.000428044,0.851261,0.00276752,0.0276347,776,1478,-15.7831,-28.0294
-441,-454,-15.6107,29.0381,0,0,0,0,0,0,0,-1,783,1478,-15.6107,-29.038
-434,-454,-7.55743,19.4857,0,0,0,0,0,0,0,-1,790,1478,-7.55746,-19.4858
-427,-454,-6.00183,15.8636,0,0,0,0,0,0,0,-1,797,1478,-6.00184,-15.8637
-420,-454,-6.28088,15.2135,0,0,0,0,0,0,0,-1,804,1478,-6.28087,-15.2135
-413,-454,-5.4408,13.674,0,0,0,0,0,0,0,-1,811,1478,-5.44079,-13.6739
-406,-454,-2.38208,10.0308,0,0,0,0,0,0,0,-1,818,1478,-2.38209,-10.0308
-399,-454,-1.21033,6.95447,0,0,0,0,0,0,0,-1,825,1478,-1.21035,-6.95452
-392,-454,0.0967407,0.985474,0,0,0,0,0,0,0,-1,832,1478,0.0967364,-0.985529
-385,-454,2.38629,3.297,0,0,0,0,0,0,0,-1,839,1478,2.38629,-3.29702
-378,-454,-15.9756,2.83997,0,0,0,0,0,0,0,-1,846,1478,-15.9756,-2.83994
-371,-454,-17.2753,2.01453,0,0,0,0,0,0,0,-1,853,1478,-17.2753,-2.01455
-364,-454,1.08124,0.819458,0,0,0,0,0,0,0,-1,860,1478,1.08124,-0.819513
-357,-454,0,0,0,0,0,0,0,0,0,-1,867,1478,0,0
-350,-454,0,0,0,0,0,0,0,0,0,-1,874,1478,0,0
-343,-454,0,0,0,0,0,0,0,0,0,-1,881,1478,0,0
-336,-454,0,0,0,0,0,0,0,0,0,-1,888,1478,0,0
-329,-454,0,0,0,0,0,0,0,0,0,-1,895,1478,0,0
-322,-454,0,0,0,0,0,0,0,0,0,-1,902,1478,0,0
-315,-454,0,0,0,0,0,0,0,0,0,-1,909,1478,0,0
-308,-454,0,0,0,0,0,0,0,0,0,-1,916,1478,0,0
-301,-454,0,0,0,0,0,0,0,0,0,-1,923,1478,0,0
-294,-454,0,0,0,0,0,0,0,0,0,-1,930,1478,0,0
-287,-454,0,0,0,0,0,0,0,0,0,-1,937,1478,0,0
-280,-454,0,0,0,0,0,0,0,0,0,-1,944,1478,0,0
-273,-454,0,0,0,0,0,0,0,0,0,-1,951,1478,0,0
-266,-454,0,0,0,0,0,0,0,0,0,-1,958,1478,0,0
-259,-454,0,0,0,0,0,0,0,0,0,-1,965,1478,0,0
-252,-454,0,0,0,0,0,0,0,0,0,-1,972,1478,0,0
-245,-454,0,0,0,0,0,0,0,0,0,-1,979,1478,0,0
-238,-454,0,0,0,0,0,0,0,0,0,-1,986,1478,0,0
-231,-454,0,0,0,0,0,0,0,0,0,-1,993,1478,0,0
-224,-454,0,0,0,0,0,0,0,0,0,-1,1000,1478,0,0
-217,-454,0,0,0,0,0,0,0,0,0,-1,1007,1478,0,0
-210,-454,0,0,0,0,0,0,0,0,0,-1,1014,1478,0,0
-203,-454,0,0,0,0,0,0,0,0,0,-1,1021,1478,0,0
-196,-454,0,0,0,0,0,0,0,0,0,-1,1028,1478,0,0
-189,-454,0,0,0,0,0,0,0,0,0,-1,1035,1478,0,0
-182,-454,0,0,0,0,0,0,0,0,0,-1,1042,1478,0,0
-175,-454,0,0,0,0,0,0,0,0,0,-1,1049,1478,0,0
-168,-454,0,0,0,0,0,0,0,0,0,-1,1056,1478,0,0
-161,-454,0,0,0,0,0,0,0,0,0,-1,1063,1478,0,0
-154,-454,0,0,0,0,0,0,0,0,0,-1,1070,1478,0,0
-147,-454,0,0,0,0,0,0,0,0,0,-1,1077,1478,0,0
-140,-454,0,0,0,0,0,0,0,0,0,-1,1084,1478,0,0
-133,-454,0,0,0,0,0,0,0,0,0,-1,1091,1478,0,0
-126,-454,0,0,0,0,0,0,0,0,0,-1,1098,1478,0,0
-119,-454,0,0,0,0,0,0,0,0,0,-1,1105,1478,0,0
-112,-454,0,0,0,0,0,0,0,0,0,-1,1112,1478,0,0
-105,-454,0,0,0,0,0,0,0,0,0,-1,1119,1478,0,0
-98,-454,0,0,0,0,0,0,0,0,0,-1,1126,1478,0,0
-91,-454,0,0,0,0,0,0,0,0,0,-1,1133,1478,0,0
-84,-454,0,0,0,0,0,0,0,0,0,-1,1140,1478,0,0
-77,-454,0,0,0,0,0,0,0,0,0,-1,1147,1478,0,0
-70,-454,0,0,0,0,0,0,0,0,0,-1,1154,1478,0,0
-63,-454,0,0,0,0,0,0,0,0,0,-1,1161,1478,0,0
-56,-454,0,0,0,0,0,0,0,0,0,-1,1168,1478,0,0
-49,-454,0,0,0,0,0,0,0,0,0,-1,1175,1478,0,0
-42,-454,0,0,0,0,0,0,0,0,0,-1,1182,1478,0,0
-35,-454,0,0,0,0,0,0,0,0,0,-1,1189,1478,0,0
-28,-454,0,0,0,0,0,0,0,0,0,-1,1196,1478,0,0
-21,-454,0,0,0,0,0,0,0,0,0,-1,1203,1478,0,0
-14,-454,0,0,0,0,0,0,0,0,0,-1,1210,1478,0,0
-7,-454,0,0,0,0,0,0,0,0,0,-1,1217,1478,0,0
0,-454,0,0,0,0,0,0,0,0,0,-1,1224,1478,0,0
7,-454,0,0,0,0,0,0,0,0,0,-1,1231,1478,0,0
14,-454,0,0,0,0,0,0,0,0,0,-1,1238,1478,0,0
21,-454,0,0,0,0,0,0,0,0,0,-1,1245,1478,0,0
28,-454,0,0,0,0,0,0,0,0,0,-1,1252,1478,0,0
35,-454,0,0,0,0,0,0,0,0,0,-1,1259,1478,0,0
42,-454,0,0,0,0,0,0,0,0,0,-1,1266,1478,0,0
49,-454,0,0,0,0,0,0,0,0,0,-1,1273,1478,0,0
56,-454,0,0,0,0,0,0,0,0,0,-1,1280,1478,0,0
63,-454,0,0,0,0,0,0,0,0,0,-1,1287,1478,0,0
70,-454,0,0,0,0,0,0,0,0,0,-1,1294,1478,0,0
77,-454,0,0,0,0,0,0,0,0,0,-1,1301,1478,0,0
84,-454,0,0,0,0,0,0,0,0,0,-1,1308,1478,0,0
91,-454,0,0,0,0,0,0,0,0,0,-1,1315,1478,0,0
98,-454,0,0,0,0,0,0,0,0,0,-1,1322,1478,0,0
105,-454,0,0,0,0,0,0,0,0,0,-1,1329,1478,0,0
112,-454,0,0,0,0,0,0,0,0,0,-1,1336,1478,0,0
119,-454,0,0,0,0,0,0,0,0,0,-1,1343,1478,0,0
126,-454,0,0,0,0,0,0,0,0,0,-1,1350,1478,0,0
133,-454,0,0,0,0,0,0,0,0,0,-1,1357,1478,0,0
140,-454,0,0,0,0,0,0,0,0,0,-1,1364,1478,0,0
147,-454,0,0,0,0,0,0,0,0,0,-1,1371,1478,0,0
154,-454,0,0,0,0,0,0,0,0,0,-1,1378,1478,0,0
161,-454,0,0,0,0,0,0,0,0,0,-1,1385,1478,0,0
168,-454,0,0,0,0,0,0,0,0,0,-1,1392,1478,0,0
175,-454,0,0,0,0,0,0,0,0,0,-1,1399,1478,0,0
182,-454,0,0,0,0,0,0,0,0,0,-1,1406,1478,0,0
189,-454,0,0,0,0,0,0,0,0,0,-1,1413,1478,0,0
196,-454,0,0,0,0,0,0,0,0,0,-1,1420,1478,0,0
203,-454,0,0,0,0,0,0,0,0,0,-1,1427,1478,0,0
210,-454,0,0,0,0,0,0,0,0,0,-1,1434,1478,0,0
217,-454,0,0,0,0,0,0,0,0,0,-1,1441,1478,0,0
224,-454,0,0,0,0,0,0,0,0,0,-1,1448,1478,0,0
231,-454,0,0,0,0,0,0,0,0,0,-1,1455,1478,0,0
238,-454,0,0,0,0,0,0,0,0,0,-1,1462,1478,0,0
245,-454,0,0,0,0,0,0,0,0,0,-1,1469,1478,0,0
252,-454,0,0,0,0,0,0,0,0,0,-1,1476,1478,0,0
259,-454,0,0,0,0,0,0,0,0,0,-1,1483,1478,0,0
266,-454,0,0,0,0,0,0,0,0,0,-1,1490,1478,0,0
273,-454,0,0,0,0,0,0,0,0,0,-1,1497,1478,0,0
280,-454,0,0,0,0,0,0,0,0,0,-1,1504,1478,0,0
287,-454,0,0,0,0,0,0,0,0,0,-1,1511,1478,0,0
294,-454,0,0,0,0,0,0,0,0,0,-1,1518,1478,0,0
301,-454,0,0,0,0,0,0,0,0,0,-1,1525,1478,0,0
308,-454,0,0,0,0,0,0,0,0,0,-1,1532,1478,0,0
315,-454,0,0,0,0,0,0,0,0,0,-1,1539,1478,0,0
322,-454,0,0,0,0,0,0,0,0,0,-1,1546,1478,0,0
329,-454,0,0,0,0,0,0,0,0,0,-1,1553,1478,0,0
336,-454,0,0,0,0,0,0,0,0,0,-1,1560,1478,0,0
343,-454,0,0,0,0,0,0,0,0,0,-1,1567,1478,0,0
350,-454,0,0,0,0,0,0,0,0,0,-1,1574,1478,0,0
357,-454,0,0,0,0,0,0,0,0,0,-1,1581,1478,0,0
364,-454,0,0,0,0,0,0,0,0,0,-1,1588,1478,0,0
371,-454,0,0,0,0,0,0,0,0,0,-1,1595,1478,0,0
378,-454,0,0,0,0,0,0,0,0,0,-1,1602,1478,0,0
385,-454,0,0,0,0,0,0,0,0,0,-1,1609,1478,0,0
392,-454,0,0,0,0,0,0,0,0,0,-1,1616,1478,0,0
399,-454,0,0,0,0,0,0,0,0,0,-1,1623,1478,0,0
406,-454,0,0,0,0,0,0,0,0,0,-1,1630,1478,0,0
413,-454,0,0,0,0,0,0,0,0,0,-1,1637,1478,0,0
420,-454,0,0,0,0,0,0,0,0,0,-1,1644,1478,0,0
427,-454,0,0,0,0,0,0,0,0,0,-1,1651,1478,0,0
434,-454,0,0,0,0,0,0,0,0,0,-1,1658,1478,0,0
441,-454,0,0,0,0,0,0,0,0,0,-1,1665,1478,0,0
448,-454,0,0,0,0,0,0,0,0,0,-1,1672,1478,0,0
455,-454,0,0,0,0,0,0,0,0,0,-1,1679,1478,0,0
462,-454,0,0,0,0,0,0,0,0,0,-1,1686,1478,0,0
469,-454,0,0,0,0,0,0,0,0,0,-1,1693,1478,0,0
476,-454,0,0,0,0,0,0,0,0,0,-1,1700,1478,0,0
483,-454,14.2399,3.97498,0,0,0,0,0,0,0,-1,1707,1478,14.2399,-3.97502
490,-454,18.1821,-0.175781,0,0,0,0,0,0,0,-1,1714,1478,18.1821,0.175822
497,-454,16.8854,1.01208,0,0,0,0,0,0,0,-1,1721,1478,16.8854,-1.01209
504,-454,15.587,2.05994,0,0,0,0,0,0,0,-1,1728,1478,15.5871,-2.05998
511,-454,17.0273,14.5258,0,0,0,0,0,0,0,-1,1735,1478,17.0273,-14.5258
518,-454,16.4158,13.1039,0,0,0,0,0,0,0,-1,1742,1478,16.4157,-13.1038
525,-454,15.7842,11.6628,0,0,0,0,0,0,0,-1,1749,1478,15.7841,-11.6629
532,-454,15.1094,10.2476,0,0,0,0,0,0,0,-1,1756,1478,15.1094,-10.2475
539,-454,13.7905,10.9373,0,0,0,0,0,0,0,-1,1763,1478,13.7906,-10.9372
546,-454,16.2002,13.2458,0,0,0,0,0,0,0,-1,1770,1478,16.2002,-13.2459
553,-454,15.6747,12.1868,0,0,0,0,0,0,0,-1,1777,1478,15.6747,-12.1868
560,-454,16.3895,14.0527,0,0,0,0,0,0,0,-1,1784,1478,16.3895,-14.0528
567,-454,33.4495,29.5762,0,0,0,0,0,0,0,-1,1791,1478,33.4495,-29.5761
574,-454,33.1454,29.0934,0,0,0,0,0,0,0,-1,1798,1478,33.1454,-29.0934
581,-454,33.2622,28.0531,0.0058762,0.00150839,-0.00206862,0.00670039,0.000684198,-0.379148,0.00425722,0.0336223,1805,1478,33.2621,-28.0531
588,-454,33.3191,27.1826,0.00457776,0.00140574,-0.00186572,0.00544049,0.000543007,-0.433128,0.00346022,0.0150747,1812,1478,33.3191,-27.1826
595,-454,33.2505,26.4017,0.00355784,0.00118512,-0.00159492,0.00435925,0.000383707,-0.465626,0.00278708,0.012564,1819,1478,33.2505,-26.4017
602,-454,33.1967,25.6162,0.00279053,0.000836193,-0.00123408,0.00338747,0.000239252,-0.450532,0.00218294,0.0093597,1826,1478,33.1966,-25.6162
609,-454,33.175,24.8391,0.00224307,0.000533511,-0.000866359,0.00260535,0.000171234,-0.396063,0.00168273,0.0115609,1833,1478,33.175,-24.8391
616,-454,33.1471,24.0573,0.00182744,0.000375287,-0.000562909,0.00202009,0.00018264,-0.32974,0.00129016,0.0144236,1840,1478,33.1471,-24.0573
623,-454,33.1277,23.2924,0.00167124,0.000108586,-0.000208887,0.00169868,8.11449e-05,-0.13062,0.0011064,0.015417,1847,1478,33.1277,-23.2924
630,-454,33.0939,22.5044,0.00169358,-0.0001424,0.000128397,0.00170251,-0.000151336,0.0694832,0.00118867,0.0157722,1854,1478,33.0939,-22.5045
637,-454,33.0093,21.7177,0.00180511,-0.000194641,0.000363883,0.00186927,-0.000258796,0.174514,0.0013408,0.0131814,1861,1478,33.0093,-21.7176
644,-454,33.0583,20.9087,0.00209276,3.04168e-05,0.000399381,0.0021674,-4.42235e-05,0.184759,0.0014599,0.0290896,1868,1478,33.0583,-20.9087
651,-454,33.1337,20.0514,0,0,0,0,0,0,0,-1,1875,1478,33.1337,-20.0514
658,-454,17.2583,10.0765,0,0,0,0,0,0,0,-1,1882,1478,17.2583,-10.0765
665,-454,17.683,9.67566,0,0,0,0,0,0,0,-1,1889,1478,17.683,-9.67572
672,-454,16.5476,6.41931,0,0,0,0,0,0,0,-1,1896,1478,16.5476,-6.41929
679,-454,14.2161,5.45007,0,0,0,0,0,0,0,-1,1903,1478,14.2161,-5.45013
686,-454,10.3767,2.12842,0,0,0,0,0,0,0,-1,1910,1478,10.3767,-2.12839
693,-454,11.1857,1.48486,0,0,0,0,0,0,0,-1,1917,1478,11.1857,-1.48487
700,-454,0,0,0,0,0,0,0,0,0,-1,1924,1478,0,0
707,-454,0,0,0,0,0,0,0,0,0,-1,1931,1478,0,0
714,-454,0,0,0,0,0,0,0,0,0,-1,1938,1478,0,0
721,-454,0,0,0,0,0,0,0,0,0,-1,1945,1478,0,0
728,-454,0,0,0,0,0,0,0,0,0,-1,1952,1478,0,0
735,-454,0,0,0,0,0,0,0,0,0,-1,1959,1478,0,0
742,-454,0,0,0,0,0,0,0,0,0,-1,1966,1478,0,0
749,-454,0,0,0,0,0,0,0,0,0,-1,1973,1478,0,0
756,-454,0,0,0,0,0,0,0,0,0,-1,1980,1478,0,0
763,-454,0,0,0,0,0,0,0,0,0,-1,1987,1478,0,0
770,-454,0,0,0,0,0,0,0,0,0,-1,1994,1478,0,0
777,-454,0,0,0,0,0,0,0,0,0,-1,2001,1478,0,0
784,-454,0,0,0,0,0,0,0,0,0,-1,2008,1478,0,0
791,-454,0,0,0,0,0,0,0,0,0,-1,2015,1478,0,0
798,-454,0,0,0,0,0,0,0,0,0,-1,2022,1478,0,0
805,-454,0,0,0,0,0,0,0,0,0,-1,2029,1478,0,0
812,-454,0,0,0,0,0,0,0,0,0,-1,2036,1478,0,0
-700,-461,0,0,0,0,0,0,0,0,0,-1,524,1485,0,0
-693,-461,0,0,0,0,0,0,0,0,0,-1,531,1485,0,0
-686,-461,0,0,0,0,0,0,0,0,0,-1,538,1485,0,0
-679,-461,0,0,0,0,0,0,0,0,0,-1,545,1485,0,0
-672,-461,0,0,0,0,0,0,0,0,0,-1,552,1485,0,0
-665,-461,0,0,0,0,0,0,0,0,0,-1,559,1485,0,0
-658,-461,0,0,0,0,0,0,0,0,0,-1,566,1485,0,0
-651,-461,0,0,0,0,0,0,0,0,0,-1,573,1485,0,0
-644,-461,0,0,0,0,0,0,0,0,0,-1,580,1485,0,0
-637,-461,0,0,0,0,0,0,0,0,0,-1,587,1485,0,0
-630,-461,0,0,0,0,0,0,0,0,0,-1,594,1485,0,0
-623,-461,0,0,0,0,0,0,0,0,0,-1,601,1485,0,0
-616,-461,0,0,0,0,0,0,0,0,0,-1,608,1485,0,0
-609,-461,0,0,0,0,0,0,0,0,0,-1,615,1485,0,0
-602,-461,0,0,0,0,0,0,0,0,0,-1,622,1485,0,0
-595,-461,0,0,0,0,0,0,0,0,0,-1,629,1485,0,0
-588,-461,0,0,0,0,0,0,0,0,0,-1,636,1485,0,0
-581,-461,0,0,0,0,0,0,0,0,0,-1,643,1485,0,0
-574,-461,0,0,0,0,0,0,0,0,0,-1,650,1485,0,0
-567,-461,-9.69031,0.513306,0,0,0,0,0,0,0,-1,657,1485,-9.69032,-0.513305
-560,-461,-7.28815,1.54004,0,0,0,0,0,0,0,-1,664,1485,-7.28817,-1.54005
-553,-461,-11.9607,5.27783,0,0,0,0,0,0,0,-1,671,1485,-11.9607,-5.27778
-546,-461,-11.4215,4.44666,0,0,0,0,0,0,0,-1,678,1485,-11.4215,-4.4467
-539,-461,-9.36493,5.23438,0,0,0,0,0,0,0,-1,685,1485,-9.3649,-5.23432
-532,-461,-7.82898,6.78357,0,0,0,0,0,0,0,-1,692,1485,-7.829,-6.78363
-525,-461,-6.37878,8.75659,0,0,0,0,0,0,0,-1,699,1485,-6.3788,-8.75659
-518,-461,-6.49695,10.886,0,0,0,0,0,0,0,-1,706,1485,-6.49696,-10.8859
-511,-461,-14.8646,20.3335,0,0,0,0,0,0,0,-1,713,1485,-14.8645,-20.3335
-504,-461,-14.6948,21.3466,0.00566965,0.0068713,0.00710369,0.0133995,-0.000858584,0.827587,0.00923253,0.0485656,720,1485,-14.6947,-21.3466
-497,-461,-14.6518,22.3419,0.00432723,0.0050715,0.00537363,0.0100859,-0.000687138,0.819969,0.00696426,0.0114588,727,1485,-14.6518,-22.3419
-490,-461,-14.6918,23.1578,0.00321847,0.00365756,0.00391873,0.00736289,-0.000486858,0.813381,0.00507866,0.0124105,734,1485,-14.6918,-23.1578
-483,-461,-14.7407,23.9755,0.00231219,0.00248527,0.00269335,0.00509347,-0.000296002,0.801458,0.00349849,0.0122985,741,1485,-14.7407,-23.9754
-476,-461,-14.8174,24.7831,0.00167913,0.00171983,0.00183695,0.00353654,-0.000137588,0.790937,0.00240487,0.0114954,748,1485,-14.8174,-24.7831
-469,-461,-14.8444,25.6018,0.00127575,0.00131739,0.00128682,0.00258356,9.57819e-06,0.793487,0.00171919,0.013867,755,1485,-14.8444,-25.6017
-462,-461,-14.8796,26.4196,0.0011616,0.00125662,0.00106868,0.00227885,0.000139372,0.807611,0.00147497,0.0199099,762,1485,-14.8796,-26.4196
-455,-461,-14.9495,27.2313,0.00135954,0.00156272,0.00122611,0.00269144,0.000230816,0.826732,0.00172252,0.0239681,769,1485,-14.9494,-27.2313
-448,-461,-14.9882,28.0315,0.00201357,0.00253816,0.00200877,0.00430169,0.000250047,0.850318,0.00278819,0.0233193,776,1485,-14.9882,-28.0315
-441,-461,-14.9966,28.822,0,0,0,0,0,0,0,-1,783,1485,-14.9966,-28.8221
-434,-461,-14.7299,29.9514,0,0,0,0,0,0,0,-1,790,1485,-14.7299,-29.9514
-427,-461,-8.26154,21.546,0,0,0,0,0,0,0,-1,797,1485,-8.26153,-21.5461
-420,-461,-5.70355,16.6116,0,0,0,0,0,0,0,-1,804,1485,-5.70353,-16.6115
-413,-461,-5.98798,16.0605,0,0,0,0,0,0,0,-1,811,1485,-5.98796,-16.0605
-406,-461,-5.52667,14.839,0,0,0,0,0,0,0,-1,818,1485,-5.52666,-14.839
-399,-461,-1.93439,9.82849,0,0,0,0,0,0,0,-1,825,1485,-1.9344,-9.82846
-392,-461,-0.357544,5.55225,0,0,0,0,0,0,0,-1,832,1485,-0.357536,-5.55228
-385,-461,1.71509,3.35254,0,0,0,0,0,0,0,-1,839,1485,1.71511,-3.35255
-378,-461,1.95996,3.01111,0,0,0,0,0,0,0,-1,846,1485,1.95993,-3.01111
-371,-461,0.702881,2.33459,0,0,0,0,0,0,0,-1,853,1485,0.702859,-2.33459
-364,-461,-1.93097,2.56458,0,0,0,0,0,0,0,-1,860,1485,-1.93095,-2.56456
-357,-461,-2.41516,3.49487,0,0,0,0,0,0,0,-1,867,1485,-2.41517,-3.49487
-350,-461,0,0,0,0,0,0,0,0,0,-1,874,1485,0,0
-343,-461,0,0,0,0,0,0,0,0,0,-1,881,1485,0,0
-336,-461,0,0,0,0,0,0,0,0,0,-1,888,1485,0,0
-329,-461,0,0,0,0,0,0,0,0,0,-1,895,1485,0,0
-322,-461,0,0,0,0,0,0,0,0,0,-1,902,1485,0,0
-315,-461,0,0,0,0,0,0,0,0,0,-1,909,1485,0,0
-308,-461,0,0,0,0,0,0,0,0,0,-1,916,1485,0,0
-301,-461,0,0,0,0,0,0,0,0,0,-1,923,1485,0,0
-294,-461,0,0,0,0,0,0,0,0,0,-1,930,1485,0,0
-287,-461,0,0,0,0,0,0,0,0,0,-1,937,1485,0,0
-280,-461,0,0,0,0,0,0,0,0,0,-1,944,1485,0,0
-273,-461,0,0,0,0,0,0,0,0,0,-1,951,1485,0,0
-266,-461,0,0,0,0,0,0,0,0,0,-1,958,1485,0,0
-259,-461,0,0,0,0,0,0,0,0,0,-1,965,1485,0,0
-252,-461,0,0,0,0,0,0,0,0,0,-1,972,1485,0,0
-245,-461,0,0,0,0,0,0,0,0,0,-1,979,1485,0,0
-238,-461,0,0,0,0,0,0,0,0,0,-1,986,1485,0,0
-231,-461,0,0,0,0,0,0,0,0,0,-1,993,1485,0,0
-224,-461,0,0,0,0,0,0,0,0,0,-1,1000,1485,0,0
-217,-461,0,0,0,0,0,0,0,0,0,-1,1007,1485,0,0
-210,-461,0,0,0,0,0,0,0,0,0,-1,1014,1485,0,0
-203,-461,0,0,0,0,0,0,0,0,0,-1,1021,1485,0,0
-196,-461,0,0,0,0,0,0,0,0,0,-1,1028,1485,0,0
-189,-461,0,0,0,0,0,0,0,0,0,-1,1035,1485,0,0
-182,-461,0,0,0,0,0,0,0,0,0,-1,1042,1485,0,0
-175,-461,0,0,0,0,0,0,0,0,0,-1,1049,1485,0,0
-168,-461,0,0,0,0,0,0,0,0,0,-1,1056,1485,0,0
-161,-461,0,0,0,0,0,0,0,0,0,-1,1063,1485,0,0
-154,-461,0,0,0,0,0,0,0,0,0,-1,1070,1485,0,0
-147,-461,0,0,0,0,0,0,0,0,0,-1,1077,1485,0,0
-140,-461,0,0,0,0,0,0,0,0,0,-1,1084,1485,0,0
-133,-461,0,0,0,0,0,0,0,0,0,-1,1091,1485,0,0
-126,-461,0,0,0,0,0,0,0,0,0,-1,1098,1485,0,0
-119,-461,0,0,0,0,0,0,0,0,0,-1,1105,1485,0,0
-112,-461,0,0,0,0,0,0,0,0,0,-1,1112,1485,0,0
-105,-461,0,0,0,0,0,0,0,0,0,-1,1119,1485,0,0
-98,-461,0,0,0,0,0,0,0,0,0,-1,1126,1485,0,0
-91,-461,0,0,0,0,0,0,0,0,0,-1,1133,1485,0,0
-84,-461,0,0,0,0,0,0,0,0,0,-1,1140,1485,0,0
-77,-461,0,0,0,0,0,0,0,0,0,-1,1147,1485,0,0
-70,-461,0,0,0,0,0,0,0,0,0,-1,1154,1485,0,0
-63,-461,0,0,0,0,0,0,0,0,0,-1,1161,1485,0,0
-56,-461,0,0,0,0,0,0,0,0,0,-1,1168,1485,0,0
-49,-461,0,0,0,0,0,0,0,0,0,-1,1175,1485,0,0
-42,-461,0,0,0,0,0,0,0,0,0,-1,1182,1485,0,0
-35,-461,0,0,0,0,0,0,0,0,0,-1,1189,1485,0,0
-28,-461,0,0,0,0,0,0,0,0,0,-1,1196,1485,0,0
-21,-461,0,0,0,0,0,0,0,0,0,-1,1203,1485,0,0
-14,-461,0,0,0,0,0,0,0,0,0,-1,1210,1485,0,0
-7,-461,0,0,0,0,0,0,0,0,0,-1,1217,1485,0,0
0,-461,0,0,0,0,0,0,0,0,0,-1,1224,1485,0,0
7,-461,0,0,0,0,0,0,0,0,0,-1,1231,1485,0,0
14,-461,0,0,0,0,0,0,0,0,0,-1,1238,1485,0,0
21,-461,0,0,0,0,0,0,0,0,0,-1,1245,1485,0,0
28,-461,0,0,0,0,0,0,0,0,0,-1,1252,1485,0,0
35,-461,0,0,0,0,0,0,0,0,0,-1,1259,1485,0,0
42,-461,0,0,0,0,0,0,0,0,0,-1,1266,1485,0,0
49,-461,0,0,0,0,0,0,0,0,0,-1,1273,1485,0,0
56,-461,0,0,0,0,0,0,0,0,0,-1,1280,1485,0,0
63,-461,0,0,0,0,0,0,0,0,0,-1,1287,1485,0,0
70,-461,0,0,0,0,0,0,0,0,0,-1,1294,1485,0,0
77,-461,0,0,0,0,0,0,0,0,0,-1,1301,1485,0,0
84,-461,0,0,0,0,0,0,0,0,0,-1,1308,1485,0,0
91,-461,0,0,0,0,0,0,0,0,0,-1,1315,1485,0,0
98,-461,0,0,0,0,0,0,0,0,0,-1,1322,1485,0,0
105,-461,0,0,0,0,0,0,0,0,0,-1,1329,1485,0,0
112,-461,0,0,0,0,0,0,0,0,0,-1,1336,1485,0,0
119,-461,0,0,0,0,0,0,0,0,0,-1,1343,1485,0,0
126,-461,0,0,0,0,0,0,0,0,0,-1,1350,1485,0,0
133,-461,0,0,0,0,0,0,0,0,0,-1,1357,1485,0,0
140,-461,0,0,0,0,0,0,0,0,0,-1,1364,1485,0,0
147,-461,0,0,0,0,0,0,0,0,0,-1,1371,1485,0,0
154,-461,0,0,0,0,0,0,0,0,0,-1,1378,1485,0,0
161,-461,0,0,0,0,0,0,0,0,0,-1,1385,1485,0,0
168,-461,0,0,0,0,0,0,0,0,0,-1,1392,1485,0,0
175,-461,0,0,0,0,0,0,0,0,0,-1,1399,1485,0,0
182,-461,0,0,0,0,0,0,0,0,0,-1,1406,1485,0,0
189,-461,0,0,0,0,0,0,0,0,0,-1,1413,1485,0,0
196,-461,0,0,0,0,0,0,0,0,0,-1,1420,1485,0,0
203,-461,0,0,0,0,0,0,0,0,0,-1,1427,1485,0,0
210,-461,0,0,0,0,0,0,0,0,0,-1,1434,1485,0,0
217,-461,0,0,0,0,0,0,0,0,0,-1,1441,1485,0,0
224,-461,0,0,0,0,0,0,0,0,0,-1,1448,1485,0,0
231,-461,0,0,0,0,0,0,0,0,0,-1,1455,1485,0,0
238,-461,0,0,0,0,0,0,0,0,0,-1,1462,1485,0,0
245,-461,0,0,0,0,0,0,0,0,0,-1,1469,1485,0,0
252,-461,0,0,0,0,0,0,0,0,0,-1,1476,1485,0,0
259,-461,0,0,0,0,0,0,0,0,0,-1,1483,1485,0,0
266,-461,0,0,0,0,0,0,0,0,0,-1,1490,1485,0,0
273,-461,0,0,0,0,0,0,0,0,0,-1,1497,1485,0,0
280,-461,0,0,0,0,0,0,0,0,0,-1,1504,1485,0,0
287,-461,0,0,0,0,0,0,0,0,0,-1,1511,1485,0,0
294,-461,0,0,0,0,0,0,0,0,0,-1,1518,1485,0,0
301,-461,0,0,0,0,0,0,0,0,0,-1,1525,1485,0,0
308,-461,0,0,0,0,0,0,0,0,0,-1,1532,1485,0,0
315,-461,0,0,0,0,0,0,0,0,0,-1,1539,1485,0,0
322,-461,0,0,0,0,0,0,0,0,0,-1,1546,1485,0,0
329,-461,0,0,0,0,0,0,0,0,0,-1,1553,1485,0,0
336,-461,0,0,0,0,0,0,0,0,0,-1,1560,1485,0,0
343,-461,0,0,0,0,0,0,0,0,0,-1,1567,1485,0,0
350,-461,0,0,0,0,0,0,0,0,0,-1,1574,1485,0,0
357,-461,0,0,0,0,0,0,0,0,0,-1,1581,1485,0,0
364,-461,0,0,0,0,0,0,0,0,0,-1,1588,1485,0,0
371,-461,0,0,0,0,0,0,0,0,0,-1,1595,1485,0,0
378,-461,0,0,0,0,0,0,0,0,0,-1,1602,1485,0,0
385,-461,0,0,0,0,0,0,0,0,0,-1,1609,1485,0,0
392,-461,0,0,0,0,0,0,0,0,0,-1,1616,1485,0,0
399,-461,0,0,0,0,0,0,0,0,0,-1,1623,1485,0,0
406,-461,0,0,0,0,0,0,0,0,0,-1,1630,1485,0,0
413,-461,0,0,0,0,0,0,0,0,0,-1,1637,1485,0,0
420,-461,0,0,0,0,0,0,0,0,0,-1,1644,1485,0,0
427,-461,0,0,0,0,0,0,0,0,0,-1,1651,1485,0,0
434,-461,0,0,0,0,0,0,0,0,0,-1,1658,1485,0,0
441,-461,0,0,0,0,0,0,0,0,0,-1,1665,1485,0,0
448,-461,0,0,0,0,0,0,0,0,0,-1,1672,1485,0,0
455,-461,0,0,0,0,0,0,0,0,0,-1,1679,1485,0,0
462,-461,0,0,0,0,0,0,0,0,0,-1,1686,1485,0,0
469,-461,0,0,0,0,0,0,0,0,0,-1,1693,1485,0,0
476,-461,14.1906,0.690552,0,0,0,0,0,0,0,-1,1700,1485,14.1906,-0.690525
483,-461,10.6361,3.09106,0,0,0,0,0,0,0,-1,1707,1485,10.6361,-3.091
490,-461,17.9972,0.665894,0,0,0,0,0,0,0,-1,1714,1485,17.9972,-0.665876
497,-461,16.6829,1.87732,0,0,0,0,0,0,0,-1,1721,1485,16.6828,-1.87736
504,-461,15.3884,3.09216,0,0,0,0,0,0,0,-1,1728,1485,15.3885,-3.09212
511,-461,15.4292,14.3512,0,0,0,0,0,0,0,-1,1735,1485,15.4292,-14.3512
518,-461,14.8081,10.0085,0,0,0,0,0,0,0,-1,1742,1485,14.8081,-10.0086
525,-461,14.0022,10.8033,0,0,0,0,0,0,0,-1,1749,1485,14.0022,-10.8033
532,-461,17.1704,14.077,0,0,0,0,0,0,0,-1,1756,1485,17.1704,-14.077
539,-461,17.0229,14.7386,0,0,0,0,0,0,0,-1,1763,1485,17.0229,-14.7387
546,-461,16.2106,14.1372,0,0,0,0,0,0,0,-1,1770,1485,16.2106,-14.1372
553,-461,25.9354,24.2889,0,0,0,0,0,0,0,-1,1777,1485,25.9354,-24.2889
560,-461,32.545,30.4214,0,0,0,0,0,0,0,-1,1784,1485,32.5451,-30.4214
567,-461,32.593,29.5204,0.00845425,0.00147702,-0.00211747,0.00904658,0.00088469,-0.272763,0.00575886,0.037278,1791,1485,32.593,-29.5203
574,-461,32.6034,28.8237,0.00658083,0.00136097,-0.00189151,0.00719418,0.000747616,-0.313568,0.00456736,0.0326094,1798,1485,32.6034,-28.8237
581,-461,32.5602,28.0131,0.00515954,0.00125326,-0.00172359,0.0058113,0.0006015,-0.361523,0.00369008,0.0194056,1805,1485,32.5601,-28.013
588,-461,32.517,27.2509,0.0040658,0.00108133,-0.00152534,0.00470744,0.000439691,-0.398185,0.00300248,0.0116132,1812,1485,32.5169,-27.2509
595,-461,32.4431,26.4808,0.00324132,0.000841278,-0.00127895,0.00379509,0.000287511,-0.408614,0.00243987,0.0092239,1819,1485,32.4431,-26.4808
602,-461,32.4175,25.6683,0.00260667,0.000529617,-0.000993025,0.00300503,0.000131259,-0.381502,0.00196106,0.00971209,1826,1485,32.4175,-25.6683
609,-461,32.3988,24.8679,0.00215581,0.000270458,-0.000680402,0.00237571,5.05572e-05,-0.312596,0.00156723,0.0112673,1833,1485,32.3988,-24.8679
616,-461,32.3641,24.0834,0.00183172,0.000110835,-0.000382067,0.00191274,2.98235e-05,-0.208941,0.00126533,0.0131328,1840,1485,32.3641,-24.0833
623,-461,32.354,23.3367,0.00170756,-0.000190474,1.37795e-05,0.00170766,-0.000190574,0.00725937,0.00120699,0.0173969,1847,1485,32.354,-23.3367
630,-461,32.3086,22.5916,0.00164712,-0.000463382,0.000470469,0.00174725,-0.000563508,0.209693,0.00139124,0.0182159,1854,1485,32.3086,-22.5916
637,-461,32.2377,21.7723,0.00163707,-0.000575444,0.000871424,0.00193907,-0.000877442,0.333605,0.00166417,0.0170272,1861,1485,32.2376,-21.7724
644,-461,32.274,21.0413,0.00168344,-0.000425137,0.00115391,0.00219217,-0.000933866,0.41524,0.00185292,0.0390847,1868,1485,32.2741,-21.0413
651,-461,32.3649,20.2295,0,0,0,0,0,0,0,-1,1875,1485,32.3649,-20.2295
658,-461,16.8987,10.1084,0,0,0,0,0,0,0,-1,1882,1485,16.8986,-10.1084
665,-461,17.2638,9.81384,0,0,0,0,0,0,0,-1,1889,1485,17.2638,-9.81385
672,-461,14.4877,6.89429,0,0,0,0,0,0,0,-1,1896,1485,14.4876,-6.89431
679,-461,10.0535,2.16321,0,0,0,0,0,0,0,-1,1903,1485,10.0535,-2.16317
686,-461,10.8195,1.84192,0,0,0,0,0,0,0,-1,1910,1485,10.8194,-1.84195
693,-461,0,0,0,0,0,0,0,0,0,-1,1917,1485,0,0
700,-461,0,0,0,0,0,0,0,0,0,-1,1924,1485,0,0
707,-461,0,0,0,0,0,0,0,0,0,-1,1931,1485,0,0
714,-461,0,0,0,0,0,0,0,0,0,-1,1938,1485,0,0
721,-461,0,0,0,0,0,0,0,0,0,-1,1945,1485,0,0
728,-461,0,0,0,0,0,0,0,0,0,-1,1952,1485,0,0
735,-461,0,0,0,0,0,0,0,0,0,-1,1959,1485,0,0
742,-461,0,0,0,0,0,0,0,0,0,-1,1966,1485,0,0
749,-461,0,0,0,0,0,0,0,0,0,-1,1973,1485,0,0
756,-461,0,0,0,0,0,0,0,0,0,-1,1980,1485,0,0
763,-461,0,0,0,0,0,0,0,0,0,-1,1987,1485,0,0
770,-461,0,0,0,0,0,0,0,0,0,-1,1994,1485,0,0
777,-461,0,0,0,0,0,0,0,0,0,-1,2001,1485,0,0
784,-461,0,0,0,0,0,0,0,0,0,-1,2008,1485,0,0
791,-461,0,0,0,0,0,0,0,0,0,-1,2015,1485,0,0
798,-461,0,0,0,0,0,0,0,0,0,-1,2022,1485,0,0
805,-461,0,0,0,0,0,0,0,0,0,-1,2029,1485,0,0
812,-461,0,0,0,0,0,0,0,0,0,-1,2036,1485,0,0
-700,-468,0,0,0,0,0,0,0,0,0,-1,524,1492,0,0
-693,-468,0,0,0,0,0,0,0,0,0,-1,531,1492,0,0
-686,-468,0,0,0,0,0,0,0,0,0,-1,538,1492,0,0
-679,-468,0,0,0,0,0,0,0,0,0,-1,545,1492,0,0
-672,-468,0,0,0,0,0,0,0,0,0,-1,552,1492,0,0
-665,-468,0,0,0,0,0,0,0,0,0,-1,559,1492,0,0
-658,-468,0,0,0,0,0,0,0,0,0,-1,566,1492,0,0
-651,-468,0,0,0,0,0,0,0,0,0,-1,573,1492,0,0
-644,-468,0,0,0,0,0,0,0,0,0,-1,580,1492,0,0
-637,-468,0,0,0,0,0,0,0,0,0,-1,587,1492,0,0
-630,-468,0,0,0,0,0,0,0,0,0,-1,594,1492,0,0
-623,-468,0,0,0,0,0,0,0,0,0,-1,601,1492,0,0
-616,-468,0,0,0,0,0,0,0,0,0,-1,608,1492,0,0
-609,-468,0,0,0,0,0,0,0,0,0,-1,615,1492,0,0
-602,-468,0,0,0,0,0,0,0,0,0,-1,622,1492,0,0
-595,-468,0,0,0,0,0,0,0,0,0,-1,629,1492,0,0
-588,-468,0,0,0,0,0,0,0,0,0,-1,636,1492,0,0
-581,-468,0,0,0,0,0,0,0,0,0,-1,643,1492,0,0
-574,-468,0,0,0,0,0,0,0,0,0,-1,650,1492,0,0
-567,-468,-11.2603,1.8042,0,0,0,0,0,0,0,-1,657,1492,-11.2603,-1.80424
-560,-468,-8.77441,2.23694,0,0,0,0,0,0,0,-1,664,1492,-8.77443,-2.23692
-553,-468,-5.94061,9.26318,0,0,0,0,0,0,0,-1,671,1492,-5.94062,-9.26322
-546,-468,-10.47,5.43237,0,0,0,0,0,0,0,-1,678,1492,-10.47,-5.4324
-539,-468,-10.2468,5.45203,0,0,0,0,0,0,0,-1,685,1492,-10.2468,-5.45197
-532,-468,-8.39795,6.02783,0,0,0,0,0,0,0,-1,692,1492,-8.39793,-6.02789
-525,-468,-6.59332,7.15405,0,0,0,0,0,0,0,-1,699,1492,-6.59331,-7.15411
-518,-468,-6.33588,8.65393,0,0,0,0,0,0,0,-1,706,1492,-6.33588,-8.65397
-511,-468,-8.05835,13.8282,0,0,0,0,0,0,0,-1,713,1492,-8.05835,-13.8283
-504,-468,-13.9094,21.243,0,0,0,0,0,0,0,-1,720,1492,-13.9094,-21.243
-497,-468,-13.8823,22.2666,0.00482054,0.00581605,0.00650852,0.0118458,-0.00120923,0.823563,0.0083296,0.0339867,727,1492,-13.8823,-22.2666
-490,-468,-13.8708,23.2092,0.00354528,0.00414958,0.00482584,0.00868272,-0.000987856,0.816663,0.00614429,0.00886378,734,1492,-13.8708,-23.2092
-483,-468,-13.9277,24.0186,0.00250417,0.00274745,0.00337124,0.00599924,-0.000747622,0.803431,0.00427057,0.00958388,741,1492,-13.9277,-24.0185
-476,-468,-13.9778,24.8419,0.00181368,0.00184237,0.00234512,0.00417319,-0.00051713,0.788457,0.00296955,0.00978752,748,1492,-13.9779,-24.842
-469,-468,-14.0114,25.6699,0.00141348,0.00139134,0.0016883,0.00309074,-0.000285924,0.782121,0.00216212,0.0137232,755,1492,-14.0114,-25.6699
-462,-468,-14.006,26.4911,0.00131506,0.00132817,0.00137324,0.00269487,-5.16347e-05,0.787784,0.00181403,0.0257273,762,1492,-14.006,-26.4911
-455,-468,-14.0804,27.2461,0.00151985,0.00163733,0.00142053,0.00300034,0.000156846,0.806061,0.00195005,0.0267982,769,1492,-14.0804,-27.2461
-448,-468,-14.1499,28.0669,0.00215664,0.00257409,0.00201804,0.00439417,0.000336559,0.83693,0.00282395,0.0160947,776,1492,-14.1499,-28.0668
-441,-468,-14.1847,28.8735,0.00312801,0.00390039,0.00298084,0.00651995,0.000508447,0.849818,0.00418745,0.016929,783,1492,-14.1847,-28.8735
-434,-468,-14.1331,29.8229,0.00451697,0.00566494,0.00441874,0.00954682,0.000635097,0.849986,0.00616376,0.0455165,790,1492,-14.1331,-29.8228
-427,-468,-13.9229,30.5776,0,0,0,0,0,0,0,-1,797,1492,-13.9228,-30.5776
-420,-468,-7.57581,22.0538,0,0,0,0,0,0,0,-1,804,1492,-7.57582,-22.0538
-413,-468,-5.30328,17.3519,0,0,0,0,0,0,0,-1,811,1492,-5.30329,-17.352
-406,-468,-2.2356,9.396,0,0,0,0,0,0,0,-1,818,1492,-2.2356,-9.396
-399,-468,-0.940369,8.1936,0,0,0,0,0,0,0,-1,825,1492,-0.940365,-8.19357
-392,-468,-0.35144,8.14673,0,0,0,0,0,0,0,-1,832,1492,-0.351449,-8.14674
-385,-468,0.465759,5.35864,0,0,0,0,0,0,0,-1,839,1492,0.465732,-5.35864
-378,-468,1.99835,3.25391,0,0,0,0,0,0,0,-1,846,1492,1.99837,-3.2539
-371,-468,-0.31842,3.1532,0,0,0,0,0,0,0,-1,853,1492,-0.318441,-3.15324
-364,-468,-0.966736,2.14563,0,0,0,0,0,0,0,-1,860,1492,-0.966735,-2.14557
-357,-468,-3.06787,3.22742,0,0,0,0,0,0,0,-1,867,1492,-3.06784,-3.2274
-350,-468,-3.18658,4.12659,0,0,0,0,0,0,0,-1,874,1492,-3.18659,-4.12658
-343,-468,0,0,0,0,0,0,0,0,0,-1,881,1492,0,0
-336,-468,0,0,0,0,0,0,0,0,0,-1,888,1492,0,0
-329,-468,0,0,0,0,0,0,0,0,0,-1,895,1492,0,0
-322,-468,0,0,0,0,0,0,0,0,0,-1,902,1492,0,0
-315,-468,0,0,0,0,0,0,0,0,0,-1,909,1492,0,0
-308,-468,0,0,0,0,0,0,0,0,0,-1,916,1492,0,0
-301,-468,0,0,0,0,0,0,0,0,0,-1,923,1492,0,0
-294,-468,0,0,0,0,0,0,0,0,0,-1,930,1492,0,0
-287,-468,0,0,0,0,0,0,0,0,0,-1,937,1492,0,0
-280,-468,0,0,0,0,0,0,0,0,0,-1,944,1492,0,0
-273,-468,0,0,0,0,0,0,0,0,0,-1,951,1492,0,0
-266,-468,0,0,0,0,0,0,0,0,0,-1,958,1492,0,0
-259,-468,0,0,0,0,0,0,0,0,0,-1,965,1492,0,0
-252,-468,0,0,0,0,0,0,0,0,0,-1,972,1492,0,0
-245,-468,0,0,0,0,0,0,0,0,0,-1,979,1492,0,0
-238,-468,0,0,0,0,0,0,0,0,0,-1,986,1492,0,0
-231,-468,0,0,0,0,0,0,0,0,0,-1,993,1492,0,0
-224,-468,0,0,0,0,0,0,0,0,0,-1,1000,1492,0,0
-217,-468,0,0,0,0,0,0,0,0,0,-1,1007,1492,0,0
-210,-468,0,0,0,0,0,0,0,0,0,-1,1014,1492,0,0
-203,-468,0,0,0,0,0,0,0,0,0,-1,1021,1492,0,0
-196,-468,0,0,0,0,0,0,0,0,0,-1,1028,1492,0,0
-189,-468,0,0,0,0,0,0,0,0,0,-1,1035,1492,0,0
-182,-468,0,0,0,0,0,0,0,0,0,-1,1042,1492,0,0
-175,-468,0,0,0,0,0,0,0,0,0,-1,1049,1492,0,0
-168,-468,0,0,0,0,0,0,0,0,0,-1,1056,1492,0,0
-161,-468,0,0,0,0,0,0,0,0,0,-1,1063,1492,0,0
-154,-468,0,0,0,0,0,0,0,0,0,-1,1070,1492,0,0
-147,-468,0,0,0,0,0,0,0,0,0,-1,1077,1492,0,0
-140,-468,0,0,0,0,0,0,0,0,0,-1,1084,1492,0,0
-133,-468,0,0,0,0,0,0,0,0,0,-1,1091,1492,0,0
-126,-468,0,0,0,0,0,0,0,0,0,-1,1098,1492,0,0
-119,-468,0,0,0,0,0,0,0,0,0,-1,1105,1492,0,0
-112,-468,0,0,0,0,0,0,0,0,0,-1,1112,1492,0,0
-105,-468,0,0,0,0,0,0,0,0,0,-1,1119,1492,0,0
-98,-468,0,0,0,0,0,0,0,0,0,-1,1126,1492,0,0
-91,-468,0,0,0,0,0,0,0,0,0,-1,1133,1492,0,0
-84,-468,0,0,0,0,0,0,0,0,0,-1,1140,1492,0,0
-77,-468,0,0,0,0,0,0,0,0,0,-1,1147,1492,0,0
-70,-468,0,0,0,0,0,0,0,0,0,-1,1154,1492,0,0
-63,-468,0,0,0,0,0,0,0,0,0,-1,1161,1492,0,0
-56,-468,0,0,0,0,0,0,0,0,0,-1,1168,1492,0,0
-49,-468,0,0,0,0,0,0,0,0,0,-1,1175,1492,0,0
-42,-468,0,0,0,0,0,0,0,0,0,-1,1182,1492,0,0
-35,-468,0,0,0,0,0,0,0,0,0,-1,1189,1492,0,0
-28,-468,0,0,0,0,0,0,0,0,0,-1,1196,1492,0,0
-21,-468,0,0,0,0,0,0,0,0,0,-1,1203,1492,0,0
-14,-468,0,0,0,0,0,0,0,0,0,-1,1210,1492,0,0
-7,-468,0,0,0,0,0,0,0,0,0,-1,1217,1492,0,0
0,-468,0,0,0,0,0,0,0,0,0,-1,1224,1492,0,0
7,-468,0,0,0,0,0,0,0,0,0,-1,1231,1492,0,0
14,-468,0,0,0,0,0,0,0,0,0,-1,1238,1492,0,0
21,-468,0,0,0,0,0,0,0,0,0,-1,1245,1492,0,0
28,-468,0,0,0,0,0,0,0,0,0,-1,1252,1492,0,0
35,-468,0,0,0,0,0,0,0,0,0,-1,1259,1492,0,0
42,-468,0,0,0,0,0,0,0,0,0,-1,1266,1492,0,0
49,-468,0,0,0,0,0,0,0,0,0,-1,1273,1492,0,0
56,-468,0,0,0,0,0,0,0,0,0,-1,1280,1492,0,0
63,-468,0,0,0,0,0,0,0,0,0,-1,1287,1492,0,0
70,-468,0,0,0,0,0,0,0,0,0,-1,1294,1492,0,0
77,-468,0,0,0,0,0,0,0,0,0,-1,1301,1492,0,0
84,-468,0,0,0,0,0,0,0,0,0,-1,1308,1492,0,0
91,-468,0,0,0,0,0,0,0,0,0,-1,1315,1492,0,0
98,-468,0,0,0,0,0,0,0,0,0,-1,1322,1492,0,0
105,-468,0,0,0,0,0,0,0,0,0,-1,1329,1492,0,0
112,-468,0,0,0,0,0,0,0,0,0,-1,1336,1492,0,0
119,-468,0,0,0,0,0,0,0,0,0,-1,1343,1492,0,0
126,-468,0,0,0,0,0,0,0,0,0,-1,1350,1492,0,0
133,-468,0,0,0,0,0,0,0,0,0,-1,1357,1492,0,0
140,-468,0,0,0,0,0,0,0,0,0,-1,1364,1492,0,0
147,-468,0,0,0,0,0,0,0,0,0,-1,1371,1492,0,0
154,-468,0,0,0,0,0,0,0,0,0,-1,1378,1492,0,0
161,-468,0,0,0,0,0,0,0,0,0,-1,1385,1492,0,0
168,-468,0,0,0,0,0,0,0,0,0,-1,1392,1492,0,0
175,-468,0,0,0,0,0,0,0,0,0,-1,1399,1492,0,0
182,-468,0,0,0,0,0,0,0,0,0,-1,1406,1492,0,0
189,-468,0,0,0,0,0,0,0,0,0,-1,1413,1492,0,0
196,-468,0,0,0,0,0,0,0,0,0,-1,1420,1492,0,0
203,-468,0,0,0,0,0,0,0,0,0,-1,1427,1492,0,0
210,-468,0,0,0,0,0,0,0,0,0,-1,1434,1492,0,0
217,-468,0,0,0,0,0,0,0,0,0,-1,1441,1492,0,0
224,-468,0,0,0,0,0,0,0,0,0,-1,1448,1492,0,0
231,-468,0,0,0,0,0,0,0,0,0,-1,1455,1492,0,0
238,-468,0,0,0,0,0,0,0,0,0,-1,1462,1492,0,0
245,-468,0,0,0,0,0,0,0,0,0,-1,1469,1492,0,0
252,-468,0,0,0,0,0,0,0,0,0,-1,1476,1492,0,0
259,-468,0,0,0,0,0,0,0,0,0,-1,1483,1492,0,0
266,-468,0,0,0,0,0,0,0,0,0,-1,1490,1492,0,0
273,-468,0,0,0,0,0,0,0,0,0,-1,1497,1492,0,0
280,-468,0,0,0,0,0,0,0,0,0,-1,1504,1492,0,0
287,-468,0,0,0,0,0,0,0,0,0,-1,1511,1492,0,0
294,-468,0,0,0,0,0,0,0,0,0,-1,1518,1492,0,0
301,-468,0,0,0,0,0,0,0,0,0,-1,1525,1492,0,0
308,-468,0,0,0,0,0,0,0,0,0,-1,1532,1492,0,0
315,-468,0,0,0,0,0,0,0,0,0,-1,1539,1492,0,0
322,-468,0,0,0,0,0,0,0,0,0,-1,1546,1492,0,0
329,-468,0,0,0,0,0,0,0,0,0,-1,1553,1492,0,0
336,-468,0,0,0,0,0,0,0,0,0,-1,1560,1492,0,0
343,-468,0,0,0,0,0,0,0,0,0,-1,1567,1492,0,0
350,-468,0,0,0,0,0,0,0,0,0,-1,1574,1492,0,0
357,-468,0,0,0,0,0,0,0,0,0,-1,1581,1492,0,0
364,-468,0,0,0,0,0,0,0,0,0,-1,1588,1492,0,0
371,-468,0,0,0,0,0,0,0,0,0,-1,1595,1492,0,0
378,-468,0,0,0,0,0,0,0,0,0,-1,1602,1492,0,0
385,-468,0,0,0,0,0,0,0,0,0,-1,1609,1492,0,0
392,-468,0,0,0,0,0,0,0,0,0,-1,1616,1492,0,0
399,-468,0,0,0,0,0,0,0,0,0,-1,1623,1492,0,0
406,-468,0,0,0,0,0,0,0,0,0,-1,1630,1492,0,0
413,-468,0,0,0,0,0,0,0,0,0,-1,1637,1492,0,0
420,-468,0,0,0,0,0,0,0,0,0,-1,1644,1492,0,0
427,-468,0,0,0,0,0,0,0,0,0,-1,1651,1492,0,0
434,-468,0,0,0,0,0,0,0,0,0,-1,1658,1492,0,0
441,-468,0,0,0,0,0,0,0,0,0,-1,1665,1492,0,0
448,-468,0,0,0,0,0,0,0,0,0,-1,1672,1492,0,0
455,-468,0,0,0,0,0,0,0,0,0,-1,1679,1492,0,0
462,-468,0,0,0,0,0,0,0,0,0,-1,1686,1492,0,0
469,-468,15.6879,1.2677,0,0,0,0,0,0,0,-1,1693,1492,15.6879,-1.26772
476,-468,14.9318,1.61865,0,0,0,0,0,0,0,-1,1700,1492,14.9318,-1.61869
483,-468,11.265,4.64795,0,0,0,0,0,0,0,-1,1707,1492,11.265,-4.64798
490,-468,12.1316,3.51624,0,0,0,0,0,0,0,-1,1714,1492,12.1316,-3.51628
497,-468,16.5355,3.14587,0,0,0,0,0,0,0,-1,1721,1492,16.5356,-3.14583
504,-468,15.0642,4.10437,0,0,0,0,0,0,0,-1,1728,1492,15.0643,-4.10431
511,-468,15.6877,9.4801,0,0,0,0,0,0,0,-1,1735,1492,15.6878,-9.48007
518,-468,13.759,11.0887,0,0,0,0,0,0,0,-1,1742,1492,13.759,-11.0887
525,-468,16.6531,14.2238,0,0,0,0,0,0,0,-1,1749,1492,16.653,-14.2237
532,-468,16.9696,15.9641,0,0,0,0,0,0,0,-1,1756,1492,16.9696,-15.9641
539,-468,21.5308,20.7551,0,0,0,0,0,0,0,-1,1763,1492,21.5308,-20.7551
546,-468,25.5796,25.0283,0,0,0,0,0,0,0,-1,1770,1492,25.5796,-25.0284
553,-468,31.5878,31.1185,0,0,0,0,0,0,0,-1,1777,1492,31.5878,-31.1185
560,-468,31.7898,30.3765,0.00979693,0.00261045,-0.00307809,0.0109351,0.0014723,-0.354167,0.00685221,0.0461114,1784,1492,31.7898,-30.3764
567,-468,31.8082,29.6703,0.00749479,0.00174166,-0.0021614,0.00821632,0.00102013,-0.322192,0.00517115,0.0252166,1791,1492,31.8082,-29.6702
574,-468,31.822,28.8335,0.00586059,0.00138731,-0.00180831,0.00650015,0.000747742,-0.339949,0.00410694,0.0165998,1798,1492,31.822,-28.8336
581,-468,31.7822,28.0691,0.00459097,0.00112838,-0.00155283,0.00518532,0.000534017,-0.365555,0.00329334,0.017224,1805,1492,31.7822,-28.0691
588,-468,31.7212,27.3162,0.003649,0.000885193,-0.00133823,0.00419077,0.000343423,-0.384672,0.0026867,0.0133179,1812,1492,31.7212,-27.3161
595,-468,31.6841,26.5323,0.0029805,0.000618478,-0.0010926,0.00340839,0.000190587,-0.373267,0.00221147,0.0107586,1819,1492,31.6841,-26.5324
602,-468,31.6442,25.7104,0.00246809,0.000334586,-0.000847563,0.00276381,3.88683e-05,-0.335697,0.00182972,0.00955127,1826,1492,31.6442,-25.7105
609,-468,31.5813,24.906,0.00211364,0.000109227,-0.000568027,0.00226342,-4.05532e-05,-0.257816,0.00152265,0.00980497,1833,1492,31.5813,-24.906
616,-468,31.5269,24.1229,0.00188859,-7.04598e-05,-0.000254363,0.00192107,-0.000102948,-0.127035,0.00131637,0.00961035,1840,1492,31.5268,-24.1229
623,-468,31.5186,23.3627,0.00181223,-0.000414851,0.000209012,0.00183167,-0.000434297,0.0927706,0.00138871,0.0114825,1847,1492,31.5186,-23.3627
630,-468,31.5128,22.5815,0.00172999,-0.000744519,0.000799953,0.00196607,-0.000980601,0.286975,0.00173269,0.0125479,1854,1492,31.5129,-22.5815
637,-468,31.4878,21.77,0.0016516,-0.000971557,0.00140421,0.00226149,-0.00158145,0.409747,0.00223027,0.0212377,1861,1492,31.4878,-21.77
644,-468,31.37,21.127,0.00154153,-0.00100956,0.00201429,0.00265019,-0.00211821,0.503144,0.00275874,0.0389967,1868,1492,31.37,-21.1269
651,-468,31.3896,20.3722,0,0,0,0,0,0,0,-1,1875,1492,31.3897,-20.3722
658,-468,16.4969,10.0774,0,0,0,0,0,0,0,-1,1882,1492,16.497,-10.0774
665,-468,15.4673,8.59546,0,0,0,0,0,0,0,-1,1889,1492,15.4672,-8.59548
672,-468,9.96814,3.61133,0,0,0,0,0,0,0,-1,1896,1492,9.96817,-3.61139
679,-468,11.2191,1.91968,0,0,0,0,0,0,0,-1,1903,1492,11.2191,-1.91965
686,-468,11.9252,1.42285,0,0,0,0,0,0,0,-1,1910,1492,11.9252,-1.42291
693,-468,0,0,0,0,0,0,0,0,0,-1,1917,1492,0,0
700,-468,0,0,0,0,0,0,0,0,0,-1,1924,1492,0,0
707,-468,0,0,0,0,0,0,0,0,0,-1,1931,1492,0,0
714,-468,0,0,0,0,0,0,0,0,0,-1,1938,1492,0,0
721,-468,0,0,0,0,0,0,0,0,0,-1,1945,1492,0,0
728,-468,0,0,0,0,0,0,0,0,0,-1,1952,1492,0,0
735,-468,0,0,0,0,0,0,0,0,0,-1,1959,1492,0,0
742,-468,0,0,0,0,0,0,0,0,0,-1,1966,1492,0,0
749,-468,0,0,0,0,0,0,0,0,0,-1,1973,1492,0,0
756,-468,0,0,0,0,0,0,0,0,0,-1,1980,1492,0,0
763,-468,0,0,0,0,0,0,0,0,0,-1,1987,1492,0,0
770,-468,0,0,0,0,0,0,0,0,0,-1,1994,1492,0,0
777,-468,0,0,0,0,0,0,0,0,0,-1,2001,1492,0,0
784,-468,0,0,0,0,0,0,0,0,0,-1,2008,1492,0,0
791,-468,0,0,0,0,0,0,0,0,0,-1,2015,1492,0,0
798,-468,0,0,0,0,0,0,0,0,0,-1,2022,1492,0,0
805,-468,0,0,0,0,0,0,0,0,0,-1,2029,1492,0,0
812,-468,0,0,0,0,0,0,0,0,0,-1,2036,1492,0,0
-700,-475,0,0,0,0,0,0,0,0,0,-1,524,1499,0,0
-693,-475,0,0,0,0,0,0,0,0,0,-1,531,1499,0,0
-686,-475,0,0,0,0,0,0,0,0,0,-1,538,1499,0,0
-679,-475,0,0,0,0,0,0,0,0,0,-1,545,1499,0,0
-672,-475,0,0,0,0,0,0,0,0,0,-1,552,1499,0,0
-665,-475,0,0,0,0,0,0,0,0,0,-1,559,1499,0,0
-658,-475,0,0,0,0,0,0,0,0,0,-1,566,1499,0,0
-651,-475,0,0,0,0,0,0,0,0,0,-1,573,1499,0,0
-644,-475,0,0,0,0,0,0,0,0,0,-1,580,1499,0,0
-637,-475,0,0,0,0,0,0,0,0,0,-1,587,1499,0,0
-630,-475,0,0,0,0,0,0,0,0,0,-1,594,1499,0,0
-623,-475,0,0,0,0,0,0,0,0,0,-1,601,1499,0,0
-616,-475,0,0,0,0,0,0,0,0,0,-1,608,1499,0,0
-609,-475,0,0,0,0,0,0,0,0,0,-1,615,1499,0,0
-602,-475,0,0,0,0,0,0,0,0,0,-1,622,1499,0,0
-595,-475,0,0,0,0,0,0,0,0,0,-1,629,1499,0,0
-588,-475,0,0,0,0,0,0,0,0,0,-1,636,1499,0,0
-581,-475,0,0,0,0,0,0,0,0,0,-1,643,1499,0,0
-574,-475,0,0,0,0,0,0,0,0,0,-1,650,1499,0,0
-567,-475,0,0,0,0,0,0,0,0,0,-1,657,1499,0,0
-560,-475,-9.42731,9.29517,0,0,0,0,0,0,0,-1,664,1499,-9.42731,-9.29519
-553,-475,-8.15131,8.78369,0,0,0,0,0,0,0,-1,671,1499,-8.15131,-8.78367
-546,-475,-8.41254,8.20654,0,0,0,0,0,0,0,-1,678,1499,-8.41251,-8.20655
-539,-475,-4.7345,4.17419,0,0,0,0,0,0,0,-1,685,1499,-4.73449,-4.17418
-532,-475,-7.07379,4.25024,0,0,0,0,0,0,0,-1,692,1499,-7.07378,-4.2503
-525,-475,-6.13147,5.82166,0,0,0,0,0,0,0,-1,699,1499,-6.1315,-5.8216
-518,-475,-7.28784,9.31506,0,0,0,0,0,0,0,-1,706,1499,-7.28782,-9.315
-511,-475,-6.84851,12.4244,0,0,0,0,0,0,0,-1,713,1499,-6.84851,-12.4244
-504,-475,-8.80957,16.0863,0,0,0,0,0,0,0,-1,720,1499,-8.80954,-16.0862
-497,-475,-13.2513,22.1331,0,0,0,0,0,0,0,-1,727,1499,-13.2513,-22.1331
-490,-475,-13.1002,23.1898,0.00465489,0.00378773,0.00581325,0.0100507,-0.00160808,0.748175,0.00729581,0.0206889,734,1499,-13.1001,-23.1898
-483,-475,-13.1113,24.095,0.00335668,0.00225067,0.00408152,0.00692249,-0.00131514,0.718063,0.0051101,0.00953867,741,1499,-13.1113,-24.095
-476,-475,-13.1557,24.9082,0.00244815,0.00132811,0.00284173,0.00478452,-0.00100826,0.68811,0.0035735,0.0118152,748,1499,-13.1557,-24.9082
-469,-475,-13.1969,25.7159,0.00185657,0.00096248,0.00205472,0.00351231,-0.000693262,0.678283,0.00260358,0.015866,755,1499,-13.1969,-25.716
-462,-475,-13.1909,26.5024,0.00155575,0.00103316,0.00162614,0.00294146,-0.000352542,0.705737,0.00208843,0.0220189,762,1499,-13.1908,-26.5025
-455,-475,-13.2596,27.3208,0.00154525,0.00147522,0.00155504,0.00306567,-4.51924e-05,0.774142,0.00205901,0.0187,769,1499,-13.2596,-27.3208
-448,-475,-13.3476,28.1383,0.00192919,0.00248712,0.00197415,0.00420192,0.000214392,0.855587,0.00273262,0.0161676,776,1499,-13.3476,-28.1383
-441,-475,-13.3845,28.9229,0.00259496,0.00382364,0.00271649,0.00599439,0.00042421,0.896604,0.00386263,0.0181312,783,1499,-13.3845,-28.9228
-434,-475,-13.4083,29.7308,0.00360779,0.00552708,0.00386337,0.0085482,0.000586664,0.907132,0.00551366,0.0125253,790,1499,-13.4082,-29.7309
-427,-475,-13.3456,30.6932,0.00509932,0.0078756,0.00555926,0.0122174,0.000757516,0.907746,0.00790454,0.0462635,797,1499,-13.3456,-30.6932
-420,-475,-13.2092,31.6208,0,0,0,0,0,0,0,-1,804,1499,-13.2092,-31.6209
-413,-475,-6.46777,20.8481,0,0,0,0,0,0,0,-1,811,1499,-6.46776,-20.8481
-406,-475,-2.56116,12.4956,0,0,0,0,0,0,0,-1,818,1499,-2.56116,-12.4956
-399,-475,-1.39667,6.1615,0,0,0,0,0,0,0,-1,825,1499,-1.39664,-6.16155
-392,-475,0.217163,8.61389,0,0,0,0,0,0,0,-1,832,1499,0.217167,-8.6139
-385,-475,1.18372,2.73999,0,0,0,0,0,0,0,-1,839,1499,1.18372,-2.73995
-378,-475,1.31409,2.90149,0,0,0,0,0,0,0,-1,846,1499,1.31411,-2.90151
-371,-475,2.3476,3.31116,0,0,0,0,0,0,0,-1,853,1499,2.34761,-3.31121
-364,-475,1.04462,9.05823,0,0,0,0,0,0,0,-1,860,1499,1.04461,-9.05825
-357,-475,-0.262756,7.97205,0,0,0,0,0,0,0,-1,867,1499,-0.262784,-7.97205
-350,-475,-5.16473,-1.27881,0,0,0,0,0,0,0,-1,874,1499,-5.16474,1.27884
-343,-475,-5.76923,-0.530518,0,0,0,0,0,0,0,-1,881,1499,-5.76923,0.530526
-336,-475,0,0,0,0,0,0,0,0,0,-1,888,1499,0,0
-329,-475,0,0,0,0,0,0,0,0,0,-1,895,1499,0,0
-322,-475,0,0,0,0,0,0,0,0,0,-1,902,1499,0,0
-315,-475,0,0,0,0,0,0,0,0,0,-1,909,1499,0,0
-308,-475,0,0,0,0,0,0,0,0,0,-1,916,1499,0,0
-301,-475,0,0,0,0,0,0,0,0,0,-1,923,1499,0,0
-294,-475,0,0,0,0,0,0,0,0,0,-1,930,1499,0,0
-287,-475,0,0,0,0,0,0,0,0,0,-1,937,1499,0,0
-280,-475,0,0,0,0,0,0,0,0,0,-1,944,1499,0,0
-273,-475,0,0,0,0,0,0,0,0,0,-1,951,1499,0,0
-266,-475,0,0,0,0,0,0,0,0,0,-1,958,1499,0,0
-259,-475,0,0,0,0,0,0,0,0,0,-1,965,1499,0,0
-252,-475,0,0,0,0,0,0,0,0,0,-1,972,1499,0,0
-245,-475,0,0,0,0,0,0,0,0,0,-1,979,1499,0,0
-238,-475,0,0,0,0,0,0,0,0,0,-1,986,1499,0,0
-231,-475,0,0,0,0,0,0,0,0,0,-1,993,1499,0,0
-224,-475,0,0,0,0,0,0,0,0,0,-1,1000,1499,0,0
-217,-475,0,0,0,0,0,0,0,0,0,-1,1007,1499,0,0
-210,-475,0,0,0,0,0,0,0,0,0,-1,1014,1499,0,0
-203,-475,0,0,0,0,0,0,0,0,0,-1,1021,1499,0,0
-196,-475,0,0,0,0,0,0,0,0,0,-1,1028,1499,0,0
-189,-475,0,0,0,0,0,0,0,0,0,-1,1035,1499,0,0
-182,-475,0,0,0,0,0,0,0,0,0,-1,1042,1499,0,0
-175,-475,0,0,0,0,0,0,0,0,0,-1,1049,1499,0,0
-168,-475,0,0,0,0,0,0,0,0,0,-1,1056,1499,0,0
-161,-475,0,0,0,0,0,0,0,0,0,-1,1063,1499,0,0
-154,-475,0,0,0,0,0,0,0,0,0,-1,1070,1499,0,0
-147,-475,0,0,0,0,0,0,0,0,0,-1,1077,1499,0,0
-140,-475,0,0,0,0,0,0,0,0,0,-1,1084,1499,0,0
-133,-475,0,0,0,0,0,0,0,0,0,-1,1091,1499,0,0
-126,-475,0,0,0,0,0,0,0,0,0,-1,1098,1499,0,0
-119,-475,0,0,0,0,0,0,0,0,0,-1,1105,1499,0,0
-112,-475,0,0,0,0,0,0,0,0,0,-1,1112,1499,0,0
-105,-475,0,0,0,0,0,0,0,0,0,-1,1119,1499,0,0
-98,-475,0,0,0,0,0,0,0,0,0,-1,1126,1499,0,0
-91,-475,0,0,0,0,0,0,0,0,0,-1,1133,1499,0,0
-84,-475,0,0,0,0,0,0,0,0,0,-1,1140,1499,0,0
-77,-475,0,0,0,0,0,0,0,0,0,-1,1147,1499,0,0
-70,-475,0,0,0,0,0,0,0,0,0,-1,1154,1499,0,0
-63,-475,0,0,0,0,0,0,0,0,0,-1,1161,1499,0,0
-56,-475,0,0,0,0,0,0,0,0,0,-1,1168,1499,0,0
-49,-475,0,0,0,0,0,0,0,0,0,-1,1175,1499,0,0
-42,-475,0,0,0,0,0,0,0,0,0,-1,1182,1499,0,0
-35,-475,0,0,0,0,0,0,0,0,0,-1,1189,1499,0,0
-28,-475,0,0,0,0,0,0,0,0,0,-1,1196,1499,0,0
-21,-475,0,0,0,0,0,0,0,0,0,-1,1203,1499,0,0
-14,-475,0,0,0,0,0,0,0,0,0,-1,1210,1499,0,0
-7,-475,0,0,0,0,0,0,0,0,0,-1,1217,1499,0,0
0,-475,0,0,0,0,0,0,0,0,0,-1,1224,1499,0,0
7,-475,0,0,0,0,0,0,0,0,0,-1,1231,1499,0,0
14,-475,0,0,0,0,0,0,0,0,0,-1,1238,1499,0,0
21,-475,0,0,0,0,0,0,0,0,0,-1,1245,1499,0,0
28,-475,0,0,0,0,0,0,0,0,0,-1,1252,1499,0,0
35,-475,0,0,0,0,0,0,0,0,0,-1,1259,1499,0,0
42,-475,0,0,0,0,0,0,0,0,0,-1,1266,1499,0,0
49,-475,0,0,0,0,0,0,0,0,0,-1,1273,1499,0,0
56,-475,0,0,0,0,0,0,0,0,0,-1,1280,1499,0,0
63,-475,0,0,0,0,0,0,0,0,0,-1,1287,1499,0,0
70,-475,0,0,0,0,0,0,0,0,0,-1,1294,1499,0,0
77,-475,0,0,0,0,0,0,0,0,0,-1,1301,1499,0,0
84,-475,0,0,0,0,0,0,0,0,0,-1,1308,1499,0,0
91,-475,0,0,0,0,0,0,0,0,0,-1,1315,1499,0,0
98,-475,0,0,0,0,0,0,0,0,0,-1,1322,1499,0,0
105,-475,0,0,0,0,0,0,0,0,0,-1,1329,1499,0,0
112,-475,0,0,0,0,0,0,0,0,0,-1,1336,1499,0,0
119,-475,0,0,0,0,0,0,0,0,0,-1,1343,1499,0,0
126,-475,0,0,0,0,0,0,0,0,0,-1,1350,1499,0,0
133,-475,0,0,0,0,0,0,0,0,0,-1,1357,1499,0,0
140,-475,0,0,0,0,0,0,0,0,0,-1,1364,1499,0,0
147,-475,0,0,0,0,0,0,0,0,0,-1,1371,1499,0,0
154,-475,0,0,0,0,0,0,0,0,0,-1,1378,1499,0,0
161,-475,0,0,0,0,0,0,0,0,0,-1,1385,1499,0,0
168,-475,0,0,0,0,0,0,0,0,0,-1,1392,1499,0,0
175,-475,0,0,0,0,0,0,0,0,0,-1,1399,1499,0,0
182,-475,0,0,0,0,0,0,0,0,0,-1,1406,1499,0,0
189,-475,0,0,0,0,0,0,0,0,0,-1,1413,1499,0,0
196,-475,0,0,0,0,0,0,0,0,0,-1,1420,1499,0,0
203,-475,0,0,0,0,0,0,0,0,0,-1,1427,1499,0,0
210,-475,0,0,0,0,0,0,0,0,0,-1,1434,1499,0,0
217,-475,0,0,0,0,0,0,0,0,0,-1,1441,1499,0,0
224,-475,0,0,0,0,0,0,0,0,0,-1,1448,1499,0,0
231,-475,0,0,0,0,0,0,0,0,0,-1,1455,1499,0,0
238,-475,0,0,0,0,0,0,0,0,0,-1,1462,1499,0,0
245,-475,0,0,0,0,0,0,0,0,0,-1,1469,1499,0,0
252,-475,0,0,0,0,0,0,0,0,0,-1,1476,1499,0,0
259,-475,0,0,0,0,0,0,0,0,0,-1,1483,1499,0,0
266,-475,0,0,0,0,0,0,0,0,0,-1,1490,1499,0,0
273,-475,0,0,0,0,0,0,0,0,0,-1,1497,1499,0,0
280,-475,0,0,0,0,0,0,0,0,0,-1,1504,1499,0,0
287,-475,0,0,0,0,0,0,0,0,0,-1,1511,1499,0,0
294,-475,0,0,0,0,0,0,0,0,0,-1,1518,1499,0,0
301,-475,0,0,0,0,0,0,0,0,0,-1,1525,1499,0,0
308,-475,0,0,0,0,0,0,0,0,0,-1,1532,1499,0,0
315,-475,0,0,0,0,0,0,0,0,0,-1,1539,1499,0,0
322,-475,0,0,0,0,0,0,0,0,0,-1,1546,1499,0,0
329,-475,0,0,0,0,0,0,0,0,0,-1,1553,1499,0,0
336,-475,0,0,0,0,0,0,0,0,0,-1,1560,1499,0,0
343,-475,0,0,0,0,0,0,0,0,0,-1,1567,1499,0,0
350,-475,0,0,0,0,0,0,0,0,0,-1,1574,1499,0,0
357,-475,0,0,0,0,0,0,0,0,0,-1,1581,1499,0,0
364,-475,0,0,0,0,0,0,0,0,0,-1,1588,1499,0,0
371,-475,0,0,0,0,0,0,0,0,0,-1,1595,1499,0,0
378,-475,0,0,0,0,0,0,0,0,0,-1,1602,1499,0,0
385,-475,0,0,0,0,0,0,0,0,0,-1,1609,1499,0,0
392,-475,0,0,0,0,0,0,0,0,0,-1,1616,1499,0,0
399,-475,0,0,0,0,0,0,0,0,0,-1,1623,1499,0,0
406,-475,0,0,0,0,0,0,0,0,0,-1,1630,1499,0,0
413,-475,0,0,0,0,0,0,0,0,0,-1,1637,1499,0,0
420,-475,0,0,0,0,0,0,0,0,0,-1,1644,1499,0,0
427,-475,0,0,0,0,0,0,0,0,0,-1,1651,1499,0,0
434,-475,0,0,0,0,0,0,0,0,0,-1,1658,1499,0,0
441,-475,0,0,0,0,0,0,0,0,0,-1,1665,1499,0,0
448,-475,0,0,0,0,0,0,0,0,0,-1,1672,1499,0,0
455,-475,0,0,0,0,0,0,0,0,0,-1,1679,1499,0,0
462,-475,12.6372,0.275391,0,0,0,0,0,0,0,-1,1686,1499,12.6372,-0.27536
469,-475,15.6437,2.28296,0,0,0,0,0,0,0,-1,1693,1499,15.6437,-2.28293
476,-475,15.3302,2.71436,0,0,0,0,0,0,0,-1,1700,1499,15.3303,-2.7143
483,-475,10.7461,5.91479,0,0,0,0,0,0,0,-1,1707,1499,10.7461,-5.91476
490,-475,11.9305,4.4364,0,0,0,0,0,0,0,-1,1714,1499,11.9305,-4.43644
497,-475,15.3451,4.3479,0,0,0,0,0,0,0,-1,1721,1499,15.3451,-4.34789
504,-475,16.9646,7.71265,0,0,0,0,0,0,0,-1,1728,1499,16.9646,-7.71265
511,-475,18.941,12.7572,0,0,0,0,0,0,0,-1,1735,1499,18.941,-12.7572
518,-475,17.0021,13.8564,0,0,0,0,0,0,0,-1,1742,1499,17.0021,-13.8564
525,-475,17.5637,15.2103,0,0,0,0,0,0,0,-1,1749,1499,17.5637,-15.2103
532,-475,20.8623,20.8413,0,0,0,0,0,0,0,-1,1756,1499,20.8623,-20.8413
539,-475,20.5494,20.8519,0,0,0,0,0,0,0,-1,1763,1499,20.5494,-20.852
546,-475,20.4524,19.8799,0,0,0,0,0,0,0,-1,1770,1499,20.4524,-19.8798
553,-475,30.7516,31.4625,0,0,0,0,0,0,0,-1,1777,1499,30.7516,-31.4625
560,-475,30.8912,30.592,0.00835729,0.00280072,-0.00300938,0.00967476,0.00148325,-0.412653,0.00601668,0.0343365,1784,1499,30.8913,-30.592
567,-475,31.0823,29.6603,0.00649221,0.00185729,-0.00212932,0.00732191,0.00102759,-0.371557,0.00457735,0.0171231,1791,1499,31.0822,-29.6603
574,-475,31.009,28.8722,0.0051596,0.00140025,-0.00174216,0.0058428,0.000717058,-0.373725,0.00367954,0.0158714,1798,1499,31.009,-28.8722
581,-475,30.9652,28.1364,0.00410031,0.00107544,-0.00146372,0.00469261,0.000483127,-0.384516,0.00298045,0.012752,1805,1499,30.9652,-28.1364
588,-475,30.9275,27.3483,0.00332764,0.00081768,-0.00126447,0.00385419,0.00029113,-0.394581,0.00247812,0.0105976,1812,1499,30.9275,-27.3482
595,-475,30.907,26.5585,0.00281377,0.00056567,-0.00104692,0.0032258,0.000153641,-0.374944,0.00210119,0.0111303,1819,1499,30.907,-26.5585
602,-475,30.8657,25.7725,0.00243542,0.000341257,-0.000864236,0.00274601,3.06618e-05,-0.345012,0.00182054,0.0128736,1826,1499,30.8658,-25.7725
609,-475,30.8021,24.9867,0.00218889,0.000168799,-0.000634207,0.0023715,-1.38041e-05,-0.28034,0.00158562,0.0124965,1833,1499,30.8021,-24.9867
616,-475,30.7242,24.2208,0.00209492,-4.55935e-05,-0.000314473,0.00214016,-9.08379e-05,-0.142893,0.001458,0.0119945,1840,1499,30.7243,-24.2208
623,-475,30.725,23.3943,0.00210221,-0.000441883,0.000201633,0.00211809,-0.000457764,0.0786014,0.00158681,0.0114267,1847,1499,30.725,-23.3943
630,-475,30.7108,22.5863,0.00200554,-0.000854842,0.000934339,0.00228369,-0.00113299,0.289345,0.00200957,0.0161319,1854,1499,30.7108,-22.5863
637,-475,30.65,21.8738,0.00186167,-0.00126311,0.0017721,0.00266178,-0.00206322,0.424104,0.00273527,0.0312334,1861,1499,30.6501,-21.8738
644,-475,30.4384,21.0739,0,0,0,0,0,0,0,-1,1868,1499,30.4383,-21.0739
651,-475,29.886,19.2421,0,0,0,0,0,0,0,-1,1875,1499,29.886,-19.242
658,-475,14.6708,8.80322,0,0,0,0,0,0,0,-1,1882,1499,14.6708,-8.8032
665,-475,9.33435,5.43335,0,0,0,0,0,0,0,-1,1889,1499,9.33439,-5.43332
672,-475,9.38635,1.10474,0,0,0,0,0,0,0,-1,1896,1499,9.38629,-1.10475
679,-475,12.2594,1.31079,0,0,0,0,0,0,0,-1,1903,1499,12.2594,-1.31077
686,-475,0,0,0,0,0,0,0,0,0,-1,1910,1499,0,0
693,-475,0,0,0,0,0,0,0,0,0,-1,1917,1499,0,0
700,-475,0,0,0,0,0,0,0,0,0,-1,1924,1499,0,0
707,-475,0,0,0,0,0,0,0,0,0,-1,1931,1499,0,0
714,-475,0,0,0,0,0,0,0,0,0,-1,1938,1499,0,0
721,-475,0,0,0,0,0,0,0,0,0,-1,1945,1499,0,0
728,-475,0,0,0,0,0,0,0,0,0,-1,1952,1499,0,0
735,-475,0,0,0,0,0,0,0,0,0,-1,1959,1499,0,0
742,-475,0,0,0,0,0,0,0,0,0,-1,1966,1499,0,0
749,-475,0,0,0,0,0,0,0,0,0,-1,1973,1499,0,0
756,-475,0,0,0,0,0,0,0,0,0,-1,1980,1499,0,0
763,-475,0,0,0,0,0,0,0,0,0,-1,1987,1499,0,0
770,-475,0,0,0,0,0,0,0,0,0,-1,1994,1499,0,0
777,-475,0,0,0,0,0,0,0,0,0,-1,2001,1499,0,0
784,-475,0,0,0,0,0,0,0,0,0,-1,2008,1499,0,0
791,-475,0,0,0,0,0,0,0,0,0,-1,2015,1499,0,0
798,-475,0,0,0,0,0,0,0,0,0,-1,2022,1499,0,0
805,-475,0,0,0,0,0,0,0,0,0,-1,2029,1499,0,0
812,-475,0,0,0,0,0,0,0,0,0,-1,2036,1499,0,0
-700,-482,0,0,0,0,0,0,0,0,0,-1,524,1506,0,0
-693,-482,0,0,0,0,0,0,0,0,0,-1,531,1506,0,0
-686,-482,0,0,0,0,0,0,0,0,0,-1,538,1506,0,0
-679,-482,0,0,0,0,0,0,0,0,0,-1,545,1506,0,0
-672,-482,0,0,0,0,0,0,0,0,0,-1,552,1506,0,0
-665,-482,0,0,0,0,0,0,0,0,0,-1,559,1506,0,0
-658,-482,0,0,0,0,0,0,0,0,0,-1,566,1506,0,0
-651,-482,0,0,0,0,0,0,0,0,0,-1,573,1506,0,0
-644,-482,0,0,0,0,0,0,0,0,0,-1,580,1506,0,0
-637,-482,0,0,0,0,0,0,0,0,0,-1,587,1506,0,0
-630,-482,0,0,0,0,0,0,0,0,0,-1,594,1506,0,0
-623,-482,0,0,0,0,0,0,0,0,0,-1,601,1506,0,0
-616,-482,0,0,0,0,0,0,0,0,0,-1,608,1506,0,0
-609,-482,0,0,0,0,0,0,0,0,0,-1,615,1506,0,0
-602,-482,0,0,0,0,0,0,0,0,0,-1,622,1506,0,0
-595,-482,0,0,0,0,0,0,0,0,0,-1,629,1506,0,0
-588,-482,0,0,0,0,0,0,0,0,0,-1,636,1506,0,0
-581,-482,0,0,0,0,0,0,0,0,0,-1,643,1506,0,0
-574,-482,0,0,0,0,0,0,0,0,0,-1,650,1506,0,0
-567,-482,0,0,0,0,0,0,0,0,0,-1,657,1506,0,0
-560,-482,0,0,0,0,0,0,0,0,0,-1,664,1506,0,0
-553,-482,-9.06055,9.34314,0,0,0,0,0,0,0,-1,671,1506,-9.06056,-9.34312
-546,-482,-4.08624,8.34241,0,0,0,0,0,0,0,-1,678,1506,-4.08624,-8.3424
-539,-482,-4.29877,2.73499,0,0,0,0,0,0,0,-1,685,1506,-4.29879,-2.73494
-532,-482,-3.63611,4.23987,0,0,0,0,0,0,0,-1,692,1506,-3.63609,-4.23983
-525,-482,-6.19116,5.24927,0,0,0,0,0,0,0,-1,699,1506,-6.19117,-5.24927
-518,-482,-5.92957,6.39807,0,0,0,0,0,0,0,-1,706,1506,-5.92958,-6.39806
-511,-482,-7.74634,11.9137,0,0,0,0,0,0,0,-1,713,1506,-7.74633,-11.9137
-504,-482,-6.42358,13.4211,0,0,0,0,0,0,0,-1,720,1506,-6.42356,-13.4212
-497,-482,-8.86163,17.7108,0,0,0,0,0,0,0,-1,727,1506,-8.86163,-17.7109
-490,-482,-12.358,23.1438,0,0,0,0,0,0,0,-1,734,1506,-12.358,-23.1438
-483,-482,-12.3256,24.0958,0.0038249,0.00183099,0.00472516,0.00765713,-0.00200124,0.681429,0.00588634,0.0129834,741,1506,-12.3256,-24.0959
-476,-482,-12.3495,24.9409,0.00277196,0.000847011,0.00326623,0.00521457,-0.0015956,0.642116,0.00411275,0.0113277,748,1506,-12.3495,-24.941
-469,-482,-12.3987,25.7886,0.00208106,0.000479894,0.00235849,0.00377114,-0.00121019,0.621776,0.00299999,0.0146466,755,1506,-12.3988,-25.7885
-462,-482,-12.4384,26.5747,0.00168009,0.000577552,0.00182574,0.00303598,-0.00077833,0.638779,0.00232722,0.0150516,762,1506,-12.4384,-26.5747
-455,-482,-12.4852,27.3307,0.00157498,0.00103541,0.00164894,0.00297606,-0.00036567,0.70431,0.00211648,0.0140332,769,1506,-12.4852,-27.3307
-448,-482,-12.5353,28.1749,0.00184749,0.00199244,0.00191592,0.00383725,2.68e-06,0.804303,0.00255728,0.0147813,776,1506,-12.5353,-28.1749
-441,-482,-12.572,28.9823,0.00238006,0.00321594,0.00247858,0.00531157,0.000284431,0.868924,0.00345015,0.0138826,783,1506,-12.572,-28.9823
-434,-482,-12.6326,29.8042,0.00321668,0.00474499,0.00338606,0.00745206,0.00050962,0.896377,0.00480718,0.0158708,790,1506,-12.6326,-29.8042
-427,-482,-12.6633,30.6328,0.00442985,0.00667995,0.00467661,0.0103649,0.000744872,0.90344,0.00667553,0.0210582,797,1506,-12.6633,-30.6328
-420,-482,-12.6964,31.6892,0,0,0,0,0,0,0,-1,804,1506,-12.6964,-31.6892
-413,-482,-6.56415,22.3163,0,0,0,0,0,0,0,-1,811,1506,-6.56417,-22.3163
-406,-482,-2.51373,12.7556,0,0,0,0,0,0,0,-1,818,1506,-2.51376,-12.7556
-399,-482,-1.3822,9.22595,0,0,0,0,0,0,0,-1,825,1506,-1.38221,-9.22598
-392,-482,-1.06836,9.22729,0,0,0,0,0,0,0,-1,832,1506,-1.06835,-9.2273
-385,-482,0.0647583,8.90649,0,0,0,0,0,0,0,-1,839,1506,0.0647778,-8.90644
-378,-482,0.215698,5.96948,0,0,0,0,0,0,0,-1,846,1506,0.215681,-5.9695
-371,-482,-0.10907,8.10437,0,0,0,0,0,0,0,-1,853,1506,-0.109063,-8.10433
-364,-482,-0.154968,10.5032,0,0,0,0,0,0,0,-1,860,1506,-0.154976,-10.5032
-357,-482,2.14807,4.60144,0,0,0,0,0,0,0,-1,867,1506,2.14807,-4.60144
-350,-482,-7.5813,-1.45935,0,0,0,0,0,0,0,-1,874,1506,-7.58133,1.45937
-343,-482,-5.80902,1.81226,0,0,0,0,0,0,0,-1,881,1506,-5.80903,-1.81221
-336,-482,2.52826,-0.390503,0,0,0,0,0,0,0,-1,888,1506,2.52826,0.390456
-329,-482,0,0,0,0,0,0,0,0,0,-1,895,1506,0,0
-322,-482,0,0,0,0,0,0,0,0,0,-1,902,1506,0,0
-315,-482,0,0,0,0,0,0,0,0,0,-1,909,1506,0,0
-308,-482,0,0,0,0,0,0,0,0,0,-1,916,1506,0,0
-301,-482,0,0,0,0,0,0,0,0,0,-1,923,1506,0,0
-294,-482,0,0,0,0,0,0,0,0,0,-1,930,1506,0,0
-287,-482,0,0,0,0,0,0,0,0,0,-1,937,1506,0,0
-280,-482,0,0,0,0,0,0,0,0,0,-1,944,1506,0,0
-273,-482,0,0,0,0,0,0,0,0,0,-1,951,1506,0,0
-266,-482,0,0,0,0,0,0,0,0,0,-1,958,1506,0,0
-259,-482,0,0,0,0,0,0,0,0,0,-1,965,1506,0,0
-252,-482,0,0,0,0,0,0,0,0,0,-1,972,1506,0,0
-245,-482,0,0,0,0,0,0,0,0,0,-1,979,1506,0,0
-238,-482,0,0,0,0,0,0,0,0,0,-1,986,1506,0,0
-231,-482,0,0,0,0,0,0,0,0,0,-1,993,1506,0,0
-224,-482,0,0,0,0,0,0,0,0,0,-1,1000,1506,0,0
-217,-482,0,0,0,0,0,0,0,0,0,-1,1007,1506,0,0
-210,-482,0,0,0,0,0,0,0,0,0,-1,1014,1506,0,0
-203,-482,0,0,0,0,0,0,0,0,0,-1,1021,1506,0,0
-196,-482,0,0,0,0,0,0,0,0,0,-1,1028,1506,0,0
-189,-482,0,0,0,0,0,0,0,0,0,-1,1035,1506,0,0
-182,-482,0,0,0,0,0,0,0,0,0,-1,1042,1506,0,0
-175,-482,0,0,0,0,0,0,0,0,0,-1,1049,1506,0,0
-168,-482,0,0,0,0,0,0,0,0,0,-1,1056,1506,0,0
-161,-482,0,0,0,0,0,0,0,0,0,-1,1063,1506,0,0
-154,-482,0,0,0,0,0,0,0,0,0,-1,1070,1506,0,0
-147,-482,0,0,0,0,0,0,0,0,0,-1,1077,1506,0,0
-140,-482,0,0,0,0,0,0,0,0,0,-1,1084,1506,0,0
-133,-482,0,0,0,0,0,0,0,0,0,-1,1091,1506,0,0
-126,-482,0,0,0,0,0,0,0,0,0,-1,1098,1506,0,0
-119,-482,0,0,0,0,0,0,0,0,0,-1,1105,1506,0,0
-112,-482,0,0,0,0,0,0,0,0,0,-1,1112,1506,0,0
-105,-482,0,0,0,0,0,0,0,0,0,-1,1119,1506,0,0
-98,-482,0,0,0,0,0,0,0,0,0,-1,1126,1506,0,0
-91,-482,0,0,0,0,0,0,0,0,0,-1,1133,1506,0,0
-84,-482,0,0,0,0,0,0,0,0,0,-1,1140,1506,0,0
-77,-482,0,0,0,0,0,0,0,0,0,-1,1147,1506,0,0
-70,-482,0,0,0,0,0,0,0,0,0,-1,1154,1506,0,0
-63,-482,0,0,0,0,0,0,0,0,0,-1,1161,1506,0,0
-56,-482,0,0,0,0,0,0,0,0,0,-1,1168,1506,0,0
-49,-482,0,0,0,0,0,0,0,0,0,-1,1175,1506,0,0
-42,-482,0,0,0,0,0,0,0,0,0,-1,1182,1506,0,0
-35,-482,0,0,0,0,0,0,0,0,0,-1,1189,1506,0,0
-28,-482,0,0,0,0,0,0,0,0,0,-1,1196,1506,0,0
-21,-482,0,0,0,0,0,0,0,0,0,-1,1203,1506,0,0
-14,-482,0,0,0,0,0,0,0,0,0,-1,1210,1506,0,0
-7,-482,0,0,0,0,0,0,0,0,0,-1,1217,1506,0,0
0,-482,0,0,0,0,0,0,0,0,0,-1,1224,1506,0,0
7,-482,0,0,0,0,0,0,0,0,0,-1,1231,1506,0,0
14,-482,0,0,0,0,0,0,0,0,0,-1,1238,1506,0,0
21,-482,0,0,0,0,0,0,0,0,0,-1,1245,1506,0,0
28,-482,0,0,0,0,0,0,0,0,0,-1,1252,1506,0,0
35,-482,0,0,0,0,0,0,0,0,0,-1,1259,1506,0,0
42,-482,0,0,0,0,0,0,0,0,0,-1,1266,1506,0,0
49,-482,0,0,0,0,0,0,0,0,0,-1,1273,1506,0,0
56,-482,0,0,0,0,0,0,0,0,0,-1,1280,1506,0,0
63,-482,0,0,0,0,0,0,0,0,0,-1,1287,1506,0,0
70,-482,0,0,0,0,0,0,0,0,0,-1,1294,1506,0,0
77,-482,0,0,0,0,0,0,0,0,0,-1,1301,1506,0,0
84,-482,0,0,0,0,0,0,0,0,0,-1,1308,1506,0,0
91,-482,0,0,0,0,0,0,0,0,0,-1,1315,1506,0,0
98,-482,0,0,0,0,0,0,0,0,0,-1,1322,1506,0,0
105,-482,0,0,0,0,0,0,0,0,0,-1,1329,1506,0,0
112,-482,0,0,0,0,0,0,0,0,0,-1,1336,1506,0,0
119,-482,0,0,0,0,0,0,0,0,0,-1,1343,1506,0,0
126,-482,0,0,0,0,0,0,0,0,0,-1,1350,1506,0,0
133,-482,0,0,0,0,0,0,0,0,0,-1,1357,1506,0,0
140,-482,0,0,0,0,0,0,0,0,0,-1,1364,1506,0,0
147,-482,0,0,0,0,0,0,0,0,0,-1,1371,1506,0,0
154,-482,0,0,0,0,0,0,0,0,0,-1,1378,1506,0,0
161,-482,0,0,0,0,0,0,0,0,0,-1,1385,1506,0,0
168,-482,0,0,0,0,0,0,0,0,0,-1,1392,1506,0,0
175,-482,0,0,0,0,0,0,0,0,0,-1,1399,1506,0,0
182,-482,0,0,0,0,0,0,0,0,0,-1,1406,1506,0,0
189,-482,0,0,0,0,0,0,0,0,0,-1,1413,1506,0,0
196,-482,0,0,0,0,0,0,0,0,0,-1,1420,1506,0,0
203,-482,0,0,0,0,0,0,0,0,0,-1,1427,1506,0,0
210,-482,0,0,0,0,0,0,0,0,0,-1,1434,1506,0,0
217,-482,0,0,0,0,0,0,0,0,0,-1,1441,1506,0,0
224,-482,0,0,0,0,0,0,0,0,0,-1,1448,1506,0,0
231,-482,0,0,0,0,0,0,0,0,0,-1,1455,1506,0,0
238,-482,0,0,0,0,0,0,0,0,0,-1,1462,1506,0,0
245,-482,0,0,0,0,0,0,0,0,0,-1,1469,1506,0,0
252,-482,0,0,0,0,0,0,0,0,0,-1,1476,1506,0,0
259,-482,0,0,0,0,0,0,0,0,0,-1,1483,1506,0,0
266,-482,0,0,0,0,0,0,0,0,0,-1,1490,1506,0,0
273,-482,0,0,0,0,0,0,0,0,0,-1,1497,1506,0,0
280,-482,0,0,0,0,0,0,0,0,0,-1,1504,1506,0,0
287,-482,0,0,0,0,0,0,0,0,0,-1,1511,1506,0,0
294,-482,0,0,0,0,0,0,0,0,0,-1,1518,1506,0,0
301,-482,0,0,0,0,0,0,0,0,0,-1,1525,1506,0,0
308,-482,0,0,0,0,0,0,0,0,0,-1,1532,1506,0,0
315,-482,0,0,0,0,0,0,0,0,0,-1,1539,1506,0,0
322,-482,0,0,0,0,0,0,0,0,0,-1,1546,1506,0,0
329,-482,0,0,0,0,0,0,0,0,0,-1,1553,1506,0,0
336,-482,0,0,0,0,0,0,0,0,0,-1,1560,1506,0,0
343,-482,0,0,0,0,0,0,0,0,0,-1,1567,1506,0,0
350,-482,0,0,0,0,0,0,0,0,0,-1,1574,1506,0,0
357,-482,0,0,0,0,0,0,0,0,0,-1,1581,1506,0,0
364,-482,0,0,0,0,0,0,0,0,0,-1,1588,1506,0,0
371,-482,0,0,0,0,0,0,0,0,0,-1,1595,1506,0,0
378,-482,0,0,0,0,0,0,0,0,0,-1,1602,1506,0,0
385,-482,0,0,0,0,0,0,0,0,0,-1,1609,1506,0,0
392,-482,0,0,0,0,0,0,0,0,0,-1,1616,1506,0,0
399,-482,0,0,0,0,0,0,0,0,0,-1,1623,1506,0,0
406,-482,0,0,0,0,0,0,0,0,0,-1,1630,1506,0,0
413,-482,0,0,0,0,0,0,0,0,0,-1,1637,1506,0,0
420,-482,0,0,0,0,0,0,0,0,0,-1,1644,1506,0,0
427,-482,0,0,0,0,0,0,0,0,0,-1,1651,1506,0,0
434,-482,0,0,0,0,0,0,0,0,0,-1,1658,1506,0,0
441,-482,0,0,0,0,0,0,0,0,0,-1,1665,1506,0,0
448,-482,4.24146,1.55383,0,0,0,0,0,0,0,-1,1672,1506,4.24149,-1.55381
455,-482,12.4122,1.09729,0,0,0,0,0,0,0,-1,1679,1506,12.4122,-1.09734
462,-482,15.0673,3.13135,0,0,0,0,0,0,0,-1,1686,1506,15.0672,-3.13134
469,-482,15.3793,3.46301,0,0,0,0,0,0,0,-1,1693,1506,15.3793,-3.46307
476,-482,8.69751,9.18738,0,0,0,0,0,0,0,-1,1700,1506,8.69753,-9.18739
483,-482,10.0902,7.17432,0,0,0,0,0,0,0,-1,1707,1506,10.0902,-7.1743
490,-482,11.6289,5.4928,0,0,0,0,0,0,0,-1,1714,1506,11.6289,-5.49283
497,-482,15.9539,7.40222,0,0,0,0,0,0,0,-1,1721,1506,15.9538,-7.40219
504,-482,20.4233,12.006,0,0,0,0,0,0,0,-1,1728,1506,20.4233,-12.006
511,-482,18.4937,12.9175,0,0,0,0,0,0,0,-1,1735,1506,18.4936,-12.9174
518,-482,16.6002,13.9679,0,0,0,0,0,0,0,-1,1742,1506,16.6003,-13.9679
525,-482,18.495,15.9618,0,0,0,0,0,0,0,-1,1749,1506,18.495,-15.9618
532,-482,19.9375,21.0775,0,0,0,0,0,0,0,-1,1756,1506,19.9375,-21.0775
539,-482,20.2291,20.5577,0,0,0,0,0,0,0,-1,1763,1506,20.2291,-20.5578
546,-482,30.2269,32.4259,0,0,0,0,0,0,0,-1,1770,1506,30.2269,-32.4259
553,-482,30.1309,31.3674,0,0,0,0,0,0,0,-1,1777,1506,30.1308,-31.3674
560,-482,30.2383,30.5051,0.00707257,0.00286893,-0.00286887,0.00852716,0.00141433,-0.469253,0.00527689,0.0186473,1784,1506,30.2383,-30.5051
567,-482,30.3091,29.6864,0.00558316,0.00194341,-0.00207082,0.00652013,0.00100643,-0.424904,0.00405315,0.0172451,1791,1506,30.3091,-29.6865
574,-482,30.2672,28.9452,0.00453182,0.00144657,-0.00169106,0.00527817,0.000700221,-0.415634,0.00331015,0.0161815,1798,1506,30.2672,-28.9452
581,-482,30.203,28.1841,0.00369253,0.00109894,-0.00142858,0.00432512,0.00046635,-0.416858,0.00274122,0.0114579,1805,1506,30.203,-28.1841
588,-482,30.1476,27.3787,0.00311072,0.000853122,-0.00127268,0.00368307,0.000280778,-0.422619,0.00236734,0.0118334,1812,1506,30.1475,-27.3786
595,-482,30.1161,26.6035,0.00277556,0.000649755,-0.00111651,0.00325421,0.000171112,-0.404996,0.00211474,0.0167596,1819,1506,30.1161,-26.6035
602,-482,30.0872,25.8453,0.00256262,0.000518381,-0.00102807,0.00299021,9.07888e-05,-0.394151,0.00196391,0.0203088,1826,1506,30.0872,-25.8453
609,-482,30.0398,25.0551,0.00244727,0.00042551,-0.000878958,0.00277596,9.6821e-05,-0.357852,0.00181923,0.0162438,1833,1506,30.0398,-25.055
616,-482,29.9597,24.2618,0.00252647,0.000183989,-0.000570022,0.00265782,5.26444e-05,-0.226468,0.00175459,0.0121526,1840,1506,29.9597,-24.2618
623,-482,29.9041,23.4755,0.00264574,-0.000239551,-1.88782e-05,0.00264586,-0.000239675,-0.00654254,0.00184899,0.0199227,1847,1506,29.9041,-23.4755
630,-482,29.86,22.7048,0.00250754,-0.000721481,0.000860852,0.00272271,-0.000936645,0.244925,0.00219501,0.0436173,1854,1506,29.86,-22.7048
637,-482,29.9073,21.9332,0,0,0,0,0,0,0,-1,1861,1506,29.9074,-21.9332
644,-482,29.0146,20.1443,0,0,0,0,0,0,0,-1,1868,1506,29.0147,-20.1442
651,-482,4.03845,7.05273,0,0,0,0,0,0,0,-1,1875,1506,4.03843,-7.05279
658,-482,10.0278,5.87903,0,0,0,0,0,0,0,-1,1882,1506,10.0279,-5.87902
665,-482,8.15198,3.22229,0,0,0,0,0,0,0,-1,1889,1506,8.15199,-3.22232
672,-482,9.87415,1.3147,0,0,0,0,0,0,0,-1,1896,1506,9.87416,-1.31473
679,-482,0,0,0,0,0,0,0,0,0,-1,1903,1506,0,0
686,-482,0,0,0,0,0,0,0,0,0,-1,1910,1506,0,0
693,-482,0,0,0,0,0,0,0,0,0,-1,1917,1506,0,0
700,-482,0,0,0,0,0,0,0,0,0,-1,1924,1506,0,0
707,-482,0,0,0,0,0,0,0,0,0,-1,1931,1506,0,0
714,-482,0,0,0,0,0,0,0,0,0,-1,1938,1506,0,0
721,-482,0,0,0,0,0,0,0,0,0,-1,1945,1506,0,0
728,-482,0,0,0,0,0,0,0,0,0,-1,1952,1506,0,0
735,-482,0,0,0,0,0,0,0,0,0,-1,1959,1506,0,0
742,-482,0,0,0,0,0,0,0,0,0,-1,1966,1506,0,0
749,-482,0,0,0,0,0,0,0,0,0,-1,1973,1506,0,0
756,-482,0,0,0,0,0,0,0,0,0,-1,1980,1506,0,0
763,-482,0,0,0,0,0,0,0,0,0,-1,1987,1506,0,0
770,-482,0,0,0,0,0,0,0,0,0,-1,1994,1506,0,0
777,-482,0,0,0,0,0,0,0,0,0,-1,2001,1506,0,0
784,-482,0,0,0,0,0,0,0,0,0,-1,2008,1506,0,0
791,-482,0,0,0,0,0,0,0,0,0,-1,2015,1506,0,0
798,-482,0,0,0,0,0,0,0,0,0,-1,2022,1506,0,0
805,-482,0,0,0,0,0,0,0,0,0,-1,2029,1506,0,0
812,-482,0,0,0,0,0,0,0,0,0,-1,2036,1506,0,0
-700,-489,0,0,0,0,0,0,0,0,0,-1,524,1513,0,0
-693,-489,0,0,0,0,0,0,0,0,0,-1,531,1513,0,0
-686,-489,0,0,0,0,0,0,0,0,0,-1,538,1513,0,0
-679,-489,0,0,0,0,0,0,0,0,0,-1,545,1513,0,0
-672,-489,0,0,0,0,0,0,0,0,0,-1,552,1513,0,0
-665,-489,0,0,0,0,0,0,0,0,0,-1,559,1513,0,0
-658,-489,0,0,0,0,0,0,0,0,0,-1,566,1513,0,0
-651,-489,0,0,0,0,0,0,0,0,0,-1,573,1513,0,0
-644,-489,0,0,0,0,0,0,0,0,0,-1,580,1513,0,0
-637,-489,0,0,0,0,0,0,0,0,0,-1,587,1513,0,0
-630,-489,0,0,0,0,0,0,0,0,0,-1,594,1513,0,0
-623,-489,0,0,0,0,0,0,0,0,0,-1,601,1513,0,0
-616,-489,0,0,0,0,0,0,0,0,0,-1,608,1513,0,0
-609,-489,0,0,0,0,0,0,0,0,0,-1,615,1513,0,0
-602,-489,0,0,0,0,0,0,0,0,0,-1,622,1513,0,0
-595,-489,0,0,0,0,0,0,0,0,0,-1,629,1513,0,0
-588,-489,0,0,0,0,0,0,0,0,0,-1,636,1513,0,0
-581,-489,0,0,0,0,0,0,0,0,0,-1,643,1513,0,0
-574,-489,0,0,0,0,0,0,0,0,0,-1,650,1513,0,0
-567,-489,0,0,0,0,0,0,0,0,0,-1,657,1513,0,0
-560,-489,0,0,0,0,0,0,0,0,0,-1,664,1513,0,0
-553,-489,-9.42206,8.5116,0,0,0,0,0,0,0,-1,671,1513,-9.42205,-8.51158
-546,-489,-7.80951,8.18506,0,0,0,0,0,0,0,-1,678,1513,-7.8095,-8.18503
-539,-489,-3.06879,2.82349,0,0,0,0,0,0,0,-1,685,1513,-3.06881,-2.82354
-532,-489,-3.14215,2.5835,0,0,0,0,0,0,0,-1,692,1513,-3.14213,-2.58353
-525,-489,-2.604,4.06274,0,0,0,0,0,0,0,-1,699,1513,-2.60399,-4.06274
-518,-489,-5.43774,7.48059,0,0,0,0,0,0,0,-1,706,1513,-5.43777,-7.48058
-511,-489,-7.52856,10.951,0,0,0,0,0,0,0,-1,713,1513,-7.52857,-10.951
-504,-489,-7.17352,12.8508,0,0,0,0,0,0,0,-1,720,1513,-7.17352,-12.8508
-497,-489,-5.51678,14.9254,0,0,0,0,0,0,0,-1,727,1513,-5.51681,-14.9254
-490,-489,-11.6946,23.058,0,0,0,0,0,0,0,-1,734,1513,-11.6946,-23.058
-483,-489,-11.5739,23.9767,0.00443302,0.000847521,0.00537546,0.0083068,-0.00302625,0.624445,0.00677576,0.0374225,741,1513,-11.5738,-23.9767
-476,-489,-11.5585,24.9446,0.00319764,-0.000129623,0.00368165,0.00557408,-0.00250606,0.573193,0.00477585,0.0120846,748,1513,-11.5585,-24.9446
-469,-489,-11.5895,25.8054,0.00236038,-0.000457417,0.00263284,0.00393759,-0.00203463,0.539723,0.00350592,0.0116126,755,1513,-11.5896,-25.8055
-462,-489,-11.6381,26.5865,0.00181536,-0.000267517,0.00198494,0.00301548,-0.00146763,0.543804,0.00263925,0.0160154,762,1513,-11.6381,-26.5865
-455,-489,-11.6978,27.3822,0.00158383,0.00026278,0.00169539,0.00274283,-0.000896216,0.599644,0.00218931,0.0199862,769,1513,-11.6978,-27.3822
-448,-489,-11.7491,28.204,0.00171257,0.00120874,0.00180651,0.00328464,-0.000363333,0.71612,0.00232037,0.0178961,776,1513,-11.7491,-28.204
-441,-489,-11.7687,29.0328,0.00209096,0.00238148,0.00219877,0.00443978,3.26526e-05,0.818382,0.00294903,0.01507,783,1513,-11.7688,-29.0328
-434,-489,-11.8392,29.8503,0.00274031,0.00380398,0.00288805,0.00620876,0.000335531,0.876452,0.00403199,0.0171114,790,1513,-11.8392,-29.8504
-427,-489,-11.8959,30.6328,0.00369536,0.00546227,0.00385265,0.00853146,0.000626162,0.898105,0.00549083,0.0194043,797,1513,-11.8959,-30.6328
-420,-489,-11.9469,31.5768,0.00500474,0.00733464,0.00513986,0.0114399,0.000899462,0.896841,0.00734517,0.0280392,804,1513,-11.9469,-31.5768
-413,-489,-11.896,32.6403,0,0,0,0,0,0,0,-1,811,1513,-11.896,-32.6403
-406,-489,-3.10559,15.8143,0,0,0,0,0,0,0,-1,818,1513,-3.10556,-15.8143
-399,-489,-1.41241,9.10718,0,0,0,0,0,0,0,-1,825,1513,-1.41244,-9.10722
-392,-489,-1.0368,9.30469,0,0,0,0,0,0,0,-1,832,1513,-1.03682,-9.30466
-385,-489,-1.75165,10.6559,0,0,0,0,0,0,0,-1,839,1513,-1.75165,-10.6559
-378,-489,-0.401428,9.87048,0,0,0,0,0,0,0,-1,846,1513,-0.401415,-9.87047
-371,-489,-1.11633,10.6606,0,0,0,0,0,0,0,-1,853,1513,-1.11633,-10.6606
-364,-489,-0.503113,8.98486,0,0,0,0,0,0,0,-1,860,1513,-0.503097,-8.98482
-357,-489,-0.609924,10.9606,0,0,0,0,0,0,0,-1,867,1513,-0.609947,-10.9605
-350,-489,-7.94659,-0.358887,0,0,0,0,0,0,0,-1,874,1513,-7.94657,0.358912
-343,-489,-7.49323,-0.437866,0,0,0,0,0,0,0,-1,881,1513,-7.49322,0.437823
-336,-489,-7.02332,-0.53125,0,0,0,0,0,0,0,-1,888,1513,-7.0233,0.531295
-329,-489,-13.2786,4.96082,0,0,0,0,0,0,0,-1,895,1513,-13.2785,-4.96077
-322,-489,0,0,0,0,0,0,0,0,0,-1,902,1513,0,0
-315,-489,0,0,0,0,0,0,0,0,0,-1,909,1513,0,0
-308,-489,0,0,0,0,0,0,0,0,0,-1,916,1513,0,0
-301,-489,0,0,0,0,0,0,0,0,0,-1,923,1513,0,0
-294,-489,0,0,0,0,0,0,0,0,0,-1,930,1513,0,0
-287,-489,0,0,0,0,0,0,0,0,0,-1,937,1513,0,0
-280,-489,0,0,0,0,0,0,0,0,0,-1,944,1513,0,0
-273,-489,0,0,0,0,0,0,0,0,0,-1,951,1513,0,0
-266,-489,0,0,0,0,0,0,0,0,0,-1,958,1513,0,0
-259,-489,0,0,0,0,0,0,0,0,0,-1,965,1513,0,0
-252,-489,0,0,0,0,0,0,0,0,0,-1,972,1513,0,0
-245,-489,0,0,0,0,0,0,0,0,0,-1,979,1513,0,0
-238,-489,0,0,0,0,0,0,0,0,0,-1,986,1513,0,0
-231,-489,0,0,0,0,0,0,0,0,0,-1,993,1513,0,0
-224,-489,0,0,0,0,0,0,0,0,0,-1,1000,1513,0,0
-217,-489,0,0,0,0,0,0,0,0,0,-1,1007,1513,0,0
-210,-489,0,0,0,0,0,0,0,0,0,-1,1014,1513,0,0
-203,-489,0,0,0,0,0,0,0,0,0,-1,1021,1513,0,0
-196,-489,0,0,0,0,0,0,0,0,0,-1,1028,1513,0,0
-189,-489,0,0,0,0,0,0,0,0,0,-1,1035,1513,0,0
-182,-489,0,0,0,0,0,0,0,0,0,-1,1042,1513,0,0
-175,-489,0,0,0,0,0,0,0,0,0,-1,1049,1513,0,0
-168,-489,0,0,0,0,0,0,0,0,0,-1,1056,1513,0,0
-161,-489,0,0,0,0,0,0,0,0,0,-1,1063,1513,0,0
-154,-489,0,0,0,0,0,0,0,0,0,-1,1070,1513,0,0
-147,-489,0,0,0,0,0,0,0,0,0,-1,1077,1513,0,0
-140,-489,0,0,0,0,0,0,0,0,0,-1,1084,1513,0,0
-133,-489,0,0,0,0,0,0,0,0,0,-1,1091,1513,0,0
-126,-489,0,0,0,0,0,0,0,0,0,-1,1098,1513,0,0
-119,-489,0,0,0,0,0,0,0,0,0,-1,1105,1513,0,0
-112,-489,0,0,0,0,0,0,0,0,0,-1,1112,1513,0,0
-105,-489,0,0,0,0,0,0,0,0,0,-1,1119,1513,0,0
-98,-489,0,0,0,0,0,0,0,0,0,-1,1126,1513,0,0
-91,-489,0,0,0,0,0,0,0,0,0,-1,1133,1513,0,0
-84,-489,0,0,0,0,0,0,0,0,0,-1,1140,1513,0,0
-77,-489,0,0,0,0,0,0,0,0,0,-1,1147,1513,0,0
-70,-489,0,0,0,0,0,0,0,0,0,-1,1154,1513,0,0
-63,-489,0,0,0,0,0,0,0,0,0,-1,1161,1513,0,0
-56,-489,0,0,0,0,0,0,0,0,0,-1,1168,1513,0,0
-49,-489,0,0,0,0,0,0,0,0,0,-1,1175,1513,0,0
-42,-489,0,0,0,0,0,0,0,0,0,-1,1182,1513,0,0
-35,-489,0,0,0,0,0,0,0,0,0,-1,1189,1513,0,0
-28,-489,0,0,0,0,0,0,0,0,0,-1,1196,1513,0,0
-21,-489,0,0,0,0,0,0,0,0,0,-1,1203,1513,0,0
-14,-489,0,0,0,0,0,0,0,0,0,-1,1210,1513,0,0
-7,-489,0,0,0,0,0,0,0,0,0,-1,1217,1513,0,0
0,-489,0,0,0,0,0,0,0,0,0,-1,1224,1513,0,0
7,-489,0,0,0,0,0,0,0,0,0,-1,1231,1513,0,0
14,-489,0,0,0,0,0,0,0,0,0,-1,1238,1513,0,0
21,-489,0,0,0,0,0,0,0,0,0,-1,1245,1513,0,0
28,-489,0,0,0,0,0,0,0,0,0,-1,1252,1513,0,0
35,-489,0,0,0,0,0,0,0,0,0,-1,1259,1513,0,0
42,-489,0,0,0,0,0,0,0,0,0,-1,1266,1513,0,0
49,-489,0,0,0,0,0,0,0,0,0,-1,1273,1513,0,0
56,-489,0,0,0,0,0,0,0,0,0,-1,1280,1513,0,0
63,-489,0,0,0,0,0,0,0,0,0,-1,1287,1513,0,0
70,-489,0,0,0,0,0,0,0,0,0,-1,1294,1513,0,0
77,-489,0,0,0,0,0,0,0,0,0,-1,1301,1513,0,0
84,-489,0,0,0,0,0,0,0,0,0,-1,1308,1513,0,0
91,-489,0,0,0,0,0,0,0,0,0,-1,1315,1513,0,0
98,-489,0,0,0,0,0,0,0,0,0,-1,1322,1513,0,0
105,-489,0,0,0,0,0,0,0,0,0,-1,1329,1513,0,0
112,-489,0,0,0,0,0,0,0,0,0,-1,1336,1513,0,0
119,-489,0,0,0,0,0,0,0,0,0,-1,1343,1513,0,0
126,-489,0,0,0,0,0,0,0,0,0,-1,1350,1513,0,0
133,-489,0,0,0,0,0,0,0,0,0,-1,1357,1513,0,0
140,-489,0,0,0,0,0,0,0,0,0,-1,1364,1513,0,0
147,-489,0,0,0,0,0,0,0,0,0,-1,1371,1513,0,0
154,-489,0,0,0,0,0,0,0,0,0,-1,1378,1513,0,0
161,-489,0,0,0,0,0,0,0,0,0,-1,1385,1513,0,0
168,-489,0,0,0,0,0,0,0,0,0,-1,1392,1513,0,0
175,-489,0,0,0,0,0,0,0,0,0,-1,1399,1513,0,0
182,-489,0,0,0,0,0,0,0,0,0,-1,1406,1513,0,0
189,-489,0,0,0,0,0,0,0,0,0,-1,1413,1513,0,0
196,-489,0,0,0,0,0,0,0,0,0,-1,1420,1513,0,0
203,-489,0,0,0,0,0,0,0,0,0,-1,1427,1513,0,0
210,-489,0,0,0,0,0,0,0,0,0,-1,1434,1513,0,0
217,-489,0,0,0,0,0,0,0,0,0,-1,1441,1513,0,0
224,-489,0,0,0,0,0,0,0,0,0,-1,1448,1513,0,0
231,-489,0,0,0,0,0,0,0,0,0,-1,1455,1513,0,0
238,-489,0,0,0,0,0,0,0,0,0,-1,1462,1513,0,0
245,-489,0,0,0,0,0,0,0,0,0,-1,1469,1513,0,0
252,-489,0,0,0,0,0,0,0,0,0,-1,1476,1513,0,0
259,-489,0,0,0,0,0,0,0,0,0,-1,1483,1513,0,0
266,-489,0,0,0,0,0,0,0,0,0,-1,1490,1513,0,0
273,-489,0,0,0,0,0,0,0,0,0,-1,1497,1513,0,0
280,-489,0,0,0,0,0,0,0,0,0,-1,1504,1513,0,0
287,-489,0,0,0,0,0,0,0,0,0,-1,1511,1513,0,0
294,-489,0,0,0,0,0,0,0,0,0,-1,1518,1513,0,0
301,-489,0,0,0,0,0,0,0,0,0,-1,1525,1513,0,0
308,-489,0,0,0,0,0,0,0,0,0,-1,1532,1513,0,0
315,-489,0,0,0,0,0,0,0,0,0,-1,1539,1513,0,0
322,-489,0,0,0,0,0,0,0,0,0,-1,1546,1513,0,0
329,-489,0,0,0,0,0,0,0,0,0,-1,1553,1513,0,0
336,-489,0,0,0,0,0,0,0,0,0,-1,1560,1513,0,0
343,-489,0,0,0,0,0,0,0,0,0,-1,1567,1513,0,0
350,-489,0,0,0,0,0,0,0,0,0,-1,1574,1513,0,0
357,-489,0,0,0,0,0,0,0,0,0,-1,1581,1513,0,0
364,-489,0,0,0,0,0,0,0,0,0,-1,1588,1513,0,0
371,-489,0,0,0,0,0,0,0,0,0,-1,1595,1513,0,0
378,-489,0,0,0,0,0,0,0,0,0,-1,1602,1513,0,0
385,-489,0,0,0,0,0,0,0,0,0,-1,1609,1513,0,0
392,-489,0,0,0,0,0,0,0,0,0,-1,1616,1513,0,0
399,-489,0,0,0,0,0,0,0,0,0,-1,1623,1513,0,0
406,-489,0,0,0,0,0,0,0,0,0,-1,1630,1513,0,0
413,-489,0,0,0,0,0,0,0,0,0,-1,1637,1513,0,0
420,-489,0,0,0,0,0,0,0,0,0,-1,1644,1513,0,0
427,-489,0,0,0,0,0,0,0,0,0,-1,1651,1513,0,0
434,-489,0,0,0,0,0,0,0,0,0,-1,1658,1513,0,0
441,-489,11.4602,2.56787,0,0,0,0,0,0,0,-1,1665,1513,11.4602,-2.56786
448,-489,12.4425,1.72351,0,0,0,0,0,0,0,-1,1672,1513,12.4425,-1.72349
455,-489,12.5575,1.37463,0,0,0,0,0,0,0,-1,1679,1513,12.5575,-1.37469
462,-489,14.9784,3.84888,0,0,0,0,0,0,0,-1,1686,1513,14.9784,-3.84892
469,-489,15.1367,4.53101,0,0,0,0,0,0,0,-1,1693,1513,15.1368,-4.531
476,-489,15.5536,5.09338,0,0,0,0,0,0,0,-1,1700,1513,15.5536,-5.09339
483,-489,8.96912,8.37805,0,0,0,0,0,0,0,-1,1707,1513,8.96909,-8.37809
490,-489,10.5366,7.49561,0,0,0,0,0,0,0,-1,1714,1513,10.5367,-7.49558
497,-489,14.6051,11.8397,0,0,0,0,0,0,0,-1,1721,1513,14.6051,-11.8397
504,-489,16.7527,14.1735,0,0,0,0,0,0,0,-1,1728,1513,16.7527,-14.1735
511,-489,17.83,17.7993,0,0,0,0,0,0,0,-1,1735,1513,17.83,-17.7993
518,-489,16.4751,14.3682,0,0,0,0,0,0,0,-1,1742,1513,16.4751,-14.3682
525,-489,17.2606,17.4949,0,0,0,0,0,0,0,-1,1749,1513,17.2606,-17.4949
532,-489,19.397,21.0182,0,0,0,0,0,0,0,-1,1756,1513,19.397,-21.0182
539,-489,29.3754,33.3452,0,0,0,0,0,0,0,-1,1763,1513,29.3753,-33.3452
546,-489,29.5499,32.327,0.00923239,0.00573871,-0.00514253,0.0129167,0.00205443,-0.62167,0.00801456,0.0419302,1770,1513,29.55,-32.3271
553,-489,29.5054,31.3651,0.00743806,0.00412294,-0.00375945,0.00988915,0.00167186,-0.577766,0.00611218,0.0234071,1777,1513,29.5054,-31.3651
560,-489,29.5074,30.5325,0.00595974,0.00288641,-0.00269286,0.00752353,0.00132262,-0.526121,0.0046381,0.014739,1784,1513,29.5074,-30.5324
567,-489,29.5233,29.7639,0.00480438,0.00200227,-0.00199135,0.00583816,0.000968493,-0.478839,0.00361281,0.01721,1791,1513,29.5234,-29.7639
574,-489,29.4668,29.0172,0.00400749,0.00147879,-0.00163102,0.00480683,0.000679455,-0.455684,0.00300379,0.0173139,1798,1513,29.4669,-29.0173
581,-489,29.4395,28.2286,0.00338629,0.00111281,-0.00139649,0.00405021,0.000448898,-0.443788,0.00256364,0.0120315,1805,1513,29.4395,-28.2286
588,-489,29.3938,27.4406,0.00300811,0.000887282,-0.00130044,0.00362568,0.000269713,-0.44336,0.00233242,0.0137452,1812,1513,29.3938,-27.4406
595,-489,29.3419,26.6973,0.00287142,0.000752454,-0.0012309,0.00343601,0.000187865,-0.43005,0.00223069,0.0197282,1819,1513,29.342,-26.6973
602,-489,29.2953,25.9342,0.00286565,0.00075006,-0.00126238,0.00345483,0.000160876,-0.436674,0.00225151,0.0255925,1826,1513,29.2953,-25.9342
609,-489,29.2513,25.1205,0.00294886,0.00077319,-0.00124174,0.00351187,0.000210178,-0.425683,0.00227443,0.0177934,1833,1513,29.2513,-25.1204
616,-489,29.2332,24.2815,0.00332907,0.000623872,-0.00104835,0.00368778,0.000265165,-0.329676,0.00237507,0.0222188,1840,1513,29.2331,-24.2815
623,-489,29.3007,23.4631,0,0,0,0,0,0,0,-1,1847,1513,29.3007,-23.4632
630,-489,29.234,22.6293,0,0,0,0,0,0,0,-1,1854,1513,29.234,-22.6292
637,-489,17.2048,11.8091,0,0,0,0,0,0,0,-1,1861,1513,17.2048,-11.8091
644,-489,9.67578,8.45874,0,0,0,0,0,0,0,-1,1868,1513,9.67576,-8.45879
651,-489,6.13818,6.85095,0,0,0,0,0,0,0,-1,1875,1513,6.13823,-6.85097
658,-489,5.43848,7.75513,0,0,0,0,0,0,0,-1,1882,1513,5.43844,-7.75509
665,-489,5.48438,8.59912,0,0,0,0,0,0,0,-1,1889,1513,5.48434,-8.59907
672,-489,0,0,0,0,0,0,0,0,0,-1,1896,1513,0,0
679,-489,0,0,0,0,0,0,0,0,0,-1,1903,1513,0,0
686,-489,0,0,0,0,0,0,0,0,0,-1,1910,1513,0,0
693,-489,0,0,0,0,0,0,0,0,0,-1,1917,1513,0,0
700,-489,0,0,0,0,0,0,0,0,0,-1,1924,1513,0,0
707,-489,0,0,0,0,0,0,0,0,0,-1,1931,1513,0,0
714,-489,0,0,0,0,0,0,0,0,0,-1,1938,1513,0,0
721,-489,0,0,0,0,0,0,0,0,0,-1,1945,1513,0,0
728,-489,0,0,0,0,0,0,0,0,0,-1,1952,1513,0,0
735,-489,0,0,0,0,0,0,0,0,0,-1,1959,1513,0,0
742,-489,0,0,0,0,0,0,0,0,0,-1,1966,1513,0,0
749,-489,0,0,0,0,0,0,0,0,0,-1,1973,1513,0,0
756,-489,0,0,0,0,0,0,0,0,0,-1,1980,1513,0,0
763,-489,0,0,0,0,0,0,0,0,0,-1,1987,1513,0,0
770,-489,0,0,0,0,0,0,0,0,0,-1,1994,1513,0,0
777,-489,0,0,0,0,0,0,0,0,0,-1,2001,1513,0,0
784,-489,0,0,0,0,0,0,0,0,0,-1,2008,1513,0,0
791,-489,0,0,0,0,0,0,0,0,0,-1,2015,1513,0,0
798,-489,0,0,0,0,0,0,0,0,0,-1,2022,1513,0,0
805,-489,0,0,0,0,0,0,0,0,0,-1,2029,1513,0,0
812,-489,0,0,0,0,0,0,0,0,0,-1,2036,1513,0,0
-700,-496,0,0,0,0,0,0,0,0,0,-1,524,1520,0,0
-693,-496,0,0,0,0,0,0,0,0,0,-1,531,1520,0,0
-686,-496,0,0,0,0,0,0,0,0,0,-1,538,1520,0,0
-679,-496,0,0,0,0,0,0,0,0,0,-1,545,1520,0,0
-672,-496,0,0,0,0,0,0,0,0,0,-1,552,1520,0,0
-665,-496,0,0,0,0,0,0,0,0,0,-1,559,1520,0,0
-658,-496,0,0,0,0,0,0,0,0,0,-1,566,1520,0,0
-651,-496,0,0,0,0,0,0,0,0,0,-1,573,1520,0,0
-644,-496,0,0,0,0,0,0,0,0,0,-1,580,1520,0,0
-637,-496,0,0,0,0,0,0,0,0,0,-1,587,1520,0,0
-630,-496,0,0,0,0,0,0,0,0,0,-1,594,1520,0,0
-623,-496,0,0,0,0,0,0,0,0,0,-1,601,1520,0,0
-616,-496,0,0,0,0,0,0,0,0,0,-1,608,1520,0,0
-609,-496,0,0,0,0,0,0,0,0,0,-1,615,1520,0,0
-602,-496,0,0,0,0,0,0,0,0,0,-1,622,1520,0,0
-595,-496,0,0,0,0,0,0,0,0,0,-1,629,1520,0,0
-588,-496,0,0,0,0,0,0,0,0,0,-1,636,1520,0,0
-581,-496,0,0,0,0,0,0,0,0,0,-1,643,1520,0,0
-574,-496,0,0,0,0,0,0,0,0,0,-1,650,1520,0,0
-567,-496,0,0,0,0,0,0,0,0,0,-1,657,1520,0,0
-560,-496,0,0,0,0,0,0,0,0,0,-1,664,1520,0,0
-553,-496,0,0,0,0,0,0,0,0,0,-1,671,1520,0,0
-546,-496,-8.09711,7.94836,0,0,0,0,0,0,0,-1,678,1520,-8.09712,-7.94842
-539,-496,-3.20129,1.16052,0,0,0,0,0,0,0,-1,685,1520,-3.20131,-1.16054
-532,-496,-2.98279,2.62146,0,0,0,0,0,0,0,-1,692,1520,-2.98278,-2.62151
-525,-496,-2.75201,4.08032,0,0,0,0,0,0,0,-1,699,1520,-2.75201,-4.08031
-518,-496,-2.6333,5.36072,0,0,0,0,0,0,0,-1,706,1520,-2.63328,-5.36077
-511,-496,-7.92126,9.68604,0,0,0,0,0,0,0,-1,713,1520,-7.92127,-9.68598
-504,-496,-7.51044,11.6274,0,0,0,0,0,0,0,-1,720,1520,-7.51042,-11.6275
-497,-496,-5.30933,14.4291,0,0,0,0,0,0,0,-1,727,1520,-5.30932,-14.4291
-490,-496,-8.21246,19.5051,0,0,0,0,0,0,0,-1,734,1520,-8.21243,-19.5051
-483,-496,-10.9417,24.072,0,0,0,0,0,0,0,-1,741,1520,-10.9417,-24.072
-476,-496,-10.8058,24.9695,0.003641,-0.00165751,0.00397312,0.00576712,-0.00378363,0.491352,0.00555362,0.0280908,748,1520,-10.8058,-24.9695
-469,-496,-10.8045,25.8356,0.00267766,-0.00183317,0.00279006,0.00400991,-0.00316542,0.445485,0.00415223,0.0105497,755,1520,-10.8045,-25.8356
-462,-496,-10.8503,26.6472,0.00200079,-0.00144568,0.00204131,0.00294898,-0.00239387,0.434846,0.00309024,0.0155409,762,1520,-10.8503,-26.6472
-455,-496,-10.9084,27.4456,0.00164539,-0.000760224,0.0016498,0.0024843,-0.00159913,0.470415,0.00237596,0.0215804,769,1520,-10.9084,-27.4456
-448,-496,-10.9263,28.2885,0.00162172,0.000224728,0.00161832,0.00268585,-0.000839409,0.581668,0.00212634,0.0196681,776,1520,-10.9263,-28.2884
-441,-496,-10.9457,29.1035,0.00184505,0.00139891,0.00187605,0.00351124,-0.000267282,0.726225,0.00243482,0.0146484,783,1520,-10.9457,-29.1035
-434,-496,-10.9992,29.879,0.00230377,0.00275325,0.00239921,0.00493822,0.000118795,0.832097,0.00325327,0.0146332,790,1520,-10.9992,-29.8791
-427,-496,-11.0685,30.6693,0.00300069,0.00420146,0.00313217,0.00679026,0.00041188,0.880092,0.00439599,0.0192479,797,1520,-11.0685,-30.6693
-420,-496,-11.1296,31.4604,0.00398656,0.0057884,0.00412434,0.00910907,0.000665883,0.892929,0.00586337,0.0200172,804,1520,-11.1296,-31.4604
-413,-496,-11.0597,32.3241,0.00547552,0.00731279,0.00559379,0.0120629,0.000725442,0.866783,0.00781134,0.0312803,811,1520,-11.0597,-32.3241
-406,-496,-10.9273,33.401,0,0,0,0,0,0,0,-1,818,1520,-10.9273,-33.401
-399,-496,-10.5296,34.5609,0,0,0,0,0,0,0,-1,825,1520,-10.5296,-34.5609
-392,-496,-1.49786,12.387,0,0,0,0,0,0,0,-1,832,1520,-1.49788,-12.387
-385,-496,-1.72437,11.4985,0,0,0,0,0,0,0,-1,839,1520,-1.72436,-11.4985
-378,-496,-1.45532,14.0719,0,0,0,0,0,0,0,-1,846,1520,-1.45533,-14.0719
-371,-496,0.0877075,12.5299,0,0,0,0,0,0,0,-1,853,1520,0.0876896,-12.5299
-364,-496,0.0881348,10.6422,0,0,0,0,0,0,0,-1,860,1520,0.0881368,-10.6423
-357,-496,0.323792,7.56812,0,0,0,0,0,0,0,-1,867,1520,0.323782,-7.56806
-350,-496,2.1535,7.18945,0,0,0,0,0,0,0,-1,874,1520,2.15348,-7.1894
-343,-496,-7.56244,0.335327,0,0,0,0,0,0,0,-1,881,1520,-7.56242,-0.335322
-336,-496,-3.99249,6.02222,0,0,0,0,0,0,0,-1,888,1520,-3.99246,-6.0222
-329,-496,-6.93689,-0.100342,0,0,0,0,0,0,0,-1,895,1520,-6.93686,0.1003
-322,-496,-6.17505,0.494385,0,0,0,0,0,0,0,-1,902,1520,-6.17507,-0.49437
-315,-496,-7.539,5.78638,0,0,0,0,0,0,0,-1,909,1520,-7.53898,-5.78633
-308,-496,0,0,0,0,0,0,0,0,0,-1,916,1520,0,0
-301,-496,0,0,0,0,0,0,0,0,0,-1,923,1520,0,0
-294,-496,0,0,0,0,0,0,0,0,0,-1,930,1520,0,0
-287,-496,0,0,0,0,0,0,0,0,0,-1,937,1520,0,0
-280,-496,0,0,0,0,0,0,0,0,0,-1,944,1520,0,0
-273,-496,0,0,0,0,0,0,0,0,0,-1,951,1520,0,0
-266,-496,0,0,0,0,0,0,0,0,0,-1,958,1520,0,0
-259,-496,0,0,0,0,0,0,0,0,0,-1,965,1520,0,0
-252,-496,0,0,0,0,0,0,0,0,0,-1,972,1520,0,0
-245,-496,0,0,0,0,0,0,0,0,0,-1,979,1520,0,0
-238,-496,0,0,0,0,0,0,0,0,0,-1,986,1520,0,0
-231,-496,0,0,0,0,0,0,0,0,0,-1,993,1520,0,0
-224,-496,0,0,0,0,0,0,0,0,0,-1,1000,1520,0,0
-217,-496,0,0,0,0,0,0,0,0,0,-1,1007,1520,0,0
-210,-496,0,0,0,0,0,0,0,0,0,-1,1014,1520,0,0
-203,-496,0,0,0,0,0,0,0,0,0,-1,1021,1520,0,0
-196,-496,0,0,0,0,0,0,0,0,0,-1,1028,1520,0,0
-189,-496,0,0,0,0,0,0,0,0,0,-1,1035,1520,0,0
-182,-496,0,0,0,0,0,0,0,0,0,-1,1042,1520,0,0
-175,-496,0,0,0,0,0,0,0,0,0,-1,1049,1520,0,0
-168,-496,0,0,0,0,0,0,0,0,0,-1,1056,1520,0,0
-161,-496,0,0,0,0,0,0,0,0,0,-1,1063,1520,0,0
-154,-496,0,0,0,0,0,0,0,0,0,-1,1070,1520,0,0
-147,-496,0,0,0,0,0,0,0,0,0,-1,1077,1520,0,0
-140,-496,0,0,0,0,0,0,0,0,0,-1,1084,1520,0,0
-133,-496,0,0,0,0,0,0,0,0,0,-1,1091,1520,0,0
-126,-496,0,0,0,0,0,0,0,0,0,-1,1098,1520,0,0
-119,-496,0,0,0,0,0,0,0,0,0,-1,1105,1520,0,0
-112,-496,0,0,0,0,0,0,0,0,0,-1,1112,1520,0,0
-105,-496,0,0,0,0,0,0,0,0,0,-1,1119,1520,0,0
-98,-496,0,0,0,0,0,0,0,0,0,-1,1126,1520,0,0
-91,-496,0,0,0,0,0,0,0,0,0,-1,1133,1520,0,0
-84,-496,0,0,0,0,0,0,0,0,0,-1,1140,1520,0,0
-77,-496,0,0,0,0,0,0,0,0,0,-1,1147,1520,0,0
-70,-496,0,0,0,0,0,0,0,0,0,-1,1154,1520,0,0
-63,-496,0,0,0,0,0,0,0,0,0,-1,1161,1520,0,0
-56,-496,0,0,0,0,0,0,0,0,0,-1,1168,1520,0,0
-49,-496,0,0,0,0,0,0,0,0,0,-1,1175,1520,0,0
-42,-496,0,0,0,0,0,0,0,0,0,-1,1182,1520,0,0
-35,-496,0,0,0,0,0,0,0,0,0,-1,1189,1520,0,0
-28,-496,0,0,0,0,0,0,0,0,0,-1,1196,1520,0,0
-21,-496,0,0,0,0,0,0,0,0,0,-1,1203,1520,0,0
-14,-496,0,0,0,0,0,0,0,0,0,-1,1210,1520,0,0
-7,-496,0,0,0,0,0,0,0,0,0,-1,1217,1520,0,0
0,-496,0,0,0,0,0,0,0,0,0,-1,1224,1520,0,0
7,-496,0,0,0,0,0,0,0,0,0,-1,1231,1520,0,0
14,-496,0,0,0,0,0,0,0,0,0,-1,1238,1520,0,0
21,-496,0,0,0,0,0,0,0,0,0,-1,1245,1520,0,0
28,-496,0,0,0,0,0,0,0,0,0,-1,1252,1520,0,0
35,-496,0,0,0,0,0,0,0,0,0,-1,1259,1520,0,0
42,-496,0,0,0,0,0,0,0,0,0,-1,1266,1520,0,0
49,-496,0,0,0,0,0,0,0,0,0,-1,1273,1520,0,0
56,-496,0,0,0,0,0,0,0,0,0,-1,1280,1520,0,0
63,-496,0,0,0,0,0,0,0,0,0,-1,1287,1520,0,0
70,-496,0,0,0,0,0,0,0,0,0,-1,1294,1520,0,0
77,-496,0,0,0,0,0,0,0,0,0,-1,1301,1520,0,0
84,-496,0,0,0,0,0,0,0,0,0,-1,1308,1520,0,0
91,-496,0,0,0,0,0,0,0,0,0,-1,1315,1520,0,0
98,-496,0,0,0,0,0,0,0,0,0,-1,1322,1520,0,0
105,-496,0,0,0,0,0,0,0,0,0,-1,1329,1520,0,0
112,-496,0,0,0,0,0,0,0,0,0,-1,1336,1520,0,0
119,-496,0,0,0,0,0,0,0,0,0,-1,1343,1520,0,0
126,-496,0,0,0,0,0,0,0,0,0,-1,1350,1520,0,0
133,-496,0,0,0,0,0,0,0,0,0,-1,1357,1520,0,0
140,-496,0,0,0,0,0,0,0,0,0,-1,1364,1520,0,0
147,-496,0,0,0,0,0,0,0,0,0,-1,1371,1520,0,0
154,-496,0,0,0,0,0,0,0,0,0,-1,1378,1520,0,0
161,-496,0,0,0,0,0,0,0,0,0,-1,1385,1520,0,0
168,-496,0,0,0,0,0,0,0,0,0,-1,1392,1520,0,0
175,-496,0,0,0,0,0,0,0,0,0,-1,1399,1520,0,0
182,-496,0,0,0,0,0,0,0,0,0,-1,1406,1520,0,0
189,-496,0,0,0,0,0,0,0,0,0,-1,1413,1520,0,0
196,-496,0,0,0,0,0,0,0,0,0,-1,1420,1520,0,0
203,-496,0,0,0,0,0,0,0,0,0,-1,1427,1520,0,0
210,-496,0,0,0,0,0,0,0,0,0,-1,1434,1520,0,0
217,-496,0,0,0,0,0,0,0,0,0,-1,1441,1520,0,0
224,-496,0,0,0,0,0,0,0,0,0,-1,1448,1520,0,0
231,-496,0,0,0,0,0,0,0,0,0,-1,1455,1520,0,0
238,-496,0,0,0,0,0,0,0,0,0,-1,1462,1520,0,0
245,-496,0,0,0,0,0,0,0,0,0,-1,1469,1520,0,0
252,-496,0,0,0,0,0,0,0,0,0,-1,1476,1520,0,0
259,-496,0,0,0,0,0,0,0,0,0,-1,1483,1520,0,0
266,-496,0,0,0,0,0,0,0,0,0,-1,1490,1520,0,0
273,-496,0,0,0,0,0,0,0,0,0,-1,1497,1520,0,0
280,-496,0,0,0,0,0,0,0,0,0,-1,1504,1520,0,0
287,-496,0,0,0,0,0,0,0,0,0,-1,1511,1520,0,0
294,-496,0,0,0,0,0,0,0,0,0,-1,1518,1520,0,0
301,-496,0,0,0,0,0,0,0,0,0,-1,1525,1520,0,0
308,-496,0,0,0,0,0,0,0,0,0,-1,1532,1520,0,0
315,-496,0,0,0,0,0,0,0,0,0,-1,1539,1520,0,0
322,-496,0,0,0,0,0,0,0,0,0,-1,1546,1520,0,0
329,-496,0,0,0,0,0,0,0,0,0,-1,1553,1520,0,0
336,-496,0,0,0,0,0,0,0,0,0,-1,1560,1520,0,0
343,-496,0,0,0,0,0,0,0,0,0,-1,1567,1520,0,0
350,-496,0,0,0,0,0,0,0,0,0,-1,1574,1520,0,0
357,-496,0,0,0,0,0,0,0,0,0,-1,1581,1520,0,0
364,-496,0,0,0,0,0,0,0,0,0,-1,1588,1520,0,0
371,-496,0,0,0,0,0,0,0,0,0,-1,1595,1520,0,0
378,-496,0,0,0,0,0,0,0,0,0,-1,1602,1520,0,0
385,-496,0,0,0,0,0,0,0,0,0,-1,1609,1520,0,0
392,-496,0,0,0,0,0,0,0,0,0,-1,1616,1520,0,0
399,-496,0,0,0,0,0,0,0,0,0,-1,1623,1520,0,0
406,-496,0,0,0,0,0,0,0,0,0,-1,1630,1520,0,0
413,-496,0,0,0,0,0,0,0,0,0,-1,1637,1520,0,0
420,-496,0,0,0,0,0,0,0,0,0,-1,1644,1520,0,0
427,-496,0,0,0,0,0,0,0,0,0,-1,1651,1520,0,0
434,-496,11.0457,3.37732,0,0,0,0,0,0,0,-1,1658,1520,11.0456,-3.37736
441,-496,11.788,2.75488,0,0,0,0,0,0,0,-1,1665,1520,11.7879,-2.75485
448,-496,12.2146,2.18494,0,0,0,0,0,0,0,-1,1672,1520,12.2146,-2.18489
455,-496,12.3489,1.65173,0,0,0,0,0,0,0,-1,1679,1520,12.3489,-1.65178
462,-496,12.1912,1.32361,0,0,0,0,0,0,0,-1,1686,1520,12.1911,-1.32357
469,-496,14.8138,5.77954,0,0,0,0,0,0,0,-1,1693,1520,14.8138,-5.77958
476,-496,15.2449,6.27942,0,0,0,0,0,0,0,-1,1700,1520,15.2449,-6.27936
483,-496,9.19812,6.88367,0,0,0,0,0,0,0,-1,1707,1520,9.19812,-6.88361
490,-496,10.2123,7.97144,0,0,0,0,0,0,0,-1,1714,1520,10.2122,-7.97145
497,-496,13.9297,12.2981,0,0,0,0,0,0,0,-1,1721,1520,13.9297,-12.2982
504,-496,16.3271,16.6501,0,0,0,0,0,0,0,-1,1728,1520,16.3272,-16.6502
511,-496,17.6753,18.0685,0,0,0,0,0,0,0,-1,1735,1520,17.6753,-18.0685
518,-496,17.0537,17.3118,0,0,0,0,0,0,0,-1,1742,1520,17.0538,-17.3118
525,-496,18.2721,19.3259,0,0,0,0,0,0,0,-1,1749,1520,18.2721,-19.3259
532,-496,28.931,33.162,0,0,0,0,0,0,0,-1,1756,1520,28.9311,-33.162
539,-496,28.5045,33.251,0,0,0,0,0,0,0,-1,1763,1520,28.5046,-33.251
546,-496,28.6855,32.2404,0.00769288,0.00531985,-0.0045875,0.0112448,0.0017679,-0.658851,0.00698226,0.0224126,1770,1520,28.6856,-32.2404
553,-496,28.7759,31.3326,0.00618875,0.00387053,-0.00335892,0.00858293,0.00147635,-0.619254,0.00529884,0.0160711,1777,1520,28.7759,-31.3326
560,-496,28.7695,30.577,0.00498792,0.00273152,-0.00241572,0.0065259,0.00119353,-0.566938,0.00401237,0.0154153,1784,1520,28.7695,-30.5771
567,-496,28.7366,29.8035,0.00413226,0.00196154,-0.00185055,0.00519225,0.000901544,-0.520179,0.00320356,0.0127728,1791,1520,28.7366,-29.8035
574,-496,28.6819,29.031,0.00358271,0.00147879,-0.00155811,0.00441073,0.00065077,-0.488471,0.00274936,0.0132431,1798,1520,28.6819,-29.031
581,-496,28.6283,28.2717,0.0031967,0.00115493,-0.00140077,0.00390912,0.000442506,-0.470501,0.00247182,0.0142838,1805,1520,28.6284,-28.2717
588,-496,28.6234,27.4695,0.00305012,0.00100389,-0.00141301,0.00377153,0.000282485,-0.47205,0.00242568,0.0170023,1812,1520,28.6234,-27.4695
595,-496,28.5688,26.7068,0.00314388,0.00099077,-0.00148411,0.00390079,0.000233869,-0.471617,0.00252618,0.0181628,1819,1520,28.5689,-26.7068
602,-496,28.516,25.9517,0.00339094,0.00117764,-0.00169057,0.00430486,0.000263718,-0.495598,0.00278616,0.0194737,1826,1520,28.5159,-25.9517
609,-496,28.5016,25.1238,0.00371673,0.00137282,-0.00186263,0.00474542,0.000344126,-0.504594,0.00305537,0.0189192,1833,1520,28.5016,-25.1238
616,-496,28.5844,24.1626,0.00449275,0.00138339,-0.00186946,0.00536951,0.000506631,-0.438536,0.00342332,0.0499499,1840,1520,28.5844,-24.1626
623,-496,28.5599,23.3392,0,0,0,0,0,0,0,-1,1847,1520,28.5599,-23.3392
630,-496,18.5656,13.8966,0,0,0,0,0,0,0,-1,1854,1520,18.5655,-13.8967
637,-496,14.6411,10.1016,0,0,0,0,0,0,0,-1,1861,1520,14.6411,-10.1016
644,-496,12.4537,10.087,0,0,0,0,0,0,0,-1,1868,1520,12.4537,-10.0871
651,-496,8.18506,5.47803,0,0,0,0,0,0,0,-1,1875,1520,8.18505,-5.47806
658,-496,7.79993,4.02563,0,0,0,0,0,0,0,-1,1882,1520,7.79997,-4.02568
665,-496,5.47583,7.90625,0,0,0,0,0,0,0,-1,1889,1520,5.47581,-7.90628
672,-496,0,0,0,0,0,0,0,0,0,-1,1896,1520,0,0
679,-496,0,0,0,0,0,0,0,0,0,-1,1903,1520,0,0
686,-496,0,0,0,0,0,0,0,0,0,-1,1910,1520,0,0
693,-496,0,0,0,0,0,0,0,0,0,-1,1917,1520,0,0
700,-496,0,0,0,0,0,0,0,0,0,-1,1924,1520,0,0
707,-496,0,0,0,0,0,0,0,0,0,-1,1931,1520,0,0
714,-496,0,0,0,0,0,0,0,0,0,-1,1938,1520,0,0
721,-496,0,0,0,0,0,0,0,0,0,-1,1945,1520,0,0
728,-496,0,0,0,0,0,0,0,0,0,-1,1952,1520,0,0
735,-496,0,0,0,0,0,0,0,0,0,-1,1959,1520,0,0
742,-496,0,0,0,0,0,0,0,0,0,-1,1966,1520,0,0
749,-496,0,0,0,0,0,0,0,0,0,-1,1973,1520,0,0
756,-496,0,0,0,0,0,0,0,0,0,-1,1980,1520,0,0
763,-496,0,0,0,0,0,0,0,0,0,-1,1987,1520,0,0
770,-496,0,0,0,0,0,0,0,0,0,-1,1994,1520,0,0
777,-496,0,0,0,0,0,0,0,0,0,-1,2001,1520,0,0
784,-496,0,0,0,0,0,0,0,0,0,-1,2008,1520,0,0
791,-496,0,0,0,0,0,0,0,0,0,-1,2015,1520,0,0
798,-496,0,0,0,0,0,0,0,0,0,-1,2022,1520,0,0
805,-496,0,0,0,0,0,0,0,0,0,-1,2029,1520,0,0
812,-496,0,0,0,0,0,0,0,0,0,-1,2036,1520,0,0
-700,-503,0,0,0,0,0,0,0,0,0,-1,524,1527,0,0
-693,-503,0,0,0,0,0,0,0,0,0,-1,531,1527,0,0
-686,-503,0,0,0,0,0,0,0,0,0,-1,538,1527,0,0
-679,-503,0,0,0,0,0,0,0,0,0,-1,545,1527,0,0
-672,-503,0,0,0,0,0,0,0,0,0,-1,552,1527,0,0
-665,-503,0,0,0,0,0,0,0,0,0,-1,559,1527,0,0
-658,-503,0,0,0,0,0,0,0,0,0,-1,566,1527,0,0
-651,-503,0,0,0,0,0,0,0,0,0,-1,573,1527,0,0
-644,-503,0,0,0,0,0,0,0,0,0,-1,580,1527,0,0
-637,-503,0,0,0,0,0,0,0,0,0,-1,587,1527,0,0
-630,-503,0,0,0,0,0,0,0,0,0,-1,594,1527,0,0
-623,-503,0,0,0,0,0,0,0,0,0,-1,601,1527,0,0
-616,-503,0,0,0,0,0,0,0,0,0,-1,608,1527,0,0
-609,-503,0,0,0,0,0,0,0,0,0,-1,615,1527,0,0
-602,-503,0,0,0,0,0,0,0,0,0,-1,622,1527,0,0
-595,-503,0,0,0,0,0,0,0,0,0,-1,629,1527,0,0
-588,-503,0,0,0,0,0,0,0,0,0,-1,636,1527,0,0
-581,-503,0,0,0,0,0,0,0,0,0,-1,643,1527,0,0
-574,-503,0,0,0,0,0,0,0,0,0,-1,650,1527,0,0
-567,-503,0,0,0,0,0,0,0,0,0,-1,657,1527,0,0
-560,-503,0,0,0,0,0,0,0,0,0,-1,664,1527,0,0
-553,-503,0,0,0,0,0,0,0,0,0,-1,671,1527,0,0
-546,-503,0,0,0,0,0,0,0,0,0,-1,678,1527,0,0
-539,-503,3.50177,4.26428,0,0,0,0,0,0,0,-1,685,1527,3.50177,-4.26424
-532,-503,-3.13196,1.05298,0,0,0,0,0,0,0,-1,692,1527,-3.13194,-1.05299
-525,-503,-2.94293,2.59314,0,0,0,0,0,0,0,-1,699,1527,-2.94296,-2.59314
-518,-503,-2.7395,4.05872,0,0,0,0,0,0,0,-1,706,1527,-2.73948,-4.05871
-511,-503,-1.60022,7.23877,0,0,0,0,0,0,0,-1,713,1527,-1.60023,-7.23872
-504,-503,-8.1402,10.1541,0,0,0,0,0,0,0,-1,720,1527,-8.14017,-10.1541
-497,-503,-4.51758,14.0781,0,0,0,0,0,0,0,-1,727,1527,-4.5176,-14.0782
-490,-503,-4.24194,16.1982,0,0,0,0,0,0,0,-1,734,1527,-4.24196,-16.1982
-483,-503,-9.55774,23.7681,0,0,0,0,0,0,0,-1,741,1527,-9.55776,-23.7681
-476,-503,-10.061,24.9998,0,0,0,0,0,0,0,-1,748,1527,-10.061,-24.9997
-469,-503,-10.0249,25.8843,0.00276755,-0.00360003,0.00273573,0.00378147,-0.00461395,0.354925,0.00485504,0.0188854,755,1527,-10.0249,-25.8843
-462,-503,-10.0495,26.7212,0.00189802,-0.0029202,0.00185588,0.00252998,-0.00355216,0.328202,0.00352802,0.0121296,762,1527,-10.0495,-26.7212
-455,-503,-10.0756,27.5499,0.00140758,-0.00197889,0.00137306,0.00189434,-0.00246564,0.340679,0.00252443,0.0187511,769,1527,-10.0756,-27.5499
-448,-503,-10.0992,28.3579,0.00125252,-0.000897455,0.00122381,0.00180643,-0.00145137,0.425024,0.00188461,0.0173555,776,1527,-10.0992,-28.3579
-441,-503,-10.1202,29.1418,0.00139274,0.000323386,0.0013973,0.00235417,-0.000638047,0.602669,0.0018198,0.0136241,783,1527,-10.1202,-29.1419
-434,-503,-10.1735,29.8964,0.00177584,0.00163636,0.00182388,0.00353132,-0.00011912,0.766289,0.0023949,0.0119401,790,1527,-10.1735,-29.8963
-427,-503,-10.276,30.6488,0.00237478,0.00292314,0.00242215,0.00508658,0.00021134,0.841757,0.00332285,0.018998,797,1527,-10.276,-30.6488
-420,-503,-10.3049,31.4702,0.00324116,0.00427391,0.00324025,0.00703867,0.0004764,0.864415,0.00454198,0.0193016,804,1527,-10.305,-31.4702
-413,-503,-10.3362,32.2794,0.0045164,0.00553064,0.00441522,0.00946776,0.000579271,0.842576,0.00612789,0.0166699,811,1527,-10.3363,-32.2794
-406,-503,-10.3329,33.0846,0.00591837,0.00678334,0.00556884,0.0119365,0.000765245,0.824151,0.00771522,0.0276782,818,1527,-10.3329,-33.0846
-399,-503,-10.2035,34.135,0.00745604,0.0084072,0.00701389,0.0149616,0.000901627,0.819249,0.00968787,0.04766,825,1527,-10.2035,-34.135
-392,-503,-9.83478,35.4803,0,0,0,0,0,0,0,-1,832,1527,-9.8348,-35.4803
-385,-503,-2.00403,14.1218,0,0,0,0,0,0,0,-1,839,1527,-2.00403,-14.1218
-378,-503,-2.07043,13.8632,0,0,0,0,0,0,0,-1,846,1527,-2.07043,-13.8631
-371,-503,-1.67285,13.8081,0,0,0,0,0,0,0,-1,853,1527,-1.67285,-13.8081
-364,-503,0.181396,12.3768,0,0,0,0,0,0,0,-1,860,1527,0.18138,-12.3768
-357,-503,0.558533,9.25452,0,0,0,0,0,0,0,-1,867,1527,0.558542,-9.25446
-350,-503,0.219971,6.84827,0,0,0,0,0,0,0,-1,874,1527,0.21996,-6.84831
-343,-503,-3.5802,4.43274,0,0,0,0,0,0,0,-1,881,1527,-3.58018,-4.43276
-336,-503,-3.2384,6.40637,0,0,0,0,0,0,0,-1,888,1527,-3.2384,-6.40643
-329,-503,-1.70691,11.886,0,0,0,0,0,0,0,-1,895,1527,-1.70689,-11.886
-322,-503,-3.31317,8.81519,0,0,0,0,0,0,0,-1,902,1527,-3.31315,-8.81524
-315,-503,-3.90265,7.73853,0,0,0,0,0,0,0,-1,909,1527,-3.90264,-7.73854
-308,-503,-1.70264,7.35413,0,0,0,0,0,0,0,-1,916,1527,-1.70262,-7.35416
-301,-503,0,0,0,0,0,0,0,0,0,-1,923,1527,0,0
-294,-503,0,0,0,0,0,0,0,0,0,-1,930,1527,0,0
-287,-503,0,0,0,0,0,0,0,0,0,-1,937,1527,0,0
-280,-503,0,0,0,0,0,0,0,0,0,-1,944,1527,0,0
-273,-503,0,0,0,0,0,0,0,0,0,-1,951,1527,0,0
-266,-503,0,0,0,0,0,0,0,0,0,-1,958,1527,0,0
-259,-503,0,0,0,0,0,0,0,0,0,-1,965,1527,0,0
-252,-503,0,0,0,0,0,0,0,0,0,-1,972,1527,0,0
-245,-503,0,0,0,0,0,0,0,0,0,-1,979,1527,0,0
-238,-503,0,0,0,0,0,0,0,0,0,-1,986,1527,0,0
-231,-503,0,0,0,0,0,0,0,0,0,-1,993,1527,0,0
-224,-503,0,0,0,0,0,0,0,0,0,-1,1000,1527,0,0
-217,-503,0,0,0,0,0,0,0,0,0,-1,1007,1527,0,0
-210,-503,0,0,0,0,0,0,0,0,0,-1,1014,1527,0,0
-203,-503,0,0,0,0,0,0,0,0,0,-1,1021,1527,0,0
-196,-503,0,0,0,0,0,0,0,0,0,-1,1028,1527,0,0
-189,-503,0,0,0,0,0,0,0,0,0,-1,1035,1527,0,0
-182,-503,0,0,0,0,0,0,0,0,0,-1,1042,1527,0,0
-175,-503,0,0,0,0,0,0,0,0,0,-1,1049,1527,0,0
-168,-503,0,0,0,0,0,0,0,0,0,-1,1056,1527,0,0
-161,-503,0,0,0,0,0,0,0,0,0,-1,1063,1527,0,0
-154,-503,0,0,0,0,0,0,0,0,0,-1,1070,1527,0,0
-147,-503,0,0,0,0,0,0,0,0,0,-1,1077,1527,0,0
-140,-503,0,0,0,0,0,0,0,0,0,-1,1084,1527,0,0
-133,-503,0,0,0,0,0,0,0,0,0,-1,1091,1527,0,0
-126,-503,0,0,0,0,0,0,0,0,0,-1,1098,1527,0,0
-119,-503,0,0,0,0,0,0,0,0,0,-1,1105,1527,0,0
-112,-503,0,0,0,0,0,0,0,0,0,-1,1112,1527,0,0
-105,-503,0,0,0,0,0,0,0,0,0,-1,1119,1527,0,0
-98,-503,0,0,0,0,0,0,0,0,0,-1,1126,1527,0,0
-91,-503,0,0,0,0,0,0,0,0,0,-1,1133,1527,0,0
-84,-503,0,0,0,0,0,0,0,0,0,-1,1140,1527,0,0
-77,-503,0,0,0,0,0,0,0,0,0,-1,1147,1527,0,0
-70,-503,0,0,0,0,0,0,0,0,0,-1,1154,1527,0,0
-63,-503,0,0,0,0,0,0,0,0,0,-1,1161,1527,0,0
-56,-503,0,0,0,0,0,0,0,0,0,-1,1168,1527,0,0
-49,-503,0,0,0,0,0,0,0,0,0,-1,1175,1527,0,0
-42,-503,0,0,0,0,0,0,0,0,0,-1,1182,1527,0,0
-35,-503,0,0,0,0,0,0,0,0,0,-1,1189,1527,0,0
-28,-503,0,0,0,0,0,0,0,0,0,-1,1196,1527,0,0
-21,-503,0,0,0,0,0,0,0,0,0,-1,1203,1527,0,0
-14,-503,0,0,0,0,0,0,0,0,0,-1,1210,1527,0,0
-7,-503,0,0,0,0,0,0,0,0,0,-1,1217,1527,0,0
0,-503,0,0,0,0,0,0,0,0,0,-1,1224,1527,0,0
7,-503,0,0,0,0,0,0,0,0,0,-1,1231,1527,0,0
14,-503,0,0,0,0,0,0,0,0,0,-1,1238,1527,0,0
21,-503,0,0,0,0,0,0,0,0,0,-1,1245,1527,0,0
28,-503,0,0,0,0,0,0,0,0,0,-1,1252,1527,0,0
35,-503,0,0,0,0,0,0,0,0,0,-1,1259,1527,0,0
42,-503,0,0,0,0,0,0,0,0,0,-1,1266,1527,0,0
49,-503,0,0,0,0,0,0,0,0,0,-1,1273,1527,0,0
56,-503,0,0,0,0,0,0,0,0,0,-1,1280,1527,0,0
63,-503,0,0,0,0,0,0,0,0,0,-1,1287,1527,0,0
70,-503,0,0,0,0,0,0,0,0,0,-1,1294,1527,0,0
77,-503,0,0,0,0,0,0,0,0,0,-1,1301,1527,0,0
84,-503,0,0,0,0,0,0,0,0,0,-1,1308,1527,0,0
91,-503,0,0,0,0,0,0,0,0,0,-1,1315,1527,0,0
98,-503,0,0,0,0,0,0,0,0,0,-1,1322,1527,0,0
105,-503,0,0,0,0,0,0,0,0,0,-1,1329,1527,0,0
112,-503,0,0,0,0,0,0,0,0,0,-1,1336,1527,0,0
119,-503,0,0,0,0,0,0,0,0,0,-1,1343,1527,0,0
126,-503,0,0,0,0,0,0,0,0,0,-1,1350,1527,0,0
133,-503,0,0,0,0,0,0,0,0,0,-1,1357,1527,0,0
140,-503,0,0,0,0,0,0,0,0,0,-1,1364,1527,0,0
147,-503,0,0,0,0,0,0,0,0,0,-1,1371,1527,0,0
154,-503,0,0,0,0,0,0,0,0,0,-1,1378,1527,0,0
161,-503,0,0,0,0,0,0,0,0,0,-1,1385,1527,0,0
168,-503,0,0,0,0,0,0,0,0,0,-1,1392,1527,0,0
175,-503,0,0,0,0,0,0,0,0,0,-1,1399,1527,0,0
182,-503,0,0,0,0,0,0,0,0,0,-1,1406,1527,0,0
189,-503,0,0,0,0,0,0,0,0,0,-1,1413,1527,0,0
196,-503,0,0,0,0,0,0,0,0,0,-1,1420,1527,0,0
203,-503,0,0,0,0,0,0,0,0,0,-1,1427,1527,0,0
210,-503,0,0,0,0,0,0,0,0,0,-1,1434,1527,0,0
217,-503,0,0,0,0,0,0,0,0,0,-1,1441,1527,0,0
224,-503,0,0,0,0,0,0,0,0,0,-1,1448,1527,0,0
231,-503,0,0,0,0,0,0,0,0,0,-1,1455,1527,0,0
238,-503,0,0,0,0,0,0,0,0,0,-1,1462,1527,0,0
245,-503,0,0,0,0,0,0,0,0,0,-1,1469,1527,0,0
252,-503,0,0,0,0,0,0,0,0,0,-1,1476,1527,0,0
259,-503,0,0,0,0,0,0,0,0,0,-1,1483,1527,0,0
266,-503,0,0,0,0,0,0,0,0,0,-1,1490,1527,0,0
273,-503,0,0,0,0,0,0,0,0,0,-1,1497,1527,0,0
280,-503,0,0,0,0,0,0,0,0,0,-1,1504,1527,0,0
287,-503,0,0,0,0,0,0,0,0,0,-1,1511,1527,0,0
294,-503,0,0,0,0,0,0,0,0,0,-1,1518,1527,0,0
301,-503,0,0,0,0,0,0,0,0,0,-1,1525,1527,0,0
308,-503,0,0,0,0,0,0,0,0,0,-1,1532,1527,0,0
315,-503,0,0,0,0,0,0,0,0,0,-1,1539,1527,0,0
322,-503,0,0,0,0,0,0,0,0,0,-1,1546,1527,0,0
329,-503,0,0,0,0,0,0,0,0,0,-1,1553,1527,0,0
336,-503,0,0,0,0,0,0,0,0,0,-1,1560,1527,0,0
343,-503,0,0,0,0,0,0,0,0,0,-1,1567,1527,0,0
350,-503,0,0,0,0,0,0,0,0,0,-1,1574,1527,0,0
357,-503,0,0,0,0,0,0,0,0,0,-1,1581,1527,0,0
364,-503,0,0,0,0,0,0,0,0,0,-1,1588,1527,0,0
371,-503,0,0,0,0,0,0,0,0,0,-1,1595,1527,0,0
378,-503,0,0,0,0,0,0,0,0,0,-1,1602,1527,0,0
385,-503,0,0,0,0,0,0,0,0,0,-1,1609,1527,0,0
392,-503,0,0,0,0,0,0,0,0,0,-1,1616,1527,0,0
399,-503,0,0,0,0,0,0,0,0,0,-1,1623,1527,0,0
406,-503,0,0,0,0,0,0,0,0,0,-1,1630,1527,0,0
413,-503,0,0,0,0,0,0,0,0,0,-1,1637,1527,0,0
420,-503,0,0,0,0,0,0,0,0,0,-1,1644,1527,0,0
427,-503,10.5968,4.9856,0,0,0,0,0,0,0,-1,1651,1527,10.5969,-4.98563
434,-503,11.4329,3.97217,0,0,0,0,0,0,0,-1,1658,1527,11.4328,-3.97222
441,-503,12.0957,2.96509,0,0,0,0,0,0,0,-1,1665,1527,12.0957,-2.96512
448,-503,12.3259,2.53894,0,0,0,0,0,0,0,-1,1672,1527,12.326,-2.53895
455,-503,12.1669,2.18762,0,0,0,0,0,0,0,-1,1679,1527,12.1668,-2.18767
462,-503,11.59,2.60791,0,0,0,0,0,0,0,-1,1686,1527,11.5899,-2.60794
469,-503,11.1625,1.61853,0,0,0,0,0,0,0,-1,1693,1527,11.1625,-1.61856
476,-503,9.07703,5.81042,0,0,0,0,0,0,0,-1,1700,1527,9.07699,-5.81047
483,-503,9.74414,6.92432,0,0,0,0,0,0,0,-1,1707,1527,9.74417,-6.9243
490,-503,10.5033,10.1071,0,0,0,0,0,0,0,-1,1714,1527,10.5032,-10.107
497,-503,15.0057,17.9476,0,0,0,0,0,0,0,-1,1721,1527,15.0058,-17.9476
504,-503,16.4764,18.4486,0,0,0,0,0,0,0,-1,1728,1527,16.4764,-18.4486
511,-503,16.8276,18.3271,0,0,0,0,0,0,0,-1,1735,1527,16.8276,-18.3272
518,-503,17.2533,18.2738,0,0,0,0,0,0,0,-1,1742,1527,17.2533,-18.2738
525,-503,21.2887,26.5785,0,0,0,0,0,0,0,-1,1749,1527,21.2887,-26.5785
532,-503,27.9037,33.9585,0,0,0,0,0,0,0,-1,1756,1527,27.9037,-33.9585
539,-503,27.9993,33.035,0.00798182,0.00626501,-0.00524826,0.0124414,0.00180542,-0.704336,0.00776277,0.0329677,1763,1527,27.9993,-33.035
546,-503,28.0167,32.1476,0.0063317,0.0047619,-0.00394741,0.00957148,0.00152211,-0.687258,0.00593899,0.0135263,1770,1527,28.0167,-32.1476
553,-503,28.036,31.3711,0.00510807,0.0034944,-0.00291823,0.00732895,0.00127352,-0.650528,0.00452164,0.0151867,1777,1527,28.036,-31.3711
560,-503,27.9938,30.6138,0.00417573,0.00247351,-0.00212524,0.00561394,0.00103529,-0.594939,0.00344971,0.0149462,1784,1527,27.9938,-30.6138
567,-503,27.9551,29.8356,0.00360118,0.00183544,-0.00170632,0.00463951,0.00079711,-0.546658,0.00286451,0.012995,1791,1527,27.9551,-29.8355
574,-503,27.9022,29.0823,0.00330008,0.0014255,-0.00149893,0.00413065,0.000594935,-0.505989,0.00257843,0.0137395,1798,1527,27.9022,-29.0823
581,-503,27.8396,28.3175,0.00317015,0.00118073,-0.00143867,0.00392451,0.000426378,-0.482931,0.00248643,0.0152634,1805,1527,27.8396,-28.3175
588,-503,27.8262,27.5227,0.00327968,0.00114212,-0.00157812,0.00411687,0.000304921,-0.487752,0.0026488,0.0184784,1812,1527,27.8262,-27.5227
595,-503,27.7948,26.7356,0.00362336,0.0012897,-0.00181584,0.00461495,0.000298112,-0.499827,0.00298224,0.0139475,1819,1527,27.7948,-26.7355
602,-503,27.8156,25.9052,0.00416052,0.00171667,-0.00223621,0.00548687,0.000390314,-0.53535,0.003535,0.0244996,1826,1527,27.8156,-25.9051
609,-503,27.8015,25.0658,0,0,0,0,0,0,0,-1,1833,1527,27.8016,-25.0658
616,-503,27.9205,24.2308,0,0,0,0,0,0,0,-1,1840,1527,27.9206,-24.2309
623,-503,18.7351,15.5999,0,0,0,0,0,0,0,-1,1847,1527,18.7351,-15.5999
630,-503,20.6721,13.9077,0,0,0,0,0,0,0,-1,1854,1527,20.6721,-13.9077
637,-503,14.5564,9.20496,0,0,0,0,0,0,0,-1,1861,1527,14.5564,-9.2049
644,-503,11.4802,7.57214,0,0,0,0,0,0,0,-1,1868,1527,11.4802,-7.57215
651,-503,11.5718,6.5448,0,0,0,0,0,0,0,-1,1875,1527,11.5718,-6.54476
658,-503,8.25635,3.10498,0,0,0,0,0,0,0,-1,1882,1527,8.2563,-3.10493
665,-503,0,0,0,0,0,0,0,0,0,-1,1889,1527,0,0
672,-503,0,0,0,0,0,0,0,0,0,-1,1896,1527,0,0
679,-503,0,0,0,0,0,0,0,0,0,-1,1903,1527,0,0
686,-503,0,0,0,0,0,0,0,0,0,-1,1910,1527,0,0
693,-503,0,0,0,0,0,0,0,0,0,-1,1917,1527,0,0
700,-503,0,0,0,0,0,0,0,0,0,-1,1924,1527,0,0
707,-503,0,0,0,0,0,0,0,0,0,-1,1931,1527,0,0
714,-503,0,0,0,0,0,0,0,0,0,-1,1938,1527,0,0
721,-503,0,0,0,0,0,0,0,0,0,-1,1945,1527,0,0
728,-503,0,0,0,0,0,0,0,0,0,-1,1952,1527,0,0
735,-503,0,0,0,0,0,0,0,0,0,-1,1959,1527,0,0
742,-503,0,0,0,0,0,0,0,0,0,-1,1966,1527,0,0
749,-503,0,0,0,0,0,0,0,0,0,-1,1973,1527,0,0
756,-503,0,0,0,0,0,0,0,0,0,-1,1980,1527,0,0
763,-503,0,0,0,0,0,0,0,0,0,-1,1987,1527,0,0
770,-503,0,0,0,0,0,0,0,0,0,-1,1994,1527,0,0
777,-503,0,0,0,0,0,0,0,0,0,-1,2001,1527,0,0
784,-503,0,0,0,0,0,0,0,0,0,-1,2008,1527,0,0
791,-503,0,0,0,0,0,0,0,0,0,-1,2015,1527,0,0
798,-503,0,0,0,0,0,0,0,0,0,-1,2022,1527,0,0
805,-503,0,0,0,0,0,0,0,0,0,-1,2029,1527,0,0
812,-503,0,0,0,0,0,0,0,0,0,-1,2036,1527,0,0
-700,-510,0,0,0,0,0,0,0,0,0,-1,524,1534,0,0
-693,-510,0,0,0,0,0,0,0,0,0,-1,531,1534,0,0
-686,-510,0,0,0,0,0,0,0,0,0,-1,538,1534,0,0
-679,-510,0,0,0,0,0,0,0,0,0,-1,545,1534,0,0
-672,-510,0,0,0,0,0,0,0,0,0,-1,552,1534,0,0
-665,-510,0,0,0,0,0,0,0,0,0,-1,559,1534,0,0
-658,-510,0,0,0,0,0,0,0,0,0,-1,566,1534,0,0
-651,-510,0,0,0,0,0,0,0,0,0,-1,573,1534,0,0
-644,-510,0,0,0,0,0,0,0,0,0,-1,580,1534,0,0
-637,-510,0,0,0,0,0,0,0,0,0,-1,587,1534,0,0
-630,-510,0,0,0,0,0,0,0,0,0,-1,594,1534,0,0
-623,-510,0,0,0,0,0,0,0,0,0,-1,601,1534,0,0
-616,-510,0,0,0,0,0,0,0,0,0,-1,608,1534,0,0
-609,-510,0,0,0,0,0,0,0,0,0,-1,615,1534,0,0
-602,-510,0,0,0,0,0,0,0,0,0,-1,622,1534,0,0
-595,-510,0,0,0,0,0,0,0,0,0,-1,629,1534,0,0
-588,-510,0,0,0,0,0,0,0,0,0,-1,636,1534,0,0
-581,-510,0,0,0,0,0,0,0,0,0,-1,643,1534,0,0
-574,-510,0,0,0,0,0,0,0,0,0,-1,650,1534,0,0
-567,-510,0,0,0,0,0,0,0,0,0,-1,657,1534,0,0
-560,-510,0,0,0,0,0,0,0,0,0,-1,664,1534,0,0
-553,-510,0,0,0,0,0,0,0,0,0,-1,671,1534,0,0
-546,-510,0,0,0,0,0,0,0,0,0,-1,678,1534,0,0
-539,-510,0,0,0,0,0,0,0,0,0,-1,685,1534,0,0
-532,-510,-3.95129,4.52014,0,0,0,0,0,0,0,-1,692,1534,-3.95131,-4.5202
-525,-510,-2.77411,0.316772,0,0,0,0,0,0,0,-1,699,1534,-2.77409,-0.3168
-518,-510,-2.86847,2.71423,0,0,0,0,0,0,0,-1,706,1534,-2.86849,-2.71424
-511,-510,-2.28571,4.48083,0,0,0,0,0,0,0,-1,713,1534,-2.28571,-4.48086
-504,-510,-4.86731,10.8224,0,0,0,0,0,0,0,-1,720,1534,-4.8673,-10.8224
-497,-510,-3.42352,15.5178,0,0,0,0,0,0,0,-1,727,1534,-3.42352,-15.5178
-490,-510,-5.9472,18.5184,0,0,0,0,0,0,0,-1,734,1534,-5.94718,-18.5185
-483,-510,-6.79639,20.8453,0,0,0,0,0,0,0,-1,741,1534,-6.79638,-20.8454
-476,-510,-9.27136,25.1058,0,0,0,0,0,0,0,-1,748,1534,-9.27137,-25.1058
-469,-510,-9.1908,25.9556,0.00312,-0.00592987,0.00272825,0.00387885,-0.00668872,0.271288,0.00617266,0.0264284,755,1534,-9.19078,-25.9556
-462,-510,-9.22717,26.7496,0.00197501,-0.00480742,0.00171351,0.00238333,-0.00521574,0.23393,0.00448776,0.0125407,762,1534,-9.22718,-26.7497
-455,-510,-9.2771,27.5765,0.0012796,-0.00350965,0.00112894,0.00153238,-0.00376243,0.220273,0.00314604,0.015252,769,1534,-9.27711,-27.5766
-448,-510,-9.30139,28.3756,0.000936538,-0.00225024,0.000851461,0.00114977,-0.00246347,0.245383,0.00213157,0.0143699,776,1534,-9.30137,-28.3757
-441,-510,-9.34503,29.1504,0.000949091,-0.000913612,0.000927181,0.00133192,-0.00129644,0.391577,0.00151754,0.0148324,783,1534,-9.34501,-29.1504
-434,-510,-9.42438,29.9054,0.00120963,0.000421761,0.00123465,0.00211167,-0.000480275,0.63097,0.0015922,0.0159122,790,1534,-9.42438,-29.9054
-427,-510,-9.50354,30.6467,0.0016658,0.00163548,0.0016825,0.00333321,-3.19269e-05,0.780893,0.00223286,0.024822,797,1534,-9.50354,-30.6467
-420,-510,-9.52777,31.5095,0.00236779,0.00285124,0.00231564,0.00493773,0.000281292,0.837404,0.00320218,0.022884,804,1534,-9.52776,-31.5095
-413,-510,-9.54315,32.345,0.00339306,0.00399395,0.0032029,0.00691047,0.00047655,0.832163,0.00445663,0.0118405,811,1534,-9.54315,-32.3449
-406,-510,-9.60583,33.1232,0.00454512,0.0050759,0.00410973,0.0089288,0.000692226,0.817641,0.00573573,0.0114916,818,1534,-9.60586,-33.1232
-399,-510,-9.64282,33.894,0.00577817,0.00638554,0.0051852,0.0112759,0.000887771,0.814649,0.00723954,0.0169897,825,1534,-9.64282,-33.894
-392,-510,-9.56549,34.777,0,0,0,0,0,0,0,-1,832,1534,-9.5655,-34.7769
-385,-510,-7.23199,31.704,0,0,0,0,0,0,0,-1,839,1534,-7.23198,-31.704
-378,-510,-1.78308,13.8044,0,0,0,0,0,0,0,-1,846,1534,-1.78309,-13.8044
-371,-510,-1.74982,13.8027,0,0,0,0,0,0,0,-1,853,1534,-1.74981,-13.8028
-364,-510,-1.3479,13.7771,0,0,0,0,0,0,0,-1,860,1534,-1.34791,-13.7771
-357,-510,-0.254395,8.89575,0,0,0,0,0,0,0,-1,867,1534,-0.254397,-8.89569
-350,-510,0.471191,6.06458,0,0,0,0,0,0,0,-1,874,1534,0.47118,-6.06453
-343,-510,-6.96869,26.3074,0,0,0,0,0,0,0,-1,881,1534,-6.9687,-26.3074
-336,-510,-5.60437,29.5996,0,0,0,0,0,0,0,-1,888,1534,-5.60435,-29.5996
-329,-510,-4.87781,20.6893,0,0,0,0,0,0,0,-1,895,1534,-4.87782,-20.6894
-322,-510,-0.251526,11.973,0,0,0,0,0,0,0,-1,902,1534,-0.251497,-11.9731
-315,-510,-1.73047,10.9796,0,0,0,0,0,0,0,-1,909,1534,-1.73049,-10.9796
-308,-510,-2.05328,9.72034,0,0,0,0,0,0,0,-1,916,1534,-2.05327,-9.72036
-301,-510,-1.85437,11.5869,0,0,0,0,0,0,0,-1,923,1534,-1.85437,-11.5869
-294,-510,0,0,0,0,0,0,0,0,0,-1,930,1534,0,0
-287,-510,0,0,0,0,0,0,0,0,0,-1,937,1534,0,0
-280,-510,0,0,0,0,0,0,0,0,0,-1,944,1534,0,0
-273,-510,0,0,0,0,0,0,0,0,0,-1,951,1534,0,0
-266,-510,0,0,0,0,0,0,0,0,0,-1,958,1534,0,0
-259,-510,0,0,0,0,0,0,0,0,0,-1,965,1534,0,0
-252,-510,0,0,0,0,0,0,0,0,0,-1,972,1534,0,0
-245,-510,0,0,0,0,0,0,0,0,0,-1,979,1534,0,0
-238,-510,0,0,0,0,0,0,0,0,0,-1,986,1534,0,0
-231,-510,0,0,0,0,0,0,0,0,0,-1,993,1534,0,0
-224,-510,0,0,0,0,0,0,0,0,0,-1,1000,1534,0,0
-217,-510,0,0,0,0,0,0,0,0,0,-1,1007,1534,0,0
-210,-510,0,0,0,0,0,0,0,0,0,-1,1014,1534,0,0
-203,-510,0,0,0,0,0,0,0,0,0,-1,1021,1534,0,0
-196,-510,0,0,0,0,0,0,0,0,0,-1,1028,1534,0,0
-189,-510,0,0,0,0,0,0,0,0,0,-1,1035,1534,0,0
-182,-510,0,0,0,0,0,0,0,0,0,-1,1042,1534,0,0
-175,-510,0,0,0,0,0,0,0,0,0,-1,1049,1534,0,0
-168,-510,0,0,0,0,0,0,0,0,0,-1,1056,1534,0,0
-161,-510,0,0,0,0,0,0,0,0,0,-1,1063,1534,0,0
-154,-510,0,0,0,0,0,0,0,0,0,-1,1070,1534,0,0
-147,-510,0,0,0,0,0,0,0,0,0,-1,1077,1534,0,0
-140,-510,0,0,0,0,0,0,0,0,0,-1,1084,1534,0,0
-133,-510,0,0,0,0,0,0,0,0,0,-1,1091,1534,0,0
-126,-510,0,0,0,0,0,0,0,0,0,-1,1098,1534,0,0
-119,-510,0,0,0,0,0,0,0,0,0,-1,1105,1534,0,0
-112,-510,0,0,0,0,0,0,0,0,0,-1,1112,1534,0,0
-105,-510,0,0,0,0,0,0,0,0,0,-1,1119,1534,0,0
-98,-510,0,0,0,0,0,0,0,0,0,-1,1126,1534,0,0
-91,-510,0,0,0,0,0,0,0,0,0,-1,1133,1534,0,0
-84,-510,0,0,0,0,0,0,0,0,0,-1,1140,1534,0,0
-77,-510,0,0,0,0,0,0,0,0,0,-1,1147,1534,0,0
-70,-510,0,0,0,0,0,0,0,0,0,-1,1154,1534,0,0
-63,-510,0,0,0,0,0,0,0,0,0,-1,1161,1534,0,0
-56,-510,0,0,0,0,0,0,0,0,0,-1,1168,1534,0,0
-49,-510,0,0,0,0,0,0,0,0,0,-1,1175,1534,0,0
-42,-510,0,0,0,0,0,0,0,0,0,-1,1182,1534,0,0
-35,-510,0,0,0,0,0,0,0,0,0,-1,1189,1534,0,0
-28,-510,0,0,0,0,0,0,0,0,0,-1,1196,1534,0,0
-21,-510,0,0,0,0,0,0,0,0,0,-1,1203,1534,0,0
-14,-510,0,0,0,0,0,0,0,0,0,-1,1210,1534,0,0
-7,-510,0,0,0,0,0,0,0,0,0,-1,1217,1534,0,0
0,-510,0,0,0,0,0,0,0,0,0,-1,1224,1534,0,0
7,-510,0,0,0,0,0,0,0,0,0,-1,1231,1534,0,0
14,-510,0,0,0,0,0,0,0,0,0,-1,1238,1534,0,0
21,-510,0,0,0,0,0,0,0,0,0,-1,1245,1534,0,0
28,-510,0,0,0,0,0,0,0,0,0,-1,1252,1534,0,0
35,-510,0,0,0,0,0,0,0,0,0,-1,1259,1534,0,0
42,-510,0,0,0,0,0,0,0,0,0,-1,1266,1534,0,0
49,-510,0,0,0,0,0,0,0,0,0,-1,1273,1534,0,0
56,-510,0,0,0,0,0,0,0,0,0,-1,1280,1534,0,0
63,-510,0,0,0,0,0,0,0,0,0,-1,1287,1534,0,0
70,-510,0,0,0,0,0,0,0,0,0,-1,1294,1534,0,0
77,-510,0,0,0,0,0,0,0,0,0,-1,1301,1534,0,0
84,-510,0,0,0,0,0,0,0,0,0,-1,1308,1534,0,0
91,-510,0,0,0,0,0,0,0,0,0,-1,1315,1534,0,0
98,-510,0,0,0,0,0,0,0,0,0,-1,1322,1534,0,0
105,-510,0,0,0,0,0,0,0,0,0,-1,1329,1534,0,0
112,-510,0,0,0,0,0,0,0,0,0,-1,1336,1534,0,0
119,-510,0,0,0,0,0,0,0,0,0,-1,1343,1534,0,0
126,-510,0,0,0,0,0,0,0,0,0,-1,1350,1534,0,0
133,-510,0,0,0,0,0,0,0,0,0,-1,1357,1534,0,0
140,-510,0,0,0,0,0,0,0,0,0,-1,1364,1534,0,0
147,-510,0,0,0,0,0,0,0,0,0,-1,1371,1534,0,0
154,-510,0,0,0,0,0,0,0,0,0,-1,1378,1534,0,0
161,-510,0,0,0,0,0,0,0,0,0,-1,1385,1534,0,0
168,-510,0,0,0,0,0,0,0,0,0,-1,1392,1534,0,0
175,-510,0,0,0,0,0,0,0,0,0,-1,1399,1534,0,0
182,-510,0,0,0,0,0,0,0,0,0,-1,1406,1534,0,0
189,-510,0,0,0,0,0,0,0,0,0,-1,1413,1534,0,0
196,-510,0,0,0,0,0,0,0,0,0,-1,1420,1534,0,0
203,-510,0,0,0,0,0,0,0,0,0,-1,1427,1534,0,0
210,-510,0,0,0,0,0,0,0,0,0,-1,1434,1534,0,0
217,-510,0,0,0,0,0,0,0,0,0,-1,1441,1534,0,0
224,-510,0,0,0,0,0,0,0,0,0,-1,1448,1534,0,0
231,-510,0,0,0,0,0,0,0,0,0,-1,1455,1534,0,0
238,-510,0,0,0,0,0,0,0,0,0,-1,1462,1534,0,0
245,-510,0,0,0,0,0,0,0,0,0,-1,1469,1534,0,0
252,-510,0,0,0,0,0,0,0,0,0,-1,1476,1534,0,0
259,-510,0,0,0,0,0,0,0,0,0,-1,1483,1534,0,0
266,-510,0,0,0,0,0,0,0,0,0,-1,1490,1534,0,0
273,-510,0,0,0,0,0,0,0,0,0,-1,1497,1534,0,0
280,-510,0,0,0,0,0,0,0,0,0,-1,1504,1534,0,0
287,-510,0,0,0,0,0,0,0,0,0,-1,1511,1534,0,0
294,-510,0,0,0,0,0,0,0,0,0,-1,1518,1534,0,0
301,-510,0,0,0,0,0,0,0,0,0,-1,1525,1534,0,0
308,-510,0,0,0,0,0,0,0,0,0,-1,1532,1534,0,0
315,-510,0,0,0,0,0,0,0,0,0,-1,1539,1534,0,0
322,-510,0,0,0,0,0,0,0,0,0,-1,1546,1534,0,0
329,-510,0,0,0,0,0,0,0,0,0,-1,1553,1534,0,0
336,-510,0,0,0,0,0,0,0,0,0,-1,1560,1534,0,0
343,-510,0,0,0,0,0,0,0,0,0,-1,1567,1534,0,0
350,-510,0,0,0,0,0,0,0,0,0,-1,1574,1534,0,0
357,-510,0,0,0,0,0,0,0,0,0,-1,1581,1534,0,0
364,-510,0,0,0,0,0,0,0,0,0,-1,1588,1534,0,0
371,-510,0,0,0,0,0,0,0,0,0,-1,1595,1534,0,0
378,-510,0,0,0,0,0,0,0,0,0,-1,1602,1534,0,0
385,-510,0,0,0,0,0,0,0,0,0,-1,1609,1534,0,0
392,-510,0,0,0,0,0,0,0,0,0,-1,1616,1534,0,0
399,-510,0,0,0,0,0,0,0,0,0,-1,1623,1534,0,0
406,-510,0,0,0,0,0,0,0,0,0,-1,1630,1534,0,0
413,-510,0,0,0,0,0,0,0,0,0,-1,1637,1534,0,0
420,-510,14.1888,6.71936,0,0,0,0,0,0,0,-1,1644,1534,14.1889,-6.71939
427,-510,10.2134,5.59485,0,0,0,0,0,0,0,-1,1651,1534,10.2134,-5.59485
434,-510,11.8219,4.07898,0,0,0,0,0,0,0,-1,1658,1534,11.8219,-4.07895
441,-510,12.6812,3.02991,0,0,0,0,0,0,0,-1,1665,1534,12.6811,-3.0299
448,-510,13.2379,2.2804,0,0,0,0,0,0,0,-1,1672,1534,13.2379,-2.28037
455,-510,9.76892,2.20642,0,0,0,0,0,0,0,-1,1679,1534,9.76894,-2.20647
462,-510,9.84692,2.49182,0,0,0,0,0,0,0,-1,1686,1534,9.84695,-2.49185
469,-510,16.6072,7.26941,0,0,0,0,0,0,0,-1,1693,1534,16.6072,-7.26945
476,-510,15.9199,7.8645,0,0,0,0,0,0,0,-1,1700,1534,15.9199,-7.86455
483,-510,13.0833,8.10938,0,0,0,0,0,0,0,-1,1707,1534,13.0833,-8.10932
490,-510,13.0841,15.3286,0,0,0,0,0,0,0,-1,1714,1534,13.0841,-15.3286
497,-510,15.5652,18.823,0,0,0,0,0,0,0,-1,1721,1534,15.5652,-18.823
504,-510,15.998,18.7478,0,0,0,0,0,0,0,-1,1728,1534,15.998,-18.7478
511,-510,15.9443,18.0476,0,0,0,0,0,0,0,-1,1735,1534,15.9443,-18.0476
518,-510,21.5343,27.1368,0,0,0,0,0,0,0,-1,1742,1534,21.5342,-27.1368
525,-510,26.939,34.8395,0,0,0,0,0,0,0,-1,1749,1534,26.939,-34.8395
532,-510,27.288,33.7996,0.00809684,0.00714765,-0.00563557,0.0132778,0.00196673,-0.74339,0.00827455,0.0315088,1756,1534,27.2879,-33.7995
539,-510,27.3413,32.9088,0.00636108,0.00541098,-0.00430299,0.0102152,0.00155689,-0.730421,0.00635504,0.0135612,1763,1534,27.3413,-32.9088
546,-510,27.2816,32.1768,0.00509924,0.00409294,-0.00328591,0.0079203,0.00127189,-0.709427,0.00491144,0.0133674,1770,1534,27.2817,-32.1768
553,-510,27.2498,31.4009,0.00416708,0.00300305,-0.00247309,0.00612572,0.00104441,-0.669832,0.00378403,0.0145111,1777,1534,27.2498,-31.4009
560,-510,27.191,30.6112,0.00350783,0.00210672,-0.00184697,0.00478264,0.000831913,-0.604131,0.00295048,0.0145598,1784,1534,27.191,-30.6113
567,-510,27.1498,29.8362,0.00320398,0.00159574,-0.00157698,0.00417002,0.000629702,-0.549624,0.0025957,0.0136538,1791,1534,27.1498,-29.8361
574,-510,27.1129,29.1044,0.00315191,0.00126901,-0.0014668,0.0039534,0.000467529,-0.50009,0.0024944,0.0149819,1798,1534,27.1129,-29.1044
581,-510,27.0878,28.3774,0.00331203,0.0011208,-0.00152195,0.0040917,0.000341128,-0.473428,0.0026215,0.0138763,1805,1534,27.0877,-28.3775
588,-510,27.0631,27.5951,0.00372511,0.00121478,-0.00180141,0.00466551,0.000274377,-0.481121,0.00302303,0.0139686,1812,1534,27.0631,-27.5951
595,-510,27.1332,26.6954,0.00435281,0.00155474,-0.00222111,0.00557878,0.000328777,-0.504348,0.00361458,0.0212596,1819,1534,27.1331,-26.6954
602,-510,27.173,25.7461,0,0,0,0,0,0,0,-1,1826,1534,27.173,-25.7461
609,-510,21.259,19.222,0,0,0,0,0,0,0,-1,1833,1534,21.259,-19.222
616,-510,18.7024,16.2474,0,0,0,0,0,0,0,-1,1840,1534,18.7024,-16.2474
623,-510,19.6013,14.6211,0,0,0,0,0,0,0,-1,1847,1534,19.6013,-14.6211
630,-510,13.7461,9.30334,0,0,0,0,0,0,0,-1,1854,1534,13.7461,-9.30335
637,-510,11.0155,7.38464,0,0,0,0,0,0,0,-1,1861,1534,11.0155,-7.38463
644,-510,11.5809,7.17126,0,0,0,0,0,0,0,-1,1868,1534,11.5809,-7.17123
651,-510,8.70471,3.5061,0,0,0,0,0,0,0,-1,1875,1534,8.70475,-3.50611
658,-510,0,0,0,0,0,0,0,0,0,-1,1882,1534,0,0
665,-510,0,0,0,0,0,0,0,0,0,-1,1889,1534,0,0
672,-510,0,0,0,0,0,0,0,0,0,-1,1896,1534,0,0
679,-510,0,0,0,0,0,0,0,0,0,-1,1903,1534,0,0
686,-510,0,0,0,0,0,0,0,0,0,-1,1910,1534,0,0
693,-510,0,0,0,0,0,0,0,0,0,-1,1917,1534,0,0
700,-510,0,0,0,0,0,0,0,0,0,-1,1924,1534,0,0
707,-510,0,0,0,0,0,0,0,0,0,-1,1931,1534,0,0
714,-510,0,0,0,0,0,0,0,0,0,-1,1938,1534,0,0
721,-510,0,0,0,0,0,0,0,0,0,-1,1945,1534,0,0
728,-510,0,0,0,0,0,0,0,0,0,-1,1952,1534,0,0
735,-510,0,0,0,0,0,0,0,0,0,-1,1959,1534,0,0
742,-510,0,0,0,0,0,0,0,0,0,-1,1966,1534,0,0
749,-510,0,0,0,0,0,0,0,0,0,-1,1973,1534,0,0
756,-510,0,0,0,0,0,0,0,0,0,-1,1980,1534,0,0
763,-510,0,0,0,0,0,0,0,0,0,-1,1987,1534,0,0
770,-510,0,0,0,0,0,0,0,0,0,-1,1994,1534,0,0
777,-510,0,0,0,0,0,0,0,0,0,-1,2001,1534,0,0
784,-510,0,0,0,0,0,0,0,0,0,-1,2008,1534,0,0
791,-510,0,0,0,0,0,0,0,0,0,-1,2015,1534,0,0
798,-510,0,0,0,0,0,0,0,0,0,-1,2022,1534,0,0
805,-510,0,0,0,0,0,0,0,0,0,-1,2029,1534,0,0
812,-510,0,0,0,0,0,0,0,0,0,-1,2036,1534,0,0
-700,-517,0,0,0,0,0,0,0,0,0,-1,524,1541,0,0
-693,-517,0,0,0,0,0,0,0,0,0,-1,531,1541,0,0
-686,-517,0,0,0,0,0,0,0,0,0,-1,538,1541,0,0
-679,-517,0,0,0,0,0,0,0,0,0,-1,545,1541,0,0
-672,-517,0,0,0,0,0,0,0,0,0,-1,552,1541,0,0
-665,-517,0,0,0,0,0,0,0,0,0,-1,559,1541,0,0
-658,-517,0,0,0,0,0,0,0,0,0,-1,566,1541,0,0
-651,-517,0,0,0,0,0,0,0,0,0,-1,573,1541,0,0
-644,-517,0,0,0,0,0,0,0,0,0,-1,580,1541,0,0
-637,-517,0,0,0,0,0,0,0,0,0,-1,587,1541,0,0
-630,-517,0,0,0,0,0,0,0,0,0,-1,594,1541,0,0
-623,-517,0,0,0,0,0,0,0,0,0,-1,601,1541,0,0
-616,-517,0,0,0,0,0,0,0,0,0,-1,608,1541,0,0
-609,-517,0,0,0,0,0,0,0,0,0,-1,615,1541,0,0
-602,-517,0,0,0,0,0,0,0,0,0,-1,622,1541,0,0
-595,-517,0,0,0,0,0,0,0,0,0,-1,629,1541,0,0
-588,-517,0,0,0,0,0,0,0,0,0,-1,636,1541,0,0
-581,-517,0,0,0,0,0,0,0,0,0,-1,643,1541,0,0
-574,-517,0,0,0,0,0,0,0,0,0,-1,650,1541,0,0
-567,-517,0,0,0,0,0,0,0,0,0,-1,657,1541,0,0
-560,-517,0,0,0,0,0,0,0,0,0,-1,664,1541,0,0
-553,-517,0,0,0,0,0,0,0,0,0,-1,671,1541,0,0
-546,-517,0,0,0,0,0,0,0,0,0,-1,678,1541,0,0
-539,-517,0,0,0,0,0,0,0,0,0,-1,685,1541,0,0
-532,-517,0,0,0,0,0,0,0,0,0,-1,692,1541,0,0
-525,-517,-3.62903,4.3606,0,0,0,0,0,0,0,-1,699,1541,-3.62904,-4.36056
-518,-517,-1.664,2.27209,0,0,0,0,0,0,0,-1,706,1541,-1.66399,-2.27207
-511,-517,-0.999146,5.52063,0,0,0,0,0,0,0,-1,713,1541,-0.999126,-5.52059
-504,-517,-1.06946,8.67432,0,0,0,0,0,0,0,-1,720,1541,-1.06947,-8.6743
-497,-517,-5.43036,17.4033,0,0,0,0,0,0,0,-1,727,1541,-5.43033,-17.4034
-490,-517,-6.20526,19.4496,0,0,0,0,0,0,0,-1,734,1541,-6.20526,-19.4495
-483,-517,-6.2254,20.368,0,0,0,0,0,0,0,-1,741,1541,-6.22542,-20.368
-476,-517,-7.9967,25.1047,0,0,0,0,0,0,0,-1,748,1541,-7.99672,-25.1047
-469,-517,-8.22363,26.0139,0.00333602,-0.0088475,0.00249456,0.003827,-0.00933847,0.194333,0.00781996,0.0310344,755,1541,-8.2236,-26.0139
-462,-517,-8.45789,26.7488,0.00194888,-0.00705589,0.00140372,0.00216263,-0.00726964,0.151111,0.0057056,0.0315975,762,1541,-8.45787,-26.7488
-455,-517,-8.49097,27.5885,0.00107352,-0.0052308,0.000767084,0.00116552,-0.0053228,0.119356,0.00399413,0.0181271,769,1541,-8.49095,-27.5885
-448,-517,-8.50641,28.425,0.00057849,-0.00369069,0.000404127,0.000616408,-0.00372861,0.0935541,0.00271464,0.013483,776,1541,-8.50638,-28.4251
-441,-517,-8.56311,29.22,0.000494614,-0.00215843,0.000423799,0.000560668,-0.00222448,0.154616,0.00170096,0.0126006,783,1541,-8.56311,-29.22
-434,-517,-8.61041,29.995,0.000662857,-0.000741733,0.00065255,0.000919228,-0.000998103,0.374349,0.00110728,0.0156037,790,1541,-8.6104,-29.995
-427,-517,-8.66919,30.7749,0.00101089,0.000463453,0.00100144,0.00177535,-0.000301005,0.651995,0.00129561,0.0153257,797,1541,-8.66916,-30.7748
-420,-517,-8.76379,31.5752,0.00158157,0.00159303,0.00149571,0.00308302,9.15775e-05,0.787314,0.00202551,0.030411,804,1541,-8.76381,-31.5752
-413,-517,-8.79822,32.3607,0.00239486,0.00266517,0.00214703,0.00468129,0.000378738,0.816832,0.00300259,0.0168507,811,1541,-8.79822,-32.3608
-406,-517,-8.82574,33.1731,0.00335136,0.00361295,0.00287071,0.00635584,0.000608461,0.808163,0.00404967,0.0124609,818,1541,-8.82574,-33.1731
-399,-517,-8.84747,33.9529,0.00435098,0.00464979,0.00366261,0.00816604,0.000834725,0.805783,0.00518822,0.0118508,825,1541,-8.84749,-33.9529
-392,-517,-8.84595,34.739,0.00531238,0.00575934,0.00441876,0.00996027,0.00111145,0.810664,0.00630245,0.0207704,832,1541,-8.84597,-34.739
-385,-517,-8.78925,35.6144,0,0,0,0,0,0,0,-1,839,1541,-8.78924,-35.6143
-378,-517,-6.61444,32.6315,0,0,0,0,0,0,0,-1,846,1541,-6.61445,-32.6315
-371,-517,-1.37585,13.2646,0,0,0,0,0,0,0,-1,853,1541,-1.37586,-13.2647
-364,-517,-1.26245,12.6289,0,0,0,0,0,0,0,-1,860,1541,-1.26243,-12.6289
-357,-517,-1.23889,12.979,0,0,0,0,0,0,0,-1,867,1541,-1.23891,-12.979
-350,-517,-5.40198,23.8954,0,0,0,0,0,0,0,-1,874,1541,-5.40196,-23.8954
-343,-517,-5.45844,29.2598,0,0,0,0,0,0,0,-1,881,1541,-5.45842,-29.2598
-336,-517,-4.53223,29.6708,0,0,0,0,0,0,0,-1,888,1541,-4.53221,-29.6708
-329,-517,-3.60602,30.0817,0,0,0,0,0,0,0,-1,895,1541,-3.60601,-30.0817
-322,-517,-4.21246,19.5819,0,0,0,0,0,0,0,-1,902,1541,-4.21244,-19.5819
-315,-517,-0.987976,7.29749,0,0,0,0,0,0,0,-1,909,1541,-0.987993,-7.29743
-308,-517,3.27911,17.621,0,0,0,0,0,0,0,-1,916,1541,3.27913,-17.621
-301,-517,-1.69141,8.87488,0,0,0,0,0,0,0,-1,923,1541,-1.69141,-8.87485
-294,-517,-1.72583,9.92566,0,0,0,0,0,0,0,-1,930,1541,-1.72584,-9.92571
-287,-517,-3.09045,12.1472,0,0,0,0,0,0,0,-1,937,1541,-3.09043,-12.1472
-280,-517,0,0,0,0,0,0,0,0,0,-1,944,1541,0,0
-273,-517,0,0,0,0,0,0,0,0,0,-1,951,1541,0,0
-266,-517,0,0,0,0,0,0,0,0,0,-1,958,1541,0,0
-259,-517,0,0,0,0,0,0,0,0,0,-1,965,1541,0,0
-252,-517,0,0,0,0,0,0,0,0,0,-1,972,1541,0,0
-245,-517,0,0,0,0,0,0,0,0,0,-1,979,1541,0,0
-238,-517,0,0,0,0,0,0,0,0,0,-1,986,1541,0,0
-231,-517,0,0,0,0,0,0,0,0,0,-1,993,1541,0,0
-224,-517,0,0,0,0,0,0,0,0,0,-1,1000,1541,0,0
-217,-517,0,0,0,0,0,0,0,0,0,-1,1007,1541,0,0
-210,-517,0,0,0,0,0,0,0,0,0,-1,1014,1541,0,0
-203,-517,0,0,0,0,0,0,0,0,0,-1,1021,1541,0,0
-196,-517,0,0,0,0,0,0,0,0,0,-1,1028,1541,0,0
-189,-517,0,0,0,0,0,0,0,0,0,-1,1035,1541,0,0
-182,-517,0,0,0,0,0,0,0,0,0,-1,1042,1541,0,0
-175,-517,0,0,0,0,0,0,0,0,0,-1,1049,1541,0,0
-168,-517,0,0,0,0,0,0,0,0,0,-1,1056,1541,0,0
-161,-517,0,0,0,0,0,0,0,0,0,-1,1063,1541,0,0
-154,-517,0,0,0,0,0,0,0,0,0,-1,1070,1541,0,0
-147,-517,0,0,0,0,0,0,0,0,0,-1,1077,1541,0,0
-140,-517,0,0,0,0,0,0,0,0,0,-1,1084,1541,0,0
-133,-517,0,0,0,0,0,0,0,0,0,-1,1091,1541,0,0
-126,-517,0,0,0,0,0,0,0,0,0,-1,1098,1541,0,0
-119,-517,0,0,0,0,0,0,0,0,0,-1,1105,1541,0,0
-112,-517,0,0,0,0,0,0,0,0,0,-1,1112,1541,0,0
-105,-517,0,0,0,0,0,0,0,0,0,-1,1119,1541,0,0
-98,-517,0,0,0,0,0,0,0,0,0,-1,1126,1541,0,0
-91,-517,0,0,0,0,0,0,0,0,0,-1,1133,1541,0,0
-84,-517,0,0,0,0,0,0,0,0,0,-1,1140,1541,0,0
-77,-517,0,0,0,0,0,0,0,0,0,-1,1147,1541,0,0
-70,-517,0,0,0,0,0,0,0,0,0,-1,1154,1541,0,0
-63,-517,0,0,0,0,0,0,0,0,0,-1,1161,1541,0,0
-56,-517,0,0,0,0,0,0,0,0,0,-1,1168,1541,0,0
-49,-517,0,0,0,0,0,0,0,0,0,-1,1175,1541,0,0
-42,-517,0,0,0,0,0,0,0,0,0,-1,1182,1541,0,0
-35,-517,0,0,0,0,0,0,0,0,0,-1,1189,1541,0,0
-28,-517,0,0,0,0,0,0,0,0,0,-1,1196,1541,0,0
-21,-517,0,0,0,0,0,0,0,0,0,-1,1203,1541,0,0
-14,-517,0,0,0,0,0,0,0,0,0,-1,1210,1541,0,0
-7,-517,0,0,0,0,0,0,0,0,0,-1,1217,1541,0,0
0,-517,0,0,0,0,0,0,0,0,0,-1,1224,1541,0,0
7,-517,0,0,0,0,0,0,0,0,0,-1,1231,1541,0,0
14,-517,0,0,0,0,0,0,0,0,0,-1,1238,1541,0,0
21,-517,0,0,0,0,0,0,0,0,0,-1,1245,1541,0,0
28,-517,0,0,0,0,0,0,0,0,0,-1,1252,1541,0,0
35,-517,0,0,0,0,0,0,0,0,0,-1,1259,1541,0,0
42,-517,0,0,0,0,0,0,0,0,0,-1,1266,1541,0,0
49,-517,0,0,0,0,0,0,0,0,0,-1,1273,1541,0,0
56,-517,0,0,0,0,0,0,0,0,0,-1,1280,1541,0,0
63,-517,0,0,0,0,0,0,0,0,0,-1,1287,1541,0,0
70,-517,0,0,0,0,0,0,0,0,0,-1,1294,1541,0,0
77,-517,0,0,0,0,0,0,0,0,0,-1,1301,1541,0,0
84,-517,0,0,0,0,0,0,0,0,0,-1,1308,1541,0,0
91,-517,0,0,0,0,0,0,0,0,0,-1,1315,1541,0,0
98,-517,0,0,0,0,0,0,0,0,0,-1,1322,1541,0,0
105,-517,0,0,0,0,0,0,0,0,0,-1,1329,1541,0,0
112,-517,0,0,0,0,0,0,0,0,0,-1,1336,1541,0,0
119,-517,0,0,0,0,0,0,0,0,0,-1,1343,1541,0,0
126,-517,0,0,0,0,0,0,0,0,0,-1,1350,1541,0,0
133,-517,0,0,0,0,0,0,0,0,0,-1,1357,1541,0,0
140,-517,0,0,0,0,0,0,0,0,0,-1,1364,1541,0,0
147,-517,0,0,0,0,0,0,0,0,0,-1,1371,1541,0,0
154,-517,0,0,0,0,0,0,0,0,0,-1,1378,1541,0,0
161,-517,0,0,0,0,0,0,0,0,0,-1,1385,1541,0,0
168,-517,0,0,0,0,0,0,0,0,0,-1,1392,1541,0,0
175,-517,0,0,0,0,0,0,0,0,0,-1,1399,1541,0,0
182,-517,0,0,0,0,0,0,0,0,0,-1,1406,1541,0,0
189,-517,0,0,0,0,0,0,0,0,0,-1,1413,1541,0,0
196,-517,0,0,0,0,0,0,0,0,0,-1,1420,1541,0,0
203,-517,0,0,0,0,0,0,0,0,0,-1,1427,1541,0,0
210,-517,0,0,0,0,0,0,0,0,0,-1,1434,1541,0,0
217,-517,0,0,0,0,0,0,0,0,0,-1,1441,1541,0,0
224,-517,0,0,0,0,0,0,0,0,0,-1,1448,1541,0,0
231,-517,0,0,0,0,0,0,0,0,0,-1,1455,1541,0,0
238,-517,0,0,0,0,0,0,0,0,0,-1,1462,1541,0,0
245,-517,0,0,0,0,0,0,0,0,0,-1,1469,1541,0,0
252,-517,0,0,0,0,0,0,0,0,0,-1,1476,1541,0,0
259,-517,0,0,0,0,0,0,0,0,0,-1,1483,1541,0,0
266,-517,0,0,0,0,0,0,0,0,0,-1,1490,1541,0,0
273,-517,0,0,0,0,0,0,0,0,0,-1,1497,1541,0,0
280,-517,0,0,0,0,0,0,0,0,0,-1,1504,1541,0,0
287,-517,0,0,0,0,0,0,0,0,0,-1,1511,1541,0,0
294,-517,0,0,0,0,0,0,0,0,0,-1,1518,1541,0,0
301,-517,0,0,0,0,0,0,0,0,0,-1,1525,1541,0,0
308,-517,0,0,0,0,0,0,0,0,0,-1,1532,1541,0,0
315,-517,0,0,0,0,0,0,0,0,0,-1,1539,1541,0,0
322,-517,0,0,0,0,0,0,0,0,0,-1,1546,1541,0,0
329,-517,0,0,0,0,0,0,0,0,0,-1,1553,1541,0,0
336,-517,0,0,0,0,0,0,0,0,0,-1,1560,1541,0,0
343,-517,0,0,0,0,0,0,0,0,0,-1,1567,1541,0,0
350,-517,0,0,0,0,0,0,0,0,0,-1,1574,1541,0,0
357,-517,0,0,0,0,0,0,0,0,0,-1,1581,1541,0,0
364,-517,0,0,0,0,0,0,0,0,0,-1,1588,1541,0,0
371,-517,0,0,0,0,0,0,0,0,0,-1,1595,1541,0,0
378,-517,0,0,0,0,0,0,0,0,0,-1,1602,1541,0,0
385,-517,0,0,0,0,0,0,0,0,0,-1,1609,1541,0,0
392,-517,0,0,0,0,0,0,0,0,0,-1,1616,1541,0,0
399,-517,0,0,0,0,0,0,0,0,0,-1,1623,1541,0,0
406,-517,13.1395,7.01978,0,0,0,0,0,0,0,-1,1630,1541,13.1396,-7.01981
413,-517,12.8859,6.31592,0,0,0,0,0,0,0,-1,1637,1541,12.8858,-6.31588
420,-517,12.4789,6.20337,0,0,0,0,0,0,0,-1,1644,1541,12.4789,-6.20333
427,-517,11.647,4.66516,0,0,0,0,0,0,0,-1,1651,1541,11.647,-4.66519
434,-517,12.3719,3.92773,0,0,0,0,0,0,0,-1,1658,1541,12.3719,-3.92776
441,-517,13.146,3.14124,0,0,0,0,0,0,0,-1,1665,1541,13.146,-3.14121
448,-517,13.8861,2.36682,0,0,0,0,0,0,0,-1,1672,1541,13.8861,-2.36684
455,-517,13.6012,4.06335,0,0,0,0,0,0,0,-1,1679,1541,13.6012,-4.06335
462,-517,14.8956,7.0752,0,0,0,0,0,0,0,-1,1686,1541,14.8956,-7.07525
469,-517,13.6292,6.87744,0,0,0,0,0,0,0,-1,1693,1541,13.6292,-6.87739
476,-517,17.1632,14.1487,0,0,0,0,0,0,0,-1,1700,1541,17.1632,-14.1487
483,-517,16.5157,15.0776,0,0,0,0,0,0,0,-1,1707,1541,16.5157,-15.0777
490,-517,15.5439,18.0258,0,0,0,0,0,0,0,-1,1714,1541,15.5439,-18.0258
497,-517,16.0292,18.7786,0,0,0,0,0,0,0,-1,1721,1541,16.0291,-18.7786
504,-517,17.3815,22.3873,0,0,0,0,0,0,0,-1,1728,1541,17.3814,-22.3873
511,-517,16.9674,21.8491,0,0,0,0,0,0,0,-1,1735,1541,16.9674,-21.8491
518,-517,26.2318,35.3734,0,0,0,0,0,0,0,-1,1742,1541,26.2319,-35.3734
525,-517,26.4413,34.5668,0.00814548,0.00761716,-0.00584469,0.013732,0.00203066,-0.762815,0.00855845,0.0284493,1749,1541,26.4412,-34.5668
532,-517,26.6118,33.6786,0.006393,0.00600355,-0.00460746,0.0108098,0.0015867,-0.764279,0.00674021,0.0137715,1756,1541,26.6118,-33.6786
539,-517,26.5942,32.9296,0.00508001,0.00461562,-0.0035906,0.00844591,0.00124972,-0.753109,0.00526372,0.0141711,1763,1541,26.5942,-32.9295
546,-517,26.5477,32.2024,0.00411554,0.00345336,-0.00277296,0.00657711,0.000991787,-0.72598,0.00409438,0.014956,1770,1541,26.5477,-32.2024
553,-517,26.4771,31.4346,0.00341419,0.00249743,-0.00211023,0.00511525,0.00079637,-0.678451,0.00317815,0.0186252,1777,1541,26.4771,-31.4346
560,-517,26.4418,30.6584,0.00298021,0.00169084,-0.00160036,0.00406086,0.000610198,-0.593923,0.0025285,0.0171144,1784,1541,26.4418,-30.6585
567,-517,26.424,29.9041,0.00289624,0.00124772,-0.00142053,0.00371434,0.000429631,-0.522514,0.00234616,0.0133279,1791,1541,26.4239,-29.9041
574,-517,26.3778,29.1272,0.00305706,0.000951637,-0.00136696,0.00372968,0.000279016,-0.457273,0.00239887,0.0148524,1798,1541,26.3778,-29.1272
581,-517,26.3076,28.3638,0.00350391,0.000851889,-0.00151226,0.00418918,0.00016662,-0.425463,0.00273893,0.0167607,1805,1541,26.3076,-28.3638
588,-517,26.3026,27.5901,0.00424186,0.0010314,-0.00190501,0.00512778,0.000145477,-0.435297,0.00337107,0.0172613,1812,1541,26.3026,-27.5901
595,-517,26.3217,26.8489,0.00516722,0.00153451,-0.00251653,0.00645442,0.000247305,-0.472805,0.00422293,0.0456673,1819,1541,26.3216,-26.8488
602,-517,26.5632,25.8351,0,0,0,0,0,0,0,-1,1826,1541,26.5632,-25.8351
609,-517,12.6417,10.8751,0,0,0,0,0,0,0,-1,1833,1541,12.6417,-10.8751
616,-517,14.205,10.3193,0,0,0,0,0,0,0,-1,1840,1541,14.205,-10.3194
623,-517,12.578,10.0779,0,0,0,0,0,0,0,-1,1847,1541,12.578,-10.0779
630,-517,11.7035,7.47815,0,0,0,0,0,0,0,-1,1854,1541,11.7035,-7.47812
637,-517,11.5172,5.79822,0,0,0,0,0,0,0,-1,1861,1541,11.5173,-5.79825
644,-517,11.4232,3.30579,0,0,0,0,0,0,0,-1,1868,1541,11.4232,-3.30574
651,-517,0,0,0,0,0,0,0,0,0,-1,1875,1541,0,0
658,-517,0,0,0,0,0,0,0,0,0,-1,1882,1541,0,0
665,-517,0,0,0,0,0,0,0,0,0,-1,1889,1541,0,0
672,-517,0,0,0,0,0,0,0,0,0,-1,1896,1541,0,0
679,-517,0,0,0,0,0,0,0,0,0,-1,1903,1541,0,0
686,-517,0,0,0,0,0,0,0,0,0,-1,1910,1541,0,0
693,-517,0,0,0,0,0,0,0,0,0,-1,1917,1541,0,0
700,-517,0,0,0,0,0,0,0,0,0,-1,1924,1541,0,0
707,-517,0,0,0,0,0,0,0,0,0,-1,1931,1541,0,0
714,-517,0,0,0,0,0,0,0,0,0,-1,1938,1541,0,0
721,-517,0,0,0,0,0,0,0,0,0,-1,1945,1541,0,0
728,-517,0,0,0,0,0,0,0,0,0,-1,1952,1541,0,0
735,-517,0,0,0,0,0,0,0,0,0,-1,1959,1541,0,0
742,-517,0,0,0,0,0,0,0,0,0,-1,1966,1541,0,0
749,-517,0,0,0,0,0,0,0,0,0,-1,1973,1541,0,0
756,-517,0,0,0,0,0,0,0,0,0,-1,1980,1541,0,0
763,-517,0,0,0,0,0,0,0,0,0,-1,1987,1541,0,0
770,-517,0,0,0,0,0,0,0,0,0,-1,1994,1541,0,0
777,-517,0,0,0,0,0,0,0,0,0,-1,2001,1541,0,0
784,-517,0,0,0,0,0,0,0,0,0,-1,2008,1541,0,0
791,-517,0,0,0,0,0,0,0,0,0,-1,2015,1541,0,0
798,-517,0,0,0,0,0,0,0,0,0,-1,2022,1541,0,0
805,-517,0,0,0,0,0,0,0,0,0,-1,2029,1541,0,0
812,-517,0,0,0,0,0,0,0,0,0,-1,2036,1541,0,0
-700,-524,0,0,0,0,0,0,0,0,0,-1,524,1548,0,0
-693,-524,0,0,0,0,0,0,0,0,0,-1,531,1548,0,0
-686,-524,0,0,0,0,0,0,0,0,0,-1,538,1548,0,0
-679,-524,0,0,0,0,0,0,0,0,0,-1,545,1548,0,0
-672,-524,0,0,0,0,0,0,0,0,0,-1,552,1548,0,0
-665,-524,0,0,0,0,0,0,0,0,0,-1,559,1548,0,0
-658,-524,0,0,0,0,0,0,0,0,0,-1,566,1548,0,0
-651,-524,0,0,0,0,0,0,0,0,0,-1,573,1548,0,0
-644,-524,0,0,0,0,0,0,0,0,0,-1,580,1548,0,0
-637,-524,0,0,0,0,0,0,0,0,0,-1,587,1548,0,0
-630,-524,0,0,0,0,0,0,0,0,0,-1,594,1548,0,0
-623,-524,0,0,0,0,0,0,0,0,0,-1,601,1548,0,0
-616,-524,0,0,0,0,0,0,0,0,0,-1,608,1548,0,0
-609,-524,0,0,0,0,0,0,0,0,0,-1,615,1548,0,0
-602,-524,0,0,0,0,0,0,0,0,0,-1,622,1548,0,0
-595,-524,0,0,0,0,0,0,0,0,0,-1,629,1548,0,0
-588,-524,0,0,0,0,0,0,0,0,0,-1,636,1548,0,0
-581,-524,0,0,0,0,0,0,0,0,0,-1,643,1548,0,0
-574,-524,0,0,0,0,0,0,0,0,0,-1,650,1548,0,0
-567,-524,0,0,0,0,0,0,0,0,0,-1,657,1548,0,0
-560,-524,0,0,0,0,0,0,0,0,0,-1,664,1548,0,0
-553,-524,0,0,0,0,0,0,0,0,0,-1,671,1548,0,0
-546,-524,0,0,0,0,0,0,0,0,0,-1,678,1548,0,0
-539,-524,0,0,0,0,0,0,0,0,0,-1,685,1548,0,0
-532,-524,0,0,0,0,0,0,0,0,0,-1,692,1548,0,0
-525,-524,-0.215515,3.97131,0,0,0,0,0,0,0,-1,699,1548,-0.215501,-3.97136
-518,-524,-0.806274,4.35632,0,0,0,0,0,0,0,-1,706,1548,-0.806259,-4.35633
-511,-524,-1.08301,4.29004,0,0,0,0,0,0,0,-1,713,1548,-1.08301,-4.29006
-504,-524,-1.28821,3.98145,0,0,0,0,0,0,0,-1,720,1548,-1.28822,-3.98151
-497,-524,-0.328491,8.63416,0,0,0,0,0,0,0,-1,727,1548,-0.328487,-8.63411
-490,-524,-6.65582,19.3033,0,0,0,0,0,0,0,-1,734,1548,-6.65583,-19.3034
-483,-524,-7.57153,22.1989,0,0,0,0,0,0,0,-1,741,1548,-7.57151,-22.1988
-476,-524,-7.93585,25.6118,0,0,0,0,0,0,0,-1,748,1548,-7.93586,-25.6118
-469,-524,-7.92004,26.3428,0.00380661,-0.0122598,0.0022734,0.00412211,-0.0125753,0.137895,0.0100436,0.0498137,755,1548,-7.92002,-26.3427
-462,-524,-7.60577,27.0831,0.00202231,-0.00955731,0.00103841,0.00211469,-0.0096497,0.0887323,0.00724169,0.0470552,762,1548,-7.60577,-27.0831
-455,-524,-7.80542,27.6532,0.000879611,-0.00699132,0.00036038,0.000896076,-0.00700778,0.0456588,0.0049974,0.0392912,769,1548,-7.80543,-27.6532
-448,-524,-7.763,28.4572,0.000173627,-0.00508962,-9.24804e-05,0.000175251,-0.00509124,-0.0175637,0.00345406,0.016662,776,1548,-7.76303,-28.4571
-441,-524,-7.77997,29.2788,-1.08758e-05,-0.00328526,-9.27796e-05,-8.24896e-06,-0.00328789,-0.0283047,0.00218918,0.0113978,783,1548,-7.78,-29.2788
-434,-524,-7.78308,30.0626,7.99151e-05,-0.00174,9.57055e-05,8.49341e-05,-0.00174502,0.0523951,0.00119267,0.0134558,790,1548,-7.78306,-30.0626
-427,-524,-7.83167,30.8521,0.000350057,-0.000497544,0.000390113,0.000502273,-0.00064976,0.372016,0.000666941,0.0165194,797,1548,-7.83168,-30.8521
-420,-524,-7.90863,31.6174,0.000827298,0.000581172,0.000790717,0.00150447,-9.60017e-05,0.7082,0.00103646,0.0404253,804,1548,-7.90863,-31.6175
-413,-524,-8.01141,32.4052,0.00147698,0.00161055,0.00125881,0.00280435,0.000283184,0.811901,0.00178268,0.0374185,811,1548,-8.01139,-32.4051
-406,-524,-8.00366,33.2297,0.00230481,0.00245384,0.00185204,0.00423286,0.000525789,0.805504,0.002664,0.0136255,818,1548,-8.00364,-33.2298
-399,-524,-8.03418,33.9945,0.00315919,0.00327572,0.00243486,0.00565302,0.000781899,0.797361,0.00353697,0.0101321,825,1548,-8.03421,-33.9945
-392,-524,-8.08057,34.7358,0.00394094,0.00412089,0.00296229,0.00699457,0.00106725,0.800581,0.00435115,0.0109984,832,1548,-8.08057,-34.7358
-385,-524,-8.12421,35.5444,0.00473212,0.00505104,0.00351857,0.00841376,0.0013694,0.808042,0.00521301,0.0185774,839,1548,-8.12423,-35.5444
-378,-524,-8.10083,36.4149,0,0,0,0,0,0,0,-1,846,1548,-8.10083,-36.415
-371,-524,-4.20789,29.1592,0,0,0,0,0,0,0,-1,853,1548,-4.2079,-29.1592
-364,-524,-0.712097,14.9871,0,0,0,0,0,0,0,-1,860,1548,-0.712116,-14.9871
-357,-524,-1.34052,14.7448,0,0,0,0,0,0,0,-1,867,1548,-1.34054,-14.7447
-350,-524,-4.31909,25.032,0,0,0,0,0,0,0,-1,874,1548,-4.31906,-25.0319
-343,-524,-3.69696,28.6923,0,0,0,0,0,0,0,-1,881,1548,-3.69694,-28.6922
-336,-524,-3.4873,29.655,0,0,0,0,0,0,0,-1,888,1548,-3.48728,-29.6551
-329,-524,-3.21936,30.5509,0,0,0,0,0,0,0,-1,895,1548,-3.21933,-30.5509
-322,-524,-4.31378,25.6389,0,0,0,0,0,0,0,-1,902,1548,-4.31379,-25.639
-315,-524,-1.90839,19.4824,0,0,0,0,0,0,0,-1,909,1548,-1.90838,-19.4824
-308,-524,-2.36938,19.3059,0,0,0,0,0,0,0,-1,916,1548,-2.3694,-19.3058
-301,-524,2.72394,17.7618,0,0,0,0,0,0,0,-1,923,1548,2.72396,-17.7619
-294,-524,-1.52515,9.05408,0,0,0,0,0,0,0,-1,930,1548,-1.52512,-9.05411
-287,-524,-0.962219,10.3199,0,0,0,0,0,0,0,-1,937,1548,-0.962241,-10.32
-280,-524,-1.36255,10.3859,0,0,0,0,0,0,0,-1,944,1548,-1.36253,-10.3859
-273,-524,0,0,0,0,0,0,0,0,0,-1,951,1548,0,0
-266,-524,0,0,0,0,0,0,0,0,0,-1,958,1548,0,0
-259,-524,0,0,0,0,0,0,0,0,0,-1,965,1548,0,0
-252,-524,0,0,0,0,0,0,0,0,0,-1,972,1548,0,0
-245,-524,0,0,0,0,0,0,0,0,0,-1,979,1548,0,0
-238,-524,0,0,0,0,0,0,0,0,0,-1,986,1548,0,0
-231,-524,0,0,0,0,0,0,0,0,0,-1,993,1548,0,0
-224,-524,0,0,0,0,0,0,0,0,0,-1,1000,1548,0,0
-217,-524,0,0,0,0,0,0,0,0,0,-1,1007,1548,0,0
-210,-524,0,0,0,0,0,0,0,0,0,-1,1014,1548,0,0
-203,-524,0,0,0,0,0,0,0,0,0,-1,1021,1548,0,0
-196,-524,0,0,0,0,0,0,0,0,0,-1,1028,1548,0,0
-189,-524,0,0,0,0,0,0,0,0,0,-1,1035,1548,0,0
-182,-524,0,0,0,0,0,0,0,0,0,-1,1042,1548,0,0
-175,-524,0,0,0,0,0,0,0,0,0,-1,1049,1548,0,0
-168,-524,0,0,0,0,0,0,0,0,0,-1,1056,1548,0,0
-161,-524,0,0,0,0,0,0,0,0,0,-1,1063,1548,0,0
-154,-524,0,0,0,0,0,0,0,0,0,-1,1070,1548,0,0
-147,-524,0,0,0,0,0,0,0,0,0,-1,1077,1548,0,0
-140,-524,0,0,0,0,0,0,0,0,0,-1,1084,1548,0,0
-133,-524,0,0,0,0,0,0,0,0,0,-1,1091,1548,0,0
-126,-524,0,0,0,0,0,0,0,0,0,-1,1098,1548,0,0
-119,-524,0,0,0,0,0,0,0,0,0,-1,1105,1548,0,0
-112,-524,0,0,0,0,0,0,0,0,0,-1,1112,1548,0,0
-105,-524,0,0,0,0,0,0,0,0,0,-1,1119,1548,0,0
-98,-524,0,0,0,0,0,0,0,0,0,-1,1126,1548,0,0
-91,-524,0,0,0,0,0,0,0,0,0,-1,1133,1548,0,0
-84,-524,0,0,0,0,0,0,0,0,0,-1,1140,1548,0,0
-77,-524,0,0,0,0,0,0,0,0,0,-1,1147,1548,0,0
-70,-524,0,0,0,0,0,0,0,0,0,-1,1154,1548,0,0
-63,-524,0,0,0,0,0,0,0,0,0,-1,1161,1548,0,0
-56,-524,0,0,0,0,0,0,0,0,0,-1,1168,1548,0,0
-49,-524,0,0,0,0,0,0,0,0,0,-1,1175,1548,0,0
-42,-524,0,0,0,0,0,0,0,0,0,-1,1182,1548,0,0
-35,-524,0,0,0,0,0,0,0,0,0,-1,1189,1548,0,0
-28,-524,0,0,0,0,0,0,0,0,0,-1,1196,1548,0,0
-21,-524,0,0,0,0,0,0,0,0,0,-1,1203,1548,0,0
-14,-524,0,0,0,0,0,0,0,0,0,-1,1210,1548,0,0
-7,-524,0,0,0,0,0,0,0,0,0,-1,1217,1548,0,0
0,-524,0,0,0,0,0,0,0,0,0,-1,1224,1548,0,0
7,-524,0,0,0,0,0,0,0,0,0,-1,1231,1548,0,0
14,-524,0,0,0,0,0,0,0,0,0,-1,1238,1548,0,0
21,-524,0,0,0,0,0,0,0,0,0,-1,1245,1548,0,0
28,-524,0,0,0,0,0,0,0,0,0,-1,1252,1548,0,0
35,-524,0,0,0,0,0,0,0,0,0,-1,1259,1548,0,0
42,-524,0,0,0,0,0,0,0,0,0,-1,1266,1548,0,0
49,-524,0,0,0,0,0,0,0,0,0,-1,1273,1548,0,0
56,-524,0,0,0,0,0,0,0,0,0,-1,1280,1548,0,0
63,-524,0,0,0,0,0,0,0,0,0,-1,1287,1548,0,0
70,-524,0,0,0,0,0,0,0,0,0,-1,1294,1548,0,0
77,-524,0,0,0,0,0,0,0,0,0,-1,1301,1548,0,0
84,-524,0,0,0,0,0,0,0,0,0,-1,1308,1548,0,0
91,-524,0,0,0,0,0,0,0,0,0,-1,1315,1548,0,0
98,-524,0,0,0,0,0,0,0,0,0,-1,1322,1548,0,0
105,-524,0,0,0,0,0,0,0,0,0,-1,1329,1548,0,0
112,-524,0,0,0,0,0,0,0,0,0,-1,1336,1548,0,0
119,-524,0,0,0,0,0,0,0,0,0,-1,1343,1548,0,0
126,-524,0,0,0,0,0,0,0,0,0,-1,1350,1548,0,0
133,-524,0,0,0,0,0,0,0,0,0,-1,1357,1548,0,0
140,-524,0,0,0,0,0,0,0,0,0,-1,1364,1548,0,0
147,-524,0,0,0,0,0,0,0,0,0,-1,1371,1548,0,0
154,-524,0,0,0,0,0,0,0,0,0,-1,1378,1548,0,0
161,-524,0,0,0,0,0,0,0,0,0,-1,1385,1548,0,0
168,-524,0,0,0,0,0,0,0,0,0,-1,1392,1548,0,0
175,-524,0,0,0,0,0,0,0,0,0,-1,1399,1548,0,0
182,-524,0,0,0,0,0,0,0,0,0,-1,1406,1548,0,0
189,-524,0,0,0,0,0,0,0,0,0,-1,1413,1548,0,0
196,-524,0,0,0,0,0,0,0,0,0,-1,1420,1548,0,0
203,-524,0,0,0,0,0,0,0,0,0,-1,1427,1548,0,0
210,-524,0,0,0,0,0,0,0,0,0,-1,1434,1548,0,0
217,-524,0,0,0,0,0,0,0,0,0,-1,1441,1548,0,0
224,-524,0,0,0,0,0,0,0,0,0,-1,1448,1548,0,0
231,-524,0,0,0,0,0,0,0,0,0,-1,1455,1548,0,0
238,-524,0,0,0,0,0,0,0,0,0,-1,1462,1548,0,0
245,-524,0,0,0,0,0,0,0,0,0,-1,1469,1548,0,0
252,-524,0,0,0,0,0,0,0,0,0,-1,1476,1548,0,0
259,-524,0,0,0,0,0,0,0,0,0,-1,1483,1548,0,0
266,-524,0,0,0,0,0,0,0,0,0,-1,1490,1548,0,0
273,-524,0,0,0,0,0,0,0,0,0,-1,1497,1548,0,0
280,-524,0,0,0,0,0,0,0,0,0,-1,1504,1548,0,0
287,-524,0,0,0,0,0,0,0,0,0,-1,1511,1548,0,0
294,-524,0,0,0,0,0,0,0,0,0,-1,1518,1548,0,0
301,-524,0,0,0,0,0,0,0,0,0,-1,1525,1548,0,0
308,-524,0,0,0,0,0,0,0,0,0,-1,1532,1548,0,0
315,-524,0,0,0,0,0,0,0,0,0,-1,1539,1548,0,0
322,-524,0,0,0,0,0,0,0,0,0,-1,1546,1548,0,0
329,-524,0,0,0,0,0,0,0,0,0,-1,1553,1548,0,0
336,-524,0,0,0,0,0,0,0,0,0,-1,1560,1548,0,0
343,-524,0,0,0,0,0,0,0,0,0,-1,1567,1548,0,0
350,-524,0,0,0,0,0,0,0,0,0,-1,1574,1548,0,0
357,-524,0,0,0,0,0,0,0,0,0,-1,1581,1548,0,0
364,-524,0,0,0,0,0,0,0,0,0,-1,1588,1548,0,0
371,-524,0,0,0,0,0,0,0,0,0,-1,1595,1548,0,0
378,-524,0,0,0,0,0,0,0,0,0,-1,1602,1548,0,0
385,-524,0,0,0,0,0,0,0,0,0,-1,1609,1548,0,0
392,-524,0,0,0,0,0,0,0,0,0,-1,1616,1548,0,0
399,-524,8.81848,5.05774,0,0,0,0,0,0,0,-1,1623,1548,8.81843,-5.05769
406,-524,8.64294,6.06799,0,0,0,0,0,0,0,-1,1630,1548,8.6429,-6.06805
413,-524,11.677,6.41858,0,0,0,0,0,0,0,-1,1637,1548,11.677,-6.41864
420,-524,11.4913,6.36401,0,0,0,0,0,0,0,-1,1644,1548,11.4913,-6.36402
427,-524,7.68335,6.17249,0,0,0,0,0,0,0,-1,1651,1548,7.68341,-6.17245
434,-524,10.432,11.6801,0,0,0,0,0,0,0,-1,1658,1548,10.432,-11.68
441,-524,8.78552,4.12305,0,0,0,0,0,0,0,-1,1665,1548,8.78553,-4.12301
448,-524,14.1854,4.78674,0,0,0,0,0,0,0,-1,1672,1548,14.1854,-4.78674
455,-524,12.4784,3.65576,0,0,0,0,0,0,0,-1,1679,1548,12.4784,-3.65572
462,-524,14.7551,9.29395,0,0,0,0,0,0,0,-1,1686,1548,14.7552,-9.29397
469,-524,16.3314,14.3779,0,0,0,0,0,0,0,-1,1693,1548,16.3314,-14.3779
476,-524,15.9106,15.1875,0,0,0,0,0,0,0,-1,1700,1548,15.9107,-15.1876
483,-524,15.2776,16.2268,0,0,0,0,0,0,0,-1,1707,1548,15.2776,-16.2269
490,-524,15.2563,18.5848,0,0,0,0,0,0,0,-1,1714,1548,15.2564,-18.5848
497,-524,17.5173,22.6123,0,0,0,0,0,0,0,-1,1721,1548,17.5174,-22.6123
504,-524,25.5391,37.1915,0,0,0,0,0,0,0,-1,1728,1548,25.5391,-37.1916
511,-524,25.9299,36.0297,0,0,0,0,0,0,0,-1,1735,1548,25.9299,-36.0297
518,-524,25.9038,35.2362,0.00796795,0.00771724,-0.00579823,0.0136422,0.00204301,-0.77459,0.00849606,0.0270909,1742,1548,25.9039,-35.2362
525,-524,25.8647,34.5054,0.00635347,0.00623304,-0.00468281,0.0109764,0.00161006,-0.778969,0.00684436,0.0146893,1749,1548,25.8647,-34.5054
532,-524,25.8611,33.7338,0.00493796,0.0049043,-0.00371481,0.00863598,0.00120628,-0.783133,0.00540032,0.0110877,1756,1548,25.8611,-33.7338
539,-524,25.8265,32.954,0.00391755,0.00378556,-0.00293276,0.00678506,0.00091806,-0.774149,0.00425053,0.0125911,1763,1548,25.8265,-32.954
546,-524,25.778,32.2338,0.00317983,0.00275133,-0.00227002,0.00524568,0.000685474,-0.738346,0.0032925,0.0165601,1770,1548,25.7779,-32.2338
553,-524,25.7313,31.4933,0.00268287,0.0019043,-0.00173211,0.0040689,0.000518267,-0.674863,0.00255741,0.026272,1777,1548,25.7313,-31.4932
560,-524,25.7288,30.7406,0.00247464,0.00117807,-0.00132569,0.00330207,0.000350644,-0.557988,0.0020943,0.0328405,1784,1548,25.7288,-30.7406
567,-524,25.6692,29.968,0.00262265,0.000776479,-0.00120872,0.00322045,0.000178678,-0.459296,0.00208995,0.0180742,1791,1548,25.6691,-29.968
574,-524,25.6205,29.1799,0.00302348,0.000482191,-0.00118876,0.00349286,1.28105e-05,-0.376058,0.00232432,0.0134818,1798,1548,25.6205,-29.1799
581,-524,25.5613,28.3838,0.0038131,0.000402822,-0.00141154,0.00432154,-0.000105619,-0.345736,0.00291687,0.0161185,1805,1548,25.5613,-28.3837
588,-524,25.611,27.6084,0.0049902,0.000656679,-0.00191862,0.00571756,-7.06858e-05,-0.362367,0.00383549,0.0319857,1812,1548,25.611,-27.6084
595,-524,25.6716,26.6141,0,0,0,0,0,0,0,-1,1819,1548,25.6716,-26.6142
602,-524,13.837,12.0682,0,0,0,0,0,0,0,-1,1826,1548,13.837,-12.0683
609,-524,13.0056,10.5138,0,0,0,0,0,0,0,-1,1833,1548,13.0056,-10.5138
616,-524,11.6941,8.65515,0,0,0,0,0,0,0,-1,1840,1548,11.6941,-8.65514
623,-524,9.38452,5.15356,0,0,0,0,0,0,0,-1,1847,1548,9.38456,-5.15359
630,-524,11.0541,3.57434,0,0,0,0,0,0,0,-1,1854,1548,11.0541,-3.57438
637,-524,11.6067,3.20728,0,0,0,0,0,0,0,-1,1861,1548,11.6067,-3.20724
644,-524,12.2134,0.727173,0,0,0,0,0,0,0,-1,1868,1548,12.2134,-0.727222
651,-524,0,0,0,0,0,0,0,0,0,-1,1875,1548,0,0
658,-524,0,0,0,0,0,0,0,0,0,-1,1882,1548,0,0
665,-524,0,0,0,0,0,0,0,0,0,-1,1889,1548,0,0
672,-524,0,0,0,0,0,0,0,0,0,-1,1896,1548,0,0
679,-524,0,0,0,0,0,0,0,0,0,-1,1903,1548,0,0
686,-524,0,0,0,0,0,0,0,0,0,-1,1910,1548,0,0
693,-524,0,0,0,0,0,0,0,0,0,-1,1917,1548,0,0
700,-524,0,0,0,0,0,0,0,0,0,-1,1924,1548,0,0
707,-524,0,0,0,0,0,0,0,0,0,-1,1931,1548,0,0
714,-524,0,0,0,0,0,0,0,0,0,-1,1938,1548,0,0
721,-524,0,0,0,0,0,0,0,0,0,-1,1945,1548,0,0
728,-524,0,0,0,0,0,0,0,0,0,-1,1952,1548,0,0
735,-524,0,0,0,0,0,0,0,0,0,-1,1959,1548,0,0
742,-524,0,0,0,0,0,0,0,0,0,-1,1966,1548,0,0
749,-524,0,0,0,0,0,0,0,0,0,-1,1973,1548,0,0
756,-524,0,0,0,0,0,0,0,0,0,-1,1980,1548,0,0
763,-524,0,0,0,0,0,0,0,0,0,-1,1987,1548,0,0
770,-524,0,0,0,0,0,0,0,0,0,-1,1994,1548,0,0
777,-524,0,0,0,0,0,0,0,0,0,-1,2001,1548,0,0
784,-524,0,0,0,0,0,0,0,0,0,-1,2008,1548,0,0
791,-524,0,0,0,0,0,0,0,0,0,-1,2015,1548,0,0
798,-524,0,0,0,0,0,0,0,0,0,-1,2022,1548,0,0
805,-524,0,0,0,0,0,0,0,0,0,-1,2029,1548,0,0
812,-524,0,0,0,0,0,0,0,0,0,-1,2036,1548,0,0
-700,-531,0,0,0,0,0,0,0,0,0,-1,524,1555,0,0
-693,-531,0,0,0,0,0,0,0,0,0,-1,531,1555,0,0
-686,-531,0,0,0,0,0,0,0,0,0,-1,538,1555,0,0
-679,-531,0,0,0,0,0,0,0,0,0,-1,545,1555,0,0
-672,-531,0,0,0,0,0,0,0,0,0,-1,552,1555,0,0
-665,-531,0,0,0,0,0,0,0,0,0,-1,559,1555,0,0
-658,-531,0,0,0,0,0,0,0,0,0,-1,566,1555,0,0
-651,-531,0,0,0,0,0,0,0,0,0,-1,573,1555,0,0
-644,-531,0,0,0,0,0,0,0,0,0,-1,580,1555,0,0
-637,-531,0,0,0,0,0,0,0,0,0,-1,587,1555,0,0
-630,-531,0,0,0,0,0,0,0,0,0,-1,594,1555,0,0
-623,-531,0,0,0,0,0,0,0,0,0,-1,601,1555,0,0
-616,-531,0,0,0,0,0,0,0,0,0,-1,608,1555,0,0
-609,-531,0,0,0,0,0,0,0,0,0,-1,615,1555,0,0
-602,-531,0,0,0,0,0,0,0,0,0,-1,622,1555,0,0
-595,-531,0,0,0,0,0,0,0,0,0,-1,629,1555,0,0
-588,-531,0,0,0,0,0,0,0,0,0,-1,636,1555,0,0
-581,-531,0,0,0,0,0,0,0,0,0,-1,643,1555,0,0
-574,-531,0,0,0,0,0,0,0,0,0,-1,650,1555,0,0
-567,-531,0,0,0,0,0,0,0,0,0,-1,657,1555,0,0
-560,-531,0,0,0,0,0,0,0,0,0,-1,664,1555,0,0
-553,-531,0,0,0,0,0,0,0,0,0,-1,671,1555,0,0
-546,-531,0,0,0,0,0,0,0,0,0,-1,678,1555,0,0
-539,-531,0,0,0,0,0,0,0,0,0,-1,685,1555,0,0
-532,-531,0,0,0,0,0,0,0,0,0,-1,692,1555,0,0
-525,-531,0,0,0,0,0,0,0,0,0,-1,699,1555,0,0
-518,-531,-1.63983,4.03821,0,0,0,0,0,0,0,-1,706,1555,-1.63982,-4.03821
-511,-531,-2.9682,8.07483,0,0,0,0,0,0,0,-1,713,1555,-2.9682,-8.07479
-504,-531,-2.95978,0.557861,0,0,0,0,0,0,0,-1,720,1555,-2.95978,-0.557917
-497,-531,-2.46039,8.07422,0,0,0,0,0,0,0,-1,727,1555,-2.46039,-8.07423
-490,-531,-0.423462,7.92065,0,0,0,0,0,0,0,-1,734,1555,-0.42344,-7.92066
-483,-531,-7.50745,20.1915,0,0,0,0,0,0,0,-1,741,1555,-7.50744,-20.1915
-476,-531,-7.69647,23.6229,0,0,0,0,0,0,0,-1,748,1555,-7.6965,-23.6229
-469,-531,-7.79279,26.5258,0,0,0,0,0,0,0,-1,755,1555,-7.79276,-26.5258
-462,-531,-6.64508,27.2772,0,0,0,0,0,0,0,-1,762,1555,-6.64507,-27.2772
-455,-531,-7.04486,27.5223,0,0,0,0,0,0,0,-1,769,1555,-7.04487,-27.5223
-448,-531,-6.89648,28.498,-0.000294095,-0.00640077,-0.000656023,-0.000224415,-0.00647045,-0.105818,0.00424081,0.0306837,776,1555,-6.89646,-28.498
-441,-531,-7.03021,29.2916,-0.000568235,-0.00429337,-0.000644777,-0.000459789,-0.00440182,-0.166632,0.00279392,0.0139107,783,1555,-7.03021,-29.2916
-434,-531,-7.04572,30.1202,-0.000516468,-0.00256557,-0.000444167,-0.000424332,-0.0026577,-0.204535,0.00164866,0.0127968,790,1555,-7.04573,-30.1202
-427,-531,-7.08405,30.906,-0.000279789,-0.00123952,-0.00014679,-0.000257839,-0.00126147,-0.14843,0.000769568,0.0157039,797,1555,-7.08403,-30.906
-420,-531,-7.19208,31.6571,0.000140248,-0.000172647,0.000216258,0.000250715,-0.000283114,0.472259,0.000308395,0.035843,804,1555,-7.19209,-31.6572
-413,-531,-7.21442,32.4795,0.000662655,0.000842447,0.000563353,0.00132303,0.000182071,0.864518,0.00082803,0.0332419,811,1555,-7.21439,-32.4795
-406,-531,-7.22583,33.2585,0.00140651,0.00161559,0.00108955,0.0026056,0.000416497,0.833226,0.00161622,0.0137126,818,1555,-7.22583,-33.2585
-399,-531,-7.25464,34.0123,0.00217547,0.00228813,0.00154929,0.00378211,0.000681485,0.803569,0.00232774,0.0140475,825,1555,-7.25466,-34.0124
-392,-531,-7.28723,34.7697,0.00286003,0.00297211,0.00194534,0.00486221,0.000969927,0.799799,0.00297141,0.0174665,832,1555,-7.28723,-34.7696
-385,-531,-7.35284,35.5653,0.00353025,0.00373541,0.00231962,0.00595472,0.00131095,0.807495,0.003613,0.0150553,839,1555,-7.35282,-35.5653
-378,-531,-7.41534,36.2782,0.00418285,0.00453349,0.00258399,0.0069481,0.00176824,0.819271,0.00416957,0.0206072,846,1555,-7.41536,-36.2782
-371,-531,-7.44958,37.137,0,0,0,0,0,0,0,-1,853,1555,-7.44958,-37.137
-364,-531,-7.19159,38.2245,0,0,0,0,0,0,0,-1,860,1555,-7.19161,-38.2245
-357,-531,-4.29193,31.5354,0,0,0,0,0,0,0,-1,867,1555,-4.29191,-31.5354
-350,-531,-3.16101,27.5791,0,0,0,0,0,0,0,-1,874,1555,-3.16099,-27.5791
-343,-531,-2.90552,28.561,0,0,0,0,0,0,0,-1,881,1555,-2.90549,-28.5611
-336,-531,-2.6698,29.5398,0,0,0,0,0,0,0,-1,888,1555,-2.66983,-29.5398
-329,-531,-2.45148,30.4781,0,0,0,0,0,0,0,-1,895,1555,-2.45148,-30.4781
-322,-531,-3.25092,28.4921,0,0,0,0,0,0,0,-1,902,1555,-3.25092,-28.4921
-315,-531,-5.51929,31.7814,0,0,0,0,0,0,0,-1,909,1555,-5.51928,-31.7813
-308,-531,-1.66455,19.0624,0,0,0,0,0,0,0,-1,916,1555,-1.66455,-19.0623
-301,-531,-2.02405,18.8912,0,0,0,0,0,0,0,-1,923,1555,-2.02407,-18.8913
-294,-531,-1.3244,8.1825,0,0,0,0,0,0,0,-1,930,1555,-1.3244,-8.18251
-287,-531,-1.78192,10.1661,0,0,0,0,0,0,0,-1,937,1555,-1.78192,-10.1661
-280,-531,-2.14508,10.3945,0,0,0,0,0,0,0,-1,944,1555,-2.14506,-10.3945
-273,-531,-2.50818,10.6229,0,0,0,0,0,0,0,-1,951,1555,-2.5082,-10.6229
-266,-531,-4.97742,17.9215,0,0,0,0,0,0,0,-1,958,1555,-4.97744,-17.9215
-259,-531,0,0,0,0,0,0,0,0,0,-1,965,1555,0,0
-252,-531,0,0,0,0,0,0,0,0,0,-1,972,1555,0,0
-245,-531,0,0,0,0,0,0,0,0,0,-1,979,1555,0,0
-238,-531,0,0,0,0,0,0,0,0,0,-1,986,1555,0,0
-231,-531,0,0,0,0,0,0,0,0,0,-1,993,1555,0,0
-224,-531,0,0,0,0,0,0,0,0,0,-1,1000,1555,0,0
-217,-531,0,0,0,0,0,0,0,0,0,-1,1007,1555,0,0
-210,-531,0,0,0,0,0,0,0,0,0,-1,1014,1555,0,0
-203,-531,0,0,0,0,0,0,0,0,0,-1,1021,1555,0,0
-196,-531,0,0,0,0,0,0,0,0,0,-1,1028,1555,0,0
-189,-531,0,0,0,0,0,0,0,0,0,-1,1035,1555,0,0
-182,-531,0,0,0,0,0,0,0,0,0,-1,1042,1555,0,0
-175,-531,0,0,0,0,0,0,0,0,0,-1,1049,1555,0,0
-168,-531,0,0,0,0,0,0,0,0,0,-1,1056,1555,0,0
-161,-531,0,0,0,0,0,0,0,0,0,-1,1063,1555,0,0
-154,-531,0,0,0,0,0,0,0,0,0,-1,1070,1555,0,0
-147,-531,0,0,0,0,0,0,0,0,0,-1,1077,1555,0,0
-140,-531,0,0,0,0,0,0,0,0,0,-1,1084,1555,0,0
-133,-531,0,0,0,0,0,0,0,0,0,-1,1091,1555,0,0
-126,-531,0,0,0,0,0,0,0,0,0,-1,1098,1555,0,0
-119,-531,0,0,0,0,0,0,0,0,0,-1,1105,1555,0,0
-112,-531,0,0,0,0,0,0,0,0,0,-1,1112,1555,0,0
-105,-531,0,0,0,0,0,0,0,0,0,-1,1119,1555,0,0
-98,-531,0,0,0,0,0,0,0,0,0,-1,1126,1555,0,0
-91,-531,0,0,0,0,0,0,0,0,0,-1,1133,1555,0,0
-84,-531,0,0,0,0,0,0,0,0,0,-1,1140,1555,0,0
-77,-531,0,0,0,0,0,0,0,0,0,-1,1147,1555,0,0
-70,-531,0,0,0,0,0,0,0,0,0,-1,1154,1555,0,0
-63,-531,0,0,0,0,0,0,0,0,0,-1,1161,1555,0,0
-56,-531,0,0,0,0,0,0,0,0,0,-1,1168,1555,0,0
-49,-531,0,0,0,0,0,0,0,0,0,-1,1175,1555,0,0
-42,-531,0,0,0,0,0,0,0,0,0,-1,1182,1555,0,0
-35,-531,0,0,0,0,0,0,0,0,0,-1,1189,1555,0,0
-28,-531,0,0,0,0,0,0,0,0,0,-1,1196,1555,0,0
-21,-531,0,0,0,0,0,0,0,0,0,-1,1203,1555,0,0
-14,-531,0,0,0,0,0,0,0,0,0,-1,1210,1555,0,0
-7,-531,0,0,0,0,0,0,0,0,0,-1,1217,1555,0,0
0,-531,0,0,0,0,0,0,0,0,0,-1,1224,1555,0,0
7,-531,0,0,0,0,0,0,0,0,0,-1,1231,1555,0,0
14,-531,0,0,0,0,0,0,0,0,0,-1,1238,1555,0,0
21,-531,0,0,0,0,0,0,0,0,0,-1,1245,1555,0,0
28,-531,0,0,0,0,0,0,0,0,0,-1,1252,1555,0,0
35,-531,0,0,0,0,0,0,0,0,0,-1,1259,1555,0,0
42,-531,0,0,0,0,0,0,0,0,0,-1,1266,1555,0,0
49,-531,0,0,0,0,0,0,0,0,0,-1,1273,1555,0,0
56,-531,0,0,0,0,0,0,0,0,0,-1,1280,1555,0,0
63,-531,0,0,0,0,0,0,0,0,0,-1,1287,1555,0,0
70,-531,0,0,0,0,0,0,0,0,0,-1,1294,1555,0,0
77,-531,0,0,0,0,0,0,0,0,0,-1,1301,1555,0,0
84,-531,0,0,0,0,0,0,0,0,0,-1,1308,1555,0,0
91,-531,0,0,0,0,0,0,0,0,0,-1,1315,1555,0,0
98,-531,0,0,0,0,0,0,0,0,0,-1,1322,1555,0,0
105,-531,0,0,0,0,0,0,0,0,0,-1,1329,1555,0,0
112,-531,0,0,0,0,0,0,0,0,0,-1,1336,1555,0,0
119,-531,0,0,0,0,0,0,0,0,0,-1,1343,1555,0,0
126,-531,0,0,0,0,0,0,0,0,0,-1,1350,1555,0,0
133,-531,0,0,0,0,0,0,0,0,0,-1,1357,1555,0,0
140,-531,0,0,0,0,0,0,0,0,0,-1,1364,1555,0,0
147,-531,0,0,0,0,0,0,0,0,0,-1,1371,1555,0,0
154,-531,0,0,0,0,0,0,0,0,0,-1,1378,1555,0,0
161,-531,0,0,0,0,0,0,0,0,0,-1,1385,1555,0,0
168,-531,0,0,0,0,0,0,0,0,0,-1,1392,1555,0,0
175,-531,0,0,0,0,0,0,0,0,0,-1,1399,1555,0,0
182,-531,0,0,0,0,0,0,0,0,0,-1,1406,1555,0,0
189,-531,0,0,0,0,0,0,0,0,0,-1,1413,1555,0,0
196,-531,0,0,0,0,0,0,0,0,0,-1,1420,1555,0,0
203,-531,0,0,0,0,0,0,0,0,0,-1,1427,1555,0,0
210,-531,0,0,0,0,0,0,0,0,0,-1,1434,1555,0,0
217,-531,0,0,0,0,0,0,0,0,0,-1,1441,1555,0,0
224,-531,0,0,0,0,0,0,0,0,0,-1,1448,1555,0,0
231,-531,0,0,0,0,0,0,0,0,0,-1,1455,1555,0,0
238,-531,0,0,0,0,0,0,0,0,0,-1,1462,1555,0,0
245,-531,0,0,0,0,0,0,0,0,0,-1,1469,1555,0,0
252,-531,0,0,0,0,0,0,0,0,0,-1,1476,1555,0,0
259,-531,0,0,0,0,0,0,0,0,0,-1,1483,1555,0,0
266,-531,0,0,0,0,0,0,0,0,0,-1,1490,1555,0,0
273,-531,0,0,0,0,0,0,0,0,0,-1,1497,1555,0,0
280,-531,0,0,0,0,0,0,0,0,0,-1,1504,1555,0,0
287,-531,0,0,0,0,0,0,0,0,0,-1,1511,1555,0,0
294,-531,0,0,0,0,0,0,0,0,0,-1,1518,1555,0,0
301,-531,0,0,0,0,0,0,0,0,0,-1,1525,1555,0,0
308,-531,0,0,0,0,0,0,0,0,0,-1,1532,1555,0,0
315,-531,0,0,0,0,0,0,0,0,0,-1,1539,1555,0,0
322,-531,0,0,0,0,0,0,0,0,0,-1,1546,1555,0,0
329,-531,0,0,0,0,0,0,0,0,0,-1,1553,1555,0,0
336,-531,0,0,0,0,0,0,0,0,0,-1,1560,1555,0,0
343,-531,0,0,0,0,0,0,0,0,0,-1,1567,1555,0,0
350,-531,0,0,0,0,0,0,0,0,0,-1,1574,1555,0,0
357,-531,0,0,0,0,0,0,0,0,0,-1,1581,1555,0,0
364,-531,0,0,0,0,0,0,0,0,0,-1,1588,1555,0,0
371,-531,0,0,0,0,0,0,0,0,0,-1,1595,1555,0,0
378,-531,0,0,0,0,0,0,0,0,0,-1,1602,1555,0,0
385,-531,3.48169,1.78625,0,0,0,0,0,0,0,-1,1609,1555,3.48165,-1.78624
392,-531,10.8781,9.09204,0,0,0,0,0,0,0,-1,1616,1555,10.8781,-9.09205
399,-531,8.26306,5.29602,0,0,0,0,0,0,0,-1,1623,1555,8.26302,-5.29607
406,-531,8.26147,5.42712,0,0,0,0,0,0,0,-1,1630,1555,8.26145,-5.42716
413,-531,8.20618,5.75012,0,0,0,0,0,0,0,-1,1637,1555,8.20619,-5.75017
420,-531,7.64868,7.09558,0,0,0,0,0,0,0,-1,1644,1555,7.64867,-7.09564
427,-531,9.93054,11.8412,0,0,0,0,0,0,0,-1,1651,1555,9.93059,-11.8412
434,-531,10.244,11.7072,0,0,0,0,0,0,0,-1,1658,1555,10.244,-11.7071
441,-531,11.4528,12.9397,0,0,0,0,0,0,0,-1,1665,1555,11.4528,-12.9397
448,-531,11.928,18.8029,0,0,0,0,0,0,0,-1,1672,1555,11.928,-18.8028
455,-531,14.4877,9.67065,0,0,0,0,0,0,0,-1,1679,1555,14.4876,-9.67066
462,-531,13.5253,12.2002,0,0,0,0,0,0,0,-1,1686,1555,13.5252,-12.2002
469,-531,15.5087,15.7894,0,0,0,0,0,0,0,-1,1693,1555,15.5086,-15.7895
476,-531,14.6582,16.2264,0,0,0,0,0,0,0,-1,1700,1555,14.6582,-16.2264
483,-531,14.755,18.5994,0,0,0,0,0,0,0,-1,1707,1555,14.7551,-18.5994
490,-531,16.9362,25.4943,0,0,0,0,0,0,0,-1,1714,1555,16.9362,-25.4942
497,-531,24.9319,37.9677,0,0,0,0,0,0,0,-1,1721,1555,24.9319,-37.9677
504,-531,25.0619,36.9221,0.00934591,0.0101634,-0.00731535,0.0170814,0.00242787,-0.813305,0.0106708,0.0389752,1728,1555,25.0619,-36.9221
511,-531,25.1588,36.0663,0.0076093,0.00799517,-0.00573466,0.0135401,0.00206434,-0.802214,0.00842339,0.0169917,1735,1555,25.1588,-36.0662
518,-531,25.1536,35.2805,0.00604428,0.00610673,-0.00440369,0.0104793,0.00167171,-0.788944,0.00650101,0.0153137,1742,1555,25.1536,-35.2805
525,-531,25.1337,34.5488,0.00468246,0.00481966,-0.00351319,0.00826492,0.0012372,-0.79516,0.00514735,0.0139401,1749,1555,25.1337,-34.5488
532,-531,25.1359,33.7867,0.00355489,0.00366418,-0.00277576,0.00638583,0.000833241,-0.79524,0.00400845,0.010897,1756,1555,25.1359,-33.7867
539,-531,25.0941,33.0192,0.00279281,0.00273621,-0.00221017,0.00497487,0.000554154,-0.778996,0.00314816,0.0124574,1763,1555,25.0941,-33.0192
546,-531,24.9832,32.2723,0.00227856,0.00181269,-0.00171252,0.00377391,0.000317337,-0.717804,0.00241712,0.0166596,1770,1555,24.9832,-32.2724
553,-531,24.9689,31.5463,0.00200862,0.00107593,-0.00132437,0.00294635,0.00013819,-0.616115,0.00191983,0.0328835,1777,1555,24.9689,-31.5462
560,-531,24.9501,30.7866,0.00206652,0.000463437,-0.00106557,0.00259836,-6.8406e-05,-0.462939,0.00175549,0.0367053,1784,1555,24.9501,-30.7866
567,-531,24.8419,30.0063,0.0024929,0.000132862,-0.00104577,0.00288961,-0.000263848,-0.362577,0.00202011,0.0201984,1791,1555,24.8419,-30.0064
574,-531,24.8029,29.2216,0.00319328,-0.000119321,-0.00109348,0.00352167,-0.000447718,-0.291754,0.00251037,0.0160058,1798,1555,24.8028,-29.2216
581,-531,24.8358,28.4064,0.00444606,-0.000100131,-0.00145578,0.00487227,-0.00052634,-0.284812,0.00343709,0.0282394,1805,1555,24.8358,-28.4063
588,-531,24.8527,27.5444,0.00624579,0.000347892,-0.00214821,0.00694528,-0.000351597,-0.314788,0.00475172,0.0483263,1812,1555,24.8526,-27.5444
595,-531,24.7498,26.649,0,0,0,0,0,0,0,-1,1819,1555,24.7498,-26.6491
602,-531,13.701,11.8346,0,0,0,0,0,0,0,-1,1826,1555,13.701,-11.8347
609,-531,10.9072,8.50903,0,0,0,0,0,0,0,-1,1833,1555,10.9073,-8.50902
616,-531,10.5723,7.17859,0,0,0,0,0,0,0,-1,1840,1555,10.5723,-7.17855
623,-531,10.0674,5.08984,0,0,0,0,0,0,0,-1,1847,1555,10.0674,-5.08981
630,-531,11.672,3.18909,0,0,0,0,0,0,0,-1,1854,1555,11.672,-3.18904
637,-531,13.2546,1.38965,0,0,0,0,0,0,0,-1,1861,1555,13.2547,-1.3896
644,-531,0,0,0,0,0,0,0,0,0,-1,1868,1555,0,0
651,-531,0,0,0,0,0,0,0,0,0,-1,1875,1555,0,0
658,-531,0,0,0,0,0,0,0,0,0,-1,1882,1555,0,0
665,-531,0,0,0,0,0,0,0,0,0,-1,1889,1555,0,0
672,-531,0,0,0,0,0,0,0,0,0,-1,1896,1555,0,0
679,-531,0,0,0,0,0,0,0,0,0,-1,1903,1555,0,0
686,-531,0,0,0,0,0,0,0,0,0,-1,1910,1555,0,0
693,-531,0,0,0,0,0,0,0,0,0,-1,1917,1555,0,0
700,-531,0,0,0,0,0,0,0,0,0,-1,1924,1555,0,0
707,-531,0,0,0,0,0,0,0,0,0,-1,1931,1555,0,0
714,-531,0,0,0,0,0,0,0,0,0,-1,1938,1555,0,0
721,-531,0,0,0,0,0,0,0,0,0,-1,1945,1555,0,0
728,-531,0,0,0,0,0,0,0,0,0,-1,1952,1555,0,0
735,-531,0,0,0,0,0,0,0,0,0,-1,1959,1555,0,0
742,-531,0,0,0,0,0,0,0,0,0,-1,1966,1555,0,0
749,-531,0,0,0,0,0,0,0,0,0,-1,1973,1555,0,0
756,-531,0,0,0,0,0,0,0,0,0,-1,1980,1555,0,0
763,-531,0,0,0,0,0,0,0,0,0,-1,1987,1555,0,0
770,-531,0,0,0,0,0,0,0,0,0,-1,1994,1555,0,0
777,-531,0,0,0,0,0,0,0,0,0,-1,2001,1555,0,0
784,-531,0,0,0,0,0,0,0,0,0,-1,2008,1555,0,0
791,-531,0,0,0,0,0,0,0,0,0,-1,2015,1555,0,0
798,-531,0,0,0,0,0,0,0,0,0,-1,2022,1555,0,0
805,-531,0,0,0,0,0,0,0,0,0,-1,2029,1555,0,0
812,-531,0,0,0,0,0,0,0,0,0,-1,2036,1555,0,0
-700,-538,0,0,0,0,0,0,0,0,0,-1,524,1562,0,0
-693,-538,0,0,0,0,0,0,0,0,0,-1,531,1562,0,0
-686,-538,0,0,0,0,0,0,0,0,0,-1,538,1562,0,0
-679,-538,0,0,0,0,0,0,0,0,0,-1,545,1562,0,0
-672,-538,0,0,0,0,0,0,0,0,0,-1,552,1562,0,0
-665,-538,0,0,0,0,0,0,0,0,0,-1,559,1562,0,0
-658,-538,0,0,0,0,0,0,0,0,0,-1,566,1562,0,0
-651,-538,0,0,0,0,0,0,0,0,0,-1,573,1562,0,0
-644,-538,0,0,0,0,0,0,0,0,0,-1,580,1562,0,0
-637,-538,0,0,0,0,0,0,0,0,0,-1,587,1562,0,0
-630,-538,0,0,0,0,0,0,0,0,0,-1,594,1562,0,0
-623,-538,0,0,0,0,0,0,0,0,0,-1,601,1562,0,0
-616,-538,0,0,0,0,0,0,0,0,0,-1,608,1562,0,0
-609,-538,0,0,0,0,0,0,0,0,0,-1,615,1562,0,0
-602,-538,0,0,0,0,0,0,0,0,0,-1,622,1562,0,0
-595,-538,0,0,0,0,0,0,0,0,0,-1,629,1562,0,0
-588,-538,0,0,0,0,0,0,0,0,0,-1,636,1562,0,0
-581,-538,0,0,0,0,0,0,0,0,0,-1,643,1562,0,0
-574,-538,0,0,0,0,0,0,0,0,0,-1,650,1562,0,0
-567,-538,0,0,0,0,0,0,0,0,0,-1,657,1562,0,0
-560,-538,0,0,0,0,0,0,0,0,0,-1,664,1562,0,0
-553,-538,0,0,0,0,0,0,0,0,0,-1,671,1562,0,0
-546,-538,0,0,0,0,0,0,0,0,0,-1,678,1562,0,0
-539,-538,0,0,0,0,0,0,0,0,0,-1,685,1562,0,0
-532,-538,0,0,0,0,0,0,0,0,0,-1,692,1562,0,0
-525,-538,0,0,0,0,0,0,0,0,0,-1,699,1562,0,0
-518,-538,0,0,0,0,0,0,0,0,0,-1,706,1562,0,0
-511,-538,-2.6582,-1.54321,0,0,0,0,0,0,0,-1,713,1562,-2.65821,1.54327
-504,-538,-2.66455,-0.71167,0,0,0,0,0,0,0,-1,720,1562,-2.66456,0.711667
-497,-538,-0.763855,6.77747,0,0,0,0,0,0,0,-1,727,1562,-0.76385,-6.77743
-490,-538,-2.70453,8.01465,0,0,0,0,0,0,0,-1,734,1562,-2.70451,-8.0147
-483,-538,-0.933533,7.84644,0,0,0,0,0,0,0,-1,741,1562,-0.933548,-7.84638
-476,-538,-3.29962,15.8307,0,0,0,0,0,0,0,-1,748,1562,-3.29962,-15.8306
-469,-538,-6.44983,24.5707,0,0,0,0,0,0,0,-1,755,1562,-6.4498,-24.5707
-462,-538,-5.75458,25.4069,0,0,0,0,0,0,0,-1,762,1562,-5.7546,-25.4068
-455,-538,-5.56396,26.2977,0,0,0,0,0,0,0,-1,769,1562,-5.56393,-26.2978
-448,-538,-6.24121,28.5686,0,0,0,0,0,0,0,-1,776,1562,-6.2412,-28.5687
-441,-538,-6.28558,29.2974,0,0,0,0,0,0,0,-1,783,1562,-6.28557,-29.2973
-434,-538,-6.30774,30.1453,-0.00119334,-0.00321505,-0.00100645,-0.000777741,-0.00363065,-0.391606,0.00220734,0.0147335,790,1562,-6.30775,-30.1453
-427,-538,-6.35437,30.9966,-0.000880439,-0.00175764,-0.000601978,-0.000574225,-0.00206385,-0.470568,0.00123001,0.0137058,797,1562,-6.35435,-30.9965
-420,-538,-6.39771,31.7616,-0.000434499,-0.000671562,-0.000194379,-0.000325362,-0.000780699,-0.511602,0.000452814,0.0189413,804,1562,-6.39773,-31.7616
-413,-538,-6.44934,32.5226,2.24473e-05,0.00033565,0.000101742,0.000365799,-7.70084e-06,1.28272,0.000246473,0.0202344,811,1562,-6.44936,-32.5226
-406,-538,-6.4682,33.3054,0.000726785,0.00103998,0.000608314,0.00151153,0.000255238,0.911379,0.000934303,0.0161011,818,1562,-6.46822,-33.3054
-399,-538,-6.49261,34.088,0.00144462,0.00158774,0.000999999,0.00251873,0.000513622,0.821117,0.00153683,0.0138258,825,1562,-6.49262,-34.088
-392,-538,-6.50568,34.8501,0.00205987,0.00215486,0.00132412,0.00343234,0.000782393,0.803325,0.00207714,0.0147249,832,1562,-6.50569,-34.8501
-385,-538,-6.56665,35.6265,0.00261916,0.00279913,0.00158744,0.00429913,0.00111916,0.813711,0.00257541,0.0129035,839,1562,-6.56662,-35.6265
-378,-538,-6.61737,36.3788,0.00316671,0.00353726,0.00180398,0.00516545,0.00153851,0.836571,0.00306245,0.0106559,846,1562,-6.61738,-36.3788
-371,-538,-6.66528,37.111,0.00380287,0.00458236,0.00214672,0.00637443,0.0020108,0.875197,0.00376292,0.0153504,853,1562,-6.66526,-37.1109
-364,-538,-6.59186,37.9982,0.00462531,0.00596034,0.00272194,0.00809542,0.00249023,0.905643,0.00478784,0.0256402,860,1562,-6.59187,-37.9982
-357,-538,-6.4317,38.972,0,0,0,0,0,0,0,-1,867,1562,-6.43169,-38.9721
-350,-538,-6.37695,40.0256,0,0,0,0,0,0,0,-1,874,1562,-6.37696,-40.0257
-343,-538,-2.47339,28.3082,0,0,0,0,0,0,0,-1,881,1562,-2.47341,-28.3083
-336,-538,-2.40161,28.5409,0,0,0,0,0,0,0,-1,888,1562,-2.40163,-28.541
-329,-538,-2.57159,28.4905,0,0,0,0,0,0,0,-1,895,1562,-2.57161,-28.4905
-322,-538,-2.83783,28.2308,0,0,0,0,0,0,0,-1,902,1562,-2.83783,-28.2308
-315,-538,-2.91827,27.7609,0,0,0,0,0,0,0,-1,909,1562,-2.91829,-27.7608
-308,-538,-4.37433,31.7996,0,0,0,0,0,0,0,-1,916,1562,-4.3743,-31.7995
-301,-538,-0.452393,18.5101,0,0,0,0,0,0,0,-1,923,1562,-0.452367,-18.5102
-294,-538,1.23138,14.0757,0,0,0,0,0,0,0,-1,930,1562,1.23137,-14.0757
-287,-538,-2.60419,10.2361,0,0,0,0,0,0,0,-1,937,1562,-2.6042,-10.2361
-280,-538,-2.93475,10.5106,0,0,0,0,0,0,0,-1,944,1562,-2.93475,-10.5106
-273,-538,-3.26532,10.785,0,0,0,0,0,0,0,-1,951,1562,-3.26531,-10.785
-266,-538,-5.03412,15.9951,0,0,0,0,0,0,0,-1,958,1562,-5.03409,-15.9951
-259,-538,-5.89642,16.5184,0,0,0,0,0,0,0,-1,965,1562,-5.89644,-16.5184
-252,-538,0,0,0,0,0,0,0,0,0,-1,972,1562,0,0
-245,-538,0,0,0,0,0,0,0,0,0,-1,979,1562,0,0
-238,-538,0,0,0,0,0,0,0,0,0,-1,986,1562,0,0
-231,-538,0,0,0,0,0,0,0,0,0,-1,993,1562,0,0
-224,-538,0,0,0,0,0,0,0,0,0,-1,1000,1562,0,0
-217,-538,0,0,0,0,0,0,0,0,0,-1,1007,1562,0,0
-210,-538,0,0,0,0,0,0,0,0,0,-1,1014,1562,0,0
-203,-538,0,0,0,0,0,0,0,0,0,-1,1021,1562,0,0
-196,-538,0,0,0,0,0,0,0,0,0,-1,1028,1562,0,0
-189,-538,0,0,0,0,0,0,0,0,0,-1,1035,1562,0,0
-182,-538,0,0,0,0,0,0,0,0,0,-1,1042,1562,0,0
-175,-538,0,0,0,0,0,0,0,0,0,-1,1049,1562,0,0
-168,-538,0,0,0,0,0,0,0,0,0,-1,1056,1562,0,0
-161,-538,0,0,0,0,0,0,0,0,0,-1,1063,1562,0,0
-154,-538,0,0,0,0,0,0,0,0,0,-1,1070,1562,0,0
-147,-538,0,0,0,0,0,0,0,0,0,-1,1077,1562,0,0
-140,-538,0,0,0,0,0,0,0,0,0,-1,1084,1562,0,0
-133,-538,0,0,0,0,0,0,0,0,0,-1,1091,1562,0,0
-126,-538,0,0,0,0,0,0,0,0,0,-1,1098,1562,0,0
-119,-538,0,0,0,0,0,0,0,0,0,-1,1105,1562,0,0
-112,-538,0,0,0,0,0,0,0,0,0,-1,1112,1562,0,0
-105,-538,0,0,0,0,0,0,0,0,0,-1,1119,1562,0,0
-98,-538,0,0,0,0,0,0,0,0,0,-1,1126,1562,0,0
-91,-538,0,0,0,0,0,0,0,0,0,-1,1133,1562,0,0
-84,-538,0,0,0,0,0,0,0,0,0,-1,1140,1562,0,0
-77,-538,0,0,0,0,0,0,0,0,0,-1,1147,1562,0,0
-70,-538,0,0,0,0,0,0,0,0,0,-1,1154,1562,0,0
-63,-538,0,0,0,0,0,0,0,0,0,-1,1161,1562,0,0
-56,-538,0,0,0,0,0,0,0,0,0,-1,1168,1562,0,0
-49,-538,0,0,0,0,0,0,0,0,0,-1,1175,1562,0,0
-42,-538,0,0,0,0,0,0,0,0,0,-1,1182,1562,0,0
-35,-538,0,0,0,0,0,0,0,0,0,-1,1189,1562,0,0
-28,-538,0,0,0,0,0,0,0,0,0,-1,1196,1562,0,0
-21,-538,0,0,0,0,0,0,0,0,0,-1,1203,1562,0,0
-14,-538,0,0,0,0,0,0,0,0,0,-1,1210,1562,0,0
-7,-538,0,0,0,0,0,0,0,0,0,-1,1217,1562,0,0
0,-538,0,0,0,0,0,0,0,0,0,-1,1224,1562,0,0
7,-538,0,0,0,0,0,0,0,0,0,-1,1231,1562,0,0
14,-538,0,0,0,0,0,0,0,0,0,-1,1238,1562,0,0
21,-538,0,0,0,0,0,0,0,0,0,-1,1245,1562,0,0
28,-538,0,0,0,0,0,0,0,0,0,-1,1252,1562,0,0
35,-538,0,0,0,0,0,0,0,0,0,-1,1259,1562,0,0
42,-538,0,0,0,0,0,0,0,0,0,-1,1266,1562,0,0
49,-538,0,0,0,0,0,0,0,0,0,-1,1273,1562,0,0
56,-538,0,0,0,0,0,0,0,0,0,-1,1280,1562,0,0
63,-538,0,0,0,0,0,0,0,0,0,-1,1287,1562,0,0
70,-538,0,0,0,0,0,0,0,0,0,-1,1294,1562,0,0
77,-538,0,0,0,0,0,0,0,0,0,-1,1301,1562,0,0
84,-538,0,0,0,0,0,0,0,0,0,-1,1308,1562,0,0
91,-538,0,0,0,0,0,0,0,0,0,-1,1315,1562,0,0
98,-538,0,0,0,0,0,0,0,0,0,-1,1322,1562,0,0
105,-538,0,0,0,0,0,0,0,0,0,-1,1329,1562,0,0
112,-538,0,0,0,0,0,0,0,0,0,-1,1336,1562,0,0
119,-538,0,0,0,0,0,0,0,0,0,-1,1343,1562,0,0
126,-538,0,0,0,0,0,0,0,0,0,-1,1350,1562,0,0
133,-538,0,0,0,0,0,0,0,0,0,-1,1357,1562,0,0
140,-538,0,0,0,0,0,0,0,0,0,-1,1364,1562,0,0
147,-538,0,0,0,0,0,0,0,0,0,-1,1371,1562,0,0
154,-538,0,0,0,0,0,0,0,0,0,-1,1378,1562,0,0
161,-538,0,0,0,0,0,0,0,0,0,-1,1385,1562,0,0
168,-538,0,0,0,0,0,0,0,0,0,-1,1392,1562,0,0
175,-538,0,0,0,0,0,0,0,0,0,-1,1399,1562,0,0
182,-538,0,0,0,0,0,0,0,0,0,-1,1406,1562,0,0
189,-538,0,0,0,0,0,0,0,0,0,-1,1413,1562,0,0
196,-538,0,0,0,0,0,0,0,0,0,-1,1420,1562,0,0
203,-538,0,0,0,0,0,0,0,0,0,-1,1427,1562,0,0
210,-538,0,0,0,0,0,0,0,0,0,-1,1434,1562,0,0
217,-538,0,0,0,0,0,0,0,0,0,-1,1441,1562,0,0
224,-538,0,0,0,0,0,0,0,0,0,-1,1448,1562,0,0
231,-538,0,0,0,0,0,0,0,0,0,-1,1455,1562,0,0
238,-538,0,0,0,0,0,0,0,0,0,-1,1462,1562,0,0
245,-538,0,0,0,0,0,0,0,0,0,-1,1469,1562,0,0
252,-538,0,0,0,0,0,0,0,0,0,-1,1476,1562,0,0
259,-538,0,0,0,0,0,0,0,0,0,-1,1483,1562,0,0
266,-538,0,0,0,0,0,0,0,0,0,-1,1490,1562,0,0
273,-538,0,0,0,0,0,0,0,0,0,-1,1497,1562,0,0
280,-538,0,0,0,0,0,0,0,0,0,-1,1504,1562,0,0
287,-538,0,0,0,0,0,0,0,0,0,-1,1511,1562,0,0
294,-538,0,0,0,0,0,0,0,0,0,-1,1518,1562,0,0
301,-538,0,0,0,0,0,0,0,0,0,-1,1525,1562,0,0
308,-538,0,0,0,0,0,0,0,0,0,-1,1532,1562,0,0
315,-538,0,0,0,0,0,0,0,0,0,-1,1539,1562,0,0
322,-538,0,0,0,0,0,0,0,0,0,-1,1546,1562,0,0
329,-538,0,0,0,0,0,0,0,0,0,-1,1553,1562,0,0
336,-538,0,0,0,0,0,0,0,0,0,-1,1560,1562,0,0
343,-538,0,0,0,0,0,0,0,0,0,-1,1567,1562,0,0
350,-538,0,0,0,0,0,0,0,0,0,-1,1574,1562,0,0
357,-538,0,0,0,0,0,0,0,0,0,-1,1581,1562,0,0
364,-538,0,0,0,0,0,0,0,0,0,-1,1588,1562,0,0
371,-538,0,0,0,0,0,0,0,0,0,-1,1595,1562,0,0
378,-538,9.65479,5.82434,0,0,0,0,0,0,0,-1,1602,1562,9.6548,-5.82439
385,-538,10.5449,7.9502,0,0,0,0,0,0,0,-1,1609,1562,10.5449,-7.95014
392,-538,8.20361,7.07214,0,0,0,0,0,0,0,-1,1616,1562,8.20362,-7.07211
399,-538,7.85425,4.70508,0,0,0,0,0,0,0,-1,1623,1562,7.85425,-4.70512
406,-538,7.77734,4.96094,0,0,0,0,0,0,0,-1,1630,1562,7.77729,-4.96097
413,-538,13.0446,13.1765,0,0,0,0,0,0,0,-1,1637,1562,13.0446,-13.1765
420,-538,9.96216,12.7653,0,0,0,0,0,0,0,-1,1644,1562,9.96221,-12.7653
427,-538,10.1732,14.5863,0,0,0,0,0,0,0,-1,1651,1562,10.1732,-14.5863
434,-538,9.64331,14.7745,0,0,0,0,0,0,0,-1,1658,1562,9.64326,-14.7746
441,-538,11.5039,20.5195,0,0,0,0,0,0,0,-1,1665,1562,11.5039,-20.5195
448,-538,12.8766,22.4932,0,0,0,0,0,0,0,-1,1672,1562,12.8766,-22.4932
455,-538,12.5693,17.4128,0,0,0,0,0,0,0,-1,1679,1562,12.5694,-17.4128
462,-538,12.1389,17.017,0,0,0,0,0,0,0,-1,1686,1562,12.1389,-17.017
469,-538,14.3802,16.6945,0,0,0,0,0,0,0,-1,1693,1562,14.3803,-16.6945
476,-538,13.724,19.0608,0,0,0,0,0,0,0,-1,1700,1562,13.724,-19.0608
483,-538,17.088,25.2936,0,0,0,0,0,0,0,-1,1707,1562,17.088,-25.2936
490,-538,24.2688,38.5551,0,0,0,0,0,0,0,-1,1714,1562,24.2688,-38.555
497,-538,24.4752,37.5889,0,0,0,0,0,0,0,-1,1721,1562,24.4753,-37.5889
504,-538,24.4821,36.7783,0.00721136,0.00820311,-0.00571614,0.0134448,0.00196963,-0.828665,0.00838416,0.017546,1728,1562,24.482,-36.7784
511,-538,24.4248,36.0424,0.00577307,0.00632293,-0.00440694,0.0104635,0.00163249,-0.81655,0.0065002,0.0108387,1735,1562,24.4248,-36.0423
518,-538,24.3969,35.3132,0.00446175,0.00461955,-0.0032994,0.00784099,0.0012403,-0.797353,0.00486686,0.0113376,1742,1562,24.3969,-35.3132
525,-538,24.3652,34.575,0.00339151,0.00350358,-0.00260814,0.00605628,0.000838804,-0.796139,0.003789,0.0120057,1749,1562,24.3653,-34.5749
532,-538,24.3679,33.8253,0.00256991,0.00248778,-0.00206603,0.00459529,0.0004624,-0.775461,0.00292161,0.0141117,1756,1562,24.3679,-33.8253
539,-538,24.3188,33.0826,0.00205983,0.00170408,-0.00168094,0.00357228,0.000191625,-0.732685,0.00232028,0.0171376,1763,1562,24.3188,-33.0826
546,-538,24.2161,32.3445,0.00175384,0.000875416,-0.00133067,0.00271591,-8.66497e-05,-0.625993,0.00184017,0.0180632,1770,1562,24.216,-32.3445
553,-538,24.2274,31.5486,0.00168226,0.000223663,-0.00107623,0.00225302,-0.000347093,-0.487616,0.00163007,0.0293838,1777,1562,24.2274,-31.5486
560,-538,24.1672,30.8036,0.00195781,-0.000289573,-0.000951761,0.00230671,-0.000638475,-0.351374,0.00178902,0.0328231,1784,1562,24.1673,-30.8036
567,-538,24.0453,30.0936,0.00259157,-0.000585051,-0.000995584,0.0028778,-0.000871285,-0.279953,0.00226552,0.0251951,1791,1562,24.0453,-30.0936
574,-538,23.9513,29.2867,0.00351376,-0.00082685,-0.00108515,0.00376993,-0.00108302,-0.231824,0.00294152,0.0330655,1798,1562,23.9513,-29.2867
581,-538,24.0298,28.4905,0.00516637,-0.000700729,-0.00158819,0.00556869,-0.00110306,-0.248104,0.00412955,0.0497972,1805,1562,24.0297,-28.4905
588,-538,24.3917,27.6625,0,0,0,0,0,0,0,-1,1812,1562,24.3917,-27.6624
595,-538,15.9808,16.0894,0,0,0,0,0,0,0,-1,1819,1562,15.9808,-16.0893
602,-538,10.314,8.94238,0,0,0,0,0,0,0,-1,1826,1562,10.314,-8.94238
609,-538,10.1046,7.05713,0,0,0,0,0,0,0,-1,1833,1562,10.1046,-7.05719
616,-538,9.92249,5.43506,0,0,0,0,0,0,0,-1,1840,1562,9.92254,-5.43507
623,-538,11.1711,4.31604,0,0,0,0,0,0,0,-1,1847,1562,11.1711,-4.316
630,-538,12.6112,2.61633,0,0,0,0,0,0,0,-1,1854,1562,12.6112,-2.61637
637,-538,0,0,0,0,0,0,0,0,0,-1,1861,1562,0,0
644,-538,0,0,0,0,0,0,0,0,0,-1,1868,1562,0,0
651,-538,0,0,0,0,0,0,0,0,0,-1,1875,1562,0,0
658,-538,0,0,0,0,0,0,0,0,0,-1,1882,1562,0,0
665,-538,0,0,0,0,0,0,0,0,0,-1,1889,1562,0,0
672,-538,0,0,0,0,0,0,0,0,0,-1,1896,1562,0,0
679,-538,0,0,0,0,0,0,0,0,0,-1,1903,1562,0,0
686,-538,0,0,0,0,0,0,0,0,0,-1,1910,1562,0,0
693,-538,0,0,0,0,0,0,0,0,0,-1,1917,1562,0,0
700,-538,0,0,0,0,0,0,0,0,0,-1,1924,1562,0,0
707,-538,0,0,0,0,0,0,0,0,0,-1,1931,1562,0,0
714,-538,0,0,0,0,0,0,0,0,0,-1,1938,1562,0,0
721,-538,0,0,0,0,0,0,0,0,0,-1,1945,1562,0,0
728,-538,0,0,0,0,0,0,0,0,0,-1,1952,1562,0,0
735,-538,0,0,0,0,0,0,0,0,0,-1,1959,1562,0,0
742,-538,0,0,0,0,0,0,0,0,0,-1,1966,1562,0,0
749,-538,0,0,0,0,0,0,0,0,0,-1,1973,1562,0,0
756,-538,0,0,0,0,0,0,0,0,0,-1,1980,1562,0,0
763,-538,0,0,0,0,0,0,0,0,0,-1,1987,1562,0,0
770,-538,0,0,0,0,0,0,0,0,0,-1,1994,1562,0,0
777,-538,0,0,0,0,0,0,0,0,0,-1,2001,1562,0,0
784,-538,0,0,0,0,0,0,0,0,0,-1,2008,1562,0,0
791,-538,0,0,0,0,0,0,0,0,0,-1,2015,1562,0,0
798,-538,0,0,0,0,0,0,0,0,0,-1,2022,1562,0,0
805,-538,0,0,0,0,0,0,0,0,0,-1,2029,1562,0,0
812,-538,0,0,0,0,0,0,0,0,0,-1,2036,1562,0,0
-700,-545,0,0,0,0,0,0,0,0,0,-1,524,1569,0,0
-693,-545,0,0,0,0,0,0,0,0,0,-1,531,1569,0,0
-686,-545,0,0,0,0,0,0,0,0,0,-1,538,1569,0,0
-679,-545,0,0,0,0,0,0,0,0,0,-1,545,1569,0,0
-672,-545,0,0,0,0,0,0,0,0,0,-1,552,1569,0,0
-665,-545,0,0,0,0,0,0,0,0,0,-1,559,1569,0,0
-658,-545,0,0,0,0,0,0,0,0,0,-1,566,1569,0,0
-651,-545,0,0,0,0,0,0,0,0,0,-1,573,1569,0,0
-644,-545,0,0,0,0,0,0,0,0,0,-1,580,1569,0,0
-637,-545,0,0,0,0,0,0,0,0,0,-1,587,1569,0,0
-630,-545,0,0,0,0,0,0,0,0,0,-1,594,1569,0,0
-623,-545,0,0,0,0,0,0,0,0,0,-1,601,1569,0,0
-616,-545,0,0,0,0,0,0,0,0,0,-1,608,1569,0,0
-609,-545,0,0,0,0,0,0,0,0,0,-1,615,1569,0,0
-602,-545,0,0,0,0,0,0,0,0,0,-1,622,1569,0,0
-595,-545,0,0,0,0,0,0,0,0,0,-1,629,1569,0,0
-588,-545,0,0,0,0,0,0,0,0,0,-1,636,1569,0,0
-581,-545,0,0,0,0,0,0,0,0,0,-1,643,1569,0,0
-574,-545,0,0,0,0,0,0,0,0,0,-1,650,1569,0,0
-567,-545,0,0,0,0,0,0,0,0,0,-1,657,1569,0,0
-560,-545,0,0,0,0,0,0,0,0,0,-1,664,1569,0,0
-553,-545,0,0,0,0,0,0,0,0,0,-1,671,1569,0,0
-546,-545,0,0,0,0,0,0,0,0,0,-1,678,1569,0,0
-539,-545,0,0,0,0,0,0,0,0,0,-1,685,1569,0,0
-532,-545,0,0,0,0,0,0,0,0,0,-1,692,1569,0,0
-525,-545,0,0,0,0,0,0,0,0,0,-1,699,1569,0,0
-518,-545,0,0,0,0,0,0,0,0,0,-1,706,1569,0,0
-511,-545,0,0,0,0,0,0,0,0,0,-1,713,1569,0,0
-504,-545,-3.55237,-2.5354,0,0,0,0,0,0,0,-1,720,1569,-3.55236,2.53545
-497,-545,2.26575,5.69214,0,0,0,0,0,0,0,-1,727,1569,2.26573,-5.6922
-490,-545,-2.17334,7.81396,0,0,0,0,0,0,0,-1,734,1569,-2.17334,-7.81399
-483,-545,-1.88336,5.8446,0,0,0,0,0,0,0,-1,741,1569,-1.88334,-5.84466
-476,-545,-1.13147,6.5741,0,0,0,0,0,0,0,-1,748,1569,-1.13149,-6.57405
-469,-545,-1.03412,15.8353,0,0,0,0,0,0,0,-1,755,1569,-1.03414,-15.8353
-462,-545,-4.09772,21.0458,0,0,0,0,0,0,0,-1,762,1569,-4.0977,-21.0458
-455,-545,-4.99615,27.4063,0,0,0,0,0,0,0,-1,769,1569,-4.99617,-27.4063
-448,-545,-5.07477,28.4954,0,0,0,0,0,0,0,-1,776,1569,-5.07479,-28.4954
-441,-545,-5.30603,29.3918,0,0,0,0,0,0,0,-1,783,1569,-5.30604,-29.3918
-434,-545,-5.60492,30.2496,-0.00208734,-0.0036037,-0.00163883,-0.0010398,-0.00465124,-0.568743,0.00281889,0.0312059,790,1569,-5.60492,-30.2497
-427,-545,-5.5741,31.0341,-0.00161788,-0.00204101,-0.00106363,-0.00074498,-0.00291392,-0.687225,0.00174803,0.0220332,797,1569,-5.57407,-31.034
-420,-545,-5.5874,31.7955,-0.00108577,-0.000967915,-0.000571339,-0.000452472,-0.00160121,-0.836786,0.000953148,0.0243649,804,1569,-5.5874,-31.7955
-413,-545,-5.65527,32.553,-0.000650186,-2.47646e-05,-0.000291942,9.03307e-05,-0.000765282,-1.19526,0.000542809,0.0241135,811,1569,-5.65527,-32.553
-406,-545,-5.68262,33.3468,5.40823e-05,0.000564331,0.000214935,0.000642802,-2.43884e-05,1.22074,0.000436891,0.0179559,818,1569,-5.68262,-33.3468
-399,-545,-5.69977,34.1184,0.000764925,0.000976604,0.000576761,0.00145716,0.000284373,0.876142,0.000891889,0.0121815,825,1569,-5.6998,-34.1184
-392,-545,-5.73615,34.8719,0.00137136,0.00143984,0.000883099,0.00228937,0.000521841,0.804774,0.00138545,0.0126235,832,1569,-5.73616,-34.8719
-385,-545,-5.77997,35.6526,0.00189632,0.00199343,0.00111457,0.0030605,0.000829243,0.807166,0.00182774,0.0111794,839,1569,-5.77997,-35.6526
-378,-545,-5.84497,36.4175,0.00243629,0.00269238,0.0013678,0.00393811,0.00119056,0.832069,0.00233215,0.0126329,846,1569,-5.84499,-36.4175
-371,-545,-5.88226,37.2009,0.00301315,0.00356374,0.00165281,0.00496402,0.00161286,0.867922,0.00292397,0.0153337,853,1569,-5.88229,-37.2009
-364,-545,-5.89441,37.9337,0.00374333,0.0048643,0.00217858,0.00655334,0.0020543,0.911303,0.00387034,0.0122173,860,1569,-5.8944,-37.9337
-357,-545,-5.82782,38.8297,0.00447888,0.00648817,0.00275239,0.00841353,0.00255351,0.960389,0.00498103,0.0261252,867,1569,-5.82782,-38.8297
-350,-545,-5.80182,39.6254,0.00525075,0.00859721,0.00353936,0.0108389,0.00300904,1.0062,0.00646088,0.0494089,874,1569,-5.8018,-39.6253
-343,-545,-5.62268,40.5721,0,0,0,0,0,0,0,-1,881,1569,-5.6227,-40.5721
-336,-545,-4.2146,36.9165,0,0,0,0,0,0,0,-1,888,1569,-4.21457,-36.9165
-329,-545,-2.03595,27.8694,0,0,0,0,0,0,0,-1,895,1569,-2.03592,-27.8694
-322,-545,-2.42474,27.9695,0,0,0,0,0,0,0,-1,902,1569,-2.42474,-27.9695
-315,-545,-2.52954,30.1711,0,0,0,0,0,0,0,-1,909,1569,-2.52951,-30.1712
-308,-545,-1.54358,21.4457,0,0,0,0,0,0,0,-1,916,1569,-1.54357,-21.4457
-301,-545,1.52191,17.5009,0,0,0,0,0,0,0,-1,923,1569,1.52192,-17.5008
-294,-545,-2.69287,8.42102,0,0,0,0,0,0,0,-1,930,1569,-2.69287,-8.42097
-287,-545,-3.47784,9.96021,0,0,0,0,0,0,0,-1,937,1569,-3.47785,-9.96021
-280,-545,-3.7879,10.5448,0,0,0,0,0,0,0,-1,944,1569,-3.78793,-10.5448
-273,-545,-5.10333,12.864,0,0,0,0,0,0,0,-1,951,1569,-5.10331,-12.864
-266,-545,-5.78955,13.3704,0,0,0,0,0,0,0,-1,958,1569,-5.78952,-13.3703
-259,-545,-6.32184,13.8101,0,0,0,0,0,0,0,-1,965,1569,-6.32182,-13.81
-252,-545,0.369263,7.54053,0,0,0,0,0,0,0,-1,972,1569,0.369276,-7.54056
-245,-545,-0.236633,6.65564,0,0,0,0,0,0,0,-1,979,1569,-0.236605,-6.65566
-238,-545,0,0,0,0,0,0,0,0,0,-1,986,1569,0,0
-231,-545,0,0,0,0,0,0,0,0,0,-1,993,1569,0,0
-224,-545,0,0,0,0,0,0,0,0,0,-1,1000,1569,0,0
-217,-545,0,0,0,0,0,0,0,0,0,-1,1007,1569,0,0
-210,-545,0,0,0,0,0,0,0,0,0,-1,1014,1569,0,0
-203,-545,0,0,0,0,0,0,0,0,0,-1,1021,1569,0,0
-196,-545,0,0,0,0,0,0,0,0,0,-1,1028,1569,0,0
-189,-545,0,0,0,0,0,0,0,0,0,-1,1035,1569,0,0
-182,-545,0,0,0,0,0,0,0,0,0,-1,1042,1569,0,0
-175,-545,0,0,0,0,0,0,0,0,0,-1,1049,1569,0,0
-168,-545,0,0,0,0,0,0,0,0,0,-1,1056,1569,0,0
-161,-545,0,0,0,0,0,0,0,0,0,-1,1063,1569,0,0
-154,-545,0,0,0,0,0,0,0,0,0,-1,1070,1569,0,0
-147,-545,0,0,0,0,0,0,0,0,0,-1,1077,1569,0,0
-140,-545,0,0,0,0,0,0,0,0,0,-1,1084,1569,0,0
-133,-545,0,0,0,0,0,0,0,0,0,-1,1091,1569,0,0
-126,-545,0,0,0,0,0,0,0,0,0,-1,1098,1569,0,0
-119,-545,0,0,0,0,0,0,0,0,0,-1,1105,1569,0,0
-112,-545,0,0,0,0,0,0,0,0,0,-1,1112,1569,0,0
-105,-545,0,0,0,0,0,0,0,0,0,-1,1119,1569,0,0
-98,-545,0,0,0,0,0,0,0,0,0,-1,1126,1569,0,0
-91,-545,0,0,0,0,0,0,0,0,0,-1,1133,1569,0,0
-84,-545,0,0,0,0,0,0,0,0,0,-1,1140,1569,0,0
-77,-545,0,0,0,0,0,0,0,0,0,-1,1147,1569,0,0
-70,-545,0,0,0,0,0,0,0,0,0,-1,1154,1569,0,0
-63,-545,0,0,0,0,0,0,0,0,0,-1,1161,1569,0,0
-56,-545,0,0,0,0,0,0,0,0,0,-1,1168,1569,0,0
-49,-545,0,0,0,0,0,0,0,0,0,-1,1175,1569,0,0
-42,-545,0,0,0,0,0,0,0,0,0,-1,1182,1569,0,0
-35,-545,0,0,0,0,0,0,0,0,0,-1,1189,1569,0,0
-28,-545,0,0,0,0,0,0,0,0,0,-1,1196,1569,0,0
-21,-545,0,0,0,0,0,0,0,0,0,-1,1203,1569,0,0
-14,-545,0,0,0,0,0,0,0,0,0,-1,1210,1569,0,0
-7,-545,0,0,0,0,0,0,0,0,0,-1,1217,1569,0,0
0,-545,0,0,0,0,0,0,0,0,0,-1,1224,1569,0,0
7,-545,0,0,0,0,0,0,0,0,0,-1,1231,1569,0,0
14,-545,0,0,0,0,0,0,0,0,0,-1,1238,1569,0,0
21,-545,0,0,0,0,0,0,0,0,0,-1,1245,1569,0,0
28,-545,0,0,0,0,0,0,0,0,0,-1,1252,1569,0,0
35,-545,0,0,0,0,0,0,0,0,0,-1,1259,1569,0,0
42,-545,0,0,0,0,0,0,0,0,0,-1,1266,1569,0,0
49,-545,0,0,0,0,0,0,0,0,0,-1,1273,1569,0,0
56,-545,0,0,0,0,0,0,0,0,0,-1,1280,1569,0,0
63,-545,0,0,0,0,0,0,0,0,0,-1,1287,1569,0,0
70,-545,0,0,0,0,0,0,0,0,0,-1,1294,1569,0,0
77,-545,0,0,0,0,0,0,0,0,0,-1,1301,1569,0,0
84,-545,0,0,0,0,0,0,0,0,0,-1,1308,1569,0,0
91,-545,0,0,0,0,0,0,0,0,0,-1,1315,1569,0,0
98,-545,0,0,0,0,0,0,0,0,0,-1,1322,1569,0,0
105,-545,0,0,0,0,0,0,0,0,0,-1,1329,1569,0,0
112,-545,0,0,0,0,0,0,0,0,0,-1,1336,1569,0,0
119,-545,0,0,0,0,0,0,0,0,0,-1,1343,1569,0,0
126,-545,0,0,0,0,0,0,0,0,0,-1,1350,1569,0,0
133,-545,0,0,0,0,0,0,0,0,0,-1,1357,1569,0,0
140,-545,0,0,0,0,0,0,0,0,0,-1,1364,1569,0,0
147,-545,0,0,0,0,0,0,0,0,0,-1,1371,1569,0,0
154,-545,0,0,0,0,0,0,0,0,0,-1,1378,1569,0,0
161,-545,0,0,0,0,0,0,0,0,0,-1,1385,1569,0,0
168,-545,0,0,0,0,0,0,0,0,0,-1,1392,1569,0,0
175,-545,0,0,0,0,0,0,0,0,0,-1,1399,1569,0,0
182,-545,0,0,0,0,0,0,0,0,0,-1,1406,1569,0,0
189,-545,0,0,0,0,0,0,0,0,0,-1,1413,1569,0,0
196,-545,0,0,0,0,0,0,0,0,0,-1,1420,1569,0,0
203,-545,0,0,0,0,0,0,0,0,0,-1,1427,1569,0,0
210,-545,0,0,0,0,0,0,0,0,0,-1,1434,1569,0,0
217,-545,0,0,0,0,0,0,0,0,0,-1,1441,1569,0,0
224,-545,0,0,0,0,0,0,0,0,0,-1,1448,1569,0,0
231,-545,0,0,0,0,0,0,0,0,0,-1,1455,1569,0,0
238,-545,0,0,0,0,0,0,0,0,0,-1,1462,1569,0,0
245,-545,0,0,0,0,0,0,0,0,0,-1,1469,1569,0,0
252,-545,0,0,0,0,0,0,0,0,0,-1,1476,1569,0,0
259,-545,0,0,0,0,0,0,0,0,0,-1,1483,1569,0,0
266,-545,0,0,0,0,0,0,0,0,0,-1,1490,1569,0,0
273,-545,0,0,0,0,0,0,0,0,0,-1,1497,1569,0,0
280,-545,0,0,0,0,0,0,0,0,0,-1,1504,1569,0,0
287,-545,0,0,0,0,0,0,0,0,0,-1,1511,1569,0,0
294,-545,0,0,0,0,0,0,0,0,0,-1,1518,1569,0,0
301,-545,0,0,0,0,0,0,0,0,0,-1,1525,1569,0,0
308,-545,0,0,0,0,0,0,0,0,0,-1,1532,1569,0,0
315,-545,0,0,0,0,0,0,0,0,0,-1,1539,1569,0,0
322,-545,0,0,0,0,0,0,0,0,0,-1,1546,1569,0,0
329,-545,0,0,0,0,0,0,0,0,0,-1,1553,1569,0,0
336,-545,0,0,0,0,0,0,0,0,0,-1,1560,1569,0,0
343,-545,0,0,0,0,0,0,0,0,0,-1,1567,1569,0,0
350,-545,0,0,0,0,0,0,0,0,0,-1,1574,1569,0,0
357,-545,0,0,0,0,0,0,0,0,0,-1,1581,1569,0,0
364,-545,7.19495,4.88098,0,0,0,0,0,0,0,-1,1588,1569,7.19497,-4.88095
371,-545,7.82324,3.84302,0,0,0,0,0,0,0,-1,1595,1569,7.82324,-3.84307
378,-545,7.65674,5.52673,0,0,0,0,0,0,0,-1,1602,1569,7.6567,-5.52667
385,-545,8.58447,1.16125,0,0,0,0,0,0,0,-1,1609,1569,8.5845,-1.1612
392,-545,12.5654,3.89526,0,0,0,0,0,0,0,-1,1616,1569,12.5655,-3.89532
399,-545,11.5869,5.6333,0,0,0,0,0,0,0,-1,1623,1569,11.5869,-5.63326
406,-545,11.234,6.36414,0,0,0,0,0,0,0,-1,1630,1569,11.234,-6.3641
413,-545,12.1521,13.4817,0,0,0,0,0,0,0,-1,1637,1569,12.1521,-13.4817
420,-545,11.1954,13.6047,0,0,0,0,0,0,0,-1,1644,1569,11.1954,-13.6047
427,-545,9.61072,14.9135,0,0,0,0,0,0,0,-1,1651,1569,9.61076,-14.9134
434,-545,13.1598,23.9921,0,0,0,0,0,0,0,-1,1658,1569,13.1598,-23.992
441,-545,12.2833,22.2238,0,0,0,0,0,0,0,-1,1665,1569,12.2833,-22.2237
448,-545,13.0082,21.941,0,0,0,0,0,0,0,-1,1672,1569,13.0082,-21.941
455,-545,13.733,21.6583,0,0,0,0,0,0,0,-1,1679,1569,13.733,-21.6583
462,-545,12.449,20.7413,0,0,0,0,0,0,0,-1,1686,1569,12.4489,-20.7413
469,-545,12.7837,17.7919,0,0,0,0,0,0,0,-1,1693,1569,12.7837,-17.7919
476,-545,15.7562,24.8708,0,0,0,0,0,0,0,-1,1700,1569,15.7563,-24.8709
483,-545,23.6591,39.2228,0,0,0,0,0,0,0,-1,1707,1569,23.6591,-39.2227
490,-545,23.6906,38.3773,0.00886793,0.0115595,-0.00801929,0.0183452,0.0020823,-0.868533,0.0115985,0.0295597,1714,1569,23.6906,-38.3773
497,-545,23.6934,37.606,0.0072185,0.00869698,-0.00601605,0.014019,0.00189645,-0.846531,0.0087824,0.0247405,1721,1569,23.6934,-37.6059
504,-545,23.7893,36.8263,0.00572654,0.00643559,-0.00450364,0.0105986,0.0015635,-0.824677,0.00660655,0.0174066,1728,1569,23.7892,-36.8263
511,-545,23.7275,36.0675,0.0044742,0.00480803,-0.00339886,0.00804407,0.00123815,-0.809933,0.00500135,0.01151,1735,1569,23.7275,-36.0675
518,-545,23.676,35.3401,0.00331403,0.00328576,-0.00245937,0.00575931,0.000840487,-0.782525,0.0035923,0.0127326,1742,1569,23.676,-35.34
525,-545,23.6151,34.6056,0.00241446,0.00231448,-0.0019041,0.00426923,0.000459712,-0.772273,0.00270596,0.0138968,1749,1569,23.6151,-34.6056
532,-545,23.5762,33.8665,0.00178601,0.00142086,-0.00149869,0.00311321,9.36666e-05,-0.724784,0.00204496,0.0148908,1756,1569,23.5761,-33.8665
539,-545,23.5334,33.1335,0.00143901,0.00075278,-0.0012443,0.00238664,-0.00019485,-0.650868,0.00165986,0.0181632,1763,1569,23.5335,-33.1336
546,-545,23.4564,32.4022,0.00128408,1.91244e-05,-0.00101875,0.00185072,-0.00054751,-0.507597,0.00145116,0.019519,1770,1569,23.4564,-32.4022
553,-545,23.467,31.5842,0.00137233,-0.000559276,-0.000889165,0.0017193,-0.000906253,-0.372053,0.0015399,0.0274055,1777,1569,23.467,-31.5843
560,-545,23.4445,30.7866,0.00183187,-0.00098558,-0.000903773,0.00209686,-0.00125057,-0.285207,0.00195312,0.0318232,1784,1569,23.4445,-30.7866
567,-545,23.4186,30.0111,0,0,0,0,0,0,0,-1,1791,1569,23.4186,-30.0111
574,-545,23.3643,29.1191,0,0,0,0,0,0,0,-1,1798,1569,23.3643,-29.1191
581,-545,23.3533,28.3999,0,0,0,0,0,0,0,-1,1805,1569,23.3533,-28.4
588,-545,15.4786,16.7035,0,0,0,0,0,0,0,-1,1812,1569,15.4786,-16.7035
595,-545,10.2859,9.11218,0,0,0,0,0,0,0,-1,1819,1569,10.2858,-9.11215
602,-545,8.82117,6.32214,0,0,0,0,0,0,0,-1,1826,1569,8.82121,-6.32217
609,-545,10.2406,5.22351,0,0,0,0,0,0,0,-1,1833,1569,10.2406,-5.22353
616,-545,11.701,3.93188,0,0,0,0,0,0,0,-1,1840,1569,11.701,-3.93191
623,-545,13.2139,2.32043,0,0,0,0,0,0,0,-1,1847,1569,13.2139,-2.32042
630,-545,0,0,0,0,0,0,0,0,0,-1,1854,1569,0,0
637,-545,0,0,0,0,0,0,0,0,0,-1,1861,1569,0,0
644,-545,0,0,0,0,0,0,0,0,0,-1,1868,1569,0,0
651,-545,0,0,0,0,0,0,0,0,0,-1,1875,1569,0,0
658,-545,0,0,0,0,0,0,0,0,0,-1,1882,1569,0,0
665,-545,0,0,0,0,0,0,0,0,0,-1,1889,1569,0,0
672,-545,0,0,0,0,0,0,0,0,0,-1,1896,1569,0,0
679,-545,0,0,0,0,0,0,0,0,0,-1,1903,1569,0,0
686,-545,0,0,0,0,0,0,0,0,0,-1,1910,1569,0,0
693,-545,0,0,0,0,0,0,0,0,0,-1,1917,1569,0,0
700,-545,0,0,0,0,0,0,0,0,0,-1,1924,1569,0,0
707,-545,0,0,0,0,0,0,0,0,0,-1,1931,1569,0,0
714,-545,0,0,0,0,0,0,0,0,0,-1,1938,1569,0,0
721,-545,0,0,0,0,0,0,0,0,0,-1,1945,1569,0,0
728,-545,0,0,0,0,0,0,0,0,0,-1,1952,1569,0,0
735,-545,0,0,0,0,0,0,0,0,0,-1,1959,1569,0,0
742,-545,0,0,0,0,0,0,0,0,0,-1,1966,1569,0,0
749,-545,0,0,0,0,0,0,0,0,0,-1,1973,1569,0,0
756,-545,0,0,0,0,0,0,0,0,0,-1,1980,1569,0,0
763,-545,0,0,0,0,0,0,0,0,0,-1,1987,1569,0,0
770,-545,0,0,0,0,0,0,0,0,0,-1,1994,1569,0,0
777,-545,0,0,0,0,0,0,0,0,0,-1,2001,1569,0,0
784,-545,0,0,0,0,0,0,0,0,0,-1,2008,1569,0,0
791,-545,0,0,0,0,0,0,0,0,0,-1,2015,1569,0,0
798,-545,0,0,0,0,0,0,0,0,0,-1,2022,1569,0,0
805,-545,0,0,0,0,0,0,0,0,0,-1,2029,1569,0,0
812,-545,0,0,0,0,0,0,0,0,0,-1,2036,1569,0,0
-700,-552,0,0,0,0,0,0,0,0,0,-1,524,1576,0,0
-693,-552,0,0,0,0,0,0,0,0,0,-1,531,1576,0,0
-686,-552,0,0,0,0,0,0,0,0,0,-1,538,1576,0,0
-679,-552,0,0,0,0,0,0,0,0,0,-1,545,1576,0,0
-672,-552,0,0,0,0,0,0,0,0,0,-1,552,1576,0,0
-665,-552,0,0,0,0,0,0,0,0,0,-1,559,1576,0,0
-658,-552,0,0,0,0,0,0,0,0,0,-1,566,1576,0,0
-651,-552,0,0,0,0,0,0,0,0,0,-1,573,1576,0,0
-644,-552,0,0,0,0,0,0,0,0,0,-1,580,1576,0,0
-637,-552,0,0,0,0,0,0,0,0,0,-1,587,1576,0,0
-630,-552,0,0,0,0,0,0,0,0,0,-1,594,1576,0,0
-623,-552,0,0,0,0,0,0,0,0,0,-1,601,1576,0,0
-616,-552,0,0,0,0,0,0,0,0,0,-1,608,1576,0,0
-609,-552,0,0,0,0,0,0,0,0,0,-1,615,1576,0,0
-602,-552,0,0,0,0,0,0,0,0,0,-1,622,1576,0,0
-595,-552,0,0,0,0,0,0,0,0,0,-1,629,1576,0,0
-588,-552,0,0,0,0,0,0,0,0,0,-1,636,1576,0,0
-581,-552,0,0,0,0,0,0,0,0,0,-1,643,1576,0,0
-574,-552,0,0,0,0,0,0,0,0,0,-1,650,1576,0,0
-567,-552,0,0,0,0,0,0,0,0,0,-1,657,1576,0,0
-560,-552,0,0,0,0,0,0,0,0,0,-1,664,1576,0,0
-553,-552,0,0,0,0,0,0,0,0,0,-1,671,1576,0,0
-546,-552,0,0,0,0,0,0,0,0,0,-1,678,1576,0,0
-539,-552,0,0,0,0,0,0,0,0,0,-1,685,1576,0,0
-532,-552,0,0,0,0,0,0,0,0,0,-1,692,1576,0,0
-525,-552,0,0,0,0,0,0,0,0,0,-1,699,1576,0,0
-518,-552,0,0,0,0,0,0,0,0,0,-1,706,1576,0,0
-511,-552,0,0,0,0,0,0,0,0,0,-1,713,1576,0,0
-504,-552,0,0,0,0,0,0,0,0,0,-1,720,1576,0,0
-497,-552,1.51282,3.96924,0,0,0,0,0,0,0,-1,727,1576,1.5128,-3.96924
-490,-552,-3.82312,6.32104,0,0,0,0,0,0,0,-1,734,1576,-3.82314,-6.3211
-483,-552,-3.50586,6.47986,0,0,0,0,0,0,0,-1,741,1576,-3.50587,-6.47983
-476,-552,-1.95129,4.43054,0,0,0,0,0,0,0,-1,748,1576,-1.95128,-4.43054
-469,-552,-1.40491,7.9895,0,0,0,0,0,0,0,-1,755,1576,-1.40491,-7.98947
-462,-552,0.0459595,16.3469,0,0,0,0,0,0,0,-1,762,1576,0.0459611,-16.3469
-455,-552,-3.21484,22.3766,0,0,0,0,0,0,0,-1,769,1576,-3.21487,-22.3766
-448,-552,-3.42712,28.0333,0,0,0,0,0,0,0,-1,776,1576,-3.42715,-28.0333
-441,-552,-3.98157,29.3735,0,0,0,0,0,0,0,-1,783,1576,-3.98159,-29.3735
-434,-552,-4.50763,30.4519,-0.00292526,-0.00349831,-0.00225967,-0.000934026,-0.00548954,-0.722335,0.0033915,0.043719,790,1576,-4.50763,-30.4519
-427,-552,-4.84912,30.9255,-0.00228309,-0.00192698,-0.00142946,-0.00066453,-0.00354554,-0.847359,0.00217627,0.0376355,797,1576,-4.84912,-30.9255
-420,-552,-4.80957,31.8237,-0.00165226,-0.00089036,-0.000771711,-0.000410694,-0.00213193,-1.01467,0.00130609,0.0234695,804,1576,-4.80957,-31.8237
-413,-552,-4.84979,32.5896,-0.00123774,-6.38308e-05,-0.000456055,9.25194e-05,-0.00139409,-1.24052,0.000961718,0.0178185,811,1576,-4.84982,-32.5896
-406,-552,-4.87354,33.3606,-0.000540596,0.000357636,6.2558e-05,0.000361972,-0.000544932,1.5016,0.000527141,0.0140774,818,1576,-4.87352,-33.3606
-399,-552,-4.92987,34.1359,0.000154853,0.000600907,0.000393531,0.000830216,-7.44551e-05,1.0432,0.000579891,0.0143671,825,1576,-4.92988,-34.1358
-392,-552,-4.98999,34.9106,0.000745179,0.000931516,0.000667771,0.00151259,0.000164109,0.854712,0.000958383,0.0163011,832,1576,-4.98998,-34.9107
-385,-552,-5.02448,35.6818,0.00123465,0.00135821,0.000845635,0.00214432,0.000448543,0.821862,0.00130597,0.0148584,839,1576,-5.02446,-35.6817
-378,-552,-5.08636,36.4308,0.00176465,0.00195218,0.00108926,0.00295171,0.000765124,0.828332,0.00176881,0.0154433,846,1576,-5.08633,-36.4308
-371,-552,-5.11414,37.2257,0.002278,0.00260048,0.0012694,0.00371884,0.00115965,0.84857,0.00219717,0.0194324,853,1576,-5.11413,-37.2257
-364,-552,-5.12311,37.9948,0.00292262,0.00369664,0.00167653,0.00503024,0.00158901,0.898831,0.00296911,0.0156854,860,1576,-5.1231,-37.9947
-357,-552,-5.14136,38.7167,0.0035868,0.00504026,0.00212845,0.00656262,0.00206443,0.949911,0.00387481,0.0112059,867,1576,-5.14136,-38.7167
-350,-552,-5.15094,39.531,0.00425786,0.00668017,0.00271487,0.0084418,0.00249623,0.995209,0.00500766,0.0167942,874,1576,-5.15096,-39.531
-343,-552,-5.17743,40.2723,0.0047475,0.00799458,0.00315423,0.00991859,0.0028235,1.02307,0.00590086,0.0311213,881,1576,-5.17744,-40.2723
-336,-552,-5.23236,40.9213,0,0,0,0,0,0,0,-1,888,1576,-5.23234,-40.9213
-329,-552,-3.68982,37.6417,0,0,0,0,0,0,0,-1,895,1576,-3.68984,-37.6417
-322,-552,-1.23962,28.5371,0,0,0,0,0,0,0,-1,902,1576,-1.23964,-28.5371
-315,-552,-0.605347,28.994,0,0,0,0,0,0,0,-1,909,1576,-0.605331,-28.9941
-308,-552,-1.01624,30.3169,0,0,0,0,0,0,0,-1,916,1576,-1.01624,-30.3169
-301,-552,1.39453,18.4995,0,0,0,0,0,0,0,-1,923,1576,1.3945,-18.4995
-294,-552,0.842163,13.7863,0,0,0,0,0,0,0,-1,930,1576,0.842149,-13.7863
-287,-552,-0.663757,13.3474,0,0,0,0,0,0,0,-1,937,1576,-0.663744,-13.3474
-280,-552,-5.47241,8.96765,0,0,0,0,0,0,0,-1,944,1576,-5.47239,-8.96766
-273,-552,1.64587,10.6685,0,0,0,0,0,0,0,-1,951,1576,1.6459,-10.6685
-266,-552,-1.32678,8.05688,0,0,0,0,0,0,0,-1,958,1576,-1.32677,-8.05683
-259,-552,-5.54321,8.31213,0,0,0,0,0,0,0,-1,965,1576,-5.54324,-8.31214
-252,-552,-1.93445,7.81543,0,0,0,0,0,0,0,-1,972,1576,-1.93445,-7.81546
-245,-552,-2.53613,6.92212,0,0,0,0,0,0,0,-1,979,1576,-2.53614,-6.92216
-238,-552,-6.5365,2.81885,0,0,0,0,0,0,0,-1,986,1576,-6.53649,-2.8188
-231,-552,-4.32239,4.34583,0,0,0,0,0,0,0,-1,993,1576,-4.32239,-4.34587
-224,-552,0,0,0,0,0,0,0,0,0,-1,1000,1576,0,0
-217,-552,0,0,0,0,0,0,0,0,0,-1,1007,1576,0,0
-210,-552,0,0,0,0,0,0,0,0,0,-1,1014,1576,0,0
-203,-552,0,0,0,0,0,0,0,0,0,-1,1021,1576,0,0
-196,-552,0,0,0,0,0,0,0,0,0,-1,1028,1576,0,0
-189,-552,0,0,0,0,0,0,0,0,0,-1,1035,1576,0,0
-182,-552,0,0,0,0,0,0,0,0,0,-1,1042,1576,0,0
-175,-552,0,0,0,0,0,0,0,0,0,-1,1049,1576,0,0
-168,-552,0,0,0,0,0,0,0,0,0,-1,1056,1576,0,0
-161,-552,0,0,0,0,0,0,0,0,0,-1,1063,1576,0,0
-154,-552,0,0,0,0,0,0,0,0,0,-1,1070,1576,0,0
-147,-552,0,0,0,0,0,0,0,0,0,-1,1077,1576,0,0
-140,-552,0,0,0,0,0,0,0,0,0,-1,1084,1576,0,0
-133,-552,0,0,0,0,0,0,0,0,0,-1,1091,1576,0,0
-126,-552,0,0,0,0,0,0,0,0,0,-1,1098,1576,0,0
-119,-552,0,0,0,0,0,0,0,0,0,-1,1105,1576,0,0
-112,-552,0,0,0,0,0,0,0,0,0,-1,1112,1576,0,0
-105,-552,0,0,0,0,0,0,0,0,0,-1,1119,1576,0,0
-98,-552,0,0,0,0,0,0,0,0,0,-1,1126,1576,0,0
-91,-552,0,0,0,0,0,0,0,0,0,-1,1133,1576,0,0
-84,-552,0,0,0,0,0,0,0,0,0,-1,1140,1576,0,0
-77,-552,0,0,0,0,0,0,0,0,0,-1,1147,1576,0,0
-70,-552,0,0,0,0,0,0,0,0,0,-1,1154,1576,0,0
-63,-552,0,0,0,0,0,0,0,0,0,-1,1161,1576,0,0
-56,-552,0,0,0,0,0,0,0,0,0,-1,1168,1576,0,0
-49,-552,0,0,0,0,0,0,0,0,0,-1,1175,1576,0,0
-42,-552,0,0,0,0,0,0,0,0,0,-1,1182,1576,0,0
-35,-552,0,0,0,0,0,0,0,0,0,-1,1189,1576,0,0
-28,-552,0,0,0,0,0,0,0,0,0,-1,1196,1576,0,0
-21,-552,0,0,0,0,0,0,0,0,0,-1,1203,1576,0,0
-14,-552,0,0,0,0,0,0,0,0,0,-1,1210,1576,0,0
-7,-552,0,0,0,0,0,0,0,0,0,-1,1217,1576,0,0
0,-552,0,0,0,0,0,0,0,0,0,-1,1224,1576,0,0
7,-552,0,0,0,0,0,0,0,0,0,-1,1231,1576,0,0
14,-552,0,0,0,0,0,0,0,0,0,-1,1238,1576,0,0
21,-552,0,0,0,0,0,0,0,0,0,-1,1245,1576,0,0
28,-552,0,0,0,0,0,0,0,0,0,-1,1252,1576,0,0
35,-552,0,0,0,0,0,0,0,0,0,-1,1259,1576,0,0
42,-552,0,0,0,0,0,0,0,0,0,-1,1266,1576,0,0
49,-552,0,0,0,0,0,0,0,0,0,-1,1273,1576,0,0
56,-552,0,0,0,0,0,0,0,0,0,-1,1280,1576,0,0
63,-552,0,0,0,0,0,0,0,0,0,-1,1287,1576,0,0
70,-552,0,0,0,0,0,0,0,0,0,-1,1294,1576,0,0
77,-552,0,0,0,0,0,0,0,0,0,-1,1301,1576,0,0
84,-552,0,0,0,0,0,0,0,0,0,-1,1308,1576,0,0
91,-552,0,0,0,0,0,0,0,0,0,-1,1315,1576,0,0
98,-552,0,0,0,0,0,0,0,0,0,-1,1322,1576,0,0
105,-552,0,0,0,0,0,0,0,0,0,-1,1329,1576,0,0
112,-552,0,0,0,0,0,0,0,0,0,-1,1336,1576,0,0
119,-552,0,0,0,0,0,0,0,0,0,-1,1343,1576,0,0
126,-552,0,0,0,0,0,0,0,0,0,-1,1350,1576,0,0
133,-552,0,0,0,0,0,0,0,0,0,-1,1357,1576,0,0
140,-552,0,0,0,0,0,0,0,0,0,-1,1364,1576,0,0
147,-552,0,0,0,0,0,0,0,0,0,-1,1371,1576,0,0
154,-552,0,0,0,0,0,0,0,0,0,-1,1378,1576,0,0
161,-552,0,0,0,0,0,0,0,0,0,-1,1385,1576,0,0
168,-552,0,0,0,0,0,0,0,0,0,-1,1392,1576,0,0
175,-552,0,0,0,0,0,0,0,0,0,-1,1399,1576,0,0
182,-552,0,0,0,0,0,0,0,0,0,-1,1406,1576,0,0
189,-552,0,0,0,0,0,0,0,0,0,-1,1413,1576,0,0
196,-552,0,0,0,0,0,0,0,0,0,-1,1420,1576,0,0
203,-552,0,0,0,0,0,0,0,0,0,-1,1427,1576,0,0
210,-552,0,0,0,0,0,0,0,0,0,-1,1434,1576,0,0
217,-552,0,0,0,0,0,0,0,0,0,-1,1441,1576,0,0
224,-552,0,0,0,0,0,0,0,0,0,-1,1448,1576,0,0
231,-552,0,0,0,0,0,0,0,0,0,-1,1455,1576,0,0
238,-552,0,0,0,0,0,0,0,0,0,-1,1462,1576,0,0
245,-552,0,0,0,0,0,0,0,0,0,-1,1469,1576,0,0
252,-552,0,0,0,0,0,0,0,0,0,-1,1476,1576,0,0
259,-552,0,0,0,0,0,0,0,0,0,-1,1483,1576,0,0
266,-552,0,0,0,0,0,0,0,0,0,-1,1490,1576,0,0
273,-552,0,0,0,0,0,0,0,0,0,-1,1497,1576,0,0
280,-552,0,0,0,0,0,0,0,0,0,-1,1504,1576,0,0
287,-552,0,0,0,0,0,0,0,0,0,-1,1511,1576,0,0
294,-552,0,0,0,0,0,0,0,0,0,-1,1518,1576,0,0
301,-552,0,0,0,0,0,0,0,0,0,-1,1525,1576,0,0
308,-552,0,0,0,0,0,0,0,0,0,-1,1532,1576,0,0
315,-552,0,0,0,0,0,0,0,0,0,-1,1539,1576,0,0
322,-552,0,0,0,0,0,0,0,0,0,-1,1546,1576,0,0
329,-552,0,0,0,0,0,0,0,0,0,-1,1553,1576,0,0
336,-552,0,0,0,0,0,0,0,0,0,-1,1560,1576,0,0
343,-552,0,0,0,0,0,0,0,0,0,-1,1567,1576,0,0
350,-552,4.97876,4.09888,0,0,0,0,0,0,0,-1,1574,1576,4.97875,-4.09883
357,-552,5.18469,4.10706,0,0,0,0,0,0,0,-1,1581,1576,5.1847,-4.10702
364,-552,5.80872,5.07031,0,0,0,0,0,0,0,-1,1588,1576,5.80874,-5.07037
371,-552,7.10657,5.64783,0,0,0,0,0,0,0,-1,1595,1576,7.10651,-5.64786
378,-552,6.44446,4.91492,0,0,0,0,0,0,0,-1,1602,1576,6.44448,-4.91496
385,-552,12.8276,3.16504,0,0,0,0,0,0,0,-1,1609,1576,12.8276,-3.16503
392,-552,12.1301,4.3363,0,0,0,0,0,0,0,-1,1616,1576,12.1302,-4.33631
399,-552,11.3486,5.6012,0,0,0,0,0,0,0,-1,1623,1576,11.3486,-5.60115
406,-552,10.7863,6.42542,0,0,0,0,0,0,0,-1,1630,1576,10.7863,-6.42536
413,-552,8.39307,10.365,0,0,0,0,0,0,0,-1,1637,1576,8.3931,-10.365
420,-552,10.2306,12.7225,0,0,0,0,0,0,0,-1,1644,1576,10.2305,-12.7226
427,-552,9.73267,14.783,0,0,0,0,0,0,0,-1,1651,1576,9.73269,-14.783
434,-552,12.0377,20.1364,0,0,0,0,0,0,0,-1,1658,1576,12.0377,-20.1364
441,-552,12.4963,21.5277,0,0,0,0,0,0,0,-1,1665,1576,12.4964,-21.5277
448,-552,12.9141,21.5482,0,0,0,0,0,0,0,-1,1672,1576,12.9141,-21.5482
455,-552,13.3318,21.5687,0,0,0,0,0,0,0,-1,1679,1576,13.3317,-21.5687
462,-552,12.745,20.5947,0,0,0,0,0,0,0,-1,1686,1576,12.745,-20.5947
469,-552,17.7067,29.6902,0,0,0,0,0,0,0,-1,1693,1576,17.7067,-29.6902
476,-552,22.8434,40.0551,0,0,0,0,0,0,0,-1,1700,1576,22.8434,-40.055
483,-552,23.08,39.0248,0,0,0,0,0,0,0,-1,1707,1576,23.08,-39.0248
490,-552,23.0304,38.2848,0.0071634,0.00950641,-0.00633267,0.014775,0.00189479,-0.876861,0.0092831,0.015383,1714,1576,23.0304,-38.2848
497,-552,23.0804,37.5471,0.00574124,0.00702774,-0.00471089,0.0111391,0.00162989,-0.853251,0.00694679,0.0242795,1721,1576,23.0804,-37.5471
504,-552,23.0608,36.8517,0.0044356,0.00495827,-0.00349048,0.00819718,0.00119668,-0.822764,0.00511279,0.0261266,1728,1576,23.0608,-36.8517
511,-552,22.9966,36.1099,0.00331572,0.00349086,-0.00257945,0.00598423,0.000822354,-0.802366,0.00374558,0.017977,1735,1576,22.9966,-36.1098
518,-552,22.9521,35.3656,0.00227475,0.00209694,-0.00181408,0.00400211,0.000369593,-0.760914,0.0025538,0.0157935,1742,1576,22.9521,-35.3656
525,-552,22.8737,34.6255,0.00150768,0.00120098,-0.00139427,0.00275701,-4.83539e-05,-0.730625,0.00185433,0.0162402,1749,1576,22.8736,-34.6255
532,-552,22.8268,33.8912,0.00104223,0.00037403,-0.00111839,0.00187536,-0.000459095,-0.640251,0.00142808,0.0152099,1756,1576,22.8268,-33.8913
539,-552,22.7991,33.1609,0.000843634,-0.000244099,-0.000977886,0.00141872,-0.000819183,-0.531616,0.00130742,0.0186789,1763,1576,22.7991,-33.1608
546,-552,22.7301,32.4059,0.00085676,-0.000920535,-0.000866253,0.00120912,-0.00127289,-0.386319,0.00143314,0.0236765,1770,1576,22.7301,-32.4059
553,-552,22.7125,31.5928,0.00113485,-0.00147396,-0.000838088,0.00138089,-0.00171999,-0.285545,0.00179386,0.0279153,1777,1576,22.7126,-31.5927
560,-552,22.7269,30.7485,0,0,0,0,0,0,0,-1,1784,1576,22.7269,-30.7485
567,-552,20.6783,26.0908,0,0,0,0,0,0,0,-1,1791,1576,20.6784,-26.0908
574,-552,12.8835,14.8463,0,0,0,0,0,0,0,-1,1798,1576,12.8836,-14.8463
581,-552,9.74841,9.98645,0,0,0,0,0,0,0,-1,1805,1576,9.74847,-9.9864
588,-552,10.5619,9.34924,0,0,0,0,0,0,0,-1,1812,1576,10.5619,-9.34921
595,-552,5.36194,6.62744,0,0,0,0,0,0,0,-1,1819,1576,5.36193,-6.62742
602,-552,10.6863,4.31616,0,0,0,0,0,0,0,-1,1826,1576,10.6862,-4.31619
609,-552,12.146,3.18286,0,0,0,0,0,0,0,-1,1833,1576,12.1459,-3.18281
616,-552,13.8762,2.08167,0,0,0,0,0,0,0,-1,1840,1576,13.8763,-2.08167
623,-552,0,0,0,0,0,0,0,0,0,-1,1847,1576,0,0
630,-552,0,0,0,0,0,0,0,0,0,-1,1854,1576,0,0
637,-552,0,0,0,0,0,0,0,0,0,-1,1861,1576,0,0
644,-552,0,0,0,0,0,0,0,0,0,-1,1868,1576,0,0
651,-552,0,0,0,0,0,0,0,0,0,-1,1875,1576,0,0
658,-552,0,0,0,0,0,0,0,0,0,-1,1882,1576,0,0
665,-552,0,0,0,0,0,0,0,0,0,-1,1889,1576,0,0
672,-552,0,0,0,0,0,0,0,0,0,-1,1896,1576,0,0
679,-552,0,0,0,0,0,0,0,0,0,-1,1903,1576,0,0
686,-552,0,0,0,0,0,0,0,0,0,-1,1910,1576,0,0
693,-552,0,0,0,0,0,0,0,0,0,-1,1917,1576,0,0
700,-552,0,0,0,0,0,0,0,0,0,-1,1924,1576,0,0
707,-552,0,0,0,0,0,0,0,0,0,-1,1931,1576,0,0
714,-552,0,0,0,0,0,0,0,0,0,-1,1938,1576,0,0
721,-552,0,0,0,0,0,0,0,0,0,-1,1945,1576,0,0
728,-552,0,0,0,0,0,0,0,0,0,-1,1952,1576,0,0
735,-552,0,0,0,0,0,0,0,0,0,-1,1959,1576,0,0
742,-552,0,0,0,0,0,0,0,0,0,-1,1966,1576,0,0
749,-552,0,0,0,0,0,0,0,0,0,-1,1973,1576,0,0
756,-552,0,0,0,0,0,0,0,0,0,-1,1980,1576,0,0
763,-552,0,0,0,0,0,0,0,0,0,-1,1987,1576,0,0
770,-552,0,0,0,0,0,0,0,0,0,-1,1994,1576,0,0
777,-552,0,0,0,0,0,0,0,0,0,-1,2001,1576,0,0
784,-552,0,0,0,0,0,0,0,0,0,-1,2008,1576,0,0
791,-552,0,0,0,0,0,0,0,0,0,-1,2015,1576,0,0
798,-552,0,0,0,0,0,0,0,0,0,-1,2022,1576,0,0
805,-552,0,0,0,0,0,0,0,0,0,-1,2029,1576,0,0
812,-552,0,0,0,0,0,0,0,0,0,-1,2036,1576,0,0
-700,-559,0,0,0,0,0,0,0,0,0,-1,524,1583,0,0
-693,-559,0,0,0,0,0,0,0,0,0,-1,531,1583,0,0
-686,-559,0,0,0,0,0,0,0,0,0,-1,538,1583,0,0
-679,-559,0,0,0,0,0,0,0,0,0,-1,545,1583,0,0
-672,-559,0,0,0,0,0,0,0,0,0,-1,552,1583,0,0
-665,-559,0,0,0,0,0,0,0,0,0,-1,559,1583,0,0
-658,-559,0,0,0,0,0,0,0,0,0,-1,566,1583,0,0
-651,-559,0,0,0,0,0,0,0,0,0,-1,573,1583,0,0
-644,-559,0,0,0,0,0,0,0,0,0,-1,580,1583,0,0
-637,-559,0,0,0,0,0,0,0,0,0,-1,587,1583,0,0
-630,-559,0,0,0,0,0,0,0,0,0,-1,594,1583,0,0
-623,-559,0,0,0,0,0,0,0,0,0,-1,601,1583,0,0
-616,-559,0,0,0,0,0,0,0,0,0,-1,608,1583,0,0
-609,-559,0,0,0,0,0,0,0,0,0,-1,615,1583,0,0
-602,-559,0,0,0,0,0,0,0,0,0,-1,622,1583,0,0
-595,-559,0,0,0,0,0,0,0,0,0,-1,629,1583,0,0
-588,-559,0,0,0,0,0,0,0,0,0,-1,636,1583,0,0
-581,-559,0,0,0,0,0,0,0,0,0,-1,643,1583,0,0
-574,-559,0,0,0,0,0,0,0,0,0,-1,650,1583,0,0
-567,-559,0,0,0,0,0,0,0,0,0,-1,657,1583,0,0
-560,-559,0,0,0,0,0,0,0,0,0,-1,664,1583,0,0
-553,-559,0,0,0,0,0,0,0,0,0,-1,671,1583,0,0
-546,-559,0,0,0,0,0,0,0,0,0,-1,678,1583,0,0
-539,-559,0,0,0,0,0,0,0,0,0,-1,685,1583,0,0
-532,-559,0,0,0,0,0,0,0,0,0,-1,692,1583,0,0
-525,-559,0,0,0,0,0,0,0,0,0,-1,699,1583,0,0
-518,-559,0,0,0,0,0,0,0,0,0,-1,706,1583,0,0
-511,-559,0,0,0,0,0,0,0,0,0,-1,713,1583,0,0
-504,-559,0,0,0,0,0,0,0,0,0,-1,720,1583,0,0
-497,-559,0,0,0,0,0,0,0,0,0,-1,727,1583,0,0
-490,-559,-5.49835,4.47424,0,0,0,0,0,0,0,-1,734,1583,-5.49833,-4.4743
-483,-559,-5.24078,4.74561,0,0,0,0,0,0,0,-1,741,1583,-5.24079,-4.74563
-476,-559,-4.98022,4.99316,0,0,0,0,0,0,0,-1,748,1583,-4.98024,-4.99321
-469,-559,-4.6424,5.38062,0,0,0,0,0,0,0,-1,755,1583,-4.64237,-5.38058
-462,-559,-0.161865,6.49438,0,0,0,0,0,0,0,-1,762,1583,-0.161835,-6.49444
-455,-559,1.08826,7.02527,0,0,0,0,0,0,0,-1,769,1583,1.08823,-7.02529
-448,-559,-2.86023,20.0852,0,0,0,0,0,0,0,-1,776,1583,-2.86025,-20.0852
-441,-559,-2.89093,29.0315,0,0,0,0,0,0,0,-1,783,1583,-2.89095,-29.0315
-434,-559,-3.27417,30.436,0,0,0,0,0,0,0,-1,790,1583,-3.27415,-30.4361
-427,-559,-4.02893,30.767,0,0,0,0,0,0,0,-1,797,1583,-4.02893,-30.767
-420,-559,-4.03894,31.7299,0,0,0,0,0,0,0,-1,804,1583,-4.03892,-31.7299
-413,-559,-4.0874,32.6223,-0.00166667,0.000184878,-0.000291268,0.000229616,-0.00171141,-1.41839,0.00122467,0.0189576,811,1583,-4.08741,-32.6223
-406,-559,-4.11908,33.4126,-0.00102903,0.000365094,0.000151568,0.000381382,-0.00104532,1.46374,0.000852919,0.0110635,818,1583,-4.11906,-33.4126
-399,-559,-4.15686,34.2058,-0.000395557,0.000380596,0.000378456,0.000534583,-0.000549544,1.18437,0.000625941,0.0141665,825,1583,-4.15685,-34.2058
-392,-559,-4.21918,34.969,0.000150004,0.00055798,0.000571856,0.000961142,-0.000253158,0.956719,0.00073973,0.0170889,832,1583,-4.2192,-34.969
-385,-559,-4.26495,35.7108,0.000595246,0.000851615,0.000675387,0.00141087,3.59869e-05,0.87918,0.00092882,0.0167475,839,1583,-4.26496,-35.7108
-378,-559,-4.30127,36.4692,0.00111041,0.00133192,0.000889053,0.00211709,0.000325238,0.847366,0.00131644,0.0153967,846,1583,-4.30126,-36.4692
-371,-559,-4.34869,37.2609,0.00157929,0.00178352,0.00097535,0.00266209,0.000700724,0.837557,0.00159337,0.0226311,853,1583,-4.3487,-37.2609
-364,-559,-4.35425,37.9913,0.00216155,0.00265828,0.00127464,0.00370853,0.0011113,0.881619,0.00219767,0.0207125,860,1583,-4.35427,-37.9913
-357,-559,-4.39056,38.7281,0.00277812,0.00372863,0.00161601,0.00493782,0.00156893,0.928411,0.00291331,0.0128253,867,1583,-4.39057,-38.7281
-350,-559,-4.41772,39.4766,0.00343617,0.0049644,0.00205873,0.00639625,0.00200432,0.963097,0.00377766,0.0105422,874,1583,-4.41772,-39.4766
-343,-559,-4.45538,40.246,0.00396786,0.00603157,0.00243932,0.0076483,0.00235113,0.985489,0.00452362,0.012099,881,1583,-4.45538,-40.246
-336,-559,-4.52277,41.0044,0,0,0,0,0,0,0,-1,888,1583,-4.52279,-41.0044
-329,-559,-4.45728,41.7336,0,0,0,0,0,0,0,-1,895,1583,-4.45726,-41.7337
-322,-559,-4.30383,43.0082,0,0,0,0,0,0,0,-1,902,1583,-4.30381,-43.0082
-315,-559,-0.659607,29.1698,0,0,0,0,0,0,0,-1,909,1583,-0.659577,-29.1698
-308,-559,-0.755493,30.4624,0,0,0,0,0,0,0,-1,916,1583,-0.755509,-30.4625
-301,-559,-1.22174,31.0372,0,0,0,0,0,0,0,-1,923,1583,-1.22176,-31.0372
-294,-559,0.945129,18.5165,0,0,0,0,0,0,0,-1,930,1583,0.945117,-18.5165
-287,-559,-0.11792,15.4912,0,0,0,0,0,0,0,-1,937,1583,-0.117939,-15.4912
-280,-559,0.191467,13.5093,0,0,0,0,0,0,0,-1,944,1583,0.191441,-13.5093
-273,-559,2.12836,10.3059,0,0,0,0,0,0,0,-1,951,1583,2.12839,-10.3059
-266,-559,-0.597046,6.68933,0,0,0,0,0,0,0,-1,958,1583,-0.597031,-6.68937
-259,-559,-7.00311,8.62756,0,0,0,0,0,0,0,-1,965,1583,-7.00312,-8.6275
-252,-559,-9.4483,2.87805,0,0,0,0,0,0,0,-1,972,1583,-9.44829,-2.87805
-245,-559,-4.80804,7.1803,0,0,0,0,0,0,0,-1,979,1583,-4.80804,-7.18027
-238,-559,-8.45764,2.54858,0,0,0,0,0,0,0,-1,986,1583,-8.45763,-2.54862
-231,-559,-5.86914,4.34021,0,0,0,0,0,0,0,-1,993,1583,-5.86914,-4.34019
-224,-559,-3.30505,6.22864,0,0,0,0,0,0,0,-1,1000,1583,-3.30505,-6.22859
-217,-559,0,0,0,0,0,0,0,0,0,-1,1007,1583,0,0
-210,-559,0,0,0,0,0,0,0,0,0,-1,1014,1583,0,0
-203,-559,0,0,0,0,0,0,0,0,0,-1,1021,1583,0,0
-196,-559,0,0,0,0,0,0,0,0,0,-1,1028,1583,0,0
-189,-559,0,0,0,0,0,0,0,0,0,-1,1035,1583,0,0
-182,-559,0,0,0,0,0,0,0,0,0,-1,1042,1583,0,0
-175,-559,0,0,0,0,0,0,0,0,0,-1,1049,1583,0,0
-168,-559,0,0,0,0,0,0,0,0,0,-1,1056,1583,0,0
-161,-559,0,0,0,0,0,0,0,0,0,-1,1063,1583,0,0
-154,-559,0,0,0,0,0,0,0,0,0,-1,1070,1583,0,0
-147,-559,0,0,0,0,0,0,0,0,0,-1,1077,1583,0,0
-140,-559,0,0,0,0,0,0,0,0,0,-1,1084,1583,0,0
-133,-559,0,0,0,0,0,0,0,0,0,-1,1091,1583,0,0
-126,-559,0,0,0,0,0,0,0,0,0,-1,1098,1583,0,0
-119,-559,0,0,0,0,0,0,0,0,0,-1,1105,1583,0,0
-112,-559,0,0,0,0,0,0,0,0,0,-1,1112,1583,0,0
-105,-559,0,0,0,0,0,0,0,0,0,-1,1119,1583,0,0
-98,-559,0,0,0,0,0,0,0,0,0,-1,1126,1583,0,0
-91,-559,0,0,0,0,0,0,0,0,0,-1,1133,1583,0,0
-84,-559,0,0,0,0,0,0,0,0,0,-1,1140,1583,0,0
-77,-559,0,0,0,0,0,0,0,0,0,-1,1147,1583,0,0
-70,-559,0,0,0,0,0,0,0,0,0,-1,1154,1583,0,0
-63,-559,0,0,0,0,0,0,0,0,0,-1,1161,1583,0,0
-56,-559,0,0,0,0,0,0,0,0,0,-1,1168,1583,0,0
-49,-559,0,0,0,0,0,0,0,0,0,-1,1175,1583,0,0
-42,-559,0,0,0,0,0,0,0,0,0,-1,1182,1583,0,0
-35,-559,0,0,0,0,0,0,0,0,0,-1,1189,1583,0,0
-28,-559,0,0,0,0,0,0,0,0,0,-1,1196,1583,0,0
-21,-559,0,0,0,0,0,0,0,0,0,-1,1203,1583,0,0
-14,-559,0,0,0,0,0,0,0,0,0,-1,1210,1583,0,0
-7,-559,0,0,0,0,0,0,0,0,0,-1,1217,1583,0,0
0,-559,0,0,0,0,0,0,0,0,0,-1,1224,1583,0,0
7,-559,0,0,0,0,0,0,0,0,0,-1,1231,1583,0,0
14,-559,0,0,0,0,0,0,0,0,0,-1,1238,1583,0,0
21,-559,0,0,0,0,0,0,0,0,0,-1,1245,1583,0,0
28,-559,0,0,0,0,0,0,0,0,0,-1,1252,1583,0,0
35,-559,0,0,0,0,0,0,0,0,0,-1,1259,1583,0,0
42,-559,0,0,0,0,0,0,0,0,0,-1,1266,1583,0,0
49,-559,0,0,0,0,0,0,0,0,0,-1,1273,1583,0,0
56,-559,0,0,0,0,0,0,0,0,0,-1,1280,1583,0,0
63,-559,0,0,0,0,0,0,0,0,0,-1,1287,1583,0,0
70,-559,0,0,0,0,0,0,0,0,0,-1,1294,1583,0,0
77,-559,0,0,0,0,0,0,0,0,0,-1,1301,1583,0,0
84,-559,0,0,0,0,0,0,0,0,0,-1,1308,1583,0,0
91,-559,0,0,0,0,0,0,0,0,0,-1,1315,1583,0,0
98,-559,0,0,0,0,0,0,0,0,0,-1,1322,1583,0,0
105,-559,0,0,0,0,0,0,0,0,0,-1,1329,1583,0,0
112,-559,0,0,0,0,0,0,0,0,0,-1,1336,1583,0,0
119,-559,0,0,0,0,0,0,0,0,0,-1,1343,1583,0,0
126,-559,0,0,0,0,0,0,0,0,0,-1,1350,1583,0,0
133,-559,0,0,0,0,0,0,0,0,0,-1,1357,1583,0,0
140,-559,0,0,0,0,0,0,0,0,0,-1,1364,1583,0,0
147,-559,0,0,0,0,0,0,0,0,0,-1,1371,1583,0,0
154,-559,0,0,0,0,0,0,0,0,0,-1,1378,1583,0,0
161,-559,0,0,0,0,0,0,0,0,0,-1,1385,1583,0,0
168,-559,0,0,0,0,0,0,0,0,0,-1,1392,1583,0,0
175,-559,0,0,0,0,0,0,0,0,0,-1,1399,1583,0,0
182,-559,0,0,0,0,0,0,0,0,0,-1,1406,1583,0,0
189,-559,0,0,0,0,0,0,0,0,0,-1,1413,1583,0,0
196,-559,0,0,0,0,0,0,0,0,0,-1,1420,1583,0,0
203,-559,0,0,0,0,0,0,0,0,0,-1,1427,1583,0,0
210,-559,0,0,0,0,0,0,0,0,0,-1,1434,1583,0,0
217,-559,0,0,0,0,0,0,0,0,0,-1,1441,1583,0,0
224,-559,0,0,0,0,0,0,0,0,0,-1,1448,1583,0,0
231,-559,0,0,0,0,0,0,0,0,0,-1,1455,1583,0,0
238,-559,0,0,0,0,0,0,0,0,0,-1,1462,1583,0,0
245,-559,0,0,0,0,0,0,0,0,0,-1,1469,1583,0,0
252,-559,0,0,0,0,0,0,0,0,0,-1,1476,1583,0,0
259,-559,0,0,0,0,0,0,0,0,0,-1,1483,1583,0,0
266,-559,0,0,0,0,0,0,0,0,0,-1,1490,1583,0,0
273,-559,0,0,0,0,0,0,0,0,0,-1,1497,1583,0,0
280,-559,0,0,0,0,0,0,0,0,0,-1,1504,1583,0,0
287,-559,0,0,0,0,0,0,0,0,0,-1,1511,1583,0,0
294,-559,0,0,0,0,0,0,0,0,0,-1,1518,1583,0,0
301,-559,0,0,0,0,0,0,0,0,0,-1,1525,1583,0,0
308,-559,0,0,0,0,0,0,0,0,0,-1,1532,1583,0,0
315,-559,0,0,0,0,0,0,0,0,0,-1,1539,1583,0,0
322,-559,0,0,0,0,0,0,0,0,0,-1,1546,1583,0,0
329,-559,0,0,0,0,0,0,0,0,0,-1,1553,1583,0,0
336,-559,5.97668,3.09827,0,0,0,0,0,0,0,-1,1560,1583,5.97667,-3.09824
343,-559,5.44824,2.88696,0,0,0,0,0,0,0,-1,1567,1583,5.44819,-2.88693
350,-559,4.69775,3.27051,0,0,0,0,0,0,0,-1,1574,1583,4.69771,-3.27048
357,-559,3.88025,3.60999,0,0,0,0,0,0,0,-1,1581,1583,3.88027,-3.60998
364,-559,5.00928,5.32605,0,0,0,0,0,0,0,-1,1588,1583,5.00928,-5.32607
371,-559,1.84436,2.52441,0,0,0,0,0,0,0,-1,1595,1583,1.84441,-2.52447
378,-559,6.34753,1.53137,0,0,0,0,0,0,0,-1,1602,1583,6.34752,-1.53139
385,-559,6.95911,1.48181,0,0,0,0,0,0,0,-1,1609,1583,6.95916,-1.48175
392,-559,11.6949,4.77734,0,0,0,0,0,0,0,-1,1616,1583,11.6949,-4.77731
399,-559,11.1104,5.56909,0,0,0,0,0,0,0,-1,1623,1583,11.1103,-5.56905
406,-559,10.3385,6.48657,0,0,0,0,0,0,0,-1,1630,1583,10.3385,-6.48661
413,-559,9.76147,6.97571,0,0,0,0,0,0,0,-1,1637,1583,9.76143,-6.97574
420,-559,7.77124,10.5851,0,0,0,0,0,0,0,-1,1644,1583,7.77128,-10.585
427,-559,10.1022,12.5565,0,0,0,0,0,0,0,-1,1651,1583,10.1021,-12.5565
434,-559,9.62769,14.6309,0,0,0,0,0,0,0,-1,1658,1583,9.62771,-14.6309
441,-559,12.6149,21.3678,0,0,0,0,0,0,0,-1,1665,1583,12.6149,-21.3678
448,-559,13.7046,22.6677,0,0,0,0,0,0,0,-1,1672,1583,13.7046,-22.6677
455,-559,13.9427,23.0509,0,0,0,0,0,0,0,-1,1679,1583,13.9427,-23.0509
462,-559,21.9476,42.0568,0,0,0,0,0,0,0,-1,1686,1583,21.9477,-42.0568
469,-559,22.0481,40.7523,0,0,0,0,0,0,0,-1,1693,1583,22.0481,-40.7523
476,-559,22.26,39.9088,0.00741074,0.0136307,-0.00828339,0.0193687,0.00167276,-0.964981,0.0123926,0.0305504,1700,1583,22.26,-39.9089
483,-559,22.3466,39.0482,0.00642881,0.0104544,-0.00648661,0.0152333,0.00164987,-0.935836,0.00965269,0.0145738,1707,1583,22.3466,-39.0483
490,-559,22.3236,38.3123,0.00557637,0.00750521,-0.00495416,0.0115879,0.00149364,-0.88153,0.00727869,0.0164193,1714,1583,22.3236,-38.3122
497,-559,22.308,37.6013,0.00441913,0.0054053,-0.00364647,0.00859187,0.00123256,-0.852602,0.00536447,0.0208467,1721,1583,22.308,-37.6013
504,-559,22.2549,36.901,0.00332425,0.00355141,-0.00267207,0.00611231,0.000763345,-0.806638,0.00384576,0.026825,1728,1583,22.2549,-36.901
511,-559,22.2001,36.1533,0.00237179,0.00224751,-0.0019327,0.00424335,0.000375948,-0.769328,0.00271228,0.0229418,1735,1583,22.2001,-36.1533
518,-559,22.2089,35.4119,0.00149002,0.00101253,-0.00133824,0.00261064,-0.000108095,-0.697126,0.00177756,0.0151855,1742,1583,22.2089,-35.4119
525,-559,22.1522,34.672,0.00086826,0.000189576,-0.00104485,0.0016275,-0.00056966,-0.628384,0.00131663,0.0143476,1749,1583,22.1522,-34.6719
532,-559,22.1007,33.9369,0.000555643,-0.000574972,-0.000888494,0.00104342,-0.00106275,-0.502073,0.00121602,0.0146941,1756,1583,22.1007,-33.9369
539,-559,22.0864,33.1996,0.000476739,-0.00117123,-0.000848903,0.000835796,-0.00153028,-0.400147,0.00138553,0.018604,1763,1583,22.0864,-33.1996
546,-559,22.0162,32.4561,0.000614888,-0.00180098,-0.00084613,0.000881756,-0.00206785,-0.305523,0.00174825,0.0178549,1770,1583,22.0163,-32.456
553,-559,22.0608,31.6334,0.00101472,-0.00235874,-0.000900545,0.00124006,-0.00258408,-0.2452,0.00225287,0.0244041,1777,1583,22.0607,-31.6335
560,-559,22,30.7971,0,0,0,0,0,0,0,-1,1784,1583,22,-30.7971
567,-559,21.7423,29.5544,0,0,0,0,0,0,0,-1,1791,1583,21.7423,-29.5544
574,-559,10.5109,10.7317,0,0,0,0,0,0,0,-1,1798,1583,10.5108,-10.7317
581,-559,5.97095,5.96179,0,0,0,0,0,0,0,-1,1805,1583,5.97093,-5.96181
588,-559,5.79102,5.89954,0,0,0,0,0,0,0,-1,1812,1583,5.79098,-5.89949
595,-559,5.79089,6.24231,0,0,0,0,0,0,0,-1,1819,1583,5.7909,-6.24227
602,-559,12.478,2.35669,0,0,0,0,0,0,0,-1,1826,1583,12.4781,-2.35675
609,-559,14.0479,1.22681,0,0,0,0,0,0,0,-1,1833,1583,14.0479,-1.22681
616,-559,0,0,0,0,0,0,0,0,0,-1,1840,1583,0,0
623,-559,0,0,0,0,0,0,0,0,0,-1,1847,1583,0,0
630,-559,0,0,0,0,0,0,0,0,0,-1,1854,1583,0,0
637,-559,0,0,0,0,0,0,0,0,0,-1,1861,1583,0,0
644,-559,0,0,0,0,0,0,0,0,0,-1,1868,1583,0,0
651,-559,0,0,0,0,0,0,0,0,0,-1,1875,1583,0,0
658,-559,0,0,0,0,0,0,0,0,0,-1,1882,1583,0,0
665,-559,0,0,0,0,0,0,0,0,0,-1,1889,1583,0,0
672,-559,0,0,0,0,0,0,0,0,0,-1,1896,1583,0,0
679,-559,0,0,0,0,0,0,0,0,0,-1,1903,1583,0,0
686,-559,0,0,0,0,0,0,0,0,0,-1,1910,1583,0,0
693,-559,0,0,0,0,0,0,0,0,0,-1,1917,1583,0,0
700,-559,0,0,0,0,0,0,0,0,0,-1,1924,1583,0,0
707,-559,0,0,0,0,0,0,0,0,0,-1,1931,1583,0,0
714,-559,0,0,0,0,0,0,0,0,0,-1,1938,1583,0,0
721,-559,0,0,0,0,0,0,0,0,0,-1,1945,1583,0,0
728,-559,0,0,0,0,0,0,0,0,0,-1,1952,1583,0,0
735,-559,0,0,0,0,0,0,0,0,0,-1,1959,1583,0,0
742,-559,0,0,0,0,0,0,0,0,0,-1,1966,1583,0,0
749,-559,0,0,0,0,0,0,0,0,0,-1,1973,1583,0,0
756,-559,0,0,0,0,0,0,0,0,0,-1,1980,1583,0,0
763,-559,0,0,0,0,0,0,0,0,0,-1,1987,1583,0,0
770,-559,0,0,0,0,0,0,0,0,0,-1,1994,1583,0,0
777,-559,0,0,0,0,0,0,0,0,0,-1,2001,1583,0,0
784,-559,0,0,0,0,0,0,0,0,0,-1,2008,1583,0,0
791,-559,0,0,0,0,0,0,0,0,0,-1,2015,1583,0,0
798,-559,0,0,0,0,0,0,0,0,0,-1,2022,1583,0,0
805,-559,0,0,0,0,0,0,0,0,0,-1,2029,1583,0,0
812,-559,0,0,0,0,0,0,0,0,0,-1,2036,1583,0,0
-700,-566,0,0,0,0,0,0,0,0,0,-1,524,1590,0,0
-693,-566,0,0,0,0,0,0,0,0,0,-1,531,1590,0,0
-686,-566,0,0,0,0,0,0,0,0,0,-1,538,1590,0,0
-679,-566,0,0,0,0,0,0,0,0,0,-1,545,1590,0,0
-672,-566,0,0,0,0,0,0,0,0,0,-1,552,1590,0,0
-665,-566,0,0,0,0,0,0,0,0,0,-1,559,1590,0,0
-658,-566,0,0,0,0,0,0,0,0,0,-1,566,1590,0,0
-651,-566,0,0,0,0,0,0,0,0,0,-1,573,1590,0,0
-644,-566,0,0,0,0,0,0,0,0,0,-1,580,1590,0,0
-637,-566,0,0,0,0,0,0,0,0,0,-1,587,1590,0,0
-630,-566,0,0,0,0,0,0,0,0,0,-1,594,1590,0,0
-623,-566,0,0,0,0,0,0,0,0,0,-1,601,1590,0,0
-616,-566,0,0,0,0,0,0,0,0,0,-1,608,1590,0,0
-609,-566,0,0,0,0,0,0,0,0,0,-1,615,1590,0,0
-602,-566,0,0,0,0,0,0,0,0,0,-1,622,1590,0,0
-595,-566,0,0,0,0,0,0,0,0,0,-1,629,1590,0,0
-588,-566,0,0,0,0,0,0,0,0,0,-1,636,1590,0,0
-581,-566,0,0,0,0,0,0,0,0,0,-1,643,1590,0,0
-574,-566,0,0,0,0,0,0,0,0,0,-1,650,1590,0,0
-567,-566,0,0,0,0,0,0,0,0,0,-1,657,1590,0,0
-560,-566,0,0,0,0,0,0,0,0,0,-1,664,1590,0,0
-553,-566,0,0,0,0,0,0,0,0,0,-1,671,1590,0,0
-546,-566,0,0,0,0,0,0,0,0,0,-1,678,1590,0,0
-539,-566,0,0,0,0,0,0,0,0,0,-1,685,1590,0,0
-532,-566,0,0,0,0,0,0,0,0,0,-1,692,1590,0,0
-525,-566,0,0,0,0,0,0,0,0,0,-1,699,1590,0,0
-518,-566,0,0,0,0,0,0,0,0,0,-1,706,1590,0,0
-511,-566,0,0,0,0,0,0,0,0,0,-1,713,1590,0,0
-504,-566,0,0,0,0,0,0,0,0,0,-1,720,1590,0,0
-497,-566,0,0,0,0,0,0,0,0,0,-1,727,1590,0,0
-490,-566,0,0,0,0,0,0,0,0,0,-1,734,1590,0,0
-483,-566,-7.17084,2.78613,0,0,0,0,0,0,0,-1,741,1590,-7.17083,-2.78618
-476,-566,-7.13971,2.87183,0,0,0,0,0,0,0,-1,748,1590,-7.13971,-2.87184
-469,-566,-6.43829,3.2998,0,0,0,0,0,0,0,-1,755,1590,-6.43829,-3.2998
-462,-566,-0.459106,3.89343,0,0,0,0,0,0,0,-1,762,1590,-0.459095,-3.89341
-455,-566,0.280212,4.74023,0,0,0,0,0,0,0,-1,769,1590,0.280207,-4.74023
-448,-566,0.436951,5.51306,0,0,0,0,0,0,0,-1,776,1590,0.436971,-5.51301
-441,-566,-0.440735,12.4063,0,0,0,0,0,0,0,-1,783,1590,-0.440753,-12.4062
-434,-566,-2.66687,31.0841,0,0,0,0,0,0,0,-1,790,1590,-2.66687,-31.0841
-427,-566,-2.94269,31.6073,0,0,0,0,0,0,0,-1,797,1590,-2.94269,-31.6072
-420,-566,-3.45526,31.7697,0,0,0,0,0,0,0,-1,804,1590,-3.45525,-31.7697
-413,-566,-3.3432,32.6569,-0.00225715,0.000393262,-0.000130245,0.000399647,-0.00226353,-1.52181,0.00165837,0.0361728,811,1590,-3.34318,-32.6569
-406,-566,-3.36884,33.443,-0.00155393,0.000371863,0.000310876,0.000420803,-0.00160287,1.41465,0.00123302,0.0158632,818,1590,-3.36881,-33.443
-399,-566,-3.40485,34.2369,-0.000892834,0.000178175,0.000483062,0.00036386,-0.00107852,1.20382,0.00086616,0.0120504,825,1590,-3.40484,-34.2369
-392,-566,-3.43829,34.9958,-0.000319489,0.00022186,0.000645601,0.000651233,-0.000748861,0.983897,0.000808999,0.0151019,832,1590,-3.43831,-34.9958
-385,-566,-3.46716,35.7672,0.000133764,0.00041291,0.000720175,0.00100691,-0.000460239,0.881114,0.000866439,0.0169689,839,1590,-3.46715,-35.7672
-378,-566,-3.52673,36.5448,0.000650458,0.000803786,0.000917634,0.00164795,-0.000193709,0.827074,0.00116857,0.0168359,846,1590,-3.52674,-36.5448
-371,-566,-3.60742,37.2955,0.00107361,0.00111515,0.00093547,0.00203008,0.000158679,0.796497,0.00130372,0.0231923,853,1590,-3.60742,-37.2955
-364,-566,-3.62268,38.0222,0.0015721,0.0018217,0.001142,0.0028457,0.000548104,0.839822,0.00174339,0.023191,860,1590,-3.62266,-38.0222
-357,-566,-3.62598,38.7546,0.00211359,0.00271178,0.00139101,0.00383549,0.000989883,0.891295,0.0022992,0.0183349,867,1590,-3.62598,-38.7546
-350,-566,-3.65289,39.5356,0.00270303,0.00370836,0.00170577,0.00498399,0.0014274,0.928685,0.00296374,0.0211048,874,1590,-3.6529,-39.5356
-343,-566,-3.66968,40.257,0.00318025,0.00461692,0.00198389,0.00600852,0.00178865,0.959097,0.00356242,0.0268982,881,1590,-3.66967,-40.257
-336,-566,-3.82153,40.9774,0.00384903,0.00592606,0.0025226,0.00761555,0.00215954,0.980667,0.00453207,0.0301792,888,1590,-3.82153,-40.9774
-329,-566,-3.75299,41.7008,0,0,0,0,0,0,0,-1,895,1590,-3.75299,-41.7008
-322,-566,-3.63324,42.5634,0,0,0,0,0,0,0,-1,902,1590,-3.63326,-42.5633
-315,-566,-3.38873,43.4563,0,0,0,0,0,0,0,-1,909,1590,-3.3887,-43.4562
-308,-566,-0.127258,29.7607,0,0,0,0,0,0,0,-1,916,1590,-0.12725,-29.7608
-301,-566,0.424011,30.6545,0,0,0,0,0,0,0,-1,923,1590,0.424036,-30.6546
-294,-566,-2.54523,43.1459,0,0,0,0,0,0,0,-1,930,1590,-2.54522,-43.1458
-287,-566,1.25391,23.4589,0,0,0,0,0,0,0,-1,937,1590,1.2539,-23.4589
-280,-566,1.59406,17.8762,0,0,0,0,0,0,0,-1,944,1590,1.59405,-17.8762
-273,-566,0.49762,11.2427,0,0,0,0,0,0,0,-1,951,1590,0.497591,-11.2426
-266,-566,0.392151,6.90295,0,0,0,0,0,0,0,-1,958,1590,0.392151,-6.90294
-259,-566,0.343628,6.47437,0,0,0,0,0,0,0,-1,965,1590,0.34363,-6.47438
-252,-566,-7.68311,1.01343,0,0,0,0,0,0,0,-1,972,1590,-7.68308,-1.01348
-245,-566,-11.1835,1.97522,0,0,0,0,0,0,0,-1,979,1590,-11.1835,-1.97527
-238,-566,-10.4883,2.40491,0,0,0,0,0,0,0,-1,986,1590,-10.4883,-2.40487
-231,-566,-7.41827,4.22803,0,0,0,0,0,0,0,-1,993,1590,-7.41827,-4.22803
-224,-566,-4.67188,6.30859,0,0,0,0,0,0,0,-1,1000,1590,-4.67185,-6.30853
-217,-566,-2.82867,7.52527,0,0,0,0,0,0,0,-1,1007,1590,-2.82869,-7.52531
-210,-566,-1.03436,8.67737,0,0,0,0,0,0,0,-1,1014,1590,-1.03439,-8.67733
-203,-566,0,0,0,0,0,0,0,0,0,-1,1021,1590,0,0
-196,-566,0,0,0,0,0,0,0,0,0,-1,1028,1590,0,0
-189,-566,0,0,0,0,0,0,0,0,0,-1,1035,1590,0,0
-182,-566,0,0,0,0,0,0,0,0,0,-1,1042,1590,0,0
-175,-566,0,0,0,0,0,0,0,0,0,-1,1049,1590,0,0
-168,-566,0,0,0,0,0,0,0,0,0,-1,1056,1590,0,0
-161,-566,0,0,0,0,0,0,0,0,0,-1,1063,1590,0,0
-154,-566,0,0,0,0,0,0,0,0,0,-1,1070,1590,0,0
-147,-566,0,0,0,0,0,0,0,0,0,-1,1077,1590,0,0
-140,-566,0,0,0,0,0,0,0,0,0,-1,1084,1590,0,0
-133,-566,0,0,0,0,0,0,0,0,0,-1,1091,1590,0,0
-126,-566,0,0,0,0,0,0,0,0,0,-1,1098,1590,0,0
-119,-566,0,0,0,0,0,0,0,0,0,-1,1105,1590,0,0
-112,-566,0,0,0,0,0,0,0,0,0,-1,1112,1590,0,0
-105,-566,0,0,0,0,0,0,0,0,0,-1,1119,1590,0,0
-98,-566,0,0,0,0,0,0,0,0,0,-1,1126,1590,0,0
-91,-566,0,0,0,0,0,0,0,0,0,-1,1133,1590,0,0
-84,-566,0,0,0,0,0,0,0,0,0,-1,1140,1590,0,0
-77,-566,0,0,0,0,0,0,0,0,0,-1,1147,1590,0,0
-70,-566,0,0,0,0,0,0,0,0,0,-1,1154,1590,0,0
-63,-566,0,0,0,0,0,0,0,0,0,-1,1161,1590,0,0
-56,-566,0,0,0,0,0,0,0,0,0,-1,1168,1590,0,0
-49,-566,0,0,0,0,0,0,0,0,0,-1,1175,1590,0,0
-42,-566,0,0,0,0,0,0,0,0,0,-1,1182,1590,0,0
-35,-566,0,0,0,0,0,0,0,0,0,-1,1189,1590,0,0
-28,-566,0,0,0,0,0,0,0,0,0,-1,1196,1590,0,0
-21,-566,0,0,0,0,0,0,0,0,0,-1,1203,1590,0,0
-14,-566,0,0,0,0,0,0,0,0,0,-1,1210,1590,0,0
-7,-566,0,0,0,0,0,0,0,0,0,-1,1217,1590,0,0
0,-566,0,0,0,0,0,0,0,0,0,-1,1224,1590,0,0
7,-566,0,0,0,0,0,0,0,0,0,-1,1231,1590,0,0
14,-566,0,0,0,0,0,0,0,0,0,-1,1238,1590,0,0
21,-566,0,0,0,0,0,0,0,0,0,-1,1245,1590,0,0
28,-566,0,0,0,0,0,0,0,0,0,-1,1252,1590,0,0
35,-566,0,0,0,0,0,0,0,0,0,-1,1259,1590,0,0
42,-566,0,0,0,0,0,0,0,0,0,-1,1266,1590,0,0
49,-566,0,0,0,0,0,0,0,0,0,-1,1273,1590,0,0
56,-566,0,0,0,0,0,0,0,0,0,-1,1280,1590,0,0
63,-566,0,0,0,0,0,0,0,0,0,-1,1287,1590,0,0
70,-566,0,0,0,0,0,0,0,0,0,-1,1294,1590,0,0
77,-566,0,0,0,0,0,0,0,0,0,-1,1301,1590,0,0
84,-566,0,0,0,0,0,0,0,0,0,-1,1308,1590,0,0
91,-566,0,0,0,0,0,0,0,0,0,-1,1315,1590,0,0
98,-566,0,0,0,0,0,0,0,0,0,-1,1322,1590,0,0
105,-566,0,0,0,0,0,0,0,0,0,-1,1329,1590,0,0
112,-566,0,0,0,0,0,0,0,0,0,-1,1336,1590,0,0
119,-566,0,0,0,0,0,0,0,0,0,-1,1343,1590,0,0
126,-566,0,0,0,0,0,0,0,0,0,-1,1350,1590,0,0
133,-566,0,0,0,0,0,0,0,0,0,-1,1357,1590,0,0
140,-566,0,0,0,0,0,0,0,0,0,-1,1364,1590,0,0
147,-566,0,0,0,0,0,0,0,0,0,-1,1371,1590,0,0
154,-566,0,0,0,0,0,0,0,0,0,-1,1378,1590,0,0
161,-566,0,0,0,0,0,0,0,0,0,-1,1385,1590,0,0
168,-566,0,0,0,0,0,0,0,0,0,-1,1392,1590,0,0
175,-566,0,0,0,0,0,0,0,0,0,-1,1399,1590,0,0
182,-566,0,0,0,0,0,0,0,0,0,-1,1406,1590,0,0
189,-566,0,0,0,0,0,0,0,0,0,-1,1413,1590,0,0
196,-566,0,0,0,0,0,0,0,0,0,-1,1420,1590,0,0
203,-566,0,0,0,0,0,0,0,0,0,-1,1427,1590,0,0
210,-566,0,0,0,0,0,0,0,0,0,-1,1434,1590,0,0
217,-566,0,0,0,0,0,0,0,0,0,-1,1441,1590,0,0
224,-566,0,0,0,0,0,0,0,0,0,-1,1448,1590,0,0
231,-566,0,0,0,0,0,0,0,0,0,-1,1455,1590,0,0
238,-566,0,0,0,0,0,0,0,0,0,-1,1462,1590,0,0
245,-566,0,0,0,0,0,0,0,0,0,-1,1469,1590,0,0
252,-566,0,0,0,0,0,0,0,0,0,-1,1476,1590,0,0
259,-566,0,0,0,0,0,0,0,0,0,-1,1483,1590,0,0
266,-566,0,0,0,0,0,0,0,0,0,-1,1490,1590,0,0
273,-566,0,0,0,0,0,0,0,0,0,-1,1497,1590,0,0
280,-566,0,0,0,0,0,0,0,0,0,-1,1504,1590,0,0
287,-566,0,0,0,0,0,0,0,0,0,-1,1511,1590,0,0
294,-566,0,0,0,0,0,0,0,0,0,-1,1518,1590,0,0
301,-566,0,0,0,0,0,0,0,0,0,-1,1525,1590,0,0
308,-566,0,0,0,0,0,0,0,0,0,-1,1532,1590,0,0
315,-566,0,0,0,0,0,0,0,0,0,-1,1539,1590,0,0
322,-566,6.07983,4.44873,0,0,0,0,0,0,0,-1,1546,1590,6.07983,-4.44873
329,-566,5.77026,3.47534,0,0,0,0,0,0,0,-1,1553,1590,5.77026,-3.47535
336,-566,5.41138,2.62915,0,0,0,0,0,0,0,-1,1560,1590,5.41138,-2.62909
343,-566,4.81873,1.79089,0,0,0,0,0,0,0,-1,1567,1590,4.81878,-1.79095
350,-566,24.2104,52.894,0,0,0,0,0,0,0,-1,1574,1590,24.2105,-52.8941
357,-566,6.34058,5.18579,0,0,0,0,0,0,0,-1,1581,1590,6.34059,-5.1858
364,-566,6.06262,4.20251,0,0,0,0,0,0,0,-1,1588,1590,6.06259,-4.20246
371,-566,5.78455,3.21912,0,0,0,0,0,0,0,-1,1595,1590,5.7846,-3.21912
378,-566,5.7439,0.695557,0,0,0,0,0,0,0,-1,1602,1590,5.74392,-0.695531
385,-566,5.67615,-0.573975,0,0,0,0,0,0,0,-1,1609,1590,5.67612,0.573956
392,-566,5.78638,1.82434,0,0,0,0,0,0,0,-1,1616,1590,5.78637,-1.82439
399,-566,18.6853,38.6455,0,0,0,0,0,0,0,-1,1623,1590,18.6853,-38.6456
406,-566,4.30359,5.26868,0,0,0,0,0,0,0,-1,1630,1590,4.30364,-5.26867
413,-566,4.27124,5.79492,0,0,0,0,0,0,0,-1,1637,1590,4.27123,-5.7949
420,-566,18.0121,32.5314,0,0,0,0,0,0,0,-1,1644,1590,18.0121,-32.5313
427,-566,19.4491,36.9315,0,0,0,0,0,0,0,-1,1651,1590,19.4491,-36.9315
434,-566,19.338,36.7385,0,0,0,0,0,0,0,-1,1658,1590,19.338,-36.7386
441,-566,15.5841,27.5869,0,0,0,0,0,0,0,-1,1665,1590,15.5842,-27.587
448,-566,21.6959,43.5038,0,0,0,0,0,0,0,-1,1672,1590,21.6959,-43.5038
455,-566,21.2543,42.6471,0,0,0,0,0,0,0,-1,1679,1590,21.2542,-42.6471
462,-566,21.4147,41.6561,0.00687914,0.0174439,-0.0093286,0.0228819,0.00144115,-1.04302,0.0147976,0.0496626,1686,1590,21.4147,-41.6562
469,-566,21.5442,40.5891,0.00636476,0.0139196,-0.00783142,0.018837,0.00144735,-1.01011,0.0121044,0.022217,1693,1590,21.5442,-40.5891
476,-566,21.6051,39.8218,0.00571406,0.010849,-0.0064784,0.0152501,0.00131292,-0.974061,0.00975861,0.0120645,1700,1590,21.6051,-39.8218
483,-566,21.5999,39.0929,0.00493344,0.00818185,-0.00509592,0.0119061,0.00120915,-0.939672,0.00756665,0.0115265,1707,1590,21.5999,-39.0929
490,-566,21.5935,38.3566,0.00425158,0.00567546,-0.00386419,0.00889274,0.0010343,-0.876497,0.00561557,0.0133406,1714,1590,21.5935,-38.3566
497,-566,21.603,37.6343,0.00330487,0.00391062,-0.00282779,0.00645171,0.000763782,-0.838748,0.0040705,0.0172564,1721,1590,21.603,-37.6342
504,-566,21.549,36.9362,0.00237704,0.0022599,-0.00205534,0.00437464,0.000262294,-0.771153,0.00283305,0.0218088,1728,1590,21.5489,-36.9361
511,-566,21.4902,36.2021,0.00156902,0.00109502,-0.00146159,0.0028127,-0.000148657,-0.705023,0.0019266,0.0209833,1735,1590,21.4902,-36.2021
518,-566,21.467,35.4763,0.00083925,2.03199e-05,-0.00102358,0.00153222,-0.000672654,-0.595131,0.00130483,0.0128846,1742,1590,21.467,-35.4763
525,-566,21.4126,34.7178,0.000346272,-0.000753442,-0.000833624,0.000795051,-0.00120222,-0.493852,0.00116108,0.0126105,1749,1590,21.4126,-34.7178
532,-566,21.3668,33.9484,0.000160871,-0.00148065,-0.00077013,0.000465608,-0.00178539,-0.376791,0.00137206,0.0149996,1756,1590,21.3668,-33.9484
539,-566,21.3467,33.1946,0.000163942,-0.00211571,-0.000795231,0.000413935,-0.00236571,-0.304582,0.00173169,0.0206602,1763,1590,21.3467,-33.1946
546,-566,21.4187,32.3799,0.00039904,-0.00271585,-0.000892169,0.000636476,-0.00295329,-0.260105,0.00221176,0.0270532,1770,1590,21.4187,-32.3799
553,-566,21.4122,31.8591,0.000909478,-0.00327932,-0.00103948,0.00115325,-0.00352309,-0.230348,0.00281308,0.0391357,1777,1590,21.4122,-31.8592
560,-566,21.1447,31.3007,0,0,0,0,0,0,0,-1,1784,1590,21.1447,-31.3007
567,-566,21.0135,30.6046,0,0,0,0,0,0,0,-1,1791,1590,21.0135,-30.6047
574,-566,7.99548,3.14514,0,0,0,0,0,0,0,-1,1798,1590,7.99543,-3.14511
581,-566,2.54102,5.1311,0,0,0,0,0,0,0,-1,1805,1590,2.54099,-5.13111
588,-566,-1.91321,8.39197,0,0,0,0,0,0,0,-1,1812,1590,-1.91316,-8.39199
595,-566,9.0271,4.66467,0,0,0,0,0,0,0,-1,1819,1590,9.02705,-4.66468
602,-566,9.953,3.54895,0,0,0,0,0,0,0,-1,1826,1590,9.953,-3.54898
609,-566,0,0,0,0,0,0,0,0,0,-1,1833,1590,0,0
616,-566,0,0,0,0,0,0,0,0,0,-1,1840,1590,0,0
623,-566,0,0,0,0,0,0,0,0,0,-1,1847,1590,0,0
630,-566,0,0,0,0,0,0,0,0,0,-1,1854,1590,0,0
637,-566,0,0,0,0,0,0,0,0,0,-1,1861,1590,0,0
644,-566,0,0,0,0,0,0,0,0,0,-1,1868,1590,0,0
651,-566,0,0,0,0,0,0,0,0,0,-1,1875,1590,0,0
658,-566,0,0,0,0,0,0,0,0,0,-1,1882,1590,0,0
665,-566,0,0,0,0,0,0,0,0,0,-1,1889,1590,0,0
672,-566,0,0,0,0,0,0,0,0,0,-1,1896,1590,0,0
679,-566,0,0,0,0,0,0,0,0,0,-1,1903,1590,0,0
686,-566,0,0,0,0,0,0,0,0,0,-1,1910,1590,0,0
693,-566,0,0,0,0,0,0,0,0,0,-1,1917,1590,0,0
700,-566,0,0,0,0,0,0,0,0,0,-1,1924,1590,0,0
707,-566,0,0,0,0,0,0,0,0,0,-1,1931,1590,0,0
714,-566,0,0,0,0,0,0,0,0,0,-1,1938,1590,0,0
721,-566,0,0,0,0,0,0,0,0,0,-1,1945,1590,0,0
728,-566,0,0,0,0,0,0,0,0,0,-1,1952,1590,0,0
735,-566,0,0,0,0,0,0,0,0,0,-1,1959,1590,0,0
742,-566,0,0,0,0,0,0,0,0,0,-1,1966,1590,0,0
749,-566,0,0,0,0,0,0,0,0,0,-1,1973,1590,0,0
756,-566,0,0,0,0,0,0,0,0,0,-1,1980,1590,0,0
763,-566,0,0,0,0,0,0,0,0,0,-1,1987,1590,0,0
770,-566,0,0,0,0,0,0,0,0,0,-1,1994,1590,0,0
777,-566,0,0,0,0,0,0,0,0,0,-1,2001,1590,0,0
784,-566,0,0,0,0,0,0,0,0,0,-1,2008,1590,0,0
791,-566,0,0,0,0,0,0,0,0,0,-1,2015,1590,0,0
798,-566,0,0,0,0,0,0,0,0,0,-1,2022,1590,0,0
805,-566,0,0,0,0,0,0,0,0,0,-1,2029,1590,0,0
812,-566,0,0,0,0,0,0,0,0,0,-1,2036,1590,0,0
-700,-573,0,0,0,0,0,0,0,0,0,-1,524,1597,0,0
-693,-573,0,0,0,0,0,0,0,0,0,-1,531,1597,0,0
-686,-573,0,0,0,0,0,0,0,0,0,-1,538,1597,0,0
-679,-573,0,0,0,0,0,0,0,0,0,-1,545,1597,0,0
-672,-573,0,0,0,0,0,0,0,0,0,-1,552,1597,0,0
-665,-573,0,0,0,0,0,0,0,0,0,-1,559,1597,0,0
-658,-573,0,0,0,0,0,0,0,0,0,-1,566,1597,0,0
-651,-573,0,0,0,0,0,0,0,0,0,-1,573,1597,0,0
-644,-573,0,0,0,0,0,0,0,0,0,-1,580,1597,0,0
-637,-573,0,0,0,0,0,0,0,0,0,-1,587,1597,0,0
-630,-573,0,0,0,0,0,0,0,0,0,-1,594,1597,0,0
-623,-573,0,0,0,0,0,0,0,0,0,-1,601,1597,0,0
-616,-573,0,0,0,0,0,0,0,0,0,-1,608,1597,0,0
-609,-573,0,0,0,0,0,0,0,0,0,-1,615,1597,0,0
-602,-573,0,0,0,0,0,0,0,0,0,-1,622,1597,0,0
-595,-573,0,0,0,0,0,0,0,0,0,-1,629,1597,0,0
-588,-573,0,0,0,0,0,0,0,0,0,-1,636,1597,0,0
-581,-573,0,0,0,0,0,0,0,0,0,-1,643,1597,0,0
-574,-573,0,0,0,0,0,0,0,0,0,-1,650,1597,0,0
-567,-573,0,0,0,0,0,0,0,0,0,-1,657,1597,0,0
-560,-573,0,0,0,0,0,0,0,0,0,-1,664,1597,0,0
-553,-573,0,0,0,0,0,0,0,0,0,-1,671,1597,0,0
-546,-573,0,0,0,0,0,0,0,0,0,-1,678,1597,0,0
-539,-573,0,0,0,0,0,0,0,0,0,-1,685,1597,0,0
-532,-573,0,0,0,0,0,0,0,0,0,-1,692,1597,0,0
-525,-573,0,0,0,0,0,0,0,0,0,-1,699,1597,0,0
-518,-573,0,0,0,0,0,0,0,0,0,-1,706,1597,0,0
-511,-573,0,0,0,0,0,0,0,0,0,-1,713,1597,0,0
-504,-573,0,0,0,0,0,0,0,0,0,-1,720,1597,0,0
-497,-573,0,0,0,0,0,0,0,0,0,-1,727,1597,0,0
-490,-573,0,0,0,0,0,0,0,0,0,-1,734,1597,0,0
-483,-573,0,0,0,0,0,0,0,0,0,-1,741,1597,0,0
-476,-573,-9.3327,0.972778,0,0,0,0,0,0,0,-1,748,1597,-9.33268,-0.972776
-469,-573,-1.41681,1.13379,0,0,0,0,0,0,0,-1,755,1597,-1.41681,-1.13382
-462,-573,-0.748535,2.02588,0,0,0,0,0,0,0,-1,762,1597,-0.748533,-2.02584
-455,-573,-0.112976,2.70703,0,0,0,0,0,0,0,-1,769,1597,-0.112988,-2.70697
-448,-573,-1.26172,3.33252,0,0,0,0,0,0,0,-1,776,1597,-1.26173,-3.33248
-441,-573,0.108582,5.06726,0,0,0,0,0,0,0,-1,783,1597,0.108584,-5.06721
-434,-573,1.61768,7.05444,0,0,0,0,0,0,0,-1,790,1597,1.61767,-7.05446
-427,-573,-1.37927,24.4124,0,0,0,0,0,0,0,-1,797,1597,-1.37928,-24.4124
-420,-573,-1.15186,28.0936,0,0,0,0,0,0,0,-1,804,1597,-1.15185,-28.0936
-413,-573,-2.69342,32.3602,0,0,0,0,0,0,0,-1,811,1597,-2.69344,-32.3603
-406,-573,-2.61017,33.3641,-0.00208672,0.000310391,0.000466097,0.00039783,-0.00217416,1.38535,0.00159864,0.0458962,818,1597,-2.61014,-33.3641
-399,-573,-2.66632,34.2733,-0.00142796,-8.65357e-05,0.000621632,0.000157236,-0.00167173,1.19708,0.00117043,0.0183441,825,1597,-2.66634,-34.2734
-392,-573,-2.68506,35.0492,-0.00081952,-0.000157278,0.000774671,0.000354071,-0.00133087,0.987364,0.00102584,0.014395,832,1597,-2.68503,-35.0492
-385,-573,-2.73499,35.8065,-0.000334836,-3.63582e-05,0.000836094,0.000663712,-0.00103491,0.873716,0.000988472,0.0157141,839,1597,-2.73501,-35.8066
-378,-573,-2.79022,36.551,0.000182099,0.000287016,0.00101412,0.00125004,-0.000780921,0.811239,0.00118295,0.0157708,846,1597,-2.79024,-36.5511
-371,-573,-2.83502,37.3053,0.000565834,0.000499539,0.000975407,0.00150866,-0.000443284,0.768413,0.00118158,0.0175697,853,1597,-2.83503,-37.3053
-364,-573,-2.85449,38.0657,0.000990704,0.0010526,0.00108443,0.00210653,-6.32228e-05,0.799663,0.00142589,0.0206777,860,1597,-2.85448,-38.0657
-357,-573,-2.86774,38.7969,0.00147487,0.00178457,0.00124576,0.00288506,0.000374378,0.847233,0.00181152,0.0226011,867,1597,-2.86777,-38.7969
-350,-573,-2.89709,39.5801,0.00201236,0.00258385,0.00144682,0.00377287,0.000823342,0.882892,0.00229066,0.0177872,874,1597,-2.89712,-39.5801
-343,-573,-2.90741,40.3153,0.00245152,0.00334653,0.0016306,0.00458991,0.00120814,0.919322,0.00274725,0.022299,881,1597,-2.90742,-40.3153
-336,-573,-2.9837,41.0406,0.00304409,0.00446365,0.00204686,0.0059203,0.00158744,0.952294,0.00353848,0.0175208,888,1597,-2.98369,-41.0406
-329,-573,-3.00677,41.7725,0.00424271,0.00612547,0.00260973,0.00795842,0.00240976,0.958494,0.00471242,0.0188132,895,1597,-3.00678,-41.7725
-322,-573,-3.0368,42.5232,0.00633825,0.00827343,0.00380529,0.0112322,0.00337946,0.909897,0.00665415,0.017634,902,1597,-3.03679,-42.5232
-315,-573,-2.92444,43.4849,0.00839344,0.0106516,0.00535184,0.0149921,0.00405286,0.889357,0.00895492,0.042564,909,1597,-2.92446,-43.4848
-308,-573,-2.59314,44.519,0,0,0,0,0,0,0,-1,916,1597,-2.59315,-44.5191
-301,-573,-2.77765,45.0774,0,0,0,0,0,0,0,-1,923,1597,-2.77768,-45.0774
-294,-573,-2.65076,45.5817,0,0,0,0,0,0,0,-1,930,1597,-2.65077,-45.5817
-287,-573,-2.00739,43.4723,0,0,0,0,0,0,0,-1,937,1597,-2.00739,-43.4723
-280,-573,1.19684,26.4906,0,0,0,0,0,0,0,-1,944,1597,1.19685,-26.4906
-273,-573,2.24805,25.4375,0,0,0,0,0,0,0,-1,951,1597,2.24803,-25.4374
-266,-573,1.31116,7.1814,0,0,0,0,0,0,0,-1,958,1597,1.31118,-7.18142
-259,-573,1.2514,6.70959,0,0,0,0,0,0,0,-1,965,1597,1.25137,-6.70965
-252,-573,2.07874,5.27161,0,0,0,0,0,0,0,-1,972,1597,2.07875,-5.27157
-245,-573,-10.2592,1.09827,0,0,0,0,0,0,0,-1,979,1597,-10.2592,-1.09823
-238,-573,-11.5463,4.44141,0,0,0,0,0,0,0,-1,986,1597,-11.5463,-4.44146
-231,-573,-9.23431,4.14539,0,0,0,0,0,0,0,-1,993,1597,-9.23431,-4.14534
-224,-573,-6.70044,7.40857,0,0,0,0,0,0,0,-1,1000,1597,-6.70045,-7.40851
-217,-573,-4.25824,8.59119,0,0,0,0,0,0,0,-1,1007,1597,-4.25824,-8.59122
-210,-573,-2.39661,9.73914,0,0,0,0,0,0,0,-1,1014,1597,-2.39658,-9.73915
-203,-573,-0.557373,10.9005,0,0,0,0,0,0,0,-1,1021,1597,-0.557387,-10.9006
-196,-573,-1.65344,9.02246,0,0,0,0,0,0,0,-1,1028,1597,-1.65349,-9.02241
-189,-573,-6.12915,6.66882,0,0,0,0,0,0,0,-1,1035,1597,-6.12913,-6.66884
-182,-573,0,0,0,0,0,0,0,0,0,-1,1042,1597,0,0
-175,-573,0,0,0,0,0,0,0,0,0,-1,1049,1597,0,0
-168,-573,0,0,0,0,0,0,0,0,0,-1,1056,1597,0,0
-161,-573,0,0,0,0,0,0,0,0,0,-1,1063,1597,0,0
-154,-573,0,0,0,0,0,0,0,0,0,-1,1070,1597,0,0
-147,-573,0,0,0,0,0,0,0,0,0,-1,1077,1597,0,0
-140,-573,0,0,0,0,0,0,0,0,0,-1,1084,1597,0,0
-133,-573,0,0,0,0,0,0,0,0,0,-1,1091,1597,0,0
-126,-573,0,0,0,0,0,0,0,0,0,-1,1098,1597,0,0
-119,-573,0,0,0,0,0,0,0,0,0,-1,1105,1597,0,0
-112,-573,0,0,0,0,0,0,0,0,0,-1,1112,1597,0,0
-105,-573,0,0,0,0,0,0,0,0,0,-1,1119,1597,0,0
-98,-573,0,0,0,0,0,0,0,0,0,-1,1126,1597,0,0
-91,-573,0,0,0,0,0,0,0,0,0,-1,1133,1597,0,0
-84,-573,0,0,0,0,0,0,0,0,0,-1,1140,1597,0,0
-77,-573,0,0,0,0,0,0,0,0,0,-1,1147,1597,0,0
-70,-573,0,0,0,0,0,0,0,0,0,-1,1154,1597,0,0
-63,-573,0,0,0,0,0,0,0,0,0,-1,1161,1597,0,0
-56,-573,0,0,0,0,0,0,0,0,0,-1,1168,1597,0,0
-49,-573,0,0,0,0,0,0,0,0,0,-1,1175,1597,0,0
-42,-573,0,0,0,0,0,0,0,0,0,-1,1182,1597,0,0
-35,-573,0,0,0,0,0,0,0,0,0,-1,1189,1597,0,0
-28,-573,0,0,0,0,0,0,0,0,0,-1,1196,1597,0,0
-21,-573,0,0,0,0,0,0,0,0,0,-1,1203,1597,0,0
-14,-573,0,0,0,0,0,0,0,0,0,-1,1210,1597,0,0
-7,-573,0,0,0,0,0,0,0,0,0,-1,1217,1597,0,0
0,-573,0,0,0,0,0,0,0,0,0,-1,1224,1597,0,0
7,-573,0,0,0,0,0,0,0,0,0,-1,1231,1597,0,0
14,-573,0,0,0,0,0,0,0,0,0,-1,1238,1597,0,0
21,-573,0,0,0,0,0,0,0,0,0,-1,1245,1597,0,0
28,-573,0,0,0,0,0,0,0,0,0,-1,1252,1597,0,0
35,-573,0,0,0,0,0,0,0,0,0,-1,1259,1597,0,0
42,-573,0,0,0,0,0,0,0,0,0,-1,1266,1597,0,0
49,-573,0,0,0,0,0,0,0,0,0,-1,1273,1597,0,0
56,-573,0,0,0,0,0,0,0,0,0,-1,1280,1597,0,0
63,-573,0,0,0,0,0,0,0,0,0,-1,1287,1597,0,0
70,-573,0,0,0,0,0,0,0,0,0,-1,1294,1597,0,0
77,-573,0,0,0,0,0,0,0,0,0,-1,1301,1597,0,0
84,-573,0,0,0,0,0,0,0,0,0,-1,1308,1597,0,0
91,-573,0,0,0,0,0,0,0,0,0,-1,1315,1597,0,0
98,-573,0,0,0,0,0,0,0,0,0,-1,1322,1597,0,0
105,-573,0,0,0,0,0,0,0,0,0,-1,1329,1597,0,0
112,-573,0,0,0,0,0,0,0,0,0,-1,1336,1597,0,0
119,-573,0,0,0,0,0,0,0,0,0,-1,1343,1597,0,0
126,-573,0,0,0,0,0,0,0,0,0,-1,1350,1597,0,0
133,-573,0,0,0,0,0,0,0,0,0,-1,1357,1597,0,0
140,-573,0,0,0,0,0,0,0,0,0,-1,1364,1597,0,0
147,-573,0,0,0,0,0,0,0,0,0,-1,1371,1597,0,0
154,-573,0,0,0,0,0,0,0,0,0,-1,1378,1597,0,0
161,-573,0,0,0,0,0,0,0,0,0,-1,1385,1597,0,0
168,-573,0,0,0,0,0,0,0,0,0,-1,1392,1597,0,0
175,-573,0,0,0,0,0,0,0,0,0,-1,1399,1597,0,0
182,-573,0,0,0,0,0,0,0,0,0,-1,1406,1597,0,0
189,-573,0,0,0,0,0,0,0,0,0,-1,1413,1597,0,0
196,-573,0,0,0,0,0,0,0,0,0,-1,1420,1597,0,0
203,-573,0,0,0,0,0,0,0,0,0,-1,1427,1597,0,0
210,-573,0,0,0,0,0,0,0,0,0,-1,1434,1597,0,0
217,-573,0,0,0,0,0,0,0,0,0,-1,1441,1597,0,0
224,-573,0,0,0,0,0,0,0,0,0,-1,1448,1597,0,0
231,-573,0,0,0,0,0,0,0,0,0,-1,1455,1597,0,0
238,-573,0,0,0,0,0,0,0,0,0,-1,1462,1597,0,0
245,-573,0,0,0,0,0,0,0,0,0,-1,1469,1597,0,0
252,-573,0,0,0,0,0,0,0,0,0,-1,1476,1597,0,0
259,-573,0,0,0,0,0,0,0,0,0,-1,1483,1597,0,0
266,-573,0,0,0,0,0,0,0,0,0,-1,1490,1597,0,0
273,-573,0,0,0,0,0,0,0,0,0,-1,1497,1597,0,0
280,-573,0,0,0,0,0,0,0,0,0,-1,1504,1597,0,0
287,-573,0,0,0,0,0,0,0,0,0,-1,1511,1597,0,0
294,-573,0,0,0,0,0,0,0,0,0,-1,1518,1597,0,0
301,-573,0,0,0,0,0,0,0,0,0,-1,1525,1597,0,0
308,-573,5.93042,9.71143,0,0,0,0,0,0,0,-1,1532,1597,5.93046,-9.71144
315,-573,4.34204,11.719,0,0,0,0,0,0,0,-1,1539,1597,4.34205,-11.719
322,-573,10.3269,7.77563,0,0,0,0,0,0,0,-1,1546,1597,10.327,-7.77565
329,-573,4.99573,3.80273,0,0,0,0,0,0,0,-1,1553,1597,4.9957,-3.80273
336,-573,4.85693,2.53455,0,0,0,0,0,0,0,-1,1560,1597,4.8569,-2.53459
343,-573,21.4159,52.1832,0,0,0,0,0,0,0,-1,1567,1597,21.4159,-52.1833
350,-573,21.6807,52.4836,0,0,0,0,0,0,0,-1,1574,1597,21.6806,-52.4836
357,-573,21.9453,52.7841,0,0,0,0,0,0,0,-1,1581,1597,21.9453,-52.784
364,-573,7.14551,3.02087,0,0,0,0,0,0,0,-1,1588,1597,7.14556,-3.02084
371,-573,6.88867,2.00549,0,0,0,0,0,0,0,-1,1595,1597,6.88868,-2.00553
378,-573,8.62012,6.09106,0,0,0,0,0,0,0,-1,1602,1597,8.62012,-6.09103
385,-573,6.54346,-0.951904,0,0,0,0,0,0,0,-1,1609,1597,6.54349,0.951901
392,-573,17.5164,38.3645,0,0,0,0,0,0,0,-1,1616,1597,17.5164,-38.3645
399,-573,20.5255,42.9893,0,0,0,0,0,0,0,-1,1623,1597,20.5255,-42.9893
406,-573,20.2545,44.7974,0,0,0,0,0,0,0,-1,1630,1597,20.2545,-44.7974
413,-573,19.0908,43.9061,0,0,0,0,0,0,0,-1,1637,1597,19.0908,-43.9062
420,-573,18.8063,37.0011,0,0,0,0,0,0,0,-1,1644,1597,18.8063,-37.0011
427,-573,20.4286,42.2079,0,0,0,0,0,0,0,-1,1651,1597,20.4285,-42.2079
434,-573,21.1896,45.168,0,0,0,0,0,0,0,-1,1658,1597,21.1896,-45.1679
441,-573,20.9452,43.8585,0,0,0,0,0,0,0,-1,1665,1597,20.9452,-43.8585
448,-573,20.8804,43.0332,0.00595522,0.0191936,-0.0092115,0.0239175,0.00123133,-1.09694,0.0155508,0.0479446,1672,1597,20.8804,-43.0332
455,-573,20.8685,42.1357,0.00530859,0.016349,-0.00805673,0.0205953,0.00106235,-1.08575,0.0133901,0.0342071,1679,1597,20.8685,-42.1358
462,-573,20.9425,41.2256,0.0050382,0.0135387,-0.00706153,0.0175304,0.00104649,-1.0563,0.0113542,0.0237144,1686,1597,20.9425,-41.2256
469,-573,20.9419,40.4973,0.00475239,0.0107998,-0.00603904,0.0145298,0.00102238,-1.0175,0.00936439,0.0163906,1693,1597,20.9419,-40.4973
476,-573,20.9266,39.8185,0.00426866,0.00833642,-0.00501805,0.0117171,0.000887977,-0.977937,0.00753288,0.0156109,1700,1597,20.9266,-39.8184
483,-573,20.9268,39.1271,0.00366834,0.0061079,-0.00398136,0.00905215,0.000724094,-0.934044,0.00580846,0.0138074,1707,1597,20.9268,-39.1271
490,-573,20.8828,38.3854,0.00312256,0.0040025,-0.00300885,0.00660338,0.000521682,-0.857997,0.00423907,0.0146905,1714,1597,20.8828,-38.3853
497,-573,20.874,37.6498,0.00235147,0.00251801,-0.00220291,0.00463922,0.000230249,-0.804289,0.00301899,0.0225583,1721,1597,20.874,-37.6498
504,-573,20.848,36.9408,0.00156963,0.00106101,-0.00160123,0.00293663,-0.000305981,-0.706645,0.00206731,0.0193502,1728,1597,20.8481,-36.9407
511,-573,20.7908,36.192,0.000892577,1.20131e-05,-0.00113676,0.00167134,-0.000766752,-0.600637,0.00143957,0.019259,1735,1597,20.7908,-36.1921
518,-573,20.7213,35.4844,0.00031704,-0.000906022,-0.000848449,0.000751375,-0.00134036,-0.473135,0.00122352,0.0146579,1742,1597,20.7213,-35.4843
525,-573,20.679,34.7345,-4.49476e-05,-0.00166174,-0.000741429,0.000243571,-0.00195025,-0.371108,0.0013885,0.01754,1749,1597,20.6789,-34.7345
532,-573,20.6658,33.9543,-9.96575e-05,-0.00239175,-0.000741511,0.000119309,-0.00261072,-0.287137,0.00178158,0.0182772,1756,1597,20.6658,-33.9543
539,-573,20.5618,33.2289,4.22138e-05,-0.00313425,-0.000823661,0.000243087,-0.00333512,-0.239209,0.00230872,0.0397377,1763,1597,20.5617,-33.2289
546,-573,20.7992,32.3496,0,0,0,0,0,0,0,-1,1770,1597,20.7992,-32.3497
553,-573,20.5692,32.0792,0,0,0,0,0,0,0,-1,1777,1597,20.5692,-32.0792
560,-573,20.2477,31.5403,0,0,0,0,0,0,0,-1,1784,1597,20.2477,-31.5403
567,-573,19.8645,28.3368,0,0,0,0,0,0,0,-1,1791,1597,19.8645,-28.3368
574,-573,0.83374,5.7041,0,0,0,0,0,0,0,-1,1798,1597,0.833718,-5.70405
581,-573,-0.224854,7.41602,0,0,0,0,0,0,0,-1,1805,1597,-0.224904,-7.41596
588,-573,-0.134033,7.67065,0,0,0,0,0,0,0,-1,1812,1597,-0.134037,-7.67063
595,-573,-0.0825195,8.35083,0,0,0,0,0,0,0,-1,1819,1597,-0.0824684,-8.35088
602,-573,0,0,0,0,0,0,0,0,0,-1,1826,1597,0,0
609,-573,0,0,0,0,0,0,0,0,0,-1,1833,1597,0,0
616,-573,0,0,0,0,0,0,0,0,0,-1,1840,1597,0,0
623,-573,0,0,0,0,0,0,0,0,0,-1,1847,1597,0,0
630,-573,0,0,0,0,0,0,0,0,0,-1,1854,1597,0,0
637,-573,0,0,0,0,0,0,0,0,0,-1,1861,1597,0,0
644,-573,0,0,0,0,0,0,0,0,0,-1,1868,1597,0,0
651,-573,0,0,0,0,0,0,0,0,0,-1,1875,1597,0,0
658,-573,0,0,0,0,0,0,0,0,0,-1,1882,1597,0,0
665,-573,0,0,0,0,0,0,0,0,0,-1,1889,1597,0,0
672,-573,0,0,0,0,0,0,0,0,0,-1,1896,1597,0,0
679,-573,0,0,0,0,0,0,0,0,0,-1,1903,1597,0,0
686,-573,0,0,0,0,0,0,0,0,0,-1,1910,1597,0,0
693,-573,0,0,0,0,0,0,0,0,0,-1,1917,1597,0,0
700,-573,0,0,0,0,0,0,0,0,0,-1,1924,1597,0,0
707,-573,0,0,0,0,0,0,0,0,0,-1,1931,1597,0,0
714,-573,0,0,0,0,0,0,0,0,0,-1,1938,1597,0,0
721,-573,0,0,0,0,0,0,0,0,0,-1,1945,1597,0,0
728,-573,0,0,0,0,0,0,0,0,0,-1,1952,1597,0,0
735,-573,0,0,0,0,0,0,0,0,0,-1,1959,1597,0,0
742,-573,0,0,0,0,0,0,0,0,0,-1,1966,1597,0,0
749,-573,0,0,0,0,0,0,0,0,0,-1,1973,1597,0,0
756,-573,0,0,0,0,0,0,0,0,0,-1,1980,1597,0,0
763,-573,0,0,0,0,0,0,0,0,0,-1,1987,1597,0,0
770,-573,0,0,0,0,0,0,0,0,0,-1,1994,1597,0,0
777,-573,0,0,0,0,0,0,0,0,0,-1,2001,1597,0,0
784,-573,0,0,0,0,0,0,0,0,0,-1,2008,1597,0,0
791,-573,0,0,0,0,0,0,0,0,0,-1,2015,1597,0,0
798,-573,0,0,0,0,0,0,0,0,0,-1,2022,1597,0,0
805,-573,0,0,0,0,0,0,0,0,0,-1,2029,1597,0,0
812,-573,0,0,0,0,0,0,0,0,0,-1,2036,1597,0,0
-700,-580,0,0,0,0,0,0,0,0,0,-1,524,1604,0,0
-693,-580,0,0,0,0,0,0,0,0,0,-1,531,1604,0,0
-686,-580,0,0,0,0,0,0,0,0,0,-1,538,1604,0,0
-679,-580,0,0,0,0,0,0,0,0,0,-1,545,1604,0,0
-672,-580,0,0,0,0,0,0,0,0,0,-1,552,1604,0,0
-665,-580,0,0,0,0,0,0,0,0,0,-1,559,1604,0,0
-658,-580,0,0,0,0,0,0,0,0,0,-1,566,1604,0,0
-651,-580,0,0,0,0,0,0,0,0,0,-1,573,1604,0,0
-644,-580,0,0,0,0,0,0,0,0,0,-1,580,1604,0,0
-637,-580,0,0,0,0,0,0,0,0,0,-1,587,1604,0,0
-630,-580,0,0,0,0,0,0,0,0,0,-1,594,1604,0,0
-623,-580,0,0,0,0,0,0,0,0,0,-1,601,1604,0,0
-616,-580,0,0,0,0,0,0,0,0,0,-1,608,1604,0,0
-609,-580,0,0,0,0,0,0,0,0,0,-1,615,1604,0,0
-602,-580,0,0,0,0,0,0,0,0,0,-1,622,1604,0,0
-595,-580,0,0,0,0,0,0,0,0,0,-1,629,1604,0,0
-588,-580,0,0,0,0,0,0,0,0,0,-1,636,1604,0,0
-581,-580,0,0,0,0,0,0,0,0,0,-1,643,1604,0,0
-574,-580,0,0,0,0,0,0,0,0,0,-1,650,1604,0,0
-567,-580,0,0,0,0,0,0,0,0,0,-1,657,1604,0,0
-560,-580,0,0,0,0,0,0,0,0,0,-1,664,1604,0,0
-553,-580,0,0,0,0,0,0,0,0,0,-1,671,1604,0,0
-546,-580,0,0,0,0,0,0,0,0,0,-1,678,1604,0,0
-539,-580,0,0,0,0,0,0,0,0,0,-1,685,1604,0,0
-532,-580,0,0,0,0,0,0,0,0,0,-1,692,1604,0,0
-525,-580,0,0,0,0,0,0,0,0,0,-1,699,1604,0,0
-518,-580,0,0,0,0,0,0,0,0,0,-1,706,1604,0,0
-511,-580,0,0,0,0,0,0,0,0,0,-1,713,1604,0,0
-504,-580,0,0,0,0,0,0,0,0,0,-1,720,1604,0,0
-497,-580,0,0,0,0,0,0,0,0,0,-1,727,1604,0,0
-490,-580,0,0,0,0,0,0,0,0,0,-1,734,1604,0,0
-483,-580,0,0,0,0,0,0,0,0,0,-1,741,1604,0,0
-476,-580,0,0,0,0,0,0,0,0,0,-1,748,1604,0,0
-469,-580,-1.69189,-0.38916,0,0,0,0,0,0,0,-1,755,1604,-1.69192,0.389188
-462,-580,-0.859863,0.675293,0,0,0,0,0,0,0,-1,762,1604,-0.859834,-0.675245
-455,-580,-0.730164,0.651978,0,0,0,0,0,0,0,-1,769,1604,-0.730153,-0.651957
-448,-580,-3.31891,2.07544,0,0,0,0,0,0,0,-1,776,1604,-3.3189,-2.07539
-441,-580,-1.63843,3.9469,0,0,0,0,0,0,0,-1,783,1604,-1.63842,-3.94695
-434,-580,0.23291,5.97876,0,0,0,0,0,0,0,-1,790,1604,0.232901,-5.97878
-427,-580,1.62756,8.05493,0,0,0,0,0,0,0,-1,797,1604,1.62758,-8.05488
-420,-580,0.986572,11.2383,0,0,0,0,0,0,0,-1,804,1604,0.986544,-11.2382
-413,-580,0.922913,21.5701,0,0,0,0,0,0,0,-1,811,1604,0.922905,-21.5701
-406,-580,-1.89575,33.318,0,0,0,0,0,0,0,-1,818,1604,-1.89573,-33.3179
-399,-580,-1.89606,34.2959,-0.00211637,-0.000418915,0.000742182,-0.00014018,-0.00239511,1.21153,0.00155212,0.047785,825,1604,-1.89603,-34.296
-392,-580,-1.96362,35.1013,-0.00133138,-0.000568634,0.000872845,2.51812e-06,-0.00190253,0.991364,0.00126919,0.0229612,832,1604,-1.9636,-35.1013
-385,-580,-2.01001,35.8658,-0.00072774,-0.000474935,0.000937399,0.000344545,-0.00154722,0.852416,0.00116346,0.01338,839,1604,-2.00999,-35.8658
-378,-580,-2.05676,36.6202,-0.000181044,-0.000189273,0.00109371,0.000908554,-0.00127887,0.783517,0.00126893,0.0156417,846,1604,-2.05679,-36.6203
-371,-580,-2.08234,37.3894,0.000185182,-2.95405e-05,0.00101553,0.00109901,-0.000943365,0.732734,0.0011803,0.0146275,853,1604,-2.08231,-37.3894
-364,-580,-2.10394,38.1531,0.00054685,0.000380893,0.00103758,0.00150477,-0.000577023,0.745496,0.00124107,0.020682,860,1604,-2.10394,-38.1531
-357,-580,-2.14386,38.8463,0.00097538,0.000960404,0.0011294,0.00209731,-0.000161532,0.782083,0.00145505,0.0142141,867,1604,-2.14388,-38.8463
-350,-580,-2.18152,39.6056,0.00145518,0.00158914,0.0012472,0.00277116,0.000273161,0.812226,0.00176345,0.0113666,874,1604,-2.18154,-39.6055
-343,-580,-2.19623,40.3387,0.0018438,0.00223423,0.00137317,0.00342599,0.000652039,0.856007,0.00210066,0.0120018,881,1604,-2.19626,-40.3388
-336,-580,-2.23218,41.0322,0.00233694,0.00317024,0.00169329,0.00449739,0.00100978,0.906031,0.00272476,0.0203662,888,1604,-2.23217,-41.0323
-329,-580,-2.27173,41.8153,0.00334032,0.00459542,0.0021562,0.00621353,0.00172221,0.927008,0.00370423,0.0188444,895,1604,-2.27176,-41.8153
-322,-580,-2.28638,42.5627,0.00506401,0.00634372,0.00310794,0.00887698,0.00253074,0.886919,0.00528058,0.0220945,902,1604,-2.28637,-42.5627
-315,-580,-2.28583,43.2729,0.00676147,0.00827296,0.00437342,0.0119555,0.00307899,0.870955,0.0071679,0.0249934,909,1604,-2.28585,-43.273
-308,-580,-2.23273,44.1617,0.00870717,0.0104102,0.00568605,0.0153082,0.00380924,0.859725,0.00920236,0.0365637,916,1604,-2.23273,-44.1617
-301,-580,-2.1723,44.7494,0.0112829,0.0126884,0.00747392,0.0194926,0.0044788,0.832275,0.0117892,0.0352147,923,1604,-2.17233,-44.7494
-294,-580,-2.28625,45.2889,0.0145642,0.0158152,0.0098862,0.0250957,0.00528372,0.816991,0.0152769,0.0343029,930,1604,-2.28623,-45.2889
-287,-580,-2.11462,46.5066,0,0,0,0,0,0,0,-1,937,1604,-2.11464,-46.5066
-280,-580,-2.07355,47.6089,0,0,0,0,0,0,0,-1,944,1604,-2.07354,-47.6089
-273,-580,-1.36902,48.1586,0,0,0,0,0,0,0,-1,951,1604,-1.36901,-48.1586
-266,-580,-1.22644,48.4485,0,0,0,0,0,0,0,-1,958,1604,-1.22644,-48.4485
-259,-580,1.31091,9.11536,0,0,0,0,0,0,0,-1,965,1604,1.31092,-9.11539
-252,-580,1.07629,7.74097,0,0,0,0,0,0,0,-1,972,1604,1.07627,-7.74101
-245,-580,3.80304,9.16028,0,0,0,0,0,0,0,-1,979,1604,3.80306,-9.16034
-238,-580,-10.3588,1.57556,0,0,0,0,0,0,0,-1,986,1604,-10.3588,-1.5755
-231,-580,-10.576,6.43787,0,0,0,0,0,0,0,-1,993,1604,-10.576,-6.43783
-224,-580,-8.27435,7.58972,0,0,0,0,0,0,0,-1,1000,1604,-8.27435,-7.5897
-217,-580,-5.85632,9.51221,0,0,0,0,0,0,0,-1,1007,1604,-5.85632,-9.5122
-210,-580,-3.6684,11.1569,0,0,0,0,0,0,0,-1,1014,1604,-3.66839,-11.1569
-203,-580,-1.92474,12.7845,0,0,0,0,0,0,0,-1,1021,1604,-1.92477,-12.7845
-196,-580,-2.28552,10.3289,0,0,0,0,0,0,0,-1,1028,1604,-2.28552,-10.3288
-189,-580,-4.58252,7.59058,0,0,0,0,0,0,0,-1,1035,1604,-4.58256,-7.59057
-182,-580,-5.45874,7.65942,0,0,0,0,0,0,0,-1,1042,1604,-5.45876,-7.65939
-175,-580,-6.38977,7.55005,0,0,0,0,0,0,0,-1,1049,1604,-6.38981,-7.5501
-168,-580,0,0,0,0,0,0,0,0,0,-1,1056,1604,0,0
-161,-580,0,0,0,0,0,0,0,0,0,-1,1063,1604,0,0
-154,-580,0,0,0,0,0,0,0,0,0,-1,1070,1604,0,0
-147,-580,0,0,0,0,0,0,0,0,0,-1,1077,1604,0,0
-140,-580,0,0,0,0,0,0,0,0,0,-1,1084,1604,0,0
-133,-580,0,0,0,0,0,0,0,0,0,-1,1091,1604,0,0
-126,-580,0,0,0,0,0,0,0,0,0,-1,1098,1604,0,0
-119,-580,0,0,0,0,0,0,0,0,0,-1,1105,1604,0,0
-112,-580,0,0,0,0,0,0,0,0,0,-1,1112,1604,0,0
-105,-580,0,0,0,0,0,0,0,0,0,-1,1119,1604,0,0
-98,-580,0,0,0,0,0,0,0,0,0,-1,1126,1604,0,0
-91,-580,0,0,0,0,0,0,0,0,0,-1,1133,1604,0,0
-84,-580,0,0,0,0,0,0,0,0,0,-1,1140,1604,0,0
-77,-580,0,0,0,0,0,0,0,0,0,-1,1147,1604,0,0
-70,-580,0,0,0,0,0,0,0,0,0,-1,1154,1604,0,0
-63,-580,0,0,0,0,0,0,0,0,0,-1,1161,1604,0,0
-56,-580,0,0,0,0,0,0,0,0,0,-1,1168,1604,0,0
-49,-580,0,0,0,0,0,0,0,0,0,-1,1175,1604,0,0
-42,-580,0,0,0,0,0,0,0,0,0,-1,1182,1604,0,0
-35,-580,0,0,0,0,0,0,0,0,0,-1,1189,1604,0,0
-28,-580,0,0,0,0,0,0,0,0,0,-1,1196,1604,0,0
-21,-580,0,0,0,0,0,0,0,0,0,-1,1203,1604,0,0
-14,-580,0,0,0,0,0,0,0,0,0,-1,1210,1604,0,0
-7,-580,0,0,0,0,0,0,0,0,0,-1,1217,1604,0,0
0,-580,0,0,0,0,0,0,0,0,0,-1,1224,1604,0,0
7,-580,0,0,0,0,0,0,0,0,0,-1,1231,1604,0,0
14,-580,0,0,0,0,0,0,0,0,0,-1,1238,1604,0,0
21,-580,0,0,0,0,0,0,0,0,0,-1,1245,1604,0,0
28,-580,0,0,0,0,0,0,0,0,0,-1,1252,1604,0,0
35,-580,0,0,0,0,0,0,0,0,0,-1,1259,1604,0,0
42,-580,0,0,0,0,0,0,0,0,0,-1,1266,1604,0,0
49,-580,0,0,0,0,0,0,0,0,0,-1,1273,1604,0,0
56,-580,0,0,0,0,0,0,0,0,0,-1,1280,1604,0,0
63,-580,0,0,0,0,0,0,0,0,0,-1,1287,1604,0,0
70,-580,0,0,0,0,0,0,0,0,0,-1,1294,1604,0,0
77,-580,0,0,0,0,0,0,0,0,0,-1,1301,1604,0,0
84,-580,0,0,0,0,0,0,0,0,0,-1,1308,1604,0,0
91,-580,0,0,0,0,0,0,0,0,0,-1,1315,1604,0,0
98,-580,0,0,0,0,0,0,0,0,0,-1,1322,1604,0,0
105,-580,0,0,0,0,0,0,0,0,0,-1,1329,1604,0,0
112,-580,0,0,0,0,0,0,0,0,0,-1,1336,1604,0,0
119,-580,0,0,0,0,0,0,0,0,0,-1,1343,1604,0,0
126,-580,0,0,0,0,0,0,0,0,0,-1,1350,1604,0,0
133,-580,0,0,0,0,0,0,0,0,0,-1,1357,1604,0,0
140,-580,0,0,0,0,0,0,0,0,0,-1,1364,1604,0,0
147,-580,0,0,0,0,0,0,0,0,0,-1,1371,1604,0,0
154,-580,0,0,0,0,0,0,0,0,0,-1,1378,1604,0,0
161,-580,0,0,0,0,0,0,0,0,0,-1,1385,1604,0,0
168,-580,0,0,0,0,0,0,0,0,0,-1,1392,1604,0,0
175,-580,0,0,0,0,0,0,0,0,0,-1,1399,1604,0,0
182,-580,0,0,0,0,0,0,0,0,0,-1,1406,1604,0,0
189,-580,0,0,0,0,0,0,0,0,0,-1,1413,1604,0,0
196,-580,0,0,0,0,0,0,0,0,0,-1,1420,1604,0,0
203,-580,0,0,0,0,0,0,0,0,0,-1,1427,1604,0,0
210,-580,0,0,0,0,0,0,0,0,0,-1,1434,1604,0,0
217,-580,0,0,0,0,0,0,0,0,0,-1,1441,1604,0,0
224,-580,0,0,0,0,0,0,0,0,0,-1,1448,1604,0,0
231,-580,0,0,0,0,0,0,0,0,0,-1,1455,1604,0,0
238,-580,0,0,0,0,0,0,0,0,0,-1,1462,1604,0,0
245,-580,0,0,0,0,0,0,0,0,0,-1,1469,1604,0,0
252,-580,0,0,0,0,0,0,0,0,0,-1,1476,1604,0,0
259,-580,0,0,0,0,0,0,0,0,0,-1,1483,1604,0,0
266,-580,0,0,0,0,0,0,0,0,0,-1,1490,1604,0,0
273,-580,0,0,0,0,0,0,0,0,0,-1,1497,1604,0,0
280,-580,0,0,0,0,0,0,0,0,0,-1,1504,1604,0,0
287,-580,0,0,0,0,0,0,0,0,0,-1,1511,1604,0,0
294,-580,4.0437,0.177368,0,0,0,0,0,0,0,-1,1518,1604,4.04369,-0.177371
301,-580,7.55164,8.05798,0,0,0,0,0,0,0,-1,1525,1604,7.55158,-8.05802
308,-580,5.9126,9.99341,0,0,0,0,0,0,0,-1,1532,1604,5.91255,-9.99337
315,-580,4.27356,11.9287,0,0,0,0,0,0,0,-1,1539,1604,4.27352,-11.9287
322,-580,10.2366,7.50281,0,0,0,0,0,0,0,-1,1546,1604,10.2366,-7.50282
329,-580,10.5962,8.69641,0,0,0,0,0,0,0,-1,1553,1604,10.5962,-8.69642
336,-580,3.66431,1.58862,0,0,0,0,0,0,0,-1,1560,1604,3.6643,-1.58864
343,-580,19.0659,51.8346,0,0,0,0,0,0,0,-1,1567,1604,19.0659,-51.8346
350,-580,19.252,52.0856,0,0,0,0,0,0,0,-1,1574,1604,19.2519,-52.0856
357,-580,19.0297,52.475,0,0,0,0,0,0,0,-1,1581,1604,19.0297,-52.4749
364,-580,18.2356,51.5659,0,0,0,0,0,0,0,-1,1588,1604,18.2356,-51.5659
371,-580,18.5011,51.119,0,0,0,0,0,0,0,-1,1595,1604,18.5011,-51.1191
378,-580,19.4285,50.2838,0,0,0,0,0,0,0,-1,1602,1604,19.4284,-50.2838
385,-580,18.6182,47.5352,0,0,0,0,0,0,0,-1,1609,1604,18.6181,-47.5352
392,-580,19.1388,46.7451,0,0,0,0,0,0,0,-1,1616,1604,19.1388,-46.7452
399,-580,19.433,45.329,0,0,0,0,0,0,0,-1,1623,1604,19.433,-45.329
406,-580,20.3507,47.0225,0,0,0,0,0,0,0,-1,1630,1604,20.3507,-47.0225
413,-580,20.4578,46.2865,0,0,0,0,0,0,0,-1,1637,1604,20.4578,-46.2865
420,-580,20.3472,45.6566,0,0,0,0,0,0,0,-1,1644,1604,20.3471,-45.6567
427,-580,20.8699,45.3667,0,0,0,0,0,0,0,-1,1651,1604,20.8698,-45.3668
434,-580,20.4941,44.4143,0.00668092,0.0199176,-0.0089382,0.0244211,0.00217749,-1.10408,0.0156056,0.0468066,1658,1604,20.4941,-44.4143
441,-580,20.1643,43.4552,0.0057262,0.0173557,-0.00797696,0.0214123,0.00166961,-1.10034,0.0137521,0.0268308,1665,1604,20.1643,-43.4552
448,-580,20.2679,42.6753,0.00451193,0.0144238,-0.00668001,0.0177856,0.00115019,-1.10455,0.0114929,0.0184192,1672,1604,20.268,-42.6753
455,-580,20.3087,41.9862,0.00396739,0.0123372,-0.00595542,0.0154311,0.000873527,-1.09167,0.0100089,0.0215918,1679,1604,20.3088,-41.9863
462,-580,20.2404,41.2397,0.00376658,0.0101546,-0.00533183,0.0131759,0.000745267,-1.05526,0.00854633,0.0248516,1686,1604,20.2403,-41.2398
469,-580,20.2183,40.5214,0.00358555,0.00802738,-0.00466121,0.0109697,0.000643192,-1.00772,0.00710846,0.022196,1693,1604,20.2183,-40.5213
476,-580,20.2089,39.8228,0.00323193,0.00605839,-0.00391822,0.00881045,0.000479873,-0.958478,0.00572039,0.0164406,1700,1604,20.2089,-39.8227
483,-580,20.1781,39.1498,0.00276221,0.0042097,-0.00316881,0.00673637,0.000235543,-0.89767,0.00441449,0.0147264,1707,1604,20.1782,-39.1498
490,-580,20.1377,38.4557,0.00229095,0.00247128,-0.00241759,0.00480039,-3.81586e-05,-0.804038,0.00321305,0.0192776,1714,1604,20.1377,-38.4557
497,-580,20.1143,37.7094,0.00164499,0.00122375,-0.00180907,0.00325566,-0.000386917,-0.727447,0.00231024,0.01534,1721,1604,20.1142,-37.7094
504,-580,20.073,36.9597,0.000967783,-5.06714e-05,-0.00134435,0.00189612,-0.000979008,-0.604353,0.00168787,0.0186658,1728,1604,20.0731,-36.9597
511,-580,20.0215,36.262,0.000375607,-0.0010212,-0.000980237,0.000880795,-0.00152639,-0.47587,0.00140635,0.0177136,1735,1604,20.0215,-36.262
518,-580,19.9646,35.5183,-9.85846e-05,-0.00182172,-0.000812713,0.000224247,-0.00214455,-0.378114,0.00151001,0.0160242,1742,1604,19.9646,-35.5183
525,-580,19.9641,34.77,-0.000407063,-0.00262639,-0.00072255,-0.000192555,-0.0028409,-0.288589,0.00183312,0.01992,1749,1604,19.9641,-34.77
532,-580,19.8904,34.0682,-0.000437525,-0.00344186,-0.000714237,-0.00027637,-0.00360301,-0.221916,0.00231539,0.0372864,1756,1604,19.8904,-34.0683
539,-580,20.0165,33.1703,0,0,0,0,0,0,0,-1,1763,1604,20.0165,-33.1703
546,-580,20.2013,32.1729,0,0,0,0,0,0,0,-1,1770,1604,20.2013,-32.1729
553,-580,17.1749,26.6359,0,0,0,0,0,0,0,-1,1777,1604,17.1749,-26.6358
560,-580,18.9662,29.0388,0,0,0,0,0,0,0,-1,1784,1604,18.9661,-29.0389
567,-580,3.87708,4.0647,0,0,0,0,0,0,0,-1,1791,1604,3.87711,-4.06471
574,-580,2.31653,5.62952,0,0,0,0,0,0,0,-1,1798,1604,2.31654,-5.62947
581,-580,1.60876,6.67664,0,0,0,0,0,0,0,-1,1805,1604,1.60873,-6.67667
588,-580,1.38684,7.14441,0,0,0,0,0,0,0,-1,1812,1604,1.38689,-7.14443
595,-580,0,0,0,0,0,0,0,0,0,-1,1819,1604,0,0
602,-580,0,0,0,0,0,0,0,0,0,-1,1826,1604,0,0
609,-580,0,0,0,0,0,0,0,0,0,-1,1833,1604,0,0
616,-580,0,0,0,0,0,0,0,0,0,-1,1840,1604,0,0
623,-580,0,0,0,0,0,0,0,0,0,-1,1847,1604,0,0
630,-580,0,0,0,0,0,0,0,0,0,-1,1854,1604,0,0
637,-580,0,0,0,0,0,0,0,0,0,-1,1861,1604,0,0
644,-580,0,0,0,0,0,0,0,0,0,-1,1868,1604,0,0
651,-580,0,0,0,0,0,0,0,0,0,-1,1875,1604,0,0
658,-580,0,0,0,0,0,0,0,0,0,-1,1882,1604,0,0
665,-580,0,0,0,0,0,0,0,0,0,-1,1889,1604,0,0
672,-580,0,0,0,0,0,0,0,0,0,-1,1896,1604,0,0
679,-580,0,0,0,0,0,0,0,0,0,-1,1903,1604,0,0
686,-580,0,0,0,0,0,0,0,0,0,-1,1910,1604,0,0
693,-580,0,0,0,0,0,0,0,0,0,-1,1917,1604,0,0
700,-580,0,0,0,0,0,0,0,0,0,-1,1924,1604,0,0
707,-580,0,0,0,0,0,0,0,0,0,-1,1931,1604,0,0
714,-580,0,0,0,0,0,0,0,0,0,-1,1938,1604,0,0
721,-580,0,0,0,0,0,0,0,0,0,-1,1945,1604,0,0
728,-580,0,0,0,0,0,0,0,0,0,-1,1952,1604,0,0
735,-580,0,0,0,0,0,0,0,0,0,-1,1959,1604,0,0
742,-580,0,0,0,0,0,0,0,0,0,-1,1966,1604,0,0
749,-580,0,0,0,0,0,0,0,0,0,-1,1973,1604,0,0
756,-580,0,0,0,0,0,0,0,0,0,-1,1980,1604,0,0
763,-580,0,0,0,0,0,0,0,0,0,-1,1987,1604,0,0
770,-580,0,0,0,0,0,0,0,0,0,-1,1994,1604,0,0
777,-580,0,0,0,0,0,0,0,0,0,-1,2001,1604,0,0
784,-580,0,0,0,0,0,0,0,0,0,-1,2008,1604,0,0
791,-580,0,0,0,0,0,0,0,0,0,-1,2015,1604,0,0
798,-580,0,0,0,0,0,0,0,0,0,-1,2022,1604,0,0
805,-580,0,0,0,0,0,0,0,0,0,-1,2029,1604,0,0
812,-580,0,0,0,0,0,0,0,0,0,-1,2036,1604,0,0
-700,-587,0,0,0,0,0,0,0,0,0,-1,524,1611,0,0
-693,-587,0,0,0,0,0,0,0,0,0,-1,531,1611,0,0
-686,-587,0,0,0,0,0,0,0,0,0,-1,538,1611,0,0
-679,-587,0,0,0,0,0,0,0,0,0,-1,545,1611,0,0
-672,-587,0,0,0,0,0,0,0,0,0,-1,552,1611,0,0
-665,-587,0,0,0,0,0,0,0,0,0,-1,559,1611,0,0
-658,-587,0,0,0,0,0,0,0,0,0,-1,566,1611,0,0
-651,-587,0,0,0,0,0,0,0,0,0,-1,573,1611,0,0
-644,-587,0,0,0,0,0,0,0,0,0,-1,580,1611,0,0
-637,-587,0,0,0,0,0,0,0,0,0,-1,587,1611,0,0
-630,-587,0,0,0,0,0,0,0,0,0,-1,594,1611,0,0
-623,-587,0,0,0,0,0,0,0,0,0,-1,601,1611,0,0
-616,-587,0,0,0,0,0,0,0,0,0,-1,608,1611,0,0
-609,-587,0,0,0,0,0,0,0,0,0,-1,615,1611,0,0
-602,-587,0,0,0,0,0,0,0,0,0,-1,622,1611,0,0
-595,-587,0,0,0,0,0,0,0,0,0,-1,629,1611,0,0
-588,-587,0,0,0,0,0,0,0,0,0,-1,636,1611,0,0
-581,-587,0,0,0,0,0,0,0,0,0,-1,643,1611,0,0
-574,-587,0,0,0,0,0,0,0,0,0,-1,650,1611,0,0
-567,-587,0,0,0,0,0,0,0,0,0,-1,657,1611,0,0
-560,-587,0,0,0,0,0,0,0,0,0,-1,664,1611,0,0
-553,-587,0,0,0,0,0,0,0,0,0,-1,671,1611,0,0
-546,-587,0,0,0,0,0,0,0,0,0,-1,678,1611,0,0
-539,-587,0,0,0,0,0,0,0,0,0,-1,685,1611,0,0
-532,-587,0,0,0,0,0,0,0,0,0,-1,692,1611,0,0
-525,-587,0,0,0,0,0,0,0,0,0,-1,699,1611,0,0
-518,-587,0,0,0,0,0,0,0,0,0,-1,706,1611,0,0
-511,-587,0,0,0,0,0,0,0,0,0,-1,713,1611,0,0
-504,-587,0,0,0,0,0,0,0,0,0,-1,720,1611,0,0
-497,-587,0,0,0,0,0,0,0,0,0,-1,727,1611,0,0
-490,-587,0,0,0,0,0,0,0,0,0,-1,734,1611,0,0
-483,-587,0,0,0,0,0,0,0,0,0,-1,741,1611,0,0
-476,-587,0,0,0,0,0,0,0,0,0,-1,748,1611,0,0
-469,-587,0,0,0,0,0,0,0,0,0,-1,755,1611,0,0
-462,-587,-0.714355,-0.418457,0,0,0,0,0,0,0,-1,762,1611,-0.714359,0.418483
-455,-587,-0.619812,-0.522461,0,0,0,0,0,0,0,-1,769,1611,-0.619802,0.522515
-448,-587,-0.461731,-0.686523,0,0,0,0,0,0,0,-1,776,1611,-0.461739,0.686559
-441,-587,-3.56555,2.72253,0,0,0,0,0,0,0,-1,783,1611,-3.56555,-2.72259
-434,-587,-1.77319,4.76318,0,0,0,0,0,0,0,-1,790,1611,-1.77318,-4.76323
-427,-587,0.0346069,6.92944,0,0,0,0,0,0,0,-1,797,1611,0.034587,-6.92941
-420,-587,-0.647156,10.1157,0,0,0,0,0,0,0,-1,804,1611,-0.647128,-10.1158
-413,-587,2.13971,10.3901,0,0,0,0,0,0,0,-1,811,1611,2.13971,-10.3902
-406,-587,2.2525,19.7814,0,0,0,0,0,0,0,-1,818,1611,2.25253,-19.7814
-399,-587,-1.25989,34.1655,0,0,0,0,0,0,0,-1,825,1611,-1.25989,-34.1656
-392,-587,-1.34473,34.9784,0,0,0,0,0,0,0,-1,832,1611,-1.34473,-34.9784
-385,-587,-1.35016,35.8363,-0.00118029,-0.000962596,0.000998357,-6.71711e-05,-0.00207572,0.839698,0.00136197,0.0301044,839,1611,-1.35019,-35.8363
-378,-587,-1.34814,36.6609,-0.000562137,-0.000634273,0.00116697,0.000569321,-0.00176573,0.769949,0.00140589,0.0152905,846,1611,-1.34816,-36.6609
-371,-587,-1.37817,37.4552,-0.000185759,-0.000462108,0.00108782,0.00077263,-0.0014205,0.722227,0.00128449,0.0148219,853,1611,-1.37819,-37.4552
-364,-587,-1.36914,38.1891,0.000147319,-0.000166846,0.0010484,0.00105034,-0.00106987,0.711036,0.00122412,0.0181301,860,1611,-1.36914,-38.1891
-357,-587,-1.41254,38.8717,0.000553932,0.00028569,0.00108868,0.00151672,-0.000677096,0.724109,0.00129715,0.017427,867,1611,-1.41252,-38.8717
-350,-587,-1.46704,39.6387,0.00100418,0.000781253,0.00114004,0.0020382,-0.000252764,0.736667,0.00145041,0.0106901,874,1611,-1.46704,-39.6387
-343,-587,-1.51471,40.3634,0.00137877,0.00134004,0.00121967,0.00257922,0.000139586,0.777461,0.00167489,0.0133578,881,1611,-1.51472,-40.3634
-336,-587,-1.55182,41.0687,0.00180685,0.00211612,0.00144001,0.00340977,0.000513199,0.838886,0.00212289,0.0129748,888,1611,-1.55181,-41.0688
-329,-587,-1.58118,41.8009,0.0026422,0.00332132,0.00179189,0.00480553,0.00115798,0.879037,0.00289593,0.0150532,895,1611,-1.58119,-41.8009
-322,-587,-1.57867,42.549,0.00402936,0.00471065,0.00249911,0.00689223,0.00184779,0.853134,0.00411943,0.0190558,902,1611,-1.57868,-42.5489
-315,-587,-1.62592,43.2686,0.0054199,0.00626132,0.00349381,0.00935966,0.00232156,0.845318,0.00562786,0.0153079,909,1611,-1.6259,-43.2686
-308,-587,-1.62524,43.9771,0.00703511,0.0079527,0.00452663,0.0120437,0.00294408,0.835903,0.00724986,0.0150835,916,1611,-1.62526,-43.9771
-301,-587,-1.59296,44.7081,0.00911947,0.00977811,0.00594403,0.0154019,0.00349564,0.813072,0.0093238,0.016129,923,1611,-1.59295,-44.7081
-294,-587,-1.53772,45.4387,0.0116681,0.0123581,0.00786015,0.0198808,0.00414537,0.807332,0.0121109,0.0236247,930,1611,-1.53771,-45.4388
-287,-587,-1.60297,46.202,0.0150228,0.0152886,0.0101459,0.0253024,0.00500897,0.791946,0.0154713,0.0350546,937,1611,-1.60294,-46.2021
-280,-587,-1.50299,47.1498,0.0191071,0.0183264,0.0129893,0.0317119,0.00572161,0.770376,0.0195157,0.0425918,944,1611,-1.50297,-47.1498
-273,-587,-0.981201,47.8319,0.0234479,0.0211892,0.0162257,0.0385835,0.00605362,0.750653,0.0239607,0.0449465,951,1611,-0.981199,-47.8319
-266,-587,-0.662109,48.5399,0,0,0,0,0,0,0,-1,958,1611,-0.662082,-48.5399
-259,-587,-0.465881,49.6414,0,0,0,0,0,0,0,-1,965,1611,-0.465898,-49.6414
-252,-587,1.30188,10.3103,0,0,0,0,0,0,0,-1,972,1611,1.30188,-10.3104
-245,-587,1.52075,27.4791,0,0,0,0,0,0,0,-1,979,1611,1.52076,-27.4791
-238,-587,2.87799,9.53821,0,0,0,0,0,0,0,-1,986,1611,2.87797,-9.53823
-231,-587,2.49548,9.14465,0,0,0,0,0,0,0,-1,993,1611,2.49551,-9.14468
-224,-587,-9.72528,9.21069,0,0,0,0,0,0,0,-1,1000,1611,-9.72529,-9.21072
-217,-587,-7.07495,10.7847,0,0,0,0,0,0,0,-1,1007,1611,-7.07495,-10.7847
-210,-587,-4.72308,12.5889,0,0,0,0,0,0,0,-1,1014,1611,-4.72307,-12.5888
-203,-587,-3.2583,13.7289,0,0,0,0,0,0,0,-1,1021,1611,-3.25828,-13.7289
-196,-587,-1.953,14.8145,0,0,0,0,0,0,0,-1,1028,1611,-1.95302,-14.8144
-189,-587,-3.04138,8.66638,0,0,0,0,0,0,0,-1,1035,1611,-3.04136,-8.66635
-182,-587,-3.97095,9.7146,0,0,0,0,0,0,0,-1,1042,1611,-3.97093,-9.71461
-175,-587,-4.80969,8.37878,0,0,0,0,0,0,0,-1,1049,1611,-4.80964,-8.37883
-168,-587,-5.91394,8.72546,0,0,0,0,0,0,0,-1,1056,1611,-5.91398,-8.72542
-161,-587,-7.06946,8.88501,0,0,0,0,0,0,0,-1,1063,1611,-7.06947,-8.885
-154,-587,-2.24731,6.56519,0,0,0,0,0,0,0,-1,1070,1611,-2.24728,-6.56517
-147,-587,0,0,0,0,0,0,0,0,0,-1,1077,1611,0,0
-140,-587,0,0,0,0,0,0,0,0,0,-1,1084,1611,0,0
-133,-587,0,0,0,0,0,0,0,0,0,-1,1091,1611,0,0
-126,-587,0,0,0,0,0,0,0,0,0,-1,1098,1611,0,0
-119,-587,0,0,0,0,0,0,0,0,0,-1,1105,1611,0,0
-112,-587,0,0,0,0,0,0,0,0,0,-1,1112,1611,0,0
-105,-587,0,0,0,0,0,0,0,0,0,-1,1119,1611,0,0
-98,-587,0,0,0,0,0,0,0,0,0,-1,1126,1611,0,0
-91,-587,0,0,0,0,0,0,0,0,0,-1,1133,1611,0,0
-84,-587,0,0,0,0,0,0,0,0,0,-1,1140,1611,0,0
-77,-587,0,0,0,0,0,0,0,0,0,-1,1147,1611,0,0
-70,-587,0,0,0,0,0,0,0,0,0,-1,1154,1611,0,0
-63,-587,0,0,0,0,0,0,0,0,0,-1,1161,1611,0,0
-56,-587,0,0,0,0,0,0,0,0,0,-1,1168,1611,0,0
-49,-587,0,0,0,0,0,0,0,0,0,-1,1175,1611,0,0
-42,-587,0,0,0,0,0,0,0,0,0,-1,1182,1611,0,0
-35,-587,0,0,0,0,0,0,0,0,0,-1,1189,1611,0,0
-28,-587,0,0,0,0,0,0,0,0,0,-1,1196,1611,0,0
-21,-587,0,0,0,0,0,0,0,0,0,-1,1203,1611,0,0
-14,-587,0,0,0,0,0,0,0,0,0,-1,1210,1611,0,0
-7,-587,0,0,0,0,0,0,0,0,0,-1,1217,1611,0,0
0,-587,0,0,0,0,0,0,0,0,0,-1,1224,1611,0,0
7,-587,0,0,0,0,0,0,0,0,0,-1,1231,1611,0,0
14,-587,0,0,0,0,0,0,0,0,0,-1,1238,1611,0,0
21,-587,0,0,0,0,0,0,0,0,0,-1,1245,1611,0,0
28,-587,0,0,0,0,0,0,0,0,0,-1,1252,1611,0,0
35,-587,0,0,0,0,0,0,0,0,0,-1,1259,1611,0,0
42,-587,0,0,0,0,0,0,0,0,0,-1,1266,1611,0,0
49,-587,0,0,0,0,0,0,0,0,0,-1,1273,1611,0,0
56,-587,0,0,0,0,0,0,0,0,0,-1,1280,1611,0,0
63,-587,0,0,0,0,0,0,0,0,0,-1,1287,1611,0,0
70,-587,0,0,0,0,0,0,0,0,0,-1,1294,1611,0,0
77,-587,0,0,0,0,0,0,0,0,0,-1,1301,1611,0,0
84,-587,0,0,0,0,0,0,0,0,0,-1,1308,1611,0,0
91,-587,0,0,0,0,0,0,0,0,0,-1,1315,1611,0,0
98,-587,0,0,0,0,0,0,0,0,0,-1,1322,1611,0,0
105,-587,0,0,0,0,0,0,0,0,0,-1,1329,1611,0,0
112,-587,0,0,0,0,0,0,0,0,0,-1,1336,1611,0,0
119,-587,0,0,0,0,0,0,0,0,0,-1,1343,1611,0,0
126,-587,0,0,0,0,0,0,0,0,0,-1,1350,1611,0,0
133,-587,0,0,0,0,0,0,0,0,0,-1,1357,1611,0,0
140,-587,0,0,0,0,0,0,0,0,0,-1,1364,1611,0,0
147,-587,0,0,0,0,0,0,0,0,0,-1,1371,1611,0,0
154,-587,0,0,0,0,0,0,0,0,0,-1,1378,1611,0,0
161,-587,0,0,0,0,0,0,0,0,0,-1,1385,1611,0,0
168,-587,0,0,0,0,0,0,0,0,0,-1,1392,1611,0,0
175,-587,0,0,0,0,0,0,0,0,0,-1,1399,1611,0,0
182,-587,0,0,0,0,0,0,0,0,0,-1,1406,1611,0,0
189,-587,0,0,0,0,0,0,0,0,0,-1,1413,1611,0,0
196,-587,0,0,0,0,0,0,0,0,0,-1,1420,1611,0,0
203,-587,0,0,0,0,0,0,0,0,0,-1,1427,1611,0,0
210,-587,0,0,0,0,0,0,0,0,0,-1,1434,1611,0,0
217,-587,0,0,0,0,0,0,0,0,0,-1,1441,1611,0,0
224,-587,0,0,0,0,0,0,0,0,0,-1,1448,1611,0,0
231,-587,0,0,0,0,0,0,0,0,0,-1,1455,1611,0,0
238,-587,0,0,0,0,0,0,0,0,0,-1,1462,1611,0,0
245,-587,0,0,0,0,0,0,0,0,0,-1,1469,1611,0,0
252,-587,0,0,0,0,0,0,0,0,0,-1,1476,1611,0,0
259,-587,0,0,0,0,0,0,0,0,0,-1,1483,1611,0,0
266,-587,0,0,0,0,0,0,0,0,0,-1,1490,1611,0,0
273,-587,10.2936,6.35083,0,0,0,0,0,0,0,-1,1497,1611,10.2936,-6.35087
280,-587,2.09204,1.1217,0,0,0,0,0,0,0,-1,1504,1611,2.092,-1.12176
287,-587,3.2865,0.671509,0,0,0,0,0,0,0,-1,1511,1611,3.28656,-0.671538
294,-587,4.24646,1.58765,0,0,0,0,0,0,0,-1,1518,1611,4.24648,-1.58761
301,-587,7.60474,8.37085,0,0,0,0,0,0,0,-1,1525,1611,7.60478,-8.37084
308,-587,5.99316,10.2291,0,0,0,0,0,0,0,-1,1532,1611,5.99315,-10.2291
315,-587,4.34558,12.3289,0,0,0,0,0,0,0,-1,1539,1611,4.34556,-12.3288
322,-587,10.4526,6.38245,0,0,0,0,0,0,0,-1,1546,1611,10.4526,-6.38245
329,-587,10.7738,8.42444,0,0,0,0,0,0,0,-1,1553,1611,10.7738,-8.42438
336,-587,7.5531,5.96619,0,0,0,0,0,0,0,-1,1560,1611,7.55311,-5.96617
343,-587,16.9395,51.2952,0,0,0,0,0,0,0,-1,1567,1611,16.9394,-51.2951
350,-587,17.022,51.35,0,0,0,0,0,0,0,-1,1574,1611,17.0219,-51.35
357,-587,16.9022,51.6407,0,0,0,0,0,0,0,-1,1581,1611,16.9022,-51.6408
364,-587,17.5819,51.3085,0,0,0,0,0,0,0,-1,1588,1611,17.582,-51.3085
371,-587,17.8572,50.4595,0,0,0,0,0,0,0,-1,1595,1611,17.8571,-50.4595
378,-587,18.0168,50.0642,0,0,0,0,0,0,0,-1,1602,1611,18.0169,-50.0642
385,-587,18.7219,49.6742,0,0,0,0,0,0,0,-1,1609,1611,18.7219,-49.6743
392,-587,19.3623,49.0092,0,0,0,0,0,0,0,-1,1616,1611,19.3623,-49.0092
399,-587,19.6693,47.6418,0,0,0,0,0,0,0,-1,1623,1611,19.6693,-47.6418
406,-587,19.6576,46.9688,0.0147979,0.0242148,-0.0113896,0.0318308,0.00718187,-0.9814,0.0192778,0.0439621,1630,1611,19.6575,-46.9687
413,-587,19.734,46.2521,0.0114396,0.0215946,-0.00980885,0.0275622,0.00547198,-1.02423,0.0168497,0.0350405,1637,1611,19.734,-46.2521
420,-587,19.7006,45.5321,0.00866748,0.0191183,-0.00841271,0.0237964,0.00398942,-1.0633,0.0147158,0.0313666,1644,1611,19.7005,-45.5321
427,-587,19.7111,44.8778,0.00671025,0.0168624,-0.00727733,0.0206591,0.00291356,-1.08993,0.0129116,0.0262356,1651,1611,19.711,-44.8778
434,-587,19.6538,44.0505,0.00528243,0.0147113,-0.00637839,0.0179284,0.00206531,-1.10365,0.0113268,0.0214289,1658,1611,19.6538,-44.0505
441,-587,19.6094,43.2601,0.00443712,0.0127878,-0.00575858,0.0157255,0.00149947,-1.09907,0.0100213,0.0243535,1665,1611,19.6094,-43.2601
448,-587,19.6119,42.7017,0.00343614,0.0105359,-0.00485887,0.0130035,0.000968525,-1.10088,0.00836487,0.0168203,1672,1611,19.6119,-42.7016
455,-587,19.5892,42.0242,0.00299245,0.00897906,-0.00441657,0.0113211,0.000650407,-1.08321,0.00734021,0.0153609,1679,1611,19.5892,-42.0242
462,-587,19.5497,41.293,0.00285767,0.00726992,-0.0040465,0.00967261,0.000454987,-1.03497,0.00630222,0.0201535,1686,1611,19.5497,-41.293
469,-587,19.5201,40.6012,0.00275222,0.0055887,-0.00360516,0.00804455,0.000296374,-0.972796,0.00526702,0.0182642,1693,1611,19.5201,-40.6012
476,-587,19.4868,39.9209,0.00251319,0.00400874,-0.00306783,0.00641861,0.00010332,-0.904941,0.00424506,0.0114289,1700,1611,19.4868,-39.9209
483,-587,19.4163,39.1986,0.00216155,0.00246462,-0.0025477,0.00486528,-0.000239116,-0.815103,0.00332609,0.0146349,1707,1611,19.4162,-39.1987
490,-587,19.4045,38.478,0.00174545,0.00105227,-0.00199289,0.00342167,-0.00062395,-0.699303,0.00251503,0.0178543,1714,1611,19.4045,-38.478
497,-587,19.3867,37.7627,0.00120503,1.00169e-06,-0.00156842,0.002283,-0.00107697,-0.602151,0.0019811,0.0138621,1721,1611,19.3868,-37.7627
504,-587,19.3318,37.0664,0.000626485,-0.0010926,-0.00123826,0.00127429,-0.00174041,-0.482003,0.00174746,0.0132654,1728,1611,19.3318,-37.0664
511,-587,19.274,36.344,0.000120482,-0.0019875,-0.000988838,0.000511724,-0.00237874,-0.376757,0.00178108,0.015225,1735,1611,19.2741,-36.344
518,-587,19.26,35.5763,-0.000263772,-0.0026876,-0.000974661,7.95308e-05,-0.00303091,-0.338658,0.00204763,0.0149969,1742,1611,19.26,-35.5764
525,-587,19.2841,34.8829,-0.000580227,-0.00355068,-0.000895832,-0.000330977,-0.00379994,-0.27137,0.00243049,0.0227849,1749,1611,19.284,-34.883
532,-587,19.3485,34.1909,-0.000573852,-0.00447251,-0.000858566,-0.000393153,-0.00465321,-0.207439,0.00297974,0.0448604,1756,1611,19.3485,-34.191
539,-587,19.516,33.2233,0,0,0,0,0,0,0,-1,1763,1611,19.516,-33.2232
546,-587,17.6716,25.2673,0,0,0,0,0,0,0,-1,1770,1611,17.6716,-25.2674
553,-587,7.5813,8.45068,0,0,0,0,0,0,0,-1,1777,1611,7.58125,-8.45068
560,-587,4.21179,5.23547,0,0,0,0,0,0,0,-1,1784,1611,4.21185,-5.23553
567,-587,4.03711,5.46387,0,0,0,0,0,0,0,-1,1791,1611,4.03715,-5.46382
574,-587,3.83142,5.68884,0,0,0,0,0,0,0,-1,1798,1611,3.83141,-5.68881
581,-587,3.47168,6.00977,0,0,0,0,0,0,0,-1,1805,1611,3.47167,-6.00983
588,-587,0,0,0,0,0,0,0,0,0,-1,1812,1611,0,0
595,-587,0,0,0,0,0,0,0,0,0,-1,1819,1611,0,0
602,-587,0,0,0,0,0,0,0,0,0,-1,1826,1611,0,0
609,-587,0,0,0,0,0,0,0,0,0,-1,1833,1611,0,0
616,-587,0,0,0,0,0,0,0,0,0,-1,1840,1611,0,0
623,-587,0,0,0,0,0,0,0,0,0,-1,1847,1611,0,0
630,-587,0,0,0,0,0,0,0,0,0,-1,1854,1611,0,0
637,-587,0,0,0,0,0,0,0,0,0,-1,1861,1611,0,0
644,-587,0,0,0,0,0,0,0,0,0,-1,1868,1611,0,0
651,-587,0,0,0,0,0,0,0,0,0,-1,1875,1611,0,0
658,-587,0,0,0,0,0,0,0,0,0,-1,1882,1611,0,0
665,-587,0,0,0,0,0,0,0,0,0,-1,1889,1611,0,0
672,-587,0,0,0,0,0,0,0,0,0,-1,1896,1611,0,0
679,-587,0,0,0,0,0,0,0,0,0,-1,1903,1611,0,0
686,-587,0,0,0,0,0,0,0,0,0,-1,1910,1611,0,0
693,-587,0,0,0,0,0,0,0,0,0,-1,1917,1611,0,0
700,-587,0,0,0,0,0,0,0,0,0,-1,1924,1611,0,0
707,-587,0,0,0,0,0,0,0,0,0,-1,1931,1611,0,0
714,-587,0,0,0,0,0,0,0,0,0,-1,1938,1611,0,0
721,-587,0,0,0,0,0,0,0,0,0,-1,1945,1611,0,0
728,-587,0,0,0,0,0,0,0,0,0,-1,1952,1611,0,0
735,-587,0,0,0,0,0,0,0,0,0,-1,1959,1611,0,0
742,-587,0,0,0,0,0,0,0,0,0,-1,1966,1611,0,0
749,-587,0,0,0,0,0,0,0,0,0,-1,1973,1611,0,0
756,-587,0,0,0,0,0,0,0,0,0,-1,1980,1611,0,0
763,-587,0,0,0,0,0,0,0,0,0,-1,1987,1611,0,0
770,-587,0,0,0,0,0,0,0,0,0,-1,1994,1611,0,0
777,-587,0,0,0,0,0,0,0,0,0,-1,2001,1611,0,0
784,-587,0,0,0,0,0,0,0,0,0,-1,2008,1611,0,0
791,-587,0,0,0,0,0,0,0,0,0,-1,2015,1611,0,0
798,-587,0,0,0,0,0,0,0,0,0,-1,2022,1611,0,0
805,-587,0,0,0,0,0,0,0,0,0,-1,2029,1611,0,0
812,-587,0,0,0,0,0,0,0,0,0,-1,2036,1611,0,0
-700,-594,0,0,0,0,0,0,0,0,0,-1,524,1618,0,0
-693,-594,0,0,0,0,0,0,0,0,0,-1,531,1618,0,0
-686,-594,0,0,0,0,0,0,0,0,0,-1,538,1618,0,0
-679,-594,0,0,0,0,0,0,0,0,0,-1,545,1618,0,0
-672,-594,0,0,0,0,0,0,0,0,0,-1,552,1618,0,0
-665,-594,0,0,0,0,0,0,0,0,0,-1,559,1618,0,0
-658,-594,0,0,0,0,0,0,0,0,0,-1,566,1618,0,0
-651,-594,0,0,0,0,0,0,0,0,0,-1,573,1618,0,0
-644,-594,0,0,0,0,0,0,0,0,0,-1,580,1618,0,0
-637,-594,0,0,0,0,0,0,0,0,0,-1,587,1618,0,0
-630,-594,0,0,0,0,0,0,0,0,0,-1,594,1618,0,0
-623,-594,0,0,0,0,0,0,0,0,0,-1,601,1618,0,0
-616,-594,0,0,0,0,0,0,0,0,0,-1,608,1618,0,0
-609,-594,0,0,0,0,0,0,0,0,0,-1,615,1618,0,0
-602,-594,0,0,0,0,0,0,0,0,0,-1,622,1618,0,0
-595,-594,0,0,0,0,0,0,0,0,0,-1,629,1618,0,0
-588,-594,0,0,0,0,0,0,0,0,0,-1,636,1618,0,0
-581,-594,0,0,0,0,0,0,0,0,0,-1,643,1618,0,0
-574,-594,0,0,0,0,0,0,0,0,0,-1,650,1618,0,0
-567,-594,0,0,0,0,0,0,0,0,0,-1,657,1618,0,0
-560,-594,0,0,0,0,0,0,0,0,0,-1,664,1618,0,0
-553,-594,0,0,0,0,0,0,0,0,0,-1,671,1618,0,0
-546,-594,0,0,0,0,0,0,0,0,0,-1,678,1618,0,0
-539,-594,0,0,0,0,0,0,0,0,0,-1,685,1618,0,0
-532,-594,0,0,0,0,0,0,0,0,0,-1,692,1618,0,0
-525,-594,0,0,0,0,0,0,0,0,0,-1,699,1618,0,0
-518,-594,0,0,0,0,0,0,0,0,0,-1,706,1618,0,0
-511,-594,0,0,0,0,0,0,0,0,0,-1,713,1618,0,0
-504,-594,0,0,0,0,0,0,0,0,0,-1,720,1618,0,0
-497,-594,0,0,0,0,0,0,0,0,0,-1,727,1618,0,0
-490,-594,0,0,0,0,0,0,0,0,0,-1,734,1618,0,0
-483,-594,0,0,0,0,0,0,0,0,0,-1,741,1618,0,0
-476,-594,0,0,0,0,0,0,0,0,0,-1,748,1618,0,0
-469,-594,0,0,0,0,0,0,0,0,0,-1,755,1618,0,0
-462,-594,0,0,0,0,0,0,0,0,0,-1,762,1618,0,0
-455,-594,-0.509216,-1.58411,0,0,0,0,0,0,0,-1,769,1618,-0.509245,1.58415
-448,-594,-7.71887,-0.0559082,0,0,0,0,0,0,0,-1,776,1618,-7.71885,0.055939
-441,-594,-5.78473,1.18298,0,0,0,0,0,0,0,-1,783,1618,-5.78474,-1.18295
-434,-594,-3.93628,3.06213,0,0,0,0,0,0,0,-1,790,1618,-3.93631,-3.06208
-427,-594,-3.97693,6.77759,0,0,0,0,0,0,0,-1,797,1618,-3.97695,-6.77764
-420,-594,-2.53046,7.71606,0,0,0,0,0,0,0,-1,804,1618,-2.53047,-7.71609
-413,-594,-0.860413,8.00391,0,0,0,0,0,0,0,-1,811,1618,-0.860423,-8.00389
-406,-594,2.45746,13.6218,0,0,0,0,0,0,0,-1,818,1618,2.45747,-13.6218
-399,-594,1.30414,24.9963,0,0,0,0,0,0,0,-1,825,1618,1.30415,-24.9963
-392,-594,-0.408325,35.5535,0,0,0,0,0,0,0,-1,832,1618,-0.408317,-35.5535
-385,-594,-0.503601,36.1301,-0.00146711,-0.00142335,0.00112047,-0.000324544,-0.00256591,0.795161,0.00161334,0.0469607,839,1618,-0.503592,-36.1301
-378,-594,-0.652954,36.6639,-0.000843772,-0.000997976,0.00128437,0.000365812,-0.00220756,0.755419,0.00160758,0.0214683,846,1618,-0.652947,-36.664
-371,-594,-0.627563,37.4736,-0.000513273,-0.000761997,0.00121335,0.000582067,-0.00185734,0.734329,0.00147114,0.0142855,853,1618,-0.627589,-37.4737
-364,-594,-0.64325,38.2054,-0.000240139,-0.000564004,0.00111099,0.000720656,-0.0015248,0.71303,0.00132383,0.0114924,860,1618,-0.643263,-38.2054
-357,-594,-0.674072,38.9401,0.000131923,-0.000219261,0.00110471,0.00107491,-0.00116225,0.706583,0.00129195,0.0109878,867,1618,-0.674091,-38.9401
-350,-594,-0.725952,39.6975,0.000549364,0.000171345,0.00110433,0.00148075,-0.000760038,0.700643,0.00131583,0.0165359,874,1618,-0.72594,-39.6975
-343,-594,-0.796509,40.431,0.00092478,0.000669615,0.00115042,0.00195467,-0.000360278,0.730174,0.00143833,0.0195158,881,1618,-0.796527,-40.4311
-336,-594,-0.859192,41.1378,0.00131355,0.00130821,0.00128225,0.00259314,2.86261e-05,0.784356,0.0017193,0.0160838,888,1618,-0.859164,-41.1378
-329,-594,-0.873962,41.8577,0.00200922,0.00230721,0.00153333,0.00369877,0.000617661,0.833833,0.00228792,0.0155447,895,1618,-0.873963,-41.8577
-322,-594,-0.846924,42.6107,0.00311109,0.00339191,0.00202264,0.00527901,0.00122399,0.820051,0.00319058,0.0170175,902,1618,-0.846936,-42.6107
-315,-594,-0.881226,43.335,0.00424961,0.0046084,0.00276497,0.00719979,0.00165822,0.817794,0.00435369,0.0167074,909,1618,-0.881212,-43.335
-308,-594,-0.88501,44.005,0.00559514,0.00592708,0.00354967,0.00931466,0.00220756,0.808759,0.00562034,0.015212,916,1618,-0.885026,-44.005
-301,-594,-0.925049,44.6825,0.00726879,0.00735475,0.004632,0.011944,0.00267957,0.790037,0.00723675,0.0123327,923,1618,-0.92504,-44.6825
-294,-594,-0.92395,45.3715,0.00924726,0.00945549,0.00611397,0.0154662,0.00323652,0.793912,0.0094192,0.0134242,930,1618,-0.92396,-45.3715
-287,-594,-1.00214,46.0564,0.0117597,0.0117196,0.00779834,0.019538,0.00394128,0.78411,0.0119306,0.0193577,937,1618,-1.00214,-46.0564
-280,-594,-0.94574,46.7721,0.0148209,0.0139543,0.00989244,0.0242895,0.00448569,0.763512,0.0149242,0.021939,944,1618,-0.945711,-46.7721
-273,-594,-0.733154,47.537,0.0181334,0.0160467,0.0123459,0.02948,0.00470014,0.743243,0.018289,0.029279,951,1618,-0.733166,-47.537
-266,-594,-0.508728,48.3485,0.0215081,0.0184212,0.0150264,0.0350701,0.00485913,0.73422,0.0219405,0.0349505,958,1618,-0.5087,-48.3485
-259,-594,-0.310303,49.2148,0,0,0,0,0,0,0,-1,965,1618,-0.310302,-49.2149
-252,-594,-0.169922,49.8015,0,0,0,0,0,0,0,-1,972,1618,-0.169901,-49.8015
-245,-594,2.27759,35.1766,0,0,0,0,0,0,0,-1,979,1618,2.27756,-35.1766
-238,-594,2.09015,28.0121,0,0,0,0,0,0,0,-1,986,1618,2.09012,-28.0121
-231,-594,1.93774,9.35388,0,0,0,0,0,0,0,-1,993,1618,1.93776,-9.35393
-224,-594,1.81824,8.62744,0,0,0,0,0,0,0,-1,1000,1618,1.81822,-8.62745
-217,-594,-8.24066,12.0752,0,0,0,0,0,0,0,-1,1007,1618,-8.24068,-12.0751
-210,-594,-5.61438,14.2119,0,0,0,0,0,0,0,-1,1014,1618,-5.6144,-14.212
-203,-594,-3.94507,15.5768,0,0,0,0,0,0,0,-1,1021,1618,-3.94506,-15.5768
-196,-594,2.78613,10.5815,0,0,0,0,0,0,0,-1,1028,1618,2.78612,-10.5815
-189,-594,2.60913,9.48865,0,0,0,0,0,0,0,-1,1035,1618,2.6091,-9.48871
-182,-594,1.2395,9.38806,0,0,0,0,0,0,0,-1,1042,1618,1.23951,-9.38804
-175,-594,0.234863,8.73792,0,0,0,0,0,0,0,-1,1049,1618,0.234812,-8.73786
-168,-594,-0.495483,8.46289,0,0,0,0,0,0,0,-1,1056,1618,-0.495513,-8.46285
-161,-594,-1.39734,8.28699,0,0,0,0,0,0,0,-1,1063,1618,-1.39729,-8.28699
-154,-594,-0.000854492,7.68445,0,0,0,0,0,0,0,-1,1070,1618,-0.000805755,-7.6845
-147,-594,0.348267,9.3385,0,0,0,0,0,0,0,-1,1077,1618,0.348237,-9.33849
-140,-594,0.675171,11.5884,0,0,0,0,0,0,0,-1,1084,1618,0.675204,-11.5884
-133,-594,0,0,0,0,0,0,0,0,0,-1,1091,1618,0,0
-126,-594,0,0,0,0,0,0,0,0,0,-1,1098,1618,0,0
-119,-594,0,0,0,0,0,0,0,0,0,-1,1105,1618,0,0
-112,-594,0,0,0,0,0,0,0,0,0,-1,1112,1618,0,0
-105,-594,0,0,0,0,0,0,0,0,0,-1,1119,1618,0,0
-98,-594,0,0,0,0,0,0,0,0,0,-1,1126,1618,0,0
-91,-594,0,0,0,0,0,0,0,0,0,-1,1133,1618,0,0
-84,-594,0,0,0,0,0,0,0,0,0,-1,1140,1618,0,0
-77,-594,0,0,0,0,0,0,0,0,0,-1,1147,1618,0,0
-70,-594,0,0,0,0,0,0,0,0,0,-1,1154,1618,0,0
-63,-594,0,0,0,0,0,0,0,0,0,-1,1161,1618,0,0
-56,-594,0,0,0,0,0,0,0,0,0,-1,1168,1618,0,0
-49,-594,0,0,0,0,0,0,0,0,0,-1,1175,1618,0,0
-42,-594,0,0,0,0,0,0,0,0,0,-1,1182,1618,0,0
-35,-594,0,0,0,0,0,0,0,0,0,-1,1189,1618,0,0
-28,-594,0,0,0,0,0,0,0,0,0,-1,1196,1618,0,0
-21,-594,0,0,0,0,0,0,0,0,0,-1,1203,1618,0,0
-14,-594,0,0,0,0,0,0,0,0,0,-1,1210,1618,0,0
-7,-594,0,0,0,0,0,0,0,0,0,-1,1217,1618,0,0
0,-594,0,0,0,0,0,0,0,0,0,-1,1224,1618,0,0
7,-594,0,0,0,0,0,0,0,0,0,-1,1231,1618,0,0
14,-594,0,0,0,0,0,0,0,0,0,-1,1238,1618,0,0
21,-594,0,0,0,0,0,0,0,0,0,-1,1245,1618,0,0
28,-594,0,0,0,0,0,0,0,0,0,-1,1252,1618,0,0
35,-594,0,0,0,0,0,0,0,0,0,-1,1259,1618,0,0
42,-594,0,0,0,0,0,0,0,0,0,-1,1266,1618,0,0
49,-594,0,0,0,0,0,0,0,0,0,-1,1273,1618,0,0
56,-594,0,0,0,0,0,0,0,0,0,-1,1280,1618,0,0
63,-594,0,0,0,0,0,0,0,0,0,-1,1287,1618,0,0
70,-594,0,0,0,0,0,0,0,0,0,-1,1294,1618,0,0
77,-594,0,0,0,0,0,0,0,0,0,-1,1301,1618,0,0
84,-594,0,0,0,0,0,0,0,0,0,-1,1308,1618,0,0
91,-594,0,0,0,0,0,0,0,0,0,-1,1315,1618,0,0
98,-594,0,0,0,0,0,0,0,0,0,-1,1322,1618,0,0
105,-594,0,0,0,0,0,0,0,0,0,-1,1329,1618,0,0
112,-594,0,0,0,0,0,0,0,0,0,-1,1336,1618,0,0
119,-594,0,0,0,0,0,0,0,0,0,-1,1343,1618,0,0
126,-594,0,0,0,0,0,0,0,0,0,-1,1350,1618,0,0
133,-594,0,0,0,0,0,0,0,0,0,-1,1357,1618,0,0
140,-594,0,0,0,0,0,0,0,0,0,-1,1364,1618,0,0
147,-594,0,0,0,0,0,0,0,0,0,-1,1371,1618,0,0
154,-594,0,0,0,0,0,0,0,0,0,-1,1378,1618,0,0
161,-594,0,0,0,0,0,0,0,0,0,-1,1385,1618,0,0
168,-594,0,0,0,0,0,0,0,0,0,-1,1392,1618,0,0
175,-594,0,0,0,0,0,0,0,0,0,-1,1399,1618,0,0
182,-594,0,0,0,0,0,0,0,0,0,-1,1406,1618,0,0
189,-594,0,0,0,0,0,0,0,0,0,-1,1413,1618,0,0
196,-594,0,0,0,0,0,0,0,0,0,-1,1420,1618,0,0
203,-594,0,0,0,0,0,0,0,0,0,-1,1427,1618,0,0
210,-594,0,0,0,0,0,0,0,0,0,-1,1434,1618,0,0
217,-594,0,0,0,0,0,0,0,0,0,-1,1441,1618,0,0
224,-594,0,0,0,0,0,0,0,0,0,-1,1448,1618,0,0
231,-594,0,0,0,0,0,0,0,0,0,-1,1455,1618,0,0
238,-594,0,0,0,0,0,0,0,0,0,-1,1462,1618,0,0
245,-594,0,0,0,0,0,0,0,0,0,-1,1469,1618,0,0
252,-594,3.03674,1.20996,0,0,0,0,0,0,0,-1,1476,1618,3.0368,-1.20999
259,-594,4.79834,1.53113,0,0,0,0,0,0,0,-1,1483,1618,4.79837,-1.53118
266,-594,3.71606,2.68152,0,0,0,0,0,0,0,-1,1490,1618,3.71609,-2.68149
273,-594,9.7655,6.33557,0,0,0,0,0,0,0,-1,1497,1618,9.76555,-6.33554
280,-594,3.13281,0.911255,0,0,0,0,0,0,0,-1,1504,1618,3.13277,-0.911207
287,-594,4.42749,1.51563,0,0,0,0,0,0,0,-1,1511,1618,4.42747,-1.51564
294,-594,5.36475,3.34937,0,0,0,0,0,0,0,-1,1518,1618,5.36475,-3.3494
301,-594,7.97144,9.04333,0,0,0,0,0,0,0,-1,1525,1618,7.9714,-9.04328
308,-594,6.30347,10.4633,0,0,0,0,0,0,0,-1,1532,1618,6.30351,-10.4633
315,-594,4.62012,11.934,0,0,0,0,0,0,0,-1,1539,1618,4.62006,-11.934
322,-594,2.91528,13.3134,0,0,0,0,0,0,0,-1,1546,1618,2.91523,-13.3133
329,-594,4.19861,9.77258,0,0,0,0,0,0,0,-1,1553,1618,4.19865,-9.77264
336,-594,10.1353,4.66528,0,0,0,0,0,0,0,-1,1560,1618,10.1353,-4.66533
343,-594,14.5114,50.6094,0,0,0,0,0,0,0,-1,1567,1618,14.5113,-50.6094
350,-594,15.8859,52.4031,0,0,0,0,0,0,0,-1,1574,1618,15.8859,-52.4031
357,-594,16.4091,51.8136,0,0,0,0,0,0,0,-1,1581,1618,16.409,-51.8136
364,-594,16.9254,51.2567,0,0,0,0,0,0,0,-1,1588,1618,16.9254,-51.2567
371,-594,17.3354,50.708,0,0,0,0,0,0,0,-1,1595,1618,17.3355,-50.708
378,-594,17.5054,50.2045,0,0,0,0,0,0,0,-1,1602,1618,17.5054,-50.2044
385,-594,18.0648,49.6298,0,0,0,0,0,0,0,-1,1609,1618,18.0649,-49.6298
392,-594,18.631,48.8042,0.0193215,0.0260178,-0.0136265,0.0367015,0.00863787,-0.905866,0.0221569,0.0492523,1616,1618,18.631,-48.8042
399,-594,18.9797,47.5156,0.0155113,0.02229,-0.0108444,0.0302624,0.00753891,-0.936859,0.0181904,0.0452322,1623,1618,18.9797,-47.5156
406,-594,19.0375,46.8777,0.0122278,0.0190884,-0.00873133,0.0250391,0.00627706,-0.972572,0.0150434,0.0275995,1630,1618,19.0375,-46.8777
413,-594,19.0057,46.203,0.00954669,0.0165432,-0.00728073,0.0211225,0.00496738,-1.00935,0.0127525,0.01903,1637,1618,19.0058,-46.203
420,-594,18.994,45.5311,0.00731997,0.0144112,-0.00613862,0.0179546,0.00377658,-1.04729,0.0109306,0.0153695,1644,1618,18.994,-45.5311
427,-594,19.0165,44.8529,0.00565475,0.0124812,-0.00523212,0.015315,0.00282095,-1.07441,0.00941164,0.013244,1651,1618,19.0164,-44.8529
434,-594,18.9574,44.1483,0.00440886,0.0107586,-0.00456559,0.0131447,0.00202277,-1.08921,0.00817277,0.0194202,1658,1618,18.9574,-44.1484
441,-594,18.9128,43.4247,0.00366058,0.00925446,-0.00417725,0.0114847,0.00143036,-1.0804,0.007227,0.0191453,1665,1618,18.9128,-43.4247
448,-594,18.9327,42.7401,0.00283836,0.0074973,-0.00358801,0.00944571,0.000889952,-1.07332,0.00602245,0.0181372,1672,1618,18.9327,-42.7402
455,-594,18.8795,42.0323,0.00248219,0.00631261,-0.00337708,0.00827975,0.000515046,-1.04334,0.00535641,0.0128353,1679,1618,18.8795,-42.0323
462,-594,18.8368,41.3312,0.0023698,0.00494968,-0.00320686,0.00711632,0.000203163,-0.976617,0.00467796,0.0140653,1686,1618,18.8368,-41.3312
469,-594,18.8185,40.6647,0.00227195,0.00359806,-0.00294798,0.00595663,-8.66237e-05,-0.896017,0.00400027,0.0128025,1693,1618,18.8184,-40.6647
476,-594,18.7874,39.9617,0.00208241,0.00232071,-0.00257896,0.00478327,-0.000380155,-0.808482,0.00332282,0.0129095,1700,1618,18.7873,-39.9616
483,-594,18.7369,39.2352,0.00178863,0.00102005,-0.00225051,0.00368743,-0.000878747,-0.700835,0.00279759,0.0166478,1707,1618,18.737,-39.2352
490,-594,18.6927,38.5109,0.00136463,-0.00011072,-0.00186937,0.00263661,-0.0013827,-0.597472,0.00235789,0.0148472,1714,1618,18.6927,-38.5108
497,-594,18.6675,37.7892,0.000867704,-0.00103079,-0.00159441,0.00177404,-0.00193713,-0.516898,0.00214334,0.0111362,1721,1618,18.6675,-37.7891
504,-594,18.62,37.0674,0.000344127,-0.00198408,-0.00136346,0.000972829,-0.00261278,-0.432053,0.00214111,0.0117125,1728,1618,18.62,-37.0673
511,-594,18.5966,36.3066,-0.000126025,-0.0028357,-0.00118789,0.000320991,-0.00328272,-0.359918,0.00230294,0.0178473,1735,1618,18.5965,-36.3066
518,-594,18.5271,35.5653,-0.000486341,-0.00354323,-0.00124499,-4.34536e-05,-0.00398612,-0.341775,0.00264305,0.0240529,1742,1618,18.5271,-35.5653
525,-594,18.4609,34.9125,-0.000942601,-0.00454061,-0.00107845,-0.000644116,-0.0048391,-0.270014,0.00303423,0.0380824,1749,1618,18.4609,-34.9125
532,-594,18.9161,34.049,0,0,0,0,0,0,0,-1,1756,1618,18.9161,-34.049
539,-594,21.0237,24.9617,0,0,0,0,0,0,0,-1,1763,1618,21.0237,-24.9616
546,-594,7.48645,8.54785,0,0,0,0,0,0,0,-1,1770,1618,7.48639,-8.54789
553,-594,3.69714,5.68762,0,0,0,0,0,0,0,-1,1777,1618,3.69715,-5.68764
560,-594,6.06616,4.44482,0,0,0,0,0,0,0,-1,1784,1618,6.06621,-4.44477
567,-594,5.97266,4.73303,0,0,0,0,0,0,0,-1,1791,1618,5.97271,-4.73309
574,-594,5.9906,4.96326,0,0,0,0,0,0,0,-1,1798,1618,5.99065,-4.96326
581,-594,0,0,0,0,0,0,0,0,0,-1,1805,1618,0,0
588,-594,0,0,0,0,0,0,0,0,0,-1,1812,1618,0,0
595,-594,0,0,0,0,0,0,0,0,0,-1,1819,1618,0,0
602,-594,0,0,0,0,0,0,0,0,0,-1,1826,1618,0,0
609,-594,0,0,0,0,0,0,0,0,0,-1,1833,1618,0,0
616,-594,0,0,0,0,0,0,0,0,0,-1,1840,1618,0,0
623,-594,0,0,0,0,0,0,0,0,0,-1,1847,1618,0,0
630,-594,0,0,0,0,0,0,0,0,0,-1,1854,1618,0,0
637,-594,0,0,0,0,0,0,0,0,0,-1,1861,1618,0,0
644,-594,0,0,0,0,0,0,0,0,0,-1,1868,1618,0,0
651,-594,0,0,0,0,0,0,0,0,0,-1,1875,1618,0,0
658,-594,0,0,0,0,0,0,0,0,0,-1,1882,1618,0,0
665,-594,0,0,0,0,0,0,0,0,0,-1,1889,1618,0,0
672,-594,0,0,0,0,0,0,0,0,0,-1,1896,1618,0,0
679,-594,0,0,0,0,0,0,0,0,0,-1,1903,1618,0,0
686,-594,0,0,0,0,0,0,0,0,0,-1,1910,1618,0,0
693,-594,0,0,0,0,0,0,0,0,0,-1,1917,1618,0,0
700,-594,0,0,0,0,0,0,0,0,0,-1,1924,1618,0,0
707,-594,0,0,0,0,0,0,0,0,0,-1,1931,1618,0,0
714,-594,0,0,0,0,0,0,0,0,0,-1,1938,1618,0,0
721,-594,0,0,0,0,0,0,0,0,0,-1,1945,1618,0,0
728,-594,0,0,0,0,0,0,0,0,0,-1,1952,1618,0,0
735,-594,0,0,0,0,0,0,0,0,0,-1,1959,1618,0,0
742,-594,0,0,0,0,0,0,0,0,0,-1,1966,1618,0,0
749,-594,0,0,0,0,0,0,0,0,0,-1,1973,1618,0,0
756,-594,0,0,0,0,0,0,0,0,0,-1,1980,1618,0,0
763,-594,0,0,0,0,0,0,0,0,0,-1,1987,1618,0,0
770,-594,0,0,0,0,0,0,0,0,0,-1,1994,1618,0,0
777,-594,0,0,0,0,0,0,0,0,0,-1,2001,1618,0,0
784,-594,0,0,0,0,0,0,0,0,0,-1,2008,1618,0,0
791,-594,0,0,0,0,0,0,0,0,0,-1,2015,1618,0,0
798,-594,0,0,0,0,0,0,0,0,0,-1,2022,1618,0,0
805,-594,0,0,0,0,0,0,0,0,0,-1,2029,1618,0,0
812,-594,0,0,0,0,0,0,0,0,0,-1,2036,1618,0,0
-700,-601,0,0,0,0,0,0,0,0,0,-1,524,1625,0,0
-693,-601,0,0,0,0,0,0,0,0,0,-1,531,1625,0,0
-686,-601,0,0,0,0,0,0,0,0,0,-1,538,1625,0,0
-679,-601,0,0,0,0,0,0,0,0,0,-1,545,1625,0,0
-672,-601,0,0,0,0,0,0,0,0,0,-1,552,1625,0,0
-665,-601,0,0,0,0,0,0,0,0,0,-1,559,1625,0,0
-658,-601,0,0,0,0,0,0,0,0,0,-1,566,1625,0,0
-651,-601,0,0,0,0,0,0,0,0,0,-1,573,1625,0,0
-644,-601,0,0,0,0,0,0,0,0,0,-1,580,1625,0,0
-637,-601,0,0,0,0,0,0,0,0,0,-1,587,1625,0,0
-630,-601,0,0,0,0,0,0,0,0,0,-1,594,1625,0,0
-623,-601,0,0,0,0,0,0,0,0,0,-1,601,1625,0,0
-616,-601,0,0,0,0,0,0,0,0,0,-1,608,1625,0,0
-609,-601,0,0,0,0,0,0,0,0,0,-1,615,1625,0,0
-602,-601,0,0,0,0,0,0,0,0,0,-1,622,1625,0,0
-595,-601,0,0,0,0,0,0,0,0,0,-1,629,1625,0,0
-588,-601,0,0,0,0,0,0,0,0,0,-1,636,1625,0,0
-581,-601,0,0,0,0,0,0,0,0,0,-1,643,1625,0,0
-574,-601,0,0,0,0,0,0,0,0,0,-1,650,1625,0,0
-567,-601,0,0,0,0,0,0,0,0,0,-1,657,1625,0,0
-560,-601,0,0,0,0,0,0,0,0,0,-1,664,1625,0,0
-553,-601,0,0,0,0,0,0,0,0,0,-1,671,1625,0,0
-546,-601,0,0,0,0,0,0,0,0,0,-1,678,1625,0,0
-539,-601,0,0,0,0,0,0,0,0,0,-1,685,1625,0,0
-532,-601,0,0,0,0,0,0,0,0,0,-1,692,1625,0,0
-525,-601,0,0,0,0,0,0,0,0,0,-1,699,1625,0,0
-518,-601,0,0,0,0,0,0,0,0,0,-1,706,1625,0,0
-511,-601,0,0,0,0,0,0,0,0,0,-1,713,1625,0,0
-504,-601,0,0,0,0,0,0,0,0,0,-1,720,1625,0,0
-497,-601,0,0,0,0,0,0,0,0,0,-1,727,1625,0,0
-490,-601,0,0,0,0,0,0,0,0,0,-1,734,1625,0,0
-483,-601,0,0,0,0,0,0,0,0,0,-1,741,1625,0,0
-476,-601,0,0,0,0,0,0,0,0,0,-1,748,1625,0,0
-469,-601,0,0,0,0,0,0,0,0,0,-1,755,1625,0,0
-462,-601,0,0,0,0,0,0,0,0,0,-1,762,1625,0,0
-455,-601,0,0,0,0,0,0,0,0,0,-1,769,1625,0,0
-448,-601,-7.07623,2.7616,0,0,0,0,0,0,0,-1,776,1625,-7.07626,-2.76161
-441,-601,-6.06689,3.33447,0,0,0,0,0,0,0,-1,783,1625,-6.06691,-3.33448
-434,-601,-5.02655,3.8468,0,0,0,0,0,0,0,-1,790,1625,-5.02657,-3.84674
-427,-601,-5.78601,4.2406,0,0,0,0,0,0,0,-1,797,1625,-5.786,-4.24058
-420,-601,-5.5191,5.60364,0,0,0,0,0,0,0,-1,804,1625,-5.51907,-5.60368
-413,-601,-4.30756,5.86047,0,0,0,0,0,0,0,-1,811,1625,-4.30757,-5.86046
-406,-601,-1.67493,7.20422,0,0,0,0,0,0,0,-1,818,1625,-1.67493,-7.20428
-399,-601,1.40094,15.3108,0,0,0,0,0,0,0,-1,825,1625,1.40096,-15.3107
-392,-601,0.678833,30.98,0,0,0,0,0,0,0,-1,832,1625,0.678827,-30.98
-385,-601,0.312866,36.5791,0,0,0,0,0,0,0,-1,839,1625,0.312849,-36.5791
-378,-601,-0.000671387,36.7969,0,0,0,0,0,0,0,-1,846,1625,-0.000682841,-36.7969
-371,-601,0.113281,37.4489,-0.000636897,-0.000741778,0.00153429,0.000845846,-0.00222452,0.768315,0.00183128,0.0259902,853,1625,0.113303,-37.4488
-364,-601,0.0771484,38.2401,-0.000405325,-0.000707533,0.00138685,0.000838633,-0.00195149,0.731135,0.00165304,0.0135651,860,1625,0.0771443,-38.2402
-357,-601,0.0219116,39.0133,-5.4673e-05,-0.000537056,0.00135061,0.00107612,-0.00166785,0.69704,0.00159646,0.0106503,867,1625,0.0218845,-39.0133
-350,-601,0.00262451,39.7762,0.00032252,-0.000268792,0.0013086,0.00136845,-0.00131472,0.674297,0.00154923,0.0221646,874,1625,0.00261168,-39.7762
-343,-601,-0.085022,40.526,0.000685531,0.000161927,0.00131998,0.00176942,-0.000921959,0.687499,0.00157934,0.0262142,881,1625,-0.0850391,-40.526
-336,-601,-0.176392,41.2305,0.00101845,0.000671085,0.00136318,0.00221897,-0.000529432,0.722034,0.00168377,0.0232236,888,1625,-0.176421,-41.2305
-329,-601,-0.169189,41.9534,0.00155418,0.00148192,0.0015115,0.00302999,6.11995e-06,0.773449,0.00201795,0.0192604,895,1625,-0.169162,-41.9533
-322,-601,-0.148926,42.6587,0.00236666,0.00232042,0.0017917,0.00413539,0.000551694,0.778946,0.00259267,0.0135535,902,1625,-0.148923,-42.6587
-315,-601,-0.16272,43.3237,0.00324445,0.00328362,0.00228689,0.00555101,0.000977061,0.78968,0.00342181,0.0135388,909,1625,-0.162724,-43.3238
-308,-601,-0.204529,44.0133,0.0043103,0.00431305,0.00282397,0.00713564,0.00148771,0.785641,0.0043469,0.0135969,916,1625,-0.204538,-44.0133
-301,-601,-0.224487,44.7163,0.00561755,0.00545035,0.0035999,0.00913482,0.00193308,0.773789,0.00555871,0.0113188,923,1625,-0.224474,-44.7163
-294,-601,-0.248596,45.4116,0.00712575,0.00718133,0.00469756,0.0118512,0.00245589,0.788356,0.0072227,0.010423,930,1625,-0.248599,-45.4116
-287,-601,-0.319702,46.1194,0.00898673,0.00895248,0.00589068,0.0148603,0.0030789,0.783944,0.00905673,0.010873,937,1625,-0.319685,-46.1193
-280,-601,-0.318054,46.7939,0.011286,0.0106121,0.00739038,0.0183471,0.003551,0.762618,0.0112364,0.0125757,944,1625,-0.318079,-46.7939
-273,-601,-0.300293,47.4785,0.0138032,0.0121014,0.00917819,0.0221699,0.00373477,0.739176,0.0137057,0.0133163,951,1625,-0.300301,-47.4785
-266,-601,-0.272095,48.1801,0.0163362,0.0138521,0.011138,0.0263013,0.00388709,0.72987,0.0163928,0.0160717,958,1625,-0.272096,-48.1801
-259,-601,-0.154724,48.7883,0,0,0,0,0,0,0,-1,965,1625,-0.154705,-48.7884
-252,-601,-0.149231,50.0795,0,0,0,0,0,0,0,-1,972,1625,-0.149256,-50.0795
-245,-601,-0.200134,50.9512,0,0,0,0,0,0,0,-1,979,1625,-0.200163,-50.9511
-238,-601,2.75482,35.777,0,0,0,0,0,0,0,-1,986,1625,2.75481,-35.777
-231,-601,2.66772,13.7051,0,0,0,0,0,0,0,-1,993,1625,2.6677,-13.7051
-224,-601,-0.0305176,9.13684,0,0,0,0,0,0,0,-1,1000,1625,-0.030498,-9.13681
-217,-601,3.39429,10.3898,0,0,0,0,0,0,0,-1,1007,1625,3.39431,-10.3898
-210,-601,-6.53699,15.7931,0,0,0,0,0,0,0,-1,1014,1625,-6.53697,-15.7931
-203,-601,2.69348,15.9099,0,0,0,0,0,0,0,-1,1021,1625,2.69351,-15.91
-196,-601,2.66992,16.1815,0,0,0,0,0,0,0,-1,1028,1625,2.66995,-16.1815
-189,-601,2.849,16.6105,0,0,0,0,0,0,0,-1,1035,1625,2.84902,-16.6104
-182,-601,1.82153,13.9752,0,0,0,0,0,0,0,-1,1042,1625,1.82155,-13.9752
-175,-601,0.544922,9.28687,0,0,0,0,0,0,0,-1,1049,1625,0.544879,-9.28685
-168,-601,-0.247559,8.97461,0,0,0,0,0,0,0,-1,1056,1625,-0.247598,-8.97466
-161,-601,-1.16833,8.80078,0,0,0,0,0,0,0,-1,1063,1625,-1.16837,-8.80081
-154,-601,1.12756,7.94861,0,0,0,0,0,0,0,-1,1070,1625,1.12762,-7.94855
-147,-601,1.35352,9.55432,0,0,0,0,0,0,0,-1,1077,1625,1.35351,-9.55429
-140,-601,1.72437,11.1498,0,0,0,0,0,0,0,-1,1084,1625,1.72432,-11.1498
-133,-601,2.13281,12.8347,0,0,0,0,0,0,0,-1,1091,1625,2.13287,-12.8348
-126,-601,3.09534,15.427,0,0,0,0,0,0,0,-1,1098,1625,3.0953,-15.4271
-119,-601,1.22485,9.43457,0,0,0,0,0,0,0,-1,1105,1625,1.22489,-9.43456
-112,-601,0,0,0,0,0,0,0,0,0,-1,1112,1625,0,0
-105,-601,0,0,0,0,0,0,0,0,0,-1,1119,1625,0,0
-98,-601,0,0,0,0,0,0,0,0,0,-1,1126,1625,0,0
-91,-601,0,0,0,0,0,0,0,0,0,-1,1133,1625,0,0
-84,-601,0,0,0,0,0,0,0,0,0,-1,1140,1625,0,0
-77,-601,0,0,0,0,0,0,0,0,0,-1,1147,1625,0,0
-70,-601,0,0,0,0,0,0,0,0,0,-1,1154,1625,0,0
-63,-601,0,0,0,0,0,0,0,0,0,-1,1161,1625,0,0
-56,-601,0,0,0,0,0,0,0,0,0,-1,1168,1625,0,0
-49,-601,0,0,0,0,0,0,0,0,0,-1,1175,1625,0,0
-42,-601,0,0,0,0,0,0,0,0,0,-1,1182,1625,0,0
-35,-601,0,0,0,0,0,0,0,0,0,-1,1189,1625,0,0
-28,-601,0,0,0,0,0,0,0,0,0,-1,1196,1625,0,0
-21,-601,0,0,0,0,0,0,0,0,0,-1,1203,1625,0,0
-14,-601,0,0,0,0,0,0,0,0,0,-1,1210,1625,0,0
-7,-601,0,0,0,0,0,0,0,0,0,-1,1217,1625,0,0
0,-601,0,0,0,0,0,0,0,0,0,-1,1224,1625,0,0
7,-601,0,0,0,0,0,0,0,0,0,-1,1231,1625,0,0
14,-601,0,0,0,0,0,0,0,0,0,-1,1238,1625,0,0
21,-601,0,0,0,0,0,0,0,0,0,-1,1245,1625,0,0
28,-601,0,0,0,0,0,0,0,0,0,-1,1252,1625,0,0
35,-601,0,0,0,0,0,0,0,0,0,-1,1259,1625,0,0
42,-601,0,0,0,0,0,0,0,0,0,-1,1266,1625,0,0
49,-601,0,0,0,0,0,0,0,0,0,-1,1273,1625,0,0
56,-601,0,0,0,0,0,0,0,0,0,-1,1280,1625,0,0
63,-601,0,0,0,0,0,0,0,0,0,-1,1287,1625,0,0
70,-601,0,0,0,0,0,0,0,0,0,-1,1294,1625,0,0
77,-601,0,0,0,0,0,0,0,0,0,-1,1301,1625,0,0
84,-601,0,0,0,0,0,0,0,0,0,-1,1308,1625,0,0
91,-601,0,0,0,0,0,0,0,0,0,-1,1315,1625,0,0
98,-601,0,0,0,0,0,0,0,0,0,-1,1322,1625,0,0
105,-601,0,0,0,0,0,0,0,0,0,-1,1329,1625,0,0
112,-601,0,0,0,0,0,0,0,0,0,-1,1336,1625,0,0
119,-601,0,0,0,0,0,0,0,0,0,-1,1343,1625,0,0
126,-601,0,0,0,0,0,0,0,0,0,-1,1350,1625,0,0
133,-601,0,0,0,0,0,0,0,0,0,-1,1357,1625,0,0
140,-601,0,0,0,0,0,0,0,0,0,-1,1364,1625,0,0
147,-601,0,0,0,0,0,0,0,0,0,-1,1371,1625,0,0
154,-601,0,0,0,0,0,0,0,0,0,-1,1378,1625,0,0
161,-601,0,0,0,0,0,0,0,0,0,-1,1385,1625,0,0
168,-601,0,0,0,0,0,0,0,0,0,-1,1392,1625,0,0
175,-601,0,0,0,0,0,0,0,0,0,-1,1399,1625,0,0
182,-601,0,0,0,0,0,0,0,0,0,-1,1406,1625,0,0
189,-601,0,0,0,0,0,0,0,0,0,-1,1413,1625,0,0
196,-601,0,0,0,0,0,0,0,0,0,-1,1420,1625,0,0
203,-601,0,0,0,0,0,0,0,0,0,-1,1427,1625,0,0
210,-601,0,0,0,0,0,0,0,0,0,-1,1434,1625,0,0
217,-601,0,0,0,0,0,0,0,0,0,-1,1441,1625,0,0
224,-601,0,0,0,0,0,0,0,0,0,-1,1448,1625,0,0
231,-601,-0.0371094,0.525879,0,0,0,0,0,0,0,-1,1455,1625,-0.0371518,-0.525824
238,-601,2.03369,-1.32861,0,0,0,0,0,0,0,-1,1462,1625,2.03364,1.32858
245,-601,2.71375,2.44983,0,0,0,0,0,0,0,-1,1469,1625,2.71371,-2.44979
252,-601,4.66943,2.28381,0,0,0,0,0,0,0,-1,1476,1625,4.66947,-2.28376
259,-601,6.42712,2.61987,0,0,0,0,0,0,0,-1,1483,1625,6.42711,-2.61985
266,-601,6.75317,1.68701,0,0,0,0,0,0,0,-1,1490,1625,6.75323,-1.687
273,-601,5.4314,2.92053,0,0,0,0,0,0,0,-1,1497,1625,5.43144,-2.92051
280,-601,4.64722,1.17786,0,0,0,0,0,0,0,-1,1504,1625,4.64722,-1.1779
287,-601,5.32532,2.6217,0,0,0,0,0,0,0,-1,1511,1625,5.32535,-2.62171
294,-601,5.97693,4.22693,0,0,0,0,0,0,0,-1,1518,1625,5.97697,-4.22694
301,-601,7.28162,9.50024,0,0,0,0,0,0,0,-1,1525,1625,7.28162,-9.50025
308,-601,6.53528,10.3927,0,0,0,0,0,0,0,-1,1532,1625,6.53529,-10.3927
315,-601,4.88013,11.7184,0,0,0,0,0,0,0,-1,1539,1625,4.88015,-11.7184
322,-601,3.38098,12.7864,0,0,0,0,0,0,0,-1,1546,1625,3.38104,-12.7864
329,-601,1.8772,13.8768,0,0,0,0,0,0,0,-1,1553,1625,1.87716,-13.8768
336,-601,4.67847,9.53308,0,0,0,0,0,0,0,-1,1560,1625,4.67848,-9.53309
343,-601,11.1404,3.14575,0,0,0,0,0,0,0,-1,1567,1625,11.1404,-3.1458
350,-601,12.5974,49.7725,0,0,0,0,0,0,0,-1,1574,1625,12.5974,-49.7724
357,-601,15.9159,51.9865,0,0,0,0,0,0,0,-1,1581,1625,15.9159,-51.9865
364,-601,16.4076,51.4857,0,0,0,0,0,0,0,-1,1588,1625,16.4075,-51.4857
371,-601,16.8138,50.9564,0,0,0,0,0,0,0,-1,1595,1625,16.8138,-50.9565
378,-601,18.0874,49.9517,0,0,0,0,0,0,0,-1,1602,1625,18.0873,-49.9517
385,-601,17.9115,49.1509,0,0,0,0,0,0,0,-1,1609,1625,17.9115,-49.1509
392,-601,18.0507,48.3499,0.0151611,0.0204811,-0.0103515,0.0285089,0.00713335,-0.911161,0.0171306,0.042083,1616,1625,18.0507,-48.3499
399,-601,18.3046,47.5214,0.0123783,0.0174456,-0.00826922,0.0235606,0.00626329,-0.934057,0.0140912,0.0214319,1623,1625,18.3046,-47.5214
406,-601,18.3624,46.8281,0.00991463,0.0148077,-0.00665439,0.019451,0.00527127,-0.961555,0.011616,0.0136248,1630,1625,18.3625,-46.8281
413,-601,18.3046,46.1724,0.00780652,0.0125716,-0.00544234,0.0161301,0.00424806,-0.99172,0.0096541,0.0126933,1637,1625,18.3045,-46.1724
420,-601,18.2903,45.4679,0.00604321,0.0107736,-0.00453614,0.0135241,0.00329267,-1.02571,0.00814353,0.0108176,1644,1625,18.2903,-45.4679
427,-601,18.2933,44.7994,0.00466656,0.00913955,-0.00383073,0.0113389,0.00246724,-1.04962,0.00688578,0.0145522,1651,1625,18.2933,-44.7994
434,-601,18.2556,44.11,0.00362265,0.00776304,-0.00335546,0.00963553,0.00175015,-1.0618,0.00592707,0.0160834,1658,1625,18.2556,-44.11
441,-601,18.243,43.4327,0.00300531,0.00657339,-0.00313759,0.00839868,0.00118002,-1.0439,0.00525017,0.0187141,1665,1625,18.243,-43.4327
448,-601,18.2375,42.7773,0.00239528,0.00520791,-0.0027983,0.0069334,0.000669789,-1.01824,0.00441597,0.0149258,1672,1625,18.2376,-42.7773
455,-601,18.202,42.0551,0.0021602,0.00428099,-0.00275992,0.00617721,0.000263982,-0.968809,0.00403303,0.01351,1679,1625,18.202,-42.0551
462,-601,18.1532,41.3632,0.00210718,0.00316523,-0.00273375,0.00542067,-0.00014826,-0.880974,0.0036642,0.0125934,1686,1625,18.1532,-41.3632
469,-601,18.1361,40.7157,0.00204626,0.00204372,-0.00261034,0.00465534,-0.000565352,-0.785155,0.00330815,0.0126601,1693,1625,18.1361,-40.7158
476,-601,18.0977,39.9945,0.00193278,0.000982075,-0.00237405,0.0038786,-0.000963739,-0.68659,0.00295975,0.0148569,1700,1625,18.0977,-39.9946
483,-601,18.0242,39.2701,0.00172147,-0.00014085,-0.00220901,0.00318755,-0.00160693,-0.585935,0.00281779,0.0178859,1707,1625,18.0241,-39.2702
490,-601,17.9811,38.5619,0.00130081,-0.00103869,-0.00199417,0.002443,-0.00218087,-0.52015,0.00267102,0.0135052,1714,1625,17.9811,-38.5619
497,-601,17.9651,37.8247,0.000850017,-0.0018979,-0.00186746,0.0017945,-0.00284238,-0.468243,0.00269979,0.01275,1721,1625,17.9651,-37.8247
504,-601,18.0056,37.0842,0.00039767,-0.00270607,-0.00176332,0.00119476,-0.00350316,-0.424548,0.00281938,0.0262015,1728,1625,18.0056,-37.0843
511,-601,17.884,36.4706,-4.83319e-05,-0.00351555,-0.00170199,0.000647495,-0.00421138,-0.388097,0.00304644,0.0412606,1735,1625,17.884,-36.4705
518,-601,17.7352,35.708,-0.000427951,-0.00425923,-0.00189695,0.000352348,-0.00503953,-0.390248,0.00348308,0.0499583,1742,1625,17.7352,-35.708
525,-601,17.6476,34.9851,0,0,0,0,0,0,0,-1,1749,1625,17.6476,-34.9851
532,-601,15.9053,24.3068,0,0,0,0,0,0,0,-1,1756,1625,15.9053,-24.3067
539,-601,7.77112,11.4299,0,0,0,0,0,0,0,-1,1763,1625,7.77116,-11.4299
546,-601,6.56873,3.62354,0,0,0,0,0,0,0,-1,1770,1625,6.56867,-3.62352
553,-601,7.03015,4.25049,0,0,0,0,0,0,0,-1,1777,1625,7.03011,-4.25048
560,-601,7.50745,4.83374,0,0,0,0,0,0,0,-1,1784,1625,7.50744,-4.83376
567,-601,7.82043,3.83301,0,0,0,0,0,0,0,-1,1791,1625,7.82041,-3.83303
574,-601,0,0,0,0,0,0,0,0,0,-1,1798,1625,0,0
581,-601,0,0,0,0,0,0,0,0,0,-1,1805,1625,0,0
588,-601,0,0,0,0,0,0,0,0,0,-1,1812,1625,0,0
595,-601,0,0,0,0,0,0,0,0,0,-1,1819,1625,0,0
602,-601,0,0,0,0,0,0,0,0,0,-1,1826,1625,0,0
609,-601,0,0,0,0,0,0,0,0,0,-1,1833,1625,0,0
616,-601,0,0,0,0,0,0,0,0,0,-1,1840,1625,0,0
623,-601,0,0,0,0,0,0,0,0,0,-1,1847,1625,0,0
630,-601,0,0,0,0,0,0,0,0,0,-1,1854,1625,0,0
637,-601,0,0,0,0,0,0,0,0,0,-1,1861,1625,0,0
644,-601,0,0,0,0,0,0,0,0,0,-1,1868,1625,0,0
651,-601,0,0,0,0,0,0,0,0,0,-1,1875,1625,0,0
658,-601,0,0,0,0,0,0,0,0,0,-1,1882,1625,0,0
665,-601,0,0,0,0,0,0,0,0,0,-1,1889,1625,0,0
672,-601,0,0,0,0,0,0,0,0,0,-1,1896,1625,0,0
679,-601,0,0,0,0,0,0,0,0,0,-1,1903,1625,0,0
686,-601,0,0,0,0,0,0,0,0,0,-1,1910,1625,0,0
693,-601,0,0,0,0,0,0,0,0,0,-1,1917,1625,0,0
700,-601,0,0,0,0,0,0,0,0,0,-1,1924,1625,0,0
707,-601,0,0,0,0,0,0,0,0,0,-1,1931,1625,0,0
714,-601,0,0,0,0,0,0,0,0,0,-1,1938,1625,0,0
721,-601,0,0,0,0,0,0,0,0,0,-1,1945,1625,0,0
728,-601,0,0,0,0,0,0,0,0,0,-1,1952,1625,0,0
735,-601,0,0,0,0,0,0,0,0,0,-1,1959,1625,0,0
742,-601,0,0,0,0,0,0,0,0,0,-1,1966,1625,0,0
749,-601,0,0,0,0,0,0,0,0,0,-1,1973,1625,0,0
756,-601,0,0,0,0,0,0,0,0,0,-1,1980,1625,0,0
763,-601,0,0,0,0,0,0,0,0,0,-1,1987,1625,0,0
770,-601,0,0,0,0,0,0,0,0,0,-1,1994,1625,0,0
777,-601,0,0,0,0,0,0,0,0,0,-1,2001,1625,0,0
784,-601,0,0,0,0,0,0,0,0,0,-1,2008,1625,0,0
791,-601,0,0,0,0,0,0,0,0,0,-1,2015,1625,0,0
798,-601,0,0,0,0,0,0,0,0,0,-1,2022,1625,0,0
805,-601,0,0,0,0,0,0,0,0,0,-1,2029,1625,0,0
812,-601,0,0,0,0,0,0,0,0,0,-1,2036,1625,0,0
-700,-608,0,0,0,0,0,0,0,0,0,-1,524,1632,0,0
-693,-608,0,0,0,0,0,0,0,0,0,-1,531,1632,0,0
-686,-608,0,0,0,0,0,0,0,0,0,-1,538,1632,0,0
-679,-608,0,0,0,0,0,0,0,0,0,-1,545,1632,0,0
-672,-608,0,0,0,0,0,0,0,0,0,-1,552,1632,0,0
-665,-608,0,0,0,0,0,0,0,0,0,-1,559,1632,0,0
-658,-608,0,0,0,0,0,0,0,0,0,-1,566,1632,0,0
-651,-608,0,0,0,0,0,0,0,0,0,-1,573,1632,0,0
-644,-608,0,0,0,0,0,0,0,0,0,-1,580,1632,0,0
-637,-608,0,0,0,0,0,0,0,0,0,-1,587,1632,0,0
-630,-608,0,0,0,0,0,0,0,0,0,-1,594,1632,0,0
-623,-608,0,0,0,0,0,0,0,0,0,-1,601,1632,0,0
-616,-608,0,0,0,0,0,0,0,0,0,-1,608,1632,0,0
-609,-608,0,0,0,0,0,0,0,0,0,-1,615,1632,0,0
-602,-608,0,0,0,0,0,0,0,0,0,-1,622,1632,0,0
-595,-608,0,0,0,0,0,0,0,0,0,-1,629,1632,0,0
-588,-608,0,0,0,0,0,0,0,0,0,-1,636,1632,0,0
-581,-608,0,0,0,0,0,0,0,0,0,-1,643,1632,0,0
-574,-608,0,0,0,0,0,0,0,0,0,-1,650,1632,0,0
-567,-608,0,0,0,0,0,0,0,0,0,-1,657,1632,0,0
-560,-608,0,0,0,0,0,0,0,0,0,-1,664,1632,0,0
-553,-608,0,0,0,0,0,0,0,0,0,-1,671,1632,0,0
-546,-608,0,0,0,0,0,0,0,0,0,-1,678,1632,0,0
-539,-608,0,0,0,0,0,0,0,0,0,-1,685,1632,0,0
-532,-608,0,0,0,0,0,0,0,0,0,-1,692,1632,0,0
-525,-608,0,0,0,0,0,0,0,0,0,-1,699,1632,0,0
-518,-608,0,0,0,0,0,0,0,0,0,-1,706,1632,0,0
-511,-608,0,0,0,0,0,0,0,0,0,-1,713,1632,0,0
-504,-608,0,0,0,0,0,0,0,0,0,-1,720,1632,0,0
-497,-608,0,0,0,0,0,0,0,0,0,-1,727,1632,0,0
-490,-608,0,0,0,0,0,0,0,0,0,-1,734,1632,0,0
-483,-608,0,0,0,0,0,0,0,0,0,-1,741,1632,0,0
-476,-608,0,0,0,0,0,0,0,0,0,-1,748,1632,0,0
-469,-608,0,0,0,0,0,0,0,0,0,-1,755,1632,0,0
-462,-608,0,0,0,0,0,0,0,0,0,-1,762,1632,0,0
-455,-608,0,0,0,0,0,0,0,0,0,-1,769,1632,0,0
-448,-608,0,0,0,0,0,0,0,0,0,-1,776,1632,0,0
-441,-608,-7.34601,2.78052,0,0,0,0,0,0,0,-1,783,1632,-7.346,-2.78056
-434,-608,-6.34558,3.27405,0,0,0,0,0,0,0,-1,790,1632,-6.34555,-3.27406
-427,-608,-7.74335,4.17688,0,0,0,0,0,0,0,-1,797,1632,-7.74334,-4.17693
-420,-608,-6.82794,4.34839,0,0,0,0,0,0,0,-1,804,1632,-6.82794,-4.34838
-413,-608,-5.41919,5.66138,0,0,0,0,0,0,0,-1,811,1632,-5.41917,-5.66133
-406,-608,-4.79681,4.98999,0,0,0,0,0,0,0,-1,818,1632,-4.79684,-4.98997
-399,-608,-2.60645,6.34167,0,0,0,0,0,0,0,-1,825,1632,-2.60643,-6.34169
-392,-608,2.08356,15.437,0,0,0,0,0,0,0,-1,832,1632,2.08354,-15.437
-385,-608,1.51526,31.5153,0,0,0,0,0,0,0,-1,839,1632,1.51527,-31.5153
-378,-608,0.892761,36.6687,0,0,0,0,0,0,0,-1,846,1632,0.89276,-36.6687
-371,-608,1.00653,37.3799,0,0,0,0,0,0,0,-1,853,1632,1.00655,-37.3799
-364,-608,0.871277,38.1639,-0.000381125,-0.000506489,0.0019847,0.00154189,-0.0024295,0.769612,0.00231189,0.0281137,860,1632,0.871305,-38.1639
-357,-608,0.734985,38.9744,3.96676e-05,-0.000557459,0.00200553,0.00176873,-0.00228652,0.711506,0.00234766,0.0200046,867,1632,0.734962,-38.9744
-350,-608,0.706665,39.7639,0.000432324,-0.000412732,0.0019716,0.00202616,-0.00200657,0.679841,0.00232831,0.0210031,874,1632,0.706684,-39.764
-343,-608,0.65625,40.5023,0.000806087,-5.87274e-05,0.00197033,0.0023909,-0.00164354,0.677381,0.00234257,0.0269122,881,1632,0.656241,-40.5024
-336,-608,0.600769,41.2705,0.0010889,0.000318123,0.00192716,0.00266883,-0.00126181,0.686711,0.00231731,0.0197292,888,1632,0.600773,-41.2705
-329,-608,0.543274,42.011,0.00146146,0.000938275,0.00196104,0.00317828,-0.000778543,0.719092,0.00242047,0.018586,895,1632,0.543248,-42.011
-322,-608,0.531006,42.6921,0.00199327,0.00155123,0.00202485,0.00380913,-0.00026463,0.731036,0.00263207,0.0182016,902,1632,0.530987,-42.6921
-315,-608,0.527588,43.3619,0.00261109,0.00229154,0.00226578,0.00472272,0.000179901,0.750198,0.00309026,0.0168725,909,1632,0.527568,-43.3619
-308,-608,0.468262,44.067,0.00339117,0.00307469,0.00254487,0.00578272,0.000683144,0.754348,0.00364881,0.0173173,916,1632,0.468257,-44.067
-301,-608,0.448425,44.748,0.00433959,0.00395705,0.00300518,0.00715958,0.00113706,0.753617,0.0044428,0.0124081,923,1632,0.448433,-44.748
-294,-608,0.44519,45.416,0.00543538,0.00536143,0.00373662,0.00913521,0.0016616,0.780451,0.00561878,0.0109026,930,1632,0.445169,-45.416
-287,-608,0.379456,46.1189,0.00675717,0.00674091,0.00450792,0.011257,0.00224111,0.784496,0.00688036,0.0106172,937,1632,0.379457,-46.1189
-280,-608,0.385986,46.7931,0.00844854,0.00797253,0.00551831,0.013734,0.00268709,0.763847,0.00840471,0.0098936,944,1632,0.385998,-46.7931
-273,-608,0.362671,47.479,0.0103514,0.00903145,0.00677704,0.0165005,0.00288233,0.736859,0.0101766,0.0110976,951,1632,0.362661,-47.479
-266,-608,0.363098,48.1744,0.01224,0.0103166,0.00815736,0.0194921,0.00306444,0.726723,0.0121033,0.0112085,958,1632,0.363098,-48.1744
-259,-608,0.412415,48.8402,0.0143985,0.0114054,0.00964455,0.0226619,0.00314201,0.708427,0.0141772,0.0155359,965,1632,0.412438,-48.8402
-252,-608,0.490662,49.4944,0.016862,0.0123002,0.0111733,0.0259849,0.00317738,0.684714,0.0163672,0.0314533,972,1632,0.490655,-49.4944
-245,-608,0.463989,50.6699,0.0194611,0.0129428,0.0126922,0.0293059,0.00309794,0.659722,0.0185909,0.0457228,979,1632,0.463997,-50.6699
-238,-608,0.598328,51.6455,0,0,0,0,0,0,0,-1,986,1632,0.598333,-51.6456
-231,-608,1.21442,51.4249,0,0,0,0,0,0,0,-1,993,1632,1.21443,-51.4249
-224,-608,1.53741,51.8016,0,0,0,0,0,0,0,-1,1000,1632,1.53741,-51.8016
-217,-608,1.04419,12.8451,0,0,0,0,0,0,0,-1,1007,1632,1.04418,-12.8451
-210,-608,2.75903,15.9414,0,0,0,0,0,0,0,-1,1014,1632,2.75903,-15.9414
-203,-608,2.76776,16.217,0,0,0,0,0,0,0,-1,1021,1632,2.76773,-16.217
-196,-608,1.53955,18.6058,0,0,0,0,0,0,0,-1,1028,1632,1.53959,-18.6058
-189,-608,1.37634,19.119,0,0,0,0,0,0,0,-1,1035,1632,1.37634,-19.1191
-182,-608,2.89221,16.7092,0,0,0,0,0,0,0,-1,1042,1632,2.89224,-16.7093
-175,-608,0.219116,15.1643,0,0,0,0,0,0,0,-1,1049,1632,0.219173,-15.1644
-168,-608,0.000366211,9.48645,0,0,0,0,0,0,0,-1,1056,1632,0.000317105,-9.48648
-161,-608,2.27832,15.4423,0,0,0,0,0,0,0,-1,1063,1632,2.27826,-15.4423
-154,-608,1.3999,16.4037,0,0,0,0,0,0,0,-1,1070,1632,1.39987,-16.4037
-147,-608,2.4386,9.50317,0,0,0,0,0,0,0,-1,1077,1632,2.43858,-9.50313
-140,-608,2.60132,10.8401,0,0,0,0,0,0,0,-1,1084,1632,2.60134,-10.8401
-133,-608,3.2312,12.4738,0,0,0,0,0,0,0,-1,1091,1632,3.23116,-12.4738
-126,-608,3.76465,13.9644,0,0,0,0,0,0,0,-1,1098,1632,3.76466,-13.9644
-119,-608,4.28906,15.4196,0,0,0,0,0,0,0,-1,1105,1632,4.28911,-15.4195
-112,-608,0.745117,10.5587,0,0,0,0,0,0,0,-1,1112,1632,0.745145,-10.5587
-105,-608,-0.252319,1.42419,0,0,0,0,0,0,0,-1,1119,1632,-0.252331,-1.42418
-98,-608,-2.8595,3.0863,0,0,0,0,0,0,0,-1,1126,1632,-2.85948,-3.08625
-91,-608,-3.71948,1.73608,0,0,0,0,0,0,0,-1,1133,1632,-3.7195,-1.73607
-84,-608,0,0,0,0,0,0,0,0,0,-1,1140,1632,0,0
-77,-608,0,0,0,0,0,0,0,0,0,-1,1147,1632,0,0
-70,-608,0,0,0,0,0,0,0,0,0,-1,1154,1632,0,0
-63,-608,0,0,0,0,0,0,0,0,0,-1,1161,1632,0,0
-56,-608,0,0,0,0,0,0,0,0,0,-1,1168,1632,0,0
-49,-608,0,0,0,0,0,0,0,0,0,-1,1175,1632,0,0
-42,-608,0,0,0,0,0,0,0,0,0,-1,1182,1632,0,0
-35,-608,0,0,0,0,0,0,0,0,0,-1,1189,1632,0,0
-28,-608,0,0,0,0,0,0,0,0,0,-1,1196,1632,0,0
-21,-608,0,0,0,0,0,0,0,0,0,-1,1203,1632,0,0
-14,-608,0,0,0,0,0,0,0,0,0,-1,1210,1632,0,0
-7,-608,0,0,0,0,0,0,0,0,0,-1,1217,1632,0,0
0,-608,0,0,0,0,0,0,0,0,0,-1,1224,1632,0,0
7,-608,0,0,0,0,0,0,0,0,0,-1,1231,1632,0,0
14,-608,0,0,0,0,0,0,0,0,0,-1,1238,1632,0,0
21,-608,0,0,0,0,0,0,0,0,0,-1,1245,1632,0,0
28,-608,0,0,0,0,0,0,0,0,0,-1,1252,1632,0,0
35,-608,0,0,0,0,0,0,0,0,0,-1,1259,1632,0,0
42,-608,0,0,0,0,0,0,0,0,0,-1,1266,1632,0,0
49,-608,0,0,0,0,0,0,0,0,0,-1,1273,1632,0,0
56,-608,0,0,0,0,0,0,0,0,0,-1,1280,1632,0,0
63,-608,0,0,0,0,0,0,0,0,0,-1,1287,1632,0,0
70,-608,0,0,0,0,0,0,0,0,0,-1,1294,1632,0,0
77,-608,0,0,0,0,0,0,0,0,0,-1,1301,1632,0,0
84,-608,0,0,0,0,0,0,0,0,0,-1,1308,1632,0,0
91,-608,0,0,0,0,0,0,0,0,0,-1,1315,1632,0,0
98,-608,0,0,0,0,0,0,0,0,0,-1,1322,1632,0,0
105,-608,0,0,0,0,0,0,0,0,0,-1,1329,1632,0,0
112,-608,0,0,0,0,0,0,0,0,0,-1,1336,1632,0,0
119,-608,0,0,0,0,0,0,0,0,0,-1,1343,1632,0,0
126,-608,0,0,0,0,0,0,0,0,0,-1,1350,1632,0,0
133,-608,0,0,0,0,0,0,0,0,0,-1,1357,1632,0,0
140,-608,0,0,0,0,0,0,0,0,0,-1,1364,1632,0,0
147,-608,0,0,0,0,0,0,0,0,0,-1,1371,1632,0,0
154,-608,0,0,0,0,0,0,0,0,0,-1,1378,1632,0,0
161,-608,0,0,0,0,0,0,0,0,0,-1,1385,1632,0,0
168,-608,0,0,0,0,0,0,0,0,0,-1,1392,1632,0,0
175,-608,0,0,0,0,0,0,0,0,0,-1,1399,1632,0,0
182,-608,0,0,0,0,0,0,0,0,0,-1,1406,1632,0,0
189,-608,0,0,0,0,0,0,0,0,0,-1,1413,1632,0,0
196,-608,0,0,0,0,0,0,0,0,0,-1,1420,1632,0,0
203,-608,0,0,0,0,0,0,0,0,0,-1,1427,1632,0,0
210,-608,5.7157,-0.333008,0,0,0,0,0,0,0,-1,1434,1632,5.71566,0.333004
217,-608,4.49402,-0.831787,0,0,0,0,0,0,0,-1,1441,1632,4.49396,0.831738
224,-608,4.18018,-1.11792,0,0,0,0,0,0,0,-1,1448,1632,4.1802,1.11796
231,-608,0.361816,0.825195,0,0,0,0,0,0,0,-1,1455,1632,0.36185,-0.825226
238,-608,2.85388,-0.28833,0,0,0,0,0,0,0,-1,1462,1632,2.85391,0.288282
245,-608,3.87537,4.02173,0,0,0,0,0,0,0,-1,1469,1632,3.87538,-4.02168
252,-608,5.66956,3.5282,0,0,0,0,0,0,0,-1,1476,1632,5.6696,-3.52815
259,-608,7.47437,3.07178,0,0,0,0,0,0,0,-1,1483,1632,7.4744,-3.07172
266,-608,9.46936,2.34766,0,0,0,0,0,0,0,-1,1490,1632,9.46932,-2.34764
273,-608,6.03003,3.34241,0,0,0,0,0,0,0,-1,1497,1632,6.02997,-3.34245
280,-608,5.72461,2.0769,0,0,0,0,0,0,0,-1,1504,1632,5.72457,-2.07688
287,-608,6.20581,3.59338,0,0,0,0,0,0,0,-1,1511,1632,6.20585,-3.59341
294,-608,6.94922,5.17151,0,0,0,0,0,0,0,-1,1518,1632,6.94925,-5.17151
301,-608,7.60083,6.68018,0,0,0,0,0,0,0,-1,1525,1632,7.60086,-6.68013
308,-608,7.64746,9.93848,0,0,0,0,0,0,0,-1,1532,1632,7.64745,-9.93842
315,-608,5.30688,11.2054,0,0,0,0,0,0,0,-1,1539,1632,5.30694,-11.2054
322,-608,5.32617,13.7581,0,0,0,0,0,0,0,-1,1546,1632,5.32613,-13.758
329,-608,7.12231,13.9607,0,0,0,0,0,0,0,-1,1553,1632,7.12231,-13.9607
336,-608,5.48633,7.82446,0,0,0,0,0,0,0,-1,1560,1632,5.48634,-7.82446
343,-608,5.47192,5.61047,0,0,0,0,0,0,0,-1,1567,1632,5.47192,-5.61045
350,-608,11.6957,1.71387,0,0,0,0,0,0,0,-1,1574,1632,11.6957,-1.71388
357,-608,3.77002,5.10046,0,0,0,0,0,0,0,-1,1581,1632,3.77002,-5.10043
364,-608,16.9565,52.3624,0,0,0,0,0,0,0,-1,1588,1632,16.9566,-52.3624
371,-608,17.3846,50.5518,0,0,0,0,0,0,0,-1,1595,1632,17.3847,-50.5518
378,-608,17.5056,49.7166,0.0161396,0.022228,-0.0117002,0.0312735,0.00709409,-0.912668,0.0189327,0.0392313,1602,1632,17.5056,-49.7166
385,-608,17.6317,48.8942,0.0139618,0.0189389,-0.00959744,0.0263652,0.00653556,-0.91225,0.0158539,0.0320693,1609,1632,17.6317,-48.8941
392,-608,17.6183,48.1934,0.0117246,0.0157824,-0.00769051,0.0217071,0.00579987,-0.914367,0.0129776,0.0221368,1616,1632,17.6183,-48.1933
399,-608,17.6594,47.4799,0.00968141,0.0133954,-0.00619147,0.0180023,0.00507445,-0.931093,0.0107183,0.0114715,1623,1632,17.6595,-47.4798
406,-608,17.6785,46.8102,0.00784204,0.0112965,-0.00502053,0.0148786,0.00425994,-0.951075,0.00884782,0.00996521,1630,1632,17.6785,-46.8102
413,-608,17.6433,46.1511,0.00621869,0.00944808,-0.00408377,0.0122248,0.00344198,-0.973662,0.00727905,0.0109208,1637,1632,17.6434,-46.1512
420,-608,17.5876,45.4946,0.00487281,0.00800058,-0.00343011,0.0102065,0.0026669,-0.999285,0.00611247,0.0183384,1644,1632,17.5877,-45.4946
427,-608,17.5859,44.8253,0.00378799,0.00667861,-0.00293991,0.00850928,0.00195733,-1.01386,0.00514602,0.0192964,1651,1632,17.5859,-44.8253
434,-608,17.592,44.1464,0.00296346,0.0056282,-0.00265739,0.00726853,0.00132313,-1.01778,0.0044704,0.0155167,1658,1632,17.5921,-44.1464
441,-608,17.5496,43.4832,0.00249512,0.00472058,-0.00259778,0.00643392,0.000781788,-0.987746,0.00405389,0.0138916,1665,1632,17.5496,-43.4832
448,-608,17.5386,42.8315,0.00212164,0.00370583,-0.00249691,0.00553327,0.000294199,-0.938993,0.0035948,0.014542,1672,1632,17.5386,-42.8316
455,-608,17.5394,42.1041,0.00204592,0.00298004,-0.00261556,0.00516991,-0.000143946,-0.873752,0.00349558,0.0118827,1679,1632,17.5394,-42.1041
462,-608,17.4852,41.4126,0.00208737,0.00205813,-0.00271584,0.00478863,-0.000643128,-0.782706,0.00342697,0.0123206,1686,1632,17.4853,-41.4127
469,-608,17.4264,40.7419,0.00209279,0.0010993,-0.00270262,0.00434394,-0.00115185,-0.694512,0.00334665,0.00974571,1693,1632,17.4264,-40.7419
476,-608,17.3772,40.031,0.0020805,0.000172687,-0.00256179,0.00386022,-0.00160703,-0.607172,0.00324464,0.0100678,1700,1632,17.3772,-40.031
483,-608,17.3372,39.3156,0.00197189,-0.000862891,-0.00250819,0.00343547,-0.00232647,-0.528215,0.00334714,0.0097425,1707,1632,17.3371,-39.3155
490,-608,17.3275,38.5936,0.00156315,-0.00162861,-0.00239451,0.00284486,-0.00291032,-0.491463,0.00332282,0.0122417,1714,1632,17.3275,-38.5937
497,-608,17.3741,37.8202,0.00116085,-0.00257399,-0.00232968,0.00227917,-0.00369231,-0.447547,0.00347967,0.0310131,1721,1632,17.3742,-37.8202
504,-608,17.4916,37.042,0,0,0,0,0,0,0,-1,1728,1632,17.4916,-37.042
511,-608,17.1793,36.6643,0,0,0,0,0,0,0,-1,1735,1632,17.1793,-36.6643
518,-608,17.0779,35.7936,0,0,0,0,0,0,0,-1,1742,1632,17.0779,-35.7936
525,-608,11.2109,16.2579,0,0,0,0,0,0,0,-1,1749,1632,11.2109,-16.2579
532,-608,8.27917,11.6693,0,0,0,0,0,0,0,-1,1756,1632,8.27919,-11.6694
539,-608,9.40796,1.43457,0,0,0,0,0,0,0,-1,1763,1632,9.40801,-1.43463
546,-608,9.94031,2.1134,0,0,0,0,0,0,0,-1,1770,1632,9.94031,-2.11346
553,-608,10.363,2.81335,0,0,0,0,0,0,0,-1,1777,1632,10.3631,-2.81333
560,-608,9.23999,4.5636,0,0,0,0,0,0,0,-1,1784,1632,9.24,-4.56354
567,-608,0,0,0,0,0,0,0,0,0,-1,1791,1632,0,0
574,-608,0,0,0,0,0,0,0,0,0,-1,1798,1632,0,0
581,-608,0,0,0,0,0,0,0,0,0,-1,1805,1632,0,0
588,-608,0,0,0,0,0,0,0,0,0,-1,1812,1632,0,0
595,-608,0,0,0,0,0,0,0,0,0,-1,1819,1632,0,0
602,-608,0,0,0,0,0,0,0,0,0,-1,1826,1632,0,0
609,-608,0,0,0,0,0,0,0,0,0,-1,1833,1632,0,0
616,-608,0,0,0,0,0,0,0,0,0,-1,1840,1632,0,0
623,-608,0,0,0,0,0,0,0,0,0,-1,1847,1632,0,0
630,-608,0,0,0,0,0,0,0,0,0,-1,1854,1632,0,0
637,-608,0,0,0,0,0,0,0,0,0,-1,1861,1632,0,0
644,-608,0,0,0,0,0,0,0,0,0,-1,1868,1632,0,0
651,-608,0,0,0,0,0,0,0,0,0,-1,1875,1632,0,0
658,-608,0,0,0,0,0,0,0,0,0,-1,1882,1632,0,0
665,-608,0,0,0,0,0,0,0,0,0,-1,1889,1632,0,0
672,-608,0,0,0,0,0,0,0,0,0,-1,1896,1632,0,0
679,-608,0,0,0,0,0,0,0,0,0,-1,1903,1632,0,0
686,-608,0,0,0,0,0,0,0,0,0,-1,1910,1632,0,0
693,-608,0,0,0,0,0,0,0,0,0,-1,1917,1632,0,0
700,-608,0,0,0,0,0,0,0,0,0,-1,1924,1632,0,0
707,-608,0,0,0,0,0,0,0,0,0,-1,1931,1632,0,0
714,-608,0,0,0,0,0,0,0,0,0,-1,1938,1632,0,0
721,-608,0,0,0,0,0,0,0,0,0,-1,1945,1632,0,0
728,-608,0,0,0,0,0,0,0,0,0,-1,1952,1632,0,0
735,-608,0,0,0,0,0,0,0,0,0,-1,1959,1632,0,0
742,-608,0,0,0,0,0,0,0,0,0,-1,1966,1632,0,0
749,-608,0,0,0,0,0,0,0,0,0,-1,1973,1632,0,0
756,-608,0,0,0,0,0,0,0,0,0,-1,1980,1632,0,0
763,-608,0,0,0,0,0,0,0,0,0,-1,1987,1632,0,0
770,-608,0,0,0,0,0,0,0,0,0,-1,1994,1632,0,0
777,-608,0,0,0,0,0,0,0,0,0,-1,2001,1632,0,0
784,-608,0,0,0,0,0,0,0,0,0,-1,2008,1632,0,0
791,-608,0,0,0,0,0,0,0,0,0,-1,2015,1632,0,0
798,-608,0,0,0,0,0,0,0,0,0,-1,2022,1632,0,0
805,-608,0,0,0,0,0,0,0,0,0,-1,2029,1632,0,0
812,-608,0,0,0,0,0,0,0,0,0,-1,2036,1632,0,0
-700,-615,0,0,0,0,0,0,0,0,0,-1,524,1639,0,0
-693,-615,0,0,0,0,0,0,0,0,0,-1,531,1639,0,0
-686,-615,0,0,0,0,0,0,0,0,0,-1,538,1639,0,0
-679,-615,0,0,0,0,0,0,0,0,0,-1,545,1639,0,0
-672,-615,0,0,0,0,0,0,0,0,0,-1,552,1639,0,0
-665,-615,0,0,0,0,0,0,0,0,0,-1,559,1639,0,0
-658,-615,0,0,0,0,0,0,0,0,0,-1,566,1639,0,0
-651,-615,0,0,0,0,0,0,0,0,0,-1,573,1639,0,0
-644,-615,0,0,0,0,0,0,0,0,0,-1,580,1639,0,0
-637,-615,0,0,0,0,0,0,0,0,0,-1,587,1639,0,0
-630,-615,0,0,0,0,0,0,0,0,0,-1,594,1639,0,0
-623,-615,0,0,0,0,0,0,0,0,0,-1,601,1639,0,0
-616,-615,0,0,0,0,0,0,0,0,0,-1,608,1639,0,0
-609,-615,0,0,0,0,0,0,0,0,0,-1,615,1639,0,0
-602,-615,0,0,0,0,0,0,0,0,0,-1,622,1639,0,0
-595,-615,0,0,0,0,0,0,0,0,0,-1,629,1639,0,0
-588,-615,0,0,0,0,0,0,0,0,0,-1,636,1639,0,0
-581,-615,0,0,0,0,0,0,0,0,0,-1,643,1639,0,0
-574,-615,0,0,0,0,0,0,0,0,0,-1,650,1639,0,0
-567,-615,0,0,0,0,0,0,0,0,0,-1,657,1639,0,0
-560,-615,0,0,0,0,0,0,0,0,0,-1,664,1639,0,0
-553,-615,0,0,0,0,0,0,0,0,0,-1,671,1639,0,0
-546,-615,0,0,0,0,0,0,0,0,0,-1,678,1639,0,0
-539,-615,0,0,0,0,0,0,0,0,0,-1,685,1639,0,0
-532,-615,0,0,0,0,0,0,0,0,0,-1,692,1639,0,0
-525,-615,0,0,0,0,0,0,0,0,0,-1,699,1639,0,0
-518,-615,0,0,0,0,0,0,0,0,0,-1,706,1639,0,0
-511,-615,0,0,0,0,0,0,0,0,0,-1,713,1639,0,0
-504,-615,0,0,0,0,0,0,0,0,0,-1,720,1639,0,0
-497,-615,0,0,0,0,0,0,0,0,0,-1,727,1639,0,0
-490,-615,0,0,0,0,0,0,0,0,0,-1,734,1639,0,0
-483,-615,0,0,0,0,0,0,0,0,0,-1,741,1639,0,0
-476,-615,0,0,0,0,0,0,0,0,0,-1,748,1639,0,0
-469,-615,0,0,0,0,0,0,0,0,0,-1,755,1639,0,0
-462,-615,0,0,0,0,0,0,0,0,0,-1,762,1639,0,0
-455,-615,0,0,0,0,0,0,0,0,0,-1,769,1639,0,0
-448,-615,0,0,0,0,0,0,0,0,0,-1,776,1639,0,0
-441,-615,0,0,0,0,0,0,0,0,0,-1,783,1639,0,0
-434,-615,-7.64508,2.98596,0,0,0,0,0,0,0,-1,790,1639,-7.64505,-2.98594
-427,-615,-9.0011,2.89404,0,0,0,0,0,0,0,-1,797,1639,-9.00107,-2.89399
-420,-615,-8.07568,3.0752,0,0,0,0,0,0,0,-1,804,1639,-8.07569,-3.07514
-413,-615,-7.09149,3.396,0,0,0,0,0,0,0,-1,811,1639,-7.09147,-3.39599
-406,-615,-6.21368,3.7312,0,0,0,0,0,0,0,-1,818,1639,-6.21366,-3.73114
-399,-615,-4.84875,3.91907,0,0,0,0,0,0,0,-1,825,1639,-4.84877,-3.91901
-392,-615,1.7395,13.3127,0,0,0,0,0,0,0,-1,832,1639,1.73953,-13.3128
-385,-615,3.42297,14.9401,0,0,0,0,0,0,0,-1,839,1639,3.42296,-14.94
-378,-615,1.97778,35.4214,0,0,0,0,0,0,0,-1,846,1639,1.97775,-35.4214
-371,-615,1.60339,37.2118,0,0,0,0,0,0,0,-1,853,1639,1.60342,-37.2118
-364,-615,1.47534,38.308,0,0,0,0,0,0,0,-1,860,1639,1.47532,-38.308
-357,-615,1.39301,39.0172,0,0,0,0,0,0,0,-1,867,1639,1.39302,-39.0172
-350,-615,1.4068,39.9194,0.00146893,-0.000197602,0.00352384,0.00425668,-0.00298535,0.669298,0.00420261,0.0359068,874,1639,1.40679,-39.9194
-343,-615,1.36261,40.5015,0.00184284,0.000132363,0.00345113,0.00454313,-0.00256792,0.663938,0.00415802,0.0219055,881,1639,1.3626,-40.5015
-336,-615,1.33728,41.2701,0.00203833,0.000421979,0.00325787,0.00458677,-0.00212646,0.663819,0.0039617,0.0113896,888,1639,1.33727,-41.2702
-329,-615,1.27374,42.0013,0.00219021,0.000880392,0.00310551,0.00470911,-0.00163851,0.681478,0.00380505,0.0122998,895,1639,1.27373,-42.0014
-322,-615,1.24695,42.7236,0.00239488,0.00129932,0.00288927,0.00478784,-0.00109365,0.691715,0.00361206,0.0133395,902,1639,1.24692,-42.7236
-315,-615,1.2207,43.458,0.00269396,0.00183919,0.0028148,0.00511364,-0.000580489,0.710057,0.00361815,0.0160015,909,1639,1.22068,-43.4581
-308,-615,1.13776,44.1655,0.00313157,0.00240665,0.00278735,0.00557993,-4.17028e-05,0.720742,0.00373393,0.023208,916,1639,1.13776,-44.1655
-301,-615,1.14423,44.783,0.00367823,0.00304521,0.00289609,0.00627506,0.000448382,0.730971,0.00404221,0.0133031,923,1639,1.14422,-44.783
-294,-615,1.12909,45.4459,0.0043533,0.00411712,0.00325304,0.0074904,0.000980026,0.767256,0.0047011,0.0103946,930,1639,1.12906,-45.4459
-287,-615,1.06543,46.1451,0.00517991,0.00512901,0.00364703,0.00880158,0.00150734,0.781909,0.0054354,0.00833681,937,1639,1.06542,-46.1451
-280,-615,1.06891,46.8345,0.0063325,0.00597302,0.00424807,0.0104046,0.00190089,0.764256,0.00639763,0.0113798,944,1639,1.06893,-46.8345
-273,-615,1.03595,47.5115,0.00771268,0.00664909,0.00508561,0.0122942,0.00206755,0.733303,0.00760128,0.013148,951,1639,1.03597,-47.5115
-266,-615,0.99408,48.1605,0.00908217,0.00749046,0.0060002,0.0143391,0.00223356,0.719464,0.00890868,0.0126431,958,1639,0.994069,-48.1606
-259,-615,1.01031,48.8246,0.0107043,0.00821569,0.00703189,0.0166011,0.00231886,0.697829,0.0103812,0.0140592,965,1639,1.01032,-48.8245
-252,-615,1.02734,49.5221,0.0125867,0.00882103,0.00807968,0.019,0.00240769,0.670925,0.0119453,0.0174836,972,1639,1.02736,-49.5221
-245,-615,1.12683,50.3195,0.0145871,0.00921671,0.00910538,0.021395,0.00240884,0.642011,0.013532,0.0277801,979,1639,1.12682,-50.3195
-238,-615,1.15186,50.9824,0.0164951,0.00939348,0.0101052,0.0236551,0.0022334,0.616445,0.0150809,0.0374794,986,1639,1.15188,-50.9825
-231,-615,1.47583,51.3876,0.0179125,0.00928036,0.0107135,0.0251466,0.00204618,0.593913,0.0161257,0.045329,993,1639,1.47584,-51.3875
-224,-615,1.7829,51.8804,0.0190528,0.00845347,0.0111987,0.0261426,0.00136372,0.564393,0.0169921,0.0476254,1000,1639,1.78292,-51.8803
-217,-615,2.12091,52.5619,0,0,0,0,0,0,0,-1,1007,1639,2.12091,-52.5618
-210,-615,2.48901,18.9324,0,0,0,0,0,0,0,-1,1014,1639,2.48902,-18.9323
-203,-615,2.13684,18.6173,0,0,0,0,0,0,0,-1,1021,1639,2.13683,-18.6173
-196,-615,4.27161,21.3264,0,0,0,0,0,0,0,-1,1028,1639,4.27165,-21.3264
-189,-615,2.48047,51.85,0,0,0,0,0,0,0,-1,1035,1639,2.48045,-51.85
-182,-615,2.98364,52.7119,0,0,0,0,0,0,0,-1,1042,1639,2.9836,-52.7119
-175,-615,2.25159,49.2682,0,0,0,0,0,0,0,-1,1049,1639,2.25158,-49.2682
-168,-615,3.85754,15.472,0,0,0,0,0,0,0,-1,1056,1639,3.85757,-15.472
-161,-615,2.14307,46.5156,0,0,0,0,0,0,0,-1,1063,1639,2.14303,-46.5156
-154,-615,1.37329,47.9545,0,0,0,0,0,0,0,-1,1070,1639,1.37327,-47.9545
-147,-615,0.0180664,48.1396,0,0,0,0,0,0,0,-1,1077,1639,0.0180157,-48.1397
-140,-615,3.73401,10.2349,0,0,0,0,0,0,0,-1,1084,1639,3.73402,-10.2348
-133,-615,2.6178,17.45,0,0,0,0,0,0,0,-1,1091,1639,2.61776,-17.4499
-126,-615,4.43408,12.5017,0,0,0,0,0,0,0,-1,1098,1639,4.43403,-12.5018
-119,-615,4.82983,13.9279,0,0,0,0,0,0,0,-1,1105,1639,4.82986,-13.9278
-112,-615,3.65698,14.4874,0,0,0,0,0,0,0,-1,1112,1639,3.65695,-14.4875
-105,-615,0.958496,2.45398,0,0,0,0,0,0,0,-1,1119,1639,0.958452,-2.45398
-98,-615,-0.647705,2.12109,0,0,0,0,0,0,0,-1,1126,1639,-0.647756,-2.12105
-91,-615,-3.07983,2.97375,0,0,0,0,0,0,0,-1,1133,1639,-3.07989,-2.97376
-84,-615,-2.46509,0.703247,0,0,0,0,0,0,0,-1,1140,1639,-2.46505,-0.703273
-77,-615,-3.17859,1.23755,0,0,0,0,0,0,0,-1,1147,1639,-3.17865,-1.23752
-70,-615,-4.03943,1.43335,0,0,0,0,0,0,0,-1,1154,1639,-4.03942,-1.43339
-63,-615,-4.8877,1.45544,0,0,0,0,0,0,0,-1,1161,1639,-4.88766,-1.45549
-56,-615,0,0,0,0,0,0,0,0,0,-1,1168,1639,0,0
-49,-615,0,0,0,0,0,0,0,0,0,-1,1175,1639,0,0
-42,-615,0,0,0,0,0,0,0,0,0,-1,1182,1639,0,0
-35,-615,0,0,0,0,0,0,0,0,0,-1,1189,1639,0,0
-28,-615,0,0,0,0,0,0,0,0,0,-1,1196,1639,0,0
-21,-615,0,0,0,0,0,0,0,0,0,-1,1203,1639,0,0
-14,-615,0,0,0,0,0,0,0,0,0,-1,1210,1639,0,0
-7,-615,0,0,0,0,0,0,0,0,0,-1,1217,1639,0,0
0,-615,0,0,0,0,0,0,0,0,0,-1,1224,1639,0,0
7,-615,0,0,0,0,0,0,0,0,0,-1,1231,1639,0,0
14,-615,0,0,0,0,0,0,0,0,0,-1,1238,1639,0,0
21,-615,0,0,0,0,0,0,0,0,0,-1,1245,1639,0,0
28,-615,0,0,0,0,0,0,0,0,0,-1,1252,1639,0,0
35,-615,0,0,0,0,0,0,0,0,0,-1,1259,1639,0,0
42,-615,0,0,0,0,0,0,0,0,0,-1,1266,1639,0,0
49,-615,0,0,0,0,0,0,0,0,0,-1,1273,1639,0,0
56,-615,0,0,0,0,0,0,0,0,0,-1,1280,1639,0,0
63,-615,0,0,0,0,0,0,0,0,0,-1,1287,1639,0,0
70,-615,0,0,0,0,0,0,0,0,0,-1,1294,1639,0,0
77,-615,0,0,0,0,0,0,0,0,0,-1,1301,1639,0,0
84,-615,0,0,0,0,0,0,0,0,0,-1,1308,1639,0,0
91,-615,0,0,0,0,0,0,0,0,0,-1,1315,1639,0,0
98,-615,0,0,0,0,0,0,0,0,0,-1,1322,1639,0,0
105,-615,0,0,0,0,0,0,0,0,0,-1,1329,1639,0,0
112,-615,0,0,0,0,0,0,0,0,0,-1,1336,1639,0,0
119,-615,0,0,0,0,0,0,0,0,0,-1,1343,1639,0,0
126,-615,0,0,0,0,0,0,0,0,0,-1,1350,1639,0,0
133,-615,0,0,0,0,0,0,0,0,0,-1,1357,1639,0,0
140,-615,0,0,0,0,0,0,0,0,0,-1,1364,1639,0,0
147,-615,0,0,0,0,0,0,0,0,0,-1,1371,1639,0,0
154,-615,0,0,0,0,0,0,0,0,0,-1,1378,1639,0,0
161,-615,0,0,0,0,0,0,0,0,0,-1,1385,1639,0,0
168,-615,0,0,0,0,0,0,0,0,0,-1,1392,1639,0,0
175,-615,5.39648,-2.00879,0,0,0,0,0,0,0,-1,1399,1639,5.3965,2.00881
182,-615,5.65393,-1.51025,0,0,0,0,0,0,0,-1,1406,1639,5.65388,1.51028
189,-615,5.58972,-1.35608,0,0,0,0,0,0,0,-1,1413,1639,5.58967,1.35607
196,-615,5.49915,-0.693604,0,0,0,0,0,0,0,-1,1420,1639,5.4991,0.693602
203,-615,5.33411,-0.226685,0,0,0,0,0,0,0,-1,1427,1639,5.33414,0.226689
210,-615,5.60278,0.108276,0,0,0,0,0,0,0,-1,1434,1639,5.60284,-0.10831
217,-615,6.26331,-0.307373,0,0,0,0,0,0,0,-1,1441,1639,6.26331,0.307372
224,-615,5.45422,-0.333984,0,0,0,0,0,0,0,-1,1448,1639,5.45422,0.333992
231,-615,4.92542,1.80298,0,0,0,0,0,0,0,-1,1455,1639,4.92537,-1.80297
238,-615,4.76355,1.96729,0,0,0,0,0,0,0,-1,1462,1639,4.76357,-1.96734
245,-615,4.08643,3.15906,0,0,0,0,0,0,0,-1,1469,1639,4.08638,-3.159
252,-615,6.37805,3.73889,0,0,0,0,0,0,0,-1,1476,1639,6.37806,-3.73891
259,-615,8.35974,3.16443,0,0,0,0,0,0,0,-1,1483,1639,8.35975,-3.16444
266,-615,10.3414,2.58997,0,0,0,0,0,0,0,-1,1490,1639,10.3414,-2.58996
273,-615,6.57043,1.84766,0,0,0,0,0,0,0,-1,1497,1639,6.5704,-1.84771
280,-615,7.10449,3.23438,0,0,0,0,0,0,0,-1,1504,1639,7.10447,-3.23435
287,-615,7.35779,4.68542,0,0,0,0,0,0,0,-1,1511,1639,7.35776,-4.68546
294,-615,7.63733,6.29114,0,0,0,0,0,0,0,-1,1518,1639,7.63735,-6.29109
301,-615,8.47925,11.452,0,0,0,0,0,0,0,-1,1525,1639,8.47922,-11.452
308,-615,6.8114,10.9059,0,0,0,0,0,0,0,-1,1532,1639,6.81137,-10.9058
315,-615,5.1427,14.7251,0,0,0,0,0,0,0,-1,1539,1639,5.14269,-14.7251
322,-615,7.17981,17.6864,0,0,0,0,0,0,0,-1,1546,1639,7.17985,-17.6864
329,-615,7.62134,20.4354,0,0,0,0,0,0,0,-1,1553,1639,7.62139,-20.4354
336,-615,6.45007,14.1138,0,0,0,0,0,0,0,-1,1560,1639,6.45011,-14.1138
343,-615,2.40491,6.50134,0,0,0,0,0,0,0,-1,1567,1639,2.40489,-6.50137
350,-615,15.046,46.4662,0,0,0,0,0,0,0,-1,1574,1639,15.046,-46.4662
357,-615,16.6892,51.9666,0,0,0,0,0,0,0,-1,1581,1639,16.6892,-51.9666
364,-615,16.8639,51.0039,0,0,0,0,0,0,0,-1,1588,1639,16.8639,-51.004
371,-615,16.8866,50.4292,0.0133191,0.019863,-0.0101061,0.0272136,0.00596849,-0.941952,0.0165164,0.0398679,1595,1639,16.8866,-50.4292
378,-615,17.0063,49.4523,0.0120619,0.0171028,-0.00861226,0.0235558,0.00560883,-0.927753,0.0142082,0.0192963,1602,1639,17.0063,-49.4523
385,-615,16.999,48.7605,0.0105839,0.0146013,-0.00715642,0.0200256,0.00515961,-0.922221,0.0120059,0.0117362,1609,1639,16.999,-48.7605
392,-615,17.0115,48.1285,0.00898394,0.0122069,-0.00580716,0.016622,0.00456881,-0.920741,0.0099157,0.0112993,1616,1639,17.0115,-48.1286
399,-615,17.0002,47.486,0.00746628,0.0103326,-0.00474199,0.0138533,0.00394562,-0.93215,0.00824141,0.0125645,1623,1639,17.0002,-47.486
406,-615,16.9924,46.8385,0.00608547,0.00865106,-0.00390834,0.0114817,0.00325479,-0.943969,0.00683304,0.0123657,1630,1639,16.9924,-46.8385
413,-615,16.9778,46.2,0.00484626,0.00713781,-0.0032062,0.00939682,0.00258726,-0.957007,0.00560484,0.0136807,1637,1639,16.9778,-46.2
420,-615,16.9397,45.5343,0.00385187,0.00596376,-0.00276293,0.00786566,0.00194998,-0.967924,0.00472972,0.0144258,1644,1639,16.9396,-45.5343
427,-615,16.9216,44.8594,0.00302634,0.00488861,-0.00244915,0.00657766,0.00133729,-0.967053,0.00401429,0.0153595,1651,1639,16.9216,-44.8594
434,-615,16.9152,44.194,0.00241117,0.00409126,-0.00232357,0.00572198,0.00078046,-0.958854,0.00358295,0.0146673,1658,1639,16.9151,-44.194
441,-615,16.8876,43.5187,0.0021035,0.00339085,-0.00238179,0.0052144,0.000279941,-0.91737,0.00338681,0.0152616,1665,1639,16.8876,-43.5187
448,-615,16.8728,42.8457,0.00197527,0.00266268,-0.00248157,0.00482424,-0.000186282,-0.854212,0.00328002,0.0146113,1672,1639,16.8728,-42.8457
455,-615,16.8517,42.1499,0.00208017,0.00208585,-0.00272712,0.00481013,-0.000644115,-0.785919,0.00344161,0.0137799,1679,1639,16.8517,-42.15
462,-615,16.803,41.484,0.0022507,0.00132311,-0.00293826,0.00476155,-0.00118773,-0.707121,0.00363554,0.0151366,1686,1639,16.803,-41.4841
469,-615,16.7421,40.778,0.00236597,0.00050348,-0.00303849,0.00461271,-0.00174327,-0.636701,0.00379223,0.0128921,1693,1639,16.742,-40.778
476,-615,16.7085,40.0383,0.00250641,-0.000322019,-0.00300092,0.00440965,-0.00222526,-0.565202,0.00389926,0.0127113,1700,1639,16.7085,-40.0383
483,-615,16.7379,39.2373,0.00257546,-0.00129195,-0.00307547,0.00427462,-0.00299111,-0.504751,0.00421663,0.0317525,1707,1639,16.7379,-39.2374
490,-615,16.7527,38.4672,0,0,0,0,0,0,0,-1,1714,1639,16.7527,-38.4672
497,-615,16.7969,37.6581,0,0,0,0,0,0,0,-1,1721,1639,16.7968,-37.6581
504,-615,16.4989,34.738,0,0,0,0,0,0,0,-1,1728,1639,16.4989,-34.738
511,-615,15.2349,30.2052,0,0,0,0,0,0,0,-1,1735,1639,15.2348,-30.2052
518,-615,13.2416,9.81812,0,0,0,0,0,0,0,-1,1742,1639,13.2416,-9.81813
525,-615,4.37524,3.90491,0,0,0,0,0,0,0,-1,1749,1639,4.37518,-3.90495
532,-615,7.3645,0.848145,0,0,0,0,0,0,0,-1,1756,1639,7.36451,-0.848093
539,-615,12.8112,-0.0476074,0,0,0,0,0,0,0,-1,1763,1639,12.8111,0.0475553
546,-615,8.33813,2.94556,0,0,0,0,0,0,0,-1,1770,1639,8.33813,-2.9455
553,-615,5.82532,-2.04199,0,0,0,0,0,0,0,-1,1777,1639,5.82534,2.04195
560,-615,0,0,0,0,0,0,0,0,0,-1,1784,1639,0,0
567,-615,0,0,0,0,0,0,0,0,0,-1,1791,1639,0,0
574,-615,0,0,0,0,0,0,0,0,0,-1,1798,1639,0,0
581,-615,0,0,0,0,0,0,0,0,0,-1,1805,1639,0,0
588,-615,0,0,0,0,0,0,0,0,0,-1,1812,1639,0,0
595,-615,0,0,0,0,0,0,0,0,0,-1,1819,1639,0,0
602,-615,0,0,0,0,0,0,0,0,0,-1,1826,1639,0,0
609,-615,0,0,0,0,0,0,0,0,0,-1,1833,1639,0,0
616,-615,0,0,0,0,0,0,0,0,0,-1,1840,1639,0,0
623,-615,0,0,0,0,0,0,0,0,0,-1,1847,1639,0,0
630,-615,0,0,0,0,0,0,0,0,0,-1,1854,1639,0,0
637,-615,0,0,0,0,0,0,0,0,0,-1,1861,1639,0,0
644,-615,0,0,0,0,0,0,0,0,0,-1,1868,1639,0,0
651,-615,0,0,0,0,0,0,0,0,0,-1,1875,1639,0,0
658,-615,0,0,0,0,0,0,0,0,0,-1,1882,1639,0,0
665,-615,0,0,0,0,0,0,0,0,0,-1,1889,1639,0,0
672,-615,0,0,0,0,0,0,0,0,0,-1,1896,1639,0,0
679,-615,0,0,0,0,0,0,0,0,0,-1,1903,1639,0,0
686,-615,0,0,0,0,0,0,0,0,0,-1,1910,1639,0,0
693,-615,0,0,0,0,0,0,0,0,0,-1,1917,1639,0,0
700,-615,0,0,0,0,0,0,0,0,0,-1,1924,1639,0,0
707,-615,0,0,0,0,0,0,0,0,0,-1,1931,1639,0,0
714,-615,0,0,0,0,0,0,0,0,0,-1,1938,1639,0,0
721,-615,0,0,0,0,0,0,0,0,0,-1,1945,1639,0,0
728,-615,0,0,0,0,0,0,0,0,0,-1,1952,1639,0,0
735,-615,0,0,0,0,0,0,0,0,0,-1,1959,1639,0,0
742,-615,0,0,0,0,0,0,0,0,0,-1,1966,1639,0,0
749,-615,0,0,0,0,0,0,0,0,0,-1,1973,1639,0,0
756,-615,0,0,0,0,0,0,0,0,0,-1,1980,1639,0,0
763,-615,0,0,0,0,0,0,0,0,0,-1,1987,1639,0,0
770,-615,0,0,0,0,0,0,0,0,0,-1,1994,1639,0,0
777,-615,0,0,0,0,0,0,0,0,0,-1,2001,1639,0,0
784,-615,0,0,0,0,0,0,0,0,0,-1,2008,1639,0,0
791,-615,0,0,0,0,0,0,0,0,0,-1,2015,1639,0,0
798,-615,0,0,0,0,0,0,0,0,0,-1,2022,1639,0,0
805,-615,0,0,0,0,0,0,0,0,0,-1,2029,1639,0,0
812,-615,0,0,0,0,0,0,0,0,0,-1,2036,1639,0,0
-700,-622,0,0,0,0,0,0,0,0,0,-1,524,1646,0,0
-693,-622,0,0,0,0,0,0,0,0,0,-1,531,1646,0,0
-686,-622,0,0,0,0,0,0,0,0,0,-1,538,1646,0,0
-679,-622,0,0,0,0,0,0,0,0,0,-1,545,1646,0,0
-672,-622,0,0,0,0,0,0,0,0,0,-1,552,1646,0,0
-665,-622,0,0,0,0,0,0,0,0,0,-1,559,1646,0,0
-658,-622,0,0,0,0,0,0,0,0,0,-1,566,1646,0,0
-651,-622,0,0,0,0,0,0,0,0,0,-1,573,1646,0,0
-644,-622,0,0,0,0,0,0,0,0,0,-1,580,1646,0,0
-637,-622,0,0,0,0,0,0,0,0,0,-1,587,1646,0,0
-630,-622,0,0,0,0,0,0,0,0,0,-1,594,1646,0,0
-623,-622,0,0,0,0,0,0,0,0,0,-1,601,1646,0,0
-616,-622,0,0,0,0,0,0,0,0,0,-1,608,1646,0,0
-609,-622,0,0,0,0,0,0,0,0,0,-1,615,1646,0,0
-602,-622,0,0,0,0,0,0,0,0,0,-1,622,1646,0,0
-595,-622,0,0,0,0,0,0,0,0,0,-1,629,1646,0,0
-588,-622,0,0,0,0,0,0,0,0,0,-1,636,1646,0,0
-581,-622,0,0,0,0,0,0,0,0,0,-1,643,1646,0,0
-574,-622,0,0,0,0,0,0,0,0,0,-1,650,1646,0,0
-567,-622,0,0,0,0,0,0,0,0,0,-1,657,1646,0,0
-560,-622,0,0,0,0,0,0,0,0,0,-1,664,1646,0,0
-553,-622,0,0,0,0,0,0,0,0,0,-1,671,1646,0,0
-546,-622,0,0,0,0,0,0,0,0,0,-1,678,1646,0,0
-539,-622,0,0,0,0,0,0,0,0,0,-1,685,1646,0,0
-532,-622,0,0,0,0,0,0,0,0,0,-1,692,1646,0,0
-525,-622,0,0,0,0,0,0,0,0,0,-1,699,1646,0,0
-518,-622,0,0,0,0,0,0,0,0,0,-1,706,1646,0,0
-511,-622,0,0,0,0,0,0,0,0,0,-1,713,1646,0,0
-504,-622,0,0,0,0,0,0,0,0,0,-1,720,1646,0,0
-497,-622,0,0,0,0,0,0,0,0,0,-1,727,1646,0,0
-490,-622,0,0,0,0,0,0,0,0,0,-1,734,1646,0,0
-483,-622,0,0,0,0,0,0,0,0,0,-1,741,1646,0,0
-476,-622,0,0,0,0,0,0,0,0,0,-1,748,1646,0,0
-469,-622,0,0,0,0,0,0,0,0,0,-1,755,1646,0,0
-462,-622,0,0,0,0,0,0,0,0,0,-1,762,1646,0,0
-455,-622,0,0,0,0,0,0,0,0,0,-1,769,1646,0,0
-448,-622,0,0,0,0,0,0,0,0,0,-1,776,1646,0,0
-441,-622,0,0,0,0,0,0,0,0,0,-1,783,1646,0,0
-434,-622,0,0,0,0,0,0,0,0,0,-1,790,1646,0,0
-427,-622,-7.62891,3.48096,0,0,0,0,0,0,0,-1,797,1646,-7.62892,-3.48092
-420,-622,-9.35791,1.77185,0,0,0,0,0,0,0,-1,804,1646,-9.35789,-1.77183
-413,-622,-8.46075,1.96777,0,0,0,0,0,0,0,-1,811,1646,-8.46074,-1.96774
-406,-622,-4.44318,2.16858,0,0,0,0,0,0,0,-1,818,1646,-4.44315,-2.16859
-399,-622,-7.06976,1.51001,0,0,0,0,0,0,0,-1,825,1646,-7.06976,-1.51005
-392,-622,3.89551,5.85376,0,0,0,0,0,0,0,-1,832,1646,3.8955,-5.85379
-385,-622,2.00543,14.0448,0,0,0,0,0,0,0,-1,839,1646,2.00544,-14.0448
-378,-622,1.49036,15.3436,0,0,0,0,0,0,0,-1,846,1646,1.49033,-15.3436
-371,-622,2.01312,36.1357,0,0,0,0,0,0,0,-1,853,1646,2.01314,-36.1358
-364,-622,1.86603,38.0837,0,0,0,0,0,0,0,-1,860,1646,1.86605,-38.0837
-357,-622,2.07208,39.1559,0,0,0,0,0,0,0,-1,867,1646,2.07206,-39.1559
-350,-622,2.00421,40.0161,0.00246072,0.000104961,0.00515314,0.00656889,-0.00400321,0.673041,0.00616343,0.0475712,874,1646,2.00422,-40.0161
-343,-622,1.92096,40.6556,0.00283441,0.000536878,0.00498218,0.00679855,-0.00342725,0.672091,0.00600987,0.0301379,881,1646,1.92098,-40.6557
-336,-622,2.02112,41.2968,0.00293282,0.000854055,0.00463726,0.00664575,-0.00285887,0.675152,0.00563081,0.0100866,888,1646,2.02112,-41.2967
-329,-622,1.96301,42.0217,0.00286361,0.00126517,0.00429541,0.00643352,-0.00230474,0.693418,0.00522939,0.00845784,895,1646,1.96303,-42.0217
-322,-622,1.9187,42.7511,0.00276267,0.00160224,0.00381276,0.00603911,-0.0016742,0.709889,0.00468494,0.00998803,902,1646,1.91867,-42.7511
-315,-622,1.89484,43.4694,0.00276614,0.00202566,0.00343995,0.00585572,-0.00106392,0.73179,0.00430252,0.0141884,909,1646,1.89484,-43.4693
-308,-622,1.86877,44.156,0.00290818,0.00245717,0.00313802,0.00582879,-0.000463439,0.749529,0.00404919,0.0150573,916,1646,1.86876,-44.156
-301,-622,1.83447,44.8077,0.00312843,0.00292296,0.00294351,0.005971,8.03948e-05,0.767954,0.00395414,0.0140503,923,1646,1.83446,-44.8077
-294,-622,1.79443,45.4834,0.00348564,0.00370273,0.00298581,0.00658197,0.000606396,0.803567,0.00420046,0.0112276,930,1646,1.79445,-45.4834
-287,-622,1.75073,46.1628,0.00396086,0.00438588,0.00309188,0.00727254,0.0010742,0.81971,0.00453292,0.00897561,937,1646,1.75075,-46.1629
-280,-622,1.72363,46.8466,0.00473234,0.00487579,0.00338569,0.00819052,0.00141761,0.795989,0.00505451,0.0104987,944,1646,1.72363,-46.8465
-273,-622,1.71136,47.4802,0.0057638,0.00519644,0.00391442,0.00940481,0.00155543,0.749226,0.00582108,0.0165633,951,1646,1.71134,-47.4803
-266,-622,1.67334,48.1373,0.0067573,0.00557928,0.00442911,0.0106364,0.00170018,0.719293,0.00659763,0.0155677,958,1646,1.67333,-48.1373
-259,-622,1.66675,48.8514,0.00798321,0.00593751,0.00508756,0.0121497,0.00177099,0.686196,0.00757877,0.0129816,965,1646,1.66674,-48.8515
-252,-622,1.65582,49.4832,0.00942414,0.00623908,0.00576822,0.0138156,0.00184758,0.65071,0.0086605,0.0127995,972,1646,1.65584,-49.4832
-245,-622,1.7066,50.1295,0.0109649,0.00637365,0.00642784,0.0154948,0.00184382,0.613887,0.00977339,0.0115033,979,1646,1.70662,-50.1295
-238,-622,1.69159,50.7748,0.0124129,0.00642207,0.00700806,0.0170388,0.0017961,0.583438,0.0108104,0.0142937,986,1646,1.69159,-50.7748
-231,-622,1.74261,51.4634,0.0134579,0.00645008,0.00730889,0.0180594,0.00184861,0.56188,0.0114731,0.0217756,993,1646,1.7426,-51.4634
-224,-622,1.8783,51.9641,0.0143515,0.006102,0.00747352,0.018763,0.00169053,0.533241,0.011985,0.032593,1000,1646,1.87829,-51.9642
-217,-622,2.00098,52.4967,0,0,0,0,0,0,0,-1,1007,1646,2.00099,-52.4966
-210,-622,1.97565,53.1395,0,0,0,0,0,0,0,-1,1014,1646,1.97565,-53.1395
-203,-622,4.21375,20.9574,0,0,0,0,0,0,0,-1,1021,1646,4.21375,-20.9574
-196,-622,2.72803,52.0175,0,0,0,0,0,0,0,-1,1028,1646,2.72803,-52.0175
-189,-622,2.0481,54.3247,0,0,0,0,0,0,0,-1,1035,1646,2.04815,-54.3247
-182,-622,1.6167,56.2531,0,0,0,0,0,0,0,-1,1042,1646,1.61666,-56.253
-175,-622,3.61438,53.5428,0,0,0,0,0,0,0,-1,1049,1646,3.61438,-53.5428
-168,-622,3.44849,53.4453,0,0,0,0,0,0,0,-1,1056,1646,3.44848,-53.4453
-161,-622,2.79761,52.5291,0,0,0,0,0,0,0,-1,1063,1646,2.79756,-52.529
-154,-622,2.00879,52.2384,0,0,0,0,0,0,0,-1,1070,1646,2.00874,-52.2384
-147,-622,0.939453,52.2694,0,0,0,0,0,0,0,-1,1077,1646,0.939511,-52.2694
-140,-622,0.546997,48.6783,0,0,0,0,0,0,0,-1,1084,1646,0.547022,-48.6784
-133,-622,3.09644,17.677,0,0,0,0,0,0,0,-1,1091,1646,3.09638,-17.677
-126,-622,3.5061,19.5251,0,0,0,0,0,0,0,-1,1098,1646,3.50616,-19.5252
-119,-622,4.06384,13.1715,0,0,0,0,0,0,0,-1,1105,1646,4.06379,-13.1716
-112,-622,4.33276,14.6605,0,0,0,0,0,0,0,-1,1112,1646,4.33281,-14.6605
-105,-622,0.306519,4.38159,0,0,0,0,0,0,0,-1,1119,1646,0.306536,-4.38159
-98,-622,-0.510376,3.5033,0,0,0,0,0,0,0,-1,1126,1646,-0.510393,-3.50324
-91,-622,-1.146,0.975952,0,0,0,0,0,0,0,-1,1133,1646,-1.14599,-0.97597
-84,-622,-2.04895,1.31787,0,0,0,0,0,0,0,-1,1140,1646,-2.0489,-1.31781
-77,-622,-1.80627,0.332275,0,0,0,0,0,0,0,-1,1147,1646,-1.80622,-0.33223
-70,-622,-3.65588,2.28149,0,0,0,0,0,0,0,-1,1154,1646,-3.65589,-2.28155
-63,-622,-2.49683,1.27087,0,0,0,0,0,0,0,-1,1161,1646,-2.49679,-1.27093
-56,-622,-2.44238,-0.575562,0,0,0,0,0,0,0,-1,1168,1646,-2.44242,0.575508
-49,-622,-2.41089,1.38818,0,0,0,0,0,0,0,-1,1175,1646,-2.41088,-1.38815
-42,-622,-2.71497,2.85242,0,0,0,0,0,0,0,-1,1182,1646,-2.71491,-2.85247
-35,-622,-3.0177,4.25842,0,0,0,0,0,0,0,-1,1189,1646,-3.01773,-4.25838
-28,-622,-0.896606,0.678833,0,0,0,0,0,0,0,-1,1196,1646,-0.89661,-0.678835
-21,-622,16.4141,36.2849,0,0,0,0,0,0,0,-1,1203,1646,16.4141,-36.285
-14,-622,7.23254,64.425,0,0,0,0,0,0,0,-1,1210,1646,7.23256,-64.425
-7,-622,3.84351,65.6951,0,0,0,0,0,0,0,-1,1217,1646,3.84347,-65.6951
0,-622,0,0,0,0,0,0,0,0,0,-1,1224,1646,0,0
7,-622,0,0,0,0,0,0,0,0,0,-1,1231,1646,0,0
14,-622,0,0,0,0,0,0,0,0,0,-1,1238,1646,0,0
21,-622,0,0,0,0,0,0,0,0,0,-1,1245,1646,0,0
28,-622,0,0,0,0,0,0,0,0,0,-1,1252,1646,0,0
35,-622,0,0,0,0,0,0,0,0,0,-1,1259,1646,0,0
42,-622,0,0,0,0,0,0,0,0,0,-1,1266,1646,0,0
49,-622,0,0,0,0,0,0,0,0,0,-1,1273,1646,0,0
56,-622,0,0,0,0,0,0,0,0,0,-1,1280,1646,0,0
63,-622,0,0,0,0,0,0,0,0,0,-1,1287,1646,0,0
70,-622,0,0,0,0,0,0,0,0,0,-1,1294,1646,0,0
77,-622,0,0,0,0,0,0,0,0,0,-1,1301,1646,0,0
84,-622,0,0,0,0,0,0,0,0,0,-1,1308,1646,0,0
91,-622,0,0,0,0,0,0,0,0,0,-1,1315,1646,0,0
98,-622,0,0,0,0,0,0,0,0,0,-1,1322,1646,0,0
105,-622,0,0,0,0,0,0,0,0,0,-1,1329,1646,0,0
112,-622,0,0,0,0,0,0,0,0,0,-1,1336,1646,0,0
119,-622,0,0,0,0,0,0,0,0,0,-1,1343,1646,0,0
126,-622,9.71973,55.2065,0.0630788,-0.0375621,-0.0955187,0.120721,-0.0952045,-0.542965,0.124954,0.0418893,1350,1646,9.71967,-55.2065
133,-622,9.88428,53.1726,0.0872025,-0.0425554,-0.0931488,0.13584,-0.0911929,-0.481209,0.13192,0.0469427,1357,1646,9.88432,-53.1726
140,-622,10.0645,51.2539,0,0,0,0,0,0,0,-1,1364,1646,10.0644,-51.2539
147,-622,10.2966,49.2885,0,0,0,0,0,0,0,-1,1371,1646,10.2966,-49.2884
154,-622,2.5271,52.655,0,0,0,0,0,0,0,-1,1378,1646,2.52706,-52.655
161,-622,10.6884,6.46448,0,0,0,0,0,0,0,-1,1385,1646,10.6883,-6.46442
168,-622,12.2402,5.18091,0,0,0,0,0,0,0,-1,1392,1646,12.2403,-5.1809
175,-622,5.64355,-1.77075,0,0,0,0,0,0,0,-1,1399,1646,5.64351,1.77077
182,-622,5.88586,-1.32251,0,0,0,0,0,0,0,-1,1406,1646,5.88587,1.32256
189,-622,5.97986,-1.18005,0,0,0,0,0,0,0,-1,1413,1646,5.97986,1.18003
196,-622,5.85022,-0.244507,0,0,0,0,0,0,0,-1,1420,1646,5.85026,0.244478
203,-622,5.25159,0.138794,0,0,0,0,0,0,0,-1,1427,1646,5.25162,-0.138822
210,-622,6.66833,0.0397949,0,0,0,0,0,0,0,-1,1434,1646,6.6684,-0.0398278
217,-622,6.12061,0.0506592,0,0,0,0,0,0,0,-1,1441,1646,6.12058,-0.0507181
224,-622,5.57275,0.0616455,0,0,0,0,0,0,0,-1,1448,1646,5.57276,-0.0616084
231,-622,5.31348,1.3949,0,0,0,0,0,0,0,-1,1455,1646,5.31342,-1.39495
238,-622,3.76477,2.90686,0,0,0,0,0,0,0,-1,1462,1646,3.7648,-2.90686
245,-622,5.13794,2.67993,0,0,0,0,0,0,0,-1,1469,1646,5.13796,-2.67992
252,-622,6.66528,2.53992,0,0,0,0,0,0,0,-1,1476,1646,6.66522,-2.53991
259,-622,8.93787,3.31458,0,0,0,0,0,0,0,-1,1483,1646,8.93791,-3.31454
266,-622,5.72644,3.11926,0,0,0,0,0,0,0,-1,1490,1646,5.72647,-3.1192
273,-622,7.28076,3.61218,0,0,0,0,0,0,0,-1,1497,1646,7.28071,-3.61212
280,-622,8.43127,4.4447,0,0,0,0,0,0,0,-1,1504,1646,8.43123,-4.44467
287,-622,8.60315,5.94617,0,0,0,0,0,0,0,-1,1511,1646,8.60319,-5.94622
294,-622,7.62756,11.5143,0,0,0,0,0,0,0,-1,1518,1646,7.62762,-11.5143
301,-622,7.36548,11.6569,0,0,0,0,0,0,0,-1,1525,1646,7.36549,-11.6569
308,-622,7.10339,11.7994,0,0,0,0,0,0,0,-1,1532,1646,7.10335,-11.7995
315,-622,8.28687,16.5842,0,0,0,0,0,0,0,-1,1539,1646,8.28689,-16.5843
322,-622,7.43689,20.5786,0,0,0,0,0,0,0,-1,1546,1646,7.43685,-20.5786
329,-622,9.76477,26.4202,0,0,0,0,0,0,0,-1,1553,1646,9.7648,-26.4202
336,-622,10.4526,28.8552,0,0,0,0,0,0,0,-1,1560,1646,10.4526,-28.8552
343,-622,15.1061,49.1334,0,0,0,0,0,0,0,-1,1567,1646,15.1061,-49.1335
350,-622,16.2759,52.3401,0,0,0,0,0,0,0,-1,1574,1646,16.2759,-52.34
357,-622,16.269,51.6206,0.01165,0.0189808,-0.00898317,0.0250176,0.00561318,-0.979103,0.0151578,0.0406554,1581,1646,16.269,-51.6206
364,-622,16.3367,50.8193,0.010686,0.0170363,-0.00828767,0.0227362,0.00498605,-0.968332,0.0137991,0.0315617,1588,1646,16.3367,-50.8193
371,-622,16.3726,50.1167,0.0099253,0.014966,-0.00732468,0.0201918,0.00469949,-0.951098,0.0122002,0.0193674,1595,1646,16.3726,-50.1167
378,-622,16.3911,49.4349,0.00900739,0.0129533,-0.00632568,0.0176066,0.00435414,-0.936566,0.0105891,0.0122871,1602,1646,16.3911,-49.4349
385,-622,16.3817,48.775,0.0079691,0.01105,-0.00533192,0.0150595,0.00395956,-0.926024,0.00901452,0.0103246,1609,1646,16.3817,-48.7751
392,-622,16.3553,48.1556,0.00678984,0.00925795,-0.00440203,0.0125956,0.00345216,-0.922059,0.00751547,0.0114784,1616,1646,16.3553,-48.1557
399,-622,16.3223,47.5106,0.00563069,0.00781157,-0.00367161,0.0105512,0.00289102,-0.929746,0.00629578,0.0122155,1623,1646,16.3222,-47.5106
406,-622,16.3199,46.8589,0.00457221,0.00648599,-0.0031071,0.00878021,0.00227799,-0.934774,0.00526118,0.0153066,1630,1646,16.32,-46.8589
413,-622,16.3142,46.2114,0.00360811,0.00527471,-0.0025932,0.00716521,0.00171761,-0.940857,0.00431964,0.0166637,1637,1646,16.3142,-46.2114
420,-622,16.2841,45.5787,0.00288305,0.00435039,-0.00232518,0.0060549,0.00117854,-0.938222,0.00370674,0.0166026,1644,1646,16.284,-45.5788
427,-622,16.2456,44.9,0.00228768,0.00352292,-0.00218383,0.00517478,0.00063582,-0.923207,0.00325866,0.013485,1651,1646,16.2456,-44.9
434,-622,16.2211,44.2175,0.00187323,0.00296311,-0.00220867,0.00469307,0.000143272,-0.906346,0.00308207,0.0144943,1658,1646,16.2211,-44.2175
441,-622,16.2124,43.5387,0.00172903,0.00246616,-0.00238395,0.00450987,-0.00031467,-0.862093,0.00311677,0.0166758,1665,1646,16.2125,-43.5386
448,-622,16.178,42.8721,0.0018577,0.00203005,-0.00268971,0.00463496,-0.000747213,-0.801411,0.0033668,0.0147647,1672,1646,16.178,-42.8721
455,-622,16.1335,42.1688,0.00218855,0.00163688,-0.00309201,0.005017,-0.00119157,-0.740911,0.00380458,0.0155492,1679,1646,16.1335,-42.1688
462,-622,16.115,41.4872,0.00257994,0.00109833,-0.00347624,0.00539343,-0.00171516,-0.680416,0.00428338,0.0171534,1686,1646,16.115,-41.4872
469,-622,16.0758,40.8032,0.00294218,0.000529027,-0.00380552,0.00572782,-0.00225662,-0.631882,0.00475282,0.0194115,1693,1646,16.0758,-40.8032
476,-622,16.1826,40.0676,0.00337643,-7.49256e-05,-0.00400303,0.00600991,-0.0027084,-0.581888,0.00515242,0.0406603,1700,1646,16.1826,-40.0677
483,-622,16.147,39.1656,0,0,0,0,0,0,0,-1,1707,1646,16.147,-39.1656
490,-622,15.8815,36.627,0,0,0,0,0,0,0,-1,1714,1646,15.8814,-36.6269
497,-622,14.9666,32.1024,0,0,0,0,0,0,0,-1,1721,1646,14.9665,-32.1024
504,-622,10.8306,19.8021,0,0,0,0,0,0,0,-1,1728,1646,10.8306,-19.8022
511,-622,5.29004,4.14587,0,0,0,0,0,0,0,-1,1735,1646,5.29008,-4.14589
518,-622,5.6001,1.55359,0,0,0,0,0,0,0,-1,1742,1646,5.60015,-1.5536
525,-622,5.83093,2.01807,0,0,0,0,0,0,0,-1,1749,1646,5.83097,-2.01802
532,-622,5.44202,0.57373,0,0,0,0,0,0,0,-1,1756,1646,5.44196,-0.573705
539,-622,9.32129,1.06116,0,0,0,0,0,0,0,-1,1763,1646,9.32131,-1.0612
546,-622,6.50977,-3.45618,0,0,0,0,0,0,0,-1,1770,1646,6.50981,3.4562
553,-622,0,0,0,0,0,0,0,0,0,-1,1777,1646,0,0
560,-622,0,0,0,0,0,0,0,0,0,-1,1784,1646,0,0
567,-622,0,0,0,0,0,0,0,0,0,-1,1791,1646,0,0
574,-622,0,0,0,0,0,0,0,0,0,-1,1798,1646,0,0
581,-622,0,0,0,0,0,0,0,0,0,-1,1805,1646,0,0
588,-622,0,0,0,0,0,0,0,0,0,-1,1812,1646,0,0
595,-622,0,0,0,0,0,0,0,0,0,-1,1819,1646,0,0
602,-622,0,0,0,0,0,0,0,0,0,-1,1826,1646,0,0
609,-622,0,0,0,0,0,0,0,0,0,-1,1833,1646,0,0
616,-622,0,0,0,0,0,0,0,0,0,-1,1840,1646,0,0
623,-622,0,0,0,0,0,0,0,0,0,-1,1847,1646,0,0
630,-622,0,0,0,0,0,0,0,0,0,-1,1854,1646,0,0
637,-622,0,0,0,0,0,0,0,0,0,-1,1861,1646,0,0
644,-622,0,0,0,0,0,0,0,0,0,-1,1868,1646,0,0
651,-622,0,0,0,0,0,0,0,0,0,-1,1875,1646,0,0
658,-622,0,0,0,0,0,0,0,0,0,-1,1882,1646,0,0
665,-622,0,0,0,0,0,0,0,0,0,-1,1889,1646,0,0
672,-622,0,0,0,0,0,0,0,0,0,-1,1896,1646,0,0
679,-622,0,0,0,0,0,0,0,0,0,-1,1903,1646,0,0
686,-622,0,0,0,0,0,0,0,0,0,-1,1910,1646,0,0
693,-622,0,0,0,0,0,0,0,0,0,-1,1917,1646,0,0
700,-622,0,0,0,0,0,0,0,0,0,-1,1924,1646,0,0
707,-622,0,0,0,0,0,0,0,0,0,-1,1931,1646,0,0
714,-622,0,0,0,0,0,0,0,0,0,-1,1938,1646,0,0
721,-622,0,0,0,0,0,0,0,0,0,-1,1945,1646,0,0
728,-622,0,0,0,0,0,0,0,0,0,-1,1952,1646,0,0
735,-622,0,0,0,0,0,0,0,0,0,-1,1959,1646,0,0
742,-622,0,0,0,0,0,0,0,0,0,-1,1966,1646,0,0
749,-622,0,0,0,0,0,0,0,0,0,-1,1973,1646,0,0
756,-622,0,0,0,0,0,0,0,0,0,-1,1980,1646,0,0
763,-622,0,0,0,0,0,0,0,0,0,-1,1987,1646,0,0
770,-622,0,0,0,0,0,0,0,0,0,-1,1994,1646,0,0
777,-622,0,0,0,0,0,0,0,0,0,-1,2001,1646,0,0
784,-622,0,0,0,0,0,0,0,0,0,-1,2008,1646,0,0
791,-622,0,0,0,0,0,0,0,0,0,-1,2015,1646,0,0
798,-622,0,0,0,0,0,0,0,0,0,-1,2022,1646,0,0
805,-622,0,0,0,0,0,0,0,0,0,-1,2029,1646,0,0
812,-622,0,0,0,0,0,0,0,0,0,-1,2036,1646,0,0
-700,-629,0,0,0,0,0,0,0,0,0,-1,524,1653,0,0
-693,-629,0,0,0,0,0,0,0,0,0,-1,531,1653,0,0
-686,-629,0,0,0,0,0,0,0,0,0,-1,538,1653,0,0
-679,-629,0,0,0,0,0,0,0,0,0,-1,545,1653,0,0
-672,-629,0,0,0,0,0,0,0,0,0,-1,552,1653,0,0
-665,-629,0,0,0,0,0,0,0,0,0,-1,559,1653,0,0
-658,-629,0,0,0,0,0,0,0,0,0,-1,566,1653,0,0
-651,-629,0,0,0,0,0,0,0,0,0,-1,573,1653,0,0
-644,-629,0,0,0,0,0,0,0,0,0,-1,580,1653,0,0
-637,-629,0,0,0,0,0,0,0,0,0,-1,587,1653,0,0
-630,-629,0,0,0,0,0,0,0,0,0,-1,594,1653,0,0
-623,-629,0,0,0,0,0,0,0,0,0,-1,601,1653,0,0
-616,-629,0,0,0,0,0,0,0,0,0,-1,608,1653,0,0
-609,-629,0,0,0,0,0,0,0,0,0,-1,615,1653,0,0
-602,-629,0,0,0,0,0,0,0,0,0,-1,622,1653,0,0
-595,-629,0,0,0,0,0,0,0,0,0,-1,629,1653,0,0
-588,-629,0,0,0,0,0,0,0,0,0,-1,636,1653,0,0
-581,-629,0,0,0,0,0,0,0,0,0,-1,643,1653,0,0
-574,-629,0,0,0,0,0,0,0,0,0,-1,650,1653,0,0
-567,-629,0,0,0,0,0,0,0,0,0,-1,657,1653,0,0
-560,-629,0,0,0,0,0,0,0,0,0,-1,664,1653,0,0
-553,-629,0,0,0,0,0,0,0,0,0,-1,671,1653,0,0
-546,-629,0,0,0,0,0,0,0,0,0,-1,678,1653,0,0
-539,-629,0,0,0,0,0,0,0,0,0,-1,685,1653,0,0
-532,-629,0,0,0,0,0,0,0,0,0,-1,692,1653,0,0
-525,-629,0,0,0,0,0,0,0,0,0,-1,699,1653,0,0
-518,-629,0,0,0,0,0,0,0,0,0,-1,706,1653,0,0
-511,-629,0,0,0,0,0,0,0,0,0,-1,713,1653,0,0
-504,-629,0,0,0,0,0,0,0,0,0,-1,720,1653,0,0
-497,-629,0,0,0,0,0,0,0,0,0,-1,727,1653,0,0
-490,-629,0,0,0,0,0,0,0,0,0,-1,734,1653,0,0
-483,-629,0,0,0,0,0,0,0,0,0,-1,741,1653,0,0
-476,-629,0,0,0,0,0,0,0,0,0,-1,748,1653,0,0
-469,-629,0,0,0,0,0,0,0,0,0,-1,755,1653,0,0
-462,-629,0,0,0,0,0,0,0,0,0,-1,762,1653,0,0
-455,-629,0,0,0,0,0,0,0,0,0,-1,769,1653,0,0
-448,-629,0,0,0,0,0,0,0,0,0,-1,776,1653,0,0
-441,-629,0,0,0,0,0,0,0,0,0,-1,783,1653,0,0
-434,-629,0,0,0,0,0,0,0,0,0,-1,790,1653,0,0
-427,-629,0,0,0,0,0,0,0,0,0,-1,797,1653,0,0
-420,-629,-3.87103,3.37634,0,0,0,0,0,0,0,-1,804,1653,-3.87101,-3.37633
-413,-629,-5.69751,1.33582,0,0,0,0,0,0,0,-1,811,1653,-5.69754,-1.3358
-406,-629,2.85406,6.01501,0,0,0,0,0,0,0,-1,818,1653,2.85405,-6.01507
-399,-629,-0.455627,10.8687,0,0,0,0,0,0,0,-1,825,1653,-0.455625,-10.8687
-392,-629,1.15369,11.1295,0,0,0,0,0,0,0,-1,832,1653,1.1537,-11.1295
-385,-629,1.81976,11.6935,0,0,0,0,0,0,0,-1,839,1653,1.81975,-11.6935
-378,-629,2.19452,14.7941,0,0,0,0,0,0,0,-1,846,1653,2.19451,-14.7941
-371,-629,3.60114,14.7299,0,0,0,0,0,0,0,-1,853,1653,3.60113,-14.7299
-364,-629,3.26898,21.0801,0,0,0,0,0,0,0,-1,860,1653,3.26895,-21.08
-357,-629,4.38782,16.3444,0,0,0,0,0,0,0,-1,867,1653,4.38783,-16.3443
-350,-629,2.5882,40.0715,0,0,0,0,0,0,0,-1,874,1653,2.5882,-40.0716
-343,-629,2.59351,40.7051,0.00465977,0.0014783,0.00735597,0.010595,-0.00445697,0.678912,0.00892789,0.040867,881,1653,2.59352,-40.7051
-336,-629,2.70886,41.3335,0.00448051,0.00181904,0.00662419,0.00990631,-0.00360676,0.686272,0.00807942,0.0194981,888,1653,2.70888,-41.3335
-329,-629,2.67065,42.0559,0.00401732,0.00221301,0.00589602,0.00907981,-0.00284947,0.709482,0.00719367,0.01104,895,1653,2.67064,-42.0559
-322,-629,2.61957,42.7673,0.00346867,0.00252471,0.00502051,0.00803933,-0.00204595,0.738531,0.00615593,0.011696,902,1653,2.61957,-42.7673
-315,-629,2.57825,43.4867,0.00309791,0.00288394,0.00425525,0.00724752,-0.00126567,0.77283,0.00530415,0.0158053,909,1653,2.57828,-43.4866
-308,-629,2.55402,44.1842,0.00288448,0.00323617,0.00361406,0.00667867,-0.00055801,0.809707,0.00464962,0.0137779,916,1653,2.554,-44.1842
-301,-629,2.53485,44.865,0.00274514,0.00359925,0.00308381,0.00628543,5.89567e-05,0.854203,0.00417077,0.0114934,923,1653,2.53486,-44.865
-294,-629,2.49475,45.5286,0.00277322,0.00414908,0.00280924,0.00635339,0.000568905,0.905476,0.00405927,0.0123797,930,1653,2.49478,-45.5285
-287,-629,2.44519,46.2162,0.00291923,0.00455953,0.00265487,0.00651804,0.000960715,0.935209,0.00406316,0.0105313,937,1653,2.44519,-46.2162
-280,-629,2.41199,46.8965,0.00335535,0.00475282,0.00269403,0.00683725,0.00127091,0.912284,0.00419914,0.0109896,944,1653,2.41201,-46.8965
-273,-629,2.375,47.515,0.00407739,0.00475796,0.00297386,0.00741094,0.00142441,0.842363,0.00454092,0.0150764,951,1653,2.375,-47.515
-266,-629,2.35333,48.1808,0.00476669,0.00472684,0.0031781,0.00792493,0.00156861,0.782264,0.0048458,0.0152661,958,1653,2.35336,-48.1807
-259,-629,2.34436,48.8823,0.00569725,0.00475127,0.00358392,0.00883926,0.00160926,0.71979,0.0054364,0.0147156,965,1653,2.34435,-48.8823
-252,-629,2.32422,49.5282,0.0068183,0.00474071,0.00402993,0.00994117,0.00161784,0.659259,0.0061594,0.0116907,972,1653,2.32421,-49.5282
-245,-629,2.31854,50.1576,0.00804904,0.00459868,0.00447172,0.0111168,0.0015309,0.601296,0.00695729,0.0088929,979,1653,2.31857,-50.1576
-238,-629,2.30469,50.7882,0.00921343,0.00443012,0.00482343,0.0122056,0.00143796,0.555241,0.00770262,0.0109942,986,1653,2.3047,-50.7882
-231,-629,2.27203,51.4132,0.0100626,0.00443082,0.00494892,0.0129406,0.00155275,0.526746,0.00815891,0.0145065,993,1653,2.27206,-51.4132
-224,-629,2.38123,52.1108,0.0107974,0.00430717,0.00494026,0.0134631,0.00164155,0.494801,0.00848132,0.0171002,1000,1653,2.38123,-52.1109
-217,-629,2.33258,52.67,0.0113546,0.00362071,0.00487714,0.0137118,0.00126352,0.450209,0.00875047,0.0276461,1007,1653,2.33257,-52.67
-210,-629,2.15442,53.6021,0,0,0,0,0,0,0,-1,1014,1653,2.15445,-53.6021
-203,-629,2.51447,54.4719,0,0,0,0,0,0,0,-1,1021,1653,2.51447,-54.4719
-196,-629,2.87646,54.4636,0,0,0,0,0,0,0,-1,1028,1653,2.87645,-54.4637
-189,-629,2.17627,55.262,0,0,0,0,0,0,0,-1,1035,1653,2.17621,-55.262
-182,-629,2.29675,55.9484,0,0,0,0,0,0,0,-1,1042,1653,2.29671,-55.9484
-175,-629,2.41724,56.6348,0,0,0,0,0,0,0,-1,1049,1653,2.4172,-56.6347
-168,-629,3.94775,55.7037,0,0,0,0,0,0,0,-1,1056,1653,3.94774,-55.7038
-161,-629,3.2146,53.0543,0,0,0,0,0,0,0,-1,1063,1653,3.21462,-53.0543
-154,-629,2.30042,52.7101,0,0,0,0,0,0,0,-1,1070,1653,2.30043,-52.7101
-147,-629,1.22363,52.6086,0,0,0,0,0,0,0,-1,1077,1653,1.22368,-52.6087
-140,-629,3.68201,55.7941,0,0,0,0,0,0,0,-1,1084,1653,3.68206,-55.7941
-133,-629,1.99792,57.769,0,0,0,0,0,0,0,-1,1091,1653,1.99792,-57.769
-126,-629,4.01025,19.5328,0,0,0,0,0,0,0,-1,1098,1653,4.01022,-19.5328
-119,-629,4.94177,13.5525,0,0,0,0,0,0,0,-1,1105,1653,4.94172,-13.5525
-112,-629,5.63123,15.9187,0,0,0,0,0,0,0,-1,1112,1653,5.63118,-15.9187
-105,-629,2.15881,4.38342,0,0,0,0,0,0,0,-1,1119,1653,2.15878,-4.38347
-98,-629,0.825806,4.19385,0,0,0,0,0,0,0,-1,1126,1653,0.825779,-4.1939
-91,-629,-0.452271,3.64465,0,0,0,0,0,0,0,-1,1133,1653,-0.452278,-3.6446
-84,-629,-2.6084,0.466797,0,0,0,0,0,0,0,-1,1140,1653,-2.6084,-0.466786
-77,-629,-3.50903,2.10706,0,0,0,0,0,0,0,-1,1147,1653,-3.509,-2.10707
-70,-629,-1.20886,2.52502,0,0,0,0,0,0,0,-1,1154,1653,-1.20886,-2.525
-63,-629,-0.960693,4.30212,0,0,0,0,0,0,0,-1,1161,1653,-0.960691,-4.30215
-56,-629,-1.31934,5.64343,0,0,0,0,0,0,0,-1,1168,1653,-1.31928,-5.6434
-49,-629,-2.15662,2.57458,0,0,0,0,0,0,0,-1,1175,1653,-2.15656,-2.57459
-42,-629,-2.46326,3.91467,0,0,0,0,0,0,0,-1,1182,1653,-2.4633,-3.91466
-35,-629,-2.67261,5.24292,0,0,0,0,0,0,0,-1,1189,1653,-2.67257,-5.24298
-28,-629,-0.402954,-0.866577,0,0,0,0,0,0,0,-1,1196,1653,-0.402943,0.866612
-21,-629,3.45508,27.0596,0,0,0,0,0,0,0,-1,1203,1653,3.45508,-27.0596
-14,-629,3.56299,64.761,0,0,0,0,0,0,0,-1,1210,1653,3.56298,-64.761
-7,-629,14.7559,78.9047,0,0,0,0,0,0,0,-1,1217,1653,14.7559,-78.9047
0,-629,15.3801,78.2197,0.0937262,0.131591,0.0479371,0.164199,0.0611184,0.973469,0.0958268,0.0496812,1224,1653,15.3802,-78.2198
7,-629,15.7388,77.3969,0.0649107,0.139181,0.0375343,0.154846,0.0492458,1.17543,0.0913526,0.0436723,1231,1653,15.7388,-77.3969
14,-629,16.1648,77.0636,0.039071,0.141259,0.0237693,0.146518,0.0338127,1.35308,0.0885853,0.040722,1238,1653,16.1648,-77.0637
21,-629,16.7693,76.8225,0.0131181,0.135949,0.00727087,0.136378,0.0126892,1.51188,0.0869978,0.0449928,1245,1653,16.7693,-76.8226
28,-629,17.0138,76.3951,-0.0115556,0.124443,-0.0113387,0.125382,-0.0124945,-1.48818,0.0880488,0.0488618,1252,1653,17.0138,-76.3951
35,-629,16.6102,75.7074,-0.0283973,0.104485,-0.0291904,0.110615,-0.0345269,-1.36382,0.0875517,0.0462426,1259,1653,16.6102,-75.7074
42,-629,16.4186,75.2126,-0.0405451,0.0839219,-0.0464635,0.0993535,-0.0559767,-1.25014,0.090838,0.0476783,1266,1653,16.4186,-75.2126
49,-629,13.1495,73.8062,-0.0480968,0.0615951,-0.0643906,0.0913319,-0.0778336,-1.13816,0.0977713,0.0456064,1273,1653,13.1495,-73.8061
56,-629,11.7659,71.9401,-0.0552289,0.0373614,-0.0819982,0.0852308,-0.103098,-1.04238,0.108895,0.0488926,1280,1653,11.7659,-71.9401
63,-629,11.7087,70.3319,-0.0525366,0.0227203,-0.0926854,0.0851243,-0.114941,-0.978224,0.115934,0.0470904,1287,1653,11.7088,-70.3319
70,-629,9.14893,67.827,0,0,0,0,0,0,0,-1,1294,1653,9.14897,-67.827
77,-629,9.40686,66.587,0,0,0,0,0,0,0,-1,1301,1653,9.40681,-66.587
84,-629,9.83411,65.5907,-0.0233973,-0.0108373,-0.110132,0.0931937,-0.127428,-0.813879,0.127886,0.0473528,1308,1653,9.83417,-65.5907
91,-629,10.1802,64.9822,-0.0104959,-0.0217859,-0.113356,0.0973559,-0.129638,-0.760519,0.131496,0.0415233,1315,1653,10.1802,-64.9822
98,-629,8.97656,62.9454,0.00590683,-0.032152,-0.114748,0.103193,-0.129438,-0.703228,0.134594,0.04494,1322,1653,8.97657,-62.9455
105,-629,8.59155,61.3041,0,0,0,0,0,0,0,-1,1329,1653,8.5915,-61.3041
112,-629,8.72253,59.0967,0.0411285,-0.0383265,-0.108338,0.116794,-0.113992,-0.609662,0.133247,0.0451388,1336,1653,8.72254,-59.0967
119,-629,8.74988,56.925,0.058868,-0.0408325,-0.106896,0.126966,-0.10893,-0.567216,0.136327,0.0411009,1343,1653,8.7499,-56.925
126,-629,8.96375,55.0989,0.0835808,-0.0459418,-0.105647,0.142736,-0.105097,-0.510439,0.143636,0.0399468,1350,1653,8.9638,-55.0989
133,-629,9.24011,53.2908,0.112331,-0.0531669,-0.104546,0.162913,-0.103749,-0.450626,0.155215,0.0447076,1357,1653,9.24014,-53.2908
140,-629,9.50378,51.4747,0,0,0,0,0,0,0,-1,1364,1653,9.50378,-51.4747
147,-629,10.4403,48.5419,0,0,0,0,0,0,0,-1,1371,1653,10.4403,-48.5419
154,-629,6.41516,53.151,0,0,0,0,0,0,0,-1,1378,1653,6.41517,-53.151
161,-629,10.5461,6.83752,0,0,0,0,0,0,0,-1,1385,1653,10.5461,-6.83758
168,-629,12.0059,5.56348,0,0,0,0,0,0,0,-1,1392,1653,12.0059,-5.56352
175,-629,5.84485,-1.78845,0,0,0,0,0,0,0,-1,1399,1653,5.84479,1.7884
182,-629,5.99036,-1.27783,0,0,0,0,0,0,0,-1,1406,1653,5.99041,1.27778
189,-629,5.97668,-0.748535,0,0,0,0,0,0,0,-1,1413,1653,5.97671,0.748544
196,-629,4.52869,9.24695,0,0,0,0,0,0,0,-1,1420,1653,4.52869,-9.2469
203,-629,3.75085,6.88037,0,0,0,0,0,0,0,-1,1427,1653,3.75087,-6.88032
210,-629,3.5907,6.52637,0,0,0,0,0,0,0,-1,1434,1653,3.59067,-6.52642
217,-629,2.4585,4.84448,0,0,0,0,0,0,0,-1,1441,1653,2.45855,-4.84448
224,-629,1.31982,3.68481,0,0,0,0,0,0,0,-1,1448,1653,1.31986,-3.68487
231,-629,3.63025,1.73499,0,0,0,0,0,0,0,-1,1455,1653,3.6303,-1.735
238,-629,4.26428,2.11255,0,0,0,0,0,0,0,-1,1462,1653,4.26429,-2.11253
245,-629,5.61816,1.95361,0,0,0,0,0,0,0,-1,1469,1653,5.61815,-1.95359
252,-629,7.27136,2.18982,0,0,0,0,0,0,0,-1,1476,1653,7.27131,-2.18985
259,-629,8.67334,2.18628,0,0,0,0,0,0,0,-1,1483,1653,8.6733,-2.18633
266,-629,6.86475,3.72058,0,0,0,0,0,0,0,-1,1490,1653,6.86479,-3.72063
273,-629,7.9021,3.8717,0,0,0,0,0,0,0,-1,1497,1653,7.90205,-3.87171
280,-629,9.70837,4.39087,0,0,0,0,0,0,0,-1,1504,1653,9.7084,-4.39082
287,-629,9.82947,7.19348,0,0,0,0,0,0,0,-1,1511,1653,9.8295,-7.19347
294,-629,6.56555,11.6359,0,0,0,0,0,0,0,-1,1518,1653,6.5656,-11.6358
301,-629,13.903,44.4862,0,0,0,0,0,0,0,-1,1525,1653,13.903,-44.4862
308,-629,6.08264,12.1423,0,0,0,0,0,0,0,-1,1532,1653,6.08263,-12.1423
315,-629,6.82043,18.2764,0,0,0,0,0,0,0,-1,1539,1653,6.82049,-18.2764
322,-629,14.1931,43.8071,0,0,0,0,0,0,0,-1,1546,1653,14.1931,-43.8071
329,-629,15.5513,53.797,0,0,0,0,0,0,0,-1,1553,1653,15.5512,-53.797
336,-629,15.3459,53.127,0,0,0,0,0,0,0,-1,1560,1653,15.3459,-53.127
343,-629,15.7822,52.5452,0,0,0,0,0,0,0,-1,1567,1653,15.7822,-52.5452
350,-629,15.7947,51.9397,0.00980699,0.0156982,-0.00670295,0.0200742,0.00543098,-0.992422,0.0119898,0.0324906,1574,1653,15.7946,-51.9397
357,-629,15.803,51.2747,0.00861468,0.0139573,-0.00616775,0.0180074,0.00456462,-0.989759,0.0108096,0.0167865,1581,1653,15.8029,-51.2746
364,-629,15.7699,50.6715,0.00786011,0.0125828,-0.0058241,0.016506,0.00393686,-0.977993,0.0099547,0.0148432,1588,1653,15.7699,-50.6716
371,-629,15.7533,50.0605,0.00727957,0.0110698,-0.00524235,0.014749,0.00360029,-0.958839,0.00887933,0.0120147,1595,1653,15.7533,-50.0605
378,-629,15.74,49.4236,0.00659811,0.00956772,-0.00460691,0.0129232,0.00324264,-0.941292,0.00776369,0.0107518,1602,1653,15.7399,-49.4236
385,-629,15.7345,48.8063,0.00586982,0.00810232,-0.00396927,0.0111093,0.00286283,-0.92247,0.00666028,0.0128508,1609,1653,15.7345,-48.8063
392,-629,15.7147,48.1744,0.0050106,0.00677659,-0.0033847,0.00939158,0.00239561,-0.912994,0.0056349,0.0114555,1616,1653,15.7147,-48.1745
399,-629,15.6952,47.5236,0.0041371,0.00565596,-0.00292729,0.00792073,0.00187233,-0.912316,0.00478021,0.0119917,1623,1653,15.6951,-47.5236
406,-629,15.6892,46.879,0.00333182,0.00462322,-0.00258402,0.00664099,0.00131405,-0.907832,0.00406081,0.0151188,1630,1653,15.6892,-46.879
413,-629,15.663,46.2286,0.00261088,0.00374562,-0.00227994,0.00552773,0.000828777,-0.907348,0.00344231,0.0236338,1637,1653,15.6629,-46.2287
420,-629,15.6193,45.6251,0.00213412,0.00308888,-0.00220266,0.0048653,0.000357707,-0.892112,0.00313111,0.0229494,1644,1653,15.6192,-45.6251
427,-629,15.5944,44.9562,0.00175658,0.00255208,-0.00225262,0.0044418,-0.000133131,-0.872783,0.00300656,0.0166296,1651,1653,15.5943,-44.9562
434,-629,15.5851,44.274,0.0015384,0.00227163,-0.00245101,0.00438329,-0.000573266,-0.859637,0.00313083,0.0143192,1658,1653,15.5851,-44.2741
441,-629,15.5393,43.5923,0.00155655,0.00204112,-0.00277276,0.00458216,-0.00098449,-0.828978,0.00343036,0.0168998,1665,1653,15.5393,-43.5923
448,-629,15.4991,42.8981,0.0019298,0.00197685,-0.00330726,0.00526067,-0.00135402,-0.788955,0.00403491,0.0158109,1672,1653,15.4991,-42.898
455,-629,15.4613,42.1848,0.00248641,0.00186705,-0.00389548,0.0060845,-0.00173104,-0.745733,0.00473991,0.0146098,1679,1653,15.4613,-42.1848
462,-629,15.4781,41.5417,0.00310604,0.00165539,-0.00448244,0.00692146,-0.00216003,-0.705186,0.00547815,0.0209025,1686,1653,15.4782,-41.5418
469,-629,15.4758,40.8215,0.00374236,0.00144298,-0.00508359,0.00780465,-0.0026193,-0.67419,0.00626156,0.033636,1693,1653,15.4759,-40.8215
476,-629,15.5967,40.0499,0,0,0,0,0,0,0,-1,1700,1653,15.5966,-40.0499
483,-629,14.0381,30.967,0,0,0,0,0,0,0,-1,1707,1653,14.0381,-30.9671
490,-629,13.9072,28.8588,0,0,0,0,0,0,0,-1,1714,1653,13.9072,-28.8587
497,-629,10.3662,19.8605,0,0,0,0,0,0,0,-1,1721,1653,10.3662,-19.8605
504,-629,7.89453,15.5316,0,0,0,0,0,0,0,-1,1728,1653,7.89447,-15.5316
511,-629,6.29138,3.40295,0,0,0,0,0,0,0,-1,1735,1653,6.29137,-3.403
518,-629,5.84387,1.41858,0,0,0,0,0,0,0,-1,1742,1653,5.84391,-1.4186
525,-629,6.4729,1.02319,0,0,0,0,0,0,0,-1,1749,1653,6.47284,-1.02316
532,-629,6.86511,0.903687,0,0,0,0,0,0,0,-1,1756,1653,6.86514,-0.903691
539,-629,6.60803,0.746704,0,0,0,0,0,0,0,-1,1763,1653,6.60809,-0.746691
546,-629,0,0,0,0,0,0,0,0,0,-1,1770,1653,0,0
553,-629,0,0,0,0,0,0,0,0,0,-1,1777,1653,0,0
560,-629,0,0,0,0,0,0,0,0,0,-1,1784,1653,0,0
567,-629,0,0,0,0,0,0,0,0,0,-1,1791,1653,0,0
574,-629,0,0,0,0,0,0,0,0,0,-1,1798,1653,0,0
581,-629,0,0,0,0,0,0,0,0,0,-1,1805,1653,0,0
588,-629,0,0,0,0,0,0,0,0,0,-1,1812,1653,0,0
595,-629,0,0,0,0,0,0,0,0,0,-1,1819,1653,0,0
602,-629,0,0,0,0,0,0,0,0,0,-1,1826,1653,0,0
609,-629,0,0,0,0,0,0,0,0,0,-1,1833,1653,0,0
616,-629,0,0,0,0,0,0,0,0,0,-1,1840,1653,0,0
623,-629,0,0,0,0,0,0,0,0,0,-1,1847,1653,0,0
630,-629,0,0,0,0,0,0,0,0,0,-1,1854,1653,0,0
637,-629,0,0,0,0,0,0,0,0,0,-1,1861,1653,0,0
644,-629,0,0,0,0,0,0,0,0,0,-1,1868,1653,0,0
651,-629,0,0,0,0,0,0,0,0,0,-1,1875,1653,0,0
658,-629,0,0,0,0,0,0,0,0,0,-1,1882,1653,0,0
665,-629,0,0,0,0,0,0,0,0,0,-1,1889,1653,0,0
672,-629,0,0,0,0,0,0,0,0,0,-1,1896,1653,0,0
679,-629,0,0,0,0,0,0,0,0,0,-1,1903,1653,0,0
686,-629,0,0,0,0,0,0,0,0,0,-1,1910,1653,0,0
693,-629,0,0,0,0,0,0,0,0,0,-1,1917,1653,0,0
700,-629,0,0,0,0,0,0,0,0,0,-1,1924,1653,0,0
707,-629,0,0,0,0,0,0,0,0,0,-1,1931,1653,0,0
714,-629,0,0,0,0,0,0,0,0,0,-1,1938,1653,0,0
721,-629,0,0,0,0,0,0,0,0,0,-1,1945,1653,0,0
728,-629,0,0,0,0,0,0,0,0,0,-1,1952,1653,0,0
735,-629,0,0,0,0,0,0,0,0,0,-1,1959,1653,0,0
742,-629,0,0,0,0,0,0,0,0,0,-1,1966,1653,0,0
749,-629,0,0,0,0,0,0,0,0,0,-1,1973,1653,0,0
756,-629,0,0,0,0,0,0,0,0,0,-1,1980,1653,0,0
763,-629,0,0,0,0,0,0,0,0,0,-1,1987,1653,0,0
770,-629,0,0,0,0,0,0,0,0,0,-1,1994,1653,0,0
777,-629,0,0,0,0,0,0,0,0,0,-1,2001,1653,0,0
784,-629,0,0,0,0,0,0,0,0,0,-1,2008,1653,0,0
791,-629,0,0,0,0,0,0,0,0,0,-1,2015,1653,0,0
798,-629,0,0,0,0,0,0,0,0,0,-1,2022,1653,0,0
805,-629,0,0,0,0,0,0,0,0,0,-1,2029,1653,0,0
812,-629,0,0,0,0,0,0,0,0,0,-1,2036,1653,0,0
-700,-636,0,0,0,0,0,0,0,0,0,-1,524,1660,0,0
-693,-636,0,0,0,0,0,0,0,0,0,-1,531,1660,0,0
-686,-636,0,0,0,0,0,0,0,0,0,-1,538,1660,0,0
-679,-636,0,0,0,0,0,0,0,0,0,-1,545,1660,0,0
-672,-636,0,0,0,0,0,0,0,0,0,-1,552,1660,0,0
-665,-636,0,0,0,0,0,0,0,0,0,-1,559,1660,0,0
-658,-636,0,0,0,0,0,0,0,0,0,-1,566,1660,0,0
-651,-636,0,0,0,0,0,0,0,0,0,-1,573,1660,0,0
-644,-636,0,0,0,0,0,0,0,0,0,-1,580,1660,0,0
-637,-636,0,0,0,0,0,0,0,0,0,-1,587,1660,0,0
-630,-636,0,0,0,0,0,0,0,0,0,-1,594,1660,0,0
-623,-636,0,0,0,0,0,0,0,0,0,-1,601,1660,0,0
-616,-636,0,0,0,0,0,0,0,0,0,-1,608,1660,0,0
-609,-636,0,0,0,0,0,0,0,0,0,-1,615,1660,0,0
-602,-636,0,0,0,0,0,0,0,0,0,-1,622,1660,0,0
-595,-636,0,0,0,0,0,0,0,0,0,-1,629,1660,0,0
-588,-636,0,0,0,0,0,0,0,0,0,-1,636,1660,0,0
-581,-636,0,0,0,0,0,0,0,0,0,-1,643,1660,0,0
-574,-636,0,0,0,0,0,0,0,0,0,-1,650,1660,0,0
-567,-636,0,0,0,0,0,0,0,0,0,-1,657,1660,0,0
-560,-636,0,0,0,0,0,0,0,0,0,-1,664,1660,0,0
-553,-636,0,0,0,0,0,0,0,0,0,-1,671,1660,0,0
-546,-636,0,0,0,0,0,0,0,0,0,-1,678,1660,0,0
-539,-636,0,0,0,0,0,0,0,0,0,-1,685,1660,0,0
-532,-636,0,0,0,0,0,0,0,0,0,-1,692,1660,0,0
-525,-636,0,0,0,0,0,0,0,0,0,-1,699,1660,0,0
-518,-636,0,0,0,0,0,0,0,0,0,-1,706,1660,0,0
-511,-636,0,0,0,0,0,0,0,0,0,-1,713,1660,0,0
-504,-636,0,0,0,0,0,0,0,0,0,-1,720,1660,0,0
-497,-636,0,0,0,0,0,0,0,0,0,-1,727,1660,0,0
-490,-636,0,0,0,0,0,0,0,0,0,-1,734,1660,0,0
-483,-636,0,0,0,0,0,0,0,0,0,-1,741,1660,0,0
-476,-636,0,0,0,0,0,0,0,0,0,-1,748,1660,0,0
-469,-636,0,0,0,0,0,0,0,0,0,-1,755,1660,0,0
-462,-636,0,0,0,0,0,0,0,0,0,-1,762,1660,0,0
-455,-636,0,0,0,0,0,0,0,0,0,-1,769,1660,0,0
-448,-636,0,0,0,0,0,0,0,0,0,-1,776,1660,0,0
-441,-636,0,0,0,0,0,0,0,0,0,-1,783,1660,0,0
-434,-636,0,0,0,0,0,0,0,0,0,-1,790,1660,0,0
-427,-636,0,0,0,0,0,0,0,0,0,-1,797,1660,0,0
-420,-636,0,0,0,0,0,0,0,0,0,-1,804,1660,0,0
-413,-636,0,0,0,0,0,0,0,0,0,-1,811,1660,0,0
-406,-636,-0.591125,10.6943,0,0,0,0,0,0,0,-1,818,1660,-0.59115,-10.6943
-399,-636,0.0766602,11.2408,0,0,0,0,0,0,0,-1,825,1660,0.076685,-11.2409
-392,-636,0.75946,11.9233,0,0,0,0,0,0,0,-1,832,1660,0.759481,-11.9233
-385,-636,1.68878,12.517,0,0,0,0,0,0,0,-1,839,1660,1.6888,-12.5169
-378,-636,2.22107,13.0013,0,0,0,0,0,0,0,-1,846,1660,2.22107,-13.0014
-371,-636,2.52185,11.9684,0,0,0,0,0,0,0,-1,853,1660,2.52184,-11.9684
-364,-636,4.51947,14.8503,0,0,0,0,0,0,0,-1,860,1660,4.51949,-14.8504
-357,-636,4.55682,15.8809,0,0,0,0,0,0,0,-1,867,1660,4.55681,-15.8808
-350,-636,2.57788,36.7095,0,0,0,0,0,0,0,-1,874,1660,2.57785,-36.7094
-343,-636,3.30719,40.7406,0,0,0,0,0,0,0,-1,881,1660,3.30722,-40.7407
-336,-636,3.3266,41.3751,0.00682563,0.00325192,0.00959609,0.0147998,-0.00472226,0.693349,0.011761,0.0364251,888,1660,3.32661,-41.3751
-329,-636,3.38239,42.0973,0.00586587,0.00352545,0.00832168,0.0130992,-0.00370789,0.715545,0.010196,0.0182008,895,1660,3.3824,-42.0973
-322,-636,3.31854,42.7809,0.0048057,0.00375008,0.00691059,0.0112086,-0.00265283,0.747284,0.00849588,0.0124796,902,1660,3.31854,-42.7809
-315,-636,3.25903,43.4949,0.00398335,0.00402074,0.00563732,0.0096394,-0.00163531,0.787056,0.00703501,0.0141337,909,1660,3.25901,-43.4949
-308,-636,3.23334,44.2155,0.00334992,0.00429599,0.00456331,0.00841072,-0.000764807,0.837044,0.00587869,0.0130245,916,1660,3.23333,-44.2155
-301,-636,3.21576,44.915,0.00279616,0.0045738,0.00362363,0.00741603,-4.60621e-05,0.905666,0.00495945,0.0118198,923,1660,3.21577,-44.915
-294,-636,3.16095,45.6024,0.00245534,0.00492671,0.00298289,0.00691973,0.000462326,0.981767,0.00446703,0.0136905,930,1660,3.16095,-45.6024
-287,-636,3.10889,46.2722,0.00225276,0.0051309,0.00253749,0.00660898,0.00077468,1.04335,0.00417181,0.0141243,937,1660,3.10891,-46.2722
-280,-636,3.07794,46.9353,0.00233666,0.00511057,0.00230536,0.00641403,0.0010332,1.0562,0.00397662,0.0137504,944,1660,3.07791,-46.9353
-273,-636,3.0434,47.579,0.00273732,0.00490261,0.00233652,0.00639512,0.0012448,1.00235,0.00391501,0.0130601,951,1660,3.04338,-47.5789
-266,-636,3.02911,48.2516,0.00311933,0.00458617,0.00224582,0.00621529,0.00149021,0.943224,0.00374691,0.0140477,958,1660,3.02914,-48.2515
-259,-636,3.02155,48.9341,0.0037684,0.00439053,0.00243985,0.00653906,0.00161987,0.848803,0.00393225,0.0157369,965,1660,3.02156,-48.9341
-252,-636,2.99585,49.5634,0.00461972,0.0041797,0.00273001,0.00713857,0.00166085,0.745191,0.00431336,0.0124185,972,1660,2.99587,-49.5634
-245,-636,2.9729,50.191,0.00560643,0.00382636,0.00303794,0.00788202,0.00155076,0.642899,0.00482162,0.0113985,979,1660,2.97288,-50.191
-238,-636,2.96265,50.8248,0.00655202,0.00340816,0.0032753,0.00861307,0.00134711,0.561665,0.00534985,0.0118439,986,1660,2.96265,-50.8248
-231,-636,2.96777,51.4548,0.00728055,0.00324069,0.00334416,0.00916748,0.00135376,0.513714,0.00571411,0.0111813,993,1660,2.9678,-51.4549
-224,-636,2.96985,52.0663,0.00795353,0.00306827,0.00327915,0.00959982,0.00142198,0.465284,0.00598249,0.0104542,1000,1660,2.96987,-52.0663
-217,-636,2.94012,52.7377,0.0085215,0.00250306,0.00319348,0.00990018,0.00112437,0.407548,0.00625909,0.017011,1007,1660,2.94015,-52.7377
-210,-636,2.92725,53.3041,0.00904609,0.00191802,0.00282304,0.0100287,0.000935415,0.33495,0.00639683,0.0267986,1014,1660,2.92727,-53.3041
-203,-636,2.96442,53.9492,0.00962835,0.0012864,0.00245756,0.0102985,0.000616236,0.266223,0.00666976,0.0306597,1021,1660,2.96442,-53.9492
-196,-636,3.16284,54.3851,0.0100559,0.000745258,0.0020089,0.0104708,0.000330301,0.203695,0.00687309,0.0306801,1028,1660,3.16287,-54.3851
-189,-636,3.14099,54.8759,0.00969741,-0.00114778,0.00144191,0.00988585,-0.00133621,0.129947,0.00707814,0.029805,1035,1660,3.14103,-54.8758
-182,-636,2.98755,55.6388,0.00842425,-0.00207509,0.00111876,0.00854214,-0.00219298,0.104985,0.0065493,0.0468143,1042,1660,2.98754,-55.6388
-175,-636,3.32678,56.4076,0,0,0,0,0,0,0,-1,1049,1660,3.32673,-56.4076
-168,-636,3.87,56.0028,0,0,0,0,0,0,0,-1,1056,1660,3.87004,-56.0028
-161,-636,4.54553,56.2565,0,0,0,0,0,0,0,-1,1063,1660,4.5455,-56.2564
-154,-636,2.92542,57.5862,0,0,0,0,0,0,0,-1,1070,1660,2.92541,-57.5862
-147,-636,4.22656,55.8413,0,0,0,0,0,0,0,-1,1077,1660,4.22662,-55.8413
-140,-636,3.20886,57.1307,0,0,0,0,0,0,0,-1,1084,1660,3.20882,-57.1307
-133,-636,2.82764,57.9807,0,0,0,0,0,0,0,-1,1091,1660,2.82766,-57.9807
-126,-636,2.44653,58.8307,0,0,0,0,0,0,0,-1,1098,1660,2.44649,-58.8307
-119,-636,1.8667,13.8916,0,0,0,0,0,0,0,-1,1105,1660,1.86668,-13.8916
-112,-636,-1.24963,9.7998,0,0,0,0,0,0,0,-1,1112,1660,-1.24968,-9.79978
-105,-636,3.51624,4.72791,0,0,0,0,0,0,0,-1,1119,1660,3.51618,-4.7279
-98,-636,1.54504,5.11914,0,0,0,0,0,0,0,-1,1126,1660,1.54503,-5.11912
-91,-636,-1.87964,-2.25012,0,0,0,0,0,0,0,-1,1133,1660,-1.87966,2.25016
-84,-636,-2.84143,0.133667,0,0,0,0,0,0,0,-1,1140,1660,-2.84144,-0.133701
-77,-636,-3.57349,2.45935,0,0,0,0,0,0,0,-1,1147,1660,-3.57345,-2.45939
-70,-636,-4.23682,4.82312,0,0,0,0,0,0,0,-1,1154,1660,-4.23681,-4.82307
-63,-636,-2.21033,6.97168,0,0,0,0,0,0,0,-1,1161,1660,-2.21034,-6.97165
-56,-636,-2.51917,8.80359,0,0,0,0,0,0,0,-1,1168,1660,-2.51916,-8.80361
-49,-636,-3.13,10.4113,0,0,0,0,0,0,0,-1,1175,1660,-3.12996,-10.4112
-42,-636,-2.27771,4.90173,0,0,0,0,0,0,0,-1,1182,1660,-2.27775,-4.90173
-35,-636,-2.27698,5.89685,0,0,0,0,0,0,0,-1,1189,1660,-2.27695,-5.89686
-28,-636,-1.70654,4.83936,0,0,0,0,0,0,0,-1,1196,1660,-1.70656,-4.8393
-21,-636,4.24683,27.7834,0,0,0,0,0,0,0,-1,1203,1660,4.24687,-27.7835
-14,-636,3.83435,64.3888,0,0,0,0,0,0,0,-1,1210,1660,3.8343,-64.3888
-7,-636,13.066,77.6761,0,0,0,0,0,0,0,-1,1217,1660,13.066,-77.6762
0,-636,13.7429,76.9432,0.0799057,0.116554,0.0399409,0.142174,0.0542862,1.00046,0.0828446,0.0477013,1224,1660,13.7429,-76.9432
7,-636,15.5013,77.0754,0.0570542,0.130194,0.0318622,0.142127,0.0451209,1.21244,0.08386,0.0448068,1231,1660,15.5013,-77.0754
14,-636,15.2048,76.3962,0.035823,0.13876,0.0211453,0.142935,0.0316487,1.37589,0.0866878,0.0410145,1238,1660,15.2048,-76.3962
21,-636,15.5183,76.0105,0.0142793,0.139259,0.00793685,0.139762,0.0137773,1.50763,0.0889383,0.0444371,1245,1660,15.5184,-76.0105
28,-636,15.5803,75.5549,-0.00656882,0.132791,-0.00718576,0.13316,-0.00693836,-1.51942,0.0911743,0.0471913,1252,1660,15.5803,-75.555
35,-636,15.6228,74.7463,-0.0222693,0.117397,-0.0226509,0.120978,-0.025851,-1.41397,0.0905084,0.0450726,1259,1660,15.6229,-74.7464
42,-636,15.6025,74.2301,-0.03397,0.0986027,-0.03828,0.108862,-0.0442294,-1.30894,0.0909751,0.0463854,1266,1660,15.6025,-74.2301
49,-636,13.6313,73.9905,-0.0413706,0.0773282,-0.0544892,0.0985482,-0.0625906,-1.19943,0.0938024,0.0463933,1273,1660,13.6314,-73.9905
56,-636,12.321,72.0468,-0.0482205,0.0544816,-0.0703733,0.0902473,-0.0839862,-1.10059,0.100615,0.0461429,1280,1660,12.3211,-72.0467
63,-636,12.0026,70.5787,-0.0464958,0.037749,-0.081191,0.087094,-0.0958408,-1.02469,0.105658,0.0444718,1287,1660,12.0026,-70.5788
70,-636,11.3018,69.1071,-0.0413056,0.0215439,-0.0901984,0.0856349,-0.105397,-0.953021,0.110489,0.0455041,1294,1660,11.3018,-69.1071
77,-636,10.3162,67.5958,0,0,0,0,0,0,0,-1,1301,1660,10.3161,-67.5959
84,-636,9.88245,66.1146,-0.0218155,-0.0014743,-0.100375,0.0892439,-0.112534,-0.835889,0.116755,0.0482845,1308,1660,9.88241,-66.1146
91,-636,9.70105,64.8799,-0.00876208,-0.0137406,-0.104504,0.0932825,-0.115785,-0.77349,0.120938,0.041381,1315,1660,9.70103,-64.8799
98,-636,9.25403,62.9572,0.00710936,-0.0259671,-0.107759,0.0995923,-0.11845,-0.709256,0.126044,0.0475067,1322,1660,9.25407,-62.9571
105,-636,8.99988,61.2427,0,0,0,0,0,0,0,-1,1329,1660,8.99992,-61.2426
112,-636,8.34192,59.505,0.0435921,-0.0376304,-0.106374,0.116844,-0.110882,-0.603049,0.131492,0.0493768,1336,1660,8.34188,-59.505
119,-636,8.15991,57.6038,0.0647577,-0.0414598,-0.106177,0.130367,-0.107069,-0.553498,0.137304,0.04561,1343,1660,8.1599,-57.6038
126,-636,8.21375,55.61,0.0921137,-0.0478805,-0.106243,0.149345,-0.105112,-0.494116,0.147649,0.0418966,1350,1660,8.21379,-55.61
133,-636,8.86621,53.6235,0.124029,-0.0564727,-0.106533,0.1734,-0.105845,-0.433976,0.162787,0.0432581,1357,1660,8.86617,-53.6235
140,-636,9.35437,51.4916,0.1643,-0.0689843,-0.107652,0.206385,-0.111069,-0.372669,0.186016,0.0442601,1364,1660,9.35439,-51.4916
147,-636,9.84558,49.3149,0,0,0,0,0,0,0,-1,1371,1660,9.84563,-49.315
154,-636,10.389,47.1711,0,0,0,0,0,0,0,-1,1378,1660,10.389,-47.1711
161,-636,10.2961,7.13025,0,0,0,0,0,0,0,-1,1385,1660,10.2961,-7.13021
168,-636,11.7659,5.83899,0,0,0,0,0,0,0,-1,1392,1660,11.7658,-5.83899
175,-636,5.94592,-1.72888,0,0,0,0,0,0,0,-1,1399,1660,5.94598,1.72886
182,-636,5.93994,-1.11938,0,0,0,0,0,0,0,-1,1406,1660,5.93998,1.11936
189,-636,5.32544,11.9595,0,0,0,0,0,0,0,-1,1413,1660,5.32542,-11.9595
196,-636,5.3623,9.38025,0,0,0,0,0,0,0,-1,1420,1660,5.36225,-9.38027
203,-636,5.18542,9.02429,0,0,0,0,0,0,0,-1,1427,1660,5.18547,-9.0243
210,-636,4.09167,7.17041,0,0,0,0,0,0,0,-1,1434,1660,4.09173,-7.17041
217,-636,2.94897,5.28992,0,0,0,0,0,0,0,-1,1441,1660,2.94899,-5.28991
224,-636,1.49194,3.63916,0,0,0,0,0,0,0,-1,1448,1660,1.49197,-3.63918
231,-636,0.17749,2.24854,0,0,0,0,0,0,0,-1,1455,1660,0.177501,-2.24855
238,-636,-0.764648,1.00598,0,0,0,0,0,0,0,-1,1462,1660,-0.764704,-1.00595
245,-636,6.21204,1.18005,0,0,0,0,0,0,0,-1,1469,1660,6.21206,-1.18001
252,-636,7.70251,0.865723,0,0,0,0,0,0,0,-1,1476,1660,7.7025,-0.865692
259,-636,9.03601,0.787231,0,0,0,0,0,0,0,-1,1483,1660,9.03598,-0.787243
266,-636,10.1071,3.24109,0,0,0,0,0,0,0,-1,1490,1660,10.1071,-3.24103
273,-636,8.48535,5.02466,0,0,0,0,0,0,0,-1,1497,1660,8.48533,-5.02472
280,-636,11.908,32.0698,0,0,0,0,0,0,0,-1,1504,1660,11.9079,-32.0698
287,-636,12.1218,36.4158,0,0,0,0,0,0,0,-1,1511,1660,12.1218,-36.4158
294,-636,13.3706,44.9711,0,0,0,0,0,0,0,-1,1518,1660,13.3706,-44.9711
301,-636,14.8727,56.3677,0,0,0,0,0,0,0,-1,1525,1660,14.8726,-56.3677
308,-636,15.3962,55.5969,0,0,0,0,0,0,0,-1,1532,1660,15.3963,-55.5969
315,-636,15.1051,55.0211,0,0,0,0,0,0,0,-1,1539,1660,15.1052,-55.0211
322,-636,15.009,54.3435,0,0,0,0,0,0,0,-1,1546,1660,15.009,-54.3435
329,-636,15.0112,53.8177,0.00955116,0.0130595,-0.00405648,0.0157248,0.00688579,-0.989472,0.00910204,0.0413785,1553,1660,15.0113,-53.8177
336,-636,14.8961,53.192,0.00854272,0.012364,-0.00418955,0.015058,0.00584871,-0.999337,0.00876564,0.032681,1560,1660,14.8961,-53.192
343,-636,15.0789,52.5028,0.00797665,0.0119833,-0.00450689,0.014912,0.00504789,-0.994533,0.00875786,0.0269873,1567,1660,15.0788,-52.5028
350,-636,15.1334,51.8887,0.00735463,0.0111911,-0.0045501,0.0142108,0.00433495,-0.984884,0.00840992,0.0122575,1574,1660,15.1334,-51.8887
357,-636,15.1469,51.2725,0.00638348,0.00998818,-0.00427475,0.012825,0.00354666,-0.984904,0.00764704,0.0111832,1581,1660,15.1468,-51.2725
364,-636,15.1577,50.6536,0.00575821,0.0090295,-0.00413002,0.011836,0.00295174,-0.973941,0.00711388,0.0121004,1588,1660,15.1578,-50.6536
371,-636,15.1387,50.0654,0.00528944,0.00793533,-0.00379089,0.0106275,0.00259728,-0.953281,0.00639745,0.0104695,1595,1660,15.1387,-50.0654
378,-636,15.1162,49.45,0.00476467,0.00681477,-0.00339652,0.00933754,0.00224189,-0.931949,0.00562858,0.0101414,1602,1660,15.1162,-49.4499
385,-636,15.1051,48.8075,0.00427072,0.00565859,-0.0030031,0.00804689,0.00188242,-0.898942,0.00486019,0.0159441,1609,1660,15.1051,-48.8075
392,-636,15.0774,48.1691,0.00365556,0.00467576,-0.00266495,0.00687899,0.00145233,-0.87996,0.00418671,0.0171411,1616,1660,15.0774,-48.169
399,-636,15.0525,47.5508,0.00299704,0.00382325,-0.00242548,0.00587055,0.000949742,-0.869748,0.00363867,0.0128579,1623,1660,15.0524,-47.5508
406,-636,15.0411,46.9232,0.00238675,0.00303995,-0.00227841,0.00501505,0.000411651,-0.856586,0.00321495,0.0151509,1630,1660,15.0411,-46.9232
413,-636,15.0282,46.2378,0.0018581,0.00249959,-0.00218524,0.00438749,-2.98133e-05,-0.858267,0.00293498,0.0231636,1637,1660,15.0282,-46.2379
420,-636,14.9735,45.5883,0.00157399,0.00212551,-0.00230661,0.00417278,-0.000473281,-0.844893,0.00295229,0.0241309,1644,1660,14.9735,-45.5882
427,-636,14.9424,44.9719,0.00136317,0.00193161,-0.00257295,0.00423599,-0.000941207,-0.840407,0.00318443,0.0171141,1651,1660,14.9424,-44.9719
434,-636,14.9216,44.2903,0.00129955,0.00200808,-0.00298218,0.00465696,-0.00134934,-0.844518,0.00363879,0.0163887,1658,1660,14.9216,-44.2903
441,-636,14.8713,43.6152,0.00142794,0.00215843,-0.00350368,0.00531585,-0.00172948,-0.837334,0.00423965,0.0133206,1665,1660,14.8713,-43.6152
448,-636,14.8646,42.9346,0.00196519,0.00260928,-0.0043044,0.00660367,-0.0020292,-0.822738,0.00521222,0.0149441,1672,1660,14.8646,-42.9345
455,-636,14.8309,42.2205,0.00268891,0.00293774,-0.005111,0.00792584,-0.0022992,-0.797567,0.0061942,0.0185785,1679,1660,14.8309,-42.2205
462,-636,14.7419,41.5247,0.0034943,0.00313995,-0.00592366,0.00924343,-0.00260918,-0.770448,0.00719156,0.0281673,1686,1660,14.7419,-41.5247
469,-636,14.9478,40.8975,0.00436984,0.00334414,-0.00680415,0.0106804,-0.00296646,-0.747783,0.00828801,0.0482898,1693,1660,14.9478,-40.8974
476,-636,15.3585,40.3107,0,0,0,0,0,0,0,-1,1700,1660,15.3585,-40.3107
483,-636,11.3833,24.3958,0,0,0,0,0,0,0,-1,1707,1660,11.3833,-24.3957
490,-636,10.8951,23.9569,0,0,0,0,0,0,0,-1,1714,1660,10.8951,-23.9569
497,-636,9.55579,18.0111,0,0,0,0,0,0,0,-1,1721,1660,9.55574,-18.0111
504,-636,6.26428,19.4268,0,0,0,0,0,0,0,-1,1728,1660,6.26433,-19.4268
511,-636,5.65466,9.23218,0,0,0,0,0,0,0,-1,1735,1660,5.65461,-9.23216
518,-636,6.72791,1.07605,0,0,0,0,0,0,0,-1,1742,1660,6.7279,-1.0761
525,-636,7.04309,0.93335,0,0,0,0,0,0,0,-1,1749,1660,7.04308,-0.933298
532,-636,0,0,0,0,0,0,0,0,0,-1,1756,1660,0,0
539,-636,0,0,0,0,0,0,0,0,0,-1,1763,1660,0,0
546,-636,0,0,0,0,0,0,0,0,0,-1,1770,1660,0,0
553,-636,0,0,0,0,0,0,0,0,0,-1,1777,1660,0,0
560,-636,0,0,0,0,0,0,0,0,0,-1,1784,1660,0,0
567,-636,0,0,0,0,0,0,0,0,0,-1,1791,1660,0,0
574,-636,0,0,0,0,0,0,0,0,0,-1,1798,1660,0,0
581,-636,0,0,0,0,0,0,0,0,0,-1,1805,1660,0,0
588,-636,0,0,0,0,0,0,0,0,0,-1,1812,1660,0,0
595,-636,0,0,0,0,0,0,0,0,0,-1,1819,1660,0,0
602,-636,0,0,0,0,0,0,0,0,0,-1,1826,1660,0,0
609,-636,0,0,0,0,0,0,0,0,0,-1,1833,1660,0,0
616,-636,0,0,0,0,0,0,0,0,0,-1,1840,1660,0,0
623,-636,0,0,0,0,0,0,0,0,0,-1,1847,1660,0,0
630,-636,0,0,0,0,0,0,0,0,0,-1,1854,1660,0,0
637,-636,0,0,0,0,0,0,0,0,0,-1,1861,1660,0,0
644,-636,0,0,0,0,0,0,0,0,0,-1,1868,1660,0,0
651,-636,0,0,0,0,0,0,0,0,0,-1,1875,1660,0,0
658,-636,0,0,0,0,0,0,0,0,0,-1,1882,1660,0,0
665,-636,0,0,0,0,0,0,0,0,0,-1,1889,1660,0,0
672,-636,0,0,0,0,0,0,0,0,0,-1,1896,1660,0,0
679,-636,0,0,0,0,0,0,0,0,0,-1,1903,1660,0,0
686,-636,0,0,0,0,0,0,0,0,0,-1,1910,1660,0,0
693,-636,0,0,0,0,0,0,0,0,0,-1,1917,1660,0,0
700,-636,0,0,0,0,0,0,0,0,0,-1,1924,1660,0,0
707,-636,0,0,0,0,0,0,0,0,0,-1,1931,1660,0,0
714,-636,0,0,0,0,0,0,0,0,0,-1,1938,1660,0,0
721,-636,0,0,0,0,0,0,0,0,0,-1,1945,1660,0,0
728,-636,0,0,0,0,0,0,0,0,0,-1,1952,1660,0,0
735,-636,0,0,0,0,0,0,0,0,0,-1,1959,1660,0,0
742,-636,0,0,0,0,0,0,0,0,0,-1,1966,1660,0,0
749,-636,0,0,0,0,0,0,0,0,0,-1,1973,1660,0,0
756,-636,0,0,0,0,0,0,0,0,0,-1,1980,1660,0,0
763,-636,0,0,0,0,0,0,0,0,0,-1,1987,1660,0,0
770,-636,0,0,0,0,0,0,0,0,0,-1,1994,1660,0,0
777,-636,0,0,0,0,0,0,0,0,0,-1,2001,1660,0,0
784,-636,0,0,0,0,0,0,0,0,0,-1,2008,1660,0,0
791,-636,0,0,0,0,0,0,0,0,0,-1,2015,1660,0,0
798,-636,0,0,0,0,0,0,0,0,0,-1,2022,1660,0,0
805,-636,0,0,0,0,0,0,0,0,0,-1,2029,1660,0,0
812,-636,0,0,0,0,0,0,0,0,0,-1,2036,1660,0,0
-700,-643,0,0,0,0,0,0,0,0,0,-1,524,1667,0,0
-693,-643,0,0,0,0,0,0,0,0,0,-1,531,1667,0,0
-686,-643,0,0,0,0,0,0,0,0,0,-1,538,1667,0,0
-679,-643,0,0,0,0,0,0,0,0,0,-1,545,1667,0,0
-672,-643,0,0,0,0,0,0,0,0,0,-1,552,1667,0,0
-665,-643,0,0,0,0,0,0,0,0,0,-1,559,1667,0,0
-658,-643,0,0,0,0,0,0,0,0,0,-1,566,1667,0,0
-651,-643,0,0,0,0,0,0,0,0,0,-1,573,1667,0,0
-644,-643,0,0,0,0,0,0,0,0,0,-1,580,1667,0,0
-637,-643,0,0,0,0,0,0,0,0,0,-1,587,1667,0,0
-630,-643,0,0,0,0,0,0,0,0,0,-1,594,1667,0,0
-623,-643,0,0,0,0,0,0,0,0,0,-1,601,1667,0,0
-616,-643,0,0,0,0,0,0,0,0,0,-1,608,1667,0,0
-609,-643,0,0,0,0,0,0,0,0,0,-1,615,1667,0,0
-602,-643,0,0,0,0,0,0,0,0,0,-1,622,1667,0,0
-595,-643,0,0,0,0,0,0,0,0,0,-1,629,1667,0,0
-588,-643,0,0,0,0,0,0,0,0,0,-1,636,1667,0,0
-581,-643,0,0,0,0,0,0,0,0,0,-1,643,1667,0,0
-574,-643,0,0,0,0,0,0,0,0,0,-1,650,1667,0,0
-567,-643,0,0,0,0,0,0,0,0,0,-1,657,1667,0,0
-560,-643,0,0,0,0,0,0,0,0,0,-1,664,1667,0,0
-553,-643,0,0,0,0,0,0,0,0,0,-1,671,1667,0,0
-546,-643,0,0,0,0,0,0,0,0,0,-1,678,1667,0,0
-539,-643,0,0,0,0,0,0,0,0,0,-1,685,1667,0,0
-532,-643,0,0,0,0,0,0,0,0,0,-1,692,1667,0,0
-525,-643,0,0,0,0,0,0,0,0,0,-1,699,1667,0,0
-518,-643,0,0,0,0,0,0,0,0,0,-1,706,1667,0,0
-511,-643,0,0,0,0,0,0,0,0,0,-1,713,1667,0,0
-504,-643,0,0,0,0,0,0,0,0,0,-1,720,1667,0,0
-497,-643,0,0,0,0,0,0,0,0,0,-1,727,1667,0,0
-490,-643,0,0,0,0,0,0,0,0,0,-1,734,1667,0,0
-483,-643,0,0,0,0,0,0,0,0,0,-1,741,1667,0,0
-476,-643,0,0,0,0,0,0,0,0,0,-1,748,1667,0,0
-469,-643,0,0,0,0,0,0,0,0,0,-1,755,1667,0,0
-462,-643,0,0,0,0,0,0,0,0,0,-1,762,1667,0,0
-455,-643,0,0,0,0,0,0,0,0,0,-1,769,1667,0,0
-448,-643,0,0,0,0,0,0,0,0,0,-1,776,1667,0,0
-441,-643,0,0,0,0,0,0,0,0,0,-1,783,1667,0,0
-434,-643,0,0,0,0,0,0,0,0,0,-1,790,1667,0,0
-427,-643,0,0,0,0,0,0,0,0,0,-1,797,1667,0,0
-420,-643,0,0,0,0,0,0,0,0,0,-1,804,1667,0,0
-413,-643,0,0,0,0,0,0,0,0,0,-1,811,1667,0,0
-406,-643,0,0,0,0,0,0,0,0,0,-1,818,1667,0,0
-399,-643,0.589417,11.6465,0,0,0,0,0,0,0,-1,825,1667,0.58939,-11.6465
-392,-643,0.865295,12.6523,0,0,0,0,0,0,0,-1,832,1667,0.865315,-12.6523
-385,-643,1.72968,13.2692,0,0,0,0,0,0,0,-1,839,1667,1.72967,-13.2692
-378,-643,2.66522,13.8193,0,0,0,0,0,0,0,-1,846,1667,2.66524,-13.8193
-371,-643,0.466125,3.35095,0,0,0,0,0,0,0,-1,853,1667,0.466148,-3.351
-364,-643,1.69513,9.922,0,0,0,0,0,0,0,-1,860,1667,1.69511,-9.92205
-357,-643,1.14227,10.8429,0,0,0,0,0,0,0,-1,867,1667,1.14228,-10.8429
-350,-643,4.48804,36.1799,0,0,0,0,0,0,0,-1,874,1667,4.48801,-36.1799
-343,-643,3.21216,41.4399,0,0,0,0,0,0,0,-1,881,1667,3.21216,-41.44
-336,-643,3.93268,41.4664,0,0,0,0,0,0,0,-1,888,1667,3.93266,-41.4664
-329,-643,4.06665,42.0811,0.00881737,0.0056841,0.0118554,0.0192092,-0.00470775,0.719706,0.0146301,0.0401512,895,1667,4.06662,-42.081
-322,-643,4.01349,42.7936,0.00714693,0.00594939,0.00968507,0.0162517,-0.0031554,0.754525,0.0120251,0.0283336,902,1667,4.01346,-42.7936
-315,-643,3.90741,43.5184,0.00559937,0.00612619,0.00761928,0.0134866,-0.00176105,0.802677,0.0096319,0.0189963,909,1667,3.9074,-43.5184
-308,-643,3.92279,44.2278,0.00430536,0.00628611,0.00588691,0.0112654,-0.000673899,0.868735,0.00774466,0.0140944,916,1667,3.92277,-44.2277
-301,-643,3.90308,44.9366,0.00313926,0.00640341,0.00437188,0.00943792,0.000104749,0.964043,0.00625732,0.0158773,923,1667,3.90307,-44.9366
-294,-643,3.8233,45.6122,0.00227286,0.00646352,0.0032504,0.00823543,0.000500951,1.0717,0.00533115,0.0135738,930,1667,3.8233,-45.6122
-287,-643,3.77637,46.2749,0.00162325,0.00637577,0.0024652,0.00742352,0.000575502,1.16891,0.00476877,0.0121294,937,1667,3.77635,-46.2749
-280,-643,3.74506,46.9459,0.00128693,0.0060236,0.001963,0.00673137,0.000579163,1.22475,0.00430752,0.0159436,944,1667,3.74507,-46.9459
-273,-643,3.71368,47.6051,0.00132777,0.00550676,0.00176992,0.00615562,0.000678907,1.21941,0.00389721,0.0129757,951,1667,3.71368,-47.6051
-266,-643,3.67505,48.2758,0.00140347,0.00484808,0.00143123,0.00536514,0.000886409,1.22412,0.00332096,0.0124672,958,1667,3.67503,-48.2758
-259,-643,3.65289,48.9412,0.00180228,0.00439388,0.00147713,0.00506302,0.00113313,1.14545,0.00306819,0.0132296,965,1667,3.65288,-48.9412
-252,-643,3.64178,49.594,0.00244148,0.00395799,0.00168774,0.00504998,0.00134948,0.996523,0.00301909,0.0152263,972,1667,3.6418,-49.594
-245,-643,3.60931,50.2198,0.00327644,0.00340371,0.00195099,0.00529211,0.00138805,0.8017,0.00316841,0.0130151,979,1667,3.6093,-50.2198
-238,-643,3.61884,50.8303,0.00412994,0.00278041,0.00218316,0.00574024,0.00117011,0.635516,0.00350256,0.0160539,986,1667,3.61884,-50.8303
-231,-643,3.604,51.4791,0.0048351,0.00245902,0.00225829,0.00619879,0.00109534,0.543251,0.00382012,0.0114959,993,1667,3.60401,-51.4791
-224,-643,3.59314,52.0667,0.00555194,0.00225097,0.00218825,0.00664236,0.00116056,0.462291,0.00409656,0.0102405,1000,1667,3.59316,-52.0666
-217,-643,3.57196,52.6329,0.00622437,0.00180171,0.00210334,0.00706493,0.000961156,0.380187,0.0044245,0.0100171,1007,1667,3.57196,-52.633
-210,-643,3.54913,53.2511,0.00674012,0.00137654,0.00176658,0.00726969,0.000846978,0.291244,0.00459025,0.0133629,1014,1667,3.54915,-53.2512
-203,-643,3.54297,53.9027,0.00728891,0.000888877,0.00140518,0.00758384,0.000593948,0.206883,0.00487,0.0173354,1021,1667,3.54295,-53.9027
-196,-643,3.5752,54.4655,0.00772793,0.000466373,0.00102802,0.00787066,0.00032364,0.13796,0.00514262,0.0170851,1028,1667,3.57521,-54.4655
-189,-643,3.66821,55.0111,0.00753855,-0.0008303,0.000592346,0.00758026,-0.000872019,0.0703127,0.00536784,0.0182575,1035,1667,3.66817,-55.0111
-182,-643,3.69165,55.5872,0.00669721,-0.00137377,0.000289863,0.00670761,-0.00138416,0.0358527,0.00499744,0.0303742,1042,1667,3.6917,-55.5871
-175,-643,3.76685,56.1501,0.00583909,-0.00172273,-1.14501e-05,0.00583911,-0.00172275,-0.0015142,0.00457638,0.0463674,1049,1667,3.7668,-56.1502
-168,-643,4.04529,56.4218,0.00444811,-0.00208737,-0.000581576,0.00449946,-0.00213872,-0.0880655,0.0039125,0.0498622,1056,1667,4.04525,-56.4218
-161,-643,3.50793,57.2085,0,0,0,0,0,0,0,-1,1063,1667,3.50797,-57.2085
-154,-643,3.51526,57.4457,0,0,0,0,0,0,0,-1,1070,1667,3.51524,-57.4457
-147,-643,3.40735,57.7074,0,0,0,0,0,0,0,-1,1077,1667,3.40731,-57.7074
-140,-643,3.72766,58.1031,0,0,0,0,0,0,0,-1,1084,1667,3.7276,-58.1032
-133,-643,3.33606,59.0302,0,0,0,0,0,0,0,-1,1091,1667,3.3361,-59.0302
-126,-643,3.28662,58.6659,0,0,0,0,0,0,0,-1,1098,1667,3.28657,-58.6658
-119,-643,3.76282,14.1458,0,0,0,0,0,0,0,-1,1105,1667,3.76283,-14.1458
-112,-643,3.81458,16.2069,0,0,0,0,0,0,0,-1,1112,1667,3.81463,-16.2069
-105,-643,-2.23413,10.0996,0,0,0,0,0,0,0,-1,1119,1667,-2.23415,-10.0996
-98,-643,3.11035,4.68066,0,0,0,0,0,0,0,-1,1126,1667,3.11041,-4.68071
-91,-643,-1.74146,-2.5885,0,0,0,0,0,0,0,-1,1133,1667,-1.74146,2.58856
-84,-643,-3.07446,-0.199341,0,0,0,0,0,0,0,-1,1140,1667,-3.07449,0.199383
-77,-643,-3.63794,2.81165,0,0,0,0,0,0,0,-1,1147,1667,-3.63791,-2.8117
-70,-643,-3.36938,4.45203,0,0,0,0,0,0,0,-1,1154,1667,-3.36941,-4.452
-63,-643,-3.67822,6.26855,0,0,0,0,0,0,0,-1,1161,1667,-3.67823,-6.26856
-56,-643,-3.95142,8.1073,0,0,0,0,0,0,0,-1,1168,1667,-3.95139,-8.10732
-49,-643,-4.23535,9.90552,0,0,0,0,0,0,0,-1,1175,1667,-4.23537,-9.90557
-42,-643,-4.25195,10.7059,0,0,0,0,0,0,0,-1,1182,1667,-4.25192,-10.706
-35,-643,-4.10986,11.6588,0,0,0,0,0,0,0,-1,1189,1667,-4.10982,-11.6589
-28,-643,-1.38513,5.604,0,0,0,0,0,0,0,-1,1196,1667,-1.3851,-5.60403
-21,-643,1.61011,23.1276,0,0,0,0,0,0,0,-1,1203,1667,1.61011,-23.1275
-14,-643,13.2256,68.0854,0,0,0,0,0,0,0,-1,1210,1667,13.2256,-68.0855
-7,-643,5.34119,65.8274,0,0,0,0,0,0,0,-1,1217,1667,5.34117,-65.8274
0,-643,14.8956,76.6155,0,0,0,0,0,0,0,-1,1224,1667,14.8956,-76.6155
7,-643,14.8184,76.1028,0.045192,0.117995,0.0246882,0.125577,0.0376096,1.27282,0.07442,0.0436108,1231,1667,14.8184,-76.1027
14,-643,14.7152,75.5449,0.0290719,0.129936,0.016745,0.132643,0.0263646,1.41051,0.0810821,0.0420855,1238,1667,14.7152,-75.545
21,-643,14.7657,75.0063,0.0124211,0.134948,0.00684373,0.135329,0.0120401,1.51517,0.086486,0.0430739,1245,1667,14.7657,-75.0063
28,-643,14.8065,74.3761,-0.00404993,0.13377,-0.00453746,0.133919,-0.00419915,-1.53792,0.0907113,0.0427124,1252,1667,14.8066,-74.3761
35,-643,14.8134,73.558,-0.0174755,0.124182,-0.0168957,0.126169,-0.0194628,-1.45371,0.0912947,0.0420685,1259,1667,14.8133,-73.5579
42,-643,14.7633,72.9792,-0.0278371,0.109619,-0.0299154,0.115848,-0.0340655,-1.36553,0.0907441,0.047138,1266,1667,14.7633,-72.9793
49,-643,14.8672,71.4904,0,0,0,0,0,0,0,-1,1273,1667,14.8672,-71.4903
56,-643,13.0195,72.1857,-0.0412825,0.0711391,-0.0574815,0.095326,-0.0654693,-1.17251,0.0933671,0.04777,1280,1667,13.0195,-72.1857
63,-643,12.1813,70.9219,-0.0407994,0.0522476,-0.0683952,0.0884425,-0.0769943,-1.08406,0.0955912,0.044601,1287,1667,12.1813,-70.9219
70,-643,11.4899,69.3896,-0.0371016,0.0347636,-0.0774209,0.0841841,-0.086522,-1.00267,0.0985603,0.0439415,1294,1667,11.4899,-69.3897
77,-643,10.7261,67.8571,0,0,0,0,0,0,0,-1,1301,1667,10.7261,-67.8571
84,-643,10.0527,66.4326,-0.0209116,0.00697869,-0.0892928,0.0834088,-0.0973416,-0.862859,0.10446,0.0450948,1308,1667,10.0527,-66.4326
91,-643,9.6626,64.8486,-0.00810635,-0.00635441,-0.0940863,0.08686,-0.101321,-0.790053,0.108753,0.0453511,1315,1667,9.66263,-64.8487
98,-643,9.43188,63.174,0.0069099,-0.0199696,-0.0986404,0.0930219,-0.106082,-0.71769,0.115035,0.0466032,1322,1667,9.43188,-63.174
105,-643,9.21008,61.4761,0,0,0,0,0,0,0,-1,1329,1667,9.21007,-61.4761
112,-643,7.97302,59.9253,0.0429828,-0.0357188,-0.10054,0.111599,-0.104335,-0.598866,0.124693,0.0479144,1336,1667,7.97305,-59.9252
119,-643,7.77576,57.9293,0.0658445,-0.0404116,-0.100802,0.126662,-0.101229,-0.54287,0.131846,0.044129,1343,1667,7.7757,-57.9293
126,-643,7.77869,56.1752,0.0938272,-0.0474569,-0.101348,0.146723,-0.100353,-0.481034,0.143484,0.0436054,1350,1667,7.77873,-56.1752
133,-643,8.42798,54.3313,0.126739,-0.056532,-0.102447,0.172554,-0.102346,-0.420523,0.16043,0.0449655,1357,1667,8.428,-54.3313
140,-643,9.00464,52.0006,0.168241,-0.0695506,-0.104305,0.207509,-0.108819,-0.360061,0.185571,0.0419848,1364,1667,9.00468,-52.0006
147,-643,9.25098,50.088,0,0,0,0,0,0,0,-1,1371,1667,9.251,-50.088
154,-643,14.9785,63.9015,0,0,0,0,0,0,0,-1,1378,1667,14.9785,-63.9015
161,-643,5.57935,26.2754,0,0,0,0,0,0,0,-1,1385,1667,5.57931,-26.2754
168,-643,10.5563,10.9818,0,0,0,0,0,0,0,-1,1392,1667,10.5562,-10.9819
175,-643,5.88525,-1.1698,0,0,0,0,0,0,0,-1,1399,1667,5.88526,1.16977
182,-643,5.80945,-0.418701,0,0,0,0,0,0,0,-1,1406,1667,5.80949,0.418712
189,-643,5.42297,12.9208,0,0,0,0,0,0,0,-1,1413,1667,5.42298,-12.9208
196,-643,5.51953,11.2415,0,0,0,0,0,0,0,-1,1420,1667,5.51948,-11.2414
203,-643,5.60828,9.82153,0,0,0,0,0,0,0,-1,1427,1667,5.60833,-9.82148
210,-643,4.73218,7.58728,0,0,0,0,0,0,0,-1,1434,1667,4.73222,-7.58728
217,-643,3.8031,5.28955,0,0,0,0,0,0,0,-1,1441,1667,3.80305,-5.28955
224,-643,2.96436,2.97095,0,0,0,0,0,0,0,-1,1448,1667,2.96432,-2.97095
231,-643,2.13403,1.08472,0,0,0,0,0,0,0,-1,1455,1667,2.13403,-1.08467
238,-643,1.18152,-0.261963,0,0,0,0,0,0,0,-1,1462,1667,1.18152,0.26192
245,-643,-0.157471,-1.79016,0,0,0,0,0,0,0,-1,1469,1667,-0.157517,1.7901
252,-643,8.08789,0.0202637,0,0,0,0,0,0,0,-1,1476,1667,8.08791,-0.0203056
259,-643,9.02979,-0.46936,0,0,0,0,0,0,0,-1,1483,1667,9.02974,0.46933
266,-643,4.55066,5.17554,0,0,0,0,0,0,0,-1,1490,1667,4.55063,-5.17556
273,-643,10.74,31.432,0,0,0,0,0,0,0,-1,1497,1667,10.7399,-31.4319
280,-643,12.1675,42.5023,0,0,0,0,0,0,0,-1,1504,1667,12.1675,-42.5023
287,-643,12.9725,46.299,0,0,0,0,0,0,0,-1,1511,1667,12.9725,-46.299
294,-643,14.2987,56.0988,0,0,0,0,0,0,0,-1,1518,1667,14.2987,-56.0988
301,-643,14.238,56.0939,0.0129328,0.00979823,-0.0012512,0.013371,0.00936005,-0.336857,0.00792299,0.0429884,1525,1667,14.238,-56.0939
308,-643,14.6006,55.3953,0.011408,0.00985408,-0.0015239,0.0123416,0.00892051,-0.549645,0.00735746,0.0363036,1532,1667,14.6006,-55.3952
315,-643,14.5057,54.8604,0.00993413,0.00943139,-0.00172319,0.0114242,0.00794133,-0.712972,0.00676112,0.0306228,1539,1667,14.5057,-54.8603
322,-643,14.4943,54.2838,0.00867229,0.00924919,-0.00218627,0.011166,0.00675553,-0.850988,0.00649389,0.0201465,1546,1667,14.4942,-54.2838
329,-643,14.4949,53.6497,0.00764761,0.00887478,-0.0025839,0.0109169,0.00560545,-0.901971,0.00630366,0.0138569,1553,1667,14.4949,-53.6496
336,-643,14.4697,53.0868,0.00676987,0.00848007,-0.0027391,0.0104944,0.0047555,-0.936697,0.00606783,0.0125009,1560,1667,14.4697,-53.0868
343,-643,14.4956,52.5283,0.00611297,0.00824119,-0.00297575,0.0103374,0.00401679,-0.95711,0.00601748,0.0139072,1567,1667,14.4956,-52.5283
350,-643,14.5223,51.9095,0.00550062,0.00779432,-0.00310545,0.00995792,0.00333701,-0.962281,0.00585249,0.0122847,1574,1667,14.5223,-51.9095
357,-643,14.5155,51.3049,0.00468874,0.00699952,-0.00300378,0.00906246,0.0026258,-0.968998,0.00538421,0.0113717,1581,1667,14.5154,-51.305
364,-643,14.5137,50.694,0.00415755,0.00636457,-0.00298548,0.00844396,0.00207816,-0.962423,0.0050803,0.0109568,1588,1667,14.5137,-50.694
371,-643,14.5015,50.115,0.00377319,0.00560579,-0.00281446,0.00764935,0.00172963,-0.942771,0.00463195,0.00902583,1595,1667,14.5015,-50.1149
378,-643,14.4888,49.505,0.00336628,0.00478894,-0.0025871,0.00676072,0.0013945,-0.919559,0.00412171,0.0103425,1602,1667,14.4888,-49.505
385,-643,14.4744,48.8563,0.00300045,0.00391114,-0.00237958,0.00587855,0.00103304,-0.879933,0.0036241,0.0165243,1609,1667,14.4744,-48.8563
392,-643,14.4412,48.2108,0.00255081,0.00322651,-0.00225353,0.00516738,0.000609943,-0.859804,0.00326068,0.017553,1616,1667,14.4412,-48.2108
399,-643,14.3986,47.5986,0.00206025,0.00261302,-0.0022017,0.00455561,0.000117658,-0.847838,0.00299862,0.0147698,1623,1667,14.3985,-47.5987
406,-643,14.4098,46.9421,0.00159844,0.00205235,-0.00223226,0.00406917,-0.000418369,-0.836059,0.00286244,0.0140231,1630,1667,14.4097,-46.9421
413,-643,14.4152,46.2611,0.00122287,0.00181413,-0.00234287,0.00387995,-0.000842943,-0.848158,0.00290862,0.0202019,1637,1667,14.4152,-46.2611
420,-643,14.3372,45.6316,0.00110563,0.00169638,-0.00266108,0.00407843,-0.00127642,-0.840671,0.00322963,0.0196103,1644,1667,14.3372,-45.6316
427,-643,14.2979,44.9984,0.00104523,0.00182858,-0.0031654,0.00462645,-0.00175263,-0.846954,0.0038055,0.0175202,1651,1667,14.2978,-44.9985
434,-643,14.2778,44.3212,0.00112529,0.00225941,-0.00380481,0.00553918,-0.00215448,-0.859372,0.00458298,0.0188468,1658,1667,14.2779,-44.3212
441,-643,14.2268,43.6262,0.00139429,0.00280668,-0.0045289,0.00668411,-0.00248314,-0.862741,0.00547483,0.0176147,1665,1667,14.2268,-43.6262
448,-643,14.2334,42.9309,0.0021434,0.00377798,-0.00559146,0.00861156,-0.00269018,-0.857968,0.00681706,0.0226793,1672,1667,14.2334,-42.9309
455,-643,14.118,42.3459,0.00310889,0.00452832,-0.00659567,0.0104523,-0.00281514,-0.838994,0.00807194,0.0298526,1679,1667,14.1181,-42.346
462,-643,13.9973,41.448,0.00412456,0.00499738,-0.00753158,0.0121052,-0.00298324,-0.814338,0.00922673,0.0473413,1686,1667,13.9974,-41.448
469,-643,14.5117,40.9625,0,0,0,0,0,0,0,-1,1693,1667,14.5118,-40.9625
476,-643,10.5598,24.5066,0,0,0,0,0,0,0,-1,1700,1667,10.5598,-24.5065
483,-643,10.4502,24.3062,0,0,0,0,0,0,0,-1,1707,1667,10.4502,-24.3062
490,-643,10.6885,24.1522,0,0,0,0,0,0,0,-1,1714,1667,10.6884,-24.1522
497,-643,10.9073,23.9465,0,0,0,0,0,0,0,-1,1721,1667,10.9074,-23.9465
504,-643,8.05591,19.0656,0,0,0,0,0,0,0,-1,1728,1667,8.0559,-19.0655
511,-643,7.74719,18.1564,0,0,0,0,0,0,0,-1,1735,1667,7.74724,-18.1563
518,-643,7.40564,0.922607,0,0,0,0,0,0,0,-1,1742,1667,7.4057,-0.922598
525,-643,0,0,0,0,0,0,0,0,0,-1,1749,1667,0,0
532,-643,0,0,0,0,0,0,0,0,0,-1,1756,1667,0,0
539,-643,0,0,0,0,0,0,0,0,0,-1,1763,1667,0,0
546,-643,0,0,0,0,0,0,0,0,0,-1,1770,1667,0,0
553,-643,0,0,0,0,0,0,0,0,0,-1,1777,1667,0,0
560,-643,0,0,0,0,0,0,0,0,0,-1,1784,1667,0,0
567,-643,0,0,0,0,0,0,0,0,0,-1,1791,1667,0,0
574,-643,0,0,0,0,0,0,0,0,0,-1,1798,1667,0,0
581,-643,0,0,0,0,0,0,0,0,0,-1,1805,1667,0,0
588,-643,0,0,0,0,0,0,0,0,0,-1,1812,1667,0,0
595,-643,0,0,0,0,0,0,0,0,0,-1,1819,1667,0,0
602,-643,0,0,0,0,0,0,0,0,0,-1,1826,1667,0,0
609,-643,0,0,0,0,0,0,0,0,0,-1,1833,1667,0,0
616,-643,0,0,0,0,0,0,0,0,0,-1,1840,1667,0,0
623,-643,0,0,0,0,0,0,0,0,0,-1,1847,1667,0,0
630,-643,0,0,0,0,0,0,0,0,0,-1,1854,1667,0,0
637,-643,0,0,0,0,0,0,0,0,0,-1,1861,1667,0,0
644,-643,0,0,0,0,0,0,0,0,0,-1,1868,1667,0,0
651,-643,0,0,0,0,0,0,0,0,0,-1,1875,1667,0,0
658,-643,0,0,0,0,0,0,0,0,0,-1,1882,1667,0,0
665,-643,0,0,0,0,0,0,0,0,0,-1,1889,1667,0,0
672,-643,0,0,0,0,0,0,0,0,0,-1,1896,1667,0,0
679,-643,0,0,0,0,0,0,0,0,0,-1,1903,1667,0,0
686,-643,0,0,0,0,0,0,0,0,0,-1,1910,1667,0,0
693,-643,0,0,0,0,0,0,0,0,0,-1,1917,1667,0,0
700,-643,0,0,0,0,0,0,0,0,0,-1,1924,1667,0,0
707,-643,0,0,0,0,0,0,0,0,0,-1,1931,1667,0,0
714,-643,0,0,0,0,0,0,0,0,0,-1,1938,1667,0,0
721,-643,0,0,0,0,0,0,0,0,0,-1,1945,1667,0,0
728,-643,0,0,0,0,0,0,0,0,0,-1,1952,1667,0,0
735,-643,0,0,0,0,0,0,0,0,0,-1,1959,1667,0,0
742,-643,0,0,0,0,0,0,0,0,0,-1,1966,1667,0,0
749,-643,0,0,0,0,0,0,0,0,0,-1,1973,1667,0,0
756,-643,0,0,0,0,0,0,0,0,0,-1,1980,1667,0,0
763,-643,0,0,0,0,0,0,0,0,0,-1,1987,1667,0,0
770,-643,0,0,0,0,0,0,0,0,0,-1,1994,1667,0,0
777,-643,0,0,0,0,0,0,0,0,0,-1,2001,1667,0,0
784,-643,0,0,0,0,0,0,0,0,0,-1,2008,1667,0,0
791,-643,0,0,0,0,0,0,0,0,0,-1,2015,1667,0,0
798,-643,0,0,0,0,0,0,0,0,0,-1,2022,1667,0,0
805,-643,0,0,0,0,0,0,0,0,0,-1,2029,1667,0,0
812,-643,0,0,0,0,0,0,0,0,0,-1,2036,1667,0,0
-700,-650,0,0,0,0,0,0,0,0,0,-1,524,1674,0,0
-693,-650,0,0,0,0,0,0,0,0,0,-1,531,1674,0,0
-686,-650,0,0,0,0,0,0,0,0,0,-1,538,1674,0,0
-679,-650,0,0,0,0,0,0,0,0,0,-1,545,1674,0,0
-672,-650,0,0,0,0,0,0,0,0,0,-1,552,1674,0,0
-665,-650,0,0,0,0,0,0,0,0,0,-1,559,1674,0,0
-658,-650,0,0,0,0,0,0,0,0,0,-1,566,1674,0,0
-651,-650,0,0,0,0,0,0,0,0,0,-1,573,1674,0,0
-644,-650,0,0,0,0,0,0,0,0,0,-1,580,1674,0,0
-637,-650,0,0,0,0,0,0,0,0,0,-1,587,1674,0,0
-630,-650,0,0,0,0,0,0,0,0,0,-1,594,1674,0,0
-623,-650,0,0,0,0,0,0,0,0,0,-1,601,1674,0,0
-616,-650,0,0,0,0,0,0,0,0,0,-1,608,1674,0,0
-609,-650,0,0,0,0,0,0,0,0,0,-1,615,1674,0,0
-602,-650,0,0,0,0,0,0,0,0,0,-1,622,1674,0,0
-595,-650,0,0,0,0,0,0,0,0,0,-1,629,1674,0,0
-588,-650,0,0,0,0,0,0,0,0,0,-1,636,1674,0,0
-581,-650,0,0,0,0,0,0,0,0,0,-1,643,1674,0,0
-574,-650,0,0,0,0,0,0,0,0,0,-1,650,1674,0,0
-567,-650,0,0,0,0,0,0,0,0,0,-1,657,1674,0,0
-560,-650,0,0,0,0,0,0,0,0,0,-1,664,1674,0,0
-553,-650,0,0,0,0,0,0,0,0,0,-1,671,1674,0,0
-546,-650,0,0,0,0,0,0,0,0,0,-1,678,1674,0,0
-539,-650,0,0,0,0,0,0,0,0,0,-1,685,1674,0,0
-532,-650,0,0,0,0,0,0,0,0,0,-1,692,1674,0,0
-525,-650,0,0,0,0,0,0,0,0,0,-1,699,1674,0,0
-518,-650,0,0,0,0,0,0,0,0,0,-1,706,1674,0,0
-511,-650,0,0,0,0,0,0,0,0,0,-1,713,1674,0,0
-504,-650,0,0,0,0,0,0,0,0,0,-1,720,1674,0,0
-497,-650,0,0,0,0,0,0,0,0,0,-1,727,1674,0,0
-490,-650,0,0,0,0,0,0,0,0,0,-1,734,1674,0,0
-483,-650,0,0,0,0,0,0,0,0,0,-1,741,1674,0,0
-476,-650,0,0,0,0,0,0,0,0,0,-1,748,1674,0,0
-469,-650,0,0,0,0,0,0,0,0,0,-1,755,1674,0,0
-462,-650,0,0,0,0,0,0,0,0,0,-1,762,1674,0,0
-455,-650,0,0,0,0,0,0,0,0,0,-1,769,1674,0,0
-448,-650,0,0,0,0,0,0,0,0,0,-1,776,1674,0,0
-441,-650,0,0,0,0,0,0,0,0,0,-1,783,1674,0,0
-434,-650,0,0,0,0,0,0,0,0,0,-1,790,1674,0,0
-427,-650,0,0,0,0,0,0,0,0,0,-1,797,1674,0,0
-420,-650,0,0,0,0,0,0,0,0,0,-1,804,1674,0,0
-413,-650,0,0,0,0,0,0,0,0,0,-1,811,1674,0,0
-406,-650,0,0,0,0,0,0,0,0,0,-1,818,1674,0,0
-399,-650,0,0,0,0,0,0,0,0,0,-1,825,1674,0,0
-392,-650,5.44415,6.85669,0,0,0,0,0,0,0,-1,832,1674,5.44414,-6.85674
-385,-650,1.74451,14.0183,0,0,0,0,0,0,0,-1,839,1674,1.74453,-14.0183
-378,-650,0.997986,4.11108,0,0,0,0,0,0,0,-1,846,1674,0.998006,-4.11113
-371,-650,-1.80096,3.78625,0,0,0,0,0,0,0,-1,853,1674,-1.80094,-3.78625
-364,-650,-2.95679,2.57507,0,0,0,0,0,0,0,-1,860,1674,-2.95681,-2.57506
-357,-650,5.76074,34.531,0,0,0,0,0,0,0,-1,867,1674,5.76077,-34.531
-350,-650,5.11011,35.4972,0,0,0,0,0,0,0,-1,874,1674,5.1101,-35.4971
-343,-650,5.20538,37.4165,0,0,0,0,0,0,0,-1,881,1674,5.20538,-37.4166
-336,-650,4.29462,41.7263,0,0,0,0,0,0,0,-1,888,1674,4.29462,-41.7264
-329,-650,4.57629,41.8768,0,0,0,0,0,0,0,-1,895,1674,4.57627,-41.8769
-322,-650,4.47168,42.7013,0.0102086,0.00895702,0.0131897,0.0227873,-0.00362168,0.761692,0.0165316,0.045371,902,1674,4.4717,-42.7013
-315,-650,4.45813,43.4779,0.00785571,0.00924853,0.010192,0.0187679,-0.00166362,0.81951,0.0131017,0.0386452,909,1674,4.45815,-43.4779
-308,-650,4.55475,44.2098,0.00576385,0.00938307,0.00761519,0.0154007,-0.000253786,0.90205,0.0103528,0.022909,916,1674,4.55477,-44.2098
-301,-650,4.56879,44.9703,0.0038978,0.0093879,0.00540386,0.012704,0.000581739,1.0204,0.0082822,0.0128183,923,1674,4.5688,-44.9703
-294,-650,4.49432,45.6414,0.00244898,0.00916097,0.00372719,0.0108204,0.000789534,1.15192,0.00696537,0.0103442,930,1674,4.49434,-45.6413
-287,-650,4.4256,46.2947,0.00133321,0.00874805,0.00256493,0.00954883,0.000532432,1.26818,0.00619604,0.013795,937,1674,4.42559,-46.2946
-280,-650,4.39819,46.9589,0.000579066,0.00792274,0.00177404,0.00832884,0.000172963,1.34576,0.00549582,0.0163229,944,1674,4.39819,-46.9589
-273,-650,4.36444,47.6483,0.00027363,0.00695642,0.00134959,0.00721867,1.13735e-05,1.37886,0.00480866,0.015485,951,1674,4.36442,-47.6483
-266,-650,4.30286,48.308,6.73169e-05,0.00581427,0.000764759,0.0059143,-3.27099e-05,1.44074,0.00395381,0.012136,958,1674,4.30288,-48.308
-259,-650,4.27423,48.938,0.000253492,0.00498774,0.000683948,0.00508457,0.000156664,1.43016,0.00333872,0.0156568,965,1674,4.27422,-48.938
-252,-650,4.26056,49.5844,0.000710384,0.00420927,0.000843609,0.00440205,0.000517605,1.34614,0.00277828,0.0150518,972,1674,4.26057,-49.5844
-245,-650,4.24329,50.2053,0.00140807,0.00336369,0.00109563,0.00385439,0.000917372,1.14971,0.00232493,0.0124845,979,1674,4.24331,-50.2053
-238,-650,4.20911,50.8746,0.00218122,0.00246848,0.00137818,0.0037105,0.000939199,0.83732,0.0022276,0.0136053,986,1674,4.20909,-50.8746
-231,-650,4.18091,51.5382,0.00286668,0.0019277,0.00151053,0.003979,0.00081538,0.634726,0.00242697,0.017929,993,1674,4.18089,-51.5382
-224,-650,4.17426,52.1323,0.00358219,0.00161339,0.00149425,0.00438716,0.000808421,0.494133,0.00269601,0.0148997,1000,1674,4.17424,-52.1323
-217,-650,4.1756,52.6687,0.00426412,0.00124453,0.00144617,0.00484499,0.000663657,0.381939,0.00303308,0.011191,1007,1674,4.17558,-52.6687
-210,-650,4.1676,53.2477,0.00478168,0.000997039,0.00121371,0.00513746,0.000641256,0.285148,0.0032325,0.0110118,1014,1674,4.16759,-53.2477
-203,-650,4.18945,53.8319,0.00529176,0.000656356,0.000904746,0.00546209,0.000486025,0.186086,0.00349068,0.0168372,1021,1674,4.1894,-53.8319
-196,-650,4.19702,54.4022,0.00572991,0.00034278,0.000605422,0.00579711,0.000275579,0.110546,0.00377623,0.0157488,1028,1674,4.19708,-54.4023
-189,-650,4.19775,54.9763,0.00568471,-0.000553667,0.000261769,0.00569568,-0.000564632,0.041863,0.00399864,0.0126434,1035,1674,4.1977,-54.9764
-182,-650,4.2489,55.6047,0.00517886,-0.000905464,-3.91689e-05,0.00517911,-0.000905716,-0.00643732,0.00379089,0.0134951,1042,1674,4.2489,-55.6047
-175,-650,4.25256,56.1044,0.00479385,-0.00113703,-0.000272896,0.00480638,-0.00114956,-0.0458835,0.00364831,0.0230099,1049,1674,4.25254,-56.1044
-168,-650,4.24133,56.6481,0.00402182,-0.00138992,-0.000695953,0.00410989,-0.00147799,-0.125872,0.00334332,0.0301856,1056,1674,4.24138,-56.6481
-161,-650,4.12769,57.1091,0.0032778,-0.00166913,-0.00077901,0.00339757,-0.0017889,-0.152556,0.00304204,0.0380904,1063,1674,4.12764,-57.1092
-154,-650,4.19995,57.5885,0.00202765,-0.00170523,-0.000843781,0.00220952,-0.0018871,-0.212291,0.00236762,0.035681,1070,1674,4.2,-57.5885
-147,-650,4.44373,57.7081,0,0,0,0,0,0,0,-1,1077,1674,4.44376,-57.7082
-140,-650,4.16406,58.4918,-0.00180495,-0.00103114,-0.000800728,-0.000528743,-0.00230735,-1.01045,0.00139578,0.0470392,1084,1674,4.16405,-58.4918
-133,-650,3.87378,59.2855,-0.00387044,-0.000202196,-0.000608424,-0.000103914,-0.00396872,-1.41065,0.00261186,0.048445,1091,1674,3.87377,-59.2855
-126,-650,3.64331,60.0515,0,0,0,0,0,0,0,-1,1098,1674,3.6433,-60.0515
-119,-650,5.16663,20.6232,0,0,0,0,0,0,0,-1,1105,1674,5.16665,-20.6232
-112,-650,3.86292,14.4513,0,0,0,0,0,0,0,-1,1112,1674,3.8629,-14.4513
-105,-650,7.92102,38.1313,0,0,0,0,0,0,0,-1,1119,1674,7.92104,-38.1314
-98,-650,3.3761,6.78003,0,0,0,0,0,0,0,-1,1126,1674,3.37611,-6.78009
-91,-650,3.66809,7.04443,0,0,0,0,0,0,0,-1,1133,1674,3.66806,-7.04439
-84,-650,-3.82666,-1.59521,0,0,0,0,0,0,0,-1,1140,1674,-3.82661,1.59517
-77,-650,-4.70557,1.90198,0,0,0,0,0,0,0,-1,1147,1674,-4.7056,-1.90194
-70,-650,-4.88171,3.81653,0,0,0,0,0,0,0,-1,1154,1674,-4.88176,-3.81651
-63,-650,-5.14612,5.56543,0,0,0,0,0,0,0,-1,1161,1674,-5.14612,-5.56547
-56,-650,-5.38367,7.41101,0,0,0,0,0,0,0,-1,1168,1674,-5.38361,-7.41102
-49,-650,-5.11316,8.23706,0,0,0,0,0,0,0,-1,1175,1674,-5.11317,-8.23708
-42,-650,-4.99487,9.6792,0,0,0,0,0,0,0,-1,1182,1674,-4.99484,-9.67921
-35,-650,-4.77771,11.3369,0,0,0,0,0,0,0,-1,1189,1674,-4.77769,-11.3369
-28,-650,-4.1936,13.1501,0,0,0,0,0,0,0,-1,1196,1674,-4.19358,-13.1501
-21,-650,7.52466,48.5822,0,0,0,0,0,0,0,-1,1203,1674,7.52469,-48.5821
-14,-650,7.02563,63.1537,0,0,0,0,0,0,0,-1,1210,1674,7.02568,-63.1537
-7,-650,4.91577,67.735,0,0,0,0,0,0,0,-1,1217,1674,4.91578,-67.735
0,-650,6.5636,64.4052,0,0,0,0,0,0,0,-1,1224,1674,6.56356,-64.4052
7,-650,6.62915,64.6467,0,0,0,0,0,0,0,-1,1231,1674,6.6292,-64.6467
14,-650,13.9637,74.3135,0.0216862,0.115962,0.0118993,0.117441,0.0202074,1.44716,0.072503,0.0443385,1238,1674,13.9637,-74.3135
21,-650,13.962,73.6932,0.00933195,0.122512,0.00467482,0.122705,0.00913918,1.52959,0.0789335,0.0464208,1245,1674,13.962,-73.6933
28,-650,14.0354,73.0726,-0.00325685,0.124346,-0.00364311,0.12445,-0.00336077,-1.54228,0.0841095,0.0458553,1252,1674,14.0353,-73.0726
35,-650,13.7893,72.205,0,0,0,0,0,0,0,-1,1259,1674,13.7893,-72.2049
42,-650,14.5428,70.7319,-0.0226376,0.1079,-0.0236433,0.112051,-0.026788,-1.39703,0.0850478,0.0492218,1266,1674,14.5428,-70.7319
49,-650,14.2046,70.52,-0.0285875,0.093184,-0.0349061,0.10248,-0.0378837,-1.31052,0.0838509,0.0495142,1273,1674,14.2046,-70.5201
56,-650,13.9867,70.2632,-0.0345437,0.0759452,-0.0464456,0.0928751,-0.0514737,-1.22125,0.0844747,0.0473894,1280,1674,13.9867,-70.2632
63,-650,12.5281,71.2083,-0.0349196,0.0574226,-0.0565294,0.0842401,-0.0617371,-1.12784,0.0846131,0.0451495,1287,1674,12.5281,-71.2083
70,-650,11.848,69.6588,-0.032492,0.040402,-0.0649547,0.0784365,-0.0705265,-1.04107,0.0860442,0.0472793,1294,1674,11.848,-69.6589
77,-650,10.4366,68.1597,0,0,0,0,0,0,0,-1,1301,1674,10.4366,-68.1597
84,-650,9.97119,66.678,-0.019492,0.0109274,-0.0772004,0.0744021,-0.0829667,-0.88266,0.0909018,0.0451955,1308,1674,9.97114,-66.678
91,-650,9.81189,64.9879,-0.00781952,-0.00253501,-0.0820777,0.076943,-0.0872975,-0.801489,0.0948871,0.0443925,1315,1674,9.8119,-64.9879
98,-650,9.7334,63.3191,0.00590047,-0.0164745,-0.087,0.0824293,-0.0930034,-0.721453,0.101347,0.0464036,1322,1674,9.73336,-63.3191
105,-650,9.60217,61.6609,0,0,0,0,0,0,0,-1,1329,1674,9.60214,-61.6609
112,-650,7.6106,60.0566,0.0395563,-0.0333728,-0.0901272,0.100316,-0.0941326,-0.59317,0.112284,0.0441005,1336,1674,7.61057,-60.0567
119,-650,7.48755,57.978,0.0610612,-0.0379466,-0.0904722,0.114688,-0.091573,-0.535064,0.119334,0.0427103,1343,1674,7.48756,-57.978
126,-650,7.40601,55.8999,0.0855288,-0.0440528,-0.0908871,0.132355,-0.0908788,-0.475742,0.129623,0.0489945,1350,1674,7.40606,-55.8998
133,-650,7.29468,53.8065,0,0,0,0,0,0,0,-1,1357,1674,7.29465,-53.8066
140,-650,8.56445,52.8728,0.138911,-0.058631,-0.0923668,0.175371,-0.0950907,-0.375953,0.158427,0.0458004,1364,1674,8.56444,-52.8728
147,-650,9.82507,50.1284,0.156813,-0.062072,-0.09346,0.191289,-0.0965476,-0.353395,0.169157,0.0462209,1371,1674,9.82503,-50.1284
154,-650,11.1996,47.5188,0,0,0,0,0,0,0,-1,1378,1674,11.1996,-47.5188
161,-650,4.09106,30.3021,0,0,0,0,0,0,0,-1,1385,1674,4.09104,-30.3021
168,-650,11.2113,7.87231,0,0,0,0,0,0,0,-1,1392,1674,11.2113,-7.87236
175,-650,5.62537,-0.230713,0,0,0,0,0,0,0,-1,1399,1674,5.62538,0.230745
182,-650,5.56006,0.421631,0,0,0,0,0,0,0,-1,1406,1674,5.56,-0.421652
189,-650,4.81543,11.0654,0,0,0,0,0,0,0,-1,1413,1674,4.81542,-11.0654
196,-650,5.39575,11.9077,0,0,0,0,0,0,0,-1,1420,1674,5.39575,-11.9078
203,-650,3.93628,11.8215,0,0,0,0,0,0,0,-1,1427,1674,3.93624,-11.8216
210,-650,5.40955,8.08594,0,0,0,0,0,0,0,-1,1434,1674,5.40958,-8.086
217,-650,5.12451,4.69739,0,0,0,0,0,0,0,-1,1441,1674,5.12451,-4.69738
224,-650,4.79041,1.45813,0,0,0,0,0,0,0,-1,1448,1674,4.79046,-1.45816
231,-650,4.04102,-0.642212,0,0,0,0,0,0,0,-1,1455,1674,4.04101,0.642209
238,-650,3.23022,-1.43396,0,0,0,0,0,0,0,-1,1462,1674,3.23023,1.43394
245,-650,1.65894,-2.55042,0,0,0,0,0,0,0,-1,1469,1674,1.65889,2.55036
252,-650,8.75342,0.355103,0,0,0,0,0,0,0,-1,1476,1674,8.75337,-0.355147
259,-650,5.61255,3.17566,0,0,0,0,0,0,0,-1,1483,1674,5.61257,-3.17572
266,-650,4.00403,6.10229,0,0,0,0,0,0,0,-1,1490,1674,4.00401,-6.10225
273,-650,11.9524,42.7109,0,0,0,0,0,0,0,-1,1497,1674,11.9524,-42.7109
280,-650,12.3011,46.7283,0,0,0,0,0,0,0,-1,1504,1674,12.3011,-46.7283
287,-650,13.7708,56.6189,0,0,0,0,0,0,0,-1,1511,1674,13.7708,-56.6189
294,-650,13.7633,56.2976,0.0115193,0.00643315,-0.000813864,0.0116464,0.00630609,-0.154865,0.00673174,0.0449047,1518,1674,13.7632,-56.2976
301,-650,13.7616,55.8119,0.0103049,0.0063922,-0.000681036,0.0104201,0.00627705,-0.167497,0.00605794,0.0339328,1525,1674,13.7616,-55.8119
308,-650,13.8643,55.3501,0.00915731,0.00643095,-0.000838794,0.0093947,0.00619356,-0.275805,0.00551499,0.020419,1532,1674,13.8643,-55.3501
315,-650,13.9115,54.8052,0.00799938,0.00621987,-0.000983056,0.00843555,0.00578371,-0.417588,0.0049809,0.0133913,1539,1674,13.9115,-54.8051
322,-650,13.9146,54.2534,0.00693667,0.0062345,-0.0013227,0.00795409,0.00521708,-0.655675,0.00466611,0.0126107,1546,1674,13.9146,-54.2534
329,-650,13.9271,53.6506,0.00604605,0.00610993,-0.00165832,0.00773662,0.00441936,-0.795026,0.00448182,0.0169608,1553,1674,13.9271,-53.6506
336,-650,13.9167,53.1182,0.00528829,0.00596472,-0.00182976,0.00748726,0.00376575,-0.876788,0.0043228,0.0147324,1560,1674,13.9168,-53.1182
343,-650,13.9265,52.5465,0.00456139,0.00579202,-0.00197803,0.00724823,0.00310518,-0.936191,0.00419904,0.0141782,1567,1674,13.9265,-52.5465
350,-650,13.931,51.9294,0.00393763,0.00554618,-0.00214209,0.00703,0.0024538,-0.964987,0.00411997,0.01565,1574,1674,13.931,-51.9294
357,-650,13.9102,51.3176,0.00324136,0.00499335,-0.00214983,0.00643881,0.0017959,-0.978864,0.00383667,0.0136824,1581,1674,13.9102,-51.3176
364,-650,13.8976,50.717,0.00276208,0.00451367,-0.00219424,0.00600044,0.00127531,-0.975278,0.00365022,0.00982383,1588,1674,13.8976,-50.7171
371,-650,13.875,50.1316,0.00242242,0.0039204,-0.00213415,0.00543318,0.000909651,-0.954161,0.0033602,0.0119558,1595,1674,13.8751,-50.1316
378,-650,13.8544,49.5144,0.00210044,0.00325708,-0.00203033,0.00478985,0.000567675,-0.924144,0.00302183,0.0132064,1602,1674,13.8544,-49.5144
385,-650,13.8463,48.8837,0.00184261,0.00256038,-0.00197909,0.00421286,0.000190127,-0.875093,0.00274739,0.0145459,1609,1674,13.8463,-48.8837
392,-650,13.8135,48.2538,0.00155567,0.0020964,-0.00205282,0.00389659,-0.00024451,-0.850874,0.00268294,0.0186071,1616,1674,13.8134,-48.2537
399,-650,13.7853,47.636,0.0012571,0.00166557,-0.00218989,0.00366073,-0.000738055,-0.831895,0.00272009,0.0167845,1623,1674,13.7853,-47.636
406,-650,13.765,46.985,0.000989402,0.00131443,-0.00240192,0.00355933,-0.0012555,-0.819176,0.00288396,0.0157033,1630,1674,13.7651,-46.985
413,-650,13.7563,46.3199,0.000818727,0.00136664,-0.00274083,0.00384717,-0.00166181,-0.835209,0.00326296,0.0163036,1637,1674,13.7563,-46.32
420,-650,13.7001,45.7019,0.000911524,0.00152196,-0.00328891,0.00451978,-0.00208631,-0.831666,0.00389933,0.0171698,1644,1674,13.7001,-45.702
427,-650,13.6521,45.0608,0.00103948,0.00205726,-0.00408243,0.0056624,-0.00256565,-0.847406,0.00486132,0.0172848,1651,1674,13.6521,-45.0608
434,-650,13.6014,44.3831,0.00130231,0.00291439,-0.00500979,0.00718257,-0.00296587,-0.865161,0.00602544,0.0234721,1658,1674,13.6014,-44.383
441,-650,13.5989,43.5948,0.00172908,0.0039422,-0.00599984,0.00893666,-0.00326539,-0.876589,0.00729409,0.0413058,1665,1674,13.5989,-43.5948
448,-650,13.5471,42.8674,0,0,0,0,0,0,0,-1,1672,1674,13.5471,-42.8674
455,-650,13.3226,42.4614,0,0,0,0,0,0,0,-1,1679,1674,13.3226,-42.4614
462,-650,13.3353,41.3118,0,0,0,0,0,0,0,-1,1686,1674,13.3353,-41.3118
469,-650,11.3628,29.8889,0,0,0,0,0,0,0,-1,1693,1674,11.3628,-29.8889
476,-650,10.9189,27.1289,0,0,0,0,0,0,0,-1,1700,1674,10.919,-27.1289
483,-650,10.2426,24.5127,0,0,0,0,0,0,0,-1,1707,1674,10.2425,-24.5127
490,-650,10.4818,24.3475,0,0,0,0,0,0,0,-1,1714,1674,10.4818,-24.3475
497,-650,10.4985,20.1362,0,0,0,0,0,0,0,-1,1721,1674,10.4986,-20.1362
504,-650,9.69458,18.7721,0,0,0,0,0,0,0,-1,1728,1674,9.6946,-18.772
511,-650,9.37158,17.7506,0,0,0,0,0,0,0,-1,1735,1674,9.37159,-17.7506
518,-650,0,0,0,0,0,0,0,0,0,-1,1742,1674,0,0
525,-650,0,0,0,0,0,0,0,0,0,-1,1749,1674,0,0
532,-650,0,0,0,0,0,0,0,0,0,-1,1756,1674,0,0
539,-650,0,0,0,0,0,0,0,0,0,-1,1763,1674,0,0
546,-650,0,0,0,0,0,0,0,0,0,-1,1770,1674,0,0
553,-650,0,0,0,0,0,0,0,0,0,-1,1777,1674,0,0
560,-650,0,0,0,0,0,0,0,0,0,-1,1784,1674,0,0
567,-650,0,0,0,0,0,0,0,0,0,-1,1791,1674,0,0
574,-650,0,0,0,0,0,0,0,0,0,-1,1798,1674,0,0
581,-650,0,0,0,0,0,0,0,0,0,-1,1805,1674,0,0
588,-650,0,0,0,0,0,0,0,0,0,-1,1812,1674,0,0
595,-650,0,0,0,0,0,0,0,0,0,-1,1819,1674,0,0
602,-650,0,0,0,0,0,0,0,0,0,-1,1826,1674,0,0
609,-650,0,0,0,0,0,0,0,0,0,-1,1833,1674,0,0
616,-650,0,0,0,0,0,0,0,0,0,-1,1840,1674,0,0
623,-650,0,0,0,0,0,0,0,0,0,-1,1847,1674,0,0
630,-650,0,0,0,0,0,0,0,0,0,-1,1854,1674,0,0
637,-650,0,0,0,0,0,0,0,0,0,-1,1861,1674,0,0
644,-650,0,0,0,0,0,0,0,0,0,-1,1868,1674,0,0
651,-650,0,0,0,0,0,0,0,0,0,-1,1875,1674,0,0
658,-650,0,0,0,0,0,0,0,0,0,-1,1882,1674,0,0
665,-650,0,0,0,0,0,0,0,0,0,-1,1889,1674,0,0
672,-650,0,0,0,0,0,0,0,0,0,-1,1896,1674,0,0
679,-650,0,0,0,0,0,0,0,0,0,-1,1903,1674,0,0
686,-650,0,0,0,0,0,0,0,0,0,-1,1910,1674,0,0
693,-650,0,0,0,0,0,0,0,0,0,-1,1917,1674,0,0
700,-650,0,0,0,0,0,0,0,0,0,-1,1924,1674,0,0
707,-650,0,0,0,0,0,0,0,0,0,-1,1931,1674,0,0
714,-650,0,0,0,0,0,0,0,0,0,-1,1938,1674,0,0
721,-650,0,0,0,0,0,0,0,0,0,-1,1945,1674,0,0
728,-650,0,0,0,0,0,0,0,0,0,-1,1952,1674,0,0
735,-650,0,0,0,0,0,0,0,0,0,-1,1959,1674,0,0
742,-650,0,0,0,0,0,0,0,0,0,-1,1966,1674,0,0
749,-650,0,0,0,0,0,0,0,0,0,-1,1973,1674,0,0
756,-650,0,0,0,0,0,0,0,0,0,-1,1980,1674,0,0
763,-650,0,0,0,0,0,0,0,0,0,-1,1987,1674,0,0
770,-650,0,0,0,0,0,0,0,0,0,-1,1994,1674,0,0
777,-650,0,0,0,0,0,0,0,0,0,-1,2001,1674,0,0
784,-650,0,0,0,0,0,0,0,0,0,-1,2008,1674,0,0
791,-650,0,0,0,0,0,0,0,0,0,-1,2015,1674,0,0
798,-650,0,0,0,0,0,0,0,0,0,-1,2022,1674,0,0
805,-650,0,0,0,0,0,0,0,0,0,-1,2029,1674,0,0
812,-650,0,0,0,0,0,0,0,0,0,-1,2036,1674,0,0
-700,-657,0,0,0,0,0,0,0,0,0,-1,524,1681,0,0
-693,-657,0,0,0,0,0,0,0,0,0,-1,531,1681,0,0
-686,-657,0,0,0,0,0,0,0,0,0,-1,538,1681,0,0
-679,-657,0,0,0,0,0,0,0,0,0,-1,545,1681,0,0
-672,-657,0,0,0,0,0,0,0,0,0,-1,552,1681,0,0
-665,-657,0,0,0,0,0,0,0,0,0,-1,559,1681,0,0
-658,-657,0,0,0,0,0,0,0,0,0,-1,566,1681,0,0
-651,-657,0,0,0,0,0,0,0,0,0,-1,573,1681,0,0
-644,-657,0,0,0,0,0,0,0,0,0,-1,580,1681,0,0
-637,-657,0,0,0,0,0,0,0,0,0,-1,587,1681,0,0
-630,-657,0,0,0,0,0,0,0,0,0,-1,594,1681,0,0
-623,-657,0,0,0,0,0,0,0,0,0,-1,601,1681,0,0
-616,-657,0,0,0,0,0,0,0,0,0,-1,608,1681,0,0
-609,-657,0,0,0,0,0,0,0,0,0,-1,615,1681,0,0
-602,-657,0,0,0,0,0,0,0,0,0,-1,622,1681,0,0
-595,-657,0,0,0,0,0,0,0,0,0,-1,629,1681,0,0
-588,-657,0,0,0,0,0,0,0,0,0,-1,636,1681,0,0
-581,-657,0,0,0,0,0,0,0,0,0,-1,643,1681,0,0
-574,-657,0,0,0,0,0,0,0,0,0,-1,650,1681,0,0
-567,-657,0,0,0,0,0,0,0,0,0,-1,657,1681,0,0
-560,-657,0,0,0,0,0,0,0,0,0,-1,664,1681,0,0
-553,-657,0,0,0,0,0,0,0,0,0,-1,671,1681,0,0
-546,-657,0,0,0,0,0,0,0,0,0,-1,678,1681,0,0
-539,-657,0,0,0,0,0,0,0,0,0,-1,685,1681,0,0
-532,-657,0,0,0,0,0,0,0,0,0,-1,692,1681,0,0
-525,-657,0,0,0,0,0,0,0,0,0,-1,699,1681,0,0
-518,-657,0,0,0,0,0,0,0,0,0,-1,706,1681,0,0
-511,-657,0,0,0,0,0,0,0,0,0,-1,713,1681,0,0
-504,-657,0,0,0,0,0,0,0,0,0,-1,720,1681,0,0
-497,-657,0,0,0,0,0,0,0,0,0,-1,727,1681,0,0
-490,-657,0,0,0,0,0,0,0,0,0,-1,734,1681,0,0
-483,-657,0,0,0,0,0,0,0,0,0,-1,741,1681,0,0
-476,-657,0,0,0,0,0,0,0,0,0,-1,748,1681,0,0
-469,-657,0,0,0,0,0,0,0,0,0,-1,755,1681,0,0
-462,-657,0,0,0,0,0,0,0,0,0,-1,762,1681,0,0
-455,-657,0,0,0,0,0,0,0,0,0,-1,769,1681,0,0
-448,-657,0,0,0,0,0,0,0,0,0,-1,776,1681,0,0
-441,-657,0,0,0,0,0,0,0,0,0,-1,783,1681,0,0
-434,-657,0,0,0,0,0,0,0,0,0,-1,790,1681,0,0
-427,-657,0,0,0,0,0,0,0,0,0,-1,797,1681,0,0
-420,-657,0,0,0,0,0,0,0,0,0,-1,804,1681,0,0
-413,-657,0,0,0,0,0,0,0,0,0,-1,811,1681,0,0
-406,-657,0,0,0,0,0,0,0,0,0,-1,818,1681,0,0
-399,-657,0,0,0,0,0,0,0,0,0,-1,825,1681,0,0
-392,-657,0,0,0,0,0,0,0,0,0,-1,832,1681,0,0
-385,-657,1.09814,6.18896,0,0,0,0,0,0,0,-1,839,1681,1.09814,-6.18894
-378,-657,0.31488,4.46753,0,0,0,0,0,0,0,-1,846,1681,0.31487,-4.46755
-371,-657,-0.519043,2.69421,0,0,0,0,0,0,0,-1,853,1681,-0.519064,-2.69422
-364,-657,-3.42017,4.18323,0,0,0,0,0,0,0,-1,860,1681,-3.42019,-4.18319
-357,-657,5.03418,34.7598,0,0,0,0,0,0,0,-1,867,1681,5.03417,-34.7597
-350,-657,4.23431,35.8203,0,0,0,0,0,0,0,-1,874,1681,4.23429,-35.8203
-343,-657,3.60156,36.754,0,0,0,0,0,0,0,-1,881,1681,3.60154,-36.754
-336,-657,5.27338,40.2932,0,0,0,0,0,0,0,-1,888,1681,5.27338,-40.2932
-329,-657,4.90894,41.7534,0,0,0,0,0,0,0,-1,895,1681,4.90895,-41.7535
-322,-657,4.87311,42.6243,0.0140493,0.0126965,0.0173737,0.0307598,-0.00401392,0.765941,0.0219671,0.0460396,902,1681,4.87309,-42.6243
-315,-657,4.91345,43.5023,0.0105878,0.0133457,0.0131111,0.0251502,-0.00121671,0.837794,0.0171867,0.0408796,909,1681,4.91347,-43.5023
-308,-657,4.96069,44.3665,0.00748717,0.0135882,0.00946539,0.0204825,0.000592887,0.941284,0.0134617,0.0367624,916,1681,4.96072,-44.3664
-301,-657,5.15997,44.9623,0.0047947,0.0135459,0.0064515,0.0169656,0.00137493,1.08338,0.0108811,0.030581,923,1681,5.15998,-44.9622
-294,-657,5.15533,45.6796,0.00269116,0.0130453,0.00418891,0.0145277,0.00120872,1.23065,0.00930843,0.0174898,930,1681,5.15531,-45.6795
-287,-657,5.07678,46.3431,0.00109202,0.0122727,0.0026801,0.0128819,0.000482775,1.34727,0.00843162,0.0121596,937,1681,5.07681,-46.3431
-280,-657,5.0235,47.0043,-7.41786e-05,0.0108779,0.00166415,0.0111252,-0.000321462,1.42328,0.00752622,0.0149066,944,1681,5.02352,-47.0043
-273,-657,5.00067,47.6838,-0.000706234,0.00935132,0.00108027,0.00946604,-0.000820957,1.465,0.00660138,0.0116529,951,1681,5.00065,-47.6839
-266,-657,4.93835,48.3336,-0.00115592,0.00754962,0.000276002,0.00755836,-0.00116466,1.53913,0.00546862,0.0155312,958,1681,4.93835,-48.3337
-259,-657,4.90796,48.9749,-0.00112409,0.0062315,0.000105283,0.00623301,-0.0011256,1.55649,0.00457691,0.0200486,965,1681,4.90794,-48.9749
-252,-657,4.88342,49.589,-0.000795276,0.00499556,0.000244147,0.00500584,-0.000805551,1.52873,0.00363561,0.0139145,972,1681,4.88344,-49.589
-245,-657,4.85931,50.2329,-0.000203038,0.00374801,0.000497982,0.0038098,-0.000264836,1.44733,0.00263259,0.0149742,979,1681,4.85931,-50.2329
-238,-657,4.86603,50.918,0.000512421,0.00247276,0.000838306,0.00278235,0.000202827,1.21702,0.00179112,0.0205034,986,1681,4.86604,-50.918
-231,-657,4.84546,51.5576,0.00120169,0.00161964,0.00102468,0.00245643,0.000364894,0.88599,0.00153056,0.0216679,993,1681,4.84547,-51.5576
-224,-657,4.79395,52.1593,0.00192928,0.00111242,0.00104931,0.00264685,0.000394849,0.599802,0.00164879,0.0168933,1000,1681,4.79393,-52.1593
-217,-657,4.77728,52.7548,0.00262148,0.000761093,0.00100502,0.00306072,0.000321861,0.412022,0.0019421,0.011005,1007,1681,4.77727,-52.7547
-210,-657,4.76862,53.3101,0.00313091,0.000636036,0.0008437,0.00338943,0.000377508,0.297338,0.00214489,0.012455,1014,1681,4.76862,-53.3101
-203,-657,4.76855,53.8865,0.00362355,0.000419839,0.000610346,0.00373589,0.0003075,0.182021,0.00239468,0.0152745,1021,1681,4.76851,-53.8865
-196,-657,4.77087,54.4648,0.00407252,0.000191322,0.000392825,0.00411188,0.000151962,0.0998631,0.00269203,0.0152502,1028,1681,4.77087,-54.4648
-189,-657,4.78186,55.0284,0.00415389,-0.000430798,0.000128414,0.00415748,-0.000434392,0.02798,0.00292721,0.0106838,1035,1681,4.78182,-55.0285
-182,-657,4.76611,55.5879,0.00390559,-0.000665197,-0.000146212,0.00391026,-0.00066987,-0.0319449,0.00285643,0.00870846,1042,1681,4.76606,-55.5879
-175,-657,4.78394,56.1342,0.00384008,-0.00074528,-0.000316796,0.00386186,-0.000767063,-0.0686539,0.0028647,0.0120123,1049,1681,4.78391,-56.1342
-168,-657,4.74573,56.6848,0.00348508,-0.000902125,-0.000628294,0.00357328,-0.00099033,-0.139476,0.00277191,0.0164907,1056,1681,4.74576,-56.6848
-161,-657,4.75391,57.2321,0.00307497,-0.00108783,-0.000777841,0.00321557,-0.00122843,-0.17882,0.00264986,0.0165466,1063,1681,4.75389,-57.232
-154,-657,4.84143,57.6864,0.00237222,-0.00100934,-0.000901651,0.00259761,-0.00123473,-0.244956,0.00225876,0.0156752,1070,1681,4.84145,-57.6864
-147,-657,4.86951,58.1711,0.00137799,-0.000717721,-0.000963594,0.00175369,-0.00109342,-0.371767,0.00165845,0.0240313,1077,1681,4.86951,-58.1712
-140,-657,4.82458,58.8351,0.00020139,-0.000292046,-0.000983533,0.000968677,-0.00105933,-0.66251,0.00117126,0.0361938,1084,1681,4.82461,-58.835
-133,-657,4.55054,59.3138,-0.000930329,0.000401908,-0.000873772,0.000834512,-0.00136293,-1.11108,0.00128086,0.0425757,1091,1681,4.55049,-59.3138
-126,-657,4.42542,59.9689,0,0,0,0,0,0,0,-1,1098,1681,4.42539,-59.9689
-119,-657,5.64758,54.4952,0,0,0,0,0,0,0,-1,1105,1681,5.64753,-54.4952
-112,-657,6.24219,42.9092,0,0,0,0,0,0,0,-1,1112,1681,6.24217,-42.9092
-105,-657,7.37256,41.0361,0,0,0,0,0,0,0,-1,1119,1681,7.37254,-41.0362
-98,-657,8.14404,38.4435,0,0,0,0,0,0,0,-1,1126,1681,8.14405,-38.4435
-91,-657,3.6521,16.6017,0,0,0,0,0,0,0,-1,1133,1681,3.65215,-16.6017
-84,-657,4.08008,10.4579,0,0,0,0,0,0,0,-1,1140,1681,4.08006,-10.4579
-77,-657,-5.29846,0.396606,0,0,0,0,0,0,0,-1,1147,1681,-5.29842,-0.396573
-70,-657,-4.14893,2.14575,0,0,0,0,0,0,0,-1,1154,1681,-4.14893,-2.1458
-63,-657,-4.1239,3.177,0,0,0,0,0,0,0,-1,1161,1681,-4.12391,-3.17698
-56,-657,-6.40576,5.73987,0,0,0,0,0,0,0,-1,1168,1681,-6.40577,-5.7399
-49,-657,-5.98462,7.54053,0,0,0,0,0,0,0,-1,1175,1681,-5.98466,-7.5405
-42,-657,-5.71948,9.28955,0,0,0,0,0,0,0,-1,1182,1681,-5.71951,-9.2895
-35,-657,-5.44556,11.015,0,0,0,0,0,0,0,-1,1189,1681,-5.44555,-11.015
-28,-657,-1.3446,8.92847,0,0,0,0,0,0,0,-1,1196,1681,-1.34459,-8.92848
-21,-657,7.37915,63.0984,0,0,0,0,0,0,0,-1,1203,1681,7.3791,-63.0984
-14,-657,7.25317,63.6099,0,0,0,0,0,0,0,-1,1210,1681,7.25314,-63.6098
-7,-657,6.80945,64.2546,0,0,0,0,0,0,0,-1,1217,1681,6.80948,-64.2546
0,-657,6.8949,64.4749,0.0309999,0.0824916,0.0158244,0.0869659,0.0265255,1.29524,0.0514667,0.0482765,1224,1681,6.89492,-64.4748
7,-657,6.95203,64.7006,0,0,0,0,0,0,0,-1,1231,1681,6.95206,-64.7005
14,-657,7.01404,64.9391,0,0,0,0,0,0,0,-1,1238,1681,7.01401,-64.9391
21,-657,13.3563,72.441,0.00674504,0.107592,0.00286299,0.107673,0.00666382,1.54244,0.0696671,0.0455027,1245,1681,13.3564,-72.441
28,-657,13.2927,71.7284,-0.00263748,0.110867,-0.00307907,0.11095,-0.00272095,-1.5437,0.0748904,0.0452242,1252,1681,13.2927,-71.7283
35,-657,13.2058,71.0684,-0.0109516,0.107807,-0.0102629,0.108687,-0.0118319,-1.48522,0.0767069,0.0448691,1259,1681,13.2058,-71.0684
42,-657,13.8257,69.8148,-0.0179338,0.0999075,-0.018525,0.102751,-0.0207774,-1.41849,0.0763745,0.0470431,1266,1681,13.8257,-69.8148
49,-657,13.5754,69.5269,-0.0229894,0.0881011,-0.0276356,0.0945962,-0.0294845,-1.33996,0.0748536,0.0479791,1273,1681,13.5755,-69.5269
56,-657,12.9567,69.0809,0,0,0,0,0,0,0,-1,1280,1681,12.9567,-69.0809
63,-657,12.5024,71.4534,0,0,0,0,0,0,0,-1,1287,1681,12.5024,-71.4534
70,-657,12.8778,67.4558,0,0,0,0,0,0,0,-1,1294,1681,12.8778,-67.4558
77,-657,6.70935,63.7855,0,0,0,0,0,0,0,-1,1301,1681,6.70934,-63.7856
84,-657,10.1552,66.6952,0,0,0,0,0,0,0,-1,1308,1681,10.1551,-66.6952
91,-657,9.98657,65.0876,0,0,0,0,0,0,0,-1,1315,1681,9.98656,-65.0876
98,-657,9.81799,63.4801,0,0,0,0,0,0,0,-1,1322,1681,9.818,-63.4801
105,-657,7.83496,62.2506,0,0,0,0,0,0,0,-1,1329,1681,7.83497,-62.2506
112,-657,7.56189,60.3438,0,0,0,0,0,0,0,-1,1336,1681,7.56188,-60.3438
119,-657,7.29004,58.4291,0,0,0,0,0,0,0,-1,1343,1681,7.29,-58.4291
126,-657,7.33057,56.0989,0,0,0,0,0,0,0,-1,1350,1681,7.33052,-56.0989
133,-657,6.47266,56.2349,0,0,0,0,0,0,0,-1,1357,1681,6.47266,-56.2348
140,-657,7.84338,53.5667,0.112131,-0.0484686,-0.0809738,0.14587,-0.0822075,-0.394789,0.133379,0.0456943,1364,1681,7.84342,-53.5666
147,-657,9.2478,50.8789,0.123114,-0.0502799,-0.0819635,0.155725,-0.0828909,-0.37867,0.139888,0.0495672,1371,1681,9.24778,-50.8789
154,-657,10.6222,48.2162,0,0,0,0,0,0,0,-1,1378,1681,10.6223,-48.2162
161,-657,4.2926,24.9226,0,0,0,0,0,0,0,-1,1385,1681,4.29264,-24.9226
168,-657,5.21643,0.70105,0,0,0,0,0,0,0,-1,1392,1681,5.21648,-0.7011
175,-657,5.52771,0.649048,0,0,0,0,0,0,0,-1,1399,1681,5.52774,-0.649019
182,-657,5.73999,1.02612,0,0,0,0,0,0,0,-1,1406,1681,5.73995,-1.02611
189,-657,5.92126,1.44116,0,0,0,0,0,0,0,-1,1413,1681,5.92126,-1.44115
196,-657,4.92834,9.59021,0,0,0,0,0,0,0,-1,1420,1681,4.9284,-9.59018
203,-657,6.26343,5.16492,0,0,0,0,0,0,0,-1,1427,1681,6.26345,-5.16488
210,-657,3.9856,5.28088,0,0,0,0,0,0,0,-1,1434,1681,3.98555,-5.28084
217,-657,3.95178,5.2843,0,0,0,0,0,0,0,-1,1441,1681,3.95174,-5.28431
224,-657,6.66736,-0.250244,0,0,0,0,0,0,0,-1,1448,1681,6.66737,0.250229
231,-657,6.85498,-1.70752,0,0,0,0,0,0,0,-1,1455,1681,6.855,1.70758
238,-657,5.34143,-2.89819,0,0,0,0,0,0,0,-1,1462,1681,5.34143,2.89813
245,-657,8.66003,-0.102783,0,0,0,0,0,0,0,-1,1469,1681,8.66,0.102824
252,-657,4.78955,0.623779,0,0,0,0,0,0,0,-1,1476,1681,4.7895,-0.623826
259,-657,2.61523,4.31909,0,0,0,0,0,0,0,-1,1483,1681,2.61523,-4.31908
266,-657,5.35437,11.4742,0,0,0,0,0,0,0,-1,1490,1681,5.35441,-11.4742
273,-657,11.9164,46.0638,0,0,0,0,0,0,0,-1,1497,1681,11.9164,-46.0638
280,-657,13.0074,57.3235,0,0,0,0,0,0,0,-1,1504,1681,13.0074,-57.3234
287,-657,12.9022,56.8693,0,0,0,0,0,0,0,-1,1511,1681,12.9022,-56.8692
294,-657,13.2502,56.3427,0.00912635,0.00384663,-0.000425492,0.00916042,0.00381256,-0.0799026,0.00531348,0.0365998,1518,1681,13.2502,-56.3427
301,-657,13.3043,55.9248,0.0082198,0.00402487,-0.000408961,0.0082593,0.00398538,-0.0962813,0.00476948,0.0261289,1525,1681,13.3044,-55.9248
308,-657,13.3102,55.3945,0.00732542,0.00420643,-0.000574172,0.00742777,0.00410409,-0.176388,0.00429631,0.017375,1532,1681,13.3102,-55.3945
315,-657,13.3293,54.8049,0.00638143,0.00425131,-0.000728127,0.00660653,0.00402621,-0.299834,0.00384461,0.012429,1539,1681,13.3294,-54.8049
322,-657,13.3676,54.2306,0.00545217,0.00444454,-0.000997303,0.00606569,0.00383102,-0.551507,0.00354223,0.0139725,1546,1681,13.3676,-54.2306
329,-657,13.3629,53.6943,0.00464692,0.00451847,-0.00128459,0.00586889,0.0032965,-0.760421,0.00339699,0.0195572,1553,1681,13.3629,-53.6943
336,-657,13.3545,53.1293,0.00395398,0.00454486,-0.00144241,0.00572177,0.00277706,-0.886414,0.00330394,0.0170034,1560,1681,13.3545,-53.1293
343,-657,13.3663,52.5541,0.00324244,0.00444834,-0.00155642,0.00551452,0.00217625,-0.970195,0.00320728,0.0140622,1567,1681,13.3663,-52.5541
350,-657,13.3514,51.9491,0.00265,0.00428041,-0.0017249,0.00537304,0.00155737,-1.00615,0.00319215,0.0150122,1574,1681,13.3515,-51.9491
357,-657,13.3354,51.3303,0.00207334,0.00386034,-0.00178888,0.00496645,0.00096723,-1.01701,0.00304028,0.0146402,1581,1681,13.3355,-51.3303
364,-657,13.3301,50.7319,0.0016628,0.00343408,-0.00184437,0.00459443,0.000502458,-1.00923,0.00290996,0.0110412,1588,1681,13.3301,-50.7319
371,-657,13.3004,50.1515,0.00139276,0.00290755,-0.00184579,0.0041453,0.000155009,-0.980091,0.00271334,0.0153479,1595,1681,13.3004,-50.1515
378,-657,13.248,49.5435,0.00117883,0.00229807,-0.00182333,0.00364573,-0.000168831,-0.934295,0.00248867,0.015962,1602,1681,13.248,-49.5435
385,-657,13.2164,48.9268,0.00104635,0.00169512,-0.00189486,0.00329317,-0.000551697,-0.870173,0.00240057,0.0141867,1609,1681,13.2164,-48.9268
392,-657,13.1882,48.2968,0.00093334,0.00136133,-0.0021328,0.00329085,-0.000996179,-0.835398,0.00259061,0.0143354,1616,1681,13.1882,-48.2968
399,-657,13.1742,47.6592,0.000834251,0.00101607,-0.00242884,0.00335571,-0.00150538,-0.804104,0.00287352,0.0143227,1623,1681,13.1742,-47.6591
406,-657,13.1519,47.0105,0.000738966,0.000832227,-0.00279703,0.00358302,-0.00201183,-0.793733,0.00327237,0.0157957,1630,1681,13.1519,-47.0104
413,-657,13.1158,46.3511,0.000748443,0.00114552,-0.00334471,0.00429758,-0.00240362,-0.815043,0.00392011,0.015435,1637,1681,13.1158,-46.3511
420,-657,13.1014,45.6732,0.00102247,0.00156195,-0.00410385,0.00540491,-0.00282049,-0.818215,0.00482644,0.0196107,1644,1681,13.1015,-45.6733
427,-657,13.0341,44.9583,0.00130953,0.00250959,-0.00518873,0.00713287,-0.00331375,-0.842963,0.00616424,0.027468,1651,1681,13.0341,-44.9582
434,-657,13.0364,44.2576,0.00173151,0.00384681,-0.00643014,0.0093057,-0.00372738,-0.86691,0.00775099,0.0380885,1658,1681,13.0363,-44.2575
441,-657,13.0122,43.4,0.00230475,0.00550017,-0.00773952,0.0118052,-0.00400026,-0.887186,0.00948889,0.0479848,1665,1681,13.0122,-43.4
448,-657,13.0906,42.7073,0,0,0,0,0,0,0,-1,1672,1681,13.0906,-42.7073
455,-657,13.2375,41.3452,0,0,0,0,0,0,0,-1,1679,1681,13.2375,-41.3453
462,-657,10.2832,30.1719,0,0,0,0,0,0,0,-1,1686,1681,10.2831,-30.1718
469,-657,9.22205,26.4175,0,0,0,0,0,0,0,-1,1693,1681,9.2221,-26.4175
476,-657,8.9519,20.5712,0,0,0,0,0,0,0,-1,1700,1681,8.95194,-20.5712
483,-657,10.0663,21.8628,0,0,0,0,0,0,0,-1,1707,1681,10.0663,-21.8628
490,-657,11.6039,21.2185,0,0,0,0,0,0,0,-1,1714,1681,11.6038,-21.2185
497,-657,9.20862,17.8127,0,0,0,0,0,0,0,-1,1721,1681,9.2086,-17.8127
504,-657,0,0,0,0,0,0,0,0,0,-1,1728,1681,0,0
511,-657,0,0,0,0,0,0,0,0,0,-1,1735,1681,0,0
518,-657,0,0,0,0,0,0,0,0,0,-1,1742,1681,0,0
525,-657,0,0,0,0,0,0,0,0,0,-1,1749,1681,0,0
532,-657,0,0,0,0,0,0,0,0,0,-1,1756,1681,0,0
539,-657,0,0,0,0,0,0,0,0,0,-1,1763,1681,0,0
546,-657,0,0,0,0,0,0,0,0,0,-1,1770,1681,0,0
553,-657,0,0,0,0,0,0,0,0,0,-1,1777,1681,0,0
560,-657,0,0,0,0,0,0,0,0,0,-1,1784,1681,0,0
567,-657,0,0,0,0,0,0,0,0,0,-1,1791,1681,0,0
574,-657,0,0,0,0,0,0,0,0,0,-1,1798,1681,0,0
581,-657,0,0,0,0,0,0,0,0,0,-1,1805,1681,0,0
588,-657,0,0,0,0,0,0,0,0,0,-1,1812,1681,0,0
595,-657,0,0,0,0,0,0,0,0,0,-1,1819,1681,0,0
602,-657,0,0,0,0,0,0,0,0,0,-1,1826,1681,0,0
609,-657,0,0,0,0,0,0,0,0,0,-1,1833,1681,0,0
616,-657,0,0,0,0,0,0,0,0,0,-1,1840,1681,0,0
623,-657,0,0,0,0,0,0,0,0,0,-1,1847,1681,0,0
630,-657,0,0,0,0,0,0,0,0,0,-1,1854,1681,0,0
637,-657,0,0,0,0,0,0,0,0,0,-1,1861,1681,0,0
644,-657,0,0,0,0,0,0,0,0,0,-1,1868,1681,0,0
651,-657,0,0,0,0,0,0,0,0,0,-1,1875,1681,0,0
658,-657,0,0,0,0,0,0,0,0,0,-1,1882,1681,0,0
665,-657,0,0,0,0,0,0,0,0,0,-1,1889,1681,0,0
672,-657,0,0,0,0,0,0,0,0,0,-1,1896,1681,0,0
679,-657,0,0,0,0,0,0,0,0,0,-1,1903,1681,0,0
686,-657,0,0,0,0,0,0,0,0,0,-1,1910,1681,0,0
693,-657,0,0,0,0,0,0,0,0,0,-1,1917,1681,0,0
700,-657,0,0,0,0,0,0,0,0,0,-1,1924,1681,0,0
707,-657,0,0,0,0,0,0,0,0,0,-1,1931,1681,0,0
714,-657,0,0,0,0,0,0,0,0,0,-1,1938,1681,0,0
721,-657,0,0,0,0,0,0,0,0,0,-1,1945,1681,0,0
728,-657,0,0,0,0,0,0,0,0,0,-1,1952,1681,0,0
735,-657,0,0,0,0,0,0,0,0,0,-1,1959,1681,0,0
742,-657,0,0,0,0,0,0,0,0,0,-1,1966,1681,0,0
749,-657,0,0,0,0,0,0,0,0,0,-1,1973,1681,0,0
756,-657,0,0,0,0,0,0,0,0,0,-1,1980,1681,0,0
763,-657,0,0,0,0,0,0,0,0,0,-1,1987,1681,0,0
770,-657,0,0,0,0,0,0,0,0,0,-1,1994,1681,0,0
777,-657,0,0,0,0,0,0,0,0,0,-1,2001,1681,0,0
784,-657,0,0,0,0,0,0,0,0,0,-1,2008,1681,0,0
791,-657,0,0,0,0,0,0,0,0,0,-1,2015,1681,0,0
798,-657,0,0,0,0,0,0,0,0,0,-1,2022,1681,0,0
805,-657,0,0,0,0,0,0,0,0,0,-1,2029,1681,0,0
812,-657,0,0,0,0,0,0,0,0,0,-1,2036,1681,0,0
-700,-664,0,0,0,0,0,0,0,0,0,-1,524,1688,0,0
-693,-664,0,0,0,0,0,0,0,0,0,-1,531,1688,0,0
-686,-664,0,0,0,0,0,0,0,0,0,-1,538,1688,0,0
-679,-664,0,0,0,0,0,0,0,0,0,-1,545,1688,0,0
-672,-664,0,0,0,0,0,0,0,0,0,-1,552,1688,0,0
-665,-664,0,0,0,0,0,0,0,0,0,-1,559,1688,0,0
-658,-664,0,0,0,0,0,0,0,0,0,-1,566,1688,0,0
-651,-664,0,0,0,0,0,0,0,0,0,-1,573,1688,0,0
-644,-664,0,0,0,0,0,0,0,0,0,-1,580,1688,0,0
-637,-664,0,0,0,0,0,0,0,0,0,-1,587,1688,0,0
-630,-664,0,0,0,0,0,0,0,0,0,-1,594,1688,0,0
-623,-664,0,0,0,0,0,0,0,0,0,-1,601,1688,0,0
-616,-664,0,0,0,0,0,0,0,0,0,-1,608,1688,0,0
-609,-664,0,0,0,0,0,0,0,0,0,-1,615,1688,0,0
-602,-664,0,0,0,0,0,0,0,0,0,-1,622,1688,0,0
-595,-664,0,0,0,0,0,0,0,0,0,-1,629,1688,0,0
-588,-664,0,0,0,0,0,0,0,0,0,-1,636,1688,0,0
-581,-664,0,0,0,0,0,0,0,0,0,-1,643,1688,0,0
-574,-664,0,0,0,0,0,0,0,0,0,-1,650,1688,0,0
-567,-664,0,0,0,0,0,0,0,0,0,-1,657,1688,0,0
-560,-664,0,0,0,0,0,0,0,0,0,-1,664,1688,0,0
-553,-664,0,0,0,0,0,0,0,0,0,-1,671,1688,0,0
-546,-664,0,0,0,0,0,0,0,0,0,-1,678,1688,0,0
-539,-664,0,0,0,0,0,0,0,0,0,-1,685,1688,0,0
-532,-664,0,0,0,0,0,0,0,0,0,-1,692,1688,0,0
-525,-664,0,0,0,0,0,0,0,0,0,-1,699,1688,0,0
-518,-664,0,0,0,0,0,0,0,0,0,-1,706,1688,0,0
-511,-664,0,0,0,0,0,0,0,0,0,-1,713,1688,0,0
-504,-664,0,0,0,0,0,0,0,0,0,-1,720,1688,0,0
-497,-664,0,0,0,0,0,0,0,0,0,-1,727,1688,0,0
-490,-664,0,0,0,0,0,0,0,0,0,-1,734,1688,0,0
-483,-664,0,0,0,0,0,0,0,0,0,-1,741,1688,0,0
-476,-664,0,0,0,0,0,0,0,0,0,-1,748,1688,0,0
-469,-664,0,0,0,0,0,0,0,0,0,-1,755,1688,0,0
-462,-664,0,0,0,0,0,0,0,0,0,-1,762,1688,0,0
-455,-664,0,0,0,0,0,0,0,0,0,-1,769,1688,0,0
-448,-664,0,0,0,0,0,0,0,0,0,-1,776,1688,0,0
-441,-664,0,0,0,0,0,0,0,0,0,-1,783,1688,0,0
-434,-664,0,0,0,0,0,0,0,0,0,-1,790,1688,0,0
-427,-664,0,0,0,0,0,0,0,0,0,-1,797,1688,0,0
-420,-664,0,0,0,0,0,0,0,0,0,-1,804,1688,0,0
-413,-664,0,0,0,0,0,0,0,0,0,-1,811,1688,0,0
-406,-664,0,0,0,0,0,0,0,0,0,-1,818,1688,0,0
-399,-664,0,0,0,0,0,0,0,0,0,-1,825,1688,0,0
-392,-664,0,0,0,0,0,0,0,0,0,-1,832,1688,0,0
-385,-664,0,0,0,0,0,0,0,0,0,-1,839,1688,0,0
-378,-664,0,0,0,0,0,0,0,0,0,-1,846,1688,0,0
-371,-664,-1.61676,5.92737,0,0,0,0,0,0,0,-1,853,1688,-1.61675,-5.92735
-364,-664,-3.901,5.87024,0,0,0,0,0,0,0,-1,860,1688,-3.90097,-5.87027
-357,-664,-4.81012,4.53479,0,0,0,0,0,0,0,-1,867,1688,-4.81012,-4.5348
-350,-664,3.26105,36.0225,0,0,0,0,0,0,0,-1,874,1688,3.26104,-36.0224
-343,-664,5.2652,32.889,0,0,0,0,0,0,0,-1,881,1688,5.26517,-32.889
-336,-664,6.70184,40.4547,0,0,0,0,0,0,0,-1,888,1688,6.70183,-40.4547
-329,-664,4.72052,41.1434,0,0,0,0,0,0,0,-1,895,1688,4.7205,-41.1434
-322,-664,5.02936,42.3411,0.0188611,0.0176551,0.0221611,0.0404274,-0.00391122,0.771797,0.0283454,0.0496214,902,1688,5.02933,-42.3411
-315,-664,5.35742,43.6138,0.0139153,0.018844,0.0161973,0.0327633,-3.99351e-06,0.860893,0.0218435,0.0482691,909,1688,5.35744,-43.6138
-308,-664,5.4455,44.4647,0.00954177,0.0193503,0.0112474,0.0267161,0.00217596,0.990989,0.0171316,0.0474242,916,1688,5.4455,-44.4648
-301,-664,5.6626,44.9785,0.00583925,0.019272,0.00736502,0.0225233,0.00258802,1.15508,0.0142315,0.0464806,923,1688,5.66262,-44.9785
-294,-664,5.70325,45.6874,0.00294305,0.0185265,0.00453138,0.0197483,0.00172121,1.30742,0.0126309,0.0440878,930,1688,5.70324,-45.6874
-287,-664,5.78186,46.3496,0.000771316,0.0172418,0.00269497,0.0176716,0.000341565,1.41266,0.0116688,0.0278048,937,1688,5.78186,-46.3497
-280,-664,5.69745,47.0291,-0.000850249,0.0149738,0.00151057,0.0151167,-0.000993159,1.47647,0.0104246,0.0175122,944,1688,5.69744,-47.029
-273,-664,5.62311,47.7117,-0.00181409,0.0126168,0.000823824,0.0126637,-0.00186097,1.51395,0.00912626,0.0151048,951,1688,5.62311,-47.7117
-266,-664,5.5741,48.3596,-0.00247528,0.00994757,-0.000139934,0.00994915,-0.00247685,-1.55953,0.00759424,0.0217552,958,1688,5.57408,-48.3596
-259,-664,5.53864,48.9901,-0.00254604,0.00796945,-0.000346966,0.00798089,-0.00255748,-1.53785,0.00634722,0.0196552,965,1688,5.53862,-48.9902
-252,-664,5.54718,49.6458,-0.00229215,0.00612679,-0.000199482,0.00613152,-0.00229688,-1.54712,0.00503121,0.0166123,972,1688,5.54719,-49.6458
-245,-664,5.48639,50.3033,-0.00178077,0.00436443,6.25864e-05,0.00436507,-0.00178141,1.56061,0.00365168,0.0199019,979,1688,5.48641,-50.3034
-238,-664,5.50244,50.9365,-0.00110729,0.00263429,0.000459901,0.00268999,-0.00116299,1.45027,0.00228201,0.0239573,986,1688,5.50244,-50.9366
-231,-664,5.4848,51.5383,-0.000391983,0.00143103,0.000695477,0.00166606,-0.000627007,1.24491,0.00136846,0.0211937,993,1688,5.48478,-51.5384
-224,-664,5.41937,52.1638,0.000380684,0.000715806,0.0007522,0.00131888,-0.000222392,0.89499,0.000961993,0.0149341,1000,1688,5.41936,-52.1638
-217,-664,5.36768,52.781,0.00110682,0.000374417,0.000689705,0.00152151,-4.02756e-05,0.541347,0.00102803,0.0113092,1007,1688,5.36767,-52.781
-210,-664,5.349,53.3442,0.00161501,0.000373969,0.000578814,0.00184306,0.000145919,0.375318,0.00118307,0.0129658,1014,1688,5.349,-53.3442
-203,-664,5.33179,53.9053,0.00209734,0.000300223,0.000416806,0.0021893,0.000208259,0.21716,0.00139531,0.0152297,1021,1688,5.33185,-53.9053
-196,-664,5.32922,54.4744,0.00256249,0.000163611,0.00027857,0.00259441,0.000131687,0.114102,0.00168742,0.0141224,1028,1688,5.32922,-54.4744
-189,-664,5.32898,55.0621,0.00275718,-0.000212799,9.55257e-05,0.00276025,-0.000215868,0.0321196,0.00191618,0.0100919,1035,1688,5.329,-55.0621
-182,-664,5.32605,55.608,0.00271491,-0.000373718,-0.000150469,0.00272223,-0.000381032,-0.0485638,0.00195425,0.00970952,1042,1688,5.32605,-55.6081
-175,-664,5.32324,56.1281,0.00286897,-0.00034389,-0.000280257,0.00289323,-0.000368153,-0.0863608,0.00206252,0.0133284,1049,1688,5.3233,-56.1281
-168,-664,5.32312,56.6531,0.002798,-0.000449743,-0.000516885,0.00287828,-0.000530022,-0.154082,0.00211775,0.014532,1056,1688,5.32309,-56.6531
-161,-664,5.31799,57.1632,0.0026414,-0.000558398,-0.000658792,0.00277172,-0.000688725,-0.195307,0.0021151,0.0112864,1063,1688,5.31795,-57.1633
-154,-664,5.38281,57.6621,0.00233041,-0.000487977,-0.000802744,0.00254302,-0.000700581,-0.258901,0.00197082,0.0113417,1070,1688,5.38282,-57.6621
-147,-664,5.37573,58.1304,0.00188331,-0.000254348,-0.000912853,0.00222007,-0.000591114,-0.353426,0.00171146,0.0157041,1077,1688,5.37571,-58.1303
-140,-664,5.4104,58.6454,0.00132043,3.62291e-05,-0.00100184,0.00186828,-0.000511619,-0.500415,0.00144654,0.0180512,1084,1688,5.41036,-58.6454
-133,-664,5.38696,59.1772,0.000816825,0.00057285,-0.000985742,0.0016881,-0.000298424,-0.723835,0.00123693,0.0207036,1091,1688,5.38699,-59.1772
-126,-664,5.49109,59.8579,0.0005101,0.00101308,-0.000877373,0.0016743,-0.000151115,-0.924976,0.00116983,0.0424224,1098,1688,5.49106,-59.8579
-119,-664,5.64124,60.609,0,0,0,0,0,0,0,-1,1105,1688,5.64129,-60.6091
-112,-664,6.3916,51.1235,0,0,0,0,0,0,0,-1,1112,1688,6.39161,-51.1236
-105,-664,6.87256,43.2527,0,0,0,0,0,0,0,-1,1119,1688,6.87258,-43.2527
-98,-664,7.69324,41.3359,0,0,0,0,0,0,0,-1,1126,1688,7.69321,-41.3359
-91,-664,5.41931,25.6302,0,0,0,0,0,0,0,-1,1133,1688,5.41932,-25.6302
-84,-664,3.48389,16.6913,0,0,0,0,0,0,0,-1,1140,1688,3.4839,-16.6913
-77,-664,4.52014,11.2122,0,0,0,0,0,0,0,-1,1147,1688,4.5202,-11.2122
-70,-664,4.20374,8.24524,0,0,0,0,0,0,0,-1,1154,1688,4.20379,-8.24519
-63,-664,-4.677,2.40503,0,0,0,0,0,0,0,-1,1161,1688,-4.67702,-2.40498
-56,-664,-4.66504,3.32727,0,0,0,0,0,0,0,-1,1168,1688,-4.6651,-3.32724
-49,-664,-2.54297,3.31848,0,0,0,0,0,0,0,-1,1175,1688,-2.54297,-3.31852
-42,-664,-0.359253,4.38684,0,0,0,0,0,0,0,-1,1182,1688,-0.359261,-4.38685
-35,-664,-0.705566,3.55017,0,0,0,0,0,0,0,-1,1189,1688,-0.705567,-3.55023
-28,-664,-1.54236,10.2538,0,0,0,0,0,0,0,-1,1196,1688,-1.54236,-10.2538
-21,-664,7.56555,63.5802,0,0,0,0,0,0,0,-1,1203,1688,7.56551,-63.5803
-14,-664,7.4176,64.0991,0,0,0,0,0,0,0,-1,1210,1688,7.41758,-64.0992
-7,-664,7.31824,64.3127,0,0,0,0,0,0,0,-1,1217,1688,7.3182,-64.3128
0,-664,7.31177,64.5198,0,0,0,0,0,0,0,-1,1224,1688,7.31174,-64.5198
7,-664,7.38171,64.7352,0,0,0,0,0,0,0,-1,1231,1688,7.38175,-64.7353
14,-664,7.35303,64.1893,0,0,0,0,0,0,0,-1,1238,1688,7.35306,-64.1893
21,-664,7.58777,64.0768,0,0,0,0,0,0,0,-1,1245,1688,7.58777,-64.0768
28,-664,12.6704,70.5931,-0.00192817,0.0961995,-0.00252553,0.0962644,-0.00199313,-1.54508,0.0648509,0.04482,1252,1688,12.6704,-70.5932
35,-664,12.644,69.9257,-0.00819806,0.0948454,-0.00783664,0.0954379,-0.00879064,-1.49532,0.0667487,0.0453268,1259,1688,12.6441,-69.9257
42,-664,12.7028,69.2234,-0.0137531,0.0892344,-0.0142597,0.0911723,-0.015691,-1.43572,0.0666306,0.0445528,1266,1688,12.7027,-69.2234
49,-664,12.6805,68.7291,-0.0179959,0.0799527,-0.0215354,0.0844785,-0.0225217,-1.36366,0.0651373,0.045288,1273,1688,12.6805,-68.7291
56,-664,12.4471,68.2026,-0.0225806,0.0685943,-0.0291379,0.0771108,-0.0310971,-1.28644,0.0643291,0.0485851,1280,1688,12.4471,-68.2026
63,-664,12.38,67.4408,0,0,0,0,0,0,0,-1,1287,1688,12.38,-67.4408
70,-664,12.0393,67.2667,0,0,0,0,0,0,0,-1,1294,1688,12.0392,-67.2667
77,-664,10.8553,68.276,0,0,0,0,0,0,0,-1,1301,1688,10.8554,-68.2761
84,-664,10.5132,66.7711,0,0,0,0,0,0,0,-1,1308,1688,10.5132,-66.7711
91,-664,10.2438,65.2451,0,0,0,0,0,0,0,-1,1315,1688,10.2437,-65.2451
98,-664,10.3788,64.2036,0,0,0,0,0,0,0,-1,1322,1688,10.3788,-64.2036
105,-664,9.90869,63.3684,0,0,0,0,0,0,0,-1,1329,1688,9.90865,-63.3684
112,-664,7.44495,60.7531,0,0,0,0,0,0,0,-1,1336,1688,7.44499,-60.7531
119,-664,7.82214,62.4943,0,0,0,0,0,0,0,-1,1343,1688,7.82209,-62.4943
126,-664,7.84985,61.4564,0,0,0,0,0,0,0,-1,1350,1688,7.84981,-61.4564
133,-664,5.80676,57.1998,0,0,0,0,0,0,0,-1,1357,1688,5.80681,-57.1998
140,-664,7.20483,54.5354,0,0,0,0,0,0,0,-1,1364,1688,7.20482,-54.5354
147,-664,8.60278,51.871,0,0,0,0,0,0,0,-1,1371,1688,8.60283,-51.871
154,-664,20.1138,63.4268,0,0,0,0,0,0,0,-1,1378,1688,20.1137,-63.4268
161,-664,4.60132,1.56238,0,0,0,0,0,0,0,-1,1385,1688,4.60134,-1.56233
168,-664,5.172,1.25488,0,0,0,0,0,0,0,-1,1392,1688,5.17203,-1.25484
175,-664,5.58313,1.16467,0,0,0,0,0,0,0,-1,1399,1688,5.58317,-1.16466
182,-664,5.74268,1.41113,0,0,0,0,0,0,0,-1,1406,1688,5.74263,-1.41115
189,-664,5.87744,1.87061,0,0,0,0,0,0,0,-1,1413,1688,5.87745,-1.87065
196,-664,6.7594,5.97473,0,0,0,0,0,0,0,-1,1420,1688,6.75943,-5.97478
203,-664,5.38452,5.22034,0,0,0,0,0,0,0,-1,1427,1688,5.38453,-5.2203
210,-664,5.25549,6.45715,0,0,0,0,0,0,0,-1,1434,1688,5.25549,-6.45721
217,-664,5.72009,6.73975,0,0,0,0,0,0,0,-1,1441,1688,5.72014,-6.73972
224,-664,5.05725,7.42908,0,0,0,0,0,0,0,-1,1448,1688,5.05723,-7.42912
231,-664,5.13318,7.60864,0,0,0,0,0,0,0,-1,1455,1688,5.13313,-7.60862
238,-664,4.23193,6.45471,0,0,0,0,0,0,0,-1,1462,1688,4.23197,-6.45476
245,-664,4.42004,6.80896,0,0,0,0,0,0,0,-1,1469,1688,4.4201,-6.80901
252,-664,3.67346,6.85461,0,0,0,0,0,0,0,-1,1476,1688,3.6734,-6.85462
259,-664,4.55823,11.7435,0,0,0,0,0,0,0,-1,1483,1688,4.55826,-11.7435
266,-664,12.4041,58.0626,0,0,0,0,0,0,0,-1,1490,1688,12.404,-58.0627
273,-664,12.6952,57.8169,0,0,0,0,0,0,0,-1,1497,1688,12.6952,-57.8169
280,-664,12.606,57.3865,0.0084036,0.00181738,-0.000244074,0.00841264,0.00180835,-0.0369906,0.00511336,0.0382502,1504,1688,12.606,-57.3865
287,-664,12.5487,56.885,0.00773655,0.0022433,-0.000323153,0.0077555,0.00222435,-0.058558,0.00461131,0.0353665,1511,1688,12.5487,-56.885
294,-664,12.7113,56.4144,0.00709455,0.0024559,-0.000380038,0.00712548,0.00242497,-0.0812071,0.00418324,0.0242828,1518,1688,12.7113,-56.4145
301,-664,12.7888,55.8937,0.00633077,0.00273215,-0.000427664,0.0063809,0.00268203,-0.116676,0.00369957,0.015105,1525,1688,12.7888,-55.8937
308,-664,12.7977,55.3416,0.00556996,0.00298068,-0.000594757,0.00570004,0.0028506,-0.215321,0.00329092,0.0128841,1532,1688,12.7978,-55.3415
315,-664,12.7946,54.7778,0.0047633,0.00317107,-0.000750926,0.00506157,0.00287279,-0.378097,0.00293118,0.0125503,1539,1688,12.7945,-54.7778
322,-664,12.829,54.2743,0.00394949,0.00347288,-0.000964275,0.00470447,0.0027179,-0.66426,0.00272704,0.014945,1546,1688,12.8289,-54.2743
329,-664,12.8118,53.7559,0.00323172,0.00365403,-0.0011878,0.0046493,0.00223646,-0.873364,0.00268492,0.0169799,1553,1688,12.8118,-53.7559
336,-664,12.79,53.1617,0.00261366,0.00377466,-0.00131155,0.00462843,0.00175988,-0.993743,0.00269766,0.0139481,1560,1688,12.7901,-53.1617
343,-664,12.7832,52.5704,0.00199918,0.00374391,-0.00140144,0.00452233,0.00122077,-1.06379,0.00270152,0.0118055,1567,1688,12.7832,-52.5705
350,-664,12.7648,51.9832,0.00150907,0.00361212,-0.00156073,0.00444251,0.000678682,-1.08184,0.00276336,0.0140325,1574,1688,12.7647,-51.9832
357,-664,12.7512,51.354,0.00109423,0.00329489,-0.00166795,0.00419276,0.000196367,-1.07698,0.00273207,0.0137736,1581,1688,12.7512,-51.354
364,-664,12.7314,50.7507,0.000785091,0.00291335,-0.00173022,0.00388048,-0.000182043,-1.0611,0.00264975,0.0112629,1588,1688,12.7315,-50.7507
371,-664,12.7091,50.1759,0.00061788,0.00244097,-0.00178738,0.00353582,-0.000476975,-1.0212,0.00253123,0.0135704,1595,1688,12.7091,-50.1759
378,-664,12.6594,49.5839,0.000530812,0.00186603,-0.00184036,0.00315613,-0.000759284,-0.959397,0.0023976,0.0135381,1602,1688,12.6594,-49.5839
385,-664,12.6132,48.9528,0.000529551,0.00132634,-0.00202849,0.00299518,-0.00113929,-0.882363,0.0024659,0.0145928,1609,1688,12.6132,-48.9528
392,-664,12.5553,48.3439,0.000588004,0.00107543,-0.00242701,0.00327094,-0.0016075,-0.835439,0.00287062,0.0175098,1616,1688,12.5553,-48.3439
399,-664,12.5408,47.7039,0.000685423,0.000764273,-0.0028861,0.00361122,-0.00216152,-0.792228,0.00336774,0.0161833,1623,1688,12.5408,-47.7038
406,-664,12.5398,47.0414,0.000760015,0.000691375,-0.00341929,0.00414516,-0.00269377,-0.78038,0.00397799,0.0154058,1630,1688,12.5398,-47.0414
413,-664,12.5272,46.3552,0.000943244,0.00119018,-0.00419527,0.0052638,-0.00313037,-0.800109,0.00489827,0.0163319,1637,1688,12.5273,-46.3552
420,-664,12.5564,45.6508,0.00138382,0.00180028,-0.00518963,0.00678585,-0.00360175,-0.80545,0.00609048,0.0377583,1644,1688,12.5563,-45.6507
427,-664,12.6464,44.9025,0,0,0,0,0,0,0,-1,1651,1688,12.6463,-44.9024
434,-664,12.3552,43.938,0,0,0,0,0,0,0,-1,1658,1688,12.3552,-43.938
441,-664,11.7351,42.7498,0,0,0,0,0,0,0,-1,1665,1688,11.7352,-42.7497
448,-664,12.5538,38.7155,0,0,0,0,0,0,0,-1,1672,1688,12.5539,-38.7154
455,-664,12.1709,39.3733,0,0,0,0,0,0,0,-1,1679,1688,12.1708,-39.3733
462,-664,4.3147,4.25439,0,0,0,0,0,0,0,-1,1686,1688,4.31467,-4.25435
469,-664,6.05469,7.49341,0,0,0,0,0,0,0,-1,1693,1688,6.05474,-7.49339
476,-664,10.2377,22.7128,0,0,0,0,0,0,0,-1,1700,1688,10.2377,-22.7128
483,-664,8.41895,10.9768,0,0,0,0,0,0,0,-1,1707,1688,8.41897,-10.9769
490,-664,3.90771,13.2842,0,0,0,0,0,0,0,-1,1714,1688,3.90776,-13.2841
497,-664,0,0,0,0,0,0,0,0,0,-1,1721,1688,0,0
504,-664,0,0,0,0,0,0,0,0,0,-1,1728,1688,0,0
511,-664,0,0,0,0,0,0,0,0,0,-1,1735,1688,0,0
518,-664,0,0,0,0,0,0,0,0,0,-1,1742,1688,0,0
525,-664,0,0,0,0,0,0,0,0,0,-1,1749,1688,0,0
532,-664,0,0,0,0,0,0,0,0,0,-1,1756,1688,0,0
539,-664,0,0,0,0,0,0,0,0,0,-1,1763,1688,0,0
546,-664,0,0,0,0,0,0,0,0,0,-1,1770,1688,0,0
553,-664,0,0,0,0,0,0,0,0,0,-1,1777,1688,0,0
560,-664,0,0,0,0,0,0,0,0,0,-1,1784,1688,0,0
567,-664,0,0,0,0,0,0,0,0,0,-1,1791,1688,0,0
574,-664,0,0,0,0,0,0,0,0,0,-1,1798,1688,0,0
581,-664,0,0,0,0,0,0,0,0,0,-1,1805,1688,0,0
588,-664,0,0,0,0,0,0,0,0,0,-1,1812,1688,0,0
595,-664,0,0,0,0,0,0,0,0,0,-1,1819,1688,0,0
602,-664,0,0,0,0,0,0,0,0,0,-1,1826,1688,0,0
609,-664,0,0,0,0,0,0,0,0,0,-1,1833,1688,0,0
616,-664,0,0,0,0,0,0,0,0,0,-1,1840,1688,0,0
623,-664,0,0,0,0,0,0,0,0,0,-1,1847,1688,0,0
630,-664,0,0,0,0,0,0,0,0,0,-1,1854,1688,0,0
637,-664,0,0,0,0,0,0,0,0,0,-1,1861,1688,0,0
644,-664,0,0,0,0,0,0,0,0,0,-1,1868,1688,0,0
651,-664,0,0,0,0,0,0,0,0,0,-1,1875,1688,0,0
658,-664,0,0,0,0,0,0,0,0,0,-1,1882,1688,0,0
665,-664,0,0,0,0,0,0,0,0,0,-1,1889,1688,0,0
672,-664,0,0,0,0,0,0,0,0,0,-1,1896,1688,0,0
679,-664,0,0,0,0,0,0,0,0,0,-1,1903,1688,0,0
686,-664,0,0,0,0,0,0,0,0,0,-1,1910,1688,0,0
693,-664,0,0,0,0,0,0,0,0,0,-1,1917,1688,0,0
700,-664,0,0,0,0,0,0,0,0,0,-1,1924,1688,0,0
707,-664,0,0,0,0,0,0,0,0,0,-1,1931,1688,0,0
714,-664,0,0,0,0,0,0,0,0,0,-1,1938,1688,0,0
721,-664,0,0,0,0,0,0,0,0,0,-1,1945,1688,0,0
728,-664,0,0,0,0,0,0,0,0,0,-1,1952,1688,0,0
735,-664,0,0,0,0,0,0,0,0,0,-1,1959,1688,0,0
742,-664,0,0,0,0,0,0,0,0,0,-1,1966,1688,0,0
749,-664,0,0,0,0,0,0,0,0,0,-1,1973,1688,0,0
756,-664,0,0,0,0,0,0,0,0,0,-1,1980,1688,0,0
763,-664,0,0,0,0,0,0,0,0,0,-1,1987,1688,0,0
770,-664,0,0,0,0,0,0,0,0,0,-1,1994,1688,0,0
777,-664,0,0,0,0,0,0,0,0,0,-1,2001,1688,0,0
784,-664,0,0,0,0,0,0,0,0,0,-1,2008,1688,0,0
791,-664,0,0,0,0,0,0,0,0,0,-1,2015,1688,0,0
798,-664,0,0,0,0,0,0,0,0,0,-1,2022,1688,0,0
805,-664,0,0,0,0,0,0,0,0,0,-1,2029,1688,0,0
812,-664,0,0,0,0,0,0,0,0,0,-1,2036,1688,0,0
-700,-671,0,0,0,0,0,0,0,0,0,-1,524,1695,0,0
-693,-671,0,0,0,0,0,0,0,0,0,-1,531,1695,0,0
-686,-671,0,0,0,0,0,0,0,0,0,-1,538,1695,0,0
-679,-671,0,0,0,0,0,0,0,0,0,-1,545,1695,0,0
-672,-671,0,0,0,0,0,0,0,0,0,-1,552,1695,0,0
-665,-671,0,0,0,0,0,0,0,0,0,-1,559,1695,0,0
-658,-671,0,0,0,0,0,0,0,0,0,-1,566,1695,0,0
-651,-671,0,0,0,0,0,0,0,0,0,-1,573,1695,0,0
-644,-671,0,0,0,0,0,0,0,0,0,-1,580,1695,0,0
-637,-671,0,0,0,0,0,0,0,0,0,-1,587,1695,0,0
-630,-671,0,0,0,0,0,0,0,0,0,-1,594,1695,0,0
-623,-671,0,0,0,0,0,0,0,0,0,-1,601,1695,0,0
-616,-671,0,0,0,0,0,0,0,0,0,-1,608,1695,0,0
-609,-671,0,0,0,0,0,0,0,0,0,-1,615,1695,0,0
-602,-671,0,0,0,0,0,0,0,0,0,-1,622,1695,0,0
-595,-671,0,0,0,0,0,0,0,0,0,-1,629,1695,0,0
-588,-671,0,0,0,0,0,0,0,0,0,-1,636,1695,0,0
-581,-671,0,0,0,0,0,0,0,0,0,-1,643,1695,0,0
-574,-671,0,0,0,0,0,0,0,0,0,-1,650,1695,0,0
-567,-671,0,0,0,0,0,0,0,0,0,-1,657,1695,0,0
-560,-671,0,0,0,0,0,0,0,0,0,-1,664,1695,0,0
-553,-671,0,0,0,0,0,0,0,0,0,-1,671,1695,0,0
-546,-671,0,0,0,0,0,0,0,0,0,-1,678,1695,0,0
-539,-671,0,0,0,0,0,0,0,0,0,-1,685,1695,0,0
-532,-671,0,0,0,0,0,0,0,0,0,-1,692,1695,0,0
-525,-671,0,0,0,0,0,0,0,0,0,-1,699,1695,0,0
-518,-671,0,0,0,0,0,0,0,0,0,-1,706,1695,0,0
-511,-671,0,0,0,0,0,0,0,0,0,-1,713,1695,0,0
-504,-671,0,0,0,0,0,0,0,0,0,-1,720,1695,0,0
-497,-671,0,0,0,0,0,0,0,0,0,-1,727,1695,0,0
-490,-671,0,0,0,0,0,0,0,0,0,-1,734,1695,0,0
-483,-671,0,0,0,0,0,0,0,0,0,-1,741,1695,0,0
-476,-671,0,0,0,0,0,0,0,0,0,-1,748,1695,0,0
-469,-671,0,0,0,0,0,0,0,0,0,-1,755,1695,0,0
-462,-671,0,0,0,0,0,0,0,0,0,-1,762,1695,0,0
-455,-671,0,0,0,0,0,0,0,0,0,-1,769,1695,0,0
-448,-671,0,0,0,0,0,0,0,0,0,-1,776,1695,0,0
-441,-671,0,0,0,0,0,0,0,0,0,-1,783,1695,0,0
-434,-671,0,0,0,0,0,0,0,0,0,-1,790,1695,0,0
-427,-671,0,0,0,0,0,0,0,0,0,-1,797,1695,0,0
-420,-671,0,0,0,0,0,0,0,0,0,-1,804,1695,0,0
-413,-671,0,0,0,0,0,0,0,0,0,-1,811,1695,0,0
-406,-671,0,0,0,0,0,0,0,0,0,-1,818,1695,0,0
-399,-671,0,0,0,0,0,0,0,0,0,-1,825,1695,0,0
-392,-671,0,0,0,0,0,0,0,0,0,-1,832,1695,0,0
-385,-671,0,0,0,0,0,0,0,0,0,-1,839,1695,0,0
-378,-671,0,0,0,0,0,0,0,0,0,-1,846,1695,0,0
-371,-671,0,0,0,0,0,0,0,0,0,-1,853,1695,0,0
-364,-671,-4.18738,7.51416,0,0,0,0,0,0,0,-1,860,1695,-4.18739,-7.51419
-357,-671,-5.02393,6.07129,0,0,0,0,0,0,0,-1,867,1695,-5.0239,-6.07135
-350,-671,6.93323,33.8943,0,0,0,0,0,0,0,-1,874,1695,6.93325,-33.8943
-343,-671,6.16626,32.3158,0,0,0,0,0,0,0,-1,881,1695,6.16623,-32.3158
-336,-671,5.67371,33.653,0,0,0,0,0,0,0,-1,888,1695,5.67369,-33.653
-329,-671,7.40582,41.647,0,0,0,0,0,0,0,-1,895,1695,7.40582,-41.647
-322,-671,5.38025,42.3577,0,0,0,0,0,0,0,-1,902,1695,5.38024,-42.3577
-315,-671,5.75104,43.6716,0,0,0,0,0,0,0,-1,909,1695,5.75103,-43.6716
-308,-671,6.92084,43.7843,0,0,0,0,0,0,0,-1,916,1695,6.92086,-43.7843
-301,-671,6.21063,45.0364,0,0,0,0,0,0,0,-1,923,1695,6.21064,-45.0364
-294,-671,6.82916,45.307,0.00298086,0.026074,0.00438133,0.0268773,0.00217756,1.38946,0.0172383,0.0492379,930,1695,6.82913,-45.307
-287,-671,6.73224,46.0134,0.000267006,0.0241634,0.00232471,0.0243875,4.29526e-05,1.47471,0.016244,0.0408347,937,1695,6.73225,-46.0135
-280,-671,6.48535,46.8282,-0.00172414,0.0205876,0.00112167,0.0206438,-0.00178039,1.52069,0.0143928,0.0323575,944,1695,6.48534,-46.8283
-273,-671,6.38245,47.6389,-0.00292977,0.0170389,0.000478627,0.0170504,-0.00294123,1.54685,0.0124636,0.0314972,951,1695,6.38243,-47.6389
-266,-671,6.23877,48.3956,-0.00374438,0.013137,-0.000579998,0.0131569,-0.00376429,-1.53649,0.0102589,0.0242301,958,1695,6.23878,-48.3956
-259,-671,6.17566,49.0179,-0.00385783,0.0102586,-0.000743045,0.0102976,-0.00389683,-1.51835,0.00846834,0.0220119,965,1695,6.17565,-49.0179
-252,-671,6.14374,49.6908,-0.00364379,0.0076114,-0.000519497,0.00763533,-0.00366771,-1.52477,0.00665848,0.0182685,972,1695,6.14374,-49.6908
-245,-671,6.10132,50.3495,-0.00321407,0.00518977,-0.000212559,0.00519514,-0.00321944,-1.54552,0.0049026,0.0205746,979,1695,6.10135,-50.3494
-238,-671,6.08826,50.9711,-0.0026026,0.00290414,0.000256956,0.00291611,-0.00261457,1.52427,0.00319472,0.0210388,986,1695,6.08825,-50.971
-231,-671,6.06134,51.5718,-0.00187814,0.00133561,0.000548525,0.00142666,-0.00196918,1.40632,0.00196891,0.016065,993,1695,6.06136,-51.5717
-224,-671,6.00256,52.1669,-0.00106649,0.000439199,0.000638355,0.000673406,-0.0013007,1.21915,0.00115877,0.0122963,1000,1695,6.00255,-52.1669
-217,-671,5.95624,52.764,-0.000322002,0.000130212,0.000547747,0.000496685,-0.000688475,0.981142,0.000687232,0.0116432,1007,1695,5.95626,-52.764
-210,-671,5.94867,53.3728,0.000161047,0.000290522,0.000484576,0.000714665,-0.000263097,0.851803,0.000584234,0.0117135,1014,1695,5.94867,-53.3728
-203,-671,5.9231,53.925,0.000627073,0.00038918,0.000395314,0.000920948,9.53055e-05,0.639261,0.000584791,0.0202811,1021,1695,5.92305,-53.925
-196,-671,5.89063,54.4714,0.0011054,0.000367477,0.000323271,0.00122698,0.000245891,0.359746,0.000749591,0.0162121,1028,1695,5.89057,-54.4715
-189,-671,5.88989,55.1173,0.00140219,0.000198685,0.000199787,0.00143449,0.000166386,0.160279,0.000905971,0.0124129,1035,1695,5.8899,-55.1173
-182,-671,5.85718,55.6528,0.00153722,0.000128434,3.95669e-06,0.00153723,0.000128423,0.00280856,0.000984805,0.0102537,1042,1695,5.85722,-55.6528
-175,-671,5.84082,56.1775,0.00185596,0.000247498,-8.06927e-05,0.00185999,0.00024346,-0.0500004,0.00116734,0.0130909,1049,1695,5.84082,-56.1774
-168,-671,5.84204,56.6764,0.0019857,0.000156494,-0.000247119,0.0020185,0.000123697,-0.131945,0.00130639,0.013743,1056,1695,5.842,-56.6764
-161,-671,5.85596,57.1862,0.00198803,7.24195e-05,-0.000383164,0.00206183,-1.37882e-06,-0.190272,0.00137501,0.00982258,1063,1695,5.85591,-57.1861
-154,-671,5.87671,57.7006,0.00192475,7.0865e-05,-0.000557007,0.00207923,-8.36173e-05,-0.270543,0.00141485,0.00948684,1070,1695,5.87676,-57.7006
-147,-671,5.88489,58.1876,0.00182462,0.00017863,-0.000727887,0.00210032,-9.70751e-05,-0.362075,0.00143367,0.0107291,1077,1695,5.88491,-58.1876
-140,-671,5.92871,58.6399,0.00169178,0.000284118,-0.000894775,0.00212637,-0.000150471,-0.452139,0.00147031,0.0134719,1084,1695,5.92873,-58.6399
-133,-671,5.94202,59.0862,0.00162488,0.000572635,-0.000980468,0.00221147,-1.39507e-05,-0.539147,0.00147899,0.0199676,1091,1695,5.94204,-59.0861
-126,-671,6.00952,59.7136,0.00174914,0.000857803,-0.000983445,0.00238319,0.000223758,-0.572654,0.00151971,0.0383203,1098,1695,6.00948,-59.7137
-119,-671,6.11816,60.4978,0,0,0,0,0,0,0,-1,1105,1695,6.11814,-60.4978
-112,-671,6.58704,44.6255,0,0,0,0,0,0,0,-1,1112,1695,6.58701,-44.6255
-105,-671,7.33252,41.3418,0,0,0,0,0,0,0,-1,1119,1695,7.33247,-41.3418
-98,-671,6.34534,45.6299,0,0,0,0,0,0,0,-1,1126,1695,6.34533,-45.6299
-91,-671,6.40063,38.2443,0,0,0,0,0,0,0,-1,1133,1695,6.40059,-38.2442
-84,-671,5.4209,26.2415,0,0,0,0,0,0,0,-1,1140,1695,5.42096,-26.2414
-77,-671,4.31763,16.489,0,0,0,0,0,0,0,-1,1147,1695,4.31757,-16.489
-70,-671,3.06067,10.7737,0,0,0,0,0,0,0,-1,1154,1695,3.0607,-10.7737
-63,-671,2.94592,6.90198,0,0,0,0,0,0,0,-1,1161,1695,2.94594,-6.90198
-56,-671,-3.07678,2.87976,0,0,0,0,0,0,0,-1,1168,1695,-3.07675,-2.87979
-49,-671,-1.05957,4.76917,0,0,0,0,0,0,0,-1,1175,1695,-1.05958,-4.76921
-42,-671,0.539307,3.7865,0,0,0,0,0,0,0,-1,1182,1695,0.539266,-3.78648
-35,-671,-0.272461,0.347534,0,0,0,0,0,0,0,-1,1189,1695,-0.272434,-0.347569
-28,-671,-10.4878,17.2009,0,0,0,0,0,0,0,-1,1196,1695,-10.4878,-17.2009
-21,-671,7.63867,63.8674,0,0,0,0,0,0,0,-1,1203,1695,7.6387,-63.8674
-14,-671,7.67749,64.2513,0,0,0,0,0,0,0,-1,1210,1695,7.67755,-64.2514
-7,-671,7.64539,64.3616,0.0190677,0.0555529,0.00953024,0.0578923,0.0167283,1.33009,0.0344023,0.0497605,1217,1695,7.64544,-64.3615
0,-671,7.69434,64.5543,0.0159921,0.0598266,0.007977,0.0612331,0.0145855,1.39627,0.036933,0.0466119,1224,1695,7.69436,-64.5544
7,-671,7.72937,64.7214,0,0,0,0,0,0,0,-1,1231,1695,7.72941,-64.7215
14,-671,7.89636,64.5874,0.00854885,0.0725236,0.00373486,0.0727409,0.00833154,1.51268,0.0459691,0.043448,1238,1695,7.89641,-64.5874
21,-671,8.13916,64.7542,0,0,0,0,0,0,0,-1,1245,1695,8.13916,-64.7542
28,-671,8.20654,64.8528,0,0,0,0,0,0,0,-1,1252,1695,8.20648,-64.8528
35,-671,12.1681,68.4592,0,0,0,0,0,0,0,-1,1259,1695,12.1681,-68.4593
42,-671,12.1178,68.0975,-0.010061,0.0774512,-0.0106542,0.0787297,-0.0113394,-1.45137,0.0566458,0.0446211,1266,1695,12.1177,-68.0975
49,-671,12.1138,67.7083,-0.0135883,0.0703437,-0.0163866,0.0734295,-0.0166741,-1.38466,0.0553546,0.0430722,1273,1695,12.1138,-67.7083
56,-671,11.9525,67.334,-0.0174943,0.0614668,-0.0223956,0.0673765,-0.023404,-1.3128,0.0544231,0.0445552,1280,1695,11.9526,-67.3339
63,-671,11.6577,67.2043,0,0,0,0,0,0,0,-1,1287,1695,11.6577,-67.2044
70,-671,11.515,67.0579,-0.0189662,0.0369353,-0.0343446,0.0532654,-0.0352963,-1.12696,0.0514808,0.0460957,1294,1695,11.515,-67.0579
77,-671,11.1525,66.5082,-0.0169284,0.0246819,-0.0397364,0.0487303,-0.0409767,-1.02656,0.0518568,0.044788,1301,1695,11.1524,-66.5082
84,-671,10.8864,66.6357,0,0,0,0,0,0,0,-1,1308,1695,10.8864,-66.6357
91,-671,10.551,65.392,-0.00632749,0.00188131,-0.0483927,0.0463433,-0.0507895,-0.827704,0.0560992,0.0454153,1315,1695,10.551,-65.392
98,-671,10.1841,64.3405,0.002554,-0.00963381,-0.0528018,0.0496124,-0.0566922,-0.727947,0.0614204,0.0462082,1322,1695,10.1841,-64.3405
105,-671,9.72461,63.4785,0.0124865,-0.0173209,-0.055599,0.0551447,-0.0599791,-0.654449,0.0664863,0.0476926,1329,1695,9.72455,-63.4785
112,-671,9.2406,62.5745,0,0,0,0,0,0,0,-1,1336,1695,9.24063,-62.5744
119,-671,9.76868,64.9003,0,0,0,0,0,0,0,-1,1343,1695,9.76863,-64.9002
126,-671,9.71777,64.5786,0,0,0,0,0,0,0,-1,1350,1695,9.71779,-64.5787
133,-671,5.49402,57.9967,0,0,0,0,0,0,0,-1,1357,1695,5.49401,-57.9967
140,-671,6.63208,55.3285,0,0,0,0,0,0,0,-1,1364,1695,6.63207,-55.3285
147,-671,7.77014,52.6602,0,0,0,0,0,0,0,-1,1371,1695,7.77013,-52.6602
154,-671,5.01501,61.3026,0,0,0,0,0,0,0,-1,1378,1695,5.01499,-61.3026
161,-671,4.49292,4.91272,0,0,0,0,0,0,0,-1,1385,1695,4.49297,-4.91273
168,-671,5.17639,6.1416,0,0,0,0,0,0,0,-1,1392,1695,5.1764,-6.14164
175,-671,5.6731,1.64685,0,0,0,0,0,0,0,-1,1399,1695,5.67313,-1.64691
182,-671,5.56812,1.71692,0,0,0,0,0,0,0,-1,1406,1695,5.56809,-1.71686
189,-671,6.98315,6.36169,0,0,0,0,0,0,0,-1,1413,1695,6.98312,-6.36175
196,-671,5.38123,5.69775,0,0,0,0,0,0,0,-1,1420,1695,5.38125,-5.69769
203,-671,5.95117,8.11658,0,0,0,0,0,0,0,-1,1427,1695,5.9512,-8.11662
210,-671,4.73596,8.39624,0,0,0,0,0,0,0,-1,1434,1695,4.736,-8.39618
217,-671,5.37097,11.863,0,0,0,0,0,0,0,-1,1441,1695,5.37094,-11.863
224,-671,5.08167,13.6694,0,0,0,0,0,0,0,-1,1448,1695,5.08165,-13.6695
231,-671,5.66663,15.3348,0,0,0,0,0,0,0,-1,1455,1695,5.66667,-15.3349
238,-671,6.32959,16.2036,0,0,0,0,0,0,0,-1,1462,1695,6.32961,-16.2037
245,-671,11.9244,57.5367,0,0,0,0,0,0,0,-1,1469,1695,11.9245,-57.5367
252,-671,12.093,59.5424,0,0,0,0,0,0,0,-1,1476,1695,12.093,-59.5424
259,-671,11.9869,58.7008,0,0,0,0,0,0,0,-1,1483,1695,11.987,-58.7008
266,-671,12.1329,58.3522,0.00739567,0.000255613,-0.000106752,0.00739726,0.000254017,-0.0149467,0.00484906,0.0347776,1490,1695,12.1329,-58.3522
273,-671,12.2225,57.9136,0.00698371,0.000571731,-0.000160304,0.00698771,0.000567725,-0.02498,0.00448124,0.0119338,1497,1695,12.2226,-57.9136
280,-671,12.2083,57.4436,0.00635168,0.00101726,-0.000285575,0.00636692,0.00100201,-0.0533313,0.00395317,0.0110623,1504,1695,12.2082,-57.4437
287,-671,12.1857,56.8676,0.00575633,0.00142996,-0.000391555,0.00579148,0.00139481,-0.0895349,0.00349022,0.0134451,1511,1695,12.1857,-56.8675
294,-671,12.1982,56.3362,0.00518232,0.00170052,-0.000474438,0.00524581,0.00163703,-0.133032,0.00309917,0.0134838,1518,1695,12.1982,-56.3361
301,-671,12.2241,55.8638,0.00451938,0.00200912,-0.000579335,0.00464663,0.00188187,-0.216219,0.00269883,0.011687,1525,1695,12.2241,-55.8638
308,-671,12.2347,55.3583,0.00385939,0.00231462,-0.000767724,0.00417603,0.00199798,-0.391187,0.00241178,0.0123574,1532,1695,12.2348,-55.3582
315,-671,12.2577,54.8248,0.00316663,0.00262272,-0.000942272,0.00387541,0.00191394,-0.644907,0.00223752,0.0142543,1539,1695,12.2577,-54.8248
322,-671,12.2573,54.3176,0.00245565,0.00301092,-0.00110388,0.00387154,0.00159502,-0.908597,0.00224675,0.0162213,1546,1695,12.2573,-54.3176
329,-671,12.2159,53.7837,0.00184561,0.00333606,-0.00129494,0.0040849,0.00109677,-1.0465,0.00244123,0.0148346,1553,1695,12.2159,-53.7836
336,-671,12.2006,53.1892,0.00131512,0.0035865,-0.00140826,0.00425995,0.000641669,-1.12473,0.00265208,0.0110269,1560,1695,12.2006,-53.1892
343,-671,12.2302,52.577,0.000810181,0.00366133,-0.00150382,0.00430789,0.000163626,-1.16475,0.00281897,0.0118291,1567,1695,12.2302,-52.577
350,-671,12.2019,52.0181,0.000437284,0.00360268,-0.00166902,0.00432011,-0.000280142,-1.16483,0.00297785,0.0126171,1574,1695,12.202,-52.0181
357,-671,12.1587,51.3783,0.00019277,0.00341931,-0.00182686,0.00424327,-0.000631186,-1.14709,0.00306101,0.0115367,1581,1695,12.1586,-51.3783
364,-671,12.1163,50.7766,3.57098e-06,0.00310489,-0.00190341,0.00400933,-0.000900867,-1.12721,0.00301833,0.0127263,1588,1695,12.1164,-50.7766
371,-671,12.0778,50.2054,-3.6921e-05,0.00268483,-0.0020137,0.00375438,-0.00110647,-1.08255,0.00294194,0.0146657,1595,1695,12.0777,-50.2055
378,-671,12.0455,49.6062,3.10531e-05,0.0021116,-0.00213647,0.0034476,-0.00130495,-1.01196,0.00283531,0.01264,1602,1695,12.0455,-49.6061
385,-671,12.0062,48.9471,0.000188031,0.0015827,-0.00243565,0.00341887,-0.00164814,-0.92482,0.00298439,0.0143713,1609,1695,12.0062,-48.9472
392,-671,11.9512,48.3569,0.000446563,0.00133081,-0.00298423,0.00390549,-0.00212811,-0.85894,0.00353352,0.0190118,1616,1695,11.9511,-48.3569
399,-671,11.9194,47.749,0.000782005,0.000935031,-0.00360087,0.0044602,-0.00274317,-0.796021,0.00419807,0.0162764,1623,1695,11.9194,-47.749
406,-671,11.946,47.0594,0.00106102,0.000866276,-0.00428821,0.00525296,-0.00332566,-0.774047,0.00499436,0.0240805,1630,1695,11.9461,-47.0595
413,-671,11.8486,46.4468,0.00145281,0.00141187,-0.00528742,0.0067198,-0.00385512,-0.783462,0.00617965,0.0364741,1637,1695,11.8486,-46.4468
420,-671,11.9845,45.8004,0,0,0,0,0,0,0,-1,1644,1695,11.9845,-45.8004
427,-671,11.9879,42.9364,0,0,0,0,0,0,0,-1,1651,1695,11.988,-42.9364
434,-671,12.0647,42.6493,0,0,0,0,0,0,0,-1,1658,1695,12.0648,-42.6493
441,-671,11.8904,39.6104,0,0,0,0,0,0,0,-1,1665,1695,11.8904,-39.6103
448,-671,11.6979,39.1995,0,0,0,0,0,0,0,-1,1672,1695,11.6979,-39.1994
455,-671,11.5221,39.0929,0,0,0,0,0,0,0,-1,1679,1695,11.5221,-39.0929
462,-671,5.86255,4.47961,0,0,0,0,0,0,0,-1,1686,1695,5.8625,-4.4796
469,-671,3.71301,3.76978,0,0,0,0,0,0,0,-1,1693,1695,3.71297,-3.76974
476,-671,3.75574,3.18848,0,0,0,0,0,0,0,-1,1700,1695,3.7558,-3.18847
483,-671,7.81824,12.1041,0,0,0,0,0,0,0,-1,1707,1695,7.81826,-12.1041
490,-671,0,0,0,0,0,0,0,0,0,-1,1714,1695,0,0
497,-671,0,0,0,0,0,0,0,0,0,-1,1721,1695,0,0
504,-671,0,0,0,0,0,0,0,0,0,-1,1728,1695,0,0
511,-671,0,0,0,0,0,0,0,0,0,-1,1735,1695,0,0
518,-671,0,0,0,0,0,0,0,0,0,-1,1742,1695,0,0
525,-671,0,0,0,0,0,0,0,0,0,-1,1749,1695,0,0
532,-671,0,0,0,0,0,0,0,0,0,-1,1756,1695,0,0
539,-671,0,0,0,0,0,0,0,0,0,-1,1763,1695,0,0
546,-671,0,0,0,0,0,0,0,0,0,-1,1770,1695,0,0
553,-671,0,0,0,0,0,0,0,0,0,-1,1777,1695,0,0
560,-671,0,0,0,0,0,0,0,0,0,-1,1784,1695,0,0
567,-671,0,0,0,0,0,0,0,0,0,-1,1791,1695,0,0
574,-671,0,0,0,0,0,0,0,0,0,-1,1798,1695,0,0
581,-671,0,0,0,0,0,0,0,0,0,-1,1805,1695,0,0
588,-671,0,0,0,0,0,0,0,0,0,-1,1812,1695,0,0
595,-671,0,0,0,0,0,0,0,0,0,-1,1819,1695,0,0
602,-671,0,0,0,0,0,0,0,0,0,-1,1826,1695,0,0
609,-671,0,0,0,0,0,0,0,0,0,-1,1833,1695,0,0
616,-671,0,0,0,0,0,0,0,0,0,-1,1840,1695,0,0
623,-671,0,0,0,0,0,0,0,0,0,-1,1847,1695,0,0
630,-671,0,0,0,0,0,0,0,0,0,-1,1854,1695,0,0
637,-671,0,0,0,0,0,0,0,0,0,-1,1861,1695,0,0
644,-671,0,0,0,0,0,0,0,0,0,-1,1868,1695,0,0
651,-671,0,0,0,0,0,0,0,0,0,-1,1875,1695,0,0
658,-671,0,0,0,0,0,0,0,0,0,-1,1882,1695,0,0
665,-671,0,0,0,0,0,0,0,0,0,-1,1889,1695,0,0
672,-671,0,0,0,0,0,0,0,0,0,-1,1896,1695,0,0
679,-671,0,0,0,0,0,0,0,0,0,-1,1903,1695,0,0
686,-671,0,0,0,0,0,0,0,0,0,-1,1910,1695,0,0
693,-671,0,0,0,0,0,0,0,0,0,-1,1917,1695,0,0
700,-671,0,0,0,0,0,0,0,0,0,-1,1924,1695,0,0
707,-671,0,0,0,0,0,0,0,0,0,-1,1931,1695,0,0
714,-671,0,0,0,0,0,0,0,0,0,-1,1938,1695,0,0
721,-671,0,0,0,0,0,0,0,0,0,-1,1945,1695,0,0
728,-671,0,0,0,0,0,0,0,0,0,-1,1952,1695,0,0
735,-671,0,0,0,0,0,0,0,0,0,-1,1959,1695,0,0
742,-671,0,0,0,0,0,0,0,0,0,-1,1966,1695,0,0
749,-671,0,0,0,0,0,0,0,0,0,-1,1973,1695,0,0
756,-671,0,0,0,0,0,0,0,0,0,-1,1980,1695,0,0
763,-671,0,0,0,0,0,0,0,0,0,-1,1987,1695,0,0
770,-671,0,0,0,0,0,0,0,0,0,-1,1994,1695,0,0
777,-671,0,0,0,0,0,0,0,0,0,-1,2001,1695,0,0
784,-671,0,0,0,0,0,0,0,0,0,-1,2008,1695,0,0
791,-671,0,0,0,0,0,0,0,0,0,-1,2015,1695,0,0
798,-671,0,0,0,0,0,0,0,0,0,-1,2022,1695,0,0
805,-671,0,0,0,0,0,0,0,0,0,-1,2029,1695,0,0
812,-671,0,0,0,0,0,0,0,0,0,-1,2036,1695,0,0
-700,-678,0,0,0,0,0,0,0,0,0,-1,524,1702,0,0
-693,-678,0,0,0,0,0,0,0,0,0,-1,531,1702,0,0
-686,-678,0,0,0,0,0,0,0,0,0,-1,538,1702,0,0
-679,-678,0,0,0,0,0,0,0,0,0,-1,545,1702,0,0
-672,-678,0,0,0,0,0,0,0,0,0,-1,552,1702,0,0
-665,-678,0,0,0,0,0,0,0,0,0,-1,559,1702,0,0
-658,-678,0,0,0,0,0,0,0,0,0,-1,566,1702,0,0
-651,-678,0,0,0,0,0,0,0,0,0,-1,573,1702,0,0
-644,-678,0,0,0,0,0,0,0,0,0,-1,580,1702,0,0
-637,-678,0,0,0,0,0,0,0,0,0,-1,587,1702,0,0
-630,-678,0,0,0,0,0,0,0,0,0,-1,594,1702,0,0
-623,-678,0,0,0,0,0,0,0,0,0,-1,601,1702,0,0
-616,-678,0,0,0,0,0,0,0,0,0,-1,608,1702,0,0
-609,-678,0,0,0,0,0,0,0,0,0,-1,615,1702,0,0
-602,-678,0,0,0,0,0,0,0,0,0,-1,622,1702,0,0
-595,-678,0,0,0,0,0,0,0,0,0,-1,629,1702,0,0
-588,-678,0,0,0,0,0,0,0,0,0,-1,636,1702,0,0
-581,-678,0,0,0,0,0,0,0,0,0,-1,643,1702,0,0
-574,-678,0,0,0,0,0,0,0,0,0,-1,650,1702,0,0
-567,-678,0,0,0,0,0,0,0,0,0,-1,657,1702,0,0
-560,-678,0,0,0,0,0,0,0,0,0,-1,664,1702,0,0
-553,-678,0,0,0,0,0,0,0,0,0,-1,671,1702,0,0
-546,-678,0,0,0,0,0,0,0,0,0,-1,678,1702,0,0
-539,-678,0,0,0,0,0,0,0,0,0,-1,685,1702,0,0
-532,-678,0,0,0,0,0,0,0,0,0,-1,692,1702,0,0
-525,-678,0,0,0,0,0,0,0,0,0,-1,699,1702,0,0
-518,-678,0,0,0,0,0,0,0,0,0,-1,706,1702,0,0
-511,-678,0,0,0,0,0,0,0,0,0,-1,713,1702,0,0
-504,-678,0,0,0,0,0,0,0,0,0,-1,720,1702,0,0
-497,-678,0,0,0,0,0,0,0,0,0,-1,727,1702,0,0
-490,-678,0,0,0,0,0,0,0,0,0,-1,734,1702,0,0
-483,-678,0,0,0,0,0,0,0,0,0,-1,741,1702,0,0
-476,-678,0,0,0,0,0,0,0,0,0,-1,748,1702,0,0
-469,-678,0,0,0,0,0,0,0,0,0,-1,755,1702,0,0
-462,-678,0,0,0,0,0,0,0,0,0,-1,762,1702,0,0
-455,-678,0,0,0,0,0,0,0,0,0,-1,769,1702,0,0
-448,-678,0,0,0,0,0,0,0,0,0,-1,776,1702,0,0
-441,-678,0,0,0,0,0,0,0,0,0,-1,783,1702,0,0
-434,-678,0,0,0,0,0,0,0,0,0,-1,790,1702,0,0
-427,-678,0,0,0,0,0,0,0,0,0,-1,797,1702,0,0
-420,-678,0,0,0,0,0,0,0,0,0,-1,804,1702,0,0
-413,-678,0,0,0,0,0,0,0,0,0,-1,811,1702,0,0
-406,-678,0,0,0,0,0,0,0,0,0,-1,818,1702,0,0
-399,-678,0,0,0,0,0,0,0,0,0,-1,825,1702,0,0
-392,-678,0,0,0,0,0,0,0,0,0,-1,832,1702,0,0
-385,-678,0,0,0,0,0,0,0,0,0,-1,839,1702,0,0
-378,-678,0,0,0,0,0,0,0,0,0,-1,846,1702,0,0
-371,-678,0,0,0,0,0,0,0,0,0,-1,853,1702,0,0
-364,-678,0,0,0,0,0,0,0,0,0,-1,860,1702,0,0
-357,-678,0,0,0,0,0,0,0,0,0,-1,867,1702,0,0
-350,-678,-5.79944,6.11865,0,0,0,0,0,0,0,-1,874,1702,-5.79942,-6.11864
-343,-678,8.79578,34.4388,0,0,0,0,0,0,0,-1,881,1702,8.79579,-34.4388
-336,-678,9.06317,34.813,0,0,0,0,0,0,0,-1,888,1702,9.06318,-34.8129
-329,-678,8.68359,35.6151,0,0,0,0,0,0,0,-1,895,1702,8.68362,-35.6152
-322,-678,8.50494,35.5048,0,0,0,0,0,0,0,-1,902,1702,8.50495,-35.5047
-315,-678,7.36322,43.7438,0,0,0,0,0,0,0,-1,909,1702,7.36322,-43.7438
-308,-678,7.61511,44.2363,0,0,0,0,0,0,0,-1,916,1702,7.6151,-44.2363
-301,-678,7.7796,44.6495,0,0,0,0,0,0,0,-1,923,1702,7.77962,-44.6495
-294,-678,7.76422,45.0439,0.00249481,0.0362031,0.00329036,0.0365213,0.00217663,1.4744,0.0236554,0.047163,930,1702,7.7642,-45.044
-287,-678,7.75299,45.6349,-0.000763131,0.0333722,0.00126524,0.033419,-0.000809962,1.5338,0.0225542,0.0455223,937,1702,7.753,-45.6349
-280,-678,7.75433,46.343,-0.00306261,0.027831,0.000296675,0.0278339,-0.00306546,1.56119,0.0196576,0.0426003,944,1702,7.75435,-46.343
-273,-678,7.297,47.3203,-0.00440443,0.0225922,-0.000131447,0.0225928,-0.00440507,-1.56593,0.0167247,0.0418744,951,1702,7.29697,-47.3203
-266,-678,7.16095,48.1304,0,0,0,0,0,0,0,-1,958,1702,7.16093,-48.1304
-259,-678,6.77509,49.0846,-0.00527936,0.0129017,-0.00124861,0.0129871,-0.0053647,-1.50255,0.0108958,0.0235265,965,1702,6.77507,-49.0846
-252,-678,6.75482,49.7235,-0.00498019,0.00925724,-0.000873845,0.00931067,-0.00503363,-1.50973,0.0084035,0.0197304,972,1702,6.75484,-49.7235
-245,-678,6.70941,50.3665,-0.00454675,0.00606589,-0.000474312,0.00608704,-0.0045679,-1.52622,0.00617244,0.0197014,979,1702,6.70939,-50.3664
-238,-678,6.66559,50.9906,-0.00393105,0.00317189,9.76114e-05,0.00317323,-0.00393239,1.55706,0.00411023,0.0157014,986,1702,6.66559,-50.9906
-231,-678,6.60767,51.5961,-0.00313966,0.0012282,0.000460357,0.0012762,-0.00318765,1.46692,0.0026548,0.0131699,993,1702,6.60766,-51.596
-224,-678,6.54559,52.1726,-0.00224765,0.000168266,0.000587984,0.000303768,-0.00238316,1.3443,0.0016991,0.0132338,1000,1702,6.5456,-52.1726
-217,-678,6.52496,52.788,-0.00146794,-8.16324e-05,0.000474587,6.52701e-05,-0.00161485,1.27061,0.00109897,0.0137739,1007,1702,6.52498,-52.788
-210,-678,6.50928,53.4268,-0.00101945,0.00026121,0.000468006,0.000414008,-0.00117224,1.25522,0.000950059,0.014481,1014,1702,6.50926,-53.4267
-203,-678,6.50305,54.001,-0.000591862,0.000556461,0.000456,0.00071551,-0.000750911,1.2352,0.00084672,0.0200399,1021,1702,6.503,-54.001
-196,-678,6.45251,54.5432,-0.000132387,0.000672859,0.00045156,0.000875225,-0.000334753,1.14948,0.000721438,0.0194688,1028,1702,6.45247,-54.5433
-189,-678,6.42261,55.1265,0.000241735,0.000721389,0.000411959,0.000958246,4.87833e-06,1.049,0.000637211,0.0110491,1035,1702,6.42262,-55.1265
-182,-678,6.41125,55.6792,0.000503113,0.000755668,0.000293664,0.000949053,0.000309728,0.98845,0.000558842,0.0105653,1042,1702,6.4112,-55.6791
-175,-678,6.38232,56.2196,0.000913515,0.000996857,0.000267309,0.00122572,0.000684648,0.862722,0.000709288,0.0121342,1049,1702,6.3823,-56.2196
-168,-678,6.37451,56.7258,0.00117032,0.000933819,0.000160653,0.00125155,0.000852589,0.468137,0.000738236,0.0113371,1056,1702,6.37453,-56.7258
-161,-678,6.3811,57.224,0.00128654,0.00089195,6.14001e-05,0.00129588,0.000882617,0.150853,0.000764358,0.00969824,1063,1702,6.38113,-57.224
-154,-678,6.39099,57.7394,0.00138396,0.000827532,-0.000103577,0.00140262,0.000808876,-0.178198,0.000812969,0.00916183,1070,1702,6.39103,-57.7394
-147,-678,6.37671,58.2256,0.00149487,0.000804706,-0.000298568,0.0016061,0.000693472,-0.35663,0.000930157,0.010913,1077,1702,6.37671,-58.2256
-140,-678,6.40857,58.682,0.00159803,0.000734726,-0.000511867,0.00183595,0.000496802,-0.435106,0.00109655,0.0114924,1084,1702,6.40859,-58.682
-133,-678,6.43872,59.1428,0.00173363,0.000777064,-0.000670268,0.00207876,0.000431931,-0.475511,0.00126666,0.0127569,1091,1702,6.43876,-59.1428
-126,-678,6.43286,59.6469,0.00201138,0.000791282,-0.000785736,0.00239609,0.000406574,-0.455305,0.00148059,0.0182873,1098,1702,6.43285,-59.6469
-119,-678,6.44653,60.3341,0,0,0,0,0,0,0,-1,1105,1702,6.44659,-60.3341
-112,-678,6.51733,60.4326,0,0,0,0,0,0,0,-1,1112,1702,6.51727,-60.4326
-105,-678,6.47485,60.9608,0,0,0,0,0,0,0,-1,1119,1702,6.47483,-60.9609
-98,-678,6.57019,61.4694,0,0,0,0,0,0,0,-1,1126,1702,6.57022,-61.4693
-91,-678,6.73035,61.6077,0,0,0,0,0,0,0,-1,1133,1702,6.7303,-61.6077
-84,-678,6.58545,36.5073,0,0,0,0,0,0,0,-1,1140,1702,6.58544,-36.5073
-77,-678,5.95154,29.1879,0,0,0,0,0,0,0,-1,1147,1702,5.95156,-29.1878
-70,-678,4.75891,19.6552,0,0,0,0,0,0,0,-1,1154,1702,4.75895,-19.6551
-63,-678,3.41687,11.0365,0,0,0,0,0,0,0,-1,1161,1702,3.41682,-11.0365
-56,-678,1.72388,6.13159,0,0,0,0,0,0,0,-1,1168,1702,1.72388,-6.13157
-49,-678,-0.241699,5.29895,0,0,0,0,0,0,0,-1,1175,1702,-0.241682,-5.29897
-42,-678,0.297119,3.90649,0,0,0,0,0,0,0,-1,1182,1702,0.297139,-3.90655
-35,-678,0.498413,3.64038,0,0,0,0,0,0,0,-1,1189,1702,0.498471,-3.64038
-28,-678,0.132446,3.55994,0,0,0,0,0,0,0,-1,1196,1702,0.132432,-3.55993
-21,-678,7.4978,63.8822,0,0,0,0,0,0,0,-1,1203,1702,7.49775,-63.8822
-14,-678,7.84644,64.0204,0,0,0,0,0,0,0,-1,1210,1702,7.84646,-64.0204
-7,-678,7.7981,64.3595,0.0142653,0.0430694,0.00655814,0.0444922,0.0128424,1.35714,0.0264415,0.0483589,1217,1702,7.79812,-64.3595
0,-678,7.61792,64.8383,0.0121272,0.0475983,0.00570517,0.0484934,0.0112322,1.41518,0.0293112,0.0451063,1224,1702,7.6179,-64.8383
7,-678,7.78723,65.1326,0,0,0,0,0,0,0,-1,1231,1702,7.78729,-65.1325
14,-678,8.53552,65.0017,0,0,0,0,0,0,0,-1,1238,1702,8.53551,-65.0017
21,-678,8.42114,66.9755,0,0,0,0,0,0,0,-1,1245,1702,8.42111,-66.9754
28,-678,10.8807,66.3239,0,0,0,0,0,0,0,-1,1252,1702,10.8808,-66.3239
35,-678,11.1898,66.3927,0,0,0,0,0,0,0,-1,1259,1702,11.1899,-66.3927
42,-678,11.3589,66.3989,-0.00682437,0.0653134,-0.00758196,0.0661017,-0.00761265,-1.4672,0.0468121,0.04435,1266,1702,11.3589,-66.3989
49,-678,11.5782,66.4475,-0.00972643,0.0600481,-0.0120266,0.0620629,-0.0117412,-1.40481,0.0457935,0.0424582,1273,1702,11.5783,-66.4474
56,-678,11.4506,66.4955,-0.012978,0.0532639,-0.0166873,0.0572302,-0.0169443,-1.33744,0.0448807,0.0447942,1280,1702,11.4506,-66.4955
63,-678,11.7646,67.3988,0,0,0,0,0,0,0,-1,1287,1702,11.7646,-67.3988
70,-678,11.3097,66.9857,-0.0148659,0.0330313,-0.0263503,0.0446899,-0.0265245,-1.15424,0.0415591,0.044714,1294,1702,11.3097,-66.9857
77,-678,10.9988,66.5902,-0.0137235,0.0223419,-0.0309903,0.0401641,-0.0315457,-1.04889,0.0415012,0.0440603,1301,1702,10.9988,-66.5903
84,-678,10.8063,66.1157,0,0,0,0,0,0,0,-1,1308,1702,10.8062,-66.1157
91,-678,10.4021,65.3567,-0.00581965,0.00223034,-0.0386702,0.0370844,-0.0406737,-0.837254,0.0449096,0.0463746,1315,1702,10.4021,-65.3567
98,-678,9.96167,64.4453,0.00141699,-0.00813003,-0.0427232,0.0396326,-0.0463456,-0.729763,0.0496899,0.0438627,1322,1702,9.96164,-64.4453
105,-678,9.53528,63.4117,0.00949186,-0.0151074,-0.0454201,0.0442483,-0.0498638,-0.653171,0.0543678,0.0427201,1329,1702,9.53531,-63.4118
112,-678,9.74829,65.153,0,0,0,0,0,0,0,-1,1336,1702,9.74832,-65.153
119,-678,9.67188,64.8378,0.0294072,-0.0227867,-0.0474382,0.057453,-0.0508325,-0.533928,0.0625576,0.045823,1343,1702,9.67192,-64.8378
126,-678,9.57983,64.5135,0,0,0,0,0,0,0,-1,1350,1702,9.5798,-64.5135
133,-678,9.48792,64.1921,0,0,0,0,0,0,0,-1,1357,1702,9.48791,-64.1922
140,-678,6.23413,55.8654,0,0,0,0,0,0,0,-1,1364,1702,6.23419,-55.8653
147,-678,12.6578,60.5249,0,0,0,0,0,0,0,-1,1371,1702,12.6578,-60.5249
154,-678,13.2457,60.1281,0,0,0,0,0,0,0,-1,1378,1702,13.2457,-60.128
161,-678,8.81226,34.8624,0,0,0,0,0,0,0,-1,1385,1702,8.81229,-34.8624
168,-678,4.21863,5.25781,0,0,0,0,0,0,0,-1,1392,1702,4.21865,-5.25781
175,-678,5.21899,5.9635,0,0,0,0,0,0,0,-1,1399,1702,5.21894,-5.96346
182,-678,7.31262,6.75122,0,0,0,0,0,0,0,-1,1406,1702,7.3126,-6.75123
189,-678,5.96021,6.36853,0,0,0,0,0,0,0,-1,1413,1702,5.96018,-6.36851
196,-678,5.01599,8.15771,0,0,0,0,0,0,0,-1,1420,1702,5.01596,-8.15767
203,-678,4.64771,13.0559,0,0,0,0,0,0,0,-1,1427,1702,4.64766,-13.0559
210,-678,5.6532,18.5957,0,0,0,0,0,0,0,-1,1434,1702,5.65318,-18.5958
217,-678,6.88049,23.4835,0,0,0,0,0,0,0,-1,1441,1702,6.88047,-23.4835
224,-678,8.521,32.0977,0,0,0,0,0,0,0,-1,1448,1702,8.52098,-32.0977
231,-678,9.96838,42.3734,0,0,0,0,0,0,0,-1,1455,1702,9.96844,-42.3734
238,-678,11.5789,60.2915,0,0,0,0,0,0,0,-1,1462,1702,11.5789,-60.2915
245,-678,11.6788,59.7793,0,0,0,0,0,0,0,-1,1469,1702,11.6788,-59.7793
252,-678,11.6503,59.376,0.00649689,-0.00115212,0.000102881,0.00649828,-0.00115351,0.013447,0.00476347,0.0194918,1476,1702,11.6503,-59.3759
259,-678,11.657,58.9233,0.00592053,-0.000516433,2.24899e-05,0.00592061,-0.000516511,0.00349381,0.00413002,0.0167341,1483,1702,11.6569,-58.9233
266,-678,11.7053,58.422,0.00536032,-5.41245e-05,-0.000213455,0.00536873,-6.25262e-05,-0.0393418,0.00360017,0.0135032,1490,1702,11.7053,-58.422
273,-678,11.7404,57.9568,0.0049915,0.000354338,-0.000317765,0.00501317,0.000332664,-0.0681015,0.00323693,0.0122112,1497,1702,11.7403,-57.9568
280,-678,11.7349,57.4827,0.00445335,0.000787151,-0.000463274,0.00451099,0.000729516,-0.123772,0.00279606,0.013042,1504,1702,11.7349,-57.4826
287,-678,11.7465,56.9441,0.00392788,0.00116721,-0.000579711,0.00404468,0.00105042,-0.198804,0.00242342,0.0127813,1511,1702,11.7464,-56.9441
294,-678,11.724,56.406,0.00340507,0.00146041,-0.000673429,0.0036155,0.00124998,-0.30287,0.00212027,0.0132993,1518,1702,11.724,-56.406
301,-678,11.6935,55.8988,0.00281515,0.00176306,-0.000832855,0.00327418,0.00130403,-0.503726,0.00190334,0.0121344,1525,1702,11.6934,-55.8988
308,-678,11.6984,55.3809,0.00222182,0.00210463,-0.00104543,0.0032103,0.00111615,-0.757403,0.00188192,0.0137591,1532,1702,11.6984,-55.3809
315,-678,11.6917,54.8571,0.00160712,0.00249635,-0.0012524,0.00338072,0.00072275,-0.955964,0.00205569,0.0158074,1539,1702,11.6916,-54.8571
322,-678,11.663,54.3656,0.000993886,0.00300747,-0.00141592,0.00373805,0.000263308,-1.09445,0.00240906,0.0193221,1546,1702,11.663,-54.3656
329,-678,11.6367,53.7834,0.000483946,0.00351817,-0.00161152,0.00421434,-0.000212223,-1.16301,0.0028829,0.016817,1553,1702,11.6367,-53.7834
336,-678,11.6038,53.1913,3.73819e-05,0.00395311,-0.00174856,0.00462026,-0.000629769,-1.2063,0.00331013,0.0136181,1560,1702,11.6038,-53.1913
343,-678,11.6196,52.6129,-0.000352936,0.00419799,-0.00188289,0.004876,-0.00103095,-1.22516,0.00364327,0.0142825,1567,1702,11.6197,-52.6129
350,-678,11.6188,52.0249,-0.000598025,0.00428077,-0.00207483,0.00504381,-0.00136106,-1.21839,0.00389629,0.0138881,1574,1702,11.6188,-52.0249
357,-678,11.5751,51.426,-0.000661243,0.00429509,-0.00229792,0.00519653,-0.00156269,-1.19696,0.0040861,0.0102112,1581,1702,11.5751,-51.426
364,-678,11.5339,50.8311,-0.000712252,0.00411192,-0.00239924,0.00510197,-0.0017023,-1.17943,0.00408863,0.0121075,1588,1702,11.5339,-50.8311
371,-678,11.4755,50.2296,-0.000604525,0.00377988,-0.00255592,0.00495494,-0.00177959,-1.13987,0.00402967,0.0132555,1595,1702,11.4754,-50.2297
378,-678,11.4291,49.6284,-0.000355446,0.00319965,-0.00272976,0.00467959,-0.00183539,-1.074,0.00387907,0.0130086,1602,1702,11.4291,-49.6285
385,-678,11.3951,49.0071,-1.29428e-05,0.00264069,-0.00311621,0.00470079,-0.00207304,-0.986663,0.00400776,0.0132601,1609,1702,11.3951,-49.0071
392,-678,11.38,48.4059,0.00048108,0.00229433,-0.00378639,0.00528113,-0.00250572,-0.902907,0.00458994,0.0231615,1616,1702,11.38,-48.4059
399,-678,11.3486,47.8022,0.00110776,0.00165361,-0.00453746,0.00592635,-0.00316498,-0.815437,0.00532898,0.0352769,1623,1702,11.3486,-47.8023
406,-678,11.405,47.0723,0.00163013,0.00143262,-0.00534769,0.00687997,-0.00381723,-0.776166,0.00625985,0.0464632,1630,1702,11.4051,-47.0723
413,-678,11.1761,46.4761,0,0,0,0,0,0,0,-1,1637,1702,11.1762,-46.4761
420,-678,11.2355,43.032,0,0,0,0,0,0,0,-1,1644,1702,11.2355,-43.032
427,-678,10.0541,38.9548,0,0,0,0,0,0,0,-1,1651,1702,10.0541,-38.9548
434,-678,10.1094,38.722,0,0,0,0,0,0,0,-1,1658,1702,10.1094,-38.7221
441,-678,11.6007,39.4658,0,0,0,0,0,0,0,-1,1665,1702,11.6007,-39.4658
448,-678,11.344,38.9084,0,0,0,0,0,0,0,-1,1672,1702,11.344,-38.9084
455,-678,5.44678,5.54297,0,0,0,0,0,0,0,-1,1679,1702,5.44676,-5.54294
462,-678,3.86792,2.87402,0,0,0,0,0,0,0,-1,1686,1702,3.86796,-2.87406
469,-678,2.26587,1.98755,0,0,0,0,0,0,0,-1,1693,1702,2.26592,-1.98755
476,-678,0,0,0,0,0,0,0,0,0,-1,1700,1702,0,0
483,-678,0,0,0,0,0,0,0,0,0,-1,1707,1702,0,0
490,-678,0,0,0,0,0,0,0,0,0,-1,1714,1702,0,0
497,-678,0,0,0,0,0,0,0,0,0,-1,1721,1702,0,0
504,-678,0,0,0,0,0,0,0,0,0,-1,1728,1702,0,0
511,-678,0,0,0,0,0,0,0,0,0,-1,1735,1702,0,0
518,-678,0,0,0,0,0,0,0,0,0,-1,1742,1702,0,0
525,-678,0,0,0,0,0,0,0,0,0,-1,1749,1702,0,0
532,-678,0,0,0,0,0,0,0,0,0,-1,1756,1702,0,0
539,-678,0,0,0,0,0,0,0,0,0,-1,1763,1702,0,0
546,-678,0,0,0,0,0,0,0,0,0,-1,1770,1702,0,0
553,-678,0,0,0,0,0,0,0,0,0,-1,1777,1702,0,0
560,-678,0,0,0,0,0,0,0,0,0,-1,1784,1702,0,0
567,-678,0,0,0,0,0,0,0,0,0,-1,1791,1702,0,0
574,-678,0,0,0,0,0,0,0,0,0,-1,1798,1702,0,0
581,-678,0,0,0,0,0,0,0,0,0,-1,1805,1702,0,0
588,-678,0,0,0,0,0,0,0,0,0,-1,1812,1702,0,0
595,-678,0,0,0,0,0,0,0,0,0,-1,1819,1702,0,0
602,-678,0,0,0,0,0,0,0,0,0,-1,1826,1702,0,0
609,-678,0,0,0,0,0,0,0,0,0,-1,1833,1702,0,0
616,-678,0,0,0,0,0,0,0,0,0,-1,1840,1702,0,0
623,-678,0,0,0,0,0,0,0,0,0,-1,1847,1702,0,0
630,-678,0,0,0,0,0,0,0,0,0,-1,1854,1702,0,0
637,-678,0,0,0,0,0,0,0,0,0,-1,1861,1702,0,0
644,-678,0,0,0,0,0,0,0,0,0,-1,1868,1702,0,0
651,-678,0,0,0,0,0,0,0,0,0,-1,1875,1702,0,0
658,-678,0,0,0,0,0,0,0,0,0,-1,1882,1702,0,0
665,-678,0,0,0,0,0,0,0,0,0,-1,1889,1702,0,0
672,-678,0,0,0,0,0,0,0,0,0,-1,1896,1702,0,0
679,-678,0,0,0,0,0,0,0,0,0,-1,1903,1702,0,0
686,-678,0,0,0,0,0,0,0,0,0,-1,1910,1702,0,0
693,-678,0,0,0,0,0,0,0,0,0,-1,1917,1702,0,0
700,-678,0,0,0,0,0,0,0,0,0,-1,1924,1702,0,0
707,-678,0,0,0,0,0,0,0,0,0,-1,1931,1702,0,0
714,-678,0,0,0,0,0,0,0,0,0,-1,1938,1702,0,0
721,-678,0,0,0,0,0,0,0,0,0,-1,1945,1702,0,0
728,-678,0,0,0,0,0,0,0,0,0,-1,1952,1702,0,0
735,-678,0,0,0,0,0,0,0,0,0,-1,1959,1702,0,0
742,-678,0,0,0,0,0,0,0,0,0,-1,1966,1702,0,0
749,-678,0,0,0,0,0,0,0,0,0,-1,1973,1702,0,0
756,-678,0,0,0,0,0,0,0,0,0,-1,1980,1702,0,0
763,-678,0,0,0,0,0,0,0,0,0,-1,1987,1702,0,0
770,-678,0,0,0,0,0,0,0,0,0,-1,1994,1702,0,0
777,-678,0,0,0,0,0,0,0,0,0,-1,2001,1702,0,0
784,-678,0,0,0,0,0,0,0,0,0,-1,2008,1702,0,0
791,-678,0,0,0,0,0,0,0,0,0,-1,2015,1702,0,0
798,-678,0,0,0,0,0,0,0,0,0,-1,2022,1702,0,0
805,-678,0,0,0,0,0,0,0,0,0,-1,2029,1702,0,0
812,-678,0,0,0,0,0,0,0,0,0,-1,2036,1702,0,0
-700,-685,0,0,0,0,0,0,0,0,0,-1,524,1709,0,0
-693,-685,0,0,0,0,0,0,0,0,0,-1,531,1709,0,0
-686,-685,0,0,0,0,0,0,0,0,0,-1,538,1709,0,0
-679,-685,0,0,0,0,0,0,0,0,0,-1,545,1709,0,0
-672,-685,0,0,0,0,0,0,0,0,0,-1,552,1709,0,0
-665,-685,0,0,0,0,0,0,0,0,0,-1,559,1709,0,0
-658,-685,0,0,0,0,0,0,0,0,0,-1,566,1709,0,0
-651,-685,0,0,0,0,0,0,0,0,0,-1,573,1709,0,0
-644,-685,0,0,0,0,0,0,0,0,0,-1,580,1709,0,0
-637,-685,0,0,0,0,0,0,0,0,0,-1,587,1709,0,0
-630,-685,0,0,0,0,0,0,0,0,0,-1,594,1709,0,0
-623,-685,0,0,0,0,0,0,0,0,0,-1,601,1709,0,0
-616,-685,0,0,0,0,0,0,0,0,0,-1,608,1709,0,0
-609,-685,0,0,0,0,0,0,0,0,0,-1,615,1709,0,0
-602,-685,0,0,0,0,0,0,0,0,0,-1,622,1709,0,0
-595,-685,0,0,0,0,0,0,0,0,0,-1,629,1709,0,0
-588,-685,0,0,0,0,0,0,0,0,0,-1,636,1709,0,0
-581,-685,0,0,0,0,0,0,0,0,0,-1,643,1709,0,0
-574,-685,0,0,0,0,0,0,0,0,0,-1,650,1709,0,0
-567,-685,0,0,0,0,0,0,0,0,0,-1,657,1709,0,0
-560,-685,0,0,0,0,0,0,0,0,0,-1,664,1709,0,0
-553,-685,0,0,0,0,0,0,0,0,0,-1,671,1709,0,0
-546,-685,0,0,0,0,0,0,0,0,0,-1,678,1709,0,0
-539,-685,0,0,0,0,0,0,0,0,0,-1,685,1709,0,0
-532,-685,0,0,0,0,0,0,0,0,0,-1,692,1709,0,0
-525,-685,0,0,0,0,0,0,0,0,0,-1,699,1709,0,0
-518,-685,0,0,0,0,0,0,0,0,0,-1,706,1709,0,0
-511,-685,0,0,0,0,0,0,0,0,0,-1,713,1709,0,0
-504,-685,0,0,0,0,0,0,0,0,0,-1,720,1709,0,0
-497,-685,0,0,0,0,0,0,0,0,0,-1,727,1709,0,0
-490,-685,0,0,0,0,0,0,0,0,0,-1,734,1709,0,0
-483,-685,0,0,0,0,0,0,0,0,0,-1,741,1709,0,0
-476,-685,0,0,0,0,0,0,0,0,0,-1,748,1709,0,0
-469,-685,0,0,0,0,0,0,0,0,0,-1,755,1709,0,0
-462,-685,0,0,0,0,0,0,0,0,0,-1,762,1709,0,0
-455,-685,0,0,0,0,0,0,0,0,0,-1,769,1709,0,0
-448,-685,0,0,0,0,0,0,0,0,0,-1,776,1709,0,0
-441,-685,0,0,0,0,0,0,0,0,0,-1,783,1709,0,0
-434,-685,0,0,0,0,0,0,0,0,0,-1,790,1709,0,0
-427,-685,0,0,0,0,0,0,0,0,0,-1,797,1709,0,0
-420,-685,0,0,0,0,0,0,0,0,0,-1,804,1709,0,0
-413,-685,0,0,0,0,0,0,0,0,0,-1,811,1709,0,0
-406,-685,0,0,0,0,0,0,0,0,0,-1,818,1709,0,0
-399,-685,0,0,0,0,0,0,0,0,0,-1,825,1709,0,0
-392,-685,0,0,0,0,0,0,0,0,0,-1,832,1709,0,0
-385,-685,0,0,0,0,0,0,0,0,0,-1,839,1709,0,0
-378,-685,0,0,0,0,0,0,0,0,0,-1,846,1709,0,0
-371,-685,0,0,0,0,0,0,0,0,0,-1,853,1709,0,0
-364,-685,0,0,0,0,0,0,0,0,0,-1,860,1709,0,0
-357,-685,0,0,0,0,0,0,0,0,0,-1,867,1709,0,0
-350,-685,0,0,0,0,0,0,0,0,0,-1,874,1709,0,0
-343,-685,-5.98505,6.56335,0,0,0,0,0,0,0,-1,881,1709,-5.98505,-6.56329
-336,-685,-6.51312,5.10571,0,0,0,0,0,0,0,-1,888,1709,-6.51311,-5.10575
-329,-685,9.98907,36.2474,0,0,0,0,0,0,0,-1,895,1709,9.98909,-36.2475
-322,-685,3.83191,16.7219,0,0,0,0,0,0,0,-1,902,1709,3.8319,-16.7219
-315,-685,5.15784,21.4388,0,0,0,0,0,0,0,-1,909,1709,5.15783,-21.4389
-308,-685,8.30933,44.6884,0,0,0,0,0,0,0,-1,916,1709,8.30934,-44.6884
-301,-685,8.57227,44.9709,0,0,0,0,0,0,0,-1,923,1709,8.57226,-44.971
-294,-685,8.62701,45.0463,0,0,0,0,0,0,0,-1,930,1709,8.62703,-45.0463
-287,-685,8.66382,45.4972,0,0,0,0,0,0,0,-1,937,1709,8.66385,-45.4972
-280,-685,8.8252,45.9561,0,0,0,0,0,0,0,-1,944,1709,8.82517,-45.956
-273,-685,8.22589,46.9877,0,0,0,0,0,0,0,-1,951,1709,8.22591,-46.9877
-266,-685,7.46283,48.1567,0,0,0,0,0,0,0,-1,958,1709,7.46284,-48.1567
-259,-685,7.49988,48.8734,0,0,0,0,0,0,0,-1,965,1709,7.49989,-48.8734
-252,-685,7.42914,49.619,-0.00648235,0.0107081,-0.00153423,0.010844,-0.00661821,-1.48248,0.0101797,0.0417449,972,1709,7.42916,-49.619
-245,-685,7.3443,50.2677,-0.0059882,0.00668394,-0.000964794,0.00675697,-0.00606123,-1.49524,0.00740423,0.0384259,979,1709,7.34427,-50.2677
-238,-685,7.3053,51.0171,-0.00532731,0.00318635,-0.000230436,0.00319258,-0.00533354,-1.54376,0.00497402,0.0293246,986,1709,7.3053,-51.0171
-231,-685,7.20343,51.6667,-0.00441141,0.000957337,0.000265605,0.000970445,-0.00442452,1.52148,0.00332077,0.0178674,993,1709,7.20344,-51.6667
-224,-685,7.1236,52.205,-0.00338474,-0.000158719,0.00048393,-8.76894e-05,-0.00345577,1.42506,0.00227518,0.0154126,1000,1709,7.12358,-52.2049
-217,-685,7.09882,52.8119,-0.00254571,-0.000269763,0.000392257,-0.000204055,-0.00261142,1.40482,0.00167707,0.0117569,1007,1709,7.0988,-52.8118
-210,-685,7.07367,53.4508,-0.00212678,0.000320092,0.000481865,0.000411567,-0.00221825,1.38319,0.0016334,0.016232,1014,1709,7.07366,-53.4509
-203,-685,7.05225,54.0376,-0.00173036,0.000859642,0.000576208,0.000982048,-0.00185276,1.36147,0.00166221,0.0177284,1021,1709,7.05224,-54.0376
-196,-685,7.00427,54.5986,-0.00129027,0.00114107,0.000663341,0.00131028,-0.00145947,1.32104,0.00159989,0.0145327,1028,1709,7.00427,-54.5986
-189,-685,6.97705,55.1239,-0.000858851,0.00139872,0.00072032,0.00160897,-0.0010691,1.2868,0.00155662,0.00932332,1035,1709,6.97702,-55.1239
-182,-685,6.94446,55.678,-0.000503346,0.00152272,0.000681586,0.00173067,-0.000711294,1.27467,0.00145023,0.0141453,1042,1709,6.94442,-55.678
-175,-685,6.92114,56.2148,-3.95187e-05,0.00186801,0.000704566,0.00210003,-0.000271537,1.25267,0.00149875,0.0153019,1049,1709,6.92108,-56.2148
-168,-685,6.90942,56.7373,0.000297433,0.00181748,0.000650923,0.00205813,5.67888e-05,1.21668,0.00135355,0.0120029,1056,1709,6.90941,-56.7374
-161,-685,6.91272,57.2566,0.00049257,0.00179936,0.000600982,0.00203371,0.000258212,1.19898,0.00127846,0.0128104,1063,1709,6.91278,-57.2566
-154,-685,6.9043,57.7648,0.000704678,0.00165116,0.000451202,0.00183178,0.000524054,1.19001,0.00108937,0.0114103,1070,1709,6.90433,-57.7648
-147,-685,6.87439,58.2476,0.000966717,0.00150181,0.000242871,0.00159561,0.000872923,1.20225,0.000922584,0.0101831,1077,1709,6.87439,-58.2476
-140,-685,6.88354,58.6824,0.00124603,0.001309,9.11241e-06,0.0013103,0.00124474,1.42995,0.000852518,0.0121124,1084,1709,6.88354,-58.6824
-133,-685,6.90063,59.1648,0.001521,0.00120378,-0.000181136,0.00160316,0.00112163,-0.4258,0.000949858,0.0115874,1091,1709,6.9006,-59.1648
-126,-685,6.90747,59.631,0.00187087,0.00108727,-0.000347126,0.00200252,0.000955619,-0.362508,0.00115656,0.0095826,1098,1709,6.9075,-59.631
-119,-685,6.93213,60.0627,0.00236886,0.00104445,-0.000448692,0.00250655,0.000906755,-0.297758,0.00146548,0.0139485,1105,1709,6.93208,-60.0628
-112,-685,6.94495,60.4832,0.00288077,0.000894929,-0.000661825,0.00308113,0.000694576,-0.293958,0.00186616,0.0156963,1112,1709,6.94496,-60.4832
-105,-685,6.9231,60.9092,0.00339536,0.000512509,-0.00074992,0.00357877,0.0003291,-0.239863,0.00228406,0.0181239,1119,1709,6.92309,-60.9092
-98,-685,7.01697,61.2513,0.00398967,0.000193625,-0.000803782,0.00415285,3.04449e-05,-0.200293,0.00275848,0.025401,1126,1709,7.01692,-61.2514
-91,-685,7.07727,61.4972,0.00486898,-2.36694e-05,-0.00112356,0.00511466,-0.000269351,-0.215275,0.00350301,0.0472251,1133,1709,7.07728,-61.4972
-84,-685,7.12048,61.9758,0,0,0,0,0,0,0,-1,1140,1709,7.12044,-61.9758
-77,-685,7.09875,62.4513,0,0,0,0,0,0,0,-1,1147,1709,7.09877,-62.4513
-70,-685,7.28784,63.0712,0,0,0,0,0,0,0,-1,1154,1709,7.28782,-63.0712
-63,-685,6.03015,29.7728,0,0,0,0,0,0,0,-1,1161,1709,6.0302,-29.7728
-56,-685,3.93909,15.8704,0,0,0,0,0,0,0,-1,1168,1709,3.93905,-15.8704
-49,-685,3.07471,9.86011,0,0,0,0,0,0,0,-1,1175,1709,3.07467,-9.86009
-42,-685,2.70618,7.54504,0,0,0,0,0,0,0,-1,1182,1709,2.7062,-7.54504
-35,-685,2.95264,7.91516,0,0,0,0,0,0,0,-1,1189,1709,2.95262,-7.91517
-28,-685,8.11353,52.4509,0,0,0,0,0,0,0,-1,1196,1709,8.1135,-52.451
-21,-685,7.88599,64.1826,0,0,0,0,0,0,0,-1,1203,1709,7.88596,-64.1826
-14,-685,7.90381,64.3892,0.0112241,0.0237527,0.00382405,0.0248277,0.0101491,1.29676,0.0144136,0.0337235,1210,1709,7.90378,-64.3892
-7,-685,7.91382,64.5791,0.0105481,0.0300781,0.00376166,0.0307776,0.00984862,1.38695,0.0181493,0.045868,1217,1709,7.91383,-64.5791
0,-685,7.83997,64.8394,0,0,0,0,0,0,0,-1,1224,1709,7.83992,-64.8393
7,-685,8.09119,65.0458,0,0,0,0,0,0,0,-1,1231,1709,8.09122,-65.0458
14,-685,8.59802,66.1079,0,0,0,0,0,0,0,-1,1238,1709,8.59797,-66.108
21,-685,8.55713,66.1166,0,0,0,0,0,0,0,-1,1245,1709,8.55709,-66.1166
28,-685,8.51624,66.1251,0,0,0,0,0,0,0,-1,1252,1709,8.5162,-66.1252
35,-685,8.71643,65.4644,0,0,0,0,0,0,0,-1,1259,1709,8.71646,-65.4643
42,-685,8.93079,65.7255,0,0,0,0,0,0,0,-1,1266,1709,8.93074,-65.7255
49,-685,9.0033,65.6597,0,0,0,0,0,0,0,-1,1273,1709,9.00325,-65.6596
56,-685,10.9669,65.6538,0,0,0,0,0,0,0,-1,1280,1709,10.9669,-65.6538
63,-685,3.5918,62.1602,0,0,0,0,0,0,0,-1,1287,1709,3.59174,-62.1602
70,-685,9.24133,65.9927,0,0,0,0,0,0,0,-1,1294,1709,9.24136,-65.9927
77,-685,10.6298,66.807,0,0,0,0,0,0,0,-1,1301,1709,10.6297,-66.807
84,-685,10.4296,66.3678,0,0,0,0,0,0,0,-1,1308,1709,10.4296,-66.3678
91,-685,10.1969,65.4678,0,0,0,0,0,0,0,-1,1315,1709,10.1969,-65.4678
98,-685,9.83875,64.7184,0,0,0,0,0,0,0,-1,1322,1709,9.83877,-64.7183
105,-685,9.82031,64.9753,0,0,0,0,0,0,0,-1,1329,1709,9.8203,-64.9754
112,-685,9.88245,64.9047,0,0,0,0,0,0,0,-1,1336,1709,9.88247,-64.9047
119,-685,9.66931,64.6957,0,0,0,0,0,0,0,-1,1343,1709,9.66937,-64.6957
126,-685,10.0912,64.5652,0,0,0,0,0,0,0,-1,1350,1709,10.0912,-64.5651
133,-685,10.2013,64.4249,0,0,0,0,0,0,0,-1,1357,1709,10.2012,-64.4249
140,-685,10.1555,64.3876,0,0,0,0,0,0,0,-1,1364,1709,10.1556,-64.3876
147,-685,13.1991,61.4797,0,0,0,0,0,0,0,-1,1371,1709,13.1991,-61.4797
154,-685,10.0796,56.0078,0,0,0,0,0,0,0,-1,1378,1709,10.0796,-56.0079
161,-685,10.4932,55.8827,0,0,0,0,0,0,0,-1,1385,1709,10.4932,-55.8827
168,-685,4.37524,10.8778,0,0,0,0,0,0,0,-1,1392,1709,4.37525,-10.8778
175,-685,3.97522,8.94324,0,0,0,0,0,0,0,-1,1399,1709,3.97519,-8.94328
182,-685,3.98218,9.19739,0,0,0,0,0,0,0,-1,1406,1709,3.98221,-9.1974
189,-685,4.53479,15.2343,0,0,0,0,0,0,0,-1,1413,1709,4.53474,-15.2343
196,-685,10.6458,62.7225,0,0,0,0,0,0,0,-1,1420,1709,10.6457,-62.7226
203,-685,10.7476,62.276,0,0,0,0,0,0,0,-1,1427,1709,10.7475,-62.276
210,-685,11.1973,61.8022,0,0,0,0,0,0,0,-1,1434,1709,11.1973,-61.8022
217,-685,11.1228,61.3107,0,0,0,0,0,0,0,-1,1441,1709,11.1228,-61.3107
224,-685,11.0469,61.0205,0,0,0,0,0,0,0,-1,1448,1709,11.0469,-61.0205
231,-685,11.1074,60.7518,0,0,0,0,0,0,0,-1,1455,1709,11.1074,-60.7518
238,-685,11.1598,60.1904,0.00562187,-0.00147181,9.40944e-05,0.00562312,-0.00147306,0.0132614,0.00432422,0.0377382,1462,1709,11.1598,-60.1904
245,-685,11.1805,59.7339,0.00505585,-0.0012511,5.42104e-05,0.00505632,-0.00125157,0.0085945,0.00385637,0.0212071,1469,1709,11.1805,-59.7339
252,-685,11.215,59.3484,0.00472544,-0.000586517,-7.05658e-05,0.00472638,-0.000587454,-0.0132812,0.00336388,0.0151762,1476,1709,11.2149,-59.3484
259,-685,11.2151,58.9159,0.00416164,-9.08895e-05,-0.000194111,0.00417048,-9.97316e-05,-0.0455199,0.00281415,0.0115822,1483,1709,11.215,-58.9159
266,-685,11.2212,58.4518,0.00363685,0.000265744,-0.000434934,0.00369206,0.000210534,-0.126264,0.00239428,0.0132469,1490,1709,11.2212,-58.4517
273,-685,11.2372,57.9695,0.00324219,0.000637281,-0.000575987,0.00336387,0.000515604,-0.208188,0.002092,0.015849,1497,1709,11.2372,-57.9695
280,-685,11.2203,57.473,0.00272716,0.00098608,-0.00073666,0.00299702,0.000716222,-0.351145,0.00180722,0.0179479,1504,1709,11.2203,-57.473
287,-685,11.22,56.9751,0.00222124,0.00129154,-0.000864619,0.00273805,0.00077473,-0.538748,0.0016297,0.0136729,1511,1709,11.22,-56.975
294,-685,11.2087,56.4698,0.00171121,0.00159419,-0.000966564,0.00262103,0.000684367,-0.755166,0.00156977,0.0117483,1518,1709,11.2088,-56.4698
301,-685,11.1835,55.937,0.0011651,0.00188304,-0.00118074,0.00275818,0.000289966,-0.932967,0.00175015,0.0138244,1525,1709,11.1834,-55.937
308,-685,11.1807,55.4065,0.00061731,0.00232189,-0.00145386,0.00315487,-0.000215662,-1.05051,0.00217869,0.0153579,1532,1709,11.1806,-55.4065
315,-685,11.1826,54.8885,6.29482e-05,0.00284264,-0.0017271,0.00366967,-0.000764081,-1.12421,0.00273693,0.0136375,1539,1709,11.1827,-54.8885
322,-685,11.1617,54.3409,-0.000466155,0.0035314,-0.001925,0.00430765,-0.0012424,-1.1875,0.00336328,0.0210137,1546,1709,11.1617,-54.341
329,-685,11.1166,53.7819,-0.000888295,0.00427584,-0.00214804,0.00505251,-0.00166497,-1.22385,0.00403938,0.0194833,1553,1709,11.1166,-53.7819
336,-685,11.0782,53.2079,-0.00126596,0.00495414,-0.00233422,0.00573267,-0.00204448,-1.24887,0.0046554,0.014582,1560,1709,11.0783,-53.2079
343,-685,11.0492,52.6404,-0.00155561,0.00543396,-0.00252627,0.00625143,-0.00237308,-1.25784,0.00514445,0.01339,1567,1709,11.0492,-52.6403
350,-685,11.0167,52.0438,-0.00168266,0.0057308,-0.00274752,0.00663804,-0.0025899,-1.25187,0.00549598,0.013204,1574,1709,11.0167,-52.0438
357,-685,10.9928,51.4685,-0.00157165,0.00600137,-0.00302777,0.00706306,-0.00263334,-1.23354,0.00578967,0.0103173,1581,1709,10.9928,-51.4685
364,-685,10.946,50.8965,-0.00148398,0.00600235,-0.00313521,0.00714189,-0.00262352,-1.22218,0.00583576,0.011218,1588,1709,10.9461,-50.8965
371,-685,10.9325,50.2938,-0.00122388,0.00577412,-0.00329734,0.00708298,-0.00253273,-1.19293,0.0057551,0.0197123,1595,1709,10.9325,-50.2938
378,-685,10.9167,49.6461,-0.000779389,0.00515112,-0.00347082,0.00675088,-0.00237914,-1.1389,0.00546894,0.0229723,1602,1709,10.9167,-49.6461
385,-685,10.79,49.071,-0.000224468,0.00449689,-0.00389479,0.00669057,-0.00241815,-1.05785,0.00544834,0.0329409,1609,1709,10.7901,-49.0711
392,-685,10.8574,48.579,0.000557406,0.00393695,-0.00463852,0.0071839,-0.00268955,-0.960073,0.00589401,0.0383124,1616,1709,10.8574,-48.579
399,-685,10.8419,47.9648,0.00155968,0.0028442,-0.00549068,0.00773006,-0.00332618,-0.84362,0.00654994,0.0495309,1623,1709,10.842,-47.9648
406,-685,10.8412,47.1233,0,0,0,0,0,0,0,-1,1630,1709,10.8412,-47.1233
413,-685,10.9447,43.5477,0,0,0,0,0,0,0,-1,1637,1709,10.9447,-43.5477
420,-685,10.3047,40.3569,0,0,0,0,0,0,0,-1,1644,1709,10.3047,-40.3569
427,-685,10.7286,38.6702,0,0,0,0,0,0,0,-1,1651,1709,10.7286,-38.6702
434,-685,4.87769,8.91418,0,0,0,0,0,0,0,-1,1658,1709,4.87768,-8.91413
441,-685,5.62,8.75549,0,0,0,0,0,0,0,-1,1665,1709,5.61996,-8.75545
448,-685,6.4043,8.58972,0,0,0,0,0,0,0,-1,1672,1709,6.40435,-8.58971
455,-685,2.31958,4.09802,0,0,0,0,0,0,0,-1,1679,1709,2.31957,-4.09803
462,-685,0,0,0,0,0,0,0,0,0,-1,1686,1709,0,0
469,-685,0,0,0,0,0,0,0,0,0,-1,1693,1709,0,0
476,-685,0,0,0,0,0,0,0,0,0,-1,1700,1709,0,0
483,-685,0,0,0,0,0,0,0,0,0,-1,1707,1709,0,0
490,-685,0,0,0,0,0,0,0,0,0,-1,1714,1709,0,0
497,-685,0,0,0,0,0,0,0,0,0,-1,1721,1709,0,0
504,-685,0,0,0,0,0,0,0,0,0,-1,1728,1709,0,0
511,-685,0,0,0,0,0,0,0,0,0,-1,1735,1709,0,0
518,-685,0,0,0,0,0,0,0,0,0,-1,1742,1709,0,0
525,-685,0,0,0,0,0,0,0,0,0,-1,1749,1709,0,0
532,-685,0,0,0,0,0,0,0,0,0,-1,1756,1709,0,0
539,-685,0,0,0,0,0,0,0,0,0,-1,1763,1709,0,0
546,-685,0,0,0,0,0,0,0,0,0,-1,1770,1709,0,0
553,-685,0,0,0,0,0,0,0,0,0,-1,1777,1709,0,0
560,-685,0,0,0,0,0,0,0,0,0,-1,1784,1709,0,0
567,-685,0,0,0,0,0,0,0,0,0,-1,1791,1709,0,0
574,-685,0,0,0,0,0,0,0,0,0,-1,1798,1709,0,0
581,-685,0,0,0,0,0,0,0,0,0,-1,1805,1709,0,0
588,-685,0,0,0,0,0,0,0,0,0,-1,1812,1709,0,0
595,-685,0,0,0,0,0,0,0,0,0,-1,1819,1709,0,0
602,-685,0,0,0,0,0,0,0,0,0,-1,1826,1709,0,0
609,-685,0,0,0,0,0,0,0,0,0,-1,1833,1709,0,0
616,-685,0,0,0,0,0,0,0,0,0,-1,1840,1709,0,0
623,-685,0,0,0,0,0,0,0,0,0,-1,1847,1709,0,0
630,-685,0,0,0,0,0,0,0,0,0,-1,1854,1709,0,0
637,-685,0,0,0,0,0,0,0,0,0,-1,1861,1709,0,0
644,-685,0,0,0,0,0,0,0,0,0,-1,1868,1709,0,0
651,-685,0,0,0,0,0,0,0,0,0,-1,1875,1709,0,0
658,-685,0,0,0,0,0,0,0,0,0,-1,1882,1709,0,0
665,-685,0,0,0,0,0,0,0,0,0,-1,1889,1709,0,0
672,-685,0,0,0,0,0,0,0,0,0,-1,1896,1709,0,0
679,-685,0,0,0,0,0,0,0,0,0,-1,1903,1709,0,0
686,-685,0,0,0,0,0,0,0,0,0,-1,1910,1709,0,0
693,-685,0,0,0,0,0,0,0,0,0,-1,1917,1709,0,0
700,-685,0,0,0,0,0,0,0,0,0,-1,1924,1709,0,0
707,-685,0,0,0,0,0,0,0,0,0,-1,1931,1709,0,0
714,-685,0,0,0,0,0,0,0,0,0,-1,1938,1709,0,0
721,-685,0,0,0,0,0,0,0,0,0,-1,1945,1709,0,0
728,-685,0,0,0,0,0,0,0,0,0,-1,1952,1709,0,0
735,-685,0,0,0,0,0,0,0,0,0,-1,1959,1709,0,0
742,-685,0,0,0,0,0,0,0,0,0,-1,1966,1709,0,0
749,-685,0,0,0,0,0,0,0,0,0,-1,1973,1709,0,0
756,-685,0,0,0,0,0,0,0,0,0,-1,1980,1709,0,0
763,-685,0,0,0,0,0,0,0,0,0,-1,1987,1709,0,0
770,-685,0,0,0,0,0,0,0,0,0,-1,1994,1709,0,0
777,-685,0,0,0,0,0,0,0,0,0,-1,2001,1709,0,0
784,-685,0,0,0,0,0,0,0,0,0,-1,2008,1709,0,0
791,-685,0,0,0,0,0,0,0,0,0,-1,2015,1709,0,0
798,-685,0,0,0,0,0,0,0,0,0,-1,2022,1709,0,0
805,-685,0,0,0,0,0,0,0,0,0,-1,2029,1709,0,0
812,-685,0,0,0,0,0,0,0,0,0,-1,2036,1709,0,0
-700,-692,0,0,0,0,0,0,0,0,0,-1,524,1716,0,0
-693,-692,0,0,0,0,0,0,0,0,0,-1,531,1716,0,0
-686,-692,0,0,0,0,0,0,0,0,0,-1,538,1716,0,0
-679,-692,0,0,0,0,0,0,0,0,0,-1,545,1716,0,0
-672,-692,0,0,0,0,0,0,0,0,0,-1,552,1716,0,0
-665,-692,0,0,0,0,0,0,0,0,0,-1,559,1716,0,0
-658,-692,0,0,0,0,0,0,0,0,0,-1,566,1716,0,0
-651,-692,0,0,0,0,0,0,0,0,0,-1,573,1716,0,0
-644,-692,0,0,0,0,0,0,0,0,0,-1,580,1716,0,0
-637,-692,0,0,0,0,0,0,0,0,0,-1,587,1716,0,0
-630,-692,0,0,0,0,0,0,0,0,0,-1,594,1716,0,0
-623,-692,0,0,0,0,0,0,0,0,0,-1,601,1716,0,0
-616,-692,0,0,0,0,0,0,0,0,0,-1,608,1716,0,0
-609,-692,0,0,0,0,0,0,0,0,0,-1,615,1716,0,0
-602,-692,0,0,0,0,0,0,0,0,0,-1,622,1716,0,0
-595,-692,0,0,0,0,0,0,0,0,0,-1,629,1716,0,0
-588,-692,0,0,0,0,0,0,0,0,0,-1,636,1716,0,0
-581,-692,0,0,0,0,0,0,0,0,0,-1,643,1716,0,0
-574,-692,0,0,0,0,0,0,0,0,0,-1,650,1716,0,0
-567,-692,0,0,0,0,0,0,0,0,0,-1,657,1716,0,0
-560,-692,0,0,0,0,0,0,0,0,0,-1,664,1716,0,0
-553,-692,0,0,0,0,0,0,0,0,0,-1,671,1716,0,0
-546,-692,0,0,0,0,0,0,0,0,0,-1,678,1716,0,0
-539,-692,0,0,0,0,0,0,0,0,0,-1,685,1716,0,0
-532,-692,0,0,0,0,0,0,0,0,0,-1,692,1716,0,0
-525,-692,0,0,0,0,0,0,0,0,0,-1,699,1716,0,0
-518,-692,0,0,0,0,0,0,0,0,0,-1,706,1716,0,0
-511,-692,0,0,0,0,0,0,0,0,0,-1,713,1716,0,0
-504,-692,0,0,0,0,0,0,0,0,0,-1,720,1716,0,0
-497,-692,0,0,0,0,0,0,0,0,0,-1,727,1716,0,0
-490,-692,0,0,0,0,0,0,0,0,0,-1,734,1716,0,0
-483,-692,0,0,0,0,0,0,0,0,0,-1,741,1716,0,0
-476,-692,0,0,0,0,0,0,0,0,0,-1,748,1716,0,0
-469,-692,0,0,0,0,0,0,0,0,0,-1,755,1716,0,0
-462,-692,0,0,0,0,0,0,0,0,0,-1,762,1716,0,0
-455,-692,0,0,0,0,0,0,0,0,0,-1,769,1716,0,0
-448,-692,0,0,0,0,0,0,0,0,0,-1,776,1716,0,0
-441,-692,0,0,0,0,0,0,0,0,0,-1,783,1716,0,0
-434,-692,0,0,0,0,0,0,0,0,0,-1,790,1716,0,0
-427,-692,0,0,0,0,0,0,0,0,0,-1,797,1716,0,0
-420,-692,0,0,0,0,0,0,0,0,0,-1,804,1716,0,0
-413,-692,0,0,0,0,0,0,0,0,0,-1,811,1716,0,0
-406,-692,0,0,0,0,0,0,0,0,0,-1,818,1716,0,0
-399,-692,0,0,0,0,0,0,0,0,0,-1,825,1716,0,0
-392,-692,0,0,0,0,0,0,0,0,0,-1,832,1716,0,0
-385,-692,0,0,0,0,0,0,0,0,0,-1,839,1716,0,0
-378,-692,0,0,0,0,0,0,0,0,0,-1,846,1716,0,0
-371,-692,0,0,0,0,0,0,0,0,0,-1,853,1716,0,0
-364,-692,0,0,0,0,0,0,0,0,0,-1,860,1716,0,0
-357,-692,0,0,0,0,0,0,0,0,0,-1,867,1716,0,0
-350,-692,0,0,0,0,0,0,0,0,0,-1,874,1716,0,0
-343,-692,0,0,0,0,0,0,0,0,0,-1,881,1716,0,0
-336,-692,0,0,0,0,0,0,0,0,0,-1,888,1716,0,0
-329,-692,3.03107,4.10266,0,0,0,0,0,0,0,-1,895,1716,3.03105,-4.10267
-322,-692,4.43713,18.5242,0,0,0,0,0,0,0,-1,902,1716,4.43711,-18.5241
-315,-692,5.38965,17.975,0,0,0,0,0,0,0,-1,909,1716,5.38963,-17.975
-308,-692,5.86938,17.4392,0,0,0,0,0,0,0,-1,916,1716,5.86937,-17.4392
-301,-692,12.015,41.2892,0,0,0,0,0,0,0,-1,923,1716,12.015,-41.2892
-294,-692,8.41125,35.4742,0,0,0,0,0,0,0,-1,930,1716,8.41125,-35.4742
-287,-692,8.92493,45.6644,0,0,0,0,0,0,0,-1,937,1716,8.92492,-45.6644
-280,-692,9.94128,45.5219,0,0,0,0,0,0,0,-1,944,1716,9.94126,-45.5219
-273,-692,8.64752,48.0853,0,0,0,0,0,0,0,-1,951,1716,8.64754,-48.0853
-266,-692,8.54285,48.1857,0,0,0,0,0,0,0,-1,958,1716,8.54287,-48.1857
-259,-692,8.07227,48.7588,0,0,0,0,0,0,0,-1,965,1716,8.07226,-48.7587
-252,-692,8.07922,49.4911,0,0,0,0,0,0,0,-1,972,1716,8.07924,-49.4911
-245,-692,8.04681,49.9955,0,0,0,0,0,0,0,-1,979,1716,8.04682,-49.9954
-238,-692,8.01624,50.8662,-0.0067763,0.00296156,-0.000903341,0.00304465,-0.00685939,-1.47907,0.00585778,0.048401,986,1716,8.01623,-50.8662
-231,-692,7.94562,51.7515,-0.00574556,0.000514789,-0.000174174,0.000519631,-0.0057504,-1.543,0.00401802,0.0417204,993,1716,7.94559,-51.7514
-224,-692,7.67126,52.2914,-0.00454337,-0.000565003,0.000214112,-0.000553513,-0.00455486,1.51718,0.00286992,0.0198082,1000,1716,7.67124,-52.2914
-217,-692,7.63782,52.8474,-0.00364119,-0.000439663,0.000207441,-0.000426278,-0.00365458,1.50636,0.00230745,0.0133681,1007,1716,7.63783,-52.8474
-210,-692,7.62903,53.4353,-0.00325865,0.000486161,0.000454193,0.000540461,-0.00331295,1.45181,0.00240908,0.0141675,1014,1716,7.62902,-53.4353
-203,-692,7.61523,54.0182,-0.00288134,0.00132876,0.000700992,0.00144241,-0.00299499,1.41007,0.00261368,0.0171135,1021,1716,7.61521,-54.0182
-196,-692,7.5686,54.5969,-0.00244562,0.00180563,0.00091588,0.00199455,-0.00263454,1.36738,0.00268111,0.0184927,1028,1716,7.56859,-54.5969
-189,-692,7.50317,55.1448,-0.00194403,0.00228862,0.00110066,0.00255773,-0.00221314,1.331,0.00275685,0.00938588,1035,1716,7.50318,-55.1448
-182,-692,7.45984,55.6827,-0.00149779,0.00250283,0.00115516,0.00281241,-0.00180737,1.30894,0.00268819,0.0142867,1042,1716,7.45983,-55.6827
-175,-692,7.41736,56.2323,-0.000993639,0.00292474,0.00123151,0.00327965,-0.00134855,1.29021,0.00274853,0.0158206,1049,1716,7.4173,-56.2323
-168,-692,7.41882,56.7598,-0.000596136,0.00286226,0.00122906,0.00325455,-0.000988425,1.26184,0.0025635,0.0124148,1056,1716,7.41877,-56.7597
-161,-692,7.41406,57.2749,-0.00034454,0.00286516,0.00123585,0.00328586,-0.000765244,1.24268,0.00248524,0.015257,1063,1716,7.41403,-57.2749
-154,-692,7.39758,57.7971,-6.26899e-05,0.00262801,0.00110959,0.00302655,-0.000461231,1.22597,0.00218771,0.0160716,1070,1716,7.39756,-57.7971
-147,-692,7.37036,58.2803,0.000296123,0.00234805,0.000894709,0.00268337,-3.92018e-05,1.21221,0.00180212,0.0156835,1077,1716,7.37041,-58.2803
-140,-692,7.34277,58.7305,0.000692051,0.00204289,0.000650049,0.00230489,0.000430051,1.18767,0.00141519,0.0114487,1084,1716,7.34272,-58.7305
-133,-692,7.34839,59.1805,0.00103999,0.00180378,0.00043899,0.00200374,0.000840029,1.14338,0.00116188,0.00957751,1091,1716,7.34842,-59.1805
-126,-692,7.36523,59.6315,0.00139003,0.0015676,0.000233431,0.00172856,0.00122907,0.967118,0.00102719,0.00762893,1098,1716,7.36523,-59.6315
-119,-692,7.35461,60.0704,0.00184715,0.00141908,8.80973e-05,0.00186458,0.00140166,0.195231,0.00112107,0.0118202,1105,1716,7.35465,-60.0705
-112,-692,7.36926,60.4951,0.00235313,0.00122969,-8.66584e-05,0.00235977,0.00122305,-0.0765334,0.00136272,0.012348,1112,1716,7.36922,-60.4951
-105,-692,7.39966,60.9055,0.00283965,0.000848035,-0.000214503,0.00286249,0.000825194,-0.106082,0.00170133,0.0177113,1119,1716,7.39971,-60.9055
-98,-692,7.4342,61.2548,0.00336819,0.000522599,-0.000317952,0.00340329,0.000487505,-0.109929,0.00212508,0.0201423,1126,1716,7.43423,-61.2548
-91,-692,7.41455,61.6337,0.00407989,0.000333263,-0.00059361,0.00417169,0.000241462,-0.153434,0.00270423,0.0210522,1133,1716,7.41453,-61.6336
-84,-692,7.50464,62.0265,0.00529631,0.000707101,-0.000903974,0.00546796,0.000535457,-0.187643,0.00348058,0.0248167,1140,1716,7.5046,-62.0265
-77,-692,7.49182,62.4257,0.00661324,0.000612023,-0.00122043,0.00685193,0.000373325,-0.193147,0.00444874,0.0200278,1147,1716,7.49183,-62.4257
-70,-692,7.5647,62.8345,0.00691064,-7.61646e-05,-0.00174467,0.00732207,-0.000487599,-0.231592,0.00505176,0.0372202,1154,1716,7.56475,-62.8345
-63,-692,7.70203,63.1743,0,0,0,0,0,0,0,-1,1161,1716,7.70206,-63.1743
-56,-692,7.61462,63.302,0,0,0,0,0,0,0,-1,1168,1716,7.61468,-63.302
-49,-692,7.61035,63.7329,0,0,0,0,0,0,0,-1,1175,1716,7.61036,-63.7329
-42,-692,7.61145,64.2104,0,0,0,0,0,0,0,-1,1182,1716,7.61144,-64.2104
-35,-692,7.81372,64.4374,0,0,0,0,0,0,0,-1,1189,1716,7.81367,-64.4373
-28,-692,7.89551,64.2207,0,0,0,0,0,0,0,-1,1196,1716,7.89546,-64.2208
-21,-692,8.00403,64.4319,0.00550551,0.00606731,0.00105401,0.0068772,0.00469561,0.915624,0.00405802,0.0380349,1203,1716,8.00403,-64.4319
-14,-692,8.08447,64.61,0.0057524,0.00962082,0.000713178,0.00974811,0.00562511,1.39417,0.0056503,0.0191334,1210,1716,8.08447,-64.61
-7,-692,8.099,64.8163,0.00597544,0.0161217,0.00102336,0.0162239,0.00587325,1.47127,0.00948503,0.0162865,1217,1716,8.09896,-64.8163
0,-692,8.17114,64.9775,0.00589146,0.0222341,0.00142728,0.0223578,0.00576775,1.48433,0.0134029,0.0232039,1224,1716,8.17115,-64.9776
7,-692,8.35303,65.025,0.00527469,0.0288753,0.00141817,0.0289602,0.00518978,1.51099,0.0178304,0.0319254,1231,1716,8.35299,-65.025
14,-692,8.49963,65.3951,0.00460419,0.0344453,0.00141279,0.0345121,0.00453745,1.52359,0.0216546,0.0338104,1238,1716,8.49958,-65.3951
21,-692,8.62207,65.5875,0.00344729,0.0389292,0.000948231,0.0389546,0.00342197,1.5441,0.0249075,0.0317894,1245,1716,8.62212,-65.5875
28,-692,8.66895,65.5162,0.00217736,0.0427073,0.000586246,0.0427158,0.00216888,1.55634,0.0277825,0.0342294,1252,1716,8.66896,-65.5162
35,-692,8.7417,65.5372,0.000849584,0.0451866,-0.000205292,0.0451876,0.000848634,-1.56617,0.0298462,0.0320977,1259,1716,8.74164,-65.5373
42,-692,8.87805,65.6757,-0.000890991,0.0453839,-0.00184119,0.045457,-0.000964133,-1.53109,0.0306311,0.0312605,1266,1716,8.87809,-65.6757
49,-692,8.92676,65.6746,-0.00261988,0.043266,-0.00397692,0.0436081,-0.00296201,-1.48498,0.030108,0.0428932,1273,1716,8.92675,-65.6745
56,-692,9.05249,65.7244,0,0,0,0,0,0,0,-1,1280,1716,9.05248,-65.7244
63,-692,9.11047,65.6805,0,0,0,0,0,0,0,-1,1287,1716,9.11044,-65.6805
70,-692,9.15771,65.7872,0,0,0,0,0,0,0,-1,1294,1716,9.15776,-65.7872
77,-692,9.31116,65.6942,0,0,0,0,0,0,0,-1,1301,1716,9.31114,-65.6942
84,-692,9.38562,65.5779,0,0,0,0,0,0,0,-1,1308,1716,9.38558,-65.5779
91,-692,9.51489,65.4778,0,0,0,0,0,0,0,-1,1315,1716,9.51492,-65.4778
98,-692,9.61865,65.2277,-1.31945e-05,-0.00359613,-0.0229192,0.0211845,-0.0247938,-0.746395,0.0265728,0.0389376,1322,1716,9.61859,-65.2277
105,-692,9.67505,65.1794,0.00434304,-0.00927378,-0.0251977,0.023636,-0.0285667,-0.653449,0.030184,0.0462939,1329,1716,9.67511,-65.1794
112,-692,9.78479,65.0914,0.0100774,-0.0135833,-0.0264037,0.02718,-0.0306859,-0.57478,0.0334293,0.0485911,1336,1716,9.78475,-65.0914
119,-692,9.78174,64.9386,0.0162039,-0.0146504,-0.026752,0.0316582,-0.0301048,-0.523853,0.0356627,0.0407646,1343,1716,9.78169,-64.9386
126,-692,9.91052,64.7494,0.0226451,-0.0158407,-0.0269197,0.0364923,-0.0296879,-0.475095,0.0382764,0.0427803,1350,1716,9.91049,-64.7494
133,-692,10.0051,64.6113,0.0283594,-0.016668,-0.0271119,0.0410866,-0.0293952,-0.438896,0.0408788,0.0336319,1357,1716,10.0052,-64.6113
140,-692,9.98352,64.5442,0.0332668,-0.0171547,-0.0268087,0.0448567,-0.0287446,-0.408053,0.0428318,0.0365754,1364,1716,9.98348,-64.5442
147,-692,9.98291,64.4779,0,0,0,0,0,0,0,-1,1371,1716,9.98294,-64.4779
154,-692,9.92883,56.0276,0,0,0,0,0,0,0,-1,1378,1716,9.92887,-56.0276
161,-692,10.0399,63.8153,0,0,0,0,0,0,0,-1,1385,1716,10.04,-63.8153
168,-692,10.4049,63.7255,0,0,0,0,0,0,0,-1,1392,1716,10.4049,-63.7255
175,-692,10.6017,63.4459,0,0,0,0,0,0,0,-1,1399,1716,10.6017,-63.4459
182,-692,10.5571,63.1504,0,0,0,0,0,0,0,-1,1406,1716,10.5571,-63.1504
189,-692,10.6781,62.9487,0,0,0,0,0,0,0,-1,1413,1716,10.6781,-62.9488
196,-692,10.3972,62.4579,0.0181809,-0.00412993,-0.00407615,0.0189023,-0.00485131,-0.175162,0.0144919,0.0398436,1420,1716,10.3973,-62.4578
203,-692,10.4653,62.1112,0.00757212,-0.000467335,0.000614488,0.00761882,-0.000514032,0.0758468,0.00525894,0.0291658,1427,1716,10.4653,-62.1112
210,-692,10.7109,61.827,0.00682682,-0.000591732,0.000425568,0.00685116,-0.000616065,0.0571157,0.00478603,0.0225382,1434,1716,10.711,-61.8271
217,-692,10.679,61.4066,0.00613764,-0.00075919,0.000397454,0.00616047,-0.000782019,0.0573753,0.00439093,0.0197561,1441,1716,10.6789,-61.4067
224,-692,10.6924,61.0499,0.00540811,-0.000739732,0.000338015,0.00542664,-0.000758261,0.0547611,0.00389519,0.0154534,1448,1716,10.6923,-61.0499
231,-692,10.6945,60.6617,0.00461949,-0.000654064,7.35699e-05,0.00462051,-0.00065509,0.0139471,0.00332032,0.0136006,1455,1716,10.6944,-60.6618
238,-692,10.7194,60.1764,0.00401868,-0.000494513,-0.00020033,0.00402755,-0.000503388,-0.0442715,0.0028676,0.0193861,1462,1716,10.7193,-60.1763
245,-692,10.7433,59.7375,0.00350106,-0.000262523,-0.000274701,0.003521,-0.000282468,-0.0724773,0.00244693,0.0219888,1469,1716,10.7433,-59.7376
252,-692,10.7522,59.3472,0.0030787,0.000237902,-0.000368142,0.00312563,0.000190969,-0.126801,0.0020231,0.0210081,1476,1716,10.7522,-59.3471
259,-692,10.7401,58.936,0.00253468,0.000625925,-0.000507295,0.00266112,0.000499477,-0.244283,0.00163325,0.0107467,1483,1716,10.7401,-58.936
266,-692,10.7335,58.4856,0.00203595,0.000901032,-0.000743353,0.00240368,0.000533299,-0.459394,0.00145758,0.0108367,1490,1716,10.7335,-58.4856
273,-692,10.7391,57.9854,0.0016161,0.00124689,-0.000920407,0.00237023,0.000492755,-0.686428,0.0014442,0.0158132,1497,1716,10.7391,-57.9853
280,-692,10.725,57.4667,0.00111963,0.00151407,-0.00109127,0.0024258,0.000207903,-0.874797,0.00155254,0.0157823,1504,1716,10.725,-57.4667
287,-692,10.704,56.9867,0.000613961,0.00174878,-0.00122699,0.0025332,-0.000170464,-1.00197,0.0017484,0.0128686,1511,1716,10.704,-56.9867
294,-692,10.6926,56.4987,8.92016e-05,0.00207194,-0.00133461,0.0027431,-0.00058196,-1.10484,0.00205044,0.0121841,1518,1716,10.6926,-56.4987
301,-692,10.6849,55.9769,-0.00044395,0.00236272,-0.00160882,0.00309425,-0.00117548,-1.14404,0.00254675,0.0147809,1525,1716,10.6849,-55.977
308,-692,10.6481,55.4691,-0.000982441,0.00294521,-0.00196001,0.00375596,-0.00179319,-1.17858,0.00326992,0.0180378,1532,1716,10.6481,-55.4691
315,-692,10.6543,54.9182,-0.00151444,0.00362473,-0.00232709,0.00452186,-0.00241156,-1.20284,0.00406435,0.0171815,1539,1716,10.6543,-54.9182
322,-692,10.5758,54.3372,-0.00199233,0.00453067,-0.00259004,0.00543399,-0.00289565,-1.23522,0.00488298,0.0222884,1546,1716,10.5758,-54.3371
329,-692,10.5427,53.7726,-0.00235441,0.00556514,-0.00286509,0.00649295,-0.00328223,-1.25762,0.00574428,0.0188871,1553,1716,10.5427,-53.7725
336,-692,10.5409,53.2268,-0.0026814,0.0065678,-0.00314016,0.00753315,-0.00364675,-1.27255,0.00658344,0.0133731,1560,1716,10.5409,-53.2268
343,-692,10.5088,52.6823,-0.00287906,0.00737616,-0.00343036,0.00841781,-0.00392071,-1.27599,0.00727966,0.0137506,1567,1716,10.5088,-52.6822
350,-692,10.4701,52.1033,-0.0028804,0.00799184,-0.00370299,0.00913322,-0.00402178,-1.2718,0.00778381,0.0162137,1574,1716,10.47,-52.1033
357,-692,10.4017,51.444,-0.00256594,0.00861041,-0.00405879,0.00992886,-0.00388439,-1.25671,0.00822566,0.023874,1581,1716,10.4018,-51.4439
364,-692,10.3169,50.7156,-0.0022922,0.00887664,-0.00417845,0.0102668,-0.00368239,-1.24961,0.0083473,0.0309364,1588,1716,10.3169,-50.7156
371,-692,10.2317,50.0769,-0.00181807,0.00878704,-0.00432826,0.0103293,-0.00336028,-1.22851,0.00823797,0.041528,1595,1716,10.2316,-50.0769
378,-692,10.3219,49.524,-0.00109696,0.00808383,-0.00446964,0.00990041,-0.00291355,-1.18476,0.00775607,0.0499482,1602,1716,10.3219,-49.5241
385,-692,10.1577,49.2177,0,0,0,0,0,0,0,-1,1609,1716,10.1577,-49.2176
392,-692,10.3337,48.8153,0,0,0,0,0,0,0,-1,1616,1716,10.3338,-48.8153
399,-692,10.3647,48.2238,0,0,0,0,0,0,0,-1,1623,1716,10.3648,-48.2237
406,-692,11.3221,42.7773,0,0,0,0,0,0,0,-1,1630,1716,11.3222,-42.7773
413,-692,11.4845,42.9004,0,0,0,0,0,0,0,-1,1637,1716,11.4845,-42.9004
420,-692,9.65894,40.2512,0,0,0,0,0,0,0,-1,1644,1716,9.65889,-40.2513
427,-692,3.79578,8.60339,0,0,0,0,0,0,0,-1,1651,1716,3.79577,-8.6034
434,-692,4.78516,8.64636,0,0,0,0,0,0,0,-1,1658,1716,4.78512,-8.64634
441,-692,5.8208,8.74036,0,0,0,0,0,0,0,-1,1665,1716,5.82084,-8.7404
448,-692,6.73792,8.51013,0,0,0,0,0,0,0,-1,1672,1716,6.73793,-8.5101
455,-692,0,0,0,0,0,0,0,0,0,-1,1679,1716,0,0
462,-692,0,0,0,0,0,0,0,0,0,-1,1686,1716,0,0
469,-692,0,0,0,0,0,0,0,0,0,-1,1693,1716,0,0
476,-692,0,0,0,0,0,0,0,0,0,-1,1700,1716,0,0
483,-692,0,0,0,0,0,0,0,0,0,-1,1707,1716,0,0
490,-692,0,0,0,0,0,0,0,0,0,-1,1714,1716,0,0
497,-692,0,0,0,0,0,0,0,0,0,-1,1721,1716,0,0
504,-692,0,0,0,0,0,0,0,0,0,-1,1728,1716,0,0
511,-692,0,0,0,0,0,0,0,0,0,-1,1735,1716,0,0
518,-692,0,0,0,0,0,0,0,0,0,-1,1742,1716,0,0
525,-692,0,0,0,0,0,0,0,0,0,-1,1749,1716,0,0
532,-692,0,0,0,0,0,0,0,0,0,-1,1756,1716,0,0
539,-692,0,0,0,0,0,0,0,0,0,-1,1763,1716,0,0
546,-692,0,0,0,0,0,0,0,0,0,-1,1770,1716,0,0
553,-692,0,0,0,0,0,0,0,0,0,-1,1777,1716,0,0
560,-692,0,0,0,0,0,0,0,0,0,-1,1784,1716,0,0
567,-692,0,0,0,0,0,0,0,0,0,-1,1791,1716,0,0
574,-692,0,0,0,0,0,0,0,0,0,-1,1798,1716,0,0
581,-692,0,0,0,0,0,0,0,0,0,-1,1805,1716,0,0
588,-692,0,0,0,0,0,0,0,0,0,-1,1812,1716,0,0
595,-692,0,0,0,0,0,0,0,0,0,-1,1819,1716,0,0
602,-692,0,0,0,0,0,0,0,0,0,-1,1826,1716,0,0
609,-692,0,0,0,0,0,0,0,0,0,-1,1833,1716,0,0
616,-692,0,0,0,0,0,0,0,0,0,-1,1840,1716,0,0
623,-692,0,0,0,0,0,0,0,0,0,-1,1847,1716,0,0
630,-692,0,0,0,0,0,0,0,0,0,-1,1854,1716,0,0
637,-692,0,0,0,0,0,0,0,0,0,-1,1861,1716,0,0
644,-692,0,0,0,0,0,0,0,0,0,-1,1868,1716,0,0
651,-692,0,0,0,0,0,0,0,0,0,-1,1875,1716,0,0
658,-692,0,0,0,0,0,0,0,0,0,-1,1882,1716,0,0
665,-692,0,0,0,0,0,0,0,0,0,-1,1889,1716,0,0
672,-692,0,0,0,0,0,0,0,0,0,-1,1896,1716,0,0
679,-692,0,0,0,0,0,0,0,0,0,-1,1903,1716,0,0
686,-692,0,0,0,0,0,0,0,0,0,-1,1910,1716,0,0
693,-692,0,0,0,0,0,0,0,0,0,-1,1917,1716,0,0
700,-692,0,0,0,0,0,0,0,0,0,-1,1924,1716,0,0
707,-692,0,0,0,0,0,0,0,0,0,-1,1931,1716,0,0
714,-692,0,0,0,0,0,0,0,0,0,-1,1938,1716,0,0
721,-692,0,0,0,0,0,0,0,0,0,-1,1945,1716,0,0
728,-692,0,0,0,0,0,0,0,0,0,-1,1952,1716,0,0
735,-692,0,0,0,0,0,0,0,0,0,-1,1959,1716,0,0
742,-692,0,0,0,0,0,0,0,0,0,-1,1966,1716,0,0
749,-692,0,0,0,0,0,0,0,0,0,-1,1973,1716,0,0
756,-692,0,0,0,0,0,0,0,0,0,-1,1980,1716,0,0
763,-692,0,0,0,0,0,0,0,0,0,-1,1987,1716,0,0
770,-692,0,0,0,0,0,0,0,0,0,-1,1994,1716,0,0
777,-692,0,0,0,0,0,0,0,0,0,-1,2001,1716,0,0
784,-692,0,0,0,0,0,0,0,0,0,-1,2008,1716,0,0
791,-692,0,0,0,0,0,0,0,0,0,-1,2015,1716,0,0
798,-692,0,0,0,0,0,0,0,0,0,-1,2022,1716,0,0
805,-692,0,0,0,0,0,0,0,0,0,-1,2029,1716,0,0
812,-692,0,0,0,0,0,0,0,0,0,-1,2036,1716,0,0
-700,-699,0,0,0,0,0,0,0,0,0,-1,524,1723,0,0
-693,-699,0,0,0,0,0,0,0,0,0,-1,531,1723,0,0
-686,-699,0,0,0,0,0,0,0,0,0,-1,538,1723,0,0
-679,-699,0,0,0,0,0,0,0,0,0,-1,545,1723,0,0
-672,-699,0,0,0,0,0,0,0,0,0,-1,552,1723,0,0
-665,-699,0,0,0,0,0,0,0,0,0,-1,559,1723,0,0
-658,-699,0,0,0,0,0,0,0,0,0,-1,566,1723,0,0
-651,-699,0,0,0,0,0,0,0,0,0,-1,573,1723,0,0
-644,-699,0,0,0,0,0,0,0,0,0,-1,580,1723,0,0
-637,-699,0,0,0,0,0,0,0,0,0,-1,587,1723,0,0
-630,-699,0,0,0,0,0,0,0,0,0,-1,594,1723,0,0
-623,-699,0,0,0,0,0,0,0,0,0,-1,601,1723,0,0
-616,-699,0,0,0,0,0,0,0,0,0,-1,608,1723,0,0
-609,-699,0,0,0,0,0,0,0,0,0,-1,615,1723,0,0
-602,-699,0,0,0,0,0,0,0,0,0,-1,622,1723,0,0
-595,-699,0,0,0,0,0,0,0,0,0,-1,629,1723,0,0
-588,-699,0,0,0,0,0,0,0,0,0,-1,636,1723,0,0
-581,-699,0,0,0,0,0,0,0,0,0,-1,643,1723,0,0
-574,-699,0,0,0,0,0,0,0,0,0,-1,650,1723,0,0
-567,-699,0,0,0,0,0,0,0,0,0,-1,657,1723,0,0
-560,-699,0,0,0,0,0,0,0,0,0,-1,664,1723,0,0
-553,-699,0,0,0,0,0,0,0,0,0,-1,671,1723,0,0
-546,-699,0,0,0,0,0,0,0,0,0,-1,678,1723,0,0
-539,-699,0,0,0,0,0,0,0,0,0,-1,685,1723,0,0
-532,-699,0,0,0,0,0,0,0,0,0,-1,692,1723,0,0
-525,-699,0,0,0,0,0,0,0,0,0,-1,699,1723,0,0
-518,-699,0,0,0,0,0,0,0,0,0,-1,706,1723,0,0
-511,-699,0,0,0,0,0,0,0,0,0,-1,713,1723,0,0
-504,-699,0,0,0,0,0,0,0,0,0,-1,720,1723,0,0
-497,-699,0,0,0,0,0,0,0,0,0,-1,727,1723,0,0
-490,-699,0,0,0,0,0,0,0,0,0,-1,734,1723,0,0
-483,-699,0,0,0,0,0,0,0,0,0,-1,741,1723,0,0
-476,-699,0,0,0,0,0,0,0,0,0,-1,748,1723,0,0
-469,-699,0,0,0,0,0,0,0,0,0,-1,755,1723,0,0
-462,-699,0,0,0,0,0,0,0,0,0,-1,762,1723,0,0
-455,-699,0,0,0,0,0,0,0,0,0,-1,769,1723,0,0
-448,-699,0,0,0,0,0,0,0,0,0,-1,776,1723,0,0
-441,-699,0,0,0,0,0,0,0,0,0,-1,783,1723,0,0
-434,-699,0,0,0,0,0,0,0,0,0,-1,790,1723,0,0
-427,-699,0,0,0,0,0,0,0,0,0,-1,797,1723,0,0
-420,-699,0,0,0,0,0,0,0,0,0,-1,804,1723,0,0
-413,-699,0,0,0,0,0,0,0,0,0,-1,811,1723,0,0
-406,-699,0,0,0,0,0,0,0,0,0,-1,818,1723,0,0
-399,-699,0,0,0,0,0,0,0,0,0,-1,825,1723,0,0
-392,-699,0,0,0,0,0,0,0,0,0,-1,832,1723,0,0
-385,-699,0,0,0,0,0,0,0,0,0,-1,839,1723,0,0
-378,-699,0,0,0,0,0,0,0,0,0,-1,846,1723,0,0
-371,-699,0,0,0,0,0,0,0,0,0,-1,853,1723,0,0
-364,-699,0,0,0,0,0,0,0,0,0,-1,860,1723,0,0
-357,-699,0,0,0,0,0,0,0,0,0,-1,867,1723,0,0
-350,-699,0,0,0,0,0,0,0,0,0,-1,874,1723,0,0
-343,-699,0,0,0,0,0,0,0,0,0,-1,881,1723,0,0
-336,-699,0,0,0,0,0,0,0,0,0,-1,888,1723,0,0
-329,-699,0,0,0,0,0,0,0,0,0,-1,895,1723,0,0
-322,-699,0,0,0,0,0,0,0,0,0,-1,902,1723,0,0
-315,-699,6.20001,19.5193,0,0,0,0,0,0,0,-1,909,1723,6.20001,-19.5193
-308,-699,6.98151,18.9218,0,0,0,0,0,0,0,-1,916,1723,6.98151,-18.9217
-301,-699,4.72729,12.8752,0,0,0,0,0,0,0,-1,923,1723,4.72732,-12.8752
-294,-699,6.90332,19.8601,0,0,0,0,0,0,0,-1,930,1723,6.90332,-19.8601
-287,-699,9.0968,36.3315,0,0,0,0,0,0,0,-1,937,1723,9.09678,-36.3315
-280,-699,9.53729,45.2391,0,0,0,0,0,0,0,-1,944,1723,9.53728,-45.2391
-273,-699,8.216,48.0923,0,0,0,0,0,0,0,-1,951,1723,8.21601,-48.0923
-266,-699,6.81915,20.8951,0,0,0,0,0,0,0,-1,958,1723,6.81914,-20.8952
-259,-699,5.39758,14.5466,0,0,0,0,0,0,0,-1,965,1723,5.39759,-14.5466
-252,-699,8.3866,31.6284,0,0,0,0,0,0,0,-1,972,1723,8.38657,-31.6284
-245,-699,9.48035,47.8151,0,0,0,0,0,0,0,-1,979,1723,9.48037,-47.815
-238,-699,8.63556,50.84,0,0,0,0,0,0,0,-1,986,1723,8.63554,-50.84
-231,-699,8.20715,52.0951,-0.00703771,-0.000162263,-0.00101676,-1.50539e-05,-0.00718492,-1.42701,0.00478493,0.0462819,993,1723,8.20718,-52.0951
-224,-699,8.18066,52.432,-0.00554275,-0.000982658,-0.000376187,-0.000951833,-0.00557358,-1.48904,0.00344258,0.0387141,1000,1723,8.18069,-52.432
-217,-699,8.16809,52.8324,-0.00450237,-0.000538967,-0.000196054,-0.000529293,-0.00451205,-1.52149,0.00284804,0.0264684,1007,1723,8.16811,-52.8324
-210,-699,8.18054,53.3593,-0.00418476,0.000856522,0.000311058,0.000875643,-0.00420388,1.5094,0.00313549,0.0201059,1014,1723,8.18052,-53.3592
-203,-699,8.20654,53.9862,-0.00384889,0.00208936,0.00079915,0.00219502,-0.00395456,1.43933,0.00359858,0.0249925,1021,1723,8.20649,-53.9863
-196,-699,8.12744,54.639,-0.00344708,0.00280438,0.00121681,0.00303287,-0.00367558,1.38518,0.00387905,0.0188693,1028,1723,8.12739,-54.6391
-189,-699,8.05054,55.1779,-0.00290834,0.00354104,0.00159601,0.00391439,-0.00328169,1.341,0.00416001,0.00956404,1035,1723,8.05049,-55.1779
-182,-699,7.99048,55.7208,-0.00242138,0.00383948,0.00177882,0.00430957,-0.00289148,1.31243,0.00418432,0.013674,1042,1723,7.99047,-55.7208
-175,-699,7.95203,56.2894,-0.00193068,0.00429216,0.00192532,0.00483968,-0.0024782,1.29373,0.00429768,0.0161495,1049,1723,7.95208,-56.2894
-168,-699,7.94141,56.7816,-0.00152412,0.00416958,0.00197217,0.00478597,-0.00214051,1.26787,0.00409507,0.0163997,1056,1723,7.94139,-56.7817
-161,-699,7.90515,57.2751,-0.00126282,0.00417814,0.00203217,0.00485335,-0.00193803,1.25001,0.00403963,0.0144076,1063,1723,7.90511,-57.2751
-154,-699,7.87341,57.7869,-0.000959786,0.00384292,0.00192968,0.00452217,-0.00163904,1.23234,0.00368471,0.0142792,1070,1723,7.87338,-57.7868
-147,-699,7.84729,58.2734,-0.000558869,0.0034251,0.00170605,0.00405583,-0.00118959,1.21668,0.00317558,0.0169557,1077,1723,7.84728,-58.2735
-140,-699,7.80786,58.7313,-9.37032e-05,0.0030255,0.00144555,0.00359239,-0.000660594,1.19706,0.00264279,0.011432,1084,1723,7.80785,-58.7313
-133,-699,7.79626,59.2141,0.000298835,0.00267679,0.00120677,0.00318191,-0.000206283,1.17438,0.00219327,0.00919762,1091,1723,7.79622,-59.2141
-126,-699,7.80872,59.6564,0.000626797,0.00231213,0.000955175,0.00274322,0.000195712,1.14685,0.00176719,0.0114189,1098,1723,7.80871,-59.6564
-119,-699,7.80884,60.088,0.00100898,0.00206585,0.000767571,0.0024693,0.000605528,1.08686,0.00148606,0.0178128,1105,1723,7.80889,-60.088
-112,-699,7.7699,60.5022,0.00150261,0.00187024,0.000638167,0.00235054,0.00102232,0.925622,0.00136091,0.0125656,1112,1723,7.76996,-60.5022
-105,-699,7.77881,60.9285,0.00196007,0.00150776,0.000484417,0.00226852,0.0011993,0.567005,0.00131045,0.0136336,1119,1723,7.77882,-60.9285
-98,-699,7.82031,61.3052,0.00240674,0.00119182,0.000348844,0.00249978,0.00109878,0.260641,0.00144676,0.0164505,1126,1723,7.82029,-61.3052
-91,-699,7.83032,61.6613,0.00296457,0.00102105,0.000106186,0.00297036,0.00101526,0.05442,0.00174332,0.0226026,1133,1723,7.83034,-61.6613
-84,-699,7.86316,62.0568,0.00376894,0.00113278,-0.000172587,0.00378019,0.00112153,-0.0650987,0.00224183,0.0265879,1140,1723,7.86317,-62.0567
-77,-699,7.8717,62.4025,0.00460584,0.00107265,-0.00044569,0.0046612,0.0010173,-0.123565,0.00282998,0.0175122,1147,1723,7.8717,-62.4024
-70,-699,7.87622,62.7438,0.0049437,0.00066099,-0.000814403,0.00509334,0.000511351,-0.181714,0.00323859,0.0177705,1154,1723,7.8762,-62.7438
-63,-699,7.93359,63.0608,0.00523325,-1.54063e-05,-0.000730645,0.00533307,-0.000115219,-0.135768,0.0035944,0.0155236,1161,1723,7.93357,-63.0608
-56,-699,7.93188,63.3447,0.00501171,-0.000913338,-0.000172706,0.00501674,-0.000918367,-0.0291154,0.00368892,0.012249,1168,1723,7.93189,-63.3448
-49,-699,7.93945,63.7151,0.00482578,-0.00229617,0.000498233,0.00486047,-0.00233085,0.0695061,0.00423667,0.0275256,1175,1723,7.9394,-63.7151
-42,-699,7.9563,64.0642,0.00500359,-0.00341901,0.000839269,0.00508641,-0.00350183,0.0983563,0.00498647,0.0303917,1182,1723,7.95633,-64.0642
-35,-699,8.04285,64.2681,0.00528438,-0.00354214,0.000903495,0.00537592,-0.00363368,0.100966,0.00523401,0.0262201,1189,1723,8.04279,-64.2681
-28,-699,8.15088,64.403,0.00535628,-0.00263363,0.000882369,0.00545257,-0.00272991,0.10869,0.00481054,0.0215271,1196,1723,8.15093,-64.4029
-21,-699,8.17432,64.5168,0.00540609,-0.000814904,0.000833521,0.00551583,-0.000924648,0.130909,0.00402103,0.0156633,1203,1723,8.17432,-64.5169
-14,-699,8.21301,64.7314,0.00567721,0.000851021,0.000656397,0.00576489,0.000763339,0.132794,0.00361577,0.0132545,1210,1723,8.213,-64.7314
-7,-699,8.27197,64.9497,0.00590936,0.00541718,0.00101403,0.00670674,0.0046198,0.666358,0.00396311,0.00905881,1217,1723,8.27195,-64.9497
0,-699,8.36987,65.1227,0.00583799,0.0103261,0.001412,0.0107334,0.00543072,1.28998,0.00619706,0.0133876,1224,1723,8.36991,-65.1227
7,-699,8.54956,65.174,0.00546275,0.0157306,0.00171831,0.0160106,0.00518282,1.40931,0.00943326,0.0232151,1231,1723,8.54955,-65.174
14,-699,8.62329,65.3339,0.00509906,0.0205073,0.00201469,0.0207664,0.00483999,1.44291,0.0125461,0.0230804,1238,1723,8.62325,-65.3339
21,-699,8.60352,65.4431,0.00430021,0.0246616,0.00197182,0.0248508,0.00411101,1.47514,0.0153811,0.0184619,1245,1723,8.60354,-65.4431
28,-699,8.6637,65.5109,0.00339925,0.0281124,0.00191733,0.0282602,0.00325138,1.49383,0.0178553,0.0179597,1252,1723,8.66368,-65.5109
35,-699,8.77747,65.6283,0.00254673,0.0309204,0.00171365,0.0310236,0.00244361,1.51069,0.0199179,0.0154832,1259,1723,8.77751,-65.6283
42,-699,8.85364,65.6899,0.001276,0.0320382,0.000838084,0.0320611,0.00125319,1.54358,0.0209688,0.014309,1266,1723,8.85364,-65.69
49,-699,8.89307,65.7354,-4.59834e-05,0.0312593,-0.000396179,0.0312643,-5.09964e-05,-1.55814,0.0208599,0.0180077,1273,1723,8.89305,-65.7353
56,-699,9.00574,65.7799,-0.00150393,0.0291642,-0.0018514,0.0292755,-0.00161529,-1.51072,0.0200771,0.0179195,1280,1723,9.00579,-65.7799
63,-699,9.09399,65.7366,-0.00266109,0.0250472,-0.0034344,0.0254666,-0.00308043,-1.4493,0.0180922,0.0153267,1287,1723,9.09394,-65.7365
70,-699,9.13538,65.7213,-0.00356507,0.0203057,-0.00523589,0.0214037,-0.00466302,-1.36409,0.0160508,0.0124587,1294,1723,9.13538,-65.7213
77,-699,9.21252,65.6919,-0.00391719,0.0147078,-0.00714425,0.0171325,-0.00634194,-1.2436,0.0140222,0.0126381,1301,1723,9.21249,-65.692
84,-699,9.30835,65.6415,-0.00405565,0.00908238,-0.0088112,0.0135038,-0.00847705,-1.10572,0.0128008,0.0159045,1308,1723,9.3083,-65.6415
91,-699,9.40466,65.5797,-0.00259195,0.00377126,-0.0105353,0.0115949,-0.0104156,-0.932041,0.0127139,0.0158431,1315,1723,9.40469,-65.5797
98,-699,9.46204,65.4834,-0.00014041,-0.00255066,-0.0128012,0.0115122,-0.0142033,-0.738466,0.0148739,0.0134436,1322,1723,9.46199,-65.4834
105,-699,9.53137,65.4055,0.00258162,-0.00713301,-0.0143871,0.0129093,-0.0174607,-0.622599,0.0175996,0.0172595,1329,1723,9.53137,-65.4055
112,-699,9.60352,65.3057,0.00625021,-0.0103234,-0.0152553,0.0153241,-0.0193973,-0.536591,0.0200923,0.0234493,1336,1723,9.60348,-65.3056
119,-699,9.60925,65.1447,0.0101363,-0.0109246,-0.015339,0.0182116,-0.019,-0.484589,0.0214857,0.0175579,1343,1723,9.60928,-65.1446
126,-699,9.70935,64.9662,0.0144004,-0.0115656,-0.0151958,0.0214042,-0.0185694,-0.431882,0.0230981,0.0197498,1350,1723,9.70936,-64.9662
133,-699,9.83704,64.8146,0.0182361,-0.0118115,-0.0150396,0.0244703,-0.0180457,-0.392962,0.0246399,0.0186941,1357,1723,9.83709,-64.8146
140,-699,9.8855,64.6191,0.0211699,-0.0117156,-0.0145602,0.0266899,-0.0172356,-0.362376,0.0255555,0.0193787,1364,1723,9.88551,-64.6191
147,-699,9.93481,64.4213,0,0,0,0,0,0,0,-1,1371,1723,9.93483,-64.4213
154,-699,9.65356,64.1956,0,0,0,0,0,0,0,-1,1378,1723,9.65361,-64.1956
161,-699,9.98621,63.9812,0.0268504,-0.0100914,-0.0112106,0.0299862,-0.0132273,-0.27275,0.0255671,0.0304306,1385,1723,9.9862,-63.9812
168,-699,10.098,63.7233,0.0254115,-0.00866967,-0.00970926,0.0279834,-0.0112416,-0.258949,0.0233241,0.0123341,1392,1723,10.098,-63.7233
175,-699,10.1563,63.4706,0.0237868,-0.00746623,-0.00787711,0.0256599,-0.00933934,-0.233456,0.0209263,0.0194718,1399,1723,10.1562,-63.4706
182,-699,10.1876,63.1913,0.0205681,-0.00586533,-0.00600212,0.0218671,-0.00716437,-0.213142,0.0174631,0.0204448,1406,1723,10.1876,-63.1913
189,-699,10.1757,62.8633,0.0167985,-0.00396974,-0.00464253,0.0177891,-0.00496029,-0.210211,0.013813,0.0179396,1413,1723,10.1757,-62.8633
196,-699,10.1677,62.473,0.0107137,-0.00160793,-0.00200984,0.0110333,-0.00192748,-0.157672,0.00807505,0.0211028,1420,1723,10.1677,-62.473
203,-699,10.2041,62.1364,0.00542476,0.000168164,0.000133859,0.00542817,0.000164757,0.0254429,0.00356513,0.0169796,1427,1723,10.2041,-62.1364
210,-699,10.2688,61.8413,0.00481786,0.000150226,-3.71709e-05,0.00481816,0.000149931,-0.00796286,0.00316331,0.0148076,1434,1723,10.2688,-61.8413
217,-699,10.2734,61.4586,0.00423244,0.00014088,-8.2466e-05,0.0042341,0.000139219,-0.0201443,0.00277749,0.015549,1441,1723,10.2735,-61.4587
224,-699,10.29,61.0558,0.00363894,0.000256829,-0.000189009,0.00364947,0.0002463,-0.0556539,0.00235517,0.0174191,1448,1723,10.29,-61.0557
231,-699,10.308,60.6632,0.00299768,0.00041845,-0.00040394,0.00305946,0.000356668,-0.151773,0.00193176,0.0134991,1455,1723,10.308,-60.6632
238,-699,10.2882,60.2024,0.00247317,0.000633506,-0.000602954,0.00265317,0.000453499,-0.290118,0.00163867,0.0107098,1462,1723,10.2882,-60.2024
245,-699,10.2905,59.7844,0.00200128,0.000888978,-0.000698591,0.00233807,0.000552194,-0.449217,0.00141113,0.0126227,1469,1723,10.2905,-59.7844
252,-699,10.2904,59.3967,0.0014918,0.00126177,-0.000759427,0.00214487,0.000608694,-0.710244,0.00127635,0.0118192,1476,1723,10.2903,-59.3967
259,-699,10.2683,58.9672,0.000962581,0.00155961,-0.00090316,0.00221231,0.000309879,-0.945006,0.0013832,0.0114037,1483,1723,10.2683,-58.9672
266,-699,10.2582,58.4897,0.000488311,0.00177,-0.00112654,0.00242521,-0.000166905,-1.044,0.00167522,0.0132729,1490,1723,10.2582,-58.4898
273,-699,10.2577,58.0096,5.29798e-05,0.00210481,-0.00133845,0.0027653,-0.000607507,-1.11239,0.00207588,0.0128734,1497,1723,10.2577,-58.0097
280,-699,10.2499,57.5,-0.000442013,0.00235063,-0.00153235,0.00302742,-0.00111881,-1.15489,0.00247693,0.0133592,1504,1723,10.2499,-57.5
287,-699,10.207,56.9803,-0.000944493,0.00257926,-0.00170049,0.00326603,-0.00163126,-1.18696,0.00287949,0.0116809,1511,1723,10.2071,-56.9804
294,-699,10.1896,56.4805,-0.001474,0.00298672,-0.00182835,0.00364035,-0.00212763,-1.22746,0.0033681,0.0119202,1518,1723,10.1896,-56.4805
301,-699,10.1881,55.9994,-0.00198709,0.00335089,-0.00217618,0.00412563,-0.00276183,-1.22878,0.00400238,0.013324,1525,1723,10.1882,-55.9993
308,-699,10.1542,55.4758,-0.00251854,0.00416121,-0.00262278,0.00506795,-0.00342528,-1.23794,0.00493405,0.0176487,1532,1723,10.1541,-55.4758
315,-699,10.1226,54.9055,-0.00304224,0.00506044,-0.00311126,0.00611726,-0.00409906,-1.24335,0.00593664,0.0207237,1539,1723,10.1225,-54.9055
322,-699,10.0529,54.3546,-0.00349134,0.00625548,-0.00346552,0.00736204,-0.00459789,-1.26173,0.00696627,0.0213069,1546,1723,10.0528,-54.3546
329,-699,9.99854,53.7966,-0.00382752,0.00766511,-0.00380423,0.00881026,-0.00497266,-1.2784,0.00805974,0.0158531,1553,1723,9.99849,-53.7966
336,-699,9.98828,53.275,-0.00413876,0.00909692,-0.00420218,0.0103183,-0.00536019,-1.28793,0.00920164,0.0139444,1560,1723,9.98824,-53.2751
343,-699,9.99658,52.7263,-0.00427913,0.010338,-0.00462267,0.0116772,-0.00561836,-1.28881,0.0101878,0.022748,1567,1723,9.99664,-52.7264
350,-699,9.98804,52.0533,-0.00417159,0.011387,-0.00495246,0.0128296,-0.00561424,-1.28734,0.0109168,0.0412027,1574,1723,9.988,-52.0533
357,-699,9.86829,51.1907,-0.00374638,0.0123539,-0.0053526,0.013971,-0.00536345,-1.2774,0.0115256,0.0487252,1581,1723,9.86827,-51.1907
364,-699,9.80505,50.5109,-0.00329888,0.0129464,-0.00550076,0.0146337,-0.00498622,-1.27316,0.0117752,0.0472487,1588,1723,9.80509,-50.5109
371,-699,9.66614,49.9116,0,0,0,0,0,0,0,-1,1595,1723,9.66609,-49.9117
378,-699,9.59106,49.5605,0,0,0,0,0,0,0,-1,1602,1723,9.59107,-49.5606
385,-699,8.04944,42.8464,0,0,0,0,0,0,0,-1,1609,1723,8.04943,-42.8464
392,-699,8.04492,42.0624,0,0,0,0,0,0,0,-1,1616,1723,8.04492,-42.0623
399,-699,8.49963,41.4828,0,0,0,0,0,0,0,-1,1623,1723,8.49961,-41.4828
406,-699,11.7264,44.1525,0,0,0,0,0,0,0,-1,1630,1723,11.7264,-44.1525
413,-699,12.3215,44.3011,0,0,0,0,0,0,0,-1,1637,1723,12.3215,-44.3011
420,-699,8.41907,38.2246,0,0,0,0,0,0,0,-1,1644,1723,8.41902,-38.2247
427,-699,2.98743,11.8593,0,0,0,0,0,0,0,-1,1651,1723,2.98746,-11.8592
434,-699,4.66455,8.90222,0,0,0,0,0,0,0,-1,1658,1723,4.66456,-8.90223
441,-699,0,0,0,0,0,0,0,0,0,-1,1665,1723,0,0
448,-699,0,0,0,0,0,0,0,0,0,-1,1672,1723,0,0
455,-699,0,0,0,0,0,0,0,0,0,-1,1679,1723,0,0
462,-699,0,0,0,0,0,0,0,0,0,-1,1686,1723,0,0
469,-699,0,0,0,0,0,0,0,0,0,-1,1693,1723,0,0
476,-699,0,0,0,0,0,0,0,0,0,-1,1700,1723,0,0
483,-699,0,0,0,0,0,0,0,0,0,-1,1707,1723,0,0
490,-699,0,0,0,0,0,0,0,0,0,-1,1714,1723,0,0
497,-699,0,0,0,0,0,0,0,0,0,-1,1721,1723,0,0
504,-699,0,0,0,0,0,0,0,0,0,-1,1728,1723,0,0
511,-699,0,0,0,0,0,0,0,0,0,-1,1735,1723,0,0
518,-699,0,0,0,0,0,0,0,0,0,-1,1742,1723,0,0
525,-699,0,0,0,0,0,0,0,0,0,-1,1749,1723,0,0
532,-699,0,0,0,0,0,0,0,0,0,-1,1756,1723,0,0
539,-699,0,0,0,0,0,0,0,0,0,-1,1763,1723,0,0
546,-699,0,0,0,0,0,0,0,0,0,-1,1770,1723,0,0
553,-699,0,0,0,0,0,0,0,0,0,-1,1777,1723,0,0
560,-699,0,0,0,0,0,0,0,0,0,-1,1784,1723,0,0
567,-699,0,0,0,0,0,0,0,0,0,-1,1791,1723,0,0
574,-699,0,0,0,0,0,0,0,0,0,-1,1798,1723,0,0
581,-699,0,0,0,0,0,0,0,0,0,-1,1805,1723,0,0
588,-699,0,0,0,0,0,0,0,0,0,-1,1812,1723,0,0
595,-699,0,0,0,0,0,0,0,0,0,-1,1819,1723,0,0
602,-699,0,0,0,0,0,0,0,0,0,-1,1826,1723,0,0
609,-699,0,0,0,0,0,0,0,0,0,-1,1833,1723,0,0
616,-699,0,0,0,0,0,0,0,0,0,-1,1840,1723,0,0
623,-699,0,0,0,0,0,0,0,0,0,-1,1847,1723,0,0
630,-699,0,0,0,0,0,0,0,0,0,-1,1854,1723,0,0
637,-699,0,0,0,0,0,0,0,0,0,-1,1861,1723,0,0
644,-699,0,0,0,0,0,0,0,0,0,-1,1868,1723,0,0
651,-699,0,0,0,0,0,0,0,0,0,-1,1875,1723,0,0
658,-699,0,0,0,0,0,0,0,0,0,-1,1882,1723,0,0
665,-699,0,0,0,0,0,0,0,0,0,-1,1889,1723,0,0
672,-699,0,0,0,0,0,0,0,0,0,-1,1896,1723,0,0
679,-699,0,0,0,0,0,0,0,0,0,-1,1903,1723,0,0
686,-699,0,0,0,0,0,0,0,0,0,-1,1910,1723,0,0
693,-699,0,0,0,0,0,0,0,0,0,-1,1917,1723,0,0
700,-699,0,0,0,0,0,0,0,0,0,-1,1924,1723,0,0
707,-699,0,0,0,0,0,0,0,0,0,-1,1931,1723,0,0
714,-699,0,0,0,0,0,0,0,0,0,-1,1938,1723,0,0
721,-699,0,0,0,0,0,0,0,0,0,-1,1945,1723,0,0
728,-699,0,0,0,0,0,0,0,0,0,-1,1952,1723,0,0
735,-699,0,0,0,0,0,0,0,0,0,-1,1959,1723,0,0
742,-699,0,0,0,0,0,0,0,0,0,-1,1966,1723,0,0
749,-699,0,0,0,0,0,0,0,0,0,-1,1973,1723,0,0
756,-699,0,0,0,0,0,0,0,0,0,-1,1980,1723,0,0
763,-699,0,0,0,0,0,0,0,0,0,-1,1987,1723,0,0
770,-699,0,0,0,0,0,0,0,0,0,-1,1994,1723,0,0
777,-699,0,0,0,0,0,0,0,0,0,-1,2001,1723,0,0
784,-699,0,0,0,0,0,0,0,0,0,-1,2008,1723,0,0
791,-699,0,0,0,0,0,0,0,0,0,-1,2015,1723,0,0
798,-699,0,0,0,0,0,0,0,0,0,-1,2022,1723,0,0
805,-699,0,0,0,0,0,0,0,0,0,-1,2029,1723,0,0
812,-699,0,0,0,0,0,0,0,0,0,-1,2036,1723,0,0
-700,-706,0,0,0,0,0,0,0,0,0,-1,524,1730,0,0
-693,-706,0,0,0,0,0,0,0,0,0,-1,531,1730,0,0
-686,-706,0,0,0,0,0,0,0,0,0,-1,538,1730,0,0
-679,-706,0,0,0,0,0,0,0,0,0,-1,545,1730,0,0
-672,-706,0,0,0,0,0,0,0,0,0,-1,552,1730,0,0
-665,-706,0,0,0,0,0,0,0,0,0,-1,559,1730,0,0
-658,-706,0,0,0,0,0,0,0,0,0,-1,566,1730,0,0
-651,-706,0,0,0,0,0,0,0,0,0,-1,573,1730,0,0
-644,-706,0,0,0,0,0,0,0,0,0,-1,580,1730,0,0
-637,-706,0,0,0,0,0,0,0,0,0,-1,587,1730,0,0
-630,-706,0,0,0,0,0,0,0,0,0,-1,594,1730,0,0
-623,-706,0,0,0,0,0,0,0,0,0,-1,601,1730,0,0
-616,-706,0,0,0,0,0,0,0,0,0,-1,608,1730,0,0
-609,-706,0,0,0,0,0,0,0,0,0,-1,615,1730,0,0
-602,-706,0,0,0,0,0,0,0,0,0,-1,622,1730,0,0
-595,-706,0,0,0,0,0,0,0,0,0,-1,629,1730,0,0
-588,-706,0,0,0,0,0,0,0,0,0,-1,636,1730,0,0
-581,-706,0,0,0,0,0,0,0,0,0,-1,643,1730,0,0
-574,-706,0,0,0,0,0,0,0,0,0,-1,650,1730,0,0
-567,-706,0,0,0,0,0,0,0,0,0,-1,657,1730,0,0
-560,-706,0,0,0,0,0,0,0,0,0,-1,664,1730,0,0
-553,-706,0,0,0,0,0,0,0,0,0,-1,671,1730,0,0
-546,-706,0,0,0,0,0,0,0,0,0,-1,678,1730,0,0
-539,-706,0,0,0,0,0,0,0,0,0,-1,685,1730,0,0
-532,-706,0,0,0,0,0,0,0,0,0,-1,692,1730,0,0
-525,-706,0,0,0,0,0,0,0,0,0,-1,699,1730,0,0
-518,-706,0,0,0,0,0,0,0,0,0,-1,706,1730,0,0
-511,-706,0,0,0,0,0,0,0,0,0,-1,713,1730,0,0
-504,-706,0,0,0,0,0,0,0,0,0,-1,720,1730,0,0
-497,-706,0,0,0,0,0,0,0,0,0,-1,727,1730,0,0
-490,-706,0,0,0,0,0,0,0,0,0,-1,734,1730,0,0
-483,-706,0,0,0,0,0,0,0,0,0,-1,741,1730,0,0
-476,-706,0,0,0,0,0,0,0,0,0,-1,748,1730,0,0
-469,-706,0,0,0,0,0,0,0,0,0,-1,755,1730,0,0
-462,-706,0,0,0,0,0,0,0,0,0,-1,762,1730,0,0
-455,-706,0,0,0,0,0,0,0,0,0,-1,769,1730,0,0
-448,-706,0,0,0,0,0,0,0,0,0,-1,776,1730,0,0
-441,-706,0,0,0,0,0,0,0,0,0,-1,783,1730,0,0
-434,-706,0,0,0,0,0,0,0,0,0,-1,790,1730,0,0
-427,-706,0,0,0,0,0,0,0,0,0,-1,797,1730,0,0
-420,-706,0,0,0,0,0,0,0,0,0,-1,804,1730,0,0
-413,-706,0,0,0,0,0,0,0,0,0,-1,811,1730,0,0
-406,-706,0,0,0,0,0,0,0,0,0,-1,818,1730,0,0
-399,-706,0,0,0,0,0,0,0,0,0,-1,825,1730,0,0
-392,-706,0,0,0,0,0,0,0,0,0,-1,832,1730,0,0
-385,-706,0,0,0,0,0,0,0,0,0,-1,839,1730,0,0
-378,-706,0,0,0,0,0,0,0,0,0,-1,846,1730,0,0
-371,-706,0,0,0,0,0,0,0,0,0,-1,853,1730,0,0
-364,-706,0,0,0,0,0,0,0,0,0,-1,860,1730,0,0
-357,-706,0,0,0,0,0,0,0,0,0,-1,867,1730,0,0
-350,-706,0,0,0,0,0,0,0,0,0,-1,874,1730,0,0
-343,-706,0,0,0,0,0,0,0,0,0,-1,881,1730,0,0
-336,-706,0,0,0,0,0,0,0,0,0,-1,888,1730,0,0
-329,-706,0,0,0,0,0,0,0,0,0,-1,895,1730,0,0
-322,-706,0,0,0,0,0,0,0,0,0,-1,902,1730,0,0
-315,-706,0,0,0,0,0,0,0,0,0,-1,909,1730,0,0
-308,-706,5.08191,14.6245,0,0,0,0,0,0,0,-1,916,1730,5.08188,-14.6245
-301,-706,7.45007,21.1975,0,0,0,0,0,0,0,-1,923,1730,7.45005,-21.1976
-294,-706,11.8603,21.026,0,0,0,0,0,0,0,-1,930,1730,11.8603,-21.026
-287,-706,10.3292,20.8425,0,0,0,0,0,0,0,-1,937,1730,10.3292,-20.8425
-280,-706,7.9162,21.8951,0,0,0,0,0,0,0,-1,944,1730,7.9162,-21.8952
-273,-706,7.38953,20.6355,0,0,0,0,0,0,0,-1,951,1730,7.38955,-20.6355
-266,-706,9.66724,22.8231,0,0,0,0,0,0,0,-1,958,1730,9.66722,-22.8231
-259,-706,3.47852,20.7363,0,0,0,0,0,0,0,-1,965,1730,3.47851,-20.7364
-252,-706,3.84259,20.1979,0,0,0,0,0,0,0,-1,972,1730,3.84256,-20.1979
-245,-706,4.698,19.2992,0,0,0,0,0,0,0,-1,979,1730,4.69799,-19.2991
-238,-706,8.63525,52.287,0,0,0,0,0,0,0,-1,986,1730,8.63523,-52.287
-231,-706,8.76733,52.4724,0,0,0,0,0,0,0,-1,993,1730,8.76732,-52.4724
-224,-706,8.76666,52.691,0,0,0,0,0,0,0,-1,1000,1730,8.76669,-52.6911
-217,-706,8.79962,53.225,-0.00543431,-0.000705449,-0.000864277,-0.000552439,-0.00558732,-1.39557,0.00355507,0.0426309,1007,1730,8.79961,-53.225
-210,-706,8.75909,53.3733,-0.00521194,0.00135951,1.7946e-05,0.00135956,-0.00521199,1.56807,0.00400551,0.0409032,1014,1730,8.7591,-53.3733
-203,-706,8.81079,53.925,-0.00487939,0.00312316,0.000838384,0.00321005,-0.00496628,1.46753,0.00475677,0.0329016,1021,1730,8.81077,-53.9251
-196,-706,8.71191,54.5188,-0.00447796,0.0041675,0.00155515,0.00443873,-0.00474919,1.39812,0.00530566,0.0245283,1028,1730,8.71191,-54.5188
-189,-706,8.55908,55.1465,-0.00390023,0.00516887,0.0022244,0.00568507,-0.00441643,1.34277,0.00584741,0.0200187,1035,1730,8.55909,-55.1465
-182,-706,8.48096,55.7361,-0.00338251,0.00556104,0.00258984,0.00625686,-0.00407833,1.30832,0.00601105,0.0159294,1042,1730,8.48097,-55.7361
-175,-706,8.46021,56.2888,-0.00289311,0.00598918,0.00282531,0.0068117,-0.00371563,1.2875,0.00616495,0.0162566,1049,1730,8.46017,-56.2888
-168,-706,8.44421,56.7815,-0.0024636,0.00574714,0.00291999,0.00667967,-0.00339613,1.26167,0.00591933,0.016936,1056,1730,8.44427,-56.7815
-161,-706,8.39355,57.2972,-0.00218717,0.00573916,0.0030254,0.00676195,-0.00320996,1.24479,0.00587777,0.0140773,1063,1730,8.39352,-57.2972
-154,-706,8.34412,57.8203,-0.00186526,0.0053,0.00294291,0.00635374,-0.002919,1.22696,0.00547467,0.0144343,1070,1730,8.34413,-57.8203
-147,-706,8.30652,58.297,-0.00143217,0.00474084,0.00270176,0.0057563,-0.00244762,1.21128,0.00486324,0.0136632,1077,1730,8.30648,-58.297
-140,-706,8.28381,58.7833,-0.000920372,0.00426554,0.00241421,0.00521544,-0.00187027,1.19594,0.00424018,0.0124899,1084,1730,8.28379,-58.7833
-133,-706,8.24707,59.2219,-0.00050694,0.00383381,0.00213575,0.00470843,-0.00138156,1.18212,0.00368679,0.00962969,1091,1730,8.24702,-59.2219
-126,-706,8.24341,59.6575,-0.000227496,0.00335421,0.00183124,0.00412472,-0.000998006,1.17252,0.00313587,0.0143437,1098,1730,8.24344,-59.6574
-119,-706,8.22607,60.0675,4.56304e-05,0.00301743,0.00159211,0.00370931,-0.000646251,1.16085,0.00271406,0.0190852,1105,1730,8.22608,-60.0676
-112,-706,8.19141,60.5271,0.000497406,0.00288977,0.00149497,0.00360821,-0.000221037,1.12281,0.00248243,0.0130309,1112,1730,8.1914,-60.5271
-105,-706,8.16833,60.9603,0.000942731,0.00255493,0.00131877,0.00329445,0.000203203,1.05972,0.0021318,0.0101884,1119,1730,8.16828,-60.9604
-98,-706,8.2168,61.3292,0.00131309,0.00224726,0.00115478,0.00302584,0.000534512,0.97758,0.00186477,0.0123837,1126,1730,8.21676,-61.3293
-91,-706,8.22192,61.6901,0.0017385,0.00206729,0.000931302,0.00284859,0.000957195,0.872757,0.00167386,0.0160034,1133,1730,8.2219,-61.6901
-84,-706,8.20752,62.0637,0.00219655,0.00187398,0.000662604,0.00271721,0.00135331,0.666013,0.00156879,0.0180935,1140,1730,8.2075,-62.0638
-77,-706,8.21069,62.4153,0.00268185,0.00171664,0.000419188,0.00283849,0.00156,0.357594,0.00164148,0.0164951,1147,1730,8.21064,-62.4153
-70,-706,8.20129,62.7697,0.00302111,0.00139376,0.000104436,0.00302778,0.00138708,0.0638265,0.00175013,0.0187536,1154,1730,8.20132,-62.7696
-63,-706,8.21338,63.0676,0.00334634,0.000906161,3.07742e-05,0.00334673,0.000905773,0.0126088,0.00199885,0.0144759,1161,1730,8.2134,-63.0676
-56,-706,8.23755,63.3638,0.00342915,0.000186059,0.000201552,0.00344163,0.000173581,0.061831,0.00223881,0.0148001,1168,1730,8.2376,-63.3637
-49,-706,8.23279,63.6812,0.00346817,-0.000837636,0.000442415,0.00351315,-0.000882623,0.101338,0.00268511,0.0168645,1175,1730,8.23277,-63.6811
-42,-706,8.29431,63.9611,0.00369984,-0.00171946,0.00057488,0.00376015,-0.00177977,0.10453,0.00326589,0.0211851,1182,1730,8.29435,-63.9611
-35,-706,8.30981,64.1688,0.00402815,-0.00253343,0.00061327,0.00408497,-0.00259026,0.0923974,0.00388602,0.0184737,1189,1730,8.30983,-64.1688
-28,-706,8.34387,64.3674,0.00421133,-0.0029312,0.000616663,0.00426418,-0.00298405,0.0854937,0.00420647,0.0124538,1196,1730,8.34387,-64.3674
-21,-706,8.36975,64.5515,0.00435583,-0.00283127,0.000621596,0.00440919,-0.00288463,0.0856403,0.00424165,0.0139455,1203,1730,8.36981,-64.5516
-14,-706,8.40906,64.7582,0.00462038,-0.00243103,0.00056803,0.00466585,-0.00247649,0.0798692,0.00418771,0.0131424,1210,1730,8.40907,-64.7582
-7,-706,8.47058,64.972,0.00493069,-5.86572e-05,0.000852598,0.00507236,-0.000200329,0.164661,0.00345029,0.00931836,1217,1730,8.47062,-64.972
0,-706,8.53772,65.1625,0.00504088,0.00296816,0.00116724,0.00556544,0.00244359,0.422361,0.00322115,0.0133185,1224,1730,8.53767,-65.1625
7,-706,8.57605,65.3118,0.0050026,0.00636948,0.0014939,0.00732885,0.00404323,0.999931,0.00423884,0.0163887,1231,1730,8.57603,-65.3118
14,-706,8.63977,65.402,0.00505398,0.00966385,0.00181229,0.010291,0.00442683,1.23764,0.0059608,0.0160938,1238,1730,8.63973,-65.402
21,-706,8.70227,65.5148,0.00472228,0.0128257,0.0019774,0.0132825,0.00426551,1.34378,0.00783049,0.0126504,1245,1730,8.70227,-65.5148
28,-706,8.76575,65.611,0.00426188,0.0155163,0.0020223,0.0158686,0.00390952,1.39829,0.00954658,0.0130444,1252,1730,8.76571,-65.611
35,-706,8.81384,65.6814,0.00388822,0.0179599,0.0021117,0.0182699,0.00357816,1.42501,0.0111798,0.0149188,1259,1730,8.81382,-65.6814
42,-706,8.86865,65.7406,0.00309656,0.0193442,0.00174943,0.0195304,0.00291033,1.46474,0.0121667,0.0128282,1266,1730,8.86864,-65.7406
49,-706,8.92517,65.7731,0.00217979,0.0193164,0.00119152,0.0193989,0.00209734,1.50171,0.0122933,0.015922,1273,1730,8.92518,-65.7731
56,-706,9.00159,65.8011,0.00111471,0.0182244,0.000377034,0.0182327,0.0011064,1.54877,0.0118036,0.0165494,1280,1730,9.00158,-65.8012
63,-706,9.07117,65.7876,0.000153445,0.0158084,-0.000339277,0.0158157,0.000146096,-1.54914,0.0104955,0.0136447,1287,1730,9.07121,-65.7875
70,-706,9.10132,65.7659,-0.0007079,0.0128396,-0.00121507,0.0129477,-0.000816016,-1.48205,0.00891627,0.0128112,1294,1730,9.10128,-65.7659
77,-706,9.14795,65.733,-0.00118742,0.00905732,-0.00210099,0.00947145,-0.00160155,-1.37618,0.00691029,0.0114048,1301,1730,9.14792,-65.7331
84,-706,9.22925,65.7008,-0.00149444,0.00518618,-0.00286459,0.00624627,-0.00255453,-1.21636,0.00522803,0.00935551,1308,1730,9.22925,-65.7008
91,-706,9.29297,65.6641,-0.00115617,0.00153371,-0.00364942,0.00407814,-0.00370059,-0.961944,0.00449281,0.0109227,1315,1730,9.29301,-65.6641
98,-706,9.32397,65.5962,-0.000352687,-0.00278603,-0.00471577,0.00330084,-0.00643956,-0.659151,0.00572011,0.015572,1322,1730,9.32401,-65.5961
105,-706,9.37439,65.5302,0.000806741,-0.00592036,-0.00531342,0.00373174,-0.00884536,-0.503222,0.00745877,0.0179509,1329,1730,9.37435,-65.5302
112,-706,9.40894,65.4093,0.00248428,-0.0077805,-0.00556942,0.00492552,-0.0102217,-0.413107,0.00892169,0.0172618,1336,1730,9.4089,-65.4093
119,-706,9.43286,65.2672,0.00419454,-0.00803496,-0.00535906,0.00621058,-0.010051,-0.359815,0.0094755,0.0144019,1343,1730,9.43286,-65.2672
126,-706,9.5022,65.0748,0.00625652,-0.00821866,-0.00502453,0.00782964,-0.00979178,-0.30342,0.0101947,0.0156862,1350,1730,9.50217,-65.0749
133,-706,9.60925,64.8523,0.00810863,-0.00797656,-0.00464136,0.00935181,-0.00921974,-0.261704,0.0107224,0.0139664,1357,1730,9.6093,-64.8523
140,-706,9.66309,64.6234,0.00930201,-0.00742767,-0.00433345,0.0103579,-0.00848352,-0.238994,0.010896,0.0133354,1364,1730,9.66303,-64.6234
147,-706,9.7262,64.4215,0.0105284,-0.00686581,-0.0037784,0.0113137,-0.0076511,-0.204921,0.0110172,0.0235397,1371,1730,9.72616,-64.4215
154,-706,9.79358,64.2672,0.0114917,-0.00581093,-0.00331044,0.0121034,-0.00642268,-0.182731,0.0108624,0.024515,1378,1730,9.79361,-64.2672
161,-706,9.76318,63.998,0.011981,-0.00487897,-0.00266378,0.0123919,-0.00528982,-0.15303,0.0104794,0.0123452,1385,1730,9.76318,-63.9981
168,-706,9.78296,63.7339,0.0110359,-0.00367781,-0.00243851,0.0114295,-0.00407142,-0.160032,0.00927949,0.0113764,1392,1730,9.783,-63.7338
175,-706,9.8291,63.4727,0.0100895,-0.00267288,-0.0019522,0.0103815,-0.00296482,-0.148444,0.00809237,0.0113791,1399,1730,9.82908,-63.4726
182,-706,9.83936,63.1725,0.00850119,-0.00150661,-0.00163721,0.00876222,-0.00176763,-0.158104,0.00651116,0.0116418,1406,1730,9.83934,-63.1725
189,-706,9.85425,62.8345,0.00699154,-0.00056203,-0.00137135,0.0072328,-0.000803292,-0.174148,0.00511072,0.0146912,1413,1730,9.85422,-62.8344
196,-706,9.87646,62.5026,0.00499816,0.000266684,-0.000752219,0.00511487,0.000149974,-0.153927,0.00336104,0.0128423,1420,1730,9.87642,-62.5025
203,-706,9.87781,62.1743,0.00336316,0.000795904,-0.000369103,0.00341518,0.00074389,-0.139996,0.00207378,0.0141406,1427,1730,9.87781,-62.1743
210,-706,9.88013,61.8171,0.00289148,0.000955247,-0.00053838,0.00303111,0.000815617,-0.253761,0.00181115,0.013668,1434,1730,9.88011,-61.8171
217,-706,9.88562,61.4559,0.00242652,0.00113556,-0.000622868,0.00267804,0.000884043,-0.383786,0.00157564,0.0151994,1441,1730,9.88568,-61.4559
224,-706,9.8772,61.0675,0.00197137,0.00137806,-0.000774426,0.00250401,0.000845415,-0.602488,0.00147089,0.0209857,1448,1730,9.87717,-61.0674
231,-706,9.89966,60.6622,0.00144852,0.00163508,-0.00095608,0.00250242,0.000581184,-0.834027,0.00151225,0.0148583,1455,1730,9.89964,-60.6622
238,-706,9.88684,60.2435,0.000994557,0.00192648,-0.00109969,0.00265486,0.000266182,-0.985792,0.00168819,0.00888512,1462,1730,9.88678,-60.2435
245,-706,9.88611,59.8008,0.000570639,0.00222178,-0.00121068,0.00286158,-6.91616e-05,-1.08464,0.00193119,0.01193,1469,1730,9.88616,-59.8008
252,-706,9.86829,59.3816,8.30479e-05,0.00260403,-0.0012792,0.00313942,-0.00045234,-1.17441,0.00225888,0.0122547,1476,1730,9.86831,-59.3816
259,-706,9.84705,58.9501,-0.000402438,0.00287502,-0.00141353,0.00340043,-0.000927846,-1.21492,0.00263134,0.0127027,1483,1730,9.84706,-58.95
266,-706,9.81238,58.5004,-0.000868747,0.00306972,-0.00161412,0.00364671,-0.00144574,-1.22749,0.00303028,0.012958,1490,1730,9.8124,-58.5004
273,-706,9.78003,58.0205,-0.00132943,0.0034193,-0.00185706,0.00405928,-0.00196941,-1.23892,0.00354969,0.0126832,1497,1730,9.78002,-58.0206
280,-706,9.76172,57.5123,-0.00185006,0.00366557,-0.00206867,0.00435521,-0.0025397,-1.24901,0.00402651,0.0108131,1504,1730,9.76177,-57.5124
287,-706,9.71692,57.0027,-0.00239807,0.00390107,-0.00226266,0.00462957,-0.00312657,-1.25931,0.00450594,0.011776,1511,1730,9.71693,-57.0026
294,-706,9.703,56.5073,-0.0029944,0.00439901,-0.00239685,0.00510804,-0.00370343,-1.28318,0.00510881,0.0116857,1518,1730,9.70302,-56.5074
301,-706,9.68762,55.9952,-0.00355358,0.00483615,-0.00280261,0.00568624,-0.00440366,-1.2763,0.00584107,0.0109575,1525,1730,9.68767,-55.9953
308,-706,9.6449,55.4685,-0.00414524,0.00590114,-0.00333661,0.00690833,-0.00515242,-1.27764,0.00698783,0.0170455,1532,1730,9.64494,-55.4686
315,-706,9.65295,54.8964,-0.00472697,0.00702232,-0.00395938,0.00823203,-0.00593668,-1.27427,0.00821601,0.0400504,1539,1730,9.6529,-54.8963
322,-706,9.65161,54.2329,-0.00520997,0.0085446,-0.00442713,0.00984634,-0.00651171,-1.28482,0.00950951,0.0493523,1546,1730,9.65156,-54.2329
329,-706,9.5509,53.7727,-0.00557881,0.0104175,-0.00484531,0.0117707,-0.00693199,-1.29846,0.0109178,0.034185,1553,1730,9.55096,-53.7727
336,-706,9.42285,53.249,-0.00591664,0.0124143,-0.00542839,0.0139012,-0.00740356,-1.30344,0.0124895,0.037554,1560,1730,9.42284,-53.249
343,-706,9.23267,52.5322,-0.00603284,0.0142527,-0.00605509,0.0159227,-0.00770277,-1.3017,0.0139126,0.0473254,1567,1730,9.23264,-52.5322
350,-706,9.44678,52.019,0,0,0,0,0,0,0,-1,1574,1730,9.44683,-52.019
357,-706,9.37109,51.1091,0,0,0,0,0,0,0,-1,1581,1730,9.37104,-51.1092
364,-706,9.2135,50.4586,0,0,0,0,0,0,0,-1,1588,1730,9.21348,-50.4586
371,-706,8.6084,48.7302,0,0,0,0,0,0,0,-1,1595,1730,8.60844,-48.7303
378,-706,7.63867,44.0519,0,0,0,0,0,0,0,-1,1602,1730,7.63863,-44.0519
385,-706,7.3186,43.2451,0,0,0,0,0,0,0,-1,1609,1730,7.31862,-43.2451
392,-706,7.33728,42.4652,0,0,0,0,0,0,0,-1,1616,1730,7.3373,-42.4651
399,-706,7.51855,41.7692,0,0,0,0,0,0,0,-1,1623,1730,7.51855,-41.7691
406,-706,7.46301,40.9797,0,0,0,0,0,0,0,-1,1630,1730,7.46301,-40.9797
413,-706,8.43433,40.3345,0,0,0,0,0,0,0,-1,1637,1730,8.43428,-40.3344
420,-706,8.0636,39.6101,0,0,0,0,0,0,0,-1,1644,1730,8.06362,-39.6101
427,-706,0,0,0,0,0,0,0,0,0,-1,1651,1730,0,0
434,-706,0,0,0,0,0,0,0,0,0,-1,1658,1730,0,0
441,-706,0,0,0,0,0,0,0,0,0,-1,1665,1730,0,0
448,-706,0,0,0,0,0,0,0,0,0,-1,1672,1730,0,0
455,-706,0,0,0,0,0,0,0,0,0,-1,1679,1730,0,0
462,-706,0,0,0,0,0,0,0,0,0,-1,1686,1730,0,0
469,-706,0,0,0,0,0,0,0,0,0,-1,1693,1730,0,0
476,-706,0,0,0,0,0,0,0,0,0,-1,1700,1730,0,0
483,-706,0,0,0,0,0,0,0,0,0,-1,1707,1730,0,0
490,-706,0,0,0,0,0,0,0,0,0,-1,1714,1730,0,0
497,-706,0,0,0,0,0,0,0,0,0,-1,1721,1730,0,0
504,-706,0,0,0,0,0,0,0,0,0,-1,1728,1730,0,0
511,-706,0,0,0,0,0,0,0,0,0,-1,1735,1730,0,0
518,-706,0,0,0,0,0,0,0,0,0,-1,1742,1730,0,0
525,-706,0,0,0,0,0,0,0,0,0,-1,1749,1730,0,0
532,-706,0,0,0,0,0,0,0,0,0,-1,1756,1730,0,0
539,-706,0,0,0,0,0,0,0,0,0,-1,1763,1730,0,0
546,-706,0,0,0,0,0,0,0,0,0,-1,1770,1730,0,0
553,-706,0,0,0,0,0,0,0,0,0,-1,1777,1730,0,0
560,-706,0,0,0,0,0,0,0,0,0,-1,1784,1730,0,0
567,-706,0,0,0,0,0,0,0,0,0,-1,1791,1730,0,0
574,-706,0,0,0,0,0,0,0,0,0,-1,1798,1730,0,0
581,-706,0,0,0,0,0,0,0,0,0,-1,1805,1730,0,0
588,-706,0,0,0,0,0,0,0,0,0,-1,1812,1730,0,0
595,-706,0,0,0,0,0,0,0,0,0,-1,1819,1730,0,0
602,-706,0,0,0,0,0,0,0,0,0,-1,1826,1730,0,0
609,-706,0,0,0,0,0,0,0,0,0,-1,1833,1730,0,0
616,-706,0,0,0,0,0,0,0,0,0,-1,1840,1730,0,0
623,-706,0,0,0,0,0,0,0,0,0,-1,1847,1730,0,0
630,-706,0,0,0,0,0,0,0,0,0,-1,1854,1730,0,0
637,-706,0,0,0,0,0,0,0,0,0,-1,1861,1730,0,0
644,-706,0,0,0,0,0,0,0,0,0,-1,1868,1730,0,0
651,-706,0,0,0,0,0,0,0,0,0,-1,1875,1730,0,0
658,-706,0,0,0,0,0,0,0,0,0,-1,1882,1730,0,0
665,-706,0,0,0,0,0,0,0,0,0,-1,1889,1730,0,0
672,-706,0,0,0,0,0,0,0,0,0,-1,1896,1730,0,0
679,-706,0,0,0,0,0,0,0,0,0,-1,1903,1730,0,0
686,-706,0,0,0,0,0,0,0,0,0,-1,1910,1730,0,0
693,-706,0,0,0,0,0,0,0,0,0,-1,1917,1730,0,0
700,-706,0,0,0,0,0,0,0,0,0,-1,1924,1730,0,0
707,-706,0,0,0,0,0,0,0,0,0,-1,1931,1730,0,0
714,-706,0,0,0,0,0,0,0,0,0,-1,1938,1730,0,0
721,-706,0,0,0,0,0,0,0,0,0,-1,1945,1730,0,0
728,-706,0,0,0,0,0,0,0,0,0,-1,1952,1730,0,0
735,-706,0,0,0,0,0,0,0,0,0,-1,1959,1730,0,0
742,-706,0,0,0,0,0,0,0,0,0,-1,1966,1730,0,0
749,-706,0,0,0,0,0,0,0,0,0,-1,1973,1730,0,0
756,-706,0,0,0,0,0,0,0,0,0,-1,1980,1730,0,0
763,-706,0,0,0,0,0,0,0,0,0,-1,1987,1730,0,0
770,-706,0,0,0,0,0,0,0,0,0,-1,1994,1730,0,0
777,-706,0,0,0,0,0,0,0,0,0,-1,2001,1730,0,0
784,-706,0,0,0,0,0,0,0,0,0,-1,2008,1730,0,0
791,-706,0,0,0,0,0,0,0,0,0,-1,2015,1730,0,0
798,-706,0,0,0,0,0,0,0,0,0,-1,2022,1730,0,0
805,-706,0,0,0,0,0,0,0,0,0,-1,2029,1730,0,0
812,-706,0,0,0,0,0,0,0,0,0,-1,2036,1730,0,0
-700,-713,0,0,0,0,0,0,0,0,0,-1,524,1737,0,0
-693,-713,0,0,0,0,0,0,0,0,0,-1,531,1737,0,0
-686,-713,0,0,0,0,0,0,0,0,0,-1,538,1737,0,0
-679,-713,0,0,0,0,0,0,0,0,0,-1,545,1737,0,0
-672,-713,0,0,0,0,0,0,0,0,0,-1,552,1737,0,0
-665,-713,0,0,0,0,0,0,0,0,0,-1,559,1737,0,0
-658,-713,0,0,0,0,0,0,0,0,0,-1,566,1737,0,0
-651,-713,0,0,0,0,0,0,0,0,0,-1,573,1737,0,0
-644,-713,0,0,0,0,0,0,0,0,0,-1,580,1737,0,0
-637,-713,0,0,0,0,0,0,0,0,0,-1,587,1737,0,0
-630,-713,0,0,0,0,0,0,0,0,0,-1,594,1737,0,0
-623,-713,0,0,0,0,0,0,0,0,0,-1,601,1737,0,0
-616,-713,0,0,0,0,0,0,0,0,0,-1,608,1737,0,0
-609,-713,0,0,0,0,0,0,0,0,0,-1,615,1737,0,0
-602,-713,0,0,0,0,0,0,0,0,0,-1,622,1737,0,0
-595,-713,0,0,0,0,0,0,0,0,0,-1,629,1737,0,0
-588,-713,0,0,0,0,0,0,0,0,0,-1,636,1737,0,0
-581,-713,0,0,0,0,0,0,0,0,0,-1,643,1737,0,0
-574,-713,0,0,0,0,0,0,0,0,0,-1,650,1737,0,0
-567,-713,0,0,0,0,0,0,0,0,0,-1,657,1737,0,0
-560,-713,0,0,0,0,0,0,0,0,0,-1,664,1737,0,0
-553,-713,0,0,0,0,0,0,0,0,0,-1,671,1737,0,0
-546,-713,0,0,0,0,0,0,0,0,0,-1,678,1737,0,0
-539,-713,0,0,0,0,0,0,0,0,0,-1,685,1737,0,0
-532,-713,0,0,0,0,0,0,0,0,0,-1,692,1737,0,0
-525,-713,0,0,0,0,0,0,0,0,0,-1,699,1737,0,0
-518,-713,0,0,0,0,0,0,0,0,0,-1,706,1737,0,0
-511,-713,0,0,0,0,0,0,0,0,0,-1,713,1737,0,0
-504,-713,0,0,0,0,0,0,0,0,0,-1,720,1737,0,0
-497,-713,0,0,0,0,0,0,0,0,0,-1,727,1737,0,0
-490,-713,0,0,0,0,0,0,0,0,0,-1,734,1737,0,0
-483,-713,0,0,0,0,0,0,0,0,0,-1,741,1737,0,0
-476,-713,0,0,0,0,0,0,0,0,0,-1,748,1737,0,0
-469,-713,0,0,0,0,0,0,0,0,0,-1,755,1737,0,0
-462,-713,0,0,0,0,0,0,0,0,0,-1,762,1737,0,0
-455,-713,0,0,0,0,0,0,0,0,0,-1,769,1737,0,0
-448,-713,0,0,0,0,0,0,0,0,0,-1,776,1737,0,0
-441,-713,0,0,0,0,0,0,0,0,0,-1,783,1737,0,0
-434,-713,0,0,0,0,0,0,0,0,0,-1,790,1737,0,0
-427,-713,0,0,0,0,0,0,0,0,0,-1,797,1737,0,0
-420,-713,0,0,0,0,0,0,0,0,0,-1,804,1737,0,0
-413,-713,0,0,0,0,0,0,0,0,0,-1,811,1737,0,0
-406,-713,0,0,0,0,0,0,0,0,0,-1,818,1737,0,0
-399,-713,0,0,0,0,0,0,0,0,0,-1,825,1737,0,0
-392,-713,0,0,0,0,0,0,0,0,0,-1,832,1737,0,0
-385,-713,0,0,0,0,0,0,0,0,0,-1,839,1737,0,0
-378,-713,0,0,0,0,0,0,0,0,0,-1,846,1737,0,0
-371,-713,0,0,0,0,0,0,0,0,0,-1,853,1737,0,0
-364,-713,0,0,0,0,0,0,0,0,0,-1,860,1737,0,0
-357,-713,0,0,0,0,0,0,0,0,0,-1,867,1737,0,0
-350,-713,0,0,0,0,0,0,0,0,0,-1,874,1737,0,0
-343,-713,0,0,0,0,0,0,0,0,0,-1,881,1737,0,0
-336,-713,0,0,0,0,0,0,0,0,0,-1,888,1737,0,0
-329,-713,0,0,0,0,0,0,0,0,0,-1,895,1737,0,0
-322,-713,0,0,0,0,0,0,0,0,0,-1,902,1737,0,0
-315,-713,0,0,0,0,0,0,0,0,0,-1,909,1737,0,0
-308,-713,0,0,0,0,0,0,0,0,0,-1,916,1737,0,0
-301,-713,0,0,0,0,0,0,0,0,0,-1,923,1737,0,0
-294,-713,7.17883,22.0453,0,0,0,0,0,0,0,-1,930,1737,7.17881,-22.0453
-287,-713,11.8916,21.5834,0,0,0,0,0,0,0,-1,937,1737,11.8916,-21.5833
-280,-713,10.2786,21.3551,0,0,0,0,0,0,0,-1,944,1737,10.2787,-21.3551
-273,-713,11.1981,23.8683,0,0,0,0,0,0,0,-1,951,1737,11.198,-23.8683
-266,-713,3.17981,19.8851,0,0,0,0,0,0,0,-1,958,1737,3.17983,-19.8851
-259,-713,3.5921,19.6868,0,0,0,0,0,0,0,-1,965,1737,3.59207,-19.6868
-252,-713,4.55469,20.5758,0,0,0,0,0,0,0,-1,972,1737,4.55466,-20.5758
-245,-713,3.89014,25.9825,0,0,0,0,0,0,0,-1,979,1737,3.89013,-25.9826
-238,-713,6.62506,30.5463,0,0,0,0,0,0,0,-1,986,1737,6.62509,-30.5462
-231,-713,9.00385,52.8434,0,0,0,0,0,0,0,-1,993,1737,9.00382,-52.8434
-224,-713,8.56732,52.6133,0,0,0,0,0,0,0,-1,1000,1737,8.56735,-52.6133
-217,-713,9.31049,53.6663,0,0,0,0,0,0,0,-1,1007,1737,9.31048,-53.6663
-210,-713,9.35315,53.4751,0,0,0,0,0,0,0,-1,1014,1737,9.35314,-53.475
-203,-713,9.46448,53.9762,0,0,0,0,0,0,0,-1,1021,1737,9.4645,-53.9762
-196,-713,9.25269,54.5109,-0.00542558,0.00614322,0.0019457,0.00646169,-0.00574405,1.40856,0.00705105,0.0457252,1028,1737,9.25268,-54.5108
-189,-713,9.06458,55.0496,-0.00481347,0.00753274,0.00300277,0.00822431,-0.00550505,1.34443,0.00797831,0.041828,1035,1737,9.06458,-55.0495
-182,-713,8.94299,55.5475,-0.00433971,0.00806468,0.00356944,0.00901847,-0.0052935,1.30969,0.00835579,0.028233,1042,1737,8.94298,-55.5475
-175,-713,8.98291,56.2083,-0.00389451,0.00838951,0.00391886,0.00953322,-0.00503823,1.28683,0.00854521,0.0230416,1049,1737,8.98286,-56.2082
-168,-713,9.03064,56.759,-0.00348873,0.00793845,0.0040595,0.00923376,-0.00478404,1.26193,0.00822797,0.0246629,1056,1737,9.03065,-56.759
-161,-713,8.88806,57.3225,-0.00325073,0.00786649,0.0042016,0.00927578,-0.00466002,1.24717,0.00819162,0.0129108,1063,1737,8.88806,-57.3225
-154,-713,8.80847,57.8014,-0.00296819,0.00727806,0.00414599,0.00874551,-0.00443564,1.23061,0.00774455,0.0122714,1070,1737,8.80843,-57.8014
-147,-713,8.75562,58.3063,-0.00255914,0.00652062,0.00389119,0.00796003,-0.00399855,1.21649,0.00702943,0.0205053,1077,1737,8.75565,-58.3063
-140,-713,8.74841,58.8177,-0.00205762,0.00593269,0.003578,0.00730068,-0.00342561,1.20561,0.0063261,0.0209439,1084,1737,8.74841,-58.8177
-133,-713,8.69189,59.2413,-0.00167726,0.00538385,0.00326175,0.00665994,-0.00295335,1.19787,0.00568609,0.0138188,1091,1737,8.6919,-59.2413
-126,-713,8.66345,59.6221,-0.00148927,0.00475557,0.00290709,0.00589938,-0.00263307,1.19595,0.0050451,0.0199541,1098,1737,8.66346,-59.622
-119,-713,8.64197,60.0012,-0.00134506,0.00429604,0.00261395,0.00532103,-0.00237005,1.1971,0.0045481,0.0268209,1105,1737,8.64201,-60.0013
-112,-713,8.59961,60.5187,-0.000916981,0.00425215,0.00255355,0.00530085,-0.00196568,1.18112,0.00434013,0.0142681,1112,1737,8.5996,-60.5187
-105,-713,8.59216,60.9438,-0.000461012,0.00393477,0.00237428,0.00497229,-0.00149854,1.15882,0.00391126,0.012048,1119,1737,8.59219,-60.9439
-98,-713,8.59094,61.3442,-0.000148859,0.00361823,0.00219264,0.00462526,-0.00115588,1.14026,0.00353241,0.0113663,1126,1737,8.59089,-61.3443
-91,-713,8.55554,61.7063,0.000195635,0.00338646,0.0019695,0.00432566,-0.000743564,1.12582,0.00316091,0.0106658,1133,1737,8.55555,-61.7063
-84,-713,8.52844,62.0675,0.000482921,0.00290317,0.0016492,0.00373859,-0.0003525,1.10191,0.00261782,0.01009,1140,1737,8.52844,-62.0675
-77,-713,8.53784,62.4138,0.000841689,0.00252877,0.00137146,0.00329535,7.51145e-05,1.06111,0.00217229,0.0133414,1147,1737,8.53787,-62.4138
-70,-713,8.54639,62.7395,0.0011682,0.00217576,0.00105143,0.00283787,0.000506094,1.00881,0.00174781,0.0156175,1154,1737,8.54633,-62.7394
-63,-713,8.5365,63.0778,0.00146968,0.0018051,0.000823777,0.00247806,0.000796716,0.885817,0.00146078,0.0141938,1161,1737,8.5365,-63.0778
-56,-713,8.55981,63.38,0.00171589,0.00120211,0.000682546,0.00218829,0.000729711,0.605414,0.00128656,0.0138251,1168,1737,8.55987,-63.38
-49,-713,8.51758,63.6769,0.001869,0.000460307,0.000582435,0.00207862,0.000250687,0.345469,0.0013102,0.0171058,1175,1737,8.51763,-63.6769
-42,-713,8.5459,63.9274,0.00208765,-0.000165955,0.000552562,0.00221584,-0.000294146,0.227961,0.0015844,0.0206609,1182,1737,8.54593,-63.9273
-35,-713,8.57031,64.1479,0.0023869,-0.000804356,0.000549958,0.00247902,-0.000896473,0.165957,0.00201897,0.0169578,1189,1737,8.57035,-64.148
-28,-713,8.59766,64.405,0.00262353,-0.00153513,0.000553411,0.00269592,-0.00160752,0.130059,0.00251094,0.0153419,1196,1737,8.59766,-64.405
-21,-713,8.60229,64.6005,0.00284573,-0.00211689,0.000593052,0.00291562,-0.00218678,0.117303,0.00295587,0.0115486,1203,1737,8.60232,-64.6004
-14,-713,8.60413,64.7882,0.00309286,-0.00255237,0.000656142,0.00316812,-0.00262763,0.114201,0.00335103,0.0123581,1210,1737,8.60413,-64.7881
-7,-713,8.65515,64.9918,0.00335921,-0.0016824,0.00088362,0.00350959,-0.00183278,0.168574,0.00313466,0.0097681,1217,1737,8.65518,-64.9919
0,-713,8.69702,65.1613,0.00356579,-0.000220507,0.00114079,0.00388294,-0.000537655,0.27116,0.0027852,0.0144936,1224,1737,8.697,-65.1612
7,-713,8.70496,65.3159,0.00362657,0.00170482,0.0014295,0.00438812,0.000943264,0.489495,0.00266718,0.0172144,1231,1737,8.70495,-65.316
14,-713,8.73035,65.4592,0.00373326,0.00358934,0.00169304,0.00535587,0.00196674,0.76416,0.00312835,0.0123649,1238,1737,8.73038,-65.4593
21,-713,8.79993,65.564,0.00354425,0.00557411,0.00181308,0.006637,0.00248136,1.04056,0.0038723,0.0110204,1245,1737,8.79995,-65.5639
28,-713,8.82629,65.6606,0.00325246,0.00737749,0.00181777,0.0080642,0.00256574,1.20959,0.00475739,0.0117249,1252,1737,8.82626,-65.6606
35,-713,8.86121,65.7184,0.00304047,0.0090492,0.00183734,0.00956649,0.00252318,1.29636,0.00572504,0.0117872,1259,1737,8.86115,-65.7183
42,-713,8.92224,65.7671,0.00251169,0.0101415,0.0015342,0.0104384,0.00221475,1.37961,0.00635076,0.0117759,1266,1737,8.92225,-65.7671
49,-713,8.97803,65.7399,0.00188434,0.0102897,0.00110164,0.0104316,0.00174235,1.44262,0.00645254,0.0152089,1273,1737,8.97797,-65.7399
56,-713,9.00354,65.7509,0.00117217,0.00972649,0.000486362,0.00975406,0.00114461,1.51418,0.00615674,0.0190475,1280,1737,9.00351,-65.7509
63,-713,9.02722,65.8121,0.000540463,0.00840497,-3.23738e-05,0.0084051,0.00054033,-1.56668,0.00543226,0.01755,1287,1737,9.02716,-65.8121
70,-713,9.06519,65.8197,-1.19562e-05,0.00667798,-0.00065321,0.00674116,-7.51393e-05,-1.47437,0.00451936,0.0134187,1294,1737,9.06517,-65.8198
77,-713,9.11035,65.7902,-0.000275701,0.00448161,-0.00125116,0.00479059,-0.000584682,-1.32868,0.00340539,0.0130316,1301,1737,9.11036,-65.7902
84,-713,9.15942,65.7516,-0.000422542,0.00222782,-0.00173141,0.00308299,-0.0012777,-1.11203,0.00258856,0.0124077,1308,1737,9.15948,-65.7516
91,-713,9.18958,65.7063,-0.00046316,0.000234036,-0.00212592,0.00203975,-0.00226888,-0.866662,0.00248876,0.0129825,1315,1737,9.18953,-65.7064
98,-713,9.21484,65.6089,-0.000423463,-0.00223096,-0.00256199,0.0013895,-0.00404392,-0.615836,0.00325938,0.0130553,1322,1737,9.21489,-65.6089
105,-713,9.23901,65.5311,-0.000141872,-0.00393146,-0.00270745,0.00126796,-0.00534128,-0.480087,0.00405022,0.0151373,1329,1737,9.23904,-65.5311
112,-713,9.27649,65.4272,0.000376825,-0.00494084,-0.00267786,0.00149163,-0.00605564,-0.394481,0.00461536,0.0157295,1336,1737,9.27646,-65.4272
119,-713,9.29517,65.2783,0.000810326,-0.00492011,-0.00234112,0.00164515,-0.00575494,-0.342535,0.0044867,0.0161526,1343,1737,9.29514,-65.2783
126,-713,9.33801,65.1127,0.00142964,-0.00478494,-0.00186929,0.00194857,-0.00530387,-0.270791,0.004334,0.0153275,1350,1737,9.33807,-65.1127
133,-713,9.39172,64.8931,0.00191932,-0.00432947,-0.00137943,0.00221028,-0.00462044,-0.207883,0.00402472,0.0137765,1357,1737,9.39178,-64.893
140,-713,9.44873,64.6686,0.00212247,-0.00368991,-0.0010132,0.00229403,-0.00386146,-0.167728,0.00359207,0.0142997,1364,1737,9.44874,-64.6686
147,-713,9.46716,64.4425,0.00250456,-0.00306475,-0.000592188,0.00256683,-0.00312703,-0.10477,0.00329265,0.0154313,1371,1737,9.46711,-64.4426
154,-713,9.46411,64.2802,0.00287688,-0.00216322,-0.00032224,0.0028974,-0.00218374,-0.0635903,0.00294322,0.0153476,1378,1737,9.4641,-64.2801
161,-713,9.48096,63.9987,0.00312031,-0.00140386,-4.6056e-05,0.00312078,-0.00140433,-0.0101786,0.00267449,0.0115916,1385,1737,9.48099,-63.9987
168,-713,9.49561,63.7112,0.00285891,-0.00068849,-0.000142065,0.00286459,-0.00069417,-0.0399623,0.0021783,0.0118492,1392,1737,9.49563,-63.7111
175,-713,9.51318,63.4353,0.00265459,-0.000117224,-0.000132041,0.00266086,-0.0001235,-0.0474936,0.00181648,0.0152897,1399,1737,9.51315,-63.4353
182,-713,9.52209,63.1584,0.00226828,0.00045462,-0.000309075,0.00231951,0.000403395,-0.164241,0.00143095,0.0128875,1406,1737,9.52213,-63.1585
189,-713,9.53162,62.8457,0.00194606,0.000910373,-0.000548029,0.00218221,0.000674229,-0.406854,0.00129019,0.0121918,1413,1737,9.5316,-62.8457
196,-713,9.55005,62.5247,0.00168598,0.00117693,-0.000719019,0.0021942,0.000668716,-0.615284,0.00129861,0.0135252,1420,1737,9.55008,-62.5246
203,-713,9.54517,62.1907,0.00136393,0.00139027,-0.000900796,0.00227799,0.000476205,-0.792708,0.00138744,0.0174876,1427,1737,9.54516,-62.1907
210,-713,9.52979,61.7975,0.00105232,0.0018186,-0.00108509,0.00258621,0.000284722,-0.955113,0.0016375,0.0146522,1434,1737,9.52982,-61.7975
217,-713,9.53064,61.4324,0.000718754,0.00221895,-0.00121939,0.00290048,3.72228e-05,-1.06114,0.00192137,0.0122441,1441,1737,9.53061,-61.4324
224,-713,9.50818,61.0771,0.000406401,0.00262201,-0.00141419,0.00331064,-0.000282226,-1.11765,0.00230693,0.0132528,1448,1737,9.50823,-61.0772
231,-713,9.50183,60.6842,-1.93908e-05,0.00300253,-0.00157409,0.00367348,-0.000690348,-1.16787,0.00270859,0.0121156,1455,1737,9.50187,-60.6842
238,-713,9.47803,60.2679,-0.00040748,0.00339591,-0.00167807,0.00403042,-0.00104199,-1.20929,0.00309334,0.00874695,1462,1737,9.47797,-60.268
245,-713,9.47217,59.8383,-0.000786779,0.00375839,-0.00180086,0.00438541,-0.00141381,-1.23574,0.00349163,0.011681,1469,1737,9.47221,-59.8383
252,-713,9.4502,59.3853,-0.00125126,0.00419401,-0.00187932,0.00477963,-0.00183688,-1.26872,0.00394397,0.0129324,1476,1737,9.45022,-59.3853
259,-713,9.42126,58.9269,-0.0016987,0.00446853,-0.00199384,0.00505699,-0.00228716,-1.28381,0.0043395,0.0125335,1483,1737,9.42126,-58.9269
266,-713,9.37634,58.5059,-0.00216727,0.00467013,-0.00215925,0.00529493,-0.00279207,-1.28913,0.00474298,0.0113621,1490,1737,9.3764,-58.5059
273,-713,9.32031,58.0398,-0.00265579,0.00503764,-0.00242642,0.00573897,-0.00335712,-1.28942,0.00531131,0.00978914,1497,1737,9.32025,-58.0397
280,-713,9.28381,57.5323,-0.00320934,0.00527862,-0.00265141,0.00603877,-0.00396949,-1.29159,0.0058193,0.0108966,1504,1737,9.2838,-57.5324
287,-713,9.25208,57.0172,-0.00381919,0.00551765,-0.00287335,0.00633105,-0.00463258,-1.29493,0.00635512,0.0120452,1511,1737,9.25209,-57.0172
294,-713,9.23328,56.5057,-0.00450827,0.00610021,-0.00301903,0.0068992,-0.00530727,-1.31207,0.00706736,0.0197113,1518,1737,9.23323,-56.5057
301,-713,9.09729,55.9084,-0.00514222,0.00660725,-0.00349031,0.00756587,-0.00610084,-1.30275,0.00790558,0.037092,1525,1737,9.09726,-55.9084
308,-713,8.97717,55.3099,0,0,0,0,0,0,0,-1,1532,1737,8.97712,-55.3099
315,-713,9.09229,54.6367,0,0,0,0,0,0,0,-1,1539,1737,9.09225,-54.6368
322,-713,9.14771,54.0642,0,0,0,0,0,0,0,-1,1546,1737,9.14768,-54.0642
329,-713,9.12842,53.7343,0,0,0,0,0,0,0,-1,1553,1737,9.12838,-53.7343
336,-713,9.02124,53.2719,0,0,0,0,0,0,0,-1,1560,1737,9.02125,-53.2718
343,-713,8.22119,52.4517,0,0,0,0,0,0,0,-1,1567,1737,8.22113,-52.4517
350,-713,8.63867,47.4143,0,0,0,0,0,0,0,-1,1574,1737,8.6387,-47.4143
357,-713,8.53796,49.5679,0,0,0,0,0,0,0,-1,1581,1737,8.53795,-49.5679
364,-713,7.52661,46.5348,0,0,0,0,0,0,0,-1,1588,1737,7.52664,-46.5347
371,-713,7.3302,45.0861,0,0,0,0,0,0,0,-1,1595,1737,7.33021,-45.0861
378,-713,6.73975,44.3853,0,0,0,0,0,0,0,-1,1602,1737,6.7397,-44.3853
385,-713,6.58777,43.6438,0,0,0,0,0,0,0,-1,1609,1737,6.58781,-43.6438
392,-713,6.62964,42.8679,0,0,0,0,0,0,0,-1,1616,1737,6.62968,-42.868
399,-713,6.53748,42.0555,0,0,0,0,0,0,0,-1,1623,1737,6.53749,-42.0555
406,-713,2.49878,27.8931,0,0,0,0,0,0,0,-1,1630,1737,2.49884,-27.893
413,-713,1.36597,29.459,0,0,0,0,0,0,0,-1,1637,1737,1.36593,-29.459
420,-713,0,0,0,0,0,0,0,0,0,-1,1644,1737,0,0
427,-713,0,0,0,0,0,0,0,0,0,-1,1651,1737,0,0
434,-713,0,0,0,0,0,0,0,0,0,-1,1658,1737,0,0
441,-713,0,0,0,0,0,0,0,0,0,-1,1665,1737,0,0
448,-713,0,0,0,0,0,0,0,0,0,-1,1672,1737,0,0
455,-713,0,0,0,0,0,0,0,0,0,-1,1679,1737,0,0
462,-713,0,0,0,0,0,0,0,0,0,-1,1686,1737,0,0
469,-713,0,0,0,0,0,0,0,0,0,-1,1693,1737,0,0
476,-713,0,0,0,0,0,0,0,0,0,-1,1700,1737,0,0
483,-713,0,0,0,0,0,0,0,0,0,-1,1707,1737,0,0
490,-713,0,0,0,0,0,0,0,0,0,-1,1714,1737,0,0
497,-713,0,0,0,0,0,0,0,0,0,-1,1721,1737,0,0
504,-713,0,0,0,0,0,0,0,0,0,-1,1728,1737,0,0
511,-713,0,0,0,0,0,0,0,0,0,-1,1735,1737,0,0
518,-713,0,0,0,0,0,0,0,0,0,-1,1742,1737,0,0
525,-713,0,0,0,0,0,0,0,0,0,-1,1749,1737,0,0
532,-713,0,0,0,0,0,0,0,0,0,-1,1756,1737,0,0
539,-713,0,0,0,0,0,0,0,0,0,-1,1763,1737,0,0
546,-713,0,0,0,0,0,0,0,0,0,-1,1770,1737,0,0
553,-713,0,0,0,0,0,0,0,0,0,-1,1777,1737,0,0
560,-713,0,0,0,0,0,0,0,0,0,-1,1784,1737,0,0
567,-713,0,0,0,0,0,0,0,0,0,-1,1791,1737,0,0
574,-713,0,0,0,0,0,0,0,0,0,-1,1798,1737,0,0
581,-713,0,0,0,0,0,0,0,0,0,-1,1805,1737,0,0
588,-713,0,0,0,0,0,0,0,0,0,-1,1812,1737,0,0
595,-713,0,0,0,0,0,0,0,0,0,-1,1819,1737,0,0
602,-713,0,0,0,0,0,0,0,0,0,-1,1826,1737,0,0
609,-713,0,0,0,0,0,0,0,0,0,-1,1833,1737,0,0
616,-713,0,0,0,0,0,0,0,0,0,-1,1840,1737,0,0
623,-713,0,0,0,0,0,0,0,0,0,-1,1847,1737,0,0
630,-713,0,0,0,0,0,0,0,0,0,-1,1854,1737,0,0
637,-713,0,0,0,0,0,0,0,0,0,-1,1861,1737,0,0
644,-713,0,0,0,0,0,0,0,0,0,-1,1868,1737,0,0
651,-713,0,0,0,0,0,0,0,0,0,-1,1875,1737,0,0
658,-713,0,0,0,0,0,0,0,0,0,-1,1882,1737,0,0
665,-713,0,0,0,0,0,0,0,0,0,-1,1889,1737,0,0
672,-713,0,0,0,0,0,0,0,0,0,-1,1896,1737,0,0
679,-713,0,0,0,0,0,0,0,0,0,-1,1903,1737,0,0
686,-713,0,0,0,0,0,0,0,0,0,-1,1910,1737,0,0
693,-713,0,0,0,0,0,0,0,0,0,-1,1917,1737,0,0
700,-713,0,0,0,0,0,0,0,0,0,-1,1924,1737,0,0
707,-713,0,0,0,0,0,0,0,0,0,-1,1931,1737,0,0
714,-713,0,0,0,0,0,0,0,0,0,-1,1938,1737,0,0
721,-713,0,0,0,0,0,0,0,0,0,-1,1945,1737,0,0
728,-713,0,0,0,0,0,0,0,0,0,-1,1952,1737,0,0
735,-713,0,0,0,0,0,0,0,0,0,-1,1959,1737,0,0
742,-713,0,0,0,0,0,0,0,0,0,-1,1966,1737,0,0
749,-713,0,0,0,0,0,0,0,0,0,-1,1973,1737,0,0
756,-713,0,0,0,0,0,0,0,0,0,-1,1980,1737,0,0
763,-713,0,0,0,0,0,0,0,0,0,-1,1987,1737,0,0
770,-713,0,0,0,0,0,0,0,0,0,-1,1994,1737,0,0
777,-713,0,0,0,0,0,0,0,0,0,-1,2001,1737,0,0
784,-713,0,0,0,0,0,0,0,0,0,-1,2008,1737,0,0
791,-713,0,0,0,0,0,0,0,0,0,-1,2015,1737,0,0
798,-713,0,0,0,0,0,0,0,0,0,-1,2022,1737,0,0
805,-713,0,0,0,0,0,0,0,0,0,-1,2029,1737,0,0
812,-713,0,0,0,0,0,0,0,0,0,-1,2036,1737,0,0
-700,-720,0,0,0,0,0,0,0,0,0,-1,524,1744,0,0
-693,-720,0,0,0,0,0,0,0,0,0,-1,531,1744,0,0
-686,-720,0,0,0,0,0,0,0,0,0,-1,538,1744,0,0
-679,-720,0,0,0,0,0,0,0,0,0,-1,545,1744,0,0
-672,-720,0,0,0,0,0,0,0,0,0,-1,552,1744,0,0
-665,-720,0,0,0,0,0,0,0,0,0,-1,559,1744,0,0
-658,-720,0,0,0,0,0,0,0,0,0,-1,566,1744,0,0
-651,-720,0,0,0,0,0,0,0,0,0,-1,573,1744,0,0
-644,-720,0,0,0,0,0,0,0,0,0,-1,580,1744,0,0
-637,-720,0,0,0,0,0,0,0,0,0,-1,587,1744,0,0
-630,-720,0,0,0,0,0,0,0,0,0,-1,594,1744,0,0
-623,-720,0,0,0,0,0,0,0,0,0,-1,601,1744,0,0
-616,-720,0,0,0,0,0,0,0,0,0,-1,608,1744,0,0
-609,-720,0,0,0,0,0,0,0,0,0,-1,615,1744,0,0
-602,-720,0,0,0,0,0,0,0,0,0,-1,622,1744,0,0
-595,-720,0,0,0,0,0,0,0,0,0,-1,629,1744,0,0
-588,-720,0,0,0,0,0,0,0,0,0,-1,636,1744,0,0
-581,-720,0,0,0,0,0,0,0,0,0,-1,643,1744,0,0
-574,-720,0,0,0,0,0,0,0,0,0,-1,650,1744,0,0
-567,-720,0,0,0,0,0,0,0,0,0,-1,657,1744,0,0
-560,-720,0,0,0,0,0,0,0,0,0,-1,664,1744,0,0
-553,-720,0,0,0,0,0,0,0,0,0,-1,671,1744,0,0
-546,-720,0,0,0,0,0,0,0,0,0,-1,678,1744,0,0
-539,-720,0,0,0,0,0,0,0,0,0,-1,685,1744,0,0
-532,-720,0,0,0,0,0,0,0,0,0,-1,692,1744,0,0
-525,-720,0,0,0,0,0,0,0,0,0,-1,699,1744,0,0
-518,-720,0,0,0,0,0,0,0,0,0,-1,706,1744,0,0
-511,-720,0,0,0,0,0,0,0,0,0,-1,713,1744,0,0
-504,-720,0,0,0,0,0,0,0,0,0,-1,720,1744,0,0
-497,-720,0,0,0,0,0,0,0,0,0,-1,727,1744,0,0
-490,-720,0,0,0,0,0,0,0,0,0,-1,734,1744,0,0
-483,-720,0,0,0,0,0,0,0,0,0,-1,741,1744,0,0
-476,-720,0,0,0,0,0,0,0,0,0,-1,748,1744,0,0
-469,-720,0,0,0,0,0,0,0,0,0,-1,755,1744,0,0
-462,-720,0,0,0,0,0,0,0,0,0,-1,762,1744,0,0
-455,-720,0,0,0,0,0,0,0,0,0,-1,769,1744,0,0
-448,-720,0,0,0,0,0,0,0,0,0,-1,776,1744,0,0
-441,-720,0,0,0,0,0,0,0,0,0,-1,783,1744,0,0
-434,-720,0,0,0,0,0,0,0,0,0,-1,790,1744,0,0
-427,-720,0,0,0,0,0,0,0,0,0,-1,797,1744,0,0
-420,-720,0,0,0,0,0,0,0,0,0,-1,804,1744,0,0
-413,-720,0,0,0,0,0,0,0,0,0,-1,811,1744,0,0
-406,-720,0,0,0,0,0,0,0,0,0,-1,818,1744,0,0
-399,-720,0,0,0,0,0,0,0,0,0,-1,825,1744,0,0
-392,-720,0,0,0,0,0,0,0,0,0,-1,832,1744,0,0
-385,-720,0,0,0,0,0,0,0,0,0,-1,839,1744,0,0
-378,-720,0,0,0,0,0,0,0,0,0,-1,846,1744,0,0
-371,-720,0,0,0,0,0,0,0,0,0,-1,853,1744,0,0
-364,-720,0,0,0,0,0,0,0,0,0,-1,860,1744,0,0
-357,-720,0,0,0,0,0,0,0,0,0,-1,867,1744,0,0
-350,-720,0,0,0,0,0,0,0,0,0,-1,874,1744,0,0
-343,-720,0,0,0,0,0,0,0,0,0,-1,881,1744,0,0
-336,-720,0,0,0,0,0,0,0,0,0,-1,888,1744,0,0
-329,-720,0,0,0,0,0,0,0,0,0,-1,895,1744,0,0
-322,-720,0,0,0,0,0,0,0,0,0,-1,902,1744,0,0
-315,-720,0,0,0,0,0,0,0,0,0,-1,909,1744,0,0
-308,-720,0,0,0,0,0,0,0,0,0,-1,916,1744,0,0
-301,-720,0,0,0,0,0,0,0,0,0,-1,923,1744,0,0
-294,-720,0,0,0,0,0,0,0,0,0,-1,930,1744,0,0
-287,-720,0,0,0,0,0,0,0,0,0,-1,937,1744,0,0
-280,-720,6.46796,22.6417,0,0,0,0,0,0,0,-1,944,1744,6.46793,-22.6417
-273,-720,8.54633,13.262,0,0,0,0,0,0,0,-1,951,1744,8.54636,-13.2619
-266,-720,7.28027,13.3165,0,0,0,0,0,0,0,-1,958,1744,7.28026,-13.3166
-259,-720,3.70563,18.6372,0,0,0,0,0,0,0,-1,965,1744,3.70564,-18.6372
-252,-720,4.00989,18.5059,0,0,0,0,0,0,0,-1,972,1744,4.00988,-18.5058
-245,-720,7.05634,33.8489,0,0,0,0,0,0,0,-1,979,1744,7.05634,-33.8489
-238,-720,5.02216,24.1455,0,0,0,0,0,0,0,-1,986,1744,5.02217,-24.1455
-231,-720,9.45819,50.8396,0,0,0,0,0,0,0,-1,993,1744,9.45816,-50.8396
-224,-720,8.57257,52.1987,0,0,0,0,0,0,0,-1,1000,1744,8.57257,-52.1987
-217,-720,9.41168,53.88,0,0,0,0,0,0,0,-1,1007,1744,9.41166,-53.88
-210,-720,8.74036,38.6686,0,0,0,0,0,0,0,-1,1014,1744,8.74035,-38.6686
-203,-720,8.89441,54.4926,0,0,0,0,0,0,0,-1,1021,1744,8.89436,-54.4925
-196,-720,9.80078,54.6158,0,0,0,0,0,0,0,-1,1028,1744,9.80072,-54.6158
-189,-720,9.59424,55.1238,0,0,0,0,0,0,0,-1,1035,1744,9.59418,-55.1238
-182,-720,9.43799,55.344,-0.00498448,0.0117834,0.00486002,0.0130902,-0.00629127,1.30812,0.0114171,0.0493822,1042,1744,9.438,-55.344
-175,-720,9.4635,56.0042,-0.00454833,0.011993,0.00539261,0.0135958,-0.00615107,1.2819,0.0116678,0.0451947,1049,1744,9.4635,-56.0041
-168,-720,9.59351,56.7688,-0.00416216,0.011256,0.00557225,0.013059,-0.00596517,1.25786,0.0112353,0.038509,1056,1744,9.59352,-56.7689
-161,-720,9.29346,57.2504,-0.00397458,0.0111013,0.00573077,0.0130324,-0.00590566,1.24578,0.011189,0.027858,1063,1744,9.29345,-57.2504
-154,-720,9.28247,57.8013,-0.00376287,0.0103566,0.00570163,0.0123715,-0.00577774,1.23111,0.0107065,0.0235222,1070,1744,9.28241,-57.8013
-147,-720,9.19995,58.4031,-0.0034191,0.00936721,0.00542164,0.0113566,-0.00540846,1.21912,0.00988028,0.0256343,1077,1744,9.19989,-58.4031
-140,-720,9.17676,58.877,-0.00298482,0.0086372,0.00506018,0.0105316,-0.00487922,1.21258,0.00909474,0.0218017,1084,1744,9.17676,-58.877
-133,-720,9.12024,59.2638,-0.00270232,0.0079323,0.00467964,0.00969827,-0.00446829,1.20995,0.00836279,0.0164182,1091,1744,9.12022,-59.2637
-126,-720,9.0863,59.6844,-0.00266008,0.00709994,0.00425234,0.00869271,-0.00425285,1.21241,0.00761924,0.0159855,1098,1744,9.08635,-59.6845
-119,-720,9.03125,60.0687,-0.00268632,0.00643943,0.00387433,0.0078624,-0.00410929,1.21881,0.00702416,0.0154082,1105,1744,9.03123,-60.0687
-112,-720,8.99451,60.5126,-0.00230523,0.00642224,0.00383651,0.00786893,-0.00375191,1.2102,0.00684821,0.0144507,1112,1744,8.99453,-60.5125
-105,-720,8.97412,60.9373,-0.00186864,0.00601799,0.00363853,0.00744018,-0.00329083,1.19819,0.00634806,0.0143204,1119,1744,8.97414,-60.9373
-98,-720,8.94922,61.3303,-0.00163669,0.00558258,0.00341515,0.00694213,-0.00299623,1.19194,0.00588674,0.011111,1126,1744,8.94918,-61.3304
-91,-720,8.90723,61.7019,-0.0013691,0.00517213,0.00315727,0.00644743,-0.00264439,1.18691,0.00540007,0.0095404,1133,1744,8.90727,-61.7019
-84,-720,8.86633,62.0748,-0.00121764,0.00425052,0.00274427,0.00539022,-0.00235734,1.17717,0.00458588,0.0107659,1140,1744,8.86631,-62.0748
-77,-720,8.85449,62.4353,-0.000912299,0.00350776,0.00241259,0.00456956,-0.00197409,1.1562,0.00387577,0.0141392,1147,1744,8.85452,-62.4353
-70,-720,8.85815,62.7634,-0.000618438,0.00301609,0.00203173,0.0039247,-0.00152705,1.15027,0.00324745,0.0127971,1154,1744,8.85811,-62.7635
-63,-720,8.8324,63.0795,-0.000386907,0.0027034,0.00165527,0.00342262,-0.00110613,1.1609,0.00272631,0.0119385,1161,1744,8.83245,-63.0795
-56,-720,8.83862,63.3707,-7.91797e-05,0.00214656,0.0012579,0.00271321,-0.000645828,1.14755,0.00205814,0.0138443,1168,1744,8.83862,-63.3708
-49,-720,8.80029,63.6635,9.29543e-05,0.00162287,0.000855769,0.00200573,-0.000289913,1.15011,0.00144353,0.0199726,1175,1744,8.80025,-63.6635
-42,-720,8.79773,63.8975,0.000248031,0.00126338,0.000679228,0.00160369,-9.22826e-05,1.10633,0.00110118,0.0232181,1182,1744,8.79768,-63.8975
-35,-720,8.80774,64.1641,0.000491807,0.000778395,0.000611652,0.00126331,6.88812e-06,0.90046,0.000839923,0.0210517,1189,1744,8.80771,-64.1641
-28,-720,8.82556,64.4183,0.000705213,0.000195012,0.000546276,0.00105302,-0.000152791,0.566955,0.000758092,0.0127057,1196,1744,8.82562,-64.4184
-21,-720,8.81384,64.6395,0.000870128,-0.000379536,0.000584727,0.00110105,-0.000610462,0.376127,0.00100158,0.00969629,1203,1744,8.81385,-64.6395
-14,-720,8.81152,64.8153,0.00104566,-0.000925838,0.000683892,0.00125967,-0.00113984,0.303269,0.00138593,0.0113061,1210,1744,8.81157,-64.8153
-7,-720,8.83325,65.0155,0.00124846,-0.000904729,0.000828568,0.00153039,-0.00118666,0.32797,0.00157286,0.0117918,1217,1744,8.83326,-65.0155
0,-720,8.84485,65.1888,0.00144875,-0.000310557,0.00104912,0.0019382,-0.000800006,0.436517,0.00162579,0.0125815,1224,1744,8.8448,-65.1888
7,-720,8.84802,65.3344,0.00158147,0.000607487,0.0013032,0.0024857,-0.000296737,0.606587,0.00176438,0.0153648,1231,1744,8.84804,-65.3344
14,-720,8.87415,65.4752,0.00172231,0.00159516,0.00151781,0.00317787,0.000139592,0.764467,0.00207362,0.0143614,1238,1744,8.87417,-65.4753
21,-720,8.9021,65.5789,0.00166542,0.00275776,0.00161592,0.00391732,0.000505865,0.948367,0.00246032,0.0115613,1245,1744,8.90213,-65.5789
28,-720,8.90381,65.6733,0.0015242,0.00387233,0.00162678,0.00470447,0.000692065,1.09797,0.00293297,0.0115265,1252,1744,8.90385,-65.6733
35,-720,8.92468,65.7458,0.00147188,0.00489493,0.00161069,0.00553365,0.000833159,1.19327,0.00344513,0.0118385,1259,1744,8.92466,-65.7459
42,-720,8.9502,65.7937,0.00119248,0.00562746,0.00137935,0.00602146,0.00079848,1.29256,0.00377639,0.0121798,1266,1744,8.95018,-65.7937
49,-720,8.98096,65.7786,0.000823264,0.00577016,0.0010553,0.00598587,0.000607547,1.36916,0.00380427,0.0154906,1273,1744,8.98095,-65.7785
56,-720,8.99622,65.7981,0.000397772,0.00553024,0.000607776,0.00560123,0.000326782,1.45452,0.00363013,0.0154587,1280,1744,8.99627,-65.7981
63,-720,9.01917,65.8477,1.91572e-05,0.00485803,0.000214919,0.00486755,9.63034e-06,1.5265,0.00324183,0.0164308,1287,1744,9.01914,-65.8477
70,-720,9.07104,65.8566,-0.000303885,0.00392158,-0.000236397,0.00393476,-0.000317069,-1.51508,0.002735,0.014645,1294,1744,9.07101,-65.8566
77,-720,9.07361,65.8104,-0.00042086,0.00264177,-0.000638144,0.00276941,-0.000548506,-1.37337,0.00205367,0.0161637,1301,1744,9.07367,-65.8105
84,-720,9.0907,65.7286,-0.000422782,0.00135523,-0.000966542,0.00177944,-0.000846992,-1.15722,0.0015479,0.0153446,1308,1744,9.0907,-65.7286
91,-720,9.10754,65.6569,-0.000356964,0.00024453,-0.0012302,0.00121021,-0.00132265,-0.905282,0.00146283,0.0156678,1315,1744,9.10758,-65.6569
98,-720,9.08398,65.5891,-0.00028796,-0.0011582,-0.00146511,0.000805273,-0.00225143,-0.641052,0.00182944,0.0148487,1322,1744,9.08397,-65.5891
105,-720,9.09631,65.5088,-0.00010875,-0.00217761,-0.00152768,0.000701775,-0.00298814,-0.487794,0.00226259,0.0137006,1329,1744,9.09634,-65.5088
112,-720,9.13391,65.3861,0.000181591,-0.00275518,-0.00151596,0.000823725,-0.00339731,-0.400669,0.0025836,0.0123827,1336,1744,9.1339,-65.3862
119,-720,9.15649,65.249,0.000393455,-0.00283768,-0.0013395,0.000876533,-0.00332076,-0.346123,0.0025566,0.0125627,1343,1744,9.15653,-65.249
126,-720,9.20349,65.0721,0.000717145,-0.00280816,-0.00107387,0.00101851,-0.00310952,-0.273592,0.00248315,0.0123745,1350,1744,9.20345,-65.0722
133,-720,9.2312,64.8923,0.000936658,-0.00252343,-0.000817547,0.0011201,-0.00270688,-0.220727,0.00227193,0.0134942,1357,1744,9.2312,-64.8923
140,-720,9.26855,64.7505,0.000939288,-0.00208387,-0.000633014,0.00106648,-0.00221106,-0.198294,0.00193037,0.0199715,1364,1744,9.26857,-64.7505
147,-720,9.25,64.505,0.00100454,-0.0016197,-0.000463889,0.00108413,-0.00169929,-0.169913,0.00162004,0.0207972,1371,1744,9.25001,-64.505
154,-720,9.20447,64.2523,0.00103482,-0.000990319,-0.000399878,0.00111092,-0.00106642,-0.188057,0.00125717,0.0140455,1378,1744,9.20452,-64.2523
161,-720,9.24878,63.9862,0.000969318,-0.000416111,-0.000357582,0.00105617,-0.000502959,-0.238263,0.000918855,0.0103527,1385,1744,9.24872,-63.9862
168,-720,9.2395,63.7153,0.000679976,3.63207e-05,-0.000466988,0.000925291,-0.000208994,-0.483693,0.000697049,0.0110779,1392,1744,9.23947,-63.7154
175,-720,9.21814,63.4177,0.000427505,0.000430528,-0.000570831,0.00099985,-0.000141817,-0.786722,0.000718519,0.0175473,1399,1744,9.21808,-63.4177
182,-720,9.22498,63.1385,0.000151484,0.000823245,-0.000772865,0.00133006,-0.000355331,-0.990382,0.00102587,0.0162637,1406,1744,9.22499,-63.1386
189,-720,9.23474,62.8417,-0.000103197,0.00124057,-0.0010301,0.00179854,-0.000661164,-1.07438,0.00146985,0.0133227,1413,1744,9.2347,-62.8417
196,-720,9.24451,62.5154,-0.000353925,0.00161327,-0.00125004,0.0022203,-0.000960948,-1.11873,0.00188405,0.0142935,1420,1744,9.24454,-62.5154
203,-720,9.20007,62.161,-0.000565404,0.00196168,-0.00145866,0.00262796,-0.00123169,-1.14232,0.00227646,0.0158822,1427,1744,9.20006,-62.1611
210,-720,9.17065,61.8142,-0.000699906,0.00273096,-0.00167186,0.00341091,-0.00137985,-1.18453,0.0028476,0.0138437,1434,1744,9.17061,-61.8142
217,-720,9.15637,61.4397,-0.000890652,0.00338505,-0.00186902,0.00408685,-0.00159246,-1.21159,0.00338273,0.0134359,1441,1744,9.1564,-61.4397
224,-720,9.12988,61.0537,-0.00105325,0.00398549,-0.00210554,0.00474948,-0.00181725,-1.22272,0.00391527,0.0104049,1448,1744,9.1299,-61.0537
231,-720,9.12073,60.6654,-0.00140858,0.00452263,-0.00225995,0.00528559,-0.00217154,-1.24521,0.00442874,0.0107766,1455,1744,9.12069,-60.6654
238,-720,9.08911,60.2557,-0.00173618,0.00505685,-0.0023513,0.00579131,-0.00247064,-1.26804,0.00489678,0.00923692,1462,1744,9.08916,-60.2558
245,-720,9.06201,59.8593,-0.00205321,0.00553132,-0.00249654,0.00627932,-0.00280121,-1.27969,0.00536931,0.0119019,1469,1744,9.06197,-59.8593
252,-720,9.03662,59.4181,-0.00248459,0.00606804,-0.00260482,0.00679891,-0.00321547,-1.29724,0.0059039,0.0127046,1476,1744,9.03661,-59.4181
259,-720,8.99194,58.9634,-0.00289909,0.00639822,-0.00272131,0.00713617,-0.00363704,-1.30599,0.00632833,0.0108669,1483,1744,8.99193,-58.9633
266,-720,8.93823,58.4988,-0.00337698,0.00665358,-0.00286504,0.00741424,-0.00413764,-1.31129,0.00675832,0.00873278,1490,1744,8.93823,-58.4987
273,-720,8.88452,58.0228,-0.00388908,0.00706723,-0.00317414,0.00792037,-0.00474223,-1.30822,0.00738711,0.0148812,1497,1744,8.88447,-58.0229
280,-720,8.78027,57.5383,-0.00447436,0.00734076,-0.00343933,0.00826901,-0.00540261,-1.30718,0.00795093,0.0207504,1504,1744,8.78029,-57.5384
287,-720,8.71008,56.9767,-0.00515202,0.00763794,-0.00372449,0.00864348,-0.00615755,-1.3071,0.00858546,0.0340018,1511,1744,8.71014,-56.9766
294,-720,8.78394,56.4775,0,0,0,0,0,0,0,-1,1518,1744,8.78398,-56.4776
301,-720,8.53381,55.8037,0,0,0,0,0,0,0,-1,1525,1744,8.53385,-55.8037
308,-720,8.48608,51.5551,0,0,0,0,0,0,0,-1,1532,1744,8.48612,-51.555
315,-720,8.66516,48.6633,0,0,0,0,0,0,0,-1,1539,1744,8.6651,-48.6633
322,-720,8.98181,43.5223,0,0,0,0,0,0,0,-1,1546,1744,8.98176,-43.5223
329,-720,9.15906,34.7668,0,0,0,0,0,0,0,-1,1553,1744,9.1591,-34.7669
336,-720,6.14148,26.5682,0,0,0,0,0,0,0,-1,1560,1744,6.14151,-26.5683
343,-720,6.78552,21.3625,0,0,0,0,0,0,0,-1,1567,1744,6.78551,-21.3625
350,-720,4.0741,11.1836,0,0,0,0,0,0,0,-1,1574,1744,4.07412,-11.1836
357,-720,6.90833,21.4504,0,0,0,0,0,0,0,-1,1581,1744,6.90827,-21.4505
364,-720,6.59497,44.1384,0,0,0,0,0,0,0,-1,1588,1744,6.59492,-44.1385
371,-720,6.67773,45.2386,0,0,0,0,0,0,0,-1,1595,1744,6.67779,-45.2386
378,-720,3.88257,25.5404,0,0,0,0,0,0,0,-1,1602,1744,3.88262,-25.5404
385,-720,4.672,37.3854,0,0,0,0,0,0,0,-1,1609,1744,4.67202,-37.3854
392,-720,4.89319,36.2684,0,0,0,0,0,0,0,-1,1616,1744,4.89323,-36.2684
399,-720,2.37317,24.7166,0,0,0,0,0,0,0,-1,1623,1744,2.37317,-24.7166
406,-720,0,0,0,0,0,0,0,0,0,-1,1630,1744,0,0
413,-720,0,0,0,0,0,0,0,0,0,-1,1637,1744,0,0
420,-720,0,0,0,0,0,0,0,0,0,-1,1644,1744,0,0
427,-720,0,0,0,0,0,0,0,0,0,-1,1651,1744,0,0
434,-720,0,0,0,0,0,0,0,0,0,-1,1658,1744,0,0
441,-720,0,0,0,0,0,0,0,0,0,-1,1665,1744,0,0
448,-720,0,0,0,0,0,0,0,0,0,-1,1672,1744,0,0
455,-720,0,0,0,0,0,0,0,0,0,-1,1679,1744,0,0
462,-720,0,0,0,0,0,0,0,0,0,-1,1686,1744,0,0
469,-720,0,0,0,0,0,0,0,0,0,-1,1693,1744,0,0
476,-720,0,0,0,0,0,0,0,0,0,-1,1700,1744,0,0
483,-720,0,0,0,0,0,0,0,0,0,-1,1707,1744,0,0
490,-720,0,0,0,0,0,0,0,0,0,-1,1714,1744,0,0
497,-720,0,0,0,0,0,0,0,0,0,-1,1721,1744,0,0
504,-720,0,0,0,0,0,0,0,0,0,-1,1728,1744,0,0
511,-720,0,0,0,0,0,0,0,0,0,-1,1735,1744,0,0
518,-720,0,0,0,0,0,0,0,0,0,-1,1742,1744,0,0
525,-720,0,0,0,0,0,0,0,0,0,-1,1749,1744,0,0
532,-720,0,0,0,0,0,0,0,0,0,-1,1756,1744,0,0
539,-720,0,0,0,0,0,0,0,0,0,-1,1763,1744,0,0
546,-720,0,0,0,0,0,0,0,0,0,-1,1770,1744,0,0
553,-720,0,0,0,0,0,0,0,0,0,-1,1777,1744,0,0
560,-720,0,0,0,0,0,0,0,0,0,-1,1784,1744,0,0
567,-720,0,0,0,0,0,0,0,0,0,-1,1791,1744,0,0
574,-720,0,0,0,0,0,0,0,0,0,-1,1798,1744,0,0
581,-720,0,0,0,0,0,0,0,0,0,-1,1805,1744,0,0
588,-720,0,0,0,0,0,0,0,0,0,-1,1812,1744,0,0
595,-720,0,0,0,0,0,0,0,0,0,-1,1819,1744,0,0
602,-720,0,0,0,0,0,0,0,0,0,-1,1826,1744,0,0
609,-720,0,0,0,0,0,0,0,0,0,-1,1833,1744,0,0
616,-720,0,0,0,0,0,0,0,0,0,-1,1840,1744,0,0
623,-720,0,0,0,0,0,0,0,0,0,-1,1847,1744,0,0
630,-720,0,0,0,0,0,0,0,0,0,-1,1854,1744,0,0
637,-720,0,0,0,0,0,0,0,0,0,-1,1861,1744,0,0
644,-720,0,0,0,0,0,0,0,0,0,-1,1868,1744,0,0
651,-720,0,0,0,0,0,0,0,0,0,-1,1875,1744,0,0
658,-720,0,0,0,0,0,0,0,0,0,-1,1882,1744,0,0
665,-720,0,0,0,0,0,0,0,0,0,-1,1889,1744,0,0
672,-720,0,0,0,0,0,0,0,0,0,-1,1896,1744,0,0
679,-720,0,0,0,0,0,0,0,0,0,-1,1903,1744,0,0
686,-720,0,0,0,0,0,0,0,0,0,-1,1910,1744,0,0
693,-720,0,0,0,0,0,0,0,0,0,-1,1917,1744,0,0
700,-720,0,0,0,0,0,0,0,0,0,-1,1924,1744,0,0
707,-720,0,0,0,0,0,0,0,0,0,-1,1931,1744,0,0
714,-720,0,0,0,0,0,0,0,0,0,-1,1938,1744,0,0
721,-720,0,0,0,0,0,0,0,0,0,-1,1945,1744,0,0
728,-720,0,0,0,0,0,0,0,0,0,-1,1952,1744,0,0
735,-720,0,0,0,0,0,0,0,0,0,-1,1959,1744,0,0
742,-720,0,0,0,0,0,0,0,0,0,-1,1966,1744,0,0
749,-720,0,0,0,0,0,0,0,0,0,-1,1973,1744,0,0
756,-720,0,0,0,0,0,0,0,0,0,-1,1980,1744,0,0
763,-720,0,0,0,0,0,0,0,0,0,-1,1987,1744,0,0
770,-720,0,0,0,0,0,0,0,0,0,-1,1994,1744,0,0
777,-720,0,0,0,0,0,0,0,0,0,-1,2001,1744,0,0
784,-720,0,0,0,0,0,0,0,0,0,-1,2008,1744,0,0
791,-720,0,0,0,0,0,0,0,0,0,-1,2015,1744,0,0
798,-720,0,0,0,0,0,0,0,0,0,-1,2022,1744,0,0
805,-720,0,0,0,0,0,0,0,0,0,-1,2029,1744,0,0
812,-720,0,0,0,0,0,0,0,0,0,-1,2036,1744,0,0
-700,-727,0,0,0,0,0,0,0,0,0,-1,524,1751,0,0
-693,-727,0,0,0,0,0,0,0,0,0,-1,531,1751,0,0
-686,-727,0,0,0,0,0,0,0,0,0,-1,538,1751,0,0
-679,-727,0,0,0,0,0,0,0,0,0,-1,545,1751,0,0
-672,-727,0,0,0,0,0,0,0,0,0,-1,552,1751,0,0
-665,-727,0,0,0,0,0,0,0,0,0,-1,559,1751,0,0
-658,-727,0,0,0,0,0,0,0,0,0,-1,566,1751,0,0
-651,-727,0,0,0,0,0,0,0,0,0,-1,573,1751,0,0
-644,-727,0,0,0,0,0,0,0,0,0,-1,580,1751,0,0
-637,-727,0,0,0,0,0,0,0,0,0,-1,587,1751,0,0
-630,-727,0,0,0,0,0,0,0,0,0,-1,594,1751,0,0
-623,-727,0,0,0,0,0,0,0,0,0,-1,601,1751,0,0
-616,-727,0,0,0,0,0,0,0,0,0,-1,608,1751,0,0
-609,-727,0,0,0,0,0,0,0,0,0,-1,615,1751,0,0
-602,-727,0,0,0,0,0,0,0,0,0,-1,622,1751,0,0
-595,-727,0,0,0,0,0,0,0,0,0,-1,629,1751,0,0
-588,-727,0,0,0,0,0,0,0,0,0,-1,636,1751,0,0
-581,-727,0,0,0,0,0,0,0,0,0,-1,643,1751,0,0
-574,-727,0,0,0,0,0,0,0,0,0,-1,650,1751,0,0
-567,-727,0,0,0,0,0,0,0,0,0,-1,657,1751,0,0
-560,-727,0,0,0,0,0,0,0,0,0,-1,664,1751,0,0
-553,-727,0,0,0,0,0,0,0,0,0,-1,671,1751,0,0
-546,-727,0,0,0,0,0,0,0,0,0,-1,678,1751,0,0
-539,-727,0,0,0,0,0,0,0,0,0,-1,685,1751,0,0
-532,-727,0,0,0,0,0,0,0,0,0,-1,692,1751,0,0
-525,-727,0,0,0,0,0,0,0,0,0,-1,699,1751,0,0
-518,-727,0,0,0,0,0,0,0,0,0,-1,706,1751,0,0
-511,-727,0,0,0,0,0,0,0,0,0,-1,713,1751,0,0
-504,-727,0,0,0,0,0,0,0,0,0,-1,720,1751,0,0
-497,-727,0,0,0,0,0,0,0,0,0,-1,727,1751,0,0
-490,-727,0,0,0,0,0,0,0,0,0,-1,734,1751,0,0
-483,-727,0,0,0,0,0,0,0,0,0,-1,741,1751,0,0
-476,-727,0,0,0,0,0,0,0,0,0,-1,748,1751,0,0
-469,-727,0,0,0,0,0,0,0,0,0,-1,755,1751,0,0
-462,-727,0,0,0,0,0,0,0,0,0,-1,762,1751,0,0
-455,-727,0,0,0,0,0,0,0,0,0,-1,769,1751,0,0
-448,-727,0,0,0,0,0,0,0,0,0,-1,776,1751,0,0
-441,-727,0,0,0,0,0,0,0,0,0,-1,783,1751,0,0
-434,-727,0,0,0,0,0,0,0,0,0,-1,790,1751,0,0
-427,-727,0,0,0,0,0,0,0,0,0,-1,797,1751,0,0
-420,-727,0,0,0,0,0,0,0,0,0,-1,804,1751,0,0
-413,-727,0,0,0,0,0,0,0,0,0,-1,811,1751,0,0
-406,-727,0,0,0,0,0,0,0,0,0,-1,818,1751,0,0
-399,-727,0,0,0,0,0,0,0,0,0,-1,825,1751,0,0
-392,-727,0,0,0,0,0,0,0,0,0,-1,832,1751,0,0
-385,-727,0,0,0,0,0,0,0,0,0,-1,839,1751,0,0
-378,-727,0,0,0,0,0,0,0,0,0,-1,846,1751,0,0
-371,-727,0,0,0,0,0,0,0,0,0,-1,853,1751,0,0
-364,-727,0,0,0,0,0,0,0,0,0,-1,860,1751,0,0
-357,-727,0,0,0,0,0,0,0,0,0,-1,867,1751,0,0
-350,-727,0,0,0,0,0,0,0,0,0,-1,874,1751,0,0
-343,-727,0,0,0,0,0,0,0,0,0,-1,881,1751,0,0
-336,-727,0,0,0,0,0,0,0,0,0,-1,888,1751,0,0
-329,-727,0,0,0,0,0,0,0,0,0,-1,895,1751,0,0
-322,-727,0,0,0,0,0,0,0,0,0,-1,902,1751,0,0
-315,-727,0,0,0,0,0,0,0,0,0,-1,909,1751,0,0
-308,-727,0,0,0,0,0,0,0,0,0,-1,916,1751,0,0
-301,-727,0,0,0,0,0,0,0,0,0,-1,923,1751,0,0
-294,-727,0,0,0,0,0,0,0,0,0,-1,930,1751,0,0
-287,-727,0,0,0,0,0,0,0,0,0,-1,937,1751,0,0
-280,-727,0,0,0,0,0,0,0,0,0,-1,944,1751,0,0
-273,-727,0,0,0,0,0,0,0,0,0,-1,951,1751,0,0
-266,-727,4.24805,7.61145,0,0,0,0,0,0,0,-1,958,1751,4.24802,-7.6115
-259,-727,3.65228,5.4082,0,0,0,0,0,0,0,-1,965,1751,3.65229,-5.40818
-252,-727,5.8797,32.9292,0,0,0,0,0,0,0,-1,972,1751,5.87972,-32.9292
-245,-727,6.59198,32.2588,0,0,0,0,0,0,0,-1,979,1751,6.59195,-32.2587
-238,-727,6.6189,30.4597,0,0,0,0,0,0,0,-1,986,1751,6.61889,-30.4598
-231,-727,9.95819,51.5021,0,0,0,0,0,0,0,-1,993,1751,9.95818,-51.5021
-224,-727,10.0845,52.0088,0,0,0,0,0,0,0,-1,1000,1751,10.0845,-52.0088
-217,-727,10.2109,52.5154,0,0,0,0,0,0,0,-1,1007,1751,10.2109,-52.5154
-210,-727,5.0921,32.4524,0,0,0,0,0,0,0,-1,1014,1751,5.09209,-32.4523
-203,-727,14.1763,48.6819,0,0,0,0,0,0,0,-1,1021,1751,14.1763,-48.6819
-196,-727,13.0454,48.5956,0,0,0,0,0,0,0,-1,1028,1751,13.0455,-48.5955
-189,-727,10.3168,48.1697,0,0,0,0,0,0,0,-1,1035,1751,10.3168,-48.1697
-182,-727,9.95752,55.2362,0,0,0,0,0,0,0,-1,1042,1751,9.95751,-55.2362
-175,-727,9.94409,55.822,0,0,0,0,0,0,0,-1,1049,1751,9.9441,-55.822
-168,-727,10.1085,56.8231,0,0,0,0,0,0,0,-1,1056,1751,10.1085,-56.8231
-161,-727,9.6615,57.2584,0,0,0,0,0,0,0,-1,1063,1751,9.66156,-57.2584
-154,-727,9.77234,57.6959,0,0,0,0,0,0,0,-1,1070,1751,9.7724,-57.6959
-147,-727,9.73157,58.3912,0,0,0,0,0,0,0,-1,1077,1751,9.73161,-58.3913
-140,-727,9.42944,58.5878,-0.00360328,0.0120258,0.00696078,0.0146764,-0.0062539,1.20696,0.012406,0.0351854,1084,1751,9.4294,-58.5878
-133,-727,9.54468,59.1183,-0.00347512,0.0111597,0.00647784,0.0136151,-0.00593047,1.20849,0.0115717,0.0266735,1091,1751,9.54473,-59.1183
-126,-727,9.45093,59.6682,-0.00361672,0.0101045,0.00595084,0.0123258,-0.00583799,1.21354,0.0107075,0.020654,1098,1751,9.45097,-59.6682
-119,-727,9.43079,60.1121,-0.00384095,0.00919824,0.00545142,0.0111771,-0.00581977,1.22259,0.00997429,0.0248873,1105,1751,9.43084,-60.1121
-112,-727,9.36316,60.3119,-0.00352464,0.00919661,0.00541806,0.0111914,-0.00551943,1.21802,0.0098315,0.0437115,1112,1751,9.36312,-60.3119
-105,-727,9.19153,60.6971,-0.00313472,0.00863731,0.00517468,0.0105885,-0.00508595,1.21021,0.00923368,0.0393894,1119,1751,9.19151,-60.6972
-98,-727,9.26746,61.323,-0.00300281,0.00800487,0.00486985,0.00985002,-0.00484796,1.20862,0.00864814,0.0160436,1126,1751,9.26751,-61.323
-91,-727,9.2605,61.703,-0.0028241,0.00733002,0.0045454,0.00906745,-0.00456152,1.2057,0.00801075,0.011872,1133,1751,9.2605,-61.703
-84,-727,9.21387,62.0795,-0.00282094,0.00586244,0.00399229,0.00741894,-0.00437744,1.19905,0.00688569,0.011915,1140,1751,9.21391,-62.0795
-77,-727,9.17542,62.4263,-0.00258111,0.00465092,0.00354701,0.00610017,-0.00403035,1.18291,0.00588941,0.0126826,1147,1751,9.17537,-62.4263
-70,-727,9.16992,62.7758,-0.00234323,0.00392189,0.00304811,0.00516013,-0.00358147,1.18493,0.00507433,0.0143015,1154,1751,9.16988,-62.7757
-63,-727,9.14587,63.0913,-0.00275927,0.00469698,0.00286392,0.00567002,-0.0037323,1.24327,0.00546672,0.0120764,1161,1751,9.14591,-63.0913
-56,-727,9.10645,63.3812,-0.0029656,0.00505372,0.00257486,0.00580928,-0.00372116,1.28537,0.00554625,0.012678,1168,1751,9.10646,-63.3812
-49,-727,9.06885,63.6565,-0.00293997,0.00482514,0.00202775,0.00532277,-0.0034376,1.33014,0.00509669,0.0151087,1175,1751,9.06884,-63.6566
-42,-727,9.0719,63.9167,-0.00299908,0.00525492,0.001933,0.00568518,-0.00342934,1.35178,0.00531572,0.0189447,1182,1751,9.07191,-63.9167
-35,-727,9.04053,64.1571,-0.00283049,0.00496688,0.00181181,0.00536731,-0.00323092,1.35328,0.00501501,0.017279,1189,1751,9.04052,-64.1571
-28,-727,9.0271,64.4004,-0.00264276,0.00455154,0.00169363,0.0049303,-0.00302152,1.35078,0.00463486,0.0102321,1196,1751,9.02715,-64.4003
-21,-727,9.0083,64.6348,-0.00262633,0.00433303,0.00178013,0.00476194,-0.00305523,1.33436,0.00454896,0.0108847,1203,1751,9.00836,-64.6348
-14,-727,9.01282,64.819,-0.00257022,0.0040511,0.00193377,0.00457449,-0.00309361,1.30647,0.00445462,0.0120706,1210,1751,9.01278,-64.8189
-7,-727,9.01819,65.0133,-0.00244936,0.0038212,0.00206744,0.00444149,-0.00306964,1.27932,0.0043606,0.0152447,1217,1751,9.01825,-65.0134
0,-727,9.00562,65.1918,-0.00226054,0.00414443,0.00227655,0.00487114,-0.00298726,1.2618,0.0045803,0.0152304,1224,1751,9.00561,-65.1918
7,-727,8.99597,65.3164,-0.00205177,0.00454785,0.00246295,0.00536567,-0.00286958,1.2502,0.00482687,0.0151586,1231,1751,8.99593,-65.3164
14,-727,9.0011,65.4556,-0.00182963,0.0050019,0.00256719,0.00585906,-0.0026868,1.24854,0.00504599,0.0150417,1238,1751,9.0011,-65.4556
21,-727,8.98315,65.5756,-0.00169131,0.00554292,0.00257251,0.00636442,-0.00251281,1.26169,0.00528363,0.0127934,1245,1751,8.98313,-65.5756
28,-727,8.99304,65.6576,-0.00159208,0.00603738,0.00250835,0.00678817,-0.00234288,1.27997,0.00547609,0.0117621,1252,1751,8.99308,-65.6577
35,-727,9.02563,65.7334,-0.00140494,0.00641931,0.00236775,0.00708003,-0.00206567,1.29867,0.00553851,0.0128311,1259,1751,9.02559,-65.7334
42,-727,9.01001,65.7828,-0.00110311,0.00671023,0.00202544,0.00720407,-0.00159696,1.33164,0.00541411,0.0131165,1266,1751,9.01005,-65.7829
49,-727,8.98572,65.811,-0.000913745,0.00671007,0.0016693,0.00705956,-0.00126323,1.36442,0.00517906,0.0116303,1273,1751,8.98573,-65.811
56,-727,8.96777,65.8641,-0.000818771,0.0065283,0.00128138,0.00674537,-0.00103584,1.40299,0.00487899,0.0107877,1280,1751,8.96782,-65.8641
63,-727,9.01172,65.8682,-0.000687937,0.006083,0.000851945,0.00618855,-0.000793487,1.44753,0.00441404,0.0130881,1287,1751,9.01178,-65.8682
70,-727,9.06079,65.8336,-0.000547208,0.00559954,0.000423417,0.00562857,-0.000576238,1.50234,0.00395847,0.014737,1294,1751,9.06085,-65.8336
77,-727,9.03967,65.8207,-0.000308605,0.00485381,6.70589e-05,0.00485468,-0.000309476,1.55781,0.00334439,0.0169564,1301,1751,9.03961,-65.8207
84,-727,9.05005,65.7015,3.14093e-05,0.0039426,-0.000287292,0.00396359,1.04194e-05,-1.49786,0.00263893,0.0178577,1308,1751,9.05002,-65.7016
91,-727,9.05847,65.5931,0.000324408,0.00315547,-0.000585827,0.0032719,0.000207972,-1.3746,0.00211536,0.0199579,1315,1751,9.05843,-65.5931
98,-727,8.99988,65.5516,0.000450143,0.0022294,-0.000799584,0.00253592,0.000143621,-1.20472,0.00164483,0.0171938,1322,1751,8.99983,-65.5516
105,-727,9.00269,65.4653,0.000503312,0.0012928,-0.000882072,0.00186443,-6.83144e-05,-0.995794,0.00126634,0.0145324,1329,1751,9.00265,-65.4653
112,-727,9.03674,65.3586,0.000520266,0.000660463,-0.000910326,0.00150339,-0.000322656,-0.823824,0.00112533,0.0115621,1336,1751,9.03673,-65.3587
119,-727,9.05322,65.2339,0.000407932,0.000196585,-0.000839629,0.00114851,-0.000543994,-0.722799,0.000997728,0.00954418,1343,1751,9.05316,-65.2338
126,-727,9.08093,65.046,0.000306965,-0.000154464,-0.000710335,0.000823114,-0.000670613,-0.628374,0.0008639,0.0103437,1350,1751,9.08088,-65.046
133,-727,9.06604,64.8873,0.000145534,-0.000289879,-0.000621369,0.000586231,-0.000730576,-0.616898,0.00076178,0.0152778,1357,1751,9.06604,-64.8873
140,-727,9.08472,64.7577,-0.000170101,-0.000260439,-0.000551899,0.000338474,-0.000769014,-0.744568,0.000655316,0.0227543,1364,1751,9.08471,-64.7576
147,-727,9.05188,64.5133,-0.000604947,-0.00028871,-0.000492483,7.04153e-05,-0.000964072,-0.940732,0.000667426,0.0180917,1371,1751,9.05183,-64.5133
154,-727,9.01563,64.2249,-0.000914411,-0.000115408,-0.000559495,0.000172576,-0.00120239,-1.09544,0.00086488,0.0113549,1378,1751,9.01564,-64.2248
161,-727,9.01343,63.98,-0.00116272,0.000264449,-0.000662047,0.000524266,-0.00142253,-1.19682,0.00116318,0.00954811,1385,1751,9.01338,-63.98
168,-727,8.96338,63.7286,-0.00145867,0.000488655,-0.000789049,0.000768235,-0.00173825,-1.23027,0.0014828,0.0127581,1392,1751,8.96336,-63.7286
175,-727,8.94666,63.4424,-0.00171764,0.000726492,-0.000988414,0.00107618,-0.00206733,-1.23075,0.00184473,0.0186516,1399,1751,8.94666,-63.4424
182,-727,8.97461,63.1603,-0.00188203,0.00100768,-0.00123249,0.00146194,-0.00233629,-1.21768,0.00221219,0.019934,1406,1751,8.97462,-63.1603
189,-727,8.93896,62.8367,-0.00206517,0.00144749,-0.00151691,0.00201187,-0.00262956,-1.2146,0.00268763,0.0124526,1413,1751,8.93895,-62.8367
196,-727,8.91003,62.5016,-0.00231246,0.00196334,-0.00178888,0.00261304,-0.00296216,-1.22242,0.00322094,0.0140676,1420,1751,8.91008,-62.5016
203,-727,8.85095,62.1449,-0.00243764,0.00249374,-0.00203192,0.00322309,-0.00316699,-1.22617,0.00368937,0.0169221,1427,1751,8.85091,-62.1449
210,-727,8.83337,61.8092,-0.00236542,0.00368489,-0.00229333,0.00445591,-0.00313644,-1.24647,0.00440545,0.0169008,1434,1751,8.83335,-61.8092
217,-727,8.79626,61.4596,-0.002389,0.00461785,-0.0025731,0.00546124,-0.00323239,-1.25406,0.00507396,0.0133364,1441,1751,8.79624,-61.4596
224,-727,8.76025,61.0465,-0.00238058,0.00544872,-0.00285153,0.00637718,-0.00330904,-1.25602,0.00568509,0.013451,1448,1751,8.76031,-61.0465
231,-727,8.72278,60.6609,-0.00266519,0.00618048,-0.00301687,0.00711143,-0.00359613,-1.27149,0.00629208,0.0118153,1455,1751,8.72278,-60.6608
238,-727,8.73425,60.1342,-0.00292054,0.00689164,-0.00312657,0.00780321,-0.00383211,-1.2871,0.00684683,0.0245477,1462,1751,8.73421,-60.1342
245,-727,8.72266,59.7502,-0.00315071,0.00753159,-0.00331652,0.00847751,-0.00409663,-1.29296,0.0074051,0.0428,1469,1751,8.72261,-59.7502
252,-727,8.61816,59.4225,0,0,0,0,0,0,0,-1,1476,1751,8.61815,-59.4225
259,-727,8.59155,58.7572,-0.00389129,0.00864279,-0.003606,0.00960617,-0.00485467,-1.30973,0.00849788,0.0446976,1483,1751,8.59154,-58.7573
266,-727,8.56763,58.411,-0.00438412,0.00897834,-0.00372227,0.00994525,-0.00535104,-1.31665,0.00896311,0.0300215,1490,1751,8.56766,-58.411
273,-727,8.578,57.9923,-0.00492638,0.00943079,-0.00407036,0.0105045,-0.00600006,-1.31289,0.00964646,0.0401598,1497,1751,8.57794,-57.9923
280,-727,8.36108,57.6731,0,0,0,0,0,0,0,-1,1504,1751,8.36108,-57.6731
287,-727,8.13025,56.9812,0,0,0,0,0,0,0,-1,1511,1751,8.13027,-56.9812
294,-727,8.48657,53.1189,0,0,0,0,0,0,0,-1,1518,1751,8.48656,-53.1189
301,-727,8.44385,46.1619,0,0,0,0,0,0,0,-1,1525,1751,8.4439,-46.1619
308,-727,8.77002,44.8007,0,0,0,0,0,0,0,-1,1532,1751,8.76996,-44.8006
315,-727,8.10571,41.24,0,0,0,0,0,0,0,-1,1539,1751,8.10567,-41.2399
322,-727,8.24133,40.2081,0,0,0,0,0,0,0,-1,1546,1751,8.24136,-40.2082
329,-727,5.54419,31.0325,0,0,0,0,0,0,0,-1,1553,1751,5.54425,-31.0325
336,-727,5.55823,20.2439,0,0,0,0,0,0,0,-1,1560,1751,5.55829,-20.2438
343,-727,2.41699,8.72095,0,0,0,0,0,0,0,-1,1567,1751,2.41702,-8.72098
350,-727,3.89783,7.50195,0,0,0,0,0,0,0,-1,1574,1751,3.89782,-7.50193
357,-727,4.48462,10.2948,0,0,0,0,0,0,0,-1,1581,1751,4.48464,-10.2948
364,-727,6.96729,17.2365,0,0,0,0,0,0,0,-1,1588,1751,6.96732,-17.2365
371,-727,5.04565,23.2227,0,0,0,0,0,0,0,-1,1595,1751,5.04564,-23.2227
378,-727,4.56726,23.0574,0,0,0,0,0,0,0,-1,1602,1751,4.56727,-23.0574
385,-727,3.52307,22.6431,0,0,0,0,0,0,0,-1,1609,1751,3.52303,-22.643
392,-727,0,0,0,0,0,0,0,0,0,-1,1616,1751,0,0
399,-727,0,0,0,0,0,0,0,0,0,-1,1623,1751,0,0
406,-727,0,0,0,0,0,0,0,0,0,-1,1630,1751,0,0
413,-727,0,0,0,0,0,0,0,0,0,-1,1637,1751,0,0
420,-727,0,0,0,0,0,0,0,0,0,-1,1644,1751,0,0
427,-727,0,0,0,0,0,0,0,0,0,-1,1651,1751,0,0
434,-727,0,0,0,0,0,0,0,0,0,-1,1658,1751,0,0
441,-727,0,0,0,0,0,0,0,0,0,-1,1665,1751,0,0
448,-727,0,0,0,0,0,0,0,0,0,-1,1672,1751,0,0
455,-727,0,0,0,0,0,0,0,0,0,-1,1679,1751,0,0
462,-727,0,0,0,0,0,0,0,0,0,-1,1686,1751,0,0
469,-727,0,0,0,0,0,0,0,0,0,-1,1693,1751,0,0
476,-727,0,0,0,0,0,0,0,0,0,-1,1700,1751,0,0
483,-727,0,0,0,0,0,0,0,0,0,-1,1707,1751,0,0
490,-727,0,0,0,0,0,0,0,0,0,-1,1714,1751,0,0
497,-727,0,0,0,0,0,0,0,0,0,-1,1721,1751,0,0
504,-727,0,0,0,0,0,0,0,0,0,-1,1728,1751,0,0
511,-727,0,0,0,0,0,0,0,0,0,-1,1735,1751,0,0
518,-727,0,0,0,0,0,0,0,0,0,-1,1742,1751,0,0
525,-727,0,0,0,0,0,0,0,0,0,-1,1749,1751,0,0
532,-727,0,0,0,0,0,0,0,0,0,-1,1756,1751,0,0
539,-727,0,0,0,0,0,0,0,0,0,-1,1763,1751,0,0
546,-727,0,0,0,0,0,0,0,0,0,-1,1770,1751,0,0
553,-727,0,0,0,0,0,0,0,0,0,-1,1777,1751,0,0
560,-727,0,0,0,0,0,0,0,0,0,-1,1784,1751,0,0
567,-727,0,0,0,0,0,0,0,0,0,-1,1791,1751,0,0
574,-727,0,0,0,0,0,0,0,0,0,-1,1798,1751,0,0
581,-727,0,0,0,0,0,0,0,0,0,-1,1805,1751,0,0
588,-727,0,0,0,0,0,0,0,0,0,-1,1812,1751,0,0
595,-727,0,0,0,0,0,0,0,0,0,-1,1819,1751,0,0
602,-727,0,0,0,0,0,0,0,0,0,-1,1826,1751,0,0
609,-727,0,0,0,0,0,0,0,0,0,-1,1833,1751,0,0
616,-727,0,0,0,0,0,0,0,0,0,-1,1840,1751,0,0
623,-727,0,0,0,0,0,0,0,0,0,-1,1847,1751,0,0
630,-727,0,0,0,0,0,0,0,0,0,-1,1854,1751,0,0
637,-727,0,0,0,0,0,0,0,0,0,-1,1861,1751,0,0
644,-727,0,0,0,0,0,0,0,0,0,-1,1868,1751,0,0
651,-727,0,0,0,0,0,0,0,0,0,-1,1875,1751,0,0
658,-727,0,0,0,0,0,0,0,0,0,-1,1882,1751,0,0
665,-727,0,0,0,0,0,0,0,0,0,-1,1889,1751,0,0
672,-727,0,0,0,0,0,0,0,0,0,-1,1896,1751,0,0
679,-727,0,0,0,0,0,0,0,0,0,-1,1903,1751,0,0
686,-727,0,0,0,0,0,0,0,0,0,-1,1910,1751,0,0
693,-727,0,0,0,0,0,0,0,0,0,-1,1917,1751,0,0
700,-727,0,0,0,0,0,0,0,0,0,-1,1924,1751,0,0
707,-727,0,0,0,0,0,0,0,0,0,-1,1931,1751,0,0
714,-727,0,0,0,0,0,0,0,0,0,-1,1938,1751,0,0
721,-727,0,0,0,0,0,0,0,0,0,-1,1945,1751,0,0
728,-727,0,0,0,0,0,0,0,0,0,-1,1952,1751,0,0
735,-727,0,0,0,0,0,0,0,0,0,-1,1959,1751,0,0
742,-727,0,0,0,0,0,0,0,0,0,-1,1966,1751,0,0
749,-727,0,0,0,0,0,0,0,0,0,-1,1973,1751,0,0
756,-727,0,0,0,0,0,0,0,0,0,-1,1980,1751,0,0
763,-727,0,0,0,0,0,0,0,0,0,-1,1987,1751,0,0
770,-727,0,0,0,0,0,0,0,0,0,-1,1994,1751,0,0
777,-727,0,0,0,0,0,0,0,0,0,-1,2001,1751,0,0
784,-727,0,0,0,0,0,0,0,0,0,-1,2008,1751,0,0
791,-727,0,0,0,0,0,0,0,0,0,-1,2015,1751,0,0
798,-727,0,0,0,0,0,0,0,0,0,-1,2022,1751,0,0
805,-727,0,0,0,0,0,0,0,0,0,-1,2029,1751,0,0
812,-727,0,0,0,0,0,0,0,0,0,-1,2036,1751,0,0
-700,-734,0,0,0,0,0,0,0,0,0,-1,524,1758,0,0
-693,-734,0,0,0,0,0,0,0,0,0,-1,531,1758,0,0
-686,-734,0,0,0,0,0,0,0,0,0,-1,538,1758,0,0
-679,-734,0,0,0,0,0,0,0,0,0,-1,545,1758,0,0
-672,-734,0,0,0,0,0,0,0,0,0,-1,552,1758,0,0
-665,-734,0,0,0,0,0,0,0,0,0,-1,559,1758,0,0
-658,-734,0,0,0,0,0,0,0,0,0,-1,566,1758,0,0
-651,-734,0,0,0,0,0,0,0,0,0,-1,573,1758,0,0
-644,-734,0,0,0,0,0,0,0,0,0,-1,580,1758,0,0
-637,-734,0,0,0,0,0,0,0,0,0,-1,587,1758,0,0
-630,-734,0,0,0,0,0,0,0,0,0,-1,594,1758,0,0
-623,-734,0,0,0,0,0,0,0,0,0,-1,601,1758,0,0
-616,-734,0,0,0,0,0,0,0,0,0,-1,608,1758,0,0
-609,-734,0,0,0,0,0,0,0,0,0,-1,615,1758,0,0
-602,-734,0,0,0,0,0,0,0,0,0,-1,622,1758,0,0
-595,-734,0,0,0,0,0,0,0,0,0,-1,629,1758,0,0
-588,-734,0,0,0,0,0,0,0,0,0,-1,636,1758,0,0
-581,-734,0,0,0,0,0,0,0,0,0,-1,643,1758,0,0
-574,-734,0,0,0,0,0,0,0,0,0,-1,650,1758,0,0
-567,-734,0,0,0,0,0,0,0,0,0,-1,657,1758,0,0
-560,-734,0,0,0,0,0,0,0,0,0,-1,664,1758,0,0
-553,-734,0,0,0,0,0,0,0,0,0,-1,671,1758,0,0
-546,-734,0,0,0,0,0,0,0,0,0,-1,678,1758,0,0
-539,-734,0,0,0,0,0,0,0,0,0,-1,685,1758,0,0
-532,-734,0,0,0,0,0,0,0,0,0,-1,692,1758,0,0
-525,-734,0,0,0,0,0,0,0,0,0,-1,699,1758,0,0
-518,-734,0,0,0,0,0,0,0,0,0,-1,706,1758,0,0
-511,-734,0,0,0,0,0,0,0,0,0,-1,713,1758,0,0
-504,-734,0,0,0,0,0,0,0,0,0,-1,720,1758,0,0
-497,-734,0,0,0,0,0,0,0,0,0,-1,727,1758,0,0
-490,-734,0,0,0,0,0,0,0,0,0,-1,734,1758,0,0
-483,-734,0,0,0,0,0,0,0,0,0,-1,741,1758,0,0
-476,-734,0,0,0,0,0,0,0,0,0,-1,748,1758,0,0
-469,-734,0,0,0,0,0,0,0,0,0,-1,755,1758,0,0
-462,-734,0,0,0,0,0,0,0,0,0,-1,762,1758,0,0
-455,-734,0,0,0,0,0,0,0,0,0,-1,769,1758,0,0
-448,-734,0,0,0,0,0,0,0,0,0,-1,776,1758,0,0
-441,-734,0,0,0,0,0,0,0,0,0,-1,783,1758,0,0
-434,-734,0,0,0,0,0,0,0,0,0,-1,790,1758,0,0
-427,-734,0,0,0,0,0,0,0,0,0,-1,797,1758,0,0
-420,-734,0,0,0,0,0,0,0,0,0,-1,804,1758,0,0
-413,-734,0,0,0,0,0,0,0,0,0,-1,811,1758,0,0
-406,-734,0,0,0,0,0,0,0,0,0,-1,818,1758,0,0
-399,-734,0,0,0,0,0,0,0,0,0,-1,825,1758,0,0
-392,-734,0,0,0,0,0,0,0,0,0,-1,832,1758,0,0
-385,-734,0,0,0,0,0,0,0,0,0,-1,839,1758,0,0
-378,-734,0,0,0,0,0,0,0,0,0,-1,846,1758,0,0
-371,-734,0,0,0,0,0,0,0,0,0,-1,853,1758,0,0
-364,-734,0,0,0,0,0,0,0,0,0,-1,860,1758,0,0
-357,-734,0,0,0,0,0,0,0,0,0,-1,867,1758,0,0
-350,-734,0,0,0,0,0,0,0,0,0,-1,874,1758,0,0
-343,-734,0,0,0,0,0,0,0,0,0,-1,881,1758,0,0
-336,-734,0,0,0,0,0,0,0,0,0,-1,888,1758,0,0
-329,-734,0,0,0,0,0,0,0,0,0,-1,895,1758,0,0
-322,-734,0,0,0,0,0,0,0,0,0,-1,902,1758,0,0
-315,-734,0,0,0,0,0,0,0,0,0,-1,909,1758,0,0
-308,-734,0,0,0,0,0,0,0,0,0,-1,916,1758,0,0
-301,-734,0,0,0,0,0,0,0,0,0,-1,923,1758,0,0
-294,-734,0,0,0,0,0,0,0,0,0,-1,930,1758,0,0
-287,-734,0,0,0,0,0,0,0,0,0,-1,937,1758,0,0
-280,-734,0,0,0,0,0,0,0,0,0,-1,944,1758,0,0
-273,-734,0,0,0,0,0,0,0,0,0,-1,951,1758,0,0
-266,-734,0,0,0,0,0,0,0,0,0,-1,958,1758,0,0
-259,-734,0,0,0,0,0,0,0,0,0,-1,965,1758,0,0
-252,-734,5.73883,31.5245,0,0,0,0,0,0,0,-1,972,1758,5.73884,-31.5246
-245,-734,6.32513,30.9761,0,0,0,0,0,0,0,-1,979,1758,6.32511,-30.9761
-238,-734,6.82385,30.0449,0,0,0,0,0,0,0,-1,986,1758,6.82387,-30.0449
-231,-734,7.1958,29.1666,0,0,0,0,0,0,0,-1,993,1758,7.19578,-29.1666
-224,-734,10.8631,52.8424,0,0,0,0,0,0,0,-1,1000,1758,10.8631,-52.8424
-217,-734,7.45984,28.4386,0,0,0,0,0,0,0,-1,1007,1758,7.45986,-28.4386
-210,-734,7.45483,28.4388,0,0,0,0,0,0,0,-1,1014,1758,7.45482,-28.4388
-203,-734,14.3309,49.7766,0,0,0,0,0,0,0,-1,1021,1758,14.3309,-49.7766
-196,-734,13.0366,49.6821,0,0,0,0,0,0,0,-1,1028,1758,13.0366,-49.6822
-189,-734,11.8075,49.2727,0,0,0,0,0,0,0,-1,1035,1758,11.8075,-49.2728
-182,-734,10.8073,48.8035,0,0,0,0,0,0,0,-1,1042,1758,10.8072,-48.8035
-175,-734,9.90186,48.634,0,0,0,0,0,0,0,-1,1049,1758,9.90187,-48.6341
-168,-734,8.91504,48.7642,0,0,0,0,0,0,0,-1,1056,1758,8.91505,-48.7641
-161,-734,10.4485,52.0808,0,0,0,0,0,0,0,-1,1063,1758,10.4485,-52.0808
-154,-734,10.3014,52.4893,0,0,0,0,0,0,0,-1,1070,1758,10.3014,-52.4893
-147,-734,10.325,56.6101,0,0,0,0,0,0,0,-1,1077,1758,10.3249,-56.6101
-140,-734,9.86572,58.5765,0,0,0,0,0,0,0,-1,1084,1758,9.86568,-58.5765
-133,-734,9.86743,59.1605,0,0,0,0,0,0,0,-1,1091,1758,9.86738,-59.1605
-126,-734,9.79907,59.6348,0,0,0,0,0,0,0,-1,1098,1758,9.79906,-59.6348
-119,-734,9.82275,60.0482,0,0,0,0,0,0,0,-1,1105,1758,9.8228,-60.0482
-112,-734,9.60278,60.0444,0,0,0,0,0,0,0,-1,1112,1758,9.60282,-60.0444
-105,-734,9.31885,60.3407,0,0,0,0,0,0,0,-1,1119,1758,9.31881,-60.3407
-98,-734,9.56042,61.2908,0,0,0,0,0,0,0,-1,1126,1758,9.56042,-61.2908
-91,-734,9.60254,61.6981,0,0,0,0,0,0,0,-1,1133,1758,9.60252,-61.6982
-84,-734,9.55237,62.0717,0,0,0,0,0,0,0,-1,1140,1758,9.55232,-62.0716
-77,-734,9.50281,62.4567,0,0,0,0,0,0,0,-1,1147,1758,9.50277,-62.4567
-70,-734,9.49976,62.7983,0,0,0,0,0,0,0,-1,1154,1758,9.4997,-62.7984
-63,-734,9.35632,62.892,-0.00595513,0.00855553,0.00480812,0.0100041,-0.0074037,1.27817,0.0100877,0.0367262,1161,1758,9.35631,-62.892
-56,-734,9.37927,63.3561,-0.00743249,0.0109912,0.00521578,0.0123653,-0.0088066,1.3132,0.012281,0.018342,1168,1758,9.37932,-63.3561
-49,-734,9.33789,63.6653,-0.00809048,0.0118133,0.00498387,0.0129915,-0.00926869,1.33865,0.0129117,0.0143702,1175,1758,9.33784,-63.6653
-42,-734,9.29761,63.9434,-0.00861352,0.0135415,0.00520006,0.0147013,-0.00977332,1.35135,0.0142256,0.0157945,1182,1758,9.29765,-63.9434
-35,-734,9.27185,64.1675,-0.00853632,0.0134931,0.00504566,0.0145938,-0.009637,1.35602,0.0140869,0.0156072,1189,1758,9.27181,-64.1674
-28,-734,9.25586,64.3837,-0.00831321,0.0131563,0.00482198,0.0141896,-0.00934648,1.35971,0.0136841,0.0104609,1196,1758,9.25584,-64.3836
-21,-734,9.26379,64.6068,-0.00835497,0.0131503,0.00492354,0.0142239,-0.0094286,1.3561,0.013749,0.01655,1203,1758,9.26374,-64.6068
-14,-734,9.20569,64.8346,-0.00828599,0.0128819,0.00504537,0.0140229,-0.00942705,1.34838,0.0136252,0.0174531,1210,1758,9.20566,-64.8346
-7,-734,9.18323,64.9996,-0.00811194,0.0124409,0.0051063,0.0136396,-0.00931067,1.34022,0.0133287,0.0188473,1217,1758,9.18326,-64.9996
0,-734,9.14819,65.1597,-0.00778626,0.0124129,0.00517403,0.0136611,-0.00903446,1.33408,0.0131937,0.0183536,1224,1758,9.14824,-65.1597
7,-734,9.11523,65.3168,-0.00735779,0.0122548,0.00513178,0.0135164,-0.0086194,1.32973,0.012884,0.0140052,1231,1758,9.11525,-65.3168
14,-734,9.09338,65.4603,-0.00688564,0.0121163,0.00493931,0.0133235,-0.00809286,1.33109,0.012487,0.0142025,1238,1758,9.09337,-65.4604
21,-734,9.052,65.5583,-0.00644059,0.0120657,0.00461879,0.0131544,-0.00752929,1.33931,0.0120881,0.0123728,1245,1758,9.05195,-65.5583
28,-734,9.05457,65.6498,-0.00601546,0.0119791,0.00422972,0.0129238,-0.00696009,1.35107,0.0116508,0.0119858,1252,1758,9.05453,-65.6498
35,-734,9.06775,65.7451,-0.00551852,0.0117989,0.00376786,0.0125831,-0.00630281,1.36558,0.011103,0.0146911,1259,1758,9.06779,-65.7452
42,-734,9.07275,65.7805,-0.00453308,0.0117327,0.00300464,0.0122699,-0.00507035,1.39385,0.010295,0.0128487,1266,1758,9.07272,-65.7805
49,-734,9.03418,65.814,-0.00364778,0.0116837,0.00234733,0.0120351,-0.00399912,1.42222,0.0096371,0.0107803,1273,1758,9.03424,-65.814
56,-734,8.99524,65.8546,-0.00294387,0.0115857,0.00174694,0.0117928,-0.00315096,1.4528,0.00909598,0.0104909,1280,1758,8.99519,-65.8547
63,-734,9.00574,65.8386,-0.002249,0.0115211,0.00107748,0.0116049,-0.00233281,1.49318,0.00862005,0.013641,1287,1758,9.00573,-65.8387
70,-734,8.98975,65.8246,-0.00168187,0.0117363,0.000562254,0.0117598,-0.00170538,1.52899,0.00846578,0.0132967,1294,1758,8.98974,-65.8246
77,-734,8.98254,65.8301,-0.00122865,0.0117949,0.000105834,0.0117957,-0.00122951,1.56267,0.00830406,0.0169072,1301,1758,8.98251,-65.8301
84,-734,8.97815,65.7358,-0.000613154,0.0114123,-0.000413656,0.0114265,-0.000627366,-1.53645,0.00783515,0.0176205,1308,1758,8.97813,-65.7359
91,-734,8.97351,65.668,-0.000201672,0.0111051,-0.00083033,0.0111658,-0.000262323,-1.49788,0.00753281,0.0213236,1315,1758,8.97347,-65.668
98,-734,8.94922,65.6027,-0.000159216,0.0106053,-0.00107498,0.0107116,-0.000265515,-1.47223,0.00723122,0.0155767,1322,1758,8.94921,-65.6027
105,-734,8.93176,65.4993,-0.000407273,0.00976551,-0.00114937,0.00989375,-0.000535517,-1.45968,0.00678139,0.0145107,1329,1758,8.93175,-65.4992
112,-734,8.95581,65.3503,-0.000785977,0.00906018,-0.00117778,0.0091991,-0.000924902,-1.45338,0.00646313,0.0123846,1336,1758,8.95579,-65.3503
119,-734,8.95007,65.1956,-0.00133476,0.008179,-0.00111114,0.00830705,-0.00146281,-1.45606,0.00608453,0.014067,1343,1758,8.95005,-65.1955
126,-734,8.91479,65.0216,-0.00188836,0.00716637,-0.00097842,0.00727089,-0.00199288,-1.46438,0.00563037,0.0157264,1350,1758,8.91475,-65.0216
133,-734,8.86975,64.8341,-0.00240047,0.00622633,-0.000924234,0.00632423,-0.00249838,-1.46526,0.00525096,0.0151669,1357,1758,8.86978,-64.8341
140,-734,8.85364,64.6483,-0.00297696,0.00537692,-0.000885313,0.00546971,-0.00306975,-1.46637,0.00499474,0.0199472,1364,1758,8.85365,-64.6483
147,-734,8.82813,64.4316,-0.00389205,0.00414336,-0.00073789,0.00421056,-0.00395925,-1.47998,0.00471759,0.0136863,1371,1758,8.82808,-64.4317
154,-734,8.78638,64.2288,-0.00443836,0.00324419,-0.000842735,0.00333554,-0.00452972,-1.46281,0.00455842,0.00991474,1378,1758,8.78637,-64.2287
161,-734,8.77063,64.0024,-0.00453033,0.0030669,-0.000984753,0.00319247,-0.0046559,-1.44397,0.00455744,0.00966007,1385,1758,8.77059,-64.0024
168,-734,8.69373,63.7377,-0.00454042,0.00234096,-0.00116943,0.00253426,-0.00473373,-1.40698,0.00425974,0.0151826,1392,1758,8.69372,-63.7376
175,-734,8.66968,63.4583,-0.0043422,0.00160071,-0.00145917,0.00193965,-0.00468114,-1.34256,0.00393023,0.0187661,1399,1758,8.66968,-63.4583
182,-734,8.7052,63.1378,-0.00381831,0.000995499,-0.00168217,0.00152507,-0.00434788,-1.26581,0.00351888,0.0162971,1406,1758,8.70517,-63.1378
189,-734,8.63538,62.8289,-0.00393319,0.0015136,-0.00199915,0.00216859,-0.00458818,-1.25418,0.00398353,0.0122471,1413,1758,8.63538,-62.8289
196,-734,8.58752,62.4994,-0.004195,0.0022081,-0.0023237,0.00296249,-0.0049494,-1.25688,0.0046157,0.0149921,1420,1758,8.58753,-62.4994
203,-734,8.54492,62.121,-0.00427986,0.00297639,-0.00261096,0.00381821,-0.00512168,-1.2589,0.00517971,0.0214769,1427,1758,8.54496,-62.121
210,-734,8.57263,61.7582,-0.00396332,0.00470122,-0.00295902,0.00561531,-0.00487741,-1.27118,0.00606297,0.0378575,1434,1758,8.57263,-61.7582
217,-734,8.45935,61.4233,0,0,0,0,0,0,0,-1,1441,1758,8.45935,-61.4234
224,-734,8.39563,61.1088,0,0,0,0,0,0,0,-1,1448,1758,8.39566,-61.1087
231,-734,8.29407,60.6563,0,0,0,0,0,0,0,-1,1455,1758,8.29412,-60.6562
238,-734,8.40332,59.871,0,0,0,0,0,0,0,-1,1462,1758,8.40334,-59.8709
245,-734,8.40845,59.5039,0,0,0,0,0,0,0,-1,1469,1758,8.40843,-59.5039
252,-734,8.17517,58.5679,0,0,0,0,0,0,0,-1,1476,1758,8.1752,-58.5678
259,-734,8.28577,58.4106,0,0,0,0,0,0,0,-1,1483,1758,8.2858,-58.4106
266,-734,8.19824,58.2704,0,0,0,0,0,0,0,-1,1490,1758,8.19828,-58.2704
273,-734,8.3302,57.9885,0,0,0,0,0,0,0,-1,1497,1758,8.3302,-57.9885
280,-734,7.90149,52.7294,0,0,0,0,0,0,0,-1,1504,1758,7.90153,-52.7294
287,-734,7.56177,50.5933,0,0,0,0,0,0,0,-1,1511,1758,7.56172,-50.5933
294,-734,7.42676,47.7545,0,0,0,0,0,0,0,-1,1518,1758,7.4268,-47.7545
301,-734,7.21814,42.6078,0,0,0,0,0,0,0,-1,1525,1758,7.21809,-42.6078
308,-734,8.0509,41.5156,0,0,0,0,0,0,0,-1,1532,1758,8.05087,-41.5157
315,-734,7.93787,40.8274,0,0,0,0,0,0,0,-1,1539,1758,7.93784,-40.8273
322,-734,7.82483,40.139,0,0,0,0,0,0,0,-1,1546,1758,7.82481,-40.139
329,-734,5.73267,19.656,0,0,0,0,0,0,0,-1,1553,1758,5.73262,-19.656
336,-734,6.71375,23.7469,0,0,0,0,0,0,0,-1,1560,1758,6.71372,-23.7469
343,-734,5.54968,5.14221,0,0,0,0,0,0,0,-1,1567,1758,5.54973,-5.14225
350,-734,5.07397,6.73242,0,0,0,0,0,0,0,-1,1574,1758,5.07402,-6.73243
357,-734,5.05542,7.19189,0,0,0,0,0,0,0,-1,1581,1758,5.05541,-7.19184
364,-734,4.43896,10.4904,0,0,0,0,0,0,0,-1,1588,1758,4.43893,-10.4904
371,-734,7.36975,17.4751,0,0,0,0,0,0,0,-1,1595,1758,7.36972,-17.4752
378,-734,0,0,0,0,0,0,0,0,0,-1,1602,1758,0,0
385,-734,0,0,0,0,0,0,0,0,0,-1,1609,1758,0,0
392,-734,0,0,0,0,0,0,0,0,0,-1,1616,1758,0,0
399,-734,0,0,0,0,0,0,0,0,0,-1,1623,1758,0,0
406,-734,0,0,0,0,0,0,0,0,0,-1,1630,1758,0,0
413,-734,0,0,0,0,0,0,0,0,0,-1,1637,1758,0,0
420,-734,0,0,0,0,0,0,0,0,0,-1,1644,1758,0,0
427,-734,0,0,0,0,0,0,0,0,0,-1,1651,1758,0,0
434,-734,0,0,0,0,0,0,0,0,0,-1,1658,1758,0,0
441,-734,0,0,0,0,0,0,0,0,0,-1,1665,1758,0,0
448,-734,0,0,0,0,0,0,0,0,0,-1,1672,1758,0,0
455,-734,0,0,0,0,0,0,0,0,0,-1,1679,1758,0,0
462,-734,0,0,0,0,0,0,0,0,0,-1,1686,1758,0,0
469,-734,0,0,0,0,0,0,0,0,0,-1,1693,1758,0,0
476,-734,0,0,0,0,0,0,0,0,0,-1,1700,1758,0,0
483,-734,0,0,0,0,0,0,0,0,0,-1,1707,1758,0,0
490,-734,0,0,0,0,0,0,0,0,0,-1,1714,1758,0,0
497,-734,0,0,0,0,0,0,0,0,0,-1,1721,1758,0,0
504,-734,0,0,0,0,0,0,0,0,0,-1,1728,1758,0,0
511,-734,0,0,0,0,0,0,0,0,0,-1,1735,1758,0,0
518,-734,0,0,0,0,0,0,0,0,0,-1,1742,1758,0,0
525,-734,0,0,0,0,0,0,0,0,0,-1,1749,1758,0,0
532,-734,0,0,0,0,0,0,0,0,0,-1,1756,1758,0,0
539,-734,0,0,0,0,0,0,0,0,0,-1,1763,1758,0,0
546,-734,0,0,0,0,0,0,0,0,0,-1,1770,1758,0,0
553,-734,0,0,0,0,0,0,0,0,0,-1,1777,1758,0,0
560,-734,0,0,0,0,0,0,0,0,0,-1,1784,1758,0,0
567,-734,0,0,0,0,0,0,0,0,0,-1,1791,1758,0,0
574,-734,0,0,0,0,0,0,0,0,0,-1,1798,1758,0,0
581,-734,0,0,0,0,0,0,0,0,0,-1,1805,1758,0,0
588,-734,0,0,0,0,0,0,0,0,0,-1,1812,1758,0,0
595,-734,0,0,0,0,0,0,0,0,0,-1,1819,1758,0,0
602,-734,0,0,0,0,0,0,0,0,0,-1,1826,1758,0,0
609,-734,0,0,0,0,0,0,0,0,0,-1,1833,1758,0,0
616,-734,0,0,0,0,0,0,0,0,0,-1,1840,1758,0,0
623,-734,0,0,0,0,0,0,0,0,0,-1,1847,1758,0,0
630,-734,0,0,0,0,0,0,0,0,0,-1,1854,1758,0,0
637,-734,0,0,0,0,0,0,0,0,0,-1,1861,1758,0,0
644,-734,0,0,0,0,0,0,0,0,0,-1,1868,1758,0,0
651,-734,0,0,0,0,0,0,0,0,0,-1,1875,1758,0,0
658,-734,0,0,0,0,0,0,0,0,0,-1,1882,1758,0,0
665,-734,0,0,0,0,0,0,0,0,0,-1,1889,1758,0,0
672,-734,0,0,0,0,0,0,0,0,0,-1,1896,1758,0,0
679,-734,0,0,0,0,0,0,0,0,0,-1,1903,1758,0,0
686,-734,0,0,0,0,0,0,0,0,0,-1,1910,1758,0,0
693,-734,0,0,0,0,0,0,0,0,0,-1,1917,1758,0,0
700,-734,0,0,0,0,0,0,0,0,0,-1,1924,1758,0,0
707,-734,0,0,0,0,0,0,0,0,0,-1,1931,1758,0,0
714,-734,0,0,0,0,0,0,0,0,0,-1,1938,1758,0,0
721,-734,0,0,0,0,0,0,0,0,0,-1,1945,1758,0,0
728,-734,0,0,0,0,0,0,0,0,0,-1,1952,1758,0,0
735,-734,0,0,0,0,0,0,0,0,0,-1,1959,1758,0,0
742,-734,0,0,0,0,0,0,0,0,0,-1,1966,1758,0,0
749,-734,0,0,0,0,0,0,0,0,0,-1,1973,1758,0,0
756,-734,0,0,0,0,0,0,0,0,0,-1,1980,1758,0,0
763,-734,0,0,0,0,0,0,0,0,0,-1,1987,1758,0,0
770,-734,0,0,0,0,0,0,0,0,0,-1,1994,1758,0,0
777,-734,0,0,0,0,0,0,0,0,0,-1,2001,1758,0,0
784,-734,0,0,0,0,0,0,0,0,0,-1,2008,1758,0,0
791,-734,0,0,0,0,0,0,0,0,0,-1,2015,1758,0,0
798,-734,0,0,0,0,0,0,0,0,0,-1,2022,1758,0,0
805,-734,0,0,0,0,0,0,0,0,0,-1,2029,1758,0,0
812,-734,0,0,0,0,0,0,0,0,0,-1,2036,1758,0,0
-700,-741,0,0,0,0,0,0,0,0,0,-1,524,1765,0,0
-693,-741,0,0,0,0,0,0,0,0,0,-1,531,1765,0,0
-686,-741,0,0,0,0,0,0,0,0,0,-1,538,1765,0,0
-679,-741,0,0,0,0,0,0,0,0,0,-1,545,1765,0,0
-672,-741,0,0,0,0,0,0,0,0,0,-1,552,1765,0,0
-665,-741,0,0,0,0,0,0,0,0,0,-1,559,1765,0,0
-658,-741,0,0,0,0,0,0,0,0,0,-1,566,1765,0,0
-651,-741,0,0,0,0,0,0,0,0,0,-1,573,1765,0,0
-644,-741,0,0,0,0,0,0,0,0,0,-1,580,1765,0,0
-637,-741,0,0,0,0,0,0,0,0,0,-1,587,1765,0,0
-630,-741,0,0,0,0,0,0,0,0,0,-1,594,1765,0,0
-623,-741,0,0,0,0,0,0,0,0,0,-1,601,1765,0,0
-616,-741,0,0,0,0,0,0,0,0,0,-1,608,1765,0,0
-609,-741,0,0,0,0,0,0,0,0,0,-1,615,1765,0,0
-602,-741,0,0,0,0,0,0,0,0,0,-1,622,1765,0,0
-595,-741,0,0,0,0,0,0,0,0,0,-1,629,1765,0,0
-588,-741,0,0,0,0,0,0,0,0,0,-1,636,1765,0,0
-581,-741,0,0,0,0,0,0,0,0,0,-1,643,1765,0,0
-574,-741,0,0,0,0,0,0,0,0,0,-1,650,1765,0,0
-567,-741,0,0,0,0,0,0,0,0,0,-1,657,1765,0,0
-560,-741,0,0,0,0,0,0,0,0,0,-1,664,1765,0,0
-553,-741,0,0,0,0,0,0,0,0,0,-1,671,1765,0,0
-546,-741,0,0,0,0,0,0,0,0,0,-1,678,1765,0,0
-539,-741,0,0,0,0,0,0,0,0,0,-1,685,1765,0,0
-532,-741,0,0,0,0,0,0,0,0,0,-1,692,1765,0,0
-525,-741,0,0,0,0,0,0,0,0,0,-1,699,1765,0,0
-518,-741,0,0,0,0,0,0,0,0,0,-1,706,1765,0,0
-511,-741,0,0,0,0,0,0,0,0,0,-1,713,1765,0,0
-504,-741,0,0,0,0,0,0,0,0,0,-1,720,1765,0,0
-497,-741,0,0,0,0,0,0,0,0,0,-1,727,1765,0,0
-490,-741,0,0,0,0,0,0,0,0,0,-1,734,1765,0,0
-483,-741,0,0,0,0,0,0,0,0,0,-1,741,1765,0,0
-476,-741,0,0,0,0,0,0,0,0,0,-1,748,1765,0,0
-469,-741,0,0,0,0,0,0,0,0,0,-1,755,1765,0,0
-462,-741,0,0,0,0,0,0,0,0,0,-1,762,1765,0,0
-455,-741,0,0,0,0,0,0,0,0,0,-1,769,1765,0,0
-448,-741,0,0,0,0,0,0,0,0,0,-1,776,1765,0,0
-441,-741,0,0,0,0,0,0,0,0,0,-1,783,1765,0,0
-434,-741,0,0,0,0,0,0,0,0,0,-1,790,1765,0,0
-427,-741,0,0,0,0,0,0,0,0,0,-1,797,1765,0,0
-420,-741,0,0,0,0,0,0,0,0,0,-1,804,1765,0,0
-413,-741,0,0,0,0,0,0,0,0,0,-1,811,1765,0,0
-406,-741,0,0,0,0,0,0,0,0,0,-1,818,1765,0,0
-399,-741,0,0,0,0,0,0,0,0,0,-1,825,1765,0,0
-392,-741,0,0,0,0,0,0,0,0,0,-1,832,1765,0,0
-385,-741,0,0,0,0,0,0,0,0,0,-1,839,1765,0,0
-378,-741,0,0,0,0,0,0,0,0,0,-1,846,1765,0,0
-371,-741,0,0,0,0,0,0,0,0,0,-1,853,1765,0,0
-364,-741,0,0,0,0,0,0,0,0,0,-1,860,1765,0,0
-357,-741,0,0,0,0,0,0,0,0,0,-1,867,1765,0,0
-350,-741,0,0,0,0,0,0,0,0,0,-1,874,1765,0,0
-343,-741,0,0,0,0,0,0,0,0,0,-1,881,1765,0,0
-336,-741,0,0,0,0,0,0,0,0,0,-1,888,1765,0,0
-329,-741,0,0,0,0,0,0,0,0,0,-1,895,1765,0,0
-322,-741,0,0,0,0,0,0,0,0,0,-1,902,1765,0,0
-315,-741,0,0,0,0,0,0,0,0,0,-1,909,1765,0,0
-308,-741,0,0,0,0,0,0,0,0,0,-1,916,1765,0,0
-301,-741,0,0,0,0,0,0,0,0,0,-1,923,1765,0,0
-294,-741,0,0,0,0,0,0,0,0,0,-1,930,1765,0,0
-287,-741,0,0,0,0,0,0,0,0,0,-1,937,1765,0,0
-280,-741,0,0,0,0,0,0,0,0,0,-1,944,1765,0,0
-273,-741,0,0,0,0,0,0,0,0,0,-1,951,1765,0,0
-266,-741,0,0,0,0,0,0,0,0,0,-1,958,1765,0,0
-259,-741,0,0,0,0,0,0,0,0,0,-1,965,1765,0,0
-252,-741,0,0,0,0,0,0,0,0,0,-1,972,1765,0,0
-245,-741,0,0,0,0,0,0,0,0,0,-1,979,1765,0,0
-238,-741,7.13855,29.8348,0,0,0,0,0,0,0,-1,986,1765,7.13856,-29.8348
-231,-741,7.74182,29.3066,0,0,0,0,0,0,0,-1,993,1765,7.74183,-29.3066
-224,-741,7.80078,29.0964,0,0,0,0,0,0,0,-1,1000,1765,7.80079,-29.0964
-217,-741,8.15863,29.113,0,0,0,0,0,0,0,-1,1007,1765,8.15863,-29.1131
-210,-741,8.37024,29.3896,0,0,0,0,0,0,0,-1,1014,1765,8.37022,-29.3896
-203,-741,7.703,44.0701,0,0,0,0,0,0,0,-1,1021,1765,7.70306,-44.0701
-196,-741,13.1698,50.7012,0,0,0,0,0,0,0,-1,1028,1765,13.1698,-50.7012
-189,-741,12.3024,50.0712,0,0,0,0,0,0,0,-1,1035,1765,12.3023,-50.0712
-182,-741,11.3236,49.675,0,0,0,0,0,0,0,-1,1042,1765,11.3236,-49.675
-175,-741,10.1451,49.7836,0,0,0,0,0,0,0,-1,1049,1765,10.1451,-49.7836
-168,-741,9.26172,49.837,0,0,0,0,0,0,0,-1,1056,1765,9.26167,-49.837
-161,-741,8.42102,49.8832,0,0,0,0,0,0,0,-1,1063,1765,8.42099,-49.8832
-154,-741,10.5177,48.0798,0,0,0,0,0,0,0,-1,1070,1765,10.5177,-48.0798
-147,-741,10.9515,48.8568,0,0,0,0,0,0,0,-1,1077,1765,10.9515,-48.8569
-140,-741,10.5068,51.2876,0,0,0,0,0,0,0,-1,1084,1765,10.5068,-51.2876
-133,-741,10.6208,54.5072,0,0,0,0,0,0,0,-1,1091,1765,10.6208,-54.5072
-126,-741,9.89746,52.7167,0,0,0,0,0,0,0,-1,1098,1765,9.8975,-52.7167
-119,-741,9.33801,50.1482,0,0,0,0,0,0,0,-1,1105,1765,9.33802,-50.1482
-112,-741,9.6283,47.2815,0,0,0,0,0,0,0,-1,1112,1765,9.62827,-47.2815
-105,-741,9.61792,45.9158,0,0,0,0,0,0,0,-1,1119,1765,9.61797,-45.9158
-98,-741,9.19971,40.25,0,0,0,0,0,0,0,-1,1126,1765,9.19971,-40.25
-91,-741,8.40002,36.3687,0,0,0,0,0,0,0,-1,1133,1765,8.40002,-36.3687
-84,-741,7.8877,35.0892,0,0,0,0,0,0,0,-1,1140,1765,7.88776,-35.0892
-77,-741,7.73303,34.1174,0,0,0,0,0,0,0,-1,1147,1765,7.73304,-34.1174
-70,-741,7.5437,32.0275,0,0,0,0,0,0,0,-1,1154,1765,7.5437,-32.0275
-63,-741,9.39001,62.5297,0,0,0,0,0,0,0,-1,1161,1765,9.39002,-62.5297
-56,-741,9.67834,63.2888,0,0,0,0,0,0,0,-1,1168,1765,9.67831,-63.2888
-49,-741,9.60254,63.7312,0,0,0,0,0,0,0,-1,1175,1765,9.60257,-63.7312
-42,-741,9.49915,64.0159,0,0,0,0,0,0,0,-1,1182,1765,9.49914,-64.0159
-35,-741,9.5,64.1865,-0.0159681,0.0272811,0.0107,0.0297836,-0.0184705,1.34105,0.0281136,0.024736,1189,1765,9.49994,-64.1866
-28,-741,9.48572,64.4058,-0.0156697,0.0267758,0.0103048,0.0291453,-0.0180392,1.34478,0.0274924,0.0154145,1196,1765,9.48569,-64.4058
-21,-741,9.48145,64.6167,-0.0156537,0.0264965,0.0102373,0.0288513,-0.0180085,1.3447,0.0272949,0.0202572,1203,1765,9.48141,-64.6167
-14,-741,9.39478,64.8387,-0.0154707,0.0257771,0.0101478,0.0281384,-0.017832,1.34217,0.0267625,0.0211565,1210,1765,9.39479,-64.8388
-7,-741,9.32983,64.9814,-0.0151521,0.024808,0.00998874,0.0271657,-0.0175099,1.339,0.0259935,0.0171313,1217,1765,9.3298,-64.9814
0,-741,9.2804,65.1215,-0.0146287,0.0242774,0.0097999,0.0266064,-0.0169578,1.33747,0.0253566,0.0161812,1224,1765,9.28045,-65.1214
7,-741,9.23413,65.2979,-0.0139345,0.0235149,0.00943101,0.0257558,-0.0161755,1.33751,0.0244188,0.0178985,1231,1765,9.23408,-65.2978
14,-741,9.21802,65.4308,-0.0131504,0.022788,0.00884415,0.0248465,-0.015209,1.34211,0.0233481,0.0169125,1238,1765,9.21799,-65.4308
21,-741,9.17285,65.5299,-0.0123185,0.0222988,0.00806375,0.024085,-0.0141047,1.35281,0.0222984,0.0135604,1245,1765,9.17282,-65.5299
28,-741,9.13196,65.6584,-0.0115111,0.0218107,0.00720683,0.0233026,-0.013003,1.36667,0.0212404,0.0133717,1252,1765,9.13198,-65.6584
35,-741,9.12256,65.7056,-0.0106325,0.021354,0.00625431,0.0225334,-0.0118119,1.38441,0.0201487,0.015127,1259,1765,9.12251,-65.7056
42,-741,9.08643,65.7406,-0.00891587,0.0211811,0.00475408,0.0219142,-0.00964897,1.4178,0.018676,0.0160205,1266,1765,9.08636,-65.7405
49,-741,9.06787,65.793,-0.00728128,0.021315,0.00347527,0.0217313,-0.00769757,1.45158,0.017623,0.0108432,1273,1765,9.06784,-65.793
56,-741,9.01978,65.8271,-0.0059742,0.0216037,0.00231601,0.0217969,-0.00616735,1.48759,0.0169649,0.010595,1280,1765,9.01975,-65.8272
63,-741,8.99011,65.8209,-0.00474338,0.0220802,0.00109817,0.0221251,-0.00478826,1.52995,0.0165783,0.0151738,1287,1765,8.99008,-65.8209
70,-741,8.95691,65.8263,-0.00388254,0.0232561,0.000231911,0.023258,-0.00388452,1.56225,0.0169492,0.0169035,1294,1765,8.95686,-65.8263
77,-741,8.92847,65.8098,-0.0033451,0.02429,-0.000536392,0.0243004,-0.00335551,-1.5514,0.0174268,0.0137166,1301,1765,8.92847,-65.8098
84,-741,8.89185,65.7725,-0.00256098,0.0245697,-0.00135467,0.0246371,-0.00262845,-1.52103,0.0173673,0.0164877,1308,1765,8.89184,-65.7725
91,-741,8.85901,65.7236,-0.00214276,0.0248601,-0.00194507,0.0249994,-0.00228215,-1.49926,0.0174768,0.0143718,1315,1765,8.85897,-65.7236
98,-741,8.84448,65.5994,-0.00228321,0.0247457,-0.00224562,0.024931,-0.00246851,-1.48847,0.0175016,0.0108484,1322,1765,8.84445,-65.5994
105,-741,8.83447,65.4697,-0.0028549,0.0240227,-0.00228086,0.0242149,-0.00304708,-1.48674,0.0172489,0.0105867,1329,1765,8.83451,-65.4697
112,-741,8.85718,65.3184,-0.00360154,0.0233429,-0.00221962,0.0235246,-0.00378317,-1.48915,0.0170843,0.0110013,1336,1765,8.85719,-65.3183
119,-741,8.79895,65.1685,-0.00453465,0.0221591,-0.0020243,0.0223117,-0.00468729,-1.49554,0.0166582,0.0138954,1343,1765,8.79895,-65.1685
126,-741,8.74268,65.0048,-0.00547231,0.0203826,-0.00173807,0.0204989,-0.00558863,-1.50397,0.0158605,0.0186905,1350,1765,8.74266,-65.0048
133,-741,8.6908,64.8253,-0.00625234,0.0184216,-0.00155907,0.0185197,-0.00635046,-1.50794,0.0149208,0.015265,1357,1765,8.69076,-64.8253
140,-741,8.65625,64.6169,-0.00697898,0.0161567,-0.00138886,0.0162398,-0.00706206,-1.51105,0.0137968,0.0117631,1364,1765,8.65622,-64.6169
147,-741,8.60974,64.4069,-0.00826885,0.0131883,-0.000987567,0.0132337,-0.00831421,-1.5249,0.0125483,0.0109674,1371,1765,8.60974,-64.4069
154,-741,8.55847,64.2258,-0.00895684,0.0105856,-0.00107296,0.0106443,-0.00901558,-1.51611,0.0113636,0.00962758,1378,1765,8.55851,-64.2258
161,-741,8.53552,63.9965,-0.008745,0.008979,-0.00126094,0.00906826,-0.00883426,-1.50013,0.0103363,0.01184,1385,1765,8.5355,-63.9965
168,-741,8.47559,63.75,-0.00826151,0.00641675,-0.00154089,0.00657677,-0.00842153,-1.46732,0.00868108,0.0266197,1392,1765,8.47559,-63.75
175,-741,8.36792,63.4708,0,0,0,0,0,0,0,-1,1399,1765,8.36788,-63.4708
182,-741,8.38782,63.1484,0,0,0,0,0,0,0,-1,1406,1765,8.38779,-63.1485
189,-741,8.30078,62.8643,0,0,0,0,0,0,0,-1,1413,1765,8.30075,-62.8643
196,-741,8.25574,62.5328,0,0,0,0,0,0,0,-1,1420,1765,8.25569,-62.5328
203,-741,8.23755,62.0878,0,0,0,0,0,0,0,-1,1427,1765,8.23759,-62.0878
210,-741,8.16443,61.4587,0,0,0,0,0,0,0,-1,1434,1765,8.1644,-61.4588
217,-741,8.4032,40.1213,0,0,0,0,0,0,0,-1,1441,1765,8.40325,-40.1214
224,-741,8.0719,38.4249,0,0,0,0,0,0,0,-1,1448,1765,8.07187,-38.4249
231,-741,7.95923,39.0671,0,0,0,0,0,0,0,-1,1455,1765,7.9592,-39.0671
238,-741,7.96619,42.4865,0,0,0,0,0,0,0,-1,1462,1765,7.96621,-42.4864
245,-741,8.53577,45.7744,0,0,0,0,0,0,0,-1,1469,1765,8.53581,-45.7744
252,-741,8.59167,47.473,0,0,0,0,0,0,0,-1,1476,1765,8.59162,-47.473
259,-741,8.47412,48.5269,0,0,0,0,0,0,0,-1,1483,1765,8.47412,-48.5269
266,-741,8.50134,48.3838,0,0,0,0,0,0,0,-1,1490,1765,8.50132,-48.3838
273,-741,8.81421,49.1227,0,0,0,0,0,0,0,-1,1497,1765,8.81426,-49.1227
280,-741,7.33093,51.4729,0,0,0,0,0,0,0,-1,1504,1765,7.33092,-51.4729
287,-741,7.52783,49.7068,0,0,0,0,0,0,0,-1,1511,1765,7.52783,-49.7068
294,-741,5.91187,43.7742,0,0,0,0,0,0,0,-1,1518,1765,5.91188,-43.7742
301,-741,6.20667,38.5165,0,0,0,0,0,0,0,-1,1525,1765,6.20667,-38.5165
308,-741,7.99036,42.5969,0,0,0,0,0,0,0,-1,1532,1765,7.99037,-42.5969
315,-741,7.83838,41.6693,0,0,0,0,0,0,0,-1,1539,1765,7.83835,-41.6694
322,-741,7.68628,40.7418,0,0,0,0,0,0,0,-1,1546,1765,7.68633,-40.7418
329,-741,4.74414,17.928,0,0,0,0,0,0,0,-1,1553,1765,4.74414,-17.928
336,-741,5.74304,22.0945,0,0,0,0,0,0,0,-1,1560,1765,5.74306,-22.0945
343,-741,7.09888,26.501,0,0,0,0,0,0,0,-1,1567,1765,7.09885,-26.501
350,-741,4.90369,5.44666,0,0,0,0,0,0,0,-1,1574,1765,4.90368,-5.44664
357,-741,4.02063,5.16626,0,0,0,0,0,0,0,-1,1581,1765,4.02058,-5.1662
364,-741,0,0,0,0,0,0,0,0,0,-1,1588,1765,0,0
371,-741,0,0,0,0,0,0,0,0,0,-1,1595,1765,0,0
378,-741,0,0,0,0,0,0,0,0,0,-1,1602,1765,0,0
385,-741,0,0,0,0,0,0,0,0,0,-1,1609,1765,0,0
392,-741,0,0,0,0,0,0,0,0,0,-1,1616,1765,0,0
399,-741,0,0,0,0,0,0,0,0,0,-1,1623,1765,0,0
406,-741,0,0,0,0,0,0,0,0,0,-1,1630,1765,0,0
413,-741,0,0,0,0,0,0,0,0,0,-1,1637,1765,0,0
420,-741,0,0,0,0,0,0,0,0,0,-1,1644,1765,0,0
427,-741,0,0,0,0,0,0,0,0,0,-1,1651,1765,0,0
434,-741,0,0,0,0,0,0,0,0,0,-1,1658,1765,0,0
441,-741,0,0,0,0,0,0,0,0,0,-1,1665,1765,0,0
448,-741,0,0,0,0,0,0,0,0,0,-1,1672,1765,0,0
455,-741,0,0,0,0,0,0,0,0,0,-1,1679,1765,0,0
462,-741,0,0,0,0,0,0,0,0,0,-1,1686,1765,0,0
469,-741,0,0,0,0,0,0,0,0,0,-1,1693,1765,0,0
476,-741,0,0,0,0,0,0,0,0,0,-1,1700,1765,0,0
483,-741,0,0,0,0,0,0,0,0,0,-1,1707,1765,0,0
490,-741,0,0,0,0,0,0,0,0,0,-1,1714,1765,0,0
497,-741,0,0,0,0,0,0,0,0,0,-1,1721,1765,0,0
504,-741,0,0,0,0,0,0,0,0,0,-1,1728,1765,0,0
511,-741,0,0,0,0,0,0,0,0,0,-1,1735,1765,0,0
518,-741,0,0,0,0,0,0,0,0,0,-1,1742,1765,0,0
525,-741,0,0,0,0,0,0,0,0,0,-1,1749,1765,0,0
532,-741,0,0,0,0,0,0,0,0,0,-1,1756,1765,0,0
539,-741,0,0,0,0,0,0,0,0,0,-1,1763,1765,0,0
546,-741,0,0,0,0,0,0,0,0,0,-1,1770,1765,0,0
553,-741,0,0,0,0,0,0,0,0,0,-1,1777,1765,0,0
560,-741,0,0,0,0,0,0,0,0,0,-1,1784,1765,0,0
567,-741,0,0,0,0,0,0,0,0,0,-1,1791,1765,0,0
574,-741,0,0,0,0,0,0,0,0,0,-1,1798,1765,0,0
581,-741,0,0,0,0,0,0,0,0,0,-1,1805,1765,0,0
588,-741,0,0,0,0,0,0,0,0,0,-1,1812,1765,0,0
595,-741,0,0,0,0,0,0,0,0,0,-1,1819,1765,0,0
602,-741,0,0,0,0,0,0,0,0,0,-1,1826,1765,0,0
609,-741,0,0,0,0,0,0,0,0,0,-1,1833,1765,0,0
616,-741,0,0,0,0,0,0,0,0,0,-1,1840,1765,0,0
623,-741,0,0,0,0,0,0,0,0,0,-1,1847,1765,0,0
630,-741,0,0,0,0,0,0,0,0,0,-1,1854,1765,0,0
637,-741,0,0,0,0,0,0,0,0,0,-1,1861,1765,0,0
644,-741,0,0,0,0,0,0,0,0,0,-1,1868,1765,0,0
651,-741,0,0,0,0,0,0,0,0,0,-1,1875,1765,0,0
658,-741,0,0,0,0,0,0,0,0,0,-1,1882,1765,0,0
665,-741,0,0,0,0,0,0,0,0,0,-1,1889,1765,0,0
672,-741,0,0,0,0,0,0,0,0,0,-1,1896,1765,0,0
679,-741,0,0,0,0,0,0,0,0,0,-1,1903,1765,0,0
686,-741,0,0,0,0,0,0,0,0,0,-1,1910,1765,0,0
693,-741,0,0,0,0,0,0,0,0,0,-1,1917,1765,0,0
700,-741,0,0,0,0,0,0,0,0,0,-1,1924,1765,0,0
707,-741,0,0,0,0,0,0,0,0,0,-1,1931,1765,0,0
714,-741,0,0,0,0,0,0,0,0,0,-1,1938,1765,0,0
721,-741,0,0,0,0,0,0,0,0,0,-1,1945,1765,0,0
728,-741,0,0,0,0,0,0,0,0,0,-1,1952,1765,0,0
735,-741,0,0,0,0,0,0,0,0,0,-1,1959,1765,0,0
742,-741,0,0,0,0,0,0,0,0,0,-1,1966,1765,0,0
749,-741,0,0,0,0,0,0,0,0,0,-1,1973,1765,0,0
756,-741,0,0,0,0,0,0,0,0,0,-1,1980,1765,0,0
763,-741,0,0,0,0,0,0,0,0,0,-1,1987,1765,0,0
770,-741,0,0,0,0,0,0,0,0,0,-1,1994,1765,0,0
777,-741,0,0,0,0,0,0,0,0,0,-1,2001,1765,0,0
784,-741,0,0,0,0,0,0,0,0,0,-1,2008,1765,0,0
791,-741,0,0,0,0,0,0,0,0,0,-1,2015,1765,0,0
798,-741,0,0,0,0,0,0,0,0,0,-1,2022,1765,0,0
805,-741,0,0,0,0,0,0,0,0,0,-1,2029,1765,0,0
812,-741,0,0,0,0,0,0,0,0,0,-1,2036,1765,0,0
-700,-748,0,0,0,0,0,0,0,0,0,-1,524,1772,0,0
-693,-748,0,0,0,0,0,0,0,0,0,-1,531,1772,0,0
-686,-748,0,0,0,0,0,0,0,0,0,-1,538,1772,0,0
-679,-748,0,0,0,0,0,0,0,0,0,-1,545,1772,0,0
-672,-748,0,0,0,0,0,0,0,0,0,-1,552,1772,0,0
-665,-748,0,0,0,0,0,0,0,0,0,-1,559,1772,0,0
-658,-748,0,0,0,0,0,0,0,0,0,-1,566,1772,0,0
-651,-748,0,0,0,0,0,0,0,0,0,-1,573,1772,0,0
-644,-748,0,0,0,0,0,0,0,0,0,-1,580,1772,0,0
-637,-748,0,0,0,0,0,0,0,0,0,-1,587,1772,0,0
-630,-748,0,0,0,0,0,0,0,0,0,-1,594,1772,0,0
-623,-748,0,0,0,0,0,0,0,0,0,-1,601,1772,0,0
-616,-748,0,0,0,0,0,0,0,0,0,-1,608,1772,0,0
-609,-748,0,0,0,0,0,0,0,0,0,-1,615,1772,0,0
-602,-748,0,0,0,0,0,0,0,0,0,-1,622,1772,0,0
-595,-748,0,0,0,0,0,0,0,0,0,-1,629,1772,0,0
-588,-748,0,0,0,0,0,0,0,0,0,-1,636,1772,0,0
-581,-748,0,0,0,0,0,0,0,0,0,-1,643,1772,0,0
-574,-748,0,0,0,0,0,0,0,0,0,-1,650,1772,0,0
-567,-748,0,0,0,0,0,0,0,0,0,-1,657,1772,0,0
-560,-748,0,0,0,0,0,0,0,0,0,-1,664,1772,0,0
-553,-748,0,0,0,0,0,0,0,0,0,-1,671,1772,0,0
-546,-748,0,0,0,0,0,0,0,0,0,-1,678,1772,0,0
-539,-748,0,0,0,0,0,0,0,0,0,-1,685,1772,0,0
-532,-748,0,0,0,0,0,0,0,0,0,-1,692,1772,0,0
-525,-748,0,0,0,0,0,0,0,0,0,-1,699,1772,0,0
-518,-748,0,0,0,0,0,0,0,0,0,-1,706,1772,0,0
-511,-748,0,0,0,0,0,0,0,0,0,-1,713,1772,0,0
-504,-748,0,0,0,0,0,0,0,0,0,-1,720,1772,0,0
-497,-748,0,0,0,0,0,0,0,0,0,-1,727,1772,0,0
-490,-748,0,0,0,0,0,0,0,0,0,-1,734,1772,0,0
-483,-748,0,0,0,0,0,0,0,0,0,-1,741,1772,0,0
-476,-748,0,0,0,0,0,0,0,0,0,-1,748,1772,0,0
-469,-748,0,0,0,0,0,0,0,0,0,-1,755,1772,0,0
-462,-748,0,0,0,0,0,0,0,0,0,-1,762,1772,0,0
-455,-748,0,0,0,0,0,0,0,0,0,-1,769,1772,0,0
-448,-748,0,0,0,0,0,0,0,0,0,-1,776,1772,0,0
-441,-748,0,0,0,0,0,0,0,0,0,-1,783,1772,0,0
-434,-748,0,0,0,0,0,0,0,0,0,-1,790,1772,0,0
-427,-748,0,0,0,0,0,0,0,0,0,-1,797,1772,0,0
-420,-748,0,0,0,0,0,0,0,0,0,-1,804,1772,0,0
-413,-748,0,0,0,0,0,0,0,0,0,-1,811,1772,0,0
-406,-748,0,0,0,0,0,0,0,0,0,-1,818,1772,0,0
-399,-748,0,0,0,0,0,0,0,0,0,-1,825,1772,0,0
-392,-748,0,0,0,0,0,0,0,0,0,-1,832,1772,0,0
-385,-748,0,0,0,0,0,0,0,0,0,-1,839,1772,0,0
-378,-748,0,0,0,0,0,0,0,0,0,-1,846,1772,0,0
-371,-748,0,0,0,0,0,0,0,0,0,-1,853,1772,0,0
-364,-748,0,0,0,0,0,0,0,0,0,-1,860,1772,0,0
-357,-748,0,0,0,0,0,0,0,0,0,-1,867,1772,0,0
-350,-748,0,0,0,0,0,0,0,0,0,-1,874,1772,0,0
-343,-748,0,0,0,0,0,0,0,0,0,-1,881,1772,0,0
-336,-748,0,0,0,0,0,0,0,0,0,-1,888,1772,0,0
-329,-748,0,0,0,0,0,0,0,0,0,-1,895,1772,0,0
-322,-748,0,0,0,0,0,0,0,0,0,-1,902,1772,0,0
-315,-748,0,0,0,0,0,0,0,0,0,-1,909,1772,0,0
-308,-748,0,0,0,0,0,0,0,0,0,-1,916,1772,0,0
-301,-748,0,0,0,0,0,0,0,0,0,-1,923,1772,0,0
-294,-748,0,0,0,0,0,0,0,0,0,-1,930,1772,0,0
-287,-748,0,0,0,0,0,0,0,0,0,-1,937,1772,0,0
-280,-748,0,0,0,0,0,0,0,0,0,-1,944,1772,0,0
-273,-748,0,0,0,0,0,0,0,0,0,-1,951,1772,0,0
-266,-748,0,0,0,0,0,0,0,0,0,-1,958,1772,0,0
-259,-748,0,0,0,0,0,0,0,0,0,-1,965,1772,0,0
-252,-748,0,0,0,0,0,0,0,0,0,-1,972,1772,0,0
-245,-748,0,0,0,0,0,0,0,0,0,-1,979,1772,0,0
-238,-748,0,0,0,0,0,0,0,0,0,-1,986,1772,0,0
-231,-748,0,0,0,0,0,0,0,0,0,-1,993,1772,0,0
-224,-748,0,0,0,0,0,0,0,0,0,-1,1000,1772,0,0
-217,-748,8.97742,29.9884,0,0,0,0,0,0,0,-1,1007,1772,8.97744,-29.9884
-210,-748,8.8941,30.14,0,0,0,0,0,0,0,-1,1014,1772,8.8941,-30.14
-203,-748,7.88,43.3942,0,0,0,0,0,0,0,-1,1021,1772,7.87999,-43.3941
-196,-748,7.95483,43.9952,0,0,0,0,0,0,0,-1,1028,1772,7.95478,-43.9953
-189,-748,8.18359,44.5873,0,0,0,0,0,0,0,-1,1035,1772,8.18358,-44.5873
-182,-748,8.49304,45.5183,0,0,0,0,0,0,0,-1,1042,1772,8.49308,-45.5183
-175,-748,10.4392,50.6167,0,0,0,0,0,0,0,-1,1049,1772,10.4392,-50.6167
-168,-748,9.54541,50.6587,0,0,0,0,0,0,0,-1,1056,1772,9.54547,-50.6586
-161,-748,10.7574,47.7889,0,0,0,0,0,0,0,-1,1063,1772,10.7574,-47.7889
-154,-748,11.4552,48.7113,0,0,0,0,0,0,0,-1,1070,1772,11.4552,-48.7113
-147,-748,11.7789,49.4792,0,0,0,0,0,0,0,-1,1077,1772,11.7789,-49.4793
-140,-748,10.4108,44.9001,0,0,0,0,0,0,0,-1,1084,1772,10.4107,-44.9001
-133,-748,7.44727,22.0308,0,0,0,0,0,0,0,-1,1091,1772,7.44728,-22.0308
-126,-748,5.98035,22.6067,0,0,0,0,0,0,0,-1,1098,1772,5.9803,-22.6067
-119,-748,6.63342,26.309,0,0,0,0,0,0,0,-1,1105,1772,6.6334,-26.3089
-112,-748,6.91333,24.923,0,0,0,0,0,0,0,-1,1112,1772,6.91339,-24.923
-105,-748,6.83313,25.0537,0,0,0,0,0,0,0,-1,1119,1772,6.83311,-25.0537
-98,-748,8.13623,30.8743,0,0,0,0,0,0,0,-1,1126,1772,8.13628,-30.8742
-91,-748,4.85352,15.3033,0,0,0,0,0,0,0,-1,1133,1772,4.85351,-15.3033
-84,-748,-0.192017,7.26196,0,0,0,0,0,0,0,-1,1140,1772,-0.192047,-7.26201
-77,-748,4.42615,13.5537,0,0,0,0,0,0,0,-1,1147,1772,4.4261,-13.5538
-70,-748,4.46191,13.7446,0,0,0,0,0,0,0,-1,1154,1772,4.4619,-13.7446
-63,-748,4.49768,13.9355,0,0,0,0,0,0,0,-1,1161,1772,4.49769,-13.9355
-56,-748,3.05762,7.87817,0,0,0,0,0,0,0,-1,1168,1772,3.05768,-7.87822
-49,-748,3.04102,7.82471,0,0,0,0,0,0,0,-1,1175,1772,3.04096,-7.82468
-42,-748,0.793457,14.9474,0,0,0,0,0,0,0,-1,1182,1772,0.793413,-14.9474
-35,-748,9.79944,64.1462,0,0,0,0,0,0,0,-1,1189,1772,9.79939,-64.1462
-28,-748,9.7323,64.4315,-0.023007,0.0454443,0.0189887,0.050359,-0.0279217,1.31753,0.04581,0.0485131,1196,1772,9.7323,-64.4315
-21,-748,9.65466,64.6245,-0.0229449,0.0443158,0.0184064,0.0490233,-0.0276525,1.32041,0.0448383,0.0237109,1203,1772,9.65464,-64.6245
-14,-748,9.55078,64.7874,-0.0226853,0.0425788,0.0177674,0.0471023,-0.0272087,1.3215,0.0434129,0.0182822,1210,1772,9.55072,-64.7874
-7,-748,9.48999,64.9609,-0.0222817,0.0405574,0.0170748,0.0448973,-0.0266216,1.3219,0.0417384,0.0172213,1217,1772,9.49003,-64.9609
0,-748,9.41785,65.0994,-0.0214309,0.0392308,0.0162598,0.0433142,-0.0255143,1.32475,0.0401787,0.0163341,1224,1772,9.41781,-65.0993
7,-748,9.36694,65.2399,-0.0202631,0.0376694,0.0152234,0.0414261,-0.0240198,1.32885,0.0382281,0.0154885,1231,1772,9.36699,-65.2398
14,-748,9.33081,65.4124,-0.0188773,0.0362433,0.0139621,0.0395782,-0.0222121,1.33634,0.0361412,0.0175923,1238,1772,9.33085,-65.4124
21,-748,9.30615,65.5294,-0.017343,0.0353223,0.0124642,0.0381232,-0.0201439,1.34975,0.0341702,0.0127215,1245,1772,9.30613,-65.5294
28,-748,9.24292,65.6229,-0.0158426,0.0344522,0.0109037,0.0367143,-0.0181048,1.36623,0.032252,0.012248,1252,1772,9.24286,-65.623
35,-748,9.17078,65.6635,-0.0142538,0.0338298,0.00925009,0.0355479,-0.0159719,1.38715,0.0304523,0.0132887,1259,1772,9.17082,-65.6634
42,-748,9.12744,65.7072,-0.0115879,0.0336249,0.00678474,0.0346211,-0.0125841,1.42501,0.0282265,0.0151374,1266,1772,9.12742,-65.7072
49,-748,9.10156,65.7498,-0.00907585,0.034016,0.00472098,0.0345271,-0.009587,1.46294,0.0267917,0.0116138,1273,1772,9.10162,-65.7498
56,-748,9.03223,65.7991,-0.00708035,0.0348757,0.00293331,0.0350798,-0.00728443,1.50133,0.026155,0.0107689,1280,1772,9.03226,-65.7991
63,-748,8.97192,65.8031,-0.00529116,0.0358938,0.001108,0.0359236,-0.00532095,1.54392,0.0259055,0.0124388,1287,1772,8.97187,-65.803
70,-748,8.9458,65.7952,-0.00427702,0.0380217,-0.000158303,0.0380223,-0.00427761,-1.56705,0.0268877,0.0150009,1294,1772,8.94583,-65.7952
77,-748,8.91956,65.7651,-0.00389951,0.0399687,-0.00125043,0.0400043,-0.00393512,-1.54232,0.0280733,0.0141285,1301,1772,8.91956,-65.7652
84,-748,8.84143,65.7478,-0.00322801,0.040925,-0.00236649,0.0410515,-0.00335448,-1.5174,0.0285516,0.0156364,1308,1772,8.84149,-65.7478
91,-748,8.78125,65.7018,-0.00313156,0.0418056,-0.00310797,0.0420195,-0.0033455,-1.50207,0.0291921,0.0131534,1315,1772,8.7812,-65.7018
98,-748,8.73181,65.5916,-0.00378171,0.0421079,-0.00343672,0.0423638,-0.00403766,-1.49646,0.0296801,0.0121338,1322,1772,8.73176,-65.5916
105,-748,8.73621,65.4319,-0.00506018,0.0415807,-0.00339847,0.041827,-0.00530651,-1.49844,0.0298113,0.012911,1329,1772,8.73623,-65.4319
112,-748,8.72095,65.2953,-0.00653092,0.0411234,-0.0032246,0.0413407,-0.00674813,-1.50354,0.0300633,0.0163448,1336,1772,8.72089,-65.2953
119,-748,8.65869,65.1449,-0.00820202,0.0399765,-0.00288451,0.0401486,-0.00837411,-1.51121,0.0299499,0.0142095,1343,1772,8.65864,-65.1449
126,-748,8.59253,65.0111,-0.00984775,0.0378184,-0.00237609,0.0379365,-0.0099659,-1.52111,0.0291858,0.0156204,1350,1772,8.59255,-65.0112
133,-748,8.50684,64.8348,-0.0111929,0.0352454,-0.00195964,0.035328,-0.0112755,-1.5287,0.0280756,0.0100966,1357,1772,8.50685,-64.8348
140,-748,8.48596,64.6163,-0.0123142,0.0318112,-0.001541,0.031865,-0.0123679,-1.53593,0.0263519,0.0132362,1364,1772,8.48593,-64.6163
147,-748,8.43237,64.407,-0.0141557,0.0271808,-0.000765225,0.027195,-0.0141698,-1.55229,0.0242734,0.0146613,1371,1772,8.43234,-64.407
154,-748,8.33386,64.1991,-0.0151114,0.0227313,-0.000769762,0.0227469,-0.0151271,-1.55047,0.0220136,0.0132018,1378,1772,8.33381,-64.1991
161,-748,8.27515,63.9978,-0.0145944,0.0191422,-0.000984679,0.0191709,-0.0146232,-1.54164,0.0195698,0.0196757,1385,1772,8.27518,-63.9979
168,-748,8.23096,63.8054,0,0,0,0,0,0,0,-1,1392,1772,8.23102,-63.8055
175,-748,11.6235,16.8242,0,0,0,0,0,0,0,-1,1399,1772,11.6236,-16.8242
182,-748,7.62476,10.3058,0,0,0,0,0,0,0,-1,1406,1772,7.62476,-10.3058
189,-748,6.15857,6.95898,0,0,0,0,0,0,0,-1,1413,1772,6.15862,-6.95896
196,-748,3.9425,8.46021,0,0,0,0,0,0,0,-1,1420,1772,3.9425,-8.46026
203,-748,3.9668,12.9835,0,0,0,0,0,0,0,-1,1427,1772,3.96678,-12.9836
210,-748,4.71472,16.8318,0,0,0,0,0,0,0,-1,1434,1772,4.71471,-16.8317
217,-748,5.38452,21.5551,0,0,0,0,0,0,0,-1,1441,1772,5.38455,-21.555
224,-748,6.14258,25.2345,0,0,0,0,0,0,0,-1,1448,1772,6.14263,-25.2345
231,-748,6.46045,29.7867,0,0,0,0,0,0,0,-1,1455,1772,6.46049,-29.7867
238,-748,7.41565,32.8574,0,0,0,0,0,0,0,-1,1462,1772,7.41562,-32.8574
245,-748,7.84912,32.0914,0,0,0,0,0,0,0,-1,1469,1772,7.84914,-32.0914
252,-748,7.57336,29.4369,0,0,0,0,0,0,0,-1,1476,1772,7.57337,-29.4369
259,-748,9.47351,46.1896,0,0,0,0,0,0,0,-1,1483,1772,9.4735,-46.1895
266,-748,8.36536,48.6908,0,0,0,0,0,0,0,-1,1490,1772,8.36541,-48.6909
273,-748,7.31421,46.6743,0,0,0,0,0,0,0,-1,1497,1772,7.31415,-46.6743
280,-748,8.76538,40.4501,0,0,0,0,0,0,0,-1,1504,1772,8.76537,-40.45
287,-748,14.161,8.32813,0,0,0,0,0,0,0,-1,1511,1772,14.161,-8.32808
294,-748,6.38525,32.4724,0,0,0,0,0,0,0,-1,1518,1772,6.38521,-32.4725
301,-748,5.40393,38.9807,0,0,0,0,0,0,0,-1,1525,1772,5.40397,-38.9807
308,-748,5.95227,37.1827,0,0,0,0,0,0,0,-1,1532,1772,5.95229,-37.1827
315,-748,7.71741,42.637,0,0,0,0,0,0,0,-1,1539,1772,7.71738,-42.637
322,-748,4.26538,29.0557,0,0,0,0,0,0,0,-1,1546,1772,4.26537,-29.0556
329,-748,3.87256,16.1473,0,0,0,0,0,0,0,-1,1553,1772,3.87259,-16.1474
336,-748,4.81006,19.6141,0,0,0,0,0,0,0,-1,1560,1772,4.81011,-19.6141
343,-748,0,0,0,0,0,0,0,0,0,-1,1567,1772,0,0
350,-748,0,0,0,0,0,0,0,0,0,-1,1574,1772,0,0
357,-748,0,0,0,0,0,0,0,0,0,-1,1581,1772,0,0
364,-748,0,0,0,0,0,0,0,0,0,-1,1588,1772,0,0
371,-748,0,0,0,0,0,0,0,0,0,-1,1595,1772,0,0
378,-748,0,0,0,0,0,0,0,0,0,-1,1602,1772,0,0
385,-748,0,0,0,0,0,0,0,0,0,-1,1609,1772,0,0
392,-748,0,0,0,0,0,0,0,0,0,-1,1616,1772,0,0
399,-748,0,0,0,0,0,0,0,0,0,-1,1623,1772,0,0
406,-748,0,0,0,0,0,0,0,0,0,-1,1630,1772,0,0
413,-748,0,0,0,0,0,0,0,0,0,-1,1637,1772,0,0
420,-748,0,0,0,0,0,0,0,0,0,-1,1644,1772,0,0
427,-748,0,0,0,0,0,0,0,0,0,-1,1651,1772,0,0
434,-748,0,0,0,0,0,0,0,0,0,-1,1658,1772,0,0
441,-748,0,0,0,0,0,0,0,0,0,-1,1665,1772,0,0
448,-748,0,0,0,0,0,0,0,0,0,-1,1672,1772,0,0
455,-748,0,0,0,0,0,0,0,0,0,-1,1679,1772,0,0
462,-748,0,0,0,0,0,0,0,0,0,-1,1686,1772,0,0
469,-748,0,0,0,0,0,0,0,0,0,-1,1693,1772,0,0
476,-748,0,0,0,0,0,0,0,0,0,-1,1700,1772,0,0
483,-748,0,0,0,0,0,0,0,0,0,-1,1707,1772,0,0
490,-748,0,0,0,0,0,0,0,0,0,-1,1714,1772,0,0
497,-748,0,0,0,0,0,0,0,0,0,-1,1721,1772,0,0
504,-748,0,0,0,0,0,0,0,0,0,-1,1728,1772,0,0
511,-748,0,0,0,0,0,0,0,0,0,-1,1735,1772,0,0
518,-748,0,0,0,0,0,0,0,0,0,-1,1742,1772,0,0
525,-748,0,0,0,0,0,0,0,0,0,-1,1749,1772,0,0
532,-748,0,0,0,0,0,0,0,0,0,-1,1756,1772,0,0
539,-748,0,0,0,0,0,0,0,0,0,-1,1763,1772,0,0
546,-748,0,0,0,0,0,0,0,0,0,-1,1770,1772,0,0
553,-748,0,0,0,0,0,0,0,0,0,-1,1777,1772,0,0
560,-748,0,0,0,0,0,0,0,0,0,-1,1784,1772,0,0
567,-748,0,0,0,0,0,0,0,0,0,-1,1791,1772,0,0
574,-748,0,0,0,0,0,0,0,0,0,-1,1798,1772,0,0
581,-748,0,0,0,0,0,0,0,0,0,-1,1805,1772,0,0
588,-748,0,0,0,0,0,0,0,0,0,-1,1812,1772,0,0
595,-748,0,0,0,0,0,0,0,0,0,-1,1819,1772,0,0
602,-748,0,0,0,0,0,0,0,0,0,-1,1826,1772,0,0
609,-748,0,0,0,0,0,0,0,0,0,-1,1833,1772,0,0
616,-748,0,0,0,0,0,0,0,0,0,-1,1840,1772,0,0
623,-748,0,0,0,0,0,0,0,0,0,-1,1847,1772,0,0
630,-748,0,0,0,0,0,0,0,0,0,-1,1854,1772,0,0
637,-748,0,0,0,0,0,0,0,0,0,-1,1861,1772,0,0
644,-748,0,0,0,0,0,0,0,0,0,-1,1868,1772,0,0
651,-748,0,0,0,0,0,0,0,0,0,-1,1875,1772,0,0
658,-748,0,0,0,0,0,0,0,0,0,-1,1882,1772,0,0
665,-748,0,0,0,0,0,0,0,0,0,-1,1889,1772,0,0
672,-748,0,0,0,0,0,0,0,0,0,-1,1896,1772,0,0
679,-748,0,0,0,0,0,0,0,0,0,-1,1903,1772,0,0
686,-748,0,0,0,0,0,0,0,0,0,-1,1910,1772,0,0
693,-748,0,0,0,0,0,0,0,0,0,-1,1917,1772,0,0
700,-748,0,0,0,0,0,0,0,0,0,-1,1924,1772,0,0
707,-748,0,0,0,0,0,0,0,0,0,-1,1931,1772,0,0
714,-748,0,0,0,0,0,0,0,0,0,-1,1938,1772,0,0
721,-748,0,0,0,0,0,0,0,0,0,-1,1945,1772,0,0
728,-748,0,0,0,0,0,0,0,0,0,-1,1952,1772,0,0
735,-748,0,0,0,0,0,0,0,0,0,-1,1959,1772,0,0
742,-748,0,0,0,0,0,0,0,0,0,-1,1966,1772,0,0
749,-748,0,0,0,0,0,0,0,0,0,-1,1973,1772,0,0
756,-748,0,0,0,0,0,0,0,0,0,-1,1980,1772,0,0
763,-748,0,0,0,0,0,0,0,0,0,-1,1987,1772,0,0
770,-748,0,0,0,0,0,0,0,0,0,-1,1994,1772,0,0
777,-748,0,0,0,0,0,0,0,0,0,-1,2001,1772,0,0
784,-748,0,0,0,0,0,0,0,0,0,-1,2008,1772,0,0
791,-748,0,0,0,0,0,0,0,0,0,-1,2015,1772,0,0
798,-748,0,0,0,0,0,0,0,0,0,-1,2022,1772,0,0
805,-748,0,0,0,0,0,0,0,0,0,-1,2029,1772,0,0
812,-748,0,0,0,0,0,0,0,0,0,-1,2036,1772,0,0
-700,-755,0,0,0,0,0,0,0,0,0,-1,524,1779,0,0
-693,-755,0,0,0,0,0,0,0,0,0,-1,531,1779,0,0
-686,-755,0,0,0,0,0,0,0,0,0,-1,538,1779,0,0
-679,-755,0,0,0,0,0,0,0,0,0,-1,545,1779,0,0
-672,-755,0,0,0,0,0,0,0,0,0,-1,552,1779,0,0
-665,-755,0,0,0,0,0,0,0,0,0,-1,559,1779,0,0
-658,-755,0,0,0,0,0,0,0,0,0,-1,566,1779,0,0
-651,-755,0,0,0,0,0,0,0,0,0,-1,573,1779,0,0
-644,-755,0,0,0,0,0,0,0,0,0,-1,580,1779,0,0
-637,-755,0,0,0,0,0,0,0,0,0,-1,587,1779,0,0
-630,-755,0,0,0,0,0,0,0,0,0,-1,594,1779,0,0
-623,-755,0,0,0,0,0,0,0,0,0,-1,601,1779,0,0
-616,-755,0,0,0,0,0,0,0,0,0,-1,608,1779,0,0
-609,-755,0,0,0,0,0,0,0,0,0,-1,615,1779,0,0
-602,-755,0,0,0,0,0,0,0,0,0,-1,622,1779,0,0
-595,-755,0,0,0,0,0,0,0,0,0,-1,629,1779,0,0
-588,-755,0,0,0,0,0,0,0,0,0,-1,636,1779,0,0
-581,-755,0,0,0,0,0,0,0,0,0,-1,643,1779,0,0
-574,-755,0,0,0,0,0,0,0,0,0,-1,650,1779,0,0
-567,-755,0,0,0,0,0,0,0,0,0,-1,657,1779,0,0
-560,-755,0,0,0,0,0,0,0,0,0,-1,664,1779,0,0
-553,-755,0,0,0,0,0,0,0,0,0,-1,671,1779,0,0
-546,-755,0,0,0,0,0,0,0,0,0,-1,678,1779,0,0
-539,-755,0,0,0,0,0,0,0,0,0,-1,685,1779,0,0
-532,-755,0,0,0,0,0,0,0,0,0,-1,692,1779,0,0
-525,-755,0,0,0,0,0,0,0,0,0,-1,699,1779,0,0
-518,-755,0,0,0,0,0,0,0,0,0,-1,706,1779,0,0
-511,-755,0,0,0,0,0,0,0,0,0,-1,713,1779,0,0
-504,-755,0,0,0,0,0,0,0,0,0,-1,720,1779,0,0
-497,-755,0,0,0,0,0,0,0,0,0,-1,727,1779,0,0
-490,-755,0,0,0,0,0,0,0,0,0,-1,734,1779,0,0
-483,-755,0,0,0,0,0,0,0,0,0,-1,741,1779,0,0
-476,-755,0,0,0,0,0,0,0,0,0,-1,748,1779,0,0
-469,-755,0,0,0,0,0,0,0,0,0,-1,755,1779,0,0
-462,-755,0,0,0,0,0,0,0,0,0,-1,762,1779,0,0
-455,-755,0,0,0,0,0,0,0,0,0,-1,769,1779,0,0
-448,-755,0,0,0,0,0,0,0,0,0,-1,776,1779,0,0
-441,-755,0,0,0,0,0,0,0,0,0,-1,783,1779,0,0
-434,-755,0,0,0,0,0,0,0,0,0,-1,790,1779,0,0
-427,-755,0,0,0,0,0,0,0,0,0,-1,797,1779,0,0
-420,-755,0,0,0,0,0,0,0,0,0,-1,804,1779,0,0
-413,-755,0,0,0,0,0,0,0,0,0,-1,811,1779,0,0
-406,-755,0,0,0,0,0,0,0,0,0,-1,818,1779,0,0
-399,-755,0,0,0,0,0,0,0,0,0,-1,825,1779,0,0
-392,-755,0,0,0,0,0,0,0,0,0,-1,832,1779,0,0
-385,-755,0,0,0,0,0,0,0,0,0,-1,839,1779,0,0
-378,-755,0,0,0,0,0,0,0,0,0,-1,846,1779,0,0
-371,-755,0,0,0,0,0,0,0,0,0,-1,853,1779,0,0
-364,-755,0,0,0,0,0,0,0,0,0,-1,860,1779,0,0
-357,-755,0,0,0,0,0,0,0,0,0,-1,867,1779,0,0
-350,-755,0,0,0,0,0,0,0,0,0,-1,874,1779,0,0
-343,-755,0,0,0,0,0,0,0,0,0,-1,881,1779,0,0
-336,-755,0,0,0,0,0,0,0,0,0,-1,888,1779,0,0
-329,-755,0,0,0,0,0,0,0,0,0,-1,895,1779,0,0
-322,-755,0,0,0,0,0,0,0,0,0,-1,902,1779,0,0
-315,-755,0,0,0,0,0,0,0,0,0,-1,909,1779,0,0
-308,-755,0,0,0,0,0,0,0,0,0,-1,916,1779,0,0
-301,-755,0,0,0,0,0,0,0,0,0,-1,923,1779,0,0
-294,-755,0,0,0,0,0,0,0,0,0,-1,930,1779,0,0
-287,-755,0,0,0,0,0,0,0,0,0,-1,937,1779,0,0
-280,-755,0,0,0,0,0,0,0,0,0,-1,944,1779,0,0
-273,-755,0,0,0,0,0,0,0,0,0,-1,951,1779,0,0
-266,-755,0,0,0,0,0,0,0,0,0,-1,958,1779,0,0
-259,-755,0,0,0,0,0,0,0,0,0,-1,965,1779,0,0
-252,-755,0,0,0,0,0,0,0,0,0,-1,972,1779,0,0
-245,-755,0,0,0,0,0,0,0,0,0,-1,979,1779,0,0
-238,-755,0,0,0,0,0,0,0,0,0,-1,986,1779,0,0
-231,-755,0,0,0,0,0,0,0,0,0,-1,993,1779,0,0
-224,-755,0,0,0,0,0,0,0,0,0,-1,1000,1779,0,0
-217,-755,0,0,0,0,0,0,0,0,0,-1,1007,1779,0,0
-210,-755,0,0,0,0,0,0,0,0,0,-1,1014,1779,0,0
-203,-755,8.97363,30.5414,0,0,0,0,0,0,0,-1,1021,1779,8.97362,-30.5414
-196,-755,8.08667,43.2203,0,0,0,0,0,0,0,-1,1028,1779,8.08666,-43.2204
-189,-755,0.725098,39.8892,0,0,0,0,0,0,0,-1,1035,1779,0.725055,-39.8891
-182,-755,1.80835,40.9692,0,0,0,0,0,0,0,-1,1042,1779,1.80838,-40.9692
-175,-755,3.04749,41.9612,0,0,0,0,0,0,0,-1,1049,1779,3.0475,-41.9612
-168,-755,4.8302,42.7631,0,0,0,0,0,0,0,-1,1056,1779,4.8302,-42.7631
-161,-755,6.46777,44.0007,0,0,0,0,0,0,0,-1,1063,1779,6.46773,-44.0007
-154,-755,7.71094,44.9023,0,0,0,0,0,0,0,-1,1070,1779,7.71089,-44.9023
-147,-755,-6.45593,10.2422,0,0,0,0,0,0,0,-1,1077,1779,-6.45594,-10.2422
-140,-755,1.33521,21.3856,0,0,0,0,0,0,0,-1,1084,1779,1.33522,-21.3857
-133,-755,2.89417,21.0964,0,0,0,0,0,0,0,-1,1091,1779,2.89422,-21.0964
-126,-755,3.26404,20.9304,0,0,0,0,0,0,0,-1,1098,1779,3.26399,-20.9305
-119,-755,5.17761,21.9325,0,0,0,0,0,0,0,-1,1105,1779,5.17761,-21.9325
-112,-755,5.40247,24.5646,0,0,0,0,0,0,0,-1,1112,1779,5.40244,-24.5646
-105,-755,7.01294,20.1539,0,0,0,0,0,0,0,-1,1119,1779,7.01295,-20.154
-98,-755,5.50708,16.9628,0,0,0,0,0,0,0,-1,1126,1779,5.5071,-16.9628
-91,-755,5.51025,12.0438,0,0,0,0,0,0,0,-1,1133,1779,5.51022,-12.0439
-84,-755,0.169312,8.66443,0,0,0,0,0,0,0,-1,1140,1779,0.16932,-8.66446
-77,-755,-0.0491943,6.87439,0,0,0,0,0,0,0,-1,1147,1779,-0.0491385,-6.87443
-70,-755,4.5686,13.2169,0,0,0,0,0,0,0,-1,1154,1779,4.56865,-13.2169
-63,-755,-1.36316,7.3147,0,0,0,0,0,0,0,-1,1161,1779,-1.36312,-7.31473
-56,-755,0.0483398,5.06079,0,0,0,0,0,0,0,-1,1168,1779,0.0483138,-5.06084
-49,-755,-1.32263,5.33716,0,0,0,0,0,0,0,-1,1175,1779,-1.32264,-5.33718
-42,-755,-2.03613,4.01672,0,0,0,0,0,0,0,-1,1182,1779,-2.0361,-4.01671
-35,-755,-2.72498,2.37476,0,0,0,0,0,0,0,-1,1189,1779,-2.72502,-2.37473
-28,-755,9.86182,64.4957,0,0,0,0,0,0,0,-1,1196,1779,9.86178,-64.4957
-21,-755,9.80725,64.509,0,0,0,0,0,0,0,-1,1203,1779,9.80725,-64.5091
-14,-755,9.73328,64.6962,-0.0316574,0.0625178,0.0264617,0.0694437,-0.0385834,1.3148,0.0632121,0.0347457,1210,1779,9.73333,-64.6962
-7,-755,9.59497,64.8597,-0.0311073,0.0593478,0.0252645,0.0659259,-0.0376854,1.31608,0.0605561,0.0255437,1217,1779,9.59492,-64.8598
0,-755,9.53491,65.0167,-0.0296885,0.0572403,0.0238103,0.0633348,-0.035783,1.32022,0.0579579,0.0160336,1224,1779,9.53493,-65.0167
7,-755,9.49011,65.1858,-0.0277187,0.0549105,0.0220895,0.0604451,-0.0332533,1.3253,0.0548508,0.0144415,1231,1779,9.49016,-65.1858
14,-755,9.45813,65.3577,-0.0252719,0.0527436,0.0200738,0.0576057,-0.030134,1.33316,0.0514775,0.0134163,1238,1779,9.45808,-65.3576
21,-755,9.36157,65.4886,-0.0224398,0.0513993,0.0176484,0.0554006,-0.0264412,1.34784,0.0482273,0.0179528,1245,1779,9.3616,-65.4886
28,-755,9.29749,65.5126,-0.019868,0.0500295,0.015257,0.0532146,-0.0230531,1.36499,0.0451663,0.020886,1252,1779,9.29749,-65.5126
35,-755,9.26196,65.6261,-0.0171979,0.0490617,0.0127656,0.051436,-0.0195722,1.3869,0.0423501,0.0223368,1259,1779,9.262,-65.626
42,-755,9.17859,65.6898,-0.0132709,0.048652,0.00926757,0.0500093,-0.0146282,1.42538,0.0391377,0.0163943,1266,1779,9.17857,-65.6898
49,-755,9.1394,65.6932,-0.00965574,0.0490652,0.00636673,0.0497476,-0.0103381,1.46403,0.0370945,0.01126,1273,1779,9.13942,-65.6932
56,-755,9.05164,65.7505,-0.00682753,0.0501674,0.003867,0.0504285,-0.00708871,1.50336,0.0362139,0.0104064,1280,1779,9.05162,-65.7505
63,-755,8.98938,65.7915,-0.00442005,0.0515075,0.00136534,0.0515408,-0.00445336,1.5464,0.0359371,0.0107264,1287,1779,8.9894,-65.7915
70,-755,8.97241,65.7418,-0.00328136,0.0543209,-0.000375267,0.0543234,-0.0032838,-1.56428,0.0373583,0.0148205,1294,1779,8.97236,-65.7418
77,-755,8.90356,65.6628,-0.00315638,0.0570111,-0.0018583,0.0570685,-0.00321371,-1.53995,0.0391609,0.0143765,1301,1779,8.90358,-65.6628
84,-755,8.81201,65.6604,-0.00269274,0.0586428,-0.0033149,0.0588214,-0.00287138,-1.51696,0.0402056,0.015567,1308,1779,8.81201,-65.6604
91,-755,8.73132,65.5911,-0.00306248,0.0601864,-0.00425024,0.0604707,-0.00334681,-1.504,0.0414745,0.0157756,1315,1779,8.73132,-65.5911
98,-755,8.62964,65.5256,-0.00439855,0.0610473,-0.00465122,0.0613762,-0.00472746,-1.5002,0.0425808,0.0161071,1322,1779,8.62961,-65.5257
105,-755,8.62366,65.4104,-0.00663265,0.0609325,-0.0045892,0.0612427,-0.00694294,-1.50329,0.0433286,0.0197631,1329,1779,8.62363,-65.4103
112,-755,8.57068,65.2361,-0.00912465,0.0609192,-0.00435094,0.0611884,-0.00939389,-1.509,0.0442572,0.0270722,1336,1779,8.57069,-65.2361
119,-755,8.49536,65.0574,-0.0119211,0.0600478,-0.00387639,0.060256,-0.0121293,-1.51714,0.0447649,0.0273455,1343,1779,8.49535,-65.0573
126,-755,8.43494,65.076,-0.0147612,0.0576236,-0.00307407,0.0577539,-0.0148915,-1.52843,0.0443086,0.0293303,1350,1779,8.4349,-65.0761
133,-755,8.3136,64.8733,-0.0168884,0.0545857,-0.00240643,0.0546667,-0.0169693,-1.53718,0.0432258,0.0288873,1357,1779,8.31363,-64.8733
140,-755,8.26514,64.6553,-0.0186024,0.050173,-0.00173259,0.0502166,-0.018646,-1.54563,0.041127,0.0372015,1364,1779,8.26511,-64.6552
147,-755,8.302,64.4751,-0.0211799,0.0442296,-0.000574591,0.0442346,-0.021185,-1.56201,0.0385435,0.0388199,1371,1779,8.30196,-64.4751
154,-755,8.13879,64.3215,-0.0226,0.0383752,-0.000499495,0.0383793,-0.0226041,-1.56261,0.0355993,0.0375479,1378,1779,8.13882,-64.3215
161,-755,8.03821,64.0222,0,0,0,0,0,0,0,-1,1385,1779,8.03819,-64.0222
168,-755,3.98181,7.35901,0,0,0,0,0,0,0,-1,1392,1779,3.98184,-7.35904
175,-755,8.17065,1.34363,0,0,0,0,0,0,0,-1,1399,1779,8.1706,-1.34368
182,-755,8.09216,2.96924,0,0,0,0,0,0,0,-1,1406,1779,8.09213,-2.9693
189,-755,8.04419,4.68042,0,0,0,0,0,0,0,-1,1413,1779,8.04419,-4.68046
196,-755,7.74841,7.4541,0,0,0,0,0,0,0,-1,1420,1779,7.74842,-7.45405
203,-755,4.80554,6.88696,0,0,0,0,0,0,0,-1,1427,1779,4.80554,-6.88697
210,-755,25.1694,7.35693,0,0,0,0,0,0,0,-1,1434,1779,25.1694,-7.35688
217,-755,5.01648,16.411,0,0,0,0,0,0,0,-1,1441,1779,5.01646,-16.411
224,-755,5.18103,22.6283,0,0,0,0,0,0,0,-1,1448,1779,5.18101,-22.6283
231,-755,5.7489,30.15,0,0,0,0,0,0,0,-1,1455,1779,5.74885,-30.15
238,-755,6.56323,29.2726,0,0,0,0,0,0,0,-1,1462,1779,6.56327,-29.2726
245,-755,8.29639,28.2113,0,0,0,0,0,0,0,-1,1469,1779,8.29639,-28.2113
252,-755,6.8877,28.8699,0,0,0,0,0,0,0,-1,1476,1779,6.88774,-28.8698
259,-755,6.42676,30.8574,0,0,0,0,0,0,0,-1,1483,1779,6.42677,-30.8575
266,-755,17.255,7.86096,0,0,0,0,0,0,0,-1,1490,1779,17.255,-7.86092
273,-755,15.7932,7.59778,0,0,0,0,0,0,0,-1,1497,1779,15.7932,-7.59777
280,-755,14.6255,7.34802,0,0,0,0,0,0,0,-1,1504,1779,14.6254,-7.34806
287,-755,13.8279,7.83105,0,0,0,0,0,0,0,-1,1511,1779,13.8279,-7.83104
294,-755,12.5695,7.96814,0,0,0,0,0,0,0,-1,1518,1779,12.5694,-7.9682
301,-755,11.2659,8.27087,0,0,0,0,0,0,0,-1,1525,1779,11.2658,-8.27087
308,-755,5.17737,37.2896,0,0,0,0,0,0,0,-1,1532,1779,5.17742,-37.2896
315,-755,0.828613,31.032,0,0,0,0,0,0,0,-1,1539,1779,0.828668,-31.032
322,-755,0,0,0,0,0,0,0,0,0,-1,1546,1779,0,0
329,-755,0,0,0,0,0,0,0,0,0,-1,1553,1779,0,0
336,-755,0,0,0,0,0,0,0,0,0,-1,1560,1779,0,0
343,-755,0,0,0,0,0,0,0,0,0,-1,1567,1779,0,0
350,-755,0,0,0,0,0,0,0,0,0,-1,1574,1779,0,0
357,-755,0,0,0,0,0,0,0,0,0,-1,1581,1779,0,0
364,-755,0,0,0,0,0,0,0,0,0,-1,1588,1779,0,0
371,-755,0,0,0,0,0,0,0,0,0,-1,1595,1779,0,0
378,-755,0,0,0,0,0,0,0,0,0,-1,1602,1779,0,0
385,-755,0,0,0,0,0,0,0,0,0,-1,1609,1779,0,0
392,-755,0,0,0,0,0,0,0,0,0,-1,1616,1779,0,0
399,-755,0,0,0,0,0,0,0,0,0,-1,1623,1779,0,0
406,-755,0,0,0,0,0,0,0,0,0,-1,1630,1779,0,0
413,-755,0,0,0,0,0,0,0,0,0,-1,1637,1779,0,0
420,-755,0,0,0,0,0,0,0,0,0,-1,1644,1779,0,0
427,-755,0,0,0,0,0,0,0,0,0,-1,1651,1779,0,0
434,-755,0,0,0,0,0,0,0,0,0,-1,1658,1779,0,0
441,-755,0,0,0,0,0,0,0,0,0,-1,1665,1779,0,0
448,-755,0,0,0,0,0,0,0,0,0,-1,1672,1779,0,0
455,-755,0,0,0,0,0,0,0,0,0,-1,1679,1779,0,0
462,-755,0,0,0,0,0,0,0,0,0,-1,1686,1779,0,0
469,-755,0,0,0,0,0,0,0,0,0,-1,1693,1779,0,0
476,-755,0,0,0,0,0,0,0,0,0,-1,1700,1779,0,0
483,-755,0,0,0,0,0,0,0,0,0,-1,1707,1779,0,0
490,-755,0,0,0,0,0,0,0,0,0,-1,1714,1779,0,0
497,-755,0,0,0,0,0,0,0,0,0,-1,1721,1779,0,0
504,-755,0,0,0,0,0,0,0,0,0,-1,1728,1779,0,0
511,-755,0,0,0,0,0,0,0,0,0,-1,1735,1779,0,0
518,-755,0,0,0,0,0,0,0,0,0,-1,1742,1779,0,0
525,-755,0,0,0,0,0,0,0,0,0,-1,1749,1779,0,0
532,-755,0,0,0,0,0,0,0,0,0,-1,1756,1779,0,0
539,-755,0,0,0,0,0,0,0,0,0,-1,1763,1779,0,0
546,-755,0,0,0,0,0,0,0,0,0,-1,1770,1779,0,0
553,-755,0,0,0,0,0,0,0,0,0,-1,1777,1779,0,0
560,-755,0,0,0,0,0,0,0,0,0,-1,1784,1779,0,0
567,-755,0,0,0,0,0,0,0,0,0,-1,1791,1779,0,0
574,-755,0,0,0,0,0,0,0,0,0,-1,1798,1779,0,0
581,-755,0,0,0,0,0,0,0,0,0,-1,1805,1779,0,0
588,-755,0,0,0,0,0,0,0,0,0,-1,1812,1779,0,0
595,-755,0,0,0,0,0,0,0,0,0,-1,1819,1779,0,0
602,-755,0,0,0,0,0,0,0,0,0,-1,1826,1779,0,0
609,-755,0,0,0,0,0,0,0,0,0,-1,1833,1779,0,0
616,-755,0,0,0,0,0,0,0,0,0,-1,1840,1779,0,0
623,-755,0,0,0,0,0,0,0,0,0,-1,1847,1779,0,0
630,-755,0,0,0,0,0,0,0,0,0,-1,1854,1779,0,0
637,-755,0,0,0,0,0,0,0,0,0,-1,1861,1779,0,0
644,-755,0,0,0,0,0,0,0,0,0,-1,1868,1779,0,0
651,-755,0,0,0,0,0,0,0,0,0,-1,1875,1779,0,0
658,-755,0,0,0,0,0,0,0,0,0,-1,1882,1779,0,0
665,-755,0,0,0,0,0,0,0,0,0,-1,1889,1779,0,0
672,-755,0,0,0,0,0,0,0,0,0,-1,1896,1779,0,0
679,-755,0,0,0,0,0,0,0,0,0,-1,1903,1779,0,0
686,-755,0,0,0,0,0,0,0,0,0,-1,1910,1779,0,0
693,-755,0,0,0,0,0,0,0,0,0,-1,1917,1779,0,0
700,-755,0,0,0,0,0,0,0,0,0,-1,1924,1779,0,0
707,-755,0,0,0,0,0,0,0,0,0,-1,1931,1779,0,0
714,-755,0,0,0,0,0,0,0,0,0,-1,1938,1779,0,0
721,-755,0,0,0,0,0,0,0,0,0,-1,1945,1779,0,0
728,-755,0,0,0,0,0,0,0,0,0,-1,1952,1779,0,0
735,-755,0,0,0,0,0,0,0,0,0,-1,1959,1779,0,0
742,-755,0,0,0,0,0,0,0,0,0,-1,1966,1779,0,0
749,-755,0,0,0,0,0,0,0,0,0,-1,1973,1779,0,0
756,-755,0,0,0,0,0,0,0,0,0,-1,1980,1779,0,0
763,-755,0,0,0,0,0,0,0,0,0,-1,1987,1779,0,0
770,-755,0,0,0,0,0,0,0,0,0,-1,1994,1779,0,0
777,-755,0,0,0,0,0,0,0,0,0,-1,2001,1779,0,0
784,-755,0,0,0,0,0,0,0,0,0,-1,2008,1779,0,0
791,-755,0,0,0,0,0,0,0,0,0,-1,2015,1779,0,0
798,-755,0,0,0,0,0,0,0,0,0,-1,2022,1779,0,0
805,-755,0,0,0,0,0,0,0,0,0,-1,2029,1779,0,0
812,-755,0,0,0,0,0,0,0,0,0,-1,2036,1779,0,0
-700,-762,0,0,0,0,0,0,0,0,0,-1,524,1786,0,0
-693,-762,0,0,0,0,0,0,0,0,0,-1,531,1786,0,0
-686,-762,0,0,0,0,0,0,0,0,0,-1,538,1786,0,0
-679,-762,0,0,0,0,0,0,0,0,0,-1,545,1786,0,0
-672,-762,0,0,0,0,0,0,0,0,0,-1,552,1786,0,0
-665,-762,0,0,0,0,0,0,0,0,0,-1,559,1786,0,0
-658,-762,0,0,0,0,0,0,0,0,0,-1,566,1786,0,0
-651,-762,0,0,0,0,0,0,0,0,0,-1,573,1786,0,0
-644,-762,0,0,0,0,0,0,0,0,0,-1,580,1786,0,0
-637,-762,0,0,0,0,0,0,0,0,0,-1,587,1786,0,0
-630,-762,0,0,0,0,0,0,0,0,0,-1,594,1786,0,0
-623,-762,0,0,0,0,0,0,0,0,0,-1,601,1786,0,0
-616,-762,0,0,0,0,0,0,0,0,0,-1,608,1786,0,0
-609,-762,0,0,0,0,0,0,0,0,0,-1,615,1786,0,0
-602,-762,0,0,0,0,0,0,0,0,0,-1,622,1786,0,0
-595,-762,0,0,0,0,0,0,0,0,0,-1,629,1786,0,0
-588,-762,0,0,0,0,0,0,0,0,0,-1,636,1786,0,0
-581,-762,0,0,0,0,0,0,0,0,0,-1,643,1786,0,0
-574,-762,0,0,0,0,0,0,0,0,0,-1,650,1786,0,0
-567,-762,0,0,0,0,0,0,0,0,0,-1,657,1786,0,0
-560,-762,0,0,0,0,0,0,0,0,0,-1,664,1786,0,0
-553,-762,0,0,0,0,0,0,0,0,0,-1,671,1786,0,0
-546,-762,0,0,0,0,0,0,0,0,0,-1,678,1786,0,0
-539,-762,0,0,0,0,0,0,0,0,0,-1,685,1786,0,0
-532,-762,0,0,0,0,0,0,0,0,0,-1,692,1786,0,0
-525,-762,0,0,0,0,0,0,0,0,0,-1,699,1786,0,0
-518,-762,0,0,0,0,0,0,0,0,0,-1,706,1786,0,0
-511,-762,0,0,0,0,0,0,0,0,0,-1,713,1786,0,0
-504,-762,0,0,0,0,0,0,0,0,0,-1,720,1786,0,0
-497,-762,0,0,0,0,0,0,0,0,0,-1,727,1786,0,0
-490,-762,0,0,0,0,0,0,0,0,0,-1,734,1786,0,0
-483,-762,0,0,0,0,0,0,0,0,0,-1,741,1786,0,0
-476,-762,0,0,0,0,0,0,0,0,0,-1,748,1786,0,0
-469,-762,0,0,0,0,0,0,0,0,0,-1,755,1786,0,0
-462,-762,0,0,0,0,0,0,0,0,0,-1,762,1786,0,0
-455,-762,0,0,0,0,0,0,0,0,0,-1,769,1786,0,0
-448,-762,0,0,0,0,0,0,0,0,0,-1,776,1786,0,0
-441,-762,0,0,0,0,0,0,0,0,0,-1,783,1786,0,0
-434,-762,0,0,0,0,0,0,0,0,0,-1,790,1786,0,0
-427,-762,0,0,0,0,0,0,0,0,0,-1,797,1786,0,0
-420,-762,0,0,0,0,0,0,0,0,0,-1,804,1786,0,0
-413,-762,0,0,0,0,0,0,0,0,0,-1,811,1786,0,0
-406,-762,0,0,0,0,0,0,0,0,0,-1,818,1786,0,0
-399,-762,0,0,0,0,0,0,0,0,0,-1,825,1786,0,0
-392,-762,0,0,0,0,0,0,0,0,0,-1,832,1786,0,0
-385,-762,0,0,0,0,0,0,0,0,0,-1,839,1786,0,0
-378,-762,0,0,0,0,0,0,0,0,0,-1,846,1786,0,0
-371,-762,0,0,0,0,0,0,0,0,0,-1,853,1786,0,0
-364,-762,0,0,0,0,0,0,0,0,0,-1,860,1786,0,0
-357,-762,0,0,0,0,0,0,0,0,0,-1,867,1786,0,0
-350,-762,0,0,0,0,0,0,0,0,0,-1,874,1786,0,0
-343,-762,0,0,0,0,0,0,0,0,0,-1,881,1786,0,0
-336,-762,0,0,0,0,0,0,0,0,0,-1,888,1786,0,0
-329,-762,0,0,0,0,0,0,0,0,0,-1,895,1786,0,0
-322,-762,0,0,0,0,0,0,0,0,0,-1,902,1786,0,0
-315,-762,0,0,0,0,0,0,0,0,0,-1,909,1786,0,0
-308,-762,0,0,0,0,0,0,0,0,0,-1,916,1786,0,0
-301,-762,0,0,0,0,0,0,0,0,0,-1,923,1786,0,0
-294,-762,0,0,0,0,0,0,0,0,0,-1,930,1786,0,0
-287,-762,0,0,0,0,0,0,0,0,0,-1,937,1786,0,0
-280,-762,0,0,0,0,0,0,0,0,0,-1,944,1786,0,0
-273,-762,0,0,0,0,0,0,0,0,0,-1,951,1786,0,0
-266,-762,0,0,0,0,0,0,0,0,0,-1,958,1786,0,0
-259,-762,0,0,0,0,0,0,0,0,0,-1,965,1786,0,0
-252,-762,0,0,0,0,0,0,0,0,0,-1,972,1786,0,0
-245,-762,0,0,0,0,0,0,0,0,0,-1,979,1786,0,0
-238,-762,0,0,0,0,0,0,0,0,0,-1,986,1786,0,0
-231,-762,0,0,0,0,0,0,0,0,0,-1,993,1786,0,0
-224,-762,0,0,0,0,0,0,0,0,0,-1,1000,1786,0,0
-217,-762,0,0,0,0,0,0,0,0,0,-1,1007,1786,0,0
-210,-762,0,0,0,0,0,0,0,0,0,-1,1014,1786,0,0
-203,-762,0,0,0,0,0,0,0,0,0,-1,1021,1786,0,0
-196,-762,0,0,0,0,0,0,0,0,0,-1,1028,1786,0,0
-189,-762,0,0,0,0,0,0,0,0,0,-1,1035,1786,0,0
-182,-762,4.44226,13.2462,0,0,0,0,0,0,0,-1,1042,1786,4.44227,-13.2462
-175,-762,1.14465,40.1932,0,0,0,0,0,0,0,-1,1049,1786,1.1447,-40.1932
-168,-762,3.26794,41.3881,0,0,0,0,0,0,0,-1,1056,1786,3.26794,-41.388
-161,-762,-3.29077,11.9508,0,0,0,0,0,0,0,-1,1063,1786,-3.29076,-11.9508
-154,-762,-4.55823,11.1176,0,0,0,0,0,0,0,-1,1070,1786,-4.55828,-11.1175
-147,-762,-6.52454,9.41418,0,0,0,0,0,0,0,-1,1077,1786,-6.52458,-9.41419
-140,-762,4.99792,5.28589,0,0,0,0,0,0,0,-1,1084,1786,4.99793,-5.28587
-133,-762,0.689819,19.2172,0,0,0,0,0,0,0,-1,1091,1786,0.689867,-19.2171
-126,-762,1.48743,19.9288,0,0,0,0,0,0,0,-1,1098,1786,1.48738,-19.9289
-119,-762,2.65637,20.208,0,0,0,0,0,0,0,-1,1105,1786,2.65632,-20.208
-112,-762,6.84705,25.5554,0,0,0,0,0,0,0,-1,1112,1786,6.84706,-25.5554
-105,-762,5.57947,21.618,0,0,0,0,0,0,0,-1,1119,1786,5.57948,-21.618
-98,-762,5.0636,17.9901,0,0,0,0,0,0,0,-1,1126,1786,5.06361,-17.9901
-91,-762,4.54773,14.3622,0,0,0,0,0,0,0,-1,1133,1786,4.54774,-14.3622
-84,-762,3.96375,10.4547,0,0,0,0,0,0,0,-1,1140,1786,3.96371,-10.4548
-77,-762,0.305054,8.49365,0,0,0,0,0,0,0,-1,1147,1786,0.305008,-8.49362
-70,-762,0.183716,6.74622,0,0,0,0,0,0,0,-1,1154,1786,0.183696,-6.74621
-63,-762,-0.883057,9.08813,0,0,0,0,0,0,0,-1,1161,1786,-0.88311,-9.08808
-56,-762,-0.578979,5.10254,0,0,0,0,0,0,0,-1,1168,1786,-0.578951,-5.10249
-49,-762,-2.04541,3.66321,0,0,0,0,0,0,0,-1,1175,1786,-2.0454,-3.66319
-42,-762,-2.23462,3.474,0,0,0,0,0,0,0,-1,1182,1786,-2.23459,-3.47399
-35,-762,-3.28992,1.68164,0,0,0,0,0,0,0,-1,1189,1786,-3.28998,-1.68164
-28,-762,-3.75378,1.37769,0,0,0,0,0,0,0,-1,1196,1786,-3.75373,-1.37767
-21,-762,10.0541,64.9944,0,0,0,0,0,0,0,-1,1203,1786,10.0541,-64.9944
-14,-762,9.89685,64.5959,0,0,0,0,0,0,0,-1,1210,1786,9.89683,-64.5959
-7,-762,9.62646,64.7296,0,0,0,0,0,0,0,-1,1217,1786,9.62645,-64.7297
0,-762,9.60535,64.9692,-0.0391179,0.0790935,0.033231,0.0877948,-0.0478191,1.3147,0.0794225,0.0419323,1224,1786,9.60531,-64.9692
7,-762,9.59436,65.1488,-0.0363674,0.0758167,0.0307322,0.0836839,-0.0442346,1.32019,0.0750153,0.0235117,1231,1786,9.59434,-65.1488
14,-762,9.47021,65.4871,-0.0328277,0.0726856,0.0278419,0.0795816,-0.0397237,1.328,0.0701505,0.0378224,1238,1786,9.47017,-65.4871
21,-762,9.38599,65.4365,-0.028632,0.0706251,0.0243257,0.0762662,-0.0342731,1.34293,0.0653369,0.0470704,1245,1786,9.38598,-65.4365
28,-762,11.9309,64.3115,0,0,0,0,0,0,0,-1,1252,1786,11.931,-64.3115
35,-762,11.4652,64.4713,0,0,0,0,0,0,0,-1,1259,1786,11.4652,-64.4714
42,-762,9.14905,65.7069,0,0,0,0,0,0,0,-1,1266,1786,9.14907,-65.7069
49,-762,9.30701,65.6932,0,0,0,0,0,0,0,-1,1273,1786,9.307,-65.6933
56,-762,9.19202,65.7635,-0.00690554,0.067591,0.00507275,0.0679349,-0.00724938,1.50312,0.0478896,0.0347591,1280,1786,9.19204,-65.7635
63,-762,9.10754,65.7683,-0.00376762,0.06923,0.00169012,0.0692692,-0.00380673,1.54766,0.0474992,0.0315773,1287,1786,9.10757,-65.7684
70,-762,9.0033,65.7188,-0.00250096,0.0728695,-0.000660982,0.0728753,-0.00250676,-1.56203,0.0494403,0.0320873,1294,1786,9.00324,-65.7188
77,-762,8.83179,65.5399,-0.00270212,0.0764735,-0.00261942,0.0765601,-0.00278868,-1.53776,0.0519945,0.0402049,1301,1786,8.83176,-65.5399
84,-762,8.83569,65.4885,0,0,0,0,0,0,0,-1,1308,1786,8.83568,-65.4886
91,-762,8.77124,65.4099,0,0,0,0,0,0,0,-1,1315,1786,8.77124,-65.4099
98,-762,8.46497,65.4055,0,0,0,0,0,0,0,-1,1322,1786,8.46494,-65.4055
105,-762,8.48938,65.333,0,0,0,0,0,0,0,-1,1329,1786,8.48942,-65.333
112,-762,8.42847,65.0037,0,0,0,0,0,0,0,-1,1336,1786,8.42847,-65.0037
119,-762,8.33899,64.849,0,0,0,0,0,0,0,-1,1343,1786,8.339,-64.849
126,-762,8.24658,65.2289,0,0,0,0,0,0,0,-1,1350,1786,8.2466,-65.2289
133,-762,8.146,64.9048,-0.0243326,0.0790947,-0.00267146,0.0791637,-0.0244015,-1.54499,0.0625177,0.0489721,1357,1786,8.14594,-64.9047
140,-762,8.13696,64.6697,-0.0269748,0.0743495,-0.00167253,0.0743771,-0.0270024,-1.5543,0.0606243,0.0436735,1364,1786,8.13694,-64.6697
147,-762,8.17871,64.4908,-0.0304196,0.0680833,-0.000130929,0.0680835,-0.0304197,-1.56947,0.0582401,0.0443609,1371,1786,8.1787,-64.4908
154,-762,7.86157,64.5129,0,0,0,0,0,0,0,-1,1378,1786,7.86162,-64.5129
161,-762,8.65051,34.8102,0,0,0,0,0,0,0,-1,1385,1786,8.65054,-34.8101
168,-762,8.19287,0.880615,0,0,0,0,0,0,0,-1,1392,1786,8.19291,-0.880603
175,-762,8.33997,1.95947,0,0,0,0,0,0,0,-1,1399,1786,8.33997,-1.95942
182,-762,8.28418,3.56482,0,0,0,0,0,0,0,-1,1406,1786,8.28415,-3.56485
189,-762,8.21179,5.23389,0,0,0,0,0,0,0,-1,1413,1786,8.21183,-5.23383
196,-762,8.05969,6.95483,0,0,0,0,0,0,0,-1,1420,1786,8.05972,-6.9548
203,-762,24.0077,7.10425,0,0,0,0,0,0,0,-1,1427,1786,24.0077,-7.10426
210,-762,23.8073,7.6499,0,0,0,0,0,0,0,-1,1434,1786,23.8073,-7.64987
217,-762,23.3193,8.24426,0,0,0,0,0,0,0,-1,1441,1786,23.3194,-8.2442
224,-762,2.65149,20.6106,0,0,0,0,0,0,0,-1,1448,1786,2.65153,-20.6106
231,-762,5.46655,23.521,0,0,0,0,0,0,0,-1,1455,1786,5.46653,-23.521
238,-762,5.35632,29.7203,0,0,0,0,0,0,0,-1,1462,1786,5.35629,-29.7203
245,-762,6.93054,27.8312,0,0,0,0,0,0,0,-1,1469,1786,6.93058,-27.8312
252,-762,6.20215,28.3027,0,0,0,0,0,0,0,-1,1476,1786,6.20211,-28.3027
259,-762,5.46472,28.8762,0,0,0,0,0,0,0,-1,1483,1786,5.46476,-28.8762
266,-762,16.451,7.67773,0,0,0,0,0,0,0,-1,1490,1786,16.4511,-7.67773
273,-762,15.287,7.5304,0,0,0,0,0,0,0,-1,1497,1786,15.2869,-7.53044
280,-762,14.1501,7.38379,0,0,0,0,0,0,0,-1,1504,1786,14.1502,-7.38376
287,-762,12.6891,7.99133,0,0,0,0,0,0,0,-1,1511,1786,12.6891,-7.99135
294,-762,12.6959,8.30371,0,0,0,0,0,0,0,-1,1518,1786,12.6959,-8.30368
301,-762,11.4222,8.84143,0,0,0,0,0,0,0,-1,1525,1786,11.4223,-8.84149
308,-762,0,0,0,0,0,0,0,0,0,-1,1532,1786,0,0
315,-762,0,0,0,0,0,0,0,0,0,-1,1539,1786,0,0
322,-762,0,0,0,0,0,0,0,0,0,-1,1546,1786,0,0
329,-762,0,0,0,0,0,0,0,0,0,-1,1553,1786,0,0
336,-762,0,0,0,0,0,0,0,0,0,-1,1560,1786,0,0
343,-762,0,0,0,0,0,0,0,0,0,-1,1567,1786,0,0
350,-762,0,0,0,0,0,0,0,0,0,-1,1574,1786,0,0
357,-762,0,0,0,0,0,0,0,0,0,-1,1581,1786,0,0
364,-762,0,0,0,0,0,0,0,0,0,-1,1588,1786,0,0
371,-762,0,0,0,0,0,0,0,0,0,-1,1595,1786,0,0
378,-762,0,0,0,0,0,0,0,0,0,-1,1602,1786,0,0
385,-762,0,0,0,0,0,0,0,0,0,-1,1609,1786,0,0
392,-762,0,0,0,0,0,0,0,0,0,-1,1616,1786,0,0
399,-762,0,0,0,0,0,0,0,0,0,-1,1623,1786,0,0
406,-762,0,0,0,0,0,0,0,0,0,-1,1630,1786,0,0
413,-762,0,0,0,0,0,0,0,0,0,-1,1637,1786,0,0
420,-762,0,0,0,0,0,0,0,0,0,-1,1644,1786,0,0
427,-762,0,0,0,0,0,0,0,0,0,-1,1651,1786,0,0
434,-762,0,0,0,0,0,0,0,0,0,-1,1658,1786,0,0
441,-762,0,0,0,0,0,0,0,0,0,-1,1665,1786,0,0
448,-762,0,0,0,0,0,0,0,0,0,-1,1672,1786,0,0
455,-762,0,0,0,0,0,0,0,0,0,-1,1679,1786,0,0
462,-762,0,0,0,0,0,0,0,0,0,-1,1686,1786,0,0
469,-762,0,0,0,0,0,0,0,0,0,-1,1693,1786,0,0
476,-762,0,0,0,0,0,0,0,0,0,-1,1700,1786,0,0
483,-762,0,0,0,0,0,0,0,0,0,-1,1707,1786,0,0
490,-762,0,0,0,0,0,0,0,0,0,-1,1714,1786,0,0
497,-762,0,0,0,0,0,0,0,0,0,-1,1721,1786,0,0
504,-762,0,0,0,0,0,0,0,0,0,-1,1728,1786,0,0
511,-762,0,0,0,0,0,0,0,0,0,-1,1735,1786,0,0
518,-762,0,0,0,0,0,0,0,0,0,-1,1742,1786,0,0
525,-762,0,0,0,0,0,0,0,0,0,-1,1749,1786,0,0
532,-762,0,0,0,0,0,0,0,0,0,-1,1756,1786,0,0
539,-762,0,0,0,0,0,0,0,0,0,-1,1763,1786,0,0
546,-762,0,0,0,0,0,0,0,0,0,-1,1770,1786,0,0
553,-762,0,0,0,0,0,0,0,0,0,-1,1777,1786,0,0
560,-762,0,0,0,0,0,0,0,0,0,-1,1784,1786,0,0
567,-762,0,0,0,0,0,0,0,0,0,-1,1791,1786,0,0
574,-762,0,0,0,0,0,0,0,0,0,-1,1798,1786,0,0
581,-762,0,0,0,0,0,0,0,0,0,-1,1805,1786,0,0
588,-762,0,0,0,0,0,0,0,0,0,-1,1812,1786,0,0
595,-762,0,0,0,0,0,0,0,0,0,-1,1819,1786,0,0
602,-762,0,0,0,0,0,0,0,0,0,-1,1826,1786,0,0
609,-762,0,0,0,0,0,0,0,0,0,-1,1833,1786,0,0
616,-762,0,0,0,0,0,0,0,0,0,-1,1840,1786,0,0
623,-762,0,0,0,0,0,0,0,0,0,-1,1847,1786,0,0
630,-762,0,0,0,0,0,0,0,0,0,-1,1854,1786,0,0
637,-762,0,0,0,0,0,0,0,0,0,-1,1861,1786,0,0
644,-762,0,0,0,0,0,0,0,0,0,-1,1868,1786,0,0
651,-762,0,0,0,0,0,0,0,0,0,-1,1875,1786,0,0
658,-762,0,0,0,0,0,0,0,0,0,-1,1882,1786,0,0
665,-762,0,0,0,0,0,0,0,0,0,-1,1889,1786,0,0
672,-762,0,0,0,0,0,0,0,0,0,-1,1896,1786,0,0
679,-762,0,0,0,0,0,0,0,0,0,-1,1903,1786,0,0
686,-762,0,0,0,0,0,0,0,0,0,-1,1910,1786,0,0
693,-762,0,0,0,0,0,0,0,0,0,-1,1917,1786,0,0
700,-762,0,0,0,0,0,0,0,0,0,-1,1924,1786,0,0
707,-762,0,0,0,0,0,0,0,0,0,-1,1931,1786,0,0
714,-762,0,0,0,0,0,0,0,0,0,-1,1938,1786,0,0
721,-762,0,0,0,0,0,0,0,0,0,-1,1945,1786,0,0
728,-762,0,0,0,0,0,0,0,0,0,-1,1952,1786,0,0
735,-762,0,0,0,0,0,0,0,0,0,-1,1959,1786,0,0
742,-762,0,0,0,0,0,0,0,0,0,-1,1966,1786,0,0
749,-762,0,0,0,0,0,0,0,0,0,-1,1973,1786,0,0
756,-762,0,0,0,0,0,0,0,0,0,-1,1980,1786,0,0
763,-762,0,0,0,0,0,0,0,0,0,-1,1987,1786,0,0
770,-762,0,0,0,0,0,0,0,0,0,-1,1994,1786,0,0
777,-762,0,0,0,0,0,0,0,0,0,-1,2001,1786,0,0
784,-762,0,0,0,0,0,0,0,0,0,-1,2008,1786,0,0
791,-762,0,0,0,0,0,0,0,0,0,-1,2015,1786,0,0
798,-762,0,0,0,0,0,0,0,0,0,-1,2022,1786,0,0
805,-762,0,0,0,0,0,0,0,0,0,-1,2029,1786,0,0
812,-762,0,0,0,0,0,0,0,0,0,-1,2036,1786,0,0
-700,-769,0,0,0,0,0,0,0,0,0,-1,524,1793,0,0
-693,-769,0,0,0,0,0,0,0,0,0,-1,531,1793,0,0
-686,-769,0,0,0,0,0,0,0,0,0,-1,538,1793,0,0
-679,-769,0,0,0,0,0,0,0,0,0,-1,545,1793,0,0
-672,-769,0,0,0,0,0,0,0,0,0,-1,552,1793,0,0
-665,-769,0,0,0,0,0,0,0,0,0,-1,559,1793,0,0
-658,-769,0,0,0,0,0,0,0,0,0,-1,566,1793,0,0
-651,-769,0,0,0,0,0,0,0,0,0,-1,573,1793,0,0
-644,-769,0,0,0,0,0,0,0,0,0,-1,580,1793,0,0
-637,-769,0,0,0,0,0,0,0,0,0,-1,587,1793,0,0
-630,-769,0,0,0,0,0,0,0,0,0,-1,594,1793,0,0
-623,-769,0,0,0,0,0,0,0,0,0,-1,601,1793,0,0
-616,-769,0,0,0,0,0,0,0,0,0,-1,608,1793,0,0
-609,-769,0,0,0,0,0,0,0,0,0,-1,615,1793,0,0
-602,-769,0,0,0,0,0,0,0,0,0,-1,622,1793,0,0
-595,-769,0,0,0,0,0,0,0,0,0,-1,629,1793,0,0
-588,-769,0,0,0,0,0,0,0,0,0,-1,636,1793,0,0
-581,-769,0,0,0,0,0,0,0,0,0,-1,643,1793,0,0
-574,-769,0,0,0,0,0,0,0,0,0,-1,650,1793,0,0
-567,-769,0,0,0,0,0,0,0,0,0,-1,657,1793,0,0
-560,-769,0,0,0,0,0,0,0,0,0,-1,664,1793,0,0
-553,-769,0,0,0,0,0,0,0,0,0,-1,671,1793,0,0
-546,-769,0,0,0,0,0,0,0,0,0,-1,678,1793,0,0
-539,-769,0,0,0,0,0,0,0,0,0,-1,685,1793,0,0
-532,-769,0,0,0,0,0,0,0,0,0,-1,692,1793,0,0
-525,-769,0,0,0,0,0,0,0,0,0,-1,699,1793,0,0
-518,-769,0,0,0,0,0,0,0,0,0,-1,706,1793,0,0
-511,-769,0,0,0,0,0,0,0,0,0,-1,713,1793,0,0
-504,-769,0,0,0,0,0,0,0,0,0,-1,720,1793,0,0
-497,-769,0,0,0,0,0,0,0,0,0,-1,727,1793,0,0
-490,-769,0,0,0,0,0,0,0,0,0,-1,734,1793,0,0
-483,-769,0,0,0,0,0,0,0,0,0,-1,741,1793,0,0
-476,-769,0,0,0,0,0,0,0,0,0,-1,748,1793,0,0
-469,-769,0,0,0,0,0,0,0,0,0,-1,755,1793,0,0
-462,-769,0,0,0,0,0,0,0,0,0,-1,762,1793,0,0
-455,-769,0,0,0,0,0,0,0,0,0,-1,769,1793,0,0
-448,-769,0,0,0,0,0,0,0,0,0,-1,776,1793,0,0
-441,-769,0,0,0,0,0,0,0,0,0,-1,783,1793,0,0
-434,-769,0,0,0,0,0,0,0,0,0,-1,790,1793,0,0
-427,-769,0,0,0,0,0,0,0,0,0,-1,797,1793,0,0
-420,-769,0,0,0,0,0,0,0,0,0,-1,804,1793,0,0
-413,-769,0,0,0,0,0,0,0,0,0,-1,811,1793,0,0
-406,-769,0,0,0,0,0,0,0,0,0,-1,818,1793,0,0
-399,-769,0,0,0,0,0,0,0,0,0,-1,825,1793,0,0
-392,-769,0,0,0,0,0,0,0,0,0,-1,832,1793,0,0
-385,-769,0,0,0,0,0,0,0,0,0,-1,839,1793,0,0
-378,-769,0,0,0,0,0,0,0,0,0,-1,846,1793,0,0
-371,-769,0,0,0,0,0,0,0,0,0,-1,853,1793,0,0
-364,-769,0,0,0,0,0,0,0,0,0,-1,860,1793,0,0
-357,-769,0,0,0,0,0,0,0,0,0,-1,867,1793,0,0
-350,-769,0,0,0,0,0,0,0,0,0,-1,874,1793,0,0
-343,-769,0,0,0,0,0,0,0,0,0,-1,881,1793,0,0
-336,-769,0,0,0,0,0,0,0,0,0,-1,888,1793,0,0
-329,-769,0,0,0,0,0,0,0,0,0,-1,895,1793,0,0
-322,-769,0,0,0,0,0,0,0,0,0,-1,902,1793,0,0
-315,-769,0,0,0,0,0,0,0,0,0,-1,909,1793,0,0
-308,-769,0,0,0,0,0,0,0,0,0,-1,916,1793,0,0
-301,-769,0,0,0,0,0,0,0,0,0,-1,923,1793,0,0
-294,-769,0,0,0,0,0,0,0,0,0,-1,930,1793,0,0
-287,-769,0,0,0,0,0,0,0,0,0,-1,937,1793,0,0
-280,-769,0,0,0,0,0,0,0,0,0,-1,944,1793,0,0
-273,-769,0,0,0,0,0,0,0,0,0,-1,951,1793,0,0
-266,-769,0,0,0,0,0,0,0,0,0,-1,958,1793,0,0
-259,-769,0,0,0,0,0,0,0,0,0,-1,965,1793,0,0
-252,-769,0,0,0,0,0,0,0,0,0,-1,972,1793,0,0
-245,-769,0,0,0,0,0,0,0,0,0,-1,979,1793,0,0
-238,-769,0,0,0,0,0,0,0,0,0,-1,986,1793,0,0
-231,-769,0,0,0,0,0,0,0,0,0,-1,993,1793,0,0
-224,-769,0,0,0,0,0,0,0,0,0,-1,1000,1793,0,0
-217,-769,0,0,0,0,0,0,0,0,0,-1,1007,1793,0,0
-210,-769,0,0,0,0,0,0,0,0,0,-1,1014,1793,0,0
-203,-769,0,0,0,0,0,0,0,0,0,-1,1021,1793,0,0
-196,-769,0,0,0,0,0,0,0,0,0,-1,1028,1793,0,0
-189,-769,0,0,0,0,0,0,0,0,0,-1,1035,1793,0,0
-182,-769,0,0,0,0,0,0,0,0,0,-1,1042,1793,0,0
-175,-769,0,0,0,0,0,0,0,0,0,-1,1049,1793,0,0
-168,-769,0,0,0,0,0,0,0,0,0,-1,1056,1793,0,0
-161,-769,-3.61145,12.4761,0,0,0,0,0,0,0,-1,1063,1793,-3.6114,-12.476
-154,-769,-0.813232,5.32874,0,0,0,0,0,0,0,-1,1070,1793,-0.813269,-5.32872
-147,-769,4.26587,4.7002,0,0,0,0,0,0,0,-1,1077,1793,4.26593,-4.70022
-140,-769,4.10376,5.28589,0,0,0,0,0,0,0,-1,1084,1793,4.10371,-5.28584
-133,-769,6.422,8.21777,0,0,0,0,0,0,0,-1,1091,1793,6.42198,-8.21773
-126,-769,-0.352295,19.326,0,0,0,0,0,0,0,-1,1098,1793,-0.352235,-19.326
-119,-769,6.01685,16.2577,0,0,0,0,0,0,0,-1,1105,1793,6.01689,-16.2576
-112,-769,5.76416,27.2615,0,0,0,0,0,0,0,-1,1112,1793,5.7642,-27.2615
-105,-769,4.97009,22.8479,0,0,0,0,0,0,0,-1,1119,1793,4.97006,-22.8479
-98,-769,4.69373,18.9142,0,0,0,0,0,0,0,-1,1126,1793,4.69376,-18.9142
-91,-769,4.41748,14.9805,0,0,0,0,0,0,0,-1,1133,1793,4.41746,-14.9805
-84,-769,3.2207,12.4565,0,0,0,0,0,0,0,-1,1140,1793,3.22066,-12.4565
-77,-769,2.48816,8.98486,0,0,0,0,0,0,0,-1,1147,1793,2.48815,-8.98489
-70,-769,1.04944,11.9852,0,0,0,0,0,0,0,-1,1154,1793,1.04947,-11.9852
-63,-769,-2.39709,9.60339,0,0,0,0,0,0,0,-1,1161,1793,-2.39706,-9.6034
-56,-769,-5.84363,7.22156,0,0,0,0,0,0,0,-1,1168,1793,-5.84359,-7.22157
-49,-769,-2.41443,3.95471,0,0,0,0,0,0,0,-1,1175,1793,-2.41446,-3.95471
-42,-769,-3.1991,2.64941,0,0,0,0,0,0,0,-1,1182,1793,-3.19914,-2.64944
-35,-769,-3.50183,1.73389,0,0,0,0,0,0,0,-1,1189,1793,-3.50189,-1.7339
-28,-769,-3.96985,1.14075,0,0,0,0,0,0,0,-1,1196,1793,-3.96985,-1.14078
-21,-769,16.8707,61.5851,0,0,0,0,0,0,0,-1,1203,1793,16.8708,-61.5851
-14,-769,16.7646,61.0436,0,0,0,0,0,0,0,-1,1210,1793,16.7646,-61.0436
-7,-769,15.3135,61.1676,0,0,0,0,0,0,0,-1,1217,1793,15.3135,-61.1676
0,-769,9.6521,64.9012,0,0,0,0,0,0,0,-1,1224,1793,9.65211,-64.9013
7,-769,13.5747,62.6692,0,0,0,0,0,0,0,-1,1231,1793,13.5747,-62.6691
14,-769,13.3118,63.2898,0,0,0,0,0,0,0,-1,1238,1793,13.3117,-63.2898
21,-769,12.4308,63.4586,0,0,0,0,0,0,0,-1,1245,1793,12.4308,-63.4586
28,-769,11.7385,63.3973,-0.0292484,0.0902665,0.0274463,0.0962681,-0.03525,1.35552,0.0786089,0.0441089,1252,1793,11.7385,-63.3973
35,-769,11.0441,63.6902,-0.0238082,0.0879062,0.0225507,0.0922866,-0.0281885,1.37894,0.0727639,0.0469373,1259,1793,11.0441,-63.6902
42,-769,9.74841,64.9982,0,0,0,0,0,0,0,-1,1266,1793,9.74839,-64.9982
49,-769,9.48828,65.0648,-0.010637,0.0864089,0.0109957,0.0876391,-0.0118673,1.45937,0.062757,0.0491791,1273,1793,9.4883,-65.0649
56,-769,9.37231,65.2472,-0.00575236,0.0876911,0.00649122,0.0881398,-0.00620113,1.50177,0.0609322,0.0456068,1280,1793,9.37226,-65.2473
63,-769,9.2146,65.3419,-0.00186373,0.0895166,0.00208279,0.0895641,-0.00191118,1.54802,0.0603565,0.0450671,1287,1793,9.21466,-65.3419
70,-769,9.09814,65.2493,-0.000623168,0.093977,-0.000986211,0.0939872,-0.000633445,-1.56037,0.0628704,0.0455739,1294,1793,9.09817,-65.2492
77,-769,8.75452,65.4302,-0.00139878,0.0985267,-0.00347728,0.0986476,-0.00151965,-1.53605,0.0662774,0.0445985,1301,1793,8.75451,-65.4302
84,-769,8.83557,65.4502,0,0,0,0,0,0,0,-1,1308,1793,8.83562,-65.4502
91,-769,6.62097,67.3038,0,0,0,0,0,0,0,-1,1315,1793,6.62094,-67.3038
98,-769,8.93591,66.6063,0,0,0,0,0,0,0,-1,1322,1793,8.93588,-66.6064
105,-769,8.4281,66.6749,0,0,0,0,0,0,0,-1,1329,1793,8.42813,-66.675
112,-769,8.39209,64.6177,0,0,0,0,0,0,0,-1,1336,1793,8.39213,-64.6177
119,-769,7.84424,63.9819,0,0,0,0,0,0,0,-1,1343,1793,7.84422,-63.9819
126,-769,5.45361,68.0551,0,0,0,0,0,0,0,-1,1350,1793,5.45364,-68.055
133,-769,7.99805,64.861,0,0,0,0,0,0,0,-1,1357,1793,7.99809,-64.861
140,-769,8.03308,64.5776,0,0,0,0,0,0,0,-1,1364,1793,8.03305,-64.5776
147,-769,7.90222,64.3624,0,0,0,0,0,0,0,-1,1371,1793,7.90217,-64.3624
154,-769,7.29382,55.4241,0,0,0,0,0,0,0,-1,1378,1793,7.29384,-55.4241
161,-769,6.57019,1.53223,0,0,0,0,0,0,0,-1,1385,1793,6.57019,-1.53226
168,-769,8.27637,0.756958,0,0,0,0,0,0,0,-1,1392,1793,8.27639,-0.756944
175,-769,8.47144,2.41174,0,0,0,0,0,0,0,-1,1399,1793,8.47147,-2.4118
182,-769,8.41479,4.05994,0,0,0,0,0,0,0,-1,1406,1793,8.41479,-4.05997
189,-769,8.25049,5.68433,0,0,0,0,0,0,0,-1,1413,1793,8.25054,-5.68428
196,-769,7.97729,7.42847,0,0,0,0,0,0,0,-1,1420,1793,7.9773,-7.42848
203,-769,22.0977,6.73889,0,0,0,0,0,0,0,-1,1427,1793,22.0977,-6.7389
210,-769,22.1115,7.77246,0,0,0,0,0,0,0,-1,1434,1793,22.1115,-7.77248
217,-769,22.4723,8.79102,0,0,0,0,0,0,0,-1,1441,1793,22.4723,-8.79099
224,-769,22.1348,9.35278,0,0,0,0,0,0,0,-1,1448,1793,22.1348,-9.35283
231,-769,3.13318,19.7184,0,0,0,0,0,0,0,-1,1455,1793,3.13323,-19.7184
238,-769,5.74512,18.6597,0,0,0,0,0,0,0,-1,1462,1793,5.74512,-18.6596
245,-769,5.80798,22.87,0,0,0,0,0,0,0,-1,1469,1793,5.80796,-22.87
252,-769,6.20837,28.394,0,0,0,0,0,0,0,-1,1476,1793,6.20833,-28.3941
259,-769,10.974,17.7698,0,0,0,0,0,0,0,-1,1483,1793,10.974,-17.7698
266,-769,15.8488,7.3905,0,0,0,0,0,0,0,-1,1490,1793,15.8488,-7.39046
273,-769,14.8075,7.56152,0,0,0,0,0,0,0,-1,1497,1793,14.8075,-7.56152
280,-769,13.6519,7.43054,0,0,0,0,0,0,0,-1,1504,1793,13.6518,-7.43058
287,-769,0,0,0,0,0,0,0,0,0,-1,1511,1793,0,0
294,-769,0,0,0,0,0,0,0,0,0,-1,1518,1793,0,0
301,-769,0,0,0,0,0,0,0,0,0,-1,1525,1793,0,0
308,-769,0,0,0,0,0,0,0,0,0,-1,1532,1793,0,0
315,-769,0,0,0,0,0,0,0,0,0,-1,1539,1793,0,0
322,-769,0,0,0,0,0,0,0,0,0,-1,1546,1793,0,0
329,-769,0,0,0,0,0,0,0,0,0,-1,1553,1793,0,0
336,-769,0,0,0,0,0,0,0,0,0,-1,1560,1793,0,0
343,-769,0,0,0,0,0,0,0,0,0,-1,1567,1793,0,0
350,-769,0,0,0,0,0,0,0,0,0,-1,1574,1793,0,0
357,-769,0,0,0,0,0,0,0,0,0,-1,1581,1793,0,0
364,-769,0,0,0,0,0,0,0,0,0,-1,1588,1793,0,0
371,-769,0,0,0,0,0,0,0,0,0,-1,1595,1793,0,0
378,-769,0,0,0,0,0,0,0,0,0,-1,1602,1793,0,0
385,-769,0,0,0,0,0,0,0,0,0,-1,1609,1793,0,0
392,-769,0,0,0,0,0,0,0,0,0,-1,1616,1793,0,0
399,-769,0,0,0,0,0,0,0,0,0,-1,1623,1793,0,0
406,-769,0,0,0,0,0,0,0,0,0,-1,1630,1793,0,0
413,-769,0,0,0,0,0,0,0,0,0,-1,1637,1793,0,0
420,-769,0,0,0,0,0,0,0,0,0,-1,1644,1793,0,0
427,-769,0,0,0,0,0,0,0,0,0,-1,1651,1793,0,0
434,-769,0,0,0,0,0,0,0,0,0,-1,1658,1793,0,0
441,-769,0,0,0,0,0,0,0,0,0,-1,1665,1793,0,0
448,-769,0,0,0,0,0,0,0,0,0,-1,1672,1793,0,0
455,-769,0,0,0,0,0,0,0,0,0,-1,1679,1793,0,0
462,-769,0,0,0,0,0,0,0,0,0,-1,1686,1793,0,0
469,-769,0,0,0,0,0,0,0,0,0,-1,1693,1793,0,0
476,-769,0,0,0,0,0,0,0,0,0,-1,1700,1793,0,0
483,-769,0,0,0,0,0,0,0,0,0,-1,1707,1793,0,0
490,-769,0,0,0,0,0,0,0,0,0,-1,1714,1793,0,0
497,-769,0,0,0,0,0,0,0,0,0,-1,1721,1793,0,0
504,-769,0,0,0,0,0,0,0,0,0,-1,1728,1793,0,0
511,-769,0,0,0,0,0,0,0,0,0,-1,1735,1793,0,0
518,-769,0,0,0,0,0,0,0,0,0,-1,1742,1793,0,0
525,-769,0,0,0,0,0,0,0,0,0,-1,1749,1793,0,0
532,-769,0,0,0,0,0,0,0,0,0,-1,1756,1793,0,0
539,-769,0,0,0,0,0,0,0,0,0,-1,1763,1793,0,0
546,-769,0,0,0,0,0,0,0,0,0,-1,1770,1793,0,0
553,-769,0,0,0,0,0,0,0,0,0,-1,1777,1793,0,0
560,-769,0,0,0,0,0,0,0,0,0,-1,1784,1793,0,0
567,-769,0,0,0,0,0,0,0,0,0,-1,1791,1793,0,0
574,-769,0,0,0,0,0,0,0,0,0,-1,1798,1793,0,0
581,-769,0,0,0,0,0,0,0,0,0,-1,1805,1793,0,0
588,-769,0,0,0,0,0,0,0,0,0,-1,1812,1793,0,0
595,-769,0,0,0,0,0,0,0,0,0,-1,1819,1793,0,0
602,-769,0,0,0,0,0,0,0,0,0,-1,1826,1793,0,0
609,-769,0,0,0,0,0,0,0,0,0,-1,1833,1793,0,0
616,-769,0,0,0,0,0,0,0,0,0,-1,1840,1793,0,0
623,-769,0,0,0,0,0,0,0,0,0,-1,1847,1793,0,0
630,-769,0,0,0,0,0,0,0,0,0,-1,1854,1793,0,0
637,-769,0,0,0,0,0,0,0,0,0,-1,1861,1793,0,0
644,-769,0,0,0,0,0,0,0,0,0,-1,1868,1793,0,0
651,-769,0,0,0,0,0,0,0,0,0,-1,1875,1793,0,0
658,-769,0,0,0,0,0,0,0,0,0,-1,1882,1793,0,0
665,-769,0,0,0,0,0,0,0,0,0,-1,1889,1793,0,0
672,-769,0,0,0,0,0,0,0,0,0,-1,1896,1793,0,0
679,-769,0,0,0,0,0,0,0,0,0,-1,1903,1793,0,0
686,-769,0,0,0,0,0,0,0,0,0,-1,1910,1793,0,0
693,-769,0,0,0,0,0,0,0,0,0,-1,1917,1793,0,0
700,-769,0,0,0,0,0,0,0,0,0,-1,1924,1793,0,0
707,-769,0,0,0,0,0,0,0,0,0,-1,1931,1793,0,0
714,-769,0,0,0,0,0,0,0,0,0,-1,1938,1793,0,0
721,-769,0,0,0,0,0,0,0,0,0,-1,1945,1793,0,0
728,-769,0,0,0,0,0,0,0,0,0,-1,1952,1793,0,0
735,-769,0,0,0,0,0,0,0,0,0,-1,1959,1793,0,0
742,-769,0,0,0,0,0,0,0,0,0,-1,1966,1793,0,0
749,-769,0,0,0,0,0,0,0,0,0,-1,1973,1793,0,0
756,-769,0,0,0,0,0,0,0,0,0,-1,1980,1793,0,0
763,-769,0,0,0,0,0,0,0,0,0,-1,1987,1793,0,0
770,-769,0,0,0,0,0,0,0,0,0,-1,1994,1793,0,0
777,-769,0,0,0,0,0,0,0,0,0,-1,2001,1793,0,0
784,-769,0,0,0,0,0,0,0,0,0,-1,2008,1793,0,0
791,-769,0,0,0,0,0,0,0,0,0,-1,2015,1793,0,0
798,-769,0,0,0,0,0,0,0,0,0,-1,2022,1793,0,0
805,-769,0,0,0,0,0,0,0,0,0,-1,2029,1793,0,0
812,-769,0,0,0,0,0,0,0,0,0,-1,2036,1793,0,0
-700,-776,0,0,0,0,0,0,0,0,0,-1,524,1800,0,0
-693,-776,0,0,0,0,0,0,0,0,0,-1,531,1800,0,0
-686,-776,0,0,0,0,0,0,0,0,0,-1,538,1800,0,0
-679,-776,0,0,0,0,0,0,0,0,0,-1,545,1800,0,0
-672,-776,0,0,0,0,0,0,0,0,0,-1,552,1800,0,0
-665,-776,0,0,0,0,0,0,0,0,0,-1,559,1800,0,0
-658,-776,0,0,0,0,0,0,0,0,0,-1,566,1800,0,0
-651,-776,0,0,0,0,0,0,0,0,0,-1,573,1800,0,0
-644,-776,0,0,0,0,0,0,0,0,0,-1,580,1800,0,0
-637,-776,0,0,0,0,0,0,0,0,0,-1,587,1800,0,0
-630,-776,0,0,0,0,0,0,0,0,0,-1,594,1800,0,0
-623,-776,0,0,0,0,0,0,0,0,0,-1,601,1800,0,0
-616,-776,0,0,0,0,0,0,0,0,0,-1,608,1800,0,0
-609,-776,0,0,0,0,0,0,0,0,0,-1,615,1800,0,0
-602,-776,0,0,0,0,0,0,0,0,0,-1,622,1800,0,0
-595,-776,0,0,0,0,0,0,0,0,0,-1,629,1800,0,0
-588,-776,0,0,0,0,0,0,0,0,0,-1,636,1800,0,0
-581,-776,0,0,0,0,0,0,0,0,0,-1,643,1800,0,0
-574,-776,0,0,0,0,0,0,0,0,0,-1,650,1800,0,0
-567,-776,0,0,0,0,0,0,0,0,0,-1,657,1800,0,0
-560,-776,0,0,0,0,0,0,0,0,0,-1,664,1800,0,0
-553,-776,0,0,0,0,0,0,0,0,0,-1,671,1800,0,0
-546,-776,0,0,0,0,0,0,0,0,0,-1,678,1800,0,0
-539,-776,0,0,0,0,0,0,0,0,0,-1,685,1800,0,0
-532,-776,0,0,0,0,0,0,0,0,0,-1,692,1800,0,0
-525,-776,0,0,0,0,0,0,0,0,0,-1,699,1800,0,0
-518,-776,0,0,0,0,0,0,0,0,0,-1,706,1800,0,0
-511,-776,0,0,0,0,0,0,0,0,0,-1,713,1800,0,0
-504,-776,0,0,0,0,0,0,0,0,0,-1,720,1800,0,0
-497,-776,0,0,0,0,0,0,0,0,0,-1,727,1800,0,0
-490,-776,0,0,0,0,0,0,0,0,0,-1,734,1800,0,0
-483,-776,0,0,0,0,0,0,0,0,0,-1,741,1800,0,0
-476,-776,0,0,0,0,0,0,0,0,0,-1,748,1800,0,0
-469,-776,0,0,0,0,0,0,0,0,0,-1,755,1800,0,0
-462,-776,0,0,0,0,0,0,0,0,0,-1,762,1800,0,0
-455,-776,0,0,0,0,0,0,0,0,0,-1,769,1800,0,0
-448,-776,0,0,0,0,0,0,0,0,0,-1,776,1800,0,0
-441,-776,0,0,0,0,0,0,0,0,0,-1,783,1800,0,0
-434,-776,0,0,0,0,0,0,0,0,0,-1,790,1800,0,0
-427,-776,0,0,0,0,0,0,0,0,0,-1,797,1800,0,0
-420,-776,0,0,0,0,0,0,0,0,0,-1,804,1800,0,0
-413,-776,0,0,0,0,0,0,0,0,0,-1,811,1800,0,0
-406,-776,0,0,0,0,0,0,0,0,0,-1,818,1800,0,0
-399,-776,0,0,0,0,0,0,0,0,0,-1,825,1800,0,0
-392,-776,0,0,0,0,0,0,0,0,0,-1,832,1800,0,0
-385,-776,0,0,0,0,0,0,0,0,0,-1,839,1800,0,0
-378,-776,0,0,0,0,0,0,0,0,0,-1,846,1800,0,0
-371,-776,0,0,0,0,0,0,0,0,0,-1,853,1800,0,0
-364,-776,0,0,0,0,0,0,0,0,0,-1,860,1800,0,0
-357,-776,0,0,0,0,0,0,0,0,0,-1,867,1800,0,0
-350,-776,0,0,0,0,0,0,0,0,0,-1,874,1800,0,0
-343,-776,0,0,0,0,0,0,0,0,0,-1,881,1800,0,0
-336,-776,0,0,0,0,0,0,0,0,0,-1,888,1800,0,0
-329,-776,0,0,0,0,0,0,0,0,0,-1,895,1800,0,0
-322,-776,0,0,0,0,0,0,0,0,0,-1,902,1800,0,0
-315,-776,0,0,0,0,0,0,0,0,0,-1,909,1800,0,0
-308,-776,0,0,0,0,0,0,0,0,0,-1,916,1800,0,0
-301,-776,0,0,0,0,0,0,0,0,0,-1,923,1800,0,0
-294,-776,0,0,0,0,0,0,0,0,0,-1,930,1800,0,0
-287,-776,0,0,0,0,0,0,0,0,0,-1,937,1800,0,0
-280,-776,0,0,0,0,0,0,0,0,0,-1,944,1800,0,0
-273,-776,0,0,0,0,0,0,0,0,0,-1,951,1800,0,0
-266,-776,0,0,0,0,0,0,0,0,0,-1,958,1800,0,0
-259,-776,0,0,0,0,0,0,0,0,0,-1,965,1800,0,0
-252,-776,0,0,0,0,0,0,0,0,0,-1,972,1800,0,0
-245,-776,0,0,0,0,0,0,0,0,0,-1,979,1800,0,0
-238,-776,0,0,0,0,0,0,0,0,0,-1,986,1800,0,0
-231,-776,0,0,0,0,0,0,0,0,0,-1,993,1800,0,0
-224,-776,0,0,0,0,0,0,0,0,0,-1,1000,1800,0,0
-217,-776,0,0,0,0,0,0,0,0,0,-1,1007,1800,0,0
-210,-776,0,0,0,0,0,0,0,0,0,-1,1014,1800,0,0
-203,-776,0,0,0,0,0,0,0,0,0,-1,1021,1800,0,0
-196,-776,0,0,0,0,0,0,0,0,0,-1,1028,1800,0,0
-189,-776,0,0,0,0,0,0,0,0,0,-1,1035,1800,0,0
-182,-776,0,0,0,0,0,0,0,0,0,-1,1042,1800,0,0
-175,-776,0,0,0,0,0,0,0,0,0,-1,1049,1800,0,0
-168,-776,0,0,0,0,0,0,0,0,0,-1,1056,1800,0,0
-161,-776,0,0,0,0,0,0,0,0,0,-1,1063,1800,0,0
-154,-776,0,0,0,0,0,0,0,0,0,-1,1070,1800,0,0
-147,-776,0,0,0,0,0,0,0,0,0,-1,1077,1800,0,0
-140,-776,2.98499,5.20911,0,0,0,0,0,0,0,-1,1084,1800,2.98493,-5.2091
-133,-776,6.72363,9.35828,0,0,0,0,0,0,0,-1,1091,1800,6.72358,-9.35824
-126,-776,6.55029,13.7832,0,0,0,0,0,0,0,-1,1098,1800,6.55029,-13.7832
-119,-776,5.72107,13.7787,0,0,0,0,0,0,0,-1,1105,1800,5.72106,-13.7787
-112,-776,6.84998,20.4421,0,0,0,0,0,0,0,-1,1112,1800,6.84993,-20.4421
-105,-776,4.46863,24.6742,0,0,0,0,0,0,0,-1,1119,1800,4.46868,-24.6742
-98,-776,4.31616,19.7659,0,0,0,0,0,0,0,-1,1126,1800,4.31619,-19.7659
-91,-776,3.30225,18.134,0,0,0,0,0,0,0,-1,1133,1800,3.30222,-18.134
-84,-776,2.67932,14.3162,0,0,0,0,0,0,0,-1,1140,1800,2.67926,-14.3161
-77,-776,0.580078,11.1272,0,0,0,0,0,0,0,-1,1147,1800,0.58002,-11.1272
-70,-776,-0.562866,12.3163,0,0,0,0,0,0,0,-1,1154,1800,-0.562897,-12.3163
-63,-776,-3.96106,9.97656,0,0,0,0,0,0,0,-1,1161,1800,-3.961,-9.97654
-56,-776,-7.35913,7.63672,0,0,0,0,0,0,0,-1,1168,1800,-7.3591,-7.63676
-49,-776,-7.62952,3.1908,0,0,0,0,0,0,0,-1,1175,1800,-7.62955,-3.19076
-42,-776,-3.41272,3.0249,0,0,0,0,0,0,0,-1,1182,1800,-3.41269,-3.02488
-35,-776,-3.71753,1.63635,0,0,0,0,0,0,0,-1,1189,1800,-3.71755,-1.63631
-28,-776,-4.03979,0.716064,0,0,0,0,0,0,0,-1,1196,1800,-4.03977,-0.716055
-21,-776,16.189,59.407,0,0,0,0,0,0,0,-1,1203,1800,16.189,-59.407
-14,-776,15.7815,59.7385,-0.0623576,0.14412,0.0633165,0.161989,-0.0802271,1.29572,0.142475,0.0463253,1210,1800,15.7815,-59.7385
-7,-776,14.8789,60.1531,-0.0623094,0.137657,0.0605151,0.154545,-0.0791967,1.29866,0.137268,0.0499011,1217,1800,14.8789,-60.153
0,-776,13.8629,60.724,0,0,0,0,0,0,0,-1,1224,1800,13.8629,-60.724
7,-776,13.1786,61.3375,-0.054644,0.12795,0.0524118,0.141925,-0.0686187,1.31023,0.123989,0.0479971,1231,1800,13.1786,-61.3375
14,-776,12.7777,61.9879,0,0,0,0,0,0,0,-1,1238,1800,12.7777,-61.9879
21,-776,12.2587,62.2072,0,0,0,0,0,0,0,-1,1245,1800,12.2586,-62.2072
28,-776,11.3879,62.5737,-0.0324236,0.115153,0.0347046,0.122907,-0.0401774,1.35098,0.0981118,0.0434378,1252,1800,11.3879,-62.5738
35,-776,10.615,62.9797,-0.0251684,0.1119,0.0282934,0.117511,-0.030779,1.37504,0.0903648,0.0437181,1259,1800,10.615,-62.9797
42,-776,10.0969,63.479,-0.0166744,0.109628,0.0203204,0.112817,-0.0198632,1.41514,0.0826319,0.0436764,1266,1800,10.0969,-63.479
49,-776,9.57446,64.0083,-0.00897967,0.109092,0.0137857,0.11068,-0.0105679,1.45609,0.0775499,0.0470166,1273,1800,9.57445,-64.0083
56,-776,9.474,64.7023,-0.00298508,0.110211,0.00810062,0.110788,-0.00356184,1.49972,0.0750741,0.0458436,1280,1800,9.47394,-64.7023
63,-776,9.31116,64.8556,0.00162089,0.112065,0.00254564,0.112124,0.00156225,1.54776,0.074234,0.048996,1287,1800,9.31119,-64.8556
70,-776,9.24597,64.6056,0,0,0,0,0,0,0,-1,1294,1800,9.24592,-64.6056
77,-776,8.67847,65.145,0,0,0,0,0,0,0,-1,1301,1800,8.67852,-65.1451
84,-776,7.70154,65.3717,0,0,0,0,0,0,0,-1,1308,1800,7.70158,-65.3717
91,-776,7.51868,65.6332,-0.00360545,0.132705,-0.00862265,0.133248,-0.00414874,-1.50787,0.0902466,0.0450011,1315,1800,7.51864,-65.6332
98,-776,8.98987,65.3582,-0.00864994,0.136923,-0.00898766,0.137475,-0.00920275,-1.50937,0.0948668,0.048487,1322,1800,8.98987,-65.3582
105,-776,8.5072,65.428,0,0,0,0,0,0,0,-1,1329,1800,8.50726,-65.4279
112,-776,7.91028,65.7606,0,0,0,0,0,0,0,-1,1336,1800,7.91027,-65.7606
119,-776,7.255,65.8712,0,0,0,0,0,0,0,-1,1343,1800,7.25497,-65.8713
126,-776,5.93176,66.5529,0,0,0,0,0,0,0,-1,1350,1800,5.93179,-66.5529
133,-776,6.18689,67.0548,0,0,0,0,0,0,0,-1,1357,1800,6.18689,-67.0548
140,-776,9.13232,61.809,0,0,0,0,0,0,0,-1,1364,1800,9.13236,-61.809
147,-776,9.61267,62.2073,0,0,0,0,0,0,0,-1,1371,1800,9.61271,-62.2073
154,-776,38.4338,21.854,0,0,0,0,0,0,0,-1,1378,1800,38.4339,-21.854
161,-776,6.50293,1.1731,0,0,0,0,0,0,0,-1,1385,1800,6.5029,-1.17313
168,-776,8.44971,1.22913,0,0,0,0,0,0,0,-1,1392,1800,8.44974,-1.22915
175,-776,8.61523,2.87061,0,0,0,0,0,0,0,-1,1399,1800,8.6152,-2.87063
182,-776,8.54065,4.60645,0,0,0,0,0,0,0,-1,1406,1800,8.5407,-4.60643
189,-776,8.35303,6.28223,0,0,0,0,0,0,0,-1,1413,1800,8.35297,-6.28225
196,-776,8.0387,8.21704,0,0,0,0,0,0,0,-1,1420,1800,8.03865,-8.217
203,-776,7.91736,9.79919,0,0,0,0,0,0,0,-1,1427,1800,7.91735,-9.79922
210,-776,20.2479,7.85718,0,0,0,0,0,0,0,-1,1434,1800,20.248,-7.85719
217,-776,21.5171,9.3418,0,0,0,0,0,0,0,-1,1441,1800,21.5171,-9.34182
224,-776,3.09253,14.9313,0,0,0,0,0,0,0,-1,1448,1800,3.09254,-14.9313
231,-776,20.8671,9.21057,0,0,0,0,0,0,0,-1,1455,1800,20.867,-9.21054
238,-776,20.7511,9.05847,0,0,0,0,0,0,0,-1,1462,1800,20.7511,-9.05848
245,-776,3.80823,15.4108,0,0,0,0,0,0,0,-1,1469,1800,3.80826,-15.4108
252,-776,8.57837,20.2009,0,0,0,0,0,0,0,-1,1476,1800,8.57841,-20.2009
259,-776,14.1882,7.69055,0,0,0,0,0,0,0,-1,1483,1800,14.1882,-7.69061
266,-776,0,0,0,0,0,0,0,0,0,-1,1490,1800,0,0
273,-776,0,0,0,0,0,0,0,0,0,-1,1497,1800,0,0
280,-776,0,0,0,0,0,0,0,0,0,-1,1504,1800,0,0
287,-776,0,0,0,0,0,0,0,0,0,-1,1511,1800,0,0
294,-776,0,0,0,0,0,0,0,0,0,-1,1518,1800,0,0
301,-776,0,0,0,0,0,0,0,0,0,-1,1525,1800,0,0
308,-776,0,0,0,0,0,0,0,0,0,-1,1532,1800,0,0
315,-776,0,0,0,0,0,0,0,0,0,-1,1539,1800,0,0
322,-776,0,0,0,0,0,0,0,0,0,-1,1546,1800,0,0
329,-776,0,0,0,0,0,0,0,0,0,-1,1553,1800,0,0
336,-776,0,0,0,0,0,0,0,0,0,-1,1560,1800,0,0
343,-776,0,0,0,0,0,0,0,0,0,-1,1567,1800,0,0
350,-776,0,0,0,0,0,0,0,0,0,-1,1574,1800,0,0
357,-776,0,0,0,0,0,0,0,0,0,-1,1581,1800,0,0
364,-776,0,0,0,0,0,0,0,0,0,-1,1588,1800,0,0
371,-776,0,0,0,0,0,0,0,0,0,-1,1595,1800,0,0
378,-776,0,0,0,0,0,0,0,0,0,-1,1602,1800,0,0
385,-776,0,0,0,0,0,0,0,0,0,-1,1609,1800,0,0
392,-776,0,0,0,0,0,0,0,0,0,-1,1616,1800,0,0
399,-776,0,0,0,0,0,0,0,0,0,-1,1623,1800,0,0
406,-776,0,0,0,0,0,0,0,0,0,-1,1630,1800,0,0
413,-776,0,0,0,0,0,0,0,0,0,-1,1637,1800,0,0
420,-776,0,0,0,0,0,0,0,0,0,-1,1644,1800,0,0
427,-776,0,0,0,0,0,0,0,0,0,-1,1651,1800,0,0
434,-776,0,0,0,0,0,0,0,0,0,-1,1658,1800,0,0
441,-776,0,0,0,0,0,0,0,0,0,-1,1665,1800,0,0
448,-776,0,0,0,0,0,0,0,0,0,-1,1672,1800,0,0
455,-776,0,0,0,0,0,0,0,0,0,-1,1679,1800,0,0
462,-776,0,0,0,0,0,0,0,0,0,-1,1686,1800,0,0
469,-776,0,0,0,0,0,0,0,0,0,-1,1693,1800,0,0
476,-776,0,0,0,0,0,0,0,0,0,-1,1700,1800,0,0
483,-776,0,0,0,0,0,0,0,0,0,-1,1707,1800,0,0
490,-776,0,0,0,0,0,0,0,0,0,-1,1714,1800,0,0
497,-776,0,0,0,0,0,0,0,0,0,-1,1721,1800,0,0
504,-776,0,0,0,0,0,0,0,0,0,-1,1728,1800,0,0
511,-776,0,0,0,0,0,0,0,0,0,-1,1735,1800,0,0
518,-776,0,0,0,0,0,0,0,0,0,-1,1742,1800,0,0
525,-776,0,0,0,0,0,0,0,0,0,-1,1749,1800,0,0
532,-776,0,0,0,0,0,0,0,0,0,-1,1756,1800,0,0
539,-776,0,0,0,0,0,0,0,0,0,-1,1763,1800,0,0
546,-776,0,0,0,0,0,0,0,0,0,-1,1770,1800,0,0
553,-776,0,0,0,0,0,0,0,0,0,-1,1777,1800,0,0
560,-776,0,0,0,0,0,0,0,0,0,-1,1784,1800,0,0
567,-776,0,0,0,0,0,0,0,0,0,-1,1791,1800,0,0
574,-776,0,0,0,0,0,0,0,0,0,-1,1798,1800,0,0
581,-776,0,0,0,0,0,0,0,0,0,-1,1805,1800,0,0
588,-776,0,0,0,0,0,0,0,0,0,-1,1812,1800,0,0
595,-776,0,0,0,0,0,0,0,0,0,-1,1819,1800,0,0
602,-776,0,0,0,0,0,0,0,0,0,-1,1826,1800,0,0
609,-776,0,0,0,0,0,0,0,0,0,-1,1833,1800,0,0
616,-776,0,0,0,0,0,0,0,0,0,-1,1840,1800,0,0
623,-776,0,0,0,0,0,0,0,0,0,-1,1847,1800,0,0
630,-776,0,0,0,0,0,0,0,0,0,-1,1854,1800,0,0
637,-776,0,0,0,0,0,0,0,0,0,-1,1861,1800,0,0
644,-776,0,0,0,0,0,0,0,0,0,-1,1868,1800,0,0
651,-776,0,0,0,0,0,0,0,0,0,-1,1875,1800,0,0
658,-776,0,0,0,0,0,0,0,0,0,-1,1882,1800,0,0
665,-776,0,0,0,0,0,0,0,0,0,-1,1889,1800,0,0
672,-776,0,0,0,0,0,0,0,0,0,-1,1896,1800,0,0
679,-776,0,0,0,0,0,0,0,0,0,-1,1903,1800,0,0
686,-776,0,0,0,0,0,0,0,0,0,-1,1910,1800,0,0
693,-776,0,0,0,0,0,0,0,0,0,-1,1917,1800,0,0
700,-776,0,0,0,0,0,0,0,0,0,-1,1924,1800,0,0
707,-776,0,0,0,0,0,0,0,0,0,-1,1931,1800,0,0
714,-776,0,0,0,0,0,0,0,0,0,-1,1938,1800,0,0
721,-776,0,0,0,0,0,0,0,0,0,-1,1945,1800,0,0
728,-776,0,0,0,0,0,0,0,0,0,-1,1952,1800,0,0
735,-776,0,0,0,0,0,0,0,0,0,-1,1959,1800,0,0
742,-776,0,0,0,0,0,0,0,0,0,-1,1966,1800,0,0
749,-776,0,0,0,0,0,0,0,0,0,-1,1973,1800,0,0
756,-776,0,0,0,0,0,0,0,0,0,-1,1980,1800,0,0
763,-776,0,0,0,0,0,0,0,0,0,-1,1987,1800,0,0
770,-776,0,0,0,0,0,0,0,0,0,-1,1994,1800,0,0
777,-776,0,0,0,0,0,0,0,0,0,-1,2001,1800,0,0
784,-776,0,0,0,0,0,0,0,0,0,-1,2008,1800,0,0
791,-776,0,0,0,0,0,0,0,0,0,-1,2015,1800,0,0
798,-776,0,0,0,0,0,0,0,0,0,-1,2022,1800,0,0
805,-776,0,0,0,0,0,0,0,0,0,-1,2029,1800,0,0
812,-776,0,0,0,0,0,0,0,0,0,-1,2036,1800,0,0
-700,-783,0,0,0,0,0,0,0,0,0,-1,524,1807,0,0
-693,-783,0,0,0,0,0,0,0,0,0,-1,531,1807,0,0
-686,-783,0,0,0,0,0,0,0,0,0,-1,538,1807,0,0
-679,-783,0,0,0,0,0,0,0,0,0,-1,545,1807,0,0
-672,-783,0,0,0,0,0,0,0,0,0,-1,552,1807,0,0
-665,-783,0,0,0,0,0,0,0,0,0,-1,559,1807,0,0
-658,-783,0,0,0,0,0,0,0,0,0,-1,566,1807,0,0
-651,-783,0,0,0,0,0,0,0,0,0,-1,573,1807,0,0
-644,-783,0,0,0,0,0,0,0,0,0,-1,580,1807,0,0
-637,-783,0,0,0,0,0,0,0,0,0,-1,587,1807,0,0
-630,-783,0,0,0,0,0,0,0,0,0,-1,594,1807,0,0
-623,-783,0,0,0,0,0,0,0,0,0,-1,601,1807,0,0
-616,-783,0,0,0,0,0,0,0,0,0,-1,608,1807,0,0
-609,-783,0,0,0,0,0,0,0,0,0,-1,615,1807,0,0
-602,-783,0,0,0,0,0,0,0,0,0,-1,622,1807,0,0
-595,-783,0,0,0,0,0,0,0,0,0,-1,629,1807,0,0
-588,-783,0,0,0,0,0,0,0,0,0,-1,636,1807,0,0
-581,-783,0,0,0,0,0,0,0,0,0,-1,643,1807,0,0
-574,-783,0,0,0,0,0,0,0,0,0,-1,650,1807,0,0
-567,-783,0,0,0,0,0,0,0,0,0,-1,657,1807,0,0
-560,-783,0,0,0,0,0,0,0,0,0,-1,664,1807,0,0
-553,-783,0,0,0,0,0,0,0,0,0,-1,671,1807,0,0
-546,-783,0,0,0,0,0,0,0,0,0,-1,678,1807,0,0
-539,-783,0,0,0,0,0,0,0,0,0,-1,685,1807,0,0
-532,-783,0,0,0,0,0,0,0,0,0,-1,692,1807,0,0
-525,-783,0,0,0,0,0,0,0,0,0,-1,699,1807,0,0
-518,-783,0,0,0,0,0,0,0,0,0,-1,706,1807,0,0
-511,-783,0,0,0,0,0,0,0,0,0,-1,713,1807,0,0
-504,-783,0,0,0,0,0,0,0,0,0,-1,720,1807,0,0
-497,-783,0,0,0,0,0,0,0,0,0,-1,727,1807,0,0
-490,-783,0,0,0,0,0,0,0,0,0,-1,734,1807,0,0
-483,-783,0,0,0,0,0,0,0,0,0,-1,741,1807,0,0
-476,-783,0,0,0,0,0,0,0,0,0,-1,748,1807,0,0
-469,-783,0,0,0,0,0,0,0,0,0,-1,755,1807,0,0
-462,-783,0,0,0,0,0,0,0,0,0,-1,762,1807,0,0
-455,-783,0,0,0,0,0,0,0,0,0,-1,769,1807,0,0
-448,-783,0,0,0,0,0,0,0,0,0,-1,776,1807,0,0
-441,-783,0,0,0,0,0,0,0,0,0,-1,783,1807,0,0
-434,-783,0,0,0,0,0,0,0,0,0,-1,790,1807,0,0
-427,-783,0,0,0,0,0,0,0,0,0,-1,797,1807,0,0
-420,-783,0,0,0,0,0,0,0,0,0,-1,804,1807,0,0
-413,-783,0,0,0,0,0,0,0,0,0,-1,811,1807,0,0
-406,-783,0,0,0,0,0,0,0,0,0,-1,818,1807,0,0
-399,-783,0,0,0,0,0,0,0,0,0,-1,825,1807,0,0
-392,-783,0,0,0,0,0,0,0,0,0,-1,832,1807,0,0
-385,-783,0,0,0,0,0,0,0,0,0,-1,839,1807,0,0
-378,-783,0,0,0,0,0,0,0,0,0,-1,846,1807,0,0
-371,-783,0,0,0,0,0,0,0,0,0,-1,853,1807,0,0
-364,-783,0,0,0,0,0,0,0,0,0,-1,860,1807,0,0
-357,-783,0,0,0,0,0,0,0,0,0,-1,867,1807,0,0
-350,-783,0,0,0,0,0,0,0,0,0,-1,874,1807,0,0
-343,-783,0,0,0,0,0,0,0,0,0,-1,881,1807,0,0
-336,-783,0,0,0,0,0,0,0,0,0,-1,888,1807,0,0
-329,-783,0,0,0,0,0,0,0,0,0,-1,895,1807,0,0
-322,-783,0,0,0,0,0,0,0,0,0,-1,902,1807,0,0
-315,-783,0,0,0,0,0,0,0,0,0,-1,909,1807,0,0
-308,-783,0,0,0,0,0,0,0,0,0,-1,916,1807,0,0
-301,-783,0,0,0,0,0,0,0,0,0,-1,923,1807,0,0
-294,-783,0,0,0,0,0,0,0,0,0,-1,930,1807,0,0
-287,-783,0,0,0,0,0,0,0,0,0,-1,937,1807,0,0
-280,-783,0,0,0,0,0,0,0,0,0,-1,944,1807,0,0
-273,-783,0,0,0,0,0,0,0,0,0,-1,951,1807,0,0
-266,-783,0,0,0,0,0,0,0,0,0,-1,958,1807,0,0
-259,-783,0,0,0,0,0,0,0,0,0,-1,965,1807,0,0
-252,-783,0,0,0,0,0,0,0,0,0,-1,972,1807,0,0
-245,-783,0,0,0,0,0,0,0,0,0,-1,979,1807,0,0
-238,-783,0,0,0,0,0,0,0,0,0,-1,986,1807,0,0
-231,-783,0,0,0,0,0,0,0,0,0,-1,993,1807,0,0
-224,-783,0,0,0,0,0,0,0,0,0,-1,1000,1807,0,0
-217,-783,0,0,0,0,0,0,0,0,0,-1,1007,1807,0,0
-210,-783,0,0,0,0,0,0,0,0,0,-1,1014,1807,0,0
-203,-783,0,0,0,0,0,0,0,0,0,-1,1021,1807,0,0
-196,-783,0,0,0,0,0,0,0,0,0,-1,1028,1807,0,0
-189,-783,0,0,0,0,0,0,0,0,0,-1,1035,1807,0,0
-182,-783,0,0,0,0,0,0,0,0,0,-1,1042,1807,0,0
-175,-783,0,0,0,0,0,0,0,0,0,-1,1049,1807,0,0
-168,-783,0,0,0,0,0,0,0,0,0,-1,1056,1807,0,0
-161,-783,0,0,0,0,0,0,0,0,0,-1,1063,1807,0,0
-154,-783,0,0,0,0,0,0,0,0,0,-1,1070,1807,0,0
-147,-783,0,0,0,0,0,0,0,0,0,-1,1077,1807,0,0
-140,-783,0,0,0,0,0,0,0,0,0,-1,1084,1807,0,0
-133,-783,0,0,0,0,0,0,0,0,0,-1,1091,1807,0,0
-126,-783,0,0,0,0,0,0,0,0,0,-1,1098,1807,0,0
-119,-783,0,0,0,0,0,0,0,0,0,-1,1105,1807,0,0
-112,-783,5.33936,14.7699,0,0,0,0,0,0,0,-1,1112,1807,5.33931,-14.7699
-105,-783,6.44263,21.2224,0,0,0,0,0,0,0,-1,1119,1807,6.44263,-21.2224
-98,-783,5.54773,20.5695,0,0,0,0,0,0,0,-1,1126,1807,5.54772,-20.5695
-91,-783,2.6106,20.2491,0,0,0,0,0,0,0,-1,1133,1807,2.61056,-20.2492
-84,-783,-0.0491943,14.5743,0,0,0,0,0,0,0,-1,1140,1807,-0.0491562,-14.5743
-77,-783,0.332764,12.7788,0,0,0,0,0,0,0,-1,1147,1807,0.332743,-12.7788
-70,-783,-1.93176,5.12817,0,0,0,0,0,0,0,-1,1154,1807,-1.93171,-5.12813
-63,-783,-5.31702,10.54,0,0,0,0,0,0,0,-1,1161,1807,-5.31703,-10.54
-56,-783,-6.26135,6.9679,0,0,0,0,0,0,0,-1,1168,1807,-6.26136,-6.96785
-49,-783,-3.17688,4.59705,0,0,0,0,0,0,0,-1,1175,1807,-3.17685,-4.5971
-42,-783,-3.72876,3.1405,0,0,0,0,0,0,0,-1,1182,1807,-3.72874,-3.14055
-35,-783,-3.97046,1.59399,0,0,0,0,0,0,0,-1,1189,1807,-3.97041,-1.59401
-28,-783,-4.12195,0.270386,0,0,0,0,0,0,0,-1,1196,1807,-4.12197,-0.270408
-21,-783,15.6278,57.9213,0,0,0,0,0,0,0,-1,1203,1807,15.6279,-57.9213
-14,-783,15.1692,58.3621,-0.0720354,0.175793,0.0782834,0.19845,-0.0946921,1.28908,0.172743,0.0444943,1210,1807,15.1691,-58.3621
-7,-783,14.3463,58.885,-0.0729069,0.169013,0.0752477,0.190508,-0.0944023,1.29254,0.167584,0.0461397,1217,1807,14.3464,-58.885
0,-783,13.5549,59.3635,-0.0695368,0.163881,0.0706269,0.183588,-0.0892432,1.2987,0.160628,0.0454855,1224,1807,13.5549,-59.3635
7,-783,12.7968,59.9666,-0.0629252,0.15833,0.0649324,0.175978,-0.0805734,1.30541,0.151496,0.0475458,1231,1807,12.7967,-59.9666
14,-783,12.2437,60.686,0,0,0,0,0,0,0,-1,1238,1807,12.2437,-60.6861
21,-783,11.345,60.9121,0,0,0,0,0,0,0,-1,1245,1807,11.345,-60.9121
28,-783,10.8291,61.6941,-0.0334149,0.142802,0.0423215,0.152439,-0.043052,1.3469,0.118611,0.0451482,1252,1807,10.8291,-61.6941
35,-783,10.2181,62.3356,-0.0241479,0.138582,0.0342561,0.145499,-0.0310651,1.37155,0.108842,0.0460661,1259,1807,10.2181,-62.3356
42,-783,9.68945,62.7528,-0.0141615,0.135291,0.0246446,0.13925,-0.0181205,1.41151,0.0994257,0.0453768,1266,1807,9.68948,-62.7528
49,-783,9.37561,63.4626,0,0,0,0,0,0,0,-1,1273,1807,9.3756,-63.4626
56,-783,9.38794,64.0326,0.00195496,0.134762,0.00986339,0.135491,0.00122642,1.49707,0.0899212,0.0494964,1280,1807,9.38795,-64.0326
63,-783,9.30823,64.0807,0.00718538,0.136453,0.00307037,0.136526,0.0071125,1.54706,0.0887414,0.0496036,1287,1807,9.30828,-64.0806
70,-783,9.35938,63.8035,0.00762266,0.142472,-0.00172167,0.142494,0.00760068,-1.55803,0.0925666,0.0459054,1294,1807,9.35941,-63.8035
77,-783,9.36646,63.6471,0.0046988,0.148993,-0.00539721,0.149194,0.0044972,-1.53346,0.0979982,0.0490232,1301,1807,9.36649,-63.647
84,-783,9.35596,63.4978,0,0,0,0,0,0,0,-1,1308,1807,9.35592,-63.4978
91,-783,8.35938,63.952,-0.00323403,0.161848,-0.0102109,0.162477,-0.00386321,-1.50926,0.109628,0.044829,1315,1807,8.35939,-63.952
98,-783,9.0332,64.0358,-0.0105282,0.167754,-0.0104561,0.168365,-0.0111394,-1.51241,0.116135,0.0459112,1322,1807,9.03315,-64.0358
105,-783,8.43506,64.4034,0,0,0,0,0,0,0,-1,1329,1807,8.43511,-64.4035
112,-783,8.49426,64.5753,-0.0303225,0.177613,-0.00818738,0.177935,-0.0306444,-1.5315,0.130047,0.0472739,1336,1807,8.49426,-64.5753
119,-783,7.91418,64.8243,-0.0416272,0.180869,-0.00608704,0.181036,-0.0417936,-1.54347,0.136767,0.0465643,1343,1807,7.91417,-64.8243
126,-783,6.51172,65.0386,-0.0532571,0.181031,-0.00314673,0.181073,-0.0532994,-1.55737,0.14186,0.0477607,1350,1807,6.51171,-65.0386
133,-783,6.71191,65.5092,0,0,0,0,0,0,0,-1,1357,1807,6.71194,-65.5091
140,-783,6.47168,61.5424,0,0,0,0,0,0,0,-1,1364,1807,6.47169,-61.5423
147,-783,9.6698,63.2255,0,0,0,0,0,0,0,-1,1371,1807,9.66982,-63.2254
154,-783,38.2109,17.545,0,0,0,0,0,0,0,-1,1378,1807,38.2109,-17.545
161,-783,39.5087,17.5449,0,0,0,0,0,0,0,-1,1385,1807,39.5087,-17.545
168,-783,8.62561,1.79944,0,0,0,0,0,0,0,-1,1392,1807,8.62561,-1.79946
175,-783,8.78699,3.40857,0,0,0,0,0,0,0,-1,1399,1807,8.78697,-3.40854
182,-783,8.70984,5.14661,0,0,0,0,0,0,0,-1,1406,1807,8.70989,-5.14666
189,-783,8.55762,6.79871,0,0,0,0,0,0,0,-1,1413,1807,8.55766,-6.79872
196,-783,8.25488,8.66626,0,0,0,0,0,0,0,-1,1420,1807,8.25492,-8.66628
203,-783,7.86755,10.5735,0,0,0,0,0,0,0,-1,1427,1807,7.8676,-10.5734
210,-783,5.6969,8.99231,0,0,0,0,0,0,0,-1,1434,1807,5.69693,-8.99234
217,-783,5.28503,3.80872,0,0,0,0,0,0,0,-1,1441,1807,5.285,-3.80868
224,-783,3.22571,6.62903,0,0,0,0,0,0,0,-1,1448,1807,3.2257,-6.62907
231,-783,4.27942,4.56262,0,0,0,0,0,0,0,-1,1455,1807,4.27948,-4.56267
238,-783,0,0,0,0,0,0,0,0,0,-1,1462,1807,0,0
245,-783,0,0,0,0,0,0,0,0,0,-1,1469,1807,0,0
252,-783,0,0,0,0,0,0,0,0,0,-1,1476,1807,0,0
259,-783,0,0,0,0,0,0,0,0,0,-1,1483,1807,0,0
266,-783,0,0,0,0,0,0,0,0,0,-1,1490,1807,0,0
273,-783,0,0,0,0,0,0,0,0,0,-1,1497,1807,0,0
280,-783,0,0,0,0,0,0,0,0,0,-1,1504,1807,0,0
287,-783,0,0,0,0,0,0,0,0,0,-1,1511,1807,0,0
294,-783,0,0,0,0,0,0,0,0,0,-1,1518,1807,0,0
301,-783,0,0,0,0,0,0,0,0,0,-1,1525,1807,0,0
308,-783,0,0,0,0,0,0,0,0,0,-1,1532,1807,0,0
315,-783,0,0,0,0,0,0,0,0,0,-1,1539,1807,0,0
322,-783,0,0,0,0,0,0,0,0,0,-1,1546,1807,0,0
329,-783,0,0,0,0,0,0,0,0,0,-1,1553,1807,0,0
336,-783,0,0,0,0,0,0,0,0,0,-1,1560,1807,0,0
343,-783,0,0,0,0,0,0,0,0,0,-1,1567,1807,0,0
350,-783,0,0,0,0,0,0,0,0,0,-1,1574,1807,0,0
357,-783,0,0,0,0,0,0,0,0,0,-1,1581,1807,0,0
364,-783,0,0,0,0,0,0,0,0,0,-1,1588,1807,0,0
371,-783,0,0,0,0,0,0,0,0,0,-1,1595,1807,0,0
378,-783,0,0,0,0,0,0,0,0,0,-1,1602,1807,0,0
385,-783,0,0,0,0,0,0,0,0,0,-1,1609,1807,0,0
392,-783,0,0,0,0,0,0,0,0,0,-1,1616,1807,0,0
399,-783,0,0,0,0,0,0,0,0,0,-1,1623,1807,0,0
406,-783,0,0,0,0,0,0,0,0,0,-1,1630,1807,0,0
413,-783,0,0,0,0,0,0,0,0,0,-1,1637,1807,0,0
420,-783,0,0,0,0,0,0,0,0,0,-1,1644,1807,0,0
427,-783,0,0,0,0,0,0,0,0,0,-1,1651,1807,0,0
434,-783,0,0,0,0,0,0,0,0,0,-1,1658,1807,0,0
441,-783,0,0,0,0,0,0,0,0,0,-1,1665,1807,0,0
448,-783,0,0,0,0,0,0,0,0,0,-1,1672,1807,0,0
455,-783,0,0,0,0,0,0,0,0,0,-1,1679,1807,0,0
462,-783,0,0,0,0,0,0,0,0,0,-1,1686,1807,0,0
469,-783,0,0,0,0,0,0,0,0,0,-1,1693,1807,0,0
476,-783,0,0,0,0,0,0,0,0,0,-1,1700,1807,0,0
483,-783,0,0,0,0,0,0,0,0,0,-1,1707,1807,0,0
490,-783,0,0,0,0,0,0,0,0,0,-1,1714,1807,0,0
497,-783,0,0,0,0,0,0,0,0,0,-1,1721,1807,0,0
504,-783,0,0,0,0,0,0,0,0,0,-1,1728,1807,0,0
511,-783,0,0,0,0,0,0,0,0,0,-1,1735,1807,0,0
518,-783,0,0,0,0,0,0,0,0,0,-1,1742,1807,0,0
525,-783,0,0,0,0,0,0,0,0,0,-1,1749,1807,0,0
532,-783,0,0,0,0,0,0,0,0,0,-1,1756,1807,0,0
539,-783,0,0,0,0,0,0,0,0,0,-1,1763,1807,0,0
546,-783,0,0,0,0,0,0,0,0,0,-1,1770,1807,0,0
553,-783,0,0,0,0,0,0,0,0,0,-1,1777,1807,0,0
560,-783,0,0,0,0,0,0,0,0,0,-1,1784,1807,0,0
567,-783,0,0,0,0,0,0,0,0,0,-1,1791,1807,0,0
574,-783,0,0,0,0,0,0,0,0,0,-1,1798,1807,0,0
581,-783,0,0,0,0,0,0,0,0,0,-1,1805,1807,0,0
588,-783,0,0,0,0,0,0,0,0,0,-1,1812,1807,0,0
595,-783,0,0,0,0,0,0,0,0,0,-1,1819,1807,0,0
602,-783,0,0,0,0,0,0,0,0,0,-1,1826,1807,0,0
609,-783,0,0,0,0,0,0,0,0,0,-1,1833,1807,0,0
616,-783,0,0,0,0,0,0,0,0,0,-1,1840,1807,0,0
623,-783,0,0,0,0,0,0,0,0,0,-1,1847,1807,0,0
630,-783,0,0,0,0,0,0,0,0,0,-1,1854,1807,0,0
637,-783,0,0,0,0,0,0,0,0,0,-1,1861,1807,0,0
644,-783,0,0,0,0,0,0,0,0,0,-1,1868,1807,0,0
651,-783,0,0,0,0,0,0,0,0,0,-1,1875,1807,0,0
658,-783,0,0,0,0,0,0,0,0,0,-1,1882,1807,0,0
665,-783,0,0,0,0,0,0,0,0,0,-1,1889,1807,0,0
672,-783,0,0,0,0,0,0,0,0,0,-1,1896,1807,0,0
679,-783,0,0,0,0,0,0,0,0,0,-1,1903,1807,0,0
686,-783,0,0,0,0,0,0,0,0,0,-1,1910,1807,0,0
693,-783,0,0,0,0,0,0,0,0,0,-1,1917,1807,0,0
700,-783,0,0,0,0,0,0,0,0,0,-1,1924,1807,0,0
707,-783,0,0,0,0,0,0,0,0,0,-1,1931,1807,0,0
714,-783,0,0,0,0,0,0,0,0,0,-1,1938,1807,0,0
721,-783,0,0,0,0,0,0,0,0,0,-1,1945,1807,0,0
728,-783,0,0,0,0,0,0,0,0,0,-1,1952,1807,0,0
735,-783,0,0,0,0,0,0,0,0,0,-1,1959,1807,0,0
742,-783,0,0,0,0,0,0,0,0,0,-1,1966,1807,0,0
749,-783,0,0,0,0,0,0,0,0,0,-1,1973,1807,0,0
756,-783,0,0,0,0,0,0,0,0,0,-1,1980,1807,0,0
763,-783,0,0,0,0,0,0,0,0,0,-1,1987,1807,0,0
770,-783,0,0,0,0,0,0,0,0,0,-1,1994,1807,0,0
777,-783,0,0,0,0,0,0,0,0,0,-1,2001,1807,0,0
784,-783,0,0,0,0,0,0,0,0,0,-1,2008,1807,0,0
791,-783,0,0,0,0,0,0,0,0,0,-1,2015,1807,0,0
798,-783,0,0,0,0,0,0,0,0,0,-1,2022,1807,0,0
805,-783,0,0,0,0,0,0,0,0,0,-1,2029,1807,0,0
812,-783,0,0,0,0,0,0,0,0,0,-1,2036,1807,0,0
-700,-790,0,0,0,0,0,0,0,0,0,-1,524,1814,0,0
-693,-790,0,0,0,0,0,0,0,0,0,-1,531,1814,0,0
-686,-790,0,0,0,0,0,0,0,0,0,-1,538,1814,0,0
-679,-790,0,0,0,0,0,0,0,0,0,-1,545,1814,0,0
-672,-790,0,0,0,0,0,0,0,0,0,-1,552,1814,0,0
-665,-790,0,0,0,0,0,0,0,0,0,-1,559,1814,0,0
-658,-790,0,0,0,0,0,0,0,0,0,-1,566,1814,0,0
-651,-790,0,0,0,0,0,0,0,0,0,-1,573,1814,0,0
-644,-790,0,0,0,0,0,0,0,0,0,-1,580,1814,0,0
-637,-790,0,0,0,0,0,0,0,0,0,-1,587,1814,0,0
-630,-790,0,0,0,0,0,0,0,0,0,-1,594,1814,0,0
-623,-790,0,0,0,0,0,0,0,0,0,-1,601,1814,0,0
-616,-790,0,0,0,0,0,0,0,0,0,-1,608,1814,0,0
-609,-790,0,0,0,0,0,0,0,0,0,-1,615,1814,0,0
-602,-790,0,0,0,0,0,0,0,0,0,-1,622,1814,0,0
-595,-790,0,0,0,0,0,0,0,0,0,-1,629,1814,0,0
-588,-790,0,0,0,0,0,0,0,0,0,-1,636,1814,0,0
-581,-790,0,0,0,0,0,0,0,0,0,-1,643,1814,0,0
-574,-790,0,0,0,0,0,0,0,0,0,-1,650,1814,0,0
-567,-790,0,0,0,0,0,0,0,0,0,-1,657,1814,0,0
-560,-790,0,0,0,0,0,0,0,0,0,-1,664,1814,0,0
-553,-790,0,0,0,0,0,0,0,0,0,-1,671,1814,0,0
-546,-790,0,0,0,0,0,0,0,0,0,-1,678,1814,0,0
-539,-790,0,0,0,0,0,0,0,0,0,-1,685,1814,0,0
-532,-790,0,0,0,0,0,0,0,0,0,-1,692,1814,0,0
-525,-790,0,0,0,0,0,0,0,0,0,-1,699,1814,0,0
-518,-790,0,0,0,0,0,0,0,0,0,-1,706,1814,0,0
-511,-790,0,0,0,0,0,0,0,0,0,-1,713,1814,0,0
-504,-790,0,0,0,0,0,0,0,0,0,-1,720,1814,0,0
-497,-790,0,0,0,0,0,0,0,0,0,-1,727,1814,0,0
-490,-790,0,0,0,0,0,0,0,0,0,-1,734,1814,0,0
-483,-790,0,0,0,0,0,0,0,0,0,-1,741,1814,0,0
-476,-790,0,0,0,0,0,0,0,0,0,-1,748,1814,0,0
-469,-790,0,0,0,0,0,0,0,0,0,-1,755,1814,0,0
-462,-790,0,0,0,0,0,0,0,0,0,-1,762,1814,0,0
-455,-790,0,0,0,0,0,0,0,0,0,-1,769,1814,0,0
-448,-790,0,0,0,0,0,0,0,0,0,-1,776,1814,0,0
-441,-790,0,0,0,0,0,0,0,0,0,-1,783,1814,0,0
-434,-790,0,0,0,0,0,0,0,0,0,-1,790,1814,0,0
-427,-790,0,0,0,0,0,0,0,0,0,-1,797,1814,0,0
-420,-790,0,0,0,0,0,0,0,0,0,-1,804,1814,0,0
-413,-790,0,0,0,0,0,0,0,0,0,-1,811,1814,0,0
-406,-790,0,0,0,0,0,0,0,0,0,-1,818,1814,0,0
-399,-790,0,0,0,0,0,0,0,0,0,-1,825,1814,0,0
-392,-790,0,0,0,0,0,0,0,0,0,-1,832,1814,0,0
-385,-790,0,0,0,0,0,0,0,0,0,-1,839,1814,0,0
-378,-790,0,0,0,0,0,0,0,0,0,-1,846,1814,0,0
-371,-790,0,0,0,0,0,0,0,0,0,-1,853,1814,0,0
-364,-790,0,0,0,0,0,0,0,0,0,-1,860,1814,0,0
-357,-790,0,0,0,0,0,0,0,0,0,-1,867,1814,0,0
-350,-790,0,0,0,0,0,0,0,0,0,-1,874,1814,0,0
-343,-790,0,0,0,0,0,0,0,0,0,-1,881,1814,0,0
-336,-790,0,0,0,0,0,0,0,0,0,-1,888,1814,0,0
-329,-790,0,0,0,0,0,0,0,0,0,-1,895,1814,0,0
-322,-790,0,0,0,0,0,0,0,0,0,-1,902,1814,0,0
-315,-790,0,0,0,0,0,0,0,0,0,-1,909,1814,0,0
-308,-790,0,0,0,0,0,0,0,0,0,-1,916,1814,0,0
-301,-790,0,0,0,0,0,0,0,0,0,-1,923,1814,0,0
-294,-790,0,0,0,0,0,0,0,0,0,-1,930,1814,0,0
-287,-790,0,0,0,0,0,0,0,0,0,-1,937,1814,0,0
-280,-790,0,0,0,0,0,0,0,0,0,-1,944,1814,0,0
-273,-790,0,0,0,0,0,0,0,0,0,-1,951,1814,0,0
-266,-790,0,0,0,0,0,0,0,0,0,-1,958,1814,0,0
-259,-790,0,0,0,0,0,0,0,0,0,-1,965,1814,0,0
-252,-790,0,0,0,0,0,0,0,0,0,-1,972,1814,0,0
-245,-790,0,0,0,0,0,0,0,0,0,-1,979,1814,0,0
-238,-790,0,0,0,0,0,0,0,0,0,-1,986,1814,0,0
-231,-790,0,0,0,0,0,0,0,0,0,-1,993,1814,0,0
-224,-790,0,0,0,0,0,0,0,0,0,-1,1000,1814,0,0
-217,-790,0,0,0,0,0,0,0,0,0,-1,1007,1814,0,0
-210,-790,0,0,0,0,0,0,0,0,0,-1,1014,1814,0,0
-203,-790,0,0,0,0,0,0,0,0,0,-1,1021,1814,0,0
-196,-790,0,0,0,0,0,0,0,0,0,-1,1028,1814,0,0
-189,-790,0,0,0,0,0,0,0,0,0,-1,1035,1814,0,0
-182,-790,0,0,0,0,0,0,0,0,0,-1,1042,1814,0,0
-175,-790,0,0,0,0,0,0,0,0,0,-1,1049,1814,0,0
-168,-790,0,0,0,0,0,0,0,0,0,-1,1056,1814,0,0
-161,-790,0,0,0,0,0,0,0,0,0,-1,1063,1814,0,0
-154,-790,0,0,0,0,0,0,0,0,0,-1,1070,1814,0,0
-147,-790,0,0,0,0,0,0,0,0,0,-1,1077,1814,0,0
-140,-790,0,0,0,0,0,0,0,0,0,-1,1084,1814,0,0
-133,-790,0,0,0,0,0,0,0,0,0,-1,1091,1814,0,0
-126,-790,0,0,0,0,0,0,0,0,0,-1,1098,1814,0,0
-119,-790,0,0,0,0,0,0,0,0,0,-1,1105,1814,0,0
-112,-790,0,0,0,0,0,0,0,0,0,-1,1112,1814,0,0
-105,-790,0,0,0,0,0,0,0,0,0,-1,1119,1814,0,0
-98,-790,0,0,0,0,0,0,0,0,0,-1,1126,1814,0,0
-91,-790,0,0,0,0,0,0,0,0,0,-1,1133,1814,0,0
-84,-790,0,0,0,0,0,0,0,0,0,-1,1140,1814,0,0
-77,-790,-0.969238,5.30847,0,0,0,0,0,0,0,-1,1147,1814,-0.969277,-5.3085
-70,-790,-1.23169,4.98914,0,0,0,0,0,0,0,-1,1154,1814,-1.23163,-4.98916
-63,-790,-1.69128,4.32263,0,0,0,0,0,0,0,-1,1161,1814,-1.69128,-4.32258
-56,-790,-2.24756,3.75305,0,0,0,0,0,0,0,-1,1168,1814,-2.24758,-3.75302
-49,-790,-3.11011,3.35779,0,0,0,0,0,0,0,-1,1175,1814,-3.11006,-3.35781
-42,-790,0.593262,1.19165,0,0,0,0,0,0,0,-1,1182,1814,0.593225,-1.19165
-35,-790,0.307129,-0.20105,0,0,0,0,0,0,0,-1,1189,1814,0.307178,0.201006
-28,-790,-2.78467,0.785156,0,0,0,0,0,0,0,-1,1196,1814,-2.78471,-0.785183
-21,-790,14.6213,56.4242,0,0,0,0,0,0,0,-1,1203,1814,14.6213,-56.4242
-14,-790,14.45,57.0964,-0.0807149,0.208815,0.0944199,0.236885,-0.108785,1.28183,0.20409,0.0434172,1210,1814,14.4499,-57.0964
-7,-790,13.9492,57.7825,-0.0829284,0.202174,0.0915416,0.229036,-0.10979,1.28537,0.199619,0.0444043,1217,1814,13.9493,-57.7824
0,-790,13.2521,58.2306,-0.0781332,0.19703,0.085491,0.221428,-0.102531,1.2928,0.191191,0.0463569,1224,1814,13.2521,-58.2306
7,-790,12.4662,58.8047,-0.0689882,0.190919,0.0780339,0.212547,-0.0906171,1.30041,0.179689,0.0459492,1231,1814,12.4661,-58.8047
14,-790,11.7004,59.4891,0,0,0,0,0,0,0,-1,1238,1814,11.7004,-59.4891
21,-790,10.8312,60.0759,0,0,0,0,0,0,0,-1,1245,1814,10.8311,-60.0759
28,-790,10.3276,60.8962,0,0,0,0,0,0,0,-1,1252,1814,10.3277,-60.8962
35,-790,9.81287,61.662,0,0,0,0,0,0,0,-1,1259,1814,9.81289,-61.662
42,-790,9.31567,62.0134,0,0,0,0,0,0,0,-1,1266,1814,9.31561,-62.0134
49,-790,8.81555,62.4968,0,0,0,0,0,0,0,-1,1273,1814,8.81556,-62.4968
56,-790,9.35913,63.3188,0,0,0,0,0,0,0,-1,1280,1814,9.35911,-63.3189
63,-790,9.32654,63.1809,0,0,0,0,0,0,0,-1,1287,1814,9.32654,-63.1809
70,-790,9.52283,62.8314,0.0151437,0.168775,-0.00211627,0.168804,0.0151146,-1.55702,0.107851,0.0402766,1294,1814,9.52279,-62.8314
77,-790,9.58691,62.7535,0.0105046,0.176302,-0.0064055,0.176549,0.0102575,-1.53224,0.114433,0.0430286,1301,1814,9.58696,-62.7536
84,-790,9.37439,62.7875,0.00567825,0.184117,-0.0100356,0.18468,0.00511561,-1.51479,0.121451,0.0447935,1308,1814,9.37444,-62.7875
91,-790,9.16626,62.6903,-0.00226176,0.192622,-0.0117452,0.193327,-0.00296707,-1.51082,0.129885,0.044004,1315,1814,9.16625,-62.6903
98,-790,9.14368,62.6052,-0.012575,0.200588,-0.0117972,0.201239,-0.0132259,-1.51568,0.138778,0.0441978,1322,1814,9.14367,-62.6053
105,-790,8.979,62.7825,-0.0253614,0.207944,-0.0105565,0.208421,-0.0258381,-1.52567,0.148312,0.0496962,1329,1814,8.97902,-62.7824
112,-790,8.6377,63.0443,-0.0394742,0.214878,-0.00847254,0.21516,-0.0397561,-1.53754,0.158364,0.0463706,1336,1814,8.63767,-63.0443
119,-790,7.98987,63.2456,-0.0549057,0.219944,-0.00539605,0.22005,-0.0550116,-1.55117,0.168066,0.0435076,1343,1814,7.98983,-63.2456
126,-790,7.26306,63.5892,-0.0707816,0.221267,-0.00124863,0.221273,-0.0707869,-1.56652,0.175924,0.0491677,1350,1814,7.26311,-63.5892
133,-790,6.89905,63.8748,0,0,0,0,0,0,0,-1,1357,1814,6.89905,-63.8748
140,-790,5.24768,61.0145,0,0,0,0,0,0,0,-1,1364,1814,5.24774,-61.0146
147,-790,5.00623,60.8976,0,0,0,0,0,0,0,-1,1371,1814,5.00624,-60.8976
154,-790,40.215,13.2396,0,0,0,0,0,0,0,-1,1378,1814,40.2149,-13.2396
161,-790,39.3429,13.0336,0,0,0,0,0,0,0,-1,1385,1814,39.3429,-13.0336
168,-790,7.04077,2.23279,0,0,0,0,0,0,0,-1,1392,1814,7.04082,-2.23275
175,-790,9.03918,3.98535,0,0,0,0,0,0,0,-1,1399,1814,9.0392,-3.98535
182,-790,8.96997,5.67896,0,0,0,0,0,0,0,-1,1406,1814,8.97001,-5.6789
189,-790,8.59729,6.86975,0,0,0,0,0,0,0,-1,1413,1814,8.59728,-6.86972
196,-790,8.21924,9.29053,0,0,0,0,0,0,0,-1,1420,1814,8.21924,-9.29048
203,-790,0,0,0,0,0,0,0,0,0,-1,1427,1814,0,0
210,-790,0,0,0,0,0,0,0,0,0,-1,1434,1814,0,0
217,-790,0,0,0,0,0,0,0,0,0,-1,1441,1814,0,0
224,-790,0,0,0,0,0,0,0,0,0,-1,1448,1814,0,0
231,-790,0,0,0,0,0,0,0,0,0,-1,1455,1814,0,0
238,-790,0,0,0,0,0,0,0,0,0,-1,1462,1814,0,0
245,-790,0,0,0,0,0,0,0,0,0,-1,1469,1814,0,0
252,-790,0,0,0,0,0,0,0,0,0,-1,1476,1814,0,0
259,-790,0,0,0,0,0,0,0,0,0,-1,1483,1814,0,0
266,-790,0,0,0,0,0,0,0,0,0,-1,1490,1814,0,0
273,-790,0,0,0,0,0,0,0,0,0,-1,1497,1814,0,0
280,-790,0,0,0,0,0,0,0,0,0,-1,1504,1814,0,0
287,-790,0,0,0,0,0,0,0,0,0,-1,1511,1814,0,0
294,-790,0,0,0,0,0,0,0,0,0,-1,1518,1814,0,0
301,-790,0,0,0,0,0,0,0,0,0,-1,1525,1814,0,0
308,-790,0,0,0,0,0,0,0,0,0,-1,1532,1814,0,0
315,-790,0,0,0,0,0,0,0,0,0,-1,1539,1814,0,0
322,-790,0,0,0,0,0,0,0,0,0,-1,1546,1814,0,0
329,-790,0,0,0,0,0,0,0,0,0,-1,1553,1814,0,0
336,-790,0,0,0,0,0,0,0,0,0,-1,1560,1814,0,0
343,-790,0,0,0,0,0,0,0,0,0,-1,1567,1814,0,0
350,-790,0,0,0,0,0,0,0,0,0,-1,1574,1814,0,0
357,-790,0,0,0,0,0,0,0,0,0,-1,1581,1814,0,0
364,-790,0,0,0,0,0,0,0,0,0,-1,1588,1814,0,0
371,-790,0,0,0,0,0,0,0,0,0,-1,1595,1814,0,0
378,-790,0,0,0,0,0,0,0,0,0,-1,1602,1814,0,0
385,-790,0,0,0,0,0,0,0,0,0,-1,1609,1814,0,0
392,-790,0,0,0,0,0,0,0,0,0,-1,1616,1814,0,0
399,-790,0,0,0,0,0,0,0,0,0,-1,1623,1814,0,0
406,-790,0,0,0,0,0,0,0,0,0,-1,1630,1814,0,0
413,-790,0,0,0,0,0,0,0,0,0,-1,1637,1814,0,0
420,-790,0,0,0,0,0,0,0,0,0,-1,1644,1814,0,0
427,-790,0,0,0,0,0,0,0,0,0,-1,1651,1814,0,0
434,-790,0,0,0,0,0,0,0,0,0,-1,1658,1814,0,0
441,-790,0,0,0,0,0,0,0,0,0,-1,1665,1814,0,0
448,-790,0,0,0,0,0,0,0,0,0,-1,1672,1814,0,0
455,-790,0,0,0,0,0,0,0,0,0,-1,1679,1814,0,0
462,-790,0,0,0,0,0,0,0,0,0,-1,1686,1814,0,0
469,-790,0,0,0,0,0,0,0,0,0,-1,1693,1814,0,0
476,-790,0,0,0,0,0,0,0,0,0,-1,1700,1814,0,0
483,-790,0,0,0,0,0,0,0,0,0,-1,1707,1814,0,0
490,-790,0,0,0,0,0,0,0,0,0,-1,1714,1814,0,0
497,-790,0,0,0,0,0,0,0,0,0,-1,1721,1814,0,0
504,-790,0,0,0,0,0,0,0,0,0,-1,1728,1814,0,0
511,-790,0,0,0,0,0,0,0,0,0,-1,1735,1814,0,0
518,-790,0,0,0,0,0,0,0,0,0,-1,1742,1814,0,0
525,-790,0,0,0,0,0,0,0,0,0,-1,1749,1814,0,0
532,-790,0,0,0,0,0,0,0,0,0,-1,1756,1814,0,0
539,-790,0,0,0,0,0,0,0,0,0,-1,1763,1814,0,0
546,-790,0,0,0,0,0,0,0,0,0,-1,1770,1814,0,0
553,-790,0,0,0,0,0,0,0,0,0,-1,1777,1814,0,0
560,-790,0,0,0,0,0,0,0,0,0,-1,1784,1814,0,0
567,-790,0,0,0,0,0,0,0,0,0,-1,1791,1814,0,0
574,-790,0,0,0,0,0,0,0,0,0,-1,1798,1814,0,0
581,-790,0,0,0,0,0,0,0,0,0,-1,1805,1814,0,0
588,-790,0,0,0,0,0,0,0,0,0,-1,1812,1814,0,0
595,-790,0,0,0,0,0,0,0,0,0,-1,1819,1814,0,0
602,-790,0,0,0,0,0,0,0,0,0,-1,1826,1814,0,0
609,-790,0,0,0,0,0,0,0,0,0,-1,1833,1814,0,0
616,-790,0,0,0,0,0,0,0,0,0,-1,1840,1814,0,0
623,-790,0,0,0,0,0,0,0,0,0,-1,1847,1814,0,0
630,-790,0,0,0,0,0,0,0,0,0,-1,1854,1814,0,0
637,-790,0,0,0,0,0,0,0,0,0,-1,1861,1814,0,0
644,-790,0,0,0,0,0,0,0,0,0,-1,1868,1814,0,0
651,-790,0,0,0,0,0,0,0,0,0,-1,1875,1814,0,0
658,-790,0,0,0,0,0,0,0,0,0,-1,1882,1814,0,0
665,-790,0,0,0,0,0,0,0,0,0,-1,1889,1814,0,0
672,-790,0,0,0,0,0,0,0,0,0,-1,1896,1814,0,0
679,-790,0,0,0,0,0,0,0,0,0,-1,1903,1814,0,0
686,-790,0,0,0,0,0,0,0,0,0,-1,1910,1814,0,0
693,-790,0,0,0,0,0,0,0,0,0,-1,1917,1814,0,0
700,-790,0,0,0,0,0,0,0,0,0,-1,1924,1814,0,0
707,-790,0,0,0,0,0,0,0,0,0,-1,1931,1814,0,0
714,-790,0,0,0,0,0,0,0,0,0,-1,1938,1814,0,0
721,-790,0,0,0,0,0,0,0,0,0,-1,1945,1814,0,0
728,-790,0,0,0,0,0,0,0,0,0,-1,1952,1814,0,0
735,-790,0,0,0,0,0,0,0,0,0,-1,1959,1814,0,0
742,-790,0,0,0,0,0,0,0,0,0,-1,1966,1814,0,0
749,-790,0,0,0,0,0,0,0,0,0,-1,1973,1814,0,0
756,-790,0,0,0,0,0,0,0,0,0,-1,1980,1814,0,0
763,-790,0,0,0,0,0,0,0,0,0,-1,1987,1814,0,0
770,-790,0,0,0,0,0,0,0,0,0,-1,1994,1814,0,0
777,-790,0,0,0,0,0,0,0,0,0,-1,2001,1814,0,0
784,-790,0,0,0,0,0,0,0,0,0,-1,2008,1814,0,0
791,-790,0,0,0,0,0,0,0,0,0,-1,2015,1814,0,0
798,-790,0,0,0,0,0,0,0,0,0,-1,2022,1814,0,0
805,-790,0,0,0,0,0,0,0,0,0,-1,2029,1814,0,0
812,-790,0,0,0,0,0,0,0,0,0,-1,2036,1814,0,0
-700,-797,0,0,0,0,0,0,0,0,0,-1,524,1821,0,0
-693,-797,0,0,0,0,0,0,0,0,0,-1,531,1821,0,0
-686,-797,0,0,0,0,0,0,0,0,0,-1,538,1821,0,0
-679,-797,0,0,0,0,0,0,0,0,0,-1,545,1821,0,0
-672,-797,0,0,0,0,0,0,0,0,0,-1,552,1821,0,0
-665,-797,0,0,0,0,0,0,0,0,0,-1,559,1821,0,0
-658,-797,0,0,0,0,0,0,0,0,0,-1,566,1821,0,0
-651,-797,0,0,0,0,0,0,0,0,0,-1,573,1821,0,0
-644,-797,0,0,0,0,0,0,0,0,0,-1,580,1821,0,0
-637,-797,0,0,0,0,0,0,0,0,0,-1,587,1821,0,0
-630,-797,0,0,0,0,0,0,0,0,0,-1,594,1821,0,0
-623,-797,0,0,0,0,0,0,0,0,0,-1,601,1821,0,0
-616,-797,0,0,0,0,0,0,0,0,0,-1,608,1821,0,0
-609,-797,0,0,0,0,0,0,0,0,0,-1,615,1821,0,0
-602,-797,0,0,0,0,0,0,0,0,0,-1,622,1821,0,0
-595,-797,0,0,0,0,0,0,0,0,0,-1,629,1821,0,0
-588,-797,0,0,0,0,0,0,0,0,0,-1,636,1821,0,0
-581,-797,0,0,0,0,0,0,0,0,0,-1,643,1821,0,0
-574,-797,0,0,0,0,0,0,0,0,0,-1,650,1821,0,0
-567,-797,0,0,0,0,0,0,0,0,0,-1,657,1821,0,0
-560,-797,0,0,0,0,0,0,0,0,0,-1,664,1821,0,0
-553,-797,0,0,0,0,0,0,0,0,0,-1,671,1821,0,0
-546,-797,0,0,0,0,0,0,0,0,0,-1,678,1821,0,0
-539,-797,0,0,0,0,0,0,0,0,0,-1,685,1821,0,0
-532,-797,0,0,0,0,0,0,0,0,0,-1,692,1821,0,0
-525,-797,0,0,0,0,0,0,0,0,0,-1,699,1821,0,0
-518,-797,0,0,0,0,0,0,0,0,0,-1,706,1821,0,0
-511,-797,0,0,0,0,0,0,0,0,0,-1,713,1821,0,0
-504,-797,0,0,0,0,0,0,0,0,0,-1,720,1821,0,0
-497,-797,0,0,0,0,0,0,0,0,0,-1,727,1821,0,0
-490,-797,0,0,0,0,0,0,0,0,0,-1,734,1821,0,0
-483,-797,0,0,0,0,0,0,0,0,0,-1,741,1821,0,0
-476,-797,0,0,0,0,0,0,0,0,0,-1,748,1821,0,0
-469,-797,0,0,0,0,0,0,0,0,0,-1,755,1821,0,0
-462,-797,0,0,0,0,0,0,0,0,0,-1,762,1821,0,0
-455,-797,0,0,0,0,0,0,0,0,0,-1,769,1821,0,0
-448,-797,0,0,0,0,0,0,0,0,0,-1,776,1821,0,0
-441,-797,0,0,0,0,0,0,0,0,0,-1,783,1821,0,0
-434,-797,0,0,0,0,0,0,0,0,0,-1,790,1821,0,0
-427,-797,0,0,0,0,0,0,0,0,0,-1,797,1821,0,0
-420,-797,0,0,0,0,0,0,0,0,0,-1,804,1821,0,0
-413,-797,0,0,0,0,0,0,0,0,0,-1,811,1821,0,0
-406,-797,0,0,0,0,0,0,0,0,0,-1,818,1821,0,0
-399,-797,0,0,0,0,0,0,0,0,0,-1,825,1821,0,0
-392,-797,0,0,0,0,0,0,0,0,0,-1,832,1821,0,0
-385,-797,0,0,0,0,0,0,0,0,0,-1,839,1821,0,0
-378,-797,0,0,0,0,0,0,0,0,0,-1,846,1821,0,0
-371,-797,0,0,0,0,0,0,0,0,0,-1,853,1821,0,0
-364,-797,0,0,0,0,0,0,0,0,0,-1,860,1821,0,0
-357,-797,0,0,0,0,0,0,0,0,0,-1,867,1821,0,0
-350,-797,0,0,0,0,0,0,0,0,0,-1,874,1821,0,0
-343,-797,0,0,0,0,0,0,0,0,0,-1,881,1821,0,0
-336,-797,0,0,0,0,0,0,0,0,0,-1,888,1821,0,0
-329,-797,0,0,0,0,0,0,0,0,0,-1,895,1821,0,0
-322,-797,0,0,0,0,0,0,0,0,0,-1,902,1821,0,0
-315,-797,0,0,0,0,0,0,0,0,0,-1,909,1821,0,0
-308,-797,0,0,0,0,0,0,0,0,0,-1,916,1821,0,0
-301,-797,0,0,0,0,0,0,0,0,0,-1,923,1821,0,0
-294,-797,0,0,0,0,0,0,0,0,0,-1,930,1821,0,0
-287,-797,0,0,0,0,0,0,0,0,0,-1,937,1821,0,0
-280,-797,0,0,0,0,0,0,0,0,0,-1,944,1821,0,0
-273,-797,0,0,0,0,0,0,0,0,0,-1,951,1821,0,0
-266,-797,0,0,0,0,0,0,0,0,0,-1,958,1821,0,0
-259,-797,0,0,0,0,0,0,0,0,0,-1,965,1821,0,0
-252,-797,0,0,0,0,0,0,0,0,0,-1,972,1821,0,0
-245,-797,0,0,0,0,0,0,0,0,0,-1,979,1821,0,0
-238,-797,0,0,0,0,0,0,0,0,0,-1,986,1821,0,0
-231,-797,0,0,0,0,0,0,0,0,0,-1,993,1821,0,0
-224,-797,0,0,0,0,0,0,0,0,0,-1,1000,1821,0,0
-217,-797,0,0,0,0,0,0,0,0,0,-1,1007,1821,0,0
-210,-797,0,0,0,0,0,0,0,0,0,-1,1014,1821,0,0
-203,-797,0,0,0,0,0,0,0,0,0,-1,1021,1821,0,0
-196,-797,0,0,0,0,0,0,0,0,0,-1,1028,1821,0,0
-189,-797,0,0,0,0,0,0,0,0,0,-1,1035,1821,0,0
-182,-797,0,0,0,0,0,0,0,0,0,-1,1042,1821,0,0
-175,-797,0,0,0,0,0,0,0,0,0,-1,1049,1821,0,0
-168,-797,0,0,0,0,0,0,0,0,0,-1,1056,1821,0,0
-161,-797,0,0,0,0,0,0,0,0,0,-1,1063,1821,0,0
-154,-797,0,0,0,0,0,0,0,0,0,-1,1070,1821,0,0
-147,-797,0,0,0,0,0,0,0,0,0,-1,1077,1821,0,0
-140,-797,0,0,0,0,0,0,0,0,0,-1,1084,1821,0,0
-133,-797,0,0,0,0,0,0,0,0,0,-1,1091,1821,0,0
-126,-797,0,0,0,0,0,0,0,0,0,-1,1098,1821,0,0
-119,-797,0,0,0,0,0,0,0,0,0,-1,1105,1821,0,0
-112,-797,0,0,0,0,0,0,0,0,0,-1,1112,1821,0,0
-105,-797,0,0,0,0,0,0,0,0,0,-1,1119,1821,0,0
-98,-797,0,0,0,0,0,0,0,0,0,-1,1126,1821,0,0
-91,-797,0,0,0,0,0,0,0,0,0,-1,1133,1821,0,0
-84,-797,0,0,0,0,0,0,0,0,0,-1,1140,1821,0,0
-77,-797,0,0,0,0,0,0,0,0,0,-1,1147,1821,0,0
-70,-797,0,0,0,0,0,0,0,0,0,-1,1154,1821,0,0
-63,-797,0,0,0,0,0,0,0,0,0,-1,1161,1821,0,0
-56,-797,0,0,0,0,0,0,0,0,0,-1,1168,1821,0,0
-49,-797,0,0,0,0,0,0,0,0,0,-1,1175,1821,0,0
-42,-797,0.579834,0.692871,0,0,0,0,0,0,0,-1,1182,1821,0.579856,-0.692816
-35,-797,-0.185425,5.55396,0,0,0,0,0,0,0,-1,1189,1821,-0.18542,-5.55396
-28,-797,-0.310181,4.71509,0,0,0,0,0,0,0,-1,1196,1821,-0.310228,-4.71503
-21,-797,13.5989,54.6854,0,0,0,0,0,0,0,-1,1203,1821,13.5989,-54.6854
-14,-797,13.6705,55.6998,-0.0877436,0.24268,0.112517,0.277356,-0.122419,1.27185,0.236518,0.0442284,1210,1821,13.6706,-55.6998
-7,-797,13.4684,56.6626,-0.0913333,0.235989,0.109662,0.269332,-0.124676,1.27562,0.232535,0.0454203,1217,1821,13.4683,-56.6626
0,-797,12.9154,57.057,0,0,0,0,0,0,0,-1,1224,1821,12.9154,-57.0571
7,-797,12.0986,57.6525,0,0,0,0,0,0,0,-1,1231,1821,12.0987,-57.6524
14,-797,10.8115,58.4326,0,0,0,0,0,0,0,-1,1238,1821,10.8116,-58.4326
21,-797,10.3562,59.307,0,0,0,0,0,0,0,-1,1245,1821,10.3563,-59.3071
28,-797,9.83911,60.1113,0,0,0,0,0,0,0,-1,1252,1821,9.83911,-60.1113
35,-797,9.32556,60.9213,0,0,0,0,0,0,0,-1,1259,1821,9.32552,-60.9212
42,-797,8.93555,61.1763,0,0,0,0,0,0,0,-1,1266,1821,8.9356,-61.1763
49,-797,7.80469,61.6534,0.0136666,0.18814,0.0226648,0.191036,0.0107704,1.4437,0.123923,0.049052,1273,1821,7.80465,-61.6534
56,-797,8.34875,61.5253,0.0224475,0.187315,0.0135971,0.188429,0.0213336,1.48906,0.119147,0.0470542,1280,1821,8.34872,-61.5253
63,-797,8.94043,61.6522,0.0283556,0.187924,0.00426545,0.188038,0.0282417,1.54409,0.117086,0.0424903,1287,1821,8.94047,-61.6522
70,-797,9.53381,61.7443,0.0264302,0.195134,-0.0025184,0.195171,0.0263926,-1.55587,0.12227,0.0400591,1294,1821,9.5338,-61.7443
77,-797,9.8009,61.8002,0.0195428,0.203559,-0.00735942,0.203853,0.019249,-1.53089,0.129962,0.0424856,1301,1821,9.80093,-61.8001
84,-797,9.83118,61.6987,0.0116214,0.213147,-0.0113244,0.213781,0.010987,-1.51484,0.139003,0.0471446,1308,1821,9.83116,-61.6988
91,-797,9.74805,61.4277,-9.76747e-05,0.223839,-0.0130231,0.224593,-0.000852495,-1.5129,0.150014,0.0456026,1315,1821,9.74804,-61.4278
98,-797,9.44421,61.3679,-0.0144873,0.234339,-0.0127845,0.234994,-0.0151424,-1.5196,0.161947,0.0437852,1322,1821,9.44415,-61.368
105,-797,9.2052,61.3051,-0.0316495,0.244691,-0.0110643,0.245133,-0.0320918,-1.53084,0.175103,0.0474414,1329,1821,9.2052,-61.305
112,-797,8.92822,61.2408,0,0,0,0,0,0,0,-1,1336,1821,8.92821,-61.2408
119,-797,8.51575,61.4564,-0.071922,0.26224,-0.00365262,0.26228,-0.0719619,-1.55987,0.203135,0.0427561,1343,1821,8.51573,-61.4565
126,-797,7.80835,62.1635,-0.0935468,0.265484,0.00227758,0.265498,-0.0935612,1.56445,0.21508,0.0491121,1350,1821,7.80839,-62.1635
133,-797,7.43762,62.5114,0,0,0,0,0,0,0,-1,1357,1821,7.43757,-62.5114
140,-797,3.97681,60.5278,0,0,0,0,0,0,0,-1,1364,1821,3.97678,-60.5279
147,-797,3.67468,60.5692,0,0,0,0,0,0,0,-1,1371,1821,3.67468,-60.5692
154,-797,40.2623,8.88733,0,0,0,0,0,0,0,-1,1378,1821,40.2623,-8.88731
161,-797,42.2798,8.17371,0,0,0,0,0,0,0,-1,1385,1821,42.2798,-8.17367
168,-797,0,0,0,0,0,0,0,0,0,-1,1392,1821,0,0
175,-797,0,0,0,0,0,0,0,0,0,-1,1399,1821,0,0
182,-797,0,0,0,0,0,0,0,0,0,-1,1406,1821,0,0
189,-797,0,0,0,0,0,0,0,0,0,-1,1413,1821,0,0
196,-797,0,0,0,0,0,0,0,0,0,-1,1420,1821,0,0
203,-797,0,0,0,0,0,0,0,0,0,-1,1427,1821,0,0
210,-797,0,0,0,0,0,0,0,0,0,-1,1434,1821,0,0
217,-797,0,0,0,0,0,0,0,0,0,-1,1441,1821,0,0
224,-797,0,0,0,0,0,0,0,0,0,-1,1448,1821,0,0
231,-797,0,0,0,0,0,0,0,0,0,-1,1455,1821,0,0
238,-797,0,0,0,0,0,0,0,0,0,-1,1462,1821,0,0
245,-797,0,0,0,0,0,0,0,0,0,-1,1469,1821,0,0
252,-797,0,0,0,0,0,0,0,0,0,-1,1476,1821,0,0
259,-797,0,0,0,0,0,0,0,0,0,-1,1483,1821,0,0
266,-797,0,0,0,0,0,0,0,0,0,-1,1490,1821,0,0
273,-797,0,0,0,0,0,0,0,0,0,-1,1497,1821,0,0
280,-797,0,0,0,0,0,0,0,0,0,-1,1504,1821,0,0
287,-797,0,0,0,0,0,0,0,0,0,-1,1511,1821,0,0
294,-797,0,0,0,0,0,0,0,0,0,-1,1518,1821,0,0
301,-797,0,0,0,0,0,0,0,0,0,-1,1525,1821,0,0
308,-797,0,0,0,0,0,0,0,0,0,-1,1532,1821,0,0
315,-797,0,0,0,0,0,0,0,0,0,-1,1539,1821,0,0
322,-797,0,0,0,0,0,0,0,0,0,-1,1546,1821,0,0
329,-797,0,0,0,0,0,0,0,0,0,-1,1553,1821,0,0
336,-797,0,0,0,0,0,0,0,0,0,-1,1560,1821,0,0
343,-797,0,0,0,0,0,0,0,0,0,-1,1567,1821,0,0
350,-797,0,0,0,0,0,0,0,0,0,-1,1574,1821,0,0
357,-797,0,0,0,0,0,0,0,0,0,-1,1581,1821,0,0
364,-797,0,0,0,0,0,0,0,0,0,-1,1588,1821,0,0
371,-797,0,0,0,0,0,0,0,0,0,-1,1595,1821,0,0
378,-797,0,0,0,0,0,0,0,0,0,-1,1602,1821,0,0
385,-797,0,0,0,0,0,0,0,0,0,-1,1609,1821,0,0
392,-797,0,0,0,0,0,0,0,0,0,-1,1616,1821,0,0
399,-797,0,0,0,0,0,0,0,0,0,-1,1623,1821,0,0
406,-797,0,0,0,0,0,0,0,0,0,-1,1630,1821,0,0
413,-797,0,0,0,0,0,0,0,0,0,-1,1637,1821,0,0
420,-797,0,0,0,0,0,0,0,0,0,-1,1644,1821,0,0
427,-797,0,0,0,0,0,0,0,0,0,-1,1651,1821,0,0
434,-797,0,0,0,0,0,0,0,0,0,-1,1658,1821,0,0
441,-797,0,0,0,0,0,0,0,0,0,-1,1665,1821,0,0
448,-797,0,0,0,0,0,0,0,0,0,-1,1672,1821,0,0
455,-797,0,0,0,0,0,0,0,0,0,-1,1679,1821,0,0
462,-797,0,0,0,0,0,0,0,0,0,-1,1686,1821,0,0
469,-797,0,0,0,0,0,0,0,0,0,-1,1693,1821,0,0
476,-797,0,0,0,0,0,0,0,0,0,-1,1700,1821,0,0
483,-797,0,0,0,0,0,0,0,0,0,-1,1707,1821,0,0
490,-797,0,0,0,0,0,0,0,0,0,-1,1714,1821,0,0
497,-797,0,0,0,0,0,0,0,0,0,-1,1721,1821,0,0
504,-797,0,0,0,0,0,0,0,0,0,-1,1728,1821,0,0
511,-797,0,0,0,0,0,0,0,0,0,-1,1735,1821,0,0
518,-797,0,0,0,0,0,0,0,0,0,-1,1742,1821,0,0
525,-797,0,0,0,0,0,0,0,0,0,-1,1749,1821,0,0
532,-797,0,0,0,0,0,0,0,0,0,-1,1756,1821,0,0
539,-797,0,0,0,0,0,0,0,0,0,-1,1763,1821,0,0
546,-797,0,0,0,0,0,0,0,0,0,-1,1770,1821,0,0
553,-797,0,0,0,0,0,0,0,0,0,-1,1777,1821,0,0
560,-797,0,0,0,0,0,0,0,0,0,-1,1784,1821,0,0
567,-797,0,0,0,0,0,0,0,0,0,-1,1791,1821,0,0
574,-797,0,0,0,0,0,0,0,0,0,-1,1798,1821,0,0
581,-797,0,0,0,0,0,0,0,0,0,-1,1805,1821,0,0
588,-797,0,0,0,0,0,0,0,0,0,-1,1812,1821,0,0
595,-797,0,0,0,0,0,0,0,0,0,-1,1819,1821,0,0
602,-797,0,0,0,0,0,0,0,0,0,-1,1826,1821,0,0
609,-797,0,0,0,0,0,0,0,0,0,-1,1833,1821,0,0
616,-797,0,0,0,0,0,0,0,0,0,-1,1840,1821,0,0
623,-797,0,0,0,0,0,0,0,0,0,-1,1847,1821,0,0
630,-797,0,0,0,0,0,0,0,0,0,-1,1854,1821,0,0
637,-797,0,0,0,0,0,0,0,0,0,-1,1861,1821,0,0
644,-797,0,0,0,0,0,0,0,0,0,-1,1868,1821,0,0
651,-797,0,0,0,0,0,0,0,0,0,-1,1875,1821,0,0
658,-797,0,0,0,0,0,0,0,0,0,-1,1882,1821,0,0
665,-797,0,0,0,0,0,0,0,0,0,-1,1889,1821,0,0
672,-797,0,0,0,0,0,0,0,0,0,-1,1896,1821,0,0
679,-797,0,0,0,0,0,0,0,0,0,-1,1903,1821,0,0
686,-797,0,0,0,0,0,0,0,0,0,-1,1910,1821,0,0
693,-797,0,0,0,0,0,0,0,0,0,-1,1917,1821,0,0
700,-797,0,0,0,0,0,0,0,0,0,-1,1924,1821,0,0
707,-797,0,0,0,0,0,0,0,0,0,-1,1931,1821,0,0
714,-797,0,0,0,0,0,0,0,0,0,-1,1938,1821,0,0
721,-797,0,0,0,0,0,0,0,0,0,-1,1945,1821,0,0
728,-797,0,0,0,0,0,0,0,0,0,-1,1952,1821,0,0
735,-797,0,0,0,0,0,0,0,0,0,-1,1959,1821,0,0
742,-797,0,0,0,0,0,0,0,0,0,-1,1966,1821,0,0
749,-797,0,0,0,0,0,0,0,0,0,-1,1973,1821,0,0
756,-797,0,0,0,0,0,0,0,0,0,-1,1980,1821,0,0
763,-797,0,0,0,0,0,0,0,0,0,-1,1987,1821,0,0
770,-797,0,0,0,0,0,0,0,0,0,-1,1994,1821,0,0
777,-797,0,0,0,0,0,0,0,0,0,-1,2001,1821,0,0
784,-797,0,0,0,0,0,0,0,0,0,-1,2008,1821,0,0
791,-797,0,0,0,0,0,0,0,0,0,-1,2015,1821,0,0
798,-797,0,0,0,0,0,0,0,0,0,-1,2022,1821,0,0
805,-797,0,0,0,0,0,0,0,0,0,-1,2029,1821,0,0
812,-797,0,0,0,0,0,0,0,0,0,-1,2036,1821,0,0
-700,-804,0,0,0,0,0,0,0,0,0,-1,524,1828,0,0
-693,-804,0,0,0,0,0,0,0,0,0,-1,531,1828,0,0
-686,-804,0,0,0,0,0,0,0,0,0,-1,538,1828,0,0
-679,-804,0,0,0,0,0,0,0,0,0,-1,545,1828,0,0
-672,-804,0,0,0,0,0,0,0,0,0,-1,552,1828,0,0
-665,-804,0,0,0,0,0,0,0,0,0,-1,559,1828,0,0
-658,-804,0,0,0,0,0,0,0,0,0,-1,566,1828,0,0
-651,-804,0,0,0,0,0,0,0,0,0,-1,573,1828,0,0
-644,-804,0,0,0,0,0,0,0,0,0,-1,580,1828,0,0
-637,-804,0,0,0,0,0,0,0,0,0,-1,587,1828,0,0
-630,-804,0,0,0,0,0,0,0,0,0,-1,594,1828,0,0
-623,-804,0,0,0,0,0,0,0,0,0,-1,601,1828,0,0
-616,-804,0,0,0,0,0,0,0,0,0,-1,608,1828,0,0
-609,-804,0,0,0,0,0,0,0,0,0,-1,615,1828,0,0
-602,-804,0,0,0,0,0,0,0,0,0,-1,622,1828,0,0
-595,-804,0,0,0,0,0,0,0,0,0,-1,629,1828,0,0
-588,-804,0,0,0,0,0,0,0,0,0,-1,636,1828,0,0
-581,-804,0,0,0,0,0,0,0,0,0,-1,643,1828,0,0
-574,-804,0,0,0,0,0,0,0,0,0,-1,650,1828,0,0
-567,-804,0,0,0,0,0,0,0,0,0,-1,657,1828,0,0
-560,-804,0,0,0,0,0,0,0,0,0,-1,664,1828,0,0
-553,-804,0,0,0,0,0,0,0,0,0,-1,671,1828,0,0
-546,-804,0,0,0,0,0,0,0,0,0,-1,678,1828,0,0
-539,-804,0,0,0,0,0,0,0,0,0,-1,685,1828,0,0
-532,-804,0,0,0,0,0,0,0,0,0,-1,692,1828,0,0
-525,-804,0,0,0,0,0,0,0,0,0,-1,699,1828,0,0
-518,-804,0,0,0,0,0,0,0,0,0,-1,706,1828,0,0
-511,-804,0,0,0,0,0,0,0,0,0,-1,713,1828,0,0
-504,-804,0,0,0,0,0,0,0,0,0,-1,720,1828,0,0
-497,-804,0,0,0,0,0,0,0,0,0,-1,727,1828,0,0
-490,-804,0,0,0,0,0,0,0,0,0,-1,734,1828,0,0
-483,-804,0,0,0,0,0,0,0,0,0,-1,741,1828,0,0
-476,-804,0,0,0,0,0,0,0,0,0,-1,748,1828,0,0
-469,-804,0,0,0,0,0,0,0,0,0,-1,755,1828,0,0
-462,-804,0,0,0,0,0,0,0,0,0,-1,762,1828,0,0
-455,-804,0,0,0,0,0,0,0,0,0,-1,769,1828,0,0
-448,-804,0,0,0,0,0,0,0,0,0,-1,776,1828,0,0
-441,-804,0,0,0,0,0,0,0,0,0,-1,783,1828,0,0
-434,-804,0,0,0,0,0,0,0,0,0,-1,790,1828,0,0
-427,-804,0,0,0,0,0,0,0,0,0,-1,797,1828,0,0
-420,-804,0,0,0,0,0,0,0,0,0,-1,804,1828,0,0
-413,-804,0,0,0,0,0,0,0,0,0,-1,811,1828,0,0
-406,-804,0,0,0,0,0,0,0,0,0,-1,818,1828,0,0
-399,-804,0,0,0,0,0,0,0,0,0,-1,825,1828,0,0
-392,-804,0,0,0,0,0,0,0,0,0,-1,832,1828,0,0
-385,-804,0,0,0,0,0,0,0,0,0,-1,839,1828,0,0
-378,-804,0,0,0,0,0,0,0,0,0,-1,846,1828,0,0
-371,-804,0,0,0,0,0,0,0,0,0,-1,853,1828,0,0
-364,-804,0,0,0,0,0,0,0,0,0,-1,860,1828,0,0
-357,-804,0,0,0,0,0,0,0,0,0,-1,867,1828,0,0
-350,-804,0,0,0,0,0,0,0,0,0,-1,874,1828,0,0
-343,-804,0,0,0,0,0,0,0,0,0,-1,881,1828,0,0
-336,-804,0,0,0,0,0,0,0,0,0,-1,888,1828,0,0
-329,-804,0,0,0,0,0,0,0,0,0,-1,895,1828,0,0
-322,-804,0,0,0,0,0,0,0,0,0,-1,902,1828,0,0
-315,-804,0,0,0,0,0,0,0,0,0,-1,909,1828,0,0
-308,-804,0,0,0,0,0,0,0,0,0,-1,916,1828,0,0
-301,-804,0,0,0,0,0,0,0,0,0,-1,923,1828,0,0
-294,-804,0,0,0,0,0,0,0,0,0,-1,930,1828,0,0
-287,-804,0,0,0,0,0,0,0,0,0,-1,937,1828,0,0
-280,-804,0,0,0,0,0,0,0,0,0,-1,944,1828,0,0
-273,-804,0,0,0,0,0,0,0,0,0,-1,951,1828,0,0
-266,-804,0,0,0,0,0,0,0,0,0,-1,958,1828,0,0
-259,-804,0,0,0,0,0,0,0,0,0,-1,965,1828,0,0
-252,-804,0,0,0,0,0,0,0,0,0,-1,972,1828,0,0
-245,-804,0,0,0,0,0,0,0,0,0,-1,979,1828,0,0
-238,-804,0,0,0,0,0,0,0,0,0,-1,986,1828,0,0
-231,-804,0,0,0,0,0,0,0,0,0,-1,993,1828,0,0
-224,-804,0,0,0,0,0,0,0,0,0,-1,1000,1828,0,0
-217,-804,0,0,0,0,0,0,0,0,0,-1,1007,1828,0,0
-210,-804,0,0,0,0,0,0,0,0,0,-1,1014,1828,0,0
-203,-804,0,0,0,0,0,0,0,0,0,-1,1021,1828,0,0
-196,-804,0,0,0,0,0,0,0,0,0,-1,1028,1828,0,0
-189,-804,0,0,0,0,0,0,0,0,0,-1,1035,1828,0,0
-182,-804,0,0,0,0,0,0,0,0,0,-1,1042,1828,0,0
-175,-804,0,0,0,0,0,0,0,0,0,-1,1049,1828,0,0
-168,-804,0,0,0,0,0,0,0,0,0,-1,1056,1828,0,0
-161,-804,0,0,0,0,0,0,0,0,0,-1,1063,1828,0,0
-154,-804,0,0,0,0,0,0,0,0,0,-1,1070,1828,0,0
-147,-804,0,0,0,0,0,0,0,0,0,-1,1077,1828,0,0
-140,-804,0,0,0,0,0,0,0,0,0,-1,1084,1828,0,0
-133,-804,0,0,0,0,0,0,0,0,0,-1,1091,1828,0,0
-126,-804,0,0,0,0,0,0,0,0,0,-1,1098,1828,0,0
-119,-804,0,0,0,0,0,0,0,0,0,-1,1105,1828,0,0
-112,-804,0,0,0,0,0,0,0,0,0,-1,1112,1828,0,0
-105,-804,0,0,0,0,0,0,0,0,0,-1,1119,1828,0,0
-98,-804,0,0,0,0,0,0,0,0,0,-1,1126,1828,0,0
-91,-804,0,0,0,0,0,0,0,0,0,-1,1133,1828,0,0
-84,-804,0,0,0,0,0,0,0,0,0,-1,1140,1828,0,0
-77,-804,0,0,0,0,0,0,0,0,0,-1,1147,1828,0,0
-70,-804,0,0,0,0,0,0,0,0,0,-1,1154,1828,0,0
-63,-804,0,0,0,0,0,0,0,0,0,-1,1161,1828,0,0
-56,-804,0,0,0,0,0,0,0,0,0,-1,1168,1828,0,0
-49,-804,0,0,0,0,0,0,0,0,0,-1,1175,1828,0,0
-42,-804,0,0,0,0,0,0,0,0,0,-1,1182,1828,0,0
-35,-804,0,0,0,0,0,0,0,0,0,-1,1189,1828,0,0
-28,-804,0,0,0,0,0,0,0,0,0,-1,1196,1828,0,0
-21,-804,0,0,0,0,0,0,0,0,0,-1,1203,1828,0,0
-14,-804,0,0,0,0,0,0,0,0,0,-1,1210,1828,0,0
-7,-804,0,0,0,0,0,0,0,0,0,-1,1217,1828,0,0
0,-804,0,0,0,0,0,0,0,0,0,-1,1224,1828,0,0
7,-804,0,0,0,0,0,0,0,0,0,-1,1231,1828,0,0
14,-804,0,0,0,0,0,0,0,0,0,-1,1238,1828,0,0
21,-804,0,0,0,0,0,0,0,0,0,-1,1245,1828,0,0
28,-804,0,0,0,0,0,0,0,0,0,-1,1252,1828,0,0
35,-804,6.70068,59.8182,0,0,0,0,0,0,0,-1,1259,1828,6.70063,-59.8183
42,-804,7.25769,60.0389,0,0,0,0,0,0,0,-1,1266,1828,7.25763,-60.039
49,-804,7.79053,60.2201,0.0330228,0.214355,0.0245051,0.217608,0.0297696,1.43881,0.136237,0.0481013,1273,1828,7.79052,-60.2201
56,-804,8.23267,60.3097,0.0421449,0.212235,0.0149376,0.213537,0.040843,1.48386,0.130886,0.0477849,1280,1828,8.23265,-60.3097
63,-804,8.60254,60.6967,0.047831,0.21176,0.00460472,0.211889,0.0477017,1.54274,0.128348,0.044912,1287,1828,8.60257,-60.6967
70,-804,9.51196,60.2068,0.0439084,0.218939,-0.00304783,0.218992,0.0438553,-1.55339,0.133794,0.0440469,1294,1828,9.51192,-60.2068
77,-804,9.98572,60.865,0,0,0,0,0,0,0,-1,1301,1828,9.98569,-60.865
84,-804,10.0033,60.7555,0,0,0,0,0,0,0,-1,1308,1828,10.0033,-60.7555
91,-804,0,0,0,0,0,0,0,0,0,-1,1315,1828,0,0
98,-804,0,0,0,0,0,0,0,0,0,-1,1322,1828,0,0
105,-804,0,0,0,0,0,0,0,0,0,-1,1329,1828,0,0
112,-804,0,0,0,0,0,0,0,0,0,-1,1336,1828,0,0
119,-804,0,0,0,0,0,0,0,0,0,-1,1343,1828,0,0
126,-804,0,0,0,0,0,0,0,0,0,-1,1350,1828,0,0
133,-804,0,0,0,0,0,0,0,0,0,-1,1357,1828,0,0
140,-804,0,0,0,0,0,0,0,0,0,-1,1364,1828,0,0
147,-804,0,0,0,0,0,0,0,0,0,-1,1371,1828,0,0
154,-804,0,0,0,0,0,0,0,0,0,-1,1378,1828,0,0
161,-804,0,0,0,0,0,0,0,0,0,-1,1385,1828,0,0
168,-804,0,0,0,0,0,0,0,0,0,-1,1392,1828,0,0
175,-804,0,0,0,0,0,0,0,0,0,-1,1399,1828,0,0
182,-804,0,0,0,0,0,0,0,0,0,-1,1406,1828,0,0
189,-804,0,0,0,0,0,0,0,0,0,-1,1413,1828,0,0
196,-804,0,0,0,0,0,0,0,0,0,-1,1420,1828,0,0
203,-804,0,0,0,0,0,0,0,0,0,-1,1427,1828,0,0
210,-804,0,0,0,0,0,0,0,0,0,-1,1434,1828,0,0
217,-804,0,0,0,0,0,0,0,0,0,-1,1441,1828,0,0
224,-804,0,0,0,0,0,0,0,0,0,-1,1448,1828,0,0
231,-804,0,0,0,0,0,0,0,0,0,-1,1455,1828,0,0
238,-804,0,0,0,0,0,0,0,0,0,-1,1462,1828,0,0
245,-804,0,0,0,0,0,0,0,0,0,-1,1469,1828,0,0
252,-804,0,0,0,0,0,0,0,0,0,-1,1476,1828,0,0
259,-804,0,0,0,0,0,0,0,0,0,-1,1483,1828,0,0
266,-804,0,0,0,0,0,0,0,0,0,-1,1490,1828,0,0
273,-804,0,0,0,0,0,0,0,0,0,-1,1497,1828,0,0
280,-804,0,0,0,0,0,0,0,0,0,-1,1504,1828,0,0
287,-804,0,0,0,0,0,0,0,0,0,-1,1511,1828,0,0
294,-804,0,0,0,0,0,0,0,0,0,-1,1518,1828,0,0
301,-804,0,0,0,0,0,0,0,0,0,-1,1525,1828,0,0
308,-804,0,0,0,0,0,0,0,0,0,-1,1532,1828,0,0
315,-804,0,0,0,0,0,0,0,0,0,-1,1539,1828,0,0
322,-804,0,0,0,0,0,0,0,0,0,-1,1546,1828,0,0
329,-804,0,0,0,0,0,0,0,0,0,-1,1553,1828,0,0
336,-804,0,0,0,0,0,0,0,0,0,-1,1560,1828,0,0
343,-804,0,0,0,0,0,0,0,0,0,-1,1567,1828,0,0
350,-804,0,0,0,0,0,0,0,0,0,-1,1574,1828,0,0
357,-804,0,0,0,0,0,0,0,0,0,-1,1581,1828,0,0
364,-804,0,0,0,0,0,0,0,0,0,-1,1588,1828,0,0
371,-804,0,0,0,0,0,0,0,0,0,-1,1595,1828,0,0
378,-804,0,0,0,0,0,0,0,0,0,-1,1602,1828,0,0
385,-804,0,0,0,0,0,0,0,0,0,-1,1609,1828,0,0
392,-804,0,0,0,0,0,0,0,0,0,-1,1616,1828,0,0
399,-804,0,0,0,0,0,0,0,0,0,-1,1623,1828,0,0
406,-804,0,0,0,0,0,0,0,0,0,-1,1630,1828,0,0
413,-804,0,0,0,0,0,0,0,0,0,-1,1637,1828,0,0
420,-804,0,0,0,0,0,0,0,0,0,-1,1644,1828,0,0
427,-804,0,0,0,0,0,0,0,0,0,-1,1651,1828,0,0
434,-804,0,0,0,0,0,0,0,0,0,-1,1658,1828,0,0
441,-804,0,0,0,0,0,0,0,0,0,-1,1665,1828,0,0
448,-804,0,0,0,0,0,0,0,0,0,-1,1672,1828,0,0
455,-804,0,0,0,0,0,0,0,0,0,-1,1679,1828,0,0
462,-804,0,0,0,0,0,0,0,0,0,-1,1686,1828,0,0
469,-804,0,0,0,0,0,0,0,0,0,-1,1693,1828,0,0
476,-804,0,0,0,0,0,0,0,0,0,-1,1700,1828,0,0
483,-804,0,0,0,0,0,0,0,0,0,-1,1707,1828,0,0
490,-804,0,0,0,0,0,0,0,0,0,-1,1714,1828,0,0
497,-804,0,0,0,0,0,0,0,0,0,-1,1721,1828,0,0
504,-804,0,0,0,0,0,0,0,0,0,-1,1728,1828,0,0
511,-804,0,0,0,0,0,0,0,0,0,-1,1735,1828,0,0
518,-804,0,0,0,0,0,0,0,0,0,-1,1742,1828,0,0
525,-804,0,0,0,0,0,0,0,0,0,-1,1749,1828,0,0
532,-804,0,0,0,0,0,0,0,0,0,-1,1756,1828,0,0
539,-804,0,0,0,0,0,0,0,0,0,-1,1763,1828,0,0
546,-804,0,0,0,0,0,0,0,0,0,-1,1770,1828,0,0
553,-804,0,0,0,0,0,0,0,0,0,-1,1777,1828,0,0
560,-804,0,0,0,0,0,0,0,0,0,-1,1784,1828,0,0
567,-804,0,0,0,0,0,0,0,0,0,-1,1791,1828,0,0
574,-804,0,0,0,0,0,0,0,0,0,-1,1798,1828,0,0
581,-804,0,0,0,0,0,0,0,0,0,-1,1805,1828,0,0
588,-804,0,0,0,0,0,0,0,0,0,-1,1812,1828,0,0
595,-804,0,0,0,0,0,0,0,0,0,-1,1819,1828,0,0
602,-804,0,0,0,0,0,0,0,0,0,-1,1826,1828,0,0
609,-804,0,0,0,0,0,0,0,0,0,-1,1833,1828,0,0
616,-804,0,0,0,0,0,0,0,0,0,-1,1840,1828,0,0
623,-804,0,0,0,0,0,0,0,0,0,-1,1847,1828,0,0
630,-804,0,0,0,0,0,0,0,0,0,-1,1854,1828,0,0
637,-804,0,0,0,0,0,0,0,0,0,-1,1861,1828,0,0
644,-804,0,0,0,0,0,0,0,0,0,-1,1868,1828,0,0
651,-804,0,0,0,0,0,0,0,0,0,-1,1875,1828,0,0
658,-804,0,0,0,0,0,0,0,0,0,-1,1882,1828,0,0
665,-804,0,0,0,0,0,0,0,0,0,-1,1889,1828,0,0
672,-804,0,0,0,0,0,0,0,0,0,-1,1896,1828,0,0
679,-804,0,0,0,0,0,0,0,0,0,-1,1903,1828,0,0
686,-804,0,0,0,0,0,0,0,0,0,-1,1910,1828,0,0
693,-804,0,0,0,0,0,0,0,0,0,-1,1917,1828,0,0
700,-804,0,0,0,0,0,0,0,0,0,-1,1924,1828,0,0
707,-804,0,0,0,0,0,0,0,0,0,-1,1931,1828,0,0
714,-804,0,0,0,0,0,0,0,0,0,-1,1938,1828,0,0
721,-804,0,0,0,0,0,0,0,0,0,-1,1945,1828,0,0
728,-804,0,0,0,0,0,0,0,0,0,-1,1952,1828,0,0
735,-804,0,0,0,0,0,0,0,0,0,-1,1959,1828,0,0
742,-804,0,0,0,0,0,0,0,0,0,-1,1966,1828,0,0
749,-804,0,0,0,0,0,0,0,0,0,-1,1973,1828,0,0
756,-804,0,0,0,0,0,0,0,0,0,-1,1980,1828,0,0
763,-804,0,0,0,0,0,0,0,0,0,-1,1987,1828,0,0
770,-804,0,0,0,0,0,0,0,0,0,-1,1994,1828,0,0
777,-804,0,0,0,0,0,0,0,0,0,-1,2001,1828,0,0
784,-804,0,0,0,0,0,0,0,0,0,-1,2008,1828,0,0
791,-804,0,0,0,0,0,0,0,0,0,-1,2015,1828,0,0
798,-804,0,0,0,0,0,0,0,0,0,-1,2022,1828,0,0
805,-804,0,0,0,0,0,0,0,0,0,-1,2029,1828,0,0
812,-804,0,0,0,0,0,0,0,0,0,-1,2036,1828,0,0

