 "x_c",  "y_c",  "u_c",  "v_c",  "exx",  "eyy",  "exy",  "e1",  "e2",  "gamma",  "e_vonmises",  "sigma",  "x",  "y",  "u",  "v"
-700,715,0,0,0,0,0,0,0,0,0,-1,524,309,0,0
-693,715,0,0,0,0,0,0,0,0,0,-1,531,309,0,0
-686,715,0,0,0,0,0,0,0,0,0,-1,538,309,0,0
-679,715,0,0,0,0,0,0,0,0,0,-1,545,309,0,0
-672,715,0,0,0,0,0,0,0,0,0,-1,552,309,0,0
-665,715,0,0,0,0,0,0,0,0,0,-1,559,309,0,0
-658,715,0,0,0,0,0,0,0,0,0,-1,566,309,0,0
-651,715,0,0,0,0,0,0,0,0,0,-1,573,309,0,0
-644,715,0,0,0,0,0,0,0,0,0,-1,580,309,0,0
-637,715,0,0,0,0,0,0,0,0,0,-1,587,309,0,0
-630,715,0,0,0,0,0,0,0,0,0,-1,594,309,0,0
-623,715,0,0,0,0,0,0,0,0,0,-1,601,309,0,0
-616,715,0,0,0,0,0,0,0,0,0,-1,608,309,0,0
-609,715,0,0,0,0,0,0,0,0,0,-1,615,309,0,0
-602,715,0,0,0,0,0,0,0,0,0,-1,622,309,0,0
-595,715,0,0,0,0,0,0,0,0,0,-1,629,309,0,0
-588,715,0,0,0,0,0,0,0,0,0,-1,636,309,0,0
-581,715,0,0,0,0,0,0,0,0,0,-1,643,309,0,0
-574,715,0,0,0,0,0,0,0,0,0,-1,650,309,0,0
-567,715,0,0,0,0,0,0,0,0,0,-1,657,309,0,0
-560,715,0,0,0,0,0,0,0,0,0,-1,664,309,0,0
-553,715,0,0,0,0,0,0,0,0,0,-1,671,309,0,0
-546,715,0,0,0,0,0,0,0,0,0,-1,678,309,0,0
-539,715,0,0,0,0,0,0,0,0,0,-1,685,309,0,0
-532,715,0,0,0,0,0,0,0,0,0,-1,692,309,0,0
-525,715,0,0,0,0,0,0,0,0,0,-1,699,309,0,0
-518,715,0,0,0,0,0,0,0,0,0,-1,706,309,0,0
-511,715,0,0,0,0,0,0,0,0,0,-1,713,309,0,0
-504,715,0,0,0,0,0,0,0,0,0,-1,720,309,0,0
-497,715,0,0,0,0,0,0,0,0,0,-1,727,309,0,0
-490,715,0,0,0,0,0,0,0,0,0,-1,734,309,0,0
-483,715,0,0,0,0,0,0,0,0,0,-1,741,309,0,0
-476,715,0,0,0,0,0,0,0,0,0,-1,748,309,0,0
-469,715,0,0,0,0,0,0,0,0,0,-1,755,309,0,0
-462,715,0,0,0,0,0,0,0,0,0,-1,762,309,0,0
-455,715,0,0,0,0,0,0,0,0,0,-1,769,309,0,0
-448,715,0,0,0,0,0,0,0,0,0,-1,776,309,0,0
-441,715,0,0,0,0,0,0,0,0,0,-1,783,309,0,0
-434,715,0,0,0,0,0,0,0,0,0,-1,790,309,0,0
-427,715,0,0,0,0,0,0,0,0,0,-1,797,309,0,0
-420,715,0,0,0,0,0,0,0,0,0,-1,804,309,0,0
-413,715,0,0,0,0,0,0,0,0,0,-1,811,309,0,0
-406,715,0,0,0,0,0,0,0,0,0,-1,818,309,0,0
-399,715,0,0,0,0,0,0,0,0,0,-1,825,309,0,0
-392,715,0,0,0,0,0,0,0,0,0,-1,832,309,0,0
-385,715,0,0,0,0,0,0,0,0,0,-1,839,309,0,0
-378,715,0,0,0,0,0,0,0,0,0,-1,846,309,0,0
-371,715,0,0,0,0,0,0,0,0,0,-1,853,309,0,0
-364,715,0,0,0,0,0,0,0,0,0,-1,860,309,0,0
-357,715,0,0,0,0,0,0,0,0,0,-1,867,309,0,0
-350,715,0,0,0,0,0,0,0,0,0,-1,874,309,0,0
-343,715,0,0,0,0,0,0,0,0,0,-1,881,309,0,0
-336,715,0,0,0,0,0,0,0,0,0,-1,888,309,0,0
-329,715,0,0,0,0,0,0,0,0,0,-1,895,309,0,0
-322,715,0,0,0,0,0,0,0,0,0,-1,902,309,0,0
-315,715,0,0,0,0,0,0,0,0,0,-1,909,309,0,0
-308,715,0,0,0,0,0,0,0,0,0,-1,916,309,0,0
-301,715,0,0,0,0,0,0,0,0,0,-1,923,309,0,0
-294,715,0,0,0,0,0,0,0,0,0,-1,930,309,0,0
-287,715,0,0,0,0,0,0,0,0,0,-1,937,309,0,0
-280,715,0,0,0,0,0,0,0,0,0,-1,944,309,0,0
-273,715,0,0,0,0,0,0,0,0,0,-1,951,309,0,0
-266,715,0,0,0,0,0,0,0,0,0,-1,958,309,0,0
-259,715,0,0,0,0,0,0,0,0,0,-1,965,309,0,0
-252,715,0,0,0,0,0,0,0,0,0,-1,972,309,0,0
-245,715,0,0,0,0,0,0,0,0,0,-1,979,309,0,0
-238,715,0,0,0,0,0,0,0,0,0,-1,986,309,0,0
-231,715,0,0,0,0,0,0,0,0,0,-1,993,309,0,0
-224,715,0,0,0,0,0,0,0,0,0,-1,1000,309,0,0
-217,715,0,0,0,0,0,0,0,0,0,-1,1007,309,0,0
-210,715,0,0,0,0,0,0,0,0,0,-1,1014,309,0,0
-203,715,0,0,0,0,0,0,0,0,0,-1,1021,309,0,0
-196,715,0,0,0,0,0,0,0,0,0,-1,1028,309,0,0
-189,715,0,0,0,0,0,0,0,0,0,-1,1035,309,0,0
-182,715,0,0,0,0,0,0,0,0,0,-1,1042,309,0,0
-175,715,0,0,0,0,0,0,0,0,0,-1,1049,309,0,0
-168,715,0,0,0,0,0,0,0,0,0,-1,1056,309,0,0
-161,715,0,0,0,0,0,0,0,0,0,-1,1063,309,0,0
-154,715,0,0,0,0,0,0,0,0,0,-1,1070,309,0,0
-147,715,0,0,0,0,0,0,0,0,0,-1,1077,309,0,0
-140,715,0,0,0,0,0,0,0,0,0,-1,1084,309,0,0
-133,715,0,0,0,0,0,0,0,0,0,-1,1091,309,0,0
-126,715,0,0,0,0,0,0,0,0,0,-1,1098,309,0,0
-119,715,0,0,0,0,0,0,0,0,0,-1,1105,309,0,0
-112,715,0,0,0,0,0,0,0,0,0,-1,1112,309,0,0
-105,715,0,0,0,0,0,0,0,0,0,-1,1119,309,0,0
-98,715,0,0,0,0,0,0,0,0,0,-1,1126,309,0,0
-91,715,0,0,0,0,0,0,0,0,0,-1,1133,309,0,0
-84,715,0,0,0,0,0,0,0,0,0,-1,1140,309,0,0
-77,715,0,0,0,0,0,0,0,0,0,-1,1147,309,0,0
-70,715,0,0,0,0,0,0,0,0,0,-1,1154,309,0,0
-63,715,0,0,0,0,0,0,0,0,0,-1,1161,309,0,0
-56,715,0,0,0,0,0,0,0,0,0,-1,1168,309,0,0
-49,715,0,0,0,0,0,0,0,0,0,-1,1175,309,0,0
-42,715,0,0,0,0,0,0,0,0,0,-1,1182,309,0,0
-35,715,0,0,0,0,0,0,0,0,0,-1,1189,309,0,0
-28,715,0,0,0,0,0,0,0,0,0,-1,1196,309,0,0
-21,715,0,0,0,0,0,0,0,0,0,-1,1203,309,0,0
-14,715,0,0,0,0,0,0,0,0,0,-1,1210,309,0,0
-7,715,0,0,0,0,0,0,0,0,0,-1,1217,309,0,0
0,715,0,0,0,0,0,0,0,0,0,-1,1224,309,0,0
7,715,0,0,0,0,0,0,0,0,0,-1,1231,309,0,0
14,715,0,0,0,0,0,0,0,0,0,-1,1238,309,0,0
21,715,0,0,0,0,0,0,0,0,0,-1,1245,309,0,0
28,715,0,0,0,0,0,0,0,0,0,-1,1252,309,0,0
35,715,0,0,0,0,0,0,0,0,0,-1,1259,309,0,0
42,715,0,0,0,0,0,0,0,0,0,-1,1266,309,0,0
49,715,0,0,0,0,0,0,0,0,0,-1,1273,309,0,0
56,715,0,0,0,0,0,0,0,0,0,-1,1280,309,0,0
63,715,4.90454,1.52841,0.183118,0.285475,-0.0434904,0.301457,0.167135,-1.21861,0.17439,0.043304,1287,309,4.90453,-1.52842
70,715,5.01331,1.89468,0.162181,0.238892,-0.0140145,0.241372,0.159701,-1.39564,0.141763,0.0420419,1294,309,5.01329,-1.8947
77,715,0,0,0,0,0,0,0,0,0,-1,1301,309,0,0
84,715,0,0,0,0,0,0,0,0,0,-1,1308,309,0,0
91,715,0,0,0,0,0,0,0,0,0,-1,1315,309,0,0
98,715,0,0,0,0,0,0,0,0,0,-1,1322,309,0,0
105,715,0,0,0,0,0,0,0,0,0,-1,1329,309,0,0
112,715,0,0,0,0,0,0,0,0,0,-1,1336,309,0,0
119,715,0,0,0,0,0,0,0,0,0,-1,1343,309,0,0
126,715,0,0,0,0,0,0,0,0,0,-1,1350,309,0,0
133,715,0,0,0,0,0,0,0,0,0,-1,1357,309,0,0
140,715,0,0,0,0,0,0,0,0,0,-1,1364,309,0,0
147,715,0,0,0,0,0,0,0,0,0,-1,1371,309,0,0
154,715,0,0,0,0,0,0,0,0,0,-1,1378,309,0,0
161,715,0,0,0,0,0,0,0,0,0,-1,1385,309,0,0
168,715,0,0,0,0,0,0,0,0,0,-1,1392,309,0,0
175,715,0,0,0,0,0,0,0,0,0,-1,1399,309,0,0
182,715,0,0,0,0,0,0,0,0,0,-1,1406,309,0,0
189,715,0,0,0,0,0,0,0,0,0,-1,1413,309,0,0
196,715,0,0,0,0,0,0,0,0,0,-1,1420,309,0,0
203,715,0,0,0,0,0,0,0,0,0,-1,1427,309,0,0
210,715,0,0,0,0,0,0,0,0,0,-1,1434,309,0,0
217,715,0,0,0,0,0,0,0,0,0,-1,1441,309,0,0
224,715,0,0,0,0,0,0,0,0,0,-1,1448,309,0,0
231,715,0,0,0,0,0,0,0,0,0,-1,1455,309,0,0
238,715,0,0,0,0,0,0,0,0,0,-1,1462,309,0,0
245,715,0,0,0,0,0,0,0,0,0,-1,1469,309,0,0
252,715,0,0,0,0,0,0,0,0,0,-1,1476,309,0,0
259,715,0,0,0,0,0,0,0,0,0,-1,1483,309,0,0
266,715,0,0,0,0,0,0,0,0,0,-1,1490,309,0,0
273,715,0,0,0,0,0,0,0,0,0,-1,1497,309,0,0
280,715,0,0,0,0,0,0,0,0,0,-1,1504,309,0,0
287,715,0,0,0,0,0,0,0,0,0,-1,1511,309,0,0
294,715,0,0,0,0,0,0,0,0,0,-1,1518,309,0,0
301,715,0,0,0,0,0,0,0,0,0,-1,1525,309,0,0
308,715,0,0,0,0,0,0,0,0,0,-1,1532,309,0,0
315,715,0,0,0,0,0,0,0,0,0,-1,1539,309,0,0
322,715,0,0,0,0,0,0,0,0,0,-1,1546,309,0,0
329,715,0,0,0,0,0,0,0,0,0,-1,1553,309,0,0
336,715,0,0,0,0,0,0,0,0,0,-1,1560,309,0,0
343,715,0,0,0,0,0,0,0,0,0,-1,1567,309,0,0
350,715,0,0,0,0,0,0,0,0,0,-1,1574,309,0,0
357,715,0,0,0,0,0,0,0,0,0,-1,1581,309,0,0
364,715,0,0,0,0,0,0,0,0,0,-1,1588,309,0,0
371,715,0,0,0,0,0,0,0,0,0,-1,1595,309,0,0
378,715,0,0,0,0,0,0,0,0,0,-1,1602,309,0,0
385,715,0,0,0,0,0,0,0,0,0,-1,1609,309,0,0
392,715,0,0,0,0,0,0,0,0,0,-1,1616,309,0,0
399,715,0,0,0,0,0,0,0,0,0,-1,1623,309,0,0
406,715,0,0,0,0,0,0,0,0,0,-1,1630,309,0,0
413,715,0,0,0,0,0,0,0,0,0,-1,1637,309,0,0
420,715,0,0,0,0,0,0,0,0,0,-1,1644,309,0,0
427,715,0,0,0,0,0,0,0,0,0,-1,1651,309,0,0
434,715,0,0,0,0,0,0,0,0,0,-1,1658,309,0,0
441,715,0,0,0,0,0,0,0,0,0,-1,1665,309,0,0
448,715,0,0,0,0,0,0,0,0,0,-1,1672,309,0,0
455,715,0,0,0,0,0,0,0,0,0,-1,1679,309,0,0
462,715,0,0,0,0,0,0,0,0,0,-1,1686,309,0,0
469,715,0,0,0,0,0,0,0,0,0,-1,1693,309,0,0
476,715,0,0,0,0,0,0,0,0,0,-1,1700,309,0,0
483,715,0,0,0,0,0,0,0,0,0,-1,1707,309,0,0
490,715,0,0,0,0,0,0,0,0,0,-1,1714,309,0,0
497,715,0,0,0,0,0,0,0,0,0,-1,1721,309,0,0
504,715,0,0,0,0,0,0,0,0,0,-1,1728,309,0,0
511,715,0,0,0,0,0,0,0,0,0,-1,1735,309,0,0
518,715,0,0,0,0,0,0,0,0,0,-1,1742,309,0,0
525,715,0,0,0,0,0,0,0,0,0,-1,1749,309,0,0
532,715,0,0,0,0,0,0,0,0,0,-1,1756,309,0,0
539,715,0,0,0,0,0,0,0,0,0,-1,1763,309,0,0
546,715,0,0,0,0,0,0,0,0,0,-1,1770,309,0,0
553,715,0,0,0,0,0,0,0,0,0,-1,1777,309,0,0
560,715,0,0,0,0,0,0,0,0,0,-1,1784,309,0,0
567,715,0,0,0,0,0,0,0,0,0,-1,1791,309,0,0
574,715,0,0,0,0,0,0,0,0,0,-1,1798,309,0,0
581,715,0,0,0,0,0,0,0,0,0,-1,1805,309,0,0
588,715,0,0,0,0,0,0,0,0,0,-1,1812,309,0,0
595,715,0,0,0,0,0,0,0,0,0,-1,1819,309,0,0
602,715,0,0,0,0,0,0,0,0,0,-1,1826,309,0,0
609,715,0,0,0,0,0,0,0,0,0,-1,1833,309,0,0
616,715,0,0,0,0,0,0,0,0,0,-1,1840,309,0,0
623,715,0,0,0,0,0,0,0,0,0,-1,1847,309,0,0
630,715,0,0,0,0,0,0,0,0,0,-1,1854,309,0,0
637,715,0,0,0,0,0,0,0,0,0,-1,1861,309,0,0
644,715,0,0,0,0,0,0,0,0,0,-1,1868,309,0,0
651,715,0,0,0,0,0,0,0,0,0,-1,1875,309,0,0
658,715,0,0,0,0,0,0,0,0,0,-1,1882,309,0,0
665,715,0,0,0,0,0,0,0,0,0,-1,1889,309,0,0
672,715,0,0,0,0,0,0,0,0,0,-1,1896,309,0,0
679,715,0,0,0,0,0,0,0,0,0,-1,1903,309,0,0
686,715,0,0,0,0,0,0,0,0,0,-1,1910,309,0,0
693,715,0,0,0,0,0,0,0,0,0,-1,1917,309,0,0
700,715,0,0,0,0,0,0,0,0,0,-1,1924,309,0,0
707,715,0,0,0,0,0,0,0,0,0,-1,1931,309,0,0
714,715,0,0,0,0,0,0,0,0,0,-1,1938,309,0,0
721,715,0,0,0,0,0,0,0,0,0,-1,1945,309,0,0
728,715,0,0,0,0,0,0,0,0,0,-1,1952,309,0,0
735,715,0,0,0,0,0,0,0,0,0,-1,1959,309,0,0
742,715,0,0,0,0,0,0,0,0,0,-1,1966,309,0,0
749,715,0,0,0,0,0,0,0,0,0,-1,1973,309,0,0
756,715,0,0,0,0,0,0,0,0,0,-1,1980,309,0,0
763,715,0,0,0,0,0,0,0,0,0,-1,1987,309,0,0
770,715,0,0,0,0,0,0,0,0,0,-1,1994,309,0,0
777,715,0,0,0,0,0,0,0,0,0,-1,2001,309,0,0
784,715,0,0,0,0,0,0,0,0,0,-1,2008,309,0,0
791,715,0,0,0,0,0,0,0,0,0,-1,2015,309,0,0
798,715,0,0,0,0,0,0,0,0,0,-1,2022,309,0,0
805,715,0,0,0,0,0,0,0,0,0,-1,2029,309,0,0
812,715,0,0,0,0,0,0,0,0,0,-1,2036,309,0,0
-700,708,0,0,0,0,0,0,0,0,0,-1,524,316,0,0
-693,708,0,0,0,0,0,0,0,0,0,-1,531,316,0,0
-686,708,0,0,0,0,0,0,0,0,0,-1,538,316,0,0
-679,708,0,0,0,0,0,0,0,0,0,-1,545,316,0,0
-672,708,0,0,0,0,0,0,0,0,0,-1,552,316,0,0
-665,708,0,0,0,0,0,0,0,0,0,-1,559,316,0,0
-658,708,0,0,0,0,0,0,0,0,0,-1,566,316,0,0
-651,708,0,0,0,0,0,0,0,0,0,-1,573,316,0,0
-644,708,0,0,0,0,0,0,0,0,0,-1,580,316,0,0
-637,708,0,0,0,0,0,0,0,0,0,-1,587,316,0,0
-630,708,0,0,0,0,0,0,0,0,0,-1,594,316,0,0
-623,708,0,0,0,0,0,0,0,0,0,-1,601,316,0,0
-616,708,0,0,0,0,0,0,0,0,0,-1,608,316,0,0
-609,708,0,0,0,0,0,0,0,0,0,-1,615,316,0,0
-602,708,0,0,0,0,0,0,0,0,0,-1,622,316,0,0
-595,708,0,0,0,0,0,0,0,0,0,-1,629,316,0,0
-588,708,0,0,0,0,0,0,0,0,0,-1,636,316,0,0
-581,708,0,0,0,0,0,0,0,0,0,-1,643,316,0,0
-574,708,0,0,0,0,0,0,0,0,0,-1,650,316,0,0
-567,708,0,0,0,0,0,0,0,0,0,-1,657,316,0,0
-560,708,0,0,0,0,0,0,0,0,0,-1,664,316,0,0
-553,708,0,0,0,0,0,0,0,0,0,-1,671,316,0,0
-546,708,0,0,0,0,0,0,0,0,0,-1,678,316,0,0
-539,708,0,0,0,0,0,0,0,0,0,-1,685,316,0,0
-532,708,0,0,0,0,0,0,0,0,0,-1,692,316,0,0
-525,708,0,0,0,0,0,0,0,0,0,-1,699,316,0,0
-518,708,0,0,0,0,0,0,0,0,0,-1,706,316,0,0
-511,708,0,0,0,0,0,0,0,0,0,-1,713,316,0,0
-504,708,0,0,0,0,0,0,0,0,0,-1,720,316,0,0
-497,708,0,0,0,0,0,0,0,0,0,-1,727,316,0,0
-490,708,0,0,0,0,0,0,0,0,0,-1,734,316,0,0
-483,708,0,0,0,0,0,0,0,0,0,-1,741,316,0,0
-476,708,0,0,0,0,0,0,0,0,0,-1,748,316,0,0
-469,708,0,0,0,0,0,0,0,0,0,-1,755,316,0,0
-462,708,0,0,0,0,0,0,0,0,0,-1,762,316,0,0
-455,708,0,0,0,0,0,0,0,0,0,-1,769,316,0,0
-448,708,0,0,0,0,0,0,0,0,0,-1,776,316,0,0
-441,708,0,0,0,0,0,0,0,0,0,-1,783,316,0,0
-434,708,0,0,0,0,0,0,0,0,0,-1,790,316,0,0
-427,708,0,0,0,0,0,0,0,0,0,-1,797,316,0,0
-420,708,0,0,0,0,0,0,0,0,0,-1,804,316,0,0
-413,708,0,0,0,0,0,0,0,0,0,-1,811,316,0,0
-406,708,0,0,0,0,0,0,0,0,0,-1,818,316,0,0
-399,708,0,0,0,0,0,0,0,0,0,-1,825,316,0,0
-392,708,0,0,0,0,0,0,0,0,0,-1,832,316,0,0
-385,708,0,0,0,0,0,0,0,0,0,-1,839,316,0,0
-378,708,0,0,0,0,0,0,0,0,0,-1,846,316,0,0
-371,708,0,0,0,0,0,0,0,0,0,-1,853,316,0,0
-364,708,0,0,0,0,0,0,0,0,0,-1,860,316,0,0
-357,708,0,0,0,0,0,0,0,0,0,-1,867,316,0,0
-350,708,0,0,0,0,0,0,0,0,0,-1,874,316,0,0
-343,708,0,0,0,0,0,0,0,0,0,-1,881,316,0,0
-336,708,0,0,0,0,0,0,0,0,0,-1,888,316,0,0
-329,708,0,0,0,0,0,0,0,0,0,-1,895,316,0,0
-322,708,0,0,0,0,0,0,0,0,0,-1,902,316,0,0
-315,708,0,0,0,0,0,0,0,0,0,-1,909,316,0,0
-308,708,0,0,0,0,0,0,0,0,0,-1,916,316,0,0
-301,708,0,0,0,0,0,0,0,0,0,-1,923,316,0,0
-294,708,0,0,0,0,0,0,0,0,0,-1,930,316,0,0
-287,708,0,0,0,0,0,0,0,0,0,-1,937,316,0,0
-280,708,0,0,0,0,0,0,0,0,0,-1,944,316,0,0
-273,708,0,0,0,0,0,0,0,0,0,-1,951,316,0,0
-266,708,0,0,0,0,0,0,0,0,0,-1,958,316,0,0
-259,708,0,0,0,0,0,0,0,0,0,-1,965,316,0,0
-252,708,0,0,0,0,0,0,0,0,0,-1,972,316,0,0
-245,708,0,0,0,0,0,0,0,0,0,-1,979,316,0,0
-238,708,0,0,0,0,0,0,0,0,0,-1,986,316,0,0
-231,708,0,0,0,0,0,0,0,0,0,-1,993,316,0,0
-224,708,0,0,0,0,0,0,0,0,0,-1,1000,316,0,0
-217,708,0,0,0,0,0,0,0,0,0,-1,1007,316,0,0
-210,708,0,0,0,0,0,0,0,0,0,-1,1014,316,0,0
-203,708,0,0,0,0,0,0,0,0,0,-1,1021,316,0,0
-196,708,0,0,0,0,0,0,0,0,0,-1,1028,316,0,0
-189,708,0,0,0,0,0,0,0,0,0,-1,1035,316,0,0
-182,708,0,0,0,0,0,0,0,0,0,-1,1042,316,0,0
-175,708,0,0,0,0,0,0,0,0,0,-1,1049,316,0,0
-168,708,0,0,0,0,0,0,0,0,0,-1,1056,316,0,0
-161,708,0,0,0,0,0,0,0,0,0,-1,1063,316,0,0
-154,708,0,0,0,0,0,0,0,0,0,-1,1070,316,0,0
-147,708,0,0,0,0,0,0,0,0,0,-1,1077,316,0,0
-140,708,0,0,0,0,0,0,0,0,0,-1,1084,316,0,0
-133,708,0,0,0,0,0,0,0,0,0,-1,1091,316,0,0
-126,708,0,0,0,0,0,0,0,0,0,-1,1098,316,0,0
-119,708,0,0,0,0,0,0,0,0,0,-1,1105,316,0,0
-112,708,0,0,0,0,0,0,0,0,0,-1,1112,316,0,0
-105,708,0,0,0,0,0,0,0,0,0,-1,1119,316,0,0
-98,708,0,0,0,0,0,0,0,0,0,-1,1126,316,0,0
-91,708,0,0,0,0,0,0,0,0,0,-1,1133,316,0,0
-84,708,0,0,0,0,0,0,0,0,0,-1,1140,316,0,0
-77,708,0,0,0,0,0,0,0,0,0,-1,1147,316,0,0
-70,708,0,0,0,0,0,0,0,0,0,-1,1154,316,0,0
-63,708,0,0,0,0,0,0,0,0,0,-1,1161,316,0,0
-56,708,0,0,0,0,0,0,0,0,0,-1,1168,316,0,0
-49,708,0,0,0,0,0,0,0,0,0,-1,1175,316,0,0
-42,708,0,0,0,0,0,0,0,0,0,-1,1182,316,0,0
-35,708,-0.291138,-0.358826,0,0,0,0,0,0,0,-1,1189,316,-0.29109,0.358837
-28,708,-0.441528,-3.26968,0,0,0,0,0,0,0,-1,1196,316,-0.441574,3.26968
-21,708,0.246704,2.64481,0,0,0,0,0,0,0,-1,1203,316,0.246735,-2.64481
-14,708,-0.395264,2.60867,-0.0485146,0.282936,-0.0662303,0.29568,-0.0612587,-1.3807,0.220396,0.0454177,1210,316,-0.395297,-2.60866
-7,708,-1.0647,2.62225,0,0,0,0,0,0,0,-1,1217,316,-1.0647,-2.62224
0,708,-1.66345,2.70984,0.00805376,0.380428,-0.1205,0.41602,-0.027538,-1.28359,0.286966,0.0496881,1224,316,-1.66343,-2.70983
7,708,-2.50757,3.08878,0.0464184,0.415907,-0.139446,0.462627,-0.000301227,-1.24751,0.308518,0.042717,1231,316,-2.50753,-3.08876
14,708,-3.2749,3.1698,0.0828248,0.430982,-0.145382,0.483706,0.0301014,-1.22289,0.31292,0.0391259,1238,316,-3.27494,-3.16979
21,708,-3.72412,3.17807,0.112164,0.427973,-0.143074,0.483151,0.0569858,-1.20271,0.304886,0.0455261,1245,316,-3.7241,-3.17807
28,708,-4.03699,2.93359,0.135873,0.414963,-0.134164,0.468997,0.081839,-1.18793,0.28927,0.0469044,1252,316,-4.03695,-2.93359
35,708,-4.20117,2.45154,0.152882,0.387146,-0.117882,0.436195,0.103833,-1.1765,0.263106,0.0447117,1259,316,-4.20122,-2.45152
42,708,-4.30298,1.91675,0.168335,0.357957,-0.098857,0.40012,0.126172,-1.16765,0.236202,0.0450106,1266,316,-4.30294,-1.91676
49,708,2.42041,-0.867096,0.170257,0.311156,-0.0762378,0.344511,0.136902,-1.15838,0.200295,0.0433708,1273,316,2.42038,0.867085
56,708,3.16931,0.416077,0.168281,0.282883,-0.0523419,0.30319,0.147973,-1.2007,0.175064,0.044159,1280,316,3.16937,-0.416067
63,708,4.09949,0.825958,0.158176,0.243655,-0.0278538,0.25193,0.149901,-1.28201,0.146325,0.0445849,1287,316,4.09944,-0.825964
70,708,4.87317,1.54822,0.140926,0.207363,-0.0027813,0.207479,0.14081,-1.52903,0.122311,0.0426797,1294,316,4.87311,-1.54821
77,708,5.17688,1.70825,0.123341,0.174959,0.0154948,0.179253,0.119047,1.30045,0.105334,0.0415981,1301,316,5.1769,-1.70825
84,708,5.25586,1.8259,0.105345,0.162906,0.0225894,0.170712,0.0975385,1.23807,0.0988948,0.0436077,1308,316,5.25586,-1.82591
91,708,5.40015,2.01099,0,0,0,0,0,0,0,-1,1315,316,5.40014,-2.011
98,708,5.45032,2.10202,0.0600454,0.163395,0.0232558,0.168387,0.0550535,1.35935,0.0991404,0.0444658,1322,316,5.45032,-2.10204
105,708,5.58386,2.15094,0.0465543,0.173778,0.0148168,0.175481,0.0448515,1.45637,0.105271,0.0473624,1329,316,5.58385,-2.15094
112,708,3.44141,-2.00937,0,0,0,0,0,0,0,-1,1336,316,3.4414,2.00936
119,708,3.38892,-1.61731,0,0,0,0,0,0,0,-1,1343,316,3.38888,1.61732
126,708,3.2843,-1.62076,0,0,0,0,0,0,0,-1,1350,316,3.28432,1.62077
133,708,3.35132,-1.78687,0,0,0,0,0,0,0,-1,1357,316,3.35134,1.78688
140,708,0.452148,-0.707306,0,0,0,0,0,0,0,-1,1364,316,0.452192,0.707304
147,708,0.115601,-0.612274,0,0,0,0,0,0,0,-1,1371,316,0.115571,0.612262
154,708,0,0,0,0,0,0,0,0,0,-1,1378,316,0,0
161,708,0,0,0,0,0,0,0,0,0,-1,1385,316,0,0
168,708,0,0,0,0,0,0,0,0,0,-1,1392,316,0,0
175,708,0,0,0,0,0,0,0,0,0,-1,1399,316,0,0
182,708,0,0,0,0,0,0,0,0,0,-1,1406,316,0,0
189,708,0,0,0,0,0,0,0,0,0,-1,1413,316,0,0
196,708,0,0,0,0,0,0,0,0,0,-1,1420,316,0,0
203,708,0,0,0,0,0,0,0,0,0,-1,1427,316,0,0
210,708,0,0,0,0,0,0,0,0,0,-1,1434,316,0,0
217,708,0,0,0,0,0,0,0,0,0,-1,1441,316,0,0
224,708,0,0,0,0,0,0,0,0,0,-1,1448,316,0,0
231,708,0,0,0,0,0,0,0,0,0,-1,1455,316,0,0
238,708,0,0,0,0,0,0,0,0,0,-1,1462,316,0,0
245,708,0,0,0,0,0,0,0,0,0,-1,1469,316,0,0
252,708,0,0,0,0,0,0,0,0,0,-1,1476,316,0,0
259,708,0,0,0,0,0,0,0,0,0,-1,1483,316,0,0
266,708,0,0,0,0,0,0,0,0,0,-1,1490,316,0,0
273,708,0,0,0,0,0,0,0,0,0,-1,1497,316,0,0
280,708,0,0,0,0,0,0,0,0,0,-1,1504,316,0,0
287,708,0,0,0,0,0,0,0,0,0,-1,1511,316,0,0
294,708,0,0,0,0,0,0,0,0,0,-1,1518,316,0,0
301,708,0,0,0,0,0,0,0,0,0,-1,1525,316,0,0
308,708,0,0,0,0,0,0,0,0,0,-1,1532,316,0,0
315,708,0,0,0,0,0,0,0,0,0,-1,1539,316,0,0
322,708,0,0,0,0,0,0,0,0,0,-1,1546,316,0,0
329,708,0,0,0,0,0,0,0,0,0,-1,1553,316,0,0
336,708,0,0,0,0,0,0,0,0,0,-1,1560,316,0,0
343,708,0,0,0,0,0,0,0,0,0,-1,1567,316,0,0
350,708,0,0,0,0,0,0,0,0,0,-1,1574,316,0,0
357,708,0,0,0,0,0,0,0,0,0,-1,1581,316,0,0
364,708,0,0,0,0,0,0,0,0,0,-1,1588,316,0,0
371,708,0,0,0,0,0,0,0,0,0,-1,1595,316,0,0
378,708,0,0,0,0,0,0,0,0,0,-1,1602,316,0,0
385,708,0,0,0,0,0,0,0,0,0,-1,1609,316,0,0
392,708,0,0,0,0,0,0,0,0,0,-1,1616,316,0,0
399,708,0,0,0,0,0,0,0,0,0,-1,1623,316,0,0
406,708,0,0,0,0,0,0,0,0,0,-1,1630,316,0,0
413,708,0,0,0,0,0,0,0,0,0,-1,1637,316,0,0
420,708,0,0,0,0,0,0,0,0,0,-1,1644,316,0,0
427,708,0,0,0,0,0,0,0,0,0,-1,1651,316,0,0
434,708,0,0,0,0,0,0,0,0,0,-1,1658,316,0,0
441,708,0,0,0,0,0,0,0,0,0,-1,1665,316,0,0
448,708,0,0,0,0,0,0,0,0,0,-1,1672,316,0,0
455,708,0,0,0,0,0,0,0,0,0,-1,1679,316,0,0
462,708,0,0,0,0,0,0,0,0,0,-1,1686,316,0,0
469,708,0,0,0,0,0,0,0,0,0,-1,1693,316,0,0
476,708,0,0,0,0,0,0,0,0,0,-1,1700,316,0,0
483,708,0,0,0,0,0,0,0,0,0,-1,1707,316,0,0
490,708,0,0,0,0,0,0,0,0,0,-1,1714,316,0,0
497,708,0,0,0,0,0,0,0,0,0,-1,1721,316,0,0
504,708,0,0,0,0,0,0,0,0,0,-1,1728,316,0,0
511,708,0,0,0,0,0,0,0,0,0,-1,1735,316,0,0
518,708,0,0,0,0,0,0,0,0,0,-1,1742,316,0,0
525,708,0,0,0,0,0,0,0,0,0,-1,1749,316,0,0
532,708,0,0,0,0,0,0,0,0,0,-1,1756,316,0,0
539,708,0,0,0,0,0,0,0,0,0,-1,1763,316,0,0
546,708,0,0,0,0,0,0,0,0,0,-1,1770,316,0,0
553,708,0,0,0,0,0,0,0,0,0,-1,1777,316,0,0
560,708,0,0,0,0,0,0,0,0,0,-1,1784,316,0,0
567,708,0,0,0,0,0,0,0,0,0,-1,1791,316,0,0
574,708,0,0,0,0,0,0,0,0,0,-1,1798,316,0,0
581,708,0,0,0,0,0,0,0,0,0,-1,1805,316,0,0
588,708,0,0,0,0,0,0,0,0,0,-1,1812,316,0,0
595,708,0,0,0,0,0,0,0,0,0,-1,1819,316,0,0
602,708,0,0,0,0,0,0,0,0,0,-1,1826,316,0,0
609,708,0,0,0,0,0,0,0,0,0,-1,1833,316,0,0
616,708,0,0,0,0,0,0,0,0,0,-1,1840,316,0,0
623,708,0,0,0,0,0,0,0,0,0,-1,1847,316,0,0
630,708,0,0,0,0,0,0,0,0,0,-1,1854,316,0,0
637,708,0,0,0,0,0,0,0,0,0,-1,1861,316,0,0
644,708,0,0,0,0,0,0,0,0,0,-1,1868,316,0,0
651,708,0,0,0,0,0,0,0,0,0,-1,1875,316,0,0
658,708,0,0,0,0,0,0,0,0,0,-1,1882,316,0,0
665,708,0,0,0,0,0,0,0,0,0,-1,1889,316,0,0
672,708,0,0,0,0,0,0,0,0,0,-1,1896,316,0,0
679,708,0,0,0,0,0,0,0,0,0,-1,1903,316,0,0
686,708,0,0,0,0,0,0,0,0,0,-1,1910,316,0,0
693,708,0,0,0,0,0,0,0,0,0,-1,1917,316,0,0
700,708,0,0,0,0,0,0,0,0,0,-1,1924,316,0,0
707,708,0,0,0,0,0,0,0,0,0,-1,1931,316,0,0
714,708,0,0,0,0,0,0,0,0,0,-1,1938,316,0,0
721,708,0,0,0,0,0,0,0,0,0,-1,1945,316,0,0
728,708,0,0,0,0,0,0,0,0,0,-1,1952,316,0,0
735,708,0,0,0,0,0,0,0,0,0,-1,1959,316,0,0
742,708,0,0,0,0,0,0,0,0,0,-1,1966,316,0,0
749,708,0,0,0,0,0,0,0,0,0,-1,1973,316,0,0
756,708,0,0,0,0,0,0,0,0,0,-1,1980,316,0,0
763,708,0,0,0,0,0,0,0,0,0,-1,1987,316,0,0
770,708,0,0,0,0,0,0,0,0,0,-1,1994,316,0,0
777,708,0,0,0,0,0,0,0,0,0,-1,2001,316,0,0
784,708,0,0,0,0,0,0,0,0,0,-1,2008,316,0,0
791,708,0,0,0,0,0,0,0,0,0,-1,2015,316,0,0
798,708,0,0,0,0,0,0,0,0,0,-1,2022,316,0,0
805,708,0,0,0,0,0,0,0,0,0,-1,2029,316,0,0
812,708,0,0,0,0,0,0,0,0,0,-1,2036,316,0,0
-700,701,0,0,0,0,0,0,0,0,0,-1,524,323,0,0
-693,701,0,0,0,0,0,0,0,0,0,-1,531,323,0,0
-686,701,0,0,0,0,0,0,0,0,0,-1,538,323,0,0
-679,701,0,0,0,0,0,0,0,0,0,-1,545,323,0,0
-672,701,0,0,0,0,0,0,0,0,0,-1,552,323,0,0
-665,701,0,0,0,0,0,0,0,0,0,-1,559,323,0,0
-658,701,0,0,0,0,0,0,0,0,0,-1,566,323,0,0
-651,701,0,0,0,0,0,0,0,0,0,-1,573,323,0,0
-644,701,0,0,0,0,0,0,0,0,0,-1,580,323,0,0
-637,701,0,0,0,0,0,0,0,0,0,-1,587,323,0,0
-630,701,0,0,0,0,0,0,0,0,0,-1,594,323,0,0
-623,701,0,0,0,0,0,0,0,0,0,-1,601,323,0,0
-616,701,0,0,0,0,0,0,0,0,0,-1,608,323,0,0
-609,701,0,0,0,0,0,0,0,0,0,-1,615,323,0,0
-602,701,0,0,0,0,0,0,0,0,0,-1,622,323,0,0
-595,701,0,0,0,0,0,0,0,0,0,-1,629,323,0,0
-588,701,0,0,0,0,0,0,0,0,0,-1,636,323,0,0
-581,701,0,0,0,0,0,0,0,0,0,-1,643,323,0,0
-574,701,0,0,0,0,0,0,0,0,0,-1,650,323,0,0
-567,701,0,0,0,0,0,0,0,0,0,-1,657,323,0,0
-560,701,0,0,0,0,0,0,0,0,0,-1,664,323,0,0
-553,701,0,0,0,0,0,0,0,0,0,-1,671,323,0,0
-546,701,0,0,0,0,0,0,0,0,0,-1,678,323,0,0
-539,701,0,0,0,0,0,0,0,0,0,-1,685,323,0,0
-532,701,0,0,0,0,0,0,0,0,0,-1,692,323,0,0
-525,701,0,0,0,0,0,0,0,0,0,-1,699,323,0,0
-518,701,0,0,0,0,0,0,0,0,0,-1,706,323,0,0
-511,701,0,0,0,0,0,0,0,0,0,-1,713,323,0,0
-504,701,0,0,0,0,0,0,0,0,0,-1,720,323,0,0
-497,701,0,0,0,0,0,0,0,0,0,-1,727,323,0,0
-490,701,0,0,0,0,0,0,0,0,0,-1,734,323,0,0
-483,701,0,0,0,0,0,0,0,0,0,-1,741,323,0,0
-476,701,0,0,0,0,0,0,0,0,0,-1,748,323,0,0
-469,701,0,0,0,0,0,0,0,0,0,-1,755,323,0,0
-462,701,0,0,0,0,0,0,0,0,0,-1,762,323,0,0
-455,701,0,0,0,0,0,0,0,0,0,-1,769,323,0,0
-448,701,0,0,0,0,0,0,0,0,0,-1,776,323,0,0
-441,701,0,0,0,0,0,0,0,0,0,-1,783,323,0,0
-434,701,0,0,0,0,0,0,0,0,0,-1,790,323,0,0
-427,701,0,0,0,0,0,0,0,0,0,-1,797,323,0,0
-420,701,0,0,0,0,0,0,0,0,0,-1,804,323,0,0
-413,701,0,0,0,0,0,0,0,0,0,-1,811,323,0,0
-406,701,0,0,0,0,0,0,0,0,0,-1,818,323,0,0
-399,701,0,0,0,0,0,0,0,0,0,-1,825,323,0,0
-392,701,0,0,0,0,0,0,0,0,0,-1,832,323,0,0
-385,701,0,0,0,0,0,0,0,0,0,-1,839,323,0,0
-378,701,0,0,0,0,0,0,0,0,0,-1,846,323,0,0
-371,701,0,0,0,0,0,0,0,0,0,-1,853,323,0,0
-364,701,0,0,0,0,0,0,0,0,0,-1,860,323,0,0
-357,701,0,0,0,0,0,0,0,0,0,-1,867,323,0,0
-350,701,0,0,0,0,0,0,0,0,0,-1,874,323,0,0
-343,701,0,0,0,0,0,0,0,0,0,-1,881,323,0,0
-336,701,0,0,0,0,0,0,0,0,0,-1,888,323,0,0
-329,701,0,0,0,0,0,0,0,0,0,-1,895,323,0,0
-322,701,0,0,0,0,0,0,0,0,0,-1,902,323,0,0
-315,701,0,0,0,0,0,0,0,0,0,-1,909,323,0,0
-308,701,0,0,0,0,0,0,0,0,0,-1,916,323,0,0
-301,701,0,0,0,0,0,0,0,0,0,-1,923,323,0,0
-294,701,0,0,0,0,0,0,0,0,0,-1,930,323,0,0
-287,701,0,0,0,0,0,0,0,0,0,-1,937,323,0,0
-280,701,0,0,0,0,0,0,0,0,0,-1,944,323,0,0
-273,701,0,0,0,0,0,0,0,0,0,-1,951,323,0,0
-266,701,0,0,0,0,0,0,0,0,0,-1,958,323,0,0
-259,701,0,0,0,0,0,0,0,0,0,-1,965,323,0,0
-252,701,0,0,0,0,0,0,0,0,0,-1,972,323,0,0
-245,701,0,0,0,0,0,0,0,0,0,-1,979,323,0,0
-238,701,0,0,0,0,0,0,0,0,0,-1,986,323,0,0
-231,701,0,0,0,0,0,0,0,0,0,-1,993,323,0,0
-224,701,0,0,0,0,0,0,0,0,0,-1,1000,323,0,0
-217,701,0,0,0,0,0,0,0,0,0,-1,1007,323,0,0
-210,701,0,0,0,0,0,0,0,0,0,-1,1014,323,0,0
-203,701,0,0,0,0,0,0,0,0,0,-1,1021,323,0,0
-196,701,0,0,0,0,0,0,0,0,0,-1,1028,323,0,0
-189,701,0,0,0,0,0,0,0,0,0,-1,1035,323,0,0
-182,701,0,0,0,0,0,0,0,0,0,-1,1042,323,0,0
-175,701,0,0,0,0,0,0,0,0,0,-1,1049,323,0,0
-168,701,0,0,0,0,0,0,0,0,0,-1,1056,323,0,0
-161,701,0,0,0,0,0,0,0,0,0,-1,1063,323,0,0
-154,701,0,0,0,0,0,0,0,0,0,-1,1070,323,0,0
-147,701,0,0,0,0,0,0,0,0,0,-1,1077,323,0,0
-140,701,0,0,0,0,0,0,0,0,0,-1,1084,323,0,0
-133,701,0,0,0,0,0,0,0,0,0,-1,1091,323,0,0
-126,701,0,0,0,0,0,0,0,0,0,-1,1098,323,0,0
-119,701,0,0,0,0,0,0,0,0,0,-1,1105,323,0,0
-112,701,0,0,0,0,0,0,0,0,0,-1,1112,323,0,0
-105,701,0,0,0,0,0,0,0,0,0,-1,1119,323,0,0
-98,701,0,0,0,0,0,0,0,0,0,-1,1126,323,0,0
-91,701,0,0,0,0,0,0,0,0,0,-1,1133,323,0,0
-84,701,0,0,0,0,0,0,0,0,0,-1,1140,323,0,0
-77,701,0,0,0,0,0,0,0,0,0,-1,1147,323,0,0
-70,701,0.00708008,-0.421265,0,0,0,0,0,0,0,-1,1154,323,0.00713929,0.421263
-63,701,-0.133789,-0.227417,-0.0674287,0.0233376,0.01879,0.0270736,-0.0711647,1.37453,0.0585912,0.0440059,1161,323,-0.133757,0.227423
-56,701,-0.420166,-0.101776,-0.0698358,0.0394088,0.0134088,0.0410305,-0.0714576,1.45043,0.0657322,0.0487884,1168,323,-0.420119,0.101777
-49,701,-1.09021,-0.155762,0,0,0,0,0,0,0,-1,1175,323,-1.09024,0.155768
-42,701,-0.210327,-0.299133,0,0,0,0,0,0,0,-1,1182,323,-0.210379,0.29914
-35,701,-0.305664,-0.819641,0,0,0,0,0,0,0,-1,1189,323,-0.305719,0.819639
-28,701,-0.414551,-2.61081,0,0,0,0,0,0,0,-1,1196,323,-0.414605,2.6108
-21,701,0.86731,1.41913,0,0,0,0,0,0,0,-1,1203,323,0.86726,-1.41912
-14,701,0.446411,1.31821,0,0,0,0,0,0,0,-1,1210,323,0.446441,-1.3182
-7,701,-0.527954,1.00049,0,0,0,0,0,0,0,-1,1217,323,-0.527902,-1.0005
0,701,-1.03003,1.26419,0.0185656,0.304763,-0.103486,0.338262,-0.0149329,-1.25774,0.230647,0.0477068,1224,323,-1.03001,-1.26419
7,701,-1.40527,1.76559,0.0472886,0.330368,-0.11668,0.372262,0.00539503,-1.22609,0.246396,0.0447063,1231,323,-1.40529,-1.7656
14,701,-2.08276,1.8912,0.0750728,0.341316,-0.120163,0.387528,0.0288606,-1.20366,0.249289,0.0438859,1238,323,-2.08282,-1.89122
21,701,1.72876,-2.35641,0.0969667,0.339268,-0.117176,0.386664,0.0495715,-1.18644,0.242944,0.0443237,1245,323,1.72882,2.35642
28,701,-3.62512,1.01166,0.114336,0.329573,-0.108234,0.374586,0.0693232,-1.17667,0.230123,0.046769,1252,323,-3.62508,-1.01165
35,701,-3.64771,0.383453,0.12759,0.30948,-0.0930446,0.348643,0.0884265,-1.17239,0.209276,0.0438136,1259,323,-3.64774,-0.383458
42,701,1.46375,-2.33194,0.139651,0.287865,-0.0765868,0.320329,0.107187,-1.16987,0.188284,0.0473337,1266,323,1.46371,2.33193
49,701,2.04785,-1.30893,0.141381,0.253128,-0.0578319,0.277669,0.116841,-1.16949,0.160981,0.0472542,1273,323,2.0478,1.30893
56,701,2.89478,-0.352173,0.140295,0.23206,-0.0376066,0.245503,0.126853,-1.2275,0.141767,0.0421887,1280,323,2.89484,0.352179
63,701,3.72437,0.416504,0.132395,0.202308,-0.0170548,0.206246,0.128457,-1.34384,0.120268,0.0403333,1287,323,3.72436,-0.416515
70,701,4.52893,1.2272,0.118598,0.174683,0.00363511,0.174918,0.118363,1.50634,0.103069,0.0420149,1294,323,4.52889,-1.2272
77,701,5.41907,1.68661,0.105097,0.150413,0.0181096,0.156761,0.0987492,1.23365,0.0915188,0.0457501,1301,323,5.41912,-1.68661
84,701,5.66589,2.5592,0.0925555,0.139261,0.023902,0.149325,0.0824919,1.17229,0.0863705,0.0459465,1308,323,5.66594,-2.55922
91,701,5.17419,1.96005,0,0,0,0,0,0,0,-1,1315,323,5.17425,-1.96006
98,701,5.59973,2.97726,0.0575559,0.132897,0.025911,0.140948,0.0495051,1.26954,0.0825684,0.0447147,1322,323,5.59974,-2.97726
105,701,3.10901,-2.06406,0.0465937,0.138251,0.0188453,0.141975,0.0428702,1.37573,0.0840852,0.0494064,1329,323,3.10904,2.06407
112,701,3.1825,-1.94934,0.0446233,0.139499,0.0134131,0.141359,0.0427635,1.43302,0.0837084,0.0459775,1336,323,3.18254,1.94935
119,701,3.26074,-1.84207,0,0,0,0,0,0,0,-1,1343,323,3.26078,1.84209
126,701,3.2522,-1.58044,0,0,0,0,0,0,0,-1,1350,323,3.25218,1.58043
133,701,3.29565,-1.67615,0,0,0,0,0,0,0,-1,1357,323,3.29561,1.67615
140,701,3.61597,-1.77173,0,0,0,0,0,0,0,-1,1364,323,3.61592,1.77174
147,701,1.50891,-3.55029,0,0,0,0,0,0,0,-1,1371,323,1.50889,3.5503
154,701,2.24451,-3.21988,0,0,0,0,0,0,0,-1,1378,323,2.24449,3.21988
161,701,2.89819,-2.87854,0,0,0,0,0,0,0,-1,1385,323,2.89819,2.87854
168,701,3.59558,-2.53894,0,0,0,0,0,0,0,-1,1392,323,3.59553,2.53893
175,701,2.61096,-0.339355,0,0,0,0,0,0,0,-1,1399,323,2.6109,0.339347
182,701,-0.0332031,-0.36026,0,0,0,0,0,0,0,-1,1406,323,-0.0332159,0.360252
189,701,-0.171143,0.252136,0,0,0,0,0,0,0,-1,1413,323,-0.171167,-0.252148
196,701,0,0,0,0,0,0,0,0,0,-1,1420,323,0,0
203,701,0,0,0,0,0,0,0,0,0,-1,1427,323,0,0
210,701,0,0,0,0,0,0,0,0,0,-1,1434,323,0,0
217,701,0,0,0,0,0,0,0,0,0,-1,1441,323,0,0
224,701,0,0,0,0,0,0,0,0,0,-1,1448,323,0,0
231,701,0,0,0,0,0,0,0,0,0,-1,1455,323,0,0
238,701,0,0,0,0,0,0,0,0,0,-1,1462,323,0,0
245,701,0,0,0,0,0,0,0,0,0,-1,1469,323,0,0
252,701,0,0,0,0,0,0,0,0,0,-1,1476,323,0,0
259,701,0,0,0,0,0,0,0,0,0,-1,1483,323,0,0
266,701,0,0,0,0,0,0,0,0,0,-1,1490,323,0,0
273,701,0,0,0,0,0,0,0,0,0,-1,1497,323,0,0
280,701,0,0,0,0,0,0,0,0,0,-1,1504,323,0,0
287,701,0,0,0,0,0,0,0,0,0,-1,1511,323,0,0
294,701,0,0,0,0,0,0,0,0,0,-1,1518,323,0,0
301,701,0,0,0,0,0,0,0,0,0,-1,1525,323,0,0
308,701,0,0,0,0,0,0,0,0,0,-1,1532,323,0,0
315,701,0,0,0,0,0,0,0,0,0,-1,1539,323,0,0
322,701,0,0,0,0,0,0,0,0,0,-1,1546,323,0,0
329,701,0,0,0,0,0,0,0,0,0,-1,1553,323,0,0
336,701,0,0,0,0,0,0,0,0,0,-1,1560,323,0,0
343,701,0,0,0,0,0,0,0,0,0,-1,1567,323,0,0
350,701,0,0,0,0,0,0,0,0,0,-1,1574,323,0,0
357,701,0,0,0,0,0,0,0,0,0,-1,1581,323,0,0
364,701,0,0,0,0,0,0,0,0,0,-1,1588,323,0,0
371,701,0,0,0,0,0,0,0,0,0,-1,1595,323,0,0
378,701,0,0,0,0,0,0,0,0,0,-1,1602,323,0,0
385,701,0,0,0,0,0,0,0,0,0,-1,1609,323,0,0
392,701,0,0,0,0,0,0,0,0,0,-1,1616,323,0,0
399,701,0,0,0,0,0,0,0,0,0,-1,1623,323,0,0
406,701,0,0,0,0,0,0,0,0,0,-1,1630,323,0,0
413,701,0,0,0,0,0,0,0,0,0,-1,1637,323,0,0
420,701,0,0,0,0,0,0,0,0,0,-1,1644,323,0,0
427,701,0,0,0,0,0,0,0,0,0,-1,1651,323,0,0
434,701,0,0,0,0,0,0,0,0,0,-1,1658,323,0,0
441,701,0,0,0,0,0,0,0,0,0,-1,1665,323,0,0
448,701,0,0,0,0,0,0,0,0,0,-1,1672,323,0,0
455,701,0,0,0,0,0,0,0,0,0,-1,1679,323,0,0
462,701,0,0,0,0,0,0,0,0,0,-1,1686,323,0,0
469,701,0,0,0,0,0,0,0,0,0,-1,1693,323,0,0
476,701,0,0,0,0,0,0,0,0,0,-1,1700,323,0,0
483,701,0,0,0,0,0,0,0,0,0,-1,1707,323,0,0
490,701,0,0,0,0,0,0,0,0,0,-1,1714,323,0,0
497,701,0,0,0,0,0,0,0,0,0,-1,1721,323,0,0
504,701,0,0,0,0,0,0,0,0,0,-1,1728,323,0,0
511,701,0,0,0,0,0,0,0,0,0,-1,1735,323,0,0
518,701,0,0,0,0,0,0,0,0,0,-1,1742,323,0,0
525,701,0,0,0,0,0,0,0,0,0,-1,1749,323,0,0
532,701,0,0,0,0,0,0,0,0,0,-1,1756,323,0,0
539,701,0,0,0,0,0,0,0,0,0,-1,1763,323,0,0
546,701,0,0,0,0,0,0,0,0,0,-1,1770,323,0,0
553,701,0,0,0,0,0,0,0,0,0,-1,1777,323,0,0
560,701,0,0,0,0,0,0,0,0,0,-1,1784,323,0,0
567,701,0,0,0,0,0,0,0,0,0,-1,1791,323,0,0
574,701,0,0,0,0,0,0,0,0,0,-1,1798,323,0,0
581,701,0,0,0,0,0,0,0,0,0,-1,1805,323,0,0
588,701,0,0,0,0,0,0,0,0,0,-1,1812,323,0,0
595,701,0,0,0,0,0,0,0,0,0,-1,1819,323,0,0
602,701,0,0,0,0,0,0,0,0,0,-1,1826,323,0,0
609,701,0,0,0,0,0,0,0,0,0,-1,1833,323,0,0
616,701,0,0,0,0,0,0,0,0,0,-1,1840,323,0,0
623,701,0,0,0,0,0,0,0,0,0,-1,1847,323,0,0
630,701,0,0,0,0,0,0,0,0,0,-1,1854,323,0,0
637,701,0,0,0,0,0,0,0,0,0,-1,1861,323,0,0
644,701,0,0,0,0,0,0,0,0,0,-1,1868,323,0,0
651,701,0,0,0,0,0,0,0,0,0,-1,1875,323,0,0
658,701,0,0,0,0,0,0,0,0,0,-1,1882,323,0,0
665,701,0,0,0,0,0,0,0,0,0,-1,1889,323,0,0
672,701,0,0,0,0,0,0,0,0,0,-1,1896,323,0,0
679,701,0,0,0,0,0,0,0,0,0,-1,1903,323,0,0
686,701,0,0,0,0,0,0,0,0,0,-1,1910,323,0,0
693,701,0,0,0,0,0,0,0,0,0,-1,1917,323,0,0
700,701,0,0,0,0,0,0,0,0,0,-1,1924,323,0,0
707,701,0,0,0,0,0,0,0,0,0,-1,1931,323,0,0
714,701,0,0,0,0,0,0,0,0,0,-1,1938,323,0,0
721,701,0,0,0,0,0,0,0,0,0,-1,1945,323,0,0
728,701,0,0,0,0,0,0,0,0,0,-1,1952,323,0,0
735,701,0,0,0,0,0,0,0,0,0,-1,1959,323,0,0
742,701,0,0,0,0,0,0,0,0,0,-1,1966,323,0,0
749,701,0,0,0,0,0,0,0,0,0,-1,1973,323,0,0
756,701,0,0,0,0,0,0,0,0,0,-1,1980,323,0,0
763,701,0,0,0,0,0,0,0,0,0,-1,1987,323,0,0
770,701,0,0,0,0,0,0,0,0,0,-1,1994,323,0,0
777,701,0,0,0,0,0,0,0,0,0,-1,2001,323,0,0
784,701,0,0,0,0,0,0,0,0,0,-1,2008,323,0,0
791,701,0,0,0,0,0,0,0,0,0,-1,2015,323,0,0
798,701,0,0,0,0,0,0,0,0,0,-1,2022,323,0,0
805,701,0,0,0,0,0,0,0,0,0,-1,2029,323,0,0
812,701,0,0,0,0,0,0,0,0,0,-1,2036,323,0,0
-700,694,0,0,0,0,0,0,0,0,0,-1,524,330,0,0
-693,694,0,0,0,0,0,0,0,0,0,-1,531,330,0,0
-686,694,0,0,0,0,0,0,0,0,0,-1,538,330,0,0
-679,694,0,0,0,0,0,0,0,0,0,-1,545,330,0,0
-672,694,0,0,0,0,0,0,0,0,0,-1,552,330,0,0
-665,694,0,0,0,0,0,0,0,0,0,-1,559,330,0,0
-658,694,0,0,0,0,0,0,0,0,0,-1,566,330,0,0
-651,694,0,0,0,0,0,0,0,0,0,-1,573,330,0,0
-644,694,0,0,0,0,0,0,0,0,0,-1,580,330,0,0
-637,694,0,0,0,0,0,0,0,0,0,-1,587,330,0,0
-630,694,0,0,0,0,0,0,0,0,0,-1,594,330,0,0
-623,694,0,0,0,0,0,0,0,0,0,-1,601,330,0,0
-616,694,0,0,0,0,0,0,0,0,0,-1,608,330,0,0
-609,694,0,0,0,0,0,0,0,0,0,-1,615,330,0,0
-602,694,0,0,0,0,0,0,0,0,0,-1,622,330,0,0
-595,694,0,0,0,0,0,0,0,0,0,-1,629,330,0,0
-588,694,0,0,0,0,0,0,0,0,0,-1,636,330,0,0
-581,694,0,0,0,0,0,0,0,0,0,-1,643,330,0,0
-574,694,0,0,0,0,0,0,0,0,0,-1,650,330,0,0
-567,694,0,0,0,0,0,0,0,0,0,-1,657,330,0,0
-560,694,0,0,0,0,0,0,0,0,0,-1,664,330,0,0
-553,694,0,0,0,0,0,0,0,0,0,-1,671,330,0,0
-546,694,0,0,0,0,0,0,0,0,0,-1,678,330,0,0
-539,694,0,0,0,0,0,0,0,0,0,-1,685,330,0,0
-532,694,0,0,0,0,0,0,0,0,0,-1,692,330,0,0
-525,694,0,0,0,0,0,0,0,0,0,-1,699,330,0,0
-518,694,0,0,0,0,0,0,0,0,0,-1,706,330,0,0
-511,694,0,0,0,0,0,0,0,0,0,-1,713,330,0,0
-504,694,0,0,0,0,0,0,0,0,0,-1,720,330,0,0
-497,694,0,0,0,0,0,0,0,0,0,-1,727,330,0,0
-490,694,0,0,0,0,0,0,0,0,0,-1,734,330,0,0
-483,694,0,0,0,0,0,0,0,0,0,-1,741,330,0,0
-476,694,0,0,0,0,0,0,0,0,0,-1,748,330,0,0
-469,694,0,0,0,0,0,0,0,0,0,-1,755,330,0,0
-462,694,0,0,0,0,0,0,0,0,0,-1,762,330,0,0
-455,694,0,0,0,0,0,0,0,0,0,-1,769,330,0,0
-448,694,0,0,0,0,0,0,0,0,0,-1,776,330,0,0
-441,694,0,0,0,0,0,0,0,0,0,-1,783,330,0,0
-434,694,0,0,0,0,0,0,0,0,0,-1,790,330,0,0
-427,694,0,0,0,0,0,0,0,0,0,-1,797,330,0,0
-420,694,0,0,0,0,0,0,0,0,0,-1,804,330,0,0
-413,694,0,0,0,0,0,0,0,0,0,-1,811,330,0,0
-406,694,0,0,0,0,0,0,0,0,0,-1,818,330,0,0
-399,694,0,0,0,0,0,0,0,0,0,-1,825,330,0,0
-392,694,0,0,0,0,0,0,0,0,0,-1,832,330,0,0
-385,694,0,0,0,0,0,0,0,0,0,-1,839,330,0,0
-378,694,0,0,0,0,0,0,0,0,0,-1,846,330,0,0
-371,694,0,0,0,0,0,0,0,0,0,-1,853,330,0,0
-364,694,0,0,0,0,0,0,0,0,0,-1,860,330,0,0
-357,694,0,0,0,0,0,0,0,0,0,-1,867,330,0,0
-350,694,0,0,0,0,0,0,0,0,0,-1,874,330,0,0
-343,694,0,0,0,0,0,0,0,0,0,-1,881,330,0,0
-336,694,0,0,0,0,0,0,0,0,0,-1,888,330,0,0
-329,694,0,0,0,0,0,0,0,0,0,-1,895,330,0,0
-322,694,0,0,0,0,0,0,0,0,0,-1,902,330,0,0
-315,694,0,0,0,0,0,0,0,0,0,-1,909,330,0,0
-308,694,0,0,0,0,0,0,0,0,0,-1,916,330,0,0
-301,694,0,0,0,0,0,0,0,0,0,-1,923,330,0,0
-294,694,0,0,0,0,0,0,0,0,0,-1,930,330,0,0
-287,694,0,0,0,0,0,0,0,0,0,-1,937,330,0,0
-280,694,0,0,0,0,0,0,0,0,0,-1,944,330,0,0
-273,694,0,0,0,0,0,0,0,0,0,-1,951,330,0,0
-266,694,0,0,0,0,0,0,0,0,0,-1,958,330,0,0
-259,694,0,0,0,0,0,0,0,0,0,-1,965,330,0,0
-252,694,0,0,0,0,0,0,0,0,0,-1,972,330,0,0
-245,694,0,0,0,0,0,0,0,0,0,-1,979,330,0,0
-238,694,0,0,0,0,0,0,0,0,0,-1,986,330,0,0
-231,694,0,0,0,0,0,0,0,0,0,-1,993,330,0,0
-224,694,0,0,0,0,0,0,0,0,0,-1,1000,330,0,0
-217,694,0,0,0,0,0,0,0,0,0,-1,1007,330,0,0
-210,694,0,0,0,0,0,0,0,0,0,-1,1014,330,0,0
-203,694,0,0,0,0,0,0,0,0,0,-1,1021,330,0,0
-196,694,0,0,0,0,0,0,0,0,0,-1,1028,330,0,0
-189,694,0,0,0,0,0,0,0,0,0,-1,1035,330,0,0
-182,694,0,0,0,0,0,0,0,0,0,-1,1042,330,0,0
-175,694,0,0,0,0,0,0,0,0,0,-1,1049,330,0,0
-168,694,0,0,0,0,0,0,0,0,0,-1,1056,330,0,0
-161,694,0,0,0,0,0,0,0,0,0,-1,1063,330,0,0
-154,694,0,0,0,0,0,0,0,0,0,-1,1070,330,0,0
-147,694,0,0,0,0,0,0,0,0,0,-1,1077,330,0,0
-140,694,0,0,0,0,0,0,0,0,0,-1,1084,330,0,0
-133,694,0,0,0,0,0,0,0,0,0,-1,1091,330,0,0
-126,694,0,0,0,0,0,0,0,0,0,-1,1098,330,0,0
-119,694,0,0,0,0,0,0,0,0,0,-1,1105,330,0,0
-112,694,0,0,0,0,0,0,0,0,0,-1,1112,330,0,0
-105,694,-3.98071,-3.15732,-0.0996799,-0.0329051,-0.00232361,-0.0328244,-0.0997606,-1.53605,0.0587085,0.0433663,1119,330,-3.98075,3.15732
-98,694,-4.5448,-2.18405,-0.0914742,-0.0289131,-0.00203202,-0.0288472,-0.0915402,-1.53836,0.0540415,0.0463001,1126,330,-4.54484,2.18406
-91,694,-4.67383,-1.57608,-0.0839884,-0.0240722,-0.00103957,-0.0240541,-0.0840064,-1.55345,0.0499554,0.0483094,1133,330,-4.67385,1.57608
-84,694,-4.9989,-1.14786,0,0,0,0,0,0,0,-1,1140,330,-4.99887,1.14785
-77,694,1.64099,1.05493,0,0,0,0,0,0,0,-1,1147,330,1.64105,-1.05492
-70,694,1.98755,1.69476,0,0,0,0,0,0,0,-1,1154,330,1.9875,-1.69476
-63,694,-0.300781,-0.562592,-0.0627521,0.0161481,0.00808121,0.0169673,-0.0635713,1.46977,0.0490253,0.0447698,1161,330,-0.300793,0.562598
-56,694,-0.661011,-0.22757,-0.0624609,0.0299273,0.00508997,0.0302069,-0.0627405,1.51592,0.054748,0.0485113,1168,330,-0.660971,0.227584
-49,694,-1.11426,0.0341797,0,0,0,0,0,0,0,-1,1175,330,-1.11424,-0.0341846
-42,694,-0.346313,-0.709595,0,0,0,0,0,0,0,-1,1182,330,-0.346298,0.709581
-35,694,-0.459106,-1.24713,0,0,0,0,0,0,0,-1,1189,330,-0.459142,1.24714
-28,694,-0.245728,-0.403748,0,0,0,0,0,0,0,-1,1196,330,-0.245678,0.403752
-21,694,1.8468,0.644104,0,0,0,0,0,0,0,-1,1203,330,1.84675,-0.644094
-14,694,1.11536,0.522278,-0.0167513,0.180948,-0.0531374,0.194325,-0.0301284,-1.32418,0.140672,0.0467258,1210,330,1.11538,-0.522275
-7,694,0.0350342,0.471497,0.00340348,0.214953,-0.0728037,0.237586,-0.01923,-1.26938,0.165174,0.0458847,1217,330,0.0350494,-0.471493
0,694,-1.06165,0.37085,0.0235151,0.239803,-0.0865764,0.270189,-0.00687112,-1.23325,0.182459,0.0474003,1224,330,-1.0617,-0.370848
7,694,-1.93774,0.609253,0.0447158,0.2579,-0.095519,0.294437,0.00817947,-1.20546,0.193622,0.0473738,1231,330,-1.93778,-0.609253
14,694,1.82153,-1.63388,0.0651669,0.265232,-0.0971223,0.304624,0.0257747,-1.18548,0.19506,0.0446309,1238,330,1.82158,1.63389
21,694,1.422,-2.04648,0.0809753,0.263573,-0.0938529,0.303209,0.0413396,-1.1712,0.189865,0.0448514,1245,330,1.422,2.04649
28,694,0.765747,-2.62845,0.093372,0.256392,-0.0855282,0.29303,0.0567339,-1.16607,0.179457,0.0443971,1252,330,0.765732,2.62846
35,694,-0.228394,-3.60721,0.103479,0.242192,-0.0720691,0.272857,0.0728142,-1.16851,0.163143,0.0428321,1259,330,-0.228443,3.60721
42,694,1.33887,-2.38889,0,0,0,0,0,0,0,-1,1266,330,1.3389,2.38888
49,694,1.94238,-1.59912,0.114211,0.201133,-0.0430639,0.218855,0.0964887,-1.18039,0.12665,0.0484631,1273,330,1.94242,1.59911
56,694,2.5365,-0.748962,0.113787,0.18578,-0.0264435,0.194449,0.105118,-1.25401,0.112389,0.0434454,1280,330,2.53652,0.748964
63,694,3.30518,0.0758362,0.107793,0.163714,-0.00961919,0.165323,0.106185,-1.40512,0.0967288,0.0420777,1287,330,3.30519,-0.0758398
70,694,4.08191,0.852783,0.0969851,0.14315,0.00704245,0.144201,0.0959347,1.42273,0.084757,0.0427958,1294,330,4.08196,-0.852786
77,694,4.99097,1.45813,0.0867354,0.125214,0.0183473,0.13256,0.0793895,1.18996,0.077031,0.0455942,1301,330,4.99094,-1.45814
84,694,5.55627,2.26816,0.0781895,0.115284,0.0230491,0.126322,0.067152,1.12419,0.0729804,0.0433275,1308,330,5.55628,-2.26817
91,694,6.17786,3.15247,0,0,0,0,0,0,0,-1,1315,330,6.17785,-3.15248
98,694,6.9071,3.91718,0,0,0,0,0,0,0,-1,1322,330,6.90716,-3.91718
105,694,2.80249,-1.97147,0,0,0,0,0,0,0,-1,1329,330,2.80254,1.97147
112,694,2.8728,-1.87576,0.0406786,0.106128,0.0147311,0.109291,0.0375159,1.35931,0.0641241,0.0463838,1336,330,2.87286,1.87576
119,694,2.97302,-1.81619,0,0,0,0,0,0,0,-1,1343,330,2.97301,1.81619
126,694,3.03882,-1.70483,0,0,0,0,0,0,0,-1,1350,330,3.03879,1.70485
133,694,3.32593,-1.86682,0,0,0,0,0,0,0,-1,1357,330,3.32594,1.86684
140,694,3.37122,-1.83994,0,0,0,0,0,0,0,-1,1364,330,3.37124,1.83994
147,694,3.34558,-1.77341,0,0,0,0,0,0,0,-1,1371,330,3.34554,1.77341
154,694,1.99988,-1.63943,0,0,0,0,0,0,0,-1,1378,330,1.99987,1.63943
161,694,2.81152,-2.19766,0,0,0,0,0,0,0,-1,1385,330,2.81149,2.19765
168,694,3.53662,-1.85593,0,0,0,0,0,0,0,-1,1392,330,3.53657,1.85591
175,694,3.03918,-0.744141,0,0,0,0,0,0,0,-1,1399,330,3.0392,0.744156
182,694,2.66626,-0.0768738,0,0,0,0,0,0,0,-1,1406,330,2.66628,0.0768603
189,694,3.25928,-2.30804,0,0,0,0,0,0,0,-1,1413,330,3.25932,2.30806
196,694,3.87231,-3.34259,0,0,0,0,0,0,0,-1,1420,330,3.87237,3.34259
203,694,2.88171,-1.47827,0,0,0,0,0,0,0,-1,1427,330,2.88169,1.47829
210,694,2.72607,-1.47754,0,0,0,0,0,0,0,-1,1434,330,2.72609,1.47753
217,694,0.681274,0.427826,0,0,0,0,0,0,0,-1,1441,330,0.68122,-0.427822
224,694,-0.178589,-0.767151,0,0,0,0,0,0,0,-1,1448,330,-0.178606,0.767162
231,694,0,0,0,0,0,0,0,0,0,-1,1455,330,0,0
238,694,0,0,0,0,0,0,0,0,0,-1,1462,330,0,0
245,694,0,0,0,0,0,0,0,0,0,-1,1469,330,0,0
252,694,0,0,0,0,0,0,0,0,0,-1,1476,330,0,0
259,694,0,0,0,0,0,0,0,0,0,-1,1483,330,0,0
266,694,0,0,0,0,0,0,0,0,0,-1,1490,330,0,0
273,694,0,0,0,0,0,0,0,0,0,-1,1497,330,0,0
280,694,0,0,0,0,0,0,0,0,0,-1,1504,330,0,0
287,694,0,0,0,0,0,0,0,0,0,-1,1511,330,0,0
294,694,0,0,0,0,0,0,0,0,0,-1,1518,330,0,0
301,694,0,0,0,0,0,0,0,0,0,-1,1525,330,0,0
308,694,0,0,0,0,0,0,0,0,0,-1,1532,330,0,0
315,694,0,0,0,0,0,0,0,0,0,-1,1539,330,0,0
322,694,0,0,0,0,0,0,0,0,0,-1,1546,330,0,0
329,694,0,0,0,0,0,0,0,0,0,-1,1553,330,0,0
336,694,0,0,0,0,0,0,0,0,0,-1,1560,330,0,0
343,694,0,0,0,0,0,0,0,0,0,-1,1567,330,0,0
350,694,0,0,0,0,0,0,0,0,0,-1,1574,330,0,0
357,694,0,0,0,0,0,0,0,0,0,-1,1581,330,0,0
364,694,0,0,0,0,0,0,0,0,0,-1,1588,330,0,0
371,694,0,0,0,0,0,0,0,0,0,-1,1595,330,0,0
378,694,0,0,0,0,0,0,0,0,0,-1,1602,330,0,0
385,694,0,0,0,0,0,0,0,0,0,-1,1609,330,0,0
392,694,0,0,0,0,0,0,0,0,0,-1,1616,330,0,0
399,694,0,0,0,0,0,0,0,0,0,-1,1623,330,0,0
406,694,0,0,0,0,0,0,0,0,0,-1,1630,330,0,0
413,694,0,0,0,0,0,0,0,0,0,-1,1637,330,0,0
420,694,0,0,0,0,0,0,0,0,0,-1,1644,330,0,0
427,694,0,0,0,0,0,0,0,0,0,-1,1651,330,0,0
434,694,0,0,0,0,0,0,0,0,0,-1,1658,330,0,0
441,694,0,0,0,0,0,0,0,0,0,-1,1665,330,0,0
448,694,0,0,0,0,0,0,0,0,0,-1,1672,330,0,0
455,694,0,0,0,0,0,0,0,0,0,-1,1679,330,0,0
462,694,0,0,0,0,0,0,0,0,0,-1,1686,330,0,0
469,694,0,0,0,0,0,0,0,0,0,-1,1693,330,0,0
476,694,0,0,0,0,0,0,0,0,0,-1,1700,330,0,0
483,694,0,0,0,0,0,0,0,0,0,-1,1707,330,0,0
490,694,0,0,0,0,0,0,0,0,0,-1,1714,330,0,0
497,694,0,0,0,0,0,0,0,0,0,-1,1721,330,0,0
504,694,0,0,0,0,0,0,0,0,0,-1,1728,330,0,0
511,694,0,0,0,0,0,0,0,0,0,-1,1735,330,0,0
518,694,0,0,0,0,0,0,0,0,0,-1,1742,330,0,0
525,694,0,0,0,0,0,0,0,0,0,-1,1749,330,0,0
532,694,0,0,0,0,0,0,0,0,0,-1,1756,330,0,0
539,694,0,0,0,0,0,0,0,0,0,-1,1763,330,0,0
546,694,0,0,0,0,0,0,0,0,0,-1,1770,330,0,0
553,694,0,0,0,0,0,0,0,0,0,-1,1777,330,0,0
560,694,0,0,0,0,0,0,0,0,0,-1,1784,330,0,0
567,694,0,0,0,0,0,0,0,0,0,-1,1791,330,0,0
574,694,0,0,0,0,0,0,0,0,0,-1,1798,330,0,0
581,694,0,0,0,0,0,0,0,0,0,-1,1805,330,0,0
588,694,0,0,0,0,0,0,0,0,0,-1,1812,330,0,0
595,694,0,0,0,0,0,0,0,0,0,-1,1819,330,0,0
602,694,0,0,0,0,0,0,0,0,0,-1,1826,330,0,0
609,694,0,0,0,0,0,0,0,0,0,-1,1833,330,0,0
616,694,0,0,0,0,0,0,0,0,0,-1,1840,330,0,0
623,694,0,0,0,0,0,0,0,0,0,-1,1847,330,0,0
630,694,0,0,0,0,0,0,0,0,0,-1,1854,330,0,0
637,694,0,0,0,0,0,0,0,0,0,-1,1861,330,0,0
644,694,0,0,0,0,0,0,0,0,0,-1,1868,330,0,0
651,694,0,0,0,0,0,0,0,0,0,-1,1875,330,0,0
658,694,0,0,0,0,0,0,0,0,0,-1,1882,330,0,0
665,694,0,0,0,0,0,0,0,0,0,-1,1889,330,0,0
672,694,0,0,0,0,0,0,0,0,0,-1,1896,330,0,0
679,694,0,0,0,0,0,0,0,0,0,-1,1903,330,0,0
686,694,0,0,0,0,0,0,0,0,0,-1,1910,330,0,0
693,694,0,0,0,0,0,0,0,0,0,-1,1917,330,0,0
700,694,0,0,0,0,0,0,0,0,0,-1,1924,330,0,0
707,694,0,0,0,0,0,0,0,0,0,-1,1931,330,0,0
714,694,0,0,0,0,0,0,0,0,0,-1,1938,330,0,0
721,694,0,0,0,0,0,0,0,0,0,-1,1945,330,0,0
728,694,0,0,0,0,0,0,0,0,0,-1,1952,330,0,0
735,694,0,0,0,0,0,0,0,0,0,-1,1959,330,0,0
742,694,0,0,0,0,0,0,0,0,0,-1,1966,330,0,0
749,694,0,0,0,0,0,0,0,0,0,-1,1973,330,0,0
756,694,0,0,0,0,0,0,0,0,0,-1,1980,330,0,0
763,694,0,0,0,0,0,0,0,0,0,-1,1987,330,0,0
770,694,0,0,0,0,0,0,0,0,0,-1,1994,330,0,0
777,694,0,0,0,0,0,0,0,0,0,-1,2001,330,0,0
784,694,0,0,0,0,0,0,0,0,0,-1,2008,330,0,0
791,694,0,0,0,0,0,0,0,0,0,-1,2015,330,0,0
798,694,0,0,0,0,0,0,0,0,0,-1,2022,330,0,0
805,694,0,0,0,0,0,0,0,0,0,-1,2029,330,0,0
812,694,0,0,0,0,0,0,0,0,0,-1,2036,330,0,0
-700,687,0,0,0,0,0,0,0,0,0,-1,524,337,0,0
-693,687,0,0,0,0,0,0,0,0,0,-1,531,337,0,0
-686,687,0,0,0,0,0,0,0,0,0,-1,538,337,0,0
-679,687,0,0,0,0,0,0,0,0,0,-1,545,337,0,0
-672,687,0,0,0,0,0,0,0,0,0,-1,552,337,0,0
-665,687,0,0,0,0,0,0,0,0,0,-1,559,337,0,0
-658,687,0,0,0,0,0,0,0,0,0,-1,566,337,0,0
-651,687,0,0,0,0,0,0,0,0,0,-1,573,337,0,0
-644,687,0,0,0,0,0,0,0,0,0,-1,580,337,0,0
-637,687,0,0,0,0,0,0,0,0,0,-1,587,337,0,0
-630,687,0,0,0,0,0,0,0,0,0,-1,594,337,0,0
-623,687,0,0,0,0,0,0,0,0,0,-1,601,337,0,0
-616,687,0,0,0,0,0,0,0,0,0,-1,608,337,0,0
-609,687,0,0,0,0,0,0,0,0,0,-1,615,337,0,0
-602,687,0,0,0,0,0,0,0,0,0,-1,622,337,0,0
-595,687,0,0,0,0,0,0,0,0,0,-1,629,337,0,0
-588,687,0,0,0,0,0,0,0,0,0,-1,636,337,0,0
-581,687,0,0,0,0,0,0,0,0,0,-1,643,337,0,0
-574,687,0,0,0,0,0,0,0,0,0,-1,650,337,0,0
-567,687,0,0,0,0,0,0,0,0,0,-1,657,337,0,0
-560,687,0,0,0,0,0,0,0,0,0,-1,664,337,0,0
-553,687,0,0,0,0,0,0,0,0,0,-1,671,337,0,0
-546,687,0,0,0,0,0,0,0,0,0,-1,678,337,0,0
-539,687,0,0,0,0,0,0,0,0,0,-1,685,337,0,0
-532,687,0,0,0,0,0,0,0,0,0,-1,692,337,0,0
-525,687,0,0,0,0,0,0,0,0,0,-1,699,337,0,0
-518,687,0,0,0,0,0,0,0,0,0,-1,706,337,0,0
-511,687,0,0,0,0,0,0,0,0,0,-1,713,337,0,0
-504,687,0,0,0,0,0,0,0,0,0,-1,720,337,0,0
-497,687,0,0,0,0,0,0,0,0,0,-1,727,337,0,0
-490,687,0,0,0,0,0,0,0,0,0,-1,734,337,0,0
-483,687,0,0,0,0,0,0,0,0,0,-1,741,337,0,0
-476,687,0,0,0,0,0,0,0,0,0,-1,748,337,0,0
-469,687,0,0,0,0,0,0,0,0,0,-1,755,337,0,0
-462,687,0,0,0,0,0,0,0,0,0,-1,762,337,0,0
-455,687,0,0,0,0,0,0,0,0,0,-1,769,337,0,0
-448,687,0,0,0,0,0,0,0,0,0,-1,776,337,0,0
-441,687,0,0,0,0,0,0,0,0,0,-1,783,337,0,0
-434,687,0,0,0,0,0,0,0,0,0,-1,790,337,0,0
-427,687,0,0,0,0,0,0,0,0,0,-1,797,337,0,0
-420,687,0,0,0,0,0,0,0,0,0,-1,804,337,0,0
-413,687,0,0,0,0,0,0,0,0,0,-1,811,337,0,0
-406,687,0,0,0,0,0,0,0,0,0,-1,818,337,0,0
-399,687,0,0,0,0,0,0,0,0,0,-1,825,337,0,0
-392,687,0,0,0,0,0,0,0,0,0,-1,832,337,0,0
-385,687,0,0,0,0,0,0,0,0,0,-1,839,337,0,0
-378,687,0,0,0,0,0,0,0,0,0,-1,846,337,0,0
-371,687,0,0,0,0,0,0,0,0,0,-1,853,337,0,0
-364,687,0,0,0,0,0,0,0,0,0,-1,860,337,0,0
-357,687,0,0,0,0,0,0,0,0,0,-1,867,337,0,0
-350,687,0,0,0,0,0,0,0,0,0,-1,874,337,0,0
-343,687,0,0,0,0,0,0,0,0,0,-1,881,337,0,0
-336,687,0,0,0,0,0,0,0,0,0,-1,888,337,0,0
-329,687,0,0,0,0,0,0,0,0,0,-1,895,337,0,0
-322,687,0,0,0,0,0,0,0,0,0,-1,902,337,0,0
-315,687,0,0,0,0,0,0,0,0,0,-1,909,337,0,0
-308,687,0,0,0,0,0,0,0,0,0,-1,916,337,0,0
-301,687,0,0,0,0,0,0,0,0,0,-1,923,337,0,0
-294,687,0,0,0,0,0,0,0,0,0,-1,930,337,0,0
-287,687,0,0,0,0,0,0,0,0,0,-1,937,337,0,0
-280,687,0,0,0,0,0,0,0,0,0,-1,944,337,0,0
-273,687,0,0,0,0,0,0,0,0,0,-1,951,337,0,0
-266,687,0,0,0,0,0,0,0,0,0,-1,958,337,0,0
-259,687,0,0,0,0,0,0,0,0,0,-1,965,337,0,0
-252,687,0,0,0,0,0,0,0,0,0,-1,972,337,0,0
-245,687,0,0,0,0,0,0,0,0,0,-1,979,337,0,0
-238,687,0,0,0,0,0,0,0,0,0,-1,986,337,0,0
-231,687,0,0,0,0,0,0,0,0,0,-1,993,337,0,0
-224,687,0,0,0,0,0,0,0,0,0,-1,1000,337,0,0
-217,687,0,0,0,0,0,0,0,0,0,-1,1007,337,0,0
-210,687,0,0,0,0,0,0,0,0,0,-1,1014,337,0,0
-203,687,0,0,0,0,0,0,0,0,0,-1,1021,337,0,0
-196,687,0,0,0,0,0,0,0,0,0,-1,1028,337,0,0
-189,687,0,0,0,0,0,0,0,0,0,-1,1035,337,0,0
-182,687,0,0,0,0,0,0,0,0,0,-1,1042,337,0,0
-175,687,0,0,0,0,0,0,0,0,0,-1,1049,337,0,0
-168,687,0,0,0,0,0,0,0,0,0,-1,1056,337,0,0
-161,687,0,0,0,0,0,0,0,0,0,-1,1063,337,0,0
-154,687,0,0,0,0,0,0,0,0,0,-1,1070,337,0,0
-147,687,0,0,0,0,0,0,0,0,0,-1,1077,337,0,0
-140,687,0,0,0,0,0,0,0,0,0,-1,1084,337,0,0
-133,687,1.34155,-1.51462,-0.105895,-0.0134547,0.00423851,-0.0132608,-0.106089,1.52507,0.066746,0.0477718,1091,337,1.34158,1.5146
-126,687,0.354858,-1.51251,-0.101783,-0.0212575,-0.00309801,-0.0211385,-0.101902,-1.5324,0.0620994,0.0458696,1098,337,0.354864,1.51251
-119,687,-0.642456,-1.43396,0,0,0,0,0,0,0,-1,1105,337,-0.642459,1.43395
-112,687,-1.92224,-2.74091,-0.0927318,-0.0293603,-0.0138463,-0.026467,-0.095625,-1.36481,0.0570136,0.0492057,1112,337,-1.92223,2.74091
-105,687,-3.05933,-2.6037,-0.0867959,-0.0269786,-0.0136769,-0.0239998,-0.0897747,-1.35635,0.0536694,0.0429641,1119,337,-3.05938,2.6037
-98,687,-3.65344,-1.8269,-0.0809574,-0.0238063,-0.0126257,-0.0211414,-0.0836224,-1.36277,0.0502074,0.0451044,1126,337,-3.65349,1.82691
-91,687,-4.09656,-1.30313,-0.0753392,-0.0202139,-0.0111022,-0.0180619,-0.0774911,-1.37934,0.0468163,0.0467095,1133,337,-4.09656,1.30314
-84,687,-4.43457,-0.694458,0,0,0,0,0,0,0,-1,1140,337,-4.43459,0.694443
-77,687,1.86755,0.38855,0,0,0,0,0,0,0,-1,1147,337,1.86754,-0.388548
-70,687,2.15063,0.776978,0,0,0,0,0,0,0,-1,1154,337,2.15059,-0.776968
-63,687,2.25684,1.03784,0,0,0,0,0,0,0,-1,1161,337,2.25682,-1.03785
-56,687,-0.759521,-0.605804,-0.0536834,0.0226411,-0.000571188,0.0226454,-0.0536877,-1.56331,0.0452694,0.0439085,1168,337,-0.759463,0.605803
-49,687,-1.03284,-0.0333862,-0.0555085,0.0389262,-0.00181643,0.0389612,-0.0555435,-1.55157,0.0548415,0.0455184,1175,337,-1.03285,0.0333943
-42,687,-1.02563,0.562653,0,0,0,0,0,0,0,-1,1182,337,-1.02564,-0.562649
-35,687,-0.2771,-0.134583,0,0,0,0,0,0,0,-1,1189,337,-0.277127,0.134571
-28,687,0.0953369,-0.993988,0,0,0,0,0,0,0,-1,1196,337,0.0953528,0.993983
-21,687,1.97351,-0.196472,0,0,0,0,0,0,0,-1,1203,337,1.97351,0.196458
-14,687,1.50098,-0.17514,-0.00784268,0.140926,-0.0454372,0.153705,-0.0206224,-1.29662,0.109991,0.0455816,1210,337,1.50098,0.175149
-7,687,0.623535,-0.0571899,0.00879481,0.166534,-0.0603873,0.186998,-0.0116686,-1.24407,0.128731,0.0431174,1217,337,0.623504,0.0571994
0,687,-0.488281,-0.084198,0.0246455,0.184627,-0.070547,0.211292,-0.00201923,-1.20942,0.141539,0.0451349,1224,337,-0.488317,0.0841934
7,687,-1.50989,-0.0449829,0.0400195,0.197144,-0.0764101,0.228175,0.00898919,-1.18504,0.14921,0.0451613,1231,337,-1.50985,0.0449701
14,687,-2.6499,-0.0290833,0.0545502,0.201698,-0.0767342,0.234432,0.0218167,-1.16759,0.149547,0.0438281,1238,337,-2.64987,0.0290945
21,687,1.63416,-1.7291,0.0655558,0.200239,-0.0734948,0.232579,0.033216,-1.15627,0.145252,0.0477772,1245,337,1.63417,1.72909
28,687,1.3999,-2.07977,0,0,0,0,0,0,0,-1,1252,337,1.39996,2.07978
35,687,1.01147,-2.67932,0,0,0,0,0,0,0,-1,1259,337,1.01153,2.67932
42,687,1.31995,-2.20105,0.0885003,0.173869,-0.0434655,0.192104,0.070265,-1.17356,0.112236,0.0475151,1266,337,1.31991,2.20106
49,687,1.91724,-1.62363,0.0897656,0.155841,-0.0313907,0.168376,0.0772307,-1.19088,0.0973227,0.0464369,1273,337,1.91729,1.62362
56,687,2.54395,-1.21179,0.0897696,0.144907,-0.018107,0.150322,0.0843551,-1.28023,0.0870045,0.0469301,1280,337,2.5439,1.21179
63,687,3.16406,-0.84787,0,0,0,0,0,0,0,-1,1287,337,3.164,0.847857
70,687,3.65063,0.263885,0.0770005,0.113958,0.0084311,0.115791,0.075168,1.35677,0.0678364,0.042753,1294,337,3.65063,-0.2639
77,687,1.66785,-1.27191,0.0692742,0.100933,0.017103,0.108408,0.0617995,1.15877,0.062794,0.0460008,1301,337,1.66786,1.27192
84,687,5.23132,2.00995,0.0635648,0.092408,0.0208567,0.103343,0.0526292,1.08788,0.0596688,0.0438768,1308,337,5.23132,-2.00994
91,687,1.198,-1.60638,0,0,0,0,0,0,0,-1,1315,337,1.19797,1.60637
98,687,1.05579,-2.33957,0,0,0,0,0,0,0,-1,1322,337,1.05577,2.33958
105,687,2.51624,-1.79285,0,0,0,0,0,0,0,-1,1329,337,2.51623,1.79283
112,687,2.57947,-1.66507,0,0,0,0,0,0,0,-1,1336,337,2.57944,1.66506
119,687,2.6427,-1.53729,0,0,0,0,0,0,0,-1,1343,337,2.64265,1.53729
126,687,2.81848,-1.80673,0,0,0,0,0,0,0,-1,1350,337,2.81853,1.80673
133,687,3.09338,-2.00409,0,0,0,0,0,0,0,-1,1357,337,3.09335,2.0041
140,687,3.12659,-1.90814,0,0,0,0,0,0,0,-1,1364,337,3.12656,1.90813
147,687,1.18457,-1.38736,0,0,0,0,0,0,0,-1,1371,337,1.18455,1.38735
154,687,1.93323,-1.58575,0.0514915,0.0301683,0.0125917,0.057329,0.0243308,0.434106,0.0332248,0.0496686,1378,337,1.93322,1.58576
161,687,2.59387,-1.67349,0.0591331,-0.0170589,0.0137089,0.0615246,-0.0194504,0.172713,0.0488093,0.0485319,1385,337,2.59393,1.6735
168,687,3.3772,-1.57166,0,0,0,0,0,0,0,-1,1392,337,3.37722,1.57167
175,687,2.89514,-0.460419,0,0,0,0,0,0,0,-1,1399,337,2.8952,0.460416
182,687,2.9563,-1.11093,0,0,0,0,0,0,0,-1,1406,337,2.95634,1.11092
189,687,2.91638,-1.98245,0,0,0,0,0,0,0,-1,1413,337,2.91636,1.98244
196,687,3.42603,-2.76465,0,0,0,0,0,0,0,-1,1420,337,3.42601,2.76465
203,687,3.1416,-3.42194,0,0,0,0,0,0,0,-1,1427,337,3.14161,3.42194
210,687,0.531738,0.916229,0,0,0,0,0,0,0,-1,1434,337,0.531754,-0.916244
217,687,0.436157,0.173279,0,0,0,0,0,0,0,-1,1441,337,0.436212,-0.173291
224,687,-0.12439,-0.238342,0,0,0,0,0,0,0,-1,1448,337,-0.124451,0.238328
231,687,-0.227905,-0.260315,0,0,0,0,0,0,0,-1,1455,337,-0.227912,0.260318
238,687,-0.265503,0.0633545,0,0,0,0,0,0,0,-1,1462,337,-0.265471,-0.0633528
245,687,2.63293,1.99423,0,0,0,0,0,0,0,-1,1469,337,2.63293,-1.99423
252,687,1.83765,1.95825,0,0,0,0,0,0,0,-1,1476,337,1.83761,-1.95827
259,687,0,0,0,0,0,0,0,0,0,-1,1483,337,0,0
266,687,0,0,0,0,0,0,0,0,0,-1,1490,337,0,0
273,687,0,0,0,0,0,0,0,0,0,-1,1497,337,0,0
280,687,0,0,0,0,0,0,0,0,0,-1,1504,337,0,0
287,687,0,0,0,0,0,0,0,0,0,-1,1511,337,0,0
294,687,0,0,0,0,0,0,0,0,0,-1,1518,337,0,0
301,687,0,0,0,0,0,0,0,0,0,-1,1525,337,0,0
308,687,0,0,0,0,0,0,0,0,0,-1,1532,337,0,0
315,687,0,0,0,0,0,0,0,0,0,-1,1539,337,0,0
322,687,0,0,0,0,0,0,0,0,0,-1,1546,337,0,0
329,687,0,0,0,0,0,0,0,0,0,-1,1553,337,0,0
336,687,0,0,0,0,0,0,0,0,0,-1,1560,337,0,0
343,687,0,0,0,0,0,0,0,0,0,-1,1567,337,0,0
350,687,0,0,0,0,0,0,0,0,0,-1,1574,337,0,0
357,687,0,0,0,0,0,0,0,0,0,-1,1581,337,0,0
364,687,0,0,0,0,0,0,0,0,0,-1,1588,337,0,0
371,687,0,0,0,0,0,0,0,0,0,-1,1595,337,0,0
378,687,0,0,0,0,0,0,0,0,0,-1,1602,337,0,0
385,687,0,0,0,0,0,0,0,0,0,-1,1609,337,0,0
392,687,0,0,0,0,0,0,0,0,0,-1,1616,337,0,0
399,687,0,0,0,0,0,0,0,0,0,-1,1623,337,0,0
406,687,0,0,0,0,0,0,0,0,0,-1,1630,337,0,0
413,687,0,0,0,0,0,0,0,0,0,-1,1637,337,0,0
420,687,0,0,0,0,0,0,0,0,0,-1,1644,337,0,0
427,687,0,0,0,0,0,0,0,0,0,-1,1651,337,0,0
434,687,0,0,0,0,0,0,0,0,0,-1,1658,337,0,0
441,687,0,0,0,0,0,0,0,0,0,-1,1665,337,0,0
448,687,0,0,0,0,0,0,0,0,0,-1,1672,337,0,0
455,687,0,0,0,0,0,0,0,0,0,-1,1679,337,0,0
462,687,0,0,0,0,0,0,0,0,0,-1,1686,337,0,0
469,687,0,0,0,0,0,0,0,0,0,-1,1693,337,0,0
476,687,0,0,0,0,0,0,0,0,0,-1,1700,337,0,0
483,687,0,0,0,0,0,0,0,0,0,-1,1707,337,0,0
490,687,0,0,0,0,0,0,0,0,0,-1,1714,337,0,0
497,687,0,0,0,0,0,0,0,0,0,-1,1721,337,0,0
504,687,0,0,0,0,0,0,0,0,0,-1,1728,337,0,0
511,687,0,0,0,0,0,0,0,0,0,-1,1735,337,0,0
518,687,0,0,0,0,0,0,0,0,0,-1,1742,337,0,0
525,687,0,0,0,0,0,0,0,0,0,-1,1749,337,0,0
532,687,0,0,0,0,0,0,0,0,0,-1,1756,337,0,0
539,687,0,0,0,0,0,0,0,0,0,-1,1763,337,0,0
546,687,0,0,0,0,0,0,0,0,0,-1,1770,337,0,0
553,687,0,0,0,0,0,0,0,0,0,-1,1777,337,0,0
560,687,0,0,0,0,0,0,0,0,0,-1,1784,337,0,0
567,687,0,0,0,0,0,0,0,0,0,-1,1791,337,0,0
574,687,0,0,0,0,0,0,0,0,0,-1,1798,337,0,0
581,687,0,0,0,0,0,0,0,0,0,-1,1805,337,0,0
588,687,0,0,0,0,0,0,0,0,0,-1,1812,337,0,0
595,687,0,0,0,0,0,0,0,0,0,-1,1819,337,0,0
602,687,0,0,0,0,0,0,0,0,0,-1,1826,337,0,0
609,687,0,0,0,0,0,0,0,0,0,-1,1833,337,0,0
616,687,0,0,0,0,0,0,0,0,0,-1,1840,337,0,0
623,687,0,0,0,0,0,0,0,0,0,-1,1847,337,0,0
630,687,0,0,0,0,0,0,0,0,0,-1,1854,337,0,0
637,687,0,0,0,0,0,0,0,0,0,-1,1861,337,0,0
644,687,0,0,0,0,0,0,0,0,0,-1,1868,337,0,0
651,687,0,0,0,0,0,0,0,0,0,-1,1875,337,0,0
658,687,0,0,0,0,0,0,0,0,0,-1,1882,337,0,0
665,687,0,0,0,0,0,0,0,0,0,-1,1889,337,0,0
672,687,0,0,0,0,0,0,0,0,0,-1,1896,337,0,0
679,687,0,0,0,0,0,0,0,0,0,-1,1903,337,0,0
686,687,0,0,0,0,0,0,0,0,0,-1,1910,337,0,0
693,687,0,0,0,0,0,0,0,0,0,-1,1917,337,0,0
700,687,0,0,0,0,0,0,0,0,0,-1,1924,337,0,0
707,687,0,0,0,0,0,0,0,0,0,-1,1931,337,0,0
714,687,0,0,0,0,0,0,0,0,0,-1,1938,337,0,0
721,687,0,0,0,0,0,0,0,0,0,-1,1945,337,0,0
728,687,0,0,0,0,0,0,0,0,0,-1,1952,337,0,0
735,687,0,0,0,0,0,0,0,0,0,-1,1959,337,0,0
742,687,0,0,0,0,0,0,0,0,0,-1,1966,337,0,0
749,687,0,0,0,0,0,0,0,0,0,-1,1973,337,0,0
756,687,0,0,0,0,0,0,0,0,0,-1,1980,337,0,0
763,687,0,0,0,0,0,0,0,0,0,-1,1987,337,0,0
770,687,0,0,0,0,0,0,0,0,0,-1,1994,337,0,0
777,687,0,0,0,0,0,0,0,0,0,-1,2001,337,0,0
784,687,0,0,0,0,0,0,0,0,0,-1,2008,337,0,0
791,687,0,0,0,0,0,0,0,0,0,-1,2015,337,0,0
798,687,0,0,0,0,0,0,0,0,0,-1,2022,337,0,0
805,687,0,0,0,0,0,0,0,0,0,-1,2029,337,0,0
812,687,0,0,0,0,0,0,0,0,0,-1,2036,337,0,0
-700,680,0,0,0,0,0,0,0,0,0,-1,524,344,0,0
-693,680,0,0,0,0,0,0,0,0,0,-1,531,344,0,0
-686,680,0,0,0,0,0,0,0,0,0,-1,538,344,0,0
-679,680,0,0,0,0,0,0,0,0,0,-1,545,344,0,0
-672,680,0,0,0,0,0,0,0,0,0,-1,552,344,0,0
-665,680,0,0,0,0,0,0,0,0,0,-1,559,344,0,0
-658,680,0,0,0,0,0,0,0,0,0,-1,566,344,0,0
-651,680,0,0,0,0,0,0,0,0,0,-1,573,344,0,0
-644,680,0,0,0,0,0,0,0,0,0,-1,580,344,0,0
-637,680,0,0,0,0,0,0,0,0,0,-1,587,344,0,0
-630,680,0,0,0,0,0,0,0,0,0,-1,594,344,0,0
-623,680,0,0,0,0,0,0,0,0,0,-1,601,344,0,0
-616,680,0,0,0,0,0,0,0,0,0,-1,608,344,0,0
-609,680,0,0,0,0,0,0,0,0,0,-1,615,344,0,0
-602,680,0,0,0,0,0,0,0,0,0,-1,622,344,0,0
-595,680,0,0,0,0,0,0,0,0,0,-1,629,344,0,0
-588,680,0,0,0,0,0,0,0,0,0,-1,636,344,0,0
-581,680,0,0,0,0,0,0,0,0,0,-1,643,344,0,0
-574,680,0,0,0,0,0,0,0,0,0,-1,650,344,0,0
-567,680,0,0,0,0,0,0,0,0,0,-1,657,344,0,0
-560,680,0,0,0,0,0,0,0,0,0,-1,664,344,0,0
-553,680,0,0,0,0,0,0,0,0,0,-1,671,344,0,0
-546,680,0,0,0,0,0,0,0,0,0,-1,678,344,0,0
-539,680,0,0,0,0,0,0,0,0,0,-1,685,344,0,0
-532,680,0,0,0,0,0,0,0,0,0,-1,692,344,0,0
-525,680,0,0,0,0,0,0,0,0,0,-1,699,344,0,0
-518,680,0,0,0,0,0,0,0,0,0,-1,706,344,0,0
-511,680,0,0,0,0,0,0,0,0,0,-1,713,344,0,0
-504,680,0,0,0,0,0,0,0,0,0,-1,720,344,0,0
-497,680,0,0,0,0,0,0,0,0,0,-1,727,344,0,0
-490,680,0,0,0,0,0,0,0,0,0,-1,734,344,0,0
-483,680,0,0,0,0,0,0,0,0,0,-1,741,344,0,0
-476,680,0,0,0,0,0,0,0,0,0,-1,748,344,0,0
-469,680,0,0,0,0,0,0,0,0,0,-1,755,344,0,0
-462,680,0,0,0,0,0,0,0,0,0,-1,762,344,0,0
-455,680,0,0,0,0,0,0,0,0,0,-1,769,344,0,0
-448,680,0,0,0,0,0,0,0,0,0,-1,776,344,0,0
-441,680,0,0,0,0,0,0,0,0,0,-1,783,344,0,0
-434,680,0,0,0,0,0,0,0,0,0,-1,790,344,0,0
-427,680,0,0,0,0,0,0,0,0,0,-1,797,344,0,0
-420,680,0,0,0,0,0,0,0,0,0,-1,804,344,0,0
-413,680,0,0,0,0,0,0,0,0,0,-1,811,344,0,0
-406,680,0,0,0,0,0,0,0,0,0,-1,818,344,0,0
-399,680,0,0,0,0,0,0,0,0,0,-1,825,344,0,0
-392,680,0,0,0,0,0,0,0,0,0,-1,832,344,0,0
-385,680,0,0,0,0,0,0,0,0,0,-1,839,344,0,0
-378,680,0,0,0,0,0,0,0,0,0,-1,846,344,0,0
-371,680,0,0,0,0,0,0,0,0,0,-1,853,344,0,0
-364,680,0,0,0,0,0,0,0,0,0,-1,860,344,0,0
-357,680,0,0,0,0,0,0,0,0,0,-1,867,344,0,0
-350,680,0,0,0,0,0,0,0,0,0,-1,874,344,0,0
-343,680,0,0,0,0,0,0,0,0,0,-1,881,344,0,0
-336,680,0,0,0,0,0,0,0,0,0,-1,888,344,0,0
-329,680,0,0,0,0,0,0,0,0,0,-1,895,344,0,0
-322,680,0,0,0,0,0,0,0,0,0,-1,902,344,0,0
-315,680,0,0,0,0,0,0,0,0,0,-1,909,344,0,0
-308,680,0,0,0,0,0,0,0,0,0,-1,916,344,0,0
-301,680,0,0,0,0,0,0,0,0,0,-1,923,344,0,0
-294,680,0,0,0,0,0,0,0,0,0,-1,930,344,0,0
-287,680,0,0,0,0,0,0,0,0,0,-1,937,344,0,0
-280,680,0,0,0,0,0,0,0,0,0,-1,944,344,0,0
-273,680,0,0,0,0,0,0,0,0,0,-1,951,344,0,0
-266,680,0,0,0,0,0,0,0,0,0,-1,958,344,0,0
-259,680,0,0,0,0,0,0,0,0,0,-1,965,344,0,0
-252,680,0,0,0,0,0,0,0,0,0,-1,972,344,0,0
-245,680,0,0,0,0,0,0,0,0,0,-1,979,344,0,0
-238,680,0,0,0,0,0,0,0,0,0,-1,986,344,0,0
-231,680,0,0,0,0,0,0,0,0,0,-1,993,344,0,0
-224,680,0,0,0,0,0,0,0,0,0,-1,1000,344,0,0
-217,680,0,0,0,0,0,0,0,0,0,-1,1007,344,0,0
-210,680,0,0,0,0,0,0,0,0,0,-1,1014,344,0,0
-203,680,0,0,0,0,0,0,0,0,0,-1,1021,344,0,0
-196,680,0,0,0,0,0,0,0,0,0,-1,1028,344,0,0
-189,680,0,0,0,0,0,0,0,0,0,-1,1035,344,0,0
-182,680,0,0,0,0,0,0,0,0,0,-1,1042,344,0,0
-175,680,0,0,0,0,0,0,0,0,0,-1,1049,344,0,0
-168,680,0,0,0,0,0,0,0,0,0,-1,1056,344,0,0
-161,680,0,0,0,0,0,0,0,0,0,-1,1063,344,0,0
-154,680,3.44006,-1.43317,0,0,0,0,0,0,0,-1,1070,344,3.4401,1.43316
-147,680,2.46509,-1.49796,-0.0875345,0.00239424,0.00424614,0.00259429,-0.0877345,1.52372,0.0593733,0.0434454,1077,344,2.46514,1.49796
-140,680,1.44861,-1.59055,-0.0859777,-0.00476628,-5.65224e-06,-0.00476629,-0.0859777,-1.57073,0.0557976,0.0458053,1084,344,1.44858,1.59053
-133,680,0.513184,-1.48682,-0.0842424,-0.0112201,-0.00564699,-0.010786,-0.0846765,-1.49407,0.0532213,0.0423692,1091,344,0.513237,1.48683
-126,680,0.174438,-1.62506,-0.0814689,-0.0168487,-0.0115414,-0.0148492,-0.0834683,-1.39926,0.0514156,0.0401264,1098,344,0.174378,1.62507
-119,680,-0.713501,-1.39203,0,0,0,0,0,0,0,-1,1105,344,-0.713542,1.39204
-112,680,-1.94824,-2.2244,-0.076446,-0.0229351,-0.0200848,-0.0162353,-0.0831458,-1.24883,0.0508895,0.0430814,1112,344,-1.94821,2.22439
-105,680,-2.48206,-2.17828,-0.0727522,-0.0213653,-0.0197688,-0.0146402,-0.0794773,-1.24289,0.0488417,0.0420261,1119,344,-2.482,2.17828
-98,680,-3.13879,-1.85013,0,0,0,0,0,0,0,-1,1126,344,-3.13883,1.85014
-91,680,-3.61426,-2.01193,0,0,0,0,0,0,0,-1,1133,344,-3.61428,2.01193
-84,680,5.17737,1.49899,0,0,0,0,0,0,0,-1,1140,344,5.17735,-1.49899
-77,680,2.24963,-0.531921,0,0,0,0,0,0,0,-1,1147,344,2.2496,0.531926
-70,680,2.31763,-0.331604,0,0,0,0,0,0,0,-1,1154,344,2.31759,0.331591
-63,680,2.38562,-0.131256,0,0,0,0,0,0,0,-1,1161,344,2.38559,0.131256
-56,680,-0.549072,-0.73291,-0.0445836,0.0169287,-0.00429688,0.0172274,-0.0448823,-1.50139,0.037025,0.0432312,1168,344,-0.549091,0.732904
-49,680,-0.902832,-0.00689697,-0.0446944,0.029641,-0.00445325,0.0299069,-0.0449602,-1.51117,0.0435148,0.0423231,1175,344,-0.902841,0.00689904
-42,680,-1.02368,0.618805,0,0,0,0,0,0,0,-1,1182,344,-1.0237,-0.618797
-35,680,-0.947876,-0.942719,0,0,0,0,0,0,0,-1,1189,344,-0.947842,0.942731
-28,680,0.246826,-1.02023,0,0,0,0,0,0,0,-1,1196,344,0.24688,1.02024
-21,680,1.69958,-1.46039,0,0,0,0,0,0,0,-1,1203,344,1.69962,1.4604
-14,680,2.00183,-0.734283,-0.00202997,0.107181,-0.0376793,0.118919,-0.0137682,-1.2688,0.0842447,0.0461441,1210,344,2.00183,0.734279
-7,680,1.27991,-0.858215,0.0111921,0.125853,-0.0486432,0.143708,-0.00666355,-1.21899,0.0981023,0.0447694,1217,344,1.27985,0.858207
0,680,1.91797,-1.39975,0.0232458,0.138568,-0.0558701,0.161196,0.000618294,-1.18598,0.107258,0.0497974,1224,344,1.91792,1.39976
7,680,-0.998779,-0.722687,0.0341542,0.147024,-0.0595666,0.172644,0.00853378,-1.1646,0.11236,0.0435753,1231,344,-0.998785,0.722677
14,680,1.79785,-1.41086,0.0441123,0.149641,-0.0591376,0.176131,0.0176218,-1.14965,0.11201,0.0442235,1238,344,1.79786,1.41085
21,680,1.82971,-1.46793,0.0514717,0.148363,-0.0561632,0.174088,0.0257467,-1.14128,0.1085,0.0453842,1245,344,1.8297,1.46792
28,680,1.5907,-1.80814,0.0571761,0.144583,-0.0499531,0.167252,0.0345071,-1.14478,0.101964,0.0454493,1252,344,1.59071,1.80813
35,680,1.75916,-2.04477,0.0626006,0.138118,-0.040581,0.15579,0.0449289,-1.16009,0.0925913,0.045659,1259,344,1.75914,2.04476
42,680,1.47375,-1.67929,0.0675479,0.130046,-0.0316879,0.143301,0.0542927,-1.17461,0.0835403,0.0455869,1266,344,1.47378,1.67929
49,680,1.62646,-1.50046,0.0685431,0.117464,-0.0223267,0.126121,0.0598856,-1.20088,0.0728469,0.0401331,1273,344,1.62651,1.50047
56,680,1.7522,-1.48309,0.0687677,0.109844,-0.0120082,0.113097,0.0655148,-1.30626,0.0655694,0.0388932,1280,344,1.7522,1.48311
63,680,1.88391,-1.47098,0.0655539,0.0985665,-0.00155013,0.0986391,0.0654813,-1.52398,0.0579596,0.0369897,1287,344,1.8839,1.47099
70,680,1.96411,-1.42523,0.0592053,0.0878903,0.0084887,0.0902141,0.0568815,1.30359,0.0526733,0.0370316,1294,344,1.96415,1.42523
77,680,1.75269,-1.48254,0.0534138,0.0786259,0.014988,0.0856043,0.0464353,1.13504,0.049483,0.0442877,1301,344,1.75264,1.48254
84,680,1.53259,-1.48734,0.0496554,0.0715764,0.0178993,0.0816043,0.0396274,1.06012,0.0471208,0.0473177,1308,344,1.53256,1.48735
91,680,1.34265,-1.64783,0.0435091,0.0664613,0.0192616,0.0774064,0.032564,1.05406,0.0448776,0.0484451,1315,344,1.34269,1.64783
98,680,1.31934,-2.12411,0.0349864,0.0609743,0.0200882,0.0719047,0.0240559,1.07248,0.042265,0.0466973,1322,344,1.31939,2.12411
105,680,1.54321,-2.52054,0,0,0,0,0,0,0,-1,1329,344,1.54321,2.52053
112,680,2.30273,-1.48834,0,0,0,0,0,0,0,-1,1336,344,2.30275,1.48834
119,680,2.32166,-1.35379,0,0,0,0,0,0,0,-1,1343,344,2.32161,1.3538
126,680,1.31274,-1.62164,0.0273987,0.046007,0.00616154,0.0478622,0.0255435,1.27833,0.0276542,0.0420407,1350,344,1.31271,1.62163
133,680,1.34338,-1.70239,0.0270744,0.0365975,0.0027026,0.037311,0.0263608,1.31267,0.0221455,0.0436649,1357,344,1.34336,1.7024
140,680,1.46106,-1.61407,0,0,0,0,0,0,0,-1,1364,344,1.46102,1.61406
147,680,1.36255,-1.73389,0,0,0,0,0,0,0,-1,1371,344,1.36249,1.7339
154,680,1.78516,-1.53659,0.0378016,0.0141555,0.00928626,0.0410125,0.0109446,0.332899,0.0245216,0.0477616,1378,344,1.7852,1.5366
161,680,2.37134,-1.4664,0.0422011,-0.0123751,0.0107411,0.044239,-0.014413,0.187496,0.035292,0.0480704,1385,344,2.3714,1.4664
168,680,3.26721,-2.38416,0,0,0,0,0,0,0,-1,1392,344,3.26716,2.38415
175,680,2.91492,-0.143921,0,0,0,0,0,0,0,-1,1399,344,2.91488,0.143907
182,680,2.80908,-0.859772,0,0,0,0,0,0,0,-1,1406,344,2.80909,0.85976
189,680,2.74353,-1.68832,0,0,0,0,0,0,0,-1,1413,344,2.74353,1.68832
196,680,3.11719,-2.13718,0,0,0,0,0,0,0,-1,1420,344,3.11717,2.13716
203,680,2.8446,-2.90195,0,0,0,0,0,0,0,-1,1427,344,2.84462,2.90195
210,680,0.965332,0.334534,0,0,0,0,0,0,0,-1,1434,344,0.965363,-0.334528
217,680,-0.0894775,0.246216,0,0,0,0,0,0,0,-1,1441,344,-0.089538,-0.246205
224,680,0.222168,0.0697327,0,0,0,0,0,0,0,-1,1448,344,0.222207,-0.0697318
231,680,0.515015,0.0779724,0,0,0,0,0,0,0,-1,1455,344,0.515046,-0.0779599
238,680,0.33252,0.0973816,0,0,0,0,0,0,0,-1,1462,344,0.332542,-0.0973776
245,680,0.0732422,0.227753,0,0,0,0,0,0,0,-1,1469,344,0.0733004,-0.227763
252,680,2.78271,0.35556,0,0,0,0,0,0,0,-1,1476,344,2.78269,-0.355575
259,680,3.45801,0.556854,0.0601722,0.0738204,0.00933212,0.0785573,0.0554353,1.10109,0.0466165,0.0481805,1483,344,3.45801,-0.556845
266,680,4.16858,0.790924,0.0528806,0.0680347,0.00823824,0.0716505,0.0492648,1.1572,0.0423266,0.0416544,1490,344,4.16855,-0.790912
273,680,4.63611,0.848419,0.0410536,0.0594605,0.00519641,0.0608262,0.0396879,1.3138,0.0356582,0.0384345,1497,344,4.63616,-0.848412
280,680,0,0,0,0,0,0,0,0,0,-1,1504,344,0,0
287,680,0,0,0,0,0,0,0,0,0,-1,1511,344,0,0
294,680,0,0,0,0,0,0,0,0,0,-1,1518,344,0,0
301,680,0,0,0,0,0,0,0,0,0,-1,1525,344,0,0
308,680,0,0,0,0,0,0,0,0,0,-1,1532,344,0,0
315,680,0,0,0,0,0,0,0,0,0,-1,1539,344,0,0
322,680,0,0,0,0,0,0,0,0,0,-1,1546,344,0,0
329,680,0,0,0,0,0,0,0,0,0,-1,1553,344,0,0
336,680,0,0,0,0,0,0,0,0,0,-1,1560,344,0,0
343,680,0,0,0,0,0,0,0,0,0,-1,1567,344,0,0
350,680,0,0,0,0,0,0,0,0,0,-1,1574,344,0,0
357,680,0,0,0,0,0,0,0,0,0,-1,1581,344,0,0
364,680,0,0,0,0,0,0,0,0,0,-1,1588,344,0,0
371,680,0,0,0,0,0,0,0,0,0,-1,1595,344,0,0
378,680,0,0,0,0,0,0,0,0,0,-1,1602,344,0,0
385,680,0,0,0,0,0,0,0,0,0,-1,1609,344,0,0
392,680,0,0,0,0,0,0,0,0,0,-1,1616,344,0,0
399,680,0,0,0,0,0,0,0,0,0,-1,1623,344,0,0
406,680,0,0,0,0,0,0,0,0,0,-1,1630,344,0,0
413,680,0,0,0,0,0,0,0,0,0,-1,1637,344,0,0
420,680,0,0,0,0,0,0,0,0,0,-1,1644,344,0,0
427,680,0,0,0,0,0,0,0,0,0,-1,1651,344,0,0
434,680,0,0,0,0,0,0,0,0,0,-1,1658,344,0,0
441,680,0,0,0,0,0,0,0,0,0,-1,1665,344,0,0
448,680,0,0,0,0,0,0,0,0,0,-1,1672,344,0,0
455,680,0,0,0,0,0,0,0,0,0,-1,1679,344,0,0
462,680,0,0,0,0,0,0,0,0,0,-1,1686,344,0,0
469,680,0,0,0,0,0,0,0,0,0,-1,1693,344,0,0
476,680,0,0,0,0,0,0,0,0,0,-1,1700,344,0,0
483,680,0,0,0,0,0,0,0,0,0,-1,1707,344,0,0
490,680,0,0,0,0,0,0,0,0,0,-1,1714,344,0,0
497,680,0,0,0,0,0,0,0,0,0,-1,1721,344,0,0
504,680,0,0,0,0,0,0,0,0,0,-1,1728,344,0,0
511,680,0,0,0,0,0,0,0,0,0,-1,1735,344,0,0
518,680,0,0,0,0,0,0,0,0,0,-1,1742,344,0,0
525,680,0,0,0,0,0,0,0,0,0,-1,1749,344,0,0
532,680,0,0,0,0,0,0,0,0,0,-1,1756,344,0,0
539,680,0,0,0,0,0,0,0,0,0,-1,1763,344,0,0
546,680,0,0,0,0,0,0,0,0,0,-1,1770,344,0,0
553,680,0,0,0,0,0,0,0,0,0,-1,1777,344,0,0
560,680,0,0,0,0,0,0,0,0,0,-1,1784,344,0,0
567,680,0,0,0,0,0,0,0,0,0,-1,1791,344,0,0
574,680,0,0,0,0,0,0,0,0,0,-1,1798,344,0,0
581,680,0,0,0,0,0,0,0,0,0,-1,1805,344,0,0
588,680,0,0,0,0,0,0,0,0,0,-1,1812,344,0,0
595,680,0,0,0,0,0,0,0,0,0,-1,1819,344,0,0
602,680,0,0,0,0,0,0,0,0,0,-1,1826,344,0,0
609,680,0,0,0,0,0,0,0,0,0,-1,1833,344,0,0
616,680,0,0,0,0,0,0,0,0,0,-1,1840,344,0,0
623,680,0,0,0,0,0,0,0,0,0,-1,1847,344,0,0
630,680,0,0,0,0,0,0,0,0,0,-1,1854,344,0,0
637,680,0,0,0,0,0,0,0,0,0,-1,1861,344,0,0
644,680,0,0,0,0,0,0,0,0,0,-1,1868,344,0,0
651,680,0,0,0,0,0,0,0,0,0,-1,1875,344,0,0
658,680,0,0,0,0,0,0,0,0,0,-1,1882,344,0,0
665,680,0,0,0,0,0,0,0,0,0,-1,1889,344,0,0
672,680,0,0,0,0,0,0,0,0,0,-1,1896,344,0,0
679,680,0,0,0,0,0,0,0,0,0,-1,1903,344,0,0
686,680,0,0,0,0,0,0,0,0,0,-1,1910,344,0,0
693,680,0,0,0,0,0,0,0,0,0,-1,1917,344,0,0
700,680,0,0,0,0,0,0,0,0,0,-1,1924,344,0,0
707,680,0,0,0,0,0,0,0,0,0,-1,1931,344,0,0
714,680,0,0,0,0,0,0,0,0,0,-1,1938,344,0,0
721,680,0,0,0,0,0,0,0,0,0,-1,1945,344,0,0
728,680,0,0,0,0,0,0,0,0,0,-1,1952,344,0,0
735,680,0,0,0,0,0,0,0,0,0,-1,1959,344,0,0
742,680,0,0,0,0,0,0,0,0,0,-1,1966,344,0,0
749,680,0,0,0,0,0,0,0,0,0,-1,1973,344,0,0
756,680,0,0,0,0,0,0,0,0,0,-1,1980,344,0,0
763,680,0,0,0,0,0,0,0,0,0,-1,1987,344,0,0
770,680,0,0,0,0,0,0,0,0,0,-1,1994,344,0,0
777,680,0,0,0,0,0,0,0,0,0,-1,2001,344,0,0
784,680,0,0,0,0,0,0,0,0,0,-1,2008,344,0,0
791,680,0,0,0,0,0,0,0,0,0,-1,2015,344,0,0
798,680,0,0,0,0,0,0,0,0,0,-1,2022,344,0,0
805,680,0,0,0,0,0,0,0,0,0,-1,2029,344,0,0
812,680,0,0,0,0,0,0,0,0,0,-1,2036,344,0,0
-700,673,0,0,0,0,0,0,0,0,0,-1,524,351,0,0
-693,673,0,0,0,0,0,0,0,0,0,-1,531,351,0,0
-686,673,0,0,0,0,0,0,0,0,0,-1,538,351,0,0
-679,673,0,0,0,0,0,0,0,0,0,-1,545,351,0,0
-672,673,0,0,0,0,0,0,0,0,0,-1,552,351,0,0
-665,673,0,0,0,0,0,0,0,0,0,-1,559,351,0,0
-658,673,0,0,0,0,0,0,0,0,0,-1,566,351,0,0
-651,673,0,0,0,0,0,0,0,0,0,-1,573,351,0,0
-644,673,0,0,0,0,0,0,0,0,0,-1,580,351,0,0
-637,673,0,0,0,0,0,0,0,0,0,-1,587,351,0,0
-630,673,0,0,0,0,0,0,0,0,0,-1,594,351,0,0
-623,673,0,0,0,0,0,0,0,0,0,-1,601,351,0,0
-616,673,0,0,0,0,0,0,0,0,0,-1,608,351,0,0
-609,673,0,0,0,0,0,0,0,0,0,-1,615,351,0,0
-602,673,0,0,0,0,0,0,0,0,0,-1,622,351,0,0
-595,673,0,0,0,0,0,0,0,0,0,-1,629,351,0,0
-588,673,0,0,0,0,0,0,0,0,0,-1,636,351,0,0
-581,673,0,0,0,0,0,0,0,0,0,-1,643,351,0,0
-574,673,0,0,0,0,0,0,0,0,0,-1,650,351,0,0
-567,673,0,0,0,0,0,0,0,0,0,-1,657,351,0,0
-560,673,0,0,0,0,0,0,0,0,0,-1,664,351,0,0
-553,673,0,0,0,0,0,0,0,0,0,-1,671,351,0,0
-546,673,0,0,0,0,0,0,0,0,0,-1,678,351,0,0
-539,673,0,0,0,0,0,0,0,0,0,-1,685,351,0,0
-532,673,0,0,0,0,0,0,0,0,0,-1,692,351,0,0
-525,673,0,0,0,0,0,0,0,0,0,-1,699,351,0,0
-518,673,0,0,0,0,0,0,0,0,0,-1,706,351,0,0
-511,673,0,0,0,0,0,0,0,0,0,-1,713,351,0,0
-504,673,0,0,0,0,0,0,0,0,0,-1,720,351,0,0
-497,673,0,0,0,0,0,0,0,0,0,-1,727,351,0,0
-490,673,0,0,0,0,0,0,0,0,0,-1,734,351,0,0
-483,673,0,0,0,0,0,0,0,0,0,-1,741,351,0,0
-476,673,0,0,0,0,0,0,0,0,0,-1,748,351,0,0
-469,673,0,0,0,0,0,0,0,0,0,-1,755,351,0,0
-462,673,0,0,0,0,0,0,0,0,0,-1,762,351,0,0
-455,673,0,0,0,0,0,0,0,0,0,-1,769,351,0,0
-448,673,0,0,0,0,0,0,0,0,0,-1,776,351,0,0
-441,673,0,0,0,0,0,0,0,0,0,-1,783,351,0,0
-434,673,0,0,0,0,0,0,0,0,0,-1,790,351,0,0
-427,673,0,0,0,0,0,0,0,0,0,-1,797,351,0,0
-420,673,0,0,0,0,0,0,0,0,0,-1,804,351,0,0
-413,673,0,0,0,0,0,0,0,0,0,-1,811,351,0,0
-406,673,0,0,0,0,0,0,0,0,0,-1,818,351,0,0
-399,673,0,0,0,0,0,0,0,0,0,-1,825,351,0,0
-392,673,0,0,0,0,0,0,0,0,0,-1,832,351,0,0
-385,673,0,0,0,0,0,0,0,0,0,-1,839,351,0,0
-378,673,0,0,0,0,0,0,0,0,0,-1,846,351,0,0
-371,673,0,0,0,0,0,0,0,0,0,-1,853,351,0,0
-364,673,0,0,0,0,0,0,0,0,0,-1,860,351,0,0
-357,673,0,0,0,0,0,0,0,0,0,-1,867,351,0,0
-350,673,0,0,0,0,0,0,0,0,0,-1,874,351,0,0
-343,673,0,0,0,0,0,0,0,0,0,-1,881,351,0,0
-336,673,0,0,0,0,0,0,0,0,0,-1,888,351,0,0
-329,673,0,0,0,0,0,0,0,0,0,-1,895,351,0,0
-322,673,0,0,0,0,0,0,0,0,0,-1,902,351,0,0
-315,673,0,0,0,0,0,0,0,0,0,-1,909,351,0,0
-308,673,0,0,0,0,0,0,0,0,0,-1,916,351,0,0
-301,673,0,0,0,0,0,0,0,0,0,-1,923,351,0,0
-294,673,0,0,0,0,0,0,0,0,0,-1,930,351,0,0
-287,673,0,0,0,0,0,0,0,0,0,-1,937,351,0,0
-280,673,0,0,0,0,0,0,0,0,0,-1,944,351,0,0
-273,673,0,0,0,0,0,0,0,0,0,-1,951,351,0,0
-266,673,0,0,0,0,0,0,0,0,0,-1,958,351,0,0
-259,673,0,0,0,0,0,0,0,0,0,-1,965,351,0,0
-252,673,0,0,0,0,0,0,0,0,0,-1,972,351,0,0
-245,673,0,0,0,0,0,0,0,0,0,-1,979,351,0,0
-238,673,0,0,0,0,0,0,0,0,0,-1,986,351,0,0
-231,673,0,0,0,0,0,0,0,0,0,-1,993,351,0,0
-224,673,0,0,0,0,0,0,0,0,0,-1,1000,351,0,0
-217,673,0,0,0,0,0,0,0,0,0,-1,1007,351,0,0
-210,673,0,0,0,0,0,0,0,0,0,-1,1014,351,0,0
-203,673,0,0,0,0,0,0,0,0,0,-1,1021,351,0,0
-196,673,0,0,0,0,0,0,0,0,0,-1,1028,351,0,0
-189,673,0,0,0,0,0,0,0,0,0,-1,1035,351,0,0
-182,673,0,0,0,0,0,0,0,0,0,-1,1042,351,0,0
-175,673,0.910645,-1.63336,-0.0663533,0.016718,0.00282083,0.0168137,-0.0664489,1.53689,0.0508393,0.044208,1049,351,0.910596,1.63337
-168,673,0.026001,-0.98056,-0.0656723,0.0143667,0.0032203,0.0144961,-0.0658017,1.53065,0.0494138,0.042119,1056,351,0.0259441,0.980559
-161,673,0.498779,-1.2395,-0.067023,0.010284,0.00301004,0.010401,-0.06714,1.53194,0.0485994,0.0431485,1063,351,0.498786,1.2395
-154,673,3.08704,-1.95374,0,0,0,0,0,0,0,-1,1070,351,3.08709,1.95373
-147,673,2.18518,-1.83221,-0.0676977,0.000264383,-0.00182919,0.00031358,-0.0677469,-1.54391,0.0452695,0.0427724,1077,351,2.18514,1.83221
-140,673,1.26123,-1.69064,-0.0665635,-0.00461509,-0.00611913,-0.00401644,-0.0671622,-1.47327,0.0434978,0.0457618,1084,351,1.26118,1.69063
-133,673,0.359497,-1.52869,-0.0654271,-0.00905786,-0.0108821,-0.00703001,-0.067455,-1.38656,0.0428194,0.0445727,1091,351,0.3595,1.52869
-126,673,-0.279175,-1.58664,-0.0635663,-0.012956,-0.0156037,-0.00853193,-0.0679904,-1.29452,0.0427676,0.0423572,1098,351,-0.279153,1.58664
-119,673,-0.925171,-1.60092,-0.0622669,-0.0160104,-0.0199921,-0.0085674,-0.0697099,-1.2144,0.0438971,0.0424891,1105,351,-0.925201,1.60092
-112,673,-1.7312,-1.6907,-0.0610066,-0.0173328,-0.0224299,-0.00786556,-0.0704739,-1.1714,0.0445926,0.0420468,1112,351,-1.73123,1.69071
-105,673,-2.21558,-1.97412,-0.0589049,-0.0163223,-0.0221678,-0.00687715,-0.0683501,-1.16801,0.0434561,0.0421236,1119,351,-2.21555,1.97412
-98,673,-2.83911,-2.00021,-0.0563427,-0.0144484,-0.0208549,-0.00583697,-0.0649541,-1.1792,0.0414941,0.0470282,1126,351,-2.83907,2.00022
-91,673,-3.36438,-2.01443,-0.0534392,-0.0125999,-0.0193645,-0.00487803,-0.0611611,-1.19135,0.0392492,0.0473005,1133,351,-3.36439,2.01442
-84,673,-3.83301,-1.98636,0,0,0,0,0,0,0,-1,1140,351,-3.83302,1.98637
-77,673,2.65515,-1.09299,0,0,0,0,0,0,0,-1,1147,351,2.65516,1.09298
-70,673,2.21826,-1.1799,-0.0413031,-0.0019733,-0.00989544,0.000376066,-0.0436525,-1.33769,0.0292278,0.0434951,1154,351,2.2182,1.1799
-63,673,0.398315,-1.43069,-0.0388613,0.00524558,-0.00726533,0.00641151,-0.0400272,-1.41167,0.0290587,0.0432206,1161,351,0.39831,1.43071
-56,673,-0.416016,-0.689301,-0.0357665,0.0125082,-0.00645092,0.0133554,-0.0366137,-1.44022,0.0298732,0.0412962,1168,351,-0.416043,0.689298
-49,673,-0.926758,-0.115448,-0.0347675,0.0220839,-0.00589055,0.0226878,-0.0353714,-1.46863,0.0337861,0.039152,1175,351,-0.926732,0.115444
-42,673,-1.15015,0.289917,0,0,0,0,0,0,0,-1,1182,351,-1.15017,-0.289932
-35,673,-0.919556,-1.00711,0,0,0,0,0,0,0,-1,1189,351,-0.919514,1.00711
-28,673,0.394165,-1.08612,-0.0120163,0.0553226,-0.0177806,0.0597292,-0.0164229,-1.32786,0.0462756,0.0464921,1196,351,0.394209,1.08614
-21,673,1.6825,-1.43549,-0.0067526,0.0673965,-0.0238203,0.0743893,-0.0137454,-1.28525,0.0547528,0.0439352,1203,351,1.68244,1.43547
-14,673,1.86072,-1.4577,0,0,0,0,0,0,0,-1,1210,351,1.86069,1.45772
-7,673,1.66748,-1.40784,0.0115308,0.0923867,-0.037965,0.107418,-0.0035008,-1.1938,0.0728072,0.038919,1217,351,1.66744,1.40783
0,673,1.88086,-1.4339,0.0203388,0.101001,-0.0429062,0.119556,0.00178413,-1.16264,0.0791161,0.0416724,1224,351,1.8809,1.43391
7,673,1.84167,-1.42792,0.0278791,0.106572,-0.0451332,0.127101,0.00734942,-1.1439,0.0823938,0.0426731,1231,351,1.84171,1.42793
14,673,1.75378,-1.46628,0.0344531,0.10795,-0.0443548,0.128802,0.0136012,-1.13134,0.0817123,0.0397783,1238,351,1.75379,1.46626
21,673,1.75793,-1.51947,0.0391607,0.106887,-0.0417937,0.126814,0.0192332,-1.12587,0.0789168,0.0264464,1245,351,1.75788,1.51947
28,673,1.7926,-1.5249,0.0427892,0.10423,-0.0367584,0.121415,0.0256043,-1.13348,0.0739023,0.0182107,1252,351,1.79259,1.52491
35,673,1.81323,-1.59631,0.0465747,0.100132,-0.0293627,0.113093,0.0336134,-1.1551,0.0670605,0.025691,1259,351,1.81326,1.59632
42,673,1.75525,-1.58224,0.0500125,0.0944781,-0.0225253,0.103895,0.0405958,-1.17483,0.0604592,0.0273122,1266,351,1.75531,1.58223
49,673,1.69006,-1.51932,0.0507409,0.0858862,-0.0154489,0.0917116,0.0449155,-1.21021,0.0529534,0.0170638,1273,351,1.6901,1.5193
56,673,1.71838,-1.50729,0.0510309,0.0806814,-0.00766894,0.0825475,0.0491648,-1.33211,0.0479483,0.0139614,1280,351,1.71844,1.50729
63,673,1.72998,-1.52271,0.0487341,0.0729194,0.000242445,0.0729218,0.0487316,1.56077,0.0428888,0.0156774,1287,351,1.72993,1.52269
70,673,1.72363,-1.54648,0.0439558,0.065466,0.00771746,0.0679484,0.0414734,1.25959,0.0395473,0.0249106,1294,351,1.72366,1.54647
77,673,1.71082,-1.49994,0.0396467,0.059033,0.0124444,0.0651139,0.0335658,1.11627,0.0375995,0.0366404,1301,351,1.71087,1.49992
84,673,1.62866,-1.51755,0.037195,0.0534346,0.0146113,0.0620307,0.0285989,1.03901,0.0358497,0.0420969,1308,351,1.62866,1.51755
91,673,1.50647,-1.58139,0.0328805,0.0489541,0.0156484,0.0585088,0.0233258,1.02263,0.0340105,0.0439746,1315,351,1.5065,1.58138
98,673,1.52197,-1.65015,0.026672,0.0441827,0.0161518,0.0537995,0.0170552,1.03376,0.031747,0.0455397,1322,351,1.52194,1.65015
105,673,1.72046,-1.70874,0.0226319,0.0425029,0.0129667,0.0489029,0.0162319,1.1123,0.028761,0.0427837,1329,351,1.72052,1.70875
112,673,1.98804,-1.47461,0.02111,0.038947,0.00981195,0.0432879,0.016769,1.15426,0.0252027,0.0410721,1336,351,1.98799,1.4746
119,673,1.96082,-1.44354,0.0200557,0.0346434,0.00691349,0.0373992,0.0172999,1.19148,0.0216126,0.0400647,1343,351,1.96078,1.44353
126,673,1.61743,-1.5195,0.0206139,0.0288604,0.00499526,0.0312144,0.01826,1.13043,0.0181082,0.0376562,1350,351,1.61737,1.5195
133,673,1.51855,-1.55981,0.0201551,0.0212386,0.00229887,0.0230587,0.018335,0.901112,0.0140648,0.0385143,1357,351,1.51852,1.55982
140,673,1.55542,-1.54706,0.0188202,0.0129931,-0.000854247,0.0189428,0.0128705,-0.142603,0.0111689,0.0396028,1364,351,1.55546,1.54706
147,673,1.51685,-1.60199,0.0230463,0.00785759,0.00205995,0.0233207,0.00758317,0.132437,0.0137359,0.039364,1371,351,1.51685,1.60198
154,673,1.5885,-1.49228,0.0270824,0.00563418,0.0068285,0.0290718,0.00364472,0.2835,0.0182878,0.0408229,1378,351,1.58851,1.49228
161,673,1.98108,-1.28708,0.0295877,-0.00882746,0.00822899,0.0312763,-0.010516,0.202383,0.0251015,0.0458234,1385,351,1.98114,1.28709
168,673,2.5835,-1.88004,0.030944,-0.00834095,0.00946019,0.0331034,-0.0105004,0.224418,0.0262779,0.049908,1392,351,2.58344,1.88003
175,673,3.07288,-1.63983,0,0,0,0,0,0,0,-1,1399,351,3.07293,1.63982
182,673,2.96094,-1.16995,0,0,0,0,0,0,0,-1,1406,351,2.96091,1.16995
189,673,2.82495,-1.20071,0,0,0,0,0,0,0,-1,1413,351,2.825,1.20071
196,673,2.70288,-1.84808,0,0,0,0,0,0,0,-1,1420,351,2.70285,1.84807
203,673,2.50146,-0.979462,0,0,0,0,0,0,0,-1,1427,351,2.50149,0.979456
210,673,2.24487,-1.0423,0,0,0,0,0,0,0,-1,1434,351,2.2449,1.04231
217,673,1.11572,-0.7677,0,0,0,0,0,0,0,-1,1441,351,1.11576,0.767707
224,673,0.103516,-0.101654,0,0,0,0,0,0,0,-1,1448,351,0.103456,0.101646
231,673,0.28418,0.15741,0,0,0,0,0,0,0,-1,1455,351,0.284156,-0.157411
238,673,1.04504,0.220551,0,0,0,0,0,0,0,-1,1462,351,1.04499,-0.220556
245,673,2.31653,-0.11618,0,0,0,0,0,0,0,-1,1469,351,2.31656,0.116177
252,673,2.9375,0.132202,0,0,0,0,0,0,0,-1,1476,351,2.93755,-0.132207
259,673,3.49915,0.338928,0.0453638,0.0579653,0.00853064,0.0622698,0.0410593,1.10348,0.0365552,0.0447871,1483,351,3.49918,-0.338943
266,673,4.1106,0.459839,0.0401209,0.0541747,0.00727755,0.0572641,0.0370314,1.16934,0.0335323,0.041362,1490,351,4.11058,-0.459849
273,673,4.4989,0.285034,0.0312423,0.0477568,0.00503754,0.0491721,0.0298269,1.2969,0.0286037,0.0418824,1497,351,4.49889,-0.285041
280,673,4.88293,0.145844,0.0204092,0.0398442,0.00153439,0.0399645,0.0202888,1.49249,0.0230744,0.0449044,1504,351,4.88291,-0.145834
287,673,3.56726,-1.69293,0.00745458,0.0314042,-0.00389771,0.0320226,0.00683621,-1.41346,0.0194738,0.047145,1511,351,3.56723,1.69294
294,673,3.46753,-2.30981,0,0,0,0,0,0,0,-1,1518,351,3.46757,2.30983
301,673,0,0,0,0,0,0,0,0,0,-1,1525,351,0,0
308,673,0,0,0,0,0,0,0,0,0,-1,1532,351,0,0
315,673,0,0,0,0,0,0,0,0,0,-1,1539,351,0,0
322,673,0,0,0,0,0,0,0,0,0,-1,1546,351,0,0
329,673,0,0,0,0,0,0,0,0,0,-1,1553,351,0,0
336,673,0,0,0,0,0,0,0,0,0,-1,1560,351,0,0
343,673,0,0,0,0,0,0,0,0,0,-1,1567,351,0,0
350,673,0,0,0,0,0,0,0,0,0,-1,1574,351,0,0
357,673,0,0,0,0,0,0,0,0,0,-1,1581,351,0,0
364,673,0,0,0,0,0,0,0,0,0,-1,1588,351,0,0
371,673,0,0,0,0,0,0,0,0,0,-1,1595,351,0,0
378,673,0,0,0,0,0,0,0,0,0,-1,1602,351,0,0
385,673,0,0,0,0,0,0,0,0,0,-1,1609,351,0,0
392,673,0,0,0,0,0,0,0,0,0,-1,1616,351,0,0
399,673,0,0,0,0,0,0,0,0,0,-1,1623,351,0,0
406,673,0,0,0,0,0,0,0,0,0,-1,1630,351,0,0
413,673,0,0,0,0,0,0,0,0,0,-1,1637,351,0,0
420,673,0,0,0,0,0,0,0,0,0,-1,1644,351,0,0
427,673,0,0,0,0,0,0,0,0,0,-1,1651,351,0,0
434,673,0,0,0,0,0,0,0,0,0,-1,1658,351,0,0
441,673,0,0,0,0,0,0,0,0,0,-1,1665,351,0,0
448,673,0,0,0,0,0,0,0,0,0,-1,1672,351,0,0
455,673,0,0,0,0,0,0,0,0,0,-1,1679,351,0,0
462,673,0,0,0,0,0,0,0,0,0,-1,1686,351,0,0
469,673,0,0,0,0,0,0,0,0,0,-1,1693,351,0,0
476,673,0,0,0,0,0,0,0,0,0,-1,1700,351,0,0
483,673,0,0,0,0,0,0,0,0,0,-1,1707,351,0,0
490,673,0,0,0,0,0,0,0,0,0,-1,1714,351,0,0
497,673,0,0,0,0,0,0,0,0,0,-1,1721,351,0,0
504,673,0,0,0,0,0,0,0,0,0,-1,1728,351,0,0
511,673,0,0,0,0,0,0,0,0,0,-1,1735,351,0,0
518,673,0,0,0,0,0,0,0,0,0,-1,1742,351,0,0
525,673,0,0,0,0,0,0,0,0,0,-1,1749,351,0,0
532,673,0,0,0,0,0,0,0,0,0,-1,1756,351,0,0
539,673,0,0,0,0,0,0,0,0,0,-1,1763,351,0,0
546,673,0,0,0,0,0,0,0,0,0,-1,1770,351,0,0
553,673,0,0,0,0,0,0,0,0,0,-1,1777,351,0,0
560,673,0,0,0,0,0,0,0,0,0,-1,1784,351,0,0
567,673,0,0,0,0,0,0,0,0,0,-1,1791,351,0,0
574,673,0,0,0,0,0,0,0,0,0,-1,1798,351,0,0
581,673,0,0,0,0,0,0,0,0,0,-1,1805,351,0,0
588,673,0,0,0,0,0,0,0,0,0,-1,1812,351,0,0
595,673,0,0,0,0,0,0,0,0,0,-1,1819,351,0,0
602,673,0,0,0,0,0,0,0,0,0,-1,1826,351,0,0
609,673,0,0,0,0,0,0,0,0,0,-1,1833,351,0,0
616,673,0,0,0,0,0,0,0,0,0,-1,1840,351,0,0
623,673,0,0,0,0,0,0,0,0,0,-1,1847,351,0,0
630,673,0,0,0,0,0,0,0,0,0,-1,1854,351,0,0
637,673,0,0,0,0,0,0,0,0,0,-1,1861,351,0,0
644,673,0,0,0,0,0,0,0,0,0,-1,1868,351,0,0
651,673,0,0,0,0,0,0,0,0,0,-1,1875,351,0,0
658,673,0,0,0,0,0,0,0,0,0,-1,1882,351,0,0
665,673,0,0,0,0,0,0,0,0,0,-1,1889,351,0,0
672,673,0,0,0,0,0,0,0,0,0,-1,1896,351,0,0
679,673,0,0,0,0,0,0,0,0,0,-1,1903,351,0,0
686,673,0,0,0,0,0,0,0,0,0,-1,1910,351,0,0
693,673,0,0,0,0,0,0,0,0,0,-1,1917,351,0,0
700,673,0,0,0,0,0,0,0,0,0,-1,1924,351,0,0
707,673,0,0,0,0,0,0,0,0,0,-1,1931,351,0,0
714,673,0,0,0,0,0,0,0,0,0,-1,1938,351,0,0
721,673,0,0,0,0,0,0,0,0,0,-1,1945,351,0,0
728,673,0,0,0,0,0,0,0,0,0,-1,1952,351,0,0
735,673,0,0,0,0,0,0,0,0,0,-1,1959,351,0,0
742,673,0,0,0,0,0,0,0,0,0,-1,1966,351,0,0
749,673,0,0,0,0,0,0,0,0,0,-1,1973,351,0,0
756,673,0,0,0,0,0,0,0,0,0,-1,1980,351,0,0
763,673,0,0,0,0,0,0,0,0,0,-1,1987,351,0,0
770,673,0,0,0,0,0,0,0,0,0,-1,1994,351,0,0
777,673,0,0,0,0,0,0,0,0,0,-1,2001,351,0,0
784,673,0,0,0,0,0,0,0,0,0,-1,2008,351,0,0
791,673,0,0,0,0,0,0,0,0,0,-1,2015,351,0,0
798,673,0,0,0,0,0,0,0,0,0,-1,2022,351,0,0
805,673,0,0,0,0,0,0,0,0,0,-1,2029,351,0,0
812,673,0,0,0,0,0,0,0,0,0,-1,2036,351,0,0
-700,666,0,0,0,0,0,0,0,0,0,-1,524,358,0,0
-693,666,0,0,0,0,0,0,0,0,0,-1,531,358,0,0
-686,666,0,0,0,0,0,0,0,0,0,-1,538,358,0,0
-679,666,0,0,0,0,0,0,0,0,0,-1,545,358,0,0
-672,666,0,0,0,0,0,0,0,0,0,-1,552,358,0,0
-665,666,0,0,0,0,0,0,0,0,0,-1,559,358,0,0
-658,666,0,0,0,0,0,0,0,0,0,-1,566,358,0,0
-651,666,0,0,0,0,0,0,0,0,0,-1,573,358,0,0
-644,666,0,0,0,0,0,0,0,0,0,-1,580,358,0,0
-637,666,0,0,0,0,0,0,0,0,0,-1,587,358,0,0
-630,666,0,0,0,0,0,0,0,0,0,-1,594,358,0,0
-623,666,0,0,0,0,0,0,0,0,0,-1,601,358,0,0
-616,666,0,0,0,0,0,0,0,0,0,-1,608,358,0,0
-609,666,0,0,0,0,0,0,0,0,0,-1,615,358,0,0
-602,666,0,0,0,0,0,0,0,0,0,-1,622,358,0,0
-595,666,0,0,0,0,0,0,0,0,0,-1,629,358,0,0
-588,666,0,0,0,0,0,0,0,0,0,-1,636,358,0,0
-581,666,0,0,0,0,0,0,0,0,0,-1,643,358,0,0
-574,666,0,0,0,0,0,0,0,0,0,-1,650,358,0,0
-567,666,0,0,0,0,0,0,0,0,0,-1,657,358,0,0
-560,666,0,0,0,0,0,0,0,0,0,-1,664,358,0,0
-553,666,0,0,0,0,0,0,0,0,0,-1,671,358,0,0
-546,666,0,0,0,0,0,0,0,0,0,-1,678,358,0,0
-539,666,0,0,0,0,0,0,0,0,0,-1,685,358,0,0
-532,666,0,0,0,0,0,0,0,0,0,-1,692,358,0,0
-525,666,0,0,0,0,0,0,0,0,0,-1,699,358,0,0
-518,666,0,0,0,0,0,0,0,0,0,-1,706,358,0,0
-511,666,0,0,0,0,0,0,0,0,0,-1,713,358,0,0
-504,666,0,0,0,0,0,0,0,0,0,-1,720,358,0,0
-497,666,0,0,0,0,0,0,0,0,0,-1,727,358,0,0
-490,666,0,0,0,0,0,0,0,0,0,-1,734,358,0,0
-483,666,0,0,0,0,0,0,0,0,0,-1,741,358,0,0
-476,666,0,0,0,0,0,0,0,0,0,-1,748,358,0,0
-469,666,0,0,0,0,0,0,0,0,0,-1,755,358,0,0
-462,666,0,0,0,0,0,0,0,0,0,-1,762,358,0,0
-455,666,0,0,0,0,0,0,0,0,0,-1,769,358,0,0
-448,666,0,0,0,0,0,0,0,0,0,-1,776,358,0,0
-441,666,0,0,0,0,0,0,0,0,0,-1,783,358,0,0
-434,666,0,0,0,0,0,0,0,0,0,-1,790,358,0,0
-427,666,0,0,0,0,0,0,0,0,0,-1,797,358,0,0
-420,666,0,0,0,0,0,0,0,0,0,-1,804,358,0,0
-413,666,0,0,0,0,0,0,0,0,0,-1,811,358,0,0
-406,666,0,0,0,0,0,0,0,0,0,-1,818,358,0,0
-399,666,0,0,0,0,0,0,0,0,0,-1,825,358,0,0
-392,666,0,0,0,0,0,0,0,0,0,-1,832,358,0,0
-385,666,0,0,0,0,0,0,0,0,0,-1,839,358,0,0
-378,666,0,0,0,0,0,0,0,0,0,-1,846,358,0,0
-371,666,0,0,0,0,0,0,0,0,0,-1,853,358,0,0
-364,666,0,0,0,0,0,0,0,0,0,-1,860,358,0,0
-357,666,0,0,0,0,0,0,0,0,0,-1,867,358,0,0
-350,666,0,0,0,0,0,0,0,0,0,-1,874,358,0,0
-343,666,0,0,0,0,0,0,0,0,0,-1,881,358,0,0
-336,666,0,0,0,0,0,0,0,0,0,-1,888,358,0,0
-329,666,0,0,0,0,0,0,0,0,0,-1,895,358,0,0
-322,666,0,0,0,0,0,0,0,0,0,-1,902,358,0,0
-315,666,0,0,0,0,0,0,0,0,0,-1,909,358,0,0
-308,666,0,0,0,0,0,0,0,0,0,-1,916,358,0,0
-301,666,0,0,0,0,0,0,0,0,0,-1,923,358,0,0
-294,666,0,0,0,0,0,0,0,0,0,-1,930,358,0,0
-287,666,0,0,0,0,0,0,0,0,0,-1,937,358,0,0
-280,666,0,0,0,0,0,0,0,0,0,-1,944,358,0,0
-273,666,0,0,0,0,0,0,0,0,0,-1,951,358,0,0
-266,666,0,0,0,0,0,0,0,0,0,-1,958,358,0,0
-259,666,0,0,0,0,0,0,0,0,0,-1,965,358,0,0
-252,666,0,0,0,0,0,0,0,0,0,-1,972,358,0,0
-245,666,0,0,0,0,0,0,0,0,0,-1,979,358,0,0
-238,666,0,0,0,0,0,0,0,0,0,-1,986,358,0,0
-231,666,0,0,0,0,0,0,0,0,0,-1,993,358,0,0
-224,666,0,0,0,0,0,0,0,0,0,-1,1000,358,0,0
-217,666,0,0,0,0,0,0,0,0,0,-1,1007,358,0,0
-210,666,0,0,0,0,0,0,0,0,0,-1,1014,358,0,0
-203,666,0,0,0,0,0,0,0,0,0,-1,1021,358,0,0
-196,666,-0.227051,-0.174988,0,0,0,0,0,0,0,-1,1028,358,-0.22699,0.174975
-189,666,2.23621,0.0508728,0,0,0,0,0,0,0,-1,1035,358,2.23618,-0.0508779
-182,666,1.37671,-2.00034,0,0,0,0,0,0,0,-1,1042,358,1.37676,2.00032
-175,666,1.12109,-1.771,-0.0535151,0.00815303,0.00130628,0.00818069,-0.0535427,1.54963,0.0387112,0.0444535,1049,358,1.12114,1.77099
-168,666,0.811768,-1.43625,-0.0519178,0.00739427,0.000659702,0.00740161,-0.0519251,1.55968,0.0373293,0.0429423,1056,358,0.811812,1.43625
-161,666,0.912109,-1.44821,-0.0518348,0.00515053,-0.000219701,0.00515138,-0.0518356,-1.56694,0.0363959,0.0459212,1063,358,0.912118,1.44822
-154,666,0.606079,-1.45068,0,0,0,0,0,0,0,-1,1070,358,0.60603,1.45069
-147,666,1.85046,-1.98334,-0.0513499,-0.00107044,-0.00523483,-0.0005312,-0.0518891,-1.46815,0.034417,0.0436237,1077,358,1.85042,1.98333
-140,666,0.983765,-1.62122,-0.0503587,-0.00420945,-0.00920703,-0.00244041,-0.0521277,-1.38097,0.0339676,0.0463212,1084,358,0.98377,1.62122
-133,666,0.339722,-1.24194,-0.0495449,-0.00708665,-0.0131075,-0.0033662,-0.0532654,-1.29423,0.0344431,0.0438729,1091,358,0.339775,1.24193
-126,666,-0.14624,-1.0278,-0.0482677,-0.00964231,-0.016833,-0.00333608,-0.054574,-1.21235,0.0353232,0.0418378,1098,358,-0.146284,1.02779
-119,666,-0.539673,-1.08676,-0.0475539,-0.0115799,-0.0202334,-0.00249438,-0.0566395,-1.14874,0.0369563,0.0432429,1105,358,-0.539701,1.08678
-112,666,-1.27759,-1.00864,0,0,0,0,0,0,0,-1,1112,358,-1.27755,1.00863
-105,666,-0.489014,-1.48349,-0.0460397,-0.0119518,-0.0220512,-0.00112544,-0.0568661,-1.1144,0.0375412,0.0451252,1119,358,-0.489073,1.4835
-98,666,-0.70874,-1.28345,-0.044499,-0.0105419,-0.0208725,-0.000614434,-0.0544264,-1.12684,0.0360812,0.0459508,1126,358,-0.708696,1.28346
-91,666,-0.772461,-1.09232,-0.042468,-0.00923926,-0.0195895,-0.000167303,-0.0515399,-1.1371,0.0343043,0.046599,1133,358,-0.772441,1.09231
-84,666,-0.758301,-1.07599,0,0,0,0,0,0,0,-1,1140,358,-0.758259,1.07599
-77,666,2.19958,-1.35904,-0.0374208,-0.00395398,-0.0148423,0.00168001,-0.0430548,-1.20801,0.0292792,0.0405957,1147,358,2.1996,1.35904
-70,666,2.03455,-1.32083,-0.0331157,-0.00142727,-0.0113997,0.00224755,-0.0367905,-1.25895,0.0253095,0.0399567,1154,358,2.03452,1.32082
-63,666,0.982544,-1.37335,-0.0306599,0.0037001,-0.00860635,0.00573524,-0.032695,-1.33859,0.0239385,0.0459745,1161,358,0.98249,1.37335
-56,666,0.217163,-1.33667,0,0,0,0,0,0,0,-1,1168,358,0.217117,1.33668
-49,666,-0.715088,0.0303955,0,0,0,0,0,0,0,-1,1175,358,-0.715081,-0.0304007
-42,666,1.36938,-1.47595,0,0,0,0,0,0,0,-1,1182,358,1.36941,1.47594
-35,666,1.68665,-1.55322,0,0,0,0,0,0,0,-1,1189,358,1.68668,1.55323
-28,666,1.32446,-1.38559,-0.00737063,0.0396817,-0.0143803,0.0437285,-0.0114175,-1.29647,0.033611,0.0463321,1196,358,1.32451,1.38558
-21,666,1.75525,-1.44455,-0.00312004,0.0482801,-0.0188258,0.0544376,-0.00927753,-1.25469,0.0397468,0.0309699,1203,358,1.75524,1.44455
-14,666,1.76025,-1.47662,0.00314992,0.0567016,-0.0234396,0.0655118,-0.00566021,-1.21127,0.0456783,0.0254792,1210,358,1.76022,1.47661
-7,666,1.78137,-1.48651,0.0105611,0.0656237,-0.0286374,0.0778174,-0.0016326,-1.16825,0.0524309,0.01776,1217,358,1.78138,1.48652
0,666,1.8114,-1.46976,0.0167291,0.0712535,-0.0318756,0.0859351,0.00204749,-1.13917,0.0566199,0.0120817,1224,358,1.81141,1.46974
7,666,1.76233,-1.47147,0.021786,0.07483,-0.0331452,0.0907583,0.00585776,-1.12282,0.0586505,0.0151046,1231,358,1.76227,1.47148
14,666,1.73462,-1.48566,0.0259594,0.0754844,-0.0322895,0.0914133,0.0100305,-1.11251,0.0578891,0.0159625,1238,358,1.73456,1.48564
21,666,1.75781,-1.4805,0.0288286,0.0746591,-0.0302097,0.0896613,0.0138263,-1.10987,0.05574,0.0122794,1245,358,1.75778,1.48051
28,666,1.76721,-1.47736,0.0310121,0.0728386,-0.0262859,0.0855157,0.018335,-1.12143,0.0519879,0.0120481,1252,358,1.76716,1.47735
35,666,1.77271,-1.50269,0.0335528,0.0703747,-0.0206654,0.0796409,0.0242867,-1.14928,0.0471324,0.0107031,1259,358,1.77276,1.50269
42,666,1.75134,-1.51877,0.0358457,0.0664758,-0.015571,0.0730012,0.0293202,-1.17395,0.0424182,0.0112876,1266,358,1.7513,1.51876
49,666,1.73291,-1.50766,0.0363358,0.0607329,-0.0103667,0.0645429,0.0325258,-1.2186,0.0372642,0.0100778,1273,358,1.73288,1.50767
56,666,1.74524,-1.51236,0.0365972,0.0572383,-0.00468391,0.0582515,0.035584,-1.35777,0.033906,0.0117336,1280,358,1.74518,1.51236
63,666,1.74231,-1.53671,0.0349753,0.0520294,0.0011191,0.0521025,0.0349022,1.50555,0.0306547,0.0124566,1287,358,1.74232,1.53672
70,666,1.71802,-1.53958,0.0314326,0.0469394,0.00651024,0.0493101,0.0290619,1.22156,0.0286204,0.0128023,1294,358,1.71796,1.53958
77,666,1.71472,-1.51553,0.0282655,0.0425948,0.00982768,0.0475922,0.0232681,1.10037,0.0274796,0.0164243,1301,358,1.71476,1.51554
84,666,1.68237,-1.50537,0.0266719,0.0383434,0.0113607,0.0452796,0.0197357,1.02266,0.0262138,0.0217811,1308,358,1.6824,1.50538
91,666,1.68347,-1.50812,0.023699,0.0346999,0.0120621,0.0424565,0.0159424,0.999317,0.0247643,0.0211819,1315,358,1.68345,1.50812
98,666,1.70203,-1.49277,0.0193205,0.0308668,0.0122493,0.0386352,0.011552,1.00561,0.022899,0.0196665,1322,358,1.70207,1.49276
105,666,1.69922,-1.46231,0.0164139,0.0290467,0.00979672,0.0343867,0.0110739,1.07173,0.020268,0.0199978,1329,358,1.69916,1.46231
112,666,1.69958,-1.46152,0.0152097,0.0258621,0.00734423,0.0296082,0.0114636,1.09913,0.0172387,0.021659,1336,358,1.69953,1.46152
119,666,1.69543,-1.45587,0.0144027,0.0220782,0.00517725,0.024685,0.0117959,1.10434,0.0142565,0.0234233,1343,358,1.69543,1.45587
126,666,1.68579,-1.43243,0.0148097,0.0172543,0.00374023,0.0199669,0.0120971,0.94333,0.0116137,0.0238208,1350,358,1.68581,1.43244
133,666,1.66382,-1.44168,0.0144332,0.0115931,0.00180666,0.0153111,0.0107152,0.452323,0.00907217,0.0216058,1357,358,1.66381,1.44169
140,666,1.66943,-1.48337,0.0134848,0.00558042,-0.000380553,0.0135031,0.00556214,-0.0479968,0.00783621,0.0197336,1364,358,1.66945,1.48337
147,666,1.71582,-1.46722,0.0163756,0.00261631,0.00179387,0.0166056,0.00238628,0.127536,0.0103669,0.019186,1371,358,1.71584,1.46721
154,666,1.71118,-1.41367,0.0189509,0.00146227,0.00500716,0.020283,0.000130147,0.260022,0.0134788,0.019272,1378,358,1.71112,1.41368
161,666,1.74011,-1.42252,0.0203634,-0.006165,0.00620271,0.0217421,-0.00754363,0.218708,0.017558,0.0235871,1385,358,1.74017,1.42251
168,666,1.93652,-1.47607,0.0209596,-0.00572478,0.0072011,0.0227789,-0.00754405,0.24746,0.0182286,0.0365145,1392,358,1.93653,1.47607
175,666,2.28125,-1.5098,0.019809,-0.0035508,0.00775361,0.0221483,-0.00589013,0.293023,0.017071,0.0420261,1399,358,2.28123,1.50979
182,666,1.90027,-1.54572,0,0,0,0,0,0,0,-1,1406,358,1.90021,1.54571
189,666,1.81555,-1.44995,0,0,0,0,0,0,0,-1,1413,358,1.81549,1.44996
196,666,2.17334,-1.47238,0.0171391,0.010854,0.00703912,0.0217053,0.00628779,0.575454,0.0128958,0.0406618,1420,358,2.17338,1.47238
203,666,2.08875,-1.19553,0.0179851,0.0181754,0.00769172,0.0257726,0.010388,0.791583,0.0149727,0.0471797,1427,358,2.08875,1.19553
210,666,1.87708,-1.33179,0.0197199,0.0241275,0.00738989,0.0296352,0.0142122,0.930309,0.0171147,0.0425679,1434,358,1.87706,1.33178
217,666,1.47229,-1.10309,0,0,0,0,0,0,0,-1,1441,358,1.47224,1.10308
224,666,0.894409,-0.644562,0.0263689,0.0384662,0.00593446,0.0408912,0.0239439,1.18286,0.0237235,0.0431732,1448,358,0.894357,0.644575
231,666,0.771973,-0.369965,0.0309299,0.0461482,0.00669954,0.0486772,0.0284009,1.20984,0.028234,0.0446026,1455,358,0.772001,0.369978
238,666,1.30481,-0.46167,0.0339878,0.0486844,0.00650918,0.0511528,0.0315195,1.20834,0.0297977,0.0482,1462,358,1.30484,0.461683
245,666,2.12732,-0.598022,0.0360953,0.0489799,0.00788081,0.0527165,0.0323587,1.12805,0.0306977,0.0480658,1469,358,2.1273,0.598013
252,666,2.83423,-0.10907,0.0360045,0.0484174,0.00782987,0.0522023,0.0322196,1.12052,0.0304138,0.0479132,1476,358,2.83419,0.109072
259,666,3.47742,0.088501,0.0338586,0.0446662,0.0074669,0.0484795,0.0300452,1.09863,0.028256,0.046128,1483,358,3.47745,-0.0885093
266,666,4.08521,0.0653076,0.0301187,0.0423315,0.00626195,0.0449715,0.0274787,1.17181,0.0261768,0.0469504,1490,358,4.08523,-0.0653192
273,666,4.44214,-0.0153809,0,0,0,0,0,0,0,-1,1497,358,4.44214,0.0153819
280,666,2.9823,-1.03427,0.0154733,0.0317032,0.002048,0.0319576,0.0152189,1.44719,0.0184577,0.040593,1504,358,2.98233,1.03427
287,666,2.95227,-1.68588,0.00579988,0.025474,-0.00197686,0.0256707,0.00560321,-1.47164,0.0155855,0.0429733,1511,358,2.95222,1.68589
294,666,3.22644,-2.73718,-0.00437155,0.02022,-0.00799697,0.0225918,-0.00674335,-1.28247,0.0177414,0.0477585,1518,358,3.22648,2.73717
301,666,1.34534,-1.91937,-0.0143394,0.0163914,-0.0156067,0.0229272,-0.0208752,-1.1742,0.0252986,0.0466724,1525,358,1.34534,1.91936
308,666,1.08496,-1.87576,-0.0190157,0.0155086,-0.0252934,0.028869,-0.0323761,-1.08483,0.0353792,0.0480621,1532,358,1.08491,1.87575
315,666,0.67981,-1.57803,0,0,0,0,0,0,0,-1,1539,358,0.679754,1.57803
322,666,0,0,0,0,0,0,0,0,0,-1,1546,358,0,0
329,666,0,0,0,0,0,0,0,0,0,-1,1553,358,0,0
336,666,0,0,0,0,0,0,0,0,0,-1,1560,358,0,0
343,666,0,0,0,0,0,0,0,0,0,-1,1567,358,0,0
350,666,0,0,0,0,0,0,0,0,0,-1,1574,358,0,0
357,666,0,0,0,0,0,0,0,0,0,-1,1581,358,0,0
364,666,0,0,0,0,0,0,0,0,0,-1,1588,358,0,0
371,666,0,0,0,0,0,0,0,0,0,-1,1595,358,0,0
378,666,0,0,0,0,0,0,0,0,0,-1,1602,358,0,0
385,666,0,0,0,0,0,0,0,0,0,-1,1609,358,0,0
392,666,0,0,0,0,0,0,0,0,0,-1,1616,358,0,0
399,666,0,0,0,0,0,0,0,0,0,-1,1623,358,0,0
406,666,0,0,0,0,0,0,0,0,0,-1,1630,358,0,0
413,666,0,0,0,0,0,0,0,0,0,-1,1637,358,0,0
420,666,0,0,0,0,0,0,0,0,0,-1,1644,358,0,0
427,666,0,0,0,0,0,0,0,0,0,-1,1651,358,0,0
434,666,0,0,0,0,0,0,0,0,0,-1,1658,358,0,0
441,666,0,0,0,0,0,0,0,0,0,-1,1665,358,0,0
448,666,0,0,0,0,0,0,0,0,0,-1,1672,358,0,0
455,666,0,0,0,0,0,0,0,0,0,-1,1679,358,0,0
462,666,0,0,0,0,0,0,0,0,0,-1,1686,358,0,0
469,666,0,0,0,0,0,0,0,0,0,-1,1693,358,0,0
476,666,0,0,0,0,0,0,0,0,0,-1,1700,358,0,0
483,666,0,0,0,0,0,0,0,0,0,-1,1707,358,0,0
490,666,0,0,0,0,0,0,0,0,0,-1,1714,358,0,0
497,666,0,0,0,0,0,0,0,0,0,-1,1721,358,0,0
504,666,0,0,0,0,0,0,0,0,0,-1,1728,358,0,0
511,666,0,0,0,0,0,0,0,0,0,-1,1735,358,0,0
518,666,0,0,0,0,0,0,0,0,0,-1,1742,358,0,0
525,666,0,0,0,0,0,0,0,0,0,-1,1749,358,0,0
532,666,0,0,0,0,0,0,0,0,0,-1,1756,358,0,0
539,666,0,0,0,0,0,0,0,0,0,-1,1763,358,0,0
546,666,0,0,0,0,0,0,0,0,0,-1,1770,358,0,0
553,666,0,0,0,0,0,0,0,0,0,-1,1777,358,0,0
560,666,0,0,0,0,0,0,0,0,0,-1,1784,358,0,0
567,666,0,0,0,0,0,0,0,0,0,-1,1791,358,0,0
574,666,0,0,0,0,0,0,0,0,0,-1,1798,358,0,0
581,666,0,0,0,0,0,0,0,0,0,-1,1805,358,0,0
588,666,0,0,0,0,0,0,0,0,0,-1,1812,358,0,0
595,666,0,0,0,0,0,0,0,0,0,-1,1819,358,0,0
602,666,0,0,0,0,0,0,0,0,0,-1,1826,358,0,0
609,666,0,0,0,0,0,0,0,0,0,-1,1833,358,0,0
616,666,0,0,0,0,0,0,0,0,0,-1,1840,358,0,0
623,666,0,0,0,0,0,0,0,0,0,-1,1847,358,0,0
630,666,0,0,0,0,0,0,0,0,0,-1,1854,358,0,0
637,666,0,0,0,0,0,0,0,0,0,-1,1861,358,0,0
644,666,0,0,0,0,0,0,0,0,0,-1,1868,358,0,0
651,666,0,0,0,0,0,0,0,0,0,-1,1875,358,0,0
658,666,0,0,0,0,0,0,0,0,0,-1,1882,358,0,0
665,666,0,0,0,0,0,0,0,0,0,-1,1889,358,0,0
672,666,0,0,0,0,0,0,0,0,0,-1,1896,358,0,0
679,666,0,0,0,0,0,0,0,0,0,-1,1903,358,0,0
686,666,0,0,0,0,0,0,0,0,0,-1,1910,358,0,0
693,666,0,0,0,0,0,0,0,0,0,-1,1917,358,0,0
700,666,0,0,0,0,0,0,0,0,0,-1,1924,358,0,0
707,666,0,0,0,0,0,0,0,0,0,-1,1931,358,0,0
714,666,0,0,0,0,0,0,0,0,0,-1,1938,358,0,0
721,666,0,0,0,0,0,0,0,0,0,-1,1945,358,0,0
728,666,0,0,0,0,0,0,0,0,0,-1,1952,358,0,0
735,666,0,0,0,0,0,0,0,0,0,-1,1959,358,0,0
742,666,0,0,0,0,0,0,0,0,0,-1,1966,358,0,0
749,666,0,0,0,0,0,0,0,0,0,-1,1973,358,0,0
756,666,0,0,0,0,0,0,0,0,0,-1,1980,358,0,0
763,666,0,0,0,0,0,0,0,0,0,-1,1987,358,0,0
770,666,0,0,0,0,0,0,0,0,0,-1,1994,358,0,0
777,666,0,0,0,0,0,0,0,0,0,-1,2001,358,0,0
784,666,0,0,0,0,0,0,0,0,0,-1,2008,358,0,0
791,666,0,0,0,0,0,0,0,0,0,-1,2015,358,0,0
798,666,0,0,0,0,0,0,0,0,0,-1,2022,358,0,0
805,666,0,0,0,0,0,0,0,0,0,-1,2029,358,0,0
812,666,0,0,0,0,0,0,0,0,0,-1,2036,358,0,0
-700,659,0,0,0,0,0,0,0,0,0,-1,524,365,0,0
-693,659,0,0,0,0,0,0,0,0,0,-1,531,365,0,0
-686,659,0,0,0,0,0,0,0,0,0,-1,538,365,0,0
-679,659,0,0,0,0,0,0,0,0,0,-1,545,365,0,0
-672,659,0,0,0,0,0,0,0,0,0,-1,552,365,0,0
-665,659,0,0,0,0,0,0,0,0,0,-1,559,365,0,0
-658,659,0,0,0,0,0,0,0,0,0,-1,566,365,0,0
-651,659,0,0,0,0,0,0,0,0,0,-1,573,365,0,0
-644,659,0,0,0,0,0,0,0,0,0,-1,580,365,0,0
-637,659,0,0,0,0,0,0,0,0,0,-1,587,365,0,0
-630,659,0,0,0,0,0,0,0,0,0,-1,594,365,0,0
-623,659,0,0,0,0,0,0,0,0,0,-1,601,365,0,0
-616,659,0,0,0,0,0,0,0,0,0,-1,608,365,0,0
-609,659,0,0,0,0,0,0,0,0,0,-1,615,365,0,0
-602,659,0,0,0,0,0,0,0,0,0,-1,622,365,0,0
-595,659,0,0,0,0,0,0,0,0,0,-1,629,365,0,0
-588,659,0,0,0,0,0,0,0,0,0,-1,636,365,0,0
-581,659,0,0,0,0,0,0,0,0,0,-1,643,365,0,0
-574,659,0,0,0,0,0,0,0,0,0,-1,650,365,0,0
-567,659,0,0,0,0,0,0,0,0,0,-1,657,365,0,0
-560,659,0,0,0,0,0,0,0,0,0,-1,664,365,0,0
-553,659,0,0,0,0,0,0,0,0,0,-1,671,365,0,0
-546,659,0,0,0,0,0,0,0,0,0,-1,678,365,0,0
-539,659,0,0,0,0,0,0,0,0,0,-1,685,365,0,0
-532,659,0,0,0,0,0,0,0,0,0,-1,692,365,0,0
-525,659,0,0,0,0,0,0,0,0,0,-1,699,365,0,0
-518,659,0,0,0,0,0,0,0,0,0,-1,706,365,0,0
-511,659,0,0,0,0,0,0,0,0,0,-1,713,365,0,0
-504,659,0,0,0,0,0,0,0,0,0,-1,720,365,0,0
-497,659,0,0,0,0,0,0,0,0,0,-1,727,365,0,0
-490,659,0,0,0,0,0,0,0,0,0,-1,734,365,0,0
-483,659,0,0,0,0,0,0,0,0,0,-1,741,365,0,0
-476,659,0,0,0,0,0,0,0,0,0,-1,748,365,0,0
-469,659,0,0,0,0,0,0,0,0,0,-1,755,365,0,0
-462,659,0,0,0,0,0,0,0,0,0,-1,762,365,0,0
-455,659,0,0,0,0,0,0,0,0,0,-1,769,365,0,0
-448,659,0,0,0,0,0,0,0,0,0,-1,776,365,0,0
-441,659,0,0,0,0,0,0,0,0,0,-1,783,365,0,0
-434,659,0,0,0,0,0,0,0,0,0,-1,790,365,0,0
-427,659,0,0,0,0,0,0,0,0,0,-1,797,365,0,0
-420,659,0,0,0,0,0,0,0,0,0,-1,804,365,0,0
-413,659,0,0,0,0,0,0,0,0,0,-1,811,365,0,0
-406,659,0,0,0,0,0,0,0,0,0,-1,818,365,0,0
-399,659,0,0,0,0,0,0,0,0,0,-1,825,365,0,0
-392,659,0,0,0,0,0,0,0,0,0,-1,832,365,0,0
-385,659,0,0,0,0,0,0,0,0,0,-1,839,365,0,0
-378,659,0,0,0,0,0,0,0,0,0,-1,846,365,0,0
-371,659,0,0,0,0,0,0,0,0,0,-1,853,365,0,0
-364,659,0,0,0,0,0,0,0,0,0,-1,860,365,0,0
-357,659,0,0,0,0,0,0,0,0,0,-1,867,365,0,0
-350,659,0,0,0,0,0,0,0,0,0,-1,874,365,0,0
-343,659,0,0,0,0,0,0,0,0,0,-1,881,365,0,0
-336,659,0,0,0,0,0,0,0,0,0,-1,888,365,0,0
-329,659,0,0,0,0,0,0,0,0,0,-1,895,365,0,0
-322,659,0,0,0,0,0,0,0,0,0,-1,902,365,0,0
-315,659,0,0,0,0,0,0,0,0,0,-1,909,365,0,0
-308,659,0,0,0,0,0,0,0,0,0,-1,916,365,0,0
-301,659,0,0,0,0,0,0,0,0,0,-1,923,365,0,0
-294,659,0,0,0,0,0,0,0,0,0,-1,930,365,0,0
-287,659,0,0,0,0,0,0,0,0,0,-1,937,365,0,0
-280,659,0,0,0,0,0,0,0,0,0,-1,944,365,0,0
-273,659,0,0,0,0,0,0,0,0,0,-1,951,365,0,0
-266,659,0,0,0,0,0,0,0,0,0,-1,958,365,0,0
-259,659,0,0,0,0,0,0,0,0,0,-1,965,365,0,0
-252,659,0,0,0,0,0,0,0,0,0,-1,972,365,0,0
-245,659,0,0,0,0,0,0,0,0,0,-1,979,365,0,0
-238,659,0,0,0,0,0,0,0,0,0,-1,986,365,0,0
-231,659,0,0,0,0,0,0,0,0,0,-1,993,365,0,0
-224,659,0,0,0,0,0,0,0,0,0,-1,1000,365,0,0
-217,659,5.98083,0.869995,0,0,0,0,0,0,0,-1,1007,365,5.98085,-0.870008
-210,659,6.79291,0.386017,0,0,0,0,0,0,0,-1,1014,365,6.79293,-0.38601
-203,659,1.5495,1.7124,0,0,0,0,0,0,0,-1,1021,365,1.54952,-1.7124
-196,659,2.15637,1.96878,0,0,0,0,0,0,0,-1,1028,365,2.15632,-1.96878
-189,659,2.06714,-2.26767,0,0,0,0,0,0,0,-1,1035,365,2.06718,2.26767
-182,659,1.7146,-2.0881,-0.0446944,0.000890438,0.00135409,0.000930624,-0.0447346,1.54113,0.0301381,0.0463786,1042,365,1.71464,2.08811
-175,659,1.45081,-1.8696,-0.0424389,0.00231842,0.00026397,0.00231998,-0.0424405,1.5649,0.0290978,0.0420651,1049,365,1.45083,1.8696
-168,659,1.17786,-1.60059,-0.040456,0.00262178,-0.000905852,0.00264082,-0.040475,-1.54978,0.0279053,0.041578,1056,365,1.17781,1.60059
-161,659,0.926147,-1.36591,-0.0395088,0.00166307,-0.00211912,0.00177185,-0.0396176,-1.51951,0.0270217,0.0455676,1063,365,0.926131,1.36591
-154,659,0.865845,-1.3569,-0.0389832,7.79579e-05,-0.00403676,0.000490773,-0.0393961,-1.46889,0.0264292,0.0476462,1070,365,0.865848,1.35689
-147,659,1.01709,-1.32071,0,0,0,0,0,0,0,-1,1077,365,1.01706,1.3207
-140,659,0.926025,-1.37085,-0.0371345,-0.00365872,-0.010315,-0.000735587,-0.0400576,-1.29465,0.0264633,0.0453284,1084,365,0.926001,1.37086
-133,659,0.386597,-0.977814,-0.0364773,-0.00537425,-0.0133927,-0.000402302,-0.0414493,-1.21532,0.0274997,0.0422509,1091,365,0.386574,0.977813
-126,659,2.17334,-1.41949,-0.0355639,-0.00692873,-0.0162558,0.000415731,-0.0429084,-1.14644,0.0287452,0.0413491,1098,365,2.17332,1.41949
-119,659,0.215942,-1.30484,-0.0351572,-0.00805425,-0.0188339,0.00159679,-0.0448083,-1.09725,0.0304184,0.0393577,1105,365,0.21589,1.30485
-112,659,0.452271,-1.38681,-0.0350901,-0.00877167,-0.0203839,0.00233161,-0.0461934,-1.07203,0.0316015,0.0398151,1112,365,0.452253,1.3868
-105,659,0.575317,-1.41849,-0.034663,-0.00833126,-0.0202843,0.0026854,-0.0456797,-1.07326,0.0313866,0.0421209,1119,365,0.575341,1.41849
-98,659,0.620728,-1.38824,0,0,0,0,0,0,0,-1,1126,365,0.620685,1.38823
-91,659,1.89954,-1.24493,-0.0324243,-0.00636266,-0.0181931,0.00298491,-0.0417719,-1.09617,0.0288943,0.0426031,1133,365,1.89952,1.24495
-84,659,1.89539,-1.25122,-0.0311596,-0.00472986,-0.0161254,0.00290383,-0.0387933,-1.12866,0.0268825,0.0388692,1140,365,1.89536,1.25122
-77,659,1.81006,-1.29691,-0.0287765,-0.00255564,-0.0142026,0.00366261,-0.0349947,-1.15811,0.0246416,0.0337509,1147,365,1.81008,1.29689
-70,659,1.83716,-1.32828,-0.0254351,-0.00077639,-0.0112923,0.00361339,-0.0298249,-1.20003,0.0211907,0.0271386,1154,365,1.8371,1.32827
-63,659,1.59094,-1.38708,-0.0232048,0.00272394,-0.00866866,0.0053551,-0.025836,-1.27611,0.0192588,0.0298067,1161,365,1.591,1.38709
-56,659,1.45496,-1.34152,-0.0205395,0.00661303,-0.00722726,0.00841689,-0.0223434,-1.3262,0.0183562,0.0326672,1168,365,1.45493,1.34151
-49,659,1.51709,-1.35397,-0.0187726,0.011378,-0.00610475,0.0125672,-0.0199617,-1.37841,0.0189416,0.0338203,1175,365,1.51711,1.35396
-42,659,1.64966,-1.45383,-0.0157863,0.0163449,-0.00627496,0.0175268,-0.0169683,-1.38461,0.0199166,0.0301663,1182,365,1.64971,1.45383
-35,659,1.75171,-1.49228,-0.00998948,0.022251,-0.00775138,0.0240178,-0.0117563,-1.34669,0.0210547,0.0203829,1189,365,1.75176,1.49227
-28,659,1.77319,-1.48117,-0.00422978,0.027506,-0.0111649,0.0310403,-0.00776407,-1.26422,0.0237092,0.0125529,1196,365,1.77321,1.48117
-21,659,1.776,-1.4686,-0.000950762,0.0333927,-0.0143025,0.0385689,-0.00612696,-1.22355,0.0279794,0.0112726,1203,365,1.77603,1.4686
-14,659,1.77466,-1.47635,0.00366903,0.0391366,-0.017478,0.046302,-0.00349635,-1.18173,0.032097,0.0088214,1210,365,1.77465,1.47634
-7,659,1.76917,-1.48981,0.00889143,0.0449566,-0.0208112,0.054461,-0.00061289,-1.14239,0.0365133,0.00899727,1217,365,1.76923,1.48981
0,659,1.75232,-1.48193,0.0130258,0.0484973,-0.0228461,0.0596839,0.00183926,-1.11546,0.0391906,0.00829917,1224,365,1.75238,1.48194
7,659,1.72742,-1.47797,0.0163051,0.0507232,-0.0235303,0.0626659,0.00436239,-1.10113,0.0404017,0.00758224,1231,365,1.72745,1.47797
14,659,1.72986,-1.48523,0.0188891,0.0510486,-0.0228519,0.0629111,0.00702666,-1.09198,0.0398058,0.0102504,1238,365,1.72982,1.48522
21,659,1.74719,-1.48712,0.0206097,0.0505596,-0.0213475,0.0616608,0.00950853,-1.09126,0.0383328,0.0110713,1245,365,1.74718,1.48712
28,659,1.75354,-1.49109,0.0218795,0.0493954,-0.0184491,0.0586515,0.0126233,-1.10578,0.0356462,0.010038,1252,365,1.75359,1.49109
35,659,1.7522,-1.50931,0.0235654,0.0480641,-0.0143563,0.0546867,0.0169428,-1.13858,0.0323257,0.0104028,1259,365,1.7522,1.5093
42,659,1.75781,-1.51544,0.0250846,0.0454715,-0.0107123,0.0500652,0.0204909,-1.16569,0.0290633,0.010983,1266,365,1.75777,1.51545
49,659,1.75623,-1.50482,0.0254293,0.0417259,-0.007009,0.0443256,0.0228295,-1.21561,0.0255953,0.0110457,1273,365,1.75621,1.50482
56,659,1.73413,-1.51572,0.025666,0.0394451,-0.00298423,0.0400636,0.0250474,-1.36642,0.0233712,0.0144354,1280,365,1.73408,1.51573
63,659,1.72791,-1.53745,0.0245481,0.0360198,0.00116214,0.0361363,0.0244316,1.47084,0.0212902,0.0154526,1287,365,1.72788,1.53745
70,659,1.74097,-1.53021,0.0219493,0.0325855,0.0049662,0.0345438,0.019991,1.1952,0.0200261,0.0165643,1294,365,1.74091,1.53022
77,659,1.72607,-1.50552,0.0196278,0.029687,0.00724805,0.0334796,0.0158352,1.08872,0.0193388,0.0156835,1301,365,1.72611,1.50554
84,659,1.73706,-1.53491,0.0185705,0.0265475,0.0083078,0.0317746,0.0133434,1.00919,0.0184233,0.0114576,1308,365,1.73701,1.5349
91,659,1.7251,-1.53928,0.0165185,0.0237203,0.0087544,0.0295854,0.0106533,0.980514,0.0173026,0.0106506,1315,365,1.72513,1.53929
98,659,1.71899,-1.51581,0.0134674,0.0207883,0.00873957,0.026603,0.00765269,0.983715,0.0158142,0.00858162,1322,365,1.719,1.51582
105,659,1.72815,-1.49478,0.0114085,0.0191088,0.00691444,0.0231728,0.00734459,1.03943,0.0136744,0.00968493,1329,365,1.72818,1.49479
112,659,1.74097,-1.49237,0.010495,0.0164961,0.00510007,0.0194128,0.00757828,1.0513,0.0112974,0.0105888,1336,365,1.74098,1.49238
119,659,1.74634,-1.49698,0.00990856,0.0134972,0.00361011,0.0157343,0.00767144,1.01603,0.00908514,0.0118459,1343,365,1.74638,1.49699
126,659,1.71948,-1.48398,0.0102081,0.00981769,0.00262429,0.0126445,0.00738137,0.748271,0.00733435,0.0123951,1350,365,1.71944,1.48397
133,659,1.70215,-1.48575,0.00997979,0.00590461,0.00134077,0.0103813,0.00550305,0.290996,0.00599729,0.0108085,1357,365,1.70219,1.48575
140,659,1.71472,-1.49173,0.00939928,0.00181242,-6.87111e-05,0.0093999,0.0018118,-0.0090556,0.00575848,0.00869811,1364,365,1.71469,1.49172
147,659,1.72632,-1.46988,0.0113311,0.000179448,0.00151239,0.0115326,-2.20235e-05,0.132434,0.00769575,0.00814044,1371,365,1.72628,1.46989
154,659,1.72729,-1.44678,0.0129497,-0.00031512,0.00365542,0.0138903,-0.00125575,0.251862,0.00970589,0.00914323,1378,365,1.72735,1.44679
161,659,1.74097,-1.46619,0.0137399,-0.00419382,0.00461164,0.0148563,-0.0053102,0.23751,0.0120701,0.00993366,1385,365,1.74098,1.46618
168,659,1.74182,-1.47696,0.0139562,-0.00381954,0.00539373,0.0154648,-0.00532814,0.272726,0.0124713,0.0132273,1392,365,1.74186,1.47697
175,659,1.73853,-1.4776,0.0130837,-0.00218437,0.00580596,0.0150407,-0.00414136,0.325105,0.0116555,0.017116,1399,365,1.73854,1.47759
182,659,1.78455,-1.47049,0.0119558,0.000731302,0.00585029,0.0144505,-0.00176344,0.403081,0.0102721,0.0223865,1406,365,1.78458,1.4705
189,659,1.77722,-1.42886,0.0112259,0.00438291,0.00544951,0.014239,0.00136982,0.505075,0.00907058,0.0189747,1413,365,1.77727,1.42887
196,659,1.72363,-1.37903,0.0111029,0.00852052,0.0052374,0.0152059,0.00441751,0.664542,0.00903234,0.0171074,1420,365,1.72365,1.37904
203,659,1.73071,-1.38766,0.0118016,0.0139503,0.00567368,0.0186505,0.00710145,0.878968,0.0108694,0.0232541,1427,365,1.73067,1.38765
210,659,1.79504,-1.46298,0.0131901,0.0184838,0.00539486,0.0218462,0.0098278,1.01346,0.012634,0.0280222,1434,365,1.795,1.46297
217,659,1.61816,-1.25583,0.0151812,0.0239801,0.00487979,0.0261508,0.0130105,1.15224,0.0150982,0.0342694,1441,365,1.61822,1.25582
224,659,1.52698,-1.17819,0.0187715,0.0294802,0.00443064,0.0310757,0.0171761,1.22516,0.0179748,0.040443,1448,365,1.52696,1.17818
231,659,1.4071,-1.04709,0.0223556,0.0355279,0.00514226,0.0372976,0.0205859,1.23934,0.0215725,0.0445785,1455,365,1.40716,1.0471
238,659,1.38464,-0.977448,0.0247769,0.0376563,0.00521073,0.0395004,0.0229328,1.23065,0.0229041,0.0455477,1462,365,1.3846,0.977452
245,659,1.82935,-1.03088,0.0263642,0.0377913,0.00644965,0.0406941,0.0234613,1.14788,0.0235863,0.0432176,1469,365,1.82932,1.03088
252,659,2.42053,-0.627472,0.0263849,0.0370897,0.00647535,0.0401384,0.0233362,1.13077,0.023276,0.0414814,1476,365,2.42052,0.627465
259,659,3.46631,-0.146729,0,0,0,0,0,0,0,-1,1483,365,3.46635,0.146725
266,659,4.19873,-0.213837,0,0,0,0,0,0,0,-1,1490,365,4.19867,0.213825
273,659,1.63159,-0.507629,0,0,0,0,0,0,0,-1,1497,365,1.63162,0.507628
280,659,1.99829,-1.03043,0,0,0,0,0,0,0,-1,1504,365,1.99832,1.03043
287,659,2.60266,-1.46698,0.00438079,0.0204162,-0.000689471,0.0204458,0.0043512,-1.52791,0.0124365,0.045061,1511,365,2.60267,1.46699
294,659,2.55798,-1.5723,-0.00307203,0.0169664,-0.00525015,0.0182586,-0.00436426,-1.32946,0.0138581,0.0445708,1518,365,2.55804,1.5723
301,659,2.38965,-1.30219,-0.0104992,0.0148877,-0.0109683,0.01897,-0.0145815,-1.21449,0.0194262,0.0425153,1525,365,2.38964,1.30218
308,659,2.06519,-0.982605,-0.0134157,0.014958,-0.0187395,0.0242751,-0.0227328,-1.1094,0.0271449,0.0425756,1532,365,2.06519,0.982596
315,659,1.6156,-0.709595,0,0,0,0,0,0,0,-1,1539,365,1.61558,0.709587
322,659,-0.512695,0.764679,0,0,0,0,0,0,0,-1,1546,365,-0.512728,-0.764692
329,659,0.524902,0.988983,0,0,0,0,0,0,0,-1,1553,365,0.524889,-0.988998
336,659,2.09851,-1.17941,0,0,0,0,0,0,0,-1,1560,365,2.09857,1.17942
343,659,0,0,0,0,0,0,0,0,0,-1,1567,365,0,0
350,659,0,0,0,0,0,0,0,0,0,-1,1574,365,0,0
357,659,0,0,0,0,0,0,0,0,0,-1,1581,365,0,0
364,659,0,0,0,0,0,0,0,0,0,-1,1588,365,0,0
371,659,0,0,0,0,0,0,0,0,0,-1,1595,365,0,0
378,659,0,0,0,0,0,0,0,0,0,-1,1602,365,0,0
385,659,0,0,0,0,0,0,0,0,0,-1,1609,365,0,0
392,659,0,0,0,0,0,0,0,0,0,-1,1616,365,0,0
399,659,0,0,0,0,0,0,0,0,0,-1,1623,365,0,0
406,659,0,0,0,0,0,0,0,0,0,-1,1630,365,0,0
413,659,0,0,0,0,0,0,0,0,0,-1,1637,365,0,0
420,659,0,0,0,0,0,0,0,0,0,-1,1644,365,0,0
427,659,0,0,0,0,0,0,0,0,0,-1,1651,365,0,0
434,659,0,0,0,0,0,0,0,0,0,-1,1658,365,0,0
441,659,0,0,0,0,0,0,0,0,0,-1,1665,365,0,0
448,659,0,0,0,0,0,0,0,0,0,-1,1672,365,0,0
455,659,0,0,0,0,0,0,0,0,0,-1,1679,365,0,0
462,659,0,0,0,0,0,0,0,0,0,-1,1686,365,0,0
469,659,0,0,0,0,0,0,0,0,0,-1,1693,365,0,0
476,659,0,0,0,0,0,0,0,0,0,-1,1700,365,0,0
483,659,0,0,0,0,0,0,0,0,0,-1,1707,365,0,0
490,659,0,0,0,0,0,0,0,0,0,-1,1714,365,0,0
497,659,0,0,0,0,0,0,0,0,0,-1,1721,365,0,0
504,659,0,0,0,0,0,0,0,0,0,-1,1728,365,0,0
511,659,0,0,0,0,0,0,0,0,0,-1,1735,365,0,0
518,659,0,0,0,0,0,0,0,0,0,-1,1742,365,0,0
525,659,0,0,0,0,0,0,0,0,0,-1,1749,365,0,0
532,659,0,0,0,0,0,0,0,0,0,-1,1756,365,0,0
539,659,0,0,0,0,0,0,0,0,0,-1,1763,365,0,0
546,659,0,0,0,0,0,0,0,0,0,-1,1770,365,0,0
553,659,0,0,0,0,0,0,0,0,0,-1,1777,365,0,0
560,659,0,0,0,0,0,0,0,0,0,-1,1784,365,0,0
567,659,0,0,0,0,0,0,0,0,0,-1,1791,365,0,0
574,659,0,0,0,0,0,0,0,0,0,-1,1798,365,0,0
581,659,0,0,0,0,0,0,0,0,0,-1,1805,365,0,0
588,659,0,0,0,0,0,0,0,0,0,-1,1812,365,0,0
595,659,0,0,0,0,0,0,0,0,0,-1,1819,365,0,0
602,659,0,0,0,0,0,0,0,0,0,-1,1826,365,0,0
609,659,0,0,0,0,0,0,0,0,0,-1,1833,365,0,0
616,659,0,0,0,0,0,0,0,0,0,-1,1840,365,0,0
623,659,0,0,0,0,0,0,0,0,0,-1,1847,365,0,0
630,659,0,0,0,0,0,0,0,0,0,-1,1854,365,0,0
637,659,0,0,0,0,0,0,0,0,0,-1,1861,365,0,0
644,659,0,0,0,0,0,0,0,0,0,-1,1868,365,0,0
651,659,0,0,0,0,0,0,0,0,0,-1,1875,365,0,0
658,659,0,0,0,0,0,0,0,0,0,-1,1882,365,0,0
665,659,0,0,0,0,0,0,0,0,0,-1,1889,365,0,0
672,659,0,0,0,0,0,0,0,0,0,-1,1896,365,0,0
679,659,0,0,0,0,0,0,0,0,0,-1,1903,365,0,0
686,659,0,0,0,0,0,0,0,0,0,-1,1910,365,0,0
693,659,0,0,0,0,0,0,0,0,0,-1,1917,365,0,0
700,659,0,0,0,0,0,0,0,0,0,-1,1924,365,0,0
707,659,0,0,0,0,0,0,0,0,0,-1,1931,365,0,0
714,659,0,0,0,0,0,0,0,0,0,-1,1938,365,0,0
721,659,0,0,0,0,0,0,0,0,0,-1,1945,365,0,0
728,659,0,0,0,0,0,0,0,0,0,-1,1952,365,0,0
735,659,0,0,0,0,0,0,0,0,0,-1,1959,365,0,0
742,659,0,0,0,0,0,0,0,0,0,-1,1966,365,0,0
749,659,0,0,0,0,0,0,0,0,0,-1,1973,365,0,0
756,659,0,0,0,0,0,0,0,0,0,-1,1980,365,0,0
763,659,0,0,0,0,0,0,0,0,0,-1,1987,365,0,0
770,659,0,0,0,0,0,0,0,0,0,-1,1994,365,0,0
777,659,0,0,0,0,0,0,0,0,0,-1,2001,365,0,0
784,659,0,0,0,0,0,0,0,0,0,-1,2008,365,0,0
791,659,0,0,0,0,0,0,0,0,0,-1,2015,365,0,0
798,659,0,0,0,0,0,0,0,0,0,-1,2022,365,0,0
805,659,0,0,0,0,0,0,0,0,0,-1,2029,365,0,0
812,659,0,0,0,0,0,0,0,0,0,-1,2036,365,0,0
-700,652,0,0,0,0,0,0,0,0,0,-1,524,372,0,0
-693,652,0,0,0,0,0,0,0,0,0,-1,531,372,0,0
-686,652,0,0,0,0,0,0,0,0,0,-1,538,372,0,0
-679,652,0,0,0,0,0,0,0,0,0,-1,545,372,0,0
-672,652,0,0,0,0,0,0,0,0,0,-1,552,372,0,0
-665,652,0,0,0,0,0,0,0,0,0,-1,559,372,0,0
-658,652,0,0,0,0,0,0,0,0,0,-1,566,372,0,0
-651,652,0,0,0,0,0,0,0,0,0,-1,573,372,0,0
-644,652,0,0,0,0,0,0,0,0,0,-1,580,372,0,0
-637,652,0,0,0,0,0,0,0,0,0,-1,587,372,0,0
-630,652,0,0,0,0,0,0,0,0,0,-1,594,372,0,0
-623,652,0,0,0,0,0,0,0,0,0,-1,601,372,0,0
-616,652,0,0,0,0,0,0,0,0,0,-1,608,372,0,0
-609,652,0,0,0,0,0,0,0,0,0,-1,615,372,0,0
-602,652,0,0,0,0,0,0,0,0,0,-1,622,372,0,0
-595,652,0,0,0,0,0,0,0,0,0,-1,629,372,0,0
-588,652,0,0,0,0,0,0,0,0,0,-1,636,372,0,0
-581,652,0,0,0,0,0,0,0,0,0,-1,643,372,0,0
-574,652,0,0,0,0,0,0,0,0,0,-1,650,372,0,0
-567,652,0,0,0,0,0,0,0,0,0,-1,657,372,0,0
-560,652,0,0,0,0,0,0,0,0,0,-1,664,372,0,0
-553,652,0,0,0,0,0,0,0,0,0,-1,671,372,0,0
-546,652,0,0,0,0,0,0,0,0,0,-1,678,372,0,0
-539,652,0,0,0,0,0,0,0,0,0,-1,685,372,0,0
-532,652,0,0,0,0,0,0,0,0,0,-1,692,372,0,0
-525,652,0,0,0,0,0,0,0,0,0,-1,699,372,0,0
-518,652,0,0,0,0,0,0,0,0,0,-1,706,372,0,0
-511,652,0,0,0,0,0,0,0,0,0,-1,713,372,0,0
-504,652,0,0,0,0,0,0,0,0,0,-1,720,372,0,0
-497,652,0,0,0,0,0,0,0,0,0,-1,727,372,0,0
-490,652,0,0,0,0,0,0,0,0,0,-1,734,372,0,0
-483,652,0,0,0,0,0,0,0,0,0,-1,741,372,0,0
-476,652,0,0,0,0,0,0,0,0,0,-1,748,372,0,0
-469,652,0,0,0,0,0,0,0,0,0,-1,755,372,0,0
-462,652,0,0,0,0,0,0,0,0,0,-1,762,372,0,0
-455,652,0,0,0,0,0,0,0,0,0,-1,769,372,0,0
-448,652,0,0,0,0,0,0,0,0,0,-1,776,372,0,0
-441,652,0,0,0,0,0,0,0,0,0,-1,783,372,0,0
-434,652,0,0,0,0,0,0,0,0,0,-1,790,372,0,0
-427,652,0,0,0,0,0,0,0,0,0,-1,797,372,0,0
-420,652,0,0,0,0,0,0,0,0,0,-1,804,372,0,0
-413,652,0,0,0,0,0,0,0,0,0,-1,811,372,0,0
-406,652,0,0,0,0,0,0,0,0,0,-1,818,372,0,0
-399,652,0,0,0,0,0,0,0,0,0,-1,825,372,0,0
-392,652,0,0,0,0,0,0,0,0,0,-1,832,372,0,0
-385,652,0,0,0,0,0,0,0,0,0,-1,839,372,0,0
-378,652,0,0,0,0,0,0,0,0,0,-1,846,372,0,0
-371,652,0,0,0,0,0,0,0,0,0,-1,853,372,0,0
-364,652,0,0,0,0,0,0,0,0,0,-1,860,372,0,0
-357,652,0,0,0,0,0,0,0,0,0,-1,867,372,0,0
-350,652,0,0,0,0,0,0,0,0,0,-1,874,372,0,0
-343,652,0,0,0,0,0,0,0,0,0,-1,881,372,0,0
-336,652,0,0,0,0,0,0,0,0,0,-1,888,372,0,0
-329,652,0,0,0,0,0,0,0,0,0,-1,895,372,0,0
-322,652,0,0,0,0,0,0,0,0,0,-1,902,372,0,0
-315,652,0,0,0,0,0,0,0,0,0,-1,909,372,0,0
-308,652,0,0,0,0,0,0,0,0,0,-1,916,372,0,0
-301,652,0,0,0,0,0,0,0,0,0,-1,923,372,0,0
-294,652,0,0,0,0,0,0,0,0,0,-1,930,372,0,0
-287,652,0,0,0,0,0,0,0,0,0,-1,937,372,0,0
-280,652,0,0,0,0,0,0,0,0,0,-1,944,372,0,0
-273,652,0,0,0,0,0,0,0,0,0,-1,951,372,0,0
-266,652,0,0,0,0,0,0,0,0,0,-1,958,372,0,0
-259,652,0,0,0,0,0,0,0,0,0,-1,965,372,0,0
-252,652,0,0,0,0,0,0,0,0,0,-1,972,372,0,0
-245,652,0,0,0,0,0,0,0,0,0,-1,979,372,0,0
-238,652,0,0,0,0,0,0,0,0,0,-1,986,372,0,0
-231,652,-0.0170288,0.129822,0,0,0,0,0,0,0,-1,993,372,-0.0170479,-0.129837
-224,652,4.79395,0.98288,0,0,0,0,0,0,0,-1,1000,372,4.79394,-0.982889
-217,652,5.46643,0.407684,0,0,0,0,0,0,0,-1,1007,372,5.46641,-0.407681
-210,652,6.07776,-0.248901,0,0,0,0,0,0,0,-1,1014,372,6.07773,0.248893
-203,652,6.74243,-0.625,0,0,0,0,0,0,0,-1,1021,372,6.74245,0.625012
-196,652,-0.208496,-0.17337,0,0,0,0,0,0,0,-1,1028,372,-0.208476,0.173381
-189,652,2.1615,-2.18842,0,0,0,0,0,0,0,-1,1035,372,2.16145,2.18841
-182,652,1.96228,-1.99994,-0.0352446,-0.00352795,0.000889338,-0.00350303,-0.0352695,1.54279,0.0224367,0.0460094,1042,372,1.96231,1.99994
-175,652,1.74634,-1.76254,-0.032951,-0.00142242,-0.00040369,-0.00141725,-0.0329562,-1.558,0.021514,0.042446,1049,372,1.7463,1.76255
-168,652,1.43054,-1.58313,-0.0309343,-0.000469382,-0.00177732,-0.000366043,-0.0310376,-1.51272,0.0205708,0.0410984,1056,372,1.43054,1.58313
-161,652,0.797607,-1.43054,-0.0295685,-0.000571018,-0.00308818,-0.000245781,-0.0298938,-1.46587,0.0198478,0.0435213,1063,372,0.797665,1.43055
-154,652,0.918945,-1.27658,-0.0287093,-0.0011851,-0.0048441,-0.000357454,-0.0295369,-1.40157,0.0195732,0.0459293,1070,372,0.918909,1.27658
-147,652,1.30237,-1.33871,-0.0275987,-0.0021016,-0.00730445,-0.000157278,-0.029543,-1.31065,0.0196431,0.0440769,1077,372,1.30241,1.33872
-140,652,1.32629,-1.3992,-0.0266109,-0.00307899,-0.0101272,0.000679165,-0.030369,-1.21545,0.0204762,0.0428519,1084,372,1.32634,1.39921
-133,652,1.59119,-1.0824,-0.0260301,-0.00397513,-0.0124543,0.00163215,-0.0316373,-1.14775,0.0216561,0.0436453,1091,372,1.59117,1.08239
-126,652,1.75781,-1.29669,-0.0253467,-0.00481649,-0.0145797,0.0027493,-0.0329125,-1.09212,0.0229131,0.0403707,1098,372,1.75784,1.29668
-119,652,1.74634,-1.29184,-0.0250865,-0.00537776,-0.0164772,0.003967,-0.0344313,-1.05489,0.0243843,0.0321196,1105,372,1.74636,1.29183
-112,652,1.74817,-1.27994,-0.0251664,-0.00582237,-0.0176277,0.00461242,-0.0356012,-1.03631,0.0254115,0.0217776,1112,372,1.74822,1.27994
-105,652,1.58521,-1.34271,0,0,0,0,0,0,0,-1,1119,372,1.58526,1.34273
-98,652,1.74573,-1.32999,-0.0246991,-0.0047126,-0.0166778,0.00473677,-0.0341485,-1.05531,0.0244977,0.0239513,1126,372,1.74569,1.33
-91,652,1.80957,-1.30151,-0.0237456,-0.00405011,-0.0157483,0.00467597,-0.0324717,-1.06481,0.023363,0.0220899,1133,372,1.8096,1.3015
-84,652,1.80408,-1.31866,-0.0228511,-0.00288932,-0.0140621,0.00437398,-0.0301144,-1.09402,0.0216818,0.017311,1140,372,1.8041,1.31867
-77,652,1.76013,-1.3559,-0.0211934,-0.00135933,-0.0123991,0.00460085,-0.0271535,-1.12271,0.0198148,0.012776,1147,372,1.76017,1.35588
-70,652,1.76086,-1.37979,-0.0186999,-0.000144886,-0.0100007,0.00421892,-0.0230637,-1.15935,0.016958,0.0102249,1154,372,1.76087,1.37979
-63,652,1.77832,-1.40356,-0.0167762,0.00193801,-0.00766173,0.00467461,-0.0195128,-1.22774,0.0148146,0.0114409,1161,372,1.77833,1.40357
-56,652,1.76062,-1.41504,-0.0145689,0.00451202,-0.00623465,0.00636854,-0.0164255,-1.28138,0.0135804,0.0120894,1168,372,1.76061,1.41503
-49,652,1.75952,-1.40527,-0.0128116,0.00737697,-0.00511185,0.00859752,-0.0140322,-1.33641,0.0131902,0.00998018,1175,372,1.75956,1.40528
-42,652,1.74695,-1.4213,-0.010282,0.0104646,-0.00500307,0.0116081,-0.0114254,-1.3461,0.0132985,0.00940148,1182,372,1.74694,1.42128
-35,652,1.74524,-1.44919,-0.00582148,0.0141531,-0.00574888,0.0156895,-0.00735789,-1.30965,0.0135931,0.00816709,1189,372,1.74525,1.44918
-28,652,1.75854,-1.46191,-0.00141995,0.0164082,-0.00775377,0.0193086,-0.00432034,-1.21285,0.0145283,0.00779859,1196,372,1.75854,1.46191
-21,652,1.74707,-1.46368,0.00119442,0.0198469,-0.00983518,0.0240746,-0.00303328,-1.16482,0.0171505,0.00792772,1203,372,1.74709,1.46369
-14,652,1.75122,-1.47446,0.00469722,0.0231799,-0.0119183,0.0290199,-0.00114282,-1.11518,0.0197386,0.00901845,1210,372,1.75121,1.47446
-7,652,1.75464,-1.48947,0.00807831,0.0259966,-0.0135871,0.0333124,0.000762483,-1.07687,0.0219585,0.0117667,1217,372,1.75461,1.48946
0,652,1.73657,-1.47849,0.0103698,0.0277088,-0.0147034,0.0361083,0.00197036,-1.05178,0.023443,0.011929,1224,372,1.73657,1.4785
7,652,1.72131,-1.46756,0.012145,0.0287055,-0.0149629,0.0375264,0.00332406,-1.03812,0.0239865,0.0124459,1231,372,1.72128,1.46757
14,652,1.7063,-1.48236,0.0132153,0.0285885,-0.0143157,0.0371507,0.00465308,-1.03178,0.023371,0.0111492,1238,372,1.70631,1.48237
21,652,1.72046,-1.50143,0.0136502,0.0281965,-0.0131417,0.0359434,0.00590327,-1.03814,0.022257,0.009946,1245,372,1.72045,1.50145
28,652,1.72668,-1.51715,0.0138344,0.0275569,-0.010941,0.03361,0.00778124,-1.06546,0.0203159,0.00903154,1252,372,1.72667,1.51716
35,652,1.73083,-1.52798,0.0145,0.0272654,-0.00795651,0.0310829,0.0106824,-1.12344,0.0182357,0.00974137,1259,372,1.73085,1.528
42,652,1.74719,-1.52267,0.0150533,0.0259152,-0.00538885,0.028135,0.0128335,-1.18004,0.0162646,0.0110073,1266,372,1.74716,1.52268
49,652,1.74707,-1.50674,0.0150529,0.024074,-0.00286708,0.0249081,0.0142188,-1.28769,0.0144287,0.0127722,1273,372,1.74709,1.50673
56,652,1.72827,-1.51111,0.0151054,0.0228826,-0.000255725,0.022891,0.015097,-1.53796,0.0134385,0.0145827,1280,372,1.72821,1.5111
63,652,1.7052,-1.53586,0.014348,0.0211677,0.0024423,0.0219521,0.0135636,1.26002,0.0127909,0.0192937,1287,372,1.70517,1.53587
70,652,1.73779,-1.52365,0.0125866,0.0193221,0.00481672,0.0218317,0.0100771,1.09049,0.0126169,0.017202,1294,372,1.73781,1.52365
77,652,1.73096,-1.52124,0.0111827,0.018195,0.0059445,0.0215903,0.00778741,1.05185,0.0126254,0.0145681,1301,372,1.7309,1.52125
84,652,1.73499,-1.53073,0.0108612,0.0160898,0.00638452,0.0203745,0.00657644,0.979722,0.012007,0.0124134,1308,372,1.73496,1.53074
91,652,1.69763,-1.55634,0.00981677,0.0140431,0.00638281,0.0186534,0.00520641,0.945254,0.0111144,0.0156839,1315,372,1.69768,1.55634
98,652,1.71899,-1.52448,0.00833446,0.0121897,0.00574464,0.0163215,0.00420268,0.947272,0.00978572,0.0133934,1322,372,1.71904,1.52447
105,652,1.7373,-1.49054,0.00743135,0.0105812,0.0043378,0.0136211,0.00439141,0.959533,0.00802782,0.0112514,1329,372,1.73727,1.49053
112,652,1.75195,-1.49335,0.00687452,0.00848207,0.00303089,0.0108139,0.00454264,0.915012,0.00626997,0.00941983,1336,372,1.752,1.49334
119,652,1.755,-1.50613,0.00657871,0.00623863,0.00202012,0.00843593,0.00438141,0.743412,0.00487171,0.0103847,1343,372,1.75501,1.50614
126,652,1.71875,-1.50803,0.00685963,0.00367479,0.00137349,0.00737013,0.00316428,0.355859,0.00426929,0.0119794,1350,372,1.71879,1.50803
133,652,1.70178,-1.49466,0.00673135,0.00121364,0.000555583,0.00678673,0.00115825,0.0993618,0.00419209,0.0117492,1357,372,1.70184,1.49467
140,652,1.71533,-1.48035,0.00639143,-0.00129745,-0.00029248,0.00640254,-0.00130856,-0.0379662,0.00476482,0.00903512,1364,372,1.71528,1.48035
147,652,1.71643,-1.47577,0.00766281,-0.00182643,0.00090988,0.00774926,-0.00191289,0.0947354,0.00590795,0.00943206,1371,372,1.71645,1.47577
154,652,1.72205,-1.46765,0.00866683,-0.00175668,0.00238785,0.00918781,-0.00227766,0.214812,0.00700889,0.00934666,1378,372,1.722,1.46764
161,652,1.70923,-1.48178,0.00909986,-0.00278002,0.00329797,0.009954,-0.00363416,0.253421,0.00812304,0.00993196,1385,372,1.70921,1.48178
168,652,1.7074,-1.48642,0.00914526,-0.00248824,0.00389906,0.0103312,-0.00367415,0.295262,0.00838493,0.0105708,1392,372,1.70737,1.48642
175,652,1.70752,-1.4465,0.00850443,-0.00128967,0.00421031,0.0100655,-0.00285078,0.355068,0.00783543,0.00978936,1399,372,1.70752,1.44649
182,652,1.70874,-1.43146,0.00768357,0.000840283,0.00425261,0.00972016,-0.00119631,0.446629,0.00691346,0.0121254,1406,372,1.70879,1.43146
189,652,1.72974,-1.40076,0.00715132,0.00350715,0.00396009,0.0096884,0.000970074,0.569783,0.00616108,0.011679,1413,372,1.72969,1.40075
196,652,1.72742,-1.37921,0.00710305,0.00651674,0.00380098,0.0106222,0.00299764,0.746911,0.00632367,0.00909251,1420,372,1.7274,1.37921
203,652,1.70935,-1.40561,0.00768464,0.0104821,0.0041058,0.0134209,0.00474587,0.94957,0.00785847,0.0106794,1427,372,1.70938,1.40561
210,652,1.74536,-1.40732,0.00876859,0.0138398,0.00389297,0.0159501,0.00665829,1.07405,0.00925056,0.0139869,1434,372,1.74542,1.40731
217,652,1.74854,-1.37173,0.0104121,0.0179381,0.00355606,0.0193526,0.00899772,1.19223,0.0111824,0.0141123,1441,372,1.74849,1.37174
224,652,1.67346,-1.31598,0.0131011,0.0220996,0.00327594,0.0231659,0.0120348,1.25613,0.0133782,0.0183696,1448,372,1.67346,1.31597
231,652,1.63623,-1.27112,0.0158,0.0266987,0.00386966,0.0279329,0.0145658,1.26206,0.016132,0.0244955,1455,372,1.63622,1.27112
238,652,1.70337,-1.23825,0.0176631,0.0284264,0.00406581,0.0297896,0.0162999,1.24729,0.0172245,0.0259663,1462,372,1.70339,1.23826
245,652,1.75549,-1.31726,0.0188533,0.0284963,0.00511373,0.0307031,0.0166465,1.16339,0.0177475,0.0227599,1469,372,1.75544,1.31727
252,652,1.77673,-1.34787,0.0189741,0.0277937,0.0051889,0.0301935,0.0165743,1.1376,0.0174601,0.0274761,1476,372,1.77679,1.34788
259,652,1.8385,-1.33533,0.018028,0.0250434,0.00515648,0.0277722,0.0152992,1.08407,0.0160619,0.0393278,1483,372,1.83855,1.33534
266,652,1.67029,-0.805115,0.0161891,0.0243965,0.00430446,0.02624,0.0143456,1.16616,0.0151717,0.0405444,1490,372,1.67024,0.805116
273,652,1.67932,-0.861145,0.0125286,0.0222887,0.00359334,0.0234689,0.0113484,1.25345,0.0135522,0.039967,1497,372,1.67927,0.861159
280,652,1.8988,-1.09235,0.00835072,0.0191368,0.00223442,0.0195813,0.00790616,1.3744,0.0113749,0.0431143,1504,372,1.8988,1.09236
287,652,2.04468,-1.20676,0.00318417,0.0160842,0.000157001,0.0160861,0.00318226,1.55863,0.00983642,0.0451569,1511,372,2.04462,1.20676
294,652,1.93628,-1.14047,-0.00219154,0.0139166,-0.00327466,0.0145568,-0.00283181,-1.37771,0.0107733,0.0445286,1518,372,1.93629,1.14048
301,652,1.88318,-1.06522,0,0,0,0,0,0,0,-1,1525,372,1.88317,1.06523
308,652,2.78369,-1.63535,0,0,0,0,0,0,0,-1,1532,372,2.78363,1.63535
315,652,-0.553711,0.0222168,-0.00871165,0.0154055,-0.0210899,0.0276408,-0.020947,-1.0451,0.0281407,0.0425791,1539,372,-0.553772,-0.0222265
322,652,0.118164,0.302063,-0.00521256,0.0156138,-0.0282617,0.0353197,-0.0249185,-0.961909,0.0349509,0.0395598,1546,372,0.118214,-0.302053
329,652,0.853516,0.584442,0,0,0,0,0,0,0,-1,1553,372,0.853456,-0.584446
336,652,1.54016,0.60495,0,0,0,0,0,0,0,-1,1560,372,1.54014,-0.604952
343,652,1.36963,-1.0321,0,0,0,0,0,0,0,-1,1567,372,1.36967,1.03209
350,652,1.81714,-0.765503,0,0,0,0,0,0,0,-1,1574,372,1.81708,0.765513
357,652,0,0,0,0,0,0,0,0,0,-1,1581,372,0,0
364,652,0,0,0,0,0,0,0,0,0,-1,1588,372,0,0
371,652,0,0,0,0,0,0,0,0,0,-1,1595,372,0,0
378,652,0,0,0,0,0,0,0,0,0,-1,1602,372,0,0
385,652,0,0,0,0,0,0,0,0,0,-1,1609,372,0,0
392,652,0,0,0,0,0,0,0,0,0,-1,1616,372,0,0
399,652,0,0,0,0,0,0,0,0,0,-1,1623,372,0,0
406,652,0,0,0,0,0,0,0,0,0,-1,1630,372,0,0
413,652,0,0,0,0,0,0,0,0,0,-1,1637,372,0,0
420,652,0,0,0,0,0,0,0,0,0,-1,1644,372,0,0
427,652,0,0,0,0,0,0,0,0,0,-1,1651,372,0,0
434,652,0,0,0,0,0,0,0,0,0,-1,1658,372,0,0
441,652,0,0,0,0,0,0,0,0,0,-1,1665,372,0,0
448,652,0,0,0,0,0,0,0,0,0,-1,1672,372,0,0
455,652,0,0,0,0,0,0,0,0,0,-1,1679,372,0,0
462,652,0,0,0,0,0,0,0,0,0,-1,1686,372,0,0
469,652,0,0,0,0,0,0,0,0,0,-1,1693,372,0,0
476,652,0,0,0,0,0,0,0,0,0,-1,1700,372,0,0
483,652,0,0,0,0,0,0,0,0,0,-1,1707,372,0,0
490,652,0,0,0,0,0,0,0,0,0,-1,1714,372,0,0
497,652,0,0,0,0,0,0,0,0,0,-1,1721,372,0,0
504,652,0,0,0,0,0,0,0,0,0,-1,1728,372,0,0
511,652,0,0,0,0,0,0,0,0,0,-1,1735,372,0,0
518,652,0,0,0,0,0,0,0,0,0,-1,1742,372,0,0
525,652,0,0,0,0,0,0,0,0,0,-1,1749,372,0,0
532,652,0,0,0,0,0,0,0,0,0,-1,1756,372,0,0
539,652,0,0,0,0,0,0,0,0,0,-1,1763,372,0,0
546,652,0,0,0,0,0,0,0,0,0,-1,1770,372,0,0
553,652,0,0,0,0,0,0,0,0,0,-1,1777,372,0,0
560,652,0,0,0,0,0,0,0,0,0,-1,1784,372,0,0
567,652,0,0,0,0,0,0,0,0,0,-1,1791,372,0,0
574,652,0,0,0,0,0,0,0,0,0,-1,1798,372,0,0
581,652,0,0,0,0,0,0,0,0,0,-1,1805,372,0,0
588,652,0,0,0,0,0,0,0,0,0,-1,1812,372,0,0
595,652,0,0,0,0,0,0,0,0,0,-1,1819,372,0,0
602,652,0,0,0,0,0,0,0,0,0,-1,1826,372,0,0
609,652,0,0,0,0,0,0,0,0,0,-1,1833,372,0,0
616,652,0,0,0,0,0,0,0,0,0,-1,1840,372,0,0
623,652,0,0,0,0,0,0,0,0,0,-1,1847,372,0,0
630,652,0,0,0,0,0,0,0,0,0,-1,1854,372,0,0
637,652,0,0,0,0,0,0,0,0,0,-1,1861,372,0,0
644,652,0,0,0,0,0,0,0,0,0,-1,1868,372,0,0
651,652,0,0,0,0,0,0,0,0,0,-1,1875,372,0,0
658,652,0,0,0,0,0,0,0,0,0,-1,1882,372,0,0
665,652,0,0,0,0,0,0,0,0,0,-1,1889,372,0,0
672,652,0,0,0,0,0,0,0,0,0,-1,1896,372,0,0
679,652,0,0,0,0,0,0,0,0,0,-1,1903,372,0,0
686,652,0,0,0,0,0,0,0,0,0,-1,1910,372,0,0
693,652,0,0,0,0,0,0,0,0,0,-1,1917,372,0,0
700,652,0,0,0,0,0,0,0,0,0,-1,1924,372,0,0
707,652,0,0,0,0,0,0,0,0,0,-1,1931,372,0,0
714,652,0,0,0,0,0,0,0,0,0,-1,1938,372,0,0
721,652,0,0,0,0,0,0,0,0,0,-1,1945,372,0,0
728,652,0,0,0,0,0,0,0,0,0,-1,1952,372,0,0
735,652,0,0,0,0,0,0,0,0,0,-1,1959,372,0,0
742,652,0,0,0,0,0,0,0,0,0,-1,1966,372,0,0
749,652,0,0,0,0,0,0,0,0,0,-1,1973,372,0,0
756,652,0,0,0,0,0,0,0,0,0,-1,1980,372,0,0
763,652,0,0,0,0,0,0,0,0,0,-1,1987,372,0,0
770,652,0,0,0,0,0,0,0,0,0,-1,1994,372,0,0
777,652,0,0,0,0,0,0,0,0,0,-1,2001,372,0,0
784,652,0,0,0,0,0,0,0,0,0,-1,2008,372,0,0
791,652,0,0,0,0,0,0,0,0,0,-1,2015,372,0,0
798,652,0,0,0,0,0,0,0,0,0,-1,2022,372,0,0
805,652,0,0,0,0,0,0,0,0,0,-1,2029,372,0,0
812,652,0,0,0,0,0,0,0,0,0,-1,2036,372,0,0
-700,645,0,0,0,0,0,0,0,0,0,-1,524,379,0,0
-693,645,0,0,0,0,0,0,0,0,0,-1,531,379,0,0
-686,645,0,0,0,0,0,0,0,0,0,-1,538,379,0,0
-679,645,0,0,0,0,0,0,0,0,0,-1,545,379,0,0
-672,645,0,0,0,0,0,0,0,0,0,-1,552,379,0,0
-665,645,0,0,0,0,0,0,0,0,0,-1,559,379,0,0
-658,645,0,0,0,0,0,0,0,0,0,-1,566,379,0,0
-651,645,0,0,0,0,0,0,0,0,0,-1,573,379,0,0
-644,645,0,0,0,0,0,0,0,0,0,-1,580,379,0,0
-637,645,0,0,0,0,0,0,0,0,0,-1,587,379,0,0
-630,645,0,0,0,0,0,0,0,0,0,-1,594,379,0,0
-623,645,0,0,0,0,0,0,0,0,0,-1,601,379,0,0
-616,645,0,0,0,0,0,0,0,0,0,-1,608,379,0,0
-609,645,0,0,0,0,0,0,0,0,0,-1,615,379,0,0
-602,645,0,0,0,0,0,0,0,0,0,-1,622,379,0,0
-595,645,0,0,0,0,0,0,0,0,0,-1,629,379,0,0
-588,645,0,0,0,0,0,0,0,0,0,-1,636,379,0,0
-581,645,0,0,0,0,0,0,0,0,0,-1,643,379,0,0
-574,645,0,0,0,0,0,0,0,0,0,-1,650,379,0,0
-567,645,0,0,0,0,0,0,0,0,0,-1,657,379,0,0
-560,645,0,0,0,0,0,0,0,0,0,-1,664,379,0,0
-553,645,0,0,0,0,0,0,0,0,0,-1,671,379,0,0
-546,645,0,0,0,0,0,0,0,0,0,-1,678,379,0,0
-539,645,0,0,0,0,0,0,0,0,0,-1,685,379,0,0
-532,645,0,0,0,0,0,0,0,0,0,-1,692,379,0,0
-525,645,0,0,0,0,0,0,0,0,0,-1,699,379,0,0
-518,645,0,0,0,0,0,0,0,0,0,-1,706,379,0,0
-511,645,0,0,0,0,0,0,0,0,0,-1,713,379,0,0
-504,645,0,0,0,0,0,0,0,0,0,-1,720,379,0,0
-497,645,0,0,0,0,0,0,0,0,0,-1,727,379,0,0
-490,645,0,0,0,0,0,0,0,0,0,-1,734,379,0,0
-483,645,0,0,0,0,0,0,0,0,0,-1,741,379,0,0
-476,645,0,0,0,0,0,0,0,0,0,-1,748,379,0,0
-469,645,0,0,0,0,0,0,0,0,0,-1,755,379,0,0
-462,645,0,0,0,0,0,0,0,0,0,-1,762,379,0,0
-455,645,0,0,0,0,0,0,0,0,0,-1,769,379,0,0
-448,645,0,0,0,0,0,0,0,0,0,-1,776,379,0,0
-441,645,0,0,0,0,0,0,0,0,0,-1,783,379,0,0
-434,645,0,0,0,0,0,0,0,0,0,-1,790,379,0,0
-427,645,0,0,0,0,0,0,0,0,0,-1,797,379,0,0
-420,645,0,0,0,0,0,0,0,0,0,-1,804,379,0,0
-413,645,0,0,0,0,0,0,0,0,0,-1,811,379,0,0
-406,645,0,0,0,0,0,0,0,0,0,-1,818,379,0,0
-399,645,0,0,0,0,0,0,0,0,0,-1,825,379,0,0
-392,645,0,0,0,0,0,0,0,0,0,-1,832,379,0,0
-385,645,0,0,0,0,0,0,0,0,0,-1,839,379,0,0
-378,645,0,0,0,0,0,0,0,0,0,-1,846,379,0,0
-371,645,0,0,0,0,0,0,0,0,0,-1,853,379,0,0
-364,645,0,0,0,0,0,0,0,0,0,-1,860,379,0,0
-357,645,0,0,0,0,0,0,0,0,0,-1,867,379,0,0
-350,645,0,0,0,0,0,0,0,0,0,-1,874,379,0,0
-343,645,0,0,0,0,0,0,0,0,0,-1,881,379,0,0
-336,645,0,0,0,0,0,0,0,0,0,-1,888,379,0,0
-329,645,0,0,0,0,0,0,0,0,0,-1,895,379,0,0
-322,645,0,0,0,0,0,0,0,0,0,-1,902,379,0,0
-315,645,0,0,0,0,0,0,0,0,0,-1,909,379,0,0
-308,645,0,0,0,0,0,0,0,0,0,-1,916,379,0,0
-301,645,0,0,0,0,0,0,0,0,0,-1,923,379,0,0
-294,645,0,0,0,0,0,0,0,0,0,-1,930,379,0,0
-287,645,0,0,0,0,0,0,0,0,0,-1,937,379,0,0
-280,645,0,0,0,0,0,0,0,0,0,-1,944,379,0,0
-273,645,0,0,0,0,0,0,0,0,0,-1,951,379,0,0
-266,645,0,0,0,0,0,0,0,0,0,-1,958,379,0,0
-259,645,0,0,0,0,0,0,0,0,0,-1,965,379,0,0
-252,645,0.429199,0.523651,0,0,0,0,0,0,0,-1,972,379,0.429175,-0.523638
-245,645,-1.47296,-0.0948181,0,0,0,0,0,0,0,-1,979,379,-1.47293,0.0948146
-238,645,-1.12164,0.069458,0,0,0,0,0,0,0,-1,986,379,-1.12166,-0.0694591
-231,645,-0.711975,0.0449829,0,0,0,0,0,0,0,-1,993,379,-0.711986,-0.0449786
-224,645,3.16718,0.153351,0,0,0,0,0,0,0,-1,1000,379,3.16718,-0.153347
-217,645,4.8183,-0.167816,0,0,0,0,0,0,0,-1,1007,379,4.8183,0.167804
-210,645,1.41394,-1.04419,0,0,0,0,0,0,0,-1,1014,379,1.41397,1.0442
-203,645,1.59027,-1.32162,0,0,0,0,0,0,0,-1,1021,379,1.59025,1.32162
-196,645,1.76294,-1.01666,0,0,0,0,0,0,0,-1,1028,379,1.76291,1.01665
-189,645,1.32056,-1.3024,0,0,0,0,0,0,0,-1,1035,379,1.32054,1.30241
-182,645,1.93677,-1.49115,0,0,0,0,0,0,0,-1,1042,379,1.9368,1.49115
-175,645,1.80139,-1.36569,-0.0249726,-0.00362588,-0.000744644,-0.00359994,-0.0249985,-1.53597,0.0156047,0.0440087,1049,379,1.80142,1.3657
-168,645,1.60986,-1.38916,-0.0231351,-0.00230164,-0.00212495,-0.00208711,-0.0233496,-1.47018,0.0149194,0.0427683,1056,379,1.60985,1.38916
-161,645,1.15295,-1.39517,-0.0216632,-0.00186965,-0.00338734,-0.00130601,-0.0222269,-1.40591,0.0144023,0.043977,1063,379,1.15298,1.39517
-154,645,1.17578,-1.12201,-0.0206747,-0.00186283,-0.00489679,-0.00066451,-0.021873,-1.3308,0.0143656,0.039741,1070,379,1.17581,1.122
-147,645,1.36523,-1.12869,-0.0194544,-0.00213934,-0.00694954,0.000304874,-0.0218987,-1.2326,0.0147018,0.0368208,1077,379,1.36525,1.12868
-140,645,1.41345,-1.17651,-0.0184703,-0.00253025,-0.00915035,0.00163438,-0.022635,-1.14368,0.0156632,0.0339678,1084,379,1.41346,1.1765
-133,645,1.65991,-1.21909,-0.0179383,-0.00288384,-0.0108338,0.00278097,-0.0236031,-1.08901,0.0167396,0.0297951,1091,379,1.65994,1.21907
-126,645,1.7677,-1.27078,-0.0174104,-0.00324675,-0.01235,0.0039078,-0.024565,-1.04572,0.0178226,0.02374,1098,379,1.7677,1.27079
-119,645,1.77673,-1.276,-0.0172161,-0.00344056,-0.0136996,0.00500528,-0.0256619,-1.01833,0.0189974,0.0152759,1105,379,1.77675,1.27601
-112,645,1.78137,-1.30768,-0.0173537,-0.00371387,-0.0145425,0.00552846,-0.026596,-1.00465,0.0198321,0.0104312,1112,379,1.78143,1.30769
-105,645,1.75977,-1.32962,-0.0174735,-0.00348631,-0.014489,0.00560862,-0.0265685,-1.01025,0.0198478,0.0112859,1119,379,1.75982,1.32963
-98,645,1.7312,-1.33713,-0.0174314,-0.00288675,-0.013755,0.00540006,-0.0257182,-1.02857,0.0192003,0.012951,1126,379,1.73126,1.33713
-91,645,1.75256,-1.35837,-0.0168658,-0.00240757,-0.0129364,0.00518253,-0.0244559,-1.04019,0.018278,0.0121622,1133,379,1.75251,1.35836
-84,645,1.74988,-1.38104,-0.0162683,-0.00158399,-0.011528,0.00474143,-0.0225937,-1.06895,0.0168666,0.0115505,1140,379,1.74984,1.38104
-77,645,1.72461,-1.39807,-0.0151416,-0.00052803,-0.0101001,0.0046312,-0.0203008,-1.09854,0.0153129,0.0104236,1147,379,1.72458,1.39807
-70,645,1.72144,-1.40756,-0.0133222,0.000293039,-0.00814292,0.00409914,-0.0171283,-1.13356,0.0130024,0.00985703,1154,379,1.72146,1.40757
-63,645,1.74744,-1.41174,-0.0117897,0.00168336,-0.00617435,0.00408485,-0.0141912,-1.19985,0.0110764,0.0109485,1161,379,1.7474,1.41176
-56,645,1.75183,-1.41602,-0.010066,0.00342507,-0.00484087,0.00498232,-0.0116232,-1.25956,0.00983947,0.012169,1168,379,1.75182,1.41601
-49,645,1.74683,-1.41083,-0.00856643,0.0051759,-0.00379523,0.00615437,-0.00954489,-1.31848,0.00913416,0.00996073,1175,379,1.74683,1.41083
-42,645,1.74182,-1.43173,-0.0065961,0.00707087,-0.00352721,0.00792749,-0.00745272,-1.33255,0.00888118,0.00966994,1182,379,1.74177,1.43172
-35,645,1.74219,-1.46127,-0.00369663,0.00901553,-0.00346925,0.00990069,-0.00458179,-1.32098,0.00854736,0.0104471,1189,379,1.74222,1.46126
-28,645,1.73804,-1.46283,-0.00082913,0.00985685,-0.00450145,0.0115003,-0.0024726,-1.22074,0.00861024,0.0091897,1196,379,1.73805,1.46282
-21,645,1.73206,-1.45947,0.00106874,0.0113744,-0.00573691,0.0139328,-0.00148971,-1.1513,0.00982286,0.0104879,1203,379,1.73211,1.45949
-14,645,1.7428,-1.48059,0.0031452,0.0126941,-0.00677066,0.0162044,-0.000365105,-1.09249,0.0109267,0.00938026,1210,379,1.74283,1.48059
-7,645,1.74487,-1.50467,0.00494989,0.0132574,-0.00727166,0.0174781,0.000729244,-1.04489,0.0114167,0.0123989,1217,379,1.74486,1.50467
0,645,1.75366,-1.48038,0.00607342,0.0135197,-0.00769937,0.0183489,0.00124423,-1.0106,0.0118396,0.023594,1224,379,1.75365,1.48038
7,645,1.7218,-1.48264,0.00683235,0.0134456,-0.00765827,0.0184806,0.00179734,-0.989194,0.0117671,0.0167597,1231,379,1.72185,1.48263
14,645,1.70471,-1.48624,0.00707492,0.0129064,-0.0070811,0.0176486,0.00233275,-0.980701,0.0110704,0.0157969,1238,379,1.70467,1.48623
21,645,1.7179,-1.51035,0.0068892,0.0124213,-0.00623208,0.0164736,0.00283691,-0.99426,0.0101695,0.0102548,1245,379,1.71786,1.51035
28,645,1.7229,-1.52209,0.00657369,0.0119796,-0.00466352,0.0146669,0.00388644,-1.04804,0.0087742,0.00890685,1252,379,1.72295,1.52209
35,645,1.73096,-1.53445,0.00681728,0.0122076,-0.00268674,0.013318,0.00570685,-1.17888,0.00771532,0.00868275,1259,379,1.73098,1.53445
42,645,1.7373,-1.53931,0.00708596,0.0117203,-0.00109902,0.0119678,0.00683855,-1.34936,0.00693304,0.00860453,1266,379,1.73734,1.53929
49,645,1.74707,-1.52042,0.0070914,0.0111439,0.000533853,0.011213,0.00702225,1.44199,0.00654228,0.0111978,1273,379,1.74712,1.52041
56,645,1.74341,-1.51059,0.00726678,0.0106858,0.00215502,0.011727,0.00622556,1.12071,0.00677491,0.0115792,1280,379,1.74342,1.5106
63,645,1.74048,-1.52084,0.00702654,0.0101747,0.00376398,0.0126805,0.00452074,0.983442,0.00742087,0.0122162,1287,379,1.74047,1.52085
70,645,1.73547,-1.52484,0.00626356,0.00957265,0.00493649,0.0131245,0.00271172,0.947098,0.00800044,0.0154951,1294,379,1.73541,1.52484
77,645,1.74329,-1.52448,0.00571309,0.00939759,0.00546633,0.0133238,0.00178692,0.94793,0.00835084,0.0180883,1301,379,1.74333,1.52449
84,645,1.74072,-1.53552,0.00578674,0.00837285,0.00566295,0.0128885,0.0012711,0.897642,0.00820153,0.0130652,1308,379,1.74071,1.53551
91,645,1.70618,-1.55432,0.00564572,0.00724272,0.00546467,0.0119669,0.00092152,0.857945,0.0076892,0.0144721,1315,379,1.70623,1.55433
98,645,1.73645,-1.521,0.0051149,0.00630063,0.00475776,0.0105023,0.000913211,0.847383,0.00671787,0.0129907,1322,379,1.73641,1.52101
105,645,1.76465,-1.49033,0.0046813,0.00494969,0.00383356,0.00865141,0.000979587,0.802893,0.00547039,0.00996019,1329,379,1.7647,1.49032
112,645,1.75977,-1.4931,0.00447777,0.00347439,0.00293464,0.00695329,0.00099887,0.700739,0.00434105,0.00857579,1336,379,1.75981,1.49309
119,645,1.75757,-1.50507,0.00443473,0.00201628,0.00221368,0.00574793,0.000703085,0.535418,0.00362042,0.00837012,1343,379,1.75762,1.50506
126,645,1.73499,-1.50894,0.00472398,0.000481608,0.00169038,0.00531515,-0.000109554,0.336425,0.00358051,0.0109696,1350,379,1.73493,1.50894
133,645,1.72217,-1.47522,0.00469253,-0.000864168,0.00102953,0.00487715,-0.00104878,0.177434,0.00365158,0.0119606,1357,379,1.72223,1.47521
140,645,1.71509,-1.47177,0.00447345,-0.00222503,0.000344141,0.00449109,-0.00224266,0.0511963,0.00395931,0.0110966,1364,379,1.71507,1.47178
147,645,1.70605,-1.48511,0.00522488,-0.00222196,0.000958183,0.00534619,-0.00234327,0.125937,0.00455096,0.0121038,1371,379,1.706,1.48509
154,645,1.71204,-1.48935,0.00577957,-0.00191413,0.00159453,0.00609694,-0.00223151,0.196473,0.00497807,0.0112612,1378,379,1.712,1.48935
161,645,1.70581,-1.50085,0.00596955,-0.00173192,0.00206676,0.00648913,-0.0022515,0.246295,0.00524037,0.0132433,1385,379,1.70583,1.50085
168,645,1.69495,-1.48175,0.00590827,-0.00151729,0.00251534,0.00668009,-0.00228912,0.297727,0.00538125,0.0155996,1392,379,1.69493,1.48175
175,645,1.71899,-1.45682,0.00543697,-0.000673946,0.00275515,0.00649572,-0.0017327,0.366881,0.00500895,0.0136034,1399,379,1.71895,1.4568
182,645,1.74084,-1.43875,0.00484441,0.000834006,0.00280708,0.00628893,-0.000610511,0.475257,0.00441023,0.0099012,1406,379,1.74087,1.43876
189,645,1.74817,-1.41226,0.00446461,0.00272149,0.0026201,0.00635431,0.000831796,0.624833,0.00398796,0.0103506,1413,379,1.74814,1.41225
196,645,1.73706,-1.40503,0.00446512,0.00486506,0.00253493,0.00720789,0.00212229,0.82476,0.0042771,0.0102907,1420,379,1.73703,1.40502
203,645,1.72583,-1.38791,0.00493853,0.0077083,0.00278025,0.00942949,0.00321734,1.01647,0.00553489,0.0102649,1427,379,1.72577,1.3879
210,645,1.7467,-1.40952,0.00575411,0.0101269,0.00266267,0.0113858,0.0044952,1.12915,0.00662193,0.0131645,1434,379,1.74669,1.40952
217,645,1.73572,-1.39917,0.00700363,0.0131146,0.00247738,0.0139927,0.00612548,1.23015,0.00809953,0.0118866,1441,379,1.73567,1.39918
224,645,1.72351,-1.36594,0.00892354,0.0161755,0.00232891,0.016859,0.00824005,1.28533,0.00973438,0.0113295,1448,379,1.72346,1.36595
231,645,1.72278,-1.32214,0.010877,0.0195535,0.00281817,0.0203885,0.010042,1.28274,0.0117717,0.0124904,1455,379,1.72278,1.32213
238,645,1.71619,-1.30795,0.0122689,0.0209067,0.00307749,0.0218909,0.0112846,1.26124,0.0126408,0.00954393,1462,379,1.7162,1.30797
245,645,1.72046,-1.30664,0.0131613,0.0209572,0.00392884,0.0225936,0.0115248,1.17612,0.0130453,0.0102121,1469,379,1.72049,1.30664
252,645,1.73535,-1.29102,0.0133558,0.0203308,0.00403691,0.022178,0.0115086,1.14165,0.0128075,0.0144113,1476,379,1.73536,1.291
259,645,1.73499,-1.30054,0.0127921,0.0181221,0.00410768,0.0203536,0.0105607,1.07316,0.0117539,0.0232345,1483,379,1.73495,1.30053
266,645,1.71545,-1.25638,0.0115235,0.0178933,0.00346391,0.019414,0.0100029,1.15713,0.0112104,0.0232231,1490,379,1.71547,1.25637
273,645,1.73206,-1.2482,0.00883645,0.0165861,0.00303854,0.0176354,0.00778715,1.23829,0.0102049,0.0215046,1497,379,1.732,1.24821
280,645,1.79333,-1.1235,0.00588934,0.014417,0.00210295,0.0149074,0.00539895,1.3417,0.00871514,0.0343625,1504,379,1.79337,1.12352
287,645,1.72815,-1.15298,0.00220846,0.0124102,0.000670958,0.0124541,0.00216452,1.5054,0.00768354,0.0427821,1511,379,1.72813,1.153
294,645,1.65393,-1.28055,-0.00159483,0.0111186,-0.00188915,0.0113934,-0.00186961,-1.42636,0.00828936,0.0434856,1518,379,1.65396,1.28054
301,645,2.00354,-1.5676,-0.00554487,0.0108309,-0.00495111,0.0122114,-0.00692542,-1.29887,0.0111883,0.0446443,1525,379,2.00348,1.5676
308,645,2.31482,-1.68951,-0.00641669,0.0115461,-0.00983184,0.0158813,-0.0107518,-1.15551,0.0154714,0.0469157,1532,379,2.31485,1.68951
315,645,2.77502,-1.68222,-0.00535118,0.0134349,-0.0156827,0.0223223,-0.0142386,-1.05522,0.0212798,0.0467151,1539,379,2.77502,1.68221
322,645,0.890381,-0.173035,-0.002045,0.0137607,-0.0212884,0.0285658,-0.0168501,-0.963127,0.0265101,0.041298,1546,379,0.890392,0.173042
329,645,1.22229,0.177124,0,0,0,0,0,0,0,-1,1553,379,1.22232,-0.177119
336,645,1.65186,-1.14951,0,0,0,0,0,0,0,-1,1560,379,1.65189,1.1495
343,645,1.72278,-0.768768,0,0,0,0,0,0,0,-1,1567,379,1.72282,0.768755
350,645,2.1604,-0.478546,0,0,0,0,0,0,0,-1,1574,379,2.16035,0.478538
357,645,-0.455322,-1.44739,0,0,0,0,0,0,0,-1,1581,379,-0.455272,1.44739
364,645,-0.201416,-1.56198,0,0,0,0,0,0,0,-1,1588,379,-0.201412,1.56198
371,645,0,0,0,0,0,0,0,0,0,-1,1595,379,0,0
378,645,0,0,0,0,0,0,0,0,0,-1,1602,379,0,0
385,645,0,0,0,0,0,0,0,0,0,-1,1609,379,0,0
392,645,0,0,0,0,0,0,0,0,0,-1,1616,379,0,0
399,645,0,0,0,0,0,0,0,0,0,-1,1623,379,0,0
406,645,0,0,0,0,0,0,0,0,0,-1,1630,379,0,0
413,645,0,0,0,0,0,0,0,0,0,-1,1637,379,0,0
420,645,0,0,0,0,0,0,0,0,0,-1,1644,379,0,0
427,645,0,0,0,0,0,0,0,0,0,-1,1651,379,0,0
434,645,0,0,0,0,0,0,0,0,0,-1,1658,379,0,0
441,645,0,0,0,0,0,0,0,0,0,-1,1665,379,0,0
448,645,0,0,0,0,0,0,0,0,0,-1,1672,379,0,0
455,645,0,0,0,0,0,0,0,0,0,-1,1679,379,0,0
462,645,0,0,0,0,0,0,0,0,0,-1,1686,379,0,0
469,645,0,0,0,0,0,0,0,0,0,-1,1693,379,0,0
476,645,0,0,0,0,0,0,0,0,0,-1,1700,379,0,0
483,645,0,0,0,0,0,0,0,0,0,-1,1707,379,0,0
490,645,0,0,0,0,0,0,0,0,0,-1,1714,379,0,0
497,645,0,0,0,0,0,0,0,0,0,-1,1721,379,0,0
504,645,0,0,0,0,0,0,0,0,0,-1,1728,379,0,0
511,645,0,0,0,0,0,0,0,0,0,-1,1735,379,0,0
518,645,0,0,0,0,0,0,0,0,0,-1,1742,379,0,0
525,645,0,0,0,0,0,0,0,0,0,-1,1749,379,0,0
532,645,0,0,0,0,0,0,0,0,0,-1,1756,379,0,0
539,645,0,0,0,0,0,0,0,0,0,-1,1763,379,0,0
546,645,0,0,0,0,0,0,0,0,0,-1,1770,379,0,0
553,645,0,0,0,0,0,0,0,0,0,-1,1777,379,0,0
560,645,0,0,0,0,0,0,0,0,0,-1,1784,379,0,0
567,645,0,0,0,0,0,0,0,0,0,-1,1791,379,0,0
574,645,0,0,0,0,0,0,0,0,0,-1,1798,379,0,0
581,645,0,0,0,0,0,0,0,0,0,-1,1805,379,0,0
588,645,0,0,0,0,0,0,0,0,0,-1,1812,379,0,0
595,645,0,0,0,0,0,0,0,0,0,-1,1819,379,0,0
602,645,0,0,0,0,0,0,0,0,0,-1,1826,379,0,0
609,645,0,0,0,0,0,0,0,0,0,-1,1833,379,0,0
616,645,0,0,0,0,0,0,0,0,0,-1,1840,379,0,0
623,645,0,0,0,0,0,0,0,0,0,-1,1847,379,0,0
630,645,0,0,0,0,0,0,0,0,0,-1,1854,379,0,0
637,645,0,0,0,0,0,0,0,0,0,-1,1861,379,0,0
644,645,0,0,0,0,0,0,0,0,0,-1,1868,379,0,0
651,645,0,0,0,0,0,0,0,0,0,-1,1875,379,0,0
658,645,0,0,0,0,0,0,0,0,0,-1,1882,379,0,0
665,645,0,0,0,0,0,0,0,0,0,-1,1889,379,0,0
672,645,0,0,0,0,0,0,0,0,0,-1,1896,379,0,0
679,645,0,0,0,0,0,0,0,0,0,-1,1903,379,0,0
686,645,0,0,0,0,0,0,0,0,0,-1,1910,379,0,0
693,645,0,0,0,0,0,0,0,0,0,-1,1917,379,0,0
700,645,0,0,0,0,0,0,0,0,0,-1,1924,379,0,0
707,645,0,0,0,0,0,0,0,0,0,-1,1931,379,0,0
714,645,0,0,0,0,0,0,0,0,0,-1,1938,379,0,0
721,645,0,0,0,0,0,0,0,0,0,-1,1945,379,0,0
728,645,0,0,0,0,0,0,0,0,0,-1,1952,379,0,0
735,645,0,0,0,0,0,0,0,0,0,-1,1959,379,0,0
742,645,0,0,0,0,0,0,0,0,0,-1,1966,379,0,0
749,645,0,0,0,0,0,0,0,0,0,-1,1973,379,0,0
756,645,0,0,0,0,0,0,0,0,0,-1,1980,379,0,0
763,645,0,0,0,0,0,0,0,0,0,-1,1987,379,0,0
770,645,0,0,0,0,0,0,0,0,0,-1,1994,379,0,0
777,645,0,0,0,0,0,0,0,0,0,-1,2001,379,0,0
784,645,0,0,0,0,0,0,0,0,0,-1,2008,379,0,0
791,645,0,0,0,0,0,0,0,0,0,-1,2015,379,0,0
798,645,0,0,0,0,0,0,0,0,0,-1,2022,379,0,0
805,645,0,0,0,0,0,0,0,0,0,-1,2029,379,0,0
812,645,0,0,0,0,0,0,0,0,0,-1,2036,379,0,0
-700,638,0,0,0,0,0,0,0,0,0,-1,524,386,0,0
-693,638,0,0,0,0,0,0,0,0,0,-1,531,386,0,0
-686,638,0,0,0,0,0,0,0,0,0,-1,538,386,0,0
-679,638,0,0,0,0,0,0,0,0,0,-1,545,386,0,0
-672,638,0,0,0,0,0,0,0,0,0,-1,552,386,0,0
-665,638,0,0,0,0,0,0,0,0,0,-1,559,386,0,0
-658,638,0,0,0,0,0,0,0,0,0,-1,566,386,0,0
-651,638,0,0,0,0,0,0,0,0,0,-1,573,386,0,0
-644,638,0,0,0,0,0,0,0,0,0,-1,580,386,0,0
-637,638,0,0,0,0,0,0,0,0,0,-1,587,386,0,0
-630,638,0,0,0,0,0,0,0,0,0,-1,594,386,0,0
-623,638,0,0,0,0,0,0,0,0,0,-1,601,386,0,0
-616,638,0,0,0,0,0,0,0,0,0,-1,608,386,0,0
-609,638,0,0,0,0,0,0,0,0,0,-1,615,386,0,0
-602,638,0,0,0,0,0,0,0,0,0,-1,622,386,0,0
-595,638,0,0,0,0,0,0,0,0,0,-1,629,386,0,0
-588,638,0,0,0,0,0,0,0,0,0,-1,636,386,0,0
-581,638,0,0,0,0,0,0,0,0,0,-1,643,386,0,0
-574,638,0,0,0,0,0,0,0,0,0,-1,650,386,0,0
-567,638,0,0,0,0,0,0,0,0,0,-1,657,386,0,0
-560,638,0,0,0,0,0,0,0,0,0,-1,664,386,0,0
-553,638,0,0,0,0,0,0,0,0,0,-1,671,386,0,0
-546,638,0,0,0,0,0,0,0,0,0,-1,678,386,0,0
-539,638,0,0,0,0,0,0,0,0,0,-1,685,386,0,0
-532,638,0,0,0,0,0,0,0,0,0,-1,692,386,0,0
-525,638,0,0,0,0,0,0,0,0,0,-1,699,386,0,0
-518,638,0,0,0,0,0,0,0,0,0,-1,706,386,0,0
-511,638,0,0,0,0,0,0,0,0,0,-1,713,386,0,0
-504,638,0,0,0,0,0,0,0,0,0,-1,720,386,0,0
-497,638,0,0,0,0,0,0,0,0,0,-1,727,386,0,0
-490,638,0,0,0,0,0,0,0,0,0,-1,734,386,0,0
-483,638,0,0,0,0,0,0,0,0,0,-1,741,386,0,0
-476,638,0,0,0,0,0,0,0,0,0,-1,748,386,0,0
-469,638,0,0,0,0,0,0,0,0,0,-1,755,386,0,0
-462,638,0,0,0,0,0,0,0,0,0,-1,762,386,0,0
-455,638,0,0,0,0,0,0,0,0,0,-1,769,386,0,0
-448,638,0,0,0,0,0,0,0,0,0,-1,776,386,0,0
-441,638,0,0,0,0,0,0,0,0,0,-1,783,386,0,0
-434,638,0,0,0,0,0,0,0,0,0,-1,790,386,0,0
-427,638,0,0,0,0,0,0,0,0,0,-1,797,386,0,0
-420,638,0,0,0,0,0,0,0,0,0,-1,804,386,0,0
-413,638,0,0,0,0,0,0,0,0,0,-1,811,386,0,0
-406,638,0,0,0,0,0,0,0,0,0,-1,818,386,0,0
-399,638,0,0,0,0,0,0,0,0,0,-1,825,386,0,0
-392,638,0,0,0,0,0,0,0,0,0,-1,832,386,0,0
-385,638,0,0,0,0,0,0,0,0,0,-1,839,386,0,0
-378,638,0,0,0,0,0,0,0,0,0,-1,846,386,0,0
-371,638,0,0,0,0,0,0,0,0,0,-1,853,386,0,0
-364,638,0,0,0,0,0,0,0,0,0,-1,860,386,0,0
-357,638,0,0,0,0,0,0,0,0,0,-1,867,386,0,0
-350,638,0,0,0,0,0,0,0,0,0,-1,874,386,0,0
-343,638,0,0,0,0,0,0,0,0,0,-1,881,386,0,0
-336,638,0,0,0,0,0,0,0,0,0,-1,888,386,0,0
-329,638,0,0,0,0,0,0,0,0,0,-1,895,386,0,0
-322,638,0,0,0,0,0,0,0,0,0,-1,902,386,0,0
-315,638,0,0,0,0,0,0,0,0,0,-1,909,386,0,0
-308,638,0,0,0,0,0,0,0,0,0,-1,916,386,0,0
-301,638,0,0,0,0,0,0,0,0,0,-1,923,386,0,0
-294,638,0,0,0,0,0,0,0,0,0,-1,930,386,0,0
-287,638,0,0,0,0,0,0,0,0,0,-1,937,386,0,0
-280,638,0,0,0,0,0,0,0,0,0,-1,944,386,0,0
-273,638,0,0,0,0,0,0,0,0,0,-1,951,386,0,0
-266,638,-0.294006,-0.444,0,0,0,0,0,0,0,-1,958,386,-0.293992,0.444001
-259,638,0.0870972,-0.407806,0,0,0,0,0,0,0,-1,965,386,0.0871038,0.407819
-252,638,0.357666,0.350403,0,0,0,0,0,0,0,-1,972,386,0.357664,-0.350412
-245,638,0.296387,0.318512,0,0,0,0,0,0,0,-1,979,386,0.296399,-0.318524
-238,638,-0.856873,-0.311798,0,0,0,0,0,0,0,-1,986,386,-0.856893,0.311801
-231,638,1.70502,-0.0773926,0,0,0,0,0,0,0,-1,993,386,1.70504,0.0773969
-224,638,0.88324,-1.73502,0,0,0,0,0,0,0,-1,1000,386,0.883247,1.735
-217,638,0.849792,-2.08301,0,0,0,0,0,0,0,-1,1007,386,0.84978,2.08301
-210,638,1.47406,-1.00351,0,0,0,0,0,0,0,-1,1014,386,1.47408,1.00352
-203,638,3.22937,-1.86102,0,0,0,0,0,0,0,-1,1021,386,3.22936,1.86102
-196,638,1.7157,-1.13242,-0.0222072,-0.0143097,0.00167916,-0.0139675,-0.0225494,1.36976,0.0131421,0.047242,1028,386,1.71569,1.13241
-189,638,1.43542,-1.26593,-0.0216322,-0.0109136,0.00103502,-0.0108145,-0.0217312,1.47541,0.0125466,0.0462319,1035,386,1.43549,1.26594
-182,638,1.35852,-1.46088,0,0,0,0,0,0,0,-1,1042,386,1.35846,1.46087
-175,638,1.70959,-1.27124,-0.0184316,-0.00468355,-0.000844255,-0.0046319,-0.0184833,-1.50969,0.011105,0.0389921,1049,386,1.70955,1.27123
-168,638,1.66455,-1.14108,-0.0168712,-0.00319259,-0.00211205,-0.00287391,-0.0171899,-1.42104,0.0106322,0.03117,1056,386,1.6645,1.14108
-161,638,1.65747,-1.1333,-0.01549,-0.00246762,-0.00324059,-0.00170577,-0.0162519,-1.3399,0.0103131,0.0276878,1063,386,1.65752,1.1333
-154,638,1.69946,-1.15689,-0.0145088,-0.00206262,-0.00448516,-0.000614766,-0.0159567,-1.25855,0.0104389,0.0220785,1070,386,1.69945,1.15689
-147,638,1.7406,-1.181,-0.0132951,-0.00191115,-0.00615593,0.000781025,-0.0159873,-1.15853,0.0109278,0.0178163,1077,386,1.7406,1.18099
-140,638,1.74878,-1.20325,-0.0123716,-0.00191131,-0.00783453,0.00227843,-0.0165613,-1.07971,0.0118735,0.0140327,1084,386,1.74879,1.20324
-133,638,1.76343,-1.25122,-0.0119001,-0.00191212,-0.00903332,0.00341575,-0.017228,-1.03791,0.012777,0.0111059,1091,386,1.76345,1.25122
-126,638,1.76746,-1.26505,-0.0115003,-0.00195412,-0.0101026,0.00444622,-0.0179006,-1.00608,0.0136592,0.0126456,1098,386,1.76741,1.26505
-119,638,1.77551,-1.26083,-0.0113813,-0.00190358,-0.0110675,0.00539691,-0.0186818,-0.987679,0.0145901,0.0136838,1105,386,1.77555,1.26084
-112,638,1.7832,-1.29379,-0.0115743,-0.00200434,-0.0116688,0.0058225,-0.0194011,-0.979974,0.01525,0.0128797,1112,386,1.78324,1.29379
-105,638,1.74133,-1.33755,-0.0117806,-0.00180989,-0.0116131,0.00584273,-0.0194332,-0.988146,0.0152801,0.0156324,1119,386,1.74134,1.33755
-98,638,1.75098,-1.3497,-0.0119344,-0.00132703,-0.0109706,0.00555467,-0.0188161,-1.01056,0.0147485,0.0159109,1126,386,1.75093,1.3497
-91,638,1.73816,-1.37094,-0.0116322,-0.000957218,-0.0102138,0.00522966,-0.0178191,-1.02617,0.0139532,0.0122189,1133,386,1.73812,1.37093
-84,638,1.72998,-1.37778,-0.0112343,-0.000359367,-0.0089763,0.00469793,-0.0162916,-1.05772,0.0127196,0.0134283,1140,386,1.72997,1.37778
-77,638,1.70654,-1.39023,-0.010481,0.000353839,-0.00769203,0.00434471,-0.0144718,-1.0922,0.0113761,0.0105455,1147,386,1.70659,1.39024
-70,638,1.72363,-1.38614,-0.0091945,0.000882691,-0.00603935,0.00370929,-0.0120211,-1.13305,0.00949515,0.0100508,1154,386,1.72369,1.38613
-63,638,1.73108,-1.39728,-0.00794378,0.00167266,-0.00434601,0.00334571,-0.00961682,-1.20332,0.00777037,0.0109121,1161,386,1.73106,1.39727
-56,638,1.74219,-1.43213,-0.00653994,0.00267038,-0.00307105,0.00360046,-0.00747002,-1.27672,0.00652039,0.0130422,1168,386,1.74223,1.43213
-49,638,1.72778,-1.42694,-0.00521712,0.00358121,-0.00204411,0.00403292,-0.00566884,-1.35331,0.00562779,0.011175,1175,386,1.72782,1.42695
-42,638,1.72717,-1.43668,-0.00405221,0.0045536,-0.00155554,0.00482614,-0.00432475,-1.39735,0.00528591,0.0109335,1182,386,1.72714,1.43668
-35,638,1.74036,-1.45782,-0.00231638,0.00529742,-0.00118185,0.00547665,-0.00249561,-1.42029,0.00470883,0.0106855,1189,386,1.74035,1.45783
-28,638,1.7384,-1.46378,-0.000403715,0.005589,-0.00174736,0.00606128,-0.000875992,-1.30682,0.00436227,0.0108506,1196,386,1.73838,1.46379
-21,638,1.7218,-1.46432,0.000923217,0.00578883,-0.00229316,0.00669924,1.28055e-05,-1.19287,0.0044619,0.0119021,1203,386,1.72184,1.46431
-14,638,1.72827,-1.48154,0.00241521,0.00572733,-0.00275418,0.007285,0.000857545,-1.05608,0.00459755,0.0113361,1210,386,1.72828,1.48152
-7,638,1.71826,-1.52286,0.00362303,0.00545754,-0.00298132,0.00765951,0.00142105,-0.934636,0.00470475,0.0162851,1217,386,1.71821,1.52285
0,638,1.75415,-1.49469,0.00431484,0.00516836,-0.00323036,0.00800002,0.00148318,-0.851072,0.00491414,0.0296028,1224,386,1.75418,1.4947
7,638,1.71179,-1.4874,0.00483873,0.00475611,-0.00326138,0.00805906,0.00153579,-0.779065,0.00494099,0.0236119,1231,386,1.71181,1.4874
14,638,1.70642,-1.48453,0.00506537,0.00429658,-0.00302116,0.00772649,0.00163546,-0.722121,0.00470163,0.0125732,1238,386,1.70645,1.48453
21,638,1.72388,-1.5202,0.00503572,0.00411796,-0.00272431,0.00733952,0.00181415,-0.701962,0.00441436,0.0109003,1245,386,1.7239,1.52022
28,638,1.72253,-1.50528,0.00488245,0.00407248,-0.00199956,0.00651762,0.0024373,-0.685481,0.0038026,0.00869838,1252,386,1.72255,1.50527
35,638,1.72949,-1.52954,0.00510731,0.00477702,-0.00104039,0.00599559,0.00388875,-0.706688,0.00351214,0.0102258,1259,386,1.72952,1.52953
42,638,1.75354,-1.54614,0.00526495,0.00507739,-0.000328543,0.00551284,0.0048295,-0.646369,0.00346995,0.00944442,1266,386,1.75349,1.54614
49,638,1.75867,-1.52792,0.00515748,0.00537849,0.000388124,0.00567153,0.00486444,0.924087,0.00354277,0.00821807,1273,386,1.75861,1.52791
56,638,1.74829,-1.50912,0.00515462,0.00567537,0.00116044,0.00660428,0.0042257,0.895758,0.00386238,0.0108842,1280,386,1.74831,1.50912
63,638,1.73767,-1.50702,0.00512839,0.00585467,0.00191263,0.00743833,0.00354473,0.879213,0.0042961,0.0125468,1287,386,1.7377,1.50702
70,638,1.73779,-1.52716,0.00449384,0.00594703,0.00240522,0.00773302,0.00270786,0.932085,0.00453098,0.0174261,1294,386,1.73776,1.52715
77,638,1.75183,-1.52777,0.00376112,0.00592968,0.00265946,0.0077174,0.0019734,0.978965,0.00462952,0.018385,1301,386,1.75179,1.52778
84,638,1.75574,-1.52954,0.00354491,0.00552711,0.00259991,0.00731842,0.00175359,0.967498,0.00441215,0.0127294,1308,386,1.75573,1.52955
91,638,1.73315,-1.52744,0.00326801,0.00502019,0.00245335,0.00674918,0.00153901,0.95689,0.00408428,0.0127555,1315,386,1.73311,1.52743
98,638,1.74475,-1.51144,0.00290815,0.00411943,0.0021348,0.00573284,0.00129474,0.923615,0.00347174,0.011339,1322,386,1.74473,1.51146
105,638,1.76941,-1.50821,0.00264967,0.00291723,0.00164051,0.00442941,0.0011375,0.826081,0.00265624,0.00889729,1329,386,1.76936,1.50821
112,638,1.76257,-1.52542,0.00258179,0.0018329,0.00117718,0.00344264,0.000972047,0.631414,0.00204941,0.00918385,1336,386,1.76255,1.52541
119,638,1.75671,-1.53473,0.00264429,0.000864056,0.00086128,0.00299277,0.00051558,0.384467,0.00184746,0.010518,1343,386,1.75675,1.53472
126,638,1.7522,-1.51178,0.00289069,-2.01903e-05,0.000652814,0.00303039,-0.000159891,0.210817,0.00207561,0.0142234,1350,386,1.75216,1.51179
133,638,1.74561,-1.47696,0.00294586,-0.000656561,0.000367404,0.00298295,-0.00069365,0.100608,0.00225568,0.0150341,1357,386,1.74558,1.47695
140,638,1.7384,-1.47943,0.00287311,-0.00139094,-4.27404e-05,0.00287354,-0.00139137,-0.0100221,0.00251142,0.015029,1364,386,1.73841,1.47942
147,638,1.73218,-1.49338,0.00323916,-0.00131982,0.000217126,0.00324948,-0.00133013,0.0474828,0.00272034,0.0163186,1371,386,1.73221,1.49339
154,638,1.72485,-1.51334,0.00350934,-0.0010728,0.000529026,0.00356963,-0.00113309,0.113465,0.00283399,0.0151681,1378,386,1.72489,1.51334
161,638,1.70618,-1.50806,0.00353928,-0.000913602,0.000759037,0.00366511,-0.00103943,0.164281,0.0028537,0.0176841,1385,386,1.7062,1.50805
168,638,1.7229,-1.47006,0.00340898,-0.000759282,0.00103513,0.00365188,-0.00100219,0.230491,0.00282846,0.02246,1392,386,1.72294,1.47005
175,638,1.74976,-1.44794,0.00305848,-0.000226441,0.00121771,0.00346064,-0.000628608,0.318986,0.00254267,0.0183463,1399,386,1.74971,1.44794
182,638,1.75757,-1.44211,0.00264802,0.000782538,0.00128858,0.00330601,0.00012454,0.472121,0.00216369,0.0123308,1406,386,1.75753,1.44212
189,638,1.77173,-1.42007,0.00239493,0.00203403,0.00120646,0.00343435,0.000994602,0.711163,0.0020405,0.0108114,1413,386,1.77177,1.42006
196,638,1.77905,-1.3999,0.00243739,0.00341686,0.0012036,0.00422654,0.0016277,0.978615,0.00246157,0.0141503,1420,386,1.77901,1.39991
203,638,1.78394,-1.38483,0.00282746,0.00541583,0.00145994,0.00607263,0.00217067,1.14804,0.00355321,0.0201701,1427,386,1.78396,1.38484
210,638,1.77136,-1.40298,0.00343454,0.00713768,0.00149005,0.00766278,0.00290944,1.23198,0.0044666,0.0163369,1434,386,1.77138,1.40297
217,638,1.75757,-1.40225,0.00435328,0.00925887,0.00147356,0.00966747,0.00394468,1.30031,0.0056129,0.0115581,1441,386,1.75754,1.40227
224,638,1.74536,-1.37286,0.00570751,0.011448,0.00147168,0.0118033,0.00535221,1.3339,0.00682449,0.0105966,1448,386,1.74531,1.37287
231,638,1.74341,-1.3306,0.0071116,0.0138355,0.00192593,0.0143481,0.00659903,1.31069,0.00829275,0.0124678,1455,386,1.74345,1.33061
238,638,1.72839,-1.31024,0.00816508,0.0148686,0.00223521,0.0155456,0.00748814,1.27672,0.00897725,0.0125819,1462,386,1.72839,1.31025
245,638,1.71008,-1.28534,0.00887663,0.014945,0.00291829,0.0161206,0.00770098,1.18783,0.00931034,0.0140976,1469,386,1.71008,1.28534
252,638,1.70972,-1.28012,0.00916786,0.0144503,0.00306634,0.0158561,0.00776205,1.14092,0.0091552,0.0159469,1476,386,1.70976,1.28012
259,638,1.74475,-1.26639,0.00889303,0.0127625,0.00319886,0.0145662,0.00708933,1.05738,0.00841078,0.0147959,1483,386,1.74473,1.26638
266,638,1.73401,-1.24744,0.00802643,0.012786,0.00273377,0.0140307,0.00678174,1.14354,0.00810213,0.0112155,1490,386,1.73397,1.24743
273,638,1.72693,-1.24738,0.00606886,0.0120504,0.00250041,0.0129579,0.00516133,1.22263,0.00753266,0.0105757,1497,386,1.72694,1.24739
280,638,1.74365,-1.20758,0.00402015,0.010615,0.00187352,0.0111101,0.00352507,1.31245,0.00655562,0.0165856,1504,386,1.74367,1.20758
287,638,1.77515,-1.17459,0.00144408,0.0093616,0.000912093,0.00946532,0.00134037,1.45757,0.00591427,0.0288142,1511,386,1.77518,1.1746
294,638,1.73022,-1.25607,-0.00119166,0.00864097,-0.000983642,0.00873841,-0.0012891,-1.47206,0.00629943,0.0342972,1518,386,1.73028,1.25607
301,638,1.72839,-1.19269,-0.0039912,0.0087139,-0.00314773,0.00945099,-0.0047283,-1.34077,0.00833641,0.0410172,1525,386,1.7284,1.19267
308,638,2.03235,-1.65076,-0.00431466,0.0094374,-0.00692472,0.01232,-0.0071973,-1.17633,0.011397,0.0419912,1532,386,2.03229,1.65075
315,638,1.73816,-0.944397,-0.00308171,0.0111261,-0.0114883,0.0175295,-0.00948512,-1.0623,0.0158257,0.0431917,1539,386,1.7382,0.944403
322,638,1.38049,-0.469513,-0.000138303,0.0114645,-0.015804,0.0224982,-0.011172,-0.961305,0.0198028,0.0435613,1546,386,1.38044,0.469501
329,638,1.40637,-0.980164,0,0,0,0,0,0,0,-1,1553,386,1.40631,0.980175
336,638,1.59338,-1.11343,0,0,0,0,0,0,0,-1,1560,386,1.59333,1.11344
343,638,-0.022583,-1.29279,0,0,0,0,0,0,0,-1,1567,386,-0.0225777,1.2928
350,638,0.260376,-1.46533,0,0,0,0,0,0,0,-1,1574,386,0.260423,1.46534
357,638,0.664917,-1.33493,0.0407192,0.0229144,-0.0289718,0.0621255,0.00150806,-0.636338,0.0409236,0.0465204,1581,386,0.664923,1.33493
364,638,1.10815,-1.48697,0.0511398,0.0252694,-0.0295801,0.0704893,0.00591983,-0.579279,0.0451491,0.0444703,1588,386,1.10813,1.48696
371,638,1.42712,-1.57455,0.0595171,0.0157567,-0.0263637,0.0718975,0.00337632,-0.439034,0.0468468,0.0432655,1595,386,1.42713,1.57455
378,638,2.0144,-1.22495,0.0683421,0.0145798,-0.0247424,0.0779956,0.00492631,-0.371995,0.0504352,0.0450067,1602,386,2.01436,1.22495
385,638,0,0,0,0,0,0,0,0,0,-1,1609,386,0,0
392,638,0,0,0,0,0,0,0,0,0,-1,1616,386,0,0
399,638,0,0,0,0,0,0,0,0,0,-1,1623,386,0,0
406,638,0,0,0,0,0,0,0,0,0,-1,1630,386,0,0
413,638,0,0,0,0,0,0,0,0,0,-1,1637,386,0,0
420,638,0,0,0,0,0,0,0,0,0,-1,1644,386,0,0
427,638,0,0,0,0,0,0,0,0,0,-1,1651,386,0,0
434,638,0,0,0,0,0,0,0,0,0,-1,1658,386,0,0
441,638,0,0,0,0,0,0,0,0,0,-1,1665,386,0,0
448,638,0,0,0,0,0,0,0,0,0,-1,1672,386,0,0
455,638,0,0,0,0,0,0,0,0,0,-1,1679,386,0,0
462,638,0,0,0,0,0,0,0,0,0,-1,1686,386,0,0
469,638,0,0,0,0,0,0,0,0,0,-1,1693,386,0,0
476,638,0,0,0,0,0,0,0,0,0,-1,1700,386,0,0
483,638,0,0,0,0,0,0,0,0,0,-1,1707,386,0,0
490,638,0,0,0,0,0,0,0,0,0,-1,1714,386,0,0
497,638,0,0,0,0,0,0,0,0,0,-1,1721,386,0,0
504,638,0,0,0,0,0,0,0,0,0,-1,1728,386,0,0
511,638,0,0,0,0,0,0,0,0,0,-1,1735,386,0,0
518,638,0,0,0,0,0,0,0,0,0,-1,1742,386,0,0
525,638,0,0,0,0,0,0,0,0,0,-1,1749,386,0,0
532,638,0,0,0,0,0,0,0,0,0,-1,1756,386,0,0
539,638,0,0,0,0,0,0,0,0,0,-1,1763,386,0,0
546,638,0,0,0,0,0,0,0,0,0,-1,1770,386,0,0
553,638,0,0,0,0,0,0,0,0,0,-1,1777,386,0,0
560,638,0,0,0,0,0,0,0,0,0,-1,1784,386,0,0
567,638,0,0,0,0,0,0,0,0,0,-1,1791,386,0,0
574,638,0,0,0,0,0,0,0,0,0,-1,1798,386,0,0
581,638,0,0,0,0,0,0,0,0,0,-1,1805,386,0,0
588,638,0,0,0,0,0,0,0,0,0,-1,1812,386,0,0
595,638,0,0,0,0,0,0,0,0,0,-1,1819,386,0,0
602,638,0,0,0,0,0,0,0,0,0,-1,1826,386,0,0
609,638,0,0,0,0,0,0,0,0,0,-1,1833,386,0,0
616,638,0,0,0,0,0,0,0,0,0,-1,1840,386,0,0
623,638,0,0,0,0,0,0,0,0,0,-1,1847,386,0,0
630,638,0,0,0,0,0,0,0,0,0,-1,1854,386,0,0
637,638,0,0,0,0,0,0,0,0,0,-1,1861,386,0,0
644,638,0,0,0,0,0,0,0,0,0,-1,1868,386,0,0
651,638,0,0,0,0,0,0,0,0,0,-1,1875,386,0,0
658,638,0,0,0,0,0,0,0,0,0,-1,1882,386,0,0
665,638,0,0,0,0,0,0,0,0,0,-1,1889,386,0,0
672,638,0,0,0,0,0,0,0,0,0,-1,1896,386,0,0
679,638,0,0,0,0,0,0,0,0,0,-1,1903,386,0,0
686,638,0,0,0,0,0,0,0,0,0,-1,1910,386,0,0
693,638,0,0,0,0,0,0,0,0,0,-1,1917,386,0,0
700,638,0,0,0,0,0,0,0,0,0,-1,1924,386,0,0
707,638,0,0,0,0,0,0,0,0,0,-1,1931,386,0,0
714,638,0,0,0,0,0,0,0,0,0,-1,1938,386,0,0
721,638,0,0,0,0,0,0,0,0,0,-1,1945,386,0,0
728,638,0,0,0,0,0,0,0,0,0,-1,1952,386,0,0
735,638,0,0,0,0,0,0,0,0,0,-1,1959,386,0,0
742,638,0,0,0,0,0,0,0,0,0,-1,1966,386,0,0
749,638,0,0,0,0,0,0,0,0,0,-1,1973,386,0,0
756,638,0,0,0,0,0,0,0,0,0,-1,1980,386,0,0
763,638,0,0,0,0,0,0,0,0,0,-1,1987,386,0,0
770,638,0,0,0,0,0,0,0,0,0,-1,1994,386,0,0
777,638,0,0,0,0,0,0,0,0,0,-1,2001,386,0,0
784,638,0,0,0,0,0,0,0,0,0,-1,2008,386,0,0
791,638,0,0,0,0,0,0,0,0,0,-1,2015,386,0,0
798,638,0,0,0,0,0,0,0,0,0,-1,2022,386,0,0
805,638,0,0,0,0,0,0,0,0,0,-1,2029,386,0,0
812,638,0,0,0,0,0,0,0,0,0,-1,2036,386,0,0
-700,631,0,0,0,0,0,0,0,0,0,-1,524,393,0,0
-693,631,0,0,0,0,0,0,0,0,0,-1,531,393,0,0
-686,631,0,0,0,0,0,0,0,0,0,-1,538,393,0,0
-679,631,0,0,0,0,0,0,0,0,0,-1,545,393,0,0
-672,631,0,0,0,0,0,0,0,0,0,-1,552,393,0,0
-665,631,0,0,0,0,0,0,0,0,0,-1,559,393,0,0
-658,631,0,0,0,0,0,0,0,0,0,-1,566,393,0,0
-651,631,0,0,0,0,0,0,0,0,0,-1,573,393,0,0
-644,631,0,0,0,0,0,0,0,0,0,-1,580,393,0,0
-637,631,0,0,0,0,0,0,0,0,0,-1,587,393,0,0
-630,631,0,0,0,0,0,0,0,0,0,-1,594,393,0,0
-623,631,0,0,0,0,0,0,0,0,0,-1,601,393,0,0
-616,631,0,0,0,0,0,0,0,0,0,-1,608,393,0,0
-609,631,0,0,0,0,0,0,0,0,0,-1,615,393,0,0
-602,631,0,0,0,0,0,0,0,0,0,-1,622,393,0,0
-595,631,0,0,0,0,0,0,0,0,0,-1,629,393,0,0
-588,631,0,0,0,0,0,0,0,0,0,-1,636,393,0,0
-581,631,0,0,0,0,0,0,0,0,0,-1,643,393,0,0
-574,631,0,0,0,0,0,0,0,0,0,-1,650,393,0,0
-567,631,0,0,0,0,0,0,0,0,0,-1,657,393,0,0
-560,631,0,0,0,0,0,0,0,0,0,-1,664,393,0,0
-553,631,0,0,0,0,0,0,0,0,0,-1,671,393,0,0
-546,631,0,0,0,0,0,0,0,0,0,-1,678,393,0,0
-539,631,0,0,0,0,0,0,0,0,0,-1,685,393,0,0
-532,631,0,0,0,0,0,0,0,0,0,-1,692,393,0,0
-525,631,0,0,0,0,0,0,0,0,0,-1,699,393,0,0
-518,631,0,0,0,0,0,0,0,0,0,-1,706,393,0,0
-511,631,0,0,0,0,0,0,0,0,0,-1,713,393,0,0
-504,631,0,0,0,0,0,0,0,0,0,-1,720,393,0,0
-497,631,0,0,0,0,0,0,0,0,0,-1,727,393,0,0
-490,631,0,0,0,0,0,0,0,0,0,-1,734,393,0,0
-483,631,0,0,0,0,0,0,0,0,0,-1,741,393,0,0
-476,631,0,0,0,0,0,0,0,0,0,-1,748,393,0,0
-469,631,0,0,0,0,0,0,0,0,0,-1,755,393,0,0
-462,631,0,0,0,0,0,0,0,0,0,-1,762,393,0,0
-455,631,0,0,0,0,0,0,0,0,0,-1,769,393,0,0
-448,631,0,0,0,0,0,0,0,0,0,-1,776,393,0,0
-441,631,0,0,0,0,0,0,0,0,0,-1,783,393,0,0
-434,631,0,0,0,0,0,0,0,0,0,-1,790,393,0,0
-427,631,0,0,0,0,0,0,0,0,0,-1,797,393,0,0
-420,631,0,0,0,0,0,0,0,0,0,-1,804,393,0,0
-413,631,0,0,0,0,0,0,0,0,0,-1,811,393,0,0
-406,631,0,0,0,0,0,0,0,0,0,-1,818,393,0,0
-399,631,0,0,0,0,0,0,0,0,0,-1,825,393,0,0
-392,631,0,0,0,0,0,0,0,0,0,-1,832,393,0,0
-385,631,0,0,0,0,0,0,0,0,0,-1,839,393,0,0
-378,631,0,0,0,0,0,0,0,0,0,-1,846,393,0,0
-371,631,0,0,0,0,0,0,0,0,0,-1,853,393,0,0
-364,631,0,0,0,0,0,0,0,0,0,-1,860,393,0,0
-357,631,0,0,0,0,0,0,0,0,0,-1,867,393,0,0
-350,631,0,0,0,0,0,0,0,0,0,-1,874,393,0,0
-343,631,0,0,0,0,0,0,0,0,0,-1,881,393,0,0
-336,631,0,0,0,0,0,0,0,0,0,-1,888,393,0,0
-329,631,0,0,0,0,0,0,0,0,0,-1,895,393,0,0
-322,631,0,0,0,0,0,0,0,0,0,-1,902,393,0,0
-315,631,0,0,0,0,0,0,0,0,0,-1,909,393,0,0
-308,631,0,0,0,0,0,0,0,0,0,-1,916,393,0,0
-301,631,0,0,0,0,0,0,0,0,0,-1,923,393,0,0
-294,631,0,0,0,0,0,0,0,0,0,-1,930,393,0,0
-287,631,0,0,0,0,0,0,0,0,0,-1,937,393,0,0
-280,631,5.95026,-3.18335,-0.19354,-0.062261,-0.00483173,-0.0620834,-0.193718,-1.53406,0.114221,0.0442832,944,393,5.95024,3.18334
-273,631,-2.64099,-2.85458,-0.172802,-0.0621754,-0.00506961,-0.0619436,-0.173034,-1.5251,0.101235,0.0440652,951,393,-2.64099,2.85458
-266,631,-2.15027,-2.15045,0,0,0,0,0,0,0,-1,958,393,-2.15026,2.15045
-259,631,0.147827,-0.599548,0,0,0,0,0,0,0,-1,965,393,0.147798,0.599534
-252,631,1.4538,-0.591156,0,0,0,0,0,0,0,-1,972,393,1.45383,0.591142
-245,631,-0.0430298,0.390717,0,0,0,0,0,0,0,-1,979,393,-0.0430506,-0.390705
-238,631,1.1167,0.494995,0,0,0,0,0,0,0,-1,986,393,1.1167,-0.494998
-231,631,1.14948,-1.23312,0,0,0,0,0,0,0,-1,993,393,1.14949,1.23311
-224,631,1.15613,-1.57361,0,0,0,0,0,0,0,-1,1000,393,1.15616,1.57362
-217,631,1.10107,-1.82483,0,0,0,0,0,0,0,-1,1007,393,1.10105,1.82482
-210,631,1.27448,-1.6752,0,0,0,0,0,0,0,-1,1014,393,1.27448,1.67519
-203,631,2.83893,-1.50769,-0.0126797,-0.0171504,0.00226518,-0.0117326,-0.0180975,0.396014,0.0106007,0.0464649,1021,393,2.83895,1.50768
-196,631,1.68274,-1.21027,-0.0161786,-0.0138042,0.00148845,-0.0130875,-0.0168954,1.12204,0.0102332,0.0469226,1028,393,1.68277,1.21026
-189,631,1.50098,-1.17654,-0.0157888,-0.0107833,0.000879529,-0.0106332,-0.0159389,1.40183,0.00937209,0.0420183,1035,393,1.501,1.17654
-182,631,1.60913,-1.25836,-0.0145436,-0.00730452,0.000174603,-0.00730031,-0.0145478,1.5467,0.00839922,0.0380525,1042,393,1.60918,1.25835
-175,631,1.69495,-1.18903,-0.0130381,-0.00492077,-0.000874442,-0.00482764,-0.0131312,-1.46469,0.00766935,0.0308667,1049,393,1.69492,1.18903
-168,631,1.70972,-1.13123,-0.0117412,-0.00343522,-0.0019919,-0.00298224,-0.0121942,-1.34719,0.00734019,0.0164802,1056,393,1.70974,1.13124
-161,631,1.70923,-1.15863,-0.0104479,-0.0025803,-0.00298276,-0.00157733,-0.0114509,-1.24642,0.00716623,0.00875064,1063,393,1.70927,1.15862
-154,631,1.71155,-1.18378,-0.00947467,-0.00202062,-0.00398437,-0.000291824,-0.0112035,-1.16142,0.00737363,0.00857635,1070,393,1.71159,1.18377
-147,631,1.71887,-1.20041,-0.00824249,-0.00167527,-0.00532463,0.00129683,-0.0112146,-1.0617,0.00794403,0.00942962,1077,393,1.71882,1.2004
-140,631,1.71851,-1.23477,-0.0072753,-0.00149687,-0.00657164,0.00279264,-0.0115648,-0.992505,0.00878989,0.00886285,1084,393,1.71851,1.23479
-133,631,1.73962,-1.26794,-0.0067791,-0.00133935,-0.00740248,0.00382712,-0.0119456,-0.961456,0.00949995,0.00744301,1091,393,1.73966,1.26794
-126,631,1.7644,-1.26315,-0.0064392,-0.00121433,-0.0081087,0.00469238,-0.0123459,-0.941236,0.0101625,0.0110254,1098,393,1.76442,1.26315
-119,631,1.76575,-1.25369,-0.00631139,-0.00103435,-0.00875322,0.00546937,-0.0128151,-0.931784,0.0108368,0.0146374,1105,393,1.76576,1.2537
-112,631,1.72485,-1.29138,-0.00655753,-0.000976786,-0.00907946,0.00573141,-0.0132657,-0.934481,0.0112519,0.0138019,1112,393,1.7249,1.29139
-105,631,1.69653,-1.33359,-0.00691555,-0.000800452,-0.00895991,0.00560924,-0.0133252,-0.949826,0.0112303,0.018235,1119,393,1.69648,1.33359
-98,631,1.71313,-1.35571,-0.0073267,-0.000371788,-0.00835551,0.00520102,-0.0128995,-0.982589,0.0107608,0.016212,1126,393,1.71318,1.35573
-91,631,1.72742,-1.37579,-0.00740289,-4.23071e-05,-0.00757929,0.00470297,-0.0121482,-1.01142,0.0100405,0.0173644,1133,393,1.72741,1.37578
-84,631,1.7179,-1.38031,-0.00736171,0.000443268,-0.00639675,0.00403397,-0.0109524,-1.05929,0.00895445,0.0158778,1140,393,1.71795,1.38031
-77,631,1.71143,-1.38208,-0.00712097,0.000963954,-0.00514593,0.00346535,-0.00962236,-1.11834,0.00782995,0.0096655,1147,393,1.71143,1.38209
-70,631,1.72437,-1.36786,-0.00643269,0.00133252,-0.00369235,0.0028079,-0.00790808,-1.19065,0.0064162,0.010638,1154,393,1.72435,1.36785
-63,631,1.73279,-1.39667,-0.0055856,0.00175954,-0.00224787,0.00239286,-0.00621892,-1.29617,0.00513298,0.01063,1161,393,1.73278,1.39667
-56,631,1.73071,-1.44757,-0.00463433,0.00222625,-0.00103595,0.00237927,-0.00478734,-1.42415,0.00421479,0.0108202,1168,393,1.73071,1.44759
-49,631,1.71692,-1.43961,-0.00361324,0.00246574,-1.03358e-05,0.00246576,-0.00361326,-1.5691,0.00353051,0.00980356,1175,393,1.71687,1.43961
-42,631,1.72144,-1.44827,-0.00273879,0.00268437,0.000691093,0.00277106,-0.00282547,1.44602,0.00323121,0.00914609,1182,393,1.72144,1.44829
-35,631,1.7406,-1.45874,-0.00158681,0.00261617,0.00132276,0.00299781,-0.00196845,1.2899,0.00288773,0.0101741,1189,393,1.74057,1.45875
-28,631,1.72327,-1.46094,-0.000498183,0.00231137,0.00109435,0.00268732,-0.000874136,1.23989,0.0021432,0.0131736,1196,393,1.72332,1.46094
-21,631,1.70459,-1.47583,0.000557525,0.00195144,0.000790699,0.0023085,0.000200465,1.14663,0.00147672,0.0115607,1203,393,1.70458,1.47583
-14,631,1.70056,-1.48752,0.00167992,0.00147504,0.000422613,0.00201233,0.00114263,0.666496,0.00116538,0.0134866,1210,393,1.70051,1.48752
-7,631,1.69531,-1.51813,0.00256891,0.000922903,9.56505e-05,0.00257445,0.000917363,0.0578511,0.00150667,0.0205902,1217,393,1.6953,1.51814
0,631,1.6748,-1.54102,0.00294884,0.000835335,-0.000407159,0.00302456,0.00075961,-0.183882,0.00181689,0.0217436,1224,393,1.67478,1.54102
7,631,1.68799,-1.50497,0.0031314,0.000797025,-0.000924694,0.0034533,0.000475124,-0.334996,0.0021613,0.0173993,1231,393,1.68797,1.50497
14,631,1.73535,-1.50424,0.00325645,0.00103755,-0.00135294,0.00389666,0.000397339,-0.44198,0.00247598,0.0102345,1238,393,1.7354,1.50425
21,631,1.74817,-1.51727,0.0033852,0.00159011,-0.00183753,0.00453268,0.000442636,-0.558215,0.00288558,0.012499,1245,393,1.74819,1.51727
28,631,1.71838,-1.51672,0.00327538,0.0023111,-0.00205006,0.00489923,0.000687255,-0.669905,0.00306288,0.0141129,1252,393,1.71834,1.51672
35,631,1.71667,-1.53094,0.00318178,0.00349469,-0.00223671,0.00558041,0.00109606,-0.820316,0.00341408,0.0131484,1259,393,1.71672,1.53096
42,631,1.75537,-1.54099,0.00318528,0.00443807,-0.00231445,0.00620939,0.00141395,-0.917555,0.00375801,0.0122387,1266,393,1.75538,1.541
49,631,1.75586,-1.52609,0.00295484,0.00527257,-0.00230918,0.00669736,0.00153004,-1.01796,0.00405235,0.0113556,1273,393,1.75582,1.5261
56,631,1.74829,-1.52402,0.0027904,0.00586042,-0.00206694,0.0069,0.00175082,-1.10479,0.00414164,0.0123991,1280,393,1.74832,1.524
63,631,1.73718,-1.54138,0.00269724,0.00601049,-0.00174607,0.00676076,0.00194697,-1.16496,0.0040186,0.0136324,1287,393,1.73722,1.54138
70,631,1.73511,-1.51801,0.00221183,0.00586225,-0.00143737,0.00636027,0.00171381,-1.23726,0.00379999,0.0147055,1294,393,1.73516,1.518
77,631,1.73853,-1.5159,0.001738,0.00528821,-0.000979573,0.00554056,0.00148565,-1.31867,0.0033115,0.0151868,1301,393,1.7385,1.5159
84,631,1.75269,-1.52023,0.00132824,0.00427819,-0.000712707,0.00444135,0.00116508,-1.34574,0.00265903,0.0121468,1308,393,1.75264,1.52023
91,631,1.73853,-1.52472,0.00100351,0.00339043,-0.000403493,0.0034568,0.00093715,-1.40779,0.00206432,0.0137907,1315,393,1.73855,1.52473
98,631,1.74097,-1.52112,0.000832039,0.00215363,-0.000200918,0.0021835,0.000802169,-1.42321,0.00127534,0.0114264,1322,393,1.74098,1.52113
105,631,1.7583,-1.52899,0.000790713,0.000596427,-0.000109329,0.000839822,0.000547318,-0.422176,0.000492255,0.0101032,1329,393,1.75832,1.52898
112,631,1.75793,-1.54187,0.000909572,-0.000536117,-7.79944e-05,0.000913767,-0.000540313,-0.0537417,0.000848693,0.01147,1336,393,1.75797,1.54187
119,631,1.7467,-1.54443,0.00107661,-0.00136839,-2.11035e-05,0.00107679,-0.00136858,-0.00863043,0.00141518,0.0121144,1343,393,1.74667,1.54443
126,631,1.76086,-1.52716,0.0012548,-0.00183323,8.59238e-06,0.00125483,-0.00183325,0.00278245,0.0017933,0.0155727,1350,393,1.76087,1.52717
133,631,1.76794,-1.49704,0.00148652,-0.00199964,-4.92103e-05,0.00148721,-0.00200033,-0.0141122,0.00202079,0.0157799,1357,393,1.76799,1.49704
140,631,1.78711,-1.48566,0.00172842,-0.00208162,-0.000202406,0.00173915,-0.00209234,-0.0529258,0.00221524,0.0171289,1364,393,1.78711,1.48565
147,631,1.78381,-1.48257,0.0018005,-0.00178136,-0.000312496,0.00182755,-0.00180842,-0.0863747,0.00209924,0.0209227,1371,393,1.78376,1.48256
154,631,1.73328,-1.47995,0.00172628,-0.00142812,-0.000351738,0.00176502,-0.00146686,-0.109712,0.00186858,0.0206225,1378,393,1.73327,1.47994
161,631,1.729,-1.49103,0.00147811,-0.0011126,-0.000393474,0.00153656,-0.00117105,-0.14745,0.00156797,0.0231824,1385,393,1.72905,1.49104
168,631,1.75647,-1.4491,0.0011661,-0.000815106,-0.000325963,0.00121835,-0.000867358,-0.158948,0.00120985,0.0283748,1392,393,1.75644,1.4491
175,631,1.75293,-1.44684,0.000814155,-0.000368722,-0.000232295,0.000858138,-0.000412705,-0.187126,0.000748594,0.0215141,1399,393,1.75287,1.44684
182,631,1.75232,-1.43988,0.000492539,0.000348773,-0.000148648,0.000585772,0.00025554,-0.560185,0.000339111,0.0113296,1406,393,1.75227,1.43988
189,631,1.76563,-1.41388,0.000319595,0.00116481,-0.000119507,0.00118139,0.000303023,-1.433,0.000708522,0.0106932,1413,393,1.7656,1.41387
196,631,1.76501,-1.40225,0.000407867,0.00184818,-2.32099e-05,0.00184856,0.000407493,-1.55469,0.0011215,0.012074,1420,393,1.76496,1.40224
203,631,1.75977,-1.38821,0.000763718,0.00318024,0.000295403,0.00321582,0.000728131,1.4509,0.0019471,0.0139771,1427,393,1.75972,1.38822
210,631,1.76111,-1.39172,0.00130734,0.00437913,0.000503922,0.00445969,0.00122679,1.41228,0.00266022,0.0151691,1434,393,1.76106,1.39173
217,631,1.77637,-1.40729,0.00207648,0.00584069,0.000673632,0.00595761,0.00195956,1.39894,0.0035061,0.0157379,1441,393,1.77639,1.40729
224,631,1.75317,-1.3844,0.00309546,0.00741829,0.000830924,0.00757251,0.00294125,1.38729,0.00440814,0.0128101,1448,393,1.75323,1.38438
231,631,1.75684,-1.32288,0.00417779,0.00911282,0.00130082,0.00943471,0.0038559,1.32822,0.00547732,0.0116139,1455,393,1.7568,1.32287
238,631,1.7334,-1.26666,0.00505595,0.00996293,0.00165651,0.0104698,0.00454909,1.27387,0.006062,0.0168996,1462,393,1.73345,1.26666
245,631,1.73694,-1.28589,0.00570264,0.0101413,0.00220645,0.0110515,0.00479245,1.17955,0.00639928,0.0184902,1469,393,1.73692,1.28589
252,631,1.71326,-1.28839,0.00610417,0.00984765,0.00238349,0.0110065,0.00494533,1.11825,0.00636547,0.0179765,1476,393,1.71322,1.28839
259,631,1.75342,-1.27304,0.00608802,0.00867915,0.00253979,0.0102347,0.00453244,1.02125,0.00592188,0.0126765,1483,393,1.75345,1.27303
266,631,1.77588,-1.26141,0.00551678,0.00887602,0.00219915,0.0099636,0.0044292,1.11152,0.00576427,0.0118696,1490,393,1.77586,1.2614
273,631,1.76282,-1.23727,0.00408618,0.0085441,0.0020705,0.00935738,0.00327289,1.19652,0.00548317,0.0136527,1497,393,1.7628,1.23729
280,631,1.73865,-1.23102,0.0026687,0.00763616,0.00164677,0.00813249,0.00217237,1.27806,0.00486209,0.0112036,1504,393,1.73865,1.23101
287,631,1.755,-1.20514,0.000891794,0.00690016,0.000990222,0.00705915,0.000732806,1.4116,0.00448185,0.0119198,1511,393,1.75503,1.20513
294,631,1.78296,-1.17123,-0.000903498,0.00652899,-0.000429785,0.00655376,-0.000928267,-1.51323,0.00470919,0.0149425,1518,393,1.78297,1.17123
301,631,1.76428,-1.15445,-0.00284967,0.00676108,-0.00193647,0.00713659,-0.00322518,-1.37926,0.0061228,0.0225333,1525,393,1.76431,1.15446
308,631,1.77795,-1.16708,-0.00283528,0.0074058,-0.0048075,0.00930893,-0.00473841,-1.19386,0.00825209,0.0308091,1532,393,1.77795,1.16709
315,631,1.70093,-1.07565,-0.00160872,0.00881306,-0.00830648,0.0134078,-0.00620349,-1.06553,0.0115745,0.0345993,1539,393,1.70098,1.07564
322,631,1.55859,-0.864014,0.000885945,0.00911134,-0.0115728,0.0172805,-0.00728321,-0.956126,0.0145681,0.0385644,1546,393,1.55858,0.864027
329,631,1.49829,-1.00485,0.00496135,0.009556,-0.0142697,0.0217121,-0.00719474,-0.86521,0.0173768,0.0449232,1553,393,1.49826,1.00484
336,631,1.37476,-0.951569,0,0,0,0,0,0,0,-1,1560,393,1.3747,0.951576
343,631,0.753906,-1.20673,0.0165492,0.0125782,-0.0172488,0.0319264,-0.00279907,-0.728096,0.022276,0.0446325,1567,393,0.753945,1.20671
350,631,1.04675,-1.37381,0,0,0,0,0,0,0,-1,1574,393,1.04669,1.37382
357,631,1.48901,-1.46475,0.0319273,0.0199595,-0.0190158,0.0458786,0.00600827,-0.632963,0.0287927,0.0460037,1581,393,1.489,1.46474
364,631,2.17041,-1.36359,0.0392658,0.0225287,-0.0184224,0.0511313,0.0106631,-0.572204,0.0311476,0.043098,1588,393,2.17042,1.36359
371,631,2.479,-1.17029,0.0452487,0.0181798,-0.0154421,0.0522481,0.0111804,-0.425568,0.031768,0.0435893,1595,393,2.47898,1.1703
378,631,2.75232,-1.05292,0.0510628,0.0197243,-0.0127687,0.0556065,0.0151806,-0.341878,0.033189,0.0451843,1602,393,2.75226,1.0529
385,631,3.0769,-0.908569,0,0,0,0,0,0,0,-1,1609,393,3.07688,0.908561
392,631,4.6947,-1.56616,0,0,0,0,0,0,0,-1,1616,393,4.69474,1.56618
399,631,0,0,0,0,0,0,0,0,0,-1,1623,393,0,0
406,631,0,0,0,0,0,0,0,0,0,-1,1630,393,0,0
413,631,0,0,0,0,0,0,0,0,0,-1,1637,393,0,0
420,631,0,0,0,0,0,0,0,0,0,-1,1644,393,0,0
427,631,0,0,0,0,0,0,0,0,0,-1,1651,393,0,0
434,631,0,0,0,0,0,0,0,0,0,-1,1658,393,0,0
441,631,0,0,0,0,0,0,0,0,0,-1,1665,393,0,0
448,631,0,0,0,0,0,0,0,0,0,-1,1672,393,0,0
455,631,0,0,0,0,0,0,0,0,0,-1,1679,393,0,0
462,631,0,0,0,0,0,0,0,0,0,-1,1686,393,0,0
469,631,0,0,0,0,0,0,0,0,0,-1,1693,393,0,0
476,631,0,0,0,0,0,0,0,0,0,-1,1700,393,0,0
483,631,0,0,0,0,0,0,0,0,0,-1,1707,393,0,0
490,631,0,0,0,0,0,0,0,0,0,-1,1714,393,0,0
497,631,0,0,0,0,0,0,0,0,0,-1,1721,393,0,0
504,631,0,0,0,0,0,0,0,0,0,-1,1728,393,0,0
511,631,0,0,0,0,0,0,0,0,0,-1,1735,393,0,0
518,631,0,0,0,0,0,0,0,0,0,-1,1742,393,0,0
525,631,0,0,0,0,0,0,0,0,0,-1,1749,393,0,0
532,631,0,0,0,0,0,0,0,0,0,-1,1756,393,0,0
539,631,0,0,0,0,0,0,0,0,0,-1,1763,393,0,0
546,631,0,0,0,0,0,0,0,0,0,-1,1770,393,0,0
553,631,0,0,0,0,0,0,0,0,0,-1,1777,393,0,0
560,631,0,0,0,0,0,0,0,0,0,-1,1784,393,0,0
567,631,0,0,0,0,0,0,0,0,0,-1,1791,393,0,0
574,631,0,0,0,0,0,0,0,0,0,-1,1798,393,0,0
581,631,0,0,0,0,0,0,0,0,0,-1,1805,393,0,0
588,631,0,0,0,0,0,0,0,0,0,-1,1812,393,0,0
595,631,0,0,0,0,0,0,0,0,0,-1,1819,393,0,0
602,631,0,0,0,0,0,0,0,0,0,-1,1826,393,0,0
609,631,0,0,0,0,0,0,0,0,0,-1,1833,393,0,0
616,631,0,0,0,0,0,0,0,0,0,-1,1840,393,0,0
623,631,0,0,0,0,0,0,0,0,0,-1,1847,393,0,0
630,631,0,0,0,0,0,0,0,0,0,-1,1854,393,0,0
637,631,0,0,0,0,0,0,0,0,0,-1,1861,393,0,0
644,631,0,0,0,0,0,0,0,0,0,-1,1868,393,0,0
651,631,0,0,0,0,0,0,0,0,0,-1,1875,393,0,0
658,631,0,0,0,0,0,0,0,0,0,-1,1882,393,0,0
665,631,0,0,0,0,0,0,0,0,0,-1,1889,393,0,0
672,631,0,0,0,0,0,0,0,0,0,-1,1896,393,0,0
679,631,0,0,0,0,0,0,0,0,0,-1,1903,393,0,0
686,631,0,0,0,0,0,0,0,0,0,-1,1910,393,0,0
693,631,0,0,0,0,0,0,0,0,0,-1,1917,393,0,0
700,631,0,0,0,0,0,0,0,0,0,-1,1924,393,0,0
707,631,0,0,0,0,0,0,0,0,0,-1,1931,393,0,0
714,631,0,0,0,0,0,0,0,0,0,-1,1938,393,0,0
721,631,0,0,0,0,0,0,0,0,0,-1,1945,393,0,0
728,631,0,0,0,0,0,0,0,0,0,-1,1952,393,0,0
735,631,0,0,0,0,0,0,0,0,0,-1,1959,393,0,0
742,631,0,0,0,0,0,0,0,0,0,-1,1966,393,0,0
749,631,0,0,0,0,0,0,0,0,0,-1,1973,393,0,0
756,631,0,0,0,0,0,0,0,0,0,-1,1980,393,0,0
763,631,0,0,0,0,0,0,0,0,0,-1,1987,393,0,0
770,631,0,0,0,0,0,0,0,0,0,-1,1994,393,0,0
777,631,0,0,0,0,0,0,0,0,0,-1,2001,393,0,0
784,631,0,0,0,0,0,0,0,0,0,-1,2008,393,0,0
791,631,0,0,0,0,0,0,0,0,0,-1,2015,393,0,0
798,631,0,0,0,0,0,0,0,0,0,-1,2022,393,0,0
805,631,0,0,0,0,0,0,0,0,0,-1,2029,393,0,0
812,631,0,0,0,0,0,0,0,0,0,-1,2036,393,0,0
-700,624,0,0,0,0,0,0,0,0,0,-1,524,400,0,0
-693,624,0,0,0,0,0,0,0,0,0,-1,531,400,0,0
-686,624,0,0,0,0,0,0,0,0,0,-1,538,400,0,0
-679,624,0,0,0,0,0,0,0,0,0,-1,545,400,0,0
-672,624,0,0,0,0,0,0,0,0,0,-1,552,400,0,0
-665,624,0,0,0,0,0,0,0,0,0,-1,559,400,0,0
-658,624,0,0,0,0,0,0,0,0,0,-1,566,400,0,0
-651,624,0,0,0,0,0,0,0,0,0,-1,573,400,0,0
-644,624,0,0,0,0,0,0,0,0,0,-1,580,400,0,0
-637,624,0,0,0,0,0,0,0,0,0,-1,587,400,0,0
-630,624,0,0,0,0,0,0,0,0,0,-1,594,400,0,0
-623,624,0,0,0,0,0,0,0,0,0,-1,601,400,0,0
-616,624,0,0,0,0,0,0,0,0,0,-1,608,400,0,0
-609,624,0,0,0,0,0,0,0,0,0,-1,615,400,0,0
-602,624,0,0,0,0,0,0,0,0,0,-1,622,400,0,0
-595,624,0,0,0,0,0,0,0,0,0,-1,629,400,0,0
-588,624,0,0,0,0,0,0,0,0,0,-1,636,400,0,0
-581,624,0,0,0,0,0,0,0,0,0,-1,643,400,0,0
-574,624,0,0,0,0,0,0,0,0,0,-1,650,400,0,0
-567,624,0,0,0,0,0,0,0,0,0,-1,657,400,0,0
-560,624,0,0,0,0,0,0,0,0,0,-1,664,400,0,0
-553,624,0,0,0,0,0,0,0,0,0,-1,671,400,0,0
-546,624,0,0,0,0,0,0,0,0,0,-1,678,400,0,0
-539,624,0,0,0,0,0,0,0,0,0,-1,685,400,0,0
-532,624,0,0,0,0,0,0,0,0,0,-1,692,400,0,0
-525,624,0,0,0,0,0,0,0,0,0,-1,699,400,0,0
-518,624,0,0,0,0,0,0,0,0,0,-1,706,400,0,0
-511,624,0,0,0,0,0,0,0,0,0,-1,713,400,0,0
-504,624,0,0,0,0,0,0,0,0,0,-1,720,400,0,0
-497,624,0,0,0,0,0,0,0,0,0,-1,727,400,0,0
-490,624,0,0,0,0,0,0,0,0,0,-1,734,400,0,0
-483,624,0,0,0,0,0,0,0,0,0,-1,741,400,0,0
-476,624,0,0,0,0,0,0,0,0,0,-1,748,400,0,0
-469,624,0,0,0,0,0,0,0,0,0,-1,755,400,0,0
-462,624,0,0,0,0,0,0,0,0,0,-1,762,400,0,0
-455,624,0,0,0,0,0,0,0,0,0,-1,769,400,0,0
-448,624,0,0,0,0,0,0,0,0,0,-1,776,400,0,0
-441,624,0,0,0,0,0,0,0,0,0,-1,783,400,0,0
-434,624,0,0,0,0,0,0,0,0,0,-1,790,400,0,0
-427,624,0,0,0,0,0,0,0,0,0,-1,797,400,0,0
-420,624,0,0,0,0,0,0,0,0,0,-1,804,400,0,0
-413,624,0,0,0,0,0,0,0,0,0,-1,811,400,0,0
-406,624,0,0,0,0,0,0,0,0,0,-1,818,400,0,0
-399,624,0,0,0,0,0,0,0,0,0,-1,825,400,0,0
-392,624,0,0,0,0,0,0,0,0,0,-1,832,400,0,0
-385,624,0,0,0,0,0,0,0,0,0,-1,839,400,0,0
-378,624,0,0,0,0,0,0,0,0,0,-1,846,400,0,0
-371,624,0,0,0,0,0,0,0,0,0,-1,853,400,0,0
-364,624,0,0,0,0,0,0,0,0,0,-1,860,400,0,0
-357,624,0,0,0,0,0,0,0,0,0,-1,867,400,0,0
-350,624,0,0,0,0,0,0,0,0,0,-1,874,400,0,0
-343,624,0,0,0,0,0,0,0,0,0,-1,881,400,0,0
-336,624,0,0,0,0,0,0,0,0,0,-1,888,400,0,0
-329,624,0,0,0,0,0,0,0,0,0,-1,895,400,0,0
-322,624,0,0,0,0,0,0,0,0,0,-1,902,400,0,0
-315,624,0,0,0,0,0,0,0,0,0,-1,909,400,0,0
-308,624,0,0,0,0,0,0,0,0,0,-1,916,400,0,0
-301,624,0,0,0,0,0,0,0,0,0,-1,923,400,0,0
-294,624,5.03033,-1.3782,0,0,0,0,0,0,0,-1,930,400,5.03035,1.37821
-287,624,5.07074,-2.16,0,0,0,0,0,0,0,-1,937,400,5.07075,2.16
-280,624,5.29492,-2.6489,-0.132381,-0.0474229,-0.00109583,-0.0474087,-0.132395,-1.5579,0.0774579,0.0451353,944,400,5.29494,2.64888
-273,624,-2.12286,-2.49805,-0.117226,-0.047374,-0.00228029,-0.0472996,-0.1173,-1.5382,0.0681448,0.0473081,951,400,-2.12286,2.49804
-266,624,-1.40515,-1.96561,-0.0983384,-0.0466349,-0.00258174,-0.0465063,-0.098467,-1.52103,0.056879,0.0460656,958,400,-1.40516,1.9656
-259,624,-0.631104,-1.22247,0,0,0,0,0,0,0,-1,965,400,-0.631119,1.22247
-252,624,1.40253,-0.57309,0,0,0,0,0,0,0,-1,972,400,1.40252,0.573084
-245,624,1.7843,-0.377747,0,0,0,0,0,0,0,-1,979,400,1.78433,0.37774
-238,624,1.56201,-2.52029,0,0,0,0,0,0,0,-1,986,400,1.56198,2.5203
-231,624,1.7514,-2.44553,0,0,0,0,0,0,0,-1,993,400,1.7514,2.44552
-224,624,1.74695,-2.05484,0,0,0,0,0,0,0,-1,1000,400,1.74698,2.05484
-217,624,1.50928,-1.47623,0.00322829,-0.0213007,0.00142916,0.00331128,-0.0213837,0.0580024,0.0154781,0.0466287,1007,400,1.50928,1.47622
-210,624,1.44464,-1.32376,-0.00388359,-0.0181285,0.00185138,-0.0036469,-0.0183652,0.127154,0.011227,0.0423941,1014,400,1.44461,1.32376
-203,624,2.1131,-1.19617,-0.00849323,-0.0151401,0.00197969,-0.00794829,-0.015685,0.268617,0.00905604,0.0369676,1021,400,2.11308,1.19616
-196,624,1.72156,-1.13611,-0.0112468,-0.0124598,0.00126261,-0.0104526,-0.013254,0.561498,0.00806603,0.0328528,1028,400,1.72158,1.1361
-189,624,1.64832,-1.09406,-0.0108938,-0.00993414,0.000702345,-0.00956336,-0.0112646,1.08507,0.00701178,0.03009,1035,400,1.64834,1.09406
-182,624,1.66553,-1.095,-0.00988659,-0.00688155,7.94955e-05,-0.00687945,-0.00988869,1.54437,0.00585318,0.0258122,1042,400,1.66553,1.095
-175,624,1.71558,-1.12744,-0.00868154,-0.00475413,-0.000802297,-0.00459655,-0.00883911,-1.37686,0.00510463,0.0167357,1049,400,1.71553,1.12745
-168,624,1.72083,-1.14169,-0.00764186,-0.00339322,-0.00173681,-0.00277359,-0.00826148,-1.22811,0.00485482,0.0111468,1056,400,1.72088,1.14169
-161,624,1.70154,-1.16525,-0.00655251,-0.00254772,-0.00255673,-0.00130259,-0.00779765,-1.1176,0.00482323,0.00979883,1063,400,1.70151,1.16526
-154,624,1.69861,-1.19467,-0.00570752,-0.00197813,-0.00333214,-2.44209e-05,-0.00766124,-1.04049,0.00509937,0.00919298,1070,400,1.69866,1.19466
-147,624,1.69336,-1.22116,-0.00461721,-0.00160131,-0.00437552,0.00151882,-0.00773734,-0.951341,0.00573197,0.00986402,1077,400,1.6934,1.22115
-140,624,1.69153,-1.24966,-0.00374943,-0.00138802,-0.00524634,0.00280883,-0.00794628,-0.896081,0.00644128,0.0089495,1084,400,1.69151,1.24967
-133,624,1.71729,-1.27652,-0.00334754,-0.00120086,-0.00577505,0.00359974,-0.00814814,-0.877279,0.00695003,0.00997218,1091,400,1.71731,1.27654
-126,624,1.72119,-1.25415,-0.00318523,-0.00101074,-0.00617837,0.00417532,-0.00837129,-0.872494,0.00737759,0.0114705,1098,400,1.72117,1.25415
-119,624,1.70581,-1.26495,-0.00319681,-0.000658501,-0.00656555,0.00475944,-0.00861475,-0.880873,0.0078278,0.0141117,1105,400,1.7058,1.26494
-112,624,1.67444,-1.29959,-0.00358193,-0.000459963,-0.00665261,0.00481234,-0.00885424,-0.900635,0.0080046,0.0167003,1112,400,1.67444,1.2996
-105,624,1.66345,-1.31427,-0.00410401,-0.000208024,-0.00644497,0.00457691,-0.00888894,-0.932158,0.00790626,0.0123544,1119,400,1.6635,1.31428
-98,624,1.68066,-1.34756,-0.00472995,0.000300963,-0.00585094,0.00415426,-0.00858324,-0.988415,0.00750072,0.0129614,1126,400,1.68068,1.34758
-91,624,1.69263,-1.37497,-0.00519635,0.000753479,-0.0050255,0.00361858,-0.00806145,-1.05264,0.00690418,0.0181192,1133,400,1.69267,1.37496
-84,624,1.70361,-1.39026,-0.00548945,0.00130774,-0.00384061,0.00303757,-0.00721928,-1.14761,0.00608363,0.0161877,1140,400,1.70358,1.39026
-77,624,1.71997,-1.39658,-0.00555767,0.0018411,-0.00264316,0.00268833,-0.0064049,-1.26061,0.00539417,0.0116828,1147,400,1.71999,1.39657
-70,624,1.71765,-1.39346,-0.00517385,0.00218568,-0.00132636,0.00241743,-0.00540559,-1.39782,0.00462515,0.012911,1154,400,1.71764,1.39346
-63,624,1.72815,-1.40646,-0.00453721,0.00246109,-3.24094e-05,0.00246124,-0.00453736,-1.56617,0.00409948,0.0130021,1161,400,1.72817,1.40648
-56,624,1.73718,-1.43799,-0.00384886,0.00262155,0.00117576,0.00282858,-0.00405589,1.3965,0.00399575,0.0105721,1168,400,1.73723,1.438
-49,624,1.73792,-1.45169,-0.00306044,0.00230683,0.00225279,0.00312705,-0.00388065,1.22163,0.00405369,0.00959987,1175,400,1.73797,1.45169
-42,624,1.73926,-1.45822,-0.00261304,0.00174683,0.00323895,0.00347111,-0.00433732,1.0816,0.00451744,0.00971042,1182,400,1.73925,1.45822
-35,624,1.72656,-1.46689,-0.00189927,0.000877069,0.00425059,0.00396043,-0.00498263,0.943229,0.00517451,0.0143288,1189,400,1.72658,1.46689
-28,624,1.68311,-1.4827,-0.000946438,-0.000179201,0.00426821,0.0037226,-0.00484824,0.830217,0.00496258,0.0190229,1196,400,1.68306,1.4827
-21,624,1.68774,-1.48087,7.22028e-05,-0.00124732,0.00421236,0.00367616,-0.00485127,0.707717,0.00493887,0.0140862,1203,400,1.68775,1.48086
-14,624,1.71985,-1.48199,0.00110204,-0.00238438,0.00396024,0.00368575,-0.0049681,0.57807,0.00501456,0.0151585,1210,400,1.71983,1.48199
-7,624,1.70447,-1.4845,0.00225131,-0.0033587,0.00341634,0.00386665,-0.00497404,0.441674,0.0051175,0.0188698,1217,400,1.70449,1.48449
0,624,1.70349,-1.50623,0.00290038,-0.00315048,0.00249297,0.00379517,-0.00404527,0.344604,0.00452745,0.0185151,1224,400,1.70354,1.50621
7,624,1.70911,-1.49881,0.003282,-0.00261483,0.00140839,0.00360111,-0.00293394,0.222816,0.00377956,0.013945,1231,400,1.70913,1.4988
14,624,1.73706,-1.51501,0.00380154,-0.00161344,0.000280755,0.00381605,-0.00162796,0.0516633,0.00322662,0.0116145,1238,400,1.73706,1.51501
21,624,1.73718,-1.51593,0.00429894,-0.000102315,-0.00115702,0.00458456,-0.000387943,-0.242025,0.00319355,0.012236,1245,400,1.73723,1.51592
28,624,1.72522,-1.51227,0.00462478,0.00184767,-0.00239898,0.00600809,0.000464367,-0.523051,0.00385992,0.011505,1252,400,1.72527,1.51226
35,624,1.73169,-1.52655,0.00488462,0.0039548,-0.00358916,0.00803885,0.00080057,-0.720991,0.00511331,0.0138471,1259,400,1.73171,1.52655
42,624,1.7533,-1.5433,0.0050207,0.00589834,-0.00446018,0.00994123,0.000977808,-0.834433,0.00632679,0.0163516,1266,400,1.75331,1.54329
49,624,1.75659,-1.53851,0.00487003,0.00763717,-0.00509384,0.011532,0.000975198,-0.918007,0.00738443,0.0179673,1273,400,1.7566,1.53853
56,624,1.76538,-1.53104,0.00471596,0.00881129,-0.005191,0.0123439,0.00118336,-0.973261,0.00786454,0.0163028,1280,400,1.76534,1.53104
63,624,1.77026,-1.52817,0.00473575,0.00914749,-0.0050642,0.0124654,0.00141785,-0.990797,0.00788028,0.0124064,1287,400,1.77028,1.52818
70,624,1.74927,-1.52466,0.00427381,0.00876394,-0.00478178,0.0118015,0.00123629,-1.00488,0.00748964,0.0120152,1294,400,1.74929,1.52467
77,624,1.74011,-1.5209,0.00352056,0.00748778,-0.00379769,0.00978869,0.00121965,-1.02607,0.00615963,0.0139869,1301,400,1.74008,1.52092
84,624,1.74695,-1.52896,0.0028767,0.0055821,-0.00301775,0.00753646,0.000922343,-0.996096,0.00474682,0.0123225,1308,400,1.74694,1.52897
91,624,1.74829,-1.53085,0.002404,0.00386037,-0.0021171,0.00537101,0.000893351,-0.951037,0.00332316,0.0123471,1315,400,1.74835,1.53086
98,624,1.75208,-1.52927,0.00200815,0.00177166,-0.00125435,0.00314982,0.000629988,-0.738402,0.00192457,0.012277,1322,400,1.75203,1.52926
105,624,1.75781,-1.52121,0.00193047,-0.000962993,-0.000592808,0.00204721,-0.00107974,-0.194445,0.00183392,0.0133428,1329,400,1.75786,1.5212
112,624,1.75916,-1.50934,0.00207924,-0.00290249,-0.000212096,0.00208825,-0.00291151,-0.0424723,0.00289963,0.0138059,1336,400,1.75921,1.50934
119,624,1.7616,-1.5275,0.00215846,-0.00416277,5.17154e-06,0.00215846,-0.00416277,0.000818121,0.00371022,0.0149339,1343,400,1.76163,1.52751
126,624,1.78638,-1.5368,0.00222615,-0.004837,0.000143943,0.00222908,-0.00483993,0.0203682,0.00417305,0.0171583,1350,400,1.78642,1.53679
133,624,1.79211,-1.48584,0.00225666,-0.0051316,5.77714e-05,0.00225711,-0.00513206,0.00781871,0.00437245,0.0164724,1357,400,1.7921,1.48584
140,624,1.80408,-1.44434,0.00224779,-0.00497841,-0.000237476,0.00225559,-0.00498621,-0.032816,0.00427898,0.0167506,1364,400,1.80411,1.44433
147,624,1.79041,-1.44046,0.00203859,-0.00446298,-0.000761316,0.00212655,-0.00455094,-0.115024,0.00393904,0.0219202,1371,400,1.79043,1.44045
154,624,1.75745,-1.48001,0.00143077,-0.00394228,-0.00118327,0.00167981,-0.00419132,-0.207441,0.00349155,0.0239656,1378,400,1.75742,1.48
161,624,1.7605,-1.48669,0.000541787,-0.00334553,-0.00153555,0.00107517,-0.00387891,-0.334316,0.00300905,0.0228434,1385,400,1.76049,1.48669
168,624,1.77771,-1.43607,-0.000285286,-0.00264913,-0.0017215,0.000620975,-0.00355539,-0.484572,0.00260207,0.0239394,1392,400,1.77768,1.43607
175,624,1.7677,-1.44711,-0.00108474,-0.0019521,-0.00172309,0.000258408,-0.00329525,-0.662116,0.00228784,0.0184081,1399,400,1.76776,1.4471
182,624,1.77783,-1.45825,-0.00175512,-0.00121082,-0.00161347,0.000153295,-0.00311923,-0.868949,0.00213242,0.0104066,1406,400,1.77784,1.45824
189,624,1.78308,-1.42633,-0.00220152,-0.000495765,-0.00144472,0.000329039,-0.00302632,-1.05204,0.00213569,0.0104138,1413,400,1.78311,1.42632
196,624,1.76294,-1.40967,-0.0023088,-0.000226406,-0.00119079,0.000314187,-0.00284939,-1.14464,0.00201252,0.0114751,1420,400,1.76292,1.40966
203,624,1.74268,-1.39539,-0.00212303,0.000769082,-0.000724964,0.000940633,-0.00229458,-1.33844,0.0019216,0.0136468,1427,400,1.74271,1.39537
210,624,1.75171,-1.3876,-0.00170916,0.00173594,-0.000256037,0.00175487,-0.00172808,-1.49702,0.0020109,0.0172105,1434,400,1.75174,1.3876
217,624,1.76514,-1.37775,-0.000999841,0.00276978,0.000140446,0.00277501,-0.00100507,1.53361,0.00226076,0.0201303,1441,400,1.76517,1.37774
224,624,1.77051,-1.3558,-8.47956e-05,0.00395053,0.000482516,0.00400742,-0.000141689,1.45343,0.00272007,0.0158155,1448,400,1.77046,1.3558
231,624,1.76746,-1.34109,0.000930704,0.00521642,0.00102515,0.00544901,0.00069811,1.34769,0.00342378,0.0117413,1455,400,1.76743,1.34111
238,624,1.75586,-1.30237,0.00184553,0.00599757,0.00143558,0.00644559,0.00139752,1.2683,0.00391526,0.0165028,1462,400,1.75587,1.30236
245,624,1.76428,-1.31253,0.00260399,0.00630939,0.00188995,0.00710328,0.00181011,1.17312,0.00426226,0.0174247,1469,400,1.76426,1.31252
252,624,1.76563,-1.27823,0.00321408,0.00622105,0.00208203,0.0072857,0.00214943,1.09811,0.00432262,0.0132935,1476,400,1.76566,1.27823
259,624,1.75891,-1.28177,0.00354209,0.00550551,0.00222519,0.00695592,0.00209167,0.993145,0.00412097,0.00908802,1483,400,1.75888,1.28177
266,624,1.79102,-1.25638,0.00330152,0.00581576,0.00193655,0.00686745,0.00224984,1.07329,0.00404271,0.012795,1490,400,1.79102,1.25637
273,624,1.79285,-1.21729,0.00228212,0.00572781,0.00183341,0.00652084,0.0014891,1.16256,0.00394566,0.0155856,1497,400,1.79282,1.21729
280,624,1.75513,-1.21384,0.0013527,0.00516645,0.00151294,0.00569374,0.000825409,1.23544,0.00355279,0.0137394,1504,400,1.75512,1.21385
287,624,1.74915,-1.20203,0.000175729,0.00476131,0.00101214,0.00497478,-3.77342e-05,1.36294,0.00332917,0.0106201,1511,400,1.74916,1.20203
294,624,1.76782,-1.17172,-0.00101358,0.00459138,-0.00010774,0.00459345,-0.00101565,-1.55158,0.00345103,0.00890585,1518,400,1.76786,1.17172
301,624,1.77161,-1.15686,-0.0023292,0.00488102,-0.00118141,0.00506966,-0.00251784,-1.41246,0.00446246,0.0105732,1525,400,1.77161,1.15686
308,624,1.76135,-1.13754,-0.00209596,0.00544069,-0.003344,0.00671049,-0.00336575,-1.20789,0.00592339,0.0136394,1532,400,1.76137,1.13754
315,624,1.73828,-1.10312,-0.000878156,0.00660197,-0.00597366,0.00990979,-0.00418598,-1.06509,0.00835886,0.0140015,1539,400,1.73825,1.10313
322,624,1.72803,-1.0722,0.001241,0.00688585,-0.0083805,0.0129064,-0.00477959,-0.947825,0.0105643,0.0210183,1546,400,1.72799,1.07219
329,624,1.71729,-1.02603,0.0045117,0.00733915,-0.0103175,0.0163393,-0.00448846,-0.853485,0.0126571,0.033988,1553,400,1.71734,1.02603
336,624,1.64453,-0.95578,0.00844653,0.00811957,-0.0107019,0.0189862,-0.00242011,-0.777761,0.0135365,0.0359969,1560,400,1.64459,0.955793
343,624,1.61157,-1.2569,0.0132523,0.0100176,-0.0118297,0.0235747,-0.000304819,-0.717459,0.0158191,0.0390949,1567,400,1.61158,1.25689
350,624,1.88562,-0.9328,0,0,0,0,0,0,0,-1,1574,400,1.88568,0.932808
357,624,2.26306,-1.38208,0.0242546,0.0172924,-0.0117838,0.0330607,0.0084863,-0.641775,0.0198266,0.0452812,1581,400,2.26308,1.38208
364,624,2.849,-1.6106,0.0293355,0.0201049,-0.0106204,0.0363001,0.0131403,-0.580422,0.0212223,0.0482133,1588,400,2.84894,1.61061
371,624,3.44653,-1.2233,0.0334881,0.018777,-0.00795633,0.036968,0.0152971,-0.412307,0.021449,0.0465202,1595,400,3.44648,1.2233
378,624,3.78198,-1.09143,0.0372134,0.0216915,-0.00501556,0.038693,0.0202118,-0.286869,0.0223469,0.0465038,1602,400,3.78196,1.09143
385,624,4.20276,-1.01331,0.0374585,0.0267775,-0.000740473,0.0375096,0.0267264,-0.0688868,0.0222987,0.0467191,1609,400,4.20274,1.01332
392,624,4.96863,-1.33231,0,0,0,0,0,0,0,-1,1616,400,4.96865,1.3323
399,624,5.67725,-1.88611,0,0,0,0,0,0,0,-1,1623,400,5.67721,1.88611
406,624,6.39783,-2.14896,0,0,0,0,0,0,0,-1,1630,400,6.39777,2.14896
413,624,0,0,0,0,0,0,0,0,0,-1,1637,400,0,0
420,624,0,0,0,0,0,0,0,0,0,-1,1644,400,0,0
427,624,0,0,0,0,0,0,0,0,0,-1,1651,400,0,0
434,624,0,0,0,0,0,0,0,0,0,-1,1658,400,0,0
441,624,0,0,0,0,0,0,0,0,0,-1,1665,400,0,0
448,624,0,0,0,0,0,0,0,0,0,-1,1672,400,0,0
455,624,0,0,0,0,0,0,0,0,0,-1,1679,400,0,0
462,624,0,0,0,0,0,0,0,0,0,-1,1686,400,0,0
469,624,0,0,0,0,0,0,0,0,0,-1,1693,400,0,0
476,624,0,0,0,0,0,0,0,0,0,-1,1700,400,0,0
483,624,0,0,0,0,0,0,0,0,0,-1,1707,400,0,0
490,624,0,0,0,0,0,0,0,0,0,-1,1714,400,0,0
497,624,0,0,0,0,0,0,0,0,0,-1,1721,400,0,0
504,624,0,0,0,0,0,0,0,0,0,-1,1728,400,0,0
511,624,0,0,0,0,0,0,0,0,0,-1,1735,400,0,0
518,624,0,0,0,0,0,0,0,0,0,-1,1742,400,0,0
525,624,0,0,0,0,0,0,0,0,0,-1,1749,400,0,0
532,624,0,0,0,0,0,0,0,0,0,-1,1756,400,0,0
539,624,0,0,0,0,0,0,0,0,0,-1,1763,400,0,0
546,624,0,0,0,0,0,0,0,0,0,-1,1770,400,0,0
553,624,0,0,0,0,0,0,0,0,0,-1,1777,400,0,0
560,624,0,0,0,0,0,0,0,0,0,-1,1784,400,0,0
567,624,0,0,0,0,0,0,0,0,0,-1,1791,400,0,0
574,624,0,0,0,0,0,0,0,0,0,-1,1798,400,0,0
581,624,0,0,0,0,0,0,0,0,0,-1,1805,400,0,0
588,624,0,0,0,0,0,0,0,0,0,-1,1812,400,0,0
595,624,0,0,0,0,0,0,0,0,0,-1,1819,400,0,0
602,624,0,0,0,0,0,0,0,0,0,-1,1826,400,0,0
609,624,0,0,0,0,0,0,0,0,0,-1,1833,400,0,0
616,624,0,0,0,0,0,0,0,0,0,-1,1840,400,0,0
623,624,0,0,0,0,0,0,0,0,0,-1,1847,400,0,0
630,624,0,0,0,0,0,0,0,0,0,-1,1854,400,0,0
637,624,0,0,0,0,0,0,0,0,0,-1,1861,400,0,0
644,624,0,0,0,0,0,0,0,0,0,-1,1868,400,0,0
651,624,0,0,0,0,0,0,0,0,0,-1,1875,400,0,0
658,624,0,0,0,0,0,0,0,0,0,-1,1882,400,0,0
665,624,0,0,0,0,0,0,0,0,0,-1,1889,400,0,0
672,624,0,0,0,0,0,0,0,0,0,-1,1896,400,0,0
679,624,0,0,0,0,0,0,0,0,0,-1,1903,400,0,0
686,624,0,0,0,0,0,0,0,0,0,-1,1910,400,0,0
693,624,0,0,0,0,0,0,0,0,0,-1,1917,400,0,0
700,624,0,0,0,0,0,0,0,0,0,-1,1924,400,0,0
707,624,0,0,0,0,0,0,0,0,0,-1,1931,400,0,0
714,624,0,0,0,0,0,0,0,0,0,-1,1938,400,0,0
721,624,0,0,0,0,0,0,0,0,0,-1,1945,400,0,0
728,624,0,0,0,0,0,0,0,0,0,-1,1952,400,0,0
735,624,0,0,0,0,0,0,0,0,0,-1,1959,400,0,0
742,624,0,0,0,0,0,0,0,0,0,-1,1966,400,0,0
749,624,0,0,0,0,0,0,0,0,0,-1,1973,400,0,0
756,624,0,0,0,0,0,0,0,0,0,-1,1980,400,0,0
763,624,0,0,0,0,0,0,0,0,0,-1,1987,400,0,0
770,624,0,0,0,0,0,0,0,0,0,-1,1994,400,0,0
777,624,0,0,0,0,0,0,0,0,0,-1,2001,400,0,0
784,624,0,0,0,0,0,0,0,0,0,-1,2008,400,0,0
791,624,0,0,0,0,0,0,0,0,0,-1,2015,400,0,0
798,624,0,0,0,0,0,0,0,0,0,-1,2022,400,0,0
805,624,0,0,0,0,0,0,0,0,0,-1,2029,400,0,0
812,624,0,0,0,0,0,0,0,0,0,-1,2036,400,0,0
-700,617,0,0,0,0,0,0,0,0,0,-1,524,407,0,0
-693,617,0,0,0,0,0,0,0,0,0,-1,531,407,0,0
-686,617,0,0,0,0,0,0,0,0,0,-1,538,407,0,0
-679,617,0,0,0,0,0,0,0,0,0,-1,545,407,0,0
-672,617,0,0,0,0,0,0,0,0,0,-1,552,407,0,0
-665,617,0,0,0,0,0,0,0,0,0,-1,559,407,0,0
-658,617,0,0,0,0,0,0,0,0,0,-1,566,407,0,0
-651,617,0,0,0,0,0,0,0,0,0,-1,573,407,0,0
-644,617,0,0,0,0,0,0,0,0,0,-1,580,407,0,0
-637,617,0,0,0,0,0,0,0,0,0,-1,587,407,0,0
-630,617,0,0,0,0,0,0,0,0,0,-1,594,407,0,0
-623,617,0,0,0,0,0,0,0,0,0,-1,601,407,0,0
-616,617,0,0,0,0,0,0,0,0,0,-1,608,407,0,0
-609,617,0,0,0,0,0,0,0,0,0,-1,615,407,0,0
-602,617,0,0,0,0,0,0,0,0,0,-1,622,407,0,0
-595,617,0,0,0,0,0,0,0,0,0,-1,629,407,0,0
-588,617,0,0,0,0,0,0,0,0,0,-1,636,407,0,0
-581,617,0,0,0,0,0,0,0,0,0,-1,643,407,0,0
-574,617,0,0,0,0,0,0,0,0,0,-1,650,407,0,0
-567,617,0,0,0,0,0,0,0,0,0,-1,657,407,0,0
-560,617,0,0,0,0,0,0,0,0,0,-1,664,407,0,0
-553,617,0,0,0,0,0,0,0,0,0,-1,671,407,0,0
-546,617,0,0,0,0,0,0,0,0,0,-1,678,407,0,0
-539,617,0,0,0,0,0,0,0,0,0,-1,685,407,0,0
-532,617,0,0,0,0,0,0,0,0,0,-1,692,407,0,0
-525,617,0,0,0,0,0,0,0,0,0,-1,699,407,0,0
-518,617,0,0,0,0,0,0,0,0,0,-1,706,407,0,0
-511,617,0,0,0,0,0,0,0,0,0,-1,713,407,0,0
-504,617,0,0,0,0,0,0,0,0,0,-1,720,407,0,0
-497,617,0,0,0,0,0,0,0,0,0,-1,727,407,0,0
-490,617,0,0,0,0,0,0,0,0,0,-1,734,407,0,0
-483,617,0,0,0,0,0,0,0,0,0,-1,741,407,0,0
-476,617,0,0,0,0,0,0,0,0,0,-1,748,407,0,0
-469,617,0,0,0,0,0,0,0,0,0,-1,755,407,0,0
-462,617,0,0,0,0,0,0,0,0,0,-1,762,407,0,0
-455,617,0,0,0,0,0,0,0,0,0,-1,769,407,0,0
-448,617,0,0,0,0,0,0,0,0,0,-1,776,407,0,0
-441,617,0,0,0,0,0,0,0,0,0,-1,783,407,0,0
-434,617,0,0,0,0,0,0,0,0,0,-1,790,407,0,0
-427,617,0,0,0,0,0,0,0,0,0,-1,797,407,0,0
-420,617,0,0,0,0,0,0,0,0,0,-1,804,407,0,0
-413,617,0,0,0,0,0,0,0,0,0,-1,811,407,0,0
-406,617,0,0,0,0,0,0,0,0,0,-1,818,407,0,0
-399,617,0,0,0,0,0,0,0,0,0,-1,825,407,0,0
-392,617,0,0,0,0,0,0,0,0,0,-1,832,407,0,0
-385,617,0,0,0,0,0,0,0,0,0,-1,839,407,0,0
-378,617,0,0,0,0,0,0,0,0,0,-1,846,407,0,0
-371,617,0,0,0,0,0,0,0,0,0,-1,853,407,0,0
-364,617,0,0,0,0,0,0,0,0,0,-1,860,407,0,0
-357,617,0,0,0,0,0,0,0,0,0,-1,867,407,0,0
-350,617,0,0,0,0,0,0,0,0,0,-1,874,407,0,0
-343,617,0,0,0,0,0,0,0,0,0,-1,881,407,0,0
-336,617,0,0,0,0,0,0,0,0,0,-1,888,407,0,0
-329,617,0,0,0,0,0,0,0,0,0,-1,895,407,0,0
-322,617,0,0,0,0,0,0,0,0,0,-1,902,407,0,0
-315,617,0,0,0,0,0,0,0,0,0,-1,909,407,0,0
-308,617,0,0,0,0,0,0,0,0,0,-1,916,407,0,0
-301,617,4.26685,-0.638275,-0.0971604,-0.0334209,0.0107294,-0.0316633,-0.098918,1.40842,0.0583296,0.0474661,923,407,4.26683,0.638285
-294,617,4.53723,-1.11008,0,0,0,0,0,0,0,-1,930,407,4.53726,1.11009
-287,617,4.48022,-1.63324,-0.0968836,-0.0348441,0.00444874,-0.0345268,-0.097201,1.49957,0.0568979,0.0435877,937,407,4.4802,1.63324
-280,617,4.48706,-2.23193,-0.090156,-0.0352993,0.00163187,-0.0352508,-0.0902045,1.54108,0.0524921,0.0440577,944,407,4.48705,2.23194
-273,617,-1.27502,-2.35568,-0.079173,-0.0353138,-0.000252803,-0.0353123,-0.0791744,-1.56503,0.0458001,0.0457596,951,407,-1.27504,2.35568
-266,617,-0.626953,-1.7327,-0.0651062,-0.0347474,-0.00116799,-0.0347025,-0.0651511,-1.5324,0.0376417,0.0423619,958,407,-0.626952,1.73269
-259,617,0.0827026,-1.0997,-0.0500327,-0.0340581,-0.00171229,-0.0338767,-0.0502142,-1.46521,0.0295748,0.0437961,965,407,0.0827057,1.09971
-252,617,1.43768,-0.596375,-0.0382152,-0.0332173,-0.000220216,-0.0332076,-0.0382249,-1.52685,0.0239864,0.0463546,972,407,1.43769,0.596367
-245,617,1.21442,-1.84958,0,0,0,0,0,0,0,-1,979,407,1.21441,1.84959
-238,617,1.4444,-1.85229,-0.0198675,-0.0283521,0.000818043,-0.0197894,-0.0284302,0.0952468,0.0168296,0.0485034,986,407,1.44439,1.85229
-231,617,1.65247,-1.79156,-0.0134514,-0.0246948,0.000612917,-0.0134181,-0.0247281,0.0542988,0.0142941,0.0435423,993,407,1.65249,1.79156
-224,617,1.67126,-1.5871,-0.000142291,-0.0203827,0.000781341,-0.000112174,-0.0204128,0.0385266,0.0135713,0.0404206,1000,407,1.67126,1.58709
-217,617,1.71033,-1.27136,0.00431961,-0.0179307,0.00106516,0.00437048,-0.0179816,0.0477264,0.0136793,0.0352999,1007,407,1.71035,1.27135
-210,617,1.68286,-1.06638,-0.00146246,-0.0155988,0.00156582,-0.0012911,-0.0157701,0.109006,0.0101106,0.0229916,1014,407,1.68288,1.06637
-203,617,1.71533,-1.06268,-0.00523666,-0.01321,0.00172945,-0.00487769,-0.0135689,0.204654,0.00793648,0.0177266,1021,407,1.71531,1.06267
-196,617,1.70605,-1.07858,-0.00743902,-0.011124,0.00112514,-0.00712264,-0.0114404,0.27411,0.00667097,0.0142906,1028,407,1.70608,1.0786
-189,617,1.70728,-1.07162,-0.00717963,-0.00905696,0.00064166,-0.00698127,-0.00925532,0.299812,0.00556917,0.0121658,1035,407,1.70723,1.07162
-182,617,1.71143,-1.07837,-0.00640112,-0.00639553,0.000130378,-0.00626792,-0.00652873,0.796126,0.00426821,0.0130423,1042,407,1.71143,1.07838
-175,617,1.72192,-1.11005,-0.00545095,-0.00443945,-0.000595462,-0.00416394,-0.00572645,-1.13745,0.003418,0.0113208,1049,407,1.7219,1.11006
-168,617,1.71033,-1.14935,-0.0046042,-0.00308878,-0.00135651,-0.00229271,-0.00540027,-1.0401,0.00312966,0.00942731,1056,407,1.7103,1.14936
-161,617,1.68872,-1.18326,-0.00369325,-0.00216606,-0.00201566,-0.000774203,-0.00508511,-0.96646,0.00316374,0.0108878,1063,407,1.68872,1.18326
-154,617,1.677,-1.20914,-0.00294764,-0.00150198,-0.00258257,0.000457005,-0.00490663,-0.921851,0.00343357,0.0109715,1070,407,1.67695,1.20915
-147,617,1.66101,-1.22791,-0.00193769,-0.000999618,-0.00330932,0.00187374,-0.00481105,-0.855795,0.00398172,0.0148261,1077,407,1.66101,1.22791
-140,617,1.67773,-1.26999,-0.00110286,-0.000671487,-0.00378034,0.00289931,-0.00467366,-0.813895,0.00441208,0.0114824,1084,407,1.67768,1.26999
-133,617,1.68713,-1.28497,-0.000743961,-0.000430555,-0.00401196,0.00342776,-0.00460227,-0.804918,0.00465264,0.0132039,1091,407,1.68715,1.28497
-126,617,1.68311,-1.27527,-0.000694497,-0.000180237,-0.00416862,0.00373918,-0.00461391,-0.8162,0.00483146,0.0125709,1098,407,1.68315,1.27526
-119,617,1.6781,-1.29953,-0.000759061,0.000389397,-0.00437651,0.00422919,-0.00459885,-0.850629,0.00509836,0.0126097,1105,407,1.67807,1.29952
-112,617,1.66516,-1.30191,-0.00123751,0.000744151,-0.00440301,0.00426644,-0.0047598,-0.896072,0.0052139,0.0144868,1112,407,1.66515,1.30191
-105,617,1.64294,-1.32953,-0.00189517,0.00108513,-0.00433712,0.00418095,-0.00499099,-0.95087,0.00530231,0.0154323,1119,407,1.64296,1.32953
-98,617,1.69177,-1.36227,-0.0027236,0.00168779,-0.00395331,0.00400909,-0.0050449,-1.03986,0.00523872,0.012718,1126,407,1.69174,1.36228
-91,617,1.70068,-1.38229,-0.00358067,0.00226481,-0.00337426,0.00380616,-0.00512201,-1.14231,0.00517331,0.0176015,1133,407,1.70067,1.38229
-84,617,1.71558,-1.38684,-0.00426543,0.00293872,-0.00248878,0.00371488,-0.00504159,-1.26849,0.00507486,0.0169398,1140,407,1.7156,1.38683
-77,617,1.73413,-1.39349,-0.00483015,0.00354814,-0.00160405,0.00384474,-0.00512675,-1.38795,0.00519729,0.0129613,1147,407,1.73416,1.39349
-70,617,1.72229,-1.41492,-0.00491182,0.00391522,-0.00052726,0.00394661,-0.00494321,-1.51135,0.00514328,0.0147007,1154,407,1.72227,1.41492
-63,617,1.72131,-1.4306,-0.00468738,0.00392631,0.000654981,0.00397583,-0.0047369,1.49533,0.00503669,0.0160594,1161,407,1.7213,1.43059
-56,617,1.72803,-1.42395,-0.0043576,0.0034697,0.00187091,0.0038939,-0.00478181,1.34783,0.00501766,0.0117189,1168,407,1.72804,1.42395
-49,617,1.73218,-1.43213,-0.00393259,0.00225715,0.00313397,0.00356682,-0.00524226,1.17496,0.00511649,0.00971218,1175,407,1.73222,1.43213
-42,617,1.73767,-1.47275,-0.00396172,0.000488366,0.0045714,0.00334747,-0.00682083,1.01189,0.00598374,0.011943,1182,407,1.73764,1.47276
-35,617,1.72046,-1.47778,-0.00323008,-0.00159646,0.00594302,0.00358562,-0.00841215,0.85369,0.0071113,0.0163402,1189,407,1.7205,1.47779
-28,617,1.68518,-1.47971,-0.00190417,-0.00406372,0.00654542,0.00364993,-0.00961783,0.703651,0.00791424,0.0179942,1196,407,1.6852,1.4797
-21,617,1.7179,-1.46823,-0.000526358,-0.00625335,0.00684969,0.00403429,-0.010814,0.587415,0.00886553,0.0138763,1203,407,1.71795,1.46823
-14,617,1.70703,-1.4613,0.000865216,-0.00728217,0.00644152,0.00441308,-0.01083,0.503442,0.00905683,0.0157069,1210,407,1.70698,1.46132
-7,617,1.70081,-1.47379,0.00268805,-0.00842553,0.00569325,0.00508683,-0.0108243,0.398764,0.00938327,0.0181425,1217,407,1.70082,1.47378
0,617,1.72339,-1.47812,0.00399397,-0.00727629,0.00420078,0.00538744,-0.00866977,0.320295,0.00818935,0.0157679,1224,407,1.72344,1.47813
7,617,1.73474,-1.4953,0.0048435,-0.00520456,0.00231119,0.00534961,-0.00571067,0.215581,0.00638679,0.0111901,1231,407,1.73471,1.49531
14,617,1.69836,-1.49954,0.00595647,-0.0025249,0.000318522,0.00596842,-0.00253685,0.037485,0.00504198,0.0126957,1238,407,1.69832,1.49955
21,617,1.71057,-1.50031,0.00710695,0.00102108,-0.00218771,0.00781175,0.000316276,-0.311665,0.00510567,0.0113062,1245,407,1.71054,1.5003
28,617,1.72791,-1.50967,0.00812674,0.00521896,-0.00465052,0.0115453,0.00180036,-0.633897,0.00717249,0.0100845,1252,407,1.72793,1.50968
35,617,1.73584,-1.51141,0.00876677,0.0092119,-0.00676179,0.0157548,0.00222389,-0.80185,0.00984597,0.0118738,1259,407,1.73583,1.5114
42,617,1.73975,-1.52289,0.00932213,0.0129305,-0.00850475,0.0198203,0.0024323,-0.889918,0.012482,0.0177479,1266,407,1.73976,1.52288
49,617,1.73206,-1.53143,0.00958822,0.0161769,-0.00982393,0.0232441,0.00252098,-0.947175,0.0147279,0.0175501,1273,407,1.73207,1.53145
56,617,1.74951,-1.52216,0.00963402,0.0181283,-0.0102755,0.0249998,0.00276255,-0.981369,0.0158262,0.0122809,1280,407,1.74946,1.52215
63,617,1.73694,-1.52307,0.00993083,0.0186613,-0.0103763,0.0255531,0.00303895,-0.984506,0.0161182,0.00966432,1287,407,1.73697,1.52307
70,617,1.73071,-1.53528,0.00943351,0.0178609,-0.0100058,0.0245041,0.00279033,-0.98469,0.0154899,0.0141681,1294,407,1.73077,1.53529
77,617,1.74756,-1.53729,0.00845128,0.0155352,-0.00866143,0.0213509,0.00263558,-0.979491,0.0134418,0.0134882,1301,407,1.74757,1.53728
84,617,1.73206,-1.53964,0.00771463,0.0120167,-0.00724667,0.0174249,0.00230649,-0.929672,0.0109292,0.0110397,1308,407,1.73203,1.53963
91,617,1.73865,-1.53934,0.00707382,0.00795311,-0.0054217,0.012953,0.00207396,-0.825855,0.00803372,0.0102788,1315,407,1.73867,1.53934
98,617,1.75256,-1.52634,0.00641424,0.00438822,-0.00393444,0.00946399,0.00133847,-0.659398,0.00591387,0.011734,1322,407,1.75255,1.52634
105,617,1.77002,-1.50616,0.00617819,-0.000295442,-0.00261854,0.00710476,-0.00122201,-0.340099,0.005192,0.0131109,1329,407,1.77008,1.50615
112,617,1.76575,-1.50232,0.00608526,-0.00388839,-0.00175225,0.00638416,-0.00418728,-0.16895,0.00614719,0.0150181,1336,407,1.76575,1.50233
119,617,1.78516,-1.51535,0.00565812,-0.00625253,-0.00117301,0.00577255,-0.00636695,-0.0972393,0.00701154,0.0185914,1343,407,1.78511,1.51534
126,617,1.79688,-1.50974,0.00510969,-0.00791096,-0.000684577,0.00514559,-0.00794685,-0.0523838,0.00761638,0.0215856,1350,407,1.79683,1.50973
133,617,1.77734,-1.46133,0.00459048,-0.00898418,-0.000502464,0.00460905,-0.00900275,-0.0369475,0.00799408,0.0184455,1357,407,1.77738,1.46132
140,617,1.77612,-1.44019,0.00428268,-0.00916139,-0.000871805,0.00433898,-0.00921769,-0.0644869,0.00799411,0.0159326,1364,407,1.77615,1.44018
147,617,1.75146,-1.44092,0.00350713,-0.00881587,-0.00153774,0.00369612,-0.00900486,-0.122288,0.00754341,0.0199997,1371,407,1.75145,1.44092
154,617,1.74023,-1.47003,0.00216238,-0.00826741,-0.00216348,0.00259334,-0.00869838,-0.196628,0.00682952,0.0216719,1378,407,1.74019,1.47004
161,617,1.74084,-1.48526,0.000735352,-0.00735802,-0.00277684,0.00159647,-0.00821914,-0.300702,0.00608183,0.0220744,1385,407,1.74088,1.48526
168,617,1.74536,-1.50104,-0.000620967,-0.00616837,-0.00317489,0.000821172,-0.00761051,-0.426369,0.00536838,0.020852,1392,407,1.74534,1.50104
175,617,1.75928,-1.51089,-0.00210597,-0.0049651,-0.00325373,1.83955e-05,-0.00708946,-0.578412,0.00473245,0.0167657,1399,407,1.75923,1.51089
182,617,1.79907,-1.47592,-0.00345066,-0.00383039,-0.0030922,-0.000542502,-0.00673854,-0.754736,0.00432289,0.010878,1406,407,1.79905,1.47592
189,617,1.79163,-1.42947,-0.00445056,-0.00278035,-0.00278793,-0.000705137,-0.00652578,-0.930917,0.00413556,0.0106135,1413,407,1.79163,1.42947
196,617,1.75867,-1.40042,-0.00496812,-0.00260093,-0.00236036,-0.00114403,-0.00642502,-1.0178,0.00395751,0.0147306,1420,407,1.75862,1.40041
203,617,1.76794,-1.40594,-0.00513289,-0.0015729,-0.00168623,-0.000901009,-0.00580478,-1.19162,0.00360722,0.014383,1427,407,1.76791,1.40596
210,617,1.77393,-1.38971,-0.0049229,-0.000559939,-0.000908202,-0.000378437,-0.0051044,-1.37355,0.00328406,0.0144586,1434,407,1.77391,1.38971
217,617,1.77368,-1.3562,-0.00412533,0.000211035,-0.000247221,0.000225084,-0.00413937,-1.51403,0.00283759,0.0192505,1441,407,1.77372,1.35619
224,617,1.77783,-1.35074,-0.00306602,0.00113472,0.000337028,0.00116159,-0.00309289,1.49124,0.00253928,0.018132,1448,407,1.77782,1.35074
231,617,1.78796,-1.36893,-0.0018685,0.0020703,0.00100317,0.00231108,-0.00210928,1.33523,0.00255298,0.0136841,1455,407,1.78801,1.36892
238,617,1.7854,-1.35278,-0.000630408,0.00282466,0.00152091,0.00339876,-0.00120451,1.20986,0.00275651,0.014337,1462,407,1.78545,1.3528
245,617,1.79529,-1.33249,0.000457735,0.0032508,0.00192274,0.00423065,-0.00052212,1.09949,0.00300961,0.0122212,1469,407,1.79531,1.3325
252,617,1.81287,-1.28369,0.00143721,0.00332258,0.00215162,0.00472897,3.08205e-05,0.991867,0.00314242,0.013412,1476,407,1.81291,1.2837
259,617,1.77808,-1.28317,0.0021851,0.0029441,0.00228396,0.00487987,0.000249329,0.867725,0.0031734,0.0113085,1483,407,1.77812,1.28317
266,617,1.77734,-1.26602,0.0023092,0.00326246,0.00202941,0.00487046,0.000701201,0.900738,0.00304031,0.013357,1490,407,1.7773,1.26601
273,617,1.80139,-1.22345,0.00168443,0.00327821,0.00191853,0.00455876,0.000403872,0.982239,0.0029139,0.0143621,1497,407,1.80141,1.22345
280,617,1.7854,-1.21387,0.00120191,0.00291911,0.00165474,0.00392474,0.000196272,1.02471,0.00255359,0.0128544,1504,407,1.78544,1.21386
287,617,1.78638,-1.20825,0.000491904,0.00271302,0.00122281,0.00325431,-4.93878e-05,1.15406,0.00218619,0.0117801,1511,407,1.78634,1.20826
294,617,1.78772,-1.19754,-0.000334295,0.00265891,0.000295153,0.00268774,-0.000363121,1.47344,0.00192432,0.00931921,1518,407,1.78777,1.19754
301,617,1.7915,-1.16058,-0.0012961,0.00295941,-0.00050507,0.00301853,-0.00135523,-1.45427,0.00258534,0.00764174,1525,407,1.79149,1.16058
308,617,1.78137,-1.13998,-0.00105315,0.00347237,-0.00213954,0.00432373,-0.00190451,-1.19209,0.00368518,0.00786536,1532,407,1.78131,1.13997
315,617,1.78137,-1.11911,-5.69162e-05,0.00446652,-0.004111,0.00689689,-0.00248728,-1.03688,0.0056138,0.00813686,1539,407,1.78139,1.1191
322,617,1.79004,-1.10126,0.00156327,0.00478996,-0.00587858,0.00927256,-0.00291933,-0.919323,0.00735066,0.0110333,1546,407,1.79003,1.10125
329,617,1.7915,-1.07553,0.00401847,0.00524883,-0.00726379,0.0119234,-0.00265614,-0.827643,0.00896646,0.0115686,1553,407,1.79146,1.07552
336,617,1.78796,-1.017,0.0068848,0.00614776,-0.0072064,0.0137321,-0.000699538,-0.759851,0.0093966,0.0198458,1560,407,1.78802,1.01699
343,617,1.8075,-1.00671,0.0101988,0.0077315,-0.00780983,0.0168718,0.00105849,-0.707064,0.0109122,0.028793,1567,407,1.80752,1.00672
350,617,1.82825,-0.981415,0.0140088,0.0104866,-0.00788354,0.0203255,0.00416981,-0.675507,0.0123964,0.0356353,1574,407,1.8282,0.981406
357,617,1.84058,-0.947693,0,0,0,0,0,0,0,-1,1581,407,1.84059,0.947699
364,617,3.56006,-1.68726,0,0,0,0,0,0,0,-1,1588,407,3.56005,1.68725
371,617,1.59363,-1.03519,0.0240547,0.0181668,-0.00304604,0.0253469,0.0168745,-0.401217,0.0148997,0.0446727,1595,407,1.59364,1.0352
378,617,1.51965,-1.37592,0.0263235,0.0216513,-0.000217714,0.0263337,0.0216411,-0.0464627,0.0162195,0.0477958,1602,407,1.51967,1.37592
385,617,1.3396,-1.47427,0.0264129,0.0264619,0.00321701,0.0296545,0.0232203,0.789205,0.0180122,0.0481081,1609,407,1.33956,1.47428
392,617,1.1532,-1.49521,0,0,0,0,0,0,0,-1,1616,407,1.15325,1.4952
399,617,0.914673,2.25879,0,0,0,0,0,0,0,-1,1623,407,0.914733,-2.2588
406,617,6.86182,-2.13593,0,0,0,0,0,0,0,-1,1630,407,6.86181,2.13592
413,617,-0.917236,1.59122,0,0,0,0,0,0,0,-1,1637,407,-0.917231,-1.59122
420,617,-1.28003,1.89026,0,0,0,0,0,0,0,-1,1644,407,-1.27998,-1.89024
427,617,0,0,0,0,0,0,0,0,0,-1,1651,407,0,0
434,617,0,0,0,0,0,0,0,0,0,-1,1658,407,0,0
441,617,0,0,0,0,0,0,0,0,0,-1,1665,407,0,0
448,617,0,0,0,0,0,0,0,0,0,-1,1672,407,0,0
455,617,0,0,0,0,0,0,0,0,0,-1,1679,407,0,0
462,617,0,0,0,0,0,0,0,0,0,-1,1686,407,0,0
469,617,0,0,0,0,0,0,0,0,0,-1,1693,407,0,0
476,617,0,0,0,0,0,0,0,0,0,-1,1700,407,0,0
483,617,0,0,0,0,0,0,0,0,0,-1,1707,407,0,0
490,617,0,0,0,0,0,0,0,0,0,-1,1714,407,0,0
497,617,0,0,0,0,0,0,0,0,0,-1,1721,407,0,0
504,617,0,0,0,0,0,0,0,0,0,-1,1728,407,0,0
511,617,0,0,0,0,0,0,0,0,0,-1,1735,407,0,0
518,617,0,0,0,0,0,0,0,0,0,-1,1742,407,0,0
525,617,0,0,0,0,0,0,0,0,0,-1,1749,407,0,0
532,617,0,0,0,0,0,0,0,0,0,-1,1756,407,0,0
539,617,0,0,0,0,0,0,0,0,0,-1,1763,407,0,0
546,617,0,0,0,0,0,0,0,0,0,-1,1770,407,0,0
553,617,0,0,0,0,0,0,0,0,0,-1,1777,407,0,0
560,617,0,0,0,0,0,0,0,0,0,-1,1784,407,0,0
567,617,0,0,0,0,0,0,0,0,0,-1,1791,407,0,0
574,617,0,0,0,0,0,0,0,0,0,-1,1798,407,0,0
581,617,0,0,0,0,0,0,0,0,0,-1,1805,407,0,0
588,617,0,0,0,0,0,0,0,0,0,-1,1812,407,0,0
595,617,0,0,0,0,0,0,0,0,0,-1,1819,407,0,0
602,617,0,0,0,0,0,0,0,0,0,-1,1826,407,0,0
609,617,0,0,0,0,0,0,0,0,0,-1,1833,407,0,0
616,617,0,0,0,0,0,0,0,0,0,-1,1840,407,0,0
623,617,0,0,0,0,0,0,0,0,0,-1,1847,407,0,0
630,617,0,0,0,0,0,0,0,0,0,-1,1854,407,0,0
637,617,0,0,0,0,0,0,0,0,0,-1,1861,407,0,0
644,617,0,0,0,0,0,0,0,0,0,-1,1868,407,0,0
651,617,0,0,0,0,0,0,0,0,0,-1,1875,407,0,0
658,617,0,0,0,0,0,0,0,0,0,-1,1882,407,0,0
665,617,0,0,0,0,0,0,0,0,0,-1,1889,407,0,0
672,617,0,0,0,0,0,0,0,0,0,-1,1896,407,0,0
679,617,0,0,0,0,0,0,0,0,0,-1,1903,407,0,0
686,617,0,0,0,0,0,0,0,0,0,-1,1910,407,0,0
693,617,0,0,0,0,0,0,0,0,0,-1,1917,407,0,0
700,617,0,0,0,0,0,0,0,0,0,-1,1924,407,0,0
707,617,0,0,0,0,0,0,0,0,0,-1,1931,407,0,0
714,617,0,0,0,0,0,0,0,0,0,-1,1938,407,0,0
721,617,0,0,0,0,0,0,0,0,0,-1,1945,407,0,0
728,617,0,0,0,0,0,0,0,0,0,-1,1952,407,0,0
735,617,0,0,0,0,0,0,0,0,0,-1,1959,407,0,0
742,617,0,0,0,0,0,0,0,0,0,-1,1966,407,0,0
749,617,0,0,0,0,0,0,0,0,0,-1,1973,407,0,0
756,617,0,0,0,0,0,0,0,0,0,-1,1980,407,0,0
763,617,0,0,0,0,0,0,0,0,0,-1,1987,407,0,0
770,617,0,0,0,0,0,0,0,0,0,-1,1994,407,0,0
777,617,0,0,0,0,0,0,0,0,0,-1,2001,407,0,0
784,617,0,0,0,0,0,0,0,0,0,-1,2008,407,0,0
791,617,0,0,0,0,0,0,0,0,0,-1,2015,407,0,0
798,617,0,0,0,0,0,0,0,0,0,-1,2022,407,0,0
805,617,0,0,0,0,0,0,0,0,0,-1,2029,407,0,0
812,617,0,0,0,0,0,0,0,0,0,-1,2036,407,0,0
-700,610,0,0,0,0,0,0,0,0,0,-1,524,414,0,0
-693,610,0,0,0,0,0,0,0,0,0,-1,531,414,0,0
-686,610,0,0,0,0,0,0,0,0,0,-1,538,414,0,0
-679,610,0,0,0,0,0,0,0,0,0,-1,545,414,0,0
-672,610,0,0,0,0,0,0,0,0,0,-1,552,414,0,0
-665,610,0,0,0,0,0,0,0,0,0,-1,559,414,0,0
-658,610,0,0,0,0,0,0,0,0,0,-1,566,414,0,0
-651,610,0,0,0,0,0,0,0,0,0,-1,573,414,0,0
-644,610,0,0,0,0,0,0,0,0,0,-1,580,414,0,0
-637,610,0,0,0,0,0,0,0,0,0,-1,587,414,0,0
-630,610,0,0,0,0,0,0,0,0,0,-1,594,414,0,0
-623,610,0,0,0,0,0,0,0,0,0,-1,601,414,0,0
-616,610,0,0,0,0,0,0,0,0,0,-1,608,414,0,0
-609,610,0,0,0,0,0,0,0,0,0,-1,615,414,0,0
-602,610,0,0,0,0,0,0,0,0,0,-1,622,414,0,0
-595,610,0,0,0,0,0,0,0,0,0,-1,629,414,0,0
-588,610,0,0,0,0,0,0,0,0,0,-1,636,414,0,0
-581,610,0,0,0,0,0,0,0,0,0,-1,643,414,0,0
-574,610,0,0,0,0,0,0,0,0,0,-1,650,414,0,0
-567,610,0,0,0,0,0,0,0,0,0,-1,657,414,0,0
-560,610,0,0,0,0,0,0,0,0,0,-1,664,414,0,0
-553,610,0,0,0,0,0,0,0,0,0,-1,671,414,0,0
-546,610,0,0,0,0,0,0,0,0,0,-1,678,414,0,0
-539,610,0,0,0,0,0,0,0,0,0,-1,685,414,0,0
-532,610,0,0,0,0,0,0,0,0,0,-1,692,414,0,0
-525,610,0,0,0,0,0,0,0,0,0,-1,699,414,0,0
-518,610,0,0,0,0,0,0,0,0,0,-1,706,414,0,0
-511,610,0,0,0,0,0,0,0,0,0,-1,713,414,0,0
-504,610,0,0,0,0,0,0,0,0,0,-1,720,414,0,0
-497,610,0,0,0,0,0,0,0,0,0,-1,727,414,0,0
-490,610,0,0,0,0,0,0,0,0,0,-1,734,414,0,0
-483,610,0,0,0,0,0,0,0,0,0,-1,741,414,0,0
-476,610,0,0,0,0,0,0,0,0,0,-1,748,414,0,0
-469,610,0,0,0,0,0,0,0,0,0,-1,755,414,0,0
-462,610,0,0,0,0,0,0,0,0,0,-1,762,414,0,0
-455,610,0,0,0,0,0,0,0,0,0,-1,769,414,0,0
-448,610,0,0,0,0,0,0,0,0,0,-1,776,414,0,0
-441,610,0,0,0,0,0,0,0,0,0,-1,783,414,0,0
-434,610,0,0,0,0,0,0,0,0,0,-1,790,414,0,0
-427,610,0,0,0,0,0,0,0,0,0,-1,797,414,0,0
-420,610,0,0,0,0,0,0,0,0,0,-1,804,414,0,0
-413,610,0,0,0,0,0,0,0,0,0,-1,811,414,0,0
-406,610,0,0,0,0,0,0,0,0,0,-1,818,414,0,0
-399,610,0,0,0,0,0,0,0,0,0,-1,825,414,0,0
-392,610,0,0,0,0,0,0,0,0,0,-1,832,414,0,0
-385,610,0,0,0,0,0,0,0,0,0,-1,839,414,0,0
-378,610,0,0,0,0,0,0,0,0,0,-1,846,414,0,0
-371,610,0,0,0,0,0,0,0,0,0,-1,853,414,0,0
-364,610,0,0,0,0,0,0,0,0,0,-1,860,414,0,0
-357,610,0,0,0,0,0,0,0,0,0,-1,867,414,0,0
-350,610,0,0,0,0,0,0,0,0,0,-1,874,414,0,0
-343,610,0,0,0,0,0,0,0,0,0,-1,881,414,0,0
-336,610,0,0,0,0,0,0,0,0,0,-1,888,414,0,0
-329,610,0,0,0,0,0,0,0,0,0,-1,895,414,0,0
-322,610,0,0,0,0,0,0,0,0,0,-1,902,414,0,0
-315,610,4.0116,-0.578247,0,0,0,0,0,0,0,-1,909,414,4.01158,0.578233
-308,610,4.24799,-0.598969,-0.0641292,-0.0180344,0.0197938,-0.0107013,-0.0714623,1.216,0.0445054,0.0458405,916,414,4.24797,0.598975
-301,610,4.5509,-0.621887,-0.0654993,-0.023582,0.0143433,-0.0191438,-0.0699374,1.27072,0.0417338,0.0481942,923,414,4.55092,0.621901
-294,610,3.91595,-0.210449,0,0,0,0,0,0,0,-1,930,414,3.91598,0.210439
-287,610,3.86072,-0.851868,-0.0653687,-0.0248335,0.0068213,-0.0237164,-0.0664858,1.40847,0.0389075,0.0445263,937,414,3.86071,0.851854
-280,610,4.13177,-1.18256,-0.0607194,-0.0253967,0.00356599,-0.0250403,-0.0610758,1.47118,0.0354521,0.0438338,944,414,4.13175,1.18256
-273,610,1.16205,-0.269562,0,0,0,0,0,0,0,-1,951,414,1.16206,0.269569
-266,610,1.27661,-0.61554,0,0,0,0,0,0,0,-1,958,414,1.27658,0.615551
-259,610,0.815857,-0.933716,-0.0316494,-0.0246037,-0.00075906,-0.0245228,-0.0317303,-1.46469,0.0192072,0.042929,965,414,0.815857,0.93372
-252,610,1.53015,-0.625671,-0.0232068,-0.0241291,4.15777e-06,-0.0232068,-0.0241291,0.00450791,0.0157876,0.0425395,972,414,1.53014,0.625682
-245,610,1.7287,-0.584503,-0.0169821,-0.0228409,0.000441934,-0.016949,-0.0228741,0.0748664,0.013708,0.0363206,979,414,1.72872,0.584515
-238,610,1.79047,-0.86145,-0.0106973,-0.0212167,0.000277824,-0.01069,-0.021224,0.0263862,0.0122538,0.0352509,986,414,1.79048,0.861445
-231,610,1.6427,-1.02808,-0.0066065,-0.018715,6.48168e-05,-0.00660615,-0.0187153,0.00535281,0.0109599,0.0306051,993,414,1.64272,1.02808
-224,610,1.62311,-1.0387,0.00194552,-0.0157946,0.000292894,0.00195036,-0.0157994,0.0165043,0.0112396,0.0231381,1000,414,1.62312,1.0387
-217,610,1.65137,-1.00809,0.00430102,-0.0141854,0.000724464,0.00432937,-0.0142137,0.0391091,0.0112014,0.0147416,1007,414,1.65136,1.00809
-210,610,1.67432,-1.01331,-9.06171e-05,-0.0125299,0.00120165,2.43997e-05,-0.0126449,0.0954253,0.00843807,0.00961004,1014,414,1.6743,1.01331
-203,610,1.66827,-1.03979,-0.00307838,-0.0107024,0.00140363,-0.00282817,-0.0109526,0.176402,0.00656532,0.0116024,1021,414,1.66827,1.0398
-196,610,1.68616,-1.08456,-0.00478368,-0.00907951,0.000906348,-0.00460028,-0.0092629,0.199649,0.00534798,0.0126424,1028,414,1.68618,1.08455
-189,610,1.70313,-1.08704,-0.00457162,-0.00732815,0.00046381,-0.00449567,-0.0074041,0.162307,0.00430737,0.0106141,1035,414,1.70319,1.08704
-182,610,1.70227,-1.09262,-0.00396652,-0.00491182,-4.50147e-06,-0.0039665,-0.00491185,-0.0047618,0.00300936,0.0113476,1042,414,1.70229,1.09262
-175,610,1.70313,-1.11365,-0.00321012,-0.00303348,-0.000601202,-0.00251415,-0.00372946,-0.858329,0.0021963,0.0112246,1049,414,1.70312,1.11365
-168,610,1.68958,-1.15619,-0.00251819,-0.00162193,-0.00124053,-0.000751073,-0.00338905,-0.958727,0.00205527,0.0107494,1056,414,1.6896,1.1562
-161,610,1.66626,-1.20987,-0.00178932,-0.000590456,-0.00179256,0.000700242,-0.00308001,-0.946753,0.00232222,0.0113808,1063,414,1.66624,1.20986
-154,610,1.67542,-1.22003,-0.00116911,0.00017179,-0.00220366,0.00180474,-0.00280206,-0.933071,0.00268043,0.0132796,1070,414,1.67545,1.22004
-147,610,1.66895,-1.21188,-0.000324405,0.000730096,-0.00266498,0.00291948,-0.00251379,-0.883059,0.00313981,0.0134108,1077,414,1.66896,1.21187
-140,610,1.67627,-1.25281,0.00036759,0.00101662,-0.00281688,0.00352761,-0.0021434,-0.842747,0.00330651,0.0110912,1084,414,1.67626,1.25281
-133,610,1.66528,-1.27045,0.000622572,0.0010998,-0.0028568,0.00372794,-0.00200557,-0.827064,0.00335966,0.0124532,1091,414,1.66524,1.27044
-126,610,1.66052,-1.28745,0.000535466,0.00115582,-0.00288277,0.00374505,-0.00205377,-0.83899,0.00339508,0.0111515,1098,414,1.6605,1.28745
-119,610,1.68091,-1.31241,0.000298262,0.00166011,-0.00300983,0.00406508,-0.0021067,-0.896643,0.00362258,0.00972691,1105,414,1.68089,1.31241
-112,610,1.68335,-1.31793,-0.000439729,0.00187952,-0.00311449,0.00404326,-0.00260348,-0.963613,0.00386739,0.0174909,1112,414,1.68333,1.31792
-105,610,1.65466,-1.33929,-0.00142369,0.00207647,-0.00333272,0.00409067,-0.00343789,-1.02717,0.00435206,0.0173377,1119,414,1.65472,1.33928
-98,610,1.68042,-1.37973,-0.00254693,0.0026257,-0.0032572,0.00419852,-0.00411975,-1.12094,0.00480263,0.0119935,1126,414,1.68045,1.37974
-91,610,1.69873,-1.38721,-0.00383064,0.00321837,-0.00306686,0.00436588,-0.00497815,-1.21276,0.00539864,0.0135119,1133,414,1.69876,1.38721
-84,610,1.70557,-1.37711,-0.00494759,0.00397495,-0.00260614,0.00468039,-0.00565303,-1.30645,0.0059748,0.014264,1140,414,1.7056,1.37711
-77,610,1.7074,-1.39508,-0.00591371,0.00471353,-0.00217008,0.00513958,-0.00633976,-1.37693,0.00663967,0.0108762,1147,414,1.70743,1.39507
-70,610,1.70874,-1.42471,-0.00625084,0.00523096,-0.00137632,0.00539364,-0.00641351,-1.45315,0.00682533,0.0130595,1154,414,1.70869,1.4247
-63,610,1.70569,-1.43466,-0.0063085,0.00462582,-0.000328207,0.00463566,-0.00631834,-1.54082,0.00634912,0.0126006,1161,414,1.70574,1.43466
-56,610,1.71179,-1.41742,-0.00622861,0.00330075,0.00093546,0.00339171,-0.00631957,1.47386,0.00569112,0.0102423,1168,414,1.71181,1.41741
-49,610,1.72131,-1.42065,-0.00611363,0.000703389,0.00249613,0.00151964,-0.00692988,1.25475,0.005201,0.0105906,1175,414,1.72131,1.42067
-42,610,1.72375,-1.45956,-0.00659319,-0.00269344,0.0044879,0.000249871,-0.00953651,0.990332,0.00644258,0.0148179,1182,414,1.72379,1.45957
-35,610,1.70447,-1.47253,-0.00593316,-0.00638816,0.00640993,0.000253307,-0.0125746,0.76766,0.00846878,0.0150362,1189,414,1.70448,1.47253
-28,610,1.70544,-1.47125,-0.00379713,-0.0106606,0.007692,0.00119394,-0.0156517,0.575577,0.0108543,0.0123823,1196,414,1.70549,1.47126
-21,610,1.71814,-1.47531,-0.000643536,-0.0141961,0.00798994,0.00305669,-0.0178963,0.433703,0.0130695,0.0108997,1203,414,1.71812,1.4753
-14,610,1.70178,-1.4772,0.00248201,-0.0149012,0.00681666,0.00483625,-0.0172554,0.332541,0.0134096,0.0125831,1210,414,1.70179,1.47719
-7,610,1.69873,-1.48975,0.00601169,-0.0157449,0.00546287,0.00730632,-0.0170395,0.232696,0.0144256,0.0145769,1217,414,1.69876,1.48975
0,610,1.71729,-1.49066,0.00900989,-0.0131513,0.00295494,0.00939713,-0.0135385,0.130306,0.0133137,0.0111999,1224,414,1.71723,1.49065
7,610,1.72009,-1.47604,0.0112973,-0.00880149,-0.000356484,0.0113036,-0.00880781,-0.0177292,0.0116411,0.0108213,1231,414,1.72005,1.47603
14,610,1.68945,-1.47845,0.0139205,-0.00370854,-0.00374151,0.0146817,-0.00446975,-0.200711,0.0115692,0.0125413,1238,414,1.68943,1.47846
21,610,1.70667,-1.49081,0.0165078,0.00266027,-0.00777515,0.0199952,-0.000827085,-0.421627,0.0136142,0.0113354,1245,414,1.70664,1.49082
28,610,1.73682,-1.50726,0.0186815,0.00985395,-0.0117427,0.0268125,0.0017229,-0.60563,0.0173293,0.0111699,1252,414,1.73684,1.50726
35,610,1.75366,-1.50021,0.0198654,0.0163733,-0.0149841,0.0332048,0.00303389,-0.727396,0.0211977,0.0138879,1259,414,1.75365,1.50022
42,610,1.7179,-1.50671,0.0208789,0.0225922,-0.0176187,0.0393751,0.00409609,-0.80969,0.0249968,0.0133816,1266,414,1.71784,1.50673
49,610,1.71045,-1.53052,0.0212821,0.0276939,-0.0194991,0.0442489,0.00472712,-0.866876,0.0280566,0.0134376,1273,414,1.71049,1.53051
56,610,1.72864,-1.52115,0.0210015,0.0307211,-0.0200326,0.0464749,0.00524768,-0.904396,0.0293906,0.0122192,1280,414,1.72868,1.52115
63,610,1.71875,-1.5062,0.0215656,0.031848,-0.0204772,0.0478195,0.00559409,-0.908391,0.0301882,0.0166386,1287,414,1.7187,1.5062
70,610,1.73828,-1.5191,0.0209806,0.0306264,-0.0198375,0.0462189,0.00538812,-0.904645,0.0291828,0.0223868,1294,414,1.7383,1.51911
77,610,1.77222,-1.53912,0.01902,0.0271149,-0.0177922,0.0413143,0.00482064,-0.897238,0.0260849,0.0263249,1301,414,1.77225,1.53911
84,610,1.74744,-1.4996,0.017283,0.0218201,-0.0153063,0.035025,0.00407808,-0.858966,0.0221163,0.0306087,1308,414,1.74749,1.49961
91,610,1.72131,-1.51379,0.0162973,0.0150901,-0.0122091,0.0279177,0.00346967,-0.760698,0.0175698,0.0266844,1315,414,1.72131,1.5138
98,610,1.74023,-1.52972,0.0156333,0.00949133,-0.0100437,0.0230651,0.00205958,-0.63703,0.0147382,0.0253067,1322,414,1.74023,1.52974
105,610,1.76501,-1.49146,0.0153706,0.00247882,-0.00804238,0.0192315,-0.00138205,-0.447573,0.0133056,0.0191726,1329,414,1.76496,1.49146
112,610,1.75842,-1.49387,0.0150933,-0.00317513,-0.00657912,0.017216,-0.00529786,-0.312102,0.0135919,0.0118872,1336,414,1.75841,1.49385
119,610,1.73328,-1.50607,0.013982,-0.00704432,-0.00552652,0.0153461,-0.00840841,-0.241988,0.0139083,0.0171765,1343,414,1.73323,1.50607
126,610,1.74707,-1.48123,0.0124094,-0.0101742,-0.00448117,0.013266,-0.0110309,-0.188895,0.0140476,0.0251238,1350,414,1.74702,1.48122
133,610,1.78284,-1.46857,0.010867,-0.0125468,-0.00378619,0.011464,-0.0131438,-0.156399,0.0142183,0.0199357,1357,414,1.78284,1.46857
140,610,1.77393,-1.47314,0.00982681,-0.0134722,-0.00397344,0.0104858,-0.0141312,-0.164354,0.0142645,0.0158443,1364,414,1.77397,1.47314
147,610,1.75269,-1.4628,0.00793837,-0.013788,-0.00446714,0.008821,-0.0146706,-0.19507,0.0137023,0.0174224,1371,414,1.75267,1.46279
154,610,1.72461,-1.44391,0.00514721,-0.0136343,-0.00494645,0.0063703,-0.0148574,-0.242403,0.0125781,0.0216927,1378,414,1.72465,1.4439
161,610,1.75854,-1.4772,0.00260894,-0.0126512,-0.00549437,0.00438131,-0.0144236,-0.312042,0.0113613,0.0264548,1385,414,1.75851,1.4772
168,610,1.79346,-1.50882,-0.000439982,-0.0115912,-0.00522005,0.00162223,-0.0136534,-0.376237,0.00968839,0.0254148,1392,414,1.7935,1.50883
175,610,1.79553,-1.49496,-0.00312826,-0.00967656,-0.00528776,-0.000183046,-0.0126218,-0.508192,0.00835417,0.0193556,1399,414,1.79559,1.49495
182,610,1.81641,-1.46274,-0.00512156,-0.00789838,-0.00503152,-0.0012904,-0.0117295,-0.650777,0.00742701,0.0141914,1406,414,1.81646,1.46274
189,610,1.81995,-1.4223,-0.00665055,-0.00615139,-0.00462655,-0.00176769,-0.0110342,-0.812345,0.00684346,0.0127994,1413,414,1.81997,1.42232
196,610,1.79541,-1.40344,-0.00751597,-0.00576322,-0.00399226,-0.00255227,-0.0107269,-0.893444,0.00647054,0.0139069,1420,414,1.79543,1.40343
203,610,1.79663,-1.41104,-0.00801158,-0.00425354,-0.00301782,-0.00257756,-0.00968755,-1.06385,0.00579357,0.0146524,1427,414,1.79663,1.41105
210,610,1.81104,-1.39502,-0.00792232,-0.00289151,-0.00190021,-0.00225445,-0.00855939,-1.24731,0.00512289,0.0104836,1434,414,1.811,1.39502
217,610,1.797,-1.37778,-0.00688229,-0.00228364,-0.000971709,-0.00208674,-0.00707918,-1.37088,0.00420036,0.0160301,1441,414,1.797,1.37779
224,610,1.78284,-1.38474,-0.00556678,-0.0014892,-0.000155225,-0.0014833,-0.00557268,-1.5328,0.0033326,0.0190227,1448,414,1.78284,1.38475
231,610,1.77966,-1.39374,-0.00411694,-0.000721467,0.000676498,-0.000591648,-0.00424676,1.3812,0.00265601,0.0146719,1455,414,1.77968,1.39373
238,610,1.79199,-1.36206,-0.00266368,3.51637e-05,0.00121673,0.000502708,-0.00313123,1.20393,0.00227365,0.0108447,1462,414,1.79201,1.36207
245,610,1.79761,-1.33295,-0.00132206,0.000673941,0.00153476,0.00150665,-0.00215477,1.07368,0.00212493,0.0119548,1469,414,1.79765,1.33296
252,610,1.80603,-1.30936,-6.10319e-05,0.00101753,0.00179313,0.00235072,-0.00139422,0.93147,0.00218553,0.0130901,1476,414,1.80607,1.30936
259,610,1.81689,-1.2901,0.00101575,0.00113014,0.0019114,0.0029852,-0.000839308,0.800356,0.00232105,0.0117216,1483,414,1.8169,1.29009
266,610,1.80945,-1.26089,0.00139887,0.00161986,0.00164087,0.00315395,-0.000135226,0.819017,0.00214913,0.0126932,1490,414,1.80944,1.26088
273,610,1.81702,-1.23871,0.00105671,0.00184491,0.00150049,0.00300219,-0.00010057,0.91382,0.00203581,0.0100469,1497,414,1.81705,1.2387
280,610,1.80884,-1.21426,0.000902221,0.00180273,0.0012733,0.00270303,1.91189e-06,0.955342,0.00180139,0.00931699,1504,414,1.80888,1.21426
287,610,1.80676,-1.21823,0.00058441,0.00189605,0.000893793,0.00234882,0.000131643,1.10191,0.00152389,0.011826,1511,414,1.80679,1.21823
294,610,1.81421,-1.20786,8.30209e-05,0.00202671,0.000196546,0.00204639,6.33454e-05,1.47102,0.00134364,0.0101949,1518,414,1.81427,1.20785
301,610,1.81677,-1.16443,-0.000533686,0.00239786,-0.000349133,0.00243886,-0.000574693,-1.45388,0.00184751,0.00974419,1525,414,1.81678,1.16442
308,610,1.83044,-1.13959,-0.000221033,0.00290213,-0.001496,0.00350308,-0.000821982,-1.18882,0.00265219,0.0118867,1532,414,1.83046,1.13959
315,610,1.81909,-1.11407,0.000597139,0.00370842,-0.00290548,0.00544851,-0.00114295,-1.03119,0.00406721,0.0129362,1539,414,1.81904,1.11408
322,610,1.80933,-1.09363,0.00181818,0.00398945,-0.00414544,0.00718905,-0.00138142,-0.913465,0.00531338,0.0123821,1546,414,1.80927,1.09363
329,610,1.80652,-1.07016,0.00358191,0.00430127,-0.00507809,0.00903241,-0.00114923,-0.820754,0.00643896,0.0110618,1553,414,1.80651,1.07016
336,610,1.81079,-1.03482,0.00562756,0.00507013,-0.00473886,0.0100959,0.000601791,-0.756025,0.00653923,0.00937791,1560,414,1.81085,1.03481
343,610,1.79626,-1.01117,0.00791361,0.00632381,-0.00489675,0.0120796,0.00215785,-0.704934,0.00743882,0.0121219,1567,414,1.79627,1.01117
350,610,1.79443,-1.00531,0.0103609,0.00862236,-0.00452009,0.0140946,0.00488872,-0.6904,0.00826376,0.0164472,1574,414,1.79444,1.00532
357,610,1.83997,-0.962891,0.012692,0.012801,-0.00331032,0.0160573,0.00943576,-0.793626,0.00931802,0.0232095,1581,414,1.83992,0.962886
364,610,1.83606,-0.893585,0.0148986,0.0154963,-0.00200672,0.0172263,0.0131686,-0.859315,0.010399,0.0260107,1588,414,1.83602,0.893593
371,610,1.74524,-1.00626,0.0167107,0.0167289,-4.4072e-05,0.0167648,0.0166748,-0.887106,0.0111467,0.0386243,1595,414,1.74519,1.00627
378,610,1.70691,-1.09174,0.0179796,0.0202683,0.0024896,0.021864,0.016384,1.00082,0.013136,0.0439186,1602,414,1.70693,1.09175
385,610,1.93616,-0.557373,0.0179599,0.0245784,0.00523049,0.0274586,0.0150797,1.06745,0.0158788,0.0464245,1609,414,1.93619,0.557359
392,610,2.07141,0.0624695,0,0,0,0,0,0,0,-1,1616,414,2.07136,-0.0624642
399,610,1.26074,1.81329,0,0,0,0,0,0,0,-1,1623,414,1.26076,-1.81328
406,610,1.0083,2.35193,0,0,0,0,0,0,0,-1,1630,414,1.00834,-2.35192
413,610,0.178223,2.01062,0.0331771,0.0295358,0.00766404,0.0392338,0.0234791,0.66878,0.0227975,0.0460697,1637,414,0.178174,-2.01063
420,610,0.112061,2.36353,0.0410692,0.027239,0.00698353,0.043982,0.0243262,0.39516,0.0254407,0.0462966,1644,414,0.112065,-2.36353
427,610,0.286377,2.71814,0,0,0,0,0,0,0,-1,1651,414,0.286352,-2.71814
434,610,1.724,2.44418,0,0,0,0,0,0,0,-1,1658,414,1.72405,-2.44419
441,610,0,0,0,0,0,0,0,0,0,-1,1665,414,0,0
448,610,0,0,0,0,0,0,0,0,0,-1,1672,414,0,0
455,610,0,0,0,0,0,0,0,0,0,-1,1679,414,0,0
462,610,0,0,0,0,0,0,0,0,0,-1,1686,414,0,0
469,610,0,0,0,0,0,0,0,0,0,-1,1693,414,0,0
476,610,0,0,0,0,0,0,0,0,0,-1,1700,414,0,0
483,610,0,0,0,0,0,0,0,0,0,-1,1707,414,0,0
490,610,0,0,0,0,0,0,0,0,0,-1,1714,414,0,0
497,610,0,0,0,0,0,0,0,0,0,-1,1721,414,0,0
504,610,0,0,0,0,0,0,0,0,0,-1,1728,414,0,0
511,610,0,0,0,0,0,0,0,0,0,-1,1735,414,0,0
518,610,0,0,0,0,0,0,0,0,0,-1,1742,414,0,0
525,610,0,0,0,0,0,0,0,0,0,-1,1749,414,0,0
532,610,0,0,0,0,0,0,0,0,0,-1,1756,414,0,0
539,610,0,0,0,0,0,0,0,0,0,-1,1763,414,0,0
546,610,0,0,0,0,0,0,0,0,0,-1,1770,414,0,0
553,610,0,0,0,0,0,0,0,0,0,-1,1777,414,0,0
560,610,0,0,0,0,0,0,0,0,0,-1,1784,414,0,0
567,610,0,0,0,0,0,0,0,0,0,-1,1791,414,0,0
574,610,0,0,0,0,0,0,0,0,0,-1,1798,414,0,0
581,610,0,0,0,0,0,0,0,0,0,-1,1805,414,0,0
588,610,0,0,0,0,0,0,0,0,0,-1,1812,414,0,0
595,610,0,0,0,0,0,0,0,0,0,-1,1819,414,0,0
602,610,0,0,0,0,0,0,0,0,0,-1,1826,414,0,0
609,610,0,0,0,0,0,0,0,0,0,-1,1833,414,0,0
616,610,0,0,0,0,0,0,0,0,0,-1,1840,414,0,0
623,610,0,0,0,0,0,0,0,0,0,-1,1847,414,0,0
630,610,0,0,0,0,0,0,0,0,0,-1,1854,414,0,0
637,610,0,0,0,0,0,0,0,0,0,-1,1861,414,0,0
644,610,0,0,0,0,0,0,0,0,0,-1,1868,414,0,0
651,610,0,0,0,0,0,0,0,0,0,-1,1875,414,0,0
658,610,0,0,0,0,0,0,0,0,0,-1,1882,414,0,0
665,610,0,0,0,0,0,0,0,0,0,-1,1889,414,0,0
672,610,0,0,0,0,0,0,0,0,0,-1,1896,414,0,0
679,610,0,0,0,0,0,0,0,0,0,-1,1903,414,0,0
686,610,0,0,0,0,0,0,0,0,0,-1,1910,414,0,0
693,610,0,0,0,0,0,0,0,0,0,-1,1917,414,0,0
700,610,0,0,0,0,0,0,0,0,0,-1,1924,414,0,0
707,610,0,0,0,0,0,0,0,0,0,-1,1931,414,0,0
714,610,0,0,0,0,0,0,0,0,0,-1,1938,414,0,0
721,610,0,0,0,0,0,0,0,0,0,-1,1945,414,0,0
728,610,0,0,0,0,0,0,0,0,0,-1,1952,414,0,0
735,610,0,0,0,0,0,0,0,0,0,-1,1959,414,0,0
742,610,0,0,0,0,0,0,0,0,0,-1,1966,414,0,0
749,610,0,0,0,0,0,0,0,0,0,-1,1973,414,0,0
756,610,0,0,0,0,0,0,0,0,0,-1,1980,414,0,0
763,610,0,0,0,0,0,0,0,0,0,-1,1987,414,0,0
770,610,0,0,0,0,0,0,0,0,0,-1,1994,414,0,0
777,610,0,0,0,0,0,0,0,0,0,-1,2001,414,0,0
784,610,0,0,0,0,0,0,0,0,0,-1,2008,414,0,0
791,610,0,0,0,0,0,0,0,0,0,-1,2015,414,0,0
798,610,0,0,0,0,0,0,0,0,0,-1,2022,414,0,0
805,610,0,0,0,0,0,0,0,0,0,-1,2029,414,0,0
812,610,0,0,0,0,0,0,0,0,0,-1,2036,414,0,0
-700,603,0,0,0,0,0,0,0,0,0,-1,524,421,0,0
-693,603,0,0,0,0,0,0,0,0,0,-1,531,421,0,0
-686,603,0,0,0,0,0,0,0,0,0,-1,538,421,0,0
-679,603,0,0,0,0,0,0,0,0,0,-1,545,421,0,0
-672,603,0,0,0,0,0,0,0,0,0,-1,552,421,0,0
-665,603,0,0,0,0,0,0,0,0,0,-1,559,421,0,0
-658,603,0,0,0,0,0,0,0,0,0,-1,566,421,0,0
-651,603,0,0,0,0,0,0,0,0,0,-1,573,421,0,0
-644,603,0,0,0,0,0,0,0,0,0,-1,580,421,0,0
-637,603,0,0,0,0,0,0,0,0,0,-1,587,421,0,0
-630,603,0,0,0,0,0,0,0,0,0,-1,594,421,0,0
-623,603,0,0,0,0,0,0,0,0,0,-1,601,421,0,0
-616,603,0,0,0,0,0,0,0,0,0,-1,608,421,0,0
-609,603,0,0,0,0,0,0,0,0,0,-1,615,421,0,0
-602,603,0,0,0,0,0,0,0,0,0,-1,622,421,0,0
-595,603,0,0,0,0,0,0,0,0,0,-1,629,421,0,0
-588,603,0,0,0,0,0,0,0,0,0,-1,636,421,0,0
-581,603,0,0,0,0,0,0,0,0,0,-1,643,421,0,0
-574,603,0,0,0,0,0,0,0,0,0,-1,650,421,0,0
-567,603,0,0,0,0,0,0,0,0,0,-1,657,421,0,0
-560,603,0,0,0,0,0,0,0,0,0,-1,664,421,0,0
-553,603,0,0,0,0,0,0,0,0,0,-1,671,421,0,0
-546,603,0,0,0,0,0,0,0,0,0,-1,678,421,0,0
-539,603,0,0,0,0,0,0,0,0,0,-1,685,421,0,0
-532,603,0,0,0,0,0,0,0,0,0,-1,692,421,0,0
-525,603,0,0,0,0,0,0,0,0,0,-1,699,421,0,0
-518,603,0,0,0,0,0,0,0,0,0,-1,706,421,0,0
-511,603,0,0,0,0,0,0,0,0,0,-1,713,421,0,0
-504,603,0,0,0,0,0,0,0,0,0,-1,720,421,0,0
-497,603,0,0,0,0,0,0,0,0,0,-1,727,421,0,0
-490,603,0,0,0,0,0,0,0,0,0,-1,734,421,0,0
-483,603,0,0,0,0,0,0,0,0,0,-1,741,421,0,0
-476,603,0,0,0,0,0,0,0,0,0,-1,748,421,0,0
-469,603,0,0,0,0,0,0,0,0,0,-1,755,421,0,0
-462,603,0,0,0,0,0,0,0,0,0,-1,762,421,0,0
-455,603,0,0,0,0,0,0,0,0,0,-1,769,421,0,0
-448,603,0,0,0,0,0,0,0,0,0,-1,776,421,0,0
-441,603,0,0,0,0,0,0,0,0,0,-1,783,421,0,0
-434,603,0,0,0,0,0,0,0,0,0,-1,790,421,0,0
-427,603,0,0,0,0,0,0,0,0,0,-1,797,421,0,0
-420,603,0,0,0,0,0,0,0,0,0,-1,804,421,0,0
-413,603,0,0,0,0,0,0,0,0,0,-1,811,421,0,0
-406,603,0,0,0,0,0,0,0,0,0,-1,818,421,0,0
-399,603,0,0,0,0,0,0,0,0,0,-1,825,421,0,0
-392,603,0,0,0,0,0,0,0,0,0,-1,832,421,0,0
-385,603,0,0,0,0,0,0,0,0,0,-1,839,421,0,0
-378,603,0,0,0,0,0,0,0,0,0,-1,846,421,0,0
-371,603,0,0,0,0,0,0,0,0,0,-1,853,421,0,0
-364,603,0,0,0,0,0,0,0,0,0,-1,860,421,0,0
-357,603,0,0,0,0,0,0,0,0,0,-1,867,421,0,0
-350,603,0,0,0,0,0,0,0,0,0,-1,874,421,0,0
-343,603,0,0,0,0,0,0,0,0,0,-1,881,421,0,0
-336,603,0,0,0,0,0,0,0,0,0,-1,888,421,0,0
-329,603,4.65869,-0.678436,0,0,0,0,0,0,0,-1,895,421,4.65869,0.67844
-322,603,4.1004,-0.862244,0,0,0,0,0,0,0,-1,902,421,4.10039,0.862246
-315,603,4.32336,-0.8078,0,0,0,0,0,0,0,-1,909,421,4.32335,0.807792
-308,603,4.57721,-0.749664,0,0,0,0,0,0,0,-1,916,421,4.57723,0.74967
-301,603,3.30542,-0.0336609,0,0,0,0,0,0,0,-1,923,421,3.30543,0.0336738
-294,603,3.22321,-0.378174,-0.0448087,-0.0162757,0.0118256,-0.0120117,-0.0490726,1.22474,0.0295369,0.0441631,930,421,3.22322,0.378169
-287,603,3.05334,-0.501831,-0.0434563,-0.0169571,0.00817465,-0.0146383,-0.0457752,1.29439,0.0269945,0.0479922,937,421,3.05333,0.501843
-280,603,1.51086,-1.02069,0,0,0,0,0,0,0,-1,944,421,1.51084,1.0207
-273,603,1.45459,-0.809021,0,0,0,0,0,0,0,-1,951,421,1.45458,0.809022
-266,603,1.39899,-0.815674,-0.0273117,-0.0174691,0.000757041,-0.0174113,-0.0273696,1.49448,0.0159959,0.0429448,958,421,1.39899,0.815688
-259,603,1.487,-0.775116,-0.0196261,-0.0171637,-2.59629e-05,-0.0171634,-0.0196263,-1.56025,0.0123454,0.0430326,965,421,1.48699,0.775122
-252,603,1.65021,-0.76825,-0.0137303,-0.0169694,0.000267655,-0.0137083,-0.0169914,0.0818913,0.0104073,0.0354344,972,421,1.65021,0.768243
-245,603,1.68646,-0.860748,-0.00947106,-0.0163333,0.000292989,-0.00945858,-0.0163458,0.0425926,0.00947607,0.0261105,979,421,1.68644,0.860762
-238,603,1.67303,-0.909058,-0.00529681,-0.0153986,-4.24214e-06,-0.00529681,-0.0153986,-0.000419938,0.00903352,0.0158356,986,421,1.67302,0.909066
-231,603,1.65424,-0.952362,-0.00264045,-0.0137812,-0.000233526,-0.00263556,-0.0137861,-0.0209492,0.00845033,0.0115241,993,421,1.65422,0.952357
-224,603,1.62634,-0.979523,0.00278219,-0.0118091,-6.49213e-06,0.00278219,-0.0118091,-0.000444932,0.00894552,0.0121705,1000,421,1.62631,0.979521
-217,603,1.63751,-0.984344,0.00397646,-0.0107009,0.000414195,0.00398814,-0.0107125,0.0281901,0.00877843,0.0115432,1007,421,1.63748,0.984341
-210,603,1.65497,-1.005,0.000813011,-0.00945885,0.000791888,0.000873702,-0.00951954,0.0764906,0.00665673,0.00985617,1014,421,1.65498,1.005
-203,603,1.6568,-1.04126,-0.00144085,-0.00796821,0.000971082,-0.00129944,-0.00810961,0.1446,0.00502953,0.0148312,1021,421,1.65681,1.04127
-196,603,1.69885,-1.09839,-0.00273458,-0.00653013,0.000565886,-0.00265201,-0.00661271,0.144895,0.00384269,0.016289,1028,421,1.69886,1.09837
-189,603,1.69617,-1.10397,-0.00251844,-0.00488536,0.000152472,-0.00250865,-0.00489515,0.0640646,0.00282651,0.0136674,1035,421,1.69616,1.10396
-182,603,1.67358,-1.11877,-0.0020879,-0.0025281,-0.000284009,-0.00194868,-0.00266731,-0.45575,0.00159362,0.0101501,1042,421,1.67357,1.11876
-175,603,1.67883,-1.14615,-0.00151812,-0.000644996,-0.000795913,-0.000173779,-0.00198934,-1.03625,0.00127226,0.0099156,1049,421,1.67882,1.14614
-168,603,1.66541,-1.17053,-0.000955973,0.000854567,-0.00133767,0.0015645,-0.0016659,-1.08287,0.00186538,0.0129956,1056,421,1.66545,1.17053
-161,603,1.6427,-1.20801,-0.000426455,0.00201366,-0.00176797,0.00294169,-0.00135448,-1.08742,0.00253619,0.0137921,1063,421,1.64272,1.20801
-154,603,1.64941,-1.2316,1.06166e-05,0.00286508,-0.00206217,0.00394574,-0.00107004,-1.0881,0.00305039,0.012489,1070,421,1.64937,1.23159
-147,603,1.66321,-1.23196,0.000619349,0.00342928,-0.00237168,0.0047809,-0.000732276,-1.0528,0.00345731,0.0122425,1077,421,1.66318,1.23198
-140,603,1.66907,-1.2334,0.00110557,0.00363109,-0.00236531,0.0050496,-0.000312947,-1.03059,0.00347542,0.0106895,1084,421,1.66902,1.2334
-133,603,1.64722,-1.2449,0.00125155,0.00345228,-0.00238111,0.00497498,-0.000271148,-1.00184,0.00341063,0.011707,1091,421,1.64722,1.24492
-126,603,1.63855,-1.27524,0.00103879,0.00315565,-0.00245583,0.00477142,-0.000576979,-0.988864,0.00338968,0.0105722,1098,421,1.63856,1.27523
-119,603,1.66223,-1.29791,0.000619917,0.00356188,-0.00270301,0.00516824,-0.000986446,-1.03459,0.00381704,0.0106758,1105,421,1.66226,1.29792
-112,603,1.65173,-1.32736,-0.000442907,0.00353277,-0.00303047,0.00516919,-0.00207933,-1.07567,0.00430981,0.0156617,1112,421,1.65172,1.32736
-105,603,1.66809,-1.35352,-0.00175455,0.00347957,-0.00365386,0.00535691,-0.0036319,-1.09617,0.00522145,0.0150423,1119,421,1.66811,1.35353
-98,603,1.66919,-1.35699,-0.003146,0.00390821,-0.00398768,0.00570483,-0.00494262,-1.14749,0.00615256,0.0115825,1126,421,1.66922,1.35698
-91,603,1.65991,-1.36752,-0.0047687,0.00447733,-0.00425618,0.00613821,-0.00642958,-1.19874,0.00725666,0.00856484,1133,421,1.65996,1.36752
-84,603,1.67346,-1.38672,-0.00628012,0.00533737,-0.00423506,0.00671731,-0.00766006,-1.25581,0.00830673,0.00865424,1140,421,1.67346,1.38671
-77,603,1.67383,-1.39999,-0.00758478,0.00617176,-0.00418412,0.00734442,-0.00875744,-1.29754,0.00930834,0.00885054,1147,421,1.67387,1.39998
-70,603,1.68909,-1.41565,-0.00803426,0.00688885,-0.00353728,0.00768485,-0.00883025,-1.34945,0.00954264,0.0108415,1154,421,1.68905,1.41564
-63,603,1.69153,-1.43353,-0.00822082,0.00572234,-0.0024021,0.00612457,-0.00862305,-1.40489,0.00855517,0.0121415,1161,421,1.69148,1.43352
-56,603,1.67493,-1.4762,-0.00851502,0.00316954,-0.000829395,0.00322812,-0.0085736,-1.50029,0.00704285,0.0141573,1168,421,1.67491,1.47619
-49,603,1.65991,-1.49063,-0.00889188,-0.00127853,0.00135624,-0.00104414,-0.00912627,1.39967,0.00576772,0.017,1175,421,1.65995,1.49062
-42,603,1.67554,-1.47791,-0.0100329,-0.00671658,0.00421145,-0.00384861,-0.0129009,0.972941,0.00764762,0.0244849,1182,421,1.67557,1.47789
-35,603,1.6438,-1.44305,-0.00954468,-0.0123584,0.00692661,-0.00388351,-0.0180196,0.685206,0.0109506,0.0208356,1189,421,1.64378,1.44306
-28,603,1.65088,-1.44983,-0.0070453,-0.0187271,0.00911419,-0.00206102,-0.0237114,0.500437,0.0151673,0.0177686,1196,421,1.65086,1.44982
-21,603,1.65027,-1.46652,-0.00303079,-0.0239167,0.00985608,0.00088584,-0.0278333,0.378247,0.0188578,0.0188709,1203,421,1.65024,1.46652
-14,603,1.63293,-1.44608,0.00102958,-0.0244712,0.00827196,0.0034778,-0.0269194,0.287752,0.0192108,0.0204254,1210,421,1.633,1.44607
-7,603,1.65674,-1.45679,0.00560059,-0.0248933,0.00649357,0.00692578,-0.0262185,0.201313,0.0201876,0.0234543,1217,421,1.65676,1.4568
0,603,1.68127,-1.47739,0.00967555,-0.0206806,0.00304166,0.00997732,-0.0209823,0.0988893,0.0182471,0.0268113,1224,421,1.68124,1.47739
7,603,1.68994,-1.42966,0.0129508,-0.013618,-0.00157941,0.0130443,-0.0137115,-0.0591685,0.0154491,0.030358,1231,421,1.68992,1.42965
14,603,1.75781,-1.44891,0.0167327,-0.00555637,-0.00642121,0.0184502,-0.00727389,-0.261359,0.0153119,0.0270478,1238,421,1.75779,1.44891
21,603,1.72937,-1.48615,0.0207059,0.00425674,-0.0121267,0.027134,-0.00217137,-0.487419,0.0188549,0.0203291,1245,421,1.72938,1.48613
28,603,1.77771,-1.47519,0.0242376,0.015063,-0.017814,0.0380455,0.00125511,-0.65938,0.0249558,0.0220646,1252,421,1.77773,1.4752
35,603,1.83362,-1.43301,0.0263053,0.0246631,-0.0224305,0.0479297,0.00303861,-0.767103,0.03099,0.029294,1259,421,1.83368,1.43302
42,603,1.77234,-1.50015,0.0282856,0.0337161,-0.0262551,0.057396,0.00460569,-0.836924,0.0368249,0.0266621,1266,421,1.77231,1.50016
49,603,1.71265,-1.52502,0.0297176,0.0412242,-0.0291155,0.0651494,0.00579245,-0.882942,0.0416366,0.0153139,1273,421,1.71268,1.52501
56,603,1.71252,-1.52203,0.0301644,0.0457896,-0.0301956,0.069167,0.00678705,-0.911989,0.0440237,0.0271009,1280,421,1.71254,1.52202
63,603,1.67651,-1.51596,0.031488,0.0476673,-0.0311287,0.0717403,0.00741494,-0.912524,0.0455568,0.0379643,1287,421,1.67649,1.51597
70,603,1.60535,-1.49124,0.0311653,0.0459618,-0.030332,0.0697848,0.0073423,-0.905016,0.0442791,0.0393105,1294,421,1.60531,1.49123
77,603,1.63354,-1.61508,0.0286369,0.0409965,-0.0276073,0.0631072,0.00652616,-0.895506,0.0400736,0.0406159,1301,421,1.6335,1.61508
84,603,1.56396,-1.65771,0.0260234,0.0333012,-0.0239465,0.0538837,0.00544085,-0.8608,0.0342532,0.0450935,1308,421,1.56396,1.65772
91,603,1.78369,-1.43481,0.0245538,0.0233324,-0.0194093,0.043362,0.00452417,-0.769671,0.0275242,0.0482893,1315,421,1.7837,1.4348
98,603,1.74487,-1.44754,0.0232982,0.0150124,-0.0161937,0.0358705,0.0024401,-0.660168,0.0231432,0.0482863,1322,421,1.74484,1.44754
105,603,1.65247,-1.4476,0.0224311,0.00506234,-0.0131596,0.0295136,-0.00202009,-0.493736,0.0203825,0.0381253,1329,421,1.65247,1.44761
112,603,1.85303,-1.47583,0.0215116,-0.00318953,-0.0109332,0.0256556,-0.00733355,-0.3623,0.0200015,0.0314417,1336,421,1.85297,1.47582
119,603,1.81238,-1.49417,0.0193521,-0.00893247,-0.00914626,0.022052,-0.0116323,-0.287037,0.0197554,0.033392,1343,421,1.81242,1.49416
126,603,1.78931,-1.5148,0.0166011,-0.0138313,-0.00737902,0.0182959,-0.0155261,-0.225766,0.019549,0.0386713,1350,421,1.78929,1.51479
133,603,1.81995,-1.52756,0.0141169,-0.0177349,-0.00615437,0.0152647,-0.0188827,-0.18438,0.0197519,0.0342002,1357,421,1.8199,1.52757
140,603,1.7981,-1.47726,0.0127257,-0.0194259,-0.00634651,0.0139331,-0.0206333,-0.188002,0.0200815,0.0217447,1364,421,1.79814,1.47727
147,603,1.76331,-1.47189,0.0102883,-0.0203406,-0.00690908,0.0117746,-0.021827,-0.211904,0.0196871,0.0167968,1371,421,1.76328,1.47189
154,603,1.76501,-1.45856,0.0065773,-0.0205689,-0.00745302,0.00848892,-0.0224805,-0.251077,0.0184785,0.0256789,1378,421,1.76502,1.45856
161,603,1.79944,-1.48206,0.00327397,-0.0196077,-0.00803566,0.005814,-0.0221477,-0.306157,0.0170371,0.0310952,1385,421,1.79938,1.48206
168,603,1.84241,-1.48047,-0.000735426,-0.0188968,-0.00731843,0.00184657,-0.0214788,-0.339174,0.0149728,0.0262627,1392,421,1.8424,1.48046
175,603,1.82849,-1.43903,-0.00439718,-0.0162316,-0.00745965,-0.000792845,-0.0198359,-0.450099,0.0129678,0.0205944,1399,421,1.82845,1.43903
182,603,1.85974,-1.44791,-0.00709089,-0.0135775,-0.00724329,-0.00239793,-0.0182704,-0.574901,0.0114649,0.0177279,1406,421,1.85973,1.44792
189,603,1.8479,-1.41608,-0.00927815,-0.0106402,-0.00698825,-0.00293781,-0.0169805,-0.736826,0.0104793,0.0138795,1413,421,1.84786,1.41608
196,603,1.81921,-1.39511,-0.0107557,-0.00961411,-0.0061651,-0.00399344,-0.0163764,-0.831559,0.0098598,0.013735,1420,421,1.81917,1.39512
203,603,1.8114,-1.40082,-0.0118653,-0.00707667,-0.00483857,-0.00407243,-0.0148696,-1.01516,0.00887277,0.00918084,1427,421,1.81135,1.40081
210,603,1.81152,-1.37598,-0.0120717,-0.00496743,-0.00335936,-0.0036305,-0.0134086,-1.19204,0.00800811,0.00904238,1434,421,1.81155,1.37597
217,603,1.81238,-1.37772,-0.0105917,-0.00438426,-0.00221059,-0.0036775,-0.0112984,-1.26135,0.00665428,0.0127682,1441,421,1.81244,1.37772
224,603,1.80383,-1.38358,-0.00875464,-0.00355658,-0.00130219,-0.00324861,-0.00906261,-1.33856,0.00530172,0.0159106,1448,421,1.80387,1.38359
231,603,1.79199,-1.36969,-0.00676248,-0.00276999,-0.000406858,-0.00272895,-0.00680352,-1.47027,0.00395354,0.0134747,1455,421,1.79205,1.36967
238,603,1.78894,-1.33789,-0.00472088,-0.00195042,5.46601e-05,-0.00194935,-0.00472196,1.55108,0.00274,0.0108343,1462,421,1.789,1.33789
245,603,1.79529,-1.32629,-0.00284934,-0.00109942,0.000280378,-0.0010556,-0.00289316,1.41574,0.00169058,0.0118256,1469,421,1.79526,1.32629
252,603,1.80359,-1.30798,-0.00113059,-0.000490619,0.000503575,-0.000213965,-0.00140724,1.06843,0.000875598,0.00993276,1476,421,1.80353,1.30798
259,603,1.80786,-1.29626,0.000437649,5.79819e-05,0.000545617,0.000825513,-0.000329883,0.617986,0.000687222,0.0099215,1483,421,1.8079,1.29625
266,603,1.80737,-1.28104,0.00117261,0.000673661,0.000234948,0.00126583,0.000580443,0.377709,0.000731663,0.0117462,1490,421,1.80741,1.28103
273,603,1.82532,-1.24744,0.00107404,0.00100425,6.67981e-05,0.00111451,0.000963784,0.544693,0.00069821,0.0107761,1497,421,1.82534,1.24745
280,603,1.82434,-1.20227,0.00116716,0.0011329,-9.16085e-05,0.00124323,0.00105683,-0.692952,0.000774202,0.0117659,1504,421,1.82428,1.20228
287,603,1.82385,-1.18976,0.00107969,0.00136795,-0.000328238,0.00158231,0.000865334,-0.992278,0.000914885,0.0112835,1511,421,1.82387,1.18976
294,603,1.82886,-1.19562,0.000681017,0.00154775,-0.00069797,0.00193595,0.00029282,-1.06322,0.00120495,0.00928824,1518,421,1.82891,1.19563
301,603,1.82947,-1.16946,0.000150929,0.00189125,-0.000951787,0.00231069,-0.000268514,-1.15571,0.00163732,0.0108702,1525,421,1.82941,1.16947
308,603,1.83521,-1.15231,0.000320336,0.00232355,-0.00158986,0.00320101,-0.000557122,-1.06649,0.00234191,0.0170641,1532,421,1.83518,1.15232
315,603,1.82861,-1.14255,0.000797415,0.00290835,-0.0024362,0.00450789,-0.00080213,-0.989814,0.00330524,0.0158845,1539,421,1.82863,1.14254
322,603,1.82605,-1.10657,0.00157682,0.00311417,-0.00317336,0.00561063,-0.000919633,-0.904223,0.00408164,0.0145094,1546,421,1.82607,1.10657
329,603,1.82129,-1.07407,0.00277526,0.0033117,-0.00364528,0.00669862,-0.000611658,-0.822122,0.00468297,0.0108381,1553,421,1.82126,1.07406
336,603,1.82336,-1.04538,0.00417093,0.00384841,-0.00313455,0.00714836,0.000870979,-0.759698,0.00450341,0.00947974,1560,421,1.82338,1.04539
343,603,1.82141,-1.02542,0.00566559,0.0049152,-0.0029102,0.00822468,0.0023561,-0.72129,0.00489073,0.010755,1567,421,1.82143,1.02543
350,603,1.82129,-1.00458,0.00724791,0.00693562,-0.00230934,0.00940638,0.00477715,-0.751642,0.005431,0.0114103,1574,421,1.82133,1.00459
357,603,1.82715,-0.962616,0.00869103,0.0107948,-0.00119964,0.0113384,0.00814743,-1.14534,0.00675151,0.0111933,1581,421,1.82714,0.962629
364,603,1.8175,-0.932556,0.0100679,0.0132137,-4.46451e-05,0.0132144,0.0100673,-1.55661,0.00797042,0.0126438,1588,421,1.8175,0.932556
371,603,1.81982,-0.917114,0.0111925,0.014769,0.00157831,0.0153659,0.0105956,1.20924,0.00908151,0.0183536,1595,421,1.81985,0.917116
378,603,1.84265,-0.896454,0.0117976,0.0180454,0.00373194,0.0197884,0.0100547,1.13387,0.0114253,0.02989,1602,421,1.8426,0.896452
385,603,1.77063,-0.481262,0.0117059,0.0217246,0.0058818,0.0244411,0.00898934,1.13813,0.0142746,0.0398831,1609,421,1.77058,0.481271
392,603,1.64807,0.278687,0.0136157,0.0248108,0.0070983,0.0282531,0.0101735,1.11926,0.0165234,0.0432358,1616,421,1.64813,-0.278672
399,603,1.55518,1.15067,0.0172774,0.0267007,0.0083012,0.0315342,0.0124439,1.04352,0.0183406,0.0451256,1623,421,1.55522,-1.15068
406,603,1.31531,1.79111,0.0206829,0.0274547,0.00829931,0.0330322,0.0151054,0.979077,0.0190943,0.0456177,1630,421,1.31532,-1.7911
413,603,1.19238,2.38019,0.0250135,0.0270838,0.00844477,0.0345566,0.0175407,0.846382,0.019952,0.044711,1637,421,1.19234,-2.3802
420,603,1.36719,2.97046,0.0318144,0.0254845,0.00806564,0.0373138,0.0199851,0.598431,0.0215613,0.0455114,1644,421,1.36718,-2.97045
427,603,1.64539,3.54471,0,0,0,0,0,0,0,-1,1651,421,1.64539,-3.54471
434,603,1.30273,2.00598,0,0,0,0,0,0,0,-1,1658,421,1.30275,-2.00599
441,603,1.93127,0.0159607,0,0,0,0,0,0,0,-1,1665,421,1.93124,-0.0159676
448,603,2.95667,-0.066925,0,0,0,0,0,0,0,-1,1672,421,2.95662,0.0669226
455,603,0,0,0,0,0,0,0,0,0,-1,1679,421,0,0
462,603,0,0,0,0,0,0,0,0,0,-1,1686,421,0,0
469,603,0,0,0,0,0,0,0,0,0,-1,1693,421,0,0
476,603,0,0,0,0,0,0,0,0,0,-1,1700,421,0,0
483,603,0,0,0,0,0,0,0,0,0,-1,1707,421,0,0
490,603,0,0,0,0,0,0,0,0,0,-1,1714,421,0,0
497,603,0,0,0,0,0,0,0,0,0,-1,1721,421,0,0
504,603,0,0,0,0,0,0,0,0,0,-1,1728,421,0,0
511,603,0,0,0,0,0,0,0,0,0,-1,1735,421,0,0
518,603,0,0,0,0,0,0,0,0,0,-1,1742,421,0,0
525,603,0,0,0,0,0,0,0,0,0,-1,1749,421,0,0
532,603,0,0,0,0,0,0,0,0,0,-1,1756,421,0,0
539,603,0,0,0,0,0,0,0,0,0,-1,1763,421,0,0
546,603,0,0,0,0,0,0,0,0,0,-1,1770,421,0,0
553,603,0,0,0,0,0,0,0,0,0,-1,1777,421,0,0
560,603,0,0,0,0,0,0,0,0,0,-1,1784,421,0,0
567,603,0,0,0,0,0,0,0,0,0,-1,1791,421,0,0
574,603,0,0,0,0,0,0,0,0,0,-1,1798,421,0,0
581,603,0,0,0,0,0,0,0,0,0,-1,1805,421,0,0
588,603,0,0,0,0,0,0,0,0,0,-1,1812,421,0,0
595,603,0,0,0,0,0,0,0,0,0,-1,1819,421,0,0
602,603,0,0,0,0,0,0,0,0,0,-1,1826,421,0,0
609,603,0,0,0,0,0,0,0,0,0,-1,1833,421,0,0
616,603,0,0,0,0,0,0,0,0,0,-1,1840,421,0,0
623,603,0,0,0,0,0,0,0,0,0,-1,1847,421,0,0
630,603,0,0,0,0,0,0,0,0,0,-1,1854,421,0,0
637,603,0,0,0,0,0,0,0,0,0,-1,1861,421,0,0
644,603,0,0,0,0,0,0,0,0,0,-1,1868,421,0,0
651,603,0,0,0,0,0,0,0,0,0,-1,1875,421,0,0
658,603,0,0,0,0,0,0,0,0,0,-1,1882,421,0,0
665,603,0,0,0,0,0,0,0,0,0,-1,1889,421,0,0
672,603,0,0,0,0,0,0,0,0,0,-1,1896,421,0,0
679,603,0,0,0,0,0,0,0,0,0,-1,1903,421,0,0
686,603,0,0,0,0,0,0,0,0,0,-1,1910,421,0,0
693,603,0,0,0,0,0,0,0,0,0,-1,1917,421,0,0
700,603,0,0,0,0,0,0,0,0,0,-1,1924,421,0,0
707,603,0,0,0,0,0,0,0,0,0,-1,1931,421,0,0
714,603,0,0,0,0,0,0,0,0,0,-1,1938,421,0,0
721,603,0,0,0,0,0,0,0,0,0,-1,1945,421,0,0
728,603,0,0,0,0,0,0,0,0,0,-1,1952,421,0,0
735,603,0,0,0,0,0,0,0,0,0,-1,1959,421,0,0
742,603,0,0,0,0,0,0,0,0,0,-1,1966,421,0,0
749,603,0,0,0,0,0,0,0,0,0,-1,1973,421,0,0
756,603,0,0,0,0,0,0,0,0,0,-1,1980,421,0,0
763,603,0,0,0,0,0,0,0,0,0,-1,1987,421,0,0
770,603,0,0,0,0,0,0,0,0,0,-1,1994,421,0,0
777,603,0,0,0,0,0,0,0,0,0,-1,2001,421,0,0
784,603,0,0,0,0,0,0,0,0,0,-1,2008,421,0,0
791,603,0,0,0,0,0,0,0,0,0,-1,2015,421,0,0
798,603,0,0,0,0,0,0,0,0,0,-1,2022,421,0,0
805,603,0,0,0,0,0,0,0,0,0,-1,2029,421,0,0
812,603,0,0,0,0,0,0,0,0,0,-1,2036,421,0,0
-700,596,0,0,0,0,0,0,0,0,0,-1,524,428,0,0
-693,596,0,0,0,0,0,0,0,0,0,-1,531,428,0,0
-686,596,0,0,0,0,0,0,0,0,0,-1,538,428,0,0
-679,596,0,0,0,0,0,0,0,0,0,-1,545,428,0,0
-672,596,0,0,0,0,0,0,0,0,0,-1,552,428,0,0
-665,596,0,0,0,0,0,0,0,0,0,-1,559,428,0,0
-658,596,0,0,0,0,0,0,0,0,0,-1,566,428,0,0
-651,596,0,0,0,0,0,0,0,0,0,-1,573,428,0,0
-644,596,0,0,0,0,0,0,0,0,0,-1,580,428,0,0
-637,596,0,0,0,0,0,0,0,0,0,-1,587,428,0,0
-630,596,0,0,0,0,0,0,0,0,0,-1,594,428,0,0
-623,596,0,0,0,0,0,0,0,0,0,-1,601,428,0,0
-616,596,0,0,0,0,0,0,0,0,0,-1,608,428,0,0
-609,596,0,0,0,0,0,0,0,0,0,-1,615,428,0,0
-602,596,0,0,0,0,0,0,0,0,0,-1,622,428,0,0
-595,596,0,0,0,0,0,0,0,0,0,-1,629,428,0,0
-588,596,0,0,0,0,0,0,0,0,0,-1,636,428,0,0
-581,596,0,0,0,0,0,0,0,0,0,-1,643,428,0,0
-574,596,0,0,0,0,0,0,0,0,0,-1,650,428,0,0
-567,596,0,0,0,0,0,0,0,0,0,-1,657,428,0,0
-560,596,0,0,0,0,0,0,0,0,0,-1,664,428,0,0
-553,596,0,0,0,0,0,0,0,0,0,-1,671,428,0,0
-546,596,0,0,0,0,0,0,0,0,0,-1,678,428,0,0
-539,596,0,0,0,0,0,0,0,0,0,-1,685,428,0,0
-532,596,0,0,0,0,0,0,0,0,0,-1,692,428,0,0
-525,596,0,0,0,0,0,0,0,0,0,-1,699,428,0,0
-518,596,0,0,0,0,0,0,0,0,0,-1,706,428,0,0
-511,596,0,0,0,0,0,0,0,0,0,-1,713,428,0,0
-504,596,0,0,0,0,0,0,0,0,0,-1,720,428,0,0
-497,596,0,0,0,0,0,0,0,0,0,-1,727,428,0,0
-490,596,0,0,0,0,0,0,0,0,0,-1,734,428,0,0
-483,596,0,0,0,0,0,0,0,0,0,-1,741,428,0,0
-476,596,0,0,0,0,0,0,0,0,0,-1,748,428,0,0
-469,596,0,0,0,0,0,0,0,0,0,-1,755,428,0,0
-462,596,0,0,0,0,0,0,0,0,0,-1,762,428,0,0
-455,596,0,0,0,0,0,0,0,0,0,-1,769,428,0,0
-448,596,0,0,0,0,0,0,0,0,0,-1,776,428,0,0
-441,596,0,0,0,0,0,0,0,0,0,-1,783,428,0,0
-434,596,0,0,0,0,0,0,0,0,0,-1,790,428,0,0
-427,596,0,0,0,0,0,0,0,0,0,-1,797,428,0,0
-420,596,0,0,0,0,0,0,0,0,0,-1,804,428,0,0
-413,596,0,0,0,0,0,0,0,0,0,-1,811,428,0,0
-406,596,0,0,0,0,0,0,0,0,0,-1,818,428,0,0
-399,596,0,0,0,0,0,0,0,0,0,-1,825,428,0,0
-392,596,0,0,0,0,0,0,0,0,0,-1,832,428,0,0
-385,596,0,0,0,0,0,0,0,0,0,-1,839,428,0,0
-378,596,0,0,0,0,0,0,0,0,0,-1,846,428,0,0
-371,596,0,0,0,0,0,0,0,0,0,-1,853,428,0,0
-364,596,0,0,0,0,0,0,0,0,0,-1,860,428,0,0
-357,596,0,0,0,0,0,0,0,0,0,-1,867,428,0,0
-350,596,0,0,0,0,0,0,0,0,0,-1,874,428,0,0
-343,596,0,0,0,0,0,0,0,0,0,-1,881,428,0,0
-336,596,4.04956,-1.06116,-0.014151,0.0177494,0.0480759,0.0524519,-0.0488536,0.945571,0.058501,0.0446764,888,428,4.04956,1.06117
-329,596,4.26306,-0.939087,-0.023426,0.00777508,0.0408988,0.0359477,-0.0515986,0.967601,0.0508134,0.0444323,895,428,4.26303,0.939078
-322,596,4.34515,-0.599487,0,0,0,0,0,0,0,-1,902,428,4.34517,0.599499
-315,596,4.62024,-0.907379,0,0,0,0,0,0,0,-1,909,428,4.62021,0.907386
-308,596,3.35974,-0.19754,0,0,0,0,0,0,0,-1,916,428,3.35972,0.197542
-301,596,3.15515,-0.287598,-0.0286181,-0.010185,0.0165916,-0.000421904,-0.0383812,1.03892,0.025448,0.0474297,923,428,3.15514,0.287596
-294,596,2.98029,-0.409698,-0.0293295,-0.0104025,0.0123068,-0.00434136,-0.0353906,1.11316,0.022288,0.0463331,930,428,2.98029,0.409702
-287,596,2.70581,-0.361877,-0.0283952,-0.0109652,0.00866141,-0.00739317,-0.0319672,1.17964,0.0193244,0.0462284,937,428,2.70582,0.361877
-280,596,2.29779,-0.54007,-0.0262032,-0.0114646,0.00529277,-0.00976086,-0.027907,1.25937,0.0163527,0.0471108,944,428,2.29779,0.540065
-273,596,1.74713,-1.34848,0,0,0,0,0,0,0,-1,951,428,1.7471,1.34847
-266,596,1.54254,-0.894958,-0.017163,-0.0116058,0.00125227,-0.0113367,-0.0174322,1.35909,0.010215,0.0370299,958,428,1.54252,0.894946
-259,596,1.55743,-0.855927,-0.0119052,-0.011476,0.000474428,-0.0111699,-0.0122113,0.997787,0.00781687,0.0318609,965,428,1.55741,0.855941
-252,596,1.62097,-0.866577,-0.00789574,-0.0114864,0.000485186,-0.00783134,-0.0115508,0.131972,0.00680826,0.0148962,972,428,1.62096,0.866572
-245,596,1.64923,-0.873932,-0.00502756,-0.0112717,0.000251586,-0.00501744,-0.0112818,0.0402044,0.00652683,0.0110353,979,428,1.6492,0.873936
-238,596,1.63501,-0.896606,-0.00228247,-0.0107787,-0.000131275,-0.00228044,-0.0107807,-0.0154461,0.00656045,0.0107351,986,428,1.63503,0.896606
-231,596,1.62146,-0.927765,-0.000560313,-0.00967302,-0.000382838,-0.000544257,-0.00968907,-0.0419131,0.00628582,0.0129978,993,428,1.62147,0.927753
-224,596,1.62054,-0.953979,0.00281074,-0.00825776,-0.000201454,0.0028144,-0.00826143,-0.0181926,0.00664741,0.0128038,1000,428,1.62052,0.953979
-217,596,1.62799,-0.986206,0.00339707,-0.00732649,0.000132593,0.00339871,-0.00732812,0.0123621,0.00633013,0.0132549,1007,428,1.628,0.986221
-210,596,1.6463,-1.01822,0.00125076,-0.00618041,0.000402159,0.00127246,-0.00620211,0.053908,0.00461771,0.0113178,1014,428,1.6463,1.01822
-203,596,1.62427,-1.03293,-0.000361315,-0.00471417,0.000536323,-0.000296208,-0.00477928,0.120805,0.00309218,0.0130821,1021,428,1.62427,1.03293
-196,596,1.66003,-1.07693,-0.00129071,-0.00319609,0.000229634,-0.00126343,-0.00322338,0.118262,0.00187545,0.0139125,1028,428,1.66001,1.07693
-189,596,1.64978,-1.09531,-0.00110571,-0.00147867,-7.68583e-05,-0.00109049,-0.00149389,-0.195468,0.000892389,0.0113816,1035,428,1.64972,1.0953
-182,596,1.64136,-1.12677,-0.00075019,0.000906481,-0.000429296,0.00101112,-0.000854825,-1.33172,0.00107856,0.010907,1042,428,1.64132,1.12678
-175,596,1.65796,-1.16034,-0.000309933,0.00279767,-0.000823133,0.00300224,-0.000514496,-1.32721,0.0021932,0.0130147,1049,428,1.65794,1.16033
-168,596,1.63586,-1.17117,9.41784e-05,0.00429671,-0.00121775,0.00462407,-0.000233183,-1.30818,0.0031633,0.0163162,1056,428,1.63588,1.17117
-161,596,1.63721,-1.18494,0.000467501,0.00544178,-0.00152834,0.00587384,3.54492e-05,-1.29529,0.00390413,0.0157161,1063,428,1.63726,1.18495
-154,596,1.625,-1.22513,0.000772636,0.00623084,-0.00176505,0.00675188,0.000251597,-1.28375,0.00441978,0.0132275,1070,428,1.625,1.22512
-147,596,1.63501,-1.229,0.00119209,0.00662828,-0.00199014,0.00727897,0.0005414,-1.2548,0.00468263,0.0134034,1077,428,1.635,1.229
-140,596,1.64172,-1.22516,0.00151861,0.0066567,-0.00199229,0.00733869,0.000836622,-1.24099,0.0046388,0.0132933,1084,428,1.64177,1.22515
-133,596,1.62646,-1.24341,0.0015937,0.00611704,-0.00209409,0.00693764,0.000773102,-1.19732,0.00439014,0.0141408,1091,428,1.62646,1.2434
-126,596,1.63391,-1.27451,0.00124963,0.00541909,-0.00243481,0.00653973,0.000128993,-1.13945,0.00431746,0.0108607,1098,428,1.63392,1.2745
-119,596,1.65637,-1.30096,0.000610732,0.00572041,-0.00308958,0.00717465,-0.00084351,-1.13087,0.00508763,0.0137527,1105,428,1.65639,1.30097
-112,596,1.66431,-1.30243,-0.000866449,0.00553529,-0.00386631,0.00735377,-0.00268493,-1.13116,0.00600116,0.0152482,1112,428,1.66429,1.30242
-105,596,1.6615,-1.32159,-0.00265219,0.00531506,-0.00512432,0.00782204,-0.00515917,-1.1158,0.00754709,0.0148452,1119,428,1.66147,1.32158
-98,596,1.6709,-1.32935,-0.0044251,0.0056715,-0.00604687,0.00850038,-0.00725398,-1.13322,0.00910527,0.009673,1126,428,1.67093,1.32935
-91,596,1.68018,-1.34854,-0.00649146,0.00627045,-0.00695317,0.00932682,-0.00954784,-1.15665,0.0108975,0.00943564,1133,428,1.68023,1.34853
-84,596,1.68237,-1.37064,-0.00850077,0.0072905,-0.00756505,0.0103297,-0.01154,-1.18879,0.0126329,0.0140436,1140,428,1.68237,1.37064
-77,596,1.66736,-1.38815,-0.0103053,0.00827397,-0.00800199,0.0112452,-0.0132766,-1.21526,0.0141738,0.0138937,1147,428,1.66735,1.38816
-70,596,1.66895,-1.42575,-0.0108922,0.00914597,-0.00753931,0.0116658,-0.0134119,-1.24825,0.0144903,0.0148701,1154,428,1.66899,1.42576
-63,596,1.61145,-1.46234,-0.0111658,0.00705592,-0.00628064,0.00901096,-0.0131208,-1.26902,0.012851,0.0240389,1161,428,1.61148,1.46234
-56,596,1.29553,-1.55493,-0.0120776,0.00239409,-0.00427845,0.00356435,-0.0132478,-1.3038,0.0102292,0.0298077,1168,428,1.29559,1.55494
-49,596,1.02075,-1.5726,-0.0132395,-0.00475794,-0.00129188,-0.00456553,-0.0134319,-1.42295,0.00788632,0.0385367,1175,428,1.02075,1.57262
-42,596,0.774902,-1.52292,-0.0152941,-0.0129236,0.00257334,-0.0112757,-0.016942,1.00121,0.0099586,0.0435768,1182,428,0.774911,1.52291
-35,596,0.511841,-1.52521,-0.0150219,-0.0208684,0.00622876,-0.0110646,-0.0248258,0.566,0.0143613,0.0429606,1189,428,0.511812,1.52519
-28,596,1.35144,-1.49805,-0.0121251,-0.029627,0.00954243,-0.00792861,-0.0338235,0.41432,0.0204257,0.0459588,1196,428,1.3515,1.49806
-21,596,1.44226,-1.48962,-0.00720656,-0.0369173,0.0109527,-0.00360542,-0.0405184,0.317657,0.0258943,0.0385897,1203,428,1.44225,1.48961
-14,596,1.43774,-1.46005,-0.0019793,-0.0378463,0.00936961,0.000320831,-0.0401464,0.240728,0.0268719,0.043483,1210,428,1.43774,1.46005
-7,596,1.44312,-1.42145,0.00399636,-0.0380452,0.0074877,0.00529012,-0.0393389,0.171096,0.0281555,0.0482739,1217,428,1.44315,1.42145
0,596,1.63989,-1.45285,0.00971253,-0.0321714,0.00320353,0.00995614,-0.032415,0.0758976,0.0255829,0.0485964,1224,428,1.63984,1.45284
7,596,1.62756,-1.4249,0.0147028,-0.0217751,-0.00300376,0.0149485,-0.0220208,-0.0816119,0.0214741,0.0441372,1231,428,1.62755,1.42491
14,596,1.64832,-1.44348,0.0203885,-0.00985504,-0.00967112,0.0232166,-0.0126832,-0.284497,0.021022,0.0428383,1238,428,1.64834,1.44349
21,596,0.246094,-1.28943,0,0,0,0,0,0,0,-1,1245,428,0.246138,1.28944
28,596,1.66675,-1.50241,0.0317134,0.0196285,-0.0251671,0.0515533,-0.00021142,-0.667582,0.0344395,0.0395179,1252,428,1.66678,1.50241
35,596,1.9187,-1.4769,0.0349634,0.033112,-0.0315165,0.0655678,0.00250762,-0.770716,0.0429004,0.0409032,1259,428,1.91874,1.4769
42,596,2.06567,-1.65448,0.0381777,0.0457518,-0.0368436,0.0790025,0.00492705,-0.836612,0.0511052,0.0437124,1266,428,2.06573,1.65449
49,596,2.07251,-1.66635,0.040961,0.0564625,-0.0409758,0.0904142,0.00700935,-0.878871,0.0580808,0.0411754,1273,428,2.07246,1.66636
56,596,1.82214,-1.56668,0.0423027,0.0632198,-0.0428402,0.0968596,0.00866292,-0.905121,0.0618878,0.0393144,1280,428,1.82219,1.56667
63,596,1.56848,-1.53418,0.0444925,0.0660029,-0.0443511,0.100884,0.00961117,-0.904353,0.0642923,0.0443811,1287,428,1.56851,1.53419
70,596,-0.551758,-0.997925,0,0,0,0,0,0,0,-1,1294,428,-0.551805,0.997919
77,596,1.49683,-1.64807,0,0,0,0,0,0,0,-1,1301,428,1.49682,1.64806
84,596,1.48059,-1.65756,0.036183,0.0457238,-0.0339728,0.0752595,0.00664732,-0.855151,0.0481106,0.0432275,1308,428,1.48053,1.65755
91,596,1.71814,-1.49045,0.0339006,0.031724,-0.0275391,0.0603729,0.00525176,-0.76565,0.0386172,0.0431967,1315,428,1.71815,1.49046
98,596,1.75317,-1.35757,0,0,0,0,0,0,0,-1,1322,428,1.75319,1.35758
105,596,1.39087,-1.2066,0.0301137,0.00711196,-0.0187218,0.040585,-0.00335935,-0.509963,0.0282431,0.0460289,1329,428,1.39083,1.20662
112,596,1.54333,-1.14114,0.0283291,-0.00403159,-0.015483,0.0345435,-0.010246,-0.381689,0.0270979,0.0397949,1336,428,1.54334,1.14115
119,596,1.93933,-1.47684,0.0248442,-0.011917,-0.0128084,0.0288668,-0.0159396,-0.304301,0.0262254,0.046321,1343,428,1.93939,1.47684
126,596,1.81567,-1.55804,0.0208146,-0.0187079,-0.0103122,0.0233434,-0.0212367,-0.240484,0.0257479,0.046667,1350,428,1.81569,1.55803
133,596,1.7345,-1.75195,0.0173664,-0.024142,-0.00864758,0.0190959,-0.0258715,-0.197395,0.02606,0.0446587,1357,428,1.73455,1.75197
140,596,1.87146,-1.46698,0.0155261,-0.0266738,-0.00889021,0.0173225,-0.0284702,-0.199382,0.0266983,0.0405476,1364,428,1.87143,1.46699
147,596,1.76538,-1.39182,0.0125447,-0.0282208,-0.00959427,0.0146898,-0.030366,-0.219969,0.0265326,0.0359445,1371,428,1.76534,1.39182
154,596,1.77832,-1.3725,0.00792305,-0.0288546,-0.0102849,0.0106038,-0.0315353,-0.254979,0.0253098,0.042829,1378,428,1.77833,1.37249
161,596,1.83838,-1.48526,0.00385639,-0.0280272,-0.0109016,0.00722742,-0.0313982,-0.299898,0.0237113,0.0473806,1385,428,1.83833,1.48525
168,596,1.91113,-1.49158,-0.00107921,-0.0278248,-0.00981514,0.0021362,-0.0310402,-0.316579,0.021441,0.0410792,1392,428,1.91113,1.49159
175,596,2.07556,-1.49945,-0.00575656,-0.0246697,-0.0100689,-0.00139978,-0.0290265,-0.408373,0.0189017,0.030394,1399,428,2.07555,1.49945
182,596,2.20422,-1.48798,-0.00913584,-0.0212761,-0.00995073,-0.00354992,-0.026862,-0.511521,0.0168498,0.0311484,1406,428,2.20418,1.48796
189,596,2.10876,-1.45667,-0.0120034,-0.0169588,-0.00992968,-0.00424694,-0.0247152,-0.663132,0.0152595,0.028249,1413,428,2.10878,1.45665
196,596,1.93274,-1.39325,-0.0143479,-0.0148468,-0.00876801,-0.00582578,-0.0233689,-0.771177,0.014046,0.022148,1420,428,1.93279,1.39324
203,596,1.83801,-1.39249,-0.0166118,-0.0106329,-0.00685528,-0.00614358,-0.0211011,-0.991008,0.012532,0.0133061,1427,428,1.83796,1.39248
210,596,1.80359,-1.38834,-0.0169396,-0.00716768,-0.00440874,-0.00547264,-0.0186347,-1.20375,0.0110598,0.0108059,1434,428,1.80358,1.38834
217,596,1.80945,-1.37119,-0.014261,-0.00561808,-0.00253702,-0.00492841,-0.0149506,-1.30536,0.00879717,0.0101852,1441,428,1.80947,1.37119
224,596,1.81421,-1.36487,-0.0112731,-0.00427726,-0.00131577,-0.00403798,-0.0115124,-1.3909,0.00674466,0.0104976,1448,428,1.81423,1.36486
231,596,1.81531,-1.34314,-0.00812934,-0.00308444,-0.00017784,-0.00307817,-0.0081356,-1.5356,0.0047432,0.0106988,1455,428,1.81533,1.34313
238,596,1.80334,-1.3215,-0.00504484,-0.00194349,0.000336286,-0.00190745,-0.00508088,1.46402,0.00296365,0.0140543,1462,428,1.80338,1.32149
245,596,1.81409,-1.32166,-0.00234149,-0.000804079,0.000494887,-0.000658552,-0.00248702,1.2848,0.00148789,0.0134521,1469,428,1.81404,1.32165
252,596,1.82581,-1.30438,-3.42218e-05,4.11502e-05,0.000641109,0.00064568,-0.000638752,0.814756,0.00074157,0.00977816,1476,428,1.82582,1.30439
259,596,1.82532,-1.29309,0.00200553,0.000790218,0.000493616,0.00218075,0.000614993,0.341107,0.00129833,0.00837558,1483,428,1.82537,1.2931
266,596,1.82434,-1.28308,0.00291414,0.00117302,4.09849e-05,0.00291511,0.00117206,0.023522,0.00169376,0.00965836,1490,428,1.8244,1.28309
273,596,1.84839,-1.25327,0.00271388,0.00114195,-0.000342796,0.00278539,0.00107045,-0.205637,0.00162243,0.0117231,1497,428,1.84833,1.25328
280,596,1.83875,-1.21222,0.00267799,0.000903128,-0.000632681,0.00288043,0.000700688,-0.309677,0.00173456,0.012589,1504,428,1.83878,1.21223
287,596,1.82825,-1.20111,0.00240124,0.000701235,-0.000948819,0.00282512,0.000277361,-0.420138,0.0017981,0.0116208,1511,428,1.82822,1.20113
294,596,1.82471,-1.20709,0.00167618,0.000419033,-0.00120185,0.00240391,-0.000308696,-0.544458,0.00171479,0.00885715,1518,428,1.82469,1.20708
301,596,1.81702,-1.1698,0.000826083,0.000286643,-0.00134204,0.00192524,-0.000812516,-0.686231,0.00162358,0.0095925,1525,428,1.81701,1.16981
308,596,1.8385,-1.14618,0.000584377,0.000347182,-0.00163286,0.00210294,-0.00117138,-0.749146,0.00191576,0.0155692,1532,428,1.83853,1.14617
315,596,1.82275,-1.14041,0.0004847,0.000597511,-0.002091,0.00263286,-0.00155065,-0.798883,0.00244214,0.0154192,1539,428,1.82275,1.14041
322,596,1.84253,-1.10678,0.000819106,0.000560181,-0.00243835,0.00313143,-0.00175214,-0.758876,0.00285677,0.0122998,1546,428,1.84253,1.10678
329,596,1.83081,-1.07089,0.00160755,0.000869752,-0.00242881,0.00369532,-0.00121801,-0.710031,0.00295446,0.00987136,1553,428,1.83075,1.0709
336,596,1.83228,-1.05472,0.00253634,0.00147449,-0.00173563,0.00382043,0.000190403,-0.636969,0.00248592,0.00948933,1560,428,1.83222,1.05471
343,596,1.85242,-1.04315,0.00350455,0.00266576,-0.00124111,0.00439521,0.0017751,-0.622462,0.00255316,0.0117382,1567,428,1.85243,1.04314
350,596,1.85461,-1.01544,0.00455832,0.00468921,-0.000605911,0.0052332,0.00401433,-0.839197,0.00316182,0.0115882,1574,428,1.85463,1.01544
357,596,1.8512,-0.978912,0.00550483,0.00832656,0.00027709,0.00835351,0.00547788,1.47383,0.00490029,0.00904464,1581,428,1.85117,0.978924
364,596,1.84473,-0.958923,0.00642116,0.0106045,0.00116868,0.0109088,0.00611681,1.31603,0.00631366,0.00831418,1588,428,1.84475,0.958933
371,596,1.8313,-0.923737,0.00715641,0.0124556,0.00229955,0.0133143,0.0062977,1.2134,0.00769077,0.00903007,1595,428,1.83124,0.92374
378,596,1.84827,-0.886597,0.00740695,0.0153619,0.00402679,0.0170444,0.00572445,1.17502,0.0100158,0.0132886,1602,428,1.84823,0.886592
385,596,1.81616,-0.834564,0.00727178,0.0183652,0.00567476,0.0207538,0.0048832,1.17239,0.0125295,0.0214896,1609,428,1.81614,0.834573
392,596,1.65125,-0.604279,0.00894054,0.0209463,0.0066564,0.0239068,0.00598004,1.15231,0.0143656,0.0317316,1616,428,1.6512,0.604273
399,596,1.54041,-0.200317,0.0120635,0.0226161,0.00768692,0.0266633,0.00801629,1.08617,0.0157967,0.0380085,1623,428,1.54038,0.200332
406,596,1.55725,0.00784302,0.014956,0.0233367,0.00785032,0.028045,0.0102477,1.03055,0.0163862,0.0440534,1630,428,1.5572,-0.0078282
413,596,1.625,0.306274,0,0,0,0,0,0,0,-1,1637,428,1.625,-0.30628
420,596,2.15063,3.6312,0,0,0,0,0,0,0,-1,1644,428,2.15059,-3.63121
427,596,2.47839,4.2236,0,0,0,0,0,0,0,-1,1651,428,2.4784,-4.2236
434,596,0.99939,-0.0349731,0,0,0,0,0,0,0,-1,1658,428,0.999421,0.0349794
441,596,2.04041,-0.10907,0.0511907,0.0194297,0.00637455,0.0524223,0.018198,0.19086,0.0307339,0.0458528,1665,428,2.04035,0.109077
448,596,3.17786,-0.40097,0.0616558,0.0217476,0.00822697,0.0632853,0.0201181,0.19553,0.0373368,0.0488211,1672,428,3.17782,0.400965
455,596,4.41284,-0.766785,0,0,0,0,0,0,0,-1,1679,428,4.41283,0.766773
462,596,0,0,0,0,0,0,0,0,0,-1,1686,428,0,0
469,596,0,0,0,0,0,0,0,0,0,-1,1693,428,0,0
476,596,0,0,0,0,0,0,0,0,0,-1,1700,428,0,0
483,596,0,0,0,0,0,0,0,0,0,-1,1707,428,0,0
490,596,0,0,0,0,0,0,0,0,0,-1,1714,428,0,0
497,596,0,0,0,0,0,0,0,0,0,-1,1721,428,0,0
504,596,0,0,0,0,0,0,0,0,0,-1,1728,428,0,0
511,596,0,0,0,0,0,0,0,0,0,-1,1735,428,0,0
518,596,0,0,0,0,0,0,0,0,0,-1,1742,428,0,0
525,596,0,0,0,0,0,0,0,0,0,-1,1749,428,0,0
532,596,0,0,0,0,0,0,0,0,0,-1,1756,428,0,0
539,596,0,0,0,0,0,0,0,0,0,-1,1763,428,0,0
546,596,0,0,0,0,0,0,0,0,0,-1,1770,428,0,0
553,596,0,0,0,0,0,0,0,0,0,-1,1777,428,0,0
560,596,0,0,0,0,0,0,0,0,0,-1,1784,428,0,0
567,596,0,0,0,0,0,0,0,0,0,-1,1791,428,0,0
574,596,0,0,0,0,0,0,0,0,0,-1,1798,428,0,0
581,596,0,0,0,0,0,0,0,0,0,-1,1805,428,0,0
588,596,0,0,0,0,0,0,0,0,0,-1,1812,428,0,0
595,596,0,0,0,0,0,0,0,0,0,-1,1819,428,0,0
602,596,0,0,0,0,0,0,0,0,0,-1,1826,428,0,0
609,596,0,0,0,0,0,0,0,0,0,-1,1833,428,0,0
616,596,0,0,0,0,0,0,0,0,0,-1,1840,428,0,0
623,596,0,0,0,0,0,0,0,0,0,-1,1847,428,0,0
630,596,0,0,0,0,0,0,0,0,0,-1,1854,428,0,0
637,596,0,0,0,0,0,0,0,0,0,-1,1861,428,0,0
644,596,0,0,0,0,0,0,0,0,0,-1,1868,428,0,0
651,596,0,0,0,0,0,0,0,0,0,-1,1875,428,0,0
658,596,0,0,0,0,0,0,0,0,0,-1,1882,428,0,0
665,596,0,0,0,0,0,0,0,0,0,-1,1889,428,0,0
672,596,0,0,0,0,0,0,0,0,0,-1,1896,428,0,0
679,596,0,0,0,0,0,0,0,0,0,-1,1903,428,0,0
686,596,0,0,0,0,0,0,0,0,0,-1,1910,428,0,0
693,596,0,0,0,0,0,0,0,0,0,-1,1917,428,0,0
700,596,0,0,0,0,0,0,0,0,0,-1,1924,428,0,0
707,596,0,0,0,0,0,0,0,0,0,-1,1931,428,0,0
714,596,0,0,0,0,0,0,0,0,0,-1,1938,428,0,0
721,596,0,0,0,0,0,0,0,0,0,-1,1945,428,0,0
728,596,0,0,0,0,0,0,0,0,0,-1,1952,428,0,0
735,596,0,0,0,0,0,0,0,0,0,-1,1959,428,0,0
742,596,0,0,0,0,0,0,0,0,0,-1,1966,428,0,0
749,596,0,0,0,0,0,0,0,0,0,-1,1973,428,0,0
756,596,0,0,0,0,0,0,0,0,0,-1,1980,428,0,0
763,596,0,0,0,0,0,0,0,0,0,-1,1987,428,0,0
770,596,0,0,0,0,0,0,0,0,0,-1,1994,428,0,0
777,596,0,0,0,0,0,0,0,0,0,-1,2001,428,0,0
784,596,0,0,0,0,0,0,0,0,0,-1,2008,428,0,0
791,596,0,0,0,0,0,0,0,0,0,-1,2015,428,0,0
798,596,0,0,0,0,0,0,0,0,0,-1,2022,428,0,0
805,596,0,0,0,0,0,0,0,0,0,-1,2029,428,0,0
812,596,0,0,0,0,0,0,0,0,0,-1,2036,428,0,0
-700,589,0,0,0,0,0,0,0,0,0,-1,524,435,0,0
-693,589,0,0,0,0,0,0,0,0,0,-1,531,435,0,0
-686,589,0,0,0,0,0,0,0,0,0,-1,538,435,0,0
-679,589,0,0,0,0,0,0,0,0,0,-1,545,435,0,0
-672,589,0,0,0,0,0,0,0,0,0,-1,552,435,0,0
-665,589,0,0,0,0,0,0,0,0,0,-1,559,435,0,0
-658,589,0,0,0,0,0,0,0,0,0,-1,566,435,0,0
-651,589,0,0,0,0,0,0,0,0,0,-1,573,435,0,0
-644,589,0,0,0,0,0,0,0,0,0,-1,580,435,0,0
-637,589,0,0,0,0,0,0,0,0,0,-1,587,435,0,0
-630,589,0,0,0,0,0,0,0,0,0,-1,594,435,0,0
-623,589,0,0,0,0,0,0,0,0,0,-1,601,435,0,0
-616,589,0,0,0,0,0,0,0,0,0,-1,608,435,0,0
-609,589,0,0,0,0,0,0,0,0,0,-1,615,435,0,0
-602,589,0,0,0,0,0,0,0,0,0,-1,622,435,0,0
-595,589,0,0,0,0,0,0,0,0,0,-1,629,435,0,0
-588,589,0,0,0,0,0,0,0,0,0,-1,636,435,0,0
-581,589,0,0,0,0,0,0,0,0,0,-1,643,435,0,0
-574,589,0,0,0,0,0,0,0,0,0,-1,650,435,0,0
-567,589,0,0,0,0,0,0,0,0,0,-1,657,435,0,0
-560,589,0,0,0,0,0,0,0,0,0,-1,664,435,0,0
-553,589,0,0,0,0,0,0,0,0,0,-1,671,435,0,0
-546,589,0,0,0,0,0,0,0,0,0,-1,678,435,0,0
-539,589,0,0,0,0,0,0,0,0,0,-1,685,435,0,0
-532,589,0,0,0,0,0,0,0,0,0,-1,692,435,0,0
-525,589,0,0,0,0,0,0,0,0,0,-1,699,435,0,0
-518,589,0,0,0,0,0,0,0,0,0,-1,706,435,0,0
-511,589,0,0,0,0,0,0,0,0,0,-1,713,435,0,0
-504,589,0,0,0,0,0,0,0,0,0,-1,720,435,0,0
-497,589,0,0,0,0,0,0,0,0,0,-1,727,435,0,0
-490,589,0,0,0,0,0,0,0,0,0,-1,734,435,0,0
-483,589,0,0,0,0,0,0,0,0,0,-1,741,435,0,0
-476,589,0,0,0,0,0,0,0,0,0,-1,748,435,0,0
-469,589,0,0,0,0,0,0,0,0,0,-1,755,435,0,0
-462,589,0,0,0,0,0,0,0,0,0,-1,762,435,0,0
-455,589,0,0,0,0,0,0,0,0,0,-1,769,435,0,0
-448,589,0,0,0,0,0,0,0,0,0,-1,776,435,0,0
-441,589,0,0,0,0,0,0,0,0,0,-1,783,435,0,0
-434,589,0,0,0,0,0,0,0,0,0,-1,790,435,0,0
-427,589,0,0,0,0,0,0,0,0,0,-1,797,435,0,0
-420,589,0,0,0,0,0,0,0,0,0,-1,804,435,0,0
-413,589,0,0,0,0,0,0,0,0,0,-1,811,435,0,0
-406,589,0,0,0,0,0,0,0,0,0,-1,818,435,0,0
-399,589,0,0,0,0,0,0,0,0,0,-1,825,435,0,0
-392,589,0,0,0,0,0,0,0,0,0,-1,832,435,0,0
-385,589,0,0,0,0,0,0,0,0,0,-1,839,435,0,0
-378,589,0,0,0,0,0,0,0,0,0,-1,846,435,0,0
-371,589,0,0,0,0,0,0,0,0,0,-1,853,435,0,0
-364,589,0,0,0,0,0,0,0,0,0,-1,860,435,0,0
-357,589,0,0,0,0,0,0,0,0,0,-1,867,435,0,0
-350,589,2.97229,-1.40656,0,0,0,0,0,0,0,-1,874,435,2.97226,1.40654
-343,589,3.1756,-1.28494,-0.0242491,0.0254544,0.050611,0.056986,-0.0557806,1.01362,0.0651071,0.0442404,881,435,3.17562,1.28493
-336,589,3.44037,-1.16257,-0.0152413,0.0168213,0.0446731,0.0482525,-0.0466724,0.95767,0.0548075,0.0430626,888,435,3.44039,1.16256
-329,589,3.63232,-0.967743,-0.0185937,0.00870585,0.0382934,0.0357095,-0.0455974,0.956604,0.0470582,0.0436117,895,435,3.63235,0.967738
-322,589,3.59302,-0.830902,-0.0217201,0.00203542,0.0320999,0.0243846,-0.0440693,0.962599,0.0400629,0.042434,902,435,3.593,0.830888
-315,589,3.24323,-0.659027,0,0,0,0,0,0,0,-1,909,435,3.24323,0.659016
-308,589,2.43433,0.0332031,0,0,0,0,0,0,0,-1,916,435,2.4343,-0.0332172
-301,589,2.69946,-0.0686646,-0.0183867,-0.00614113,0.015863,0.00473976,-0.0292675,0.969578,0.0212684,0.0457281,923,435,2.69945,0.068661
-294,589,2.6264,-0.319733,-0.0188295,-0.00621669,0.0118801,0.000927056,-0.0259732,1.0294,0.0176326,0.0457745,930,435,2.62643,0.319723
-287,589,2.17969,-0.499573,-0.018211,-0.0066017,0.00843513,-0.00216695,-0.0226458,1.08676,0.0144292,0.0418312,937,435,2.17968,0.499568
-280,589,1.73169,-0.674286,-0.0167307,-0.00698829,0.00528792,-0.00466987,-0.0190491,1.1576,0.0114643,0.0319278,944,435,1.73171,0.674293
-273,589,1.6438,-0.75531,-0.0140873,-0.00719912,0.00288902,-0.00614786,-0.0151385,1.22181,0.00879145,0.0184861,951,435,1.64377,0.755299
-266,589,1.61987,-0.786346,-0.0105466,-0.00725717,0.00148082,-0.00668876,-0.011115,1.20429,0.00646141,0.0159607,958,435,1.61988,0.786347
-259,589,1.59814,-0.817871,-0.00706693,-0.00726027,0.000759895,-0.00639758,-0.00792962,0.72213,0.00485696,0.0143796,965,435,1.59815,0.817876
-252,589,1.61475,-0.843048,-0.004413,-0.00736457,0.000603377,-0.00429442,-0.00748316,0.194057,0.00433609,0.00970838,972,435,1.61477,0.843036
-245,589,1.63049,-0.870148,-0.00250304,-0.00736531,0.000218013,-0.00249328,-0.00737507,0.0447181,0.00433179,0.0102172,979,435,1.63051,0.87015
-238,589,1.62115,-0.896088,-0.000700923,-0.00704216,-0.000252239,-0.000690905,-0.00705217,-0.0396939,0.00448891,0.0142546,986,435,1.62113,0.896075
-231,589,1.61035,-0.916138,0.000396135,-0.00611367,-0.000556913,0.000443436,-0.00616098,-0.0847294,0.00426282,0.0145228,993,435,1.61035,0.916148
-224,589,1.60486,-0.945374,0.00242169,-0.0047929,-0.000465249,0.00245157,-0.00482278,-0.0641331,0.00427358,0.013164,1000,435,1.60484,0.94536
-217,589,1.60437,-0.997131,0.00267033,-0.00373106,-0.000294193,0.00268382,-0.00374455,-0.0458289,0.00372823,0.014398,1007,435,1.60439,0.997124
-210,589,1.61072,-1.0368,0.00128384,-0.00236771,-0.000183691,0.00129305,-0.00237693,-0.0501364,0.00214945,0.0137564,1014,435,1.61072,1.0368
-203,589,1.6012,-1.04825,0.000206749,-0.000647667,-0.000177405,0.00024212,-0.000683038,-0.196798,0.000553992,0.00951212,1021,435,1.60119,1.04824
-196,589,1.60461,-1.06595,-0.000428085,0.00114611,-0.000462539,0.00127195,-0.000553931,-1.30515,0.001081,0.0117639,1028,435,1.60459,1.06593
-189,589,1.58325,-1.10397,-0.000287083,0.00308879,-0.000707871,0.00323121,-0.000429504,-1.37225,0.00231066,0.0151985,1035,435,1.58325,1.10396
-182,589,1.60437,-1.11429,1.95434e-05,0.00566375,-0.00105793,0.00585553,-0.000172236,-1.39147,0.00396234,0.0122145,1042,435,1.60437,1.11428
-175,589,1.62268,-1.12653,0.000359429,0.00761809,-0.00135523,0.00786286,0.000114654,-1.39211,0.00520411,0.0161843,1049,435,1.62265,1.12653
-168,589,1.60596,-1.15048,0.000634228,0.00913113,-0.00164058,0.00943689,0.000328468,-1.38654,0.00618468,0.0140055,1056,435,1.60596,1.15049
-161,589,1.61267,-1.17474,0.000890433,0.0102254,-0.00184863,0.0105782,0.000537674,-1.38224,0.0068799,0.0126349,1063,435,1.61269,1.17476
-154,589,1.61255,-1.20444,0.00110123,0.0108949,-0.00200432,0.0112892,0.000706909,-1.37654,0.00730192,0.0129191,1070,435,1.6126,1.20443
-147,589,1.62427,-1.23273,0.00137751,0.0110348,-0.00210943,0.0114754,0.000936856,-1.36486,0.00735791,0.0130656,1077,435,1.62422,1.23271
-140,589,1.6283,-1.24362,0.00159606,0.0107958,-0.0020955,0.0112507,0.00114124,-1.35707,0.00715045,0.0136341,1084,435,1.62829,1.24362
-133,589,1.61731,-1.25122,0.00164412,0.00968035,-0.00229334,0.0102888,0.00103572,-1.31148,0.00654132,0.0133412,1091,435,1.61731,1.25123
-126,589,1.62646,-1.28085,0.00122068,0.00845674,-0.00291817,0.00948692,0.000190498,-1.23143,0.00626208,0.0101502,1098,435,1.62644,1.28086
-119,589,1.64514,-1.3009,0.00036561,0.00841344,-0.00396627,0.0100396,-0.00126053,-1.1817,0.00715037,0.0162428,1105,435,1.64509,1.3009
-112,589,1.6554,-1.31055,-0.00150891,0.00801652,-0.00527487,0.0103607,-0.00385307,-1.15261,0.00848817,0.0171257,1112,435,1.65544,1.31056
-105,589,1.64917,-1.32031,-0.00373953,0.00755529,-0.00723343,0.0110848,-0.00726903,-1.11684,0.0106726,0.0161335,1119,435,1.64917,1.32032
-98,589,1.69214,-1.32941,-0.00588443,0.00770507,-0.00879477,0.0120241,-0.0102035,-1.1143,0.0128475,0.0167603,1126,435,1.69208,1.3294
-91,589,1.74414,-1.3103,-0.00831798,0.00822025,-0.0104609,0.0132856,-0.0133834,-1.11985,0.0153974,0.0212059,1133,435,1.7441,1.3103
-84,589,1.74194,-1.29996,-0.0107894,0.00926911,-0.0118728,0.0147817,-0.016302,-1.13611,0.0179533,0.0285259,1140,435,1.74197,1.29994
-77,589,1.65051,-1.35764,-0.0131574,0.0102737,-0.0128716,0.0159631,-0.0188468,-1.15461,0.0201205,0.0318768,1147,435,1.65053,1.35764
-70,589,1.62659,-1.39969,-0.0139104,0.0112825,-0.0127032,0.0165758,-0.0192037,-1.17599,0.0206758,0.0392879,1154,435,1.62658,1.3997
-63,589,0.91272,-1.62622,-0.0142979,0.00799286,-0.011377,0.0127741,-0.0190791,-1.17296,0.0185101,0.0445369,1161,435,0.91268,1.62623
-56,589,0.830444,-2.19623,0,0,0,0,0,0,0,-1,1168,435,0.830489,2.19622
-49,589,0.285767,-2.49005,0,0,0,0,0,0,0,-1,1175,435,0.285781,2.49004
-42,589,-0.258911,-2.78384,0,0,0,0,0,0,0,-1,1182,435,-0.258927,2.78386
-35,589,-0.852051,-1.66016,0,0,0,0,0,0,0,-1,1189,435,-0.852099,1.66015
-28,589,1.07068,-1.51172,0,0,0,0,0,0,0,-1,1196,435,1.07063,1.51172
-21,589,1.22534,-1.59488,-0.0117509,-0.0520839,0.0111748,-0.00886173,-0.054973,0.253003,0.034081,0.0418165,1203,435,1.2254,1.59487
-14,589,1.24976,-1.52829,-0.00516877,-0.0538173,0.00981734,-0.00326233,-0.0557237,0.191804,0.0361109,0.0427071,1210,435,1.24971,1.52829
-7,589,1.2738,-1.37784,0.0025368,-0.053677,0.00807596,0.00367403,-0.0548143,0.139896,0.037827,0.0488384,1217,435,1.27378,1.37784
0,589,1.64026,-1.41125,0,0,0,0,0,0,0,-1,1224,435,1.64022,1.41124
7,589,1.87976,-1.51849,0.0176634,-0.0309869,-0.00527113,0.018228,-0.0315515,-0.106698,0.0290813,0.0496208,1231,435,1.87979,1.51851
14,589,-0.898926,-0.877777,0.0257813,-0.0139195,-0.0143058,0.0303992,-0.0185373,-0.312236,0.0285288,0.0450531,1238,435,-0.898963,0.877787
21,589,0.103394,-0.831848,0.0341729,0.00576198,-0.0245009,0.0482886,-0.00835375,-0.522684,0.0353079,0.0434211,1245,435,0.103349,0.83186
28,589,1.23962,-1.11868,0.0416912,0.0265491,-0.0347876,0.0697221,-0.00148178,-0.67825,0.0469831,0.0453314,1252,435,1.23961,1.11867
35,589,1.9353,-1.59735,0.0463134,0.0447739,-0.0432358,0.0887863,0.00230096,-0.776497,0.058439,0.045973,1259,435,1.93524,1.59734
42,589,2.3092,-1.95078,0,0,0,0,0,0,0,-1,1266,435,2.3092,1.95078
49,589,-0.783325,-2.24442,0.0553569,0.0759026,-0.055925,0.12249,0.00876908,-0.87623,0.0788999,0.0462988,1273,435,-0.783385,2.2444
56,589,-0.236938,-1.98553,0.0578199,0.0851157,-0.0587577,0.13179,0.0111459,-0.899512,0.0843902,0.0440696,1280,435,-0.236971,1.98552
63,589,0.490967,-1.95764,0.0611913,0.0889628,-0.0610788,0.137714,0.0124397,-0.897169,0.0879568,0.0430627,1287,435,0.490946,1.95764
70,589,1.06055,-1.81833,0.0609234,0.0852565,-0.0593965,0.13372,0.0124602,-0.886419,0.085297,0.0441908,1294,435,1.06049,1.81834
77,589,1.5896,-1.71786,0.0559502,0.0761694,-0.0546174,0.121605,0.0105147,-0.876912,0.0778023,0.0419526,1301,435,1.58957,1.71788
84,589,1.98364,-1.86227,0.0501523,0.062055,-0.0472782,0.103755,0.00845234,-0.848008,0.0665317,0.0398752,1308,435,1.98361,1.86227
91,589,1.80188,-1.58087,0.0470914,0.0431189,-0.0385968,0.083753,0.0064572,-0.75969,0.0538123,0.0425899,1315,435,1.80186,1.58087
98,589,1.25732,-1.13611,0.0440728,0.0280466,-0.0325784,0.0696091,0.00251034,-0.66481,0.0455923,0.0464739,1322,435,1.25738,1.13612
105,589,1.07593,-1.00595,0.0415003,0.0110269,-0.0267536,0.0570518,-0.00452455,-0.526545,0.0396289,0.0477507,1329,435,1.07592,1.00594
112,589,1.07739,-0.889435,0.0386479,-0.00371955,-0.0222316,0.0481724,-0.013244,-0.404764,0.0373213,0.041536,1336,435,1.0774,0.889448
119,589,1.98999,-1.42126,0,0,0,0,0,0,0,-1,1343,435,1.98994,1.42126
126,589,1.56775,-1.59778,0.0274467,-0.0237958,-0.0146986,0.0313635,-0.0277126,-0.260424,0.0341293,0.0453694,1350,435,1.5678,1.59777
133,589,1.60876,-2.21426,0.0225457,-0.031414,-0.0122826,0.0252099,-0.0340783,-0.213606,0.0343575,0.0460702,1357,435,1.60874,2.21425
140,589,1.4176,-2.5376,0.0199122,-0.0352273,-0.0124185,0.02258,-0.0378951,-0.211609,0.0352866,0.0447667,1364,435,1.41765,2.53761
147,589,1.29333,-2.77603,0,0,0,0,0,0,0,-1,1371,435,1.29336,2.77604
154,589,2.35864,-0.470093,0,0,0,0,0,0,0,-1,1378,435,2.3587,0.470107
161,589,1.87476,-1.49127,0,0,0,0,0,0,0,-1,1385,435,1.87478,1.49126
168,589,2.06055,-1.47723,0,0,0,0,0,0,0,-1,1392,435,2.06057,1.47724
175,589,2.82593,-1.70071,-0.00671922,-0.03331,-0.0138126,-0.000842862,-0.0391863,-0.402238,0.0258478,0.0433014,1399,435,2.8259,1.7007
182,589,2.73584,-1.55157,-0.0103516,-0.0282751,-0.0142777,-0.00245615,-0.0361705,-0.505139,0.0233381,0.0450199,1406,435,2.73584,1.55158
189,589,2.5957,-1.41492,0,0,0,0,0,0,0,-1,1413,435,2.59568,1.41491
196,589,2.67786,-1.25443,-0.0166078,-0.0177842,-0.0140401,-0.0031436,-0.0312484,-0.764463,0.0198675,0.0383248,1420,435,2.67784,1.25441
203,589,1.88013,-1.42007,-0.0200736,-0.0112515,-0.0119423,-0.00293159,-0.0283934,-0.962308,0.0180314,0.0341741,1427,435,1.88013,1.42006
210,589,1.74829,-1.37408,-0.0210431,-0.00613,-0.00888015,-0.00199099,-0.0251821,-1.13464,0.0161654,0.0237409,1434,435,1.74827,1.37408
217,589,1.79187,-1.37323,-0.0172868,-0.00390069,-0.00603602,-0.00158094,-0.0196065,-1.20388,0.0125772,0.0191213,1441,435,1.79191,1.37324
224,589,1.80078,-1.38168,-0.013094,-0.00239421,-0.00396423,-0.00108554,-0.0144027,-1.25194,0.00926118,0.0167019,1448,435,1.80079,1.38167
231,589,1.81189,-1.37531,-0.00894155,-0.00112431,-0.00212271,-0.000585098,-0.00948077,-1.32204,0.00613479,0.014405,1455,435,1.81193,1.3753
238,589,1.81421,-1.33722,-0.0049482,-5.48458e-05,-0.0011162,0.00018774,-0.00519079,-1.35679,0.00352477,0.0159231,1462,435,1.81417,1.33722
245,589,1.82874,-1.30826,-0.0014918,0.000983824,-0.000583575,0.00111449,-0.00162247,-1.35052,0.00158923,0.0174252,1469,435,1.82877,1.30825
252,589,1.84961,-1.30396,0.0013795,0.00175265,-0.000132168,0.00179472,0.00133743,-1.26263,0.00107691,0.0123821,1476,435,1.84959,1.30397
259,589,1.85059,-1.30057,0.00376409,0.00239456,-0.000217145,0.00379769,0.00236096,-0.15354,0.00221414,0.00866259,1483,435,1.85059,1.30056
266,589,1.85657,-1.26654,0.00479636,0.00252258,-0.000748903,0.00502086,0.00229809,-0.291244,0.00290225,0.00920349,1490,435,1.85655,1.26654
273,589,1.87366,-1.25681,0.00457259,0.00195345,-0.00123625,0.00506393,0.00146211,-0.378302,0.0030094,0.0112525,1497,435,1.87366,1.2568
280,589,1.85864,-1.23679,0.00444037,0.00133526,-0.00166807,0.00516661,0.000609024,-0.410626,0.00326041,0.0120658,1504,435,1.85861,1.23679
287,589,1.84912,-1.22571,0.00405435,0.000798897,-0.00217912,0.00514656,-0.000293309,-0.46462,0.00353287,0.0108783,1511,435,1.84911,1.22571
294,589,1.84534,-1.21402,0.003124,0.000207377,-0.00249924,0.00455928,-0.0012279,-0.521298,0.00352093,0.00971847,1518,435,1.84538,1.21402
301,589,1.84607,-1.17432,0.00203234,-0.000249943,-0.00276113,0.00387884,-0.00209645,-0.589444,0.00350062,0.0100583,1525,435,1.84611,1.17431
308,589,1.85107,-1.14413,0.00149891,-0.000448468,-0.00295183,0.00363349,-0.00258305,-0.626087,0.00360616,0.0097874,1532,435,1.85102,1.14415
315,589,1.8656,-1.12637,0.000995764,-0.000419122,-0.00320506,0.00357052,-0.00299388,-0.676776,0.00379483,0.0102625,1539,435,1.86561,1.12636
322,589,1.87476,-1.09763,0.000964443,-0.000773261,-0.00332112,0.00352848,-0.0033373,-0.657458,0.00396448,0.0108513,1546,435,1.87477,1.09763
329,589,1.86365,-1.06607,0.00136925,-0.000401807,-0.00288578,0.00350231,-0.00253486,-0.636529,0.00350045,0.00951407,1553,435,1.86369,1.06606
336,589,1.86609,-1.05347,0.00197879,0.000247865,-0.0018932,0.00319497,-0.000968316,-0.571009,0.00251566,0.00902752,1560,435,1.86603,1.05346
343,589,1.88098,-1.05377,0.00258146,0.00149281,-0.00100924,0.00318381,0.000890458,-0.538086,0.00189672,0.010733,1567,435,1.88093,1.05377
350,589,1.87634,-1.03455,0.00326217,0.00334616,-0.00021959,0.00352773,0.00308059,-0.879884,0.00221785,0.0163443,1574,435,1.87632,1.03455
357,589,1.8739,-0.984467,0.00380673,0.00646146,0.000589828,0.00658661,0.00368158,1.36172,0.00381158,0.0138778,1581,435,1.87395,0.984461
364,589,1.87769,-0.95813,0.00432896,0.00839201,0.00139404,0.00882431,0.00389666,1.27009,0.00510629,0.0105979,1588,435,1.87765,0.958132
371,589,1.86694,-0.927765,0.00462332,0.0100354,0.00234213,0.0109082,0.0037505,1.21408,0.00639944,0.00997249,1595,435,1.86699,0.927756
378,589,1.87646,-0.909668,0.00445611,0.0124846,0.00375847,0.0139695,0.00297125,1.19455,0.00849754,0.0116436,1602,435,1.87644,0.909655
385,589,1.87891,-0.881531,0.0042918,0.014845,0.00498883,0.01683,0.00230679,1.19211,0.0105356,0.0136412,1609,435,1.87893,0.881521
392,589,1.85352,-0.82196,0.00569487,0.0169114,0.00576506,0.019346,0.00326021,1.1712,0.0119597,0.0155604,1616,435,1.85356,0.821962
399,589,1.82678,-0.801056,0.00829103,0.0182587,0.00660307,0.0215476,0.00500206,1.10867,0.013022,0.019563,1623,435,1.82683,0.801051
406,589,1.85657,-0.549347,0,0,0,0,0,0,0,-1,1630,435,1.85663,0.549341
413,589,2.37671,-1.11661,0.0137105,0.0186008,0.00708735,0.0236529,0.00865836,0.951506,0.0138184,0.0411338,1637,435,2.37676,1.11662
420,589,2.67065,-1.31241,0.0182502,0.0175872,0.0071046,0.025031,0.0108063,0.762084,0.0144965,0.0447277,1644,435,2.67065,1.31241
427,589,2.22083,-0.704346,0.0245709,0.0167839,0.00735476,0.0289992,0.0123556,0.541959,0.0168036,0.0471751,1651,435,2.22083,0.704348
434,589,1.72327,-0.934082,0,0,0,0,0,0,0,-1,1658,435,1.72326,0.934068
441,589,2.1853,-0.314453,0.0381378,0.0166709,0.00854087,0.0411212,0.0136874,0.336064,0.0241795,0.0460821,1665,435,2.18524,0.314459
448,589,2.81897,-0.366333,0.0453137,0.0196087,0.0106222,0.049135,0.0157874,0.345337,0.0289657,0.0477847,1672,435,2.81901,0.366343
455,589,3.40015,-0.461792,0,0,0,0,0,0,0,-1,1679,435,3.40018,0.461778
462,589,3.49548,-0.507996,0,0,0,0,0,0,0,-1,1686,435,3.49552,0.507985
469,589,3.85535,-0.974792,0,0,0,0,0,0,0,-1,1693,435,3.85536,0.97479
476,589,0,0,0,0,0,0,0,0,0,-1,1700,435,0,0
483,589,0,0,0,0,0,0,0,0,0,-1,1707,435,0,0
490,589,0,0,0,0,0,0,0,0,0,-1,1714,435,0,0
497,589,0,0,0,0,0,0,0,0,0,-1,1721,435,0,0
504,589,0,0,0,0,0,0,0,0,0,-1,1728,435,0,0
511,589,0,0,0,0,0,0,0,0,0,-1,1735,435,0,0
518,589,0,0,0,0,0,0,0,0,0,-1,1742,435,0,0
525,589,0,0,0,0,0,0,0,0,0,-1,1749,435,0,0
532,589,0,0,0,0,0,0,0,0,0,-1,1756,435,0,0
539,589,0,0,0,0,0,0,0,0,0,-1,1763,435,0,0
546,589,0,0,0,0,0,0,0,0,0,-1,1770,435,0,0
553,589,0,0,0,0,0,0,0,0,0,-1,1777,435,0,0
560,589,0,0,0,0,0,0,0,0,0,-1,1784,435,0,0
567,589,0,0,0,0,0,0,0,0,0,-1,1791,435,0,0
574,589,0,0,0,0,0,0,0,0,0,-1,1798,435,0,0
581,589,0,0,0,0,0,0,0,0,0,-1,1805,435,0,0
588,589,0,0,0,0,0,0,0,0,0,-1,1812,435,0,0
595,589,0,0,0,0,0,0,0,0,0,-1,1819,435,0,0
602,589,0,0,0,0,0,0,0,0,0,-1,1826,435,0,0
609,589,0,0,0,0,0,0,0,0,0,-1,1833,435,0,0
616,589,0,0,0,0,0,0,0,0,0,-1,1840,435,0,0
623,589,0,0,0,0,0,0,0,0,0,-1,1847,435,0,0
630,589,0,0,0,0,0,0,0,0,0,-1,1854,435,0,0
637,589,0,0,0,0,0,0,0,0,0,-1,1861,435,0,0
644,589,0,0,0,0,0,0,0,0,0,-1,1868,435,0,0
651,589,0,0,0,0,0,0,0,0,0,-1,1875,435,0,0
658,589,0,0,0,0,0,0,0,0,0,-1,1882,435,0,0
665,589,0,0,0,0,0,0,0,0,0,-1,1889,435,0,0
672,589,0,0,0,0,0,0,0,0,0,-1,1896,435,0,0
679,589,0,0,0,0,0,0,0,0,0,-1,1903,435,0,0
686,589,0,0,0,0,0,0,0,0,0,-1,1910,435,0,0
693,589,0,0,0,0,0,0,0,0,0,-1,1917,435,0,0
700,589,0,0,0,0,0,0,0,0,0,-1,1924,435,0,0
707,589,0,0,0,0,0,0,0,0,0,-1,1931,435,0,0
714,589,0,0,0,0,0,0,0,0,0,-1,1938,435,0,0
721,589,0,0,0,0,0,0,0,0,0,-1,1945,435,0,0
728,589,0,0,0,0,0,0,0,0,0,-1,1952,435,0,0
735,589,0,0,0,0,0,0,0,0,0,-1,1959,435,0,0
742,589,0,0,0,0,0,0,0,0,0,-1,1966,435,0,0
749,589,0,0,0,0,0,0,0,0,0,-1,1973,435,0,0
756,589,0,0,0,0,0,0,0,0,0,-1,1980,435,0,0
763,589,0,0,0,0,0,0,0,0,0,-1,1987,435,0,0
770,589,0,0,0,0,0,0,0,0,0,-1,1994,435,0,0
777,589,0,0,0,0,0,0,0,0,0,-1,2001,435,0,0
784,589,0,0,0,0,0,0,0,0,0,-1,2008,435,0,0
791,589,0,0,0,0,0,0,0,0,0,-1,2015,435,0,0
798,589,0,0,0,0,0,0,0,0,0,-1,2022,435,0,0
805,589,0,0,0,0,0,0,0,0,0,-1,2029,435,0,0
812,589,0,0,0,0,0,0,0,0,0,-1,2036,435,0,0
-700,582,0,0,0,0,0,0,0,0,0,-1,524,442,0,0
-693,582,0,0,0,0,0,0,0,0,0,-1,531,442,0,0
-686,582,0,0,0,0,0,0,0,0,0,-1,538,442,0,0
-679,582,0,0,0,0,0,0,0,0,0,-1,545,442,0,0
-672,582,0,0,0,0,0,0,0,0,0,-1,552,442,0,0
-665,582,0,0,0,0,0,0,0,0,0,-1,559,442,0,0
-658,582,0,0,0,0,0,0,0,0,0,-1,566,442,0,0
-651,582,0,0,0,0,0,0,0,0,0,-1,573,442,0,0
-644,582,0,0,0,0,0,0,0,0,0,-1,580,442,0,0
-637,582,0,0,0,0,0,0,0,0,0,-1,587,442,0,0
-630,582,0,0,0,0,0,0,0,0,0,-1,594,442,0,0
-623,582,0,0,0,0,0,0,0,0,0,-1,601,442,0,0
-616,582,0,0,0,0,0,0,0,0,0,-1,608,442,0,0
-609,582,0,0,0,0,0,0,0,0,0,-1,615,442,0,0
-602,582,0,0,0,0,0,0,0,0,0,-1,622,442,0,0
-595,582,0,0,0,0,0,0,0,0,0,-1,629,442,0,0
-588,582,0,0,0,0,0,0,0,0,0,-1,636,442,0,0
-581,582,0,0,0,0,0,0,0,0,0,-1,643,442,0,0
-574,582,0,0,0,0,0,0,0,0,0,-1,650,442,0,0
-567,582,0,0,0,0,0,0,0,0,0,-1,657,442,0,0
-560,582,0,0,0,0,0,0,0,0,0,-1,664,442,0,0
-553,582,0,0,0,0,0,0,0,0,0,-1,671,442,0,0
-546,582,0,0,0,0,0,0,0,0,0,-1,678,442,0,0
-539,582,0,0,0,0,0,0,0,0,0,-1,685,442,0,0
-532,582,0,0,0,0,0,0,0,0,0,-1,692,442,0,0
-525,582,0,0,0,0,0,0,0,0,0,-1,699,442,0,0
-518,582,0,0,0,0,0,0,0,0,0,-1,706,442,0,0
-511,582,0,0,0,0,0,0,0,0,0,-1,713,442,0,0
-504,582,0,0,0,0,0,0,0,0,0,-1,720,442,0,0
-497,582,0,0,0,0,0,0,0,0,0,-1,727,442,0,0
-490,582,0,0,0,0,0,0,0,0,0,-1,734,442,0,0
-483,582,0,0,0,0,0,0,0,0,0,-1,741,442,0,0
-476,582,0,0,0,0,0,0,0,0,0,-1,748,442,0,0
-469,582,0,0,0,0,0,0,0,0,0,-1,755,442,0,0
-462,582,0,0,0,0,0,0,0,0,0,-1,762,442,0,0
-455,582,0,0,0,0,0,0,0,0,0,-1,769,442,0,0
-448,582,0,0,0,0,0,0,0,0,0,-1,776,442,0,0
-441,582,0,0,0,0,0,0,0,0,0,-1,783,442,0,0
-434,582,0,0,0,0,0,0,0,0,0,-1,790,442,0,0
-427,582,0,0,0,0,0,0,0,0,0,-1,797,442,0,0
-420,582,0,0,0,0,0,0,0,0,0,-1,804,442,0,0
-413,582,0,0,0,0,0,0,0,0,0,-1,811,442,0,0
-406,582,0,0,0,0,0,0,0,0,0,-1,818,442,0,0
-399,582,0,0,0,0,0,0,0,0,0,-1,825,442,0,0
-392,582,0,0,0,0,0,0,0,0,0,-1,832,442,0,0
-385,582,0,0,0,0,0,0,0,0,0,-1,839,442,0,0
-378,582,0,0,0,0,0,0,0,0,0,-1,846,442,0,0
-371,582,0,0,0,0,0,0,0,0,0,-1,853,442,0,0
-364,582,0,0,0,0,0,0,0,0,0,-1,860,442,0,0
-357,582,5.08899,0.173828,-0.0483525,0.040205,0.052939,0.0649418,-0.0730893,1.13367,0.0797385,0.046249,867,442,5.08898,-0.173815
-350,582,4.34698,-0.474854,0,0,0,0,0,0,0,-1,874,442,4.34697,0.474861
-343,582,3.66986,-0.86026,-0.0220295,0.02227,0.0436967,0.0491101,-0.0488696,1.01997,0.0565687,0.0422552,881,442,3.66985,0.860261
-336,582,3.07343,-0.959503,-0.0140142,0.0147655,0.0389005,0.0418524,-0.0411011,0.96255,0.0478938,0.0462042,888,442,3.07345,0.959497
-329,582,2.85077,-0.79126,-0.0144197,0.00844282,0.0337808,0.0326741,-0.0386509,0.948548,0.0412277,0.0449675,895,442,2.85074,0.791268
-322,582,2.67065,-0.697235,-0.0154063,0.0025397,0.02853,0.0234745,-0.0363411,0.937756,0.0347998,0.04139,902,442,2.67067,0.697221
-315,582,1.16937,-0.538605,0,0,0,0,0,0,0,-1,909,442,1.16937,0.53861
-308,582,1.35291,-0.553497,-0.0127411,-0.000682322,0.0189566,0.0131806,-0.0266041,0.939371,0.0234014,0.0465631,916,442,1.3529,0.55349
-301,582,1.24603,-0.961914,-0.0115156,-0.00344441,0.0143108,0.00738897,-0.022349,0.922827,0.0178787,0.0423365,923,442,1.24606,0.961906
-294,582,1.3902,-0.759735,-0.011831,-0.00341658,0.0107786,0.00394687,-0.0191944,0.971468,0.0142947,0.0412491,930,442,1.39019,0.759727
-287,582,1.47668,-0.714447,-0.011462,-0.00361085,0.0076798,0.00108851,-0.0161614,1.02166,0.0111548,0.0328289,937,442,1.4767,0.714435
-280,582,1.57275,-0.72287,-0.0104828,-0.00386584,0.00488594,-0.00127361,-0.0130751,1.08301,0.00832471,0.0157237,944,442,1.57276,0.722876
-273,582,1.58966,-0.750458,-0.00869841,-0.004052,0.00275482,-0.00277155,-0.00997886,1.1357,0.005948,0.010114,951,442,1.58968,0.750472
-266,582,1.58649,-0.795807,-0.00633802,-0.00415034,0.00152023,-0.00337133,-0.00711703,1.09725,0.00411092,0.00994411,958,442,1.58648,0.795794
-259,582,1.58655,-0.833527,-0.00410158,-0.00420709,0.000895263,-0.00325752,-0.00505115,0.755968,0.00295682,0.00909988,965,442,1.58654,0.833514
-252,582,1.5921,-0.845703,-0.00238132,-0.00429796,0.000647016,-0.00218335,-0.00449593,0.296929,0.00259608,0.00880616,972,442,1.59209,0.845702
-245,582,1.59973,-0.875885,-0.00108668,-0.00436703,0.000182194,-0.00107659,-0.00437712,0.0553141,0.00263362,0.0115684,979,442,1.59974,0.875889
-238,582,1.58313,-0.882782,0.000143679,-0.00400326,-0.000367154,0.000175935,-0.00403552,-0.0876277,0.00275087,0.0154121,986,442,1.58314,0.882787
-231,582,1.58563,-0.918488,0.000862839,-0.00302005,-0.000751241,0.00100312,-0.00316033,-0.184603,0.00250901,0.0118343,993,442,1.5856,0.918473
-224,582,1.59094,-0.95993,0.00205441,-0.00156402,-0.000782366,0.00221633,-0.00172593,-0.204075,0.00228193,0.00905915,1000,442,1.59096,0.959939
-217,582,1.58008,-0.995056,0.00214965,-0.000265956,-0.000816681,0.00239985,-0.000516151,-0.297277,0.00179683,0.0117754,1007,442,1.58006,0.99507
-210,582,1.59088,-1.02783,0.00132291,0.00139631,-0.000897673,0.00225803,0.000461189,-0.805828,0.0013776,0.0123163,1014,442,1.59089,1.02784
-203,582,1.59943,-1.04617,0.000681203,0.00342821,-0.00105604,0.00378726,0.000322159,-1.24306,0.0024246,0.00951559,1021,442,1.59941,1.04616
-196,582,1.58923,-1.0672,0.000302501,0.00552705,-0.00137094,0.00586494,-3.53847e-05,-1.32915,0.00392181,0.0138894,1028,442,1.58921,1.06721
-189,582,1.56274,-1.10245,0.000452538,0.00772328,-0.00160317,0.00806108,0.000114739,-1.36313,0.00533622,0.0193002,1035,442,1.56271,1.10245
-182,582,1.56079,-1.14139,0.00077878,0.0105948,-0.00200768,0.0109896,0.000384024,-1.37665,0.0072018,0.0145327,1042,442,1.56082,1.1414
-175,582,1.58801,-1.12424,0.00109579,0.012718,-0.00225633,0.0131407,0.000673121,-1.38562,0.00854492,0.0130846,1049,442,1.58803,1.12423
-168,582,1.59851,-1.14902,0.0013216,0.0143885,-0.00246856,0.0148393,0.000870803,-1.39017,0.00961576,0.0108163,1056,442,1.59849,1.14902
-161,582,1.58203,-1.17758,0.00153908,0.0156101,-0.0025962,0.0160739,0.00107535,-1.39404,0.0103761,0.0119471,1063,442,1.58199,1.17757
-154,582,1.58301,-1.19571,0.00173262,0.0163453,-0.00269837,0.0168277,0.00125026,-1.39391,0.0108258,0.0126504,1070,442,1.58296,1.19572
-147,582,1.59729,-1.23511,0.00192874,0.0164461,-0.00269125,0.016929,0.0014459,-1.39327,0.0108362,0.0120784,1077,442,1.59725,1.2351
-140,582,1.60925,-1.24512,0.00207315,0.0161203,-0.00264618,0.0166023,0.00159121,-1.39064,0.0105777,0.0116797,1084,442,1.60925,1.24512
-133,582,1.60718,-1.25049,0.00214877,0.014452,-0.00294547,0.0151208,0.00147997,-1.34752,0.00962523,0.0120973,1091,442,1.60722,1.25048
-126,582,1.61121,-1.26331,0.00166408,0.0126333,-0.00393353,0.0138981,0.000399351,-1.25971,0.00913516,0.0104689,1098,442,1.61126,1.26331
-119,582,1.60095,-1.25742,0.000552538,0.0123499,-0.00549231,0.014511,-0.00160855,-1.19593,0.0102523,0.0147911,1105,442,1.60093,1.2574
-112,582,1.56458,-1.29092,-0.00177569,0.0116654,-0.00746211,0.0149872,-0.0050975,-1.15198,0.0120554,0.0231584,1112,442,1.56463,1.29094
-105,582,1.53711,-1.31567,-0.00452032,0.0108522,-0.0102753,0.0159979,-0.00966607,-1.10652,0.0149667,0.0306283,1119,442,1.5371,1.31568
-98,582,1.5907,-1.41721,-0.00706718,0.0106203,-0.0126248,0.0171907,-0.0136376,-1.09093,0.0178381,0.0322075,1126,442,1.59068,1.4172
-91,582,1.82275,-1.25827,-0.00988112,0.0108881,-0.0152413,0.0189464,-0.0179393,-1.08445,0.0212986,0.0367204,1133,442,1.8227,1.25826
-84,582,1.88623,-1.19742,-0.0128698,0.0118228,-0.0176953,0.0210532,-0.0221002,-1.08999,0.0249171,0.0408284,1140,442,1.88624,1.19743
-77,582,1.40198,-1.31192,-0.0159125,0.0127221,-0.0194694,0.0225717,-0.0257621,-1.10244,0.0279258,0.0412054,1147,442,1.40196,1.31193
-70,582,1.0824,-1.38638,0,0,0,0,0,0,0,-1,1154,442,1.0824,1.38637
-63,582,0.352661,-1.66608,-0.0174854,0.00885712,-0.0184167,0.0183278,-0.026956,-1.09582,0.0263023,0.0437132,1161,442,0.352691,1.66607
-56,582,-0.340088,-2.39496,-0.0200691,-0.0014478,-0.0154397,0.00727132,-0.0287882,-1.05672,0.0220198,0.043321,1168,442,-0.34005,2.39496
-49,582,-0.232422,-3.29642,0,0,0,0,0,0,0,-1,1175,442,-0.232478,3.2964
-42,582,-0.948975,1.13968,0,0,0,0,0,0,0,-1,1182,442,-0.949003,-1.13969
-35,582,-0.996216,-0.904419,0,0,0,0,0,0,0,-1,1189,442,-0.996179,0.904409
-28,582,0.0362549,-1.14847,0,0,0,0,0,0,0,-1,1196,442,0.0361951,1.14847
-21,582,0.80835,-1.38657,-0.0184274,-0.0706292,0.0102959,-0.0164701,-0.0725865,0.187863,0.0439422,0.0458833,1203,442,0.808376,1.38658
-14,582,1.10388,-1.42017,-0.0107387,-0.0739124,0.00955137,-0.00932623,-0.0753249,0.146822,0.0474146,0.0458988,1210,442,1.1039,1.42018
-7,582,0.892822,-1.30438,-0.00125538,-0.0735249,0.0083823,-0.000295889,-0.0744844,0.113971,0.0495579,0.0480232,1217,442,0.892827,1.30439
0,582,0.572876,-0.958466,0.00927463,-0.0634935,0.00255871,0.00936448,-0.0635833,0.0351047,0.0458304,0.0452662,1224,442,0.572888,0.958472
7,582,0.20813,-0.597198,0.0197272,-0.0429967,-0.00809817,0.0207558,-0.0440254,-0.126348,0.0381973,0.0464358,1231,442,0.208186,0.597188
14,582,1.7002,1.04538,0.0310687,-0.0191984,-0.0200616,0.0380936,-0.0262233,-0.33682,0.0373436,0.0425988,1238,442,1.70015,-1.04539
21,582,1.44177,0.0342102,0.0425885,0.00734189,-0.0331771,0.0625325,-0.0126021,-0.541255,0.0464622,0.042369,1245,442,1.44176,-0.0342091
28,582,1.44727,-0.994965,0.0528842,0.0347638,-0.0463858,0.0910864,-0.00343841,-0.688951,0.0619022,0.0466974,1252,442,1.44732,0.994952
35,582,1.97217,-1.54822,0.0593609,0.058869,-0.0573416,0.116457,0.00177277,-0.783253,0.077054,0.0495247,1259,442,1.97221,1.54821
42,582,2.41687,-1.89468,0.065987,0.0808044,-0.0665293,0.140336,0.00645518,-0.84085,0.0914817,0.0492702,1266,442,2.41689,1.89467
49,582,2.89246,-2.23248,0.0726026,0.0992374,-0.0738411,0.160952,0.0108876,-0.874615,0.103863,0.0491283,1273,442,2.89247,2.2325
56,582,1.80676,-2.88931,0.0768022,0.111485,-0.0779679,0.174017,0.0142703,-0.894825,0.111559,0.0460467,1280,442,1.80672,2.88932
63,582,2.16394,-2.60864,0.0818267,0.116599,-0.0813598,0.182409,0.0160159,-0.890661,0.116635,0.0421374,1287,442,2.16398,2.60865
70,582,2.56714,-2.54117,0.0818481,0.111497,-0.0791135,0.177163,0.0161823,-0.878016,0.113101,0.0428034,1294,442,2.56718,2.54115
77,582,2.94226,-2.47101,0.0753608,0.0999793,-0.0732382,0.161936,0.0134046,-0.868656,0.103778,0.0444057,1301,442,2.94223,2.47102
84,582,2.87964,-2.1991,0.0673098,0.0818492,-0.0634763,0.138471,0.0106883,-0.842413,0.0889653,0.0453193,1308,442,2.8796,2.1991
91,582,1.97583,-1.6521,0.0632306,0.0570348,-0.0521105,0.112335,0.00793014,-0.755708,0.0723917,0.0463239,1315,442,1.97582,1.6521
98,582,1.25769,-1.4368,0.0590048,0.0377679,-0.044369,0.0940082,0.00276441,-0.667947,0.0617713,0.0454996,1322,442,1.25773,1.43679
105,582,0.89502,-1.11655,0.05515,0.0165802,-0.0367667,0.0773825,-0.00565237,-0.543862,0.0535719,0.0452744,1329,442,0.895024,1.11653
112,582,1.21594,-0.703156,0.0507554,-0.00228868,-0.0306731,0.0647828,-0.0163161,-0.428925,0.0495313,0.0428271,1336,442,1.21597,0.703155
119,582,1.74426,-0.325287,0.042822,-0.0163761,-0.0250312,0.0519872,-0.0255413,-0.350989,0.0456209,0.0421371,1343,442,1.74424,0.325281
126,582,1.93994,0.0845032,0.0345198,-0.0288446,-0.0200238,0.0403171,-0.0346419,-0.281816,0.0433189,0.0453635,1350,442,1.93991,-0.0845173
133,582,1.93506,0.403625,0.027729,-0.0391371,-0.0166341,0.0316385,-0.0430466,-0.230837,0.0432868,0.046908,1357,442,1.93503,-0.403624
140,582,2.26685,0.737274,0,0,0,0,0,0,0,-1,1364,442,2.26687,-0.737267
147,582,2.52429,0.586731,0,0,0,0,0,0,0,-1,1371,442,2.5243,-0.58673
154,582,2.69897,0.605408,0,0,0,0,0,0,0,-1,1378,442,2.69895,-0.605405
161,582,2.93567,0.703644,0,0,0,0,0,0,0,-1,1385,442,2.93565,-0.703645
168,582,4.18933,0.957855,0,0,0,0,0,0,0,-1,1392,442,4.18934,-0.957841
175,582,3.66724,-1.78656,0,0,0,0,0,0,0,-1,1399,442,3.66724,1.78657
182,582,3.51672,-1.52106,0,0,0,0,0,0,0,-1,1406,442,3.51678,1.52105
189,582,2.97314,-1.01117,0,0,0,0,0,0,0,-1,1413,442,2.97313,1.01117
196,582,3.4176,-1.14526,0,0,0,0,0,0,0,-1,1420,442,3.41764,1.14526
203,582,2.39697,-0.942535,-0.0228433,-0.00901143,-0.0180087,0.00336361,-0.0352184,-0.968732,0.0246767,0.0402796,1427,442,2.39693,0.942528
210,582,1.49353,-0.915955,-0.0251858,-0.00197097,-0.0144598,0.00496392,-0.0321207,-1.1236,0.0232458,0.0370337,1434,442,1.49354,0.915948
217,582,1.56165,-1.10031,-0.0203156,6.90363e-05,-0.0104212,0.00445359,-0.0247001,-1.17255,0.0181345,0.0332811,1441,442,1.56161,1.1003
224,582,1.78943,-1.31015,-0.0149336,0.00119402,-0.0073178,0.00401943,-0.017759,-1.20233,0.0133819,0.0336832,1448,442,1.78941,1.31016
231,582,1.75269,-1.32224,-0.00965427,0.0021984,-0.00456112,0.00375039,-0.0112062,-1.24282,0.00898575,0.0321888,1455,442,1.75263,1.32225
238,582,1.68811,-1.29361,-0.0045861,0.00294103,-0.00282064,0.0038807,-0.00552577,-1.24922,0.00545844,0.029423,1462,442,1.68814,1.2936
245,582,1.79932,-1.289,-0.000244816,0.00359876,-0.00181039,0.0043172,-0.000963251,-1.19302,0.00324719,0.0271369,1469,442,1.79926,1.289
252,582,1.86548,-1.28296,0.00325959,0.0039829,-0.000997783,0.00468255,0.00255994,-0.959264,0.0027074,0.0168692,1476,442,1.86548,1.28295
259,582,1.86975,-1.30182,0.00601122,0.0043604,-0.000955717,0.00644862,0.003923,-0.429214,0.00375214,0.0123876,1483,442,1.86972,1.30181
266,582,1.88403,-1.28046,0.00719348,0.00417274,-0.0015532,0.00784959,0.00351662,-0.399689,0.00454012,0.010186,1490,442,1.88406,1.28046
273,582,1.8949,-1.26251,0.0068767,0.0029608,-0.00212433,0.00780775,0.00202975,-0.413066,0.00467775,0.0103344,1497,442,1.8949,1.26252
280,582,1.88721,-1.24545,0.00657393,0.00195514,-0.00273204,0.00784187,0.000687194,-0.434518,0.00501457,0.0105366,1504,442,1.88721,1.24544
287,582,1.88086,-1.22778,0.00597141,0.00110701,-0.00348256,0.007787,-0.000708592,-0.480574,0.00544293,0.0104486,1511,442,1.8808,1.22778
294,582,1.88,-1.20633,0.00469754,0.000256062,-0.00390027,0.00696498,-0.00201138,-0.526598,0.00543919,0.00879616,1518,442,1.87999,1.20633
301,582,1.89771,-1.17334,0.00320732,-0.000477151,-0.00432081,0.00606223,-0.00333207,-0.583886,0.00549962,0.00956594,1525,442,1.89771,1.17335
308,582,1.9104,-1.15237,0.00224166,-0.000903819,-0.00443926,0.00537855,-0.0040407,-0.615157,0.00545646,0.0118179,1532,442,1.9104,1.15238
315,582,1.89331,-1.12778,0.00121469,-0.00106065,-0.00451843,0.00473647,-0.00458244,-0.66207,0.00538052,0.0133734,1539,442,1.89333,1.12778
322,582,1.89124,-1.09811,0.000694477,-0.00171285,-0.00444072,0.00409178,-0.00511014,-0.653053,0.00532356,0.0106278,1546,442,1.89122,1.09812
329,582,1.89172,-1.0668,0.000708995,-0.00130236,-0.00353349,0.00337714,-0.0039705,-0.646758,0.00424677,0.00986195,1553,442,1.89174,1.0668
336,582,1.8927,-1.05621,0.0010445,-0.000621163,-0.00216282,0.0025293,-0.00210596,-0.601615,0.00267989,0.0102886,1560,442,1.89267,1.05622
343,582,1.89807,-1.04886,0.00139063,0.000690927,-0.000848254,0.00195834,0.000123209,-0.589808,0.00126649,0.0121454,1567,442,1.89809,1.04885
350,582,1.89221,-1.01987,0.0018277,0.00240013,0.000211203,0.00246962,0.00175821,1.25293,0.00146791,0.0150574,1574,442,1.89219,1.01988
357,582,1.90149,-0.97583,0.0021022,0.00506933,0.00103744,0.00539608,0.00177545,1.26567,0.00317556,0.0135076,1581,442,1.90153,0.975831
364,582,1.90356,-0.944794,0.00235834,0.00664141,0.00182593,0.00731416,0.00168559,1.21779,0.00442264,0.0101899,1588,442,1.9036,0.944782
371,582,1.88562,-0.929626,0.00239779,0.00798989,0.00268729,0.00907191,0.00131577,1.18801,0.00566055,0.0134042,1595,442,1.88562,0.929639
378,582,1.87329,-0.925629,0.00207551,0.0100472,0.00382845,0.011588,0.000534693,1.18817,0.00755343,0.0150191,1602,442,1.87331,0.92562
385,582,1.89587,-0.896729,0.00187879,0.0118946,0.00474219,0.0137836,-1.02203e-05,1.19172,0.00919249,0.0109046,1609,442,1.89593,0.896721
392,582,1.88062,-0.853424,0.00303314,0.0135213,0.0053248,0.0157508,0.00080368,1.17428,0.0102431,0.0101735,1616,442,1.8806,0.853439
399,582,1.89136,-0.814087,0.00516775,0.0145355,0.00594518,0.0174202,0.00228301,1.11904,0.0109322,0.0116509,1623,442,1.89134,0.814081
406,582,1.88867,-0.774719,0.0071311,0.0148851,0.00615044,0.0182785,0.00373767,1.06662,0.0111506,0.0156605,1630,442,1.88864,0.774713
413,582,1.90845,-0.76886,0.00962129,0.0145761,0.00624489,0.0188171,0.00538036,0.974233,0.011191,0.0263092,1637,442,1.90844,0.768856
420,582,1.94104,-0.819061,0.0132107,0.0136437,0.00621586,0.0196468,0.00720755,0.802808,0.0114764,0.0323758,1644,442,1.94103,0.819064
427,582,1.8833,-0.815826,0.0180848,0.0128433,0.0066187,0.0225828,0.00834541,0.596888,0.0131852,0.0349629,1651,442,1.88326,0.815835
434,582,1.80835,-0.820618,0.0230245,0.0118273,0.00820728,0.0273609,0.0074909,0.486074,0.0163269,0.0399397,1658,442,1.80832,0.820625
441,582,2.17139,-0.537933,0.0275432,0.0136378,0.00898013,0.0319475,0.00923346,0.455984,0.0189844,0.0423928,1665,442,2.17133,0.537935
448,582,2.58459,-0.60022,0.0323204,0.0168665,0.0110516,0.0380784,0.0111085,0.480314,0.0226114,0.0474195,1672,442,2.58454,0.600219
455,582,3.0033,-0.667694,0,0,0,0,0,0,0,-1,1679,442,3.00334,0.667706
462,582,3.40491,-0.0499878,0,0,0,0,0,0,0,-1,1686,442,3.40493,0.0499774
469,582,3.72168,-0.229401,0,0,0,0,0,0,0,-1,1693,442,3.72166,0.229415
476,582,-0.57251,-0.303253,0,0,0,0,0,0,0,-1,1700,442,-0.572468,0.303263
483,582,0,0,0,0,0,0,0,0,0,-1,1707,442,0,0
490,582,0,0,0,0,0,0,0,0,0,-1,1714,442,0,0
497,582,0,0,0,0,0,0,0,0,0,-1,1721,442,0,0
504,582,0,0,0,0,0,0,0,0,0,-1,1728,442,0,0
511,582,0,0,0,0,0,0,0,0,0,-1,1735,442,0,0
518,582,0,0,0,0,0,0,0,0,0,-1,1742,442,0,0
525,582,0,0,0,0,0,0,0,0,0,-1,1749,442,0,0
532,582,0,0,0,0,0,0,0,0,0,-1,1756,442,0,0
539,582,0,0,0,0,0,0,0,0,0,-1,1763,442,0,0
546,582,0,0,0,0,0,0,0,0,0,-1,1770,442,0,0
553,582,0,0,0,0,0,0,0,0,0,-1,1777,442,0,0
560,582,0,0,0,0,0,0,0,0,0,-1,1784,442,0,0
567,582,0,0,0,0,0,0,0,0,0,-1,1791,442,0,0
574,582,0,0,0,0,0,0,0,0,0,-1,1798,442,0,0
581,582,0,0,0,0,0,0,0,0,0,-1,1805,442,0,0
588,582,0,0,0,0,0,0,0,0,0,-1,1812,442,0,0
595,582,0,0,0,0,0,0,0,0,0,-1,1819,442,0,0
602,582,0,0,0,0,0,0,0,0,0,-1,1826,442,0,0
609,582,0,0,0,0,0,0,0,0,0,-1,1833,442,0,0
616,582,0,0,0,0,0,0,0,0,0,-1,1840,442,0,0
623,582,0,0,0,0,0,0,0,0,0,-1,1847,442,0,0
630,582,0,0,0,0,0,0,0,0,0,-1,1854,442,0,0
637,582,0,0,0,0,0,0,0,0,0,-1,1861,442,0,0
644,582,0,0,0,0,0,0,0,0,0,-1,1868,442,0,0
651,582,0,0,0,0,0,0,0,0,0,-1,1875,442,0,0
658,582,0,0,0,0,0,0,0,0,0,-1,1882,442,0,0
665,582,0,0,0,0,0,0,0,0,0,-1,1889,442,0,0
672,582,0,0,0,0,0,0,0,0,0,-1,1896,442,0,0
679,582,0,0,0,0,0,0,0,0,0,-1,1903,442,0,0
686,582,0,0,0,0,0,0,0,0,0,-1,1910,442,0,0
693,582,0,0,0,0,0,0,0,0,0,-1,1917,442,0,0
700,582,0,0,0,0,0,0,0,0,0,-1,1924,442,0,0
707,582,0,0,0,0,0,0,0,0,0,-1,1931,442,0,0
714,582,0,0,0,0,0,0,0,0,0,-1,1938,442,0,0
721,582,0,0,0,0,0,0,0,0,0,-1,1945,442,0,0
728,582,0,0,0,0,0,0,0,0,0,-1,1952,442,0,0
735,582,0,0,0,0,0,0,0,0,0,-1,1959,442,0,0
742,582,0,0,0,0,0,0,0,0,0,-1,1966,442,0,0
749,582,0,0,0,0,0,0,0,0,0,-1,1973,442,0,0
756,582,0,0,0,0,0,0,0,0,0,-1,1980,442,0,0
763,582,0,0,0,0,0,0,0,0,0,-1,1987,442,0,0
770,582,0,0,0,0,0,0,0,0,0,-1,1994,442,0,0
777,582,0,0,0,0,0,0,0,0,0,-1,2001,442,0,0
784,582,0,0,0,0,0,0,0,0,0,-1,2008,442,0,0
791,582,0,0,0,0,0,0,0,0,0,-1,2015,442,0,0
798,582,0,0,0,0,0,0,0,0,0,-1,2022,442,0,0
805,582,0,0,0,0,0,0,0,0,0,-1,2029,442,0,0
812,582,0,0,0,0,0,0,0,0,0,-1,2036,442,0,0
-700,575,0,0,0,0,0,0,0,0,0,-1,524,449,0,0
-693,575,0,0,0,0,0,0,0,0,0,-1,531,449,0,0
-686,575,0,0,0,0,0,0,0,0,0,-1,538,449,0,0
-679,575,0,0,0,0,0,0,0,0,0,-1,545,449,0,0
-672,575,0,0,0,0,0,0,0,0,0,-1,552,449,0,0
-665,575,0,0,0,0,0,0,0,0,0,-1,559,449,0,0
-658,575,0,0,0,0,0,0,0,0,0,-1,566,449,0,0
-651,575,0,0,0,0,0,0,0,0,0,-1,573,449,0,0
-644,575,0,0,0,0,0,0,0,0,0,-1,580,449,0,0
-637,575,0,0,0,0,0,0,0,0,0,-1,587,449,0,0
-630,575,0,0,0,0,0,0,0,0,0,-1,594,449,0,0
-623,575,0,0,0,0,0,0,0,0,0,-1,601,449,0,0
-616,575,0,0,0,0,0,0,0,0,0,-1,608,449,0,0
-609,575,0,0,0,0,0,0,0,0,0,-1,615,449,0,0
-602,575,0,0,0,0,0,0,0,0,0,-1,622,449,0,0
-595,575,0,0,0,0,0,0,0,0,0,-1,629,449,0,0
-588,575,0,0,0,0,0,0,0,0,0,-1,636,449,0,0
-581,575,0,0,0,0,0,0,0,0,0,-1,643,449,0,0
-574,575,0,0,0,0,0,0,0,0,0,-1,650,449,0,0
-567,575,0,0,0,0,0,0,0,0,0,-1,657,449,0,0
-560,575,0,0,0,0,0,0,0,0,0,-1,664,449,0,0
-553,575,0,0,0,0,0,0,0,0,0,-1,671,449,0,0
-546,575,0,0,0,0,0,0,0,0,0,-1,678,449,0,0
-539,575,0,0,0,0,0,0,0,0,0,-1,685,449,0,0
-532,575,0,0,0,0,0,0,0,0,0,-1,692,449,0,0
-525,575,0,0,0,0,0,0,0,0,0,-1,699,449,0,0
-518,575,0,0,0,0,0,0,0,0,0,-1,706,449,0,0
-511,575,0,0,0,0,0,0,0,0,0,-1,713,449,0,0
-504,575,0,0,0,0,0,0,0,0,0,-1,720,449,0,0
-497,575,0,0,0,0,0,0,0,0,0,-1,727,449,0,0
-490,575,0,0,0,0,0,0,0,0,0,-1,734,449,0,0
-483,575,0,0,0,0,0,0,0,0,0,-1,741,449,0,0
-476,575,0,0,0,0,0,0,0,0,0,-1,748,449,0,0
-469,575,0,0,0,0,0,0,0,0,0,-1,755,449,0,0
-462,575,0,0,0,0,0,0,0,0,0,-1,762,449,0,0
-455,575,0,0,0,0,0,0,0,0,0,-1,769,449,0,0
-448,575,0,0,0,0,0,0,0,0,0,-1,776,449,0,0
-441,575,0,0,0,0,0,0,0,0,0,-1,783,449,0,0
-434,575,0,0,0,0,0,0,0,0,0,-1,790,449,0,0
-427,575,0,0,0,0,0,0,0,0,0,-1,797,449,0,0
-420,575,0,0,0,0,0,0,0,0,0,-1,804,449,0,0
-413,575,0,0,0,0,0,0,0,0,0,-1,811,449,0,0
-406,575,0,0,0,0,0,0,0,0,0,-1,818,449,0,0
-399,575,0,0,0,0,0,0,0,0,0,-1,825,449,0,0
-392,575,0,0,0,0,0,0,0,0,0,-1,832,449,0,0
-385,575,0,0,0,0,0,0,0,0,0,-1,839,449,0,0
-378,575,0,0,0,0,0,0,0,0,0,-1,846,449,0,0
-371,575,3.48358,-0.922089,0,0,0,0,0,0,0,-1,853,449,3.48361,0.922074
-364,575,2.63416,-1.10339,-0.058791,0.0469218,0.0444328,0.0631166,-0.0749859,1.22128,0.0798316,0.0478235,860,449,2.63415,1.10339
-357,575,2.17505,-1.27948,-0.0413768,0.0362932,0.0419169,0.0546,-0.0596836,1.15902,0.0660034,0.0482557,867,449,2.17504,1.27948
-350,575,2.62451,-2.25183,0,0,0,0,0,0,0,-1,874,449,2.62449,2.25184
-343,575,2.51501,-1.7626,-0.0184772,0.0193096,0.0357229,0.0408276,-0.0399952,1.02864,0.0466639,0.0466577,881,449,2.51502,1.76259
-336,575,2.40594,-1.10342,-0.0115644,0.0126225,0.032179,0.0349055,-0.0338474,0.965142,0.039696,0.0444815,888,449,2.40592,1.10342
-329,575,2.11041,-0.635681,-0.0100325,0.00769554,0.0284153,0.0285973,-0.0309343,0.936588,0.0343794,0.0444309,895,449,2.11043,0.635695
-322,575,1.48285,-0.744049,0,0,0,0,0,0,0,-1,902,449,1.48287,0.744041
-315,575,1.40204,-0.737854,-0.0074427,0.00117256,0.0199676,0.0172919,-0.023562,0.891636,0.0236794,0.0455658,909,449,1.40205,0.737858
-308,575,1.4718,-0.657318,-0.00597261,0.000542703,0.0162116,0.0138207,-0.0192506,0.884551,0.0191793,0.0409975,916,449,1.47181,0.657313
-301,575,1.56,-0.609375,-0.00461326,-0.00152399,0.0122587,0.00928704,-0.0154243,0.848069,0.014413,0.029616,923,449,1.56,0.609388
-294,575,1.51794,-0.618652,-0.00473459,-0.00140186,0.00923993,0.00632076,-0.0124572,0.874611,0.0110327,0.02195,930,449,1.51792,0.618639
-287,575,1.53662,-0.688141,-0.00449051,-0.00140824,0.00655994,0.00378917,-0.00968792,0.900772,0.00802559,0.0158983,937,449,1.53664,0.688128
-280,575,1.57129,-0.726227,-0.00389234,-0.00151783,0.0041792,0.00163948,-0.00704966,0.923796,0.00533097,0.0125946,944,449,1.57132,0.726229
-273,575,1.56775,-0.754669,-0.00284693,-0.00162598,0.00237348,0.000214277,-0.00468719,0.911273,0.00319861,0.0111711,951,449,1.56775,0.754669
-266,575,1.56281,-0.819427,-0.00157811,-0.00169072,0.00135924,-0.000274006,-0.00299482,0.764698,0.00191177,0.0122973,958,449,1.56283,0.819434
-259,575,1.56763,-0.858337,-0.000536066,-0.00172114,0.00087019,-7.58291e-05,-0.00218137,0.486493,0.00142964,0.0127066,965,449,1.56763,0.858331
-252,575,1.55933,-0.869019,0.00030214,-0.00169908,0.000568812,0.000452515,-0.00184946,0.258455,0.00140826,0.0116998,972,449,1.55933,0.869027
-245,575,1.53571,-0.889099,0.000939265,-0.00168154,7.41068e-05,0.000941359,-0.00168363,0.0282463,0.0015356,0.013507,979,449,1.53569,0.889111
-238,575,1.52356,-0.901642,0.00155278,-0.00113983,-0.000539519,0.00165686,-0.00124391,-0.190572,0.00168041,0.0128727,986,449,1.52354,0.901636
-231,575,1.53516,-0.931732,0.0018428,3.51464e-05,-0.00100419,0.00229001,-0.000412064,-0.418976,0.00168095,0.0113182,993,449,1.53518,0.931722
-224,575,1.54871,-0.955139,0.00220162,0.00179039,-0.00115275,0.00316695,0.000825062,-0.697142,0.00189706,0.0115059,1000,449,1.54871,0.955125
-217,575,1.5567,-0.979889,0.00203644,0.00341623,-0.00137986,0.00426905,0.00118362,-1.01721,0.00254496,0.00986287,1007,449,1.5567,0.979904
-210,575,1.58142,-1.02176,0.00163779,0.00546421,-0.00166401,0.0060866,0.0010154,-1.21287,0.00376519,0.00832265,1014,449,1.58139,1.02176
-203,575,1.58417,-1.04495,0.00133322,0.00791165,-0.00200926,0.00847679,0.000768075,-1.29661,0.00541336,0.0107847,1021,449,1.58417,1.04496
-196,575,1.58508,-1.07962,0.00113097,0.0103969,-0.0023773,0.0109712,0.000556645,-1.33375,0.00713583,0.0131948,1028,449,1.5851,1.07961
-189,575,1.57129,-1.11356,0.00125952,0.0129187,-0.00261175,0.013477,0.000701199,-1.36019,0.0087603,0.0143587,1035,449,1.57134,1.11357
-182,575,1.56494,-1.14093,0.00158043,0.0162288,-0.00310924,0.0168615,0.000947795,-1.37007,0.0109387,0.0138291,1042,449,1.56494,1.14093
-175,575,1.57581,-1.14395,0.00183996,0.0186541,-0.00333902,0.0192929,0.00120115,-1.38177,0.0124808,0.0110713,1049,449,1.57581,1.14395
-168,575,1.58203,-1.15692,0.00198485,0.0206156,-0.0034989,0.021251,0.00134942,-1.39115,0.0137397,0.00941597,1056,449,1.582,1.15692
-161,575,1.55212,-1.18246,0.00215077,0.0221354,-0.00354613,0.022746,0.00154019,-1.40029,0.0146776,0.0129937,1063,449,1.55212,1.18246
-154,575,1.56079,-1.20361,0.00233449,0.0231018,-0.0035797,0.0237015,0.00173477,-1.4048,0.0152557,0.0143257,1070,449,1.56076,1.2036
-147,575,1.58105,-1.20386,0.00248427,0.0233042,-0.00343461,0.0238562,0.00193231,-1.41145,0.0153008,0.0124179,1077,449,1.58109,1.20386
-140,575,1.60583,-1.1835,0.00259261,0.0229895,-0.00332432,0.0235176,0.00206448,-1.41324,0.0150376,0.0174966,1084,449,1.60581,1.1835
-133,575,1.64697,-1.18002,0.00272161,0.0206374,-0.0037358,0.0213852,0.00197384,-1.37324,0.0136465,0.026948,1091,449,1.64699,1.18003
-126,575,1.67334,-1.12897,0.00215427,0.0180752,-0.00521251,0.0196299,0.000599519,-1.28092,0.0128914,0.0309428,1098,449,1.67334,1.12895
-119,575,1.48792,-1.04367,0.000737301,0.0173016,-0.0073985,0.020125,-0.00208603,-1.20624,0.0141633,0.0345628,1105,449,1.48792,1.04366
-112,575,1.5575,-1.08127,-0.00204613,0.0161776,-0.0101704,0.0207209,-0.00658938,-1.15068,0.0164562,0.0411115,1112,449,1.55744,1.08127
-105,575,1.646,-1.1568,-0.00528727,0.0148433,-0.0139533,0.0219828,-0.0124267,-1.09786,0.0201201,0.040492,1119,449,1.646,1.15681
-98,575,1.54907,-1.20764,-0.00816288,0.0139536,-0.017189,0.0233342,-0.0175435,-1.07124,0.0236795,0.0425226,1126,449,1.54909,1.20764
-91,575,1.40466,-1.30438,0,0,0,0,0,0,0,-1,1133,449,1.4047,1.30437
-84,575,2.04712,-1.08078,0,0,0,0,0,0,0,-1,1140,449,2.04714,1.08077
-77,575,0.795654,-1.39853,-0.0184045,0.0148572,-0.0272516,0.0301518,-0.0336991,-1.05937,0.0368833,0.0426759,1147,449,0.795705,1.39854
-70,575,0.484375,-1.7326,-0.0197185,0.0161986,-0.0282285,0.0316969,-0.0352168,-1.0687,0.0386505,0.0471323,1154,449,0.484395,1.73261
-63,575,0.256958,-2.33072,0,0,0,0,0,0,0,-1,1161,449,0.256993,2.33071
-56,575,-0.513672,-2.09262,0,0,0,0,0,0,0,-1,1168,449,-0.513615,2.09262
-49,575,-1.19238,-3.28647,0,0,0,0,0,0,0,-1,1175,449,-1.19232,3.28646
-42,575,-0.830322,0.773499,0,0,0,0,0,0,0,-1,1182,449,-0.83038,-0.77351
-35,575,-0.62085,0.205139,0,0,0,0,0,0,0,-1,1189,449,-0.620855,-0.205126
-28,575,-0.111084,-1.05933,0,0,0,0,0,0,0,-1,1196,449,-0.111091,1.05932
-21,575,0.357056,-1.12143,-0.0277948,-0.0922241,0.00800999,-0.0268139,-0.093205,0.121851,0.0554055,0.0482226,1203,449,0.357033,1.12142
-14,575,0.807373,-1.19083,-0.019697,-0.098458,0.00846579,-0.0187973,-0.0993577,0.105876,0.0609467,0.0480477,1210,449,0.807316,1.19084
-7,575,0.518311,-1.1673,0,0,0,0,0,0,0,-1,1217,449,0.518291,1.16729
0,575,0.264282,0.234802,0.00524259,-0.0858912,0.00217085,0.00529427,-0.0859429,0.0238025,0.0591391,0.0434483,1224,449,0.264303,-0.234807
7,575,-0.317627,0.685791,0.020006,-0.0582323,-0.0114026,0.021634,-0.0598603,-0.141812,0.0487456,0.045225,1231,449,-0.317578,-0.68579
14,575,-0.958862,0.987305,0.0354912,-0.0258862,-0.0268928,0.0456072,-0.0360022,-0.359786,0.0472258,0.0476248,1238,449,-0.958834,-0.987308
21,575,1.49341,-0.808319,0,0,0,0,0,0,0,-1,1245,449,1.49337,0.808319
28,575,1.65063,-1.19888,0,0,0,0,0,0,0,-1,1252,449,1.65069,1.19888
35,575,1.98022,-1.46973,0,0,0,0,0,0,0,-1,1259,449,1.98026,1.46974
42,575,2.30786,-1.40125,0.0828827,0.103281,-0.0852895,0.178979,0.0071847,-0.844907,0.116998,0.0443113,1266,449,2.30783,1.40124
49,575,4.28894,-4.14633,0.0925971,0.12652,-0.0945993,0.205667,0.0134509,-0.874106,0.132855,0.0441057,1273,449,4.28895,4.14634
56,575,3.74524,-3.99454,0.0993668,0.142438,-0.100392,0.223578,0.0182259,-0.891053,0.143364,0.0445315,1280,449,3.74529,3.99454
63,575,3.31421,-2.50992,0,0,0,0,0,0,0,-1,1287,449,3.31418,2.50992
70,575,4.20081,-2.72046,0.107012,0.142016,-0.102133,0.228136,0.0208921,-0.870258,0.145627,0.0407527,1294,449,4.20085,2.72045
77,575,3.54749,-2.2652,0.0986185,0.127843,-0.0951002,0.209447,0.0170144,-0.861627,0.134319,0.0481474,1301,449,3.54753,2.2652
84,575,3.79028,-2.41714,0.0875427,0.105172,-0.0824327,0.17926,0.0134547,-0.838662,0.115284,0.0468568,1308,449,3.7903,2.41716
91,575,2.13562,-1.73096,0,0,0,0,0,0,0,-1,1315,449,2.1356,1.73097
98,575,1.07275,-1.79733,0,0,0,0,0,0,0,-1,1322,449,1.0728,1.79732
105,575,0.758179,-0.85257,0.0707615,0.0242156,-0.0487519,0.101511,-0.0065335,-0.562706,0.0699533,0.0412788,1329,449,0.758206,0.852567
112,575,1.29358,-0.0050354,0.0642842,0.000825592,-0.0408287,0.0842631,-0.0191533,-0.455078,0.0635296,0.0412504,1336,449,1.29354,0.00504329
119,575,1.84021,0.730591,0.052924,-0.0171511,-0.0330347,0.0660416,-0.0302687,-0.377992,0.056869,0.0435111,1343,449,1.84018,-0.730597
126,575,2.14783,0.644867,0.0414674,-0.0332512,-0.0262134,0.0497465,-0.0415303,-0.305918,0.0527698,0.0441686,1350,449,2.14785,-0.644879
133,575,2.24915,1.14474,0.0322951,-0.0467732,-0.0215781,0.0378006,-0.0522786,-0.24981,0.0522307,0.0436139,1357,449,2.24919,-1.14474
140,575,2.40613,1.39352,0.0272035,-0.0544413,-0.0211666,0.0323647,-0.0596025,-0.239171,0.053868,0.0444572,1364,449,2.40607,-1.39353
147,575,2.80029,1.59195,0.0214442,-0.0595333,-0.0219639,0.0270179,-0.065107,-0.248521,0.0546827,0.047077,1371,449,2.80032,-1.59196
154,575,3.19226,1.67303,0.0129494,-0.0620182,-0.0229898,0.0194379,-0.0685067,-0.27508,0.0533443,0.04329,1378,449,3.19228,-1.67303
161,575,3.48523,1.76901,0,0,0,0,0,0,0,-1,1385,449,3.48525,-1.76901
168,575,3.95776,2.01065,0,0,0,0,0,0,0,-1,1392,449,3.9578,-2.01066
175,575,4.32617,1.93634,0,0,0,0,0,0,0,-1,1399,449,4.32612,-1.93634
182,575,4.34351,0.888519,0,0,0,0,0,0,0,-1,1406,449,4.34352,-0.888507
189,575,3.0542,-1.1412,0,0,0,0,0,0,0,-1,1413,449,3.0542,1.14121
196,575,3.61304,-0.729218,0,0,0,0,0,0,0,-1,1420,449,3.61298,0.72922
203,575,2.53015,-0.359528,-0.0243497,-0.00731427,-0.0248996,0.0104842,-0.0421481,-0.9502,0.0321681,0.0448556,1427,449,2.53013,0.359533
210,575,1.08472,-0.425873,-0.0289751,0.00213859,-0.0210741,0.0127759,-0.0396124,-1.10335,0.0315415,0.0468735,1434,449,1.08467,0.425861
217,575,1.33911,-0.866333,0,0,0,0,0,0,0,-1,1441,449,1.33914,0.86634
224,575,2.13464,-1.26917,-0.0168248,0.0046056,-0.0115945,0.00967801,-0.0218972,-1.1584,0.0186794,0.0407651,1448,449,2.13466,1.26916
231,575,1.59961,-1.26422,-0.0103528,0.00543775,-0.00775992,0.00861278,-0.0135278,-1.18242,0.0128875,0.0409418,1455,449,1.59958,1.26422
238,575,1.11194,-1.33743,-0.00409151,0.00594442,-0.00509006,0.00807409,-0.00622118,-1.17453,0.00827646,0.0412652,1462,449,1.11188,1.33744
245,575,1.36902,-1.32675,0.00126963,0.00636073,-0.00344023,0.00809478,-0.000464418,-1.10391,0.0055578,0.0396597,1469,449,1.36908,1.32676
252,575,1.57935,-1.3223,0.00551005,0.00640082,-0.00220293,0.00820294,0.00370793,-0.885143,0.00474323,0.034816,1476,449,1.57931,1.32229
259,575,1.65625,-1.29416,0.00873052,0.00649415,-0.0020458,0.00994378,0.00528089,-0.535294,0.00574474,0.0310724,1483,449,1.65625,1.29415
266,575,1.90662,-1.30301,0.0101918,0.00596124,-0.00272466,0.0115259,0.00462716,-0.45532,0.00669744,0.025659,1490,449,1.90663,1.303
273,575,1.90186,-1.26581,0.00988334,0.00411775,-0.00339845,0.011457,0.00254409,-0.433655,0.00694702,0.0175692,1497,449,1.90181,1.26581
280,575,1.89246,-1.2496,0.00952576,0.00269011,-0.00415816,0.0114905,0.000725384,-0.441405,0.00743033,0.0132752,1504,449,1.89245,1.24959
287,575,1.90125,-1.23178,0.00883175,0.00148269,-0.00514455,0.0114793,-0.00116485,-0.475283,0.00806922,0.011299,1511,449,1.90127,1.23178
294,575,1.89172,-1.19949,0.00726075,0.000345553,-0.00564892,0.0104262,-0.00281994,-0.510771,0.00805702,0.00962976,1518,449,1.89176,1.19951
301,575,1.91846,-1.17999,0.00534444,-0.000684145,-0.00620951,0.00923261,-0.00457232,-0.559436,0.00812025,0.00919789,1525,449,1.9185,1.18
308,575,1.94055,-1.15637,0.00392966,-0.00134066,-0.00627137,0.00809701,-0.00550801,-0.586504,0.00790213,0.0101274,1532,449,1.94061,1.15637
315,575,1.91919,-1.13135,0.00233311,-0.00166741,-0.00624222,0.00688772,-0.00622202,-0.630347,0.00757216,0.0103257,1539,449,1.91923,1.13135
322,575,1.91797,-1.09821,0.00132089,-0.00266848,-0.00600999,0.00565856,-0.00700615,-0.62517,0.00732576,0.00908013,1546,449,1.91797,1.09819
329,575,1.92725,-1.07095,0.000925202,-0.00220384,-0.00466323,0.00427937,-0.00555801,-0.623548,0.00569558,0.00977166,1553,449,1.9273,1.07095
336,575,1.92798,-1.05527,0.00091016,-0.00147905,-0.00293412,0.00288354,-0.00345243,-0.592074,0.00366298,0.0120364,1560,449,1.92797,1.05527
343,575,1.93518,-1.04523,0.000957071,-9.23488e-05,-0.00124801,0.00178619,-0.000921466,-0.586398,0.00158962,0.0114399,1567,449,1.93512,1.04522
350,575,1.93054,-1.0235,0.0011782,0.00144191,5.14359e-05,0.00145159,0.00116852,1.38483,0.000888531,0.0102469,1574,449,1.93059,1.02349
357,575,1.92786,-0.983826,0.00121446,0.00363684,0.000904667,0.0039374,0.000913891,1.25003,0.00237954,0.0105397,1581,449,1.92783,0.983827
364,575,1.92395,-0.941376,0.00125121,0.0048276,0.00169724,0.00550482,0.000573989,1.19114,0.0034943,0.0102734,1588,449,1.92389,0.941384
371,575,1.89868,-0.93338,0.0011086,0.00586774,0.00245684,0.00690846,6.78753e-05,1.17011,0.00458318,0.0184755,1595,449,1.89863,0.933377
378,575,1.90686,-0.922363,0.000751773,0.00751841,0.00334129,0.0088902,-0.00062002,1.18122,0.00614391,0.0173678,1602,449,1.90687,0.922372
385,575,1.9115,-0.874603,0.000538946,0.00888252,0.00397343,0.010472,-0.00105051,1.19027,0.00735653,0.0106219,1609,449,1.9115,0.874589
392,575,1.91736,-0.849609,0.00146056,0.0101214,0.00442634,0.0119833,-0.000401358,1.17262,0.00812599,0.00994302,1616,449,1.91734,0.849616
399,575,1.94189,-0.816895,0.00319453,0.0108136,0.00484388,0.0131665,0.000841617,1.11861,0.008511,0.0106148,1623,449,1.94191,0.816902
406,575,1.93274,-0.768616,0.0047643,0.0109931,0.00502902,0.013794,0.00196342,1.06264,0.00861641,0.0102368,1630,449,1.93276,0.768629
413,575,1.9248,-0.748962,0.0067433,0.0106591,0.00507863,0.0141442,0.00325823,0.969378,0.0085528,0.0101256,1637,449,1.92479,0.748974
420,575,1.92493,-0.734711,0.00946285,0.00990969,0.00508952,0.0147807,0.00459185,0.807333,0.00873519,0.0103047,1644,449,1.92493,0.734724
427,575,1.91809,-0.726532,0.0130411,0.00929442,0.00560822,0.0170806,0.00525495,0.624206,0.0101018,0.0137725,1651,449,1.91814,0.726526
434,575,1.89587,-0.716339,0.016425,0.0086802,0.00722534,0.0207502,0.00435498,0.539403,0.0126345,0.0190733,1658,449,1.89583,0.716329
441,575,1.91833,-0.714355,0.0192768,0.0107466,0.00840548,0.0244374,0.00558604,0.550614,0.0147856,0.0358052,1665,449,1.91837,0.714367
448,575,1.84009,-0.690643,0,0,0,0,0,0,0,-1,1672,449,1.84008,0.690629
455,575,0.756592,-0.954712,0,0,0,0,0,0,0,-1,1679,449,0.756616,0.954708
462,575,1.96558,-0.466888,0,0,0,0,0,0,0,-1,1686,449,1.96563,0.466879
469,575,2.00659,-0.405029,0,0,0,0,0,0,0,-1,1693,449,2.00664,0.405021
476,575,2.77344,0.115021,0,0,0,0,0,0,0,-1,1700,449,2.77338,-0.115012
483,575,3.26086,0.873596,0,0,0,0,0,0,0,-1,1707,449,3.26089,-0.873583
490,575,1.46167,2.83975,0,0,0,0,0,0,0,-1,1714,449,1.4617,-2.83976
497,575,0,0,0,0,0,0,0,0,0,-1,1721,449,0,0
504,575,0,0,0,0,0,0,0,0,0,-1,1728,449,0,0
511,575,0,0,0,0,0,0,0,0,0,-1,1735,449,0,0
518,575,0,0,0,0,0,0,0,0,0,-1,1742,449,0,0
525,575,0,0,0,0,0,0,0,0,0,-1,1749,449,0,0
532,575,0,0,0,0,0,0,0,0,0,-1,1756,449,0,0
539,575,0,0,0,0,0,0,0,0,0,-1,1763,449,0,0
546,575,0,0,0,0,0,0,0,0,0,-1,1770,449,0,0
553,575,0,0,0,0,0,0,0,0,0,-1,1777,449,0,0
560,575,0,0,0,0,0,0,0,0,0,-1,1784,449,0,0
567,575,0,0,0,0,0,0,0,0,0,-1,1791,449,0,0
574,575,0,0,0,0,0,0,0,0,0,-1,1798,449,0,0
581,575,0,0,0,0,0,0,0,0,0,-1,1805,449,0,0
588,575,0,0,0,0,0,0,0,0,0,-1,1812,449,0,0
595,575,0,0,0,0,0,0,0,0,0,-1,1819,449,0,0
602,575,0,0,0,0,0,0,0,0,0,-1,1826,449,0,0
609,575,0,0,0,0,0,0,0,0,0,-1,1833,449,0,0
616,575,0,0,0,0,0,0,0,0,0,-1,1840,449,0,0
623,575,0,0,0,0,0,0,0,0,0,-1,1847,449,0,0
630,575,0,0,0,0,0,0,0,0,0,-1,1854,449,0,0
637,575,0,0,0,0,0,0,0,0,0,-1,1861,449,0,0
644,575,0,0,0,0,0,0,0,0,0,-1,1868,449,0,0
651,575,0,0,0,0,0,0,0,0,0,-1,1875,449,0,0
658,575,0,0,0,0,0,0,0,0,0,-1,1882,449,0,0
665,575,0,0,0,0,0,0,0,0,0,-1,1889,449,0,0
672,575,0,0,0,0,0,0,0,0,0,-1,1896,449,0,0
679,575,0,0,0,0,0,0,0,0,0,-1,1903,449,0,0
686,575,0,0,0,0,0,0,0,0,0,-1,1910,449,0,0
693,575,0,0,0,0,0,0,0,0,0,-1,1917,449,0,0
700,575,0,0,0,0,0,0,0,0,0,-1,1924,449,0,0
707,575,0,0,0,0,0,0,0,0,0,-1,1931,449,0,0
714,575,0,0,0,0,0,0,0,0,0,-1,1938,449,0,0
721,575,0,0,0,0,0,0,0,0,0,-1,1945,449,0,0
728,575,0,0,0,0,0,0,0,0,0,-1,1952,449,0,0
735,575,0,0,0,0,0,0,0,0,0,-1,1959,449,0,0
742,575,0,0,0,0,0,0,0,0,0,-1,1966,449,0,0
749,575,0,0,0,0,0,0,0,0,0,-1,1973,449,0,0
756,575,0,0,0,0,0,0,0,0,0,-1,1980,449,0,0
763,575,0,0,0,0,0,0,0,0,0,-1,1987,449,0,0
770,575,0,0,0,0,0,0,0,0,0,-1,1994,449,0,0
777,575,0,0,0,0,0,0,0,0,0,-1,2001,449,0,0
784,575,0,0,0,0,0,0,0,0,0,-1,2008,449,0,0
791,575,0,0,0,0,0,0,0,0,0,-1,2015,449,0,0
798,575,0,0,0,0,0,0,0,0,0,-1,2022,449,0,0
805,575,0,0,0,0,0,0,0,0,0,-1,2029,449,0,0
812,575,0,0,0,0,0,0,0,0,0,-1,2036,449,0,0
-700,568,0,0,0,0,0,0,0,0,0,-1,524,456,0,0
-693,568,0,0,0,0,0,0,0,0,0,-1,531,456,0,0
-686,568,0,0,0,0,0,0,0,0,0,-1,538,456,0,0
-679,568,0,0,0,0,0,0,0,0,0,-1,545,456,0,0
-672,568,0,0,0,0,0,0,0,0,0,-1,552,456,0,0
-665,568,0,0,0,0,0,0,0,0,0,-1,559,456,0,0
-658,568,0,0,0,0,0,0,0,0,0,-1,566,456,0,0
-651,568,0,0,0,0,0,0,0,0,0,-1,573,456,0,0
-644,568,0,0,0,0,0,0,0,0,0,-1,580,456,0,0
-637,568,0,0,0,0,0,0,0,0,0,-1,587,456,0,0
-630,568,0,0,0,0,0,0,0,0,0,-1,594,456,0,0
-623,568,0,0,0,0,0,0,0,0,0,-1,601,456,0,0
-616,568,0,0,0,0,0,0,0,0,0,-1,608,456,0,0
-609,568,0,0,0,0,0,0,0,0,0,-1,615,456,0,0
-602,568,0,0,0,0,0,0,0,0,0,-1,622,456,0,0
-595,568,0,0,0,0,0,0,0,0,0,-1,629,456,0,0
-588,568,0,0,0,0,0,0,0,0,0,-1,636,456,0,0
-581,568,0,0,0,0,0,0,0,0,0,-1,643,456,0,0
-574,568,0,0,0,0,0,0,0,0,0,-1,650,456,0,0
-567,568,0,0,0,0,0,0,0,0,0,-1,657,456,0,0
-560,568,0,0,0,0,0,0,0,0,0,-1,664,456,0,0
-553,568,0,0,0,0,0,0,0,0,0,-1,671,456,0,0
-546,568,0,0,0,0,0,0,0,0,0,-1,678,456,0,0
-539,568,0,0,0,0,0,0,0,0,0,-1,685,456,0,0
-532,568,0,0,0,0,0,0,0,0,0,-1,692,456,0,0
-525,568,0,0,0,0,0,0,0,0,0,-1,699,456,0,0
-518,568,0,0,0,0,0,0,0,0,0,-1,706,456,0,0
-511,568,0,0,0,0,0,0,0,0,0,-1,713,456,0,0
-504,568,0,0,0,0,0,0,0,0,0,-1,720,456,0,0
-497,568,0,0,0,0,0,0,0,0,0,-1,727,456,0,0
-490,568,0,0,0,0,0,0,0,0,0,-1,734,456,0,0
-483,568,0,0,0,0,0,0,0,0,0,-1,741,456,0,0
-476,568,0,0,0,0,0,0,0,0,0,-1,748,456,0,0
-469,568,0,0,0,0,0,0,0,0,0,-1,755,456,0,0
-462,568,0,0,0,0,0,0,0,0,0,-1,762,456,0,0
-455,568,0,0,0,0,0,0,0,0,0,-1,769,456,0,0
-448,568,0,0,0,0,0,0,0,0,0,-1,776,456,0,0
-441,568,0,0,0,0,0,0,0,0,0,-1,783,456,0,0
-434,568,0,0,0,0,0,0,0,0,0,-1,790,456,0,0
-427,568,0,0,0,0,0,0,0,0,0,-1,797,456,0,0
-420,568,0,0,0,0,0,0,0,0,0,-1,804,456,0,0
-413,568,0,0,0,0,0,0,0,0,0,-1,811,456,0,0
-406,568,0,0,0,0,0,0,0,0,0,-1,818,456,0,0
-399,568,0,0,0,0,0,0,0,0,0,-1,825,456,0,0
-392,568,0,0,0,0,0,0,0,0,0,-1,832,456,0,0
-385,568,0,0,0,0,0,0,0,0,0,-1,839,456,0,0
-378,568,3.75378,0.322906,0,0,0,0,0,0,0,-1,846,456,3.75381,-0.322918
-371,568,3.21881,-0.252747,-0.0640157,0.0515414,0.0380633,0.0629523,-0.0754266,1.27954,0.0800012,0.0493796,853,456,3.2188,0.252732
-364,568,2.29047,-0.634979,-0.0480473,0.0424423,0.0328367,0.0531023,-0.0587073,1.25689,0.0645803,0.0479319,860,456,2.29046,0.634971
-357,568,1.86414,-0.836395,-0.0335296,0.0324045,0.0314029,0.0449673,-0.0460924,1.19024,0.0525747,0.0448948,867,456,1.86413,0.836401
-350,568,0.576477,-2.88116,0,0,0,0,0,0,0,-1,874,456,0.576455,2.88115
-343,568,0.988586,-2.06796,-0.0143609,0.0165907,0.0277479,0.0328867,-0.0306569,1.03978,0.0366944,0.0446549,881,456,0.988569,2.06797
-336,568,1.42297,-1.31589,-0.00862136,0.0105618,0.0253659,0.028089,-0.0261486,0.966154,0.0313208,0.0432023,888,456,1.42299,1.3159
-329,568,1.55103,-0.704254,-0.00663254,0.00661485,0.0228178,0.0237509,-0.0237686,0.926659,0.0274354,0.0426136,895,456,1.551,0.704259
-322,568,1.41174,-0.577209,-0.00553468,0.00197036,0.0196248,0.0181982,-0.0217625,0.879865,0.0231019,0.0422245,902,456,1.41174,0.577206
-315,568,1.43341,-0.627808,-0.00399515,0.00118802,0.0163017,0.0151029,-0.01791,0.864226,0.0190829,0.0391882,909,456,1.43343,0.627822
-308,568,1.48798,-0.670288,-0.00264719,0.000948117,0.0133305,0.0126016,-0.0143007,0.85242,0.0155423,0.0255139,916,456,1.48795,0.670276
-301,568,1.54297,-0.655334,-0.00146736,-0.000502763,0.0101238,0.00915025,-0.0111204,0.8092,0.0117217,0.0134027,923,456,1.54299,0.655348
-294,568,1.5426,-0.658844,-0.00162592,-0.000284694,0.00766586,0.00673983,-0.00865044,0.829027,0.00890837,0.0107665,930,456,1.54258,0.658834
-287,568,1.54163,-0.70694,-0.00157245,-9.84021e-05,0.00546651,0.00468055,-0.0063514,0.852407,0.0063936,0.0101119,937,456,1.54163,0.706926
-280,568,1.54218,-0.748108,-0.00126972,-3.79585e-05,0.00353066,0.00293013,-0.00423781,0.871749,0.00416131,0.0109259,944,456,1.54218,0.748096
-273,568,1.53247,-0.770264,-0.000705849,-1.47933e-05,0.00206713,0.00173548,-0.00245613,0.868209,0.00243192,0.0117123,951,456,1.53247,0.77026
-266,568,1.52661,-0.810944,-7.87343e-05,3.89074e-05,0.00126371,0.00124517,-0.00128499,0.808654,0.00146085,0.0113531,958,456,1.52662,0.810933
-259,568,1.54327,-0.851501,0.000291452,0.000131252,0.00087825,0.00109325,-0.000670543,0.739922,0.00102803,0.0124909,965,456,1.5433,0.851508
-252,568,1.52771,-0.868469,0.000581971,0.000364804,0.000539702,0.0010239,-7.71292e-05,0.686127,0.000709711,0.0121059,972,456,1.52773,0.868467
-245,568,1.51117,-0.888458,0.000824947,0.000605001,3.15783e-05,0.000829391,0.000600557,0.139812,0.000494621,0.0129522,979,456,1.51118,0.888455
-238,568,1.5155,-0.905823,0.00112052,0.00145435,-0.00066214,0.00197029,0.000604581,-0.908866,0.00116549,0.0114178,986,456,1.51548,0.905811
-231,568,1.51807,-0.932831,0.00119611,0.00295779,-0.00123416,0.00359321,0.000560699,-1.09533,0.00223217,0.010471,993,456,1.5181,0.932833
-224,568,1.52405,-0.956268,0.001123,0.00519456,-0.00152571,0.00570283,0.000614728,-1.24922,0.00361444,0.0124021,1000,456,1.52406,0.956262
-217,568,1.53992,-0.98465,0.000989161,0.00728003,-0.00198614,0.00785461,0.000414582,-1.28919,0.00510383,0.0104863,1007,456,1.53991,0.984644
-210,568,1.55017,-1.02078,0.000938631,0.00985832,-0.00249939,0.0105109,0.000286025,-1.31539,0.00691391,0.0101748,1014,456,1.55016,1.02078
-203,568,1.54504,-1.05521,0.000921956,0.0128832,-0.00305278,0.0136173,0.000187868,-1.33481,0.0090162,0.00912858,1021,456,1.54504,1.05519
-196,568,1.55286,-1.06598,0.000922236,0.0159013,-0.00349182,0.0166753,0.000148237,-1.35266,0.0110678,0.0116327,1028,456,1.55287,1.06598
-189,568,1.56348,-1.08463,0.00115369,0.0188696,-0.0037486,0.0196301,0.000393154,-1.37063,0.0129577,0.0124018,1035,456,1.56344,1.08463
-182,568,1.55933,-1.12231,0.00162745,0.0228401,-0.00437231,0.023706,0.000761577,-1.37529,0.0155563,0.0139582,1042,456,1.55936,1.12231
-175,568,1.55908,-1.14386,0.00196385,0.0257445,-0.0045809,0.0265964,0.00111195,-1.38693,0.0173722,0.0118718,1049,456,1.55902,1.14385
-168,568,1.54785,-1.15982,0.00216914,0.0281604,-0.00467376,0.0289753,0.00135425,-1.39818,0.0188816,0.0149405,1056,456,1.5479,1.15983
-161,568,1.51196,-1.18402,0.00240568,0.0301006,-0.00460779,0.0308471,0.00165917,-1.41018,0.0200346,0.0212988,1063,456,1.51195,1.18403
-154,568,1.5271,-1.20837,0.00267503,0.0314486,-0.00451847,0.0321415,0.00198215,-1.41864,0.0207985,0.0258738,1070,456,1.52707,1.20837
-147,568,1.55811,-1.22101,0.00288007,0.0318735,-0.00418819,0.0324663,0.0022872,-1.43017,0.0209235,0.0305422,1077,456,1.55816,1.22101
-140,568,1.61072,-1.24323,0.00303225,0.0316518,-0.00393411,0.0321828,0.00250131,-1.43665,0.0206719,0.0349222,1084,456,1.61077,1.24322
-133,568,1.75183,-1.33981,0.00322432,0.0283283,-0.00446456,0.0290987,0.00245397,-1.39993,0.0186351,0.0387271,1091,456,1.75183,1.33982
-126,568,1.79846,-1.27658,0.00257223,0.024768,-0.00657444,0.0265692,0.000771027,-1.30339,0.0174614,0.0440194,1098,456,1.79851,1.27657
-119,568,1.56421,-1.07227,0.000810576,0.0230942,-0.00950971,0.0266007,-0.00269598,-1.21753,0.0186974,0.0465519,1105,456,1.56417,1.07226
-112,568,1.48608,-1.20801,-0.00237992,0.0213423,-0.0132101,0.0272349,-0.00827248,-1.15122,0.0214525,0.0466276,1112,456,1.48611,1.208
-105,568,1.47742,-1.4689,0,0,0,0,0,0,0,-1,1119,456,1.47741,1.46891
-98,568,1.62756,-0.988312,0,0,0,0,0,0,0,-1,1126,456,1.62751,0.988313
-91,568,2.6521,-0.617188,0,0,0,0,0,0,0,-1,1133,456,2.65214,0.617174
-84,568,0.406128,-0.998352,0,0,0,0,0,0,0,-1,1140,456,0.406133,0.998351
-77,568,0.601685,-1.78363,-0.020395,0.0162462,-0.0356562,0.0380131,-0.0421619,-1.02272,0.0463097,0.0427485,1147,456,0.601714,1.78364
-70,568,0.416504,-3.12054,-0.0222096,0.0178402,-0.0374856,0.0403143,-0.0446837,-1.03072,0.0490952,0.0417784,1154,456,0.416469,3.12054
-63,568,-0.152222,-4.4194,-0.0235215,0.0082624,-0.0362797,0.0319782,-0.0472373,-0.99183,0.0460171,0.046034,1161,456,-0.152252,4.41941
-56,568,-0.700684,-5.88092,-0.0293142,-0.0109912,-0.0317494,0.012892,-0.0531975,-0.925861,0.040453,0.0467681,1168,456,-0.700632,5.88093
-49,568,-1.05188,-7.59601,0,0,0,0,0,0,0,-1,1175,456,-1.05193,7.59599
-42,568,-0.664795,0.521973,0,0,0,0,0,0,0,-1,1182,456,-0.664829,-0.521984
-35,568,-0.509033,0.325623,0,0,0,0,0,0,0,-1,1189,456,-0.508985,-0.325627
-28,568,-0.184814,0.185883,0,0,0,0,0,0,0,-1,1196,456,-0.184875,-0.185883
-21,568,-0.00720215,-0.903442,0,0,0,0,0,0,0,-1,1203,456,-0.00715845,0.903434
-14,568,0.454468,-1.28018,-0.0332942,-0.127755,0.00650292,-0.0328486,-0.128201,0.0684123,0.076893,0.0423736,1210,456,0.454464,1.28018
-7,568,-0.170776,0.565155,-0.0208776,-0.127992,0.00837587,-0.0202266,-0.128643,0.0775669,0.0798784,0.0458262,1217,456,-0.170744,-0.56517
0,568,-0.19397,1.50836,-0.00311076,-0.113568,0.00191265,-0.00307765,-0.113601,0.0173089,0.0747291,0.0479713,1224,456,-0.19391,-1.50836
7,568,-0.714233,2.33792,0.0173125,-0.0770498,-0.0151032,0.0196709,-0.0794083,-0.154902,0.0605701,0.0442682,1231,456,-0.714266,-2.33791
14,568,-1.36987,2.72433,0.0379403,-0.0341848,-0.0347066,0.0519283,-0.0481728,-0.383121,0.057807,0.0421661,1238,456,-1.36984,-2.72433
21,568,1.72729,-0.496338,0.0581562,0.0103339,-0.0548779,0.094106,-0.0256159,-0.579942,0.0727941,0.04068,1245,456,1.72733,0.496328
28,568,2.12158,-1.3031,0.0762291,0.054404,-0.0749185,0.141026,-0.0103926,-0.713078,0.0976658,0.0412519,1252,456,2.12153,1.3031
35,568,2.47559,-1.74921,0.0885103,0.0943256,-0.0921525,0.183616,-0.000780381,-0.801169,0.122672,0.0439845,1259,456,2.47555,1.74921
42,568,6.5238,-5.70999,0,0,0,0,0,0,0,-1,1266,456,6.52382,5.71
49,568,6.2948,-5.70187,0.114973,0.157599,-0.117867,0.256065,0.0165073,-0.874843,0.165482,0.0457937,1273,456,6.29485,5.70186
56,568,5.86829,-5.52826,0.125435,0.177886,-0.125739,0.280105,0.0232159,-0.888208,0.179499,0.0454968,1280,456,5.86829,5.52826
63,568,4.36206,-3.45425,0,0,0,0,0,0,0,-1,1287,456,4.36205,3.45426
70,568,5.98792,-3.19604,0.136331,0.176482,-0.128065,0.286036,0.0267773,-0.863145,0.182421,0.0418479,1294,456,5.98794,3.19604
77,568,7.78259,-2.73367,0.125481,0.159533,-0.119836,0.263546,0.021468,-0.855965,0.168997,0.0432905,1301,456,7.78258,2.73367
84,568,4.65955,-2.68628,0,0,0,0,0,0,0,-1,1308,456,4.65949,2.68628
91,568,11.3124,-1.91315,0.103113,0.0928064,-0.0857524,0.183867,0.0120524,-0.755388,0.118764,0.0433107,1315,456,11.3124,1.91314
98,568,13.5974,-1.89377,0.0953821,0.0640967,-0.074153,0.155524,0.0039544,-0.681446,0.10239,0.0442096,1322,456,13.5974,1.89377
105,568,0.567383,-0.48941,0,0,0,0,0,0,0,-1,1329,456,0.567335,0.489416
112,568,0.737549,0.879578,0,0,0,0,0,0,0,-1,1336,456,0.737599,-0.879566
119,568,1.08936,1.51859,0,0,0,0,0,0,0,-1,1343,456,1.0894,-1.5186
126,568,2.55139,1.37396,0.0475326,-0.0362551,-0.0331264,0.0590471,-0.0477696,-0.334529,0.0617851,0.0458084,1350,456,2.55135,-1.37396
133,568,2.58606,2.1456,0.0354614,-0.0536402,-0.0269229,0.0429645,-0.0611434,-0.271795,0.0604114,0.048022,1357,456,2.58608,-2.14559
140,568,2.73767,2.33774,0.0286816,-0.0641324,-0.0259927,0.0354651,-0.0709159,-0.255283,0.0625456,0.0486308,1364,456,2.73762,-2.33775
147,568,2.96094,2.62241,0.0220446,-0.0709615,-0.0268373,0.029233,-0.0781499,-0.261709,0.064106,0.0457382,1371,456,2.9609,-2.6224
154,568,3.66125,2.76633,0.0127512,-0.0739296,-0.0281866,0.0211107,-0.0822891,-0.288312,0.0630849,0.0430706,1378,456,3.6613,-2.76632
161,568,4.02893,2.74179,0,0,0,0,0,0,0,-1,1385,456,4.02896,-2.74179
168,568,4.00525,2.77975,0,0,0,0,0,0,0,-1,1392,456,4.0053,-2.77976
175,568,4.28333,2.57944,0,0,0,0,0,0,0,-1,1399,456,4.28329,-2.57945
182,568,4.39111,1.94464,0,0,0,0,0,0,0,-1,1406,456,4.39114,-1.94464
189,568,4.66138,1.59784,0,0,0,0,0,0,0,-1,1413,456,4.66136,-1.59785
196,568,3.28027,-0.181183,0,0,0,0,0,0,0,-1,1420,456,3.28029,0.181188
203,568,2.68689,-0.0582275,0,0,0,0,0,0,0,-1,1427,456,2.68684,0.0582276
210,568,0.558228,0.196167,0,0,0,0,0,0,0,-1,1434,456,0.558178,-0.196178
217,568,1.76685,-0.744476,0,0,0,0,0,0,0,-1,1441,456,1.76684,0.744471
224,568,2.26953,-1.13443,-0.0182011,0.00993871,-0.0173104,0.018176,-0.0264384,-1.12665,0.0259049,0.0443469,1448,456,2.26954,1.13444
231,568,1.33862,-1.04623,-0.0105666,0.0101692,-0.0119003,0.0155845,-0.0159819,-1.14374,0.0182254,0.0441264,1455,456,1.33867,1.04623
238,568,0.622192,-1.33759,0,0,0,0,0,0,0,-1,1462,456,0.622222,1.33758
245,568,1.03687,-1.49368,0.00325097,0.00973453,-0.00519313,0.0126147,0.000370845,-1.06443,0.00828892,0.0476392,1469,456,1.03683,1.49367
252,568,1.33179,-1.46643,0.00827914,0.0090345,-0.00326231,0.0119409,0.00537272,-0.843027,0.0069056,0.0448061,1476,456,1.33182,1.46644
259,568,1.40869,-1.38284,0.0119784,0.0085291,-0.00286582,0.0135985,0.00690901,-0.514526,0.00785145,0.0429472,1483,456,1.40868,1.38286
266,568,1.68079,-1.17581,0.0137292,0.00741977,-0.00357718,0.015344,0.00580495,-0.424035,0.0089459,0.0444943,1490,456,1.68078,1.17583
273,568,1.62598,-1.15506,0.0134786,0.00472854,-0.00432564,0.015256,0.00295117,-0.389861,0.00934358,0.0442168,1497,456,1.62595,1.15505
280,568,1.75525,-1.21826,0.0130568,0.00279269,-0.00534172,0.0153323,0.000517187,-0.402706,0.0100536,0.0349526,1504,456,1.75519,1.21826
287,568,1.87708,-1.21194,0.0121596,0.00127858,-0.00667893,0.0153334,-0.00189528,-0.443616,0.0109091,0.0233126,1511,456,1.87705,1.21196
294,568,1.96924,-1.20953,0.0102721,-4.36058e-05,-0.00743895,0.0141664,-0.0039379,-0.482271,0.0109945,0.0180461,1518,456,1.96928,1.20954
301,568,1.95032,-1.18246,0.00789997,-0.00121734,-0.00827411,0.0127881,-0.0061055,-0.53361,0.0111334,0.0138645,1525,456,1.95026,1.18248
308,568,1.95813,-1.15845,0.0060292,-0.00193733,-0.00843016,0.0113698,-0.00727791,-0.564694,0.0108523,0.0108107,1532,456,1.95817,1.15844
315,568,1.94324,-1.12924,0.00381451,-0.00224847,-0.00842147,0.0097335,-0.00816746,-0.612633,0.0103483,0.00798658,1539,456,1.94327,1.12926
322,568,1.92993,-1.10535,0.00222369,-0.00345891,-0.00818946,0.00805073,-0.00928596,-0.618422,0.0100178,0.00921525,1546,456,1.92998,1.10536
329,568,1.95667,-1.08252,0.00132914,-0.00283606,-0.00660814,0.00617509,-0.007682,-0.632746,0.00801615,0.0096555,1553,456,1.95672,1.08252
336,568,1.97656,-1.05249,0.000892138,-0.00203115,-0.00465271,0.00430739,-0.0054464,-0.633205,0.00564413,0.0104739,1560,456,1.97662,1.0525
343,568,1.98535,-1.03516,0.000619361,-0.000542266,-0.0026715,0.00277246,-0.00269536,-0.678358,0.00315695,0.010362,1567,456,1.98537,1.03515
350,568,1.95947,-1.02496,0.000588257,0.000821552,-0.00116992,0.00188063,-0.00047082,-0.835087,0.00143664,0.0093571,1574,456,1.9595,1.02498
357,568,1.94336,-0.992493,0.000359082,0.00246461,-0.000346383,0.00252013,0.000303562,-1.41186,0.0015886,0.0094224,1581,456,1.94339,0.992483
364,568,1.95044,-0.944275,0.000188431,0.00319551,0.000437176,0.00325777,0.000126163,1.42931,0.00213104,0.0115709,1588,456,1.95049,0.944268
371,568,1.94141,-0.926117,-0.000101485,0.00383125,0.00108057,0.00410859,-0.000378825,1.31956,0.00287367,0.0198023,1595,456,1.94142,0.926126
378,568,1.95813,-0.898682,-0.000430317,0.00502859,0.00170139,0.00551544,-0.000917172,1.29209,0.00401773,0.0170357,1602,456,1.9581,0.898683
385,568,1.9469,-0.874146,-0.00062107,0.00596012,0.00210568,0.00657617,-0.00123712,1.28617,0.00484938,0.00805445,1609,456,1.94691,0.874158
392,568,1.94141,-0.845032,0.000132224,0.00684709,0.00249697,0.00767382,-0.000694507,1.25106,0.00536239,0.010117,1616,456,1.94142,0.845036
399,568,1.9209,-0.807312,0.00153271,0.00728649,0.0028596,0.00846593,0.000353267,1.1796,0.00552996,0.0169432,1623,456,1.9209,0.807299
406,568,1.94934,-0.807068,0.00281326,0.00737053,0.00310342,0.00894201,0.00124177,1.10207,0.00559355,0.0151069,1630,456,1.94931,0.807077
413,568,1.9646,-0.774597,0.00437926,0.00710089,0.00322874,0.00924387,0.00223628,0.984836,0.00556889,0.0116822,1637,456,1.96458,0.774606
420,568,1.96802,-0.729858,0.0064222,0.00657811,0.0034047,0.00990575,0.00309457,0.796844,0.00585173,0.00938243,1644,456,1.96799,0.729871
427,568,1.95471,-0.690887,0.00902332,0.00620426,0.00414509,0.011992,0.0032356,0.621507,0.00716397,0.00994042,1651,456,1.95468,0.690902
434,568,1.93567,-0.686646,0.0112927,0.00599324,0.00582039,0.0150381,0.00224781,0.571793,0.00936648,0.012912,1658,456,1.93571,0.686652
441,568,1.90991,-0.666443,0.0130459,0.00820043,0.00729939,0.0183141,0.00293222,0.625164,0.0113589,0.0201221,1665,456,1.90989,0.666442
448,568,1.91016,-0.655823,0.014901,0.011283,0.00899496,0.0222671,0.00391697,0.686165,0.0137266,0.0383099,1672,456,1.9102,0.655819
455,568,1.93677,-0.642487,0,0,0,0,0,0,0,-1,1679,456,1.93676,0.642473
462,568,1.98999,-0.563812,0.0164613,0.0180344,0.014187,0.0314566,0.00303912,0.813091,0.020035,0.0480477,1686,456,1.99002,0.563823
469,568,2.01147,-0.458954,0.0154363,0.0258841,0.0173594,0.0387886,0.00253177,0.931551,0.0250578,0.0444478,1693,456,2.01153,0.458963
476,568,2.45313,-0.170319,0.0137865,0.0351347,0.0206067,0.0476677,0.00125348,1.02437,0.031369,0.0460326,1700,456,2.45316,0.170328
483,568,2.91589,0.225769,0.0109775,0.0442715,0.023066,0.0560703,-0.000821315,1.09797,0.037657,0.0450062,1707,456,2.91586,-0.225773
490,568,1.67163,1.90439,0.00722584,0.0536262,0.0248525,0.0644245,-0.00357243,1.16091,0.0441886,0.0446299,1714,456,1.6716,-1.90438
497,568,1.79492,1.98813,0.000664466,0.0630574,0.026753,0.0729576,-0.00923583,1.21636,0.0519912,0.0454085,1721,456,1.79494,-1.98813
504,568,0,0,0,0,0,0,0,0,0,-1,1728,456,0,0
511,568,0,0,0,0,0,0,0,0,0,-1,1735,456,0,0
518,568,0,0,0,0,0,0,0,0,0,-1,1742,456,0,0
525,568,0,0,0,0,0,0,0,0,0,-1,1749,456,0,0
532,568,0,0,0,0,0,0,0,0,0,-1,1756,456,0,0
539,568,0,0,0,0,0,0,0,0,0,-1,1763,456,0,0
546,568,0,0,0,0,0,0,0,0,0,-1,1770,456,0,0
553,568,0,0,0,0,0,0,0,0,0,-1,1777,456,0,0
560,568,0,0,0,0,0,0,0,0,0,-1,1784,456,0,0
567,568,0,0,0,0,0,0,0,0,0,-1,1791,456,0,0
574,568,0,0,0,0,0,0,0,0,0,-1,1798,456,0,0
581,568,0,0,0,0,0,0,0,0,0,-1,1805,456,0,0
588,568,0,0,0,0,0,0,0,0,0,-1,1812,456,0,0
595,568,0,0,0,0,0,0,0,0,0,-1,1819,456,0,0
602,568,0,0,0,0,0,0,0,0,0,-1,1826,456,0,0
609,568,0,0,0,0,0,0,0,0,0,-1,1833,456,0,0
616,568,0,0,0,0,0,0,0,0,0,-1,1840,456,0,0
623,568,0,0,0,0,0,0,0,0,0,-1,1847,456,0,0
630,568,0,0,0,0,0,0,0,0,0,-1,1854,456,0,0
637,568,0,0,0,0,0,0,0,0,0,-1,1861,456,0,0
644,568,0,0,0,0,0,0,0,0,0,-1,1868,456,0,0
651,568,0,0,0,0,0,0,0,0,0,-1,1875,456,0,0
658,568,0,0,0,0,0,0,0,0,0,-1,1882,456,0,0
665,568,0,0,0,0,0,0,0,0,0,-1,1889,456,0,0
672,568,0,0,0,0,0,0,0,0,0,-1,1896,456,0,0
679,568,0,0,0,0,0,0,0,0,0,-1,1903,456,0,0
686,568,0,0,0,0,0,0,0,0,0,-1,1910,456,0,0
693,568,0,0,0,0,0,0,0,0,0,-1,1917,456,0,0
700,568,0,0,0,0,0,0,0,0,0,-1,1924,456,0,0
707,568,0,0,0,0,0,0,0,0,0,-1,1931,456,0,0
714,568,0,0,0,0,0,0,0,0,0,-1,1938,456,0,0
721,568,0,0,0,0,0,0,0,0,0,-1,1945,456,0,0
728,568,0,0,0,0,0,0,0,0,0,-1,1952,456,0,0
735,568,0,0,0,0,0,0,0,0,0,-1,1959,456,0,0
742,568,0,0,0,0,0,0,0,0,0,-1,1966,456,0,0
749,568,0,0,0,0,0,0,0,0,0,-1,1973,456,0,0
756,568,0,0,0,0,0,0,0,0,0,-1,1980,456,0,0
763,568,0,0,0,0,0,0,0,0,0,-1,1987,456,0,0
770,568,0,0,0,0,0,0,0,0,0,-1,1994,456,0,0
777,568,0,0,0,0,0,0,0,0,0,-1,2001,456,0,0
784,568,0,0,0,0,0,0,0,0,0,-1,2008,456,0,0
791,568,0,0,0,0,0,0,0,0,0,-1,2015,456,0,0
798,568,0,0,0,0,0,0,0,0,0,-1,2022,456,0,0
805,568,0,0,0,0,0,0,0,0,0,-1,2029,456,0,0
812,568,0,0,0,0,0,0,0,0,0,-1,2036,456,0,0
-700,561,0,0,0,0,0,0,0,0,0,-1,524,463,0,0
-693,561,0,0,0,0,0,0,0,0,0,-1,531,463,0,0
-686,561,0,0,0,0,0,0,0,0,0,-1,538,463,0,0
-679,561,0,0,0,0,0,0,0,0,0,-1,545,463,0,0
-672,561,0,0,0,0,0,0,0,0,0,-1,552,463,0,0
-665,561,0,0,0,0,0,0,0,0,0,-1,559,463,0,0
-658,561,0,0,0,0,0,0,0,0,0,-1,566,463,0,0
-651,561,0,0,0,0,0,0,0,0,0,-1,573,463,0,0
-644,561,0,0,0,0,0,0,0,0,0,-1,580,463,0,0
-637,561,0,0,0,0,0,0,0,0,0,-1,587,463,0,0
-630,561,0,0,0,0,0,0,0,0,0,-1,594,463,0,0
-623,561,0,0,0,0,0,0,0,0,0,-1,601,463,0,0
-616,561,0,0,0,0,0,0,0,0,0,-1,608,463,0,0
-609,561,0,0,0,0,0,0,0,0,0,-1,615,463,0,0
-602,561,0,0,0,0,0,0,0,0,0,-1,622,463,0,0
-595,561,0,0,0,0,0,0,0,0,0,-1,629,463,0,0
-588,561,0,0,0,0,0,0,0,0,0,-1,636,463,0,0
-581,561,0,0,0,0,0,0,0,0,0,-1,643,463,0,0
-574,561,0,0,0,0,0,0,0,0,0,-1,650,463,0,0
-567,561,0,0,0,0,0,0,0,0,0,-1,657,463,0,0
-560,561,0,0,0,0,0,0,0,0,0,-1,664,463,0,0
-553,561,0,0,0,0,0,0,0,0,0,-1,671,463,0,0
-546,561,0,0,0,0,0,0,0,0,0,-1,678,463,0,0
-539,561,0,0,0,0,0,0,0,0,0,-1,685,463,0,0
-532,561,0,0,0,0,0,0,0,0,0,-1,692,463,0,0
-525,561,0,0,0,0,0,0,0,0,0,-1,699,463,0,0
-518,561,0,0,0,0,0,0,0,0,0,-1,706,463,0,0
-511,561,0,0,0,0,0,0,0,0,0,-1,713,463,0,0
-504,561,0,0,0,0,0,0,0,0,0,-1,720,463,0,0
-497,561,0,0,0,0,0,0,0,0,0,-1,727,463,0,0
-490,561,0,0,0,0,0,0,0,0,0,-1,734,463,0,0
-483,561,0,0,0,0,0,0,0,0,0,-1,741,463,0,0
-476,561,0,0,0,0,0,0,0,0,0,-1,748,463,0,0
-469,561,0,0,0,0,0,0,0,0,0,-1,755,463,0,0
-462,561,0,0,0,0,0,0,0,0,0,-1,762,463,0,0
-455,561,0,0,0,0,0,0,0,0,0,-1,769,463,0,0
-448,561,0,0,0,0,0,0,0,0,0,-1,776,463,0,0
-441,561,0,0,0,0,0,0,0,0,0,-1,783,463,0,0
-434,561,0,0,0,0,0,0,0,0,0,-1,790,463,0,0
-427,561,0,0,0,0,0,0,0,0,0,-1,797,463,0,0
-420,561,0,0,0,0,0,0,0,0,0,-1,804,463,0,0
-413,561,0,0,0,0,0,0,0,0,0,-1,811,463,0,0
-406,561,0,0,0,0,0,0,0,0,0,-1,818,463,0,0
-399,561,0,0,0,0,0,0,0,0,0,-1,825,463,0,0
-392,561,1.69525,2.33911,-0.0933112,0.0627072,0.0506616,0.0777143,-0.108318,1.28281,0.107889,0.0490356,832,463,1.69522,-2.33912
-385,561,-0.0651855,3.12302,0,0,0,0,0,0,0,-1,839,463,-0.0651857,-3.12302
-378,561,3.35052,0.939148,0,0,0,0,0,0,0,-1,846,463,3.35053,-0.939162
-371,561,2.79919,0.517853,-0.0505803,0.046533,0.0269924,0.0535312,-0.0575785,1.31712,0.0641634,0.0441714,853,463,2.79918,-0.517868
-364,561,2.15234,0.0350037,-0.0380966,0.037915,0.0224819,0.0440666,-0.0442482,1.30371,0.0509886,0.0415015,860,463,2.15236,-0.0350065
-357,561,1.51746,-0.357788,-0.026148,0.0285722,0.0220979,0.0363816,-0.0339574,1.2311,0.0406183,0.043505,867,463,1.51746,0.357776
-350,561,1.24652,-0.243622,0,0,0,0,0,0,0,-1,874,463,1.24653,0.243623
-343,561,1.34961,-0.462891,-0.0104249,0.0140941,0.0206464,0.0258464,-0.0221772,1.05332,0.0277534,0.0471038,881,463,1.34962,0.462903
-336,561,1.40564,-0.598999,-0.0058597,0.00876758,0.0193206,0.0221125,-0.0192046,0.966334,0.0238741,0.0448375,888,463,1.40566,0.599005
-329,561,1.4411,-0.602661,-0.00432199,0.00563736,0.0178147,0.0191553,-0.0178399,0.921683,0.0213637,0.0328199,895,463,1.44112,0.602668
-322,561,1.3938,-0.541809,-0.00345209,0.00151197,0.0155346,0.0147615,-0.0167017,0.864616,0.0181768,0.0271619,902,463,1.39377,0.541795
-315,561,1.47278,-0.549805,-0.00230789,0.00114501,0.0130166,0.0125492,-0.013712,0.85133,0.0151669,0.0199806,909,463,1.47279,0.549819
-308,561,1.51196,-0.613922,-0.00135668,0.00120736,0.0107748,0.0107762,-0.0109255,0.844611,0.0125296,0.0144328,916,463,1.51194,0.613927
-301,561,1.52478,-0.658966,-0.000618192,0.000272284,0.00822871,0.00806779,-0.0084137,0.812426,0.0095163,0.0110895,923,463,1.52479,0.658955
-294,561,1.52191,-0.675293,-0.00094709,0.000608527,0.00629891,0.00617747,-0.00651603,0.846829,0.00732946,0.00951607,930,463,1.52194,0.675306
-287,561,1.50134,-0.716888,-0.00115351,0.00102706,0.00459733,0.00466162,-0.00478807,0.901826,0.00545594,0.00827435,937,463,1.50133,0.716874
-280,561,1.48956,-0.745209,-0.00112312,0.00131921,0.00309123,0.00342174,-0.00322565,0.97351,0.00383843,0.0114147,944,463,1.48958,0.74521
-273,561,1.49921,-0.774658,-0.000898878,0.00156364,0.00196751,0.00265339,-0.00198863,1.06498,0.00268922,0.0145426,951,463,1.49918,0.774671
-266,561,1.49878,-0.801819,-0.000648362,0.00181914,0.00138225,0.00243816,-0.00126738,1.14975,0.0021747,0.00946488,958,463,1.49877,0.801804
-259,561,1.50934,-0.824402,-0.000577089,0.00209807,0.00111241,0.0025002,-0.000979214,1.22392,0.00207183,0.0101611,965,463,1.50933,0.824412
-252,561,1.49042,-0.853607,-0.000498946,0.00257699,0.000784944,0.00276572,-0.000687675,1.33484,0.00211072,0.0133398,972,463,1.49044,0.853599
-245,561,1.4884,-0.90332,-0.000374558,0.00308468,0.000262891,0.00310454,-0.000394423,1.49538,0.00221292,0.0154517,979,463,1.48838,0.903306
-238,561,1.50714,-0.928925,-0.000112267,0.00425188,-0.000506698,0.00430994,-0.000170324,-1.45671,0.00293172,0.013216,986,463,1.50711,0.928921
-231,561,1.51312,-0.949036,-8.00975e-06,0.00605406,-0.00121274,0.00628768,-0.000241622,-1.3805,0.0042746,0.0110817,993,463,1.51313,0.949043
-224,561,1.51666,-0.993378,-9.05432e-05,0.00875474,-0.00169468,0.00906831,-0.000404113,-1.38783,0.00618465,0.0112041,1000,463,1.51669,0.993383
-217,561,1.52911,-1.00507,-5.91184e-05,0.0112591,-0.00244345,0.0117641,-0.000564095,-1.367,0.00803734,0.0112588,1007,463,1.52914,1.00506
-210,561,1.52655,-1.0239,0.000213148,0.0143431,-0.00324621,0.0150532,-0.000496949,-1.35544,0.0102052,0.0113991,1014,463,1.52658,1.0239
-203,561,1.52301,-1.05179,0.000501724,0.0179648,-0.00409595,0.0188778,-0.000411247,-1.35149,0.0127245,0.012197,1021,463,1.52302,1.05178
-196,561,1.50256,-1.06494,0.000678122,0.02158,-0.00468892,0.0225837,-0.000325547,-1.35993,0.0151655,0.0124642,1028,463,1.50251,1.06493
-189,561,1.49805,-1.07471,0.000979076,0.0250554,-0.0050687,0.026079,-4.45023e-05,-1.37154,0.0174008,0.0151693,1035,463,1.49802,1.0747
-182,561,1.51917,-1.10855,0.00157304,0.0299046,-0.00588887,0.0310799,0.000397759,-1.37381,0.0205886,0.0169736,1042,463,1.51915,1.10856
-175,561,1.55627,-1.14432,0.00194092,0.0334835,-0.00605536,0.034606,0.000818394,-1.3875,0.0228028,0.0255187,1049,463,1.55624,1.1443
-168,561,1.61133,-1.18359,0.00215777,0.0365505,-0.00603721,0.0375795,0.0011288,-1.40198,0.0246853,0.0384868,1056,463,1.61134,1.1836
-161,561,1.65564,-1.40674,0.00241842,0.0390878,-0.00578332,0.0399783,0.00152792,-1.41802,0.0261577,0.0396878,1063,463,1.65565,1.40673
-154,561,1.65454,-1.54816,0.00272485,0.0410946,-0.00546725,0.0418584,0.00196104,-1.43199,0.0272755,0.0405812,1070,463,1.65455,1.54815
-147,561,1.7002,-1.62769,0.00297242,0.04204,-0.00483683,0.0426299,0.00238249,-1.44943,0.02766,0.0447102,1077,463,1.70022,1.62768
-140,561,1.72656,-1.65463,0.00318094,0.0421289,-0.00427979,0.0425937,0.0027162,-1.46263,0.0275351,0.0433351,1084,463,1.72655,1.65464
-133,561,1.72021,-1.70874,0.00344556,0.0373813,-0.00494088,0.038086,0.00274082,-1.42912,0.0245282,0.0423616,1091,463,1.72027,1.70874
-126,561,1.90552,-1.40427,0.00272342,0.0324908,-0.00784266,0.0344307,0.000783572,-1.32832,0.0226971,0.0455768,1098,463,1.90553,1.40427
-119,561,1.96973,-1.3837,0,0,0,0,0,0,0,-1,1105,463,1.96976,1.38369
-112,561,1.33716,-1.35382,0,0,0,0,0,0,0,-1,1112,463,1.33721,1.35383
-105,561,1.30835,-1.62155,0,0,0,0,0,0,0,-1,1119,463,1.30835,1.62154
-98,561,2.75232,-0.270447,0,0,0,0,0,0,0,-1,1126,463,2.75234,0.270448
-91,561,0.125488,-0.613403,0,0,0,0,0,0,0,-1,1133,463,0.125493,0.613409
-84,561,0.276611,-1.12793,-0.0163313,0.0173957,-0.0395719,0.0435475,-0.0424831,-0.98682,0.049671,0.0496594,1140,463,0.276642,1.12792
-77,561,0.525146,-1.91708,-0.0216765,0.0163667,-0.0438947,0.045184,-0.0504939,-0.989857,0.055268,0.0449962,1147,463,0.52516,1.91708
-70,561,0.733643,-2.58932,0,0,0,0,0,0,0,-1,1154,463,0.733685,2.58932
-63,561,0.0893555,-4.62836,-0.0261534,0.00614487,-0.0458864,0.0386409,-0.0586495,-0.954598,0.0565652,0.0447371,1161,463,0.0893472,4.62835
-56,561,-0.478394,-6.08743,-0.0341896,-0.018679,-0.0403776,0.0146813,-0.0675499,-0.880277,0.0506415,0.0451463,1168,463,-0.478428,6.08744
-49,561,-0.661377,-7.52588,0,0,0,0,0,0,0,-1,1175,463,-0.661406,7.52587
-42,561,-0.550781,0.391113,0,0,0,0,0,0,0,-1,1182,463,-0.55079,-0.391119
-35,561,-0.327515,0.622437,0,0,0,0,0,0,0,-1,1189,463,-0.32753,-0.622434
-28,561,0.0704346,0.783997,0,0,0,0,0,0,0,-1,1196,463,0.0703957,-0.783982
-21,561,2.62341,2.57483,0,0,0,0,0,0,0,-1,1203,463,2.62338,-2.57482
-14,561,1.78577,2.99857,-0.0531387,-0.16199,0.00367265,-0.0530149,-0.162114,0.033689,0.095445,0.0451925,1210,463,1.78579,-2.99856
-7,561,0.886963,3.46207,-0.0400234,-0.163481,0.00823299,-0.0394768,-0.164027,0.0662958,0.0988558,0.0467922,1217,463,0.886995,-3.46207
0,561,-0.0169678,3.74503,-0.0175652,-0.146819,0.00186435,-0.0175384,-0.146846,0.0144199,0.0926066,0.0499669,1224,463,-0.0169122,-3.74502
7,561,-0.911499,4.03687,0.00998791,-0.0995936,-0.0191185,0.0132277,-0.102833,-0.167863,0.0733634,0.0436228,1231,463,-0.91144,-4.03687
14,561,-1.72424,4.29303,0.0367303,-0.0442434,-0.0433199,0.0555376,-0.0630507,-0.409595,0.0685128,0.0394263,1238,463,-1.72425,-4.29302
21,561,-2.18115,4.29813,0.0625664,0.0112032,-0.067402,0.109014,-0.0352441,-0.603379,0.0868414,0.0420318,1245,463,-2.18113,-4.29813
28,561,2.68542,-1.37466,0.0857777,0.0649794,-0.0910677,0.167038,-0.0162809,-0.728549,0.117163,0.0449948,1252,463,2.68548,1.37465
35,561,8.24622,-7.14819,0.102433,0.11512,-0.112012,0.220968,-0.00341529,-0.813683,0.148463,0.0408048,1259,463,8.2462,7.14818
42,561,8.29968,-7.06104,0.119368,0.157407,-0.128968,0.26875,0.00802404,-0.858608,0.176553,0.0444625,1266,463,8.29963,7.06103
49,561,8.30933,-7.33145,0.138887,0.191929,-0.142942,0.310789,0.020026,-0.877123,0.200851,0.0460126,1273,463,8.30929,7.33144
56,561,8.30994,-7.41357,0.154579,0.217346,-0.153348,0.342489,0.0294353,-0.886332,0.219174,0.0435691,1280,463,8.30991,7.41357
63,561,6.22412,-4.26675,0,0,0,0,0,0,0,-1,1287,463,6.22408,4.26675
70,561,7.85486,-4.01678,0.169284,0.214061,-0.156075,0.349345,0.0339996,-0.856635,0.222431,0.0454841,1294,463,7.8549,4.01679
77,561,9.82434,-3.73404,0.155194,0.194407,-0.146638,0.322744,0.0268571,-0.851856,0.206792,0.046648,1301,463,9.82438,3.73405
84,561,11.6312,-3.26398,0,0,0,0,0,0,0,-1,1308,463,11.6312,3.26397
91,561,13.2953,-2.8298,0.124981,0.114448,-0.104754,0.224601,0.0148283,-0.760283,0.145044,0.0463888,1315,463,13.2953,2.8298
98,561,14.9303,-2.53122,0.114976,0.080957,-0.0912541,0.190792,0.00514067,-0.693257,0.125516,0.0478591,1322,463,14.9303,2.53122
105,561,16.873,-2.32513,0,0,0,0,0,0,0,-1,1329,463,16.873,2.32512
112,561,-0.327026,1.88654,0.0924687,0.0147208,-0.0656557,0.129896,-0.0227063,-0.518108,0.0950741,0.0459393,1336,463,-0.327017,-1.88653
119,561,3.89673,0.858673,0.0716364,-0.0120459,-0.0522269,0.0967156,-0.0371251,-0.44768,0.0797851,0.0455928,1343,463,3.89675,-0.858673
126,561,3.14453,1.77872,0.051613,-0.0367587,-0.0405068,0.0673703,-0.052516,-0.370993,0.0693933,0.0445062,1350,463,3.14459,-1.77871
133,561,2.97107,3.08453,0,0,0,0,0,0,0,-1,1357,463,2.97109,-3.08454
140,561,3.19128,3.24573,0,0,0,0,0,0,0,-1,1364,463,3.19125,-3.24573
147,561,3.81665,4.35864,0.0201542,-0.0818237,-0.0316368,0.0291715,-0.0908411,-0.277665,0.0722743,0.0447295,1371,463,3.81663,-4.35863
154,561,4.02722,3.96121,0.0106726,-0.0851297,-0.0335336,0.0212439,-0.095701,-0.305383,0.0719353,0.045283,1378,463,4.02717,-3.96121
161,561,4.48083,3.77585,0,0,0,0,0,0,0,-1,1385,463,4.48084,-3.77586
168,561,3.85925,3.58826,0,0,0,0,0,0,0,-1,1392,463,3.85928,-3.58827
175,561,4.16626,3.37015,0,0,0,0,0,0,0,-1,1399,463,4.16623,-3.37014
182,561,4.30408,3.06348,0,0,0,0,0,0,0,-1,1406,463,4.30403,-3.06348
189,561,4.60754,2.74045,0,0,0,0,0,0,0,-1,1413,463,4.60752,-2.74045
196,561,3.44702,-0.0272827,0,0,0,0,0,0,0,-1,1420,463,3.44698,0.0272944
203,561,3.70898,0.662048,0,0,0,0,0,0,0,-1,1427,463,3.70894,-0.662047
210,561,3.68335,0.898224,0,0,0,0,0,0,0,-1,1434,463,3.68329,-0.898217
217,561,1.97559,-0.614075,0,0,0,0,0,0,0,-1,1441,463,1.97554,0.61409
224,561,2.45422,-1.0191,0,0,0,0,0,0,0,-1,1448,463,2.45419,1.01911
231,561,2.93286,-1.42413,0,0,0,0,0,0,0,-1,1455,463,2.93283,1.42412
238,561,0.637939,-2.21423,-0.00193688,0.0150319,-0.0111186,0.0205335,-0.0074385,-1.11131,0.0167292,0.0498476,1462,463,0.637935,2.21423
245,561,1.15723,-1.82623,0.00535532,0.0135808,-0.00711683,0.0176878,0.00124834,-1.0474,0.0113986,0.0481957,1469,463,1.15724,1.82623
252,561,1.38086,-1.67889,0.0112175,0.0117862,-0.00429926,0.0158105,0.0071932,-0.818418,0.00914054,0.0483975,1476,463,1.38088,1.67891
259,561,1.44116,-1.59927,0.0155316,0.0104822,-0.00359627,0.0174009,0.0086129,-0.479353,0.0100466,0.0472662,1483,463,1.44119,1.59928
266,561,1.45459,-1.27118,0.0176993,0.00867909,-0.00433556,0.0194453,0.00693316,-0.382833,0.0113797,0.0496294,1490,463,1.45462,1.27118
273,561,1.37024,-1.08682,0,0,0,0,0,0,0,-1,1497,463,1.37021,1.08681
280,561,1.61292,-1.17514,0,0,0,0,0,0,0,-1,1504,463,1.61296,1.17513
287,561,2.46545,-0.803375,0.0164514,0.000831261,-0.00812617,0.0199122,-0.0026295,-0.402615,0.0142325,0.0390269,1511,463,2.46543,0.803371
294,561,2.36487,-1.12897,0.0144789,-0.000601984,-0.00921663,0.0188466,-0.00496972,-0.442548,0.0145075,0.0335621,1518,463,2.36492,1.12896
301,561,2.02332,-1.15436,0.0117713,-0.00186629,-0.0103813,0.0173729,-0.0074679,-0.494815,0.014717,0.0291884,1525,463,2.02326,1.15437
308,561,1.95972,-1.15753,0.00959792,-0.00257959,-0.0106862,0.0158083,-0.00878992,-0.526448,0.0143932,0.0194776,1532,463,1.95976,1.15752
315,561,1.95178,-1.13474,0.00690046,-0.00276402,-0.0107184,0.0138255,-0.00968906,-0.573623,0.013646,0.0135917,1539,463,1.95184,1.13473
322,561,1.94299,-1.10843,0.00479205,-0.00406061,-0.0104806,0.0117427,-0.0110112,-0.585592,0.0131392,0.014242,1546,463,1.94305,1.10844
329,561,1.97412,-1.08774,0.0034245,-0.00319438,-0.00873889,0.0094596,-0.00922949,-0.604392,0.0107904,0.0113449,1553,463,1.97409,1.08773
336,561,2.0127,-1.05341,0.00257941,-0.00216267,-0.00651143,0.00713806,-0.00672131,-0.610793,0.00800292,0.0101232,1560,463,2.01264,1.05339
343,561,2.01196,-1.04471,0.00193776,-0.000472454,-0.00420306,0.00510507,-0.00363976,-0.645783,0.0050724,0.00896084,1567,463,2.01198,1.04469
350,561,1.98499,-1.02124,0.00158164,0.000896619,-0.00239051,0.00365405,-0.00117579,-0.714243,0.0029083,0.00904185,1574,463,1.98501,1.02125
357,561,1.97913,-0.981812,0.000961265,0.00217794,-0.00144226,0.0031349,4.29817e-06,-0.984975,0.0020885,0.00993763,1581,463,1.97917,0.981798
364,561,1.98364,-0.952637,0.000477195,0.00256281,-0.000495094,0.00267437,0.000365635,-1.34917,0.0016744,0.00959518,1588,463,1.98369,0.952651
371,561,1.98547,-0.928223,-8.15065e-06,0.00289371,0.00016617,0.0029032,-1.76352e-05,1.51378,0.00194137,0.0161894,1595,463,1.9855,0.928236
378,561,1.98853,-0.916107,-0.000335291,0.00375615,0.00062139,0.00384844,-0.000427583,1.42335,0.00271939,0.0112781,1602,463,1.98858,0.916104
385,561,1.9679,-0.887054,-0.000575389,0.00437743,0.000869249,0.00452556,-0.000723517,1.40201,0.00328488,0.00883664,1609,463,1.9679,0.887043
392,561,1.98279,-0.831696,-6.8734e-05,0.00496699,0.00126742,0.00526799,-0.000369733,1.33763,0.0036415,0.0119606,1616,463,1.98284,0.8317
399,561,1.97388,-0.816132,0.000947376,0.00517361,0.00165776,0.00574628,0.000374708,1.23818,0.00371226,0.0185269,1623,463,1.97392,0.816139
406,561,1.97705,-0.792755,0.00192517,0.00513085,0.00194204,0.00604607,0.00100995,1.1304,0.0037398,0.0182448,1630,463,1.97704,0.79277
413,561,1.99719,-0.756256,0.00303725,0.00487416,0.00213812,0.00628274,0.00162866,0.988263,0.00376492,0.0161586,1637,463,1.99723,0.756247
420,561,1.97241,-0.733002,0.00444628,0.00442564,0.00239492,0.0068309,0.00204101,0.783244,0.00404887,0.0128751,1644,463,1.97243,0.733005
427,561,1.97473,-0.697296,0.00621702,0.00415337,0.00314524,0.00849536,0.00187503,0.6269,0.00515355,0.0101757,1651,463,1.97471,0.697302
434,561,1.97144,-0.680206,0.00762077,0.00414188,0.0046617,0.010857,0.000905677,0.606831,0.00695577,0.0109421,1658,463,1.97141,0.680196
441,561,1.95056,-0.64859,0.00853666,0.00614257,0.00598973,0.0134478,0.00123145,0.686773,0.0085842,0.0129605,1665,463,1.95061,0.648576
448,561,1.99475,-0.626892,0.00958296,0.00891281,0.0074069,0.0166624,0.0018334,0.762795,0.0105503,0.0182153,1672,463,1.99478,0.626881
455,561,2.11816,-0.664673,0.0101511,0.0115134,0.00925092,0.0201082,0.00155628,0.822147,0.012918,0.0330399,1679,463,2.11814,0.664675
462,561,2.11072,-0.595612,0.00984707,0.0149239,0.0113909,0.0240558,0.000715186,0.895031,0.0158042,0.0325051,1686,463,2.11076,0.595626
469,561,1.99841,-0.500732,0.00847134,0.0208748,0.0135521,0.0295768,-0.000230647,0.999985,0.0197952,0.0234695,1693,463,1.99845,0.500742
476,561,2.0354,-0.314728,0.0066355,0.0276755,0.0156869,0.0360434,-0.00173234,1.08077,0.0246267,0.0407877,1700,463,2.03538,0.314743
483,561,1.74658,0.854584,0.00398729,0.0345157,0.0173363,0.0423501,-0.00384708,1.14636,0.0295992,0.0494214,1707,463,1.74658,-0.854579
490,561,1.89075,0.935638,0.000999368,0.0413518,0.0181563,0.0483184,-0.00596719,1.20442,0.0343744,0.0449397,1714,463,1.89078,-0.935653
497,561,1.97876,1.04797,-0.00381723,0.0478972,0.0185617,0.0538697,-0.00978975,1.25949,0.039582,0.0440036,1721,463,1.97879,-1.04797
504,561,2.06995,1.14066,0,0,0,0,0,0,0,-1,1728,463,2.06994,-1.14066
511,561,0,0,0,0,0,0,0,0,0,-1,1735,463,0,0
518,561,0,0,0,0,0,0,0,0,0,-1,1742,463,0,0
525,561,0,0,0,0,0,0,0,0,0,-1,1749,463,0,0
532,561,0,0,0,0,0,0,0,0,0,-1,1756,463,0,0
539,561,0,0,0,0,0,0,0,0,0,-1,1763,463,0,0
546,561,0,0,0,0,0,0,0,0,0,-1,1770,463,0,0
553,561,0,0,0,0,0,0,0,0,0,-1,1777,463,0,0
560,561,0,0,0,0,0,0,0,0,0,-1,1784,463,0,0
567,561,0,0,0,0,0,0,0,0,0,-1,1791,463,0,0
574,561,0,0,0,0,0,0,0,0,0,-1,1798,463,0,0
581,561,0,0,0,0,0,0,0,0,0,-1,1805,463,0,0
588,561,0,0,0,0,0,0,0,0,0,-1,1812,463,0,0
595,561,0,0,0,0,0,0,0,0,0,-1,1819,463,0,0
602,561,0,0,0,0,0,0,0,0,0,-1,1826,463,0,0
609,561,0,0,0,0,0,0,0,0,0,-1,1833,463,0,0
616,561,0,0,0,0,0,0,0,0,0,-1,1840,463,0,0
623,561,0,0,0,0,0,0,0,0,0,-1,1847,463,0,0
630,561,0,0,0,0,0,0,0,0,0,-1,1854,463,0,0
637,561,0,0,0,0,0,0,0,0,0,-1,1861,463,0,0
644,561,0,0,0,0,0,0,0,0,0,-1,1868,463,0,0
651,561,0,0,0,0,0,0,0,0,0,-1,1875,463,0,0
658,561,0,0,0,0,0,0,0,0,0,-1,1882,463,0,0
665,561,0,0,0,0,0,0,0,0,0,-1,1889,463,0,0
672,561,0,0,0,0,0,0,0,0,0,-1,1896,463,0,0
679,561,0,0,0,0,0,0,0,0,0,-1,1903,463,0,0
686,561,0,0,0,0,0,0,0,0,0,-1,1910,463,0,0
693,561,0,0,0,0,0,0,0,0,0,-1,1917,463,0,0
700,561,0,0,0,0,0,0,0,0,0,-1,1924,463,0,0
707,561,0,0,0,0,0,0,0,0,0,-1,1931,463,0,0
714,561,0,0,0,0,0,0,0,0,0,-1,1938,463,0,0
721,561,0,0,0,0,0,0,0,0,0,-1,1945,463,0,0
728,561,0,0,0,0,0,0,0,0,0,-1,1952,463,0,0
735,561,0,0,0,0,0,0,0,0,0,-1,1959,463,0,0
742,561,0,0,0,0,0,0,0,0,0,-1,1966,463,0,0
749,561,0,0,0,0,0,0,0,0,0,-1,1973,463,0,0
756,561,0,0,0,0,0,0,0,0,0,-1,1980,463,0,0
763,561,0,0,0,0,0,0,0,0,0,-1,1987,463,0,0
770,561,0,0,0,0,0,0,0,0,0,-1,1994,463,0,0
777,561,0,0,0,0,0,0,0,0,0,-1,2001,463,0,0
784,561,0,0,0,0,0,0,0,0,0,-1,2008,463,0,0
791,561,0,0,0,0,0,0,0,0,0,-1,2015,463,0,0
798,561,0,0,0,0,0,0,0,0,0,-1,2022,463,0,0
805,561,0,0,0,0,0,0,0,0,0,-1,2029,463,0,0
812,561,0,0,0,0,0,0,0,0,0,-1,2036,463,0,0
-700,554,0,0,0,0,0,0,0,0,0,-1,524,470,0,0
-693,554,0,0,0,0,0,0,0,0,0,-1,531,470,0,0
-686,554,0,0,0,0,0,0,0,0,0,-1,538,470,0,0
-679,554,0,0,0,0,0,0,0,0,0,-1,545,470,0,0
-672,554,0,0,0,0,0,0,0,0,0,-1,552,470,0,0
-665,554,0,0,0,0,0,0,0,0,0,-1,559,470,0,0
-658,554,0,0,0,0,0,0,0,0,0,-1,566,470,0,0
-651,554,0,0,0,0,0,0,0,0,0,-1,573,470,0,0
-644,554,0,0,0,0,0,0,0,0,0,-1,580,470,0,0
-637,554,0,0,0,0,0,0,0,0,0,-1,587,470,0,0
-630,554,0,0,0,0,0,0,0,0,0,-1,594,470,0,0
-623,554,0,0,0,0,0,0,0,0,0,-1,601,470,0,0
-616,554,0,0,0,0,0,0,0,0,0,-1,608,470,0,0
-609,554,0,0,0,0,0,0,0,0,0,-1,615,470,0,0
-602,554,0,0,0,0,0,0,0,0,0,-1,622,470,0,0
-595,554,0,0,0,0,0,0,0,0,0,-1,629,470,0,0
-588,554,0,0,0,0,0,0,0,0,0,-1,636,470,0,0
-581,554,0,0,0,0,0,0,0,0,0,-1,643,470,0,0
-574,554,0,0,0,0,0,0,0,0,0,-1,650,470,0,0
-567,554,0,0,0,0,0,0,0,0,0,-1,657,470,0,0
-560,554,0,0,0,0,0,0,0,0,0,-1,664,470,0,0
-553,554,0,0,0,0,0,0,0,0,0,-1,671,470,0,0
-546,554,0,0,0,0,0,0,0,0,0,-1,678,470,0,0
-539,554,0,0,0,0,0,0,0,0,0,-1,685,470,0,0
-532,554,0,0,0,0,0,0,0,0,0,-1,692,470,0,0
-525,554,0,0,0,0,0,0,0,0,0,-1,699,470,0,0
-518,554,0,0,0,0,0,0,0,0,0,-1,706,470,0,0
-511,554,0,0,0,0,0,0,0,0,0,-1,713,470,0,0
-504,554,0,0,0,0,0,0,0,0,0,-1,720,470,0,0
-497,554,0,0,0,0,0,0,0,0,0,-1,727,470,0,0
-490,554,0,0,0,0,0,0,0,0,0,-1,734,470,0,0
-483,554,0,0,0,0,0,0,0,0,0,-1,741,470,0,0
-476,554,0,0,0,0,0,0,0,0,0,-1,748,470,0,0
-469,554,0,0,0,0,0,0,0,0,0,-1,755,470,0,0
-462,554,0,0,0,0,0,0,0,0,0,-1,762,470,0,0
-455,554,0,0,0,0,0,0,0,0,0,-1,769,470,0,0
-448,554,0,0,0,0,0,0,0,0,0,-1,776,470,0,0
-441,554,0,0,0,0,0,0,0,0,0,-1,783,470,0,0
-434,554,0,0,0,0,0,0,0,0,0,-1,790,470,0,0
-427,554,0,0,0,0,0,0,0,0,0,-1,797,470,0,0
-420,554,0,0,0,0,0,0,0,0,0,-1,804,470,0,0
-413,554,0,0,0,0,0,0,0,0,0,-1,811,470,0,0
-406,554,0,0,0,0,0,0,0,0,0,-1,818,470,0,0
-399,554,2.18335,2.61304,0,0,0,0,0,0,0,-1,825,470,2.18333,-2.61303
-392,554,1.36731,2.25244,0,0,0,0,0,0,0,-1,832,470,1.36732,-2.25243
-385,554,0.524414,1.10437,0,0,0,0,0,0,0,-1,839,470,0.524439,-1.10436
-378,554,0.761597,0.704498,-0.0469166,0.0478889,0.0224862,0.0529518,-0.0519795,1.34933,0.060583,0.0498215,846,470,0.761593,-0.704487
-371,554,0.910583,0.634888,-0.0388121,0.0412289,0.0177299,0.0449804,-0.0425637,1.36228,0.05055,0.047737,853,470,0.910591,-0.634903
-364,554,1.18414,0.274414,-0.0292602,0.0332238,0.0138952,0.0361745,-0.0322109,1.36155,0.0395044,0.0436993,860,470,1.18412,-0.274427
-357,554,1.21515,-0.225769,-0.0195689,0.0247012,0.0144465,0.0289984,-0.0238661,1.28168,0.0305692,0.0446951,867,470,1.21518,0.225763
-350,554,1.45026,-0.329041,-0.0115981,0.017884,0.0143545,0.0237184,-0.0174325,1.18474,0.0238507,0.046741,874,470,1.45026,0.329031
-343,554,1.49609,-0.406036,-0.00696445,0.0117301,0.0145419,0.0196698,-0.0149041,1.07104,0.0200244,0.0442172,881,470,1.4961,0.406031
-336,554,1.47156,-0.47226,-0.00350062,0.00701938,0.0140021,0.0167169,-0.0131981,0.965072,0.0173112,0.032073,888,470,1.47157,0.47226
-329,554,1.44739,-0.525146,-0.00268088,0.00454862,0.0132966,0.0147131,-0.0128453,0.918118,0.015923,0.0156756,895,470,1.44737,0.525156
-322,554,1.46649,-0.544891,-0.00234818,0.000900887,0.0117029,0.0110915,-0.0125388,0.854365,0.0136515,0.0100498,902,470,1.4665,0.544889
-315,554,1.47766,-0.584412,-0.0016327,0.000780408,0.0097955,0.00944339,-0.0102957,0.846677,0.0113999,0.0103866,909,470,1.47766,0.584401
-308,554,1.47369,-0.630157,-0.00108524,0.00104225,0.00812607,0.0081739,-0.00821689,0.850481,0.00946324,0.0127266,916,470,1.47371,0.630148
-301,554,1.49359,-0.666779,-0.000669653,0.000511118,0.0061318,0.00608089,-0.00623942,0.833392,0.00711333,0.0128581,923,470,1.49359,0.666792
-294,554,1.48785,-0.676788,-0.00112402,0.000936393,0.00464316,0.00466226,-0.00484989,0.894568,0.0054922,0.0104699,930,470,1.48783,0.676774
-287,554,1.46509,-0.70639,-0.00147218,0.00149038,0.00337119,0.00369137,-0.00367317,0.992397,0.00425193,0.0100523,937,470,1.46508,0.706389
-280,554,1.47717,-0.740204,-0.00154188,0.00194201,0.0022636,0.00305633,-0.0026562,1.11335,0.00330083,0.0102646,944,470,1.47716,0.740189
-273,554,1.48499,-0.773956,-0.00143717,0.0023707,0.00147946,0.00287794,-0.00194441,1.2405,0.00280152,0.0147357,951,470,1.485,0.773945
-266,554,1.4884,-0.814178,-0.0012981,0.00282338,0.00111713,0.00310671,-0.00158142,1.32242,0.00275403,0.0124476,958,470,1.48838,0.814184
-259,554,1.46301,-0.821899,-0.00129831,0.00326567,0.000972194,0.00346413,-0.00149677,1.36943,0.0029383,0.0117788,965,470,1.46299,0.821889
-252,554,1.45319,-0.835846,-0.00126874,0.00393284,0.000692784,0.00402353,-0.00135943,1.44063,0.00323223,0.0130741,972,470,1.45318,0.835832
-245,554,1.47485,-0.870605,-0.00117721,0.00468748,0.00023418,0.00469682,-0.00118655,1.53095,0.00359265,0.0149124,979,470,1.47486,0.870596
-238,554,1.4881,-0.914703,-0.000917653,0.00617787,-0.000564893,0.00622256,-0.000962344,-1.49185,0.00450356,0.011949,986,470,1.48812,0.914716
-231,554,1.49615,-0.954407,-0.000812895,0.00831846,-0.00135564,0.00851547,-0.0010099,-1.42648,0.00604182,0.0103787,993,470,1.49618,0.954409
-224,554,1.49506,-0.98288,-0.000894036,0.0115326,-0.00198769,0.0118428,-0.00120423,-1.41599,0.00832568,0.0109291,1000,470,1.49504,0.982892
-217,554,1.49341,-0.992706,-0.000808539,0.0145029,-0.00297914,0.0150621,-0.00136777,-1.38524,0.010527,0.0109073,1007,470,1.49344,0.992703
-210,554,1.49396,-1.01276,-0.000426332,0.0181793,-0.00404223,0.0190196,-0.00126659,-1.36584,0.0131223,0.012268,1014,470,1.49395,1.01276
-203,554,1.47211,-1.0405,-3.35956e-08,0.0224971,-0.00518702,0.0236354,-0.00113837,-1.35476,0.0161498,0.0170914,1021,470,1.47214,1.04049
-196,554,1.44336,-1.0528,0.000195746,0.0268531,-0.00595418,0.0281225,-0.00107372,-1.36073,0.0191163,0.0240537,1028,470,1.44337,1.0528
-189,554,1.45947,-1.06039,0.000503287,0.0309774,-0.00641861,0.0322741,-0.000793453,-1.37145,0.0217854,0.0322062,1035,470,1.45944,1.0604
-182,554,1.49316,-1.11465,0.00116241,0.0368922,-0.00740842,0.0383674,-0.00031279,-1.37424,0.0256831,0.0372762,1042,470,1.49312,1.11466
-175,554,1.41455,-1.12747,0.0015211,0.0413525,-0.00751813,0.0427243,0.0001493,-1.39032,0.0284332,0.0417415,1049,470,1.41453,1.12747
-168,554,1.59766,-1.43698,0.0017033,0.0452504,-0.00734576,0.0464562,0.000497565,-1.40811,0.0308063,0.0444847,1056,470,1.59763,1.43698
-161,554,1.87012,-1.98038,0.00193203,0.0485362,-0.00682306,0.0495146,0.000953646,-1.42837,0.0326965,0.0407512,1063,470,1.87011,1.98039
-154,554,2.15283,-2.33029,0.00226223,0.0516124,-0.00618726,0.0523763,0.00149833,-1.44795,0.034429,0.0428685,1070,470,2.15281,2.3303
-147,554,2.27722,-2.57071,0.0025502,0.0537096,-0.00514092,0.0542211,0.00203872,-1.47163,0.0354874,0.0471624,1077,470,2.27724,2.5707
-140,554,2.40247,-2.88025,0.00275172,0.054158,-0.00405468,0.0544758,0.00243387,-1.49257,0.0355337,0.0485298,1084,470,2.40245,2.88026
-133,554,2.61658,-3.12607,0.00308909,0.0473119,-0.00485035,0.0478376,0.00256336,-1.46283,0.0310726,0.0485424,1091,470,2.61663,3.12607
-126,554,2.8136,-3.35931,0,0,0,0,0,0,0,-1,1098,470,2.81364,3.35933
-119,554,1.10388,-0.761536,0,0,0,0,0,0,0,-1,1105,470,1.10393,0.761523
-112,554,1.255,-1.30942,0,0,0,0,0,0,0,-1,1112,470,1.25499,1.30943
-105,554,1.40613,-1.87408,0,0,0,0,0,0,0,-1,1119,470,1.40612,1.87408
-98,554,1.52795,-2.4202,0,0,0,0,0,0,0,-1,1126,470,1.52795,2.4202
-91,554,-0.166016,-0.760956,0,0,0,0,0,0,0,-1,1133,470,-0.166001,0.760961
-84,554,0.23999,-0.994659,-0.0158639,0.0170423,-0.0458814,0.0493315,-0.048153,-0.957556,0.056284,0.0499071,1140,470,0.240043,0.99467
-77,554,0.527222,-1.80328,-0.0219942,0.014532,-0.0508607,0.0503091,-0.0577713,-0.957769,0.0624498,0.0472312,1147,470,0.527207,1.8033
-70,554,0.460083,-2.33859,0,0,0,0,0,0,0,-1,1154,470,0.46011,2.33859
-63,554,0.214478,-4.39279,0,0,0,0,0,0,0,-1,1161,470,0.21443,4.3928
-56,554,-0.3573,-5.88034,0,0,0,0,0,0,0,-1,1168,470,-0.357336,5.88034
-49,554,-0.514771,0.024292,0,0,0,0,0,0,0,-1,1175,470,-0.514758,-0.0243031
-42,554,-0.529053,0.306885,0,0,0,0,0,0,0,-1,1182,470,-0.529073,-0.306884
-35,554,-0.0769043,0.865295,0,0,0,0,0,0,0,-1,1189,470,-0.0769035,-0.865305
-28,554,0.0895996,1.15909,0,0,0,0,0,0,0,-1,1196,470,0.0896148,-1.15908
-21,554,0.419312,1.15378,0,0,0,0,0,0,0,-1,1203,470,0.419293,-1.15378
-14,554,2.18408,3.97705,0,0,0,0,0,0,0,-1,1210,470,2.1841,-3.97704
-7,554,1.00061,4.36554,-0.0684976,-0.20464,0.00802693,-0.0680259,-0.205112,0.0586887,0.120638,0.0449225,1217,470,1.00062,-4.36552
0,554,-0.332642,5.27298,-0.0405379,-0.185391,0.00191077,-0.0405127,-0.185417,0.013188,0.112564,0.0463935,1224,470,-0.332615,-5.27298
7,554,-1.21057,5.59274,-0.00447666,-0.125604,-0.0234189,-0.000106499,-0.129974,-0.184487,0.0866141,0.0461754,1231,470,-1.21061,-5.59274
14,554,-2.07178,5.88992,0.0291186,-0.0561022,-0.0524331,0.0540721,-0.0810557,-0.444191,0.0785329,0.0447383,1238,470,-2.07176,-5.88992
21,554,-2.42224,5.83612,0.0612862,0.0110083,-0.0803,0.12029,-0.0479959,-0.633699,0.100104,0.043793,1245,470,-2.42219,-5.83611
28,554,11.5652,-8.93411,0,0,0,0,0,0,0,-1,1252,470,11.5652,8.93412
35,554,11.2404,-9.03204,0.112853,0.13678,-0.132174,0.257531,-0.0078978,-0.83053,0.174379,0.0375269,1259,470,11.2403,9.03205
42,554,10.8254,-9.16922,0.135503,0.187452,-0.15195,0.315631,0.00732352,-0.87005,0.208023,0.0432048,1266,470,10.8254,9.16921
49,554,10.3827,-8.99814,0.16251,0.22813,-0.168381,0.366868,0.0237725,-0.88162,0.237052,0.0474292,1273,470,10.3827,8.99813
56,554,10.9458,-8.86993,0.18561,0.259505,-0.181796,0.40807,0.0370455,-0.885651,0.260577,0.0441787,1280,470,10.9458,8.86994
63,554,8.1637,-4.08578,0,0,0,0,0,0,0,-1,1287,470,8.16369,4.0858
70,554,9.98877,-4.74088,0.204407,0.252965,-0.184394,0.414672,0.0427003,-0.850856,0.263371,0.0445426,1294,470,9.98881,4.74087
77,554,12.1581,-4.92935,0.186,0.231077,-0.173836,0.38383,0.0332476,-0.849866,0.245556,0.0480126,1301,470,12.1581,4.92935
84,554,14.0259,-4.52765,0,0,0,0,0,0,0,-1,1308,470,14.0259,4.52764
91,554,15.1931,-3.76935,0,0,0,0,0,0,0,-1,1315,470,15.1931,3.76934
98,554,16.9087,-3.35709,0,0,0,0,0,0,0,-1,1322,470,16.9087,3.3571
105,554,5.66443,0.0543213,0,0,0,0,0,0,0,-1,1329,470,5.66446,-0.0543205
112,554,4.97607,0.721863,0.103917,0.0272766,-0.0793867,0.153748,-0.0225548,-0.560541,0.110785,0.0444391,1336,470,4.97611,-0.72186
119,554,4.27417,1.34885,0.077203,-0.00376349,-0.0626788,0.111336,-0.0378961,-0.49866,0.0895691,0.0392688,1343,470,4.27414,-1.34885
126,554,3.48022,2.13184,0.0518911,-0.0330231,-0.047969,0.0734935,-0.0546255,-0.423139,0.0742365,0.0422299,1350,470,3.4802,-2.13183
133,554,2.73352,3.04971,0.032691,-0.0601614,-0.0375739,0.0459907,-0.0734611,-0.340201,0.0695708,0.0468158,1357,470,2.73353,-3.0497
140,554,2.03113,4.00891,0,0,0,0,0,0,0,-1,1364,470,2.03113,-4.0089
147,554,4.30054,5.30029,0.0145821,-0.0907791,-0.0360496,0.0257358,-0.101933,-0.300057,0.0779628,0.0462516,1371,470,4.30058,-5.3003
154,554,4.52075,4.8779,0.00590684,-0.0943867,-0.0388329,0.0191848,-0.107665,-0.329463,0.0789522,0.0445965,1378,470,4.5208,-4.8779
161,554,5.0531,4.54623,0,0,0,0,0,0,0,-1,1385,470,5.0531,-4.54624
168,554,3.72327,4.37369,0,0,0,0,0,0,0,-1,1392,470,3.72324,-4.37369
175,554,4.20239,4.25659,0,0,0,0,0,0,0,-1,1399,470,4.20238,-4.2566
182,554,4.34021,3.33237,0,0,0,0,0,0,0,-1,1406,470,4.3402,-3.33238
189,554,4.56665,3.11749,0,0,0,0,0,0,0,-1,1413,470,4.56666,-3.1175
196,554,3.2821,0.891205,0,0,0,0,0,0,0,-1,1420,470,3.28211,-0.891208
203,554,3.55615,1.1395,0,0,0,0,0,0,0,-1,1427,470,3.5561,-1.1395
210,554,3.13428,-0.588104,0,0,0,0,0,0,0,-1,1434,470,3.13423,0.588105
217,554,3.04492,-0.916016,0,0,0,0,0,0,0,-1,1441,470,3.04491,0.916025
224,554,2.86975,-1.2785,0,0,0,0,0,0,0,-1,1448,470,2.86972,1.27849
231,554,2.6947,-1.6366,-0.00966548,0.0233776,-0.0234654,0.0355543,-0.0218422,-1.09213,0.0334516,0.0478617,1455,470,2.69476,1.63658
238,554,2.50476,-2.00937,-4.05938e-05,0.021271,-0.0151592,0.0291448,-0.00791443,-1.09174,0.0225361,0.0448747,1462,470,2.50474,2.00937
245,554,1.69788,-1.62811,0.00813886,0.0184947,-0.00948544,0.0241234,0.00251009,-1.03524,0.0153143,0.0440273,1469,470,1.69784,1.62811
252,554,1.46545,-1.52353,0.0152208,0.0152972,-0.00581723,0.0210763,0.00944161,-0.788683,0.0121904,0.048092,1476,470,1.46544,1.52352
259,554,1.37817,-1.39087,0,0,0,0,0,0,0,-1,1483,470,1.3782,1.39088
266,554,2.46521,2.59067,0,0,0,0,0,0,0,-1,1490,470,2.46522,-2.59066
273,554,2.6908,1.57291,0.0242046,0.00565153,-0.00679057,0.0264244,0.00343172,-0.315946,0.0165911,0.0483878,1497,470,2.69078,-1.57289
280,554,2.85913,0.645294,0.02425,0.00271993,-0.00842906,0.0271574,-0.000187455,-0.332145,0.0181677,0.0466712,1504,470,2.8591,-0.645291
287,554,3.23804,-0.319763,0.0236313,0.00076979,-0.0105804,0.0277764,-0.00337534,-0.373394,0.0197391,0.0441131,1511,470,3.23804,0.319754
294,554,2.84058,-0.997162,0,0,0,0,0,0,0,-1,1518,470,2.84058,0.997163
301,554,2.03479,-1.0621,0.0187892,-0.00214638,-0.0135492,0.0254432,-0.00880035,-0.456501,0.0205341,0.0471682,1525,470,2.03477,1.06209
308,554,1.90503,-1.25757,0.0162925,-0.00283917,-0.013887,0.0235895,-0.0101362,-0.483802,0.0199812,0.0417581,1532,470,1.905,1.25755
315,554,2.00439,-1.12411,0.0129924,-0.00287104,-0.0137747,0.0209558,-0.0108344,-0.524173,0.0186616,0.0379707,1539,470,2.00442,1.12413
322,554,1.98511,-1.0618,0.0101853,-0.00422577,-0.0133091,0.0181142,-0.0121547,-0.537289,0.0175883,0.0307185,1546,470,1.98512,1.06179
329,554,1.9873,-1.08005,0.00811597,-0.00310541,-0.0111682,0.0150036,-0.00999308,-0.552623,0.0145282,0.0172092,1553,470,1.98726,1.08006
336,554,2.0177,-1.07211,0.00655455,-0.00181722,-0.00842181,0.0117734,-0.00703604,-0.554764,0.0109738,0.0102732,1560,470,2.01771,1.0721
343,554,2.01807,-1.06488,0.00521767,8.44608e-05,-0.00559213,0.00880406,-0.00350193,-0.570255,0.00732139,0.00920305,1567,470,2.01806,1.06489
350,554,2.02014,-1.03232,0.00416775,0.00151642,-0.00328742,0.00638674,-0.000702562,-0.593744,0.00451029,0.00970825,1574,470,2.02014,1.03231
357,554,2.03638,-1.00027,0.00262103,0.00261288,-0.00196642,0.00458338,0.000650526,-0.784363,0.00286348,0.0112118,1581,470,2.03634,1.00026
364,554,2.03223,-0.968903,0.00140235,0.00276489,-0.000673307,0.00304146,0.00112577,-1.18104,0.00177562,0.00911021,1588,470,2.03219,0.968908
371,554,2.02283,-0.940063,0.000524284,0.00293701,4.88177e-05,0.002938,0.000523297,1.55057,0.00180963,0.00893627,1595,470,2.02281,0.940072
378,554,2.02527,-0.91626,-3.60484e-05,0.00357697,0.0003873,0.00361802,-7.70988e-05,1.4652,0.00243812,0.0100111,1602,470,2.0253,0.916271
385,554,2.02271,-0.883331,-0.000511761,0.00397854,0.000506613,0.00403499,-0.00056821,1.45983,0.00289803,0.00901613,1609,470,2.0227,0.883335
392,554,2.02698,-0.838776,-0.000320367,0.00435151,0.000893937,0.00451672,-0.000485574,1.38805,0.00318537,0.0122906,1616,470,2.02697,0.838761
399,554,2.04041,-0.823303,0.000328456,0.00439224,0.00127798,0.00476072,-4.00294e-05,1.29008,0.00318724,0.0170783,1623,470,2.04037,0.823308
406,554,2.02173,-0.800385,0.00105797,0.00424968,0.00155554,0.00488238,0.000425275,1.18449,0.00312283,0.0161589,1630,470,2.02178,0.800371
413,554,2.00867,-0.747986,0.00188291,0.00395377,0.00175774,0.00495838,0.000878301,1.05157,0.0030552,0.0146155,1637,470,2.0087,0.747999
420,554,1.99402,-0.724121,0.00291041,0.00349167,0.002023,0.00524481,0.00115727,0.856741,0.00318173,0.0153492,1644,470,1.99398,0.724111
427,554,2.00793,-0.704071,0.00417104,0.00322889,0.00268112,0.00642216,0.000977773,0.698435,0.00399559,0.0114709,1651,470,2.00797,0.704071
434,554,1.99866,-0.689606,0.00508085,0.00324919,0.00393688,0.00820702,0.000123023,0.671117,0.0054308,0.0105001,1658,470,1.99867,0.689595
441,554,1.99414,-0.646698,0.00554312,0.00488839,0.00500184,0.0102283,0.000203214,0.75272,0.00675215,0.0110507,1665,470,1.99409,0.646684
448,554,2.00647,-0.613495,0.00605616,0.00722384,0.00610881,0.0127766,0.00050336,0.83304,0.00835503,0.0115855,1672,470,2.00652,0.613482
455,554,2.02893,-0.58078,0.00616031,0.00940168,0.00746664,0.0154215,0.000140492,0.892269,0.0102345,0.0128208,1679,470,2.02895,0.580792
462,554,2.01794,-0.551392,0.00556285,0.0121735,0.00896281,0.018421,-0.000684682,0.962053,0.0125152,0.0155796,1686,470,2.01797,0.551383
469,554,1.99695,-0.521088,0.00405393,0.0164784,0.0102556,0.0222566,-0.00172419,1.05771,0.0154446,0.021922,1693,470,1.99691,0.521079
476,554,1.91797,-0.307007,0.00225184,0.0212412,0.0114725,0.0266384,-0.00314535,1.13107,0.0188948,0.0392179,1700,470,1.91791,0.306997
483,554,2.18347,-0.0939026,-0.000127598,0.0261952,0.012506,0.0311894,-0.00512172,1.19086,0.0226936,0.0466491,1707,470,2.18341,0.0939046
490,554,1.84009,-0.0261536,-0.00248641,0.0311027,0.0126755,0.0353492,-0.00673291,1.24753,0.0261016,0.0478979,1714,470,1.8401,0.0261585
497,554,1.8418,0.0494385,0,0,0,0,0,0,0,-1,1721,470,1.84182,-0.0494309
504,554,0.254639,-0.667725,0,0,0,0,0,0,0,-1,1728,470,0.254586,0.667737
511,554,0.786621,-0.617554,0,0,0,0,0,0,0,-1,1735,470,0.786647,0.617543
518,554,1.03967,-0.619934,0,0,0,0,0,0,0,-1,1742,470,1.03967,0.619928
525,554,0,0,0,0,0,0,0,0,0,-1,1749,470,0,0
532,554,0,0,0,0,0,0,0,0,0,-1,1756,470,0,0
539,554,0,0,0,0,0,0,0,0,0,-1,1763,470,0,0
546,554,0,0,0,0,0,0,0,0,0,-1,1770,470,0,0
553,554,0,0,0,0,0,0,0,0,0,-1,1777,470,0,0
560,554,0,0,0,0,0,0,0,0,0,-1,1784,470,0,0
567,554,0,0,0,0,0,0,0,0,0,-1,1791,470,0,0
574,554,0,0,0,0,0,0,0,0,0,-1,1798,470,0,0
581,554,0,0,0,0,0,0,0,0,0,-1,1805,470,0,0
588,554,0,0,0,0,0,0,0,0,0,-1,1812,470,0,0
595,554,0,0,0,0,0,0,0,0,0,-1,1819,470,0,0
602,554,0,0,0,0,0,0,0,0,0,-1,1826,470,0,0
609,554,0,0,0,0,0,0,0,0,0,-1,1833,470,0,0
616,554,0,0,0,0,0,0,0,0,0,-1,1840,470,0,0
623,554,0,0,0,0,0,0,0,0,0,-1,1847,470,0,0
630,554,0,0,0,0,0,0,0,0,0,-1,1854,470,0,0
637,554,0,0,0,0,0,0,0,0,0,-1,1861,470,0,0
644,554,0,0,0,0,0,0,0,0,0,-1,1868,470,0,0
651,554,0,0,0,0,0,0,0,0,0,-1,1875,470,0,0
658,554,0,0,0,0,0,0,0,0,0,-1,1882,470,0,0
665,554,0,0,0,0,0,0,0,0,0,-1,1889,470,0,0
672,554,0,0,0,0,0,0,0,0,0,-1,1896,470,0,0
679,554,0,0,0,0,0,0,0,0,0,-1,1903,470,0,0
686,554,0,0,0,0,0,0,0,0,0,-1,1910,470,0,0
693,554,0,0,0,0,0,0,0,0,0,-1,1917,470,0,0
700,554,0,0,0,0,0,0,0,0,0,-1,1924,470,0,0
707,554,0,0,0,0,0,0,0,0,0,-1,1931,470,0,0
714,554,0,0,0,0,0,0,0,0,0,-1,1938,470,0,0
721,554,0,0,0,0,0,0,0,0,0,-1,1945,470,0,0
728,554,0,0,0,0,0,0,0,0,0,-1,1952,470,0,0
735,554,0,0,0,0,0,0,0,0,0,-1,1959,470,0,0
742,554,0,0,0,0,0,0,0,0,0,-1,1966,470,0,0
749,554,0,0,0,0,0,0,0,0,0,-1,1973,470,0,0
756,554,0,0,0,0,0,0,0,0,0,-1,1980,470,0,0
763,554,0,0,0,0,0,0,0,0,0,-1,1987,470,0,0
770,554,0,0,0,0,0,0,0,0,0,-1,1994,470,0,0
777,554,0,0,0,0,0,0,0,0,0,-1,2001,470,0,0
784,554,0,0,0,0,0,0,0,0,0,-1,2008,470,0,0
791,554,0,0,0,0,0,0,0,0,0,-1,2015,470,0,0
798,554,0,0,0,0,0,0,0,0,0,-1,2022,470,0,0
805,554,0,0,0,0,0,0,0,0,0,-1,2029,470,0,0
812,554,0,0,0,0,0,0,0,0,0,-1,2036,470,0,0
-700,547,0,0,0,0,0,0,0,0,0,-1,524,477,0,0
-693,547,0,0,0,0,0,0,0,0,0,-1,531,477,0,0
-686,547,0,0,0,0,0,0,0,0,0,-1,538,477,0,0
-679,547,0,0,0,0,0,0,0,0,0,-1,545,477,0,0
-672,547,0,0,0,0,0,0,0,0,0,-1,552,477,0,0
-665,547,0,0,0,0,0,0,0,0,0,-1,559,477,0,0
-658,547,0,0,0,0,0,0,0,0,0,-1,566,477,0,0
-651,547,0,0,0,0,0,0,0,0,0,-1,573,477,0,0
-644,547,0,0,0,0,0,0,0,0,0,-1,580,477,0,0
-637,547,0,0,0,0,0,0,0,0,0,-1,587,477,0,0
-630,547,0,0,0,0,0,0,0,0,0,-1,594,477,0,0
-623,547,0,0,0,0,0,0,0,0,0,-1,601,477,0,0
-616,547,0,0,0,0,0,0,0,0,0,-1,608,477,0,0
-609,547,0,0,0,0,0,0,0,0,0,-1,615,477,0,0
-602,547,0,0,0,0,0,0,0,0,0,-1,622,477,0,0
-595,547,0,0,0,0,0,0,0,0,0,-1,629,477,0,0
-588,547,0,0,0,0,0,0,0,0,0,-1,636,477,0,0
-581,547,0,0,0,0,0,0,0,0,0,-1,643,477,0,0
-574,547,0,0,0,0,0,0,0,0,0,-1,650,477,0,0
-567,547,0,0,0,0,0,0,0,0,0,-1,657,477,0,0
-560,547,0,0,0,0,0,0,0,0,0,-1,664,477,0,0
-553,547,0,0,0,0,0,0,0,0,0,-1,671,477,0,0
-546,547,0,0,0,0,0,0,0,0,0,-1,678,477,0,0
-539,547,0,0,0,0,0,0,0,0,0,-1,685,477,0,0
-532,547,0,0,0,0,0,0,0,0,0,-1,692,477,0,0
-525,547,0,0,0,0,0,0,0,0,0,-1,699,477,0,0
-518,547,0,0,0,0,0,0,0,0,0,-1,706,477,0,0
-511,547,0,0,0,0,0,0,0,0,0,-1,713,477,0,0
-504,547,0,0,0,0,0,0,0,0,0,-1,720,477,0,0
-497,547,0,0,0,0,0,0,0,0,0,-1,727,477,0,0
-490,547,0,0,0,0,0,0,0,0,0,-1,734,477,0,0
-483,547,0,0,0,0,0,0,0,0,0,-1,741,477,0,0
-476,547,0,0,0,0,0,0,0,0,0,-1,748,477,0,0
-469,547,0,0,0,0,0,0,0,0,0,-1,755,477,0,0
-462,547,0,0,0,0,0,0,0,0,0,-1,762,477,0,0
-455,547,0,0,0,0,0,0,0,0,0,-1,769,477,0,0
-448,547,0,0,0,0,0,0,0,0,0,-1,776,477,0,0
-441,547,0,0,0,0,0,0,0,0,0,-1,783,477,0,0
-434,547,0,0,0,0,0,0,0,0,0,-1,790,477,0,0
-427,547,0,0,0,0,0,0,0,0,0,-1,797,477,0,0
-420,547,0,0,0,0,0,0,0,0,0,-1,804,477,0,0
-413,547,0,0,0,0,0,0,0,0,0,-1,811,477,0,0
-406,547,2.91278,1.96182,-0.0575475,0.0513648,0.0451466,0.0676454,-0.0738281,1.22469,0.0817058,0.043231,818,477,2.91275,-1.96181
-399,547,1.71741,2.24139,-0.0554912,0.0541701,0.0329986,0.0633341,-0.0646552,1.29992,0.0738959,0.0457857,825,477,1.71743,-2.24138
-392,547,0.735168,1.98734,-0.0485349,0.0518289,0.0242844,0.057396,-0.0541021,1.34544,0.0643828,0.0429984,832,477,0.73518,-1.98733
-385,547,0.348145,-2.15521,0,0,0,0,0,0,0,-1,839,477,0.34813,2.15522
-378,547,0.536194,-1.92743,-0.0342814,0.0417872,0.0142343,0.0443636,-0.0368577,1.39174,0.0469598,0.0498326,846,477,0.536181,1.92744
-371,547,0.44696,-1.85071,-0.028947,0.0357316,0.0103447,0.0373459,-0.0305612,1.416,0.0392713,0.0463909,853,477,0.446958,1.85071
-364,547,0.546997,-1.53604,-0.0218286,0.0284353,0.00711511,0.0294231,-0.0228163,1.43285,0.0302407,0.044352,860,477,0.546996,1.53603
-357,547,0.66333,-1.11816,-0.0139661,0.0208437,0.0082323,0.0226924,-0.0158148,1.34989,0.02235,0.0424727,867,477,0.663331,1.11817
-350,547,0.94751,-0.688812,-0.00744523,0.014962,0.00856244,0.0178593,-0.0103425,1.24451,0.016474,0.0432286,874,477,0.947533,0.688811
-343,547,1.39014,-0.465729,-0.00391834,0.00955686,0.00932654,0.0143249,-0.00868637,1.0982,0.0134178,0.0353468,881,477,1.39012,0.465741
-336,547,1.42493,-0.49527,-0.00128484,0.00545303,0.00936223,0.012034,-0.00786584,0.958107,0.0115729,0.0158523,888,477,1.4249,0.495275
-329,547,1.4328,-0.520294,-0.000904449,0.00344331,0.00924136,0.010763,-0.00822417,0.900915,0.0109949,0.00880386,895,477,1.43279,0.520303
-322,547,1.44489,-0.556976,-0.000902453,0.000260826,0.00820883,0.00790859,-0.00855022,0.820767,0.00950491,0.0100818,902,477,1.44489,0.556965
-315,547,1.45032,-0.589233,-0.000497394,0.000250949,0.00681665,0.00670369,-0.00695013,0.812816,0.00788347,0.00995011,909,477,1.45031,0.589227
-308,547,1.44354,-0.616455,-0.000180535,0.000600383,0.00560806,0.00583156,-0.00541171,0.820154,0.00649282,0.0113007,916,477,1.44355,0.616449
-301,547,1.45825,-0.654449,5.87354e-05,0.000383962,0.00411475,0.00433931,-0.00389661,0.805148,0.0047573,0.01149,923,477,1.45823,0.654462
-294,547,1.44342,-0.678162,-0.000450628,0.000915751,0.00303946,0.00334786,-0.00288273,0.895948,0.00360057,0.0097659,930,477,1.44344,0.678169
-287,547,1.44226,-0.699097,-0.000907846,0.00155856,0.00216381,0.00281591,-0.0021652,1.0444,0.00288401,0.0105578,937,477,1.44225,0.699107
-280,547,1.46204,-0.743378,-0.00118385,0.00205634,0.00151778,0.00265623,-0.00178375,1.19439,0.00257987,0.0117834,944,477,1.46202,0.743372
-273,547,1.46008,-0.770172,-0.00140111,0.00262226,0.00116545,0.00293547,-0.00171433,1.30825,0.00271524,0.0120247,951,477,1.4601,0.770182
-266,547,1.4502,-0.798523,-0.00168696,0.00323853,0.00113399,0.00348706,-0.0019355,1.35504,0.00317315,0.0120872,958,477,1.45021,0.798524
-259,547,1.43451,-0.833557,-0.00213764,0.00378328,0.00125847,0.00403966,-0.00239402,1.36982,0.00375477,0.0110781,965,477,1.4345,0.833571
-252,547,1.43738,-0.8573,-0.00258756,0.004489,0.00122048,0.00469358,-0.00279215,1.40472,0.00436811,0.0102998,972,477,1.43736,0.857286
-245,547,1.45392,-0.88623,-0.00295074,0.00535692,0.000990406,0.00547336,-0.00306718,1.45377,0.00499569,0.0113552,979,477,1.45389,0.886223
-238,547,1.47784,-0.925079,-0.00312914,0.00698625,0.000354905,0.00699868,-0.00314157,1.53577,0.00599399,0.00856882,986,477,1.47785,0.925068
-231,547,1.48108,-0.95816,-0.00343512,0.00928092,-0.000355679,0.00929086,-0.00344507,-1.54285,0.0076069,0.0082109,993,477,1.48105,0.958147
-224,547,1.46454,-0.960571,-0.00387273,0.01282,-0.000988448,0.0128783,-0.00393106,-1.51186,0.0101528,0.0106731,1000,477,1.46456,0.96058
-217,547,1.46832,-0.969208,-0.00404542,0.0160932,-0.00209166,0.0163082,-0.00426037,-1.46839,0.0125359,0.0141922,1007,477,1.46833,0.969205
-210,547,1.44934,-1.00189,-0.00372706,0.0202649,-0.003339,0.0207209,-0.00418308,-1.43506,0.0153989,0.0216649,1014,477,1.44934,1.00189
-203,547,1.38263,-1.05365,-0.00326292,0.0251974,-0.00477987,0.0259788,-0.00404424,-1.40877,0.0188127,0.0337207,1021,477,1.38264,1.05366
-196,547,1.48474,-1.3656,0,0,0,0,0,0,0,-1,1028,477,1.48469,1.3656
-189,547,1.42957,-1.28195,-0.00259426,0.0350961,-0.00647536,0.0361776,-0.00367573,-1.40531,0.0254323,0.0480407,1035,477,1.42958,1.28195
-182,547,1.54431,-2.14902,-0.00172502,0.0421327,-0.00772519,0.0434536,-0.00304597,-1.40144,0.0300359,0.0473694,1042,477,1.54437,2.14902
-175,547,1.17395,-1.14664,-0.00101514,0.0478909,-0.00808899,0.0491941,-0.00231832,-1.41106,0.0335955,0.0477043,1049,477,1.17393,1.14664
-168,547,1.34143,-1.07373,0,0,0,0,0,0,0,-1,1056,477,1.34149,1.07372
-161,547,1.37085,-2.24417,8.83499e-05,0.0571228,-0.00725383,0.0580309,-0.000819758,-1.44625,0.0389634,0.0446868,1063,477,1.37085,2.24417
-154,547,1.76208,-2.57806,0.000635651,0.0617267,-0.0062872,0.062367,-4.68828e-06,-1.4693,0.0415796,0.0428502,1070,477,1.76214,2.57806
-147,547,1.65576,-2.63989,0.00114286,0.0660557,-0.00479769,0.0664084,0.000790179,-1.49742,0.0440113,0.0453678,1077,477,1.6558,2.63989
-140,547,1.63428,-2.65564,0.00127051,0.0670625,-0.00276451,0.0671784,0.00115455,-1.52888,0.0444058,0.0470172,1084,477,1.63432,2.65564
-133,547,2.01636,-3.19901,0,0,0,0,0,0,0,-1,1091,477,2.01636,3.19902
-126,547,3.2406,0.690247,0,0,0,0,0,0,0,-1,1098,477,3.24065,-0.690259
-119,547,3.12659,-0.552612,0,0,0,0,0,0,0,-1,1105,477,3.12659,0.552609
-112,547,1.12585,-0.915741,0,0,0,0,0,0,0,-1,1112,477,1.12582,0.915752
-105,547,1.28992,-1.50201,0,0,0,0,0,0,0,-1,1119,477,1.28993,1.502
-98,547,3.63452,0.623322,0,0,0,0,0,0,0,-1,1126,477,3.63451,-0.623314
-91,547,3.5741,0.759521,0,0,0,0,0,0,0,-1,1133,477,3.57406,-0.759524
-84,547,0.512451,-0.934692,0,0,0,0,0,0,0,-1,1140,477,0.512484,0.934693
-77,547,0.59668,-1.79474,-0.0207635,0.00972925,-0.0543385,0.0509198,-0.0619541,-0.922172,0.0652715,0.0452646,1147,477,0.59669,1.79475
-70,547,0.205322,-2.35114,-0.0264347,0.01357,-0.0609837,0.0577479,-0.0706126,-0.943868,0.0742329,0.0483053,1154,477,0.205344,2.35113
-63,547,0.184204,-4.22076,0,0,0,0,0,0,0,-1,1161,477,0.184186,4.22077
-56,547,-0.480835,-0.137512,0,0,0,0,0,0,0,-1,1168,477,-0.480855,0.137502
-49,547,-0.545654,-0.183289,0,0,0,0,0,0,0,-1,1175,477,-0.545611,0.1833
-42,547,-0.595703,0.224243,0,0,0,0,0,0,0,-1,1182,477,-0.595727,-0.224234
-35,547,-0.0855713,1.34451,0,0,0,0,0,0,0,-1,1189,477,-0.0855718,-1.34451
-28,547,0.179077,1.64023,0,0,0,0,0,0,0,-1,1196,477,0.179055,-1.64023
-21,547,3.35132,5.79489,0,0,0,0,0,0,0,-1,1203,477,3.35136,-5.7949
-14,547,2.21729,6.18329,0,0,0,0,0,0,0,-1,1210,477,2.21725,-6.18328
-7,547,1.05029,6.57922,-0.109931,-0.249975,0.00807749,-0.109467,-0.25044,0.0574245,0.144972,0.0441719,1217,477,1.05025,-6.57923
0,547,-0.31897,7.117,-0.075624,-0.226996,0.00192276,-0.0755996,-0.22702,0.0126995,0.133485,0.0423789,1224,477,-0.318994,-7.11701
7,547,-1.46069,7.42728,-0.0302948,-0.15331,-0.0276899,-0.0243493,-0.159256,-0.211504,0.0990567,0.0475071,1231,477,-1.4607,-7.42729
14,547,0,0,0,0,0,0,0,0,0,-1,1238,477,0,0
21,547,0,0,0,0,0,0,0,0,0,-1,1245,477,0,0
28,547,0,0,0,0,0,0,0,0,0,-1,1252,477,0,0
35,547,0,0,0,0,0,0,0,0,0,-1,1259,477,0,0
42,547,0,0,0,0,0,0,0,0,0,-1,1266,477,0,0
49,547,0,0,0,0,0,0,0,0,0,-1,1273,477,0,0
56,547,0,0,0,0,0,0,0,0,0,-1,1280,477,0,0
63,547,0,0,0,0,0,0,0,0,0,-1,1287,477,0,0
70,547,0,0,0,0,0,0,0,0,0,-1,1294,477,0,0
77,547,0,0,0,0,0,0,0,0,0,-1,1301,477,0,0
84,547,0,0,0,0,0,0,0,0,0,-1,1308,477,0,0
91,547,0,0,0,0,0,0,0,0,0,-1,1315,477,0,0
98,547,0,0,0,0,0,0,0,0,0,-1,1322,477,0,0
105,547,4.89661,0.81366,0,0,0,0,0,0,0,-1,1329,477,4.89665,-0.813666
112,547,4.98853,1.34821,0.109015,0.0451692,-0.0921128,0.174579,-0.0203957,-0.618594,0.123746,0.0436996,1336,477,4.98854,-1.34821
119,547,4.63062,1.71014,0.0759508,0.0110535,-0.0722389,0.122694,-0.0356898,-0.57431,0.0959318,0.0421556,1343,477,4.63062,-1.71014
126,547,3.80444,2.51923,0.0449239,-0.0219512,-0.0545034,0.0754292,-0.0524565,-0.510257,0.0742309,0.0458615,1350,477,3.8044,-2.51923
133,547,3.02966,3.43567,0.0218406,-0.0545614,-0.0416449,0.0401516,-0.0728725,-0.414252,0.0661597,0.0470806,1357,477,3.02963,-3.43567
140,547,2.27368,4.39883,0,0,0,0,0,0,0,-1,1364,477,2.27373,-4.39884
147,547,4.74146,5.88391,0.00292358,-0.0948675,-0.0393321,0.0167798,-0.108724,-0.338712,0.0786745,0.0458485,1371,477,4.74145,-5.88392
154,547,5.07129,5.37497,-0.00318126,-0.0991445,-0.0434276,0.0135534,-0.115879,-0.36781,0.0821441,0.0481319,1378,477,5.07134,-5.37498
161,547,5.46191,5.01697,0,0,0,0,0,0,0,-1,1385,477,5.46191,-5.01698
168,547,2.67737,-0.81958,0,0,0,0,0,0,0,-1,1392,477,2.67733,0.819569
175,547,3.35034,-0.26532,0,0,0,0,0,0,0,-1,1399,477,3.3503,0.265306
182,547,4.26038,3.72672,0,0,0,0,0,0,0,-1,1406,477,4.26039,-3.7267
189,547,3.40454,1.28671,0,0,0,0,0,0,0,-1,1413,477,3.40457,-1.28673
196,547,3.53931,1.87793,0,0,0,0,0,0,0,-1,1420,477,3.53928,-1.87794
203,547,4.01086,0.871368,0,0,0,0,0,0,0,-1,1427,477,4.01084,-0.871379
210,547,3.40051,1.45767,0,0,0,0,0,0,0,-1,1434,477,3.40052,-1.45766
217,547,3.67712,-0.860107,0,0,0,0,0,0,0,-1,1441,477,3.67718,0.86011
224,547,3.48914,-1.23459,0,0,0,0,0,0,0,-1,1448,477,3.48914,1.23458
231,547,3.22791,-1.57773,0,0,0,0,0,0,0,-1,1455,477,3.22792,1.57772
238,547,3.1698,-1.99698,0,0,0,0,0,0,0,-1,1462,477,3.16976,1.99698
245,547,2.29553,-1.36041,0,0,0,0,0,0,0,-1,1469,477,2.29549,1.36041
252,547,1.27356,-1.48856,0,0,0,0,0,0,0,-1,1476,477,1.27353,1.48856
259,547,2.19043,-1.06879,0.025372,0.0153465,-0.00575466,0.027991,0.0127275,-0.427098,0.0161827,0.0415341,1483,477,2.19048,1.06878
266,547,3.68555,2.09427,0.0289964,0.0118143,-0.00648314,0.0311681,0.00964256,-0.323232,0.0184257,0.0455211,1490,477,3.68551,-2.09428
273,547,3.46704,1.49994,0.0303649,0.00583339,-0.00754507,0.0324997,0.00369855,-0.275737,0.0205449,0.046747,1497,477,3.46701,-1.49994
280,547,3.72388,0.979919,0.0307259,0.00249979,-0.00952462,0.0336392,-0.000413511,-0.296834,0.0225652,0.0475165,1504,477,3.7239,-0.979905
287,547,3.90271,0.272797,0.030279,0.000547207,-0.0121035,0.0345831,-0.00375692,-0.341664,0.0244043,0.0473466,1511,477,3.90268,-0.272789
294,547,3.56665,-1.00009,0.0284924,-0.000958327,-0.01413,0.0341752,-0.00664114,-0.382385,0.0252895,0.0450835,1518,477,3.56671,1.00008
301,547,1.91748,-1.13141,0,0,0,0,0,0,0,-1,1525,477,1.91751,1.13141
308,547,1.86499,-1.54523,0.0224298,-0.00288994,-0.0164862,0.0305562,-0.0110163,-0.457967,0.02487,0.0468521,1532,477,1.86494,1.54521
315,547,2.02979,-1.15311,0.0186091,-0.00268692,-0.0163298,0.0274558,-0.0115336,-0.496487,0.0231278,0.0466773,1539,477,2.02983,1.15311
322,547,1.66931,-1.04858,0,0,0,0,0,0,0,-1,1546,477,1.66934,1.04859
329,547,1.94946,-1.12622,0.0125672,-0.00265464,-0.0133806,0.02035,-0.0104374,-0.526815,0.0180796,0.0367395,1553,477,1.94943,1.12622
336,547,1.91614,-1.05359,0.0104672,-0.00121244,-0.010295,0.0164634,-0.00720863,-0.527404,0.0140109,0.0261521,1560,477,1.91611,1.05358
343,547,2.00696,-1.06296,0.00858504,0.000792763,-0.00708599,0.0127754,-0.00339758,-0.534039,0.00984681,0.0190636,1567,477,2.00699,1.06294
350,547,2.03809,-1.04419,0.00698565,0.0021397,-0.00438324,0.00957102,-0.00044568,-0.53291,0.00653431,0.0147364,1574,477,2.03806,1.0442
357,547,2.04358,-1.00488,0.00472888,0.00284239,-0.00280976,0.00674949,0.000821782,-0.623457,0.00425229,0.0113634,1581,477,2.04354,1.0049
364,547,2.04846,-0.960388,0.00291327,0.00256663,-0.00127953,0.00403116,0.00144874,-0.718079,0.00235787,0.00935605,1588,477,2.04848,0.960389
371,547,2.02148,-0.937256,0.00163125,0.00233883,-0.000570054,0.00265596,0.00131412,-1.06312,0.00153345,0.00890123,1595,477,2.02146,0.93727
378,547,2.02502,-0.913544,0.000824968,0.00255607,-0.000417041,0.0026513,0.000729737,-1.3463,0.00158144,0.00951449,1602,477,2.02498,0.913541
385,547,2.06995,-0.880035,0.000101774,0.0026035,-0.000472309,0.0026897,1.55749e-05,-1.39028,0.00178796,0.00984086,1609,477,2.06996,0.880021
392,547,2.06543,-0.844391,-1.82289e-05,0.00268231,-0.000148386,0.00269044,-2.63579e-05,-1.51607,0.00180247,0.0110887,1616,477,2.06542,0.844389
399,547,2.04785,-0.814636,0.000274702,0.0025735,0.000230895,0.00259646,0.00025174,1.47167,0.00165346,0.0131296,1623,477,2.04785,0.814643
406,547,2.04236,-0.790436,0.000675639,0.00238327,0.000505656,0.00252177,0.00053714,1.30345,0.00153381,0.0124847,1630,477,2.04241,0.790422
413,547,2.04553,-0.751892,0.00117415,0.00213799,0.000739641,0.00253886,0.000773279,1.07413,0.00150267,0.0121382,1637,477,2.04549,0.751897
420,547,2.03186,-0.731842,0.00189762,0.00177489,0.00105532,0.00289336,0.000779159,0.756356,0.00172874,0.0138269,1644,477,2.03181,0.731832
427,547,2.04529,-0.708557,0.00276602,0.001648,0.00168348,0.00398088,0.000433148,0.625098,0.00252196,0.0128233,1651,477,2.04526,0.708542
434,547,2.04041,-0.684387,0.00331687,0.0018288,0.00276428,0.00543549,-0.000289826,0.653934,0.00372403,0.00937837,1658,477,2.04042,0.684394
441,547,2.03394,-0.641907,0.00347201,0.00328528,0.00366717,0.007047,-0.000289709,0.772671,0.00479749,0.0102008,1665,477,2.03394,0.641896
448,547,2.03662,-0.616028,0.00362777,0.00536061,0.00458074,0.00915615,-0.000167766,0.878866,0.00616078,0.0107462,1672,477,2.03663,0.616043
455,547,2.05359,-0.596069,0.00344261,0.00728958,0.00560485,0.0112918,-0.000559622,0.950692,0.00772118,0.0109348,1679,477,2.05358,0.596078
462,547,2.03735,-0.560059,0.00271819,0.00962307,0.00664157,0.0136559,-0.00131467,1.02509,0.00957232,0.0109883,1686,477,2.03733,0.560044
469,547,2.00952,-0.549072,0.00129918,0.0126337,0.00737364,0.0162664,-0.00233347,1.11304,0.0116999,0.0175944,1693,477,2.00957,0.549063
476,547,1.98511,-0.444702,-0.000264406,0.0158928,0.00804799,0.0192174,-0.00358905,1.17905,0.0141604,0.0296163,1700,477,1.98514,0.444706
483,547,1.96045,-0.281464,-0.00233947,0.0193652,0.00865431,0.0223934,-0.00536771,1.2342,0.017003,0.0411082,1707,477,1.9605,0.281457
490,547,1.99646,-0.198212,-0.00417268,0.0228447,0.00844302,0.0252662,-0.00659413,1.29149,0.019419,0.0445566,1714,477,1.99649,0.198208
497,547,2.01929,-0.115021,0,0,0,0,0,0,0,-1,1721,477,2.01925,0.115033
504,547,1.19385,-0.425446,0,0,0,0,0,0,0,-1,1728,477,1.19387,0.425443
511,547,1.41724,-0.698151,0,0,0,0,0,0,0,-1,1735,477,1.41728,0.698139
518,547,1.14514,-0.546204,-0.009337,0.0286884,0.00406554,0.0291182,-0.00976682,1.46547,0.0233586,0.0485466,1742,477,1.1451,0.546206
525,547,1.12891,-0.624817,-0.00792973,0.0273407,0.00326024,0.0276395,-0.00822856,1.47939,0.0216957,0.0487834,1749,477,1.12897,0.624803
532,547,0,0,0,0,0,0,0,0,0,-1,1756,477,0,0
539,547,0,0,0,0,0,0,0,0,0,-1,1763,477,0,0
546,547,0,0,0,0,0,0,0,0,0,-1,1770,477,0,0
553,547,0,0,0,0,0,0,0,0,0,-1,1777,477,0,0
560,547,0,0,0,0,0,0,0,0,0,-1,1784,477,0,0
567,547,0,0,0,0,0,0,0,0,0,-1,1791,477,0,0
574,547,0,0,0,0,0,0,0,0,0,-1,1798,477,0,0
581,547,0,0,0,0,0,0,0,0,0,-1,1805,477,0,0
588,547,0,0,0,0,0,0,0,0,0,-1,1812,477,0,0
595,547,0,0,0,0,0,0,0,0,0,-1,1819,477,0,0
602,547,0,0,0,0,0,0,0,0,0,-1,1826,477,0,0
609,547,0,0,0,0,0,0,0,0,0,-1,1833,477,0,0
616,547,0,0,0,0,0,0,0,0,0,-1,1840,477,0,0
623,547,0,0,0,0,0,0,0,0,0,-1,1847,477,0,0
630,547,0,0,0,0,0,0,0,0,0,-1,1854,477,0,0
637,547,0,0,0,0,0,0,0,0,0,-1,1861,477,0,0
644,547,0,0,0,0,0,0,0,0,0,-1,1868,477,0,0
651,547,0,0,0,0,0,0,0,0,0,-1,1875,477,0,0
658,547,0,0,0,0,0,0,0,0,0,-1,1882,477,0,0
665,547,0,0,0,0,0,0,0,0,0,-1,1889,477,0,0
672,547,0,0,0,0,0,0,0,0,0,-1,1896,477,0,0
679,547,0,0,0,0,0,0,0,0,0,-1,1903,477,0,0
686,547,0,0,0,0,0,0,0,0,0,-1,1910,477,0,0
693,547,0,0,0,0,0,0,0,0,0,-1,1917,477,0,0
700,547,0,0,0,0,0,0,0,0,0,-1,1924,477,0,0
707,547,0,0,0,0,0,0,0,0,0,-1,1931,477,0,0
714,547,0,0,0,0,0,0,0,0,0,-1,1938,477,0,0
721,547,0,0,0,0,0,0,0,0,0,-1,1945,477,0,0
728,547,0,0,0,0,0,0,0,0,0,-1,1952,477,0,0
735,547,0,0,0,0,0,0,0,0,0,-1,1959,477,0,0
742,547,0,0,0,0,0,0,0,0,0,-1,1966,477,0,0
749,547,0,0,0,0,0,0,0,0,0,-1,1973,477,0,0
756,547,0,0,0,0,0,0,0,0,0,-1,1980,477,0,0
763,547,0,0,0,0,0,0,0,0,0,-1,1987,477,0,0
770,547,0,0,0,0,0,0,0,0,0,-1,1994,477,0,0
777,547,0,0,0,0,0,0,0,0,0,-1,2001,477,0,0
784,547,0,0,0,0,0,0,0,0,0,-1,2008,477,0,0
791,547,0,0,0,0,0,0,0,0,0,-1,2015,477,0,0
798,547,0,0,0,0,0,0,0,0,0,-1,2022,477,0,0
805,547,0,0,0,0,0,0,0,0,0,-1,2029,477,0,0
812,547,0,0,0,0,0,0,0,0,0,-1,2036,477,0,0
-700,540,0,0,0,0,0,0,0,0,0,-1,524,484,0,0
-693,540,0,0,0,0,0,0,0,0,0,-1,531,484,0,0
-686,540,0,0,0,0,0,0,0,0,0,-1,538,484,0,0
-679,540,0,0,0,0,0,0,0,0,0,-1,545,484,0,0
-672,540,0,0,0,0,0,0,0,0,0,-1,552,484,0,0
-665,540,0,0,0,0,0,0,0,0,0,-1,559,484,0,0
-658,540,0,0,0,0,0,0,0,0,0,-1,566,484,0,0
-651,540,0,0,0,0,0,0,0,0,0,-1,573,484,0,0
-644,540,0,0,0,0,0,0,0,0,0,-1,580,484,0,0
-637,540,0,0,0,0,0,0,0,0,0,-1,587,484,0,0
-630,540,0,0,0,0,0,0,0,0,0,-1,594,484,0,0
-623,540,0,0,0,0,0,0,0,0,0,-1,601,484,0,0
-616,540,0,0,0,0,0,0,0,0,0,-1,608,484,0,0
-609,540,0,0,0,0,0,0,0,0,0,-1,615,484,0,0
-602,540,0,0,0,0,0,0,0,0,0,-1,622,484,0,0
-595,540,0,0,0,0,0,0,0,0,0,-1,629,484,0,0
-588,540,0,0,0,0,0,0,0,0,0,-1,636,484,0,0
-581,540,0,0,0,0,0,0,0,0,0,-1,643,484,0,0
-574,540,0,0,0,0,0,0,0,0,0,-1,650,484,0,0
-567,540,0,0,0,0,0,0,0,0,0,-1,657,484,0,0
-560,540,0,0,0,0,0,0,0,0,0,-1,664,484,0,0
-553,540,0,0,0,0,0,0,0,0,0,-1,671,484,0,0
-546,540,0,0,0,0,0,0,0,0,0,-1,678,484,0,0
-539,540,0,0,0,0,0,0,0,0,0,-1,685,484,0,0
-532,540,0,0,0,0,0,0,0,0,0,-1,692,484,0,0
-525,540,0,0,0,0,0,0,0,0,0,-1,699,484,0,0
-518,540,0,0,0,0,0,0,0,0,0,-1,706,484,0,0
-511,540,0,0,0,0,0,0,0,0,0,-1,713,484,0,0
-504,540,0,0,0,0,0,0,0,0,0,-1,720,484,0,0
-497,540,0,0,0,0,0,0,0,0,0,-1,727,484,0,0
-490,540,0,0,0,0,0,0,0,0,0,-1,734,484,0,0
-483,540,0,0,0,0,0,0,0,0,0,-1,741,484,0,0
-476,540,0,0,0,0,0,0,0,0,0,-1,748,484,0,0
-469,540,0,0,0,0,0,0,0,0,0,-1,755,484,0,0
-462,540,0,0,0,0,0,0,0,0,0,-1,762,484,0,0
-455,540,0,0,0,0,0,0,0,0,0,-1,769,484,0,0
-448,540,0,0,0,0,0,0,0,0,0,-1,776,484,0,0
-441,540,0,0,0,0,0,0,0,0,0,-1,783,484,0,0
-434,540,0,0,0,0,0,0,0,0,0,-1,790,484,0,0
-427,540,0,0,0,0,0,0,0,0,0,-1,797,484,0,0
-420,540,6.0304,1.5484,-0.0234795,0.0391113,0.055377,0.0714242,-0.0557924,1.04259,0.0736331,0.048277,804,484,6.03039,-1.5484
-413,540,4.35657,1.6398,-0.0320184,0.0432924,0.0419943,0.0620413,-0.0507674,1.15089,0.0652384,0.0465408,811,484,4.35658,-1.6398
-406,540,2.73389,1.75943,-0.0354791,0.0468324,0.0312814,0.0573711,-0.0460178,1.24584,0.0598115,0.0451877,818,484,2.73391,-1.75942
-399,540,1.41901,1.93121,-0.0359501,0.0477427,0.0222411,0.0532861,-0.0414935,1.32653,0.054862,0.0432416,825,484,1.41902,-1.93121
-392,540,0.137451,2.04691,-0.0325959,0.045053,0.0156281,0.0480804,-0.0356233,1.37945,0.0485044,0.0458259,832,484,0.137463,-2.04692
-385,540,-0.242798,-0.216248,-0.0285397,0.0408131,0.0110133,0.04252,-0.0302466,1.41703,0.0422106,0.0471818,839,484,-0.242811,0.216239
-378,540,0.866638,0.00595093,0,0,0,0,0,0,0,-1,846,484,0.866666,-0.00594305
-371,540,0.956909,-0.261169,-0.0211868,0.0303405,0.00473843,0.0307726,-0.021619,1.47985,0.0304018,0.046661,853,484,0.95691,0.261167
-364,540,1.3064,-0.422668,-0.0160058,0.0237925,0.00205658,0.0238985,-0.0161118,1.5193,0.0232453,0.0443245,860,484,1.30639,0.422674
-357,540,1.24158,-0.562866,-0.00971808,0.0171581,0.00353492,0.0176153,-0.0101752,1.44218,0.0162354,0.0388924,867,484,1.24158,0.562862
-350,540,1.29938,-0.461853,-0.00447929,0.0122141,0.00415557,0.0131914,-0.00545655,1.33983,0.0110708,0.0263615,874,484,1.29938,0.461847
-343,540,1.37292,-0.467651,-0.00188523,0.00758668,0.00528737,0.00994901,-0.00424755,1.15062,0.00841384,0.0132142,881,484,1.37292,0.467655
-336,540,1.40222,-0.503296,8.91393e-05,0.00409654,0.00574575,0.00817794,-0.00399226,0.953168,0.00716366,0.0120177,888,484,1.40225,0.503302
-329,540,1.40375,-0.516937,0.000231664,0.00249495,0.00606539,0.00753336,-0.00480675,0.877625,0.0071823,0.0101069,895,484,1.40375,0.516924
-322,540,1.40918,-0.553131,8.7304e-05,-0.000197314,0.00549128,0.00543812,-0.00554813,0.772443,0.00634302,0.0137144,902,484,1.4092,0.553127
-315,540,1.40472,-0.587494,0.000394729,-0.000124901,0.00450799,0.00465039,-0.00438056,0.756613,0.0052148,0.0124411,909,484,1.40475,0.58748
-308,540,1.40967,-0.601898,0.000668099,0.000274239,0.00364687,0.00412335,-0.00318101,0.758424,0.00422886,0.0121949,916,484,1.40969,0.601894
-301,540,1.40509,-0.63739,0.000917319,0.000275863,0.00253442,0.00315123,-0.00195805,0.722458,0.00297653,0.0130297,923,484,1.40507,0.637393
-294,540,1.41785,-0.69162,0.00051499,0.000915619,0.00178952,0.002516,-0.00108539,0.841135,0.00213325,0.0119677,930,484,1.41784,0.69161
-287,540,1.4306,-0.716614,8.42273e-05,0.00163396,0.00123387,0.00231609,-0.000597904,1.06577,0.00177721,0.00817796,937,484,1.43063,0.716605
-280,540,1.43115,-0.750641,-0.000310644,0.00208742,0.00100938,0.00245572,-0.000678942,1.22093,0.00190424,0.0089291,944,484,1.43113,0.75064
-273,540,1.422,-0.776276,-0.000817466,0.00273728,0.00104204,0.00302022,-0.00110041,1.30566,0.00246361,0.0115802,951,484,1.42202,0.776275
-266,540,1.41614,-0.806641,-0.00156406,0.00344331,0.00130961,0.00376513,-0.00188589,1.32983,0.00332221,0.0127217,958,484,1.41613,0.806651
-259,540,1.4231,-0.849487,-0.00257181,0.00400912,0.0016851,0.00441551,-0.0029782,1.33415,0.00429556,0.01167,965,484,1.42308,0.849498
-252,540,1.41919,-0.875549,-0.00365633,0.00466144,0.00188578,0.00506901,-0.0040639,1.35794,0.00528352,0.0114888,972,484,1.41917,0.875553
-245,540,1.41119,-0.913025,-0.00465349,0.00555355,0.00188058,0.00588902,-0.00498895,1.39427,0.00628756,0.011846,979,484,1.41121,0.913012
-238,540,1.42792,-0.933472,-0.00548418,0.00718153,0.00144219,0.00734367,-0.00564633,1.45884,0.00752109,0.00930091,986,484,1.42794,0.933472
-231,540,1.41089,-0.953247,-0.0064461,0.00947305,0.000842662,0.00951753,-0.00649058,1.51806,0.0092972,0.0114166,993,484,1.41087,0.95326
-224,540,1.41479,-0.94754,-0.00748857,0.0131262,0.000266574,0.0131297,-0.00749202,1.55787,0.0120533,0.0163905,1000,484,1.41479,0.947542
-217,540,1.43359,-0.944855,-0.0081408,0.0165312,-0.000881977,0.0165627,-0.00817229,-1.53511,0.014552,0.0271374,1007,484,1.43361,0.944842
-210,540,1.4231,-1.03821,-0.00813807,0.0210116,-0.00225073,0.0211844,-0.00831083,-1.49419,0.0175614,0.0390765,1014,484,1.4231,1.03821
-203,540,1.49353,-1.74509,-0.00776808,0.0264133,-0.00394904,0.0268636,-0.00821839,-1.45726,0.0211867,0.0426556,1021,484,1.49353,1.74509
-196,540,1.58899,-1.98709,-0.00760041,0.0321032,-0.00523488,0.0327818,-0.00827902,-1.44188,0.025074,0.0454971,1028,484,1.58896,1.9871
-189,540,1.63184,-2.24341,-0.00719816,0.0373875,-0.00593378,0.0381637,-0.00797436,-1.44072,0.0284752,0.0469368,1035,484,1.63178,2.24341
-182,540,1.58032,-2.68124,-0.00629396,0.045226,-0.00727893,0.0462346,-0.00730261,-1.4331,0.0335235,0.0471763,1042,484,1.58029,2.68125
-175,540,1.25732,-3.20938,-0.00536289,0.0521707,-0.00781255,0.0532127,-0.00640489,-1.4382,0.0377915,0.0465534,1049,484,1.25734,3.2094
-168,540,1.17603,-3.45264,0,0,0,0,0,0,0,-1,1056,484,1.17598,3.45263
-161,540,0.952637,-2.47913,0,0,0,0,0,0,0,-1,1063,484,0.95261,2.47914
-154,540,1.2478,-2.8439,0,0,0,0,0,0,0,-1,1070,484,1.24779,2.84391
-147,540,1.36755,-2.62106,-0.00183776,0.0776565,-0.00338062,0.0778,-0.00198127,-1.52837,0.0525396,0.0465083,1077,484,1.36752,2.62107
-140,540,1.0105,-2.50592,-0.00194765,0.0795313,0.000277228,0.0795322,-0.0019486,1.56739,0.0536828,0.0467476,1084,484,1.01044,2.50591
-133,540,0.703247,-2.52951,0,0,0,0,0,0,0,-1,1091,484,0.703201,2.52952
-126,540,3.53674,0.55426,0,0,0,0,0,0,0,-1,1098,484,3.53677,-0.554249
-119,540,3.49243,-0.638855,0,0,0,0,0,0,0,-1,1105,484,3.4924,0.638852
-112,540,3.61072,-1.51126,0,0,0,0,0,0,0,-1,1112,484,3.61072,1.51125
-105,540,3.62085,0.880859,0,0,0,0,0,0,0,-1,1119,484,3.62082,-0.88087
-98,540,3.72766,0.978394,0,0,0,0,0,0,0,-1,1126,484,3.7276,-0.978394
-91,540,0.984741,-1.15225,0,0,0,0,0,0,0,-1,1133,484,0.984696,1.15226
-84,540,0.715698,-1.54535,-0.011135,0.00952924,-0.0443615,0.0447459,-0.0463517,-0.899812,0.052598,0.0446161,1140,484,0.715719,1.54534
-77,540,0.503662,-1.93759,-0.0172236,0.000488211,-0.0481469,0.0405869,-0.0573223,-0.876349,0.0568025,0.0447512,1147,484,0.503673,1.9376
-70,540,0.162354,-2.31,-0.0260551,0.00640269,-0.0592276,0.0515846,-0.071237,-0.91912,0.071213,0.0458199,1154,484,0.16233,2.30999
-63,540,-0.0715332,-3.00568,0,0,0,0,0,0,0,-1,1161,484,-0.0715666,3.00568
-56,540,-0.560791,0.440094,0,0,0,0,0,0,0,-1,1168,484,-0.560821,-0.440088
-49,540,-0.605469,-0.261261,0,0,0,0,0,0,0,-1,1175,484,-0.605486,0.261255
-42,540,0,0,0,0,0,0,0,0,0,-1,1182,484,0,0
-35,540,0,0,0,0,0,0,0,0,0,-1,1189,484,0,0
-28,540,0,0,0,0,0,0,0,0,0,-1,1196,484,0,0
-21,540,0,0,0,0,0,0,0,0,0,-1,1203,484,0,0
-14,540,0,0,0,0,0,0,0,0,0,-1,1210,484,0,0
-7,540,0,0,0,0,0,0,0,0,0,-1,1217,484,0,0
0,540,0,0,0,0,0,0,0,0,0,-1,1224,484,0,0
7,540,0,0,0,0,0,0,0,0,0,-1,1231,484,0,0
14,540,0,0,0,0,0,0,0,0,0,-1,1238,484,0,0
21,540,0,0,0,0,0,0,0,0,0,-1,1245,484,0,0
28,540,0,0,0,0,0,0,0,0,0,-1,1252,484,0,0
35,540,0,0,0,0,0,0,0,0,0,-1,1259,484,0,0
42,540,0,0,0,0,0,0,0,0,0,-1,1266,484,0,0
49,540,0,0,0,0,0,0,0,0,0,-1,1273,484,0,0
56,540,0,0,0,0,0,0,0,0,0,-1,1280,484,0,0
63,540,0,0,0,0,0,0,0,0,0,-1,1287,484,0,0
70,540,0,0,0,0,0,0,0,0,0,-1,1294,484,0,0
77,540,0,0,0,0,0,0,0,0,0,-1,1301,484,0,0
84,540,0,0,0,0,0,0,0,0,0,-1,1308,484,0,0
91,540,0,0,0,0,0,0,0,0,0,-1,1315,484,0,0
98,540,0,0,0,0,0,0,0,0,0,-1,1322,484,0,0
105,540,0,0,0,0,0,0,0,0,0,-1,1329,484,0,0
112,540,0,0,0,0,0,0,0,0,0,-1,1336,484,0,0
119,540,0,0,0,0,0,0,0,0,0,-1,1343,484,0,0
126,540,0,0,0,0,0,0,0,0,0,-1,1350,484,0,0
133,540,0,0,0,0,0,0,0,0,0,-1,1357,484,0,0
140,540,0,0,0,0,0,0,0,0,0,-1,1364,484,0,0
147,540,0,0,0,0,0,0,0,0,0,-1,1371,484,0,0
154,540,0,0,0,0,0,0,0,0,0,-1,1378,484,0,0
161,540,0,0,0,0,0,0,0,0,0,-1,1385,484,0,0
168,540,3.05078,-0.0010376,0,0,0,0,0,0,0,-1,1392,484,3.05084,0.00102554
175,540,3.37708,0.617035,0,0,0,0,0,0,0,-1,1399,484,3.37707,-0.617046
182,540,3.32678,1.23267,0,0,0,0,0,0,0,-1,1406,484,3.32678,-1.23266
189,540,3.5813,2.15619,0,0,0,0,0,0,0,-1,1413,484,3.58129,-2.1562
196,540,1.84448,-0.801483,0,0,0,0,0,0,0,-1,1420,484,1.84446,0.80148
203,540,4.14648,0.702087,0,0,0,0,0,0,0,-1,1427,484,4.14645,-0.702089
210,540,2.83728,-0.0263672,0,0,0,0,0,0,0,-1,1434,484,2.83732,0.0263685
217,540,3.26538,-0.406982,-0.0325779,0.0530172,-0.072182,0.0941355,-0.0736962,-1.05299,0.0971369,0.0467639,1441,484,3.26543,0.40699
224,540,3.65381,-1.10559,-0.0191173,0.0457347,-0.0547202,0.0769149,-0.0502975,-1.05287,0.07398,0.0437646,1448,484,3.65386,1.1056
231,540,3.74927,-1.47247,-0.0068098,0.0402011,-0.0381163,0.0614768,-0.0280856,-1.06169,0.0528932,0.0458895,1455,484,3.74927,1.47248
238,540,3.57385,-1.63251,0.00433343,0.034722,-0.0237638,0.0477338,-0.00867839,-1.06984,0.0350751,0.0445227,1462,484,3.57386,1.63251
245,540,2.80481,-1.35898,0,0,0,0,0,0,0,-1,1469,484,2.80478,1.35898
252,540,2.27881,-1.15182,0.022558,0.021371,-0.00787702,0.0298639,0.0140652,-0.747797,0.0172516,0.0439752,1476,484,2.27877,1.15184
259,540,2.27625,-1.03238,0.0301591,0.0168507,-0.00620396,0.0326026,0.0144073,-0.375198,0.0188654,0.0417452,1483,484,2.2763,1.03239
266,540,2.56165,-0.974426,0.0348136,0.0123982,-0.00681097,0.0367208,0.010491,-0.273033,0.0218403,0.0449287,1490,484,2.56165,0.974415
273,540,3.67834,1.14523,0.0372423,0.00522848,-0.00786187,0.0390688,0.00340199,-0.228273,0.0249892,0.0471687,1497,484,3.6783,-1.14522
280,540,4.3158,1.32883,0,0,0,0,0,0,0,-1,1504,484,4.31578,-1.32883
287,540,4.21484,0.865448,0.038261,-0.000223125,-0.0134739,0.0425094,-0.00447156,-0.305441,0.0299416,0.046714,1511,484,4.21478,-0.86546
294,540,3.88525,-0.368439,0.0367711,-0.00155908,-0.0162377,0.042725,-0.00751299,-0.351449,0.0312898,0.047071,1518,484,3.88521,0.368435
301,540,2.8009,-0.297211,0,0,0,0,0,0,0,-1,1525,484,2.80091,0.297225
308,540,2.65906,-0.943756,0.0304344,-0.00310325,-0.0192664,0.0392075,-0.0118763,-0.427299,0.0308683,0.0442841,1532,484,2.65911,0.943764
315,540,2.14514,-1.49896,0.0261444,-0.00256264,-0.019045,0.0356391,-0.0120573,-0.462477,0.0286375,0.043277,1539,484,2.14518,1.49896
322,540,1.5603,-1.85855,0,0,0,0,0,0,0,-1,1546,484,1.56031,1.85856
329,540,1.70386,-0.996613,0.0188228,-0.00210316,-0.0157497,0.0272682,-0.0105486,-0.492208,0.0225336,0.0446285,1553,484,1.70388,0.996611
336,540,1.75708,-0.815491,0.0160612,-0.000553447,-0.0123291,0.0226206,-0.00711283,-0.488937,0.017928,0.044956,1560,484,1.75705,0.815488
343,540,2.01013,-1.02673,0.0134779,0.00160529,-0.00868356,0.0180603,-0.00297715,-0.485573,0.0131454,0.0419161,1567,484,2.01013,1.02672
350,540,2.10669,-0.959351,0.0111138,0.00299481,-0.00545797,0.0138564,0.000252172,-0.465647,0.0091547,0.030357,1574,484,2.10668,0.95936
357,540,2.08154,-0.966003,0.00787723,0.00351013,-0.00344846,0.00977531,0.00161205,-0.503163,0.00605153,0.01864,1581,484,2.08153,0.966007
364,540,2.05542,-0.949188,0.00524858,0.00290515,-0.00154019,0.00601209,0.00214164,-0.460222,0.00351859,0.0107475,1588,484,2.05545,0.949174
371,540,2.04053,-0.930328,0.0034115,0.00237608,-0.000783767,0.0038331,0.00195447,-0.493524,0.00221319,0.0100109,1595,484,2.04048,0.930334
378,540,2.04626,-0.913605,0.00218735,0.00228154,-0.000774877,0.00301075,0.00145814,-0.815747,0.00173854,0.0107612,1602,484,2.04627,0.913605
385,540,2.09583,-0.881805,0.00107832,0.00207122,-0.000988451,0.00268089,0.000468654,-1.01812,0.00165333,0.012948,1609,484,2.09583,0.881816
392,540,2.09607,-0.840118,0.000479657,0.00188583,-0.000716338,0.00218647,0.000179015,-1.17343,0.00140179,0.0118869,1616,484,2.09604,0.840109
399,540,2.06433,-0.825073,0.000225978,0.00161903,-0.000362763,0.00170783,0.000137172,-1.33071,0.0010957,0.0158106,1623,484,2.06439,0.825066
406,540,2.05664,-0.809723,0.000112448,0.00135808,-0.000129004,0.0013713,9.92284e-05,-1.46868,0.000882984,0.0156854,1630,484,2.0566,0.80972
413,540,2.07983,-0.774872,0.000151575,0.00109279,8.15867e-05,0.00109981,0.000144555,1.48497,0.000690089,0.0119968,1637,484,2.07987,0.774884
420,540,2.0719,-0.738831,0.000547106,0.000708316,0.000393007,0.0010289,0.000226523,0.886545,0.000624278,0.0106302,1644,484,2.07188,0.738817
427,540,2.07239,-0.719177,0.00103575,0.000604966,0.000946003,0.00179057,-0.000149855,0.673462,0.00124667,0.0110022,1651,484,2.07243,0.719172
434,540,2.06067,-0.68396,0.00128483,0.000836851,0.0018352,0.00290966,-0.000787977,0.724672,0.00224893,0.0143917,1658,484,2.0607,0.683953
441,540,2.07019,-0.641357,0.00120233,0.00206093,0.00256269,0.00423003,-0.000966768,0.868387,0.00319147,0.01889,1665,484,2.07024,0.641358
448,540,2.08948,-0.62973,0.00111155,0.00379421,0.00328011,0.00599664,-0.00109088,0.979488,0.00440663,0.0118051,1672,484,2.0895,0.62974
455,540,2.08105,-0.603271,0.000802921,0.00541243,0.0040257,0.00774645,-0.00153109,1.04538,0.0057431,0.0104513,1679,484,2.08109,0.603277
462,540,2.05994,-0.541351,0.000123041,0.00730222,0.00473084,0.00965116,-0.00222589,1.10994,0.00729023,0.0102537,1686,484,2.05995,0.541365
469,540,2.05688,-0.532013,-0.00106775,0.00942304,0.00514243,0.0115233,-0.00316802,1.18305,0.00892759,0.0117879,1693,484,2.05694,0.532022
476,540,2.05493,-0.527405,-0.00226749,0.0116835,0.00551193,0.0135983,-0.00418238,1.23643,0.0107348,0.0142856,1700,484,2.05499,0.5274
483,540,2.08545,-0.46286,-0.00391398,0.0140402,0.00583041,0.0157674,-0.00564118,1.28279,0.0128128,0.0215499,1707,484,2.08548,0.462852
490,540,2.08252,-0.349609,-0.00521754,0.0164976,0.00540437,0.0177682,-0.0064882,1.33987,0.0145004,0.0375468,1714,484,2.0825,0.349614
497,540,1.96313,-0.169769,-0.00677015,0.018676,0.004346,0.0193978,-0.00749193,1.40622,0.016024,0.0497134,1721,484,1.96311,0.169763
504,540,1.65283,-0.330902,-0.00822726,0.0204742,0.00266519,0.0207196,-0.00847265,1.47898,0.0173415,0.0474915,1728,484,1.65285,0.33089
511,540,1.5697,-0.553101,-0.0086357,0.0209078,0.00135461,0.0209698,-0.00869768,1.52507,0.0176102,0.0483016,1735,484,1.56967,0.553111
518,540,1.29065,-0.659241,-0.00805359,0.0204657,0.00170088,0.0205668,-0.00815467,1.51144,0.0170907,0.0472044,1742,484,1.29064,0.659252
525,540,1.10278,-0.510651,-0.00677999,0.0196599,0.00141226,0.0197352,-0.00685521,1.51758,0.015941,0.0494829,1749,484,1.10278,0.510652
532,540,0.755859,-0.401123,0,0,0,0,0,0,0,-1,1756,484,0.755872,0.401133
539,540,0,0,0,0,0,0,0,0,0,-1,1763,484,0,0
546,540,0,0,0,0,0,0,0,0,0,-1,1770,484,0,0
553,540,0,0,0,0,0,0,0,0,0,-1,1777,484,0,0
560,540,0,0,0,0,0,0,0,0,0,-1,1784,484,0,0
567,540,0,0,0,0,0,0,0,0,0,-1,1791,484,0,0
574,540,0,0,0,0,0,0,0,0,0,-1,1798,484,0,0
581,540,0,0,0,0,0,0,0,0,0,-1,1805,484,0,0
588,540,0,0,0,0,0,0,0,0,0,-1,1812,484,0,0
595,540,0,0,0,0,0,0,0,0,0,-1,1819,484,0,0
602,540,0,0,0,0,0,0,0,0,0,-1,1826,484,0,0
609,540,0,0,0,0,0,0,0,0,0,-1,1833,484,0,0
616,540,0,0,0,0,0,0,0,0,0,-1,1840,484,0,0
623,540,0,0,0,0,0,0,0,0,0,-1,1847,484,0,0
630,540,0,0,0,0,0,0,0,0,0,-1,1854,484,0,0
637,540,0,0,0,0,0,0,0,0,0,-1,1861,484,0,0
644,540,0,0,0,0,0,0,0,0,0,-1,1868,484,0,0
651,540,0,0,0,0,0,0,0,0,0,-1,1875,484,0,0
658,540,0,0,0,0,0,0,0,0,0,-1,1882,484,0,0
665,540,0,0,0,0,0,0,0,0,0,-1,1889,484,0,0
672,540,0,0,0,0,0,0,0,0,0,-1,1896,484,0,0
679,540,0,0,0,0,0,0,0,0,0,-1,1903,484,0,0
686,540,0,0,0,0,0,0,0,0,0,-1,1910,484,0,0
693,540,0,0,0,0,0,0,0,0,0,-1,1917,484,0,0
700,540,0,0,0,0,0,0,0,0,0,-1,1924,484,0,0
707,540,0,0,0,0,0,0,0,0,0,-1,1931,484,0,0
714,540,0,0,0,0,0,0,0,0,0,-1,1938,484,0,0
721,540,0,0,0,0,0,0,0,0,0,-1,1945,484,0,0
728,540,0,0,0,0,0,0,0,0,0,-1,1952,484,0,0
735,540,0,0,0,0,0,0,0,0,0,-1,1959,484,0,0
742,540,0,0,0,0,0,0,0,0,0,-1,1966,484,0,0
749,540,0,0,0,0,0,0,0,0,0,-1,1973,484,0,0
756,540,0,0,0,0,0,0,0,0,0,-1,1980,484,0,0
763,540,0,0,0,0,0,0,0,0,0,-1,1987,484,0,0
770,540,0,0,0,0,0,0,0,0,0,-1,1994,484,0,0
777,540,0,0,0,0,0,0,0,0,0,-1,2001,484,0,0
784,540,0,0,0,0,0,0,0,0,0,-1,2008,484,0,0
791,540,0,0,0,0,0,0,0,0,0,-1,2015,484,0,0
798,540,0,0,0,0,0,0,0,0,0,-1,2022,484,0,0
805,540,0,0,0,0,0,0,0,0,0,-1,2029,484,0,0
812,540,0,0,0,0,0,0,0,0,0,-1,2036,484,0,0
-700,533,0,0,0,0,0,0,0,0,0,-1,524,491,0,0
-693,533,0,0,0,0,0,0,0,0,0,-1,531,491,0,0
-686,533,0,0,0,0,0,0,0,0,0,-1,538,491,0,0
-679,533,0,0,0,0,0,0,0,0,0,-1,545,491,0,0
-672,533,0,0,0,0,0,0,0,0,0,-1,552,491,0,0
-665,533,0,0,0,0,0,0,0,0,0,-1,559,491,0,0
-658,533,0,0,0,0,0,0,0,0,0,-1,566,491,0,0
-651,533,0,0,0,0,0,0,0,0,0,-1,573,491,0,0
-644,533,0,0,0,0,0,0,0,0,0,-1,580,491,0,0
-637,533,0,0,0,0,0,0,0,0,0,-1,587,491,0,0
-630,533,0,0,0,0,0,0,0,0,0,-1,594,491,0,0
-623,533,0,0,0,0,0,0,0,0,0,-1,601,491,0,0
-616,533,0,0,0,0,0,0,0,0,0,-1,608,491,0,0
-609,533,0,0,0,0,0,0,0,0,0,-1,615,491,0,0
-602,533,0,0,0,0,0,0,0,0,0,-1,622,491,0,0
-595,533,0,0,0,0,0,0,0,0,0,-1,629,491,0,0
-588,533,0,0,0,0,0,0,0,0,0,-1,636,491,0,0
-581,533,0,0,0,0,0,0,0,0,0,-1,643,491,0,0
-574,533,0,0,0,0,0,0,0,0,0,-1,650,491,0,0
-567,533,0,0,0,0,0,0,0,0,0,-1,657,491,0,0
-560,533,0,0,0,0,0,0,0,0,0,-1,664,491,0,0
-553,533,0,0,0,0,0,0,0,0,0,-1,671,491,0,0
-546,533,0,0,0,0,0,0,0,0,0,-1,678,491,0,0
-539,533,0,0,0,0,0,0,0,0,0,-1,685,491,0,0
-532,533,0,0,0,0,0,0,0,0,0,-1,692,491,0,0
-525,533,0,0,0,0,0,0,0,0,0,-1,699,491,0,0
-518,533,0,0,0,0,0,0,0,0,0,-1,706,491,0,0
-511,533,0,0,0,0,0,0,0,0,0,-1,713,491,0,0
-504,533,0,0,0,0,0,0,0,0,0,-1,720,491,0,0
-497,533,0,0,0,0,0,0,0,0,0,-1,727,491,0,0
-490,533,0,0,0,0,0,0,0,0,0,-1,734,491,0,0
-483,533,0,0,0,0,0,0,0,0,0,-1,741,491,0,0
-476,533,0,0,0,0,0,0,0,0,0,-1,748,491,0,0
-469,533,0,0,0,0,0,0,0,0,0,-1,755,491,0,0
-462,533,0,0,0,0,0,0,0,0,0,-1,762,491,0,0
-455,533,0,0,0,0,0,0,0,0,0,-1,769,491,0,0
-448,533,0,0,0,0,0,0,0,0,0,-1,776,491,0,0
-441,533,0,0,0,0,0,0,0,0,0,-1,783,491,0,0
-434,533,0,0,0,0,0,0,0,0,0,-1,790,491,0,0
-427,533,1.51819,-0.135773,0.0088438,0.0324651,0.0464648,0.0685968,-0.0272879,0.909855,0.0570458,0.0495473,797,491,1.51819,0.135782
-420,533,2.44141,3.2348,-0.00471893,0.0377807,0.0381391,0.0601903,-0.0271285,1.03956,0.0516041,0.0489554,804,491,2.44138,-3.2348
-413,533,3.77435,1.58923,-0.0142866,0.0401608,0.0290395,0.0527419,-0.0268678,1.16197,0.0467649,0.0481193,811,491,3.77433,-1.58923
-406,533,2.67017,1.75479,-0.0193509,0.0414677,0.0210913,0.0480661,-0.0259492,1.26759,0.043364,0.0462998,818,491,2.67016,-1.7548
-399,533,1.55609,1.90283,0,0,0,0,0,0,0,-1,825,491,1.55607,-1.90284
-392,533,0.067688,-0.535095,-0.0207415,0.0384049,0.00941514,0.0398674,-0.0222041,1.41669,0.0363174,0.0436854,832,491,0.0677171,0.535098
-385,533,-0.137817,-0.166046,-0.0189149,0.0345264,0.00589352,0.0351686,-0.0195571,1.46225,0.0320216,0.0444268,839,491,-0.137791,0.166051
-378,533,0.356995,-0.450409,-0.0167384,0.0300312,0.00350557,0.0302925,-0.0169997,1.4964,0.0276614,0.0484942,846,491,0.356974,0.450402
-371,533,0.483032,-0.0157471,0,0,0,0,0,0,0,-1,853,491,0.483052,0.0157595
-364,533,1.46478,-0.0256958,0,0,0,0,0,0,0,-1,860,491,1.46475,0.0256946
-357,533,1.38501,-0.357819,-0.00646156,0.0139905,0.000341617,0.0139962,-0.00646727,1.5541,0.0120782,0.0201692,867,491,1.385,0.357819
-350,533,1.37286,-0.413635,-0.00236427,0.00992174,0.00111055,0.0100213,-0.00246385,1.48137,0.00763583,0.0107064,874,491,1.37289,0.413624
-343,533,1.40887,-0.468292,-0.000566948,0.00604185,0.00243786,0.00684381,-0.00136891,1.25299,0.00508069,0.0104572,881,491,1.40887,0.46828
-336,533,1.3877,-0.513031,0.000856049,0.00312384,0.00314833,0.00533624,-0.00135635,0.958246,0.00408536,0.0144202,888,491,1.3877,0.513022
-329,533,1.38611,-0.535034,0.000805157,0.00184995,0.00373119,0.00509513,-0.00244002,0.85495,0.00443954,0.0139102,895,491,1.38613,0.535049
-322,533,1.38635,-0.556488,0.00054204,-0.000378845,0.00347713,0.00358908,-0.00342588,0.719571,0.00405046,0.0114744,902,491,1.38637,0.556489
-315,533,1.37073,-0.599274,0.000738384,-0.000291937,0.00275215,0.00302317,-0.00257672,0.692876,0.00323652,0.0125933,909,491,1.37074,0.599274
-308,533,1.37219,-0.601105,0.000936167,0.000116435,0.00211399,0.00267966,-0.00162706,0.689645,0.00251112,0.0123709,916,491,1.3722,0.60111
-301,533,1.36133,-0.627747,0.0011671,0.000276596,0.00126634,0.00206418,-0.000620486,0.616346,0.00162298,0.0133346,923,491,1.36133,0.627742
-294,533,1.37726,-0.683014,0.000832202,0.00103821,0.000763172,0.0017053,0.000165115,0.852477,0.00108602,0.0117057,930,491,1.37723,0.683005
-287,533,1.39386,-0.712341,0.000419939,0.00184038,0.000448731,0.00197027,0.000290056,1.28905,0.0012283,0.0088837,937,491,1.39383,0.712346
-280,533,1.40216,-0.747589,-0.000111677,0.00230058,0.000571442,0.0024291,-0.000240199,1.34957,0.00170511,0.0078376,944,491,1.40215,0.747596
-273,533,1.38586,-0.793915,-0.00100181,0.00309323,0.000952591,0.00330398,-0.00121256,1.35307,0.00269921,0.0115277,951,491,1.38584,0.793903
-266,533,1.38446,-0.824738,-0.00232247,0.00393566,0.00151661,0.00428383,-0.00267064,1.34514,0.00405101,0.0111802,958,491,1.38445,0.824725
-259,533,1.39764,-0.853455,-0.0039115,0.0045378,0.00212262,0.00504107,-0.00441477,1.338,0.00546332,0.0109975,965,491,1.39766,0.853453
-252,533,1.38312,-0.878876,-0.00563033,0.00507485,0.00256455,0.0056575,-0.00621299,1.34739,0.00685593,0.0136628,972,491,1.38315,0.878867
-245,533,1.37695,-0.910522,-0.007285,0.00595206,0.00279934,0.00651972,-0.00785266,1.37073,0.00830978,0.0172399,979,491,1.37693,0.910513
-238,533,1.36963,-0.896515,-0.00883676,0.00746584,0.00261844,0.00787607,-0.009247,1.41539,0.00989657,0.0177674,986,491,1.36963,0.896509
-231,533,1.36597,-0.913635,-0.0105193,0.00959957,0.002201,0.00983754,-0.0107573,1.46309,0.0118944,0.0263406,993,491,1.36595,0.913642
-224,533,1.34949,-0.960083,-0.0122034,0.0131391,0.0017209,0.0132554,-0.0123197,1.5033,0.0147691,0.0360546,1000,491,1.3495,0.960088
-217,533,1.41357,-1.24847,-0.0133755,0.0164983,0.000564426,0.016509,-0.0133861,1.55191,0.0172913,0.0401437,1007,491,1.41359,1.24848
-210,533,1.70416,-1.35147,0,0,0,0,0,0,0,-1,1014,491,1.70416,1.35146
-203,533,1.45331,-1.93106,-0.0134926,0.0267488,-0.00285066,0.0269497,-0.0136935,-1.50043,0.0238778,0.0432182,1021,491,1.45332,1.93107
-196,533,1.5293,-2.37744,-0.0134487,0.0328508,-0.00437784,0.0332611,-0.013859,-1.47735,0.027963,0.0455478,1028,491,1.52932,2.37745
-189,533,1.66138,-2.90494,-0.013195,0.0383697,-0.00503265,0.0388563,-0.0136815,-1.47441,0.0314721,0.0492064,1035,491,1.66142,2.90494
-182,533,1.54236,-3.35684,-0.0124234,0.0466012,-0.0062803,0.047262,-0.0130843,-1.46596,0.0366562,0.0481935,1042,491,1.54238,3.35685
-175,533,1.43823,-3.80344,0,0,0,0,0,0,0,-1,1049,491,1.43824,3.80343
-168,533,1.16333,-2.08929,0,0,0,0,0,0,0,-1,1056,491,1.16335,2.08929
-161,533,0.455078,-2.70752,0,0,0,0,0,0,0,-1,1063,491,0.455129,2.70752
-154,533,1.65576,-2.10211,0,0,0,0,0,0,0,-1,1070,491,1.65571,2.10212
-147,533,0.929077,-2.41052,0,0,0,0,0,0,0,-1,1077,491,0.929137,2.41053
-140,533,0.202515,-2.71893,0,0,0,0,0,0,0,-1,1084,491,0.202558,2.71893
-133,533,4.20825,1.27701,0,0,0,0,0,0,0,-1,1091,491,4.20825,-1.27701
-126,533,3.71838,-0.0649109,0,0,0,0,0,0,0,-1,1098,491,3.71833,0.0649196
-119,533,3.68945,-0.996216,0,0,0,0,0,0,0,-1,1105,491,3.6894,0.996213
-112,533,4.01807,-1.8103,0,0,0,0,0,0,0,-1,1112,491,4.01803,1.81031
-105,533,3.84839,1.12769,0,0,0,0,0,0,0,-1,1119,491,3.84843,-1.12769
-98,533,4.03259,1.05957,0,0,0,0,0,0,0,-1,1126,491,4.03265,-1.05956
-91,533,0.966919,-0.952515,0,0,0,0,0,0,0,-1,1133,491,0.966881,0.952504
-84,533,0.462402,-1.33258,0,0,0,0,0,0,0,-1,1140,491,0.462403,1.33258
-77,533,0,0,0,0,0,0,0,0,0,-1,1147,491,0,0
-70,533,0,0,0,0,0,0,0,0,0,-1,1154,491,0,0
-63,533,0,0,0,0,0,0,0,0,0,-1,1161,491,0,0
-56,533,0,0,0,0,0,0,0,0,0,-1,1168,491,0,0
-49,533,0,0,0,0,0,0,0,0,0,-1,1175,491,0,0
-42,533,0,0,0,0,0,0,0,0,0,-1,1182,491,0,0
-35,533,0,0,0,0,0,0,0,0,0,-1,1189,491,0,0
-28,533,0,0,0,0,0,0,0,0,0,-1,1196,491,0,0
-21,533,0,0,0,0,0,0,0,0,0,-1,1203,491,0,0
-14,533,0,0,0,0,0,0,0,0,0,-1,1210,491,0,0
-7,533,0,0,0,0,0,0,0,0,0,-1,1217,491,0,0
0,533,0,0,0,0,0,0,0,0,0,-1,1224,491,0,0
7,533,0,0,0,0,0,0,0,0,0,-1,1231,491,0,0
14,533,0,0,0,0,0,0,0,0,0,-1,1238,491,0,0
21,533,0,0,0,0,0,0,0,0,0,-1,1245,491,0,0
28,533,0,0,0,0,0,0,0,0,0,-1,1252,491,0,0
35,533,0,0,0,0,0,0,0,0,0,-1,1259,491,0,0
42,533,0,0,0,0,0,0,0,0,0,-1,1266,491,0,0
49,533,0,0,0,0,0,0,0,0,0,-1,1273,491,0,0
56,533,0,0,0,0,0,0,0,0,0,-1,1280,491,0,0
63,533,0,0,0,0,0,0,0,0,0,-1,1287,491,0,0
70,533,0,0,0,0,0,0,0,0,0,-1,1294,491,0,0
77,533,0,0,0,0,0,0,0,0,0,-1,1301,491,0,0
84,533,0,0,0,0,0,0,0,0,0,-1,1308,491,0,0
91,533,0,0,0,0,0,0,0,0,0,-1,1315,491,0,0
98,533,0,0,0,0,0,0,0,0,0,-1,1322,491,0,0
105,533,0,0,0,0,0,0,0,0,0,-1,1329,491,0,0
112,533,0,0,0,0,0,0,0,0,0,-1,1336,491,0,0
119,533,0,0,0,0,0,0,0,0,0,-1,1343,491,0,0
126,533,0,0,0,0,0,0,0,0,0,-1,1350,491,0,0
133,533,0,0,0,0,0,0,0,0,0,-1,1357,491,0,0
140,533,0,0,0,0,0,0,0,0,0,-1,1364,491,0,0
147,533,0,0,0,0,0,0,0,0,0,-1,1371,491,0,0
154,533,0,0,0,0,0,0,0,0,0,-1,1378,491,0,0
161,533,0,0,0,0,0,0,0,0,0,-1,1385,491,0,0
168,533,0,0,0,0,0,0,0,0,0,-1,1392,491,0,0
175,533,0,0,0,0,0,0,0,0,0,-1,1399,491,0,0
182,533,0,0,0,0,0,0,0,0,0,-1,1406,491,0,0
189,533,0,0,0,0,0,0,0,0,0,-1,1413,491,0,0
196,533,0,0,0,0,0,0,0,0,0,-1,1420,491,0,0
203,533,3.7887,1.16193,0,0,0,0,0,0,0,-1,1427,491,3.78872,-1.16193
210,533,4.6615,-1.65118,0,0,0,0,0,0,0,-1,1434,491,4.66149,1.65118
217,533,4.54382,-1.73865,-0.0316572,0.0683018,-0.0878557,0.119399,-0.0827548,-1.04401,0.117351,0.0448128,1441,491,4.54385,1.73866
224,533,4.45874,-1.69855,-0.0164513,0.0573949,-0.0655742,0.0957266,-0.054783,-1.04181,0.087962,0.042102,1448,491,4.45875,1.69854
231,533,4.37109,-1.49399,-0.00410532,0.0486996,-0.0449535,0.0744307,-0.0298364,-1.05092,0.0620067,0.0463067,1455,491,4.37115,1.49398
238,533,4.2561,-1.32529,0.00633387,0.0404517,-0.0272771,0.0555649,-0.00877935,-1.06484,0.0402899,0.0450371,1462,491,4.25614,1.3253
245,533,3.28625,-1.26605,0,0,0,0,0,0,0,-1,1469,491,3.28621,1.26606
252,533,2.55701,-1.12189,0,0,0,0,0,0,0,-1,1476,491,2.55699,1.12188
259,533,2.36719,-1.14536,0,0,0,0,0,0,0,-1,1483,491,2.36721,1.14535
266,533,2.78479,-0.832275,0.0408513,0.0116991,-0.00668392,0.0423107,0.0102397,-0.214972,0.025489,0.0490643,1490,491,2.78481,0.832281
273,533,3.62585,0.918579,0.0448243,0.00348608,-0.00766857,0.0462011,0.00210935,-0.177637,0.0301222,0.045034,1497,491,3.62584,-0.918582
280,533,3.85254,0.762146,0.0468964,-0.000169626,-0.0106512,0.0491946,-0.0024678,-0.212509,0.0336492,0.0447893,1504,491,3.85251,-0.762149
287,533,4.46875,1.42767,0,0,0,0,0,0,0,-1,1511,491,4.46873,-1.42767
294,533,4.19116,0.0862732,0.0467868,-0.00246164,-0.0181923,0.0527782,-0.00845299,-0.318147,0.0383152,0.0497476,1518,491,4.19122,-0.0862609
301,533,3.74438,-1.31793,0.0434077,-0.00328261,-0.0212273,0.0516156,-0.0114905,-0.36896,0.0388117,0.0450399,1525,491,3.74444,1.31795
308,533,3.25842,-1.24146,0.0403537,-0.00313576,-0.0220106,0.0495492,-0.0123313,-0.395737,0.0378194,0.0426713,1532,491,3.25843,1.24144
315,533,2.5166,-1.7468,0,0,0,0,0,0,0,-1,1539,491,2.51666,1.7468
322,533,1.2373,-1.48688,0,0,0,0,0,0,0,-1,1546,491,1.23725,1.48689
329,533,1.61829,-0.784851,0.0267397,-0.00107174,-0.0179016,0.035502,-0.009834,-0.455186,0.0275377,0.041489,1553,491,1.61826,0.784854
336,533,1.81934,-0.660522,0.0231222,0.000488556,-0.0142541,0.0300057,-0.0063949,-0.449882,0.0224412,0.0470433,1560,491,1.81936,0.660515
343,533,2.21997,-1.01236,0.0196183,0.00274165,-0.0102401,0.0244489,-0.00208895,-0.440781,0.0170383,0.0478698,1567,491,2.21997,1.01235
350,533,2.15991,-0.873871,0.0162925,0.00418332,-0.00649113,0.0191144,0.00136137,-0.41009,0.0123143,0.0445787,1574,491,2.15996,0.873885
357,533,2.10315,-0.888855,0.0118875,0.00466154,-0.00400422,0.0136678,0.00288124,-0.418358,0.00831944,0.0346598,1581,491,2.10319,0.888864
364,533,2.08533,-0.948517,0.00828966,0.00380087,-0.00170139,0.00886165,0.00322887,-0.324321,0.00517865,0.0241428,1588,491,2.08528,0.948503
371,533,2.06384,-0.917358,0.00585759,0.00312905,-0.000941148,0.00615073,0.00283592,-0.301942,0.00355471,0.0179192,1595,491,2.06378,0.917363
378,533,2.05457,-0.895081,0.00414806,0.00287739,-0.00115441,0.00483042,0.00219503,-0.533841,0.0027927,0.0142207,1602,491,2.05453,0.895071
385,533,2.10425,-0.880157,0.0025962,0.00252156,-0.00159695,0.00415627,0.00096149,-0.773716,0.00251244,0.0167216,1609,491,2.1042,0.880151
392,533,2.08655,-0.860016,0.00154934,0.00218615,-0.00146715,0.00336905,0.000366436,-0.892253,0.0021344,0.0129721,1616,491,2.08653,0.860022
399,533,2.09595,-0.849701,0.000820737,0.00186116,-0.00119665,0.00264579,3.61127e-05,-0.990437,0.00175194,0.011454,1623,491,2.09591,0.849696
406,533,2.09766,-0.837463,0.000251797,0.00158956,-0.00104783,0.0021638,-0.000322447,-1.06947,0.00156116,0.0145,1630,491,2.09768,0.837451
413,533,2.10278,-0.798035,-8.50342e-05,0.00128192,-0.000900933,0.00172929,-0.000532407,-1.1099,0.00136538,0.0125732,1637,491,2.10274,0.798029
420,533,2.0979,-0.755249,9.18833e-05,0.00079641,-0.000625443,0.00116197,-0.000273675,-1.04187,0.000880169,0.0112229,1644,491,2.09791,0.755235
427,533,2.10071,-0.71463,0.00031009,0.000613914,-0.000165705,0.000686803,0.000237201,-1.1564,0.000402797,0.0118151,1651,491,2.10068,0.714636
434,533,2.10059,-0.680176,0.000395007,0.000737042,0.000565144,0.00115648,-2.44284e-05,0.932322,0.000779256,0.0123955,1658,491,2.10058,0.680187
441,533,2.09705,-0.659119,0.000228351,0.00157336,0.00118935,0.00226717,-0.000465458,1.04271,0.00168812,0.0152654,1665,491,2.09707,0.659107
448,533,2.12354,-0.649506,4.19736e-05,0.00280958,0.00178457,0.00368401,-0.000832455,1.11519,0.00277542,0.0160689,1672,491,2.12356,0.649505
455,533,2.10376,-0.615509,-0.000272966,0.00400335,0.00236394,0.00505266,-0.00132227,1.15304,0.00388494,0.0154899,1679,491,2.10376,0.615524
462,533,2.0802,-0.523651,-0.000855234,0.00532825,0.00290875,0.00648147,-0.00200845,1.19334,0.00512342,0.0138992,1686,491,2.0802,0.52364
469,533,2.09644,-0.523743,-0.00182037,0.00677681,0.00317893,0.00782457,-0.00286813,1.25241,0.00639069,0.00919846,1693,491,2.09638,0.523753
476,533,2.09924,-0.515076,-0.00273887,0.00827687,0.00343912,0.0092624,-0.00372439,1.29171,0.00772183,0.00918412,1700,491,2.09918,0.515078
483,533,2.104,-0.467651,-0.00407393,0.00985084,0.0036545,0.0107517,-0.00497476,1.32911,0.00928161,0.0104901,1707,491,2.10399,0.467651
490,533,2.04346,-0.402863,-0.00501978,0.0116112,0.00316102,0.0121918,-0.00560032,1.38916,0.0105046,0.0243952,1714,491,2.04351,0.402876
497,533,1.9292,-0.335388,-0.00603071,0.013175,0.00211502,0.0134051,-0.00626087,1.4624,0.0116012,0.0413495,1721,491,1.92917,0.335401
504,533,1.88977,-0.268097,-0.00692244,0.0145752,0.000585294,0.0145911,-0.00693836,1.5436,0.0126891,0.0423231,1728,491,1.88977,0.268102
511,533,1.71704,-0.398956,-0.00711648,0.0149127,-0.000366261,0.0149188,-0.00712257,-1.55418,0.0129882,0.0455056,1735,491,1.71705,0.398968
518,533,1.36328,-0.693054,-0.00649886,0.0146568,0.000375669,0.0146635,-0.00650553,1.55305,0.0125208,0.0481191,1742,491,1.36327,0.693057
525,533,1.15857,-0.919159,0,0,0,0,0,0,0,-1,1749,491,1.15855,0.919151
532,533,1.88965,0.610962,0,0,0,0,0,0,0,-1,1756,491,1.8897,-0.610974
539,533,2.38879,0.167297,0.000349001,0.0121336,0.00411201,0.0134265,-0.000943949,1.26615,0.00928169,0.0489955,1763,491,2.38875,-0.167303
546,533,2.91992,-0.242676,0,0,0,0,0,0,0,-1,1770,491,2.91995,0.242675
553,533,0,0,0,0,0,0,0,0,0,-1,1777,491,0,0
560,533,0,0,0,0,0,0,0,0,0,-1,1784,491,0,0
567,533,0,0,0,0,0,0,0,0,0,-1,1791,491,0,0
574,533,0,0,0,0,0,0,0,0,0,-1,1798,491,0,0
581,533,0,0,0,0,0,0,0,0,0,-1,1805,491,0,0
588,533,0,0,0,0,0,0,0,0,0,-1,1812,491,0,0
595,533,0,0,0,0,0,0,0,0,0,-1,1819,491,0,0
602,533,0,0,0,0,0,0,0,0,0,-1,1826,491,0,0
609,533,0,0,0,0,0,0,0,0,0,-1,1833,491,0,0
616,533,0,0,0,0,0,0,0,0,0,-1,1840,491,0,0
623,533,0,0,0,0,0,0,0,0,0,-1,1847,491,0,0
630,533,0,0,0,0,0,0,0,0,0,-1,1854,491,0,0
637,533,0,0,0,0,0,0,0,0,0,-1,1861,491,0,0
644,533,0,0,0,0,0,0,0,0,0,-1,1868,491,0,0
651,533,0,0,0,0,0,0,0,0,0,-1,1875,491,0,0
658,533,0,0,0,0,0,0,0,0,0,-1,1882,491,0,0
665,533,0,0,0,0,0,0,0,0,0,-1,1889,491,0,0
672,533,0,0,0,0,0,0,0,0,0,-1,1896,491,0,0
679,533,0,0,0,0,0,0,0,0,0,-1,1903,491,0,0
686,533,0,0,0,0,0,0,0,0,0,-1,1910,491,0,0
693,533,0,0,0,0,0,0,0,0,0,-1,1917,491,0,0
700,533,0,0,0,0,0,0,0,0,0,-1,1924,491,0,0
707,533,0,0,0,0,0,0,0,0,0,-1,1931,491,0,0
714,533,0,0,0,0,0,0,0,0,0,-1,1938,491,0,0
721,533,0,0,0,0,0,0,0,0,0,-1,1945,491,0,0
728,533,0,0,0,0,0,0,0,0,0,-1,1952,491,0,0
735,533,0,0,0,0,0,0,0,0,0,-1,1959,491,0,0
742,533,0,0,0,0,0,0,0,0,0,-1,1966,491,0,0
749,533,0,0,0,0,0,0,0,0,0,-1,1973,491,0,0
756,533,0,0,0,0,0,0,0,0,0,-1,1980,491,0,0
763,533,0,0,0,0,0,0,0,0,0,-1,1987,491,0,0
770,533,0,0,0,0,0,0,0,0,0,-1,1994,491,0,0
777,533,0,0,0,0,0,0,0,0,0,-1,2001,491,0,0
784,533,0,0,0,0,0,0,0,0,0,-1,2008,491,0,0
791,533,0,0,0,0,0,0,0,0,0,-1,2015,491,0,0
798,533,0,0,0,0,0,0,0,0,0,-1,2022,491,0,0
805,533,0,0,0,0,0,0,0,0,0,-1,2029,491,0,0
812,533,0,0,0,0,0,0,0,0,0,-1,2036,491,0,0
-700,526,0,0,0,0,0,0,0,0,0,-1,524,498,0,0
-693,526,0,0,0,0,0,0,0,0,0,-1,531,498,0,0
-686,526,0,0,0,0,0,0,0,0,0,-1,538,498,0,0
-679,526,0,0,0,0,0,0,0,0,0,-1,545,498,0,0
-672,526,0,0,0,0,0,0,0,0,0,-1,552,498,0,0
-665,526,0,0,0,0,0,0,0,0,0,-1,559,498,0,0
-658,526,0,0,0,0,0,0,0,0,0,-1,566,498,0,0
-651,526,0,0,0,0,0,0,0,0,0,-1,573,498,0,0
-644,526,0,0,0,0,0,0,0,0,0,-1,580,498,0,0
-637,526,0,0,0,0,0,0,0,0,0,-1,587,498,0,0
-630,526,0,0,0,0,0,0,0,0,0,-1,594,498,0,0
-623,526,0,0,0,0,0,0,0,0,0,-1,601,498,0,0
-616,526,0,0,0,0,0,0,0,0,0,-1,608,498,0,0
-609,526,0,0,0,0,0,0,0,0,0,-1,615,498,0,0
-602,526,0,0,0,0,0,0,0,0,0,-1,622,498,0,0
-595,526,0,0,0,0,0,0,0,0,0,-1,629,498,0,0
-588,526,0,0,0,0,0,0,0,0,0,-1,636,498,0,0
-581,526,0,0,0,0,0,0,0,0,0,-1,643,498,0,0
-574,526,0,0,0,0,0,0,0,0,0,-1,650,498,0,0
-567,526,0,0,0,0,0,0,0,0,0,-1,657,498,0,0
-560,526,0,0,0,0,0,0,0,0,0,-1,664,498,0,0
-553,526,0,0,0,0,0,0,0,0,0,-1,671,498,0,0
-546,526,0,0,0,0,0,0,0,0,0,-1,678,498,0,0
-539,526,0,0,0,0,0,0,0,0,0,-1,685,498,0,0
-532,526,0,0,0,0,0,0,0,0,0,-1,692,498,0,0
-525,526,0,0,0,0,0,0,0,0,0,-1,699,498,0,0
-518,526,0,0,0,0,0,0,0,0,0,-1,706,498,0,0
-511,526,0,0,0,0,0,0,0,0,0,-1,713,498,0,0
-504,526,0,0,0,0,0,0,0,0,0,-1,720,498,0,0
-497,526,0,0,0,0,0,0,0,0,0,-1,727,498,0,0
-490,526,0,0,0,0,0,0,0,0,0,-1,734,498,0,0
-483,526,0,0,0,0,0,0,0,0,0,-1,741,498,0,0
-476,526,0,0,0,0,0,0,0,0,0,-1,748,498,0,0
-469,526,0,0,0,0,0,0,0,0,0,-1,755,498,0,0
-462,526,0,0,0,0,0,0,0,0,0,-1,762,498,0,0
-455,526,0,0,0,0,0,0,0,0,0,-1,769,498,0,0
-448,526,0,0,0,0,0,0,0,0,0,-1,776,498,0,0
-441,526,0,0,0,0,0,0,0,0,0,-1,783,498,0,0
-434,526,1.33392,0.365509,0.0331909,0.0254329,0.0333952,0.0629316,-0.00430788,0.72758,0.0434616,0.0475186,790,498,1.3339,-0.365515
-427,526,1.82385,0.173645,0.0183202,0.0324262,0.030428,0.0566079,-0.0058615,0.899283,0.0398365,0.0471812,797,498,1.82387,-0.173639
-420,526,2.47186,2.49704,0.00655823,0.0350372,0.0255204,0.0500219,-0.00842649,1.03987,0.0364826,0.0464701,804,498,2.47187,-2.49705
-413,526,1.21899,2.45587,0,0,0,0,0,0,0,-1,811,498,1.21901,-2.45586
-406,526,1.76257,1.44623,-0.00824658,0.0355413,0.0136037,0.0394234,-0.0121287,1.29281,0.0311232,0.0425536,818,498,1.76255,-1.44621
-399,526,0.56604,1.04663,-0.011157,0.034153,0.00858339,0.0357245,-0.0127285,1.38972,0.0290056,0.0466541,825,498,0.566052,-1.04663
-392,526,0.585876,-0.309448,-0.0117945,0.0313781,0.00483715,0.0319134,-0.0123298,1.46057,0.0263648,0.0442309,832,498,0.58585,0.309452
-385,526,0.0888062,-0.122772,-0.0112657,0.0277583,0.00211949,0.0278731,-0.0113805,1.5167,0.0233203,0.0446725,839,498,0.0888108,0.122765
-378,526,0.65625,-0.321045,-0.0103486,0.0237711,0.00022968,0.0237727,-0.0103501,1.56407,0.0202025,0.0409497,846,498,0.656263,0.321059
-371,526,1.14325,-0.396606,-0.00973019,0.0197993,-0.00198783,0.0199325,-0.00986341,-1.50388,0.017527,0.030197,853,498,1.14323,0.396605
-364,526,1.2951,-0.344788,-0.00722669,0.0147878,-0.00380447,0.0154267,-0.00786562,-1.40441,0.013682,0.0169031,860,498,1.2951,0.344775
-357,526,1.32843,-0.384705,-0.00336905,0.0100925,-0.00201634,0.010388,-0.00366458,-1.42527,0.00841712,0.0122198,867,498,1.32846,0.38471
-350,526,1.35669,-0.422394,-0.000280353,0.00694894,-0.00112982,0.0071214,-0.000452812,-1.41932,0.00490551,0.0115462,874,498,1.35669,0.42238
-343,526,1.38257,-0.47525,0.000776747,0.00394765,0.000347777,0.00398535,0.000739052,1.46283,0.00244802,0.0146059,881,498,1.38259,0.475246
-336,526,1.35449,-0.513763,0.00162534,0.00177061,0.001288,0.00298802,0.000407931,0.813565,0.00187092,0.0139691,888,498,1.35449,0.513775
-329,526,1.35168,-0.536255,0.00129723,0.00100457,0.00211466,0.00327061,-0.00096882,0.750855,0.00256508,0.0141485,895,498,1.35169,0.536253
-322,526,1.36456,-0.562897,0.000828839,-0.00055434,0.00217254,0.00241721,-0.00214271,0.631304,0.00263427,0.00957993,902,498,1.36454,0.562897
-315,526,1.36206,-0.604095,0.000818201,-0.000300185,0.00169411,0.00204302,-0.00152501,0.625988,0.00206723,0.0086937,909,498,1.36206,0.604093
-308,526,1.35565,-0.623077,0.000827095,0.000269694,0.00125635,0.00183528,-0.000738495,0.676249,0.00153029,0.00862247,916,498,1.35562,0.623084
-301,526,1.34814,-0.64563,0.000931388,0.000756475,0.000656189,0.00150592,0.000181939,0.719149,0.000949133,0.00955191,923,498,1.34816,0.645632
-294,526,1.34705,-0.67688,0.000623246,0.00169171,0.00032118,0.00178082,0.000534131,1.30014,0.00105524,0.00908499,930,498,1.34705,0.676865
-287,526,1.34564,-0.698975,0.000205877,0.00263359,0.000183268,0.00264735,0.00019212,1.49587,0.00170447,0.00933,937,498,1.34562,0.698974
-280,526,1.34552,-0.737213,-0.000470995,0.00300992,0.000593397,0.0031083,-0.000569372,1.4065,0.00228575,0.0113578,944,498,1.34552,0.737216
-273,526,1.35675,-0.779846,-0.00171878,0.00384024,0.00127677,0.00411946,-0.001998,1.35549,0.00360201,0.00978183,951,498,1.35677,0.779852
-266,526,1.35022,-0.81427,-0.0036046,0.00468286,0.00211142,0.00518979,-0.00411152,1.33517,0.00538213,0.00853437,958,498,1.35024,0.814266
-259,526,1.3631,-0.825653,-0.00582759,0.005138,0.00296477,0.00588825,-0.00657785,1.32294,0.00720098,0.0135413,965,498,1.36312,0.82564
-252,526,1.31903,-0.831451,-0.00826581,0.00529168,0.00369664,0.00623411,-0.00920824,1.32117,0.00897059,0.0261397,972,498,1.31901,0.831461
-245,526,1.25134,-0.95459,-0.010677,0.0059066,0.00421026,0.00691428,-0.0116847,1.33588,0.0108552,0.0348803,979,498,1.25136,0.954585
-238,526,1.02289,-1.02179,-0.013099,0.00701351,0.00439228,0.00793088,-0.0140164,1.3649,0.0128326,0.0370756,986,498,1.0229,1.0218
-231,526,0.958008,-1.16681,-0.0156767,0.00871735,0.00427013,0.00944323,-0.0164026,1.40242,0.0151013,0.0413055,993,498,0.957995,1.16682
-224,526,1.15472,-1.30191,-0.0181698,0.0118118,0.003991,0.0123339,-0.0186919,1.4407,0.0180377,0.0449829,1000,498,1.15472,1.3019
-217,526,1.38562,-1.44473,-0.0199999,0.0148504,0.00291624,0.0150927,-0.0202423,1.48789,0.0204727,0.0443811,1007,498,1.38564,1.44475
-210,526,1.55798,-1.5899,-0.0208382,0.0192221,0.00145861,0.0192752,-0.0208913,1.53445,0.0231963,0.0467189,1014,498,1.55798,1.58989
-203,526,1.48798,-1.86505,-0.0207114,0.0249779,-0.000875676,0.0249947,-0.0207281,-1.55164,0.0264364,0.0461686,1021,498,1.48795,1.86506
-196,526,1.52515,-2.29691,-0.0208531,0.0313165,-0.00270767,0.0314567,-0.0209932,-1.51908,0.0304822,0.0492138,1028,498,1.52519,2.2969
-189,526,1.71106,-2.65112,0,0,0,0,0,0,0,-1,1035,498,1.71108,2.65112
-182,526,1.64697,-3.72992,0,0,0,0,0,0,0,-1,1042,498,1.64695,3.72991
-175,526,-0.422241,-1.81531,0,0,0,0,0,0,0,-1,1049,498,-0.422251,1.81529
-168,526,0.96936,-2.51532,0,0,0,0,0,0,0,-1,1056,498,0.969348,2.51532
-161,526,0.574585,-2.35178,0,0,0,0,0,0,0,-1,1063,498,0.574558,2.35177
-154,526,0.883667,-1.57156,0,0,0,0,0,0,0,-1,1070,498,0.883624,1.57155
-147,526,0.365356,-2.14755,0,0,0,0,0,0,0,-1,1077,498,0.36539,2.14754
-140,526,-0.152832,-2.72351,0,0,0,0,0,0,0,-1,1084,498,-0.152844,2.72352
-133,526,4.5321,1.08731,0,0,0,0,0,0,0,-1,1091,498,4.53212,-1.08732
-126,526,3.69214,-0.915863,0,0,0,0,0,0,0,-1,1098,498,3.69215,0.915849
-119,526,4.02942,-1.3533,0,0,0,0,0,0,0,-1,1105,498,4.02943,1.3533
-112,526,-0.0960693,0.378174,0,0,0,0,0,0,0,-1,1112,498,-0.0960594,-0.378183
-105,526,0,0,0,0,0,0,0,0,0,-1,1119,498,0,0
-98,526,0,0,0,0,0,0,0,0,0,-1,1126,498,0,0
-91,526,0,0,0,0,0,0,0,0,0,-1,1133,498,0,0
-84,526,0,0,0,0,0,0,0,0,0,-1,1140,498,0,0
-77,526,0,0,0,0,0,0,0,0,0,-1,1147,498,0,0
-70,526,0,0,0,0,0,0,0,0,0,-1,1154,498,0,0
-63,526,0,0,0,0,0,0,0,0,0,-1,1161,498,0,0
-56,526,0,0,0,0,0,0,0,0,0,-1,1168,498,0,0
-49,526,0,0,0,0,0,0,0,0,0,-1,1175,498,0,0
-42,526,0,0,0,0,0,0,0,0,0,-1,1182,498,0,0
-35,526,0,0,0,0,0,0,0,0,0,-1,1189,498,0,0
-28,526,0,0,0,0,0,0,0,0,0,-1,1196,498,0,0
-21,526,0,0,0,0,0,0,0,0,0,-1,1203,498,0,0
-14,526,0,0,0,0,0,0,0,0,0,-1,1210,498,0,0
-7,526,0,0,0,0,0,0,0,0,0,-1,1217,498,0,0
0,526,0,0,0,0,0,0,0,0,0,-1,1224,498,0,0
7,526,0,0,0,0,0,0,0,0,0,-1,1231,498,0,0
14,526,0,0,0,0,0,0,0,0,0,-1,1238,498,0,0
21,526,0,0,0,0,0,0,0,0,0,-1,1245,498,0,0
28,526,0,0,0,0,0,0,0,0,0,-1,1252,498,0,0
35,526,0,0,0,0,0,0,0,0,0,-1,1259,498,0,0
42,526,0,0,0,0,0,0,0,0,0,-1,1266,498,0,0
49,526,0,0,0,0,0,0,0,0,0,-1,1273,498,0,0
56,526,0,0,0,0,0,0,0,0,0,-1,1280,498,0,0
63,526,0,0,0,0,0,0,0,0,0,-1,1287,498,0,0
70,526,0,0,0,0,0,0,0,0,0,-1,1294,498,0,0
77,526,0,0,0,0,0,0,0,0,0,-1,1301,498,0,0
84,526,0,0,0,0,0,0,0,0,0,-1,1308,498,0,0
91,526,0,0,0,0,0,0,0,0,0,-1,1315,498,0,0
98,526,0,0,0,0,0,0,0,0,0,-1,1322,498,0,0
105,526,0,0,0,0,0,0,0,0,0,-1,1329,498,0,0
112,526,0,0,0,0,0,0,0,0,0,-1,1336,498,0,0
119,526,0,0,0,0,0,0,0,0,0,-1,1343,498,0,0
126,526,0,0,0,0,0,0,0,0,0,-1,1350,498,0,0
133,526,0,0,0,0,0,0,0,0,0,-1,1357,498,0,0
140,526,0,0,0,0,0,0,0,0,0,-1,1364,498,0,0
147,526,0,0,0,0,0,0,0,0,0,-1,1371,498,0,0
154,526,0,0,0,0,0,0,0,0,0,-1,1378,498,0,0
161,526,0,0,0,0,0,0,0,0,0,-1,1385,498,0,0
168,526,0,0,0,0,0,0,0,0,0,-1,1392,498,0,0
175,526,0,0,0,0,0,0,0,0,0,-1,1399,498,0,0
182,526,0,0,0,0,0,0,0,0,0,-1,1406,498,0,0
189,526,0,0,0,0,0,0,0,0,0,-1,1413,498,0,0
196,526,0,0,0,0,0,0,0,0,0,-1,1420,498,0,0
203,526,0,0,0,0,0,0,0,0,0,-1,1427,498,0,0
210,526,0,0,0,0,0,0,0,0,0,-1,1434,498,0,0
217,526,0,0,0,0,0,0,0,0,0,-1,1441,498,0,0
224,526,0,0,0,0,0,0,0,0,0,-1,1448,498,0,0
231,526,5.02026,-1.46545,-0.00127384,0.0542374,-0.0490753,0.0828622,-0.0298987,-1.04276,0.0674539,0.043753,1455,498,5.02031,1.46544
238,526,4.90002,-1.14731,0.00663718,0.0428683,-0.0287586,0.0587415,-0.00923595,-1.06646,0.0425749,0.0415013,1462,498,4.90005,1.14732
245,526,4.82422,-0.819824,0,0,0,0,0,0,0,-1,1469,498,4.82419,0.819831
252,526,4.78027,-0.444702,0,0,0,0,0,0,0,-1,1476,498,4.78023,0.444689
259,526,4.72778,-0.396301,0,0,0,0,0,0,0,-1,1483,498,4.72774,0.396302
266,526,4.72852,-0.605225,0,0,0,0,0,0,0,-1,1490,498,4.72846,0.605214
273,526,3.46997,0.574097,0,0,0,0,0,0,0,-1,1497,498,3.47,-0.574099
280,526,3.30737,0.249756,0.056833,-0.00310879,-0.0105352,0.0586308,-0.00490652,-0.169012,0.0408211,0.0423425,1504,498,3.30736,-0.249762
287,526,3.69849,-0.0125732,0.0588686,-0.00358458,-0.0152031,0.0623729,-0.00708887,-0.226542,0.044135,0.044101,1511,498,3.69848,0.0125747
294,526,4.41138,0.565796,0,0,0,0,0,0,0,-1,1518,498,4.41138,-0.565788
301,526,3.75757,-0.65152,0.0558338,-0.00381421,-0.0236577,0.0640776,-0.012058,-0.335304,0.0472534,0.0443128,1525,498,3.75753,0.65152
308,526,3.77124,-1.40878,0.0527432,-0.0029293,-0.0245546,0.0620255,-0.0122116,-0.361421,0.0459648,0.0424722,1532,498,3.77125,1.40878
315,526,4.38708,-2.23056,0.0474558,-0.00120872,-0.0237716,0.0571404,-0.0108934,-0.386872,0.0421961,0.0465639,1539,498,4.38711,2.23055
322,526,5.06494,-2.96548,0,0,0,0,0,0,0,-1,1546,498,5.06494,2.96548
329,526,1.98938,-0.819427,0.0368399,0.000330423,-0.019359,0.0451936,-0.00802325,-0.407374,0.0331289,0.0426357,1553,498,1.98938,0.819442
336,526,2.49146,-0.0872803,0.0322269,0.0018039,-0.0155019,0.038734,-0.00470319,-0.397426,0.0275247,0.0431644,1560,498,2.49149,0.0872945
343,526,2.35364,-0.969543,0.0276486,0.00403232,-0.0111147,0.0320568,-0.000375835,-0.377577,0.0214975,0.0426294,1567,498,2.35365,0.969541
350,526,2.17932,-0.828918,0.0231877,0.00544752,-0.00684844,0.0255238,0.00311137,-0.328743,0.0160794,0.0450641,1574,498,2.17928,0.828918
357,526,2.06274,-0.790131,0.0174314,0.005837,-0.00384781,0.0185921,0.00467624,-0.292986,0.0111673,0.0435752,1581,498,2.06275,0.790135
364,526,2.18689,-0.915131,0.012726,0.00467905,-0.001178,0.0128949,0.00451014,-0.14241,0.0075561,0.0408641,1588,498,2.18687,0.915145
371,526,2.21179,-0.976135,0.00959268,0.00384767,-0.000480203,0.00963254,0.00380781,-0.0828203,0.00560184,0.0374422,1595,498,2.21174,0.976132
378,526,2.14001,-0.925873,0.00722329,0.00337241,-0.000971037,0.00745429,0.00314141,-0.233548,0.00432141,0.0344341,1602,498,2.14005,0.925877
385,526,2.13354,-0.937256,0.00503937,0.00276394,-0.00172647,0.00596929,0.00183402,-0.494066,0.0035307,0.027462,1609,498,2.13352,0.937258
392,526,2.10107,-0.863831,0.00332911,0.00216833,-0.00190177,0.00473708,0.000760354,-0.637295,0.00293759,0.0168124,1616,498,2.10103,0.863838
399,526,2.10327,-0.844177,0.00196353,0.0017296,-0.00180625,0.0036566,3.65315e-05,-0.753065,0.00242565,0.0123217,1623,498,2.10331,0.844173
406,526,2.15833,-0.807739,0.000752773,0.00139572,-0.0018143,0.0029168,-0.00076831,-0.873083,0.0022449,0.0119891,1630,498,2.15836,0.807739
413,526,2.14709,-0.779755,-0.000100851,0.00100163,-0.0017984,0.00233138,-0.00143059,-0.934111,0.00219263,0.012869,1637,498,2.14715,0.779761
420,526,2.12024,-0.742157,-0.00024138,0.000403829,-0.00165197,0.0017644,-0.00160195,-0.881827,0.00194432,0.0119305,1644,498,2.12029,0.742166
427,526,2.12488,-0.698151,-0.000327638,0.000141882,-0.00130787,0.0012359,-0.00142165,-0.874201,0.00153559,0.0106712,1651,498,2.12494,0.698163
434,526,2.12805,-0.66684,-0.000416317,0.000175738,-0.000718997,0.000657264,-0.000897843,-0.980684,0.000901416,0.0104226,1658,498,2.128,0.666845
441,526,2.11707,-0.65271,-0.000611629,0.000703721,-0.000161654,0.000723297,-0.000631205,-1.45029,0.000782624,0.010627,1665,498,2.1171,0.652714
448,526,2.12,-0.634521,-0.000821937,0.00158173,0.000368992,0.0016371,-0.000877306,1.42185,0.00147362,0.0101241,1672,498,2.12002,0.634526
455,526,2.10913,-0.616638,-0.00106927,0.00250152,0.000880683,0.00270691,-0.00127467,1.34167,0.00234782,0.0133965,1679,498,2.10919,0.61663
462,526,2.12439,-0.563629,-0.00148705,0.0034917,0.00137252,0.00384499,-0.00184035,1.31886,0.00334976,0.00994938,1686,498,2.12437,0.563619
469,526,2.13843,-0.528564,-0.00219215,0.00455093,0.00161688,0.00491859,-0.00255981,1.34721,0.00438866,0.00739277,1693,498,2.13843,0.528575
476,526,2.13623,-0.499268,-0.00278916,0.00559899,0.00185927,0.00599263,-0.0031828,1.36216,0.0053796,0.00940264,1700,498,2.13622,0.499258
483,526,2.14624,-0.45929,-0.00374416,0.00670176,0.0020645,0.00709498,-0.00413738,1.38258,0.00655951,0.00986158,1707,498,2.14626,0.459289
490,526,2.14001,-0.389801,-0.00435215,0.00801359,0.00163588,0.00822634,-0.0045649,1.44147,0.0074852,0.0133116,1714,498,2.13996,0.389798
497,526,2.10645,-0.348938,-0.00497032,0.00916835,0.000710468,0.00920396,-0.00500593,1.52071,0.00832257,0.0199493,1721,498,2.10648,0.34895
504,526,2.04907,-0.293671,-0.00544566,0.0103338,-0.000647527,0.0103603,-0.00547219,-1.52985,0.00928499,0.0255705,1728,498,2.04903,0.293662
511,526,2.02734,-0.221527,-0.00542547,0.0106471,-0.00129827,0.0107513,-0.00552966,-1.49071,0.00955961,0.0358098,1735,498,2.02738,0.22154
518,526,1.61646,0.365204,-0.00472798,0.0105997,-0.000335406,0.0106071,-0.00473532,-1.54893,0.00907159,0.0436118,1742,498,1.61641,-0.365198
525,526,1.33179,0.731506,0,0,0,0,0,0,0,-1,1749,498,1.33183,-0.731494
532,526,0.991821,0.736053,0,0,0,0,0,0,0,-1,1756,498,0.991793,-0.736063
539,526,2.35388,0.240509,0,0,0,0,0,0,0,-1,1763,498,2.35383,-0.2405
546,526,2.00806,0.532959,0,0,0,0,0,0,0,-1,1770,498,2.00807,-0.532968
553,526,1.7688,0.351166,0,0,0,0,0,0,0,-1,1777,498,1.7688,-0.351152
560,526,0,0,0,0,0,0,0,0,0,-1,1784,498,0,0
567,526,0,0,0,0,0,0,0,0,0,-1,1791,498,0,0
574,526,0,0,0,0,0,0,0,0,0,-1,1798,498,0,0
581,526,0,0,0,0,0,0,0,0,0,-1,1805,498,0,0
588,526,0,0,0,0,0,0,0,0,0,-1,1812,498,0,0
595,526,0,0,0,0,0,0,0,0,0,-1,1819,498,0,0
602,526,0,0,0,0,0,0,0,0,0,-1,1826,498,0,0
609,526,0,0,0,0,0,0,0,0,0,-1,1833,498,0,0
616,526,0,0,0,0,0,0,0,0,0,-1,1840,498,0,0
623,526,0,0,0,0,0,0,0,0,0,-1,1847,498,0,0
630,526,0,0,0,0,0,0,0,0,0,-1,1854,498,0,0
637,526,0,0,0,0,0,0,0,0,0,-1,1861,498,0,0
644,526,0,0,0,0,0,0,0,0,0,-1,1868,498,0,0
651,526,0,0,0,0,0,0,0,0,0,-1,1875,498,0,0
658,526,0,0,0,0,0,0,0,0,0,-1,1882,498,0,0
665,526,0,0,0,0,0,0,0,0,0,-1,1889,498,0,0
672,526,0,0,0,0,0,0,0,0,0,-1,1896,498,0,0
679,526,0,0,0,0,0,0,0,0,0,-1,1903,498,0,0
686,526,0,0,0,0,0,0,0,0,0,-1,1910,498,0,0
693,526,0,0,0,0,0,0,0,0,0,-1,1917,498,0,0
700,526,0,0,0,0,0,0,0,0,0,-1,1924,498,0,0
707,526,0,0,0,0,0,0,0,0,0,-1,1931,498,0,0
714,526,0,0,0,0,0,0,0,0,0,-1,1938,498,0,0
721,526,0,0,0,0,0,0,0,0,0,-1,1945,498,0,0
728,526,0,0,0,0,0,0,0,0,0,-1,1952,498,0,0
735,526,0,0,0,0,0,0,0,0,0,-1,1959,498,0,0
742,526,0,0,0,0,0,0,0,0,0,-1,1966,498,0,0
749,526,0,0,0,0,0,0,0,0,0,-1,1973,498,0,0
756,526,0,0,0,0,0,0,0,0,0,-1,1980,498,0,0
763,526,0,0,0,0,0,0,0,0,0,-1,1987,498,0,0
770,526,0,0,0,0,0,0,0,0,0,-1,1994,498,0,0
777,526,0,0,0,0,0,0,0,0,0,-1,2001,498,0,0
784,526,0,0,0,0,0,0,0,0,0,-1,2008,498,0,0
791,526,0,0,0,0,0,0,0,0,0,-1,2015,498,0,0
798,526,0,0,0,0,0,0,0,0,0,-1,2022,498,0,0
805,526,0,0,0,0,0,0,0,0,0,-1,2029,498,0,0
812,526,0,0,0,0,0,0,0,0,0,-1,2036,498,0,0
-700,519,0,0,0,0,0,0,0,0,0,-1,524,505,0,0
-693,519,0,0,0,0,0,0,0,0,0,-1,531,505,0,0
-686,519,0,0,0,0,0,0,0,0,0,-1,538,505,0,0
-679,519,0,0,0,0,0,0,0,0,0,-1,545,505,0,0
-672,519,0,0,0,0,0,0,0,0,0,-1,552,505,0,0
-665,519,0,0,0,0,0,0,0,0,0,-1,559,505,0,0
-658,519,0,0,0,0,0,0,0,0,0,-1,566,505,0,0
-651,519,0,0,0,0,0,0,0,0,0,-1,573,505,0,0
-644,519,0,0,0,0,0,0,0,0,0,-1,580,505,0,0
-637,519,0,0,0,0,0,0,0,0,0,-1,587,505,0,0
-630,519,0,0,0,0,0,0,0,0,0,-1,594,505,0,0
-623,519,0,0,0,0,0,0,0,0,0,-1,601,505,0,0
-616,519,0,0,0,0,0,0,0,0,0,-1,608,505,0,0
-609,519,0,0,0,0,0,0,0,0,0,-1,615,505,0,0
-602,519,0,0,0,0,0,0,0,0,0,-1,622,505,0,0
-595,519,0,0,0,0,0,0,0,0,0,-1,629,505,0,0
-588,519,0,0,0,0,0,0,0,0,0,-1,636,505,0,0
-581,519,0,0,0,0,0,0,0,0,0,-1,643,505,0,0
-574,519,0,0,0,0,0,0,0,0,0,-1,650,505,0,0
-567,519,0,0,0,0,0,0,0,0,0,-1,657,505,0,0
-560,519,0,0,0,0,0,0,0,0,0,-1,664,505,0,0
-553,519,0,0,0,0,0,0,0,0,0,-1,671,505,0,0
-546,519,0,0,0,0,0,0,0,0,0,-1,678,505,0,0
-539,519,0,0,0,0,0,0,0,0,0,-1,685,505,0,0
-532,519,0,0,0,0,0,0,0,0,0,-1,692,505,0,0
-525,519,0,0,0,0,0,0,0,0,0,-1,699,505,0,0
-518,519,0,0,0,0,0,0,0,0,0,-1,706,505,0,0
-511,519,0,0,0,0,0,0,0,0,0,-1,713,505,0,0
-504,519,0,0,0,0,0,0,0,0,0,-1,720,505,0,0
-497,519,0,0,0,0,0,0,0,0,0,-1,727,505,0,0
-490,519,0,0,0,0,0,0,0,0,0,-1,734,505,0,0
-483,519,0,0,0,0,0,0,0,0,0,-1,741,505,0,0
-476,519,0,0,0,0,0,0,0,0,0,-1,748,505,0,0
-469,519,0,0,0,0,0,0,0,0,0,-1,755,505,0,0
-462,519,0,0,0,0,0,0,0,0,0,-1,762,505,0,0
-455,519,0,0,0,0,0,0,0,0,0,-1,769,505,0,0
-448,519,0,0,0,0,0,0,0,0,0,-1,776,505,0,0
-441,519,0.521729,0.649658,0.0476501,0.0271643,0.019299,0.059256,0.0155584,0.541427,0.035474,0.0429801,783,505,0.521736,-0.649665
-434,519,1.21014,0.363312,0.0345566,0.0276936,0.0203871,0.051799,0.0104513,0.70202,0.0316298,0.0450839,790,505,1.21011,-0.363322
-427,519,1.91803,0.214081,0.0229208,0.0309305,0.0193636,0.0466991,0.0071522,0.887372,0.0290437,0.0482427,797,505,1.91803,-0.21407
-420,519,2.55853,1.86041,0.0130826,0.0315489,0.0166974,0.041396,0.00323556,1.03796,0.0265845,0.0475335,804,505,2.55855,-1.86042
-413,519,1.53925,1.6731,0.00451742,0.0316152,0.0128683,0.0367523,-0.000619696,1.19097,0.0247107,0.0455573,811,505,1.53926,-1.6731
-406,519,0.748962,1.51236,-0.000835826,0.0303715,0.00852088,0.0325465,-0.00301079,1.32088,0.0227677,0.0442983,818,505,0.748959,-1.51236
-399,519,1.60608,0.194519,-0.0040942,0.0285194,0.00479257,0.0292091,-0.00478388,1.42787,0.0212477,0.0449984,825,505,1.60609,-0.194514
-392,519,1.38763,-0.13269,-0.00560057,0.025791,0.00187039,0.0259021,-0.00571162,1.51149,0.0194535,0.0475161,832,505,1.38764,0.132686
-385,519,0.839417,-0.29425,-0.00594069,0.0225286,-0.000272431,0.0225312,-0.0059433,-1.56123,0.0173447,0.0406991,839,505,0.839436,0.294252
-378,519,1.12909,-0.283325,-0.00590493,0.0190707,-0.0018245,0.0192033,-0.00603751,-1.49826,0.0152193,0.0279007,846,505,1.1291,0.283328
-371,519,1.25476,-0.284454,-0.00605807,0.0156926,-0.00370445,0.0163062,-0.00667168,-1.40665,0.0136495,0.0157039,853,505,1.25475,0.284447
-364,519,1.29156,-0.331818,-0.00448304,0.0113739,-0.00523885,0.0129484,-0.00605752,-1.27884,0.0112109,0.00996398,860,505,1.29158,0.331831
-357,519,1.32104,-0.37674,-0.00161227,0.00752862,-0.00354623,0.00874305,-0.00282669,-1.24086,0.00696483,0.00976442,867,505,1.32104,0.376726
-350,519,1.33704,-0.421204,0.000556793,0.00518639,-0.00264937,0.00638976,-0.000646571,-1.14445,0.0044909,0.0116812,874,505,1.33702,0.421198
-343,519,1.33234,-0.461731,0.000988099,0.00294652,-0.0011245,0.0034584,0.000476221,-1.14362,0.00216439,0.0131668,881,505,1.33233,0.461737
-336,519,1.29639,-0.508179,0.00136826,0.0014128,-2.87172e-05,0.00142687,0.00135419,-1.11524,0.000927969,0.0121986,888,505,1.29637,0.508167
-329,519,1.302,-0.529572,0.000870955,0.00105444,0.00097535,0.00194235,-1.69579e-05,0.832291,0.00130059,0.0113166,895,505,1.30202,0.529573
-322,519,1.32397,-0.570984,0.000317866,0.000115294,0.00131784,0.0015383,-0.00110514,0.747045,0.00153301,0.00977331,902,505,1.32399,0.570992
-315,519,1.34393,-0.622925,0.000222772,0.000523992,0.00107567,0.00145954,-0.00071278,0.854954,0.00127866,0.00864037,909,505,1.34395,0.622914
-308,519,1.33728,-0.64325,0.000137602,0.00125831,0.000839984,0.00170769,-0.000311782,1.07955,0.00125536,0.00735112,916,505,1.33731,0.643262
-301,519,1.32678,-0.665619,0.000266058,0.00197202,0.00044006,0.00207885,0.000159232,1.33265,0.00133599,0.0106864,923,505,1.32676,0.665612
-294,519,1.3338,-0.69162,8.96685e-05,0.00311732,0.000243877,0.00313684,7.01499e-05,1.49093,0.00206824,0.0139308,930,505,1.33378,0.691623
-287,519,1.30658,-0.728882,-0.000206034,0.00420458,0.000232468,0.0042168,-0.000218253,1.51828,0.0028867,0.0104929,937,505,1.30656,0.728881
-280,519,1.29877,-0.769135,-0.000986829,0.00436521,0.000891937,0.00450994,-0.00113156,1.40993,0.0034463,0.0125894,944,505,1.29875,0.769136
-273,519,1.31097,-0.788208,-0.00266018,0.00506817,0.00184096,0.0054843,-0.00307631,1.34849,0.00500722,0.0139201,951,505,1.31097,0.788214
-266,519,1.32031,-0.796204,-0.00527873,0.00568455,0.00293886,0.00642266,-0.00601684,1.32473,0.00718322,0.0166429,958,505,1.32033,0.796189
-259,519,1.3374,-0.759613,-0.00831593,0.00574112,0.00407731,0.00683815,-0.00941296,1.30796,0.00942175,0.0315505,965,505,1.3374,0.759598
-252,519,1.45007,-0.960632,-0.0116372,0.00516126,0.00520013,0.00664071,-0.0131166,1.29362,0.0116094,0.0424428,972,505,1.45006,0.960627
-245,519,1.11102,-1.25198,-0.014998,0.00519812,0.00606402,0.00687899,-0.0166788,1.3004,0.0139879,0.0423487,979,505,1.11102,1.25197
-238,519,0.646973,-1.29196,-0.0185549,0.00552336,0.00673905,0.00728117,-0.0203127,1.31564,0.0165129,0.0398107,986,505,0.647001,1.29195
-231,519,0.499146,-1.4379,0,0,0,0,0,0,0,-1,993,505,0.499152,1.4379
-224,519,0.809021,-1.87039,0,0,0,0,0,0,0,-1,1000,505,0.809011,1.8704
-217,519,1.35486,-1.99161,0,0,0,0,0,0,0,-1,1007,505,1.35484,1.9916
-210,519,1.32227,-1.77463,-0.029917,0.0150427,0.00485209,0.0155603,-0.0304347,1.46451,0.0270141,0.0466188,1014,505,1.32227,1.77462
-203,519,1.2934,-2.17493,-0.0298828,0.0206944,0.00207893,0.0207797,-0.0299681,1.52978,0.0294589,0.043567,1021,505,1.29338,2.17494
-196,519,0.977783,-2.71332,-0.0302058,0.0271239,-0.000153975,0.0271243,-0.0302062,-1.56811,0.0331157,0.0458362,1028,505,0.97774,2.71332
-189,519,0.694336,-3.25513,0,0,0,0,0,0,0,-1,1035,505,0.694288,3.25511
-182,519,-0.868896,-2.59644,0,0,0,0,0,0,0,-1,1042,505,-0.868861,2.59643
-175,519,-0.885986,-2.39682,0,0,0,0,0,0,0,-1,1049,505,-0.885926,2.39682
-168,519,2.57153,3.20203,0,0,0,0,0,0,0,-1,1056,505,2.57147,-3.20203
-161,519,2.66223,2.96603,0,0,0,0,0,0,0,-1,1063,505,2.66226,-2.96604
-154,519,-0.572144,-1.80533,0,0,0,0,0,0,0,-1,1070,505,-0.572162,1.80533
-147,519,-0.154419,-2.06433,0,0,0,0,0,0,0,-1,1077,505,-0.154396,2.06432
-140,519,1.06445,0.429596,0,0,0,0,0,0,0,-1,1084,505,1.06441,-0.429603
-133,519,3.74744,3.57724,0,0,0,0,0,0,0,-1,1091,505,3.74744,-3.57725
-126,519,0,0,0,0,0,0,0,0,0,-1,1098,505,0,0
-119,519,0,0,0,0,0,0,0,0,0,-1,1105,505,0,0
-112,519,0,0,0,0,0,0,0,0,0,-1,1112,505,0,0
-105,519,0,0,0,0,0,0,0,0,0,-1,1119,505,0,0
-98,519,0,0,0,0,0,0,0,0,0,-1,1126,505,0,0
-91,519,0,0,0,0,0,0,0,0,0,-1,1133,505,0,0
-84,519,0,0,0,0,0,0,0,0,0,-1,1140,505,0,0
-77,519,0,0,0,0,0,0,0,0,0,-1,1147,505,0,0
-70,519,0,0,0,0,0,0,0,0,0,-1,1154,505,0,0
-63,519,0,0,0,0,0,0,0,0,0,-1,1161,505,0,0
-56,519,0,0,0,0,0,0,0,0,0,-1,1168,505,0,0
-49,519,0,0,0,0,0,0,0,0,0,-1,1175,505,0,0
-42,519,0,0,0,0,0,0,0,0,0,-1,1182,505,0,0
-35,519,0,0,0,0,0,0,0,0,0,-1,1189,505,0,0
-28,519,0,0,0,0,0,0,0,0,0,-1,1196,505,0,0
-21,519,0,0,0,0,0,0,0,0,0,-1,1203,505,0,0
-14,519,0,0,0,0,0,0,0,0,0,-1,1210,505,0,0
-7,519,0,0,0,0,0,0,0,0,0,-1,1217,505,0,0
0,519,0,0,0,0,0,0,0,0,0,-1,1224,505,0,0
7,519,0,0,0,0,0,0,0,0,0,-1,1231,505,0,0
14,519,0,0,0,0,0,0,0,0,0,-1,1238,505,0,0
21,519,0,0,0,0,0,0,0,0,0,-1,1245,505,0,0
28,519,0,0,0,0,0,0,0,0,0,-1,1252,505,0,0
35,519,0,0,0,0,0,0,0,0,0,-1,1259,505,0,0
42,519,0,0,0,0,0,0,0,0,0,-1,1266,505,0,0
49,519,0,0,0,0,0,0,0,0,0,-1,1273,505,0,0
56,519,0,0,0,0,0,0,0,0,0,-1,1280,505,0,0
63,519,0,0,0,0,0,0,0,0,0,-1,1287,505,0,0
70,519,0,0,0,0,0,0,0,0,0,-1,1294,505,0,0
77,519,0,0,0,0,0,0,0,0,0,-1,1301,505,0,0
84,519,0,0,0,0,0,0,0,0,0,-1,1308,505,0,0
91,519,0,0,0,0,0,0,0,0,0,-1,1315,505,0,0
98,519,0,0,0,0,0,0,0,0,0,-1,1322,505,0,0
105,519,0,0,0,0,0,0,0,0,0,-1,1329,505,0,0
112,519,0,0,0,0,0,0,0,0,0,-1,1336,505,0,0
119,519,0,0,0,0,0,0,0,0,0,-1,1343,505,0,0
126,519,0,0,0,0,0,0,0,0,0,-1,1350,505,0,0
133,519,0,0,0,0,0,0,0,0,0,-1,1357,505,0,0
140,519,0,0,0,0,0,0,0,0,0,-1,1364,505,0,0
147,519,0,0,0,0,0,0,0,0,0,-1,1371,505,0,0
154,519,0,0,0,0,0,0,0,0,0,-1,1378,505,0,0
161,519,0,0,0,0,0,0,0,0,0,-1,1385,505,0,0
168,519,0,0,0,0,0,0,0,0,0,-1,1392,505,0,0
175,519,0,0,0,0,0,0,0,0,0,-1,1399,505,0,0
182,519,0,0,0,0,0,0,0,0,0,-1,1406,505,0,0
189,519,0,0,0,0,0,0,0,0,0,-1,1413,505,0,0
196,519,0,0,0,0,0,0,0,0,0,-1,1420,505,0,0
203,519,0,0,0,0,0,0,0,0,0,-1,1427,505,0,0
210,519,0,0,0,0,0,0,0,0,0,-1,1434,505,0,0
217,519,0,0,0,0,0,0,0,0,0,-1,1441,505,0,0
224,519,0,0,0,0,0,0,0,0,0,-1,1448,505,0,0
231,519,0,0,0,0,0,0,0,0,0,-1,1455,505,0,0
238,519,0,0,0,0,0,0,0,0,0,-1,1462,505,0,0
245,519,0,0,0,0,0,0,0,0,0,-1,1469,505,0,0
252,519,5.43933,-0.442413,0,0,0,0,0,0,0,-1,1476,505,5.43934,0.442423
259,519,5.28833,-0.389496,0,0,0,0,0,0,0,-1,1483,505,5.28838,0.389489
266,519,2.79407,-0.683716,0,0,0,0,0,0,0,-1,1490,505,2.79403,0.683706
273,519,2.87622,-0.163635,0.0625826,-0.00560097,-0.00491489,0.062935,-0.00595343,-0.0715899,0.0440754,0.042958,1497,505,2.87626,0.163636
280,519,2.90405,0.337097,0.0685058,-0.00764736,-0.00966322,0.0697128,-0.00885441,-0.124268,0.0496904,0.0416422,1504,505,2.90407,-0.337092
287,519,2.91394,0.298737,0.0723108,-0.00655732,-0.0153513,0.0751934,-0.00944,-0.18562,0.0535537,0.0440086,1511,505,2.91395,-0.298734
294,519,2.91736,-0.201355,0.0737284,-0.00544611,-0.0215161,0.0791977,-0.0109154,-0.248924,0.0567877,0.0478099,1518,505,2.91738,0.201353
301,519,3.55664,-0.752625,0.0712647,-0.00431971,-0.025794,0.0792281,-0.0122832,-0.29945,0.0573533,0.0465002,1525,505,3.5566,0.752628
308,519,4.26416,-1.54022,0.0681765,-0.00237835,-0.0267145,0.0771502,-0.011352,-0.324069,0.0556051,0.0440988,1532,505,4.2641,1.54023
315,519,4.77002,-2.36172,0.0623186,5.75441e-05,-0.0252046,0.0712429,-0.00886667,-0.340297,0.0507098,0.0464858,1539,505,4.77007,2.36174
322,519,5.27307,-3.19687,0,0,0,0,0,0,0,-1,1546,505,5.27305,3.19687
329,519,2.53223,-0.746368,0,0,0,0,0,0,0,-1,1553,505,2.53223,0.746371
336,519,3.01892,-0.13031,0.0440099,0.00319104,-0.0160244,0.049549,-0.00234804,-0.332809,0.0338425,0.0458638,1560,505,3.01892,0.130323
343,519,2.45276,-1.04321,0.0381633,0.00526473,-0.011391,0.0417224,0.00170564,-0.302836,0.0272642,0.0486807,1567,505,2.45279,1.04323
350,519,2.42542,-0.997375,0.0323743,0.00651915,-0.00673267,0.0340224,0.00487102,-0.240074,0.0212449,0.0479412,1574,505,2.42547,0.99738
357,519,2.06604,-0.67569,0,0,0,0,0,0,0,-1,1581,505,2.06604,0.675687
364,519,2.60413,-1.14407,0.0191435,0.00520616,-0.000388287,0.0191544,0.00519535,-0.0278307,0.0114381,0.0435248,1588,505,2.60411,1.14407
371,519,2.39417,-1.03558,0.01511,0.00408876,5.27707e-05,0.0151102,0.0040885,0.00478795,0.00902483,0.0414604,1595,505,2.39421,1.03557
378,519,2.21191,-0.93866,0.0118104,0.00326753,-0.000843863,0.011893,0.00318497,-0.0975236,0.00710894,0.0414517,1602,505,2.21187,0.938661
385,519,2.07104,-0.92804,0.0088111,0.00230273,-0.00198635,0.00936944,0.0017444,-0.274016,0.00575366,0.0370595,1609,505,2.0711,0.928048
392,519,2.03564,-0.847168,0.0062988,0.00130895,-0.00256331,0.00738092,0.000226837,-0.399459,0.00484677,0.028606,1616,505,2.03567,0.84716
399,519,2.16089,-0.83313,0.00407125,0.000547371,-0.00271788,0.00554834,-0.000929717,-0.497817,0.00404457,0.0195541,1623,505,2.16091,0.833119
406,519,2.21777,-0.80957,0.00198885,3.93425e-05,-0.00293098,0.00410292,-0.00207473,-0.624867,0.00363017,0.0161006,1630,505,2.21781,0.809575
413,519,2.19958,-0.770935,0.000469326,-0.00051516,-0.0030566,0.00307306,-0.0031189,-0.705562,0.00357496,0.0124872,1637,505,2.19962,0.770935
420,519,2.1604,-0.740723,-0.000192526,-0.00124074,-0.00305066,0.00237872,-0.00381198,-0.700328,0.00360599,0.013651,1644,505,2.16041,0.740715
427,519,2.15894,-0.727173,-0.000707444,-0.00156757,-0.00277793,0.00167352,-0.00394853,-0.708601,0.0033333,0.0114733,1651,505,2.15895,0.727166
434,519,2.15332,-0.672699,-0.0010512,-0.00156375,-0.00225495,0.000961992,-0.00357694,-0.728816,0.00276172,0.0107289,1658,505,2.15326,0.672713
441,519,2.14014,-0.637177,-0.00129019,-0.00116824,-0.00166581,0.000437715,-0.00289614,-0.803692,0.00209199,0.0116045,1665,505,2.14017,0.637174
448,519,2.15076,-0.62262,-0.00152049,-0.000433715,-0.00109418,0.000244574,-0.00219878,-1.01587,0.00155381,0.00937891,1672,505,2.15075,0.622625
455,519,2.14917,-0.61084,-0.00169701,0.000479735,-0.000538809,0.000605805,-0.00182308,-1.34095,0.00145984,0.010808,1679,505,2.14918,0.610829
462,519,2.16675,-0.573364,-0.00195006,0.00143942,4.69212e-06,0.00143942,-0.00195006,1.56941,0.00196431,0.0100811,1686,505,2.16678,0.573354
469,519,2.17554,-0.51709,-0.00239786,0.00242938,0.00031659,0.00245006,-0.00241854,1.50558,0.0028109,0.00991817,1693,505,2.17559,0.517079
476,519,2.16809,-0.478729,-0.00268116,0.00336364,0.000640875,0.00343084,-0.00274836,1.46632,0.00357481,0.0123452,1700,505,2.16803,0.478716
483,519,2.15625,-0.435486,-0.00326599,0.00431102,0.000917167,0.00442046,-0.00337543,1.45204,0.00451442,0.0134345,1707,505,2.15623,0.435493
490,519,2.15417,-0.37085,-0.00356358,0.0054294,0.000636801,0.00547427,-0.00360845,1.50045,0.00528066,0.0111265,1714,505,2.15414,0.370861
497,519,2.16675,-0.363373,-0.00382322,0.00635445,-8.98342e-05,0.00635525,-0.00382402,-1.56197,0.00593726,0.0123562,1721,505,2.16677,0.363359
504,519,2.15417,-0.366699,-0.00396177,0.00734558,-0.0012729,0.00748711,-0.00410329,-1.46007,0.00678612,0.0115625,1728,505,2.15412,0.366704
511,519,2.14905,-0.313873,-0.0037588,0.00762045,-0.00171261,0.00787262,-0.00401096,-1.42461,0.0069807,0.0163588,1735,505,2.14906,0.313886
518,519,1.93115,-0.175446,-0.00298225,0.00771905,-0.000670823,0.00776094,-0.00302414,-1.50844,0.00642384,0.0348186,1742,505,1.93117,0.17545
525,519,1.36267,-0.0631714,0,0,0,0,0,0,0,-1,1749,505,1.3627,0.0631749
532,519,2.4281,-0.202209,0.000100719,0.00865817,0.00127596,0.00884437,-8.54819e-05,1.42589,0.00592494,0.0482817,1756,505,2.42807,0.202208
539,519,1.92993,0.497253,0.00284732,0.00867967,0.00406663,0.0107676,0.000759347,1.09645,0.00693918,0.0474671,1763,505,1.92992,-0.497244
546,519,2.18835,0.16275,0.00640816,0.00751532,0.0094383,0.0164163,-0.00249278,0.814691,0.0118627,0.0487828,1770,505,2.18834,-0.162758
553,519,2.47607,-0.323822,0,0,0,0,0,0,0,-1,1777,505,2.47607,0.323813
560,519,3.00293,-0.70459,0,0,0,0,0,0,0,-1,1784,505,3.00298,0.704591
567,519,0,0,0,0,0,0,0,0,0,-1,1791,505,0,0
574,519,0,0,0,0,0,0,0,0,0,-1,1798,505,0,0
581,519,0,0,0,0,0,0,0,0,0,-1,1805,505,0,0
588,519,0,0,0,0,0,0,0,0,0,-1,1812,505,0,0
595,519,0,0,0,0,0,0,0,0,0,-1,1819,505,0,0
602,519,0,0,0,0,0,0,0,0,0,-1,1826,505,0,0
609,519,0,0,0,0,0,0,0,0,0,-1,1833,505,0,0
616,519,0,0,0,0,0,0,0,0,0,-1,1840,505,0,0
623,519,0,0,0,0,0,0,0,0,0,-1,1847,505,0,0
630,519,0,0,0,0,0,0,0,0,0,-1,1854,505,0,0
637,519,0,0,0,0,0,0,0,0,0,-1,1861,505,0,0
644,519,0,0,0,0,0,0,0,0,0,-1,1868,505,0,0
651,519,0,0,0,0,0,0,0,0,0,-1,1875,505,0,0
658,519,0,0,0,0,0,0,0,0,0,-1,1882,505,0,0
665,519,0,0,0,0,0,0,0,0,0,-1,1889,505,0,0
672,519,0,0,0,0,0,0,0,0,0,-1,1896,505,0,0
679,519,0,0,0,0,0,0,0,0,0,-1,1903,505,0,0
686,519,0,0,0,0,0,0,0,0,0,-1,1910,505,0,0
693,519,0,0,0,0,0,0,0,0,0,-1,1917,505,0,0
700,519,0,0,0,0,0,0,0,0,0,-1,1924,505,0,0
707,519,0,0,0,0,0,0,0,0,0,-1,1931,505,0,0
714,519,0,0,0,0,0,0,0,0,0,-1,1938,505,0,0
721,519,0,0,0,0,0,0,0,0,0,-1,1945,505,0,0
728,519,0,0,0,0,0,0,0,0,0,-1,1952,505,0,0
735,519,0,0,0,0,0,0,0,0,0,-1,1959,505,0,0
742,519,0,0,0,0,0,0,0,0,0,-1,1966,505,0,0
749,519,0,0,0,0,0,0,0,0,0,-1,1973,505,0,0
756,519,0,0,0,0,0,0,0,0,0,-1,1980,505,0,0
763,519,0,0,0,0,0,0,0,0,0,-1,1987,505,0,0
770,519,0,0,0,0,0,0,0,0,0,-1,1994,505,0,0
777,519,0,0,0,0,0,0,0,0,0,-1,2001,505,0,0
784,519,0,0,0,0,0,0,0,0,0,-1,2008,505,0,0
791,519,0,0,0,0,0,0,0,0,0,-1,2015,505,0,0
798,519,0,0,0,0,0,0,0,0,0,-1,2022,505,0,0
805,519,0,0,0,0,0,0,0,0,0,-1,2029,505,0,0
812,519,0,0,0,0,0,0,0,0,0,-1,2036,505,0,0
-700,512,0,0,0,0,0,0,0,0,0,-1,524,512,0,0
-693,512,0,0,0,0,0,0,0,0,0,-1,531,512,0,0
-686,512,0,0,0,0,0,0,0,0,0,-1,538,512,0,0
-679,512,0,0,0,0,0,0,0,0,0,-1,545,512,0,0
-672,512,0,0,0,0,0,0,0,0,0,-1,552,512,0,0
-665,512,0,0,0,0,0,0,0,0,0,-1,559,512,0,0
-658,512,0,0,0,0,0,0,0,0,0,-1,566,512,0,0
-651,512,0,0,0,0,0,0,0,0,0,-1,573,512,0,0
-644,512,0,0,0,0,0,0,0,0,0,-1,580,512,0,0
-637,512,0,0,0,0,0,0,0,0,0,-1,587,512,0,0
-630,512,0,0,0,0,0,0,0,0,0,-1,594,512,0,0
-623,512,0,0,0,0,0,0,0,0,0,-1,601,512,0,0
-616,512,0,0,0,0,0,0,0,0,0,-1,608,512,0,0
-609,512,0,0,0,0,0,0,0,0,0,-1,615,512,0,0
-602,512,0,0,0,0,0,0,0,0,0,-1,622,512,0,0
-595,512,0,0,0,0,0,0,0,0,0,-1,629,512,0,0
-588,512,0,0,0,0,0,0,0,0,0,-1,636,512,0,0
-581,512,0,0,0,0,0,0,0,0,0,-1,643,512,0,0
-574,512,0,0,0,0,0,0,0,0,0,-1,650,512,0,0
-567,512,0,0,0,0,0,0,0,0,0,-1,657,512,0,0
-560,512,0,0,0,0,0,0,0,0,0,-1,664,512,0,0
-553,512,0,0,0,0,0,0,0,0,0,-1,671,512,0,0
-546,512,0,0,0,0,0,0,0,0,0,-1,678,512,0,0
-539,512,0,0,0,0,0,0,0,0,0,-1,685,512,0,0
-532,512,0,0,0,0,0,0,0,0,0,-1,692,512,0,0
-525,512,0,0,0,0,0,0,0,0,0,-1,699,512,0,0
-518,512,0,0,0,0,0,0,0,0,0,-1,706,512,0,0
-511,512,0,0,0,0,0,0,0,0,0,-1,713,512,0,0
-504,512,0,0,0,0,0,0,0,0,0,-1,720,512,0,0
-497,512,0,0,0,0,0,0,0,0,0,-1,727,512,0,0
-490,512,0,0,0,0,0,0,0,0,0,-1,734,512,0,0
-483,512,0,0,0,0,0,0,0,0,0,-1,741,512,0,0
-476,512,0,0,0,0,0,0,0,0,0,-1,748,512,0,0
-469,512,0,0,0,0,0,0,0,0,0,-1,755,512,0,0
-462,512,0,0,0,0,0,0,0,0,0,-1,762,512,0,0
-455,512,0,0,0,0,0,0,0,0,0,-1,769,512,0,0
-448,512,0.233215,0.641174,0.0560898,0.0296003,0.00636313,0.0575391,0.0281511,0.223933,0.0332227,0.0397345,776,512,0.233202,-0.641164
-441,512,0.460388,0.448364,0.0442909,0.0288158,0.010744,0.0497936,0.0233131,0.47333,0.0287677,0.0430176,783,512,0.460381,-0.448355
-434,512,0.699097,0.324097,0.0335884,0.0276332,0.0118035,0.042784,0.0184375,0.661844,0.0247798,0.0460055,790,512,0.699083,-0.324103
-427,512,1.91382,0.0700989,0.0241651,0.0283555,0.0117954,0.0382403,0.0142802,0.873295,0.0223126,0.0471712,797,512,1.91385,-0.070105
-420,512,2.50946,1.38898,0.0162554,0.0278136,0.0105496,0.0340633,0.0100057,1.03598,0.0202166,0.0461378,804,512,2.50947,-1.38898
-413,512,2.25177,0.698486,0.00877234,0.0272537,0.00826744,0.0304123,0.00561381,1.20586,0.0186868,0.0439954,811,512,2.25174,-0.698488
-406,512,1.4137,-0.206055,0,0,0,0,0,0,0,-1,818,512,1.41373,0.20603
-399,512,1.47528,-0.0350952,0.000611597,0.0237851,0.00247269,0.024046,0.000350692,1.46567,0.0159151,0.0418976,825,512,1.47527,0.0350967
-392,512,1.37354,-0.182373,-0.00133407,0.0214412,0.000304246,0.0214452,-0.00133813,1.55744,0.0147631,0.0322021,832,512,1.37356,0.182374
-385,512,1.31818,-0.235291,-0.0021755,0.0187409,-0.00130339,0.0188218,-0.0022564,-1.5088,0.0133636,0.0168685,839,512,1.31818,0.235319
-378,512,1.27472,-0.256897,-0.00274036,0.0159269,-0.00251571,0.01626,-0.00307344,-1.43916,0.0119964,0.0130152,846,512,1.27471,0.256912
-371,512,1.27026,-0.30658,-0.00344343,0.0132272,-0.00405852,0.0141627,-0.00437899,-1.34424,0.0111908,0.0112864,853,512,1.27025,0.30656
-364,512,1.289,-0.362305,-0.00261377,0.00967798,-0.0053323,0.0116688,-0.00460455,-1.21348,0.00968599,0.0092242,860,512,1.28898,0.362291
-357,512,1.30884,-0.387573,-0.000646589,0.00667869,-0.00381532,0.00830488,-0.00227277,-1.16789,0.0064295,0.0099202,867,512,1.30883,0.38758
-350,512,1.31262,-0.430176,0.000634584,0.00502594,-0.00298379,0.00653485,-0.000874329,-1.1026,0.00467534,0.0110589,874,512,1.31262,0.430169
-343,512,1.2876,-0.464417,0.000502194,0.00338594,-0.0015507,0.00406153,-0.000173398,-1.15992,0.0027673,0.0106635,881,512,1.28759,0.464409
-336,512,1.26984,-0.503906,0.000452904,0.00231788,-0.000452825,0.00242202,0.00034877,-1.34476,0.00151189,0.0103793,888,512,1.26985,0.503936
-329,512,1.27344,-0.538513,-0.000191697,0.00209784,0.000587201,0.00223965,-0.000333513,1.33382,0.00161579,0.0113759,895,512,1.27345,0.538505
-322,512,1.27972,-0.577698,-0.000781615,0.00149675,0.00108068,0.0019278,-0.00121266,1.19127,0.00182875,0.00995957,902,512,1.27974,0.577716
-315,512,1.29492,-0.608032,-0.000915962,0.00184462,0.000975268,0.00215441,-0.00122574,1.26324,0.00197593,0.0106727,909,512,1.29489,0.608029
-308,512,1.29059,-0.649414,-0.00101364,0.00256688,0.000871248,0.00276763,-0.00121438,1.34434,0.0023566,0.0108247,916,512,1.29062,0.649387
-301,512,1.29602,-0.672668,-0.000776583,0.00328219,0.000612611,0.00337264,-0.000867032,1.42421,0.00258634,0.0138042,923,512,1.296,0.672657
-294,512,1.29248,-0.692383,-0.000758038,0.00449982,0.000556754,0.00455813,-0.000816346,1.46645,0.00334425,0.0137965,930,512,1.29245,0.692411
-287,512,1.26532,-0.726257,-0.000859093,0.00561356,0.000650444,0.00567828,-0.000923809,1.47163,0.00412806,0.0153902,937,512,1.26535,0.726261
-280,512,1.26154,-0.770081,-0.00169643,0.00545735,0.00160648,0.00580155,-0.00204063,1.35973,0.00469803,0.0162308,944,512,1.26156,0.77007
-273,512,1.31989,-0.768005,-0.00378669,0.00594448,0.00288887,0.00673747,-0.00457968,1.3029,0.00657343,0.026842,951,512,1.31988,0.768033
-266,512,1.42798,-0.732849,-0.00717933,0.00622923,0.00432248,0.00750187,-0.00845196,1.28446,0.00921639,0.0346217,958,512,1.42796,0.732834
-259,512,1.3725,-0.769897,-0.0110863,0.00576606,0.00581472,0.00757763,-0.0128979,1.26878,0.0119538,0.0448803,965,512,1.37248,0.769886
-252,512,1.59021,-1.13843,0,0,0,0,0,0,0,-1,972,512,1.59024,1.13844
-245,512,0.620667,-1.84088,-0.0195979,0.00367499,0.00854408,0.00647489,-0.0223978,1.25412,0.0174943,0.0483631,979,512,0.62067,1.84088
-238,512,0.35376,-1.21869,-0.024464,0.00304415,0.00971832,0.00613111,-0.0275509,1.26323,0.0207157,0.0447927,986,512,0.353731,1.21869
-231,512,-0.158997,-0.606079,0,0,0,0,0,0,0,-1,993,512,-0.158978,0.606052
-224,512,0.539856,-2.07867,0,0,0,0,0,0,0,-1,1000,512,0.539827,2.07869
-217,512,0.819458,-1.51721,0,0,0,0,0,0,0,-1,1007,512,0.819468,1.51719
-210,512,0.977112,-1.91644,-0.0410224,0.00840739,0.00934455,0.010115,-0.0427299,1.39006,0.0323891,0.0481204,1014,512,0.977108,1.91646
-203,512,1.00299,-2.39294,-0.040971,0.0138687,0.00596462,0.0145099,-0.0416122,1.4637,0.033638,0.0430357,1021,512,1.003,2.39294
-196,512,0.780396,-2.91431,-0.0413869,0.020326,0.00316315,0.0204877,-0.0415486,1.51972,0.0364982,0.0438749,1028,512,0.780356,2.91432
-189,512,0.624756,-3.46667,0,0,0,0,0,0,0,-1,1035,512,0.624795,3.46668
-182,512,-1.02563,-3.04565,0,0,0,0,0,0,0,-1,1042,512,-1.02567,3.04564
-175,512,3.68103,4.07687,0,0,0,0,0,0,0,-1,1049,512,3.68107,-4.07687
-168,512,3.2876,3.7319,0,0,0,0,0,0,0,-1,1056,512,3.28762,-3.73191
-161,512,3.16931,3.29422,0,0,0,0,0,0,0,-1,1063,512,3.16937,-3.29423
-154,512,3.11609,3.08133,0,0,0,0,0,0,0,-1,1070,512,3.11606,-3.08132
-147,512,0,0,0,0,0,0,0,0,0,-1,1077,512,0,0
-140,512,0,0,0,0,0,0,0,0,0,-1,1084,512,0,0
-133,512,0,0,0,0,0,0,0,0,0,-1,1091,512,0,0
-126,512,0,0,0,0,0,0,0,0,0,-1,1098,512,0,0
-119,512,0,0,0,0,0,0,0,0,0,-1,1105,512,0,0
-112,512,0,0,0,0,0,0,0,0,0,-1,1112,512,0,0
-105,512,0,0,0,0,0,0,0,0,0,-1,1119,512,0,0
-98,512,0,0,0,0,0,0,0,0,0,-1,1126,512,0,0
-91,512,0,0,0,0,0,0,0,0,0,-1,1133,512,0,0
-84,512,0,0,0,0,0,0,0,0,0,-1,1140,512,0,0
-77,512,0,0,0,0,0,0,0,0,0,-1,1147,512,0,0
-70,512,0,0,0,0,0,0,0,0,0,-1,1154,512,0,0
-63,512,0,0,0,0,0,0,0,0,0,-1,1161,512,0,0
-56,512,0,0,0,0,0,0,0,0,0,-1,1168,512,0,0
-49,512,0,0,0,0,0,0,0,0,0,-1,1175,512,0,0
-42,512,0,0,0,0,0,0,0,0,0,-1,1182,512,0,0
-35,512,0,0,0,0,0,0,0,0,0,-1,1189,512,0,0
-28,512,0,0,0,0,0,0,0,0,0,-1,1196,512,0,0
-21,512,0,0,0,0,0,0,0,0,0,-1,1203,512,0,0
-14,512,0,0,0,0,0,0,0,0,0,-1,1210,512,0,0
-7,512,0,0,0,0,0,0,0,0,0,-1,1217,512,0,0
0,512,0,0,0,0,0,0,0,0,0,-1,1224,512,0,0
7,512,0,0,0,0,0,0,0,0,0,-1,1231,512,0,0
14,512,0,0,0,0,0,0,0,0,0,-1,1238,512,0,0
21,512,0,0,0,0,0,0,0,0,0,-1,1245,512,0,0
28,512,0,0,0,0,0,0,0,0,0,-1,1252,512,0,0
35,512,0,0,0,0,0,0,0,0,0,-1,1259,512,0,0
42,512,0,0,0,0,0,0,0,0,0,-1,1266,512,0,0
49,512,0,0,0,0,0,0,0,0,0,-1,1273,512,0,0
56,512,0,0,0,0,0,0,0,0,0,-1,1280,512,0,0
63,512,0,0,0,0,0,0,0,0,0,-1,1287,512,0,0
70,512,0,0,0,0,0,0,0,0,0,-1,1294,512,0,0
77,512,0,0,0,0,0,0,0,0,0,-1,1301,512,0,0
84,512,0,0,0,0,0,0,0,0,0,-1,1308,512,0,0
91,512,0,0,0,0,0,0,0,0,0,-1,1315,512,0,0
98,512,0,0,0,0,0,0,0,0,0,-1,1322,512,0,0
105,512,0,0,0,0,0,0,0,0,0,-1,1329,512,0,0
112,512,0,0,0,0,0,0,0,0,0,-1,1336,512,0,0
119,512,0,0,0,0,0,0,0,0,0,-1,1343,512,0,0
126,512,0,0,0,0,0,0,0,0,0,-1,1350,512,0,0
133,512,0,0,0,0,0,0,0,0,0,-1,1357,512,0,0
140,512,0,0,0,0,0,0,0,0,0,-1,1364,512,0,0
147,512,0,0,0,0,0,0,0,0,0,-1,1371,512,0,0
154,512,0,0,0,0,0,0,0,0,0,-1,1378,512,0,0
161,512,0,0,0,0,0,0,0,0,0,-1,1385,512,0,0
168,512,0,0,0,0,0,0,0,0,0,-1,1392,512,0,0
175,512,0,0,0,0,0,0,0,0,0,-1,1399,512,0,0
182,512,0,0,0,0,0,0,0,0,0,-1,1406,512,0,0
189,512,0,0,0,0,0,0,0,0,0,-1,1413,512,0,0
196,512,0,0,0,0,0,0,0,0,0,-1,1420,512,0,0
203,512,0,0,0,0,0,0,0,0,0,-1,1427,512,0,0
210,512,0,0,0,0,0,0,0,0,0,-1,1434,512,0,0
217,512,0,0,0,0,0,0,0,0,0,-1,1441,512,0,0
224,512,0,0,0,0,0,0,0,0,0,-1,1448,512,0,0
231,512,0,0,0,0,0,0,0,0,0,-1,1455,512,0,0
238,512,0,0,0,0,0,0,0,0,0,-1,1462,512,0,0
245,512,0,0,0,0,0,0,0,0,0,-1,1469,512,0,0
252,512,0,0,0,0,0,0,0,0,0,-1,1476,512,0,0
259,512,0,0,0,0,0,0,0,0,0,-1,1483,512,0,0
266,512,0,0,0,0,0,0,0,0,0,-1,1490,512,0,0
273,512,2.7428,0.0884399,0.0737031,-0.0149963,-0.0016874,0.0737352,-0.0150284,-0.0190146,0.0548568,0.0425095,1497,512,2.74277,-0.0884482
280,512,2.64172,0.508972,0.0828787,-0.0145949,-0.00791832,0.0835177,-0.0152339,-0.0805319,0.0613898,0.0420248,1504,512,2.64175,-0.508972
287,512,2.48621,0.974213,0.0891691,-0.0108722,-0.0148486,0.0913265,-0.0130296,-0.144282,0.0656599,0.0427775,1511,512,2.48624,-0.9742
294,512,2.69092,0.437286,0.0924383,-0.00772116,-0.0226846,0.0973364,-0.0126193,-0.21266,0.0694804,0.0487499,1518,512,2.69091,-0.437297
301,512,3.05542,-0.264038,0.0907705,-0.00479995,-0.0274191,0.0980782,-0.0121077,-0.260466,0.0697724,0.0447636,1525,512,3.05541,0.264047
308,512,4.80798,-1.75226,0.0875331,-0.00142986,-0.0282187,0.0957289,-0.00962566,-0.282662,0.0672578,0.0458879,1532,512,4.80797,1.75225
315,512,5.31616,-2.60486,0.0806917,0.00181071,-0.0257544,0.0883558,-0.0058534,-0.289239,0.0609488,0.0476738,1539,512,5.31622,2.60486
322,512,1.41479,-0.292114,0,0,0,0,0,0,0,-1,1546,512,1.4148,0.292135
329,512,1.56384,-0.437744,0.0652582,0.00390902,-0.0197973,0.071092,-0.00192478,-0.286566,0.0480491,0.0471292,1553,512,1.56384,0.437736
336,512,1.65588,-0.781738,0.0579584,0.00486451,-0.0159807,0.0623973,0.00042559,-0.270937,0.041457,0.0447141,1560,512,1.65589,0.781761
343,512,2.06702,-1.31299,0.0503767,0.00670458,-0.0113335,0.0531427,0.00393856,-0.239377,0.0341913,0.0470215,1567,512,2.06696,1.31301
350,512,2.42969,-0.919312,0,0,0,0,0,0,0,-1,1574,512,2.42965,0.919303
357,512,2.94568,-1.53888,0,0,0,0,0,0,0,-1,1581,512,2.94566,1.53886
364,512,2.77454,-1.19513,0.0260924,0.00587467,0.000362402,0.0260989,0.00586818,0.0179172,0.0158105,0.0448234,1588,512,2.77458,1.1951
371,512,2.57568,-1.10565,0.0209395,0.00443322,0.000431166,0.0209508,0.00442196,0.0260976,0.0127514,0.0429353,1595,512,2.57563,1.10566
378,512,2.3241,-1.00757,0.0165187,0.00319328,-0.000943841,0.0165852,0.00312676,-0.0703618,0.010176,0.0438986,1602,512,2.32406,1.00757
385,512,2.01062,-0.952026,0.0125792,0.00183269,-0.00248891,0.0131276,0.00128424,-0.21689,0.00835662,0.0422863,1609,512,2.01061,0.952003
392,512,2.07361,-0.831909,0.00918676,0.000365128,-0.00341705,0.0103555,-0.000803622,-0.329561,0.00718654,0.040899,1616,512,2.07362,0.831889
399,512,2.17651,-0.825989,0.00605276,-0.000850307,-0.00381548,0.00774622,-0.00254377,-0.417719,0.00618885,0.0352874,1623,512,2.17649,0.82599
406,512,2.23853,-0.843872,0.00303398,-0.00162235,-0.00431551,0.00560928,-0.00419765,-0.53803,0.00568156,0.0267212,1630,512,2.23854,0.843853
413,512,2.2124,-0.789551,0.000822835,-0.0024727,-0.00459976,0.00406106,-0.00571093,-0.613405,0.0056686,0.0198674,1637,512,2.21242,0.789531
420,512,2.20349,-0.768677,-0.000381326,-0.00340915,-0.00474341,0.0030839,-0.00687438,-0.630927,0.00588661,0.0151273,1644,512,2.20348,0.768689
427,512,2.20081,-0.757263,-0.00138377,-0.00386605,-0.00457377,0.00211426,-0.00736409,-0.652909,0.00574532,0.0136844,1651,512,2.20074,0.757258
434,512,2.1886,-0.699585,-0.00204147,-0.00389032,-0.00415667,0.00129233,-0.00722412,-0.675981,0.00529964,0.0111371,1658,512,2.18859,0.699591
441,512,2.18811,-0.633667,-0.00240422,-0.00363029,-0.00357578,0.000610695,-0.0066452,-0.700503,0.0046471,0.0133781,1665,512,2.18809,0.633664
448,512,2.18225,-0.625793,-0.00269426,-0.00296727,-0.00299725,0.00016959,-0.00583113,-0.762642,0.00394516,0.00964699,1672,512,2.18221,0.625807
455,512,2.19543,-0.593079,-0.00279693,-0.00195267,-0.0024218,8.35161e-05,-0.00483312,-0.871683,0.00325027,0.00910925,1679,512,2.19543,0.593067
462,512,2.21228,-0.538696,-0.00287181,-0.000894607,-0.00182891,0.000195794,-0.00396221,-1.03317,0.0027091,0.00950959,1686,512,2.21226,0.538674
469,512,2.20532,-0.507019,-0.0030397,0.00015054,-0.00143677,0.000702212,-0.00359137,-1.20419,0.0026594,0.0107862,1693,512,2.20532,0.507025
476,512,2.19495,-0.486572,-0.00296987,0.00111948,-0.000985641,0.00134465,-0.00319503,-1.3462,0.00269258,0.0136092,1700,512,2.19493,0.486574
483,512,2.19446,-0.436768,-0.00315142,0.00206702,-0.000582663,0.00213129,-0.00321568,-1.46094,0.00310816,0.0126196,1707,512,2.19451,0.436767
490,512,2.19873,-0.386902,-0.00311654,0.0030965,-0.000659489,0.00316573,-0.00318577,-1.4662,0.00366705,0.0102249,1714,512,2.19875,0.386893
497,512,2.2124,-0.376404,-0.00302976,0.00388901,-0.00113185,0.00406947,-0.00321021,-1.41269,0.00421267,0.0116605,1721,512,2.2124,0.37638
504,512,2.19812,-0.346252,-0.00281454,0.00474742,-0.0020798,0.0052817,-0.00334881,-1.31935,0.0050243,0.0118607,1728,512,2.19814,0.346272
511,512,2.20435,-0.30896,-0.00240738,0.00493935,-0.002302,0.00560105,-0.00306908,-1.2909,0.00507635,0.0119912,1735,512,2.20429,0.308975
518,512,2.21338,-0.274475,-0.00157035,0.00508667,-0.00122324,0.00530433,-0.00178801,-1.3947,0.00425922,0.0148697,1742,512,2.21334,0.274476
525,512,2.30688,-0.269226,-0.000341035,0.00591108,-0.000569333,0.00596251,-0.000392456,-1.48072,0.00411207,0.0346521,1749,512,2.30693,0.269213
532,512,2.46716,-0.231873,0.00146709,0.00648804,0.000929383,0.00665455,0.00130058,1.39352,0.00407266,0.0455199,1756,512,2.46719,0.231889
539,512,2.43896,-0.0469971,0.00384244,0.00692831,0.00366724,0.00936398,0.00140677,0.984524,0.00583058,0.0476245,1763,512,2.43892,0.0469741
546,512,2.34448,-0.1922,0.00678894,0.00697726,0.00834517,0.0152288,-0.00146259,0.791039,0.0106735,0.0462228,1770,512,2.34443,0.192202
553,512,2.56238,-0.403137,0,0,0,0,0,0,0,-1,1777,512,2.56237,0.403114
560,512,3.66101,-1.23822,0.0133957,0.00634943,0.0258912,0.0360024,-0.0162573,0.717776,0.0308816,0.0441283,1784,512,3.66106,1.2382
567,512,4.03833,-1.3811,0.0166287,0.00487048,0.0400332,0.0512121,-0.029713,0.712492,0.0472685,0.0480447,1791,512,4.03833,1.38112
574,512,0,0,0,0,0,0,0,0,0,-1,1798,512,0,0
581,512,0,0,0,0,0,0,0,0,0,-1,1805,512,0,0
588,512,0,0,0,0,0,0,0,0,0,-1,1812,512,0,0
595,512,0,0,0,0,0,0,0,0,0,-1,1819,512,0,0
602,512,0,0,0,0,0,0,0,0,0,-1,1826,512,0,0
609,512,0,0,0,0,0,0,0,0,0,-1,1833,512,0,0
616,512,0,0,0,0,0,0,0,0,0,-1,1840,512,0,0
623,512,0,0,0,0,0,0,0,0,0,-1,1847,512,0,0
630,512,0,0,0,0,0,0,0,0,0,-1,1854,512,0,0
637,512,0,0,0,0,0,0,0,0,0,-1,1861,512,0,0
644,512,0,0,0,0,0,0,0,0,0,-1,1868,512,0,0
651,512,0,0,0,0,0,0,0,0,0,-1,1875,512,0,0
658,512,0,0,0,0,0,0,0,0,0,-1,1882,512,0,0
665,512,0,0,0,0,0,0,0,0,0,-1,1889,512,0,0
672,512,0,0,0,0,0,0,0,0,0,-1,1896,512,0,0
679,512,0,0,0,0,0,0,0,0,0,-1,1903,512,0,0
686,512,0,0,0,0,0,0,0,0,0,-1,1910,512,0,0
693,512,0,0,0,0,0,0,0,0,0,-1,1917,512,0,0
700,512,0,0,0,0,0,0,0,0,0,-1,1924,512,0,0
707,512,0,0,0,0,0,0,0,0,0,-1,1931,512,0,0
714,512,0,0,0,0,0,0,0,0,0,-1,1938,512,0,0
721,512,0,0,0,0,0,0,0,0,0,-1,1945,512,0,0
728,512,0,0,0,0,0,0,0,0,0,-1,1952,512,0,0
735,512,0,0,0,0,0,0,0,0,0,-1,1959,512,0,0
742,512,0,0,0,0,0,0,0,0,0,-1,1966,512,0,0
749,512,0,0,0,0,0,0,0,0,0,-1,1973,512,0,0
756,512,0,0,0,0,0,0,0,0,0,-1,1980,512,0,0
763,512,0,0,0,0,0,0,0,0,0,-1,1987,512,0,0
770,512,0,0,0,0,0,0,0,0,0,-1,1994,512,0,0
777,512,0,0,0,0,0,0,0,0,0,-1,2001,512,0,0
784,512,0,0,0,0,0,0,0,0,0,-1,2008,512,0,0
791,512,0,0,0,0,0,0,0,0,0,-1,2015,512,0,0
798,512,0,0,0,0,0,0,0,0,0,-1,2022,512,0,0
805,512,0,0,0,0,0,0,0,0,0,-1,2029,512,0,0
812,512,0,0,0,0,0,0,0,0,0,-1,2036,512,0,0
-700,505,0,0,0,0,0,0,0,0,0,-1,524,519,0,0
-693,505,0,0,0,0,0,0,0,0,0,-1,531,519,0,0
-686,505,0,0,0,0,0,0,0,0,0,-1,538,519,0,0
-679,505,0,0,0,0,0,0,0,0,0,-1,545,519,0,0
-672,505,0,0,0,0,0,0,0,0,0,-1,552,519,0,0
-665,505,0,0,0,0,0,0,0,0,0,-1,559,519,0,0
-658,505,0,0,0,0,0,0,0,0,0,-1,566,519,0,0
-651,505,0,0,0,0,0,0,0,0,0,-1,573,519,0,0
-644,505,0,0,0,0,0,0,0,0,0,-1,580,519,0,0
-637,505,0,0,0,0,0,0,0,0,0,-1,587,519,0,0
-630,505,0,0,0,0,0,0,0,0,0,-1,594,519,0,0
-623,505,0,0,0,0,0,0,0,0,0,-1,601,519,0,0
-616,505,0,0,0,0,0,0,0,0,0,-1,608,519,0,0
-609,505,0,0,0,0,0,0,0,0,0,-1,615,519,0,0
-602,505,0,0,0,0,0,0,0,0,0,-1,622,519,0,0
-595,505,0,0,0,0,0,0,0,0,0,-1,629,519,0,0
-588,505,0,0,0,0,0,0,0,0,0,-1,636,519,0,0
-581,505,0,0,0,0,0,0,0,0,0,-1,643,519,0,0
-574,505,0,0,0,0,0,0,0,0,0,-1,650,519,0,0
-567,505,0,0,0,0,0,0,0,0,0,-1,657,519,0,0
-560,505,0,0,0,0,0,0,0,0,0,-1,664,519,0,0
-553,505,0,0,0,0,0,0,0,0,0,-1,671,519,0,0
-546,505,0,0,0,0,0,0,0,0,0,-1,678,519,0,0
-539,505,0,0,0,0,0,0,0,0,0,-1,685,519,0,0
-532,505,0,0,0,0,0,0,0,0,0,-1,692,519,0,0
-525,505,0,0,0,0,0,0,0,0,0,-1,699,519,0,0
-518,505,0,0,0,0,0,0,0,0,0,-1,706,519,0,0
-511,505,0,0,0,0,0,0,0,0,0,-1,713,519,0,0
-504,505,0,0,0,0,0,0,0,0,0,-1,720,519,0,0
-497,505,0,0,0,0,0,0,0,0,0,-1,727,519,0,0
-490,505,0,0,0,0,0,0,0,0,0,-1,734,519,0,0
-483,505,0,0,0,0,0,0,0,0,0,-1,741,519,0,0
-476,505,0,0,0,0,0,0,0,0,0,-1,748,519,0,0
-469,505,0,0,0,0,0,0,0,0,0,-1,755,519,0,0
-462,505,0,0,0,0,0,0,0,0,0,-1,762,519,0,0
-455,505,0.219421,0.629761,0.0581366,0.0347294,-0.00458208,0.0590016,0.0338644,-0.186583,0.0341886,0.0438114,769,519,0.219418,-0.629783
-448,505,0.351196,0.408447,0.0493349,0.0307178,0.00115035,0.0494057,0.030647,0.0614787,0.0287983,0.0422863,776,519,0.3512,-0.408441
-441,505,0.704529,0.326904,0.0404207,0.0283454,0.00502195,0.0422363,0.0265298,0.346909,0.0246506,0.0450663,783,519,0.704501,-0.326933
-434,505,1.05072,0.0599365,0.0317672,0.0261804,0.00606613,0.0356522,0.0222954,0.569627,0.0207983,0.046132,790,519,1.0507,-0.0599089
-427,505,1.76428,0.200623,0.0241056,0.0253412,0.00660179,0.031354,0.0180928,0.83205,0.0181738,0.0447335,797,519,1.76428,-0.200649
-420,505,2.3161,0.719849,0.0176772,0.0239931,0.00621664,0.0278079,0.0138624,1.0204,0.0160549,0.0425322,804,519,2.31609,-0.719875
-413,505,1.89484,0.659363,0,0,0,0,0,0,0,-1,811,519,1.89485,-0.65934
-406,505,1.22754,-0.0983276,0,0,0,0,0,0,0,-1,818,519,1.22752,0.0983049
-399,505,0.884216,-0.393677,0.00376349,0.0192818,0.000802212,0.0193231,0.00372213,1.51928,0.0118381,0.0383542,825,519,0.884237,0.393705
-392,505,1.2887,-0.188599,0.00167681,0.0172819,-0.000724843,0.0173155,0.00164322,-1.52448,0.0110368,0.0189492,832,519,1.2887,0.18861
-385,505,1.26343,-0.234985,0.000622571,0.015104,-0.00182115,0.0153295,0.000397059,-1.44759,0.0100899,0.00864132,839,519,1.26344,0.234969
-378,505,1.24738,-0.276184,-0.000283947,0.0128613,-0.00267635,0.0133853,-0.000807958,-1.37745,0.00920468,0.010368,846,519,1.24736,0.276182
-371,505,1.25391,-0.344299,-0.00132091,0.0107611,-0.00383338,0.0118748,-0.00243452,-1.28808,0.00884046,0.0132125,853,519,1.25393,0.344326
-364,505,1.23859,-0.39624,-0.00107994,0.00800014,-0.00478619,0.010057,-0.00313683,-1.1649,0.00795909,0.0139853,860,519,1.2386,0.396226
-357,505,1.27911,-0.40564,6.78245e-05,0.00584639,-0.00338272,0.00740578,-0.00149157,-1.13884,0.00550219,0.0111146,867,519,1.27912,0.405657
-350,505,1.26843,-0.429382,0.000529227,0.00486757,-0.00256339,0.00605641,-0.000659616,-1.13654,0.00427448,0.011373,874,519,1.26846,0.429357
-343,505,1.24371,-0.469299,-0.000127239,0.00386923,-0.00121526,0.00420975,-0.000467764,-1.29759,0.00297471,0.00907613,881,519,1.24373,0.469299
-336,505,1.245,-0.493835,-0.00066691,0.00329018,-0.000117213,0.00329365,-0.000670379,-1.54121,0.00244999,0.0103942,888,519,1.24502,0.493847
-329,505,1.24713,-0.521912,-0.00144241,0.00321035,0.000879696,0.00337112,-0.00160318,1.39004,0.00293176,0.0131954,895,519,1.24715,0.521926
-322,505,1.22363,-0.550415,-0.00206893,0.0028995,0.00141213,0.00327281,-0.00244224,1.31235,0.00331118,0.0141671,902,519,1.22366,0.550394
-315,505,1.21887,-0.597168,-0.0022319,0.00320439,0.00133053,0.00351257,-0.00254008,1.34319,0.0035095,0.0130355,909,519,1.21889,0.597189
-308,505,1.23883,-0.655762,-0.00236469,0.00386182,0.00123719,0.00409864,-0.00260151,1.38167,0.00390039,0.0124993,916,519,1.23883,0.655789
-301,505,1.25574,-0.678345,-0.00204617,0.00450189,0.000993678,0.00464936,-0.00219364,1.42346,0.00403472,0.0151663,923,519,1.25573,0.678336
-294,505,1.26056,-0.645752,-0.00182551,0.00565479,0.000945706,0.0057725,-0.00194322,1.44697,0.00463394,0.0172297,930,519,1.26055,0.645757
-287,505,1.25226,-0.682068,-0.0016961,0.00668699,0.00100219,0.00680513,-0.00181425,1.45345,0.00524711,0.0225507,937,519,1.25225,0.682072
-280,505,1.30432,-0.696777,-0.00254626,0.00611035,0.00214938,0.00661465,-0.00305056,1.34034,0.00570528,0.0341014,944,519,1.30431,0.696807
-273,505,1.492,-0.706177,-0.00503922,0.00629673,0.00371833,0.00740754,-0.00615003,1.2805,0.00783868,0.0385964,951,519,1.49201,0.706174
-266,505,1.6861,-0.752136,-0.00920423,0.00618607,0.00547488,0.00793495,-0.0109531,1.2616,0.0109513,0.043248,958,519,1.68607,0.752159
-259,505,1.4928,-1.12225,-0.0138931,0.00512285,0.00733934,0.00762602,-0.0163962,1.24211,0.014174,0.0472641,965,519,1.49279,1.12227
-252,505,1.43549,-1.23065,0,0,0,0,0,0,0,-1,972,519,1.43551,1.23068
-245,505,0.436218,-1.96344,0,0,0,0,0,0,0,-1,979,519,0.436244,1.96345
-238,505,0.0884399,-1.1568,0,0,0,0,0,0,0,-1,986,519,0.0884148,1.15681
-231,505,4.27209,-3.34045,0,0,0,0,0,0,0,-1,993,519,4.2721,3.34047
-224,505,3.67035,-2.11688,0,0,0,0,0,0,0,-1,1000,519,3.67035,2.11688
-217,505,0.71228,-1.40192,0,0,0,0,0,0,0,-1,1007,519,0.71227,1.40191
-210,505,0.825378,-1.79529,-0.0541805,-0.000751525,0.0149542,0.0031492,-0.0580813,1.31564,0.0398121,0.0482631,1014,519,0.825404,1.79529
-203,505,0.644531,-2.08087,-0.0539431,0.0044391,0.0107475,0.00635474,-0.0558588,1.39441,0.0395281,0.0464186,1021,519,0.644529,2.08088
-196,505,0.73584,-2.6499,0,0,0,0,0,0,0,-1,1028,519,0.735795,2.64992
-189,505,4.29736,3.5321,0,0,0,0,0,0,0,-1,1035,519,4.29742,-3.53212
-182,505,4.60876,4.33826,0,0,0,0,0,0,0,-1,1042,519,4.60877,-4.33828
-175,505,4.67212,4.72443,0,0,0,0,0,0,0,-1,1049,519,4.67214,-4.72445
-168,505,0,0,0,0,0,0,0,0,0,-1,1056,519,0,0
-161,505,0,0,0,0,0,0,0,0,0,-1,1063,519,0,0
-154,505,0,0,0,0,0,0,0,0,0,-1,1070,519,0,0
-147,505,0,0,0,0,0,0,0,0,0,-1,1077,519,0,0
-140,505,0,0,0,0,0,0,0,0,0,-1,1084,519,0,0
-133,505,0,0,0,0,0,0,0,0,0,-1,1091,519,0,0
-126,505,0,0,0,0,0,0,0,0,0,-1,1098,519,0,0
-119,505,0,0,0,0,0,0,0,0,0,-1,1105,519,0,0
-112,505,0,0,0,0,0,0,0,0,0,-1,1112,519,0,0
-105,505,0,0,0,0,0,0,0,0,0,-1,1119,519,0,0
-98,505,0,0,0,0,0,0,0,0,0,-1,1126,519,0,0
-91,505,0,0,0,0,0,0,0,0,0,-1,1133,519,0,0
-84,505,0,0,0,0,0,0,0,0,0,-1,1140,519,0,0
-77,505,0,0,0,0,0,0,0,0,0,-1,1147,519,0,0
-70,505,0,0,0,0,0,0,0,0,0,-1,1154,519,0,0
-63,505,0,0,0,0,0,0,0,0,0,-1,1161,519,0,0
-56,505,0,0,0,0,0,0,0,0,0,-1,1168,519,0,0
-49,505,0,0,0,0,0,0,0,0,0,-1,1175,519,0,0
-42,505,0,0,0,0,0,0,0,0,0,-1,1182,519,0,0
-35,505,0,0,0,0,0,0,0,0,0,-1,1189,519,0,0
-28,505,0,0,0,0,0,0,0,0,0,-1,1196,519,0,0
-21,505,0,0,0,0,0,0,0,0,0,-1,1203,519,0,0
-14,505,0,0,0,0,0,0,0,0,0,-1,1210,519,0,0
-7,505,0,0,0,0,0,0,0,0,0,-1,1217,519,0,0
0,505,0,0,0,0,0,0,0,0,0,-1,1224,519,0,0
7,505,0,0,0,0,0,0,0,0,0,-1,1231,519,0,0
14,505,0,0,0,0,0,0,0,0,0,-1,1238,519,0,0
21,505,0,0,0,0,0,0,0,0,0,-1,1245,519,0,0
28,505,0,0,0,0,0,0,0,0,0,-1,1252,519,0,0
35,505,0,0,0,0,0,0,0,0,0,-1,1259,519,0,0
42,505,0,0,0,0,0,0,0,0,0,-1,1266,519,0,0
49,505,0,0,0,0,0,0,0,0,0,-1,1273,519,0,0
56,505,0,0,0,0,0,0,0,0,0,-1,1280,519,0,0
63,505,0,0,0,0,0,0,0,0,0,-1,1287,519,0,0
70,505,0,0,0,0,0,0,0,0,0,-1,1294,519,0,0
77,505,0,0,0,0,0,0,0,0,0,-1,1301,519,0,0
84,505,0,0,0,0,0,0,0,0,0,-1,1308,519,0,0
91,505,0,0,0,0,0,0,0,0,0,-1,1315,519,0,0
98,505,0,0,0,0,0,0,0,0,0,-1,1322,519,0,0
105,505,0,0,0,0,0,0,0,0,0,-1,1329,519,0,0
112,505,0,0,0,0,0,0,0,0,0,-1,1336,519,0,0
119,505,0,0,0,0,0,0,0,0,0,-1,1343,519,0,0
126,505,0,0,0,0,0,0,0,0,0,-1,1350,519,0,0
133,505,0,0,0,0,0,0,0,0,0,-1,1357,519,0,0
140,505,0,0,0,0,0,0,0,0,0,-1,1364,519,0,0
147,505,0,0,0,0,0,0,0,0,0,-1,1371,519,0,0
154,505,0,0,0,0,0,0,0,0,0,-1,1378,519,0,0
161,505,0,0,0,0,0,0,0,0,0,-1,1385,519,0,0
168,505,0,0,0,0,0,0,0,0,0,-1,1392,519,0,0
175,505,0,0,0,0,0,0,0,0,0,-1,1399,519,0,0
182,505,0,0,0,0,0,0,0,0,0,-1,1406,519,0,0
189,505,0,0,0,0,0,0,0,0,0,-1,1413,519,0,0
196,505,0,0,0,0,0,0,0,0,0,-1,1420,519,0,0
203,505,0,0,0,0,0,0,0,0,0,-1,1427,519,0,0
210,505,0,0,0,0,0,0,0,0,0,-1,1434,519,0,0
217,505,0,0,0,0,0,0,0,0,0,-1,1441,519,0,0
224,505,0,0,0,0,0,0,0,0,0,-1,1448,519,0,0
231,505,0,0,0,0,0,0,0,0,0,-1,1455,519,0,0
238,505,0,0,0,0,0,0,0,0,0,-1,1462,519,0,0
245,505,0,0,0,0,0,0,0,0,0,-1,1469,519,0,0
252,505,0,0,0,0,0,0,0,0,0,-1,1476,519,0,0
259,505,0,0,0,0,0,0,0,0,0,-1,1483,519,0,0
266,505,0,0,0,0,0,0,0,0,0,-1,1490,519,0,0
273,505,0,0,0,0,0,0,0,0,0,-1,1497,519,0,0
280,505,0,0,0,0,0,0,0,0,0,-1,1504,519,0,0
287,505,2.41626,0.753845,0,0,0,0,0,0,0,-1,1511,519,2.41624,-0.75383
294,505,2.42969,1.07385,0,0,0,0,0,0,0,-1,1518,519,2.42967,-1.07385
301,505,3.37744,0.0842896,0.114401,-0.00537149,-0.0288444,0.120986,-0.011956,-0.224431,0.0849234,0.0451624,1525,519,3.37744,-0.0843086
308,505,5.3241,-1.97681,0.111063,-0.000166533,-0.0291817,0.118254,-0.00735759,-0.24161,0.0813997,0.0431707,1532,519,5.32408,1.97683
315,505,-0.250977,0.435303,0,0,0,0,0,0,0,-1,1539,519,-0.250994,-0.435292
322,505,-0.0604248,0.00335693,0,0,0,0,0,0,0,-1,1546,519,-0.0604163,-0.00336136
329,505,0.0341797,-0.270569,0.083946,0.0055505,-0.0183452,0.0880266,0.00146996,-0.218868,0.0582006,0.0448432,1553,519,0.0342148,0.270589
336,505,0.492188,-0.675293,0.0744062,0.00625148,-0.014946,0.0775397,0.00311795,-0.206663,0.0506858,0.0451161,1560,519,0.492143,0.67531
343,505,1.31763,-1.26312,0.064521,0.00784785,-0.010494,0.0664017,0.0059671,-0.177338,0.0424189,0.0472044,1567,519,1.31762,1.26311
350,505,2.09644,-1.60016,0.0546941,0.00864816,-0.00555589,0.055355,0.00798727,-0.118396,0.03455,0.0478039,1574,519,2.09647,1.60017
357,505,2.7439,-1.74994,0.0432434,0.00846919,-0.00151579,0.0433093,0.00840325,-0.0434795,0.0265194,0.0475535,1581,519,2.74384,1.74996
364,505,2.80408,-1.54004,0.0339657,0.00625539,0.00165562,0.0340642,0.00615682,0.0594655,0.0209608,0.0459243,1588,519,2.80405,1.54005
371,505,2.75378,-1.28278,0.0275076,0.00446113,0.00130786,0.0275816,0.00438715,0.0565068,0.0171138,0.0457704,1595,519,2.75375,1.28279
378,505,2.58252,-1.31036,0.0217848,0.00276013,-0.000581657,0.0218026,0.00274236,-0.0305357,0.0137127,0.0440748,1602,519,2.58257,1.31036
385,505,2.18396,-1.24011,0.0167911,0.000986295,-0.00257771,0.0172009,0.000576505,-0.157655,0.01128,0.043995,1609,519,2.18392,1.2401
392,505,2.09241,-0.806274,0.0124434,-0.000932899,-0.00391462,0.0135048,-0.0019943,-0.264773,0.00973631,0.0477697,1616,519,2.0924,0.806284
399,505,2.11621,-0.868958,0.00835994,-0.00259135,-0.00462225,0.01005,-0.00428145,-0.350543,0.00849478,0.0447331,1623,519,2.11625,0.86897
406,505,2.18286,-0.891663,0.00445843,-0.00364051,-0.00540872,0.00716562,-0.0063477,-0.464066,0.00780668,0.0380319,1630,519,2.1829,0.891663
413,505,2.21765,-0.831238,0.00154624,-0.00481078,-0.00592063,0.00508761,-0.00835215,-0.539051,0.00783538,0.033714,1637,519,2.21769,0.831218
420,505,2.25281,-0.785034,-0.000225741,-0.005927,-0.00626874,0.00381008,-0.00996283,-0.572005,0.00821202,0.024945,1644,519,2.25285,0.785052
427,505,2.23901,-0.750427,-0.00170356,-0.006467,-0.00623152,0.00258588,-0.0107564,-0.602862,0.00817048,0.0133349,1651,519,2.23895,0.750443
434,505,2.22668,-0.706238,-0.0026912,-0.00649901,-0.00588797,0.00159303,-0.0107832,-0.629026,0.00777443,0.010388,1658,519,2.2267,0.70623
441,505,2.22253,-0.640381,-0.00318688,-0.00630783,-0.00527492,0.000753538,-0.0102483,-0.641585,0.0070967,0.0111078,1665,519,2.22253,0.640361
448,505,2.2207,-0.615051,-0.00352106,-0.00561311,-0.00463297,0.000182496,-0.00931667,-0.67437,0.00627283,0.0112302,1672,519,2.22076,0.615065
455,505,2.23254,-0.583984,-0.00355772,-0.00438986,-0.00394758,-4.34602e-06,-0.00794324,-0.732892,0.00529404,0.0115906,1679,519,2.23253,0.583978
462,505,2.22766,-0.537659,-0.00346788,-0.00311463,-0.0031931,-9.32785e-05,-0.00648923,-0.813028,0.0042954,0.0114451,1686,519,2.22761,0.537647
469,505,2.22876,-0.52301,-0.00341821,-0.00190056,-0.00263701,8.4636e-05,-0.00540341,-0.925492,0.00363081,0.0115384,1693,519,2.22872,0.523018
476,505,2.23401,-0.499817,-0.00307268,-0.000781854,-0.00198067,0.000360753,-0.00421529,-1.04755,0.00293784,0.0115813,1700,519,2.23398,0.499805
483,505,2.23975,-0.472229,-0.0029377,0.00029146,-0.00138399,0.000803447,-0.00344969,-1.21647,0.00260917,0.0123598,1707,519,2.23973,0.472218
490,505,2.24146,-0.429077,-0.00266918,0.00131222,-0.00120588,0.00164897,-0.00300593,-1.29848,0.00272531,0.0121765,1714,519,2.24143,0.429078
497,505,2.24353,-0.393127,-0.00234609,0.0020545,-0.00141405,0.00246971,-0.00276129,-1.2852,0.00302168,0.0120722,1721,519,2.24358,0.393148
504,505,2.24084,-0.34491,-0.00187161,0.00286328,-0.00213826,0.00368597,-0.0026943,-1.20351,0.00369845,0.0123931,1728,519,2.2409,0.344918
511,505,2.24023,-0.305725,-0.00129281,0.00299479,-0.00216572,0.00389831,-0.00219634,-1.17555,0.00356419,0.0135191,1735,519,2.2402,0.305756
518,505,2.2522,-0.287354,-0.000454083,0.00320081,-0.00114544,0.00353012,-0.000783394,-1.29085,0.00265338,0.0173493,1742,519,2.25215,0.287369
525,505,2.27173,-0.290955,0.000727548,0.00412783,-0.000499813,0.00419978,0.000655602,-1.42783,0.00260892,0.0242405,1749,519,2.27175,0.290938
532,505,2.495,-0.318665,0.00236915,0.00489472,0.000904967,0.0051855,0.00207836,1.25989,0.00301343,0.0403306,1756,519,2.49495,0.31866
539,505,2.64453,-0.460693,0.00448668,0.00570691,0.00326279,0.00841614,0.00177745,0.877826,0.00512213,0.045357,1763,519,2.64455,0.460683
546,505,2.60376,-0.479858,0.00712769,0.00640441,0.00710009,0.0138753,-0.000343238,0.759953,0.00936674,0.0450135,1770,519,2.60374,0.479835
553,505,2.67664,-0.555298,0.0102659,0.00703916,0.0129571,0.0217097,-0.0044046,0.723458,0.0161429,0.0469982,1777,519,2.67658,0.555274
560,505,2.58191,-0.814026,0.0139987,0.00685094,0.0218266,0.032542,-0.0116924,0.704249,0.0264675,0.04612,1784,519,2.58197,0.81402
567,505,2.19238,-0.819458,0.0181886,0.00621379,0.0334653,0.0461978,-0.0217955,0.696878,0.0400898,0.0451664,1791,519,2.19232,0.819443
574,505,2.18176,-0.637512,0,0,0,0,0,0,0,-1,1798,519,2.18174,0.637523
581,505,0,0,0,0,0,0,0,0,0,-1,1805,519,0,0
588,505,0,0,0,0,0,0,0,0,0,-1,1812,519,0,0
595,505,0,0,0,0,0,0,0,0,0,-1,1819,519,0,0
602,505,0,0,0,0,0,0,0,0,0,-1,1826,519,0,0
609,505,0,0,0,0,0,0,0,0,0,-1,1833,519,0,0
616,505,0,0,0,0,0,0,0,0,0,-1,1840,519,0,0
623,505,0,0,0,0,0,0,0,0,0,-1,1847,519,0,0
630,505,0,0,0,0,0,0,0,0,0,-1,1854,519,0,0
637,505,0,0,0,0,0,0,0,0,0,-1,1861,519,0,0
644,505,0,0,0,0,0,0,0,0,0,-1,1868,519,0,0
651,505,0,0,0,0,0,0,0,0,0,-1,1875,519,0,0
658,505,0,0,0,0,0,0,0,0,0,-1,1882,519,0,0
665,505,0,0,0,0,0,0,0,0,0,-1,1889,519,0,0
672,505,0,0,0,0,0,0,0,0,0,-1,1896,519,0,0
679,505,0,0,0,0,0,0,0,0,0,-1,1903,519,0,0
686,505,0,0,0,0,0,0,0,0,0,-1,1910,519,0,0
693,505,0,0,0,0,0,0,0,0,0,-1,1917,519,0,0
700,505,0,0,0,0,0,0,0,0,0,-1,1924,519,0,0
707,505,0,0,0,0,0,0,0,0,0,-1,1931,519,0,0
714,505,0,0,0,0,0,0,0,0,0,-1,1938,519,0,0
721,505,0,0,0,0,0,0,0,0,0,-1,1945,519,0,0
728,505,0,0,0,0,0,0,0,0,0,-1,1952,519,0,0
735,505,0,0,0,0,0,0,0,0,0,-1,1959,519,0,0
742,505,0,0,0,0,0,0,0,0,0,-1,1966,519,0,0
749,505,0,0,0,0,0,0,0,0,0,-1,1973,519,0,0
756,505,0,0,0,0,0,0,0,0,0,-1,1980,519,0,0
763,505,0,0,0,0,0,0,0,0,0,-1,1987,519,0,0
770,505,0,0,0,0,0,0,0,0,0,-1,1994,519,0,0
777,505,0,0,0,0,0,0,0,0,0,-1,2001,519,0,0
784,505,0,0,0,0,0,0,0,0,0,-1,2008,519,0,0
791,505,0,0,0,0,0,0,0,0,0,-1,2015,519,0,0
798,505,0,0,0,0,0,0,0,0,0,-1,2022,519,0,0
805,505,0,0,0,0,0,0,0,0,0,-1,2029,519,0,0
812,505,0,0,0,0,0,0,0,0,0,-1,2036,519,0,0
-700,498,0,0,0,0,0,0,0,0,0,-1,524,526,0,0
-693,498,0,0,0,0,0,0,0,0,0,-1,531,526,0,0
-686,498,0,0,0,0,0,0,0,0,0,-1,538,526,0,0
-679,498,0,0,0,0,0,0,0,0,0,-1,545,526,0,0
-672,498,0,0,0,0,0,0,0,0,0,-1,552,526,0,0
-665,498,0,0,0,0,0,0,0,0,0,-1,559,526,0,0
-658,498,0,0,0,0,0,0,0,0,0,-1,566,526,0,0
-651,498,0,0,0,0,0,0,0,0,0,-1,573,526,0,0
-644,498,0,0,0,0,0,0,0,0,0,-1,580,526,0,0
-637,498,0,0,0,0,0,0,0,0,0,-1,587,526,0,0
-630,498,0,0,0,0,0,0,0,0,0,-1,594,526,0,0
-623,498,0,0,0,0,0,0,0,0,0,-1,601,526,0,0
-616,498,0,0,0,0,0,0,0,0,0,-1,608,526,0,0
-609,498,0,0,0,0,0,0,0,0,0,-1,615,526,0,0
-602,498,0,0,0,0,0,0,0,0,0,-1,622,526,0,0
-595,498,0,0,0,0,0,0,0,0,0,-1,629,526,0,0
-588,498,0,0,0,0,0,0,0,0,0,-1,636,526,0,0
-581,498,0,0,0,0,0,0,0,0,0,-1,643,526,0,0
-574,498,0,0,0,0,0,0,0,0,0,-1,650,526,0,0
-567,498,0,0,0,0,0,0,0,0,0,-1,657,526,0,0
-560,498,0,0,0,0,0,0,0,0,0,-1,664,526,0,0
-553,498,0,0,0,0,0,0,0,0,0,-1,671,526,0,0
-546,498,0,0,0,0,0,0,0,0,0,-1,678,526,0,0
-539,498,0,0,0,0,0,0,0,0,0,-1,685,526,0,0
-532,498,0,0,0,0,0,0,0,0,0,-1,692,526,0,0
-525,498,0,0,0,0,0,0,0,0,0,-1,699,526,0,0
-518,498,0,0,0,0,0,0,0,0,0,-1,706,526,0,0
-511,498,0,0,0,0,0,0,0,0,0,-1,713,526,0,0
-504,498,0,0,0,0,0,0,0,0,0,-1,720,526,0,0
-497,498,0,0,0,0,0,0,0,0,0,-1,727,526,0,0
-490,498,0,0,0,0,0,0,0,0,0,-1,734,526,0,0
-483,498,0,0,0,0,0,0,0,0,0,-1,741,526,0,0
-476,498,0,0,0,0,0,0,0,0,0,-1,748,526,0,0
-469,498,0,0,0,0,0,0,0,0,0,-1,755,526,0,0
-462,498,1.7486,0.81311,0.0580309,0.0413242,-0.0119075,0.0642228,0.0351322,-0.479525,0.0371337,0.0450107,762,526,1.74861,-0.813096
-455,498,1.45795,0.371338,0.0509994,0.03489,-0.00658022,0.0533455,0.0325439,-0.342493,0.0310468,0.0445635,769,526,1.45793,-0.371335
-448,498,1.36597,0.31073,0.0437469,0.0302688,-0.00211083,0.0440698,0.0299459,-0.151771,0.0259846,0.0461099,776,526,1.36596,-0.310751
-441,498,1.25452,0.296509,0.0362942,0.0269296,0.00131839,0.0364763,0.0267475,0.137231,0.0218103,0.0455042,783,526,1.25454,-0.296509
-434,498,1.02362,0.368591,0.0288876,0.0240791,0.00232679,0.0298292,0.0231376,0.384515,0.0180733,0.0423003,790,526,1.02362,-0.368602
-427,498,1.62811,0.280396,0.0223124,0.021863,0.00331467,0.02541,0.0187654,0.751558,0.0152166,0.0460337,797,526,1.62813,-0.280415
-420,498,1.88568,0.378113,0.0168754,0.019672,0.00355475,0.0220936,0.0144539,0.972785,0.0129564,0.0443538,804,526,1.88567,-0.378094
-413,498,1.16718,-0.06604,0,0,0,0,0,0,0,-1,811,526,1.16718,0.0660241
-406,498,1.19952,-0.114075,0.00721534,0.0160741,0.00156631,0.0163429,0.00694655,1.40085,0.00947082,0.0406406,818,526,1.19954,0.114059
-399,498,1.224,-0.15155,0.00424,0.0138281,-2.55917e-05,0.0138282,0.00423993,-1.56813,0.00818034,0.0234952,825,526,1.22399,0.151547
-392,498,1.23248,-0.19519,0.00211849,0.0118961,-0.00116164,0.0120322,0.00198237,-1.45415,0.00744915,0.0116471,832,526,1.23245,0.195208
-385,498,1.21362,-0.237122,0.00100787,0.00997416,-0.00194197,0.0103767,0.000605338,-1.36641,0.00672511,0.00875238,839,526,1.21361,0.237138
-378,498,1.22076,-0.267151,-6.58227e-09,0.00812728,-0.00252199,0.00884627,-0.000719001,-1.29307,0.0061512,0.00998268,846,526,1.22078,0.26716
-371,498,1.22491,-0.317383,-0.00109496,0.0065609,-0.00332445,0.00780298,-0.00233704,-1.21324,0.00613131,0.0147964,853,526,1.22489,0.31738
-364,498,1.20032,-0.385071,-0.00114366,0.00458237,-0.00399966,0.00663811,-0.0031994,-1.09603,0.0057942,0.0155754,860,526,1.20033,0.385079
-357,498,1.20178,-0.404846,-0.000461876,0.00336893,-0.00271546,0.00477655,-0.0018695,-1.09256,0.00395756,0.0110306,867,526,1.20177,0.404859
-350,498,1.20636,-0.437988,-0.000438789,0.00315171,-0.00186946,0.00394834,-0.00123541,-1.16797,0.00312648,0.0111381,874,526,1.20636,0.43797
-343,498,1.21167,-0.480408,-0.00125016,0.00291812,-0.000544604,0.0029881,-0.00132014,-1.443,0.00254875,0.0111705,881,526,1.21165,0.48043
-336,498,1.24292,-0.521606,-0.00183759,0.00298244,0.000601394,0.00305635,-0.0019115,1.44852,0.00289346,0.0131499,888,526,1.24292,0.521596
-329,498,1.23553,-0.541016,-0.00252848,0.00321586,0.00168027,0.00367125,-0.00298387,1.30613,0.00384916,0.0177216,895,526,1.23556,0.541028
-322,498,1.20538,-0.572693,-0.00302627,0.00339711,0.00235984,0.00417087,-0.00380003,1.25396,0.00460366,0.0177724,902,526,1.20541,0.572696
-315,498,1.18561,-0.610474,-0.00307393,0.00378108,0.00238525,0.00452936,-0.00382221,1.26681,0.00482754,0.014719,909,526,1.18559,0.610485
-308,498,1.20874,-0.647949,-0.00314673,0.00439058,0.00237354,0.00507573,-0.00383189,1.28977,0.0051595,0.011564,916,526,1.20873,0.647962
-301,498,1.25195,-0.708313,-0.00272728,0.00489142,0.00218093,0.00547156,-0.00330742,1.31081,0.00511962,0.0156613,923,526,1.25195,0.708289
-294,498,1.27295,-0.668274,-0.00232823,0.00584596,0.00213197,0.0063686,-0.00285087,1.33039,0.00545049,0.0277177,930,526,1.27294,0.668286
-287,498,1.3009,-0.648926,-0.00198337,0.00667924,0.00213264,0.0071758,-0.00247994,1.34203,0.00579033,0.037207,937,526,1.30089,0.648924
-280,498,1.40472,-0.617065,-0.00292855,0.0055786,0.00341359,0.00677897,-0.00412892,1.23266,0.00635933,0.0431957,944,526,1.4047,0.617065
-273,498,1.64429,-0.654358,-0.00605195,0.00539436,0.00514065,0.00736411,-0.0080217,1.20488,0.0088857,0.0454222,951,526,1.64426,0.654338
-266,498,1.92145,-0.727173,-0.011246,0.00481749,0.00710397,0.00750841,-0.0139369,1.20871,0.0125655,0.0450048,958,526,1.92146,0.727178
-259,498,1.25006,-1.63696,-0.0168483,0.00321009,0.00930731,0.0068634,-0.0205016,1.19676,0.0164402,0.0444416,965,526,1.25008,1.63695
-252,498,1.36481,-1.74957,-0.0227359,0.000314043,0.0115319,0.00509272,-0.0275145,1.17795,0.0202551,0.046097,972,526,1.36484,1.74959
-245,498,1.53333,-1.81177,0,0,0,0,0,0,0,-1,979,526,1.53332,1.81179
-238,498,4.34576,-3.13562,0,0,0,0,0,0,0,-1,986,526,4.34576,3.13559
-231,498,3.80121,-2.62598,-0.0458668,-0.00689193,0.0181002,0.000217175,-0.0529759,1.19654,0.0353899,0.0479532,993,526,3.80121,2.62598
-224,498,2.7854,-1.88507,-0.0553107,-0.00876621,0.0202102,-0.00121559,-0.0628614,1.21325,0.0415083,0.0481364,1000,526,2.78539,1.88506
-217,498,1.49274,-1.63391,-0.063436,-0.0111577,0.0215407,-0.0034257,-0.071168,1.22617,0.0463457,0.0461883,1007,526,1.49276,1.6339
-210,498,0.575867,-1.52075,-0.0694553,-0.012494,0.0217167,-0.00515899,-0.0767903,1.24507,0.0495635,0.0466425,1014,526,0.575894,1.52072
-203,498,0.020813,-1.21265,-0.0689278,-0.00753672,0.0162823,-0.00348562,-0.0729789,1.32694,0.0475334,0.0466687,1021,526,0.020783,1.21265
-196,498,-0.529419,-0.914917,0,0,0,0,0,0,0,-1,1028,526,-0.529375,0.914912
-189,498,4.59143,4.36456,0,0,0,0,0,0,0,-1,1035,526,4.59137,-4.36456
-182,498,0,0,0,0,0,0,0,0,0,-1,1042,526,0,0
-175,498,0,0,0,0,0,0,0,0,0,-1,1049,526,0,0
-168,498,0,0,0,0,0,0,0,0,0,-1,1056,526,0,0
-161,498,0,0,0,0,0,0,0,0,0,-1,1063,526,0,0
-154,498,0,0,0,0,0,0,0,0,0,-1,1070,526,0,0
-147,498,0,0,0,0,0,0,0,0,0,-1,1077,526,0,0
-140,498,0,0,0,0,0,0,0,0,0,-1,1084,526,0,0
-133,498,0,0,0,0,0,0,0,0,0,-1,1091,526,0,0
-126,498,0,0,0,0,0,0,0,0,0,-1,1098,526,0,0
-119,498,0,0,0,0,0,0,0,0,0,-1,1105,526,0,0
-112,498,0,0,0,0,0,0,0,0,0,-1,1112,526,0,0
-105,498,0,0,0,0,0,0,0,0,0,-1,1119,526,0,0
-98,498,0,0,0,0,0,0,0,0,0,-1,1126,526,0,0
-91,498,0,0,0,0,0,0,0,0,0,-1,1133,526,0,0
-84,498,0,0,0,0,0,0,0,0,0,-1,1140,526,0,0
-77,498,0,0,0,0,0,0,0,0,0,-1,1147,526,0,0
-70,498,0,0,0,0,0,0,0,0,0,-1,1154,526,0,0
-63,498,0,0,0,0,0,0,0,0,0,-1,1161,526,0,0
-56,498,0,0,0,0,0,0,0,0,0,-1,1168,526,0,0
-49,498,0,0,0,0,0,0,0,0,0,-1,1175,526,0,0
-42,498,0,0,0,0,0,0,0,0,0,-1,1182,526,0,0
-35,498,0,0,0,0,0,0,0,0,0,-1,1189,526,0,0
-28,498,0,0,0,0,0,0,0,0,0,-1,1196,526,0,0
-21,498,0,0,0,0,0,0,0,0,0,-1,1203,526,0,0
-14,498,0,0,0,0,0,0,0,0,0,-1,1210,526,0,0
-7,498,0,0,0,0,0,0,0,0,0,-1,1217,526,0,0
0,498,0,0,0,0,0,0,0,0,0,-1,1224,526,0,0
7,498,0,0,0,0,0,0,0,0,0,-1,1231,526,0,0
14,498,0,0,0,0,0,0,0,0,0,-1,1238,526,0,0
21,498,0,0,0,0,0,0,0,0,0,-1,1245,526,0,0
28,498,0,0,0,0,0,0,0,0,0,-1,1252,526,0,0
35,498,0,0,0,0,0,0,0,0,0,-1,1259,526,0,0
42,498,0,0,0,0,0,0,0,0,0,-1,1266,526,0,0
49,498,0,0,0,0,0,0,0,0,0,-1,1273,526,0,0
56,498,0,0,0,0,0,0,0,0,0,-1,1280,526,0,0
63,498,0,0,0,0,0,0,0,0,0,-1,1287,526,0,0
70,498,0,0,0,0,0,0,0,0,0,-1,1294,526,0,0
77,498,0,0,0,0,0,0,0,0,0,-1,1301,526,0,0
84,498,0,0,0,0,0,0,0,0,0,-1,1308,526,0,0
91,498,0,0,0,0,0,0,0,0,0,-1,1315,526,0,0
98,498,0,0,0,0,0,0,0,0,0,-1,1322,526,0,0
105,498,0,0,0,0,0,0,0,0,0,-1,1329,526,0,0
112,498,0,0,0,0,0,0,0,0,0,-1,1336,526,0,0
119,498,0,0,0,0,0,0,0,0,0,-1,1343,526,0,0
126,498,0,0,0,0,0,0,0,0,0,-1,1350,526,0,0
133,498,0,0,0,0,0,0,0,0,0,-1,1357,526,0,0
140,498,0,0,0,0,0,0,0,0,0,-1,1364,526,0,0
147,498,0,0,0,0,0,0,0,0,0,-1,1371,526,0,0
154,498,0,0,0,0,0,0,0,0,0,-1,1378,526,0,0
161,498,0,0,0,0,0,0,0,0,0,-1,1385,526,0,0
168,498,0,0,0,0,0,0,0,0,0,-1,1392,526,0,0
175,498,0,0,0,0,0,0,0,0,0,-1,1399,526,0,0
182,498,0,0,0,0,0,0,0,0,0,-1,1406,526,0,0
189,498,0,0,0,0,0,0,0,0,0,-1,1413,526,0,0
196,498,0,0,0,0,0,0,0,0,0,-1,1420,526,0,0
203,498,0,0,0,0,0,0,0,0,0,-1,1427,526,0,0
210,498,0,0,0,0,0,0,0,0,0,-1,1434,526,0,0
217,498,0,0,0,0,0,0,0,0,0,-1,1441,526,0,0
224,498,0,0,0,0,0,0,0,0,0,-1,1448,526,0,0
231,498,0,0,0,0,0,0,0,0,0,-1,1455,526,0,0
238,498,0,0,0,0,0,0,0,0,0,-1,1462,526,0,0
245,498,0,0,0,0,0,0,0,0,0,-1,1469,526,0,0
252,498,0,0,0,0,0,0,0,0,0,-1,1476,526,0,0
259,498,0,0,0,0,0,0,0,0,0,-1,1483,526,0,0
266,498,0,0,0,0,0,0,0,0,0,-1,1490,526,0,0
273,498,0,0,0,0,0,0,0,0,0,-1,1497,526,0,0
280,498,0,0,0,0,0,0,0,0,0,-1,1504,526,0,0
287,498,0,0,0,0,0,0,0,0,0,-1,1511,526,0,0
294,498,0,0,0,0,0,0,0,0,0,-1,1518,526,0,0
301,498,0,0,0,0,0,0,0,0,0,-1,1525,526,0,0
308,498,5.75989,-2.33276,0,0,0,0,0,0,0,-1,1532,526,5.75992,2.33276
315,498,6.16736,-3.36761,0,0,0,0,0,0,0,-1,1539,526,6.16731,3.36759
322,498,-0.768188,-0.295227,0,0,0,0,0,0,0,-1,1546,526,-0.76817,0.2952
329,498,-0.422974,-0.959106,0.106048,0.00625243,-0.0154841,0.108395,0.00390514,-0.150448,0.0709974,0.0429557,1553,526,-0.422953,0.959091
336,498,-0.317261,-1.10864,0.0937436,0.00678874,-0.0127319,0.0955695,0.00496287,-0.142438,0.0621248,0.0472043,1560,526,-0.317296,1.10863
343,498,0.660645,-1.17609,0,0,0,0,0,0,0,-1,1567,526,0.660682,1.17611
350,498,1.62146,-1.4198,0.0680171,0.00876924,-0.00394247,0.0682783,0.00850805,-0.0661532,0.0429646,0.0464354,1574,526,1.62152,1.41979
357,498,2.42053,-1.92523,0.0540291,0.00845522,0.000319801,0.0540313,0.00845298,0.00701674,0.03356,0.0488914,1581,526,2.42048,1.92522
364,498,2.59705,-1.74323,0,0,0,0,0,0,0,-1,1588,526,2.597,1.74323
371,498,2.78259,-1.33063,0,0,0,0,0,0,0,-1,1595,526,2.78259,1.33061
378,498,2.60767,-1.16772,0.0274903,0.00145491,0.000270774,0.0274931,0.0014521,0.0103988,0.0178644,0.0466029,1602,526,2.60767,1.1677
385,498,2.59888,-1.46399,0.021371,-0.000698885,-0.00215205,0.0215788,-0.000906775,-0.0963022,0.0146975,0.0457448,1609,526,2.59887,1.46399
392,498,2.01746,-0.85083,0,0,0,0,0,0,0,-1,1616,526,2.01749,0.850816
399,498,2.00598,-0.932678,0.0109299,-0.00518759,-0.0048806,0.0122926,-0.00655029,-0.272274,0.0110461,0.0457311,1623,526,2.00595,0.932678
406,498,2.28345,-0.973816,0.0061702,-0.0065052,-0.00591759,0.0085034,-0.00883839,-0.375566,0.0100129,0.0416423,1630,526,2.28341,0.973826
413,498,2.49658,-0.889038,0.00256595,-0.00800455,-0.00665558,0.00577956,-0.0112182,-0.449829,0.00997968,0.0421898,1637,526,2.49653,0.889016
420,498,2.41492,-0.834167,0.0001917,-0.00929454,-0.00724769,0.00411035,-0.0132132,-0.495656,0.0104519,0.0402912,1644,526,2.41496,0.834138
427,498,2.33191,-0.82196,-0.00178865,-0.00986245,-0.00734461,0.00255537,-0.0142065,-0.534114,0.0104277,0.027921,1651,526,2.33189,0.821932
434,498,2.27307,-0.716125,-0.00313529,-0.00983395,-0.00706737,0.00133624,-0.0143055,-0.564117,0.0100122,0.0135162,1658,526,2.27305,0.71613
441,498,2.25513,-0.648071,-0.00376908,-0.00953964,-0.00642709,0.000390657,-0.0136994,-0.574418,0.00926589,0.00828986,1665,526,2.25512,0.648089
448,498,2.26624,-0.61499,-0.00416854,-0.008657,-0.00576386,-0.000227411,-0.0125981,-0.599747,0.00832398,0.0101678,1672,526,2.26624,0.614988
455,498,2.25195,-0.582458,-0.00417762,-0.00703369,-0.00499507,-0.000410464,-0.0108008,-0.646167,0.00706772,0.0142678,1679,526,2.25199,0.582436
462,498,2.24731,-0.563721,-0.00395165,-0.00530854,-0.00407554,-0.000498466,-0.00876172,-0.702921,0.00568228,0.0152602,1686,526,2.24734,0.563717
469,498,2.26404,-0.54187,-0.00371781,-0.00367211,-0.00337184,-0.000323041,-0.00706689,-0.788787,0.00460735,0.0134008,1693,526,2.26401,0.541846
476,498,2.27515,-0.492981,-0.00312945,-0.00216579,-0.00252321,-7.88111e-05,-0.00521642,-0.879742,0.00345164,0.00984475,1700,526,2.27514,0.493011
483,498,2.27832,-0.447083,-0.00270645,-0.00075559,-0.00174761,0.000270378,-0.00373241,-1.03994,0.00258312,0.00822809,1707,526,2.27837,0.447084
490,498,2.26807,-0.421265,-0.00222576,0.000392051,-0.00133815,0.000955015,-0.00278872,-1.17257,0.00224621,0.0108995,1714,526,2.26811,0.421242
497,498,2.28809,-0.395569,-0.00169873,0.00120444,-0.00130607,0.00170553,-0.00219982,-1.20446,0.00226077,0.0121938,1721,526,2.28806,0.395578
504,498,2.2738,-0.354736,-0.0010178,0.0020297,-0.00185267,0.00290474,-0.00189284,-1.12954,0.00279035,0.0140839,1728,526,2.27379,0.354738
511,498,2.24829,-0.313599,-0.000315957,0.00209647,-0.00174915,0.00301499,-0.00123448,-1.08725,0.0025242,0.0154219,1735,526,2.24831,0.313621
518,498,2.27039,-0.287903,0.000487409,0.0023013,-0.000866732,0.00264885,0.000139852,-1.18943,0.00172118,0.0144944,1742,526,2.27038,0.287885
525,498,2.28992,-0.278259,0.00158318,0.00320441,-0.000306295,0.00326035,0.00152725,-1.39016,0.00188361,0.0167418,1749,526,2.28996,0.278276
532,498,2.33057,-0.301636,0.00303526,0.00398571,0.000890399,0.00451977,0.0025012,1.03053,0.00261444,0.0261266,1756,526,2.33054,0.301614
539,498,2.4895,-0.357361,0.0048622,0.00494381,0.00279569,0.00769899,0.00210702,0.792696,0.0045943,0.0361083,1763,526,2.48952,0.357391
546,498,2.82129,-0.361755,0.00707829,0.00584853,0.00586596,0.0123615,0.000565305,0.733178,0.00805918,0.0428467,1770,526,2.8213,0.361753
553,498,2.84766,-0.962769,0.00970174,0.00670619,0.0106441,0.0189529,-0.00254496,0.7155,0.0135634,0.0480488,1777,526,2.84761,0.962776
560,498,2.98486,-1.46954,0,0,0,0,0,0,0,-1,1784,526,2.9849,1.46957
567,498,2.22339,-1.31104,0,0,0,0,0,0,0,-1,1791,526,2.22339,1.31102
574,498,2.26538,-1.00708,0,0,0,0,0,0,0,-1,1798,526,2.26542,1.0071
581,498,3.72168,-0.224426,0,0,0,0,0,0,0,-1,1805,526,3.72167,0.224401
588,498,0,0,0,0,0,0,0,0,0,-1,1812,526,0,0
595,498,0,0,0,0,0,0,0,0,0,-1,1819,526,0,0
602,498,0,0,0,0,0,0,0,0,0,-1,1826,526,0,0
609,498,0,0,0,0,0,0,0,0,0,-1,1833,526,0,0
616,498,0,0,0,0,0,0,0,0,0,-1,1840,526,0,0
623,498,0,0,0,0,0,0,0,0,0,-1,1847,526,0,0
630,498,0,0,0,0,0,0,0,0,0,-1,1854,526,0,0
637,498,0,0,0,0,0,0,0,0,0,-1,1861,526,0,0
644,498,0,0,0,0,0,0,0,0,0,-1,1868,526,0,0
651,498,0,0,0,0,0,0,0,0,0,-1,1875,526,0,0
658,498,0,0,0,0,0,0,0,0,0,-1,1882,526,0,0
665,498,0,0,0,0,0,0,0,0,0,-1,1889,526,0,0
672,498,0,0,0,0,0,0,0,0,0,-1,1896,526,0,0
679,498,0,0,0,0,0,0,0,0,0,-1,1903,526,0,0
686,498,0,0,0,0,0,0,0,0,0,-1,1910,526,0,0
693,498,0,0,0,0,0,0,0,0,0,-1,1917,526,0,0
700,498,0,0,0,0,0,0,0,0,0,-1,1924,526,0,0
707,498,0,0,0,0,0,0,0,0,0,-1,1931,526,0,0
714,498,0,0,0,0,0,0,0,0,0,-1,1938,526,0,0
721,498,0,0,0,0,0,0,0,0,0,-1,1945,526,0,0
728,498,0,0,0,0,0,0,0,0,0,-1,1952,526,0,0
735,498,0,0,0,0,0,0,0,0,0,-1,1959,526,0,0
742,498,0,0,0,0,0,0,0,0,0,-1,1966,526,0,0
749,498,0,0,0,0,0,0,0,0,0,-1,1973,526,0,0
756,498,0,0,0,0,0,0,0,0,0,-1,1980,526,0,0
763,498,0,0,0,0,0,0,0,0,0,-1,1987,526,0,0
770,498,0,0,0,0,0,0,0,0,0,-1,1994,526,0,0
777,498,0,0,0,0,0,0,0,0,0,-1,2001,526,0,0
784,498,0,0,0,0,0,0,0,0,0,-1,2008,526,0,0
791,498,0,0,0,0,0,0,0,0,0,-1,2015,526,0,0
798,498,0,0,0,0,0,0,0,0,0,-1,2022,526,0,0
805,498,0,0,0,0,0,0,0,0,0,-1,2029,526,0,0
812,498,0,0,0,0,0,0,0,0,0,-1,2036,526,0,0
-700,491,0,0,0,0,0,0,0,0,0,-1,524,533,0,0
-693,491,0,0,0,0,0,0,0,0,0,-1,531,533,0,0
-686,491,0,0,0,0,0,0,0,0,0,-1,538,533,0,0
-679,491,0,0,0,0,0,0,0,0,0,-1,545,533,0,0
-672,491,0,0,0,0,0,0,0,0,0,-1,552,533,0,0
-665,491,0,0,0,0,0,0,0,0,0,-1,559,533,0,0
-658,491,0,0,0,0,0,0,0,0,0,-1,566,533,0,0
-651,491,0,0,0,0,0,0,0,0,0,-1,573,533,0,0
-644,491,0,0,0,0,0,0,0,0,0,-1,580,533,0,0
-637,491,0,0,0,0,0,0,0,0,0,-1,587,533,0,0
-630,491,0,0,0,0,0,0,0,0,0,-1,594,533,0,0
-623,491,0,0,0,0,0,0,0,0,0,-1,601,533,0,0
-616,491,0,0,0,0,0,0,0,0,0,-1,608,533,0,0
-609,491,0,0,0,0,0,0,0,0,0,-1,615,533,0,0
-602,491,0,0,0,0,0,0,0,0,0,-1,622,533,0,0
-595,491,0,0,0,0,0,0,0,0,0,-1,629,533,0,0
-588,491,0,0,0,0,0,0,0,0,0,-1,636,533,0,0
-581,491,0,0,0,0,0,0,0,0,0,-1,643,533,0,0
-574,491,0,0,0,0,0,0,0,0,0,-1,650,533,0,0
-567,491,0,0,0,0,0,0,0,0,0,-1,657,533,0,0
-560,491,0,0,0,0,0,0,0,0,0,-1,664,533,0,0
-553,491,0,0,0,0,0,0,0,0,0,-1,671,533,0,0
-546,491,0,0,0,0,0,0,0,0,0,-1,678,533,0,0
-539,491,0,0,0,0,0,0,0,0,0,-1,685,533,0,0
-532,491,0,0,0,0,0,0,0,0,0,-1,692,533,0,0
-525,491,0,0,0,0,0,0,0,0,0,-1,699,533,0,0
-518,491,0,0,0,0,0,0,0,0,0,-1,706,533,0,0
-511,491,0,0,0,0,0,0,0,0,0,-1,713,533,0,0
-504,491,0,0,0,0,0,0,0,0,0,-1,720,533,0,0
-497,491,0,0,0,0,0,0,0,0,0,-1,727,533,0,0
-490,491,0,0,0,0,0,0,0,0,0,-1,734,533,0,0
-483,491,0,0,0,0,0,0,0,0,0,-1,741,533,0,0
-476,491,0,0,0,0,0,0,0,0,0,-1,748,533,0,0
-469,491,-0.196655,1.23438,0.0547477,0.0468949,-0.0138683,0.0652347,0.0364079,-0.647449,0.037748,0.0440937,755,533,-0.196648,-1.23435
-462,491,1.91034,0.420349,0.0506401,0.0396013,-0.0110052,0.0574324,0.0328089,-0.552964,0.0332707,0.0438641,762,533,1.91034,-0.420342
-455,491,2.0415,0.745728,0.0449484,0.0333027,-0.0074959,0.0486174,0.0296338,-0.45518,0.0282929,0.0447409,769,533,2.04153,-0.745757
-448,491,1.85474,0.533142,0.0388935,0.0284526,-0.00391758,0.0402,0.0271461,-0.321888,0.02368,0.0427762,776,533,1.85476,-0.533122
-441,491,1.70569,0.316162,0.0327917,0.0246937,-0.000894303,0.0328893,0.0245961,-0.10869,0.0197509,0.0432596,783,533,1.70571,-0.31615
-434,491,1.54279,0.168579,0.0264733,0.0215664,1.35704e-05,0.0264734,0.0215663,0.00276552,0.0162619,0.0418424,790,533,1.5428,-0.168551
-427,491,1.58826,0.206543,0.0208101,0.0186433,0.00117779,0.021327,0.0181264,0.413561,0.0132803,0.0453518,797,533,1.58826,-0.206538
-420,491,1.41101,0.231812,0.0162781,0.0160906,0.00180638,0.0179932,0.0143755,0.759462,0.0109899,0.0425972,804,533,1.411,-0.231784
-413,491,1.1629,-0.00891113,0.0113849,0.0142758,0.00172699,0.0150824,0.0105783,1.13384,0.00894011,0.0356501,811,533,1.16292,0.00888155
-406,491,1.19037,-0.132629,0.00787689,0.0122604,0.000762139,0.0123892,0.00774816,1.40347,0.00722749,0.0187756,818,533,1.19035,0.132612
-399,491,1.20227,-0.177002,0.00511094,0.0100908,-0.000505659,0.0101416,0.00506012,-1.47062,0.00585527,0.0106941,825,533,1.20226,0.176981
-392,491,1.18939,-0.208191,0.00297818,0.00839545,-0.00139191,0.00873216,0.00264147,-1.33345,0.00517096,0.00976685,832,533,1.18938,0.208219
-385,491,1.17126,-0.246399,0.001791,0.00682569,-0.00194332,0.00748852,0.00112817,-1.24209,0.00466201,0.00942721,839,533,1.17124,0.246426
-378,491,1.18195,-0.272217,0.000679739,0.00541278,-0.00227821,0.00633117,-0.000238653,-1.1876,0.00430254,0.0127233,846,533,1.18195,0.27222
-371,491,1.18829,-0.305603,-0.000499587,0.00437822,-0.00275523,0.00561894,-0.0017403,-1.14768,0.00444121,0.0132286,853,533,1.18831,0.305588
-364,491,1.17627,-0.360168,-0.000875761,0.00312749,-0.0031829,0.00488584,-0.00263411,-1.06609,0.00440604,0.0130456,860,533,1.17624,0.36015
-357,491,1.16687,-0.39447,-0.000644471,0.00267799,-0.00195818,0.00358467,-0.00155115,-1.13717,0.00304166,0.0116164,867,533,1.16684,0.394461
-350,491,1.17065,-0.429138,-0.00106373,0.00298101,-0.00103045,0.0032284,-0.00131112,-1.33518,0.00269768,0.0145472,874,533,1.17067,0.42912
-343,491,1.19086,-0.460693,-0.00202212,0.00323837,0.000304561,0.00325594,-0.00203969,1.51316,0.0030842,0.0223593,881,533,1.19085,0.460692
-336,491,1.21887,-0.50708,-0.00264196,0.00366114,0.00153571,0.00401539,-0.00299621,1.34408,0.00406238,0.0217793,888,533,1.21888,0.507067
-329,491,1.19733,-0.572998,-0.00319538,0.00394046,0.00273391,0.00486746,-0.00412238,1.24389,0.00519623,0.0240401,895,533,1.19734,0.573026
-322,491,1.18787,-0.585205,-0.00351203,0.00426237,0.00360072,0.0056738,-0.00492346,1.19722,0.00612344,0.0216787,902,533,1.18786,0.585184
-315,491,1.17426,-0.584167,-0.00340255,0.00450343,0.00376869,0.00601205,-0.00491117,1.19003,0.00631719,0.0126796,909,533,1.17429,0.584167
-308,491,1.22064,-0.598328,-0.00335735,0.00485151,0.00390319,0.00641111,-0.00491695,1.19066,0.0065592,0.0196456,916,533,1.22064,0.598356
-301,491,1.10388,-0.652405,-0.00280632,0.00504545,0.0038124,0.00659194,-0.00435282,1.18543,0.00636289,0.0342588,923,533,1.10388,0.652423
-294,491,0.953491,-0.742676,-0.00220233,0.0056422,0.00377928,0.00716668,-0.00372682,1.18738,0.00639303,0.0368745,930,533,0.953489,0.742694
-287,491,0.831055,-0.664185,-0.001619,0.00616281,0.00372214,0.00765646,-0.00311265,1.18918,0.00639937,0.0401297,937,533,0.831053,0.664199
-280,491,1.38416,-0.56488,-0.00266767,0.00446885,0.00509301,0.00711921,-0.00531803,1.09097,0.0072057,0.0459045,944,533,1.38415,0.564879
-273,491,1.66223,-0.709839,-0.00654268,0.00386774,0.00693796,0.00733603,-0.010011,1.10723,0.0100549,0.0470816,951,533,1.66222,0.709849
-266,491,2.19958,-0.705566,-0.0129357,0.00279174,0.00907535,0.00693636,-0.0170803,1.14239,0.0142723,0.0463568,958,533,2.19961,0.705536
-259,491,1.07916,-2.10553,0,0,0,0,0,0,0,-1,965,533,1.07914,2.10554
-252,491,1.06451,-2.25061,0,0,0,0,0,0,0,-1,972,533,1.06449,2.25059
-245,491,1.31567,-2.41278,0,0,0,0,0,0,0,-1,979,533,1.31567,2.41278
-238,491,2.58466,-0.901184,0,0,0,0,0,0,0,-1,986,533,2.58463,0.901203
-231,491,2.34821,-1.24573,-0.0541395,-0.0128453,0.0220898,-0.00325563,-0.0637291,1.16123,0.0414435,0.044377,993,533,2.34821,1.24576
-224,491,1.77631,-1.54193,-0.0663609,-0.0162951,0.0251251,-0.00586086,-0.0767951,1.17718,0.0493592,0.0462192,1000,533,1.77628,1.54193
-217,491,1.14832,-1.57764,-0.0775624,-0.0211856,0.0278144,-0.00977315,-0.0889748,1.18144,0.0563421,0.048009,1007,533,1.14829,1.57762
-210,491,0.505371,-1.51025,-0.0867962,-0.0258895,0.0294114,-0.0140057,-0.09868,1.1868,0.0616507,0.045516,1014,533,0.505348,1.51023
-203,491,-0.0861816,-1.16632,-0.085614,-0.0217353,0.0218907,-0.0149535,-0.0923957,1.27037,0.0572672,0.0453621,1021,533,-0.0861681,1.1663
-196,491,0,0,0,0,0,0,0,0,0,-1,1028,533,0,0
-189,491,0,0,0,0,0,0,0,0,0,-1,1035,533,0,0
-182,491,0,0,0,0,0,0,0,0,0,-1,1042,533,0,0
-175,491,0,0,0,0,0,0,0,0,0,-1,1049,533,0,0
-168,491,0,0,0,0,0,0,0,0,0,-1,1056,533,0,0
-161,491,0,0,0,0,0,0,0,0,0,-1,1063,533,0,0
-154,491,0,0,0,0,0,0,0,0,0,-1,1070,533,0,0
-147,491,0,0,0,0,0,0,0,0,0,-1,1077,533,0,0
-140,491,0,0,0,0,0,0,0,0,0,-1,1084,533,0,0
-133,491,0,0,0,0,0,0,0,0,0,-1,1091,533,0,0
-126,491,0,0,0,0,0,0,0,0,0,-1,1098,533,0,0
-119,491,0,0,0,0,0,0,0,0,0,-1,1105,533,0,0
-112,491,0,0,0,0,0,0,0,0,0,-1,1112,533,0,0
-105,491,0,0,0,0,0,0,0,0,0,-1,1119,533,0,0
-98,491,0,0,0,0,0,0,0,0,0,-1,1126,533,0,0
-91,491,0,0,0,0,0,0,0,0,0,-1,1133,533,0,0
-84,491,0,0,0,0,0,0,0,0,0,-1,1140,533,0,0
-77,491,0,0,0,0,0,0,0,0,0,-1,1147,533,0,0
-70,491,0,0,0,0,0,0,0,0,0,-1,1154,533,0,0
-63,491,0,0,0,0,0,0,0,0,0,-1,1161,533,0,0
-56,491,0,0,0,0,0,0,0,0,0,-1,1168,533,0,0
-49,491,0,0,0,0,0,0,0,0,0,-1,1175,533,0,0
-42,491,0,0,0,0,0,0,0,0,0,-1,1182,533,0,0
-35,491,0,0,0,0,0,0,0,0,0,-1,1189,533,0,0
-28,491,0,0,0,0,0,0,0,0,0,-1,1196,533,0,0
-21,491,0,0,0,0,0,0,0,0,0,-1,1203,533,0,0
-14,491,0,0,0,0,0,0,0,0,0,-1,1210,533,0,0
-7,491,0,0,0,0,0,0,0,0,0,-1,1217,533,0,0
0,491,0,0,0,0,0,0,0,0,0,-1,1224,533,0,0
7,491,0,0,0,0,0,0,0,0,0,-1,1231,533,0,0
14,491,0,0,0,0,0,0,0,0,0,-1,1238,533,0,0
21,491,0,0,0,0,0,0,0,0,0,-1,1245,533,0,0
28,491,0,0,0,0,0,0,0,0,0,-1,1252,533,0,0
35,491,0,0,0,0,0,0,0,0,0,-1,1259,533,0,0
42,491,0,0,0,0,0,0,0,0,0,-1,1266,533,0,0
49,491,0,0,0,0,0,0,0,0,0,-1,1273,533,0,0
56,491,0,0,0,0,0,0,0,0,0,-1,1280,533,0,0
63,491,0,0,0,0,0,0,0,0,0,-1,1287,533,0,0
70,491,0,0,0,0,0,0,0,0,0,-1,1294,533,0,0
77,491,0,0,0,0,0,0,0,0,0,-1,1301,533,0,0
84,491,0,0,0,0,0,0,0,0,0,-1,1308,533,0,0
91,491,0,0,0,0,0,0,0,0,0,-1,1315,533,0,0
98,491,0,0,0,0,0,0,0,0,0,-1,1322,533,0,0
105,491,0,0,0,0,0,0,0,0,0,-1,1329,533,0,0
112,491,0,0,0,0,0,0,0,0,0,-1,1336,533,0,0
119,491,0,0,0,0,0,0,0,0,0,-1,1343,533,0,0
126,491,0,0,0,0,0,0,0,0,0,-1,1350,533,0,0
133,491,0,0,0,0,0,0,0,0,0,-1,1357,533,0,0
140,491,0,0,0,0,0,0,0,0,0,-1,1364,533,0,0
147,491,0,0,0,0,0,0,0,0,0,-1,1371,533,0,0
154,491,0,0,0,0,0,0,0,0,0,-1,1378,533,0,0
161,491,0,0,0,0,0,0,0,0,0,-1,1385,533,0,0
168,491,0,0,0,0,0,0,0,0,0,-1,1392,533,0,0
175,491,0,0,0,0,0,0,0,0,0,-1,1399,533,0,0
182,491,0,0,0,0,0,0,0,0,0,-1,1406,533,0,0
189,491,0,0,0,0,0,0,0,0,0,-1,1413,533,0,0
196,491,0,0,0,0,0,0,0,0,0,-1,1420,533,0,0
203,491,0,0,0,0,0,0,0,0,0,-1,1427,533,0,0
210,491,0,0,0,0,0,0,0,0,0,-1,1434,533,0,0
217,491,0,0,0,0,0,0,0,0,0,-1,1441,533,0,0
224,491,0,0,0,0,0,0,0,0,0,-1,1448,533,0,0
231,491,0,0,0,0,0,0,0,0,0,-1,1455,533,0,0
238,491,0,0,0,0,0,0,0,0,0,-1,1462,533,0,0
245,491,0,0,0,0,0,0,0,0,0,-1,1469,533,0,0
252,491,0,0,0,0,0,0,0,0,0,-1,1476,533,0,0
259,491,0,0,0,0,0,0,0,0,0,-1,1483,533,0,0
266,491,0,0,0,0,0,0,0,0,0,-1,1490,533,0,0
273,491,0,0,0,0,0,0,0,0,0,-1,1497,533,0,0
280,491,0,0,0,0,0,0,0,0,0,-1,1504,533,0,0
287,491,0,0,0,0,0,0,0,0,0,-1,1511,533,0,0
294,491,0,0,0,0,0,0,0,0,0,-1,1518,533,0,0
301,491,0,0,0,0,0,0,0,0,0,-1,1525,533,0,0
308,491,0,0,0,0,0,0,0,0,0,-1,1532,533,0,0
315,491,0,0,0,0,0,0,0,0,0,-1,1539,533,0,0
322,491,0.692017,0.170715,0,0,0,0,0,0,0,-1,1546,533,0.692036,-0.170728
329,491,-0.425903,-0.960632,0,0,0,0,0,0,0,-1,1553,533,-0.425865,0.960611
336,491,-1.11963,-1.59198,0,0,0,0,0,0,0,-1,1560,533,-1.11958,1.592
343,491,0.417114,-0.85376,0,0,0,0,0,0,0,-1,1567,533,0.417148,0.853746
350,491,1.22424,-1.32953,0.0828544,0.00818447,-0.00163324,0.0828901,0.00814876,-0.0218588,0.052754,0.0479258,1574,533,1.22429,1.32953
357,491,2.04932,-1.79883,0.0661169,0.00791773,0.00270851,0.0662427,0.00779195,0.046405,0.0418072,0.0473971,1581,533,2.04935,1.79882
364,491,2.82349,-2.25812,0,0,0,0,0,0,0,-1,1588,533,2.82344,2.25813
371,491,1.71826,-0.384094,0,0,0,0,0,0,0,-1,1595,533,1.71829,0.384083
378,491,2.33362,-1.00238,0,0,0,0,0,0,0,-1,1602,533,2.33364,1.0024
385,491,2.40076,-1.18915,0.02624,-0.0027269,-0.00178485,0.0263496,-0.00283646,-0.0613078,0.0185842,0.0450898,1609,533,2.40081,1.18915
392,491,2.69543,-1.4873,0.0196353,-0.00555571,-0.00403086,0.0202646,-0.00618498,-0.154862,0.0159756,0.043507,1616,533,2.69542,1.48732
399,491,1.95483,-0.966248,0,0,0,0,0,0,0,-1,1623,533,1.95483,0.966251
406,491,2.78992,-1.00403,0,0,0,0,0,0,0,-1,1630,533,2.78995,1.00403
413,491,3.0708,-1.06598,0,0,0,0,0,0,0,-1,1637,533,3.07086,1.06598
420,491,2.76074,-0.930481,0.000662273,-0.0129088,-0.00850623,0.0047579,-0.0170044,-0.448726,0.013211,0.0437367,1644,533,2.76072,0.930465
427,491,2.5376,-0.97583,-0.0017629,-0.0134995,-0.00872802,0.00288618,-0.0181486,-0.489434,0.013167,0.0387078,1651,533,2.53759,0.975849
434,491,2.31873,-0.730835,-0.00339567,-0.0133366,-0.00849472,0.00147591,-0.0182082,-0.520694,0.0126595,0.0259747,1658,533,2.31871,0.730806
441,491,2.31055,-0.674438,-0.00411347,-0.0128499,-0.0077923,0.000451481,-0.0174148,-0.529934,0.0117633,0.0144314,1665,533,2.3106,0.674419
448,491,2.3114,-0.61792,-0.00452442,-0.0116757,-0.0070462,-0.000198547,-0.0160016,-0.5506,0.0106022,0.0107824,1672,533,2.31141,0.617923
455,491,2.29395,-0.578796,-0.00449919,-0.0095718,-0.00614272,-0.00038976,-0.0136812,-0.589611,0.00899372,0.0114969,1679,533,2.29399,0.578797
462,491,2.29626,-0.562439,-0.0041882,-0.0073123,-0.00502772,-0.000485463,-0.011015,-0.634781,0.007187,0.0140273,1686,533,2.29632,0.562425
469,491,2.30542,-0.536987,-0.003854,-0.00514768,-0.0041555,-0.000295298,-0.00870639,-0.708189,0.00570837,0.0135605,1693,533,2.30545,0.536987
476,491,2.31616,-0.49231,-0.00312975,-0.00315521,-0.00308316,-5.92915e-05,-0.00622567,-0.783334,0.00413082,0.00975124,1700,533,2.3162,0.492315
483,491,2.31555,-0.437683,-0.00252647,-0.00137257,-0.00208892,0.000217613,-0.00411666,-0.920136,0.00281978,0.0109775,1707,533,2.3156,0.437661
490,491,2.3175,-0.42511,-0.00192478,-8.89429e-05,-0.0014216,0.000685336,-0.00269906,-1.07207,0.00206606,0.0101024,1714,533,2.31753,0.425096
497,491,2.32935,-0.400574,-0.00131407,0.000818369,-0.00117117,0.00133596,-0.00183167,-1.15466,0.00183628,0.0111399,1721,533,2.32929,0.400596
504,491,2.31335,-0.366333,-0.000572604,0.00165193,-0.00156786,0.00246198,-0.00138266,-1.09391,0.00224868,0.0128581,1728,533,2.3134,0.366323
511,491,2.29761,-0.341125,0.000163365,0.00161697,-0.00135562,0.00242833,-0.000647997,-1.03147,0.00187264,0.0117654,1735,533,2.29766,0.34114
518,491,2.30078,-0.29187,0.000919082,0.00177388,-0.000618753,0.00209849,0.000594466,-1.08764,0.00124892,0.0088301,1742,533,2.30076,0.291849
525,491,2.30334,-0.258667,0.0019337,0.00258729,-0.00014567,0.00261829,0.0019027,-1.36114,0.0015626,0.00836163,1749,533,2.30333,0.258669
532,491,2.31799,-0.235352,0.00321447,0.00331022,0.000861134,0.00412481,0.00239988,0.813169,0.00239206,0.0125399,1756,533,2.31801,0.235342
539,491,2.34119,-0.217712,0.00481239,0.00426028,0.00238834,0.00694058,0.00213209,0.727861,0.00410525,0.0198043,1763,533,2.34123,0.217708
546,491,2.51038,-0.306702,0.00671075,0.00520448,0.00483119,0.0108471,0.00106808,0.708075,0.00690301,0.032057,1770,533,2.51037,0.306726
553,491,2.89185,-0.981506,0.00892181,0.00620195,0.00869206,0.0163597,-0.00123592,0.707799,0.0113409,0.0408606,1777,533,2.89182,0.981522
560,491,3.65295,-1.70587,0,0,0,0,0,0,0,-1,1784,533,3.65292,1.70587
567,491,4.48022,-2.31793,0,0,0,0,0,0,0,-1,1791,533,4.48024,2.31791
574,491,2.51758,1.00635,0,0,0,0,0,0,0,-1,1798,533,2.51762,-1.00637
581,491,3.51733,-0.428284,0,0,0,0,0,0,0,-1,1805,533,3.51738,0.428284
588,491,4.14514,-0.352966,0,0,0,0,0,0,0,-1,1812,533,4.14513,0.352936
595,491,0,0,0,0,0,0,0,0,0,-1,1819,533,0,0
602,491,0,0,0,0,0,0,0,0,0,-1,1826,533,0,0
609,491,0,0,0,0,0,0,0,0,0,-1,1833,533,0,0
616,491,0,0,0,0,0,0,0,0,0,-1,1840,533,0,0
623,491,0,0,0,0,0,0,0,0,0,-1,1847,533,0,0
630,491,0,0,0,0,0,0,0,0,0,-1,1854,533,0,0
637,491,0,0,0,0,0,0,0,0,0,-1,1861,533,0,0
644,491,0,0,0,0,0,0,0,0,0,-1,1868,533,0,0
651,491,0,0,0,0,0,0,0,0,0,-1,1875,533,0,0
658,491,0,0,0,0,0,0,0,0,0,-1,1882,533,0,0
665,491,0,0,0,0,0,0,0,0,0,-1,1889,533,0,0
672,491,0,0,0,0,0,0,0,0,0,-1,1896,533,0,0
679,491,0,0,0,0,0,0,0,0,0,-1,1903,533,0,0
686,491,0,0,0,0,0,0,0,0,0,-1,1910,533,0,0
693,491,0,0,0,0,0,0,0,0,0,-1,1917,533,0,0
700,491,0,0,0,0,0,0,0,0,0,-1,1924,533,0,0
707,491,0,0,0,0,0,0,0,0,0,-1,1931,533,0,0
714,491,0,0,0,0,0,0,0,0,0,-1,1938,533,0,0
721,491,0,0,0,0,0,0,0,0,0,-1,1945,533,0,0
728,491,0,0,0,0,0,0,0,0,0,-1,1952,533,0,0
735,491,0,0,0,0,0,0,0,0,0,-1,1959,533,0,0
742,491,0,0,0,0,0,0,0,0,0,-1,1966,533,0,0
749,491,0,0,0,0,0,0,0,0,0,-1,1973,533,0,0
756,491,0,0,0,0,0,0,0,0,0,-1,1980,533,0,0
763,491,0,0,0,0,0,0,0,0,0,-1,1987,533,0,0
770,491,0,0,0,0,0,0,0,0,0,-1,1994,533,0,0
777,491,0,0,0,0,0,0,0,0,0,-1,2001,533,0,0
784,491,0,0,0,0,0,0,0,0,0,-1,2008,533,0,0
791,491,0,0,0,0,0,0,0,0,0,-1,2015,533,0,0
798,491,0,0,0,0,0,0,0,0,0,-1,2022,533,0,0
805,491,0,0,0,0,0,0,0,0,0,-1,2029,533,0,0
812,491,0,0,0,0,0,0,0,0,0,-1,2036,533,0,0
-700,484,0,0,0,0,0,0,0,0,0,-1,524,540,0,0
-693,484,0,0,0,0,0,0,0,0,0,-1,531,540,0,0
-686,484,0,0,0,0,0,0,0,0,0,-1,538,540,0,0
-679,484,0,0,0,0,0,0,0,0,0,-1,545,540,0,0
-672,484,0,0,0,0,0,0,0,0,0,-1,552,540,0,0
-665,484,0,0,0,0,0,0,0,0,0,-1,559,540,0,0
-658,484,0,0,0,0,0,0,0,0,0,-1,566,540,0,0
-651,484,0,0,0,0,0,0,0,0,0,-1,573,540,0,0
-644,484,0,0,0,0,0,0,0,0,0,-1,580,540,0,0
-637,484,0,0,0,0,0,0,0,0,0,-1,587,540,0,0
-630,484,0,0,0,0,0,0,0,0,0,-1,594,540,0,0
-623,484,0,0,0,0,0,0,0,0,0,-1,601,540,0,0
-616,484,0,0,0,0,0,0,0,0,0,-1,608,540,0,0
-609,484,0,0,0,0,0,0,0,0,0,-1,615,540,0,0
-602,484,0,0,0,0,0,0,0,0,0,-1,622,540,0,0
-595,484,0,0,0,0,0,0,0,0,0,-1,629,540,0,0
-588,484,0,0,0,0,0,0,0,0,0,-1,636,540,0,0
-581,484,0,0,0,0,0,0,0,0,0,-1,643,540,0,0
-574,484,0,0,0,0,0,0,0,0,0,-1,650,540,0,0
-567,484,0,0,0,0,0,0,0,0,0,-1,657,540,0,0
-560,484,0,0,0,0,0,0,0,0,0,-1,664,540,0,0
-553,484,0,0,0,0,0,0,0,0,0,-1,671,540,0,0
-546,484,0,0,0,0,0,0,0,0,0,-1,678,540,0,0
-539,484,0,0,0,0,0,0,0,0,0,-1,685,540,0,0
-532,484,0,0,0,0,0,0,0,0,0,-1,692,540,0,0
-525,484,0,0,0,0,0,0,0,0,0,-1,699,540,0,0
-518,484,0,0,0,0,0,0,0,0,0,-1,706,540,0,0
-511,484,0,0,0,0,0,0,0,0,0,-1,713,540,0,0
-504,484,0,0,0,0,0,0,0,0,0,-1,720,540,0,0
-497,484,0,0,0,0,0,0,0,0,0,-1,727,540,0,0
-490,484,0,0,0,0,0,0,0,0,0,-1,734,540,0,0
-483,484,0,0,0,0,0,0,0,0,0,-1,741,540,0,0
-476,484,0.072998,2.13031,0.0511748,0.0505232,-0.0126397,0.0634929,0.0382051,-0.772513,0.0369097,0.0490947,748,540,0.0729901,-2.1303
-469,484,-0.105103,1.21124,0.0496257,0.0430539,-0.012006,0.0587873,0.0338923,-0.651826,0.0340731,0.0449947,755,540,-0.105117,-1.21126
-462,484,-0.165833,0.66394,0.045851,0.0367584,-0.0107764,0.0530009,0.0296086,-0.585788,0.0306701,0.0429977,762,540,-0.165825,-0.66392
-455,484,-0.213562,0.252991,0.0408901,0.0309331,-0.00831156,0.0456001,0.0262231,-0.515562,0.026426,0.0463783,769,540,-0.213581,-0.253001
-448,484,2.01782,0.7995,0.0356153,0.0262176,-0.00537089,0.0380527,0.0237803,-0.42602,0.0221971,0.0433656,776,540,2.01782,-0.799497
-441,484,1.96216,0.470825,0.0304309,0.0222717,-0.00263548,0.0312082,0.0214945,-0.286784,0.018441,0.0407862,783,540,1.96214,-0.470833
-434,484,1.67719,0.17334,0.0249186,0.0190942,-0.00171781,0.0253875,0.0186253,-0.26647,0.0151815,0.0398935,790,540,1.6772,-0.173355
-427,484,1.38531,0.0518188,0.019917,0.016021,-0.000412258,0.0199602,0.0159778,-0.104275,0.012198,0.0365588,797,540,1.38529,-0.0517931
-420,484,1.24115,-0.0202637,0.0160205,0.0135162,0.000556316,0.0161385,0.0133982,0.20905,0.00997188,0.0280475,804,540,1.24118,0.0202914
-413,484,1.1571,-0.0870972,0.0117364,0.0118907,0.000940642,0.0127574,0.0108697,0.826337,0.00795074,0.0170026,811,540,1.15708,0.0871057
-406,484,1.1684,-0.148315,0.00852807,0.0102044,0.000498254,0.0103413,0.00839116,1.30263,0.00634485,0.010529,818,540,1.16842,0.148325
-399,484,1.16272,-0.185425,0.00586632,0.00842966,-0.000349175,0.00847638,0.00581961,-1.43781,0.00500611,0.0150622,825,540,1.16273,0.185403
-392,484,1.14398,-0.2146,0.00367656,0.00721602,-0.000910867,0.00743667,0.00345591,-1.33313,0.00429713,0.0175699,832,540,1.14398,0.214604
-385,484,1.13831,-0.247864,0.00236306,0.00619647,-0.00117473,0.00652782,0.00203171,-1.29588,0.00385732,0.0128446,839,540,1.13831,0.24788
-378,484,1.14673,-0.290039,0.00113377,0.00533183,-0.00123268,0.00566702,0.000798577,-1.3053,0.00354196,0.0139835,846,540,1.14674,0.290037
-371,484,1.15424,-0.306091,-0.000116681,0.00484017,-0.0013714,0.00519429,-0.000470803,-1.3181,0.00362999,0.015772,853,540,1.15421,0.306111
-364,484,1.1651,-0.34375,-0.000837684,0.00423636,-0.00152136,0.00465755,-0.00125887,-1.30071,0.00359881,0.0114082,860,540,1.16511,0.343754
-357,484,1.15515,-0.390503,-0.000916267,0.00431078,-0.000382084,0.00433856,-0.000944049,-1.49821,0.00325304,0.0116012,867,540,1.15513,0.390497
-350,484,1.15991,-0.418091,-0.00147726,0.00475762,0.000583184,0.0048117,-0.00153134,1.47833,0.00382191,0.0141938,874,540,1.1599,0.418088
-343,484,1.14557,-0.454041,-0.00238344,0.00514201,0.00187716,0.00558426,-0.00282569,1.33942,0.00494179,0.0222688,881,540,1.14555,0.454029
-336,484,1.14911,-0.503662,-0.00282729,0.0055454,0.00312878,0.00658541,-0.00386729,1.24989,0.0061025,0.024904,888,540,1.14911,0.50365
-329,484,1.11896,-0.551941,-0.00311201,0.00544184,0.00442024,0.00731557,-0.00498575,1.16986,0.0071445,0.0255663,895,540,1.11893,0.551927
-322,484,1.18732,-0.565979,-0.00310682,0.00537422,0.00548884,0.00806979,-0.0058024,1.11429,0.00804469,0.0207142,902,540,1.18733,0.565954
-315,484,1.15887,-0.567322,-0.00270744,0.00521129,0.00586187,0.00832568,-0.00582184,1.08243,0.0082106,0.0199678,909,540,1.15887,0.567314
-308,484,1.12482,-0.517151,-0.0024068,0.00505393,0.00621631,0.00857326,-0.00592614,1.05564,0.00841761,0.0334978,916,540,1.12483,0.517127
-301,484,0.795837,-0.660583,-0.00163711,0.00477227,0.00629165,0.00862838,-0.00549322,1.02095,0.00821981,0.0423498,923,540,0.795847,0.660574
-294,484,0.45459,-0.722717,-0.000746066,0.00488021,0.00630247,0.00896887,-0.00483473,0.995307,0.00808778,0.0419618,930,540,0.454604,0.72271
-287,484,0.441162,-0.577148,0,0,0,0,0,0,0,-1,937,540,0.441183,0.577143
-280,484,1.3819,-0.578796,0,0,0,0,0,0,0,-1,944,540,1.38188,0.578803
-273,484,1.79565,-0.881714,0,0,0,0,0,0,0,-1,951,540,1.79564,0.881707
-266,484,2.61316,-0.760681,-0.0131698,0.000130277,0.0117415,0.00697417,-0.0200137,1.04306,0.0161764,0.0489997,958,540,2.61315,0.760698
-259,484,2.67212,-0.899597,0,0,0,0,0,0,0,-1,965,540,2.67215,0.899612
-252,484,0.740662,-2.7218,0,0,0,0,0,0,0,-1,972,540,0.74067,2.72179
-245,484,1.03558,-2.91541,0,0,0,0,0,0,0,-1,979,540,1.03556,2.91538
-238,484,2.46045,2.61255,0,0,0,0,0,0,0,-1,986,540,2.46047,-2.61254
-231,484,2.47736,-1.68109,0,0,0,0,0,0,0,-1,993,540,2.47738,1.68106
-224,484,1.64697,-1.61749,-0.0762032,-0.0225536,0.0290036,-0.00987176,-0.0888851,1.15859,0.0562556,0.0465255,1000,540,1.64695,1.61752
-217,484,0.985474,-1.58325,-0.0914265,-0.0298286,0.0331351,-0.0153892,-0.105866,1.15984,0.0660479,0.0470405,1007,540,0.985459,1.58325
-210,484,0,0,0,0,0,0,0,0,0,-1,1014,540,0,0
-203,484,0,0,0,0,0,0,0,0,0,-1,1021,540,0,0
-196,484,0,0,0,0,0,0,0,0,0,-1,1028,540,0,0
-189,484,0,0,0,0,0,0,0,0,0,-1,1035,540,0,0
-182,484,0,0,0,0,0,0,0,0,0,-1,1042,540,0,0
-175,484,0,0,0,0,0,0,0,0,0,-1,1049,540,0,0
-168,484,0,0,0,0,0,0,0,0,0,-1,1056,540,0,0
-161,484,0,0,0,0,0,0,0,0,0,-1,1063,540,0,0
-154,484,0,0,0,0,0,0,0,0,0,-1,1070,540,0,0
-147,484,0,0,0,0,0,0,0,0,0,-1,1077,540,0,0
-140,484,0,0,0,0,0,0,0,0,0,-1,1084,540,0,0
-133,484,0,0,0,0,0,0,0,0,0,-1,1091,540,0,0
-126,484,0,0,0,0,0,0,0,0,0,-1,1098,540,0,0
-119,484,0,0,0,0,0,0,0,0,0,-1,1105,540,0,0
-112,484,0,0,0,0,0,0,0,0,0,-1,1112,540,0,0
-105,484,0,0,0,0,0,0,0,0,0,-1,1119,540,0,0
-98,484,0,0,0,0,0,0,0,0,0,-1,1126,540,0,0
-91,484,0,0,0,0,0,0,0,0,0,-1,1133,540,0,0
-84,484,0,0,0,0,0,0,0,0,0,-1,1140,540,0,0
-77,484,0,0,0,0,0,0,0,0,0,-1,1147,540,0,0
-70,484,0,0,0,0,0,0,0,0,0,-1,1154,540,0,0
-63,484,0,0,0,0,0,0,0,0,0,-1,1161,540,0,0
-56,484,0,0,0,0,0,0,0,0,0,-1,1168,540,0,0
-49,484,0,0,0,0,0,0,0,0,0,-1,1175,540,0,0
-42,484,0,0,0,0,0,0,0,0,0,-1,1182,540,0,0
-35,484,0,0,0,0,0,0,0,0,0,-1,1189,540,0,0
-28,484,0,0,0,0,0,0,0,0,0,-1,1196,540,0,0
-21,484,0,0,0,0,0,0,0,0,0,-1,1203,540,0,0
-14,484,0,0,0,0,0,0,0,0,0,-1,1210,540,0,0
-7,484,0,0,0,0,0,0,0,0,0,-1,1217,540,0,0
0,484,0,0,0,0,0,0,0,0,0,-1,1224,540,0,0
7,484,0,0,0,0,0,0,0,0,0,-1,1231,540,0,0
14,484,0,0,0,0,0,0,0,0,0,-1,1238,540,0,0
21,484,0,0,0,0,0,0,0,0,0,-1,1245,540,0,0
28,484,0,0,0,0,0,0,0,0,0,-1,1252,540,0,0
35,484,0,0,0,0,0,0,0,0,0,-1,1259,540,0,0
42,484,0,0,0,0,0,0,0,0,0,-1,1266,540,0,0
49,484,0,0,0,0,0,0,0,0,0,-1,1273,540,0,0
56,484,0,0,0,0,0,0,0,0,0,-1,1280,540,0,0
63,484,0,0,0,0,0,0,0,0,0,-1,1287,540,0,0
70,484,0,0,0,0,0,0,0,0,0,-1,1294,540,0,0
77,484,0,0,0,0,0,0,0,0,0,-1,1301,540,0,0
84,484,0,0,0,0,0,0,0,0,0,-1,1308,540,0,0
91,484,0,0,0,0,0,0,0,0,0,-1,1315,540,0,0
98,484,0,0,0,0,0,0,0,0,0,-1,1322,540,0,0
105,484,0,0,0,0,0,0,0,0,0,-1,1329,540,0,0
112,484,0,0,0,0,0,0,0,0,0,-1,1336,540,0,0
119,484,0,0,0,0,0,0,0,0,0,-1,1343,540,0,0
126,484,0,0,0,0,0,0,0,0,0,-1,1350,540,0,0
133,484,0,0,0,0,0,0,0,0,0,-1,1357,540,0,0
140,484,0,0,0,0,0,0,0,0,0,-1,1364,540,0,0
147,484,0,0,0,0,0,0,0,0,0,-1,1371,540,0,0
154,484,0,0,0,0,0,0,0,0,0,-1,1378,540,0,0
161,484,0,0,0,0,0,0,0,0,0,-1,1385,540,0,0
168,484,0,0,0,0,0,0,0,0,0,-1,1392,540,0,0
175,484,0,0,0,0,0,0,0,0,0,-1,1399,540,0,0
182,484,0,0,0,0,0,0,0,0,0,-1,1406,540,0,0
189,484,0,0,0,0,0,0,0,0,0,-1,1413,540,0,0
196,484,0,0,0,0,0,0,0,0,0,-1,1420,540,0,0
203,484,0,0,0,0,0,0,0,0,0,-1,1427,540,0,0
210,484,0,0,0,0,0,0,0,0,0,-1,1434,540,0,0
217,484,0,0,0,0,0,0,0,0,0,-1,1441,540,0,0
224,484,0,0,0,0,0,0,0,0,0,-1,1448,540,0,0
231,484,0,0,0,0,0,0,0,0,0,-1,1455,540,0,0
238,484,0,0,0,0,0,0,0,0,0,-1,1462,540,0,0
245,484,0,0,0,0,0,0,0,0,0,-1,1469,540,0,0
252,484,0,0,0,0,0,0,0,0,0,-1,1476,540,0,0
259,484,0,0,0,0,0,0,0,0,0,-1,1483,540,0,0
266,484,0,0,0,0,0,0,0,0,0,-1,1490,540,0,0
273,484,0,0,0,0,0,0,0,0,0,-1,1497,540,0,0
280,484,0,0,0,0,0,0,0,0,0,-1,1504,540,0,0
287,484,0,0,0,0,0,0,0,0,0,-1,1511,540,0,0
294,484,0,0,0,0,0,0,0,0,0,-1,1518,540,0,0
301,484,0,0,0,0,0,0,0,0,0,-1,1525,540,0,0
308,484,0,0,0,0,0,0,0,0,0,-1,1532,540,0,0
315,484,0,0,0,0,0,0,0,0,0,-1,1539,540,0,0
322,484,0,0,0,0,0,0,0,0,0,-1,1546,540,0,0
329,484,0,0,0,0,0,0,0,0,0,-1,1553,540,0,0
336,484,7.58862,-0.632324,0,0,0,0,0,0,0,-1,1560,540,7.58868,0.632332
343,484,8.29297,-0.858948,0,0,0,0,0,0,0,-1,1567,540,8.29292,0.85897
350,484,0.789551,-1.20416,0,0,0,0,0,0,0,-1,1574,540,0.789568,1.20414
357,484,1.64209,-1.62646,0,0,0,0,0,0,0,-1,1581,540,1.64203,1.62646
364,484,0.845215,0.516479,0,0,0,0,0,0,0,-1,1588,540,0.845164,-0.516468
371,484,1.28345,0.0611572,0.0507622,0.000694768,0.00621316,0.0515218,-6.47381e-05,0.121638,0.0343694,0.0458966,1595,540,1.28345,-0.0611493
378,484,1.80933,-0.367432,0.0399419,-0.00189279,0.00224008,0.0400615,-0.00201239,0.0533426,0.0274031,0.0446832,1602,540,1.80934,0.367436
385,484,2.29883,-1.03345,0.0309188,-0.00444515,-0.00145381,0.0309784,-0.00450481,-0.0410177,0.022306,0.0474086,1609,540,2.29879,1.03344
392,484,2.46301,-1.73206,0.0229726,-0.00766323,-0.00432591,0.0235718,-0.00826235,-0.13762,0.0190747,0.0460728,1616,540,2.46296,1.73203
399,484,3.40234,-0.867737,0,0,0,0,0,0,0,-1,1623,540,3.40236,0.867762
406,484,3.50012,-0.812012,0,0,0,0,0,0,0,-1,1630,540,3.50018,0.812006
413,484,3.59802,-0.756226,0,0,0,0,0,0,0,-1,1637,540,3.59801,0.75625
420,484,2.95264,-1.13666,0,0,0,0,0,0,0,-1,1644,540,2.95265,1.13667
427,484,2.73779,-0.511902,-0.00246974,-0.016967,-0.010784,0.00327537,-0.0227121,-0.489499,0.016343,0.0468674,1651,540,2.73776,0.51192
434,484,2.49939,-0.513184,-0.00440119,-0.0166988,-0.0105814,0.00168823,-0.0227882,-0.522197,0.015785,0.043639,1658,540,2.49933,0.513169
441,484,2.38159,-0.653198,-0.00516541,-0.0160199,-0.00976984,0.000583419,-0.0217687,-0.531866,0.0147108,0.0384055,1665,540,2.38163,0.65317
448,484,2.30823,-0.65509,-0.00552857,-0.0145482,-0.00886778,-8.97339e-05,-0.0199871,-0.550161,0.0132949,0.0278728,1672,540,2.30817,0.655104
455,484,2.33472,-0.590149,-0.00540185,-0.0119661,-0.00772325,-0.00029224,-0.0170757,-0.584478,0.0112876,0.0166156,1679,540,2.33469,0.590147
462,484,2.35034,-0.560791,-0.00491474,-0.00916266,-0.0062871,-0.000402527,-0.0136749,-0.622503,0.00898541,0.0130771,1686,540,2.35032,0.560797
469,484,2.35474,-0.528564,-0.00439777,-0.00648329,-0.00515623,-0.000179917,-0.0107011,-0.685627,0.00707489,0.0153676,1693,540,2.35471,0.528539
476,484,2.36121,-0.480957,-0.00342574,-0.00397886,-0.00375385,6.17218e-05,-0.00746632,-0.748628,0.00499825,0.0140227,1700,540,2.36124,0.480965
483,484,2.35938,-0.449707,-0.00255568,-0.00186481,-0.00246279,0.000276648,-0.00469714,-0.855074,0.0032276,0.0113033,1707,540,2.35937,0.449716
490,484,2.36194,-0.430603,-0.00175294,-0.000465963,-0.00149708,0.000520063,-0.00273897,-0.988375,0.00202175,0.011756,1714,540,2.36188,0.43061
497,484,2.36475,-0.393555,-0.0010093,0.000561784,-0.00104002,0.00107959,-0.0015271,-1.10885,0.00151235,0.0131612,1721,540,2.36469,0.393533
504,484,2.34412,-0.366516,-0.000172235,0.001414,-0.00129043,0.00213556,-0.000893795,-1.06095,0.00179731,0.0152079,1728,540,2.34411,0.366502
511,484,2.34143,-0.346313,0.000615246,0.00128341,-0.000989056,0.00199329,-9.46262e-05,-0.948272,0.0013615,0.0170986,1735,540,2.34143,0.346337
518,484,2.34412,-0.316223,0.00132967,0.00138433,-0.000408621,0.00176653,0.000947467,-0.818791,0.00102081,0.0140352,1742,540,2.34409,0.316218
525,484,2.3512,-0.272278,0.00226636,0.00208265,-3.77314e-05,0.0022738,0.0020752,-0.194884,0.0014542,0.0119779,1749,540,2.35121,0.272253
532,484,2.35779,-0.238159,0.00336921,0.00272357,0.00078344,0.00389373,0.00219905,0.58997,0.00225432,0.0140922,1756,540,2.35781,0.238157
539,484,2.33862,-0.164368,0.00474022,0.00361481,0.00197653,0.00623258,0.00212244,0.64672,0.00365887,0.0184684,1763,540,2.33862,0.164386
546,484,2.35352,-0.138794,0.00634803,0.00452565,0.00388634,0.00942857,0.00144511,0.670248,0.00586367,0.0197136,1770,540,2.3535,0.138806
553,484,2.80249,-0.762085,0,0,0,0,0,0,0,-1,1777,540,2.80243,0.762082
560,484,3.77686,-1.66498,0,0,0,0,0,0,0,-1,1784,540,3.77691,1.665
567,484,2.50854,0.269226,0.0132293,0.00727028,0.018059,0.028553,-0.00805335,0.70364,0.0222119,0.0453741,1791,540,2.50852,-0.269198
574,484,2.39148,0.608765,0.016723,0.00798649,0.026204,0.0389204,-0.0142109,0.702806,0.0317619,0.044736,1798,540,2.39148,-0.608783
581,484,2.37,0.673157,0,0,0,0,0,0,0,-1,1805,540,2.37003,-0.67313
588,484,2.89465,0.205933,0,0,0,0,0,0,0,-1,1812,540,2.89467,-0.205951
595,484,3.47278,0.680847,0,0,0,0,0,0,0,-1,1819,540,3.47282,-0.680867
602,484,0,0,0,0,0,0,0,0,0,-1,1826,540,0,0
609,484,0,0,0,0,0,0,0,0,0,-1,1833,540,0,0
616,484,0,0,0,0,0,0,0,0,0,-1,1840,540,0,0
623,484,0,0,0,0,0,0,0,0,0,-1,1847,540,0,0
630,484,0,0,0,0,0,0,0,0,0,-1,1854,540,0,0
637,484,0,0,0,0,0,0,0,0,0,-1,1861,540,0,0
644,484,0,0,0,0,0,0,0,0,0,-1,1868,540,0,0
651,484,0,0,0,0,0,0,0,0,0,-1,1875,540,0,0
658,484,0,0,0,0,0,0,0,0,0,-1,1882,540,0,0
665,484,0,0,0,0,0,0,0,0,0,-1,1889,540,0,0
672,484,0,0,0,0,0,0,0,0,0,-1,1896,540,0,0
679,484,0,0,0,0,0,0,0,0,0,-1,1903,540,0,0
686,484,0,0,0,0,0,0,0,0,0,-1,1910,540,0,0
693,484,0,0,0,0,0,0,0,0,0,-1,1917,540,0,0
700,484,0,0,0,0,0,0,0,0,0,-1,1924,540,0,0
707,484,0,0,0,0,0,0,0,0,0,-1,1931,540,0,0
714,484,0,0,0,0,0,0,0,0,0,-1,1938,540,0,0
721,484,0,0,0,0,0,0,0,0,0,-1,1945,540,0,0
728,484,0,0,0,0,0,0,0,0,0,-1,1952,540,0,0
735,484,0,0,0,0,0,0,0,0,0,-1,1959,540,0,0
742,484,0,0,0,0,0,0,0,0,0,-1,1966,540,0,0
749,484,0,0,0,0,0,0,0,0,0,-1,1973,540,0,0
756,484,0,0,0,0,0,0,0,0,0,-1,1980,540,0,0
763,484,0,0,0,0,0,0,0,0,0,-1,1987,540,0,0
770,484,0,0,0,0,0,0,0,0,0,-1,1994,540,0,0
777,484,0,0,0,0,0,0,0,0,0,-1,2001,540,0,0
784,484,0,0,0,0,0,0,0,0,0,-1,2008,540,0,0
791,484,0,0,0,0,0,0,0,0,0,-1,2015,540,0,0
798,484,0,0,0,0,0,0,0,0,0,-1,2022,540,0,0
805,484,0,0,0,0,0,0,0,0,0,-1,2029,540,0,0
812,484,0,0,0,0,0,0,0,0,0,-1,2036,540,0,0
-700,477,0,0,0,0,0,0,0,0,0,-1,524,547,0,0
-693,477,0,0,0,0,0,0,0,0,0,-1,531,547,0,0
-686,477,0,0,0,0,0,0,0,0,0,-1,538,547,0,0
-679,477,0,0,0,0,0,0,0,0,0,-1,545,547,0,0
-672,477,0,0,0,0,0,0,0,0,0,-1,552,547,0,0
-665,477,0,0,0,0,0,0,0,0,0,-1,559,547,0,0
-658,477,0,0,0,0,0,0,0,0,0,-1,566,547,0,0
-651,477,0,0,0,0,0,0,0,0,0,-1,573,547,0,0
-644,477,0,0,0,0,0,0,0,0,0,-1,580,547,0,0
-637,477,0,0,0,0,0,0,0,0,0,-1,587,547,0,0
-630,477,0,0,0,0,0,0,0,0,0,-1,594,547,0,0
-623,477,0,0,0,0,0,0,0,0,0,-1,601,547,0,0
-616,477,0,0,0,0,0,0,0,0,0,-1,608,547,0,0
-609,477,0,0,0,0,0,0,0,0,0,-1,615,547,0,0
-602,477,0,0,0,0,0,0,0,0,0,-1,622,547,0,0
-595,477,0,0,0,0,0,0,0,0,0,-1,629,547,0,0
-588,477,0,0,0,0,0,0,0,0,0,-1,636,547,0,0
-581,477,0,0,0,0,0,0,0,0,0,-1,643,547,0,0
-574,477,0,0,0,0,0,0,0,0,0,-1,650,547,0,0
-567,477,0,0,0,0,0,0,0,0,0,-1,657,547,0,0
-560,477,0,0,0,0,0,0,0,0,0,-1,664,547,0,0
-553,477,0,0,0,0,0,0,0,0,0,-1,671,547,0,0
-546,477,0,0,0,0,0,0,0,0,0,-1,678,547,0,0
-539,477,0,0,0,0,0,0,0,0,0,-1,685,547,0,0
-532,477,0,0,0,0,0,0,0,0,0,-1,692,547,0,0
-525,477,0,0,0,0,0,0,0,0,0,-1,699,547,0,0
-518,477,0,0,0,0,0,0,0,0,0,-1,706,547,0,0
-511,477,0,0,0,0,0,0,0,0,0,-1,713,547,0,0
-504,477,0,0,0,0,0,0,0,0,0,-1,720,547,0,0
-497,477,0,0,0,0,0,0,0,0,0,-1,727,547,0,0
-490,477,0,0,0,0,0,0,0,0,0,-1,734,547,0,0
-483,477,0.40564,2.23663,0.0483655,0.0509202,-0.00595511,0.0557334,0.0435523,-0.891048,0.0338342,0.0465999,741,547,0.40564,-2.23661
-476,477,0.281189,1.65668,0.0472903,0.0437089,-0.00983712,0.0554984,0.0355008,-0.695368,0.0324561,0.0440513,748,547,0.28116,-1.65667
-469,477,0.0524292,0.953064,0.0444555,0.0379141,-0.0110438,0.0527028,0.0296668,-0.641436,0.0305081,0.0423248,755,547,0.0524097,-0.953073
-462,477,-0.0977783,0.512146,0.0402644,0.0326865,-0.0108729,0.0479895,0.0249613,-0.617739,0.0277143,0.0440616,762,547,-0.0977822,-0.512155
-455,477,1.25336,0.706909,0,0,0,0,0,0,0,-1,769,547,1.25338,-0.706893
-448,477,1.34741,0.470947,0.0302391,0.0232299,-0.00658987,0.0341983,0.0192707,-0.54101,0.0197974,0.046177,776,547,1.34738,-0.470961
-441,477,1.32074,0.372131,0.0254595,0.0194432,-0.00409863,0.0275354,0.0173673,-0.468825,0.0160777,0.0426192,783,547,1.32074,-0.372149
-434,477,1.07574,0.0703735,0.0203624,0.0164356,-0.00328151,0.022223,0.014575,-0.515806,0.0130366,0.0360717,790,547,1.07576,-0.0704005
-427,477,1.05212,-0.0123901,0.0157059,0.0134505,-0.00192086,0.0168056,0.0123507,-0.519965,0.0100533,0.0174584,797,547,1.05211,0.0123653
-420,477,1.05908,-0.0622559,0.012282,0.010998,-0.000809011,0.0126728,0.0106072,-0.449995,0.0078511,0.0147992,804,547,1.05906,0.0622405
-413,477,1.08533,-0.0969238,0.00860504,0.00949692,-0.000217679,0.00954721,0.00855474,-1.34374,0.00606113,0.0145361,811,547,1.08531,0.0969347
-406,477,1.13135,-0.12561,0.0058526,0.00805881,-0.000333879,0.00810823,0.00580318,-1.42384,0.00482432,0.0103589,818,547,1.13136,0.125594
-399,477,1.12115,-0.181824,0.00361137,0.00659351,-0.000917873,0.00685338,0.0033515,-1.2949,0.00395712,0.0179132,825,547,1.12118,0.181842
-392,477,1.09729,-0.214539,0.00175898,0.00576161,-0.00130371,0.00614879,0.0013718,-1.28211,0.00372705,0.0175616,832,547,1.0973,0.214518
-385,477,1.12201,-0.232178,0.000745411,0.00520001,-0.0013892,0.00559774,0.000347687,-1.29196,0.0036215,0.0145105,839,547,1.12203,0.232181
-378,477,1.11365,-0.28302,-0.000147741,0.0048096,-0.00121008,0.00508921,-0.000427349,-1.34372,0.00354385,0.0131515,846,547,1.11362,0.283003
-371,477,1.11115,-0.298279,-0.000966597,0.00482716,-0.000931826,0.00497334,-0.00111278,-1.41519,0.00374205,0.0135722,853,547,1.11114,0.298255
-364,477,1.10126,-0.329407,-0.00152962,0.00496477,-0.000822758,0.00506738,-0.00163223,-1.44672,0.00403395,0.0131619,860,547,1.10128,0.329392
-357,477,1.09686,-0.393494,-0.0015868,0.00558167,0.000334633,0.00559725,-0.00160238,1.52425,0.0043648,0.0105887,867,547,1.09683,0.393465
-350,477,1.10931,-0.418335,-0.00210587,0.00619829,0.00148225,0.00645493,-0.00236251,1.39935,0.00527035,0.00989055,874,547,1.10934,0.418352
-343,477,1.10065,-0.455078,-0.00278448,0.0067241,0.00288781,0.00753243,-0.00359281,1.29787,0.00655603,0.0176591,881,547,1.10063,0.455056
-336,477,1.08954,-0.510559,-0.0029898,0.00711224,0.00435096,0.00872783,-0.00460538,1.21526,0.00781962,0.0214383,888,547,1.08954,0.510567
-329,477,1.10449,-0.565979,-0.0030203,0.00667188,0.00592235,0.00947816,-0.00582658,1.12829,0.00891964,0.0264458,895,547,1.10447,0.565953
-322,477,0.997009,-0.576538,-0.00273745,0.00623805,0.0072662,0.0102906,-0.00679005,1.06204,0.00993034,0.029964,902,547,0.997023,0.576509
-315,477,0.85321,-0.633606,-0.00211622,0.00571049,0.00794445,0.0106531,-0.00705885,1.01425,0.010296,0.0346123,909,547,0.853199,0.633628
-308,477,0.711426,-0.814941,-0.00161798,0.00495152,0.00860544,0.0108778,-0.00754427,0.967717,0.0106939,0.0409082,916,547,0.711442,0.81494
-301,477,0.446472,-0.906311,-0.000757104,0.00406703,0.00882878,0.0108073,-0.00749739,0.918747,0.0106257,0.0459869,923,547,0.446498,0.906286
-294,477,0.131958,-0.894836,0.000301353,0.00351809,0.00883784,0.0108927,-0.00707328,0.875406,0.0104505,0.0445017,930,547,0.131983,0.894865
-287,477,0.0148315,-0.838684,0,0,0,0,0,0,0,-1,937,547,0.0148484,0.838692
-280,477,1.83588,-0.22168,0,0,0,0,0,0,0,-1,944,547,1.8359,0.22165
-273,477,2.1543,-0.227234,0,0,0,0,0,0,0,-1,951,547,2.15428,0.227253
-266,477,2.94769,-0.975464,0,0,0,0,0,0,0,-1,958,547,2.94772,0.975464
-259,477,3.02679,-1.1261,0,0,0,0,0,0,0,-1,965,547,3.02677,1.1261
-252,477,0.459045,-3.23535,0,0,0,0,0,0,0,-1,972,547,0.459023,3.23537
-245,477,2.09558,3.46637,0,0,0,0,0,0,0,-1,979,547,2.0956,-3.46639
-238,477,2.75037,3.38409,0,0,0,0,0,0,0,-1,986,547,2.75034,-3.38412
-231,477,3.88312,2.98041,0,0,0,0,0,0,0,-1,993,547,3.88313,-2.98038
-224,477,0,0,0,0,0,0,0,0,0,-1,1000,547,0,0
-217,477,0,0,0,0,0,0,0,0,0,-1,1007,547,0,0
-210,477,0,0,0,0,0,0,0,0,0,-1,1014,547,0,0
-203,477,0,0,0,0,0,0,0,0,0,-1,1021,547,0,0
-196,477,0,0,0,0,0,0,0,0,0,-1,1028,547,0,0
-189,477,0,0,0,0,0,0,0,0,0,-1,1035,547,0,0
-182,477,0,0,0,0,0,0,0,0,0,-1,1042,547,0,0
-175,477,0,0,0,0,0,0,0,0,0,-1,1049,547,0,0
-168,477,0,0,0,0,0,0,0,0,0,-1,1056,547,0,0
-161,477,0,0,0,0,0,0,0,0,0,-1,1063,547,0,0
-154,477,0,0,0,0,0,0,0,0,0,-1,1070,547,0,0
-147,477,0,0,0,0,0,0,0,0,0,-1,1077,547,0,0
-140,477,0,0,0,0,0,0,0,0,0,-1,1084,547,0,0
-133,477,0,0,0,0,0,0,0,0,0,-1,1091,547,0,0
-126,477,0,0,0,0,0,0,0,0,0,-1,1098,547,0,0
-119,477,0,0,0,0,0,0,0,0,0,-1,1105,547,0,0
-112,477,0,0,0,0,0,0,0,0,0,-1,1112,547,0,0
-105,477,0,0,0,0,0,0,0,0,0,-1,1119,547,0,0
-98,477,0,0,0,0,0,0,0,0,0,-1,1126,547,0,0
-91,477,0,0,0,0,0,0,0,0,0,-1,1133,547,0,0
-84,477,0,0,0,0,0,0,0,0,0,-1,1140,547,0,0
-77,477,0,0,0,0,0,0,0,0,0,-1,1147,547,0,0
-70,477,0,0,0,0,0,0,0,0,0,-1,1154,547,0,0
-63,477,0,0,0,0,0,0,0,0,0,-1,1161,547,0,0
-56,477,0,0,0,0,0,0,0,0,0,-1,1168,547,0,0
-49,477,0,0,0,0,0,0,0,0,0,-1,1175,547,0,0
-42,477,0,0,0,0,0,0,0,0,0,-1,1182,547,0,0
-35,477,0,0,0,0,0,0,0,0,0,-1,1189,547,0,0
-28,477,0,0,0,0,0,0,0,0,0,-1,1196,547,0,0
-21,477,0,0,0,0,0,0,0,0,0,-1,1203,547,0,0
-14,477,0,0,0,0,0,0,0,0,0,-1,1210,547,0,0
-7,477,0,0,0,0,0,0,0,0,0,-1,1217,547,0,0
0,477,0,0,0,0,0,0,0,0,0,-1,1224,547,0,0
7,477,0,0,0,0,0,0,0,0,0,-1,1231,547,0,0
14,477,0,0,0,0,0,0,0,0,0,-1,1238,547,0,0
21,477,0,0,0,0,0,0,0,0,0,-1,1245,547,0,0
28,477,0,0,0,0,0,0,0,0,0,-1,1252,547,0,0
35,477,0,0,0,0,0,0,0,0,0,-1,1259,547,0,0
42,477,0,0,0,0,0,0,0,0,0,-1,1266,547,0,0
49,477,0,0,0,0,0,0,0,0,0,-1,1273,547,0,0
56,477,0,0,0,0,0,0,0,0,0,-1,1280,547,0,0
63,477,0,0,0,0,0,0,0,0,0,-1,1287,547,0,0
70,477,0,0,0,0,0,0,0,0,0,-1,1294,547,0,0
77,477,0,0,0,0,0,0,0,0,0,-1,1301,547,0,0
84,477,0,0,0,0,0,0,0,0,0,-1,1308,547,0,0
91,477,0,0,0,0,0,0,0,0,0,-1,1315,547,0,0
98,477,0,0,0,0,0,0,0,0,0,-1,1322,547,0,0
105,477,0,0,0,0,0,0,0,0,0,-1,1329,547,0,0
112,477,0,0,0,0,0,0,0,0,0,-1,1336,547,0,0
119,477,0,0,0,0,0,0,0,0,0,-1,1343,547,0,0
126,477,0,0,0,0,0,0,0,0,0,-1,1350,547,0,0
133,477,0,0,0,0,0,0,0,0,0,-1,1357,547,0,0
140,477,0,0,0,0,0,0,0,0,0,-1,1364,547,0,0
147,477,0,0,0,0,0,0,0,0,0,-1,1371,547,0,0
154,477,0,0,0,0,0,0,0,0,0,-1,1378,547,0,0
161,477,0,0,0,0,0,0,0,0,0,-1,1385,547,0,0
168,477,0,0,0,0,0,0,0,0,0,-1,1392,547,0,0
175,477,0,0,0,0,0,0,0,0,0,-1,1399,547,0,0
182,477,0,0,0,0,0,0,0,0,0,-1,1406,547,0,0
189,477,0,0,0,0,0,0,0,0,0,-1,1413,547,0,0
196,477,0,0,0,0,0,0,0,0,0,-1,1420,547,0,0
203,477,0,0,0,0,0,0,0,0,0,-1,1427,547,0,0
210,477,0,0,0,0,0,0,0,0,0,-1,1434,547,0,0
217,477,0,0,0,0,0,0,0,0,0,-1,1441,547,0,0
224,477,0,0,0,0,0,0,0,0,0,-1,1448,547,0,0
231,477,0,0,0,0,0,0,0,0,0,-1,1455,547,0,0
238,477,0,0,0,0,0,0,0,0,0,-1,1462,547,0,0
245,477,0,0,0,0,0,0,0,0,0,-1,1469,547,0,0
252,477,0,0,0,0,0,0,0,0,0,-1,1476,547,0,0
259,477,0,0,0,0,0,0,0,0,0,-1,1483,547,0,0
266,477,0,0,0,0,0,0,0,0,0,-1,1490,547,0,0
273,477,0,0,0,0,0,0,0,0,0,-1,1497,547,0,0
280,477,0,0,0,0,0,0,0,0,0,-1,1504,547,0,0
287,477,0,0,0,0,0,0,0,0,0,-1,1511,547,0,0
294,477,0,0,0,0,0,0,0,0,0,-1,1518,547,0,0
301,477,0,0,0,0,0,0,0,0,0,-1,1525,547,0,0
308,477,0,0,0,0,0,0,0,0,0,-1,1532,547,0,0
315,477,0,0,0,0,0,0,0,0,0,-1,1539,547,0,0
322,477,0,0,0,0,0,0,0,0,0,-1,1546,547,0,0
329,477,0,0,0,0,0,0,0,0,0,-1,1553,547,0,0
336,477,0,0,0,0,0,0,0,0,0,-1,1560,547,0,0
343,477,0,0,0,0,0,0,0,0,0,-1,1567,547,0,0
350,477,-0.269653,-1.56549,0,0,0,0,0,0,0,-1,1574,547,-0.26969,1.56551
357,477,1.00574,-1.58484,0,0,0,0,0,0,0,-1,1581,547,1.00572,1.58487
364,477,0.181152,0.722107,0.0726377,0.00224537,0.0122413,0.0747057,0.000177357,0.167358,0.0497448,0.0428366,1588,547,0.181213,-0.722108
371,477,0.660645,0.419373,0.0589341,-0.000865357,0.00895418,0.0602461,-0.00217734,0.145487,0.0409091,0.045894,1595,547,0.660598,-0.419388
378,477,1.27258,-0.088501,0.0460714,-0.00312787,0.00389684,0.0463782,-0.00343461,0.0785524,0.0321249,0.0451292,1602,547,1.27263,0.0885106
385,477,1.96008,-0.908081,0,0,0,0,0,0,0,-1,1609,547,1.96008,0.908107
392,477,3.47095,2.1275,0,0,0,0,0,0,0,-1,1616,547,3.47094,-2.12752
399,477,3.39478,1.70044,0,0,0,0,0,0,0,-1,1623,547,3.39479,-1.70047
406,477,4.17358,-0.514954,0,0,0,0,0,0,0,-1,1630,547,4.1736,0.514946
413,477,3.71753,0.00994873,0,0,0,0,0,0,0,-1,1637,547,3.71755,-0.00994119
420,477,2.80762,0.165039,0,0,0,0,0,0,0,-1,1644,547,2.80766,-0.165017
427,477,3.07312,-0.0286255,-0.00364853,-0.0199129,-0.0127452,0.00333793,-0.0268994,-0.501431,0.0191428,0.0453897,1651,547,3.07312,0.02864
434,477,3.13428,-0.00512695,-0.00591372,-0.0196039,-0.0125685,0.00155278,-0.0270704,-0.536045,0.0185862,0.042515,1658,547,3.13427,0.00511601
441,477,2.48645,-0.697266,-0.00679411,-0.0188356,-0.0116521,0.000300807,-0.0259305,-0.546936,0.0173881,0.045819,1665,547,2.48643,0.697242
448,477,2.40222,-0.839172,0,0,0,0,0,0,0,-1,1672,547,2.40227,0.839153
455,477,2.3606,-0.64386,-0.0070207,-0.0142792,-0.00920006,-0.000759908,-0.0205399,-0.59753,0.0134472,0.0324685,1679,547,2.36055,0.643848
462,477,2.39172,-0.59198,-0.00640036,-0.0111012,-0.00745852,-0.00093068,-0.0165709,-0.632757,0.0107505,0.0218973,1686,547,2.39171,0.59199
469,477,2.39294,-0.521729,-0.00574028,-0.00800716,-0.00610244,-0.000666909,-0.0130805,-0.693577,0.00850677,0.0146335,1693,547,2.39297,0.521751
476,477,2.39124,-0.480225,-0.00455893,-0.00506802,-0.00442053,-0.000385626,-0.00924132,-0.756639,0.00603645,0.014689,1700,547,2.39128,0.480202
483,477,2.39587,-0.457947,-0.00338035,-0.00268458,-0.00280338,-0.000207589,-0.00585735,-0.84713,0.00383757,0.0111158,1707,547,2.39584,0.457973
490,477,2.3772,-0.429199,-0.00232086,-0.00112242,-0.00150351,-0.000103123,-0.00334016,-0.975025,0.00219321,0.0114654,1714,547,2.37724,0.429196
497,477,2.3866,-0.385498,-0.00140469,0.000156905,-0.000869082,0.000544418,-0.0017922,-1.15137,0.00141171,0.0130215,1721,547,2.38654,0.385498
504,477,2.37488,-0.351929,-0.000464411,0.00113641,-0.000974026,0.00159671,-0.000924707,-1.12933,0.00147287,0.017215,1728,547,2.37493,0.351951
511,477,2.37732,-0.339539,0.000400067,0.00103753,-0.000581765,0.00138215,5.54439e-05,-1.036,0.000903522,0.0209935,1735,547,2.37727,0.339552
518,477,2.41858,-0.308044,0.00111835,0.00116108,-0.000133381,0.0012748,0.00100463,-0.864817,0.000775655,0.0185755,1742,547,2.41862,0.308015
525,477,2.41663,-0.268311,0.00199701,0.00176106,0.000175205,0.00209026,0.00166781,0.489089,0.00127621,0.0158041,1749,547,2.4166,0.26829
532,477,2.37463,-0.238892,0.00290381,0.00231886,0.000854604,0.0035146,0.00170807,0.620527,0.00202942,0.0173018,1756,547,2.3746,0.238874
539,477,2.35132,-0.154968,0.00404809,0.00312721,0.00179358,0.00543938,0.00173591,0.659753,0.00320818,0.015419,1763,547,2.35135,0.154982
546,477,2.38098,-0.120056,0.00538451,0.00395197,0.00328967,0.00803498,0.0013015,0.678205,0.00497984,0.0175608,1770,547,2.38093,0.120059
553,477,2.38367,-0.128052,0.00700917,0.00497419,0.00572694,0.0118083,0.000175055,0.697482,0.00781451,0.0160456,1777,547,2.38371,0.128055
560,477,2.39465,-0.059082,0.00899672,0.00573711,0.00994591,0.0174455,-0.00271165,0.704186,0.0126316,0.027797,1784,547,2.3946,0.0591105
567,477,2.46301,0.112427,0.0114521,0.00657317,0.0146755,0.0238895,-0.00586425,0.703038,0.0181988,0.0352811,1791,547,2.46297,-0.112413
574,477,2.56506,0.149841,0.0146526,0.00710354,0.0210829,0.0322962,-0.0105401,0.69682,0.0257729,0.0394197,1798,547,2.56509,-0.149829
581,477,2.77686,-0.0734253,0,0,0,0,0,0,0,-1,1805,547,2.77683,0.0733971
588,477,3.05713,0.718201,0,0,0,0,0,0,0,-1,1812,547,3.05709,-0.718176
595,477,3.51331,0.64386,0,0,0,0,0,0,0,-1,1819,547,3.51325,-0.64384
602,477,3.79773,0.855408,0,0,0,0,0,0,0,-1,1826,547,3.79776,-0.855415
609,477,0,0,0,0,0,0,0,0,0,-1,1833,547,0,0
616,477,0,0,0,0,0,0,0,0,0,-1,1840,547,0,0
623,477,0,0,0,0,0,0,0,0,0,-1,1847,547,0,0
630,477,0,0,0,0,0,0,0,0,0,-1,1854,547,0,0
637,477,0,0,0,0,0,0,0,0,0,-1,1861,547,0,0
644,477,0,0,0,0,0,0,0,0,0,-1,1868,547,0,0
651,477,0,0,0,0,0,0,0,0,0,-1,1875,547,0,0
658,477,0,0,0,0,0,0,0,0,0,-1,1882,547,0,0
665,477,0,0,0,0,0,0,0,0,0,-1,1889,547,0,0
672,477,0,0,0,0,0,0,0,0,0,-1,1896,547,0,0
679,477,0,0,0,0,0,0,0,0,0,-1,1903,547,0,0
686,477,0,0,0,0,0,0,0,0,0,-1,1910,547,0,0
693,477,0,0,0,0,0,0,0,0,0,-1,1917,547,0,0
700,477,0,0,0,0,0,0,0,0,0,-1,1924,547,0,0
707,477,0,0,0,0,0,0,0,0,0,-1,1931,547,0,0
714,477,0,0,0,0,0,0,0,0,0,-1,1938,547,0,0
721,477,0,0,0,0,0,0,0,0,0,-1,1945,547,0,0
728,477,0,0,0,0,0,0,0,0,0,-1,1952,547,0,0
735,477,0,0,0,0,0,0,0,0,0,-1,1959,547,0,0
742,477,0,0,0,0,0,0,0,0,0,-1,1966,547,0,0
749,477,0,0,0,0,0,0,0,0,0,-1,1973,547,0,0
756,477,0,0,0,0,0,0,0,0,0,-1,1980,547,0,0
763,477,0,0,0,0,0,0,0,0,0,-1,1987,547,0,0
770,477,0,0,0,0,0,0,0,0,0,-1,1994,547,0,0
777,477,0,0,0,0,0,0,0,0,0,-1,2001,547,0,0
784,477,0,0,0,0,0,0,0,0,0,-1,2008,547,0,0
791,477,0,0,0,0,0,0,0,0,0,-1,2015,547,0,0
798,477,0,0,0,0,0,0,0,0,0,-1,2022,547,0,0
805,477,0,0,0,0,0,0,0,0,0,-1,2029,547,0,0
812,477,0,0,0,0,0,0,0,0,0,-1,2036,547,0,0
-700,470,0,0,0,0,0,0,0,0,0,-1,524,554,0,0
-693,470,0,0,0,0,0,0,0,0,0,-1,531,554,0,0
-686,470,0,0,0,0,0,0,0,0,0,-1,538,554,0,0
-679,470,0,0,0,0,0,0,0,0,0,-1,545,554,0,0
-672,470,0,0,0,0,0,0,0,0,0,-1,552,554,0,0
-665,470,0,0,0,0,0,0,0,0,0,-1,559,554,0,0
-658,470,0,0,0,0,0,0,0,0,0,-1,566,554,0,0
-651,470,0,0,0,0,0,0,0,0,0,-1,573,554,0,0
-644,470,0,0,0,0,0,0,0,0,0,-1,580,554,0,0
-637,470,0,0,0,0,0,0,0,0,0,-1,587,554,0,0
-630,470,0,0,0,0,0,0,0,0,0,-1,594,554,0,0
-623,470,0,0,0,0,0,0,0,0,0,-1,601,554,0,0
-616,470,0,0,0,0,0,0,0,0,0,-1,608,554,0,0
-609,470,0,0,0,0,0,0,0,0,0,-1,615,554,0,0
-602,470,0,0,0,0,0,0,0,0,0,-1,622,554,0,0
-595,470,0,0,0,0,0,0,0,0,0,-1,629,554,0,0
-588,470,0,0,0,0,0,0,0,0,0,-1,636,554,0,0
-581,470,0,0,0,0,0,0,0,0,0,-1,643,554,0,0
-574,470,0,0,0,0,0,0,0,0,0,-1,650,554,0,0
-567,470,0,0,0,0,0,0,0,0,0,-1,657,554,0,0
-560,470,0,0,0,0,0,0,0,0,0,-1,664,554,0,0
-553,470,0,0,0,0,0,0,0,0,0,-1,671,554,0,0
-546,470,0,0,0,0,0,0,0,0,0,-1,678,554,0,0
-539,470,0,0,0,0,0,0,0,0,0,-1,685,554,0,0
-532,470,0,0,0,0,0,0,0,0,0,-1,692,554,0,0
-525,470,0,0,0,0,0,0,0,0,0,-1,699,554,0,0
-518,470,0,0,0,0,0,0,0,0,0,-1,706,554,0,0
-511,470,0,0,0,0,0,0,0,0,0,-1,713,554,0,0
-504,470,0,0,0,0,0,0,0,0,0,-1,720,554,0,0
-497,470,0,0,0,0,0,0,0,0,0,-1,727,554,0,0
-490,470,0.539246,1.54315,0.0474701,0.0464535,0.00594991,0.0529334,0.0409902,0.742786,0.0320582,0.0481807,734,554,0.539245,-1.54315
-483,470,0.245544,1.31793,0.0461763,0.0416558,-0.00329522,0.0479119,0.0399201,-0.484793,0.0296387,0.0448365,741,554,0.245549,-1.31795
-476,470,0.298645,0.798096,0.0438793,0.0365175,-0.00784552,0.0488645,0.0315323,-0.566057,0.0286063,0.0426802,748,554,0.298628,-0.798117
-469,470,-0.250244,0.282715,0,0,0,0,0,0,0,-1,755,554,-0.25025,-0.282741
-462,470,-0.0657959,0.257263,0.0359567,0.0280508,-0.0106595,0.0433726,0.0206349,-0.60784,0.025051,0.0454628,762,554,-0.0658147,-0.257267
-455,470,0.244751,0.166016,0,0,0,0,0,0,0,-1,769,554,0.244775,-0.16603
-448,470,0.580322,0.0512085,0.0264627,0.0197816,-0.00683,0.0307253,0.0155189,-0.557952,0.0177396,0.0485337,776,554,0.580314,-0.0512171
-441,470,0.993835,0.0500488,0.0221528,0.0164149,-0.00437314,0.0245141,0.0140536,-0.495092,0.0142038,0.0424756,783,554,0.993807,-0.0500732
-434,470,1.06836,0.0241699,0.0174756,0.0136896,-0.00350953,0.0195701,0.0115951,-0.538071,0.0113631,0.0217636,790,554,1.06835,-0.0241969
-427,470,1.07056,-0.00982666,0.0130968,0.0109323,-0.0020788,0.0143582,0.00967092,-0.545399,0.00845452,0.00996404,797,554,1.07058,0.00983687
-420,470,1.0661,-0.0638428,0.00997434,0.00870349,-0.000881484,0.0104256,0.00825228,-0.473104,0.00635112,0.0113213,804,554,1.0661,0.0638557
-413,470,1.06256,-0.0961914,0.00675758,0.00746362,-0.000208278,0.00752048,0.00670071,-1.30429,0.00476397,0.0125489,811,554,1.06258,0.0962099
-406,470,1.06207,-0.120972,0.00431304,0.00637493,-0.000169215,0.00638873,0.00429925,-1.48945,0.00376136,0.00939808,818,554,1.06208,0.120975
-399,470,1.08411,-0.171143,0.00232292,0.00532099,-0.000664016,0.00546148,0.00218244,-1.3623,0.0031743,0.0123161,825,554,1.0841,0.171149
-392,470,1.0885,-0.214722,0.000640991,0.00493161,-0.00108319,0.00518956,0.000383043,-1.33701,0.00333935,0.013722,832,554,1.0885,0.214715
-385,470,1.08868,-0.221558,-0.000262917,0.00485834,-0.00123645,0.00514123,-0.000545811,-1.34587,0.00362315,0.0107535,839,554,1.08869,0.221586
-378,470,1.09155,-0.267212,-0.000966942,0.00494276,-0.00106203,0.00512782,-0.001152,-1.39828,0.00386028,0.0152282,846,554,1.09157,0.267237
-371,470,1.09363,-0.295593,-0.00156888,0.00546792,-0.000681221,0.00553326,-0.00163422,-1.47517,0.00433744,0.0130294,853,554,1.09362,0.295619
-364,470,1.07336,-0.332031,-0.00208245,0.006282,-0.000542332,0.00631702,-0.00211746,-1.50632,0.00506686,0.0126324,860,554,1.07334,0.332036
-357,470,1.05371,-0.382446,-0.00201182,0.00729597,0.000647354,0.00734078,-0.00205663,1.50169,0.00570434,0.0135288,867,554,1.05372,0.382436
-350,470,1.07611,-0.424255,-0.0022855,0.00793694,0.00200407,0.00831579,-0.00266435,1.38396,0.00661336,0.0100203,874,554,1.07612,0.424278
-343,470,1.06842,-0.463806,-0.00259398,0.00846312,0.00361288,0.00953895,-0.0036698,1.28138,0.00787302,0.0172067,881,554,1.06839,0.463788
-336,470,0.99707,-0.525085,-0.00237444,0.00861665,0.00541702,0.0108377,-0.00459544,1.1817,0.00915002,0.0237021,888,554,0.997052,0.525108
-329,470,0.901794,-0.632507,-0.0019944,0.00769786,0.00743611,0.0117276,-0.00602412,1.07418,0.0104238,0.032405,895,554,0.90179,0.632531
-322,470,0.707336,-0.66803,-0.0013015,0.00673598,0.00923737,0.0127909,-0.00735645,0.990575,0.0117723,0.0368889,902,554,0.70733,0.668051
-315,470,0.566772,-0.701111,-0.000346042,0.00566141,0.0104223,0.0135042,-0.00818881,0.925697,0.0126492,0.040732,909,554,0.566791,0.701107
-308,470,0.496338,-1.1283,0.000417284,0.0040759,0.011564,0.0139544,-0.00946121,0.863843,0.0136017,0.043566,916,554,0.496343,1.12831
-301,470,0.250977,-1.21539,0.00133338,0.00238837,0.0120632,0.0139356,-0.0102139,0.807248,0.0139978,0.047597,923,554,0.250966,1.21539
-294,470,-0.0432129,-1.21582,0.00246917,0.000988168,0.0120417,0.0137931,-0.0103358,0.75469,0.0139784,0.0495236,930,554,-0.0432269,1.21583
-287,470,-0.0391846,-1.18665,0,0,0,0,0,0,0,-1,937,554,-0.0392001,1.18662
-280,470,0.909119,-1.7276,0,0,0,0,0,0,0,-1,944,554,0.909103,1.72759
-273,470,0.207275,-0.444519,0,0,0,0,0,0,0,-1,951,554,0.207305,0.444545
-266,470,0.282654,-0.191284,0,0,0,0,0,0,0,-1,958,554,0.282665,0.191298
-259,470,1.53186,-2.82666,0,0,0,0,0,0,0,-1,965,554,1.53187,2.82664
-252,470,1.44788,-2.93378,0,0,0,0,0,0,0,-1,972,554,1.4479,2.93376
-245,470,2.43671,2.97681,0,0,0,0,0,0,0,-1,979,554,2.43673,-2.97678
-238,470,0,0,0,0,0,0,0,0,0,-1,986,554,0,0
-231,470,0,0,0,0,0,0,0,0,0,-1,993,554,0,0
-224,470,0,0,0,0,0,0,0,0,0,-1,1000,554,0,0
-217,470,0,0,0,0,0,0,0,0,0,-1,1007,554,0,0
-210,470,0,0,0,0,0,0,0,0,0,-1,1014,554,0,0
-203,470,0,0,0,0,0,0,0,0,0,-1,1021,554,0,0
-196,470,0,0,0,0,0,0,0,0,0,-1,1028,554,0,0
-189,470,0,0,0,0,0,0,0,0,0,-1,1035,554,0,0
-182,470,0,0,0,0,0,0,0,0,0,-1,1042,554,0,0
-175,470,0,0,0,0,0,0,0,0,0,-1,1049,554,0,0
-168,470,0,0,0,0,0,0,0,0,0,-1,1056,554,0,0
-161,470,0,0,0,0,0,0,0,0,0,-1,1063,554,0,0
-154,470,0,0,0,0,0,0,0,0,0,-1,1070,554,0,0
-147,470,0,0,0,0,0,0,0,0,0,-1,1077,554,0,0
-140,470,0,0,0,0,0,0,0,0,0,-1,1084,554,0,0
-133,470,0,0,0,0,0,0,0,0,0,-1,1091,554,0,0
-126,470,0,0,0,0,0,0,0,0,0,-1,1098,554,0,0
-119,470,0,0,0,0,0,0,0,0,0,-1,1105,554,0,0
-112,470,0,0,0,0,0,0,0,0,0,-1,1112,554,0,0
-105,470,0,0,0,0,0,0,0,0,0,-1,1119,554,0,0
-98,470,0,0,0,0,0,0,0,0,0,-1,1126,554,0,0
-91,470,0,0,0,0,0,0,0,0,0,-1,1133,554,0,0
-84,470,0,0,0,0,0,0,0,0,0,-1,1140,554,0,0
-77,470,0,0,0,0,0,0,0,0,0,-1,1147,554,0,0
-70,470,0,0,0,0,0,0,0,0,0,-1,1154,554,0,0
-63,470,0,0,0,0,0,0,0,0,0,-1,1161,554,0,0
-56,470,0,0,0,0,0,0,0,0,0,-1,1168,554,0,0
-49,470,0,0,0,0,0,0,0,0,0,-1,1175,554,0,0
-42,470,0,0,0,0,0,0,0,0,0,-1,1182,554,0,0
-35,470,0,0,0,0,0,0,0,0,0,-1,1189,554,0,0
-28,470,0,0,0,0,0,0,0,0,0,-1,1196,554,0,0
-21,470,0,0,0,0,0,0,0,0,0,-1,1203,554,0,0
-14,470,0,0,0,0,0,0,0,0,0,-1,1210,554,0,0
-7,470,0,0,0,0,0,0,0,0,0,-1,1217,554,0,0
0,470,0,0,0,0,0,0,0,0,0,-1,1224,554,0,0
7,470,0,0,0,0,0,0,0,0,0,-1,1231,554,0,0
14,470,0,0,0,0,0,0,0,0,0,-1,1238,554,0,0
21,470,0,0,0,0,0,0,0,0,0,-1,1245,554,0,0
28,470,0,0,0,0,0,0,0,0,0,-1,1252,554,0,0
35,470,0,0,0,0,0,0,0,0,0,-1,1259,554,0,0
42,470,0,0,0,0,0,0,0,0,0,-1,1266,554,0,0
49,470,0,0,0,0,0,0,0,0,0,-1,1273,554,0,0
56,470,0,0,0,0,0,0,0,0,0,-1,1280,554,0,0
63,470,0,0,0,0,0,0,0,0,0,-1,1287,554,0,0
70,470,0,0,0,0,0,0,0,0,0,-1,1294,554,0,0
77,470,0,0,0,0,0,0,0,0,0,-1,1301,554,0,0
84,470,0,0,0,0,0,0,0,0,0,-1,1308,554,0,0
91,470,0,0,0,0,0,0,0,0,0,-1,1315,554,0,0
98,470,0,0,0,0,0,0,0,0,0,-1,1322,554,0,0
105,470,0,0,0,0,0,0,0,0,0,-1,1329,554,0,0
112,470,0,0,0,0,0,0,0,0,0,-1,1336,554,0,0
119,470,0,0,0,0,0,0,0,0,0,-1,1343,554,0,0
126,470,0,0,0,0,0,0,0,0,0,-1,1350,554,0,0
133,470,0,0,0,0,0,0,0,0,0,-1,1357,554,0,0
140,470,0,0,0,0,0,0,0,0,0,-1,1364,554,0,0
147,470,0,0,0,0,0,0,0,0,0,-1,1371,554,0,0
154,470,0,0,0,0,0,0,0,0,0,-1,1378,554,0,0
161,470,0,0,0,0,0,0,0,0,0,-1,1385,554,0,0
168,470,0,0,0,0,0,0,0,0,0,-1,1392,554,0,0
175,470,0,0,0,0,0,0,0,0,0,-1,1399,554,0,0
182,470,0,0,0,0,0,0,0,0,0,-1,1406,554,0,0
189,470,0,0,0,0,0,0,0,0,0,-1,1413,554,0,0
196,470,0,0,0,0,0,0,0,0,0,-1,1420,554,0,0
203,470,0,0,0,0,0,0,0,0,0,-1,1427,554,0,0
210,470,0,0,0,0,0,0,0,0,0,-1,1434,554,0,0
217,470,0,0,0,0,0,0,0,0,0,-1,1441,554,0,0
224,470,0,0,0,0,0,0,0,0,0,-1,1448,554,0,0
231,470,0,0,0,0,0,0,0,0,0,-1,1455,554,0,0
238,470,0,0,0,0,0,0,0,0,0,-1,1462,554,0,0
245,470,0,0,0,0,0,0,0,0,0,-1,1469,554,0,0
252,470,0,0,0,0,0,0,0,0,0,-1,1476,554,0,0
259,470,0,0,0,0,0,0,0,0,0,-1,1483,554,0,0
266,470,0,0,0,0,0,0,0,0,0,-1,1490,554,0,0
273,470,0,0,0,0,0,0,0,0,0,-1,1497,554,0,0
280,470,0,0,0,0,0,0,0,0,0,-1,1504,554,0,0
287,470,0,0,0,0,0,0,0,0,0,-1,1511,554,0,0
294,470,0,0,0,0,0,0,0,0,0,-1,1518,554,0,0
301,470,0,0,0,0,0,0,0,0,0,-1,1525,554,0,0
308,470,0,0,0,0,0,0,0,0,0,-1,1532,554,0,0
315,470,0,0,0,0,0,0,0,0,0,-1,1539,554,0,0
322,470,0,0,0,0,0,0,0,0,0,-1,1546,554,0,0
329,470,0,0,0,0,0,0,0,0,0,-1,1553,554,0,0
336,470,0,0,0,0,0,0,0,0,0,-1,1560,554,0,0
343,470,0,0,0,0,0,0,0,0,0,-1,1567,554,0,0
350,470,0,0,0,0,0,0,0,0,0,-1,1574,554,0,0
357,470,0,0,0,0,0,0,0,0,0,-1,1581,554,0,0
364,470,-0.930786,0.952881,0.0819784,0.000869793,0.0169922,0.0853944,-0.00254618,0.198388,0.057797,0.0446787,1588,554,-0.93076,-0.952897
371,470,-0.010376,0.42981,0.0666573,-0.00234818,0.0125,0.0688518,-0.00454272,0.173791,0.0474879,0.0435005,1595,554,-0.0103555,-0.429833
378,470,0.699097,0.00726318,0.051845,-0.00410322,0.0062968,0.052545,-0.00480315,0.110702,0.0367358,0.0469607,1602,554,0.699134,-0.00724664
385,470,3.22034,2.22675,0,0,0,0,0,0,0,-1,1609,554,3.22029,-2.22672
392,470,3.50854,2.04767,0.0287136,-0.0104859,-0.00368018,0.0290561,-0.0108284,-0.092803,0.0238154,0.0467817,1616,554,3.50859,-2.04764
399,470,3.51038,1.68347,0.0191899,-0.0144141,-0.00687515,0.0205421,-0.0157663,-0.1942,0.021023,0.0455286,1623,554,3.5104,-1.68344
406,470,3.49731,1.58728,0.0110574,-0.017281,-0.00950673,0.0139511,-0.0201747,-0.295479,0.0198115,0.0479323,1630,554,3.49727,-1.58729
413,470,3.56335,1.33521,0,0,0,0,0,0,0,-1,1637,554,3.56339,-1.33519
420,470,3.48267,0.965149,-0.000847677,-0.0223959,-0.0133962,0.00556952,-0.0288131,-0.446731,0.0213092,0.0457939,1644,554,3.48268,-0.965147
427,470,3.27905,0.680847,-0.00479079,-0.0232102,-0.0140503,0.00279918,-0.0308002,-0.495289,0.0215272,0.0444447,1651,554,3.27908,-0.680834
434,470,3.43274,0.663635,-0.00739557,-0.0228551,-0.0139137,0.000791308,-0.031042,-0.53185,0.0209634,0.0418439,1658,554,3.43273,-0.663638
441,470,3.55225,0.317627,-0.00844935,-0.0220105,-0.0129197,-0.000638977,-0.0298208,-0.543745,0.019671,0.0424846,1665,554,3.5522,-0.317602
448,470,3.75208,-0.254639,-0.00893766,-0.0201771,-0.0117553,-0.00152787,-0.0275869,-0.562427,0.0179037,0.044947,1672,554,3.75209,0.254632
455,470,2.32837,-0.771973,-0.00888058,-0.0170448,-0.0102401,-0.00193889,-0.0239865,-0.595732,0.0153855,0.0406258,1679,554,2.32835,0.771963
462,470,2.552,-0.800171,-0.00824502,-0.013534,-0.00833632,-0.00214379,-0.0196352,-0.631807,0.0124373,0.0378991,1686,554,2.55202,0.800165
469,470,2.49048,-0.607544,-0.00755507,-0.0100881,-0.00690527,-0.00180115,-0.0158421,-0.694699,0.0100151,0.0267946,1693,554,2.49052,0.607538
476,470,2.41418,-0.514709,-0.00624584,-0.00673895,-0.00507975,-0.00140666,-0.0115781,-0.761149,0.00729521,0.015155,1700,554,2.41415,0.51472
483,470,2.41016,-0.473938,-0.00483035,-0.00409541,-0.00326276,-0.00117949,-0.00774626,-0.841475,0.00481936,0.0118622,1707,554,2.41011,0.47392
490,470,2.39392,-0.429932,-0.00349638,-0.00234925,-0.00176078,-0.00107097,-0.00477465,-0.942851,0.00289296,0.0121329,1714,554,2.39389,0.429959
497,470,2.40808,-0.390686,-0.00234587,-0.000767221,-0.00103206,-0.000257243,-0.00285585,-1.11185,0.00182421,0.0126258,1721,554,2.40805,0.390671
504,470,2.40515,-0.346252,-0.00124465,0.00039409,-0.0010354,0.000895103,-0.00174566,-1.12012,0.00155078,0.0190069,1728,554,2.40521,0.346282
511,470,2.39294,-0.304932,-0.000206649,0.000427904,-0.000584803,0.000775954,-0.000554698,-1.03395,0.000771784,0.0245702,1735,554,2.39299,0.304912
518,470,2.45654,-0.283081,0.000656968,0.000647976,-0.000242515,0.000895028,0.000409916,-0.77613,0.000517352,0.0244473,1742,554,2.45651,0.283075
525,470,2.4353,-0.250916,0.00160775,0.00119434,2.80635e-05,0.00160964,0.00119245,0.0674712,0.000964587,0.0156281,1749,554,2.43532,0.250941
532,470,2.39587,-0.206665,0.00244206,0.00168796,0.000610767,0.00278278,0.00134723,0.508865,0.00160691,0.0130349,1756,554,2.39589,0.206651
539,470,2.41028,-0.192017,0.00345755,0.00242163,0.00136471,0.00439929,0.00147989,0.604026,0.00258486,0.014456,1763,554,2.41027,0.192016
546,470,2.41443,-0.150146,0.00460856,0.00314969,0.00253772,0.0065196,0.00123865,0.645452,0.00399799,0.0149017,1770,554,2.41437,0.150167
553,470,2.41003,-0.115662,0.00600511,0.00408117,0.00449648,0.00964137,0.000444914,0.680017,0.00628453,0.0106942,1777,554,2.40999,0.115674
560,470,2.41724,-0.0825806,0.00773728,0.00481736,0.00799764,0.0144071,-0.00185249,0.695118,0.010278,0.0105153,1784,554,2.41726,0.0825945
567,470,2.41602,-0.0358887,0.00989578,0.00556237,0.0117503,0.0196774,-0.00421928,0.694224,0.0147276,0.0135957,1791,554,2.41598,0.0358909
574,470,2.57104,-0.129822,0.0127183,0.00594524,0.0168794,0.0265475,-0.00788399,0.686397,0.0208298,0.0349324,1798,554,2.57099,0.129839
581,470,2.78894,0.277893,0.0161927,0.00618581,0.023641,0.0353539,-0.0129755,0.681116,0.0288829,0.0459696,1805,554,2.78893,-0.277914
588,470,2.80298,0.467712,0.0206947,0.00560403,0.0323198,0.0463383,-0.0200395,0.670723,0.039313,0.0487403,1812,554,2.80301,-0.467717
595,470,3.03833,0.588684,0,0,0,0,0,0,0,-1,1819,554,3.0383,-0.588673
602,470,3.67542,1.00299,0,0,0,0,0,0,0,-1,1826,554,3.67543,-1.00301
609,470,4.41345,1.26654,0,0,0,0,0,0,0,-1,1833,554,4.41346,-1.26657
616,470,0,0,0,0,0,0,0,0,0,-1,1840,554,0,0
623,470,0,0,0,0,0,0,0,0,0,-1,1847,554,0,0
630,470,0,0,0,0,0,0,0,0,0,-1,1854,554,0,0
637,470,0,0,0,0,0,0,0,0,0,-1,1861,554,0,0
644,470,0,0,0,0,0,0,0,0,0,-1,1868,554,0,0
651,470,0,0,0,0,0,0,0,0,0,-1,1875,554,0,0
658,470,0,0,0,0,0,0,0,0,0,-1,1882,554,0,0
665,470,0,0,0,0,0,0,0,0,0,-1,1889,554,0,0
672,470,0,0,0,0,0,0,0,0,0,-1,1896,554,0,0
679,470,0,0,0,0,0,0,0,0,0,-1,1903,554,0,0
686,470,0,0,0,0,0,0,0,0,0,-1,1910,554,0,0
693,470,0,0,0,0,0,0,0,0,0,-1,1917,554,0,0
700,470,0,0,0,0,0,0,0,0,0,-1,1924,554,0,0
707,470,0,0,0,0,0,0,0,0,0,-1,1931,554,0,0
714,470,0,0,0,0,0,0,0,0,0,-1,1938,554,0,0
721,470,0,0,0,0,0,0,0,0,0,-1,1945,554,0,0
728,470,0,0,0,0,0,0,0,0,0,-1,1952,554,0,0
735,470,0,0,0,0,0,0,0,0,0,-1,1959,554,0,0
742,470,0,0,0,0,0,0,0,0,0,-1,1966,554,0,0
749,470,0,0,0,0,0,0,0,0,0,-1,1973,554,0,0
756,470,0,0,0,0,0,0,0,0,0,-1,1980,554,0,0
763,470,0,0,0,0,0,0,0,0,0,-1,1987,554,0,0
770,470,0,0,0,0,0,0,0,0,0,-1,1994,554,0,0
777,470,0,0,0,0,0,0,0,0,0,-1,2001,554,0,0
784,470,0,0,0,0,0,0,0,0,0,-1,2008,554,0,0
791,470,0,0,0,0,0,0,0,0,0,-1,2015,554,0,0
798,470,0,0,0,0,0,0,0,0,0,-1,2022,554,0,0
805,470,0,0,0,0,0,0,0,0,0,-1,2029,554,0,0
812,470,0,0,0,0,0,0,0,0,0,-1,2036,554,0,0
-700,463,0,0,0,0,0,0,0,0,0,-1,524,561,0,0
-693,463,0,0,0,0,0,0,0,0,0,-1,531,561,0,0
-686,463,0,0,0,0,0,0,0,0,0,-1,538,561,0,0
-679,463,0,0,0,0,0,0,0,0,0,-1,545,561,0,0
-672,463,0,0,0,0,0,0,0,0,0,-1,552,561,0,0
-665,463,0,0,0,0,0,0,0,0,0,-1,559,561,0,0
-658,463,0,0,0,0,0,0,0,0,0,-1,566,561,0,0
-651,463,0,0,0,0,0,0,0,0,0,-1,573,561,0,0
-644,463,0,0,0,0,0,0,0,0,0,-1,580,561,0,0
-637,463,0,0,0,0,0,0,0,0,0,-1,587,561,0,0
-630,463,0,0,0,0,0,0,0,0,0,-1,594,561,0,0
-623,463,0,0,0,0,0,0,0,0,0,-1,601,561,0,0
-616,463,0,0,0,0,0,0,0,0,0,-1,608,561,0,0
-609,463,0,0,0,0,0,0,0,0,0,-1,615,561,0,0
-602,463,0,0,0,0,0,0,0,0,0,-1,622,561,0,0
-595,463,0,0,0,0,0,0,0,0,0,-1,629,561,0,0
-588,463,0,0,0,0,0,0,0,0,0,-1,636,561,0,0
-581,463,0,0,0,0,0,0,0,0,0,-1,643,561,0,0
-574,463,0,0,0,0,0,0,0,0,0,-1,650,561,0,0
-567,463,0,0,0,0,0,0,0,0,0,-1,657,561,0,0
-560,463,0,0,0,0,0,0,0,0,0,-1,664,561,0,0
-553,463,0,0,0,0,0,0,0,0,0,-1,671,561,0,0
-546,463,0,0,0,0,0,0,0,0,0,-1,678,561,0,0
-539,463,0,0,0,0,0,0,0,0,0,-1,685,561,0,0
-532,463,0,0,0,0,0,0,0,0,0,-1,692,561,0,0
-525,463,0,0,0,0,0,0,0,0,0,-1,699,561,0,0
-518,463,0,0,0,0,0,0,0,0,0,-1,706,561,0,0
-511,463,0,0,0,0,0,0,0,0,0,-1,713,561,0,0
-504,463,0,0,0,0,0,0,0,0,0,-1,720,561,0,0
-497,463,-2.85797,1.85223,0.0493001,0.0375327,0.0207142,0.06495,0.0218827,0.647022,0.038158,0.0483316,727,561,-2.85795,-1.8522
-490,463,-2.81165,1.72125,0.0464611,0.0355478,0.00672458,0.0496645,0.0323445,0.444557,0.0291079,0.0429553,734,561,-2.81167,-1.72123
-483,463,0.0372925,0.480408,0.0434207,0.0328612,-0.0020262,0.0437962,0.0324857,-0.183217,0.0262524,0.0449236,741,561,0.0373192,-0.480395
-476,463,0.119507,-0.0732422,0.0401895,0.0295528,-0.00674893,0.0434638,0.0262786,-0.451698,0.0252762,0.047003,748,561,0.119502,0.073245
-469,463,-0.899719,0.565552,0.0363885,0.0265939,-0.00955707,0.04223,0.0207524,-0.548628,0.0243827,0.0488967,755,561,-0.899725,-0.565575
-462,463,-0.446106,-0.304077,0.0321711,0.0233148,-0.0103486,0.0389992,0.0164867,-0.583238,0.0226056,0.0469138,762,561,-0.446127,0.304098
-455,463,-0.383301,-0.425415,0,0,0,0,0,0,0,-1,769,561,-0.383307,0.425416
-448,463,-0.111511,-0.50531,0,0,0,0,0,0,0,-1,776,561,-0.111491,0.505289
-441,463,0.987,0.0158081,0.0192567,0.0133467,-0.00428266,0.0215049,0.0110985,-0.483408,0.012418,0.0293869,783,561,0.987016,-0.0158085
-434,463,1.03918,0.0167236,0.0149808,0.0109504,-0.00334066,0.016867,0.00906415,-0.513998,0.00974725,0.0114794,790,561,1.03919,-0.0167042
-427,463,1.05066,-0.00671387,0.0108971,0.00847347,-0.00190288,0.0119413,0.00742931,-0.501865,0.00696254,0.00912254,797,561,1.05066,0.00668704
-420,463,1.05988,-0.0446777,0.00803168,0.00651774,-0.000724839,0.00832276,0.00622667,-0.381858,0.00499852,0.00925627,804,561,1.05988,0.0446557
-413,463,1.03638,-0.101074,0.00521139,0.00555883,-9.65261e-05,0.00558384,0.00518637,-1.31722,0.0035974,0.00830504,811,561,1.03636,0.101066
-406,463,1.01654,-0.138,0.00304031,0.00482186,-3.06041e-05,0.00482239,0.00303979,-1.55362,0.00281557,0.00753921,818,561,1.01655,0.137981
-399,463,1.03467,-0.170593,0.0012793,0.00419147,-0.000560144,0.0042955,0.00117528,-1.38718,0.00256335,0.00854935,825,561,1.03466,0.170579
-392,463,1.03406,-0.216492,-0.000242134,0.00424572,-0.00113025,0.00451429,-0.000510713,-1.3375,0.00319341,0.00837787,832,561,1.03408,0.216484
-385,463,1.02411,-0.254395,-0.00103329,0.00467135,-0.00148103,0.00503294,-0.00139488,-1.33134,0.00390421,0.00980172,839,561,1.0241,0.254414
-378,463,1.05042,-0.287964,-0.00157214,0.00523567,-0.0014063,0.00551473,-0.0018512,-1.3749,0.00442458,0.0117112,846,561,1.05044,0.28795
-371,463,1.07758,-0.319336,-0.00197259,0.00628394,-0.00100952,0.00640558,-0.00209423,-1.45088,0.00511347,0.0108365,853,561,1.07756,0.319351
-364,463,1.07092,-0.337036,-0.00245153,0.00773125,-0.000927279,0.007815,-0.00253528,-1.48072,0.0062295,0.0130372,860,561,1.07094,0.337059
-357,463,1.06927,-0.381042,-0.00210768,0.00909922,0.000420963,0.00911501,-0.00212347,1.5333,0.00689437,0.0157693,867,561,1.06925,0.381049
-350,463,1.04962,-0.434082,-0.0019037,0.00966082,0.00210513,0.0100321,-0.00227498,1.39622,0.00756135,0.015496,874,561,1.04965,0.434097
-343,463,1.05811,-0.467957,-0.00165629,0.0100254,0.00409465,0.0113176,-0.00294859,1.26508,0.00869622,0.0262128,881,561,1.05808,0.467987
-336,463,1.03705,-0.55603,-0.000804304,0.00984415,0.00641635,0.0128576,-0.00381776,1.13172,0.0100881,0.0352716,888,561,1.03704,0.556056
-329,463,0.784607,-0.682068,0.00020881,0.00831122,0.00905228,0.0141775,-0.00565745,0.995799,0.0117986,0.0441358,895,561,0.784612,0.682074
-322,463,0.4729,-0.737976,0.0015145,0.00668029,0.0115032,0.015887,-0.00769221,0.895835,0.0138848,0.043986,902,561,0.472875,0.737995
-315,463,0.375854,-0.801697,0.00301906,0.00485864,0.0134363,0.0174066,-0.00952894,0.819573,0.0157714,0.044692,909,561,0.375868,0.80171
-308,463,0.699585,-1.77692,0.00424111,0.00220523,0.0152834,0.0185404,-0.0120941,0.752145,0.0178169,0.044216,916,561,0.699571,1.77692
-301,463,0.132141,-1.6076,0.00521388,-0.00050737,0.0161974,0.0188014,-0.0140949,0.697995,0.0190573,0.0483859,923,561,0.132151,1.60763
-294,463,0.0665894,-1.66272,0,0,0,0,0,0,0,-1,930,561,0.0666196,1.66274
-287,463,0.316528,-1.10193,0,0,0,0,0,0,0,-1,937,561,0.316509,1.10191
-280,463,0.585815,-1.172,0.00632535,-0.0089033,0.0155842,0.0160559,-0.0186339,0.558158,0.0200466,0.0431598,944,561,0.585802,1.17198
-273,463,0.375244,-0.492188,0.000674536,-0.0113207,0.0170871,0.012786,-0.0234322,0.616614,0.0212096,0.0451381,951,561,0.375216,0.492175
-266,463,0.501953,-0.285767,-0.00951499,-0.0137811,0.0195368,0.00800488,-0.031301,0.731022,0.0239851,0.0467077,958,561,0.501967,0.285787
-259,463,0.639771,-0.119812,0,0,0,0,0,0,0,-1,965,561,0.639767,0.119795
-252,463,0,0,0,0,0,0,0,0,0,-1,972,561,0,0
-245,463,0,0,0,0,0,0,0,0,0,-1,979,561,0,0
-238,463,0,0,0,0,0,0,0,0,0,-1,986,561,0,0
-231,463,0,0,0,0,0,0,0,0,0,-1,993,561,0,0
-224,463,0,0,0,0,0,0,0,0,0,-1,1000,561,0,0
-217,463,0,0,0,0,0,0,0,0,0,-1,1007,561,0,0
-210,463,0,0,0,0,0,0,0,0,0,-1,1014,561,0,0
-203,463,0,0,0,0,0,0,0,0,0,-1,1021,561,0,0
-196,463,0,0,0,0,0,0,0,0,0,-1,1028,561,0,0
-189,463,0,0,0,0,0,0,0,0,0,-1,1035,561,0,0
-182,463,0,0,0,0,0,0,0,0,0,-1,1042,561,0,0
-175,463,0,0,0,0,0,0,0,0,0,-1,1049,561,0,0
-168,463,0,0,0,0,0,0,0,0,0,-1,1056,561,0,0
-161,463,0,0,0,0,0,0,0,0,0,-1,1063,561,0,0
-154,463,0,0,0,0,0,0,0,0,0,-1,1070,561,0,0
-147,463,0,0,0,0,0,0,0,0,0,-1,1077,561,0,0
-140,463,0,0,0,0,0,0,0,0,0,-1,1084,561,0,0
-133,463,0,0,0,0,0,0,0,0,0,-1,1091,561,0,0
-126,463,0,0,0,0,0,0,0,0,0,-1,1098,561,0,0
-119,463,0,0,0,0,0,0,0,0,0,-1,1105,561,0,0
-112,463,0,0,0,0,0,0,0,0,0,-1,1112,561,0,0
-105,463,0,0,0,0,0,0,0,0,0,-1,1119,561,0,0
-98,463,0,0,0,0,0,0,0,0,0,-1,1126,561,0,0
-91,463,0,0,0,0,0,0,0,0,0,-1,1133,561,0,0
-84,463,0,0,0,0,0,0,0,0,0,-1,1140,561,0,0
-77,463,0,0,0,0,0,0,0,0,0,-1,1147,561,0,0
-70,463,0,0,0,0,0,0,0,0,0,-1,1154,561,0,0
-63,463,0,0,0,0,0,0,0,0,0,-1,1161,561,0,0
-56,463,0,0,0,0,0,0,0,0,0,-1,1168,561,0,0
-49,463,0,0,0,0,0,0,0,0,0,-1,1175,561,0,0
-42,463,0,0,0,0,0,0,0,0,0,-1,1182,561,0,0
-35,463,0,0,0,0,0,0,0,0,0,-1,1189,561,0,0
-28,463,0,0,0,0,0,0,0,0,0,-1,1196,561,0,0
-21,463,0,0,0,0,0,0,0,0,0,-1,1203,561,0,0
-14,463,0,0,0,0,0,0,0,0,0,-1,1210,561,0,0
-7,463,0,0,0,0,0,0,0,0,0,-1,1217,561,0,0
0,463,0,0,0,0,0,0,0,0,0,-1,1224,561,0,0
7,463,0,0,0,0,0,0,0,0,0,-1,1231,561,0,0
14,463,0,0,0,0,0,0,0,0,0,-1,1238,561,0,0
21,463,0,0,0,0,0,0,0,0,0,-1,1245,561,0,0
28,463,0,0,0,0,0,0,0,0,0,-1,1252,561,0,0
35,463,0,0,0,0,0,0,0,0,0,-1,1259,561,0,0
42,463,0,0,0,0,0,0,0,0,0,-1,1266,561,0,0
49,463,0,0,0,0,0,0,0,0,0,-1,1273,561,0,0
56,463,0,0,0,0,0,0,0,0,0,-1,1280,561,0,0
63,463,0,0,0,0,0,0,0,0,0,-1,1287,561,0,0
70,463,0,0,0,0,0,0,0,0,0,-1,1294,561,0,0
77,463,0,0,0,0,0,0,0,0,0,-1,1301,561,0,0
84,463,0,0,0,0,0,0,0,0,0,-1,1308,561,0,0
91,463,0,0,0,0,0,0,0,0,0,-1,1315,561,0,0
98,463,0,0,0,0,0,0,0,0,0,-1,1322,561,0,0
105,463,0,0,0,0,0,0,0,0,0,-1,1329,561,0,0
112,463,0,0,0,0,0,0,0,0,0,-1,1336,561,0,0
119,463,0,0,0,0,0,0,0,0,0,-1,1343,561,0,0
126,463,0,0,0,0,0,0,0,0,0,-1,1350,561,0,0
133,463,0,0,0,0,0,0,0,0,0,-1,1357,561,0,0
140,463,0,0,0,0,0,0,0,0,0,-1,1364,561,0,0
147,463,0,0,0,0,0,0,0,0,0,-1,1371,561,0,0
154,463,0,0,0,0,0,0,0,0,0,-1,1378,561,0,0
161,463,0,0,0,0,0,0,0,0,0,-1,1385,561,0,0
168,463,0,0,0,0,0,0,0,0,0,-1,1392,561,0,0
175,463,0,0,0,0,0,0,0,0,0,-1,1399,561,0,0
182,463,0,0,0,0,0,0,0,0,0,-1,1406,561,0,0
189,463,0,0,0,0,0,0,0,0,0,-1,1413,561,0,0
196,463,0,0,0,0,0,0,0,0,0,-1,1420,561,0,0
203,463,0,0,0,0,0,0,0,0,0,-1,1427,561,0,0
210,463,0,0,0,0,0,0,0,0,0,-1,1434,561,0,0
217,463,0,0,0,0,0,0,0,0,0,-1,1441,561,0,0
224,463,0,0,0,0,0,0,0,0,0,-1,1448,561,0,0
231,463,0,0,0,0,0,0,0,0,0,-1,1455,561,0,0
238,463,0,0,0,0,0,0,0,0,0,-1,1462,561,0,0
245,463,0,0,0,0,0,0,0,0,0,-1,1469,561,0,0
252,463,0,0,0,0,0,0,0,0,0,-1,1476,561,0,0
259,463,0,0,0,0,0,0,0,0,0,-1,1483,561,0,0
266,463,0,0,0,0,0,0,0,0,0,-1,1490,561,0,0
273,463,0,0,0,0,0,0,0,0,0,-1,1497,561,0,0
280,463,0,0,0,0,0,0,0,0,0,-1,1504,561,0,0
287,463,0,0,0,0,0,0,0,0,0,-1,1511,561,0,0
294,463,0,0,0,0,0,0,0,0,0,-1,1518,561,0,0
301,463,0,0,0,0,0,0,0,0,0,-1,1525,561,0,0
308,463,0,0,0,0,0,0,0,0,0,-1,1532,561,0,0
315,463,0,0,0,0,0,0,0,0,0,-1,1539,561,0,0
322,463,0,0,0,0,0,0,0,0,0,-1,1546,561,0,0
329,463,0,0,0,0,0,0,0,0,0,-1,1553,561,0,0
336,463,0,0,0,0,0,0,0,0,0,-1,1560,561,0,0
343,463,0,0,0,0,0,0,0,0,0,-1,1567,561,0,0
350,463,0,0,0,0,0,0,0,0,0,-1,1574,561,0,0
357,463,0,0,0,0,0,0,0,0,0,-1,1581,561,0,0
364,463,0,0,0,0,0,0,0,0,0,-1,1588,561,0,0
371,463,-0.489868,0.569824,0,0,0,0,0,0,0,-1,1595,561,-0.48991,-0.569847
378,463,3.0835,2.07538,0,0,0,0,0,0,0,-1,1602,561,3.08347,-2.07539
385,463,3.41174,2.09454,0.0426407,-0.00653299,0.00273528,0.0427924,-0.00668467,0.055397,0.0309977,0.047823,1609,561,3.4118,-2.09456
392,463,3.54468,1.95105,0.0302174,-0.0108599,-0.00270797,0.0303951,-0.0110377,-0.0655458,0.0247762,0.0458977,1616,561,3.54471,-1.95108
399,463,3.67871,1.77136,0.0197449,-0.0151655,-0.00657592,0.0209425,-0.0163631,-0.180144,0.0215924,0.0431479,1623,561,3.67868,-1.77134
406,463,3.62329,1.71722,0.0110793,-0.0187652,-0.00957517,0.0138872,-0.021573,-0.285249,0.0206326,0.0420949,1630,561,3.62331,-1.71724
413,463,3.88757,1.69116,0.00381392,-0.022426,-0.0119673,0.00845205,-0.0270641,-0.369742,0.0214233,0.0420822,1637,561,3.88762,-1.69117
420,463,3.93066,1.5293,-0.00206903,-0.0246702,-0.0139097,0.00455198,-0.0312912,-0.444263,0.0225319,0.0431265,1644,561,3.93068,-1.52931
427,463,3.49719,1.26166,-0.00638288,-0.0255963,-0.0146338,0.00151572,-0.0334949,-0.494941,0.0228519,0.0444148,1651,561,3.49722,-1.26164
434,463,3.4436,0.9021,-0.00920332,-0.0252883,-0.0144809,-0.000681497,-0.0338102,-0.531913,0.0223164,0.0462739,1658,561,3.4436,-0.902095
441,463,3.38867,1.06671,-0.0103425,-0.0244797,-0.0133918,-0.00226827,-0.0325539,-0.542566,0.0209874,0.0445387,1665,561,3.38862,-1.06671
448,463,3.55273,0.829285,-0.0108437,-0.0226261,-0.012167,-0.00321665,-0.0302531,-0.559937,0.0191866,0.042462,1672,561,3.55271,-0.829314
455,463,2.46204,-0.882813,-0.0107966,-0.0194386,-0.0105978,-0.00367273,-0.0265624,-0.591823,0.0166198,0.0419536,1679,561,2.46207,0.882805
462,463,3.14087,-0.905823,0,0,0,0,0,0,0,-1,1686,561,3.14084,0.905822
469,463,2.57996,-0.642517,-0.00932502,-0.0122616,-0.00730582,-0.00334139,-0.0182452,-0.686232,0.0112168,0.0437648,1693,561,2.57995,0.642514
476,463,2.44788,-0.555115,-0.00784587,-0.00868367,-0.0054862,-0.0027626,-0.0137669,-0.747294,0.00840973,0.0273172,1700,561,2.44786,0.555122
483,463,2.39539,-0.503235,-0.00618909,-0.00595004,-0.00361303,-0.00245456,-0.00968457,-0.801933,0.00581356,0.0139995,1707,561,2.39536,0.503254
490,463,2.41931,-0.416748,-0.00459193,-0.0041082,-0.00203857,-0.0022972,-0.00640293,-0.844444,0.00374557,0.013244,1714,561,2.41931,0.416731
497,463,2.43884,-0.377319,-0.00322587,-0.00227011,-0.00131833,-0.00134571,-0.00415026,-0.959277,0.002445,0.0130929,1721,561,2.43889,0.37729
504,463,2.44116,-0.325195,-0.00196107,-0.000944323,-0.00131008,-4.74347e-05,-0.00285795,-0.970477,0.00188969,0.0157605,1728,561,2.44111,0.325188
511,463,2.41748,-0.292358,-0.00077183,-0.000710771,-0.000813889,7.31615e-05,-0.00155576,-0.804145,0.0010624,0.0208373,1735,561,2.41744,0.292354
518,463,2.45935,-0.275757,0.000235501,-0.000342255,-0.000490353,0.000515743,-0.000622496,-0.519207,0.000658125,0.0228002,1742,561,2.45931,0.275785
525,463,2.44775,-0.264709,0.00124935,0.000201451,-0.000178301,0.00127885,0.000171944,-0.164005,0.000801426,0.0186897,1749,561,2.44778,0.264698
532,463,2.43542,-0.224426,0.00201176,0.000653806,0.000408504,0.00212518,0.000540391,0.270814,0.0012754,0.0149393,1756,561,2.43547,0.224428
539,463,2.46826,-0.178467,0.00291064,0.00133922,0.00108875,0.00346758,0.000782285,0.472839,0.0021001,0.01437,1763,561,2.46825,0.178477
546,463,2.46362,-0.142761,0.00388939,0.00198736,0.0020725,0.00521865,0.000658094,0.570294,0.00328181,0.0121201,1770,561,2.46362,0.142771
553,463,2.46191,-0.101074,0.00506265,0.00282698,0.0037112,0.00782071,6.89216e-05,0.639117,0.00519098,0.011143,1777,561,2.46193,0.101102
560,463,2.46375,-0.0617065,0.00653431,0.00353735,0.00664726,0.0118499,-0.00177823,0.674537,0.0085545,0.0105226,1784,561,2.46371,0.0617233
567,463,2.43494,-0.0476074,0.00836542,0.00417763,0.0096224,0.0161191,-0.00357606,0.678265,0.0121153,0.0102572,1791,561,2.43494,0.0476154
574,463,2.45813,-0.0606079,0.0107679,0.00448296,0.0136955,0.0216768,-0.00642596,0.672624,0.0170029,0.0249929,1798,561,2.45817,0.060587
581,463,2.52539,0.314758,0.0138153,0.00472173,0.019085,0.0288876,-0.0103506,0.668458,0.0234818,0.0417985,1805,561,2.52538,-0.314779
588,463,2.70825,0.292603,0.017459,0.00416831,0.026074,0.0377212,-0.0160939,0.660622,0.0318956,0.0467184,1812,561,2.70824,-0.292619
595,463,2.96973,0.221802,0,0,0,0,0,0,0,-1,1819,561,2.96975,-0.221798
602,463,3.74475,0.901428,0,0,0,0,0,0,0,-1,1826,561,3.74471,-0.901447
609,463,4.39563,0.841614,0,0,0,0,0,0,0,-1,1833,561,4.39562,-0.841625
616,463,2.50049,0.0299683,0,0,0,0,0,0,0,-1,1840,561,2.50044,-0.0299763
623,463,0,0,0,0,0,0,0,0,0,-1,1847,561,0,0
630,463,0,0,0,0,0,0,0,0,0,-1,1854,561,0,0
637,463,0,0,0,0,0,0,0,0,0,-1,1861,561,0,0
644,463,0,0,0,0,0,0,0,0,0,-1,1868,561,0,0
651,463,0,0,0,0,0,0,0,0,0,-1,1875,561,0,0
658,463,0,0,0,0,0,0,0,0,0,-1,1882,561,0,0
665,463,0,0,0,0,0,0,0,0,0,-1,1889,561,0,0
672,463,0,0,0,0,0,0,0,0,0,-1,1896,561,0,0
679,463,0,0,0,0,0,0,0,0,0,-1,1903,561,0,0
686,463,0,0,0,0,0,0,0,0,0,-1,1910,561,0,0
693,463,0,0,0,0,0,0,0,0,0,-1,1917,561,0,0
700,463,0,0,0,0,0,0,0,0,0,-1,1924,561,0,0
707,463,0,0,0,0,0,0,0,0,0,-1,1931,561,0,0
714,463,0,0,0,0,0,0,0,0,0,-1,1938,561,0,0
721,463,0,0,0,0,0,0,0,0,0,-1,1945,561,0,0
728,463,0,0,0,0,0,0,0,0,0,-1,1952,561,0,0
735,463,0,0,0,0,0,0,0,0,0,-1,1959,561,0,0
742,463,0,0,0,0,0,0,0,0,0,-1,1966,561,0,0
749,463,0,0,0,0,0,0,0,0,0,-1,1973,561,0,0
756,463,0,0,0,0,0,0,0,0,0,-1,1980,561,0,0
763,463,0,0,0,0,0,0,0,0,0,-1,1987,561,0,0
770,463,0,0,0,0,0,0,0,0,0,-1,1994,561,0,0
777,463,0,0,0,0,0,0,0,0,0,-1,2001,561,0,0
784,463,0,0,0,0,0,0,0,0,0,-1,2008,561,0,0
791,463,0,0,0,0,0,0,0,0,0,-1,2015,561,0,0
798,463,0,0,0,0,0,0,0,0,0,-1,2022,561,0,0
805,463,0,0,0,0,0,0,0,0,0,-1,2029,561,0,0
812,463,0,0,0,0,0,0,0,0,0,-1,2036,561,0,0
-700,456,0,0,0,0,0,0,0,0,0,-1,524,568,0,0
-693,456,0,0,0,0,0,0,0,0,0,-1,531,568,0,0
-686,456,0,0,0,0,0,0,0,0,0,-1,538,568,0,0
-679,456,0,0,0,0,0,0,0,0,0,-1,545,568,0,0
-672,456,0,0,0,0,0,0,0,0,0,-1,552,568,0,0
-665,456,0,0,0,0,0,0,0,0,0,-1,559,568,0,0
-658,456,0,0,0,0,0,0,0,0,0,-1,566,568,0,0
-651,456,0,0,0,0,0,0,0,0,0,-1,573,568,0,0
-644,456,0,0,0,0,0,0,0,0,0,-1,580,568,0,0
-637,456,0,0,0,0,0,0,0,0,0,-1,587,568,0,0
-630,456,0,0,0,0,0,0,0,0,0,-1,594,568,0,0
-623,456,0,0,0,0,0,0,0,0,0,-1,601,568,0,0
-616,456,0,0,0,0,0,0,0,0,0,-1,608,568,0,0
-609,456,0,0,0,0,0,0,0,0,0,-1,615,568,0,0
-602,456,0,0,0,0,0,0,0,0,0,-1,622,568,0,0
-595,456,0,0,0,0,0,0,0,0,0,-1,629,568,0,0
-588,456,0,0,0,0,0,0,0,0,0,-1,636,568,0,0
-581,456,0,0,0,0,0,0,0,0,0,-1,643,568,0,0
-574,456,0,0,0,0,0,0,0,0,0,-1,650,568,0,0
-567,456,0,0,0,0,0,0,0,0,0,-1,657,568,0,0
-560,456,0,0,0,0,0,0,0,0,0,-1,664,568,0,0
-553,456,0,0,0,0,0,0,0,0,0,-1,671,568,0,0
-546,456,0,0,0,0,0,0,0,0,0,-1,678,568,0,0
-539,456,0,0,0,0,0,0,0,0,0,-1,685,568,0,0
-532,456,0,0,0,0,0,0,0,0,0,-1,692,568,0,0
-525,456,0,0,0,0,0,0,0,0,0,-1,699,568,0,0
-518,456,0,0,0,0,0,0,0,0,0,-1,706,568,0,0
-511,456,0,0,0,0,0,0,0,0,0,-1,713,568,0,0
-504,456,1.33643,-0.772034,0,0,0,0,0,0,0,-1,720,568,1.33643,0.772035
-497,456,-2.32495,2.03137,0.047929,0.0257429,0.0194109,0.059193,0.0144788,0.525804,0.0356302,0.0470993,727,568,-2.32493,-2.03135
-490,456,-2.09241,1.71661,0.0442221,0.0251796,0.00701809,0.0465291,0.0228726,0.317595,0.0268649,0.044649,734,568,-2.09243,-1.71661
-483,456,-1.8147,1.34839,0.0402812,0.0240508,-0.00103609,0.0403471,0.0239849,-0.0634925,0.0234326,0.0446587,741,568,-1.81471,-1.34836
-476,456,-1.37622,1.04272,0.0364602,0.022314,-0.00570419,0.0384737,0.0203005,-0.339333,0.0222241,0.0456975,748,568,-1.37619,-1.04273
-469,456,-0.621338,0.430298,0.0325717,0.0206173,-0.00881824,0.0372476,0.0159414,-0.487555,0.0215791,0.0489384,755,568,-0.621334,-0.430324
-462,456,-0.310303,0.25824,0.0284918,0.0183133,-0.00981279,0.0344566,0.0123486,-0.546176,0.0201578,0.0453482,762,568,-0.310322,-0.258216
-455,456,0.277588,0.239807,0.024389,0.0156111,-0.00871973,0.029762,0.0102381,-0.552243,0.0174597,0.0453772,769,568,0.277613,-0.239825
-448,456,0.945007,0.154297,0.0200994,0.0128342,-0.00642994,0.0238519,0.00908165,-0.528272,0.0139008,0.0314024,776,568,0.945004,-0.154276
-441,456,1.01379,0.0407715,0.0165626,0.0104375,-0.00411625,0.0186306,0.00836951,-0.46557,0.0107749,0.0141711,783,568,1.01382,-0.0407527
-434,456,0.99115,0.00109863,0.0126604,0.00843862,-0.00313249,0.0143268,0.00677215,-0.488914,0.00827571,0.00859028,790,568,0.991129,-0.00110527
-427,456,1.00208,-0.0228271,0.00887862,0.00630074,-0.00175124,0.00976413,0.00541524,-0.468152,0.00564852,0.00812086,797,568,1.00206,0.0228102
-420,456,1.01282,-0.0596313,0.00621466,0.00464654,-0.000658048,0.00645421,0.00440699,-0.349119,0.00380846,0.00854287,804,568,1.01282,0.0596018
-413,456,1.00775,-0.104309,0.00374121,0.00397658,-0.000154714,0.00405328,0.00366451,-1.11054,0.00258237,0.00770744,811,568,1.00774,0.104295
-406,456,0.986084,-0.134644,0.00183114,0.00358177,-0.000128214,0.00359111,0.0018218,-1.49807,0.0020734,0.00724471,818,568,0.9861,0.134654
-399,456,0.990173,-0.16449,0.00030535,0.00336678,-0.000726008,0.00353022,0.000141906,-1.34936,0.00230764,0.00871406,825,568,0.990147,0.164462
-392,456,1.00342,-0.209045,-0.00104789,0.0038621,-0.00147826,0.00427281,-0.0014586,-1.2998,0.00343943,0.00793056,832,568,1.00341,0.209045
-385,456,0.993958,-0.242859,-0.00179197,0.00475786,-0.00203631,0.00533932,-0.00237343,-1.29265,0.00456138,0.00847989,839,568,0.993941,0.24283
-378,456,1.00238,-0.290833,-0.00219269,0.00578436,-0.00204263,0.00627698,-0.00268531,-1.33415,0.00531108,0.0110801,846,568,1.00241,0.290861
-371,456,1.02081,-0.328186,-0.00239342,0.00734997,-0.00158794,0.00760223,-0.00264568,-1.41325,0.00614299,0.0111148,853,568,1.02082,0.328183
-364,456,1.03918,-0.356323,-0.00280803,0.00941163,-0.00151198,0.00959594,-0.00299233,-1.4495,0.00759386,0.0137503,860,568,1.03917,0.356343
-357,456,1.04016,-0.403076,-0.00199976,0.0110334,0.000186845,0.0110361,-0.00200244,1.55646,0.00810773,0.0154651,867,568,1.04013,0.403069
-350,456,1.04938,-0.435303,-0.00108695,0.0113978,0.00233117,0.0118189,-0.00150803,1.39209,0.00842703,0.0266132,874,568,1.04939,0.435278
-343,456,0.773804,-0.827026,-2.48496e-05,0.0114231,0.00483064,0.0131891,-0.0017908,1.22032,0.0094464,0.0373745,881,568,0.773825,0.827005
-336,456,0.736145,-0.84613,0.00180085,0.0107577,0.00778542,0.0152609,-0.00270231,1.0464,0.0111841,0.0427586,888,568,0.736122,0.846101
-329,456,0.656921,-0.734314,0,0,0,0,0,0,0,-1,895,568,0.656916,0.734289
-322,456,0.781799,-1.15894,0,0,0,0,0,0,0,-1,902,568,0.781779,1.15892
-315,456,0.748108,-1.31079,0.0085534,0.00312573,0.0172903,0.0233416,-0.0116625,0.707555,0.0205811,0.0467944,909,568,0.748094,1.31079
-308,456,0.497131,-1.4549,0.0106064,-0.000933951,0.0200706,0.0257198,-0.0160473,0.645426,0.0243289,0.0449914,916,568,0.497118,1.45492
-301,456,0.214539,-1.45435,0.0117656,-0.00493647,0.0215038,0.026483,-0.0196539,0.600186,0.0267342,0.045915,923,568,0.214531,1.45437
-294,456,-0.0459595,-1.19714,0,0,0,0,0,0,0,-1,930,568,-0.0459426,1.19712
-287,456,0.429871,-0.875488,0.0130525,-0.0115535,0.0196982,0.0239741,-0.0224751,0.506251,0.0268221,0.0475781,937,568,0.42989,0.87551
-280,456,0.389954,-0.692688,0.011582,-0.0158192,0.0190012,0.0213068,-0.0255441,0.473044,0.0270862,0.0436551,944,568,0.389941,0.692659
-273,456,0.472534,-0.53186,0.00598391,-0.0185593,0.019788,0.0169965,-0.0295719,0.507845,0.0272111,0.0434247,951,568,0.472515,0.531876
-266,456,0.474548,-0.58313,-0.00423069,-0.0209862,0.0220063,0.0109386,-0.0361555,0.603519,0.0284594,0.0422724,958,568,0.474571,0.583133
-259,456,0,0,0,0,0,0,0,0,0,-1,965,568,0,0
-252,456,0,0,0,0,0,0,0,0,0,-1,972,568,0,0
-245,456,0,0,0,0,0,0,0,0,0,-1,979,568,0,0
-238,456,0,0,0,0,0,0,0,0,0,-1,986,568,0,0
-231,456,0,0,0,0,0,0,0,0,0,-1,993,568,0,0
-224,456,0,0,0,0,0,0,0,0,0,-1,1000,568,0,0
-217,456,0,0,0,0,0,0,0,0,0,-1,1007,568,0,0
-210,456,0,0,0,0,0,0,0,0,0,-1,1014,568,0,0
-203,456,0,0,0,0,0,0,0,0,0,-1,1021,568,0,0
-196,456,0,0,0,0,0,0,0,0,0,-1,1028,568,0,0
-189,456,0,0,0,0,0,0,0,0,0,-1,1035,568,0,0
-182,456,0,0,0,0,0,0,0,0,0,-1,1042,568,0,0
-175,456,0,0,0,0,0,0,0,0,0,-1,1049,568,0,0
-168,456,0,0,0,0,0,0,0,0,0,-1,1056,568,0,0
-161,456,0,0,0,0,0,0,0,0,0,-1,1063,568,0,0
-154,456,0,0,0,0,0,0,0,0,0,-1,1070,568,0,0
-147,456,0,0,0,0,0,0,0,0,0,-1,1077,568,0,0
-140,456,0,0,0,0,0,0,0,0,0,-1,1084,568,0,0
-133,456,0,0,0,0,0,0,0,0,0,-1,1091,568,0,0
-126,456,0,0,0,0,0,0,0,0,0,-1,1098,568,0,0
-119,456,0,0,0,0,0,0,0,0,0,-1,1105,568,0,0
-112,456,0,0,0,0,0,0,0,0,0,-1,1112,568,0,0
-105,456,0,0,0,0,0,0,0,0,0,-1,1119,568,0,0
-98,456,0,0,0,0,0,0,0,0,0,-1,1126,568,0,0
-91,456,0,0,0,0,0,0,0,0,0,-1,1133,568,0,0
-84,456,0,0,0,0,0,0,0,0,0,-1,1140,568,0,0
-77,456,0,0,0,0,0,0,0,0,0,-1,1147,568,0,0
-70,456,0,0,0,0,0,0,0,0,0,-1,1154,568,0,0
-63,456,0,0,0,0,0,0,0,0,0,-1,1161,568,0,0
-56,456,0,0,0,0,0,0,0,0,0,-1,1168,568,0,0
-49,456,0,0,0,0,0,0,0,0,0,-1,1175,568,0,0
-42,456,0,0,0,0,0,0,0,0,0,-1,1182,568,0,0
-35,456,0,0,0,0,0,0,0,0,0,-1,1189,568,0,0
-28,456,0,0,0,0,0,0,0,0,0,-1,1196,568,0,0
-21,456,0,0,0,0,0,0,0,0,0,-1,1203,568,0,0
-14,456,0,0,0,0,0,0,0,0,0,-1,1210,568,0,0
-7,456,0,0,0,0,0,0,0,0,0,-1,1217,568,0,0
0,456,0,0,0,0,0,0,0,0,0,-1,1224,568,0,0
7,456,0,0,0,0,0,0,0,0,0,-1,1231,568,0,0
14,456,0,0,0,0,0,0,0,0,0,-1,1238,568,0,0
21,456,0,0,0,0,0,0,0,0,0,-1,1245,568,0,0
28,456,0,0,0,0,0,0,0,0,0,-1,1252,568,0,0
35,456,0,0,0,0,0,0,0,0,0,-1,1259,568,0,0
42,456,0,0,0,0,0,0,0,0,0,-1,1266,568,0,0
49,456,0,0,0,0,0,0,0,0,0,-1,1273,568,0,0
56,456,0,0,0,0,0,0,0,0,0,-1,1280,568,0,0
63,456,0,0,0,0,0,0,0,0,0,-1,1287,568,0,0
70,456,0,0,0,0,0,0,0,0,0,-1,1294,568,0,0
77,456,0,0,0,0,0,0,0,0,0,-1,1301,568,0,0
84,456,0,0,0,0,0,0,0,0,0,-1,1308,568,0,0
91,456,0,0,0,0,0,0,0,0,0,-1,1315,568,0,0
98,456,0,0,0,0,0,0,0,0,0,-1,1322,568,0,0
105,456,0,0,0,0,0,0,0,0,0,-1,1329,568,0,0
112,456,0,0,0,0,0,0,0,0,0,-1,1336,568,0,0
119,456,0,0,0,0,0,0,0,0,0,-1,1343,568,0,0
126,456,0,0,0,0,0,0,0,0,0,-1,1350,568,0,0
133,456,0,0,0,0,0,0,0,0,0,-1,1357,568,0,0
140,456,0,0,0,0,0,0,0,0,0,-1,1364,568,0,0
147,456,0,0,0,0,0,0,0,0,0,-1,1371,568,0,0
154,456,0,0,0,0,0,0,0,0,0,-1,1378,568,0,0
161,456,0,0,0,0,0,0,0,0,0,-1,1385,568,0,0
168,456,0,0,0,0,0,0,0,0,0,-1,1392,568,0,0
175,456,0,0,0,0,0,0,0,0,0,-1,1399,568,0,0
182,456,0,0,0,0,0,0,0,0,0,-1,1406,568,0,0
189,456,0,0,0,0,0,0,0,0,0,-1,1413,568,0,0
196,456,0,0,0,0,0,0,0,0,0,-1,1420,568,0,0
203,456,0,0,0,0,0,0,0,0,0,-1,1427,568,0,0
210,456,0,0,0,0,0,0,0,0,0,-1,1434,568,0,0
217,456,0,0,0,0,0,0,0,0,0,-1,1441,568,0,0
224,456,0,0,0,0,0,0,0,0,0,-1,1448,568,0,0
231,456,0,0,0,0,0,0,0,0,0,-1,1455,568,0,0
238,456,0,0,0,0,0,0,0,0,0,-1,1462,568,0,0
245,456,0,0,0,0,0,0,0,0,0,-1,1469,568,0,0
252,456,0,0,0,0,0,0,0,0,0,-1,1476,568,0,0
259,456,0,0,0,0,0,0,0,0,0,-1,1483,568,0,0
266,456,0,0,0,0,0,0,0,0,0,-1,1490,568,0,0
273,456,0,0,0,0,0,0,0,0,0,-1,1497,568,0,0
280,456,0,0,0,0,0,0,0,0,0,-1,1504,568,0,0
287,456,0,0,0,0,0,0,0,0,0,-1,1511,568,0,0
294,456,0,0,0,0,0,0,0,0,0,-1,1518,568,0,0
301,456,0,0,0,0,0,0,0,0,0,-1,1525,568,0,0
308,456,0,0,0,0,0,0,0,0,0,-1,1532,568,0,0
315,456,0,0,0,0,0,0,0,0,0,-1,1539,568,0,0
322,456,0,0,0,0,0,0,0,0,0,-1,1546,568,0,0
329,456,0,0,0,0,0,0,0,0,0,-1,1553,568,0,0
336,456,0,0,0,0,0,0,0,0,0,-1,1560,568,0,0
343,456,0,0,0,0,0,0,0,0,0,-1,1567,568,0,0
350,456,0,0,0,0,0,0,0,0,0,-1,1574,568,0,0
357,456,0,0,0,0,0,0,0,0,0,-1,1581,568,0,0
364,456,0,0,0,0,0,0,0,0,0,-1,1588,568,0,0
371,456,0,0,0,0,0,0,0,0,0,-1,1595,568,0,0
378,456,0,0,0,0,0,0,0,0,0,-1,1602,568,0,0
385,456,3.61401,1.62543,0.0426055,-0.00411452,0.00512102,0.0431603,-0.00466925,0.107904,0.0304495,0.0424382,1609,568,3.61405,-1.6254
392,456,3.61768,1.82635,0.029385,-0.00916797,-0.00136425,0.0294332,-0.00921618,-0.0353275,0.0233097,0.0433201,1616,568,3.61771,-1.82638
399,456,3.66602,1.73615,0.0188509,-0.0138513,-0.00572463,0.0198241,-0.0148245,-0.168385,0.0200736,0.043485,1623,568,3.66602,-1.73617
406,456,3.72461,1.8363,0,0,0,0,0,0,0,-1,1630,568,3.72455,-1.83632
413,456,3.65845,1.70935,0.00278367,-0.0229056,-0.0114747,0.00716269,-0.0272846,-0.364564,0.0209888,0.0439052,1637,568,3.6585,-1.70937
420,456,3.9679,1.98615,-0.00350787,-0.0256086,-0.0135685,0.00294075,-0.0320572,-0.443664,0.0224161,0.0445881,1644,568,3.96786,-1.98615
427,456,3.65942,1.74457,-0.00803283,-0.0268226,-0.0143158,-0.000304451,-0.034551,-0.495017,0.0229332,0.0412808,1651,568,3.65947,-1.74458
434,456,3.53931,1.11334,-0.0109353,-0.0267439,-0.0141328,-0.00264661,-0.0350326,-0.530425,0.0225248,0.0435241,1658,568,3.53933,-1.11331
441,456,3.20776,1.84808,0,0,0,0,0,0,0,-1,1665,568,3.20777,-1.84807
448,456,3.36816,1.72882,0,0,0,0,0,0,0,-1,1672,568,3.36814,-1.7288
455,456,3.00525,-0.956909,-0.0125218,-0.0213213,-0.0101665,-0.00584388,-0.0279992,-0.581182,0.0170553,0.0436778,1679,568,3.00525,0.956918
462,456,3.23669,-0.574463,0,0,0,0,0,0,0,-1,1686,568,3.23675,0.574477
469,456,2.599,-0.687256,-0.0112213,-0.0142608,-0.00725852,-0.00532515,-0.020157,-0.682201,0.0120614,0.0484007,1693,568,2.59895,0.687278
476,456,2.57532,-0.456238,-0.00970517,-0.0105781,-0.0055926,-0.00453204,-0.0157513,-0.746454,0.00936319,0.0371923,1700,568,2.57531,0.456208
483,456,2.5061,-0.497681,-0.00796137,-0.00789033,-0.00379843,-0.00412725,-0.0117244,-0.790073,0.00686722,0.0316369,1707,568,2.50612,0.49769
490,456,2.46375,-0.455933,-0.00625527,-0.00599883,-0.00230522,-0.00381826,-0.00843583,-0.813181,0.00487771,0.0208123,1714,568,2.46369,0.455944
497,456,2.46753,-0.400085,-0.00479175,-0.00389168,-0.00174677,-0.00253791,-0.00614553,-0.911476,0.00356599,0.0130175,1721,568,2.46756,0.400081
504,456,2.48694,-0.348572,-0.00349548,-0.00237355,-0.00186526,-0.000986728,-0.0048823,-0.931468,0.0029809,0.00988313,1728,568,2.48691,0.348555
511,456,2.48962,-0.30072,-0.00221627,-0.00182521,-0.0014023,-0.000604877,-0.0034366,-0.854669,0.00211843,0.0125348,1735,568,2.48964,0.300697
518,456,2.50452,-0.276001,-0.00103909,-0.00117303,-0.00112763,2.35641e-05,-0.00223568,-0.755737,0.00149837,0.0155187,1742,568,2.50453,0.276025
525,456,2.49426,-0.25647,9.51312e-05,-0.000534896,-0.00077691,0.000618463,-0.00105823,-0.592792,0.000979073,0.0158581,1749,568,2.49426,0.25649
532,456,2.48193,-0.22406,0.000869755,-1.65614e-05,-0.000197474,0.000911762,-5.85684e-05,-0.209597,0.000628275,0.0145715,1756,568,2.48188,0.22408
539,456,2.49988,-0.1698,0.00174488,0.000728964,0.000409321,0.00188928,0.00058457,0.339138,0.00111688,0.0155983,1763,568,2.49988,0.169824
546,456,2.51013,-0.126221,0.0026473,0.00139381,0.00119586,0.0033707,0.000670408,0.544029,0.00206035,0.0167601,1770,568,2.5101,0.126212
553,456,2.51099,-0.083252,0.00368741,0.00221773,0.00250629,0.00556436,0.000340773,0.642796,0.00360136,0.0125988,1777,568,2.51095,0.0832558
560,456,2.50964,-0.0571289,0.00498265,0.00296439,0.00487895,0.00895574,-0.0010087,0.683419,0.00633356,0.0105923,1784,568,2.5096,0.0571401
567,456,2.49158,-0.0463867,0.00655858,0.00356992,0.00713061,0.0123498,-0.00222126,0.68211,0.00906477,0.00969149,1791,568,2.49156,0.0463918
574,456,2.48865,-0.0430298,0.00854494,0.00380746,0.0102123,0.0166596,-0.00430719,0.671438,0.0127863,0.0157532,1798,568,2.48867,0.0430269
581,456,2.43555,0.123169,0.0110972,0.00402014,0.0143615,0.0223497,-0.00723239,0.66461,0.0178071,0.0333145,1805,568,2.43551,-0.123193
588,456,2.61707,0.187256,0.0140414,0.00349935,0.0198353,0.0292941,-0.0117534,0.65553,0.0244094,0.042329,1812,568,2.61701,-0.187278
595,456,3.08252,0.177917,0.01737,0.00206971,0.026882,0.0376692,-0.0182295,0.646771,0.0329172,0.0455847,1819,568,3.08247,-0.177941
602,456,3.72876,0.272034,0.0213465,0.000391403,0.0358279,0.0481974,-0.0264595,0.643144,0.043708,0.0422341,1826,568,3.72877,-0.272052
609,456,4.62244,-0.178589,0.0256425,-0.0032903,0.04725,0.060591,-0.0382389,0.636846,0.0575439,0.0429986,1833,568,4.62239,0.178575
616,456,5.43896,-0.514526,0,0,0,0,0,0,0,-1,1840,568,5.43898,0.514518
623,456,2.56152,-0.0487061,0,0,0,0,0,0,0,-1,1847,568,2.56151,0.0487255
630,456,0,0,0,0,0,0,0,0,0,-1,1854,568,0,0
637,456,0,0,0,0,0,0,0,0,0,-1,1861,568,0,0
644,456,0,0,0,0,0,0,0,0,0,-1,1868,568,0,0
651,456,0,0,0,0,0,0,0,0,0,-1,1875,568,0,0
658,456,0,0,0,0,0,0,0,0,0,-1,1882,568,0,0
665,456,0,0,0,0,0,0,0,0,0,-1,1889,568,0,0
672,456,0,0,0,0,0,0,0,0,0,-1,1896,568,0,0
679,456,0,0,0,0,0,0,0,0,0,-1,1903,568,0,0
686,456,0,0,0,0,0,0,0,0,0,-1,1910,568,0,0
693,456,0,0,0,0,0,0,0,0,0,-1,1917,568,0,0
700,456,0,0,0,0,0,0,0,0,0,-1,1924,568,0,0
707,456,0,0,0,0,0,0,0,0,0,-1,1931,568,0,0
714,456,0,0,0,0,0,0,0,0,0,-1,1938,568,0,0
721,456,0,0,0,0,0,0,0,0,0,-1,1945,568,0,0
728,456,0,0,0,0,0,0,0,0,0,-1,1952,568,0,0
735,456,0,0,0,0,0,0,0,0,0,-1,1959,568,0,0
742,456,0,0,0,0,0,0,0,0,0,-1,1966,568,0,0
749,456,0,0,0,0,0,0,0,0,0,-1,1973,568,0,0
756,456,0,0,0,0,0,0,0,0,0,-1,1980,568,0,0
763,456,0,0,0,0,0,0,0,0,0,-1,1987,568,0,0
770,456,0,0,0,0,0,0,0,0,0,-1,1994,568,0,0
777,456,0,0,0,0,0,0,0,0,0,-1,2001,568,0,0
784,456,0,0,0,0,0,0,0,0,0,-1,2008,568,0,0
791,456,0,0,0,0,0,0,0,0,0,-1,2015,568,0,0
798,456,0,0,0,0,0,0,0,0,0,-1,2022,568,0,0
805,456,0,0,0,0,0,0,0,0,0,-1,2029,568,0,0
812,456,0,0,0,0,0,0,0,0,0,-1,2036,568,0,0
-700,449,0,0,0,0,0,0,0,0,0,-1,524,575,0,0
-693,449,0,0,0,0,0,0,0,0,0,-1,531,575,0,0
-686,449,0,0,0,0,0,0,0,0,0,-1,538,575,0,0
-679,449,0,0,0,0,0,0,0,0,0,-1,545,575,0,0
-672,449,0,0,0,0,0,0,0,0,0,-1,552,575,0,0
-665,449,0,0,0,0,0,0,0,0,0,-1,559,575,0,0
-658,449,0,0,0,0,0,0,0,0,0,-1,566,575,0,0
-651,449,0,0,0,0,0,0,0,0,0,-1,573,575,0,0
-644,449,0,0,0,0,0,0,0,0,0,-1,580,575,0,0
-637,449,0,0,0,0,0,0,0,0,0,-1,587,575,0,0
-630,449,0,0,0,0,0,0,0,0,0,-1,594,575,0,0
-623,449,0,0,0,0,0,0,0,0,0,-1,601,575,0,0
-616,449,0,0,0,0,0,0,0,0,0,-1,608,575,0,0
-609,449,0,0,0,0,0,0,0,0,0,-1,615,575,0,0
-602,449,0,0,0,0,0,0,0,0,0,-1,622,575,0,0
-595,449,0,0,0,0,0,0,0,0,0,-1,629,575,0,0
-588,449,0,0,0,0,0,0,0,0,0,-1,636,575,0,0
-581,449,0,0,0,0,0,0,0,0,0,-1,643,575,0,0
-574,449,0,0,0,0,0,0,0,0,0,-1,650,575,0,0
-567,449,0,0,0,0,0,0,0,0,0,-1,657,575,0,0
-560,449,0,0,0,0,0,0,0,0,0,-1,664,575,0,0
-553,449,0,0,0,0,0,0,0,0,0,-1,671,575,0,0
-546,449,0,0,0,0,0,0,0,0,0,-1,678,575,0,0
-539,449,0,0,0,0,0,0,0,0,0,-1,685,575,0,0
-532,449,0,0,0,0,0,0,0,0,0,-1,692,575,0,0
-525,449,0,0,0,0,0,0,0,0,0,-1,699,575,0,0
-518,449,0,0,0,0,0,0,0,0,0,-1,706,575,0,0
-511,449,0.462219,-1.73834,0.0558115,0.0143879,0.0504297,0.089617,-0.0194176,0.590547,0.0671595,0.0487256,713,575,0.462234,1.73832
-504,449,0.721008,-0.907532,0,0,0,0,0,0,0,-1,720,575,0.721023,0.907529
-497,449,0.982422,-0.0494385,0,0,0,0,0,0,0,-1,727,575,0.982452,0.0494657
-490,449,-1.41016,1.66913,0,0,0,0,0,0,0,-1,734,575,-1.41015,-1.66913
-483,449,-1.06757,1.17871,0.0362544,0.0161291,-7.66846e-05,0.0362547,0.0161288,-0.00381029,0.020974,0.0473664,741,575,-1.06754,-1.17874
-476,449,-0.426697,0.655884,0.0324434,0.0156811,-0.00459674,0.0336212,0.0145033,-0.250831,0.0194721,0.0454248,748,575,-0.426715,-0.655864
-469,449,-0.25824,0.287476,0,0,0,0,0,0,0,-1,755,575,-0.258232,-0.287479
-462,449,0.0631104,0.0271606,0.0249172,0.0137168,-0.00902764,0.0299406,0.00869342,-0.507777,0.0177855,0.0450239,762,575,0.0630895,-0.0271362
-455,449,0.737488,0.0908813,0.0210956,0.0119304,-0.00803123,0.0257597,0.00726632,-0.526137,0.015336,0.0367049,769,575,0.737494,-0.0908644
-448,449,0.971191,0.120605,0.0171417,0.00987246,-0.00593168,0.0204638,0.0065504,-0.510528,0.012067,0.0188067,776,575,0.97118,-0.120595
-441,449,0.973389,0.0204468,0.0139463,0.0080677,-0.00381745,0.0158249,0.00618908,-0.457321,0.00920847,0.01221,783,575,0.973366,-0.0204381
-434,449,0.951477,-0.0180664,0.0104064,0.00650237,-0.00286442,0.0119207,0.00498808,-0.486307,0.00691288,0.0104029,790,575,0.951465,0.0180686
-427,449,0.958862,-0.0407104,0.00692551,0.004751,-0.00163063,0.00779812,0.00387839,-0.491361,0.00450227,0.0114767,797,575,0.958858,0.0407017
-420,449,0.968262,-0.0687866,0.00445099,0.00341335,-0.00070209,0.00480515,0.00305918,-0.467198,0.00280858,0.0124131,804,575,0.968238,0.0687814
-413,449,0.972046,-0.10614,0.00226875,0.0030053,-0.000387401,0.00317154,0.00210251,-1.16545,0.00186321,0.00950573,811,575,0.972046,0.106114
-406,449,0.948303,-0.141541,0.00060344,0.00288329,-0.000453613,0.00297023,0.000516501,-1.38143,0.00183241,0.00787365,818,575,0.94832,0.141571
-399,449,0.943115,-0.180786,-0.000682263,0.00298204,-0.00114673,0.00331131,-0.00101154,-1.29118,0.00261088,0.00817503,825,575,0.943122,0.180786
-392,449,0.984131,-0.215332,-0.00184386,0.00377114,-0.00203912,0.00443353,-0.00250624,-1.25671,0.00405785,0.00891123,832,575,0.984121,0.215329
-385,449,0.984802,-0.248718,-0.00249825,0.00496921,-0.00276845,0.0058836,-0.00341264,-1.25179,0.00543002,0.00945654,839,575,0.984826,0.248719
-378,449,0.966187,-0.295776,-0.00272582,0.00629881,-0.00283623,0.00711615,-0.00354316,-1.29022,0.00626834,0.0100386,846,575,0.966179,0.295766
-371,449,0.966675,-0.330627,-0.00265926,0.00824286,-0.00233329,0.00872124,-0.00313764,-1.36857,0.00709519,0.0104997,853,575,0.966678,0.3306
-364,449,0.989929,-0.387939,-0.0028741,0.0107487,-0.0022593,0.0111136,-0.00323903,-1.41066,0.00869228,0.0178135,860,575,0.989953,0.387967
-357,449,1.02075,-0.446289,-0.00138496,0.0124987,-0.000118705,0.0124997,-0.00138598,-1.56225,0.00883147,0.0269347,867,575,1.02074,0.44629
-350,449,1.05652,-0.460388,0.000502238,0.0125397,0.00254629,0.0130561,-1.42222e-05,1.37068,0.00870884,0.0379546,874,575,1.0565,0.460359
-343,449,0.599243,-1.10126,0.00261017,0.012086,0.00559447,0.0146792,1.69184e-05,1.13674,0.00978051,0.0456093,881,575,0.599251,1.10124
-336,449,0.251709,-1.12372,0,0,0,0,0,0,0,-1,888,575,0.251719,1.12374
-329,449,-0.572144,-0.740234,0.00909969,0.00764111,0.0133879,0.0217781,-0.00503735,0.758188,0.0164569,0.0442501,895,575,-0.572158,0.74023
-322,449,-0.076355,-0.486572,0.0129326,0.0042114,0.0176147,0.0267184,-0.00957438,0.66406,0.021719,0.0435725,902,575,-0.076333,0.486577
-315,449,0.889832,-1.61279,0,0,0,0,0,0,0,-1,909,575,0.889841,1.61277
-308,449,0.209534,-1.47833,0.020585,-0.00570296,0.0260393,0.0366096,-0.0217276,0.551668,0.0340444,0.0470444,916,575,0.209531,1.47833
-301,449,0.333557,-1.19946,0.0224078,-0.0113396,0.028392,0.0385618,-0.0274935,0.517285,0.0383151,0.0450685,923,575,0.33354,1.19947
-294,449,0.464783,-0.91571,0.0227551,-0.0163181,0.0280012,0.0373615,-0.0309245,0.480806,0.0394833,0.0473611,930,575,0.464768,0.91573
-287,449,0.536743,-0.670837,0.0223063,-0.0203812,0.0261322,0.0347035,-0.0327783,0.44296,0.0389659,0.0482881,937,575,0.536727,0.670845
-280,449,0.421143,-0.441101,0.0200076,-0.024786,0.0243692,0.0307088,-0.0354871,0.413774,0.0382514,0.0458669,944,575,0.421144,0.441094
-273,449,0,0,0,0,0,0,0,0,0,-1,951,575,0,0
-266,449,0,0,0,0,0,0,0,0,0,-1,958,575,0,0
-259,449,0,0,0,0,0,0,0,0,0,-1,965,575,0,0
-252,449,0,0,0,0,0,0,0,0,0,-1,972,575,0,0
-245,449,0,0,0,0,0,0,0,0,0,-1,979,575,0,0
-238,449,0,0,0,0,0,0,0,0,0,-1,986,575,0,0
-231,449,0,0,0,0,0,0,0,0,0,-1,993,575,0,0
-224,449,0,0,0,0,0,0,0,0,0,-1,1000,575,0,0
-217,449,0,0,0,0,0,0,0,0,0,-1,1007,575,0,0
-210,449,0,0,0,0,0,0,0,0,0,-1,1014,575,0,0
-203,449,0,0,0,0,0,0,0,0,0,-1,1021,575,0,0
-196,449,0,0,0,0,0,0,0,0,0,-1,1028,575,0,0
-189,449,0,0,0,0,0,0,0,0,0,-1,1035,575,0,0
-182,449,0,0,0,0,0,0,0,0,0,-1,1042,575,0,0
-175,449,0,0,0,0,0,0,0,0,0,-1,1049,575,0,0
-168,449,0,0,0,0,0,0,0,0,0,-1,1056,575,0,0
-161,449,0,0,0,0,0,0,0,0,0,-1,1063,575,0,0
-154,449,0,0,0,0,0,0,0,0,0,-1,1070,575,0,0
-147,449,0,0,0,0,0,0,0,0,0,-1,1077,575,0,0
-140,449,0,0,0,0,0,0,0,0,0,-1,1084,575,0,0
-133,449,0,0,0,0,0,0,0,0,0,-1,1091,575,0,0
-126,449,0,0,0,0,0,0,0,0,0,-1,1098,575,0,0
-119,449,0,0,0,0,0,0,0,0,0,-1,1105,575,0,0
-112,449,0,0,0,0,0,0,0,0,0,-1,1112,575,0,0
-105,449,0,0,0,0,0,0,0,0,0,-1,1119,575,0,0
-98,449,0,0,0,0,0,0,0,0,0,-1,1126,575,0,0
-91,449,0,0,0,0,0,0,0,0,0,-1,1133,575,0,0
-84,449,0,0,0,0,0,0,0,0,0,-1,1140,575,0,0
-77,449,0,0,0,0,0,0,0,0,0,-1,1147,575,0,0
-70,449,0,0,0,0,0,0,0,0,0,-1,1154,575,0,0
-63,449,0,0,0,0,0,0,0,0,0,-1,1161,575,0,0
-56,449,0,0,0,0,0,0,0,0,0,-1,1168,575,0,0
-49,449,0,0,0,0,0,0,0,0,0,-1,1175,575,0,0
-42,449,0,0,0,0,0,0,0,0,0,-1,1182,575,0,0
-35,449,0,0,0,0,0,0,0,0,0,-1,1189,575,0,0
-28,449,0,0,0,0,0,0,0,0,0,-1,1196,575,0,0
-21,449,0,0,0,0,0,0,0,0,0,-1,1203,575,0,0
-14,449,0,0,0,0,0,0,0,0,0,-1,1210,575,0,0
-7,449,0,0,0,0,0,0,0,0,0,-1,1217,575,0,0
0,449,0,0,0,0,0,0,0,0,0,-1,1224,575,0,0
7,449,0,0,0,0,0,0,0,0,0,-1,1231,575,0,0
14,449,0,0,0,0,0,0,0,0,0,-1,1238,575,0,0
21,449,0,0,0,0,0,0,0,0,0,-1,1245,575,0,0
28,449,0,0,0,0,0,0,0,0,0,-1,1252,575,0,0
35,449,0,0,0,0,0,0,0,0,0,-1,1259,575,0,0
42,449,0,0,0,0,0,0,0,0,0,-1,1266,575,0,0
49,449,0,0,0,0,0,0,0,0,0,-1,1273,575,0,0
56,449,0,0,0,0,0,0,0,0,0,-1,1280,575,0,0
63,449,0,0,0,0,0,0,0,0,0,-1,1287,575,0,0
70,449,0,0,0,0,0,0,0,0,0,-1,1294,575,0,0
77,449,0,0,0,0,0,0,0,0,0,-1,1301,575,0,0
84,449,0,0,0,0,0,0,0,0,0,-1,1308,575,0,0
91,449,0,0,0,0,0,0,0,0,0,-1,1315,575,0,0
98,449,0,0,0,0,0,0,0,0,0,-1,1322,575,0,0
105,449,0,0,0,0,0,0,0,0,0,-1,1329,575,0,0
112,449,0,0,0,0,0,0,0,0,0,-1,1336,575,0,0
119,449,0,0,0,0,0,0,0,0,0,-1,1343,575,0,0
126,449,0,0,0,0,0,0,0,0,0,-1,1350,575,0,0
133,449,0,0,0,0,0,0,0,0,0,-1,1357,575,0,0
140,449,0,0,0,0,0,0,0,0,0,-1,1364,575,0,0
147,449,0,0,0,0,0,0,0,0,0,-1,1371,575,0,0
154,449,0,0,0,0,0,0,0,0,0,-1,1378,575,0,0
161,449,0,0,0,0,0,0,0,0,0,-1,1385,575,0,0
168,449,0,0,0,0,0,0,0,0,0,-1,1392,575,0,0
175,449,0,0,0,0,0,0,0,0,0,-1,1399,575,0,0
182,449,0,0,0,0,0,0,0,0,0,-1,1406,575,0,0
189,449,0,0,0,0,0,0,0,0,0,-1,1413,575,0,0
196,449,0,0,0,0,0,0,0,0,0,-1,1420,575,0,0
203,449,0,0,0,0,0,0,0,0,0,-1,1427,575,0,0
210,449,0,0,0,0,0,0,0,0,0,-1,1434,575,0,0
217,449,0,0,0,0,0,0,0,0,0,-1,1441,575,0,0
224,449,0,0,0,0,0,0,0,0,0,-1,1448,575,0,0
231,449,0,0,0,0,0,0,0,0,0,-1,1455,575,0,0
238,449,0,0,0,0,0,0,0,0,0,-1,1462,575,0,0
245,449,0,0,0,0,0,0,0,0,0,-1,1469,575,0,0
252,449,0,0,0,0,0,0,0,0,0,-1,1476,575,0,0
259,449,0,0,0,0,0,0,0,0,0,-1,1483,575,0,0
266,449,0,0,0,0,0,0,0,0,0,-1,1490,575,0,0
273,449,0,0,0,0,0,0,0,0,0,-1,1497,575,0,0
280,449,0,0,0,0,0,0,0,0,0,-1,1504,575,0,0
287,449,0,0,0,0,0,0,0,0,0,-1,1511,575,0,0
294,449,0,0,0,0,0,0,0,0,0,-1,1518,575,0,0
301,449,0,0,0,0,0,0,0,0,0,-1,1525,575,0,0
308,449,0,0,0,0,0,0,0,0,0,-1,1532,575,0,0
315,449,0,0,0,0,0,0,0,0,0,-1,1539,575,0,0
322,449,0,0,0,0,0,0,0,0,0,-1,1546,575,0,0
329,449,0,0,0,0,0,0,0,0,0,-1,1553,575,0,0
336,449,0,0,0,0,0,0,0,0,0,-1,1560,575,0,0
343,449,0,0,0,0,0,0,0,0,0,-1,1567,575,0,0
350,449,0,0,0,0,0,0,0,0,0,-1,1574,575,0,0
357,449,0,0,0,0,0,0,0,0,0,-1,1581,575,0,0
364,449,0,0,0,0,0,0,0,0,0,-1,1588,575,0,0
371,449,0,0,0,0,0,0,0,0,0,-1,1595,575,0,0
378,449,0,0,0,0,0,0,0,0,0,-1,1602,575,0,0
385,449,0,0,0,0,0,0,0,0,0,-1,1609,575,0,0
392,449,3.4762,1.71802,0.0248412,-0.00329601,0.000385283,0.0248465,-0.00330129,0.0136896,0.0177673,0.0454018,1616,575,3.4762,-1.71801
399,449,3.41443,1.87531,0.0154092,-0.00882012,-0.00462315,0.0162613,-0.00967228,-0.18228,0.015133,0.0458256,1623,575,3.41439,-1.87528
406,449,3.54333,1.83124,0,0,0,0,0,0,0,-1,1630,575,3.54339,-1.83121
413,449,3.60181,2.18524,0.000526855,-0.0211846,-0.0104918,0.00476827,-0.0254261,-0.384175,0.0187434,0.0451263,1637,575,3.60179,-2.18524
420,449,3.77344,2.62939,-0.00589641,-0.024863,-0.0128171,0.000564258,-0.0313237,-0.466896,0.0210731,0.0478974,1644,575,3.7734,-2.62938
427,449,3.76404,2.39032,-0.0105048,-0.0267703,-0.0136694,-0.00273179,-0.0345433,-0.517044,0.0221744,0.0424545,1651,575,3.76399,-2.39033
434,449,3.4054,1.33661,0,0,0,0,0,0,0,-1,1658,575,3.40545,-1.3366
441,449,2.96863,-2.992,0,0,0,0,0,0,0,-1,1665,575,2.96861,2.99199
448,449,3.35791,-1.98669,-0.0150823,-0.0257224,-0.0111332,-0.00806335,-0.0327413,-0.56251,0.0196978,0.0451101,1672,575,3.35793,1.98669
455,449,3.49329,-0.966492,-0.0150364,-0.0228897,-0.00957209,-0.00861683,-0.0293092,-0.590756,0.0173938,0.045177,1679,575,3.49325,0.966488
462,449,3.49377,-0.655762,0,0,0,0,0,0,0,-1,1686,575,3.49375,0.655783
469,449,2.79382,-0.734009,0,0,0,0,0,0,0,-1,1693,575,2.7938,0.734027
476,449,2.66907,-0.477966,-0.0119365,-0.0124999,-0.00546025,-0.00675067,-0.0176857,-0.759623,0.0103057,0.0471198,1700,575,2.66901,0.477996
483,449,2.63831,-0.440552,-0.00995625,-0.0099752,-0.00374788,-0.00621784,-0.0137136,-0.784134,0.00792901,0.0418009,1707,575,2.63836,0.440555
490,449,2.6123,-0.422363,-0.0079947,-0.00807195,-0.00235655,-0.00567646,-0.0103902,-0.777204,0.00600736,0.0363106,1714,575,2.61228,0.422356
497,449,2.54932,-0.413025,-0.00628968,-0.00566298,-0.00199737,-0.00395453,-0.00799813,-0.863205,0.00461782,0.0244905,1721,575,2.5493,0.413002
504,449,2.52051,-0.388306,-0.00482756,-0.00390878,-0.00223867,-0.00208285,-0.00665349,-0.886597,0.00392988,0.0145799,1728,575,2.52053,0.388311
511,449,2.52917,-0.336121,-0.00332215,-0.00295685,-0.00184288,-0.00128759,-0.0049914,-0.834793,0.00299222,0.00980575,1735,575,2.5292,0.336094
518,449,2.52612,-0.284302,-0.00182833,-0.00194559,-0.00158757,-0.000298311,-0.00347561,-0.766942,0.00222432,0.0126291,1742,575,2.52614,0.284329
525,449,2.52271,-0.244446,-0.000505216,-0.00117068,-0.00117667,0.000384863,-0.00206076,-0.647609,0.00151847,0.013148,1749,575,2.52275,0.244448
532,449,2.51367,-0.224915,0.000305234,-0.000585585,-0.00058596,0.000595853,-0.000876205,-0.46042,0.000855015,0.0107469,1756,575,2.51367,0.224938
539,449,2.50647,-0.182739,0.00116678,0.000201803,-2.33484e-05,0.00116735,0.000201239,-0.0241769,0.000720581,0.0116861,1763,575,2.50644,0.182741
546,449,2.51318,-0.111511,0.00200368,0.000858797,0.000611148,0.00226861,0.000593866,0.409045,0.00135843,0.018354,1770,575,2.5132,0.111494
553,449,2.53149,-0.0759277,0.00293589,0.00163137,0.00166388,0.00407079,0.00049647,0.598599,0.00256444,0.0138796,1777,575,2.5315,0.0759074
560,449,2.54919,-0.0608521,0.00410027,0.0023689,0.00356401,0.00690222,-0.000433053,0.666257,0.00475241,0.0129845,1784,575,2.54919,0.0608819
567,449,2.52307,-0.0452271,0.00553122,0.00290578,0.00528815,0.00966715,-0.00123015,0.663738,0.00689151,0.00943538,1791,575,2.52305,0.0452161
574,449,2.52051,-0.00463867,0.00721079,0.00300359,0.00762513,0.0130172,-0.00280278,0.650807,0.00974763,0.0116142,1798,575,2.52048,0.00465553
581,449,2.50293,0.0560303,0.00933005,0.00309549,0.0107681,0.017423,-0.0049975,0.644504,0.013591,0.0183415,1805,575,2.50287,-0.0560447
588,449,2.52368,0.110779,0.0116875,0.00250987,0.0149792,0.022765,-0.00856765,0.636764,0.0186987,0.0304818,1812,575,2.52365,-0.11079
595,449,2.69189,0.167542,0.0141717,0.00125058,0.0203753,0.0290862,-0.0136639,0.631873,0.0252115,0.03906,1819,575,2.6919,-0.167516
602,449,2.77686,0.218323,0.017023,0.000263384,0.0270416,0.0369534,-0.0196671,0.635148,0.0331938,0.0467578,1826,575,2.7769,-0.218327
609,449,2.08972,1.15234,0.0199634,-0.00221261,0.0354037,0.0459748,-0.028224,0.633642,0.0432454,0.047002,1833,575,2.08977,-1.15233
616,449,1.89331,1.29047,0,0,0,0,0,0,0,-1,1840,575,1.89333,-1.29046
623,449,2.83691,-0.407776,0,0,0,0,0,0,0,-1,1847,575,2.83685,0.407805
630,449,2.90125,-0.134644,0,0,0,0,0,0,0,-1,1854,575,2.90124,0.134658
637,449,0,0,0,0,0,0,0,0,0,-1,1861,575,0,0
644,449,0,0,0,0,0,0,0,0,0,-1,1868,575,0,0
651,449,0,0,0,0,0,0,0,0,0,-1,1875,575,0,0
658,449,0,0,0,0,0,0,0,0,0,-1,1882,575,0,0
665,449,0,0,0,0,0,0,0,0,0,-1,1889,575,0,0
672,449,0,0,0,0,0,0,0,0,0,-1,1896,575,0,0
679,449,0,0,0,0,0,0,0,0,0,-1,1903,575,0,0
686,449,0,0,0,0,0,0,0,0,0,-1,1910,575,0,0
693,449,0,0,0,0,0,0,0,0,0,-1,1917,575,0,0
700,449,0,0,0,0,0,0,0,0,0,-1,1924,575,0,0
707,449,0,0,0,0,0,0,0,0,0,-1,1931,575,0,0
714,449,0,0,0,0,0,0,0,0,0,-1,1938,575,0,0
721,449,0,0,0,0,0,0,0,0,0,-1,1945,575,0,0
728,449,0,0,0,0,0,0,0,0,0,-1,1952,575,0,0
735,449,0,0,0,0,0,0,0,0,0,-1,1959,575,0,0
742,449,0,0,0,0,0,0,0,0,0,-1,1966,575,0,0
749,449,0,0,0,0,0,0,0,0,0,-1,1973,575,0,0
756,449,0,0,0,0,0,0,0,0,0,-1,1980,575,0,0
763,449,0,0,0,0,0,0,0,0,0,-1,1987,575,0,0
770,449,0,0,0,0,0,0,0,0,0,-1,1994,575,0,0
777,449,0,0,0,0,0,0,0,0,0,-1,2001,575,0,0
784,449,0,0,0,0,0,0,0,0,0,-1,2008,575,0,0
791,449,0,0,0,0,0,0,0,0,0,-1,2015,575,0,0
798,449,0,0,0,0,0,0,0,0,0,-1,2022,575,0,0
805,449,0,0,0,0,0,0,0,0,0,-1,2029,575,0,0
812,449,0,0,0,0,0,0,0,0,0,-1,2036,575,0,0
-700,442,0,0,0,0,0,0,0,0,0,-1,524,582,0,0
-693,442,0,0,0,0,0,0,0,0,0,-1,531,582,0,0
-686,442,0,0,0,0,0,0,0,0,0,-1,538,582,0,0
-679,442,0,0,0,0,0,0,0,0,0,-1,545,582,0,0
-672,442,0,0,0,0,0,0,0,0,0,-1,552,582,0,0
-665,442,0,0,0,0,0,0,0,0,0,-1,559,582,0,0
-658,442,0,0,0,0,0,0,0,0,0,-1,566,582,0,0
-651,442,0,0,0,0,0,0,0,0,0,-1,573,582,0,0
-644,442,0,0,0,0,0,0,0,0,0,-1,580,582,0,0
-637,442,0,0,0,0,0,0,0,0,0,-1,587,582,0,0
-630,442,0,0,0,0,0,0,0,0,0,-1,594,582,0,0
-623,442,0,0,0,0,0,0,0,0,0,-1,601,582,0,0
-616,442,0,0,0,0,0,0,0,0,0,-1,608,582,0,0
-609,442,0,0,0,0,0,0,0,0,0,-1,615,582,0,0
-602,442,0,0,0,0,0,0,0,0,0,-1,622,582,0,0
-595,442,0,0,0,0,0,0,0,0,0,-1,629,582,0,0
-588,442,0,0,0,0,0,0,0,0,0,-1,636,582,0,0
-581,442,0,0,0,0,0,0,0,0,0,-1,643,582,0,0
-574,442,0,0,0,0,0,0,0,0,0,-1,650,582,0,0
-567,442,0,0,0,0,0,0,0,0,0,-1,657,582,0,0
-560,442,0,0,0,0,0,0,0,0,0,-1,664,582,0,0
-553,442,0,0,0,0,0,0,0,0,0,-1,671,582,0,0
-546,442,0,0,0,0,0,0,0,0,0,-1,678,582,0,0
-539,442,0,0,0,0,0,0,0,0,0,-1,685,582,0,0
-532,442,0,0,0,0,0,0,0,0,0,-1,692,582,0,0
-525,442,0,0,0,0,0,0,0,0,0,-1,699,582,0,0
-518,442,-0.342834,-2.67523,0.0602262,0.0046684,0.0616916,0.100105,-0.0352101,0.573852,0.0810635,0.045465,706,582,-0.34281,2.67524
-511,442,-0.170715,-1.79254,0.0524082,0.00562416,0.0438997,0.0787592,-0.0207269,0.540607,0.0606082,0.0491393,713,582,-0.170715,1.79256
-504,442,0.312073,-0.292053,0,0,0,0,0,0,0,-1,720,582,0.312069,0.292068
-497,442,0.642273,-0.06073,0.0413363,0.00838969,0.0161941,0.0479632,0.0017628,0.388426,0.0314044,0.0480329,727,582,0.642259,0.0607553
-490,442,0.0748291,-0.259216,0.0371128,0.00927309,0.00681546,0.0386917,0.00769414,0.227655,0.0236507,0.0456811,734,582,0.0748354,0.259213
-483,442,0.279785,-0.608459,0,0,0,0,0,0,0,-1,741,582,0.279784,0.608461
-476,442,0.0901489,0.474792,0.028967,0.0103259,-0.00380352,0.0297132,0.00957974,-0.193726,0.0175119,0.0427894,748,582,0.0901782,-0.474769
-469,442,0.544373,0.312256,0.0256379,0.0104856,-0.00704957,0.0284104,0.00771308,-0.374704,0.0169642,0.0388493,755,582,0.544371,-0.312243
-462,442,0.852661,0.211914,0.0219726,0.00984483,-0.00823503,0.0261355,0.00568197,-0.468043,0.0158724,0.0319996,762,582,0.85267,-0.211909
-455,442,0.90863,0.140442,0.0185198,0.00882112,-0.00727279,0.0224117,0.0049292,-0.491359,0.0135992,0.0198773,769,582,0.908636,-0.14045
-448,442,0.92572,0.0839233,0.0150055,0.00738681,-0.00531268,0.0177334,0.0046589,-0.474366,0.0106157,0.0130384,776,582,0.925748,-0.0839231
-441,442,0.936646,0.022583,0.0121814,0.00608541,-0.00335727,0.0136679,0.00459893,-0.416821,0.00803062,0.0124457,783,582,0.936662,-0.0225949
-434,442,0.931335,-0.0203247,0.00901315,0.0048707,-0.00238999,0.0101045,0.00377932,-0.428365,0.00589525,0.0117884,790,582,0.931306,0.0203336
-427,442,0.911804,-0.0515747,0.00586157,0.00344673,-0.00127248,0.00640831,0.00289999,-0.405814,0.00370539,0.0123317,797,582,0.911792,0.0515811
-420,442,0.922668,-0.0739136,0.00355163,0.00237785,-0.000487669,0.0037278,0.00220168,-0.34666,0.002164,0.0131938,804,582,0.92267,0.073885
-413,442,0.933167,-0.0980835,0.00158488,0.00216175,-0.000349072,0.00232614,0.0014205,-1.13068,0.00135392,0.0108416,811,582,0.933143,0.0980544
-406,442,0.933716,-0.144958,8.29572e-05,0.00224661,-0.000538953,0.00237342,-4.38597e-05,-1.3397,0.0015971,0.00863109,818,582,0.93369,0.144977
-399,442,0.930969,-0.198853,-0.00109055,0.00253633,-0.0013144,0.00296258,-0.0015168,-1.25721,0.00263069,0.00778831,825,582,0.93099,0.198827
-392,442,0.946472,-0.219055,-0.00219041,0.00351324,-0.00236579,0.0043668,-0.00304396,-1.22454,0.00430127,0.00961167,832,582,0.946457,0.219053
-385,442,0.941833,-0.243835,-0.00288928,0.00491023,-0.00332359,0.00613437,-0.00411343,-1.21789,0.0059548,0.0108878,839,582,0.941863,0.243816
-378,442,0.927612,-0.278992,-0.00307735,0.00644049,-0.00356239,0.00762614,-0.004263,-1.2495,0.00695514,0.0118478,846,582,0.927594,0.279009
-371,442,0.926758,-0.3125,-0.00285697,0.00863813,-0.00314916,0.00944432,-0.00366316,-1.32018,0.00780911,0.0228545,853,582,0.926752,0.312478
-364,442,0.886902,-0.433777,-0.00291877,0.0114086,-0.00317677,0.0120814,-0.00359155,-1.3621,0.009481,0.0362998,860,582,0.88692,0.433751
-357,442,0.887268,-0.642456,-0.000667612,0.0131349,-0.000596225,0.0131606,-0.000693319,-1.52771,0.00901376,0.042059,867,582,0.887281,0.64246
-350,442,0.832642,-0.707275,0.00234929,0.0126664,0.00259885,0.0132841,0.00173162,1.33746,0.00833897,0.0442121,874,582,0.832627,0.7073
-343,442,0.412537,-1.37244,0.00565793,0.0115781,0.00619393,0.0154829,0.00175312,1.00831,0.00979006,0.0467031,881,582,0.41256,1.37241
-336,442,-2.16736,-0.638611,0,0,0,0,0,0,0,-1,888,582,-2.16737,0.638596
-329,442,-1.67316,-0.631409,0.0153827,0.00526111,0.0154676,0.0265964,-0.00595258,0.627295,0.0200124,0.0449731,895,582,-1.67316,0.631426
-322,442,-1.09955,-0.721924,0.0215443,0.000829699,0.0207596,0.0343869,-0.0120129,0.554008,0.0278077,0.0467156,902,582,-1.09955,0.721917
-315,442,-0.464539,-1.15167,0,0,0,0,0,0,0,-1,909,582,-0.464511,1.15169
-308,442,-0.0339966,-1.27008,0.0357996,-0.0125305,0.0334648,0.0529122,-0.0296431,0.472695,0.0482903,0.0458737,916,582,-0.0339948,1.27006
-301,442,0.426331,-0.552429,0.0397806,-0.0202141,0.0377152,0.0579733,-0.0384068,0.449444,0.056026,0.0420479,923,582,0.426318,0.552457
-294,442,0.512451,-0.401245,0.0399463,-0.0269085,0.037187,0.0565215,-0.0434837,0.419295,0.0579014,0.0448125,930,582,0.512427,0.401228
-287,442,0.644226,-0.475769,0,0,0,0,0,0,0,-1,937,582,0.644198,0.475791
-280,442,0,0,0,0,0,0,0,0,0,-1,944,582,0,0
-273,442,0,0,0,0,0,0,0,0,0,-1,951,582,0,0
-266,442,0,0,0,0,0,0,0,0,0,-1,958,582,0,0
-259,442,0,0,0,0,0,0,0,0,0,-1,965,582,0,0
-252,442,0,0,0,0,0,0,0,0,0,-1,972,582,0,0
-245,442,0,0,0,0,0,0,0,0,0,-1,979,582,0,0
-238,442,0,0,0,0,0,0,0,0,0,-1,986,582,0,0
-231,442,0,0,0,0,0,0,0,0,0,-1,993,582,0,0
-224,442,0,0,0,0,0,0,0,0,0,-1,1000,582,0,0
-217,442,0,0,0,0,0,0,0,0,0,-1,1007,582,0,0
-210,442,0,0,0,0,0,0,0,0,0,-1,1014,582,0,0
-203,442,0,0,0,0,0,0,0,0,0,-1,1021,582,0,0
-196,442,0,0,0,0,0,0,0,0,0,-1,1028,582,0,0
-189,442,0,0,0,0,0,0,0,0,0,-1,1035,582,0,0
-182,442,0,0,0,0,0,0,0,0,0,-1,1042,582,0,0
-175,442,0,0,0,0,0,0,0,0,0,-1,1049,582,0,0
-168,442,0,0,0,0,0,0,0,0,0,-1,1056,582,0,0
-161,442,0,0,0,0,0,0,0,0,0,-1,1063,582,0,0
-154,442,0,0,0,0,0,0,0,0,0,-1,1070,582,0,0
-147,442,0,0,0,0,0,0,0,0,0,-1,1077,582,0,0
-140,442,0,0,0,0,0,0,0,0,0,-1,1084,582,0,0
-133,442,0,0,0,0,0,0,0,0,0,-1,1091,582,0,0
-126,442,0,0,0,0,0,0,0,0,0,-1,1098,582,0,0
-119,442,0,0,0,0,0,0,0,0,0,-1,1105,582,0,0
-112,442,0,0,0,0,0,0,0,0,0,-1,1112,582,0,0
-105,442,0,0,0,0,0,0,0,0,0,-1,1119,582,0,0
-98,442,0,0,0,0,0,0,0,0,0,-1,1126,582,0,0
-91,442,0,0,0,0,0,0,0,0,0,-1,1133,582,0,0
-84,442,0,0,0,0,0,0,0,0,0,-1,1140,582,0,0
-77,442,0,0,0,0,0,0,0,0,0,-1,1147,582,0,0
-70,442,0,0,0,0,0,0,0,0,0,-1,1154,582,0,0
-63,442,0,0,0,0,0,0,0,0,0,-1,1161,582,0,0
-56,442,0,0,0,0,0,0,0,0,0,-1,1168,582,0,0
-49,442,0,0,0,0,0,0,0,0,0,-1,1175,582,0,0
-42,442,0,0,0,0,0,0,0,0,0,-1,1182,582,0,0
-35,442,0,0,0,0,0,0,0,0,0,-1,1189,582,0,0
-28,442,0,0,0,0,0,0,0,0,0,-1,1196,582,0,0
-21,442,0,0,0,0,0,0,0,0,0,-1,1203,582,0,0
-14,442,0,0,0,0,0,0,0,0,0,-1,1210,582,0,0
-7,442,0,0,0,0,0,0,0,0,0,-1,1217,582,0,0
0,442,0,0,0,0,0,0,0,0,0,-1,1224,582,0,0
7,442,0,0,0,0,0,0,0,0,0,-1,1231,582,0,0
14,442,0,0,0,0,0,0,0,0,0,-1,1238,582,0,0
21,442,0,0,0,0,0,0,0,0,0,-1,1245,582,0,0
28,442,0,0,0,0,0,0,0,0,0,-1,1252,582,0,0
35,442,0,0,0,0,0,0,0,0,0,-1,1259,582,0,0
42,442,0,0,0,0,0,0,0,0,0,-1,1266,582,0,0
49,442,0,0,0,0,0,0,0,0,0,-1,1273,582,0,0
56,442,0,0,0,0,0,0,0,0,0,-1,1280,582,0,0
63,442,0,0,0,0,0,0,0,0,0,-1,1287,582,0,0
70,442,0,0,0,0,0,0,0,0,0,-1,1294,582,0,0
77,442,0,0,0,0,0,0,0,0,0,-1,1301,582,0,0
84,442,0,0,0,0,0,0,0,0,0,-1,1308,582,0,0
91,442,0,0,0,0,0,0,0,0,0,-1,1315,582,0,0
98,442,0,0,0,0,0,0,0,0,0,-1,1322,582,0,0
105,442,0,0,0,0,0,0,0,0,0,-1,1329,582,0,0
112,442,0,0,0,0,0,0,0,0,0,-1,1336,582,0,0
119,442,0,0,0,0,0,0,0,0,0,-1,1343,582,0,0
126,442,0,0,0,0,0,0,0,0,0,-1,1350,582,0,0
133,442,0,0,0,0,0,0,0,0,0,-1,1357,582,0,0
140,442,0,0,0,0,0,0,0,0,0,-1,1364,582,0,0
147,442,0,0,0,0,0,0,0,0,0,-1,1371,582,0,0
154,442,0,0,0,0,0,0,0,0,0,-1,1378,582,0,0
161,442,0,0,0,0,0,0,0,0,0,-1,1385,582,0,0
168,442,0,0,0,0,0,0,0,0,0,-1,1392,582,0,0
175,442,0,0,0,0,0,0,0,0,0,-1,1399,582,0,0
182,442,0,0,0,0,0,0,0,0,0,-1,1406,582,0,0
189,442,0,0,0,0,0,0,0,0,0,-1,1413,582,0,0
196,442,0,0,0,0,0,0,0,0,0,-1,1420,582,0,0
203,442,0,0,0,0,0,0,0,0,0,-1,1427,582,0,0
210,442,0,0,0,0,0,0,0,0,0,-1,1434,582,0,0
217,442,0,0,0,0,0,0,0,0,0,-1,1441,582,0,0
224,442,0,0,0,0,0,0,0,0,0,-1,1448,582,0,0
231,442,0,0,0,0,0,0,0,0,0,-1,1455,582,0,0
238,442,0,0,0,0,0,0,0,0,0,-1,1462,582,0,0
245,442,0,0,0,0,0,0,0,0,0,-1,1469,582,0,0
252,442,0,0,0,0,0,0,0,0,0,-1,1476,582,0,0
259,442,0,0,0,0,0,0,0,0,0,-1,1483,582,0,0
266,442,0,0,0,0,0,0,0,0,0,-1,1490,582,0,0
273,442,0,0,0,0,0,0,0,0,0,-1,1497,582,0,0
280,442,0,0,0,0,0,0,0,0,0,-1,1504,582,0,0
287,442,0,0,0,0,0,0,0,0,0,-1,1511,582,0,0
294,442,0,0,0,0,0,0,0,0,0,-1,1518,582,0,0
301,442,0,0,0,0,0,0,0,0,0,-1,1525,582,0,0
308,442,0,0,0,0,0,0,0,0,0,-1,1532,582,0,0
315,442,0,0,0,0,0,0,0,0,0,-1,1539,582,0,0
322,442,0,0,0,0,0,0,0,0,0,-1,1546,582,0,0
329,442,0,0,0,0,0,0,0,0,0,-1,1553,582,0,0
336,442,0,0,0,0,0,0,0,0,0,-1,1560,582,0,0
343,442,0,0,0,0,0,0,0,0,0,-1,1567,582,0,0
350,442,0,0,0,0,0,0,0,0,0,-1,1574,582,0,0
357,442,0,0,0,0,0,0,0,0,0,-1,1581,582,0,0
364,442,0,0,0,0,0,0,0,0,0,-1,1588,582,0,0
371,442,0,0,0,0,0,0,0,0,0,-1,1595,582,0,0
378,442,0,0,0,0,0,0,0,0,0,-1,1602,582,0,0
385,442,0,0,0,0,0,0,0,0,0,-1,1609,582,0,0
392,442,0,0,0,0,0,0,0,0,0,-1,1616,582,0,0
399,442,0,0,0,0,0,0,0,0,0,-1,1623,582,0,0
406,442,3.7196,2.52588,0,0,0,0,0,0,0,-1,1630,582,3.71965,-2.52587
413,442,3.66699,2.87408,-0.00320488,-0.016087,-0.00875998,0.00122716,-0.0205191,-0.46839,0.0141062,0.0473387,1637,582,3.66703,-2.87408
420,442,3.64331,3.18622,-0.00939841,-0.0217538,-0.0113328,-0.00266886,-0.0284833,-0.535856,0.0181647,0.0469832,1644,582,3.64333,-3.18622
427,442,3.60413,2.6463,-0.0138145,-0.0251061,-0.0123359,-0.00589385,-0.0330268,-0.57079,0.0203399,0.0423012,1651,582,3.60414,-2.64629
434,442,3.20178,1.46368,-0.0163904,-0.0267293,-0.0121621,-0.0083447,-0.034775,-0.584444,0.0209629,0.0442847,1658,582,3.20181,-1.46367
441,442,2.87524,0.329102,0,0,0,0,0,0,0,-1,1665,582,2.8753,-0.329119
448,442,3.65527,-1.99701,-0.0175552,-0.0265359,-0.00984584,-0.0112241,-0.032867,-0.571455,0.0192909,0.0489372,1672,582,3.65532,1.997
455,442,4.19299,-1.06738,-0.0173262,-0.0240919,-0.00829646,-0.0117495,-0.0296687,-0.591815,0.0172523,0.0463237,1679,582,4.19298,1.06737
462,442,4.87891,-0.383301,0,0,0,0,0,0,0,-1,1686,582,4.87886,0.383318
469,442,2.92944,-0.211914,0,0,0,0,0,0,0,-1,1693,582,2.92941,0.211943
476,442,2.73022,-0.477173,0,0,0,0,0,0,0,-1,1700,582,2.73028,0.477153
483,442,2.69409,-0.395325,-0.0115134,-0.0119245,-0.00319177,-0.00852058,-0.0149173,-0.753241,0.00864157,0.0462413,1707,582,2.69409,0.395331
490,442,2.63818,-0.430725,-0.00935896,-0.0100266,-0.00203907,-0.00762655,-0.011759,-0.704265,0.00688823,0.0420118,1714,582,2.63818,0.430717
497,442,2.63391,-0.429138,-0.00751322,-0.0073749,-0.00202419,-0.00541869,-0.00946943,-0.802475,0.00548616,0.0383762,1721,582,2.63387,0.429145
504,442,2.59729,-0.417969,-0.0059789,-0.00540795,-0.00252609,-0.00315126,-0.0082356,-0.841665,0.00479829,0.024773,1728,582,2.59726,0.417958
511,442,2.53967,-0.365234,-0.00436604,-0.00402548,-0.00229834,-0.00189112,-0.0065004,-0.822375,0.00386083,0.0123294,1735,582,2.53962,0.365239
518,442,2.55164,-0.300659,-0.0026819,-0.00264316,-0.00207013,-0.00059231,-0.00473275,-0.790076,0.00297743,0.0101967,1742,582,2.5516,0.300677
525,442,2.56409,-0.24884,-0.00125443,-0.0016968,-0.00158627,0.000126001,-0.00307723,-0.716126,0.00209475,0.0102709,1749,582,2.56414,0.248857
532,442,2.57117,-0.200073,-0.000485254,-0.00104856,-0.00091693,0.000192304,-0.00172612,-0.636387,0.00121991,0.0106933,1756,582,2.57114,0.200064
539,442,2.5575,-0.184021,0.000268575,-0.000245033,-0.000326481,0.000427148,-0.000403607,-0.452146,0.000479701,0.0106829,1763,582,2.55749,0.18405
546,442,2.56165,-0.131042,0.000971304,0.000364339,0.000290516,0.00108794,0.000247702,0.381786,0.000658445,0.0124664,1770,582,2.56161,0.131048
553,442,2.552,-0.0879517,0.00177268,0.00104671,0.00124585,0.00270735,0.000112043,0.643646,0.00176873,0.0133808,1777,582,2.552,0.0879227
560,442,2.55627,-0.0779419,0.00279226,0.00172438,0.00282121,0.0051296,-0.000612972,0.691875,0.0036413,0.0141716,1784,582,2.55629,0.0779177
567,442,2.55383,-0.0322876,0.00408244,0.0021535,0.00423517,0.00746157,-0.00122562,0.673443,0.00542923,0.00994553,1791,582,2.55389,0.0322655
574,442,2.55176,-0.000549316,0.00546346,0.00206084,0.00604584,0.0100428,-0.0025185,0.648244,0.00767373,0.01157,1798,582,2.55181,0.000525206
581,442,2.5603,0.0369263,0.00710768,0.00198036,0.00837239,0.0133001,-0.00421208,0.636829,0.0105547,0.0121733,1805,582,2.56034,-0.0368974
588,442,2.53711,0.0747681,0.00888062,0.0012914,0.0115416,0.0172354,-0.00706334,0.626576,0.0144328,0.0140606,1812,582,2.53709,-0.0747903
595,442,2.54504,0.180969,0.0106872,8.65383e-05,0.0155798,0.0218436,-0.0110699,0.621438,0.019339,0.0291881,1819,582,2.54504,-0.180953
602,442,2.25195,0.602905,0.0127367,-0.000535113,0.0203947,0.0275479,-0.0153464,0.628114,0.0250968,0.0425305,1826,582,2.25192,-0.602894
609,442,2.01135,0.822205,0.0147579,-0.00233609,0.0263744,0.0339356,-0.0215138,0.628706,0.0322804,0.0466508,1833,582,2.01135,-0.822208
616,442,1.77856,1.00555,0,0,0,0,0,0,0,-1,1840,582,1.77853,-1.00558
623,442,2.50256,-0.921082,0,0,0,0,0,0,0,-1,1847,582,2.50257,0.92109
630,442,2.37939,2.68091,0,0,0,0,0,0,0,-1,1854,582,2.37942,-2.68089
637,442,2.4325,2.21686,0,0,0,0,0,0,0,-1,1861,582,2.43249,-2.21686
644,442,0,0,0,0,0,0,0,0,0,-1,1868,582,0,0
651,442,0,0,0,0,0,0,0,0,0,-1,1875,582,0,0
658,442,0,0,0,0,0,0,0,0,0,-1,1882,582,0,0
665,442,0,0,0,0,0,0,0,0,0,-1,1889,582,0,0
672,442,0,0,0,0,0,0,0,0,0,-1,1896,582,0,0
679,442,0,0,0,0,0,0,0,0,0,-1,1903,582,0,0
686,442,0,0,0,0,0,0,0,0,0,-1,1910,582,0,0
693,442,0,0,0,0,0,0,0,0,0,-1,1917,582,0,0
700,442,0,0,0,0,0,0,0,0,0,-1,1924,582,0,0
707,442,0,0,0,0,0,0,0,0,0,-1,1931,582,0,0
714,442,0,0,0,0,0,0,0,0,0,-1,1938,582,0,0
721,442,0,0,0,0,0,0,0,0,0,-1,1945,582,0,0
728,442,0,0,0,0,0,0,0,0,0,-1,1952,582,0,0
735,442,0,0,0,0,0,0,0,0,0,-1,1959,582,0,0
742,442,0,0,0,0,0,0,0,0,0,-1,1966,582,0,0
749,442,0,0,0,0,0,0,0,0,0,-1,1973,582,0,0
756,442,0,0,0,0,0,0,0,0,0,-1,1980,582,0,0
763,442,0,0,0,0,0,0,0,0,0,-1,1987,582,0,0
770,442,0,0,0,0,0,0,0,0,0,-1,1994,582,0,0
777,442,0,0,0,0,0,0,0,0,0,-1,2001,582,0,0
784,442,0,0,0,0,0,0,0,0,0,-1,2008,582,0,0
791,442,0,0,0,0,0,0,0,0,0,-1,2015,582,0,0
798,442,0,0,0,0,0,0,0,0,0,-1,2022,582,0,0
805,442,0,0,0,0,0,0,0,0,0,-1,2029,582,0,0
812,442,0,0,0,0,0,0,0,0,0,-1,2036,582,0,0
-700,435,0,0,0,0,0,0,0,0,0,-1,524,589,0,0
-693,435,0,0,0,0,0,0,0,0,0,-1,531,589,0,0
-686,435,0,0,0,0,0,0,0,0,0,-1,538,589,0,0
-679,435,0,0,0,0,0,0,0,0,0,-1,545,589,0,0
-672,435,0,0,0,0,0,0,0,0,0,-1,552,589,0,0
-665,435,0,0,0,0,0,0,0,0,0,-1,559,589,0,0
-658,435,0,0,0,0,0,0,0,0,0,-1,566,589,0,0
-651,435,0,0,0,0,0,0,0,0,0,-1,573,589,0,0
-644,435,0,0,0,0,0,0,0,0,0,-1,580,589,0,0
-637,435,0,0,0,0,0,0,0,0,0,-1,587,589,0,0
-630,435,0,0,0,0,0,0,0,0,0,-1,594,589,0,0
-623,435,0,0,0,0,0,0,0,0,0,-1,601,589,0,0
-616,435,0,0,0,0,0,0,0,0,0,-1,608,589,0,0
-609,435,0,0,0,0,0,0,0,0,0,-1,615,589,0,0
-602,435,0,0,0,0,0,0,0,0,0,-1,622,589,0,0
-595,435,0,0,0,0,0,0,0,0,0,-1,629,589,0,0
-588,435,0,0,0,0,0,0,0,0,0,-1,636,589,0,0
-581,435,0,0,0,0,0,0,0,0,0,-1,643,589,0,0
-574,435,0,0,0,0,0,0,0,0,0,-1,650,589,0,0
-567,435,0,0,0,0,0,0,0,0,0,-1,657,589,0,0
-560,435,0,0,0,0,0,0,0,0,0,-1,664,589,0,0
-553,435,0,0,0,0,0,0,0,0,0,-1,671,589,0,0
-546,435,0,0,0,0,0,0,0,0,0,-1,678,589,0,0
-539,435,0,0,0,0,0,0,0,0,0,-1,685,589,0,0
-532,435,0,0,0,0,0,0,0,0,0,-1,692,589,0,0
-525,435,-1.37445,-3.48718,0.0639316,-0.0037069,0.0675103,0.10562,-0.0453951,0.553195,0.0894698,0.0458782,699,589,-1.37445,3.4872
-518,435,-1.12695,-2.47955,0.0544677,-0.00219054,0.0512079,0.0846603,-0.0323832,0.532743,0.0697857,0.0458864,706,589,-1.12694,2.47958
-511,435,0.0115967,0.123718,0,0,0,0,0,0,0,-1,713,589,0.0115762,-0.123748
-504,435,0.195496,0.147705,0,0,0,0,0,0,0,-1,720,589,0.195474,-0.147693
-497,435,0.397339,0.12085,0.0359485,0.00297613,0.013762,0.0409376,-0.00201291,0.347789,0.0279868,0.046912,727,589,0.397324,-0.120841
-490,435,0.431824,0.074646,0.0316604,0.00419485,0.0058405,0.0328508,0.00300447,0.201061,0.0209709,0.0429357,734,589,0.431831,-0.0746537
-483,435,0.270569,0.244629,0,0,0,0,0,0,0,-1,741,589,0.270542,-0.244631
-476,435,0.522461,0.277893,0.0236243,0.00607883,-0.00353976,0.0243116,0.00539161,-0.191758,0.0147429,0.0396483,748,589,0.522433,-0.277892
-469,435,0.752441,0.281677,0.0206926,0.00675426,-0.00665144,0.0233573,0.00408958,-0.381037,0.0144032,0.0259833,755,589,0.752421,-0.28166
-462,435,0.87146,0.176208,0.0174801,0.00660028,-0.00780659,0.0215552,0.00252518,-0.481099,0.0136067,0.0137177,762,589,0.871441,-0.17619
-455,435,0.874695,0.134399,0.0146424,0.00614557,-0.00684903,0.0184537,0.00233432,-0.507793,0.0116029,0.0123018,769,589,0.874668,-0.134392
-448,435,0.893066,0.086853,0.0118558,0.00517655,-0.00500059,0.0145294,0.00250293,-0.49099,0.00896912,0.0128309,776,589,0.893051,-0.0868449
-441,435,0.882996,0.0369263,0.00963465,0.00428507,-0.00316631,0.0111047,0.00281498,-0.434675,0.00666599,0.0104062,783,589,0.883004,-0.0369378
-434,435,0.880676,-0.00201416,0.00706246,0.00333166,-0.00213653,0.00803334,0.00236078,-0.426521,0.00476762,0.0118181,790,589,0.880702,0.00203666
-427,435,0.889771,-0.0406494,0.00446639,0.00216071,-0.00107465,0.00488959,0.00173751,-0.375155,0.00286211,0.00985808,797,589,0.889751,0.0406735
-420,435,0.894592,-0.0744629,0.00250148,0.00128224,-0.000381703,0.00261112,0.0011726,-0.279706,0.00151014,0.00973086,804,589,0.894572,0.0744395
-413,435,0.902161,-0.101501,0.000933868,0.00113486,-0.000367856,0.0014157,0.000653026,-0.91874,0.000818171,0.00957702,811,589,0.902139,0.101519
-406,435,0.910339,-0.147522,-0.000328924,0.00128411,-0.000598472,0.0014819,-0.000526717,-1.2516,0.00120259,0.00991749,818,589,0.910328,0.147531
-399,435,0.901428,-0.201416,-0.00144258,0.00161523,-0.00137622,0.00214339,-0.00197074,-1.20435,0.00237599,0.00868091,825,589,0.901401,0.201409
-392,435,0.893005,-0.216431,-0.00253478,0.00257482,-0.00254663,0.00362728,-0.00358724,-1.1789,0.00416533,0.00963747,832,589,0.893005,0.216437
-385,435,0.891724,-0.232178,-0.00330921,0.00393951,-0.00371058,0.0055021,-0.00487179,-1.17222,0.00599306,0.0115585,839,589,0.89174,0.23215
-378,435,0.918518,-0.239197,-0.00350179,0.00543299,-0.00414383,0.00705895,-0.00512775,-1.19688,0.00706538,0.0174238,846,589,0.918523,0.239178
-371,435,0.922302,-0.286621,-0.00314584,0.00760554,-0.00387137,0.00885447,-0.00439477,-1.25873,0.00779256,0.0360026,853,589,0.922327,0.286618
-364,435,0.587585,-0.802917,-0.00298727,0.0103061,-0.00399152,0.0114126,-0.00409369,-1.30039,0.009279,0.0427564,860,589,0.587605,0.802898
-357,435,0.543213,-0.997192,0.000115819,0.0117149,-0.000934239,0.0117897,4.10536e-05,-1.49094,0.00784612,0.0489137,867,589,0.543221,0.997196
-350,435,0.714172,-0.949402,0,0,0,0,0,0,0,-1,874,589,0.714148,0.949427
-343,435,0.238037,-1.6972,0,0,0,0,0,0,0,-1,881,589,0.238031,1.69718
-336,435,0.703064,2.49945,0,0,0,0,0,0,0,-1,888,589,0.703082,-2.49947
-329,435,-2.76526,-0.55365,0,0,0,0,0,0,0,-1,895,589,-2.76528,0.553634
-322,435,-2.117,-0.919128,0,0,0,0,0,0,0,-1,902,589,-2.117,0.919144
-315,435,-1.90454,-2.12799,0,0,0,0,0,0,0,-1,909,589,-1.90454,2.128
-308,435,-0.680115,-1.29004,0.0589697,-0.0225443,0.0432591,0.0776474,-0.041222,0.407585,0.069695,0.0464364,916,589,-0.680108,1.29006
-301,435,0.335693,-0.147339,0.0695372,-0.0333747,0.0520055,0.0912406,-0.055078,0.395355,0.0853328,0.0430123,923,589,0.335672,0.147326
-294,435,1.42395,0.944275,0,0,0,0,0,0,0,-1,930,589,1.42393,-0.944281
-287,435,0,0,0,0,0,0,0,0,0,-1,937,589,0,0
-280,435,0,0,0,0,0,0,0,0,0,-1,944,589,0,0
-273,435,0,0,0,0,0,0,0,0,0,-1,951,589,0,0
-266,435,0,0,0,0,0,0,0,0,0,-1,958,589,0,0
-259,435,0,0,0,0,0,0,0,0,0,-1,965,589,0,0
-252,435,0,0,0,0,0,0,0,0,0,-1,972,589,0,0
-245,435,0,0,0,0,0,0,0,0,0,-1,979,589,0,0
-238,435,0,0,0,0,0,0,0,0,0,-1,986,589,0,0
-231,435,0,0,0,0,0,0,0,0,0,-1,993,589,0,0
-224,435,0,0,0,0,0,0,0,0,0,-1,1000,589,0,0
-217,435,0,0,0,0,0,0,0,0,0,-1,1007,589,0,0
-210,435,0,0,0,0,0,0,0,0,0,-1,1014,589,0,0
-203,435,0,0,0,0,0,0,0,0,0,-1,1021,589,0,0
-196,435,0,0,0,0,0,0,0,0,0,-1,1028,589,0,0
-189,435,0,0,0,0,0,0,0,0,0,-1,1035,589,0,0
-182,435,0,0,0,0,0,0,0,0,0,-1,1042,589,0,0
-175,435,0,0,0,0,0,0,0,0,0,-1,1049,589,0,0
-168,435,0,0,0,0,0,0,0,0,0,-1,1056,589,0,0
-161,435,0,0,0,0,0,0,0,0,0,-1,1063,589,0,0
-154,435,0,0,0,0,0,0,0,0,0,-1,1070,589,0,0
-147,435,0,0,0,0,0,0,0,0,0,-1,1077,589,0,0
-140,435,0,0,0,0,0,0,0,0,0,-1,1084,589,0,0
-133,435,0,0,0,0,0,0,0,0,0,-1,1091,589,0,0
-126,435,0,0,0,0,0,0,0,0,0,-1,1098,589,0,0
-119,435,0,0,0,0,0,0,0,0,0,-1,1105,589,0,0
-112,435,0,0,0,0,0,0,0,0,0,-1,1112,589,0,0
-105,435,0,0,0,0,0,0,0,0,0,-1,1119,589,0,0
-98,435,0,0,0,0,0,0,0,0,0,-1,1126,589,0,0
-91,435,0,0,0,0,0,0,0,0,0,-1,1133,589,0,0
-84,435,0,0,0,0,0,0,0,0,0,-1,1140,589,0,0
-77,435,0,0,0,0,0,0,0,0,0,-1,1147,589,0,0
-70,435,0,0,0,0,0,0,0,0,0,-1,1154,589,0,0
-63,435,0,0,0,0,0,0,0,0,0,-1,1161,589,0,0
-56,435,0,0,0,0,0,0,0,0,0,-1,1168,589,0,0
-49,435,0,0,0,0,0,0,0,0,0,-1,1175,589,0,0
-42,435,0,0,0,0,0,0,0,0,0,-1,1182,589,0,0
-35,435,0,0,0,0,0,0,0,0,0,-1,1189,589,0,0
-28,435,0,0,0,0,0,0,0,0,0,-1,1196,589,0,0
-21,435,0,0,0,0,0,0,0,0,0,-1,1203,589,0,0
-14,435,0,0,0,0,0,0,0,0,0,-1,1210,589,0,0
-7,435,0,0,0,0,0,0,0,0,0,-1,1217,589,0,0
0,435,0,0,0,0,0,0,0,0,0,-1,1224,589,0,0
7,435,0,0,0,0,0,0,0,0,0,-1,1231,589,0,0
14,435,0,0,0,0,0,0,0,0,0,-1,1238,589,0,0
21,435,0,0,0,0,0,0,0,0,0,-1,1245,589,0,0
28,435,0,0,0,0,0,0,0,0,0,-1,1252,589,0,0
35,435,0,0,0,0,0,0,0,0,0,-1,1259,589,0,0
42,435,0,0,0,0,0,0,0,0,0,-1,1266,589,0,0
49,435,0,0,0,0,0,0,0,0,0,-1,1273,589,0,0
56,435,0,0,0,0,0,0,0,0,0,-1,1280,589,0,0
63,435,0,0,0,0,0,0,0,0,0,-1,1287,589,0,0
70,435,0,0,0,0,0,0,0,0,0,-1,1294,589,0,0
77,435,0,0,0,0,0,0,0,0,0,-1,1301,589,0,0
84,435,0,0,0,0,0,0,0,0,0,-1,1308,589,0,0
91,435,0,0,0,0,0,0,0,0,0,-1,1315,589,0,0
98,435,0,0,0,0,0,0,0,0,0,-1,1322,589,0,0
105,435,0,0,0,0,0,0,0,0,0,-1,1329,589,0,0
112,435,0,0,0,0,0,0,0,0,0,-1,1336,589,0,0
119,435,0,0,0,0,0,0,0,0,0,-1,1343,589,0,0
126,435,0,0,0,0,0,0,0,0,0,-1,1350,589,0,0
133,435,0,0,0,0,0,0,0,0,0,-1,1357,589,0,0
140,435,0,0,0,0,0,0,0,0,0,-1,1364,589,0,0
147,435,0,0,0,0,0,0,0,0,0,-1,1371,589,0,0
154,435,0,0,0,0,0,0,0,0,0,-1,1378,589,0,0
161,435,0,0,0,0,0,0,0,0,0,-1,1385,589,0,0
168,435,0,0,0,0,0,0,0,0,0,-1,1392,589,0,0
175,435,0,0,0,0,0,0,0,0,0,-1,1399,589,0,0
182,435,0,0,0,0,0,0,0,0,0,-1,1406,589,0,0
189,435,0,0,0,0,0,0,0,0,0,-1,1413,589,0,0
196,435,0,0,0,0,0,0,0,0,0,-1,1420,589,0,0
203,435,0,0,0,0,0,0,0,0,0,-1,1427,589,0,0
210,435,0,0,0,0,0,0,0,0,0,-1,1434,589,0,0
217,435,0,0,0,0,0,0,0,0,0,-1,1441,589,0,0
224,435,0,0,0,0,0,0,0,0,0,-1,1448,589,0,0
231,435,0,0,0,0,0,0,0,0,0,-1,1455,589,0,0
238,435,0,0,0,0,0,0,0,0,0,-1,1462,589,0,0
245,435,0,0,0,0,0,0,0,0,0,-1,1469,589,0,0
252,435,0,0,0,0,0,0,0,0,0,-1,1476,589,0,0
259,435,0,0,0,0,0,0,0,0,0,-1,1483,589,0,0
266,435,0,0,0,0,0,0,0,0,0,-1,1490,589,0,0
273,435,0,0,0,0,0,0,0,0,0,-1,1497,589,0,0
280,435,0,0,0,0,0,0,0,0,0,-1,1504,589,0,0
287,435,0,0,0,0,0,0,0,0,0,-1,1511,589,0,0
294,435,0,0,0,0,0,0,0,0,0,-1,1518,589,0,0
301,435,0,0,0,0,0,0,0,0,0,-1,1525,589,0,0
308,435,0,0,0,0,0,0,0,0,0,-1,1532,589,0,0
315,435,0,0,0,0,0,0,0,0,0,-1,1539,589,0,0
322,435,0,0,0,0,0,0,0,0,0,-1,1546,589,0,0
329,435,0,0,0,0,0,0,0,0,0,-1,1553,589,0,0
336,435,0,0,0,0,0,0,0,0,0,-1,1560,589,0,0
343,435,0,0,0,0,0,0,0,0,0,-1,1567,589,0,0
350,435,0,0,0,0,0,0,0,0,0,-1,1574,589,0,0
357,435,0,0,0,0,0,0,0,0,0,-1,1581,589,0,0
364,435,0,0,0,0,0,0,0,0,0,-1,1588,589,0,0
371,435,0,0,0,0,0,0,0,0,0,-1,1595,589,0,0
378,435,0,0,0,0,0,0,0,0,0,-1,1602,589,0,0
385,435,0,0,0,0,0,0,0,0,0,-1,1609,589,0,0
392,435,0,0,0,0,0,0,0,0,0,-1,1616,589,0,0
399,435,0,0,0,0,0,0,0,0,0,-1,1623,589,0,0
406,435,0,0,0,0,0,0,0,0,0,-1,1630,589,0,0
413,435,3.62073,3.42682,0,0,0,0,0,0,0,-1,1637,589,3.62069,-3.4268
420,435,3.6062,3.71564,-0.0141548,-0.0162905,-0.00903575,-0.00612405,-0.0243213,-0.72658,0.0146072,0.0475749,1644,589,3.60616,-3.71562
427,435,3.1377,2.55518,-0.0178029,-0.0219953,-0.00988075,-0.00979839,-0.0299997,-0.680873,0.0176641,0.0435525,1651,589,3.1377,-2.5552
434,435,2.73926,1.34204,-0.019526,-0.0252485,-0.00948887,-0.0124764,-0.0322982,-0.638965,0.0188074,0.042184,1658,589,2.73926,-1.34207
441,435,2.47717,0.102356,0,0,0,0,0,0,0,-1,1665,589,2.47717,-0.102364
448,435,4.0824,-1.9082,0,0,0,0,0,0,0,-1,1672,589,4.08242,1.90819
455,435,4.76611,-1.11426,0,0,0,0,0,0,0,-1,1679,589,4.76606,1.11424
462,435,4.67224,-0.885376,0,0,0,0,0,0,0,-1,1686,589,4.67222,0.885385
469,435,3.06482,-0.458252,-0.0169244,-0.0196145,-0.00382008,-0.0142195,-0.0223194,-0.616125,0.0130466,0.0483645,1693,589,3.06479,0.458238
476,435,2.72473,0.00939941,0,0,0,0,0,0,0,-1,1700,589,2.72475,-0.00940082
483,435,2.58398,-0.470703,0,0,0,0,0,0,0,-1,1707,589,2.58392,0.470707
490,435,2.60815,-0.426025,-0.0101989,-0.0121285,-0.000829095,-0.0098916,-0.0124358,-0.354947,0.00758604,0.0416609,1714,589,2.60819,0.426034
497,435,2.71716,-0.458923,-0.00837656,-0.00926726,-0.0013323,-0.00741715,-0.0102267,-0.624102,0.00610086,0.0403439,1721,589,2.71713,0.45893
504,435,2.70166,-0.425537,-0.00692198,-0.00711516,-0.00225815,-0.00475836,-0.00927878,-0.764024,0.00535769,0.0366731,1728,589,2.70167,0.425536
511,435,2.53796,-0.343933,-0.00535228,-0.00531197,-0.00237128,-0.00296076,-0.00770349,-0.789648,0.0044871,0.0206157,1735,589,2.53791,0.343939
518,435,2.59058,-0.303162,-0.00365282,-0.00355241,-0.0023391,-0.00126298,-0.00594226,-0.796128,0.00361482,0.0100717,1742,589,2.5906,0.30314
525,435,2.60596,-0.238281,-0.0022519,-0.0023851,-0.0019128,-0.000404543,-0.00423246,-0.767997,0.00269692,0.0111836,1749,589,2.60594,0.238306
532,435,2.59766,-0.184692,-0.00158715,-0.00158334,-0.00132287,-0.000262374,-0.00290812,-0.786119,0.00185747,0.0127651,1756,589,2.59767,0.184699
539,435,2.60876,-0.178284,-0.00096482,-0.000734185,-0.000775469,-6.55063e-05,-0.0016335,-0.859211,0.00106783,0.0136599,1763,589,2.60873,0.178291
546,435,2.60535,-0.161072,-0.000388342,-0.000131886,-0.000191912,-2.93054e-05,-0.000490923,-1.07992,0.000317964,0.0125957,1770,589,2.6054,0.161096
553,435,2.59106,-0.127563,0.000375829,0.000522242,0.000685585,0.00113852,-0.000240447,0.838586,0.000850566,0.00977495,1777,589,2.5911,0.127557
560,435,2.58447,-0.0907593,0.00134951,0.00118138,0.00197381,0.00324104,-0.000710154,0.764116,0.00243222,0.00929001,1784,589,2.58451,0.0907727
567,435,2.59973,-0.0256348,0.00260507,0.00156922,0.00313333,0.00526299,-0.0010887,0.703491,0.00392225,0.00899368,1791,589,2.59978,0.025663
574,435,2.59094,0.00805664,0.00381596,0.00136246,0.00450267,0.007256,-0.00207758,0.652401,0.00565846,0.00981849,1798,589,2.59091,-0.00805965
581,435,2.58057,0.0402832,0.00511551,0.00117967,0.00614678,0.0096017,-0.00330653,0.630476,0.00774235,0.0156861,1805,589,2.58051,-0.0402602
588,435,2.57776,0.0753174,0.00645914,0.000451108,0.00848794,0.012459,-0.00554872,0.615319,0.0106489,0.0162608,1812,589,2.57776,-0.0753229
595,435,2.55603,0.130676,0.00775357,-0.000636316,0.011486,0.0157867,-0.00866942,0.610312,0.0143177,0.0197438,1819,589,2.556,-0.130653
602,435,2.51172,0.172302,0.00920711,-0.000928864,0.0149795,0.0199527,-0.0116745,0.622279,0.0184673,0.0397744,1826,589,2.51174,-0.172294
609,435,2.75989,-0.309631,0.0106996,-0.00220533,0.0193388,0.024634,-0.0161397,0.624379,0.0237104,0.045128,1833,589,2.75992,0.309618
616,435,2.97107,-0.509155,0.0122344,-0.00341978,0.0249161,0.0305239,-0.0217092,0.633209,0.0302996,0.0466552,1840,589,2.97106,0.509158
623,435,3.03931,-0.585266,0,0,0,0,0,0,0,-1,1847,589,3.0393,0.585267
630,435,3.14246,1.75177,0,0,0,0,0,0,0,-1,1854,589,3.14251,-1.75179
637,435,3.16968,-0.106079,0,0,0,0,0,0,0,-1,1861,589,3.16969,0.106102
644,435,0,0,0,0,0,0,0,0,0,-1,1868,589,0,0
651,435,0,0,0,0,0,0,0,0,0,-1,1875,589,0,0
658,435,0,0,0,0,0,0,0,0,0,-1,1882,589,0,0
665,435,0,0,0,0,0,0,0,0,0,-1,1889,589,0,0
672,435,0,0,0,0,0,0,0,0,0,-1,1896,589,0,0
679,435,0,0,0,0,0,0,0,0,0,-1,1903,589,0,0
686,435,0,0,0,0,0,0,0,0,0,-1,1910,589,0,0
693,435,0,0,0,0,0,0,0,0,0,-1,1917,589,0,0
700,435,0,0,0,0,0,0,0,0,0,-1,1924,589,0,0
707,435,0,0,0,0,0,0,0,0,0,-1,1931,589,0,0
714,435,0,0,0,0,0,0,0,0,0,-1,1938,589,0,0
721,435,0,0,0,0,0,0,0,0,0,-1,1945,589,0,0
728,435,0,0,0,0,0,0,0,0,0,-1,1952,589,0,0
735,435,0,0,0,0,0,0,0,0,0,-1,1959,589,0,0
742,435,0,0,0,0,0,0,0,0,0,-1,1966,589,0,0
749,435,0,0,0,0,0,0,0,0,0,-1,1973,589,0,0
756,435,0,0,0,0,0,0,0,0,0,-1,1980,589,0,0
763,435,0,0,0,0,0,0,0,0,0,-1,1987,589,0,0
770,435,0,0,0,0,0,0,0,0,0,-1,1994,589,0,0
777,435,0,0,0,0,0,0,0,0,0,-1,2001,589,0,0
784,435,0,0,0,0,0,0,0,0,0,-1,2008,589,0,0
791,435,0,0,0,0,0,0,0,0,0,-1,2015,589,0,0
798,435,0,0,0,0,0,0,0,0,0,-1,2022,589,0,0
805,435,0,0,0,0,0,0,0,0,0,-1,2029,589,0,0
812,435,0,0,0,0,0,0,0,0,0,-1,2036,589,0,0
-700,428,0,0,0,0,0,0,0,0,0,-1,524,596,0,0
-693,428,0,0,0,0,0,0,0,0,0,-1,531,596,0,0
-686,428,0,0,0,0,0,0,0,0,0,-1,538,596,0,0
-679,428,0,0,0,0,0,0,0,0,0,-1,545,596,0,0
-672,428,0,0,0,0,0,0,0,0,0,-1,552,596,0,0
-665,428,0,0,0,0,0,0,0,0,0,-1,559,596,0,0
-658,428,0,0,0,0,0,0,0,0,0,-1,566,596,0,0
-651,428,0,0,0,0,0,0,0,0,0,-1,573,596,0,0
-644,428,0,0,0,0,0,0,0,0,0,-1,580,596,0,0
-637,428,0,0,0,0,0,0,0,0,0,-1,587,596,0,0
-630,428,0,0,0,0,0,0,0,0,0,-1,594,596,0,0
-623,428,0,0,0,0,0,0,0,0,0,-1,601,596,0,0
-616,428,0,0,0,0,0,0,0,0,0,-1,608,596,0,0
-609,428,0,0,0,0,0,0,0,0,0,-1,615,596,0,0
-602,428,0,0,0,0,0,0,0,0,0,-1,622,596,0,0
-595,428,0,0,0,0,0,0,0,0,0,-1,629,596,0,0
-588,428,0,0,0,0,0,0,0,0,0,-1,636,596,0,0
-581,428,0,0,0,0,0,0,0,0,0,-1,643,596,0,0
-574,428,0,0,0,0,0,0,0,0,0,-1,650,596,0,0
-567,428,0,0,0,0,0,0,0,0,0,-1,657,596,0,0
-560,428,0,0,0,0,0,0,0,0,0,-1,664,596,0,0
-553,428,0,0,0,0,0,0,0,0,0,-1,671,596,0,0
-546,428,0,0,0,0,0,0,0,0,0,-1,678,596,0,0
-539,428,0,0,0,0,0,0,0,0,0,-1,685,596,0,0
-532,428,0,0,0,0,0,0,0,0,0,-1,692,596,0,0
-525,428,-2.4588,-3.1059,0.0574076,-0.00892655,0.0540908,0.0876902,-0.0392092,0.510373,0.0750265,0.046511,699,596,-2.45879,3.10592
-518,428,-1.90784,-2.2583,0.0493762,-0.00716553,0.0417258,0.0715066,-0.0292959,0.487652,0.059875,0.0446311,706,596,-1.90783,2.25828
-511,428,-1.72015,-1.16718,0,0,0,0,0,0,0,-1,713,596,-1.72014,1.16717
-504,428,0.335388,0.77002,0,0,0,0,0,0,0,-1,720,596,0.33541,-0.770048
-497,428,0.355957,0.585938,0.0321187,-0.00157693,0.0115654,0.0357063,-0.00516457,0.300792,0.0256993,0.0442566,727,596,0.355931,-0.585942
-490,428,0.443604,0.392212,0.0278838,-0.000166446,0.00497702,0.0287408,-0.00102335,0.170501,0.0195106,0.0418431,734,596,0.443629,-0.392187
-483,428,0.528564,0.224182,0.0234955,0.00106533,0.000244891,0.0234982,0.00106265,0.0109162,0.0153235,0.0393863,741,596,0.528541,-0.224155
-476,428,0.690186,0.209961,0.0199404,0.00225535,-0.00324894,0.0205184,0.00167737,-0.176055,0.0131555,0.0319029,748,596,0.690205,-0.209946
-469,428,0.838379,0.210266,0.0172024,0.0032487,-0.00619738,0.0195574,0.000893671,-0.36315,0.0127508,0.017046,755,596,0.83835,-0.210285
-462,428,0.855225,0.16394,0.0141805,0.00343512,-0.00732822,0.0178945,-0.000278916,-0.469083,0.0120237,0.014448,762,596,0.855224,-0.163954
-455,428,0.833923,0.113403,0.0116318,0.00350003,-0.00644946,0.01519,-5.82007e-05,-0.504154,0.0101461,0.0114472,769,596,0.833929,-0.113433
-448,428,0.840088,0.0911865,0.00925319,0.00297982,-0.00480802,0.0118572,0.000375787,-0.496373,0.00778257,0.0106242,776,596,0.840097,-0.091165
-441,428,0.835388,0.052063,0.0073818,0.00249672,-0.0031514,0.00892641,0.000952121,-0.455723,0.00566032,0.0121029,783,596,0.835394,-0.052074
-434,428,0.828186,-0.0128784,0.00517844,0.00180439,-0.00210283,0.00618733,0.000795498,-0.447338,0.00388695,0.00931537,790,596,0.828214,0.0128563
-427,428,0.862488,-0.0608521,0.00298025,0.000887224,-0.00109924,0.00345147,0.000416005,-0.404982,0.00217561,0.010486,797,596,0.862504,0.0608226
-420,428,0.875061,-0.0678711,0.00126488,0.000172221,-0.000493216,0.00145458,-1.74774e-05,-0.367174,0.000975599,0.0101591,804,596,0.87504,0.0678596
-413,428,0.867615,-0.101196,-0.000114797,-2.21366e-05,-0.000505277,0.000438929,-0.000575863,-0.831117,0.000587666,0.0114144,811,596,0.867628,0.10117
-406,428,0.859436,-0.146179,-0.00119948,3.99783e-05,-0.000726218,0.000374952,-0.00153445,-1.13862,0.00116819,0.0142353,818,596,0.859436,0.146177
-399,428,0.852539,-0.179138,-0.00216626,0.000217676,-0.00139454,0.000860248,-0.00280883,-1.13902,0.00221569,0.0137343,825,596,0.852509,0.179155
-392,428,0.853088,-0.218262,-0.00319719,0.000874508,-0.00255026,0.00210186,-0.00442455,-1.12225,0.00384674,0.0120556,832,596,0.853114,0.218265
-385,428,0.845093,-0.272888,-0.00402392,0.00183805,-0.00378775,0.0036964,-0.00588228,-1.11468,0.00557804,0.0165001,839,596,0.845108,0.272879
-378,428,0.879517,-0.286011,-0.00421211,0.00288996,-0.00433171,0.00494013,-0.00626228,-1.12874,0.00648271,0.0320521,846,596,0.879543,0.286014
-371,428,0.846802,-0.414734,-0.00371494,0.00458333,-0.00414078,0.00629606,-0.00542766,-1.1786,0.00677488,0.0420572,853,596,0.846795,0.414749
-364,428,0.439697,-1.11481,-0.00329915,0.00669387,-0.00424042,0.00825071,-0.00485598,-1.21893,0.00765129,0.0425538,860,596,0.439701,1.11479
-357,428,0.00482178,-1.65448,0,0,0,0,0,0,0,-1,867,596,0.00481506,1.65447
-350,428,0.222595,-0.291443,0,0,0,0,0,0,0,-1,874,596,0.222576,0.291431
-343,428,0.0401001,0.247803,0,0,0,0,0,0,0,-1,881,596,0.0401242,-0.247778
-336,428,0.406189,1.66223,0,0,0,0,0,0,0,-1,888,596,0.406196,-1.66222
-329,428,0.249146,1.49481,0,0,0,0,0,0,0,-1,895,596,0.249128,-1.49478
-322,428,-0.101135,1.30072,0,0,0,0,0,0,0,-1,902,596,-0.101135,-1.30074
-315,428,-2.18268,-1.7688,0,0,0,0,0,0,0,-1,909,596,-2.18271,1.76879
-308,428,-0.991028,-1.00702,0,0,0,0,0,0,0,-1,916,596,-0.991049,1.00703
-301,428,0,0,0,0,0,0,0,0,0,-1,923,596,0,0
-294,428,0,0,0,0,0,0,0,0,0,-1,930,596,0,0
-287,428,0,0,0,0,0,0,0,0,0,-1,937,596,0,0
-280,428,0,0,0,0,0,0,0,0,0,-1,944,596,0,0
-273,428,0,0,0,0,0,0,0,0,0,-1,951,596,0,0
-266,428,0,0,0,0,0,0,0,0,0,-1,958,596,0,0
-259,428,0,0,0,0,0,0,0,0,0,-1,965,596,0,0
-252,428,0,0,0,0,0,0,0,0,0,-1,972,596,0,0
-245,428,0,0,0,0,0,0,0,0,0,-1,979,596,0,0
-238,428,0,0,0,0,0,0,0,0,0,-1,986,596,0,0
-231,428,0,0,0,0,0,0,0,0,0,-1,993,596,0,0
-224,428,0,0,0,0,0,0,0,0,0,-1,1000,596,0,0
-217,428,0,0,0,0,0,0,0,0,0,-1,1007,596,0,0
-210,428,0,0,0,0,0,0,0,0,0,-1,1014,596,0,0
-203,428,0,0,0,0,0,0,0,0,0,-1,1021,596,0,0
-196,428,0,0,0,0,0,0,0,0,0,-1,1028,596,0,0
-189,428,0,0,0,0,0,0,0,0,0,-1,1035,596,0,0
-182,428,0,0,0,0,0,0,0,0,0,-1,1042,596,0,0
-175,428,0,0,0,0,0,0,0,0,0,-1,1049,596,0,0
-168,428,0,0,0,0,0,0,0,0,0,-1,1056,596,0,0
-161,428,0,0,0,0,0,0,0,0,0,-1,1063,596,0,0
-154,428,0,0,0,0,0,0,0,0,0,-1,1070,596,0,0
-147,428,0,0,0,0,0,0,0,0,0,-1,1077,596,0,0
-140,428,0,0,0,0,0,0,0,0,0,-1,1084,596,0,0
-133,428,0,0,0,0,0,0,0,0,0,-1,1091,596,0,0
-126,428,0,0,0,0,0,0,0,0,0,-1,1098,596,0,0
-119,428,0,0,0,0,0,0,0,0,0,-1,1105,596,0,0
-112,428,0,0,0,0,0,0,0,0,0,-1,1112,596,0,0
-105,428,0,0,0,0,0,0,0,0,0,-1,1119,596,0,0
-98,428,0,0,0,0,0,0,0,0,0,-1,1126,596,0,0
-91,428,0,0,0,0,0,0,0,0,0,-1,1133,596,0,0
-84,428,0,0,0,0,0,0,0,0,0,-1,1140,596,0,0
-77,428,0,0,0,0,0,0,0,0,0,-1,1147,596,0,0
-70,428,0,0,0,0,0,0,0,0,0,-1,1154,596,0,0
-63,428,0,0,0,0,0,0,0,0,0,-1,1161,596,0,0
-56,428,0,0,0,0,0,0,0,0,0,-1,1168,596,0,0
-49,428,0,0,0,0,0,0,0,0,0,-1,1175,596,0,0
-42,428,0,0,0,0,0,0,0,0,0,-1,1182,596,0,0
-35,428,0,0,0,0,0,0,0,0,0,-1,1189,596,0,0
-28,428,0,0,0,0,0,0,0,0,0,-1,1196,596,0,0
-21,428,0,0,0,0,0,0,0,0,0,-1,1203,596,0,0
-14,428,0,0,0,0,0,0,0,0,0,-1,1210,596,0,0
-7,428,0,0,0,0,0,0,0,0,0,-1,1217,596,0,0
0,428,0,0,0,0,0,0,0,0,0,-1,1224,596,0,0
7,428,0,0,0,0,0,0,0,0,0,-1,1231,596,0,0
14,428,0,0,0,0,0,0,0,0,0,-1,1238,596,0,0
21,428,0,0,0,0,0,0,0,0,0,-1,1245,596,0,0
28,428,0,0,0,0,0,0,0,0,0,-1,1252,596,0,0
35,428,0,0,0,0,0,0,0,0,0,-1,1259,596,0,0
42,428,0,0,0,0,0,0,0,0,0,-1,1266,596,0,0
49,428,0,0,0,0,0,0,0,0,0,-1,1273,596,0,0
56,428,0,0,0,0,0,0,0,0,0,-1,1280,596,0,0
63,428,0,0,0,0,0,0,0,0,0,-1,1287,596,0,0
70,428,0,0,0,0,0,0,0,0,0,-1,1294,596,0,0
77,428,0,0,0,0,0,0,0,0,0,-1,1301,596,0,0
84,428,0,0,0,0,0,0,0,0,0,-1,1308,596,0,0
91,428,0,0,0,0,0,0,0,0,0,-1,1315,596,0,0
98,428,0,0,0,0,0,0,0,0,0,-1,1322,596,0,0
105,428,0,0,0,0,0,0,0,0,0,-1,1329,596,0,0
112,428,0,0,0,0,0,0,0,0,0,-1,1336,596,0,0
119,428,0,0,0,0,0,0,0,0,0,-1,1343,596,0,0
126,428,0,0,0,0,0,0,0,0,0,-1,1350,596,0,0
133,428,0,0,0,0,0,0,0,0,0,-1,1357,596,0,0
140,428,0,0,0,0,0,0,0,0,0,-1,1364,596,0,0
147,428,0,0,0,0,0,0,0,0,0,-1,1371,596,0,0
154,428,0,0,0,0,0,0,0,0,0,-1,1378,596,0,0
161,428,0,0,0,0,0,0,0,0,0,-1,1385,596,0,0
168,428,0,0,0,0,0,0,0,0,0,-1,1392,596,0,0
175,428,0,0,0,0,0,0,0,0,0,-1,1399,596,0,0
182,428,0,0,0,0,0,0,0,0,0,-1,1406,596,0,0
189,428,0,0,0,0,0,0,0,0,0,-1,1413,596,0,0
196,428,0,0,0,0,0,0,0,0,0,-1,1420,596,0,0
203,428,0,0,0,0,0,0,0,0,0,-1,1427,596,0,0
210,428,0,0,0,0,0,0,0,0,0,-1,1434,596,0,0
217,428,0,0,0,0,0,0,0,0,0,-1,1441,596,0,0
224,428,0,0,0,0,0,0,0,0,0,-1,1448,596,0,0
231,428,0,0,0,0,0,0,0,0,0,-1,1455,596,0,0
238,428,0,0,0,0,0,0,0,0,0,-1,1462,596,0,0
245,428,0,0,0,0,0,0,0,0,0,-1,1469,596,0,0
252,428,0,0,0,0,0,0,0,0,0,-1,1476,596,0,0
259,428,0,0,0,0,0,0,0,0,0,-1,1483,596,0,0
266,428,0,0,0,0,0,0,0,0,0,-1,1490,596,0,0
273,428,0,0,0,0,0,0,0,0,0,-1,1497,596,0,0
280,428,0,0,0,0,0,0,0,0,0,-1,1504,596,0,0
287,428,0,0,0,0,0,0,0,0,0,-1,1511,596,0,0
294,428,0,0,0,0,0,0,0,0,0,-1,1518,596,0,0
301,428,0,0,0,0,0,0,0,0,0,-1,1525,596,0,0
308,428,0,0,0,0,0,0,0,0,0,-1,1532,596,0,0
315,428,0,0,0,0,0,0,0,0,0,-1,1539,596,0,0
322,428,0,0,0,0,0,0,0,0,0,-1,1546,596,0,0
329,428,0,0,0,0,0,0,0,0,0,-1,1553,596,0,0
336,428,0,0,0,0,0,0,0,0,0,-1,1560,596,0,0
343,428,0,0,0,0,0,0,0,0,0,-1,1567,596,0,0
350,428,0,0,0,0,0,0,0,0,0,-1,1574,596,0,0
357,428,0,0,0,0,0,0,0,0,0,-1,1581,596,0,0
364,428,0,0,0,0,0,0,0,0,0,-1,1588,596,0,0
371,428,0,0,0,0,0,0,0,0,0,-1,1595,596,0,0
378,428,0,0,0,0,0,0,0,0,0,-1,1602,596,0,0
385,428,0,0,0,0,0,0,0,0,0,-1,1609,596,0,0
392,428,0,0,0,0,0,0,0,0,0,-1,1616,596,0,0
399,428,0,0,0,0,0,0,0,0,0,-1,1623,596,0,0
406,428,0,0,0,0,0,0,0,0,0,-1,1630,596,0,0
413,428,0,0,0,0,0,0,0,0,0,-1,1637,596,0,0
420,428,3.39941,3.49762,0,0,0,0,0,0,0,-1,1644,596,3.39935,-3.49762
427,428,2.98682,2.06653,-0.0226934,-0.0179985,-0.00660793,-0.0133334,-0.0273585,-0.956071,0.0157971,0.045221,1651,596,2.98676,-2.06653
434,428,2.46692,0.899475,-0.0233347,-0.0232685,-0.00568917,-0.0176124,-0.0289909,-0.788308,0.0168664,0.0430365,1658,596,2.46697,-0.899458
441,428,1.91931,-0.352661,0,0,0,0,0,0,0,-1,1665,596,1.91937,0.35265
448,428,4.96863,-0.172302,0,0,0,0,0,0,0,-1,1672,596,4.96859,0.172313
455,428,4.63757,-0.333069,-0.0210244,-0.026712,-0.00196145,-0.0204135,-0.0273229,-0.301897,0.0164045,0.0477366,1679,596,4.63762,0.333055
462,428,4.33984,-0.361816,-0.0196356,-0.0248906,-0.000887795,-0.0194897,-0.0250365,-0.162923,0.0151836,0.0458308,1686,596,4.3398,0.361813
469,428,3.56641,-0.459167,-0.0182533,-0.0221031,-0.000724903,-0.0181213,-0.022235,-0.180085,0.0136602,0.0450935,1693,596,3.56636,0.459168
476,428,2.68201,-0.276062,0,0,0,0,0,0,0,-1,1700,596,2.68202,0.276064
483,428,2.38098,-0.263733,0,0,0,0,0,0,0,-1,1707,596,2.38101,0.263709
490,428,2.70203,-0.476624,0,0,0,0,0,0,0,-1,1714,596,2.70201,0.47665
497,428,2.73376,-0.47345,-0.00927889,-0.0119335,-5.71718e-05,-0.00927766,-0.0119348,-0.0215232,0.00723531,0.0400948,1721,596,2.73382,0.473474
504,428,2.71497,-0.40741,-0.00784497,-0.00954812,-0.00141882,-0.00704178,-0.0103513,-0.515115,0.00610445,0.0406972,1728,596,2.71491,0.407431
511,428,2.53625,-0.269165,-0.00629014,-0.00728676,-0.00191776,-0.00480701,-0.00876989,-0.658289,0.00507111,0.0363601,1735,596,2.53626,0.269152
518,428,2.63501,-0.310059,-0.00458682,-0.00506934,-0.00217933,-0.00263544,-0.00702072,-0.73027,0.00409517,0.0241891,1742,596,2.635,0.310049
525,428,2.61646,-0.25354,-0.00319578,-0.00355085,-0.00195063,-0.00141462,-0.005332,-0.740016,0.00318947,0.0147953,1749,596,2.61647,0.253565
532,428,2.62488,-0.184143,-0.0025322,-0.00244362,-0.00159084,-0.000896459,-0.00407936,-0.799314,0.00247547,0.0154092,1756,596,2.62489,0.184173
539,428,2.65588,-0.195313,-0.00193479,-0.00144043,-0.00122719,-0.000435777,-0.00293945,-0.88478,0.00183173,0.0189848,1763,596,2.65583,0.195299
546,428,2.65283,-0.177124,-0.00137554,-0.000781105,-0.000738356,-0.00028239,-0.00187426,-0.976745,0.00116682,0.0161185,1770,596,2.65286,0.177142
553,428,2.63574,-0.132813,-0.00060208,-7.89041e-05,-3.92626e-06,-7.88746e-05,-0.00060211,-1.56329,0.000377869,0.0107393,1777,596,2.63576,0.132797
560,428,2.64551,-0.0905151,0.000378473,0.000571671,0.000998239,0.00147797,-0.000527829,0.833633,0.00120058,0.0111826,1784,596,2.6455,0.0905368
567,428,2.64014,-0.0313721,0.00167773,0.000921735,0.00196332,0.00329911,-0.00069964,0.690296,0.00246593,0.0108005,1791,596,2.64013,0.0313968
574,428,2.63684,-0.00250244,0.00280969,0.000628439,0.00299633,0.00490771,-0.00146958,0.610858,0.00385617,0.0128627,1798,596,2.63678,0.00249451
581,428,2.62524,0.0345459,0.00382897,0.000380708,0.00413984,0.00658936,-0.00237968,0.588086,0.00536503,0.0109331,1805,596,2.6253,-0.0345351
588,428,2.61206,0.0698853,0.00481633,-0.00033458,0.00588787,0.00866738,-0.00418563,0.579228,0.00756957,0.0145972,1812,596,2.61209,-0.0698563
595,428,2.61694,0.110535,0.00570601,-0.00127649,0.00815027,0.0110813,-0.00665179,0.583041,0.0103441,0.0101604,1819,596,2.61692,-0.11056
602,428,2.64478,0.146667,0.00665978,-0.00126753,0.01072,0.0141254,-0.00873316,0.60832,0.0133192,0.0194408,1826,596,2.64479,-0.146675
609,428,2.75757,-0.0293579,0.00765517,-0.00206803,0.013971,0.0175863,-0.0119992,0.617963,0.0171824,0.0384325,1833,596,2.75751,0.0293427
616,428,2.98718,-0.352173,0.00876452,-0.00260535,0.0182789,0.0222222,-0.016063,0.634635,0.0221991,0.0429361,1840,596,2.98715,0.352173
623,428,3.22351,-0.675415,0.00989,-0.00277493,0.0237438,0.0281313,-0.0210162,0.655082,0.0284743,0.0470383,1847,596,3.22348,0.675393
630,428,3.31091,-0.815125,0,0,0,0,0,0,0,-1,1854,596,3.31097,0.815138
637,428,2.98474,0.00170898,0,0,0,0,0,0,0,-1,1861,596,2.98475,-0.00168965
644,428,2.92932,0.620422,0,0,0,0,0,0,0,-1,1868,596,2.92932,-0.620415
651,428,0,0,0,0,0,0,0,0,0,-1,1875,596,0,0
658,428,0,0,0,0,0,0,0,0,0,-1,1882,596,0,0
665,428,0,0,0,0,0,0,0,0,0,-1,1889,596,0,0
672,428,0,0,0,0,0,0,0,0,0,-1,1896,596,0,0
679,428,0,0,0,0,0,0,0,0,0,-1,1903,596,0,0
686,428,0,0,0,0,0,0,0,0,0,-1,1910,596,0,0
693,428,0,0,0,0,0,0,0,0,0,-1,1917,596,0,0
700,428,0,0,0,0,0,0,0,0,0,-1,1924,596,0,0
707,428,0,0,0,0,0,0,0,0,0,-1,1931,596,0,0
714,428,0,0,0,0,0,0,0,0,0,-1,1938,596,0,0
721,428,0,0,0,0,0,0,0,0,0,-1,1945,596,0,0
728,428,0,0,0,0,0,0,0,0,0,-1,1952,596,0,0
735,428,0,0,0,0,0,0,0,0,0,-1,1959,596,0,0
742,428,0,0,0,0,0,0,0,0,0,-1,1966,596,0,0
749,428,0,0,0,0,0,0,0,0,0,-1,1973,596,0,0
756,428,0,0,0,0,0,0,0,0,0,-1,1980,596,0,0
763,428,0,0,0,0,0,0,0,0,0,-1,1987,596,0,0
770,428,0,0,0,0,0,0,0,0,0,-1,1994,596,0,0
777,428,0,0,0,0,0,0,0,0,0,-1,2001,596,0,0
784,428,0,0,0,0,0,0,0,0,0,-1,2008,596,0,0
791,428,0,0,0,0,0,0,0,0,0,-1,2015,596,0,0
798,428,0,0,0,0,0,0,0,0,0,-1,2022,596,0,0
805,428,0,0,0,0,0,0,0,0,0,-1,2029,596,0,0
812,428,0,0,0,0,0,0,0,0,0,-1,2036,596,0,0
-700,421,0,0,0,0,0,0,0,0,0,-1,524,603,0,0
-693,421,0,0,0,0,0,0,0,0,0,-1,531,603,0,0
-686,421,0,0,0,0,0,0,0,0,0,-1,538,603,0,0
-679,421,0,0,0,0,0,0,0,0,0,-1,545,603,0,0
-672,421,0,0,0,0,0,0,0,0,0,-1,552,603,0,0
-665,421,0,0,0,0,0,0,0,0,0,-1,559,603,0,0
-658,421,0,0,0,0,0,0,0,0,0,-1,566,603,0,0
-651,421,0,0,0,0,0,0,0,0,0,-1,573,603,0,0
-644,421,0,0,0,0,0,0,0,0,0,-1,580,603,0,0
-637,421,0,0,0,0,0,0,0,0,0,-1,587,603,0,0
-630,421,0,0,0,0,0,0,0,0,0,-1,594,603,0,0
-623,421,0,0,0,0,0,0,0,0,0,-1,601,603,0,0
-616,421,0,0,0,0,0,0,0,0,0,-1,608,603,0,0
-609,421,0,0,0,0,0,0,0,0,0,-1,615,603,0,0
-602,421,0,0,0,0,0,0,0,0,0,-1,622,603,0,0
-595,421,0,0,0,0,0,0,0,0,0,-1,629,603,0,0
-588,421,0,0,0,0,0,0,0,0,0,-1,636,603,0,0
-581,421,0,0,0,0,0,0,0,0,0,-1,643,603,0,0
-574,421,0,0,0,0,0,0,0,0,0,-1,650,603,0,0
-567,421,0,0,0,0,0,0,0,0,0,-1,657,603,0,0
-560,421,0,0,0,0,0,0,0,0,0,-1,664,603,0,0
-553,421,0,0,0,0,0,0,0,0,0,-1,671,603,0,0
-546,421,0,0,0,0,0,0,0,0,0,-1,678,603,0,0
-539,421,0,0,0,0,0,0,0,0,0,-1,685,603,0,0
-532,421,-3.3999,-3.86664,0,0,0,0,0,0,0,-1,692,603,-3.39988,3.86665
-525,421,-3.50934,-2.76898,0.051424,-0.0124022,0.0436252,0.0735628,-0.034541,0.469611,0.0637547,0.0478215,699,603,-3.50934,2.76901
-518,421,-2.7793,-2.2254,0.044472,-0.0107476,0.0342639,0.0608658,-0.0271413,0.446265,0.0520396,0.0450288,706,603,-2.77931,2.22543
-511,421,2.00641,0.490784,0,0,0,0,0,0,0,-1,713,603,2.00641,-0.490782
-504,421,1.47485,0.733276,0,0,0,0,0,0,0,-1,720,603,1.47485,-0.733253
-497,421,0.805908,0.888611,0.0286164,-0.00518065,0.0101116,0.0314106,-0.00797487,0.26961,0.0240436,0.0445438,727,603,0.805937,-0.888632
-490,421,0.504639,0.65802,0.0246124,-0.00369102,0.00466707,0.0253621,-0.00444074,0.159278,0.0185662,0.041664,734,603,0.504639,-0.658014
-483,421,0.632874,0.415894,0.0204353,-0.00234206,0.000679653,0.0204556,-0.00236233,0.0298036,0.0144888,0.0339551,741,603,0.632891,-0.415909
-476,421,0.745667,0.231323,0.0170679,-0.00090029,-0.00235902,0.0173724,-0.00120484,-0.12839,0.0120034,0.0196404,748,603,0.745695,-0.231314
-469,421,0.811768,0.192505,0.0146052,0.000389248,-0.00494184,0.0161543,-0.00115986,-0.303766,0.0111762,0.0158753,755,603,0.811739,-0.192481
-462,421,0.816528,0.146301,0.0117981,0.000933334,-0.0059076,0.0143913,-0.00165991,-0.413641,0.0101927,0.0173092,762,603,0.816505,-0.146275
-455,421,0.790222,0.120728,0.00949523,0.0015903,-0.00505651,0.0119607,-0.000875202,-0.45367,0.00828099,0.0181547,769,603,0.790233,-0.120712
-448,421,0.771729,0.0951538,0.00743542,0.00158852,-0.00362384,0.00916802,-0.000144077,-0.445984,0.0061606,0.0179578,776,603,0.771741,-0.0951314
-441,421,0.792114,0.027832,0.00578912,0.00156413,-0.00216804,0.00670368,0.000649571,-0.399187,0.0042691,0.0130849,783,603,0.792095,-0.027845
-434,421,0.791138,-0.026062,0.00380616,0.00113843,-0.00115944,0.00423964,0.000704953,-0.357778,0.00262321,0.00950622,790,603,0.79115,0.0260505
-427,421,0.82666,-0.0542603,0.00186132,0.000468245,-0.00026786,0.00191105,0.000418516,-0.183562,0.00115998,0.0098822,797,603,0.826678,0.0542461
-420,421,0.83728,-0.0609741,0.00030717,-0.000209283,0.000245847,0.000405485,-0.000307598,0.380421,0.000412989,0.0101453,804,603,0.837294,0.0609663
-413,421,0.826538,-0.0992432,-0.000991791,-0.000567036,0.000181866,-0.000499808,-0.00105902,1.21672,0.000611746,0.0118054,811,603,0.826559,0.0992131
-406,421,0.809448,-0.153992,-0.00200086,-0.000778173,-8.43161e-05,-0.000772386,-0.00200665,-1.50227,0.00116872,0.016225,818,603,0.809423,0.154005
-399,421,0.812683,-0.182373,-0.00295836,-0.00102716,-0.00072095,-0.000787705,-0.00319782,-1.25013,0.00192384,0.0146731,825,603,0.812697,0.182357
-392,421,0.811951,-0.229492,-0.00399514,-0.000942655,-0.00183695,-8.06327e-05,-0.00485716,-1.13204,0.00321157,0.0153867,832,603,0.81193,0.229484
-385,421,0.749451,-0.359253,-0.00485941,-0.000691731,-0.00313906,0.000992197,-0.00654334,-1.07842,0.00472779,0.0310664,839,603,0.749433,0.359283
-378,421,0.685486,-0.515503,-0.00507444,-0.000396828,-0.00385857,0.00177641,-0.00724768,-1.05786,0.00552004,0.0430914,846,603,0.685488,0.51551
-371,421,0.603821,-0.817078,-0.004499,0.000504789,-0.00385528,0.00259884,-0.00659305,-1.07322,0.0054714,0.0453749,853,603,0.603795,0.817049
-364,421,0.546692,-1.45551,-0.00386658,0.00177133,-0.00400117,0.00384685,-0.0059421,-1.09228,0.00569464,0.0434453,860,603,0.546708,1.45551
-357,421,0.618469,-2.09155,0.000798742,0.00149525,0.00018888,0.00154317,0.000750819,1.32232,0.000891059,0.0449794,867,603,0.61846,2.09156
-350,421,0.614319,-2.39185,0,0,0,0,0,0,0,-1,874,603,0.614344,2.39183
-343,421,0.319092,-1.53668,0,0,0,0,0,0,0,-1,881,603,0.319072,1.53671
-336,421,0.215759,-2.30457,0,0,0,0,0,0,0,-1,888,603,0.215761,2.30456
-329,421,0.973633,0.796021,0,0,0,0,0,0,0,-1,895,603,0.973631,-0.796047
-322,421,-0.293518,0.658386,0,0,0,0,0,0,0,-1,902,603,-0.29351,-0.65837
-315,421,-0.598267,0.781799,0,0,0,0,0,0,0,-1,909,603,-0.598243,-0.781781
-308,421,0,0,0,0,0,0,0,0,0,-1,916,603,0,0
-301,421,0,0,0,0,0,0,0,0,0,-1,923,603,0,0
-294,421,0,0,0,0,0,0,0,0,0,-1,930,603,0,0
-287,421,0,0,0,0,0,0,0,0,0,-1,937,603,0,0
-280,421,0,0,0,0,0,0,0,0,0,-1,944,603,0,0
-273,421,0,0,0,0,0,0,0,0,0,-1,951,603,0,0
-266,421,0,0,0,0,0,0,0,0,0,-1,958,603,0,0
-259,421,0,0,0,0,0,0,0,0,0,-1,965,603,0,0
-252,421,0,0,0,0,0,0,0,0,0,-1,972,603,0,0
-245,421,0,0,0,0,0,0,0,0,0,-1,979,603,0,0
-238,421,0,0,0,0,0,0,0,0,0,-1,986,603,0,0
-231,421,0,0,0,0,0,0,0,0,0,-1,993,603,0,0
-224,421,0,0,0,0,0,0,0,0,0,-1,1000,603,0,0
-217,421,0,0,0,0,0,0,0,0,0,-1,1007,603,0,0
-210,421,0,0,0,0,0,0,0,0,0,-1,1014,603,0,0
-203,421,0,0,0,0,0,0,0,0,0,-1,1021,603,0,0
-196,421,0,0,0,0,0,0,0,0,0,-1,1028,603,0,0
-189,421,0,0,0,0,0,0,0,0,0,-1,1035,603,0,0
-182,421,0,0,0,0,0,0,0,0,0,-1,1042,603,0,0
-175,421,0,0,0,0,0,0,0,0,0,-1,1049,603,0,0
-168,421,0,0,0,0,0,0,0,0,0,-1,1056,603,0,0
-161,421,0,0,0,0,0,0,0,0,0,-1,1063,603,0,0
-154,421,0,0,0,0,0,0,0,0,0,-1,1070,603,0,0
-147,421,0,0,0,0,0,0,0,0,0,-1,1077,603,0,0
-140,421,0,0,0,0,0,0,0,0,0,-1,1084,603,0,0
-133,421,0,0,0,0,0,0,0,0,0,-1,1091,603,0,0
-126,421,0,0,0,0,0,0,0,0,0,-1,1098,603,0,0
-119,421,0,0,0,0,0,0,0,0,0,-1,1105,603,0,0
-112,421,0,0,0,0,0,0,0,0,0,-1,1112,603,0,0
-105,421,0,0,0,0,0,0,0,0,0,-1,1119,603,0,0
-98,421,0,0,0,0,0,0,0,0,0,-1,1126,603,0,0
-91,421,0,0,0,0,0,0,0,0,0,-1,1133,603,0,0
-84,421,0,0,0,0,0,0,0,0,0,-1,1140,603,0,0
-77,421,0,0,0,0,0,0,0,0,0,-1,1147,603,0,0
-70,421,0,0,0,0,0,0,0,0,0,-1,1154,603,0,0
-63,421,0,0,0,0,0,0,0,0,0,-1,1161,603,0,0
-56,421,0,0,0,0,0,0,0,0,0,-1,1168,603,0,0
-49,421,0,0,0,0,0,0,0,0,0,-1,1175,603,0,0
-42,421,0,0,0,0,0,0,0,0,0,-1,1182,603,0,0
-35,421,0,0,0,0,0,0,0,0,0,-1,1189,603,0,0
-28,421,0,0,0,0,0,0,0,0,0,-1,1196,603,0,0
-21,421,0,0,0,0,0,0,0,0,0,-1,1203,603,0,0
-14,421,0,0,0,0,0,0,0,0,0,-1,1210,603,0,0
-7,421,0,0,0,0,0,0,0,0,0,-1,1217,603,0,0
0,421,0,0,0,0,0,0,0,0,0,-1,1224,603,0,0
7,421,0,0,0,0,0,0,0,0,0,-1,1231,603,0,0
14,421,0,0,0,0,0,0,0,0,0,-1,1238,603,0,0
21,421,0,0,0,0,0,0,0,0,0,-1,1245,603,0,0
28,421,0,0,0,0,0,0,0,0,0,-1,1252,603,0,0
35,421,0,0,0,0,0,0,0,0,0,-1,1259,603,0,0
42,421,0,0,0,0,0,0,0,0,0,-1,1266,603,0,0
49,421,0,0,0,0,0,0,0,0,0,-1,1273,603,0,0
56,421,0,0,0,0,0,0,0,0,0,-1,1280,603,0,0
63,421,0,0,0,0,0,0,0,0,0,-1,1287,603,0,0
70,421,0,0,0,0,0,0,0,0,0,-1,1294,603,0,0
77,421,0,0,0,0,0,0,0,0,0,-1,1301,603,0,0
84,421,0,0,0,0,0,0,0,0,0,-1,1308,603,0,0
91,421,0,0,0,0,0,0,0,0,0,-1,1315,603,0,0
98,421,0,0,0,0,0,0,0,0,0,-1,1322,603,0,0
105,421,0,0,0,0,0,0,0,0,0,-1,1329,603,0,0
112,421,0,0,0,0,0,0,0,0,0,-1,1336,603,0,0
119,421,0,0,0,0,0,0,0,0,0,-1,1343,603,0,0
126,421,0,0,0,0,0,0,0,0,0,-1,1350,603,0,0
133,421,0,0,0,0,0,0,0,0,0,-1,1357,603,0,0
140,421,0,0,0,0,0,0,0,0,0,-1,1364,603,0,0
147,421,0,0,0,0,0,0,0,0,0,-1,1371,603,0,0
154,421,0,0,0,0,0,0,0,0,0,-1,1378,603,0,0
161,421,0,0,0,0,0,0,0,0,0,-1,1385,603,0,0
168,421,0,0,0,0,0,0,0,0,0,-1,1392,603,0,0
175,421,0,0,0,0,0,0,0,0,0,-1,1399,603,0,0
182,421,0,0,0,0,0,0,0,0,0,-1,1406,603,0,0
189,421,0,0,0,0,0,0,0,0,0,-1,1413,603,0,0
196,421,0,0,0,0,0,0,0,0,0,-1,1420,603,0,0
203,421,0,0,0,0,0,0,0,0,0,-1,1427,603,0,0
210,421,0,0,0,0,0,0,0,0,0,-1,1434,603,0,0
217,421,0,0,0,0,0,0,0,0,0,-1,1441,603,0,0
224,421,0,0,0,0,0,0,0,0,0,-1,1448,603,0,0
231,421,0,0,0,0,0,0,0,0,0,-1,1455,603,0,0
238,421,0,0,0,0,0,0,0,0,0,-1,1462,603,0,0
245,421,0,0,0,0,0,0,0,0,0,-1,1469,603,0,0
252,421,0,0,0,0,0,0,0,0,0,-1,1476,603,0,0
259,421,0,0,0,0,0,0,0,0,0,-1,1483,603,0,0
266,421,0,0,0,0,0,0,0,0,0,-1,1490,603,0,0
273,421,0,0,0,0,0,0,0,0,0,-1,1497,603,0,0
280,421,0,0,0,0,0,0,0,0,0,-1,1504,603,0,0
287,421,0,0,0,0,0,0,0,0,0,-1,1511,603,0,0
294,421,0,0,0,0,0,0,0,0,0,-1,1518,603,0,0
301,421,0,0,0,0,0,0,0,0,0,-1,1525,603,0,0
308,421,0,0,0,0,0,0,0,0,0,-1,1532,603,0,0
315,421,0,0,0,0,0,0,0,0,0,-1,1539,603,0,0
322,421,0,0,0,0,0,0,0,0,0,-1,1546,603,0,0
329,421,0,0,0,0,0,0,0,0,0,-1,1553,603,0,0
336,421,0,0,0,0,0,0,0,0,0,-1,1560,603,0,0
343,421,0,0,0,0,0,0,0,0,0,-1,1567,603,0,0
350,421,0,0,0,0,0,0,0,0,0,-1,1574,603,0,0
357,421,0,0,0,0,0,0,0,0,0,-1,1581,603,0,0
364,421,0,0,0,0,0,0,0,0,0,-1,1588,603,0,0
371,421,0,0,0,0,0,0,0,0,0,-1,1595,603,0,0
378,421,0,0,0,0,0,0,0,0,0,-1,1602,603,0,0
385,421,0,0,0,0,0,0,0,0,0,-1,1609,603,0,0
392,421,0,0,0,0,0,0,0,0,0,-1,1616,603,0,0
399,421,0,0,0,0,0,0,0,0,0,-1,1623,603,0,0
406,421,0,0,0,0,0,0,0,0,0,-1,1630,603,0,0
413,421,0,0,0,0,0,0,0,0,0,-1,1637,603,0,0
420,421,0,0,0,0,0,0,0,0,0,-1,1644,603,0,0
427,421,0,0,0,0,0,0,0,0,0,-1,1651,603,0,0
434,421,2.89709,0.651855,0,0,0,0,0,0,0,-1,1658,603,2.89714,-0.651878
441,421,2.03223,-0.454651,0,0,0,0,0,0,0,-1,1665,603,2.03223,0.454633
448,421,4.75244,0.252075,0,0,0,0,0,0,0,-1,1672,603,4.75242,-0.25206
455,421,4.38782,0.187012,-0.0220223,-0.0279115,0.0031509,-0.0206543,-0.0292796,0.409615,0.0173736,0.0473605,1679,603,4.38776,-0.186994
462,421,4.04236,0.164917,-0.0199972,-0.0267055,0.00400053,-0.0181307,-0.0285719,0.43653,0.0166939,0.0485788,1686,603,4.04242,-0.164944
469,421,3.56897,0.0545654,-0.0182373,-0.0242289,0.00379235,-0.0164002,-0.026066,0.451103,0.0152157,0.0440463,1693,603,3.56894,-0.0545672
476,421,3.04529,0.0200806,-0.0155996,-0.0212463,0.00396258,-0.0135574,-0.0232885,0.475863,0.013506,0.0416457,1700,603,3.04523,-0.020084
483,421,2.80212,-0.10144,-0.0129428,-0.0195459,0.00418224,-0.0109159,-0.0215727,0.451269,0.0124553,0.0404353,1707,603,2.80211,0.101413
490,421,3.17114,0.392578,0,0,0,0,0,0,0,-1,1714,603,3.17115,-0.392603
497,421,2.73743,-0.483032,0,0,0,0,0,0,0,-1,1721,603,2.73748,0.483007
504,421,2.70947,-0.339661,-0.00776984,-0.0114796,3.95108e-05,-0.00776942,-0.01148,0.0106489,0.00676467,0.044696,1728,603,2.70943,0.339659
511,421,2.52515,-0.24469,-0.00636722,-0.00881731,-0.000980918,-0.00602289,-0.00916163,-0.33759,0.00537613,0.0409306,1735,603,2.5251,0.244699
518,421,2.63574,-0.299927,-0.004873,-0.00620654,-0.00172457,-0.00369079,-0.00738874,-0.600935,0.00426589,0.0383155,1742,603,2.63569,0.299952
525,421,2.65747,-0.233398,-0.00372816,-0.00435867,-0.00190002,-0.00211742,-0.00596941,-0.703186,0.0034946,0.0253339,1749,603,2.65745,0.23342
532,421,2.64722,-0.201294,-0.00324826,-0.00296675,-0.00191167,-0.00119066,-0.00502435,-0.822146,0.00303164,0.0160182,1756,603,2.64716,0.201322
539,421,2.68335,-0.199707,-0.00282601,-0.00176217,-0.00187533,-0.000344781,-0.0042434,-0.923589,0.0027213,0.0182014,1763,603,2.6834,0.199708
546,421,2.69324,-0.172913,-0.00239589,-0.00107496,-0.00155048,-5.01381e-05,-0.00342071,-0.986746,0.00226395,0.0130126,1770,603,2.69324,0.172935
553,421,2.69153,-0.132019,-0.00166653,-0.000321283,-0.000895645,0.000126183,-0.002114,-1.10747,0.00145322,0.0115873,1777,603,2.69151,0.132048
560,421,2.69043,-0.0886841,-0.000721881,0.000314648,-5.12316e-05,0.000317174,-0.000724407,-1.52153,0.000616487,0.0134589,1784,603,2.69047,0.0886702
567,421,2.68018,-0.0289307,0.000627483,0.00062682,0.000864772,0.00149192,-0.000237621,0.785206,0.00108255,0.015937,1791,603,2.6802,0.0289557
574,421,2.67529,-0.00915527,0.00171803,0.000271672,0.00171806,0.00285891,-0.00086921,0.58619,0.0022523,0.0181395,1798,603,2.67527,0.00915023
581,421,2.67627,0.038269,0.00254342,-2.08107e-05,0.00257029,0.00413362,-0.00161102,0.554047,0.0034216,0.0159849,1805,603,2.67627,-0.0382722
588,421,2.65393,0.0813599,0.00330133,-0.000694954,0.00394243,0.00572306,-0.00311669,0.55085,0.00517705,0.0109868,1812,603,2.65394,-0.0813782
595,421,2.66345,0.147888,0.00394743,-0.00150106,0.00570429,0.00754461,-0.00509824,0.562623,0.00734476,0.0137485,1819,603,2.66342,-0.147916
602,421,2.68616,0.153992,0.00458101,-0.00126189,0.00757361,0.0097771,-0.00645798,0.601322,0.0094384,0.0129274,1826,603,2.6861,-0.153983
609,421,2.65942,0.145996,0.00522788,-0.00167768,0.00998324,0.0123386,-0.00878836,0.618908,0.0122549,0.0190038,1833,603,2.65942,-0.145967
616,421,2.76453,-0.0429688,0.00603791,-0.00167109,0.0133636,0.0160918,-0.0117249,0.644992,0.0161258,0.0342503,1840,603,2.76451,0.0429944
623,421,2.91931,-0.115479,0.00693034,-0.00122917,0.0177214,0.0210355,-0.0153343,0.672261,0.021084,0.0432236,1847,603,2.9193,0.115507
630,421,3.08984,-0.236572,0,0,0,0,0,0,0,-1,1854,603,3.08986,0.236598
637,421,2.80591,0.0739746,0.00856028,0.002345,0.0292986,0.0349156,-0.0240103,0.732562,0.0342146,0.0459352,1861,603,2.8059,-0.0739897
644,421,2.73022,0.687317,0.00977794,0.00586614,0.0373362,0.0452095,-0.0295654,0.759229,0.0434851,0.0494258,1868,603,2.73024,-0.687312
651,421,2.68591,1.33215,0,0,0,0,0,0,0,-1,1875,603,2.68593,-1.33217
658,421,0,0,0,0,0,0,0,0,0,-1,1882,603,0,0
665,421,0,0,0,0,0,0,0,0,0,-1,1889,603,0,0
672,421,0,0,0,0,0,0,0,0,0,-1,1896,603,0,0
679,421,0,0,0,0,0,0,0,0,0,-1,1903,603,0,0
686,421,0,0,0,0,0,0,0,0,0,-1,1910,603,0,0
693,421,0,0,0,0,0,0,0,0,0,-1,1917,603,0,0
700,421,0,0,0,0,0,0,0,0,0,-1,1924,603,0,0
707,421,0,0,0,0,0,0,0,0,0,-1,1931,603,0,0
714,421,0,0,0,0,0,0,0,0,0,-1,1938,603,0,0
721,421,0,0,0,0,0,0,0,0,0,-1,1945,603,0,0
728,421,0,0,0,0,0,0,0,0,0,-1,1952,603,0,0
735,421,0,0,0,0,0,0,0,0,0,-1,1959,603,0,0
742,421,0,0,0,0,0,0,0,0,0,-1,1966,603,0,0
749,421,0,0,0,0,0,0,0,0,0,-1,1973,603,0,0
756,421,0,0,0,0,0,0,0,0,0,-1,1980,603,0,0
763,421,0,0,0,0,0,0,0,0,0,-1,1987,603,0,0
770,421,0,0,0,0,0,0,0,0,0,-1,1994,603,0,0
777,421,0,0,0,0,0,0,0,0,0,-1,2001,603,0,0
784,421,0,0,0,0,0,0,0,0,0,-1,2008,603,0,0
791,421,0,0,0,0,0,0,0,0,0,-1,2015,603,0,0
798,421,0,0,0,0,0,0,0,0,0,-1,2022,603,0,0
805,421,0,0,0,0,0,0,0,0,0,-1,2029,603,0,0
812,421,0,0,0,0,0,0,0,0,0,-1,2036,603,0,0
-700,414,0,0,0,0,0,0,0,0,0,-1,524,610,0,0
-693,414,0,0,0,0,0,0,0,0,0,-1,531,610,0,0
-686,414,0,0,0,0,0,0,0,0,0,-1,538,610,0,0
-679,414,0,0,0,0,0,0,0,0,0,-1,545,610,0,0
-672,414,0,0,0,0,0,0,0,0,0,-1,552,610,0,0
-665,414,0,0,0,0,0,0,0,0,0,-1,559,610,0,0
-658,414,0,0,0,0,0,0,0,0,0,-1,566,610,0,0
-651,414,0,0,0,0,0,0,0,0,0,-1,573,610,0,0
-644,414,0,0,0,0,0,0,0,0,0,-1,580,610,0,0
-637,414,0,0,0,0,0,0,0,0,0,-1,587,610,0,0
-630,414,0,0,0,0,0,0,0,0,0,-1,594,610,0,0
-623,414,0,0,0,0,0,0,0,0,0,-1,601,610,0,0
-616,414,0,0,0,0,0,0,0,0,0,-1,608,610,0,0
-609,414,0,0,0,0,0,0,0,0,0,-1,615,610,0,0
-602,414,0,0,0,0,0,0,0,0,0,-1,622,610,0,0
-595,414,0,0,0,0,0,0,0,0,0,-1,629,610,0,0
-588,414,0,0,0,0,0,0,0,0,0,-1,636,610,0,0
-581,414,0,0,0,0,0,0,0,0,0,-1,643,610,0,0
-574,414,0,0,0,0,0,0,0,0,0,-1,650,610,0,0
-567,414,0,0,0,0,0,0,0,0,0,-1,657,610,0,0
-560,414,0,0,0,0,0,0,0,0,0,-1,664,610,0,0
-553,414,0,0,0,0,0,0,0,0,0,-1,671,610,0,0
-546,414,0,0,0,0,0,0,0,0,0,-1,678,610,0,0
-539,414,0.208923,-0.400269,0.0626509,-0.015203,0.0422155,0.0811475,-0.0336996,0.412952,0.0681671,0.0457009,685,610,0.20894,0.400277
-532,414,1.27539,-0.645203,0.0551501,-0.0148519,0.0383986,0.072106,-0.0318078,0.415827,0.0614801,0.0446982,692,610,1.27537,0.645203
-525,414,-4.58746,-2.46814,0,0,0,0,0,0,0,-1,699,610,-4.58749,2.46816
-518,414,0.664795,0.0637817,0,0,0,0,0,0,0,-1,706,610,0.664792,-0.0637609
-511,414,0.0697632,-0.642456,0,0,0,0,0,0,0,-1,713,610,0.0697765,0.642458
-504,414,1.93665,0.71344,0,0,0,0,0,0,0,-1,720,610,1.93663,-0.713423
-497,414,1.2132,1.04663,0,0,0,0,0,0,0,-1,727,610,1.21318,-1.04663
-490,414,0.612549,0.354065,0.0210132,-0.00609542,0.00311837,0.0213673,-0.00644951,0.113065,0.0168122,0.0347195,734,610,0.612559,-0.354091
-483,414,0.733032,0.310242,0.0169984,-0.00467061,-4.73296e-05,0.0169985,-0.00467071,-0.00218419,0.0131683,0.0153675,741,610,0.733032,-0.310242
-476,414,0.753418,0.242065,0.0137359,-0.00306279,-0.00250776,0.0141023,-0.00342916,-0.145071,0.0107288,0.0104298,748,610,0.753419,-0.242036
-469,414,0.773193,0.195618,0.0114189,-0.00148887,-0.00452564,0.0128475,-0.0029175,-0.305775,0.00968512,0.0118937,755,610,0.773215,-0.195591
-462,414,0.772156,0.135315,0.008746,-0.000588109,-0.00511021,0.0109996,-0.00284172,-0.415346,0.0084413,0.0218635,762,610,0.772179,-0.135303
-455,414,0.736084,0.0878906,0.00664855,0.000691827,-0.00409385,0.00873282,-0.00139244,-0.470919,0.00633723,0.0236302,769,610,0.736061,-0.0879018
-448,414,0.723328,0.0501709,0.00490633,0.00124848,-0.00268287,0.00632437,-0.000169551,-0.486227,0.00427388,0.0229601,776,610,0.723332,-0.0501476
-441,414,0.767029,0.0184937,0.0034966,0.0017446,-0.00126776,0.00416157,0.00107962,-0.483074,0.00249366,0.0168448,783,610,0.767056,-0.0184862
-434,414,0.765625,-0.0144653,0.00175712,0.00167026,-0.000122878,0.00184402,0.00158336,-0.615519,0.00115233,0.0102457,790,610,0.765611,0.0144421
-427,414,0.787537,-0.0411377,0.000168778,0.00124737,0.000762195,0.00164176,-0.000225619,1.09329,0.00117695,0.0111123,797,610,0.787527,0.0411528
-420,414,0.786987,-0.0667114,-0.00106881,0.000596403,0.00128218,0.00129259,-0.001765,1.07336,0.00177231,0.00973514,804,610,0.786979,0.0667373
-413,414,0.775818,-0.121582,-0.00211878,-4.7926e-06,0.00126746,0.000588576,-0.00271214,1.13295,0.00203289,0.00989578,811,610,0.775833,0.121574
-406,414,0.764648,-0.174927,-0.00289711,-0.000584701,0.00103024,-0.000192292,-0.00328952,1.20687,0.00213181,0.0125237,818,610,0.764619,0.174911
-399,414,0.768555,-0.183044,-0.00369311,-0.00143254,0.00045765,-0.00134341,-0.00378224,1.37843,0.002214,0.016942,825,610,0.768571,0.18302
-392,414,0.750427,-0.235718,-0.00457761,-0.00219192,-0.000601192,-0.00204899,-0.00472054,-1.33738,0.0027333,0.0256191,832,610,0.750426,0.235735
-385,414,0.634766,-0.433899,-0.00532333,-0.00300387,-0.00196082,-0.00188549,-0.00644171,-1.05245,0.00382419,0.0398069,839,610,0.634788,0.433913
-378,414,0.512329,-0.643005,-0.00544554,-0.00383902,-0.00290301,-0.0016302,-0.00765437,-0.920371,0.00465564,0.0453811,846,610,0.512318,0.642979
-371,414,0.742676,-1.03333,-0.00471835,-0.00409462,-0.00321083,-0.00118054,-0.00763243,-0.833811,0.00474399,0.0431865,853,610,0.74265,1.03332
-364,414,0.544434,-1.51093,-0.00379137,-0.00396181,-0.00353877,-0.000336796,-0.00741639,-0.773359,0.0048359,0.0430721,860,610,0.544429,1.51095
-357,414,0.734863,-2.06079,0.0016335,-0.00533377,0.00120706,0.0018367,-0.00553697,0.166774,0.00443226,0.0467758,867,610,0.734861,2.06077
-350,414,0.761353,-2.32977,0,0,0,0,0,0,0,-1,874,610,0.761334,2.32978
-343,414,0.719971,-3.19916,0,0,0,0,0,0,0,-1,881,610,0.719979,3.19916
-336,414,0.570679,-3.98431,0,0,0,0,0,0,0,-1,888,610,0.570699,3.9843
-329,414,0.49115,0.159973,0,0,0,0,0,0,0,-1,895,610,0.491166,-0.159977
-322,414,-0.162231,0.254578,0,0,0,0,0,0,0,-1,902,610,-0.162204,-0.254562
-315,414,0,0,0,0,0,0,0,0,0,-1,909,610,0,0
-308,414,0,0,0,0,0,0,0,0,0,-1,916,610,0,0
-301,414,0,0,0,0,0,0,0,0,0,-1,923,610,0,0
-294,414,0,0,0,0,0,0,0,0,0,-1,930,610,0,0
-287,414,0,0,0,0,0,0,0,0,0,-1,937,610,0,0
-280,414,0,0,0,0,0,0,0,0,0,-1,944,610,0,0
-273,414,0,0,0,0,0,0,0,0,0,-1,951,610,0,0
-266,414,0,0,0,0,0,0,0,0,0,-1,958,610,0,0
-259,414,0,0,0,0,0,0,0,0,0,-1,965,610,0,0
-252,414,0,0,0,0,0,0,0,0,0,-1,972,610,0,0
-245,414,0,0,0,0,0,0,0,0,0,-1,979,610,0,0
-238,414,0,0,0,0,0,0,0,0,0,-1,986,610,0,0
-231,414,0,0,0,0,0,0,0,0,0,-1,993,610,0,0
-224,414,0,0,0,0,0,0,0,0,0,-1,1000,610,0,0
-217,414,0,0,0,0,0,0,0,0,0,-1,1007,610,0,0
-210,414,0,0,0,0,0,0,0,0,0,-1,1014,610,0,0
-203,414,0,0,0,0,0,0,0,0,0,-1,1021,610,0,0
-196,414,0,0,0,0,0,0,0,0,0,-1,1028,610,0,0
-189,414,0,0,0,0,0,0,0,0,0,-1,1035,610,0,0
-182,414,0,0,0,0,0,0,0,0,0,-1,1042,610,0,0
-175,414,0,0,0,0,0,0,0,0,0,-1,1049,610,0,0
-168,414,0,0,0,0,0,0,0,0,0,-1,1056,610,0,0
-161,414,0,0,0,0,0,0,0,0,0,-1,1063,610,0,0
-154,414,0,0,0,0,0,0,0,0,0,-1,1070,610,0,0
-147,414,0,0,0,0,0,0,0,0,0,-1,1077,610,0,0
-140,414,0,0,0,0,0,0,0,0,0,-1,1084,610,0,0
-133,414,0,0,0,0,0,0,0,0,0,-1,1091,610,0,0
-126,414,0,0,0,0,0,0,0,0,0,-1,1098,610,0,0
-119,414,0,0,0,0,0,0,0,0,0,-1,1105,610,0,0
-112,414,0,0,0,0,0,0,0,0,0,-1,1112,610,0,0
-105,414,0,0,0,0,0,0,0,0,0,-1,1119,610,0,0
-98,414,0,0,0,0,0,0,0,0,0,-1,1126,610,0,0
-91,414,0,0,0,0,0,0,0,0,0,-1,1133,610,0,0
-84,414,0,0,0,0,0,0,0,0,0,-1,1140,610,0,0
-77,414,0,0,0,0,0,0,0,0,0,-1,1147,610,0,0
-70,414,0,0,0,0,0,0,0,0,0,-1,1154,610,0,0
-63,414,0,0,0,0,0,0,0,0,0,-1,1161,610,0,0
-56,414,0,0,0,0,0,0,0,0,0,-1,1168,610,0,0
-49,414,0,0,0,0,0,0,0,0,0,-1,1175,610,0,0
-42,414,0,0,0,0,0,0,0,0,0,-1,1182,610,0,0
-35,414,0,0,0,0,0,0,0,0,0,-1,1189,610,0,0
-28,414,0,0,0,0,0,0,0,0,0,-1,1196,610,0,0
-21,414,0,0,0,0,0,0,0,0,0,-1,1203,610,0,0
-14,414,0,0,0,0,0,0,0,0,0,-1,1210,610,0,0
-7,414,0,0,0,0,0,0,0,0,0,-1,1217,610,0,0
0,414,0,0,0,0,0,0,0,0,0,-1,1224,610,0,0
7,414,0,0,0,0,0,0,0,0,0,-1,1231,610,0,0
14,414,0,0,0,0,0,0,0,0,0,-1,1238,610,0,0
21,414,0,0,0,0,0,0,0,0,0,-1,1245,610,0,0
28,414,0,0,0,0,0,0,0,0,0,-1,1252,610,0,0
35,414,0,0,0,0,0,0,0,0,0,-1,1259,610,0,0
42,414,0,0,0,0,0,0,0,0,0,-1,1266,610,0,0
49,414,0,0,0,0,0,0,0,0,0,-1,1273,610,0,0
56,414,0,0,0,0,0,0,0,0,0,-1,1280,610,0,0
63,414,0,0,0,0,0,0,0,0,0,-1,1287,610,0,0
70,414,0,0,0,0,0,0,0,0,0,-1,1294,610,0,0
77,414,0,0,0,0,0,0,0,0,0,-1,1301,610,0,0
84,414,0,0,0,0,0,0,0,0,0,-1,1308,610,0,0
91,414,0,0,0,0,0,0,0,0,0,-1,1315,610,0,0
98,414,0,0,0,0,0,0,0,0,0,-1,1322,610,0,0
105,414,0,0,0,0,0,0,0,0,0,-1,1329,610,0,0
112,414,0,0,0,0,0,0,0,0,0,-1,1336,610,0,0
119,414,0,0,0,0,0,0,0,0,0,-1,1343,610,0,0
126,414,0,0,0,0,0,0,0,0,0,-1,1350,610,0,0
133,414,0,0,0,0,0,0,0,0,0,-1,1357,610,0,0
140,414,0,0,0,0,0,0,0,0,0,-1,1364,610,0,0
147,414,0,0,0,0,0,0,0,0,0,-1,1371,610,0,0
154,414,0,0,0,0,0,0,0,0,0,-1,1378,610,0,0
161,414,0,0,0,0,0,0,0,0,0,-1,1385,610,0,0
168,414,0,0,0,0,0,0,0,0,0,-1,1392,610,0,0
175,414,0,0,0,0,0,0,0,0,0,-1,1399,610,0,0
182,414,0,0,0,0,0,0,0,0,0,-1,1406,610,0,0
189,414,0,0,0,0,0,0,0,0,0,-1,1413,610,0,0
196,414,0,0,0,0,0,0,0,0,0,-1,1420,610,0,0
203,414,0,0,0,0,0,0,0,0,0,-1,1427,610,0,0
210,414,0,0,0,0,0,0,0,0,0,-1,1434,610,0,0
217,414,0,0,0,0,0,0,0,0,0,-1,1441,610,0,0
224,414,0,0,0,0,0,0,0,0,0,-1,1448,610,0,0
231,414,0,0,0,0,0,0,0,0,0,-1,1455,610,0,0
238,414,0,0,0,0,0,0,0,0,0,-1,1462,610,0,0
245,414,0,0,0,0,0,0,0,0,0,-1,1469,610,0,0
252,414,0,0,0,0,0,0,0,0,0,-1,1476,610,0,0
259,414,0,0,0,0,0,0,0,0,0,-1,1483,610,0,0
266,414,0,0,0,0,0,0,0,0,0,-1,1490,610,0,0
273,414,0,0,0,0,0,0,0,0,0,-1,1497,610,0,0
280,414,0,0,0,0,0,0,0,0,0,-1,1504,610,0,0
287,414,0,0,0,0,0,0,0,0,0,-1,1511,610,0,0
294,414,0,0,0,0,0,0,0,0,0,-1,1518,610,0,0
301,414,0,0,0,0,0,0,0,0,0,-1,1525,610,0,0
308,414,0,0,0,0,0,0,0,0,0,-1,1532,610,0,0
315,414,0,0,0,0,0,0,0,0,0,-1,1539,610,0,0
322,414,0,0,0,0,0,0,0,0,0,-1,1546,610,0,0
329,414,0,0,0,0,0,0,0,0,0,-1,1553,610,0,0
336,414,0,0,0,0,0,0,0,0,0,-1,1560,610,0,0
343,414,0,0,0,0,0,0,0,0,0,-1,1567,610,0,0
350,414,0,0,0,0,0,0,0,0,0,-1,1574,610,0,0
357,414,0,0,0,0,0,0,0,0,0,-1,1581,610,0,0
364,414,0,0,0,0,0,0,0,0,0,-1,1588,610,0,0
371,414,0,0,0,0,0,0,0,0,0,-1,1595,610,0,0
378,414,0,0,0,0,0,0,0,0,0,-1,1602,610,0,0
385,414,0,0,0,0,0,0,0,0,0,-1,1609,610,0,0
392,414,0,0,0,0,0,0,0,0,0,-1,1616,610,0,0
399,414,0,0,0,0,0,0,0,0,0,-1,1623,610,0,0
406,414,0,0,0,0,0,0,0,0,0,-1,1630,610,0,0
413,414,0,0,0,0,0,0,0,0,0,-1,1637,610,0,0
420,414,0,0,0,0,0,0,0,0,0,-1,1644,610,0,0
427,414,0,0,0,0,0,0,0,0,0,-1,1651,610,0,0
434,414,0,0,0,0,0,0,0,0,0,-1,1658,610,0,0
441,414,5.27466,1.01953,0,0,0,0,0,0,0,-1,1665,610,5.27468,-1.01955
448,414,4.46167,0.767944,-0.0253401,-0.0277344,0.00865695,-0.0177979,-0.0352766,0.716691,0.0203672,0.0487123,1672,610,4.46168,-0.767962
455,414,3.97534,0.700867,-0.0217732,-0.0282997,0.00956444,-0.0149307,-0.0351423,0.620997,0.0203656,0.0468455,1679,610,3.97532,-0.700885
462,414,3.68262,0.640259,-0.0186555,-0.0275711,0.0101203,-0.0120547,-0.0341719,0.577944,0.0200123,0.0489343,1686,610,3.68263,-0.640279
469,414,3.43396,0.503174,-0.0163698,-0.0254273,0.00939581,-0.0104682,-0.0313288,0.560828,0.0184164,0.048268,1693,610,3.43399,-0.503148
476,414,3.48572,0.133972,-0.0134122,-0.0227725,0.00891941,-0.00801967,-0.0281651,0.543787,0.0167559,0.0494116,1700,610,3.48569,-0.133999
483,414,3.43372,0.161072,-0.0105741,-0.021242,0.00844658,-0.00591827,-0.0258978,0.503771,0.0156696,0.0461844,1707,610,3.43369,-0.161068
490,414,3.42505,0.279724,-0.00849293,-0.0190094,0.00707807,-0.00493367,-0.0225686,0.465931,0.0137006,0.0428411,1714,610,3.42503,-0.279694
497,414,3.38782,0.367371,-0.00719672,-0.0158036,0.00475046,-0.00509028,-0.01791,0.417366,0.0106565,0.0460337,1721,610,3.38783,-0.367395
504,414,2.76648,-0.184204,0,0,0,0,0,0,0,-1,1728,610,2.76648,0.184188
511,414,2.52429,-0.244385,-0.00552502,-0.0103072,0.000624536,-0.0054448,-0.0103874,0.127743,0.00599951,0.0451014,1735,610,2.52432,0.244412
518,414,2.32043,-0.150818,-0.00462434,-0.00751375,-0.00064476,-0.00448699,-0.0076511,-0.209883,0.00443932,0.042112,1742,610,2.32049,0.150815
525,414,2.72766,-0.203064,-0.00414349,-0.00547196,-0.00131182,-0.00333732,-0.00627813,-0.551043,0.00362709,0.0374713,1749,610,2.72765,0.203058
532,414,2.73694,-0.254944,-0.00417958,-0.00385927,-0.00179819,-0.00221412,-0.00582473,-0.829813,0.00339497,0.0271584,1756,610,2.73697,0.254919
539,414,2.69714,-0.187439,-0.004173,-0.00252289,-0.00215474,-0.00104065,-0.00565524,-0.968238,0.0034756,0.0157289,1763,610,2.69715,0.187446
546,414,2.72131,-0.150208,-0.00407495,-0.00179488,-0.00209899,-0.000546314,-0.00532352,-1.03418,0.00338165,0.011595,1770,610,2.72132,0.150208
553,414,2.73743,-0.131653,-0.00346002,-0.000923122,-0.00158665,-0.000160213,-0.00422292,-1.1226,0.00276343,0.011367,1777,610,2.73739,0.131629
560,414,2.73181,-0.0817871,-0.00252202,-0.00020426,-0.000895302,0.000101294,-0.00282758,-1.24191,0.00191971,0.0127001,1784,610,2.73186,0.0817874
567,414,2.73523,-0.00128174,-0.000975514,0.000174478,-2.11937e-05,0.000174868,-0.000975904,-1.55238,0.000716046,0.0215568,1791,610,2.7352,0.00129793
574,414,2.71167,0.00842285,0.000250599,-0.000120696,0.000694099,0.000783449,-0.000653545,0.654724,0.000830778,0.0208331,1798,610,2.71171,-0.00843697
581,414,2.71326,0.0282593,0.00109178,-0.000342894,0.00132354,0.00187988,-0.00113099,0.537064,0.00175616,0.0163592,1805,610,2.71332,-0.0282668
588,414,2.69189,0.0856323,0.00183027,-0.000877728,0.00241104,0.00324149,-0.00228895,0.529552,0.00320875,0.0154855,1812,610,2.69186,-0.0856108
595,414,2.70337,0.13446,0.00245213,-0.00150305,0.00382597,0.00478138,-0.0038323,0.546866,0.00498317,0.0206881,1819,610,2.70334,-0.134448
602,414,2.74451,0.129028,0.0029567,-0.00107007,0.005189,0.00650923,-0.0046226,0.600334,0.00645766,0.0214797,1826,610,2.74457,-0.129033
609,414,2.7113,0.164978,0.00338397,-0.00119967,0.00699487,0.0084529,-0.0062686,0.627088,0.00853059,0.0118875,1833,610,2.71135,-0.164985
616,414,2.72205,0.162842,0.00397988,-0.000806729,0.00968377,0.0115617,-0.00838856,0.664253,0.0115668,0.0182589,1840,610,2.72204,-0.162847
623,414,2.82068,0.151672,0.00472111,4.77846e-06,0.0132118,0.0157836,-0.0110577,0.697084,0.0155767,0.0302771,1847,610,2.82065,-0.151677
630,414,2.85352,-0.32428,0,0,0,0,0,0,0,-1,1854,610,2.85348,0.324293
637,414,2.77051,0.356995,0.00608721,0.0041737,0.02261,0.0277607,-0.0174998,0.764253,0.026354,0.0435662,1861,610,2.7705,-0.357019
644,414,2.63684,1.07648,0.00734069,0.00795434,0.0291428,0.036792,-0.0214969,0.790662,0.0340371,0.0484339,1868,610,2.6368,-1.07649
651,414,2.58252,1.7099,0,0,0,0,0,0,0,-1,1875,610,2.58253,-1.70988
658,414,2.41187,0.827148,0,0,0,0,0,0,0,-1,1882,610,2.41189,-0.827124
665,414,0,0,0,0,0,0,0,0,0,-1,1889,610,0,0
672,414,0,0,0,0,0,0,0,0,0,-1,1896,610,0,0
679,414,0,0,0,0,0,0,0,0,0,-1,1903,610,0,0
686,414,0,0,0,0,0,0,0,0,0,-1,1910,610,0,0
693,414,0,0,0,0,0,0,0,0,0,-1,1917,610,0,0
700,414,0,0,0,0,0,0,0,0,0,-1,1924,610,0,0
707,414,0,0,0,0,0,0,0,0,0,-1,1931,610,0,0
714,414,0,0,0,0,0,0,0,0,0,-1,1938,610,0,0
721,414,0,0,0,0,0,0,0,0,0,-1,1945,610,0,0
728,414,0,0,0,0,0,0,0,0,0,-1,1952,610,0,0
735,414,0,0,0,0,0,0,0,0,0,-1,1959,610,0,0
742,414,0,0,0,0,0,0,0,0,0,-1,1966,610,0,0
749,414,0,0,0,0,0,0,0,0,0,-1,1973,610,0,0
756,414,0,0,0,0,0,0,0,0,0,-1,1980,610,0,0
763,414,0,0,0,0,0,0,0,0,0,-1,1987,610,0,0
770,414,0,0,0,0,0,0,0,0,0,-1,1994,610,0,0
777,414,0,0,0,0,0,0,0,0,0,-1,2001,610,0,0
784,414,0,0,0,0,0,0,0,0,0,-1,2008,610,0,0
791,414,0,0,0,0,0,0,0,0,0,-1,2015,610,0,0
798,414,0,0,0,0,0,0,0,0,0,-1,2022,610,0,0
805,414,0,0,0,0,0,0,0,0,0,-1,2029,610,0,0
812,414,0,0,0,0,0,0,0,0,0,-1,2036,610,0,0
-700,407,0,0,0,0,0,0,0,0,0,-1,524,617,0,0
-693,407,0,0,0,0,0,0,0,0,0,-1,531,617,0,0
-686,407,0,0,0,0,0,0,0,0,0,-1,538,617,0,0
-679,407,0,0,0,0,0,0,0,0,0,-1,545,617,0,0
-672,407,0,0,0,0,0,0,0,0,0,-1,552,617,0,0
-665,407,0,0,0,0,0,0,0,0,0,-1,559,617,0,0
-658,407,0,0,0,0,0,0,0,0,0,-1,566,617,0,0
-651,407,0,0,0,0,0,0,0,0,0,-1,573,617,0,0
-644,407,0,0,0,0,0,0,0,0,0,-1,580,617,0,0
-637,407,0,0,0,0,0,0,0,0,0,-1,587,617,0,0
-630,407,0,0,0,0,0,0,0,0,0,-1,594,617,0,0
-623,407,0,0,0,0,0,0,0,0,0,-1,601,617,0,0
-616,407,0,0,0,0,0,0,0,0,0,-1,608,617,0,0
-609,407,0,0,0,0,0,0,0,0,0,-1,615,617,0,0
-602,407,0,0,0,0,0,0,0,0,0,-1,622,617,0,0
-595,407,0,0,0,0,0,0,0,0,0,-1,629,617,0,0
-588,407,0,0,0,0,0,0,0,0,0,-1,636,617,0,0
-581,407,0,0,0,0,0,0,0,0,0,-1,643,617,0,0
-574,407,0,0,0,0,0,0,0,0,0,-1,650,617,0,0
-567,407,0,0,0,0,0,0,0,0,0,-1,657,617,0,0
-560,407,0,0,0,0,0,0,0,0,0,-1,664,617,0,0
-553,407,0,0,0,0,0,0,0,0,0,-1,671,617,0,0
-546,407,0.446045,-0.373962,0.0655252,-0.0121355,0.025793,0.0733111,-0.0199214,0.293164,0.0566935,0.0451838,678,617,0.446044,0.373971
-539,407,0.231384,-0.337036,0.0571406,-0.0133665,0.0280116,0.0669144,-0.0231403,0.335712,0.0540018,0.0446259,685,617,0.231411,0.337037
-532,407,1.03503,-0.552979,0.0492993,-0.0136392,0.0269051,0.059233,-0.0235729,0.353685,0.0492635,0.0446513,692,617,1.03503,0.553002
-525,407,1.81042,-0.70282,0,0,0,0,0,0,0,-1,699,617,1.81044,0.702801
-518,407,0.190979,-0.686951,0,0,0,0,0,0,0,-1,706,617,0.190995,0.686977
-511,407,0.208801,-0.489624,0.029925,-0.011172,0.0143906,0.0344629,-0.01571,0.305472,0.0296341,0.0473009,713,617,0.208816,0.489646
-504,407,0.345459,-0.260559,0.02449,-0.00959043,0.0100013,0.0272082,-0.0123086,0.265374,0.0233494,0.0436552,720,617,0.345463,0.260538
-497,407,0.523315,0.00286865,0.0197759,-0.00776192,0.00579554,0.0209459,-0.00893192,0.199203,0.0177087,0.0365964,727,617,0.523293,-0.00284091
-490,407,0.665649,0.274597,0.016172,-0.00626367,0.00246537,0.0164397,-0.00653139,0.108167,0.0136674,0.019339,734,617,0.665622,-0.274581
-483,407,0.722839,0.257019,0.0125324,-0.0048676,-5.92521e-05,0.0125326,-0.0048678,-0.00340525,0.0103659,0.0103022,741,617,0.72285,-0.257025
-476,407,0.735779,0.238403,0.00962696,-0.00326829,-0.00207926,0.00995394,-0.00359526,-0.155978,0.0081047,0.00877598,748,617,0.735768,-0.238396
-469,407,0.73468,0.208557,0.00766903,-0.00167891,-0.00363235,0.00891451,-0.0029244,-0.330324,0.00712087,0.0120528,755,617,0.734685,-0.208534
-462,407,0.725037,0.144775,0.00535134,-0.000726782,-0.00394615,0.00729305,-0.00266848,-0.457267,0.0059543,0.0199038,762,617,0.725049,-0.144784
-455,407,0.699646,0.0873413,0.0035981,0.000785155,-0.00290962,0.00542335,-0.0010401,-0.560264,0.00400752,0.0204458,769,617,0.699673,-0.0873438
-448,407,0.700562,0.0664673,0.00223262,0.00151869,-0.00164695,0.00356085,0.000190459,-0.678678,0.00231303,0.0173339,776,617,0.700584,-0.0664425
-441,407,0.723389,0.0556641,0.00107231,0.00221768,-0.000376742,0.00233049,0.000959503,-1.27986,0.00135248,0.0141566,783,617,0.723369,-0.0556765
-434,407,0.723877,0.0184937,-0.00038987,0.00221158,0.000729577,0.00240222,-0.00058051,1.31521,0.001826,0.0107886,790,617,0.72386,-0.0184916
-427,407,0.742676,-0.0281372,-0.00166913,0.00176474,0.00158405,0.00238384,-0.00228823,1.19822,0.00269761,0.0107451,797,617,0.742685,0.028147
-420,407,0.748779,-0.0709839,-0.00269361,0.000899641,0.0021261,0.00188657,-0.00368054,1.1362,0.00326933,0.0102863,804,617,0.748762,0.0709897
-413,407,0.747559,-0.10614,-0.00356869,-0.000117026,0.00217263,0.000931814,-0.00461753,1.12104,0.0034314,0.009999,811,617,0.747565,0.106128
-406,407,0.737244,-0.132324,-0.0041919,-0.00124852,0.00200691,-0.000231526,-0.0052089,1.10177,0.00339805,0.0156602,818,617,0.737262,0.132312
-399,407,0.694275,-0.179382,-0.00487353,-0.00287652,0.00159141,-0.0019963,-0.00575375,1.06557,0.0033734,0.0311601,825,617,0.694272,0.1794
-392,407,0.681152,-0.227112,-0.00561727,-0.00472571,0.000713219,-0.00433042,-0.00601256,1.06471,0.00358184,0.0433948,832,617,0.681164,0.227121
-385,407,0.52301,-0.346008,-0.00620178,-0.00688179,-0.000533545,-0.00590911,-0.00717445,-0.501717,0.00442195,0.0441524,839,617,0.523018,0.346037
-378,407,0.616089,-0.481567,-0.00619343,-0.00914781,-0.00157884,-0.00550849,-0.00983275,-0.409324,0.00569065,0.0440058,846,617,0.616109,0.481564
-371,407,0.829346,-0.579163,0,0,0,0,0,0,0,-1,853,617,0.829341,0.579159
-364,407,0.484619,-1.4447,0,0,0,0,0,0,0,-1,860,617,0.484594,1.44468
-357,407,0.79425,-2.07379,0,0,0,0,0,0,0,-1,867,617,0.79422,2.07376
-350,407,0.89032,-2.52606,0,0,0,0,0,0,0,-1,874,617,0.890343,2.52609
-343,407,1.10211,-4.45013,0,0,0,0,0,0,0,-1,881,617,1.10211,4.45013
-336,407,0.330811,-0.574036,0,0,0,0,0,0,0,-1,888,617,0.330789,0.574054
-329,407,0.0168457,-0.274841,0,0,0,0,0,0,0,-1,895,617,0.0168304,0.274864
-322,407,0,0,0,0,0,0,0,0,0,-1,902,617,0,0
-315,407,0,0,0,0,0,0,0,0,0,-1,909,617,0,0
-308,407,0,0,0,0,0,0,0,0,0,-1,916,617,0,0
-301,407,0,0,0,0,0,0,0,0,0,-1,923,617,0,0
-294,407,0,0,0,0,0,0,0,0,0,-1,930,617,0,0
-287,407,0,0,0,0,0,0,0,0,0,-1,937,617,0,0
-280,407,0,0,0,0,0,0,0,0,0,-1,944,617,0,0
-273,407,0,0,0,0,0,0,0,0,0,-1,951,617,0,0
-266,407,0,0,0,0,0,0,0,0,0,-1,958,617,0,0
-259,407,0,0,0,0,0,0,0,0,0,-1,965,617,0,0
-252,407,0,0,0,0,0,0,0,0,0,-1,972,617,0,0
-245,407,0,0,0,0,0,0,0,0,0,-1,979,617,0,0
-238,407,0,0,0,0,0,0,0,0,0,-1,986,617,0,0
-231,407,0,0,0,0,0,0,0,0,0,-1,993,617,0,0
-224,407,0,0,0,0,0,0,0,0,0,-1,1000,617,0,0
-217,407,0,0,0,0,0,0,0,0,0,-1,1007,617,0,0
-210,407,0,0,0,0,0,0,0,0,0,-1,1014,617,0,0
-203,407,0,0,0,0,0,0,0,0,0,-1,1021,617,0,0
-196,407,0,0,0,0,0,0,0,0,0,-1,1028,617,0,0
-189,407,0,0,0,0,0,0,0,0,0,-1,1035,617,0,0
-182,407,0,0,0,0,0,0,0,0,0,-1,1042,617,0,0
-175,407,0,0,0,0,0,0,0,0,0,-1,1049,617,0,0
-168,407,0,0,0,0,0,0,0,0,0,-1,1056,617,0,0
-161,407,0,0,0,0,0,0,0,0,0,-1,1063,617,0,0
-154,407,0,0,0,0,0,0,0,0,0,-1,1070,617,0,0
-147,407,0,0,0,0,0,0,0,0,0,-1,1077,617,0,0
-140,407,0,0,0,0,0,0,0,0,0,-1,1084,617,0,0
-133,407,0,0,0,0,0,0,0,0,0,-1,1091,617,0,0
-126,407,0,0,0,0,0,0,0,0,0,-1,1098,617,0,0
-119,407,0,0,0,0,0,0,0,0,0,-1,1105,617,0,0
-112,407,0,0,0,0,0,0,0,0,0,-1,1112,617,0,0
-105,407,0,0,0,0,0,0,0,0,0,-1,1119,617,0,0
-98,407,0,0,0,0,0,0,0,0,0,-1,1126,617,0,0
-91,407,0,0,0,0,0,0,0,0,0,-1,1133,617,0,0
-84,407,0,0,0,0,0,0,0,0,0,-1,1140,617,0,0
-77,407,0,0,0,0,0,0,0,0,0,-1,1147,617,0,0
-70,407,0,0,0,0,0,0,0,0,0,-1,1154,617,0,0
-63,407,0,0,0,0,0,0,0,0,0,-1,1161,617,0,0
-56,407,0,0,0,0,0,0,0,0,0,-1,1168,617,0,0
-49,407,0,0,0,0,0,0,0,0,0,-1,1175,617,0,0
-42,407,0,0,0,0,0,0,0,0,0,-1,1182,617,0,0
-35,407,0,0,0,0,0,0,0,0,0,-1,1189,617,0,0
-28,407,0,0,0,0,0,0,0,0,0,-1,1196,617,0,0
-21,407,0,0,0,0,0,0,0,0,0,-1,1203,617,0,0
-14,407,0,0,0,0,0,0,0,0,0,-1,1210,617,0,0
-7,407,0,0,0,0,0,0,0,0,0,-1,1217,617,0,0
0,407,0,0,0,0,0,0,0,0,0,-1,1224,617,0,0
7,407,0,0,0,0,0,0,0,0,0,-1,1231,617,0,0
14,407,0,0,0,0,0,0,0,0,0,-1,1238,617,0,0
21,407,0,0,0,0,0,0,0,0,0,-1,1245,617,0,0
28,407,0,0,0,0,0,0,0,0,0,-1,1252,617,0,0
35,407,0,0,0,0,0,0,0,0,0,-1,1259,617,0,0
42,407,0,0,0,0,0,0,0,0,0,-1,1266,617,0,0
49,407,0,0,0,0,0,0,0,0,0,-1,1273,617,0,0
56,407,0,0,0,0,0,0,0,0,0,-1,1280,617,0,0
63,407,0,0,0,0,0,0,0,0,0,-1,1287,617,0,0
70,407,0,0,0,0,0,0,0,0,0,-1,1294,617,0,0
77,407,0,0,0,0,0,0,0,0,0,-1,1301,617,0,0
84,407,0,0,0,0,0,0,0,0,0,-1,1308,617,0,0
91,407,0,0,0,0,0,0,0,0,0,-1,1315,617,0,0
98,407,0,0,0,0,0,0,0,0,0,-1,1322,617,0,0
105,407,0,0,0,0,0,0,0,0,0,-1,1329,617,0,0
112,407,0,0,0,0,0,0,0,0,0,-1,1336,617,0,0
119,407,0,0,0,0,0,0,0,0,0,-1,1343,617,0,0
126,407,0,0,0,0,0,0,0,0,0,-1,1350,617,0,0
133,407,0,0,0,0,0,0,0,0,0,-1,1357,617,0,0
140,407,0,0,0,0,0,0,0,0,0,-1,1364,617,0,0
147,407,0,0,0,0,0,0,0,0,0,-1,1371,617,0,0
154,407,0,0,0,0,0,0,0,0,0,-1,1378,617,0,0
161,407,0,0,0,0,0,0,0,0,0,-1,1385,617,0,0
168,407,0,0,0,0,0,0,0,0,0,-1,1392,617,0,0
175,407,0,0,0,0,0,0,0,0,0,-1,1399,617,0,0
182,407,0,0,0,0,0,0,0,0,0,-1,1406,617,0,0
189,407,0,0,0,0,0,0,0,0,0,-1,1413,617,0,0
196,407,0,0,0,0,0,0,0,0,0,-1,1420,617,0,0
203,407,0,0,0,0,0,0,0,0,0,-1,1427,617,0,0
210,407,0,0,0,0,0,0,0,0,0,-1,1434,617,0,0
217,407,0,0,0,0,0,0,0,0,0,-1,1441,617,0,0
224,407,0,0,0,0,0,0,0,0,0,-1,1448,617,0,0
231,407,0,0,0,0,0,0,0,0,0,-1,1455,617,0,0
238,407,0,0,0,0,0,0,0,0,0,-1,1462,617,0,0
245,407,0,0,0,0,0,0,0,0,0,-1,1469,617,0,0
252,407,0,0,0,0,0,0,0,0,0,-1,1476,617,0,0
259,407,0,0,0,0,0,0,0,0,0,-1,1483,617,0,0
266,407,0,0,0,0,0,0,0,0,0,-1,1490,617,0,0
273,407,0,0,0,0,0,0,0,0,0,-1,1497,617,0,0
280,407,0,0,0,0,0,0,0,0,0,-1,1504,617,0,0
287,407,0,0,0,0,0,0,0,0,0,-1,1511,617,0,0
294,407,0,0,0,0,0,0,0,0,0,-1,1518,617,0,0
301,407,0,0,0,0,0,0,0,0,0,-1,1525,617,0,0
308,407,0,0,0,0,0,0,0,0,0,-1,1532,617,0,0
315,407,0,0,0,0,0,0,0,0,0,-1,1539,617,0,0
322,407,0,0,0,0,0,0,0,0,0,-1,1546,617,0,0
329,407,0,0,0,0,0,0,0,0,0,-1,1553,617,0,0
336,407,0,0,0,0,0,0,0,0,0,-1,1560,617,0,0
343,407,0,0,0,0,0,0,0,0,0,-1,1567,617,0,0
350,407,0,0,0,0,0,0,0,0,0,-1,1574,617,0,0
357,407,0,0,0,0,0,0,0,0,0,-1,1581,617,0,0
364,407,0,0,0,0,0,0,0,0,0,-1,1588,617,0,0
371,407,0,0,0,0,0,0,0,0,0,-1,1595,617,0,0
378,407,0,0,0,0,0,0,0,0,0,-1,1602,617,0,0
385,407,0,0,0,0,0,0,0,0,0,-1,1609,617,0,0
392,407,0,0,0,0,0,0,0,0,0,-1,1616,617,0,0
399,407,0,0,0,0,0,0,0,0,0,-1,1623,617,0,0
406,407,0,0,0,0,0,0,0,0,0,-1,1630,617,0,0
413,407,0,0,0,0,0,0,0,0,0,-1,1637,617,0,0
420,407,0,0,0,0,0,0,0,0,0,-1,1644,617,0,0
427,407,0,0,0,0,0,0,0,0,0,-1,1651,617,0,0
434,407,0,0,0,0,0,0,0,0,0,-1,1658,617,0,0
441,407,0,0,0,0,0,0,0,0,0,-1,1665,617,0,0
448,407,3.55298,0.814453,-0.0267841,-0.0282601,0.0167621,-0.0107438,-0.0443004,0.763399,0.0266833,0.0447274,1672,617,3.55302,-0.814435
455,407,3.57617,1.07727,-0.0214578,-0.0292324,0.0174046,-0.00751173,-0.0431785,0.675528,0.0266372,0.0439521,1679,617,3.57621,-1.07724
462,407,3.37781,1.01447,-0.0168105,-0.0288375,0.017793,-0.00404223,-0.0416058,0.622439,0.0264928,0.0473865,1686,617,3.37783,-1.0145
469,407,3.2124,0.820496,0,0,0,0,0,0,0,-1,1693,617,3.21235,-0.82048
476,407,3.79028,-0.0263062,0,0,0,0,0,0,0,-1,1700,617,3.7903,0.0263163
483,407,3.67175,0.461914,-0.00831803,-0.0232075,0.0137823,-9.82396e-05,-0.0314273,0.537768,0.0209188,0.0485956,1707,617,3.67172,-0.461927
490,407,3.60046,0.437134,-0.00658599,-0.0211025,0.0115049,-0.000241091,-0.0274474,0.503989,0.0182184,0.0406874,1714,617,3.60046,-0.437134
497,407,3.60828,0.45459,-0.00562831,-0.0181151,0.00837776,-0.00142342,-0.02232,0.465175,0.014429,0.0401789,1721,617,3.60823,-0.45459
504,407,3.6283,0.523804,0,0,0,0,0,0,0,-1,1728,617,3.62833,-0.523833
511,407,3.69043,0.56073,-0.00484818,-0.0127236,0.00288625,-0.00390368,-0.0136681,0.316259,0.00812949,0.0432576,1735,617,3.69038,-0.56073
518,407,2.67664,-0.133789,-0.00438673,-0.00993915,0.0010732,-0.00418652,-0.0101394,0.184438,0.0058835,0.0498686,1742,617,2.67667,0.133784
525,407,2.70789,-0.306946,-0.00436326,-0.00779634,-0.000151579,-0.00435658,-0.00780302,-0.0440383,0.00451528,0.0432463,1749,617,2.70791,0.306944
532,407,2.84534,-0.261169,-0.00467988,-0.00600269,-0.00118115,-0.00398757,-0.00669501,-0.530166,0.00388885,0.0357003,1756,617,2.84537,0.261157
539,407,2.7583,-0.193359,-0.00490213,-0.00452355,-0.00201384,-0.00269012,-0.00673556,-0.832258,0.00391493,0.0188343,1763,617,2.75824,0.193374
546,407,2.74463,-0.143799,-0.00498626,-0.00365891,-0.00227032,-0.00195726,-0.00668792,-0.9276,0.0039704,0.0111259,1770,617,2.74466,0.143776
553,407,2.75061,-0.122437,-0.0044288,-0.00250727,-0.00195112,-0.0012932,-0.00564288,-1.01418,0.00341351,0.0128153,1777,617,2.75056,0.122429
560,407,2.76904,-0.0653687,-0.00351683,-0.00153589,-0.00143712,-0.000780985,-0.00427174,-1.08712,0.00262649,0.0131026,1784,617,2.769,0.0653671
567,407,2.76599,-0.0022583,-0.00188782,-0.000905899,-0.000634246,-0.000594793,-0.00219892,-1.11477,0.00131337,0.0250732,1791,617,2.76596,0.00225404
574,407,2.74622,0.00506592,-0.00060769,-0.000949783,-5.80286e-05,-0.000598115,-0.000959359,-0.163536,0.000559485,0.0239403,1798,617,2.74616,-0.0050559
581,407,2.75464,0.0408936,0.000172218,-0.000914471,0.000416066,0.000313223,-0.00105548,0.326752,0.000828046,0.0158607,1805,617,2.7546,-0.0408966
588,407,2.75,0.0666504,0.000825958,-0.00116599,0.00130987,0.0014755,-0.00181553,0.460348,0.00190345,0.0102304,1812,617,2.75002,-0.0666664
595,407,2.74805,0.0945435,0.00136728,-0.00148527,0.00249635,0.00281607,-0.00293406,0.525856,0.00332008,0.0185894,1819,617,2.74807,-0.0945707
602,407,2.77405,0.130127,0.00173431,-0.000856108,0.00353195,0.00420105,-0.00332285,0.609656,0.00435378,0.017602,1826,617,2.77405,-0.130118
609,407,2.74976,0.182373,0.00203356,-0.000749377,0.00490513,0.00574077,-0.00445659,0.647191,0.00590299,0.0124418,1833,617,2.74975,-0.182397
616,407,2.77576,0.244934,0.00249597,-6.90227e-05,0.00706395,0.0083929,-0.00596596,0.695599,0.00832947,0.0131645,1840,617,2.77577,-0.244962
623,407,2.80518,0.290527,0.00312656,0.000963317,0.00993732,0.0120409,-0.00795107,0.731189,0.0116226,0.0207651,1847,617,2.80512,-0.290527
630,407,2.80566,0.231506,0.00359142,0.00274971,0.0133294,0.0165066,-0.0101655,0.769617,0.0155435,0.0345603,1854,617,2.8057,-0.231516
637,407,2.77319,0.492065,0.00431704,0.00533697,0.0175187,0.0223531,-0.0126991,0.799949,0.0204916,0.0441191,1861,617,2.77317,-0.492049
644,407,2.599,1.09186,0.00558255,0.00903394,0.0228174,0.0301908,-0.0155743,0.823142,0.0268679,0.0462556,1868,617,2.59901,-1.09187
651,407,2.58606,1.61523,0.00764073,0.0137782,0.0291358,0.0400064,-0.0185875,0.837867,0.0345744,0.0488743,1875,617,2.58611,-1.61523
658,407,2.62732,2.13275,0,0,0,0,0,0,0,-1,1882,617,2.62735,-2.13273
665,407,3.61487,1.17749,0,0,0,0,0,0,0,-1,1889,617,3.61483,-1.17748
672,407,0,0,0,0,0,0,0,0,0,-1,1896,617,0,0
679,407,0,0,0,0,0,0,0,0,0,-1,1903,617,0,0
686,407,0,0,0,0,0,0,0,0,0,-1,1910,617,0,0
693,407,0,0,0,0,0,0,0,0,0,-1,1917,617,0,0
700,407,0,0,0,0,0,0,0,0,0,-1,1924,617,0,0
707,407,0,0,0,0,0,0,0,0,0,-1,1931,617,0,0
714,407,0,0,0,0,0,0,0,0,0,-1,1938,617,0,0
721,407,0,0,0,0,0,0,0,0,0,-1,1945,617,0,0
728,407,0,0,0,0,0,0,0,0,0,-1,1952,617,0,0
735,407,0,0,0,0,0,0,0,0,0,-1,1959,617,0,0
742,407,0,0,0,0,0,0,0,0,0,-1,1966,617,0,0
749,407,0,0,0,0,0,0,0,0,0,-1,1973,617,0,0
756,407,0,0,0,0,0,0,0,0,0,-1,1980,617,0,0
763,407,0,0,0,0,0,0,0,0,0,-1,1987,617,0,0
770,407,0,0,0,0,0,0,0,0,0,-1,1994,617,0,0
777,407,0,0,0,0,0,0,0,0,0,-1,2001,617,0,0
784,407,0,0,0,0,0,0,0,0,0,-1,2008,617,0,0
791,407,0,0,0,0,0,0,0,0,0,-1,2015,617,0,0
798,407,0,0,0,0,0,0,0,0,0,-1,2022,617,0,0
805,407,0,0,0,0,0,0,0,0,0,-1,2029,617,0,0
812,407,0,0,0,0,0,0,0,0,0,-1,2036,617,0,0
-700,400,0,0,0,0,0,0,0,0,0,-1,524,624,0,0
-693,400,0,0,0,0,0,0,0,0,0,-1,531,624,0,0
-686,400,0,0,0,0,0,0,0,0,0,-1,538,624,0,0
-679,400,0,0,0,0,0,0,0,0,0,-1,545,624,0,0
-672,400,0,0,0,0,0,0,0,0,0,-1,552,624,0,0
-665,400,0,0,0,0,0,0,0,0,0,-1,559,624,0,0
-658,400,0,0,0,0,0,0,0,0,0,-1,566,624,0,0
-651,400,0,0,0,0,0,0,0,0,0,-1,573,624,0,0
-644,400,0,0,0,0,0,0,0,0,0,-1,580,624,0,0
-637,400,0,0,0,0,0,0,0,0,0,-1,587,624,0,0
-630,400,0,0,0,0,0,0,0,0,0,-1,594,624,0,0
-623,400,0,0,0,0,0,0,0,0,0,-1,601,624,0,0
-616,400,0,0,0,0,0,0,0,0,0,-1,608,624,0,0
-609,400,0,0,0,0,0,0,0,0,0,-1,615,624,0,0
-602,400,0,0,0,0,0,0,0,0,0,-1,622,624,0,0
-595,400,0,0,0,0,0,0,0,0,0,-1,629,624,0,0
-588,400,0,0,0,0,0,0,0,0,0,-1,636,624,0,0
-581,400,0,0,0,0,0,0,0,0,0,-1,643,624,0,0
-574,400,0,0,0,0,0,0,0,0,0,-1,650,624,0,0
-567,400,0,0,0,0,0,0,0,0,0,-1,657,624,0,0
-560,400,0,0,0,0,0,0,0,0,0,-1,664,624,0,0
-553,400,0,0,0,0,0,0,0,0,0,-1,671,624,0,0
-546,400,-0.024353,-0.376587,0.0597769,-0.00967409,0.0136169,0.0623512,-0.0122485,0.186852,0.0461948,0.0493987,678,624,-0.024349,0.376572
-539,400,0.325378,-0.334106,0.0518031,-0.0115988,0.017297,0.056215,-0.0160107,0.249741,0.0438001,0.0456188,685,624,0.325387,0.334122
-532,400,1.1109,-0.438049,0.0443767,-0.0123771,0.0180846,0.0496494,-0.0176499,0.283698,0.0402928,0.0433715,692,624,1.11089,0.438047
-525,400,-0.348389,0.24292,0.0376513,-0.0122215,0.0165499,0.0426435,-0.0172137,0.292967,0.035583,0.0484613,699,624,-0.348384,-0.242918
-518,400,-0.282776,-1.43774,0,0,0,0,0,0,0,-1,706,624,-0.282801,1.43772
-511,400,0.0169678,0.428162,0.0259002,-0.0109355,0.0114662,0.0291777,-0.0142131,0.278421,0.0255435,0.0460821,713,624,0.0169705,-0.428174
-504,400,0.492432,-0.0770874,0.0206426,-0.00952155,0.0085807,0.0229127,-0.0117916,0.258632,0.0203766,0.0419101,720,624,0.492439,0.0770979
-497,400,0.65271,0.331665,0.0160803,-0.00774195,0.00545893,0.0172717,-0.0089333,0.214869,0.0153826,0.0278554,727,624,0.652704,-0.331681
-490,400,0.691406,0.30426,0.0126285,-0.00625832,0.00290848,0.0130663,-0.00669607,0.149385,0.0116057,0.0142341,734,624,0.691429,-0.304267
-483,400,0.705444,0.26593,0.00921919,-0.00490295,0.000837526,0.00926869,-0.00495245,0.0590301,0.00833568,0.014198,741,624,0.705472,-0.265949
-476,400,0.71283,0.250854,0.00649394,-0.00338639,-0.000914476,0.00657787,-0.00347032,-0.0915193,0.00589308,0.0124921,748,624,0.71284,-0.250864
-469,400,0.686157,0.222412,0.00469797,-0.00191019,-0.00218063,0.00535269,-0.00256491,-0.29168,0.00466473,0.0135249,755,624,0.686128,-0.222416
-462,400,0.695068,0.148499,0.0025764,-0.00104586,-0.00243834,0.00380265,-0.00227211,-0.465969,0.00354418,0.0188839,762,624,0.695088,-0.148508
-455,400,0.703125,0.0970459,0.00103798,0.000500189,-0.00158148,0.00237326,-0.000835095,-0.70119,0.001922,0.019546,769,624,0.703145,-0.09704
-448,400,0.685486,0.0839844,-4.74179e-05,0.00121945,-0.000609181,0.00146485,-0.000292812,-1.18786,0.00108739,0.0150231,776,624,0.68551,-0.0840133
-441,400,0.675842,0.0772095,-0.00097338,0.00198907,0.000384019,0.00203804,-0.00102235,1.44396,0.00179906,0.0140407,783,624,0.675866,-0.0772262
-434,400,0.687378,0.02948,-0.0022664,0.00189534,0.00135172,0.00229584,-0.00266689,1.28275,0.0028679,0.0105784,790,624,0.687398,-0.0295043
-427,400,0.710815,-0.0299072,-0.00332326,0.00132142,0.00216263,0.00217244,-0.00417428,1.19589,0.00372454,0.00960555,797,624,0.710817,0.0298965
-420,400,0.721069,-0.0723267,-0.00408271,0.000178477,0.00274151,0.00151996,-0.00542419,1.11573,0.00421514,0.00974806,804,624,0.721074,0.0723452
-413,400,0.707214,-0.0957642,-0.00476489,-0.00128869,0.00292291,0.000373853,-0.00642743,1.05364,0.00441485,0.0162652,811,624,0.707231,0.0957355
-406,400,0.586853,-0.119568,-0.00528937,-0.00298402,0.00293945,-0.000979311,-0.00729407,0.972254,0.00457138,0.0258943,818,624,0.586826,0.119551
-399,400,0.5047,-0.170349,-0.00589493,-0.00540287,0.00280793,-0.00283021,-0.00846759,0.829096,0.00497751,0.038972,825,624,0.504678,0.170378
-392,400,0.453064,-0.186035,-0.006541,-0.00838662,0.00228116,-0.00500306,-0.00992456,0.593192,0.00573001,0.0457869,832,624,0.453035,0.186047
-385,400,0.310608,-0.200684,-0.00703522,-0.0119973,0.00134742,-0.00669295,-0.0123396,0.24876,0.00713278,0.0446989,839,624,0.310584,0.200683
-378,400,0.259766,-0.322449,-0.00703698,-0.0159276,0.000421044,-0.00701709,-0.0159475,0.0472174,0.00922934,0.0429441,846,624,0.25978,0.322419
-371,400,0.544861,-0.663818,-0.00621047,-0.0195627,-0.000302041,-0.00620364,-0.0195696,-0.0226055,0.011548,0.0451317,853,624,0.544869,0.663834
-364,400,0.592346,-0.828735,0,0,0,0,0,0,0,-1,860,624,0.592331,0.828742
-357,400,-0.288635,-0.430115,0,0,0,0,0,0,0,-1,867,624,-0.288644,0.430113
-350,400,0.254761,-0.936584,0,0,0,0,0,0,0,-1,874,624,0.254759,0.936611
-343,400,0.487793,-1.13684,0,0,0,0,0,0,0,-1,881,624,0.487821,1.13682
-336,400,0,0,0,0,0,0,0,0,0,-1,888,624,0,0
-329,400,0,0,0,0,0,0,0,0,0,-1,895,624,0,0
-322,400,0,0,0,0,0,0,0,0,0,-1,902,624,0,0
-315,400,0,0,0,0,0,0,0,0,0,-1,909,624,0,0
-308,400,0,0,0,0,0,0,0,0,0,-1,916,624,0,0
-301,400,0,0,0,0,0,0,0,0,0,-1,923,624,0,0
-294,400,0,0,0,0,0,0,0,0,0,-1,930,624,0,0
-287,400,0,0,0,0,0,0,0,0,0,-1,937,624,0,0
-280,400,0,0,0,0,0,0,0,0,0,-1,944,624,0,0
-273,400,0,0,0,0,0,0,0,0,0,-1,951,624,0,0
-266,400,0,0,0,0,0,0,0,0,0,-1,958,624,0,0
-259,400,0,0,0,0,0,0,0,0,0,-1,965,624,0,0
-252,400,0,0,0,0,0,0,0,0,0,-1,972,624,0,0
-245,400,0,0,0,0,0,0,0,0,0,-1,979,624,0,0
-238,400,0,0,0,0,0,0,0,0,0,-1,986,624,0,0
-231,400,0,0,0,0,0,0,0,0,0,-1,993,624,0,0
-224,400,0,0,0,0,0,0,0,0,0,-1,1000,624,0,0
-217,400,0,0,0,0,0,0,0,0,0,-1,1007,624,0,0
-210,400,0,0,0,0,0,0,0,0,0,-1,1014,624,0,0
-203,400,0,0,0,0,0,0,0,0,0,-1,1021,624,0,0
-196,400,0,0,0,0,0,0,0,0,0,-1,1028,624,0,0
-189,400,0,0,0,0,0,0,0,0,0,-1,1035,624,0,0
-182,400,0,0,0,0,0,0,0,0,0,-1,1042,624,0,0
-175,400,0,0,0,0,0,0,0,0,0,-1,1049,624,0,0
-168,400,0,0,0,0,0,0,0,0,0,-1,1056,624,0,0
-161,400,0,0,0,0,0,0,0,0,0,-1,1063,624,0,0
-154,400,0,0,0,0,0,0,0,0,0,-1,1070,624,0,0
-147,400,0,0,0,0,0,0,0,0,0,-1,1077,624,0,0
-140,400,0,0,0,0,0,0,0,0,0,-1,1084,624,0,0
-133,400,0,0,0,0,0,0,0,0,0,-1,1091,624,0,0
-126,400,0,0,0,0,0,0,0,0,0,-1,1098,624,0,0
-119,400,0,0,0,0,0,0,0,0,0,-1,1105,624,0,0
-112,400,0,0,0,0,0,0,0,0,0,-1,1112,624,0,0
-105,400,0,0,0,0,0,0,0,0,0,-1,1119,624,0,0
-98,400,0,0,0,0,0,0,0,0,0,-1,1126,624,0,0
-91,400,0,0,0,0,0,0,0,0,0,-1,1133,624,0,0
-84,400,0,0,0,0,0,0,0,0,0,-1,1140,624,0,0
-77,400,0,0,0,0,0,0,0,0,0,-1,1147,624,0,0
-70,400,0,0,0,0,0,0,0,0,0,-1,1154,624,0,0
-63,400,0,0,0,0,0,0,0,0,0,-1,1161,624,0,0
-56,400,0,0,0,0,0,0,0,0,0,-1,1168,624,0,0
-49,400,0,0,0,0,0,0,0,0,0,-1,1175,624,0,0
-42,400,0,0,0,0,0,0,0,0,0,-1,1182,624,0,0
-35,400,0,0,0,0,0,0,0,0,0,-1,1189,624,0,0
-28,400,0,0,0,0,0,0,0,0,0,-1,1196,624,0,0
-21,400,0,0,0,0,0,0,0,0,0,-1,1203,624,0,0
-14,400,0,0,0,0,0,0,0,0,0,-1,1210,624,0,0
-7,400,0,0,0,0,0,0,0,0,0,-1,1217,624,0,0
0,400,0,0,0,0,0,0,0,0,0,-1,1224,624,0,0
7,400,0,0,0,0,0,0,0,0,0,-1,1231,624,0,0
14,400,0,0,0,0,0,0,0,0,0,-1,1238,624,0,0
21,400,0,0,0,0,0,0,0,0,0,-1,1245,624,0,0
28,400,0,0,0,0,0,0,0,0,0,-1,1252,624,0,0
35,400,0,0,0,0,0,0,0,0,0,-1,1259,624,0,0
42,400,0,0,0,0,0,0,0,0,0,-1,1266,624,0,0
49,400,0,0,0,0,0,0,0,0,0,-1,1273,624,0,0
56,400,0,0,0,0,0,0,0,0,0,-1,1280,624,0,0
63,400,0,0,0,0,0,0,0,0,0,-1,1287,624,0,0
70,400,0,0,0,0,0,0,0,0,0,-1,1294,624,0,0
77,400,0,0,0,0,0,0,0,0,0,-1,1301,624,0,0
84,400,0,0,0,0,0,0,0,0,0,-1,1308,624,0,0
91,400,0,0,0,0,0,0,0,0,0,-1,1315,624,0,0
98,400,0,0,0,0,0,0,0,0,0,-1,1322,624,0,0
105,400,0,0,0,0,0,0,0,0,0,-1,1329,624,0,0
112,400,0,0,0,0,0,0,0,0,0,-1,1336,624,0,0
119,400,0,0,0,0,0,0,0,0,0,-1,1343,624,0,0
126,400,0,0,0,0,0,0,0,0,0,-1,1350,624,0,0
133,400,0,0,0,0,0,0,0,0,0,-1,1357,624,0,0
140,400,0,0,0,0,0,0,0,0,0,-1,1364,624,0,0
147,400,0,0,0,0,0,0,0,0,0,-1,1371,624,0,0
154,400,0,0,0,0,0,0,0,0,0,-1,1378,624,0,0
161,400,0,0,0,0,0,0,0,0,0,-1,1385,624,0,0
168,400,0,0,0,0,0,0,0,0,0,-1,1392,624,0,0
175,400,0,0,0,0,0,0,0,0,0,-1,1399,624,0,0
182,400,0,0,0,0,0,0,0,0,0,-1,1406,624,0,0
189,400,0,0,0,0,0,0,0,0,0,-1,1413,624,0,0
196,400,0,0,0,0,0,0,0,0,0,-1,1420,624,0,0
203,400,0,0,0,0,0,0,0,0,0,-1,1427,624,0,0
210,400,0,0,0,0,0,0,0,0,0,-1,1434,624,0,0
217,400,0,0,0,0,0,0,0,0,0,-1,1441,624,0,0
224,400,0,0,0,0,0,0,0,0,0,-1,1448,624,0,0
231,400,0,0,0,0,0,0,0,0,0,-1,1455,624,0,0
238,400,0,0,0,0,0,0,0,0,0,-1,1462,624,0,0
245,400,0,0,0,0,0,0,0,0,0,-1,1469,624,0,0
252,400,0,0,0,0,0,0,0,0,0,-1,1476,624,0,0
259,400,0,0,0,0,0,0,0,0,0,-1,1483,624,0,0
266,400,0,0,0,0,0,0,0,0,0,-1,1490,624,0,0
273,400,0,0,0,0,0,0,0,0,0,-1,1497,624,0,0
280,400,0,0,0,0,0,0,0,0,0,-1,1504,624,0,0
287,400,0,0,0,0,0,0,0,0,0,-1,1511,624,0,0
294,400,0,0,0,0,0,0,0,0,0,-1,1518,624,0,0
301,400,0,0,0,0,0,0,0,0,0,-1,1525,624,0,0
308,400,0,0,0,0,0,0,0,0,0,-1,1532,624,0,0
315,400,0,0,0,0,0,0,0,0,0,-1,1539,624,0,0
322,400,0,0,0,0,0,0,0,0,0,-1,1546,624,0,0
329,400,0,0,0,0,0,0,0,0,0,-1,1553,624,0,0
336,400,0,0,0,0,0,0,0,0,0,-1,1560,624,0,0
343,400,0,0,0,0,0,0,0,0,0,-1,1567,624,0,0
350,400,0,0,0,0,0,0,0,0,0,-1,1574,624,0,0
357,400,0,0,0,0,0,0,0,0,0,-1,1581,624,0,0
364,400,0,0,0,0,0,0,0,0,0,-1,1588,624,0,0
371,400,0,0,0,0,0,0,0,0,0,-1,1595,624,0,0
378,400,0,0,0,0,0,0,0,0,0,-1,1602,624,0,0
385,400,0,0,0,0,0,0,0,0,0,-1,1609,624,0,0
392,400,0,0,0,0,0,0,0,0,0,-1,1616,624,0,0
399,400,0,0,0,0,0,0,0,0,0,-1,1623,624,0,0
406,400,0,0,0,0,0,0,0,0,0,-1,1630,624,0,0
413,400,0,0,0,0,0,0,0,0,0,-1,1637,624,0,0
420,400,0,0,0,0,0,0,0,0,0,-1,1644,624,0,0
427,400,0,0,0,0,0,0,0,0,0,-1,1651,624,0,0
434,400,0,0,0,0,0,0,0,0,0,-1,1658,624,0,0
441,400,0,0,0,0,0,0,0,0,0,-1,1665,624,0,0
448,400,0,0,0,0,0,0,0,0,0,-1,1672,624,0,0
455,400,3.40967,1.1861,-0.0194348,-0.0298121,0.0277794,0.00363637,-0.0528832,0.693072,0.036528,0.0436765,1679,624,3.40961,-1.1861
462,400,3.13672,1.28137,-0.0133672,-0.0300311,0.0274684,0.00700511,-0.0504034,0.638144,0.0361642,0.0475339,1686,624,3.13677,-1.28134
469,400,2.70337,1.07922,0,0,0,0,0,0,0,-1,1693,624,2.70337,-1.07924
476,400,2.77075,0.725952,0,0,0,0,0,0,0,-1,1700,624,2.77075,-0.725978
483,400,5.41028,1.21063,0,0,0,0,0,0,0,-1,1707,624,5.41027,-1.21061
490,400,5.60645,1.17773,0,0,0,0,0,0,0,-1,1714,624,5.60643,-1.17773
497,400,3.61646,0.417908,0,0,0,0,0,0,0,-1,1721,624,3.61648,-0.417905
504,400,3.52551,0.841125,0,0,0,0,0,0,0,-1,1728,624,3.52556,-0.841099
511,400,3.44409,0.784973,0,0,0,0,0,0,0,-1,1735,624,3.44415,-0.784951
518,400,3.41174,0.377808,0,0,0,0,0,0,0,-1,1742,624,3.41173,-0.37779
525,400,2.52991,-0.278259,-0.00521453,-0.0102953,0.00200753,-0.00451706,-0.0109928,0.334381,0.00638019,0.0441376,1749,624,2.52988,0.278277
532,400,2.89856,-0.131409,-0.0059653,-0.00835737,0.000443662,-0.00588567,-0.00843701,0.177605,0.0049963,0.038311,1756,624,2.89859,0.13138
539,400,2.81677,-0.137268,-0.00651154,-0.00676419,-0.000883651,-0.00574523,-0.0075305,-0.714399,0.0045437,0.0210804,1763,624,2.81674,0.137292
546,400,2.76978,-0.158508,-0.00681736,-0.00578714,-0.00149979,-0.00471647,-0.00788803,-0.950815,0.00458318,0.011465,1770,624,2.76982,0.158522
553,400,2.77332,-0.122314,-0.00629833,-0.00435537,-0.00145812,-0.00357473,-0.00707897,-1.07926,0.00408711,0.0114768,1777,624,2.77326,0.122344
560,400,2.80261,-0.0739136,-0.00536326,-0.00308712,-0.00125787,-0.00252889,-0.00592149,-1.15312,0.00343087,0.0126198,1784,624,2.8026,0.0739288
567,400,2.79065,-0.0314331,-0.00356178,-0.00217408,-0.000692074,-0.00188793,-0.00384793,-1.17874,0.00222173,0.0168028,1791,624,2.7907,0.0314542
574,400,2.7926,-0.0139771,-0.00214072,-0.00190885,-0.000405807,-0.00160274,-0.00244683,-0.924536,0.00143513,0.0188262,1798,624,2.79264,0.0139642
581,400,2.80212,0.0261841,-0.00132204,-0.00155847,-0.000228185,-0.00118327,-0.00169724,-0.546405,0.00100498,0.0155621,1805,624,2.80217,-0.0262096
588,400,2.80396,0.0632324,-0.000680879,-0.00147316,0.00034317,-0.000552908,-0.00160113,0.356936,0.000939042,0.010665,1812,624,2.8039,-0.0632226
595,400,2.8075,0.0953369,-0.000177059,-0.0014761,0.00121947,0.000555083,-0.00220824,0.540696,0.00168789,0.01005,1819,624,2.80748,-0.095318
602,400,2.79504,0.136047,8.87617e-05,-0.000595912,0.00184122,0.0016192,-0.00212635,0.693483,0.00216909,0.0118442,1826,624,2.79501,-0.136053
609,400,2.77466,0.177185,0.000259813,-0.000249239,0.00278013,0.00279704,-0.00278647,0.739749,0.00322364,0.0133984,1833,624,2.77464,-0.177157
616,400,2.79285,0.218079,0.00058157,0.000683305,0.0044786,0.00511133,-0.00384645,0.791077,0.00518893,0.0155972,1840,624,2.79281,-0.218079
623,400,2.84229,0.28125,0.0011325,0.00187048,0.00680106,0.00831255,-0.00530957,0.812499,0.00792818,0.0196657,1847,624,2.84229,-0.281233
630,400,2.78455,0.321899,0.00156786,0.00370181,0.00952284,0.0122173,-0.00694759,0.841187,0.0112034,0.0242917,1854,624,2.78457,-0.321895
637,400,2.6582,0.300171,0.00233406,0.00620949,0.0128487,0.0172657,-0.0087222,0.860239,0.015272,0.0405546,1861,624,2.65816,-0.300145
644,400,2.56775,0.308105,0.00371708,0.0096239,0.0171478,0.0240708,-0.0107298,0.870678,0.0205784,0.0451422,1868,624,2.56777,-0.308109
651,400,2.46436,0.319275,0.00588841,0.0138663,0.0223117,0.0325428,-0.0127881,0.873856,0.0269875,0.0418254,1875,624,2.46436,-0.31929
658,400,2.35974,0.334656,0,0,0,0,0,0,0,-1,1882,624,2.35971,-0.334642
665,400,3.49194,1.1001,0,0,0,0,0,0,0,-1,1889,624,3.49192,-1.10009
672,400,0,0,0,0,0,0,0,0,0,-1,1896,624,0,0
679,400,0,0,0,0,0,0,0,0,0,-1,1903,624,0,0
686,400,0,0,0,0,0,0,0,0,0,-1,1910,624,0,0
693,400,0,0,0,0,0,0,0,0,0,-1,1917,624,0,0
700,400,0,0,0,0,0,0,0,0,0,-1,1924,624,0,0
707,400,0,0,0,0,0,0,0,0,0,-1,1931,624,0,0
714,400,0,0,0,0,0,0,0,0,0,-1,1938,624,0,0
721,400,0,0,0,0,0,0,0,0,0,-1,1945,624,0,0
728,400,0,0,0,0,0,0,0,0,0,-1,1952,624,0,0
735,400,0,0,0,0,0,0,0,0,0,-1,1959,624,0,0
742,400,0,0,0,0,0,0,0,0,0,-1,1966,624,0,0
749,400,0,0,0,0,0,0,0,0,0,-1,1973,624,0,0
756,400,0,0,0,0,0,0,0,0,0,-1,1980,624,0,0
763,400,0,0,0,0,0,0,0,0,0,-1,1987,624,0,0
770,400,0,0,0,0,0,0,0,0,0,-1,1994,624,0,0
777,400,0,0,0,0,0,0,0,0,0,-1,2001,624,0,0
784,400,0,0,0,0,0,0,0,0,0,-1,2008,624,0,0
791,400,0,0,0,0,0,0,0,0,0,-1,2015,624,0,0
798,400,0,0,0,0,0,0,0,0,0,-1,2022,624,0,0
805,400,0,0,0,0,0,0,0,0,0,-1,2029,624,0,0
812,400,0,0,0,0,0,0,0,0,0,-1,2036,624,0,0
-700,393,0,0,0,0,0,0,0,0,0,-1,524,631,0,0
-693,393,0,0,0,0,0,0,0,0,0,-1,531,631,0,0
-686,393,0,0,0,0,0,0,0,0,0,-1,538,631,0,0
-679,393,0,0,0,0,0,0,0,0,0,-1,545,631,0,0
-672,393,0,0,0,0,0,0,0,0,0,-1,552,631,0,0
-665,393,0,0,0,0,0,0,0,0,0,-1,559,631,0,0
-658,393,0,0,0,0,0,0,0,0,0,-1,566,631,0,0
-651,393,0,0,0,0,0,0,0,0,0,-1,573,631,0,0
-644,393,0,0,0,0,0,0,0,0,0,-1,580,631,0,0
-637,393,0,0,0,0,0,0,0,0,0,-1,587,631,0,0
-630,393,0,0,0,0,0,0,0,0,0,-1,594,631,0,0
-623,393,0,0,0,0,0,0,0,0,0,-1,601,631,0,0
-616,393,0,0,0,0,0,0,0,0,0,-1,608,631,0,0
-609,393,0,0,0,0,0,0,0,0,0,-1,615,631,0,0
-602,393,0,0,0,0,0,0,0,0,0,-1,622,631,0,0
-595,393,0,0,0,0,0,0,0,0,0,-1,629,631,0,0
-588,393,0,0,0,0,0,0,0,0,0,-1,636,631,0,0
-581,393,0,0,0,0,0,0,0,0,0,-1,643,631,0,0
-574,393,0,0,0,0,0,0,0,0,0,-1,650,631,0,0
-567,393,0,0,0,0,0,0,0,0,0,-1,657,631,0,0
-560,393,0,0,0,0,0,0,0,0,0,-1,664,631,0,0
-553,393,-0.783997,-0.368591,0,0,0,0,0,0,0,-1,671,631,-0.784005,0.368569
-546,393,-0.270996,-0.34845,0.055328,-0.00719033,0.00449129,0.055649,-0.00751133,0.0713512,0.0398399,0.0480055,678,631,-0.270998,0.348465
-539,393,0.226257,-0.350952,0.0475805,-0.00929363,0.0084411,0.0488069,-0.01052,0.144275,0.0365527,0.0431804,685,631,0.226266,0.350934
-532,393,-0.131348,0.111389,0.0403065,-0.0102615,0.0102323,0.0422985,-0.0122535,0.192274,0.0330496,0.0439152,692,631,-0.131351,-0.111406
-525,393,-0.105408,0.185303,0.0337215,-0.010404,0.0100733,0.0359123,-0.0125948,0.214154,0.0290642,0.0460979,699,631,-0.105416,-0.185281
-518,393,-0.0397949,0.799194,0.0277459,-0.00995024,0.0089119,0.0297466,-0.011951,0.220837,0.0247941,0.0461571,706,631,-0.0398023,-0.799216
-511,393,0.258789,0.678711,0.0224292,-0.00952769,0.00783745,0.0242478,-0.0113463,0.22801,0.0209954,0.0434298,713,631,0.258776,-0.678716
-504,393,0.622864,0.50592,0.017343,-0.00832785,0.00626884,0.018792,-0.00977691,0.227163,0.0167658,0.0351098,720,631,0.622883,-0.505906
-497,393,0.64563,0.386536,0.0129659,-0.00671291,0.00418284,0.0138181,-0.00756509,0.200983,0.0125203,0.0176815,727,631,0.64566,-0.386546
-490,393,0.656067,0.298401,0.00969089,-0.00540018,0.00245343,0.0100797,-0.00578903,0.157184,0.0092728,0.0129206,734,631,0.656068,-0.298386
-483,393,0.689453,0.238892,0.00655955,-0.00426507,0.000934426,0.00663963,-0.00434514,0.0854814,0.00638801,0.0181563,741,631,0.689469,-0.238903
-476,393,0.692566,0.241882,0.00405564,-0.00302653,-0.000403378,0.00407855,-0.00304943,-0.0567124,0.00412961,0.0156686,748,631,0.692592,-0.241897
-469,393,0.674622,0.22113,0.00241434,-0.00181972,-0.00123878,0.00275015,-0.00215552,-0.264714,0.00283921,0.0125135,755,631,0.674619,-0.221118
-462,393,0.677307,0.135681,0.00049303,-0.00116748,-0.00132374,0.00122534,-0.00189979,-0.505307,0.00181825,0.0140993,762,631,0.677329,-0.135707
-455,393,0.671509,0.0837402,-0.000853509,0.000309073,-0.000509074,0.000500476,-0.00104491,-1.21116,0.000910499,0.0140406,769,631,0.671494,-0.083759
-448,393,0.665894,0.0564575,-0.00173458,0.000951661,0.000259838,0.000976564,-0.00175948,1.47525,0.00160107,0.0147902,776,631,0.665911,-0.0564658
-441,393,0.649719,0.0526733,-0.00250584,0.00167595,0.00108864,0.00194238,-0.00277226,1.33078,0.00273602,0.0127994,783,631,0.649738,-0.0526815
-434,393,0.660645,0.0194702,-0.00370983,0.00153039,0.00196317,0.00218427,-0.00436371,1.24928,0.00384965,0.0102207,790,631,0.660671,-0.0194549
-427,393,0.693298,-0.0232544,-0.00464499,0.000845989,0.00273996,0.0019793,-0.0057783,1.1786,0.00465443,0.0117453,797,631,0.693284,0.0232304
-420,393,0.698853,-0.0512695,-0.0052539,-0.000605826,0.0034056,0.00119315,-0.00705288,1.08481,0.00514595,0.0156089,804,631,0.698871,0.0512601
-413,393,0.577271,-0.00158691,-0.00582954,-0.00258311,0.00378915,-8.4131e-05,-0.00832851,0.987766,0.00552451,0.0288897,811,631,0.577261,0.00160978
-406,393,0.416992,0.0263062,-0.00633651,-0.00490518,0.00405862,-0.00149961,-0.00974208,0.872667,0.00605705,0.0383759,818,631,0.416982,-0.0263147
-399,393,0.544861,0.200134,-0.00694285,-0.0082148,0.00428794,-0.00324398,-0.0119137,0.711776,0.00711215,0.0420682,825,631,0.544861,-0.200161
-392,393,0.314697,-0.143494,0,0,0,0,0,0,0,-1,832,631,0.314698,0.143498
-385,393,0.257813,-0.144531,0,0,0,0,0,0,0,-1,839,631,0.257827,0.144535
-378,393,0.198303,-0.277344,-0.00813044,-0.0235542,0.00313335,-0.0075182,-0.0241664,0.192964,0.0142806,0.0430471,846,631,0.198319,0.27736
-371,393,0.13269,-0.417786,-0.00771812,-0.0296709,0.00203197,-0.00753162,-0.0298574,0.0915248,0.0179297,0.0425214,853,631,0.132683,0.417761
-364,393,0.0681152,-0.560913,-0.00669301,-0.0354128,0.000422346,-0.0066868,-0.035419,0.0147015,0.0217294,0.0471602,860,631,0.0681077,0.560888
-357,393,-0.0313721,-0.695618,0,0,0,0,0,0,0,-1,867,631,-0.0313796,0.695634
-350,393,0.339844,-0.600586,0,0,0,0,0,0,0,-1,874,631,0.339852,0.60059
-343,393,0,0,0,0,0,0,0,0,0,-1,881,631,0,0
-336,393,0,0,0,0,0,0,0,0,0,-1,888,631,0,0
-329,393,0,0,0,0,0,0,0,0,0,-1,895,631,0,0
-322,393,0,0,0,0,0,0,0,0,0,-1,902,631,0,0
-315,393,0,0,0,0,0,0,0,0,0,-1,909,631,0,0
-308,393,0,0,0,0,0,0,0,0,0,-1,916,631,0,0
-301,393,0,0,0,0,0,0,0,0,0,-1,923,631,0,0
-294,393,0,0,0,0,0,0,0,0,0,-1,930,631,0,0
-287,393,0,0,0,0,0,0,0,0,0,-1,937,631,0,0
-280,393,0,0,0,0,0,0,0,0,0,-1,944,631,0,0
-273,393,0,0,0,0,0,0,0,0,0,-1,951,631,0,0
-266,393,0,0,0,0,0,0,0,0,0,-1,958,631,0,0
-259,393,0,0,0,0,0,0,0,0,0,-1,965,631,0,0
-252,393,0,0,0,0,0,0,0,0,0,-1,972,631,0,0
-245,393,0,0,0,0,0,0,0,0,0,-1,979,631,0,0
-238,393,0,0,0,0,0,0,0,0,0,-1,986,631,0,0
-231,393,0,0,0,0,0,0,0,0,0,-1,993,631,0,0
-224,393,0,0,0,0,0,0,0,0,0,-1,1000,631,0,0
-217,393,0,0,0,0,0,0,0,0,0,-1,1007,631,0,0
-210,393,0,0,0,0,0,0,0,0,0,-1,1014,631,0,0
-203,393,0,0,0,0,0,0,0,0,0,-1,1021,631,0,0
-196,393,0,0,0,0,0,0,0,0,0,-1,1028,631,0,0
-189,393,0,0,0,0,0,0,0,0,0,-1,1035,631,0,0
-182,393,0,0,0,0,0,0,0,0,0,-1,1042,631,0,0
-175,393,0,0,0,0,0,0,0,0,0,-1,1049,631,0,0
-168,393,0,0,0,0,0,0,0,0,0,-1,1056,631,0,0
-161,393,0,0,0,0,0,0,0,0,0,-1,1063,631,0,0
-154,393,0,0,0,0,0,0,0,0,0,-1,1070,631,0,0
-147,393,0,0,0,0,0,0,0,0,0,-1,1077,631,0,0
-140,393,0,0,0,0,0,0,0,0,0,-1,1084,631,0,0
-133,393,0,0,0,0,0,0,0,0,0,-1,1091,631,0,0
-126,393,0,0,0,0,0,0,0,0,0,-1,1098,631,0,0
-119,393,0,0,0,0,0,0,0,0,0,-1,1105,631,0,0
-112,393,0,0,0,0,0,0,0,0,0,-1,1112,631,0,0
-105,393,0,0,0,0,0,0,0,0,0,-1,1119,631,0,0
-98,393,0,0,0,0,0,0,0,0,0,-1,1126,631,0,0
-91,393,0,0,0,0,0,0,0,0,0,-1,1133,631,0,0
-84,393,0,0,0,0,0,0,0,0,0,-1,1140,631,0,0
-77,393,0,0,0,0,0,0,0,0,0,-1,1147,631,0,0
-70,393,0,0,0,0,0,0,0,0,0,-1,1154,631,0,0
-63,393,0,0,0,0,0,0,0,0,0,-1,1161,631,0,0
-56,393,0,0,0,0,0,0,0,0,0,-1,1168,631,0,0
-49,393,0,0,0,0,0,0,0,0,0,-1,1175,631,0,0
-42,393,0,0,0,0,0,0,0,0,0,-1,1182,631,0,0
-35,393,0,0,0,0,0,0,0,0,0,-1,1189,631,0,0
-28,393,0,0,0,0,0,0,0,0,0,-1,1196,631,0,0
-21,393,0,0,0,0,0,0,0,0,0,-1,1203,631,0,0
-14,393,0,0,0,0,0,0,0,0,0,-1,1210,631,0,0
-7,393,0,0,0,0,0,0,0,0,0,-1,1217,631,0,0
0,393,0,0,0,0,0,0,0,0,0,-1,1224,631,0,0
7,393,0,0,0,0,0,0,0,0,0,-1,1231,631,0,0
14,393,0,0,0,0,0,0,0,0,0,-1,1238,631,0,0
21,393,0,0,0,0,0,0,0,0,0,-1,1245,631,0,0
28,393,0,0,0,0,0,0,0,0,0,-1,1252,631,0,0
35,393,0,0,0,0,0,0,0,0,0,-1,1259,631,0,0
42,393,0,0,0,0,0,0,0,0,0,-1,1266,631,0,0
49,393,0,0,0,0,0,0,0,0,0,-1,1273,631,0,0
56,393,0,0,0,0,0,0,0,0,0,-1,1280,631,0,0
63,393,0,0,0,0,0,0,0,0,0,-1,1287,631,0,0
70,393,0,0,0,0,0,0,0,0,0,-1,1294,631,0,0
77,393,0,0,0,0,0,0,0,0,0,-1,1301,631,0,0
84,393,0,0,0,0,0,0,0,0,0,-1,1308,631,0,0
91,393,0,0,0,0,0,0,0,0,0,-1,1315,631,0,0
98,393,0,0,0,0,0,0,0,0,0,-1,1322,631,0,0
105,393,0,0,0,0,0,0,0,0,0,-1,1329,631,0,0
112,393,0,0,0,0,0,0,0,0,0,-1,1336,631,0,0
119,393,0,0,0,0,0,0,0,0,0,-1,1343,631,0,0
126,393,0,0,0,0,0,0,0,0,0,-1,1350,631,0,0
133,393,0,0,0,0,0,0,0,0,0,-1,1357,631,0,0
140,393,0,0,0,0,0,0,0,0,0,-1,1364,631,0,0
147,393,0,0,0,0,0,0,0,0,0,-1,1371,631,0,0
154,393,0,0,0,0,0,0,0,0,0,-1,1378,631,0,0
161,393,0,0,0,0,0,0,0,0,0,-1,1385,631,0,0
168,393,0,0,0,0,0,0,0,0,0,-1,1392,631,0,0
175,393,0,0,0,0,0,0,0,0,0,-1,1399,631,0,0
182,393,0,0,0,0,0,0,0,0,0,-1,1406,631,0,0
189,393,0,0,0,0,0,0,0,0,0,-1,1413,631,0,0
196,393,0,0,0,0,0,0,0,0,0,-1,1420,631,0,0
203,393,0,0,0,0,0,0,0,0,0,-1,1427,631,0,0
210,393,0,0,0,0,0,0,0,0,0,-1,1434,631,0,0
217,393,0,0,0,0,0,0,0,0,0,-1,1441,631,0,0
224,393,0,0,0,0,0,0,0,0,0,-1,1448,631,0,0
231,393,0,0,0,0,0,0,0,0,0,-1,1455,631,0,0
238,393,0,0,0,0,0,0,0,0,0,-1,1462,631,0,0
245,393,0,0,0,0,0,0,0,0,0,-1,1469,631,0,0
252,393,0,0,0,0,0,0,0,0,0,-1,1476,631,0,0
259,393,0,0,0,0,0,0,0,0,0,-1,1483,631,0,0
266,393,0,0,0,0,0,0,0,0,0,-1,1490,631,0,0
273,393,0,0,0,0,0,0,0,0,0,-1,1497,631,0,0
280,393,0,0,0,0,0,0,0,0,0,-1,1504,631,0,0
287,393,0,0,0,0,0,0,0,0,0,-1,1511,631,0,0
294,393,0,0,0,0,0,0,0,0,0,-1,1518,631,0,0
301,393,0,0,0,0,0,0,0,0,0,-1,1525,631,0,0
308,393,0,0,0,0,0,0,0,0,0,-1,1532,631,0,0
315,393,0,0,0,0,0,0,0,0,0,-1,1539,631,0,0
322,393,0,0,0,0,0,0,0,0,0,-1,1546,631,0,0
329,393,0,0,0,0,0,0,0,0,0,-1,1553,631,0,0
336,393,0,0,0,0,0,0,0,0,0,-1,1560,631,0,0
343,393,0,0,0,0,0,0,0,0,0,-1,1567,631,0,0
350,393,0,0,0,0,0,0,0,0,0,-1,1574,631,0,0
357,393,0,0,0,0,0,0,0,0,0,-1,1581,631,0,0
364,393,0,0,0,0,0,0,0,0,0,-1,1588,631,0,0
371,393,0,0,0,0,0,0,0,0,0,-1,1595,631,0,0
378,393,0,0,0,0,0,0,0,0,0,-1,1602,631,0,0
385,393,0,0,0,0,0,0,0,0,0,-1,1609,631,0,0
392,393,0,0,0,0,0,0,0,0,0,-1,1616,631,0,0
399,393,0,0,0,0,0,0,0,0,0,-1,1623,631,0,0
406,393,0,0,0,0,0,0,0,0,0,-1,1630,631,0,0
413,393,0,0,0,0,0,0,0,0,0,-1,1637,631,0,0
420,393,0,0,0,0,0,0,0,0,0,-1,1644,631,0,0
427,393,0,0,0,0,0,0,0,0,0,-1,1651,631,0,0
434,393,0,0,0,0,0,0,0,0,0,-1,1658,631,0,0
441,393,0,0,0,0,0,0,0,0,0,-1,1665,631,0,0
448,393,0,0,0,0,0,0,0,0,0,-1,1672,631,0,0
455,393,0,0,0,0,0,0,0,0,0,-1,1679,631,0,0
462,393,3.05652,1.40424,0,0,0,0,0,0,0,-1,1686,631,3.05648,-1.40426
469,393,4.43665,0.0751953,0,0,0,0,0,0,0,-1,1693,631,4.43659,-0.0752103
476,393,4.65979,-0.0628662,0,0,0,0,0,0,0,-1,1700,631,4.6598,0.0628674
483,393,4.85461,1.13898,-0.0010447,-0.0277321,0.0270765,0.0157975,-0.0445744,0.556457,0.0361515,0.044641,1707,631,4.85457,-1.139
490,393,5.15369,1.14288,-0.000675684,-0.0258556,0.0224551,0.0124781,-0.0390093,0.529899,0.0310139,0.0460954,1714,631,5.15365,-1.14291
497,393,5.36902,0.70575,0,0,0,0,0,0,0,-1,1721,631,5.36908,-0.705765
504,393,3.48083,1.45697,0,0,0,0,0,0,0,-1,1728,631,3.48086,-1.45699
511,393,3.62988,1.15662,0,0,0,0,0,0,0,-1,1735,631,3.62988,-1.15662
518,393,3.93298,0.67395,0,0,0,0,0,0,0,-1,1742,631,3.93296,-0.673923
525,393,4.04382,0.258789,0,0,0,0,0,0,0,-1,1749,631,4.04377,-0.258804
532,393,3.84363,0.0691528,0,0,0,0,0,0,0,-1,1756,631,3.8436,-0.0691716
539,393,3.03271,0.0465698,-0.00772972,-0.0103275,0.000319617,-0.00769097,-0.0103662,0.12064,0.00621407,0.0354862,1763,631,3.03277,-0.0465448
546,393,2.87085,-0.150635,-0.00822856,-0.00920782,-0.000653815,-0.00790136,-0.00953502,-0.464004,0.00588816,0.022031,1770,631,2.8709,0.150639
553,393,2.83557,-0.155273,-0.00769714,-0.00740257,-0.000887292,-0.00665042,-0.00844929,-0.867647,0.00513927,0.0130263,1777,631,2.83553,0.155286
560,393,2.82312,-0.0823364,-0.00660426,-0.00573215,-0.000944226,-0.00512816,-0.00720826,-1.00171,0.00428392,0.0125312,1784,631,2.82307,0.0823589
567,393,2.82556,-0.0360107,-0.00451582,-0.00437934,-0.000590893,-0.00385276,-0.0050424,-0.842887,0.00304357,0.0135799,1791,631,2.82557,0.0360204
574,393,2.82898,-0.0186768,-0.00281074,-0.00364868,-0.000529195,-0.00255474,-0.00390468,-0.450566,0.00228986,0.0147889,1798,631,2.82895,0.0186933
581,393,2.83032,0.0112305,-0.00173207,-0.00283597,-0.000545573,-0.00150794,-0.0030601,-0.389793,0.00176681,0.0132263,1805,631,2.83033,-0.0112483
588,393,2.84302,0.0587158,-0.000889802,-0.00229937,-0.000196981,-0.000862793,-0.00232638,-0.136268,0.00135798,0.0126605,1812,631,2.84307,-0.0586985
595,393,2.84033,0.0872192,-0.000230537,-0.0018973,0.000462882,-0.000110617,-0.00201722,0.253499,0.0013095,0.0105845,1819,631,2.84031,-0.0872389
602,393,2.84094,0.116211,0.000120147,-0.000741291,0.000801176,0.000599044,-0.00122019,0.538758,0.00107055,0.013206,1826,631,2.84093,-0.116216
609,393,2.83813,0.160889,0.000357947,-0.000180229,0.00144293,0.00155666,-0.00137894,0.693213,0.00169591,0.0148638,1833,631,2.83809,-0.160913
616,393,2.83984,0.216919,0.000664788,0.00094116,0.002822,0.00362835,-0.0020224,0.809862,0.00330609,0.0146057,1840,631,2.8398,-0.216893
623,393,2.84534,0.275696,0.00116786,0.00218108,0.00472683,0.00642838,-0.00307943,0.838783,0.00560169,0.0157724,1847,631,2.84528,-0.275725
630,393,2.82178,0.308716,0.00154133,0.00393761,0.00691715,0.00975962,-0.00428068,0.871154,0.00830935,0.0187851,1854,631,2.82175,-0.308712
637,393,2.63953,0.287048,0.00223149,0.00620543,0.00953765,0.0139609,-0.00552396,0.888094,0.0115958,0.0309948,1861,631,2.63958,-0.287067
644,393,2.53345,0.283325,0.00349258,0.00918945,0.0129794,0.0196293,-0.00694731,0.893414,0.0159157,0.0417547,1868,631,2.5334,-0.283349
651,393,2.68335,0.308228,0.00536068,0.0126337,0.0170875,0.0264674,-0.00847297,0.890243,0.0210457,0.0418051,1875,631,2.68338,-0.308223
658,393,2.61755,0.343079,0,0,0,0,0,0,0,-1,1882,631,2.61751,-0.343073
665,393,3.15552,1.28772,0.0113204,0.0196738,0.0273014,0.0431162,-0.012122,0.861301,0.0335235,0.045585,1889,631,3.15551,-1.28774
672,393,3.4552,1.85767,0.0155953,0.0229388,0.0330546,0.052525,-0.0139909,0.840712,0.0404941,0.0467922,1896,631,3.45518,-1.85764
679,393,0,0,0,0,0,0,0,0,0,-1,1903,631,0,0
686,393,0,0,0,0,0,0,0,0,0,-1,1910,631,0,0
693,393,0,0,0,0,0,0,0,0,0,-1,1917,631,0,0
700,393,0,0,0,0,0,0,0,0,0,-1,1924,631,0,0
707,393,0,0,0,0,0,0,0,0,0,-1,1931,631,0,0
714,393,0,0,0,0,0,0,0,0,0,-1,1938,631,0,0
721,393,0,0,0,0,0,0,0,0,0,-1,1945,631,0,0
728,393,0,0,0,0,0,0,0,0,0,-1,1952,631,0,0
735,393,0,0,0,0,0,0,0,0,0,-1,1959,631,0,0
742,393,0,0,0,0,0,0,0,0,0,-1,1966,631,0,0
749,393,0,0,0,0,0,0,0,0,0,-1,1973,631,0,0
756,393,0,0,0,0,0,0,0,0,0,-1,1980,631,0,0
763,393,0,0,0,0,0,0,0,0,0,-1,1987,631,0,0
770,393,0,0,0,0,0,0,0,0,0,-1,1994,631,0,0
777,393,0,0,0,0,0,0,0,0,0,-1,2001,631,0,0
784,393,0,0,0,0,0,0,0,0,0,-1,2008,631,0,0
791,393,0,0,0,0,0,0,0,0,0,-1,2015,631,0,0
798,393,0,0,0,0,0,0,0,0,0,-1,2022,631,0,0
805,393,0,0,0,0,0,0,0,0,0,-1,2029,631,0,0
812,393,0,0,0,0,0,0,0,0,0,-1,2036,631,0,0
-700,386,0,0,0,0,0,0,0,0,0,-1,524,638,0,0
-693,386,0,0,0,0,0,0,0,0,0,-1,531,638,0,0
-686,386,0,0,0,0,0,0,0,0,0,-1,538,638,0,0
-679,386,0,0,0,0,0,0,0,0,0,-1,545,638,0,0
-672,386,0,0,0,0,0,0,0,0,0,-1,552,638,0,0
-665,386,0,0,0,0,0,0,0,0,0,-1,559,638,0,0
-658,386,0,0,0,0,0,0,0,0,0,-1,566,638,0,0
-651,386,0,0,0,0,0,0,0,0,0,-1,573,638,0,0
-644,386,0,0,0,0,0,0,0,0,0,-1,580,638,0,0
-637,386,0,0,0,0,0,0,0,0,0,-1,587,638,0,0
-630,386,0,0,0,0,0,0,0,0,0,-1,594,638,0,0
-623,386,0,0,0,0,0,0,0,0,0,-1,601,638,0,0
-616,386,0,0,0,0,0,0,0,0,0,-1,608,638,0,0
-609,386,0,0,0,0,0,0,0,0,0,-1,615,638,0,0
-602,386,0,0,0,0,0,0,0,0,0,-1,622,638,0,0
-595,386,0,0,0,0,0,0,0,0,0,-1,629,638,0,0
-588,386,0,0,0,0,0,0,0,0,0,-1,636,638,0,0
-581,386,0,0,0,0,0,0,0,0,0,-1,643,638,0,0
-574,386,0,0,0,0,0,0,0,0,0,-1,650,638,0,0
-567,386,0,0,0,0,0,0,0,0,0,-1,657,638,0,0
-560,386,-0.486145,-0.142761,0.0661514,0.00516136,-0.0177665,0.0709493,0.00036338,-0.263765,0.0471789,0.0466032,664,638,-0.486126,0.142767
-553,386,-0.239868,-0.1745,0.0594102,-0.000770446,-0.00896833,0.0607183,-0.0020785,-0.144832,0.0411892,0.0495951,671,638,-0.239896,0.174482
-546,386,-0.0499878,-0.328979,0.0519838,-0.00479164,-0.00255854,0.0520989,-0.00490671,-0.0449428,0.0364783,0.0456259,678,638,-0.0499584,0.328995
-539,386,0.0298462,-0.463562,0.0445354,-0.00706878,0.0016503,0.0445882,-0.00712151,0.0319365,0.0323615,0.0395089,685,638,0.0298557,0.463556
-532,386,0.00897217,-0.245911,0.0375709,-0.00817413,0.00396787,0.0379125,-0.00851575,0.0858842,0.0285402,0.0409558,692,638,0.00897794,0.245901
-525,386,0.144714,0.204346,0.0311991,-0.00849922,0.00474208,0.0317577,-0.00905782,0.117255,0.0247499,0.043276,699,638,0.144691,-0.204358
-518,386,0.382874,0.450195,0.0254259,-0.00815156,0.00462808,0.0260521,-0.00877778,0.134493,0.0209172,0.0477196,706,638,0.382873,-0.450221
-511,386,0.543457,0.554138,0.0203425,-0.00788473,0.00468232,0.021099,-0.00864116,0.160166,0.0176655,0.0403666,713,638,0.543428,-0.554136
-504,386,0.615906,0.429688,0.0154727,-0.00685952,0.0041047,0.0162033,-0.00759008,0.176135,0.0140339,0.019817,720,638,0.615887,-0.429708
-497,386,0.604187,0.345032,0.0112808,-0.00537341,0.00280529,0.0117407,-0.00583324,0.162473,0.0103356,0.0105637,727,638,0.604159,-0.345003
-490,386,0.613525,0.280334,0.00815575,-0.00420609,0.00171057,0.00838809,-0.00443842,0.134996,0.00752151,0.011642,734,638,0.613546,-0.280325
-483,386,0.651367,0.201538,0.00524397,-0.00326621,0.000618021,0.00528862,-0.00331086,0.072117,0.00500849,0.015421,741,638,0.651391,-0.20155
-476,386,0.652466,0.197083,0.00288643,-0.00228769,-0.000376896,0.00291374,-0.002315,-0.0723337,0.0030254,0.0149895,748,638,0.652488,-0.197108
-469,386,0.647888,0.195435,0.00129949,-0.00133579,-0.000851101,0.00155046,-0.00158676,-0.286754,0.00181132,0.0119066,755,638,0.647885,-0.195446
-462,386,0.653137,0.123962,-0.000537182,-0.000894709,-0.000731,3.65952e-05,-0.00146849,-0.665478,0.000991414,0.0109814,762,638,0.653163,-0.123933
-455,386,0.649658,0.0619507,-0.00182371,0.000482318,5.96252e-05,0.000483858,-0.00182525,1.54496,0.00140615,0.0121467,769,638,0.649658,-0.0619731
-448,386,0.628357,0.0509033,-0.00263518,0.00104482,0.00070873,0.00117659,-0.00276695,1.38696,0.00233771,0.0128125,776,638,0.628374,-0.0508854
-441,386,0.618835,0.0418091,-0.00337281,0.00171814,0.00143343,0.00209399,-0.00374866,1.31436,0.00341805,0.0121489,783,638,0.618852,-0.0417948
-434,386,0.615479,-0.0136108,-0.00456373,0.00152225,0.0022565,0.00226761,-0.00530909,1.25176,0.00449035,0.0145051,790,638,0.615487,0.0136283
-427,386,0.626221,-0.038208,-0.00546644,0.000703831,0.00305926,0.00196348,-0.00672609,1.1802,0.00526211,0.022049,797,638,0.626216,0.0381986
-420,386,0.625183,0.00543213,-0.00600016,-0.00111652,0.00385481,0.00100478,-0.00812146,1.06772,0.00577843,0.0271494,804,638,0.625184,-0.00544189
-413,386,0.481689,0.0239868,-0.00650621,-0.00367209,0.00445419,-0.000414974,-0.00976332,0.939406,0.00637506,0.0396203,811,638,0.481669,-0.0239768
-406,386,0.294983,0.0552368,0,0,0,0,0,0,0,-1,818,638,0.294982,-0.0552334
-399,386,0.515381,0.481995,0,0,0,0,0,0,0,-1,825,638,0.515369,-0.481982
-392,386,0.563354,-0.0615234,0,0,0,0,0,0,0,-1,832,638,0.563334,0.0615338
-385,386,0.286621,-0.0772705,-0.00882608,-0.0235539,0.00649086,-0.00637375,-0.0260063,0.361233,0.0156517,0.0444405,839,638,0.28665,0.0772711
-378,386,0.0125122,-0.0749512,-0.0093092,-0.031796,0.00639938,-0.00761559,-0.0334896,0.25872,0.0202705,0.0441024,846,638,0.0124933,0.074935
-371,386,-0.0576782,-0.268799,-0.0095633,-0.0411294,0.00547405,-0.00864096,-0.0420517,0.166925,0.0256441,0.0475688,853,638,-0.0576656,0.268769
-364,386,0.0560303,-0.426636,-0.00933696,-0.0504726,0.00304914,-0.00911217,-0.0506974,0.0735882,0.0312075,0.0466556,860,638,0.0560432,0.426647
-357,386,-0.0527344,-0.528503,0,0,0,0,0,0,0,-1,867,638,-0.0527535,0.528505
-350,386,0,0,0,0,0,0,0,0,0,-1,874,638,0,0
-343,386,0,0,0,0,0,0,0,0,0,-1,881,638,0,0
-336,386,0,0,0,0,0,0,0,0,0,-1,888,638,0,0
-329,386,0,0,0,0,0,0,0,0,0,-1,895,638,0,0
-322,386,0,0,0,0,0,0,0,0,0,-1,902,638,0,0
-315,386,0,0,0,0,0,0,0,0,0,-1,909,638,0,0
-308,386,0,0,0,0,0,0,0,0,0,-1,916,638,0,0
-301,386,0,0,0,0,0,0,0,0,0,-1,923,638,0,0
-294,386,0,0,0,0,0,0,0,0,0,-1,930,638,0,0
-287,386,0,0,0,0,0,0,0,0,0,-1,937,638,0,0
-280,386,0,0,0,0,0,0,0,0,0,-1,944,638,0,0
-273,386,0,0,0,0,0,0,0,0,0,-1,951,638,0,0
-266,386,0,0,0,0,0,0,0,0,0,-1,958,638,0,0
-259,386,0,0,0,0,0,0,0,0,0,-1,965,638,0,0
-252,386,0,0,0,0,0,0,0,0,0,-1,972,638,0,0
-245,386,0,0,0,0,0,0,0,0,0,-1,979,638,0,0
-238,386,0,0,0,0,0,0,0,0,0,-1,986,638,0,0
-231,386,0,0,0,0,0,0,0,0,0,-1,993,638,0,0
-224,386,0,0,0,0,0,0,0,0,0,-1,1000,638,0,0
-217,386,0,0,0,0,0,0,0,0,0,-1,1007,638,0,0
-210,386,0,0,0,0,0,0,0,0,0,-1,1014,638,0,0
-203,386,0,0,0,0,0,0,0,0,0,-1,1021,638,0,0
-196,386,0,0,0,0,0,0,0,0,0,-1,1028,638,0,0
-189,386,0,0,0,0,0,0,0,0,0,-1,1035,638,0,0
-182,386,0,0,0,0,0,0,0,0,0,-1,1042,638,0,0
-175,386,0,0,0,0,0,0,0,0,0,-1,1049,638,0,0
-168,386,0,0,0,0,0,0,0,0,0,-1,1056,638,0,0
-161,386,0,0,0,0,0,0,0,0,0,-1,1063,638,0,0
-154,386,0,0,0,0,0,0,0,0,0,-1,1070,638,0,0
-147,386,0,0,0,0,0,0,0,0,0,-1,1077,638,0,0
-140,386,0,0,0,0,0,0,0,0,0,-1,1084,638,0,0
-133,386,0,0,0,0,0,0,0,0,0,-1,1091,638,0,0
-126,386,0,0,0,0,0,0,0,0,0,-1,1098,638,0,0
-119,386,0,0,0,0,0,0,0,0,0,-1,1105,638,0,0
-112,386,0,0,0,0,0,0,0,0,0,-1,1112,638,0,0
-105,386,0,0,0,0,0,0,0,0,0,-1,1119,638,0,0
-98,386,0,0,0,0,0,0,0,0,0,-1,1126,638,0,0
-91,386,0,0,0,0,0,0,0,0,0,-1,1133,638,0,0
-84,386,0,0,0,0,0,0,0,0,0,-1,1140,638,0,0
-77,386,0,0,0,0,0,0,0,0,0,-1,1147,638,0,0
-70,386,0,0,0,0,0,0,0,0,0,-1,1154,638,0,0
-63,386,0,0,0,0,0,0,0,0,0,-1,1161,638,0,0
-56,386,0,0,0,0,0,0,0,0,0,-1,1168,638,0,0
-49,386,0,0,0,0,0,0,0,0,0,-1,1175,638,0,0
-42,386,0,0,0,0,0,0,0,0,0,-1,1182,638,0,0
-35,386,0,0,0,0,0,0,0,0,0,-1,1189,638,0,0
-28,386,0,0,0,0,0,0,0,0,0,-1,1196,638,0,0
-21,386,0,0,0,0,0,0,0,0,0,-1,1203,638,0,0
-14,386,0,0,0,0,0,0,0,0,0,-1,1210,638,0,0
-7,386,0,0,0,0,0,0,0,0,0,-1,1217,638,0,0
0,386,0,0,0,0,0,0,0,0,0,-1,1224,638,0,0
7,386,0,0,0,0,0,0,0,0,0,-1,1231,638,0,0
14,386,0,0,0,0,0,0,0,0,0,-1,1238,638,0,0
21,386,0,0,0,0,0,0,0,0,0,-1,1245,638,0,0
28,386,0,0,0,0,0,0,0,0,0,-1,1252,638,0,0
35,386,0,0,0,0,0,0,0,0,0,-1,1259,638,0,0
42,386,0,0,0,0,0,0,0,0,0,-1,1266,638,0,0
49,386,0,0,0,0,0,0,0,0,0,-1,1273,638,0,0
56,386,0,0,0,0,0,0,0,0,0,-1,1280,638,0,0
63,386,0,0,0,0,0,0,0,0,0,-1,1287,638,0,0
70,386,0,0,0,0,0,0,0,0,0,-1,1294,638,0,0
77,386,0,0,0,0,0,0,0,0,0,-1,1301,638,0,0
84,386,0,0,0,0,0,0,0,0,0,-1,1308,638,0,0
91,386,0,0,0,0,0,0,0,0,0,-1,1315,638,0,0
98,386,0,0,0,0,0,0,0,0,0,-1,1322,638,0,0
105,386,0,0,0,0,0,0,0,0,0,-1,1329,638,0,0
112,386,0,0,0,0,0,0,0,0,0,-1,1336,638,0,0
119,386,0,0,0,0,0,0,0,0,0,-1,1343,638,0,0
126,386,0,0,0,0,0,0,0,0,0,-1,1350,638,0,0
133,386,0,0,0,0,0,0,0,0,0,-1,1357,638,0,0
140,386,0,0,0,0,0,0,0,0,0,-1,1364,638,0,0
147,386,0,0,0,0,0,0,0,0,0,-1,1371,638,0,0
154,386,0,0,0,0,0,0,0,0,0,-1,1378,638,0,0
161,386,0,0,0,0,0,0,0,0,0,-1,1385,638,0,0
168,386,0,0,0,0,0,0,0,0,0,-1,1392,638,0,0
175,386,0,0,0,0,0,0,0,0,0,-1,1399,638,0,0
182,386,0,0,0,0,0,0,0,0,0,-1,1406,638,0,0
189,386,0,0,0,0,0,0,0,0,0,-1,1413,638,0,0
196,386,0,0,0,0,0,0,0,0,0,-1,1420,638,0,0
203,386,0,0,0,0,0,0,0,0,0,-1,1427,638,0,0
210,386,0,0,0,0,0,0,0,0,0,-1,1434,638,0,0
217,386,0,0,0,0,0,0,0,0,0,-1,1441,638,0,0
224,386,0,0,0,0,0,0,0,0,0,-1,1448,638,0,0
231,386,0,0,0,0,0,0,0,0,0,-1,1455,638,0,0
238,386,0,0,0,0,0,0,0,0,0,-1,1462,638,0,0
245,386,0,0,0,0,0,0,0,0,0,-1,1469,638,0,0
252,386,0,0,0,0,0,0,0,0,0,-1,1476,638,0,0
259,386,0,0,0,0,0,0,0,0,0,-1,1483,638,0,0
266,386,0,0,0,0,0,0,0,0,0,-1,1490,638,0,0
273,386,0,0,0,0,0,0,0,0,0,-1,1497,638,0,0
280,386,0,0,0,0,0,0,0,0,0,-1,1504,638,0,0
287,386,0,0,0,0,0,0,0,0,0,-1,1511,638,0,0
294,386,0,0,0,0,0,0,0,0,0,-1,1518,638,0,0
301,386,0,0,0,0,0,0,0,0,0,-1,1525,638,0,0
308,386,0,0,0,0,0,0,0,0,0,-1,1532,638,0,0
315,386,0,0,0,0,0,0,0,0,0,-1,1539,638,0,0
322,386,0,0,0,0,0,0,0,0,0,-1,1546,638,0,0
329,386,0,0,0,0,0,0,0,0,0,-1,1553,638,0,0
336,386,0,0,0,0,0,0,0,0,0,-1,1560,638,0,0
343,386,0,0,0,0,0,0,0,0,0,-1,1567,638,0,0
350,386,0,0,0,0,0,0,0,0,0,-1,1574,638,0,0
357,386,0,0,0,0,0,0,0,0,0,-1,1581,638,0,0
364,386,0,0,0,0,0,0,0,0,0,-1,1588,638,0,0
371,386,0,0,0,0,0,0,0,0,0,-1,1595,638,0,0
378,386,0,0,0,0,0,0,0,0,0,-1,1602,638,0,0
385,386,0,0,0,0,0,0,0,0,0,-1,1609,638,0,0
392,386,0,0,0,0,0,0,0,0,0,-1,1616,638,0,0
399,386,0,0,0,0,0,0,0,0,0,-1,1623,638,0,0
406,386,0,0,0,0,0,0,0,0,0,-1,1630,638,0,0
413,386,0,0,0,0,0,0,0,0,0,-1,1637,638,0,0
420,386,0,0,0,0,0,0,0,0,0,-1,1644,638,0,0
427,386,0,0,0,0,0,0,0,0,0,-1,1651,638,0,0
434,386,0,0,0,0,0,0,0,0,0,-1,1658,638,0,0
441,386,0,0,0,0,0,0,0,0,0,-1,1665,638,0,0
448,386,0,0,0,0,0,0,0,0,0,-1,1672,638,0,0
455,386,0,0,0,0,0,0,0,0,0,-1,1679,638,0,0
462,386,0,0,0,0,0,0,0,0,0,-1,1686,638,0,0
469,386,3.92371,0.337708,0,0,0,0,0,0,0,-1,1693,638,3.92366,-0.337692
476,386,3.99756,0.462402,0.0033841,-0.0313038,0.0414299,0.030954,-0.0588737,0.587165,0.0526904,0.0463441,1700,638,3.99757,-0.462405
483,386,4.03931,1.06165,0.0038924,-0.0303662,0.0353966,0.0260865,-0.0525604,0.560045,0.0462564,0.0446451,1707,638,4.03936,-1.06162
490,386,4.59009,1.00134,0.00328748,-0.0288815,0.0292558,0.0205888,-0.0461828,0.534058,0.0394833,0.0438258,1714,638,4.59003,-1.00132
497,386,3.45837,0.657837,0,0,0,0,0,0,0,-1,1721,638,3.45839,-0.657837
504,386,3.94702,0.358704,0,0,0,0,0,0,0,-1,1728,638,3.94701,-0.358674
511,386,4.38977,1.3692,0,0,0,0,0,0,0,-1,1735,638,4.38975,-1.36921
518,386,4.18774,1.07318,-0.0040623,-0.0204321,0.00990301,0.000600453,-0.0250949,0.44005,0.0169336,0.044545,1742,638,4.18778,-1.0732
525,386,3.88745,0.616455,-0.00624882,-0.0184068,0.00683012,-0.00318426,-0.0214714,0.421759,0.0133797,0.0474741,1749,638,3.88745,-0.616466
532,386,3.62671,0.216309,-0.00792783,-0.0163626,0.00417225,-0.00621275,-0.0180776,0.39001,0.0106058,0.0452968,1756,638,3.62677,-0.216294
539,386,3.29089,-0.104248,-0.00910971,-0.0146067,0.00188592,-0.0085249,-0.0151915,0.30069,0.00879267,0.0428045,1763,638,3.29089,0.104239
546,386,2.99878,-0.203369,-0.00982139,-0.0133105,0.000566127,-0.00973183,-0.0134001,0.156895,0.00799619,0.0413322,1770,638,2.99884,0.203345
553,386,2.91199,-0.18103,-0.00931981,-0.011111,7.01466e-05,-0.00931707,-0.0111138,0.0390815,0.00688883,0.0314708,1777,638,2.91203,0.18105
560,386,2.89282,-0.0888062,-0.00813653,-0.00902738,-0.000172957,-0.00810413,-0.00905978,-0.185188,0.00574785,0.0211808,1784,638,2.89284,0.0888182
567,386,2.83899,-0.00952148,-0.00580911,-0.00718642,3.03095e-06,-0.00580911,-0.00718642,0.00220063,0.00440423,0.0156405,1791,638,2.83895,0.00952267
574,386,2.85156,0.0117188,-0.00387304,-0.00593823,-0.000109549,-0.00386725,-0.00594403,-0.0528476,0.0034833,0.0130272,1798,638,2.85158,-0.0117295
581,386,2.85559,0.00939941,-0.00252152,-0.00461208,-0.000222759,-0.00249805,-0.00463556,-0.104984,0.00267904,0.01256,1805,638,2.85558,-0.00941681
588,386,2.87634,0.0374146,-0.00143627,-0.00360132,-2.22768e-05,-0.00143604,-0.00360155,-0.0102878,0.00209353,0.0112708,1812,638,2.8763,-0.0373879
595,386,2.86804,0.0632935,-0.000597063,-0.00277958,0.000492917,-0.000490902,-0.00288574,0.212132,0.00178286,0.0119892,1819,638,2.86804,-0.0633207
602,386,2.86926,0.115479,-0.000129093,-0.00137459,0.000640148,0.000141246,-0.00164493,0.399587,0.00114661,0.0139806,1826,638,2.86923,-0.115485
609,386,2.88599,0.157837,0.000215601,-0.000649893,0.00106038,0.000928138,-0.00136243,0.591661,0.00133036,0.0144296,1833,638,2.88604,-0.15781
616,386,2.86804,0.209595,0.000526931,0.000602626,0.00218249,0.0027476,-0.00161804,0.794068,0.00254847,0.0111982,1840,638,2.86804,-0.209588
623,386,2.85474,0.259094,0.00098861,0.00183401,0.00371911,0.00515437,-0.00233174,0.841984,0.00442333,0.010581,1847,638,2.85471,-0.259072
630,386,2.86597,0.277832,0.001309,0.0034718,0.0054191,0.00791634,-0.00313554,0.883881,0.0065768,0.0154699,1854,638,2.86592,-0.277828
637,386,2.78198,0.302734,0.00187859,0.00547429,0.00739216,0.0112841,-0.0039312,0.904687,0.00912006,0.0198589,1861,638,2.78193,-0.302747
644,386,2.69446,0.348511,0.00292168,0.00801736,0.0100261,0.0158143,-0.00487522,0.909825,0.0124892,0.0314324,1868,638,2.69446,-0.348504
651,386,2.92786,0.395752,0,0,0,0,0,0,0,-1,1875,638,2.92787,-0.395756
658,386,2.69006,0.686401,0.00656835,0.0133479,0.0166527,0.0269523,-0.00703607,0.885805,0.0207158,0.0452211,1882,638,2.69001,-0.686412
665,386,3.00671,1.24976,0.00927871,0.0159842,0.0206289,0.0335311,-0.00826813,0.865957,0.0255598,0.0439919,1889,638,3.00676,-1.24975
672,386,3.29846,1.81848,0.0126309,0.0180344,0.0247819,0.0402614,-0.00959616,0.839694,0.0305463,0.0471409,1896,638,3.29842,-1.81849
679,386,3.51379,2.4314,0,0,0,0,0,0,0,-1,1903,638,3.51378,-2.43141
686,386,0,0,0,0,0,0,0,0,0,-1,1910,638,0,0
693,386,0,0,0,0,0,0,0,0,0,-1,1917,638,0,0
700,386,0,0,0,0,0,0,0,0,0,-1,1924,638,0,0
707,386,0,0,0,0,0,0,0,0,0,-1,1931,638,0,0
714,386,0,0,0,0,0,0,0,0,0,-1,1938,638,0,0
721,386,0,0,0,0,0,0,0,0,0,-1,1945,638,0,0
728,386,0,0,0,0,0,0,0,0,0,-1,1952,638,0,0
735,386,0,0,0,0,0,0,0,0,0,-1,1959,638,0,0
742,386,0,0,0,0,0,0,0,0,0,-1,1966,638,0,0
749,386,0,0,0,0,0,0,0,0,0,-1,1973,638,0,0
756,386,0,0,0,0,0,0,0,0,0,-1,1980,638,0,0
763,386,0,0,0,0,0,0,0,0,0,-1,1987,638,0,0
770,386,0,0,0,0,0,0,0,0,0,-1,1994,638,0,0
777,386,0,0,0,0,0,0,0,0,0,-1,2001,638,0,0
784,386,0,0,0,0,0,0,0,0,0,-1,2008,638,0,0
791,386,0,0,0,0,0,0,0,0,0,-1,2015,638,0,0
798,386,0,0,0,0,0,0,0,0,0,-1,2022,638,0,0
805,386,0,0,0,0,0,0,0,0,0,-1,2029,638,0,0
812,386,0,0,0,0,0,0,0,0,0,-1,2036,638,0,0
-700,379,0,0,0,0,0,0,0,0,0,-1,524,645,0,0
-693,379,0,0,0,0,0,0,0,0,0,-1,531,645,0,0
-686,379,0,0,0,0,0,0,0,0,0,-1,538,645,0,0
-679,379,0,0,0,0,0,0,0,0,0,-1,545,645,0,0
-672,379,0,0,0,0,0,0,0,0,0,-1,552,645,0,0
-665,379,0,0,0,0,0,0,0,0,0,-1,559,645,0,0
-658,379,0,0,0,0,0,0,0,0,0,-1,566,645,0,0
-651,379,0,0,0,0,0,0,0,0,0,-1,573,645,0,0
-644,379,0,0,0,0,0,0,0,0,0,-1,580,645,0,0
-637,379,0,0,0,0,0,0,0,0,0,-1,587,645,0,0
-630,379,0,0,0,0,0,0,0,0,0,-1,594,645,0,0
-623,379,0,0,0,0,0,0,0,0,0,-1,601,645,0,0
-616,379,0,0,0,0,0,0,0,0,0,-1,608,645,0,0
-609,379,0,0,0,0,0,0,0,0,0,-1,615,645,0,0
-602,379,0,0,0,0,0,0,0,0,0,-1,622,645,0,0
-595,379,0,0,0,0,0,0,0,0,0,-1,629,645,0,0
-588,379,0,0,0,0,0,0,0,0,0,-1,636,645,0,0
-581,379,0,0,0,0,0,0,0,0,0,-1,643,645,0,0
-574,379,0,0,0,0,0,0,0,0,0,-1,650,645,0,0
-567,379,-0.233215,-0.0383911,0.0674696,0.0185439,-0.0282914,0.0804077,0.00560578,-0.428923,0.0518377,0.0450135,657,645,-0.233231,0.0383885
-560,379,-0.422058,0.256653,0.0625145,0.00890974,-0.0204929,0.0694512,0.00197305,-0.326387,0.0456573,0.0455202,664,645,-0.422078,-0.256639
-553,379,-0.177429,0.222046,0.0559925,0.00224797,-0.0134371,0.0591648,-0.000924306,-0.231838,0.0397549,0.0455999,671,645,-0.177419,-0.222025
-546,379,0.224609,-0.118408,0.0487179,-0.00220036,-0.00771098,0.04986,-0.00334248,-0.147047,0.0344083,0.0435032,678,645,0.224638,0.118389
-539,379,0.105164,-0.501892,0.0414759,-0.00481114,-0.00353781,0.0417447,-0.00507999,-0.0758449,0.0296685,0.0410699,685,645,0.105136,0.501903
-532,379,0.0702515,-0.366821,0.0346619,-0.00608883,-0.00085753,0.0346799,-0.00610687,-0.0210309,0.0254015,0.0429299,692,645,0.0702713,0.366801
-525,379,0.505249,0.406372,0.0284167,-0.00659263,0.000583924,0.0284264,-0.00660236,0.0166729,0.0214925,0.0455849,699,645,0.505231,-0.406384
-518,379,0.519836,0.422485,0.0227839,-0.00635382,0.00128592,0.0228406,-0.00641047,0.0440183,0.0177539,0.0393822,706,645,0.519866,-0.422512
-511,379,0.568481,0.388184,0.0178961,-0.00624317,0.00223143,0.0181007,-0.00644771,0.0914076,0.0146957,0.0223787,713,645,0.568497,-0.388212
-504,379,0.598389,0.342957,0.0132562,-0.00540554,0.00241246,0.013563,-0.00571236,0.126503,0.0114322,0.0120503,720,645,0.598359,-0.342948
-497,379,0.581543,0.322571,0.00930497,-0.00406138,0.00169416,0.00951636,-0.00427277,0.124133,0.00815077,0.0103515,727,645,0.581545,-0.32256
-490,379,0.589722,0.284424,0.00641095,-0.00305021,0.00106161,0.00652861,-0.00316786,0.110379,0.00570924,0.0105563,734,645,0.589695,-0.284428
-483,379,0.596252,0.216064,0.00381654,-0.00231326,0.000260358,0.00382758,-0.00232429,0.0423725,0.00358696,0.0121056,741,645,0.59626,-0.216039
-476,379,0.601563,0.221252,0.00169272,-0.00160877,-0.000494262,0.00176513,-0.00168118,-0.145461,0.00198992,0.0125818,748,645,0.60158,-0.221261
-469,379,0.606567,0.200806,0.000246448,-0.000939168,-0.000661579,0.000541958,-0.00123468,-0.420084,0.00105141,0.0122959,755,645,0.606579,-0.200824
-462,379,0.592224,0.150208,-0.00140644,-0.000714508,-0.000442324,-0.000498919,-0.00162202,-1.11728,0.000959311,0.00964113,762,645,0.592198,-0.150199
-455,379,0.589172,0.111572,-0.00256293,0.000518153,0.000271628,0.000541917,-0.00258669,1.48353,0.00193062,0.0101081,769,645,0.589155,-0.111571
-448,379,0.594299,0.088562,-0.00325803,0.00098531,0.00085185,0.00114993,-0.00342266,1.3799,0.00274653,0.0115045,776,645,0.594273,-0.0885355
-441,379,0.592407,0.0515137,-0.00390184,0.00158948,0.00152305,0.00198362,-0.00429598,1.31757,0.00370656,0.0123557,783,645,0.592413,-0.0515255
-434,379,0.568726,-0.0247192,-0.00504791,0.00133759,0.00234783,0.00210792,-0.00581823,1.25376,0.00474035,0.0211235,790,645,0.568745,0.0247364
-427,379,0.528381,0.0230713,-0.00592891,0.000349946,0.00321787,0.00170615,-0.00728511,1.17193,0.00551415,0.0301462,797,645,0.528361,-0.0230422
-420,379,0.53302,0.0266724,-0.00639701,-0.00191755,0.00419357,0.000596915,-0.00891148,1.03067,0.00614962,0.036647,804,645,0.533011,-0.0266618
-413,379,0.410706,0.00970459,0,0,0,0,0,0,0,-1,811,645,0.410691,-0.00969361
-406,379,0.570801,1.36304,-0.00736167,-0.00894324,0.00593607,-0.00216395,-0.014141,0.719179,0.00879518,0.0454431,818,645,0.570793,-1.36304
-399,379,0.442017,0.69751,-0.00807153,-0.0142369,0.00703142,-0.00347672,-0.0188317,0.578809,0.011571,0.0485106,825,645,0.442034,-0.697511
-392,379,0.956177,-0.0302124,0,0,0,0,0,0,0,-1,832,645,0.956175,0.0302185
-385,379,0.243958,0.179688,-0.00967727,-0.029716,0.00930923,-0.00602003,-0.0333733,0.374337,0.0205384,0.0490203,839,645,0.243934,-0.179661
-378,379,-0.300293,0.325928,-0.0106013,-0.0400564,0.0104613,-0.007264,-0.0433937,0.30881,0.0268375,0.0430326,846,645,-0.300291,-0.325915
-371,379,-0.439514,0.429321,-0.0113247,-0.0521448,0.0109722,-0.00856235,-0.0549071,0.246631,0.0341108,0.0445147,853,645,-0.439489,-0.429325
-364,379,-0.320313,0.46228,-0.0117425,-0.0651974,0.009806,-0.0100004,-0.0669394,0.17582,0.0416945,0.0436756,860,645,-0.320304,-0.462277
-357,379,0,0,0,0,0,0,0,0,0,-1,867,645,0,0
-350,379,0,0,0,0,0,0,0,0,0,-1,874,645,0,0
-343,379,0,0,0,0,0,0,0,0,0,-1,881,645,0,0
-336,379,0,0,0,0,0,0,0,0,0,-1,888,645,0,0
-329,379,0,0,0,0,0,0,0,0,0,-1,895,645,0,0
-322,379,0,0,0,0,0,0,0,0,0,-1,902,645,0,0
-315,379,0,0,0,0,0,0,0,0,0,-1,909,645,0,0
-308,379,0,0,0,0,0,0,0,0,0,-1,916,645,0,0
-301,379,0,0,0,0,0,0,0,0,0,-1,923,645,0,0
-294,379,0,0,0,0,0,0,0,0,0,-1,930,645,0,0
-287,379,0,0,0,0,0,0,0,0,0,-1,937,645,0,0
-280,379,0,0,0,0,0,0,0,0,0,-1,944,645,0,0
-273,379,0,0,0,0,0,0,0,0,0,-1,951,645,0,0
-266,379,0,0,0,0,0,0,0,0,0,-1,958,645,0,0
-259,379,0,0,0,0,0,0,0,0,0,-1,965,645,0,0
-252,379,0,0,0,0,0,0,0,0,0,-1,972,645,0,0
-245,379,0,0,0,0,0,0,0,0,0,-1,979,645,0,0
-238,379,0,0,0,0,0,0,0,0,0,-1,986,645,0,0
-231,379,0,0,0,0,0,0,0,0,0,-1,993,645,0,0
-224,379,0,0,0,0,0,0,0,0,0,-1,1000,645,0,0
-217,379,0,0,0,0,0,0,0,0,0,-1,1007,645,0,0
-210,379,0,0,0,0,0,0,0,0,0,-1,1014,645,0,0
-203,379,0,0,0,0,0,0,0,0,0,-1,1021,645,0,0
-196,379,0,0,0,0,0,0,0,0,0,-1,1028,645,0,0
-189,379,0,0,0,0,0,0,0,0,0,-1,1035,645,0,0
-182,379,0,0,0,0,0,0,0,0,0,-1,1042,645,0,0
-175,379,0,0,0,0,0,0,0,0,0,-1,1049,645,0,0
-168,379,0,0,0,0,0,0,0,0,0,-1,1056,645,0,0
-161,379,0,0,0,0,0,0,0,0,0,-1,1063,645,0,0
-154,379,0,0,0,0,0,0,0,0,0,-1,1070,645,0,0
-147,379,0,0,0,0,0,0,0,0,0,-1,1077,645,0,0
-140,379,0,0,0,0,0,0,0,0,0,-1,1084,645,0,0
-133,379,0,0,0,0,0,0,0,0,0,-1,1091,645,0,0
-126,379,0,0,0,0,0,0,0,0,0,-1,1098,645,0,0
-119,379,0,0,0,0,0,0,0,0,0,-1,1105,645,0,0
-112,379,0,0,0,0,0,0,0,0,0,-1,1112,645,0,0
-105,379,0,0,0,0,0,0,0,0,0,-1,1119,645,0,0
-98,379,0,0,0,0,0,0,0,0,0,-1,1126,645,0,0
-91,379,0,0,0,0,0,0,0,0,0,-1,1133,645,0,0
-84,379,0,0,0,0,0,0,0,0,0,-1,1140,645,0,0
-77,379,0,0,0,0,0,0,0,0,0,-1,1147,645,0,0
-70,379,0,0,0,0,0,0,0,0,0,-1,1154,645,0,0
-63,379,0,0,0,0,0,0,0,0,0,-1,1161,645,0,0
-56,379,0,0,0,0,0,0,0,0,0,-1,1168,645,0,0
-49,379,0,0,0,0,0,0,0,0,0,-1,1175,645,0,0
-42,379,0,0,0,0,0,0,0,0,0,-1,1182,645,0,0
-35,379,0,0,0,0,0,0,0,0,0,-1,1189,645,0,0
-28,379,0,0,0,0,0,0,0,0,0,-1,1196,645,0,0
-21,379,0,0,0,0,0,0,0,0,0,-1,1203,645,0,0
-14,379,0,0,0,0,0,0,0,0,0,-1,1210,645,0,0
-7,379,0,0,0,0,0,0,0,0,0,-1,1217,645,0,0
0,379,0,0,0,0,0,0,0,0,0,-1,1224,645,0,0
7,379,0,0,0,0,0,0,0,0,0,-1,1231,645,0,0
14,379,0,0,0,0,0,0,0,0,0,-1,1238,645,0,0
21,379,0,0,0,0,0,0,0,0,0,-1,1245,645,0,0
28,379,0,0,0,0,0,0,0,0,0,-1,1252,645,0,0
35,379,0,0,0,0,0,0,0,0,0,-1,1259,645,0,0
42,379,0,0,0,0,0,0,0,0,0,-1,1266,645,0,0
49,379,0,0,0,0,0,0,0,0,0,-1,1273,645,0,0
56,379,0,0,0,0,0,0,0,0,0,-1,1280,645,0,0
63,379,0,0,0,0,0,0,0,0,0,-1,1287,645,0,0
70,379,0,0,0,0,0,0,0,0,0,-1,1294,645,0,0
77,379,0,0,0,0,0,0,0,0,0,-1,1301,645,0,0
84,379,0,0,0,0,0,0,0,0,0,-1,1308,645,0,0
91,379,0,0,0,0,0,0,0,0,0,-1,1315,645,0,0
98,379,0,0,0,0,0,0,0,0,0,-1,1322,645,0,0
105,379,0,0,0,0,0,0,0,0,0,-1,1329,645,0,0
112,379,0,0,0,0,0,0,0,0,0,-1,1336,645,0,0
119,379,0,0,0,0,0,0,0,0,0,-1,1343,645,0,0
126,379,0,0,0,0,0,0,0,0,0,-1,1350,645,0,0
133,379,0,0,0,0,0,0,0,0,0,-1,1357,645,0,0
140,379,0,0,0,0,0,0,0,0,0,-1,1364,645,0,0
147,379,0,0,0,0,0,0,0,0,0,-1,1371,645,0,0
154,379,0,0,0,0,0,0,0,0,0,-1,1378,645,0,0
161,379,0,0,0,0,0,0,0,0,0,-1,1385,645,0,0
168,379,0,0,0,0,0,0,0,0,0,-1,1392,645,0,0
175,379,0,0,0,0,0,0,0,0,0,-1,1399,645,0,0
182,379,0,0,0,0,0,0,0,0,0,-1,1406,645,0,0
189,379,0,0,0,0,0,0,0,0,0,-1,1413,645,0,0
196,379,0,0,0,0,0,0,0,0,0,-1,1420,645,0,0
203,379,0,0,0,0,0,0,0,0,0,-1,1427,645,0,0
210,379,0,0,0,0,0,0,0,0,0,-1,1434,645,0,0
217,379,0,0,0,0,0,0,0,0,0,-1,1441,645,0,0
224,379,0,0,0,0,0,0,0,0,0,-1,1448,645,0,0
231,379,0,0,0,0,0,0,0,0,0,-1,1455,645,0,0
238,379,0,0,0,0,0,0,0,0,0,-1,1462,645,0,0
245,379,0,0,0,0,0,0,0,0,0,-1,1469,645,0,0
252,379,0,0,0,0,0,0,0,0,0,-1,1476,645,0,0
259,379,0,0,0,0,0,0,0,0,0,-1,1483,645,0,0
266,379,0,0,0,0,0,0,0,0,0,-1,1490,645,0,0
273,379,0,0,0,0,0,0,0,0,0,-1,1497,645,0,0
280,379,0,0,0,0,0,0,0,0,0,-1,1504,645,0,0
287,379,0,0,0,0,0,0,0,0,0,-1,1511,645,0,0
294,379,0,0,0,0,0,0,0,0,0,-1,1518,645,0,0
301,379,0,0,0,0,0,0,0,0,0,-1,1525,645,0,0
308,379,0,0,0,0,0,0,0,0,0,-1,1532,645,0,0
315,379,0,0,0,0,0,0,0,0,0,-1,1539,645,0,0
322,379,0,0,0,0,0,0,0,0,0,-1,1546,645,0,0
329,379,0,0,0,0,0,0,0,0,0,-1,1553,645,0,0
336,379,0,0,0,0,0,0,0,0,0,-1,1560,645,0,0
343,379,0,0,0,0,0,0,0,0,0,-1,1567,645,0,0
350,379,0,0,0,0,0,0,0,0,0,-1,1574,645,0,0
357,379,0,0,0,0,0,0,0,0,0,-1,1581,645,0,0
364,379,0,0,0,0,0,0,0,0,0,-1,1588,645,0,0
371,379,0,0,0,0,0,0,0,0,0,-1,1595,645,0,0
378,379,0,0,0,0,0,0,0,0,0,-1,1602,645,0,0
385,379,0,0,0,0,0,0,0,0,0,-1,1609,645,0,0
392,379,0,0,0,0,0,0,0,0,0,-1,1616,645,0,0
399,379,0,0,0,0,0,0,0,0,0,-1,1623,645,0,0
406,379,0,0,0,0,0,0,0,0,0,-1,1630,645,0,0
413,379,0,0,0,0,0,0,0,0,0,-1,1637,645,0,0
420,379,0,0,0,0,0,0,0,0,0,-1,1644,645,0,0
427,379,0,0,0,0,0,0,0,0,0,-1,1651,645,0,0
434,379,0,0,0,0,0,0,0,0,0,-1,1658,645,0,0
441,379,0,0,0,0,0,0,0,0,0,-1,1665,645,0,0
448,379,0,0,0,0,0,0,0,0,0,-1,1672,645,0,0
455,379,0,0,0,0,0,0,0,0,0,-1,1679,645,0,0
462,379,0,0,0,0,0,0,0,0,0,-1,1686,645,0,0
469,379,0,0,0,0,0,0,0,0,0,-1,1693,645,0,0
476,379,3.32239,1.03882,0.011853,-0.0335469,0.053964,0.047697,-0.0693909,0.586308,0.0679864,0.0407974,1700,645,3.32234,-1.03884
483,379,3.06702,1.09424,0.0110429,-0.0327661,0.0454018,0.0395481,-0.0612712,0.56064,0.0586567,0.0434572,1707,645,3.06701,-1.09421
490,379,2.48755,1.16388,0,0,0,0,0,0,0,-1,1714,645,2.48758,-1.16387
497,379,2.8999,0.969543,0.00594994,-0.0307703,0.0299752,0.022741,-0.0475613,0.510614,0.0414237,0.0452953,1721,645,2.89987,-0.969566
504,379,3.31653,0.713928,0.00254028,-0.0292015,0.0234432,0.0149796,-0.0416409,0.487839,0.0338764,0.0430561,1728,645,3.31647,-0.713948
511,379,4.58838,1.11108,0,0,0,0,0,0,0,-1,1735,645,4.58833,-1.11107
518,379,4.14441,1.05774,-0.00314926,-0.0250589,0.0136011,0.00336013,-0.0315683,0.446375,0.0222503,0.0443125,1742,645,4.14441,-1.05777
525,379,3.61169,0.828308,-0.00622404,-0.0231762,0.00979044,-0.00175034,-0.0276499,0.428615,0.0178784,0.0462389,1749,645,3.61174,-0.82833
532,379,3.36902,0.385986,-0.00838047,-0.0211235,0.00654606,-0.00561705,-0.023887,0.399454,0.0144216,0.0445197,1756,645,3.36897,-0.386017
539,379,3.05859,-0.205322,-0.00986584,-0.0194122,0.00379369,-0.00854186,-0.0207362,0.335779,0.0120338,0.0426821,1763,645,3.05855,0.205314
546,379,2.70667,-0.299744,-0.0107721,-0.0180363,0.00210682,-0.0102053,-0.0186031,0.262813,0.0107574,0.0494457,1770,645,2.70664,0.299758
553,379,2.66846,-0.0647583,-0.0103625,-0.0155807,0.00134335,-0.0100369,-0.0159062,0.237737,0.00928792,0.0451708,1777,645,2.66842,0.0647726
560,379,2.99048,-0.0561523,-0.00921132,-0.0131629,0.000918476,-0.00900827,-0.0133659,0.217574,0.00787099,0.0264215,1784,645,2.9905,0.0561279
567,379,2.88879,-0.00384521,-0.00681043,-0.0108608,0.000914398,-0.00661357,-0.0110576,0.212057,0.00642496,0.0145099,1791,645,2.88884,0.00383945
574,379,2.90283,0.00756836,-0.00477049,-0.00910973,0.00064101,-0.00467778,-0.00920244,0.143638,0.00531328,0.0118772,1798,645,2.90288,-0.00755336
581,379,2.90369,0.0152588,-0.00327701,-0.00724646,0.000454241,-0.00322569,-0.00729777,0.112497,0.00422281,0.0137053,1805,645,2.90373,-0.0152442
588,379,2.90588,0.0408936,-0.00209748,-0.00567604,0.000508483,-0.00202663,-0.00574689,0.138442,0.00336565,0.0163186,1812,645,2.90594,-0.0409173
595,379,2.89392,0.0738525,-0.00118227,-0.00430478,0.00088837,-0.000947222,-0.00453983,0.258661,0.00276543,0.0140315,1819,645,2.89396,-0.0738809
602,379,2.90332,0.107727,-0.000646052,-0.00251015,0.000880293,-0.000296059,-0.00286014,0.378424,0.00181614,0.0137004,1826,645,2.90333,-0.107753
609,379,2.90686,0.163208,-0.000226202,-0.00148837,0.00111197,0.000421283,-0.00213586,0.527294,0.00158313,0.0132888,1833,645,2.90681,-0.163193
616,379,2.88892,0.213196,5.80235e-05,1.15077e-05,0.00199435,0.00202925,-0.00195972,0.779567,0.00230315,0.0108386,1840,645,2.88896,-0.213193
623,379,2.9054,0.261108,0.000475482,0.00133873,0.00317759,0.00411387,-0.00229966,0.852902,0.00375191,0.0112279,1847,645,2.90541,-0.261086
630,379,2.92078,0.290039,0.000765353,0.00295869,0.00441516,0.00641134,-0.0026873,0.907128,0.00539778,0.012519,1854,645,2.92076,-0.290035
637,379,2.89844,0.328796,0.00124752,0.00479749,0.00578642,0.00907505,-0.00303003,0.934217,0.00727355,0.0121845,1861,645,2.89847,-0.328798
644,379,2.85608,0.400574,0.00211066,0.00692524,0.00770465,0.0125899,-0.00355402,0.936816,0.00979528,0.0188304,1868,645,2.85607,-0.400559
651,379,2.82532,0.480713,0.00333803,0.00903567,0.00990202,0.0164905,-0.00411683,0.925466,0.0125923,0.0431577,1875,645,2.82535,-0.480737
658,379,2.80566,0.639648,0.00492448,0.0109173,0.0122922,0.0205731,-0.0047313,0.904948,0.0155345,0.0461186,1882,645,2.80565,-0.639673
665,379,2.86731,1.03052,0.00695724,0.0128433,0.0149512,0.0251384,-0.00533782,0.882578,0.0187926,0.0461235,1889,645,2.86726,-1.03054
672,379,2.97327,1.37128,0,0,0,0,0,0,0,-1,1896,645,2.97325,-1.37126
679,379,3.35938,2.39136,0,0,0,0,0,0,0,-1,1903,645,3.35937,-2.39133
686,379,0,0,0,0,0,0,0,0,0,-1,1910,645,0,0
693,379,0,0,0,0,0,0,0,0,0,-1,1917,645,0,0
700,379,0,0,0,0,0,0,0,0,0,-1,1924,645,0,0
707,379,0,0,0,0,0,0,0,0,0,-1,1931,645,0,0
714,379,0,0,0,0,0,0,0,0,0,-1,1938,645,0,0
721,379,0,0,0,0,0,0,0,0,0,-1,1945,645,0,0
728,379,0,0,0,0,0,0,0,0,0,-1,1952,645,0,0
735,379,0,0,0,0,0,0,0,0,0,-1,1959,645,0,0
742,379,0,0,0,0,0,0,0,0,0,-1,1966,645,0,0
749,379,0,0,0,0,0,0,0,0,0,-1,1973,645,0,0
756,379,0,0,0,0,0,0,0,0,0,-1,1980,645,0,0
763,379,0,0,0,0,0,0,0,0,0,-1,1987,645,0,0
770,379,0,0,0,0,0,0,0,0,0,-1,1994,645,0,0
777,379,0,0,0,0,0,0,0,0,0,-1,2001,645,0,0
784,379,0,0,0,0,0,0,0,0,0,-1,2008,645,0,0
791,379,0,0,0,0,0,0,0,0,0,-1,2015,645,0,0
798,379,0,0,0,0,0,0,0,0,0,-1,2022,645,0,0
805,379,0,0,0,0,0,0,0,0,0,-1,2029,645,0,0
812,379,0,0,0,0,0,0,0,0,0,-1,2036,645,0,0
-700,372,0,0,0,0,0,0,0,0,0,-1,524,652,0,0
-693,372,0,0,0,0,0,0,0,0,0,-1,531,652,0,0
-686,372,0,0,0,0,0,0,0,0,0,-1,538,652,0,0
-679,372,0,0,0,0,0,0,0,0,0,-1,545,652,0,0
-672,372,0,0,0,0,0,0,0,0,0,-1,552,652,0,0
-665,372,0,0,0,0,0,0,0,0,0,-1,559,652,0,0
-658,372,0,0,0,0,0,0,0,0,0,-1,566,652,0,0
-651,372,0,0,0,0,0,0,0,0,0,-1,573,652,0,0
-644,372,0,0,0,0,0,0,0,0,0,-1,580,652,0,0
-637,372,0,0,0,0,0,0,0,0,0,-1,587,652,0,0
-630,372,0,0,0,0,0,0,0,0,0,-1,594,652,0,0
-623,372,0,0,0,0,0,0,0,0,0,-1,601,652,0,0
-616,372,0,0,0,0,0,0,0,0,0,-1,608,652,0,0
-609,372,0,0,0,0,0,0,0,0,0,-1,615,652,0,0
-602,372,0,0,0,0,0,0,0,0,0,-1,622,652,0,0
-595,372,0,0,0,0,0,0,0,0,0,-1,629,652,0,0
-588,372,0,0,0,0,0,0,0,0,0,-1,636,652,0,0
-581,372,0,0,0,0,0,0,0,0,0,-1,643,652,0,0
-574,372,0,0,0,0,0,0,0,0,0,-1,650,652,0,0
-567,372,0.0155029,-0.0438843,0,0,0,0,0,0,0,-1,657,652,0.0154925,0.0438936
-560,372,-5.55719,1.4176,0,0,0,0,0,0,0,-1,664,652,-5.5572,-1.41759
-553,372,0.117737,0.43457,0,0,0,0,0,0,0,-1,671,652,0.117728,-0.43459
-546,372,-0.247498,-1.06024,0,0,0,0,0,0,0,-1,678,652,-0.247526,1.06027
-539,372,0.15741,-0.589722,0.0380168,-0.00309717,-0.00683939,0.0391247,-0.00420506,-0.160592,0.0275918,0.0449858,685,652,0.157434,0.589706
-532,372,0.301758,0.447571,0.0314461,-0.00449694,-0.00387581,0.0318593,-0.00491012,-0.106205,0.0230512,0.0491723,692,652,0.301729,-0.447573
-525,372,0.567322,0.451721,0.025447,-0.00512104,-0.00201261,0.0255789,-0.00525298,-0.0654638,0.0190466,0.0446819,699,652,0.567349,-0.451743
-518,372,0.540344,0.426453,0.0200961,-0.00495356,-0.000749085,0.0201185,-0.00497594,-0.0298684,0.0153423,0.0246246,706,652,0.540336,-0.42644
-511,372,0.531006,0.380676,0.0154868,-0.00493523,0.000775323,0.0155162,-0.00496462,0.0378923,0.0123366,0.0111857,713,652,0.530977,-0.380655
-504,372,0.53949,0.354126,0.0111512,-0.00422278,0.0014334,0.0112837,-0.00435529,0.0921771,0.00931983,0.0106724,720,652,0.53948,-0.354109
-497,372,0.558105,0.309814,0.00749611,-0.00296769,0.00108714,0.00760787,-0.00307945,0.102438,0.00635228,0.0116019,727,652,0.558131,-0.309795
-490,372,0.560608,0.273865,0.00486312,-0.00207261,0.000746881,0.00494263,-0.00215213,0.106066,0.00420045,0.0120345,734,652,0.56059,-0.27388
-483,372,0.552673,0.248962,0.00258742,-0.00148434,0.000124765,0.00259124,-0.00148816,0.0306033,0.00238377,0.0120485,741,652,0.552684,-0.248958
-476,372,0.555237,0.240234,0.000709493,-0.00102158,-0.000492908,0.000840005,-0.00115209,-0.258839,0.00115483,0.01295,748,652,0.555239,-0.240224
-469,372,0.558655,0.205872,-0.000562105,-0.000629344,-0.000505695,-8.8913e-05,-0.00110254,-0.752206,0.000707252,0.0107021,755,652,0.558653,-0.205855
-462,372,0.556091,0.154053,-0.00200216,-0.000629445,-0.000277606,-0.00057543,-0.00205618,-1.37862,0.00122489,0.00954447,762,652,0.556074,-0.154081
-455,372,0.550842,0.129272,-0.00301461,0.000386303,0.00033905,0.000419775,-0.00304808,1.47239,0.00218546,0.0102133,769,652,0.550852,-0.12928
-448,372,0.553284,0.0990601,-0.00358687,0.000688506,0.00084254,0.000848552,-0.00374692,1.38308,0.00282362,0.00986393,776,652,0.553258,-0.0990641
-441,372,0.562378,0.0150757,-0.00411232,0.00113814,0.00145085,0.00151238,-0.00448656,1.31836,0.00360258,0.0150316,783,652,0.562368,-0.0150985
-434,372,0.459351,-0.0365601,-0.00515866,0.000758594,0.00227695,0.00153333,-0.00593339,1.24283,0.00455359,0.0275487,790,652,0.45938,0.0365403
-427,372,0.523132,0.210571,-0.00596455,-0.000477922,0.00321391,0.00100428,-0.00744675,1.13868,0.00533089,0.0383747,797,652,0.523105,-0.210598
-420,372,0.327942,0.233032,-0.00632266,-0.00328925,0.00435865,-0.00019095,-0.00942096,0.952833,0.00621797,0.0426574,804,652,0.327957,-0.233029
-413,372,0.102112,0.101074,0,0,0,0,0,0,0,-1,811,652,0.102087,-0.101067
-406,372,0.0412598,0.807495,-0.00707815,-0.011875,0.00663613,-0.00242033,-0.0165328,0.611992,0.0103103,0.0459818,818,652,0.0412671,-0.807522
-399,372,0.263977,0.77124,-0.0078253,-0.0181551,0.0081919,-0.00330601,-0.0226744,0.504131,0.0141436,0.0470917,825,652,0.263953,-0.77125
-392,372,0.873413,0.380493,0,0,0,0,0,0,0,-1,832,652,0.873407,-0.380503
-385,372,0.163513,0.577271,-0.010114,-0.0362208,0.0118239,-0.00555503,-0.0407797,0.368007,0.025537,0.0494659,839,652,0.163496,-0.577279
-378,372,-0.292847,0.744141,-0.0117918,-0.0483018,0.0144586,-0.00675958,-0.053334,0.334932,0.0335307,0.047425,846,652,-0.292817,-0.744137
-371,372,-0.485413,1.12201,-0.0133684,-0.0624738,0.0170425,-0.00803325,-0.0678089,0.303384,0.0427804,0.0432677,853,652,-0.485429,-1.12198
-364,372,0,0,0,0,0,0,0,0,0,-1,860,652,0,0
-357,372,0,0,0,0,0,0,0,0,0,-1,867,652,0,0
-350,372,0,0,0,0,0,0,0,0,0,-1,874,652,0,0
-343,372,0,0,0,0,0,0,0,0,0,-1,881,652,0,0
-336,372,0,0,0,0,0,0,0,0,0,-1,888,652,0,0
-329,372,0,0,0,0,0,0,0,0,0,-1,895,652,0,0
-322,372,0,0,0,0,0,0,0,0,0,-1,902,652,0,0
-315,372,0,0,0,0,0,0,0,0,0,-1,909,652,0,0
-308,372,0,0,0,0,0,0,0,0,0,-1,916,652,0,0
-301,372,0,0,0,0,0,0,0,0,0,-1,923,652,0,0
-294,372,0,0,0,0,0,0,0,0,0,-1,930,652,0,0
-287,372,0,0,0,0,0,0,0,0,0,-1,937,652,0,0
-280,372,0,0,0,0,0,0,0,0,0,-1,944,652,0,0
-273,372,0,0,0,0,0,0,0,0,0,-1,951,652,0,0
-266,372,0,0,0,0,0,0,0,0,0,-1,958,652,0,0
-259,372,0,0,0,0,0,0,0,0,0,-1,965,652,0,0
-252,372,0,0,0,0,0,0,0,0,0,-1,972,652,0,0
-245,372,0,0,0,0,0,0,0,0,0,-1,979,652,0,0
-238,372,0,0,0,0,0,0,0,0,0,-1,986,652,0,0
-231,372,0,0,0,0,0,0,0,0,0,-1,993,652,0,0
-224,372,0,0,0,0,0,0,0,0,0,-1,1000,652,0,0
-217,372,0,0,0,0,0,0,0,0,0,-1,1007,652,0,0
-210,372,0,0,0,0,0,0,0,0,0,-1,1014,652,0,0
-203,372,0,0,0,0,0,0,0,0,0,-1,1021,652,0,0
-196,372,0,0,0,0,0,0,0,0,0,-1,1028,652,0,0
-189,372,0,0,0,0,0,0,0,0,0,-1,1035,652,0,0
-182,372,0,0,0,0,0,0,0,0,0,-1,1042,652,0,0
-175,372,0,0,0,0,0,0,0,0,0,-1,1049,652,0,0
-168,372,0,0,0,0,0,0,0,0,0,-1,1056,652,0,0
-161,372,0,0,0,0,0,0,0,0,0,-1,1063,652,0,0
-154,372,0,0,0,0,0,0,0,0,0,-1,1070,652,0,0
-147,372,0,0,0,0,0,0,0,0,0,-1,1077,652,0,0
-140,372,0,0,0,0,0,0,0,0,0,-1,1084,652,0,0
-133,372,0,0,0,0,0,0,0,0,0,-1,1091,652,0,0
-126,372,0,0,0,0,0,0,0,0,0,-1,1098,652,0,0
-119,372,0,0,0,0,0,0,0,0,0,-1,1105,652,0,0
-112,372,0,0,0,0,0,0,0,0,0,-1,1112,652,0,0
-105,372,0,0,0,0,0,0,0,0,0,-1,1119,652,0,0
-98,372,0,0,0,0,0,0,0,0,0,-1,1126,652,0,0
-91,372,0,0,0,0,0,0,0,0,0,-1,1133,652,0,0
-84,372,0,0,0,0,0,0,0,0,0,-1,1140,652,0,0
-77,372,0,0,0,0,0,0,0,0,0,-1,1147,652,0,0
-70,372,0,0,0,0,0,0,0,0,0,-1,1154,652,0,0
-63,372,0,0,0,0,0,0,0,0,0,-1,1161,652,0,0
-56,372,0,0,0,0,0,0,0,0,0,-1,1168,652,0,0
-49,372,0,0,0,0,0,0,0,0,0,-1,1175,652,0,0
-42,372,0,0,0,0,0,0,0,0,0,-1,1182,652,0,0
-35,372,0,0,0,0,0,0,0,0,0,-1,1189,652,0,0
-28,372,0,0,0,0,0,0,0,0,0,-1,1196,652,0,0
-21,372,0,0,0,0,0,0,0,0,0,-1,1203,652,0,0
-14,372,0,0,0,0,0,0,0,0,0,-1,1210,652,0,0
-7,372,0,0,0,0,0,0,0,0,0,-1,1217,652,0,0
0,372,0,0,0,0,0,0,0,0,0,-1,1224,652,0,0
7,372,0,0,0,0,0,0,0,0,0,-1,1231,652,0,0
14,372,0,0,0,0,0,0,0,0,0,-1,1238,652,0,0
21,372,0,0,0,0,0,0,0,0,0,-1,1245,652,0,0
28,372,0,0,0,0,0,0,0,0,0,-1,1252,652,0,0
35,372,0,0,0,0,0,0,0,0,0,-1,1259,652,0,0
42,372,0,0,0,0,0,0,0,0,0,-1,1266,652,0,0
49,372,0,0,0,0,0,0,0,0,0,-1,1273,652,0,0
56,372,0,0,0,0,0,0,0,0,0,-1,1280,652,0,0
63,372,0,0,0,0,0,0,0,0,0,-1,1287,652,0,0
70,372,0,0,0,0,0,0,0,0,0,-1,1294,652,0,0
77,372,0,0,0,0,0,0,0,0,0,-1,1301,652,0,0
84,372,0,0,0,0,0,0,0,0,0,-1,1308,652,0,0
91,372,0,0,0,0,0,0,0,0,0,-1,1315,652,0,0
98,372,0,0,0,0,0,0,0,0,0,-1,1322,652,0,0
105,372,0,0,0,0,0,0,0,0,0,-1,1329,652,0,0
112,372,0,0,0,0,0,0,0,0,0,-1,1336,652,0,0
119,372,0,0,0,0,0,0,0,0,0,-1,1343,652,0,0
126,372,0,0,0,0,0,0,0,0,0,-1,1350,652,0,0
133,372,0,0,0,0,0,0,0,0,0,-1,1357,652,0,0
140,372,0,0,0,0,0,0,0,0,0,-1,1364,652,0,0
147,372,0,0,0,0,0,0,0,0,0,-1,1371,652,0,0
154,372,0,0,0,0,0,0,0,0,0,-1,1378,652,0,0
161,372,0,0,0,0,0,0,0,0,0,-1,1385,652,0,0
168,372,0,0,0,0,0,0,0,0,0,-1,1392,652,0,0
175,372,0,0,0,0,0,0,0,0,0,-1,1399,652,0,0
182,372,0,0,0,0,0,0,0,0,0,-1,1406,652,0,0
189,372,0,0,0,0,0,0,0,0,0,-1,1413,652,0,0
196,372,0,0,0,0,0,0,0,0,0,-1,1420,652,0,0
203,372,0,0,0,0,0,0,0,0,0,-1,1427,652,0,0
210,372,0,0,0,0,0,0,0,0,0,-1,1434,652,0,0
217,372,0,0,0,0,0,0,0,0,0,-1,1441,652,0,0
224,372,0,0,0,0,0,0,0,0,0,-1,1448,652,0,0
231,372,0,0,0,0,0,0,0,0,0,-1,1455,652,0,0
238,372,0,0,0,0,0,0,0,0,0,-1,1462,652,0,0
245,372,0,0,0,0,0,0,0,0,0,-1,1469,652,0,0
252,372,0,0,0,0,0,0,0,0,0,-1,1476,652,0,0
259,372,0,0,0,0,0,0,0,0,0,-1,1483,652,0,0
266,372,0,0,0,0,0,0,0,0,0,-1,1490,652,0,0
273,372,0,0,0,0,0,0,0,0,0,-1,1497,652,0,0
280,372,0,0,0,0,0,0,0,0,0,-1,1504,652,0,0
287,372,0,0,0,0,0,0,0,0,0,-1,1511,652,0,0
294,372,0,0,0,0,0,0,0,0,0,-1,1518,652,0,0
301,372,0,0,0,0,0,0,0,0,0,-1,1525,652,0,0
308,372,0,0,0,0,0,0,0,0,0,-1,1532,652,0,0
315,372,0,0,0,0,0,0,0,0,0,-1,1539,652,0,0
322,372,0,0,0,0,0,0,0,0,0,-1,1546,652,0,0
329,372,0,0,0,0,0,0,0,0,0,-1,1553,652,0,0
336,372,0,0,0,0,0,0,0,0,0,-1,1560,652,0,0
343,372,0,0,0,0,0,0,0,0,0,-1,1567,652,0,0
350,372,0,0,0,0,0,0,0,0,0,-1,1574,652,0,0
357,372,0,0,0,0,0,0,0,0,0,-1,1581,652,0,0
364,372,0,0,0,0,0,0,0,0,0,-1,1588,652,0,0
371,372,0,0,0,0,0,0,0,0,0,-1,1595,652,0,0
378,372,0,0,0,0,0,0,0,0,0,-1,1602,652,0,0
385,372,0,0,0,0,0,0,0,0,0,-1,1609,652,0,0
392,372,0,0,0,0,0,0,0,0,0,-1,1616,652,0,0
399,372,0,0,0,0,0,0,0,0,0,-1,1623,652,0,0
406,372,0,0,0,0,0,0,0,0,0,-1,1630,652,0,0
413,372,0,0,0,0,0,0,0,0,0,-1,1637,652,0,0
420,372,0,0,0,0,0,0,0,0,0,-1,1644,652,0,0
427,372,0,0,0,0,0,0,0,0,0,-1,1651,652,0,0
434,372,0,0,0,0,0,0,0,0,0,-1,1658,652,0,0
441,372,0,0,0,0,0,0,0,0,0,-1,1665,652,0,0
448,372,0,0,0,0,0,0,0,0,0,-1,1672,652,0,0
455,372,0,0,0,0,0,0,0,0,0,-1,1679,652,0,0
462,372,0,0,0,0,0,0,0,0,0,-1,1686,652,0,0
469,372,0,0,0,0,0,0,0,0,0,-1,1693,652,0,0
476,372,0,0,0,0,0,0,0,0,0,-1,1700,652,0,0
483,372,2.10229,1.7785,0.0193672,-0.035244,0.0563076,0.0546407,-0.0705175,0.559636,0.0724536,0.0438909,1707,652,2.10231,-1.77852
490,372,2.11658,1.80182,0.0164185,-0.0347717,0.0461252,0.0435741,-0.0619274,0.532098,0.0612178,0.0492789,1714,652,2.11663,-1.80182
497,372,2.32336,1.57294,0.0117941,-0.0342464,0.0369988,0.0323495,-0.0548019,0.50711,0.0508704,0.0420532,1721,652,2.32337,-1.57292
504,372,2.63806,1.08215,0.00689323,-0.0331807,0.0291537,0.0222317,-0.0485192,0.484327,0.0417773,0.0452734,1728,652,2.63803,-1.08215
511,372,3.20081,0.992981,0,0,0,0,0,0,0,-1,1735,652,3.20075,-0.993007
518,372,3.44678,1.05872,-0.00157794,-0.0298654,0.0173449,0.00665892,-0.0381022,0.443356,0.0278874,0.0447634,1742,652,3.44673,-1.0587
525,372,3.38098,0.862,-0.00565409,-0.0282025,0.0128138,0.000139264,-0.0339958,0.424614,0.0227105,0.0470031,1749,652,3.38095,-0.862027
532,372,3.19507,0.520325,-0.00826226,-0.0261096,0.00905231,-0.00447467,-0.0298972,0.396277,0.01862,0.0473175,1756,652,3.19507,-0.520302
539,372,2.86365,-0.235901,-0.00997015,-0.0243931,0.00589137,-0.00786961,-0.0264937,0.342493,0.0157106,0.047347,1763,652,2.86361,0.235908
546,372,2.21924,-0.270813,0,0,0,0,0,0,0,-1,1770,652,2.21923,0.270802
553,372,2.97498,-0.275635,-0.0106051,-0.0202144,0.00278409,-0.00985673,-0.0209627,0.262589,0.01211,0.045978,1777,652,2.97503,0.275656
560,372,3.01697,-0.0953369,-0.00943469,-0.0174181,0.00209501,-0.00891831,-0.0179344,0.241662,0.0103545,0.0335953,1784,652,3.01694,0.0953234
567,372,2.94116,0.00109863,-0.00695855,-0.0146208,0.00180775,-0.00655347,-0.0150259,0.22044,0.00869877,0.0147186,1791,652,2.94117,-0.00112469
574,372,2.94446,0.000732422,-0.00482024,-0.0122807,0.00127774,-0.00460747,-0.0124935,0.165005,0.00729542,0.0112346,1798,652,2.9445,-0.000759963
581,372,2.93701,0.0134277,-0.00318435,-0.00982913,0.000937632,-0.00305458,-0.0099589,0.137531,0.00589123,0.0139893,1805,652,2.93698,-0.013454
588,372,2.93774,0.0545044,-0.00195157,-0.00768822,0.000794402,-0.0018436,-0.0077962,0.135092,0.00470492,0.0159266,1812,652,2.93772,-0.0544766
595,372,2.93433,0.111877,-0.00103587,-0.00574515,0.000991918,-0.000835466,-0.00594555,0.199349,0.00371665,0.0138584,1819,652,2.93427,-0.111864
602,372,2.95349,0.131409,-0.000492781,-0.00352536,0.000821407,-0.000284587,-0.00373355,0.248233,0.0023998,0.0121366,1826,652,2.95354,-0.131401
609,372,2.93591,0.171387,-9.13458e-05,-0.0021745,0.000883238,0.000232724,-0.00249857,0.35166,0.00174846,0.0112599,1833,652,2.93587,-0.171405
616,372,2.9231,0.216125,6.13686e-05,-0.000423338,0.00157427,0.00141183,-0.0017738,0.709025,0.00184318,0.0107741,1840,652,2.92315,-0.216129
623,372,2.94995,0.248291,0.000316051,0.00101026,0.00248635,0.00317362,-0.00184731,0.854752,0.00293235,0.011512,1847,652,2.94997,-0.248278
630,372,2.94995,0.290161,0.000476499,0.00261848,0.0033764,0.00508967,-0.00199469,0.938978,0.00421826,0.0165883,1854,652,2.94993,-0.290154
637,372,2.97205,0.323303,0.000781077,0.00431266,0.00429481,0.00719051,-0.00209677,0.980437,0.00562442,0.0192825,1861,652,2.97211,-0.323299
644,372,2.94788,0.377747,0.00141884,0.00615488,0.00565203,0.00991491,-0.00234119,0.983773,0.00751293,0.0155109,1868,652,2.94793,-0.377718
651,372,2.91675,0.456177,0.00237303,0.00768858,0.00713997,0.0126494,-0.00258778,0.963572,0.00941483,0.0318382,1875,652,2.91679,-0.456183
658,372,2.97156,0.55188,0.00360415,0.00888429,0.00872857,0.0153633,-0.00287487,0.932256,0.0113228,0.0417251,1882,652,2.97156,-0.551904
665,372,2.99011,0.9552,0.00524996,0.0101302,0.0105821,0.0185499,-0.00316972,0.898712,0.0135473,0.0476226,1889,652,2.99016,-0.955176
672,372,3.0835,1.30658,0,0,0,0,0,0,0,-1,1896,652,3.08348,-1.30661
679,372,2.62561,1.37897,0,0,0,0,0,0,0,-1,1903,652,2.62565,-1.37894
686,372,2.43872,1.05554,0,0,0,0,0,0,0,-1,1910,652,2.43869,-1.05553
693,372,0,0,0,0,0,0,0,0,0,-1,1917,652,0,0
700,372,0,0,0,0,0,0,0,0,0,-1,1924,652,0,0
707,372,0,0,0,0,0,0,0,0,0,-1,1931,652,0,0
714,372,0,0,0,0,0,0,0,0,0,-1,1938,652,0,0
721,372,0,0,0,0,0,0,0,0,0,-1,1945,652,0,0
728,372,0,0,0,0,0,0,0,0,0,-1,1952,652,0,0
735,372,0,0,0,0,0,0,0,0,0,-1,1959,652,0,0
742,372,0,0,0,0,0,0,0,0,0,-1,1966,652,0,0
749,372,0,0,0,0,0,0,0,0,0,-1,1973,652,0,0
756,372,0,0,0,0,0,0,0,0,0,-1,1980,652,0,0
763,372,0,0,0,0,0,0,0,0,0,-1,1987,652,0,0
770,372,0,0,0,0,0,0,0,0,0,-1,1994,652,0,0
777,372,0,0,0,0,0,0,0,0,0,-1,2001,652,0,0
784,372,0,0,0,0,0,0,0,0,0,-1,2008,652,0,0
791,372,0,0,0,0,0,0,0,0,0,-1,2015,652,0,0
798,372,0,0,0,0,0,0,0,0,0,-1,2022,652,0,0
805,372,0,0,0,0,0,0,0,0,0,-1,2029,652,0,0
812,372,0,0,0,0,0,0,0,0,0,-1,2036,652,0,0
-700,365,0,0,0,0,0,0,0,0,0,-1,524,659,0,0
-693,365,0,0,0,0,0,0,0,0,0,-1,531,659,0,0
-686,365,0,0,0,0,0,0,0,0,0,-1,538,659,0,0
-679,365,0,0,0,0,0,0,0,0,0,-1,545,659,0,0
-672,365,0,0,0,0,0,0,0,0,0,-1,552,659,0,0
-665,365,0,0,0,0,0,0,0,0,0,-1,559,659,0,0
-658,365,0,0,0,0,0,0,0,0,0,-1,566,659,0,0
-651,365,0,0,0,0,0,0,0,0,0,-1,573,659,0,0
-644,365,0,0,0,0,0,0,0,0,0,-1,580,659,0,0
-637,365,0,0,0,0,0,0,0,0,0,-1,587,659,0,0
-630,365,0,0,0,0,0,0,0,0,0,-1,594,659,0,0
-623,365,0,0,0,0,0,0,0,0,0,-1,601,659,0,0
-616,365,0,0,0,0,0,0,0,0,0,-1,608,659,0,0
-609,365,0,0,0,0,0,0,0,0,0,-1,615,659,0,0
-602,365,0,0,0,0,0,0,0,0,0,-1,622,659,0,0
-595,365,0,0,0,0,0,0,0,0,0,-1,629,659,0,0
-588,365,0,0,0,0,0,0,0,0,0,-1,636,659,0,0
-581,365,0,0,0,0,0,0,0,0,0,-1,643,659,0,0
-574,365,-6.02667,0.419739,0,0,0,0,0,0,0,-1,650,659,-6.02669,-0.419719
-567,365,-5.02051,0.666687,0.0587255,0.0227047,-0.0269642,0.073141,0.00828917,-0.490958,0.0462459,0.0455099,657,659,-5.02051,-0.666703
-560,365,-3.9693,0.779602,0.0537265,0.0128503,-0.0220634,0.0633635,0.00321334,-0.411811,0.041213,0.0473837,664,659,-3.96928,-0.779632
-553,365,-0.730103,-0.0604858,0.0475703,0.0058657,-0.0169328,0.0535795,-0.000143427,-0.341017,0.0357676,0.046187,671,659,-0.730084,0.0604596
-546,365,-0.479858,-0.307129,0.0409219,0.00117497,-0.0121643,0.0443492,-0.0022523,-0.27463,0.0303448,0.0451192,678,659,-0.479883,0.307133
-539,365,-0.131226,-0.37085,0.0343831,-0.00178521,-0.00825912,0.0361798,-0.00358194,-0.214208,0.0253982,0.0432392,685,659,-0.131232,0.370873
-532,365,0.0314331,-0.1698,0.0282523,-0.00333908,-0.00534529,0.0291322,-0.004219,-0.163153,0.0209698,0.0431298,692,659,0.0314157,0.169813
-525,365,0.503662,0.43512,0.0226695,-0.00413835,-0.0034113,0.0230967,-0.00456563,-0.124605,0.0171238,0.0362868,699,659,0.503643,-0.435129
-518,365,0.538147,0.43457,0.0176961,-0.0040575,-0.00185575,0.0178533,-0.00421467,-0.0844942,0.0135278,0.0186489,706,659,0.538166,-0.434546
-511,365,0.512573,0.381287,0.0134433,-0.00408202,-5.38662e-06,0.0134433,-0.00408203,-0.000307362,0.0105885,0.0150025,713,659,0.512544,-0.381258
-504,365,0.509949,0.351318,0.00955055,-0.00347792,0.00091128,0.00961398,-0.00354136,0.0694943,0.00786034,0.0125489,720,659,0.509951,-0.351323
-497,365,0.521484,0.311035,0.00625777,-0.00229761,0.000799841,0.0063319,-0.00237174,0.0924227,0.00519554,0.0120873,727,659,0.52146,-0.31101
-490,365,0.534058,0.278748,0.00390116,-0.00150726,0.000620325,0.00397139,-0.00157749,0.112746,0.00330154,0.0127905,734,659,0.53408,-0.278747
-483,365,0.524963,0.259094,0.00202297,-0.00102857,9.92474e-05,0.0020262,-0.0010318,0.0324779,0.00179638,0.0126749,741,659,0.524991,-0.259085
-476,365,0.519714,0.232605,0.000630814,-0.000798805,-0.000424704,0.000747465,-0.000915456,-0.268054,0.000961719,0.0120797,748,659,0.519715,-0.232632
-469,365,0.518005,0.194702,-0.000300799,-0.000675906,-0.000395856,-5.03134e-05,-0.000926391,-0.564166,0.000601525,0.0112812,755,659,0.518,-0.19471
-462,365,0.529663,0.158813,-0.00129292,-0.000895142,-0.000227981,-0.000791488,-0.00139657,-1.14407,0.0008087,0.0126793,762,659,0.529646,-0.158826
-455,365,0.518066,0.126648,-0.00189608,-0.000163597,0.000268642,-0.000122897,-0.00193678,1.42044,0.00125223,0.0140609,769,659,0.518066,-0.126658
-448,365,0.523132,0.0830078,-0.00204301,-0.000102523,0.000686325,0.000115684,-0.00226121,1.26297,0.00154748,0.0115828,776,659,0.523117,-0.0830217
-441,365,0.482056,0.0275269,-0.00204669,8.05921e-05,0.00123372,0.000645875,-0.00261197,1.14115,0.00199182,0.0231383,783,659,0.482038,-0.0275406
-434,365,0.0477295,-0.394165,-0.00251684,-0.000538104,0.00207654,0.000772721,-0.00382766,1.00771,0.00284455,0.0359801,790,659,0.0477295,0.394193
-427,365,-0.324707,-0.773987,-0.0027632,-0.00211861,0.00311849,0.000694192,-0.005576,0.83689,0.00396902,0.0426443,797,659,-0.324708,0.774011
-420,365,-0.636475,-0.969421,-0.00258298,-0.00553509,0.00447065,0.000648978,-0.00876705,0.62595,0.0060726,0.0496464,804,659,-0.636455,0.969399
-413,365,-0.777466,-1.27039,0,0,0,0,0,0,0,-1,811,659,-0.777493,1.27038
-406,365,-0.399536,0.209473,-0.00255504,-0.0159422,0.00729368,0.000650955,-0.0191482,0.414137,0.0129879,0.0478243,818,659,-0.399506,-0.209454
-399,365,-0.0178223,0.678223,-0.00329894,-0.023316,0.00927142,0.00033548,-0.0269504,0.373593,0.0180798,0.0455231,825,659,-0.0178478,-0.678226
-392,365,0.213501,0.702637,0,0,0,0,0,0,0,-1,832,659,0.213521,-0.702649
-385,365,0.043457,0.999329,0,0,0,0,0,0,0,-1,839,659,0.043479,-0.999332
-378,365,-0.303284,1.30493,0,0,0,0,0,0,0,-1,846,659,-0.303302,-1.30492
-371,365,0,0,0,0,0,0,0,0,0,-1,853,659,0,0
-364,365,0,0,0,0,0,0,0,0,0,-1,860,659,0,0
-357,365,0,0,0,0,0,0,0,0,0,-1,867,659,0,0
-350,365,0,0,0,0,0,0,0,0,0,-1,874,659,0,0
-343,365,0,0,0,0,0,0,0,0,0,-1,881,659,0,0
-336,365,0,0,0,0,0,0,0,0,0,-1,888,659,0,0
-329,365,0,0,0,0,0,0,0,0,0,-1,895,659,0,0
-322,365,0,0,0,0,0,0,0,0,0,-1,902,659,0,0
-315,365,0,0,0,0,0,0,0,0,0,-1,909,659,0,0
-308,365,0,0,0,0,0,0,0,0,0,-1,916,659,0,0
-301,365,0,0,0,0,0,0,0,0,0,-1,923,659,0,0
-294,365,0,0,0,0,0,0,0,0,0,-1,930,659,0,0
-287,365,0,0,0,0,0,0,0,0,0,-1,937,659,0,0
-280,365,0,0,0,0,0,0,0,0,0,-1,944,659,0,0
-273,365,0,0,0,0,0,0,0,0,0,-1,951,659,0,0
-266,365,0,0,0,0,0,0,0,0,0,-1,958,659,0,0
-259,365,0,0,0,0,0,0,0,0,0,-1,965,659,0,0
-252,365,0,0,0,0,0,0,0,0,0,-1,972,659,0,0
-245,365,0,0,0,0,0,0,0,0,0,-1,979,659,0,0
-238,365,0,0,0,0,0,0,0,0,0,-1,986,659,0,0
-231,365,0,0,0,0,0,0,0,0,0,-1,993,659,0,0
-224,365,0,0,0,0,0,0,0,0,0,-1,1000,659,0,0
-217,365,0,0,0,0,0,0,0,0,0,-1,1007,659,0,0
-210,365,0,0,0,0,0,0,0,0,0,-1,1014,659,0,0
-203,365,0,0,0,0,0,0,0,0,0,-1,1021,659,0,0
-196,365,0,0,0,0,0,0,0,0,0,-1,1028,659,0,0
-189,365,0,0,0,0,0,0,0,0,0,-1,1035,659,0,0
-182,365,0,0,0,0,0,0,0,0,0,-1,1042,659,0,0
-175,365,0,0,0,0,0,0,0,0,0,-1,1049,659,0,0
-168,365,0,0,0,0,0,0,0,0,0,-1,1056,659,0,0
-161,365,0,0,0,0,0,0,0,0,0,-1,1063,659,0,0
-154,365,0,0,0,0,0,0,0,0,0,-1,1070,659,0,0
-147,365,0,0,0,0,0,0,0,0,0,-1,1077,659,0,0
-140,365,0,0,0,0,0,0,0,0,0,-1,1084,659,0,0
-133,365,0,0,0,0,0,0,0,0,0,-1,1091,659,0,0
-126,365,0,0,0,0,0,0,0,0,0,-1,1098,659,0,0
-119,365,0,0,0,0,0,0,0,0,0,-1,1105,659,0,0
-112,365,0,0,0,0,0,0,0,0,0,-1,1112,659,0,0
-105,365,0,0,0,0,0,0,0,0,0,-1,1119,659,0,0
-98,365,0,0,0,0,0,0,0,0,0,-1,1126,659,0,0
-91,365,0,0,0,0,0,0,0,0,0,-1,1133,659,0,0
-84,365,0,0,0,0,0,0,0,0,0,-1,1140,659,0,0
-77,365,0,0,0,0,0,0,0,0,0,-1,1147,659,0,0
-70,365,0,0,0,0,0,0,0,0,0,-1,1154,659,0,0
-63,365,0,0,0,0,0,0,0,0,0,-1,1161,659,0,0
-56,365,0,0,0,0,0,0,0,0,0,-1,1168,659,0,0
-49,365,0,0,0,0,0,0,0,0,0,-1,1175,659,0,0
-42,365,0,0,0,0,0,0,0,0,0,-1,1182,659,0,0
-35,365,0,0,0,0,0,0,0,0,0,-1,1189,659,0,0
-28,365,0,0,0,0,0,0,0,0,0,-1,1196,659,0,0
-21,365,0,0,0,0,0,0,0,0,0,-1,1203,659,0,0
-14,365,0,0,0,0,0,0,0,0,0,-1,1210,659,0,0
-7,365,0,0,0,0,0,0,0,0,0,-1,1217,659,0,0
0,365,0,0,0,0,0,0,0,0,0,-1,1224,659,0,0
7,365,0,0,0,0,0,0,0,0,0,-1,1231,659,0,0
14,365,0,0,0,0,0,0,0,0,0,-1,1238,659,0,0
21,365,0,0,0,0,0,0,0,0,0,-1,1245,659,0,0
28,365,0,0,0,0,0,0,0,0,0,-1,1252,659,0,0
35,365,0,0,0,0,0,0,0,0,0,-1,1259,659,0,0
42,365,0,0,0,0,0,0,0,0,0,-1,1266,659,0,0
49,365,0,0,0,0,0,0,0,0,0,-1,1273,659,0,0
56,365,0,0,0,0,0,0,0,0,0,-1,1280,659,0,0
63,365,0,0,0,0,0,0,0,0,0,-1,1287,659,0,0
70,365,0,0,0,0,0,0,0,0,0,-1,1294,659,0,0
77,365,0,0,0,0,0,0,0,0,0,-1,1301,659,0,0
84,365,0,0,0,0,0,0,0,0,0,-1,1308,659,0,0
91,365,0,0,0,0,0,0,0,0,0,-1,1315,659,0,0
98,365,0,0,0,0,0,0,0,0,0,-1,1322,659,0,0
105,365,0,0,0,0,0,0,0,0,0,-1,1329,659,0,0
112,365,0,0,0,0,0,0,0,0,0,-1,1336,659,0,0
119,365,0,0,0,0,0,0,0,0,0,-1,1343,659,0,0
126,365,0,0,0,0,0,0,0,0,0,-1,1350,659,0,0
133,365,0,0,0,0,0,0,0,0,0,-1,1357,659,0,0
140,365,0,0,0,0,0,0,0,0,0,-1,1364,659,0,0
147,365,0,0,0,0,0,0,0,0,0,-1,1371,659,0,0
154,365,0,0,0,0,0,0,0,0,0,-1,1378,659,0,0
161,365,0,0,0,0,0,0,0,0,0,-1,1385,659,0,0
168,365,0,0,0,0,0,0,0,0,0,-1,1392,659,0,0
175,365,0,0,0,0,0,0,0,0,0,-1,1399,659,0,0
182,365,0,0,0,0,0,0,0,0,0,-1,1406,659,0,0
189,365,0,0,0,0,0,0,0,0,0,-1,1413,659,0,0
196,365,0,0,0,0,0,0,0,0,0,-1,1420,659,0,0
203,365,0,0,0,0,0,0,0,0,0,-1,1427,659,0,0
210,365,0,0,0,0,0,0,0,0,0,-1,1434,659,0,0
217,365,0,0,0,0,0,0,0,0,0,-1,1441,659,0,0
224,365,0,0,0,0,0,0,0,0,0,-1,1448,659,0,0
231,365,0,0,0,0,0,0,0,0,0,-1,1455,659,0,0
238,365,0,0,0,0,0,0,0,0,0,-1,1462,659,0,0
245,365,0,0,0,0,0,0,0,0,0,-1,1469,659,0,0
252,365,0,0,0,0,0,0,0,0,0,-1,1476,659,0,0
259,365,0,0,0,0,0,0,0,0,0,-1,1483,659,0,0
266,365,0,0,0,0,0,0,0,0,0,-1,1490,659,0,0
273,365,0,0,0,0,0,0,0,0,0,-1,1497,659,0,0
280,365,0,0,0,0,0,0,0,0,0,-1,1504,659,0,0
287,365,0,0,0,0,0,0,0,0,0,-1,1511,659,0,0
294,365,0,0,0,0,0,0,0,0,0,-1,1518,659,0,0
301,365,0,0,0,0,0,0,0,0,0,-1,1525,659,0,0
308,365,0,0,0,0,0,0,0,0,0,-1,1532,659,0,0
315,365,0,0,0,0,0,0,0,0,0,-1,1539,659,0,0
322,365,0,0,0,0,0,0,0,0,0,-1,1546,659,0,0
329,365,0,0,0,0,0,0,0,0,0,-1,1553,659,0,0
336,365,0,0,0,0,0,0,0,0,0,-1,1560,659,0,0
343,365,0,0,0,0,0,0,0,0,0,-1,1567,659,0,0
350,365,0,0,0,0,0,0,0,0,0,-1,1574,659,0,0
357,365,0,0,0,0,0,0,0,0,0,-1,1581,659,0,0
364,365,0,0,0,0,0,0,0,0,0,-1,1588,659,0,0
371,365,0,0,0,0,0,0,0,0,0,-1,1595,659,0,0
378,365,0,0,0,0,0,0,0,0,0,-1,1602,659,0,0
385,365,0,0,0,0,0,0,0,0,0,-1,1609,659,0,0
392,365,0,0,0,0,0,0,0,0,0,-1,1616,659,0,0
399,365,0,0,0,0,0,0,0,0,0,-1,1623,659,0,0
406,365,0,0,0,0,0,0,0,0,0,-1,1630,659,0,0
413,365,0,0,0,0,0,0,0,0,0,-1,1637,659,0,0
420,365,0,0,0,0,0,0,0,0,0,-1,1644,659,0,0
427,365,0,0,0,0,0,0,0,0,0,-1,1651,659,0,0
434,365,0,0,0,0,0,0,0,0,0,-1,1658,659,0,0
441,365,0,0,0,0,0,0,0,0,0,-1,1665,659,0,0
448,365,0,0,0,0,0,0,0,0,0,-1,1672,659,0,0
455,365,0,0,0,0,0,0,0,0,0,-1,1679,659,0,0
462,365,0,0,0,0,0,0,0,0,0,-1,1686,659,0,0
469,365,0,0,0,0,0,0,0,0,0,-1,1693,659,0,0
476,365,0,0,0,0,0,0,0,0,0,-1,1700,659,0,0
483,365,0,0,0,0,0,0,0,0,0,-1,1707,659,0,0
490,365,0.932129,1.7843,0.0242143,-0.0372506,0.054286,0.0558634,-0.0688997,0.52783,0.072163,0.0469073,1714,659,0.932104,-1.7843
497,365,1.37231,1.55878,0.0182659,-0.0369846,0.0435464,0.0422104,-0.0609291,0.502737,0.0598737,0.0432302,1721,659,1.37231,-1.5588
504,365,2.13696,1.27521,0.0118878,-0.0364789,0.034355,0.0297175,-0.0543087,0.47872,0.0492002,0.0477671,1728,659,2.13699,-1.27523
511,365,2.5271,1.42377,0,0,0,0,0,0,0,-1,1735,659,2.52712,-1.42379
518,365,2.96643,1.14929,0,0,0,0,0,0,0,-1,1742,659,2.96645,-1.14927
525,365,3.13171,1.01538,0,0,0,0,0,0,0,-1,1749,659,3.13167,-1.01536
532,365,3.04724,0.696045,0,0,0,0,0,0,0,-1,1756,659,3.04721,-0.696017
539,365,4.89722,-0.88678,-0.00983069,-0.0289737,0.00769396,-0.0071217,-0.0316827,0.338539,0.0191935,0.0439323,1763,659,4.89721,0.886754
546,365,4.37976,-0.773926,-0.010866,-0.0274003,0.00543017,-0.00924213,-0.0290242,0.290584,0.0171214,0.0443205,1770,659,4.37973,0.773947
553,365,3.45593,-0.427856,-0.0104646,-0.0245312,0.004175,-0.0093188,-0.0256771,0.267852,0.0150092,0.0447305,1777,659,3.45591,0.427883
560,365,3.08765,-0.0964355,-0.00923088,-0.0214372,0.0032915,-0.00839988,-0.0222682,0.2473,0.0129851,0.0460109,1784,659,3.08762,0.0964534
567,365,3.00647,-0.0162964,-0.00669957,-0.0182519,0.00277397,-0.00606801,-0.0188834,0.22386,0.0111319,0.0352037,1791,659,3.00643,0.0162925
574,365,2.9646,-0.00823975,-0.00448619,-0.0154362,0.00203085,-0.00412167,-0.0158007,0.1776,0.00946397,0.0189162,1798,659,2.96466,0.00822412
581,365,2.94556,0.0123901,-0.00270156,-0.0125059,0.00154961,-0.00246247,-0.0127449,0.153084,0.00780636,0.0128342,1805,659,2.94553,-0.0123604
588,365,2.95667,0.0465088,-0.00139258,-0.0099229,0.00122941,-0.00121893,-0.0100966,0.140319,0.00636376,0.0118292,1812,659,2.95672,-0.0465043
595,365,2.9751,0.111511,-0.000447149,-0.00749375,0.00120238,-0.000247634,-0.00769327,0.164436,0.00504833,0.0120905,1819,659,2.97515,-0.111529
602,365,2.97961,0.138428,0.00013051,-0.00484095,0.000820257,0.00026235,-0.00497279,0.159368,0.00340601,0.0116498,1826,659,2.97957,-0.138398
609,365,2.95813,0.170837,0.00052708,-0.00315076,0.000661195,0.000642336,-0.00326601,0.172582,0.00242004,0.0111891,1833,659,2.95811,-0.170832
616,365,2.98193,0.216309,0.000552722,-0.00114481,0.00112171,0.0011106,-0.00170268,0.46152,0.00163619,0.012074,1840,659,2.98192,-0.216315
623,365,2.99414,0.231323,0.000632163,0.000432434,0.00174348,0.00227864,-0.00121404,0.75679,0.00204748,0.0108192,1847,659,2.99418,-0.231299
630,365,2.97754,0.279785,0.000648431,0.00208658,0.00229045,0.00376817,-0.00103317,0.937498,0.00291812,0.0159932,1854,659,2.97759,-0.279772
637,365,2.98938,0.319153,0.00076821,0.00370611,0.00282239,0.00541894,-0.000944618,1.02534,0.00396518,0.0203285,1861,659,2.98942,-0.319133
644,365,2.98975,0.371094,0.00113912,0.00540322,0.00373595,0.00757268,-0.00103034,1.04469,0.00542461,0.0136445,1868,659,2.98979,-0.371071
651,365,3.00281,0.408691,0.00180234,0.00654652,0.00471305,0.00945076,-0.0011019,1.01854,0.00669809,0.0181989,1875,659,3.00286,-0.408666
658,365,2.98328,0.415527,0.00273701,0.00723475,0.00573621,0.0111472,-0.00117541,0.972215,0.00785263,0.0342715,1882,659,2.98323,-0.415519
665,365,2.91016,0.497559,0.00404702,0.00801136,0.00702994,0.0133332,-0.00127486,0.922811,0.00934281,0.0471513,1889,659,2.91021,-0.497578
672,365,2.82971,0.600281,0,0,0,0,0,0,0,-1,1896,659,2.82968,-0.600267
679,365,2.72668,0.786255,0.00698901,0.00821636,0.00936437,0.0169871,-0.00178177,0.818118,0.011963,0.0489272,1903,659,2.72669,-0.786279
686,365,2.51501,0.838867,0.00857412,0.00691279,0.0104236,0.0182001,-0.0027132,0.745637,0.0131316,0.0445411,1910,659,2.51506,-0.838839
693,365,2.44446,1.05115,0,0,0,0,0,0,0,-1,1917,659,2.44449,-1.05117
700,365,0,0,0,0,0,0,0,0,0,-1,1924,659,0,0
707,365,0,0,0,0,0,0,0,0,0,-1,1931,659,0,0
714,365,0,0,0,0,0,0,0,0,0,-1,1938,659,0,0
721,365,0,0,0,0,0,0,0,0,0,-1,1945,659,0,0
728,365,0,0,0,0,0,0,0,0,0,-1,1952,659,0,0
735,365,0,0,0,0,0,0,0,0,0,-1,1959,659,0,0
742,365,0,0,0,0,0,0,0,0,0,-1,1966,659,0,0
749,365,0,0,0,0,0,0,0,0,0,-1,1973,659,0,0
756,365,0,0,0,0,0,0,0,0,0,-1,1980,659,0,0
763,365,0,0,0,0,0,0,0,0,0,-1,1987,659,0,0
770,365,0,0,0,0,0,0,0,0,0,-1,1994,659,0,0
777,365,0,0,0,0,0,0,0,0,0,-1,2001,659,0,0
784,365,0,0,0,0,0,0,0,0,0,-1,2008,659,0,0
791,365,0,0,0,0,0,0,0,0,0,-1,2015,659,0,0
798,365,0,0,0,0,0,0,0,0,0,-1,2022,659,0,0
805,365,0,0,0,0,0,0,0,0,0,-1,2029,659,0,0
812,365,0,0,0,0,0,0,0,0,0,-1,2036,659,0,0
-700,358,0,0,0,0,0,0,0,0,0,-1,524,666,0,0
-693,358,0,0,0,0,0,0,0,0,0,-1,531,666,0,0
-686,358,0,0,0,0,0,0,0,0,0,-1,538,666,0,0
-679,358,0,0,0,0,0,0,0,0,0,-1,545,666,0,0
-672,358,0,0,0,0,0,0,0,0,0,-1,552,666,0,0
-665,358,0,0,0,0,0,0,0,0,0,-1,559,666,0,0
-658,358,0,0,0,0,0,0,0,0,0,-1,566,666,0,0
-651,358,0,0,0,0,0,0,0,0,0,-1,573,666,0,0
-644,358,0,0,0,0,0,0,0,0,0,-1,580,666,0,0
-637,358,0,0,0,0,0,0,0,0,0,-1,587,666,0,0
-630,358,0,0,0,0,0,0,0,0,0,-1,594,666,0,0
-623,358,0,0,0,0,0,0,0,0,0,-1,601,666,0,0
-616,358,0,0,0,0,0,0,0,0,0,-1,608,666,0,0
-609,358,0,0,0,0,0,0,0,0,0,-1,615,666,0,0
-602,358,0,0,0,0,0,0,0,0,0,-1,622,666,0,0
-595,358,0,0,0,0,0,0,0,0,0,-1,629,666,0,0
-588,358,0,0,0,0,0,0,0,0,0,-1,636,666,0,0
-581,358,0.46582,0.53717,0,0,0,0,0,0,0,-1,643,666,0.465826,-0.537186
-574,358,-3.48193,0.306946,0,0,0,0,0,0,0,-1,650,666,-3.48194,-0.306921
-567,358,-2.90363,0.207703,0.0512143,0.0208015,-0.0219919,0.0627451,0.00927065,-0.482915,0.0391079,0.0450128,657,666,-2.90362,-0.207722
-560,358,-2.31696,0.216858,0.0468636,0.0124348,-0.0187929,0.0551346,0.00416375,-0.414604,0.0354501,0.0460226,664,666,-2.31696,-0.216838
-553,358,-1.4397,0.318909,0.0416194,0.00639992,-0.0150709,0.047188,0.000831293,-0.353935,0.0311853,0.0451944,671,666,-1.43967,-0.318898
-546,358,-0.563232,0.0984497,0.0357784,0.0020895,-0.0112744,0.0392034,-0.00133545,-0.294921,0.0265919,0.0444642,678,666,-0.563204,-0.0984291
-539,358,-0.0429077,0.0999146,0.0299709,-0.000851098,-0.00796226,0.0319063,-0.00278647,-0.238444,0.0222579,0.0406891,685,666,-0.0429296,-0.0999261
-532,358,0.285583,0.310791,0.0245273,-0.00251935,-0.00535904,0.0255505,-0.00354248,-0.188648,0.018329,0.0365344,692,666,0.285589,-0.310803
-525,358,0.480042,0.474182,0.0195583,-0.00349464,-0.00364337,0.0201204,-0.00405674,-0.153075,0.0149505,0.0227218,699,666,0.480035,-0.474199
-518,358,0.50824,0.440857,0.0150748,-0.00348931,-0.002095,0.0153083,-0.0037228,-0.110993,0.0116465,0.0163974,706,666,0.508213,-0.440833
-511,358,0.487,0.385742,0.011227,-0.00352672,-0.00020491,0.0112298,-0.00352957,-0.0138852,0.0088995,0.0143911,713,666,0.486992,-0.385719
-504,358,0.483154,0.359192,0.00776327,-0.0030064,0.000735703,0.0078133,-0.00305642,0.0678921,0.00647285,0.0111835,720,666,0.483138,-0.359197
-497,358,0.480591,0.31665,0.0047859,-0.0018846,0.000686455,0.00485581,-0.00195451,0.101492,0.00404913,0.0105516,727,666,0.480586,-0.316642
-490,358,0.496948,0.287476,0.00259723,-0.00118563,0.000517455,0.00266673,-0.00125513,0.133522,0.00231266,0.0100263,734,666,0.496928,-0.287492
-483,358,0.486389,0.263794,0.00106412,-0.000790741,1.58545e-05,0.00106425,-0.000790877,0.00854674,0.00107493,0.00937862,741,666,0.486376,-0.263784
-476,358,0.484375,0.227234,0.000165566,-0.00077588,-0.000432803,0.000334295,-0.000944609,-0.371727,0.000765888,0.00984468,748,666,0.484368,-0.227253
-469,358,0.490051,0.194641,-0.000538989,-0.000886594,-0.000450289,-0.000230124,-0.00119546,-0.601217,0.000732416,0.0118424,755,666,0.490077,-0.194614
-462,358,0.477051,0.16217,-0.00115401,-0.00129666,-0.000347233,-0.000870856,-0.00157982,-0.684103,0.000913705,0.0153034,762,666,0.47703,-0.162194
-455,358,0.4776,0.128906,-0.00130186,-0.000885086,9.86751e-05,-0.000862904,-0.00132404,1.34967,0.000776076,0.0155762,769,666,0.477584,-0.128882
-448,358,0.504028,0.0623779,-0.00092155,-0.00111481,0.000517303,-0.00049193,-0.00154443,0.693064,0.000911047,0.021989,776,666,0.504036,-0.0623776
-441,358,0.200012,-0.135376,-0.000216184,-0.0012927,0.00111433,0.000483077,-0.00199196,0.560407,0.0015149,0.0366556,783,666,0.199987,0.135352
-434,358,-0.183228,-0.604553,0.000174946,-0.00224587,0.00207695,0.00136846,-0.00343938,0.521567,0.00286035,0.0389862,790,666,-0.183222,0.604553
-427,358,-0.563782,-1.05988,0.0008148,-0.00421223,0.00335009,0.00248947,-0.00588689,0.463557,0.00496692,0.040551,797,666,-0.563778,1.05986
-420,358,-0.585876,-1.45569,0,0,0,0,0,0,0,-1,804,666,-0.585875,1.45566
-413,358,-0.543945,-0.379761,0,0,0,0,0,0,0,-1,811,666,-0.543923,0.379785
-406,358,-0.639832,0.541504,0,0,0,0,0,0,0,-1,818,666,-0.639802,-0.541505
-399,358,-0.319092,0.632996,0,0,0,0,0,0,0,-1,825,666,-0.319091,-0.632997
-392,358,-0.0651855,0.590881,0,0,0,0,0,0,0,-1,832,666,-0.0651736,-0.590858
-385,358,1.02173,0.618164,0,0,0,0,0,0,0,-1,839,666,1.02175,-0.618161
-378,358,0,0,0,0,0,0,0,0,0,-1,846,666,0,0
-371,358,0,0,0,0,0,0,0,0,0,-1,853,666,0,0
-364,358,0,0,0,0,0,0,0,0,0,-1,860,666,0,0
-357,358,0,0,0,0,0,0,0,0,0,-1,867,666,0,0
-350,358,0,0,0,0,0,0,0,0,0,-1,874,666,0,0
-343,358,0,0,0,0,0,0,0,0,0,-1,881,666,0,0
-336,358,0,0,0,0,0,0,0,0,0,-1,888,666,0,0
-329,358,0,0,0,0,0,0,0,0,0,-1,895,666,0,0
-322,358,0,0,0,0,0,0,0,0,0,-1,902,666,0,0
-315,358,0,0,0,0,0,0,0,0,0,-1,909,666,0,0
-308,358,0,0,0,0,0,0,0,0,0,-1,916,666,0,0
-301,358,0,0,0,0,0,0,0,0,0,-1,923,666,0,0
-294,358,0,0,0,0,0,0,0,0,0,-1,930,666,0,0
-287,358,0,0,0,0,0,0,0,0,0,-1,937,666,0,0
-280,358,0,0,0,0,0,0,0,0,0,-1,944,666,0,0
-273,358,0,0,0,0,0,0,0,0,0,-1,951,666,0,0
-266,358,0,0,0,0,0,0,0,0,0,-1,958,666,0,0
-259,358,0,0,0,0,0,0,0,0,0,-1,965,666,0,0
-252,358,0,0,0,0,0,0,0,0,0,-1,972,666,0,0
-245,358,0,0,0,0,0,0,0,0,0,-1,979,666,0,0
-238,358,0,0,0,0,0,0,0,0,0,-1,986,666,0,0
-231,358,0,0,0,0,0,0,0,0,0,-1,993,666,0,0
-224,358,0,0,0,0,0,0,0,0,0,-1,1000,666,0,0
-217,358,0,0,0,0,0,0,0,0,0,-1,1007,666,0,0
-210,358,0,0,0,0,0,0,0,0,0,-1,1014,666,0,0
-203,358,0,0,0,0,0,0,0,0,0,-1,1021,666,0,0
-196,358,0,0,0,0,0,0,0,0,0,-1,1028,666,0,0
-189,358,0,0,0,0,0,0,0,0,0,-1,1035,666,0,0
-182,358,0,0,0,0,0,0,0,0,0,-1,1042,666,0,0
-175,358,0,0,0,0,0,0,0,0,0,-1,1049,666,0,0
-168,358,0,0,0,0,0,0,0,0,0,-1,1056,666,0,0
-161,358,0,0,0,0,0,0,0,0,0,-1,1063,666,0,0
-154,358,0,0,0,0,0,0,0,0,0,-1,1070,666,0,0
-147,358,0,0,0,0,0,0,0,0,0,-1,1077,666,0,0
-140,358,0,0,0,0,0,0,0,0,0,-1,1084,666,0,0
-133,358,0,0,0,0,0,0,0,0,0,-1,1091,666,0,0
-126,358,0,0,0,0,0,0,0,0,0,-1,1098,666,0,0
-119,358,0,0,0,0,0,0,0,0,0,-1,1105,666,0,0
-112,358,0,0,0,0,0,0,0,0,0,-1,1112,666,0,0
-105,358,0,0,0,0,0,0,0,0,0,-1,1119,666,0,0
-98,358,0,0,0,0,0,0,0,0,0,-1,1126,666,0,0
-91,358,0,0,0,0,0,0,0,0,0,-1,1133,666,0,0
-84,358,0,0,0,0,0,0,0,0,0,-1,1140,666,0,0
-77,358,0,0,0,0,0,0,0,0,0,-1,1147,666,0,0
-70,358,0,0,0,0,0,0,0,0,0,-1,1154,666,0,0
-63,358,0,0,0,0,0,0,0,0,0,-1,1161,666,0,0
-56,358,0,0,0,0,0,0,0,0,0,-1,1168,666,0,0
-49,358,0,0,0,0,0,0,0,0,0,-1,1175,666,0,0
-42,358,0,0,0,0,0,0,0,0,0,-1,1182,666,0,0
-35,358,0,0,0,0,0,0,0,0,0,-1,1189,666,0,0
-28,358,0,0,0,0,0,0,0,0,0,-1,1196,666,0,0
-21,358,0,0,0,0,0,0,0,0,0,-1,1203,666,0,0
-14,358,0,0,0,0,0,0,0,0,0,-1,1210,666,0,0
-7,358,0,0,0,0,0,0,0,0,0,-1,1217,666,0,0
0,358,0,0,0,0,0,0,0,0,0,-1,1224,666,0,0
7,358,0,0,0,0,0,0,0,0,0,-1,1231,666,0,0
14,358,0,0,0,0,0,0,0,0,0,-1,1238,666,0,0
21,358,0,0,0,0,0,0,0,0,0,-1,1245,666,0,0
28,358,0,0,0,0,0,0,0,0,0,-1,1252,666,0,0
35,358,0,0,0,0,0,0,0,0,0,-1,1259,666,0,0
42,358,0,0,0,0,0,0,0,0,0,-1,1266,666,0,0
49,358,0,0,0,0,0,0,0,0,0,-1,1273,666,0,0
56,358,0,0,0,0,0,0,0,0,0,-1,1280,666,0,0
63,358,0,0,0,0,0,0,0,0,0,-1,1287,666,0,0
70,358,0,0,0,0,0,0,0,0,0,-1,1294,666,0,0
77,358,0,0,0,0,0,0,0,0,0,-1,1301,666,0,0
84,358,0,0,0,0,0,0,0,0,0,-1,1308,666,0,0
91,358,0,0,0,0,0,0,0,0,0,-1,1315,666,0,0
98,358,0,0,0,0,0,0,0,0,0,-1,1322,666,0,0
105,358,0,0,0,0,0,0,0,0,0,-1,1329,666,0,0
112,358,0,0,0,0,0,0,0,0,0,-1,1336,666,0,0
119,358,0,0,0,0,0,0,0,0,0,-1,1343,666,0,0
126,358,0,0,0,0,0,0,0,0,0,-1,1350,666,0,0
133,358,0,0,0,0,0,0,0,0,0,-1,1357,666,0,0
140,358,0,0,0,0,0,0,0,0,0,-1,1364,666,0,0
147,358,0,0,0,0,0,0,0,0,0,-1,1371,666,0,0
154,358,0,0,0,0,0,0,0,0,0,-1,1378,666,0,0
161,358,0,0,0,0,0,0,0,0,0,-1,1385,666,0,0
168,358,0,0,0,0,0,0,0,0,0,-1,1392,666,0,0
175,358,0,0,0,0,0,0,0,0,0,-1,1399,666,0,0
182,358,0,0,0,0,0,0,0,0,0,-1,1406,666,0,0
189,358,0,0,0,0,0,0,0,0,0,-1,1413,666,0,0
196,358,0,0,0,0,0,0,0,0,0,-1,1420,666,0,0
203,358,0,0,0,0,0,0,0,0,0,-1,1427,666,0,0
210,358,0,0,0,0,0,0,0,0,0,-1,1434,666,0,0
217,358,0,0,0,0,0,0,0,0,0,-1,1441,666,0,0
224,358,0,0,0,0,0,0,0,0,0,-1,1448,666,0,0
231,358,0,0,0,0,0,0,0,0,0,-1,1455,666,0,0
238,358,0,0,0,0,0,0,0,0,0,-1,1462,666,0,0
245,358,0,0,0,0,0,0,0,0,0,-1,1469,666,0,0
252,358,0,0,0,0,0,0,0,0,0,-1,1476,666,0,0
259,358,0,0,0,0,0,0,0,0,0,-1,1483,666,0,0
266,358,0,0,0,0,0,0,0,0,0,-1,1490,666,0,0
273,358,0,0,0,0,0,0,0,0,0,-1,1497,666,0,0
280,358,0,0,0,0,0,0,0,0,0,-1,1504,666,0,0
287,358,0,0,0,0,0,0,0,0,0,-1,1511,666,0,0
294,358,0,0,0,0,0,0,0,0,0,-1,1518,666,0,0
301,358,0,0,0,0,0,0,0,0,0,-1,1525,666,0,0
308,358,0,0,0,0,0,0,0,0,0,-1,1532,666,0,0
315,358,0,0,0,0,0,0,0,0,0,-1,1539,666,0,0
322,358,0,0,0,0,0,0,0,0,0,-1,1546,666,0,0
329,358,0,0,0,0,0,0,0,0,0,-1,1553,666,0,0
336,358,0,0,0,0,0,0,0,0,0,-1,1560,666,0,0
343,358,0,0,0,0,0,0,0,0,0,-1,1567,666,0,0
350,358,0,0,0,0,0,0,0,0,0,-1,1574,666,0,0
357,358,0,0,0,0,0,0,0,0,0,-1,1581,666,0,0
364,358,0,0,0,0,0,0,0,0,0,-1,1588,666,0,0
371,358,0,0,0,0,0,0,0,0,0,-1,1595,666,0,0
378,358,0,0,0,0,0,0,0,0,0,-1,1602,666,0,0
385,358,0,0,0,0,0,0,0,0,0,-1,1609,666,0,0
392,358,0,0,0,0,0,0,0,0,0,-1,1616,666,0,0
399,358,0,0,0,0,0,0,0,0,0,-1,1623,666,0,0
406,358,0,0,0,0,0,0,0,0,0,-1,1630,666,0,0
413,358,0,0,0,0,0,0,0,0,0,-1,1637,666,0,0
420,358,0,0,0,0,0,0,0,0,0,-1,1644,666,0,0
427,358,0,0,0,0,0,0,0,0,0,-1,1651,666,0,0
434,358,0,0,0,0,0,0,0,0,0,-1,1658,666,0,0
441,358,0,0,0,0,0,0,0,0,0,-1,1665,666,0,0
448,358,0,0,0,0,0,0,0,0,0,-1,1672,666,0,0
455,358,0,0,0,0,0,0,0,0,0,-1,1679,666,0,0
462,358,0,0,0,0,0,0,0,0,0,-1,1686,666,0,0
469,358,0,0,0,0,0,0,0,0,0,-1,1693,666,0,0
476,358,0,0,0,0,0,0,0,0,0,-1,1700,666,0,0
483,358,0,0,0,0,0,0,0,0,0,-1,1707,666,0,0
490,358,0,0,0,0,0,0,0,0,0,-1,1714,666,0,0
497,358,0.462646,1.59991,0,0,0,0,0,0,0,-1,1721,666,0.462611,-1.59993
504,358,1.6676,1.27789,0,0,0,0,0,0,0,-1,1728,666,1.66764,-1.27792
511,358,4.99744,0.62854,0,0,0,0,0,0,0,-1,1735,666,4.99738,-0.62854
518,358,4.56616,0.620605,0.00231476,-0.0393753,0.0241178,0.0133474,-0.0504079,0.429029,0.0388268,0.0429124,1742,666,4.56621,-0.620575
525,358,4.22961,0.668335,-0.00365779,-0.0383941,0.0183595,0.00424705,-0.0462989,0.406569,0.0323746,0.0457519,1749,666,4.22957,-0.668308
532,358,3.94531,0.7547,-0.00731844,-0.0364037,0.013734,-0.0018583,-0.0418639,0.378404,0.0273109,0.0442099,1756,666,3.9453,-0.754683
539,358,3.67273,0.874207,-0.00938298,-0.0347326,0.0100608,-0.00587537,-0.0382402,0.335464,0.0237782,0.0428701,1763,666,3.67268,-0.874217
546,358,4.56262,-0.267334,-0.0103481,-0.033015,0.00754788,-0.00806476,-0.0352983,0.293765,0.0213577,0.0443851,1770,666,4.56256,0.267347
553,358,3.38318,-0.187195,0,0,0,0,0,0,0,-1,1777,666,3.38321,0.187186
560,358,3.17834,0.244568,-0.00865654,-0.0264434,0.00483204,-0.00742863,-0.0276713,0.248853,0.0165372,0.0493298,1784,666,3.17832,-0.244587
567,358,3.04224,0.304016,-0.00621423,-0.0227736,0.00396375,-0.00531434,-0.0236735,0.223245,0.0143429,0.0455903,1791,666,3.04227,-0.303998
574,358,2.93481,0.0127563,-0.0040532,-0.019379,0.00292595,-0.00351359,-0.0199186,0.182374,0.0122767,0.0381553,1798,666,2.93482,-0.0127515
581,358,2.9613,0.0216064,-0.00219629,-0.0158432,0.00223762,-0.00183877,-0.0162008,0.15844,0.0102427,0.0202008,1805,666,2.9613,-0.0216351
588,358,2.9812,0.0524902,-0.000887097,-0.0127197,0.00168276,-0.000652438,-0.0129543,0.138555,0.00842717,0.0127473,1812,666,2.98123,-0.0524607
595,358,3.00488,0.107117,4.20208e-05,-0.0097003,0.00141086,0.000242224,-0.00990051,0.140961,0.00668254,0.011635,1819,666,3.00486,-0.107108
602,358,2.98816,0.142517,0.000658119,-0.00653427,0.000829009,0.000752436,-0.00662859,0.113283,0.00469003,0.0106311,1826,666,2.98817,-0.142541
609,358,2.96252,0.14917,0.00106531,-0.00447743,0.000476382,0.00110596,-0.00451807,0.0851153,0.00344047,0.01223,1833,666,2.96254,-0.149171
616,358,2.99487,0.200928,0.000979393,-0.00222598,0.000744647,0.00114394,-0.00239053,0.217474,0.0020825,0.0128802,1840,666,2.99493,-0.200953
623,358,3.02148,0.226196,0.000912796,-0.000525833,0.00113418,0.00153653,-0.00114957,0.502799,0.00155617,0.0137618,1847,666,3.02153,-0.226201
630,358,2.99878,0.262756,0.00083924,0.00114595,0.00142474,0.00242556,-0.000440374,0.83901,0.00178206,0.0175851,1854,666,2.99877,-0.262763
637,358,2.98132,0.301758,0.000821235,0.00266907,0.00168043,0.00366283,-0.00017252,1.03675,0.00250138,0.0238454,1861,666,2.98133,-0.30178
644,358,2.99268,0.338806,0.000976475,0.00424693,0.00226398,0.00540448,-0.000181069,1.09816,0.00366483,0.0193495,1868,666,2.99268,-0.338788
651,358,3.01746,0.386047,0.00141089,0.00508324,0.00286047,0.00664615,-0.000152023,1.07073,0.0044823,0.0162497,1875,666,3.01746,-0.386022
658,358,2.98779,0.439087,0.00208932,0.00539671,0.00346352,0.00758108,-9.50482e-05,1.00813,0.00508603,0.0220257,1882,666,2.9878,-0.439057
665,358,2.88245,0.403503,0.00309987,0.00580898,0.00433777,0.00899877,-8.99192e-05,0.936736,0.00602938,0.0359373,1889,666,2.88239,-0.403489
672,358,2.86792,0.450806,0.00415043,0.00606759,0.00507842,0.0102771,-5.90812e-05,0.878678,0.00687118,0.0453011,1896,666,2.86786,-0.450791
679,358,2.80103,0.764404,0.00531894,0.00559051,0.00579779,0.0112541,-0.000344656,0.797106,0.00762022,0.0432252,1903,666,2.80108,-0.764433
686,358,2.68738,0.973267,0.00655653,0.0044112,0.00650473,0.0120764,-0.00110871,0.703681,0.00844483,0.0443307,1910,666,2.68738,-0.973258
693,358,2.61597,1.13214,0,0,0,0,0,0,0,-1,1917,666,2.61601,-1.13213
700,358,0,0,0,0,0,0,0,0,0,-1,1924,666,0,0
707,358,0,0,0,0,0,0,0,0,0,-1,1931,666,0,0
714,358,0,0,0,0,0,0,0,0,0,-1,1938,666,0,0
721,358,0,0,0,0,0,0,0,0,0,-1,1945,666,0,0
728,358,0,0,0,0,0,0,0,0,0,-1,1952,666,0,0
735,358,0,0,0,0,0,0,0,0,0,-1,1959,666,0,0
742,358,0,0,0,0,0,0,0,0,0,-1,1966,666,0,0
749,358,0,0,0,0,0,0,0,0,0,-1,1973,666,0,0
756,358,0,0,0,0,0,0,0,0,0,-1,1980,666,0,0
763,358,0,0,0,0,0,0,0,0,0,-1,1987,666,0,0
770,358,0,0,0,0,0,0,0,0,0,-1,1994,666,0,0
777,358,0,0,0,0,0,0,0,0,0,-1,2001,666,0,0
784,358,0,0,0,0,0,0,0,0,0,-1,2008,666,0,0
791,358,0,0,0,0,0,0,0,0,0,-1,2015,666,0,0
798,358,0,0,0,0,0,0,0,0,0,-1,2022,666,0,0
805,358,0,0,0,0,0,0,0,0,0,-1,2029,666,0,0
812,358,0,0,0,0,0,0,0,0,0,-1,2036,666,0,0
-700,351,0,0,0,0,0,0,0,0,0,-1,524,673,0,0
-693,351,0,0,0,0,0,0,0,0,0,-1,531,673,0,0
-686,351,0,0,0,0,0,0,0,0,0,-1,538,673,0,0
-679,351,0,0,0,0,0,0,0,0,0,-1,545,673,0,0
-672,351,0,0,0,0,0,0,0,0,0,-1,552,673,0,0
-665,351,0,0,0,0,0,0,0,0,0,-1,559,673,0,0
-658,351,0,0,0,0,0,0,0,0,0,-1,566,673,0,0
-651,351,0,0,0,0,0,0,0,0,0,-1,573,673,0,0
-644,351,0,0,0,0,0,0,0,0,0,-1,580,673,0,0
-637,351,0,0,0,0,0,0,0,0,0,-1,587,673,0,0
-630,351,0,0,0,0,0,0,0,0,0,-1,594,673,0,0
-623,351,0,0,0,0,0,0,0,0,0,-1,601,673,0,0
-616,351,0,0,0,0,0,0,0,0,0,-1,608,673,0,0
-609,351,0,0,0,0,0,0,0,0,0,-1,615,673,0,0
-602,351,0,0,0,0,0,0,0,0,0,-1,622,673,0,0
-595,351,0,0,0,0,0,0,0,0,0,-1,629,673,0,0
-588,351,0,0,0,0,0,0,0,0,0,-1,636,673,0,0
-581,351,-0.00598145,0.245422,0.0484719,0.0346578,-0.0161414,0.059122,0.0240078,-0.583232,0.0343343,0.0425979,643,673,-0.00597985,-0.245436
-574,351,0.384766,0.232117,0.047711,0.0256664,-0.0179834,0.0577812,0.0155963,-0.510467,0.0345172,0.0450683,650,673,0.384789,-0.232122
-567,351,0.683716,0.0634766,0.0452858,0.0176473,-0.0174643,0.053737,0.00919607,-0.450696,0.0331868,0.0456841,657,673,0.683689,-0.0634478
-560,351,0.211182,0.0354614,0.0414235,0.0109821,-0.0155308,0.0479485,0.00445713,-0.39774,0.0305884,0.0455445,664,673,0.211198,-0.0354576
-553,351,-0.285461,0.0422363,0.0368983,0.00617617,-0.0129721,0.041643,0.00143155,-0.35064,0.0272973,0.0447031,671,673,-0.28549,-0.0422105
-546,351,-0.128906,0.0299072,0.0316858,0.00253811,-0.0100823,0.0348334,-0.000609485,-0.302603,0.0234281,0.0417468,678,673,-0.128928,-0.0299024
-539,351,0.161377,0.256348,0.0264571,-0.000123267,-0.00739329,0.0283751,-0.0020413,-0.253833,0.0196326,0.0395252,685,673,0.161406,-0.256368
-532,351,0.394897,0.503296,0.0215808,-0.0017267,-0.00516624,0.0226746,-0.00282049,-0.208639,0.0161389,0.0282572,692,673,0.394919,-0.503306
-525,351,0.47052,0.493469,0.0170794,-0.0027219,-0.00373992,0.0177622,-0.00340472,-0.180588,0.0131244,0.0159034,699,673,0.470494,-0.493485
-518,351,0.46344,0.453552,0.0129869,-0.00270793,-0.00227045,0.0133088,-0.00302978,-0.140817,0.0100361,0.0112352,706,673,0.463442,-0.453538
-511,351,0.467651,0.416077,0.00949951,-0.00270044,-0.000426436,0.0095144,-0.00271533,-0.0348971,0.00741565,0.0110572,713,673,0.467649,-0.416064
-504,351,0.452087,0.375305,0.00646428,-0.0021988,0.000532392,0.00649688,-0.00223139,0.0611485,0.00523601,0.0100222,720,673,0.452108,-0.375326
-497,351,0.439819,0.328308,0.00381229,-0.00112216,0.000583162,0.00388027,-0.00119014,0.116052,0.00306166,0.00997803,727,673,0.439789,-0.328318
-490,351,0.451721,0.280029,0.00180026,-0.000495537,0.000481545,0.00189717,-0.000592451,0.198602,0.00150174,0.00939389,734,673,0.451698,-0.280052
-483,351,0.453186,0.248596,0.000564036,-0.00016211,6.00493e-05,0.000568968,-0.000167042,0.0819541,0.000445556,0.0102442,741,673,0.453167,-0.248593
-476,351,0.440308,0.224365,0.000131676,-0.000319853,-0.000283217,0.000268101,-0.000456278,-0.448899,0.000422899,0.00968171,748,673,0.440327,-0.224381
-469,351,0.443176,0.20636,-0.000269522,-0.000648514,-0.000304043,-0.000100757,-0.000817279,-0.506727,0.000514566,0.0124253,755,673,0.443188,-0.206363
-462,351,0.445679,0.174072,-0.000458048,-0.00123048,-0.000225211,-0.000397181,-0.00129134,-0.263959,0.000763741,0.014217,762,673,0.445671,-0.174103
-455,351,0.45752,0.11676,-0.00011545,-0.00118161,0.000174561,-8.75972e-05,-0.00120947,0.158226,0.000778756,0.0146986,769,673,0.457534,-0.116779
-448,351,0.367126,0.0760498,0.000816987,-0.00172665,0.000568737,0.000938361,-0.00184802,0.210255,0.00163705,0.0323551,776,673,0.367127,-0.0760491
-441,351,0.0603027,-0.107361,0.00223658,-0.00231888,0.00114462,0.00250801,-0.00259031,0.232833,0.00294364,0.0411966,783,673,0.0602836,0.107381
-434,351,-0.0686035,-0.115051,0.00352493,-0.0036424,0.00213111,0.00411071,-0.00422818,0.268246,0.00481462,0.0451461,790,673,-0.0686112,0.115031
-427,351,-0.112366,-0.250916,0.00514391,-0.00598711,0.00353547,0.00617192,-0.00701511,0.282967,0.00761872,0.0443604,797,673,-0.112391,0.250904
-420,351,0.0734863,-0.622253,0.00732312,-0.0105605,0.00543466,0.00884513,-0.0120825,0.273061,0.0121307,0.0466795,804,673,0.0734897,0.622225
-413,351,0.251221,-1.04242,0,0,0,0,0,0,0,-1,811,673,0.251247,1.0424
-406,351,-0.0772705,-0.258057,0,0,0,0,0,0,0,-1,818,673,-0.0772681,0.258053
-399,351,-0.484802,0.759766,0,0,0,0,0,0,0,-1,825,673,-0.4848,-0.759745
-392,351,0.623352,0.557678,0,0,0,0,0,0,0,-1,832,673,0.623323,-0.557703
-385,351,0.568604,2.21289,0,0,0,0,0,0,0,-1,839,673,0.568632,-2.21289
-378,351,0,0,0,0,0,0,0,0,0,-1,846,673,0,0
-371,351,0,0,0,0,0,0,0,0,0,-1,853,673,0,0
-364,351,0,0,0,0,0,0,0,0,0,-1,860,673,0,0
-357,351,0,0,0,0,0,0,0,0,0,-1,867,673,0,0
-350,351,0,0,0,0,0,0,0,0,0,-1,874,673,0,0
-343,351,0,0,0,0,0,0,0,0,0,-1,881,673,0,0
-336,351,0,0,0,0,0,0,0,0,0,-1,888,673,0,0
-329,351,0,0,0,0,0,0,0,0,0,-1,895,673,0,0
-322,351,0,0,0,0,0,0,0,0,0,-1,902,673,0,0
-315,351,0,0,0,0,0,0,0,0,0,-1,909,673,0,0
-308,351,0,0,0,0,0,0,0,0,0,-1,916,673,0,0
-301,351,0,0,0,0,0,0,0,0,0,-1,923,673,0,0
-294,351,0,0,0,0,0,0,0,0,0,-1,930,673,0,0
-287,351,0,0,0,0,0,0,0,0,0,-1,937,673,0,0
-280,351,0,0,0,0,0,0,0,0,0,-1,944,673,0,0
-273,351,0,0,0,0,0,0,0,0,0,-1,951,673,0,0
-266,351,0,0,0,0,0,0,0,0,0,-1,958,673,0,0
-259,351,0,0,0,0,0,0,0,0,0,-1,965,673,0,0
-252,351,0,0,0,0,0,0,0,0,0,-1,972,673,0,0
-245,351,0,0,0,0,0,0,0,0,0,-1,979,673,0,0
-238,351,0,0,0,0,0,0,0,0,0,-1,986,673,0,0
-231,351,0,0,0,0,0,0,0,0,0,-1,993,673,0,0
-224,351,0,0,0,0,0,0,0,0,0,-1,1000,673,0,0
-217,351,0,0,0,0,0,0,0,0,0,-1,1007,673,0,0
-210,351,0,0,0,0,0,0,0,0,0,-1,1014,673,0,0
-203,351,0,0,0,0,0,0,0,0,0,-1,1021,673,0,0
-196,351,0,0,0,0,0,0,0,0,0,-1,1028,673,0,0
-189,351,0,0,0,0,0,0,0,0,0,-1,1035,673,0,0
-182,351,0,0,0,0,0,0,0,0,0,-1,1042,673,0,0
-175,351,0,0,0,0,0,0,0,0,0,-1,1049,673,0,0
-168,351,0,0,0,0,0,0,0,0,0,-1,1056,673,0,0
-161,351,0,0,0,0,0,0,0,0,0,-1,1063,673,0,0
-154,351,0,0,0,0,0,0,0,0,0,-1,1070,673,0,0
-147,351,0,0,0,0,0,0,0,0,0,-1,1077,673,0,0
-140,351,0,0,0,0,0,0,0,0,0,-1,1084,673,0,0
-133,351,0,0,0,0,0,0,0,0,0,-1,1091,673,0,0
-126,351,0,0,0,0,0,0,0,0,0,-1,1098,673,0,0
-119,351,0,0,0,0,0,0,0,0,0,-1,1105,673,0,0
-112,351,0,0,0,0,0,0,0,0,0,-1,1112,673,0,0
-105,351,0,0,0,0,0,0,0,0,0,-1,1119,673,0,0
-98,351,0,0,0,0,0,0,0,0,0,-1,1126,673,0,0
-91,351,0,0,0,0,0,0,0,0,0,-1,1133,673,0,0
-84,351,0,0,0,0,0,0,0,0,0,-1,1140,673,0,0
-77,351,0,0,0,0,0,0,0,0,0,-1,1147,673,0,0
-70,351,0,0,0,0,0,0,0,0,0,-1,1154,673,0,0
-63,351,0,0,0,0,0,0,0,0,0,-1,1161,673,0,0
-56,351,0,0,0,0,0,0,0,0,0,-1,1168,673,0,0
-49,351,0,0,0,0,0,0,0,0,0,-1,1175,673,0,0
-42,351,0,0,0,0,0,0,0,0,0,-1,1182,673,0,0
-35,351,0,0,0,0,0,0,0,0,0,-1,1189,673,0,0
-28,351,0,0,0,0,0,0,0,0,0,-1,1196,673,0,0
-21,351,0,0,0,0,0,0,0,0,0,-1,1203,673,0,0
-14,351,0,0,0,0,0,0,0,0,0,-1,1210,673,0,0
-7,351,0,0,0,0,0,0,0,0,0,-1,1217,673,0,0
0,351,0,0,0,0,0,0,0,0,0,-1,1224,673,0,0
7,351,0,0,0,0,0,0,0,0,0,-1,1231,673,0,0
14,351,0,0,0,0,0,0,0,0,0,-1,1238,673,0,0
21,351,0,0,0,0,0,0,0,0,0,-1,1245,673,0,0
28,351,0,0,0,0,0,0,0,0,0,-1,1252,673,0,0
35,351,0,0,0,0,0,0,0,0,0,-1,1259,673,0,0
42,351,0,0,0,0,0,0,0,0,0,-1,1266,673,0,0
49,351,0,0,0,0,0,0,0,0,0,-1,1273,673,0,0
56,351,0,0,0,0,0,0,0,0,0,-1,1280,673,0,0
63,351,0,0,0,0,0,0,0,0,0,-1,1287,673,0,0
70,351,0,0,0,0,0,0,0,0,0,-1,1294,673,0,0
77,351,0,0,0,0,0,0,0,0,0,-1,1301,673,0,0
84,351,0,0,0,0,0,0,0,0,0,-1,1308,673,0,0
91,351,0,0,0,0,0,0,0,0,0,-1,1315,673,0,0
98,351,0,0,0,0,0,0,0,0,0,-1,1322,673,0,0
105,351,0,0,0,0,0,0,0,0,0,-1,1329,673,0,0
112,351,0,0,0,0,0,0,0,0,0,-1,1336,673,0,0
119,351,0,0,0,0,0,0,0,0,0,-1,1343,673,0,0
126,351,0,0,0,0,0,0,0,0,0,-1,1350,673,0,0
133,351,0,0,0,0,0,0,0,0,0,-1,1357,673,0,0
140,351,0,0,0,0,0,0,0,0,0,-1,1364,673,0,0
147,351,0,0,0,0,0,0,0,0,0,-1,1371,673,0,0
154,351,0,0,0,0,0,0,0,0,0,-1,1378,673,0,0
161,351,0,0,0,0,0,0,0,0,0,-1,1385,673,0,0
168,351,0,0,0,0,0,0,0,0,0,-1,1392,673,0,0
175,351,0,0,0,0,0,0,0,0,0,-1,1399,673,0,0
182,351,0,0,0,0,0,0,0,0,0,-1,1406,673,0,0
189,351,0,0,0,0,0,0,0,0,0,-1,1413,673,0,0
196,351,0,0,0,0,0,0,0,0,0,-1,1420,673,0,0
203,351,0,0,0,0,0,0,0,0,0,-1,1427,673,0,0
210,351,0,0,0,0,0,0,0,0,0,-1,1434,673,0,0
217,351,0,0,0,0,0,0,0,0,0,-1,1441,673,0,0
224,351,0,0,0,0,0,0,0,0,0,-1,1448,673,0,0
231,351,0,0,0,0,0,0,0,0,0,-1,1455,673,0,0
238,351,0,0,0,0,0,0,0,0,0,-1,1462,673,0,0
245,351,0,0,0,0,0,0,0,0,0,-1,1469,673,0,0
252,351,0,0,0,0,0,0,0,0,0,-1,1476,673,0,0
259,351,0,0,0,0,0,0,0,0,0,-1,1483,673,0,0
266,351,0,0,0,0,0,0,0,0,0,-1,1490,673,0,0
273,351,0,0,0,0,0,0,0,0,0,-1,1497,673,0,0
280,351,0,0,0,0,0,0,0,0,0,-1,1504,673,0,0
287,351,0,0,0,0,0,0,0,0,0,-1,1511,673,0,0
294,351,0,0,0,0,0,0,0,0,0,-1,1518,673,0,0
301,351,0,0,0,0,0,0,0,0,0,-1,1525,673,0,0
308,351,0,0,0,0,0,0,0,0,0,-1,1532,673,0,0
315,351,0,0,0,0,0,0,0,0,0,-1,1539,673,0,0
322,351,0,0,0,0,0,0,0,0,0,-1,1546,673,0,0
329,351,0,0,0,0,0,0,0,0,0,-1,1553,673,0,0
336,351,0,0,0,0,0,0,0,0,0,-1,1560,673,0,0
343,351,0,0,0,0,0,0,0,0,0,-1,1567,673,0,0
350,351,0,0,0,0,0,0,0,0,0,-1,1574,673,0,0
357,351,0,0,0,0,0,0,0,0,0,-1,1581,673,0,0
364,351,0,0,0,0,0,0,0,0,0,-1,1588,673,0,0
371,351,0,0,0,0,0,0,0,0,0,-1,1595,673,0,0
378,351,0,0,0,0,0,0,0,0,0,-1,1602,673,0,0
385,351,0,0,0,0,0,0,0,0,0,-1,1609,673,0,0
392,351,0,0,0,0,0,0,0,0,0,-1,1616,673,0,0
399,351,0,0,0,0,0,0,0,0,0,-1,1623,673,0,0
406,351,0,0,0,0,0,0,0,0,0,-1,1630,673,0,0
413,351,0,0,0,0,0,0,0,0,0,-1,1637,673,0,0
420,351,0,0,0,0,0,0,0,0,0,-1,1644,673,0,0
427,351,0,0,0,0,0,0,0,0,0,-1,1651,673,0,0
434,351,0,0,0,0,0,0,0,0,0,-1,1658,673,0,0
441,351,0,0,0,0,0,0,0,0,0,-1,1665,673,0,0
448,351,0,0,0,0,0,0,0,0,0,-1,1672,673,0,0
455,351,0,0,0,0,0,0,0,0,0,-1,1679,673,0,0
462,351,0,0,0,0,0,0,0,0,0,-1,1686,673,0,0
469,351,0,0,0,0,0,0,0,0,0,-1,1693,673,0,0
476,351,0,0,0,0,0,0,0,0,0,-1,1700,673,0,0
483,351,0,0,0,0,0,0,0,0,0,-1,1707,673,0,0
490,351,0,0,0,0,0,0,0,0,0,-1,1714,673,0,0
497,351,0,0,0,0,0,0,0,0,0,-1,1721,673,0,0
504,351,2.41284,1.34906,0,0,0,0,0,0,0,-1,1728,673,2.41282,-1.34907
511,351,4.10962,0.904907,0,0,0,0,0,0,0,-1,1735,673,4.10967,-0.904885
518,351,3.96045,0.819946,0.00581566,-0.0443852,0.0267288,0.0173821,-0.0559517,0.408403,0.0442482,0.0415192,1742,673,3.96041,-0.819964
525,351,3.78564,1.00775,-0.000845276,-0.0437076,0.0208487,0.00762276,-0.0521756,0.385811,0.0375832,0.0444612,1749,673,3.78561,-1.00773
532,351,3.57117,0.989136,-0.00496061,-0.0417537,0.0161762,0.00113982,-0.0478541,0.360632,0.0322894,0.0459514,1756,673,3.57118,-0.989165
539,351,3.75891,0.808838,0,0,0,0,0,0,0,-1,1763,673,3.75886,-0.808859
546,351,4.4375,0.107727,-0.00816211,-0.0380929,0.00990801,-0.00517947,-0.0410755,0.292404,0.0258309,0.0441265,1770,673,4.43753,-0.107718
553,351,3.7771,0.888489,-0.00776608,-0.0348041,0.00824239,-0.00545156,-0.0371187,0.273756,0.0231436,0.0471179,1777,673,3.77715,-0.88848
560,351,3.03577,0.571167,0,0,0,0,0,0,0,-1,1784,673,3.0358,-0.571181
567,351,2.87756,0.299805,-0.00461911,-0.0269039,0.00570352,-0.0032442,-0.0282788,0.236552,0.0178696,0.0477892,1791,673,2.8776,-0.299785
574,351,2.91675,0.214783,-0.00275698,-0.0230387,0.00442537,-0.00183344,-0.0239623,0.205739,0.0154001,0.0453954,1798,673,2.91669,-0.214807
581,351,2.90649,0.157043,-0.00105034,-0.0190172,0.00353952,-0.000378191,-0.0196894,0.187664,0.013002,0.0377708,1805,673,2.90649,-0.157027
588,351,3.00696,0.0878296,7.76074e-05,-0.0155065,0.00276954,0.000555164,-0.015984,0.170753,0.0108458,0.0200855,1812,673,3.00694,-0.0878291
595,351,3.03577,0.101318,0.000845128,-0.0120423,0.00222243,0.00121762,-0.0124148,0.166062,0.00871082,0.0138406,1819,673,3.03576,-0.101313
602,351,3.02246,0.121521,0.00137274,-0.00842276,0.00136002,0.00155806,-0.00860808,0.13543,0.00632239,0.0174388,1826,673,3.02244,-0.121497
609,351,3.02637,0.142212,0.00169381,-0.00607427,0.000732654,0.00176231,-0.00614276,0.0932207,0.00479188,0.016116,1833,673,3.02632,-0.142221
616,351,3.02051,0.194763,0.00146833,-0.00367586,0.000762389,0.00157894,-0.00378647,0.144079,0.00318392,0.0142914,1840,673,3.02055,-0.194782
623,351,3.0387,0.243896,0.00123933,-0.00195119,0.000881702,0.00146677,-0.00217863,0.252458,0.00211801,0.0154878,1847,673,3.03867,-0.243873
630,351,3.06799,0.262146,0.00106402,-0.000349725,0.000902759,0.00150373,-0.000789431,0.453249,0.0013452,0.0255878,1854,673,3.068,-0.262117
637,351,3.07971,0.322327,0.00090821,0.00100371,0.000888967,0.00184621,6.57093e-05,0.812228,0.0012095,0.0290965,1861,673,3.07976,-0.322313
644,351,3.04309,0.349365,0.000855869,0.0024278,0.00117234,0.00305326,0.000230411,1.0807,0.00196321,0.0204093,1868,673,3.04306,-0.349361
651,351,3.03589,0.352722,0.0010858,0.00298445,0.00146659,0.00378215,0.000288096,1.07264,0.0024311,0.0148123,1875,673,3.03586,-0.352739
658,351,3.0105,0.440125,0.00156088,0.0029856,0.00176393,0.00417558,0.000370896,0.977307,0.00266869,0.015119,1882,673,3.01053,-0.44013
665,351,2.98059,0.427429,0.00235053,0.00309572,0.00235637,0.00510877,0.000337478,0.863811,0.00329911,0.019757,1889,673,2.98064,-0.427438
672,351,3.01477,0.470886,0.0031456,0.0031864,0.00279041,0.00595649,0.000375511,0.789054,0.00385193,0.0267415,1896,673,3.0148,-0.470906
679,351,3.16052,0.539001,0.00404185,0.00265996,0.00324049,0.00666424,3.75689e-05,0.68036,0.00443036,0.0366346,1903,673,3.16048,-0.539017
686,351,3.39319,0.53009,0.00504098,0.00163156,0.0037421,0.00744837,-0.000775833,0.571669,0.00524336,0.0421916,1910,673,3.39322,-0.530069
693,351,3.5282,0.535339,0,0,0,0,0,0,0,-1,1917,673,3.52825,-0.535363
700,351,3.6571,-0.0949097,0,0,0,0,0,0,0,-1,1924,673,3.65706,0.094892
707,351,0,0,0,0,0,0,0,0,0,-1,1931,673,0,0
714,351,0,0,0,0,0,0,0,0,0,-1,1938,673,0,0
721,351,0,0,0,0,0,0,0,0,0,-1,1945,673,0,0
728,351,0,0,0,0,0,0,0,0,0,-1,1952,673,0,0
735,351,0,0,0,0,0,0,0,0,0,-1,1959,673,0,0
742,351,0,0,0,0,0,0,0,0,0,-1,1966,673,0,0
749,351,0,0,0,0,0,0,0,0,0,-1,1973,673,0,0
756,351,0,0,0,0,0,0,0,0,0,-1,1980,673,0,0
763,351,0,0,0,0,0,0,0,0,0,-1,1987,673,0,0
770,351,0,0,0,0,0,0,0,0,0,-1,1994,673,0,0
777,351,0,0,0,0,0,0,0,0,0,-1,2001,673,0,0
784,351,0,0,0,0,0,0,0,0,0,-1,2008,673,0,0
791,351,0,0,0,0,0,0,0,0,0,-1,2015,673,0,0
798,351,0,0,0,0,0,0,0,0,0,-1,2022,673,0,0
805,351,0,0,0,0,0,0,0,0,0,-1,2029,673,0,0
812,351,0,0,0,0,0,0,0,0,0,-1,2036,673,0,0
-700,344,0,0,0,0,0,0,0,0,0,-1,524,680,0,0
-693,344,0,0,0,0,0,0,0,0,0,-1,531,680,0,0
-686,344,0,0,0,0,0,0,0,0,0,-1,538,680,0,0
-679,344,0,0,0,0,0,0,0,0,0,-1,545,680,0,0
-672,344,0,0,0,0,0,0,0,0,0,-1,552,680,0,0
-665,344,0,0,0,0,0,0,0,0,0,-1,559,680,0,0
-658,344,0,0,0,0,0,0,0,0,0,-1,566,680,0,0
-651,344,0,0,0,0,0,0,0,0,0,-1,573,680,0,0
-644,344,0,0,0,0,0,0,0,0,0,-1,580,680,0,0
-637,344,0,0,0,0,0,0,0,0,0,-1,587,680,0,0
-630,344,0,0,0,0,0,0,0,0,0,-1,594,680,0,0
-623,344,0,0,0,0,0,0,0,0,0,-1,601,680,0,0
-616,344,0,0,0,0,0,0,0,0,0,-1,608,680,0,0
-609,344,0,0,0,0,0,0,0,0,0,-1,615,680,0,0
-602,344,0,0,0,0,0,0,0,0,0,-1,622,680,0,0
-595,344,0,0,0,0,0,0,0,0,0,-1,629,680,0,0
-588,344,-0.569763,-0.0220947,0,0,0,0,0,0,0,-1,636,680,-0.569766,0.0220998
-581,344,-0.314453,-0.122925,0.0414082,0.0277184,-0.00978961,0.0465085,0.022618,-0.480304,0.0268551,0.0453176,643,680,-0.314451,0.122945
-574,344,-0.0012207,-0.0541992,0.041085,0.0210378,-0.012469,0.0470598,0.0150631,-0.446845,0.0277501,0.0474761,650,680,-0.00122197,0.0541919
-567,344,0.00341797,0.180847,0.0391058,0.0147742,-0.0130596,0.0447882,0.00909171,-0.410408,0.0273369,0.0455587,657,680,0.00340224,-0.180868
-560,344,-0.0876465,0.253723,0.035854,0.00940318,-0.0122437,0.0406514,0.00460584,-0.373436,0.0257036,0.0466445,664,680,-0.0876397,-0.253709
-553,344,-0.316772,0.209778,0.0320778,0.00557434,-0.0106956,0.0358556,0.00179654,-0.339531,0.023328,0.0458522,671,680,-0.316799,-0.209799
-546,344,-0.0929565,0.327759,0.0276034,0.00255084,-0.00865322,0.0303017,-0.000147399,-0.302264,0.0202504,0.0396119,678,680,-0.092978,-0.327759
-539,344,0.24231,0.477905,0.0230678,0.000211488,-0.00658069,0.0248271,-0.00154778,-0.261229,0.0170907,0.0335428,685,680,0.242325,-0.477877
-532,344,0.431946,0.518188,0.0188349,-0.00123533,-0.00477317,0.0199122,-0.00231267,-0.221988,0.014109,0.0183628,692,680,0.431954,-0.518181
-525,344,0.420959,0.479431,0.0148432,-0.00220575,-0.00363144,0.0155845,-0.00294702,-0.201359,0.0114986,0.0162298,699,680,0.420931,-0.479403
-518,344,0.408203,0.41449,0.0111503,-0.00217788,-0.00225808,0.0115225,-0.00255005,-0.16335,0.00865777,0.0190962,706,680,0.408208,-0.414501
-511,344,0.391968,0.358887,0.00802423,-0.00210734,-0.000515353,0.00805037,-0.00213348,-0.0506917,0.00620164,0.0154682,713,680,0.391947,-0.358882
-504,344,0.374817,0.325684,0.00540715,-0.00162642,0.00039848,0.00542966,-0.00164892,0.0564133,0.00427672,0.0152467,720,680,0.374789,-0.325705
-497,344,0.398987,0.317749,0.00306479,-0.000612416,0.000532573,0.00314037,-0.000687996,0.140973,0.00235663,0.0139424,727,680,0.398962,-0.317774
-490,344,0.39679,0.27594,0.00126377,-6.31092e-05,0.000466477,0.00141135,-0.000210689,0.306409,0.00101842,0.0123989,734,680,0.396764,-0.27596
-483,344,0.4021,0.246338,0.000336283,0.000222418,0.00012586,0.000417488,0.000141213,0.572995,0.000245205,0.0115487,741,680,0.402086,-0.246367
-476,344,0.396362,0.232849,0.000403057,-8.80029e-05,-8.98254e-05,0.000418972,-0.000103918,-0.175359,0.000319635,0.0122571,748,680,0.396374,-0.232879
-469,344,0.399475,0.186035,0.000375897,-0.000597294,-0.00013353,0.000393886,-0.000615283,-0.133912,0.000587299,0.010797,755,680,0.399455,-0.186031
-462,344,0.399292,0.132446,0.000776327,-0.0013112,-0.00010777,0.000781876,-0.00131675,-0.0514434,0.00122469,0.0111678,762,680,0.399269,-0.132477
-455,344,0.385193,0.148682,0.00181192,-0.0016009,0.000209697,0.00182476,-0.00161374,0.0611375,0.00198646,0.0236954,769,680,0.385191,-0.148684
-448,344,0.314026,0.214172,0.00352831,-0.00246454,0.000579581,0.00358385,-0.00252007,0.0955323,0.0035419,0.0393754,776,680,0.314014,-0.214187
-441,344,0.190796,0.276306,0.00594778,-0.00350977,0.00113376,0.0060818,-0.00364379,0.117658,0.00567357,0.0435913,783,680,0.190784,-0.27633
-434,344,0.223511,0.478516,0.00852244,-0.00523933,0.00214886,0.00885018,-0.00556707,0.151349,0.00839543,0.0492214,790,680,0.223513,-0.47853
-427,344,0.203125,0.576294,0.0115588,-0.00797263,0.00372115,0.0122437,-0.00865757,0.182029,0.0121264,0.047631,797,680,0.203125,-0.576318
-420,344,0.282959,0.566956,0.0150967,-0.0129299,0.0059374,0.0163026,-0.0141358,0.200384,0.0175885,0.0440512,804,680,0.282936,-0.566947
-413,344,0.254944,0.903564,0,0,0,0,0,0,0,-1,811,680,0.25494,-0.903586
-406,344,0.399414,0.983398,0,0,0,0,0,0,0,-1,818,680,0.399423,-0.983429
-399,344,0.0795898,1.70319,0,0,0,0,0,0,0,-1,825,680,0.0796138,-1.70317
-392,344,-0.242737,1.82703,0,0,0,0,0,0,0,-1,832,680,-0.242724,-1.827
-385,344,0,0,0,0,0,0,0,0,0,-1,839,680,0,0
-378,344,0,0,0,0,0,0,0,0,0,-1,846,680,0,0
-371,344,0,0,0,0,0,0,0,0,0,-1,853,680,0,0
-364,344,0,0,0,0,0,0,0,0,0,-1,860,680,0,0
-357,344,0,0,0,0,0,0,0,0,0,-1,867,680,0,0
-350,344,0,0,0,0,0,0,0,0,0,-1,874,680,0,0
-343,344,0,0,0,0,0,0,0,0,0,-1,881,680,0,0
-336,344,0,0,0,0,0,0,0,0,0,-1,888,680,0,0
-329,344,0,0,0,0,0,0,0,0,0,-1,895,680,0,0
-322,344,0,0,0,0,0,0,0,0,0,-1,902,680,0,0
-315,344,0,0,0,0,0,0,0,0,0,-1,909,680,0,0
-308,344,0,0,0,0,0,0,0,0,0,-1,916,680,0,0
-301,344,0,0,0,0,0,0,0,0,0,-1,923,680,0,0
-294,344,0,0,0,0,0,0,0,0,0,-1,930,680,0,0
-287,344,0,0,0,0,0,0,0,0,0,-1,937,680,0,0
-280,344,0,0,0,0,0,0,0,0,0,-1,944,680,0,0
-273,344,0,0,0,0,0,0,0,0,0,-1,951,680,0,0
-266,344,0,0,0,0,0,0,0,0,0,-1,958,680,0,0
-259,344,0,0,0,0,0,0,0,0,0,-1,965,680,0,0
-252,344,0,0,0,0,0,0,0,0,0,-1,972,680,0,0
-245,344,0,0,0,0,0,0,0,0,0,-1,979,680,0,0
-238,344,0,0,0,0,0,0,0,0,0,-1,986,680,0,0
-231,344,0,0,0,0,0,0,0,0,0,-1,993,680,0,0
-224,344,0,0,0,0,0,0,0,0,0,-1,1000,680,0,0
-217,344,0,0,0,0,0,0,0,0,0,-1,1007,680,0,0
-210,344,0,0,0,0,0,0,0,0,0,-1,1014,680,0,0
-203,344,0,0,0,0,0,0,0,0,0,-1,1021,680,0,0
-196,344,0,0,0,0,0,0,0,0,0,-1,1028,680,0,0
-189,344,0,0,0,0,0,0,0,0,0,-1,1035,680,0,0
-182,344,0,0,0,0,0,0,0,0,0,-1,1042,680,0,0
-175,344,0,0,0,0,0,0,0,0,0,-1,1049,680,0,0
-168,344,0,0,0,0,0,0,0,0,0,-1,1056,680,0,0
-161,344,0,0,0,0,0,0,0,0,0,-1,1063,680,0,0
-154,344,0,0,0,0,0,0,0,0,0,-1,1070,680,0,0
-147,344,0,0,0,0,0,0,0,0,0,-1,1077,680,0,0
-140,344,0,0,0,0,0,0,0,0,0,-1,1084,680,0,0
-133,344,0,0,0,0,0,0,0,0,0,-1,1091,680,0,0
-126,344,0,0,0,0,0,0,0,0,0,-1,1098,680,0,0
-119,344,0,0,0,0,0,0,0,0,0,-1,1105,680,0,0
-112,344,0,0,0,0,0,0,0,0,0,-1,1112,680,0,0
-105,344,0,0,0,0,0,0,0,0,0,-1,1119,680,0,0
-98,344,0,0,0,0,0,0,0,0,0,-1,1126,680,0,0
-91,344,0,0,0,0,0,0,0,0,0,-1,1133,680,0,0
-84,344,0,0,0,0,0,0,0,0,0,-1,1140,680,0,0
-77,344,0,0,0,0,0,0,0,0,0,-1,1147,680,0,0
-70,344,0,0,0,0,0,0,0,0,0,-1,1154,680,0,0
-63,344,0,0,0,0,0,0,0,0,0,-1,1161,680,0,0
-56,344,0,0,0,0,0,0,0,0,0,-1,1168,680,0,0
-49,344,0,0,0,0,0,0,0,0,0,-1,1175,680,0,0
-42,344,0,0,0,0,0,0,0,0,0,-1,1182,680,0,0
-35,344,0,0,0,0,0,0,0,0,0,-1,1189,680,0,0
-28,344,0,0,0,0,0,0,0,0,0,-1,1196,680,0,0
-21,344,0,0,0,0,0,0,0,0,0,-1,1203,680,0,0
-14,344,0,0,0,0,0,0,0,0,0,-1,1210,680,0,0
-7,344,0,0,0,0,0,0,0,0,0,-1,1217,680,0,0
0,344,0,0,0,0,0,0,0,0,0,-1,1224,680,0,0
7,344,0,0,0,0,0,0,0,0,0,-1,1231,680,0,0
14,344,0,0,0,0,0,0,0,0,0,-1,1238,680,0,0
21,344,0,0,0,0,0,0,0,0,0,-1,1245,680,0,0
28,344,0,0,0,0,0,0,0,0,0,-1,1252,680,0,0
35,344,0,0,0,0,0,0,0,0,0,-1,1259,680,0,0
42,344,0,0,0,0,0,0,0,0,0,-1,1266,680,0,0
49,344,0,0,0,0,0,0,0,0,0,-1,1273,680,0,0
56,344,0,0,0,0,0,0,0,0,0,-1,1280,680,0,0
63,344,0,0,0,0,0,0,0,0,0,-1,1287,680,0,0
70,344,0,0,0,0,0,0,0,0,0,-1,1294,680,0,0
77,344,0,0,0,0,0,0,0,0,0,-1,1301,680,0,0
84,344,0,0,0,0,0,0,0,0,0,-1,1308,680,0,0
91,344,0,0,0,0,0,0,0,0,0,-1,1315,680,0,0
98,344,0,0,0,0,0,0,0,0,0,-1,1322,680,0,0
105,344,0,0,0,0,0,0,0,0,0,-1,1329,680,0,0
112,344,0,0,0,0,0,0,0,0,0,-1,1336,680,0,0
119,344,0,0,0,0,0,0,0,0,0,-1,1343,680,0,0
126,344,0,0,0,0,0,0,0,0,0,-1,1350,680,0,0
133,344,0,0,0,0,0,0,0,0,0,-1,1357,680,0,0
140,344,0,0,0,0,0,0,0,0,0,-1,1364,680,0,0
147,344,0,0,0,0,0,0,0,0,0,-1,1371,680,0,0
154,344,0,0,0,0,0,0,0,0,0,-1,1378,680,0,0
161,344,0,0,0,0,0,0,0,0,0,-1,1385,680,0,0
168,344,0,0,0,0,0,0,0,0,0,-1,1392,680,0,0
175,344,0,0,0,0,0,0,0,0,0,-1,1399,680,0,0
182,344,0,0,0,0,0,0,0,0,0,-1,1406,680,0,0
189,344,0,0,0,0,0,0,0,0,0,-1,1413,680,0,0
196,344,0,0,0,0,0,0,0,0,0,-1,1420,680,0,0
203,344,0,0,0,0,0,0,0,0,0,-1,1427,680,0,0
210,344,0,0,0,0,0,0,0,0,0,-1,1434,680,0,0
217,344,0,0,0,0,0,0,0,0,0,-1,1441,680,0,0
224,344,0,0,0,0,0,0,0,0,0,-1,1448,680,0,0
231,344,0,0,0,0,0,0,0,0,0,-1,1455,680,0,0
238,344,0,0,0,0,0,0,0,0,0,-1,1462,680,0,0
245,344,0,0,0,0,0,0,0,0,0,-1,1469,680,0,0
252,344,0,0,0,0,0,0,0,0,0,-1,1476,680,0,0
259,344,0,0,0,0,0,0,0,0,0,-1,1483,680,0,0
266,344,0,0,0,0,0,0,0,0,0,-1,1490,680,0,0
273,344,0,0,0,0,0,0,0,0,0,-1,1497,680,0,0
280,344,0,0,0,0,0,0,0,0,0,-1,1504,680,0,0
287,344,0,0,0,0,0,0,0,0,0,-1,1511,680,0,0
294,344,0,0,0,0,0,0,0,0,0,-1,1518,680,0,0
301,344,0,0,0,0,0,0,0,0,0,-1,1525,680,0,0
308,344,0,0,0,0,0,0,0,0,0,-1,1532,680,0,0
315,344,0,0,0,0,0,0,0,0,0,-1,1539,680,0,0
322,344,0,0,0,0,0,0,0,0,0,-1,1546,680,0,0
329,344,0,0,0,0,0,0,0,0,0,-1,1553,680,0,0
336,344,0,0,0,0,0,0,0,0,0,-1,1560,680,0,0
343,344,0,0,0,0,0,0,0,0,0,-1,1567,680,0,0
350,344,0,0,0,0,0,0,0,0,0,-1,1574,680,0,0
357,344,0,0,0,0,0,0,0,0,0,-1,1581,680,0,0
364,344,0,0,0,0,0,0,0,0,0,-1,1588,680,0,0
371,344,0,0,0,0,0,0,0,0,0,-1,1595,680,0,0
378,344,0,0,0,0,0,0,0,0,0,-1,1602,680,0,0
385,344,0,0,0,0,0,0,0,0,0,-1,1609,680,0,0
392,344,0,0,0,0,0,0,0,0,0,-1,1616,680,0,0
399,344,0,0,0,0,0,0,0,0,0,-1,1623,680,0,0
406,344,0,0,0,0,0,0,0,0,0,-1,1630,680,0,0
413,344,0,0,0,0,0,0,0,0,0,-1,1637,680,0,0
420,344,0,0,0,0,0,0,0,0,0,-1,1644,680,0,0
427,344,0,0,0,0,0,0,0,0,0,-1,1651,680,0,0
434,344,0,0,0,0,0,0,0,0,0,-1,1658,680,0,0
441,344,0,0,0,0,0,0,0,0,0,-1,1665,680,0,0
448,344,0,0,0,0,0,0,0,0,0,-1,1672,680,0,0
455,344,0,0,0,0,0,0,0,0,0,-1,1679,680,0,0
462,344,0,0,0,0,0,0,0,0,0,-1,1686,680,0,0
469,344,0,0,0,0,0,0,0,0,0,-1,1693,680,0,0
476,344,0,0,0,0,0,0,0,0,0,-1,1700,680,0,0
483,344,0,0,0,0,0,0,0,0,0,-1,1707,680,0,0
490,344,0,0,0,0,0,0,0,0,0,-1,1714,680,0,0
497,344,0,0,0,0,0,0,0,0,0,-1,1721,680,0,0
504,344,0,0,0,0,0,0,0,0,0,-1,1728,680,0,0
511,344,3.73804,1.44196,0,0,0,0,0,0,0,-1,1735,680,3.73804,-1.44196
518,344,3.73401,1.38849,0.010418,-0.0479753,0.0272505,0.0211592,-0.0587165,0.375467,0.0477853,0.0433114,1742,680,3.73398,-1.38852
525,344,3.61768,1.39685,0.00287768,-0.0477159,0.0215401,0.0108059,-0.0556442,0.352681,0.0411735,0.0432862,1749,680,3.61765,-1.39687
532,344,3.36853,1.37561,-0.00178058,-0.0458117,0.0171544,0.00411369,-0.051706,0.330963,0.0359205,0.0453818,1756,680,3.36853,-1.37559
539,344,3.3396,1.32141,-0.00420869,-0.0439317,0.0138309,0.000132527,-0.048273,0.304141,0.0322262,0.047305,1763,680,3.3396,-1.32142
546,344,3.03491,1.27643,-0.00519477,-0.0417781,0.011467,-0.00189764,-0.0450753,0.279981,0.029438,0.0463728,1770,680,3.03497,-1.27645
553,344,3.13269,1.24957,-0.00484886,-0.0383706,0.00990611,-0.00214033,-0.0410792,0.266897,0.0267013,0.0484188,1777,680,3.13271,-1.24959
560,344,2.88843,0.945435,-0.00399025,-0.0344337,0.00852457,-0.00176579,-0.0366581,0.255255,0.0238719,0.0471804,1784,680,2.88837,-0.945408
567,344,2.91736,0.513245,-0.00236496,-0.0301433,0.00730788,-0.000559732,-0.0319485,0.242177,0.0211149,0.0447791,1791,680,2.91732,-0.513263
574,344,2.85291,0.474854,-0.000934096,-0.0260654,0.00595828,0.000406967,-0.0274065,0.221386,0.0184081,0.0446973,1798,680,2.85296,-0.474858
581,344,2.63232,0.4245,0.000460996,-0.0218199,0.00496727,0.00151823,-0.0228771,0.20971,0.0157818,0.0436566,1805,680,2.63237,-0.424517
588,344,3.06311,0.133667,0.00125548,-0.0181534,0.00406494,0.00207244,-0.0189704,0.198335,0.0133913,0.0341833,1812,680,3.06306,-0.133676
595,344,3.10181,0.0827026,0.00172696,-0.0144573,0.00328994,0.00237017,-0.0151005,0.193074,0.010943,0.0158001,1819,680,3.10186,-0.0826728
602,344,3.12488,0.139709,0.00206392,-0.0104342,0.00221094,0.00244351,-0.0108138,0.17003,0.00814677,0.0157,1826,680,3.12482,-0.139681
609,344,3.09717,0.175842,0.00221879,-0.00779261,0.00134914,0.00239741,-0.00797123,0.131633,0.00626803,0.0151036,1833,680,3.09718,-0.175816
616,344,3.0686,0.225525,0.00181331,-0.00519545,0.00115798,0.00199967,-0.00538182,0.159571,0.0044083,0.0216967,1840,680,3.06856,-0.225497
623,344,3.07263,0.265686,0.00141225,-0.00334223,0.00103892,0.00162936,-0.00355933,0.206006,0.00306399,0.0193656,1847,680,3.07267,-0.265675
630,344,3.11084,0.266602,0.00117084,-0.00167316,0.000860483,0.00141092,-0.00191325,0.272088,0.0019265,0.0251023,1854,680,3.1109,-0.266601
637,344,3.15857,0.291809,0.000926649,-0.000338272,0.00065678,0.00120598,-0.000617605,0.40213,0.00107096,0.0243623,1861,680,3.15854,-0.291801
644,344,3.10059,0.333435,0.000740774,0.00112366,0.000729597,0.00168652,0.000177922,0.913705,0.00106998,0.0157985,1868,680,3.10064,-0.333464
651,344,3.08264,0.370972,0.000839772,0.00162742,0.000819672,0.00214297,0.000324224,1.00935,0.00133377,0.0111364,1875,680,3.08261,-0.37096
658,344,3.07043,0.424744,0.00119089,0.00152172,0.000925684,0.00229665,0.000415956,0.873813,0.00141301,0.0151369,1882,680,3.07042,-0.424742
665,344,3.05457,0.461853,0.00183947,0.00153783,0.00136598,0.00306293,0.000314363,0.730414,0.00194565,0.0184397,1889,680,3.05453,-0.461848
672,344,3.0741,0.480713,0.00246186,0.0015997,0.00161804,0.00370526,0.000356304,0.655211,0.00236038,0.0129733,1896,680,3.0741,-0.4807
679,344,3.20007,0.454895,0.00315576,0.00114233,0.0019157,0.00431316,-1.50662e-05,0.543476,0.00288048,0.0285482,1903,680,3.20009,-0.454915
686,344,3.46021,0.386108,0.00396841,0.000356094,0.00230916,0.00509388,-0.000769373,0.453511,0.00367929,0.0413463,1910,680,3.46026,-0.386081
693,344,3.61194,0.340881,0,0,0,0,0,0,0,-1,1917,680,3.61188,-0.340903
700,344,3.63342,0.0258179,0.00568139,-0.00211864,0.003695,0.00715382,-0.00359107,0.379205,0.00631621,0.0440366,1924,680,3.63346,-0.0258474
707,344,3.55798,-0.164734,0.00648362,-0.00357328,0.0049588,0.00851739,-0.00560705,0.389212,0.00821225,0.0412198,1931,680,3.55799,0.164704
714,344,0,0,0,0,0,0,0,0,0,-1,1938,680,0,0
721,344,0,0,0,0,0,0,0,0,0,-1,1945,680,0,0
728,344,0,0,0,0,0,0,0,0,0,-1,1952,680,0,0
735,344,0,0,0,0,0,0,0,0,0,-1,1959,680,0,0
742,344,0,0,0,0,0,0,0,0,0,-1,1966,680,0,0
749,344,0,0,0,0,0,0,0,0,0,-1,1973,680,0,0
756,344,0,0,0,0,0,0,0,0,0,-1,1980,680,0,0
763,344,0,0,0,0,0,0,0,0,0,-1,1987,680,0,0
770,344,0,0,0,0,0,0,0,0,0,-1,1994,680,0,0
777,344,0,0,0,0,0,0,0,0,0,-1,2001,680,0,0
784,344,0,0,0,0,0,0,0,0,0,-1,2008,680,0,0
791,344,0,0,0,0,0,0,0,0,0,-1,2015,680,0,0
798,344,0,0,0,0,0,0,0,0,0,-1,2022,680,0,0
805,344,0,0,0,0,0,0,0,0,0,-1,2029,680,0,0
812,344,0,0,0,0,0,0,0,0,0,-1,2036,680,0,0
-700,337,0,0,0,0,0,0,0,0,0,-1,524,687,0,0
-693,337,0,0,0,0,0,0,0,0,0,-1,531,687,0,0
-686,337,0,0,0,0,0,0,0,0,0,-1,538,687,0,0
-679,337,0,0,0,0,0,0,0,0,0,-1,545,687,0,0
-672,337,0,0,0,0,0,0,0,0,0,-1,552,687,0,0
-665,337,0,0,0,0,0,0,0,0,0,-1,559,687,0,0
-658,337,0,0,0,0,0,0,0,0,0,-1,566,687,0,0
-651,337,0,0,0,0,0,0,0,0,0,-1,573,687,0,0
-644,337,0,0,0,0,0,0,0,0,0,-1,580,687,0,0
-637,337,0,0,0,0,0,0,0,0,0,-1,587,687,0,0
-630,337,0,0,0,0,0,0,0,0,0,-1,594,687,0,0
-623,337,0,0,0,0,0,0,0,0,0,-1,601,687,0,0
-616,337,0,0,0,0,0,0,0,0,0,-1,608,687,0,0
-609,337,0,0,0,0,0,0,0,0,0,-1,615,687,0,0
-602,337,0,0,0,0,0,0,0,0,0,-1,622,687,0,0
-595,337,0,0,0,0,0,0,0,0,0,-1,629,687,0,0
-588,337,-0.828674,-0.335327,0.0338161,0.0232596,0.00131267,0.0339768,0.0230988,0.121875,0.020035,0.0489584,636,687,-0.828665,0.335318
-581,337,-0.789001,-0.393494,0.0355261,0.0201096,-0.00427998,0.0366346,0.0190011,-0.25343,0.0211559,0.0478551,643,687,-0.78898,0.393483
-574,337,-0.730347,-0.0143433,0,0,0,0,0,0,0,-1,650,687,-0.73037,0.0143329
-567,337,-0.51947,0.312073,0.0334207,0.0112671,-0.0089253,0.0365691,0.00811867,-0.339123,0.0221742,0.0451143,657,687,-0.519461,-0.312093
-560,337,-0.215332,0.378784,0.0304943,0.00721416,-0.00898055,0.0335559,0.00415248,-0.328567,0.021123,0.0434874,664,687,-0.215328,-0.378814
-553,337,-0.229004,0.383911,0.0272425,0.00439047,-0.00827097,0.0299219,0.00171107,-0.313285,0.0194027,0.0434776,671,687,-0.229016,-0.383928
-546,337,-0.0170288,0.448303,0.023332,0.0020097,-0.00696693,0.0254066,-6.48545e-05,-0.289412,0.0169594,0.0366154,678,687,-0.0170274,-0.448319
-539,337,0.322754,0.529175,0.0193758,3.66636e-05,-0.00546669,0.0208141,-0.00140166,-0.257276,0.0143661,0.0212002,685,687,0.322742,-0.529177
-532,337,0.384521,0.512939,0.0156666,-0.00120949,-0.00404333,0.0165853,-0.00212821,-0.223427,0.0118302,0.0117889,692,687,0.384524,-0.512968
-525,337,0.376648,0.472168,0.0122361,-0.00206313,-0.00320929,0.0129234,-0.00275038,-0.210959,0.00966375,0.0142983,699,687,0.376643,-0.472141
-518,337,0.348938,0.416992,0.00912468,-0.00189252,-0.00198315,0.00947078,-0.00223862,-0.172783,0.00717739,0.0215428,706,687,0.348923,-0.41698
-511,337,0.324768,0.368164,0.00663788,-0.00162605,-0.000365414,0.006654,-0.00164218,-0.0441032,0.00507279,0.0211647,713,687,0.324748,-0.36816
-504,337,0.325623,0.313599,0.00466241,-0.00100922,0.00048888,0.00470425,-0.00105105,0.0853584,0.00353893,0.0207146,720,687,0.32561,-0.313613
-497,337,0.36145,0.317688,0.00287961,0.000120042,0.000715643,0.00305416,-5.45062e-05,0.239233,0.00205452,0.0149624,727,687,0.361438,-0.317682
-490,337,0.347473,0.291748,0.00150661,0.000764034,0.00069757,0.00192555,0.000345094,0.540839,0.00118553,0.0124624,734,687,0.347476,-0.291755
-483,337,0.373413,0.254456,0.00108125,0.00118633,0.000491103,0.00162769,0.000639885,0.838684,0.000946879,0.0121245,741,687,0.373422,-0.254446
-476,337,0.375183,0.220825,0.00190313,0.000929416,0.000458345,0.00208493,0.00074761,0.377622,0.00121968,0.0108324,748,687,0.375209,-0.220836
-469,337,0.37915,0.159668,0.00251877,0.000427707,0.000454992,0.00261348,0.000332995,0.20523,0.00164261,0.0100643,755,687,0.379131,-0.159642
-462,337,0.365112,0.101563,0.00364934,-0.000284974,0.000509547,0.00371426,-0.000349896,0.126728,0.00260067,0.020101,762,687,0.365087,-0.101585
-455,337,0.280151,0.0939941,0.00546874,-0.00084383,0.000815511,0.0055724,-0.000947482,0.126423,0.00406771,0.0386979,769,687,0.280133,-0.0940245
-448,337,0.173218,0.106445,0.00806081,-0.00205184,0.00120114,0.00820152,-0.00219255,0.116615,0.00632647,0.0450751,776,687,0.173209,-0.10642
-441,337,0.267761,0.498108,0.011572,-0.00370711,0.00176493,0.0117732,-0.00390833,0.113521,0.00942567,0.0468271,783,687,0.267769,-0.498097
-434,337,0.384583,0.600464,0.0155869,-0.00609991,0.00282162,0.015948,-0.00646101,0.127285,0.0133187,0.0461439,790,687,0.384559,-0.600447
-427,337,0.467712,0.638184,0.0203832,-0.00946325,0.00458117,0.0210706,-0.0101506,0.148925,0.0183894,0.0440757,797,687,0.467738,-0.63816
-420,337,0.527832,0.721741,0.0258599,-0.0149959,0.00717533,0.0270834,-0.0162194,0.168895,0.0252618,0.0460111,804,687,0.52783,-0.721711
-413,337,0.0350952,1.07452,0,0,0,0,0,0,0,-1,811,687,0.0350921,-1.07455
-406,337,-3.24567,1.18298,0,0,0,0,0,0,0,-1,818,687,-3.24568,-1.18298
-399,337,-0.0504761,1.75134,0,0,0,0,0,0,0,-1,825,687,-0.0504818,-1.75137
-392,337,0,0,0,0,0,0,0,0,0,-1,832,687,0,0
-385,337,0,0,0,0,0,0,0,0,0,-1,839,687,0,0
-378,337,0,0,0,0,0,0,0,0,0,-1,846,687,0,0
-371,337,0,0,0,0,0,0,0,0,0,-1,853,687,0,0
-364,337,0,0,0,0,0,0,0,0,0,-1,860,687,0,0
-357,337,0,0,0,0,0,0,0,0,0,-1,867,687,0,0
-350,337,0,0,0,0,0,0,0,0,0,-1,874,687,0,0
-343,337,0,0,0,0,0,0,0,0,0,-1,881,687,0,0
-336,337,0,0,0,0,0,0,0,0,0,-1,888,687,0,0
-329,337,0,0,0,0,0,0,0,0,0,-1,895,687,0,0
-322,337,0,0,0,0,0,0,0,0,0,-1,902,687,0,0
-315,337,0,0,0,0,0,0,0,0,0,-1,909,687,0,0
-308,337,0,0,0,0,0,0,0,0,0,-1,916,687,0,0
-301,337,0,0,0,0,0,0,0,0,0,-1,923,687,0,0
-294,337,0,0,0,0,0,0,0,0,0,-1,930,687,0,0
-287,337,0,0,0,0,0,0,0,0,0,-1,937,687,0,0
-280,337,0,0,0,0,0,0,0,0,0,-1,944,687,0,0
-273,337,0,0,0,0,0,0,0,0,0,-1,951,687,0,0
-266,337,0,0,0,0,0,0,0,0,0,-1,958,687,0,0
-259,337,0,0,0,0,0,0,0,0,0,-1,965,687,0,0
-252,337,0,0,0,0,0,0,0,0,0,-1,972,687,0,0
-245,337,0,0,0,0,0,0,0,0,0,-1,979,687,0,0
-238,337,0,0,0,0,0,0,0,0,0,-1,986,687,0,0
-231,337,0,0,0,0,0,0,0,0,0,-1,993,687,0,0
-224,337,0,0,0,0,0,0,0,0,0,-1,1000,687,0,0
-217,337,0,0,0,0,0,0,0,0,0,-1,1007,687,0,0
-210,337,0,0,0,0,0,0,0,0,0,-1,1014,687,0,0
-203,337,0,0,0,0,0,0,0,0,0,-1,1021,687,0,0
-196,337,0,0,0,0,0,0,0,0,0,-1,1028,687,0,0
-189,337,0,0,0,0,0,0,0,0,0,-1,1035,687,0,0
-182,337,0,0,0,0,0,0,0,0,0,-1,1042,687,0,0
-175,337,0,0,0,0,0,0,0,0,0,-1,1049,687,0,0
-168,337,0,0,0,0,0,0,0,0,0,-1,1056,687,0,0
-161,337,0,0,0,0,0,0,0,0,0,-1,1063,687,0,0
-154,337,0,0,0,0,0,0,0,0,0,-1,1070,687,0,0
-147,337,0,0,0,0,0,0,0,0,0,-1,1077,687,0,0
-140,337,0,0,0,0,0,0,0,0,0,-1,1084,687,0,0
-133,337,0,0,0,0,0,0,0,0,0,-1,1091,687,0,0
-126,337,0,0,0,0,0,0,0,0,0,-1,1098,687,0,0
-119,337,0,0,0,0,0,0,0,0,0,-1,1105,687,0,0
-112,337,0,0,0,0,0,0,0,0,0,-1,1112,687,0,0
-105,337,0,0,0,0,0,0,0,0,0,-1,1119,687,0,0
-98,337,0,0,0,0,0,0,0,0,0,-1,1126,687,0,0
-91,337,0,0,0,0,0,0,0,0,0,-1,1133,687,0,0
-84,337,0,0,0,0,0,0,0,0,0,-1,1140,687,0,0
-77,337,0,0,0,0,0,0,0,0,0,-1,1147,687,0,0
-70,337,0,0,0,0,0,0,0,0,0,-1,1154,687,0,0
-63,337,0,0,0,0,0,0,0,0,0,-1,1161,687,0,0
-56,337,0,0,0,0,0,0,0,0,0,-1,1168,687,0,0
-49,337,0,0,0,0,0,0,0,0,0,-1,1175,687,0,0
-42,337,0,0,0,0,0,0,0,0,0,-1,1182,687,0,0
-35,337,0,0,0,0,0,0,0,0,0,-1,1189,687,0,0
-28,337,0,0,0,0,0,0,0,0,0,-1,1196,687,0,0
-21,337,0,0,0,0,0,0,0,0,0,-1,1203,687,0,0
-14,337,0,0,0,0,0,0,0,0,0,-1,1210,687,0,0
-7,337,0,0,0,0,0,0,0,0,0,-1,1217,687,0,0
0,337,0,0,0,0,0,0,0,0,0,-1,1224,687,0,0
7,337,0,0,0,0,0,0,0,0,0,-1,1231,687,0,0
14,337,0,0,0,0,0,0,0,0,0,-1,1238,687,0,0
21,337,0,0,0,0,0,0,0,0,0,-1,1245,687,0,0
28,337,0,0,0,0,0,0,0,0,0,-1,1252,687,0,0
35,337,0,0,0,0,0,0,0,0,0,-1,1259,687,0,0
42,337,0,0,0,0,0,0,0,0,0,-1,1266,687,0,0
49,337,0,0,0,0,0,0,0,0,0,-1,1273,687,0,0
56,337,0,0,0,0,0,0,0,0,0,-1,1280,687,0,0
63,337,0,0,0,0,0,0,0,0,0,-1,1287,687,0,0
70,337,0,0,0,0,0,0,0,0,0,-1,1294,687,0,0
77,337,0,0,0,0,0,0,0,0,0,-1,1301,687,0,0
84,337,0,0,0,0,0,0,0,0,0,-1,1308,687,0,0
91,337,0,0,0,0,0,0,0,0,0,-1,1315,687,0,0
98,337,0,0,0,0,0,0,0,0,0,-1,1322,687,0,0
105,337,0,0,0,0,0,0,0,0,0,-1,1329,687,0,0
112,337,0,0,0,0,0,0,0,0,0,-1,1336,687,0,0
119,337,0,0,0,0,0,0,0,0,0,-1,1343,687,0,0
126,337,0,0,0,0,0,0,0,0,0,-1,1350,687,0,0
133,337,0,0,0,0,0,0,0,0,0,-1,1357,687,0,0
140,337,0,0,0,0,0,0,0,0,0,-1,1364,687,0,0
147,337,0,0,0,0,0,0,0,0,0,-1,1371,687,0,0
154,337,0,0,0,0,0,0,0,0,0,-1,1378,687,0,0
161,337,0,0,0,0,0,0,0,0,0,-1,1385,687,0,0
168,337,0,0,0,0,0,0,0,0,0,-1,1392,687,0,0
175,337,0,0,0,0,0,0,0,0,0,-1,1399,687,0,0
182,337,0,0,0,0,0,0,0,0,0,-1,1406,687,0,0
189,337,0,0,0,0,0,0,0,0,0,-1,1413,687,0,0
196,337,0,0,0,0,0,0,0,0,0,-1,1420,687,0,0
203,337,0,0,0,0,0,0,0,0,0,-1,1427,687,0,0
210,337,0,0,0,0,0,0,0,0,0,-1,1434,687,0,0
217,337,0,0,0,0,0,0,0,0,0,-1,1441,687,0,0
224,337,0,0,0,0,0,0,0,0,0,-1,1448,687,0,0
231,337,0,0,0,0,0,0,0,0,0,-1,1455,687,0,0
238,337,0,0,0,0,0,0,0,0,0,-1,1462,687,0,0
245,337,0,0,0,0,0,0,0,0,0,-1,1469,687,0,0
252,337,0,0,0,0,0,0,0,0,0,-1,1476,687,0,0
259,337,0,0,0,0,0,0,0,0,0,-1,1483,687,0,0
266,337,0,0,0,0,0,0,0,0,0,-1,1490,687,0,0
273,337,0,0,0,0,0,0,0,0,0,-1,1497,687,0,0
280,337,0,0,0,0,0,0,0,0,0,-1,1504,687,0,0
287,337,0,0,0,0,0,0,0,0,0,-1,1511,687,0,0
294,337,0,0,0,0,0,0,0,0,0,-1,1518,687,0,0
301,337,0,0,0,0,0,0,0,0,0,-1,1525,687,0,0
308,337,0,0,0,0,0,0,0,0,0,-1,1532,687,0,0
315,337,0,0,0,0,0,0,0,0,0,-1,1539,687,0,0
322,337,0,0,0,0,0,0,0,0,0,-1,1546,687,0,0
329,337,0,0,0,0,0,0,0,0,0,-1,1553,687,0,0
336,337,0,0,0,0,0,0,0,0,0,-1,1560,687,0,0
343,337,0,0,0,0,0,0,0,0,0,-1,1567,687,0,0
350,337,0,0,0,0,0,0,0,0,0,-1,1574,687,0,0
357,337,0,0,0,0,0,0,0,0,0,-1,1581,687,0,0
364,337,0,0,0,0,0,0,0,0,0,-1,1588,687,0,0
371,337,0,0,0,0,0,0,0,0,0,-1,1595,687,0,0
378,337,0,0,0,0,0,0,0,0,0,-1,1602,687,0,0
385,337,0,0,0,0,0,0,0,0,0,-1,1609,687,0,0
392,337,0,0,0,0,0,0,0,0,0,-1,1616,687,0,0
399,337,0,0,0,0,0,0,0,0,0,-1,1623,687,0,0
406,337,0,0,0,0,0,0,0,0,0,-1,1630,687,0,0
413,337,0,0,0,0,0,0,0,0,0,-1,1637,687,0,0
420,337,0,0,0,0,0,0,0,0,0,-1,1644,687,0,0
427,337,0,0,0,0,0,0,0,0,0,-1,1651,687,0,0
434,337,0,0,0,0,0,0,0,0,0,-1,1658,687,0,0
441,337,0,0,0,0,0,0,0,0,0,-1,1665,687,0,0
448,337,0,0,0,0,0,0,0,0,0,-1,1672,687,0,0
455,337,0,0,0,0,0,0,0,0,0,-1,1679,687,0,0
462,337,0,0,0,0,0,0,0,0,0,-1,1686,687,0,0
469,337,0,0,0,0,0,0,0,0,0,-1,1693,687,0,0
476,337,0,0,0,0,0,0,0,0,0,-1,1700,687,0,0
483,337,0,0,0,0,0,0,0,0,0,-1,1707,687,0,0
490,337,0,0,0,0,0,0,0,0,0,-1,1714,687,0,0
497,337,0,0,0,0,0,0,0,0,0,-1,1721,687,0,0
504,337,0,0,0,0,0,0,0,0,0,-1,1728,687,0,0
511,337,0,0,0,0,0,0,0,0,0,-1,1735,687,0,0
518,337,3.56921,1.90991,0.0164218,-0.0490787,0.0263719,0.0257198,-0.0583767,0.338965,0.0497584,0.0480751,1742,687,3.56922,-1.90991
525,337,3.70166,2.09369,0.00824398,-0.0495844,0.0211207,0.0151364,-0.0564768,0.31544,0.0435819,0.042135,1749,687,3.7016,-2.09367
532,337,3.30872,2.01904,0.00307443,-0.0480957,0.017223,0.00833134,-0.0533526,0.296244,0.038646,0.0388964,1756,687,3.30866,-2.01903
539,337,2.98108,1.84741,0.000451989,-0.0461595,0.0144432,0.00456453,-0.050272,0.277399,0.0351352,0.0411331,1763,687,2.98107,-1.84741
546,337,2.76062,1.85309,-0.000606466,-0.0439962,0.0124369,0.00270554,-0.0473082,0.260265,0.0324783,0.0436269,1770,687,2.76057,-1.85307
553,337,2.5387,1.77167,-0.000414077,-0.0406363,0.0110131,0.00240395,-0.0434543,0.250504,0.0298032,0.0462304,1777,687,2.53868,-1.77166
560,337,2.51294,1.49396,0.000132551,-0.0368115,0.00963996,0.00249666,-0.0391756,0.240495,0.0269878,0.0442592,1784,687,2.51289,-1.49396
567,337,2.94373,0.600159,0,0,0,0,0,0,0,-1,1791,687,2.94372,-0.600173
574,337,2.64648,0.671387,0.00201331,-0.0284209,0.00696933,0.00353334,-0.0299409,0.21474,0.0212366,0.0452409,1798,687,2.64647,-0.671373
581,337,2.42725,0.676941,0.00291791,-0.0241236,0.00587814,0.0041404,-0.0253461,0.20505,0.0184332,0.0495951,1805,687,2.42723,-0.676925
588,337,2.59302,0.924316,0,0,0,0,0,0,0,-1,1812,687,2.59308,-0.924341
595,337,3.18567,0.0384521,0.00331836,-0.0166286,0.00391174,0.00405805,-0.0173683,0.186889,0.0131421,0.0313435,1819,687,3.18567,-0.0384706
602,337,3.12598,0.122009,0.00333261,-0.0122648,0.00266359,0.00377493,-0.0127071,0.16456,0.00997081,0.0132858,1826,687,3.12603,-0.121993
609,337,3.13574,0.185486,0.00314935,-0.00931765,0.00163872,0.00336115,-0.00952945,0.128536,0.00772119,0.0157457,1833,687,3.13579,-0.185481
616,337,3.10278,0.239685,0.00242271,-0.00647824,0.00129672,0.00260778,-0.0066633,0.141759,0.00552073,0.0174927,1840,687,3.10281,-0.239699
623,337,3.10657,0.24884,0.00171333,-0.00441333,0.000992735,0.00187017,-0.00457017,0.156696,0.0038257,0.0151932,1847,687,3.10651,-0.248824
630,337,3.14636,0.265503,0.00129052,-0.0025873,0.000673366,0.00140412,-0.0027009,0.167129,0.00240913,0.0180491,1854,687,3.14642,-0.265516
637,337,3.17114,0.307312,0.00086542,-0.00118634,0.000342829,0.000921187,-0.00124211,0.161256,0.00125355,0.0159559,1861,687,3.17109,-0.30734
644,337,3.14038,0.350464,0.000466942,0.000396743,0.000256937,0.000691166,0.000172519,0.717514,0.00041539,0.0110512,1868,687,3.1404,-0.350472
651,337,3.13831,0.373169,0.00036045,0.000960627,0.000184206,0.00101265,0.000308424,1.29553,0.000599357,0.010221,1875,687,3.13827,-0.373182
658,337,3.12964,0.406677,0.000520965,0.000836522,0.000136049,0.000887078,0.000470409,1.21501,0.000512468,0.0118444,1882,687,3.12969,-0.406672
665,337,3.12903,0.443787,0.000978347,0.00082105,0.000430436,0.00133726,0.000462137,0.695036,0.000784244,0.0137964,1889,687,3.12897,-0.443807
672,337,3.12622,0.493591,0.00142431,0.000857932,0.000517496,0.00173104,0.000551208,0.535041,0.00102114,0.0115672,1896,687,3.12617,-0.493595
679,337,3.0874,0.480652,0.00191428,0.000427454,0.000668018,0.00217032,0.000171412,0.366016,0.00139326,0.0263517,1903,687,3.08736,-0.480637
686,337,3.1394,0.405334,0.00252907,-0.000205088,0.000948912,0.00282613,-0.000502142,0.303383,0.00207185,0.0403289,1910,687,3.13945,-0.40536
693,337,3.20984,0.36908,0,0,0,0,0,0,0,-1,1917,687,3.20981,-0.369067
700,337,3.32617,0.369568,0.00410403,-0.00180699,0.00232287,0.00490761,-0.00261057,0.333056,0.00440763,0.0409683,1924,687,3.3262,-0.369582
707,337,3.4989,0.340942,0.00502951,-0.00236555,0.00371559,0.00657386,-0.00390991,0.393917,0.0061176,0.0406891,1931,687,3.49889,-0.340914
714,337,0,0,0,0,0,0,0,0,0,-1,1938,687,0,0
721,337,0,0,0,0,0,0,0,0,0,-1,1945,687,0,0
728,337,0,0,0,0,0,0,0,0,0,-1,1952,687,0,0
735,337,0,0,0,0,0,0,0,0,0,-1,1959,687,0,0
742,337,0,0,0,0,0,0,0,0,0,-1,1966,687,0,0
749,337,0,0,0,0,0,0,0,0,0,-1,1973,687,0,0
756,337,0,0,0,0,0,0,0,0,0,-1,1980,687,0,0
763,337,0,0,0,0,0,0,0,0,0,-1,1987,687,0,0
770,337,0,0,0,0,0,0,0,0,0,-1,1994,687,0,0
777,337,0,0,0,0,0,0,0,0,0,-1,2001,687,0,0
784,337,0,0,0,0,0,0,0,0,0,-1,2008,687,0,0
791,337,0,0,0,0,0,0,0,0,0,-1,2015,687,0,0
798,337,0,0,0,0,0,0,0,0,0,-1,2022,687,0,0
805,337,0,0,0,0,0,0,0,0,0,-1,2029,687,0,0
812,337,0,0,0,0,0,0,0,0,0,-1,2036,687,0,0
-700,330,0,0,0,0,0,0,0,0,0,-1,524,694,0,0
-693,330,0,0,0,0,0,0,0,0,0,-1,531,694,0,0
-686,330,0,0,0,0,0,0,0,0,0,-1,538,694,0,0
-679,330,0,0,0,0,0,0,0,0,0,-1,545,694,0,0
-672,330,0,0,0,0,0,0,0,0,0,-1,552,694,0,0
-665,330,0,0,0,0,0,0,0,0,0,-1,559,694,0,0
-658,330,0,0,0,0,0,0,0,0,0,-1,566,694,0,0
-651,330,0,0,0,0,0,0,0,0,0,-1,573,694,0,0
-644,330,0,0,0,0,0,0,0,0,0,-1,580,694,0,0
-637,330,0,0,0,0,0,0,0,0,0,-1,587,694,0,0
-630,330,0,0,0,0,0,0,0,0,0,-1,594,694,0,0
-623,330,0,0,0,0,0,0,0,0,0,-1,601,694,0,0
-616,330,0,0,0,0,0,0,0,0,0,-1,608,694,0,0
-609,330,0,0,0,0,0,0,0,0,0,-1,615,694,0,0
-602,330,0,0,0,0,0,0,0,0,0,-1,622,694,0,0
-595,330,-1.42657,-0.78595,0.0264143,0.0120024,0.0118879,0.0331097,0.00530702,0.512931,0.020534,0.0470502,629,694,-1.42658,0.785973
-588,330,-1.31329,-0.693604,0.0301839,0.0143467,0.00443003,0.0313389,0.0131917,0.255033,0.0181687,0.0464129,636,694,-1.31329,0.693587
-581,330,-1.20001,-0.62793,0.0314959,0.0135786,-0.000775669,0.0315295,0.0135451,-0.0431838,0.0182636,0.0488094,643,694,-1.20003,0.627936
-574,330,-1.08105,-0.618774,0,0,0,0,0,0,0,-1,650,694,-1.08106,0.618786
-567,330,-0.318237,0.823547,0.0289261,0.00833557,-0.0057151,0.030406,0.00685565,-0.253383,0.0184158,0.0429724,657,694,-0.318253,-0.823542
-560,330,0.0115967,0.483765,0.0260695,0.00545603,-0.0062206,0.0278012,0.00372429,-0.271512,0.0174259,0.0363269,664,694,0.0115963,-0.483785
-553,330,0.117798,0.517029,0.0231258,0.00350296,-0.00604439,0.0248382,0.00179055,-0.276072,0.0159954,0.0322649,671,694,0.117789,-0.517033
-546,330,0.302856,0.587341,0.0196031,0.00168868,-0.00527589,0.0210414,0.000250384,-0.266149,0.0139449,0.0217561,678,694,0.302881,-0.587326
-539,330,0.349731,0.522339,0.0160769,5.49391e-05,-0.00422913,0.0171247,-0.000992852,-0.242866,0.0117614,0.00962366,685,694,0.349743,-0.522313
-532,330,0.326355,0.492554,0.0127998,-0.00103049,-0.00315687,0.0134863,-0.00171699,-0.214129,0.00961446,0.00915057,692,694,0.326381,-0.492542
-525,330,0.330505,0.453308,0.00986093,-0.00173833,-0.00263331,0.0104308,-0.00230816,-0.213107,0.00783735,0.0107986,699,694,0.330478,-0.45332
-518,330,0.327515,0.440063,0.00729154,-0.00140453,-0.00159337,0.0075743,-0.00168729,-0.175631,0.00569589,0.013675,706,694,0.327513,-0.440034
-511,330,0.312317,0.398743,0.0053862,-0.000895347,-0.000113953,0.00538827,-0.000897413,-0.0181329,0.00392566,0.017456,713,694,0.312327,-0.398761
-504,330,0.320068,0.337524,0.00398783,-2.28496e-05,0.000721004,0.00411351,-0.000148527,0.172575,0.00279317,0.0165227,720,694,0.320057,-0.33755
-497,330,0.336426,0.323853,0.00270117,0.0013363,0.00108156,0.0032976,0.00073987,0.503956,0.00199798,0.012396,727,694,0.336406,-0.323825
-490,330,0.328308,0.291199,0.00166596,0.00222818,0.00118793,0.00316781,0.00072633,0.901579,0.00191621,0.0123266,734,694,0.328321,-0.291188
-483,330,0.342041,0.247803,0.00167068,0.00297271,0.00122728,0.00371095,0.000932437,1.02925,0.00222914,0.0122859,741,694,0.342031,-0.247832
-476,330,0.35022,0.197327,0.00318064,0.00299821,0.00152069,0.00461285,0.001566,0.755442,0.00270859,0.0125163,748,694,0.350193,-0.197346
-469,330,0.364197,0.154785,0.00435036,0.00276008,0.00175158,0.00547883,0.0016316,0.572329,0.00324828,0.0179614,755,694,0.364166,-0.154755
-462,330,0.334656,0.115173,0.00613647,0.00226528,0.00204352,0.00701557,0.00138618,0.406258,0.00429029,0.0352266,762,694,0.334653,-0.115198
-455,330,0.289612,0.0438232,0.00872693,0.00163599,0.00254179,0.00954392,0.000818996,0.310993,0.00610795,0.0405804,769,694,0.2896,-0.0438516
-448,330,0.227844,-0.0767822,0.0122991,0.000172868,0.00311118,0.0130507,-0.000578768,0.23705,0.00889966,0.0454384,776,694,0.227826,0.0767839
-441,330,0.377075,0.465942,0.0171136,-0.00209775,0.00381463,0.0178433,-0.00282747,0.189012,0.0129414,0.0485689,783,694,0.377073,-0.465944
-434,330,0.618408,0.477844,0.0230016,-0.00530218,0.00501469,0.0238638,-0.00616439,0.170271,0.0183131,0.0447964,790,694,0.618394,-0.477826
-427,330,0.958252,0.307129,0,0,0,0,0,0,0,-1,797,694,0.958276,-0.307125
-420,330,0.935486,0.60498,0,0,0,0,0,0,0,-1,804,694,0.935476,-0.60501
-413,330,-2.42438,0.420471,0,0,0,0,0,0,0,-1,811,694,-2.42436,-0.420442
-406,330,-3.11188,1.41498,0,0,0,0,0,0,0,-1,818,694,-3.11186,-1.41497
-399,330,0,0,0,0,0,0,0,0,0,-1,825,694,0,0
-392,330,0,0,0,0,0,0,0,0,0,-1,832,694,0,0
-385,330,0,0,0,0,0,0,0,0,0,-1,839,694,0,0
-378,330,0,0,0,0,0,0,0,0,0,-1,846,694,0,0
-371,330,0,0,0,0,0,0,0,0,0,-1,853,694,0,0
-364,330,0,0,0,0,0,0,0,0,0,-1,860,694,0,0
-357,330,0,0,0,0,0,0,0,0,0,-1,867,694,0,0
-350,330,0,0,0,0,0,0,0,0,0,-1,874,694,0,0
-343,330,0,0,0,0,0,0,0,0,0,-1,881,694,0,0
-336,330,0,0,0,0,0,0,0,0,0,-1,888,694,0,0
-329,330,0,0,0,0,0,0,0,0,0,-1,895,694,0,0
-322,330,0,0,0,0,0,0,0,0,0,-1,902,694,0,0
-315,330,0,0,0,0,0,0,0,0,0,-1,909,694,0,0
-308,330,0,0,0,0,0,0,0,0,0,-1,916,694,0,0
-301,330,0,0,0,0,0,0,0,0,0,-1,923,694,0,0
-294,330,0,0,0,0,0,0,0,0,0,-1,930,694,0,0
-287,330,0,0,0,0,0,0,0,0,0,-1,937,694,0,0
-280,330,0,0,0,0,0,0,0,0,0,-1,944,694,0,0
-273,330,0,0,0,0,0,0,0,0,0,-1,951,694,0,0
-266,330,0,0,0,0,0,0,0,0,0,-1,958,694,0,0
-259,330,0,0,0,0,0,0,0,0,0,-1,965,694,0,0
-252,330,0,0,0,0,0,0,0,0,0,-1,972,694,0,0
-245,330,0,0,0,0,0,0,0,0,0,-1,979,694,0,0
-238,330,0,0,0,0,0,0,0,0,0,-1,986,694,0,0
-231,330,0,0,0,0,0,0,0,0,0,-1,993,694,0,0
-224,330,0,0,0,0,0,0,0,0,0,-1,1000,694,0,0
-217,330,0,0,0,0,0,0,0,0,0,-1,1007,694,0,0
-210,330,0,0,0,0,0,0,0,0,0,-1,1014,694,0,0
-203,330,0,0,0,0,0,0,0,0,0,-1,1021,694,0,0
-196,330,0,0,0,0,0,0,0,0,0,-1,1028,694,0,0
-189,330,0,0,0,0,0,0,0,0,0,-1,1035,694,0,0
-182,330,0,0,0,0,0,0,0,0,0,-1,1042,694,0,0
-175,330,0,0,0,0,0,0,0,0,0,-1,1049,694,0,0
-168,330,0,0,0,0,0,0,0,0,0,-1,1056,694,0,0
-161,330,0,0,0,0,0,0,0,0,0,-1,1063,694,0,0
-154,330,0,0,0,0,0,0,0,0,0,-1,1070,694,0,0
-147,330,0,0,0,0,0,0,0,0,0,-1,1077,694,0,0
-140,330,0,0,0,0,0,0,0,0,0,-1,1084,694,0,0
-133,330,0,0,0,0,0,0,0,0,0,-1,1091,694,0,0
-126,330,0,0,0,0,0,0,0,0,0,-1,1098,694,0,0
-119,330,0,0,0,0,0,0,0,0,0,-1,1105,694,0,0
-112,330,0,0,0,0,0,0,0,0,0,-1,1112,694,0,0
-105,330,0,0,0,0,0,0,0,0,0,-1,1119,694,0,0
-98,330,0,0,0,0,0,0,0,0,0,-1,1126,694,0,0
-91,330,0,0,0,0,0,0,0,0,0,-1,1133,694,0,0
-84,330,0,0,0,0,0,0,0,0,0,-1,1140,694,0,0
-77,330,0,0,0,0,0,0,0,0,0,-1,1147,694,0,0
-70,330,0,0,0,0,0,0,0,0,0,-1,1154,694,0,0
-63,330,0,0,0,0,0,0,0,0,0,-1,1161,694,0,0
-56,330,0,0,0,0,0,0,0,0,0,-1,1168,694,0,0
-49,330,0,0,0,0,0,0,0,0,0,-1,1175,694,0,0
-42,330,0,0,0,0,0,0,0,0,0,-1,1182,694,0,0
-35,330,0,0,0,0,0,0,0,0,0,-1,1189,694,0,0
-28,330,0,0,0,0,0,0,0,0,0,-1,1196,694,0,0
-21,330,0,0,0,0,0,0,0,0,0,-1,1203,694,0,0
-14,330,0,0,0,0,0,0,0,0,0,-1,1210,694,0,0
-7,330,0,0,0,0,0,0,0,0,0,-1,1217,694,0,0
0,330,0,0,0,0,0,0,0,0,0,-1,1224,694,0,0
7,330,0,0,0,0,0,0,0,0,0,-1,1231,694,0,0
14,330,0,0,0,0,0,0,0,0,0,-1,1238,694,0,0
21,330,0,0,0,0,0,0,0,0,0,-1,1245,694,0,0
28,330,0,0,0,0,0,0,0,0,0,-1,1252,694,0,0
35,330,0,0,0,0,0,0,0,0,0,-1,1259,694,0,0
42,330,0,0,0,0,0,0,0,0,0,-1,1266,694,0,0
49,330,0,0,0,0,0,0,0,0,0,-1,1273,694,0,0
56,330,0,0,0,0,0,0,0,0,0,-1,1280,694,0,0
63,330,0,0,0,0,0,0,0,0,0,-1,1287,694,0,0
70,330,0,0,0,0,0,0,0,0,0,-1,1294,694,0,0
77,330,0,0,0,0,0,0,0,0,0,-1,1301,694,0,0
84,330,0,0,0,0,0,0,0,0,0,-1,1308,694,0,0
91,330,0,0,0,0,0,0,0,0,0,-1,1315,694,0,0
98,330,0,0,0,0,0,0,0,0,0,-1,1322,694,0,0
105,330,0,0,0,0,0,0,0,0,0,-1,1329,694,0,0
112,330,0,0,0,0,0,0,0,0,0,-1,1336,694,0,0
119,330,0,0,0,0,0,0,0,0,0,-1,1343,694,0,0
126,330,0,0,0,0,0,0,0,0,0,-1,1350,694,0,0
133,330,0,0,0,0,0,0,0,0,0,-1,1357,694,0,0
140,330,0,0,0,0,0,0,0,0,0,-1,1364,694,0,0
147,330,0,0,0,0,0,0,0,0,0,-1,1371,694,0,0
154,330,0,0,0,0,0,0,0,0,0,-1,1378,694,0,0
161,330,0,0,0,0,0,0,0,0,0,-1,1385,694,0,0
168,330,0,0,0,0,0,0,0,0,0,-1,1392,694,0,0
175,330,0,0,0,0,0,0,0,0,0,-1,1399,694,0,0
182,330,0,0,0,0,0,0,0,0,0,-1,1406,694,0,0
189,330,0,0,0,0,0,0,0,0,0,-1,1413,694,0,0
196,330,0,0,0,0,0,0,0,0,0,-1,1420,694,0,0
203,330,0,0,0,0,0,0,0,0,0,-1,1427,694,0,0
210,330,0,0,0,0,0,0,0,0,0,-1,1434,694,0,0
217,330,0,0,0,0,0,0,0,0,0,-1,1441,694,0,0
224,330,0,0,0,0,0,0,0,0,0,-1,1448,694,0,0
231,330,0,0,0,0,0,0,0,0,0,-1,1455,694,0,0
238,330,0,0,0,0,0,0,0,0,0,-1,1462,694,0,0
245,330,0,0,0,0,0,0,0,0,0,-1,1469,694,0,0
252,330,0,0,0,0,0,0,0,0,0,-1,1476,694,0,0
259,330,0,0,0,0,0,0,0,0,0,-1,1483,694,0,0
266,330,0,0,0,0,0,0,0,0,0,-1,1490,694,0,0
273,330,0,0,0,0,0,0,0,0,0,-1,1497,694,0,0
280,330,0,0,0,0,0,0,0,0,0,-1,1504,694,0,0
287,330,0,0,0,0,0,0,0,0,0,-1,1511,694,0,0
294,330,0,0,0,0,0,0,0,0,0,-1,1518,694,0,0
301,330,0,0,0,0,0,0,0,0,0,-1,1525,694,0,0
308,330,0,0,0,0,0,0,0,0,0,-1,1532,694,0,0
315,330,0,0,0,0,0,0,0,0,0,-1,1539,694,0,0
322,330,0,0,0,0,0,0,0,0,0,-1,1546,694,0,0
329,330,0,0,0,0,0,0,0,0,0,-1,1553,694,0,0
336,330,0,0,0,0,0,0,0,0,0,-1,1560,694,0,0
343,330,0,0,0,0,0,0,0,0,0,-1,1567,694,0,0
350,330,0,0,0,0,0,0,0,0,0,-1,1574,694,0,0
357,330,0,0,0,0,0,0,0,0,0,-1,1581,694,0,0
364,330,0,0,0,0,0,0,0,0,0,-1,1588,694,0,0
371,330,0,0,0,0,0,0,0,0,0,-1,1595,694,0,0
378,330,0,0,0,0,0,0,0,0,0,-1,1602,694,0,0
385,330,0,0,0,0,0,0,0,0,0,-1,1609,694,0,0
392,330,0,0,0,0,0,0,0,0,0,-1,1616,694,0,0
399,330,0,0,0,0,0,0,0,0,0,-1,1623,694,0,0
406,330,0,0,0,0,0,0,0,0,0,-1,1630,694,0,0
413,330,0,0,0,0,0,0,0,0,0,-1,1637,694,0,0
420,330,0,0,0,0,0,0,0,0,0,-1,1644,694,0,0
427,330,0,0,0,0,0,0,0,0,0,-1,1651,694,0,0
434,330,0,0,0,0,0,0,0,0,0,-1,1658,694,0,0
441,330,0,0,0,0,0,0,0,0,0,-1,1665,694,0,0
448,330,0,0,0,0,0,0,0,0,0,-1,1672,694,0,0
455,330,0,0,0,0,0,0,0,0,0,-1,1679,694,0,0
462,330,0,0,0,0,0,0,0,0,0,-1,1686,694,0,0
469,330,0,0,0,0,0,0,0,0,0,-1,1693,694,0,0
476,330,0,0,0,0,0,0,0,0,0,-1,1700,694,0,0
483,330,0,0,0,0,0,0,0,0,0,-1,1707,694,0,0
490,330,0,0,0,0,0,0,0,0,0,-1,1714,694,0,0
497,330,0,0,0,0,0,0,0,0,0,-1,1721,694,0,0
504,330,0,0,0,0,0,0,0,0,0,-1,1728,694,0,0
511,330,0,0,0,0,0,0,0,0,0,-1,1735,694,0,0
518,330,0,0,0,0,0,0,0,0,0,-1,1742,694,0,0
525,330,2.14221,2.6178,0,0,0,0,0,0,0,-1,1749,694,2.14221,-2.61778
532,330,2.28528,2.54669,0.00810546,-0.0485005,0.0165146,0.0125712,-0.0529663,0.264097,0.0401625,0.0431237,1756,694,2.28533,-2.5467
539,330,2.57971,2.41315,0.00507789,-0.0465349,0.0144248,0.00883575,-0.0502928,0.254849,0.0368288,0.0418827,1763,694,2.57968,-2.41314
546,330,2.58398,2.36914,0.00373047,-0.0445388,0.0128414,0.00693415,-0.0477425,0.244489,0.0343736,0.0437651,1770,694,2.584,-2.36911
553,330,2.29712,2.07776,0.00355312,-0.0413594,0.0115891,0.00636722,-0.0441735,0.238212,0.0317847,0.0448547,1777,694,2.29707,-2.07778
560,330,2.40137,1.77454,0.00370664,-0.0377594,0.0103008,0.00612451,-0.0401773,0.230553,0.0290424,0.0456121,1784,694,2.40134,-1.77453
567,330,2.58459,1.33667,0,0,0,0,0,0,0,-1,1791,694,2.58458,-1.33668
574,330,2.49524,0.757507,0,0,0,0,0,0,0,-1,1798,694,2.4952,-0.757482
581,330,2.37463,0.779053,0,0,0,0,0,0,0,-1,1805,694,2.37466,-0.779044
588,330,3.29749,-0.0810547,0.00514406,-0.021772,0.00542189,0.00619519,-0.0228231,0.191491,0.0176468,0.0493538,1812,694,3.29744,0.0810305
595,330,3.26001,-0.0379028,0.00488278,-0.0179937,0.00432789,0.00567417,-0.0187851,0.180861,0.0147824,0.04139,1819,694,3.26003,0.0379215
602,330,3.16101,0.116638,0.00462399,-0.0134755,0.00296203,0.00509641,-0.0139479,0.158158,0.0113842,0.0248935,1826,694,3.16099,-0.116638
609,330,3.13379,0.182251,0.00413575,-0.010361,0.00180093,0.00435613,-0.0105814,0.121764,0.00887033,0.0134822,1833,694,3.1338,-0.182229
616,330,3.1366,0.2146,0.0031469,-0.0074085,0.00132237,0.00331004,-0.00757164,0.122752,0.00644114,0.011082,1840,694,3.13658,-0.214576
623,330,3.1499,0.230103,0.00217243,-0.00521189,0.000846716,0.00226827,-0.00530774,0.112715,0.00448982,0.0126523,1847,694,3.14995,-0.230127
630,330,3.1748,0.265625,0.00155709,-0.00328479,0.000406304,0.00159094,-0.00331864,0.0831399,0.00289246,0.0126262,1854,694,3.17476,-0.265631
637,330,3.18762,0.306335,0.000949983,-0.00185709,-2.33473e-05,0.000950177,-0.00185729,-0.00831653,0.00164885,0.0114914,1861,694,3.18758,-0.306351
644,330,3.16675,0.339661,0.00035654,-0.000217201,-0.000220833,0.000431695,-0.000292356,-0.328027,0.000420603,0.00751079,1868,694,3.16679,-0.33967
651,330,3.16223,0.369568,6.44058e-05,0.000404229,-0.00038423,0.00065444,-0.000185805,-0.993578,0.000509646,0.0105371,1875,694,3.16223,-0.369587
658,330,3.15601,0.409546,5.11984e-05,0.000265889,-0.000493066,0.00066316,-0.000346072,-0.892581,0.000592189,0.0114072,1882,694,3.15596,-0.409572
665,330,3.15161,0.465759,0.000341181,0.000218056,-0.000247376,0.00053454,2.46971e-05,-0.663444,0.000348419,0.0110992,1889,694,3.15164,-0.46575
672,330,3.13806,0.514954,0.000663611,0.000212203,-0.000210228,0.000746351,0.000129463,-0.374956,0.00046052,0.0118656,1896,694,3.13801,-0.514929
679,330,3.10034,0.500183,0.000912766,-0.000359357,-0.000220924,0.000950041,-0.000396631,-0.167147,0.000799086,0.0221517,1903,694,3.10039,-0.500183
686,330,3.04822,0.503052,0.00116387,-0.00118561,-0.000288492,0.00119878,-0.00122052,-0.120407,0.0013968,0.0399802,1910,694,3.04821,-0.503071
693,330,2.99658,0.500916,0,0,0,0,0,0,0,-1,1917,694,2.99659,-0.500922
700,330,3.49878,0.420959,0.00186683,-0.00312251,0.000204689,0.00187522,-0.0031309,0.0409335,0.00292043,0.0453521,1924,694,3.49879,-0.420939
707,330,3.31372,0.17218,0.00203251,-0.00414021,0.000624403,0.00209503,-0.00420273,0.0998082,0.00370327,0.0398237,1931,694,3.31373,-0.172182
714,330,3.75354,0.492004,0,0,0,0,0,0,0,-1,1938,694,3.75349,-0.492032
721,330,0,0,0,0,0,0,0,0,0,-1,1945,694,0,0
728,330,0,0,0,0,0,0,0,0,0,-1,1952,694,0,0
735,330,0,0,0,0,0,0,0,0,0,-1,1959,694,0,0
742,330,0,0,0,0,0,0,0,0,0,-1,1966,694,0,0
749,330,0,0,0,0,0,0,0,0,0,-1,1973,694,0,0
756,330,0,0,0,0,0,0,0,0,0,-1,1980,694,0,0
763,330,0,0,0,0,0,0,0,0,0,-1,1987,694,0,0
770,330,0,0,0,0,0,0,0,0,0,-1,1994,694,0,0
777,330,0,0,0,0,0,0,0,0,0,-1,2001,694,0,0
784,330,0,0,0,0,0,0,0,0,0,-1,2008,694,0,0
791,330,0,0,0,0,0,0,0,0,0,-1,2015,694,0,0
798,330,0,0,0,0,0,0,0,0,0,-1,2022,694,0,0
805,330,0,0,0,0,0,0,0,0,0,-1,2029,694,0,0
812,330,0,0,0,0,0,0,0,0,0,-1,2036,694,0,0
-700,323,0,0,0,0,0,0,0,0,0,-1,524,701,0,0
-693,323,0,0,0,0,0,0,0,0,0,-1,531,701,0,0
-686,323,0,0,0,0,0,0,0,0,0,-1,538,701,0,0
-679,323,0,0,0,0,0,0,0,0,0,-1,545,701,0,0
-672,323,0,0,0,0,0,0,0,0,0,-1,552,701,0,0
-665,323,0,0,0,0,0,0,0,0,0,-1,559,701,0,0
-658,323,0,0,0,0,0,0,0,0,0,-1,566,701,0,0
-651,323,0,0,0,0,0,0,0,0,0,-1,573,701,0,0
-644,323,0,0,0,0,0,0,0,0,0,-1,580,701,0,0
-637,323,0,0,0,0,0,0,0,0,0,-1,587,701,0,0
-630,323,0,0,0,0,0,0,0,0,0,-1,594,701,0,0
-623,323,0,0,0,0,0,0,0,0,0,-1,601,701,0,0
-616,323,0,0,0,0,0,0,0,0,0,-1,608,701,0,0
-609,323,0,0,0,0,0,0,0,0,0,-1,615,701,0,0
-602,323,-1.46265,-1.61871,0,0,0,0,0,0,0,-1,622,701,-1.46265,1.61871
-595,323,-1.43445,-1.48785,0,0,0,0,0,0,0,-1,629,701,-1.43444,1.48788
-588,323,-1.52362,-0.963074,0,0,0,0,0,0,0,-1,636,701,-1.52362,0.963044
-581,323,-1.43909,-0.875732,0,0,0,0,0,0,0,-1,643,701,-1.43906,0.875727
-574,323,0.106018,0.754761,0.0277984,0.00663732,-0.00240216,0.0280677,0.00636806,-0.111626,0.0169916,0.0438999,650,701,0.106015,-0.754787
-567,323,0.0776978,0.730103,0.0254793,0.00543016,-0.00360125,0.0261065,0.00480292,-0.172443,0.0160448,0.0433347,657,701,0.077697,-0.73011
-560,323,0.172791,0.590942,0.0225175,0.00381778,-0.00410681,0.0233797,0.0029556,-0.206934,0.0147006,0.0373234,664,701,0.172777,-0.590936
-553,323,0.251831,0.57666,0.0197134,0.00277348,-0.00419981,0.0206975,0.00178941,-0.23016,0.0132422,0.0218665,671,701,0.251843,-0.576651
-546,323,0.297729,0.564392,0.0164607,0.0015417,-0.00381589,0.01738,0.000622352,-0.236422,0.0113849,0.00956303,678,701,0.297713,-0.564412
-539,323,0.311035,0.518799,0.0132916,0.000300883,-0.00314099,0.0140112,-0.00041871,-0.225211,0.00948342,0.0107517,685,701,0.311055,-0.518784
-532,323,0.286621,0.484863,0.0103889,-0.000604057,-0.00236814,0.0108774,-0.00109251,-0.203406,0.00764184,0.0096093,692,701,0.286601,-0.484872
-525,323,0.272217,0.459229,0.00791484,-0.00114377,-0.00211448,0.0083841,-0.00161303,-0.218387,0.00619744,0.00746048,699,701,0.272193,-0.459216
-518,323,0.283325,0.43988,0.00589315,-0.000663676,-0.00125069,0.00612361,-0.000894139,-0.182225,0.00441077,0.00951909,706,701,0.283302,-0.439894
-511,323,0.283264,0.397644,0.00457522,9.03204e-05,0.000131839,0.00457909,8.64484e-05,0.0293624,0.00302432,0.0124311,713,701,0.283282,-0.397659
-504,323,0.286682,0.36908,0.00375013,0.00122744,0.00103367,0.00411957,0.000857995,0.343258,0.00250975,0.0133243,720,701,0.286674,-0.369092
-497,323,0.305969,0.32428,0.00295799,0.00281787,0.00160167,0.00449113,0.00128472,0.763542,0.00267091,0.0117554,727,701,0.305984,-0.324271
-490,323,0.292358,0.277222,0.00225365,0.00398562,0.00193945,0.00524364,0.000995625,0.995372,0.00321568,0.0130505,734,701,0.292377,-0.277244
-483,323,0.288391,0.235718,0.00264446,0.00511398,0.00234947,0.0065334,0.00122504,1.02734,0.00401012,0.0132242,741,701,0.288407,-0.23573
-476,323,0.328003,0.175232,0.00475927,0.00552601,0.00312907,0.00829511,0.00199017,0.846354,0.00500049,0.0145335,748,701,0.328014,-0.175216
-469,323,0.319519,0.171326,0.00639915,0.00574242,0.00379744,0.0098824,0.00225917,0.74227,0.00597921,0.0333097,755,701,0.31951,-0.171325
-462,323,0.282959,0.153503,0.00874959,0.00567865,0.00454773,0.0120141,0.00241417,0.62259,0.00733825,0.0442695,762,701,0.282958,-0.153522
-455,323,0.350769,0.0871582,0.0120638,0.00516807,0.0054577,0.0150715,0.00216036,0.503683,0.00941054,0.0459455,769,701,0.350755,-0.0871681
-448,323,0.334595,-0.146057,0.016626,0.00364992,0.00643488,0.019276,0.00100001,0.390641,0.0125306,0.0478702,776,701,0.334581,0.146052
-441,323,0.496704,0.471375,0.0227817,0.000919181,0.0074816,0.0250968,-0.00139595,0.300098,0.0172154,0.0483337,783,701,0.496698,-0.471395
-434,323,0.580139,0.511475,0.0308792,-0.00321666,0.00896838,0.0330943,-0.00543175,0.242142,0.0240785,0.0421979,790,701,0.580133,-0.511485
-427,323,2.02295,0.241394,0,0,0,0,0,0,0,-1,797,701,2.02294,-0.241388
-420,323,4.35925,0.500488,0,0,0,0,0,0,0,-1,804,701,4.35927,-0.500469
-413,323,0.126404,-0.37915,0,0,0,0,0,0,0,-1,811,701,0.126416,0.379146
-406,323,0,0,0,0,0,0,0,0,0,-1,818,701,0,0
-399,323,0,0,0,0,0,0,0,0,0,-1,825,701,0,0
-392,323,0,0,0,0,0,0,0,0,0,-1,832,701,0,0
-385,323,0,0,0,0,0,0,0,0,0,-1,839,701,0,0
-378,323,0,0,0,0,0,0,0,0,0,-1,846,701,0,0
-371,323,0,0,0,0,0,0,0,0,0,-1,853,701,0,0
-364,323,0,0,0,0,0,0,0,0,0,-1,860,701,0,0
-357,323,0,0,0,0,0,0,0,0,0,-1,867,701,0,0
-350,323,0,0,0,0,0,0,0,0,0,-1,874,701,0,0
-343,323,0,0,0,0,0,0,0,0,0,-1,881,701,0,0
-336,323,0,0,0,0,0,0,0,0,0,-1,888,701,0,0
-329,323,0,0,0,0,0,0,0,0,0,-1,895,701,0,0
-322,323,0,0,0,0,0,0,0,0,0,-1,902,701,0,0
-315,323,0,0,0,0,0,0,0,0,0,-1,909,701,0,0
-308,323,0,0,0,0,0,0,0,0,0,-1,916,701,0,0
-301,323,0,0,0,0,0,0,0,0,0,-1,923,701,0,0
-294,323,0,0,0,0,0,0,0,0,0,-1,930,701,0,0
-287,323,0,0,0,0,0,0,0,0,0,-1,937,701,0,0
-280,323,0,0,0,0,0,0,0,0,0,-1,944,701,0,0
-273,323,0,0,0,0,0,0,0,0,0,-1,951,701,0,0
-266,323,0,0,0,0,0,0,0,0,0,-1,958,701,0,0
-259,323,0,0,0,0,0,0,0,0,0,-1,965,701,0,0
-252,323,0,0,0,0,0,0,0,0,0,-1,972,701,0,0
-245,323,0,0,0,0,0,0,0,0,0,-1,979,701,0,0
-238,323,0,0,0,0,0,0,0,0,0,-1,986,701,0,0
-231,323,0,0,0,0,0,0,0,0,0,-1,993,701,0,0
-224,323,0,0,0,0,0,0,0,0,0,-1,1000,701,0,0
-217,323,0,0,0,0,0,0,0,0,0,-1,1007,701,0,0
-210,323,0,0,0,0,0,0,0,0,0,-1,1014,701,0,0
-203,323,0,0,0,0,0,0,0,0,0,-1,1021,701,0,0
-196,323,0,0,0,0,0,0,0,0,0,-1,1028,701,0,0
-189,323,0,0,0,0,0,0,0,0,0,-1,1035,701,0,0
-182,323,0,0,0,0,0,0,0,0,0,-1,1042,701,0,0
-175,323,0,0,0,0,0,0,0,0,0,-1,1049,701,0,0
-168,323,0,0,0,0,0,0,0,0,0,-1,1056,701,0,0
-161,323,0,0,0,0,0,0,0,0,0,-1,1063,701,0,0
-154,323,0,0,0,0,0,0,0,0,0,-1,1070,701,0,0
-147,323,0,0,0,0,0,0,0,0,0,-1,1077,701,0,0
-140,323,0,0,0,0,0,0,0,0,0,-1,1084,701,0,0
-133,323,0,0,0,0,0,0,0,0,0,-1,1091,701,0,0
-126,323,0,0,0,0,0,0,0,0,0,-1,1098,701,0,0
-119,323,0,0,0,0,0,0,0,0,0,-1,1105,701,0,0
-112,323,0,0,0,0,0,0,0,0,0,-1,1112,701,0,0
-105,323,0,0,0,0,0,0,0,0,0,-1,1119,701,0,0
-98,323,0,0,0,0,0,0,0,0,0,-1,1126,701,0,0
-91,323,0,0,0,0,0,0,0,0,0,-1,1133,701,0,0
-84,323,0,0,0,0,0,0,0,0,0,-1,1140,701,0,0
-77,323,0,0,0,0,0,0,0,0,0,-1,1147,701,0,0
-70,323,0,0,0,0,0,0,0,0,0,-1,1154,701,0,0
-63,323,0,0,0,0,0,0,0,0,0,-1,1161,701,0,0
-56,323,0,0,0,0,0,0,0,0,0,-1,1168,701,0,0
-49,323,0,0,0,0,0,0,0,0,0,-1,1175,701,0,0
-42,323,0,0,0,0,0,0,0,0,0,-1,1182,701,0,0
-35,323,0,0,0,0,0,0,0,0,0,-1,1189,701,0,0
-28,323,0,0,0,0,0,0,0,0,0,-1,1196,701,0,0
-21,323,0,0,0,0,0,0,0,0,0,-1,1203,701,0,0
-14,323,0,0,0,0,0,0,0,0,0,-1,1210,701,0,0
-7,323,0,0,0,0,0,0,0,0,0,-1,1217,701,0,0
0,323,0,0,0,0,0,0,0,0,0,-1,1224,701,0,0
7,323,0,0,0,0,0,0,0,0,0,-1,1231,701,0,0
14,323,0,0,0,0,0,0,0,0,0,-1,1238,701,0,0
21,323,0,0,0,0,0,0,0,0,0,-1,1245,701,0,0
28,323,0,0,0,0,0,0,0,0,0,-1,1252,701,0,0
35,323,0,0,0,0,0,0,0,0,0,-1,1259,701,0,0
42,323,0,0,0,0,0,0,0,0,0,-1,1266,701,0,0
49,323,0,0,0,0,0,0,0,0,0,-1,1273,701,0,0
56,323,0,0,0,0,0,0,0,0,0,-1,1280,701,0,0
63,323,0,0,0,0,0,0,0,0,0,-1,1287,701,0,0
70,323,0,0,0,0,0,0,0,0,0,-1,1294,701,0,0
77,323,0,0,0,0,0,0,0,0,0,-1,1301,701,0,0
84,323,0,0,0,0,0,0,0,0,0,-1,1308,701,0,0
91,323,0,0,0,0,0,0,0,0,0,-1,1315,701,0,0
98,323,0,0,0,0,0,0,0,0,0,-1,1322,701,0,0
105,323,0,0,0,0,0,0,0,0,0,-1,1329,701,0,0
112,323,0,0,0,0,0,0,0,0,0,-1,1336,701,0,0
119,323,0,0,0,0,0,0,0,0,0,-1,1343,701,0,0
126,323,0,0,0,0,0,0,0,0,0,-1,1350,701,0,0
133,323,0,0,0,0,0,0,0,0,0,-1,1357,701,0,0
140,323,0,0,0,0,0,0,0,0,0,-1,1364,701,0,0
147,323,0,0,0,0,0,0,0,0,0,-1,1371,701,0,0
154,323,0,0,0,0,0,0,0,0,0,-1,1378,701,0,0
161,323,0,0,0,0,0,0,0,0,0,-1,1385,701,0,0
168,323,0,0,0,0,0,0,0,0,0,-1,1392,701,0,0
175,323,0,0,0,0,0,0,0,0,0,-1,1399,701,0,0
182,323,0,0,0,0,0,0,0,0,0,-1,1406,701,0,0
189,323,0,0,0,0,0,0,0,0,0,-1,1413,701,0,0
196,323,0,0,0,0,0,0,0,0,0,-1,1420,701,0,0
203,323,0,0,0,0,0,0,0,0,0,-1,1427,701,0,0
210,323,0,0,0,0,0,0,0,0,0,-1,1434,701,0,0
217,323,0,0,0,0,0,0,0,0,0,-1,1441,701,0,0
224,323,0,0,0,0,0,0,0,0,0,-1,1448,701,0,0
231,323,0,0,0,0,0,0,0,0,0,-1,1455,701,0,0
238,323,0,0,0,0,0,0,0,0,0,-1,1462,701,0,0
245,323,0,0,0,0,0,0,0,0,0,-1,1469,701,0,0
252,323,0,0,0,0,0,0,0,0,0,-1,1476,701,0,0
259,323,0,0,0,0,0,0,0,0,0,-1,1483,701,0,0
266,323,0,0,0,0,0,0,0,0,0,-1,1490,701,0,0
273,323,0,0,0,0,0,0,0,0,0,-1,1497,701,0,0
280,323,0,0,0,0,0,0,0,0,0,-1,1504,701,0,0
287,323,0,0,0,0,0,0,0,0,0,-1,1511,701,0,0
294,323,0,0,0,0,0,0,0,0,0,-1,1518,701,0,0
301,323,0,0,0,0,0,0,0,0,0,-1,1525,701,0,0
308,323,0,0,0,0,0,0,0,0,0,-1,1532,701,0,0
315,323,0,0,0,0,0,0,0,0,0,-1,1539,701,0,0
322,323,0,0,0,0,0,0,0,0,0,-1,1546,701,0,0
329,323,0,0,0,0,0,0,0,0,0,-1,1553,701,0,0
336,323,0,0,0,0,0,0,0,0,0,-1,1560,701,0,0
343,323,0,0,0,0,0,0,0,0,0,-1,1567,701,0,0
350,323,0,0,0,0,0,0,0,0,0,-1,1574,701,0,0
357,323,0,0,0,0,0,0,0,0,0,-1,1581,701,0,0
364,323,0,0,0,0,0,0,0,0,0,-1,1588,701,0,0
371,323,0,0,0,0,0,0,0,0,0,-1,1595,701,0,0
378,323,0,0,0,0,0,0,0,0,0,-1,1602,701,0,0
385,323,0,0,0,0,0,0,0,0,0,-1,1609,701,0,0
392,323,0,0,0,0,0,0,0,0,0,-1,1616,701,0,0
399,323,0,0,0,0,0,0,0,0,0,-1,1623,701,0,0
406,323,0,0,0,0,0,0,0,0,0,-1,1630,701,0,0
413,323,0,0,0,0,0,0,0,0,0,-1,1637,701,0,0
420,323,0,0,0,0,0,0,0,0,0,-1,1644,701,0,0
427,323,0,0,0,0,0,0,0,0,0,-1,1651,701,0,0
434,323,0,0,0,0,0,0,0,0,0,-1,1658,701,0,0
441,323,0,0,0,0,0,0,0,0,0,-1,1665,701,0,0
448,323,0,0,0,0,0,0,0,0,0,-1,1672,701,0,0
455,323,0,0,0,0,0,0,0,0,0,-1,1679,701,0,0
462,323,0,0,0,0,0,0,0,0,0,-1,1686,701,0,0
469,323,0,0,0,0,0,0,0,0,0,-1,1693,701,0,0
476,323,0,0,0,0,0,0,0,0,0,-1,1700,701,0,0
483,323,0,0,0,0,0,0,0,0,0,-1,1707,701,0,0
490,323,0,0,0,0,0,0,0,0,0,-1,1714,701,0,0
497,323,0,0,0,0,0,0,0,0,0,-1,1721,701,0,0
504,323,0,0,0,0,0,0,0,0,0,-1,1728,701,0,0
511,323,0,0,0,0,0,0,0,0,0,-1,1735,701,0,0
518,323,0,0,0,0,0,0,0,0,0,-1,1742,701,0,0
525,323,0,0,0,0,0,0,0,0,0,-1,1749,701,0,0
532,323,1.67053,2.9812,0.0134066,-0.0466146,0.0149314,0.0169159,-0.0501239,0.230838,0.0402572,0.0444174,1756,701,1.67054,-2.9812
539,323,2.08899,2.87689,0.00959979,-0.0449895,0.013543,0.012775,-0.0481647,0.230292,0.0371085,0.0436274,1763,701,2.08903,-2.87687
546,323,2.42859,2.78156,0,0,0,0,0,0,0,-1,1770,701,2.42861,-2.78155
553,323,2.38501,2.33789,0,0,0,0,0,0,0,-1,1777,701,2.38501,-2.33791
560,323,2.32068,2.02692,0,0,0,0,0,0,0,-1,1784,701,2.32072,-2.02689
567,323,2.47205,1.38947,0,0,0,0,0,0,0,-1,1791,701,2.47208,-1.38947
574,323,2.39563,0.592407,0,0,0,0,0,0,0,-1,1798,701,2.39561,-0.592393
581,323,2.19885,1.84595,0.0073759,-0.025286,0.00641873,0.00859203,-0.0265021,0.187246,0.0211228,0.0473032,1805,701,2.1988,-1.84595
588,323,2.68286,1.74921,0.00699901,-0.0218212,0.00534709,0.00795909,-0.0227813,0.177658,0.0184228,0.0465683,1812,701,2.68282,-1.7492
595,323,3.18762,0.171326,0.00642139,-0.0181649,0.00418308,0.00711361,-0.0188572,0.163993,0.0154968,0.0456529,1819,701,3.18764,-0.171299
602,323,3.18079,0.202942,0.00585982,-0.0136287,0.00277169,0.00624635,-0.0140152,0.138562,0.0119812,0.035211,1826,701,3.18078,-0.202915
609,323,3.15662,0.216309,0.00505757,-0.010475,0.00154601,0.00520995,-0.0106274,0.0982487,0.00932031,0.0189515,1833,701,3.15657,-0.216278
616,323,3.18335,0.203552,0.0038351,-0.0075702,0.001007,0.00392333,-0.00765843,0.0873917,0.00680166,0.0120862,1840,701,3.18334,-0.203572
623,323,3.20776,0.229858,0.00263669,-0.00539146,0.000481156,0.00266542,-0.00542019,0.059649,0.00475769,0.0124419,1847,701,3.20772,-0.229839
630,323,3.21338,0.271912,0.00186119,-0.00349295,4.43426e-05,0.00186156,-0.00349332,0.00828118,0.00313912,0.0136475,1854,701,3.21342,-0.271912
637,323,3.2207,0.306702,0.00112428,-0.00215167,-0.000349757,0.00116121,-0.0021886,-0.105185,0.0019641,0.0106284,1861,701,3.22071,-0.3067
644,323,3.21118,0.335815,0.000430157,-0.000574348,-0.000528832,0.000657233,-0.000801425,-0.405585,0.000843527,0.00763337,1868,701,3.21124,-0.335829
651,323,3.1864,0.375488,4.97948e-05,5.8251e-05,-0.000666788,0.000720824,-0.000612779,-0.788569,0.000770798,0.00868193,1875,701,3.18634,-0.375477
658,323,3.17468,0.41925,-4.36276e-05,-0.000106131,-0.000716313,0.000642115,-0.000791874,-0.763598,0.000829417,0.0102196,1882,701,3.17473,-0.419267
665,323,3.16431,0.461304,0.000163186,-0.000163572,-0.000423961,0.000454159,-0.000454545,-0.601486,0.00052464,0.0100582,1889,701,3.16436,-0.461322
672,323,3.16785,0.506104,0.000440524,-0.000210846,-0.000350154,0.000593042,-0.000363364,-0.410794,0.000557464,0.00999859,1896,701,3.16784,-0.506081
679,323,3.18103,0.494202,0.000603338,-0.000893951,-0.000450936,0.000728656,-0.00101927,-0.271068,0.0010138,0.0185965,1903,701,3.18098,-0.494175
686,323,3.12903,0.497986,0.000760553,-0.0019412,-0.000915066,0.00104131,-0.00222195,-0.297694,0.00192471,0.042378,1910,701,3.12903,-0.497986
693,323,3.08411,0.506897,0,0,0,0,0,0,0,-1,1917,701,3.08409,-0.506868
700,323,3.45093,0.367615,0.00157751,-0.00445306,-0.00184957,0.00209957,-0.00497513,-0.275106,0.00419554,0.048417,1924,701,3.45092,-0.367614
707,323,3.39172,0.118408,0.00202024,-0.006178,-0.00288863,0.00293579,-0.00709356,-0.306935,0.00595399,0.0442239,1931,701,3.39168,-0.118408
714,323,3.70581,0.647522,0.00253643,-0.00832328,-0.00488108,0.00440783,-0.0101947,-0.366113,0.00864862,0.0424542,1938,701,3.70583,-0.647534
721,323,0,0,0,0,0,0,0,0,0,-1,1945,701,0,0
728,323,0,0,0,0,0,0,0,0,0,-1,1952,701,0,0
735,323,0,0,0,0,0,0,0,0,0,-1,1959,701,0,0
742,323,0,0,0,0,0,0,0,0,0,-1,1966,701,0,0
749,323,0,0,0,0,0,0,0,0,0,-1,1973,701,0,0
756,323,0,0,0,0,0,0,0,0,0,-1,1980,701,0,0
763,323,0,0,0,0,0,0,0,0,0,-1,1987,701,0,0
770,323,0,0,0,0,0,0,0,0,0,-1,1994,701,0,0
777,323,0,0,0,0,0,0,0,0,0,-1,2001,701,0,0
784,323,0,0,0,0,0,0,0,0,0,-1,2008,701,0,0
791,323,0,0,0,0,0,0,0,0,0,-1,2015,701,0,0
798,323,0,0,0,0,0,0,0,0,0,-1,2022,701,0,0
805,323,0,0,0,0,0,0,0,0,0,-1,2029,701,0,0
812,323,0,0,0,0,0,0,0,0,0,-1,2036,701,0,0
-700,316,0,0,0,0,0,0,0,0,0,-1,524,708,0,0
-693,316,0,0,0,0,0,0,0,0,0,-1,531,708,0,0
-686,316,0,0,0,0,0,0,0,0,0,-1,538,708,0,0
-679,316,0,0,0,0,0,0,0,0,0,-1,545,708,0,0
-672,316,0,0,0,0,0,0,0,0,0,-1,552,708,0,0
-665,316,0,0,0,0,0,0,0,0,0,-1,559,708,0,0
-658,316,0,0,0,0,0,0,0,0,0,-1,566,708,0,0
-651,316,0,0,0,0,0,0,0,0,0,-1,573,708,0,0
-644,316,0,0,0,0,0,0,0,0,0,-1,580,708,0,0
-637,316,0,0,0,0,0,0,0,0,0,-1,587,708,0,0
-630,316,0,0,0,0,0,0,0,0,0,-1,594,708,0,0
-623,316,0,0,0,0,0,0,0,0,0,-1,601,708,0,0
-616,316,0,0,0,0,0,0,0,0,0,-1,608,708,0,0
-609,316,0,0,0,0,0,0,0,0,0,-1,615,708,0,0
-602,316,0.277405,0.0821533,0,0,0,0,0,0,0,-1,622,708,0.277414,-0.0821828
-595,316,-1.62836,-1.96582,0,0,0,0,0,0,0,-1,629,708,-1.62834,1.9658
-588,316,0.927734,0.827148,0,0,0,0,0,0,0,-1,636,708,0.927705,-0.827146
-581,316,1.11371,0.726379,0.0260174,0.00103051,-0.000355137,0.0260224,0.00102546,-0.0142091,0.0170168,0.044846,643,708,1.11373,-0.726384
-574,316,1.16266,0.823242,0.0243159,0.00194994,-0.00150853,0.0244172,0.00184865,-0.0670431,0.0156982,0.0437344,650,708,1.16265,-0.823238
-567,316,0.233643,0.6203,0,0,0,0,0,0,0,-1,657,708,0.233663,-0.620324
-560,316,0.26416,0.601135,0.0188905,0.00170174,-0.00261602,0.0192798,0.00131241,-0.147739,0.0124388,0.0405784,664,708,0.264187,-0.601137
-553,316,0.28717,0.602356,0.0163057,0.00154048,-0.00289358,0.0168525,0.000993671,-0.186772,0.0109189,0.0239382,671,708,0.28717,-0.60237
-546,316,0.271057,0.594543,0.0133765,0.000917467,-0.0028285,0.0139886,0.000305397,-0.213108,0.00922559,0.0146283,678,708,0.271049,-0.594538
-539,316,0.281555,0.546509,0.0105901,0.000134693,-0.00245803,0.0111391,-0.000414349,-0.21976,0.00756797,0.0127592,685,708,0.281563,-0.546517
-532,316,0.245483,0.498596,0.00804208,-0.00052834,-0.00188991,0.00844033,-0.000926591,-0.207686,0.00595981,0.0102565,692,708,0.245506,-0.498621
-525,316,0.236511,0.490601,0.00597876,-0.000820615,-0.00179539,0.00642372,-0.00126558,-0.242939,0.00476074,0.00865446,699,708,0.236483,-0.490575
-518,316,0.242249,0.447449,0.00440252,-0.000154487,-0.00100729,0.00461525,-0.00036721,-0.208126,0.00320625,0.00947249,706,708,0.24223,-0.447432
-511,316,0.24884,0.407532,0.00359328,0.000824558,0.000342146,0.00363494,0.000782904,0.121148,0.00220906,0.0104148,713,708,0.248831,-0.407558
-504,316,0.266663,0.367493,0.00319259,0.00221729,0.00138077,0.00416929,0.00124059,0.615649,0.00247204,0.013055,720,708,0.266659,-0.367494
-497,316,0.281372,0.321655,0.00274349,0.00401976,0.00223506,0.005706,0.00105725,0.924454,0.00350514,0.0120012,727,708,0.2814,-0.321643
-490,316,0.25824,0.271179,0.00226841,0.00545759,0.00287324,0.00714907,0.000576931,1.03873,0.00458585,0.0127325,734,708,0.258214,-0.271158
-483,316,0.270813,0.227844,0.00294799,0.00694838,0.00370915,0.00916228,0.000734097,1.03268,0.00587878,0.0153573,741,708,0.270816,-0.227864
-476,316,0.303772,0.172363,0.00557118,0.0077253,0.0049949,0.0117579,0.00153853,0.891588,0.00737944,0.0294023,748,708,0.303754,-0.172392
-469,316,-0.0313721,0.0155029,0.0076366,0.00836435,0.00612744,0.0141387,0.00186225,0.815056,0.00887046,0.0440783,755,708,-0.0313815,-0.0154934
-462,316,0.244873,0.0650024,0.0105545,0.00874214,0.00737501,0.0170788,0.00221785,0.724268,0.0107233,0.0459184,762,708,0.244886,-0.0649865
-455,316,1.02228,0.204956,0.0146214,0.00842176,0.00870148,0.0207587,0.00228446,0.614286,0.013144,0.0485489,769,708,1.02226,-0.204949
-448,316,0.612427,0.697327,0,0,0,0,0,0,0,-1,776,708,0.612457,-0.697331
-441,316,0.630676,0.617188,0.02791,0.00382872,0.0113768,0.0324346,-0.000695901,0.378528,0.0218587,0.0464774,783,708,0.630686,-0.617182
-434,316,0.258728,0.244507,0.038532,-0.00135318,0.0128829,0.0423313,-0.00515246,0.286779,0.0300858,0.0434858,790,708,0.258732,-0.244495
-427,316,1.9046,-0.0574341,0.0533523,-0.00899077,0.0148414,0.0567052,-0.0123436,0.222181,0.0425195,0.0446959,797,708,1.90459,0.057445
-420,316,3.70099,-0.258789,0,0,0,0,0,0,0,-1,804,708,3.70102,0.258774
-413,316,0,0,0,0,0,0,0,0,0,-1,811,708,0,0
-406,316,0,0,0,0,0,0,0,0,0,-1,818,708,0,0
-399,316,0,0,0,0,0,0,0,0,0,-1,825,708,0,0
-392,316,0,0,0,0,0,0,0,0,0,-1,832,708,0,0
-385,316,0,0,0,0,0,0,0,0,0,-1,839,708,0,0
-378,316,0,0,0,0,0,0,0,0,0,-1,846,708,0,0
-371,316,0,0,0,0,0,0,0,0,0,-1,853,708,0,0
-364,316,0,0,0,0,0,0,0,0,0,-1,860,708,0,0
-357,316,0,0,0,0,0,0,0,0,0,-1,867,708,0,0
-350,316,0,0,0,0,0,0,0,0,0,-1,874,708,0,0
-343,316,0,0,0,0,0,0,0,0,0,-1,881,708,0,0
-336,316,0,0,0,0,0,0,0,0,0,-1,888,708,0,0
-329,316,0,0,0,0,0,0,0,0,0,-1,895,708,0,0
-322,316,0,0,0,0,0,0,0,0,0,-1,902,708,0,0
-315,316,0,0,0,0,0,0,0,0,0,-1,909,708,0,0
-308,316,0,0,0,0,0,0,0,0,0,-1,916,708,0,0
-301,316,0,0,0,0,0,0,0,0,0,-1,923,708,0,0
-294,316,0,0,0,0,0,0,0,0,0,-1,930,708,0,0
-287,316,0,0,0,0,0,0,0,0,0,-1,937,708,0,0
-280,316,0,0,0,0,0,0,0,0,0,-1,944,708,0,0
-273,316,0,0,0,0,0,0,0,0,0,-1,951,708,0,0
-266,316,0,0,0,0,0,0,0,0,0,-1,958,708,0,0
-259,316,0,0,0,0,0,0,0,0,0,-1,965,708,0,0
-252,316,0,0,0,0,0,0,0,0,0,-1,972,708,0,0
-245,316,0,0,0,0,0,0,0,0,0,-1,979,708,0,0
-238,316,0,0,0,0,0,0,0,0,0,-1,986,708,0,0
-231,316,0,0,0,0,0,0,0,0,0,-1,993,708,0,0
-224,316,0,0,0,0,0,0,0,0,0,-1,1000,708,0,0
-217,316,0,0,0,0,0,0,0,0,0,-1,1007,708,0,0
-210,316,0,0,0,0,0,0,0,0,0,-1,1014,708,0,0
-203,316,0,0,0,0,0,0,0,0,0,-1,1021,708,0,0
-196,316,0,0,0,0,0,0,0,0,0,-1,1028,708,0,0
-189,316,0,0,0,0,0,0,0,0,0,-1,1035,708,0,0
-182,316,0,0,0,0,0,0,0,0,0,-1,1042,708,0,0
-175,316,0,0,0,0,0,0,0,0,0,-1,1049,708,0,0
-168,316,0,0,0,0,0,0,0,0,0,-1,1056,708,0,0
-161,316,0,0,0,0,0,0,0,0,0,-1,1063,708,0,0
-154,316,0,0,0,0,0,0,0,0,0,-1,1070,708,0,0
-147,316,0,0,0,0,0,0,0,0,0,-1,1077,708,0,0
-140,316,0,0,0,0,0,0,0,0,0,-1,1084,708,0,0
-133,316,0,0,0,0,0,0,0,0,0,-1,1091,708,0,0
-126,316,0,0,0,0,0,0,0,0,0,-1,1098,708,0,0
-119,316,0,0,0,0,0,0,0,0,0,-1,1105,708,0,0
-112,316,0,0,0,0,0,0,0,0,0,-1,1112,708,0,0
-105,316,0,0,0,0,0,0,0,0,0,-1,1119,708,0,0
-98,316,0,0,0,0,0,0,0,0,0,-1,1126,708,0,0
-91,316,0,0,0,0,0,0,0,0,0,-1,1133,708,0,0
-84,316,0,0,0,0,0,0,0,0,0,-1,1140,708,0,0
-77,316,0,0,0,0,0,0,0,0,0,-1,1147,708,0,0
-70,316,0,0,0,0,0,0,0,0,0,-1,1154,708,0,0
-63,316,0,0,0,0,0,0,0,0,0,-1,1161,708,0,0
-56,316,0,0,0,0,0,0,0,0,0,-1,1168,708,0,0
-49,316,0,0,0,0,0,0,0,0,0,-1,1175,708,0,0
-42,316,0,0,0,0,0,0,0,0,0,-1,1182,708,0,0
-35,316,0,0,0,0,0,0,0,0,0,-1,1189,708,0,0
-28,316,0,0,0,0,0,0,0,0,0,-1,1196,708,0,0
-21,316,0,0,0,0,0,0,0,0,0,-1,1203,708,0,0
-14,316,0,0,0,0,0,0,0,0,0,-1,1210,708,0,0
-7,316,0,0,0,0,0,0,0,0,0,-1,1217,708,0,0
0,316,0,0,0,0,0,0,0,0,0,-1,1224,708,0,0
7,316,0,0,0,0,0,0,0,0,0,-1,1231,708,0,0
14,316,0,0,0,0,0,0,0,0,0,-1,1238,708,0,0
21,316,0,0,0,0,0,0,0,0,0,-1,1245,708,0,0
28,316,0,0,0,0,0,0,0,0,0,-1,1252,708,0,0
35,316,0,0,0,0,0,0,0,0,0,-1,1259,708,0,0
42,316,0,0,0,0,0,0,0,0,0,-1,1266,708,0,0
49,316,0,0,0,0,0,0,0,0,0,-1,1273,708,0,0
56,316,0,0,0,0,0,0,0,0,0,-1,1280,708,0,0
63,316,0,0,0,0,0,0,0,0,0,-1,1287,708,0,0
70,316,0,0,0,0,0,0,0,0,0,-1,1294,708,0,0
77,316,0,0,0,0,0,0,0,0,0,-1,1301,708,0,0
84,316,0,0,0,0,0,0,0,0,0,-1,1308,708,0,0
91,316,0,0,0,0,0,0,0,0,0,-1,1315,708,0,0
98,316,0,0,0,0,0,0,0,0,0,-1,1322,708,0,0
105,316,0,0,0,0,0,0,0,0,0,-1,1329,708,0,0
112,316,0,0,0,0,0,0,0,0,0,-1,1336,708,0,0
119,316,0,0,0,0,0,0,0,0,0,-1,1343,708,0,0
126,316,0,0,0,0,0,0,0,0,0,-1,1350,708,0,0
133,316,0,0,0,0,0,0,0,0,0,-1,1357,708,0,0
140,316,0,0,0,0,0,0,0,0,0,-1,1364,708,0,0
147,316,0,0,0,0,0,0,0,0,0,-1,1371,708,0,0
154,316,0,0,0,0,0,0,0,0,0,-1,1378,708,0,0
161,316,0,0,0,0,0,0,0,0,0,-1,1385,708,0,0
168,316,0,0,0,0,0,0,0,0,0,-1,1392,708,0,0
175,316,0,0,0,0,0,0,0,0,0,-1,1399,708,0,0
182,316,0,0,0,0,0,0,0,0,0,-1,1406,708,0,0
189,316,0,0,0,0,0,0,0,0,0,-1,1413,708,0,0
196,316,0,0,0,0,0,0,0,0,0,-1,1420,708,0,0
203,316,0,0,0,0,0,0,0,0,0,-1,1427,708,0,0
210,316,0,0,0,0,0,0,0,0,0,-1,1434,708,0,0
217,316,0,0,0,0,0,0,0,0,0,-1,1441,708,0,0
224,316,0,0,0,0,0,0,0,0,0,-1,1448,708,0,0
231,316,0,0,0,0,0,0,0,0,0,-1,1455,708,0,0
238,316,0,0,0,0,0,0,0,0,0,-1,1462,708,0,0
245,316,0,0,0,0,0,0,0,0,0,-1,1469,708,0,0
252,316,0,0,0,0,0,0,0,0,0,-1,1476,708,0,0
259,316,0,0,0,0,0,0,0,0,0,-1,1483,708,0,0
266,316,0,0,0,0,0,0,0,0,0,-1,1490,708,0,0
273,316,0,0,0,0,0,0,0,0,0,-1,1497,708,0,0
280,316,0,0,0,0,0,0,0,0,0,-1,1504,708,0,0
287,316,0,0,0,0,0,0,0,0,0,-1,1511,708,0,0
294,316,0,0,0,0,0,0,0,0,0,-1,1518,708,0,0
301,316,0,0,0,0,0,0,0,0,0,-1,1525,708,0,0
308,316,0,0,0,0,0,0,0,0,0,-1,1532,708,0,0
315,316,0,0,0,0,0,0,0,0,0,-1,1539,708,0,0
322,316,0,0,0,0,0,0,0,0,0,-1,1546,708,0,0
329,316,0,0,0,0,0,0,0,0,0,-1,1553,708,0,0
336,316,0,0,0,0,0,0,0,0,0,-1,1560,708,0,0
343,316,0,0,0,0,0,0,0,0,0,-1,1567,708,0,0
350,316,0,0,0,0,0,0,0,0,0,-1,1574,708,0,0
357,316,0,0,0,0,0,0,0,0,0,-1,1581,708,0,0
364,316,0,0,0,0,0,0,0,0,0,-1,1588,708,0,0
371,316,0,0,0,0,0,0,0,0,0,-1,1595,708,0,0
378,316,0,0,0,0,0,0,0,0,0,-1,1602,708,0,0
385,316,0,0,0,0,0,0,0,0,0,-1,1609,708,0,0
392,316,0,0,0,0,0,0,0,0,0,-1,1616,708,0,0
399,316,0,0,0,0,0,0,0,0,0,-1,1623,708,0,0
406,316,0,0,0,0,0,0,0,0,0,-1,1630,708,0,0
413,316,0,0,0,0,0,0,0,0,0,-1,1637,708,0,0
420,316,0,0,0,0,0,0,0,0,0,-1,1644,708,0,0
427,316,0,0,0,0,0,0,0,0,0,-1,1651,708,0,0
434,316,0,0,0,0,0,0,0,0,0,-1,1658,708,0,0
441,316,0,0,0,0,0,0,0,0,0,-1,1665,708,0,0
448,316,0,0,0,0,0,0,0,0,0,-1,1672,708,0,0
455,316,0,0,0,0,0,0,0,0,0,-1,1679,708,0,0
462,316,0,0,0,0,0,0,0,0,0,-1,1686,708,0,0
469,316,0,0,0,0,0,0,0,0,0,-1,1693,708,0,0
476,316,0,0,0,0,0,0,0,0,0,-1,1700,708,0,0
483,316,0,0,0,0,0,0,0,0,0,-1,1707,708,0,0
490,316,0,0,0,0,0,0,0,0,0,-1,1714,708,0,0
497,316,0,0,0,0,0,0,0,0,0,-1,1721,708,0,0
504,316,0,0,0,0,0,0,0,0,0,-1,1728,708,0,0
511,316,0,0,0,0,0,0,0,0,0,-1,1735,708,0,0
518,316,0,0,0,0,0,0,0,0,0,-1,1742,708,0,0
525,316,0,0,0,0,0,0,0,0,0,-1,1749,708,0,0
532,316,2.1322,2.77698,0.0174714,-0.0443409,0.01198,0.0197121,-0.0465816,0.184897,0.0393086,0.0430939,1756,708,2.13222,-2.777
539,316,2.28845,2.42072,0.0127624,-0.0427864,0.0119445,0.0152219,-0.0452459,0.203072,0.0363173,0.0445023,1763,708,2.2885,-2.42073
546,316,2.32788,2.40808,0,0,0,0,0,0,0,-1,1770,708,2.32784,-2.40809
553,316,2.53174,2.151,0,0,0,0,0,0,0,-1,1777,708,2.53173,-2.15099
560,316,2.92957,1.62097,0,0,0,0,0,0,0,-1,1784,708,2.9296,-1.62096
567,316,1.94849,1.32629,0,0,0,0,0,0,0,-1,1791,708,1.94845,-1.32631
574,316,2.0813,1.46857,0.00877139,-0.0279783,0.0075259,0.0102529,-0.0294598,0.194367,0.0238052,0.0482457,1798,708,2.08133,-1.46855
581,316,2.14331,1.62115,0.00868897,-0.0240079,0.00626362,0.0098478,-0.0251667,0.182941,0.0208506,0.0467835,1805,708,2.14326,-1.62117
588,316,2.27417,1.53998,0.00813083,-0.0206943,0.00512092,0.00901355,-0.021577,0.170699,0.0181512,0.0473259,1812,708,2.27414,-1.53999
595,316,2.4491,1.09998,0.00740897,-0.0171929,0.0037901,0.00797963,-0.0177635,0.149443,0.0152164,0.046335,1819,708,2.44905,-1.09996
602,316,2.73596,0.542114,0.00672169,-0.0128289,0.00232453,0.00699428,-0.0131015,0.11673,0.0117795,0.0411496,1826,708,2.73595,-0.542131
609,316,3.19324,0.211182,0.0057504,-0.00977145,0.00103148,0.00581864,-0.0098397,0.0660664,0.00913917,0.0297902,1833,708,3.19322,-0.211175
616,316,3.23694,0.180847,0.00442871,-0.00706188,0.000448481,0.00444619,-0.00707936,0.0389513,0.00671192,0.0126434,1840,708,3.23689,-0.180859
623,316,3.23865,0.236511,0.00313796,-0.00505662,-0.000105092,0.00313931,-0.00505797,-0.0128218,0.00477572,0.0103922,1847,708,3.2386,-0.236511
630,316,3.23694,0.285461,0.00227511,-0.00334628,-0.000496335,0.00231859,-0.00338977,-0.087393,0.00331501,0.0123055,1854,708,3.23698,-0.285445
637,316,3.25659,0.338379,0.00145544,-0.00220063,-0.000811102,0.0016273,-0.0023725,-0.208802,0.00232261,0.0121529,1861,708,3.25655,-0.338385
644,316,3.27405,0.345581,0.000650438,-0.000783882,-0.000917398,0.00109773,-0.00123117,-0.453647,0.00134532,0.011869,1868,708,3.27407,-0.345573
651,316,3.23022,0.360779,0.000143627,-0.000167754,-0.000985965,0.000986118,-0.00101025,-0.707091,0.00115263,0.0119507,1875,708,3.23026,-0.360807
658,316,3.203,0.37262,-7.51455e-05,-0.000356158,-0.000931675,0.000726559,-0.00115786,-0.710557,0.00109743,0.0167434,1882,708,3.20296,-0.372645
665,316,3.21118,0.418945,6.83167e-06,-0.000396784,-0.00058386,0.000422777,-0.000812729,-0.619004,0.000725066,0.0139095,1889,708,3.2112,-0.418953
672,316,3.21265,0.496155,0.000173954,-0.000468883,-0.000470596,0.000422421,-0.000717351,-0.485784,0.000665351,0.0121197,1896,708,3.21264,-0.496185
679,316,3.22424,0.533264,0.000206005,-0.0012487,-0.000626447,0.000438589,-0.00148129,-0.3555,0.00116165,0.0178502,1903,708,3.22427,-0.53326
686,316,3.23975,0.475098,0.000177188,-0.0023934,-0.00134466,0.000752025,-0.00296824,-0.403983,0.00227139,0.0295906,1910,708,3.23975,-0.475109
693,316,3.47778,0.441162,0.000410609,-0.00361788,-0.00208482,0.00129527,-0.00450254,-0.401308,0.00351395,0.0424475,1917,708,3.4778,-0.441164
700,316,3.33789,0.457092,0.000547871,-0.00521433,-0.00316212,0.00194459,-0.00661105,-0.415933,0.00517872,0.0460619,1924,708,3.33784,-0.457101
707,316,3.37256,0.365967,0.00070396,-0.00737492,-0.00502995,0.00311568,-0.00978664,-0.447091,0.00777397,0.0487932,1931,708,3.37257,-0.365944
714,316,3.44226,0.539368,0.000915993,-0.0103396,-0.0082463,0.00527186,-0.0146954,-0.485969,0.0119484,0.0449802,1938,708,3.4422,-0.539353
721,316,3.47961,0.721313,0.00138754,-0.0144979,-0.0136236,0.00921471,-0.0223251,-0.521481,0.0187266,0.0405081,1945,708,3.4796,-0.721293
728,316,0,0,0,0,0,0,0,0,0,-1,1952,708,0,0
735,316,0,0,0,0,0,0,0,0,0,-1,1959,708,0,0
742,316,0,0,0,0,0,0,0,0,0,-1,1966,708,0,0
749,316,0,0,0,0,0,0,0,0,0,-1,1973,708,0,0
756,316,0,0,0,0,0,0,0,0,0,-1,1980,708,0,0
763,316,0,0,0,0,0,0,0,0,0,-1,1987,708,0,0
770,316,0,0,0,0,0,0,0,0,0,-1,1994,708,0,0
777,316,0,0,0,0,0,0,0,0,0,-1,2001,708,0,0
784,316,0,0,0,0,0,0,0,0,0,-1,2008,708,0,0
791,316,0,0,0,0,0,0,0,0,0,-1,2015,708,0,0
798,316,0,0,0,0,0,0,0,0,0,-1,2022,708,0,0
805,316,0,0,0,0,0,0,0,0,0,-1,2029,708,0,0
812,316,0,0,0,0,0,0,0,0,0,-1,2036,708,0,0
-700,309,0,0,0,0,0,0,0,0,0,-1,524,715,0,0
-693,309,0,0,0,0,0,0,0,0,0,-1,531,715,0,0
-686,309,0,0,0,0,0,0,0,0,0,-1,538,715,0,0
-679,309,0,0,0,0,0,0,0,0,0,-1,545,715,0,0
-672,309,0,0,0,0,0,0,0,0,0,-1,552,715,0,0
-665,309,0,0,0,0,0,0,0,0,0,-1,559,715,0,0
-658,309,0,0,0,0,0,0,0,0,0,-1,566,715,0,0
-651,309,0,0,0,0,0,0,0,0,0,-1,573,715,0,0
-644,309,0,0,0,0,0,0,0,0,0,-1,580,715,0,0
-637,309,0,0,0,0,0,0,0,0,0,-1,587,715,0,0
-630,309,0,0,0,0,0,0,0,0,0,-1,594,715,0,0
-623,309,0,0,0,0,0,0,0,0,0,-1,601,715,0,0
-616,309,0,0,0,0,0,0,0,0,0,-1,608,715,0,0
-609,309,-0.50708,0.808044,0.0122049,-0.0264819,-0.00107397,0.0122347,-0.0265117,-0.0277321,0.0228709,0.0434719,615,715,-0.507074,-0.808029
-602,309,-0.797729,0.65979,0.0188865,-0.0180769,4.70236e-05,0.0188866,-0.018077,0.00127216,0.0213426,0.0444469,622,715,-0.797734,-0.659793
-595,309,-0.497009,0.442993,0.0221745,-0.0114527,0.000447069,0.0221805,-0.0114586,0.0132917,0.0197476,0.0467155,629,715,-0.497031,-0.442988
-588,309,0.221985,0.48053,0,0,0,0,0,0,0,-1,636,715,0.22197,-0.480556
-581,309,0.384521,0.34668,0.0221273,-0.00338583,-1.51642e-05,0.0221273,-0.00338584,-0.000594369,0.016,0.0422097,643,715,0.384526,-0.346696
-574,309,0.315979,0.412781,0.0200272,-0.00177465,-0.000270204,0.0200305,-0.001778,-0.0123911,0.0139841,0.0437805,650,715,0.315995,-0.412771
-567,309,0.227112,0.595703,0.0173791,-0.000638416,-0.000480127,0.0173919,-0.000651201,-0.0266227,0.0118176,0.045898,657,715,0.227129,-0.595679
-560,309,0.238037,0.59198,0.0145317,-0.000165884,-0.000822761,0.0145776,-0.000211798,-0.0557472,0.00978977,0.0377533,664,715,0.238044,-0.592
-553,309,0.237366,0.588867,0.0121824,0.000385444,-0.00123326,0.0123099,0.000257896,-0.103056,0.008122,0.0216596,671,715,0.237376,-0.588888
-546,309,0.224365,0.584473,0.0096454,0.000291974,-0.00146335,0.00986899,6.83772e-05,-0.151625,0.00655666,0.0141214,678,715,0.224381,-0.584449
-539,309,0.225708,0.538696,0.00733375,-4.91148e-05,-0.00141573,0.00759592,-0.000311285,-0.183109,0.00517083,0.0137582,685,715,0.225678,-0.538671
-532,309,0.225098,0.502136,0.00526233,-0.000485492,-0.00110963,0.00546911,-0.00069227,-0.184235,0.00389738,0.01105,692,715,0.225073,-0.502126
-525,309,0.214844,0.476929,0.00373489,-0.000516942,-0.00120462,0.00405246,-0.000834515,-0.257764,0.00301851,0.0143839,699,715,0.214828,-0.476909
-518,309,0.203064,0.434143,0.00277838,0.000343584,-0.000570202,0.0029053,0.000216665,-0.219016,0.00186883,0.0147707,706,715,0.203051,-0.434173
-511,309,0.190552,0.400574,0.00264941,0.00159069,0.000674659,0.00297759,0.0012625,0.452749,0.00172572,0.0117425,713,715,0.190526,-0.4006
-504,309,0.240967,0.360901,0.00282549,0.00329705,0.00181626,0.00489276,0.00122977,0.849945,0.00293897,0.00965379,720,715,0.240996,-0.360884
-497,309,0.249634,0.311584,0.00281732,0.00534987,0.00297077,0.00731298,0.000854209,0.986861,0.004617,0.0134472,727,715,0.249655,-0.311577
-490,309,0.238892,0.274536,0.00260197,0.00713781,0.00394653,0.00942165,0.000318124,1.04619,0.00617779,0.0138552,734,715,0.238876,-0.274546
-483,309,0.280212,0.326172,0.00356502,0.00908964,0.00526499,0.012273,0.000381697,1.02699,0.00805775,0.0228696,741,715,0.280219,-0.326182
-476,309,0.328613,0.476624,0.00664543,0.0103565,0.00715926,0.0158968,0.00110516,0.912198,0.0102494,0.0359649,748,715,0.32862,-0.476607
-469,309,-0.406067,-0.210999,0.00910479,0.0115116,0.00889709,0.0192863,0.00133011,0.85262,0.0124379,0.0468814,755,715,-0.406097,0.211027
-462,309,-0.631226,-0.4328,0,0,0,0,0,0,0,-1,762,715,-0.631231,0.432816
-455,309,1.22296,0.417664,0,0,0,0,0,0,0,-1,769,715,1.22294,-0.417657
-448,309,1.04437,1.03308,0.0238215,0.0111592,0.0145917,0.0333963,0.00158433,0.580711,0.0217553,0.0432308,776,715,1.04437,-1.03308
-441,309,0.694153,0.785583,0.0328996,0.00782502,0.0163488,0.0409649,-0.000240294,0.458295,0.0273904,0.0430545,783,715,0.694156,-0.785566
-434,309,-0.257324,0.319336,0.0456877,0.00143624,0.0178969,0.0520198,-0.00489586,0.340064,0.0364217,0.0474733,790,715,-0.257322,-0.319314
-427,309,1.10822,0.304993,0.0638059,-0.00887706,0.0195148,0.0687141,-0.0137852,0.246398,0.0510289,0.0485481,797,715,1.10823,-0.304999
-420,309,3.09766,-0.264648,0,0,0,0,0,0,0,-1,804,715,3.09767,0.264641
-413,309,0,0,0,0,0,0,0,0,0,-1,811,715,0,0
-406,309,0,0,0,0,0,0,0,0,0,-1,818,715,0,0
-399,309,0,0,0,0,0,0,0,0,0,-1,825,715,0,0
-392,309,0,0,0,0,0,0,0,0,0,-1,832,715,0,0
-385,309,0,0,0,0,0,0,0,0,0,-1,839,715,0,0
-378,309,0,0,0,0,0,0,0,0,0,-1,846,715,0,0
-371,309,0,0,0,0,0,0,0,0,0,-1,853,715,0,0
-364,309,0,0,0,0,0,0,0,0,0,-1,860,715,0,0
-357,309,0,0,0,0,0,0,0,0,0,-1,867,715,0,0
-350,309,0,0,0,0,0,0,0,0,0,-1,874,715,0,0
-343,309,0,0,0,0,0,0,0,0,0,-1,881,715,0,0
-336,309,0,0,0,0,0,0,0,0,0,-1,888,715,0,0
-329,309,0,0,0,0,0,0,0,0,0,-1,895,715,0,0
-322,309,0,0,0,0,0,0,0,0,0,-1,902,715,0,0
-315,309,0,0,0,0,0,0,0,0,0,-1,909,715,0,0
-308,309,0,0,0,0,0,0,0,0,0,-1,916,715,0,0
-301,309,0,0,0,0,0,0,0,0,0,-1,923,715,0,0
-294,309,0,0,0,0,0,0,0,0,0,-1,930,715,0,0
-287,309,0,0,0,0,0,0,0,0,0,-1,937,715,0,0
-280,309,0,0,0,0,0,0,0,0,0,-1,944,715,0,0
-273,309,0,0,0,0,0,0,0,0,0,-1,951,715,0,0
-266,309,0,0,0,0,0,0,0,0,0,-1,958,715,0,0
-259,309,0,0,0,0,0,0,0,0,0,-1,965,715,0,0
-252,309,0,0,0,0,0,0,0,0,0,-1,972,715,0,0
-245,309,0,0,0,0,0,0,0,0,0,-1,979,715,0,0
-238,309,0,0,0,0,0,0,0,0,0,-1,986,715,0,0
-231,309,0,0,0,0,0,0,0,0,0,-1,993,715,0,0
-224,309,0,0,0,0,0,0,0,0,0,-1,1000,715,0,0
-217,309,0,0,0,0,0,0,0,0,0,-1,1007,715,0,0
-210,309,0,0,0,0,0,0,0,0,0,-1,1014,715,0,0
-203,309,0,0,0,0,0,0,0,0,0,-1,1021,715,0,0
-196,309,0,0,0,0,0,0,0,0,0,-1,1028,715,0,0
-189,309,0,0,0,0,0,0,0,0,0,-1,1035,715,0,0
-182,309,0,0,0,0,0,0,0,0,0,-1,1042,715,0,0
-175,309,0,0,0,0,0,0,0,0,0,-1,1049,715,0,0
-168,309,0,0,0,0,0,0,0,0,0,-1,1056,715,0,0
-161,309,0,0,0,0,0,0,0,0,0,-1,1063,715,0,0
-154,309,0,0,0,0,0,0,0,0,0,-1,1070,715,0,0
-147,309,0,0,0,0,0,0,0,0,0,-1,1077,715,0,0
-140,309,0,0,0,0,0,0,0,0,0,-1,1084,715,0,0
-133,309,0,0,0,0,0,0,0,0,0,-1,1091,715,0,0
-126,309,0,0,0,0,0,0,0,0,0,-1,1098,715,0,0
-119,309,0,0,0,0,0,0,0,0,0,-1,1105,715,0,0
-112,309,0,0,0,0,0,0,0,0,0,-1,1112,715,0,0
-105,309,0,0,0,0,0,0,0,0,0,-1,1119,715,0,0
-98,309,0,0,0,0,0,0,0,0,0,-1,1126,715,0,0
-91,309,0,0,0,0,0,0,0,0,0,-1,1133,715,0,0
-84,309,0,0,0,0,0,0,0,0,0,-1,1140,715,0,0
-77,309,0,0,0,0,0,0,0,0,0,-1,1147,715,0,0
-70,309,0,0,0,0,0,0,0,0,0,-1,1154,715,0,0
-63,309,0,0,0,0,0,0,0,0,0,-1,1161,715,0,0
-56,309,0,0,0,0,0,0,0,0,0,-1,1168,715,0,0
-49,309,0,0,0,0,0,0,0,0,0,-1,1175,715,0,0
-42,309,0,0,0,0,0,0,0,0,0,-1,1182,715,0,0
-35,309,0,0,0,0,0,0,0,0,0,-1,1189,715,0,0
-28,309,0,0,0,0,0,0,0,0,0,-1,1196,715,0,0
-21,309,0,0,0,0,0,0,0,0,0,-1,1203,715,0,0
-14,309,0,0,0,0,0,0,0,0,0,-1,1210,715,0,0
-7,309,0,0,0,0,0,0,0,0,0,-1,1217,715,0,0
0,309,0,0,0,0,0,0,0,0,0,-1,1224,715,0,0
7,309,0,0,0,0,0,0,0,0,0,-1,1231,715,0,0
14,309,0,0,0,0,0,0,0,0,0,-1,1238,715,0,0
21,309,0,0,0,0,0,0,0,0,0,-1,1245,715,0,0
28,309,0,0,0,0,0,0,0,0,0,-1,1252,715,0,0
35,309,0,0,0,0,0,0,0,0,0,-1,1259,715,0,0
42,309,0,0,0,0,0,0,0,0,0,-1,1266,715,0,0
49,309,0,0,0,0,0,0,0,0,0,-1,1273,715,0,0
56,309,0,0,0,0,0,0,0,0,0,-1,1280,715,0,0
63,309,0,0,0,0,0,0,0,0,0,-1,1287,715,0,0
70,309,0,0,0,0,0,0,0,0,0,-1,1294,715,0,0
77,309,0,0,0,0,0,0,0,0,0,-1,1301,715,0,0
84,309,0,0,0,0,0,0,0,0,0,-1,1308,715,0,0
91,309,0,0,0,0,0,0,0,0,0,-1,1315,715,0,0
98,309,0,0,0,0,0,0,0,0,0,-1,1322,715,0,0
105,309,0,0,0,0,0,0,0,0,0,-1,1329,715,0,0
112,309,0,0,0,0,0,0,0,0,0,-1,1336,715,0,0
119,309,0,0,0,0,0,0,0,0,0,-1,1343,715,0,0
126,309,0,0,0,0,0,0,0,0,0,-1,1350,715,0,0
133,309,0,0,0,0,0,0,0,0,0,-1,1357,715,0,0
140,309,0,0,0,0,0,0,0,0,0,-1,1364,715,0,0
147,309,0,0,0,0,0,0,0,0,0,-1,1371,715,0,0
154,309,0,0,0,0,0,0,0,0,0,-1,1378,715,0,0
161,309,0,0,0,0,0,0,0,0,0,-1,1385,715,0,0
168,309,0,0,0,0,0,0,0,0,0,-1,1392,715,0,0
175,309,0,0,0,0,0,0,0,0,0,-1,1399,715,0,0
182,309,0,0,0,0,0,0,0,0,0,-1,1406,715,0,0
189,309,0,0,0,0,0,0,0,0,0,-1,1413,715,0,0
196,309,0,0,0,0,0,0,0,0,0,-1,1420,715,0,0
203,309,0,0,0,0,0,0,0,0,0,-1,1427,715,0,0
210,309,0,0,0,0,0,0,0,0,0,-1,1434,715,0,0
217,309,0,0,0,0,0,0,0,0,0,-1,1441,715,0,0
224,309,0,0,0,0,0,0,0,0,0,-1,1448,715,0,0
231,309,0,0,0,0,0,0,0,0,0,-1,1455,715,0,0
238,309,0,0,0,0,0,0,0,0,0,-1,1462,715,0,0
245,309,0,0,0,0,0,0,0,0,0,-1,1469,715,0,0
252,309,0,0,0,0,0,0,0,0,0,-1,1476,715,0,0
259,309,0,0,0,0,0,0,0,0,0,-1,1483,715,0,0
266,309,0,0,0,0,0,0,0,0,0,-1,1490,715,0,0
273,309,0,0,0,0,0,0,0,0,0,-1,1497,715,0,0
280,309,0,0,0,0,0,0,0,0,0,-1,1504,715,0,0
287,309,0,0,0,0,0,0,0,0,0,-1,1511,715,0,0
294,309,0,0,0,0,0,0,0,0,0,-1,1518,715,0,0
301,309,0,0,0,0,0,0,0,0,0,-1,1525,715,0,0
308,309,0,0,0,0,0,0,0,0,0,-1,1532,715,0,0
315,309,0,0,0,0,0,0,0,0,0,-1,1539,715,0,0
322,309,0,0,0,0,0,0,0,0,0,-1,1546,715,0,0
329,309,0,0,0,0,0,0,0,0,0,-1,1553,715,0,0
336,309,0,0,0,0,0,0,0,0,0,-1,1560,715,0,0
343,309,0,0,0,0,0,0,0,0,0,-1,1567,715,0,0
350,309,0,0,0,0,0,0,0,0,0,-1,1574,715,0,0
357,309,0,0,0,0,0,0,0,0,0,-1,1581,715,0,0
364,309,0,0,0,0,0,0,0,0,0,-1,1588,715,0,0
371,309,0,0,0,0,0,0,0,0,0,-1,1595,715,0,0
378,309,0,0,0,0,0,0,0,0,0,-1,1602,715,0,0
385,309,0,0,0,0,0,0,0,0,0,-1,1609,715,0,0
392,309,0,0,0,0,0,0,0,0,0,-1,1616,715,0,0
399,309,0,0,0,0,0,0,0,0,0,-1,1623,715,0,0
406,309,0,0,0,0,0,0,0,0,0,-1,1630,715,0,0
413,309,0,0,0,0,0,0,0,0,0,-1,1637,715,0,0
420,309,0,0,0,0,0,0,0,0,0,-1,1644,715,0,0
427,309,0,0,0,0,0,0,0,0,0,-1,1651,715,0,0
434,309,0,0,0,0,0,0,0,0,0,-1,1658,715,0,0
441,309,0,0,0,0,0,0,0,0,0,-1,1665,715,0,0
448,309,0,0,0,0,0,0,0,0,0,-1,1672,715,0,0
455,309,0,0,0,0,0,0,0,0,0,-1,1679,715,0,0
462,309,0,0,0,0,0,0,0,0,0,-1,1686,715,0,0
469,309,0,0,0,0,0,0,0,0,0,-1,1693,715,0,0
476,309,0,0,0,0,0,0,0,0,0,-1,1700,715,0,0
483,309,0,0,0,0,0,0,0,0,0,-1,1707,715,0,0
490,309,0,0,0,0,0,0,0,0,0,-1,1714,715,0,0
497,309,0,0,0,0,0,0,0,0,0,-1,1721,715,0,0
504,309,0,0,0,0,0,0,0,0,0,-1,1728,715,0,0
511,309,0,0,0,0,0,0,0,0,0,-1,1735,715,0,0
518,309,0,0,0,0,0,0,0,0,0,-1,1742,715,0,0
525,309,0,0,0,0,0,0,0,0,0,-1,1749,715,0,0
532,309,0,0,0,0,0,0,0,0,0,-1,1756,715,0,0
539,309,2.45496,1.86322,0,0,0,0,0,0,0,-1,1763,715,2.45492,-1.86324
546,309,2.31409,2.06274,0,0,0,0,0,0,0,-1,1770,715,2.31412,-2.06277
553,309,2.47974,1.87158,0,0,0,0,0,0,0,-1,1777,715,2.47973,-1.87159
560,309,2.90979,1.30914,0,0,0,0,0,0,0,-1,1784,715,2.9098,-1.30911
567,309,1.33618,1.10437,0,0,0,0,0,0,0,-1,1791,715,1.33624,-1.10437
574,309,1.85889,1.64209,0,0,0,0,0,0,0,-1,1798,715,1.85888,-1.6421
581,309,2.12512,1.34625,0,0,0,0,0,0,0,-1,1805,715,2.12513,-1.34622
588,309,2.09961,1.2536,0,0,0,0,0,0,0,-1,1812,715,2.09957,-1.25358
595,309,2.32251,0.991089,0,0,0,0,0,0,0,-1,1819,715,2.32245,-0.991102
602,309,3.43787,0.13562,0,0,0,0,0,0,0,-1,1826,715,3.4379,-0.135604
609,309,3.36609,0.143494,0.00613418,-0.00884422,0.000289026,0.00613975,-0.00884979,0.0192866,0.00870124,0.0383192,1833,715,3.3661,-0.143477
616,309,3.27563,0.155945,0.00479438,-0.00639466,-0.000303379,0.0048026,-0.00640288,-0.0270874,0.00649144,0.0190615,1840,715,3.27565,-0.155966
623,309,3.2771,0.231445,0.00350465,-0.00458618,-0.000842237,0.00359139,-0.00467293,-0.102632,0.00478501,0.00971607,1847,715,3.27707,-0.231426
630,309,3.25879,0.2771,0.00264082,-0.00308707,-0.00112743,0.00285474,-0.00330099,-0.187516,0.00355713,0.00976859,1854,715,3.2588,-0.277118
637,309,3.26367,0.322693,0.0018203,-0.00212434,-0.00131399,0.00221792,-0.00252196,-0.293845,0.00273845,0.0132923,1861,715,3.2637,-0.322717
644,309,3.27539,0.344849,0.000994958,-0.000886981,-0.0013006,0.00165929,-0.00155131,-0.472239,0.00185399,0.014541,1868,715,3.27534,-0.344847
651,309,3.28625,0.371826,0.00039463,-0.000258849,-0.00126505,0.00137445,-0.00123867,-0.659019,0.00150936,0.0132293,1875,715,3.28628,-0.371852
658,309,3.26184,0.405518,0.000100316,-0.000433853,-0.00107171,0.000937719,-0.00127126,-0.663279,0.00128019,0.019162,1882,715,3.2618,-0.405493
665,309,3.27258,0.439148,8.18452e-05,-0.000396148,-0.000666379,0.00055079,-0.000865093,-0.613218,0.000824146,0.0167645,1889,715,3.27259,-0.439161
672,309,3.26843,0.496094,0.000114529,-0.000489864,-0.000518643,0.000412594,-0.000787928,-0.521609,0.000704323,0.0141254,1896,715,3.26845,-0.496067
679,309,3.25903,0.571106,4.81177e-05,-0.00137656,-0.000721215,0.000349473,-0.00167792,-0.395794,0.00125148,0.0148748,1903,715,3.25906,-0.571107
686,309,3.2655,0.569336,-7.82833e-05,-0.00263436,-0.00170992,0.000778437,-0.00349108,-0.464472,0.00262562,0.018993,1910,715,3.26555,-0.569359
693,309,3.26221,0.566833,4.09127e-05,-0.00399686,-0.0028172,0.00148793,-0.00544388,-0.474498,0.00421373,0.0308825,1917,715,3.26215,-0.566834
700,309,3.2594,0.548096,-1.12699e-05,-0.00586085,-0.00445071,0.00238966,-0.00826177,-0.494705,0.0064536,0.0449459,1924,715,3.25941,-0.548092
707,309,3.2384,0.487122,-7.08973e-05,-0.00853559,-0.00715785,0.00401226,-0.0126187,-0.518404,0.0100213,0.0499921,1931,715,3.23837,-0.48715
714,309,3.23877,0.487,0,0,0,0,0,0,0,-1,1938,715,3.23875,-0.486989
721,309,3.64282,-0.000488281,0,0,0,0,0,0,0,-1,1945,715,3.6428,0.000463789
728,309,0,0,0,0,0,0,0,0,0,-1,1952,715,0,0
735,309,0,0,0,0,0,0,0,0,0,-1,1959,715,0,0
742,309,0,0,0,0,0,0,0,0,0,-1,1966,715,0,0
749,309,0,0,0,0,0,0,0,0,0,-1,1973,715,0,0
756,309,0,0,0,0,0,0,0,0,0,-1,1980,715,0,0
763,309,0,0,0,0,0,0,0,0,0,-1,1987,715,0,0
770,309,0,0,0,0,0,0,0,0,0,-1,1994,715,0,0
777,309,0,0,0,0,0,0,0,0,0,-1,2001,715,0,0
784,309,0,0,0,0,0,0,0,0,0,-1,2008,715,0,0
791,309,0,0,0,0,0,0,0,0,0,-1,2015,715,0,0
798,309,0,0,0,0,0,0,0,0,0,-1,2022,715,0,0
805,309,0,0,0,0,0,0,0,0,0,-1,2029,715,0,0
812,309,0,0,0,0,0,0,0,0,0,-1,2036,715,0,0
-700,302,0,0,0,0,0,0,0,0,0,-1,524,722,0,0
-693,302,0,0,0,0,0,0,0,0,0,-1,531,722,0,0
-686,302,0,0,0,0,0,0,0,0,0,-1,538,722,0,0
-679,302,0,0,0,0,0,0,0,0,0,-1,545,722,0,0
-672,302,0,0,0,0,0,0,0,0,0,-1,552,722,0,0
-665,302,0,0,0,0,0,0,0,0,0,-1,559,722,0,0
-658,302,0,0,0,0,0,0,0,0,0,-1,566,722,0,0
-651,302,0,0,0,0,0,0,0,0,0,-1,573,722,0,0
-644,302,0,0,0,0,0,0,0,0,0,-1,580,722,0,0
-637,302,0,0,0,0,0,0,0,0,0,-1,587,722,0,0
-630,302,0,0,0,0,0,0,0,0,0,-1,594,722,0,0
-623,302,0,0,0,0,0,0,0,0,0,-1,601,722,0,0
-616,302,0,0,0,0,0,0,0,0,0,-1,608,722,0,0
-609,302,-1.09058,1.55225,0.0141013,-0.0235015,-0.00580417,0.0149768,-0.024377,-0.149714,0.022936,0.0465651,615,722,-1.09058,-1.55226
-602,302,-1.3938,1.30579,0.0190099,-0.0180255,-0.00360941,0.0193584,-0.018374,-0.0962518,0.0217872,0.0455772,622,722,-1.39381,-1.30576
-595,302,-1.01147,0.858765,0.0213641,-0.0131618,-0.00201967,0.0214818,-0.0132796,-0.0582325,0.0202549,0.0470715,629,722,-1.01149,-0.858762
-588,302,-0.869385,0.370117,0.0216633,-0.00914415,-0.000965642,0.0216935,-0.00917439,-0.0313035,0.0183037,0.0441956,636,722,-0.869387,-0.370108
-581,302,-0.606201,-0.0181885,0.020474,-0.00618165,-0.000345021,0.0204785,-0.00618612,-0.0129408,0.0161151,0.0431043,643,722,-0.606212,0.0181739
-574,302,0.0375977,0.537048,0.0181436,-0.00439623,0.000155407,0.0181447,-0.0043973,0.00689435,0.0137978,0.0447612,650,722,0.0375983,-0.537067
-567,302,0.14032,0.579163,0.0153744,-0.0027695,0.000450294,0.0153855,-0.00278067,0.0247976,0.0112986,0.0423947,657,722,0.140304,-0.579181
-560,302,0.217529,0.603638,0.0125267,-0.00164569,0.000376387,0.0125367,-0.00165567,0.0265328,0.00896082,0.0279391,664,722,0.217545,-0.603665
-553,302,0.193054,0.60144,0.010221,-0.00058758,2.62496e-05,0.0102211,-0.000587644,0.00242857,0.00701814,0.0122401,671,722,0.193032,-0.601419
-546,302,0.181946,0.558899,0.00783822,-0.000257647,-0.000313271,0.00785033,-0.000269751,-0.0386182,0.00532575,0.0132446,678,722,0.18193,-0.558926
-539,302,0.167542,0.541077,0.00573077,-0.000238024,-0.000429829,0.00576156,-0.000268819,-0.0715209,0.00393371,0.0135303,685,722,0.167548,-0.541058
-532,302,0.147949,0.513062,0.00382041,-0.000496397,-0.000261204,0.00383616,-0.000512144,-0.0602158,0.00274413,0.0131106,692,722,0.14795,-0.513088
-525,302,0.187256,0.461243,0.00254174,-0.000288628,-0.000436838,0.00260763,-0.000354516,-0.1497,0.00186784,0.0191647,699,722,0.187284,-0.461231
-518,302,0.164551,0.435852,0.00193269,0.000724527,0.000114969,0.00194353,0.000713684,0.0940352,0.00113521,0.019278,706,722,0.164549,-0.435826
-511,302,0.167786,0.405151,0.0021915,0.0021857,0.00132622,0.00351482,0.000862376,0.784305,0.00211519,0.0102426,713,722,0.167782,-0.405151
-504,302,0.177551,0.364807,0.00262982,0.00416193,0.00265738,0.00616147,0.00063028,0.925731,0.0039145,0.00977471,720,722,0.177558,-0.364826
-497,302,0.196594,0.335999,0.00287659,0.00647064,0.00413895,0.00918584,0.000161379,0.990206,0.00607082,0.0132861,727,722,0.196567,-0.336008
-490,302,0.236084,0.31488,0.00285635,0.00864034,0.0055194,0.0119795,-0.000482816,1.02672,0.00815204,0.0153765,734,722,0.23606,-0.314877
-483,302,0.279846,0.421448,0.00395816,0.0111243,0.00739901,0.0157621,-0.000679711,1.01089,0.0107418,0.0303656,741,722,0.279872,-0.421463
-476,302,0.256653,0.457397,0.00727474,0.0130568,0.00999728,0.0205727,-0.000241153,0.926149,0.0137962,0.0376351,748,722,0.256656,-0.457417
-469,302,-0.707886,-0.251465,0,0,0,0,0,0,0,-1,755,722,-0.707863,0.251461
-462,302,0.295715,0.936401,0,0,0,0,0,0,0,-1,762,722,0.295713,-0.936392
-455,302,0.865906,0.787292,0.0187801,0.0178843,0.018056,0.0363937,0.000270685,0.772998,0.0241728,0.0419696,769,722,0.865887,-0.78732
-448,302,0.984497,0.819946,0.0260304,0.0175403,0.0208539,0.0430669,0.000503758,0.684989,0.0285448,0.0445341,776,722,0.984512,-0.819917
-441,302,0.848267,0.733154,0.0361763,0.0151787,0.023583,0.0514919,-0.000136908,0.575977,0.0343736,0.0471758,783,722,0.84829,-0.733174
-434,302,-0.498535,0.376038,0,0,0,0,0,0,0,-1,790,722,-0.498514,-0.376062
-427,302,-0.0908203,0.837769,0,0,0,0,0,0,0,-1,797,722,-0.0908468,-0.837776
-420,302,0,0,0,0,0,0,0,0,0,-1,804,722,0,0
-413,302,0,0,0,0,0,0,0,0,0,-1,811,722,0,0
-406,302,0,0,0,0,0,0,0,0,0,-1,818,722,0,0
-399,302,0,0,0,0,0,0,0,0,0,-1,825,722,0,0
-392,302,0,0,0,0,0,0,0,0,0,-1,832,722,0,0
-385,302,0,0,0,0,0,0,0,0,0,-1,839,722,0,0
-378,302,0,0,0,0,0,0,0,0,0,-1,846,722,0,0
-371,302,0,0,0,0,0,0,0,0,0,-1,853,722,0,0
-364,302,0,0,0,0,0,0,0,0,0,-1,860,722,0,0
-357,302,0,0,0,0,0,0,0,0,0,-1,867,722,0,0
-350,302,0,0,0,0,0,0,0,0,0,-1,874,722,0,0
-343,302,0,0,0,0,0,0,0,0,0,-1,881,722,0,0
-336,302,0,0,0,0,0,0,0,0,0,-1,888,722,0,0
-329,302,0,0,0,0,0,0,0,0,0,-1,895,722,0,0
-322,302,0,0,0,0,0,0,0,0,0,-1,902,722,0,0
-315,302,0,0,0,0,0,0,0,0,0,-1,909,722,0,0
-308,302,0,0,0,0,0,0,0,0,0,-1,916,722,0,0
-301,302,0,0,0,0,0,0,0,0,0,-1,923,722,0,0
-294,302,0,0,0,0,0,0,0,0,0,-1,930,722,0,0
-287,302,0,0,0,0,0,0,0,0,0,-1,937,722,0,0
-280,302,0,0,0,0,0,0,0,0,0,-1,944,722,0,0
-273,302,0,0,0,0,0,0,0,0,0,-1,951,722,0,0
-266,302,0,0,0,0,0,0,0,0,0,-1,958,722,0,0
-259,302,0,0,0,0,0,0,0,0,0,-1,965,722,0,0
-252,302,0,0,0,0,0,0,0,0,0,-1,972,722,0,0
-245,302,0,0,0,0,0,0,0,0,0,-1,979,722,0,0
-238,302,0,0,0,0,0,0,0,0,0,-1,986,722,0,0
-231,302,0,0,0,0,0,0,0,0,0,-1,993,722,0,0
-224,302,0,0,0,0,0,0,0,0,0,-1,1000,722,0,0
-217,302,0,0,0,0,0,0,0,0,0,-1,1007,722,0,0
-210,302,0,0,0,0,0,0,0,0,0,-1,1014,722,0,0
-203,302,0,0,0,0,0,0,0,0,0,-1,1021,722,0,0
-196,302,0,0,0,0,0,0,0,0,0,-1,1028,722,0,0
-189,302,0,0,0,0,0,0,0,0,0,-1,1035,722,0,0
-182,302,0,0,0,0,0,0,0,0,0,-1,1042,722,0,0
-175,302,0,0,0,0,0,0,0,0,0,-1,1049,722,0,0
-168,302,0,0,0,0,0,0,0,0,0,-1,1056,722,0,0
-161,302,0,0,0,0,0,0,0,0,0,-1,1063,722,0,0
-154,302,0,0,0,0,0,0,0,0,0,-1,1070,722,0,0
-147,302,0,0,0,0,0,0,0,0,0,-1,1077,722,0,0
-140,302,0,0,0,0,0,0,0,0,0,-1,1084,722,0,0
-133,302,0,0,0,0,0,0,0,0,0,-1,1091,722,0,0
-126,302,0,0,0,0,0,0,0,0,0,-1,1098,722,0,0
-119,302,0,0,0,0,0,0,0,0,0,-1,1105,722,0,0
-112,302,0,0,0,0,0,0,0,0,0,-1,1112,722,0,0
-105,302,0,0,0,0,0,0,0,0,0,-1,1119,722,0,0
-98,302,0,0,0,0,0,0,0,0,0,-1,1126,722,0,0
-91,302,0,0,0,0,0,0,0,0,0,-1,1133,722,0,0
-84,302,0,0,0,0,0,0,0,0,0,-1,1140,722,0,0
-77,302,0,0,0,0,0,0,0,0,0,-1,1147,722,0,0
-70,302,0,0,0,0,0,0,0,0,0,-1,1154,722,0,0
-63,302,0,0,0,0,0,0,0,0,0,-1,1161,722,0,0
-56,302,0,0,0,0,0,0,0,0,0,-1,1168,722,0,0
-49,302,0,0,0,0,0,0,0,0,0,-1,1175,722,0,0
-42,302,0,0,0,0,0,0,0,0,0,-1,1182,722,0,0
-35,302,0,0,0,0,0,0,0,0,0,-1,1189,722,0,0
-28,302,0,0,0,0,0,0,0,0,0,-1,1196,722,0,0
-21,302,0,0,0,0,0,0,0,0,0,-1,1203,722,0,0
-14,302,0,0,0,0,0,0,0,0,0,-1,1210,722,0,0
-7,302,0,0,0,0,0,0,0,0,0,-1,1217,722,0,0
0,302,0,0,0,0,0,0,0,0,0,-1,1224,722,0,0
7,302,0,0,0,0,0,0,0,0,0,-1,1231,722,0,0
14,302,0,0,0,0,0,0,0,0,0,-1,1238,722,0,0
21,302,0,0,0,0,0,0,0,0,0,-1,1245,722,0,0
28,302,0,0,0,0,0,0,0,0,0,-1,1252,722,0,0
35,302,0,0,0,0,0,0,0,0,0,-1,1259,722,0,0
42,302,0,0,0,0,0,0,0,0,0,-1,1266,722,0,0
49,302,0,0,0,0,0,0,0,0,0,-1,1273,722,0,0
56,302,0,0,0,0,0,0,0,0,0,-1,1280,722,0,0
63,302,0,0,0,0,0,0,0,0,0,-1,1287,722,0,0
70,302,0,0,0,0,0,0,0,0,0,-1,1294,722,0,0
77,302,0,0,0,0,0,0,0,0,0,-1,1301,722,0,0
84,302,0,0,0,0,0,0,0,0,0,-1,1308,722,0,0
91,302,0,0,0,0,0,0,0,0,0,-1,1315,722,0,0
98,302,0,0,0,0,0,0,0,0,0,-1,1322,722,0,0
105,302,0,0,0,0,0,0,0,0,0,-1,1329,722,0,0
112,302,0,0,0,0,0,0,0,0,0,-1,1336,722,0,0
119,302,0,0,0,0,0,0,0,0,0,-1,1343,722,0,0
126,302,0,0,0,0,0,0,0,0,0,-1,1350,722,0,0
133,302,0,0,0,0,0,0,0,0,0,-1,1357,722,0,0
140,302,0,0,0,0,0,0,0,0,0,-1,1364,722,0,0
147,302,0,0,0,0,0,0,0,0,0,-1,1371,722,0,0
154,302,0,0,0,0,0,0,0,0,0,-1,1378,722,0,0
161,302,0,0,0,0,0,0,0,0,0,-1,1385,722,0,0
168,302,0,0,0,0,0,0,0,0,0,-1,1392,722,0,0
175,302,0,0,0,0,0,0,0,0,0,-1,1399,722,0,0
182,302,0,0,0,0,0,0,0,0,0,-1,1406,722,0,0
189,302,0,0,0,0,0,0,0,0,0,-1,1413,722,0,0
196,302,0,0,0,0,0,0,0,0,0,-1,1420,722,0,0
203,302,0,0,0,0,0,0,0,0,0,-1,1427,722,0,0
210,302,0,0,0,0,0,0,0,0,0,-1,1434,722,0,0
217,302,0,0,0,0,0,0,0,0,0,-1,1441,722,0,0
224,302,0,0,0,0,0,0,0,0,0,-1,1448,722,0,0
231,302,0,0,0,0,0,0,0,0,0,-1,1455,722,0,0
238,302,0,0,0,0,0,0,0,0,0,-1,1462,722,0,0
245,302,0,0,0,0,0,0,0,0,0,-1,1469,722,0,0
252,302,0,0,0,0,0,0,0,0,0,-1,1476,722,0,0
259,302,0,0,0,0,0,0,0,0,0,-1,1483,722,0,0
266,302,0,0,0,0,0,0,0,0,0,-1,1490,722,0,0
273,302,0,0,0,0,0,0,0,0,0,-1,1497,722,0,0
280,302,0,0,0,0,0,0,0,0,0,-1,1504,722,0,0
287,302,0,0,0,0,0,0,0,0,0,-1,1511,722,0,0
294,302,0,0,0,0,0,0,0,0,0,-1,1518,722,0,0
301,302,0,0,0,0,0,0,0,0,0,-1,1525,722,0,0
308,302,0,0,0,0,0,0,0,0,0,-1,1532,722,0,0
315,302,0,0,0,0,0,0,0,0,0,-1,1539,722,0,0
322,302,0,0,0,0,0,0,0,0,0,-1,1546,722,0,0
329,302,0,0,0,0,0,0,0,0,0,-1,1553,722,0,0
336,302,0,0,0,0,0,0,0,0,0,-1,1560,722,0,0
343,302,0,0,0,0,0,0,0,0,0,-1,1567,722,0,0
350,302,0,0,0,0,0,0,0,0,0,-1,1574,722,0,0
357,302,0,0,0,0,0,0,0,0,0,-1,1581,722,0,0
364,302,0,0,0,0,0,0,0,0,0,-1,1588,722,0,0
371,302,0,0,0,0,0,0,0,0,0,-1,1595,722,0,0
378,302,0,0,0,0,0,0,0,0,0,-1,1602,722,0,0
385,302,0,0,0,0,0,0,0,0,0,-1,1609,722,0,0
392,302,0,0,0,0,0,0,0,0,0,-1,1616,722,0,0
399,302,0,0,0,0,0,0,0,0,0,-1,1623,722,0,0
406,302,0,0,0,0,0,0,0,0,0,-1,1630,722,0,0
413,302,0,0,0,0,0,0,0,0,0,-1,1637,722,0,0
420,302,0,0,0,0,0,0,0,0,0,-1,1644,722,0,0
427,302,0,0,0,0,0,0,0,0,0,-1,1651,722,0,0
434,302,0,0,0,0,0,0,0,0,0,-1,1658,722,0,0
441,302,0,0,0,0,0,0,0,0,0,-1,1665,722,0,0
448,302,0,0,0,0,0,0,0,0,0,-1,1672,722,0,0
455,302,0,0,0,0,0,0,0,0,0,-1,1679,722,0,0
462,302,0,0,0,0,0,0,0,0,0,-1,1686,722,0,0
469,302,0,0,0,0,0,0,0,0,0,-1,1693,722,0,0
476,302,0,0,0,0,0,0,0,0,0,-1,1700,722,0,0
483,302,0,0,0,0,0,0,0,0,0,-1,1707,722,0,0
490,302,0,0,0,0,0,0,0,0,0,-1,1714,722,0,0
497,302,0,0,0,0,0,0,0,0,0,-1,1721,722,0,0
504,302,0,0,0,0,0,0,0,0,0,-1,1728,722,0,0
511,302,0,0,0,0,0,0,0,0,0,-1,1735,722,0,0
518,302,0,0,0,0,0,0,0,0,0,-1,1742,722,0,0
525,302,0,0,0,0,0,0,0,0,0,-1,1749,722,0,0
532,302,0,0,0,0,0,0,0,0,0,-1,1756,722,0,0
539,302,0,0,0,0,0,0,0,0,0,-1,1763,722,0,0
546,302,4.45276,-0.182556,0.0146983,-0.0338246,0.00756594,0.0158506,-0.034977,0.151147,0.0300299,0.0440645,1770,722,4.45276,0.182559
553,302,4.74316,-0.0527954,0.0126202,-0.0313682,0.00822133,0.0141065,-0.0328545,0.178857,0.0278238,0.0420753,1777,722,4.74315,0.0528098
560,302,4.61682,-0.0144043,0,0,0,0,0,0,0,-1,1784,722,4.61685,0.0144191
567,302,4.89478,0.0488281,0,0,0,0,0,0,0,-1,1791,722,4.89474,-0.0488087
574,302,1.49243,1.92004,0,0,0,0,0,0,0,-1,1798,722,1.49246,-1.92005
581,302,3.43811,0.446472,0.0101732,-0.0193057,0.00488878,0.0109628,-0.0200953,0.160131,0.018188,0.0435853,1805,722,3.43806,-0.446488
588,302,3.41675,0.694763,0.00937251,-0.0166088,0.00373678,0.00989928,-0.0171355,0.140045,0.0157938,0.0463806,1812,722,3.41675,-0.694785
595,302,3.45081,0.950806,0.00851564,-0.0139466,0.00232312,0.00875339,-0.0141844,0.101985,0.0133663,0.0427943,1819,722,3.45081,-0.950812
602,302,3.53748,1.22986,0,0,0,0,0,0,0,-1,1826,722,3.5375,-1.22983
609,302,3.44336,0.139893,0,0,0,0,0,0,0,-1,1833,722,3.44341,-0.139884
616,302,3.39514,0.088623,0.00532035,-0.00546356,-0.00122428,0.0054576,-0.0056008,-0.111635,0.00638475,0.0331423,1840,722,3.3952,-0.0886272
623,302,3.32153,0.217834,0.00409212,-0.00384923,-0.001724,0.00445024,-0.00420735,-0.204811,0.00499912,0.0127914,1847,722,3.32154,-0.217805
630,302,3.27747,0.276306,0.00324164,-0.00257638,-0.00187318,0.00379256,-0.0031273,-0.286046,0.00400133,0.0102239,1854,722,3.27744,-0.276307
637,302,3.27942,0.317688,0.00239602,-0.00179971,-0.00190067,0.00312899,-0.00253267,-0.368061,0.0032748,0.0135628,1861,722,3.27941,-0.317681
644,302,3.29785,0.352051,0.00150322,-0.000763358,-0.0017428,0.00244881,-0.00170894,-0.497116,0.00241311,0.0146653,1868,722,3.29781,-0.35204
651,302,3.32483,0.397766,0.000756783,-0.000154056,-0.00157904,0.00194476,-0.00134204,-0.645,0.00190824,0.0137765,1875,722,3.32482,-0.397738
658,302,3.33069,0.412231,0.000355935,-0.000333678,-0.00124312,0.00130118,-0.00127893,-0.650113,0.00148965,0.0149913,1882,722,3.33066,-0.412252
665,302,3.31287,0.446228,0.000186701,-0.000238653,-0.000783169,0.000785557,-0.000837509,-0.652816,0.000937237,0.0145267,1889,722,3.31288,-0.446251
672,302,3.30603,0.490417,-4.9532e-05,-0.000389014,-0.000571071,0.000376491,-0.000815037,-0.64094,0.000703289,0.0112324,1896,722,3.30604,-0.49043
679,302,3.28455,0.555542,-0.000259437,-0.00146337,-0.000756865,0.000105657,-0.00182847,-0.44945,0.00125568,0.00933178,1903,722,3.28458,-0.555549
686,302,3.29712,0.558655,-0.000434643,-0.00288784,-0.00196477,0.000654978,-0.00397746,-0.506352,0.00289477,0.0121025,1910,722,3.29708,-0.558663
693,302,3.27185,0.586243,-0.000385488,-0.00443831,-0.00333517,0.00149063,-0.00631443,-0.512408,0.00478453,0.0219474,1917,722,3.27181,-0.586244
700,302,3.20996,0.562073,-0.000554645,-0.0065924,-0.0053544,0.00257328,-0.00972033,-0.528705,0.00748687,0.0410376,1924,722,3.20998,-0.562097
707,302,3.16846,0.492798,-0.000733858,-0.00975129,-0.00861449,0.00448049,-0.0149656,-0.544307,0.0117587,0.0472359,1931,722,3.16849,-0.492798
714,302,3.12769,0.516541,0,0,0,0,0,0,0,-1,1938,722,3.12767,-0.516537
721,302,3.36304,0.558472,0,0,0,0,0,0,0,-1,1945,722,3.363,-0.558448
728,302,3.40222,0.304993,0,0,0,0,0,0,0,-1,1952,722,3.40217,-0.305018
735,302,0,0,0,0,0,0,0,0,0,-1,1959,722,0,0
742,302,0,0,0,0,0,0,0,0,0,-1,1966,722,0,0
749,302,0,0,0,0,0,0,0,0,0,-1,1973,722,0,0
756,302,0,0,0,0,0,0,0,0,0,-1,1980,722,0,0
763,302,0,0,0,0,0,0,0,0,0,-1,1987,722,0,0
770,302,0,0,0,0,0,0,0,0,0,-1,1994,722,0,0
777,302,0,0,0,0,0,0,0,0,0,-1,2001,722,0,0
784,302,0,0,0,0,0,0,0,0,0,-1,2008,722,0,0
791,302,0,0,0,0,0,0,0,0,0,-1,2015,722,0,0
798,302,0,0,0,0,0,0,0,0,0,-1,2022,722,0,0
805,302,0,0,0,0,0,0,0,0,0,-1,2029,722,0,0
812,302,0,0,0,0,0,0,0,0,0,-1,2036,722,0,0
-700,295,0,0,0,0,0,0,0,0,0,-1,524,729,0,0
-693,295,0,0,0,0,0,0,0,0,0,-1,531,729,0,0
-686,295,0,0,0,0,0,0,0,0,0,-1,538,729,0,0
-679,295,0,0,0,0,0,0,0,0,0,-1,545,729,0,0
-672,295,0,0,0,0,0,0,0,0,0,-1,552,729,0,0
-665,295,0,0,0,0,0,0,0,0,0,-1,559,729,0,0
-658,295,0,0,0,0,0,0,0,0,0,-1,566,729,0,0
-651,295,0,0,0,0,0,0,0,0,0,-1,573,729,0,0
-644,295,0,0,0,0,0,0,0,0,0,-1,580,729,0,0
-637,295,0,0,0,0,0,0,0,0,0,-1,587,729,0,0
-630,295,0,0,0,0,0,0,0,0,0,-1,594,729,0,0
-623,295,0,0,0,0,0,0,0,0,0,-1,601,729,0,0
-616,295,-0.388489,-1.48816,0,0,0,0,0,0,0,-1,608,729,-0.388516,1.48819
-609,295,-1.61786,2.30841,0,0,0,0,0,0,0,-1,615,729,-1.61786,-2.30844
-602,295,-1.80304,1.84381,0,0,0,0,0,0,0,-1,622,729,-1.80306,-1.84378
-595,295,-1.14044,0.140442,0,0,0,0,0,0,0,-1,629,729,-1.14043,-0.140462
-588,295,-0.823792,0.277283,0.0218087,-0.00919679,-0.00282783,0.0220645,-0.00945259,-0.0902123,0.0186757,0.0462593,636,729,-0.823812,-0.277312
-581,295,-0.502014,0.421082,0.0203739,-0.00698927,-0.00158294,0.0204652,-0.00708054,-0.057593,0.0165175,0.0443159,643,729,-0.502019,-0.421063
-574,295,-0.161377,0.526611,0.0178836,-0.00556739,-0.000515491,0.0178949,-0.00557872,-0.0219675,0.0141607,0.0425823,650,729,-0.161388,-0.526583
-567,295,0.19696,0.613831,0.0149692,-0.00395478,0.000171541,0.0149707,-0.00395634,0.00906379,0.0115278,0.034188,657,729,0.196947,-0.613805
-560,295,0.172302,0.633545,0.0120149,-0.00265082,0.000336197,0.0120226,-0.00265852,0.0229079,0.00903261,0.0151071,664,729,0.172321,-0.633573
-553,295,0.16748,0.581177,0.00969432,-0.00127892,0.00021052,0.00969836,-0.00128295,0.0191755,0.00693291,0.013663,671,729,0.167484,-0.581153
-546,295,0.149292,0.538696,0.00736924,-0.000679457,-4.45488e-05,0.00736949,-0.000679703,-0.00553468,0.00515452,0.0182439,678,729,0.149321,-0.538702
-539,295,0.126709,0.538696,0.00530777,-0.000419286,-0.000146125,0.00531149,-0.000423012,-0.0254928,0.00369009,0.0168174,685,729,0.126734,-0.53871
-532,295,0.0994873,0.517517,0.00336897,-0.000579117,3.56361e-05,0.0033693,-0.000579439,0.00902517,0.00246218,0.014935,692,729,0.0994638,-0.51752
-525,295,0.132141,0.475098,0.00216491,-0.000174824,-7.91563e-05,0.00216759,-0.000177499,-0.0337798,0.00150771,0.0150874,699,729,0.132155,-0.475083
-518,295,0.154175,0.439087,0.00169365,0.000950656,0.000510524,0.00195353,0.000690769,0.470868,0.00114388,0.0107781,706,729,0.154175,-0.439074
-511,295,0.15033,0.404785,0.00208162,0.00255909,0.00182561,0.00416151,0.000479197,0.850414,0.0026292,0.00833466,713,729,0.150325,-0.40479
-504,295,0.136902,0.366638,0.00256446,0.00479188,0.00343599,0.00729015,6.61924e-05,0.94212,0.00483819,0.0103977,720,729,0.136871,-0.366668
-497,295,0.129028,0.354736,0.00291902,0.00740886,0.00529212,0.0109125,-0.000584647,0.985995,0.00747752,0.0136518,727,729,0.129047,-0.354712
-490,295,0.145996,0.363159,0.00300517,0.0100635,0.00716512,0.0145215,-0.00145276,1.01423,0.0101998,0.0248487,734,729,0.146026,-0.363153
-483,295,0.146484,0.43512,0.00412788,0.0132276,0.00970661,0.0193978,-0.0020423,1.00456,0.0136636,0.0434753,741,729,0.146455,-0.435129
-476,295,-0.0283203,0.130005,0,0,0,0,0,0,0,-1,748,729,-0.028308,-0.130012
-469,295,2.06329,2.4325,0,0,0,0,0,0,0,-1,755,729,2.06327,-2.43249
-462,295,2.81946,2.44305,0,0,0,0,0,0,0,-1,762,729,2.81946,-2.44304
-455,295,0.0108643,0.393372,0,0,0,0,0,0,0,-1,769,729,0.0108769,-0.393376
-448,295,3.75354,3.11218,0,0,0,0,0,0,0,-1,776,729,3.75356,-3.11216
-441,295,0.613159,0.532166,0.0376944,0.0245248,0.0322999,0.0640738,-0.00185468,0.684844,0.0433473,0.0448154,783,729,0.613146,-0.532136
-434,295,0.788208,0.260559,0,0,0,0,0,0,0,-1,790,729,0.788198,-0.260539
-427,295,0,0,0,0,0,0,0,0,0,-1,797,729,0,0
-420,295,0,0,0,0,0,0,0,0,0,-1,804,729,0,0
-413,295,0,0,0,0,0,0,0,0,0,-1,811,729,0,0
-406,295,0,0,0,0,0,0,0,0,0,-1,818,729,0,0
-399,295,0,0,0,0,0,0,0,0,0,-1,825,729,0,0
-392,295,0,0,0,0,0,0,0,0,0,-1,832,729,0,0
-385,295,0,0,0,0,0,0,0,0,0,-1,839,729,0,0
-378,295,0,0,0,0,0,0,0,0,0,-1,846,729,0,0
-371,295,0,0,0,0,0,0,0,0,0,-1,853,729,0,0
-364,295,0,0,0,0,0,0,0,0,0,-1,860,729,0,0
-357,295,0,0,0,0,0,0,0,0,0,-1,867,729,0,0
-350,295,0,0,0,0,0,0,0,0,0,-1,874,729,0,0
-343,295,0,0,0,0,0,0,0,0,0,-1,881,729,0,0
-336,295,0,0,0,0,0,0,0,0,0,-1,888,729,0,0
-329,295,0,0,0,0,0,0,0,0,0,-1,895,729,0,0
-322,295,0,0,0,0,0,0,0,0,0,-1,902,729,0,0
-315,295,0,0,0,0,0,0,0,0,0,-1,909,729,0,0
-308,295,0,0,0,0,0,0,0,0,0,-1,916,729,0,0
-301,295,0,0,0,0,0,0,0,0,0,-1,923,729,0,0
-294,295,0,0,0,0,0,0,0,0,0,-1,930,729,0,0
-287,295,0,0,0,0,0,0,0,0,0,-1,937,729,0,0
-280,295,0,0,0,0,0,0,0,0,0,-1,944,729,0,0
-273,295,0,0,0,0,0,0,0,0,0,-1,951,729,0,0
-266,295,0,0,0,0,0,0,0,0,0,-1,958,729,0,0
-259,295,0,0,0,0,0,0,0,0,0,-1,965,729,0,0
-252,295,0,0,0,0,0,0,0,0,0,-1,972,729,0,0
-245,295,0,0,0,0,0,0,0,0,0,-1,979,729,0,0
-238,295,0,0,0,0,0,0,0,0,0,-1,986,729,0,0
-231,295,0,0,0,0,0,0,0,0,0,-1,993,729,0,0
-224,295,0,0,0,0,0,0,0,0,0,-1,1000,729,0,0
-217,295,0,0,0,0,0,0,0,0,0,-1,1007,729,0,0
-210,295,0,0,0,0,0,0,0,0,0,-1,1014,729,0,0
-203,295,0,0,0,0,0,0,0,0,0,-1,1021,729,0,0
-196,295,0,0,0,0,0,0,0,0,0,-1,1028,729,0,0
-189,295,0,0,0,0,0,0,0,0,0,-1,1035,729,0,0
-182,295,0,0,0,0,0,0,0,0,0,-1,1042,729,0,0
-175,295,0,0,0,0,0,0,0,0,0,-1,1049,729,0,0
-168,295,0,0,0,0,0,0,0,0,0,-1,1056,729,0,0
-161,295,0,0,0,0,0,0,0,0,0,-1,1063,729,0,0
-154,295,0,0,0,0,0,0,0,0,0,-1,1070,729,0,0
-147,295,0,0,0,0,0,0,0,0,0,-1,1077,729,0,0
-140,295,0,0,0,0,0,0,0,0,0,-1,1084,729,0,0
-133,295,0,0,0,0,0,0,0,0,0,-1,1091,729,0,0
-126,295,0,0,0,0,0,0,0,0,0,-1,1098,729,0,0
-119,295,0,0,0,0,0,0,0,0,0,-1,1105,729,0,0
-112,295,0,0,0,0,0,0,0,0,0,-1,1112,729,0,0
-105,295,0,0,0,0,0,0,0,0,0,-1,1119,729,0,0
-98,295,0,0,0,0,0,0,0,0,0,-1,1126,729,0,0
-91,295,0,0,0,0,0,0,0,0,0,-1,1133,729,0,0
-84,295,0,0,0,0,0,0,0,0,0,-1,1140,729,0,0
-77,295,0,0,0,0,0,0,0,0,0,-1,1147,729,0,0
-70,295,0,0,0,0,0,0,0,0,0,-1,1154,729,0,0
-63,295,0,0,0,0,0,0,0,0,0,-1,1161,729,0,0
-56,295,0,0,0,0,0,0,0,0,0,-1,1168,729,0,0
-49,295,0,0,0,0,0,0,0,0,0,-1,1175,729,0,0
-42,295,0,0,0,0,0,0,0,0,0,-1,1182,729,0,0
-35,295,0,0,0,0,0,0,0,0,0,-1,1189,729,0,0
-28,295,0,0,0,0,0,0,0,0,0,-1,1196,729,0,0
-21,295,0,0,0,0,0,0,0,0,0,-1,1203,729,0,0
-14,295,0,0,0,0,0,0,0,0,0,-1,1210,729,0,0
-7,295,0,0,0,0,0,0,0,0,0,-1,1217,729,0,0
0,295,0,0,0,0,0,0,0,0,0,-1,1224,729,0,0
7,295,0,0,0,0,0,0,0,0,0,-1,1231,729,0,0
14,295,0,0,0,0,0,0,0,0,0,-1,1238,729,0,0
21,295,0,0,0,0,0,0,0,0,0,-1,1245,729,0,0
28,295,0,0,0,0,0,0,0,0,0,-1,1252,729,0,0
35,295,0,0,0,0,0,0,0,0,0,-1,1259,729,0,0
42,295,0,0,0,0,0,0,0,0,0,-1,1266,729,0,0
49,295,0,0,0,0,0,0,0,0,0,-1,1273,729,0,0
56,295,0,0,0,0,0,0,0,0,0,-1,1280,729,0,0
63,295,0,0,0,0,0,0,0,0,0,-1,1287,729,0,0
70,295,0,0,0,0,0,0,0,0,0,-1,1294,729,0,0
77,295,0,0,0,0,0,0,0,0,0,-1,1301,729,0,0
84,295,0,0,0,0,0,0,0,0,0,-1,1308,729,0,0
91,295,0,0,0,0,0,0,0,0,0,-1,1315,729,0,0
98,295,0,0,0,0,0,0,0,0,0,-1,1322,729,0,0
105,295,0,0,0,0,0,0,0,0,0,-1,1329,729,0,0
112,295,0,0,0,0,0,0,0,0,0,-1,1336,729,0,0
119,295,0,0,0,0,0,0,0,0,0,-1,1343,729,0,0
126,295,0,0,0,0,0,0,0,0,0,-1,1350,729,0,0
133,295,0,0,0,0,0,0,0,0,0,-1,1357,729,0,0
140,295,0,0,0,0,0,0,0,0,0,-1,1364,729,0,0
147,295,0,0,0,0,0,0,0,0,0,-1,1371,729,0,0
154,295,0,0,0,0,0,0,0,0,0,-1,1378,729,0,0
161,295,0,0,0,0,0,0,0,0,0,-1,1385,729,0,0
168,295,0,0,0,0,0,0,0,0,0,-1,1392,729,0,0
175,295,0,0,0,0,0,0,0,0,0,-1,1399,729,0,0
182,295,0,0,0,0,0,0,0,0,0,-1,1406,729,0,0
189,295,0,0,0,0,0,0,0,0,0,-1,1413,729,0,0
196,295,0,0,0,0,0,0,0,0,0,-1,1420,729,0,0
203,295,0,0,0,0,0,0,0,0,0,-1,1427,729,0,0
210,295,0,0,0,0,0,0,0,0,0,-1,1434,729,0,0
217,295,0,0,0,0,0,0,0,0,0,-1,1441,729,0,0
224,295,0,0,0,0,0,0,0,0,0,-1,1448,729,0,0
231,295,0,0,0,0,0,0,0,0,0,-1,1455,729,0,0
238,295,0,0,0,0,0,0,0,0,0,-1,1462,729,0,0
245,295,0,0,0,0,0,0,0,0,0,-1,1469,729,0,0
252,295,0,0,0,0,0,0,0,0,0,-1,1476,729,0,0
259,295,0,0,0,0,0,0,0,0,0,-1,1483,729,0,0
266,295,0,0,0,0,0,0,0,0,0,-1,1490,729,0,0
273,295,0,0,0,0,0,0,0,0,0,-1,1497,729,0,0
280,295,0,0,0,0,0,0,0,0,0,-1,1504,729,0,0
287,295,0,0,0,0,0,0,0,0,0,-1,1511,729,0,0
294,295,0,0,0,0,0,0,0,0,0,-1,1518,729,0,0
301,295,0,0,0,0,0,0,0,0,0,-1,1525,729,0,0
308,295,0,0,0,0,0,0,0,0,0,-1,1532,729,0,0
315,295,0,0,0,0,0,0,0,0,0,-1,1539,729,0,0
322,295,0,0,0,0,0,0,0,0,0,-1,1546,729,0,0
329,295,0,0,0,0,0,0,0,0,0,-1,1553,729,0,0
336,295,0,0,0,0,0,0,0,0,0,-1,1560,729,0,0
343,295,0,0,0,0,0,0,0,0,0,-1,1567,729,0,0
350,295,0,0,0,0,0,0,0,0,0,-1,1574,729,0,0
357,295,0,0,0,0,0,0,0,0,0,-1,1581,729,0,0
364,295,0,0,0,0,0,0,0,0,0,-1,1588,729,0,0
371,295,0,0,0,0,0,0,0,0,0,-1,1595,729,0,0
378,295,0,0,0,0,0,0,0,0,0,-1,1602,729,0,0
385,295,0,0,0,0,0,0,0,0,0,-1,1609,729,0,0
392,295,0,0,0,0,0,0,0,0,0,-1,1616,729,0,0
399,295,0,0,0,0,0,0,0,0,0,-1,1623,729,0,0
406,295,0,0,0,0,0,0,0,0,0,-1,1630,729,0,0
413,295,0,0,0,0,0,0,0,0,0,-1,1637,729,0,0
420,295,0,0,0,0,0,0,0,0,0,-1,1644,729,0,0
427,295,0,0,0,0,0,0,0,0,0,-1,1651,729,0,0
434,295,0,0,0,0,0,0,0,0,0,-1,1658,729,0,0
441,295,0,0,0,0,0,0,0,0,0,-1,1665,729,0,0
448,295,0,0,0,0,0,0,0,0,0,-1,1672,729,0,0
455,295,0,0,0,0,0,0,0,0,0,-1,1679,729,0,0
462,295,0,0,0,0,0,0,0,0,0,-1,1686,729,0,0
469,295,0,0,0,0,0,0,0,0,0,-1,1693,729,0,0
476,295,0,0,0,0,0,0,0,0,0,-1,1700,729,0,0
483,295,0,0,0,0,0,0,0,0,0,-1,1707,729,0,0
490,295,0,0,0,0,0,0,0,0,0,-1,1714,729,0,0
497,295,0,0,0,0,0,0,0,0,0,-1,1721,729,0,0
504,295,0,0,0,0,0,0,0,0,0,-1,1728,729,0,0
511,295,0,0,0,0,0,0,0,0,0,-1,1735,729,0,0
518,295,0,0,0,0,0,0,0,0,0,-1,1742,729,0,0
525,295,0,0,0,0,0,0,0,0,0,-1,1749,729,0,0
532,295,0,0,0,0,0,0,0,0,0,-1,1756,729,0,0
539,295,0,0,0,0,0,0,0,0,0,-1,1763,729,0,0
546,295,4.13367,0.539917,0.0167042,-0.0306677,0.00488389,0.0172025,-0.031166,0.101672,0.0283108,0.0419476,1770,729,4.13371,-0.539932
553,295,4.24292,0.286316,0.014094,-0.0280359,0.00592394,0.0149111,-0.0288531,0.137071,0.0256911,0.0448471,1777,729,4.24293,-0.286331
560,295,4.31775,0.0596924,0.0123513,-0.0253009,0.00626775,0.0133672,-0.0263169,0.160693,0.0233147,0.0446085,1784,729,4.31769,-0.0597215
567,295,4.68542,0.232239,0.0116892,-0.0226969,0.00578127,0.0126351,-0.0236429,0.16219,0.0212641,0.0463277,1791,729,4.68544,-0.232239
574,295,4.93274,0.24054,0,0,0,0,0,0,0,-1,1798,729,4.9327,-0.24053
581,295,3.15393,0.531982,0.0105307,-0.016668,0.00357402,0.0109925,-0.0171298,0.128499,0.0163648,0.0487387,1805,729,3.15399,-0.531997
588,295,3.13513,0.740906,0.00966869,-0.0142177,0.00246451,0.00992031,-0.0144693,0.101748,0.0141628,0.0448268,1812,729,3.13511,-0.740919
595,295,3.17407,1.01886,0.00886475,-0.0118605,0.00110617,0.00892363,-0.0119193,0.0531718,0.0120751,0.0416421,1819,729,3.17402,-1.01886
602,295,3.31189,1.30145,0,0,0,0,0,0,0,-1,1826,729,3.31189,-1.30144
609,295,3.82483,0.184265,0.00708802,-0.00626457,-0.00161345,0.00728022,-0.00645676,-0.118561,0.0079358,0.0430555,1833,729,3.82482,-0.184257
616,295,3.61804,0.0632324,0.00609769,-0.00436019,-0.00219476,0.00653963,-0.00480212,-0.1987,0.00657372,0.0408821,1840,729,3.61809,-0.063218
623,295,3.35413,0.222351,0.00505986,-0.00293431,-0.00264468,0.00585559,-0.00373003,-0.292261,0.00557943,0.0228042,1847,729,3.35411,-0.222328
630,295,3.30688,0.289856,0.00424515,-0.00188087,-0.00264951,0.00523207,-0.00286779,-0.35657,0.0047424,0.0112799,1854,729,3.30688,-0.289828
637,295,3.31616,0.329468,0.00334961,-0.00128669,-0.00250625,0.00444542,-0.0023825,-0.412184,0.00400163,0.0129743,1861,729,3.31611,-0.329458
644,295,3.32727,0.363647,0.00231674,-0.000452294,-0.00219963,0.00353131,-0.00166687,-0.504509,0.00306484,0.0124377,1868,729,3.32723,-0.363644
651,295,3.33459,0.403015,0.00131724,9.78165e-05,-0.00188228,0.0026861,-0.00127104,-0.62877,0.00233284,0.0119633,1875,729,3.33459,-0.403033
658,295,3.33459,0.425659,0.000743466,-0.00011032,-0.00140655,0.00178648,-0.00115333,-0.638064,0.00171037,0.0115093,1882,729,3.33464,-0.425633
665,295,3.33545,0.436157,0.000350215,1.50408e-05,-0.000889606,0.00108788,-0.000722626,-0.692297,0.00105236,0.0111039,1889,729,3.33549,-0.436161
672,295,3.32544,0.475037,-0.000370217,-0.000180156,-0.000590175,0.00032259,-0.000872964,-0.865223,0.000714218,0.011993,1896,729,3.32545,-0.475043
679,295,3.30457,0.541382,-0.000837142,-0.00144177,-0.000707715,-0.000369876,-0.00190904,-0.583544,0.00116907,0.00931473,1903,729,3.30457,-0.541398
686,295,3.32336,0.542236,-0.00100827,-0.00301078,-0.0021008,0.000317683,-0.00433673,-0.563019,0.00300266,0.00908492,1910,729,3.32338,-0.542213
693,295,3.31946,0.576965,-0.000988816,-0.00471701,-0.00366176,0.00125602,-0.00696185,-0.549959,0.0051116,0.0158649,1917,729,3.31943,-0.57694
700,295,3.30164,0.569031,-0.0012013,-0.00707394,-0.00595568,0.00250257,-0.0107778,-0.556371,0.00814852,0.0308338,1924,729,3.30161,-0.569039
707,295,3.30212,0.529175,-0.00141325,-0.0105553,-0.00958345,0.00463348,-0.0166021,-0.56287,0.0128931,0.0396942,1931,729,3.30209,-0.529204
714,295,3.255,0.520691,-0.00150407,-0.0156734,-0.015234,0.00821205,-0.0253895,-0.567746,0.0202272,0.043404,1938,729,3.25505,-0.520673
721,295,3.27466,0.509583,0,0,0,0,0,0,0,-1,1945,729,3.27471,-0.509601
728,295,2.86267,0.260559,0,0,0,0,0,0,0,-1,1952,729,2.8627,-0.260581
735,295,0,0,0,0,0,0,0,0,0,-1,1959,729,0,0
742,295,0,0,0,0,0,0,0,0,0,-1,1966,729,0,0
749,295,0,0,0,0,0,0,0,0,0,-1,1973,729,0,0
756,295,0,0,0,0,0,0,0,0,0,-1,1980,729,0,0
763,295,0,0,0,0,0,0,0,0,0,-1,1987,729,0,0
770,295,0,0,0,0,0,0,0,0,0,-1,1994,729,0,0
777,295,0,0,0,0,0,0,0,0,0,-1,2001,729,0,0
784,295,0,0,0,0,0,0,0,0,0,-1,2008,729,0,0
791,295,0,0,0,0,0,0,0,0,0,-1,2015,729,0,0
798,295,0,0,0,0,0,0,0,0,0,-1,2022,729,0,0
805,295,0,0,0,0,0,0,0,0,0,-1,2029,729,0,0
812,295,0,0,0,0,0,0,0,0,0,-1,2036,729,0,0
-700,288,0,0,0,0,0,0,0,0,0,-1,524,736,0,0
-693,288,0,0,0,0,0,0,0,0,0,-1,531,736,0,0
-686,288,0,0,0,0,0,0,0,0,0,-1,538,736,0,0
-679,288,0,0,0,0,0,0,0,0,0,-1,545,736,0,0
-672,288,0,0,0,0,0,0,0,0,0,-1,552,736,0,0
-665,288,0,0,0,0,0,0,0,0,0,-1,559,736,0,0
-658,288,0,0,0,0,0,0,0,0,0,-1,566,736,0,0
-651,288,0,0,0,0,0,0,0,0,0,-1,573,736,0,0
-644,288,0,0,0,0,0,0,0,0,0,-1,580,736,0,0
-637,288,0,0,0,0,0,0,0,0,0,-1,587,736,0,0
-630,288,0,0,0,0,0,0,0,0,0,-1,594,736,0,0
-623,288,0,0,0,0,0,0,0,0,0,-1,601,736,0,0
-616,288,0.0872803,-0.716553,0,0,0,0,0,0,0,-1,608,736,0.0872717,0.716578
-609,288,-1.41669,-0.639648,0,0,0,0,0,0,0,-1,615,736,-1.41666,0.63965
-602,288,0.346375,-0.588318,0,0,0,0,0,0,0,-1,622,736,0.346399,0.588293
-595,288,-1.4505,1.43671,0,0,0,0,0,0,0,-1,629,736,-1.45048,-1.43671
-588,288,-1.10315,0.942017,0.0211956,-0.00781447,-0.00604572,0.0224051,-0.00902398,-0.197453,0.0186858,0.0458761,636,736,-1.10313,-0.941997
-581,288,-0.32489,0.411499,0.0196016,-0.00641241,-0.00411475,0.0202369,-0.00704774,-0.153194,0.0163548,0.0423321,643,736,-0.324861,-0.411526
-574,288,-0.00952148,0.576294,0.0170595,-0.00552115,-0.00240472,0.0173127,-0.0057744,-0.104927,0.0138731,0.0306804,650,736,-0.00950448,-0.576311
-567,288,0.12793,0.623535,0.0141553,-0.00415111,-0.00119011,0.0142324,-0.00422816,-0.064648,0.0111677,0.0172936,657,736,0.127918,-0.623505
-560,288,0.114075,0.63269,0.0112585,-0.00280703,-0.000663665,0.0112898,-0.00283828,-0.0470444,0.00862961,0.0103575,664,736,0.114075,-0.63268
-553,288,0.114563,0.609375,0.00897853,-0.00133169,-0.000466936,0.00899964,-0.0013528,-0.0451654,0.0064978,0.0169098,671,736,0.11458,-0.609369
-546,288,0.106262,0.563477,0.00677207,-0.000648235,-0.000509543,0.00680689,-0.000683061,-0.0682419,0.0047819,0.0182849,678,736,0.106267,-0.563461
-539,288,0.101318,0.542542,0.00481089,-0.00029107,-0.000457408,0.00485157,-0.000331753,-0.0887107,0.00335044,0.0150224,685,736,0.101336,-0.54252
-532,288,0.120789,0.513977,0.00287951,-0.000459311,-0.000100035,0.00288251,-0.000462305,-0.0299254,0.00209286,0.0118342,692,736,0.120766,-0.514006
-525,288,0.127075,0.470581,0.00173335,4.47707e-05,5.08048e-06,0.00173336,4.47555e-05,0.0030087,0.00114095,0.0119279,699,736,0.127053,-0.47058
-518,288,0.109009,0.430481,0.00134047,0.00118504,0.000775805,0.00204244,0.000483066,0.735479,0.00123257,0.011479,706,736,0.109035,-0.43046
-511,288,0.118591,0.388489,0.00175209,0.00281839,0.00233089,0.00467633,-0.000105846,0.89783,0.00315343,0.00809038,713,736,0.118588,-0.388484
-504,288,0.112,0.352417,0.00216582,0.00518778,0.00427964,0.00821534,-0.000861741,0.955099,0.00578557,0.0093375,720,736,0.112015,-0.352394
-497,288,0.108215,0.33075,0.00246369,0.00798976,0.0065452,0.0123312,-0.00187778,0.985124,0.00891293,0.0165188,727,736,0.108212,-0.330777
-490,288,0.0702515,0.446167,0.00247637,0.0110302,0.00894691,0.0166699,-0.00316334,1.00836,0.012304,0.036107,734,736,0.0702726,-0.446166
-483,288,-0.0219116,0.359619,0,0,0,0,0,0,0,-1,741,736,-0.0218986,-0.3596
-476,288,1.01941,1.32141,0.00640363,0.0182409,0.0163231,0.0296853,-0.00504075,0.959322,0.0216668,0.0402884,748,736,1.01942,-1.32141
-469,288,1.65588,1.43872,0.00884222,0.0223615,0.0206913,0.0373693,-0.00616563,0.943277,0.027202,0.0458863,755,736,1.65587,-1.43874
-462,288,2.52307,1.3736,0.0124035,0.026328,0.0254268,0.0457285,-0.00699705,0.919031,0.0330657,0.0482582,762,736,2.52307,-1.37361
-455,288,2.17767,2.23279,0,0,0,0,0,0,0,-1,769,736,2.17764,-2.23281
-448,288,2.34607,2.52246,0,0,0,0,0,0,0,-1,776,736,2.3461,-2.52243
-441,288,2.02026,2.54211,0,0,0,0,0,0,0,-1,783,736,2.02025,-2.54214
-434,288,0.33136,-0.229675,0,0,0,0,0,0,0,-1,790,736,0.331379,0.229678
-427,288,0,0,0,0,0,0,0,0,0,-1,797,736,0,0
-420,288,0,0,0,0,0,0,0,0,0,-1,804,736,0,0
-413,288,0,0,0,0,0,0,0,0,0,-1,811,736,0,0
-406,288,0,0,0,0,0,0,0,0,0,-1,818,736,0,0
-399,288,0,0,0,0,0,0,0,0,0,-1,825,736,0,0
-392,288,0,0,0,0,0,0,0,0,0,-1,832,736,0,0
-385,288,0,0,0,0,0,0,0,0,0,-1,839,736,0,0
-378,288,0,0,0,0,0,0,0,0,0,-1,846,736,0,0
-371,288,0,0,0,0,0,0,0,0,0,-1,853,736,0,0
-364,288,0,0,0,0,0,0,0,0,0,-1,860,736,0,0
-357,288,0,0,0,0,0,0,0,0,0,-1,867,736,0,0
-350,288,0,0,0,0,0,0,0,0,0,-1,874,736,0,0
-343,288,0,0,0,0,0,0,0,0,0,-1,881,736,0,0
-336,288,0,0,0,0,0,0,0,0,0,-1,888,736,0,0
-329,288,0,0,0,0,0,0,0,0,0,-1,895,736,0,0
-322,288,0,0,0,0,0,0,0,0,0,-1,902,736,0,0
-315,288,0,0,0,0,0,0,0,0,0,-1,909,736,0,0
-308,288,0,0,0,0,0,0,0,0,0,-1,916,736,0,0
-301,288,0,0,0,0,0,0,0,0,0,-1,923,736,0,0
-294,288,0,0,0,0,0,0,0,0,0,-1,930,736,0,0
-287,288,0,0,0,0,0,0,0,0,0,-1,937,736,0,0
-280,288,0,0,0,0,0,0,0,0,0,-1,944,736,0,0
-273,288,0,0,0,0,0,0,0,0,0,-1,951,736,0,0
-266,288,0,0,0,0,0,0,0,0,0,-1,958,736,0,0
-259,288,0,0,0,0,0,0,0,0,0,-1,965,736,0,0
-252,288,0,0,0,0,0,0,0,0,0,-1,972,736,0,0
-245,288,0,0,0,0,0,0,0,0,0,-1,979,736,0,0
-238,288,0,0,0,0,0,0,0,0,0,-1,986,736,0,0
-231,288,0,0,0,0,0,0,0,0,0,-1,993,736,0,0
-224,288,0,0,0,0,0,0,0,0,0,-1,1000,736,0,0
-217,288,0,0,0,0,0,0,0,0,0,-1,1007,736,0,0
-210,288,0,0,0,0,0,0,0,0,0,-1,1014,736,0,0
-203,288,0,0,0,0,0,0,0,0,0,-1,1021,736,0,0
-196,288,0,0,0,0,0,0,0,0,0,-1,1028,736,0,0
-189,288,0,0,0,0,0,0,0,0,0,-1,1035,736,0,0
-182,288,0,0,0,0,0,0,0,0,0,-1,1042,736,0,0
-175,288,0,0,0,0,0,0,0,0,0,-1,1049,736,0,0
-168,288,0,0,0,0,0,0,0,0,0,-1,1056,736,0,0
-161,288,0,0,0,0,0,0,0,0,0,-1,1063,736,0,0
-154,288,0,0,0,0,0,0,0,0,0,-1,1070,736,0,0
-147,288,0,0,0,0,0,0,0,0,0,-1,1077,736,0,0
-140,288,0,0,0,0,0,0,0,0,0,-1,1084,736,0,0
-133,288,0,0,0,0,0,0,0,0,0,-1,1091,736,0,0
-126,288,0,0,0,0,0,0,0,0,0,-1,1098,736,0,0
-119,288,0,0,0,0,0,0,0,0,0,-1,1105,736,0,0
-112,288,0,0,0,0,0,0,0,0,0,-1,1112,736,0,0
-105,288,0,0,0,0,0,0,0,0,0,-1,1119,736,0,0
-98,288,0,0,0,0,0,0,0,0,0,-1,1126,736,0,0
-91,288,0,0,0,0,0,0,0,0,0,-1,1133,736,0,0
-84,288,0,0,0,0,0,0,0,0,0,-1,1140,736,0,0
-77,288,0,0,0,0,0,0,0,0,0,-1,1147,736,0,0
-70,288,0,0,0,0,0,0,0,0,0,-1,1154,736,0,0
-63,288,0,0,0,0,0,0,0,0,0,-1,1161,736,0,0
-56,288,0,0,0,0,0,0,0,0,0,-1,1168,736,0,0
-49,288,0,0,0,0,0,0,0,0,0,-1,1175,736,0,0
-42,288,0,0,0,0,0,0,0,0,0,-1,1182,736,0,0
-35,288,0,0,0,0,0,0,0,0,0,-1,1189,736,0,0
-28,288,0,0,0,0,0,0,0,0,0,-1,1196,736,0,0
-21,288,0,0,0,0,0,0,0,0,0,-1,1203,736,0,0
-14,288,0,0,0,0,0,0,0,0,0,-1,1210,736,0,0
-7,288,0,0,0,0,0,0,0,0,0,-1,1217,736,0,0
0,288,0,0,0,0,0,0,0,0,0,-1,1224,736,0,0
7,288,0,0,0,0,0,0,0,0,0,-1,1231,736,0,0
14,288,0,0,0,0,0,0,0,0,0,-1,1238,736,0,0
21,288,0,0,0,0,0,0,0,0,0,-1,1245,736,0,0
28,288,0,0,0,0,0,0,0,0,0,-1,1252,736,0,0
35,288,0,0,0,0,0,0,0,0,0,-1,1259,736,0,0
42,288,0,0,0,0,0,0,0,0,0,-1,1266,736,0,0
49,288,0,0,0,0,0,0,0,0,0,-1,1273,736,0,0
56,288,0,0,0,0,0,0,0,0,0,-1,1280,736,0,0
63,288,0,0,0,0,0,0,0,0,0,-1,1287,736,0,0
70,288,0,0,0,0,0,0,0,0,0,-1,1294,736,0,0
77,288,0,0,0,0,0,0,0,0,0,-1,1301,736,0,0
84,288,0,0,0,0,0,0,0,0,0,-1,1308,736,0,0
91,288,0,0,0,0,0,0,0,0,0,-1,1315,736,0,0
98,288,0,0,0,0,0,0,0,0,0,-1,1322,736,0,0
105,288,0,0,0,0,0,0,0,0,0,-1,1329,736,0,0
112,288,0,0,0,0,0,0,0,0,0,-1,1336,736,0,0
119,288,0,0,0,0,0,0,0,0,0,-1,1343,736,0,0
126,288,0,0,0,0,0,0,0,0,0,-1,1350,736,0,0
133,288,0,0,0,0,0,0,0,0,0,-1,1357,736,0,0
140,288,0,0,0,0,0,0,0,0,0,-1,1364,736,0,0
147,288,0,0,0,0,0,0,0,0,0,-1,1371,736,0,0
154,288,0,0,0,0,0,0,0,0,0,-1,1378,736,0,0
161,288,0,0,0,0,0,0,0,0,0,-1,1385,736,0,0
168,288,0,0,0,0,0,0,0,0,0,-1,1392,736,0,0
175,288,0,0,0,0,0,0,0,0,0,-1,1399,736,0,0
182,288,0,0,0,0,0,0,0,0,0,-1,1406,736,0,0
189,288,0,0,0,0,0,0,0,0,0,-1,1413,736,0,0
196,288,0,0,0,0,0,0,0,0,0,-1,1420,736,0,0
203,288,0,0,0,0,0,0,0,0,0,-1,1427,736,0,0
210,288,0,0,0,0,0,0,0,0,0,-1,1434,736,0,0
217,288,0,0,0,0,0,0,0,0,0,-1,1441,736,0,0
224,288,0,0,0,0,0,0,0,0,0,-1,1448,736,0,0
231,288,0,0,0,0,0,0,0,0,0,-1,1455,736,0,0
238,288,0,0,0,0,0,0,0,0,0,-1,1462,736,0,0
245,288,0,0,0,0,0,0,0,0,0,-1,1469,736,0,0
252,288,0,0,0,0,0,0,0,0,0,-1,1476,736,0,0
259,288,0,0,0,0,0,0,0,0,0,-1,1483,736,0,0
266,288,0,0,0,0,0,0,0,0,0,-1,1490,736,0,0
273,288,0,0,0,0,0,0,0,0,0,-1,1497,736,0,0
280,288,0,0,0,0,0,0,0,0,0,-1,1504,736,0,0
287,288,0,0,0,0,0,0,0,0,0,-1,1511,736,0,0
294,288,0,0,0,0,0,0,0,0,0,-1,1518,736,0,0
301,288,0,0,0,0,0,0,0,0,0,-1,1525,736,0,0
308,288,0,0,0,0,0,0,0,0,0,-1,1532,736,0,0
315,288,0,0,0,0,0,0,0,0,0,-1,1539,736,0,0
322,288,0,0,0,0,0,0,0,0,0,-1,1546,736,0,0
329,288,0,0,0,0,0,0,0,0,0,-1,1553,736,0,0
336,288,0,0,0,0,0,0,0,0,0,-1,1560,736,0,0
343,288,0,0,0,0,0,0,0,0,0,-1,1567,736,0,0
350,288,0,0,0,0,0,0,0,0,0,-1,1574,736,0,0
357,288,0,0,0,0,0,0,0,0,0,-1,1581,736,0,0
364,288,0,0,0,0,0,0,0,0,0,-1,1588,736,0,0
371,288,0,0,0,0,0,0,0,0,0,-1,1595,736,0,0
378,288,0,0,0,0,0,0,0,0,0,-1,1602,736,0,0
385,288,0,0,0,0,0,0,0,0,0,-1,1609,736,0,0
392,288,0,0,0,0,0,0,0,0,0,-1,1616,736,0,0
399,288,0,0,0,0,0,0,0,0,0,-1,1623,736,0,0
406,288,0,0,0,0,0,0,0,0,0,-1,1630,736,0,0
413,288,0,0,0,0,0,0,0,0,0,-1,1637,736,0,0
420,288,0,0,0,0,0,0,0,0,0,-1,1644,736,0,0
427,288,0,0,0,0,0,0,0,0,0,-1,1651,736,0,0
434,288,0,0,0,0,0,0,0,0,0,-1,1658,736,0,0
441,288,0,0,0,0,0,0,0,0,0,-1,1665,736,0,0
448,288,0,0,0,0,0,0,0,0,0,-1,1672,736,0,0
455,288,0,0,0,0,0,0,0,0,0,-1,1679,736,0,0
462,288,0,0,0,0,0,0,0,0,0,-1,1686,736,0,0
469,288,0,0,0,0,0,0,0,0,0,-1,1693,736,0,0
476,288,0,0,0,0,0,0,0,0,0,-1,1700,736,0,0
483,288,0,0,0,0,0,0,0,0,0,-1,1707,736,0,0
490,288,0,0,0,0,0,0,0,0,0,-1,1714,736,0,0
497,288,0,0,0,0,0,0,0,0,0,-1,1721,736,0,0
504,288,0,0,0,0,0,0,0,0,0,-1,1728,736,0,0
511,288,0,0,0,0,0,0,0,0,0,-1,1735,736,0,0
518,288,0,0,0,0,0,0,0,0,0,-1,1742,736,0,0
525,288,0,0,0,0,0,0,0,0,0,-1,1749,736,0,0
532,288,0,0,0,0,0,0,0,0,0,-1,1756,736,0,0
539,288,0,0,0,0,0,0,0,0,0,-1,1763,736,0,0
546,288,0,0,0,0,0,0,0,0,0,-1,1770,736,0,0
553,288,3.84985,0.645691,0.0144308,-0.0244419,0.00433833,0.014909,-0.0249202,0.109804,0.0232363,0.0389523,1777,736,3.84987,-0.645662
560,288,4.16516,0.392883,0.0124646,-0.0211542,0.00518462,0.013246,-0.0219356,0.149589,0.0205176,0.0415523,1784,736,4.16512,-0.392873
567,288,4.50195,0.384766,0.0112241,-0.0187392,0.00495569,0.0120224,-0.0195375,0.159728,0.0183925,0.0442602,1791,736,4.50193,-0.384763
574,288,4.70642,0.383362,0,0,0,0,0,0,0,-1,1798,736,4.70644,-0.383345
581,288,2.86108,1.63501,0,0,0,0,0,0,0,-1,1805,736,2.86112,-1.63504
588,288,3.03882,1.16553,0,0,0,0,0,0,0,-1,1812,736,3.03879,-1.16551
595,288,3.08301,1.24701,0.00812902,-0.00922586,7.16553e-05,0.00812932,-0.00922616,0.00412873,0.0100269,0.0446526,1819,736,3.08305,-1.24701
602,288,3.24451,1.24597,0.00753586,-0.00642495,-0.00138415,0.00767177,-0.00656086,-0.0978758,0.00822555,0.0457244,1826,736,3.24452,-1.24599
609,288,3.65393,0.774902,0.00680329,-0.00450764,-0.00257647,0.00736252,-0.00506688,-0.213739,0.0072168,0.0482432,1833,736,3.65388,-0.774915
616,288,3.63635,0.074707,0.00610575,-0.00296132,-0.00312006,0.00707564,-0.00393121,-0.301387,0.00644067,0.0474298,1840,736,3.63632,-0.0746911
623,288,3.35059,0.34436,0.00533709,-0.00180354,-0.00349222,0.00676105,-0.0032275,-0.38717,0.00588595,0.0370488,1847,736,3.35063,-0.34434
630,288,3.34644,0.292603,0.00468925,-0.00103438,-0.003351,0.00623416,-0.00257928,-0.431987,0.00523226,0.017569,1854,736,3.34644,-0.292616
637,288,3.34253,0.329102,0.00389597,-0.000654461,-0.003065,0.00543793,-0.00219642,-0.466114,0.0045382,0.0101694,1861,736,3.34252,-0.329111
644,288,3.36536,0.354919,0.00288269,-5.45875e-05,-0.00263775,0.0044331,-0.00160499,-0.531382,0.0036113,0.0101941,1868,736,3.36535,-0.354903
651,288,3.38135,0.386963,0.00174209,0.000432844,-0.00219309,0.00337618,-0.00120124,-0.640361,0.00274041,0.0108272,1875,736,3.38139,-0.386951
658,288,3.38342,0.425415,0.00111071,0.000236216,-0.00160487,0.00233684,-0.000989906,-0.652401,0.00197247,0.0144883,1882,736,3.38347,-0.425434
665,288,3.35999,0.45282,0.000607214,0.000431576,-0.00107171,0.0015947,-0.000555905,-0.744518,0.00128903,0.0149553,1889,736,3.36,-0.452802
672,288,3.35718,0.480713,-0.000519709,0.000254865,-0.0007246,0.000689184,-0.000954028,-1.03082,0.000952808,0.0128626,1896,736,3.35712,-0.480713
679,288,3.349,0.543823,-0.00116778,-0.00106504,-0.000811907,-0.00030288,-0.00192994,-0.816992,0.00119849,0.0109908,1903,736,3.34899,-0.543795
686,288,3.35522,0.553772,-0.00122411,-0.00266919,-0.00234532,0.000507449,-0.00440075,-0.635972,0.00311678,0.0090617,1910,736,3.35526,-0.553784
693,288,3.36206,0.568359,-0.00107623,-0.0044156,-0.0039499,0.00154239,-0.00703422,-0.585431,0.00527925,0.0108417,1917,736,3.36202,-0.568339
700,288,3.35034,0.580505,-0.00109002,-0.00679096,-0.0061837,0.00286857,-0.0107496,-0.569431,0.00828969,0.020761,1924,736,3.35032,-0.580504
707,288,3.34216,0.548645,-0.000997203,-0.0103676,-0.00950137,0.00491132,-0.0162762,-0.556338,0.0128058,0.0354459,1931,736,3.34216,-0.54862
714,288,3.13574,0.294189,-0.000615932,-0.0155391,-0.0145236,0.00825068,-0.0244057,-0.548102,0.0196081,0.0471309,1938,736,3.13574,-0.294187
721,288,3.1864,0.460754,0,0,0,0,0,0,0,-1,1945,736,3.18641,-0.460755
728,288,2.47729,-0.409058,0,0,0,0,0,0,0,-1,1952,736,2.47732,0.409032
735,288,2.09729,-0.254089,0,0,0,0,0,0,0,-1,1959,736,2.09733,0.254079
742,288,0,0,0,0,0,0,0,0,0,-1,1966,736,0,0
749,288,0,0,0,0,0,0,0,0,0,-1,1973,736,0,0
756,288,0,0,0,0,0,0,0,0,0,-1,1980,736,0,0
763,288,0,0,0,0,0,0,0,0,0,-1,1987,736,0,0
770,288,0,0,0,0,0,0,0,0,0,-1,1994,736,0,0
777,288,0,0,0,0,0,0,0,0,0,-1,2001,736,0,0
784,288,0,0,0,0,0,0,0,0,0,-1,2008,736,0,0
791,288,0,0,0,0,0,0,0,0,0,-1,2015,736,0,0
798,288,0,0,0,0,0,0,0,0,0,-1,2022,736,0,0
805,288,0,0,0,0,0,0,0,0,0,-1,2029,736,0,0
812,288,0,0,0,0,0,0,0,0,0,-1,2036,736,0,0
-700,281,0,0,0,0,0,0,0,0,0,-1,524,743,0,0
-693,281,0,0,0,0,0,0,0,0,0,-1,531,743,0,0
-686,281,0,0,0,0,0,0,0,0,0,-1,538,743,0,0
-679,281,0,0,0,0,0,0,0,0,0,-1,545,743,0,0
-672,281,0,0,0,0,0,0,0,0,0,-1,552,743,0,0
-665,281,0,0,0,0,0,0,0,0,0,-1,559,743,0,0
-658,281,0,0,0,0,0,0,0,0,0,-1,566,743,0,0
-651,281,0,0,0,0,0,0,0,0,0,-1,573,743,0,0
-644,281,0,0,0,0,0,0,0,0,0,-1,580,743,0,0
-637,281,0,0,0,0,0,0,0,0,0,-1,587,743,0,0
-630,281,0,0,0,0,0,0,0,0,0,-1,594,743,0,0
-623,281,-2.08087,-1.07019,0,0,0,0,0,0,0,-1,601,743,-2.08086,1.07022
-616,281,-1.42072,-0.602722,0,0,0,0,0,0,0,-1,608,743,-1.42072,0.602708
-609,281,-1.37018,-0.566528,0,0,0,0,0,0,0,-1,615,743,-1.37016,0.5665
-602,281,-1.6073,1.81793,0,0,0,0,0,0,0,-1,622,743,-1.6073,-1.81792
-595,281,-1.22504,1.46808,0.0216972,-0.00787448,-0.010265,0.0249111,-0.0110884,-0.303426,0.0212889,0.0492785,629,743,-1.22507,-1.46807
-588,281,-0.83905,1.12689,0.0204348,-0.00686328,-0.00746854,0.0223445,-0.00877301,-0.25034,0.0185265,0.0456969,636,743,-0.839033,-1.12689
-581,281,-0.136414,0.774963,0.018621,-0.00603357,-0.00519742,0.0196718,-0.00708445,-0.199502,0.0160074,0.0408912,643,743,-0.136408,-0.774941
-574,281,0.0751953,0.661194,0.0159983,-0.00554822,-0.00317217,0.0164556,-0.00600553,-0.143178,0.0134277,0.0235037,650,743,0.0751693,-0.661165
-567,281,0.0532227,0.644531,0.0130909,-0.00422305,-0.00183667,0.0132836,-0.00441574,-0.10453,0.0106377,0.0114344,657,743,0.0532518,-0.644536
-560,281,0.0682983,0.626709,0.0102456,-0.00276896,-0.00119389,0.0103542,-0.00287757,-0.0907263,0.00803562,0.00837606,664,743,0.0683265,-0.626723
-553,281,0.0795898,0.614075,0.00802497,-0.00129425,-0.000754964,0.00808574,-0.00135501,-0.0803136,0.00589431,0.0127694,671,743,0.0795816,-0.614061
-546,281,0.0886841,0.587891,0.00597157,-0.000605813,-0.000640977,0.00603345,-0.000667695,-0.0962451,0.00426234,0.0140186,678,743,0.0886768,-0.587878
-539,281,0.0928955,0.547852,0.00411235,-0.00021603,-0.0004686,0.0041625,-0.000266181,-0.106617,0.00286785,0.0120081,685,743,0.0928761,-0.547881
-532,281,0.0864868,0.524475,0.00218596,-0.000408708,2.77645e-05,0.00218626,-0.000409005,0.0106989,0.00161124,0.0103815,692,743,0.0864836,-0.524487
-525,281,0.0708618,0.482727,0.00105146,0.000134191,0.000329253,0.00115741,2.82439e-05,0.311318,0.000762367,0.0122715,699,743,0.0708858,-0.482736
-518,281,0.0668335,0.423706,0.000660906,0.00121995,0.0012568,0.00222793,-0.000347078,0.894821,0.00161347,0.0123624,706,743,0.0668534,-0.423707
-511,281,0.0854492,0.37793,0.000987021,0.00281672,0.00301119,0.00504897,-0.00124523,0.932875,0.0038488,0.0109017,713,743,0.0854554,-0.377918
-504,281,0.0952148,0.333679,0.0012215,0.00522961,0.00526814,0.008862,-0.00241089,0.967151,0.00685445,0.0112823,720,743,0.0952201,-0.333656
-497,281,0.114014,0.264771,0.00133262,0.00809031,0.00791986,0.013322,-0.00389904,0.987023,0.0104269,0.0275288,727,743,0.114019,-0.264765
-490,281,0.19104,0.158447,0.00116109,0.0113663,0.01084,0.0182446,-0.00571717,1.00537,0.0144508,0.0395742,734,743,0.191042,-0.158464
-483,281,1.03699,-0.240234,0,0,0,0,0,0,0,-1,741,743,1.03697,0.240233
-476,281,1.1228,0.613281,0.00426362,0.0194039,0.01955,0.0327983,-0.00913071,0.970119,0.0254608,0.0444467,748,743,1.1228,-0.613269
-469,281,1.2804,0.759644,0.00637498,0.0241568,0.0247658,0.0415793,-0.0110475,0.957733,0.0320432,0.0449235,755,743,1.28042,-0.75966
-462,281,1.5824,1.11725,0.00961562,0.0287378,0.030349,0.0509962,-0.0126428,0.937995,0.0389026,0.0447852,762,743,1.58237,-1.11725
-455,281,1.24921,1.57715,0.0145785,0.0325528,0.0361223,0.0607892,-0.0136579,0.907321,0.0457632,0.0433011,769,743,1.24923,-1.57717
-448,281,1.09882,1.75348,0,0,0,0,0,0,0,-1,776,743,1.09881,-1.75349
-441,281,0.949829,1.87433,0,0,0,0,0,0,0,-1,783,743,0.949818,-1.87433
-434,281,0,0,0,0,0,0,0,0,0,-1,790,743,0,0
-427,281,0,0,0,0,0,0,0,0,0,-1,797,743,0,0
-420,281,0,0,0,0,0,0,0,0,0,-1,804,743,0,0
-413,281,0,0,0,0,0,0,0,0,0,-1,811,743,0,0
-406,281,0,0,0,0,0,0,0,0,0,-1,818,743,0,0
-399,281,0,0,0,0,0,0,0,0,0,-1,825,743,0,0
-392,281,0,0,0,0,0,0,0,0,0,-1,832,743,0,0
-385,281,0,0,0,0,0,0,0,0,0,-1,839,743,0,0
-378,281,0,0,0,0,0,0,0,0,0,-1,846,743,0,0
-371,281,0,0,0,0,0,0,0,0,0,-1,853,743,0,0
-364,281,0,0,0,0,0,0,0,0,0,-1,860,743,0,0
-357,281,0,0,0,0,0,0,0,0,0,-1,867,743,0,0
-350,281,0,0,0,0,0,0,0,0,0,-1,874,743,0,0
-343,281,0,0,0,0,0,0,0,0,0,-1,881,743,0,0
-336,281,0,0,0,0,0,0,0,0,0,-1,888,743,0,0
-329,281,0,0,0,0,0,0,0,0,0,-1,895,743,0,0
-322,281,0,0,0,0,0,0,0,0,0,-1,902,743,0,0
-315,281,0,0,0,0,0,0,0,0,0,-1,909,743,0,0
-308,281,0,0,0,0,0,0,0,0,0,-1,916,743,0,0
-301,281,0,0,0,0,0,0,0,0,0,-1,923,743,0,0
-294,281,0,0,0,0,0,0,0,0,0,-1,930,743,0,0
-287,281,0,0,0,0,0,0,0,0,0,-1,937,743,0,0
-280,281,0,0,0,0,0,0,0,0,0,-1,944,743,0,0
-273,281,0,0,0,0,0,0,0,0,0,-1,951,743,0,0
-266,281,0,0,0,0,0,0,0,0,0,-1,958,743,0,0
-259,281,0,0,0,0,0,0,0,0,0,-1,965,743,0,0
-252,281,0,0,0,0,0,0,0,0,0,-1,972,743,0,0
-245,281,0,0,0,0,0,0,0,0,0,-1,979,743,0,0
-238,281,0,0,0,0,0,0,0,0,0,-1,986,743,0,0
-231,281,0,0,0,0,0,0,0,0,0,-1,993,743,0,0
-224,281,0,0,0,0,0,0,0,0,0,-1,1000,743,0,0
-217,281,0,0,0,0,0,0,0,0,0,-1,1007,743,0,0
-210,281,0,0,0,0,0,0,0,0,0,-1,1014,743,0,0
-203,281,0,0,0,0,0,0,0,0,0,-1,1021,743,0,0
-196,281,0,0,0,0,0,0,0,0,0,-1,1028,743,0,0
-189,281,0,0,0,0,0,0,0,0,0,-1,1035,743,0,0
-182,281,0,0,0,0,0,0,0,0,0,-1,1042,743,0,0
-175,281,0,0,0,0,0,0,0,0,0,-1,1049,743,0,0
-168,281,0,0,0,0,0,0,0,0,0,-1,1056,743,0,0
-161,281,0,0,0,0,0,0,0,0,0,-1,1063,743,0,0
-154,281,0,0,0,0,0,0,0,0,0,-1,1070,743,0,0
-147,281,0,0,0,0,0,0,0,0,0,-1,1077,743,0,0
-140,281,0,0,0,0,0,0,0,0,0,-1,1084,743,0,0
-133,281,0,0,0,0,0,0,0,0,0,-1,1091,743,0,0
-126,281,0,0,0,0,0,0,0,0,0,-1,1098,743,0,0
-119,281,0,0,0,0,0,0,0,0,0,-1,1105,743,0,0
-112,281,0,0,0,0,0,0,0,0,0,-1,1112,743,0,0
-105,281,0,0,0,0,0,0,0,0,0,-1,1119,743,0,0
-98,281,0,0,0,0,0,0,0,0,0,-1,1126,743,0,0
-91,281,0,0,0,0,0,0,0,0,0,-1,1133,743,0,0
-84,281,0,0,0,0,0,0,0,0,0,-1,1140,743,0,0
-77,281,0,0,0,0,0,0,0,0,0,-1,1147,743,0,0
-70,281,0,0,0,0,0,0,0,0,0,-1,1154,743,0,0
-63,281,0,0,0,0,0,0,0,0,0,-1,1161,743,0,0
-56,281,0,0,0,0,0,0,0,0,0,-1,1168,743,0,0
-49,281,0,0,0,0,0,0,0,0,0,-1,1175,743,0,0
-42,281,0,0,0,0,0,0,0,0,0,-1,1182,743,0,0
-35,281,0,0,0,0,0,0,0,0,0,-1,1189,743,0,0
-28,281,0,0,0,0,0,0,0,0,0,-1,1196,743,0,0
-21,281,0,0,0,0,0,0,0,0,0,-1,1203,743,0,0
-14,281,0,0,0,0,0,0,0,0,0,-1,1210,743,0,0
-7,281,0,0,0,0,0,0,0,0,0,-1,1217,743,0,0
0,281,0,0,0,0,0,0,0,0,0,-1,1224,743,0,0
7,281,0,0,0,0,0,0,0,0,0,-1,1231,743,0,0
14,281,0,0,0,0,0,0,0,0,0,-1,1238,743,0,0
21,281,0,0,0,0,0,0,0,0,0,-1,1245,743,0,0
28,281,0,0,0,0,0,0,0,0,0,-1,1252,743,0,0
35,281,0,0,0,0,0,0,0,0,0,-1,1259,743,0,0
42,281,0,0,0,0,0,0,0,0,0,-1,1266,743,0,0
49,281,0,0,0,0,0,0,0,0,0,-1,1273,743,0,0
56,281,0,0,0,0,0,0,0,0,0,-1,1280,743,0,0
63,281,0,0,0,0,0,0,0,0,0,-1,1287,743,0,0
70,281,0,0,0,0,0,0,0,0,0,-1,1294,743,0,0
77,281,0,0,0,0,0,0,0,0,0,-1,1301,743,0,0
84,281,0,0,0,0,0,0,0,0,0,-1,1308,743,0,0
91,281,0,0,0,0,0,0,0,0,0,-1,1315,743,0,0
98,281,0,0,0,0,0,0,0,0,0,-1,1322,743,0,0
105,281,0,0,0,0,0,0,0,0,0,-1,1329,743,0,0
112,281,0,0,0,0,0,0,0,0,0,-1,1336,743,0,0
119,281,0,0,0,0,0,0,0,0,0,-1,1343,743,0,0
126,281,0,0,0,0,0,0,0,0,0,-1,1350,743,0,0
133,281,0,0,0,0,0,0,0,0,0,-1,1357,743,0,0
140,281,0,0,0,0,0,0,0,0,0,-1,1364,743,0,0
147,281,0,0,0,0,0,0,0,0,0,-1,1371,743,0,0
154,281,0,0,0,0,0,0,0,0,0,-1,1378,743,0,0
161,281,0,0,0,0,0,0,0,0,0,-1,1385,743,0,0
168,281,0,0,0,0,0,0,0,0,0,-1,1392,743,0,0
175,281,0,0,0,0,0,0,0,0,0,-1,1399,743,0,0
182,281,0,0,0,0,0,0,0,0,0,-1,1406,743,0,0
189,281,0,0,0,0,0,0,0,0,0,-1,1413,743,0,0
196,281,0,0,0,0,0,0,0,0,0,-1,1420,743,0,0
203,281,0,0,0,0,0,0,0,0,0,-1,1427,743,0,0
210,281,0,0,0,0,0,0,0,0,0,-1,1434,743,0,0
217,281,0,0,0,0,0,0,0,0,0,-1,1441,743,0,0
224,281,0,0,0,0,0,0,0,0,0,-1,1448,743,0,0
231,281,0,0,0,0,0,0,0,0,0,-1,1455,743,0,0
238,281,0,0,0,0,0,0,0,0,0,-1,1462,743,0,0
245,281,0,0,0,0,0,0,0,0,0,-1,1469,743,0,0
252,281,0,0,0,0,0,0,0,0,0,-1,1476,743,0,0
259,281,0,0,0,0,0,0,0,0,0,-1,1483,743,0,0
266,281,0,0,0,0,0,0,0,0,0,-1,1490,743,0,0
273,281,0,0,0,0,0,0,0,0,0,-1,1497,743,0,0
280,281,0,0,0,0,0,0,0,0,0,-1,1504,743,0,0
287,281,0,0,0,0,0,0,0,0,0,-1,1511,743,0,0
294,281,0,0,0,0,0,0,0,0,0,-1,1518,743,0,0
301,281,0,0,0,0,0,0,0,0,0,-1,1525,743,0,0
308,281,0,0,0,0,0,0,0,0,0,-1,1532,743,0,0
315,281,0,0,0,0,0,0,0,0,0,-1,1539,743,0,0
322,281,0,0,0,0,0,0,0,0,0,-1,1546,743,0,0
329,281,0,0,0,0,0,0,0,0,0,-1,1553,743,0,0
336,281,0,0,0,0,0,0,0,0,0,-1,1560,743,0,0
343,281,0,0,0,0,0,0,0,0,0,-1,1567,743,0,0
350,281,0,0,0,0,0,0,0,0,0,-1,1574,743,0,0
357,281,0,0,0,0,0,0,0,0,0,-1,1581,743,0,0
364,281,0,0,0,0,0,0,0,0,0,-1,1588,743,0,0
371,281,0,0,0,0,0,0,0,0,0,-1,1595,743,0,0
378,281,0,0,0,0,0,0,0,0,0,-1,1602,743,0,0
385,281,0,0,0,0,0,0,0,0,0,-1,1609,743,0,0
392,281,0,0,0,0,0,0,0,0,0,-1,1616,743,0,0
399,281,0,0,0,0,0,0,0,0,0,-1,1623,743,0,0
406,281,0,0,0,0,0,0,0,0,0,-1,1630,743,0,0
413,281,0,0,0,0,0,0,0,0,0,-1,1637,743,0,0
420,281,0,0,0,0,0,0,0,0,0,-1,1644,743,0,0
427,281,0,0,0,0,0,0,0,0,0,-1,1651,743,0,0
434,281,0,0,0,0,0,0,0,0,0,-1,1658,743,0,0
441,281,0,0,0,0,0,0,0,0,0,-1,1665,743,0,0
448,281,0,0,0,0,0,0,0,0,0,-1,1672,743,0,0
455,281,0,0,0,0,0,0,0,0,0,-1,1679,743,0,0
462,281,0,0,0,0,0,0,0,0,0,-1,1686,743,0,0
469,281,0,0,0,0,0,0,0,0,0,-1,1693,743,0,0
476,281,0,0,0,0,0,0,0,0,0,-1,1700,743,0,0
483,281,0,0,0,0,0,0,0,0,0,-1,1707,743,0,0
490,281,0,0,0,0,0,0,0,0,0,-1,1714,743,0,0
497,281,0,0,0,0,0,0,0,0,0,-1,1721,743,0,0
504,281,0,0,0,0,0,0,0,0,0,-1,1728,743,0,0
511,281,0,0,0,0,0,0,0,0,0,-1,1735,743,0,0
518,281,0,0,0,0,0,0,0,0,0,-1,1742,743,0,0
525,281,0,0,0,0,0,0,0,0,0,-1,1749,743,0,0
532,281,0,0,0,0,0,0,0,0,0,-1,1756,743,0,0
539,281,0,0,0,0,0,0,0,0,0,-1,1763,743,0,0
546,281,0,0,0,0,0,0,0,0,0,-1,1770,743,0,0
553,281,0,0,0,0,0,0,0,0,0,-1,1777,743,0,0
560,281,4.27478,0.646423,0.012189,-0.0166012,0.00403189,0.012743,-0.0171551,0.136545,0.0173242,0.0388093,1784,743,4.27475,-0.646416
567,281,4.30811,0.563599,0.0100977,-0.0142582,0.0038561,0.0106936,-0.0148541,0.153329,0.014815,0.0422597,1791,743,4.30806,-0.563603
574,281,4.2511,0.560913,0,0,0,0,0,0,0,-1,1798,743,4.25111,-0.560914
581,281,2.96265,1.46356,0.00841722,-0.00981472,0.00130334,0.00850992,-0.00990742,0.0710052,0.0106435,0.047753,1805,743,2.96265,-1.46356
588,281,3.08093,1.3009,0.00782577,-0.00801539,-8.06341e-05,0.00782618,-0.0080158,-0.00508999,0.00914659,0.0447054,1812,743,3.08098,-1.30089
595,281,3.17969,1.38165,0.00748197,-0.00635913,-0.00158938,0.00766213,-0.00653929,-0.112873,0.00820773,0.0437219,1819,743,3.17964,-1.38168
602,281,3.27979,1.21246,0.00727116,-0.00412433,-0.00296537,0.00799663,-0.0048498,-0.239935,0.0074907,0.0455119,1826,743,3.27984,-1.21246
609,281,3.4375,1.0224,0.00694943,-0.00263704,-0.00400503,0.00840242,-0.00409003,-0.348025,0.00735437,0.0492901,1833,743,3.43755,-1.02241
616,281,3.1709,0.883362,0,0,0,0,0,0,0,-1,1840,743,3.17084,-0.883388
623,281,3.24976,0.614075,0.00613065,-0.000576255,-0.00458603,0.00845851,-0.00290411,-0.469707,0.00681648,0.0449783,1847,743,3.24973,-0.614088
630,281,3.39758,0.237976,0.00564241,-7.92902e-05,-0.00424862,0.0079036,-0.00234048,-0.489087,0.00619831,0.0295235,1854,743,3.39753,-0.238003
637,281,3.39893,0.312927,0.00492505,9.71487e-05,-0.00378014,0.00699626,-0.00197405,-0.501243,0.00544285,0.0123079,1861,743,3.39891,-0.312947
644,281,3.41919,0.349976,0.00392106,0.000476079,-0.00320208,0.00583454,-0.0014374,-0.538634,0.00444695,0.0104532,1868,743,3.41918,-0.349995
651,281,3.44189,0.372925,0.00260634,0.000879912,-0.0026083,0.00449056,-0.00100431,-0.625597,0.0033786,0.011402,1875,743,3.44186,-0.372951
658,281,3.40991,0.405945,0.00189693,0.000653431,-0.00190678,0.00328077,-0.000730412,-0.627798,0.00246696,0.0183433,1882,743,3.4099,-0.405934
665,281,3.39075,0.418457,0.00124928,0.0008774,-0.00133557,0.00241179,-0.000285117,-0.716233,0.00171084,0.0193822,1889,743,3.3908,-0.418454
672,281,3.38232,0.481567,-0.000373062,0.000678041,-0.000921551,0.00121337,-0.000908388,-1.04454,0.00122921,0.0116742,1896,743,3.38238,-0.481585
679,281,3.39612,0.519043,-0.00126911,-0.000754836,-0.000916535,-6.00514e-05,-0.0019639,-0.92216,0.00128971,0.0163633,1903,743,3.39608,-0.519043
686,281,3.39014,0.54364,-0.00123931,-0.00242631,-0.00248471,0.000721803,-0.00438742,-0.668164,0.00319286,0.0120337,1910,743,3.39019,-0.543642
693,281,3.39966,0.567261,-0.001083,-0.00426436,-0.00399951,0.00163054,-0.0069779,-0.596129,0.00528004,0.00973981,1917,743,3.39968,-0.567287
700,281,3.40833,0.587769,-0.00106662,-0.00670193,-0.00601821,0.00276088,-0.0105294,-0.56646,0.00809833,0.0153926,1924,743,3.40836,-0.587753
707,281,3.37317,0.575806,-0.000928796,-0.0103447,-0.00885354,0.00439071,-0.0156642,-0.541032,0.0121733,0.0319049,1931,743,3.37321,-0.57581
714,281,3.2511,0.577576,-0.000577369,-0.015467,-0.0129108,0.00688135,-0.0229257,-0.523868,0.018021,0.0470264,1938,743,3.25113,-0.577574
721,281,3.13574,0.679932,0,0,0,0,0,0,0,-1,1945,743,3.13572,-0.679934
728,281,2.63391,-1.10168,0.00170803,-0.0318543,-0.0257603,0.0156709,-0.0458172,-0.496706,0.036895,0.0458555,1952,743,2.63394,1.10169
735,281,2.02625,-1.54663,0.0040077,-0.043657,-0.0348575,0.0224013,-0.0620506,-0.485544,0.0505178,0.0470179,1959,743,2.02626,1.54661
742,281,0,0,0,0,0,0,0,0,0,-1,1966,743,0,0
749,281,0,0,0,0,0,0,0,0,0,-1,1973,743,0,0
756,281,0,0,0,0,0,0,0,0,0,-1,1980,743,0,0
763,281,0,0,0,0,0,0,0,0,0,-1,1987,743,0,0
770,281,0,0,0,0,0,0,0,0,0,-1,1994,743,0,0
777,281,0,0,0,0,0,0,0,0,0,-1,2001,743,0,0
784,281,0,0,0,0,0,0,0,0,0,-1,2008,743,0,0
791,281,0,0,0,0,0,0,0,0,0,-1,2015,743,0,0
798,281,0,0,0,0,0,0,0,0,0,-1,2022,743,0,0
805,281,0,0,0,0,0,0,0,0,0,-1,2029,743,0,0
812,281,0,0,0,0,0,0,0,0,0,-1,2036,743,0,0
-700,274,0,0,0,0,0,0,0,0,0,-1,524,750,0,0
-693,274,0,0,0,0,0,0,0,0,0,-1,531,750,0,0
-686,274,0,0,0,0,0,0,0,0,0,-1,538,750,0,0
-679,274,0,0,0,0,0,0,0,0,0,-1,545,750,0,0
-672,274,0,0,0,0,0,0,0,0,0,-1,552,750,0,0
-665,274,0,0,0,0,0,0,0,0,0,-1,559,750,0,0
-658,274,0,0,0,0,0,0,0,0,0,-1,566,750,0,0
-651,274,0,0,0,0,0,0,0,0,0,-1,573,750,0,0
-644,274,0,0,0,0,0,0,0,0,0,-1,580,750,0,0
-637,274,0,0,0,0,0,0,0,0,0,-1,587,750,0,0
-630,274,0,0,0,0,0,0,0,0,0,-1,594,750,0,0
-623,274,-1.33887,-0.181946,0.0156763,0.000537447,-0.0328698,0.041837,-0.0256232,-0.672229,0.0393213,0.0435188,601,750,-1.33885,0.181939
-616,274,-1.2121,-0.649902,0.0192862,-0.0044957,-0.0253266,0.0353744,-0.0205839,-0.565921,0.0326815,0.0491575,608,750,-1.21207,0.64993
-609,274,-1.10449,-0.647522,0.0210976,-0.00702124,-0.0194162,0.0310102,-0.0169338,-0.472036,0.0280753,0.0447526,615,750,-1.1045,0.647516
-602,274,-1.06409,1.73914,0,0,0,0,0,0,0,-1,622,750,-1.06408,-1.73915
-595,274,-0.796875,1.42896,0.0208261,-0.00775564,-0.0110488,0.0245991,-0.0115287,-0.329073,0.0213086,0.047723,629,750,-0.796884,-1.42894
-588,274,-0.445435,1.13702,0.019219,-0.00693062,-0.00810344,0.0215265,-0.00923816,-0.277417,0.0182282,0.045482,636,750,-0.445454,-1.137
-581,274,0.0205078,0.845398,0.0173149,-0.00618827,-0.00559268,0.0185778,-0.00745121,-0.222095,0.0154788,0.035787,643,750,0.0204921,-0.845424
-574,274,0.0626831,0.715881,0.0147015,-0.00575162,-0.00347419,0.0152755,-0.00632564,-0.163745,0.0128233,0.0177277,650,750,0.0626727,-0.715898
-567,274,0.0235596,0.693237,0.0118403,-0.00423616,-0.00217239,0.0121287,-0.00452454,-0.131976,0.00994326,0.0162635,657,750,0.0235838,-0.693208
-560,274,0.045166,0.645691,0.00910007,-0.00280935,-0.00143663,0.00927093,-0.0029802,-0.118368,0.00737747,0.0144591,664,750,0.0451459,-0.645662
-553,274,0.048584,0.590576,0.00700575,-0.00142429,-0.000822242,0.0070852,-0.00150374,-0.0963275,0.00529635,0.00918861,671,750,0.0485683,-0.590567
-546,274,0.0472412,0.557678,0.00514774,-0.000805544,-0.000602879,0.00520817,-0.000865983,-0.0999168,0.00379387,0.0105581,678,750,0.0472372,-0.557675
-539,274,0.0549927,0.546997,0.00341351,-0.000440856,-0.000341495,0.00344353,-0.000470879,-0.0876892,0.00246767,0.0106839,685,750,0.0549753,-0.546993
-532,274,0.0577393,0.528931,0.0015383,-0.00075416,0.000247756,0.00156477,-0.00078063,0.106437,0.00137911,0.0103375,692,750,0.0577617,-0.528935
-525,274,0.0491943,0.476746,0.000404597,-0.000304502,0.000707736,0.000841625,-0.000741531,0.553189,0.000914644,0.0108433,699,750,0.04919,-0.47676
-518,274,0.0516968,0.411255,-3.20109e-05,0.000595823,0.00174732,0.0020572,-0.00149339,0.874278,0.00205853,0.0125267,706,750,0.0517029,-0.411277
-511,274,0.0584717,0.373657,0.000126017,0.0020095,0.0036076,0.00479626,-0.00266073,0.913071,0.00436375,0.01197,713,750,0.0584555,-0.373667
-504,274,0.0609131,0.328003,0.000124902,0.00429046,0.00608379,0.00863811,-0.00422275,0.95032,0.00756968,0.0183978,720,750,0.0609426,-0.328011
-497,274,0.0296021,0.196228,-3.27871e-07,0.00705193,0.0090439,0.0132328,-0.0061812,0.971278,0.0114525,0.039069,727,750,0.0295832,-0.196243
-490,274,0.952332,-0.0822754,-0.000389282,0.0104031,0.0124117,0.0185409,-0.00852713,0.990454,0.0159803,0.0435891,734,750,0.952349,0.0822508
-483,274,0.815369,-0.217224,-0.000201568,0.0146339,0.0168017,0.0255824,-0.0111501,0.993274,0.0217463,0.0441198,741,750,0.815397,0.21721
-476,274,0.564209,0.026062,0.00178464,0.0189961,0.0222014,0.0342013,-0.0134206,0.970293,0.0283537,0.0441684,748,750,0.564197,-0.0260706
-469,274,0.641418,0.265686,0.00346528,0.024156,0.0280304,0.0436892,-0.0160679,0.962182,0.0357082,0.0481995,755,750,0.641408,-0.265672
-462,274,0.658142,0.532837,0.00623564,0.0291405,0.0341837,0.0537392,-0.018363,0.947035,0.0432662,0.0466747,762,750,0.658166,-0.532859
-455,274,0.676453,0.983276,0.0107127,0.0332084,0.0403672,0.0638655,-0.0199444,0.921271,0.050554,0.0458425,769,750,0.676447,-0.983284
-448,274,0.468933,1.50116,0,0,0,0,0,0,0,-1,776,750,0.468958,-1.50114
-441,274,0,0,0,0,0,0,0,0,0,-1,783,750,0,0
-434,274,0,0,0,0,0,0,0,0,0,-1,790,750,0,0
-427,274,0,0,0,0,0,0,0,0,0,-1,797,750,0,0
-420,274,0,0,0,0,0,0,0,0,0,-1,804,750,0,0
-413,274,0,0,0,0,0,0,0,0,0,-1,811,750,0,0
-406,274,0,0,0,0,0,0,0,0,0,-1,818,750,0,0
-399,274,0,0,0,0,0,0,0,0,0,-1,825,750,0,0
-392,274,0,0,0,0,0,0,0,0,0,-1,832,750,0,0
-385,274,0,0,0,0,0,0,0,0,0,-1,839,750,0,0
-378,274,0,0,0,0,0,0,0,0,0,-1,846,750,0,0
-371,274,0,0,0,0,0,0,0,0,0,-1,853,750,0,0
-364,274,0,0,0,0,0,0,0,0,0,-1,860,750,0,0
-357,274,0,0,0,0,0,0,0,0,0,-1,867,750,0,0
-350,274,0,0,0,0,0,0,0,0,0,-1,874,750,0,0
-343,274,0,0,0,0,0,0,0,0,0,-1,881,750,0,0
-336,274,0,0,0,0,0,0,0,0,0,-1,888,750,0,0
-329,274,0,0,0,0,0,0,0,0,0,-1,895,750,0,0
-322,274,0,0,0,0,0,0,0,0,0,-1,902,750,0,0
-315,274,0,0,0,0,0,0,0,0,0,-1,909,750,0,0
-308,274,0,0,0,0,0,0,0,0,0,-1,916,750,0,0
-301,274,0,0,0,0,0,0,0,0,0,-1,923,750,0,0
-294,274,0,0,0,0,0,0,0,0,0,-1,930,750,0,0
-287,274,0,0,0,0,0,0,0,0,0,-1,937,750,0,0
-280,274,0,0,0,0,0,0,0,0,0,-1,944,750,0,0
-273,274,0,0,0,0,0,0,0,0,0,-1,951,750,0,0
-266,274,0,0,0,0,0,0,0,0,0,-1,958,750,0,0
-259,274,0,0,0,0,0,0,0,0,0,-1,965,750,0,0
-252,274,0,0,0,0,0,0,0,0,0,-1,972,750,0,0
-245,274,0,0,0,0,0,0,0,0,0,-1,979,750,0,0
-238,274,0,0,0,0,0,0,0,0,0,-1,986,750,0,0
-231,274,0,0,0,0,0,0,0,0,0,-1,993,750,0,0
-224,274,0,0,0,0,0,0,0,0,0,-1,1000,750,0,0
-217,274,0,0,0,0,0,0,0,0,0,-1,1007,750,0,0
-210,274,0,0,0,0,0,0,0,0,0,-1,1014,750,0,0
-203,274,0,0,0,0,0,0,0,0,0,-1,1021,750,0,0
-196,274,0,0,0,0,0,0,0,0,0,-1,1028,750,0,0
-189,274,0,0,0,0,0,0,0,0,0,-1,1035,750,0,0
-182,274,0,0,0,0,0,0,0,0,0,-1,1042,750,0,0
-175,274,0,0,0,0,0,0,0,0,0,-1,1049,750,0,0
-168,274,0,0,0,0,0,0,0,0,0,-1,1056,750,0,0
-161,274,0,0,0,0,0,0,0,0,0,-1,1063,750,0,0
-154,274,0,0,0,0,0,0,0,0,0,-1,1070,750,0,0
-147,274,0,0,0,0,0,0,0,0,0,-1,1077,750,0,0
-140,274,0,0,0,0,0,0,0,0,0,-1,1084,750,0,0
-133,274,0,0,0,0,0,0,0,0,0,-1,1091,750,0,0
-126,274,0,0,0,0,0,0,0,0,0,-1,1098,750,0,0
-119,274,0,0,0,0,0,0,0,0,0,-1,1105,750,0,0
-112,274,0,0,0,0,0,0,0,0,0,-1,1112,750,0,0
-105,274,0,0,0,0,0,0,0,0,0,-1,1119,750,0,0
-98,274,0,0,0,0,0,0,0,0,0,-1,1126,750,0,0
-91,274,0,0,0,0,0,0,0,0,0,-1,1133,750,0,0
-84,274,0,0,0,0,0,0,0,0,0,-1,1140,750,0,0
-77,274,0,0,0,0,0,0,0,0,0,-1,1147,750,0,0
-70,274,0,0,0,0,0,0,0,0,0,-1,1154,750,0,0
-63,274,0,0,0,0,0,0,0,0,0,-1,1161,750,0,0
-56,274,0,0,0,0,0,0,0,0,0,-1,1168,750,0,0
-49,274,0,0,0,0,0,0,0,0,0,-1,1175,750,0,0
-42,274,0,0,0,0,0,0,0,0,0,-1,1182,750,0,0
-35,274,0,0,0,0,0,0,0,0,0,-1,1189,750,0,0
-28,274,0,0,0,0,0,0,0,0,0,-1,1196,750,0,0
-21,274,0,0,0,0,0,0,0,0,0,-1,1203,750,0,0
-14,274,0,0,0,0,0,0,0,0,0,-1,1210,750,0,0
-7,274,0,0,0,0,0,0,0,0,0,-1,1217,750,0,0
0,274,0,0,0,0,0,0,0,0,0,-1,1224,750,0,0
7,274,0,0,0,0,0,0,0,0,0,-1,1231,750,0,0
14,274,0,0,0,0,0,0,0,0,0,-1,1238,750,0,0
21,274,0,0,0,0,0,0,0,0,0,-1,1245,750,0,0
28,274,0,0,0,0,0,0,0,0,0,-1,1252,750,0,0
35,274,0,0,0,0,0,0,0,0,0,-1,1259,750,0,0
42,274,0,0,0,0,0,0,0,0,0,-1,1266,750,0,0
49,274,0,0,0,0,0,0,0,0,0,-1,1273,750,0,0
56,274,0,0,0,0,0,0,0,0,0,-1,1280,750,0,0
63,274,0,0,0,0,0,0,0,0,0,-1,1287,750,0,0
70,274,0,0,0,0,0,0,0,0,0,-1,1294,750,0,0
77,274,0,0,0,0,0,0,0,0,0,-1,1301,750,0,0
84,274,0,0,0,0,0,0,0,0,0,-1,1308,750,0,0
91,274,0,0,0,0,0,0,0,0,0,-1,1315,750,0,0
98,274,0,0,0,0,0,0,0,0,0,-1,1322,750,0,0
105,274,0,0,0,0,0,0,0,0,0,-1,1329,750,0,0
112,274,0,0,0,0,0,0,0,0,0,-1,1336,750,0,0
119,274,0,0,0,0,0,0,0,0,0,-1,1343,750,0,0
126,274,0,0,0,0,0,0,0,0,0,-1,1350,750,0,0
133,274,0,0,0,0,0,0,0,0,0,-1,1357,750,0,0
140,274,0,0,0,0,0,0,0,0,0,-1,1364,750,0,0
147,274,0,0,0,0,0,0,0,0,0,-1,1371,750,0,0
154,274,0,0,0,0,0,0,0,0,0,-1,1378,750,0,0
161,274,0,0,0,0,0,0,0,0,0,-1,1385,750,0,0
168,274,0,0,0,0,0,0,0,0,0,-1,1392,750,0,0
175,274,0,0,0,0,0,0,0,0,0,-1,1399,750,0,0
182,274,0,0,0,0,0,0,0,0,0,-1,1406,750,0,0
189,274,0,0,0,0,0,0,0,0,0,-1,1413,750,0,0
196,274,0,0,0,0,0,0,0,0,0,-1,1420,750,0,0
203,274,0,0,0,0,0,0,0,0,0,-1,1427,750,0,0
210,274,0,0,0,0,0,0,0,0,0,-1,1434,750,0,0
217,274,0,0,0,0,0,0,0,0,0,-1,1441,750,0,0
224,274,0,0,0,0,0,0,0,0,0,-1,1448,750,0,0
231,274,0,0,0,0,0,0,0,0,0,-1,1455,750,0,0
238,274,0,0,0,0,0,0,0,0,0,-1,1462,750,0,0
245,274,0,0,0,0,0,0,0,0,0,-1,1469,750,0,0
252,274,0,0,0,0,0,0,0,0,0,-1,1476,750,0,0
259,274,0,0,0,0,0,0,0,0,0,-1,1483,750,0,0
266,274,0,0,0,0,0,0,0,0,0,-1,1490,750,0,0
273,274,0,0,0,0,0,0,0,0,0,-1,1497,750,0,0
280,274,0,0,0,0,0,0,0,0,0,-1,1504,750,0,0
287,274,0,0,0,0,0,0,0,0,0,-1,1511,750,0,0
294,274,0,0,0,0,0,0,0,0,0,-1,1518,750,0,0
301,274,0,0,0,0,0,0,0,0,0,-1,1525,750,0,0
308,274,0,0,0,0,0,0,0,0,0,-1,1532,750,0,0
315,274,0,0,0,0,0,0,0,0,0,-1,1539,750,0,0
322,274,0,0,0,0,0,0,0,0,0,-1,1546,750,0,0
329,274,0,0,0,0,0,0,0,0,0,-1,1553,750,0,0
336,274,0,0,0,0,0,0,0,0,0,-1,1560,750,0,0
343,274,0,0,0,0,0,0,0,0,0,-1,1567,750,0,0
350,274,0,0,0,0,0,0,0,0,0,-1,1574,750,0,0
357,274,0,0,0,0,0,0,0,0,0,-1,1581,750,0,0
364,274,0,0,0,0,0,0,0,0,0,-1,1588,750,0,0
371,274,0,0,0,0,0,0,0,0,0,-1,1595,750,0,0
378,274,0,0,0,0,0,0,0,0,0,-1,1602,750,0,0
385,274,0,0,0,0,0,0,0,0,0,-1,1609,750,0,0
392,274,0,0,0,0,0,0,0,0,0,-1,1616,750,0,0
399,274,0,0,0,0,0,0,0,0,0,-1,1623,750,0,0
406,274,0,0,0,0,0,0,0,0,0,-1,1630,750,0,0
413,274,0,0,0,0,0,0,0,0,0,-1,1637,750,0,0
420,274,0,0,0,0,0,0,0,0,0,-1,1644,750,0,0
427,274,0,0,0,0,0,0,0,0,0,-1,1651,750,0,0
434,274,0,0,0,0,0,0,0,0,0,-1,1658,750,0,0
441,274,0,0,0,0,0,0,0,0,0,-1,1665,750,0,0
448,274,0,0,0,0,0,0,0,0,0,-1,1672,750,0,0
455,274,0,0,0,0,0,0,0,0,0,-1,1679,750,0,0
462,274,0,0,0,0,0,0,0,0,0,-1,1686,750,0,0
469,274,0,0,0,0,0,0,0,0,0,-1,1693,750,0,0
476,274,0,0,0,0,0,0,0,0,0,-1,1700,750,0,0
483,274,0,0,0,0,0,0,0,0,0,-1,1707,750,0,0
490,274,0,0,0,0,0,0,0,0,0,-1,1714,750,0,0
497,274,0,0,0,0,0,0,0,0,0,-1,1721,750,0,0
504,274,0,0,0,0,0,0,0,0,0,-1,1728,750,0,0
511,274,0,0,0,0,0,0,0,0,0,-1,1735,750,0,0
518,274,0,0,0,0,0,0,0,0,0,-1,1742,750,0,0
525,274,0,0,0,0,0,0,0,0,0,-1,1749,750,0,0
532,274,0,0,0,0,0,0,0,0,0,-1,1756,750,0,0
539,274,0,0,0,0,0,0,0,0,0,-1,1763,750,0,0
546,274,0,0,0,0,0,0,0,0,0,-1,1770,750,0,0
553,274,0,0,0,0,0,0,0,0,0,-1,1777,750,0,0
560,274,4.16052,0.710327,0.00909304,-0.0133793,0.00305631,0.00950129,-0.0137875,0.13279,0.0135215,0.0408945,1784,750,4.16058,-0.710351
567,274,4.13147,0.693359,0.00603609,-0.0101321,0.00289694,0.00653948,-0.0106355,0.172047,0.0100095,0.0386941,1791,750,4.13144,-0.693342
574,274,2.78027,1.87347,0,0,0,0,0,0,0,-1,1798,750,2.78025,-1.87348
581,274,2.75793,1.64862,0.00534798,-0.00595525,4.95975e-05,0.00534819,-0.00595547,0.0043878,0.00652931,0.0452257,1805,750,2.75793,-1.64859
588,274,2.98889,1.37238,0.00557188,-0.00448299,-0.00149156,0.00578847,-0.00469958,-0.144206,0.00606615,0.0432162,1812,750,2.98888,-1.37239
595,274,3.31299,1.41656,0.00598983,-0.00327219,-0.00304417,0.00690078,-0.00418313,-0.290761,0.0064631,0.0446252,1819,750,3.31301,-1.41655
602,274,3.33618,1.20673,0.00644218,-0.00165225,-0.00429524,0.00829658,-0.00350665,-0.40756,0.00699915,0.047086,1826,750,3.33622,-1.20671
609,274,3.42383,0.98584,0.00671924,-0.000626869,-0.00513952,0.0093633,-0.00327094,-0.475147,0.0075718,0.0475857,1833,750,3.42388,-0.985819
616,274,3.44958,0.789551,0.00685592,0.000169804,-0.00535192,0.0098231,-0.00279737,-0.506226,0.00765354,0.0457947,1840,750,3.44962,-0.789563
623,274,3.49011,0.393921,0.00671595,0.000770806,-0.00532447,0.00984142,-0.00235466,-0.530807,0.00747057,0.0463366,1847,750,3.49011,-0.39391
630,274,3.43591,0.185852,0.00645891,0.00102311,-0.00480405,0.00926061,-0.00177858,-0.52797,0.00684407,0.0366752,1854,750,3.43596,-0.185842
637,274,3.45032,0.29541,0.00588839,0.00104576,-0.00417676,0.00829492,-0.00136077,-0.522715,0.00603489,0.0125548,1861,750,3.45028,-0.29541
644,274,3.43262,0.326294,0.0049693,0.00116569,-0.00344972,0.00700671,-0.00087172,-0.533481,0.00498717,0.0116191,1868,750,3.43264,-0.326277
651,274,3.4436,0.345276,0.00357616,0.00147961,-0.00273365,0.00545563,-0.000399867,-0.60231,0.00377744,0.0134966,1875,750,3.44361,-0.345293
658,274,3.44238,0.364502,0.00287635,0.00120615,-0.00195317,0.00416546,-8.29594e-05,-0.58338,0.00280503,0.0154862,1882,750,3.44239,-0.364524
665,274,3.41248,0.401672,0.00216458,0.00141436,-0.00135866,0.00319896,0.000379979,-0.650708,0.00201794,0.0162776,1889,750,3.41245,-0.401661
672,274,3.41638,0.467712,8.88012e-05,0.00116224,-0.000877651,0.00165428,-0.000403235,-1.05983,0.00125897,0.0143158,1896,750,3.41639,-0.46772
679,274,3.45862,0.511597,-0.00101147,-0.000403694,-0.000746752,9.86345e-05,-0.0015138,-0.978639,0.00104363,0.0144835,1903,750,3.45863,-0.511591
686,274,3.45056,0.544739,-0.000821111,-0.00214495,-0.00225173,0.000863976,-0.00383004,-0.642445,0.0028848,0.013461,1910,750,3.45053,-0.544767
693,274,3.44958,0.585938,-0.000615263,-0.00410661,-0.00355619,0.00160061,-0.00632248,-0.557234,0.00483761,0.011541,1917,750,3.44964,-0.58591
700,274,3.44946,0.62439,-0.000519072,-0.00663231,-0.00524269,0.00249298,-0.00964436,-0.521476,0.00740186,0.0133893,1924,750,3.44947,-0.624382
707,274,3.43762,0.633667,-0.000355781,-0.0102743,-0.00745666,0.00364019,-0.0142702,-0.491948,0.0109308,0.0197512,1931,750,3.43758,-0.63369
714,274,3.38477,0.674744,-0.000128745,-0.0151828,-0.0104659,0.00523576,-0.0205473,-0.473652,0.0157365,0.038021,1938,750,3.38473,-0.674714
721,274,3.34216,0.712097,0,0,0,0,0,0,0,-1,1945,750,3.34216,-0.712102
728,274,3.49792,-0.0100098,0.00142935,-0.030449,-0.019694,0.0108261,-0.0398458,-0.445192,0.0308132,0.0437711,1952,750,3.49789,0.0100208
735,274,3.73047,-0.450806,0.00274693,-0.0410516,-0.0258403,0.0147195,-0.0530242,-0.433882,0.0411432,0.0449173,1959,750,3.73042,0.450781
742,274,4.26257,-0.945984,0.00420915,-0.0535772,-0.0329388,0.0191313,-0.0684993,-0.425368,0.0532025,0.0498007,1966,750,4.26261,0.946006
749,274,0,0,0,0,0,0,0,0,0,-1,1973,750,0,0
756,274,0,0,0,0,0,0,0,0,0,-1,1980,750,0,0
763,274,0,0,0,0,0,0,0,0,0,-1,1987,750,0,0
770,274,0,0,0,0,0,0,0,0,0,-1,1994,750,0,0
777,274,0,0,0,0,0,0,0,0,0,-1,2001,750,0,0
784,274,0,0,0,0,0,0,0,0,0,-1,2008,750,0,0
791,274,0,0,0,0,0,0,0,0,0,-1,2015,750,0,0
798,274,0,0,0,0,0,0,0,0,0,-1,2022,750,0,0
805,274,0,0,0,0,0,0,0,0,0,-1,2029,750,0,0
812,274,0,0,0,0,0,0,0,0,0,-1,2036,750,0,0
-700,267,0,0,0,0,0,0,0,0,0,-1,524,757,0,0
-693,267,0,0,0,0,0,0,0,0,0,-1,531,757,0,0
-686,267,0,0,0,0,0,0,0,0,0,-1,538,757,0,0
-679,267,0,0,0,0,0,0,0,0,0,-1,545,757,0,0
-672,267,0,0,0,0,0,0,0,0,0,-1,552,757,0,0
-665,267,0,0,0,0,0,0,0,0,0,-1,559,757,0,0
-658,267,0,0,0,0,0,0,0,0,0,-1,566,757,0,0
-651,267,0,0,0,0,0,0,0,0,0,-1,573,757,0,0
-644,267,0,0,0,0,0,0,0,0,0,-1,580,757,0,0
-637,267,0,0,0,0,0,0,0,0,0,-1,587,757,0,0
-630,267,-0.881165,0.88385,0.0122797,0.0158971,-0.0389056,0.053036,-0.0248592,-0.808626,0.0459431,0.041996,594,757,-0.881157,-0.883832
-623,267,-0.53717,0.345825,0.0168213,0.00611211,-0.0301128,0.0420519,-0.0191185,-0.697409,0.0361346,0.0410731,601,757,-0.537163,-0.345855
-616,267,-0.507996,-0.0992432,0.0193822,6.50087e-05,-0.0233385,0.0349817,-0.0155345,-0.589204,0.0298773,0.0418197,608,757,-0.507981,0.0992213
-609,267,-0.598206,-0.270691,0.0204314,-0.0033905,-0.0179802,0.030088,-0.0130471,-0.492861,0.0255437,0.040843,615,757,-0.5982,0.270678
-602,267,-0.649902,-0.320557,0,0,0,0,0,0,0,-1,622,757,-0.64988,0.320586
-595,267,-0.0164795,1.03473,0,0,0,0,0,0,0,-1,629,757,-0.0164633,-1.03476
-588,267,-0.00756836,0.908325,0.0175662,-0.00539547,-0.00761905,0.0198644,-0.00769358,-0.292949,0.0164197,0.0426794,636,757,-0.00754866,-0.90835
-581,267,0.012146,0.774902,0.015741,-0.00506539,-0.00517559,0.0169573,-0.00628171,-0.230823,0.013881,0.0244299,643,757,0.012152,-0.774902
-574,267,0.010437,0.707092,0.0133205,-0.00493601,-0.00313702,0.0138445,-0.00546001,-0.165508,0.0114905,0.0129652,650,757,0.0104076,-0.707085
-567,267,-0.015625,0.703369,0.0106156,-0.00370129,-0.002002,0.0108903,-0.00397596,-0.136351,0.00888711,0.0204138,657,757,-0.0156471,-0.703373
-560,267,0.0167847,0.662415,0.0080579,-0.0025388,-0.00133276,0.00822295,-0.00270385,-0.123215,0.00657136,0.0215401,664,757,0.0167938,-0.662387
-553,267,0.0228882,0.617371,0.00611224,-0.00142373,-0.000624592,0.00616365,-0.00147515,-0.0821346,0.00467898,0.018156,671,757,0.0228777,-0.617355
-546,267,0.0115967,0.569519,0.00443298,-0.000999946,-0.00036556,0.00445747,-0.00102443,-0.0668842,0.0033655,0.0112208,678,757,0.0116221,-0.569513
-539,267,0.0315552,0.542542,0.00279722,-0.00080686,-5.57224e-05,0.00279808,-0.000807721,-0.015456,0.00218497,0.00950886,685,757,0.0315398,-0.542535
-532,267,0.0409546,0.49762,0.000952129,-0.00128495,0.000589208,0.00109783,-0.00143065,0.242415,0.00146403,0.00954025,692,757,0.040968,-0.497625
-525,267,0.024231,0.450623,-0.000237447,-0.000985143,0.00117596,0.000622659,-0.00184525,0.631496,0.00148198,0.00979379,699,757,0.0242257,-0.450604
-518,267,0.0150146,0.402283,-0.000815076,-0.000313049,0.00228177,0.00173148,-0.0028596,0.840182,0.0026772,0.0103966,706,757,0.0150344,-0.402267
-511,267,0.0170288,0.367065,-0.000954018,0.00085716,0.0042021,0.00425014,-0.004347,0.891529,0.00496367,0.0134859,713,757,0.0170433,-0.367087
-504,267,0.0335693,0.320923,-0.00129297,0.00290978,0.00682308,0.00794774,-0.00633094,0.934779,0.0082614,0.025038,720,757,0.0335597,-0.320916
-497,267,0.0477905,0.293701,-0.00175623,0.00549237,0.00999534,0.0125002,-0.00876407,0.959325,0.0123399,0.0431735,727,757,0.0477615,-0.293679
-490,267,0.0540161,0.26825,0,0,0,0,0,0,0,-1,734,757,0.0540109,-0.268266
-483,267,0.659851,0.0192871,-0.00262931,0.0132958,0.0185614,0.0255305,-0.014864,0.988019,0.0235912,0.0467247,741,757,0.659833,-0.0192982
-476,267,0.235229,0.20575,-0.00123489,0.0181115,0.0244393,0.0347223,-0.0178457,0.97384,0.0308672,0.0458596,748,757,0.23521,-0.205772
-469,267,-0.210205,0.316406,5.90494e-05,0.02389,0.0308771,0.045071,-0.0211219,0.969544,0.0390414,0.0455557,755,757,-0.210175,-0.316389
-462,267,-0.0872192,-0.0872192,0,0,0,0,0,0,0,-1,762,757,-0.0872424,0.0872469
-455,267,0.12915,0.571716,0,0,0,0,0,0,0,-1,769,757,0.129141,-0.57173
-448,267,-0.874023,-0.997375,0,0,0,0,0,0,0,-1,776,757,-0.87404,0.997405
-441,267,0,0,0,0,0,0,0,0,0,-1,783,757,0,0
-434,267,0,0,0,0,0,0,0,0,0,-1,790,757,0,0
-427,267,0,0,0,0,0,0,0,0,0,-1,797,757,0,0
-420,267,0,0,0,0,0,0,0,0,0,-1,804,757,0,0
-413,267,0,0,0,0,0,0,0,0,0,-1,811,757,0,0
-406,267,0,0,0,0,0,0,0,0,0,-1,818,757,0,0
-399,267,0,0,0,0,0,0,0,0,0,-1,825,757,0,0
-392,267,0,0,0,0,0,0,0,0,0,-1,832,757,0,0
-385,267,0,0,0,0,0,0,0,0,0,-1,839,757,0,0
-378,267,0,0,0,0,0,0,0,0,0,-1,846,757,0,0
-371,267,0,0,0,0,0,0,0,0,0,-1,853,757,0,0
-364,267,0,0,0,0,0,0,0,0,0,-1,860,757,0,0
-357,267,0,0,0,0,0,0,0,0,0,-1,867,757,0,0
-350,267,0,0,0,0,0,0,0,0,0,-1,874,757,0,0
-343,267,0,0,0,0,0,0,0,0,0,-1,881,757,0,0
-336,267,0,0,0,0,0,0,0,0,0,-1,888,757,0,0
-329,267,0,0,0,0,0,0,0,0,0,-1,895,757,0,0
-322,267,0,0,0,0,0,0,0,0,0,-1,902,757,0,0
-315,267,0,0,0,0,0,0,0,0,0,-1,909,757,0,0
-308,267,0,0,0,0,0,0,0,0,0,-1,916,757,0,0
-301,267,0,0,0,0,0,0,0,0,0,-1,923,757,0,0
-294,267,0,0,0,0,0,0,0,0,0,-1,930,757,0,0
-287,267,0,0,0,0,0,0,0,0,0,-1,937,757,0,0
-280,267,0,0,0,0,0,0,0,0,0,-1,944,757,0,0
-273,267,0,0,0,0,0,0,0,0,0,-1,951,757,0,0
-266,267,0,0,0,0,0,0,0,0,0,-1,958,757,0,0
-259,267,0,0,0,0,0,0,0,0,0,-1,965,757,0,0
-252,267,0,0,0,0,0,0,0,0,0,-1,972,757,0,0
-245,267,0,0,0,0,0,0,0,0,0,-1,979,757,0,0
-238,267,0,0,0,0,0,0,0,0,0,-1,986,757,0,0
-231,267,0,0,0,0,0,0,0,0,0,-1,993,757,0,0
-224,267,0,0,0,0,0,0,0,0,0,-1,1000,757,0,0
-217,267,0,0,0,0,0,0,0,0,0,-1,1007,757,0,0
-210,267,0,0,0,0,0,0,0,0,0,-1,1014,757,0,0
-203,267,0,0,0,0,0,0,0,0,0,-1,1021,757,0,0
-196,267,0,0,0,0,0,0,0,0,0,-1,1028,757,0,0
-189,267,0,0,0,0,0,0,0,0,0,-1,1035,757,0,0
-182,267,0,0,0,0,0,0,0,0,0,-1,1042,757,0,0
-175,267,0,0,0,0,0,0,0,0,0,-1,1049,757,0,0
-168,267,0,0,0,0,0,0,0,0,0,-1,1056,757,0,0
-161,267,0,0,0,0,0,0,0,0,0,-1,1063,757,0,0
-154,267,0,0,0,0,0,0,0,0,0,-1,1070,757,0,0
-147,267,0,0,0,0,0,0,0,0,0,-1,1077,757,0,0
-140,267,0,0,0,0,0,0,0,0,0,-1,1084,757,0,0
-133,267,0,0,0,0,0,0,0,0,0,-1,1091,757,0,0
-126,267,0,0,0,0,0,0,0,0,0,-1,1098,757,0,0
-119,267,0,0,0,0,0,0,0,0,0,-1,1105,757,0,0
-112,267,0,0,0,0,0,0,0,0,0,-1,1112,757,0,0
-105,267,0,0,0,0,0,0,0,0,0,-1,1119,757,0,0
-98,267,0,0,0,0,0,0,0,0,0,-1,1126,757,0,0
-91,267,0,0,0,0,0,0,0,0,0,-1,1133,757,0,0
-84,267,0,0,0,0,0,0,0,0,0,-1,1140,757,0,0
-77,267,0,0,0,0,0,0,0,0,0,-1,1147,757,0,0
-70,267,0,0,0,0,0,0,0,0,0,-1,1154,757,0,0
-63,267,0,0,0,0,0,0,0,0,0,-1,1161,757,0,0
-56,267,0,0,0,0,0,0,0,0,0,-1,1168,757,0,0
-49,267,0,0,0,0,0,0,0,0,0,-1,1175,757,0,0
-42,267,0,0,0,0,0,0,0,0,0,-1,1182,757,0,0
-35,267,0,0,0,0,0,0,0,0,0,-1,1189,757,0,0
-28,267,0,0,0,0,0,0,0,0,0,-1,1196,757,0,0
-21,267,0,0,0,0,0,0,0,0,0,-1,1203,757,0,0
-14,267,0,0,0,0,0,0,0,0,0,-1,1210,757,0,0
-7,267,0,0,0,0,0,0,0,0,0,-1,1217,757,0,0
0,267,0,0,0,0,0,0,0,0,0,-1,1224,757,0,0
7,267,0,0,0,0,0,0,0,0,0,-1,1231,757,0,0
14,267,0,0,0,0,0,0,0,0,0,-1,1238,757,0,0
21,267,0,0,0,0,0,0,0,0,0,-1,1245,757,0,0
28,267,0,0,0,0,0,0,0,0,0,-1,1252,757,0,0
35,267,0,0,0,0,0,0,0,0,0,-1,1259,757,0,0
42,267,0,0,0,0,0,0,0,0,0,-1,1266,757,0,0
49,267,0,0,0,0,0,0,0,0,0,-1,1273,757,0,0
56,267,0,0,0,0,0,0,0,0,0,-1,1280,757,0,0
63,267,0,0,0,0,0,0,0,0,0,-1,1287,757,0,0
70,267,0,0,0,0,0,0,0,0,0,-1,1294,757,0,0
77,267,0,0,0,0,0,0,0,0,0,-1,1301,757,0,0
84,267,0,0,0,0,0,0,0,0,0,-1,1308,757,0,0
91,267,0,0,0,0,0,0,0,0,0,-1,1315,757,0,0
98,267,0,0,0,0,0,0,0,0,0,-1,1322,757,0,0
105,267,0,0,0,0,0,0,0,0,0,-1,1329,757,0,0
112,267,0,0,0,0,0,0,0,0,0,-1,1336,757,0,0
119,267,0,0,0,0,0,0,0,0,0,-1,1343,757,0,0
126,267,0,0,0,0,0,0,0,0,0,-1,1350,757,0,0
133,267,0,0,0,0,0,0,0,0,0,-1,1357,757,0,0
140,267,0,0,0,0,0,0,0,0,0,-1,1364,757,0,0
147,267,0,0,0,0,0,0,0,0,0,-1,1371,757,0,0
154,267,0,0,0,0,0,0,0,0,0,-1,1378,757,0,0
161,267,0,0,0,0,0,0,0,0,0,-1,1385,757,0,0
168,267,0,0,0,0,0,0,0,0,0,-1,1392,757,0,0
175,267,0,0,0,0,0,0,0,0,0,-1,1399,757,0,0
182,267,0,0,0,0,0,0,0,0,0,-1,1406,757,0,0
189,267,0,0,0,0,0,0,0,0,0,-1,1413,757,0,0
196,267,0,0,0,0,0,0,0,0,0,-1,1420,757,0,0
203,267,0,0,0,0,0,0,0,0,0,-1,1427,757,0,0
210,267,0,0,0,0,0,0,0,0,0,-1,1434,757,0,0
217,267,0,0,0,0,0,0,0,0,0,-1,1441,757,0,0
224,267,0,0,0,0,0,0,0,0,0,-1,1448,757,0,0
231,267,0,0,0,0,0,0,0,0,0,-1,1455,757,0,0
238,267,0,0,0,0,0,0,0,0,0,-1,1462,757,0,0
245,267,0,0,0,0,0,0,0,0,0,-1,1469,757,0,0
252,267,0,0,0,0,0,0,0,0,0,-1,1476,757,0,0
259,267,0,0,0,0,0,0,0,0,0,-1,1483,757,0,0
266,267,0,0,0,0,0,0,0,0,0,-1,1490,757,0,0
273,267,0,0,0,0,0,0,0,0,0,-1,1497,757,0,0
280,267,0,0,0,0,0,0,0,0,0,-1,1504,757,0,0
287,267,0,0,0,0,0,0,0,0,0,-1,1511,757,0,0
294,267,0,0,0,0,0,0,0,0,0,-1,1518,757,0,0
301,267,0,0,0,0,0,0,0,0,0,-1,1525,757,0,0
308,267,0,0,0,0,0,0,0,0,0,-1,1532,757,0,0
315,267,0,0,0,0,0,0,0,0,0,-1,1539,757,0,0
322,267,0,0,0,0,0,0,0,0,0,-1,1546,757,0,0
329,267,0,0,0,0,0,0,0,0,0,-1,1553,757,0,0
336,267,0,0,0,0,0,0,0,0,0,-1,1560,757,0,0
343,267,0,0,0,0,0,0,0,0,0,-1,1567,757,0,0
350,267,0,0,0,0,0,0,0,0,0,-1,1574,757,0,0
357,267,0,0,0,0,0,0,0,0,0,-1,1581,757,0,0
364,267,0,0,0,0,0,0,0,0,0,-1,1588,757,0,0
371,267,0,0,0,0,0,0,0,0,0,-1,1595,757,0,0
378,267,0,0,0,0,0,0,0,0,0,-1,1602,757,0,0
385,267,0,0,0,0,0,0,0,0,0,-1,1609,757,0,0
392,267,0,0,0,0,0,0,0,0,0,-1,1616,757,0,0
399,267,0,0,0,0,0,0,0,0,0,-1,1623,757,0,0
406,267,0,0,0,0,0,0,0,0,0,-1,1630,757,0,0
413,267,0,0,0,0,0,0,0,0,0,-1,1637,757,0,0
420,267,0,0,0,0,0,0,0,0,0,-1,1644,757,0,0
427,267,0,0,0,0,0,0,0,0,0,-1,1651,757,0,0
434,267,0,0,0,0,0,0,0,0,0,-1,1658,757,0,0
441,267,0,0,0,0,0,0,0,0,0,-1,1665,757,0,0
448,267,0,0,0,0,0,0,0,0,0,-1,1672,757,0,0
455,267,0,0,0,0,0,0,0,0,0,-1,1679,757,0,0
462,267,0,0,0,0,0,0,0,0,0,-1,1686,757,0,0
469,267,0,0,0,0,0,0,0,0,0,-1,1693,757,0,0
476,267,0,0,0,0,0,0,0,0,0,-1,1700,757,0,0
483,267,0,0,0,0,0,0,0,0,0,-1,1707,757,0,0
490,267,0,0,0,0,0,0,0,0,0,-1,1714,757,0,0
497,267,0,0,0,0,0,0,0,0,0,-1,1721,757,0,0
504,267,0,0,0,0,0,0,0,0,0,-1,1728,757,0,0
511,267,0,0,0,0,0,0,0,0,0,-1,1735,757,0,0
518,267,0,0,0,0,0,0,0,0,0,-1,1742,757,0,0
525,267,0,0,0,0,0,0,0,0,0,-1,1749,757,0,0
532,267,0,0,0,0,0,0,0,0,0,-1,1756,757,0,0
539,267,0,0,0,0,0,0,0,0,0,-1,1763,757,0,0
546,267,0,0,0,0,0,0,0,0,0,-1,1770,757,0,0
553,267,0,0,0,0,0,0,0,0,0,-1,1777,757,0,0
560,267,0,0,0,0,0,0,0,0,0,-1,1784,757,0,0
567,267,4.11121,0.750122,0.000547408,-0.00729527,0.00203256,0.00104288,-0.00779074,0.239103,0.00557406,0.0356572,1791,757,4.11124,-0.75014
574,267,4.02673,0.760925,-0.000365821,-0.00541016,0.00118885,-9.96767e-05,-0.0056763,0.220237,0.00375142,0.0380967,1798,757,4.02679,-0.760897
581,267,3.54089,1.22223,0.000998905,-0.00346346,-0.000835623,0.00115025,-0.00361481,-0.179175,0.00287115,0.0397811,1805,757,3.54094,-1.22223
588,267,3.25,1.33356,0.00230749,-0.00220803,-0.00247836,0.0034023,-0.00330284,-0.415971,0.00387136,0.0428146,1812,757,3.25004,-1.33355
595,267,3.34875,1.29572,0.00374658,-0.00126259,-0.00399791,0.00595964,-0.00347566,-0.505569,0.00551004,0.0448743,1819,757,3.34879,-1.29572
602,267,3.36133,1.08856,0.00505768,-8.02968e-05,-0.00505423,0.00815835,-0.00318096,-0.550271,0.00675372,0.0468379,1826,757,3.36136,-1.08857
609,267,3.39526,0.945435,0,0,0,0,0,0,0,-1,1833,757,3.39528,-0.945428
616,267,3.22852,0.704529,0.00680939,0.0011867,-0.00567958,0.0103353,-0.00233924,-0.555582,0.00778797,0.0447059,1840,757,3.2285,-0.704542
623,267,4.0354,-0.14032,0.00710149,0.00160827,-0.0054617,0.0104683,-0.00175855,-0.552421,0.00763288,0.0429606,1847,757,4.03538,0.140339
630,267,3.45361,0.251282,0.00715285,0.00171132,-0.00478915,0.00994013,-0.00107596,-0.527078,0.00701297,0.0359069,1854,757,3.45361,-0.251285
637,267,3.48804,0.26947,0.00681634,0.00166006,-0.0040318,0.00902383,-0.000547429,-0.500936,0.00620641,0.0229385,1861,757,3.48808,-0.269451
644,267,3.45764,0.320557,0.00606649,0.00165376,-0.00320889,0.00775436,-3.41055e-05,-0.484228,0.00518098,0.0117423,1868,757,3.45762,-0.320579
651,267,3.44275,0.349243,0.00467308,0.00186502,-0.0024239,0.00607023,0.000467869,-0.522889,0.00390023,0.0142029,1875,757,3.44272,-0.349243
658,267,3.44678,0.365845,0.00400726,0.0015758,-0.00162069,0.00481752,0.000765542,-0.463606,0.00298935,0.0143192,1882,757,3.44681,-0.365856
665,267,3.45325,0.409912,0.00322018,0.00178144,-0.00107157,0.00379145,0.00121017,-0.489788,0.0022362,0.0151465,1889,757,3.45324,-0.409917
672,267,3.46033,0.459473,0.000655045,0.00153088,-0.000603319,0.00183846,0.000347466,-1.09933,0.0011278,0.0137364,1896,757,3.46035,-0.459471
679,267,3.47644,0.498718,-0.000737953,-6.62043e-05,-0.000422331,0.000137528,-0.000941685,-1.12133,0.000678296,0.0134936,1903,757,3.47644,-0.498692
686,267,3.48865,0.551514,-0.000513677,-0.00176313,-0.00188737,0.000849671,-0.00312648,-0.625571,0.00241783,0.012328,1910,757,3.48865,-0.551532
693,267,3.48828,0.592896,-0.00038972,-0.00372481,-0.00302265,0.00139486,-0.00550939,-0.533331,0.00421551,0.012127,1917,757,3.48828,-0.592917
700,267,3.47473,0.628113,-0.000333106,-0.00614536,-0.0044283,0.0020575,-0.00853596,-0.495016,0.00648618,0.0142795,1924,757,3.47479,-0.628088
707,267,3.47693,0.643433,-0.000243786,-0.00957625,-0.00613897,0.00280106,-0.0126211,-0.460431,0.0094866,0.0139668,1931,757,3.47688,-0.643407
714,267,3.4541,0.657043,-0.000121334,-0.0140879,-0.00832468,0.00376124,-0.0179704,-0.436402,0.013411,0.0271552,1938,757,3.45413,-0.657034
721,267,3.42175,0.584595,0.000394258,-0.0201532,-0.0112713,0.00537145,-0.0251304,-0.415832,0.0188016,0.0434751,1945,757,3.42171,-0.584584
728,267,3.31238,0.352966,0.00112753,-0.0279236,-0.0147946,0.00733534,-0.0341314,-0.397287,0.0255527,0.0491214,1952,757,3.31233,-0.352938
735,267,3.18396,0.267578,0,0,0,0,0,0,0,-1,1959,757,3.18396,-0.267603
742,267,4.83655,-0.664063,0,0,0,0,0,0,0,-1,1966,757,4.8366,0.664039
749,267,0,0,0,0,0,0,0,0,0,-1,1973,757,0,0
756,267,0,0,0,0,0,0,0,0,0,-1,1980,757,0,0
763,267,0,0,0,0,0,0,0,0,0,-1,1987,757,0,0
770,267,0,0,0,0,0,0,0,0,0,-1,1994,757,0,0
777,267,0,0,0,0,0,0,0,0,0,-1,2001,757,0,0
784,267,0,0,0,0,0,0,0,0,0,-1,2008,757,0,0
791,267,0,0,0,0,0,0,0,0,0,-1,2015,757,0,0
798,267,0,0,0,0,0,0,0,0,0,-1,2022,757,0,0
805,267,0,0,0,0,0,0,0,0,0,-1,2029,757,0,0
812,267,0,0,0,0,0,0,0,0,0,-1,2036,757,0,0
-700,260,0,0,0,0,0,0,0,0,0,-1,524,764,0,0
-693,260,0,0,0,0,0,0,0,0,0,-1,531,764,0,0
-686,260,0,0,0,0,0,0,0,0,0,-1,538,764,0,0
-679,260,0,0,0,0,0,0,0,0,0,-1,545,764,0,0
-672,260,0,0,0,0,0,0,0,0,0,-1,552,764,0,0
-665,260,0,0,0,0,0,0,0,0,0,-1,559,764,0,0
-658,260,0,0,0,0,0,0,0,0,0,-1,566,764,0,0
-651,260,0,0,0,0,0,0,0,0,0,-1,573,764,0,0
-644,260,0,0,0,0,0,0,0,0,0,-1,580,764,0,0
-637,260,0,0,0,0,0,0,0,0,0,-1,587,764,0,0
-630,260,-0.338135,0.365662,0.0134924,0.0185208,-0.0324241,0.048528,-0.0165148,-0.824091,0.0390392,0.0442904,594,764,-0.338156,-0.365643
-623,260,-0.187683,0.024353,0.0168366,0.00901152,-0.0254045,0.0386281,-0.01278,-0.708994,0.0309058,0.0420374,601,764,-0.187688,-0.0243432
-616,260,-0.27771,0.00585938,0.0184961,0.00285579,-0.0199138,0.0320702,-0.0107183,-0.598299,0.0257088,0.0435336,608,764,-0.277715,-0.00584974
-609,260,-0.295837,-0.0197754,0.018944,-0.000957458,-0.0155428,0.0274485,-0.00946198,-0.500665,0.0221376,0.0407592,615,764,-0.29586,0.0197668
-602,260,-0.578979,0.265259,0,0,0,0,0,0,0,-1,622,764,-0.578961,-0.265282
-595,260,-0.637085,0.315369,0.0172788,-0.00406909,-0.00924328,0.0207248,-0.00751503,-0.356845,0.0168884,0.0455051,629,764,-0.637108,-0.315388
-588,260,-0.268127,0.817505,0.0155186,-0.0042749,-0.00704159,0.017768,-0.00652433,-0.309203,0.0145173,0.0380809,636,764,-0.268143,-0.817475
-581,260,-0.0238037,0.752502,0.0138382,-0.00429834,-0.0048373,0.0150477,-0.00550786,-0.245017,0.0122864,0.0193063,643,764,-0.0238167,-0.752484
-574,260,-0.0256348,0.687439,0.0116656,-0.00444159,-0.00300076,0.0122064,-0.00498247,-0.178332,0.010212,0.0143838,650,764,-0.0256087,-0.687415
-567,260,-0.0422974,0.680115,0.00916081,-0.00336522,-0.0020775,0.00949638,-0.00370079,-0.160144,0.00786048,0.0157009,657,764,-0.0422829,-0.680136
-560,260,-0.0330811,0.665833,0.00682239,-0.00240641,-0.00146344,0.00704889,-0.00263292,-0.153556,0.00578036,0.0183513,664,764,-0.0330627,-0.66581
-553,260,-0.0261841,0.622864,0.00506585,-0.00151415,-0.000617187,0.00512324,-0.00157154,-0.0927198,0.00404248,0.0171687,671,764,-0.0261576,-0.62284
-546,260,-0.0142212,0.584961,0.00356504,-0.00122641,-0.00022556,0.00357564,-0.00123701,-0.0469372,0.00288586,0.0110445,678,764,-0.0142279,-0.584954
-539,260,0.00805664,0.552795,0.00201563,-0.00116419,0.00022415,0.00203135,-0.00117992,0.0700299,0.00187562,0.0102321,685,764,0.00807316,-0.552774
-532,260,0.0032959,0.51123,0.000216717,-0.00173268,0.00098752,0.000629545,-0.00214551,0.395966,0.00167998,0.0115169,692,764,0.0033108,-0.511214
-525,260,-0.0166016,0.456055,-0.00102112,-0.00152804,0.00176152,0.000505085,-0.00305424,0.713945,0.00222372,0.0112326,699,764,-0.0165765,-0.456054
-518,260,-0.012146,0.424866,-0.00175449,-0.00106135,0.00297401,0.00158622,-0.00440206,0.843403,0.00358248,0.0116936,706,764,-0.0121402,-0.424887
-511,260,-0.0043335,0.384216,-0.00225208,-0.000146672,0.00491402,0.00382613,-0.00622488,0.890916,0.00585778,0.0175634,713,764,-0.00432503,-0.384202
-504,260,0.148132,0.299011,-0.00303534,0.00163078,0.00758071,0.00722932,-0.00863388,0.93468,0.00917058,0.0315642,720,764,0.148105,-0.298987
-497,260,0.253967,0.276306,-0.00391838,0.00394311,0.0108017,0.011507,-0.0114823,0.9599,0.0132729,0.0450957,727,764,0.25399,-0.276305
-490,260,0.367493,0.234558,0,0,0,0,0,0,0,-1,734,764,0.367509,-0.234529
-483,260,0.534668,0.311218,-0.00572093,0.0117353,0.0198721,0.0247116,-0.0186972,0.992323,0.0251422,0.0448814,741,764,0.534649,-0.311239
-476,260,0.27887,0.243469,-0.00572837,0.0172302,0.0261128,0.0342755,-0.0227737,0.992485,0.0331597,0.0445853,748,764,0.27884,-0.243479
-469,260,-0.0176392,-0.0238647,0,0,0,0,0,0,0,-1,755,764,-0.0176527,0.0238651
-462,260,0.291931,1.93799,0,0,0,0,0,0,0,-1,762,764,0.291902,-1.93796
-455,260,-0.1922,0.83728,0,0,0,0,0,0,0,-1,769,764,-0.192194,-0.837271
-448,260,0,0,0,0,0,0,0,0,0,-1,776,764,0,0
-441,260,0,0,0,0,0,0,0,0,0,-1,783,764,0,0
-434,260,0,0,0,0,0,0,0,0,0,-1,790,764,0,0
-427,260,0,0,0,0,0,0,0,0,0,-1,797,764,0,0
-420,260,0,0,0,0,0,0,0,0,0,-1,804,764,0,0
-413,260,0,0,0,0,0,0,0,0,0,-1,811,764,0,0
-406,260,0,0,0,0,0,0,0,0,0,-1,818,764,0,0
-399,260,0,0,0,0,0,0,0,0,0,-1,825,764,0,0
-392,260,0,0,0,0,0,0,0,0,0,-1,832,764,0,0
-385,260,0,0,0,0,0,0,0,0,0,-1,839,764,0,0
-378,260,0,0,0,0,0,0,0,0,0,-1,846,764,0,0
-371,260,0,0,0,0,0,0,0,0,0,-1,853,764,0,0
-364,260,0,0,0,0,0,0,0,0,0,-1,860,764,0,0
-357,260,0,0,0,0,0,0,0,0,0,-1,867,764,0,0
-350,260,0,0,0,0,0,0,0,0,0,-1,874,764,0,0
-343,260,0,0,0,0,0,0,0,0,0,-1,881,764,0,0
-336,260,0,0,0,0,0,0,0,0,0,-1,888,764,0,0
-329,260,0,0,0,0,0,0,0,0,0,-1,895,764,0,0
-322,260,0,0,0,0,0,0,0,0,0,-1,902,764,0,0
-315,260,0,0,0,0,0,0,0,0,0,-1,909,764,0,0
-308,260,0,0,0,0,0,0,0,0,0,-1,916,764,0,0
-301,260,0,0,0,0,0,0,0,0,0,-1,923,764,0,0
-294,260,0,0,0,0,0,0,0,0,0,-1,930,764,0,0
-287,260,0,0,0,0,0,0,0,0,0,-1,937,764,0,0
-280,260,0,0,0,0,0,0,0,0,0,-1,944,764,0,0
-273,260,0,0,0,0,0,0,0,0,0,-1,951,764,0,0
-266,260,0,0,0,0,0,0,0,0,0,-1,958,764,0,0
-259,260,0,0,0,0,0,0,0,0,0,-1,965,764,0,0
-252,260,0,0,0,0,0,0,0,0,0,-1,972,764,0,0
-245,260,0,0,0,0,0,0,0,0,0,-1,979,764,0,0
-238,260,0,0,0,0,0,0,0,0,0,-1,986,764,0,0
-231,260,0,0,0,0,0,0,0,0,0,-1,993,764,0,0
-224,260,0,0,0,0,0,0,0,0,0,-1,1000,764,0,0
-217,260,0,0,0,0,0,0,0,0,0,-1,1007,764,0,0
-210,260,0,0,0,0,0,0,0,0,0,-1,1014,764,0,0
-203,260,0,0,0,0,0,0,0,0,0,-1,1021,764,0,0
-196,260,0,0,0,0,0,0,0,0,0,-1,1028,764,0,0
-189,260,0,0,0,0,0,0,0,0,0,-1,1035,764,0,0
-182,260,0,0,0,0,0,0,0,0,0,-1,1042,764,0,0
-175,260,0,0,0,0,0,0,0,0,0,-1,1049,764,0,0
-168,260,0,0,0,0,0,0,0,0,0,-1,1056,764,0,0
-161,260,0,0,0,0,0,0,0,0,0,-1,1063,764,0,0
-154,260,0,0,0,0,0,0,0,0,0,-1,1070,764,0,0
-147,260,0,0,0,0,0,0,0,0,0,-1,1077,764,0,0
-140,260,0,0,0,0,0,0,0,0,0,-1,1084,764,0,0
-133,260,0,0,0,0,0,0,0,0,0,-1,1091,764,0,0
-126,260,0,0,0,0,0,0,0,0,0,-1,1098,764,0,0
-119,260,0,0,0,0,0,0,0,0,0,-1,1105,764,0,0
-112,260,0,0,0,0,0,0,0,0,0,-1,1112,764,0,0
-105,260,0,0,0,0,0,0,0,0,0,-1,1119,764,0,0
-98,260,0,0,0,0,0,0,0,0,0,-1,1126,764,0,0
-91,260,0,0,0,0,0,0,0,0,0,-1,1133,764,0,0
-84,260,0,0,0,0,0,0,0,0,0,-1,1140,764,0,0
-77,260,0,0,0,0,0,0,0,0,0,-1,1147,764,0,0
-70,260,0,0,0,0,0,0,0,0,0,-1,1154,764,0,0
-63,260,0,0,0,0,0,0,0,0,0,-1,1161,764,0,0
-56,260,0,0,0,0,0,0,0,0,0,-1,1168,764,0,0
-49,260,0,0,0,0,0,0,0,0,0,-1,1175,764,0,0
-42,260,0,0,0,0,0,0,0,0,0,-1,1182,764,0,0
-35,260,0,0,0,0,0,0,0,0,0,-1,1189,764,0,0
-28,260,0,0,0,0,0,0,0,0,0,-1,1196,764,0,0
-21,260,0,0,0,0,0,0,0,0,0,-1,1203,764,0,0
-14,260,0,0,0,0,0,0,0,0,0,-1,1210,764,0,0
-7,260,0,0,0,0,0,0,0,0,0,-1,1217,764,0,0
0,260,0,0,0,0,0,0,0,0,0,-1,1224,764,0,0
7,260,0,0,0,0,0,0,0,0,0,-1,1231,764,0,0
14,260,0,0,0,0,0,0,0,0,0,-1,1238,764,0,0
21,260,0,0,0,0,0,0,0,0,0,-1,1245,764,0,0
28,260,0,0,0,0,0,0,0,0,0,-1,1252,764,0,0
35,260,0,0,0,0,0,0,0,0,0,-1,1259,764,0,0
42,260,0,0,0,0,0,0,0,0,0,-1,1266,764,0,0
49,260,0,0,0,0,0,0,0,0,0,-1,1273,764,0,0
56,260,0,0,0,0,0,0,0,0,0,-1,1280,764,0,0
63,260,0,0,0,0,0,0,0,0,0,-1,1287,764,0,0
70,260,0,0,0,0,0,0,0,0,0,-1,1294,764,0,0
77,260,0,0,0,0,0,0,0,0,0,-1,1301,764,0,0
84,260,0,0,0,0,0,0,0,0,0,-1,1308,764,0,0
91,260,0,0,0,0,0,0,0,0,0,-1,1315,764,0,0
98,260,0,0,0,0,0,0,0,0,0,-1,1322,764,0,0
105,260,0,0,0,0,0,0,0,0,0,-1,1329,764,0,0
112,260,0,0,0,0,0,0,0,0,0,-1,1336,764,0,0
119,260,0,0,0,0,0,0,0,0,0,-1,1343,764,0,0
126,260,0,0,0,0,0,0,0,0,0,-1,1350,764,0,0
133,260,0,0,0,0,0,0,0,0,0,-1,1357,764,0,0
140,260,0,0,0,0,0,0,0,0,0,-1,1364,764,0,0
147,260,0,0,0,0,0,0,0,0,0,-1,1371,764,0,0
154,260,0,0,0,0,0,0,0,0,0,-1,1378,764,0,0
161,260,0,0,0,0,0,0,0,0,0,-1,1385,764,0,0
168,260,0,0,0,0,0,0,0,0,0,-1,1392,764,0,0
175,260,0,0,0,0,0,0,0,0,0,-1,1399,764,0,0
182,260,0,0,0,0,0,0,0,0,0,-1,1406,764,0,0
189,260,0,0,0,0,0,0,0,0,0,-1,1413,764,0,0
196,260,0,0,0,0,0,0,0,0,0,-1,1420,764,0,0
203,260,0,0,0,0,0,0,0,0,0,-1,1427,764,0,0
210,260,0,0,0,0,0,0,0,0,0,-1,1434,764,0,0
217,260,0,0,0,0,0,0,0,0,0,-1,1441,764,0,0
224,260,0,0,0,0,0,0,0,0,0,-1,1448,764,0,0
231,260,0,0,0,0,0,0,0,0,0,-1,1455,764,0,0
238,260,0,0,0,0,0,0,0,0,0,-1,1462,764,0,0
245,260,0,0,0,0,0,0,0,0,0,-1,1469,764,0,0
252,260,0,0,0,0,0,0,0,0,0,-1,1476,764,0,0
259,260,0,0,0,0,0,0,0,0,0,-1,1483,764,0,0
266,260,0,0,0,0,0,0,0,0,0,-1,1490,764,0,0
273,260,0,0,0,0,0,0,0,0,0,-1,1497,764,0,0
280,260,0,0,0,0,0,0,0,0,0,-1,1504,764,0,0
287,260,0,0,0,0,0,0,0,0,0,-1,1511,764,0,0
294,260,0,0,0,0,0,0,0,0,0,-1,1518,764,0,0
301,260,0,0,0,0,0,0,0,0,0,-1,1525,764,0,0
308,260,0,0,0,0,0,0,0,0,0,-1,1532,764,0,0
315,260,0,0,0,0,0,0,0,0,0,-1,1539,764,0,0
322,260,0,0,0,0,0,0,0,0,0,-1,1546,764,0,0
329,260,0,0,0,0,0,0,0,0,0,-1,1553,764,0,0
336,260,0,0,0,0,0,0,0,0,0,-1,1560,764,0,0
343,260,0,0,0,0,0,0,0,0,0,-1,1567,764,0,0
350,260,0,0,0,0,0,0,0,0,0,-1,1574,764,0,0
357,260,0,0,0,0,0,0,0,0,0,-1,1581,764,0,0
364,260,0,0,0,0,0,0,0,0,0,-1,1588,764,0,0
371,260,0,0,0,0,0,0,0,0,0,-1,1595,764,0,0
378,260,0,0,0,0,0,0,0,0,0,-1,1602,764,0,0
385,260,0,0,0,0,0,0,0,0,0,-1,1609,764,0,0
392,260,0,0,0,0,0,0,0,0,0,-1,1616,764,0,0
399,260,0,0,0,0,0,0,0,0,0,-1,1623,764,0,0
406,260,0,0,0,0,0,0,0,0,0,-1,1630,764,0,0
413,260,0,0,0,0,0,0,0,0,0,-1,1637,764,0,0
420,260,0,0,0,0,0,0,0,0,0,-1,1644,764,0,0
427,260,0,0,0,0,0,0,0,0,0,-1,1651,764,0,0
434,260,0,0,0,0,0,0,0,0,0,-1,1658,764,0,0
441,260,0,0,0,0,0,0,0,0,0,-1,1665,764,0,0
448,260,0,0,0,0,0,0,0,0,0,-1,1672,764,0,0
455,260,0,0,0,0,0,0,0,0,0,-1,1679,764,0,0
462,260,0,0,0,0,0,0,0,0,0,-1,1686,764,0,0
469,260,0,0,0,0,0,0,0,0,0,-1,1693,764,0,0
476,260,0,0,0,0,0,0,0,0,0,-1,1700,764,0,0
483,260,0,0,0,0,0,0,0,0,0,-1,1707,764,0,0
490,260,0,0,0,0,0,0,0,0,0,-1,1714,764,0,0
497,260,0,0,0,0,0,0,0,0,0,-1,1721,764,0,0
504,260,0,0,0,0,0,0,0,0,0,-1,1728,764,0,0
511,260,0,0,0,0,0,0,0,0,0,-1,1735,764,0,0
518,260,0,0,0,0,0,0,0,0,0,-1,1742,764,0,0
525,260,0,0,0,0,0,0,0,0,0,-1,1749,764,0,0
532,260,0,0,0,0,0,0,0,0,0,-1,1756,764,0,0
539,260,0,0,0,0,0,0,0,0,0,-1,1763,764,0,0
546,260,0,0,0,0,0,0,0,0,0,-1,1770,764,0,0
553,260,0,0,0,0,0,0,0,0,0,-1,1777,764,0,0
560,260,0,0,0,0,0,0,0,0,0,-1,1784,764,0,0
567,260,0,0,0,0,0,0,0,0,0,-1,1791,764,0,0
574,260,4.14087,0.673828,-0.00529615,-0.00382787,0.00159996,-0.00280165,-0.00632236,1.00049,0.00365808,0.0350903,1798,764,4.14092,-0.673815
581,260,4.09729,0.774902,-0.00276629,-0.00187414,-0.00108429,-0.00114775,-0.00349267,-0.980546,0.0020556,0.0376113,1805,764,4.09728,-0.774889
588,260,3.69702,1.00037,-0.000567697,-0.00078873,-0.00300705,0.00233086,-0.00368729,-0.76703,0.00350388,0.0417969,1812,764,3.69707,-1.00034
595,260,3.34961,1.15826,0,0,0,0,0,0,0,-1,1819,764,3.34956,-1.15824
602,260,3.33875,0.994629,0.00373405,0.00078125,-0.00547286,0.00792615,-0.00341086,-0.653651,0.00671624,0.0437764,1826,764,3.33877,-0.994626
609,260,2.83154,0.644653,0.00532663,0.00122445,-0.00582919,0.00945506,-0.00290398,-0.61623,0.00746216,0.0404582,1833,764,2.83155,-0.644626
616,260,2.65198,0.532654,0.00645329,0.00158606,-0.00568549,0.0102041,-0.00216477,-0.583177,0.00762743,0.0409085,1840,764,2.65196,-0.532644
623,260,4.49695,-0.576599,0.0070206,0.00186303,-0.00529101,0.0103278,-0.00144418,-0.558644,0.00741364,0.0418776,1847,764,4.49701,0.576598
630,260,3.63477,0.389709,0.00723616,0.00185063,-0.00448475,0.00977445,-0.000687666,-0.515031,0.00675719,0.0440425,1854,764,3.63483,-0.38969
637,260,3.64636,0.30481,0.00701231,0.00175806,-0.00364397,0.00887744,-0.000107068,-0.473074,0.0059543,0.0380162,1861,764,3.64642,-0.30481
644,260,3.52222,0.318909,0.00636908,0.00171633,-0.00276186,0.00765378,0.000431623,-0.435388,0.0049649,0.0232656,1868,764,3.52224,-0.318927
651,260,3.49451,0.356201,0.0050308,0.00183496,-0.00195391,0.00595698,0.000908769,-0.442646,0.00370573,0.0138403,1875,764,3.49453,-0.356225
658,260,3.49414,0.387207,0.00449224,0.00156799,-0.0011934,0.00491745,0.00114278,-0.342273,0.00297154,0.0157336,1882,764,3.49416,-0.387231
665,260,3.4967,0.424377,0.00377185,0.00182783,-0.000701784,0.00399872,0.00160096,-0.312667,0.00232389,0.0154324,1889,764,3.49676,-0.424366
672,260,3.49377,0.463989,0.000873836,0.0016341,-0.000258164,0.00171348,0.000794459,-1.2725,0.000990149,0.0133833,1896,764,3.49375,-0.463991
679,260,3.48657,0.510925,-0.000685833,0.000114773,-3.15637e-05,0.000116015,-0.000687075,-1.53145,0.000501218,0.012802,1903,764,3.4866,-0.510921
686,260,3.50061,0.5495,-0.000315894,-0.0014487,-0.00140399,0.000631641,-0.00239624,-0.593671,0.00184445,0.0130309,1910,764,3.50064,-0.549504
693,260,3.49536,0.564331,-0.00013437,-0.00332157,-0.0023409,0.00110388,-0.00455983,-0.486549,0.00346693,0.0132533,1917,764,3.4954,-0.564333
700,260,3.47974,0.612122,-7.23188e-05,-0.00551453,-0.00341656,0.00157433,-0.00716118,-0.449113,0.00537629,0.0130712,1924,764,3.47978,-0.61214
707,260,3.46643,0.642212,-0.000171575,-0.00865782,-0.00458498,0.00183239,-0.0106618,-0.412051,0.00779082,0.0131791,1931,764,3.46643,-0.642224
714,260,3.50916,0.647095,-0.000393997,-0.0126958,-0.00592059,0.00199248,-0.0150823,-0.38316,0.0107806,0.0224753,1938,764,3.5091,-0.647101
721,260,3.54993,0.508606,-0.0002943,-0.0180513,-0.00768748,0.00257135,-0.0209169,-0.356813,0.014876,0.0397845,1945,764,3.54998,-0.508619
728,260,3.56677,0.368225,0,0,0,0,0,0,0,-1,1952,764,3.56679,-0.368213
735,260,2.64575,-0.457825,0,0,0,0,0,0,0,-1,1959,764,2.64581,0.457854
742,260,5.31946,-0.496338,0,0,0,0,0,0,0,-1,1966,764,5.3194,0.496309
749,260,6.02356,-0.183594,0,0,0,0,0,0,0,-1,1973,764,6.02353,0.18361
756,260,0,0,0,0,0,0,0,0,0,-1,1980,764,0,0
763,260,0,0,0,0,0,0,0,0,0,-1,1987,764,0,0
770,260,0,0,0,0,0,0,0,0,0,-1,1994,764,0,0
777,260,0,0,0,0,0,0,0,0,0,-1,2001,764,0,0
784,260,0,0,0,0,0,0,0,0,0,-1,2008,764,0,0
791,260,0,0,0,0,0,0,0,0,0,-1,2015,764,0,0
798,260,0,0,0,0,0,0,0,0,0,-1,2022,764,0,0
805,260,0,0,0,0,0,0,0,0,0,-1,2029,764,0,0
812,260,0,0,0,0,0,0,0,0,0,-1,2036,764,0,0
-700,253,0,0,0,0,0,0,0,0,0,-1,524,771,0,0
-693,253,0,0,0,0,0,0,0,0,0,-1,531,771,0,0
-686,253,0,0,0,0,0,0,0,0,0,-1,538,771,0,0
-679,253,0,0,0,0,0,0,0,0,0,-1,545,771,0,0
-672,253,0,0,0,0,0,0,0,0,0,-1,552,771,0,0
-665,253,0,0,0,0,0,0,0,0,0,-1,559,771,0,0
-658,253,0,0,0,0,0,0,0,0,0,-1,566,771,0,0
-651,253,0,0,0,0,0,0,0,0,0,-1,573,771,0,0
-644,253,0,0,0,0,0,0,0,0,0,-1,580,771,0,0
-637,253,-0.206665,0.430054,0.00956255,0.0317087,-0.0332179,0.0556506,-0.0143793,-0.94628,0.0427081,0.0465616,587,771,-0.206641,-0.430081
-630,253,-0.34021,0.184998,0.0138309,0.0191512,-0.0263286,0.0429537,-0.00997163,-0.835746,0.0324741,0.0471784,594,771,-0.340222,-0.185025
-623,253,0.0483398,0.0615845,0.0164162,0.0106233,-0.0209939,0.0347125,-0.00767297,-0.716847,0.0260784,0.0463642,601,771,0.0483129,-0.0616084
-616,253,0.071167,-0.00891113,0.0175233,0.00484816,-0.0167472,0.029092,-0.0067205,-0.604513,0.02198,0.0453773,608,771,0.071146,0.00893973
-609,253,-0.0130005,0.0393066,0.017584,0.00106682,-0.0133135,0.0249924,-0.00634156,-0.507786,0.0191291,0.0420715,615,771,-0.0130278,-0.0393344
-602,253,-0.221375,0.268005,0.0168535,-0.00124015,-0.0105197,0.0216814,-0.00606808,-0.430265,0.0168453,0.0415492,622,771,-0.221356,-0.268035
-595,253,-0.282227,0.536926,0.0155745,-0.00246497,-0.00828323,0.0188009,-0.00569136,-0.371429,0.0148004,0.0409686,629,771,-0.282205,-0.536898
-588,253,-0.083374,0.701233,0.0138149,-0.00299481,-0.00652181,0.0160484,-0.00522836,-0.329954,0.0128027,0.0326911,636,771,-0.0833616,-0.701227
-581,253,-0.0391235,0.731934,0.0122474,-0.0033064,-0.00454171,0.0134764,-0.00453546,-0.264286,0.0108178,0.0186572,643,771,-0.039112,-0.731914
-574,253,-0.0633545,0.673645,0.0102708,-0.00368545,-0.00290658,0.010852,-0.00426658,-0.197336,0.0090005,0.0176827,650,771,-0.0633507,-0.67367
-567,253,-0.0432129,0.634583,0.0078884,-0.00276046,-0.00218155,0.00831799,-0.00319005,-0.194431,0.00686052,0.0151399,657,771,-0.0431946,-0.634599
-560,253,-0.026123,0.627075,0.0056837,-0.0020446,-0.00159546,0.00600012,-0.00236102,-0.195784,0.00497738,0.0126491,664,771,-0.0261283,-0.627093
-553,253,-0.0245361,0.605042,0.00402134,-0.00144687,-0.000590978,0.00408448,-0.00151001,-0.106438,0.00334204,0.0119102,671,771,-0.0245415,-0.605027
-546,253,-0.0354004,0.594788,0.00262148,-0.0013423,-3.79747e-05,0.00262184,-0.00134267,-0.00957925,0.00232829,0.0102388,678,771,-0.0353889,-0.594799
-539,253,-0.0374146,0.55304,0.00113229,-0.00143499,0.000564024,0.00125074,-0.00155344,0.206999,0.00162214,0.0106035,685,771,-0.037434,-0.553058
-532,253,-0.0480347,0.507202,-0.000602987,-0.00206822,0.00142321,0.000265104,-0.00293631,0.547705,0.00205163,0.0135372,692,771,-0.0480138,-0.507229
-525,253,-0.0609741,0.456421,-0.0018793,-0.00198908,0.00236323,0.000429673,-0.00429805,0.773788,0.0030188,0.0113815,699,771,-0.0609897,-0.456431
-518,253,-0.0563354,0.436768,-0.00271201,-0.00174376,0.00369949,0.00150315,-0.00595892,0.85046,0.00455706,0.0136536,706,771,-0.05632,-0.436784
-511,253,-0.0425415,0.407043,-0.00344037,-0.00111335,0.00563625,0.00347823,-0.00803195,0.887185,0.00681655,0.0297997,713,771,-0.0425561,-0.407053
-504,253,0.0213013,0.361145,-0.00440838,0.000285268,0.00822997,0.00649648,-0.0106196,0.92429,0.00997709,0.0397621,720,771,0.0213278,-0.361164
-497,253,0.0840454,0.333984,-0.0053875,0.00220044,0.0114126,0.0104332,-0.0136203,0.94587,0.0139278,0.0426607,727,771,0.0840394,-0.333974
-490,253,0.306458,0.257568,-0.00629534,0.0051652,0.0154145,0.0158801,-0.0170103,0.963355,0.018993,0.0459808,734,771,0.306431,-0.257549
-483,253,0.160645,0.351501,-0.00703577,0.00951058,0.0206062,0.0234424,-0.0209676,0.976293,0.0256534,0.0483625,741,771,0.160674,-0.351481
-476,253,-0.130188,0.177002,-0.00746049,0.0154716,0.0269757,0.0333169,-0.0253058,0.986355,0.033951,0.0462862,748,771,-0.130174,-0.176976
-469,253,-0.407288,-0.00183105,0,0,0,0,0,0,0,-1,755,771,-0.40727,0.00181183
-462,253,-0.138977,0.888428,0,0,0,0,0,0,0,-1,762,771,-0.138984,-0.888417
-455,253,-0.0865479,1.16217,0,0,0,0,0,0,0,-1,769,771,-0.0865536,-1.16217
-448,253,0,0,0,0,0,0,0,0,0,-1,776,771,0,0
-441,253,0,0,0,0,0,0,0,0,0,-1,783,771,0,0
-434,253,0,0,0,0,0,0,0,0,0,-1,790,771,0,0
-427,253,0,0,0,0,0,0,0,0,0,-1,797,771,0,0
-420,253,0,0,0,0,0,0,0,0,0,-1,804,771,0,0
-413,253,0,0,0,0,0,0,0,0,0,-1,811,771,0,0
-406,253,0,0,0,0,0,0,0,0,0,-1,818,771,0,0
-399,253,0,0,0,0,0,0,0,0,0,-1,825,771,0,0
-392,253,0,0,0,0,0,0,0,0,0,-1,832,771,0,0
-385,253,0,0,0,0,0,0,0,0,0,-1,839,771,0,0
-378,253,0,0,0,0,0,0,0,0,0,-1,846,771,0,0
-371,253,0,0,0,0,0,0,0,0,0,-1,853,771,0,0
-364,253,0,0,0,0,0,0,0,0,0,-1,860,771,0,0
-357,253,0,0,0,0,0,0,0,0,0,-1,867,771,0,0
-350,253,0,0,0,0,0,0,0,0,0,-1,874,771,0,0
-343,253,0,0,0,0,0,0,0,0,0,-1,881,771,0,0
-336,253,0,0,0,0,0,0,0,0,0,-1,888,771,0,0
-329,253,0,0,0,0,0,0,0,0,0,-1,895,771,0,0
-322,253,0,0,0,0,0,0,0,0,0,-1,902,771,0,0
-315,253,0,0,0,0,0,0,0,0,0,-1,909,771,0,0
-308,253,0,0,0,0,0,0,0,0,0,-1,916,771,0,0
-301,253,0,0,0,0,0,0,0,0,0,-1,923,771,0,0
-294,253,0,0,0,0,0,0,0,0,0,-1,930,771,0,0
-287,253,0,0,0,0,0,0,0,0,0,-1,937,771,0,0
-280,253,0,0,0,0,0,0,0,0,0,-1,944,771,0,0
-273,253,0,0,0,0,0,0,0,0,0,-1,951,771,0,0
-266,253,0,0,0,0,0,0,0,0,0,-1,958,771,0,0
-259,253,0,0,0,0,0,0,0,0,0,-1,965,771,0,0
-252,253,0,0,0,0,0,0,0,0,0,-1,972,771,0,0
-245,253,0,0,0,0,0,0,0,0,0,-1,979,771,0,0
-238,253,0,0,0,0,0,0,0,0,0,-1,986,771,0,0
-231,253,0,0,0,0,0,0,0,0,0,-1,993,771,0,0
-224,253,0,0,0,0,0,0,0,0,0,-1,1000,771,0,0
-217,253,0,0,0,0,0,0,0,0,0,-1,1007,771,0,0
-210,253,0,0,0,0,0,0,0,0,0,-1,1014,771,0,0
-203,253,0,0,0,0,0,0,0,0,0,-1,1021,771,0,0
-196,253,0,0,0,0,0,0,0,0,0,-1,1028,771,0,0
-189,253,0,0,0,0,0,0,0,0,0,-1,1035,771,0,0
-182,253,0,0,0,0,0,0,0,0,0,-1,1042,771,0,0
-175,253,0,0,0,0,0,0,0,0,0,-1,1049,771,0,0
-168,253,0,0,0,0,0,0,0,0,0,-1,1056,771,0,0
-161,253,0,0,0,0,0,0,0,0,0,-1,1063,771,0,0
-154,253,0,0,0,0,0,0,0,0,0,-1,1070,771,0,0
-147,253,0,0,0,0,0,0,0,0,0,-1,1077,771,0,0
-140,253,0,0,0,0,0,0,0,0,0,-1,1084,771,0,0
-133,253,0,0,0,0,0,0,0,0,0,-1,1091,771,0,0
-126,253,0,0,0,0,0,0,0,0,0,-1,1098,771,0,0
-119,253,0,0,0,0,0,0,0,0,0,-1,1105,771,0,0
-112,253,0,0,0,0,0,0,0,0,0,-1,1112,771,0,0
-105,253,0,0,0,0,0,0,0,0,0,-1,1119,771,0,0
-98,253,0,0,0,0,0,0,0,0,0,-1,1126,771,0,0
-91,253,0,0,0,0,0,0,0,0,0,-1,1133,771,0,0
-84,253,0,0,0,0,0,0,0,0,0,-1,1140,771,0,0
-77,253,0,0,0,0,0,0,0,0,0,-1,1147,771,0,0
-70,253,0,0,0,0,0,0,0,0,0,-1,1154,771,0,0
-63,253,0,0,0,0,0,0,0,0,0,-1,1161,771,0,0
-56,253,0,0,0,0,0,0,0,0,0,-1,1168,771,0,0
-49,253,0,0,0,0,0,0,0,0,0,-1,1175,771,0,0
-42,253,0,0,0,0,0,0,0,0,0,-1,1182,771,0,0
-35,253,0,0,0,0,0,0,0,0,0,-1,1189,771,0,0
-28,253,0,0,0,0,0,0,0,0,0,-1,1196,771,0,0
-21,253,0,0,0,0,0,0,0,0,0,-1,1203,771,0,0
-14,253,0,0,0,0,0,0,0,0,0,-1,1210,771,0,0
-7,253,0,0,0,0,0,0,0,0,0,-1,1217,771,0,0
0,253,0,0,0,0,0,0,0,0,0,-1,1224,771,0,0
7,253,0,0,0,0,0,0,0,0,0,-1,1231,771,0,0
14,253,0,0,0,0,0,0,0,0,0,-1,1238,771,0,0
21,253,0,0,0,0,0,0,0,0,0,-1,1245,771,0,0
28,253,0,0,0,0,0,0,0,0,0,-1,1252,771,0,0
35,253,0,0,0,0,0,0,0,0,0,-1,1259,771,0,0
42,253,0,0,0,0,0,0,0,0,0,-1,1266,771,0,0
49,253,0,0,0,0,0,0,0,0,0,-1,1273,771,0,0
56,253,0,0,0,0,0,0,0,0,0,-1,1280,771,0,0
63,253,0,0,0,0,0,0,0,0,0,-1,1287,771,0,0
70,253,0,0,0,0,0,0,0,0,0,-1,1294,771,0,0
77,253,0,0,0,0,0,0,0,0,0,-1,1301,771,0,0
84,253,0,0,0,0,0,0,0,0,0,-1,1308,771,0,0
91,253,0,0,0,0,0,0,0,0,0,-1,1315,771,0,0
98,253,0,0,0,0,0,0,0,0,0,-1,1322,771,0,0
105,253,0,0,0,0,0,0,0,0,0,-1,1329,771,0,0
112,253,0,0,0,0,0,0,0,0,0,-1,1336,771,0,0
119,253,0,0,0,0,0,0,0,0,0,-1,1343,771,0,0
126,253,0,0,0,0,0,0,0,0,0,-1,1350,771,0,0
133,253,0,0,0,0,0,0,0,0,0,-1,1357,771,0,0
140,253,0,0,0,0,0,0,0,0,0,-1,1364,771,0,0
147,253,0,0,0,0,0,0,0,0,0,-1,1371,771,0,0
154,253,0,0,0,0,0,0,0,0,0,-1,1378,771,0,0
161,253,0,0,0,0,0,0,0,0,0,-1,1385,771,0,0
168,253,0,0,0,0,0,0,0,0,0,-1,1392,771,0,0
175,253,0,0,0,0,0,0,0,0,0,-1,1399,771,0,0
182,253,0,0,0,0,0,0,0,0,0,-1,1406,771,0,0
189,253,0,0,0,0,0,0,0,0,0,-1,1413,771,0,0
196,253,0,0,0,0,0,0,0,0,0,-1,1420,771,0,0
203,253,0,0,0,0,0,0,0,0,0,-1,1427,771,0,0
210,253,0,0,0,0,0,0,0,0,0,-1,1434,771,0,0
217,253,0,0,0,0,0,0,0,0,0,-1,1441,771,0,0
224,253,0,0,0,0,0,0,0,0,0,-1,1448,771,0,0
231,253,0,0,0,0,0,0,0,0,0,-1,1455,771,0,0
238,253,0,0,0,0,0,0,0,0,0,-1,1462,771,0,0
245,253,0,0,0,0,0,0,0,0,0,-1,1469,771,0,0
252,253,0,0,0,0,0,0,0,0,0,-1,1476,771,0,0
259,253,0,0,0,0,0,0,0,0,0,-1,1483,771,0,0
266,253,0,0,0,0,0,0,0,0,0,-1,1490,771,0,0
273,253,0,0,0,0,0,0,0,0,0,-1,1497,771,0,0
280,253,0,0,0,0,0,0,0,0,0,-1,1504,771,0,0
287,253,0,0,0,0,0,0,0,0,0,-1,1511,771,0,0
294,253,0,0,0,0,0,0,0,0,0,-1,1518,771,0,0
301,253,0,0,0,0,0,0,0,0,0,-1,1525,771,0,0
308,253,0,0,0,0,0,0,0,0,0,-1,1532,771,0,0
315,253,0,0,0,0,0,0,0,0,0,-1,1539,771,0,0
322,253,0,0,0,0,0,0,0,0,0,-1,1546,771,0,0
329,253,0,0,0,0,0,0,0,0,0,-1,1553,771,0,0
336,253,0,0,0,0,0,0,0,0,0,-1,1560,771,0,0
343,253,0,0,0,0,0,0,0,0,0,-1,1567,771,0,0
350,253,0,0,0,0,0,0,0,0,0,-1,1574,771,0,0
357,253,0,0,0,0,0,0,0,0,0,-1,1581,771,0,0
364,253,0,0,0,0,0,0,0,0,0,-1,1588,771,0,0
371,253,0,0,0,0,0,0,0,0,0,-1,1595,771,0,0
378,253,0,0,0,0,0,0,0,0,0,-1,1602,771,0,0
385,253,0,0,0,0,0,0,0,0,0,-1,1609,771,0,0
392,253,0,0,0,0,0,0,0,0,0,-1,1616,771,0,0
399,253,0,0,0,0,0,0,0,0,0,-1,1623,771,0,0
406,253,0,0,0,0,0,0,0,0,0,-1,1630,771,0,0
413,253,0,0,0,0,0,0,0,0,0,-1,1637,771,0,0
420,253,0,0,0,0,0,0,0,0,0,-1,1644,771,0,0
427,253,0,0,0,0,0,0,0,0,0,-1,1651,771,0,0
434,253,0,0,0,0,0,0,0,0,0,-1,1658,771,0,0
441,253,0,0,0,0,0,0,0,0,0,-1,1665,771,0,0
448,253,0,0,0,0,0,0,0,0,0,-1,1672,771,0,0
455,253,0,0,0,0,0,0,0,0,0,-1,1679,771,0,0
462,253,0,0,0,0,0,0,0,0,0,-1,1686,771,0,0
469,253,0,0,0,0,0,0,0,0,0,-1,1693,771,0,0
476,253,0,0,0,0,0,0,0,0,0,-1,1700,771,0,0
483,253,0,0,0,0,0,0,0,0,0,-1,1707,771,0,0
490,253,0,0,0,0,0,0,0,0,0,-1,1714,771,0,0
497,253,0,0,0,0,0,0,0,0,0,-1,1721,771,0,0
504,253,0,0,0,0,0,0,0,0,0,-1,1728,771,0,0
511,253,0,0,0,0,0,0,0,0,0,-1,1735,771,0,0
518,253,0,0,0,0,0,0,0,0,0,-1,1742,771,0,0
525,253,0,0,0,0,0,0,0,0,0,-1,1749,771,0,0
532,253,0,0,0,0,0,0,0,0,0,-1,1756,771,0,0
539,253,0,0,0,0,0,0,0,0,0,-1,1763,771,0,0
546,253,0,0,0,0,0,0,0,0,0,-1,1770,771,0,0
553,253,0,0,0,0,0,0,0,0,0,-1,1777,771,0,0
560,253,0,0,0,0,0,0,0,0,0,-1,1784,771,0,0
567,253,0,0,0,0,0,0,0,0,0,-1,1791,771,0,0
574,253,4.31738,0.523621,-0.0107191,-0.00149089,0.00220219,-0.000992302,-0.0112177,1.34815,0.0071706,0.0351698,1798,771,4.31744,-0.523603
581,253,4.30237,0.491699,-0.00674925,-0.000138061,-0.000858619,-2.8369e-05,-0.00685894,-1.44373,0.0045632,0.0391299,1805,771,4.30239,-0.491717
588,253,4.32678,0.560486,-0.00352464,0.000263468,-0.00275486,0.00171256,-0.00497374,-1.08655,0.00401048,0.043465,1812,771,4.32683,-0.560494
595,253,4.08899,0.724731,0,0,0,0,0,0,0,-1,1819,771,4.08903,-0.724712
602,253,3.58936,0.944153,0.00245988,0.00100371,-0.00521151,0.00699391,-0.00353033,-0.715994,0.00618489,0.0430863,1826,771,3.58937,-0.944127
609,253,2.86816,1.14783,0.00446961,0.00121823,-0.00546391,0.00854456,-0.00285671,-0.640803,0.00685013,0.0416068,1833,771,2.86814,-1.14782
616,253,2.23828,0.996948,0.00586312,0.00145702,-0.00527101,0.00937295,-0.00205281,-0.587454,0.00703348,0.0416765,1840,771,2.23832,-0.996922
623,253,4.81995,-0.941406,0.00654253,0.0016618,-0.00482988,0.00951355,-0.00130922,-0.551473,0.00682079,0.0463507,1847,771,4.81989,0.941378
630,253,3.64319,0.399963,0.00675924,0.00163254,-0.00404863,0.00898778,-0.000595999,-0.503183,0.00620008,0.0451175,1854,771,3.64316,-0.399978
637,253,3.8208,0.186646,0.00655318,0.00155282,-0.00324375,0.00814847,-4.24664e-05,-0.457068,0.00544652,0.0428491,1861,771,3.82084,-0.186632
644,253,3.7135,0.221802,0.00596257,0.00151228,-0.00239612,0.00700739,0.000467465,-0.411189,0.00452383,0.0380596,1868,771,3.71351,-0.22183
651,253,3.53845,0.367249,0.00469434,0.00163327,-0.00163386,0.00540256,0.000925052,-0.409018,0.00333638,0.0232715,1875,771,3.53849,-0.367268
658,253,3.53308,0.414001,0.00430666,0.00141213,-0.000959083,0.0045956,0.00112319,-0.292621,0.00276642,0.0185805,1882,771,3.53314,-0.414009
665,253,3.49768,0.441223,0.00375063,0.00171853,-0.000500495,0.00386721,0.00160195,-0.228851,0.00224366,0.0200122,1889,771,3.49765,-0.441216
672,253,3.48743,0.473816,0.000775042,0.00166323,-3.94477e-05,0.00166497,0.000773293,-1.5265,0.000962083,0.0163758,1896,771,3.48739,-0.47379
679,253,3.52893,0.518433,-0.000791894,0.000324761,0.000281665,0.000391785,-0.000858918,1.33718,0.000738692,0.0134869,1903,771,3.52891,-0.518459
686,253,3.56067,0.526428,-0.00020465,-0.000982421,-0.000869231,0.000358722,-0.00154579,-0.575057,0.0011686,0.0173987,1910,771,3.56063,-0.52641
693,253,3.54236,0.553894,0.000109145,-0.00262665,-0.00148135,0.000757564,-0.00327507,-0.412597,0.00247486,0.0170827,1917,771,3.54233,-0.553888
700,253,3.51636,0.5896,0.000180026,-0.00441604,-0.00211892,0.00100782,-0.00524384,-0.372435,0.00387576,0.0151146,1924,771,3.5163,-0.589593
707,253,3.50098,0.622131,-8.70636e-05,-0.00701793,-0.00273139,0.000859951,-0.00796494,-0.333746,0.00561859,0.0135554,1931,771,3.50099,-0.622154
714,253,3.5271,0.632507,-0.000678292,-0.0102553,-0.0031964,0.000290525,-0.0112241,-0.294295,0.00758146,0.0174709,1938,771,3.52705,-0.632499
721,253,3.53345,0.63623,-0.00103352,-0.0145215,-0.00376937,-5.16064e-05,-0.0155034,-0.254834,0.0103184,0.0306525,1945,771,3.53345,-0.636238
728,253,3.64661,1.08734,-0.00162783,-0.0199416,-0.00421177,-0.000705651,-0.0208638,-0.215552,0.01368,0.0408497,1952,771,3.64661,-1.08735
735,253,3.93762,1.61243,0,0,0,0,0,0,0,-1,1959,771,3.9376,-1.61241
742,253,5.09692,0.622253,0,0,0,0,0,0,0,-1,1966,771,5.09698,-0.622249
749,253,5.33679,0.0928345,0,0,0,0,0,0,0,-1,1973,771,5.33676,-0.0928358
756,253,0,0,0,0,0,0,0,0,0,-1,1980,771,0,0
763,253,0,0,0,0,0,0,0,0,0,-1,1987,771,0,0
770,253,0,0,0,0,0,0,0,0,0,-1,1994,771,0,0
777,253,0,0,0,0,0,0,0,0,0,-1,2001,771,0,0
784,253,0,0,0,0,0,0,0,0,0,-1,2008,771,0,0
791,253,0,0,0,0,0,0,0,0,0,-1,2015,771,0,0
798,253,0,0,0,0,0,0,0,0,0,-1,2022,771,0,0
805,253,0,0,0,0,0,0,0,0,0,-1,2029,771,0,0
812,253,0,0,0,0,0,0,0,0,0,-1,2036,771,0,0
-700,246,0,0,0,0,0,0,0,0,0,-1,524,778,0,0
-693,246,0,0,0,0,0,0,0,0,0,-1,531,778,0,0
-686,246,0,0,0,0,0,0,0,0,0,-1,538,778,0,0
-679,246,0,0,0,0,0,0,0,0,0,-1,545,778,0,0
-672,246,0,0,0,0,0,0,0,0,0,-1,552,778,0,0
-665,246,0,0,0,0,0,0,0,0,0,-1,559,778,0,0
-658,246,0,0,0,0,0,0,0,0,0,-1,566,778,0,0
-651,246,0,0,0,0,0,0,0,0,0,-1,573,778,0,0
-644,246,0,0,0,0,0,0,0,0,0,-1,580,778,0,0
-637,246,-0.183411,0.102356,0.0084314,0.0264365,-0.0236277,0.0427186,-0.00785066,-0.967416,0.0314246,0.0452215,587,778,-0.183385,-0.102361
-630,246,-0.372192,-0.462769,0.0123578,0.0164464,-0.0188833,0.0333958,-0.00459157,-0.839319,0.0239416,0.047224,594,778,-0.372213,0.462744
-623,246,-0.542847,-1.06458,0.0145292,0.00954223,-0.0152362,0.0274746,-0.00340321,-0.70429,0.0195498,0.0498886,601,778,-0.542843,1.06458
-616,246,0.276917,0.057312,0.015353,0.00477617,-0.0123231,0.0234745,-0.0033453,-0.582708,0.0168757,0.0446189,608,778,0.276929,-0.0573064
-609,246,0.238464,0.142029,0,0,0,0,0,0,0,-1,615,778,0.238465,-0.142039
-602,246,-0.0410156,0.529663,0.0144077,-0.000411513,-0.00800151,0.0179034,-0.00390725,-0.411894,0.0134289,0.0430246,622,778,-0.0410375,-0.529668
-595,246,-0.0548706,0.696045,0.0131927,-0.00153305,-0.00644363,0.0156141,-0.00395446,-0.359458,0.0119477,0.0397003,629,778,-0.054879,-0.696032
-588,246,-0.0593262,0.716797,0.0115588,-0.00210539,-0.00523904,0.0133363,-0.00388289,-0.327092,0.010429,0.0258507,636,778,-0.0593134,-0.71678
-581,246,-0.0818481,0.72168,0.0101622,-0.00249088,-0.00359583,0.0111127,-0.00344136,-0.25842,0.00878326,0.0142334,643,778,-0.0818489,-0.7217
-574,246,-0.0881958,0.643433,0.00840129,-0.00293785,-0.0022754,0.00884086,-0.00337741,-0.190829,0.0072855,0.0166934,650,778,-0.0882169,-0.643451
-567,246,-0.0644531,0.611328,0.00620844,-0.00207742,-0.00182103,0.00659099,-0.00245997,-0.207066,0.00540396,0.0147665,657,778,-0.0644823,-0.611315
-560,246,-0.0570068,0.603027,0.004228,-0.0015971,-0.00133624,0.0045199,-0.001889,-0.215069,0.00380268,0.0122399,664,778,-0.0569794,-0.603038
-553,246,-0.0692749,0.602051,0.002748,-0.00131855,-0.000268071,0.0027656,-0.00133614,-0.065543,0.0024156,0.0123553,671,778,-0.0692483,-0.602021
-546,246,-0.0733032,0.597961,0.00151199,-0.00143413,0.000379488,0.00156008,-0.00148222,0.126068,0.00175667,0.0103818,678,778,-0.0733327,-0.597946
-539,246,-0.0678101,0.553406,0.000148998,-0.00173567,0.00106573,0.000629256,-0.00221593,0.423385,0.00172571,0.0097791,685,778,-0.0677996,-0.553391
-532,246,-0.0844727,0.497681,-0.00141882,-0.00246887,0.0019491,7.47324e-05,-0.00396242,0.653838,0.00266687,0.0112043,692,778,-0.0844671,-0.497691
-525,246,-0.0878906,0.475952,-0.0026622,-0.00260728,0.0029697,0.000335088,-0.00560456,0.790021,0.00385293,0.0122252,699,778,-0.0878899,-0.475966
-518,246,-0.0847168,0.446899,-0.00360036,-0.00261891,0.00432539,0.0012435,-0.00746278,0.841883,0.00543729,0.0178497,706,778,-0.0847049,-0.446919
-511,246,-0.130188,0.483215,-0.00454764,-0.0023185,0.0061456,0.00281279,-0.00967893,0.875103,0.00756654,0.0378521,713,778,-0.130189,-0.483216
-504,246,-0.171997,0.518188,-0.00571504,-0.00138645,0.00848726,0.00520812,-0.0123096,0.91024,0.0103872,0.0436111,720,778,-0.171972,-0.518164
-497,246,-0.195984,0.46875,-0.00688811,6.01833e-05,0.0113848,0.00848912,-0.015317,0.933489,0.0139317,0.0445566,727,778,-0.195989,-0.468727
-490,246,-0.240234,0.442444,-0.00792947,0.00254795,0.0150764,0.0132698,-0.0186514,0.952611,0.0185168,0.048414,734,778,-0.24026,-0.442418
-483,246,-0.28125,0.411377,0,0,0,0,0,0,0,-1,741,778,-0.281242,-0.411407
-476,246,-0.578064,0.223206,0,0,0,0,0,0,0,-1,748,778,-0.578035,-0.2232
-469,246,-0.427917,1.21606,0,0,0,0,0,0,0,-1,755,778,-0.427942,-1.21609
-462,246,-0.566833,1.31244,0,0,0,0,0,0,0,-1,762,778,-0.566827,-1.31245
-455,246,0,0,0,0,0,0,0,0,0,-1,769,778,0,0
-448,246,0,0,0,0,0,0,0,0,0,-1,776,778,0,0
-441,246,0,0,0,0,0,0,0,0,0,-1,783,778,0,0
-434,246,0,0,0,0,0,0,0,0,0,-1,790,778,0,0
-427,246,0,0,0,0,0,0,0,0,0,-1,797,778,0,0
-420,246,0,0,0,0,0,0,0,0,0,-1,804,778,0,0
-413,246,0,0,0,0,0,0,0,0,0,-1,811,778,0,0
-406,246,0,0,0,0,0,0,0,0,0,-1,818,778,0,0
-399,246,0,0,0,0,0,0,0,0,0,-1,825,778,0,0
-392,246,0,0,0,0,0,0,0,0,0,-1,832,778,0,0
-385,246,0,0,0,0,0,0,0,0,0,-1,839,778,0,0
-378,246,0,0,0,0,0,0,0,0,0,-1,846,778,0,0
-371,246,0,0,0,0,0,0,0,0,0,-1,853,778,0,0
-364,246,0,0,0,0,0,0,0,0,0,-1,860,778,0,0
-357,246,0,0,0,0,0,0,0,0,0,-1,867,778,0,0
-350,246,0,0,0,0,0,0,0,0,0,-1,874,778,0,0
-343,246,0,0,0,0,0,0,0,0,0,-1,881,778,0,0
-336,246,0,0,0,0,0,0,0,0,0,-1,888,778,0,0
-329,246,0,0,0,0,0,0,0,0,0,-1,895,778,0,0
-322,246,0,0,0,0,0,0,0,0,0,-1,902,778,0,0
-315,246,0,0,0,0,0,0,0,0,0,-1,909,778,0,0
-308,246,0,0,0,0,0,0,0,0,0,-1,916,778,0,0
-301,246,0,0,0,0,0,0,0,0,0,-1,923,778,0,0
-294,246,0,0,0,0,0,0,0,0,0,-1,930,778,0,0
-287,246,0,0,0,0,0,0,0,0,0,-1,937,778,0,0
-280,246,0,0,0,0,0,0,0,0,0,-1,944,778,0,0
-273,246,0,0,0,0,0,0,0,0,0,-1,951,778,0,0
-266,246,0,0,0,0,0,0,0,0,0,-1,958,778,0,0
-259,246,0,0,0,0,0,0,0,0,0,-1,965,778,0,0
-252,246,0,0,0,0,0,0,0,0,0,-1,972,778,0,0
-245,246,0,0,0,0,0,0,0,0,0,-1,979,778,0,0
-238,246,0,0,0,0,0,0,0,0,0,-1,986,778,0,0
-231,246,0,0,0,0,0,0,0,0,0,-1,993,778,0,0
-224,246,0,0,0,0,0,0,0,0,0,-1,1000,778,0,0
-217,246,0,0,0,0,0,0,0,0,0,-1,1007,778,0,0
-210,246,0,0,0,0,0,0,0,0,0,-1,1014,778,0,0
-203,246,0,0,0,0,0,0,0,0,0,-1,1021,778,0,0
-196,246,0,0,0,0,0,0,0,0,0,-1,1028,778,0,0
-189,246,0,0,0,0,0,0,0,0,0,-1,1035,778,0,0
-182,246,0,0,0,0,0,0,0,0,0,-1,1042,778,0,0
-175,246,0,0,0,0,0,0,0,0,0,-1,1049,778,0,0
-168,246,0,0,0,0,0,0,0,0,0,-1,1056,778,0,0
-161,246,0,0,0,0,0,0,0,0,0,-1,1063,778,0,0
-154,246,0,0,0,0,0,0,0,0,0,-1,1070,778,0,0
-147,246,0,0,0,0,0,0,0,0,0,-1,1077,778,0,0
-140,246,0,0,0,0,0,0,0,0,0,-1,1084,778,0,0
-133,246,0,0,0,0,0,0,0,0,0,-1,1091,778,0,0
-126,246,0,0,0,0,0,0,0,0,0,-1,1098,778,0,0
-119,246,0,0,0,0,0,0,0,0,0,-1,1105,778,0,0
-112,246,0,0,0,0,0,0,0,0,0,-1,1112,778,0,0
-105,246,0,0,0,0,0,0,0,0,0,-1,1119,778,0,0
-98,246,0,0,0,0,0,0,0,0,0,-1,1126,778,0,0
-91,246,0,0,0,0,0,0,0,0,0,-1,1133,778,0,0
-84,246,0,0,0,0,0,0,0,0,0,-1,1140,778,0,0
-77,246,0,0,0,0,0,0,0,0,0,-1,1147,778,0,0
-70,246,0,0,0,0,0,0,0,0,0,-1,1154,778,0,0
-63,246,0,0,0,0,0,0,0,0,0,-1,1161,778,0,0
-56,246,0,0,0,0,0,0,0,0,0,-1,1168,778,0,0
-49,246,0,0,0,0,0,0,0,0,0,-1,1175,778,0,0
-42,246,0,0,0,0,0,0,0,0,0,-1,1182,778,0,0
-35,246,0,0,0,0,0,0,0,0,0,-1,1189,778,0,0
-28,246,0,0,0,0,0,0,0,0,0,-1,1196,778,0,0
-21,246,0,0,0,0,0,0,0,0,0,-1,1203,778,0,0
-14,246,0,0,0,0,0,0,0,0,0,-1,1210,778,0,0
-7,246,0,0,0,0,0,0,0,0,0,-1,1217,778,0,0
0,246,0,0,0,0,0,0,0,0,0,-1,1224,778,0,0
7,246,0,0,0,0,0,0,0,0,0,-1,1231,778,0,0
14,246,0,0,0,0,0,0,0,0,0,-1,1238,778,0,0
21,246,0,0,0,0,0,0,0,0,0,-1,1245,778,0,0
28,246,0,0,0,0,0,0,0,0,0,-1,1252,778,0,0
35,246,0,0,0,0,0,0,0,0,0,-1,1259,778,0,0
42,246,0,0,0,0,0,0,0,0,0,-1,1266,778,0,0
49,246,0,0,0,0,0,0,0,0,0,-1,1273,778,0,0
56,246,0,0,0,0,0,0,0,0,0,-1,1280,778,0,0
63,246,0,0,0,0,0,0,0,0,0,-1,1287,778,0,0
70,246,0,0,0,0,0,0,0,0,0,-1,1294,778,0,0
77,246,0,0,0,0,0,0,0,0,0,-1,1301,778,0,0
84,246,0,0,0,0,0,0,0,0,0,-1,1308,778,0,0
91,246,0,0,0,0,0,0,0,0,0,-1,1315,778,0,0
98,246,0,0,0,0,0,0,0,0,0,-1,1322,778,0,0
105,246,0,0,0,0,0,0,0,0,0,-1,1329,778,0,0
112,246,0,0,0,0,0,0,0,0,0,-1,1336,778,0,0
119,246,0,0,0,0,0,0,0,0,0,-1,1343,778,0,0
126,246,0,0,0,0,0,0,0,0,0,-1,1350,778,0,0
133,246,0,0,0,0,0,0,0,0,0,-1,1357,778,0,0
140,246,0,0,0,0,0,0,0,0,0,-1,1364,778,0,0
147,246,0,0,0,0,0,0,0,0,0,-1,1371,778,0,0
154,246,0,0,0,0,0,0,0,0,0,-1,1378,778,0,0
161,246,0,0,0,0,0,0,0,0,0,-1,1385,778,0,0
168,246,0,0,0,0,0,0,0,0,0,-1,1392,778,0,0
175,246,0,0,0,0,0,0,0,0,0,-1,1399,778,0,0
182,246,0,0,0,0,0,0,0,0,0,-1,1406,778,0,0
189,246,0,0,0,0,0,0,0,0,0,-1,1413,778,0,0
196,246,0,0,0,0,0,0,0,0,0,-1,1420,778,0,0
203,246,0,0,0,0,0,0,0,0,0,-1,1427,778,0,0
210,246,0,0,0,0,0,0,0,0,0,-1,1434,778,0,0
217,246,0,0,0,0,0,0,0,0,0,-1,1441,778,0,0
224,246,0,0,0,0,0,0,0,0,0,-1,1448,778,0,0
231,246,0,0,0,0,0,0,0,0,0,-1,1455,778,0,0
238,246,0,0,0,0,0,0,0,0,0,-1,1462,778,0,0
245,246,0,0,0,0,0,0,0,0,0,-1,1469,778,0,0
252,246,0,0,0,0,0,0,0,0,0,-1,1476,778,0,0
259,246,0,0,0,0,0,0,0,0,0,-1,1483,778,0,0
266,246,0,0,0,0,0,0,0,0,0,-1,1490,778,0,0
273,246,0,0,0,0,0,0,0,0,0,-1,1497,778,0,0
280,246,0,0,0,0,0,0,0,0,0,-1,1504,778,0,0
287,246,0,0,0,0,0,0,0,0,0,-1,1511,778,0,0
294,246,0,0,0,0,0,0,0,0,0,-1,1518,778,0,0
301,246,0,0,0,0,0,0,0,0,0,-1,1525,778,0,0
308,246,0,0,0,0,0,0,0,0,0,-1,1532,778,0,0
315,246,0,0,0,0,0,0,0,0,0,-1,1539,778,0,0
322,246,0,0,0,0,0,0,0,0,0,-1,1546,778,0,0
329,246,0,0,0,0,0,0,0,0,0,-1,1553,778,0,0
336,246,0,0,0,0,0,0,0,0,0,-1,1560,778,0,0
343,246,0,0,0,0,0,0,0,0,0,-1,1567,778,0,0
350,246,0,0,0,0,0,0,0,0,0,-1,1574,778,0,0
357,246,0,0,0,0,0,0,0,0,0,-1,1581,778,0,0
364,246,0,0,0,0,0,0,0,0,0,-1,1588,778,0,0
371,246,0,0,0,0,0,0,0,0,0,-1,1595,778,0,0
378,246,0,0,0,0,0,0,0,0,0,-1,1602,778,0,0
385,246,0,0,0,0,0,0,0,0,0,-1,1609,778,0,0
392,246,0,0,0,0,0,0,0,0,0,-1,1616,778,0,0
399,246,0,0,0,0,0,0,0,0,0,-1,1623,778,0,0
406,246,0,0,0,0,0,0,0,0,0,-1,1630,778,0,0
413,246,0,0,0,0,0,0,0,0,0,-1,1637,778,0,0
420,246,0,0,0,0,0,0,0,0,0,-1,1644,778,0,0
427,246,0,0,0,0,0,0,0,0,0,-1,1651,778,0,0
434,246,0,0,0,0,0,0,0,0,0,-1,1658,778,0,0
441,246,0,0,0,0,0,0,0,0,0,-1,1665,778,0,0
448,246,0,0,0,0,0,0,0,0,0,-1,1672,778,0,0
455,246,0,0,0,0,0,0,0,0,0,-1,1679,778,0,0
462,246,0,0,0,0,0,0,0,0,0,-1,1686,778,0,0
469,246,0,0,0,0,0,0,0,0,0,-1,1693,778,0,0
476,246,0,0,0,0,0,0,0,0,0,-1,1700,778,0,0
483,246,0,0,0,0,0,0,0,0,0,-1,1707,778,0,0
490,246,0,0,0,0,0,0,0,0,0,-1,1714,778,0,0
497,246,0,0,0,0,0,0,0,0,0,-1,1721,778,0,0
504,246,0,0,0,0,0,0,0,0,0,-1,1728,778,0,0
511,246,0,0,0,0,0,0,0,0,0,-1,1735,778,0,0
518,246,0,0,0,0,0,0,0,0,0,-1,1742,778,0,0
525,246,0,0,0,0,0,0,0,0,0,-1,1749,778,0,0
532,246,0,0,0,0,0,0,0,0,0,-1,1756,778,0,0
539,246,0,0,0,0,0,0,0,0,0,-1,1763,778,0,0
546,246,0,0,0,0,0,0,0,0,0,-1,1770,778,0,0
553,246,0,0,0,0,0,0,0,0,0,-1,1777,778,0,0
560,246,0,0,0,0,0,0,0,0,0,-1,1784,778,0,0
567,246,0,0,0,0,0,0,0,0,0,-1,1791,778,0,0
574,246,0,0,0,0,0,0,0,0,0,-1,1798,778,0,0
581,246,4.32117,0.517639,-0.011001,0.00182144,-0.000311895,0.00182902,-0.0110086,-1.54649,0.00801856,0.0371237,1805,778,4.32116,-0.517616
588,246,4.28882,0.544678,-0.00676191,0.0013575,-0.00221617,0.00192301,-0.00732742,-1.32095,0.00563638,0.042503,1812,778,4.28887,-0.544684
595,246,4.15906,0.76416,0,0,0,0,0,0,0,-1,1819,778,4.15905,-0.764131
602,246,4.01978,0.852356,0.000955602,0.00114461,-0.0047226,0.00577365,-0.00367344,-0.795402,0.00549902,0.0426688,1826,778,4.01982,-0.852349
609,246,3.09705,1.43848,0.00336653,0.00115644,-0.00497513,0.00735786,-0.00283489,-0.676115,0.00607485,0.0470922,1833,778,3.09707,-1.43848
616,246,1.59204,1.76453,0.00499872,0.00121352,-0.00481085,0.00827586,-0.00206362,-0.597995,0.00631846,0.0499729,1840,778,1.59201,-1.76454
623,246,5.13684,-1.25018,0.00580406,0.0013004,-0.00440781,0.00850193,-0.00139748,-0.549244,0.00618662,0.0458826,1847,778,5.13687,1.25019
630,246,3.59082,0.285522,0.00606442,0.00119821,-0.00372,0.00807636,-0.000813735,-0.495786,0.00567497,0.0448043,1854,778,3.59081,-0.285537
637,246,4.13574,-0.25354,0.00590179,0.00107443,-0.00299509,0.00733473,-0.000358499,-0.446241,0.00501359,0.0440612,1861,778,4.13577,0.253565
644,246,3.87854,0.14325,0.00538867,0.000979269,-0.00221886,0.00631192,5.60251e-05,-0.394299,0.00418939,0.0432735,1868,778,3.87857,-0.143252
651,246,3.60339,0.385132,0.00423831,0.0010275,-0.00153238,0.00485225,0.000413551,-0.381065,0.00310618,0.0290362,1875,778,3.60344,-0.385125
658,246,3.55383,0.457825,0.0039963,0.000803761,-0.000982219,0.00427429,0.000525776,-0.275805,0.00269144,0.0197797,1882,778,3.55382,-0.457809
665,246,3.53906,0.472656,0.00361349,0.00109964,-0.000565992,0.00373504,0.000978086,-0.211551,0.00223647,0.0203041,1889,778,3.53902,-0.472661
672,246,3.54407,0.506409,0.000727672,0.00116193,-7.15663e-05,0.00117342,0.000716182,-1.4116,0.000682952,0.0208182,1896,778,3.54408,-0.506414
679,246,3.56104,0.50946,-0.00078365,6.02456e-05,0.000347086,0.000184657,-0.000908061,1.22662,0.000675394,0.0216054,1903,778,3.56106,-0.509486
686,246,3.59583,0.533997,-7.77558e-05,-0.000943333,-0.000519176,0.000165362,-0.00118645,-0.437948,0.000851457,0.0234579,1910,778,3.59588,-0.534024
693,246,3.6084,0.569092,0.000331524,-0.00227199,-0.000763838,0.000539078,-0.00247954,-0.265319,0.00185896,0.0184035,1917,778,3.60835,-0.569069
700,246,3.57788,0.582397,0.000438543,-0.00362406,-0.000983116,0.000663944,-0.00384946,-0.225376,0.00281385,0.0143245,1924,778,3.57788,-0.582415
707,246,3.55383,0.612,-0.000103754,-0.00567983,-0.00115011,0.000124152,-0.00590774,-0.195625,0.00398052,0.0120881,1931,778,3.55388,-0.611992
714,246,3.55396,0.645874,-0.00142629,-0.0081429,-0.00107465,-0.00125854,-0.00831065,-0.154851,0.00517221,0.0109668,1938,778,3.55395,-0.645848
721,246,3.5321,0.676758,-0.00252857,-0.0114714,-0.000876862,-0.0024434,-0.0115565,-0.0968236,0.00703282,0.0158961,1945,778,3.53208,-0.676764
728,246,3.6228,1.02484,-0.00419542,-0.0156867,-0.000365203,-0.00418383,-0.0156983,-0.0317383,0.00938701,0.033437,1952,778,3.62276,-1.02485
735,246,3.89136,1.42151,0,0,0,0,0,0,0,-1,1959,778,3.89133,-1.42151
742,246,4.49109,0.299438,0,0,0,0,0,0,0,-1,1966,778,4.49112,-0.299455
749,246,4.95911,0.330627,0,0,0,0,0,0,0,-1,1973,778,4.95905,-0.330636
756,246,5.27673,0.00787354,0,0,0,0,0,0,0,-1,1980,778,5.27678,-0.00786428
763,246,0,0,0,0,0,0,0,0,0,-1,1987,778,0,0
770,246,0,0,0,0,0,0,0,0,0,-1,1994,778,0,0
777,246,0,0,0,0,0,0,0,0,0,-1,2001,778,0,0
784,246,0,0,0,0,0,0,0,0,0,-1,2008,778,0,0
791,246,0,0,0,0,0,0,0,0,0,-1,2015,778,0,0
798,246,0,0,0,0,0,0,0,0,0,-1,2022,778,0,0
805,246,0,0,0,0,0,0,0,0,0,-1,2029,778,0,0
812,246,0,0,0,0,0,0,0,0,0,-1,2036,778,0,0
-700,239,0,0,0,0,0,0,0,0,0,-1,524,785,0,0
-693,239,0,0,0,0,0,0,0,0,0,-1,531,785,0,0
-686,239,0,0,0,0,0,0,0,0,0,-1,538,785,0,0
-679,239,0,0,0,0,0,0,0,0,0,-1,545,785,0,0
-672,239,0,0,0,0,0,0,0,0,0,-1,552,785,0,0
-665,239,0,0,0,0,0,0,0,0,0,-1,559,785,0,0
-658,239,0,0,0,0,0,0,0,0,0,-1,566,785,0,0
-651,239,0,0,0,0,0,0,0,0,0,-1,573,785,0,0
-644,239,0,0,0,0,0,0,0,0,0,-1,580,785,0,0
-637,239,-0.379639,-0.192932,0.00511778,0.0190202,-0.0137042,0.0274353,-0.00329733,-1.02011,0.0194826,0.0421834,587,785,-0.379646,0.192912
-630,239,-0.399841,-0.966858,0.0089977,0.0112587,-0.0108501,0.021037,-0.000780609,-0.837307,0.014292,0.0429988,594,785,-0.399822,0.966851
-623,239,-0.408691,-1.84198,0.0112034,0.00600527,-0.00879029,0.0177708,-0.00056216,-0.641657,0.012039,0.0431488,601,785,-0.408667,1.84196
-616,239,-0.459595,-2.51508,0.0121475,0.00248245,-0.00722313,0.0160056,-0.00137564,-0.490577,0.0111573,0.0437982,608,785,-0.459567,2.5151
-609,239,-0.834839,0.694458,0,0,0,0,0,0,0,-1,615,785,-0.83482,-0.694488
-602,239,0.231812,1.00226,0,0,0,0,0,0,0,-1,622,785,0.231824,-1.00223
-595,239,-0.168457,0.815552,0.01065,-0.00179589,-0.00417705,0.0119219,-0.00306779,-0.295579,0.00914371,0.0382517,629,785,-0.168436,-0.815553
-588,239,-0.0949707,0.757446,0.00930832,-0.00211661,-0.00360307,0.0103497,-0.00315798,-0.281358,0.00815879,0.0168973,636,785,-0.0949923,-0.757451
-581,239,-0.118774,0.719421,0.00817538,-0.00231558,-0.00237387,0.00868753,-0.00282773,-0.212488,0.00692933,0.0103942,643,785,-0.118757,-0.719408
-574,239,-0.118896,0.659668,0.00666574,-0.00257777,-0.00142075,0.00687918,-0.00279121,-0.149118,0.00574709,0.0109862,650,785,-0.11888,-0.659647
-567,239,-0.0965576,0.620728,0.00469938,-0.00166043,-0.00124303,0.0049337,-0.00189475,-0.186319,0.00407047,0.0113417,657,785,-0.0965749,-0.620723
-560,239,-0.0879517,0.615479,0.00295991,-0.00132192,-0.000866453,0.00312859,-0.00149061,-0.192281,0.00272221,0.0111324,664,785,-0.0879356,-0.615507
-553,239,-0.104187,0.603027,0.00166817,-0.00126196,0.000190321,0.00168048,-0.00127427,0.0645912,0.00171129,0.012402,671,785,-0.104205,-0.603016
-546,239,-0.128296,0.573669,0.00052487,-0.00153344,0.000888563,0.000855385,-0.00186396,0.356108,0.0016056,0.0134454,678,785,-0.128273,-0.573679
-539,239,-0.110413,0.528076,-0.000781051,-0.00200201,0.00163094,0.000349921,-0.00313298,0.606315,0.00221453,0.0149631,685,785,-0.110387,-0.528067
-532,239,-0.0825806,0.492859,-0.00222567,-0.00283637,0.00254156,2.88181e-05,-0.00509085,0.725613,0.00340355,0.0121232,692,785,-0.0825751,-0.492872
-525,239,-0.0831299,0.494873,-0.00347743,-0.00317918,0.00359991,0.000274689,-0.0069313,0.806099,0.00471509,0.0133093,699,785,-0.0831317,-0.494862
-518,239,-0.0358276,0.493347,-0.00454705,-0.00342693,0.00494109,0.000985737,-0.00895972,0.841831,0.00632737,0.0320583,706,785,-0.0358519,-0.493358
-511,239,-0.116211,0.508179,-0.00571887,-0.00344504,0.00663058,0.00214539,-0.0113093,0.870305,0.00834708,0.0406389,713,785,-0.116222,-0.508165
-504,239,-0.0684814,0.430786,-0.00707467,-0.00293222,0.00873935,0.00397798,-0.0139849,0.901751,0.0108941,0.0426629,720,785,-0.0684845,-0.430804
-497,239,-0.0839233,0.5495,-0.00842732,-0.00194777,0.0112912,0.00655929,-0.0169344,0.925109,0.013998,0.0432647,727,785,-0.0839168,-0.549492
-490,239,-0.218811,0.522522,-0.00966297,-2.52702e-05,0.014542,0.0104755,-0.0201638,0.945392,0.017982,0.0455128,734,785,-0.21881,-0.522516
-483,239,-0.437805,0.619873,-0.0105562,0.00316232,0.0186573,0.0161813,-0.0235752,0.961552,0.0230854,0.0433834,741,785,-0.437786,-0.619878
-476,239,-0.680115,0.960022,-0.0108896,0.00795516,0.0238177,0.0241465,-0.0270809,0.973754,0.0295923,0.0406024,748,785,-0.680085,-0.960025
-469,239,-0.695435,1.07837,-0.0101908,0.0148476,0.0302666,0.035082,-0.0304252,0.981499,0.0378524,0.0451123,755,785,-0.695448,-1.07838
-462,239,-0.817749,1.07874,0,0,0,0,0,0,0,-1,762,785,-0.817768,-1.07871
-455,239,0,0,0,0,0,0,0,0,0,-1,769,785,0,0
-448,239,0,0,0,0,0,0,0,0,0,-1,776,785,0,0
-441,239,0,0,0,0,0,0,0,0,0,-1,783,785,0,0
-434,239,0,0,0,0,0,0,0,0,0,-1,790,785,0,0
-427,239,0,0,0,0,0,0,0,0,0,-1,797,785,0,0
-420,239,0,0,0,0,0,0,0,0,0,-1,804,785,0,0
-413,239,0,0,0,0,0,0,0,0,0,-1,811,785,0,0
-406,239,0,0,0,0,0,0,0,0,0,-1,818,785,0,0
-399,239,0,0,0,0,0,0,0,0,0,-1,825,785,0,0
-392,239,0,0,0,0,0,0,0,0,0,-1,832,785,0,0
-385,239,0,0,0,0,0,0,0,0,0,-1,839,785,0,0
-378,239,0,0,0,0,0,0,0,0,0,-1,846,785,0,0
-371,239,0,0,0,0,0,0,0,0,0,-1,853,785,0,0
-364,239,0,0,0,0,0,0,0,0,0,-1,860,785,0,0
-357,239,0,0,0,0,0,0,0,0,0,-1,867,785,0,0
-350,239,0,0,0,0,0,0,0,0,0,-1,874,785,0,0
-343,239,0,0,0,0,0,0,0,0,0,-1,881,785,0,0
-336,239,0,0,0,0,0,0,0,0,0,-1,888,785,0,0
-329,239,0,0,0,0,0,0,0,0,0,-1,895,785,0,0
-322,239,0,0,0,0,0,0,0,0,0,-1,902,785,0,0
-315,239,0,0,0,0,0,0,0,0,0,-1,909,785,0,0
-308,239,0,0,0,0,0,0,0,0,0,-1,916,785,0,0
-301,239,0,0,0,0,0,0,0,0,0,-1,923,785,0,0
-294,239,0,0,0,0,0,0,0,0,0,-1,930,785,0,0
-287,239,0,0,0,0,0,0,0,0,0,-1,937,785,0,0
-280,239,0,0,0,0,0,0,0,0,0,-1,944,785,0,0
-273,239,0,0,0,0,0,0,0,0,0,-1,951,785,0,0
-266,239,0,0,0,0,0,0,0,0,0,-1,958,785,0,0
-259,239,0,0,0,0,0,0,0,0,0,-1,965,785,0,0
-252,239,0,0,0,0,0,0,0,0,0,-1,972,785,0,0
-245,239,0,0,0,0,0,0,0,0,0,-1,979,785,0,0
-238,239,0,0,0,0,0,0,0,0,0,-1,986,785,0,0
-231,239,0,0,0,0,0,0,0,0,0,-1,993,785,0,0
-224,239,0,0,0,0,0,0,0,0,0,-1,1000,785,0,0
-217,239,0,0,0,0,0,0,0,0,0,-1,1007,785,0,0
-210,239,0,0,0,0,0,0,0,0,0,-1,1014,785,0,0
-203,239,0,0,0,0,0,0,0,0,0,-1,1021,785,0,0
-196,239,0,0,0,0,0,0,0,0,0,-1,1028,785,0,0
-189,239,0,0,0,0,0,0,0,0,0,-1,1035,785,0,0
-182,239,0,0,0,0,0,0,0,0,0,-1,1042,785,0,0
-175,239,0,0,0,0,0,0,0,0,0,-1,1049,785,0,0
-168,239,0,0,0,0,0,0,0,0,0,-1,1056,785,0,0
-161,239,0,0,0,0,0,0,0,0,0,-1,1063,785,0,0
-154,239,0,0,0,0,0,0,0,0,0,-1,1070,785,0,0
-147,239,0,0,0,0,0,0,0,0,0,-1,1077,785,0,0
-140,239,0,0,0,0,0,0,0,0,0,-1,1084,785,0,0
-133,239,0,0,0,0,0,0,0,0,0,-1,1091,785,0,0
-126,239,0,0,0,0,0,0,0,0,0,-1,1098,785,0,0
-119,239,0,0,0,0,0,0,0,0,0,-1,1105,785,0,0
-112,239,0,0,0,0,0,0,0,0,0,-1,1112,785,0,0
-105,239,0,0,0,0,0,0,0,0,0,-1,1119,785,0,0
-98,239,0,0,0,0,0,0,0,0,0,-1,1126,785,0,0
-91,239,0,0,0,0,0,0,0,0,0,-1,1133,785,0,0
-84,239,0,0,0,0,0,0,0,0,0,-1,1140,785,0,0
-77,239,0,0,0,0,0,0,0,0,0,-1,1147,785,0,0
-70,239,0,0,0,0,0,0,0,0,0,-1,1154,785,0,0
-63,239,0,0,0,0,0,0,0,0,0,-1,1161,785,0,0
-56,239,0,0,0,0,0,0,0,0,0,-1,1168,785,0,0
-49,239,0,0,0,0,0,0,0,0,0,-1,1175,785,0,0
-42,239,0,0,0,0,0,0,0,0,0,-1,1182,785,0,0
-35,239,0,0,0,0,0,0,0,0,0,-1,1189,785,0,0
-28,239,0,0,0,0,0,0,0,0,0,-1,1196,785,0,0
-21,239,0,0,0,0,0,0,0,0,0,-1,1203,785,0,0
-14,239,0,0,0,0,0,0,0,0,0,-1,1210,785,0,0
-7,239,0,0,0,0,0,0,0,0,0,-1,1217,785,0,0
0,239,0,0,0,0,0,0,0,0,0,-1,1224,785,0,0
7,239,0,0,0,0,0,0,0,0,0,-1,1231,785,0,0
14,239,0,0,0,0,0,0,0,0,0,-1,1238,785,0,0
21,239,0,0,0,0,0,0,0,0,0,-1,1245,785,0,0
28,239,0,0,0,0,0,0,0,0,0,-1,1252,785,0,0
35,239,0,0,0,0,0,0,0,0,0,-1,1259,785,0,0
42,239,0,0,0,0,0,0,0,0,0,-1,1266,785,0,0
49,239,0,0,0,0,0,0,0,0,0,-1,1273,785,0,0
56,239,0,0,0,0,0,0,0,0,0,-1,1280,785,0,0
63,239,0,0,0,0,0,0,0,0,0,-1,1287,785,0,0
70,239,0,0,0,0,0,0,0,0,0,-1,1294,785,0,0
77,239,0,0,0,0,0,0,0,0,0,-1,1301,785,0,0
84,239,0,0,0,0,0,0,0,0,0,-1,1308,785,0,0
91,239,0,0,0,0,0,0,0,0,0,-1,1315,785,0,0
98,239,0,0,0,0,0,0,0,0,0,-1,1322,785,0,0
105,239,0,0,0,0,0,0,0,0,0,-1,1329,785,0,0
112,239,0,0,0,0,0,0,0,0,0,-1,1336,785,0,0
119,239,0,0,0,0,0,0,0,0,0,-1,1343,785,0,0
126,239,0,0,0,0,0,0,0,0,0,-1,1350,785,0,0
133,239,0,0,0,0,0,0,0,0,0,-1,1357,785,0,0
140,239,0,0,0,0,0,0,0,0,0,-1,1364,785,0,0
147,239,0,0,0,0,0,0,0,0,0,-1,1371,785,0,0
154,239,0,0,0,0,0,0,0,0,0,-1,1378,785,0,0
161,239,0,0,0,0,0,0,0,0,0,-1,1385,785,0,0
168,239,0,0,0,0,0,0,0,0,0,-1,1392,785,0,0
175,239,0,0,0,0,0,0,0,0,0,-1,1399,785,0,0
182,239,0,0,0,0,0,0,0,0,0,-1,1406,785,0,0
189,239,0,0,0,0,0,0,0,0,0,-1,1413,785,0,0
196,239,0,0,0,0,0,0,0,0,0,-1,1420,785,0,0
203,239,0,0,0,0,0,0,0,0,0,-1,1427,785,0,0
210,239,0,0,0,0,0,0,0,0,0,-1,1434,785,0,0
217,239,0,0,0,0,0,0,0,0,0,-1,1441,785,0,0
224,239,0,0,0,0,0,0,0,0,0,-1,1448,785,0,0
231,239,0,0,0,0,0,0,0,0,0,-1,1455,785,0,0
238,239,0,0,0,0,0,0,0,0,0,-1,1462,785,0,0
245,239,0,0,0,0,0,0,0,0,0,-1,1469,785,0,0
252,239,0,0,0,0,0,0,0,0,0,-1,1476,785,0,0
259,239,0,0,0,0,0,0,0,0,0,-1,1483,785,0,0
266,239,0,0,0,0,0,0,0,0,0,-1,1490,785,0,0
273,239,0,0,0,0,0,0,0,0,0,-1,1497,785,0,0
280,239,0,0,0,0,0,0,0,0,0,-1,1504,785,0,0
287,239,0,0,0,0,0,0,0,0,0,-1,1511,785,0,0
294,239,0,0,0,0,0,0,0,0,0,-1,1518,785,0,0
301,239,0,0,0,0,0,0,0,0,0,-1,1525,785,0,0
308,239,0,0,0,0,0,0,0,0,0,-1,1532,785,0,0
315,239,0,0,0,0,0,0,0,0,0,-1,1539,785,0,0
322,239,0,0,0,0,0,0,0,0,0,-1,1546,785,0,0
329,239,0,0,0,0,0,0,0,0,0,-1,1553,785,0,0
336,239,0,0,0,0,0,0,0,0,0,-1,1560,785,0,0
343,239,0,0,0,0,0,0,0,0,0,-1,1567,785,0,0
350,239,0,0,0,0,0,0,0,0,0,-1,1574,785,0,0
357,239,0,0,0,0,0,0,0,0,0,-1,1581,785,0,0
364,239,0,0,0,0,0,0,0,0,0,-1,1588,785,0,0
371,239,0,0,0,0,0,0,0,0,0,-1,1595,785,0,0
378,239,0,0,0,0,0,0,0,0,0,-1,1602,785,0,0
385,239,0,0,0,0,0,0,0,0,0,-1,1609,785,0,0
392,239,0,0,0,0,0,0,0,0,0,-1,1616,785,0,0
399,239,0,0,0,0,0,0,0,0,0,-1,1623,785,0,0
406,239,0,0,0,0,0,0,0,0,0,-1,1630,785,0,0
413,239,0,0,0,0,0,0,0,0,0,-1,1637,785,0,0
420,239,0,0,0,0,0,0,0,0,0,-1,1644,785,0,0
427,239,0,0,0,0,0,0,0,0,0,-1,1651,785,0,0
434,239,0,0,0,0,0,0,0,0,0,-1,1658,785,0,0
441,239,0,0,0,0,0,0,0,0,0,-1,1665,785,0,0
448,239,0,0,0,0,0,0,0,0,0,-1,1672,785,0,0
455,239,0,0,0,0,0,0,0,0,0,-1,1679,785,0,0
462,239,0,0,0,0,0,0,0,0,0,-1,1686,785,0,0
469,239,0,0,0,0,0,0,0,0,0,-1,1693,785,0,0
476,239,0,0,0,0,0,0,0,0,0,-1,1700,785,0,0
483,239,0,0,0,0,0,0,0,0,0,-1,1707,785,0,0
490,239,0,0,0,0,0,0,0,0,0,-1,1714,785,0,0
497,239,0,0,0,0,0,0,0,0,0,-1,1721,785,0,0
504,239,0,0,0,0,0,0,0,0,0,-1,1728,785,0,0
511,239,0,0,0,0,0,0,0,0,0,-1,1735,785,0,0
518,239,0,0,0,0,0,0,0,0,0,-1,1742,785,0,0
525,239,0,0,0,0,0,0,0,0,0,-1,1749,785,0,0
532,239,0,0,0,0,0,0,0,0,0,-1,1756,785,0,0
539,239,0,0,0,0,0,0,0,0,0,-1,1763,785,0,0
546,239,0,0,0,0,0,0,0,0,0,-1,1770,785,0,0
553,239,0,0,0,0,0,0,0,0,0,-1,1777,785,0,0
560,239,0,0,0,0,0,0,0,0,0,-1,1784,785,0,0
567,239,0,0,0,0,0,0,0,0,0,-1,1791,785,0,0
574,239,0,0,0,0,0,0,0,0,0,-1,1798,785,0,0
581,239,4.21631,0.685913,-0.0159562,0.00381316,0.000650162,0.00383452,-0.0159775,1.53796,0.0121335,0.0342578,1805,785,4.21635,-0.685907
588,239,4.12927,0.751526,-0.0105682,0.00247581,-0.00130936,0.00260594,-0.0106984,-1.47173,0.00814112,0.0372496,1812,785,4.12925,-0.7515
595,239,4.18958,0.669128,-0.00508802,0.00182915,-0.00303848,0.00297428,-0.00623314,-1.21038,0.00542576,0.035763,1819,785,4.18959,-0.669155
602,239,4.25012,0.684998,-0.000821637,0.00144333,-0.00402134,0.00448861,-0.00386691,-0.922653,0.00482851,0.0379633,1826,785,4.25017,-0.685008
609,239,3.61365,1.35547,0.00206635,0.00129534,-0.00427955,0.00597772,-0.00261603,-0.740479,0.00508657,0.0471652,1833,785,3.6137,-1.35548
616,239,1.26233,2.59442,0,0,0,0,0,0,0,-1,1840,785,1.26235,-2.59441
623,239,5.33313,-1.19006,0,0,0,0,0,0,0,-1,1847,785,5.33309,1.19005
630,239,3.55261,0.140991,0,0,0,0,0,0,0,-1,1854,785,3.5526,-0.140997
637,239,4.57397,-0.605225,0,0,0,0,0,0,0,-1,1861,785,4.57394,0.605201
644,239,4.89221,-0.404785,0,0,0,0,0,0,0,-1,1868,785,4.89222,0.404756
651,239,3.54419,0.371338,0.00387718,0.000310033,-0.00124281,0.00426748,-8.02639e-05,-0.304291,0.00287211,0.0368399,1875,785,3.54421,-0.371335
658,239,3.59436,0.444641,0.00374394,3.28008e-05,-0.000822523,0.00391807,-0.00014133,-0.208623,0.00266041,0.0182768,1882,785,3.59437,-0.444644
665,239,3.61853,0.472229,0.00347516,0.000213462,-0.00048665,0.00354622,0.000142401,-0.144996,0.00231814,0.0135968,1889,785,3.61849,-0.472242
672,239,3.61365,0.510742,0.000795171,0.000331069,-3.17008e-05,0.000797326,0.000328914,-0.0678856,0.000462679,0.0191562,1896,785,3.61361,-0.510765
679,239,3.61951,0.520874,-0.000630421,-0.000534369,0.000389693,-0.000189754,-0.000975035,0.846709,0.000596912,0.0213021,1903,785,3.6195,-0.520861
686,239,3.62317,0.536743,7.59776e-05,-0.00123956,-0.000259742,0.000125405,-0.00128898,-0.188044,0.000904028,0.0251231,1910,785,3.62312,-0.536754
693,239,3.63623,0.575134,0.000484475,-0.00222444,-0.000234151,0.000504565,-0.00224453,-0.0855915,0.00168984,0.0169466,1917,785,3.63622,-0.575154
700,239,3.61316,0.590271,0.0005164,-0.00314122,-0.000109104,0.000519651,-0.00314447,-0.0297941,0.00228927,0.011928,1924,785,3.61317,-0.590256
707,239,3.59155,0.611511,-0.000253957,-0.00469612,7.85009e-05,-0.000252571,-0.0046975,0.0176644,0.00305097,0.0103672,1931,785,3.59152,-0.61152
714,239,3.59082,0.643066,-0.00197867,-0.00651092,0.000481066,-0.00192817,-0.00656142,0.10459,0.00389407,0.00990966,1938,785,3.59082,-0.643061
721,239,3.57373,0.654602,-0.00357791,-0.00903358,0.00120319,-0.00332434,-0.00928714,0.207706,0.00543359,0.0168547,1945,785,3.57367,-0.654617
728,239,3.58679,0.658691,-0.0059077,-0.0122763,0.00229435,-0.00516723,-0.0130168,0.312184,0.00756823,0.0326363,1952,785,3.5868,-0.658674
735,239,3.81726,0.0888062,-0.00924674,-0.0162115,0.00387289,-0.00752084,-0.0179374,0.419219,0.0104011,0.0449054,1959,785,3.81726,-0.0888202
742,239,4.323,0.661621,-0.0139147,-0.0208184,0.00608387,-0.0103717,-0.0243615,0.527356,0.0141167,0.0437769,1966,785,4.32301,-0.661609
749,239,4.64453,0.718445,-0.0202817,-0.0260404,0.00908467,-0.013631,-0.0326911,0.631934,0.0189608,0.0434954,1973,785,4.64453,-0.71844
756,239,4.67078,0.456665,-0.0287681,-0.0317333,0.0130604,-0.0171064,-0.043395,0.728881,0.0252404,0.0456114,1980,785,4.67073,-0.456642
763,239,0,0,0,0,0,0,0,0,0,-1,1987,785,0,0
770,239,0,0,0,0,0,0,0,0,0,-1,1994,785,0,0
777,239,0,0,0,0,0,0,0,0,0,-1,2001,785,0,0
784,239,0,0,0,0,0,0,0,0,0,-1,2008,785,0,0
791,239,0,0,0,0,0,0,0,0,0,-1,2015,785,0,0
798,239,0,0,0,0,0,0,0,0,0,-1,2022,785,0,0
805,239,0,0,0,0,0,0,0,0,0,-1,2029,785,0,0
812,239,0,0,0,0,0,0,0,0,0,-1,2036,785,0,0
-700,232,0,0,0,0,0,0,0,0,0,-1,524,792,0,0
-693,232,0,0,0,0,0,0,0,0,0,-1,531,792,0,0
-686,232,0,0,0,0,0,0,0,0,0,-1,538,792,0,0
-679,232,0,0,0,0,0,0,0,0,0,-1,545,792,0,0
-672,232,0,0,0,0,0,0,0,0,0,-1,552,792,0,0
-665,232,0,0,0,0,0,0,0,0,0,-1,559,792,0,0
-658,232,0,0,0,0,0,0,0,0,0,-1,566,792,0,0
-651,232,0,0,0,0,0,0,0,0,0,-1,573,792,0,0
-644,232,-0.490051,-0.0792236,0,0,0,0,0,0,0,-1,580,792,-0.490043,0.0792496
-637,232,-0.50293,-0.702332,0.000646392,0.0124297,-0.00478128,0.0141257,-0.00104959,-1.22993,0.00978576,0.0429524,587,792,-0.502959,0.702346
-630,232,-0.499146,-1.70197,0.00469877,0.00690629,-0.00365245,0.00961811,0.00198695,-0.932133,0.00586308,0.0422286,594,792,-0.499162,1.70197
-623,232,-0.50946,-2.76855,0.00717678,0.0031952,-0.00299306,0.00878066,0.00159133,-0.491927,0.00540203,0.0407535,601,792,-0.509444,2.76858
-616,232,-1.28845,0.911804,0.00846163,0.000763047,-0.00259395,0.00925407,-2.93893e-05,-0.296489,0.0061792,0.0433262,608,792,-1.28844,-0.911784
-609,232,-0.783142,0.695068,0.00885714,-0.000730482,-0.00232263,0.00939017,-0.00126351,-0.225588,0.00672099,0.047098,615,792,-0.783131,-0.695047
-602,232,-0.237427,0.835083,0,0,0,0,0,0,0,-1,622,792,-0.237408,-0.835067
-595,232,-0.203613,0.792786,0.00813666,-0.00185875,-0.00202767,0.00853233,-0.00225442,-0.192714,0.00656992,0.0337082,629,792,-0.20359,-0.792773
-588,232,-0.165161,0.750549,0.0072006,-0.00203465,-0.00198506,0.0076092,-0.00244325,-0.203001,0.00605385,0.0105859,636,792,-0.165152,-0.750543
-581,232,-0.146362,0.717468,0.00636806,-0.0020904,-0.00114521,0.00652037,-0.00224271,-0.132221,0.00525645,0.00750346,643,792,-0.146391,-0.717445
-574,232,-0.128357,0.689941,0.00517997,-0.00224817,-0.00053448,0.00521823,-0.00228643,-0.0714628,0.00444166,0.00786284,650,792,-0.128382,-0.689917
-567,232,-0.135132,0.659729,0.0035303,-0.00137199,-0.00055009,0.00359126,-0.00143296,-0.110382,0.00298862,0.00884654,657,792,-0.135152,-0.659709
-560,232,-0.134583,0.633911,0.00207899,-0.00114382,-0.000232162,0.00209563,-0.00116046,-0.0715449,0.00190557,0.0106378,664,792,-0.134579,-0.633895
-553,232,-0.138855,0.59021,0.00100901,-0.00126073,0.000796765,0.00126078,-0.0015125,0.306059,0.00160335,0.0117719,671,792,-0.138827,-0.590215
-546,232,-0.187927,0.561829,-2.20404e-05,-0.00164962,0.00152901,0.000896259,-0.00256792,0.540848,0.00207622,0.0189205,678,792,-0.187949,-0.561834
-539,232,-0.156494,0.539917,-0.00124723,-0.00224406,0.00229892,0.000606689,-0.00409798,0.678648,0.00295505,0.0243303,685,792,-0.156495,-0.539898
-532,232,-0.104614,0.499573,-0.0025387,-0.00311156,0.00318463,0.000372355,-0.00602261,0.740548,0.00414477,0.0151294,692,792,-0.104617,-0.499582
-525,232,-0.112305,0.49884,-0.00382722,-0.00363361,0.00423611,0.000506802,-0.00796763,0.796823,0.00548849,0.0214621,699,792,-0.112324,-0.498856
-518,232,-0.0599365,0.536072,-0.00509741,-0.00412236,0.0055058,0.000917459,-0.0101372,0.829557,0.00708381,0.0399141,706,792,-0.0599515,-0.536076
-511,232,-0.131897,0.388367,-0.00660685,-0.00447374,0.00698801,0.00152864,-0.0126092,0.861127,0.00895927,0.0413977,713,792,-0.131887,-0.388355
-504,232,-0.170349,0.277893,0,0,0,0,0,0,0,-1,720,792,-0.170358,-0.277883
-497,232,0.0611572,0.483948,-0.00997848,-0.00397039,0.0109039,0.00433574,-0.0182846,0.919814,0.0138629,0.042237,727,792,0.0611785,-0.483954
-490,232,-0.504517,0.693237,-0.0116077,-0.00274425,0.0135158,0.00704783,-0.0213998,0.943821,0.0171068,0.0437928,734,792,-0.504521,-0.693239
-483,232,-1.03522,0.695007,-0.0128657,-0.000415218,0.0167589,0.0112373,-0.0245182,0.96323,0.0211128,0.0420374,741,792,-1.03523,-0.69498
-476,232,-0.946716,0.825073,-0.0135119,0.00334559,0.020746,0.0173097,-0.0274759,0.978354,0.0260781,0.0349234,748,792,-0.946705,-0.825075
-469,232,-0.892456,0.957825,-0.0129357,0.00907745,0.0256271,0.0259616,-0.0298199,0.988232,0.0322312,0.0354516,755,792,-0.892463,-0.957839
-462,232,0,0,0,0,0,0,0,0,0,-1,762,792,0,0
-455,232,0,0,0,0,0,0,0,0,0,-1,769,792,0,0
-448,232,0,0,0,0,0,0,0,0,0,-1,776,792,0,0
-441,232,0,0,0,0,0,0,0,0,0,-1,783,792,0,0
-434,232,0,0,0,0,0,0,0,0,0,-1,790,792,0,0
-427,232,0,0,0,0,0,0,0,0,0,-1,797,792,0,0
-420,232,0,0,0,0,0,0,0,0,0,-1,804,792,0,0
-413,232,0,0,0,0,0,0,0,0,0,-1,811,792,0,0
-406,232,0,0,0,0,0,0,0,0,0,-1,818,792,0,0
-399,232,0,0,0,0,0,0,0,0,0,-1,825,792,0,0
-392,232,0,0,0,0,0,0,0,0,0,-1,832,792,0,0
-385,232,0,0,0,0,0,0,0,0,0,-1,839,792,0,0
-378,232,0,0,0,0,0,0,0,0,0,-1,846,792,0,0
-371,232,0,0,0,0,0,0,0,0,0,-1,853,792,0,0
-364,232,0,0,0,0,0,0,0,0,0,-1,860,792,0,0
-357,232,0,0,0,0,0,0,0,0,0,-1,867,792,0,0
-350,232,0,0,0,0,0,0,0,0,0,-1,874,792,0,0
-343,232,0,0,0,0,0,0,0,0,0,-1,881,792,0,0
-336,232,0,0,0,0,0,0,0,0,0,-1,888,792,0,0
-329,232,0,0,0,0,0,0,0,0,0,-1,895,792,0,0
-322,232,0,0,0,0,0,0,0,0,0,-1,902,792,0,0
-315,232,0,0,0,0,0,0,0,0,0,-1,909,792,0,0
-308,232,0,0,0,0,0,0,0,0,0,-1,916,792,0,0
-301,232,0,0,0,0,0,0,0,0,0,-1,923,792,0,0
-294,232,0,0,0,0,0,0,0,0,0,-1,930,792,0,0
-287,232,0,0,0,0,0,0,0,0,0,-1,937,792,0,0
-280,232,0,0,0,0,0,0,0,0,0,-1,944,792,0,0
-273,232,0,0,0,0,0,0,0,0,0,-1,951,792,0,0
-266,232,0,0,0,0,0,0,0,0,0,-1,958,792,0,0
-259,232,0,0,0,0,0,0,0,0,0,-1,965,792,0,0
-252,232,0,0,0,0,0,0,0,0,0,-1,972,792,0,0
-245,232,0,0,0,0,0,0,0,0,0,-1,979,792,0,0
-238,232,0,0,0,0,0,0,0,0,0,-1,986,792,0,0
-231,232,0,0,0,0,0,0,0,0,0,-1,993,792,0,0
-224,232,0,0,0,0,0,0,0,0,0,-1,1000,792,0,0
-217,232,0,0,0,0,0,0,0,0,0,-1,1007,792,0,0
-210,232,0,0,0,0,0,0,0,0,0,-1,1014,792,0,0
-203,232,0,0,0,0,0,0,0,0,0,-1,1021,792,0,0
-196,232,0,0,0,0,0,0,0,0,0,-1,1028,792,0,0
-189,232,0,0,0,0,0,0,0,0,0,-1,1035,792,0,0
-182,232,0,0,0,0,0,0,0,0,0,-1,1042,792,0,0
-175,232,0,0,0,0,0,0,0,0,0,-1,1049,792,0,0
-168,232,0,0,0,0,0,0,0,0,0,-1,1056,792,0,0
-161,232,0,0,0,0,0,0,0,0,0,-1,1063,792,0,0
-154,232,0,0,0,0,0,0,0,0,0,-1,1070,792,0,0
-147,232,0,0,0,0,0,0,0,0,0,-1,1077,792,0,0
-140,232,0,0,0,0,0,0,0,0,0,-1,1084,792,0,0
-133,232,0,0,0,0,0,0,0,0,0,-1,1091,792,0,0
-126,232,0,0,0,0,0,0,0,0,0,-1,1098,792,0,0
-119,232,0,0,0,0,0,0,0,0,0,-1,1105,792,0,0
-112,232,0,0,0,0,0,0,0,0,0,-1,1112,792,0,0
-105,232,0,0,0,0,0,0,0,0,0,-1,1119,792,0,0
-98,232,0,0,0,0,0,0,0,0,0,-1,1126,792,0,0
-91,232,0,0,0,0,0,0,0,0,0,-1,1133,792,0,0
-84,232,0,0,0,0,0,0,0,0,0,-1,1140,792,0,0
-77,232,0,0,0,0,0,0,0,0,0,-1,1147,792,0,0
-70,232,0,0,0,0,0,0,0,0,0,-1,1154,792,0,0
-63,232,0,0,0,0,0,0,0,0,0,-1,1161,792,0,0
-56,232,0,0,0,0,0,0,0,0,0,-1,1168,792,0,0
-49,232,0,0,0,0,0,0,0,0,0,-1,1175,792,0,0
-42,232,0,0,0,0,0,0,0,0,0,-1,1182,792,0,0
-35,232,0,0,0,0,0,0,0,0,0,-1,1189,792,0,0
-28,232,0,0,0,0,0,0,0,0,0,-1,1196,792,0,0
-21,232,0,0,0,0,0,0,0,0,0,-1,1203,792,0,0
-14,232,0,0,0,0,0,0,0,0,0,-1,1210,792,0,0
-7,232,0,0,0,0,0,0,0,0,0,-1,1217,792,0,0
0,232,0,0,0,0,0,0,0,0,0,-1,1224,792,0,0
7,232,0,0,0,0,0,0,0,0,0,-1,1231,792,0,0
14,232,0,0,0,0,0,0,0,0,0,-1,1238,792,0,0
21,232,0,0,0,0,0,0,0,0,0,-1,1245,792,0,0
28,232,0,0,0,0,0,0,0,0,0,-1,1252,792,0,0
35,232,0,0,0,0,0,0,0,0,0,-1,1259,792,0,0
42,232,0,0,0,0,0,0,0,0,0,-1,1266,792,0,0
49,232,0,0,0,0,0,0,0,0,0,-1,1273,792,0,0
56,232,0,0,0,0,0,0,0,0,0,-1,1280,792,0,0
63,232,0,0,0,0,0,0,0,0,0,-1,1287,792,0,0
70,232,0,0,0,0,0,0,0,0,0,-1,1294,792,0,0
77,232,0,0,0,0,0,0,0,0,0,-1,1301,792,0,0
84,232,0,0,0,0,0,0,0,0,0,-1,1308,792,0,0
91,232,0,0,0,0,0,0,0,0,0,-1,1315,792,0,0
98,232,0,0,0,0,0,0,0,0,0,-1,1322,792,0,0
105,232,0,0,0,0,0,0,0,0,0,-1,1329,792,0,0
112,232,0,0,0,0,0,0,0,0,0,-1,1336,792,0,0
119,232,0,0,0,0,0,0,0,0,0,-1,1343,792,0,0
126,232,0,0,0,0,0,0,0,0,0,-1,1350,792,0,0
133,232,0,0,0,0,0,0,0,0,0,-1,1357,792,0,0
140,232,0,0,0,0,0,0,0,0,0,-1,1364,792,0,0
147,232,0,0,0,0,0,0,0,0,0,-1,1371,792,0,0
154,232,0,0,0,0,0,0,0,0,0,-1,1378,792,0,0
161,232,0,0,0,0,0,0,0,0,0,-1,1385,792,0,0
168,232,0,0,0,0,0,0,0,0,0,-1,1392,792,0,0
175,232,0,0,0,0,0,0,0,0,0,-1,1399,792,0,0
182,232,0,0,0,0,0,0,0,0,0,-1,1406,792,0,0
189,232,0,0,0,0,0,0,0,0,0,-1,1413,792,0,0
196,232,0,0,0,0,0,0,0,0,0,-1,1420,792,0,0
203,232,0,0,0,0,0,0,0,0,0,-1,1427,792,0,0
210,232,0,0,0,0,0,0,0,0,0,-1,1434,792,0,0
217,232,0,0,0,0,0,0,0,0,0,-1,1441,792,0,0
224,232,0,0,0,0,0,0,0,0,0,-1,1448,792,0,0
231,232,0,0,0,0,0,0,0,0,0,-1,1455,792,0,0
238,232,0,0,0,0,0,0,0,0,0,-1,1462,792,0,0
245,232,0,0,0,0,0,0,0,0,0,-1,1469,792,0,0
252,232,0,0,0,0,0,0,0,0,0,-1,1476,792,0,0
259,232,0,0,0,0,0,0,0,0,0,-1,1483,792,0,0
266,232,0,0,0,0,0,0,0,0,0,-1,1490,792,0,0
273,232,0,0,0,0,0,0,0,0,0,-1,1497,792,0,0
280,232,0,0,0,0,0,0,0,0,0,-1,1504,792,0,0
287,232,0,0,0,0,0,0,0,0,0,-1,1511,792,0,0
294,232,0,0,0,0,0,0,0,0,0,-1,1518,792,0,0
301,232,0,0,0,0,0,0,0,0,0,-1,1525,792,0,0
308,232,0,0,0,0,0,0,0,0,0,-1,1532,792,0,0
315,232,0,0,0,0,0,0,0,0,0,-1,1539,792,0,0
322,232,0,0,0,0,0,0,0,0,0,-1,1546,792,0,0
329,232,0,0,0,0,0,0,0,0,0,-1,1553,792,0,0
336,232,0,0,0,0,0,0,0,0,0,-1,1560,792,0,0
343,232,0,0,0,0,0,0,0,0,0,-1,1567,792,0,0
350,232,0,0,0,0,0,0,0,0,0,-1,1574,792,0,0
357,232,0,0,0,0,0,0,0,0,0,-1,1581,792,0,0
364,232,0,0,0,0,0,0,0,0,0,-1,1588,792,0,0
371,232,0,0,0,0,0,0,0,0,0,-1,1595,792,0,0
378,232,0,0,0,0,0,0,0,0,0,-1,1602,792,0,0
385,232,0,0,0,0,0,0,0,0,0,-1,1609,792,0,0
392,232,0,0,0,0,0,0,0,0,0,-1,1616,792,0,0
399,232,0,0,0,0,0,0,0,0,0,-1,1623,792,0,0
406,232,0,0,0,0,0,0,0,0,0,-1,1630,792,0,0
413,232,0,0,0,0,0,0,0,0,0,-1,1637,792,0,0
420,232,0,0,0,0,0,0,0,0,0,-1,1644,792,0,0
427,232,0,0,0,0,0,0,0,0,0,-1,1651,792,0,0
434,232,0,0,0,0,0,0,0,0,0,-1,1658,792,0,0
441,232,0,0,0,0,0,0,0,0,0,-1,1665,792,0,0
448,232,0,0,0,0,0,0,0,0,0,-1,1672,792,0,0
455,232,0,0,0,0,0,0,0,0,0,-1,1679,792,0,0
462,232,0,0,0,0,0,0,0,0,0,-1,1686,792,0,0
469,232,0,0,0,0,0,0,0,0,0,-1,1693,792,0,0
476,232,0,0,0,0,0,0,0,0,0,-1,1700,792,0,0
483,232,0,0,0,0,0,0,0,0,0,-1,1707,792,0,0
490,232,0,0,0,0,0,0,0,0,0,-1,1714,792,0,0
497,232,0,0,0,0,0,0,0,0,0,-1,1721,792,0,0
504,232,0,0,0,0,0,0,0,0,0,-1,1728,792,0,0
511,232,0,0,0,0,0,0,0,0,0,-1,1735,792,0,0
518,232,0,0,0,0,0,0,0,0,0,-1,1742,792,0,0
525,232,0,0,0,0,0,0,0,0,0,-1,1749,792,0,0
532,232,0,0,0,0,0,0,0,0,0,-1,1756,792,0,0
539,232,0,0,0,0,0,0,0,0,0,-1,1763,792,0,0
546,232,0,0,0,0,0,0,0,0,0,-1,1770,792,0,0
553,232,0,0,0,0,0,0,0,0,0,-1,1777,792,0,0
560,232,0,0,0,0,0,0,0,0,0,-1,1784,792,0,0
567,232,0,0,0,0,0,0,0,0,0,-1,1791,792,0,0
574,232,0,0,0,0,0,0,0,0,0,-1,1798,792,0,0
581,232,0,0,0,0,0,0,0,0,0,-1,1805,792,0,0
588,232,4.15112,0.831421,-0.0143252,0.00294517,0.000193561,0.00294734,-0.0143274,1.55959,0.0106706,0.0343122,1812,792,4.15112,-0.831411
595,232,4.15063,0.689026,-0.00797543,0.00206185,-0.00162606,0.0023187,-0.00823228,-1.41413,0.0064026,0.0339555,1819,792,4.15067,-0.689042
602,232,4.18835,0.707764,-0.00298464,0.00154661,-0.00282677,0.00290365,-0.00434168,-1.12322,0.00421047,0.0333485,1826,792,4.18841,-0.70777
609,232,4.00122,0.924866,0,0,0,0,0,0,0,-1,1833,792,4.0012,-0.924845
616,232,4.22314,0.705017,0,0,0,0,0,0,0,-1,1840,792,4.22314,-0.704988
623,232,5.66626,-1.29657,0,0,0,0,0,0,0,-1,1847,792,5.66631,1.29659
630,232,4.47913,-0.476135,0,0,0,0,0,0,0,-1,1854,792,4.47911,0.47611
637,232,5.18994,-0.666809,0,0,0,0,0,0,0,-1,1861,792,5.18997,0.666785
644,232,5.90088,-0.857483,0,0,0,0,0,0,0,-1,1868,792,5.90084,0.857461
651,232,3.34192,0.692993,0.00318654,-0.00016742,-0.00106045,0.0034937,-0.000474581,-0.281936,0.00250238,0.0382847,1875,792,3.34197,-0.692995
658,232,3.60828,0.453735,0.00316773,-0.000474763,-0.000790697,0.00333197,-0.000638999,-0.204798,0.00246211,0.0215278,1882,792,3.60827,-0.453742
665,232,3.63794,0.448853,0.00307124,-0.000392791,-0.00056956,0.00316249,-0.000484035,-0.158852,0.00228681,0.0113726,1889,792,3.63793,-0.448829
672,232,3.63318,0.482056,0.000758629,-0.000268686,-0.000182831,0.000790197,-0.000300254,-0.170978,0.00065041,0.0170396,1896,792,3.63313,-0.482052
679,232,3.64307,0.513611,-0.000483527,-0.000935383,0.000215706,-0.000397089,-0.00102182,0.381128,0.000594809,0.0187697,1903,792,3.6431,-0.513626
686,232,3.6449,0.530029,0.000184236,-0.00139506,-0.000223247,0.000215187,-0.00142601,-0.137763,0.00102992,0.0201439,1910,792,3.64491,-0.53004
693,232,3.64124,0.555237,0.000589135,-0.00207124,3.30662e-05,0.000589546,-0.00207165,0.0124266,0.00161392,0.0109972,1917,792,3.64128,-0.555247
700,232,3.65222,0.601196,0.000536868,-0.00259537,0.000442055,0.00059806,-0.00265656,0.137553,0.00200042,0.0115469,1924,792,3.65222,-0.601173
707,232,3.65027,0.631775,-0.000437668,-0.00365288,0.000879863,-0.000212637,-0.00387791,0.250389,0.00251739,0.0112817,1931,792,3.65023,-0.631795
714,232,3.6405,0.660522,-0.00252299,-0.00486989,0.00153306,-0.00176583,-0.00562706,0.458747,0.00332302,0.012613,1938,792,3.64049,-0.660547
721,232,3.63745,0.645325,-0.00461673,-0.00660978,0.0026105,-0.00281902,-0.00840749,0.603066,0.00494107,0.0158294,1945,792,3.63742,-0.645295
728,232,3.61499,0.586365,-0.00759925,-0.00892077,0.00403319,-0.00417305,-0.012347,0.704204,0.0072522,0.0297242,1952,792,3.61499,-0.586339
735,232,3.61011,0.524658,-0.0118336,-0.011752,0.00588616,-0.00590649,-0.0176791,0.788861,0.0103926,0.045335,1959,792,3.61012,-0.524684
742,232,3.92957,0.862,-0.0177076,-0.0150742,0.0082784,-0.00800844,-0.0247734,0.864266,0.0145977,0.0469513,1966,792,3.92959,-0.861992
749,232,3.70056,0.831665,-0.0256847,-0.0188632,0.0112749,-0.0104945,-0.0340535,0.932276,0.0201373,0.0444472,1973,792,3.70059,-0.831677
756,232,3.84253,0.823364,-0.0363301,-0.0230145,0.0149164,-0.0133375,-0.046007,0.995302,0.0273327,0.0443146,1980,792,3.84252,-0.823373
763,232,3.58032,0.633911,-0.0504841,-0.0273073,0.0191304,-0.0165291,-0.0612623,1.05772,0.0365979,0.0434137,1987,792,3.58031,-0.633884
770,232,0,0,0,0,0,0,0,0,0,-1,1994,792,0,0
777,232,0,0,0,0,0,0,0,0,0,-1,2001,792,0,0
784,232,0,0,0,0,0,0,0,0,0,-1,2008,792,0,0
791,232,0,0,0,0,0,0,0,0,0,-1,2015,792,0,0
798,232,0,0,0,0,0,0,0,0,0,-1,2022,792,0,0
805,232,0,0,0,0,0,0,0,0,0,-1,2029,792,0,0
812,232,0,0,0,0,0,0,0,0,0,-1,2036,792,0,0
-700,225,0,0,0,0,0,0,0,0,0,-1,524,799,0,0
-693,225,0,0,0,0,0,0,0,0,0,-1,531,799,0,0
-686,225,0,0,0,0,0,0,0,0,0,-1,538,799,0,0
-679,225,0,0,0,0,0,0,0,0,0,-1,545,799,0,0
-672,225,0,0,0,0,0,0,0,0,0,-1,552,799,0,0
-665,225,0,0,0,0,0,0,0,0,0,-1,559,799,0,0
-658,225,0,0,0,0,0,0,0,0,0,-1,566,799,0,0
-651,225,0,0,0,0,0,0,0,0,0,-1,573,799,0,0
-644,225,0.419678,0.619812,0,0,0,0,0,0,0,-1,580,799,0.419701,-0.619837
-637,225,-0.683899,-1.24231,-0.00430045,0.00688068,0.00348677,0.0078789,-0.00529867,1.29197,0.00765653,0.0488648,587,799,-0.683905,1.2423
-630,225,-0.86853,-2.40863,0.000225833,0.00323683,0.00269208,0.00481578,-0.00135312,1.04035,0.00374397,0.0452138,594,799,-0.868517,2.40863
-623,225,-1.73773,1.35699,0.00321715,0.000811359,0.00192178,0.00428145,-0.000252944,0.505765,0.00294224,0.0463957,601,799,-1.73771,-1.357
-616,225,-1.20319,1.17389,0.0050125,-0.000724947,0.00122859,0.00526452,-0.000976963,0.202319,0.00387659,0.0437043,608,799,-1.20316,-1.17387
-609,225,-0.805664,0.869019,0.00591908,-0.00163027,0.000606117,0.00596744,-0.00167863,0.0796076,0.00464017,0.0448672,615,799,-0.805656,-0.869
-602,225,-0.500793,0.507141,0,0,0,0,0,0,0,-1,622,799,-0.500807,-0.507164
-595,225,-0.20575,0.766663,0.00610269,-0.00199785,-0.000326229,0.0061158,-0.00201097,-0.0401858,0.00488743,0.026925,629,799,-0.205754,-0.766684
-588,225,-0.1922,0.740234,0.00550804,-0.00206504,-0.000637295,0.00556129,-0.00211829,-0.0833715,0.00457993,0.0105511,636,799,-0.192179,-0.740246
-581,225,-0.164001,0.714844,0.00493205,-0.00200367,-9.77956e-05,0.00493343,-0.00200505,-0.0140965,0.00412315,0.00912889,643,799,-0.16401,-0.714871
-574,225,-0.145935,0.68634,0.00399075,-0.00205826,0.000265615,0.00400239,-0.0020699,0.0437981,0.00356453,0.00773893,650,799,-0.145934,-0.686364
-567,225,-0.156372,0.65094,0.00259326,-0.00124437,0.000153226,0.00259937,-0.00125048,0.0398426,0.00226774,0.00944711,657,799,-0.156368,-0.650913
-560,225,-0.16333,0.611816,0.00137297,-0.00110852,0.000457252,0.00145455,-0.0011901,0.176543,0.00152943,0.00979938,664,799,-0.163341,-0.611835
-553,225,-0.185242,0.577393,0.000454308,-0.00135217,0.00147432,0.00128007,-0.00217794,0.510564,0.00201879,0.0102245,671,799,-0.185243,-0.577415
-546,225,-0.212769,0.564575,-0.000505327,-0.00174218,0.00224214,0.00120211,-0.00344962,0.650834,0.00278821,0.018945,678,799,-0.212763,-0.564555
-539,225,-0.197327,0.5578,-0.00164697,-0.00238406,0.00303597,0.00104274,-0.00507377,0.724997,0.00377837,0.0226131,685,799,-0.197346,-0.557784
-532,225,-0.177612,0.514526,-0.0027927,-0.00317369,0.00388564,0.000907117,-0.0068735,0.760905,0.0049127,0.0154099,692,799,-0.177615,-0.514549
-525,225,-0.173279,0.524292,-0.00401988,-0.00373514,0.00490253,0.00102708,-0.0087821,0.799914,0.0062254,0.0335257,699,799,-0.173272,-0.52429
-518,225,-0.0990601,0.522461,-0.00530254,-0.00428525,0.00606713,0.00129452,-0.0108823,0.827219,0.00772264,0.0395172,706,799,-0.0990726,-0.522444
-511,225,-0.18811,0.398315,-0.00681601,-0.0047765,0.00731476,0.00158924,-0.0131818,0.854657,0.00936265,0.0404347,713,799,-0.188111,-0.39831
-504,225,-0.264343,0.376343,-0.00842301,-0.00501993,0.00873195,0.00217472,-0.0156177,0.881624,0.0112072,0.0427319,720,799,-0.264315,-0.376357
-497,225,-0.528442,0.50885,-0.0100419,-0.00496051,0.0103097,0.00311696,-0.0181194,0.90621,0.0132414,0.0435323,727,799,-0.528425,-0.508859
-490,225,-1.04828,0.684021,-0.0114702,-0.00432244,0.0121245,0.00474396,-0.0205366,0.928721,0.015516,0.0404521,734,799,-1.04831,-0.684046
-483,225,-1.03137,0.770935,-0.0123391,-0.00285626,0.0142601,0.00743,-0.0226254,0.945897,0.0180766,0.0333127,741,799,-1.03135,-0.770954
-476,225,-0.977844,0.92627,-0.0123396,-0.000274838,0.0167081,0.0114566,-0.024071,0.958637,0.0209384,0.0312666,748,799,-0.977845,-0.926247
-469,225,-0.949768,1.03204,-0.0106859,0.00394771,0.0194899,0.017449,-0.0241871,0.964965,0.0241433,0.0361903,755,799,-0.949788,-1.03206
-462,225,0,0,0,0,0,0,0,0,0,-1,762,799,0,0
-455,225,0,0,0,0,0,0,0,0,0,-1,769,799,0,0
-448,225,0,0,0,0,0,0,0,0,0,-1,776,799,0,0
-441,225,0,0,0,0,0,0,0,0,0,-1,783,799,0,0
-434,225,0,0,0,0,0,0,0,0,0,-1,790,799,0,0
-427,225,0,0,0,0,0,0,0,0,0,-1,797,799,0,0
-420,225,0,0,0,0,0,0,0,0,0,-1,804,799,0,0
-413,225,0,0,0,0,0,0,0,0,0,-1,811,799,0,0
-406,225,0,0,0,0,0,0,0,0,0,-1,818,799,0,0
-399,225,0,0,0,0,0,0,0,0,0,-1,825,799,0,0
-392,225,0,0,0,0,0,0,0,0,0,-1,832,799,0,0
-385,225,0,0,0,0,0,0,0,0,0,-1,839,799,0,0
-378,225,0,0,0,0,0,0,0,0,0,-1,846,799,0,0
-371,225,0,0,0,0,0,0,0,0,0,-1,853,799,0,0
-364,225,0,0,0,0,0,0,0,0,0,-1,860,799,0,0
-357,225,0,0,0,0,0,0,0,0,0,-1,867,799,0,0
-350,225,0,0,0,0,0,0,0,0,0,-1,874,799,0,0
-343,225,0,0,0,0,0,0,0,0,0,-1,881,799,0,0
-336,225,0,0,0,0,0,0,0,0,0,-1,888,799,0,0
-329,225,0,0,0,0,0,0,0,0,0,-1,895,799,0,0
-322,225,0,0,0,0,0,0,0,0,0,-1,902,799,0,0
-315,225,0,0,0,0,0,0,0,0,0,-1,909,799,0,0
-308,225,0,0,0,0,0,0,0,0,0,-1,916,799,0,0
-301,225,0,0,0,0,0,0,0,0,0,-1,923,799,0,0
-294,225,0,0,0,0,0,0,0,0,0,-1,930,799,0,0
-287,225,0,0,0,0,0,0,0,0,0,-1,937,799,0,0
-280,225,0,0,0,0,0,0,0,0,0,-1,944,799,0,0
-273,225,0,0,0,0,0,0,0,0,0,-1,951,799,0,0
-266,225,0,0,0,0,0,0,0,0,0,-1,958,799,0,0
-259,225,0,0,0,0,0,0,0,0,0,-1,965,799,0,0
-252,225,0,0,0,0,0,0,0,0,0,-1,972,799,0,0
-245,225,0,0,0,0,0,0,0,0,0,-1,979,799,0,0
-238,225,0,0,0,0,0,0,0,0,0,-1,986,799,0,0
-231,225,0,0,0,0,0,0,0,0,0,-1,993,799,0,0
-224,225,0,0,0,0,0,0,0,0,0,-1,1000,799,0,0
-217,225,0,0,0,0,0,0,0,0,0,-1,1007,799,0,0
-210,225,0,0,0,0,0,0,0,0,0,-1,1014,799,0,0
-203,225,0,0,0,0,0,0,0,0,0,-1,1021,799,0,0
-196,225,0,0,0,0,0,0,0,0,0,-1,1028,799,0,0
-189,225,0,0,0,0,0,0,0,0,0,-1,1035,799,0,0
-182,225,0,0,0,0,0,0,0,0,0,-1,1042,799,0,0
-175,225,0,0,0,0,0,0,0,0,0,-1,1049,799,0,0
-168,225,0,0,0,0,0,0,0,0,0,-1,1056,799,0,0
-161,225,0,0,0,0,0,0,0,0,0,-1,1063,799,0,0
-154,225,0,0,0,0,0,0,0,0,0,-1,1070,799,0,0
-147,225,0,0,0,0,0,0,0,0,0,-1,1077,799,0,0
-140,225,0,0,0,0,0,0,0,0,0,-1,1084,799,0,0
-133,225,0,0,0,0,0,0,0,0,0,-1,1091,799,0,0
-126,225,0,0,0,0,0,0,0,0,0,-1,1098,799,0,0
-119,225,0,0,0,0,0,0,0,0,0,-1,1105,799,0,0
-112,225,0,0,0,0,0,0,0,0,0,-1,1112,799,0,0
-105,225,0,0,0,0,0,0,0,0,0,-1,1119,799,0,0
-98,225,0,0,0,0,0,0,0,0,0,-1,1126,799,0,0
-91,225,0,0,0,0,0,0,0,0,0,-1,1133,799,0,0
-84,225,0,0,0,0,0,0,0,0,0,-1,1140,799,0,0
-77,225,0,0,0,0,0,0,0,0,0,-1,1147,799,0,0
-70,225,0,0,0,0,0,0,0,0,0,-1,1154,799,0,0
-63,225,0,0,0,0,0,0,0,0,0,-1,1161,799,0,0
-56,225,0,0,0,0,0,0,0,0,0,-1,1168,799,0,0
-49,225,0,0,0,0,0,0,0,0,0,-1,1175,799,0,0
-42,225,0,0,0,0,0,0,0,0,0,-1,1182,799,0,0
-35,225,0,0,0,0,0,0,0,0,0,-1,1189,799,0,0
-28,225,0,0,0,0,0,0,0,0,0,-1,1196,799,0,0
-21,225,0,0,0,0,0,0,0,0,0,-1,1203,799,0,0
-14,225,0,0,0,0,0,0,0,0,0,-1,1210,799,0,0
-7,225,0,0,0,0,0,0,0,0,0,-1,1217,799,0,0
0,225,0,0,0,0,0,0,0,0,0,-1,1224,799,0,0
7,225,0,0,0,0,0,0,0,0,0,-1,1231,799,0,0
14,225,0,0,0,0,0,0,0,0,0,-1,1238,799,0,0
21,225,0,0,0,0,0,0,0,0,0,-1,1245,799,0,0
28,225,0,0,0,0,0,0,0,0,0,-1,1252,799,0,0
35,225,0,0,0,0,0,0,0,0,0,-1,1259,799,0,0
42,225,0,0,0,0,0,0,0,0,0,-1,1266,799,0,0
49,225,0,0,0,0,0,0,0,0,0,-1,1273,799,0,0
56,225,0,0,0,0,0,0,0,0,0,-1,1280,799,0,0
63,225,0,0,0,0,0,0,0,0,0,-1,1287,799,0,0
70,225,0,0,0,0,0,0,0,0,0,-1,1294,799,0,0
77,225,0,0,0,0,0,0,0,0,0,-1,1301,799,0,0
84,225,0,0,0,0,0,0,0,0,0,-1,1308,799,0,0
91,225,0,0,0,0,0,0,0,0,0,-1,1315,799,0,0
98,225,0,0,0,0,0,0,0,0,0,-1,1322,799,0,0
105,225,0,0,0,0,0,0,0,0,0,-1,1329,799,0,0
112,225,0,0,0,0,0,0,0,0,0,-1,1336,799,0,0
119,225,0,0,0,0,0,0,0,0,0,-1,1343,799,0,0
126,225,0,0,0,0,0,0,0,0,0,-1,1350,799,0,0
133,225,0,0,0,0,0,0,0,0,0,-1,1357,799,0,0
140,225,0,0,0,0,0,0,0,0,0,-1,1364,799,0,0
147,225,0,0,0,0,0,0,0,0,0,-1,1371,799,0,0
154,225,0,0,0,0,0,0,0,0,0,-1,1378,799,0,0
161,225,0,0,0,0,0,0,0,0,0,-1,1385,799,0,0
168,225,0,0,0,0,0,0,0,0,0,-1,1392,799,0,0
175,225,0,0,0,0,0,0,0,0,0,-1,1399,799,0,0
182,225,0,0,0,0,0,0,0,0,0,-1,1406,799,0,0
189,225,0,0,0,0,0,0,0,0,0,-1,1413,799,0,0
196,225,0,0,0,0,0,0,0,0,0,-1,1420,799,0,0
203,225,0,0,0,0,0,0,0,0,0,-1,1427,799,0,0
210,225,0,0,0,0,0,0,0,0,0,-1,1434,799,0,0
217,225,0,0,0,0,0,0,0,0,0,-1,1441,799,0,0
224,225,0,0,0,0,0,0,0,0,0,-1,1448,799,0,0
231,225,0,0,0,0,0,0,0,0,0,-1,1455,799,0,0
238,225,0,0,0,0,0,0,0,0,0,-1,1462,799,0,0
245,225,0,0,0,0,0,0,0,0,0,-1,1469,799,0,0
252,225,0,0,0,0,0,0,0,0,0,-1,1476,799,0,0
259,225,0,0,0,0,0,0,0,0,0,-1,1483,799,0,0
266,225,0,0,0,0,0,0,0,0,0,-1,1490,799,0,0
273,225,0,0,0,0,0,0,0,0,0,-1,1497,799,0,0
280,225,0,0,0,0,0,0,0,0,0,-1,1504,799,0,0
287,225,0,0,0,0,0,0,0,0,0,-1,1511,799,0,0
294,225,0,0,0,0,0,0,0,0,0,-1,1518,799,0,0
301,225,0,0,0,0,0,0,0,0,0,-1,1525,799,0,0
308,225,0,0,0,0,0,0,0,0,0,-1,1532,799,0,0
315,225,0,0,0,0,0,0,0,0,0,-1,1539,799,0,0
322,225,0,0,0,0,0,0,0,0,0,-1,1546,799,0,0
329,225,0,0,0,0,0,0,0,0,0,-1,1553,799,0,0
336,225,0,0,0,0,0,0,0,0,0,-1,1560,799,0,0
343,225,0,0,0,0,0,0,0,0,0,-1,1567,799,0,0
350,225,0,0,0,0,0,0,0,0,0,-1,1574,799,0,0
357,225,0,0,0,0,0,0,0,0,0,-1,1581,799,0,0
364,225,0,0,0,0,0,0,0,0,0,-1,1588,799,0,0
371,225,0,0,0,0,0,0,0,0,0,-1,1595,799,0,0
378,225,0,0,0,0,0,0,0,0,0,-1,1602,799,0,0
385,225,0,0,0,0,0,0,0,0,0,-1,1609,799,0,0
392,225,0,0,0,0,0,0,0,0,0,-1,1616,799,0,0
399,225,0,0,0,0,0,0,0,0,0,-1,1623,799,0,0
406,225,0,0,0,0,0,0,0,0,0,-1,1630,799,0,0
413,225,0,0,0,0,0,0,0,0,0,-1,1637,799,0,0
420,225,0,0,0,0,0,0,0,0,0,-1,1644,799,0,0
427,225,0,0,0,0,0,0,0,0,0,-1,1651,799,0,0
434,225,0,0,0,0,0,0,0,0,0,-1,1658,799,0,0
441,225,0,0,0,0,0,0,0,0,0,-1,1665,799,0,0
448,225,0,0,0,0,0,0,0,0,0,-1,1672,799,0,0
455,225,0,0,0,0,0,0,0,0,0,-1,1679,799,0,0
462,225,0,0,0,0,0,0,0,0,0,-1,1686,799,0,0
469,225,0,0,0,0,0,0,0,0,0,-1,1693,799,0,0
476,225,0,0,0,0,0,0,0,0,0,-1,1700,799,0,0
483,225,0,0,0,0,0,0,0,0,0,-1,1707,799,0,0
490,225,0,0,0,0,0,0,0,0,0,-1,1714,799,0,0
497,225,0,0,0,0,0,0,0,0,0,-1,1721,799,0,0
504,225,0,0,0,0,0,0,0,0,0,-1,1728,799,0,0
511,225,0,0,0,0,0,0,0,0,0,-1,1735,799,0,0
518,225,0,0,0,0,0,0,0,0,0,-1,1742,799,0,0
525,225,0,0,0,0,0,0,0,0,0,-1,1749,799,0,0
532,225,0,0,0,0,0,0,0,0,0,-1,1756,799,0,0
539,225,0,0,0,0,0,0,0,0,0,-1,1763,799,0,0
546,225,0,0,0,0,0,0,0,0,0,-1,1770,799,0,0
553,225,0,0,0,0,0,0,0,0,0,-1,1777,799,0,0
560,225,0,0,0,0,0,0,0,0,0,-1,1784,799,0,0
567,225,0,0,0,0,0,0,0,0,0,-1,1791,799,0,0
574,225,0,0,0,0,0,0,0,0,0,-1,1798,799,0,0
581,225,0,0,0,0,0,0,0,0,0,-1,1805,799,0,0
588,225,4.26514,0.775146,-0.0163525,0.00324066,0.00150682,0.00335586,-0.0164677,1.49449,0.0122513,0.0330048,1812,799,4.26518,-0.775122
595,225,4.15295,0.713867,-0.00992351,0.00210881,-0.000338897,0.00211834,-0.00993305,-1.54266,0.00742951,0.0333561,1819,799,4.15294,-0.713878
602,225,4.20471,0.693298,-0.00458823,0.00139808,-0.00174499,0.0018696,-0.00505975,-1.30689,0.00413958,0.0327664,1826,799,4.20475,-0.693275
609,225,4.24353,0.73761,-0.00113354,0.00102306,-0.00226993,0.00245779,-0.00256827,-1.00714,0.00290203,0.0310801,1833,799,4.24357,-0.737628
616,225,4.17712,0.746094,0.00114155,0.000581986,-0.00232209,0.00320065,-0.00147712,-0.725444,0.00276114,0.0375745,1840,799,4.17708,-0.746093
623,225,4.27808,0.654297,0.00238113,0.000278764,-0.00223195,0.00379704,-0.00113715,-0.565321,0.00298354,0.0386662,1847,799,4.27807,-0.654313
630,225,4.27466,0.513123,0.00293757,-4.81505e-05,-0.00196944,0.00391601,-0.00102659,-0.461093,0.00301177,0.0393513,1854,799,4.27471,-0.513096
637,225,5.65991,-0.791321,0,0,0,0,0,0,0,-1,1861,799,5.65988,0.791337
644,225,3.35071,0.338318,0,0,0,0,0,0,0,-1,1868,799,3.35068,-0.338329
651,225,3.36011,0.218872,0.00222062,-0.000837985,-0.000921455,0.00247677,-0.00109414,-0.27114,0.00211255,0.0387217,1875,799,3.36007,-0.218871
658,225,3.60242,0.363037,0.00226601,-0.0011171,-0.00080029,0.00244577,-0.00129686,-0.220953,0.00219448,0.0325024,1882,799,3.6024,-0.363015
665,225,3.64905,0.421143,0.00230686,-0.00105176,-0.000704132,0.0024485,-0.0011934,-0.198516,0.00214387,0.0124965,1889,799,3.64908,-0.421118
672,225,3.65955,0.474792,0.000458231,-0.000884308,-0.00041538,0.000576356,-0.00100243,-0.277064,0.000922512,0.0164331,1896,799,3.6595,-0.47482
679,225,3.65564,0.505798,-0.000500017,-0.00127113,-7.13054e-05,-0.000493479,-0.00127767,-0.0914378,0.000743999,0.0172166,1903,799,3.6556,-0.505775
686,225,3.66968,0.525208,0.000159943,-0.00142646,-0.000277352,0.000207035,-0.00147355,-0.168186,0.00105815,0.0110357,1910,799,3.66971,-0.525205
693,225,3.65723,0.559204,0.000621701,-0.00173951,0.00019254,0.000637298,-0.00175511,0.0808313,0.00143063,0.00923181,1917,799,3.65722,-0.559192
700,225,3.66565,0.605957,0.000563754,-0.00181448,0.000856178,0.000839915,-0.00209064,0.312015,0.00174257,0.0103394,1924,799,3.66559,-0.605984
707,225,3.66638,0.640259,-0.000485246,-0.00230902,0.00152631,0.000380829,-0.00317509,0.516128,0.00225442,0.0110246,1931,799,3.66637,-0.640245
714,225,3.66003,0.643555,-0.00272978,-0.00286159,0.00241901,-0.000375778,-0.00521559,0.771779,0.00335882,0.012113,1938,799,3.66009,-0.643584
721,225,3.67297,0.657654,-0.0050653,-0.00362557,0.00383138,-0.000447008,-0.00824385,0.878259,0.00535312,0.0134237,1945,799,3.673,-0.657666
728,225,3.69397,0.668274,-0.00840229,-0.00482805,0.00544938,-0.000880223,-0.0123501,0.943847,0.00795625,0.0230737,1952,799,3.69393,-0.668271
735,225,3.68152,0.711914,-0.0131046,-0.00637217,0.00742674,-0.00158437,-0.0178924,0.998177,0.0114368,0.0415134,1959,799,3.68153,-0.71193
742,225,3.55603,0.978333,-0.0195866,-0.00817977,0.00976814,-0.00257189,-0.0251945,1.04964,0.016008,0.04631,1966,799,3.55605,-0.978304
749,225,3.30823,1.15259,-0.0283318,-0.0102266,0.01243,-0.00390208,-0.0346562,1.10013,0.0219196,0.0456291,1973,799,3.30819,-1.15261
756,225,3.24182,1.15686,-0.0398819,-0.012406,0.015285,-0.00559248,-0.0466953,1.15147,0.0294436,0.0463763,1980,799,3.24181,-1.15685
763,225,2.8656,0.906799,-0.0549317,-0.0144908,0.0180462,-0.00760903,-0.0618135,1.20648,0.0389214,0.0451339,1987,799,2.86562,-0.906802
770,225,0,0,0,0,0,0,0,0,0,-1,1994,799,0,0
777,225,0,0,0,0,0,0,0,0,0,-1,2001,799,0,0
784,225,0,0,0,0,0,0,0,0,0,-1,2008,799,0,0
791,225,0,0,0,0,0,0,0,0,0,-1,2015,799,0,0
798,225,0,0,0,0,0,0,0,0,0,-1,2022,799,0,0
805,225,0,0,0,0,0,0,0,0,0,-1,2029,799,0,0
812,225,0,0,0,0,0,0,0,0,0,-1,2036,799,0,0
-700,218,0,0,0,0,0,0,0,0,0,-1,524,806,0,0
-693,218,0,0,0,0,0,0,0,0,0,-1,531,806,0,0
-686,218,0,0,0,0,0,0,0,0,0,-1,538,806,0,0
-679,218,0,0,0,0,0,0,0,0,0,-1,545,806,0,0
-672,218,0,0,0,0,0,0,0,0,0,-1,552,806,0,0
-665,218,0,0,0,0,0,0,0,0,0,-1,559,806,0,0
-658,218,0,0,0,0,0,0,0,0,0,-1,566,806,0,0
-651,218,0.416687,-0.0353394,0,0,0,0,0,0,0,-1,573,806,0.416699,0.0353244
-644,218,0.330383,0.426453,-0.0159333,0.00658887,0.013278,0.0127381,-0.0220825,1.13709,0.0203435,0.0476522,580,806,0.330355,-0.426463
-637,218,0.634033,1.07623,-0.00893588,0.00323566,0.0103602,0.00916527,-0.0148655,1.05096,0.0140037,0.0446085,587,806,0.634032,-1.07625
-630,218,0.364807,1.47107,-0.00389026,0.000979005,0.00803013,0.00693547,-0.00984672,0.932587,0.00973768,0.0450239,594,806,0.364812,-1.47109
-623,218,-0.00500488,1.02539,0,0,0,0,0,0,0,-1,601,806,-0.00501593,-1.02539
-616,218,-0.805115,1.23718,0,0,0,0,0,0,0,-1,608,806,-0.80512,-1.23719
-609,218,-0.549744,1.00739,0.00337599,-0.00195528,0.00307811,0.00478225,-0.00336154,0.428543,0.00472561,0.0428107,615,806,-0.549753,-1.00736
-602,218,-0.205566,0.775818,0.00403297,-0.00188332,0.0020239,0.00465907,-0.00250942,0.300015,0.0042003,0.0381543,622,806,-0.205578,-0.775848
-595,218,-0.211426,0.770935,0.00434389,-0.00183717,0.00118914,0.00456477,-0.00205805,0.183655,0.00391392,0.0163505,629,806,-0.211411,-0.770922
-588,218,-0.210388,0.747559,0.00407764,-0.00187102,0.000586359,0.00413488,-0.00192827,0.0973221,0.003577,0.0106137,636,806,-0.210392,-0.747573
-581,218,-0.202271,0.72052,0.00374628,-0.00178851,0.000816987,0.00386435,-0.00190659,0.143532,0.00339516,0.010261,643,806,-0.202274,-0.720517
-574,218,-0.196289,0.682251,0.00302472,-0.00180954,0.0009459,0.00320321,-0.00198803,0.186506,0.00302441,0.00915937,650,806,-0.196311,-0.682242
-567,218,-0.171448,0.63147,0.00186421,-0.00114495,0.000752813,0.00204203,-0.00132277,0.231963,0.00195741,0.0150936,657,806,-0.171435,-0.631479
-560,218,-0.190735,0.619934,0.000839417,-0.00114374,0.00104376,0.00128751,-0.00159184,0.405515,0.00166549,0.0159654,664,806,-0.190708,-0.619953
-553,218,-0.195496,0.569458,2.96977e-05,-0.00148642,0.00202422,0.00143315,-0.00288987,0.606235,0.00254269,0.0165738,671,806,-0.19548,-0.569445
-546,218,-0.215027,0.539734,-0.000898919,-0.00184411,0.00280106,0.00146914,-0.00421217,0.701825,0.00340516,0.014103,678,806,-0.215016,-0.539755
-539,218,-0.224915,0.528564,-0.00198032,-0.00249511,0.00359376,0.00136526,-0.00584068,0.749648,0.00441973,0.0147684,685,806,-0.224902,-0.528593
-532,218,-0.238525,0.523926,-0.00298681,-0.0031733,0.00436511,0.00128605,-0.00744616,0.774719,0.00544366,0.016231,692,806,-0.238515,-0.523956
-525,218,-0.204468,0.624634,-0.00411772,-0.00368595,0.00529284,0.0013954,-0.00919907,0.805781,0.00664685,0.0425801,699,806,-0.204457,-0.624663
-518,218,-0.0662231,0.560364,-0.00532355,-0.00418285,0.00630107,0.00157363,-0.01108,0.830533,0.00796323,0.0437983,706,806,-0.0662065,-0.560342
-511,218,-0.0767822,0.527161,-0.0067286,-0.00466486,0.00729104,0.00166696,-0.0130604,0.855694,0.00931247,0.042721,713,806,-0.0767993,-0.52718
-504,218,-0.138123,1.224,-0.00818653,-0.00498281,0.00830374,0.00187217,-0.0150415,0.880682,0.0107064,0.0479167,720,806,-0.138145,-1.22401
-497,218,-0.520813,0.915588,-0.00956193,-0.00502388,0.00931981,0.00229914,-0.0168849,0.904806,0.0120961,0.0483857,727,806,-0.520826,-0.915601
-490,218,-0.913696,0.786072,-0.0106144,-0.0046392,0.0102989,0.00309665,-0.0183502,0.926568,0.0133856,0.0364749,734,806,-0.913696,-0.786055
-483,218,-0.994812,0.918152,-0.0108933,-0.00369279,0.0112606,0.00452907,-0.0191152,0.940124,0.014491,0.0323334,741,806,-0.994796,-0.918173
-476,218,-1.01935,0.997925,-0.0100387,-0.00198658,0.0120193,0.00666306,-0.0186883,0.947007,0.0151756,0.0362697,748,806,-1.01933,-0.997896
-469,218,0,0,0,0,0,0,0,0,0,-1,755,806,0,0
-462,218,0,0,0,0,0,0,0,0,0,-1,762,806,0,0
-455,218,0,0,0,0,0,0,0,0,0,-1,769,806,0,0
-448,218,0,0,0,0,0,0,0,0,0,-1,776,806,0,0
-441,218,0,0,0,0,0,0,0,0,0,-1,783,806,0,0
-434,218,0,0,0,0,0,0,0,0,0,-1,790,806,0,0
-427,218,0,0,0,0,0,0,0,0,0,-1,797,806,0,0
-420,218,0,0,0,0,0,0,0,0,0,-1,804,806,0,0
-413,218,0,0,0,0,0,0,0,0,0,-1,811,806,0,0
-406,218,0,0,0,0,0,0,0,0,0,-1,818,806,0,0
-399,218,0,0,0,0,0,0,0,0,0,-1,825,806,0,0
-392,218,0,0,0,0,0,0,0,0,0,-1,832,806,0,0
-385,218,0,0,0,0,0,0,0,0,0,-1,839,806,0,0
-378,218,0,0,0,0,0,0,0,0,0,-1,846,806,0,0
-371,218,0,0,0,0,0,0,0,0,0,-1,853,806,0,0
-364,218,0,0,0,0,0,0,0,0,0,-1,860,806,0,0
-357,218,0,0,0,0,0,0,0,0,0,-1,867,806,0,0
-350,218,0,0,0,0,0,0,0,0,0,-1,874,806,0,0
-343,218,0,0,0,0,0,0,0,0,0,-1,881,806,0,0
-336,218,0,0,0,0,0,0,0,0,0,-1,888,806,0,0
-329,218,0,0,0,0,0,0,0,0,0,-1,895,806,0,0
-322,218,0,0,0,0,0,0,0,0,0,-1,902,806,0,0
-315,218,0,0,0,0,0,0,0,0,0,-1,909,806,0,0
-308,218,0,0,0,0,0,0,0,0,0,-1,916,806,0,0
-301,218,0,0,0,0,0,0,0,0,0,-1,923,806,0,0
-294,218,0,0,0,0,0,0,0,0,0,-1,930,806,0,0
-287,218,0,0,0,0,0,0,0,0,0,-1,937,806,0,0
-280,218,0,0,0,0,0,0,0,0,0,-1,944,806,0,0
-273,218,0,0,0,0,0,0,0,0,0,-1,951,806,0,0
-266,218,0,0,0,0,0,0,0,0,0,-1,958,806,0,0
-259,218,0,0,0,0,0,0,0,0,0,-1,965,806,0,0
-252,218,0,0,0,0,0,0,0,0,0,-1,972,806,0,0
-245,218,0,0,0,0,0,0,0,0,0,-1,979,806,0,0
-238,218,0,0,0,0,0,0,0,0,0,-1,986,806,0,0
-231,218,0,0,0,0,0,0,0,0,0,-1,993,806,0,0
-224,218,0,0,0,0,0,0,0,0,0,-1,1000,806,0,0
-217,218,0,0,0,0,0,0,0,0,0,-1,1007,806,0,0
-210,218,0,0,0,0,0,0,0,0,0,-1,1014,806,0,0
-203,218,0,0,0,0,0,0,0,0,0,-1,1021,806,0,0
-196,218,0,0,0,0,0,0,0,0,0,-1,1028,806,0,0
-189,218,0,0,0,0,0,0,0,0,0,-1,1035,806,0,0
-182,218,0,0,0,0,0,0,0,0,0,-1,1042,806,0,0
-175,218,0,0,0,0,0,0,0,0,0,-1,1049,806,0,0
-168,218,0,0,0,0,0,0,0,0,0,-1,1056,806,0,0
-161,218,0,0,0,0,0,0,0,0,0,-1,1063,806,0,0
-154,218,0,0,0,0,0,0,0,0,0,-1,1070,806,0,0
-147,218,0,0,0,0,0,0,0,0,0,-1,1077,806,0,0
-140,218,0,0,0,0,0,0,0,0,0,-1,1084,806,0,0
-133,218,0,0,0,0,0,0,0,0,0,-1,1091,806,0,0
-126,218,0,0,0,0,0,0,0,0,0,-1,1098,806,0,0
-119,218,0,0,0,0,0,0,0,0,0,-1,1105,806,0,0
-112,218,0,0,0,0,0,0,0,0,0,-1,1112,806,0,0
-105,218,0,0,0,0,0,0,0,0,0,-1,1119,806,0,0
-98,218,0,0,0,0,0,0,0,0,0,-1,1126,806,0,0
-91,218,0,0,0,0,0,0,0,0,0,-1,1133,806,0,0
-84,218,0,0,0,0,0,0,0,0,0,-1,1140,806,0,0
-77,218,0,0,0,0,0,0,0,0,0,-1,1147,806,0,0
-70,218,0,0,0,0,0,0,0,0,0,-1,1154,806,0,0
-63,218,0,0,0,0,0,0,0,0,0,-1,1161,806,0,0
-56,218,0,0,0,0,0,0,0,0,0,-1,1168,806,0,0
-49,218,0,0,0,0,0,0,0,0,0,-1,1175,806,0,0
-42,218,0,0,0,0,0,0,0,0,0,-1,1182,806,0,0
-35,218,0,0,0,0,0,0,0,0,0,-1,1189,806,0,0
-28,218,0,0,0,0,0,0,0,0,0,-1,1196,806,0,0
-21,218,0,0,0,0,0,0,0,0,0,-1,1203,806,0,0
-14,218,0,0,0,0,0,0,0,0,0,-1,1210,806,0,0
-7,218,0,0,0,0,0,0,0,0,0,-1,1217,806,0,0
0,218,0,0,0,0,0,0,0,0,0,-1,1224,806,0,0
7,218,0,0,0,0,0,0,0,0,0,-1,1231,806,0,0
14,218,0,0,0,0,0,0,0,0,0,-1,1238,806,0,0
21,218,0,0,0,0,0,0,0,0,0,-1,1245,806,0,0
28,218,0,0,0,0,0,0,0,0,0,-1,1252,806,0,0
35,218,0,0,0,0,0,0,0,0,0,-1,1259,806,0,0
42,218,0,0,0,0,0,0,0,0,0,-1,1266,806,0,0
49,218,0,0,0,0,0,0,0,0,0,-1,1273,806,0,0
56,218,0,0,0,0,0,0,0,0,0,-1,1280,806,0,0
63,218,0,0,0,0,0,0,0,0,0,-1,1287,806,0,0
70,218,0,0,0,0,0,0,0,0,0,-1,1294,806,0,0
77,218,0,0,0,0,0,0,0,0,0,-1,1301,806,0,0
84,218,0,0,0,0,0,0,0,0,0,-1,1308,806,0,0
91,218,0,0,0,0,0,0,0,0,0,-1,1315,806,0,0
98,218,0,0,0,0,0,0,0,0,0,-1,1322,806,0,0
105,218,0,0,0,0,0,0,0,0,0,-1,1329,806,0,0
112,218,0,0,0,0,0,0,0,0,0,-1,1336,806,0,0
119,218,0,0,0,0,0,0,0,0,0,-1,1343,806,0,0
126,218,0,0,0,0,0,0,0,0,0,-1,1350,806,0,0
133,218,0,0,0,0,0,0,0,0,0,-1,1357,806,0,0
140,218,0,0,0,0,0,0,0,0,0,-1,1364,806,0,0
147,218,0,0,0,0,0,0,0,0,0,-1,1371,806,0,0
154,218,0,0,0,0,0,0,0,0,0,-1,1378,806,0,0
161,218,0,0,0,0,0,0,0,0,0,-1,1385,806,0,0
168,218,0,0,0,0,0,0,0,0,0,-1,1392,806,0,0
175,218,0,0,0,0,0,0,0,0,0,-1,1399,806,0,0
182,218,0,0,0,0,0,0,0,0,0,-1,1406,806,0,0
189,218,0,0,0,0,0,0,0,0,0,-1,1413,806,0,0
196,218,0,0,0,0,0,0,0,0,0,-1,1420,806,0,0
203,218,0,0,0,0,0,0,0,0,0,-1,1427,806,0,0
210,218,0,0,0,0,0,0,0,0,0,-1,1434,806,0,0
217,218,0,0,0,0,0,0,0,0,0,-1,1441,806,0,0
224,218,0,0,0,0,0,0,0,0,0,-1,1448,806,0,0
231,218,0,0,0,0,0,0,0,0,0,-1,1455,806,0,0
238,218,0,0,0,0,0,0,0,0,0,-1,1462,806,0,0
245,218,0,0,0,0,0,0,0,0,0,-1,1469,806,0,0
252,218,0,0,0,0,0,0,0,0,0,-1,1476,806,0,0
259,218,0,0,0,0,0,0,0,0,0,-1,1483,806,0,0
266,218,0,0,0,0,0,0,0,0,0,-1,1490,806,0,0
273,218,0,0,0,0,0,0,0,0,0,-1,1497,806,0,0
280,218,0,0,0,0,0,0,0,0,0,-1,1504,806,0,0
287,218,0,0,0,0,0,0,0,0,0,-1,1511,806,0,0
294,218,0,0,0,0,0,0,0,0,0,-1,1518,806,0,0
301,218,0,0,0,0,0,0,0,0,0,-1,1525,806,0,0
308,218,0,0,0,0,0,0,0,0,0,-1,1532,806,0,0
315,218,0,0,0,0,0,0,0,0,0,-1,1539,806,0,0
322,218,0,0,0,0,0,0,0,0,0,-1,1546,806,0,0
329,218,0,0,0,0,0,0,0,0,0,-1,1553,806,0,0
336,218,0,0,0,0,0,0,0,0,0,-1,1560,806,0,0
343,218,0,0,0,0,0,0,0,0,0,-1,1567,806,0,0
350,218,0,0,0,0,0,0,0,0,0,-1,1574,806,0,0
357,218,0,0,0,0,0,0,0,0,0,-1,1581,806,0,0
364,218,0,0,0,0,0,0,0,0,0,-1,1588,806,0,0
371,218,0,0,0,0,0,0,0,0,0,-1,1595,806,0,0
378,218,0,0,0,0,0,0,0,0,0,-1,1602,806,0,0
385,218,0,0,0,0,0,0,0,0,0,-1,1609,806,0,0
392,218,0,0,0,0,0,0,0,0,0,-1,1616,806,0,0
399,218,0,0,0,0,0,0,0,0,0,-1,1623,806,0,0
406,218,0,0,0,0,0,0,0,0,0,-1,1630,806,0,0
413,218,0,0,0,0,0,0,0,0,0,-1,1637,806,0,0
420,218,0,0,0,0,0,0,0,0,0,-1,1644,806,0,0
427,218,0,0,0,0,0,0,0,0,0,-1,1651,806,0,0
434,218,0,0,0,0,0,0,0,0,0,-1,1658,806,0,0
441,218,0,0,0,0,0,0,0,0,0,-1,1665,806,0,0
448,218,0,0,0,0,0,0,0,0,0,-1,1672,806,0,0
455,218,0,0,0,0,0,0,0,0,0,-1,1679,806,0,0
462,218,0,0,0,0,0,0,0,0,0,-1,1686,806,0,0
469,218,0,0,0,0,0,0,0,0,0,-1,1693,806,0,0
476,218,0,0,0,0,0,0,0,0,0,-1,1700,806,0,0
483,218,0,0,0,0,0,0,0,0,0,-1,1707,806,0,0
490,218,0,0,0,0,0,0,0,0,0,-1,1714,806,0,0
497,218,0,0,0,0,0,0,0,0,0,-1,1721,806,0,0
504,218,0,0,0,0,0,0,0,0,0,-1,1728,806,0,0
511,218,0,0,0,0,0,0,0,0,0,-1,1735,806,0,0
518,218,0,0,0,0,0,0,0,0,0,-1,1742,806,0,0
525,218,0,0,0,0,0,0,0,0,0,-1,1749,806,0,0
532,218,0,0,0,0,0,0,0,0,0,-1,1756,806,0,0
539,218,0,0,0,0,0,0,0,0,0,-1,1763,806,0,0
546,218,0,0,0,0,0,0,0,0,0,-1,1770,806,0,0
553,218,0,0,0,0,0,0,0,0,0,-1,1777,806,0,0
560,218,0,0,0,0,0,0,0,0,0,-1,1784,806,0,0
567,218,0,0,0,0,0,0,0,0,0,-1,1791,806,0,0
574,218,0,0,0,0,0,0,0,0,0,-1,1798,806,0,0
581,218,0,0,0,0,0,0,0,0,0,-1,1805,806,0,0
588,218,0,0,0,0,0,0,0,0,0,-1,1812,806,0,0
595,218,4.13,0.757507,-0.011517,0.00198605,0.00100031,0.00205975,-0.0115907,1.49725,0.00849734,0.0377564,1819,806,4.13006,-0.757483
602,218,4.19238,0.722473,-0.0057353,0.000966415,-0.000621001,0.00102347,-0.00579235,-1.47917,0.00424406,0.0342041,1826,806,4.19234,-0.722447
609,218,4.2439,0.753601,-0.00216345,0.000435086,-0.00130262,0.000975633,-0.002704,-1.17745,0.00220117,0.0292967,1833,806,4.24391,-0.753615
616,218,4.18286,0.770752,7.46978e-05,-0.000117359,-0.00146479,0.0014466,-0.00148926,-0.752666,0.00169508,0.0300042,1840,806,4.18281,-0.770771
623,218,4.16455,0.700684,0.00129607,-0.00051074,-0.00153723,0.0021757,-0.00139037,-0.519742,0.00207545,0.0341158,1847,806,4.16449,-0.700664
630,218,4.21631,0.628113,0.00185356,-0.000874632,-0.00145837,0.00248636,-0.00150743,-0.409393,0.00232879,0.0367182,1854,806,4.21632,-0.62809
637,218,4.34949,0.564148,0,0,0,0,0,0,0,-1,1861,806,4.34947,-0.564155
644,218,3.30225,-0.78949,0,0,0,0,0,0,0,-1,1868,806,3.30228,0.78951
651,218,3.13464,-0.35553,0.00132535,-0.00163009,-0.000911996,0.00158412,-0.00188886,-0.276472,0.0020077,0.0404618,1875,806,3.13469,0.355527
658,218,3.24451,0.163696,0.00136075,-0.00185341,-0.000928502,0.00160969,-0.00210235,-0.261952,0.00214943,0.0384846,1882,806,3.24456,-0.163675
665,218,3.6687,0.398621,0.0014434,-0.00177419,-0.000948927,0.00170241,-0.0020332,-0.266457,0.00215957,0.0238763,1889,806,3.66875,-0.398641
672,218,3.68298,0.464111,1.57459e-05,-0.0015609,-0.000758456,0.000321365,-0.00186652,-0.383046,0.00136414,0.0104821,1896,806,3.68295,-0.464081
679,218,3.70667,0.49115,-0.000722355,-0.00169158,-0.000497453,-0.000512484,-0.00190146,-0.399235,0.00113602,0.0103309,1903,806,3.70666,-0.491179
686,218,3.70935,0.526672,-0.000191572,-0.00163442,-0.000518256,-2.47158e-05,-0.00180128,-0.311477,0.0011927,0.0103201,1910,806,3.7094,-0.526645
693,218,3.69116,0.561462,0.000206697,-0.00165872,0.000106708,0.000212781,-0.0016648,0.0569556,0.00118717,0.0101306,1917,806,3.69115,-0.561445
700,218,3.68396,0.599609,1.04331e-05,-0.00140206,0.000923613,0.000466875,-0.0018585,0.45899,0.00142044,0.00911246,1924,806,3.68399,-0.599609
707,218,3.68018,0.635559,-0.0012616,-0.00148443,0.00170364,0.000334269,-0.0030803,0.752745,0.00217354,0.00790769,1931,806,3.68021,-0.635537
714,218,3.69031,0.642883,-0.00385618,-0.00156716,0.00266795,0.000191411,-0.00561475,0.988019,0.00380857,0.00946972,1938,806,3.69035,-0.64291
721,218,3.71619,0.657898,-0.00672938,-0.00159312,0.0041866,0.000750255,-0.00907276,1.06051,0.00631347,0.0118536,1945,806,3.71618,-0.657886
728,218,3.74365,0.68689,-0.0106705,-0.00199475,0.00579519,0.000906245,-0.0135715,1.10668,0.0093644,0.0182481,1952,806,3.7436,-0.686871
735,218,3.62085,0.852417,-0.0160354,-0.00252407,0.00764154,0.000919875,-0.0194794,1.14737,0.0133035,0.0340531,1959,806,3.62081,-0.852423
742,218,3.43689,1.33624,-0.0232537,-0.00313188,0.00967716,0.000766775,-0.0271523,1.18782,0.0183625,0.0464274,1966,806,3.43695,-1.33624
749,218,3.40723,1.73114,-0.0326603,-0.00373079,0.0118197,0.00048423,-0.0368753,1.22824,0.0247465,0.048067,1973,806,3.40721,-1.73111
756,218,2.72766,1.5412,0,0,0,0,0,0,0,-1,1980,806,2.7277,-1.54118
763,218,2.09192,0.816223,0,0,0,0,0,0,0,-1,1987,806,2.0919,-0.816197
770,218,0,0,0,0,0,0,0,0,0,-1,1994,806,0,0
777,218,0,0,0,0,0,0,0,0,0,-1,2001,806,0,0
784,218,0,0,0,0,0,0,0,0,0,-1,2008,806,0,0
791,218,0,0,0,0,0,0,0,0,0,-1,2015,806,0,0
798,218,0,0,0,0,0,0,0,0,0,-1,2022,806,0,0
805,218,0,0,0,0,0,0,0,0,0,-1,2029,806,0,0
812,218,0,0,0,0,0,0,0,0,0,-1,2036,806,0,0
-700,211,0,0,0,0,0,0,0,0,0,-1,524,813,0,0
-693,211,0,0,0,0,0,0,0,0,0,-1,531,813,0,0
-686,211,0,0,0,0,0,0,0,0,0,-1,538,813,0,0
-679,211,0,0,0,0,0,0,0,0,0,-1,545,813,0,0
-672,211,0,0,0,0,0,0,0,0,0,-1,552,813,0,0
-665,211,0,0,0,0,0,0,0,0,0,-1,559,813,0,0
-658,211,0,0,0,0,0,0,0,0,0,-1,566,813,0,0
-651,211,0.30658,-0.253113,-0.0230314,0.0016446,0.0267055,0.0187245,-0.0401112,1.00179,0.0347088,0.0473019,573,813,0.306571,0.253127
-644,211,0.247925,0.196472,-0.0162583,6.88684e-05,0.020469,0.0139422,-0.0301317,0.975145,0.026012,0.0451862,580,813,0.247921,-0.196478
-637,211,0.259583,0.69519,-0.0107335,-0.00105578,0.0157772,0.0106079,-0.0223973,0.934194,0.0194566,0.0416467,587,813,0.25961,-0.695209
-630,211,0.130554,1.02319,-0.00632665,-0.00178657,0.0121288,0.00828282,-0.016396,0.877908,0.0145027,0.0411468,594,813,0.130538,-1.0232
-623,211,-0.0404663,1.01398,0,0,0,0,0,0,0,-1,601,813,-0.0404846,-1.01397
-616,211,-0.105957,0.969177,-0.000551025,-0.00238427,0.00685018,0.00544359,-0.00837888,0.718888,0.00804016,0.0436664,608,813,-0.10595,-0.969175
-609,211,-0.143127,0.897339,0.000987803,-0.00237281,0.00460923,0.00421346,-0.00559846,0.610608,0.00568369,0.0360619,615,813,-0.143153,-0.897349
-602,211,-0.195984,0.82312,0.00209977,-0.00196491,0.00311523,0.00378698,-0.00365212,0.496373,0.00429521,0.0182314,622,813,-0.195954,-0.82314
-595,211,-0.23645,0.770447,0.00291446,-0.00174466,0.00200705,0.00365981,-0.00249001,0.355583,0.00357195,0.00986874,629,813,-0.236465,-0.770467
-588,211,-0.238525,0.751709,0.0029848,-0.00171098,0.00122504,0.00328518,-0.00201136,0.240452,0.00308729,0.010619,636,813,-0.238534,-0.751726
-581,211,-0.234375,0.731689,0.00290663,-0.00158902,0.0012343,0.00322322,-0.0019056,0.251079,0.00299352,0.0110408,643,813,-0.234351,-0.731681
-574,211,-0.240234,0.693542,0.0023707,-0.00156212,0.00120559,0.00271085,-0.00190227,0.274994,0.00267699,0.0118146,650,813,-0.240261,-0.693562
-567,211,-0.235107,0.65033,0.00141195,-0.00105114,0.00108284,0.0018203,-0.00145949,0.360616,0.0018974,0.0189213,657,813,-0.235079,-0.65032
-560,211,-0.242188,0.637695,0.00052203,-0.00113862,0.00144109,0.00135489,-0.00197148,0.524038,0.00193145,0.0223863,664,813,-0.242169,-0.637673
-553,211,-0.239929,0.586975,-0.00023022,-0.00152332,0.002413,0.00162134,-0.00337489,0.6545,0.0029432,0.0177036,671,813,-0.239946,-0.586948
-546,211,-0.253662,0.547668,-0.00109786,-0.0018283,0.00321545,0.00177305,-0.00469921,0.728849,0.00386196,0.0168406,678,813,-0.253655,-0.547691
-539,211,-0.251282,0.542114,-0.0020697,-0.00242859,0.00397727,0.00173217,-0.00623046,0.762855,0.00483558,0.0104399,685,813,-0.251293,-0.542106
-532,211,-0.269592,0.572937,-0.00289799,-0.0029729,0.0046545,0.0017192,-0.00759009,0.781375,0.00571991,0.0285772,692,813,-0.269605,-0.572955
-525,211,-0.297791,0.649658,-0.00384319,-0.00337875,0.00546755,0.00186151,-0.00908345,0.806621,0.00676209,0.0443268,699,813,-0.297761,-0.649649
-518,211,-0.356873,0.732788,-0.00481861,-0.00374837,0.00627993,0.00201919,-0.0105862,0.827901,0.00781792,0.0449492,706,813,-0.356844,-0.732773
-511,211,-0.520813,0.89386,-0.00592275,-0.00405087,0.00702562,0.00210088,-0.0120745,0.851617,0.00883363,0.0451699,713,813,-0.5208,-0.893849
-504,211,-0.567932,1.03101,-0.006983,-0.00415494,0.00770095,0.00226073,-0.0133987,0.876196,0.00977357,0.0489806,720,813,-0.567961,-1.03103
-497,211,-0.676819,1.06702,-0.00782582,-0.00394622,0.00825362,0.00259249,-0.0143645,0.900816,0.0105473,0.0485391,727,813,-0.676836,-1.067
-490,211,-0.867371,0.924561,-0.0081585,-0.0032779,0.00861714,0.00323782,-0.0146742,0.923381,0.0110218,0.0347031,734,813,-0.867399,-0.924532
-483,211,-0.950378,0.934753,-0.00745355,-0.00205077,0.00883986,0.00449125,-0.0139956,0.933688,0.0111336,0.0336939,741,813,-0.95035,-0.934751
-476,211,-1.02936,0.955322,-0.00536172,-8.32652e-05,0.00863665,0.00630841,-0.0117534,0.933684,0.0105848,0.0394807,748,813,-1.02935,-0.955348
-469,211,0,0,0,0,0,0,0,0,0,-1,755,813,0,0
-462,211,0,0,0,0,0,0,0,0,0,-1,762,813,0,0
-455,211,0,0,0,0,0,0,0,0,0,-1,769,813,0,0
-448,211,0,0,0,0,0,0,0,0,0,-1,776,813,0,0
-441,211,0,0,0,0,0,0,0,0,0,-1,783,813,0,0
-434,211,0,0,0,0,0,0,0,0,0,-1,790,813,0,0
-427,211,0,0,0,0,0,0,0,0,0,-1,797,813,0,0
-420,211,0,0,0,0,0,0,0,0,0,-1,804,813,0,0
-413,211,0,0,0,0,0,0,0,0,0,-1,811,813,0,0
-406,211,0,0,0,0,0,0,0,0,0,-1,818,813,0,0
-399,211,0,0,0,0,0,0,0,0,0,-1,825,813,0,0
-392,211,0,0,0,0,0,0,0,0,0,-1,832,813,0,0
-385,211,0,0,0,0,0,0,0,0,0,-1,839,813,0,0
-378,211,0,0,0,0,0,0,0,0,0,-1,846,813,0,0
-371,211,0,0,0,0,0,0,0,0,0,-1,853,813,0,0
-364,211,0,0,0,0,0,0,0,0,0,-1,860,813,0,0
-357,211,0,0,0,0,0,0,0,0,0,-1,867,813,0,0
-350,211,0,0,0,0,0,0,0,0,0,-1,874,813,0,0
-343,211,0,0,0,0,0,0,0,0,0,-1,881,813,0,0
-336,211,0,0,0,0,0,0,0,0,0,-1,888,813,0,0
-329,211,0,0,0,0,0,0,0,0,0,-1,895,813,0,0
-322,211,0,0,0,0,0,0,0,0,0,-1,902,813,0,0
-315,211,0,0,0,0,0,0,0,0,0,-1,909,813,0,0
-308,211,0,0,0,0,0,0,0,0,0,-1,916,813,0,0
-301,211,0,0,0,0,0,0,0,0,0,-1,923,813,0,0
-294,211,0,0,0,0,0,0,0,0,0,-1,930,813,0,0
-287,211,0,0,0,0,0,0,0,0,0,-1,937,813,0,0
-280,211,0,0,0,0,0,0,0,0,0,-1,944,813,0,0
-273,211,0,0,0,0,0,0,0,0,0,-1,951,813,0,0
-266,211,0,0,0,0,0,0,0,0,0,-1,958,813,0,0
-259,211,0,0,0,0,0,0,0,0,0,-1,965,813,0,0
-252,211,0,0,0,0,0,0,0,0,0,-1,972,813,0,0
-245,211,0,0,0,0,0,0,0,0,0,-1,979,813,0,0
-238,211,0,0,0,0,0,0,0,0,0,-1,986,813,0,0
-231,211,0,0,0,0,0,0,0,0,0,-1,993,813,0,0
-224,211,0,0,0,0,0,0,0,0,0,-1,1000,813,0,0
-217,211,0,0,0,0,0,0,0,0,0,-1,1007,813,0,0
-210,211,0,0,0,0,0,0,0,0,0,-1,1014,813,0,0
-203,211,0,0,0,0,0,0,0,0,0,-1,1021,813,0,0
-196,211,0,0,0,0,0,0,0,0,0,-1,1028,813,0,0
-189,211,0,0,0,0,0,0,0,0,0,-1,1035,813,0,0
-182,211,0,0,0,0,0,0,0,0,0,-1,1042,813,0,0
-175,211,0,0,0,0,0,0,0,0,0,-1,1049,813,0,0
-168,211,0,0,0,0,0,0,0,0,0,-1,1056,813,0,0
-161,211,0,0,0,0,0,0,0,0,0,-1,1063,813,0,0
-154,211,0,0,0,0,0,0,0,0,0,-1,1070,813,0,0
-147,211,0,0,0,0,0,0,0,0,0,-1,1077,813,0,0
-140,211,0,0,0,0,0,0,0,0,0,-1,1084,813,0,0
-133,211,0,0,0,0,0,0,0,0,0,-1,1091,813,0,0
-126,211,0,0,0,0,0,0,0,0,0,-1,1098,813,0,0
-119,211,0,0,0,0,0,0,0,0,0,-1,1105,813,0,0
-112,211,0,0,0,0,0,0,0,0,0,-1,1112,813,0,0
-105,211,0,0,0,0,0,0,0,0,0,-1,1119,813,0,0
-98,211,0,0,0,0,0,0,0,0,0,-1,1126,813,0,0
-91,211,0,0,0,0,0,0,0,0,0,-1,1133,813,0,0
-84,211,0,0,0,0,0,0,0,0,0,-1,1140,813,0,0
-77,211,0,0,0,0,0,0,0,0,0,-1,1147,813,0,0
-70,211,0,0,0,0,0,0,0,0,0,-1,1154,813,0,0
-63,211,0,0,0,0,0,0,0,0,0,-1,1161,813,0,0
-56,211,0,0,0,0,0,0,0,0,0,-1,1168,813,0,0
-49,211,0,0,0,0,0,0,0,0,0,-1,1175,813,0,0
-42,211,0,0,0,0,0,0,0,0,0,-1,1182,813,0,0
-35,211,0,0,0,0,0,0,0,0,0,-1,1189,813,0,0
-28,211,0,0,0,0,0,0,0,0,0,-1,1196,813,0,0
-21,211,0,0,0,0,0,0,0,0,0,-1,1203,813,0,0
-14,211,0,0,0,0,0,0,0,0,0,-1,1210,813,0,0
-7,211,0,0,0,0,0,0,0,0,0,-1,1217,813,0,0
0,211,0,0,0,0,0,0,0,0,0,-1,1224,813,0,0
7,211,0,0,0,0,0,0,0,0,0,-1,1231,813,0,0
14,211,0,0,0,0,0,0,0,0,0,-1,1238,813,0,0
21,211,0,0,0,0,0,0,0,0,0,-1,1245,813,0,0
28,211,0,0,0,0,0,0,0,0,0,-1,1252,813,0,0
35,211,0,0,0,0,0,0,0,0,0,-1,1259,813,0,0
42,211,0,0,0,0,0,0,0,0,0,-1,1266,813,0,0
49,211,0,0,0,0,0,0,0,0,0,-1,1273,813,0,0
56,211,0,0,0,0,0,0,0,0,0,-1,1280,813,0,0
63,211,0,0,0,0,0,0,0,0,0,-1,1287,813,0,0
70,211,0,0,0,0,0,0,0,0,0,-1,1294,813,0,0
77,211,0,0,0,0,0,0,0,0,0,-1,1301,813,0,0
84,211,0,0,0,0,0,0,0,0,0,-1,1308,813,0,0
91,211,0,0,0,0,0,0,0,0,0,-1,1315,813,0,0
98,211,0,0,0,0,0,0,0,0,0,-1,1322,813,0,0
105,211,0,0,0,0,0,0,0,0,0,-1,1329,813,0,0
112,211,0,0,0,0,0,0,0,0,0,-1,1336,813,0,0
119,211,0,0,0,0,0,0,0,0,0,-1,1343,813,0,0
126,211,0,0,0,0,0,0,0,0,0,-1,1350,813,0,0
133,211,0,0,0,0,0,0,0,0,0,-1,1357,813,0,0
140,211,0,0,0,0,0,0,0,0,0,-1,1364,813,0,0
147,211,0,0,0,0,0,0,0,0,0,-1,1371,813,0,0
154,211,0,0,0,0,0,0,0,0,0,-1,1378,813,0,0
161,211,0,0,0,0,0,0,0,0,0,-1,1385,813,0,0
168,211,0,0,0,0,0,0,0,0,0,-1,1392,813,0,0
175,211,0,0,0,0,0,0,0,0,0,-1,1399,813,0,0
182,211,0,0,0,0,0,0,0,0,0,-1,1406,813,0,0
189,211,0,0,0,0,0,0,0,0,0,-1,1413,813,0,0
196,211,0,0,0,0,0,0,0,0,0,-1,1420,813,0,0
203,211,0,0,0,0,0,0,0,0,0,-1,1427,813,0,0
210,211,0,0,0,0,0,0,0,0,0,-1,1434,813,0,0
217,211,0,0,0,0,0,0,0,0,0,-1,1441,813,0,0
224,211,0,0,0,0,0,0,0,0,0,-1,1448,813,0,0
231,211,0,0,0,0,0,0,0,0,0,-1,1455,813,0,0
238,211,0,0,0,0,0,0,0,0,0,-1,1462,813,0,0
245,211,0,0,0,0,0,0,0,0,0,-1,1469,813,0,0
252,211,0,0,0,0,0,0,0,0,0,-1,1476,813,0,0
259,211,0,0,0,0,0,0,0,0,0,-1,1483,813,0,0
266,211,0,0,0,0,0,0,0,0,0,-1,1490,813,0,0
273,211,0,0,0,0,0,0,0,0,0,-1,1497,813,0,0
280,211,0,0,0,0,0,0,0,0,0,-1,1504,813,0,0
287,211,0,0,0,0,0,0,0,0,0,-1,1511,813,0,0
294,211,0,0,0,0,0,0,0,0,0,-1,1518,813,0,0
301,211,0,0,0,0,0,0,0,0,0,-1,1525,813,0,0
308,211,0,0,0,0,0,0,0,0,0,-1,1532,813,0,0
315,211,0,0,0,0,0,0,0,0,0,-1,1539,813,0,0
322,211,0,0,0,0,0,0,0,0,0,-1,1546,813,0,0
329,211,0,0,0,0,0,0,0,0,0,-1,1553,813,0,0
336,211,0,0,0,0,0,0,0,0,0,-1,1560,813,0,0
343,211,0,0,0,0,0,0,0,0,0,-1,1567,813,0,0
350,211,0,0,0,0,0,0,0,0,0,-1,1574,813,0,0
357,211,0,0,0,0,0,0,0,0,0,-1,1581,813,0,0
364,211,0,0,0,0,0,0,0,0,0,-1,1588,813,0,0
371,211,0,0,0,0,0,0,0,0,0,-1,1595,813,0,0
378,211,0,0,0,0,0,0,0,0,0,-1,1602,813,0,0
385,211,0,0,0,0,0,0,0,0,0,-1,1609,813,0,0
392,211,0,0,0,0,0,0,0,0,0,-1,1616,813,0,0
399,211,0,0,0,0,0,0,0,0,0,-1,1623,813,0,0
406,211,0,0,0,0,0,0,0,0,0,-1,1630,813,0,0
413,211,0,0,0,0,0,0,0,0,0,-1,1637,813,0,0
420,211,0,0,0,0,0,0,0,0,0,-1,1644,813,0,0
427,211,0,0,0,0,0,0,0,0,0,-1,1651,813,0,0
434,211,0,0,0,0,0,0,0,0,0,-1,1658,813,0,0
441,211,0,0,0,0,0,0,0,0,0,-1,1665,813,0,0
448,211,0,0,0,0,0,0,0,0,0,-1,1672,813,0,0
455,211,0,0,0,0,0,0,0,0,0,-1,1679,813,0,0
462,211,0,0,0,0,0,0,0,0,0,-1,1686,813,0,0
469,211,0,0,0,0,0,0,0,0,0,-1,1693,813,0,0
476,211,0,0,0,0,0,0,0,0,0,-1,1700,813,0,0
483,211,0,0,0,0,0,0,0,0,0,-1,1707,813,0,0
490,211,0,0,0,0,0,0,0,0,0,-1,1714,813,0,0
497,211,0,0,0,0,0,0,0,0,0,-1,1721,813,0,0
504,211,0,0,0,0,0,0,0,0,0,-1,1728,813,0,0
511,211,0,0,0,0,0,0,0,0,0,-1,1735,813,0,0
518,211,0,0,0,0,0,0,0,0,0,-1,1742,813,0,0
525,211,0,0,0,0,0,0,0,0,0,-1,1749,813,0,0
532,211,0,0,0,0,0,0,0,0,0,-1,1756,813,0,0
539,211,0,0,0,0,0,0,0,0,0,-1,1763,813,0,0
546,211,0,0,0,0,0,0,0,0,0,-1,1770,813,0,0
553,211,0,0,0,0,0,0,0,0,0,-1,1777,813,0,0
560,211,0,0,0,0,0,0,0,0,0,-1,1784,813,0,0
567,211,0,0,0,0,0,0,0,0,0,-1,1791,813,0,0
574,211,0,0,0,0,0,0,0,0,0,-1,1798,813,0,0
581,211,0,0,0,0,0,0,0,0,0,-1,1805,813,0,0
588,211,0,0,0,0,0,0,0,0,0,-1,1812,813,0,0
595,211,4.17542,0.644653,-0.0106945,0.00170358,0.00174155,0.00194356,-0.0109344,1.43386,0.00801641,0.0393851,1819,813,4.17539,-0.644661
602,211,4.24329,0.766785,-0.00530158,0.000456128,8.56315e-05,0.000457401,-0.00530285,1.55593,0.00369714,0.0376782,1826,813,4.24327,-0.766754
609,211,4.26416,0.844788,-0.00220681,-0.000164841,-0.000628381,1.3037e-05,-0.00238469,-1.29494,0.00159415,0.0363576,1833,813,4.26419,-0.844769
616,211,4.19568,0.769531,-0.00046063,-0.000704708,-0.000847768,0.000273838,-0.00143918,-0.713913,0.00106256,0.0298353,1840,813,4.19565,-0.769501
623,211,4.13989,0.787354,0.000486177,-0.00117052,-0.00103654,0.000984699,-0.00166905,-0.448288,0.00154903,0.0319918,1847,813,4.13987,-0.78733
630,211,4.17554,0.727112,0.000863723,-0.00156716,-0.00111835,0.00129995,-0.00200338,-0.371909,0.00192154,0.037116,1854,813,4.17555,-0.727138
637,211,4.45325,0.00598145,0,0,0,0,0,0,0,-1,1861,813,4.45324,-0.00595311
644,211,3.93604,0.0906372,0,0,0,0,0,0,0,-1,1868,813,3.93602,-0.0906175
651,211,3.14954,0.0823975,0.000383977,-0.00228929,-0.00107764,0.000764291,-0.0026696,-0.339266,0.0020818,0.0439081,1875,813,3.14951,-0.0823836
658,211,2.76624,0.267578,0.000422444,-0.00247187,-0.00121698,0.000866135,-0.00291556,-0.349608,0.00228774,0.0435519,1882,813,2.76621,-0.267563
665,211,3.01501,0.697327,0,0,0,0,0,0,0,-1,1889,813,3.01507,-0.69735
672,211,3.68616,0.464722,-0.000428608,-0.00217148,-0.00123199,0.000208998,-0.00280908,-0.477581,0.00194613,0.0134809,1896,813,3.68613,-0.464708
679,211,3.71375,0.50592,-0.000943032,-0.00211929,-0.00105572,-0.000322674,-0.00273965,-0.531263,0.00172894,0.0107483,1903,813,3.71377,-0.505935
686,211,3.72778,0.552856,-0.000526035,-0.00198055,-0.000990282,-2.46509e-05,-0.00248193,-0.468679,0.00164647,0.0101532,1910,813,3.72773,-0.552883
693,211,3.71448,0.578186,-0.000103803,-0.00184713,-0.000361161,-3.1944e-05,-0.00191899,-0.196402,0.00126881,0.0107607,1917,813,3.71442,-0.578214
700,211,3.67346,0.608765,-0.000305964,-0.00141465,0.000449469,-0.000146641,-0.00157397,0.340651,0.00100401,0.013115,1924,813,3.6735,-0.608794
707,211,3.68115,0.653503,-0.00157951,-0.00124167,0.00115951,-0.000238843,-0.00258233,0.85773,0.00164772,0.0197063,1931,813,3.68115,-0.653482
714,211,3.68396,0.691772,-0.00421871,-0.00103929,0.0019615,-0.000104193,-0.00515381,1.12594,0.00340167,0.0196829,1938,813,3.68398,-0.691782
721,211,3.71313,0.660889,-0.00723471,-0.00056378,0.00324337,0.000753153,-0.00855164,1.1851,0.00596801,0.0150609,1945,813,3.71312,-0.660873
728,211,3.76221,0.680908,-0.0112751,-0.000463856,0.00444975,0.00113203,-0.0128709,1.22644,0.00898178,0.0145031,1952,813,3.76227,-0.680892
735,211,3.73181,0.728882,-0.0166718,-0.000345524,0.00569157,0.00144276,-0.0184601,1.26636,0.0128147,0.0245758,1959,813,3.73179,-0.728873
742,211,3.73877,1.10675,-0.0238995,-0.000124474,0.00692137,0.00174368,-0.0257676,1.30717,0.0177882,0.0465266,1966,813,3.73878,-1.10676
749,211,3.8396,1.3324,-0.0331382,0.000303939,0.00806119,0.00214565,-0.0349799,1.34618,0.0240671,0.0478051,1973,813,3.83958,-1.33242
756,211,2.05359,1.01392,-0.0445675,0.0010227,0.00893387,0.00271087,-0.0462557,1.38404,0.0317793,0.0443304,1980,813,2.05363,-1.01393
763,211,1.51001,0.788696,-0.0581889,0.00214795,0.00930417,0.0035501,-0.059591,1.42122,0.040962,0.0446563,1987,813,1.51006,-0.788697
770,211,0.970093,0.525635,0,0,0,0,0,0,0,-1,1994,813,0.970104,-0.525631
777,211,0,0,0,0,0,0,0,0,0,-1,2001,813,0,0
784,211,0,0,0,0,0,0,0,0,0,-1,2008,813,0,0
791,211,0,0,0,0,0,0,0,0,0,-1,2015,813,0,0
798,211,0,0,0,0,0,0,0,0,0,-1,2022,813,0,0
805,211,0,0,0,0,0,0,0,0,0,-1,2029,813,0,0
812,211,0,0,0,0,0,0,0,0,0,-1,2036,813,0,0
-700,204,0,0,0,0,0,0,0,0,0,-1,524,820,0,0
-693,204,0,0,0,0,0,0,0,0,0,-1,531,820,0,0
-686,204,0,0,0,0,0,0,0,0,0,-1,538,820,0,0
-679,204,0,0,0,0,0,0,0,0,0,-1,545,820,0,0
-672,204,0,0,0,0,0,0,0,0,0,-1,552,820,0,0
-665,204,0,0,0,0,0,0,0,0,0,-1,559,820,0,0
-658,204,0,0,0,0,0,0,0,0,0,-1,566,820,0,0
-651,204,0.29071,-0.293396,-0.0252377,-0.0052648,0.0325543,0.0188003,-0.0493028,0.934223,0.0406127,0.041708,573,820,0.290706,0.293414
-644,204,0.148376,-0.00469971,-0.0190617,-0.00462234,0.0248814,0.0140657,-0.0377497,0.926602,0.0309398,0.0442771,580,820,0.148357,0.00467731
-637,204,0.0393677,0.470398,-0.0137674,-0.00410939,0.0190642,0.0107279,-0.0286046,0.90944,0.0234775,0.0448992,587,820,0.0393727,-0.470373
-630,204,-0.118408,0.639771,-0.00935646,-0.00366676,0.0145304,0.00829463,-0.0213179,0.882069,0.0176393,0.0384715,594,820,-0.118393,-0.639786
-623,204,-0.0759277,1.00256,0,0,0,0,0,0,0,-1,601,820,-0.0759532,-1.00255
-616,204,-0.239807,1.0462,-0.00313388,-0.00286488,0.00802964,0.00503138,-0.0110301,0.793773,0.00948627,0.0410113,608,820,-0.239785,-1.0462
-609,204,-0.254456,0.92041,-0.0013202,-0.00238418,0.00527992,0.00345446,-0.00715884,0.735189,0.00625077,0.0315896,615,820,-0.25444,-0.920427
-602,204,-0.266541,0.809021,0.000189473,-0.00175985,0.00345641,0.00280601,-0.00437639,0.647973,0.00417967,0.0129608,622,820,-0.26651,-0.809013
-595,204,-0.269348,0.753418,0.00137229,-0.00145751,0.00221661,0.00258709,-0.00267231,0.501339,0.00303665,0.0133674,629,820,-0.269371,-0.753426
-588,204,-0.262756,0.737854,0.001735,-0.0014073,0.00141572,0.00227874,-0.00195105,0.366703,0.00244451,0.0123256,636,820,-0.262741,-0.737866
-581,204,-0.248047,0.725708,0.00188847,-0.00130816,0.00131805,0.00236183,-0.00178152,0.344796,0.00239998,0.0119117,643,820,-0.248044,-0.725733
-574,204,-0.26593,0.683533,0.00152303,-0.00132614,0.00126579,0.00200414,-0.00180725,0.363221,0.00220148,0.012817,650,820,-0.265913,-0.683522
-567,204,-0.265808,0.659058,0.000777726,-0.000987938,0.0012875,0.001456,-0.00166621,0.484868,0.00180397,0.0137427,657,820,-0.265778,-0.659057
-560,204,-0.267639,0.632324,4.76819e-05,-0.00112476,0.0017249,0.00128326,-0.00236034,0.621592,0.00213405,0.0138414,664,820,-0.267669,-0.632313
-553,204,-0.254822,0.585571,-0.000611751,-0.00148887,0.00266889,0.00165437,-0.00375499,0.703964,0.00320063,0.00967201,671,820,-0.254838,-0.585561
-546,204,-0.268677,0.57196,-0.00137804,-0.00169592,0.00346702,0.00193368,-0.00500764,0.762492,0.00413649,0.0105878,678,820,-0.268682,-0.571965
-539,204,-0.280151,0.569641,-0.0021992,-0.00219711,0.00417612,0.00197796,-0.00637427,0.785524,0.00503992,0.0155607,685,820,-0.280172,-0.569624
-532,204,-0.318542,0.648682,-0.00284971,-0.00256714,0.00474922,0.0020429,-0.00745974,0.800269,0.00577584,0.0377975,692,820,-0.318552,-0.648705
-525,204,-0.404968,0.603821,-0.00362116,-0.00280781,0.00541937,0.00222012,-0.00864909,0.822848,0.00663117,0.0461368,699,820,-0.404977,-0.603803
-518,204,-0.496765,0.698975,-0.0044021,-0.0029686,0.00603892,0.00239596,-0.00976665,0.844466,0.00743949,0.0458421,706,820,-0.496794,-0.699004
-511,204,-0.902344,0.620972,-0.00523079,-0.00301469,0.00652917,0.00249979,-0.0107453,0.869451,0.00812597,0.0489138,713,820,-0.902347,-0.620965
-504,204,-0.825256,0.909058,-0.00592343,-0.00282978,0.00687053,0.0026659,-0.0114191,0.896122,0.00863958,0.0472596,720,820,-0.825268,-0.909061
-497,204,-0.892578,0.903198,-0.00627305,-0.00230068,0.00698436,0.00297442,-0.0115482,0.923929,0.00885829,0.0395618,727,820,-0.892596,-0.903177
-490,204,-0.944641,0.915649,-0.00593624,-0.00128698,0.00679104,0.00356628,-0.0107895,0.950301,0.00863096,0.0352479,734,820,-0.944617,-0.915651
-483,204,-0.797852,0.903564,-0.00427526,0.000253046,0.00641338,0.00479021,-0.00881242,0.955086,0.0079671,0.0411154,741,820,-0.797844,-0.903593
-476,204,0,0,0,0,0,0,0,0,0,-1,748,820,0,0
-469,204,0,0,0,0,0,0,0,0,0,-1,755,820,0,0
-462,204,0,0,0,0,0,0,0,0,0,-1,762,820,0,0
-455,204,0,0,0,0,0,0,0,0,0,-1,769,820,0,0
-448,204,0,0,0,0,0,0,0,0,0,-1,776,820,0,0
-441,204,0,0,0,0,0,0,0,0,0,-1,783,820,0,0
-434,204,0,0,0,0,0,0,0,0,0,-1,790,820,0,0
-427,204,0,0,0,0,0,0,0,0,0,-1,797,820,0,0
-420,204,0,0,0,0,0,0,0,0,0,-1,804,820,0,0
-413,204,0,0,0,0,0,0,0,0,0,-1,811,820,0,0
-406,204,0,0,0,0,0,0,0,0,0,-1,818,820,0,0
-399,204,0,0,0,0,0,0,0,0,0,-1,825,820,0,0
-392,204,0,0,0,0,0,0,0,0,0,-1,832,820,0,0
-385,204,0,0,0,0,0,0,0,0,0,-1,839,820,0,0
-378,204,0,0,0,0,0,0,0,0,0,-1,846,820,0,0
-371,204,0,0,0,0,0,0,0,0,0,-1,853,820,0,0
-364,204,0,0,0,0,0,0,0,0,0,-1,860,820,0,0
-357,204,0,0,0,0,0,0,0,0,0,-1,867,820,0,0
-350,204,0,0,0,0,0,0,0,0,0,-1,874,820,0,0
-343,204,0,0,0,0,0,0,0,0,0,-1,881,820,0,0
-336,204,0,0,0,0,0,0,0,0,0,-1,888,820,0,0
-329,204,0,0,0,0,0,0,0,0,0,-1,895,820,0,0
-322,204,0,0,0,0,0,0,0,0,0,-1,902,820,0,0
-315,204,0,0,0,0,0,0,0,0,0,-1,909,820,0,0
-308,204,0,0,0,0,0,0,0,0,0,-1,916,820,0,0
-301,204,0,0,0,0,0,0,0,0,0,-1,923,820,0,0
-294,204,0,0,0,0,0,0,0,0,0,-1,930,820,0,0
-287,204,0,0,0,0,0,0,0,0,0,-1,937,820,0,0
-280,204,0,0,0,0,0,0,0,0,0,-1,944,820,0,0
-273,204,0,0,0,0,0,0,0,0,0,-1,951,820,0,0
-266,204,0,0,0,0,0,0,0,0,0,-1,958,820,0,0
-259,204,0,0,0,0,0,0,0,0,0,-1,965,820,0,0
-252,204,0,0,0,0,0,0,0,0,0,-1,972,820,0,0
-245,204,0,0,0,0,0,0,0,0,0,-1,979,820,0,0
-238,204,0,0,0,0,0,0,0,0,0,-1,986,820,0,0
-231,204,0,0,0,0,0,0,0,0,0,-1,993,820,0,0
-224,204,0,0,0,0,0,0,0,0,0,-1,1000,820,0,0
-217,204,0,0,0,0,0,0,0,0,0,-1,1007,820,0,0
-210,204,0,0,0,0,0,0,0,0,0,-1,1014,820,0,0
-203,204,0,0,0,0,0,0,0,0,0,-1,1021,820,0,0
-196,204,0,0,0,0,0,0,0,0,0,-1,1028,820,0,0
-189,204,0,0,0,0,0,0,0,0,0,-1,1035,820,0,0
-182,204,0,0,0,0,0,0,0,0,0,-1,1042,820,0,0
-175,204,0,0,0,0,0,0,0,0,0,-1,1049,820,0,0
-168,204,0,0,0,0,0,0,0,0,0,-1,1056,820,0,0
-161,204,0,0,0,0,0,0,0,0,0,-1,1063,820,0,0
-154,204,0,0,0,0,0,0,0,0,0,-1,1070,820,0,0
-147,204,0,0,0,0,0,0,0,0,0,-1,1077,820,0,0
-140,204,0,0,0,0,0,0,0,0,0,-1,1084,820,0,0
-133,204,0,0,0,0,0,0,0,0,0,-1,1091,820,0,0
-126,204,0,0,0,0,0,0,0,0,0,-1,1098,820,0,0
-119,204,0,0,0,0,0,0,0,0,0,-1,1105,820,0,0
-112,204,0,0,0,0,0,0,0,0,0,-1,1112,820,0,0
-105,204,0,0,0,0,0,0,0,0,0,-1,1119,820,0,0
-98,204,0,0,0,0,0,0,0,0,0,-1,1126,820,0,0
-91,204,0,0,0,0,0,0,0,0,0,-1,1133,820,0,0
-84,204,0,0,0,0,0,0,0,0,0,-1,1140,820,0,0
-77,204,0,0,0,0,0,0,0,0,0,-1,1147,820,0,0
-70,204,0,0,0,0,0,0,0,0,0,-1,1154,820,0,0
-63,204,0,0,0,0,0,0,0,0,0,-1,1161,820,0,0
-56,204,0,0,0,0,0,0,0,0,0,-1,1168,820,0,0
-49,204,0,0,0,0,0,0,0,0,0,-1,1175,820,0,0
-42,204,0,0,0,0,0,0,0,0,0,-1,1182,820,0,0
-35,204,0,0,0,0,0,0,0,0,0,-1,1189,820,0,0
-28,204,0,0,0,0,0,0,0,0,0,-1,1196,820,0,0
-21,204,0,0,0,0,0,0,0,0,0,-1,1203,820,0,0
-14,204,0,0,0,0,0,0,0,0,0,-1,1210,820,0,0
-7,204,0,0,0,0,0,0,0,0,0,-1,1217,820,0,0
0,204,0,0,0,0,0,0,0,0,0,-1,1224,820,0,0
7,204,0,0,0,0,0,0,0,0,0,-1,1231,820,0,0
14,204,0,0,0,0,0,0,0,0,0,-1,1238,820,0,0
21,204,0,0,0,0,0,0,0,0,0,-1,1245,820,0,0
28,204,0,0,0,0,0,0,0,0,0,-1,1252,820,0,0
35,204,0,0,0,0,0,0,0,0,0,-1,1259,820,0,0
42,204,0,0,0,0,0,0,0,0,0,-1,1266,820,0,0
49,204,0,0,0,0,0,0,0,0,0,-1,1273,820,0,0
56,204,0,0,0,0,0,0,0,0,0,-1,1280,820,0,0
63,204,0,0,0,0,0,0,0,0,0,-1,1287,820,0,0
70,204,0,0,0,0,0,0,0,0,0,-1,1294,820,0,0
77,204,0,0,0,0,0,0,0,0,0,-1,1301,820,0,0
84,204,0,0,0,0,0,0,0,0,0,-1,1308,820,0,0
91,204,0,0,0,0,0,0,0,0,0,-1,1315,820,0,0
98,204,0,0,0,0,0,0,0,0,0,-1,1322,820,0,0
105,204,0,0,0,0,0,0,0,0,0,-1,1329,820,0,0
112,204,0,0,0,0,0,0,0,0,0,-1,1336,820,0,0
119,204,0,0,0,0,0,0,0,0,0,-1,1343,820,0,0
126,204,0,0,0,0,0,0,0,0,0,-1,1350,820,0,0
133,204,0,0,0,0,0,0,0,0,0,-1,1357,820,0,0
140,204,0,0,0,0,0,0,0,0,0,-1,1364,820,0,0
147,204,0,0,0,0,0,0,0,0,0,-1,1371,820,0,0
154,204,0,0,0,0,0,0,0,0,0,-1,1378,820,0,0
161,204,0,0,0,0,0,0,0,0,0,-1,1385,820,0,0
168,204,0,0,0,0,0,0,0,0,0,-1,1392,820,0,0
175,204,0,0,0,0,0,0,0,0,0,-1,1399,820,0,0
182,204,0,0,0,0,0,0,0,0,0,-1,1406,820,0,0
189,204,0,0,0,0,0,0,0,0,0,-1,1413,820,0,0
196,204,0,0,0,0,0,0,0,0,0,-1,1420,820,0,0
203,204,0,0,0,0,0,0,0,0,0,-1,1427,820,0,0
210,204,0,0,0,0,0,0,0,0,0,-1,1434,820,0,0
217,204,0,0,0,0,0,0,0,0,0,-1,1441,820,0,0
224,204,0,0,0,0,0,0,0,0,0,-1,1448,820,0,0
231,204,0,0,0,0,0,0,0,0,0,-1,1455,820,0,0
238,204,0,0,0,0,0,0,0,0,0,-1,1462,820,0,0
245,204,0,0,0,0,0,0,0,0,0,-1,1469,820,0,0
252,204,0,0,0,0,0,0,0,0,0,-1,1476,820,0,0
259,204,0,0,0,0,0,0,0,0,0,-1,1483,820,0,0
266,204,0,0,0,0,0,0,0,0,0,-1,1490,820,0,0
273,204,0,0,0,0,0,0,0,0,0,-1,1497,820,0,0
280,204,0,0,0,0,0,0,0,0,0,-1,1504,820,0,0
287,204,0,0,0,0,0,0,0,0,0,-1,1511,820,0,0
294,204,0,0,0,0,0,0,0,0,0,-1,1518,820,0,0
301,204,0,0,0,0,0,0,0,0,0,-1,1525,820,0,0
308,204,0,0,0,0,0,0,0,0,0,-1,1532,820,0,0
315,204,0,0,0,0,0,0,0,0,0,-1,1539,820,0,0
322,204,0,0,0,0,0,0,0,0,0,-1,1546,820,0,0
329,204,0,0,0,0,0,0,0,0,0,-1,1553,820,0,0
336,204,0,0,0,0,0,0,0,0,0,-1,1560,820,0,0
343,204,0,0,0,0,0,0,0,0,0,-1,1567,820,0,0
350,204,0,0,0,0,0,0,0,0,0,-1,1574,820,0,0
357,204,0,0,0,0,0,0,0,0,0,-1,1581,820,0,0
364,204,0,0,0,0,0,0,0,0,0,-1,1588,820,0,0
371,204,0,0,0,0,0,0,0,0,0,-1,1595,820,0,0
378,204,0,0,0,0,0,0,0,0,0,-1,1602,820,0,0
385,204,0,0,0,0,0,0,0,0,0,-1,1609,820,0,0
392,204,0,0,0,0,0,0,0,0,0,-1,1616,820,0,0
399,204,0,0,0,0,0,0,0,0,0,-1,1623,820,0,0
406,204,0,0,0,0,0,0,0,0,0,-1,1630,820,0,0
413,204,0,0,0,0,0,0,0,0,0,-1,1637,820,0,0
420,204,0,0,0,0,0,0,0,0,0,-1,1644,820,0,0
427,204,0,0,0,0,0,0,0,0,0,-1,1651,820,0,0
434,204,0,0,0,0,0,0,0,0,0,-1,1658,820,0,0
441,204,0,0,0,0,0,0,0,0,0,-1,1665,820,0,0
448,204,0,0,0,0,0,0,0,0,0,-1,1672,820,0,0
455,204,0,0,0,0,0,0,0,0,0,-1,1679,820,0,0
462,204,0,0,0,0,0,0,0,0,0,-1,1686,820,0,0
469,204,0,0,0,0,0,0,0,0,0,-1,1693,820,0,0
476,204,0,0,0,0,0,0,0,0,0,-1,1700,820,0,0
483,204,0,0,0,0,0,0,0,0,0,-1,1707,820,0,0
490,204,0,0,0,0,0,0,0,0,0,-1,1714,820,0,0
497,204,0,0,0,0,0,0,0,0,0,-1,1721,820,0,0
504,204,0,0,0,0,0,0,0,0,0,-1,1728,820,0,0
511,204,0,0,0,0,0,0,0,0,0,-1,1735,820,0,0
518,204,0,0,0,0,0,0,0,0,0,-1,1742,820,0,0
525,204,0,0,0,0,0,0,0,0,0,-1,1749,820,0,0
532,204,0,0,0,0,0,0,0,0,0,-1,1756,820,0,0
539,204,0,0,0,0,0,0,0,0,0,-1,1763,820,0,0
546,204,0,0,0,0,0,0,0,0,0,-1,1770,820,0,0
553,204,0,0,0,0,0,0,0,0,0,-1,1777,820,0,0
560,204,0,0,0,0,0,0,0,0,0,-1,1784,820,0,0
567,204,0,0,0,0,0,0,0,0,0,-1,1791,820,0,0
574,204,0,0,0,0,0,0,0,0,0,-1,1798,820,0,0
581,204,0,0,0,0,0,0,0,0,0,-1,1805,820,0,0
588,204,0,0,0,0,0,0,0,0,0,-1,1812,820,0,0
595,204,0,0,0,0,0,0,0,0,0,-1,1819,820,0,0
602,204,4.31543,0.750427,-0.00382692,0.000317662,0.000496904,0.000376404,-0.00388566,1.45313,0.00272459,0.0390044,1826,820,4.31548,-0.750452
609,204,4.26697,0.858704,-0.00138492,-0.000201917,-0.000207027,-0.000166734,-0.0014201,-1.40246,0.000896342,0.0410289,1833,820,4.26699,-0.858705
616,204,4.24084,0.772522,-0.000354768,-0.000646677,-0.000452678,-2.50963e-05,-0.000976349,-0.629448,0.000642697,0.0380255,1840,820,4.24083,-0.772519
623,204,4.19666,0.792786,0.000175732,-0.00124809,-0.000719729,0.00047616,-0.00154851,-0.39543,0.00122238,0.0299191,1847,820,4.19667,-0.792779
630,204,4.18054,0.750549,0.000288368,-0.00177216,-0.000957379,0.000664525,-0.00214831,-0.374373,0.00169764,0.0278225,1854,820,4.18051,-0.750529
637,204,4.22583,0.663879,0.000195669,-0.00212987,-0.00114242,0.000662976,-0.00259717,-0.388285,0.00198961,0.0324956,1861,820,4.22588,-0.663887
644,204,3.65881,0.982239,0,0,0,0,0,0,0,-1,1868,820,3.65878,-0.982248
651,204,3.09778,0.469482,-0.000349419,-0.00274545,-0.00134266,0.000252001,-0.00334687,-0.421133,0.00231982,0.0448522,1875,820,3.09773,-0.469468
658,204,2.31921,0.611084,-0.000362679,-0.00294408,-0.00158384,0.000389771,-0.00369654,-0.443513,0.00260402,0.0490781,1882,820,2.31917,-0.611075
665,204,3.67029,0.447266,0,0,0,0,0,0,0,-1,1889,820,3.67032,-0.447287
672,204,3.69556,0.49176,-0.000848622,-0.00272381,-0.00171748,0.000170521,-0.00374295,-0.535548,0.00255404,0.0181218,1896,820,3.69555,-0.491751
679,204,3.73486,0.49707,-0.00116053,-0.00254643,-0.00159298,-0.000116309,-0.00359065,-0.580242,0.00235595,0.0113669,1903,820,3.73482,-0.497094
686,204,3.75366,0.551941,-0.000884398,-0.00233612,-0.00145954,1.98117e-05,-0.00324033,-0.554647,0.00216685,0.00969225,1910,820,3.75365,-0.551957
693,204,3.74268,0.577698,-0.000481961,-0.00206583,-0.000862329,-0.000103095,-0.00244469,-0.413963,0.00159654,0.0156426,1917,820,3.74264,-0.577702
700,204,3.75403,0.589355,-0.000684292,-0.00148318,-9.66616e-05,-0.000672763,-0.00149471,-0.118713,0.000864403,0.0164775,1924,820,3.754,-0.589368
707,204,3.74585,0.659546,-0.00189288,-0.00107481,0.000550927,-0.000797671,-0.00217002,1.10473,0.00126742,0.0142494,1931,820,3.74581,-0.659533
714,204,3.73108,0.708679,-0.00442435,-0.000587812,0.00123173,-0.000226406,-0.00478576,1.28539,0.00311778,0.0229587,1938,820,3.73112,-0.708702
721,204,3.73035,0.661072,-0.00737195,0.000463613,0.00232228,0.00110017,-0.0080085,1.30326,0.00574097,0.0220419,1945,820,3.73036,-0.661042
728,204,3.74011,0.677734,-0.0112088,0.00105039,0.00322757,0.00184822,-0.0120066,1.32846,0.00868629,0.0131691,1952,820,3.74014,-0.677757
735,204,3.74622,0.715698,-0.0161886,0.00186152,0.00401302,0.00271351,-0.0170405,1.3616,0.0123645,0.0144261,1959,820,3.74622,-0.715692
742,204,3.78577,0.841675,0,0,0,0,0,0,0,-1,1966,820,3.78571,-0.841698
749,204,2.56934,0.894653,-0.0312669,0.00442706,0.0051235,0.00514792,-0.0319878,1.43102,0.0232321,0.0454332,1973,820,2.56931,-0.894629
756,204,1.50671,1.08881,-0.041396,0.00636688,0.00524203,0.00693543,-0.0419645,1.46276,0.0305517,0.0475909,1980,820,1.50675,-1.08882
763,204,0.93811,0.83374,-0.0531195,0.00880607,0.00482451,0.00917969,-0.0534931,1.49351,0.039083,0.0463126,1987,820,0.938065,-0.833721
770,204,0.388794,0.559143,0,0,0,0,0,0,0,-1,1994,820,0.388749,-0.559134
777,204,0,0,0,0,0,0,0,0,0,-1,2001,820,0,0
784,204,0,0,0,0,0,0,0,0,0,-1,2008,820,0,0
791,204,0,0,0,0,0,0,0,0,0,-1,2015,820,0,0
798,204,0,0,0,0,0,0,0,0,0,-1,2022,820,0,0
805,204,0,0,0,0,0,0,0,0,0,-1,2029,820,0,0
812,204,0,0,0,0,0,0,0,0,0,-1,2036,820,0,0
-700,197,0,0,0,0,0,0,0,0,0,-1,524,827,0,0
-693,197,0,0,0,0,0,0,0,0,0,-1,531,827,0,0
-686,197,0,0,0,0,0,0,0,0,0,-1,538,827,0,0
-679,197,0,0,0,0,0,0,0,0,0,-1,545,827,0,0
-672,197,0,0,0,0,0,0,0,0,0,-1,552,827,0,0
-665,197,0,0,0,0,0,0,0,0,0,-1,559,827,0,0
-658,197,0.917725,-0.614136,0,0,0,0,0,0,0,-1,566,827,0.917715,0.61412
-651,197,0.539307,-0.274963,-0.0254069,-0.00870721,0.0356318,0.01954,-0.0536541,0.90049,0.0437619,0.0441112,573,827,0.539334,0.27496
-644,197,0.122864,0.0615845,-0.0201867,-0.00699018,0.0269178,0.0141262,-0.0413031,0.905592,0.0332596,0.0442353,580,827,0.122849,-0.0616139
-637,197,-0.327271,0.349304,-0.0153996,-0.00562984,0.0203748,0.0104375,-0.0314669,0.903053,0.0251886,0.0427321,587,827,-0.327254,-0.34932
-630,197,-0.348877,0.411743,-0.0112046,-0.00454018,0.0153398,0.00782517,-0.0235699,0.892349,0.0188705,0.0397287,594,827,-0.348862,-0.411769
-623,197,-0.0350952,0.765198,0,0,0,0,0,0,0,-1,601,827,-0.0351102,-0.765197
-616,197,-0.127197,0.854187,-0.0049206,-0.00293485,0.00826985,0.00440152,-0.012257,0.845142,0.00996785,0.04206,608,827,-0.127201,-0.854217
-609,197,-0.270752,0.934631,-0.00299096,-0.00221615,0.00523802,0.00264878,-0.00785588,0.822311,0.00630835,0.0292389,615,827,-0.270753,-0.934638
-602,197,-0.307495,0.790039,-0.00118476,-0.0014391,0.00333831,0.0020288,-0.00465266,0.76636,0.00395546,0.0141201,622,827,-0.307498,-0.79001
-595,197,-0.305786,0.754822,0.000265982,-0.00116015,0.00218017,0.00184673,-0.0027409,0.627347,0.00266539,0.0169827,629,827,-0.305803,-0.754839
-588,197,-0.278076,0.720459,0.000839029,-0.00109039,0.00148658,0.00164648,-0.00189785,0.497581,0.00204804,0.0186966,636,827,-0.278048,-0.720476
-581,197,-0.282715,0.712341,0.0011462,-0.00102762,0.00136121,0.0018012,-0.00168262,0.448488,0.00201178,0.0107719,643,827,-0.282685,-0.712337
-574,197,-0.2901,0.679199,0.000890362,-0.00115213,0.00135221,0.00156364,-0.00182541,0.461974,0.00195861,0.0115071,650,827,-0.290098,-0.679214
-567,197,-0.308777,0.625427,0.00030873,-0.00100565,0.00151348,0.00130155,-0.00199847,0.580569,0.00191938,0.013553,657,827,-0.308748,-0.625401
-560,197,-0.325623,0.595642,-0.000299163,-0.00120569,0.00198142,0.00128018,-0.00278503,0.672954,0.00240006,0.0132084,664,827,-0.325644,-0.595665
-553,197,-0.27832,0.599854,-0.000873444,-0.00153114,0.00284993,0.00166655,-0.00407113,0.727958,0.00340824,0.0109966,671,827,-0.278303,-0.599874
-546,197,-0.290955,0.587708,-0.00153182,-0.00164453,0.0035914,0.00200367,-0.00518002,0.777553,0.00428052,0.0160163,678,827,-0.290981,-0.58769
-539,197,-0.304077,0.620605,-0.00220377,-0.00202038,0.00418606,0.00207499,-0.00629914,0.796349,0.00503567,0.0295319,685,827,-0.304104,-0.620631
-532,197,-0.837952,0.966125,0,0,0,0,0,0,0,-1,692,827,-0.837966,-0.966125
-525,197,-0.470398,0.889587,0,0,0,0,0,0,0,-1,699,827,-0.470385,-0.889572
-518,197,-0.945923,0.623535,-0.00378518,-0.0022115,0.00546586,0.00252387,-0.00852054,0.856885,0.00668246,0.0461863,706,827,-0.945945,-0.623534
-511,197,-1.02832,0.665588,-0.00430177,-0.00197289,0.00565427,0.0026356,-0.00891026,0.886948,0.00698643,0.0443919,713,827,-1.02834,-0.665589
-504,197,-1.00983,0.835754,-0.00459943,-0.00146579,0.0056215,0.00280315,-0.00886837,0.921308,0.00703531,0.0392908,720,827,-1.00986,-0.835769
-497,197,-1.02063,0.927368,-0.0044456,-0.000582322,0.00527649,0.00310499,-0.00813291,0.960864,0.00670117,0.0407213,727,827,-1.0206,-0.927384
-490,197,-0.861572,0.988892,-0.00344324,0.000805187,0.00455158,0.00370384,-0.00634189,1.00372,0.00586618,0.040098,734,827,-0.861542,-0.988869
-483,197,-0.603271,0.86792,-0.000774245,0.00263721,0.00375163,0.00505268,-0.00318971,0.998761,0.00479909,0.0416668,741,827,-0.60327,-0.867909
-476,197,0,0,0,0,0,0,0,0,0,-1,748,827,0,0
-469,197,0,0,0,0,0,0,0,0,0,-1,755,827,0,0
-462,197,0,0,0,0,0,0,0,0,0,-1,762,827,0,0
-455,197,0,0,0,0,0,0,0,0,0,-1,769,827,0,0
-448,197,0,0,0,0,0,0,0,0,0,-1,776,827,0,0
-441,197,0,0,0,0,0,0,0,0,0,-1,783,827,0,0
-434,197,0,0,0,0,0,0,0,0,0,-1,790,827,0,0
-427,197,0,0,0,0,0,0,0,0,0,-1,797,827,0,0
-420,197,0,0,0,0,0,0,0,0,0,-1,804,827,0,0
-413,197,0,0,0,0,0,0,0,0,0,-1,811,827,0,0
-406,197,0,0,0,0,0,0,0,0,0,-1,818,827,0,0
-399,197,0,0,0,0,0,0,0,0,0,-1,825,827,0,0
-392,197,0,0,0,0,0,0,0,0,0,-1,832,827,0,0
-385,197,0,0,0,0,0,0,0,0,0,-1,839,827,0,0
-378,197,0,0,0,0,0,0,0,0,0,-1,846,827,0,0
-371,197,0,0,0,0,0,0,0,0,0,-1,853,827,0,0
-364,197,0,0,0,0,0,0,0,0,0,-1,860,827,0,0
-357,197,0,0,0,0,0,0,0,0,0,-1,867,827,0,0
-350,197,0,0,0,0,0,0,0,0,0,-1,874,827,0,0
-343,197,0,0,0,0,0,0,0,0,0,-1,881,827,0,0
-336,197,0,0,0,0,0,0,0,0,0,-1,888,827,0,0
-329,197,0,0,0,0,0,0,0,0,0,-1,895,827,0,0
-322,197,0,0,0,0,0,0,0,0,0,-1,902,827,0,0
-315,197,0,0,0,0,0,0,0,0,0,-1,909,827,0,0
-308,197,0,0,0,0,0,0,0,0,0,-1,916,827,0,0
-301,197,0,0,0,0,0,0,0,0,0,-1,923,827,0,0
-294,197,0,0,0,0,0,0,0,0,0,-1,930,827,0,0
-287,197,0,0,0,0,0,0,0,0,0,-1,937,827,0,0
-280,197,0,0,0,0,0,0,0,0,0,-1,944,827,0,0
-273,197,0,0,0,0,0,0,0,0,0,-1,951,827,0,0
-266,197,0,0,0,0,0,0,0,0,0,-1,958,827,0,0
-259,197,0,0,0,0,0,0,0,0,0,-1,965,827,0,0
-252,197,0,0,0,0,0,0,0,0,0,-1,972,827,0,0
-245,197,0,0,0,0,0,0,0,0,0,-1,979,827,0,0
-238,197,0,0,0,0,0,0,0,0,0,-1,986,827,0,0
-231,197,0,0,0,0,0,0,0,0,0,-1,993,827,0,0
-224,197,0,0,0,0,0,0,0,0,0,-1,1000,827,0,0
-217,197,0,0,0,0,0,0,0,0,0,-1,1007,827,0,0
-210,197,0,0,0,0,0,0,0,0,0,-1,1014,827,0,0
-203,197,0,0,0,0,0,0,0,0,0,-1,1021,827,0,0
-196,197,0,0,0,0,0,0,0,0,0,-1,1028,827,0,0
-189,197,0,0,0,0,0,0,0,0,0,-1,1035,827,0,0
-182,197,0,0,0,0,0,0,0,0,0,-1,1042,827,0,0
-175,197,0,0,0,0,0,0,0,0,0,-1,1049,827,0,0
-168,197,0,0,0,0,0,0,0,0,0,-1,1056,827,0,0
-161,197,0,0,0,0,0,0,0,0,0,-1,1063,827,0,0
-154,197,0,0,0,0,0,0,0,0,0,-1,1070,827,0,0
-147,197,0,0,0,0,0,0,0,0,0,-1,1077,827,0,0
-140,197,0,0,0,0,0,0,0,0,0,-1,1084,827,0,0
-133,197,0,0,0,0,0,0,0,0,0,-1,1091,827,0,0
-126,197,0,0,0,0,0,0,0,0,0,-1,1098,827,0,0
-119,197,0,0,0,0,0,0,0,0,0,-1,1105,827,0,0
-112,197,0,0,0,0,0,0,0,0,0,-1,1112,827,0,0
-105,197,0,0,0,0,0,0,0,0,0,-1,1119,827,0,0
-98,197,0,0,0,0,0,0,0,0,0,-1,1126,827,0,0
-91,197,0,0,0,0,0,0,0,0,0,-1,1133,827,0,0
-84,197,0,0,0,0,0,0,0,0,0,-1,1140,827,0,0
-77,197,0,0,0,0,0,0,0,0,0,-1,1147,827,0,0
-70,197,0,0,0,0,0,0,0,0,0,-1,1154,827,0,0
-63,197,0,0,0,0,0,0,0,0,0,-1,1161,827,0,0
-56,197,0,0,0,0,0,0,0,0,0,-1,1168,827,0,0
-49,197,0,0,0,0,0,0,0,0,0,-1,1175,827,0,0
-42,197,0,0,0,0,0,0,0,0,0,-1,1182,827,0,0
-35,197,0,0,0,0,0,0,0,0,0,-1,1189,827,0,0
-28,197,0,0,0,0,0,0,0,0,0,-1,1196,827,0,0
-21,197,0,0,0,0,0,0,0,0,0,-1,1203,827,0,0
-14,197,0,0,0,0,0,0,0,0,0,-1,1210,827,0,0
-7,197,0,0,0,0,0,0,0,0,0,-1,1217,827,0,0
0,197,0,0,0,0,0,0,0,0,0,-1,1224,827,0,0
7,197,0,0,0,0,0,0,0,0,0,-1,1231,827,0,0
14,197,0,0,0,0,0,0,0,0,0,-1,1238,827,0,0
21,197,0,0,0,0,0,0,0,0,0,-1,1245,827,0,0
28,197,0,0,0,0,0,0,0,0,0,-1,1252,827,0,0
35,197,0,0,0,0,0,0,0,0,0,-1,1259,827,0,0
42,197,0,0,0,0,0,0,0,0,0,-1,1266,827,0,0
49,197,0,0,0,0,0,0,0,0,0,-1,1273,827,0,0
56,197,0,0,0,0,0,0,0,0,0,-1,1280,827,0,0
63,197,0,0,0,0,0,0,0,0,0,-1,1287,827,0,0
70,197,0,0,0,0,0,0,0,0,0,-1,1294,827,0,0
77,197,0,0,0,0,0,0,0,0,0,-1,1301,827,0,0
84,197,0,0,0,0,0,0,0,0,0,-1,1308,827,0,0
91,197,0,0,0,0,0,0,0,0,0,-1,1315,827,0,0
98,197,0,0,0,0,0,0,0,0,0,-1,1322,827,0,0
105,197,0,0,0,0,0,0,0,0,0,-1,1329,827,0,0
112,197,0,0,0,0,0,0,0,0,0,-1,1336,827,0,0
119,197,0,0,0,0,0,0,0,0,0,-1,1343,827,0,0
126,197,0,0,0,0,0,0,0,0,0,-1,1350,827,0,0
133,197,0,0,0,0,0,0,0,0,0,-1,1357,827,0,0
140,197,0,0,0,0,0,0,0,0,0,-1,1364,827,0,0
147,197,0,0,0,0,0,0,0,0,0,-1,1371,827,0,0
154,197,0,0,0,0,0,0,0,0,0,-1,1378,827,0,0
161,197,0,0,0,0,0,0,0,0,0,-1,1385,827,0,0
168,197,0,0,0,0,0,0,0,0,0,-1,1392,827,0,0
175,197,0,0,0,0,0,0,0,0,0,-1,1399,827,0,0
182,197,0,0,0,0,0,0,0,0,0,-1,1406,827,0,0
189,197,0,0,0,0,0,0,0,0,0,-1,1413,827,0,0
196,197,0,0,0,0,0,0,0,0,0,-1,1420,827,0,0
203,197,0,0,0,0,0,0,0,0,0,-1,1427,827,0,0
210,197,0,0,0,0,0,0,0,0,0,-1,1434,827,0,0
217,197,0,0,0,0,0,0,0,0,0,-1,1441,827,0,0
224,197,0,0,0,0,0,0,0,0,0,-1,1448,827,0,0
231,197,0,0,0,0,0,0,0,0,0,-1,1455,827,0,0
238,197,0,0,0,0,0,0,0,0,0,-1,1462,827,0,0
245,197,0,0,0,0,0,0,0,0,0,-1,1469,827,0,0
252,197,0,0,0,0,0,0,0,0,0,-1,1476,827,0,0
259,197,0,0,0,0,0,0,0,0,0,-1,1483,827,0,0
266,197,0,0,0,0,0,0,0,0,0,-1,1490,827,0,0
273,197,0,0,0,0,0,0,0,0,0,-1,1497,827,0,0
280,197,0,0,0,0,0,0,0,0,0,-1,1504,827,0,0
287,197,0,0,0,0,0,0,0,0,0,-1,1511,827,0,0
294,197,0,0,0,0,0,0,0,0,0,-1,1518,827,0,0
301,197,0,0,0,0,0,0,0,0,0,-1,1525,827,0,0
308,197,0,0,0,0,0,0,0,0,0,-1,1532,827,0,0
315,197,0,0,0,0,0,0,0,0,0,-1,1539,827,0,0
322,197,0,0,0,0,0,0,0,0,0,-1,1546,827,0,0
329,197,0,0,0,0,0,0,0,0,0,-1,1553,827,0,0
336,197,0,0,0,0,0,0,0,0,0,-1,1560,827,0,0
343,197,0,0,0,0,0,0,0,0,0,-1,1567,827,0,0
350,197,0,0,0,0,0,0,0,0,0,-1,1574,827,0,0
357,197,0,0,0,0,0,0,0,0,0,-1,1581,827,0,0
364,197,0,0,0,0,0,0,0,0,0,-1,1588,827,0,0
371,197,0,0,0,0,0,0,0,0,0,-1,1595,827,0,0
378,197,0,0,0,0,0,0,0,0,0,-1,1602,827,0,0
385,197,0,0,0,0,0,0,0,0,0,-1,1609,827,0,0
392,197,0,0,0,0,0,0,0,0,0,-1,1616,827,0,0
399,197,0,0,0,0,0,0,0,0,0,-1,1623,827,0,0
406,197,0,0,0,0,0,0,0,0,0,-1,1630,827,0,0
413,197,0,0,0,0,0,0,0,0,0,-1,1637,827,0,0
420,197,0,0,0,0,0,0,0,0,0,-1,1644,827,0,0
427,197,0,0,0,0,0,0,0,0,0,-1,1651,827,0,0
434,197,0,0,0,0,0,0,0,0,0,-1,1658,827,0,0
441,197,0,0,0,0,0,0,0,0,0,-1,1665,827,0,0
448,197,0,0,0,0,0,0,0,0,0,-1,1672,827,0,0
455,197,0,0,0,0,0,0,0,0,0,-1,1679,827,0,0
462,197,0,0,0,0,0,0,0,0,0,-1,1686,827,0,0
469,197,0,0,0,0,0,0,0,0,0,-1,1693,827,0,0
476,197,0,0,0,0,0,0,0,0,0,-1,1700,827,0,0
483,197,0,0,0,0,0,0,0,0,0,-1,1707,827,0,0
490,197,0,0,0,0,0,0,0,0,0,-1,1714,827,0,0
497,197,0,0,0,0,0,0,0,0,0,-1,1721,827,0,0
504,197,0,0,0,0,0,0,0,0,0,-1,1728,827,0,0
511,197,0,0,0,0,0,0,0,0,0,-1,1735,827,0,0
518,197,0,0,0,0,0,0,0,0,0,-1,1742,827,0,0
525,197,0,0,0,0,0,0,0,0,0,-1,1749,827,0,0
532,197,0,0,0,0,0,0,0,0,0,-1,1756,827,0,0
539,197,0,0,0,0,0,0,0,0,0,-1,1763,827,0,0
546,197,0,0,0,0,0,0,0,0,0,-1,1770,827,0,0
553,197,0,0,0,0,0,0,0,0,0,-1,1777,827,0,0
560,197,0,0,0,0,0,0,0,0,0,-1,1784,827,0,0
567,197,0,0,0,0,0,0,0,0,0,-1,1791,827,0,0
574,197,0,0,0,0,0,0,0,0,0,-1,1798,827,0,0
581,197,0,0,0,0,0,0,0,0,0,-1,1805,827,0,0
588,197,0,0,0,0,0,0,0,0,0,-1,1812,827,0,0
595,197,0,0,0,0,0,0,0,0,0,-1,1819,827,0,0
602,197,4.23315,0.657715,-0.00191718,0.000839229,0.000209083,0.000854999,-0.00193295,1.49552,0.00164924,0.0410896,1826,827,4.23318,-0.657705
609,197,4.16821,0.787231,-0.000373281,0.000366298,-0.000304631,0.000475616,-0.000482599,-1.22626,0.000553231,0.0423621,1833,827,4.16827,-0.787253
616,197,4.25476,0.757446,-0.000220651,-9.37351e-06,-0.000455446,0.000352524,-0.000582548,-0.899356,0.000545282,0.0400466,1840,827,4.25482,-0.757432
623,197,4.18091,0.713562,-0.000173218,-0.000866264,-0.000692672,0.000254773,-0.00129426,-0.553466,0.000959108,0.0372796,1847,827,4.18095,-0.713532
630,197,4.19641,0.743408,-0.000332052,-0.00162117,-0.00103818,0.000245386,-0.00219861,-0.507592,0.00155401,0.0306057,1854,827,4.19636,-0.743424
637,197,4.23621,0.709106,-0.00055253,-0.00219023,-0.00133663,0.000196135,-0.0029389,-0.510574,0.00202781,0.0267785,1861,827,4.23626,-0.709099
644,197,4.26135,0.604675,-0.000774656,-0.00265288,-0.00152189,7.45481e-05,-0.00350208,-0.50896,0.00235996,0.0319408,1868,827,4.2613,-0.604686
651,197,4.27551,0.607788,-0.00105493,-0.00302985,-0.00173614,-4.50744e-05,-0.0040397,-0.526829,0.00267823,0.0427553,1875,827,4.27547,-0.607813
658,197,3.65857,0.791992,-0.00109736,-0.00325139,-0.00202454,0.000118816,-0.00446756,-0.540947,0.00301876,0.0489657,1882,827,3.65852,-0.791964
665,197,3.66479,0.623962,-0.00098436,-0.00328278,-0.0022345,0.00037913,-0.00464627,-0.547885,0.00323131,0.0443836,1889,827,3.66477,-0.623949
672,197,3.73816,0.544922,-0.00124873,-0.0030954,-0.00222645,0.000238253,-0.00458238,-0.588836,0.00313735,0.0246192,1896,827,3.73816,-0.544911
679,197,3.79224,0.511597,-0.00137537,-0.00283162,-0.00212567,0.000143422,-0.00435042,-0.620391,0.00294925,0.0117361,1903,827,3.79224,-0.511583
686,197,3.78857,0.529236,-0.00121879,-0.00255735,-0.00192458,0.000149563,-0.0039257,-0.618062,0.00266839,0.00994939,1910,827,3.78856,-0.529265
693,197,3.77905,0.582397,-0.000837265,-0.00217662,-0.00137794,2.5108e-05,-0.003039,-0.559205,0.00203442,0.0147702,1917,827,3.77911,-0.582404
700,197,3.8103,0.590088,-0.00102118,-0.00148977,-0.000677478,-0.000538623,-0.00197232,-0.618919,0.00117716,0.0211734,1924,827,3.81028,-0.590105
707,197,3.79602,0.630493,-0.00212699,-0.000896602,-9.56878e-05,-0.000889205,-0.00213439,-1.49364,0.00123799,0.00874702,1931,827,3.79607,-0.6305
714,197,3.78101,0.653137,-0.00442198,-0.000180409,0.00044975,-0.000133245,-0.00446914,1.46631,0.00293602,0.0108995,1938,827,3.78106,-0.653134
721,197,3.76367,0.654297,-0.00705285,0.00136002,0.0012902,0.00155344,-0.00724627,1.42199,0.00542333,0.011869,1945,827,3.76373,-0.65428
728,197,3.76868,0.686279,-0.0104804,0.00235705,0.00189737,0.00263161,-0.010755,1.42709,0.00818936,0.0110524,1952,827,3.76867,-0.686255
735,197,3.7616,0.725342,-0.0147443,0.0038048,0.00225309,0.00407456,-0.015014,1.45164,0.0116084,0.0112257,1959,827,3.76159,-0.725329
742,197,3.81873,0.775635,-0.0204133,0.00567564,0.00241264,0.00589688,-0.0206345,1.47935,0.0160864,0.020423,1966,827,3.81871,-0.775648
749,197,4.14758,0.958862,-0.027463,0.00811713,0.00229578,0.00826466,-0.0276105,1.50663,0.0216932,0.0435674,1973,827,4.14752,-0.958873
756,197,3.95837,1.33533,-0.0357549,0.0112082,0.00181875,0.0112785,-0.0358252,1.53215,0.0283996,0.0455985,1980,827,3.95843,-1.33531
763,197,-0.0581055,0.706055,-0.0450645,0.0149655,0.000855553,0.0149776,-0.0450767,1.55655,0.0360948,0.0464112,1987,827,-0.0580716,-0.706075
770,197,-0.388184,0.422974,0,0,0,0,0,0,0,-1,1994,827,-0.38814,-0.42296
777,197,0,0,0,0,0,0,0,0,0,-1,2001,827,0,0
784,197,0,0,0,0,0,0,0,0,0,-1,2008,827,0,0
791,197,0,0,0,0,0,0,0,0,0,-1,2015,827,0,0
798,197,0,0,0,0,0,0,0,0,0,-1,2022,827,0,0
805,197,0,0,0,0,0,0,0,0,0,-1,2029,827,0,0
812,197,0,0,0,0,0,0,0,0,0,-1,2036,827,0,0
-700,190,0,0,0,0,0,0,0,0,0,-1,524,834,0,0
-693,190,0,0,0,0,0,0,0,0,0,-1,531,834,0,0
-686,190,0,0,0,0,0,0,0,0,0,-1,538,834,0,0
-679,190,0,0,0,0,0,0,0,0,0,-1,545,834,0,0
-672,190,0,0,0,0,0,0,0,0,0,-1,552,834,0,0
-665,190,0,0,0,0,0,0,0,0,0,-1,559,834,0,0
-658,190,1.01068,-0.682983,0,0,0,0,0,0,0,-1,566,834,1.01067,0.683012
-651,190,0.546387,-0.26001,-0.0239642,-0.0105846,0.0364363,0.019771,-0.0543198,0.876188,0.0442994,0.0482349,573,834,0.546381,0.260001
-644,190,0.0841064,0.116028,-0.0199943,-0.00845422,0.0273505,0.0137282,-0.0421768,0.889357,0.033641,0.0451411,580,834,0.0840807,-0.116046
-637,190,-0.439636,0.298462,-0.0160529,-0.00673519,0.0204937,0.00962255,-0.0324107,0.897164,0.0254289,0.0457931,587,834,-0.439629,-0.298457
-630,190,-0.876343,0.435425,0,0,0,0,0,0,0,-1,594,834,-0.876327,-0.435448
-623,190,-0.229004,0.879639,0,0,0,0,0,0,0,-1,601,834,-0.228993,-0.879619
-616,190,-0.273254,0.839661,-0.00649591,-0.00331778,0.00790816,0.00315939,-0.0129731,0.884548,0.00987183,0.0452831,608,834,-0.273234,-0.839663
-609,190,-0.334839,0.789978,-0.00459632,-0.00239387,0.00471965,0.00135132,-0.00834151,0.900012,0.00606187,0.0224454,615,834,-0.334865,-0.789968
-602,190,-0.329163,0.76947,-0.00260764,-0.00149242,0.00284515,0.00084924,-0.00494931,0.882165,0.00361601,0.0132029,622,834,-0.329141,-0.769476
-595,190,-0.332214,0.758179,-0.000969732,-0.0012373,0.0018599,0.000761187,-0.00296822,0.749495,0.00227538,0.0168563,629,834,-0.332197,-0.758164
-588,190,-0.328552,0.723938,-0.000199964,-0.00108726,0.00135116,0.000778515,-0.00206574,0.62677,0.00169726,0.0146272,636,834,-0.32856,-0.723915
-581,190,-0.31842,0.703979,0.000268387,-0.00101017,0.00127059,0.00105146,-0.00179324,0.552323,0.0016609,0.0100771,643,834,-0.318396,-0.704008
-574,190,-0.313049,0.673767,0.000130506,-0.00115911,0.00135626,0.000987432,-0.00201604,0.563497,0.00176763,0.00925336,650,834,-0.313063,-0.67379
-567,190,-0.3302,0.628601,-0.00025885,-0.00111104,0.00166617,0.00103485,-0.00240474,0.660215,0.00203767,0.0108085,657,834,-0.33021,-0.628585
-560,190,-0.352539,0.601807,-0.000685827,-0.00127204,0.00217596,0.00121668,-0.00317455,0.71845,0.00261793,0.0126308,664,834,-0.352558,-0.601798
-553,190,-0.334106,0.609619,-0.00114148,-0.00155444,0.00294073,0.00160001,-0.00429593,0.750349,0.00352064,0.0113733,671,834,-0.334134,-0.609624
-546,190,-0.276306,0.590332,-0.00165153,-0.00158139,0.00359757,0.00198128,-0.0052142,0.790272,0.00429181,0.0210512,678,834,-0.276328,-0.590319
-539,190,-0.142212,0.516907,0,0,0,0,0,0,0,-1,685,834,-0.142204,-0.516899
-532,190,-0.587524,0.666321,0,0,0,0,0,0,0,-1,692,834,-0.587544,-0.666329
-525,190,-0.843689,0.742126,0,0,0,0,0,0,0,-1,699,834,-0.843679,-0.742154
-518,190,-0.879578,0.82312,-0.00304288,-0.00150507,0.00474638,0.00253428,-0.00708223,0.8657,0.00575534,0.0479924,706,834,-0.879591,-0.823099
-511,190,-0.906799,0.867371,-0.00322072,-0.000992246,0.00463082,0.0026565,-0.00686947,0.903461,0.00567628,0.0414535,713,834,-0.906786,-0.867396
-504,190,-0.950439,0.942017,-0.00312001,-0.000159039,0.00422319,0.00283565,-0.00611469,0.953985,0.00528181,0.0425119,720,834,-0.950455,-0.941997
-497,190,-1.05017,1.02466,0,0,0,0,0,0,0,-1,727,834,-1.05018,-1.02465
-490,190,-0.846985,1.22833,0,0,0,0,0,0,0,-1,734,834,-0.84697,-1.22833
-483,190,0,0,0,0,0,0,0,0,0,-1,741,834,0,0
-476,190,0,0,0,0,0,0,0,0,0,-1,748,834,0,0
-469,190,0,0,0,0,0,0,0,0,0,-1,755,834,0,0
-462,190,0,0,0,0,0,0,0,0,0,-1,762,834,0,0
-455,190,0,0,0,0,0,0,0,0,0,-1,769,834,0,0
-448,190,0,0,0,0,0,0,0,0,0,-1,776,834,0,0
-441,190,0,0,0,0,0,0,0,0,0,-1,783,834,0,0
-434,190,0,0,0,0,0,0,0,0,0,-1,790,834,0,0
-427,190,0,0,0,0,0,0,0,0,0,-1,797,834,0,0
-420,190,0,0,0,0,0,0,0,0,0,-1,804,834,0,0
-413,190,0,0,0,0,0,0,0,0,0,-1,811,834,0,0
-406,190,0,0,0,0,0,0,0,0,0,-1,818,834,0,0
-399,190,0,0,0,0,0,0,0,0,0,-1,825,834,0,0
-392,190,0,0,0,0,0,0,0,0,0,-1,832,834,0,0
-385,190,0,0,0,0,0,0,0,0,0,-1,839,834,0,0
-378,190,0,0,0,0,0,0,0,0,0,-1,846,834,0,0
-371,190,0,0,0,0,0,0,0,0,0,-1,853,834,0,0
-364,190,0,0,0,0,0,0,0,0,0,-1,860,834,0,0
-357,190,0,0,0,0,0,0,0,0,0,-1,867,834,0,0
-350,190,0,0,0,0,0,0,0,0,0,-1,874,834,0,0
-343,190,0,0,0,0,0,0,0,0,0,-1,881,834,0,0
-336,190,0,0,0,0,0,0,0,0,0,-1,888,834,0,0
-329,190,0,0,0,0,0,0,0,0,0,-1,895,834,0,0
-322,190,0,0,0,0,0,0,0,0,0,-1,902,834,0,0
-315,190,0,0,0,0,0,0,0,0,0,-1,909,834,0,0
-308,190,0,0,0,0,0,0,0,0,0,-1,916,834,0,0
-301,190,0,0,0,0,0,0,0,0,0,-1,923,834,0,0
-294,190,0,0,0,0,0,0,0,0,0,-1,930,834,0,0
-287,190,0,0,0,0,0,0,0,0,0,-1,937,834,0,0
-280,190,0,0,0,0,0,0,0,0,0,-1,944,834,0,0
-273,190,0,0,0,0,0,0,0,0,0,-1,951,834,0,0
-266,190,0,0,0,0,0,0,0,0,0,-1,958,834,0,0
-259,190,0,0,0,0,0,0,0,0,0,-1,965,834,0,0
-252,190,0,0,0,0,0,0,0,0,0,-1,972,834,0,0
-245,190,0,0,0,0,0,0,0,0,0,-1,979,834,0,0
-238,190,0,0,0,0,0,0,0,0,0,-1,986,834,0,0
-231,190,0,0,0,0,0,0,0,0,0,-1,993,834,0,0
-224,190,0,0,0,0,0,0,0,0,0,-1,1000,834,0,0
-217,190,0,0,0,0,0,0,0,0,0,-1,1007,834,0,0
-210,190,0,0,0,0,0,0,0,0,0,-1,1014,834,0,0
-203,190,0,0,0,0,0,0,0,0,0,-1,1021,834,0,0
-196,190,0,0,0,0,0,0,0,0,0,-1,1028,834,0,0
-189,190,0,0,0,0,0,0,0,0,0,-1,1035,834,0,0
-182,190,0,0,0,0,0,0,0,0,0,-1,1042,834,0,0
-175,190,0,0,0,0,0,0,0,0,0,-1,1049,834,0,0
-168,190,0,0,0,0,0,0,0,0,0,-1,1056,834,0,0
-161,190,0,0,0,0,0,0,0,0,0,-1,1063,834,0,0
-154,190,0,0,0,0,0,0,0,0,0,-1,1070,834,0,0
-147,190,0,0,0,0,0,0,0,0,0,-1,1077,834,0,0
-140,190,0,0,0,0,0,0,0,0,0,-1,1084,834,0,0
-133,190,0,0,0,0,0,0,0,0,0,-1,1091,834,0,0
-126,190,0,0,0,0,0,0,0,0,0,-1,1098,834,0,0
-119,190,0,0,0,0,0,0,0,0,0,-1,1105,834,0,0
-112,190,0,0,0,0,0,0,0,0,0,-1,1112,834,0,0
-105,190,0,0,0,0,0,0,0,0,0,-1,1119,834,0,0
-98,190,0,0,0,0,0,0,0,0,0,-1,1126,834,0,0
-91,190,0,0,0,0,0,0,0,0,0,-1,1133,834,0,0
-84,190,0,0,0,0,0,0,0,0,0,-1,1140,834,0,0
-77,190,0,0,0,0,0,0,0,0,0,-1,1147,834,0,0
-70,190,0,0,0,0,0,0,0,0,0,-1,1154,834,0,0
-63,190,0,0,0,0,0,0,0,0,0,-1,1161,834,0,0
-56,190,0,0,0,0,0,0,0,0,0,-1,1168,834,0,0
-49,190,0,0,0,0,0,0,0,0,0,-1,1175,834,0,0
-42,190,0,0,0,0,0,0,0,0,0,-1,1182,834,0,0
-35,190,0,0,0,0,0,0,0,0,0,-1,1189,834,0,0
-28,190,0,0,0,0,0,0,0,0,0,-1,1196,834,0,0
-21,190,0,0,0,0,0,0,0,0,0,-1,1203,834,0,0
-14,190,0,0,0,0,0,0,0,0,0,-1,1210,834,0,0
-7,190,0,0,0,0,0,0,0,0,0,-1,1217,834,0,0
0,190,0,0,0,0,0,0,0,0,0,-1,1224,834,0,0
7,190,0,0,0,0,0,0,0,0,0,-1,1231,834,0,0
14,190,0,0,0,0,0,0,0,0,0,-1,1238,834,0,0
21,190,0,0,0,0,0,0,0,0,0,-1,1245,834,0,0
28,190,0,0,0,0,0,0,0,0,0,-1,1252,834,0,0
35,190,0,0,0,0,0,0,0,0,0,-1,1259,834,0,0
42,190,0,0,0,0,0,0,0,0,0,-1,1266,834,0,0
49,190,0,0,0,0,0,0,0,0,0,-1,1273,834,0,0
56,190,0,0,0,0,0,0,0,0,0,-1,1280,834,0,0
63,190,0,0,0,0,0,0,0,0,0,-1,1287,834,0,0
70,190,0,0,0,0,0,0,0,0,0,-1,1294,834,0,0
77,190,0,0,0,0,0,0,0,0,0,-1,1301,834,0,0
84,190,0,0,0,0,0,0,0,0,0,-1,1308,834,0,0
91,190,0,0,0,0,0,0,0,0,0,-1,1315,834,0,0
98,190,0,0,0,0,0,0,0,0,0,-1,1322,834,0,0
105,190,0,0,0,0,0,0,0,0,0,-1,1329,834,0,0
112,190,0,0,0,0,0,0,0,0,0,-1,1336,834,0,0
119,190,0,0,0,0,0,0,0,0,0,-1,1343,834,0,0
126,190,0,0,0,0,0,0,0,0,0,-1,1350,834,0,0
133,190,0,0,0,0,0,0,0,0,0,-1,1357,834,0,0
140,190,0,0,0,0,0,0,0,0,0,-1,1364,834,0,0
147,190,0,0,0,0,0,0,0,0,0,-1,1371,834,0,0
154,190,0,0,0,0,0,0,0,0,0,-1,1378,834,0,0
161,190,0,0,0,0,0,0,0,0,0,-1,1385,834,0,0
168,190,0,0,0,0,0,0,0,0,0,-1,1392,834,0,0
175,190,0,0,0,0,0,0,0,0,0,-1,1399,834,0,0
182,190,0,0,0,0,0,0,0,0,0,-1,1406,834,0,0
189,190,0,0,0,0,0,0,0,0,0,-1,1413,834,0,0
196,190,0,0,0,0,0,0,0,0,0,-1,1420,834,0,0
203,190,0,0,0,0,0,0,0,0,0,-1,1427,834,0,0
210,190,0,0,0,0,0,0,0,0,0,-1,1434,834,0,0
217,190,0,0,0,0,0,0,0,0,0,-1,1441,834,0,0
224,190,0,0,0,0,0,0,0,0,0,-1,1448,834,0,0
231,190,0,0,0,0,0,0,0,0,0,-1,1455,834,0,0
238,190,0,0,0,0,0,0,0,0,0,-1,1462,834,0,0
245,190,0,0,0,0,0,0,0,0,0,-1,1469,834,0,0
252,190,0,0,0,0,0,0,0,0,0,-1,1476,834,0,0
259,190,0,0,0,0,0,0,0,0,0,-1,1483,834,0,0
266,190,0,0,0,0,0,0,0,0,0,-1,1490,834,0,0
273,190,0,0,0,0,0,0,0,0,0,-1,1497,834,0,0
280,190,0,0,0,0,0,0,0,0,0,-1,1504,834,0,0
287,190,0,0,0,0,0,0,0,0,0,-1,1511,834,0,0
294,190,0,0,0,0,0,0,0,0,0,-1,1518,834,0,0
301,190,0,0,0,0,0,0,0,0,0,-1,1525,834,0,0
308,190,0,0,0,0,0,0,0,0,0,-1,1532,834,0,0
315,190,0,0,0,0,0,0,0,0,0,-1,1539,834,0,0
322,190,0,0,0,0,0,0,0,0,0,-1,1546,834,0,0
329,190,0,0,0,0,0,0,0,0,0,-1,1553,834,0,0
336,190,0,0,0,0,0,0,0,0,0,-1,1560,834,0,0
343,190,0,0,0,0,0,0,0,0,0,-1,1567,834,0,0
350,190,0,0,0,0,0,0,0,0,0,-1,1574,834,0,0
357,190,0,0,0,0,0,0,0,0,0,-1,1581,834,0,0
364,190,0,0,0,0,0,0,0,0,0,-1,1588,834,0,0
371,190,0,0,0,0,0,0,0,0,0,-1,1595,834,0,0
378,190,0,0,0,0,0,0,0,0,0,-1,1602,834,0,0
385,190,0,0,0,0,0,0,0,0,0,-1,1609,834,0,0
392,190,0,0,0,0,0,0,0,0,0,-1,1616,834,0,0
399,190,0,0,0,0,0,0,0,0,0,-1,1623,834,0,0
406,190,0,0,0,0,0,0,0,0,0,-1,1630,834,0,0
413,190,0,0,0,0,0,0,0,0,0,-1,1637,834,0,0
420,190,0,0,0,0,0,0,0,0,0,-1,1644,834,0,0
427,190,0,0,0,0,0,0,0,0,0,-1,1651,834,0,0
434,190,0,0,0,0,0,0,0,0,0,-1,1658,834,0,0
441,190,0,0,0,0,0,0,0,0,0,-1,1665,834,0,0
448,190,0,0,0,0,0,0,0,0,0,-1,1672,834,0,0
455,190,0,0,0,0,0,0,0,0,0,-1,1679,834,0,0
462,190,0,0,0,0,0,0,0,0,0,-1,1686,834,0,0
469,190,0,0,0,0,0,0,0,0,0,-1,1693,834,0,0
476,190,0,0,0,0,0,0,0,0,0,-1,1700,834,0,0
483,190,0,0,0,0,0,0,0,0,0,-1,1707,834,0,0
490,190,0,0,0,0,0,0,0,0,0,-1,1714,834,0,0
497,190,0,0,0,0,0,0,0,0,0,-1,1721,834,0,0
504,190,0,0,0,0,0,0,0,0,0,-1,1728,834,0,0
511,190,0,0,0,0,0,0,0,0,0,-1,1735,834,0,0
518,190,0,0,0,0,0,0,0,0,0,-1,1742,834,0,0
525,190,0,0,0,0,0,0,0,0,0,-1,1749,834,0,0
532,190,0,0,0,0,0,0,0,0,0,-1,1756,834,0,0
539,190,0,0,0,0,0,0,0,0,0,-1,1763,834,0,0
546,190,0,0,0,0,0,0,0,0,0,-1,1770,834,0,0
553,190,0,0,0,0,0,0,0,0,0,-1,1777,834,0,0
560,190,0,0,0,0,0,0,0,0,0,-1,1784,834,0,0
567,190,0,0,0,0,0,0,0,0,0,-1,1791,834,0,0
574,190,0,0,0,0,0,0,0,0,0,-1,1798,834,0,0
581,190,0,0,0,0,0,0,0,0,0,-1,1805,834,0,0
588,190,0,0,0,0,0,0,0,0,0,-1,1812,834,0,0
595,190,0,0,0,0,0,0,0,0,0,-1,1819,834,0,0
602,190,4.12439,0.685303,0,0,0,0,0,0,0,-1,1826,834,4.12435,-0.685317
609,190,4.09827,0.942139,0,0,0,0,0,0,0,-1,1833,834,4.09831,-0.942162
616,190,4.2124,0.688904,0.000395819,0.0010434,-0.000877936,0.00165535,-0.000216133,-0.962063,0.00118221,0.0399076,1840,834,4.21242,-0.688902
623,190,4.08777,0.617737,-0.000294471,-0.000183171,-0.0009119,0.000674775,-0.00115242,-0.815874,0.00106688,0.0386308,1847,834,4.08777,-0.61775
630,190,4.01563,0.63446,-0.000841636,-0.00124232,-0.00125138,0.000225338,-0.0023093,-0.706023,0.00161988,0.0408792,1854,834,4.01558,-0.634465
637,190,4.16797,0.663025,-0.00124704,-0.00206412,-0.00161551,1.07897e-05,-0.00332195,-0.661553,0.00221824,0.0344398,1861,834,4.16794,-0.663032
644,190,4.20337,0.709717,-0.00151456,-0.00268798,-0.00188546,-0.000126639,-0.00407591,-0.634558,0.00267606,0.0264488,1868,834,4.20333,-0.709733
651,190,4.2616,0.791199,-0.00173692,-0.00313963,-0.00216207,-0.000165292,-0.00471125,-0.628558,0.00308721,0.0362048,1875,834,4.26163,-0.791188
658,190,3.39172,1.58765,0,0,0,0,0,0,0,-1,1882,834,3.39167,-1.58762
665,190,3.60657,1.28082,-0.00168482,-0.00340253,-0.00268045,0.00027101,-0.00535836,-0.630359,0.00366592,0.039389,1889,834,3.60653,-1.2808
672,190,3.71179,0.756409,-0.00165765,-0.00324661,-0.00269433,0.000356887,-0.00526115,-0.642026,0.00363224,0.0315498,1896,834,3.71183,-0.756433
679,190,3.80664,0.562622,-0.00160759,-0.00296204,-0.00260248,0.000404342,-0.00497397,-0.65811,0.00345865,0.016734,1903,834,3.80663,-0.562624
686,190,3.79932,0.544495,-0.00153485,-0.00264481,-0.00233966,0.000314747,-0.00449441,-0.668948,0.00310651,0.0096737,1910,834,3.79929,-0.544522
693,190,3.79517,0.565063,-0.00115656,-0.00220039,-0.00183432,0.000228646,-0.00358559,-0.646797,0.00247014,0.0121349,1917,834,3.79514,-0.565036
700,190,3.78748,0.617432,-0.00129612,-0.00146873,-0.00118222,-0.000197061,-0.0025678,-0.748962,0.0016501,0.0121794,1924,834,3.78745,-0.617408
707,190,3.81494,0.639343,-0.00224744,-0.000766565,-0.000641168,-0.000527542,-0.00248646,-1.21396,0.00151277,0.0129616,1931,834,3.81498,-0.63936
714,190,3.81396,0.645874,-0.00419833,8.89807e-05,-0.000177065,9.62808e-05,-0.00420563,-1.52959,0.00283639,0.0107504,1938,834,3.81393,-0.645894
721,190,3.81018,0.661804,-0.0063773,0.00190338,0.000500519,0.00193353,-0.00640744,1.51064,0.00504129,0.0102328,1945,834,3.81023,-0.661784
728,190,3.80579,0.672607,-0.00925135,0.00313128,0.000913725,0.00319834,-0.00931841,1.49753,0.00750898,0.0123888,1952,834,3.80578,-0.672597
735,190,3.80188,0.701355,-0.0126655,0.00496469,0.00100269,0.00502154,-0.0127224,1.51417,0.0105612,0.0120542,1959,834,3.80194,-0.701355
742,190,3.80444,0.79718,-0.0172031,0.00730947,0.000878008,0.00734088,-0.0172345,1.53504,0.0145669,0.0162115,1966,834,3.80441,-0.79719
749,190,3.84399,1.12439,-0.0228408,0.0102977,0.000435555,0.0103034,-0.0228465,1.55766,0.0195905,0.0375951,1973,834,3.84402,-1.1244
756,190,3.71606,1.43561,-0.0293428,0.0140423,-0.000344074,0.014045,-0.0293455,-1.56287,0.0255654,0.0450389,1980,834,3.71605,-1.43563
763,190,3.495,1.47485,-0.0364954,0.0185626,-0.00154211,0.0186058,-0.0365386,-1.54282,0.0323939,0.0457895,1987,834,3.49502,-1.47486
770,190,3.35889,1.57233,0,0,0,0,0,0,0,-1,1994,834,3.35889,-1.57235
777,190,3.59399,1.47839,0,0,0,0,0,0,0,-1,2001,834,3.594,-1.47839
784,190,0,0,0,0,0,0,0,0,0,-1,2008,834,0,0
791,190,0,0,0,0,0,0,0,0,0,-1,2015,834,0,0
798,190,0,0,0,0,0,0,0,0,0,-1,2022,834,0,0
805,190,0,0,0,0,0,0,0,0,0,-1,2029,834,0,0
812,190,0,0,0,0,0,0,0,0,0,-1,2036,834,0,0
-700,183,0,0,0,0,0,0,0,0,0,-1,524,841,0,0
-693,183,0,0,0,0,0,0,0,0,0,-1,531,841,0,0
-686,183,0,0,0,0,0,0,0,0,0,-1,538,841,0,0
-679,183,0,0,0,0,0,0,0,0,0,-1,545,841,0,0
-672,183,0,0,0,0,0,0,0,0,0,-1,552,841,0,0
-665,183,0,0,0,0,0,0,0,0,0,-1,559,841,0,0
-658,183,1.04858,-1.07446,-0.0235591,-0.0132261,0.0487224,0.030603,-0.0673881,0.83822,0.0578887,0.0464139,566,841,1.04856,1.07446
-651,183,0.477234,-0.323364,-0.0212894,-0.0106658,0.0366322,0.0210377,-0.0529929,0.857398,0.0440489,0.0487017,573,841,0.477214,0.323358
-644,183,-0.0853882,-0.00543213,-0.0184006,-0.00851384,0.0275871,0.0145693,-0.0414837,0.874053,0.0335827,0.0468853,580,841,-0.0854018,0.00542097
-637,183,-0.373535,0.186157,-0.01528,-0.0067143,0.0207034,0.0101446,-0.0321389,0.887393,0.0254895,0.0464223,587,841,-0.373533,-0.186144
-630,183,-0.588623,1.00043,-0.012202,-0.00521996,0.015381,0.00706123,-0.0244832,0.896992,0.0191157,0.0435806,594,841,-0.588652,-1.00044
-623,183,-0.887939,1.33563,-0.00933649,-0.00398757,0.0112264,0.00487857,-0.0182026,0.902333,0.0140466,0.044884,601,841,-0.887954,-1.33562
-616,183,-0.39093,0.853699,0,0,0,0,0,0,0,-1,608,841,-0.390958,-0.853724
-609,183,-0.387329,0.798279,-0.00530197,-0.00209124,0.00463044,0.00120423,-0.00859743,0.952264,0.00617232,0.0154604,615,841,-0.387338,-0.798255
-602,183,-0.368469,0.773193,-0.00334702,-0.0011766,0.00278478,0.000726949,-0.00525056,0.971193,0.00376615,0.00983974,622,841,-0.368466,-0.773166
-595,183,-0.355713,0.752502,-0.0016822,-0.000988686,0.00193927,0.000634583,-0.00330547,0.873868,0.00244281,0.0100474,629,841,-0.355712,-0.752498
-588,183,-0.350159,0.732727,-0.000891883,-0.000818916,0.0015634,0.00070843,-0.00241923,0.797064,0.00189366,0.00985407,636,841,-0.350141,-0.732705
-581,183,-0.345764,0.701477,-0.000396321,-0.00077006,0.00147276,0.000901381,-0.00206776,0.722293,0.00175777,0.0107423,643,841,-0.345786,-0.701471
-574,183,-0.336243,0.664917,-0.000508463,-0.000991607,0.00156489,0.000833387,-0.00233346,0.708817,0.00189552,0.0108099,650,841,-0.33627,-0.664898
-567,183,-0.326172,0.645325,-0.000797987,-0.00105495,0.00188354,0.000961443,-0.00281438,0.751344,0.00226578,0.010869,657,841,-0.326142,-0.645347
-560,183,-0.351624,0.626709,-0.00113453,-0.00125546,0.00234228,0.00114807,-0.00353806,0.772493,0.00282039,0.0117199,664,841,-0.351596,-0.626703
-553,183,-0.355164,0.596069,-0.00148177,-0.00148642,0.0029973,0.0015132,-0.0044814,0.78501,0.00359963,0.0107552,671,841,-0.355191,-0.596054
-546,183,-0.313354,0.59082,-0.0018299,-0.00142338,0.00355977,0.00193892,-0.00519221,0.813917,0.00425758,0.0228123,678,841,-0.313382,-0.59085
-539,183,0.132141,0.571533,-0.00211331,-0.00157541,0.003913,0.00207787,-0.00576659,0.81971,0.00469294,0.0408522,685,841,0.132138,-0.571536
-532,183,-0.337097,0.366516,0,0,0,0,0,0,0,-1,692,841,-0.337122,-0.366533
-525,183,-0.890076,0.825562,0,0,0,0,0,0,0,-1,699,841,-0.890099,-0.825534
-518,183,-0.877319,0.901978,-0.00222191,-0.000823684,0.00385117,0.00239131,-0.0054369,0.875187,0.00463224,0.047918,706,841,-0.877304,-0.901955
-511,183,-0.839478,0.736633,-0.00202628,-9.32967e-05,0.0033661,0.00244231,-0.00456189,0.9252,0.00410513,0.0402804,713,841,-0.839502,-0.736625
-504,183,-0.791321,0.652893,-0.00150564,0.00100226,0.00249441,0.00254016,-0.00304354,1.0183,0.00322812,0.0432502,720,841,-0.791325,-0.652901
-497,183,-0.725647,0.622375,0,0,0,0,0,0,0,-1,727,841,-0.725644,-0.622352
-490,183,-0.804138,1.2876,0,0,0,0,0,0,0,-1,734,841,-0.804152,-1.28759
-483,183,0,0,0,0,0,0,0,0,0,-1,741,841,0,0
-476,183,0,0,0,0,0,0,0,0,0,-1,748,841,0,0
-469,183,0,0,0,0,0,0,0,0,0,-1,755,841,0,0
-462,183,0,0,0,0,0,0,0,0,0,-1,762,841,0,0
-455,183,0,0,0,0,0,0,0,0,0,-1,769,841,0,0
-448,183,0,0,0,0,0,0,0,0,0,-1,776,841,0,0
-441,183,0,0,0,0,0,0,0,0,0,-1,783,841,0,0
-434,183,0,0,0,0,0,0,0,0,0,-1,790,841,0,0
-427,183,0,0,0,0,0,0,0,0,0,-1,797,841,0,0
-420,183,0,0,0,0,0,0,0,0,0,-1,804,841,0,0
-413,183,0,0,0,0,0,0,0,0,0,-1,811,841,0,0
-406,183,0,0,0,0,0,0,0,0,0,-1,818,841,0,0
-399,183,0,0,0,0,0,0,0,0,0,-1,825,841,0,0
-392,183,0,0,0,0,0,0,0,0,0,-1,832,841,0,0
-385,183,0,0,0,0,0,0,0,0,0,-1,839,841,0,0
-378,183,0,0,0,0,0,0,0,0,0,-1,846,841,0,0
-371,183,0,0,0,0,0,0,0,0,0,-1,853,841,0,0
-364,183,0,0,0,0,0,0,0,0,0,-1,860,841,0,0
-357,183,0,0,0,0,0,0,0,0,0,-1,867,841,0,0
-350,183,0,0,0,0,0,0,0,0,0,-1,874,841,0,0
-343,183,0,0,0,0,0,0,0,0,0,-1,881,841,0,0
-336,183,0,0,0,0,0,0,0,0,0,-1,888,841,0,0
-329,183,0,0,0,0,0,0,0,0,0,-1,895,841,0,0
-322,183,0,0,0,0,0,0,0,0,0,-1,902,841,0,0
-315,183,0,0,0,0,0,0,0,0,0,-1,909,841,0,0
-308,183,0,0,0,0,0,0,0,0,0,-1,916,841,0,0
-301,183,0,0,0,0,0,0,0,0,0,-1,923,841,0,0
-294,183,0,0,0,0,0,0,0,0,0,-1,930,841,0,0
-287,183,0,0,0,0,0,0,0,0,0,-1,937,841,0,0
-280,183,0,0,0,0,0,0,0,0,0,-1,944,841,0,0
-273,183,0,0,0,0,0,0,0,0,0,-1,951,841,0,0
-266,183,0,0,0,0,0,0,0,0,0,-1,958,841,0,0
-259,183,0,0,0,0,0,0,0,0,0,-1,965,841,0,0
-252,183,0,0,0,0,0,0,0,0,0,-1,972,841,0,0
-245,183,0,0,0,0,0,0,0,0,0,-1,979,841,0,0
-238,183,0,0,0,0,0,0,0,0,0,-1,986,841,0,0
-231,183,0,0,0,0,0,0,0,0,0,-1,993,841,0,0
-224,183,0,0,0,0,0,0,0,0,0,-1,1000,841,0,0
-217,183,0,0,0,0,0,0,0,0,0,-1,1007,841,0,0
-210,183,0,0,0,0,0,0,0,0,0,-1,1014,841,0,0
-203,183,0,0,0,0,0,0,0,0,0,-1,1021,841,0,0
-196,183,0,0,0,0,0,0,0,0,0,-1,1028,841,0,0
-189,183,0,0,0,0,0,0,0,0,0,-1,1035,841,0,0
-182,183,0,0,0,0,0,0,0,0,0,-1,1042,841,0,0
-175,183,0,0,0,0,0,0,0,0,0,-1,1049,841,0,0
-168,183,0,0,0,0,0,0,0,0,0,-1,1056,841,0,0
-161,183,0,0,0,0,0,0,0,0,0,-1,1063,841,0,0
-154,183,0,0,0,0,0,0,0,0,0,-1,1070,841,0,0
-147,183,0,0,0,0,0,0,0,0,0,-1,1077,841,0,0
-140,183,0,0,0,0,0,0,0,0,0,-1,1084,841,0,0
-133,183,0,0,0,0,0,0,0,0,0,-1,1091,841,0,0
-126,183,0,0,0,0,0,0,0,0,0,-1,1098,841,0,0
-119,183,0,0,0,0,0,0,0,0,0,-1,1105,841,0,0
-112,183,0,0,0,0,0,0,0,0,0,-1,1112,841,0,0
-105,183,0,0,0,0,0,0,0,0,0,-1,1119,841,0,0
-98,183,0,0,0,0,0,0,0,0,0,-1,1126,841,0,0
-91,183,0,0,0,0,0,0,0,0,0,-1,1133,841,0,0
-84,183,0,0,0,0,0,0,0,0,0,-1,1140,841,0,0
-77,183,0,0,0,0,0,0,0,0,0,-1,1147,841,0,0
-70,183,0,0,0,0,0,0,0,0,0,-1,1154,841,0,0
-63,183,0,0,0,0,0,0,0,0,0,-1,1161,841,0,0
-56,183,0,0,0,0,0,0,0,0,0,-1,1168,841,0,0
-49,183,0,0,0,0,0,0,0,0,0,-1,1175,841,0,0
-42,183,0,0,0,0,0,0,0,0,0,-1,1182,841,0,0
-35,183,0,0,0,0,0,0,0,0,0,-1,1189,841,0,0
-28,183,0,0,0,0,0,0,0,0,0,-1,1196,841,0,0
-21,183,0,0,0,0,0,0,0,0,0,-1,1203,841,0,0
-14,183,0,0,0,0,0,0,0,0,0,-1,1210,841,0,0
-7,183,0,0,0,0,0,0,0,0,0,-1,1217,841,0,0
0,183,0,0,0,0,0,0,0,0,0,-1,1224,841,0,0
7,183,0,0,0,0,0,0,0,0,0,-1,1231,841,0,0
14,183,0,0,0,0,0,0,0,0,0,-1,1238,841,0,0
21,183,0,0,0,0,0,0,0,0,0,-1,1245,841,0,0
28,183,0,0,0,0,0,0,0,0,0,-1,1252,841,0,0
35,183,0,0,0,0,0,0,0,0,0,-1,1259,841,0,0
42,183,0,0,0,0,0,0,0,0,0,-1,1266,841,0,0
49,183,0,0,0,0,0,0,0,0,0,-1,1273,841,0,0
56,183,0,0,0,0,0,0,0,0,0,-1,1280,841,0,0
63,183,0,0,0,0,0,0,0,0,0,-1,1287,841,0,0
70,183,0,0,0,0,0,0,0,0,0,-1,1294,841,0,0
77,183,0,0,0,0,0,0,0,0,0,-1,1301,841,0,0
84,183,0,0,0,0,0,0,0,0,0,-1,1308,841,0,0
91,183,0,0,0,0,0,0,0,0,0,-1,1315,841,0,0
98,183,0,0,0,0,0,0,0,0,0,-1,1322,841,0,0
105,183,0,0,0,0,0,0,0,0,0,-1,1329,841,0,0
112,183,0,0,0,0,0,0,0,0,0,-1,1336,841,0,0
119,183,0,0,0,0,0,0,0,0,0,-1,1343,841,0,0
126,183,0,0,0,0,0,0,0,0,0,-1,1350,841,0,0
133,183,0,0,0,0,0,0,0,0,0,-1,1357,841,0,0
140,183,0,0,0,0,0,0,0,0,0,-1,1364,841,0,0
147,183,0,0,0,0,0,0,0,0,0,-1,1371,841,0,0
154,183,0,0,0,0,0,0,0,0,0,-1,1378,841,0,0
161,183,0,0,0,0,0,0,0,0,0,-1,1385,841,0,0
168,183,0,0,0,0,0,0,0,0,0,-1,1392,841,0,0
175,183,0,0,0,0,0,0,0,0,0,-1,1399,841,0,0
182,183,0,0,0,0,0,0,0,0,0,-1,1406,841,0,0
189,183,0,0,0,0,0,0,0,0,0,-1,1413,841,0,0
196,183,0,0,0,0,0,0,0,0,0,-1,1420,841,0,0
203,183,0,0,0,0,0,0,0,0,0,-1,1427,841,0,0
210,183,0,0,0,0,0,0,0,0,0,-1,1434,841,0,0
217,183,0,0,0,0,0,0,0,0,0,-1,1441,841,0,0
224,183,0,0,0,0,0,0,0,0,0,-1,1448,841,0,0
231,183,0,0,0,0,0,0,0,0,0,-1,1455,841,0,0
238,183,0,0,0,0,0,0,0,0,0,-1,1462,841,0,0
245,183,0,0,0,0,0,0,0,0,0,-1,1469,841,0,0
252,183,0,0,0,0,0,0,0,0,0,-1,1476,841,0,0
259,183,0,0,0,0,0,0,0,0,0,-1,1483,841,0,0
266,183,0,0,0,0,0,0,0,0,0,-1,1490,841,0,0
273,183,0,0,0,0,0,0,0,0,0,-1,1497,841,0,0
280,183,0,0,0,0,0,0,0,0,0,-1,1504,841,0,0
287,183,0,0,0,0,0,0,0,0,0,-1,1511,841,0,0
294,183,0,0,0,0,0,0,0,0,0,-1,1518,841,0,0
301,183,0,0,0,0,0,0,0,0,0,-1,1525,841,0,0
308,183,0,0,0,0,0,0,0,0,0,-1,1532,841,0,0
315,183,0,0,0,0,0,0,0,0,0,-1,1539,841,0,0
322,183,0,0,0,0,0,0,0,0,0,-1,1546,841,0,0
329,183,0,0,0,0,0,0,0,0,0,-1,1553,841,0,0
336,183,0,0,0,0,0,0,0,0,0,-1,1560,841,0,0
343,183,0,0,0,0,0,0,0,0,0,-1,1567,841,0,0
350,183,0,0,0,0,0,0,0,0,0,-1,1574,841,0,0
357,183,0,0,0,0,0,0,0,0,0,-1,1581,841,0,0
364,183,0,0,0,0,0,0,0,0,0,-1,1588,841,0,0
371,183,0,0,0,0,0,0,0,0,0,-1,1595,841,0,0
378,183,0,0,0,0,0,0,0,0,0,-1,1602,841,0,0
385,183,0,0,0,0,0,0,0,0,0,-1,1609,841,0,0
392,183,0,0,0,0,0,0,0,0,0,-1,1616,841,0,0
399,183,0,0,0,0,0,0,0,0,0,-1,1623,841,0,0
406,183,0,0,0,0,0,0,0,0,0,-1,1630,841,0,0
413,183,0,0,0,0,0,0,0,0,0,-1,1637,841,0,0
420,183,0,0,0,0,0,0,0,0,0,-1,1644,841,0,0
427,183,0,0,0,0,0,0,0,0,0,-1,1651,841,0,0
434,183,0,0,0,0,0,0,0,0,0,-1,1658,841,0,0
441,183,0,0,0,0,0,0,0,0,0,-1,1665,841,0,0
448,183,0,0,0,0,0,0,0,0,0,-1,1672,841,0,0
455,183,0,0,0,0,0,0,0,0,0,-1,1679,841,0,0
462,183,0,0,0,0,0,0,0,0,0,-1,1686,841,0,0
469,183,0,0,0,0,0,0,0,0,0,-1,1693,841,0,0
476,183,0,0,0,0,0,0,0,0,0,-1,1700,841,0,0
483,183,0,0,0,0,0,0,0,0,0,-1,1707,841,0,0
490,183,0,0,0,0,0,0,0,0,0,-1,1714,841,0,0
497,183,0,0,0,0,0,0,0,0,0,-1,1721,841,0,0
504,183,0,0,0,0,0,0,0,0,0,-1,1728,841,0,0
511,183,0,0,0,0,0,0,0,0,0,-1,1735,841,0,0
518,183,0,0,0,0,0,0,0,0,0,-1,1742,841,0,0
525,183,0,0,0,0,0,0,0,0,0,-1,1749,841,0,0
532,183,0,0,0,0,0,0,0,0,0,-1,1756,841,0,0
539,183,0,0,0,0,0,0,0,0,0,-1,1763,841,0,0
546,183,0,0,0,0,0,0,0,0,0,-1,1770,841,0,0
553,183,0,0,0,0,0,0,0,0,0,-1,1777,841,0,0
560,183,0,0,0,0,0,0,0,0,0,-1,1784,841,0,0
567,183,0,0,0,0,0,0,0,0,0,-1,1791,841,0,0
574,183,0,0,0,0,0,0,0,0,0,-1,1798,841,0,0
581,183,0,0,0,0,0,0,0,0,0,-1,1805,841,0,0
588,183,0,0,0,0,0,0,0,0,0,-1,1812,841,0,0
595,183,0,0,0,0,0,0,0,0,0,-1,1819,841,0,0
602,183,0,0,0,0,0,0,0,0,0,-1,1826,841,0,0
609,183,4.3429,0.721924,0.00344769,0.00197862,-0.00164674,0.00451629,0.000910021,-0.575615,0.00275803,0.0411707,1833,841,4.34286,-0.721922
616,183,4.27722,0.581543,0.00202787,0.00175269,-0.00140217,0.00329918,0.000481378,-0.736492,0.00205785,0.0391349,1840,841,4.27725,-0.581536
623,183,4.06128,0.533813,0.00103278,0.000382081,-0.00128027,0.0020284,-0.000613535,-0.660969,0.00159657,0.0425407,1847,841,4.06131,-0.533841
630,183,4.05444,0.480774,0.000148649,-0.000775553,-0.00161655,0.00136785,-0.00199476,-0.646183,0.00195262,0.0421631,1854,841,4.05447,-0.480744
637,183,4.19348,0.595703,-0.000603115,-0.0016997,-0.00201945,0.000941155,-0.00324397,-0.652841,0.00253528,0.0359593,1861,841,4.19348,-0.595731
644,183,4.16541,0.685242,-0.00116088,-0.00238494,-0.00234492,0.000650569,-0.00419638,-0.657745,0.00303776,0.026923,1868,841,4.16543,-0.685242
651,183,4.20349,0.782043,-0.00158643,-0.00285482,-0.00264293,0.000497331,-0.00493858,-0.667645,0.00347006,0.024094,1875,841,4.20349,-0.782029
658,183,4.35681,0.715759,-0.001823,-0.00308698,-0.00292053,0.000533135,-0.00544312,-0.678843,0.00381888,0.041908,1882,841,4.35683,-0.715773
665,183,3.69348,1.63806,0,0,0,0,0,0,0,-1,1889,841,3.69347,-1.63808
672,183,3.797,1.17365,-0.00193642,-0.00297313,-0.00306966,0.000658342,-0.00556789,-0.701756,0.00394971,0.0387841,1896,841,3.79705,-1.17363
679,183,3.79688,0.570068,-0.0019559,-0.00274854,-0.00290685,0.000581522,-0.00528596,-0.717647,0.00373295,0.0270611,1903,841,3.79685,-0.570077
686,183,3.81946,0.531738,-0.00193095,-0.00243698,-0.0026205,0.000448714,-0.00481665,-0.737271,0.00337064,0.0118838,1910,841,3.81951,-0.531719
693,183,3.83105,0.579285,-0.00159172,-0.00199913,-0.00215692,0.000371097,-0.00396195,-0.738317,0.00277328,0.0110087,1917,841,3.83102,-0.579283
700,183,3.85181,0.621338,-0.00167797,-0.00127653,-0.00157803,0.000113492,-0.00306799,-0.848657,0.00208419,0.0160474,1924,841,3.85183,-0.621328
707,183,3.83496,0.632019,-0.0024836,-0.000513991,-0.00108504,-3.34786e-05,-0.00296411,-1.1539,0.00196501,0.0126189,1931,841,3.83495,-0.632002
714,183,3.84326,0.635742,-0.00409497,0.000438264,-0.000694686,0.000542331,-0.00419904,-1.4221,0.00299654,0.016105,1938,841,3.84322,-0.635745
721,183,3.83118,0.652466,-0.00581852,0.00247133,-0.000177704,0.00247514,-0.00582233,-1.54937,0.00491876,0.0140287,1945,841,3.83116,-0.652454
728,183,3.8324,0.674988,-0.00817435,0.00388168,5.70709e-05,0.00388195,-0.00817462,1.56606,0.00710641,0.0113192,1952,841,3.83239,-0.675011
735,183,3.83533,0.694397,-0.0108252,0.0060678,-9.53417e-05,0.00606834,-0.0108257,-1.56515,0.00988185,0.0115737,1959,841,3.83538,-0.694387
742,183,3.83374,0.749695,-0.0143708,0.00860963,-0.000456305,0.00861868,-0.0143798,-1.55095,0.0134163,0.0108932,1966,841,3.83378,-0.749703
749,183,3.82043,1.02032,-0.0187855,0.0118893,-0.00117413,0.0119342,-0.0188304,-1.53259,0.0179101,0.0300902,1973,841,3.82038,-1.02031
756,183,3.79089,1.3316,-0.023791,0.0159112,-0.00221081,0.0160339,-0.0239138,-1.51534,0.0232129,0.0445714,1980,841,3.7909,-1.33158
763,183,3.72998,1.68323,-0.0291961,0.0206578,-0.00361115,0.020918,-0.0294563,-1.49886,0.0292226,0.047309,1987,841,3.72994,-1.68325
770,183,3.68945,2.00873,0,0,0,0,0,0,0,-1,1994,841,3.68943,-2.00875
777,183,4.03882,1.89423,0,0,0,0,0,0,0,-1,2001,841,4.03882,-1.89421
784,183,0,0,0,0,0,0,0,0,0,-1,2008,841,0,0
791,183,0,0,0,0,0,0,0,0,0,-1,2015,841,0,0
798,183,0,0,0,0,0,0,0,0,0,-1,2022,841,0,0
805,183,0,0,0,0,0,0,0,0,0,-1,2029,841,0,0
812,183,0,0,0,0,0,0,0,0,0,-1,2036,841,0,0
-700,176,0,0,0,0,0,0,0,0,0,-1,524,848,0,0
-693,176,0,0,0,0,0,0,0,0,0,-1,531,848,0,0
-686,176,0,0,0,0,0,0,0,0,0,-1,538,848,0,0
-679,176,0,0,0,0,0,0,0,0,0,-1,545,848,0,0
-672,176,0,0,0,0,0,0,0,0,0,-1,552,848,0,0
-665,176,1.55042,-1.68054,-0.0150265,-0.0141649,0.0619949,0.0474006,-0.0765921,0.788873,0.0722455,0.0468414,559,848,1.55041,1.68055
-658,176,0.950439,-0.772034,-0.0167741,-0.0114688,0.0461769,0.0321316,-0.0603745,0.814089,0.0542318,0.0482,566,848,0.950443,0.772056
-651,176,0.424622,-0.241516,-0.0164877,-0.00902161,0.0345432,0.0219897,-0.047499,0.839224,0.0410105,0.0490524,573,848,0.424593,0.241528
-644,176,-0.145569,-0.036499,0,0,0,0,0,0,0,-1,580,848,-0.145598,0.0365281
-637,176,-0.326355,0.433533,-0.0133072,-0.00514869,0.0191482,0.01035,-0.0288059,0.890347,0.0234288,0.0445751,587,848,-0.326378,-0.433537
-630,176,-0.525574,0.618591,-0.0111659,-0.00368269,0.0140171,0.00708363,-0.0219322,0.915823,0.0174682,0.0430148,594,848,-0.525583,-0.618615
-623,176,-0.556091,0.684753,-0.00896305,-0.00250265,0.0100477,0.00482128,-0.016287,0.940924,0.0127721,0.0404762,601,848,-0.556096,-0.684784
-616,176,-0.450134,0.894653,-0.00713685,-0.00176987,0.00693184,0.00297977,-0.0118865,0.970077,0.00908202,0.0260664,608,848,-0.450154,-0.894631
-609,176,-0.383362,0.81665,-0.00587373,-0.000874393,0.00371436,0.00110309,-0.0078512,1.08158,0.00563792,0.0104286,615,848,-0.383385,-0.816672
-602,176,-0.38501,0.775879,-0.0040858,-0.000131503,0.00207344,0.000756358,-0.00497366,1.16621,0.00359452,0.0111027,622,848,-0.385025,-0.775861
-595,176,-0.388306,0.740173,-0.00247377,-0.000152576,0.00151853,0.000598084,-0.00322443,1.11169,0.00237423,0.0108111,629,848,-0.388335,-0.740166
-588,176,-0.36676,0.719727,-0.00170147,-0.000108514,0.00140308,0.000708394,-0.00251838,1.04355,0.00195823,0.0104707,636,848,-0.366768,-0.71972
-581,176,-0.361816,0.706726,-0.00118676,-0.000217761,0.00142057,0.00079866,-0.00220318,0.949743,0.00179524,0.0103562,643,848,-0.361826,-0.706702
-574,176,-0.354736,0.677246,-0.00125279,-0.000629062,0.00159728,0.000686517,-0.00256837,0.881809,0.00198114,0.0121668,650,848,-0.354713,-0.677262
-567,176,-0.337158,0.656128,-0.00140936,-0.000961914,0.0020095,0.00083628,-0.00320755,0.840836,0.00246488,0.0122729,657,848,-0.33716,-0.656149
-560,176,-0.366821,0.626953,-0.00162448,-0.00129428,0.00245491,0.00100108,-0.00391983,0.818974,0.00300305,0.0104903,664,848,-0.366848,-0.626959
-553,176,-0.384949,0.61499,-0.00182939,-0.0014777,0.00297826,0.00132989,-0.00463699,0.814885,0.00361706,0.018155,671,848,-0.384979,-0.614978
-546,176,-0.374878,0.641479,-0.00196507,-0.00133763,0.00340707,0.00177013,-0.00507284,0.831308,0.00410131,0.0303413,678,848,-0.374855,-0.641466
-539,176,-0.442322,0.786377,-0.0019686,-0.00137789,0.00359246,0.00193133,-0.00527783,0.826413,0.0043091,0.0370009,685,848,-0.44235,-0.786394
-532,176,-0.428589,1.02307,0,0,0,0,0,0,0,-1,692,848,-0.428576,-1.02309
-525,176,-0.857544,0.920959,0,0,0,0,0,0,0,-1,699,848,-0.857525,-0.920947
-518,176,-0.971558,0.790894,-0.00103756,-0.000147346,0.00275095,0.00219427,-0.00337918,0.865603,0.00324198,0.0477701,706,848,-0.971561,-0.790898
-511,176,-0.880737,0.518005,-0.000377684,0.000840198,0.0018856,0.00221274,-0.00175023,0.941583,0.00229321,0.0408259,713,848,-0.880734,-0.518013
-504,176,-0.840393,0.721985,0.000593139,0.00225587,0.000572488,0.00243391,0.000415093,1.26927,0.00150347,0.0410841,720,848,-0.8404,-0.72201
-497,176,-0.865662,1.13599,0.00188655,0.00420408,-0.00125437,0.004753,0.00133763,-1.1583,0.00283019,0.0417003,727,848,-0.865632,-1.13597
-490,176,-0.810547,1.18762,0,0,0,0,0,0,0,-1,734,848,-0.810572,-1.18763
-483,176,0,0,0,0,0,0,0,0,0,-1,741,848,0,0
-476,176,0,0,0,0,0,0,0,0,0,-1,748,848,0,0
-469,176,0,0,0,0,0,0,0,0,0,-1,755,848,0,0
-462,176,0,0,0,0,0,0,0,0,0,-1,762,848,0,0
-455,176,0,0,0,0,0,0,0,0,0,-1,769,848,0,0
-448,176,0,0,0,0,0,0,0,0,0,-1,776,848,0,0
-441,176,0,0,0,0,0,0,0,0,0,-1,783,848,0,0
-434,176,0,0,0,0,0,0,0,0,0,-1,790,848,0,0
-427,176,0,0,0,0,0,0,0,0,0,-1,797,848,0,0
-420,176,0,0,0,0,0,0,0,0,0,-1,804,848,0,0
-413,176,0,0,0,0,0,0,0,0,0,-1,811,848,0,0
-406,176,0,0,0,0,0,0,0,0,0,-1,818,848,0,0
-399,176,0,0,0,0,0,0,0,0,0,-1,825,848,0,0
-392,176,0,0,0,0,0,0,0,0,0,-1,832,848,0,0
-385,176,0,0,0,0,0,0,0,0,0,-1,839,848,0,0
-378,176,0,0,0,0,0,0,0,0,0,-1,846,848,0,0
-371,176,0,0,0,0,0,0,0,0,0,-1,853,848,0,0
-364,176,0,0,0,0,0,0,0,0,0,-1,860,848,0,0
-357,176,0,0,0,0,0,0,0,0,0,-1,867,848,0,0
-350,176,0,0,0,0,0,0,0,0,0,-1,874,848,0,0
-343,176,0,0,0,0,0,0,0,0,0,-1,881,848,0,0
-336,176,0,0,0,0,0,0,0,0,0,-1,888,848,0,0
-329,176,0,0,0,0,0,0,0,0,0,-1,895,848,0,0
-322,176,0,0,0,0,0,0,0,0,0,-1,902,848,0,0
-315,176,0,0,0,0,0,0,0,0,0,-1,909,848,0,0
-308,176,0,0,0,0,0,0,0,0,0,-1,916,848,0,0
-301,176,0,0,0,0,0,0,0,0,0,-1,923,848,0,0
-294,176,0,0,0,0,0,0,0,0,0,-1,930,848,0,0
-287,176,0,0,0,0,0,0,0,0,0,-1,937,848,0,0
-280,176,0,0,0,0,0,0,0,0,0,-1,944,848,0,0
-273,176,0,0,0,0,0,0,0,0,0,-1,951,848,0,0
-266,176,0,0,0,0,0,0,0,0,0,-1,958,848,0,0
-259,176,0,0,0,0,0,0,0,0,0,-1,965,848,0,0
-252,176,0,0,0,0,0,0,0,0,0,-1,972,848,0,0
-245,176,0,0,0,0,0,0,0,0,0,-1,979,848,0,0
-238,176,0,0,0,0,0,0,0,0,0,-1,986,848,0,0
-231,176,0,0,0,0,0,0,0,0,0,-1,993,848,0,0
-224,176,0,0,0,0,0,0,0,0,0,-1,1000,848,0,0
-217,176,0,0,0,0,0,0,0,0,0,-1,1007,848,0,0
-210,176,0,0,0,0,0,0,0,0,0,-1,1014,848,0,0
-203,176,0,0,0,0,0,0,0,0,0,-1,1021,848,0,0
-196,176,0,0,0,0,0,0,0,0,0,-1,1028,848,0,0
-189,176,0,0,0,0,0,0,0,0,0,-1,1035,848,0,0
-182,176,0,0,0,0,0,0,0,0,0,-1,1042,848,0,0
-175,176,0,0,0,0,0,0,0,0,0,-1,1049,848,0,0
-168,176,0,0,0,0,0,0,0,0,0,-1,1056,848,0,0
-161,176,0,0,0,0,0,0,0,0,0,-1,1063,848,0,0
-154,176,0,0,0,0,0,0,0,0,0,-1,1070,848,0,0
-147,176,0,0,0,0,0,0,0,0,0,-1,1077,848,0,0
-140,176,0,0,0,0,0,0,0,0,0,-1,1084,848,0,0
-133,176,0,0,0,0,0,0,0,0,0,-1,1091,848,0,0
-126,176,0,0,0,0,0,0,0,0,0,-1,1098,848,0,0
-119,176,0,0,0,0,0,0,0,0,0,-1,1105,848,0,0
-112,176,0,0,0,0,0,0,0,0,0,-1,1112,848,0,0
-105,176,0,0,0,0,0,0,0,0,0,-1,1119,848,0,0
-98,176,0,0,0,0,0,0,0,0,0,-1,1126,848,0,0
-91,176,0,0,0,0,0,0,0,0,0,-1,1133,848,0,0
-84,176,0,0,0,0,0,0,0,0,0,-1,1140,848,0,0
-77,176,0,0,0,0,0,0,0,0,0,-1,1147,848,0,0
-70,176,0,0,0,0,0,0,0,0,0,-1,1154,848,0,0
-63,176,0,0,0,0,0,0,0,0,0,-1,1161,848,0,0
-56,176,0,0,0,0,0,0,0,0,0,-1,1168,848,0,0
-49,176,0,0,0,0,0,0,0,0,0,-1,1175,848,0,0
-42,176,0,0,0,0,0,0,0,0,0,-1,1182,848,0,0
-35,176,0,0,0,0,0,0,0,0,0,-1,1189,848,0,0
-28,176,0,0,0,0,0,0,0,0,0,-1,1196,848,0,0
-21,176,0,0,0,0,0,0,0,0,0,-1,1203,848,0,0
-14,176,0,0,0,0,0,0,0,0,0,-1,1210,848,0,0
-7,176,0,0,0,0,0,0,0,0,0,-1,1217,848,0,0
0,176,0,0,0,0,0,0,0,0,0,-1,1224,848,0,0
7,176,0,0,0,0,0,0,0,0,0,-1,1231,848,0,0
14,176,0,0,0,0,0,0,0,0,0,-1,1238,848,0,0
21,176,0,0,0,0,0,0,0,0,0,-1,1245,848,0,0
28,176,0,0,0,0,0,0,0,0,0,-1,1252,848,0,0
35,176,0,0,0,0,0,0,0,0,0,-1,1259,848,0,0
42,176,0,0,0,0,0,0,0,0,0,-1,1266,848,0,0
49,176,0,0,0,0,0,0,0,0,0,-1,1273,848,0,0
56,176,0,0,0,0,0,0,0,0,0,-1,1280,848,0,0
63,176,0,0,0,0,0,0,0,0,0,-1,1287,848,0,0
70,176,0,0,0,0,0,0,0,0,0,-1,1294,848,0,0
77,176,0,0,0,0,0,0,0,0,0,-1,1301,848,0,0
84,176,0,0,0,0,0,0,0,0,0,-1,1308,848,0,0
91,176,0,0,0,0,0,0,0,0,0,-1,1315,848,0,0
98,176,0,0,0,0,0,0,0,0,0,-1,1322,848,0,0
105,176,0,0,0,0,0,0,0,0,0,-1,1329,848,0,0
112,176,0,0,0,0,0,0,0,0,0,-1,1336,848,0,0
119,176,0,0,0,0,0,0,0,0,0,-1,1343,848,0,0
126,176,0,0,0,0,0,0,0,0,0,-1,1350,848,0,0
133,176,0,0,0,0,0,0,0,0,0,-1,1357,848,0,0
140,176,0,0,0,0,0,0,0,0,0,-1,1364,848,0,0
147,176,0,0,0,0,0,0,0,0,0,-1,1371,848,0,0
154,176,0,0,0,0,0,0,0,0,0,-1,1378,848,0,0
161,176,0,0,0,0,0,0,0,0,0,-1,1385,848,0,0
168,176,0,0,0,0,0,0,0,0,0,-1,1392,848,0,0
175,176,0,0,0,0,0,0,0,0,0,-1,1399,848,0,0
182,176,0,0,0,0,0,0,0,0,0,-1,1406,848,0,0
189,176,0,0,0,0,0,0,0,0,0,-1,1413,848,0,0
196,176,0,0,0,0,0,0,0,0,0,-1,1420,848,0,0
203,176,0,0,0,0,0,0,0,0,0,-1,1427,848,0,0
210,176,0,0,0,0,0,0,0,0,0,-1,1434,848,0,0
217,176,0,0,0,0,0,0,0,0,0,-1,1441,848,0,0
224,176,0,0,0,0,0,0,0,0,0,-1,1448,848,0,0
231,176,0,0,0,0,0,0,0,0,0,-1,1455,848,0,0
238,176,0,0,0,0,0,0,0,0,0,-1,1462,848,0,0
245,176,0,0,0,0,0,0,0,0,0,-1,1469,848,0,0
252,176,0,0,0,0,0,0,0,0,0,-1,1476,848,0,0
259,176,0,0,0,0,0,0,0,0,0,-1,1483,848,0,0
266,176,0,0,0,0,0,0,0,0,0,-1,1490,848,0,0
273,176,0,0,0,0,0,0,0,0,0,-1,1497,848,0,0
280,176,0,0,0,0,0,0,0,0,0,-1,1504,848,0,0
287,176,0,0,0,0,0,0,0,0,0,-1,1511,848,0,0
294,176,0,0,0,0,0,0,0,0,0,-1,1518,848,0,0
301,176,0,0,0,0,0,0,0,0,0,-1,1525,848,0,0
308,176,0,0,0,0,0,0,0,0,0,-1,1532,848,0,0
315,176,0,0,0,0,0,0,0,0,0,-1,1539,848,0,0
322,176,0,0,0,0,0,0,0,0,0,-1,1546,848,0,0
329,176,0,0,0,0,0,0,0,0,0,-1,1553,848,0,0
336,176,0,0,0,0,0,0,0,0,0,-1,1560,848,0,0
343,176,0,0,0,0,0,0,0,0,0,-1,1567,848,0,0
350,176,0,0,0,0,0,0,0,0,0,-1,1574,848,0,0
357,176,0,0,0,0,0,0,0,0,0,-1,1581,848,0,0
364,176,0,0,0,0,0,0,0,0,0,-1,1588,848,0,0
371,176,0,0,0,0,0,0,0,0,0,-1,1595,848,0,0
378,176,0,0,0,0,0,0,0,0,0,-1,1602,848,0,0
385,176,0,0,0,0,0,0,0,0,0,-1,1609,848,0,0
392,176,0,0,0,0,0,0,0,0,0,-1,1616,848,0,0
399,176,0,0,0,0,0,0,0,0,0,-1,1623,848,0,0
406,176,0,0,0,0,0,0,0,0,0,-1,1630,848,0,0
413,176,0,0,0,0,0,0,0,0,0,-1,1637,848,0,0
420,176,0,0,0,0,0,0,0,0,0,-1,1644,848,0,0
427,176,0,0,0,0,0,0,0,0,0,-1,1651,848,0,0
434,176,0,0,0,0,0,0,0,0,0,-1,1658,848,0,0
441,176,0,0,0,0,0,0,0,0,0,-1,1665,848,0,0
448,176,0,0,0,0,0,0,0,0,0,-1,1672,848,0,0
455,176,0,0,0,0,0,0,0,0,0,-1,1679,848,0,0
462,176,0,0,0,0,0,0,0,0,0,-1,1686,848,0,0
469,176,0,0,0,0,0,0,0,0,0,-1,1693,848,0,0
476,176,0,0,0,0,0,0,0,0,0,-1,1700,848,0,0
483,176,0,0,0,0,0,0,0,0,0,-1,1707,848,0,0
490,176,0,0,0,0,0,0,0,0,0,-1,1714,848,0,0
497,176,0,0,0,0,0,0,0,0,0,-1,1721,848,0,0
504,176,0,0,0,0,0,0,0,0,0,-1,1728,848,0,0
511,176,0,0,0,0,0,0,0,0,0,-1,1735,848,0,0
518,176,0,0,0,0,0,0,0,0,0,-1,1742,848,0,0
525,176,0,0,0,0,0,0,0,0,0,-1,1749,848,0,0
532,176,0,0,0,0,0,0,0,0,0,-1,1756,848,0,0
539,176,0,0,0,0,0,0,0,0,0,-1,1763,848,0,0
546,176,0,0,0,0,0,0,0,0,0,-1,1770,848,0,0
553,176,0,0,0,0,0,0,0,0,0,-1,1777,848,0,0
560,176,0,0,0,0,0,0,0,0,0,-1,1784,848,0,0
567,176,0,0,0,0,0,0,0,0,0,-1,1791,848,0,0
574,176,0,0,0,0,0,0,0,0,0,-1,1798,848,0,0
581,176,0,0,0,0,0,0,0,0,0,-1,1805,848,0,0
588,176,0,0,0,0,0,0,0,0,0,-1,1812,848,0,0
595,176,0,0,0,0,0,0,0,0,0,-1,1819,848,0,0
602,176,0,0,0,0,0,0,0,0,0,-1,1826,848,0,0
609,176,4.19312,0.713501,0.00496671,0.00227872,-0.00206097,0.00608318,0.00116224,-0.496467,0.00372892,0.0374466,1833,848,4.19314,-0.713524
616,176,4.11169,0.621155,0.00321921,0.00233754,-0.00169042,0.00452533,0.00103141,-0.657848,0.00273861,0.0388494,1840,848,4.11171,-0.621126
623,176,4.17603,0.561584,0.00196236,0.000901024,-0.00135432,0.00288627,-2.28859e-05,-0.598675,0.00193186,0.0432558,1847,848,4.17602,-0.56161
630,176,4.2395,0.544434,0.000818269,-0.000294669,-0.00164185,0.00199538,-0.00147178,-0.622009,0.00200937,0.0412172,1854,848,4.23951,-0.544457
637,176,4.28601,0.625427,-0.000202343,-0.00126591,-0.00206112,0.00139449,-0.00286274,-0.659147,0.00250616,0.0318846,1861,848,4.28603,-0.625455
644,176,4.13464,0.642944,-0.00100549,-0.00199546,-0.00243603,0.000985337,-0.00398628,-0.685166,0.00303967,0.0310495,1868,848,4.13469,-0.642927
651,176,4.17383,0.679321,-0.00161088,-0.00249639,-0.00275708,0.000738771,-0.00484604,-0.705783,0.00350302,0.0316221,1875,848,4.17379,-0.679323
658,176,4.2915,0.66217,-0.00197901,-0.00275328,-0.00303613,0.000694566,-0.00542686,-0.721986,0.00387026,0.0380754,1882,848,4.29155,-0.662171
665,176,4.18298,1.11823,0,0,0,0,0,0,0,-1,1889,848,4.18295,-1.11824
672,176,3.9823,0.796997,-0.00227361,-0.0026898,-0.00317118,0.000696296,-0.00565971,-0.752635,0.00402536,0.0488033,1896,848,3.98235,-0.797026
679,176,3.81567,0.538452,-0.00233975,-0.0025031,-0.00297803,0.000557726,-0.00540058,-0.771688,0.00379996,0.0360264,1903,848,3.8157,-0.538465
686,176,3.87866,0.500244,-0.00231985,-0.00220953,-0.00271103,0.000446902,-0.00497628,-0.79557,0.00347608,0.0150126,1910,848,3.87864,-0.500218
693,176,3.88489,0.592041,-0.00197443,-0.00179991,-0.00230761,0.000422094,-0.00419643,-0.804296,0.00294841,0.0104699,1917,848,3.88492,-0.592015
700,176,3.87134,0.613098,-0.00194542,-0.00111268,-0.00180856,0.000326824,-0.00338492,-0.898538,0.00237307,0.0156898,1924,848,3.87139,-0.61307
707,176,3.86841,0.631714,-0.00249789,-0.000327693,-0.00138293,0.000345031,-0.00317062,-1.11805,0.00223764,0.0139198,1931,848,3.86845,-0.631697
714,176,3.87573,0.649475,-0.00363414,0.000691608,-0.00106818,0.000941001,-0.00388353,-1.34143,0.00295309,0.0125643,1938,848,3.87575,-0.649467
721,176,3.86438,0.66156,-0.00475713,0.00284906,-0.000676324,0.00290873,-0.0048168,-1.4828,0.00450546,0.0112162,1945,848,3.86438,-0.66158
728,176,3.86414,0.681458,-0.00644794,0.00436863,-0.000563592,0.00439792,-0.00647723,-1.51888,0.00631691,0.0127521,1952,848,3.86416,-0.681446
735,176,3.85999,0.694031,-0.00814704,0.00675585,-0.000656146,0.00678469,-0.00817588,-1.52688,0.00864992,0.0128064,1959,848,3.85997,-0.694007
742,176,3.87219,0.69574,-0.0104824,0.00934,-0.000798522,0.00937212,-0.0105145,-1.5306,0.0114878,0.0169099,1966,848,3.87218,-0.695713
749,176,3.89417,0.857117,-0.0134824,0.0127263,-0.00130193,0.0127908,-0.0135469,-1.52128,0.0152082,0.0281465,1973,848,3.89419,-0.857141
756,176,4.01038,0.602539,-0.0168143,0.0168032,-0.00192477,0.0169131,-0.0169242,-1.51379,0.0195359,0.0414055,1980,848,4.01035,-0.602541
763,176,4.16614,1.37921,-0.0202991,0.0215304,-0.00263477,0.0216958,-0.0204645,-1.50814,0.0243447,0.044154,1987,848,4.16617,-1.37923
770,176,4.58508,2.67102,-0.0237452,0.0267735,-0.00337746,0.0269983,-0.02397,-1.50433,0.0294438,0.048634,1994,848,4.58503,-2.67101
777,176,4.09912,1.87653,-0.0269595,0.0322521,-0.00405086,0.0325279,-0.0272353,-1.50281,0.0345494,0.047244,2001,848,4.09914,-1.87654
784,176,0,0,0,0,0,0,0,0,0,-1,2008,848,0,0
791,176,0,0,0,0,0,0,0,0,0,-1,2015,848,0,0
798,176,0,0,0,0,0,0,0,0,0,-1,2022,848,0,0
805,176,0,0,0,0,0,0,0,0,0,-1,2029,848,0,0
812,176,0,0,0,0,0,0,0,0,0,-1,2036,848,0,0
-700,169,0,0,0,0,0,0,0,0,0,-1,524,855,0,0
-693,169,0,0,0,0,0,0,0,0,0,-1,531,855,0,0
-686,169,0,0,0,0,0,0,0,0,0,-1,538,855,0,0
-679,169,0,0,0,0,0,0,0,0,0,-1,545,855,0,0
-672,169,0,0,0,0,0,0,0,0,0,-1,552,855,0,0
-665,169,1.30066,-1.97607,-0.00714305,-0.00911967,0.0549178,0.0467954,-0.0630581,0.776401,0.0636552,0.0444718,559,855,1.30067,1.97608
-658,169,-0.66333,0.242554,-0.0105101,-0.00697827,0.0412143,0.032508,-0.0499964,0.806809,0.0479893,0.0426956,566,855,-0.663353,-0.242552
-651,169,-0.400452,0.128113,-0.0117957,-0.00503149,0.030959,0.0227296,-0.0395568,0.839805,0.0363959,0.0450018,573,855,-0.400482,-0.128108
-644,169,-0.143311,-0.020752,-0.011818,-0.00336569,0.0231502,0.015941,-0.0311247,0.875681,0.0276407,0.0422584,580,855,-0.143285,0.0207553
-637,169,-0.17749,0.2547,-0.0110256,-0.00198921,0.0171458,0.0112237,-0.0242385,0.914227,0.0209286,0.0421558,587,855,-0.177495,-0.254713
-630,169,-0.351929,0.869873,-0.00974528,-0.000899131,0.0124984,0.00793578,-0.0185802,0.955467,0.0157148,0.0473344,594,855,-0.351943,-0.869844
-623,169,-0.430237,0.871948,-0.00817719,-0.000123735,0.00893804,0.00565276,-0.0139537,0.997039,0.0116531,0.0384434,601,855,-0.430264,-0.871968
-616,169,-0.419739,0.848999,-0.0068728,0.000177921,0.00611154,0.00370799,-0.0104029,1.047,0.00844703,0.0216322,608,855,-0.419742,-0.84898
-609,169,-0.396057,0.825256,-0.00606248,0.000760169,0.00309356,0.00195398,-0.00725629,1.2025,0.00560359,0.0127774,615,855,-0.396048,-0.825276
-602,169,-0.407837,0.778503,-0.00454388,0.00112819,0.00166713,0.0015819,-0.00499759,1.30508,0.00396563,0.0126659,622,855,-0.407828,-0.77848
-595,169,-0.428467,0.72876,-0.00306994,0.000758723,0.00136568,0.00119594,-0.00350715,1.26096,0.0028225,0.0113976,629,855,-0.428489,-0.728776
-588,169,-0.405396,0.713074,-0.00234606,0.000592679,0.00143712,0.00117864,-0.00293201,1.18364,0.00244419,0.00916914,636,855,-0.405393,-0.713089
-581,169,-0.392151,0.700745,-0.00187224,0.000226538,0.00150814,0.00101445,-0.00266016,1.08936,0.00219132,0.00980236,643,855,-0.392159,-0.700759
-574,169,-0.402344,0.674622,-0.00194162,-0.000422475,0.00174712,0.000723045,-0.00308714,0.990451,0.0023367,0.0119062,650,855,-0.402321,-0.674594
-567,169,-0.383179,0.653625,-0.00200265,-0.000993393,0.00216823,0.000728154,-0.0037242,0.899732,0.00275775,0.0111659,657,855,-0.383164,-0.653603
-560,169,-0.407715,0.632935,-0.00210344,-0.00131848,0.00250809,0.000827652,-0.00424957,0.863012,0.00314544,0.00966026,664,855,-0.407696,-0.632925
-553,169,-0.406128,0.616516,-0.00217773,-0.00138378,0.00290075,0.00114703,-0.00470854,0.853402,0.0035831,0.0175863,671,855,-0.406141,-0.616535
-546,169,-0.536499,0.74115,-0.00212726,-0.00112262,0.00319937,0.00161362,-0.00486351,0.863265,0.00389332,0.030596,678,855,-0.536474,-0.741158
-539,169,-0.736389,0.812195,-0.00188745,-0.000996712,0.00323318,0.00182163,-0.0047058,0.853842,0.00388931,0.0362593,685,855,-0.736379,-0.812173
-532,169,-0.790955,0.890808,-0.00138066,-0.000611388,0.00296382,0.00199265,-0.0039847,0.849926,0.00351433,0.0370557,692,855,-0.790974,-0.890812
-525,169,-0.960754,0.769653,-0.000778116,6.06715e-06,0.00251645,0.00216078,-0.00293283,0.862683,0.00295204,0.0487045,699,855,-0.960775,-0.769633
-518,169,-0.87854,0.826782,5.54967e-05,0.000915267,0.00174705,0.00228454,-0.00131378,0.906034,0.00210254,0.0460522,706,855,-0.878522,-0.826769
-511,169,-0.705566,0.592773,0.00116642,0.00218099,0.000583772,0.0024471,0.000900317,1.1431,0.00142917,0.0434107,713,855,-0.705554,-0.592764
-504,169,-0.790771,0.617859,0.00254146,0.00387171,-0.00105156,0.00445085,0.00196233,-1.06739,0.00257568,0.0436606,720,855,-0.790758,-0.617842
-497,169,-0.763794,0.611633,0.00401402,0.00604652,-0.00317782,0.00836664,0.00169391,-0.940157,0.00510762,0.0395794,727,855,-0.763793,-0.611655
-490,169,0,0,0,0,0,0,0,0,0,-1,734,855,0,0
-483,169,0,0,0,0,0,0,0,0,0,-1,741,855,0,0
-476,169,0,0,0,0,0,0,0,0,0,-1,748,855,0,0
-469,169,0,0,0,0,0,0,0,0,0,-1,755,855,0,0
-462,169,0,0,0,0,0,0,0,0,0,-1,762,855,0,0
-455,169,0,0,0,0,0,0,0,0,0,-1,769,855,0,0
-448,169,0,0,0,0,0,0,0,0,0,-1,776,855,0,0
-441,169,0,0,0,0,0,0,0,0,0,-1,783,855,0,0
-434,169,0,0,0,0,0,0,0,0,0,-1,790,855,0,0
-427,169,0,0,0,0,0,0,0,0,0,-1,797,855,0,0
-420,169,0,0,0,0,0,0,0,0,0,-1,804,855,0,0
-413,169,0,0,0,0,0,0,0,0,0,-1,811,855,0,0
-406,169,0,0,0,0,0,0,0,0,0,-1,818,855,0,0
-399,169,0,0,0,0,0,0,0,0,0,-1,825,855,0,0
-392,169,0,0,0,0,0,0,0,0,0,-1,832,855,0,0
-385,169,0,0,0,0,0,0,0,0,0,-1,839,855,0,0
-378,169,0,0,0,0,0,0,0,0,0,-1,846,855,0,0
-371,169,0,0,0,0,0,0,0,0,0,-1,853,855,0,0
-364,169,0,0,0,0,0,0,0,0,0,-1,860,855,0,0
-357,169,0,0,0,0,0,0,0,0,0,-1,867,855,0,0
-350,169,0,0,0,0,0,0,0,0,0,-1,874,855,0,0
-343,169,0,0,0,0,0,0,0,0,0,-1,881,855,0,0
-336,169,0,0,0,0,0,0,0,0,0,-1,888,855,0,0
-329,169,0,0,0,0,0,0,0,0,0,-1,895,855,0,0
-322,169,0,0,0,0,0,0,0,0,0,-1,902,855,0,0
-315,169,0,0,0,0,0,0,0,0,0,-1,909,855,0,0
-308,169,0,0,0,0,0,0,0,0,0,-1,916,855,0,0
-301,169,0,0,0,0,0,0,0,0,0,-1,923,855,0,0
-294,169,0,0,0,0,0,0,0,0,0,-1,930,855,0,0
-287,169,0,0,0,0,0,0,0,0,0,-1,937,855,0,0
-280,169,0,0,0,0,0,0,0,0,0,-1,944,855,0,0
-273,169,0,0,0,0,0,0,0,0,0,-1,951,855,0,0
-266,169,0,0,0,0,0,0,0,0,0,-1,958,855,0,0
-259,169,0,0,0,0,0,0,0,0,0,-1,965,855,0,0
-252,169,0,0,0,0,0,0,0,0,0,-1,972,855,0,0
-245,169,0,0,0,0,0,0,0,0,0,-1,979,855,0,0
-238,169,0,0,0,0,0,0,0,0,0,-1,986,855,0,0
-231,169,0,0,0,0,0,0,0,0,0,-1,993,855,0,0
-224,169,0,0,0,0,0,0,0,0,0,-1,1000,855,0,0
-217,169,0,0,0,0,0,0,0,0,0,-1,1007,855,0,0
-210,169,0,0,0,0,0,0,0,0,0,-1,1014,855,0,0
-203,169,0,0,0,0,0,0,0,0,0,-1,1021,855,0,0
-196,169,0,0,0,0,0,0,0,0,0,-1,1028,855,0,0
-189,169,0,0,0,0,0,0,0,0,0,-1,1035,855,0,0
-182,169,0,0,0,0,0,0,0,0,0,-1,1042,855,0,0
-175,169,0,0,0,0,0,0,0,0,0,-1,1049,855,0,0
-168,169,0,0,0,0,0,0,0,0,0,-1,1056,855,0,0
-161,169,0,0,0,0,0,0,0,0,0,-1,1063,855,0,0
-154,169,0,0,0,0,0,0,0,0,0,-1,1070,855,0,0
-147,169,0,0,0,0,0,0,0,0,0,-1,1077,855,0,0
-140,169,0,0,0,0,0,0,0,0,0,-1,1084,855,0,0
-133,169,0,0,0,0,0,0,0,0,0,-1,1091,855,0,0
-126,169,0,0,0,0,0,0,0,0,0,-1,1098,855,0,0
-119,169,0,0,0,0,0,0,0,0,0,-1,1105,855,0,0
-112,169,0,0,0,0,0,0,0,0,0,-1,1112,855,0,0
-105,169,0,0,0,0,0,0,0,0,0,-1,1119,855,0,0
-98,169,0,0,0,0,0,0,0,0,0,-1,1126,855,0,0
-91,169,0,0,0,0,0,0,0,0,0,-1,1133,855,0,0
-84,169,0,0,0,0,0,0,0,0,0,-1,1140,855,0,0
-77,169,0,0,0,0,0,0,0,0,0,-1,1147,855,0,0
-70,169,0,0,0,0,0,0,0,0,0,-1,1154,855,0,0
-63,169,0,0,0,0,0,0,0,0,0,-1,1161,855,0,0
-56,169,0,0,0,0,0,0,0,0,0,-1,1168,855,0,0
-49,169,0,0,0,0,0,0,0,0,0,-1,1175,855,0,0
-42,169,0,0,0,0,0,0,0,0,0,-1,1182,855,0,0
-35,169,0,0,0,0,0,0,0,0,0,-1,1189,855,0,0
-28,169,0,0,0,0,0,0,0,0,0,-1,1196,855,0,0
-21,169,0,0,0,0,0,0,0,0,0,-1,1203,855,0,0
-14,169,0,0,0,0,0,0,0,0,0,-1,1210,855,0,0
-7,169,0,0,0,0,0,0,0,0,0,-1,1217,855,0,0
0,169,0,0,0,0,0,0,0,0,0,-1,1224,855,0,0
7,169,0,0,0,0,0,0,0,0,0,-1,1231,855,0,0
14,169,0,0,0,0,0,0,0,0,0,-1,1238,855,0,0
21,169,0,0,0,0,0,0,0,0,0,-1,1245,855,0,0
28,169,0,0,0,0,0,0,0,0,0,-1,1252,855,0,0
35,169,0,0,0,0,0,0,0,0,0,-1,1259,855,0,0
42,169,0,0,0,0,0,0,0,0,0,-1,1266,855,0,0
49,169,0,0,0,0,0,0,0,0,0,-1,1273,855,0,0
56,169,0,0,0,0,0,0,0,0,0,-1,1280,855,0,0
63,169,0,0,0,0,0,0,0,0,0,-1,1287,855,0,0
70,169,0,0,0,0,0,0,0,0,0,-1,1294,855,0,0
77,169,0,0,0,0,0,0,0,0,0,-1,1301,855,0,0
84,169,0,0,0,0,0,0,0,0,0,-1,1308,855,0,0
91,169,0,0,0,0,0,0,0,0,0,-1,1315,855,0,0
98,169,0,0,0,0,0,0,0,0,0,-1,1322,855,0,0
105,169,0,0,0,0,0,0,0,0,0,-1,1329,855,0,0
112,169,0,0,0,0,0,0,0,0,0,-1,1336,855,0,0
119,169,0,0,0,0,0,0,0,0,0,-1,1343,855,0,0
126,169,0,0,0,0,0,0,0,0,0,-1,1350,855,0,0
133,169,0,0,0,0,0,0,0,0,0,-1,1357,855,0,0
140,169,0,0,0,0,0,0,0,0,0,-1,1364,855,0,0
147,169,0,0,0,0,0,0,0,0,0,-1,1371,855,0,0
154,169,0,0,0,0,0,0,0,0,0,-1,1378,855,0,0
161,169,0,0,0,0,0,0,0,0,0,-1,1385,855,0,0
168,169,0,0,0,0,0,0,0,0,0,-1,1392,855,0,0
175,169,0,0,0,0,0,0,0,0,0,-1,1399,855,0,0
182,169,0,0,0,0,0,0,0,0,0,-1,1406,855,0,0
189,169,0,0,0,0,0,0,0,0,0,-1,1413,855,0,0
196,169,0,0,0,0,0,0,0,0,0,-1,1420,855,0,0
203,169,0,0,0,0,0,0,0,0,0,-1,1427,855,0,0
210,169,0,0,0,0,0,0,0,0,0,-1,1434,855,0,0
217,169,0,0,0,0,0,0,0,0,0,-1,1441,855,0,0
224,169,0,0,0,0,0,0,0,0,0,-1,1448,855,0,0
231,169,0,0,0,0,0,0,0,0,0,-1,1455,855,0,0
238,169,0,0,0,0,0,0,0,0,0,-1,1462,855,0,0
245,169,0,0,0,0,0,0,0,0,0,-1,1469,855,0,0
252,169,0,0,0,0,0,0,0,0,0,-1,1476,855,0,0
259,169,0,0,0,0,0,0,0,0,0,-1,1483,855,0,0
266,169,0,0,0,0,0,0,0,0,0,-1,1490,855,0,0
273,169,0,0,0,0,0,0,0,0,0,-1,1497,855,0,0
280,169,0,0,0,0,0,0,0,0,0,-1,1504,855,0,0
287,169,0,0,0,0,0,0,0,0,0,-1,1511,855,0,0
294,169,0,0,0,0,0,0,0,0,0,-1,1518,855,0,0
301,169,0,0,0,0,0,0,0,0,0,-1,1525,855,0,0
308,169,0,0,0,0,0,0,0,0,0,-1,1532,855,0,0
315,169,0,0,0,0,0,0,0,0,0,-1,1539,855,0,0
322,169,0,0,0,0,0,0,0,0,0,-1,1546,855,0,0
329,169,0,0,0,0,0,0,0,0,0,-1,1553,855,0,0
336,169,0,0,0,0,0,0,0,0,0,-1,1560,855,0,0
343,169,0,0,0,0,0,0,0,0,0,-1,1567,855,0,0
350,169,0,0,0,0,0,0,0,0,0,-1,1574,855,0,0
357,169,0,0,0,0,0,0,0,0,0,-1,1581,855,0,0
364,169,0,0,0,0,0,0,0,0,0,-1,1588,855,0,0
371,169,0,0,0,0,0,0,0,0,0,-1,1595,855,0,0
378,169,0,0,0,0,0,0,0,0,0,-1,1602,855,0,0
385,169,0,0,0,0,0,0,0,0,0,-1,1609,855,0,0
392,169,0,0,0,0,0,0,0,0,0,-1,1616,855,0,0
399,169,0,0,0,0,0,0,0,0,0,-1,1623,855,0,0
406,169,0,0,0,0,0,0,0,0,0,-1,1630,855,0,0
413,169,0,0,0,0,0,0,0,0,0,-1,1637,855,0,0
420,169,0,0,0,0,0,0,0,0,0,-1,1644,855,0,0
427,169,0,0,0,0,0,0,0,0,0,-1,1651,855,0,0
434,169,0,0,0,0,0,0,0,0,0,-1,1658,855,0,0
441,169,0,0,0,0,0,0,0,0,0,-1,1665,855,0,0
448,169,0,0,0,0,0,0,0,0,0,-1,1672,855,0,0
455,169,0,0,0,0,0,0,0,0,0,-1,1679,855,0,0
462,169,0,0,0,0,0,0,0,0,0,-1,1686,855,0,0
469,169,0,0,0,0,0,0,0,0,0,-1,1693,855,0,0
476,169,0,0,0,0,0,0,0,0,0,-1,1700,855,0,0
483,169,0,0,0,0,0,0,0,0,0,-1,1707,855,0,0
490,169,0,0,0,0,0,0,0,0,0,-1,1714,855,0,0
497,169,0,0,0,0,0,0,0,0,0,-1,1721,855,0,0
504,169,0,0,0,0,0,0,0,0,0,-1,1728,855,0,0
511,169,0,0,0,0,0,0,0,0,0,-1,1735,855,0,0
518,169,0,0,0,0,0,0,0,0,0,-1,1742,855,0,0
525,169,0,0,0,0,0,0,0,0,0,-1,1749,855,0,0
532,169,0,0,0,0,0,0,0,0,0,-1,1756,855,0,0
539,169,0,0,0,0,0,0,0,0,0,-1,1763,855,0,0
546,169,0,0,0,0,0,0,0,0,0,-1,1770,855,0,0
553,169,0,0,0,0,0,0,0,0,0,-1,1777,855,0,0
560,169,0,0,0,0,0,0,0,0,0,-1,1784,855,0,0
567,169,0,0,0,0,0,0,0,0,0,-1,1791,855,0,0
574,169,0,0,0,0,0,0,0,0,0,-1,1798,855,0,0
581,169,0,0,0,0,0,0,0,0,0,-1,1805,855,0,0
588,169,0,0,0,0,0,0,0,0,0,-1,1812,855,0,0
595,169,0,0,0,0,0,0,0,0,0,-1,1819,855,0,0
602,169,0,0,0,0,0,0,0,0,0,-1,1826,855,0,0
609,169,0,0,0,0,0,0,0,0,0,-1,1833,855,0,0
616,169,4.00586,0.822693,0.00476365,0.00287632,-0.00202279,0.00605207,0.0015879,-0.567146,0.00362331,0.0420005,1840,855,4.00591,-0.822692
623,169,4.20264,0.694092,0.00313185,0.00130307,-0.00145689,0.00393753,0.00049739,-0.505154,0.00247593,0.0440952,1847,855,4.20263,-0.694086
630,169,4.26648,0.642883,0.00168619,4.75811e-05,-0.00168397,0.00273959,-0.00100581,-0.55899,0.0022383,0.0416247,1854,855,4.26647,-0.642911
637,169,4.3009,0.661133,0.000370904,-0.000973178,-0.00210845,0.00191182,-0.0025141,-0.63112,0.00256318,0.0358934,1861,855,4.30087,-0.661143
644,169,4.18921,0.69397,-0.00070694,-0.00174168,-0.00252037,0.00134861,-0.00379724,-0.684166,0.00308104,0.0356726,1868,855,4.18922,-0.693999
651,169,4.16882,0.658936,-0.00151698,-0.00227308,-0.00286672,0.00099651,-0.00478656,-0.719839,0.00356988,0.0367036,1875,855,4.16887,-0.658932
658,169,4.19373,0.746521,-0.00203631,-0.00254717,-0.00315546,0.00087404,-0.00545752,-0.745012,0.00396196,0.0370326,1882,855,4.19372,-0.746546
665,169,4.21387,0.823608,0,0,0,0,0,0,0,-1,1889,855,4.21393,-0.8236
672,169,4.09839,0.541992,-0.00254165,-0.00250837,-0.00328565,0.000760688,-0.0058107,-0.78793,0.00415066,0.0458772,1896,855,4.09836,-0.541972
679,169,3.8877,0.492859,-0.00266449,-0.00234307,-0.00306639,0.000566819,-0.00557438,-0.81158,0.00391888,0.0387273,1903,855,3.88771,-0.492859
686,169,3.8717,0.491638,-0.00266117,-0.00206465,-0.00280385,0.00045676,-0.00518258,-0.838386,0.00361693,0.018956,1910,855,3.87173,-0.491625
693,169,3.91187,0.590271,-0.0022983,-0.00167947,-0.00244628,0.000476881,-0.00445465,-0.848307,0.00314082,0.011552,1917,855,3.91183,-0.590293
700,169,3.92505,0.627197,-0.00213267,-0.00101363,-0.00200701,0.000510385,-0.00365669,-0.921338,0.00262452,0.011909,1924,855,3.92501,-0.627212
707,169,3.88794,0.624329,-0.00241732,-0.000218266,-0.0016111,0.00063275,-0.00326833,-1.08483,0.00241757,0.0136213,1931,855,3.88797,-0.624313
714,169,3.88647,0.640076,-0.00306113,0.000797588,-0.00131769,0.00120462,-0.00346817,-1.27119,0.00280136,0.0136822,1938,855,3.88642,-0.640083
721,169,3.88513,0.66272,-0.00357651,0.00293952,-0.000990614,0.0030868,-0.00372378,-1.42321,0.00393782,0.0148432,1945,855,3.88517,-0.662713
728,169,3.88159,0.678284,-0.00456339,0.00444481,-0.000916346,0.00453708,-0.00465566,-1.47044,0.00530757,0.0118483,1952,855,3.88164,-0.678258
735,169,3.8916,0.695984,-0.00532198,0.00681558,-0.000921944,0.00688521,-0.00539161,-1.49541,0.00710549,0.0165658,1959,855,3.89164,-0.695953
742,169,3.89746,0.732422,-0.00646351,0.00940464,-0.000896193,0.0094551,-0.00651396,-1.51456,0.00927172,0.0152726,1966,855,3.89746,-0.73244
749,169,3.97949,0.637817,-0.00802672,0.0127218,-0.00127363,0.0127997,-0.0081046,-1.50972,0.0121702,0.0243359,1973,855,3.97947,-0.63779
756,169,3.70459,0.413147,-0.00971882,0.0166871,-0.00164814,0.0167895,-0.00982129,-1.5087,0.0155383,0.0439733,1980,855,3.70455,-0.413154
763,169,3.50244,0.260071,0,0,0,0,0,0,0,-1,1987,855,3.50239,-0.260042
770,169,4.36951,1.77777,-0.012683,0.0263342,-0.00226736,0.0264655,-0.0128143,-1.51294,0.0231303,0.0464172,1994,855,4.36955,-1.77775
777,169,4.08899,1.55859,-0.0136641,0.0316839,-0.00236886,0.0318073,-0.0137875,-1.51875,0.0270007,0.0435733,2001,855,4.08894,-1.55862
784,169,4.03687,1.74872,-0.0140543,0.0369741,-0.00220817,0.0370695,-0.0141497,-1.52763,0.0305424,0.0446398,2008,855,4.03686,-1.74869
791,169,0,0,0,0,0,0,0,0,0,-1,2015,855,0,0
798,169,0,0,0,0,0,0,0,0,0,-1,2022,855,0,0
805,169,0,0,0,0,0,0,0,0,0,-1,2029,855,0,0
812,169,0,0,0,0,0,0,0,0,0,-1,2036,855,0,0
-700,162,0,0,0,0,0,0,0,0,0,-1,524,862,0,0
-693,162,0,0,0,0,0,0,0,0,0,-1,531,862,0,0
-686,162,0,0,0,0,0,0,0,0,0,-1,538,862,0,0
-679,162,0,0,0,0,0,0,0,0,0,-1,545,862,0,0
-672,162,0,0,0,0,0,0,0,0,0,-1,552,862,0,0
-665,162,0.865845,-2.41394,-0.00111989,-0.00333588,0.0465681,0.0443534,-0.0488091,0.773504,0.0538079,0.0416576,559,862,0.865856,2.41394
-658,162,2.56812,1.32043,-0.0053078,-0.00247276,0.035323,0.0314612,-0.0392417,0.805452,0.0409026,0.0485977,566,862,2.56811,-1.32045
-651,162,-0.131592,0.390137,-0.00754315,-0.00162456,0.0267417,0.0223211,-0.0314888,0.840505,0.031217,0.0456695,573,862,-0.131614,-0.390109
-644,162,0.170715,0.326782,-0.00846319,-0.000859563,0.0201086,0.0158034,-0.0251262,0.878828,0.0238342,0.0420804,580,862,0.170728,-0.3268
-637,162,-0.0517578,0.30481,-0.00847296,-0.000205038,0.0149555,0.0111773,-0.0198553,0.92024,0.0181487,0.0403342,587,862,-0.0517515,-0.304799
-630,162,-0.146057,1.03259,0,0,0,0,0,0,0,-1,594,862,-0.146072,-1.0326
-623,162,-0.386353,0.91394,-0.00684997,0.000634235,0.00788515,0.00562018,-0.0118359,1.00695,0.0102891,0.0324656,601,862,-0.38635,-0.913923
-616,162,-0.444092,0.835388,-0.00604692,0.000586012,0.00541289,0.00361765,-0.00907855,1.06025,0.00755279,0.0186551,608,862,-0.44408,-0.835373
-609,162,-0.424927,0.807251,-0.00570176,0.000905582,0.00271166,0.00187594,-0.00667212,1.22715,0.00518771,0.0130401,615,862,-0.424952,-0.80724
-602,162,-0.430542,0.765015,-0.00455778,0.00109099,0.00150077,0.00146496,-0.00493174,1.32659,0.00386971,0.0116675,622,862,-0.430524,-0.765033
-595,162,-0.437561,0.751465,-0.00331808,0.000603853,0.0013872,0.00104491,-0.00375914,1.26296,0.00291745,0.0105987,629,862,-0.437584,-0.751492
-588,162,-0.417236,0.742188,-0.00269686,0.000494603,0.00157433,0.00114049,-0.00334275,1.18147,0.00269048,0.0102519,636,862,-0.417223,-0.742214
-581,162,-0.428833,0.693909,-0.00234308,0.000162796,0.00169057,0.00101411,-0.00319439,1.1043,0.00253614,0.011672,643,862,-0.428854,-0.693933
-574,162,-0.460693,0.636902,-0.00250611,-0.000445341,0.00188306,0.00067081,-0.00362226,1.03574,0.00266672,0.016122,650,862,-0.460701,-0.636923
-567,162,-0.451721,0.628723,-0.00255774,-0.000895073,0.00220058,0.000625972,-0.00407878,0.966,0.00295007,0.0166925,657,862,-0.451709,-0.628732
-560,162,-0.437622,0.603455,-0.00261822,-0.00114463,0.00242716,0.000655105,-0.00441796,0.932759,0.0031862,0.011559,664,862,-0.437595,-0.603438
-553,162,-0.441223,0.573547,-0.00259679,-0.00112564,0.00265595,0.000894717,-0.00461714,0.920489,0.00341562,0.0222332,671,862,-0.441227,-0.573548
-546,162,-0.66571,0.63092,-0.00238776,-0.000768138,0.00281704,0.00135318,-0.00450908,0.925358,0.00354429,0.0336932,678,862,-0.665716,-0.63093
-539,162,-0.989136,0.710938,-0.00193716,-0.000491393,0.00270602,0.00158664,-0.00401519,0.91592,0.00333399,0.039906,685,862,-0.989151,-0.710935
-532,162,-0.856995,0.87915,-0.00117038,4.40318e-05,0.00228695,0.00180301,-0.00292936,0.915159,0.00275791,0.037537,692,862,-0.857005,-0.879131
-525,162,-0.877563,0.924011,-0.000208682,0.000823329,0.00165724,0.00204304,-0.00142839,0.936323,0.00201468,0.0399773,699,862,-0.877536,-0.924006
-518,162,-0.776672,0.947021,0.0010632,0.00189549,0.000709487,0.00230187,0.000656822,1.05063,0.0013692,0.0403483,706,862,-0.776643,-0.947028
-511,162,-0.745422,0.868408,0.00268095,0.00330811,-0.000597093,0.00366896,0.00232011,-1.02719,0.00214287,0.0433283,713,862,-0.745408,-0.86838
-504,162,-0.916687,0.713562,0.00453036,0.00509285,-0.00228178,0.00711065,0.00251255,-0.846717,0.00416378,0.0452991,720,862,-0.916681,-0.713556
-497,162,-0.90625,0.690796,0.00628165,0.00723812,-0.00424432,0.0110311,0.00248871,-0.8415,0.00668081,0.0429341,727,862,-0.906242,-0.690786
-490,162,0,0,0,0,0,0,0,0,0,-1,734,862,0,0
-483,162,0,0,0,0,0,0,0,0,0,-1,741,862,0,0
-476,162,0,0,0,0,0,0,0,0,0,-1,748,862,0,0
-469,162,0,0,0,0,0,0,0,0,0,-1,755,862,0,0
-462,162,0,0,0,0,0,0,0,0,0,-1,762,862,0,0
-455,162,0,0,0,0,0,0,0,0,0,-1,769,862,0,0
-448,162,0,0,0,0,0,0,0,0,0,-1,776,862,0,0
-441,162,0,0,0,0,0,0,0,0,0,-1,783,862,0,0
-434,162,0,0,0,0,0,0,0,0,0,-1,790,862,0,0
-427,162,0,0,0,0,0,0,0,0,0,-1,797,862,0,0
-420,162,0,0,0,0,0,0,0,0,0,-1,804,862,0,0
-413,162,0,0,0,0,0,0,0,0,0,-1,811,862,0,0
-406,162,0,0,0,0,0,0,0,0,0,-1,818,862,0,0
-399,162,0,0,0,0,0,0,0,0,0,-1,825,862,0,0
-392,162,0,0,0,0,0,0,0,0,0,-1,832,862,0,0
-385,162,0,0,0,0,0,0,0,0,0,-1,839,862,0,0
-378,162,0,0,0,0,0,0,0,0,0,-1,846,862,0,0
-371,162,0,0,0,0,0,0,0,0,0,-1,853,862,0,0
-364,162,0,0,0,0,0,0,0,0,0,-1,860,862,0,0
-357,162,0,0,0,0,0,0,0,0,0,-1,867,862,0,0
-350,162,0,0,0,0,0,0,0,0,0,-1,874,862,0,0
-343,162,0,0,0,0,0,0,0,0,0,-1,881,862,0,0
-336,162,0,0,0,0,0,0,0,0,0,-1,888,862,0,0
-329,162,0,0,0,0,0,0,0,0,0,-1,895,862,0,0
-322,162,0,0,0,0,0,0,0,0,0,-1,902,862,0,0
-315,162,0,0,0,0,0,0,0,0,0,-1,909,862,0,0
-308,162,0,0,0,0,0,0,0,0,0,-1,916,862,0,0
-301,162,0,0,0,0,0,0,0,0,0,-1,923,862,0,0
-294,162,0,0,0,0,0,0,0,0,0,-1,930,862,0,0
-287,162,0,0,0,0,0,0,0,0,0,-1,937,862,0,0
-280,162,0,0,0,0,0,0,0,0,0,-1,944,862,0,0
-273,162,0,0,0,0,0,0,0,0,0,-1,951,862,0,0
-266,162,0,0,0,0,0,0,0,0,0,-1,958,862,0,0
-259,162,0,0,0,0,0,0,0,0,0,-1,965,862,0,0
-252,162,0,0,0,0,0,0,0,0,0,-1,972,862,0,0
-245,162,0,0,0,0,0,0,0,0,0,-1,979,862,0,0
-238,162,0,0,0,0,0,0,0,0,0,-1,986,862,0,0
-231,162,0,0,0,0,0,0,0,0,0,-1,993,862,0,0
-224,162,0,0,0,0,0,0,0,0,0,-1,1000,862,0,0
-217,162,0,0,0,0,0,0,0,0,0,-1,1007,862,0,0
-210,162,0,0,0,0,0,0,0,0,0,-1,1014,862,0,0
-203,162,0,0,0,0,0,0,0,0,0,-1,1021,862,0,0
-196,162,0,0,0,0,0,0,0,0,0,-1,1028,862,0,0
-189,162,0,0,0,0,0,0,0,0,0,-1,1035,862,0,0
-182,162,0,0,0,0,0,0,0,0,0,-1,1042,862,0,0
-175,162,0,0,0,0,0,0,0,0,0,-1,1049,862,0,0
-168,162,0,0,0,0,0,0,0,0,0,-1,1056,862,0,0
-161,162,0,0,0,0,0,0,0,0,0,-1,1063,862,0,0
-154,162,0,0,0,0,0,0,0,0,0,-1,1070,862,0,0
-147,162,0,0,0,0,0,0,0,0,0,-1,1077,862,0,0
-140,162,0,0,0,0,0,0,0,0,0,-1,1084,862,0,0
-133,162,0,0,0,0,0,0,0,0,0,-1,1091,862,0,0
-126,162,0,0,0,0,0,0,0,0,0,-1,1098,862,0,0
-119,162,0,0,0,0,0,0,0,0,0,-1,1105,862,0,0
-112,162,0,0,0,0,0,0,0,0,0,-1,1112,862,0,0
-105,162,0,0,0,0,0,0,0,0,0,-1,1119,862,0,0
-98,162,0,0,0,0,0,0,0,0,0,-1,1126,862,0,0
-91,162,0,0,0,0,0,0,0,0,0,-1,1133,862,0,0
-84,162,0,0,0,0,0,0,0,0,0,-1,1140,862,0,0
-77,162,0,0,0,0,0,0,0,0,0,-1,1147,862,0,0
-70,162,0,0,0,0,0,0,0,0,0,-1,1154,862,0,0
-63,162,0,0,0,0,0,0,0,0,0,-1,1161,862,0,0
-56,162,0,0,0,0,0,0,0,0,0,-1,1168,862,0,0
-49,162,0,0,0,0,0,0,0,0,0,-1,1175,862,0,0
-42,162,0,0,0,0,0,0,0,0,0,-1,1182,862,0,0
-35,162,0,0,0,0,0,0,0,0,0,-1,1189,862,0,0
-28,162,0,0,0,0,0,0,0,0,0,-1,1196,862,0,0
-21,162,0,0,0,0,0,0,0,0,0,-1,1203,862,0,0
-14,162,0,0,0,0,0,0,0,0,0,-1,1210,862,0,0
-7,162,0,0,0,0,0,0,0,0,0,-1,1217,862,0,0
0,162,0,0,0,0,0,0,0,0,0,-1,1224,862,0,0
7,162,0,0,0,0,0,0,0,0,0,-1,1231,862,0,0
14,162,0,0,0,0,0,0,0,0,0,-1,1238,862,0,0
21,162,0,0,0,0,0,0,0,0,0,-1,1245,862,0,0
28,162,0,0,0,0,0,0,0,0,0,-1,1252,862,0,0
35,162,0,0,0,0,0,0,0,0,0,-1,1259,862,0,0
42,162,0,0,0,0,0,0,0,0,0,-1,1266,862,0,0
49,162,0,0,0,0,0,0,0,0,0,-1,1273,862,0,0
56,162,0,0,0,0,0,0,0,0,0,-1,1280,862,0,0
63,162,0,0,0,0,0,0,0,0,0,-1,1287,862,0,0
70,162,0,0,0,0,0,0,0,0,0,-1,1294,862,0,0
77,162,0,0,0,0,0,0,0,0,0,-1,1301,862,0,0
84,162,0,0,0,0,0,0,0,0,0,-1,1308,862,0,0
91,162,0,0,0,0,0,0,0,0,0,-1,1315,862,0,0
98,162,0,0,0,0,0,0,0,0,0,-1,1322,862,0,0
105,162,0,0,0,0,0,0,0,0,0,-1,1329,862,0,0
112,162,0,0,0,0,0,0,0,0,0,-1,1336,862,0,0
119,162,0,0,0,0,0,0,0,0,0,-1,1343,862,0,0
126,162,0,0,0,0,0,0,0,0,0,-1,1350,862,0,0
133,162,0,0,0,0,0,0,0,0,0,-1,1357,862,0,0
140,162,0,0,0,0,0,0,0,0,0,-1,1364,862,0,0
147,162,0,0,0,0,0,0,0,0,0,-1,1371,862,0,0
154,162,0,0,0,0,0,0,0,0,0,-1,1378,862,0,0
161,162,0,0,0,0,0,0,0,0,0,-1,1385,862,0,0
168,162,0,0,0,0,0,0,0,0,0,-1,1392,862,0,0
175,162,0,0,0,0,0,0,0,0,0,-1,1399,862,0,0
182,162,0,0,0,0,0,0,0,0,0,-1,1406,862,0,0
189,162,0,0,0,0,0,0,0,0,0,-1,1413,862,0,0
196,162,0,0,0,0,0,0,0,0,0,-1,1420,862,0,0
203,162,0,0,0,0,0,0,0,0,0,-1,1427,862,0,0
210,162,0,0,0,0,0,0,0,0,0,-1,1434,862,0,0
217,162,0,0,0,0,0,0,0,0,0,-1,1441,862,0,0
224,162,0,0,0,0,0,0,0,0,0,-1,1448,862,0,0
231,162,0,0,0,0,0,0,0,0,0,-1,1455,862,0,0
238,162,0,0,0,0,0,0,0,0,0,-1,1462,862,0,0
245,162,0,0,0,0,0,0,0,0,0,-1,1469,862,0,0
252,162,0,0,0,0,0,0,0,0,0,-1,1476,862,0,0
259,162,0,0,0,0,0,0,0,0,0,-1,1483,862,0,0
266,162,0,0,0,0,0,0,0,0,0,-1,1490,862,0,0
273,162,0,0,0,0,0,0,0,0,0,-1,1497,862,0,0
280,162,0,0,0,0,0,0,0,0,0,-1,1504,862,0,0
287,162,0,0,0,0,0,0,0,0,0,-1,1511,862,0,0
294,162,0,0,0,0,0,0,0,0,0,-1,1518,862,0,0
301,162,0,0,0,0,0,0,0,0,0,-1,1525,862,0,0
308,162,0,0,0,0,0,0,0,0,0,-1,1532,862,0,0
315,162,0,0,0,0,0,0,0,0,0,-1,1539,862,0,0
322,162,0,0,0,0,0,0,0,0,0,-1,1546,862,0,0
329,162,0,0,0,0,0,0,0,0,0,-1,1553,862,0,0
336,162,0,0,0,0,0,0,0,0,0,-1,1560,862,0,0
343,162,0,0,0,0,0,0,0,0,0,-1,1567,862,0,0
350,162,0,0,0,0,0,0,0,0,0,-1,1574,862,0,0
357,162,0,0,0,0,0,0,0,0,0,-1,1581,862,0,0
364,162,0,0,0,0,0,0,0,0,0,-1,1588,862,0,0
371,162,0,0,0,0,0,0,0,0,0,-1,1595,862,0,0
378,162,0,0,0,0,0,0,0,0,0,-1,1602,862,0,0
385,162,0,0,0,0,0,0,0,0,0,-1,1609,862,0,0
392,162,0,0,0,0,0,0,0,0,0,-1,1616,862,0,0
399,162,0,0,0,0,0,0,0,0,0,-1,1623,862,0,0
406,162,0,0,0,0,0,0,0,0,0,-1,1630,862,0,0
413,162,0,0,0,0,0,0,0,0,0,-1,1637,862,0,0
420,162,0,0,0,0,0,0,0,0,0,-1,1644,862,0,0
427,162,0,0,0,0,0,0,0,0,0,-1,1651,862,0,0
434,162,0,0,0,0,0,0,0,0,0,-1,1658,862,0,0
441,162,0,0,0,0,0,0,0,0,0,-1,1665,862,0,0
448,162,0,0,0,0,0,0,0,0,0,-1,1672,862,0,0
455,162,0,0,0,0,0,0,0,0,0,-1,1679,862,0,0
462,162,0,0,0,0,0,0,0,0,0,-1,1686,862,0,0
469,162,0,0,0,0,0,0,0,0,0,-1,1693,862,0,0
476,162,0,0,0,0,0,0,0,0,0,-1,1700,862,0,0
483,162,0,0,0,0,0,0,0,0,0,-1,1707,862,0,0
490,162,0,0,0,0,0,0,0,0,0,-1,1714,862,0,0
497,162,0,0,0,0,0,0,0,0,0,-1,1721,862,0,0
504,162,0,0,0,0,0,0,0,0,0,-1,1728,862,0,0
511,162,0,0,0,0,0,0,0,0,0,-1,1735,862,0,0
518,162,0,0,0,0,0,0,0,0,0,-1,1742,862,0,0
525,162,0,0,0,0,0,0,0,0,0,-1,1749,862,0,0
532,162,0,0,0,0,0,0,0,0,0,-1,1756,862,0,0
539,162,0,0,0,0,0,0,0,0,0,-1,1763,862,0,0
546,162,0,0,0,0,0,0,0,0,0,-1,1770,862,0,0
553,162,0,0,0,0,0,0,0,0,0,-1,1777,862,0,0
560,162,0,0,0,0,0,0,0,0,0,-1,1784,862,0,0
567,162,0,0,0,0,0,0,0,0,0,-1,1791,862,0,0
574,162,0,0,0,0,0,0,0,0,0,-1,1798,862,0,0
581,162,0,0,0,0,0,0,0,0,0,-1,1805,862,0,0
588,162,0,0,0,0,0,0,0,0,0,-1,1812,862,0,0
595,162,0,0,0,0,0,0,0,0,0,-1,1819,862,0,0
602,162,0,0,0,0,0,0,0,0,0,-1,1826,862,0,0
609,162,0,0,0,0,0,0,0,0,0,-1,1833,862,0,0
616,162,3.97656,0.93573,0.00617065,0.00295437,-0.0021708,0.00726408,0.00186094,-0.466602,0.00435696,0.0443192,1840,862,3.97654,-0.935752
623,162,4.15698,0.812134,0.00422903,0.00148745,-0.00146208,0.00486241,0.000854059,-0.408806,0.00299776,0.0442567,1847,862,4.157,-0.812105
630,162,4.31445,0.657654,0.00252695,0.000365839,-0.00167674,0.00344115,-0.000548364,-0.499171,0.00249704,0.0414407,1854,862,4.31446,-0.657631
637,162,4.31958,0.635742,0.00093584,-0.000554393,-0.00212986,0.00244716,-0.00206571,-0.617131,0.00260861,0.0407634,1861,862,4.31963,-0.635725
644,162,4.27783,0.606934,-0.000402201,-0.00127159,-0.0025825,0.00178193,-0.00345572,-0.702018,0.003075,0.0375851,1868,862,4.27789,-0.60693
651,162,4.2594,0.589172,-0.00142319,-0.00177635,-0.00296733,0.00137281,-0.00457235,-0.75568,0.00359432,0.0358722,1875,862,4.25936,-0.589185
658,162,4.25183,0.723083,-0.00211182,-0.00205594,-0.00327173,0.00118797,-0.00535573,-0.789667,0.00402533,0.0380688,1882,862,4.25185,-0.723096
665,162,4.23682,0.704163,-0.00251376,-0.00215606,-0.00343382,0.00110356,-0.00577339,-0.811417,0.00426464,0.0434925,1889,862,4.23685,-0.704138
672,162,4.36804,0.402222,-0.00284566,-0.00208236,-0.00339672,0.000954086,-0.00588211,-0.841342,0.00427507,0.0409775,1896,862,4.368,-0.402243
679,162,3.9729,0.584106,-0.00302088,-0.00198324,-0.00315598,0.000696287,-0.0057004,-0.866866,0.00405235,0.0369517,1903,862,3.97292,-0.584124
686,162,3.87939,0.520996,-0.00302392,-0.00177023,-0.00289559,0.000565587,-0.00535974,-0.891995,0.00377583,0.0223703,1910,862,3.87935,-0.520988
693,162,3.90063,0.564087,-0.00264983,-0.00146762,-0.00257914,0.000587285,-0.00470473,-0.898046,0.00334946,0.0146461,1917,862,3.90062,-0.564074
700,162,3.91943,0.605347,-0.0023693,-0.000920306,-0.00218331,0.000655579,-0.00394518,-0.945598,0.00287368,0.0147881,1924,862,3.91938,-0.605367
707,162,3.9115,0.619141,-0.00243737,-0.00025767,-0.0017773,0.000737319,-0.00343236,-1.06043,0.00256952,0.011378,1931,862,3.91155,-0.619127
714,162,3.92017,0.620361,-0.00265125,0.000640723,-0.00146103,0.00119562,-0.00320615,-1.20783,0.00262824,0.0152184,1938,862,3.92013,-0.62035
721,162,3.8949,0.680481,-0.0026384,0.0025912,-0.00117203,0.00284185,-0.00288905,-1.36011,0.00330878,0.0282689,1945,862,3.89493,-0.680497
728,162,3.89746,0.722229,-0.00300416,0.00392711,-0.00108081,0.00409173,-0.00316878,-1.41964,0.00420313,0.0213894,1952,862,3.89742,-0.722254
735,162,3.91846,0.715149,-0.00294936,0.00611429,-0.000924752,0.00620768,-0.00304275,-1.47015,0.00544393,0.0101139,1959,862,3.91852,-0.715125
742,162,3.90625,0.741943,-0.00306151,0.00849846,-0.000629194,0.00853261,-0.00309566,-1.51658,0.0069539,0.0122733,1966,862,3.90619,-0.741961
749,162,3.91565,0.749451,-0.00340866,0.011519,-0.000706849,0.0115524,-0.00344205,-1.52359,0.00906937,0.0165632,1973,862,3.91567,-0.749454
756,162,3.90088,0.718872,-0.00369916,0.0151132,-0.000648399,0.0151355,-0.00372148,-1.53638,0.0115328,0.0361365,1980,862,3.90085,-0.718855
763,162,3.87244,0.729065,0,0,0,0,0,0,0,-1,1987,862,3.8725,-0.729086
770,162,4.21423,1.69067,-0.0033019,0.0238731,9.21653e-05,0.0238734,-0.00330221,1.5674,0.0171228,0.0470761,1994,862,4.21427,-1.6907
777,162,4.05786,1.50189,-0.00238648,0.0287783,0.000962825,0.028808,-0.0024162,1.53994,0.0200593,0.0437096,2001,862,4.05783,-1.50191
784,162,4.06287,1.40424,-0.000840097,0.0336992,0.00230156,0.0338519,-0.00099279,1.50455,0.0229061,0.0429834,2008,862,4.06288,-1.40426
791,162,0,0,0,0,0,0,0,0,0,-1,2015,862,0,0
798,162,0,0,0,0,0,0,0,0,0,-1,2022,862,0,0
805,162,0,0,0,0,0,0,0,0,0,-1,2029,862,0,0
812,162,0,0,0,0,0,0,0,0,0,-1,2036,862,0,0
-700,155,0,0,0,0,0,0,0,0,0,-1,524,869,0,0
-693,155,0,0,0,0,0,0,0,0,0,-1,531,869,0,0
-686,155,0,0,0,0,0,0,0,0,0,-1,538,869,0,0
-679,155,0,0,0,0,0,0,0,0,0,-1,545,869,0,0
-672,155,0,0,0,0,0,0,0,0,0,-1,552,869,0,0
-665,155,1.71265,1.09802,0.00436351,0.00358243,0.0379762,0.0419512,-0.0340052,0.780256,0.0439334,0.0431551,559,869,1.71267,-1.098
-658,155,1.47314,1.24597,-0.000677735,0.00251319,0.0293181,0.0302792,-0.0284437,0.812581,0.0339092,0.046674,566,869,1.47315,-1.246
-651,155,0.175659,0.681641,0,0,0,0,0,0,0,-1,573,869,0.175679,-0.681638
-644,155,0.0944214,0.57196,-0.00540403,0.00133144,0.0170715,0.0153642,-0.0194368,0.882784,0.0201381,0.0449552,580,869,0.0943954,-0.571954
-637,155,0.0484619,0.444336,-0.00606143,0.00105323,0.0127805,0.0107622,-0.0157704,0.921133,0.0154094,0.042983,587,869,0.0484663,-0.444329
-630,155,-0.105408,0.421997,0,0,0,0,0,0,0,-1,594,869,-0.105434,-0.422024
-623,155,-0.406677,0.743652,0,0,0,0,0,0,0,-1,601,869,-0.406667,-0.743678
-616,155,-0.456787,0.807739,-0.0050993,0.000284435,0.0047361,0.00304021,-0.00785507,1.04382,0.00649191,0.0134419,608,869,-0.456804,-0.807729
-609,155,-0.432739,0.789795,-0.00512799,0.000379882,0.00236503,0.00125603,-0.00600414,1.21601,0.00448051,0.0130411,615,869,-0.432762,-0.789778
-602,155,-0.444702,0.765625,-0.00429259,0.000478879,0.00131008,0.000814913,-0.00462862,1.31971,0.00339019,0.0116098,622,869,-0.444727,-0.76562
-595,155,-0.444214,0.741211,-0.00329326,8.89158e-06,0.00132892,0.000477268,-0.00376164,1.23194,0.00268105,0.0101968,629,869,-0.44423,-0.741193
-588,155,-0.417175,0.740173,-0.0028161,7.78642e-05,0.00155798,0.000757157,-0.00349539,1.15964,0.00261938,0.0110795,636,869,-0.417161,-0.740199
-581,155,-0.457336,0.696472,-0.00261522,-4.40651e-05,0.00173238,0.000827631,-0.00348692,1.10461,0.00264403,0.0136153,643,869,-0.45733,-0.696474
-574,155,-0.490784,0.659729,-0.00288332,-0.000458542,0.00190505,0.000587192,-0.00392906,1.06878,0.00283544,0.0189957,650,869,-0.490784,-0.659703
-567,155,-0.466003,0.622681,-0.00295509,-0.000797832,0.00213046,0.000511486,-0.00426441,1.01973,0.00302787,0.0215154,657,869,-0.466009,-0.622693
-560,155,-0.457336,0.605225,-0.00300249,-0.00100289,0.00226479,0.000472965,-0.00447835,0.99326,0.00315506,0.0213525,664,869,-0.457314,-0.60525
-553,155,-0.527893,0.593811,-0.00293823,-0.0009618,0.00235635,0.000605163,-0.0045052,0.983951,0.00322417,0.0331414,671,869,-0.527922,-0.593816
-546,155,-0.761047,0.613831,-0.0026247,-0.00060629,0.00237103,0.000961384,-0.00419237,0.986604,0.00316443,0.0346178,678,869,-0.761063,-0.613835
-539,155,-0.917908,0.757385,-0.00199864,-0.000292549,0.00210857,0.00112899,-0.00342018,0.977615,0.00273526,0.045466,685,869,-0.917929,-0.75737
-532,155,-0.862915,0.880432,-0.000999628,0.000247578,0.00154712,0.00129205,-0.0020441,0.976974,0.00194237,0.0368872,692,869,-0.862914,-0.880438
-525,155,-0.814697,0.896118,0.000292255,0.00100984,0.000748706,0.00148129,-0.000179189,1.00884,0.00105235,0.0378298,699,869,-0.814687,-0.89609
-518,155,-0.825989,0.826233,0.00195749,0.0020434,-0.000351224,0.00235429,0.0016466,-0.84625,0.00139481,0.0400647,706,869,-0.826004,-0.826223
-511,155,-0.830261,0.730713,0.00401319,0.00339083,-0.00174437,0.00547392,0.0019301,-0.697132,0.00320582,0.039441,713,869,-0.830287,-0.730692
-504,155,-0.927795,0.703735,0.0062181,0.00506406,-0.00336003,0.00905029,0.00223186,-0.700363,0.00544426,0.0406053,720,869,-0.927815,-0.703746
-497,155,0,0,0,0,0,0,0,0,0,-1,727,869,0,0
-490,155,0,0,0,0,0,0,0,0,0,-1,734,869,0,0
-483,155,0,0,0,0,0,0,0,0,0,-1,741,869,0,0
-476,155,0,0,0,0,0,0,0,0,0,-1,748,869,0,0
-469,155,0,0,0,0,0,0,0,0,0,-1,755,869,0,0
-462,155,0,0,0,0,0,0,0,0,0,-1,762,869,0,0
-455,155,0,0,0,0,0,0,0,0,0,-1,769,869,0,0
-448,155,0,0,0,0,0,0,0,0,0,-1,776,869,0,0
-441,155,0,0,0,0,0,0,0,0,0,-1,783,869,0,0
-434,155,0,0,0,0,0,0,0,0,0,-1,790,869,0,0
-427,155,0,0,0,0,0,0,0,0,0,-1,797,869,0,0
-420,155,0,0,0,0,0,0,0,0,0,-1,804,869,0,0
-413,155,0,0,0,0,0,0,0,0,0,-1,811,869,0,0
-406,155,0,0,0,0,0,0,0,0,0,-1,818,869,0,0
-399,155,0,0,0,0,0,0,0,0,0,-1,825,869,0,0
-392,155,0,0,0,0,0,0,0,0,0,-1,832,869,0,0
-385,155,0,0,0,0,0,0,0,0,0,-1,839,869,0,0
-378,155,0,0,0,0,0,0,0,0,0,-1,846,869,0,0
-371,155,0,0,0,0,0,0,0,0,0,-1,853,869,0,0
-364,155,0,0,0,0,0,0,0,0,0,-1,860,869,0,0
-357,155,0,0,0,0,0,0,0,0,0,-1,867,869,0,0
-350,155,0,0,0,0,0,0,0,0,0,-1,874,869,0,0
-343,155,0,0,0,0,0,0,0,0,0,-1,881,869,0,0
-336,155,0,0,0,0,0,0,0,0,0,-1,888,869,0,0
-329,155,0,0,0,0,0,0,0,0,0,-1,895,869,0,0
-322,155,0,0,0,0,0,0,0,0,0,-1,902,869,0,0
-315,155,0,0,0,0,0,0,0,0,0,-1,909,869,0,0
-308,155,0,0,0,0,0,0,0,0,0,-1,916,869,0,0
-301,155,0,0,0,0,0,0,0,0,0,-1,923,869,0,0
-294,155,0,0,0,0,0,0,0,0,0,-1,930,869,0,0
-287,155,0,0,0,0,0,0,0,0,0,-1,937,869,0,0
-280,155,0,0,0,0,0,0,0,0,0,-1,944,869,0,0
-273,155,0,0,0,0,0,0,0,0,0,-1,951,869,0,0
-266,155,0,0,0,0,0,0,0,0,0,-1,958,869,0,0
-259,155,0,0,0,0,0,0,0,0,0,-1,965,869,0,0
-252,155,0,0,0,0,0,0,0,0,0,-1,972,869,0,0
-245,155,0,0,0,0,0,0,0,0,0,-1,979,869,0,0
-238,155,0,0,0,0,0,0,0,0,0,-1,986,869,0,0
-231,155,0,0,0,0,0,0,0,0,0,-1,993,869,0,0
-224,155,0,0,0,0,0,0,0,0,0,-1,1000,869,0,0
-217,155,0,0,0,0,0,0,0,0,0,-1,1007,869,0,0
-210,155,0,0,0,0,0,0,0,0,0,-1,1014,869,0,0
-203,155,0,0,0,0,0,0,0,0,0,-1,1021,869,0,0
-196,155,0,0,0,0,0,0,0,0,0,-1,1028,869,0,0
-189,155,0,0,0,0,0,0,0,0,0,-1,1035,869,0,0
-182,155,0,0,0,0,0,0,0,0,0,-1,1042,869,0,0
-175,155,0,0,0,0,0,0,0,0,0,-1,1049,869,0,0
-168,155,0,0,0,0,0,0,0,0,0,-1,1056,869,0,0
-161,155,0,0,0,0,0,0,0,0,0,-1,1063,869,0,0
-154,155,0,0,0,0,0,0,0,0,0,-1,1070,869,0,0
-147,155,0,0,0,0,0,0,0,0,0,-1,1077,869,0,0
-140,155,0,0,0,0,0,0,0,0,0,-1,1084,869,0,0
-133,155,0,0,0,0,0,0,0,0,0,-1,1091,869,0,0
-126,155,0,0,0,0,0,0,0,0,0,-1,1098,869,0,0
-119,155,0,0,0,0,0,0,0,0,0,-1,1105,869,0,0
-112,155,0,0,0,0,0,0,0,0,0,-1,1112,869,0,0
-105,155,0,0,0,0,0,0,0,0,0,-1,1119,869,0,0
-98,155,0,0,0,0,0,0,0,0,0,-1,1126,869,0,0
-91,155,0,0,0,0,0,0,0,0,0,-1,1133,869,0,0
-84,155,0,0,0,0,0,0,0,0,0,-1,1140,869,0,0
-77,155,0,0,0,0,0,0,0,0,0,-1,1147,869,0,0
-70,155,0,0,0,0,0,0,0,0,0,-1,1154,869,0,0
-63,155,0,0,0,0,0,0,0,0,0,-1,1161,869,0,0
-56,155,0,0,0,0,0,0,0,0,0,-1,1168,869,0,0
-49,155,0,0,0,0,0,0,0,0,0,-1,1175,869,0,0
-42,155,0,0,0,0,0,0,0,0,0,-1,1182,869,0,0
-35,155,0,0,0,0,0,0,0,0,0,-1,1189,869,0,0
-28,155,0,0,0,0,0,0,0,0,0,-1,1196,869,0,0
-21,155,0,0,0,0,0,0,0,0,0,-1,1203,869,0,0
-14,155,0,0,0,0,0,0,0,0,0,-1,1210,869,0,0
-7,155,0,0,0,0,0,0,0,0,0,-1,1217,869,0,0
0,155,0,0,0,0,0,0,0,0,0,-1,1224,869,0,0
7,155,0,0,0,0,0,0,0,0,0,-1,1231,869,0,0
14,155,0,0,0,0,0,0,0,0,0,-1,1238,869,0,0
21,155,0,0,0,0,0,0,0,0,0,-1,1245,869,0,0
28,155,0,0,0,0,0,0,0,0,0,-1,1252,869,0,0
35,155,0,0,0,0,0,0,0,0,0,-1,1259,869,0,0
42,155,0,0,0,0,0,0,0,0,0,-1,1266,869,0,0
49,155,0,0,0,0,0,0,0,0,0,-1,1273,869,0,0
56,155,0,0,0,0,0,0,0,0,0,-1,1280,869,0,0
63,155,0,0,0,0,0,0,0,0,0,-1,1287,869,0,0
70,155,0,0,0,0,0,0,0,0,0,-1,1294,869,0,0
77,155,0,0,0,0,0,0,0,0,0,-1,1301,869,0,0
84,155,0,0,0,0,0,0,0,0,0,-1,1308,869,0,0
91,155,0,0,0,0,0,0,0,0,0,-1,1315,869,0,0
98,155,0,0,0,0,0,0,0,0,0,-1,1322,869,0,0
105,155,0,0,0,0,0,0,0,0,0,-1,1329,869,0,0
112,155,0,0,0,0,0,0,0,0,0,-1,1336,869,0,0
119,155,0,0,0,0,0,0,0,0,0,-1,1343,869,0,0
126,155,0,0,0,0,0,0,0,0,0,-1,1350,869,0,0
133,155,0,0,0,0,0,0,0,0,0,-1,1357,869,0,0
140,155,0,0,0,0,0,0,0,0,0,-1,1364,869,0,0
147,155,0,0,0,0,0,0,0,0,0,-1,1371,869,0,0
154,155,0,0,0,0,0,0,0,0,0,-1,1378,869,0,0
161,155,0,0,0,0,0,0,0,0,0,-1,1385,869,0,0
168,155,0,0,0,0,0,0,0,0,0,-1,1392,869,0,0
175,155,0,0,0,0,0,0,0,0,0,-1,1399,869,0,0
182,155,0,0,0,0,0,0,0,0,0,-1,1406,869,0,0
189,155,0,0,0,0,0,0,0,0,0,-1,1413,869,0,0
196,155,0,0,0,0,0,0,0,0,0,-1,1420,869,0,0
203,155,0,0,0,0,0,0,0,0,0,-1,1427,869,0,0
210,155,0,0,0,0,0,0,0,0,0,-1,1434,869,0,0
217,155,0,0,0,0,0,0,0,0,0,-1,1441,869,0,0
224,155,0,0,0,0,0,0,0,0,0,-1,1448,869,0,0
231,155,0,0,0,0,0,0,0,0,0,-1,1455,869,0,0
238,155,0,0,0,0,0,0,0,0,0,-1,1462,869,0,0
245,155,0,0,0,0,0,0,0,0,0,-1,1469,869,0,0
252,155,0,0,0,0,0,0,0,0,0,-1,1476,869,0,0
259,155,0,0,0,0,0,0,0,0,0,-1,1483,869,0,0
266,155,0,0,0,0,0,0,0,0,0,-1,1490,869,0,0
273,155,0,0,0,0,0,0,0,0,0,-1,1497,869,0,0
280,155,0,0,0,0,0,0,0,0,0,-1,1504,869,0,0
287,155,0,0,0,0,0,0,0,0,0,-1,1511,869,0,0
294,155,0,0,0,0,0,0,0,0,0,-1,1518,869,0,0
301,155,0,0,0,0,0,0,0,0,0,-1,1525,869,0,0
308,155,0,0,0,0,0,0,0,0,0,-1,1532,869,0,0
315,155,0,0,0,0,0,0,0,0,0,-1,1539,869,0,0
322,155,0,0,0,0,0,0,0,0,0,-1,1546,869,0,0
329,155,0,0,0,0,0,0,0,0,0,-1,1553,869,0,0
336,155,0,0,0,0,0,0,0,0,0,-1,1560,869,0,0
343,155,0,0,0,0,0,0,0,0,0,-1,1567,869,0,0
350,155,0,0,0,0,0,0,0,0,0,-1,1574,869,0,0
357,155,0,0,0,0,0,0,0,0,0,-1,1581,869,0,0
364,155,0,0,0,0,0,0,0,0,0,-1,1588,869,0,0
371,155,0,0,0,0,0,0,0,0,0,-1,1595,869,0,0
378,155,0,0,0,0,0,0,0,0,0,-1,1602,869,0,0
385,155,0,0,0,0,0,0,0,0,0,-1,1609,869,0,0
392,155,0,0,0,0,0,0,0,0,0,-1,1616,869,0,0
399,155,0,0,0,0,0,0,0,0,0,-1,1623,869,0,0
406,155,0,0,0,0,0,0,0,0,0,-1,1630,869,0,0
413,155,0,0,0,0,0,0,0,0,0,-1,1637,869,0,0
420,155,0,0,0,0,0,0,0,0,0,-1,1644,869,0,0
427,155,0,0,0,0,0,0,0,0,0,-1,1651,869,0,0
434,155,0,0,0,0,0,0,0,0,0,-1,1658,869,0,0
441,155,0,0,0,0,0,0,0,0,0,-1,1665,869,0,0
448,155,0,0,0,0,0,0,0,0,0,-1,1672,869,0,0
455,155,0,0,0,0,0,0,0,0,0,-1,1679,869,0,0
462,155,0,0,0,0,0,0,0,0,0,-1,1686,869,0,0
469,155,0,0,0,0,0,0,0,0,0,-1,1693,869,0,0
476,155,0,0,0,0,0,0,0,0,0,-1,1700,869,0,0
483,155,0,0,0,0,0,0,0,0,0,-1,1707,869,0,0
490,155,0,0,0,0,0,0,0,0,0,-1,1714,869,0,0
497,155,0,0,0,0,0,0,0,0,0,-1,1721,869,0,0
504,155,0,0,0,0,0,0,0,0,0,-1,1728,869,0,0
511,155,0,0,0,0,0,0,0,0,0,-1,1735,869,0,0
518,155,0,0,0,0,0,0,0,0,0,-1,1742,869,0,0
525,155,0,0,0,0,0,0,0,0,0,-1,1749,869,0,0
532,155,0,0,0,0,0,0,0,0,0,-1,1756,869,0,0
539,155,0,0,0,0,0,0,0,0,0,-1,1763,869,0,0
546,155,0,0,0,0,0,0,0,0,0,-1,1770,869,0,0
553,155,0,0,0,0,0,0,0,0,0,-1,1777,869,0,0
560,155,0,0,0,0,0,0,0,0,0,-1,1784,869,0,0
567,155,0,0,0,0,0,0,0,0,0,-1,1791,869,0,0
574,155,0,0,0,0,0,0,0,0,0,-1,1798,869,0,0
581,155,0,0,0,0,0,0,0,0,0,-1,1805,869,0,0
588,155,0,0,0,0,0,0,0,0,0,-1,1812,869,0,0
595,155,0,0,0,0,0,0,0,0,0,-1,1819,869,0,0
602,155,0,0,0,0,0,0,0,0,0,-1,1826,869,0,0
609,155,0,0,0,0,0,0,0,0,0,-1,1833,869,0,0
616,155,3.99988,0.878967,0.00703504,0.00239321,-0.00258287,0.00818657,0.00124168,-0.419383,0.00509451,0.0462314,1840,869,3.99993,-0.87899
623,155,4.11426,0.829529,0.0051026,0.00134294,-0.0015356,0.00565008,0.000795455,-0.342476,0.00353156,0.0418437,1847,869,4.11428,-0.829523
630,155,4.22412,0.663879,0.00340779,0.000573395,-0.00156251,0.00410007,-0.000118885,-0.417064,0.00277386,0.0429047,1854,869,4.22407,-0.663876
637,155,4.24072,0.671082,0.00174389,-8.9066e-05,-0.00190432,0.00294079,-0.00128596,-0.561125,0.00250188,0.0425411,1861,869,4.24074,-0.671111
644,155,4.23022,0.623779,0.000275416,-0.00065045,-0.00230474,0.00216326,-0.00253829,-0.686286,0.00271732,0.0367386,1868,869,4.23017,-0.623792
651,155,4.23608,0.68573,-0.000893257,-0.00107394,-0.00267317,0.0016911,-0.00365829,-0.768507,0.00315732,0.0334173,1875,869,4.23603,-0.685758
658,155,4.24475,0.696289,-0.00173552,-0.00134559,-0.00297902,0.00144484,-0.00452594,-0.818074,0.00359697,0.0289093,1882,869,4.2447,-0.696279
665,155,4.23462,0.67157,-0.00228161,-0.00148266,-0.00315329,0.00129636,-0.00506063,-0.848405,0.00387877,0.0325455,1889,869,4.23462,-0.671553
672,155,4.31848,0.537354,-0.00273789,-0.00147494,-0.0031442,0.00110057,-0.0053134,-0.884498,0.00396043,0.0374066,1896,869,4.31854,-0.537341
679,155,4.14905,0.636841,-0.00301596,-0.00147239,-0.00292986,0.000785632,-0.00527398,-0.914183,0.003805,0.0320713,1903,869,4.1491,-0.636847
686,155,4.02502,0.59198,-0.0031072,-0.00135264,-0.00271276,0.000621169,-0.00508101,-0.941786,0.00361224,0.0239415,1910,869,4.02498,-0.591992
693,155,3.90564,0.582031,-0.00281176,-0.00118036,-0.00246404,0.000599488,-0.00459161,-0.945241,0.00327922,0.0151396,1917,869,3.90567,-0.582033
700,155,3.90649,0.606934,-0.0024601,-0.000831705,-0.00214823,0.000651444,-0.00394325,-0.966538,0.00287072,0.0145133,1924,869,3.90649,-0.606945
707,155,3.92712,0.638855,-0.00232792,-0.000375976,-0.0017877,0.000684815,-0.00338871,-1.03526,0.00251864,0.0112442,1931,869,3.92707,-0.638827
714,155,3.96631,0.626587,-0.00215798,0.000361687,-0.00149836,0.00105947,-0.00285576,-1.13496,0.00233842,0.0193203,1938,869,3.96633,-0.626611
721,155,3.94958,0.654053,-0.00167174,0.00205636,-0.00127317,0.00244967,-0.00206504,-1.27118,0.00260972,0.0247352,1945,869,3.94958,-0.654033
728,155,3.93372,0.707153,-0.00145491,0.00318289,-0.00119226,0.00347144,-0.00174346,-1.33335,0.00306542,0.018112,1952,869,3.93373,-0.707158
735,155,3.93872,0.725769,-0.000683481,0.00513909,-0.000900373,0.00527514,-0.000819532,-1.42083,0.00381936,0.0145837,1959,869,3.93872,-0.725795
742,155,3.94788,0.753418,0.000100823,0.00723995,-0.000377706,0.00725988,8.08951e-05,-1.51809,0.00481318,0.0160753,1966,869,3.94787,-0.753397
749,155,3.92542,0.764343,0.000767928,0.00992976,-0.000194139,0.00993387,0.000763816,-1.54962,0.00638322,0.0130165,1973,869,3.92541,-0.764341
756,155,3.95752,0.7724,0.00159741,0.0131194,0.000218458,0.0131236,0.00159327,1.55185,0.00826928,0.0222803,1980,869,3.95753,-0.772389
763,155,4.09375,1.11646,0.00278904,0.0168102,0.000931389,0.0168718,0.00272744,1.50476,0.010458,0.0421183,1987,869,4.09379,-1.11648
770,155,4.17456,1.52429,0.00445456,0.020943,0.00207423,0.0211999,0.00419763,1.44756,0.0129626,0.0458834,1994,869,4.17451,-1.52428
777,155,4.17664,1.75708,0.00663674,0.0253781,0.0037728,0.026109,0.00590575,1.37942,0.0158095,0.0446951,2001,869,4.17663,-1.75709
784,155,4.47961,1.91406,0.00937279,0.0298872,0.00615637,0.0315929,0.00766709,1.30051,0.0190283,0.0445529,2008,869,4.47959,-1.91406
791,155,0,0,0,0,0,0,0,0,0,-1,2015,869,0,0
798,155,0,0,0,0,0,0,0,0,0,-1,2022,869,0,0
805,155,0,0,0,0,0,0,0,0,0,-1,2029,869,0,0
812,155,0,0,0,0,0,0,0,0,0,-1,2036,869,0,0
-700,148,0,0,0,0,0,0,0,0,0,-1,524,876,0,0
-693,148,0,0,0,0,0,0,0,0,0,-1,531,876,0,0
-686,148,0,0,0,0,0,0,0,0,0,-1,538,876,0,0
-679,148,0,0,0,0,0,0,0,0,0,-1,545,876,0,0
-672,148,0.730103,0.658386,0.0166052,0.0140197,0.0363682,0.0517036,-0.0210787,0.767632,0.0432431,0.0431998,552,876,0.730084,-0.658356
-665,148,0.901184,0.684387,0.00829458,0.0102738,0.0296284,0.0389291,-0.0203607,0.802093,0.0347861,0.0453888,559,876,0.901191,-0.684378
-658,148,0.843689,0.291687,0,0,0,0,0,0,0,-1,566,876,0.843687,-0.291666
-651,148,0.257874,1.10889,-0.000911614,0.00521219,0.0189053,0.021302,-0.0170014,0.865681,0.0221609,0.0432834,573,876,0.257879,-1.10891
-644,148,0.256165,0.825439,-0.00307056,0.00360802,0.0147394,0.0153817,-0.0148442,0.896795,0.0174519,0.0452287,580,876,0.256194,-0.82547
-637,148,0.221802,0.541626,-0.00417659,0.00245527,0.0112766,0.0108934,-0.0126147,0.928394,0.0135845,0.0460031,587,876,0.221825,-0.541648
-630,148,0.0951538,0.381592,0,0,0,0,0,0,0,-1,594,876,0.095153,-0.381612
-623,148,-0.457703,0.83667,-0.0043211,0.000997883,0.00634119,0.0052147,-0.00853791,0.983957,0.00801698,0.0189219,601,876,-0.457687,-0.83668
-616,148,-0.46936,0.806824,-0.00433645,0.000155702,0.00453874,0.00297371,-0.00715447,1.01517,0.00601127,0.0119323,608,876,-0.469344,-0.806823
-609,148,-0.455383,0.788574,-0.00460437,1.09978e-05,0.00237652,0.0010159,-0.00560928,1.17075,0.00412012,0.0117793,615,876,-0.455365,-0.788577
-602,148,-0.452026,0.747925,-0.00404407,-2.19889e-05,0.00138012,0.000406033,-0.00447209,1.27007,0.00312554,0.0109971,622,876,-0.452,-0.747937
-595,148,-0.449158,0.729004,-0.00326104,-0.000473479,0.00138304,9.62662e-05,-0.00383078,1.18003,0.00258654,0.00924957,629,876,-0.449174,-0.729019
-588,148,-0.451843,0.723877,-0.00293291,-0.000274764,0.00154814,0.00043655,-0.00364422,1.1401,0.0025873,0.0124991,636,876,-0.451837,-0.723856
-581,148,-0.470459,0.700012,-0.00290056,-0.000246828,0.00174072,0.000615068,-0.00376245,1.11105,0.00273646,0.0159552,643,876,-0.470429,-0.699988
-574,148,-0.444336,0.68158,-0.00324616,-0.000512617,0.0018862,0.000449947,-0.00420872,1.09893,0.00296719,0.0201253,650,876,-0.444314,-0.681592
-567,148,-0.474182,0.647583,-0.00331633,-0.000774389,0.00203822,0.000356663,-0.00444739,1.06418,0.00309068,0.0258252,657,876,-0.474183,-0.647568
-560,148,-0.473267,0.643311,-0.00333635,-0.000959718,0.00210889,0.000272613,-0.00456868,1.04196,0.0031406,0.0257488,664,876,-0.473274,-0.643332
-553,148,-0.654785,0.685913,-0.00322346,-0.000923048,0.00210714,0.00032737,-0.00447388,1.03523,0.00309748,0.0316426,671,876,-0.654794,-0.685938
-546,148,-0.899536,0.695679,-0.00281006,-0.000619289,0.00201221,0.000576367,-0.00400571,1.03465,0.00288187,0.0399446,678,876,-0.899509,-0.695709
-539,148,-0.864441,0.796631,-0.00203159,-0.000334843,0.0016444,0.000667134,-0.00303357,1.02355,0.00227756,0.0375056,685,876,-0.864451,-0.796654
-532,148,-0.881287,0.815063,-0.000844724,0.000130983,0.000999304,0.000755159,-0.0014689,1.01248,0.00130592,0.0356385,692,876,-0.88126,-0.815074
-525,148,-0.83783,0.847534,0.00070601,0.000784086,0.000103344,0.00085552,0.000634576,0.965987,0.000512817,0.0377769,699,876,-0.837834,-0.847518
-518,148,-0.855347,0.694824,0.00267682,0.00166548,-0.00106891,0.00335363,0.000988664,-0.564461,0.00198983,0.0430609,706,876,-0.855348,-0.694833
-511,148,-0.787659,0.640991,0.00501191,0.00280607,-0.00245547,0.00660079,0.00121719,-0.574317,0.00405613,0.0404486,713,876,-0.787689,-0.641012
-504,148,-0.747681,0.624268,0.007279,0.00419027,-0.00389143,0.00992132,0.00154795,-0.596498,0.00616337,0.0429385,720,876,-0.747668,-0.624291
-497,148,0,0,0,0,0,0,0,0,0,-1,727,876,0,0
-490,148,0,0,0,0,0,0,0,0,0,-1,734,876,0,0
-483,148,0,0,0,0,0,0,0,0,0,-1,741,876,0,0
-476,148,0,0,0,0,0,0,0,0,0,-1,748,876,0,0
-469,148,0,0,0,0,0,0,0,0,0,-1,755,876,0,0
-462,148,0,0,0,0,0,0,0,0,0,-1,762,876,0,0
-455,148,0,0,0,0,0,0,0,0,0,-1,769,876,0,0
-448,148,0,0,0,0,0,0,0,0,0,-1,776,876,0,0
-441,148,0,0,0,0,0,0,0,0,0,-1,783,876,0,0
-434,148,0,0,0,0,0,0,0,0,0,-1,790,876,0,0
-427,148,0,0,0,0,0,0,0,0,0,-1,797,876,0,0
-420,148,0,0,0,0,0,0,0,0,0,-1,804,876,0,0
-413,148,0,0,0,0,0,0,0,0,0,-1,811,876,0,0
-406,148,0,0,0,0,0,0,0,0,0,-1,818,876,0,0
-399,148,0,0,0,0,0,0,0,0,0,-1,825,876,0,0
-392,148,0,0,0,0,0,0,0,0,0,-1,832,876,0,0
-385,148,0,0,0,0,0,0,0,0,0,-1,839,876,0,0
-378,148,0,0,0,0,0,0,0,0,0,-1,846,876,0,0
-371,148,0,0,0,0,0,0,0,0,0,-1,853,876,0,0
-364,148,0,0,0,0,0,0,0,0,0,-1,860,876,0,0
-357,148,0,0,0,0,0,0,0,0,0,-1,867,876,0,0
-350,148,0,0,0,0,0,0,0,0,0,-1,874,876,0,0
-343,148,0,0,0,0,0,0,0,0,0,-1,881,876,0,0
-336,148,0,0,0,0,0,0,0,0,0,-1,888,876,0,0
-329,148,0,0,0,0,0,0,0,0,0,-1,895,876,0,0
-322,148,0,0,0,0,0,0,0,0,0,-1,902,876,0,0
-315,148,0,0,0,0,0,0,0,0,0,-1,909,876,0,0
-308,148,0,0,0,0,0,0,0,0,0,-1,916,876,0,0
-301,148,0,0,0,0,0,0,0,0,0,-1,923,876,0,0
-294,148,0,0,0,0,0,0,0,0,0,-1,930,876,0,0
-287,148,0,0,0,0,0,0,0,0,0,-1,937,876,0,0
-280,148,0,0,0,0,0,0,0,0,0,-1,944,876,0,0
-273,148,0,0,0,0,0,0,0,0,0,-1,951,876,0,0
-266,148,0,0,0,0,0,0,0,0,0,-1,958,876,0,0
-259,148,0,0,0,0,0,0,0,0,0,-1,965,876,0,0
-252,148,0,0,0,0,0,0,0,0,0,-1,972,876,0,0
-245,148,0,0,0,0,0,0,0,0,0,-1,979,876,0,0
-238,148,0,0,0,0,0,0,0,0,0,-1,986,876,0,0
-231,148,0,0,0,0,0,0,0,0,0,-1,993,876,0,0
-224,148,0,0,0,0,0,0,0,0,0,-1,1000,876,0,0
-217,148,0,0,0,0,0,0,0,0,0,-1,1007,876,0,0
-210,148,0,0,0,0,0,0,0,0,0,-1,1014,876,0,0
-203,148,0,0,0,0,0,0,0,0,0,-1,1021,876,0,0
-196,148,0,0,0,0,0,0,0,0,0,-1,1028,876,0,0
-189,148,0,0,0,0,0,0,0,0,0,-1,1035,876,0,0
-182,148,0,0,0,0,0,0,0,0,0,-1,1042,876,0,0
-175,148,0,0,0,0,0,0,0,0,0,-1,1049,876,0,0
-168,148,0,0,0,0,0,0,0,0,0,-1,1056,876,0,0
-161,148,0,0,0,0,0,0,0,0,0,-1,1063,876,0,0
-154,148,0,0,0,0,0,0,0,0,0,-1,1070,876,0,0
-147,148,0,0,0,0,0,0,0,0,0,-1,1077,876,0,0
-140,148,0,0,0,0,0,0,0,0,0,-1,1084,876,0,0
-133,148,0,0,0,0,0,0,0,0,0,-1,1091,876,0,0
-126,148,0,0,0,0,0,0,0,0,0,-1,1098,876,0,0
-119,148,0,0,0,0,0,0,0,0,0,-1,1105,876,0,0
-112,148,0,0,0,0,0,0,0,0,0,-1,1112,876,0,0
-105,148,0,0,0,0,0,0,0,0,0,-1,1119,876,0,0
-98,148,0,0,0,0,0,0,0,0,0,-1,1126,876,0,0
-91,148,0,0,0,0,0,0,0,0,0,-1,1133,876,0,0
-84,148,0,0,0,0,0,0,0,0,0,-1,1140,876,0,0
-77,148,0,0,0,0,0,0,0,0,0,-1,1147,876,0,0
-70,148,0,0,0,0,0,0,0,0,0,-1,1154,876,0,0
-63,148,0,0,0,0,0,0,0,0,0,-1,1161,876,0,0
-56,148,0,0,0,0,0,0,0,0,0,-1,1168,876,0,0
-49,148,0,0,0,0,0,0,0,0,0,-1,1175,876,0,0
-42,148,0,0,0,0,0,0,0,0,0,-1,1182,876,0,0
-35,148,0,0,0,0,0,0,0,0,0,-1,1189,876,0,0
-28,148,0,0,0,0,0,0,0,0,0,-1,1196,876,0,0
-21,148,0,0,0,0,0,0,0,0,0,-1,1203,876,0,0
-14,148,0,0,0,0,0,0,0,0,0,-1,1210,876,0,0
-7,148,0,0,0,0,0,0,0,0,0,-1,1217,876,0,0
0,148,0,0,0,0,0,0,0,0,0,-1,1224,876,0,0
7,148,0,0,0,0,0,0,0,0,0,-1,1231,876,0,0
14,148,0,0,0,0,0,0,0,0,0,-1,1238,876,0,0
21,148,0,0,0,0,0,0,0,0,0,-1,1245,876,0,0
28,148,0,0,0,0,0,0,0,0,0,-1,1252,876,0,0
35,148,0,0,0,0,0,0,0,0,0,-1,1259,876,0,0
42,148,0,0,0,0,0,0,0,0,0,-1,1266,876,0,0
49,148,0,0,0,0,0,0,0,0,0,-1,1273,876,0,0
56,148,0,0,0,0,0,0,0,0,0,-1,1280,876,0,0
63,148,0,0,0,0,0,0,0,0,0,-1,1287,876,0,0
70,148,0,0,0,0,0,0,0,0,0,-1,1294,876,0,0
77,148,0,0,0,0,0,0,0,0,0,-1,1301,876,0,0
84,148,0,0,0,0,0,0,0,0,0,-1,1308,876,0,0
91,148,0,0,0,0,0,0,0,0,0,-1,1315,876,0,0
98,148,0,0,0,0,0,0,0,0,0,-1,1322,876,0,0
105,148,0,0,0,0,0,0,0,0,0,-1,1329,876,0,0
112,148,0,0,0,0,0,0,0,0,0,-1,1336,876,0,0
119,148,0,0,0,0,0,0,0,0,0,-1,1343,876,0,0
126,148,0,0,0,0,0,0,0,0,0,-1,1350,876,0,0
133,148,0,0,0,0,0,0,0,0,0,-1,1357,876,0,0
140,148,0,0,0,0,0,0,0,0,0,-1,1364,876,0,0
147,148,0,0,0,0,0,0,0,0,0,-1,1371,876,0,0
154,148,0,0,0,0,0,0,0,0,0,-1,1378,876,0,0
161,148,0,0,0,0,0,0,0,0,0,-1,1385,876,0,0
168,148,0,0,0,0,0,0,0,0,0,-1,1392,876,0,0
175,148,0,0,0,0,0,0,0,0,0,-1,1399,876,0,0
182,148,0,0,0,0,0,0,0,0,0,-1,1406,876,0,0
189,148,0,0,0,0,0,0,0,0,0,-1,1413,876,0,0
196,148,0,0,0,0,0,0,0,0,0,-1,1420,876,0,0
203,148,0,0,0,0,0,0,0,0,0,-1,1427,876,0,0
210,148,0,0,0,0,0,0,0,0,0,-1,1434,876,0,0
217,148,0,0,0,0,0,0,0,0,0,-1,1441,876,0,0
224,148,0,0,0,0,0,0,0,0,0,-1,1448,876,0,0
231,148,0,0,0,0,0,0,0,0,0,-1,1455,876,0,0
238,148,0,0,0,0,0,0,0,0,0,-1,1462,876,0,0
245,148,0,0,0,0,0,0,0,0,0,-1,1469,876,0,0
252,148,0,0,0,0,0,0,0,0,0,-1,1476,876,0,0
259,148,0,0,0,0,0,0,0,0,0,-1,1483,876,0,0
266,148,0,0,0,0,0,0,0,0,0,-1,1490,876,0,0
273,148,0,0,0,0,0,0,0,0,0,-1,1497,876,0,0
280,148,0,0,0,0,0,0,0,0,0,-1,1504,876,0,0
287,148,0,0,0,0,0,0,0,0,0,-1,1511,876,0,0
294,148,0,0,0,0,0,0,0,0,0,-1,1518,876,0,0
301,148,0,0,0,0,0,0,0,0,0,-1,1525,876,0,0
308,148,0,0,0,0,0,0,0,0,0,-1,1532,876,0,0
315,148,0,0,0,0,0,0,0,0,0,-1,1539,876,0,0
322,148,0,0,0,0,0,0,0,0,0,-1,1546,876,0,0
329,148,0,0,0,0,0,0,0,0,0,-1,1553,876,0,0
336,148,0,0,0,0,0,0,0,0,0,-1,1560,876,0,0
343,148,0,0,0,0,0,0,0,0,0,-1,1567,876,0,0
350,148,0,0,0,0,0,0,0,0,0,-1,1574,876,0,0
357,148,0,0,0,0,0,0,0,0,0,-1,1581,876,0,0
364,148,0,0,0,0,0,0,0,0,0,-1,1588,876,0,0
371,148,0,0,0,0,0,0,0,0,0,-1,1595,876,0,0
378,148,0,0,0,0,0,0,0,0,0,-1,1602,876,0,0
385,148,0,0,0,0,0,0,0,0,0,-1,1609,876,0,0
392,148,0,0,0,0,0,0,0,0,0,-1,1616,876,0,0
399,148,0,0,0,0,0,0,0,0,0,-1,1623,876,0,0
406,148,0,0,0,0,0,0,0,0,0,-1,1630,876,0,0
413,148,0,0,0,0,0,0,0,0,0,-1,1637,876,0,0
420,148,0,0,0,0,0,0,0,0,0,-1,1644,876,0,0
427,148,0,0,0,0,0,0,0,0,0,-1,1651,876,0,0
434,148,0,0,0,0,0,0,0,0,0,-1,1658,876,0,0
441,148,0,0,0,0,0,0,0,0,0,-1,1665,876,0,0
448,148,0,0,0,0,0,0,0,0,0,-1,1672,876,0,0
455,148,0,0,0,0,0,0,0,0,0,-1,1679,876,0,0
462,148,0,0,0,0,0,0,0,0,0,-1,1686,876,0,0
469,148,0,0,0,0,0,0,0,0,0,-1,1693,876,0,0
476,148,0,0,0,0,0,0,0,0,0,-1,1700,876,0,0
483,148,0,0,0,0,0,0,0,0,0,-1,1707,876,0,0
490,148,0,0,0,0,0,0,0,0,0,-1,1714,876,0,0
497,148,0,0,0,0,0,0,0,0,0,-1,1721,876,0,0
504,148,0,0,0,0,0,0,0,0,0,-1,1728,876,0,0
511,148,0,0,0,0,0,0,0,0,0,-1,1735,876,0,0
518,148,0,0,0,0,0,0,0,0,0,-1,1742,876,0,0
525,148,0,0,0,0,0,0,0,0,0,-1,1749,876,0,0
532,148,0,0,0,0,0,0,0,0,0,-1,1756,876,0,0
539,148,0,0,0,0,0,0,0,0,0,-1,1763,876,0,0
546,148,0,0,0,0,0,0,0,0,0,-1,1770,876,0,0
553,148,0,0,0,0,0,0,0,0,0,-1,1777,876,0,0
560,148,0,0,0,0,0,0,0,0,0,-1,1784,876,0,0
567,148,0,0,0,0,0,0,0,0,0,-1,1791,876,0,0
574,148,0,0,0,0,0,0,0,0,0,-1,1798,876,0,0
581,148,0,0,0,0,0,0,0,0,0,-1,1805,876,0,0
588,148,0,0,0,0,0,0,0,0,0,-1,1812,876,0,0
595,148,0,0,0,0,0,0,0,0,0,-1,1819,876,0,0
602,148,0,0,0,0,0,0,0,0,0,-1,1826,876,0,0
609,148,0,0,0,0,0,0,0,0,0,-1,1833,876,0,0
616,148,0,0,0,0,0,0,0,0,0,-1,1840,876,0,0
623,148,4.26196,0.824585,0.0056791,0.00123523,-0.00170624,0.00625864,0.000655692,-0.327431,0.00397194,0.0384793,1847,876,4.262,-0.824586
630,148,4.26782,0.553162,0.00405497,0.000708555,-0.0013718,0.00454543,0.000218098,-0.343367,0.00296027,0.0395062,1854,876,4.26788,-0.55314
637,148,4.23181,0.598877,0.00240954,0.000240613,-0.001471,0.00315262,-0.000502467,-0.467761,0.0022877,0.0373458,1861,876,4.23184,-0.598867
644,148,4.1604,0.708252,0.000896176,-0.000192594,-0.00173111,0.00216648,-0.0014629,-0.633058,0.0021085,0.0356691,1868,876,4.16039,-0.708235
651,148,4.13501,0.768005,-0.00036592,-0.000550392,-0.00204492,0.00158884,-0.00250516,-0.762861,0.00238332,0.035944,1875,876,4.13496,-0.767992
658,148,4.17395,0.754211,-0.00132919,-0.000799532,-0.00234144,0.00129201,-0.00342073,-0.841712,0.0028119,0.0312733,1882,876,4.17392,-0.754199
665,148,4.20654,0.709839,-0.00199134,-0.000954815,-0.00254319,0.00112238,-0.00406854,-0.885914,0.00315378,0.0244801,1889,876,4.20657,-0.709867
672,148,4.24268,0.666931,-0.00254352,-0.000997471,-0.00259293,0.000935211,-0.00447621,-0.930268,0.00333981,0.0304752,1896,876,4.24271,-0.666904
679,148,4.29321,0.562256,-0.00291083,-0.00106183,-0.00245021,0.000632499,-0.00460515,-0.965797,0.00330119,0.0365639,1903,876,4.29325,-0.562278
686,148,4.05225,0.62561,-0.00308612,-0.000998266,-0.00231724,0.000499338,-0.00458372,-0.997035,0.00323513,0.0275221,1910,876,4.05227,-0.625605
693,148,3.92468,0.587769,-0.00286588,-0.000903643,-0.00216943,0.000496211,-0.00426573,-0.997758,0.00302283,0.0196368,1917,876,3.92468,-0.587758
700,148,3.92981,0.601135,-0.0024709,-0.000689798,-0.0019543,0.000567288,-0.00372799,-0.999186,0.0026944,0.0128973,1924,876,3.92982,-0.601129
707,148,3.93506,0.639465,-0.00222376,-0.000388578,-0.00165064,0.000582369,-0.00319471,-1.03908,0.00234813,0.0116757,1931,876,3.93505,-0.639437
714,148,3.96216,0.653748,-0.00177423,0.000199281,-0.00142063,0.000942232,-0.00251718,-1.08894,0.00206513,0.0114532,1938,876,3.96218,-0.653731
721,148,3.97192,0.655457,-0.0009442,0.00160958,-0.00122859,0.00210467,-0.00143928,-1.18773,0.00205809,0.01469,1945,876,3.97193,-0.655461
728,148,3.96533,0.678284,-0.000279659,0.00251505,-0.00112313,0.00291046,-0.000675071,-1.23228,0.00220013,0.0170053,1952,876,3.96539,-0.678312
735,148,3.98572,0.723145,0.00100743,0.00418437,-0.000670222,0.00431998,0.000871824,-1.37116,0.00263785,0.0157369,1959,876,3.98567,-0.723165
742,148,3.95715,0.779114,0.00240249,0.00593379,7.36194e-05,0.00593533,0.00240095,1.54996,0.00344753,0.0178138,1966,876,3.95712,-0.779091
749,148,3.95789,0.770203,0.00370955,0.00823028,0.000512393,0.00828763,0.0036522,1.45934,0.00479608,0.015338,1973,876,3.95785,-0.77023
756,148,3.97729,0.738708,0.00523781,0.0109212,0.00125712,0.0111869,0.00497217,1.36255,0.00647201,0.0199999,1980,876,3.97727,-0.73868
763,148,4.0282,0.718262,0.00711071,0.0140416,0.00238007,0.0147802,0.00637211,1.26989,0.00856031,0.0427889,1987,876,4.02824,-0.718251
770,148,4.61218,-0.109802,0.00940225,0.0175606,0.00402761,0.0192139,0.00774895,1.18128,0.0111621,0.0460299,1994,876,4.61223,0.10982
777,148,4.18262,1.88287,0,0,0,0,0,0,0,-1,2001,876,4.18261,-1.88287
784,148,5.01257,0.978638,0.0151805,0.025323,0.00947284,0.0309966,0.00950688,1.03116,0.0183363,0.045807,2008,876,5.01256,-0.978643
791,148,5.31897,0.885864,0.018546,0.0291619,0.0135821,0.0384363,0.00927155,0.971675,0.0231608,0.0471082,2015,876,5.31899,-0.885893
798,148,0,0,0,0,0,0,0,0,0,-1,2022,876,0,0
805,148,0,0,0,0,0,0,0,0,0,-1,2029,876,0,0
812,148,0,0,0,0,0,0,0,0,0,-1,2036,876,0,0
-700,141,0,0,0,0,0,0,0,0,0,-1,524,883,0,0
-693,141,0,0,0,0,0,0,0,0,0,-1,531,883,0,0
-686,141,0,0,0,0,0,0,0,0,0,-1,538,883,0,0
-679,141,0,0,0,0,0,0,0,0,0,-1,545,883,0,0
-672,141,0.197815,0.598755,0.0180571,0.0209806,0.0257434,0.0453037,-0.00626603,0.813758,0.0324932,0.0473141,552,883,0.197811,-0.598737
-665,141,0.461304,0.550415,0.00988221,0.0158444,0.0225366,0.0355962,-0.00986963,0.851155,0.027615,0.0452614,559,883,0.461275,-0.550415
-658,141,0.659668,0.210999,0.00431055,0.0117005,0.0191335,0.0274925,-0.0114815,0.880781,0.023126,0.0474467,566,883,0.65968,-0.211012
-651,141,1.01434,0.489502,0.000618244,0.00843438,0.0158139,0.0208159,-0.0117633,0.906536,0.0190502,0.0450146,573,883,1.01433,-0.4895
-644,141,0.65387,1.13873,0,0,0,0,0,0,0,-1,580,883,0.653842,-1.13872
-637,141,0.512207,0.649841,0,0,0,0,0,0,0,-1,587,883,0.512204,-0.649866
-630,141,-0.453491,0.637512,-0.00352644,0.00260238,0.00769291,0.00781875,-0.00874282,0.974936,0.00956679,0.0361008,594,883,-0.453512,-0.637541
-623,141,-0.473572,0.802612,-0.0035655,0.00147048,0.00599754,0.00545716,-0.00755218,0.984143,0.00754334,0.018264,601,883,-0.473568,-0.802614
-616,141,-0.484619,0.806946,-0.00377326,0.000293056,0.00445381,0.00315583,-0.00663604,0.99952,0.00577113,0.0109117,608,883,-0.484589,-0.806952
-609,141,-0.479736,0.786743,-0.00413574,-0.00015921,0.00250449,0.00105028,-0.00534523,1.1209,0.00396028,0.0126505,615,883,-0.479731,-0.78672
-602,141,-0.467651,0.753052,-0.00379668,-0.000339337,0.00150686,0.000225229,-0.00436125,1.21232,0.00298541,0.0112905,622,883,-0.467643,-0.753024
-595,141,-0.467041,0.728027,-0.00320738,-0.000773365,0.00142702,-0.000114875,-0.00386587,1.13847,0.00253982,0.00942776,629,883,-0.467051,-0.727997
-588,141,-0.519104,0.714111,-0.00301541,-0.000519659,0.00151854,0.000197952,-0.00373302,1.12933,0.00255722,0.0131993,636,883,-0.519114,-0.714084
-581,141,-0.517761,0.709473,-0.00313207,-0.000396875,0.00169573,0.000414021,-0.00394296,1.12474,0.00277696,0.0173804,643,883,-0.517732,-0.709457
-574,141,-0.47876,0.725769,-0.00353184,-0.000549933,0.0018103,0.00030435,-0.00438612,1.12988,0.00303063,0.0188544,650,883,-0.47878,-0.725757
-567,141,-0.471436,0.712708,-0.00363797,-0.000746811,0.00190961,0.000202673,-0.00458745,1.10938,0.00312805,0.0231661,657,883,-0.471454,-0.712732
-560,141,-0.494751,0.743835,-0.00367566,-0.000897272,0.00195133,0.000108852,-0.00468178,1.09474,0.0031581,0.0279204,664,883,-0.494724,-0.743813
-553,141,-0.697632,0.801331,-0.00355225,-0.000854056,0.00189321,0.000121565,-0.00452787,1.09496,0.00305991,0.035539,671,883,-0.697619,-0.801315
-546,141,-0.809875,0.841736,-0.003102,-0.000600332,0.00172518,0.000279756,-0.00398209,1.09907,0.00275272,0.0359925,678,883,-0.809871,-0.84175
-539,141,-0.824585,0.811584,-0.00225453,-0.000337455,0.00130833,0.000325894,-0.00291788,1.10155,0.00206249,0.0305403,685,883,-0.824609,-0.811578
-532,141,-0.882629,0.823486,-0.00097061,5.57329e-05,0.000649733,0.00037051,-0.00128539,1.11965,0.00100349,0.0286142,692,883,-0.882612,-0.823506
-525,141,-0.86438,0.933228,0.000747858,0.000597202,-0.00025919,0.000942444,0.000402615,-0.643979,0.000546039,0.0376659,699,883,-0.864376,-0.933249
-518,141,-0.950317,0.789307,0.0029326,0.00131118,-0.00140725,0.00374596,0.000497824,-0.524069,0.00234902,0.0447135,706,883,-0.950306,-0.7893
-511,141,-0.924927,0.70636,0.00543824,0.00220137,-0.00267267,0.0069443,0.000695308,-0.513153,0.00441605,0.039859,713,883,-0.924912,-0.706344
-504,141,-0.770752,0.611145,0.00761119,0.00321221,-0.00380827,0.0098095,0.0010139,-0.523521,0.00622927,0.0430788,720,883,-0.77078,-0.611173
-497,141,0,0,0,0,0,0,0,0,0,-1,727,883,0,0
-490,141,0,0,0,0,0,0,0,0,0,-1,734,883,0,0
-483,141,0,0,0,0,0,0,0,0,0,-1,741,883,0,0
-476,141,0,0,0,0,0,0,0,0,0,-1,748,883,0,0
-469,141,0,0,0,0,0,0,0,0,0,-1,755,883,0,0
-462,141,0,0,0,0,0,0,0,0,0,-1,762,883,0,0
-455,141,0,0,0,0,0,0,0,0,0,-1,769,883,0,0
-448,141,0,0,0,0,0,0,0,0,0,-1,776,883,0,0
-441,141,0,0,0,0,0,0,0,0,0,-1,783,883,0,0
-434,141,0,0,0,0,0,0,0,0,0,-1,790,883,0,0
-427,141,0,0,0,0,0,0,0,0,0,-1,797,883,0,0
-420,141,0,0,0,0,0,0,0,0,0,-1,804,883,0,0
-413,141,0,0,0,0,0,0,0,0,0,-1,811,883,0,0
-406,141,0,0,0,0,0,0,0,0,0,-1,818,883,0,0
-399,141,0,0,0,0,0,0,0,0,0,-1,825,883,0,0
-392,141,0,0,0,0,0,0,0,0,0,-1,832,883,0,0
-385,141,0,0,0,0,0,0,0,0,0,-1,839,883,0,0
-378,141,0,0,0,0,0,0,0,0,0,-1,846,883,0,0
-371,141,0,0,0,0,0,0,0,0,0,-1,853,883,0,0
-364,141,0,0,0,0,0,0,0,0,0,-1,860,883,0,0
-357,141,0,0,0,0,0,0,0,0,0,-1,867,883,0,0
-350,141,0,0,0,0,0,0,0,0,0,-1,874,883,0,0
-343,141,0,0,0,0,0,0,0,0,0,-1,881,883,0,0
-336,141,0,0,0,0,0,0,0,0,0,-1,888,883,0,0
-329,141,0,0,0,0,0,0,0,0,0,-1,895,883,0,0
-322,141,0,0,0,0,0,0,0,0,0,-1,902,883,0,0
-315,141,0,0,0,0,0,0,0,0,0,-1,909,883,0,0
-308,141,0,0,0,0,0,0,0,0,0,-1,916,883,0,0
-301,141,0,0,0,0,0,0,0,0,0,-1,923,883,0,0
-294,141,0,0,0,0,0,0,0,0,0,-1,930,883,0,0
-287,141,0,0,0,0,0,0,0,0,0,-1,937,883,0,0
-280,141,0,0,0,0,0,0,0,0,0,-1,944,883,0,0
-273,141,0,0,0,0,0,0,0,0,0,-1,951,883,0,0
-266,141,0,0,0,0,0,0,0,0,0,-1,958,883,0,0
-259,141,0,0,0,0,0,0,0,0,0,-1,965,883,0,0
-252,141,0,0,0,0,0,0,0,0,0,-1,972,883,0,0
-245,141,0,0,0,0,0,0,0,0,0,-1,979,883,0,0
-238,141,0,0,0,0,0,0,0,0,0,-1,986,883,0,0
-231,141,0,0,0,0,0,0,0,0,0,-1,993,883,0,0
-224,141,0,0,0,0,0,0,0,0,0,-1,1000,883,0,0
-217,141,0,0,0,0,0,0,0,0,0,-1,1007,883,0,0
-210,141,0,0,0,0,0,0,0,0,0,-1,1014,883,0,0
-203,141,0,0,0,0,0,0,0,0,0,-1,1021,883,0,0
-196,141,0,0,0,0,0,0,0,0,0,-1,1028,883,0,0
-189,141,0,0,0,0,0,0,0,0,0,-1,1035,883,0,0
-182,141,0,0,0,0,0,0,0,0,0,-1,1042,883,0,0
-175,141,0,0,0,0,0,0,0,0,0,-1,1049,883,0,0
-168,141,0,0,0,0,0,0,0,0,0,-1,1056,883,0,0
-161,141,0,0,0,0,0,0,0,0,0,-1,1063,883,0,0
-154,141,0,0,0,0,0,0,0,0,0,-1,1070,883,0,0
-147,141,0,0,0,0,0,0,0,0,0,-1,1077,883,0,0
-140,141,0,0,0,0,0,0,0,0,0,-1,1084,883,0,0
-133,141,0,0,0,0,0,0,0,0,0,-1,1091,883,0,0
-126,141,0,0,0,0,0,0,0,0,0,-1,1098,883,0,0
-119,141,0,0,0,0,0,0,0,0,0,-1,1105,883,0,0
-112,141,0,0,0,0,0,0,0,0,0,-1,1112,883,0,0
-105,141,0,0,0,0,0,0,0,0,0,-1,1119,883,0,0
-98,141,0,0,0,0,0,0,0,0,0,-1,1126,883,0,0
-91,141,0,0,0,0,0,0,0,0,0,-1,1133,883,0,0
-84,141,0,0,0,0,0,0,0,0,0,-1,1140,883,0,0
-77,141,0,0,0,0,0,0,0,0,0,-1,1147,883,0,0
-70,141,0,0,0,0,0,0,0,0,0,-1,1154,883,0,0
-63,141,0,0,0,0,0,0,0,0,0,-1,1161,883,0,0
-56,141,0,0,0,0,0,0,0,0,0,-1,1168,883,0,0
-49,141,0,0,0,0,0,0,0,0,0,-1,1175,883,0,0
-42,141,0,0,0,0,0,0,0,0,0,-1,1182,883,0,0
-35,141,0,0,0,0,0,0,0,0,0,-1,1189,883,0,0
-28,141,0,0,0,0,0,0,0,0,0,-1,1196,883,0,0
-21,141,0,0,0,0,0,0,0,0,0,-1,1203,883,0,0
-14,141,0,0,0,0,0,0,0,0,0,-1,1210,883,0,0
-7,141,0,0,0,0,0,0,0,0,0,-1,1217,883,0,0
0,141,0,0,0,0,0,0,0,0,0,-1,1224,883,0,0
7,141,0,0,0,0,0,0,0,0,0,-1,1231,883,0,0
14,141,0,0,0,0,0,0,0,0,0,-1,1238,883,0,0
21,141,0,0,0,0,0,0,0,0,0,-1,1245,883,0,0
28,141,0,0,0,0,0,0,0,0,0,-1,1252,883,0,0
35,141,0,0,0,0,0,0,0,0,0,-1,1259,883,0,0
42,141,0,0,0,0,0,0,0,0,0,-1,1266,883,0,0
49,141,0,0,0,0,0,0,0,0,0,-1,1273,883,0,0
56,141,0,0,0,0,0,0,0,0,0,-1,1280,883,0,0
63,141,0,0,0,0,0,0,0,0,0,-1,1287,883,0,0
70,141,0,0,0,0,0,0,0,0,0,-1,1294,883,0,0
77,141,0,0,0,0,0,0,0,0,0,-1,1301,883,0,0
84,141,0,0,0,0,0,0,0,0,0,-1,1308,883,0,0
91,141,0,0,0,0,0,0,0,0,0,-1,1315,883,0,0
98,141,0,0,0,0,0,0,0,0,0,-1,1322,883,0,0
105,141,0,0,0,0,0,0,0,0,0,-1,1329,883,0,0
112,141,0,0,0,0,0,0,0,0,0,-1,1336,883,0,0
119,141,0,0,0,0,0,0,0,0,0,-1,1343,883,0,0
126,141,0,0,0,0,0,0,0,0,0,-1,1350,883,0,0
133,141,0,0,0,0,0,0,0,0,0,-1,1357,883,0,0
140,141,0,0,0,0,0,0,0,0,0,-1,1364,883,0,0
147,141,0,0,0,0,0,0,0,0,0,-1,1371,883,0,0
154,141,0,0,0,0,0,0,0,0,0,-1,1378,883,0,0
161,141,0,0,0,0,0,0,0,0,0,-1,1385,883,0,0
168,141,0,0,0,0,0,0,0,0,0,-1,1392,883,0,0
175,141,0,0,0,0,0,0,0,0,0,-1,1399,883,0,0
182,141,0,0,0,0,0,0,0,0,0,-1,1406,883,0,0
189,141,0,0,0,0,0,0,0,0,0,-1,1413,883,0,0
196,141,0,0,0,0,0,0,0,0,0,-1,1420,883,0,0
203,141,0,0,0,0,0,0,0,0,0,-1,1427,883,0,0
210,141,0,0,0,0,0,0,0,0,0,-1,1434,883,0,0
217,141,0,0,0,0,0,0,0,0,0,-1,1441,883,0,0
224,141,0,0,0,0,0,0,0,0,0,-1,1448,883,0,0
231,141,0,0,0,0,0,0,0,0,0,-1,1455,883,0,0
238,141,0,0,0,0,0,0,0,0,0,-1,1462,883,0,0
245,141,0,0,0,0,0,0,0,0,0,-1,1469,883,0,0
252,141,0,0,0,0,0,0,0,0,0,-1,1476,883,0,0
259,141,0,0,0,0,0,0,0,0,0,-1,1483,883,0,0
266,141,0,0,0,0,0,0,0,0,0,-1,1490,883,0,0
273,141,0,0,0,0,0,0,0,0,0,-1,1497,883,0,0
280,141,0,0,0,0,0,0,0,0,0,-1,1504,883,0,0
287,141,0,0,0,0,0,0,0,0,0,-1,1511,883,0,0
294,141,0,0,0,0,0,0,0,0,0,-1,1518,883,0,0
301,141,0,0,0,0,0,0,0,0,0,-1,1525,883,0,0
308,141,0,0,0,0,0,0,0,0,0,-1,1532,883,0,0
315,141,0,0,0,0,0,0,0,0,0,-1,1539,883,0,0
322,141,0,0,0,0,0,0,0,0,0,-1,1546,883,0,0
329,141,0,0,0,0,0,0,0,0,0,-1,1553,883,0,0
336,141,0,0,0,0,0,0,0,0,0,-1,1560,883,0,0
343,141,0,0,0,0,0,0,0,0,0,-1,1567,883,0,0
350,141,0,0,0,0,0,0,0,0,0,-1,1574,883,0,0
357,141,0,0,0,0,0,0,0,0,0,-1,1581,883,0,0
364,141,0,0,0,0,0,0,0,0,0,-1,1588,883,0,0
371,141,0,0,0,0,0,0,0,0,0,-1,1595,883,0,0
378,141,0,0,0,0,0,0,0,0,0,-1,1602,883,0,0
385,141,0,0,0,0,0,0,0,0,0,-1,1609,883,0,0
392,141,0,0,0,0,0,0,0,0,0,-1,1616,883,0,0
399,141,0,0,0,0,0,0,0,0,0,-1,1623,883,0,0
406,141,0,0,0,0,0,0,0,0,0,-1,1630,883,0,0
413,141,0,0,0,0,0,0,0,0,0,-1,1637,883,0,0
420,141,0,0,0,0,0,0,0,0,0,-1,1644,883,0,0
427,141,0,0,0,0,0,0,0,0,0,-1,1651,883,0,0
434,141,0,0,0,0,0,0,0,0,0,-1,1658,883,0,0
441,141,0,0,0,0,0,0,0,0,0,-1,1665,883,0,0
448,141,0,0,0,0,0,0,0,0,0,-1,1672,883,0,0
455,141,0,0,0,0,0,0,0,0,0,-1,1679,883,0,0
462,141,0,0,0,0,0,0,0,0,0,-1,1686,883,0,0
469,141,0,0,0,0,0,0,0,0,0,-1,1693,883,0,0
476,141,0,0,0,0,0,0,0,0,0,-1,1700,883,0,0
483,141,0,0,0,0,0,0,0,0,0,-1,1707,883,0,0
490,141,0,0,0,0,0,0,0,0,0,-1,1714,883,0,0
497,141,0,0,0,0,0,0,0,0,0,-1,1721,883,0,0
504,141,0,0,0,0,0,0,0,0,0,-1,1728,883,0,0
511,141,0,0,0,0,0,0,0,0,0,-1,1735,883,0,0
518,141,0,0,0,0,0,0,0,0,0,-1,1742,883,0,0
525,141,0,0,0,0,0,0,0,0,0,-1,1749,883,0,0
532,141,0,0,0,0,0,0,0,0,0,-1,1756,883,0,0
539,141,0,0,0,0,0,0,0,0,0,-1,1763,883,0,0
546,141,0,0,0,0,0,0,0,0,0,-1,1770,883,0,0
553,141,0,0,0,0,0,0,0,0,0,-1,1777,883,0,0
560,141,0,0,0,0,0,0,0,0,0,-1,1784,883,0,0
567,141,0,0,0,0,0,0,0,0,0,-1,1791,883,0,0
574,141,0,0,0,0,0,0,0,0,0,-1,1798,883,0,0
581,141,0,0,0,0,0,0,0,0,0,-1,1805,883,0,0
588,141,0,0,0,0,0,0,0,0,0,-1,1812,883,0,0
595,141,0,0,0,0,0,0,0,0,0,-1,1819,883,0,0
602,141,0,0,0,0,0,0,0,0,0,-1,1826,883,0,0
609,141,0,0,0,0,0,0,0,0,0,-1,1833,883,0,0
616,141,0,0,0,0,0,0,0,0,0,-1,1840,883,0,0
623,141,4.3584,0.634033,0.00641627,0.000648617,-0.00219717,0.00715791,-9.30263e-05,-0.325535,0.00480325,0.0436658,1847,883,4.35837,-0.634021
630,141,4.43311,0.454163,0.00456903,0.000507763,-0.00139713,0.00500324,7.35554e-05,-0.301322,0.00331125,0.0434576,1854,883,4.43316,-0.454169
637,141,4.32141,0.443298,0.00277862,0.000360514,-0.0011696,0.00325176,-0.000112625,-0.384406,0.00220634,0.041694,1861,883,4.32139,-0.443289
644,141,4.19104,0.633484,0.00114726,0.000159507,-0.00121802,0.00196772,-0.000660954,-0.59279,0.00157894,0.039698,1868,883,4.19104,-0.633485
651,141,4.18018,0.832764,-0.000227538,-5.40633e-05,-0.00142306,0.00128491,-0.00156651,-0.815836,0.00164894,0.0402399,1875,883,4.18016,-0.832762
658,141,4.21545,0.770569,-0.00129401,-0.000230704,-0.00167574,0.000995703,-0.00252042,-0.939007,0.00209269,0.0362825,1882,883,4.21542,-0.77058
665,141,4.20325,0.697754,-0.00202633,-0.000369528,-0.00188686,0.000862772,-0.00325863,-0.992248,0.00250994,0.0268878,1889,883,4.20322,-0.697737
672,141,4.2251,0.706848,-0.0026156,-0.000446672,-0.00198745,0.000732931,-0.00379521,-1.03515,0.00280653,0.0218972,1896,883,4.22508,-0.706862
679,141,4.172,0.734253,-0.00300818,-0.000572994,-0.0019181,0.000481335,-0.00406251,-1.0682,0.00288221,0.0228897,1903,883,4.17205,-0.734227
686,141,4.09778,0.694214,-0.00321058,-0.000567851,-0.00187081,0.000401186,-0.00417961,-1.09287,0.00292931,0.0432424,1910,883,4.09774,-0.69419
693,141,3.95862,0.576965,-0.00302848,-0.000551498,-0.00182591,0.000416319,-0.0039963,-1.0834,0.00281326,0.0279013,1917,883,3.95861,-0.576938
700,141,3.97363,0.615723,-0.0026514,-0.000456827,-0.0016987,0.000468172,-0.0035764,-1.07216,0.00255466,0.0129686,1924,883,3.97365,-0.615743
707,141,3.97668,0.618225,-0.0022629,-0.000288859,-0.00146833,0.000493357,-0.00304512,-1.08131,0.00221294,0.0113946,1931,883,3.97668,-0.618213
714,141,3.9657,0.622742,-0.00147132,0.000145773,-0.00126849,0.00084149,-0.00216704,-1.06914,0.00179229,0.0119008,1938,883,3.96565,-0.62277
721,141,3.98425,0.641663,-0.000383861,0.00123404,-0.0010736,0.00176935,-0.000919164,-1.10827,0.00157787,0.0110942,1945,883,3.98424,-0.641658
728,141,3.9884,0.66626,0.000676806,0.00193831,-0.000903756,0.00240966,0.000205458,-1.09006,0.00154252,0.013551,1952,883,3.9884,-0.666274
735,141,3.97681,0.709839,0.00241048,0.00331433,-0.000240209,0.0033742,0.0023506,-1.32652,0.00199768,0.0130248,1959,883,3.97683,-0.709855
742,141,3.96191,0.764038,0.00425746,0.00473151,0.000719443,0.00525196,0.003737,0.944525,0.00312137,0.0139862,1966,883,3.96196,-0.764044
749,141,3.9834,0.764526,0.00596788,0.00667099,0.00141248,0.00777501,0.00486386,0.907365,0.00453585,0.0129653,1973,883,3.98344,-0.764504
756,141,3.98279,0.74408,0.00799301,0.00887488,0.00248737,0.0109601,0.00590779,0.873122,0.00633423,0.0195101,1980,883,3.98278,-0.744106
763,141,4.09387,0.560242,0.0102716,0.0114398,0.00397622,0.0148746,0.00683681,0.858326,0.00859717,0.0426625,1987,883,4.09391,-0.560271
770,141,4.3385,0.360596,0.0128044,0.0143675,0.00601896,0.0196554,0.00751643,0.849961,0.0114522,0.0441264,1994,883,4.33846,-0.360568
777,141,4.60217,0.240356,0,0,0,0,0,0,0,-1,2001,883,4.60215,-0.240357
784,141,4.84778,0.712463,0.0181725,0.0210486,0.0122875,0.0319819,0.00723916,0.843649,0.0193646,0.0452265,2008,883,4.84777,-0.712477
791,141,4.97607,0.550232,0.0205614,0.024604,0.0167211,0.0394256,0.00573984,0.845547,0.0245947,0.0437355,2015,883,4.97611,-0.550211
798,141,0,0,0,0,0,0,0,0,0,-1,2022,883,0,0
805,141,0,0,0,0,0,0,0,0,0,-1,2029,883,0,0
812,141,0,0,0,0,0,0,0,0,0,-1,2036,883,0,0
-700,134,0,0,0,0,0,0,0,0,0,-1,524,890,0,0
-693,134,0,0,0,0,0,0,0,0,0,-1,531,890,0,0
-686,134,0,0,0,0,0,0,0,0,0,-1,538,890,0,0
-679,134,0,0,0,0,0,0,0,0,0,-1,545,890,0,0
-672,134,0.0539551,0.0100708,0.0188159,0.0273616,0.0164643,0.0400985,0.00607898,0.912359,0.0249541,0.0448301,552,890,0.0539337,-0.0100782
-665,134,0.107666,0.419373,0.0108903,0.0208224,0.0162985,0.0328946,-0.00118194,0.933277,0.0223341,0.0446098,559,890,0.107675,-0.419392
-658,134,0.458618,0.139893,0.00539387,0.0154853,0.0150476,0.0263106,-0.00543146,0.947166,0.0196034,0.0413441,566,890,0.458603,-0.139872
-651,134,0.612427,-0.228516,0,0,0,0,0,0,0,-1,573,890,0.612446,0.228529
-644,134,-0.250549,0.488708,0,0,0,0,0,0,0,-1,580,890,-0.25056,-0.488716
-637,134,-0.471252,0.405151,-0.00212749,0.00532967,0.00917566,0.0115054,-0.00830321,0.978385,0.0114862,0.0416308,587,890,-0.471275,-0.405128
-630,134,-0.463074,0.656982,-0.00284814,0.00342467,0.00731786,0.00824993,-0.0076734,0.987854,0.00919535,0.0353121,594,890,-0.463056,-0.657006
-623,134,-0.489014,0.810547,-0.00308087,0.00189557,0.00597062,0.0058757,-0.007061,0.982826,0.00747945,0.0182364,601,890,-0.489005,-0.810533
-616,134,-0.521118,0.812256,-0.00344259,0.000422783,0.00464629,0.00352232,-0.00654213,0.982494,0.00589726,0.0104832,608,890,-0.521113,-0.812261
-609,134,-0.525757,0.787781,-0.00382569,-0.000283542,0.00287862,0.0013252,-0.00543443,1.06118,0.00413607,0.0111204,615,890,-0.525728,-0.78776
-602,134,-0.50885,0.763977,-0.00363433,-0.000514367,0.00182219,0.000324386,-0.00447308,1.13941,0.00309585,0.012282,622,890,-0.508849,-0.763967
-595,134,-0.497986,0.745667,-0.00319622,-0.000891258,0.00157441,-9.25913e-05,-0.00399489,1.10134,0.00263294,0.0108181,629,890,-0.497981,-0.745639
-588,134,-0.546936,0.726685,-0.00308956,-0.000636291,0.00152497,9.41524e-05,-0.00382,1.1241,0.00257863,0.0160904,636,890,-0.54694,-0.726693
-581,134,-0.5578,0.698059,-0.00332834,-0.000483788,0.00165528,0.000276323,-0.00408845,1.14031,0.00282225,0.0203387,643,890,-0.557818,-0.698067
-574,134,-0.539795,0.710022,-0.00376665,-0.000589781,0.00172184,0.000164401,-0.00452083,1.15796,0.00307015,0.0197422,650,890,-0.539824,-0.710024
-567,134,-0.488159,0.719177,-0.00390969,-0.000743028,0.0017829,5.81022e-05,-0.00471082,1.14849,0.00316009,0.018579,657,890,-0.488179,-0.719157
-560,134,-0.551697,0.772644,-0.00395224,-0.000893595,0.00180754,-5.52137e-05,-0.00479062,1.13651,0.0031755,0.0297484,664,890,-0.551711,-0.77265
-553,134,-0.765198,0.825134,-0.00381399,-0.000877188,0.00171993,-8.40938e-05,-0.00460708,1.13873,0.00304374,0.0414278,671,890,-0.765224,-0.825156
-546,134,-0.881104,0.804016,-0.00333471,-0.000703542,0.00151849,-1.00029e-05,-0.00402825,1.14236,0.00268217,0.0276828,678,890,-0.881098,-0.803994
-539,134,-0.851257,0.804504,-0.00242054,-0.000520317,0.00109167,-2.3208e-05,-0.00291765,1.14349,0.00193741,0.0193032,685,890,-0.851271,-0.804533
-532,134,-0.896912,0.812866,-0.00102594,-0.00024842,0.000447494,-4.4403e-05,-0.00122996,1.14304,0.00080558,0.0221683,692,890,-0.896925,-0.812869
-525,134,-0.87854,0.875,0.000860675,0.00011597,-0.000422838,0.00105174,-7.50943e-05,-0.424401,0.000727484,0.0337449,699,890,-0.878549,-0.874986
-518,134,-0.708191,0.687195,0.00327693,0.000575331,-0.00149543,0.00394131,-8.90505e-05,-0.418084,0.00265772,0.0413433,706,890,-0.708183,-0.687182
-511,134,-0.703369,0.831665,0.00601287,0.00109968,-0.00260442,0.00713648,-2.3931e-05,-0.407299,0.00476565,0.0448605,713,890,-0.703356,-0.831655
-504,134,0,0,0,0,0,0,0,0,0,-1,720,890,0,0
-497,134,0,0,0,0,0,0,0,0,0,-1,727,890,0,0
-490,134,0,0,0,0,0,0,0,0,0,-1,734,890,0,0
-483,134,0,0,0,0,0,0,0,0,0,-1,741,890,0,0
-476,134,0,0,0,0,0,0,0,0,0,-1,748,890,0,0
-469,134,0,0,0,0,0,0,0,0,0,-1,755,890,0,0
-462,134,0,0,0,0,0,0,0,0,0,-1,762,890,0,0
-455,134,0,0,0,0,0,0,0,0,0,-1,769,890,0,0
-448,134,0,0,0,0,0,0,0,0,0,-1,776,890,0,0
-441,134,0,0,0,0,0,0,0,0,0,-1,783,890,0,0
-434,134,0,0,0,0,0,0,0,0,0,-1,790,890,0,0
-427,134,0,0,0,0,0,0,0,0,0,-1,797,890,0,0
-420,134,0,0,0,0,0,0,0,0,0,-1,804,890,0,0
-413,134,0,0,0,0,0,0,0,0,0,-1,811,890,0,0
-406,134,0,0,0,0,0,0,0,0,0,-1,818,890,0,0
-399,134,0,0,0,0,0,0,0,0,0,-1,825,890,0,0
-392,134,0,0,0,0,0,0,0,0,0,-1,832,890,0,0
-385,134,0,0,0,0,0,0,0,0,0,-1,839,890,0,0
-378,134,0,0,0,0,0,0,0,0,0,-1,846,890,0,0
-371,134,0,0,0,0,0,0,0,0,0,-1,853,890,0,0
-364,134,0,0,0,0,0,0,0,0,0,-1,860,890,0,0
-357,134,0,0,0,0,0,0,0,0,0,-1,867,890,0,0
-350,134,0,0,0,0,0,0,0,0,0,-1,874,890,0,0
-343,134,0,0,0,0,0,0,0,0,0,-1,881,890,0,0
-336,134,0,0,0,0,0,0,0,0,0,-1,888,890,0,0
-329,134,0,0,0,0,0,0,0,0,0,-1,895,890,0,0
-322,134,0,0,0,0,0,0,0,0,0,-1,902,890,0,0
-315,134,0,0,0,0,0,0,0,0,0,-1,909,890,0,0
-308,134,0,0,0,0,0,0,0,0,0,-1,916,890,0,0
-301,134,0,0,0,0,0,0,0,0,0,-1,923,890,0,0
-294,134,0,0,0,0,0,0,0,0,0,-1,930,890,0,0
-287,134,0,0,0,0,0,0,0,0,0,-1,937,890,0,0
-280,134,0,0,0,0,0,0,0,0,0,-1,944,890,0,0
-273,134,0,0,0,0,0,0,0,0,0,-1,951,890,0,0
-266,134,0,0,0,0,0,0,0,0,0,-1,958,890,0,0
-259,134,0,0,0,0,0,0,0,0,0,-1,965,890,0,0
-252,134,0,0,0,0,0,0,0,0,0,-1,972,890,0,0
-245,134,0,0,0,0,0,0,0,0,0,-1,979,890,0,0
-238,134,0,0,0,0,0,0,0,0,0,-1,986,890,0,0
-231,134,0,0,0,0,0,0,0,0,0,-1,993,890,0,0
-224,134,0,0,0,0,0,0,0,0,0,-1,1000,890,0,0
-217,134,0,0,0,0,0,0,0,0,0,-1,1007,890,0,0
-210,134,0,0,0,0,0,0,0,0,0,-1,1014,890,0,0
-203,134,0,0,0,0,0,0,0,0,0,-1,1021,890,0,0
-196,134,0,0,0,0,0,0,0,0,0,-1,1028,890,0,0
-189,134,0,0,0,0,0,0,0,0,0,-1,1035,890,0,0
-182,134,0,0,0,0,0,0,0,0,0,-1,1042,890,0,0
-175,134,0,0,0,0,0,0,0,0,0,-1,1049,890,0,0
-168,134,0,0,0,0,0,0,0,0,0,-1,1056,890,0,0
-161,134,0,0,0,0,0,0,0,0,0,-1,1063,890,0,0
-154,134,0,0,0,0,0,0,0,0,0,-1,1070,890,0,0
-147,134,0,0,0,0,0,0,0,0,0,-1,1077,890,0,0
-140,134,0,0,0,0,0,0,0,0,0,-1,1084,890,0,0
-133,134,0,0,0,0,0,0,0,0,0,-1,1091,890,0,0
-126,134,0,0,0,0,0,0,0,0,0,-1,1098,890,0,0
-119,134,0,0,0,0,0,0,0,0,0,-1,1105,890,0,0
-112,134,0,0,0,0,0,0,0,0,0,-1,1112,890,0,0
-105,134,0,0,0,0,0,0,0,0,0,-1,1119,890,0,0
-98,134,0,0,0,0,0,0,0,0,0,-1,1126,890,0,0
-91,134,0,0,0,0,0,0,0,0,0,-1,1133,890,0,0
-84,134,0,0,0,0,0,0,0,0,0,-1,1140,890,0,0
-77,134,0,0,0,0,0,0,0,0,0,-1,1147,890,0,0
-70,134,0,0,0,0,0,0,0,0,0,-1,1154,890,0,0
-63,134,0,0,0,0,0,0,0,0,0,-1,1161,890,0,0
-56,134,0,0,0,0,0,0,0,0,0,-1,1168,890,0,0
-49,134,0,0,0,0,0,0,0,0,0,-1,1175,890,0,0
-42,134,0,0,0,0,0,0,0,0,0,-1,1182,890,0,0
-35,134,0,0,0,0,0,0,0,0,0,-1,1189,890,0,0
-28,134,0,0,0,0,0,0,0,0,0,-1,1196,890,0,0
-21,134,0,0,0,0,0,0,0,0,0,-1,1203,890,0,0
-14,134,0,0,0,0,0,0,0,0,0,-1,1210,890,0,0
-7,134,0,0,0,0,0,0,0,0,0,-1,1217,890,0,0
0,134,0,0,0,0,0,0,0,0,0,-1,1224,890,0,0
7,134,0,0,0,0,0,0,0,0,0,-1,1231,890,0,0
14,134,0,0,0,0,0,0,0,0,0,-1,1238,890,0,0
21,134,0,0,0,0,0,0,0,0,0,-1,1245,890,0,0
28,134,0,0,0,0,0,0,0,0,0,-1,1252,890,0,0
35,134,0,0,0,0,0,0,0,0,0,-1,1259,890,0,0
42,134,0,0,0,0,0,0,0,0,0,-1,1266,890,0,0
49,134,0,0,0,0,0,0,0,0,0,-1,1273,890,0,0
56,134,0,0,0,0,0,0,0,0,0,-1,1280,890,0,0
63,134,0,0,0,0,0,0,0,0,0,-1,1287,890,0,0
70,134,0,0,0,0,0,0,0,0,0,-1,1294,890,0,0
77,134,0,0,0,0,0,0,0,0,0,-1,1301,890,0,0
84,134,0,0,0,0,0,0,0,0,0,-1,1308,890,0,0
91,134,0,0,0,0,0,0,0,0,0,-1,1315,890,0,0
98,134,0,0,0,0,0,0,0,0,0,-1,1322,890,0,0
105,134,0,0,0,0,0,0,0,0,0,-1,1329,890,0,0
112,134,0,0,0,0,0,0,0,0,0,-1,1336,890,0,0
119,134,0,0,0,0,0,0,0,0,0,-1,1343,890,0,0
126,134,0,0,0,0,0,0,0,0,0,-1,1350,890,0,0
133,134,0,0,0,0,0,0,0,0,0,-1,1357,890,0,0
140,134,0,0,0,0,0,0,0,0,0,-1,1364,890,0,0
147,134,0,0,0,0,0,0,0,0,0,-1,1371,890,0,0
154,134,0,0,0,0,0,0,0,0,0,-1,1378,890,0,0
161,134,0,0,0,0,0,0,0,0,0,-1,1385,890,0,0
168,134,0,0,0,0,0,0,0,0,0,-1,1392,890,0,0
175,134,0,0,0,0,0,0,0,0,0,-1,1399,890,0,0
182,134,0,0,0,0,0,0,0,0,0,-1,1406,890,0,0
189,134,0,0,0,0,0,0,0,0,0,-1,1413,890,0,0
196,134,0,0,0,0,0,0,0,0,0,-1,1420,890,0,0
203,134,0,0,0,0,0,0,0,0,0,-1,1427,890,0,0
210,134,0,0,0,0,0,0,0,0,0,-1,1434,890,0,0
217,134,0,0,0,0,0,0,0,0,0,-1,1441,890,0,0
224,134,0,0,0,0,0,0,0,0,0,-1,1448,890,0,0
231,134,0,0,0,0,0,0,0,0,0,-1,1455,890,0,0
238,134,0,0,0,0,0,0,0,0,0,-1,1462,890,0,0
245,134,0,0,0,0,0,0,0,0,0,-1,1469,890,0,0
252,134,0,0,0,0,0,0,0,0,0,-1,1476,890,0,0
259,134,0,0,0,0,0,0,0,0,0,-1,1483,890,0,0
266,134,0,0,0,0,0,0,0,0,0,-1,1490,890,0,0
273,134,0,0,0,0,0,0,0,0,0,-1,1497,890,0,0
280,134,0,0,0,0,0,0,0,0,0,-1,1504,890,0,0
287,134,0,0,0,0,0,0,0,0,0,-1,1511,890,0,0
294,134,0,0,0,0,0,0,0,0,0,-1,1518,890,0,0
301,134,0,0,0,0,0,0,0,0,0,-1,1525,890,0,0
308,134,0,0,0,0,0,0,0,0,0,-1,1532,890,0,0
315,134,0,0,0,0,0,0,0,0,0,-1,1539,890,0,0
322,134,0,0,0,0,0,0,0,0,0,-1,1546,890,0,0
329,134,0,0,0,0,0,0,0,0,0,-1,1553,890,0,0
336,134,0,0,0,0,0,0,0,0,0,-1,1560,890,0,0
343,134,0,0,0,0,0,0,0,0,0,-1,1567,890,0,0
350,134,0,0,0,0,0,0,0,0,0,-1,1574,890,0,0
357,134,0,0,0,0,0,0,0,0,0,-1,1581,890,0,0
364,134,0,0,0,0,0,0,0,0,0,-1,1588,890,0,0
371,134,0,0,0,0,0,0,0,0,0,-1,1595,890,0,0
378,134,0,0,0,0,0,0,0,0,0,-1,1602,890,0,0
385,134,0,0,0,0,0,0,0,0,0,-1,1609,890,0,0
392,134,0,0,0,0,0,0,0,0,0,-1,1616,890,0,0
399,134,0,0,0,0,0,0,0,0,0,-1,1623,890,0,0
406,134,0,0,0,0,0,0,0,0,0,-1,1630,890,0,0
413,134,0,0,0,0,0,0,0,0,0,-1,1637,890,0,0
420,134,0,0,0,0,0,0,0,0,0,-1,1644,890,0,0
427,134,0,0,0,0,0,0,0,0,0,-1,1651,890,0,0
434,134,0,0,0,0,0,0,0,0,0,-1,1658,890,0,0
441,134,0,0,0,0,0,0,0,0,0,-1,1665,890,0,0
448,134,0,0,0,0,0,0,0,0,0,-1,1672,890,0,0
455,134,0,0,0,0,0,0,0,0,0,-1,1679,890,0,0
462,134,0,0,0,0,0,0,0,0,0,-1,1686,890,0,0
469,134,0,0,0,0,0,0,0,0,0,-1,1693,890,0,0
476,134,0,0,0,0,0,0,0,0,0,-1,1700,890,0,0
483,134,0,0,0,0,0,0,0,0,0,-1,1707,890,0,0
490,134,0,0,0,0,0,0,0,0,0,-1,1714,890,0,0
497,134,0,0,0,0,0,0,0,0,0,-1,1721,890,0,0
504,134,0,0,0,0,0,0,0,0,0,-1,1728,890,0,0
511,134,0,0,0,0,0,0,0,0,0,-1,1735,890,0,0
518,134,0,0,0,0,0,0,0,0,0,-1,1742,890,0,0
525,134,0,0,0,0,0,0,0,0,0,-1,1749,890,0,0
532,134,0,0,0,0,0,0,0,0,0,-1,1756,890,0,0
539,134,0,0,0,0,0,0,0,0,0,-1,1763,890,0,0
546,134,0,0,0,0,0,0,0,0,0,-1,1770,890,0,0
553,134,0,0,0,0,0,0,0,0,0,-1,1777,890,0,0
560,134,0,0,0,0,0,0,0,0,0,-1,1784,890,0,0
567,134,0,0,0,0,0,0,0,0,0,-1,1791,890,0,0
574,134,0,0,0,0,0,0,0,0,0,-1,1798,890,0,0
581,134,0,0,0,0,0,0,0,0,0,-1,1805,890,0,0
588,134,0,0,0,0,0,0,0,0,0,-1,1812,890,0,0
595,134,0,0,0,0,0,0,0,0,0,-1,1819,890,0,0
602,134,0,0,0,0,0,0,0,0,0,-1,1826,890,0,0
609,134,0,0,0,0,0,0,0,0,0,-1,1833,890,0,0
616,134,0,0,0,0,0,0,0,0,0,-1,1840,890,0,0
623,134,4.31665,0.540894,0.00697888,-9.88325e-05,-0.00230815,0.00766507,-0.000785027,-0.288971,0.00539081,0.0473696,1847,890,4.31663,-0.540889
630,134,4.41394,0.499817,0.00480909,0.000124637,-0.00144889,0.005221,-0.00028728,-0.27699,0.00358027,0.0475623,1854,890,4.414,-0.499794
637,134,4.34106,0.459167,0.00282879,0.000305296,-0.0011165,0.00325185,-0.000117764,-0.3622,0.0022082,0.0456922,1861,890,4.34102,-0.459193
644,134,4.3385,0.800293,0.00107508,0.000362839,-0.00105361,0.00183113,-0.000393213,-0.622427,0.00137075,0.0407001,1868,890,4.3385,-0.800293
651,134,4.27637,0.794495,-0.000389422,0.000321268,-0.00117543,0.00119389,-0.00126204,-0.932186,0.00141811,0.0435833,1875,890,4.27642,-0.794482
658,134,4.22266,0.783325,-0.00151087,0.000240236,-0.00137937,0.000998469,-0.00226911,-1.06819,0.0019335,0.0408365,1882,890,4.22263,-0.783331
665,134,4.2323,0.728638,-0.00227082,0.000139762,-0.00156115,0.000906757,-0.00303782,-1.11413,0.00238561,0.0301742,1889,890,4.23234,-0.728634
672,134,4.25317,0.697632,-0.00285359,5.31903e-05,-0.00165735,0.000804147,-0.00360455,-1.14536,0.00271113,0.0209923,1896,890,4.25313,-0.697618
679,134,4.20081,0.710388,-0.003221,-0.000114736,-0.00161036,0.000569423,-0.00390516,-1.16905,0.00281253,0.0169855,1903,890,4.20084,-0.710391
686,134,4.22107,0.694824,-0.0034044,-0.000149069,-0.00159577,0.000502693,-0.00405616,-1.18304,0.0028863,0.0447034,1910,890,4.22107,-0.694855
693,134,4.08972,0.615723,-0.00319969,-0.000195984,-0.00158721,0.000487296,-0.00388297,-1.16428,0.00276543,0.0224358,1917,890,4.0897,-0.615715
700,134,3.98315,0.608521,-0.00279577,-0.000203742,-0.00153382,0.000508291,-0.00350781,-1.13618,0.00252508,0.0152591,1924,890,3.98316,-0.608512
707,134,3.9834,0.608826,-0.00235571,-0.000163177,-0.00139308,0.000513263,-0.00303215,-1.11876,0.00221245,0.01445,1931,890,3.9834,-0.608807
714,134,3.98035,0.616516,-0.00154748,0.000133288,-0.00120966,0.000765832,-0.00218003,-1.08899,0.00176491,0.014012,1938,890,3.98037,-0.616515
721,134,4.01331,0.639465,-0.000451337,0.000919192,-0.00106564,0.00150088,-0.00103303,-1.07114,0.00147124,0.0134441,1945,890,4.01332,-0.639445
728,134,4.00952,0.673706,0.000660419,0.00143821,-0.00089407,0.0020243,7.43266e-05,-0.990541,0.00132545,0.014573,1952,890,4.00948,-0.673726
735,134,3.99365,0.715088,0.00243565,0.00255917,-7.15776e-05,0.00259195,0.00240288,-1.14135,0.00166852,0.0188726,1959,890,3.9936,-0.715074
742,134,3.99194,0.732361,0.00430208,0.00371784,0.00102854,0.00507918,0.00294074,0.647035,0.00294463,0.0135251,1966,890,3.99192,-0.732377
749,134,4.0188,0.750244,0.00591289,0.00541487,0.00200947,0.00768872,0.00363904,0.723753,0.00444119,0.0123617,1973,890,4.01876,-0.750248
756,134,4.00159,0.772705,0.00788035,0.00726275,0.00341602,0.0110015,0.0041416,0.740322,0.00641602,0.0163162,1980,890,4.00154,-0.772683
763,134,4.02637,0.741394,0.0100325,0.00943244,0.00530698,0.0150479,0.00441703,0.75716,0.00893143,0.0360215,1987,890,4.02635,-0.74142
770,134,4.36096,0.71051,0.0123464,0.0119551,0.00782405,0.0199773,0.00432428,0.772899,0.0121363,0.0404906,1994,890,4.361,-0.710523
777,134,4.59961,0.578491,0,0,0,0,0,0,0,-1,2001,890,4.59965,-0.578475
784,134,4.71899,0.366577,0.0169191,0.0179828,0.0152571,0.0327173,0.00218456,0.802821,0.021121,0.0457203,2008,890,4.71895,-0.366594
791,134,4.76465,0.135254,0.0186396,0.0214399,0.0203132,0.0404012,-0.000321666,0.819808,0.027042,0.0427952,2015,890,4.76461,-0.135233
798,134,0,0,0,0,0,0,0,0,0,-1,2022,890,0,0
805,134,0,0,0,0,0,0,0,0,0,-1,2029,890,0,0
812,134,0,0,0,0,0,0,0,0,0,-1,2036,890,0,0
-700,127,0,0,0,0,0,0,0,0,0,-1,524,897,0,0
-693,127,0,0,0,0,0,0,0,0,0,-1,531,897,0,0
-686,127,0,0,0,0,0,0,0,0,0,-1,538,897,0,0
-679,127,-0.752625,-0.362732,0,0,0,0,0,0,0,-1,545,897,-0.752636,0.362759
-672,127,-0.881653,-0.156067,0.017275,0.0327789,0.00886052,0.0367998,0.013254,1.14478,0.0215216,0.046674,552,897,-0.881623,0.156052
-665,127,-0.201355,0.0652466,0.00961537,0.0247786,0.0110013,0.0305577,0.0038362,1.0871,0.0192211,0.0448769,559,897,-0.201359,-0.0652236
-658,127,0.191528,0.106934,0.0043821,0.0182997,0.0114379,0.0247294,-0.00204756,1.05868,0.0172094,0.044484,566,897,0.19151,-0.10692
-651,127,-0.364136,0.452271,0,0,0,0,0,0,0,-1,573,897,-0.364144,-0.452247
-644,127,-0.386292,0.55127,-0.00127398,0.00908851,0.00969391,0.014899,-0.00708442,1.03082,0.0129566,0.0414782,580,897,-0.386264,-0.551265
-637,127,-0.417114,0.664185,-0.00249912,0.00601527,0.00825751,0.0110484,-0.00753225,1.0234,0.0107914,0.0388244,587,897,-0.417122,-0.664188
-630,127,-0.457397,0.779968,-0.00311081,0.00372325,0.00682382,0.00793778,-0.00732533,1.01752,0.00881453,0.0293689,594,897,-0.457385,-0.779975
-623,127,-0.520935,0.805237,-0.00331494,0.00190865,0.00580414,0.00566156,-0.00706785,0.996821,0.00736427,0.0126802,601,897,-0.520909,-0.805249
-616,127,-0.540527,0.809204,-0.00361467,0.00024982,0.00470523,0.0034041,-0.00676896,0.980229,0.00597956,0.00961467,608,897,-0.540508,-0.809211
-609,127,-0.551453,0.786682,-0.00381297,-0.000639233,0.00315288,0.0013036,-0.0057558,1.01854,0.00433753,0.0136418,615,897,-0.551443,-0.786697
-602,127,-0.551514,0.778503,-0.00362466,-0.000843089,0.00209873,0.00028385,-0.0047516,1.07802,0.00326646,0.015124,622,897,-0.551503,-0.778476
-595,127,-0.52179,0.755493,-0.00321255,-0.00111107,0.00168166,-0.000178878,-0.00414475,1.06463,0.00270551,0.0124833,629,897,-0.521799,-0.755514
-588,127,-0.539124,0.738647,-0.00315629,-0.000838022,0.00149355,-0.000106581,-0.00388773,1.11539,0.00255703,0.0158218,636,897,-0.539139,-0.738626
-581,127,-0.568115,0.709717,-0.00348344,-0.000661829,0.00157649,4.29468e-05,-0.00418822,1.15039,0.00280657,0.0218483,643,897,-0.568096,-0.709726
-574,127,-0.556702,0.687073,-0.00397297,-0.000687612,0.00160059,-3.6756e-05,-0.00462382,1.18458,0.00307037,0.0220256,650,897,-0.556685,-0.68708
-567,127,-0.511658,0.708069,-0.00416975,-0.000760175,0.00159848,-0.000127991,-0.00480193,1.19418,0.00315949,0.0289174,657,897,-0.511644,-0.708062
-560,127,-0.678894,0.728088,-0.00422035,-0.000921561,0.00157891,-0.000287657,-0.00485425,1.18901,0.00314467,0.0294505,664,897,-0.678864,-0.728072
-553,127,-0.932434,0.72821,-0.00408018,-0.000930009,0.00143959,-0.000371245,-0.00463894,1.20055,0.00297661,0.0358076,671,897,-0.932453,-0.728234
-546,127,-0.89679,0.855896,-0.00358715,-0.00081392,0.00118152,-0.00037881,-0.00402226,1.21794,0.00256458,0.0227204,678,897,-0.89677,-0.855913
-539,127,-0.873108,0.810181,-0.00263238,-0.000681615,0.000721835,-0.000443566,-0.00287043,1.25224,0.00178424,0.0220397,685,897,-0.873103,-0.810151
-532,127,-0.832153,0.82666,-0.00115672,-0.000486509,7.39925e-05,-0.000478437,-0.00116479,1.46214,0.000676055,0.0175835,692,897,-0.832153,-0.826681
-525,127,-0.894104,0.783569,0.000875852,-0.000233117,-0.000768991,0.00126942,-0.000626683,-0.47304,0.00111548,0.0316591,699,897,-0.894083,-0.783552
-518,127,-0.691101,0.583801,0.00350882,6.99659e-05,-0.00176816,0.00425573,-0.000676942,-0.399685,0.00308763,0.0404261,706,897,-0.691077,-0.583823
-511,127,-0.341064,0.280212,0,0,0,0,0,0,0,-1,713,897,-0.341046,-0.280241
-504,127,0,0,0,0,0,0,0,0,0,-1,720,897,0,0
-497,127,0,0,0,0,0,0,0,0,0,-1,727,897,0,0
-490,127,0,0,0,0,0,0,0,0,0,-1,734,897,0,0
-483,127,0,0,0,0,0,0,0,0,0,-1,741,897,0,0
-476,127,0,0,0,0,0,0,0,0,0,-1,748,897,0,0
-469,127,0,0,0,0,0,0,0,0,0,-1,755,897,0,0
-462,127,0,0,0,0,0,0,0,0,0,-1,762,897,0,0
-455,127,0,0,0,0,0,0,0,0,0,-1,769,897,0,0
-448,127,0,0,0,0,0,0,0,0,0,-1,776,897,0,0
-441,127,0,0,0,0,0,0,0,0,0,-1,783,897,0,0
-434,127,0,0,0,0,0,0,0,0,0,-1,790,897,0,0
-427,127,0,0,0,0,0,0,0,0,0,-1,797,897,0,0
-420,127,0,0,0,0,0,0,0,0,0,-1,804,897,0,0
-413,127,0,0,0,0,0,0,0,0,0,-1,811,897,0,0
-406,127,0,0,0,0,0,0,0,0,0,-1,818,897,0,0
-399,127,0,0,0,0,0,0,0,0,0,-1,825,897,0,0
-392,127,0,0,0,0,0,0,0,0,0,-1,832,897,0,0
-385,127,0,0,0,0,0,0,0,0,0,-1,839,897,0,0
-378,127,0,0,0,0,0,0,0,0,0,-1,846,897,0,0
-371,127,0,0,0,0,0,0,0,0,0,-1,853,897,0,0
-364,127,0,0,0,0,0,0,0,0,0,-1,860,897,0,0
-357,127,0,0,0,0,0,0,0,0,0,-1,867,897,0,0
-350,127,0,0,0,0,0,0,0,0,0,-1,874,897,0,0
-343,127,0,0,0,0,0,0,0,0,0,-1,881,897,0,0
-336,127,0,0,0,0,0,0,0,0,0,-1,888,897,0,0
-329,127,0,0,0,0,0,0,0,0,0,-1,895,897,0,0
-322,127,0,0,0,0,0,0,0,0,0,-1,902,897,0,0
-315,127,0,0,0,0,0,0,0,0,0,-1,909,897,0,0
-308,127,0,0,0,0,0,0,0,0,0,-1,916,897,0,0
-301,127,0,0,0,0,0,0,0,0,0,-1,923,897,0,0
-294,127,0,0,0,0,0,0,0,0,0,-1,930,897,0,0
-287,127,0,0,0,0,0,0,0,0,0,-1,937,897,0,0
-280,127,0,0,0,0,0,0,0,0,0,-1,944,897,0,0
-273,127,0,0,0,0,0,0,0,0,0,-1,951,897,0,0
-266,127,0,0,0,0,0,0,0,0,0,-1,958,897,0,0
-259,127,0,0,0,0,0,0,0,0,0,-1,965,897,0,0
-252,127,0,0,0,0,0,0,0,0,0,-1,972,897,0,0
-245,127,0,0,0,0,0,0,0,0,0,-1,979,897,0,0
-238,127,0,0,0,0,0,0,0,0,0,-1,986,897,0,0
-231,127,0,0,0,0,0,0,0,0,0,-1,993,897,0,0
-224,127,0,0,0,0,0,0,0,0,0,-1,1000,897,0,0
-217,127,0,0,0,0,0,0,0,0,0,-1,1007,897,0,0
-210,127,0,0,0,0,0,0,0,0,0,-1,1014,897,0,0
-203,127,0,0,0,0,0,0,0,0,0,-1,1021,897,0,0
-196,127,0,0,0,0,0,0,0,0,0,-1,1028,897,0,0
-189,127,0,0,0,0,0,0,0,0,0,-1,1035,897,0,0
-182,127,0,0,0,0,0,0,0,0,0,-1,1042,897,0,0
-175,127,0,0,0,0,0,0,0,0,0,-1,1049,897,0,0
-168,127,0,0,0,0,0,0,0,0,0,-1,1056,897,0,0
-161,127,0,0,0,0,0,0,0,0,0,-1,1063,897,0,0
-154,127,0,0,0,0,0,0,0,0,0,-1,1070,897,0,0
-147,127,0,0,0,0,0,0,0,0,0,-1,1077,897,0,0
-140,127,0,0,0,0,0,0,0,0,0,-1,1084,897,0,0
-133,127,0,0,0,0,0,0,0,0,0,-1,1091,897,0,0
-126,127,0,0,0,0,0,0,0,0,0,-1,1098,897,0,0
-119,127,0,0,0,0,0,0,0,0,0,-1,1105,897,0,0
-112,127,0,0,0,0,0,0,0,0,0,-1,1112,897,0,0
-105,127,0,0,0,0,0,0,0,0,0,-1,1119,897,0,0
-98,127,0,0,0,0,0,0,0,0,0,-1,1126,897,0,0
-91,127,0,0,0,0,0,0,0,0,0,-1,1133,897,0,0
-84,127,0,0,0,0,0,0,0,0,0,-1,1140,897,0,0
-77,127,0,0,0,0,0,0,0,0,0,-1,1147,897,0,0
-70,127,0,0,0,0,0,0,0,0,0,-1,1154,897,0,0
-63,127,0,0,0,0,0,0,0,0,0,-1,1161,897,0,0
-56,127,0,0,0,0,0,0,0,0,0,-1,1168,897,0,0
-49,127,0,0,0,0,0,0,0,0,0,-1,1175,897,0,0
-42,127,0,0,0,0,0,0,0,0,0,-1,1182,897,0,0
-35,127,0,0,0,0,0,0,0,0,0,-1,1189,897,0,0
-28,127,0,0,0,0,0,0,0,0,0,-1,1196,897,0,0
-21,127,0,0,0,0,0,0,0,0,0,-1,1203,897,0,0
-14,127,0,0,0,0,0,0,0,0,0,-1,1210,897,0,0
-7,127,0,0,0,0,0,0,0,0,0,-1,1217,897,0,0
0,127,0,0,0,0,0,0,0,0,0,-1,1224,897,0,0
7,127,0,0,0,0,0,0,0,0,0,-1,1231,897,0,0
14,127,0,0,0,0,0,0,0,0,0,-1,1238,897,0,0
21,127,0,0,0,0,0,0,0,0,0,-1,1245,897,0,0
28,127,0,0,0,0,0,0,0,0,0,-1,1252,897,0,0
35,127,0,0,0,0,0,0,0,0,0,-1,1259,897,0,0
42,127,0,0,0,0,0,0,0,0,0,-1,1266,897,0,0
49,127,0,0,0,0,0,0,0,0,0,-1,1273,897,0,0
56,127,0,0,0,0,0,0,0,0,0,-1,1280,897,0,0
63,127,0,0,0,0,0,0,0,0,0,-1,1287,897,0,0
70,127,0,0,0,0,0,0,0,0,0,-1,1294,897,0,0
77,127,0,0,0,0,0,0,0,0,0,-1,1301,897,0,0
84,127,0,0,0,0,0,0,0,0,0,-1,1308,897,0,0
91,127,0,0,0,0,0,0,0,0,0,-1,1315,897,0,0
98,127,0,0,0,0,0,0,0,0,0,-1,1322,897,0,0
105,127,0,0,0,0,0,0,0,0,0,-1,1329,897,0,0
112,127,0,0,0,0,0,0,0,0,0,-1,1336,897,0,0
119,127,0,0,0,0,0,0,0,0,0,-1,1343,897,0,0
126,127,0,0,0,0,0,0,0,0,0,-1,1350,897,0,0
133,127,0,0,0,0,0,0,0,0,0,-1,1357,897,0,0
140,127,0,0,0,0,0,0,0,0,0,-1,1364,897,0,0
147,127,0,0,0,0,0,0,0,0,0,-1,1371,897,0,0
154,127,0,0,0,0,0,0,0,0,0,-1,1378,897,0,0
161,127,0,0,0,0,0,0,0,0,0,-1,1385,897,0,0
168,127,0,0,0,0,0,0,0,0,0,-1,1392,897,0,0
175,127,0,0,0,0,0,0,0,0,0,-1,1399,897,0,0
182,127,0,0,0,0,0,0,0,0,0,-1,1406,897,0,0
189,127,0,0,0,0,0,0,0,0,0,-1,1413,897,0,0
196,127,0,0,0,0,0,0,0,0,0,-1,1420,897,0,0
203,127,0,0,0,0,0,0,0,0,0,-1,1427,897,0,0
210,127,0,0,0,0,0,0,0,0,0,-1,1434,897,0,0
217,127,0,0,0,0,0,0,0,0,0,-1,1441,897,0,0
224,127,0,0,0,0,0,0,0,0,0,-1,1448,897,0,0
231,127,0,0,0,0,0,0,0,0,0,-1,1455,897,0,0
238,127,0,0,0,0,0,0,0,0,0,-1,1462,897,0,0
245,127,0,0,0,0,0,0,0,0,0,-1,1469,897,0,0
252,127,0,0,0,0,0,0,0,0,0,-1,1476,897,0,0
259,127,0,0,0,0,0,0,0,0,0,-1,1483,897,0,0
266,127,0,0,0,0,0,0,0,0,0,-1,1490,897,0,0
273,127,0,0,0,0,0,0,0,0,0,-1,1497,897,0,0
280,127,0,0,0,0,0,0,0,0,0,-1,1504,897,0,0
287,127,0,0,0,0,0,0,0,0,0,-1,1511,897,0,0
294,127,0,0,0,0,0,0,0,0,0,-1,1518,897,0,0
301,127,0,0,0,0,0,0,0,0,0,-1,1525,897,0,0
308,127,0,0,0,0,0,0,0,0,0,-1,1532,897,0,0
315,127,0,0,0,0,0,0,0,0,0,-1,1539,897,0,0
322,127,0,0,0,0,0,0,0,0,0,-1,1546,897,0,0
329,127,0,0,0,0,0,0,0,0,0,-1,1553,897,0,0
336,127,0,0,0,0,0,0,0,0,0,-1,1560,897,0,0
343,127,0,0,0,0,0,0,0,0,0,-1,1567,897,0,0
350,127,0,0,0,0,0,0,0,0,0,-1,1574,897,0,0
357,127,0,0,0,0,0,0,0,0,0,-1,1581,897,0,0
364,127,0,0,0,0,0,0,0,0,0,-1,1588,897,0,0
371,127,0,0,0,0,0,0,0,0,0,-1,1595,897,0,0
378,127,0,0,0,0,0,0,0,0,0,-1,1602,897,0,0
385,127,0,0,0,0,0,0,0,0,0,-1,1609,897,0,0
392,127,0,0,0,0,0,0,0,0,0,-1,1616,897,0,0
399,127,0,0,0,0,0,0,0,0,0,-1,1623,897,0,0
406,127,0,0,0,0,0,0,0,0,0,-1,1630,897,0,0
413,127,0,0,0,0,0,0,0,0,0,-1,1637,897,0,0
420,127,0,0,0,0,0,0,0,0,0,-1,1644,897,0,0
427,127,0,0,0,0,0,0,0,0,0,-1,1651,897,0,0
434,127,0,0,0,0,0,0,0,0,0,-1,1658,897,0,0
441,127,0,0,0,0,0,0,0,0,0,-1,1665,897,0,0
448,127,0,0,0,0,0,0,0,0,0,-1,1672,897,0,0
455,127,0,0,0,0,0,0,0,0,0,-1,1679,897,0,0
462,127,0,0,0,0,0,0,0,0,0,-1,1686,897,0,0
469,127,0,0,0,0,0,0,0,0,0,-1,1693,897,0,0
476,127,0,0,0,0,0,0,0,0,0,-1,1700,897,0,0
483,127,0,0,0,0,0,0,0,0,0,-1,1707,897,0,0
490,127,0,0,0,0,0,0,0,0,0,-1,1714,897,0,0
497,127,0,0,0,0,0,0,0,0,0,-1,1721,897,0,0
504,127,0,0,0,0,0,0,0,0,0,-1,1728,897,0,0
511,127,0,0,0,0,0,0,0,0,0,-1,1735,897,0,0
518,127,0,0,0,0,0,0,0,0,0,-1,1742,897,0,0
525,127,0,0,0,0,0,0,0,0,0,-1,1749,897,0,0
532,127,0,0,0,0,0,0,0,0,0,-1,1756,897,0,0
539,127,0,0,0,0,0,0,0,0,0,-1,1763,897,0,0
546,127,0,0,0,0,0,0,0,0,0,-1,1770,897,0,0
553,127,0,0,0,0,0,0,0,0,0,-1,1777,897,0,0
560,127,0,0,0,0,0,0,0,0,0,-1,1784,897,0,0
567,127,0,0,0,0,0,0,0,0,0,-1,1791,897,0,0
574,127,0,0,0,0,0,0,0,0,0,-1,1798,897,0,0
581,127,0,0,0,0,0,0,0,0,0,-1,1805,897,0,0
588,127,0,0,0,0,0,0,0,0,0,-1,1812,897,0,0
595,127,0,0,0,0,0,0,0,0,0,-1,1819,897,0,0
602,127,0,0,0,0,0,0,0,0,0,-1,1826,897,0,0
609,127,0,0,0,0,0,0,0,0,0,-1,1833,897,0,0
616,127,0,0,0,0,0,0,0,0,0,-1,1840,897,0,0
623,127,0,0,0,0,0,0,0,0,0,-1,1847,897,0,0
630,127,4.29224,0.516663,0.00484001,0.000276882,-0.00139315,0.00523173,-0.000114832,-0.274093,0.00352672,0.0426704,1854,897,4.2922,-0.516676
637,127,4.25085,0.717224,0.00277085,0.000494092,-0.00101013,0.0031544,0.000110539,-0.362889,0.00206707,0.0415231,1861,897,4.25081,-0.717252
644,127,4.49988,0.695496,0.000989552,0.000601946,-0.00086412,0.00168133,-8.9837e-05,-0.675085,0.001152,0.0390029,1868,897,4.49992,-0.695489
651,127,4.32495,0.633118,-0.00048801,0.000596609,-0.000916307,0.00111906,-0.00101046,-1.0526,0.00123001,0.0436093,1875,897,4.32499,-0.633117
658,127,4.13599,0.723572,-0.0016099,0.000530908,-0.00108189,0.000982426,-0.00206142,-1.17543,0.00179379,0.0439675,1882,897,4.13602,-0.723554
665,127,4.17627,0.734314,-0.00237055,0.000435633,-0.00124178,0.000906224,-0.00284114,-1.20855,0.00225763,0.0357902,1889,897,4.17622,-0.734331
672,127,4.23376,0.630371,-0.00292438,0.000335227,-0.00133435,0.000811782,-0.00340094,-1.22777,0.0025808,0.0295679,1896,897,4.23373,-0.630356
679,127,4.22729,0.63562,-0.00326156,0.000149226,-0.00131432,0.000596925,-0.00370926,-1.24249,0.00269395,0.0232733,1903,897,4.22731,-0.635639
686,127,4.2688,0.670715,-0.00343782,0.000108461,-0.00133266,0.000553428,-0.00388279,-1.24854,0.00279135,0.022877,1910,897,4.2688,-0.670715
693,127,4.12939,0.641663,-0.00322407,3.35887e-05,-0.00135225,0.000521754,-0.00371223,-1.22435,0.00266581,0.0231918,1917,897,4.12939,-0.641633
700,127,3.9917,0.597229,-0.00282458,-3.00995e-05,-0.00134493,0.000512021,-0.0033667,-1.18763,0.00243316,0.0177338,1924,897,3.99174,-0.59725
707,127,3.96252,0.604553,-0.00238234,-9.05929e-05,-0.00127128,0.00047502,-0.00294795,-1.15218,0.00214128,0.018408,1931,897,3.96257,-0.60456
714,127,3.98438,0.629944,-0.00160773,7.19115e-05,-0.00116595,0.000669012,-0.00220483,-1.0975,0.0017364,0.0155107,1938,897,3.98441,-0.629914
721,127,4.04199,0.659851,-0.000581966,0.000601294,-0.00107561,0.00123725,-0.00121792,-1.03684,0.00141751,0.0115122,1945,897,4.04193,-0.659826
728,127,4.03137,0.666809,0.000486214,0.000930414,-0.000964434,0.00169799,-0.000281363,-0.89857,0.0012365,0.011438,1952,897,4.03136,-0.666835
735,127,4.02246,0.708313,0.00216446,0.00177985,-0.000114397,0.00219591,0.0017484,-0.268322,0.00133992,0.018824,1959,897,4.02252,-0.708333
742,127,4.01868,0.74469,0.00384961,0.00270077,0.000931283,0.00436938,0.002181,0.509055,0.00252266,0.0176132,1966,897,4.01869,-0.744694
749,127,4.01855,0.751648,0.00519873,0.00415408,0.00196282,0.00670754,0.00264527,0.655357,0.0039013,0.0132369,1973,897,4.01861,-0.751659
756,127,4.01062,0.763733,0.00688605,0.00570098,0.00342135,0.00976579,0.00282123,0.699655,0.00580339,0.0153508,1980,897,4.01066,-0.763707
763,127,4.04395,0.720093,0.00865537,0.00756639,0.00536969,0.0135081,0.00271366,0.734871,0.00825096,0.0220026,1987,897,4.04394,-0.72009
770,127,4.32605,0.609802,0.0104591,0.00980479,0.00794898,0.0180876,0.00217623,0.764832,0.0114025,0.0378289,1994,897,4.32603,-0.609811
777,127,4.60583,0.496155,0,0,0,0,0,0,0,-1,2001,897,4.60578,-0.496141
784,127,4.65503,-0.240051,0.0135849,0.0155009,0.0155776,0.0301499,-0.00106411,0.816109,0.0204639,0.0446386,2008,897,4.65504,0.240046
791,127,4.40747,2.98859,0.0143103,0.0190268,0.0207583,0.0375604,-0.00422324,0.841958,0.0265601,0.0430796,2015,897,4.40747,-2.9886
798,127,0,0,0,0,0,0,0,0,0,-1,2022,897,0,0
805,127,0,0,0,0,0,0,0,0,0,-1,2029,897,0,0
812,127,0,0,0,0,0,0,0,0,0,-1,2036,897,0,0
-700,120,0,0,0,0,0,0,0,0,0,-1,524,904,0,0
-693,120,0,0,0,0,0,0,0,0,0,-1,531,904,0,0
-686,120,0,0,0,0,0,0,0,0,0,-1,538,904,0,0
-679,120,-0.213257,-0.478577,0.0247299,0.0467486,-0.00513056,0.0478854,0.0235931,-1.35275,0.0276476,0.0419796,545,904,-0.213227,0.478596
-672,120,-0.356873,-0.260559,0.0136902,0.0365467,0.00222393,0.0367611,0.0134759,1.4747,0.0214744,0.0401043,552,904,-0.356845,0.260571
-665,120,-0.168396,-0.127563,0.00630609,0.0278852,0.00640077,0.029641,0.00455036,1.30308,0.018432,0.0433539,559,904,-0.168394,0.127573
-658,120,0.0773315,-0.0731201,0.0014594,0.0207732,0.00839707,0.0239134,-0.00168083,1.21293,0.0165311,0.0451381,566,904,0.0773604,0.073091
-651,120,0.34906,0.108215,-0.00157435,0.0150364,0.00896303,0.0189505,-0.00548843,1.15906,0.0148062,0.047552,573,904,0.349067,-0.108233
-644,120,-0.0220337,0.485107,-0.00329571,0.0105081,0.0086229,0.0146512,-0.00743874,1.1229,0.0129782,0.0417411,580,904,-0.0220494,-0.485126
-637,120,-0.428406,0.766418,-0.00409252,0.00703203,0.00773961,0.0110008,-0.00806127,1.09697,0.011049,0.0351448,587,904,-0.428411,-0.766427
-630,120,-0.520081,0.812988,-0.00436866,0.00440751,0.00668031,0.00801203,-0.00797319,1.07599,0.00922908,0.0201476,594,904,-0.520094,-0.812984
-623,120,-0.559204,0.798584,-0.00434541,0.00232277,0.0059228,0.00578543,-0.00780807,1.04175,0.00787711,0.0101723,601,904,-0.559221,-0.798585
-616,120,-0.547485,0.789612,-0.00438337,0.000480612,0.00499752,0.00360648,-0.00750924,1.01185,0.00654819,0.00996369,608,904,-0.547466,-0.789603
-609,120,-0.560303,0.785767,-0.00423529,-0.000596394,0.00362572,0.00164079,-0.00647248,1.01795,0.00495334,0.0132092,615,904,-0.560277,-0.785744
-602,120,-0.571899,0.773621,-0.00384491,-0.000873319,0.00253039,0.000575247,-0.00529348,1.05087,0.00373553,0.0133152,622,904,-0.571911,-0.773644
-595,120,-0.552124,0.76062,-0.00330846,-0.00111546,0.00188177,-3.40352e-05,-0.00438988,1.0492,0.00291531,0.014277,629,904,-0.552124,-0.760613
-588,120,-0.556274,0.757263,-0.00317395,-0.000915184,0.00152904,-0.000143654,-0.00394548,1.10349,0.00258377,0.0179871,636,904,-0.556267,-0.75725
-581,120,-0.605957,0.735657,-0.00349734,-0.00076691,0.00153984,-7.42362e-05,-0.00419002,1.14808,0.00276893,0.0225484,643,904,-0.605968,-0.735654
-574,120,-0.593384,0.674377,-0.00393891,-0.000778901,0.00150397,-0.000177543,-0.00454027,1.19042,0.00296943,0.0211174,650,904,-0.59341,-0.674352
-567,120,-0.596558,0.687439,-0.00410516,-0.000844544,0.00146066,-0.000285918,-0.00466378,1.20551,0.0030184,0.0337613,657,904,-0.596574,-0.687437
-560,120,-0.755859,0.793335,-0.00410423,-0.00100965,0.00140357,-0.000467893,-0.00464599,1.20243,0.00295374,0.0390292,664,904,-0.755873,-0.793356
-553,120,-0.928406,0.798218,-0.00391316,-0.00104035,0.0012072,-0.000600424,-0.00435308,1.22134,0.00272406,0.0353644,671,904,-0.928376,-0.798214
-546,120,-0.865479,0.963928,-0.00337577,-0.00102351,0.000891988,-0.000723519,-0.00367576,1.24637,0.00224847,0.0310349,678,904,-0.86546,-0.963909
-539,120,-0.849365,0.870667,-0.00237635,-0.000972927,0.000394384,-0.000869693,-0.00247958,1.31478,0.00145269,0.0270731,685,904,-0.849374,-0.870688
-532,120,-0.860107,0.848328,-0.000862419,-0.00090027,-0.000274718,-0.000605975,-0.00115671,-0.751008,0.000668083,0.0284197,692,904,-0.860091,-0.848317
-525,120,-0.969482,0.824402,0.00121701,-0.000829411,-0.00112474,0.00171433,-0.00132673,-0.416315,0.0017605,0.0340944,699,904,-0.969482,-0.824426
-518,120,-0.941223,0.695557,0.00388852,-0.000802559,-0.00210192,0.00469253,-0.00160657,-0.365338,0.00377946,0.0396317,706,904,-0.941205,-0.695567
-511,120,-0.716797,0.545959,0.00683349,-0.000916634,-0.00294613,0.00782626,-0.0019094,-0.325024,0.00595687,0.0390452,713,904,-0.71679,-0.54598
-504,120,0,0,0,0,0,0,0,0,0,-1,720,904,0,0
-497,120,0,0,0,0,0,0,0,0,0,-1,727,904,0,0
-490,120,0,0,0,0,0,0,0,0,0,-1,734,904,0,0
-483,120,0,0,0,0,0,0,0,0,0,-1,741,904,0,0
-476,120,0,0,0,0,0,0,0,0,0,-1,748,904,0,0
-469,120,0,0,0,0,0,0,0,0,0,-1,755,904,0,0
-462,120,0,0,0,0,0,0,0,0,0,-1,762,904,0,0
-455,120,0,0,0,0,0,0,0,0,0,-1,769,904,0,0
-448,120,0,0,0,0,0,0,0,0,0,-1,776,904,0,0
-441,120,0,0,0,0,0,0,0,0,0,-1,783,904,0,0
-434,120,0,0,0,0,0,0,0,0,0,-1,790,904,0,0
-427,120,0,0,0,0,0,0,0,0,0,-1,797,904,0,0
-420,120,0,0,0,0,0,0,0,0,0,-1,804,904,0,0
-413,120,0,0,0,0,0,0,0,0,0,-1,811,904,0,0
-406,120,0,0,0,0,0,0,0,0,0,-1,818,904,0,0
-399,120,0,0,0,0,0,0,0,0,0,-1,825,904,0,0
-392,120,0,0,0,0,0,0,0,0,0,-1,832,904,0,0
-385,120,0,0,0,0,0,0,0,0,0,-1,839,904,0,0
-378,120,0,0,0,0,0,0,0,0,0,-1,846,904,0,0
-371,120,0,0,0,0,0,0,0,0,0,-1,853,904,0,0
-364,120,0,0,0,0,0,0,0,0,0,-1,860,904,0,0
-357,120,0,0,0,0,0,0,0,0,0,-1,867,904,0,0
-350,120,0,0,0,0,0,0,0,0,0,-1,874,904,0,0
-343,120,0,0,0,0,0,0,0,0,0,-1,881,904,0,0
-336,120,0,0,0,0,0,0,0,0,0,-1,888,904,0,0
-329,120,0,0,0,0,0,0,0,0,0,-1,895,904,0,0
-322,120,0,0,0,0,0,0,0,0,0,-1,902,904,0,0
-315,120,0,0,0,0,0,0,0,0,0,-1,909,904,0,0
-308,120,0,0,0,0,0,0,0,0,0,-1,916,904,0,0
-301,120,0,0,0,0,0,0,0,0,0,-1,923,904,0,0
-294,120,0,0,0,0,0,0,0,0,0,-1,930,904,0,0
-287,120,0,0,0,0,0,0,0,0,0,-1,937,904,0,0
-280,120,0,0,0,0,0,0,0,0,0,-1,944,904,0,0
-273,120,0,0,0,0,0,0,0,0,0,-1,951,904,0,0
-266,120,0,0,0,0,0,0,0,0,0,-1,958,904,0,0
-259,120,0,0,0,0,0,0,0,0,0,-1,965,904,0,0
-252,120,0,0,0,0,0,0,0,0,0,-1,972,904,0,0
-245,120,0,0,0,0,0,0,0,0,0,-1,979,904,0,0
-238,120,0,0,0,0,0,0,0,0,0,-1,986,904,0,0
-231,120,0,0,0,0,0,0,0,0,0,-1,993,904,0,0
-224,120,0,0,0,0,0,0,0,0,0,-1,1000,904,0,0
-217,120,0,0,0,0,0,0,0,0,0,-1,1007,904,0,0
-210,120,0,0,0,0,0,0,0,0,0,-1,1014,904,0,0
-203,120,0,0,0,0,0,0,0,0,0,-1,1021,904,0,0
-196,120,0,0,0,0,0,0,0,0,0,-1,1028,904,0,0
-189,120,0,0,0,0,0,0,0,0,0,-1,1035,904,0,0
-182,120,0,0,0,0,0,0,0,0,0,-1,1042,904,0,0
-175,120,0,0,0,0,0,0,0,0,0,-1,1049,904,0,0
-168,120,0,0,0,0,0,0,0,0,0,-1,1056,904,0,0
-161,120,0,0,0,0,0,0,0,0,0,-1,1063,904,0,0
-154,120,0,0,0,0,0,0,0,0,0,-1,1070,904,0,0
-147,120,0,0,0,0,0,0,0,0,0,-1,1077,904,0,0
-140,120,0,0,0,0,0,0,0,0,0,-1,1084,904,0,0
-133,120,0,0,0,0,0,0,0,0,0,-1,1091,904,0,0
-126,120,0,0,0,0,0,0,0,0,0,-1,1098,904,0,0
-119,120,0,0,0,0,0,0,0,0,0,-1,1105,904,0,0
-112,120,0,0,0,0,0,0,0,0,0,-1,1112,904,0,0
-105,120,0,0,0,0,0,0,0,0,0,-1,1119,904,0,0
-98,120,0,0,0,0,0,0,0,0,0,-1,1126,904,0,0
-91,120,0,0,0,0,0,0,0,0,0,-1,1133,904,0,0
-84,120,0,0,0,0,0,0,0,0,0,-1,1140,904,0,0
-77,120,0,0,0,0,0,0,0,0,0,-1,1147,904,0,0
-70,120,0,0,0,0,0,0,0,0,0,-1,1154,904,0,0
-63,120,0,0,0,0,0,0,0,0,0,-1,1161,904,0,0
-56,120,0,0,0,0,0,0,0,0,0,-1,1168,904,0,0
-49,120,0,0,0,0,0,0,0,0,0,-1,1175,904,0,0
-42,120,0,0,0,0,0,0,0,0,0,-1,1182,904,0,0
-35,120,0,0,0,0,0,0,0,0,0,-1,1189,904,0,0
-28,120,0,0,0,0,0,0,0,0,0,-1,1196,904,0,0
-21,120,0,0,0,0,0,0,0,0,0,-1,1203,904,0,0
-14,120,0,0,0,0,0,0,0,0,0,-1,1210,904,0,0
-7,120,0,0,0,0,0,0,0,0,0,-1,1217,904,0,0
0,120,0,0,0,0,0,0,0,0,0,-1,1224,904,0,0
7,120,0,0,0,0,0,0,0,0,0,-1,1231,904,0,0
14,120,0,0,0,0,0,0,0,0,0,-1,1238,904,0,0
21,120,0,0,0,0,0,0,0,0,0,-1,1245,904,0,0
28,120,0,0,0,0,0,0,0,0,0,-1,1252,904,0,0
35,120,0,0,0,0,0,0,0,0,0,-1,1259,904,0,0
42,120,0,0,0,0,0,0,0,0,0,-1,1266,904,0,0
49,120,0,0,0,0,0,0,0,0,0,-1,1273,904,0,0
56,120,0,0,0,0,0,0,0,0,0,-1,1280,904,0,0
63,120,0,0,0,0,0,0,0,0,0,-1,1287,904,0,0
70,120,0,0,0,0,0,0,0,0,0,-1,1294,904,0,0
77,120,0,0,0,0,0,0,0,0,0,-1,1301,904,0,0
84,120,0,0,0,0,0,0,0,0,0,-1,1308,904,0,0
91,120,0,0,0,0,0,0,0,0,0,-1,1315,904,0,0
98,120,0,0,0,0,0,0,0,0,0,-1,1322,904,0,0
105,120,0,0,0,0,0,0,0,0,0,-1,1329,904,0,0
112,120,0,0,0,0,0,0,0,0,0,-1,1336,904,0,0
119,120,0,0,0,0,0,0,0,0,0,-1,1343,904,0,0
126,120,0,0,0,0,0,0,0,0,0,-1,1350,904,0,0
133,120,0,0,0,0,0,0,0,0,0,-1,1357,904,0,0
140,120,0,0,0,0,0,0,0,0,0,-1,1364,904,0,0
147,120,0,0,0,0,0,0,0,0,0,-1,1371,904,0,0
154,120,0,0,0,0,0,0,0,0,0,-1,1378,904,0,0
161,120,0,0,0,0,0,0,0,0,0,-1,1385,904,0,0
168,120,0,0,0,0,0,0,0,0,0,-1,1392,904,0,0
175,120,0,0,0,0,0,0,0,0,0,-1,1399,904,0,0
182,120,0,0,0,0,0,0,0,0,0,-1,1406,904,0,0
189,120,0,0,0,0,0,0,0,0,0,-1,1413,904,0,0
196,120,0,0,0,0,0,0,0,0,0,-1,1420,904,0,0
203,120,0,0,0,0,0,0,0,0,0,-1,1427,904,0,0
210,120,0,0,0,0,0,0,0,0,0,-1,1434,904,0,0
217,120,0,0,0,0,0,0,0,0,0,-1,1441,904,0,0
224,120,0,0,0,0,0,0,0,0,0,-1,1448,904,0,0
231,120,0,0,0,0,0,0,0,0,0,-1,1455,904,0,0
238,120,0,0,0,0,0,0,0,0,0,-1,1462,904,0,0
245,120,0,0,0,0,0,0,0,0,0,-1,1469,904,0,0
252,120,0,0,0,0,0,0,0,0,0,-1,1476,904,0,0
259,120,0,0,0,0,0,0,0,0,0,-1,1483,904,0,0
266,120,0,0,0,0,0,0,0,0,0,-1,1490,904,0,0
273,120,0,0,0,0,0,0,0,0,0,-1,1497,904,0,0
280,120,0,0,0,0,0,0,0,0,0,-1,1504,904,0,0
287,120,0,0,0,0,0,0,0,0,0,-1,1511,904,0,0
294,120,0,0,0,0,0,0,0,0,0,-1,1518,904,0,0
301,120,0,0,0,0,0,0,0,0,0,-1,1525,904,0,0
308,120,0,0,0,0,0,0,0,0,0,-1,1532,904,0,0
315,120,0,0,0,0,0,0,0,0,0,-1,1539,904,0,0
322,120,0,0,0,0,0,0,0,0,0,-1,1546,904,0,0
329,120,0,0,0,0,0,0,0,0,0,-1,1553,904,0,0
336,120,0,0,0,0,0,0,0,0,0,-1,1560,904,0,0
343,120,0,0,0,0,0,0,0,0,0,-1,1567,904,0,0
350,120,0,0,0,0,0,0,0,0,0,-1,1574,904,0,0
357,120,0,0,0,0,0,0,0,0,0,-1,1581,904,0,0
364,120,0,0,0,0,0,0,0,0,0,-1,1588,904,0,0
371,120,0,0,0,0,0,0,0,0,0,-1,1595,904,0,0
378,120,0,0,0,0,0,0,0,0,0,-1,1602,904,0,0
385,120,0,0,0,0,0,0,0,0,0,-1,1609,904,0,0
392,120,0,0,0,0,0,0,0,0,0,-1,1616,904,0,0
399,120,0,0,0,0,0,0,0,0,0,-1,1623,904,0,0
406,120,0,0,0,0,0,0,0,0,0,-1,1630,904,0,0
413,120,0,0,0,0,0,0,0,0,0,-1,1637,904,0,0
420,120,0,0,0,0,0,0,0,0,0,-1,1644,904,0,0
427,120,0,0,0,0,0,0,0,0,0,-1,1651,904,0,0
434,120,0,0,0,0,0,0,0,0,0,-1,1658,904,0,0
441,120,0,0,0,0,0,0,0,0,0,-1,1665,904,0,0
448,120,0,0,0,0,0,0,0,0,0,-1,1672,904,0,0
455,120,0,0,0,0,0,0,0,0,0,-1,1679,904,0,0
462,120,0,0,0,0,0,0,0,0,0,-1,1686,904,0,0
469,120,0,0,0,0,0,0,0,0,0,-1,1693,904,0,0
476,120,0,0,0,0,0,0,0,0,0,-1,1700,904,0,0
483,120,0,0,0,0,0,0,0,0,0,-1,1707,904,0,0
490,120,0,0,0,0,0,0,0,0,0,-1,1714,904,0,0
497,120,0,0,0,0,0,0,0,0,0,-1,1721,904,0,0
504,120,0,0,0,0,0,0,0,0,0,-1,1728,904,0,0
511,120,0,0,0,0,0,0,0,0,0,-1,1735,904,0,0
518,120,0,0,0,0,0,0,0,0,0,-1,1742,904,0,0
525,120,0,0,0,0,0,0,0,0,0,-1,1749,904,0,0
532,120,0,0,0,0,0,0,0,0,0,-1,1756,904,0,0
539,120,0,0,0,0,0,0,0,0,0,-1,1763,904,0,0
546,120,0,0,0,0,0,0,0,0,0,-1,1770,904,0,0
553,120,0,0,0,0,0,0,0,0,0,-1,1777,904,0,0
560,120,0,0,0,0,0,0,0,0,0,-1,1784,904,0,0
567,120,0,0,0,0,0,0,0,0,0,-1,1791,904,0,0
574,120,0,0,0,0,0,0,0,0,0,-1,1798,904,0,0
581,120,0,0,0,0,0,0,0,0,0,-1,1805,904,0,0
588,120,0,0,0,0,0,0,0,0,0,-1,1812,904,0,0
595,120,0,0,0,0,0,0,0,0,0,-1,1819,904,0,0
602,120,0,0,0,0,0,0,0,0,0,-1,1826,904,0,0
609,120,0,0,0,0,0,0,0,0,0,-1,1833,904,0,0
616,120,0,0,0,0,0,0,0,0,0,-1,1840,904,0,0
623,120,0,0,0,0,0,0,0,0,0,-1,1847,904,0,0
630,120,4.29529,0.599243,0.00433637,0.000909095,-0.00130746,0.0047782,0.000467272,-0.325876,0.00304169,0.0388875,1854,904,4.2953,-0.59924
637,120,4.54651,0.556091,0.00241439,0.00103975,-0.000928687,0.00288244,0.000571709,-0.466831,0.00176225,0.0425895,1861,904,4.54652,-0.556114
644,120,4.41956,0.686646,0.000789349,0.00110693,-0.000733485,0.00169862,0.000197663,-0.891997,0.00107261,0.0418557,1868,904,4.41952,-0.68665
651,120,4.16284,0.679443,-0.00056308,0.0010754,-0.000734943,0.00135674,-0.000844429,-1.20519,0.00128227,0.0446329,1875,904,4.16288,-0.679433
658,120,4.15149,0.877014,-0.00159275,0.000979438,-0.000874449,0.00124856,-0.00186187,-1.27223,0.00180741,0.0462578,1882,904,4.15151,-0.877037
665,120,4.25293,0.810486,-0.0023004,0.000854426,-0.00102158,0.00115634,-0.00260231,-1.28344,0.00222294,0.0385425,1889,904,4.25298,-0.810514
672,120,4.24976,0.63031,-0.00279771,0.000711541,-0.00110983,0.00103307,-0.00311924,-1.2888,0.00249616,0.0352183,1896,904,4.24979,-0.630308
679,120,4.1936,0.593811,-0.00309773,0.000493634,-0.00111223,0.000810183,-0.00341428,-1.29352,0.00258886,0.0310168,1903,904,4.19365,-0.593826
686,120,4.19702,0.695557,-0.0032828,0.000425939,-0.00114999,0.000753577,-0.00361044,-1.29324,0.00269353,0.0184554,1910,904,4.19706,-0.695563
693,120,4.12878,0.706055,-0.00308857,0.000313619,-0.00118042,0.000683059,-0.00345801,-1.26748,0.00256354,0.0280461,1917,904,4.12873,-0.706076
700,120,4.00757,0.654175,-0.00273255,0.000191069,-0.0011827,0.000609598,-0.00315108,-1.23067,0.00233064,0.0178263,1924,904,4.00758,-0.654201
707,120,3.99805,0.596252,-0.00234501,5.17891e-05,-0.00114549,0.000511191,-0.00280441,-1.18938,0.00206124,0.0161388,1931,904,3.99805,-0.596261
714,120,4.04016,0.644348,-0.0016835,7.19513e-05,-0.00110183,0.000602925,-0.00221448,-1.12173,0.00171303,0.0135339,1938,904,4.04018,-0.644326
721,120,4.0675,0.688599,-0.000789565,0.000305401,-0.00105986,0.000950831,-0.00143499,-1.0238,0.00138688,0.0117138,1945,904,4.06749,-0.688592
728,120,4.07104,0.691956,0.00019492,0.000407937,-0.000973531,0.00128077,-0.000677911,-0.839884,0.00114856,0.00874279,1952,904,4.07107,-0.691978
735,120,4.05164,0.708618,0.00172361,0.000937531,-0.000154454,0.00175287,0.000908272,-0.187217,0.00101224,0.011482,1959,904,4.05164,-0.708608
742,120,4.03027,0.738647,0.00317983,0.00154504,0.00074132,0.00346592,0.00125894,0.368316,0.00202585,0.01312,1966,904,4.03022,-0.738669
749,120,4.01697,0.746948,0.00421429,0.00269912,0.00175409,0.0053674,0.00154601,0.581549,0.00319034,0.0111934,1973,904,4.01692,-0.74697
756,120,4.02112,0.755737,0.00558978,0.00387687,0.00315179,0.00799941,0.00146724,0.652734,0.00491738,0.0129215,1980,904,4.02117,-0.755733
763,120,4.01501,0.723511,0.00695204,0.00537752,0.0050138,0.01124,0.00108955,0.707525,0.00715785,0.0213064,1987,904,4.015,-0.723512
770,120,4.05688,0.700989,0.00822195,0.00728073,0.00747372,0.0152399,0.000262819,0.753955,0.0100734,0.0419015,1994,904,4.05686,-0.700989
777,120,4.11072,0.697571,0.00925916,0.00967259,0.0107062,0.0201741,-0.00124232,0.795051,0.013882,0.0489167,2001,904,4.11076,-0.697577
784,120,4.24329,0.807739,0.00978089,0.0126357,0.0147999,0.0260769,-0.00366032,0.833473,0.0187243,0.0453121,2008,904,4.24323,-0.807731
791,120,4.49634,2.23383,0.00936828,0.0163198,0.0197939,0.0329408,-0.00725269,0.872311,0.0247351,0.0430869,2015,904,4.49629,-2.23384
798,120,4.82715,1.26532,0.00732229,0.0209557,0.025729,0.0407558,-0.0124777,0.914894,0.0321473,0.0446058,2022,904,4.82718,-1.26529
805,120,0,0,0,0,0,0,0,0,0,-1,2029,904,0,0
812,120,0,0,0,0,0,0,0,0,0,-1,2036,904,0,0
-700,113,0,0,0,0,0,0,0,0,0,-1,524,911,0,0
-693,113,0,0,0,0,0,0,0,0,0,-1,531,911,0,0
-686,113,0,0,0,0,0,0,0,0,0,-1,538,911,0,0
-679,113,0.3526,-0.72583,0.0192572,0.0487634,-0.0121148,0.0531002,0.0149205,-1.22704,0.0316226,0.0423508,545,911,0.352629,0.725857
-672,113,0.196716,-0.380676,0.00860347,0.0384346,-0.00281239,0.0386974,0.00834064,-1.47761,0.0235164,0.0449885,552,911,0.196692,0.380652
-665,113,-0.109863,-0.269287,0.00181077,0.029626,0.00294886,0.0299352,0.00150158,1.46633,0.0194756,0.046626,559,911,-0.109849,0.269314
-658,113,0.127686,-0.292419,-0.00237968,0.0223094,0.00618206,0.0237709,-0.00384114,1.33866,0.0172706,0.0438356,566,911,0.127703,0.292414
-651,113,0.27301,-0.0663452,-0.00474136,0.0163491,0.00766376,0.0188398,-0.00723205,1.25657,0.0155419,0.0466028,573,911,0.273011,0.0663328
-644,113,-0.0239258,0.5177,-0.00582191,0.0115993,0.00796489,0.0146919,-0.00891444,1.20044,0.0137645,0.0411305,580,911,-0.0239314,-0.517686
-637,113,-0.457153,0.761108,-0.006036,0.0079161,0.00749977,0.0111827,-0.00930259,1.16002,0.0118438,0.030723,587,911,-0.457133,-0.761122
-630,113,-0.57312,0.798157,-0.00585959,0.00509128,0.00671159,0.00827759,-0.0090459,1.12755,0.010005,0.0139916,594,911,-0.573122,-0.798185
-623,113,-0.559814,0.7995,-0.0055135,0.00282736,0.00612957,0.00607071,-0.00875686,1.08412,0.0086074,0.00983504,601,911,-0.559821,-0.799475
-616,113,-0.552002,0.796753,-0.00520066,0.000869991,0.00531652,0.00395664,-0.00828731,1.04478,0.00721494,0.00957526,608,911,-0.552009,-0.796762
-609,113,-0.557007,0.779419,-0.00468708,-0.000356942,0.00409734,0.00211218,-0.0071562,1.02846,0.00560903,0.0111251,615,911,-0.557024,-0.779413
-602,113,-0.573547,0.75,-0.00402945,-0.000694408,0.0029057,0.000988256,-0.00571212,1.04589,0.00417665,0.0143453,622,911,-0.573569,-0.750013
-595,113,-0.578186,0.75415,-0.00332204,-0.000915828,0.00202617,0.000237508,-0.00447538,1.05332,0.00306582,0.0163367,629,911,-0.578165,-0.754174
-588,113,-0.574402,0.749878,-0.00311855,-0.000841687,0.00154291,-6.26766e-05,-0.00389756,1.10324,0.00257774,0.0156806,636,911,-0.574399,-0.749875
-581,113,-0.578674,0.732178,-0.00341397,-0.000754369,0.00150848,-7.32322e-05,-0.0040951,1.14666,0.00270599,0.0169153,643,911,-0.578658,-0.732148
-574,113,-0.566956,0.686218,-0.00379677,-0.000799311,0.00144279,-0.000217699,-0.00437838,1.18761,0.00284913,0.0164579,650,911,-0.56693,-0.686217
-567,113,-0.671875,0.690125,-0.00393304,-0.000882825,0.00136949,-0.000358188,-0.00445767,1.20495,0.00285987,0.02821,657,911,-0.671862,-0.690101
-560,113,-0.849731,0.802795,-0.00387329,-0.00103511,0.0012851,-0.000539701,-0.0043687,1.20285,0.00275027,0.0396672,664,911,-0.849739,-0.802784
-553,113,-0.859375,0.936951,-0.00361451,-0.00107457,0.0010588,-0.000691096,-0.00399799,1.22331,0.00246743,0.0352261,671,911,-0.859395,-0.936962
-546,113,-0.87616,0.930969,-0.00301394,-0.00108628,0.000711396,-0.000852174,-0.00324804,1.25288,0.00194457,0.0333551,678,911,-0.876189,-0.930996
-539,113,-0.800903,0.705994,-0.00195833,-0.00105018,0.000197769,-0.00100898,-0.00199953,1.36541,0.00115445,0.0362541,685,911,-0.800875,-0.705985
-532,113,-0.818909,0.646362,-0.00040817,-0.000992317,-0.000470358,-0.00014658,-0.00125391,-0.507554,0.000791615,0.0367,692,911,-0.818902,-0.646385
-525,113,-0.982178,0.722717,0.00169145,-0.000944409,-0.00130104,0.00222545,-0.00147841,-0.389474,0.00215287,0.0364495,699,911,-0.982162,-0.722687
-518,113,-0.968689,0.618896,0.0043315,-0.000970333,-0.00221938,0.0051379,-0.00177673,-0.348512,0.0041464,0.0412912,706,911,-0.968678,-0.618922
-511,113,-0.88678,0.602966,0.00713892,-0.00119782,-0.00292404,0.00806224,-0.00212115,-0.30586,0.00620395,0.0416703,713,911,-0.886753,-0.602975
-504,113,0,0,0,0,0,0,0,0,0,-1,720,911,0,0
-497,113,0,0,0,0,0,0,0,0,0,-1,727,911,0,0
-490,113,0,0,0,0,0,0,0,0,0,-1,734,911,0,0
-483,113,0,0,0,0,0,0,0,0,0,-1,741,911,0,0
-476,113,0,0,0,0,0,0,0,0,0,-1,748,911,0,0
-469,113,0,0,0,0,0,0,0,0,0,-1,755,911,0,0
-462,113,0,0,0,0,0,0,0,0,0,-1,762,911,0,0
-455,113,0,0,0,0,0,0,0,0,0,-1,769,911,0,0
-448,113,0,0,0,0,0,0,0,0,0,-1,776,911,0,0
-441,113,0,0,0,0,0,0,0,0,0,-1,783,911,0,0
-434,113,0,0,0,0,0,0,0,0,0,-1,790,911,0,0
-427,113,0,0,0,0,0,0,0,0,0,-1,797,911,0,0
-420,113,0,0,0,0,0,0,0,0,0,-1,804,911,0,0
-413,113,0,0,0,0,0,0,0,0,0,-1,811,911,0,0
-406,113,0,0,0,0,0,0,0,0,0,-1,818,911,0,0
-399,113,0,0,0,0,0,0,0,0,0,-1,825,911,0,0
-392,113,0,0,0,0,0,0,0,0,0,-1,832,911,0,0
-385,113,0,0,0,0,0,0,0,0,0,-1,839,911,0,0
-378,113,0,0,0,0,0,0,0,0,0,-1,846,911,0,0
-371,113,0,0,0,0,0,0,0,0,0,-1,853,911,0,0
-364,113,0,0,0,0,0,0,0,0,0,-1,860,911,0,0
-357,113,0,0,0,0,0,0,0,0,0,-1,867,911,0,0
-350,113,0,0,0,0,0,0,0,0,0,-1,874,911,0,0
-343,113,0,0,0,0,0,0,0,0,0,-1,881,911,0,0
-336,113,0,0,0,0,0,0,0,0,0,-1,888,911,0,0
-329,113,0,0,0,0,0,0,0,0,0,-1,895,911,0,0
-322,113,0,0,0,0,0,0,0,0,0,-1,902,911,0,0
-315,113,0,0,0,0,0,0,0,0,0,-1,909,911,0,0
-308,113,0,0,0,0,0,0,0,0,0,-1,916,911,0,0
-301,113,0,0,0,0,0,0,0,0,0,-1,923,911,0,0
-294,113,0,0,0,0,0,0,0,0,0,-1,930,911,0,0
-287,113,0,0,0,0,0,0,0,0,0,-1,937,911,0,0
-280,113,0,0,0,0,0,0,0,0,0,-1,944,911,0,0
-273,113,0,0,0,0,0,0,0,0,0,-1,951,911,0,0
-266,113,0,0,0,0,0,0,0,0,0,-1,958,911,0,0
-259,113,0,0,0,0,0,0,0,0,0,-1,965,911,0,0
-252,113,0,0,0,0,0,0,0,0,0,-1,972,911,0,0
-245,113,0,0,0,0,0,0,0,0,0,-1,979,911,0,0
-238,113,0,0,0,0,0,0,0,0,0,-1,986,911,0,0
-231,113,0,0,0,0,0,0,0,0,0,-1,993,911,0,0
-224,113,0,0,0,0,0,0,0,0,0,-1,1000,911,0,0
-217,113,0,0,0,0,0,0,0,0,0,-1,1007,911,0,0
-210,113,0,0,0,0,0,0,0,0,0,-1,1014,911,0,0
-203,113,0,0,0,0,0,0,0,0,0,-1,1021,911,0,0
-196,113,0,0,0,0,0,0,0,0,0,-1,1028,911,0,0
-189,113,0,0,0,0,0,0,0,0,0,-1,1035,911,0,0
-182,113,0,0,0,0,0,0,0,0,0,-1,1042,911,0,0
-175,113,0,0,0,0,0,0,0,0,0,-1,1049,911,0,0
-168,113,0,0,0,0,0,0,0,0,0,-1,1056,911,0,0
-161,113,0,0,0,0,0,0,0,0,0,-1,1063,911,0,0
-154,113,0,0,0,0,0,0,0,0,0,-1,1070,911,0,0
-147,113,0,0,0,0,0,0,0,0,0,-1,1077,911,0,0
-140,113,0,0,0,0,0,0,0,0,0,-1,1084,911,0,0
-133,113,0,0,0,0,0,0,0,0,0,-1,1091,911,0,0
-126,113,0,0,0,0,0,0,0,0,0,-1,1098,911,0,0
-119,113,0,0,0,0,0,0,0,0,0,-1,1105,911,0,0
-112,113,0,0,0,0,0,0,0,0,0,-1,1112,911,0,0
-105,113,0,0,0,0,0,0,0,0,0,-1,1119,911,0,0
-98,113,0,0,0,0,0,0,0,0,0,-1,1126,911,0,0
-91,113,0,0,0,0,0,0,0,0,0,-1,1133,911,0,0
-84,113,0,0,0,0,0,0,0,0,0,-1,1140,911,0,0
-77,113,0,0,0,0,0,0,0,0,0,-1,1147,911,0,0
-70,113,0,0,0,0,0,0,0,0,0,-1,1154,911,0,0
-63,113,0,0,0,0,0,0,0,0,0,-1,1161,911,0,0
-56,113,0,0,0,0,0,0,0,0,0,-1,1168,911,0,0
-49,113,0,0,0,0,0,0,0,0,0,-1,1175,911,0,0
-42,113,0,0,0,0,0,0,0,0,0,-1,1182,911,0,0
-35,113,0,0,0,0,0,0,0,0,0,-1,1189,911,0,0
-28,113,0,0,0,0,0,0,0,0,0,-1,1196,911,0,0
-21,113,0,0,0,0,0,0,0,0,0,-1,1203,911,0,0
-14,113,0,0,0,0,0,0,0,0,0,-1,1210,911,0,0
-7,113,0,0,0,0,0,0,0,0,0,-1,1217,911,0,0
0,113,0,0,0,0,0,0,0,0,0,-1,1224,911,0,0
7,113,0,0,0,0,0,0,0,0,0,-1,1231,911,0,0
14,113,0,0,0,0,0,0,0,0,0,-1,1238,911,0,0
21,113,0,0,0,0,0,0,0,0,0,-1,1245,911,0,0
28,113,0,0,0,0,0,0,0,0,0,-1,1252,911,0,0
35,113,0,0,0,0,0,0,0,0,0,-1,1259,911,0,0
42,113,0,0,0,0,0,0,0,0,0,-1,1266,911,0,0
49,113,0,0,0,0,0,0,0,0,0,-1,1273,911,0,0
56,113,0,0,0,0,0,0,0,0,0,-1,1280,911,0,0
63,113,0,0,0,0,0,0,0,0,0,-1,1287,911,0,0
70,113,0,0,0,0,0,0,0,0,0,-1,1294,911,0,0
77,113,0,0,0,0,0,0,0,0,0,-1,1301,911,0,0
84,113,0,0,0,0,0,0,0,0,0,-1,1308,911,0,0
91,113,0,0,0,0,0,0,0,0,0,-1,1315,911,0,0
98,113,0,0,0,0,0,0,0,0,0,-1,1322,911,0,0
105,113,0,0,0,0,0,0,0,0,0,-1,1329,911,0,0
112,113,0,0,0,0,0,0,0,0,0,-1,1336,911,0,0
119,113,0,0,0,0,0,0,0,0,0,-1,1343,911,0,0
126,113,0,0,0,0,0,0,0,0,0,-1,1350,911,0,0
133,113,0,0,0,0,0,0,0,0,0,-1,1357,911,0,0
140,113,0,0,0,0,0,0,0,0,0,-1,1364,911,0,0
147,113,0,0,0,0,0,0,0,0,0,-1,1371,911,0,0
154,113,0,0,0,0,0,0,0,0,0,-1,1378,911,0,0
161,113,0,0,0,0,0,0,0,0,0,-1,1385,911,0,0
168,113,0,0,0,0,0,0,0,0,0,-1,1392,911,0,0
175,113,0,0,0,0,0,0,0,0,0,-1,1399,911,0,0
182,113,0,0,0,0,0,0,0,0,0,-1,1406,911,0,0
189,113,0,0,0,0,0,0,0,0,0,-1,1413,911,0,0
196,113,0,0,0,0,0,0,0,0,0,-1,1420,911,0,0
203,113,0,0,0,0,0,0,0,0,0,-1,1427,911,0,0
210,113,0,0,0,0,0,0,0,0,0,-1,1434,911,0,0
217,113,0,0,0,0,0,0,0,0,0,-1,1441,911,0,0
224,113,0,0,0,0,0,0,0,0,0,-1,1448,911,0,0
231,113,0,0,0,0,0,0,0,0,0,-1,1455,911,0,0
238,113,0,0,0,0,0,0,0,0,0,-1,1462,911,0,0
245,113,0,0,0,0,0,0,0,0,0,-1,1469,911,0,0
252,113,0,0,0,0,0,0,0,0,0,-1,1476,911,0,0
259,113,0,0,0,0,0,0,0,0,0,-1,1483,911,0,0
266,113,0,0,0,0,0,0,0,0,0,-1,1490,911,0,0
273,113,0,0,0,0,0,0,0,0,0,-1,1497,911,0,0
280,113,0,0,0,0,0,0,0,0,0,-1,1504,911,0,0
287,113,0,0,0,0,0,0,0,0,0,-1,1511,911,0,0
294,113,0,0,0,0,0,0,0,0,0,-1,1518,911,0,0
301,113,0,0,0,0,0,0,0,0,0,-1,1525,911,0,0
308,113,0,0,0,0,0,0,0,0,0,-1,1532,911,0,0
315,113,0,0,0,0,0,0,0,0,0,-1,1539,911,0,0
322,113,0,0,0,0,0,0,0,0,0,-1,1546,911,0,0
329,113,0,0,0,0,0,0,0,0,0,-1,1553,911,0,0
336,113,0,0,0,0,0,0,0,0,0,-1,1560,911,0,0
343,113,0,0,0,0,0,0,0,0,0,-1,1567,911,0,0
350,113,0,0,0,0,0,0,0,0,0,-1,1574,911,0,0
357,113,0,0,0,0,0,0,0,0,0,-1,1581,911,0,0
364,113,0,0,0,0,0,0,0,0,0,-1,1588,911,0,0
371,113,0,0,0,0,0,0,0,0,0,-1,1595,911,0,0
378,113,0,0,0,0,0,0,0,0,0,-1,1602,911,0,0
385,113,0,0,0,0,0,0,0,0,0,-1,1609,911,0,0
392,113,0,0,0,0,0,0,0,0,0,-1,1616,911,0,0
399,113,0,0,0,0,0,0,0,0,0,-1,1623,911,0,0
406,113,0,0,0,0,0,0,0,0,0,-1,1630,911,0,0
413,113,0,0,0,0,0,0,0,0,0,-1,1637,911,0,0
420,113,0,0,0,0,0,0,0,0,0,-1,1644,911,0,0
427,113,0,0,0,0,0,0,0,0,0,-1,1651,911,0,0
434,113,0,0,0,0,0,0,0,0,0,-1,1658,911,0,0
441,113,0,0,0,0,0,0,0,0,0,-1,1665,911,0,0
448,113,0,0,0,0,0,0,0,0,0,-1,1672,911,0,0
455,113,0,0,0,0,0,0,0,0,0,-1,1679,911,0,0
462,113,0,0,0,0,0,0,0,0,0,-1,1686,911,0,0
469,113,0,0,0,0,0,0,0,0,0,-1,1693,911,0,0
476,113,0,0,0,0,0,0,0,0,0,-1,1700,911,0,0
483,113,0,0,0,0,0,0,0,0,0,-1,1707,911,0,0
490,113,0,0,0,0,0,0,0,0,0,-1,1714,911,0,0
497,113,0,0,0,0,0,0,0,0,0,-1,1721,911,0,0
504,113,0,0,0,0,0,0,0,0,0,-1,1728,911,0,0
511,113,0,0,0,0,0,0,0,0,0,-1,1735,911,0,0
518,113,0,0,0,0,0,0,0,0,0,-1,1742,911,0,0
525,113,0,0,0,0,0,0,0,0,0,-1,1749,911,0,0
532,113,0,0,0,0,0,0,0,0,0,-1,1756,911,0,0
539,113,0,0,0,0,0,0,0,0,0,-1,1763,911,0,0
546,113,0,0,0,0,0,0,0,0,0,-1,1770,911,0,0
553,113,0,0,0,0,0,0,0,0,0,-1,1777,911,0,0
560,113,0,0,0,0,0,0,0,0,0,-1,1784,911,0,0
567,113,0,0,0,0,0,0,0,0,0,-1,1791,911,0,0
574,113,0,0,0,0,0,0,0,0,0,-1,1798,911,0,0
581,113,0,0,0,0,0,0,0,0,0,-1,1805,911,0,0
588,113,0,0,0,0,0,0,0,0,0,-1,1812,911,0,0
595,113,0,0,0,0,0,0,0,0,0,-1,1819,911,0,0
602,113,0,0,0,0,0,0,0,0,0,-1,1826,911,0,0
609,113,0,0,0,0,0,0,0,0,0,-1,1833,911,0,0
616,113,0,0,0,0,0,0,0,0,0,-1,1840,911,0,0
623,113,0,0,0,0,0,0,0,0,0,-1,1847,911,0,0
630,113,4.35327,0.67926,0.00310329,0.00138157,-0.00113121,0.00366395,0.000820909,-0.460144,0.00222017,0.0371706,1854,911,4.35331,-0.67923
637,113,4.55432,0.636719,0.00161999,0.00148532,-0.000811324,0.00236677,0.000738542,-0.743998,0.00139827,0.0399988,1861,911,4.55428,-0.636693
644,113,4.26514,0.913757,0.000357804,0.00157019,-0.000591258,0.00181079,0.000117206,-1.18433,0.00117008,0.0379853,1868,911,4.2651,-0.913742
651,113,4.21875,0.826233,-0.000725666,0.00156398,-0.000546785,0.00168785,-0.00084954,-1.34801,0.00149138,0.0429315,1875,911,4.21871,-0.826237
658,113,4.34644,0.774536,-0.00157059,0.0014716,-0.000655593,0.00160687,-0.00170586,-1.36733,0.00191289,0.0456821,1882,911,4.34644,-0.774526
665,113,4.41626,0.749207,-0.00216455,0.00132603,-0.00078681,0.00149519,-0.00233371,-1.35903,0.00222821,0.0387745,1889,911,4.41621,-0.749234
672,113,4.37036,0.584717,-0.00257728,0.00114405,-0.000867972,0.00133654,-0.00276977,-1.35256,0.00241844,0.0355402,1896,911,4.37032,-0.584737
679,113,4.29773,0.491455,-0.00283887,0.000887199,-0.000885149,0.00108678,-0.00303845,-1.34903,0.00246895,0.029946,1903,911,4.29769,-0.491442
686,113,4.24707,0.638733,-0.00303851,0.00077114,-0.000937259,0.000989241,-0.00325661,-1.34216,0.00256521,0.0246747,1910,911,4.24707,-0.638753
693,113,4.10107,0.809509,-0.0028761,0.000602693,-0.000967417,0.000853622,-0.00312703,-1.31701,0.00241994,0.0294609,1917,911,4.10105,-0.809482
700,113,4.08643,0.699036,-0.00256912,0.000411465,-0.000979341,0.00070445,-0.00286211,-1.28011,0.00218114,0.0281946,1924,911,4.08646,-0.699014
707,113,4.08252,0.591797,-0.00222379,0.000226732,-0.000959027,0.000557426,-0.00255448,-1.23874,0.00191602,0.0153945,1931,911,4.0825,-0.591812
714,113,4.08228,0.634949,-0.00164871,0.000167013,-0.000934378,0.000561947,-0.00204364,-1.1709,0.00158334,0.0135929,1938,911,4.08223,-0.63493
721,113,4.07813,0.685425,-0.000850856,0.00022471,-0.000883474,0.000721208,-0.00134735,-1.0588,0.00121239,0.0138272,1945,911,4.07818,-0.68543
728,113,4.06543,0.715088,6.26973e-05,0.000217421,-0.000803801,0.000947575,-0.000667457,-0.833373,0.000937102,0.0146481,1952,911,4.06547,-0.715062
735,113,4.07837,0.729736,0.00146406,0.000547859,-1.60022e-05,0.00146434,0.00054758,-0.0174586,0.000854349,0.0146453,1959,911,4.0784,-0.729741
742,113,4.06165,0.742493,0.00272069,0.000969154,0.00067578,0.00295111,0.000738736,0.328605,0.00177322,0.0122232,1966,911,4.06162,-0.74252
749,113,4.05334,0.756409,0.00348463,0.00200768,0.00156701,0.00447845,0.00101386,0.5652,0.00271161,0.0092317,1973,911,4.05332,-0.75641
756,113,4.05969,0.764038,0.0045754,0.00299474,0.00278914,0.00668402,0.000886119,0.647338,0.00419198,0.0106695,1980,911,4.05973,-0.764056
763,113,4.04358,0.773804,0.00554648,0.00430921,0.00438065,0.00935196,0.000503732,0.715252,0.00607369,0.0201243,1987,911,4.04356,-0.773778
770,113,4.03113,0.762512,0.00628537,0.00603511,0.00644037,0.0126018,-0.000281347,0.775685,0.00849655,0.0410979,1994,911,4.03107,-0.762518
777,113,4.05127,0.724792,0.00662608,0.00829709,0.00911466,0.0166145,-0.00169128,0.831104,0.011681,0.0473428,2001,911,4.05132,-0.724793
784,113,4.22607,1.08759,0.00626328,0.0112349,0.0124628,0.0214573,-0.00395919,0.883835,0.0157909,0.0442506,2008,911,4.22611,-1.08761
791,113,4.46472,1.34991,0.00475111,0.0150602,0.0164691,0.0271625,-0.0073512,0.937061,0.0209923,0.0407301,2015,911,4.46473,-1.34994
798,113,4.57361,1.17786,0.00133526,0.0201124,0.0211241,0.0338404,-0.0123927,0.994512,0.0276335,0.0400651,2022,911,4.57366,-1.17788
805,113,0,0,0,0,0,0,0,0,0,-1,2029,911,0,0
812,113,0,0,0,0,0,0,0,0,0,-1,2036,911,0,0
-700,106,0,0,0,0,0,0,0,0,0,-1,524,918,0,0
-693,106,0,0,0,0,0,0,0,0,0,-1,531,918,0,0
-686,106,0,0,0,0,0,0,0,0,0,-1,538,918,0,0
-679,106,0.724609,-0.986389,0.0100711,0.049344,-0.0159036,0.0549764,0.00443874,-1.23042,0.0352646,0.0446125,545,918,0.72464,0.986404
-672,106,0.726868,-0.536438,2.1912e-05,0.0389759,-0.00571986,0.0397984,-0.000800604,-1.42798,0.0268031,0.0465262,552,918,0.726851,0.536443
-665,106,1.3374,-1.81696,-0.00582916,0.0301249,0.000947181,0.0301498,-0.00585409,1.54448,0.0223087,0.0469358,559,918,1.33739,1.81698
-658,106,0.212585,-0.603455,-0.00889473,0.0227306,0.00498071,0.0234964,-0.0096606,1.41822,0.0196909,0.0440414,566,918,0.212589,0.603445
-651,106,0.104614,-0.277344,-0.0100677,0.0166808,0.00708553,0.0184418,-0.0118287,1.3272,0.0176151,0.0420462,573,918,0.104602,0.277322
-644,106,-0.246643,0.244263,-0.00999482,0.011847,0.00781932,0.0143577,-0.0125055,1.26011,0.0155218,0.0400115,580,918,-0.246649,-0.244263
-637,106,-0.634094,0.713989,-0.00916063,0.00809554,0.00761676,0.0109765,-0.0120416,1.20918,0.0132943,0.0266445,587,918,-0.634122,-0.713981
-630,106,-0.599182,0.801758,-0.00818151,0.00518694,0.00698288,0.00816913,-0.0111637,1.16717,0.0112064,0.0114495,594,918,-0.599181,-0.801788
-623,106,-0.563782,0.792358,-0.00724015,0.0028842,0.00648767,0.00605097,-0.0104069,1.1167,0.00961226,0.0104702,601,918,-0.563784,-0.792354
-616,106,-0.554321,0.778015,-0.00633673,0.000965196,0.0057041,0.0040867,-0.00945823,1.07008,0.00802253,0.0108078,608,918,-0.554328,-0.778018
-609,106,-0.571716,0.782349,-0.00507162,-0.000333849,0.00453012,0.00240937,-0.00781484,1.02631,0.00617183,0.0104393,615,918,-0.571693,-0.782337
-602,106,-0.59259,0.751099,-0.0040887,-0.000553524,0.00323981,0.00136951,-0.00601174,1.03512,0.00453381,0.0113114,622,918,-0.592579,-0.751079
-595,106,-0.613281,0.732483,-0.0032702,-0.000674975,0.00213419,0.000525124,-0.0044703,1.05854,0.00316978,0.0144321,629,918,-0.613258,-0.7325
-588,106,-0.602051,0.728577,-0.00301771,-0.000656534,0.00154815,0.000109815,-0.00378406,1.11115,0.00256009,0.0145597,636,918,-0.602042,-0.728547
-581,106,-0.558594,0.718445,-0.00330428,-0.0006041,0.00145329,2.94386e-05,-0.00393782,1.1597,0.00263508,0.0129085,643,918,-0.558618,-0.718463
-574,106,-0.560303,0.693298,-0.0036297,-0.000642382,0.00135126,-0.000121863,-0.00415022,1.2031,0.0027271,0.0133697,650,918,-0.560287,-0.693329
-567,106,-0.699036,0.738037,-0.00374769,-0.00072212,0.00123695,-0.000280789,-0.00418902,1.22809,0.00270395,0.0247329,657,918,-0.699052,-0.738021
-560,106,-0.83606,0.858337,-0.0036442,-0.000860041,0.00110184,-0.000476753,-0.00402748,1.23603,0.00254102,0.0344846,664,918,-0.836048,-0.858327
-553,106,-0.854004,0.962646,-0.00333742,-0.000902123,0.000819898,-0.000651813,-0.00358773,1.27449,0.00220687,0.0325174,671,918,-0.854017,-0.962629
-546,106,-0.829102,0.728577,-0.00270013,-0.000911367,0.0003993,-0.00082628,-0.00278522,1.36085,0.00165178,0.0343078,678,918,-0.829101,-0.728587
-539,106,-0.77124,0.439087,-0.00162396,-0.000874012,-0.000180892,-0.00083266,-0.00166531,-1.34606,0.000961468,0.0393005,685,918,-0.771222,-0.439102
-532,106,-0.793945,0.444458,-7.59682e-05,-0.000796712,-0.000911728,0.000544025,-0.00141671,-0.59719,0.00116881,0.0388296,692,918,-0.793947,-0.444471
-525,106,-0.948669,0.640686,0.00200235,-0.000695315,-0.00179619,0.00289977,-0.00159273,-0.463346,0.00263008,0.038274,699,918,-0.948645,-0.640681
-518,106,-0.995361,0.687927,0.00456524,-0.0006117,-0.00273488,0.00574237,-0.00178883,-0.406447,0.00454347,0.0422105,706,918,-0.995339,-0.687953
-511,106,0,0,0,0,0,0,0,0,0,-1,713,918,0,0
-504,106,0,0,0,0,0,0,0,0,0,-1,720,918,0,0
-497,106,0,0,0,0,0,0,0,0,0,-1,727,918,0,0
-490,106,0,0,0,0,0,0,0,0,0,-1,734,918,0,0
-483,106,0,0,0,0,0,0,0,0,0,-1,741,918,0,0
-476,106,0,0,0,0,0,0,0,0,0,-1,748,918,0,0
-469,106,0,0,0,0,0,0,0,0,0,-1,755,918,0,0
-462,106,0,0,0,0,0,0,0,0,0,-1,762,918,0,0
-455,106,0,0,0,0,0,0,0,0,0,-1,769,918,0,0
-448,106,0,0,0,0,0,0,0,0,0,-1,776,918,0,0
-441,106,0,0,0,0,0,0,0,0,0,-1,783,918,0,0
-434,106,0,0,0,0,0,0,0,0,0,-1,790,918,0,0
-427,106,0,0,0,0,0,0,0,0,0,-1,797,918,0,0
-420,106,0,0,0,0,0,0,0,0,0,-1,804,918,0,0
-413,106,0,0,0,0,0,0,0,0,0,-1,811,918,0,0
-406,106,0,0,0,0,0,0,0,0,0,-1,818,918,0,0
-399,106,0,0,0,0,0,0,0,0,0,-1,825,918,0,0
-392,106,0,0,0,0,0,0,0,0,0,-1,832,918,0,0
-385,106,0,0,0,0,0,0,0,0,0,-1,839,918,0,0
-378,106,0,0,0,0,0,0,0,0,0,-1,846,918,0,0
-371,106,0,0,0,0,0,0,0,0,0,-1,853,918,0,0
-364,106,0,0,0,0,0,0,0,0,0,-1,860,918,0,0
-357,106,0,0,0,0,0,0,0,0,0,-1,867,918,0,0
-350,106,0,0,0,0,0,0,0,0,0,-1,874,918,0,0
-343,106,0,0,0,0,0,0,0,0,0,-1,881,918,0,0
-336,106,0,0,0,0,0,0,0,0,0,-1,888,918,0,0
-329,106,0,0,0,0,0,0,0,0,0,-1,895,918,0,0
-322,106,0,0,0,0,0,0,0,0,0,-1,902,918,0,0
-315,106,0,0,0,0,0,0,0,0,0,-1,909,918,0,0
-308,106,0,0,0,0,0,0,0,0,0,-1,916,918,0,0
-301,106,0,0,0,0,0,0,0,0,0,-1,923,918,0,0
-294,106,0,0,0,0,0,0,0,0,0,-1,930,918,0,0
-287,106,0,0,0,0,0,0,0,0,0,-1,937,918,0,0
-280,106,0,0,0,0,0,0,0,0,0,-1,944,918,0,0
-273,106,0,0,0,0,0,0,0,0,0,-1,951,918,0,0
-266,106,0,0,0,0,0,0,0,0,0,-1,958,918,0,0
-259,106,0,0,0,0,0,0,0,0,0,-1,965,918,0,0
-252,106,0,0,0,0,0,0,0,0,0,-1,972,918,0,0
-245,106,0,0,0,0,0,0,0,0,0,-1,979,918,0,0
-238,106,0,0,0,0,0,0,0,0,0,-1,986,918,0,0
-231,106,0,0,0,0,0,0,0,0,0,-1,993,918,0,0
-224,106,0,0,0,0,0,0,0,0,0,-1,1000,918,0,0
-217,106,0,0,0,0,0,0,0,0,0,-1,1007,918,0,0
-210,106,0,0,0,0,0,0,0,0,0,-1,1014,918,0,0
-203,106,0,0,0,0,0,0,0,0,0,-1,1021,918,0,0
-196,106,0,0,0,0,0,0,0,0,0,-1,1028,918,0,0
-189,106,0,0,0,0,0,0,0,0,0,-1,1035,918,0,0
-182,106,0,0,0,0,0,0,0,0,0,-1,1042,918,0,0
-175,106,0,0,0,0,0,0,0,0,0,-1,1049,918,0,0
-168,106,0,0,0,0,0,0,0,0,0,-1,1056,918,0,0
-161,106,0,0,0,0,0,0,0,0,0,-1,1063,918,0,0
-154,106,0,0,0,0,0,0,0,0,0,-1,1070,918,0,0
-147,106,0,0,0,0,0,0,0,0,0,-1,1077,918,0,0
-140,106,0,0,0,0,0,0,0,0,0,-1,1084,918,0,0
-133,106,0,0,0,0,0,0,0,0,0,-1,1091,918,0,0
-126,106,0,0,0,0,0,0,0,0,0,-1,1098,918,0,0
-119,106,0,0,0,0,0,0,0,0,0,-1,1105,918,0,0
-112,106,0,0,0,0,0,0,0,0,0,-1,1112,918,0,0
-105,106,0,0,0,0,0,0,0,0,0,-1,1119,918,0,0
-98,106,0,0,0,0,0,0,0,0,0,-1,1126,918,0,0
-91,106,0,0,0,0,0,0,0,0,0,-1,1133,918,0,0
-84,106,0,0,0,0,0,0,0,0,0,-1,1140,918,0,0
-77,106,0,0,0,0,0,0,0,0,0,-1,1147,918,0,0
-70,106,0,0,0,0,0,0,0,0,0,-1,1154,918,0,0
-63,106,0,0,0,0,0,0,0,0,0,-1,1161,918,0,0
-56,106,0,0,0,0,0,0,0,0,0,-1,1168,918,0,0
-49,106,0,0,0,0,0,0,0,0,0,-1,1175,918,0,0
-42,106,0,0,0,0,0,0,0,0,0,-1,1182,918,0,0
-35,106,0,0,0,0,0,0,0,0,0,-1,1189,918,0,0
-28,106,0,0,0,0,0,0,0,0,0,-1,1196,918,0,0
-21,106,0,0,0,0,0,0,0,0,0,-1,1203,918,0,0
-14,106,0,0,0,0,0,0,0,0,0,-1,1210,918,0,0
-7,106,0,0,0,0,0,0,0,0,0,-1,1217,918,0,0
0,106,0,0,0,0,0,0,0,0,0,-1,1224,918,0,0
7,106,0,0,0,0,0,0,0,0,0,-1,1231,918,0,0
14,106,0,0,0,0,0,0,0,0,0,-1,1238,918,0,0
21,106,0,0,0,0,0,0,0,0,0,-1,1245,918,0,0
28,106,0,0,0,0,0,0,0,0,0,-1,1252,918,0,0
35,106,0,0,0,0,0,0,0,0,0,-1,1259,918,0,0
42,106,0,0,0,0,0,0,0,0,0,-1,1266,918,0,0
49,106,0,0,0,0,0,0,0,0,0,-1,1273,918,0,0
56,106,0,0,0,0,0,0,0,0,0,-1,1280,918,0,0
63,106,0,0,0,0,0,0,0,0,0,-1,1287,918,0,0
70,106,0,0,0,0,0,0,0,0,0,-1,1294,918,0,0
77,106,0,0,0,0,0,0,0,0,0,-1,1301,918,0,0
84,106,0,0,0,0,0,0,0,0,0,-1,1308,918,0,0
91,106,0,0,0,0,0,0,0,0,0,-1,1315,918,0,0
98,106,0,0,0,0,0,0,0,0,0,-1,1322,918,0,0
105,106,0,0,0,0,0,0,0,0,0,-1,1329,918,0,0
112,106,0,0,0,0,0,0,0,0,0,-1,1336,918,0,0
119,106,0,0,0,0,0,0,0,0,0,-1,1343,918,0,0
126,106,0,0,0,0,0,0,0,0,0,-1,1350,918,0,0
133,106,0,0,0,0,0,0,0,0,0,-1,1357,918,0,0
140,106,0,0,0,0,0,0,0,0,0,-1,1364,918,0,0
147,106,0,0,0,0,0,0,0,0,0,-1,1371,918,0,0
154,106,0,0,0,0,0,0,0,0,0,-1,1378,918,0,0
161,106,0,0,0,0,0,0,0,0,0,-1,1385,918,0,0
168,106,0,0,0,0,0,0,0,0,0,-1,1392,918,0,0
175,106,0,0,0,0,0,0,0,0,0,-1,1399,918,0,0
182,106,0,0,0,0,0,0,0,0,0,-1,1406,918,0,0
189,106,0,0,0,0,0,0,0,0,0,-1,1413,918,0,0
196,106,0,0,0,0,0,0,0,0,0,-1,1420,918,0,0
203,106,0,0,0,0,0,0,0,0,0,-1,1427,918,0,0
210,106,0,0,0,0,0,0,0,0,0,-1,1434,918,0,0
217,106,0,0,0,0,0,0,0,0,0,-1,1441,918,0,0
224,106,0,0,0,0,0,0,0,0,0,-1,1448,918,0,0
231,106,0,0,0,0,0,0,0,0,0,-1,1455,918,0,0
238,106,0,0,0,0,0,0,0,0,0,-1,1462,918,0,0
245,106,0,0,0,0,0,0,0,0,0,-1,1469,918,0,0
252,106,0,0,0,0,0,0,0,0,0,-1,1476,918,0,0
259,106,0,0,0,0,0,0,0,0,0,-1,1483,918,0,0
266,106,0,0,0,0,0,0,0,0,0,-1,1490,918,0,0
273,106,0,0,0,0,0,0,0,0,0,-1,1497,918,0,0
280,106,0,0,0,0,0,0,0,0,0,-1,1504,918,0,0
287,106,0,0,0,0,0,0,0,0,0,-1,1511,918,0,0
294,106,0,0,0,0,0,0,0,0,0,-1,1518,918,0,0
301,106,0,0,0,0,0,0,0,0,0,-1,1525,918,0,0
308,106,0,0,0,0,0,0,0,0,0,-1,1532,918,0,0
315,106,0,0,0,0,0,0,0,0,0,-1,1539,918,0,0
322,106,0,0,0,0,0,0,0,0,0,-1,1546,918,0,0
329,106,0,0,0,0,0,0,0,0,0,-1,1553,918,0,0
336,106,0,0,0,0,0,0,0,0,0,-1,1560,918,0,0
343,106,0,0,0,0,0,0,0,0,0,-1,1567,918,0,0
350,106,0,0,0,0,0,0,0,0,0,-1,1574,918,0,0
357,106,0,0,0,0,0,0,0,0,0,-1,1581,918,0,0
364,106,0,0,0,0,0,0,0,0,0,-1,1588,918,0,0
371,106,0,0,0,0,0,0,0,0,0,-1,1595,918,0,0
378,106,0,0,0,0,0,0,0,0,0,-1,1602,918,0,0
385,106,0,0,0,0,0,0,0,0,0,-1,1609,918,0,0
392,106,0,0,0,0,0,0,0,0,0,-1,1616,918,0,0
399,106,0,0,0,0,0,0,0,0,0,-1,1623,918,0,0
406,106,0,0,0,0,0,0,0,0,0,-1,1630,918,0,0
413,106,0,0,0,0,0,0,0,0,0,-1,1637,918,0,0
420,106,0,0,0,0,0,0,0,0,0,-1,1644,918,0,0
427,106,0,0,0,0,0,0,0,0,0,-1,1651,918,0,0
434,106,0,0,0,0,0,0,0,0,0,-1,1658,918,0,0
441,106,0,0,0,0,0,0,0,0,0,-1,1665,918,0,0
448,106,0,0,0,0,0,0,0,0,0,-1,1672,918,0,0
455,106,0,0,0,0,0,0,0,0,0,-1,1679,918,0,0
462,106,0,0,0,0,0,0,0,0,0,-1,1686,918,0,0
469,106,0,0,0,0,0,0,0,0,0,-1,1693,918,0,0
476,106,0,0,0,0,0,0,0,0,0,-1,1700,918,0,0
483,106,0,0,0,0,0,0,0,0,0,-1,1707,918,0,0
490,106,0,0,0,0,0,0,0,0,0,-1,1714,918,0,0
497,106,0,0,0,0,0,0,0,0,0,-1,1721,918,0,0
504,106,0,0,0,0,0,0,0,0,0,-1,1728,918,0,0
511,106,0,0,0,0,0,0,0,0,0,-1,1735,918,0,0
518,106,0,0,0,0,0,0,0,0,0,-1,1742,918,0,0
525,106,0,0,0,0,0,0,0,0,0,-1,1749,918,0,0
532,106,0,0,0,0,0,0,0,0,0,-1,1756,918,0,0
539,106,0,0,0,0,0,0,0,0,0,-1,1763,918,0,0
546,106,0,0,0,0,0,0,0,0,0,-1,1770,918,0,0
553,106,0,0,0,0,0,0,0,0,0,-1,1777,918,0,0
560,106,0,0,0,0,0,0,0,0,0,-1,1784,918,0,0
567,106,0,0,0,0,0,0,0,0,0,-1,1791,918,0,0
574,106,0,0,0,0,0,0,0,0,0,-1,1798,918,0,0
581,106,0,0,0,0,0,0,0,0,0,-1,1805,918,0,0
588,106,0,0,0,0,0,0,0,0,0,-1,1812,918,0,0
595,106,0,0,0,0,0,0,0,0,0,-1,1819,918,0,0
602,106,0,0,0,0,0,0,0,0,0,-1,1826,918,0,0
609,106,0,0,0,0,0,0,0,0,0,-1,1833,918,0,0
616,106,0,0,0,0,0,0,0,0,0,-1,1840,918,0,0
623,106,0,0,0,0,0,0,0,0,0,-1,1847,918,0,0
630,106,4.29102,0.759033,0.00143875,0.00174245,-0.000904299,0.00250756,0.000673642,-0.868581,0.00149851,0.0390102,1854,918,4.29098,-0.759058
637,106,4.43311,0.681519,0.000483866,0.00191834,-0.000719122,0.00221676,0.000185443,-1.17744,0.00142007,0.0383287,1861,918,4.43308,-0.681538
644,106,4.40857,0.715149,-0.000329047,0.00206047,-0.000506939,0.00216357,-0.000432146,-1.37016,0.00160593,0.0369221,1868,918,4.40853,-0.715156
651,106,4.41052,0.738037,-0.0010598,0.00209755,-0.000421892,0.00215296,-0.0011152,-1.44023,0.00191832,0.0394257,1875,918,4.41051,-0.738012
658,106,4.40759,0.701477,-0.00165455,0.00201323,-0.000490815,0.00207777,-0.00171909,-1.44004,0.00219538,0.0416905,1882,918,4.4076,-0.701451
665,106,4.35364,0.692932,-0.00208558,0.00184128,-0.000596276,0.00192982,-0.00217413,-1.42338,0.00237082,0.0410864,1889,918,4.35365,-0.692913
672,106,4.31384,0.687683,-0.00238277,0.00161585,-0.000660792,0.00172222,-0.00248914,-1.41119,0.00244483,0.0401092,1896,918,4.31382,-0.687659
679,106,4.28833,0.577637,-0.00257925,0.00131006,-0.000674899,0.00142384,-0.00269303,-1.40377,0.00241423,0.0332716,1903,918,4.28834,-0.577628
686,106,4.27197,0.661255,-0.00276326,0.00112879,-0.000726239,0.00125989,-0.00289436,-1.3922,0.00245956,0.0278499,1910,918,4.27199,-0.661281
693,106,4.1123,0.848206,-0.00261016,0.000887751,-0.000746737,0.0010405,-0.0027629,-1.36903,0.00226971,0.0228835,1917,918,4.11226,-0.848186
700,106,4.1355,0.76825,-0.00235314,0.000624988,-0.000766818,0.000810833,-0.00253899,-1.33302,0.00201799,0.0330165,1924,918,4.13555,-0.768226
707,106,4.10767,0.610291,-0.00207837,0.000396303,-0.000767831,0.000615184,-0.00229725,-1.2931,0.00177251,0.0203044,1931,918,4.10764,-0.610305
714,106,4.08643,0.612244,-0.00160127,0.000276169,-0.000767225,0.000549815,-0.00187491,-1.22819,0.00146795,0.0138466,1938,918,4.08637,-0.612257
721,106,4.09241,0.66095,-0.000935988,0.000229093,-0.000713071,0.000567326,-0.00127422,-1.12789,0.00108902,0.0141322,1945,918,4.09236,-0.66093
728,106,4.08618,0.710754,-0.000152321,0.000177301,-0.000637647,0.000671092,-0.000646112,-0.911864,0.000760534,0.0148703,1952,918,4.08622,-0.710735
735,106,4.09521,0.716492,0.00106092,0.000440109,8.59182e-05,0.0010726,0.000428437,0.135015,0.000623424,0.0145441,1959,918,4.09525,-0.716508
742,106,4.08435,0.727966,0.00210707,0.00082168,0.000524749,0.00229409,0.000634666,0.342355,0.00136783,0.0113842,1966,918,4.08431,-0.727941
749,106,4.07837,0.750244,0.00264062,0.00190441,0.00126235,0.00358744,0.000957594,0.64353,0.00214491,0.00830262,1973,918,4.07842,-0.750269
756,106,4.07849,0.75177,0.00347923,0.00290118,0.00225726,0.0054659,0.000914513,0.721723,0.00338058,0.00887077,1980,918,4.07854,-0.751787
763,106,4.07324,0.777649,0.00413806,0.00426407,0.00352472,0.00772634,0.000675781,0.794334,0.00494106,0.0166621,1987,918,4.0732,-0.777632
770,106,4.08228,0.790833,0.00448718,0.00607597,0.00512642,0.0104692,9.39704e-05,0.862268,0.00694834,0.0353299,1994,918,4.08232,-0.790855
777,106,4.09155,0.774963,0.00436051,0.00848691,0.00717012,0.0138848,-0.00103734,0.925489,0.00962096,0.0432324,2001,918,4.09159,-0.774971
784,106,4.08862,0.829712,0.00345815,0.0116766,0.00968899,0.0180917,-0.00295698,0.985958,0.013158,0.0433135,2008,918,4.0886,-0.829683
791,106,4.17651,0.786682,0.00134732,0.0158954,0.0126185,0.0231863,-0.00594355,1.04686,0.0177731,0.0433015,2015,918,4.17646,-0.786704
798,106,4.14709,0.958557,-0.00270858,0.0215422,0.0159055,0.029417,-0.0105834,1.11107,0.0239323,0.0422997,2022,918,4.14704,-0.958587
805,106,0,0,0,0,0,0,0,0,0,-1,2029,918,0,0
812,106,0,0,0,0,0,0,0,0,0,-1,2036,918,0,0
-700,99,0,0,0,0,0,0,0,0,0,-1,524,925,0,0
-693,99,0,0,0,0,0,0,0,0,0,-1,531,925,0,0
-686,99,0,0,0,0,0,0,0,0,0,-1,538,925,0,0
-679,99,1.12903,-1.23187,0.0066311,0.0486437,-0.0159965,0.054041,0.00123376,-1.24538,0.0356232,0.0469683,545,925,1.12905,1.23187
-672,99,1.58722,-2.5614,-0.00378784,0.0379123,-0.00609133,0.0387838,-0.00465941,-1.42868,0.0275407,0.0472811,552,925,1.58723,2.56142
-665,99,0.927612,-1.85803,-0.00969977,0.0289267,0.000567561,0.0289351,-0.0097081,1.55611,0.0232129,0.0495052,559,925,0.927631,1.85801
-658,99,0.292419,-1.13251,-0.0125519,0.0215347,0.00474301,0.0221824,-0.0131996,1.43508,0.0206461,0.045297,566,925,0.2924,1.13251
-651,99,-0.291504,-0.405396,-0.0133029,0.0155783,0.00701279,0.017191,-0.0149157,1.34475,0.0185523,0.0457339,573,925,-0.29153,0.405405
-644,99,-0.887634,0.548462,-0.0126891,0.0108953,0.00787401,0.0132826,-0.0150763,1.27643,0.0163839,0.0444822,580,925,-0.88766,-0.548433
-637,99,-0.691772,0.744446,-0.0113131,0.00728642,0.00775693,0.0100968,-0.0141235,1.2232,0.0140479,0.0274948,587,925,-0.691801,-0.744461
-630,99,-0.618103,0.824341,-0.00987785,0.00452642,0.00715861,0.00747891,-0.0128303,1.17961,0.0118605,0.0131721,594,925,-0.618116,-0.824367
-623,99,-0.608215,0.796204,-0.00854196,0.00238983,0.00666794,0.00554585,-0.011698,1.12873,0.0101647,0.00833749,601,925,-0.608208,-0.796211
-616,99,-0.601135,0.78894,-0.00716251,0.000689083,0.00587175,0.00382652,-0.0103,1.08007,0.00843654,0.00964387,608,925,-0.601119,-0.788914
-609,99,-0.607727,0.786377,-0.0054716,-0.000492363,0.00464977,0.00229235,-0.00825631,1.03119,0.00640652,0.00958528,615,925,-0.607711,-0.786369
-602,99,-0.615967,0.766968,-0.00416518,-0.000486651,0.00333184,0.00147988,-0.00613171,1.0376,0.0046601,0.00935077,622,925,-0.61594,-0.766995
-595,99,-0.634827,0.760376,-0.00313773,-0.000446911,0.0021036,0.000704731,-0.00428938,1.0699,0.00312113,0.012103,629,925,-0.634851,-0.760381
-588,99,-0.629272,0.747192,-0.00282883,-0.000430136,0.00147044,0.000268049,-0.00352701,1.1275,0.00244559,0.0111368,636,925,-0.629273,-0.74719
-581,99,-0.588745,0.715088,-0.00307055,-0.000377504,0.00133957,0.000175336,-0.00362338,1.17939,0.00247611,0.00971064,643,925,-0.588743,-0.715104
-574,99,-0.607666,0.688477,-0.00331885,-0.000386386,0.00120475,4.5079e-05,-0.00375031,1.22689,0.00251537,0.0105181,650,925,-0.607661,-0.688504
-567,99,-0.711914,0.734985,-0.00339626,-0.000426007,0.00106009,-8.64721e-05,-0.0037358,1.26083,0.00246221,0.0246456,657,925,-0.711915,-0.734966
-560,99,-0.832092,0.809021,-0.00324243,-0.000521224,0.000878379,-0.000262324,-0.00350133,1.28417,0.00225188,0.0342335,664,925,-0.832093,-0.809036
-553,99,-0.876709,0.882019,-0.00289458,-0.000539713,0.000550145,-0.000417527,-0.00301676,1.35225,0.00188746,0.0365578,671,925,-0.876697,-0.882021
-546,99,-0.734802,0.792236,-0.00224533,-0.000535288,7.357e-05,-0.000532128,-0.00224849,1.52788,0.00135685,0.0388064,678,925,-0.734795,-0.792225
-539,99,-0.790039,0.453552,-0.00120004,-0.000500628,-0.000563123,-0.000187459,-0.00151321,-1.06326,0.000952487,0.0405146,685,925,-0.790037,-0.453566
-532,99,-1.02026,0.544922,0.000262317,-0.000440443,-0.00135148,0.00130734,-0.00148547,-0.658216,0.00161353,0.0424698,692,925,-1.02028,-0.544915
-525,99,-1.10156,0.727173,0.00218702,-0.000366377,-0.00228987,0.00353205,-0.00171141,-0.531091,0.00308754,0.0424186,699,925,-1.10154,-0.727158
-518,99,-1.02643,0.827881,0.00448221,-0.000311456,-0.0032521,0.00612529,-0.00195454,-0.46783,0.00486765,0.0446857,706,925,-1.02644,-0.827851
-511,99,0,0,0,0,0,0,0,0,0,-1,713,925,0,0
-504,99,0,0,0,0,0,0,0,0,0,-1,720,925,0,0
-497,99,0,0,0,0,0,0,0,0,0,-1,727,925,0,0
-490,99,0,0,0,0,0,0,0,0,0,-1,734,925,0,0
-483,99,0,0,0,0,0,0,0,0,0,-1,741,925,0,0
-476,99,0,0,0,0,0,0,0,0,0,-1,748,925,0,0
-469,99,0,0,0,0,0,0,0,0,0,-1,755,925,0,0
-462,99,0,0,0,0,0,0,0,0,0,-1,762,925,0,0
-455,99,0,0,0,0,0,0,0,0,0,-1,769,925,0,0
-448,99,0,0,0,0,0,0,0,0,0,-1,776,925,0,0
-441,99,0,0,0,0,0,0,0,0,0,-1,783,925,0,0
-434,99,0,0,0,0,0,0,0,0,0,-1,790,925,0,0
-427,99,0,0,0,0,0,0,0,0,0,-1,797,925,0,0
-420,99,0,0,0,0,0,0,0,0,0,-1,804,925,0,0
-413,99,0,0,0,0,0,0,0,0,0,-1,811,925,0,0
-406,99,0,0,0,0,0,0,0,0,0,-1,818,925,0,0
-399,99,0,0,0,0,0,0,0,0,0,-1,825,925,0,0
-392,99,0,0,0,0,0,0,0,0,0,-1,832,925,0,0
-385,99,0,0,0,0,0,0,0,0,0,-1,839,925,0,0
-378,99,0,0,0,0,0,0,0,0,0,-1,846,925,0,0
-371,99,0,0,0,0,0,0,0,0,0,-1,853,925,0,0
-364,99,0,0,0,0,0,0,0,0,0,-1,860,925,0,0
-357,99,0,0,0,0,0,0,0,0,0,-1,867,925,0,0
-350,99,0,0,0,0,0,0,0,0,0,-1,874,925,0,0
-343,99,0,0,0,0,0,0,0,0,0,-1,881,925,0,0
-336,99,0,0,0,0,0,0,0,0,0,-1,888,925,0,0
-329,99,0,0,0,0,0,0,0,0,0,-1,895,925,0,0
-322,99,0,0,0,0,0,0,0,0,0,-1,902,925,0,0
-315,99,0,0,0,0,0,0,0,0,0,-1,909,925,0,0
-308,99,0,0,0,0,0,0,0,0,0,-1,916,925,0,0
-301,99,0,0,0,0,0,0,0,0,0,-1,923,925,0,0
-294,99,0,0,0,0,0,0,0,0,0,-1,930,925,0,0
-287,99,0,0,0,0,0,0,0,0,0,-1,937,925,0,0
-280,99,0,0,0,0,0,0,0,0,0,-1,944,925,0,0
-273,99,0,0,0,0,0,0,0,0,0,-1,951,925,0,0
-266,99,0,0,0,0,0,0,0,0,0,-1,958,925,0,0
-259,99,0,0,0,0,0,0,0,0,0,-1,965,925,0,0
-252,99,0,0,0,0,0,0,0,0,0,-1,972,925,0,0
-245,99,0,0,0,0,0,0,0,0,0,-1,979,925,0,0
-238,99,0,0,0,0,0,0,0,0,0,-1,986,925,0,0
-231,99,0,0,0,0,0,0,0,0,0,-1,993,925,0,0
-224,99,0,0,0,0,0,0,0,0,0,-1,1000,925,0,0
-217,99,0,0,0,0,0,0,0,0,0,-1,1007,925,0,0
-210,99,0,0,0,0,0,0,0,0,0,-1,1014,925,0,0
-203,99,0,0,0,0,0,0,0,0,0,-1,1021,925,0,0
-196,99,0,0,0,0,0,0,0,0,0,-1,1028,925,0,0
-189,99,0,0,0,0,0,0,0,0,0,-1,1035,925,0,0
-182,99,0,0,0,0,0,0,0,0,0,-1,1042,925,0,0
-175,99,0,0,0,0,0,0,0,0,0,-1,1049,925,0,0
-168,99,0,0,0,0,0,0,0,0,0,-1,1056,925,0,0
-161,99,0,0,0,0,0,0,0,0,0,-1,1063,925,0,0
-154,99,0,0,0,0,0,0,0,0,0,-1,1070,925,0,0
-147,99,0,0,0,0,0,0,0,0,0,-1,1077,925,0,0
-140,99,0,0,0,0,0,0,0,0,0,-1,1084,925,0,0
-133,99,0,0,0,0,0,0,0,0,0,-1,1091,925,0,0
-126,99,0,0,0,0,0,0,0,0,0,-1,1098,925,0,0
-119,99,0,0,0,0,0,0,0,0,0,-1,1105,925,0,0
-112,99,0,0,0,0,0,0,0,0,0,-1,1112,925,0,0
-105,99,0,0,0,0,0,0,0,0,0,-1,1119,925,0,0
-98,99,0,0,0,0,0,0,0,0,0,-1,1126,925,0,0
-91,99,0,0,0,0,0,0,0,0,0,-1,1133,925,0,0
-84,99,0,0,0,0,0,0,0,0,0,-1,1140,925,0,0
-77,99,0,0,0,0,0,0,0,0,0,-1,1147,925,0,0
-70,99,0,0,0,0,0,0,0,0,0,-1,1154,925,0,0
-63,99,0,0,0,0,0,0,0,0,0,-1,1161,925,0,0
-56,99,0,0,0,0,0,0,0,0,0,-1,1168,925,0,0
-49,99,0,0,0,0,0,0,0,0,0,-1,1175,925,0,0
-42,99,0,0,0,0,0,0,0,0,0,-1,1182,925,0,0
-35,99,0,0,0,0,0,0,0,0,0,-1,1189,925,0,0
-28,99,0,0,0,0,0,0,0,0,0,-1,1196,925,0,0
-21,99,0,0,0,0,0,0,0,0,0,-1,1203,925,0,0
-14,99,0,0,0,0,0,0,0,0,0,-1,1210,925,0,0
-7,99,0,0,0,0,0,0,0,0,0,-1,1217,925,0,0
0,99,0,0,0,0,0,0,0,0,0,-1,1224,925,0,0
7,99,0,0,0,0,0,0,0,0,0,-1,1231,925,0,0
14,99,0,0,0,0,0,0,0,0,0,-1,1238,925,0,0
21,99,0,0,0,0,0,0,0,0,0,-1,1245,925,0,0
28,99,0,0,0,0,0,0,0,0,0,-1,1252,925,0,0
35,99,0,0,0,0,0,0,0,0,0,-1,1259,925,0,0
42,99,0,0,0,0,0,0,0,0,0,-1,1266,925,0,0
49,99,0,0,0,0,0,0,0,0,0,-1,1273,925,0,0
56,99,0,0,0,0,0,0,0,0,0,-1,1280,925,0,0
63,99,0,0,0,0,0,0,0,0,0,-1,1287,925,0,0
70,99,0,0,0,0,0,0,0,0,0,-1,1294,925,0,0
77,99,0,0,0,0,0,0,0,0,0,-1,1301,925,0,0
84,99,0,0,0,0,0,0,0,0,0,-1,1308,925,0,0
91,99,0,0,0,0,0,0,0,0,0,-1,1315,925,0,0
98,99,0,0,0,0,0,0,0,0,0,-1,1322,925,0,0
105,99,0,0,0,0,0,0,0,0,0,-1,1329,925,0,0
112,99,0,0,0,0,0,0,0,0,0,-1,1336,925,0,0
119,99,0,0,0,0,0,0,0,0,0,-1,1343,925,0,0
126,99,0,0,0,0,0,0,0,0,0,-1,1350,925,0,0
133,99,0,0,0,0,0,0,0,0,0,-1,1357,925,0,0
140,99,0,0,0,0,0,0,0,0,0,-1,1364,925,0,0
147,99,0,0,0,0,0,0,0,0,0,-1,1371,925,0,0
154,99,0,0,0,0,0,0,0,0,0,-1,1378,925,0,0
161,99,0,0,0,0,0,0,0,0,0,-1,1385,925,0,0
168,99,0,0,0,0,0,0,0,0,0,-1,1392,925,0,0
175,99,0,0,0,0,0,0,0,0,0,-1,1399,925,0,0
182,99,0,0,0,0,0,0,0,0,0,-1,1406,925,0,0
189,99,0,0,0,0,0,0,0,0,0,-1,1413,925,0,0
196,99,0,0,0,0,0,0,0,0,0,-1,1420,925,0,0
203,99,0,0,0,0,0,0,0,0,0,-1,1427,925,0,0
210,99,0,0,0,0,0,0,0,0,0,-1,1434,925,0,0
217,99,0,0,0,0,0,0,0,0,0,-1,1441,925,0,0
224,99,0,0,0,0,0,0,0,0,0,-1,1448,925,0,0
231,99,0,0,0,0,0,0,0,0,0,-1,1455,925,0,0
238,99,0,0,0,0,0,0,0,0,0,-1,1462,925,0,0
245,99,0,0,0,0,0,0,0,0,0,-1,1469,925,0,0
252,99,0,0,0,0,0,0,0,0,0,-1,1476,925,0,0
259,99,0,0,0,0,0,0,0,0,0,-1,1483,925,0,0
266,99,0,0,0,0,0,0,0,0,0,-1,1490,925,0,0
273,99,0,0,0,0,0,0,0,0,0,-1,1497,925,0,0
280,99,0,0,0,0,0,0,0,0,0,-1,1504,925,0,0
287,99,0,0,0,0,0,0,0,0,0,-1,1511,925,0,0
294,99,0,0,0,0,0,0,0,0,0,-1,1518,925,0,0
301,99,0,0,0,0,0,0,0,0,0,-1,1525,925,0,0
308,99,0,0,0,0,0,0,0,0,0,-1,1532,925,0,0
315,99,0,0,0,0,0,0,0,0,0,-1,1539,925,0,0
322,99,0,0,0,0,0,0,0,0,0,-1,1546,925,0,0
329,99,0,0,0,0,0,0,0,0,0,-1,1553,925,0,0
336,99,0,0,0,0,0,0,0,0,0,-1,1560,925,0,0
343,99,0,0,0,0,0,0,0,0,0,-1,1567,925,0,0
350,99,0,0,0,0,0,0,0,0,0,-1,1574,925,0,0
357,99,0,0,0,0,0,0,0,0,0,-1,1581,925,0,0
364,99,0,0,0,0,0,0,0,0,0,-1,1588,925,0,0
371,99,0,0,0,0,0,0,0,0,0,-1,1595,925,0,0
378,99,0,0,0,0,0,0,0,0,0,-1,1602,925,0,0
385,99,0,0,0,0,0,0,0,0,0,-1,1609,925,0,0
392,99,0,0,0,0,0,0,0,0,0,-1,1616,925,0,0
399,99,0,0,0,0,0,0,0,0,0,-1,1623,925,0,0
406,99,0,0,0,0,0,0,0,0,0,-1,1630,925,0,0
413,99,0,0,0,0,0,0,0,0,0,-1,1637,925,0,0
420,99,0,0,0,0,0,0,0,0,0,-1,1644,925,0,0
427,99,0,0,0,0,0,0,0,0,0,-1,1651,925,0,0
434,99,0,0,0,0,0,0,0,0,0,-1,1658,925,0,0
441,99,0,0,0,0,0,0,0,0,0,-1,1665,925,0,0
448,99,0,0,0,0,0,0,0,0,0,-1,1672,925,0,0
455,99,0,0,0,0,0,0,0,0,0,-1,1679,925,0,0
462,99,0,0,0,0,0,0,0,0,0,-1,1686,925,0,0
469,99,0,0,0,0,0,0,0,0,0,-1,1693,925,0,0
476,99,0,0,0,0,0,0,0,0,0,-1,1700,925,0,0
483,99,0,0,0,0,0,0,0,0,0,-1,1707,925,0,0
490,99,0,0,0,0,0,0,0,0,0,-1,1714,925,0,0
497,99,0,0,0,0,0,0,0,0,0,-1,1721,925,0,0
504,99,0,0,0,0,0,0,0,0,0,-1,1728,925,0,0
511,99,0,0,0,0,0,0,0,0,0,-1,1735,925,0,0
518,99,0,0,0,0,0,0,0,0,0,-1,1742,925,0,0
525,99,0,0,0,0,0,0,0,0,0,-1,1749,925,0,0
532,99,0,0,0,0,0,0,0,0,0,-1,1756,925,0,0
539,99,0,0,0,0,0,0,0,0,0,-1,1763,925,0,0
546,99,0,0,0,0,0,0,0,0,0,-1,1770,925,0,0
553,99,0,0,0,0,0,0,0,0,0,-1,1777,925,0,0
560,99,0,0,0,0,0,0,0,0,0,-1,1784,925,0,0
567,99,0,0,0,0,0,0,0,0,0,-1,1791,925,0,0
574,99,0,0,0,0,0,0,0,0,0,-1,1798,925,0,0
581,99,0,0,0,0,0,0,0,0,0,-1,1805,925,0,0
588,99,0,0,0,0,0,0,0,0,0,-1,1812,925,0,0
595,99,0,0,0,0,0,0,0,0,0,-1,1819,925,0,0
602,99,0,0,0,0,0,0,0,0,0,-1,1826,925,0,0
609,99,0,0,0,0,0,0,0,0,0,-1,1833,925,0,0
616,99,0,0,0,0,0,0,0,0,0,-1,1840,925,0,0
623,99,0,0,0,0,0,0,0,0,0,-1,1847,925,0,0
630,99,0,0,0,0,0,0,0,0,0,-1,1854,925,0,0
637,99,4.29419,0.708984,-0.000776072,0.00209269,-0.000526205,0.00218616,-0.000869547,-1.39499,0.00181798,0.0429692,1861,925,4.29413,-0.708954
644,99,4.26855,0.634399,-0.00113836,0.00233765,-0.000399707,0.00238302,-0.00118373,-1.45777,0.00209771,0.039373,1868,925,4.26856,-0.634425
651,99,4.35156,0.558411,-0.0014901,0.00244913,-0.000317368,0.00247454,-0.0015155,-1.49092,0.00232572,0.0382258,1875,925,4.35153,-0.558393
658,99,4.27625,0.722351,-0.00181066,0.0024054,-0.000362697,0.00243637,-0.00184163,-1.4856,0.00247785,0.0407447,1882,925,4.2762,-0.722364
665,99,4.18005,0.764648,-0.00206179,0.00223989,-0.00044733,0.00228592,-0.00210781,-1.46827,0.00253741,0.0428418,1889,925,4.18004,-0.764672
672,99,4.30798,0.667603,-0.00223807,0.00200364,-0.000492291,0.00206003,-0.00229446,-1.45676,0.00251528,0.0409749,1896,925,4.30801,-0.667617
679,99,4.25635,0.59729,-0.0023601,0.00168154,-0.000497878,0.00174196,-0.00242052,-1.45001,0.00241383,0.0358138,1903,925,4.25634,-0.597269
686,99,4.21436,0.60083,-0.0025093,0.00146,-0.00053963,0.00153206,-0.00258136,-1.43805,0.0024005,0.0287904,1910,925,4.21439,-0.60086
693,99,4.2052,0.773193,-0.00235166,0.00116704,-0.000544869,0.00124948,-0.0024341,-1.42063,0.00216307,0.0239697,1917,925,4.20518,-0.773195
700,99,4.21155,0.769653,-0.002131,0.000849051,-0.000568387,0.00095378,-0.00223572,-1.38858,0.00189039,0.0333654,1924,925,4.21157,-0.769672
707,99,4.12537,0.634155,-0.00192557,0.000583604,-0.000599674,0.000719555,-0.00206152,-1.34786,0.0016668,0.0282425,1931,925,4.12538,-0.634178
714,99,4.11353,0.609436,-0.00155326,0.000384719,-0.000634124,0.000573769,-0.00174231,-1.28106,0.00139276,0.0133156,1938,925,4.11354,-0.609425
721,99,4.10474,0.649719,-0.00103688,0.00018729,-0.000595074,0.000428881,-0.00127847,-1.18514,0.00102561,0.0159273,1945,925,4.10476,-0.649702
728,99,4.11279,0.698608,-0.000406345,5.30613e-05,-0.000558807,0.000427535,-0.000780819,-0.9804,0.000707512,0.0144016,1952,925,4.11279,-0.698584
735,99,4.11633,0.693176,0.000567792,0.000202177,4.11472e-05,0.000572366,0.000197603,0.110697,0.000335691,0.0130795,1959,925,4.11637,-0.693162
742,99,4.10693,0.700989,0.00133543,0.000463963,0.000193168,0.00137633,0.000423065,0.208641,0.00081404,0.011184,1966,925,4.1069,-0.700976
749,99,4.0946,0.740234,0.00156655,0.00148422,0.000732483,0.00225902,0.000791744,0.757326,0.00132354,0.00887013,1973,925,4.09463,-0.740224
756,99,4.08167,0.739319,0.00206573,0.00238977,0.00143574,0.00367261,0.000782895,0.841585,0.00223365,0.0100043,1980,925,4.08163,-0.739302
763,99,4.11121,0.725586,0.00230988,0.0036984,0.00231795,0.00542382,0.000584454,0.930904,0.00343766,0.0131765,1987,925,4.11125,-0.725597
770,99,4.20569,0.732361,0.00215205,0.00550371,0.00340139,0.0076197,3.60666e-05,1.01429,0.00506782,0.0262466,1994,925,4.20564,-0.732373
777,99,4.32007,0.755981,0.00142377,0.00798595,0.00474807,0.0104763,-0.0010666,1.08774,0.00736553,0.0407079,2001,925,4.32007,-0.75599
784,99,4.35852,0.795776,-0.000165159,0.0113698,0.00636162,0.0141892,-0.00298453,1.15363,0.0105954,0.04305,2008,925,4.35853,-0.795764
791,99,4.24133,0.957581,-0.00302906,0.015959,0.00813021,0.0189644,-0.00603451,1.21671,0.0150629,0.0451359,2015,925,4.24128,-0.957602
798,99,3.72034,0.725342,-0.00787699,0.0222285,0.00995701,0.0252237,-0.0108722,1.2786,0.021382,0.0441188,2022,925,3.72032,-0.725328
805,99,0,0,0,0,0,0,0,0,0,-1,2029,925,0,0
812,99,0,0,0,0,0,0,0,0,0,-1,2036,925,0,0
-700,92,0,0,0,0,0,0,0,0,0,-1,524,932,0,0
-693,92,0,0,0,0,0,0,0,0,0,-1,531,932,0,0
-686,92,1.29657,-1.63599,0.0202557,0.0580511,-0.0259766,0.0712768,0.00703011,-1.09987,0.0453564,0.0438606,538,932,1.29657,1.63596
-679,92,1.57819,-1.56732,0.00283262,0.0448361,-0.0131412,0.0486086,-0.000939889,-1.29124,0.0327235,0.0469781,545,932,1.57817,1.56733
-672,92,1.88983,-1.52783,-0.00766413,0.0339248,-0.00409832,0.0343248,-0.00806414,-1.4735,0.0259917,0.0469514,552,932,1.88986,1.52781
-665,92,0.562744,-1.92737,-0.0134874,0.0251141,0.00201866,0.0252194,-0.0135927,1.51869,0.0227408,0.0491253,559,932,0.562772,1.9274
-658,92,-0.0272827,-1.15765,-0.0160572,0.0181092,0.00585003,0.0190831,-0.0170311,1.40583,0.0208618,0.0471621,566,932,-0.0273077,1.15763
-651,92,-0.520813,-0.187622,-0.0163644,0.0126537,0.00788363,0.0146572,-0.0183679,1.32193,0.0191071,0.0470953,573,932,-0.5208,0.187619
-644,92,-1.31189,0.597839,0,0,0,0,0,0,0,-1,580,932,-1.31192,-0.597858
-637,92,-0.698486,0.781677,-0.0133191,0.00537469,0.00830371,0.00853043,-0.0164749,1.20761,0.0146777,0.0239641,587,932,-0.698496,-0.781668
-630,92,-0.628113,0.819275,-0.011462,0.00303388,0.00758466,0.00627687,-0.014705,1.16675,0.0124354,0.0121936,594,932,-0.628112,-0.81928
-623,92,-0.625122,0.806763,-0.00973554,0.00132645,0.00694551,0.0046742,-0.0130833,1.12165,0.0106286,0.00868953,601,932,-0.625108,-0.806764
-616,92,-0.628662,0.795654,-0.00786894,4.77332e-05,0.00604087,0.00331162,-0.0111328,1.07543,0.00873751,0.00818833,608,932,-0.628675,-0.795633
-609,92,-0.635193,0.770325,-0.00574724,-0.000786252,0.00473978,0.00208286,-0.00861636,1.02647,0.00654986,0.00830808,615,932,-0.6352,-0.770311
-602,92,-0.625488,0.758057,-0.00414569,-0.000529378,0.00335335,0.00147224,-0.00614731,1.03266,0.00466701,0.00839113,622,932,-0.625468,-0.758077
-595,92,-0.612732,0.758118,-0.00299632,-0.000282617,0.002023,0.000796422,-0.00407536,1.0808,0.00301762,0.0127304,629,932,-0.612746,-0.758123
-588,92,-0.622681,0.738098,-0.00268333,-0.000242378,0.00137452,0.000375317,-0.00330102,1.14845,0.00233586,0.0143719,636,932,-0.622676,-0.738079
-581,92,-0.611328,0.701477,-0.00287057,-0.000171644,0.0012228,0.000299961,-0.00334218,1.2027,0.00233454,0.012064,643,932,-0.61131,-0.701447
-574,92,-0.658142,0.705994,-0.00300611,-0.000136178,0.00107703,0.000223045,-0.00336534,1.24887,0.00232148,0.0142677,650,932,-0.658128,-0.705986
-567,92,-0.755554,0.773132,-0.00303486,-0.000101647,0.000915247,0.000160507,-0.00329701,1.29184,0.00225342,0.027866,657,932,-0.755583,-0.773158
-560,92,-0.784546,0.789978,-0.0028221,-0.000115455,0.000706091,5.76718e-05,-0.00299523,1.33035,0.00201632,0.0368092,664,932,-0.784546,-0.790003
-553,92,-0.901794,0.802246,-0.00241068,-6.971e-05,0.000355983,-1.67741e-05,-0.00246362,1.42317,0.00163685,0.0389251,671,932,-0.901772,-0.802247
-546,92,-0.765381,0.592163,-0.00169638,-5.55948e-06,-0.000148577,7.39715e-06,-0.00170934,-1.48381,0.00114203,0.0400896,678,932,-0.765384,-0.592185
-539,92,-0.801147,0.683533,-0.000602612,7.56157e-05,-0.000816437,0.000620565,-0.00114756,-0.982236,0.00103583,0.0402284,685,932,-0.801142,-0.68355
-532,92,-0.967712,0.775024,0.000883892,0.000167816,-0.00164364,0.00220804,-0.00115633,-0.678157,0.0019738,0.0422573,692,932,-0.96769,-0.775042
-525,92,-1.02411,0.819153,0.00278391,0.000256352,-0.00262647,0.00443483,-0.00139457,-0.561163,0.00351487,0.0402602,699,932,-1.02412,-0.819127
-518,92,-1.04547,0.95697,0.0049759,0.000308632,-0.0036274,0.00695549,-0.00167096,-0.49956,0.00528281,0.0426388,706,932,-1.04547,-0.956966
-511,92,0,0,0,0,0,0,0,0,0,-1,713,932,0,0
-504,92,0,0,0,0,0,0,0,0,0,-1,720,932,0,0
-497,92,0,0,0,0,0,0,0,0,0,-1,727,932,0,0
-490,92,0,0,0,0,0,0,0,0,0,-1,734,932,0,0
-483,92,0,0,0,0,0,0,0,0,0,-1,741,932,0,0
-476,92,0,0,0,0,0,0,0,0,0,-1,748,932,0,0
-469,92,0,0,0,0,0,0,0,0,0,-1,755,932,0,0
-462,92,0,0,0,0,0,0,0,0,0,-1,762,932,0,0
-455,92,0,0,0,0,0,0,0,0,0,-1,769,932,0,0
-448,92,0,0,0,0,0,0,0,0,0,-1,776,932,0,0
-441,92,0,0,0,0,0,0,0,0,0,-1,783,932,0,0
-434,92,0,0,0,0,0,0,0,0,0,-1,790,932,0,0
-427,92,0,0,0,0,0,0,0,0,0,-1,797,932,0,0
-420,92,0,0,0,0,0,0,0,0,0,-1,804,932,0,0
-413,92,0,0,0,0,0,0,0,0,0,-1,811,932,0,0
-406,92,0,0,0,0,0,0,0,0,0,-1,818,932,0,0
-399,92,0,0,0,0,0,0,0,0,0,-1,825,932,0,0
-392,92,0,0,0,0,0,0,0,0,0,-1,832,932,0,0
-385,92,0,0,0,0,0,0,0,0,0,-1,839,932,0,0
-378,92,0,0,0,0,0,0,0,0,0,-1,846,932,0,0
-371,92,0,0,0,0,0,0,0,0,0,-1,853,932,0,0
-364,92,0,0,0,0,0,0,0,0,0,-1,860,932,0,0
-357,92,0,0,0,0,0,0,0,0,0,-1,867,932,0,0
-350,92,0,0,0,0,0,0,0,0,0,-1,874,932,0,0
-343,92,0,0,0,0,0,0,0,0,0,-1,881,932,0,0
-336,92,0,0,0,0,0,0,0,0,0,-1,888,932,0,0
-329,92,0,0,0,0,0,0,0,0,0,-1,895,932,0,0
-322,92,0,0,0,0,0,0,0,0,0,-1,902,932,0,0
-315,92,0,0,0,0,0,0,0,0,0,-1,909,932,0,0
-308,92,0,0,0,0,0,0,0,0,0,-1,916,932,0,0
-301,92,0,0,0,0,0,0,0,0,0,-1,923,932,0,0
-294,92,0,0,0,0,0,0,0,0,0,-1,930,932,0,0
-287,92,0,0,0,0,0,0,0,0,0,-1,937,932,0,0
-280,92,0,0,0,0,0,0,0,0,0,-1,944,932,0,0
-273,92,0,0,0,0,0,0,0,0,0,-1,951,932,0,0
-266,92,0,0,0,0,0,0,0,0,0,-1,958,932,0,0
-259,92,0,0,0,0,0,0,0,0,0,-1,965,932,0,0
-252,92,0,0,0,0,0,0,0,0,0,-1,972,932,0,0
-245,92,0,0,0,0,0,0,0,0,0,-1,979,932,0,0
-238,92,0,0,0,0,0,0,0,0,0,-1,986,932,0,0
-231,92,0,0,0,0,0,0,0,0,0,-1,993,932,0,0
-224,92,0,0,0,0,0,0,0,0,0,-1,1000,932,0,0
-217,92,0,0,0,0,0,0,0,0,0,-1,1007,932,0,0
-210,92,0,0,0,0,0,0,0,0,0,-1,1014,932,0,0
-203,92,0,0,0,0,0,0,0,0,0,-1,1021,932,0,0
-196,92,0,0,0,0,0,0,0,0,0,-1,1028,932,0,0
-189,92,0,0,0,0,0,0,0,0,0,-1,1035,932,0,0
-182,92,0,0,0,0,0,0,0,0,0,-1,1042,932,0,0
-175,92,0,0,0,0,0,0,0,0,0,-1,1049,932,0,0
-168,92,0,0,0,0,0,0,0,0,0,-1,1056,932,0,0
-161,92,0,0,0,0,0,0,0,0,0,-1,1063,932,0,0
-154,92,0,0,0,0,0,0,0,0,0,-1,1070,932,0,0
-147,92,0,0,0,0,0,0,0,0,0,-1,1077,932,0,0
-140,92,0,0,0,0,0,0,0,0,0,-1,1084,932,0,0
-133,92,0,0,0,0,0,0,0,0,0,-1,1091,932,0,0
-126,92,0,0,0,0,0,0,0,0,0,-1,1098,932,0,0
-119,92,0,0,0,0,0,0,0,0,0,-1,1105,932,0,0
-112,92,0,0,0,0,0,0,0,0,0,-1,1112,932,0,0
-105,92,0,0,0,0,0,0,0,0,0,-1,1119,932,0,0
-98,92,0,0,0,0,0,0,0,0,0,-1,1126,932,0,0
-91,92,0,0,0,0,0,0,0,0,0,-1,1133,932,0,0
-84,92,0,0,0,0,0,0,0,0,0,-1,1140,932,0,0
-77,92,0,0,0,0,0,0,0,0,0,-1,1147,932,0,0
-70,92,0,0,0,0,0,0,0,0,0,-1,1154,932,0,0
-63,92,0,0,0,0,0,0,0,0,0,-1,1161,932,0,0
-56,92,0,0,0,0,0,0,0,0,0,-1,1168,932,0,0
-49,92,0,0,0,0,0,0,0,0,0,-1,1175,932,0,0
-42,92,0,0,0,0,0,0,0,0,0,-1,1182,932,0,0
-35,92,0,0,0,0,0,0,0,0,0,-1,1189,932,0,0
-28,92,0,0,0,0,0,0,0,0,0,-1,1196,932,0,0
-21,92,0,0,0,0,0,0,0,0,0,-1,1203,932,0,0
-14,92,0,0,0,0,0,0,0,0,0,-1,1210,932,0,0
-7,92,0,0,0,0,0,0,0,0,0,-1,1217,932,0,0
0,92,0,0,0,0,0,0,0,0,0,-1,1224,932,0,0
7,92,0,0,0,0,0,0,0,0,0,-1,1231,932,0,0
14,92,0,0,0,0,0,0,0,0,0,-1,1238,932,0,0
21,92,0,0,0,0,0,0,0,0,0,-1,1245,932,0,0
28,92,0,0,0,0,0,0,0,0,0,-1,1252,932,0,0
35,92,0,0,0,0,0,0,0,0,0,-1,1259,932,0,0
42,92,0,0,0,0,0,0,0,0,0,-1,1266,932,0,0
49,92,0,0,0,0,0,0,0,0,0,-1,1273,932,0,0
56,92,0,0,0,0,0,0,0,0,0,-1,1280,932,0,0
63,92,0,0,0,0,0,0,0,0,0,-1,1287,932,0,0
70,92,0,0,0,0,0,0,0,0,0,-1,1294,932,0,0
77,92,0,0,0,0,0,0,0,0,0,-1,1301,932,0,0
84,92,0,0,0,0,0,0,0,0,0,-1,1308,932,0,0
91,92,0,0,0,0,0,0,0,0,0,-1,1315,932,0,0
98,92,0,0,0,0,0,0,0,0,0,-1,1322,932,0,0
105,92,0,0,0,0,0,0,0,0,0,-1,1329,932,0,0
112,92,0,0,0,0,0,0,0,0,0,-1,1336,932,0,0
119,92,0,0,0,0,0,0,0,0,0,-1,1343,932,0,0
126,92,0,0,0,0,0,0,0,0,0,-1,1350,932,0,0
133,92,0,0,0,0,0,0,0,0,0,-1,1357,932,0,0
140,92,0,0,0,0,0,0,0,0,0,-1,1364,932,0,0
147,92,0,0,0,0,0,0,0,0,0,-1,1371,932,0,0
154,92,0,0,0,0,0,0,0,0,0,-1,1378,932,0,0
161,92,0,0,0,0,0,0,0,0,0,-1,1385,932,0,0
168,92,0,0,0,0,0,0,0,0,0,-1,1392,932,0,0
175,92,0,0,0,0,0,0,0,0,0,-1,1399,932,0,0
182,92,0,0,0,0,0,0,0,0,0,-1,1406,932,0,0
189,92,0,0,0,0,0,0,0,0,0,-1,1413,932,0,0
196,92,0,0,0,0,0,0,0,0,0,-1,1420,932,0,0
203,92,0,0,0,0,0,0,0,0,0,-1,1427,932,0,0
210,92,0,0,0,0,0,0,0,0,0,-1,1434,932,0,0
217,92,0,0,0,0,0,0,0,0,0,-1,1441,932,0,0
224,92,0,0,0,0,0,0,0,0,0,-1,1448,932,0,0
231,92,0,0,0,0,0,0,0,0,0,-1,1455,932,0,0
238,92,0,0,0,0,0,0,0,0,0,-1,1462,932,0,0
245,92,0,0,0,0,0,0,0,0,0,-1,1469,932,0,0
252,92,0,0,0,0,0,0,0,0,0,-1,1476,932,0,0
259,92,0,0,0,0,0,0,0,0,0,-1,1483,932,0,0
266,92,0,0,0,0,0,0,0,0,0,-1,1490,932,0,0
273,92,0,0,0,0,0,0,0,0,0,-1,1497,932,0,0
280,92,0,0,0,0,0,0,0,0,0,-1,1504,932,0,0
287,92,0,0,0,0,0,0,0,0,0,-1,1511,932,0,0
294,92,0,0,0,0,0,0,0,0,0,-1,1518,932,0,0
301,92,0,0,0,0,0,0,0,0,0,-1,1525,932,0,0
308,92,0,0,0,0,0,0,0,0,0,-1,1532,932,0,0
315,92,0,0,0,0,0,0,0,0,0,-1,1539,932,0,0
322,92,0,0,0,0,0,0,0,0,0,-1,1546,932,0,0
329,92,0,0,0,0,0,0,0,0,0,-1,1553,932,0,0
336,92,0,0,0,0,0,0,0,0,0,-1,1560,932,0,0
343,92,0,0,0,0,0,0,0,0,0,-1,1567,932,0,0
350,92,0,0,0,0,0,0,0,0,0,-1,1574,932,0,0
357,92,0,0,0,0,0,0,0,0,0,-1,1581,932,0,0
364,92,0,0,0,0,0,0,0,0,0,-1,1588,932,0,0
371,92,0,0,0,0,0,0,0,0,0,-1,1595,932,0,0
378,92,0,0,0,0,0,0,0,0,0,-1,1602,932,0,0
385,92,0,0,0,0,0,0,0,0,0,-1,1609,932,0,0
392,92,0,0,0,0,0,0,0,0,0,-1,1616,932,0,0
399,92,0,0,0,0,0,0,0,0,0,-1,1623,932,0,0
406,92,0,0,0,0,0,0,0,0,0,-1,1630,932,0,0
413,92,0,0,0,0,0,0,0,0,0,-1,1637,932,0,0
420,92,0,0,0,0,0,0,0,0,0,-1,1644,932,0,0
427,92,0,0,0,0,0,0,0,0,0,-1,1651,932,0,0
434,92,0,0,0,0,0,0,0,0,0,-1,1658,932,0,0
441,92,0,0,0,0,0,0,0,0,0,-1,1665,932,0,0
448,92,0,0,0,0,0,0,0,0,0,-1,1672,932,0,0
455,92,0,0,0,0,0,0,0,0,0,-1,1679,932,0,0
462,92,0,0,0,0,0,0,0,0,0,-1,1686,932,0,0
469,92,0,0,0,0,0,0,0,0,0,-1,1693,932,0,0
476,92,0,0,0,0,0,0,0,0,0,-1,1700,932,0,0
483,92,0,0,0,0,0,0,0,0,0,-1,1707,932,0,0
490,92,0,0,0,0,0,0,0,0,0,-1,1714,932,0,0
497,92,0,0,0,0,0,0,0,0,0,-1,1721,932,0,0
504,92,0,0,0,0,0,0,0,0,0,-1,1728,932,0,0
511,92,0,0,0,0,0,0,0,0,0,-1,1735,932,0,0
518,92,0,0,0,0,0,0,0,0,0,-1,1742,932,0,0
525,92,0,0,0,0,0,0,0,0,0,-1,1749,932,0,0
532,92,0,0,0,0,0,0,0,0,0,-1,1756,932,0,0
539,92,0,0,0,0,0,0,0,0,0,-1,1763,932,0,0
546,92,0,0,0,0,0,0,0,0,0,-1,1770,932,0,0
553,92,0,0,0,0,0,0,0,0,0,-1,1777,932,0,0
560,92,0,0,0,0,0,0,0,0,0,-1,1784,932,0,0
567,92,0,0,0,0,0,0,0,0,0,-1,1791,932,0,0
574,92,0,0,0,0,0,0,0,0,0,-1,1798,932,0,0
581,92,0,0,0,0,0,0,0,0,0,-1,1805,932,0,0
588,92,0,0,0,0,0,0,0,0,0,-1,1812,932,0,0
595,92,0,0,0,0,0,0,0,0,0,-1,1819,932,0,0
602,92,0,0,0,0,0,0,0,0,0,-1,1826,932,0,0
609,92,0,0,0,0,0,0,0,0,0,-1,1833,932,0,0
616,92,0,0,0,0,0,0,0,0,0,-1,1840,932,0,0
623,92,0,0,0,0,0,0,0,0,0,-1,1847,932,0,0
630,92,0,0,0,0,0,0,0,0,0,-1,1854,932,0,0
637,92,4.23193,0.570068,-0.00175186,0.00160615,0.000102506,0.00160927,-0.00175499,1.54031,0.00194296,0.0458945,1861,932,4.2319,-0.570074
644,92,4.2207,0.496948,-0.00175778,0.00199531,1.15435e-05,0.00199535,-0.00175782,1.56772,0.00216834,0.0421511,1868,932,4.22065,-0.496941
651,92,4.25903,0.626465,-0.00179942,0.00223456,-1.23464e-05,0.00223459,-0.00179946,-1.56774,0.00233357,0.0392564,1875,932,4.25902,-0.626456
658,92,4.1217,0.737244,-0.00189794,0.00230059,-0.000101851,0.00230306,-0.00190041,-1.54656,0.00243058,0.0419904,1882,932,4.12167,-0.73722
665,92,4.11584,0.672058,-0.00200609,0.00221459,-0.000212586,0.00222527,-0.00201677,-1.5206,0.00245013,0.045149,1889,932,4.11578,-0.672056
672,92,4.33667,0.585327,-0.00209742,0.00203699,-0.000273337,0.00205499,-0.00211541,-1.50507,0.00240787,0.0422646,1896,932,4.33665,-0.585333
679,92,4.24927,0.645508,-0.00216689,0.00177326,-0.000299063,0.00179583,-0.00218946,-1.49547,0.00230465,0.0389272,1903,932,4.24931,-0.645534
686,92,4.18066,0.64502,-0.00228211,0.00156888,-0.000346915,0.00159988,-0.00231311,-1.48167,0.00227164,0.0307865,1910,932,4.18065,-0.645006
693,92,4.24243,0.648315,-0.0021204,0.00127306,-0.000346835,0.00130814,-0.00215549,-1.46998,0.00201957,0.0260051,1917,932,4.24246,-0.648305
700,92,4.28284,0.666687,-0.00193022,0.000958821,-0.000385798,0.00100945,-0.00198085,-1.4403,0.00175655,0.0372513,1924,932,4.28289,-0.666666
707,92,4.16284,0.627075,-0.00178555,0.000700468,-0.00044274,0.000776962,-0.00186204,-1.39971,0.00156597,0.0339548,1931,932,4.16284,-0.627059
714,92,4.14478,0.612183,-0.00151733,0.000467338,-0.00047078,0.000573348,-0.00162334,-1.34931,0.00131567,0.0174664,1938,932,4.1448,-0.612196
721,92,4.13391,0.671143,-0.00116596,0.000203809,-0.000390722,0.000307424,-0.00126957,-1.31158,0.000965315,0.0210705,1945,932,4.13396,-0.671151
728,92,4.11841,0.714172,-0.000686526,2.35376e-05,-0.000348896,0.000166277,-0.000829265,-1.18246,0.000615798,0.0158643,1952,932,4.11836,-0.714147
735,92,4.13257,0.692261,5.23453e-05,9.12346e-05,0.000146167,0.000219245,-7.56649e-05,0.851525,0.000176865,0.0146864,1959,932,4.1326,-0.692273
742,92,4.14124,0.671448,0.000550882,0.000240024,4.22576e-05,0.000556524,0.000234382,0.13273,0.000322638,0.0158485,1966,932,4.14122,-0.671452
749,92,4.11694,0.721863,0.000536953,0.00121152,0.000383146,0.00138469,0.000363786,1.14631,0.000828916,0.013436,1973,932,4.11696,-0.721862
756,92,4.07581,0.754517,0.000689982,0.00204649,0.000819191,0.00243177,0.000304702,1.13118,0.00152976,0.0135265,1980,932,4.07581,-0.754535
763,92,4.13989,0.759827,0.00051027,0.00331212,0.00136344,0.00386608,-4.36848e-05,1.18488,0.00259207,0.015571,1987,932,4.13991,-0.759843
770,92,4.21753,0.769836,-9.90192e-05,0.00509072,0.00195791,0.00574651,-0.000754804,1.2476,0.0041058,0.025041,1994,932,4.21756,-0.769845
777,92,4.31116,0.791382,-0.00133947,0.00758518,0.00266618,0.00832101,-0.0020753,1.30151,0.00635312,0.0423168,2001,932,4.31111,-0.791379
784,92,4.80505,0.823669,-0.00348461,0.0110362,0.00351515,0.0118424,-0.00429079,1.34535,0.00964862,0.0480635,2008,932,4.80508,-0.823663
791,92,4.66931,1.21008,-0.00690694,0.0157417,0.00445745,0.0165874,-0.00775262,1.3833,0.014358,0.0447532,2015,932,4.66926,-1.21008
798,92,3.15332,0.452209,-0.0122431,0.0221346,0.00555313,0.0230093,-0.0131178,1.41456,0.021117,0.0412229,2022,932,3.15332,-0.452196
805,92,0,0,0,0,0,0,0,0,0,-1,2029,932,0,0
812,92,0,0,0,0,0,0,0,0,0,-1,2036,932,0,0
-700,85,0,0,0,0,0,0,0,0,0,-1,524,939,0,0
-693,85,0,0,0,0,0,0,0,0,0,-1,531,939,0,0
-686,85,1.7113,-1.93878,0.0167641,0.0525418,-0.0208641,0.0621361,0.00716982,-1.13979,0.039253,0.0457959,538,939,1.71127,1.93881
-679,85,1.97931,-1.85382,-0.000238485,0.0389018,-0.00947715,0.0410758,-0.00241247,-1.34531,0.0282224,0.046969,545,939,1.97931,1.85381
-672,85,2.25653,-1.77649,-0.0105385,0.0281959,-0.00154465,0.0282574,-0.0106,-1.531,0.0231936,0.0448133,552,939,2.25651,1.77649
-665,85,1.28418,0.615784,0,0,0,0,0,0,0,-1,559,939,1.28417,-0.615754
-658,85,0.0741577,-1.11987,-0.0185137,0.0135956,0.00694405,0.015033,-0.0199511,1.36668,0.0202645,0.044237,566,939,0.0741672,1.11989
-651,85,-0.321472,-0.088501,-0.0184952,0.00890479,0.00852105,0.0113386,-0.0209289,1.29259,0.0189019,0.0402769,573,939,-0.321477,0.0884772
-644,85,-0.563293,0.813354,-0.0169582,0.00553032,0.00887347,0.00860989,-0.0200377,1.23675,0.0169727,0.0321633,580,939,-0.563298,-0.813345
-637,85,-0.613708,0.821533,-0.0146933,0.00304494,0.00840751,0.00639661,-0.0180449,1.19145,0.0146358,0.0157961,587,939,-0.613703,-0.821563
-630,85,-0.640564,0.807007,-0.0125305,0.00126485,0.00755425,0.00459678,-0.0158624,1.1554,0.0123946,0.0105205,594,939,-0.640559,-0.807035
-623,85,-0.635742,0.791809,-0.010543,0.000114684,0.00676624,0.00339853,-0.0138269,1.11895,0.0105351,0.00905381,601,939,-0.635739,-0.791796
-616,85,-0.639954,0.782593,-0.00831412,-0.000632049,0.00576841,0.00245715,-0.0114033,1.07912,0.00853992,0.0087699,608,939,-0.639976,-0.782572
-609,85,-0.664185,0.763428,-0.00587351,-0.00105236,0.00443909,0.00158844,-0.00851431,1.03414,0.00627309,0.011511,615,939,-0.664201,-0.763418
-602,85,-0.65094,0.758118,-0.00404469,-0.000554468,0.00310728,0.00126421,-0.00586337,1.04126,0.0043914,0.0149924,622,939,-0.650936,-0.75813
-595,85,-0.608154,0.758362,-0.00281365,-0.000142229,0.00181224,0.000773356,-0.00372924,1.10298,0.00278003,0.0153891,629,939,-0.608134,-0.75838
-588,85,-0.632751,0.729309,-0.00249709,-7.8979e-05,0.00120863,0.000421527,-0.00299759,1.17818,0.00215271,0.0147618,636,939,-0.632747,-0.729295
-581,85,-0.641602,0.698486,-0.00261652,-4.74457e-06,0.00105457,0.000367899,-0.00298917,1.23113,0.00212605,0.0131554,643,939,-0.641581,-0.698471
-574,85,-0.706543,0.734009,-0.00264456,5.82465e-05,0.000894006,0.000327194,-0.00291351,1.27857,0.00206008,0.0183039,650,939,-0.70652,-0.733988
-567,85,-0.797668,0.797119,-0.00261377,0.000144764,0.000715522,0.000319315,-0.00278832,1.33152,0.00197395,0.0288964,657,939,-0.797683,-0.797096
-560,85,-0.781311,0.791565,-0.00233922,0.000190932,0.000476864,0.000277824,-0.00242611,1.39056,0.00171752,0.0334277,664,939,-0.781318,-0.791538
-553,85,-0.866333,0.667175,-0.00187016,0.000279963,9.57795e-05,0.000284221,-0.00187441,1.52637,0.00135433,0.0367936,671,939,-0.866339,-0.667188
-546,85,-0.889099,0.611206,-0.00109812,0.000387326,-0.000447298,0.000511617,-0.00122241,-1.29976,0.00102879,0.0405275,678,939,-0.889114,-0.611219
-539,85,-0.886719,0.864807,2.61609e-05,0.000513555,-0.00116303,0.00145814,-0.000918427,-0.888672,0.00138386,0.0406844,685,939,-0.886729,-0.8648
-532,85,-0.880432,1.02771,0.00149822,0.000660319,-0.00205361,0.00317518,-0.00101663,-0.684775,0.00252484,0.0406027,692,939,-0.880404,-1.02768
-525,85,-0.863831,0.985962,0.00329377,0.000825568,-0.00311644,0.00541156,-0.00129223,-0.596873,0.00410679,0.0401802,699,939,-0.863829,-0.985981
-518,85,-1.0072,1.06201,0.00525128,0.000991192,-0.00422921,0.00785656,-0.00161409,-0.552116,0.00585043,0.0392651,706,939,-1.00717,-1.06201
-511,85,0,0,0,0,0,0,0,0,0,-1,713,939,0,0
-504,85,0,0,0,0,0,0,0,0,0,-1,720,939,0,0
-497,85,0,0,0,0,0,0,0,0,0,-1,727,939,0,0
-490,85,0,0,0,0,0,0,0,0,0,-1,734,939,0,0
-483,85,0,0,0,0,0,0,0,0,0,-1,741,939,0,0
-476,85,0,0,0,0,0,0,0,0,0,-1,748,939,0,0
-469,85,0,0,0,0,0,0,0,0,0,-1,755,939,0,0
-462,85,0,0,0,0,0,0,0,0,0,-1,762,939,0,0
-455,85,0,0,0,0,0,0,0,0,0,-1,769,939,0,0
-448,85,0,0,0,0,0,0,0,0,0,-1,776,939,0,0
-441,85,0,0,0,0,0,0,0,0,0,-1,783,939,0,0
-434,85,0,0,0,0,0,0,0,0,0,-1,790,939,0,0
-427,85,0,0,0,0,0,0,0,0,0,-1,797,939,0,0
-420,85,0,0,0,0,0,0,0,0,0,-1,804,939,0,0
-413,85,0,0,0,0,0,0,0,0,0,-1,811,939,0,0
-406,85,0,0,0,0,0,0,0,0,0,-1,818,939,0,0
-399,85,0,0,0,0,0,0,0,0,0,-1,825,939,0,0
-392,85,0,0,0,0,0,0,0,0,0,-1,832,939,0,0
-385,85,0,0,0,0,0,0,0,0,0,-1,839,939,0,0
-378,85,0,0,0,0,0,0,0,0,0,-1,846,939,0,0
-371,85,0,0,0,0,0,0,0,0,0,-1,853,939,0,0
-364,85,0,0,0,0,0,0,0,0,0,-1,860,939,0,0
-357,85,0,0,0,0,0,0,0,0,0,-1,867,939,0,0
-350,85,0,0,0,0,0,0,0,0,0,-1,874,939,0,0
-343,85,0,0,0,0,0,0,0,0,0,-1,881,939,0,0
-336,85,0,0,0,0,0,0,0,0,0,-1,888,939,0,0
-329,85,0,0,0,0,0,0,0,0,0,-1,895,939,0,0
-322,85,0,0,0,0,0,0,0,0,0,-1,902,939,0,0
-315,85,0,0,0,0,0,0,0,0,0,-1,909,939,0,0
-308,85,0,0,0,0,0,0,0,0,0,-1,916,939,0,0
-301,85,0,0,0,0,0,0,0,0,0,-1,923,939,0,0
-294,85,0,0,0,0,0,0,0,0,0,-1,930,939,0,0
-287,85,0,0,0,0,0,0,0,0,0,-1,937,939,0,0
-280,85,0,0,0,0,0,0,0,0,0,-1,944,939,0,0
-273,85,0,0,0,0,0,0,0,0,0,-1,951,939,0,0
-266,85,0,0,0,0,0,0,0,0,0,-1,958,939,0,0
-259,85,0,0,0,0,0,0,0,0,0,-1,965,939,0,0
-252,85,0,0,0,0,0,0,0,0,0,-1,972,939,0,0
-245,85,0,0,0,0,0,0,0,0,0,-1,979,939,0,0
-238,85,0,0,0,0,0,0,0,0,0,-1,986,939,0,0
-231,85,0,0,0,0,0,0,0,0,0,-1,993,939,0,0
-224,85,0,0,0,0,0,0,0,0,0,-1,1000,939,0,0
-217,85,0,0,0,0,0,0,0,0,0,-1,1007,939,0,0
-210,85,0,0,0,0,0,0,0,0,0,-1,1014,939,0,0
-203,85,0,0,0,0,0,0,0,0,0,-1,1021,939,0,0
-196,85,0,0,0,0,0,0,0,0,0,-1,1028,939,0,0
-189,85,0,0,0,0,0,0,0,0,0,-1,1035,939,0,0
-182,85,0,0,0,0,0,0,0,0,0,-1,1042,939,0,0
-175,85,0,0,0,0,0,0,0,0,0,-1,1049,939,0,0
-168,85,0,0,0,0,0,0,0,0,0,-1,1056,939,0,0
-161,85,0,0,0,0,0,0,0,0,0,-1,1063,939,0,0
-154,85,0,0,0,0,0,0,0,0,0,-1,1070,939,0,0
-147,85,0,0,0,0,0,0,0,0,0,-1,1077,939,0,0
-140,85,0,0,0,0,0,0,0,0,0,-1,1084,939,0,0
-133,85,0,0,0,0,0,0,0,0,0,-1,1091,939,0,0
-126,85,0,0,0,0,0,0,0,0,0,-1,1098,939,0,0
-119,85,0,0,0,0,0,0,0,0,0,-1,1105,939,0,0
-112,85,0,0,0,0,0,0,0,0,0,-1,1112,939,0,0
-105,85,0,0,0,0,0,0,0,0,0,-1,1119,939,0,0
-98,85,0,0,0,0,0,0,0,0,0,-1,1126,939,0,0
-91,85,0,0,0,0,0,0,0,0,0,-1,1133,939,0,0
-84,85,0,0,0,0,0,0,0,0,0,-1,1140,939,0,0
-77,85,0,0,0,0,0,0,0,0,0,-1,1147,939,0,0
-70,85,0,0,0,0,0,0,0,0,0,-1,1154,939,0,0
-63,85,0,0,0,0,0,0,0,0,0,-1,1161,939,0,0
-56,85,0,0,0,0,0,0,0,0,0,-1,1168,939,0,0
-49,85,0,0,0,0,0,0,0,0,0,-1,1175,939,0,0
-42,85,0,0,0,0,0,0,0,0,0,-1,1182,939,0,0
-35,85,0,0,0,0,0,0,0,0,0,-1,1189,939,0,0
-28,85,0,0,0,0,0,0,0,0,0,-1,1196,939,0,0
-21,85,0,0,0,0,0,0,0,0,0,-1,1203,939,0,0
-14,85,0,0,0,0,0,0,0,0,0,-1,1210,939,0,0
-7,85,0,0,0,0,0,0,0,0,0,-1,1217,939,0,0
0,85,0,0,0,0,0,0,0,0,0,-1,1224,939,0,0
7,85,0,0,0,0,0,0,0,0,0,-1,1231,939,0,0
14,85,0,0,0,0,0,0,0,0,0,-1,1238,939,0,0
21,85,0,0,0,0,0,0,0,0,0,-1,1245,939,0,0
28,85,0,0,0,0,0,0,0,0,0,-1,1252,939,0,0
35,85,0,0,0,0,0,0,0,0,0,-1,1259,939,0,0
42,85,0,0,0,0,0,0,0,0,0,-1,1266,939,0,0
49,85,0,0,0,0,0,0,0,0,0,-1,1273,939,0,0
56,85,0,0,0,0,0,0,0,0,0,-1,1280,939,0,0
63,85,0,0,0,0,0,0,0,0,0,-1,1287,939,0,0
70,85,0,0,0,0,0,0,0,0,0,-1,1294,939,0,0
77,85,0,0,0,0,0,0,0,0,0,-1,1301,939,0,0
84,85,0,0,0,0,0,0,0,0,0,-1,1308,939,0,0
91,85,0,0,0,0,0,0,0,0,0,-1,1315,939,0,0
98,85,0,0,0,0,0,0,0,0,0,-1,1322,939,0,0
105,85,0,0,0,0,0,0,0,0,0,-1,1329,939,0,0
112,85,0,0,0,0,0,0,0,0,0,-1,1336,939,0,0
119,85,0,0,0,0,0,0,0,0,0,-1,1343,939,0,0
126,85,0,0,0,0,0,0,0,0,0,-1,1350,939,0,0
133,85,0,0,0,0,0,0,0,0,0,-1,1357,939,0,0
140,85,0,0,0,0,0,0,0,0,0,-1,1364,939,0,0
147,85,0,0,0,0,0,0,0,0,0,-1,1371,939,0,0
154,85,0,0,0,0,0,0,0,0,0,-1,1378,939,0,0
161,85,0,0,0,0,0,0,0,0,0,-1,1385,939,0,0
168,85,0,0,0,0,0,0,0,0,0,-1,1392,939,0,0
175,85,0,0,0,0,0,0,0,0,0,-1,1399,939,0,0
182,85,0,0,0,0,0,0,0,0,0,-1,1406,939,0,0
189,85,0,0,0,0,0,0,0,0,0,-1,1413,939,0,0
196,85,0,0,0,0,0,0,0,0,0,-1,1420,939,0,0
203,85,0,0,0,0,0,0,0,0,0,-1,1427,939,0,0
210,85,0,0,0,0,0,0,0,0,0,-1,1434,939,0,0
217,85,0,0,0,0,0,0,0,0,0,-1,1441,939,0,0
224,85,0,0,0,0,0,0,0,0,0,-1,1448,939,0,0
231,85,0,0,0,0,0,0,0,0,0,-1,1455,939,0,0
238,85,0,0,0,0,0,0,0,0,0,-1,1462,939,0,0
245,85,0,0,0,0,0,0,0,0,0,-1,1469,939,0,0
252,85,0,0,0,0,0,0,0,0,0,-1,1476,939,0,0
259,85,0,0,0,0,0,0,0,0,0,-1,1483,939,0,0
266,85,0,0,0,0,0,0,0,0,0,-1,1490,939,0,0
273,85,0,0,0,0,0,0,0,0,0,-1,1497,939,0,0
280,85,0,0,0,0,0,0,0,0,0,-1,1504,939,0,0
287,85,0,0,0,0,0,0,0,0,0,-1,1511,939,0,0
294,85,0,0,0,0,0,0,0,0,0,-1,1518,939,0,0
301,85,0,0,0,0,0,0,0,0,0,-1,1525,939,0,0
308,85,0,0,0,0,0,0,0,0,0,-1,1532,939,0,0
315,85,0,0,0,0,0,0,0,0,0,-1,1539,939,0,0
322,85,0,0,0,0,0,0,0,0,0,-1,1546,939,0,0
329,85,0,0,0,0,0,0,0,0,0,-1,1553,939,0,0
336,85,0,0,0,0,0,0,0,0,0,-1,1560,939,0,0
343,85,0,0,0,0,0,0,0,0,0,-1,1567,939,0,0
350,85,0,0,0,0,0,0,0,0,0,-1,1574,939,0,0
357,85,0,0,0,0,0,0,0,0,0,-1,1581,939,0,0
364,85,0,0,0,0,0,0,0,0,0,-1,1588,939,0,0
371,85,0,0,0,0,0,0,0,0,0,-1,1595,939,0,0
378,85,0,0,0,0,0,0,0,0,0,-1,1602,939,0,0
385,85,0,0,0,0,0,0,0,0,0,-1,1609,939,0,0
392,85,0,0,0,0,0,0,0,0,0,-1,1616,939,0,0
399,85,0,0,0,0,0,0,0,0,0,-1,1623,939,0,0
406,85,0,0,0,0,0,0,0,0,0,-1,1630,939,0,0
413,85,0,0,0,0,0,0,0,0,0,-1,1637,939,0,0
420,85,0,0,0,0,0,0,0,0,0,-1,1644,939,0,0
427,85,0,0,0,0,0,0,0,0,0,-1,1651,939,0,0
434,85,0,0,0,0,0,0,0,0,0,-1,1658,939,0,0
441,85,0,0,0,0,0,0,0,0,0,-1,1665,939,0,0
448,85,0,0,0,0,0,0,0,0,0,-1,1672,939,0,0
455,85,0,0,0,0,0,0,0,0,0,-1,1679,939,0,0
462,85,0,0,0,0,0,0,0,0,0,-1,1686,939,0,0
469,85,0,0,0,0,0,0,0,0,0,-1,1693,939,0,0
476,85,0,0,0,0,0,0,0,0,0,-1,1700,939,0,0
483,85,0,0,0,0,0,0,0,0,0,-1,1707,939,0,0
490,85,0,0,0,0,0,0,0,0,0,-1,1714,939,0,0
497,85,0,0,0,0,0,0,0,0,0,-1,1721,939,0,0
504,85,0,0,0,0,0,0,0,0,0,-1,1728,939,0,0
511,85,0,0,0,0,0,0,0,0,0,-1,1735,939,0,0
518,85,0,0,0,0,0,0,0,0,0,-1,1742,939,0,0
525,85,0,0,0,0,0,0,0,0,0,-1,1749,939,0,0
532,85,0,0,0,0,0,0,0,0,0,-1,1756,939,0,0
539,85,0,0,0,0,0,0,0,0,0,-1,1763,939,0,0
546,85,0,0,0,0,0,0,0,0,0,-1,1770,939,0,0
553,85,0,0,0,0,0,0,0,0,0,-1,1777,939,0,0
560,85,0,0,0,0,0,0,0,0,0,-1,1784,939,0,0
567,85,0,0,0,0,0,0,0,0,0,-1,1791,939,0,0
574,85,0,0,0,0,0,0,0,0,0,-1,1798,939,0,0
581,85,0,0,0,0,0,0,0,0,0,-1,1805,939,0,0
588,85,0,0,0,0,0,0,0,0,0,-1,1812,939,0,0
595,85,0,0,0,0,0,0,0,0,0,-1,1819,939,0,0
602,85,0,0,0,0,0,0,0,0,0,-1,1826,939,0,0
609,85,0,0,0,0,0,0,0,0,0,-1,1833,939,0,0
616,85,0,0,0,0,0,0,0,0,0,-1,1840,939,0,0
623,85,0,0,0,0,0,0,0,0,0,-1,1847,939,0,0
630,85,0,0,0,0,0,0,0,0,0,-1,1854,939,0,0
637,85,4.39014,0.837402,-0.00279541,0.0008008,0.000836965,0.000986048,-0.00298066,1.35297,0.00238474,0.0464318,1861,939,4.39018,-0.837431
644,85,4.25891,0.512878,-0.00238756,0.00131356,0.000542158,0.00139134,-0.00246535,1.4283,0.00225526,0.043021,1868,939,4.25895,-0.512872
651,85,4.21436,0.557495,-0.00208842,0.00166916,0.00041056,0.0017135,-0.00213276,1.46323,0.00222503,0.0408808,1875,939,4.21436,-0.557499
658,85,4.11975,0.557983,-0.00195633,0.00184737,0.000275069,0.00186716,-0.00197612,1.49898,0.00221921,0.0413866,1882,939,4.11981,-0.557984
665,85,4.17468,0.480042,-0.00191897,0.00185468,0.000134676,0.00185948,-0.00192377,1.53517,0.00218437,0.0432215,1889,939,4.17465,-0.480057
672,85,4.34888,0.487793,-0.00192741,0.00175763,4.93173e-05,0.00175829,-0.00192807,1.55742,0.00212907,0.0430111,1896,939,4.34894,-0.487785
679,85,4.23975,0.729309,-0.00194776,0.0015783,2.41636e-06,0.0015783,-0.00194776,1.57011,0.0020395,0.0423869,1903,939,4.23975,-0.729284
686,85,4.125,0.771667,-0.00203083,0.00141747,-6.00619e-05,0.00141851,-0.00203188,-1.55339,0.00200255,0.0358946,1910,939,4.12502,-0.771654
693,85,4.1781,0.719116,-0.00187282,0.00114815,-6.825e-05,0.00114969,-0.00187436,-1.54822,0.00176257,0.0292637,1917,939,4.17809,-0.71912
700,85,4.22058,0.717896,-0.00170801,0.000880516,-0.000137696,0.00088782,-0.00171532,-1.5178,0.00152802,0.0276332,1924,939,4.22052,-0.717883
707,85,4.16296,0.659119,-0.00162703,0.000673605,-0.000225228,0.000695447,-0.00164887,-1.47412,0.0013903,0.0310961,1931,939,4.16299,-0.659108
714,85,4.14478,0.602478,-0.00144657,0.00045976,-0.000269625,0.000497161,-0.00148397,-1.43296,0.00119016,0.0236489,1938,939,4.14481,-0.6025
721,85,4.14343,0.655823,-0.00119055,0.000254434,-0.000207526,0.000283648,-0.00121977,-1.43094,0.000922382,0.0215675,1945,939,4.14339,-0.655845
728,85,4.14038,0.700806,-0.000814474,0.000109135,-0.000199218,0.000150273,-0.000855612,-1.36716,0.000626535,0.0173756,1952,939,4.14041,-0.700796
735,85,4.15723,0.679626,-0.000230239,0.000224108,0.00013399,0.000260679,-0.00026681,1.30435,0.000304553,0.0165459,1959,939,4.15727,-0.679608
742,85,4.1626,0.677917,0.000121702,0.000367951,-0.000241956,0.000516308,-2.6655e-05,-1.02076,0.000353425,0.014822,1966,939,4.16265,-0.677928
749,85,4.13086,0.715576,-3.33496e-05,0.00132668,-0.000151273,0.0013433,-4.99721e-05,-1.46135,0.000912649,0.0128331,1973,939,4.13082,-0.715587
756,85,4.11475,0.745911,-0.000121657,0.00215565,-2.40096e-05,0.0021559,-0.00012191,-1.56025,0.00147958,0.0123115,1980,939,4.11469,-0.745928
763,85,4.13403,0.777893,-0.000637436,0.00340828,0.000177852,0.00341608,-0.000645239,1.52695,0.00252015,0.0127203,1987,939,4.13398,-0.777887
770,85,4.14709,0.794373,-0.00158915,0.00511461,0.000314182,0.0051293,-0.00160384,1.52407,0.00406112,0.0182587,1994,939,4.14707,-0.794358
777,85,4.05627,0.792725,-0.00326714,0.00745497,0.000488133,0.00747715,-0.00328931,1.5254,0.00637084,0.038758,2001,939,4.0563,-0.79271
784,85,3.95691,1.06171,-0.00597169,0.010624,0.000788754,0.0106614,-0.00600909,1.52341,0.00974887,0.0473857,2008,939,3.9569,-1.06173
791,85,3.99939,1.18164,0,0,0,0,0,0,0,-1,2015,939,3.99935,-1.18166
798,85,2.39856,0.0425415,-0.0162816,0.0203554,0.00221143,0.0204884,-0.0164146,1.51073,0.0213492,0.0438048,2022,939,2.39852,-0.0425386
805,85,1.95044,0.978394,0,0,0,0,0,0,0,-1,2029,939,1.95048,-0.978414
812,85,0,0,0,0,0,0,0,0,0,-1,2036,939,0,0
-700,78,0,0,0,0,0,0,0,0,0,-1,524,946,0,0
-693,78,0,0,0,0,0,0,0,0,0,-1,531,946,0,0
-686,78,2.11066,-2.13208,0,0,0,0,0,0,0,-1,538,946,2.11068,2.1321
-679,78,2.37799,-2.10876,0,0,0,0,0,0,0,-1,545,946,2.37799,2.10877
-672,78,1.80072,0.856628,0,0,0,0,0,0,0,-1,552,946,1.80074,-0.856631
-665,78,1.25287,0.744019,-0.0184019,0.0174906,0.00420662,0.017977,-0.0188883,1.45567,0.0212864,0.0466257,559,946,1.25287,-0.743993
-658,78,0.746704,0.54895,-0.0201428,0.0113675,0.00696202,0.0128372,-0.0216125,1.36275,0.0201035,0.04332,566,946,0.746733,-0.548972
-651,78,-0.00537109,0.823608,-0.0196884,0.00699227,0.00825521,0.00933993,-0.0220361,1.29373,0.0186027,0.041134,573,946,-0.00539758,-0.823601
-644,78,-0.587097,0.864502,-0.0178094,0.00399456,0.00845117,0.00688661,-0.0207014,1.24108,0.0165803,0.0253815,580,946,-0.587071,-0.86449
-637,78,-0.626099,0.8349,-0.015274,0.001772,0.00795359,0.00490666,-0.0184087,1.19537,0.0141936,0.0128546,587,946,-0.626114,-0.83488
-630,78,-0.635864,0.807861,-0.0129425,0.000274955,0.00712121,0.00338151,-0.0160491,1.15944,0.0119866,0.0126935,594,946,-0.635861,-0.807839
-623,78,-0.650146,0.777832,-0.0108086,-0.000513001,0.00629581,0.00247166,-0.0137933,1.12811,0.0101205,0.0120039,601,946,-0.650156,-0.777821
-616,78,-0.669861,0.766479,-0.00838428,-0.000869733,0.00529068,0.00186209,-0.0111161,1.09416,0.00810307,0.0102377,608,946,-0.669881,-0.766465
-609,78,-0.667114,0.753235,-0.00577474,-0.00100967,0.00400689,0.00126951,-0.00805392,1.05362,0.00583864,0.0114313,615,946,-0.66713,-0.75321
-602,78,-0.653076,0.735229,-0.00383718,-0.000398497,0.00278686,0.00115672,-0.0053924,1.06179,0.00403614,0.0151307,622,946,-0.653082,-0.735203
-595,78,-0.625488,0.726501,-0.00260709,5.86452e-05,0.0016026,0.000810209,-0.00335865,1.13228,0.0025524,0.0144139,629,946,-0.625491,-0.726473
-588,78,-0.642151,0.732483,-0.00229438,0.000131811,0.00106838,0.000535204,-0.00269777,1.20977,0.00200092,0.0123919,636,946,-0.642149,-0.732489
-581,78,-0.671875,0.721436,-0.0023421,0.000204876,0.000925688,0.000505767,-0.00264299,1.25652,0.00195254,0.0136051,643,946,-0.671862,-0.721431
-574,78,-0.743591,0.746826,-0.00226612,0.000292654,0.000750805,0.000496688,-0.00247016,1.30545,0.00183488,0.018469,650,946,-0.743602,-0.746814
-567,78,-0.820313,0.774902,-0.00217666,0.000427918,0.000560412,0.00054338,-0.00229213,1.36761,0.00173776,0.0280198,657,946,-0.820331,-0.774922
-560,78,-0.820984,0.851685,-0.00183217,0.000539517,0.000299359,0.000576719,-0.00186937,1.44716,0.00147652,0.030196,664,946,-0.821012,-0.851694
-553,78,-0.87738,0.816406,-0.00128232,0.000687875,-0.000108214,0.000693801,-0.00128825,-1.51609,0.00116137,0.0365884,671,946,-0.877404,-0.816402
-546,78,-0.864441,0.743652,-0.000434184,0.000862408,-0.000687089,0.00115877,-0.000730545,-1.16358,0.0011001,0.0396533,678,946,-0.864418,-0.743677
-539,78,-0.826111,1.07831,0.000751956,0.00107036,-0.0014563,0.00237613,-0.000553816,-0.839841,0.00179736,0.0396625,685,946,-0.826116,-1.07832
-532,78,-0.778687,1.16638,0.00225978,0.00132615,-0.00243123,0.0042686,-0.000682679,-0.690549,0.00309846,0.040748,692,946,-0.778674,-1.16636
-525,78,-0.686584,0.935852,0.00403482,0.00165005,-0.00361994,0.0066537,-0.00096883,-0.626298,0.0047915,0.0415827,699,946,-0.68658,-0.935841
-518,78,-0.753967,0.760071,0.00592277,0.00203487,-0.00494742,0.00929445,-0.0013368,-0.598203,0.00668659,0.0421859,706,946,-0.753991,-0.760057
-511,78,0,0,0,0,0,0,0,0,0,-1,713,946,0,0
-504,78,0,0,0,0,0,0,0,0,0,-1,720,946,0,0
-497,78,0,0,0,0,0,0,0,0,0,-1,727,946,0,0
-490,78,0,0,0,0,0,0,0,0,0,-1,734,946,0,0
-483,78,0,0,0,0,0,0,0,0,0,-1,741,946,0,0
-476,78,0,0,0,0,0,0,0,0,0,-1,748,946,0,0
-469,78,0,0,0,0,0,0,0,0,0,-1,755,946,0,0
-462,78,0,0,0,0,0,0,0,0,0,-1,762,946,0,0
-455,78,0,0,0,0,0,0,0,0,0,-1,769,946,0,0
-448,78,0,0,0,0,0,0,0,0,0,-1,776,946,0,0
-441,78,0,0,0,0,0,0,0,0,0,-1,783,946,0,0
-434,78,0,0,0,0,0,0,0,0,0,-1,790,946,0,0
-427,78,0,0,0,0,0,0,0,0,0,-1,797,946,0,0
-420,78,0,0,0,0,0,0,0,0,0,-1,804,946,0,0
-413,78,0,0,0,0,0,0,0,0,0,-1,811,946,0,0
-406,78,0,0,0,0,0,0,0,0,0,-1,818,946,0,0
-399,78,0,0,0,0,0,0,0,0,0,-1,825,946,0,0
-392,78,0,0,0,0,0,0,0,0,0,-1,832,946,0,0
-385,78,0,0,0,0,0,0,0,0,0,-1,839,946,0,0
-378,78,0,0,0,0,0,0,0,0,0,-1,846,946,0,0
-371,78,0,0,0,0,0,0,0,0,0,-1,853,946,0,0
-364,78,0,0,0,0,0,0,0,0,0,-1,860,946,0,0
-357,78,0,0,0,0,0,0,0,0,0,-1,867,946,0,0
-350,78,0,0,0,0,0,0,0,0,0,-1,874,946,0,0
-343,78,0,0,0,0,0,0,0,0,0,-1,881,946,0,0
-336,78,0,0,0,0,0,0,0,0,0,-1,888,946,0,0
-329,78,0,0,0,0,0,0,0,0,0,-1,895,946,0,0
-322,78,0,0,0,0,0,0,0,0,0,-1,902,946,0,0
-315,78,0,0,0,0,0,0,0,0,0,-1,909,946,0,0
-308,78,0,0,0,0,0,0,0,0,0,-1,916,946,0,0
-301,78,0,0,0,0,0,0,0,0,0,-1,923,946,0,0
-294,78,0,0,0,0,0,0,0,0,0,-1,930,946,0,0
-287,78,0,0,0,0,0,0,0,0,0,-1,937,946,0,0
-280,78,0,0,0,0,0,0,0,0,0,-1,944,946,0,0
-273,78,0,0,0,0,0,0,0,0,0,-1,951,946,0,0
-266,78,0,0,0,0,0,0,0,0,0,-1,958,946,0,0
-259,78,0,0,0,0,0,0,0,0,0,-1,965,946,0,0
-252,78,0,0,0,0,0,0,0,0,0,-1,972,946,0,0
-245,78,0,0,0,0,0,0,0,0,0,-1,979,946,0,0
-238,78,0,0,0,0,0,0,0,0,0,-1,986,946,0,0
-231,78,0,0,0,0,0,0,0,0,0,-1,993,946,0,0
-224,78,0,0,0,0,0,0,0,0,0,-1,1000,946,0,0
-217,78,0,0,0,0,0,0,0,0,0,-1,1007,946,0,0
-210,78,0,0,0,0,0,0,0,0,0,-1,1014,946,0,0
-203,78,0,0,0,0,0,0,0,0,0,-1,1021,946,0,0
-196,78,0,0,0,0,0,0,0,0,0,-1,1028,946,0,0
-189,78,0,0,0,0,0,0,0,0,0,-1,1035,946,0,0
-182,78,0,0,0,0,0,0,0,0,0,-1,1042,946,0,0
-175,78,0,0,0,0,0,0,0,0,0,-1,1049,946,0,0
-168,78,0,0,0,0,0,0,0,0,0,-1,1056,946,0,0
-161,78,0,0,0,0,0,0,0,0,0,-1,1063,946,0,0
-154,78,0,0,0,0,0,0,0,0,0,-1,1070,946,0,0
-147,78,0,0,0,0,0,0,0,0,0,-1,1077,946,0,0
-140,78,0,0,0,0,0,0,0,0,0,-1,1084,946,0,0
-133,78,0,0,0,0,0,0,0,0,0,-1,1091,946,0,0
-126,78,0,0,0,0,0,0,0,0,0,-1,1098,946,0,0
-119,78,0,0,0,0,0,0,0,0,0,-1,1105,946,0,0
-112,78,0,0,0,0,0,0,0,0,0,-1,1112,946,0,0
-105,78,0,0,0,0,0,0,0,0,0,-1,1119,946,0,0
-98,78,0,0,0,0,0,0,0,0,0,-1,1126,946,0,0
-91,78,0,0,0,0,0,0,0,0,0,-1,1133,946,0,0
-84,78,0,0,0,0,0,0,0,0,0,-1,1140,946,0,0
-77,78,0,0,0,0,0,0,0,0,0,-1,1147,946,0,0
-70,78,0,0,0,0,0,0,0,0,0,-1,1154,946,0,0
-63,78,0,0,0,0,0,0,0,0,0,-1,1161,946,0,0
-56,78,0,0,0,0,0,0,0,0,0,-1,1168,946,0,0
-49,78,0,0,0,0,0,0,0,0,0,-1,1175,946,0,0
-42,78,0,0,0,0,0,0,0,0,0,-1,1182,946,0,0
-35,78,0,0,0,0,0,0,0,0,0,-1,1189,946,0,0
-28,78,0,0,0,0,0,0,0,0,0,-1,1196,946,0,0
-21,78,0,0,0,0,0,0,0,0,0,-1,1203,946,0,0
-14,78,0,0,0,0,0,0,0,0,0,-1,1210,946,0,0
-7,78,0,0,0,0,0,0,0,0,0,-1,1217,946,0,0
0,78,0,0,0,0,0,0,0,0,0,-1,1224,946,0,0
7,78,0,0,0,0,0,0,0,0,0,-1,1231,946,0,0
14,78,0,0,0,0,0,0,0,0,0,-1,1238,946,0,0
21,78,0,0,0,0,0,0,0,0,0,-1,1245,946,0,0
28,78,0,0,0,0,0,0,0,0,0,-1,1252,946,0,0
35,78,0,0,0,0,0,0,0,0,0,-1,1259,946,0,0
42,78,0,0,0,0,0,0,0,0,0,-1,1266,946,0,0
49,78,0,0,0,0,0,0,0,0,0,-1,1273,946,0,0
56,78,0,0,0,0,0,0,0,0,0,-1,1280,946,0,0
63,78,0,0,0,0,0,0,0,0,0,-1,1287,946,0,0
70,78,0,0,0,0,0,0,0,0,0,-1,1294,946,0,0
77,78,0,0,0,0,0,0,0,0,0,-1,1301,946,0,0
84,78,0,0,0,0,0,0,0,0,0,-1,1308,946,0,0
91,78,0,0,0,0,0,0,0,0,0,-1,1315,946,0,0
98,78,0,0,0,0,0,0,0,0,0,-1,1322,946,0,0
105,78,0,0,0,0,0,0,0,0,0,-1,1329,946,0,0
112,78,0,0,0,0,0,0,0,0,0,-1,1336,946,0,0
119,78,0,0,0,0,0,0,0,0,0,-1,1343,946,0,0
126,78,0,0,0,0,0,0,0,0,0,-1,1350,946,0,0
133,78,0,0,0,0,0,0,0,0,0,-1,1357,946,0,0
140,78,0,0,0,0,0,0,0,0,0,-1,1364,946,0,0
147,78,0,0,0,0,0,0,0,0,0,-1,1371,946,0,0
154,78,0,0,0,0,0,0,0,0,0,-1,1378,946,0,0
161,78,0,0,0,0,0,0,0,0,0,-1,1385,946,0,0
168,78,0,0,0,0,0,0,0,0,0,-1,1392,946,0,0
175,78,0,0,0,0,0,0,0,0,0,-1,1399,946,0,0
182,78,0,0,0,0,0,0,0,0,0,-1,1406,946,0,0
189,78,0,0,0,0,0,0,0,0,0,-1,1413,946,0,0
196,78,0,0,0,0,0,0,0,0,0,-1,1420,946,0,0
203,78,0,0,0,0,0,0,0,0,0,-1,1427,946,0,0
210,78,0,0,0,0,0,0,0,0,0,-1,1434,946,0,0
217,78,0,0,0,0,0,0,0,0,0,-1,1441,946,0,0
224,78,0,0,0,0,0,0,0,0,0,-1,1448,946,0,0
231,78,0,0,0,0,0,0,0,0,0,-1,1455,946,0,0
238,78,0,0,0,0,0,0,0,0,0,-1,1462,946,0,0
245,78,0,0,0,0,0,0,0,0,0,-1,1469,946,0,0
252,78,0,0,0,0,0,0,0,0,0,-1,1476,946,0,0
259,78,0,0,0,0,0,0,0,0,0,-1,1483,946,0,0
266,78,0,0,0,0,0,0,0,0,0,-1,1490,946,0,0
273,78,0,0,0,0,0,0,0,0,0,-1,1497,946,0,0
280,78,0,0,0,0,0,0,0,0,0,-1,1504,946,0,0
287,78,0,0,0,0,0,0,0,0,0,-1,1511,946,0,0
294,78,0,0,0,0,0,0,0,0,0,-1,1518,946,0,0
301,78,0,0,0,0,0,0,0,0,0,-1,1525,946,0,0
308,78,0,0,0,0,0,0,0,0,0,-1,1532,946,0,0
315,78,0,0,0,0,0,0,0,0,0,-1,1539,946,0,0
322,78,0,0,0,0,0,0,0,0,0,-1,1546,946,0,0
329,78,0,0,0,0,0,0,0,0,0,-1,1553,946,0,0
336,78,0,0,0,0,0,0,0,0,0,-1,1560,946,0,0
343,78,0,0,0,0,0,0,0,0,0,-1,1567,946,0,0
350,78,0,0,0,0,0,0,0,0,0,-1,1574,946,0,0
357,78,0,0,0,0,0,0,0,0,0,-1,1581,946,0,0
364,78,0,0,0,0,0,0,0,0,0,-1,1588,946,0,0
371,78,0,0,0,0,0,0,0,0,0,-1,1595,946,0,0
378,78,0,0,0,0,0,0,0,0,0,-1,1602,946,0,0
385,78,0,0,0,0,0,0,0,0,0,-1,1609,946,0,0
392,78,0,0,0,0,0,0,0,0,0,-1,1616,946,0,0
399,78,0,0,0,0,0,0,0,0,0,-1,1623,946,0,0
406,78,0,0,0,0,0,0,0,0,0,-1,1630,946,0,0
413,78,0,0,0,0,0,0,0,0,0,-1,1637,946,0,0
420,78,0,0,0,0,0,0,0,0,0,-1,1644,946,0,0
427,78,0,0,0,0,0,0,0,0,0,-1,1651,946,0,0
434,78,0,0,0,0,0,0,0,0,0,-1,1658,946,0,0
441,78,0,0,0,0,0,0,0,0,0,-1,1665,946,0,0
448,78,0,0,0,0,0,0,0,0,0,-1,1672,946,0,0
455,78,0,0,0,0,0,0,0,0,0,-1,1679,946,0,0
462,78,0,0,0,0,0,0,0,0,0,-1,1686,946,0,0
469,78,0,0,0,0,0,0,0,0,0,-1,1693,946,0,0
476,78,0,0,0,0,0,0,0,0,0,-1,1700,946,0,0
483,78,0,0,0,0,0,0,0,0,0,-1,1707,946,0,0
490,78,0,0,0,0,0,0,0,0,0,-1,1714,946,0,0
497,78,0,0,0,0,0,0,0,0,0,-1,1721,946,0,0
504,78,0,0,0,0,0,0,0,0,0,-1,1728,946,0,0
511,78,0,0,0,0,0,0,0,0,0,-1,1735,946,0,0
518,78,0,0,0,0,0,0,0,0,0,-1,1742,946,0,0
525,78,0,0,0,0,0,0,0,0,0,-1,1749,946,0,0
532,78,0,0,0,0,0,0,0,0,0,-1,1756,946,0,0
539,78,0,0,0,0,0,0,0,0,0,-1,1763,946,0,0
546,78,0,0,0,0,0,0,0,0,0,-1,1770,946,0,0
553,78,0,0,0,0,0,0,0,0,0,-1,1777,946,0,0
560,78,0,0,0,0,0,0,0,0,0,-1,1784,946,0,0
567,78,0,0,0,0,0,0,0,0,0,-1,1791,946,0,0
574,78,0,0,0,0,0,0,0,0,0,-1,1798,946,0,0
581,78,0,0,0,0,0,0,0,0,0,-1,1805,946,0,0
588,78,0,0,0,0,0,0,0,0,0,-1,1812,946,0,0
595,78,0,0,0,0,0,0,0,0,0,-1,1819,946,0,0
602,78,0,0,0,0,0,0,0,0,0,-1,1826,946,0,0
609,78,0,0,0,0,0,0,0,0,0,-1,1833,946,0,0
616,78,0,0,0,0,0,0,0,0,0,-1,1840,946,0,0
623,78,0,0,0,0,0,0,0,0,0,-1,1847,946,0,0
630,78,0,0,0,0,0,0,0,0,0,-1,1854,946,0,0
637,78,4.35852,0.711365,-0.00419181,0.000698984,0.00145035,0.00109674,-0.00458956,1.30313,0.00348332,0.0447804,1861,946,4.35854,-0.711392
644,78,4.14209,0.649963,-0.00325949,0.00111341,0.000985025,0.00132505,-0.00347113,1.35916,0.00285999,0.043577,1868,946,4.14211,-0.649961
651,78,4.17969,0.437195,-0.00254284,0.00142825,0.000749883,0.00156514,-0.00267972,1.39024,0.00247877,0.0416762,1875,946,4.1797,-0.43722
658,78,4.19348,0.565674,-0.00212137,0.0016065,0.000572792,0.00169252,-0.0022074,1.42172,0.00225815,0.040203,1882,946,4.19348,-0.56567
665,78,4.26416,0.554382,-0.00189387,0.00162438,0.000409522,0.00167142,-0.0019409,1.45643,0.00208751,0.0407304,1889,946,4.26421,-0.55438
672,78,4.36316,0.485352,-0.00178694,0.0015463,0.000303606,0.00157373,-0.00181437,1.4807,0.00195776,0.0412217,1896,946,4.36311,-0.48538
679,78,4.28259,0.530334,-0.00173699,0.001401,0.000247241,0.00142036,-0.00175635,1.49265,0.00183749,0.0412203,1903,946,4.28254,-0.530326
686,78,4.22937,0.572815,-0.00177094,0.00125384,0.000181464,0.00126469,-0.00178178,1.51109,0.00176731,0.0373183,1910,946,4.22934,-0.572791
693,78,4.21899,0.673828,-0.00160688,0.000992863,0.000170247,0.00100396,-0.00161798,1.50568,0.00152755,0.0305527,1917,946,4.21897,-0.673831
700,78,4.20374,0.703796,-0.00145056,0.000772105,6.90546e-05,0.000774248,-0.0014527,1.53977,0.00130547,0.0244251,1924,946,4.20375,-0.70378
707,78,4.203,0.683838,-0.00142275,0.000604734,-3.69601e-05,0.000605407,-0.00142343,-1.55257,0.00120267,0.0288521,1931,946,4.20298,-0.683827
714,78,4.1521,0.615173,-0.00132439,0.000413025,-9.17576e-05,0.000417857,-0.00132922,-1.51818,0.00105343,0.0208228,1938,946,4.15212,-0.615195
721,78,4.14673,0.646729,-0.00114754,0.000242909,-4.80575e-05,0.000244568,-0.0011492,-1.53629,0.000859336,0.0180199,1945,946,4.14673,-0.64674
728,78,4.18335,0.729431,-0.000858096,0.000119741,-7.17574e-05,0.000124979,-0.000863334,-1.49793,0.000621419,0.020446,1952,946,4.18338,-0.729449
735,78,4.17773,0.707031,-0.000389557,0.00027397,0.000106393,0.000290613,-0.000406199,1.41563,0.000404145,0.0149882,1959,946,4.1777,-0.70705
742,78,4.16943,0.705078,-0.00010896,0.000490748,-0.000495756,0.000770279,-0.000388491,-1.05738,0.000681012,0.0136911,1966,946,4.16946,-0.705087
749,78,4.14783,0.729675,-0.000323109,0.00142487,-0.00065822,0.001645,-0.000543245,-1.24805,0.00131568,0.0121738,1973,946,4.14785,-0.729647
756,78,4.15564,0.738098,-0.000597277,0.00223737,-0.000821352,0.00245816,-0.00081807,-1.30819,0.00196895,0.0127325,1980,946,4.1556,-0.738101
763,78,4.14783,0.755859,-0.00139848,0.00346431,-0.000931055,0.00363647,-0.00157065,-1.38794,0.00308419,0.0125998,1987,946,4.14782,-0.755884
770,78,4.15454,0.757263,-0.00260934,0.00509936,-0.00120348,0.00528288,-0.00279285,-1.41947,0.00473583,0.0167852,1994,946,4.1545,-0.75727
777,78,4.02905,0.600342,-0.00464784,0.00727205,-0.00149682,0.00745714,-0.00483292,-1.44777,0.00714938,0.0371278,2001,946,4.02903,-0.600348
784,78,3.55859,0.325256,-0.00785563,0.010126,-0.00167098,0.01028,-0.00800959,-1.47892,0.0105866,0.0452274,2008,946,3.55855,-0.325281
791,78,3.07825,0.242676,-0.0126527,0.0137871,-0.00157824,0.013881,-0.0127466,-1.51139,0.0153781,0.0439535,2015,946,3.07829,-0.242698
798,78,1.76965,-0.392761,0,0,0,0,0,0,0,-1,2022,946,1.76963,0.392788
805,78,1.41101,0.382813,0,0,0,0,0,0,0,-1,2029,946,1.41097,-0.382813
812,78,0,0,0,0,0,0,0,0,0,-1,2036,946,0,0
-700,71,0,0,0,0,0,0,0,0,0,-1,524,953,0,0
-693,71,0,0,0,0,0,0,0,0,0,-1,531,953,0,0
-686,71,2.49823,-2.38525,0,0,0,0,0,0,0,-1,538,953,2.49825,2.38525
-679,71,2.87622,-2.38354,0,0,0,0,0,0,0,-1,545,953,2.87623,2.38353
-672,71,2.0174,0.805359,0,0,0,0,0,0,0,-1,552,953,2.01737,-0.805373
-665,71,1.47864,0.653076,-0.0200041,0.0172544,0.00495586,0.0179024,-0.0206521,1.44079,0.0222783,0.0469802,559,953,1.47866,-0.653099
-658,71,0.790588,0.734985,-0.0211691,0.0107704,0.00721544,0.0123248,-0.0227235,1.35861,0.0205299,0.046274,566,953,0.790576,-0.734956
-651,71,-0.56842,0.809082,-0.0203246,0.00625613,0.00818268,0.00857313,-0.0226417,1.29486,0.018622,0.0432693,573,953,-0.56841,-0.809076
-644,71,-0.598511,0.801758,-0.0181775,0.00327179,0.00818403,0.00603775,-0.0209434,1.24488,0.0163508,0.0305346,580,953,-0.598488,-0.801758
-637,71,-0.641479,0.838562,-0.0154998,0.000915726,0.0076374,0.00391944,-0.0185035,1.19609,0.0138286,0.0131608,587,953,-0.64145,-0.838557
-630,71,-0.650513,0.808716,-0.0130758,-0.000481484,0.00678883,0.00248107,-0.0160384,1.15932,0.011608,0.0129143,594,953,-0.650531,-0.808715
-623,71,-0.676453,0.766479,-0.0108332,-0.00104937,0.00590471,0.00172659,-0.0136092,1.13133,0.00969967,0.0123959,601,953,-0.676466,-0.766467
-616,71,-0.706909,0.761108,-0.00823047,-0.00109101,0.00483293,0.0013476,-0.0106691,1.10349,0.00760185,0.0115978,608,953,-0.706902,-0.761124
-609,71,-0.689392,0.774902,-0.00552892,-0.000994093,0.00357132,0.000968802,-0.00749182,1.06824,0.00534682,0.0133972,615,953,-0.689365,-0.774918
-602,71,-0.650269,0.755249,-0.00356347,-0.000325964,0.00245514,0.000996046,-0.00488548,1.07685,0.00363478,0.0152504,622,953,-0.65029,-0.755248
-595,71,-0.656677,0.751404,-0.0023829,0.000156227,0.00137477,0.000757971,-0.00298465,1.15821,0.00228472,0.0157638,629,953,-0.656675,-0.751388
-588,71,-0.675049,0.754211,-0.00208649,0.000264643,0.000893634,0.000565741,-0.00238759,1.24581,0.00181002,0.0157255,636,953,-0.675021,-0.75421
-581,71,-0.70459,0.760437,-0.00205985,0.000367474,0.000756199,0.000583782,-0.00227616,1.29219,0.00174489,0.0202553,643,953,-0.70456,-0.760448
-574,71,-0.791016,0.767334,-0.00188485,0.000499407,0.00057475,0.000630725,-0.00201616,1.34617,0.00159644,0.0250725,650,953,-0.791033,-0.767359
-567,71,-0.825134,0.757263,-0.00173722,0.000710697,0.000378129,0.000767775,-0.0017943,1.42098,0.00151828,0.0205263,657,953,-0.825144,-0.757244
-560,71,-0.793213,0.895325,-0.0013181,0.000909405,0.000111766,0.000914999,-0.00132369,1.52079,0.00129967,0.0270144,664,953,-0.793193,-0.895297
-553,71,-0.909546,0.982849,-0.000680061,0.00115245,-0.000292287,0.00119794,-0.000725551,-1.4164,0.00112164,0.0392215,671,953,-0.909522,-0.98283
-546,71,-0.915161,1.16663,0.00026185,0.00143104,-0.00086553,0.0018909,-0.000198014,-1.08242,0.00133152,0.0404092,678,953,-0.915164,-1.16661
-539,71,-0.785583,1.06836,0.00154727,0.00175116,-0.00163571,0.0032881,1.03317e-05,-0.81652,0.00218863,0.0391324,685,953,-0.785613,-1.06837
-532,71,-0.716003,0.979553,0.00315499,0.00212944,-0.0026334,0.00532508,-4.06492e-05,-0.689242,0.00356368,0.0426903,692,953,-0.715979,-0.97953
-525,71,-0.596313,0.666504,0.00501773,0.00258685,-0.00387876,0.00786703,-0.000262444,-0.633565,0.00533432,0.0446306,699,953,-0.596286,-0.666502
-518,71,0,0,0,0,0,0,0,0,0,-1,706,953,0,0
-511,71,0,0,0,0,0,0,0,0,0,-1,713,953,0,0
-504,71,0,0,0,0,0,0,0,0,0,-1,720,953,0,0
-497,71,0,0,0,0,0,0,0,0,0,-1,727,953,0,0
-490,71,0,0,0,0,0,0,0,0,0,-1,734,953,0,0
-483,71,0,0,0,0,0,0,0,0,0,-1,741,953,0,0
-476,71,0,0,0,0,0,0,0,0,0,-1,748,953,0,0
-469,71,0,0,0,0,0,0,0,0,0,-1,755,953,0,0
-462,71,0,0,0,0,0,0,0,0,0,-1,762,953,0,0
-455,71,0,0,0,0,0,0,0,0,0,-1,769,953,0,0
-448,71,0,0,0,0,0,0,0,0,0,-1,776,953,0,0
-441,71,0,0,0,0,0,0,0,0,0,-1,783,953,0,0
-434,71,0,0,0,0,0,0,0,0,0,-1,790,953,0,0
-427,71,0,0,0,0,0,0,0,0,0,-1,797,953,0,0
-420,71,0,0,0,0,0,0,0,0,0,-1,804,953,0,0
-413,71,0,0,0,0,0,0,0,0,0,-1,811,953,0,0
-406,71,0,0,0,0,0,0,0,0,0,-1,818,953,0,0
-399,71,0,0,0,0,0,0,0,0,0,-1,825,953,0,0
-392,71,0,0,0,0,0,0,0,0,0,-1,832,953,0,0
-385,71,0,0,0,0,0,0,0,0,0,-1,839,953,0,0
-378,71,0,0,0,0,0,0,0,0,0,-1,846,953,0,0
-371,71,0,0,0,0,0,0,0,0,0,-1,853,953,0,0
-364,71,0,0,0,0,0,0,0,0,0,-1,860,953,0,0
-357,71,0,0,0,0,0,0,0,0,0,-1,867,953,0,0
-350,71,0,0,0,0,0,0,0,0,0,-1,874,953,0,0
-343,71,0,0,0,0,0,0,0,0,0,-1,881,953,0,0
-336,71,0,0,0,0,0,0,0,0,0,-1,888,953,0,0
-329,71,0,0,0,0,0,0,0,0,0,-1,895,953,0,0
-322,71,0,0,0,0,0,0,0,0,0,-1,902,953,0,0
-315,71,0,0,0,0,0,0,0,0,0,-1,909,953,0,0
-308,71,0,0,0,0,0,0,0,0,0,-1,916,953,0,0
-301,71,0,0,0,0,0,0,0,0,0,-1,923,953,0,0
-294,71,0,0,0,0,0,0,0,0,0,-1,930,953,0,0
-287,71,0,0,0,0,0,0,0,0,0,-1,937,953,0,0
-280,71,0,0,0,0,0,0,0,0,0,-1,944,953,0,0
-273,71,0,0,0,0,0,0,0,0,0,-1,951,953,0,0
-266,71,0,0,0,0,0,0,0,0,0,-1,958,953,0,0
-259,71,0,0,0,0,0,0,0,0,0,-1,965,953,0,0
-252,71,0,0,0,0,0,0,0,0,0,-1,972,953,0,0
-245,71,0,0,0,0,0,0,0,0,0,-1,979,953,0,0
-238,71,0,0,0,0,0,0,0,0,0,-1,986,953,0,0
-231,71,0,0,0,0,0,0,0,0,0,-1,993,953,0,0
-224,71,0,0,0,0,0,0,0,0,0,-1,1000,953,0,0
-217,71,0,0,0,0,0,0,0,0,0,-1,1007,953,0,0
-210,71,0,0,0,0,0,0,0,0,0,-1,1014,953,0,0
-203,71,0,0,0,0,0,0,0,0,0,-1,1021,953,0,0
-196,71,0,0,0,0,0,0,0,0,0,-1,1028,953,0,0
-189,71,0,0,0,0,0,0,0,0,0,-1,1035,953,0,0
-182,71,0,0,0,0,0,0,0,0,0,-1,1042,953,0,0
-175,71,0,0,0,0,0,0,0,0,0,-1,1049,953,0,0
-168,71,0,0,0,0,0,0,0,0,0,-1,1056,953,0,0
-161,71,0,0,0,0,0,0,0,0,0,-1,1063,953,0,0
-154,71,0,0,0,0,0,0,0,0,0,-1,1070,953,0,0
-147,71,0,0,0,0,0,0,0,0,0,-1,1077,953,0,0
-140,71,0,0,0,0,0,0,0,0,0,-1,1084,953,0,0
-133,71,0,0,0,0,0,0,0,0,0,-1,1091,953,0,0
-126,71,0,0,0,0,0,0,0,0,0,-1,1098,953,0,0
-119,71,0,0,0,0,0,0,0,0,0,-1,1105,953,0,0
-112,71,0,0,0,0,0,0,0,0,0,-1,1112,953,0,0
-105,71,0,0,0,0,0,0,0,0,0,-1,1119,953,0,0
-98,71,0,0,0,0,0,0,0,0,0,-1,1126,953,0,0
-91,71,0,0,0,0,0,0,0,0,0,-1,1133,953,0,0
-84,71,0,0,0,0,0,0,0,0,0,-1,1140,953,0,0
-77,71,0,0,0,0,0,0,0,0,0,-1,1147,953,0,0
-70,71,0,0,0,0,0,0,0,0,0,-1,1154,953,0,0
-63,71,0,0,0,0,0,0,0,0,0,-1,1161,953,0,0
-56,71,0,0,0,0,0,0,0,0,0,-1,1168,953,0,0
-49,71,0,0,0,0,0,0,0,0,0,-1,1175,953,0,0
-42,71,0,0,0,0,0,0,0,0,0,-1,1182,953,0,0
-35,71,0,0,0,0,0,0,0,0,0,-1,1189,953,0,0
-28,71,0,0,0,0,0,0,0,0,0,-1,1196,953,0,0
-21,71,0,0,0,0,0,0,0,0,0,-1,1203,953,0,0
-14,71,0,0,0,0,0,0,0,0,0,-1,1210,953,0,0
-7,71,0,0,0,0,0,0,0,0,0,-1,1217,953,0,0
0,71,0,0,0,0,0,0,0,0,0,-1,1224,953,0,0
7,71,0,0,0,0,0,0,0,0,0,-1,1231,953,0,0
14,71,0,0,0,0,0,0,0,0,0,-1,1238,953,0,0
21,71,0,0,0,0,0,0,0,0,0,-1,1245,953,0,0
28,71,0,0,0,0,0,0,0,0,0,-1,1252,953,0,0
35,71,0,0,0,0,0,0,0,0,0,-1,1259,953,0,0
42,71,0,0,0,0,0,0,0,0,0,-1,1266,953,0,0
49,71,0,0,0,0,0,0,0,0,0,-1,1273,953,0,0
56,71,0,0,0,0,0,0,0,0,0,-1,1280,953,0,0
63,71,0,0,0,0,0,0,0,0,0,-1,1287,953,0,0
70,71,0,0,0,0,0,0,0,0,0,-1,1294,953,0,0
77,71,0,0,0,0,0,0,0,0,0,-1,1301,953,0,0
84,71,0,0,0,0,0,0,0,0,0,-1,1308,953,0,0
91,71,0,0,0,0,0,0,0,0,0,-1,1315,953,0,0
98,71,0,0,0,0,0,0,0,0,0,-1,1322,953,0,0
105,71,0,0,0,0,0,0,0,0,0,-1,1329,953,0,0
112,71,0,0,0,0,0,0,0,0,0,-1,1336,953,0,0
119,71,0,0,0,0,0,0,0,0,0,-1,1343,953,0,0
126,71,0,0,0,0,0,0,0,0,0,-1,1350,953,0,0
133,71,0,0,0,0,0,0,0,0,0,-1,1357,953,0,0
140,71,0,0,0,0,0,0,0,0,0,-1,1364,953,0,0
147,71,0,0,0,0,0,0,0,0,0,-1,1371,953,0,0
154,71,0,0,0,0,0,0,0,0,0,-1,1378,953,0,0
161,71,0,0,0,0,0,0,0,0,0,-1,1385,953,0,0
168,71,0,0,0,0,0,0,0,0,0,-1,1392,953,0,0
175,71,0,0,0,0,0,0,0,0,0,-1,1399,953,0,0
182,71,0,0,0,0,0,0,0,0,0,-1,1406,953,0,0
189,71,0,0,0,0,0,0,0,0,0,-1,1413,953,0,0
196,71,0,0,0,0,0,0,0,0,0,-1,1420,953,0,0
203,71,0,0,0,0,0,0,0,0,0,-1,1427,953,0,0
210,71,0,0,0,0,0,0,0,0,0,-1,1434,953,0,0
217,71,0,0,0,0,0,0,0,0,0,-1,1441,953,0,0
224,71,0,0,0,0,0,0,0,0,0,-1,1448,953,0,0
231,71,0,0,0,0,0,0,0,0,0,-1,1455,953,0,0
238,71,0,0,0,0,0,0,0,0,0,-1,1462,953,0,0
245,71,0,0,0,0,0,0,0,0,0,-1,1469,953,0,0
252,71,0,0,0,0,0,0,0,0,0,-1,1476,953,0,0
259,71,0,0,0,0,0,0,0,0,0,-1,1483,953,0,0
266,71,0,0,0,0,0,0,0,0,0,-1,1490,953,0,0
273,71,0,0,0,0,0,0,0,0,0,-1,1497,953,0,0
280,71,0,0,0,0,0,0,0,0,0,-1,1504,953,0,0
287,71,0,0,0,0,0,0,0,0,0,-1,1511,953,0,0
294,71,0,0,0,0,0,0,0,0,0,-1,1518,953,0,0
301,71,0,0,0,0,0,0,0,0,0,-1,1525,953,0,0
308,71,0,0,0,0,0,0,0,0,0,-1,1532,953,0,0
315,71,0,0,0,0,0,0,0,0,0,-1,1539,953,0,0
322,71,0,0,0,0,0,0,0,0,0,-1,1546,953,0,0
329,71,0,0,0,0,0,0,0,0,0,-1,1553,953,0,0
336,71,0,0,0,0,0,0,0,0,0,-1,1560,953,0,0
343,71,0,0,0,0,0,0,0,0,0,-1,1567,953,0,0
350,71,0,0,0,0,0,0,0,0,0,-1,1574,953,0,0
357,71,0,0,0,0,0,0,0,0,0,-1,1581,953,0,0
364,71,0,0,0,0,0,0,0,0,0,-1,1588,953,0,0
371,71,0,0,0,0,0,0,0,0,0,-1,1595,953,0,0
378,71,0,0,0,0,0,0,0,0,0,-1,1602,953,0,0
385,71,0,0,0,0,0,0,0,0,0,-1,1609,953,0,0
392,71,0,0,0,0,0,0,0,0,0,-1,1616,953,0,0
399,71,0,0,0,0,0,0,0,0,0,-1,1623,953,0,0
406,71,0,0,0,0,0,0,0,0,0,-1,1630,953,0,0
413,71,0,0,0,0,0,0,0,0,0,-1,1637,953,0,0
420,71,0,0,0,0,0,0,0,0,0,-1,1644,953,0,0
427,71,0,0,0,0,0,0,0,0,0,-1,1651,953,0,0
434,71,0,0,0,0,0,0,0,0,0,-1,1658,953,0,0
441,71,0,0,0,0,0,0,0,0,0,-1,1665,953,0,0
448,71,0,0,0,0,0,0,0,0,0,-1,1672,953,0,0
455,71,0,0,0,0,0,0,0,0,0,-1,1679,953,0,0
462,71,0,0,0,0,0,0,0,0,0,-1,1686,953,0,0
469,71,0,0,0,0,0,0,0,0,0,-1,1693,953,0,0
476,71,0,0,0,0,0,0,0,0,0,-1,1700,953,0,0
483,71,0,0,0,0,0,0,0,0,0,-1,1707,953,0,0
490,71,0,0,0,0,0,0,0,0,0,-1,1714,953,0,0
497,71,0,0,0,0,0,0,0,0,0,-1,1721,953,0,0
504,71,0,0,0,0,0,0,0,0,0,-1,1728,953,0,0
511,71,0,0,0,0,0,0,0,0,0,-1,1735,953,0,0
518,71,0,0,0,0,0,0,0,0,0,-1,1742,953,0,0
525,71,0,0,0,0,0,0,0,0,0,-1,1749,953,0,0
532,71,0,0,0,0,0,0,0,0,0,-1,1756,953,0,0
539,71,0,0,0,0,0,0,0,0,0,-1,1763,953,0,0
546,71,0,0,0,0,0,0,0,0,0,-1,1770,953,0,0
553,71,0,0,0,0,0,0,0,0,0,-1,1777,953,0,0
560,71,0,0,0,0,0,0,0,0,0,-1,1784,953,0,0
567,71,0,0,0,0,0,0,0,0,0,-1,1791,953,0,0
574,71,0,0,0,0,0,0,0,0,0,-1,1798,953,0,0
581,71,0,0,0,0,0,0,0,0,0,-1,1805,953,0,0
588,71,0,0,0,0,0,0,0,0,0,-1,1812,953,0,0
595,71,0,0,0,0,0,0,0,0,0,-1,1819,953,0,0
602,71,0,0,0,0,0,0,0,0,0,-1,1826,953,0,0
609,71,0,0,0,0,0,0,0,0,0,-1,1833,953,0,0
616,71,0,0,0,0,0,0,0,0,0,-1,1840,953,0,0
623,71,0,0,0,0,0,0,0,0,0,-1,1847,953,0,0
630,71,0,0,0,0,0,0,0,0,0,-1,1854,953,0,0
637,71,4.33838,0.520874,-0.0054609,0.000996214,0.00179824,0.00146323,-0.00592791,1.3167,0.00451935,0.0404411,1861,953,4.33836,-0.520893
644,71,4.19592,0.595154,-0.00404434,0.00124455,0.00117846,0.00149525,-0.00429504,1.36119,0.00347085,0.0431375,1868,953,4.19596,-0.595159
651,71,4.19043,0.537903,-0.00294959,0.0014627,0.000833915,0.00161505,-0.00310193,1.3901,0.00276809,0.0409845,1875,953,4.1904,-0.537904
658,71,4.31677,0.523865,-0.00226794,0.00160233,0.000624396,0.00170057,-0.00236618,1.41474,0.0023584,0.0389026,1882,953,4.31672,-0.523843
665,71,4.32544,0.599976,-0.00186709,0.00160068,0.000462318,0.00166126,-0.00192767,1.44051,0.00207397,0.0395127,1889,953,4.32544,-0.600004
672,71,4.28809,0.497864,-0.00165345,0.00150818,0.000360783,0.00154883,-0.0016941,1.4586,0.00187293,0.0409715,1896,953,4.28813,-0.497865
679,71,4.23596,0.304504,-0.00154748,0.0013599,0.000319852,0.00139467,-0.00158225,1.46251,0.00171987,0.0401097,1903,953,4.23597,-0.304524
686,71,4.28235,0.454956,-0.001536,0.00119841,0.000282112,0.00122721,-0.0015648,1.46905,0.00161589,0.0370722,1910,953,4.28233,-0.45495
693,71,4.32678,0.523132,-0.00136296,0.000934905,0.000281477,0.000968882,-0.00139694,1.45067,0.00137334,0.0331089,1917,953,4.3268,-0.523144
700,71,4.22937,0.610962,-0.00120444,0.000738897,0.000177303,0.000754941,-0.00122049,1.48055,0.00115102,0.0330267,1924,953,4.22943,-0.61094
707,71,4.2334,0.678162,-0.00122627,0.000581369,8.50312e-05,0.00058536,-0.00123026,1.52389,0.00107006,0.0242861,1931,953,4.23343,-0.678164
714,71,4.21106,0.636719,-0.00119908,0.000388801,3.74828e-05,0.000389686,-0.00119997,1.54721,0.000956705,0.0209324,1938,953,4.21104,-0.636695
721,71,4.16199,0.649353,-0.00107967,0.000222576,7.29498e-05,0.00022665,-0.00108374,1.51501,0.000808701,0.0141658,1945,953,4.16197,-0.64936
728,71,4.14636,0.721619,-0.000852425,0.000102373,2.47917e-05,0.000103016,-0.000853068,1.54485,0.000605977,0.0173368,1952,953,4.14634,-0.721607
735,71,4.15295,0.716675,-0.000480148,0.000318962,-5.30382e-05,0.000322467,-0.000483653,-1.50481,0.000468504,0.0118548,1959,953,4.15293,-0.716666
742,71,4.17896,0.717957,-0.000248898,0.000584966,-0.000970356,0.00122417,-0.000888102,-0.988307,0.00122465,0.0125424,1966,953,4.17899,-0.717966
749,71,4.18982,0.733459,-0.000478718,0.00145031,-0.00145609,0.00223236,-0.00126076,-1.07792,0.00204259,0.0146045,1973,953,4.18983,-0.733435
756,71,4.18628,0.756042,-0.000932495,0.00218302,-0.00200535,0.00316457,-0.00191404,-1.11562,0.00296162,0.014625,1980,953,4.18628,-0.756046
763,71,4.16748,0.781006,-0.00203721,0.00326725,-0.00253725,0.00428544,-0.0030554,-1.18917,0.00425802,0.0133026,1987,953,4.16743,-0.780986
770,71,4.16785,0.759521,-0.00351485,0.0047045,-0.00334532,0.00589394,-0.00470429,-1.22918,0.00613172,0.0156038,1994,953,4.16788,-0.759535
777,71,4.08569,0.554749,-0.00593465,0.00652892,-0.0042333,0.00783079,-0.00723652,-1.27244,0.00870137,0.0366875,2001,953,4.08573,-0.554764
784,71,3.96802,0.287598,-0.00968049,0.00882354,-0.00501619,0.0100959,-0.0109528,-1.32239,0.0121558,0.0488465,2008,953,3.96807,-0.287592
791,71,3.88806,0.0562134,-0.0151935,0.0116415,-0.00547914,0.0127171,-0.0162691,-1.37695,0.016777,0.0457995,2015,953,3.88803,-0.0562225
798,71,3.84863,-0.144165,0,0,0,0,0,0,0,-1,2022,953,3.84863,0.144175
805,71,4.86633,1.27136,0,0,0,0,0,0,0,-1,2029,953,4.86629,-1.27138
812,71,0,0,0,0,0,0,0,0,0,-1,2036,953,0,0
-700,64,0,0,0,0,0,0,0,0,0,-1,524,960,0,0
-693,64,0,0,0,0,0,0,0,0,0,-1,531,960,0,0
-686,64,2.86432,-2.67102,0,0,0,0,0,0,0,-1,538,960,2.86434,2.67105
-679,64,0.404602,0.204407,0,0,0,0,0,0,0,-1,545,960,0.404582,-0.20442
-672,64,2.13202,0.562317,0,0,0,0,0,0,0,-1,552,960,2.13202,-0.562329
-665,64,1.72168,0.405396,-0.0198563,0.0176013,0.00665552,0.0187487,-0.0210037,1.40007,0.0229634,0.0477477,559,960,1.72166,-0.405369
-658,64,1.36212,0.352966,-0.0206468,0.010642,0.00813264,0.0126296,-0.0226344,1.3311,0.020631,0.0450668,566,960,1.3621,-0.352964
-651,64,0.846802,-0.046875,0,0,0,0,0,0,0,-1,573,960,0.846797,0.0469038
-644,64,-0.59436,0.655884,-0.0174764,0.00275567,0.0081852,0.00565238,-0.0203732,1.23065,0.0158068,0.0296536,580,960,-0.594361,-0.655903
-637,64,-0.65802,0.829834,-0.0148601,0.000157761,0.00743539,0.00321619,-0.0179185,1.18056,0.0131495,0.0143428,587,960,-0.658045,-0.829828
-630,64,-0.69104,0.800049,-0.0125414,-0.00125148,0.00647207,0.00169154,-0.0154844,1.14402,0.0109305,0.0125074,594,960,-0.691071,-0.80005
-623,64,-0.703247,0.769958,-0.0103704,-0.00165507,0.00549405,0.000999679,-0.0130251,1.12068,0.00903509,0.0128001,601,960,-0.703246,-0.769928
-616,64,-0.725769,0.789368,-0.00777348,-0.00139006,0.00431661,0.000786673,-0.00995021,1.10374,0.00691064,0.0153219,608,960,-0.725778,-0.789357
-609,64,-0.699951,0.781311,-0.00510774,-0.00107113,0.00306338,0.000579055,-0.00675793,1.07668,0.00471018,0.0154419,615,960,-0.69993,-0.781337
-602,64,-0.663635,0.756348,-0.00319557,-0.000338525,0.00203626,0.000720329,-0.00425442,1.09128,0.00310437,0.0170604,622,960,-0.663616,-0.75635
-595,64,-0.679993,0.754028,-0.00211366,0.00017553,0.00106866,0.00059686,-0.00253499,1.19525,0.00192012,0.0171497,629,960,-0.679994,-0.754036
-588,64,-0.698425,0.763367,-0.00186311,0.000310249,0.000640398,0.000484911,-0.00203777,1.30453,0.00154572,0.0194626,636,960,-0.698432,-0.763375
-581,64,-0.73407,0.803406,-0.00176975,0.000442335,0.000492279,0.000546941,-0.00187436,1.36142,0.00146629,0.024777,643,960,-0.734076,-0.803411
-574,64,-0.796814,0.841797,-0.00150203,0.00061402,0.000293183,0.00065389,-0.0015419,1.43564,0.00130184,0.0312323,650,960,-0.796817,-0.841775
-567,64,-0.785156,0.816223,-0.00128736,0.00088038,7.60353e-05,0.000883044,-0.00129002,1.53578,0.00126193,0.0265382,657,960,-0.785141,-0.81621
-560,64,-0.876709,0.790771,-0.000811068,0.00114766,-0.000206023,0.00116909,-0.000832503,-1.46713,0.00116105,0.0346881,664,960,-0.876711,-0.790755
-553,64,-0.945801,0.971069,-8.92325e-05,0.00146312,-0.000613308,0.00167618,-0.000302297,-1.23644,0.00123066,0.0401238,671,960,-0.94582,-0.971056
-546,64,-0.950928,1.17487,0.00094996,0.00182133,-0.00118402,0.00264728,0.000124008,-0.961695,0.00172501,0.0421612,678,960,-0.950938,-1.17487
-539,64,-1.11359,1.15454,0.00235107,0.00222581,-0.00195445,0.00424389,0.00033299,-0.769381,0.00272505,0.0397701,685,960,-1.11356,-1.15454
-532,64,-0.879333,0.932678,0.00409035,0.00269247,-0.00297022,0.00644276,0.00034006,-0.669843,0.00418643,0.0384781,692,960,-0.879337,-0.932663
-525,64,-0.707886,0.650574,0.00609564,0.00324192,-0.00426155,0.00916286,0.000174704,-0.623854,0.00605118,0.0406727,699,960,-0.707857,-0.650546
-518,64,0,0,0,0,0,0,0,0,0,-1,706,960,0,0
-511,64,0,0,0,0,0,0,0,0,0,-1,713,960,0,0
-504,64,0,0,0,0,0,0,0,0,0,-1,720,960,0,0
-497,64,0,0,0,0,0,0,0,0,0,-1,727,960,0,0
-490,64,0,0,0,0,0,0,0,0,0,-1,734,960,0,0
-483,64,0,0,0,0,0,0,0,0,0,-1,741,960,0,0
-476,64,0,0,0,0,0,0,0,0,0,-1,748,960,0,0
-469,64,0,0,0,0,0,0,0,0,0,-1,755,960,0,0
-462,64,0,0,0,0,0,0,0,0,0,-1,762,960,0,0
-455,64,0,0,0,0,0,0,0,0,0,-1,769,960,0,0
-448,64,0,0,0,0,0,0,0,0,0,-1,776,960,0,0
-441,64,0,0,0,0,0,0,0,0,0,-1,783,960,0,0
-434,64,0,0,0,0,0,0,0,0,0,-1,790,960,0,0
-427,64,0,0,0,0,0,0,0,0,0,-1,797,960,0,0
-420,64,0,0,0,0,0,0,0,0,0,-1,804,960,0,0
-413,64,0,0,0,0,0,0,0,0,0,-1,811,960,0,0
-406,64,0,0,0,0,0,0,0,0,0,-1,818,960,0,0
-399,64,0,0,0,0,0,0,0,0,0,-1,825,960,0,0
-392,64,0,0,0,0,0,0,0,0,0,-1,832,960,0,0
-385,64,0,0,0,0,0,0,0,0,0,-1,839,960,0,0
-378,64,0,0,0,0,0,0,0,0,0,-1,846,960,0,0
-371,64,0,0,0,0,0,0,0,0,0,-1,853,960,0,0
-364,64,0,0,0,0,0,0,0,0,0,-1,860,960,0,0
-357,64,0,0,0,0,0,0,0,0,0,-1,867,960,0,0
-350,64,0,0,0,0,0,0,0,0,0,-1,874,960,0,0
-343,64,0,0,0,0,0,0,0,0,0,-1,881,960,0,0
-336,64,0,0,0,0,0,0,0,0,0,-1,888,960,0,0
-329,64,0,0,0,0,0,0,0,0,0,-1,895,960,0,0
-322,64,0,0,0,0,0,0,0,0,0,-1,902,960,0,0
-315,64,0,0,0,0,0,0,0,0,0,-1,909,960,0,0
-308,64,0,0,0,0,0,0,0,0,0,-1,916,960,0,0
-301,64,0,0,0,0,0,0,0,0,0,-1,923,960,0,0
-294,64,0,0,0,0,0,0,0,0,0,-1,930,960,0,0
-287,64,0,0,0,0,0,0,0,0,0,-1,937,960,0,0
-280,64,0,0,0,0,0,0,0,0,0,-1,944,960,0,0
-273,64,0,0,0,0,0,0,0,0,0,-1,951,960,0,0
-266,64,0,0,0,0,0,0,0,0,0,-1,958,960,0,0
-259,64,0,0,0,0,0,0,0,0,0,-1,965,960,0,0
-252,64,0,0,0,0,0,0,0,0,0,-1,972,960,0,0
-245,64,0,0,0,0,0,0,0,0,0,-1,979,960,0,0
-238,64,0,0,0,0,0,0,0,0,0,-1,986,960,0,0
-231,64,0,0,0,0,0,0,0,0,0,-1,993,960,0,0
-224,64,0,0,0,0,0,0,0,0,0,-1,1000,960,0,0
-217,64,0,0,0,0,0,0,0,0,0,-1,1007,960,0,0
-210,64,0,0,0,0,0,0,0,0,0,-1,1014,960,0,0
-203,64,0,0,0,0,0,0,0,0,0,-1,1021,960,0,0
-196,64,0,0,0,0,0,0,0,0,0,-1,1028,960,0,0
-189,64,0,0,0,0,0,0,0,0,0,-1,1035,960,0,0
-182,64,0,0,0,0,0,0,0,0,0,-1,1042,960,0,0
-175,64,0,0,0,0,0,0,0,0,0,-1,1049,960,0,0
-168,64,0,0,0,0,0,0,0,0,0,-1,1056,960,0,0
-161,64,0,0,0,0,0,0,0,0,0,-1,1063,960,0,0
-154,64,0,0,0,0,0,0,0,0,0,-1,1070,960,0,0
-147,64,0,0,0,0,0,0,0,0,0,-1,1077,960,0,0
-140,64,0,0,0,0,0,0,0,0,0,-1,1084,960,0,0
-133,64,0,0,0,0,0,0,0,0,0,-1,1091,960,0,0
-126,64,0,0,0,0,0,0,0,0,0,-1,1098,960,0,0
-119,64,0,0,0,0,0,0,0,0,0,-1,1105,960,0,0
-112,64,0,0,0,0,0,0,0,0,0,-1,1112,960,0,0
-105,64,0,0,0,0,0,0,0,0,0,-1,1119,960,0,0
-98,64,0,0,0,0,0,0,0,0,0,-1,1126,960,0,0
-91,64,0,0,0,0,0,0,0,0,0,-1,1133,960,0,0
-84,64,0,0,0,0,0,0,0,0,0,-1,1140,960,0,0
-77,64,0,0,0,0,0,0,0,0,0,-1,1147,960,0,0
-70,64,0,0,0,0,0,0,0,0,0,-1,1154,960,0,0
-63,64,0,0,0,0,0,0,0,0,0,-1,1161,960,0,0
-56,64,0,0,0,0,0,0,0,0,0,-1,1168,960,0,0
-49,64,0,0,0,0,0,0,0,0,0,-1,1175,960,0,0
-42,64,0,0,0,0,0,0,0,0,0,-1,1182,960,0,0
-35,64,0,0,0,0,0,0,0,0,0,-1,1189,960,0,0
-28,64,0,0,0,0,0,0,0,0,0,-1,1196,960,0,0
-21,64,0,0,0,0,0,0,0,0,0,-1,1203,960,0,0
-14,64,0,0,0,0,0,0,0,0,0,-1,1210,960,0,0
-7,64,0,0,0,0,0,0,0,0,0,-1,1217,960,0,0
0,64,0,0,0,0,0,0,0,0,0,-1,1224,960,0,0
7,64,0,0,0,0,0,0,0,0,0,-1,1231,960,0,0
14,64,0,0,0,0,0,0,0,0,0,-1,1238,960,0,0
21,64,0,0,0,0,0,0,0,0,0,-1,1245,960,0,0
28,64,0,0,0,0,0,0,0,0,0,-1,1252,960,0,0
35,64,0,0,0,0,0,0,0,0,0,-1,1259,960,0,0
42,64,0,0,0,0,0,0,0,0,0,-1,1266,960,0,0
49,64,0,0,0,0,0,0,0,0,0,-1,1273,960,0,0
56,64,0,0,0,0,0,0,0,0,0,-1,1280,960,0,0
63,64,0,0,0,0,0,0,0,0,0,-1,1287,960,0,0
70,64,0,0,0,0,0,0,0,0,0,-1,1294,960,0,0
77,64,0,0,0,0,0,0,0,0,0,-1,1301,960,0,0
84,64,0,0,0,0,0,0,0,0,0,-1,1308,960,0,0
91,64,0,0,0,0,0,0,0,0,0,-1,1315,960,0,0
98,64,0,0,0,0,0,0,0,0,0,-1,1322,960,0,0
105,64,0,0,0,0,0,0,0,0,0,-1,1329,960,0,0
112,64,0,0,0,0,0,0,0,0,0,-1,1336,960,0,0
119,64,0,0,0,0,0,0,0,0,0,-1,1343,960,0,0
126,64,0,0,0,0,0,0,0,0,0,-1,1350,960,0,0
133,64,0,0,0,0,0,0,0,0,0,-1,1357,960,0,0
140,64,0,0,0,0,0,0,0,0,0,-1,1364,960,0,0
147,64,0,0,0,0,0,0,0,0,0,-1,1371,960,0,0
154,64,0,0,0,0,0,0,0,0,0,-1,1378,960,0,0
161,64,0,0,0,0,0,0,0,0,0,-1,1385,960,0,0
168,64,0,0,0,0,0,0,0,0,0,-1,1392,960,0,0
175,64,0,0,0,0,0,0,0,0,0,-1,1399,960,0,0
182,64,0,0,0,0,0,0,0,0,0,-1,1406,960,0,0
189,64,0,0,0,0,0,0,0,0,0,-1,1413,960,0,0
196,64,0,0,0,0,0,0,0,0,0,-1,1420,960,0,0
203,64,0,0,0,0,0,0,0,0,0,-1,1427,960,0,0
210,64,0,0,0,0,0,0,0,0,0,-1,1434,960,0,0
217,64,0,0,0,0,0,0,0,0,0,-1,1441,960,0,0
224,64,0,0,0,0,0,0,0,0,0,-1,1448,960,0,0
231,64,0,0,0,0,0,0,0,0,0,-1,1455,960,0,0
238,64,0,0,0,0,0,0,0,0,0,-1,1462,960,0,0
245,64,0,0,0,0,0,0,0,0,0,-1,1469,960,0,0
252,64,0,0,0,0,0,0,0,0,0,-1,1476,960,0,0
259,64,0,0,0,0,0,0,0,0,0,-1,1483,960,0,0
266,64,0,0,0,0,0,0,0,0,0,-1,1490,960,0,0
273,64,0,0,0,0,0,0,0,0,0,-1,1497,960,0,0
280,64,0,0,0,0,0,0,0,0,0,-1,1504,960,0,0
287,64,0,0,0,0,0,0,0,0,0,-1,1511,960,0,0
294,64,0,0,0,0,0,0,0,0,0,-1,1518,960,0,0
301,64,0,0,0,0,0,0,0,0,0,-1,1525,960,0,0
308,64,0,0,0,0,0,0,0,0,0,-1,1532,960,0,0
315,64,0,0,0,0,0,0,0,0,0,-1,1539,960,0,0
322,64,0,0,0,0,0,0,0,0,0,-1,1546,960,0,0
329,64,0,0,0,0,0,0,0,0,0,-1,1553,960,0,0
336,64,0,0,0,0,0,0,0,0,0,-1,1560,960,0,0
343,64,0,0,0,0,0,0,0,0,0,-1,1567,960,0,0
350,64,0,0,0,0,0,0,0,0,0,-1,1574,960,0,0
357,64,0,0,0,0,0,0,0,0,0,-1,1581,960,0,0
364,64,0,0,0,0,0,0,0,0,0,-1,1588,960,0,0
371,64,0,0,0,0,0,0,0,0,0,-1,1595,960,0,0
378,64,0,0,0,0,0,0,0,0,0,-1,1602,960,0,0
385,64,0,0,0,0,0,0,0,0,0,-1,1609,960,0,0
392,64,0,0,0,0,0,0,0,0,0,-1,1616,960,0,0
399,64,0,0,0,0,0,0,0,0,0,-1,1623,960,0,0
406,64,0,0,0,0,0,0,0,0,0,-1,1630,960,0,0
413,64,0,0,0,0,0,0,0,0,0,-1,1637,960,0,0
420,64,0,0,0,0,0,0,0,0,0,-1,1644,960,0,0
427,64,0,0,0,0,0,0,0,0,0,-1,1651,960,0,0
434,64,0,0,0,0,0,0,0,0,0,-1,1658,960,0,0
441,64,0,0,0,0,0,0,0,0,0,-1,1665,960,0,0
448,64,0,0,0,0,0,0,0,0,0,-1,1672,960,0,0
455,64,0,0,0,0,0,0,0,0,0,-1,1679,960,0,0
462,64,0,0,0,0,0,0,0,0,0,-1,1686,960,0,0
469,64,0,0,0,0,0,0,0,0,0,-1,1693,960,0,0
476,64,0,0,0,0,0,0,0,0,0,-1,1700,960,0,0
483,64,0,0,0,0,0,0,0,0,0,-1,1707,960,0,0
490,64,0,0,0,0,0,0,0,0,0,-1,1714,960,0,0
497,64,0,0,0,0,0,0,0,0,0,-1,1721,960,0,0
504,64,0,0,0,0,0,0,0,0,0,-1,1728,960,0,0
511,64,0,0,0,0,0,0,0,0,0,-1,1735,960,0,0
518,64,0,0,0,0,0,0,0,0,0,-1,1742,960,0,0
525,64,0,0,0,0,0,0,0,0,0,-1,1749,960,0,0
532,64,0,0,0,0,0,0,0,0,0,-1,1756,960,0,0
539,64,0,0,0,0,0,0,0,0,0,-1,1763,960,0,0
546,64,0,0,0,0,0,0,0,0,0,-1,1770,960,0,0
553,64,0,0,0,0,0,0,0,0,0,-1,1777,960,0,0
560,64,0,0,0,0,0,0,0,0,0,-1,1784,960,0,0
567,64,0,0,0,0,0,0,0,0,0,-1,1791,960,0,0
574,64,0,0,0,0,0,0,0,0,0,-1,1798,960,0,0
581,64,0,0,0,0,0,0,0,0,0,-1,1805,960,0,0
588,64,0,0,0,0,0,0,0,0,0,-1,1812,960,0,0
595,64,0,0,0,0,0,0,0,0,0,-1,1819,960,0,0
602,64,0,0,0,0,0,0,0,0,0,-1,1826,960,0,0
609,64,0,0,0,0,0,0,0,0,0,-1,1833,960,0,0
616,64,0,0,0,0,0,0,0,0,0,-1,1840,960,0,0
623,64,0,0,0,0,0,0,0,0,0,-1,1847,960,0,0
630,64,0,0,0,0,0,0,0,0,0,-1,1854,960,0,0
637,64,0,0,0,0,0,0,0,0,0,-1,1861,960,0,0
644,64,4.34277,0.551453,-0.00443721,0.00127249,0.00165891,0.00171949,-0.0048842,1.3076,0.00395589,0.0394408,1868,960,4.34276,-0.551465
651,64,4.28223,0.591003,-0.00307503,0.0013516,0.00110894,0.00161387,-0.0033373,1.33856,0.00291571,0.0375832,1875,960,4.28225,-0.591017
658,64,4.30896,0.646912,-0.00223257,0.00141244,0.000805074,0.00158234,-0.00240247,1.36281,0.00231682,0.0362563,1882,960,4.30894,-0.64691
665,64,4.06958,0.793762,0,0,0,0,0,0,0,-1,1889,960,4.06961,-0.793743
672,64,4.16772,0.523926,0,0,0,0,0,0,0,-1,1896,960,4.16772,-0.523933
679,64,4.29614,-0.0266113,0,0,0,0,0,0,0,-1,1903,960,4.29615,0.026614
686,64,4.30725,0.350403,-0.0012978,0.000959847,0.000417378,0.00103454,-0.00137249,1.39372,0.00139425,0.035592,1910,960,4.30719,-0.350382
693,64,4.33643,0.447083,-0.00114243,0.000728453,0.000417545,0.000817411,-0.00123138,1.36088,0.00119089,0.033642,1917,960,4.33646,-0.447112
700,64,4.29175,0.555664,-0.00100605,0.000575176,0.000304938,0.000631945,-0.00106282,1.38674,0.000988958,0.0306931,1924,960,4.2917,-0.555644
707,64,4.24548,0.692993,-0.00106172,0.00046077,0.000223206,0.000492819,-0.00109377,1.42819,0.000937663,0.0278217,1931,960,4.24548,-0.692988
714,64,4.2439,0.704773,-0.00107442,0.00030441,0.000176008,0.000326522,-0.00109653,1.44582,0.000860761,0.0243001,1938,960,4.24389,-0.70477
721,64,4.17542,0.656921,-0.00097014,0.00017782,0.00019141,0.000208895,-0.00100121,1.40986,0.00074691,0.0142473,1945,960,4.17546,-0.656946
728,64,4.14758,0.708069,-0.000787212,9.90807e-05,0.000106496,0.000111697,-0.000799829,1.45287,0.000574085,0.0129945,1952,960,4.14759,-0.708042
735,64,4.16125,0.729004,-0.000461245,0.000394084,-9.79182e-05,0.00040515,-0.000472312,-1.45826,0.000507097,0.0145146,1959,960,4.16127,-0.72901
742,64,4.20276,0.738708,-0.000209349,0.000609847,-0.00109769,0.00137187,-0.000971373,-0.96397,0.00135944,0.0136537,1966,960,4.2028,-0.738679
749,64,4.19861,0.723816,-0.000453562,0.00130276,-0.00169228,0.00233116,-0.00148197,-1.02473,0.00221963,0.0126895,1973,960,4.19865,-0.72382
756,64,4.19031,0.746704,-0.00108307,0.00180334,-0.00230558,0.00308016,-0.00235989,-1.06504,0.00314998,0.0136906,1980,960,4.19033,-0.746705
763,64,4.18713,0.787659,-0.00249641,0.00255752,-0.0028114,0.00381071,-0.00374959,-1.15148,0.00436499,0.0126934,1987,960,4.18717,-0.787629
770,64,4.17651,0.764526,-0.00425708,0.00354668,-0.00359406,0.00494969,-0.00566009,-1.19862,0.00613014,0.0132019,1994,960,4.17654,-0.76455
777,64,4.22974,0.817932,-0.00708512,0.00472942,-0.00436803,0.00616895,-0.00852465,-1.25244,0.00851962,0.0306064,2001,960,4.2297,-0.817926
784,64,3.98975,0.351746,0,0,0,0,0,0,0,-1,2008,960,3.9897,-0.351724
791,64,4.69446,0.968201,-0.0176363,0.00781939,-0.00496579,0.00875379,-0.0185707,-1.3848,0.0161116,0.0448084,2015,960,4.69445,-0.968174
798,64,5.00977,0.286621,-0.02642,0.00980716,-0.0041234,0.0102706,-0.0268834,-1.45888,0.0221541,0.0474101,2022,960,5.00977,-0.286649
805,64,5.43762,-0.397705,0,0,0,0,0,0,0,-1,2029,960,5.4376,0.397729
812,64,0,0,0,0,0,0,0,0,0,-1,2036,960,0,0
-700,57,0,0,0,0,0,0,0,0,0,-1,524,967,0,0
-693,57,0,0,0,0,0,0,0,0,0,-1,531,967,0,0
-686,57,0.425537,-0.295044,-0.00202684,0.0577984,-0.00300856,0.0579493,-0.00217776,-1.52068,0.0393789,0.0441008,538,967,0.425531,0.295026
-679,57,0.500488,-0.133667,-0.0107106,0.0395997,0.00240213,0.0397141,-0.0108251,1.52319,0.0307267,0.0435005,545,967,0.500504,0.133653
-672,57,0.651489,-0.0916748,0,0,0,0,0,0,0,-1,552,967,0.651519,0.0916463
-665,57,1.83563,0.289246,0,0,0,0,0,0,0,-1,559,967,1.83563,-0.28925
-658,57,1.67065,0.106018,0,0,0,0,0,0,0,-1,566,967,1.67067,-0.106003
-651,57,-0.160156,0.316895,-0.0178819,0.0045174,0.00866759,0.00747964,-0.0208442,1.24148,0.0169487,0.0409105,573,967,-0.160138,-0.316887
-644,57,-0.631836,0.691833,-0.0158508,0.00161249,0.00801272,0.00473181,-0.0189701,1.19955,0.014484,0.027878,580,967,-0.631859,-0.691826
-637,57,-0.674377,0.806702,-0.0134465,-0.000957417,0.00712299,0.0022707,-0.0166746,1.14529,0.0119455,0.0147555,587,967,-0.674387,-0.806675
-630,57,-0.703979,0.784546,-0.0113557,-0.00219081,0.00608194,0.000841788,-0.0143883,1.10825,0.00988473,0.0123621,594,967,-0.704008,-0.784522
-623,57,-0.701904,0.782654,-0.0093791,-0.00231465,0.00502624,0.000296395,-0.0119901,1.09169,0.00809404,0.0121258,601,967,-0.701911,-0.782631
-616,57,-0.69043,0.786865,-0.00700334,-0.00170194,0.00378672,0.000269633,-0.00897492,1.09076,0.00607515,0.0137811,608,967,-0.69045,-0.786869
-609,57,-0.702576,0.767456,-0.0045398,-0.00111793,0.00254343,0.000236474,-0.00589421,1.08148,0.00401063,0.0142766,615,967,-0.702546,-0.767466
-602,57,-0.68811,0.7453,-0.00277671,-0.000337395,0.00160533,0.000459041,-0.00357315,1.11026,0.00254893,0.0121748,622,967,-0.688122,-0.74529
-595,57,-0.69519,0.744141,-0.00182348,0.000190453,0.00076343,0.000447135,-0.00208016,1.24645,0.00155737,0.0122884,629,967,-0.695219,-0.744155
-588,57,-0.723511,0.750183,-0.00160335,0.000339891,0.000384544,0.00041322,-0.00167668,1.38237,0.00127799,0.0144208,636,967,-0.723526,-0.750155
-581,57,-0.768188,0.765564,-0.00143857,0.000498587,0.000209959,0.000521082,-0.00146106,1.46406,0.00118651,0.0219056,643,967,-0.768174,-0.765536
-574,57,-0.829346,0.763916,-0.00108762,0.000693128,-1.45436e-05,0.000693247,-0.00108774,-1.56263,0.00103663,0.0287217,650,967,-0.829344,-0.763927
-567,57,-0.82312,0.785706,-0.000795374,0.000989834,-0.000260804,0.00102716,-0.000832695,-1.42866,0.00107574,0.034345,657,967,-0.823119,-0.785728
-560,57,-0.88739,0.787476,-0.000240089,0.00129926,-0.000575491,0.00149062,-0.00043145,-1.24978,0.00116452,0.043205,664,967,-0.887387,-0.787504
-553,57,-0.946167,0.857727,0.00058505,0.00165839,-0.00100292,0.00225921,-1.57643e-05,-1.03107,0.00151142,0.0419029,671,967,-0.946147,-0.857753
-546,57,-0.825562,1.10944,0.00175897,0.00206564,-0.00158983,0.00350951,0.000315094,-0.833473,0.00224203,0.0428861,678,967,-0.825585,-1.10944
-539,57,-0.937561,1.01636,0.00334132,0.00252519,-0.0023813,0.00534926,0.000517242,-0.700541,0.00340687,0.0418618,685,967,-0.937544,-1.01633
-532,57,-0.999817,0.794617,0.00532013,0.00305506,-0.0034396,0.00780885,0.000566341,-0.626356,0.00502776,0.0399092,692,967,-0.999834,-0.794607
-525,57,-0.914795,0.715149,0.00765521,0.00368601,-0.00480644,0.0108707,0.000470565,-0.589608,0.00709546,0.0385007,699,967,-0.914792,-0.715163
-518,57,0,0,0,0,0,0,0,0,0,-1,706,967,0,0
-511,57,0,0,0,0,0,0,0,0,0,-1,713,967,0,0
-504,57,0,0,0,0,0,0,0,0,0,-1,720,967,0,0
-497,57,0,0,0,0,0,0,0,0,0,-1,727,967,0,0
-490,57,0,0,0,0,0,0,0,0,0,-1,734,967,0,0
-483,57,0,0,0,0,0,0,0,0,0,-1,741,967,0,0
-476,57,0,0,0,0,0,0,0,0,0,-1,748,967,0,0
-469,57,0,0,0,0,0,0,0,0,0,-1,755,967,0,0
-462,57,0,0,0,0,0,0,0,0,0,-1,762,967,0,0
-455,57,0,0,0,0,0,0,0,0,0,-1,769,967,0,0
-448,57,0,0,0,0,0,0,0,0,0,-1,776,967,0,0
-441,57,0,0,0,0,0,0,0,0,0,-1,783,967,0,0
-434,57,0,0,0,0,0,0,0,0,0,-1,790,967,0,0
-427,57,0,0,0,0,0,0,0,0,0,-1,797,967,0,0
-420,57,0,0,0,0,0,0,0,0,0,-1,804,967,0,0
-413,57,0,0,0,0,0,0,0,0,0,-1,811,967,0,0
-406,57,0,0,0,0,0,0,0,0,0,-1,818,967,0,0
-399,57,0,0,0,0,0,0,0,0,0,-1,825,967,0,0
-392,57,0,0,0,0,0,0,0,0,0,-1,832,967,0,0
-385,57,0,0,0,0,0,0,0,0,0,-1,839,967,0,0
-378,57,0,0,0,0,0,0,0,0,0,-1,846,967,0,0
-371,57,0,0,0,0,0,0,0,0,0,-1,853,967,0,0
-364,57,0,0,0,0,0,0,0,0,0,-1,860,967,0,0
-357,57,0,0,0,0,0,0,0,0,0,-1,867,967,0,0
-350,57,0,0,0,0,0,0,0,0,0,-1,874,967,0,0
-343,57,0,0,0,0,0,0,0,0,0,-1,881,967,0,0
-336,57,0,0,0,0,0,0,0,0,0,-1,888,967,0,0
-329,57,0,0,0,0,0,0,0,0,0,-1,895,967,0,0
-322,57,0,0,0,0,0,0,0,0,0,-1,902,967,0,0
-315,57,0,0,0,0,0,0,0,0,0,-1,909,967,0,0
-308,57,0,0,0,0,0,0,0,0,0,-1,916,967,0,0
-301,57,0,0,0,0,0,0,0,0,0,-1,923,967,0,0
-294,57,0,0,0,0,0,0,0,0,0,-1,930,967,0,0
-287,57,0,0,0,0,0,0,0,0,0,-1,937,967,0,0
-280,57,0,0,0,0,0,0,0,0,0,-1,944,967,0,0
-273,57,0,0,0,0,0,0,0,0,0,-1,951,967,0,0
-266,57,0,0,0,0,0,0,0,0,0,-1,958,967,0,0
-259,57,0,0,0,0,0,0,0,0,0,-1,965,967,0,0
-252,57,0,0,0,0,0,0,0,0,0,-1,972,967,0,0
-245,57,0,0,0,0,0,0,0,0,0,-1,979,967,0,0
-238,57,0,0,0,0,0,0,0,0,0,-1,986,967,0,0
-231,57,0,0,0,0,0,0,0,0,0,-1,993,967,0,0
-224,57,0,0,0,0,0,0,0,0,0,-1,1000,967,0,0
-217,57,0,0,0,0,0,0,0,0,0,-1,1007,967,0,0
-210,57,0,0,0,0,0,0,0,0,0,-1,1014,967,0,0
-203,57,0,0,0,0,0,0,0,0,0,-1,1021,967,0,0
-196,57,0,0,0,0,0,0,0,0,0,-1,1028,967,0,0
-189,57,0,0,0,0,0,0,0,0,0,-1,1035,967,0,0
-182,57,0,0,0,0,0,0,0,0,0,-1,1042,967,0,0
-175,57,0,0,0,0,0,0,0,0,0,-1,1049,967,0,0
-168,57,0,0,0,0,0,0,0,0,0,-1,1056,967,0,0
-161,57,0,0,0,0,0,0,0,0,0,-1,1063,967,0,0
-154,57,0,0,0,0,0,0,0,0,0,-1,1070,967,0,0
-147,57,0,0,0,0,0,0,0,0,0,-1,1077,967,0,0
-140,57,0,0,0,0,0,0,0,0,0,-1,1084,967,0,0
-133,57,0,0,0,0,0,0,0,0,0,-1,1091,967,0,0
-126,57,0,0,0,0,0,0,0,0,0,-1,1098,967,0,0
-119,57,0,0,0,0,0,0,0,0,0,-1,1105,967,0,0
-112,57,0,0,0,0,0,0,0,0,0,-1,1112,967,0,0
-105,57,0,0,0,0,0,0,0,0,0,-1,1119,967,0,0
-98,57,0,0,0,0,0,0,0,0,0,-1,1126,967,0,0
-91,57,0,0,0,0,0,0,0,0,0,-1,1133,967,0,0
-84,57,0,0,0,0,0,0,0,0,0,-1,1140,967,0,0
-77,57,0,0,0,0,0,0,0,0,0,-1,1147,967,0,0
-70,57,0,0,0,0,0,0,0,0,0,-1,1154,967,0,0
-63,57,0,0,0,0,0,0,0,0,0,-1,1161,967,0,0
-56,57,0,0,0,0,0,0,0,0,0,-1,1168,967,0,0
-49,57,0,0,0,0,0,0,0,0,0,-1,1175,967,0,0
-42,57,0,0,0,0,0,0,0,0,0,-1,1182,967,0,0
-35,57,0,0,0,0,0,0,0,0,0,-1,1189,967,0,0
-28,57,0,0,0,0,0,0,0,0,0,-1,1196,967,0,0
-21,57,0,0,0,0,0,0,0,0,0,-1,1203,967,0,0
-14,57,0,0,0,0,0,0,0,0,0,-1,1210,967,0,0
-7,57,0,0,0,0,0,0,0,0,0,-1,1217,967,0,0
0,57,0,0,0,0,0,0,0,0,0,-1,1224,967,0,0
7,57,0,0,0,0,0,0,0,0,0,-1,1231,967,0,0
14,57,0,0,0,0,0,0,0,0,0,-1,1238,967,0,0
21,57,0,0,0,0,0,0,0,0,0,-1,1245,967,0,0
28,57,0,0,0,0,0,0,0,0,0,-1,1252,967,0,0
35,57,0,0,0,0,0,0,0,0,0,-1,1259,967,0,0
42,57,0,0,0,0,0,0,0,0,0,-1,1266,967,0,0
49,57,0,0,0,0,0,0,0,0,0,-1,1273,967,0,0
56,57,0,0,0,0,0,0,0,0,0,-1,1280,967,0,0
63,57,0,0,0,0,0,0,0,0,0,-1,1287,967,0,0
70,57,0,0,0,0,0,0,0,0,0,-1,1294,967,0,0
77,57,0,0,0,0,0,0,0,0,0,-1,1301,967,0,0
84,57,0,0,0,0,0,0,0,0,0,-1,1308,967,0,0
91,57,0,0,0,0,0,0,0,0,0,-1,1315,967,0,0
98,57,0,0,0,0,0,0,0,0,0,-1,1322,967,0,0
105,57,0,0,0,0,0,0,0,0,0,-1,1329,967,0,0
112,57,0,0,0,0,0,0,0,0,0,-1,1336,967,0,0
119,57,0,0,0,0,0,0,0,0,0,-1,1343,967,0,0
126,57,0,0,0,0,0,0,0,0,0,-1,1350,967,0,0
133,57,0,0,0,0,0,0,0,0,0,-1,1357,967,0,0
140,57,0,0,0,0,0,0,0,0,0,-1,1364,967,0,0
147,57,0,0,0,0,0,0,0,0,0,-1,1371,967,0,0
154,57,0,0,0,0,0,0,0,0,0,-1,1378,967,0,0
161,57,0,0,0,0,0,0,0,0,0,-1,1385,967,0,0
168,57,0,0,0,0,0,0,0,0,0,-1,1392,967,0,0
175,57,0,0,0,0,0,0,0,0,0,-1,1399,967,0,0
182,57,0,0,0,0,0,0,0,0,0,-1,1406,967,0,0
189,57,0,0,0,0,0,0,0,0,0,-1,1413,967,0,0
196,57,0,0,0,0,0,0,0,0,0,-1,1420,967,0,0
203,57,0,0,0,0,0,0,0,0,0,-1,1427,967,0,0
210,57,0,0,0,0,0,0,0,0,0,-1,1434,967,0,0
217,57,0,0,0,0,0,0,0,0,0,-1,1441,967,0,0
224,57,0,0,0,0,0,0,0,0,0,-1,1448,967,0,0
231,57,0,0,0,0,0,0,0,0,0,-1,1455,967,0,0
238,57,0,0,0,0,0,0,0,0,0,-1,1462,967,0,0
245,57,0,0,0,0,0,0,0,0,0,-1,1469,967,0,0
252,57,0,0,0,0,0,0,0,0,0,-1,1476,967,0,0
259,57,0,0,0,0,0,0,0,0,0,-1,1483,967,0,0
266,57,0,0,0,0,0,0,0,0,0,-1,1490,967,0,0
273,57,0,0,0,0,0,0,0,0,0,-1,1497,967,0,0
280,57,0,0,0,0,0,0,0,0,0,-1,1504,967,0,0
287,57,0,0,0,0,0,0,0,0,0,-1,1511,967,0,0
294,57,0,0,0,0,0,0,0,0,0,-1,1518,967,0,0
301,57,0,0,0,0,0,0,0,0,0,-1,1525,967,0,0
308,57,0,0,0,0,0,0,0,0,0,-1,1532,967,0,0
315,57,0,0,0,0,0,0,0,0,0,-1,1539,967,0,0
322,57,0,0,0,0,0,0,0,0,0,-1,1546,967,0,0
329,57,0,0,0,0,0,0,0,0,0,-1,1553,967,0,0
336,57,0,0,0,0,0,0,0,0,0,-1,1560,967,0,0
343,57,0,0,0,0,0,0,0,0,0,-1,1567,967,0,0
350,57,0,0,0,0,0,0,0,0,0,-1,1574,967,0,0
357,57,0,0,0,0,0,0,0,0,0,-1,1581,967,0,0
364,57,0,0,0,0,0,0,0,0,0,-1,1588,967,0,0
371,57,0,0,0,0,0,0,0,0,0,-1,1595,967,0,0
378,57,0,0,0,0,0,0,0,0,0,-1,1602,967,0,0
385,57,0,0,0,0,0,0,0,0,0,-1,1609,967,0,0
392,57,0,0,0,0,0,0,0,0,0,-1,1616,967,0,0
399,57,0,0,0,0,0,0,0,0,0,-1,1623,967,0,0
406,57,0,0,0,0,0,0,0,0,0,-1,1630,967,0,0
413,57,0,0,0,0,0,0,0,0,0,-1,1637,967,0,0
420,57,0,0,0,0,0,0,0,0,0,-1,1644,967,0,0
427,57,0,0,0,0,0,0,0,0,0,-1,1651,967,0,0
434,57,0,0,0,0,0,0,0,0,0,-1,1658,967,0,0
441,57,0,0,0,0,0,0,0,0,0,-1,1665,967,0,0
448,57,0,0,0,0,0,0,0,0,0,-1,1672,967,0,0
455,57,0,0,0,0,0,0,0,0,0,-1,1679,967,0,0
462,57,0,0,0,0,0,0,0,0,0,-1,1686,967,0,0
469,57,0,0,0,0,0,0,0,0,0,-1,1693,967,0,0
476,57,0,0,0,0,0,0,0,0,0,-1,1700,967,0,0
483,57,0,0,0,0,0,0,0,0,0,-1,1707,967,0,0
490,57,0,0,0,0,0,0,0,0,0,-1,1714,967,0,0
497,57,0,0,0,0,0,0,0,0,0,-1,1721,967,0,0
504,57,0,0,0,0,0,0,0,0,0,-1,1728,967,0,0
511,57,0,0,0,0,0,0,0,0,0,-1,1735,967,0,0
518,57,0,0,0,0,0,0,0,0,0,-1,1742,967,0,0
525,57,0,0,0,0,0,0,0,0,0,-1,1749,967,0,0
532,57,0,0,0,0,0,0,0,0,0,-1,1756,967,0,0
539,57,0,0,0,0,0,0,0,0,0,-1,1763,967,0,0
546,57,0,0,0,0,0,0,0,0,0,-1,1770,967,0,0
553,57,0,0,0,0,0,0,0,0,0,-1,1777,967,0,0
560,57,0,0,0,0,0,0,0,0,0,-1,1784,967,0,0
567,57,0,0,0,0,0,0,0,0,0,-1,1791,967,0,0
574,57,0,0,0,0,0,0,0,0,0,-1,1798,967,0,0
581,57,0,0,0,0,0,0,0,0,0,-1,1805,967,0,0
588,57,0,0,0,0,0,0,0,0,0,-1,1812,967,0,0
595,57,0,0,0,0,0,0,0,0,0,-1,1819,967,0,0
602,57,0,0,0,0,0,0,0,0,0,-1,1826,967,0,0
609,57,0,0,0,0,0,0,0,0,0,-1,1833,967,0,0
616,57,0,0,0,0,0,0,0,0,0,-1,1840,967,0,0
623,57,0,0,0,0,0,0,0,0,0,-1,1847,967,0,0
630,57,0,0,0,0,0,0,0,0,0,-1,1854,967,0,0
637,57,0,0,0,0,0,0,0,0,0,-1,1861,967,0,0
644,57,4.3446,0.451294,-0.004504,0.00106067,0.0020851,0.00175527,-0.00519859,1.24924,0.00417566,0.0405447,1868,967,4.3446,-0.451311
651,57,4.30249,0.521301,-0.0030169,0.000961402,0.00140129,0.00140542,-0.00346092,1.26394,0.00289192,0.034998,1875,967,4.30244,-0.521273
658,57,4.27344,0.681702,-0.00210382,0.000909981,0.00102704,0.00122669,-0.00242053,1.27168,0.00214299,0.033992,1882,967,4.27346,-0.681715
665,57,4.11072,0.700073,-0.00156254,0.000822357,0.000809263,0.00107103,-0.00181121,1.27267,0.00168226,0.0419106,1889,967,4.11069,-0.700086
672,57,4.09314,0.585266,-0.0012623,0.000694381,0.000671205,0.000902492,-0.00147041,1.27014,0.00138301,0.0457391,1896,967,4.09311,-0.585253
679,57,4.21753,0.472229,-0.00112529,0.000564772,0.000610145,0.000762024,-0.00132254,1.25811,0.00121794,0.0406498,1903,967,4.21751,-0.472234
686,57,4.29895,0.478821,-0.0010594,0.000439117,0.000566366,0.000629091,-0.00124938,1.24716,0.00110407,0.0365737,1910,967,4.29898,-0.478817
693,57,4.29907,0.469238,-0.00092763,0.000264514,0.000558745,0.000485448,-0.00114856,1.19425,0.000968945,0.0326685,1917,967,4.29907,-0.469246
700,57,4.29614,0.548584,-0.000800081,0.000190957,0.000426688,0.00034935,-0.000958474,1.21535,0.000781896,0.0253048,1924,967,4.29609,-0.54858
707,57,4.22156,0.79541,-0.000873227,0.000143277,0.000343352,0.000248385,-0.000978335,1.27373,0.000748877,0.0277844,1931,967,4.22152,-0.795407
714,57,4.20923,0.834351,-0.000922846,5.17937e-05,0.000292012,0.000132586,-0.00100364,1.30087,0.000717384,0.02654,1938,967,4.20924,-0.834368
721,57,4.18225,0.686035,-0.000832147,-9.34255e-06,0.000291136,8.32511e-05,-0.00092474,1.26287,0.000646035,0.0167245,1945,967,4.18225,-0.686033
728,57,4.17761,0.735229,-0.000681889,-1.74172e-05,0.000181026,2.86999e-05,-0.000728006,1.32135,0.000495181,0.0175691,1952,967,4.17766,-0.735255
735,57,4.16626,0.753601,-0.000386049,0.00031536,-0.000102305,0.000329977,-0.000400667,-1.42888,0.000422495,0.018563,1959,967,4.16631,-0.753578
742,57,4.19556,0.732056,-8.64272e-05,0.000503051,-0.00110956,0.00135635,-0.000939723,-0.915219,0.00133289,0.0150596,1966,967,4.19557,-0.732029
749,57,4.1908,0.736267,-0.000334396,0.000978588,-0.00179044,0.0022291,-0.00158491,-0.96112,0.00221246,0.0126466,1973,967,4.19084,-0.736237
756,57,4.17224,0.738464,-0.00114764,0.00118075,-0.00240602,0.00268944,-0.00265632,-1.01073,0.0030864,0.0103635,1980,967,4.17226,-0.738436
763,57,4.177,0.752136,-0.00288162,0.00158319,-0.00284624,0.00296806,-0.00426649,-1.11796,0.00419924,0.0114278,1987,967,4.17696,-0.752111
770,57,4.17297,0.743225,-0.00491008,0.00208313,-0.00357361,0.00358621,-0.00641316,-1.17265,0.00584954,0.0114333,1994,967,4.17299,-0.743228
777,57,4.21191,0.811523,-0.0081044,0.00261387,-0.00424132,0.00408915,-0.00957967,-1.23605,0.00810114,0.0264684,2001,967,4.21194,-0.811526
784,57,4.39539,0.90033,-0.0128913,0.00319625,-0.00463628,0.00443674,-0.0141317,-1.30936,0.011197,0.044043,2008,967,4.39543,-0.900325
791,57,4.82532,0.671692,-0.0196891,0.00387372,-0.00449925,0.00470361,-0.020519,-1.3884,0.0154872,0.0468589,2015,967,4.82533,-0.671714
798,57,5.59729,-0.0151367,-0.0290259,0.00472264,-0.00348261,0.00507828,-0.0293816,-1.46903,0.0214815,0.045863,2022,967,5.59734,0.0151068
805,57,6.08142,-0.523193,0,0,0,0,0,0,0,-1,2029,967,6.08144,0.523169
812,57,0,0,0,0,0,0,0,0,0,-1,2036,967,0,0
-700,50,0,0,0,0,0,0,0,0,0,-1,524,974,0,0
-693,50,0.292664,-0.767395,0.000119034,0.0797932,-0.00239674,0.0798653,4.69983e-05,-1.54075,0.0532278,0.0458432,531,974,0.292679,0.767365
-686,50,0.372559,-0.704529,-0.008892,0.0556121,0.00275404,0.0557295,-0.00900937,1.5282,0.0404916,0.0421363,538,974,0.37258,0.704551
-679,50,0.716675,-0.35376,-0.0143584,0.0376984,0.00610196,0.0384041,-0.0150641,1.45566,0.0318352,0.044192,545,974,0.716646,0.353788
-672,50,0.683411,-0.350586,-0.0173002,0.0244387,0.00803053,0.0259304,-0.018792,1.38713,0.0259299,0.0444433,552,974,0.683404,0.350595
-665,50,0.448914,-0.287354,-0.0183493,0.0148019,0.00890531,0.0170426,-0.0205901,1.32429,0.0217594,0.0461068,559,974,0.448932,0.28734
-658,50,0.101868,0.00012207,-0.0179469,0.00805736,0.00897561,0.0108545,-0.020744,1.2687,0.0185389,0.0470623,566,974,0.101869,-9.22098e-05
-651,50,-0.256836,0.377625,-0.016465,0.00360181,0.0084413,0.00668041,-0.0195436,1.22108,0.0157359,0.0409479,573,974,-0.256843,-0.37761
-644,50,-0.663757,0.691895,-0.0143091,0.000901711,0.00749917,0.00397711,-0.0173845,1.18161,0.0131179,0.0239616,580,974,-0.663763,-0.691876
-637,50,-0.690186,0.772156,-0.0119311,-0.00158561,0.00642433,0.00148963,-0.0150063,1.12434,0.0105359,0.0125557,587,974,-0.690198,-0.77214
-630,50,-0.69165,0.776917,-0.00991625,-0.0027391,0.00534969,0.000114141,-0.0127695,1.08083,0.00855129,0.00924694,594,974,-0.691653,-0.7769
-623,50,-0.684082,0.778503,-0.00810393,-0.0027926,0.00436257,-0.000340957,-0.0105556,1.05881,0.00692619,0.0106302,601,974,-0.684065,-0.778484
-616,50,-0.677063,0.77478,-0.0060176,-0.00184461,0.0031246,-0.000173896,-0.00768831,1.07978,0.00506857,0.011138,608,974,-0.677082,-0.774768
-609,50,-0.700195,0.767456,-0.00385755,-0.0010973,0.00197355,-6.91793e-05,-0.00488567,1.09053,0.0032343,0.0105629,615,974,-0.70019,-0.767433
-602,50,-0.707458,0.75116,-0.00232971,-0.000334819,0.00116532,0.000201639,-0.00286617,1.13937,0.00198141,0.0115213,622,974,-0.707486,-0.751149
-595,50,-0.706421,0.753662,-0.00152821,0.000172767,0.000463286,0.000290764,-0.0016462,1.3214,0.00120613,0.0112484,629,974,-0.706446,-0.75366
-588,50,-0.739197,0.742493,-0.00133082,0.000320459,0.000145797,0.000333233,-0.00134359,1.4834,0.00102502,0.0112648,636,974,-0.739219,-0.742474
-581,50,-0.810425,0.705994,-0.00109943,0.000497479,-4.41946e-05,0.000498701,-0.00110065,-1.54315,0.000944938,0.0192175,643,974,-0.810451,-0.705975
-574,50,-0.824768,0.665283,-0.000679484,0.000715874,-0.000291744,0.000774416,-0.000738027,-1.37276,0.000873293,0.0268706,650,974,-0.824774,-0.665276
-567,50,-0.735779,0.641785,-0.000318477,0.00105053,-0.000561294,0.00125123,-0.000519184,-1.22739,0.00105087,0.0381274,657,974,-0.735789,-0.641801
-560,50,-0.639038,0.559814,0.000303606,0.00141381,-0.000891905,0.00190925,-0.000191831,-1.06375,0.00134136,0.0431762,664,974,-0.639029,-0.559798
-553,50,-1.02136,1.02618,0,0,0,0,0,0,0,-1,671,974,-1.02134,-1.02617
-546,50,-0.812622,0.90564,0.00250836,0.0023344,-0.00190612,0.00432948,0.000513276,-0.762598,0.00273135,0.0416282,678,974,-0.812641,-0.905634
-539,50,-0.631226,0.808228,0.00427083,0.00289198,-0.00268312,0.00635168,0.000811133,-0.659644,0.00399164,0.0439207,685,974,-0.631234,-0.80821
-532,50,-0.7995,0.709167,0.00651242,0.00352907,-0.00372705,0.00903521,0.00100628,-0.595046,0.00571764,0.0415975,692,974,-0.799497,-0.709179
-525,50,-0.859436,0.66571,0.00925875,0.00426567,-0.00507778,0.0124205,0.00110389,-0.556921,0.00793802,0.0389146,699,974,-0.859434,-0.665694
-518,50,0,0,0,0,0,0,0,0,0,-1,706,974,0,0
-511,50,0,0,0,0,0,0,0,0,0,-1,713,974,0,0
-504,50,0,0,0,0,0,0,0,0,0,-1,720,974,0,0
-497,50,0,0,0,0,0,0,0,0,0,-1,727,974,0,0
-490,50,0,0,0,0,0,0,0,0,0,-1,734,974,0,0
-483,50,0,0,0,0,0,0,0,0,0,-1,741,974,0,0
-476,50,0,0,0,0,0,0,0,0,0,-1,748,974,0,0
-469,50,0,0,0,0,0,0,0,0,0,-1,755,974,0,0
-462,50,0,0,0,0,0,0,0,0,0,-1,762,974,0,0
-455,50,0,0,0,0,0,0,0,0,0,-1,769,974,0,0
-448,50,0,0,0,0,0,0,0,0,0,-1,776,974,0,0
-441,50,0,0,0,0,0,0,0,0,0,-1,783,974,0,0
-434,50,0,0,0,0,0,0,0,0,0,-1,790,974,0,0
-427,50,0,0,0,0,0,0,0,0,0,-1,797,974,0,0
-420,50,0,0,0,0,0,0,0,0,0,-1,804,974,0,0
-413,50,0,0,0,0,0,0,0,0,0,-1,811,974,0,0
-406,50,0,0,0,0,0,0,0,0,0,-1,818,974,0,0
-399,50,0,0,0,0,0,0,0,0,0,-1,825,974,0,0
-392,50,0,0,0,0,0,0,0,0,0,-1,832,974,0,0
-385,50,0,0,0,0,0,0,0,0,0,-1,839,974,0,0
-378,50,0,0,0,0,0,0,0,0,0,-1,846,974,0,0
-371,50,0,0,0,0,0,0,0,0,0,-1,853,974,0,0
-364,50,0,0,0,0,0,0,0,0,0,-1,860,974,0,0
-357,50,0,0,0,0,0,0,0,0,0,-1,867,974,0,0
-350,50,0,0,0,0,0,0,0,0,0,-1,874,974,0,0
-343,50,0,0,0,0,0,0,0,0,0,-1,881,974,0,0
-336,50,0,0,0,0,0,0,0,0,0,-1,888,974,0,0
-329,50,0,0,0,0,0,0,0,0,0,-1,895,974,0,0
-322,50,0,0,0,0,0,0,0,0,0,-1,902,974,0,0
-315,50,0,0,0,0,0,0,0,0,0,-1,909,974,0,0
-308,50,0,0,0,0,0,0,0,0,0,-1,916,974,0,0
-301,50,0,0,0,0,0,0,0,0,0,-1,923,974,0,0
-294,50,0,0,0,0,0,0,0,0,0,-1,930,974,0,0
-287,50,0,0,0,0,0,0,0,0,0,-1,937,974,0,0
-280,50,0,0,0,0,0,0,0,0,0,-1,944,974,0,0
-273,50,0,0,0,0,0,0,0,0,0,-1,951,974,0,0
-266,50,0,0,0,0,0,0,0,0,0,-1,958,974,0,0
-259,50,0,0,0,0,0,0,0,0,0,-1,965,974,0,0
-252,50,0,0,0,0,0,0,0,0,0,-1,972,974,0,0
-245,50,0,0,0,0,0,0,0,0,0,-1,979,974,0,0
-238,50,0,0,0,0,0,0,0,0,0,-1,986,974,0,0
-231,50,0,0,0,0,0,0,0,0,0,-1,993,974,0,0
-224,50,0,0,0,0,0,0,0,0,0,-1,1000,974,0,0
-217,50,0,0,0,0,0,0,0,0,0,-1,1007,974,0,0
-210,50,0,0,0,0,0,0,0,0,0,-1,1014,974,0,0
-203,50,0,0,0,0,0,0,0,0,0,-1,1021,974,0,0
-196,50,0,0,0,0,0,0,0,0,0,-1,1028,974,0,0
-189,50,0,0,0,0,0,0,0,0,0,-1,1035,974,0,0
-182,50,0,0,0,0,0,0,0,0,0,-1,1042,974,0,0
-175,50,0,0,0,0,0,0,0,0,0,-1,1049,974,0,0
-168,50,0,0,0,0,0,0,0,0,0,-1,1056,974,0,0
-161,50,0,0,0,0,0,0,0,0,0,-1,1063,974,0,0
-154,50,0,0,0,0,0,0,0,0,0,-1,1070,974,0,0
-147,50,0,0,0,0,0,0,0,0,0,-1,1077,974,0,0
-140,50,0,0,0,0,0,0,0,0,0,-1,1084,974,0,0
-133,50,0,0,0,0,0,0,0,0,0,-1,1091,974,0,0
-126,50,0,0,0,0,0,0,0,0,0,-1,1098,974,0,0
-119,50,0,0,0,0,0,0,0,0,0,-1,1105,974,0,0
-112,50,0,0,0,0,0,0,0,0,0,-1,1112,974,0,0
-105,50,0,0,0,0,0,0,0,0,0,-1,1119,974,0,0
-98,50,0,0,0,0,0,0,0,0,0,-1,1126,974,0,0
-91,50,0,0,0,0,0,0,0,0,0,-1,1133,974,0,0
-84,50,0,0,0,0,0,0,0,0,0,-1,1140,974,0,0
-77,50,0,0,0,0,0,0,0,0,0,-1,1147,974,0,0
-70,50,0,0,0,0,0,0,0,0,0,-1,1154,974,0,0
-63,50,0,0,0,0,0,0,0,0,0,-1,1161,974,0,0
-56,50,0,0,0,0,0,0,0,0,0,-1,1168,974,0,0
-49,50,0,0,0,0,0,0,0,0,0,-1,1175,974,0,0
-42,50,0,0,0,0,0,0,0,0,0,-1,1182,974,0,0
-35,50,0,0,0,0,0,0,0,0,0,-1,1189,974,0,0
-28,50,0,0,0,0,0,0,0,0,0,-1,1196,974,0,0
-21,50,0,0,0,0,0,0,0,0,0,-1,1203,974,0,0
-14,50,0,0,0,0,0,0,0,0,0,-1,1210,974,0,0
-7,50,0,0,0,0,0,0,0,0,0,-1,1217,974,0,0
0,50,0,0,0,0,0,0,0,0,0,-1,1224,974,0,0
7,50,0,0,0,0,0,0,0,0,0,-1,1231,974,0,0
14,50,0,0,0,0,0,0,0,0,0,-1,1238,974,0,0
21,50,0,0,0,0,0,0,0,0,0,-1,1245,974,0,0
28,50,0,0,0,0,0,0,0,0,0,-1,1252,974,0,0
35,50,0,0,0,0,0,0,0,0,0,-1,1259,974,0,0
42,50,0,0,0,0,0,0,0,0,0,-1,1266,974,0,0
49,50,0,0,0,0,0,0,0,0,0,-1,1273,974,0,0
56,50,0,0,0,0,0,0,0,0,0,-1,1280,974,0,0
63,50,0,0,0,0,0,0,0,0,0,-1,1287,974,0,0
70,50,0,0,0,0,0,0,0,0,0,-1,1294,974,0,0
77,50,0,0,0,0,0,0,0,0,0,-1,1301,974,0,0
84,50,0,0,0,0,0,0,0,0,0,-1,1308,974,0,0
91,50,0,0,0,0,0,0,0,0,0,-1,1315,974,0,0
98,50,0,0,0,0,0,0,0,0,0,-1,1322,974,0,0
105,50,0,0,0,0,0,0,0,0,0,-1,1329,974,0,0
112,50,0,0,0,0,0,0,0,0,0,-1,1336,974,0,0
119,50,0,0,0,0,0,0,0,0,0,-1,1343,974,0,0
126,50,0,0,0,0,0,0,0,0,0,-1,1350,974,0,0
133,50,0,0,0,0,0,0,0,0,0,-1,1357,974,0,0
140,50,0,0,0,0,0,0,0,0,0,-1,1364,974,0,0
147,50,0,0,0,0,0,0,0,0,0,-1,1371,974,0,0
154,50,0,0,0,0,0,0,0,0,0,-1,1378,974,0,0
161,50,0,0,0,0,0,0,0,0,0,-1,1385,974,0,0
168,50,0,0,0,0,0,0,0,0,0,-1,1392,974,0,0
175,50,0,0,0,0,0,0,0,0,0,-1,1399,974,0,0
182,50,0,0,0,0,0,0,0,0,0,-1,1406,974,0,0
189,50,0,0,0,0,0,0,0,0,0,-1,1413,974,0,0
196,50,0,0,0,0,0,0,0,0,0,-1,1420,974,0,0
203,50,0,0,0,0,0,0,0,0,0,-1,1427,974,0,0
210,50,0,0,0,0,0,0,0,0,0,-1,1434,974,0,0
217,50,0,0,0,0,0,0,0,0,0,-1,1441,974,0,0
224,50,0,0,0,0,0,0,0,0,0,-1,1448,974,0,0
231,50,0,0,0,0,0,0,0,0,0,-1,1455,974,0,0
238,50,0,0,0,0,0,0,0,0,0,-1,1462,974,0,0
245,50,0,0,0,0,0,0,0,0,0,-1,1469,974,0,0
252,50,0,0,0,0,0,0,0,0,0,-1,1476,974,0,0
259,50,0,0,0,0,0,0,0,0,0,-1,1483,974,0,0
266,50,0,0,0,0,0,0,0,0,0,-1,1490,974,0,0
273,50,0,0,0,0,0,0,0,0,0,-1,1497,974,0,0
280,50,0,0,0,0,0,0,0,0,0,-1,1504,974,0,0
287,50,0,0,0,0,0,0,0,0,0,-1,1511,974,0,0
294,50,0,0,0,0,0,0,0,0,0,-1,1518,974,0,0
301,50,0,0,0,0,0,0,0,0,0,-1,1525,974,0,0
308,50,0,0,0,0,0,0,0,0,0,-1,1532,974,0,0
315,50,0,0,0,0,0,0,0,0,0,-1,1539,974,0,0
322,50,0,0,0,0,0,0,0,0,0,-1,1546,974,0,0
329,50,0,0,0,0,0,0,0,0,0,-1,1553,974,0,0
336,50,0,0,0,0,0,0,0,0,0,-1,1560,974,0,0
343,50,0,0,0,0,0,0,0,0,0,-1,1567,974,0,0
350,50,0,0,0,0,0,0,0,0,0,-1,1574,974,0,0
357,50,0,0,0,0,0,0,0,0,0,-1,1581,974,0,0
364,50,0,0,0,0,0,0,0,0,0,-1,1588,974,0,0
371,50,0,0,0,0,0,0,0,0,0,-1,1595,974,0,0
378,50,0,0,0,0,0,0,0,0,0,-1,1602,974,0,0
385,50,0,0,0,0,0,0,0,0,0,-1,1609,974,0,0
392,50,0,0,0,0,0,0,0,0,0,-1,1616,974,0,0
399,50,0,0,0,0,0,0,0,0,0,-1,1623,974,0,0
406,50,0,0,0,0,0,0,0,0,0,-1,1630,974,0,0
413,50,0,0,0,0,0,0,0,0,0,-1,1637,974,0,0
420,50,0,0,0,0,0,0,0,0,0,-1,1644,974,0,0
427,50,0,0,0,0,0,0,0,0,0,-1,1651,974,0,0
434,50,0,0,0,0,0,0,0,0,0,-1,1658,974,0,0
441,50,0,0,0,0,0,0,0,0,0,-1,1665,974,0,0
448,50,0,0,0,0,0,0,0,0,0,-1,1672,974,0,0
455,50,0,0,0,0,0,0,0,0,0,-1,1679,974,0,0
462,50,0,0,0,0,0,0,0,0,0,-1,1686,974,0,0
469,50,0,0,0,0,0,0,0,0,0,-1,1693,974,0,0
476,50,0,0,0,0,0,0,0,0,0,-1,1700,974,0,0
483,50,0,0,0,0,0,0,0,0,0,-1,1707,974,0,0
490,50,0,0,0,0,0,0,0,0,0,-1,1714,974,0,0
497,50,0,0,0,0,0,0,0,0,0,-1,1721,974,0,0
504,50,0,0,0,0,0,0,0,0,0,-1,1728,974,0,0
511,50,0,0,0,0,0,0,0,0,0,-1,1735,974,0,0
518,50,0,0,0,0,0,0,0,0,0,-1,1742,974,0,0
525,50,0,0,0,0,0,0,0,0,0,-1,1749,974,0,0
532,50,0,0,0,0,0,0,0,0,0,-1,1756,974,0,0
539,50,0,0,0,0,0,0,0,0,0,-1,1763,974,0,0
546,50,0,0,0,0,0,0,0,0,0,-1,1770,974,0,0
553,50,0,0,0,0,0,0,0,0,0,-1,1777,974,0,0
560,50,0,0,0,0,0,0,0,0,0,-1,1784,974,0,0
567,50,0,0,0,0,0,0,0,0,0,-1,1791,974,0,0
574,50,0,0,0,0,0,0,0,0,0,-1,1798,974,0,0
581,50,0,0,0,0,0,0,0,0,0,-1,1805,974,0,0
588,50,0,0,0,0,0,0,0,0,0,-1,1812,974,0,0
595,50,0,0,0,0,0,0,0,0,0,-1,1819,974,0,0
602,50,0,0,0,0,0,0,0,0,0,-1,1826,974,0,0
609,50,0,0,0,0,0,0,0,0,0,-1,1833,974,0,0
616,50,0,0,0,0,0,0,0,0,0,-1,1840,974,0,0
623,50,0,0,0,0,0,0,0,0,0,-1,1847,974,0,0
630,50,0,0,0,0,0,0,0,0,0,-1,1854,974,0,0
637,50,0,0,0,0,0,0,0,0,0,-1,1861,974,0,0
644,50,4.3479,0.23761,-0.00441591,0.000572319,0.00238134,0.00152659,-0.00537018,1.18966,0.00418289,0.0401599,1868,974,4.34787,-0.237588
651,50,4.25793,0.459351,-0.00285927,0.000395763,0.00153897,0.00100816,-0.00347167,1.19208,0.00271366,0.0336546,1875,974,4.25789,-0.459328
658,50,4.26282,0.704773,-0.00191278,0.000294575,0.00106994,0.00072806,-0.00234626,1.18586,0.00185511,0.0367902,1882,974,4.26282,-0.704757
665,50,4.25696,0.618774,-0.00135555,0.000203131,0.000819218,0.000554494,-0.00170691,1.16563,0.00136096,0.0406173,1889,974,4.25698,-0.618789
672,50,4.19055,0.509033,-0.00104169,8.94497e-05,0.000667528,0.000398787,-0.00135103,1.13685,0.00105895,0.0413555,1896,974,4.19057,-0.509036
679,50,4.23987,0.537231,-0.000902926,-8.07213e-06,0.000600872,0.000293659,-0.00120466,1.10543,0.000916805,0.0399117,1903,974,4.23982,-0.537229
686,50,4.25964,0.653198,-0.000829222,-9.30273e-05,0.000562452,0.000211072,-0.00113332,1.07515,0.000834847,0.0403943,1910,974,4.25967,-0.653215
693,50,4.24951,0.553101,-0.000718268,-0.000204927,0.000558573,0.000153125,-0.00107632,1.00077,0.000773656,0.0373942,1917,974,4.24957,-0.55311
700,50,4.24634,0.607117,-0.000591473,-0.000197644,0.000422914,7.19508e-05,-0.000861068,1.00328,0.00059947,0.0219679,1924,974,4.24628,-0.607097
707,50,4.21228,0.779114,-0.000684568,-0.000182053,0.000370183,1.40881e-05,-0.000880709,1.08355,0.000591891,0.0244874,1931,974,4.21232,-0.779124
714,50,4.21936,0.777344,-0.00077518,-0.000224906,0.000335799,-6.59214e-05,-0.000934165,1.12861,0.000602007,0.0228111,1938,974,4.21931,-0.777319
721,50,4.19824,0.700256,-0.00069978,-0.000240305,0.000332003,-6.63036e-05,-0.000873781,1.08806,0.000561726,0.0172446,1945,974,4.19824,-0.700285
728,50,4.18823,0.717407,-0.000559904,-0.000188526,0.000216061,-8.93244e-05,-0.000659106,1.14037,0.000412863,0.0167085,1952,974,4.18828,-0.717433
735,50,4.18896,0.731323,-0.000260505,0.000168282,-0.000101866,0.000191252,-0.000283474,-1.34902,0.000275802,0.0167386,1959,974,4.18898,-0.731309
742,50,4.18848,0.705566,9.26337e-05,0.000377927,-0.00104691,0.00129186,-0.000821299,-0.853109,0.00123007,0.0136838,1966,974,4.1885,-0.70558
749,50,4.18665,0.71991,-0.00014468,0.000656193,-0.00175245,0.00205337,-0.00154186,-0.89772,0.0020827,0.0140029,1973,974,4.18663,-0.719928
756,50,4.19617,0.736877,-0.00108287,0.000621623,-0.00231537,0.00223662,-0.00269786,-0.961743,0.00285307,0.0114427,1980,974,4.19614,-0.736889
763,50,4.19788,0.745728,-0.00303834,0.000725011,-0.00264624,0.00209038,-0.00440371,-1.09446,0.00382784,0.011821,1987,974,4.19786,-0.74571
770,50,4.19263,0.733948,-0.00523345,0.000823504,-0.00326055,0.00224507,-0.00665501,-1.15966,0.00534459,0.0111098,1994,974,4.19265,-0.733952
777,50,4.21582,0.754822,-0.00865809,0.000816458,-0.00375953,0.00212698,-0.0099686,-1.23538,0.00745654,0.0228529,2001,974,4.21577,-0.754843
784,50,4.32446,0.842773,-0.0137392,0.000699909,-0.00395005,0.00170987,-0.0147491,-1.32048,0.0104494,0.0410034,2008,974,4.3244,-0.842793
791,50,4.41272,0.979492,0,0,0,0,0,0,0,-1,2015,974,4.41267,-0.9795
798,50,4.86353,-0.602966,0,0,0,0,0,0,0,-1,2022,974,4.86348,0.602964
805,50,5.26587,-1.44989,0,0,0,0,0,0,0,-1,2029,974,5.26589,1.4499
812,50,0,0,0,0,0,0,0,0,0,-1,2036,974,0,0
-700,43,0,0,0,0,0,0,0,0,0,-1,524,981,0,0
-693,43,0.50885,-1.30573,-0.00618813,0.0797191,0.0046354,0.0799685,-0.00643752,1.51705,0.0555826,0.0472471,531,981,0.508839,1.30573
-686,43,0.465881,-1.10773,-0.0119139,0.0564033,0.0071549,0.0571446,-0.0126552,1.46756,0.042941,0.044329,538,981,0.465899,1.10772
-679,43,0.869263,-0.747437,-0.0151917,0.0389345,0.00857447,0.0402604,-0.0165176,1.41738,0.0337226,0.0434534,545,981,0.869276,0.747447
-672,43,0.69989,-0.616272,-0.016693,0.0258582,0.0091163,0.027729,-0.0185638,1.36839,0.0269012,0.0479368,552,981,0.699874,0.616264
-665,43,0.438782,-0.432007,-0.0168605,0.0162342,0.00902788,0.0185367,-0.019163,1.32108,0.021767,0.0466249,559,981,0.438757,0.431982
-658,43,-0.515503,0.549438,-0.0160077,0.00938821,0.0084737,0.011956,-0.0185754,1.27657,0.0177649,0.0468567,566,981,-0.515507,-0.549461
-651,43,-0.713257,0.661926,-0.0144041,0.00476343,0.00758766,0.00740345,-0.0170442,1.23596,0.014476,0.038911,573,981,-0.713229,-0.661909
-644,43,-0.717224,0.734924,-0.0123604,0.00186476,0.00650382,0.00439004,-0.0148857,1.20044,0.0116658,0.0171295,580,981,-0.717248,-0.734946
-637,43,-0.700195,0.783997,-0.0102419,-0.000878584,0.00538159,0.00157274,-0.0126933,1.14338,0.00903217,0.0108199,587,981,-0.700212,-0.783977
-630,43,-0.695129,0.792175,-0.00842222,-0.00223818,0.00436813,2.15443e-05,-0.0106819,1.09339,0.00712848,0.0105975,594,981,-0.695158,-0.792193
-623,43,-0.694885,0.766602,-0.00674192,-0.00251637,0.00347143,-0.000565324,-0.00869297,1.05876,0.00561636,0.0109774,601,981,-0.694868,-0.766584
-616,43,-0.692017,0.76178,-0.00501835,-0.00160802,0.00238033,-0.000385117,-0.00624125,1.09621,0.00403859,0.0102382,608,981,-0.692039,-0.76177
-609,43,-0.700317,0.759521,-0.00323516,-0.000942666,0.00143674,-0.000250953,-0.00392688,1.1221,0.00253841,0.0123406,615,981,-0.700305,-0.759534
-602,43,-0.722534,0.74585,-0.00191471,-0.000320199,0.000761502,-1.4956e-05,-0.00221995,1.18956,0.00147501,0.0148511,622,981,-0.722509,-0.74587
-595,43,-0.735718,0.742676,-0.00126448,9.36191e-05,0.000197579,0.000121779,-0.00129265,1.42922,0.000905092,0.0135377,629,981,-0.73573,-0.742696
-588,43,-0.749756,0.752136,-0.00105711,0.000183544,-6.45851e-05,0.000186897,-0.00106047,-1.51893,0.000776807,0.0135966,636,981,-0.749784,-0.752156
-581,43,-0.795044,0.766235,-0.000750691,0.000337803,-0.000267401,0.000399945,-0.000812833,-1.34246,0.000713596,0.0209858,643,981,-0.795035,-0.766231
-574,43,-0.802551,0.762512,-0.000291257,0.000542254,-0.000526243,0.000796778,-0.000545782,-1.1203,0.00077963,0.0297622,650,981,-0.80255,-0.762484
-567,43,-0.730164,0.674194,0.000108985,0.000865721,-0.00080486,0.00137671,-0.000402008,-1.00512,0.00107712,0.038996,657,981,-0.73015,-0.674166
-560,43,-0.646912,0.618225,0.000759392,0.00123669,-0.00113258,0.00215549,-0.000159407,-0.889236,0.00149297,0.0420215,664,981,-0.646928,-0.618213
-553,43,-0.679016,0.614441,0.00169332,0.00169216,-0.00154478,0.00323752,0.000147963,-0.785211,0.00211075,0.0422767,671,981,-0.679044,-0.614439
-546,43,-0.92218,0.599609,0.00301731,0.00222908,-0.00208165,0.00474182,0.000504571,-0.691841,0.00300717,0.0439743,678,981,-0.922188,-0.599629
-539,43,-1.00806,0.378418,0.00482806,0.00284852,-0.00278816,0.00679692,0.000879659,-0.614841,0.00426839,0.0450693,685,981,-1.00804,-0.378447
-532,43,-1.14929,0.494202,0.00714757,0.0035603,-0.00373581,0.00949802,0.00120985,-0.56159,0.00596973,0.0460544,692,981,-1.14932,-0.494215
-525,43,-0.707031,0.768799,0.0100575,0.00435553,-0.00495519,0.0129234,0.0014897,-0.524346,0.00816444,0.0421229,699,981,-0.707026,-0.76878
-518,43,0,0,0,0,0,0,0,0,0,-1,706,981,0,0
-511,43,0,0,0,0,0,0,0,0,0,-1,713,981,0,0
-504,43,0,0,0,0,0,0,0,0,0,-1,720,981,0,0
-497,43,0,0,0,0,0,0,0,0,0,-1,727,981,0,0
-490,43,0,0,0,0,0,0,0,0,0,-1,734,981,0,0
-483,43,0,0,0,0,0,0,0,0,0,-1,741,981,0,0
-476,43,0,0,0,0,0,0,0,0,0,-1,748,981,0,0
-469,43,0,0,0,0,0,0,0,0,0,-1,755,981,0,0
-462,43,0,0,0,0,0,0,0,0,0,-1,762,981,0,0
-455,43,0,0,0,0,0,0,0,0,0,-1,769,981,0,0
-448,43,0,0,0,0,0,0,0,0,0,-1,776,981,0,0
-441,43,0,0,0,0,0,0,0,0,0,-1,783,981,0,0
-434,43,0,0,0,0,0,0,0,0,0,-1,790,981,0,0
-427,43,0,0,0,0,0,0,0,0,0,-1,797,981,0,0
-420,43,0,0,0,0,0,0,0,0,0,-1,804,981,0,0
-413,43,0,0,0,0,0,0,0,0,0,-1,811,981,0,0
-406,43,0,0,0,0,0,0,0,0,0,-1,818,981,0,0
-399,43,0,0,0,0,0,0,0,0,0,-1,825,981,0,0
-392,43,0,0,0,0,0,0,0,0,0,-1,832,981,0,0
-385,43,0,0,0,0,0,0,0,0,0,-1,839,981,0,0
-378,43,0,0,0,0,0,0,0,0,0,-1,846,981,0,0
-371,43,0,0,0,0,0,0,0,0,0,-1,853,981,0,0
-364,43,0,0,0,0,0,0,0,0,0,-1,860,981,0,0
-357,43,0,0,0,0,0,0,0,0,0,-1,867,981,0,0
-350,43,0,0,0,0,0,0,0,0,0,-1,874,981,0,0
-343,43,0,0,0,0,0,0,0,0,0,-1,881,981,0,0
-336,43,0,0,0,0,0,0,0,0,0,-1,888,981,0,0
-329,43,0,0,0,0,0,0,0,0,0,-1,895,981,0,0
-322,43,0,0,0,0,0,0,0,0,0,-1,902,981,0,0
-315,43,0,0,0,0,0,0,0,0,0,-1,909,981,0,0
-308,43,0,0,0,0,0,0,0,0,0,-1,916,981,0,0
-301,43,0,0,0,0,0,0,0,0,0,-1,923,981,0,0
-294,43,0,0,0,0,0,0,0,0,0,-1,930,981,0,0
-287,43,0,0,0,0,0,0,0,0,0,-1,937,981,0,0
-280,43,0,0,0,0,0,0,0,0,0,-1,944,981,0,0
-273,43,0,0,0,0,0,0,0,0,0,-1,951,981,0,0
-266,43,0,0,0,0,0,0,0,0,0,-1,958,981,0,0
-259,43,0,0,0,0,0,0,0,0,0,-1,965,981,0,0
-252,43,0,0,0,0,0,0,0,0,0,-1,972,981,0,0
-245,43,0,0,0,0,0,0,0,0,0,-1,979,981,0,0
-238,43,0,0,0,0,0,0,0,0,0,-1,986,981,0,0
-231,43,0,0,0,0,0,0,0,0,0,-1,993,981,0,0
-224,43,0,0,0,0,0,0,0,0,0,-1,1000,981,0,0
-217,43,0,0,0,0,0,0,0,0,0,-1,1007,981,0,0
-210,43,0,0,0,0,0,0,0,0,0,-1,1014,981,0,0
-203,43,0,0,0,0,0,0,0,0,0,-1,1021,981,0,0
-196,43,0,0,0,0,0,0,0,0,0,-1,1028,981,0,0
-189,43,0,0,0,0,0,0,0,0,0,-1,1035,981,0,0
-182,43,0,0,0,0,0,0,0,0,0,-1,1042,981,0,0
-175,43,0,0,0,0,0,0,0,0,0,-1,1049,981,0,0
-168,43,0,0,0,0,0,0,0,0,0,-1,1056,981,0,0
-161,43,0,0,0,0,0,0,0,0,0,-1,1063,981,0,0
-154,43,0,0,0,0,0,0,0,0,0,-1,1070,981,0,0
-147,43,0,0,0,0,0,0,0,0,0,-1,1077,981,0,0
-140,43,0,0,0,0,0,0,0,0,0,-1,1084,981,0,0
-133,43,0,0,0,0,0,0,0,0,0,-1,1091,981,0,0
-126,43,0,0,0,0,0,0,0,0,0,-1,1098,981,0,0
-119,43,0,0,0,0,0,0,0,0,0,-1,1105,981,0,0
-112,43,0,0,0,0,0,0,0,0,0,-1,1112,981,0,0
-105,43,0,0,0,0,0,0,0,0,0,-1,1119,981,0,0
-98,43,0,0,0,0,0,0,0,0,0,-1,1126,981,0,0
-91,43,0,0,0,0,0,0,0,0,0,-1,1133,981,0,0
-84,43,0,0,0,0,0,0,0,0,0,-1,1140,981,0,0
-77,43,0,0,0,0,0,0,0,0,0,-1,1147,981,0,0
-70,43,0,0,0,0,0,0,0,0,0,-1,1154,981,0,0
-63,43,0,0,0,0,0,0,0,0,0,-1,1161,981,0,0
-56,43,0,0,0,0,0,0,0,0,0,-1,1168,981,0,0
-49,43,0,0,0,0,0,0,0,0,0,-1,1175,981,0,0
-42,43,0,0,0,0,0,0,0,0,0,-1,1182,981,0,0
-35,43,0,0,0,0,0,0,0,0,0,-1,1189,981,0,0
-28,43,0,0,0,0,0,0,0,0,0,-1,1196,981,0,0
-21,43,0,0,0,0,0,0,0,0,0,-1,1203,981,0,0
-14,43,0,0,0,0,0,0,0,0,0,-1,1210,981,0,0
-7,43,0,0,0,0,0,0,0,0,0,-1,1217,981,0,0
0,43,0,0,0,0,0,0,0,0,0,-1,1224,981,0,0
7,43,0,0,0,0,0,0,0,0,0,-1,1231,981,0,0
14,43,0,0,0,0,0,0,0,0,0,-1,1238,981,0,0
21,43,0,0,0,0,0,0,0,0,0,-1,1245,981,0,0
28,43,0,0,0,0,0,0,0,0,0,-1,1252,981,0,0
35,43,0,0,0,0,0,0,0,0,0,-1,1259,981,0,0
42,43,0,0,0,0,0,0,0,0,0,-1,1266,981,0,0
49,43,0,0,0,0,0,0,0,0,0,-1,1273,981,0,0
56,43,0,0,0,0,0,0,0,0,0,-1,1280,981,0,0
63,43,0,0,0,0,0,0,0,0,0,-1,1287,981,0,0
70,43,0,0,0,0,0,0,0,0,0,-1,1294,981,0,0
77,43,0,0,0,0,0,0,0,0,0,-1,1301,981,0,0
84,43,0,0,0,0,0,0,0,0,0,-1,1308,981,0,0
91,43,0,0,0,0,0,0,0,0,0,-1,1315,981,0,0
98,43,0,0,0,0,0,0,0,0,0,-1,1322,981,0,0
105,43,0,0,0,0,0,0,0,0,0,-1,1329,981,0,0
112,43,0,0,0,0,0,0,0,0,0,-1,1336,981,0,0
119,43,0,0,0,0,0,0,0,0,0,-1,1343,981,0,0
126,43,0,0,0,0,0,0,0,0,0,-1,1350,981,0,0
133,43,0,0,0,0,0,0,0,0,0,-1,1357,981,0,0
140,43,0,0,0,0,0,0,0,0,0,-1,1364,981,0,0
147,43,0,0,0,0,0,0,0,0,0,-1,1371,981,0,0
154,43,0,0,0,0,0,0,0,0,0,-1,1378,981,0,0
161,43,0,0,0,0,0,0,0,0,0,-1,1385,981,0,0
168,43,0,0,0,0,0,0,0,0,0,-1,1392,981,0,0
175,43,0,0,0,0,0,0,0,0,0,-1,1399,981,0,0
182,43,0,0,0,0,0,0,0,0,0,-1,1406,981,0,0
189,43,0,0,0,0,0,0,0,0,0,-1,1413,981,0,0
196,43,0,0,0,0,0,0,0,0,0,-1,1420,981,0,0
203,43,0,0,0,0,0,0,0,0,0,-1,1427,981,0,0
210,43,0,0,0,0,0,0,0,0,0,-1,1434,981,0,0
217,43,0,0,0,0,0,0,0,0,0,-1,1441,981,0,0
224,43,0,0,0,0,0,0,0,0,0,-1,1448,981,0,0
231,43,0,0,0,0,0,0,0,0,0,-1,1455,981,0,0
238,43,0,0,0,0,0,0,0,0,0,-1,1462,981,0,0
245,43,0,0,0,0,0,0,0,0,0,-1,1469,981,0,0
252,43,0,0,0,0,0,0,0,0,0,-1,1476,981,0,0
259,43,0,0,0,0,0,0,0,0,0,-1,1483,981,0,0
266,43,0,0,0,0,0,0,0,0,0,-1,1490,981,0,0
273,43,0,0,0,0,0,0,0,0,0,-1,1497,981,0,0
280,43,0,0,0,0,0,0,0,0,0,-1,1504,981,0,0
287,43,0,0,0,0,0,0,0,0,0,-1,1511,981,0,0
294,43,0,0,0,0,0,0,0,0,0,-1,1518,981,0,0
301,43,0,0,0,0,0,0,0,0,0,-1,1525,981,0,0
308,43,0,0,0,0,0,0,0,0,0,-1,1532,981,0,0
315,43,0,0,0,0,0,0,0,0,0,-1,1539,981,0,0
322,43,0,0,0,0,0,0,0,0,0,-1,1546,981,0,0
329,43,0,0,0,0,0,0,0,0,0,-1,1553,981,0,0
336,43,0,0,0,0,0,0,0,0,0,-1,1560,981,0,0
343,43,0,0,0,0,0,0,0,0,0,-1,1567,981,0,0
350,43,0,0,0,0,0,0,0,0,0,-1,1574,981,0,0
357,43,0,0,0,0,0,0,0,0,0,-1,1581,981,0,0
364,43,0,0,0,0,0,0,0,0,0,-1,1588,981,0,0
371,43,0,0,0,0,0,0,0,0,0,-1,1595,981,0,0
378,43,0,0,0,0,0,0,0,0,0,-1,1602,981,0,0
385,43,0,0,0,0,0,0,0,0,0,-1,1609,981,0,0
392,43,0,0,0,0,0,0,0,0,0,-1,1616,981,0,0
399,43,0,0,0,0,0,0,0,0,0,-1,1623,981,0,0
406,43,0,0,0,0,0,0,0,0,0,-1,1630,981,0,0
413,43,0,0,0,0,0,0,0,0,0,-1,1637,981,0,0
420,43,0,0,0,0,0,0,0,0,0,-1,1644,981,0,0
427,43,0,0,0,0,0,0,0,0,0,-1,1651,981,0,0
434,43,0,0,0,0,0,0,0,0,0,-1,1658,981,0,0
441,43,0,0,0,0,0,0,0,0,0,-1,1665,981,0,0
448,43,0,0,0,0,0,0,0,0,0,-1,1672,981,0,0
455,43,0,0,0,0,0,0,0,0,0,-1,1679,981,0,0
462,43,0,0,0,0,0,0,0,0,0,-1,1686,981,0,0
469,43,0,0,0,0,0,0,0,0,0,-1,1693,981,0,0
476,43,0,0,0,0,0,0,0,0,0,-1,1700,981,0,0
483,43,0,0,0,0,0,0,0,0,0,-1,1707,981,0,0
490,43,0,0,0,0,0,0,0,0,0,-1,1714,981,0,0
497,43,0,0,0,0,0,0,0,0,0,-1,1721,981,0,0
504,43,0,0,0,0,0,0,0,0,0,-1,1728,981,0,0
511,43,0,0,0,0,0,0,0,0,0,-1,1735,981,0,0
518,43,0,0,0,0,0,0,0,0,0,-1,1742,981,0,0
525,43,0,0,0,0,0,0,0,0,0,-1,1749,981,0,0
532,43,0,0,0,0,0,0,0,0,0,-1,1756,981,0,0
539,43,0,0,0,0,0,0,0,0,0,-1,1763,981,0,0
546,43,0,0,0,0,0,0,0,0,0,-1,1770,981,0,0
553,43,0,0,0,0,0,0,0,0,0,-1,1777,981,0,0
560,43,0,0,0,0,0,0,0,0,0,-1,1784,981,0,0
567,43,0,0,0,0,0,0,0,0,0,-1,1791,981,0,0
574,43,0,0,0,0,0,0,0,0,0,-1,1798,981,0,0
581,43,0,0,0,0,0,0,0,0,0,-1,1805,981,0,0
588,43,0,0,0,0,0,0,0,0,0,-1,1812,981,0,0
595,43,0,0,0,0,0,0,0,0,0,-1,1819,981,0,0
602,43,0,0,0,0,0,0,0,0,0,-1,1826,981,0,0
609,43,0,0,0,0,0,0,0,0,0,-1,1833,981,0,0
616,43,0,0,0,0,0,0,0,0,0,-1,1840,981,0,0
623,43,0,0,0,0,0,0,0,0,0,-1,1847,981,0,0
630,43,0,0,0,0,0,0,0,0,0,-1,1854,981,0,0
637,43,0,0,0,0,0,0,0,0,0,-1,1861,981,0,0
644,43,4.32251,0.276794,-0.00366538,0.000360797,0.00230087,0.00140492,-0.0047095,1.14479,0.00369803,0.039774,1868,981,4.32254,-0.276765
651,43,4.23267,0.610657,-0.00232769,0.000209604,0.00141547,0.000841753,-0.00295983,1.15077,0.00230561,0.0372321,1875,981,4.23263,-0.61068
658,43,4.41614,0.708984,-0.00152625,7.43459e-05,0.000917687,0.000491679,-0.00194359,1.14399,0.00148696,0.0364548,1882,981,4.4161,-0.708995
665,43,4.39038,0.721069,-0.0010694,-3.75667e-05,0.000677641,0.000298202,-0.00140517,1.11076,0.00105038,0.0371777,1889,981,4.39038,-0.72107
672,43,4.31299,0.648438,-0.000813618,-0.000168295,0.000546058,0.000143307,-0.00112522,1.05225,0.000802194,0.0394727,1896,981,4.31302,-0.648427
679,43,4.43201,0.597412,-0.000713028,-0.000275155,0.000495357,4.74911e-05,-0.00103567,0.993479,0.000706812,0.0411006,1903,981,4.43204,-0.597397
686,43,4.19556,0.630798,-0.000662488,-0.000354219,0.000477668,-6.43352e-06,-0.00101027,0.941465,0.000671382,0.0407437,1910,981,4.19553,-0.630778
693,43,4.22217,0.585999,-0.000580711,-0.00044271,0.000486404,-2.04365e-05,-0.00100298,0.855858,0.000661949,0.0357037,1917,981,4.22211,-0.585976
700,43,4.23364,0.585571,-0.000452593,-0.000396481,0.000361636,-6.18146e-05,-0.00078726,0.824111,0.000505496,0.0302473,1924,981,4.23365,-0.58555
707,43,4.23132,0.670715,-0.000551149,-0.000366261,0.000359046,-8.79496e-05,-0.00082946,0.911397,0.000526113,0.0249162,1931,981,4.23133,-0.670726
714,43,4.24329,0.696106,-0.000673006,-0.000388513,0.000352976,-0.000150199,-0.000911319,0.97694,0.000564184,0.0256799,1938,981,4.24326,-0.69612
721,43,4.2699,0.687073,-0.000609748,-0.000374825,0.000338932,-0.000133578,-0.000850995,0.952204,0.000528462,0.0222378,1945,981,4.26994,-0.687096
728,43,4.23254,0.664246,-0.000473361,-0.000280954,0.000209755,-0.000146393,-0.000607922,1.00041,0.000366367,0.0135265,1952,981,4.23252,-0.664225
735,43,4.2196,0.703796,-0.000163035,8.42287e-05,-0.000125523,0.000136781,-0.000215587,-1.1743,0.000205129,0.0110252,1959,981,4.21961,-0.703786
742,43,4.21948,0.708252,0.000254238,0.000337986,-0.000945508,0.00124255,-0.000650323,-0.807527,0.00111054,0.0130397,1966,981,4.21943,-0.708276
749,43,4.20776,0.718445,5.44411e-05,0.000429894,-0.00159337,0.00184656,-0.00136223,-0.844036,0.00185962,0.0151707,1973,981,4.2078,-0.718443
756,43,4.21899,0.733704,-0.000958799,0.000190003,-0.00204089,0.00173578,-0.00250458,-0.922573,0.00246155,0.0155303,1980,981,4.21895,-0.733697
763,43,4.20605,0.74292,-0.00304426,3.16017e-05,-0.00220243,0.00117992,-0.00419257,-1.09019,0.00326032,0.0179085,1987,981,4.20609,-0.742944
770,43,4.21387,0.719543,-0.00529362,-0.000218401,-0.00260803,0.000882846,-0.00639487,-1.17126,0.00458594,0.0155578,1994,981,4.21387,-0.719557
777,43,4.22937,0.70752,-0.00878586,-0.000687219,-0.00281703,0.000196275,-0.00966935,-1.26689,0.00651265,0.0217415,2001,981,4.22935,-0.70751
784,43,4.26343,0.760437,-0.013947,-0.00140768,-0.0026561,-0.000868266,-0.0144864,-1.37044,0.00938158,0.0428527,2008,981,4.26338,-0.760421
791,43,4.34924,0.564209,0,0,0,0,0,0,0,-1,2015,981,4.34923,-0.56422
798,43,4.19604,0.19104,0,0,0,0,0,0,0,-1,2022,981,4.19602,-0.191055
805,43,3.1958,-0.391052,-0.0435009,-0.00458906,0.00271732,-0.00440022,-0.0436897,1.50141,0.0277762,0.04302,2029,981,3.19577,0.391065
812,43,2.70007,0.216248,-0.0599073,-0.00552109,0.00752275,-0.00449971,-0.0609287,1.43585,0.0392054,0.0447622,2036,981,2.70006,-0.21626
-700,36,0,0,0,0,0,0,0,0,0,-1,524,988,0,0
-693,36,0.59906,-1.8067,0,0,0,0,0,0,0,-1,531,988,0.599047,1.80668
-686,36,-0.877258,0.656982,0,0,0,0,0,0,0,-1,538,988,-0.877265,-0.657006
-679,36,-0.696838,0.492737,-0.01564,0.0425499,0.00992423,0.044196,-0.017286,1.40644,0.0366124,0.043923,545,988,-0.696808,-0.492729
-672,36,-0.461182,0.514465,-0.0158921,0.0294864,0.0095484,0.0314136,-0.0178194,1.37163,0.0287837,0.0427595,552,988,-0.461152,-0.514492
-665,36,-0.457275,0.545227,-0.0153085,0.0196161,0.00885031,0.0217308,-0.0174233,1.33625,0.0226512,0.0421067,559,988,-0.457301,-0.545235
-658,36,-0.674011,0.827759,-0.0140894,0.0123674,0.00792572,0.01456,-0.016282,1.3009,0.0178159,0.0451325,566,988,-0.674015,-0.827757
-651,36,-0.728149,0.825012,-0.0124134,0.00725952,0.00685526,0.00941266,-0.0145665,1.26647,0.0139506,0.035749,573,988,-0.728158,-0.825011
-644,36,-0.725342,0.796265,-0.0105002,0.00385833,0.00572492,0.00586146,-0.0125034,1.23421,0.0108316,0.0185063,580,988,-0.725331,-0.796245
-637,36,-0.723145,0.808716,-0.00859683,0.000629114,0.00458283,0.00251859,-0.0104863,1.17974,0.00796427,0.0124387,587,988,-0.723115,-0.80873
-630,36,-0.71991,0.807922,-0.00692734,-0.00111986,0.00360832,0.000607999,-0.00865519,1.12421,0.0059831,0.0108558,594,988,-0.719911,-0.807923
-623,36,-0.719727,0.774231,-0.00545938,-0.0018305,0.00287318,-0.000246797,-0.00704309,1.06703,0.00461533,0.0116224,601,988,-0.719731,-0.774235
-616,36,-0.713684,0.763,-0.00410664,-0.00123809,0.00193051,-0.000267371,-0.00507736,1.10489,0.0032994,0.00969927,608,988,-0.713695,-0.76298
-609,36,-0.705566,0.773438,-0.00266369,-0.000788146,0.00111494,-0.000269034,-0.00318281,1.13505,0.00203812,0.0134224,615,988,-0.705558,-0.773461
-602,36,-0.708862,0.768738,-0.0015232,-0.000371126,0.000518346,-0.000172243,-0.00172208,1.20443,0.00109517,0.017638,622,988,-0.708877,-0.768751
-595,36,-0.729065,0.774841,-0.000994048,-8.46061e-05,3.84878e-05,-8.29802e-05,-0.000995674,1.52858,0.000637924,0.0191016,629,988,-0.729052,-0.774831
-588,36,-0.752991,0.794495,-0.000776153,-6.97111e-05,-0.000220563,-6.50281e-06,-0.000839361,-1.2917,0.000557419,0.0198547,636,988,-0.752986,-0.794524
-581,36,-0.7677,0.831787,-0.000428589,2.41661e-05,-0.000429094,0.000282936,-0.000687359,-1.02813,0.000576192,0.0243776,643,988,-0.767713,-0.831757
-574,36,-0.77948,0.815063,4.60891e-05,0.000173039,-0.000684859,0.000797358,-0.00057823,-0.831608,0.000797548,0.0289827,650,988,-0.779475,-0.815075
-567,36,-0.773743,0.694336,0.000472919,0.000427724,-0.000960173,0.00141076,-0.000510117,-0.773633,0.00114894,0.0355436,657,988,-0.773762,-0.694361
-560,36,-0.704285,0.595337,0.00113007,0.00073934,-0.00126857,0.00221823,-0.000348823,-0.708997,0.00160776,0.0405453,664,988,-0.70426,-0.595342
-553,36,-0.548462,0.385437,0.00206202,0.00114769,-0.00163447,0.00330206,-9.23499e-05,-0.649032,0.00223279,0.0443333,671,988,-0.548443,-0.38543
-546,36,-0.800354,0.666809,0.00337969,0.00165134,-0.00208955,0.00477671,0.000254318,-0.589323,0.00310317,0.045565,678,988,-0.80034,-0.666832
-539,36,-0.911621,0.490051,0.00519387,0.00225381,-0.00266946,0.0067713,0.000676383,-0.533714,0.00430648,0.045939,685,988,-0.911644,-0.490081
-532,36,-0.753662,0.782715,0.00754547,0.00296706,-0.00343298,0.0093825,0.00113003,-0.491341,0.00591442,0.0485716,692,988,-0.75364,-0.782709
-525,36,-0.6745,0.769897,0.0105675,0.00375995,-0.00438858,0.0127176,0.00160988,-0.455555,0.00799598,0.0462045,699,988,-0.674518,-0.769917
-518,36,0,0,0,0,0,0,0,0,0,-1,706,988,0,0
-511,36,0,0,0,0,0,0,0,0,0,-1,713,988,0,0
-504,36,0,0,0,0,0,0,0,0,0,-1,720,988,0,0
-497,36,0,0,0,0,0,0,0,0,0,-1,727,988,0,0
-490,36,0,0,0,0,0,0,0,0,0,-1,734,988,0,0
-483,36,0,0,0,0,0,0,0,0,0,-1,741,988,0,0
-476,36,0,0,0,0,0,0,0,0,0,-1,748,988,0,0
-469,36,0,0,0,0,0,0,0,0,0,-1,755,988,0,0
-462,36,0,0,0,0,0,0,0,0,0,-1,762,988,0,0
-455,36,0,0,0,0,0,0,0,0,0,-1,769,988,0,0
-448,36,0,0,0,0,0,0,0,0,0,-1,776,988,0,0
-441,36,0,0,0,0,0,0,0,0,0,-1,783,988,0,0
-434,36,0,0,0,0,0,0,0,0,0,-1,790,988,0,0
-427,36,0,0,0,0,0,0,0,0,0,-1,797,988,0,0
-420,36,0,0,0,0,0,0,0,0,0,-1,804,988,0,0
-413,36,0,0,0,0,0,0,0,0,0,-1,811,988,0,0
-406,36,0,0,0,0,0,0,0,0,0,-1,818,988,0,0
-399,36,0,0,0,0,0,0,0,0,0,-1,825,988,0,0
-392,36,0,0,0,0,0,0,0,0,0,-1,832,988,0,0
-385,36,0,0,0,0,0,0,0,0,0,-1,839,988,0,0
-378,36,0,0,0,0,0,0,0,0,0,-1,846,988,0,0
-371,36,0,0,0,0,0,0,0,0,0,-1,853,988,0,0
-364,36,0,0,0,0,0,0,0,0,0,-1,860,988,0,0
-357,36,0,0,0,0,0,0,0,0,0,-1,867,988,0,0
-350,36,0,0,0,0,0,0,0,0,0,-1,874,988,0,0
-343,36,0,0,0,0,0,0,0,0,0,-1,881,988,0,0
-336,36,0,0,0,0,0,0,0,0,0,-1,888,988,0,0
-329,36,0,0,0,0,0,0,0,0,0,-1,895,988,0,0
-322,36,0,0,0,0,0,0,0,0,0,-1,902,988,0,0
-315,36,0,0,0,0,0,0,0,0,0,-1,909,988,0,0
-308,36,0,0,0,0,0,0,0,0,0,-1,916,988,0,0
-301,36,0,0,0,0,0,0,0,0,0,-1,923,988,0,0
-294,36,0,0,0,0,0,0,0,0,0,-1,930,988,0,0
-287,36,0,0,0,0,0,0,0,0,0,-1,937,988,0,0
-280,36,0,0,0,0,0,0,0,0,0,-1,944,988,0,0
-273,36,0,0,0,0,0,0,0,0,0,-1,951,988,0,0
-266,36,0,0,0,0,0,0,0,0,0,-1,958,988,0,0
-259,36,0,0,0,0,0,0,0,0,0,-1,965,988,0,0
-252,36,0,0,0,0,0,0,0,0,0,-1,972,988,0,0
-245,36,0,0,0,0,0,0,0,0,0,-1,979,988,0,0
-238,36,0,0,0,0,0,0,0,0,0,-1,986,988,0,0
-231,36,0,0,0,0,0,0,0,0,0,-1,993,988,0,0
-224,36,0,0,0,0,0,0,0,0,0,-1,1000,988,0,0
-217,36,0,0,0,0,0,0,0,0,0,-1,1007,988,0,0
-210,36,0,0,0,0,0,0,0,0,0,-1,1014,988,0,0
-203,36,0,0,0,0,0,0,0,0,0,-1,1021,988,0,0
-196,36,0,0,0,0,0,0,0,0,0,-1,1028,988,0,0
-189,36,0,0,0,0,0,0,0,0,0,-1,1035,988,0,0
-182,36,0,0,0,0,0,0,0,0,0,-1,1042,988,0,0
-175,36,0,0,0,0,0,0,0,0,0,-1,1049,988,0,0
-168,36,0,0,0,0,0,0,0,0,0,-1,1056,988,0,0
-161,36,0,0,0,0,0,0,0,0,0,-1,1063,988,0,0
-154,36,0,0,0,0,0,0,0,0,0,-1,1070,988,0,0
-147,36,0,0,0,0,0,0,0,0,0,-1,1077,988,0,0
-140,36,0,0,0,0,0,0,0,0,0,-1,1084,988,0,0
-133,36,0,0,0,0,0,0,0,0,0,-1,1091,988,0,0
-126,36,0,0,0,0,0,0,0,0,0,-1,1098,988,0,0
-119,36,0,0,0,0,0,0,0,0,0,-1,1105,988,0,0
-112,36,0,0,0,0,0,0,0,0,0,-1,1112,988,0,0
-105,36,0,0,0,0,0,0,0,0,0,-1,1119,988,0,0
-98,36,0,0,0,0,0,0,0,0,0,-1,1126,988,0,0
-91,36,0,0,0,0,0,0,0,0,0,-1,1133,988,0,0
-84,36,0,0,0,0,0,0,0,0,0,-1,1140,988,0,0
-77,36,0,0,0,0,0,0,0,0,0,-1,1147,988,0,0
-70,36,0,0,0,0,0,0,0,0,0,-1,1154,988,0,0
-63,36,0,0,0,0,0,0,0,0,0,-1,1161,988,0,0
-56,36,0,0,0,0,0,0,0,0,0,-1,1168,988,0,0
-49,36,0,0,0,0,0,0,0,0,0,-1,1175,988,0,0
-42,36,0,0,0,0,0,0,0,0,0,-1,1182,988,0,0
-35,36,0,0,0,0,0,0,0,0,0,-1,1189,988,0,0
-28,36,0,0,0,0,0,0,0,0,0,-1,1196,988,0,0
-21,36,0,0,0,0,0,0,0,0,0,-1,1203,988,0,0
-14,36,0,0,0,0,0,0,0,0,0,-1,1210,988,0,0
-7,36,0,0,0,0,0,0,0,0,0,-1,1217,988,0,0
0,36,0,0,0,0,0,0,0,0,0,-1,1224,988,0,0
7,36,0,0,0,0,0,0,0,0,0,-1,1231,988,0,0
14,36,0,0,0,0,0,0,0,0,0,-1,1238,988,0,0
21,36,0,0,0,0,0,0,0,0,0,-1,1245,988,0,0
28,36,0,0,0,0,0,0,0,0,0,-1,1252,988,0,0
35,36,0,0,0,0,0,0,0,0,0,-1,1259,988,0,0
42,36,0,0,0,0,0,0,0,0,0,-1,1266,988,0,0
49,36,0,0,0,0,0,0,0,0,0,-1,1273,988,0,0
56,36,0,0,0,0,0,0,0,0,0,-1,1280,988,0,0
63,36,0,0,0,0,0,0,0,0,0,-1,1287,988,0,0
70,36,0,0,0,0,0,0,0,0,0,-1,1294,988,0,0
77,36,0,0,0,0,0,0,0,0,0,-1,1301,988,0,0
84,36,0,0,0,0,0,0,0,0,0,-1,1308,988,0,0
91,36,0,0,0,0,0,0,0,0,0,-1,1315,988,0,0
98,36,0,0,0,0,0,0,0,0,0,-1,1322,988,0,0
105,36,0,0,0,0,0,0,0,0,0,-1,1329,988,0,0
112,36,0,0,0,0,0,0,0,0,0,-1,1336,988,0,0
119,36,0,0,0,0,0,0,0,0,0,-1,1343,988,0,0
126,36,0,0,0,0,0,0,0,0,0,-1,1350,988,0,0
133,36,0,0,0,0,0,0,0,0,0,-1,1357,988,0,0
140,36,0,0,0,0,0,0,0,0,0,-1,1364,988,0,0
147,36,0,0,0,0,0,0,0,0,0,-1,1371,988,0,0
154,36,0,0,0,0,0,0,0,0,0,-1,1378,988,0,0
161,36,0,0,0,0,0,0,0,0,0,-1,1385,988,0,0
168,36,0,0,0,0,0,0,0,0,0,-1,1392,988,0,0
175,36,0,0,0,0,0,0,0,0,0,-1,1399,988,0,0
182,36,0,0,0,0,0,0,0,0,0,-1,1406,988,0,0
189,36,0,0,0,0,0,0,0,0,0,-1,1413,988,0,0
196,36,0,0,0,0,0,0,0,0,0,-1,1420,988,0,0
203,36,0,0,0,0,0,0,0,0,0,-1,1427,988,0,0
210,36,0,0,0,0,0,0,0,0,0,-1,1434,988,0,0
217,36,0,0,0,0,0,0,0,0,0,-1,1441,988,0,0
224,36,0,0,0,0,0,0,0,0,0,-1,1448,988,0,0
231,36,0,0,0,0,0,0,0,0,0,-1,1455,988,0,0
238,36,0,0,0,0,0,0,0,0,0,-1,1462,988,0,0
245,36,0,0,0,0,0,0,0,0,0,-1,1469,988,0,0
252,36,0,0,0,0,0,0,0,0,0,-1,1476,988,0,0
259,36,0,0,0,0,0,0,0,0,0,-1,1483,988,0,0
266,36,0,0,0,0,0,0,0,0,0,-1,1490,988,0,0
273,36,0,0,0,0,0,0,0,0,0,-1,1497,988,0,0
280,36,0,0,0,0,0,0,0,0,0,-1,1504,988,0,0
287,36,0,0,0,0,0,0,0,0,0,-1,1511,988,0,0
294,36,0,0,0,0,0,0,0,0,0,-1,1518,988,0,0
301,36,0,0,0,0,0,0,0,0,0,-1,1525,988,0,0
308,36,0,0,0,0,0,0,0,0,0,-1,1532,988,0,0
315,36,0,0,0,0,0,0,0,0,0,-1,1539,988,0,0
322,36,0,0,0,0,0,0,0,0,0,-1,1546,988,0,0
329,36,0,0,0,0,0,0,0,0,0,-1,1553,988,0,0
336,36,0,0,0,0,0,0,0,0,0,-1,1560,988,0,0
343,36,0,0,0,0,0,0,0,0,0,-1,1567,988,0,0
350,36,0,0,0,0,0,0,0,0,0,-1,1574,988,0,0
357,36,0,0,0,0,0,0,0,0,0,-1,1581,988,0,0
364,36,0,0,0,0,0,0,0,0,0,-1,1588,988,0,0
371,36,0,0,0,0,0,0,0,0,0,-1,1595,988,0,0
378,36,0,0,0,0,0,0,0,0,0,-1,1602,988,0,0
385,36,0,0,0,0,0,0,0,0,0,-1,1609,988,0,0
392,36,0,0,0,0,0,0,0,0,0,-1,1616,988,0,0
399,36,0,0,0,0,0,0,0,0,0,-1,1623,988,0,0
406,36,0,0,0,0,0,0,0,0,0,-1,1630,988,0,0
413,36,0,0,0,0,0,0,0,0,0,-1,1637,988,0,0
420,36,0,0,0,0,0,0,0,0,0,-1,1644,988,0,0
427,36,0,0,0,0,0,0,0,0,0,-1,1651,988,0,0
434,36,0,0,0,0,0,0,0,0,0,-1,1658,988,0,0
441,36,0,0,0,0,0,0,0,0,0,-1,1665,988,0,0
448,36,0,0,0,0,0,0,0,0,0,-1,1672,988,0,0
455,36,0,0,0,0,0,0,0,0,0,-1,1679,988,0,0
462,36,0,0,0,0,0,0,0,0,0,-1,1686,988,0,0
469,36,0,0,0,0,0,0,0,0,0,-1,1693,988,0,0
476,36,0,0,0,0,0,0,0,0,0,-1,1700,988,0,0
483,36,0,0,0,0,0,0,0,0,0,-1,1707,988,0,0
490,36,0,0,0,0,0,0,0,0,0,-1,1714,988,0,0
497,36,0,0,0,0,0,0,0,0,0,-1,1721,988,0,0
504,36,0,0,0,0,0,0,0,0,0,-1,1728,988,0,0
511,36,0,0,0,0,0,0,0,0,0,-1,1735,988,0,0
518,36,0,0,0,0,0,0,0,0,0,-1,1742,988,0,0
525,36,0,0,0,0,0,0,0,0,0,-1,1749,988,0,0
532,36,0,0,0,0,0,0,0,0,0,-1,1756,988,0,0
539,36,0,0,0,0,0,0,0,0,0,-1,1763,988,0,0
546,36,0,0,0,0,0,0,0,0,0,-1,1770,988,0,0
553,36,0,0,0,0,0,0,0,0,0,-1,1777,988,0,0
560,36,0,0,0,0,0,0,0,0,0,-1,1784,988,0,0
567,36,0,0,0,0,0,0,0,0,0,-1,1791,988,0,0
574,36,0,0,0,0,0,0,0,0,0,-1,1798,988,0,0
581,36,0,0,0,0,0,0,0,0,0,-1,1805,988,0,0
588,36,0,0,0,0,0,0,0,0,0,-1,1812,988,0,0
595,36,0,0,0,0,0,0,0,0,0,-1,1819,988,0,0
602,36,0,0,0,0,0,0,0,0,0,-1,1826,988,0,0
609,36,0,0,0,0,0,0,0,0,0,-1,1833,988,0,0
616,36,0,0,0,0,0,0,0,0,0,-1,1840,988,0,0
623,36,0,0,0,0,0,0,0,0,0,-1,1847,988,0,0
630,36,0,0,0,0,0,0,0,0,0,-1,1854,988,0,0
637,36,0,0,0,0,0,0,0,0,0,-1,1861,988,0,0
644,36,4.22339,0.556274,-0.00288535,0.000678404,0.00216117,0.00169756,-0.0039045,1.13015,0.00331696,0.0417573,1868,988,4.22338,-0.556248
651,36,4.12439,0.84668,-0.00182719,0.000488269,0.00138102,0.00113264,-0.00247156,1.13423,0.00212821,0.0399028,1875,988,4.12441,-0.846654
658,36,4.39832,0.729309,-0.00120075,0.000273175,0.000919314,0.000714453,-0.00164203,1.12327,0.00139521,0.0364997,1882,988,4.39836,-0.729291
665,36,4.42273,0.721924,-0.000859926,0.000106006,0.000708366,0.000480383,-0.0012343,1.0846,0.00102137,0.0351459,1889,988,4.42277,-0.721931
672,36,4.2821,0.688171,-0.000665899,-6.78032e-05,0.000595826,0.000299811,-0.00103351,1.01798,0.000807711,0.0383578,1896,988,4.28208,-0.688185
679,36,4.29028,0.639587,-0.000597701,-0.000211824,0.000542143,0.000170688,-0.000980214,0.956351,0.000717175,0.0402745,1903,988,4.29026,-0.639601
686,36,4.13513,0.711975,-0.000561538,-0.000316058,0.000517819,9.3369e-05,-0.000970965,0.901767,0.000680571,0.0389005,1910,988,4.13508,-0.711974
693,36,4.26001,0.676453,-0.000497178,-0.000417131,0.000507546,5.19673e-05,-0.000966276,0.824745,0.000662186,0.0383643,1917,988,4.25998,-0.676441
700,36,4.23926,0.67749,-0.000365178,-0.000366961,0.000377695,1.16267e-05,-0.000743766,0.784218,0.000499765,0.0339313,1924,988,4.2392,-0.677471
707,36,4.23511,0.648254,-0.00045265,-0.000362999,0.000401407,-3.92267e-06,-0.000811726,0.841003,0.000539848,0.0238227,1931,988,4.23515,-0.648276
714,36,4.26501,0.619202,-0.000582853,-0.000384283,0.000391632,-7.95464e-05,-0.00088759,0.909541,0.000567074,0.0274881,1938,988,4.26505,-0.619177
721,36,4.31104,0.627014,-0.000521621,-0.000362969,0.000337857,-9.52507e-05,-0.00078934,0.900705,0.000497525,0.0312474,1945,988,4.311,-0.627007
728,36,4.26147,0.657227,-0.000397925,-0.000257905,0.000174993,-0.000139437,-0.000516393,0.975684,0.000308473,0.0155162,1952,988,4.26143,-0.657242
735,36,4.22815,0.710754,-0.000104511,7.56781e-05,-0.000203842,0.000208448,-0.000237281,-0.993482,0.000257521,0.014116,1959,988,4.22813,-0.710779
742,36,4.22278,0.722717,0.000362631,0.000329947,-0.000899634,0.00124607,-0.000553493,-0.776317,0.00106432,0.0123948,1966,988,4.22273,-0.722695
749,36,4.23071,0.72522,0.000237973,0.00017006,-0.00144591,0.00165032,-0.00124229,-0.773658,0.00167558,0.0139777,1973,988,4.23071,-0.725247
756,36,4.22559,0.72998,-0.000808809,-0.000304588,-0.00176228,0.00122352,-0.00233692,-0.856446,0.00208885,0.0124229,1980,988,4.22558,-0.729961
763,36,4.21204,0.740356,-0.00294965,-0.000760566,-0.00175066,0.000209552,-0.00391977,-1.06478,0.00268576,0.0141866,1987,988,4.21207,-0.740368
770,36,4.2345,0.7146,-0.00516848,-0.00141828,-0.00192756,-0.000604237,-0.00598252,-1.1712,0.00380297,0.01337,1994,988,4.23448,-0.714578
777,36,4.24036,0.699951,-0.00860847,-0.00241716,-0.00181252,-0.00192557,-0.00910005,-1.30595,0.00553759,0.0234769,2001,988,4.2403,-0.699966
784,36,4.30615,0.635742,-0.0136957,-0.00381846,-0.00124886,-0.003663,-0.0138512,-1.44695,0.00828749,0.0438821,2008,988,4.30621,-0.635728
791,36,4.37683,0.576477,0,0,0,0,0,0,0,-1,2015,988,4.37683,-0.576494
798,36,3.96375,-0.774109,-0.0304013,-0.00771498,0.0022116,-0.00750139,-0.0306149,1.47452,0.0184257,0.0402915,2022,988,3.96377,0.774086
805,36,3.40015,-0.527161,-0.0429328,-0.010066,0.00573839,-0.00909287,-0.0439059,1.40282,0.0267596,0.0463967,2029,988,3.40013,0.527146
812,36,2.74878,0.0255127,-0.0591764,-0.012451,0.0111097,-0.00994404,-0.0616834,1.34886,0.038241,0.0457643,2036,988,2.74873,-0.0254867
-700,29,0,0,0,0,0,0,0,0,0,-1,524,995,0,0
-693,29,0.530701,1.11462,-0.0144902,0.0809913,0.01199,0.0824739,-0.0159728,1.44777,0.0610079,0.0444388,531,995,0.530713,-1.11465
-686,29,-0.0995483,0.682739,-0.0158203,0.061107,0.0114255,0.0627681,-0.0174814,1.42642,0.0487292,0.0420464,538,995,-0.0995351,-0.682758
-679,29,-0.38623,0.464722,-0.0160216,0.0452409,0.0106485,0.047039,-0.0178197,1.40351,0.0386921,0.0437139,545,995,-0.386203,-0.4647
-672,29,-0.367798,0.556824,-0.0154416,0.032661,0.00967081,0.0345325,-0.017313,1.37964,0.0304784,0.0414984,552,995,-0.367768,-0.556819
-665,29,-0.637329,0.749146,0,0,0,0,0,0,0,-1,559,995,-0.637325,-0.749136
-658,29,-0.816467,1.08826,-0.0127968,0.0153726,0.00742786,0.0172112,-0.0146354,1.32814,0.0184067,0.0455112,566,995,-0.816473,-1.08827
-651,29,-0.844116,0.960632,-0.0110257,0.0098788,0.00625452,0.0116072,-0.0127541,1.30118,0.0140702,0.0355173,573,995,-0.844117,-0.960606
-644,29,-0.740723,0.790344,-0.00921075,0.00604945,0.00512919,0.00761321,-0.0107745,1.27487,0.0106683,0.0181174,580,995,-0.740707,-0.790372
-637,29,-0.736877,0.798462,-0.0074386,0.00238841,0.00395718,0.00378377,-0.00883396,1.23179,0.00747683,0.012166,587,995,-0.736873,-0.798479
-630,29,-0.733521,0.798584,-0.00581033,0.000196411,0.00300808,0.00144378,-0.00705769,1.17771,0.00525295,0.0100925,594,995,-0.733516,-0.798614
-623,29,-0.726318,0.785706,-0.00442114,-0.00104176,0.00240638,0.00020891,-0.00567182,1.09149,0.00385274,0.0105261,601,995,-0.7263,-0.785694
-616,29,-0.75238,0.771545,-0.00328197,-0.000755708,0.00157746,2.02027e-06,-0.0040397,1.12299,0.00269381,0.012802,608,995,-0.752395,-0.771529
-609,29,-0.751282,0.77948,-0.00207133,-0.000565273,0.000841558,-0.000189021,-0.00244758,1.15037,0.0015725,0.0176418,615,995,-0.751282,-0.779505
-602,29,-0.737854,0.783813,-0.00105943,-0.00036085,0.000266968,-0.000270509,-0.00114977,1.2445,0.000694144,0.0187065,622,995,-0.737874,-0.783841
-595,29,-0.738281,0.780823,-0.000616218,-0.000170796,-0.000160712,-0.000118864,-0.00066815,-1.25825,0.000411573,0.0182657,629,995,-0.738255,-0.780849
-588,29,-0.747864,0.778259,-0.000391569,-0.000196035,-0.000409605,0.00012731,-0.000714913,-0.902549,0.000524224,0.022267,636,995,-0.747867,-0.778242
-581,29,-0.789063,0.685791,-1.14384e-05,-0.000127423,-0.000638378,0.000571576,-0.000710437,-0.740101,0.000741617,0.0342985,643,995,-0.789067,-0.685802
-574,29,-0.779175,0.769592,0.000466603,-1.42819e-06,-0.000895912,0.00115856,-0.000693383,-0.657651,0.0010804,0.0331697,650,995,-0.779197,-0.7696
-567,29,-0.762939,0.692078,0.000913592,0.000210669,-0.0011633,0.00177737,-0.000653105,-0.638696,0.00145241,0.034382,657,995,-0.762911,-0.692062
-560,29,-0.81665,0.553101,0.00155203,0.000491387,-0.00144769,0.00256348,-0.000520064,-0.609829,0.00190614,0.0393514,664,995,-0.816622,-0.553129
-553,29,-0.828064,0.542175,0.00244433,0.000866223,-0.00175691,0.00358123,-0.000270686,-0.57434,0.00248264,0.0427744,671,995,-0.828043,-0.542179
-546,29,-0.825562,0.62146,0.00370662,0.00132962,-0.00211294,0.00494239,9.38585e-05,-0.529209,0.00326409,0.0438526,678,995,-0.825541,-0.621451
-539,29,-0.759644,0.763672,0.00546758,0.00187545,-0.00254304,0.00678486,0.000558171,-0.477939,0.00434914,0.0431692,685,995,-0.759672,-0.763695
-532,29,-0.686157,0.901001,0.00779968,0.00250371,-0.00308919,0.00922047,0.00108292,-0.431075,0.00581969,0.0462826,692,995,-0.686143,-0.900981
-525,29,-0.65094,0.666138,0.0109033,0.00312472,-0.0037319,0.0124041,0.00162386,-0.382376,0.00778479,0.0437374,699,995,-0.650936,-0.666147
-518,29,0,0,0,0,0,0,0,0,0,-1,706,995,0,0
-511,29,0,0,0,0,0,0,0,0,0,-1,713,995,0,0
-504,29,0,0,0,0,0,0,0,0,0,-1,720,995,0,0
-497,29,0,0,0,0,0,0,0,0,0,-1,727,995,0,0
-490,29,0,0,0,0,0,0,0,0,0,-1,734,995,0,0
-483,29,0,0,0,0,0,0,0,0,0,-1,741,995,0,0
-476,29,0,0,0,0,0,0,0,0,0,-1,748,995,0,0
-469,29,0,0,0,0,0,0,0,0,0,-1,755,995,0,0
-462,29,0,0,0,0,0,0,0,0,0,-1,762,995,0,0
-455,29,0,0,0,0,0,0,0,0,0,-1,769,995,0,0
-448,29,0,0,0,0,0,0,0,0,0,-1,776,995,0,0
-441,29,0,0,0,0,0,0,0,0,0,-1,783,995,0,0
-434,29,0,0,0,0,0,0,0,0,0,-1,790,995,0,0
-427,29,0,0,0,0,0,0,0,0,0,-1,797,995,0,0
-420,29,0,0,0,0,0,0,0,0,0,-1,804,995,0,0
-413,29,0,0,0,0,0,0,0,0,0,-1,811,995,0,0
-406,29,0,0,0,0,0,0,0,0,0,-1,818,995,0,0
-399,29,0,0,0,0,0,0,0,0,0,-1,825,995,0,0
-392,29,0,0,0,0,0,0,0,0,0,-1,832,995,0,0
-385,29,0,0,0,0,0,0,0,0,0,-1,839,995,0,0
-378,29,0,0,0,0,0,0,0,0,0,-1,846,995,0,0
-371,29,0,0,0,0,0,0,0,0,0,-1,853,995,0,0
-364,29,0,0,0,0,0,0,0,0,0,-1,860,995,0,0
-357,29,0,0,0,0,0,0,0,0,0,-1,867,995,0,0
-350,29,0,0,0,0,0,0,0,0,0,-1,874,995,0,0
-343,29,0,0,0,0,0,0,0,0,0,-1,881,995,0,0
-336,29,0,0,0,0,0,0,0,0,0,-1,888,995,0,0
-329,29,0,0,0,0,0,0,0,0,0,-1,895,995,0,0
-322,29,0,0,0,0,0,0,0,0,0,-1,902,995,0,0
-315,29,0,0,0,0,0,0,0,0,0,-1,909,995,0,0
-308,29,0,0,0,0,0,0,0,0,0,-1,916,995,0,0
-301,29,0,0,0,0,0,0,0,0,0,-1,923,995,0,0
-294,29,0,0,0,0,0,0,0,0,0,-1,930,995,0,0
-287,29,0,0,0,0,0,0,0,0,0,-1,937,995,0,0
-280,29,0,0,0,0,0,0,0,0,0,-1,944,995,0,0
-273,29,0,0,0,0,0,0,0,0,0,-1,951,995,0,0
-266,29,0,0,0,0,0,0,0,0,0,-1,958,995,0,0
-259,29,0,0,0,0,0,0,0,0,0,-1,965,995,0,0
-252,29,0,0,0,0,0,0,0,0,0,-1,972,995,0,0
-245,29,0,0,0,0,0,0,0,0,0,-1,979,995,0,0
-238,29,0,0,0,0,0,0,0,0,0,-1,986,995,0,0
-231,29,0,0,0,0,0,0,0,0,0,-1,993,995,0,0
-224,29,0,0,0,0,0,0,0,0,0,-1,1000,995,0,0
-217,29,0,0,0,0,0,0,0,0,0,-1,1007,995,0,0
-210,29,0,0,0,0,0,0,0,0,0,-1,1014,995,0,0
-203,29,0,0,0,0,0,0,0,0,0,-1,1021,995,0,0
-196,29,0,0,0,0,0,0,0,0,0,-1,1028,995,0,0
-189,29,0,0,0,0,0,0,0,0,0,-1,1035,995,0,0
-182,29,0,0,0,0,0,0,0,0,0,-1,1042,995,0,0
-175,29,0,0,0,0,0,0,0,0,0,-1,1049,995,0,0
-168,29,0,0,0,0,0,0,0,0,0,-1,1056,995,0,0
-161,29,0,0,0,0,0,0,0,0,0,-1,1063,995,0,0
-154,29,0,0,0,0,0,0,0,0,0,-1,1070,995,0,0
-147,29,0,0,0,0,0,0,0,0,0,-1,1077,995,0,0
-140,29,0,0,0,0,0,0,0,0,0,-1,1084,995,0,0
-133,29,0,0,0,0,0,0,0,0,0,-1,1091,995,0,0
-126,29,0,0,0,0,0,0,0,0,0,-1,1098,995,0,0
-119,29,0,0,0,0,0,0,0,0,0,-1,1105,995,0,0
-112,29,0,0,0,0,0,0,0,0,0,-1,1112,995,0,0
-105,29,0,0,0,0,0,0,0,0,0,-1,1119,995,0,0
-98,29,0,0,0,0,0,0,0,0,0,-1,1126,995,0,0
-91,29,0,0,0,0,0,0,0,0,0,-1,1133,995,0,0
-84,29,0,0,0,0,0,0,0,0,0,-1,1140,995,0,0
-77,29,0,0,0,0,0,0,0,0,0,-1,1147,995,0,0
-70,29,0,0,0,0,0,0,0,0,0,-1,1154,995,0,0
-63,29,0,0,0,0,0,0,0,0,0,-1,1161,995,0,0
-56,29,0,0,0,0,0,0,0,0,0,-1,1168,995,0,0
-49,29,0,0,0,0,0,0,0,0,0,-1,1175,995,0,0
-42,29,0,0,0,0,0,0,0,0,0,-1,1182,995,0,0
-35,29,0,0,0,0,0,0,0,0,0,-1,1189,995,0,0
-28,29,0,0,0,0,0,0,0,0,0,-1,1196,995,0,0
-21,29,0,0,0,0,0,0,0,0,0,-1,1203,995,0,0
-14,29,0,0,0,0,0,0,0,0,0,-1,1210,995,0,0
-7,29,0,0,0,0,0,0,0,0,0,-1,1217,995,0,0
0,29,0,0,0,0,0,0,0,0,0,-1,1224,995,0,0
7,29,0,0,0,0,0,0,0,0,0,-1,1231,995,0,0
14,29,0,0,0,0,0,0,0,0,0,-1,1238,995,0,0
21,29,0,0,0,0,0,0,0,0,0,-1,1245,995,0,0
28,29,0,0,0,0,0,0,0,0,0,-1,1252,995,0,0
35,29,0,0,0,0,0,0,0,0,0,-1,1259,995,0,0
42,29,0,0,0,0,0,0,0,0,0,-1,1266,995,0,0
49,29,0,0,0,0,0,0,0,0,0,-1,1273,995,0,0
56,29,0,0,0,0,0,0,0,0,0,-1,1280,995,0,0
63,29,0,0,0,0,0,0,0,0,0,-1,1287,995,0,0
70,29,0,0,0,0,0,0,0,0,0,-1,1294,995,0,0
77,29,0,0,0,0,0,0,0,0,0,-1,1301,995,0,0
84,29,0,0,0,0,0,0,0,0,0,-1,1308,995,0,0
91,29,0,0,0,0,0,0,0,0,0,-1,1315,995,0,0
98,29,0,0,0,0,0,0,0,0,0,-1,1322,995,0,0
105,29,0,0,0,0,0,0,0,0,0,-1,1329,995,0,0
112,29,0,0,0,0,0,0,0,0,0,-1,1336,995,0,0
119,29,0,0,0,0,0,0,0,0,0,-1,1343,995,0,0
126,29,0,0,0,0,0,0,0,0,0,-1,1350,995,0,0
133,29,0,0,0,0,0,0,0,0,0,-1,1357,995,0,0
140,29,0,0,0,0,0,0,0,0,0,-1,1364,995,0,0
147,29,0,0,0,0,0,0,0,0,0,-1,1371,995,0,0
154,29,0,0,0,0,0,0,0,0,0,-1,1378,995,0,0
161,29,0,0,0,0,0,0,0,0,0,-1,1385,995,0,0
168,29,0,0,0,0,0,0,0,0,0,-1,1392,995,0,0
175,29,0,0,0,0,0,0,0,0,0,-1,1399,995,0,0
182,29,0,0,0,0,0,0,0,0,0,-1,1406,995,0,0
189,29,0,0,0,0,0,0,0,0,0,-1,1413,995,0,0
196,29,0,0,0,0,0,0,0,0,0,-1,1420,995,0,0
203,29,0,0,0,0,0,0,0,0,0,-1,1427,995,0,0
210,29,0,0,0,0,0,0,0,0,0,-1,1434,995,0,0
217,29,0,0,0,0,0,0,0,0,0,-1,1441,995,0,0
224,29,0,0,0,0,0,0,0,0,0,-1,1448,995,0,0
231,29,0,0,0,0,0,0,0,0,0,-1,1455,995,0,0
238,29,0,0,0,0,0,0,0,0,0,-1,1462,995,0,0
245,29,0,0,0,0,0,0,0,0,0,-1,1469,995,0,0
252,29,0,0,0,0,0,0,0,0,0,-1,1476,995,0,0
259,29,0,0,0,0,0,0,0,0,0,-1,1483,995,0,0
266,29,0,0,0,0,0,0,0,0,0,-1,1490,995,0,0
273,29,0,0,0,0,0,0,0,0,0,-1,1497,995,0,0
280,29,0,0,0,0,0,0,0,0,0,-1,1504,995,0,0
287,29,0,0,0,0,0,0,0,0,0,-1,1511,995,0,0
294,29,0,0,0,0,0,0,0,0,0,-1,1518,995,0,0
301,29,0,0,0,0,0,0,0,0,0,-1,1525,995,0,0
308,29,0,0,0,0,0,0,0,0,0,-1,1532,995,0,0
315,29,0,0,0,0,0,0,0,0,0,-1,1539,995,0,0
322,29,0,0,0,0,0,0,0,0,0,-1,1546,995,0,0
329,29,0,0,0,0,0,0,0,0,0,-1,1553,995,0,0
336,29,0,0,0,0,0,0,0,0,0,-1,1560,995,0,0
343,29,0,0,0,0,0,0,0,0,0,-1,1567,995,0,0
350,29,0,0,0,0,0,0,0,0,0,-1,1574,995,0,0
357,29,0,0,0,0,0,0,0,0,0,-1,1581,995,0,0
364,29,0,0,0,0,0,0,0,0,0,-1,1588,995,0,0
371,29,0,0,0,0,0,0,0,0,0,-1,1595,995,0,0
378,29,0,0,0,0,0,0,0,0,0,-1,1602,995,0,0
385,29,0,0,0,0,0,0,0,0,0,-1,1609,995,0,0
392,29,0,0,0,0,0,0,0,0,0,-1,1616,995,0,0
399,29,0,0,0,0,0,0,0,0,0,-1,1623,995,0,0
406,29,0,0,0,0,0,0,0,0,0,-1,1630,995,0,0
413,29,0,0,0,0,0,0,0,0,0,-1,1637,995,0,0
420,29,0,0,0,0,0,0,0,0,0,-1,1644,995,0,0
427,29,0,0,0,0,0,0,0,0,0,-1,1651,995,0,0
434,29,0,0,0,0,0,0,0,0,0,-1,1658,995,0,0
441,29,0,0,0,0,0,0,0,0,0,-1,1665,995,0,0
448,29,0,0,0,0,0,0,0,0,0,-1,1672,995,0,0
455,29,0,0,0,0,0,0,0,0,0,-1,1679,995,0,0
462,29,0,0,0,0,0,0,0,0,0,-1,1686,995,0,0
469,29,0,0,0,0,0,0,0,0,0,-1,1693,995,0,0
476,29,0,0,0,0,0,0,0,0,0,-1,1700,995,0,0
483,29,0,0,0,0,0,0,0,0,0,-1,1707,995,0,0
490,29,0,0,0,0,0,0,0,0,0,-1,1714,995,0,0
497,29,0,0,0,0,0,0,0,0,0,-1,1721,995,0,0
504,29,0,0,0,0,0,0,0,0,0,-1,1728,995,0,0
511,29,0,0,0,0,0,0,0,0,0,-1,1735,995,0,0
518,29,0,0,0,0,0,0,0,0,0,-1,1742,995,0,0
525,29,0,0,0,0,0,0,0,0,0,-1,1749,995,0,0
532,29,0,0,0,0,0,0,0,0,0,-1,1756,995,0,0
539,29,0,0,0,0,0,0,0,0,0,-1,1763,995,0,0
546,29,0,0,0,0,0,0,0,0,0,-1,1770,995,0,0
553,29,0,0,0,0,0,0,0,0,0,-1,1777,995,0,0
560,29,0,0,0,0,0,0,0,0,0,-1,1784,995,0,0
567,29,0,0,0,0,0,0,0,0,0,-1,1791,995,0,0
574,29,0,0,0,0,0,0,0,0,0,-1,1798,995,0,0
581,29,0,0,0,0,0,0,0,0,0,-1,1805,995,0,0
588,29,0,0,0,0,0,0,0,0,0,-1,1812,995,0,0
595,29,0,0,0,0,0,0,0,0,0,-1,1819,995,0,0
602,29,0,0,0,0,0,0,0,0,0,-1,1826,995,0,0
609,29,0,0,0,0,0,0,0,0,0,-1,1833,995,0,0
616,29,0,0,0,0,0,0,0,0,0,-1,1840,995,0,0
623,29,0,0,0,0,0,0,0,0,0,-1,1847,995,0,0
630,29,0,0,0,0,0,0,0,0,0,-1,1854,995,0,0
637,29,0,0,0,0,0,0,0,0,0,-1,1861,995,0,0
644,29,4.22607,0.812134,-0.00194424,0.000891128,0.00203809,0.00195611,-0.00300922,1.08928,0.00288815,0.0432882,1868,995,4.2261,-0.812162
651,29,4.08167,1.07312,-0.00123311,0.000614587,0.00140235,0.00137005,-0.00198857,1.07666,0.00195003,0.0442433,1875,995,4.08168,-1.0731
658,29,4.18213,0.674133,-0.000811639,0.000315563,0.000985169,0.000886953,-0.00138303,1.04522,0.00132097,0.0414895,1882,995,4.18215,-0.674144
665,29,4.24341,0.800476,-0.000605758,0.000103445,0.000798256,0.000622316,-0.00112463,0.994417,0.0010224,0.0392853,1889,995,4.24344,-0.800453
672,29,4.15747,0.747925,-0.000486275,-9.01524e-05,0.000701969,0.000441162,-0.00101759,0.922899,0.00086385,0.0386321,1896,995,4.15744,-0.747921
679,29,4.20874,0.696899,-0.000457122,-0.000243288,0.000641148,0.000299797,-0.00100021,0.868017,0.000786031,0.039401,1903,995,4.20874,-0.696888
686,29,4.18909,0.68988,-0.00043976,-0.000343638,0.000603101,0.000213314,-0.000996712,0.825159,0.000745818,0.038257,1910,995,4.18911,-0.68988
693,29,4.20996,0.765869,-0.00039934,-0.000425478,0.00056291,0.000150652,-0.00097547,0.773791,0.00070591,0.0367282,1917,995,4.20993,-0.76587
700,29,4.21765,0.731689,-0.000275935,-0.000363132,0.000427885,0.000110567,-0.000749634,0.734627,0.000540395,0.0333048,1924,995,4.21761,-0.731702
707,29,4.22522,0.66333,-0.000345389,-0.000358038,0.000468201,0.00011653,-0.000819957,0.778645,0.000589334,0.0224155,1931,995,4.22517,-0.663304
714,29,4.27026,0.622803,-0.000468945,-0.000356297,0.000447227,3.81384e-05,-0.00086338,0.848038,0.000588712,0.0235154,1938,995,4.27028,-0.622797
721,29,4.28467,0.625488,-0.000410026,-0.000326132,0.000354453,-1.11526e-05,-0.000725005,0.844296,0.000479662,0.0278072,1945,995,4.2847,-0.625508
728,29,4.23499,0.656006,-0.000273546,-0.000219309,0.000158557,-8.55683e-05,-0.000407287,0.870095,0.000247973,0.0160843,1952,995,4.23495,-0.655983
735,29,4.21631,0.697388,3.26143e-05,4.46299e-05,-0.00026036,0.000299052,-0.000221808,-0.796933,0.000301819,0.0133517,1959,995,4.21625,-0.697362
742,29,4.21704,0.7276,0.000502369,0.000227817,-0.000830183,0.00120655,-0.000476363,-0.703462,0.00100165,0.0114562,1966,995,4.21705,-0.72759
749,29,4.22583,0.729309,0.000369408,-0.000217887,-0.00128836,0.00139716,-0.00124564,-0.673351,0.00152666,0.0122041,1973,995,4.22583,-0.729311
756,29,4.23364,0.743042,-0.000720209,-0.000966085,-0.00149484,0.000656741,-0.00234304,-0.74437,0.00182085,0.0112739,1980,995,4.2336,-0.743033
763,29,4.23523,0.749451,-0.00291709,-0.00175319,-0.00135957,-0.000856258,-0.00381402,-0.98762,0.00231076,0.0102316,1987,995,4.2352,-0.749425
770,29,4.22498,0.731079,-0.00517645,-0.00285863,-0.00136821,-0.00222448,-0.0058106,-1.13678,0.00338531,0.0110993,1994,995,4.22495,-0.731068
777,29,4.23547,0.749573,-0.00867795,-0.00441673,-0.00101718,-0.00418637,-0.0089083,-1.34809,0.00514631,0.0207168,2001,995,4.23544,-0.749558
784,29,4.34009,0.536865,-0.0138592,-0.00651177,-0.000169256,-0.00650787,-0.0138631,-1.54778,0.00800885,0.041467,2008,995,4.3401,-0.536873
791,29,4.44885,0.339417,0,0,0,0,0,0,0,-1,2015,995,4.44883,-0.339391
798,29,4.07825,-0.292236,-0.0309519,-0.0122388,0.00396201,-0.0114345,-0.0317562,1.37052,0.0185722,0.0396967,2022,995,4.07825,0.292256
805,29,3.57288,-0.341553,-0.0438189,-0.015755,0.00784863,-0.0137091,-0.0458648,1.3158,0.0271846,0.0451345,2029,995,3.57285,0.341556
812,29,2.91992,-0.0777588,-0.0605381,-0.0195213,0.0135602,-0.0154436,-0.0646157,1.27869,0.0389632,0.0462096,2036,995,2.91988,0.07778
-700,22,0,0,0,0,0,0,0,0,0,-1,524,1002,0,0
-693,22,0.216919,0.401855,-0.014967,0.0774708,0.0121506,0.0790413,-0.0165375,1.44226,0.0589846,0.0441161,531,1002,0.216907,-0.401886
-686,22,0.233337,0.00817871,-0.0150958,0.0601742,0.011389,0.0618597,-0.0167813,1.42387,0.0478253,0.042236,538,1002,0.233311,-0.00820106
-679,22,0.0941772,-0.214172,-0.014502,0.0457873,0.010457,0.0475495,-0.0162642,1.40384,0.0382903,0.0450086,545,1002,0.0941775,0.214177
-672,22,-0.2547,0.591248,0,0,0,0,0,0,0,-1,552,1002,-0.254719,-0.591253
-665,22,-0.506958,0.71344,0,0,0,0,0,0,0,-1,559,1002,-0.50696,-0.713469
-658,22,-0.713989,0.552979,-0.0106241,0.0171157,0.00708774,0.0188218,-0.0123301,1.33459,0.0181153,0.0429093,566,1002,-0.714019,-0.553005
-651,22,-0.863403,0.684631,-0.00901108,0.0114966,0.0059272,0.0130865,-0.0106009,1.30874,0.013701,0.0352763,573,1002,-0.863401,-0.684611
-644,22,-0.726379,0.761353,-0.00747617,0.00748889,0.00486269,0.00893015,-0.00891743,1.28265,0.0103043,0.0155261,580,1002,-0.726397,-0.761362
-637,22,-0.733826,0.784546,-0.00596405,0.00365502,0.00367148,0.00489622,-0.00720525,1.24479,0.00702906,0.0115581,587,1002,-0.733818,-0.784545
-630,22,-0.741028,0.780273,-0.0045292,0.00115607,0.00274143,0.00226261,-0.00563574,1.18716,0.00469669,0.0108445,594,1002,-0.741014,-0.780257
-623,22,-0.740234,0.76178,-0.00331968,-0.000476333,0.00218848,0.000711704,-0.00450772,1.07345,0.00326832,0.0100113,601,1002,-0.740243,-0.76177
-616,22,-0.758972,0.773865,-0.0024409,-0.000408173,0.00140593,0.000310295,-0.00315937,1.09837,0.00221693,0.0167016,608,1002,-0.758955,-0.773873
-609,22,-0.797974,0.783569,-0.00147162,-0.000421736,0.000697657,-7.35864e-05,-0.00181977,1.10793,0.00118941,0.0247213,615,1002,-0.797948,-0.783559
-602,22,-0.818542,0.774353,-0.000598532,-0.00034146,7.99509e-05,-0.000318623,-0.000621368,1.29257,0.000358786,0.0223979,622,1002,-0.818513,-0.774369
-595,22,-0.768066,0.749512,-0.000244633,-0.000188064,-0.000332705,0.000117557,-0.000550254,-0.827803,0.000411655,0.0200463,629,1002,-0.768057,-0.749499
-588,22,-0.781128,0.696289,-2.01797e-05,-0.000212427,-0.000589119,0.000480606,-0.000713213,-0.704528,0.000693599,0.026469,636,1002,-0.781145,-0.696291
-581,22,-0.828796,0.643555,0.000372308,-0.000147167,-0.00082377,0.000976319,-0.000751178,-0.63268,0.00100019,0.0401272,643,1002,-0.828772,-0.643583
-574,22,-0.779358,0.733093,0.000824765,-2.48964e-05,-0.00107668,0.0015574,-0.000757532,-0.597488,0.00136286,0.0369511,650,1002,-0.779382,-0.733092
-567,22,-0.731934,0.720825,0.00124841,0.000170734,-0.00131661,0.00213218,-0.000713034,-0.591166,0.00170944,0.0337616,657,1002,-0.731939,-0.720844
-560,22,-0.791809,0.563965,0.00182126,0.00045447,-0.00155495,0.00283637,-0.000560634,-0.578355,0.00210285,0.0387394,664,1002,-0.791835,-0.563942
-553,22,-0.917847,0.54541,0.00261322,0.000825815,-0.00177264,0.0037047,-0.000265671,-0.551912,0.00256295,0.0424482,671,1002,-0.917821,-0.545423
-546,22,-0.984863,0.660095,0.00374294,0.0012721,-0.00197178,0.00483436,0.000180688,-0.505541,0.0031644,0.0428664,678,1002,-0.984854,-0.660109
-539,22,-0.925415,0.761597,0.00535153,0.00177034,-0.00215958,0.00636628,0.000755584,-0.439269,0.00401609,0.0412987,685,1002,-0.925437,-0.761594
-532,22,-0.76355,0.778931,0.00753829,0.00229695,-0.00234117,0.00843173,0.00140351,-0.364563,0.00521664,0.0410967,692,1002,-0.763557,-0.77893
-525,22,0,0,0,0,0,0,0,0,0,-1,699,1002,0,0
-518,22,0,0,0,0,0,0,0,0,0,-1,706,1002,0,0
-511,22,0,0,0,0,0,0,0,0,0,-1,713,1002,0,0
-504,22,0,0,0,0,0,0,0,0,0,-1,720,1002,0,0
-497,22,0,0,0,0,0,0,0,0,0,-1,727,1002,0,0
-490,22,0,0,0,0,0,0,0,0,0,-1,734,1002,0,0
-483,22,0,0,0,0,0,0,0,0,0,-1,741,1002,0,0
-476,22,0,0,0,0,0,0,0,0,0,-1,748,1002,0,0
-469,22,0,0,0,0,0,0,0,0,0,-1,755,1002,0,0
-462,22,0,0,0,0,0,0,0,0,0,-1,762,1002,0,0
-455,22,0,0,0,0,0,0,0,0,0,-1,769,1002,0,0
-448,22,0,0,0,0,0,0,0,0,0,-1,776,1002,0,0
-441,22,0,0,0,0,0,0,0,0,0,-1,783,1002,0,0
-434,22,0,0,0,0,0,0,0,0,0,-1,790,1002,0,0
-427,22,0,0,0,0,0,0,0,0,0,-1,797,1002,0,0
-420,22,0,0,0,0,0,0,0,0,0,-1,804,1002,0,0
-413,22,0,0,0,0,0,0,0,0,0,-1,811,1002,0,0
-406,22,0,0,0,0,0,0,0,0,0,-1,818,1002,0,0
-399,22,0,0,0,0,0,0,0,0,0,-1,825,1002,0,0
-392,22,0,0,0,0,0,0,0,0,0,-1,832,1002,0,0
-385,22,0,0,0,0,0,0,0,0,0,-1,839,1002,0,0
-378,22,0,0,0,0,0,0,0,0,0,-1,846,1002,0,0
-371,22,0,0,0,0,0,0,0,0,0,-1,853,1002,0,0
-364,22,0,0,0,0,0,0,0,0,0,-1,860,1002,0,0
-357,22,0,0,0,0,0,0,0,0,0,-1,867,1002,0,0
-350,22,0,0,0,0,0,0,0,0,0,-1,874,1002,0,0
-343,22,0,0,0,0,0,0,0,0,0,-1,881,1002,0,0
-336,22,0,0,0,0,0,0,0,0,0,-1,888,1002,0,0
-329,22,0,0,0,0,0,0,0,0,0,-1,895,1002,0,0
-322,22,0,0,0,0,0,0,0,0,0,-1,902,1002,0,0
-315,22,0,0,0,0,0,0,0,0,0,-1,909,1002,0,0
-308,22,0,0,0,0,0,0,0,0,0,-1,916,1002,0,0
-301,22,0,0,0,0,0,0,0,0,0,-1,923,1002,0,0
-294,22,0,0,0,0,0,0,0,0,0,-1,930,1002,0,0
-287,22,0,0,0,0,0,0,0,0,0,-1,937,1002,0,0
-280,22,0,0,0,0,0,0,0,0,0,-1,944,1002,0,0
-273,22,0,0,0,0,0,0,0,0,0,-1,951,1002,0,0
-266,22,0,0,0,0,0,0,0,0,0,-1,958,1002,0,0
-259,22,0,0,0,0,0,0,0,0,0,-1,965,1002,0,0
-252,22,0,0,0,0,0,0,0,0,0,-1,972,1002,0,0
-245,22,0,0,0,0,0,0,0,0,0,-1,979,1002,0,0
-238,22,0,0,0,0,0,0,0,0,0,-1,986,1002,0,0
-231,22,0,0,0,0,0,0,0,0,0,-1,993,1002,0,0
-224,22,0,0,0,0,0,0,0,0,0,-1,1000,1002,0,0
-217,22,0,0,0,0,0,0,0,0,0,-1,1007,1002,0,0
-210,22,0,0,0,0,0,0,0,0,0,-1,1014,1002,0,0
-203,22,0,0,0,0,0,0,0,0,0,-1,1021,1002,0,0
-196,22,0,0,0,0,0,0,0,0,0,-1,1028,1002,0,0
-189,22,0,0,0,0,0,0,0,0,0,-1,1035,1002,0,0
-182,22,0,0,0,0,0,0,0,0,0,-1,1042,1002,0,0
-175,22,0,0,0,0,0,0,0,0,0,-1,1049,1002,0,0
-168,22,0,0,0,0,0,0,0,0,0,-1,1056,1002,0,0
-161,22,0,0,0,0,0,0,0,0,0,-1,1063,1002,0,0
-154,22,0,0,0,0,0,0,0,0,0,-1,1070,1002,0,0
-147,22,0,0,0,0,0,0,0,0,0,-1,1077,1002,0,0
-140,22,0,0,0,0,0,0,0,0,0,-1,1084,1002,0,0
-133,22,0,0,0,0,0,0,0,0,0,-1,1091,1002,0,0
-126,22,0,0,0,0,0,0,0,0,0,-1,1098,1002,0,0
-119,22,0,0,0,0,0,0,0,0,0,-1,1105,1002,0,0
-112,22,0,0,0,0,0,0,0,0,0,-1,1112,1002,0,0
-105,22,0,0,0,0,0,0,0,0,0,-1,1119,1002,0,0
-98,22,0,0,0,0,0,0,0,0,0,-1,1126,1002,0,0
-91,22,0,0,0,0,0,0,0,0,0,-1,1133,1002,0,0
-84,22,0,0,0,0,0,0,0,0,0,-1,1140,1002,0,0
-77,22,0,0,0,0,0,0,0,0,0,-1,1147,1002,0,0
-70,22,0,0,0,0,0,0,0,0,0,-1,1154,1002,0,0
-63,22,0,0,0,0,0,0,0,0,0,-1,1161,1002,0,0
-56,22,0,0,0,0,0,0,0,0,0,-1,1168,1002,0,0
-49,22,0,0,0,0,0,0,0,0,0,-1,1175,1002,0,0
-42,22,0,0,0,0,0,0,0,0,0,-1,1182,1002,0,0
-35,22,0,0,0,0,0,0,0,0,0,-1,1189,1002,0,0
-28,22,0,0,0,0,0,0,0,0,0,-1,1196,1002,0,0
-21,22,0,0,0,0,0,0,0,0,0,-1,1203,1002,0,0
-14,22,0,0,0,0,0,0,0,0,0,-1,1210,1002,0,0
-7,22,0,0,0,0,0,0,0,0,0,-1,1217,1002,0,0
0,22,0,0,0,0,0,0,0,0,0,-1,1224,1002,0,0
7,22,0,0,0,0,0,0,0,0,0,-1,1231,1002,0,0
14,22,0,0,0,0,0,0,0,0,0,-1,1238,1002,0,0
21,22,0,0,0,0,0,0,0,0,0,-1,1245,1002,0,0
28,22,0,0,0,0,0,0,0,0,0,-1,1252,1002,0,0
35,22,0,0,0,0,0,0,0,0,0,-1,1259,1002,0,0
42,22,0,0,0,0,0,0,0,0,0,-1,1266,1002,0,0
49,22,0,0,0,0,0,0,0,0,0,-1,1273,1002,0,0
56,22,0,0,0,0,0,0,0,0,0,-1,1280,1002,0,0
63,22,0,0,0,0,0,0,0,0,0,-1,1287,1002,0,0
70,22,0,0,0,0,0,0,0,0,0,-1,1294,1002,0,0
77,22,0,0,0,0,0,0,0,0,0,-1,1301,1002,0,0
84,22,0,0,0,0,0,0,0,0,0,-1,1308,1002,0,0
91,22,0,0,0,0,0,0,0,0,0,-1,1315,1002,0,0
98,22,0,0,0,0,0,0,0,0,0,-1,1322,1002,0,0
105,22,0,0,0,0,0,0,0,0,0,-1,1329,1002,0,0
112,22,0,0,0,0,0,0,0,0,0,-1,1336,1002,0,0
119,22,0,0,0,0,0,0,0,0,0,-1,1343,1002,0,0
126,22,0,0,0,0,0,0,0,0,0,-1,1350,1002,0,0
133,22,0,0,0,0,0,0,0,0,0,-1,1357,1002,0,0
140,22,0,0,0,0,0,0,0,0,0,-1,1364,1002,0,0
147,22,0,0,0,0,0,0,0,0,0,-1,1371,1002,0,0
154,22,0,0,0,0,0,0,0,0,0,-1,1378,1002,0,0
161,22,0,0,0,0,0,0,0,0,0,-1,1385,1002,0,0
168,22,0,0,0,0,0,0,0,0,0,-1,1392,1002,0,0
175,22,0,0,0,0,0,0,0,0,0,-1,1399,1002,0,0
182,22,0,0,0,0,0,0,0,0,0,-1,1406,1002,0,0
189,22,0,0,0,0,0,0,0,0,0,-1,1413,1002,0,0
196,22,0,0,0,0,0,0,0,0,0,-1,1420,1002,0,0
203,22,0,0,0,0,0,0,0,0,0,-1,1427,1002,0,0
210,22,0,0,0,0,0,0,0,0,0,-1,1434,1002,0,0
217,22,0,0,0,0,0,0,0,0,0,-1,1441,1002,0,0
224,22,0,0,0,0,0,0,0,0,0,-1,1448,1002,0,0
231,22,0,0,0,0,0,0,0,0,0,-1,1455,1002,0,0
238,22,0,0,0,0,0,0,0,0,0,-1,1462,1002,0,0
245,22,0,0,0,0,0,0,0,0,0,-1,1469,1002,0,0
252,22,0,0,0,0,0,0,0,0,0,-1,1476,1002,0,0
259,22,0,0,0,0,0,0,0,0,0,-1,1483,1002,0,0
266,22,0,0,0,0,0,0,0,0,0,-1,1490,1002,0,0
273,22,0,0,0,0,0,0,0,0,0,-1,1497,1002,0,0
280,22,0,0,0,0,0,0,0,0,0,-1,1504,1002,0,0
287,22,0,0,0,0,0,0,0,0,0,-1,1511,1002,0,0
294,22,0,0,0,0,0,0,0,0,0,-1,1518,1002,0,0
301,22,0,0,0,0,0,0,0,0,0,-1,1525,1002,0,0
308,22,0,0,0,0,0,0,0,0,0,-1,1532,1002,0,0
315,22,0,0,0,0,0,0,0,0,0,-1,1539,1002,0,0
322,22,0,0,0,0,0,0,0,0,0,-1,1546,1002,0,0
329,22,0,0,0,0,0,0,0,0,0,-1,1553,1002,0,0
336,22,0,0,0,0,0,0,0,0,0,-1,1560,1002,0,0
343,22,0,0,0,0,0,0,0,0,0,-1,1567,1002,0,0
350,22,0,0,0,0,0,0,0,0,0,-1,1574,1002,0,0
357,22,0,0,0,0,0,0,0,0,0,-1,1581,1002,0,0
364,22,0,0,0,0,0,0,0,0,0,-1,1588,1002,0,0
371,22,0,0,0,0,0,0,0,0,0,-1,1595,1002,0,0
378,22,0,0,0,0,0,0,0,0,0,-1,1602,1002,0,0
385,22,0,0,0,0,0,0,0,0,0,-1,1609,1002,0,0
392,22,0,0,0,0,0,0,0,0,0,-1,1616,1002,0,0
399,22,0,0,0,0,0,0,0,0,0,-1,1623,1002,0,0
406,22,0,0,0,0,0,0,0,0,0,-1,1630,1002,0,0
413,22,0,0,0,0,0,0,0,0,0,-1,1637,1002,0,0
420,22,0,0,0,0,0,0,0,0,0,-1,1644,1002,0,0
427,22,0,0,0,0,0,0,0,0,0,-1,1651,1002,0,0
434,22,0,0,0,0,0,0,0,0,0,-1,1658,1002,0,0
441,22,0,0,0,0,0,0,0,0,0,-1,1665,1002,0,0
448,22,0,0,0,0,0,0,0,0,0,-1,1672,1002,0,0
455,22,0,0,0,0,0,0,0,0,0,-1,1679,1002,0,0
462,22,0,0,0,0,0,0,0,0,0,-1,1686,1002,0,0
469,22,0,0,0,0,0,0,0,0,0,-1,1693,1002,0,0
476,22,0,0,0,0,0,0,0,0,0,-1,1700,1002,0,0
483,22,0,0,0,0,0,0,0,0,0,-1,1707,1002,0,0
490,22,0,0,0,0,0,0,0,0,0,-1,1714,1002,0,0
497,22,0,0,0,0,0,0,0,0,0,-1,1721,1002,0,0
504,22,0,0,0,0,0,0,0,0,0,-1,1728,1002,0,0
511,22,0,0,0,0,0,0,0,0,0,-1,1735,1002,0,0
518,22,0,0,0,0,0,0,0,0,0,-1,1742,1002,0,0
525,22,0,0,0,0,0,0,0,0,0,-1,1749,1002,0,0
532,22,0,0,0,0,0,0,0,0,0,-1,1756,1002,0,0
539,22,0,0,0,0,0,0,0,0,0,-1,1763,1002,0,0
546,22,0,0,0,0,0,0,0,0,0,-1,1770,1002,0,0
553,22,0,0,0,0,0,0,0,0,0,-1,1777,1002,0,0
560,22,0,0,0,0,0,0,0,0,0,-1,1784,1002,0,0
567,22,0,0,0,0,0,0,0,0,0,-1,1791,1002,0,0
574,22,0,0,0,0,0,0,0,0,0,-1,1798,1002,0,0
581,22,0,0,0,0,0,0,0,0,0,-1,1805,1002,0,0
588,22,0,0,0,0,0,0,0,0,0,-1,1812,1002,0,0
595,22,0,0,0,0,0,0,0,0,0,-1,1819,1002,0,0
602,22,0,0,0,0,0,0,0,0,0,-1,1826,1002,0,0
609,22,0,0,0,0,0,0,0,0,0,-1,1833,1002,0,0
616,22,0,0,0,0,0,0,0,0,0,-1,1840,1002,0,0
623,22,0,0,0,0,0,0,0,0,0,-1,1847,1002,0,0
630,22,0,0,0,0,0,0,0,0,0,-1,1854,1002,0,0
637,22,0,0,0,0,0,0,0,0,0,-1,1861,1002,0,0
644,22,4.24048,0.864685,-0.00114599,0.00101195,0.00149986,0.00178061,-0.00191465,1.09721,0.00213393,0.0435119,1868,1002,4.24047,-0.864697
651,22,4.12048,0.637878,-0.000814172,0.000730498,0.00116399,0.00135508,-0.00143875,1.07831,0.00161326,0.0449361,1875,1002,4.1205,-0.637905
658,22,4.12769,0.489258,-0.00058812,0.000360005,0.000873785,0.000880043,-0.00110816,1.03395,0.0011504,0.0421668,1882,1002,4.12763,-0.489276
665,22,4.14148,0.753357,-0.000498657,8.12214e-05,0.000756399,0.000601346,-0.00101878,0.968418,0.000945674,0.0389769,1889,1002,4.14149,-0.753342
672,22,4.20007,0.607971,-0.000429746,-0.000163724,0.000709436,0.000425062,-0.00101853,0.878067,0.000856615,0.0399609,1896,1002,4.20004,-0.607984
679,22,4.26404,0.598694,-0.000412035,-0.00035667,0.000662385,0.00027861,-0.00104732,0.806282,0.000807269,0.0405616,1903,1002,4.26407,-0.598718
686,22,4.25769,0.614441,-0.000386977,-0.000477814,0.000623034,0.000192291,-0.00105708,0.749013,0.000776793,0.0375437,1910,1002,4.25763,-0.614467
693,22,4.23438,0.621765,-0.000348154,-0.0005438,0.000575206,0.000137488,-0.00102944,0.701171,0.000736415,0.0343654,1917,1002,4.23437,-0.621753
700,22,4.23608,0.63092,-0.000221549,-0.000481837,0.0004449,0.000111851,-0.000815238,0.643106,0.000584355,0.0311185,1924,1002,4.23612,-0.630933
707,22,4.20935,0.670105,-0.000253643,-0.000477071,0.00049466,0.000141761,-0.000872475,0.674341,0.000634207,0.0289006,1931,1002,4.20932,-0.670107
714,22,4.22522,0.782104,-0.000355539,-0.000447369,0.000469622,7.04074e-05,-0.000873316,0.736668,0.000607042,0.0231499,1938,1002,4.22528,-0.782118
721,22,4.26953,0.698303,-0.000299698,-0.000403212,0.000357552,9.82417e-06,-0.000712734,0.71352,0.000478464,0.0212483,1945,1002,4.26953,-0.698288
728,22,4.21765,0.690674,-0.000144421,-0.00028016,0.000157524,-4.07672e-05,-0.000383813,0.58199,0.000243427,0.0166571,1952,1002,4.2176,-0.690691
735,22,4.22144,0.703552,0.000189066,-4.95298e-05,-0.000225548,0.000324923,-0.000185386,-0.542139,0.000298276,0.0143939,1959,1002,4.22142,-0.703558
742,22,4.21692,0.725281,0.000709957,6.67105e-05,-0.00059269,0.00106267,-0.000285998,-0.536807,0.000820562,0.014065,1966,1002,4.21688,-0.725262
749,22,4.21118,0.739258,0.000587094,-0.000511711,-0.000813441,0.00101929,-0.000943904,-0.488384,0.00113373,0.0109,1973,1002,4.21112,-0.73926
756,22,4.2356,0.721313,-0.000445217,-0.00136851,-0.000810936,2.62682e-05,-0.00184,-0.526637,0.00123551,0.0150649,1980,1002,4.2356,-0.721296
763,22,4.20825,0.759766,-0.00251073,-0.00225368,-0.000455658,-0.00190877,-0.00285565,-0.922859,0.0016796,0.0153533,1987,1002,4.20829,-0.759746
770,22,4.21045,0.752747,-0.00460974,-0.00351319,-0.000159021,-0.00349059,-0.00463234,-1.42965,0.00278673,0.00973061,1994,1002,4.21047,-0.752766
777,22,4.21228,0.788025,-0.00788885,-0.00521797,0.000565374,-0.00510322,-0.0080036,1.37056,0.00467886,0.0176768,2001,1002,4.21234,-0.788052
784,22,4.3844,0.298279,-0.0127724,-0.00744436,0.00181625,-0.00688414,-0.0133326,1.2716,0.00769896,0.0400656,2008,1002,4.38439,-0.298286
791,22,4.56641,-0.147339,0,0,0,0,0,0,0,-1,2015,1002,4.56636,0.147359
798,22,4.06812,-0.0911865,-0.0290358,-0.0133203,0.00669169,-0.010857,-0.031499,1.21808,0.0184761,0.0443003,2022,1002,4.06806,0.0911943
805,22,3.75793,0.0235596,-0.0413534,-0.0168149,0.0108356,-0.0127151,-0.0454531,1.20908,0.0270778,0.0439018,2029,1002,3.75791,-0.0235471
812,22,3.17664,0.220947,-0.0574121,-0.0204629,0.0166298,-0.0140806,-0.0637943,1.20435,0.0386995,0.0421198,2036,1002,3.17665,-0.220977
-700,15,0,0,0,0,0,0,0,0,0,-1,524,1009,0,0
-693,15,0.310852,-2.02661,-0.0162829,0.0717522,0.0132039,0.07369,-0.0182206,1.42508,0.0561936,0.0472836,531,1009,0.310866,2.02662
-686,15,-0.0125122,-0.90564,-0.0152372,0.0569064,0.0121332,0.0588923,-0.0172231,1.40856,0.046088,0.0441638,538,1009,-0.0125068,0.905632
-679,15,0.330872,-1.22235,-0.0138063,0.0441206,0.0108955,0.0461022,-0.0157878,1.39089,0.0371335,0.0472256,545,1009,0.3309,1.22236
-672,15,-1.00232,0.630676,0,0,0,0,0,0,0,-1,552,1009,-1.00234,-0.630686
-665,15,-0.393066,0.318604,0,0,0,0,0,0,0,-1,559,1009,-0.393087,-0.318587
-658,15,-0.389832,0.441101,-0.00900129,0.0174448,0.00693952,0.0191551,-0.0107116,1.32915,0.0174717,0.0422523,566,1009,-0.389845,-0.441118
-651,15,-0.618835,0.688538,-0.00745284,0.0119783,0.00569345,0.0135237,-0.00899816,1.30576,0.0130902,0.0352358,573,1009,-0.618807,-0.688512
-644,15,-0.717468,0.797852,-0.00611021,0.00802581,0.00461146,0.00939713,-0.00748153,1.28175,0.0097658,0.014464,580,1009,-0.717487,-0.79787
-637,15,-0.740356,0.801758,-0.00477644,0.00428198,0.00338964,0.00540992,-0.00590439,1.24956,0.0065344,0.0115573,587,1009,-0.74036,-0.801788
-630,15,-0.740356,0.778748,-0.00343567,0.0017106,0.00243287,0.00267864,-0.00440371,1.1921,0.00412923,0.0105793,594,1009,-0.740379,-0.77875
-623,15,-0.742798,0.776428,-0.00234949,-0.000135997,0.0018832,0.000941596,-0.00342708,1.05106,0.00265484,0.00895599,601,1009,-0.742796,-0.776425
-616,15,-0.73468,0.771912,-0.00175925,-0.000202094,0.00112592,0.000388227,-0.00234957,1.0879,0.00171054,0.0136489,608,1009,-0.734702,-0.771938
-609,15,-0.786133,0.775757,-0.00101176,-0.000363436,0.000507442,-8.54539e-05,-0.00128974,1.06963,0.000832807,0.0205824,615,1009,-0.78613,-0.775741
-602,15,-0.780518,0.784424,-0.000255005,-0.000315822,-0.000119818,-0.000161797,-0.00040903,-0.661127,0.000237864,0.0189605,622,1009,-0.780513,-0.784429
-595,15,-0.756775,0.772217,4.70582e-05,-0.000188422,-0.000507662,0.000450454,-0.000591818,-0.67145,0.000603599,0.0187838,629,1009,-0.756782,-0.772187
-588,15,-0.752808,0.760071,0.000290534,-0.000248255,-0.000758455,0.000826017,-0.000783737,-0.614753,0.000929499,0.0268366,636,1009,-0.752836,-0.76008
-581,15,-0.755371,0.78717,0.000678947,-0.000225856,-0.000978571,0.00130463,-0.00085154,-0.568877,0.00125399,0.0386235,643,1009,-0.755368,-0.787178
-574,15,-0.741333,0.814575,0.00108595,-0.000150112,-0.00122139,0.00183678,-0.000900937,-0.551178,0.00161111,0.0335956,650,1009,-0.741359,-0.814589
-567,15,-0.740356,0.783264,0.00146088,-5.49573e-06,-0.00144093,0.00234443,-0.000889044,-0.550054,0.00192885,0.0338562,657,1009,-0.740376,-0.78326
-560,15,-0.700928,0.66626,0.00194174,0.000225578,-0.00162325,0.00291975,-0.000752433,-0.542258,0.00223984,0.0407377,664,1009,-0.70092,-0.66624
-553,15,-0.664551,0.661255,0.00259252,0.000544615,-0.00173566,0.00358375,-0.000446621,-0.5189,0.00255111,0.0442566,671,1009,-0.66456,-0.661254
-546,15,-0.851624,0.721191,0.00352266,0.000944834,-0.00176033,0.00441551,5.19874e-05,-0.469393,0.0029265,0.0428431,678,1009,-0.851638,-0.721163
-539,15,-1.06848,0.789429,0.00487181,0.00141219,-0.00168067,0.00555382,0.000730181,-0.385494,0.00348475,0.0418543,685,1009,-1.06849,-0.789445
-532,15,-0.826355,0.794983,0.00674268,0.00193022,-0.00146073,0.00715135,0.00152155,-0.272798,0.00435001,0.0402197,692,1009,-0.826345,-0.795012
-525,15,0,0,0,0,0,0,0,0,0,-1,699,1009,0,0
-518,15,0,0,0,0,0,0,0,0,0,-1,706,1009,0,0
-511,15,0,0,0,0,0,0,0,0,0,-1,713,1009,0,0
-504,15,0,0,0,0,0,0,0,0,0,-1,720,1009,0,0
-497,15,0,0,0,0,0,0,0,0,0,-1,727,1009,0,0
-490,15,0,0,0,0,0,0,0,0,0,-1,734,1009,0,0
-483,15,0,0,0,0,0,0,0,0,0,-1,741,1009,0,0
-476,15,0,0,0,0,0,0,0,0,0,-1,748,1009,0,0
-469,15,0,0,0,0,0,0,0,0,0,-1,755,1009,0,0
-462,15,0,0,0,0,0,0,0,0,0,-1,762,1009,0,0
-455,15,0,0,0,0,0,0,0,0,0,-1,769,1009,0,0
-448,15,0,0,0,0,0,0,0,0,0,-1,776,1009,0,0
-441,15,0,0,0,0,0,0,0,0,0,-1,783,1009,0,0
-434,15,0,0,0,0,0,0,0,0,0,-1,790,1009,0,0
-427,15,0,0,0,0,0,0,0,0,0,-1,797,1009,0,0
-420,15,0,0,0,0,0,0,0,0,0,-1,804,1009,0,0
-413,15,0,0,0,0,0,0,0,0,0,-1,811,1009,0,0
-406,15,0,0,0,0,0,0,0,0,0,-1,818,1009,0,0
-399,15,0,0,0,0,0,0,0,0,0,-1,825,1009,0,0
-392,15,0,0,0,0,0,0,0,0,0,-1,832,1009,0,0
-385,15,0,0,0,0,0,0,0,0,0,-1,839,1009,0,0
-378,15,0,0,0,0,0,0,0,0,0,-1,846,1009,0,0
-371,15,0,0,0,0,0,0,0,0,0,-1,853,1009,0,0
-364,15,0,0,0,0,0,0,0,0,0,-1,860,1009,0,0
-357,15,0,0,0,0,0,0,0,0,0,-1,867,1009,0,0
-350,15,0,0,0,0,0,0,0,0,0,-1,874,1009,0,0
-343,15,0,0,0,0,0,0,0,0,0,-1,881,1009,0,0
-336,15,0,0,0,0,0,0,0,0,0,-1,888,1009,0,0
-329,15,0,0,0,0,0,0,0,0,0,-1,895,1009,0,0
-322,15,0,0,0,0,0,0,0,0,0,-1,902,1009,0,0
-315,15,0,0,0,0,0,0,0,0,0,-1,909,1009,0,0
-308,15,0,0,0,0,0,0,0,0,0,-1,916,1009,0,0
-301,15,0,0,0,0,0,0,0,0,0,-1,923,1009,0,0
-294,15,0,0,0,0,0,0,0,0,0,-1,930,1009,0,0
-287,15,0,0,0,0,0,0,0,0,0,-1,937,1009,0,0
-280,15,0,0,0,0,0,0,0,0,0,-1,944,1009,0,0
-273,15,0,0,0,0,0,0,0,0,0,-1,951,1009,0,0
-266,15,0,0,0,0,0,0,0,0,0,-1,958,1009,0,0
-259,15,0,0,0,0,0,0,0,0,0,-1,965,1009,0,0
-252,15,0,0,0,0,0,0,0,0,0,-1,972,1009,0,0
-245,15,0,0,0,0,0,0,0,0,0,-1,979,1009,0,0
-238,15,0,0,0,0,0,0,0,0,0,-1,986,1009,0,0
-231,15,0,0,0,0,0,0,0,0,0,-1,993,1009,0,0
-224,15,0,0,0,0,0,0,0,0,0,-1,1000,1009,0,0
-217,15,0,0,0,0,0,0,0,0,0,-1,1007,1009,0,0
-210,15,0,0,0,0,0,0,0,0,0,-1,1014,1009,0,0
-203,15,0,0,0,0,0,0,0,0,0,-1,1021,1009,0,0
-196,15,0,0,0,0,0,0,0,0,0,-1,1028,1009,0,0
-189,15,0,0,0,0,0,0,0,0,0,-1,1035,1009,0,0
-182,15,0,0,0,0,0,0,0,0,0,-1,1042,1009,0,0
-175,15,0,0,0,0,0,0,0,0,0,-1,1049,1009,0,0
-168,15,0,0,0,0,0,0,0,0,0,-1,1056,1009,0,0
-161,15,0,0,0,0,0,0,0,0,0,-1,1063,1009,0,0
-154,15,0,0,0,0,0,0,0,0,0,-1,1070,1009,0,0
-147,15,0,0,0,0,0,0,0,0,0,-1,1077,1009,0,0
-140,15,0,0,0,0,0,0,0,0,0,-1,1084,1009,0,0
-133,15,0,0,0,0,0,0,0,0,0,-1,1091,1009,0,0
-126,15,0,0,0,0,0,0,0,0,0,-1,1098,1009,0,0
-119,15,0,0,0,0,0,0,0,0,0,-1,1105,1009,0,0
-112,15,0,0,0,0,0,0,0,0,0,-1,1112,1009,0,0
-105,15,0,0,0,0,0,0,0,0,0,-1,1119,1009,0,0
-98,15,0,0,0,0,0,0,0,0,0,-1,1126,1009,0,0
-91,15,0,0,0,0,0,0,0,0,0,-1,1133,1009,0,0
-84,15,0,0,0,0,0,0,0,0,0,-1,1140,1009,0,0
-77,15,0,0,0,0,0,0,0,0,0,-1,1147,1009,0,0
-70,15,0,0,0,0,0,0,0,0,0,-1,1154,1009,0,0
-63,15,0,0,0,0,0,0,0,0,0,-1,1161,1009,0,0
-56,15,0,0,0,0,0,0,0,0,0,-1,1168,1009,0,0
-49,15,0,0,0,0,0,0,0,0,0,-1,1175,1009,0,0
-42,15,0,0,0,0,0,0,0,0,0,-1,1182,1009,0,0
-35,15,0,0,0,0,0,0,0,0,0,-1,1189,1009,0,0
-28,15,0,0,0,0,0,0,0,0,0,-1,1196,1009,0,0
-21,15,0,0,0,0,0,0,0,0,0,-1,1203,1009,0,0
-14,15,0,0,0,0,0,0,0,0,0,-1,1210,1009,0,0
-7,15,0,0,0,0,0,0,0,0,0,-1,1217,1009,0,0
0,15,0,0,0,0,0,0,0,0,0,-1,1224,1009,0,0
7,15,0,0,0,0,0,0,0,0,0,-1,1231,1009,0,0
14,15,0,0,0,0,0,0,0,0,0,-1,1238,1009,0,0
21,15,0,0,0,0,0,0,0,0,0,-1,1245,1009,0,0
28,15,0,0,0,0,0,0,0,0,0,-1,1252,1009,0,0
35,15,0,0,0,0,0,0,0,0,0,-1,1259,1009,0,0
42,15,0,0,0,0,0,0,0,0,0,-1,1266,1009,0,0
49,15,0,0,0,0,0,0,0,0,0,-1,1273,1009,0,0
56,15,0,0,0,0,0,0,0,0,0,-1,1280,1009,0,0
63,15,0,0,0,0,0,0,0,0,0,-1,1287,1009,0,0
70,15,0,0,0,0,0,0,0,0,0,-1,1294,1009,0,0
77,15,0,0,0,0,0,0,0,0,0,-1,1301,1009,0,0
84,15,0,0,0,0,0,0,0,0,0,-1,1308,1009,0,0
91,15,0,0,0,0,0,0,0,0,0,-1,1315,1009,0,0
98,15,0,0,0,0,0,0,0,0,0,-1,1322,1009,0,0
105,15,0,0,0,0,0,0,0,0,0,-1,1329,1009,0,0
112,15,0,0,0,0,0,0,0,0,0,-1,1336,1009,0,0
119,15,0,0,0,0,0,0,0,0,0,-1,1343,1009,0,0
126,15,0,0,0,0,0,0,0,0,0,-1,1350,1009,0,0
133,15,0,0,0,0,0,0,0,0,0,-1,1357,1009,0,0
140,15,0,0,0,0,0,0,0,0,0,-1,1364,1009,0,0
147,15,0,0,0,0,0,0,0,0,0,-1,1371,1009,0,0
154,15,0,0,0,0,0,0,0,0,0,-1,1378,1009,0,0
161,15,0,0,0,0,0,0,0,0,0,-1,1385,1009,0,0
168,15,0,0,0,0,0,0,0,0,0,-1,1392,1009,0,0
175,15,0,0,0,0,0,0,0,0,0,-1,1399,1009,0,0
182,15,0,0,0,0,0,0,0,0,0,-1,1406,1009,0,0
189,15,0,0,0,0,0,0,0,0,0,-1,1413,1009,0,0
196,15,0,0,0,0,0,0,0,0,0,-1,1420,1009,0,0
203,15,0,0,0,0,0,0,0,0,0,-1,1427,1009,0,0
210,15,0,0,0,0,0,0,0,0,0,-1,1434,1009,0,0
217,15,0,0,0,0,0,0,0,0,0,-1,1441,1009,0,0
224,15,0,0,0,0,0,0,0,0,0,-1,1448,1009,0,0
231,15,0,0,0,0,0,0,0,0,0,-1,1455,1009,0,0
238,15,0,0,0,0,0,0,0,0,0,-1,1462,1009,0,0
245,15,0,0,0,0,0,0,0,0,0,-1,1469,1009,0,0
252,15,0,0,0,0,0,0,0,0,0,-1,1476,1009,0,0
259,15,0,0,0,0,0,0,0,0,0,-1,1483,1009,0,0
266,15,0,0,0,0,0,0,0,0,0,-1,1490,1009,0,0
273,15,0,0,0,0,0,0,0,0,0,-1,1497,1009,0,0
280,15,0,0,0,0,0,0,0,0,0,-1,1504,1009,0,0
287,15,0,0,0,0,0,0,0,0,0,-1,1511,1009,0,0
294,15,0,0,0,0,0,0,0,0,0,-1,1518,1009,0,0
301,15,0,0,0,0,0,0,0,0,0,-1,1525,1009,0,0
308,15,0,0,0,0,0,0,0,0,0,-1,1532,1009,0,0
315,15,0,0,0,0,0,0,0,0,0,-1,1539,1009,0,0
322,15,0,0,0,0,0,0,0,0,0,-1,1546,1009,0,0
329,15,0,0,0,0,0,0,0,0,0,-1,1553,1009,0,0
336,15,0,0,0,0,0,0,0,0,0,-1,1560,1009,0,0
343,15,0,0,0,0,0,0,0,0,0,-1,1567,1009,0,0
350,15,0,0,0,0,0,0,0,0,0,-1,1574,1009,0,0
357,15,0,0,0,0,0,0,0,0,0,-1,1581,1009,0,0
364,15,0,0,0,0,0,0,0,0,0,-1,1588,1009,0,0
371,15,0,0,0,0,0,0,0,0,0,-1,1595,1009,0,0
378,15,0,0,0,0,0,0,0,0,0,-1,1602,1009,0,0
385,15,0,0,0,0,0,0,0,0,0,-1,1609,1009,0,0
392,15,0,0,0,0,0,0,0,0,0,-1,1616,1009,0,0
399,15,0,0,0,0,0,0,0,0,0,-1,1623,1009,0,0
406,15,0,0,0,0,0,0,0,0,0,-1,1630,1009,0,0
413,15,0,0,0,0,0,0,0,0,0,-1,1637,1009,0,0
420,15,0,0,0,0,0,0,0,0,0,-1,1644,1009,0,0
427,15,0,0,0,0,0,0,0,0,0,-1,1651,1009,0,0
434,15,0,0,0,0,0,0,0,0,0,-1,1658,1009,0,0
441,15,0,0,0,0,0,0,0,0,0,-1,1665,1009,0,0
448,15,0,0,0,0,0,0,0,0,0,-1,1672,1009,0,0
455,15,0,0,0,0,0,0,0,0,0,-1,1679,1009,0,0
462,15,0,0,0,0,0,0,0,0,0,-1,1686,1009,0,0
469,15,0,0,0,0,0,0,0,0,0,-1,1693,1009,0,0
476,15,0,0,0,0,0,0,0,0,0,-1,1700,1009,0,0
483,15,0,0,0,0,0,0,0,0,0,-1,1707,1009,0,0
490,15,0,0,0,0,0,0,0,0,0,-1,1714,1009,0,0
497,15,0,0,0,0,0,0,0,0,0,-1,1721,1009,0,0
504,15,0,0,0,0,0,0,0,0,0,-1,1728,1009,0,0
511,15,0,0,0,0,0,0,0,0,0,-1,1735,1009,0,0
518,15,0,0,0,0,0,0,0,0,0,-1,1742,1009,0,0
525,15,0,0,0,0,0,0,0,0,0,-1,1749,1009,0,0
532,15,0,0,0,0,0,0,0,0,0,-1,1756,1009,0,0
539,15,0,0,0,0,0,0,0,0,0,-1,1763,1009,0,0
546,15,0,0,0,0,0,0,0,0,0,-1,1770,1009,0,0
553,15,0,0,0,0,0,0,0,0,0,-1,1777,1009,0,0
560,15,0,0,0,0,0,0,0,0,0,-1,1784,1009,0,0
567,15,0,0,0,0,0,0,0,0,0,-1,1791,1009,0,0
574,15,0,0,0,0,0,0,0,0,0,-1,1798,1009,0,0
581,15,0,0,0,0,0,0,0,0,0,-1,1805,1009,0,0
588,15,0,0,0,0,0,0,0,0,0,-1,1812,1009,0,0
595,15,0,0,0,0,0,0,0,0,0,-1,1819,1009,0,0
602,15,0,0,0,0,0,0,0,0,0,-1,1826,1009,0,0
609,15,0,0,0,0,0,0,0,0,0,-1,1833,1009,0,0
616,15,0,0,0,0,0,0,0,0,0,-1,1840,1009,0,0
623,15,0,0,0,0,0,0,0,0,0,-1,1847,1009,0,0
630,15,0,0,0,0,0,0,0,0,0,-1,1854,1009,0,0
637,15,0,0,0,0,0,0,0,0,0,-1,1861,1009,0,0
644,15,4.1626,0.686218,-0.000577707,0.00137574,0.00071838,0.00161148,-0.000813443,1.25372,0.00142508,0.0434931,1868,1009,4.16255,-0.686203
651,15,4.26184,0.687927,-0.00055739,0.00113389,0.000817316,0.00146431,-0.000887807,1.18661,0.00137152,0.0408221,1875,1009,4.26181,-0.687927
658,15,4.26709,0.501892,-0.000474376,0.000696008,0.000724935,0.00104247,-0.000820839,1.12497,0.00107832,0.0376631,1882,1009,4.26715,-0.501898
665,15,4.30627,0.556519,-0.000475308,0.00033193,0.000704954,0.000740634,-0.000884012,1.04539,0.000939207,0.0372146,1889,1009,4.30627,-0.556494
672,15,4.27417,0.486023,-0.000442879,1.12707e-05,0.000719995,0.00053915,-0.000970758,0.938153,0.000883538,0.0379265,1896,1009,4.27414,-0.486032
679,15,4.35303,0.51532,-0.000424856,-0.000253241,0.000689981,0.000356248,-0.00103434,0.847262,0.00083407,0.0380021,1903,1009,4.353,-0.515291
686,15,4.25391,0.734558,-0.000384765,-0.000431516,0.000644258,0.000236541,-0.00105282,0.767264,0.000792583,0.041255,1910,1009,4.25387,-0.73454
693,15,4.22827,0.610229,-0.000332655,-0.000521986,0.000585165,0.000165453,-0.00102009,0.705205,0.000741393,0.0367777,1917,1009,4.22832,-0.61024
700,15,4.26355,0.542358,-0.00019881,-0.000491522,0.000455505,0.000133274,-0.000823605,0.629955,0.000598462,0.0293381,1924,1009,4.26357,-0.542344
707,15,4.22375,0.615906,-0.000183913,-0.000519613,0.000503444,0.000178924,-0.000882451,0.624491,0.000656125,0.0283673,1931,1009,4.22381,-0.615889
714,15,4.21838,0.772583,-0.000260833,-0.000490575,0.000470332,0.000108453,-0.000859861,0.665626,0.0006126,0.0272214,1938,1009,4.21837,-0.772559
721,15,4.26111,0.802307,-0.000220423,-0.000451968,0.000340873,2.38016e-05,-0.000696192,0.621692,0.000472262,0.023231,1945,1009,4.26114,-0.802287
728,15,4.25159,0.727356,-6.52284e-05,-0.00031479,0.000132048,-8.33097e-06,-0.000371687,0.406844,0.000245062,0.0202048,1952,1009,4.25156,-0.72734
735,15,4.23682,0.713806,0.000262669,-8.75954e-05,-0.000190586,0.000346369,-0.000171296,-0.413815,0.000304518,0.014996,1959,1009,4.2368,-0.713788
742,15,4.22412,0.712402,0.000767804,4.44212e-05,-0.000338796,0.000901697,-8.94715e-05,-0.376363,0.000633066,0.0153991,1966,1009,4.22412,-0.712425
749,15,4.22229,0.708862,0.000641592,-0.000549669,-0.000315664,0.000720068,-0.000628144,-0.243666,0.000778994,0.00980047,1973,1009,4.22235,-0.708868
756,15,4.25745,0.731323,-0.000336533,-0.00134321,-0.000119823,-0.000322467,-0.00135727,-0.116854,0.000818807,0.0116973,1980,1009,4.25744,-0.731349
763,15,4.23828,0.740662,-0.00225871,-0.0021308,0.00041844,-0.00177146,-0.00261805,0.861234,0.00154265,0.0114153,1987,1009,4.23833,-0.740658
770,15,4.22278,0.736389,-0.00419231,-0.00330222,0.000971934,-0.00267829,-0.00481624,1.0001,0.00278649,0.00961626,1994,1009,4.22277,-0.736383
777,15,4.20422,0.761292,-0.00721045,-0.00486099,0.0019869,-0.00372752,-0.00834392,1.05237,0.00482647,0.016921,2001,1009,4.20418,-0.761268
784,15,4.1543,0.428955,-0.0117016,-0.00687288,0.00351512,-0.00502284,-0.0135517,1.08632,0.00791085,0.0384167,2008,1009,4.15434,-0.428957
791,15,4.11072,0.0554199,0,0,0,0,0,0,0,-1,2015,1009,4.11078,-0.0554295
798,15,3.78784,0.169373,-0.0266906,-0.0120323,0.00868712,-0.00799557,-0.0307273,1.13581,0.0184079,0.0436617,2022,1009,3.78782,-0.169353
805,15,3.51208,0.358459,-0.0380443,-0.0149464,0.0127198,-0.00931482,-0.0436759,1.15399,0.0265624,0.0424325,2029,1009,3.51204,-0.358464
812,15,3.07129,0.775696,-0.0528307,-0.0177664,0.0180709,-0.0101205,-0.0604766,1.17053,0.0374034,0.0440217,2036,1009,3.07128,-0.775679
-700,8,0,0,0,0,0,0,0,0,0,-1,524,1016,0,0
-693,8,1.28699,-1.42627,0,0,0,0,0,0,0,-1,531,1016,1.287,1.42627
-686,8,1.28802,0.13446,0,0,0,0,0,0,0,-1,538,1016,1.28801,-0.13443
-679,8,-1.39575,1.17261,0,0,0,0,0,0,0,-1,545,1016,-1.39577,-1.17261
-672,8,-1.22333,1.05859,-0.011778,0.031858,0.00985813,0.0339818,-0.0139017,1.35861,0.0284443,0.0445188,552,1016,-1.22332,-1.05861
-665,8,-0.960205,0.850525,-0.00997195,0.0240137,0.00834553,0.0259524,-0.0119107,1.34254,0.0223557,0.0421188,559,1016,-0.960207,-0.850531
-658,8,-0.692139,0.745667,-0.00828647,0.0175377,0.00690907,0.01927,-0.0100187,1.32514,0.0171887,0.0341096,566,1016,-0.692123,-0.745659
-651,8,-0.694397,0.751831,-0.00673679,0.0123795,0.00557377,0.0138859,-0.00824323,1.30683,0.012914,0.0192054,573,1016,-0.694423,-0.751808
-644,8,-0.735352,0.806396,-0.0054713,0.00862742,0.00446876,0.00992451,-0.00676839,1.2883,0.0096949,0.0129096,580,1016,-0.735366,-0.80642
-637,8,-0.753296,0.809204,-0.0042114,0.00503186,0.00319801,0.00603044,-0.00520997,1.26814,0.00649541,0.0113023,587,1016,-0.753312,-0.809224
-630,8,-0.745789,0.785217,-0.00285888,0.00241976,0.00220513,0.00321972,-0.00365884,1.22279,0.00397403,0.0109901,594,1016,-0.74579,-0.785189
-623,8,-0.743103,0.780762,-0.00177776,0.000351932,0.0016465,0.00124792,-0.00267375,1.07244,0.00231352,0.0126332,601,1016,-0.743079,-0.780732
-616,8,-0.750977,0.762451,-0.00130331,5.64147e-05,0.000908038,0.000510901,-0.00175779,1.10674,0.00137419,0.0125675,608,1016,-0.750965,-0.762422
-609,8,-0.73291,0.752502,-0.000638331,-0.000280883,0.000374621,-4.45372e-05,-0.000874677,1.00797,0.000568854,0.0159959,615,1016,-0.732925,-0.752485
-602,8,-0.733887,0.748291,0.000110851,-0.000286759,-0.000269059,0.000246585,-0.000422493,-0.467222,0.000390717,0.0210783,622,1016,-0.733874,-0.74829
-595,8,-0.728943,0.759399,0.000459633,-0.000230126,-0.00063956,0.000841375,-0.000611868,-0.538124,0.000842511,0.0178733,629,1016,-0.728938,-0.759404
-588,8,-0.723328,0.750732,0.000751425,-0.000378062,-0.000850512,0.00120762,-0.000834252,-0.49232,0.00118542,0.0218341,636,1016,-0.723315,-0.750753
-581,8,-0.706177,0.762207,0.00114427,-0.000450779,-0.00102931,0.00164887,-0.000955376,-0.455801,0.00152123,0.0307019,643,1016,-0.706203,-0.762226
-574,8,-0.677917,0.80426,0.00152185,-0.000472996,-0.00123865,0.00211474,-0.00106589,-0.446431,0.00186932,0.0353332,650,1016,-0.677936,-0.804261
-567,8,-0.683044,0.833435,0.00185116,-0.000461687,-0.00140357,0.00251334,-0.00112387,-0.440821,0.00215041,0.0396285,657,1016,-0.683054,-0.833439
-560,8,-0.647644,0.753052,0.00222276,-0.000384965,-0.00149702,0.00290412,-0.00106633,-0.427126,0.00237279,0.0420263,664,1016,-0.647655,-0.753044
-553,8,-0.565491,0.756042,0.00268521,-0.000236991,-0.00147407,0.00329961,-0.000851388,-0.394908,0.00253171,0.0413716,671,1016,-0.565498,-0.756067
-546,8,-0.736877,0.691467,0.00332593,-1.4641e-05,-0.00130496,0.00377526,-0.000463973,-0.331611,0.00268489,0.0395466,678,1016,-0.736906,-0.69146
-539,8,-0.753479,0.873413,0.00426716,0.000284316,-0.000953092,0.00448349,6.79917e-05,-0.22319,0.00296659,0.0403505,685,1016,-0.753495,-0.873411
-532,8,-0.569946,0.747986,0.00560238,0.000666815,-0.000351453,0.00562728,0.000641915,-0.0707326,0.00355691,0.0399611,692,1016,-0.569947,-0.748008
-525,8,0,0,0,0,0,0,0,0,0,-1,699,1016,0,0
-518,8,0,0,0,0,0,0,0,0,0,-1,706,1016,0,0
-511,8,0,0,0,0,0,0,0,0,0,-1,713,1016,0,0
-504,8,0,0,0,0,0,0,0,0,0,-1,720,1016,0,0
-497,8,0,0,0,0,0,0,0,0,0,-1,727,1016,0,0
-490,8,0,0,0,0,0,0,0,0,0,-1,734,1016,0,0
-483,8,0,0,0,0,0,0,0,0,0,-1,741,1016,0,0
-476,8,0,0,0,0,0,0,0,0,0,-1,748,1016,0,0
-469,8,0,0,0,0,0,0,0,0,0,-1,755,1016,0,0
-462,8,0,0,0,0,0,0,0,0,0,-1,762,1016,0,0
-455,8,0,0,0,0,0,0,0,0,0,-1,769,1016,0,0
-448,8,0,0,0,0,0,0,0,0,0,-1,776,1016,0,0
-441,8,0,0,0,0,0,0,0,0,0,-1,783,1016,0,0
-434,8,0,0,0,0,0,0,0,0,0,-1,790,1016,0,0
-427,8,0,0,0,0,0,0,0,0,0,-1,797,1016,0,0
-420,8,0,0,0,0,0,0,0,0,0,-1,804,1016,0,0
-413,8,0,0,0,0,0,0,0,0,0,-1,811,1016,0,0
-406,8,0,0,0,0,0,0,0,0,0,-1,818,1016,0,0
-399,8,0,0,0,0,0,0,0,0,0,-1,825,1016,0,0
-392,8,0,0,0,0,0,0,0,0,0,-1,832,1016,0,0
-385,8,0,0,0,0,0,0,0,0,0,-1,839,1016,0,0
-378,8,0,0,0,0,0,0,0,0,0,-1,846,1016,0,0
-371,8,0,0,0,0,0,0,0,0,0,-1,853,1016,0,0
-364,8,0,0,0,0,0,0,0,0,0,-1,860,1016,0,0
-357,8,0,0,0,0,0,0,0,0,0,-1,867,1016,0,0
-350,8,0,0,0,0,0,0,0,0,0,-1,874,1016,0,0
-343,8,0,0,0,0,0,0,0,0,0,-1,881,1016,0,0
-336,8,0,0,0,0,0,0,0,0,0,-1,888,1016,0,0
-329,8,0,0,0,0,0,0,0,0,0,-1,895,1016,0,0
-322,8,0,0,0,0,0,0,0,0,0,-1,902,1016,0,0
-315,8,0,0,0,0,0,0,0,0,0,-1,909,1016,0,0
-308,8,0,0,0,0,0,0,0,0,0,-1,916,1016,0,0
-301,8,0,0,0,0,0,0,0,0,0,-1,923,1016,0,0
-294,8,0,0,0,0,0,0,0,0,0,-1,930,1016,0,0
-287,8,0,0,0,0,0,0,0,0,0,-1,937,1016,0,0
-280,8,0,0,0,0,0,0,0,0,0,-1,944,1016,0,0
-273,8,0,0,0,0,0,0,0,0,0,-1,951,1016,0,0
-266,8,0,0,0,0,0,0,0,0,0,-1,958,1016,0,0
-259,8,0,0,0,0,0,0,0,0,0,-1,965,1016,0,0
-252,8,0,0,0,0,0,0,0,0,0,-1,972,1016,0,0
-245,8,0,0,0,0,0,0,0,0,0,-1,979,1016,0,0
-238,8,0,0,0,0,0,0,0,0,0,-1,986,1016,0,0
-231,8,0,0,0,0,0,0,0,0,0,-1,993,1016,0,0
-224,8,0,0,0,0,0,0,0,0,0,-1,1000,1016,0,0
-217,8,0,0,0,0,0,0,0,0,0,-1,1007,1016,0,0
-210,8,0,0,0,0,0,0,0,0,0,-1,1014,1016,0,0
-203,8,0,0,0,0,0,0,0,0,0,-1,1021,1016,0,0
-196,8,0,0,0,0,0,0,0,0,0,-1,1028,1016,0,0
-189,8,0,0,0,0,0,0,0,0,0,-1,1035,1016,0,0
-182,8,0,0,0,0,0,0,0,0,0,-1,1042,1016,0,0
-175,8,0,0,0,0,0,0,0,0,0,-1,1049,1016,0,0
-168,8,0,0,0,0,0,0,0,0,0,-1,1056,1016,0,0
-161,8,0,0,0,0,0,0,0,0,0,-1,1063,1016,0,0
-154,8,0,0,0,0,0,0,0,0,0,-1,1070,1016,0,0
-147,8,0,0,0,0,0,0,0,0,0,-1,1077,1016,0,0
-140,8,0,0,0,0,0,0,0,0,0,-1,1084,1016,0,0
-133,8,0,0,0,0,0,0,0,0,0,-1,1091,1016,0,0
-126,8,0,0,0,0,0,0,0,0,0,-1,1098,1016,0,0
-119,8,0,0,0,0,0,0,0,0,0,-1,1105,1016,0,0
-112,8,0,0,0,0,0,0,0,0,0,-1,1112,1016,0,0
-105,8,0,0,0,0,0,0,0,0,0,-1,1119,1016,0,0
-98,8,0,0,0,0,0,0,0,0,0,-1,1126,1016,0,0
-91,8,0,0,0,0,0,0,0,0,0,-1,1133,1016,0,0
-84,8,0,0,0,0,0,0,0,0,0,-1,1140,1016,0,0
-77,8,0,0,0,0,0,0,0,0,0,-1,1147,1016,0,0
-70,8,0,0,0,0,0,0,0,0,0,-1,1154,1016,0,0
-63,8,0,0,0,0,0,0,0,0,0,-1,1161,1016,0,0
-56,8,0,0,0,0,0,0,0,0,0,-1,1168,1016,0,0
-49,8,0,0,0,0,0,0,0,0,0,-1,1175,1016,0,0
-42,8,0,0,0,0,0,0,0,0,0,-1,1182,1016,0,0
-35,8,0,0,0,0,0,0,0,0,0,-1,1189,1016,0,0
-28,8,0,0,0,0,0,0,0,0,0,-1,1196,1016,0,0
-21,8,0,0,0,0,0,0,0,0,0,-1,1203,1016,0,0
-14,8,0,0,0,0,0,0,0,0,0,-1,1210,1016,0,0
-7,8,0,0,0,0,0,0,0,0,0,-1,1217,1016,0,0
0,8,0,0,0,0,0,0,0,0,0,-1,1224,1016,0,0
7,8,0,0,0,0,0,0,0,0,0,-1,1231,1016,0,0
14,8,0,0,0,0,0,0,0,0,0,-1,1238,1016,0,0
21,8,0,0,0,0,0,0,0,0,0,-1,1245,1016,0,0
28,8,0,0,0,0,0,0,0,0,0,-1,1252,1016,0,0
35,8,0,0,0,0,0,0,0,0,0,-1,1259,1016,0,0
42,8,0,0,0,0,0,0,0,0,0,-1,1266,1016,0,0
49,8,0,0,0,0,0,0,0,0,0,-1,1273,1016,0,0
56,8,0,0,0,0,0,0,0,0,0,-1,1280,1016,0,0
63,8,0,0,0,0,0,0,0,0,0,-1,1287,1016,0,0
70,8,0,0,0,0,0,0,0,0,0,-1,1294,1016,0,0
77,8,0,0,0,0,0,0,0,0,0,-1,1301,1016,0,0
84,8,0,0,0,0,0,0,0,0,0,-1,1308,1016,0,0
91,8,0,0,0,0,0,0,0,0,0,-1,1315,1016,0,0
98,8,0,0,0,0,0,0,0,0,0,-1,1322,1016,0,0
105,8,0,0,0,0,0,0,0,0,0,-1,1329,1016,0,0
112,8,0,0,0,0,0,0,0,0,0,-1,1336,1016,0,0
119,8,0,0,0,0,0,0,0,0,0,-1,1343,1016,0,0
126,8,0,0,0,0,0,0,0,0,0,-1,1350,1016,0,0
133,8,0,0,0,0,0,0,0,0,0,-1,1357,1016,0,0
140,8,0,0,0,0,0,0,0,0,0,-1,1364,1016,0,0
147,8,0,0,0,0,0,0,0,0,0,-1,1371,1016,0,0
154,8,0,0,0,0,0,0,0,0,0,-1,1378,1016,0,0
161,8,0,0,0,0,0,0,0,0,0,-1,1385,1016,0,0
168,8,0,0,0,0,0,0,0,0,0,-1,1392,1016,0,0
175,8,0,0,0,0,0,0,0,0,0,-1,1399,1016,0,0
182,8,0,0,0,0,0,0,0,0,0,-1,1406,1016,0,0
189,8,0,0,0,0,0,0,0,0,0,-1,1413,1016,0,0
196,8,0,0,0,0,0,0,0,0,0,-1,1420,1016,0,0
203,8,0,0,0,0,0,0,0,0,0,-1,1427,1016,0,0
210,8,0,0,0,0,0,0,0,0,0,-1,1434,1016,0,0
217,8,0,0,0,0,0,0,0,0,0,-1,1441,1016,0,0
224,8,0,0,0,0,0,0,0,0,0,-1,1448,1016,0,0
231,8,0,0,0,0,0,0,0,0,0,-1,1455,1016,0,0
238,8,0,0,0,0,0,0,0,0,0,-1,1462,1016,0,0
245,8,0,0,0,0,0,0,0,0,0,-1,1469,1016,0,0
252,8,0,0,0,0,0,0,0,0,0,-1,1476,1016,0,0
259,8,0,0,0,0,0,0,0,0,0,-1,1483,1016,0,0
266,8,0,0,0,0,0,0,0,0,0,-1,1490,1016,0,0
273,8,0,0,0,0,0,0,0,0,0,-1,1497,1016,0,0
280,8,0,0,0,0,0,0,0,0,0,-1,1504,1016,0,0
287,8,0,0,0,0,0,0,0,0,0,-1,1511,1016,0,0
294,8,0,0,0,0,0,0,0,0,0,-1,1518,1016,0,0
301,8,0,0,0,0,0,0,0,0,0,-1,1525,1016,0,0
308,8,0,0,0,0,0,0,0,0,0,-1,1532,1016,0,0
315,8,0,0,0,0,0,0,0,0,0,-1,1539,1016,0,0
322,8,0,0,0,0,0,0,0,0,0,-1,1546,1016,0,0
329,8,0,0,0,0,0,0,0,0,0,-1,1553,1016,0,0
336,8,0,0,0,0,0,0,0,0,0,-1,1560,1016,0,0
343,8,0,0,0,0,0,0,0,0,0,-1,1567,1016,0,0
350,8,0,0,0,0,0,0,0,0,0,-1,1574,1016,0,0
357,8,0,0,0,0,0,0,0,0,0,-1,1581,1016,0,0
364,8,0,0,0,0,0,0,0,0,0,-1,1588,1016,0,0
371,8,0,0,0,0,0,0,0,0,0,-1,1595,1016,0,0
378,8,0,0,0,0,0,0,0,0,0,-1,1602,1016,0,0
385,8,0,0,0,0,0,0,0,0,0,-1,1609,1016,0,0
392,8,0,0,0,0,0,0,0,0,0,-1,1616,1016,0,0
399,8,0,0,0,0,0,0,0,0,0,-1,1623,1016,0,0
406,8,0,0,0,0,0,0,0,0,0,-1,1630,1016,0,0
413,8,0,0,0,0,0,0,0,0,0,-1,1637,1016,0,0
420,8,0,0,0,0,0,0,0,0,0,-1,1644,1016,0,0
427,8,0,0,0,0,0,0,0,0,0,-1,1651,1016,0,0
434,8,0,0,0,0,0,0,0,0,0,-1,1658,1016,0,0
441,8,0,0,0,0,0,0,0,0,0,-1,1665,1016,0,0
448,8,0,0,0,0,0,0,0,0,0,-1,1672,1016,0,0
455,8,0,0,0,0,0,0,0,0,0,-1,1679,1016,0,0
462,8,0,0,0,0,0,0,0,0,0,-1,1686,1016,0,0
469,8,0,0,0,0,0,0,0,0,0,-1,1693,1016,0,0
476,8,0,0,0,0,0,0,0,0,0,-1,1700,1016,0,0
483,8,0,0,0,0,0,0,0,0,0,-1,1707,1016,0,0
490,8,0,0,0,0,0,0,0,0,0,-1,1714,1016,0,0
497,8,0,0,0,0,0,0,0,0,0,-1,1721,1016,0,0
504,8,0,0,0,0,0,0,0,0,0,-1,1728,1016,0,0
511,8,0,0,0,0,0,0,0,0,0,-1,1735,1016,0,0
518,8,0,0,0,0,0,0,0,0,0,-1,1742,1016,0,0
525,8,0,0,0,0,0,0,0,0,0,-1,1749,1016,0,0
532,8,0,0,0,0,0,0,0,0,0,-1,1756,1016,0,0
539,8,0,0,0,0,0,0,0,0,0,-1,1763,1016,0,0
546,8,0,0,0,0,0,0,0,0,0,-1,1770,1016,0,0
553,8,0,0,0,0,0,0,0,0,0,-1,1777,1016,0,0
560,8,0,0,0,0,0,0,0,0,0,-1,1784,1016,0,0
567,8,0,0,0,0,0,0,0,0,0,-1,1791,1016,0,0
574,8,0,0,0,0,0,0,0,0,0,-1,1798,1016,0,0
581,8,0,0,0,0,0,0,0,0,0,-1,1805,1016,0,0
588,8,0,0,0,0,0,0,0,0,0,-1,1812,1016,0,0
595,8,0,0,0,0,0,0,0,0,0,-1,1819,1016,0,0
602,8,0,0,0,0,0,0,0,0,0,-1,1826,1016,0,0
609,8,0,0,0,0,0,0,0,0,0,-1,1833,1016,0,0
616,8,0,0,0,0,0,0,0,0,0,-1,1840,1016,0,0
623,8,0,0,0,0,0,0,0,0,0,-1,1847,1016,0,0
630,8,0,0,0,0,0,0,0,0,0,-1,1854,1016,0,0
637,8,0,0,0,0,0,0,0,0,0,-1,1861,1016,0,0
644,8,4.17139,0.732239,-0.000176016,0.00176727,3.50869e-05,0.0017679,-0.00017665,1.55275,0.00124168,0.0458711,1868,1016,4.17133,-0.732257
651,8,4.22131,0.679688,-0.000401423,0.00157869,0.000573832,0.00173297,-0.000555698,1.30816,0.0013784,0.0382929,1875,1016,4.22137,-0.679715
658,8,4.30176,0.413086,-0.000418949,0.00112409,0.000678318,0.00137988,-0.000674736,1.21019,0.00120929,0.036234,1882,1016,4.30174,-0.41308
665,8,4.32739,0.471069,-0.000485378,0.000732752,0.000736463,0.00107937,-0.000832,1.1309,0.00110661,0.0372669,1889,1016,4.32744,-0.471044
672,8,4.32983,0.637085,-0.000477846,0.00039355,0.000793399,0.000863012,-0.000947308,1.03649,0.00104557,0.0388313,1896,1016,4.32982,-0.637077
679,8,4.27417,0.73114,-0.000451923,0.000100352,0.000764024,0.000636609,-0.000988179,0.958806,0.000945363,0.0370506,1903,1016,4.27422,-0.731168
686,8,4.17554,0.830811,-0.000392054,-0.000111922,0.000694194,0.000456195,-0.000960171,0.884945,0.000834817,0.0408515,1910,1016,4.17548,-0.830814
693,8,4.14172,0.726501,-0.00031384,-0.00023946,0.000606188,0.000330677,-0.000883978,0.816035,0.000725128,0.0382624,1917,1016,4.14176,-0.726487
700,8,4.28052,0.566162,-0.000172828,-0.000247313,0.000470186,0.000261588,-0.000681729,0.745877,0.000562342,0.028068,1924,1016,4.28053,-0.566172
707,8,4.26392,0.594055,-0.000114447,-0.000318137,0.000502322,0.00029625,-0.000728835,0.68538,0.000609146,0.0240669,1931,1016,4.26386,-0.594025
714,8,4.23584,0.681458,-0.000171395,-0.00031094,0.000456925,0.000221054,-0.000703389,0.709633,0.000557418,0.0279058,1938,1016,4.23586,-0.681467
721,8,4.29285,0.781738,-0.000156978,-0.000302492,0.000306538,8.53192e-05,-0.000544789,0.668879,0.000394718,0.0261473,1945,1016,4.29285,-0.781758
728,8,4.25879,0.737183,-1.38186e-05,-0.000193613,7.20982e-05,1.15216e-05,-0.000218953,0.337982,0.000149957,0.0191137,1952,1016,4.25876,-0.737207
735,8,4.22803,0.70752,0.000283586,-2.53799e-05,-0.000225173,0.000402174,-0.000143968,-0.484743,0.000326851,0.017787,1959,1016,4.22803,-0.70754
742,8,4.22668,0.681519,0.000718607,9.20583e-05,-0.00019788,0.000775868,3.47963e-05,-0.281683,0.000506046,0.0144781,1966,1016,4.22672,-0.681489
749,8,4.23364,0.69342,0.000591686,-0.000504973,8.20744e-05,0.000597794,-0.000511081,0.0742889,0.000640862,0.00941285,1973,1016,4.2337,-0.693448
756,8,4.26807,0.728271,-0.000303296,-0.0012238,0.000450841,-0.000119273,-0.00140782,0.387535,0.000901424,0.0115644,1980,1016,4.26803,-0.728271
763,8,4.25879,0.723816,-0.00201312,-0.00192057,0.00115257,-0.000813348,-0.00312034,0.805461,0.00186906,0.012274,1987,1016,4.25878,-0.723805
770,8,4.24316,0.712463,-0.00372614,-0.0029968,0.00195351,-0.00137422,-0.00534873,0.877674,0.00320742,0.0126825,1994,1016,4.24319,-0.712471
777,8,4.22705,0.738953,-0.00639746,-0.00440661,0.00326612,-0.0019876,-0.00881647,0.933313,0.00533988,0.0161569,2001,1016,4.22706,-0.73895
784,8,4.2074,0.761841,-0.0103711,-0.00620599,0.00511428,-0.0027665,-0.0138106,0.978747,0.00843744,0.0361498,2008,1016,4.20735,-0.761854
791,8,4.01099,0.66272,0,0,0,0,0,0,0,-1,2015,1016,4.01098,-0.662718
798,8,3.57458,0.561707,-0.0236619,-0.0106647,0.0107968,-0.00456157,-0.029765,1.05631,0.0185111,0.0453879,2022,1016,3.57455,-0.561703
805,8,3.2533,0.751831,-0.033714,-0.0129864,0.0148939,-0.00520533,-0.0414951,1.08936,0.0261019,0.0465891,2029,1016,3.25329,-0.751835
812,8,2.64038,0.759888,-0.04676,-0.0149227,0.0200123,-0.00526992,-0.0564127,1.12138,0.0359807,0.046776,2036,1016,2.6404,-0.759904
-700,1,0,0,0,0,0,0,0,0,0,-1,524,1023,0,0
-693,1,1.97809,-0.580627,-0.0175001,0.0535468,0.0138398,0.0561476,-0.0201009,1.38504,0.0456324,0.0405441,531,1023,1.97808,0.580603
-686,1,1.20007,0.0255127,-0.015649,0.0455861,0.0127664,0.048141,-0.018204,1.37327,0.0395828,0.0462909,538,1023,1.20007,-0.0255031
-679,1,-1.39545,1.31677,-0.0135466,0.0375368,0.0113383,0.0399403,-0.0159501,1.36191,0.0332445,0.045735,545,1023,-1.39543,-1.3168
-672,1,-1.42133,1.41608,-0.0114639,0.0299798,0.00977911,0.0321714,-0.0136555,1.35033,0.0271685,0.0427984,552,1023,-1.42131,-1.4161
-665,1,-0.942932,1.00256,-0.00951655,0.0232262,0.00822477,0.0251761,-0.0114664,1.33802,0.0216435,0.0414331,559,1023,-0.942931,-1.00255
-658,1,-0.81488,0.866821,-0.00775343,0.0174331,0.00674137,0.019124,-0.00944429,1.32505,0.0168065,0.0311893,566,1023,-0.814908,-0.866819
-651,1,-0.75415,0.794067,-0.00618817,0.0126588,0.00537026,0.0140816,-0.00761096,1.31181,0.0127086,0.0137807,573,1023,-0.754138,-0.794078
-644,1,-0.739014,0.799866,-0.00498223,0.00917636,0.00429505,0.0103774,-0.00618326,1.29813,0.00966297,0.0125845,580,1023,-0.739017,-0.799885
-637,1,-0.736206,0.804932,-0.00376708,0.00576823,0.00302168,0.00664514,-0.00464399,1.28835,0.00655183,0.011684,587,1023,-0.736222,-0.804922
-630,1,-0.739685,0.764343,-0.0023744,0.00314347,0.00200217,0.0037934,-0.00302433,1.25691,0.00394456,0.0129276,594,1023,-0.7397,-0.764314
-623,1,-0.760803,0.774841,-0.0012659,0.000902297,0.00140315,0.00159136,-0.00195496,1.11431,0.00205106,0.0132095,601,1023,-0.760799,-0.774842
-616,1,-0.773193,0.760864,-0.000901503,0.000327718,0.000671025,0.000623064,-0.00119685,1.15617,0.00106799,0.0162974,608,1023,-0.773172,-0.760846
-609,1,-0.758423,0.774658,-0.000320632,-0.00023618,0.000260266,-1.4737e-05,-0.000542075,0.865819,0.000356572,0.0173049,615,1023,-0.758424,-0.77468
-602,1,-0.734985,0.763184,0.000426619,-0.000340009,-0.000352377,0.000563977,-0.000477367,-0.371685,0.000601913,0.01309,622,1023,-0.734969,-0.763183
-595,1,-0.737854,0.749756,0.000765681,-0.000376601,-0.000673294,0.00107745,-0.000688368,-0.433651,0.00102771,0.0115437,629,1023,-0.737829,-0.74973
-588,1,-0.744141,0.766479,0.00106298,-0.00059777,-0.000817091,0.00139758,-0.000932367,-0.388667,0.0013541,0.0189593,636,1023,-0.744127,-0.766493
-581,1,-0.722534,0.75946,0.00144627,-0.000736549,-0.000931387,0.00178966,-0.00107994,-0.353227,0.00167357,0.0283664,643,1023,-0.722527,-0.759474
-574,1,-0.694458,0.835938,0.00177751,-0.000840749,-0.00108155,0.00216648,-0.00122973,-0.345244,0.00198551,0.0353506,650,1023,-0.694442,-0.835943
-567,1,-0.665649,0.867981,0.00204765,-0.000919312,-0.0011686,0.00245265,-0.00132431,-0.333611,0.00221283,0.0409422,657,1023,-0.665667,-0.867979
-560,1,-0.519409,0.777466,0.00231748,-0.000928569,-0.00116121,0.00269011,-0.0013012,-0.310514,0.00235043,0.0407722,664,1023,-0.519387,-0.777471
-553,1,-0.500427,0.578613,0.00263314,-0.000850272,-0.00101017,0.00290489,-0.00112202,-0.262788,0.00239969,0.0381996,671,1023,-0.50045,-0.578619
-546,1,-0.578979,0.622559,0.00307032,-0.000659732,-0.000682172,0.00319116,-0.000780577,-0.175327,0.00242979,0.038449,678,1023,-0.579009,-0.622529
-539,1,-0.351563,0.855591,0,0,0,0,0,0,0,-1,685,1023,-0.351562,-0.855602
-532,1,-0.436279,0.535522,0,0,0,0,0,0,0,-1,692,1023,-0.436281,-0.535551
-525,1,0,0,0,0,0,0,0,0,0,-1,699,1023,0,0
-518,1,0,0,0,0,0,0,0,0,0,-1,706,1023,0,0
-511,1,0,0,0,0,0,0,0,0,0,-1,713,1023,0,0
-504,1,0,0,0,0,0,0,0,0,0,-1,720,1023,0,0
-497,1,0,0,0,0,0,0,0,0,0,-1,727,1023,0,0
-490,1,0,0,0,0,0,0,0,0,0,-1,734,1023,0,0
-483,1,0,0,0,0,0,0,0,0,0,-1,741,1023,0,0
-476,1,0,0,0,0,0,0,0,0,0,-1,748,1023,0,0
-469,1,0,0,0,0,0,0,0,0,0,-1,755,1023,0,0
-462,1,0,0,0,0,0,0,0,0,0,-1,762,1023,0,0
-455,1,0,0,0,0,0,0,0,0,0,-1,769,1023,0,0
-448,1,0,0,0,0,0,0,0,0,0,-1,776,1023,0,0
-441,1,0,0,0,0,0,0,0,0,0,-1,783,1023,0,0
-434,1,0,0,0,0,0,0,0,0,0,-1,790,1023,0,0
-427,1,0,0,0,0,0,0,0,0,0,-1,797,1023,0,0
-420,1,0,0,0,0,0,0,0,0,0,-1,804,1023,0,0
-413,1,0,0,0,0,0,0,0,0,0,-1,811,1023,0,0
-406,1,0,0,0,0,0,0,0,0,0,-1,818,1023,0,0
-399,1,0,0,0,0,0,0,0,0,0,-1,825,1023,0,0
-392,1,0,0,0,0,0,0,0,0,0,-1,832,1023,0,0
-385,1,0,0,0,0,0,0,0,0,0,-1,839,1023,0,0
-378,1,0,0,0,0,0,0,0,0,0,-1,846,1023,0,0
-371,1,0,0,0,0,0,0,0,0,0,-1,853,1023,0,0
-364,1,0,0,0,0,0,0,0,0,0,-1,860,1023,0,0
-357,1,0,0,0,0,0,0,0,0,0,-1,867,1023,0,0
-350,1,0,0,0,0,0,0,0,0,0,-1,874,1023,0,0
-343,1,0,0,0,0,0,0,0,0,0,-1,881,1023,0,0
-336,1,0,0,0,0,0,0,0,0,0,-1,888,1023,0,0
-329,1,0,0,0,0,0,0,0,0,0,-1,895,1023,0,0
-322,1,0,0,0,0,0,0,0,0,0,-1,902,1023,0,0
-315,1,0,0,0,0,0,0,0,0,0,-1,909,1023,0,0
-308,1,0,0,0,0,0,0,0,0,0,-1,916,1023,0,0
-301,1,0,0,0,0,0,0,0,0,0,-1,923,1023,0,0
-294,1,0,0,0,0,0,0,0,0,0,-1,930,1023,0,0
-287,1,0,0,0,0,0,0,0,0,0,-1,937,1023,0,0
-280,1,0,0,0,0,0,0,0,0,0,-1,944,1023,0,0
-273,1,0,0,0,0,0,0,0,0,0,-1,951,1023,0,0
-266,1,0,0,0,0,0,0,0,0,0,-1,958,1023,0,0
-259,1,0,0,0,0,0,0,0,0,0,-1,965,1023,0,0
-252,1,0,0,0,0,0,0,0,0,0,-1,972,1023,0,0
-245,1,0,0,0,0,0,0,0,0,0,-1,979,1023,0,0
-238,1,0,0,0,0,0,0,0,0,0,-1,986,1023,0,0
-231,1,0,0,0,0,0,0,0,0,0,-1,993,1023,0,0
-224,1,0,0,0,0,0,0,0,0,0,-1,1000,1023,0,0
-217,1,0,0,0,0,0,0,0,0,0,-1,1007,1023,0,0
-210,1,0,0,0,0,0,0,0,0,0,-1,1014,1023,0,0
-203,1,0,0,0,0,0,0,0,0,0,-1,1021,1023,0,0
-196,1,0,0,0,0,0,0,0,0,0,-1,1028,1023,0,0
-189,1,0,0,0,0,0,0,0,0,0,-1,1035,1023,0,0
-182,1,0,0,0,0,0,0,0,0,0,-1,1042,1023,0,0
-175,1,0,0,0,0,0,0,0,0,0,-1,1049,1023,0,0
-168,1,0,0,0,0,0,0,0,0,0,-1,1056,1023,0,0
-161,1,0,0,0,0,0,0,0,0,0,-1,1063,1023,0,0
-154,1,0,0,0,0,0,0,0,0,0,-1,1070,1023,0,0
-147,1,0,0,0,0,0,0,0,0,0,-1,1077,1023,0,0
-140,1,0,0,0,0,0,0,0,0,0,-1,1084,1023,0,0
-133,1,0,0,0,0,0,0,0,0,0,-1,1091,1023,0,0
-126,1,0,0,0,0,0,0,0,0,0,-1,1098,1023,0,0
-119,1,0,0,0,0,0,0,0,0,0,-1,1105,1023,0,0
-112,1,0,0,0,0,0,0,0,0,0,-1,1112,1023,0,0
-105,1,0,0,0,0,0,0,0,0,0,-1,1119,1023,0,0
-98,1,0,0,0,0,0,0,0,0,0,-1,1126,1023,0,0
-91,1,0,0,0,0,0,0,0,0,0,-1,1133,1023,0,0
-84,1,0,0,0,0,0,0,0,0,0,-1,1140,1023,0,0
-77,1,0,0,0,0,0,0,0,0,0,-1,1147,1023,0,0
-70,1,0,0,0,0,0,0,0,0,0,-1,1154,1023,0,0
-63,1,0,0,0,0,0,0,0,0,0,-1,1161,1023,0,0
-56,1,0,0,0,0,0,0,0,0,0,-1,1168,1023,0,0
-49,1,0,0,0,0,0,0,0,0,0,-1,1175,1023,0,0
-42,1,0,0,0,0,0,0,0,0,0,-1,1182,1023,0,0
-35,1,0,0,0,0,0,0,0,0,0,-1,1189,1023,0,0
-28,1,0,0,0,0,0,0,0,0,0,-1,1196,1023,0,0
-21,1,0,0,0,0,0,0,0,0,0,-1,1203,1023,0,0
-14,1,0,0,0,0,0,0,0,0,0,-1,1210,1023,0,0
-7,1,0,0,0,0,0,0,0,0,0,-1,1217,1023,0,0
0,1,0,0,0,0,0,0,0,0,0,-1,1224,1023,0,0
7,1,0,0,0,0,0,0,0,0,0,-1,1231,1023,0,0
14,1,0,0,0,0,0,0,0,0,0,-1,1238,1023,0,0
21,1,0,0,0,0,0,0,0,0,0,-1,1245,1023,0,0
28,1,0,0,0,0,0,0,0,0,0,-1,1252,1023,0,0
35,1,0,0,0,0,0,0,0,0,0,-1,1259,1023,0,0
42,1,0,0,0,0,0,0,0,0,0,-1,1266,1023,0,0
49,1,0,0,0,0,0,0,0,0,0,-1,1273,1023,0,0
56,1,0,0,0,0,0,0,0,0,0,-1,1280,1023,0,0
63,1,0,0,0,0,0,0,0,0,0,-1,1287,1023,0,0
70,1,0,0,0,0,0,0,0,0,0,-1,1294,1023,0,0
77,1,0,0,0,0,0,0,0,0,0,-1,1301,1023,0,0
84,1,0,0,0,0,0,0,0,0,0,-1,1308,1023,0,0
91,1,0,0,0,0,0,0,0,0,0,-1,1315,1023,0,0
98,1,0,0,0,0,0,0,0,0,0,-1,1322,1023,0,0
105,1,0,0,0,0,0,0,0,0,0,-1,1329,1023,0,0
112,1,0,0,0,0,0,0,0,0,0,-1,1336,1023,0,0
119,1,0,0,0,0,0,0,0,0,0,-1,1343,1023,0,0
126,1,0,0,0,0,0,0,0,0,0,-1,1350,1023,0,0
133,1,0,0,0,0,0,0,0,0,0,-1,1357,1023,0,0
140,1,0,0,0,0,0,0,0,0,0,-1,1364,1023,0,0
147,1,0,0,0,0,0,0,0,0,0,-1,1371,1023,0,0
154,1,0,0,0,0,0,0,0,0,0,-1,1378,1023,0,0
161,1,0,0,0,0,0,0,0,0,0,-1,1385,1023,0,0
168,1,0,0,0,0,0,0,0,0,0,-1,1392,1023,0,0
175,1,0,0,0,0,0,0,0,0,0,-1,1399,1023,0,0
182,1,0,0,0,0,0,0,0,0,0,-1,1406,1023,0,0
189,1,0,0,0,0,0,0,0,0,0,-1,1413,1023,0,0
196,1,0,0,0,0,0,0,0,0,0,-1,1420,1023,0,0
203,1,0,0,0,0,0,0,0,0,0,-1,1427,1023,0,0
210,1,0,0,0,0,0,0,0,0,0,-1,1434,1023,0,0
217,1,0,0,0,0,0,0,0,0,0,-1,1441,1023,0,0
224,1,0,0,0,0,0,0,0,0,0,-1,1448,1023,0,0
231,1,0,0,0,0,0,0,0,0,0,-1,1455,1023,0,0
238,1,0,0,0,0,0,0,0,0,0,-1,1462,1023,0,0
245,1,0,0,0,0,0,0,0,0,0,-1,1469,1023,0,0
252,1,0,0,0,0,0,0,0,0,0,-1,1476,1023,0,0
259,1,0,0,0,0,0,0,0,0,0,-1,1483,1023,0,0
266,1,0,0,0,0,0,0,0,0,0,-1,1490,1023,0,0
273,1,0,0,0,0,0,0,0,0,0,-1,1497,1023,0,0
280,1,0,0,0,0,0,0,0,0,0,-1,1504,1023,0,0
287,1,0,0,0,0,0,0,0,0,0,-1,1511,1023,0,0
294,1,0,0,0,0,0,0,0,0,0,-1,1518,1023,0,0
301,1,0,0,0,0,0,0,0,0,0,-1,1525,1023,0,0
308,1,0,0,0,0,0,0,0,0,0,-1,1532,1023,0,0
315,1,0,0,0,0,0,0,0,0,0,-1,1539,1023,0,0
322,1,0,0,0,0,0,0,0,0,0,-1,1546,1023,0,0
329,1,0,0,0,0,0,0,0,0,0,-1,1553,1023,0,0
336,1,0,0,0,0,0,0,0,0,0,-1,1560,1023,0,0
343,1,0,0,0,0,0,0,0,0,0,-1,1567,1023,0,0
350,1,0,0,0,0,0,0,0,0,0,-1,1574,1023,0,0
357,1,0,0,0,0,0,0,0,0,0,-1,1581,1023,0,0
364,1,0,0,0,0,0,0,0,0,0,-1,1588,1023,0,0
371,1,0,0,0,0,0,0,0,0,0,-1,1595,1023,0,0
378,1,0,0,0,0,0,0,0,0,0,-1,1602,1023,0,0
385,1,0,0,0,0,0,0,0,0,0,-1,1609,1023,0,0
392,1,0,0,0,0,0,0,0,0,0,-1,1616,1023,0,0
399,1,0,0,0,0,0,0,0,0,0,-1,1623,1023,0,0
406,1,0,0,0,0,0,0,0,0,0,-1,1630,1023,0,0
413,1,0,0,0,0,0,0,0,0,0,-1,1637,1023,0,0
420,1,0,0,0,0,0,0,0,0,0,-1,1644,1023,0,0
427,1,0,0,0,0,0,0,0,0,0,-1,1651,1023,0,0
434,1,0,0,0,0,0,0,0,0,0,-1,1658,1023,0,0
441,1,0,0,0,0,0,0,0,0,0,-1,1665,1023,0,0
448,1,0,0,0,0,0,0,0,0,0,-1,1672,1023,0,0
455,1,0,0,0,0,0,0,0,0,0,-1,1679,1023,0,0
462,1,0,0,0,0,0,0,0,0,0,-1,1686,1023,0,0
469,1,0,0,0,0,0,0,0,0,0,-1,1693,1023,0,0
476,1,0,0,0,0,0,0,0,0,0,-1,1700,1023,0,0
483,1,0,0,0,0,0,0,0,0,0,-1,1707,1023,0,0
490,1,0,0,0,0,0,0,0,0,0,-1,1714,1023,0,0
497,1,0,0,0,0,0,0,0,0,0,-1,1721,1023,0,0
504,1,0,0,0,0,0,0,0,0,0,-1,1728,1023,0,0
511,1,0,0,0,0,0,0,0,0,0,-1,1735,1023,0,0
518,1,0,0,0,0,0,0,0,0,0,-1,1742,1023,0,0
525,1,0,0,0,0,0,0,0,0,0,-1,1749,1023,0,0
532,1,0,0,0,0,0,0,0,0,0,-1,1756,1023,0,0
539,1,0,0,0,0,0,0,0,0,0,-1,1763,1023,0,0
546,1,0,0,0,0,0,0,0,0,0,-1,1770,1023,0,0
553,1,0,0,0,0,0,0,0,0,0,-1,1777,1023,0,0
560,1,0,0,0,0,0,0,0,0,0,-1,1784,1023,0,0
567,1,0,0,0,0,0,0,0,0,0,-1,1791,1023,0,0
574,1,0,0,0,0,0,0,0,0,0,-1,1798,1023,0,0
581,1,0,0,0,0,0,0,0,0,0,-1,1805,1023,0,0
588,1,0,0,0,0,0,0,0,0,0,-1,1812,1023,0,0
595,1,0,0,0,0,0,0,0,0,0,-1,1819,1023,0,0
602,1,0,0,0,0,0,0,0,0,0,-1,1826,1023,0,0
609,1,0,0,0,0,0,0,0,0,0,-1,1833,1023,0,0
616,1,0,0,0,0,0,0,0,0,0,-1,1840,1023,0,0
623,1,0,0,0,0,0,0,0,0,0,-1,1847,1023,0,0
630,1,0,0,0,0,0,0,0,0,0,-1,1854,1023,0,0
637,1,0,0,0,0,0,0,0,0,0,-1,1861,1023,0,0
644,1,0,0,0,0,0,0,0,0,0,-1,1868,1023,0,0
651,1,4.22852,0.654541,-0.000383484,0.0012489,0.000512967,0.00139671,-0.000531296,1.29024,0.00114991,0.0384,1875,1023,4.2285,-0.65453
658,1,4.28418,0.453979,-0.000456565,0.000982032,0.000833473,0.00136367,-0.000838206,1.1414,0.00128326,0.0370347,1882,1023,4.28413,-0.453956
665,1,4.33142,0.430542,-0.000552716,0.000738015,0.000951867,0.00124267,-0.00105737,1.0833,0.00132937,0.0384495,1889,1023,4.33148,-0.430559
672,1,4.35205,0.779419,-0.000555292,0.000520534,0.00102464,0.00113988,-0.00117464,1.02711,0.00133634,0.0415082,1896,1023,4.35202,-0.77942
679,1,4.14783,1.04474,-0.000515046,0.000314017,0.000972739,0.000956868,-0.0011579,0.98682,0.0012228,0.0390884,1903,1023,4.1478,-1.04476
686,1,4.07349,0.936951,-0.000430777,0.000151746,0.000855374,0.000764088,-0.00104312,0.949495,0.00104753,0.0397638,1910,1023,4.07348,-0.936925
693,1,4.17126,0.83606,-0.000325303,4.14208e-05,0.000715045,0.00059624,-0.000880122,0.910911,0.000857614,0.0378008,1917,1023,4.17127,-0.83605
700,1,4.3042,0.669006,-0.00017291,2.68125e-05,0.000552388,0.000488293,-0.000634391,0.874823,0.000650009,0.0295883,1924,1023,4.30419,-0.668992
707,1,4.26941,0.632751,-6.96771e-05,-5.77285e-05,0.000550258,0.000486587,-0.000613993,0.790827,0.000636838,0.0244526,1931,1023,4.26944,-0.632765
714,1,4.22717,0.739929,-0.000110513,-6.39229e-05,0.000482186,0.000395531,-0.000569966,0.809535,0.000560454,0.0260619,1938,1023,4.22714,-0.739905
721,1,4.23889,0.847717,-0.000118769,-8.68717e-05,0.00029789,0.000195496,-0.000401137,0.812142,0.00035122,0.0251782,1945,1023,4.23889,-0.847689
728,1,4.229,0.732849,1.81183e-05,-3.04766e-05,2.43318e-05,2.82069e-05,-4.05652e-05,0.393053,3.99188e-05,0.0167625,1952,1023,4.22906,-0.732839
735,1,4.24329,0.710327,0.000274824,5.67199e-05,-0.000247855,0.000436557,-0.000105013,-0.578151,0.000331631,0.0174022,1959,1023,4.24334,-0.710348
742,1,4.25635,0.69574,0.000615521,8.961e-05,-0.000102063,0.000634634,7.04972e-05,-0.18512,0.000401658,0.0146418,1966,1023,4.25629,-0.695739
749,1,4.24695,0.706116,0.000468788,-0.000536087,0.000329073,0.00056696,-0.000634259,0.289924,0.000693887,0.0109941,1973,1023,4.24696,-0.706141
756,1,4.25244,0.733765,-0.000280768,-0.00116594,0.000857792,0.000241887,-0.00168859,0.547232,0.00121441,0.0108018,1980,1023,4.25246,-0.733783
763,1,4.25537,0.743164,-0.00165975,-0.00169709,0.00171834,4.00229e-05,-0.00339686,0.779966,0.00227803,0.0123736,1987,1023,4.25537,-0.743138
770,1,4.23853,0.733643,-0.0030407,-0.00261031,0.00271711,-9.9886e-05,-0.00555112,0.824916,0.0036679,0.0120424,1994,1023,4.23857,-0.733629
777,1,4.22791,0.726501,-0.00518231,-0.00375621,0.00428451,-0.00012582,-0.0088127,0.867855,0.00583365,0.0132961,2001,1023,4.22786,-0.726486
784,1,4.2157,0.7229,-0.00834661,-0.00514681,0.00643956,-0.000111378,-0.013382,0.907157,0.00888447,0.0331003,2008,1023,4.21565,-0.722925
791,1,4.33325,0.544006,0,0,0,0,0,0,0,-1,2015,1023,4.33327,-0.543983
798,1,4.25476,0.717712,0,0,0,0,0,0,0,-1,2022,1023,4.25479,-0.717694
805,1,2.99805,1.12592,0,0,0,0,0,0,0,-1,2029,1023,2.99802,-1.12594
812,1,2.43994,0.557922,0,0,0,0,0,0,0,-1,2036,1023,2.43995,-0.557947
-700,-6,0,0,0,0,0,0,0,0,0,-1,524,1030,0,0
-693,-6,0.426514,0.486816,-0.0181684,0.0445412,0.013321,0.0472536,-0.0208808,1.36993,0.0403077,0.0410815,531,1030,0.426537,-0.486841
-686,-6,1.00079,-0.0189209,-0.0160518,0.03941,0.0124617,0.0420814,-0.0187232,1.35963,0.0359586,0.0440249,538,1030,1.00078,0.0188874
-679,-6,0.359802,0.410034,-0.0137063,0.0334937,0.0111232,0.0359837,-0.0161962,1.35057,0.0308397,0.0446272,545,1030,0.359824,-0.410012
-672,-6,-1.59686,1.64099,-0.0114323,0.0275095,0.00959151,0.0297437,-0.0136665,1.34194,0.0256295,0.0491357,552,1030,-1.59684,-1.64104
-665,-6,-0.276672,0.895142,-0.00934377,0.0218743,0.00803298,0.0238201,-0.0112895,1.33315,0.0206964,0.0435385,559,1030,-0.276691,-0.895107
-658,-6,-0.705383,0.870728,-0.00749117,0.0168359,0.00653326,0.0184794,-0.00913471,1.32435,0.0162444,0.0375398,566,1030,-0.705375,-0.870716
-651,-6,-0.742737,0.851563,-0.00588721,0.0125319,0.00514786,0.013873,-0.00722831,1.31594,0.0123826,0.029981,573,1030,-0.742743,-0.851544
-644,-6,-0.740051,0.810181,-0.00470535,0.00936763,0.00410412,0.0104771,-0.00581477,1.30679,0.00953361,0.0244253,580,1030,-0.740036,-0.81021
-637,-6,-0.73999,0.787354,-0.00348378,0.0062347,0.00284793,0.00700777,-0.00425685,1.30573,0.00656796,0.0151879,587,1030,-0.739974,-0.787294
-630,-6,-0.740784,0.749756,-0.00203115,0.00366832,0.00182305,0.00420156,-0.00256439,1.28624,0.00394425,0.0128781,594,1030,-0.740794,-0.749721
-623,-6,-0.754578,0.746216,-0.000889969,0.0013438,0.00119007,0.001859,-0.00140517,1.16224,0.00189063,0.0135715,601,1030,-0.754599,-0.746164
-616,-6,-0.767883,0.774658,-0.000617239,0.000580792,0.0004719,0.000744344,-0.00078079,1.23717,0.000880621,0.0149495,608,1030,-0.767875,-0.774675
-609,-6,-0.754211,0.771973,-0.00011334,-0.000144439,0.000184802,5.65651e-05,-0.000314344,0.743426,0.000230741,0.0171126,615,1030,-0.754206,-0.771946
-602,-6,-0.737793,0.762085,0.000618331,-0.000320278,-0.000361314,0.000741305,-0.000443253,-0.328056,0.000691083,0.012304,622,1030,-0.737774,-0.762142
-595,-6,-0.72113,0.74939,0.000974167,-0.0004206,-0.000643219,0.00122551,-0.000671939,-0.372508,0.00111092,0.0122269,629,1030,-0.721151,-0.749362
-588,-6,-0.715515,0.762451,0.00127368,-0.000670674,-0.000755058,0.00153246,-0.000929448,-0.330175,0.00143552,0.0148496,636,1030,-0.715515,-0.762495
-581,-6,-0.737183,0.820923,0.00162234,-0.000815765,-0.000834802,0.00188078,-0.00107421,-0.300225,0.00172712,0.0226453,643,1030,-0.737164,-0.820941
-574,-6,-0.763855,0.88208,0.00191793,-0.000948829,-0.000957584,0.00220836,-0.00123927,-0.294484,0.00201653,0.0310466,650,1030,-0.763857,-0.882126
-567,-6,-0.849304,0.985962,0.00213692,-0.00105596,-0.00102368,0.00243694,-0.00135597,-0.285091,0.00221928,0.0402668,657,1030,-0.849315,-0.985972
-560,-6,-0.545288,0.693848,0.00232551,-0.0010938,-0.000997916,0.00259544,-0.00136373,-0.264172,0.0023224,0.0407976,664,1030,-0.545292,-0.69386
-553,-6,-0.549194,0.645996,0.00252916,-0.00103717,-0.000831263,0.00271339,-0.00122141,-0.218111,0.00232556,0.0402158,671,1030,-0.549165,-0.646035
-546,-6,-0.541992,0.556763,0.00280924,-0.000846266,-0.00048679,0.00287296,-0.00090998,-0.130145,0.00227999,0.0415366,678,1030,-0.541963,-0.556722
-539,-6,-0.544434,0.478882,0.00327551,-0.000471504,9.1887e-05,0.00327776,-0.000473756,0.0245031,0.002359,0.0413444,685,1030,-0.54443,-0.47894
-532,-6,-0.63739,0.585205,0.00405141,0.000173736,0.00100587,0.00429681,-7.16592e-05,0.239288,0.00288872,0.0427263,692,1030,-0.637378,-0.585256
-525,-6,0,0,0,0,0,0,0,0,0,-1,699,1030,0,0
-518,-6,0,0,0,0,0,0,0,0,0,-1,706,1030,0,0
-511,-6,0,0,0,0,0,0,0,0,0,-1,713,1030,0,0
-504,-6,0,0,0,0,0,0,0,0,0,-1,720,1030,0,0
-497,-6,0,0,0,0,0,0,0,0,0,-1,727,1030,0,0
-490,-6,0,0,0,0,0,0,0,0,0,-1,734,1030,0,0
-483,-6,0,0,0,0,0,0,0,0,0,-1,741,1030,0,0
-476,-6,0,0,0,0,0,0,0,0,0,-1,748,1030,0,0
-469,-6,0,0,0,0,0,0,0,0,0,-1,755,1030,0,0
-462,-6,0,0,0,0,0,0,0,0,0,-1,762,1030,0,0
-455,-6,0,0,0,0,0,0,0,0,0,-1,769,1030,0,0
-448,-6,0,0,0,0,0,0,0,0,0,-1,776,1030,0,0
-441,-6,0,0,0,0,0,0,0,0,0,-1,783,1030,0,0
-434,-6,0,0,0,0,0,0,0,0,0,-1,790,1030,0,0
-427,-6,0,0,0,0,0,0,0,0,0,-1,797,1030,0,0
-420,-6,0,0,0,0,0,0,0,0,0,-1,804,1030,0,0
-413,-6,0,0,0,0,0,0,0,0,0,-1,811,1030,0,0
-406,-6,0,0,0,0,0,0,0,0,0,-1,818,1030,0,0
-399,-6,0,0,0,0,0,0,0,0,0,-1,825,1030,0,0
-392,-6,0,0,0,0,0,0,0,0,0,-1,832,1030,0,0
-385,-6,0,0,0,0,0,0,0,0,0,-1,839,1030,0,0
-378,-6,0,0,0,0,0,0,0,0,0,-1,846,1030,0,0
-371,-6,0,0,0,0,0,0,0,0,0,-1,853,1030,0,0
-364,-6,0,0,0,0,0,0,0,0,0,-1,860,1030,0,0
-357,-6,0,0,0,0,0,0,0,0,0,-1,867,1030,0,0
-350,-6,0,0,0,0,0,0,0,0,0,-1,874,1030,0,0
-343,-6,0,0,0,0,0,0,0,0,0,-1,881,1030,0,0
-336,-6,0,0,0,0,0,0,0,0,0,-1,888,1030,0,0
-329,-6,0,0,0,0,0,0,0,0,0,-1,895,1030,0,0
-322,-6,0,0,0,0,0,0,0,0,0,-1,902,1030,0,0
-315,-6,0,0,0,0,0,0,0,0,0,-1,909,1030,0,0
-308,-6,0,0,0,0,0,0,0,0,0,-1,916,1030,0,0
-301,-6,0,0,0,0,0,0,0,0,0,-1,923,1030,0,0
-294,-6,0,0,0,0,0,0,0,0,0,-1,930,1030,0,0
-287,-6,0,0,0,0,0,0,0,0,0,-1,937,1030,0,0
-280,-6,0,0,0,0,0,0,0,0,0,-1,944,1030,0,0
-273,-6,0,0,0,0,0,0,0,0,0,-1,951,1030,0,0
-266,-6,0,0,0,0,0,0,0,0,0,-1,958,1030,0,0
-259,-6,0,0,0,0,0,0,0,0,0,-1,965,1030,0,0
-252,-6,0,0,0,0,0,0,0,0,0,-1,972,1030,0,0
-245,-6,0,0,0,0,0,0,0,0,0,-1,979,1030,0,0
-238,-6,0,0,0,0,0,0,0,0,0,-1,986,1030,0,0
-231,-6,0,0,0,0,0,0,0,0,0,-1,993,1030,0,0
-224,-6,0,0,0,0,0,0,0,0,0,-1,1000,1030,0,0
-217,-6,0,0,0,0,0,0,0,0,0,-1,1007,1030,0,0
-210,-6,0,0,0,0,0,0,0,0,0,-1,1014,1030,0,0
-203,-6,0,0,0,0,0,0,0,0,0,-1,1021,1030,0,0
-196,-6,0,0,0,0,0,0,0,0,0,-1,1028,1030,0,0
-189,-6,0,0,0,0,0,0,0,0,0,-1,1035,1030,0,0
-182,-6,0,0,0,0,0,0,0,0,0,-1,1042,1030,0,0
-175,-6,0,0,0,0,0,0,0,0,0,-1,1049,1030,0,0
-168,-6,0,0,0,0,0,0,0,0,0,-1,1056,1030,0,0
-161,-6,0,0,0,0,0,0,0,0,0,-1,1063,1030,0,0
-154,-6,0,0,0,0,0,0,0,0,0,-1,1070,1030,0,0
-147,-6,0,0,0,0,0,0,0,0,0,-1,1077,1030,0,0
-140,-6,0,0,0,0,0,0,0,0,0,-1,1084,1030,0,0
-133,-6,0,0,0,0,0,0,0,0,0,-1,1091,1030,0,0
-126,-6,0,0,0,0,0,0,0,0,0,-1,1098,1030,0,0
-119,-6,0,0,0,0,0,0,0,0,0,-1,1105,1030,0,0
-112,-6,0,0,0,0,0,0,0,0,0,-1,1112,1030,0,0
-105,-6,0,0,0,0,0,0,0,0,0,-1,1119,1030,0,0
-98,-6,0,0,0,0,0,0,0,0,0,-1,1126,1030,0,0
-91,-6,0,0,0,0,0,0,0,0,0,-1,1133,1030,0,0
-84,-6,0,0,0,0,0,0,0,0,0,-1,1140,1030,0,0
-77,-6,0,0,0,0,0,0,0,0,0,-1,1147,1030,0,0
-70,-6,0,0,0,0,0,0,0,0,0,-1,1154,1030,0,0
-63,-6,0,0,0,0,0,0,0,0,0,-1,1161,1030,0,0
-56,-6,0,0,0,0,0,0,0,0,0,-1,1168,1030,0,0
-49,-6,0,0,0,0,0,0,0,0,0,-1,1175,1030,0,0
-42,-6,0,0,0,0,0,0,0,0,0,-1,1182,1030,0,0
-35,-6,0,0,0,0,0,0,0,0,0,-1,1189,1030,0,0
-28,-6,0,0,0,0,0,0,0,0,0,-1,1196,1030,0,0
-21,-6,0,0,0,0,0,0,0,0,0,-1,1203,1030,0,0
-14,-6,0,0,0,0,0,0,0,0,0,-1,1210,1030,0,0
-7,-6,0,0,0,0,0,0,0,0,0,-1,1217,1030,0,0
0,-6,0,0,0,0,0,0,0,0,0,-1,1224,1030,0,0
7,-6,0,0,0,0,0,0,0,0,0,-1,1231,1030,0,0
14,-6,0,0,0,0,0,0,0,0,0,-1,1238,1030,0,0
21,-6,0,0,0,0,0,0,0,0,0,-1,1245,1030,0,0
28,-6,0,0,0,0,0,0,0,0,0,-1,1252,1030,0,0
35,-6,0,0,0,0,0,0,0,0,0,-1,1259,1030,0,0
42,-6,0,0,0,0,0,0,0,0,0,-1,1266,1030,0,0
49,-6,0,0,0,0,0,0,0,0,0,-1,1273,1030,0,0
56,-6,0,0,0,0,0,0,0,0,0,-1,1280,1030,0,0
63,-6,0,0,0,0,0,0,0,0,0,-1,1287,1030,0,0
70,-6,0,0,0,0,0,0,0,0,0,-1,1294,1030,0,0
77,-6,0,0,0,0,0,0,0,0,0,-1,1301,1030,0,0
84,-6,0,0,0,0,0,0,0,0,0,-1,1308,1030,0,0
91,-6,0,0,0,0,0,0,0,0,0,-1,1315,1030,0,0
98,-6,0,0,0,0,0,0,0,0,0,-1,1322,1030,0,0
105,-6,0,0,0,0,0,0,0,0,0,-1,1329,1030,0,0
112,-6,0,0,0,0,0,0,0,0,0,-1,1336,1030,0,0
119,-6,0,0,0,0,0,0,0,0,0,-1,1343,1030,0,0
126,-6,0,0,0,0,0,0,0,0,0,-1,1350,1030,0,0
133,-6,0,0,0,0,0,0,0,0,0,-1,1357,1030,0,0
140,-6,0,0,0,0,0,0,0,0,0,-1,1364,1030,0,0
147,-6,0,0,0,0,0,0,0,0,0,-1,1371,1030,0,0
154,-6,0,0,0,0,0,0,0,0,0,-1,1378,1030,0,0
161,-6,0,0,0,0,0,0,0,0,0,-1,1385,1030,0,0
168,-6,0,0,0,0,0,0,0,0,0,-1,1392,1030,0,0
175,-6,0,0,0,0,0,0,0,0,0,-1,1399,1030,0,0
182,-6,0,0,0,0,0,0,0,0,0,-1,1406,1030,0,0
189,-6,0,0,0,0,0,0,0,0,0,-1,1413,1030,0,0
196,-6,0,0,0,0,0,0,0,0,0,-1,1420,1030,0,0
203,-6,0,0,0,0,0,0,0,0,0,-1,1427,1030,0,0
210,-6,0,0,0,0,0,0,0,0,0,-1,1434,1030,0,0
217,-6,0,0,0,0,0,0,0,0,0,-1,1441,1030,0,0
224,-6,0,0,0,0,0,0,0,0,0,-1,1448,1030,0,0
231,-6,0,0,0,0,0,0,0,0,0,-1,1455,1030,0,0
238,-6,0,0,0,0,0,0,0,0,0,-1,1462,1030,0,0
245,-6,0,0,0,0,0,0,0,0,0,-1,1469,1030,0,0
252,-6,0,0,0,0,0,0,0,0,0,-1,1476,1030,0,0
259,-6,0,0,0,0,0,0,0,0,0,-1,1483,1030,0,0
266,-6,0,0,0,0,0,0,0,0,0,-1,1490,1030,0,0
273,-6,0,0,0,0,0,0,0,0,0,-1,1497,1030,0,0
280,-6,0,0,0,0,0,0,0,0,0,-1,1504,1030,0,0
287,-6,0,0,0,0,0,0,0,0,0,-1,1511,1030,0,0
294,-6,0,0,0,0,0,0,0,0,0,-1,1518,1030,0,0
301,-6,0,0,0,0,0,0,0,0,0,-1,1525,1030,0,0
308,-6,0,0,0,0,0,0,0,0,0,-1,1532,1030,0,0
315,-6,0,0,0,0,0,0,0,0,0,-1,1539,1030,0,0
322,-6,0,0,0,0,0,0,0,0,0,-1,1546,1030,0,0
329,-6,0,0,0,0,0,0,0,0,0,-1,1553,1030,0,0
336,-6,0,0,0,0,0,0,0,0,0,-1,1560,1030,0,0
343,-6,0,0,0,0,0,0,0,0,0,-1,1567,1030,0,0
350,-6,0,0,0,0,0,0,0,0,0,-1,1574,1030,0,0
357,-6,0,0,0,0,0,0,0,0,0,-1,1581,1030,0,0
364,-6,0,0,0,0,0,0,0,0,0,-1,1588,1030,0,0
371,-6,0,0,0,0,0,0,0,0,0,-1,1595,1030,0,0
378,-6,0,0,0,0,0,0,0,0,0,-1,1602,1030,0,0
385,-6,0,0,0,0,0,0,0,0,0,-1,1609,1030,0,0
392,-6,0,0,0,0,0,0,0,0,0,-1,1616,1030,0,0
399,-6,0,0,0,0,0,0,0,0,0,-1,1623,1030,0,0
406,-6,0,0,0,0,0,0,0,0,0,-1,1630,1030,0,0
413,-6,0,0,0,0,0,0,0,0,0,-1,1637,1030,0,0
420,-6,0,0,0,0,0,0,0,0,0,-1,1644,1030,0,0
427,-6,0,0,0,0,0,0,0,0,0,-1,1651,1030,0,0
434,-6,0,0,0,0,0,0,0,0,0,-1,1658,1030,0,0
441,-6,0,0,0,0,0,0,0,0,0,-1,1665,1030,0,0
448,-6,0,0,0,0,0,0,0,0,0,-1,1672,1030,0,0
455,-6,0,0,0,0,0,0,0,0,0,-1,1679,1030,0,0
462,-6,0,0,0,0,0,0,0,0,0,-1,1686,1030,0,0
469,-6,0,0,0,0,0,0,0,0,0,-1,1693,1030,0,0
476,-6,0,0,0,0,0,0,0,0,0,-1,1700,1030,0,0
483,-6,0,0,0,0,0,0,0,0,0,-1,1707,1030,0,0
490,-6,0,0,0,0,0,0,0,0,0,-1,1714,1030,0,0
497,-6,0,0,0,0,0,0,0,0,0,-1,1721,1030,0,0
504,-6,0,0,0,0,0,0,0,0,0,-1,1728,1030,0,0
511,-6,0,0,0,0,0,0,0,0,0,-1,1735,1030,0,0
518,-6,0,0,0,0,0,0,0,0,0,-1,1742,1030,0,0
525,-6,0,0,0,0,0,0,0,0,0,-1,1749,1030,0,0
532,-6,0,0,0,0,0,0,0,0,0,-1,1756,1030,0,0
539,-6,0,0,0,0,0,0,0,0,0,-1,1763,1030,0,0
546,-6,0,0,0,0,0,0,0,0,0,-1,1770,1030,0,0
553,-6,0,0,0,0,0,0,0,0,0,-1,1777,1030,0,0
560,-6,0,0,0,0,0,0,0,0,0,-1,1784,1030,0,0
567,-6,0,0,0,0,0,0,0,0,0,-1,1791,1030,0,0
574,-6,0,0,0,0,0,0,0,0,0,-1,1798,1030,0,0
581,-6,0,0,0,0,0,0,0,0,0,-1,1805,1030,0,0
588,-6,0,0,0,0,0,0,0,0,0,-1,1812,1030,0,0
595,-6,0,0,0,0,0,0,0,0,0,-1,1819,1030,0,0
602,-6,0,0,0,0,0,0,0,0,0,-1,1826,1030,0,0
609,-6,0,0,0,0,0,0,0,0,0,-1,1833,1030,0,0
616,-6,0,0,0,0,0,0,0,0,0,-1,1840,1030,0,0
623,-6,0,0,0,0,0,0,0,0,0,-1,1847,1030,0,0
630,-6,0,0,0,0,0,0,0,0,0,-1,1854,1030,0,0
637,-6,0,0,0,0,0,0,0,0,0,-1,1861,1030,0,0
644,-6,0,0,0,0,0,0,0,0,0,-1,1868,1030,0,0
651,-6,4.30334,0.702759,-0.000658699,0.000595656,0.000444762,0.000737351,-0.000800394,1.26238,0.000888066,0.0363709,1875,1030,4.30329,-0.70279
658,-6,4.31226,0.515137,-0.000670295,0.000625551,0.000918706,0.00110183,-0.00114657,1.09252,0.0012982,0.0373833,1882,1030,4.31221,-0.515159
665,-6,4.39746,0.429443,-0.00070605,0.000592024,0.00107123,0.0011955,-0.00130952,1.05776,0.00144677,0.0408606,1889,1030,4.39747,-0.429413
672,-6,4.40295,0.805054,-0.000659955,0.000527706,0.00115293,0.00123075,-0.00136299,1.02321,0.00149815,0.0424572,1896,1030,4.40295,-0.805001
679,-6,4.23035,1.12866,-0.000572323,0.000425989,0.00108869,0.0011245,-0.00127084,1.00034,0.00138381,0.0413774,1903,1030,4.23039,-1.12872
686,-6,4.21704,0.915161,-0.000447716,0.000322253,0.000943436,0.000956231,-0.00108169,0.979119,0.00117734,0.039324,1910,1030,4.21705,-0.915187
693,-6,4.28955,0.717041,-0.000311357,0.000233267,0.000773667,0.000781146,-0.000859237,0.954615,0.000947434,0.0381379,1917,1030,4.2896,-0.717092
700,-6,4.33875,0.650879,-0.000152806,0.00020557,0.000604538,0.000656917,-0.000604153,0.929476,0.000728292,0.0323413,1924,1030,4.33871,-0.650917
707,-6,4.24585,0.609253,-1.42802e-05,0.000116561,0.000577248,0.000632084,-0.000529803,0.841823,0.000671681,0.0272263,1931,1030,4.24582,-0.609309
714,-6,4.20679,0.72937,-3.14937e-05,0.000106497,0.000499705,0.000541947,-0.000466944,0.854001,0.00058302,0.031246,1938,1030,4.20673,-0.729431
721,-6,4.20911,0.817505,-5.53396e-05,5.11401e-05,0.000305289,0.000307797,-0.000311997,0.871726,0.000357841,0.0293918,1945,1030,4.20907,-0.817552
728,-6,4.21729,0.722168,5.50566e-05,5.4656e-05,1.20032e-05,6.68612e-05,4.28514e-05,0.777055,3.91099e-05,0.0204617,1952,1030,4.21726,-0.722121
735,-6,4.24744,0.701538,0.000266573,8.24392e-05,-0.000230763,0.000422957,-7.39448e-05,-0.59559,0.000309577,0.0171254,1959,1030,4.24744,-0.70152
742,-6,4.27551,0.69812,0.00060895,9.41412e-05,-5.14021e-06,0.000609001,9.40899e-05,-0.00998338,0.000378555,0.0135531,1966,1030,4.27555,-0.698154
749,-6,4.25,0.711914,0.000638638,-0.000411585,0.000553889,0.000876766,-0.000649714,0.406031,0.000884557,0.0113988,1973,1030,4.24995,-0.711874
756,-6,4.25989,0.724365,0.000245579,-0.000795225,0.00121739,0.00104913,-0.00159878,0.583416,0.00153971,0.0123082,1980,1030,4.25994,-0.724382
763,-6,4.26123,0.735596,-0.000504534,-0.000973903,0.00220498,0.00147821,-0.00295665,0.732381,0.00260746,0.0116101,1987,1030,4.26126,-0.735563
770,-6,4.23877,0.735596,-0.00118175,-0.00146925,0.00336087,0.00203844,-0.00468944,0.764025,0.00398359,0.0102162,1994,1030,4.23882,-0.735619
777,-6,4.22083,0.73584,-0.00231581,-0.00203541,0.00513515,0.00296145,-0.00731267,0.799046,0.00610652,0.013032,2001,1030,4.22079,-0.73583
784,-6,4.24365,0.666138,-0.00409107,-0.00264007,0.00755144,0.00422064,-0.0109518,0.833289,0.00904259,0.0344976,2008,1030,4.2436,-0.666149
791,-6,4.39771,0.609619,-0.00671556,-0.00315152,0.0106644,0.00587877,-0.0157458,0.868183,0.0129109,0.0457741,2015,1030,4.39765,-0.609591
798,-6,4.5155,0.702026,-0.010381,-0.00333276,0.0145958,0.00815835,-0.0218721,0.903855,0.0179306,0.043518,2022,1030,4.51545,-0.702067
805,-6,4.65759,0.617676,0,0,0,0,0,0,0,-1,2029,1030,4.65755,-0.617692
812,-6,4.68738,0.551392,0,0,0,0,0,0,0,-1,2036,1030,4.68733,-0.551342
-700,-13,0,0,0,0,0,0,0,0,0,-1,524,1037,0,0
-693,-13,0.183167,-0.0167236,-0.0184802,0.0377146,0.010698,0.0396824,-0.0204479,1.3889,0.0353033,0.043199,531,1037,0.183179,0.0167826
-686,-13,0.122803,0.0262451,-0.0161463,0.0343447,0.0106111,0.036484,-0.0182857,1.37185,0.0321979,0.0400104,538,1037,0.122823,-0.0262442
-679,-13,0.0595093,0.153931,-0.0136478,0.0299259,0.00983044,0.032041,-0.015763,1.35887,0.028128,0.0435995,545,1037,0.0595324,-0.153948
-672,-13,-0.0383911,0.228149,-0.0112772,0.0251576,0.00870188,0.0271292,-0.0132488,1.34798,0.023767,0.0474187,552,1037,-0.0384059,-0.22815
-665,-13,-0.235107,0.27356,-0.00913006,0.0204611,0.00742544,0.0222198,-0.0108888,1.33823,0.0194849,0.0455617,559,1037,-0.235113,-0.273574
-658,-13,-0.371033,0.428223,-0.0072527,0.0161056,0.00611539,0.0176098,-0.00875689,1.32962,0.0155062,0.0426342,566,1037,-0.371007,-0.428203
-651,-13,-0.584961,0.738647,-0.00565287,0.0122596,0.00485499,0.0134908,-0.00688413,1.32243,0.0119679,0.0377856,573,1037,-0.584973,-0.738681
-644,-13,-0.74762,0.762329,-0.00449205,0.00935187,0.00395218,0.0104007,-0.00554087,1.3114,0.00934533,0.0270872,580,1037,-0.747638,-0.762378
-637,-13,-0.749451,0.75293,-0.00327959,0.00653934,0.00278661,0.00727505,-0.0040153,1.31267,0.00660843,0.0185074,587,1037,-0.749431,-0.752889
-630,-13,-0.750305,0.731323,-0.0017905,0.00410432,0.00176417,0.00459195,-0.00227814,1.30112,0.00404074,0.0123665,594,1037,-0.750313,-0.731355
-623,-13,-0.744934,0.746704,-0.000638053,0.00177036,0.00108908,0.00218979,-0.00105748,1.20318,0.00191243,0.0107468,601,1037,-0.744921,-0.74675
-616,-13,-0.731506,0.758789,-0.000443471,0.000841088,0.000354644,0.000932495,-0.000534878,1.31854,0.000857493,0.0102467,608,1037,-0.7315,-0.758793
-609,-13,-0.721619,0.770386,1.10698e-05,2.49019e-05,0.000154384,0.000172525,-0.000136553,0.807782,0.000178848,0.0154729,615,1037,-0.721608,-0.770365
-602,-13,-0.736938,0.759033,0.000748874,-0.000164255,-0.00035656,0.000871608,-0.000286988,-0.331512,0.000696724,0.0107562,622,1037,-0.736919,-0.759049
-595,-13,-0.734131,0.747437,0.00116942,-0.000282609,-0.000615011,0.0013949,-0.000508085,-0.351406,0.00113776,0.0126298,629,1037,-0.734111,-0.747449
-588,-13,-0.676025,0.696899,0.00151568,-0.000536095,-0.000703236,0.00173357,-0.000753986,-0.300461,0.00147284,0.0208939,636,1037,-0.676032,-0.696851
-581,-13,-0.694336,0.855957,0.00186506,-0.000689325,-0.000769623,0.00207902,-0.000903287,-0.271161,0.00176588,0.0207951,643,1037,-0.694339,-0.855959
-574,-13,-0.818726,0.934448,0.00213421,-0.000842757,-0.000884801,0.00237733,-0.00108588,-0.268157,0.0020453,0.0350289,650,1037,-0.81871,-0.934407
-567,-13,-0.817444,0.997314,0.00233657,-0.000991312,-0.000944443,0.00258592,-0.00124066,-0.258125,0.00225433,0.041505,657,1037,-0.817437,-0.997298
-560,-13,-0.818787,1.11682,0.00247535,-0.00110399,-0.000921723,0.00269876,-0.0013274,-0.237797,0.00236903,0.0425939,664,1037,-0.818794,-1.11687
-553,-13,-0.598572,0.657837,0.00257861,-0.00116214,-0.000773337,0.00273218,-0.00131571,-0.196031,0.00238427,0.0431538,671,1037,-0.598548,-0.657776
-546,-13,-0.590576,0.568481,0.00266878,-0.00113012,-0.000464691,0.00272479,-0.00118614,-0.119966,0.00231549,0.0404351,678,1037,-0.590587,-0.568516
-539,-13,-0.5802,0.587524,0.00280875,-0.000966249,5.97636e-05,0.0028097,-0.000967195,0.0158261,0.00226543,0.0394329,685,1037,-0.580186,-0.587501
-532,-13,-0.674194,0.677979,0.00307131,-0.000592894,0.000895415,0.00327841,-0.000799999,0.227298,0.00249539,0.0412402,692,1037,-0.674199,-0.67797
-525,-13,0,0,0,0,0,0,0,0,0,-1,699,1037,0,0
-518,-13,0,0,0,0,0,0,0,0,0,-1,706,1037,0,0
-511,-13,0,0,0,0,0,0,0,0,0,-1,713,1037,0,0
-504,-13,0,0,0,0,0,0,0,0,0,-1,720,1037,0,0
-497,-13,0,0,0,0,0,0,0,0,0,-1,727,1037,0,0
-490,-13,0,0,0,0,0,0,0,0,0,-1,734,1037,0,0
-483,-13,0,0,0,0,0,0,0,0,0,-1,741,1037,0,0
-476,-13,0,0,0,0,0,0,0,0,0,-1,748,1037,0,0
-469,-13,0,0,0,0,0,0,0,0,0,-1,755,1037,0,0
-462,-13,0,0,0,0,0,0,0,0,0,-1,762,1037,0,0
-455,-13,0,0,0,0,0,0,0,0,0,-1,769,1037,0,0
-448,-13,0,0,0,0,0,0,0,0,0,-1,776,1037,0,0
-441,-13,0,0,0,0,0,0,0,0,0,-1,783,1037,0,0
-434,-13,0,0,0,0,0,0,0,0,0,-1,790,1037,0,0
-427,-13,0,0,0,0,0,0,0,0,0,-1,797,1037,0,0
-420,-13,0,0,0,0,0,0,0,0,0,-1,804,1037,0,0
-413,-13,0,0,0,0,0,0,0,0,0,-1,811,1037,0,0
-406,-13,0,0,0,0,0,0,0,0,0,-1,818,1037,0,0
-399,-13,0,0,0,0,0,0,0,0,0,-1,825,1037,0,0
-392,-13,0,0,0,0,0,0,0,0,0,-1,832,1037,0,0
-385,-13,0,0,0,0,0,0,0,0,0,-1,839,1037,0,0
-378,-13,0,0,0,0,0,0,0,0,0,-1,846,1037,0,0
-371,-13,0,0,0,0,0,0,0,0,0,-1,853,1037,0,0
-364,-13,0,0,0,0,0,0,0,0,0,-1,860,1037,0,0
-357,-13,0,0,0,0,0,0,0,0,0,-1,867,1037,0,0
-350,-13,0,0,0,0,0,0,0,0,0,-1,874,1037,0,0
-343,-13,0,0,0,0,0,0,0,0,0,-1,881,1037,0,0
-336,-13,0,0,0,0,0,0,0,0,0,-1,888,1037,0,0
-329,-13,0,0,0,0,0,0,0,0,0,-1,895,1037,0,0
-322,-13,0,0,0,0,0,0,0,0,0,-1,902,1037,0,0
-315,-13,0,0,0,0,0,0,0,0,0,-1,909,1037,0,0
-308,-13,0,0,0,0,0,0,0,0,0,-1,916,1037,0,0
-301,-13,0,0,0,0,0,0,0,0,0,-1,923,1037,0,0
-294,-13,0,0,0,0,0,0,0,0,0,-1,930,1037,0,0
-287,-13,0,0,0,0,0,0,0,0,0,-1,937,1037,0,0
-280,-13,0,0,0,0,0,0,0,0,0,-1,944,1037,0,0
-273,-13,0,0,0,0,0,0,0,0,0,-1,951,1037,0,0
-266,-13,0,0,0,0,0,0,0,0,0,-1,958,1037,0,0
-259,-13,0,0,0,0,0,0,0,0,0,-1,965,1037,0,0
-252,-13,0,0,0,0,0,0,0,0,0,-1,972,1037,0,0
-245,-13,0,0,0,0,0,0,0,0,0,-1,979,1037,0,0
-238,-13,0,0,0,0,0,0,0,0,0,-1,986,1037,0,0
-231,-13,0,0,0,0,0,0,0,0,0,-1,993,1037,0,0
-224,-13,0,0,0,0,0,0,0,0,0,-1,1000,1037,0,0
-217,-13,0,0,0,0,0,0,0,0,0,-1,1007,1037,0,0
-210,-13,0,0,0,0,0,0,0,0,0,-1,1014,1037,0,0
-203,-13,0,0,0,0,0,0,0,0,0,-1,1021,1037,0,0
-196,-13,0,0,0,0,0,0,0,0,0,-1,1028,1037,0,0
-189,-13,0,0,0,0,0,0,0,0,0,-1,1035,1037,0,0
-182,-13,0,0,0,0,0,0,0,0,0,-1,1042,1037,0,0
-175,-13,0,0,0,0,0,0,0,0,0,-1,1049,1037,0,0
-168,-13,0,0,0,0,0,0,0,0,0,-1,1056,1037,0,0
-161,-13,0,0,0,0,0,0,0,0,0,-1,1063,1037,0,0
-154,-13,0,0,0,0,0,0,0,0,0,-1,1070,1037,0,0
-147,-13,0,0,0,0,0,0,0,0,0,-1,1077,1037,0,0
-140,-13,0,0,0,0,0,0,0,0,0,-1,1084,1037,0,0
-133,-13,0,0,0,0,0,0,0,0,0,-1,1091,1037,0,0
-126,-13,0,0,0,0,0,0,0,0,0,-1,1098,1037,0,0
-119,-13,0,0,0,0,0,0,0,0,0,-1,1105,1037,0,0
-112,-13,0,0,0,0,0,0,0,0,0,-1,1112,1037,0,0
-105,-13,0,0,0,0,0,0,0,0,0,-1,1119,1037,0,0
-98,-13,0,0,0,0,0,0,0,0,0,-1,1126,1037,0,0
-91,-13,0,0,0,0,0,0,0,0,0,-1,1133,1037,0,0
-84,-13,0,0,0,0,0,0,0,0,0,-1,1140,1037,0,0
-77,-13,0,0,0,0,0,0,0,0,0,-1,1147,1037,0,0
-70,-13,0,0,0,0,0,0,0,0,0,-1,1154,1037,0,0
-63,-13,0,0,0,0,0,0,0,0,0,-1,1161,1037,0,0
-56,-13,0,0,0,0,0,0,0,0,0,-1,1168,1037,0,0
-49,-13,0,0,0,0,0,0,0,0,0,-1,1175,1037,0,0
-42,-13,0,0,0,0,0,0,0,0,0,-1,1182,1037,0,0
-35,-13,0,0,0,0,0,0,0,0,0,-1,1189,1037,0,0
-28,-13,0,0,0,0,0,0,0,0,0,-1,1196,1037,0,0
-21,-13,0,0,0,0,0,0,0,0,0,-1,1203,1037,0,0
-14,-13,0,0,0,0,0,0,0,0,0,-1,1210,1037,0,0
-7,-13,0,0,0,0,0,0,0,0,0,-1,1217,1037,0,0
0,-13,0,0,0,0,0,0,0,0,0,-1,1224,1037,0,0
7,-13,0,0,0,0,0,0,0,0,0,-1,1231,1037,0,0
14,-13,0,0,0,0,0,0,0,0,0,-1,1238,1037,0,0
21,-13,0,0,0,0,0,0,0,0,0,-1,1245,1037,0,0
28,-13,0,0,0,0,0,0,0,0,0,-1,1252,1037,0,0
35,-13,0,0,0,0,0,0,0,0,0,-1,1259,1037,0,0
42,-13,0,0,0,0,0,0,0,0,0,-1,1266,1037,0,0
49,-13,0,0,0,0,0,0,0,0,0,-1,1273,1037,0,0
56,-13,0,0,0,0,0,0,0,0,0,-1,1280,1037,0,0
63,-13,0,0,0,0,0,0,0,0,0,-1,1287,1037,0,0
70,-13,0,0,0,0,0,0,0,0,0,-1,1294,1037,0,0
77,-13,0,0,0,0,0,0,0,0,0,-1,1301,1037,0,0
84,-13,0,0,0,0,0,0,0,0,0,-1,1308,1037,0,0
91,-13,0,0,0,0,0,0,0,0,0,-1,1315,1037,0,0
98,-13,0,0,0,0,0,0,0,0,0,-1,1322,1037,0,0
105,-13,0,0,0,0,0,0,0,0,0,-1,1329,1037,0,0
112,-13,0,0,0,0,0,0,0,0,0,-1,1336,1037,0,0
119,-13,0,0,0,0,0,0,0,0,0,-1,1343,1037,0,0
126,-13,0,0,0,0,0,0,0,0,0,-1,1350,1037,0,0
133,-13,0,0,0,0,0,0,0,0,0,-1,1357,1037,0,0
140,-13,0,0,0,0,0,0,0,0,0,-1,1364,1037,0,0
147,-13,0,0,0,0,0,0,0,0,0,-1,1371,1037,0,0
154,-13,0,0,0,0,0,0,0,0,0,-1,1378,1037,0,0
161,-13,0,0,0,0,0,0,0,0,0,-1,1385,1037,0,0
168,-13,0,0,0,0,0,0,0,0,0,-1,1392,1037,0,0
175,-13,0,0,0,0,0,0,0,0,0,-1,1399,1037,0,0
182,-13,0,0,0,0,0,0,0,0,0,-1,1406,1037,0,0
189,-13,0,0,0,0,0,0,0,0,0,-1,1413,1037,0,0
196,-13,0,0,0,0,0,0,0,0,0,-1,1420,1037,0,0
203,-13,0,0,0,0,0,0,0,0,0,-1,1427,1037,0,0
210,-13,0,0,0,0,0,0,0,0,0,-1,1434,1037,0,0
217,-13,0,0,0,0,0,0,0,0,0,-1,1441,1037,0,0
224,-13,0,0,0,0,0,0,0,0,0,-1,1448,1037,0,0
231,-13,0,0,0,0,0,0,0,0,0,-1,1455,1037,0,0
238,-13,0,0,0,0,0,0,0,0,0,-1,1462,1037,0,0
245,-13,0,0,0,0,0,0,0,0,0,-1,1469,1037,0,0
252,-13,0,0,0,0,0,0,0,0,0,-1,1476,1037,0,0
259,-13,0,0,0,0,0,0,0,0,0,-1,1483,1037,0,0
266,-13,0,0,0,0,0,0,0,0,0,-1,1490,1037,0,0
273,-13,0,0,0,0,0,0,0,0,0,-1,1497,1037,0,0
280,-13,0,0,0,0,0,0,0,0,0,-1,1504,1037,0,0
287,-13,0,0,0,0,0,0,0,0,0,-1,1511,1037,0,0
294,-13,0,0,0,0,0,0,0,0,0,-1,1518,1037,0,0
301,-13,0,0,0,0,0,0,0,0,0,-1,1525,1037,0,0
308,-13,0,0,0,0,0,0,0,0,0,-1,1532,1037,0,0
315,-13,0,0,0,0,0,0,0,0,0,-1,1539,1037,0,0
322,-13,0,0,0,0,0,0,0,0,0,-1,1546,1037,0,0
329,-13,0,0,0,0,0,0,0,0,0,-1,1553,1037,0,0
336,-13,0,0,0,0,0,0,0,0,0,-1,1560,1037,0,0
343,-13,0,0,0,0,0,0,0,0,0,-1,1567,1037,0,0
350,-13,0,0,0,0,0,0,0,0,0,-1,1574,1037,0,0
357,-13,0,0,0,0,0,0,0,0,0,-1,1581,1037,0,0
364,-13,0,0,0,0,0,0,0,0,0,-1,1588,1037,0,0
371,-13,0,0,0,0,0,0,0,0,0,-1,1595,1037,0,0
378,-13,0,0,0,0,0,0,0,0,0,-1,1602,1037,0,0
385,-13,0,0,0,0,0,0,0,0,0,-1,1609,1037,0,0
392,-13,0,0,0,0,0,0,0,0,0,-1,1616,1037,0,0
399,-13,0,0,0,0,0,0,0,0,0,-1,1623,1037,0,0
406,-13,0,0,0,0,0,0,0,0,0,-1,1630,1037,0,0
413,-13,0,0,0,0,0,0,0,0,0,-1,1637,1037,0,0
420,-13,0,0,0,0,0,0,0,0,0,-1,1644,1037,0,0
427,-13,0,0,0,0,0,0,0,0,0,-1,1651,1037,0,0
434,-13,0,0,0,0,0,0,0,0,0,-1,1658,1037,0,0
441,-13,0,0,0,0,0,0,0,0,0,-1,1665,1037,0,0
448,-13,0,0,0,0,0,0,0,0,0,-1,1672,1037,0,0
455,-13,0,0,0,0,0,0,0,0,0,-1,1679,1037,0,0
462,-13,0,0,0,0,0,0,0,0,0,-1,1686,1037,0,0
469,-13,0,0,0,0,0,0,0,0,0,-1,1693,1037,0,0
476,-13,0,0,0,0,0,0,0,0,0,-1,1700,1037,0,0
483,-13,0,0,0,0,0,0,0,0,0,-1,1707,1037,0,0
490,-13,0,0,0,0,0,0,0,0,0,-1,1714,1037,0,0
497,-13,0,0,0,0,0,0,0,0,0,-1,1721,1037,0,0
504,-13,0,0,0,0,0,0,0,0,0,-1,1728,1037,0,0
511,-13,0,0,0,0,0,0,0,0,0,-1,1735,1037,0,0
518,-13,0,0,0,0,0,0,0,0,0,-1,1742,1037,0,0
525,-13,0,0,0,0,0,0,0,0,0,-1,1749,1037,0,0
532,-13,0,0,0,0,0,0,0,0,0,-1,1756,1037,0,0
539,-13,0,0,0,0,0,0,0,0,0,-1,1763,1037,0,0
546,-13,0,0,0,0,0,0,0,0,0,-1,1770,1037,0,0
553,-13,0,0,0,0,0,0,0,0,0,-1,1777,1037,0,0
560,-13,0,0,0,0,0,0,0,0,0,-1,1784,1037,0,0
567,-13,0,0,0,0,0,0,0,0,0,-1,1791,1037,0,0
574,-13,0,0,0,0,0,0,0,0,0,-1,1798,1037,0,0
581,-13,0,0,0,0,0,0,0,0,0,-1,1805,1037,0,0
588,-13,0,0,0,0,0,0,0,0,0,-1,1812,1037,0,0
595,-13,0,0,0,0,0,0,0,0,0,-1,1819,1037,0,0
602,-13,0,0,0,0,0,0,0,0,0,-1,1826,1037,0,0
609,-13,0,0,0,0,0,0,0,0,0,-1,1833,1037,0,0
616,-13,0,0,0,0,0,0,0,0,0,-1,1840,1037,0,0
623,-13,0,0,0,0,0,0,0,0,0,-1,1847,1037,0,0
630,-13,0,0,0,0,0,0,0,0,0,-1,1854,1037,0,0
637,-13,0,0,0,0,0,0,0,0,0,-1,1861,1037,0,0
644,-13,0,0,0,0,0,0,0,0,0,-1,1868,1037,0,0
651,-13,4.38708,0.438721,-0.000782264,0.000523809,0.000264633,0.000575391,-0.000833846,1.37829,0.000818172,0.0371789,1875,1037,4.38715,-0.438667
658,-13,4.31824,0.34314,-0.000745847,0.000632583,0.000869807,0.00105313,-0.0011664,1.12044,0.001282,0.0407052,1882,1037,4.3182,-0.343098
665,-13,4.3313,0.372192,-0.000739271,0.000655811,0.00106123,0.00122822,-0.00131168,1.07614,0.00146667,0.0423031,1889,1037,4.33134,-0.372196
672,-13,4.35437,0.588257,-0.000667347,0.000636109,0.00116883,0.00132263,-0.00135387,1.03972,0.00154531,0.0393444,1896,1037,4.35431,-0.5883
679,-13,4.2821,0.851807,-0.000558957,0.000568066,0.00111978,0.00125813,-0.00124903,1.01851,0.00144751,0.0395682,1903,1037,4.28205,-0.851795
686,-13,4.255,0.736694,-0.000420269,0.000480296,0.000976038,0.00110491,-0.00104488,1.00152,0.00124135,0.0396563,1910,1037,4.25497,-0.736652
693,-13,4.25708,0.761353,-0.000275786,0.000390706,0.000804164,0.000927938,-0.000813019,0.981827,0.00100587,0.0397181,1917,1037,4.25709,-0.761348
700,-13,4.2771,0.729736,-0.000124766,0.000332944,0.000648115,0.000791423,-0.000583244,0.955119,0.000796692,0.0381394,1924,1037,4.27709,-0.729706
707,-13,4.24744,0.579712,3.47999e-05,0.00023038,0.000599911,0.000740419,-0.000475239,0.866192,0.000707404,0.0321094,1931,1037,4.24745,-0.579685
714,-13,4.23047,0.692627,2.75964e-05,0.000222315,0.000526121,0.000660009,-0.000410098,0.876889,0.000623417,0.0274566,1938,1037,4.23045,-0.692685
721,-13,4.23425,0.845215,-1.83579e-05,0.000155023,0.000346644,0.000425653,-0.000288987,0.907927,0.000415105,0.0290963,1945,1037,4.23424,-0.845235
728,-13,4.22485,0.729614,6.9279e-05,0.000122616,4.55521e-05,0.000148732,4.3163e-05,1.05022,8.83542e-05,0.0219521,1952,1037,4.22485,-0.729643
735,-13,4.24927,0.700073,0.000236666,0.00010904,-0.000167448,0.000352048,-6.34226e-06,-0.603347,0.000236841,0.0176558,1959,1037,4.2493,-0.700076
742,-13,4.25671,0.702637,0.00055879,0.00013008,0.000111063,0.000585854,0.000103017,0.239022,0.000361162,0.0110067,1966,1037,4.25674,-0.702615
749,-13,4.25024,0.7146,0.000737823,-0.000215954,0.000777239,0.00117281,-0.000650945,0.51023,0.00106722,0.0149369,1973,1037,4.25019,-0.714643
756,-13,4.25574,0.699219,0.000715503,-0.000323736,0.00156833,0.00184805,-0.00145629,0.62543,0.00191223,0.0123059,1980,1037,4.25569,-0.699185
763,-13,4.26099,0.692993,0.000542474,-0.00016932,0.00263946,0.00284992,-0.00247677,0.718384,0.00307788,0.0117737,1987,1037,4.26101,-0.692951
770,-13,4.24756,0.716797,0.000509865,-0.000246433,0.00392447,0.00407436,-0.00381093,0.737368,0.00455342,0.0106508,1994,1037,4.2476,-0.716747
777,-13,4.23242,0.723267,0.000297673,-0.000254096,0.00586259,0.00589086,-0.00584729,0.761886,0.00677704,0.0115136,2001,1037,4.23246,-0.723246
784,-13,4.26099,0.670776,-0.000213916,-0.000129389,0.00848169,0.00831014,-0.00865345,0.78789,0.0097946,0.026868,2008,1037,4.261,-0.67079
791,-13,4.3197,0.599365,-0.00118164,0.000268092,0.0118255,0.0113909,-0.0123045,0.816008,0.0136839,0.0439945,2015,1037,4.31974,-0.59939
798,-13,4.59631,0.794922,-0.00276903,0.00118356,0.0160155,0.0153442,-0.0169297,0.846787,0.0186408,0.0468234,2022,1037,4.59627,-0.794958
805,-13,4.7229,0.840942,0,0,0,0,0,0,0,-1,2029,1037,4.72295,-0.840947
812,-13,5.66833,1.57043,0,0,0,0,0,0,0,-1,2036,1037,5.66837,-1.5704
-700,-20,-0.556702,-0.642456,-0.0205279,0.0307547,0.00767411,0.0318784,-0.0216517,1.4254,0.0310931,0.0465295,524,1044,-0.556717,0.642453
-693,-20,-0.139099,-0.589111,-0.0188743,0.0309365,0.0096824,0.0327524,-0.0206902,1.3854,0.031116,0.0417505,531,1044,-0.139124,0.589169
-686,-20,-0.093689,-0.613037,-0.0166401,0.0288425,0.0101603,0.031009,-0.0188066,1.36071,0.0290472,0.0410607,538,1044,-0.0936938,0.613036
-679,-20,0.0130005,-0.509644,-0.0141636,0.0256617,0.00975235,0.0279216,-0.0164235,1.34309,0.0258879,0.046026,545,1044,0.0129808,0.509677
-672,-20,-0.0905762,-0.471436,-0.0117608,0.0220124,0.0088526,0.0241922,-0.0139406,1.32937,0.0222796,0.0482386,552,1044,-0.0906045,0.471427
-665,-20,-0.0933228,-0.508667,-0.00954467,0.0182695,0.00769229,0.0202551,-0.0115303,1.31818,0.0185803,0.04459,559,1044,-0.0933181,0.508655
-658,-20,-0.431763,0.142456,-0.00758717,0.01468,0.00641514,0.0163959,-0.00930313,1.30943,0.0150246,0.0429876,566,1044,-0.431736,-0.142405
-651,-20,-0.601868,0.569336,-0.00590806,0.0114083,0.00513621,0.0128171,-0.00731689,1.30309,0.0117681,0.037116,573,1044,-0.601876,-0.569294
-644,-20,-0.737671,0.710815,-0.00467769,0.00882198,0.00420234,0.0100232,-0.00587895,1.29237,0.00928448,0.0241515,580,1044,-0.737645,-0.710755
-637,-20,-0.74762,0.713501,-0.00338333,0.00643501,0.00305312,0.00730697,-0.0042553,1.2926,0.00675254,0.0154547,587,1044,-0.747611,-0.713542
-630,-20,-0.738098,0.769287,-0.00179184,0.00425634,0.00195859,0.00483519,-0.00237069,1.28343,0.00424065,0.0127645,594,1044,-0.738081,-0.76928
-623,-20,-0.747559,0.760864,-0.000565383,0.00205089,0.00113794,0.00247658,-0.000991064,1.21283,0.00206237,0.0123107,601,1044,-0.747533,-0.760892
-616,-20,-0.731689,0.751587,-0.000387417,0.00102805,0.00031645,0.00109558,-0.000454943,1.36056,0.000920311,0.0117781,608,1044,-0.731694,-0.751615
-609,-20,-0.707764,0.783081,6.76435e-05,0.000176218,0.0001493,0.000280795,-3.69327e-05,0.959773,0.000200644,0.0135011,615,1044,-0.707765,-0.783072
-602,-20,-0.729553,0.771362,0.000819496,2.70504e-05,-0.000360624,0.000959036,-0.00011249,-0.369199,0.000679963,0.0103874,622,1044,-0.729534,-0.771385
-595,-20,-0.744751,0.771973,0.00128751,-7.86701e-05,-0.000611394,0.00152116,-0.000312321,-0.365034,0.00113266,0.0104182,629,1044,-0.744772,-0.771965
-588,-20,-0.765991,0.754883,0.0016552,-0.000277407,-0.000670651,0.00186512,-0.000487333,-0.303357,0.00143374,0.0187084,636,1044,-0.765965,-0.754851
-581,-20,-0.742859,0.873901,0,0,0,0,0,0,0,-1,643,1044,-0.742873,-0.873862
-574,-20,-0.809265,0.864502,0.0022855,-0.000540933,-0.000758299,0.00247609,-0.000731524,-0.246239,0.00194107,0.0389941,650,1044,-0.809279,-0.86455
-567,-20,-0.636108,0.786255,0.00250065,-0.000679603,-0.000759682,0.0026728,-0.000851753,-0.222845,0.00212351,0.0442568,657,1044,-0.636102,-0.786263
-560,-20,-0.426697,0.76001,0,0,0,0,0,0,0,-1,664,1044,-0.42667,-0.760026
-553,-20,-0.721619,0.637939,0.00275683,-0.000914946,-0.000426243,0.00280566,-0.000963777,-0.114065,0.00226123,0.0418787,671,1044,-0.721609,-0.637992
-546,-20,-0.706177,0.67334,0.00282387,-0.000978749,-3.17654e-06,0.00282388,-0.000978751,-0.000835355,0.00227997,0.0390065,678,1044,-0.706173,-0.673329
-539,-20,-0.790161,0.890381,0.00290149,-0.000974989,0.000675796,0.00301593,-0.00108942,0.167742,0.00245568,0.0402709,685,1044,-0.790189,-0.890324
-532,-20,-0.700256,0.776367,0.00305395,-0.000862842,0.00171528,0.00369892,-0.00150781,0.359658,0.00309356,0.0424776,692,1044,-0.700246,-0.776352
-525,-20,0,0,0,0,0,0,0,0,0,-1,699,1044,0,0
-518,-20,0,0,0,0,0,0,0,0,0,-1,706,1044,0,0
-511,-20,0,0,0,0,0,0,0,0,0,-1,713,1044,0,0
-504,-20,0,0,0,0,0,0,0,0,0,-1,720,1044,0,0
-497,-20,0,0,0,0,0,0,0,0,0,-1,727,1044,0,0
-490,-20,0,0,0,0,0,0,0,0,0,-1,734,1044,0,0
-483,-20,0,0,0,0,0,0,0,0,0,-1,741,1044,0,0
-476,-20,0,0,0,0,0,0,0,0,0,-1,748,1044,0,0
-469,-20,0,0,0,0,0,0,0,0,0,-1,755,1044,0,0
-462,-20,0,0,0,0,0,0,0,0,0,-1,762,1044,0,0
-455,-20,0,0,0,0,0,0,0,0,0,-1,769,1044,0,0
-448,-20,0,0,0,0,0,0,0,0,0,-1,776,1044,0,0
-441,-20,0,0,0,0,0,0,0,0,0,-1,783,1044,0,0
-434,-20,0,0,0,0,0,0,0,0,0,-1,790,1044,0,0
-427,-20,0,0,0,0,0,0,0,0,0,-1,797,1044,0,0
-420,-20,0,0,0,0,0,0,0,0,0,-1,804,1044,0,0
-413,-20,0,0,0,0,0,0,0,0,0,-1,811,1044,0,0
-406,-20,0,0,0,0,0,0,0,0,0,-1,818,1044,0,0
-399,-20,0,0,0,0,0,0,0,0,0,-1,825,1044,0,0
-392,-20,0,0,0,0,0,0,0,0,0,-1,832,1044,0,0
-385,-20,0,0,0,0,0,0,0,0,0,-1,839,1044,0,0
-378,-20,0,0,0,0,0,0,0,0,0,-1,846,1044,0,0
-371,-20,0,0,0,0,0,0,0,0,0,-1,853,1044,0,0
-364,-20,0,0,0,0,0,0,0,0,0,-1,860,1044,0,0
-357,-20,0,0,0,0,0,0,0,0,0,-1,867,1044,0,0
-350,-20,0,0,0,0,0,0,0,0,0,-1,874,1044,0,0
-343,-20,0,0,0,0,0,0,0,0,0,-1,881,1044,0,0
-336,-20,0,0,0,0,0,0,0,0,0,-1,888,1044,0,0
-329,-20,0,0,0,0,0,0,0,0,0,-1,895,1044,0,0
-322,-20,0,0,0,0,0,0,0,0,0,-1,902,1044,0,0
-315,-20,0,0,0,0,0,0,0,0,0,-1,909,1044,0,0
-308,-20,0,0,0,0,0,0,0,0,0,-1,916,1044,0,0
-301,-20,0,0,0,0,0,0,0,0,0,-1,923,1044,0,0
-294,-20,0,0,0,0,0,0,0,0,0,-1,930,1044,0,0
-287,-20,0,0,0,0,0,0,0,0,0,-1,937,1044,0,0
-280,-20,0,0,0,0,0,0,0,0,0,-1,944,1044,0,0
-273,-20,0,0,0,0,0,0,0,0,0,-1,951,1044,0,0
-266,-20,0,0,0,0,0,0,0,0,0,-1,958,1044,0,0
-259,-20,0,0,0,0,0,0,0,0,0,-1,965,1044,0,0
-252,-20,0,0,0,0,0,0,0,0,0,-1,972,1044,0,0
-245,-20,0,0,0,0,0,0,0,0,0,-1,979,1044,0,0
-238,-20,0,0,0,0,0,0,0,0,0,-1,986,1044,0,0
-231,-20,0,0,0,0,0,0,0,0,0,-1,993,1044,0,0
-224,-20,0,0,0,0,0,0,0,0,0,-1,1000,1044,0,0
-217,-20,0,0,0,0,0,0,0,0,0,-1,1007,1044,0,0
-210,-20,0,0,0,0,0,0,0,0,0,-1,1014,1044,0,0
-203,-20,0,0,0,0,0,0,0,0,0,-1,1021,1044,0,0
-196,-20,0,0,0,0,0,0,0,0,0,-1,1028,1044,0,0
-189,-20,0,0,0,0,0,0,0,0,0,-1,1035,1044,0,0
-182,-20,0,0,0,0,0,0,0,0,0,-1,1042,1044,0,0
-175,-20,0,0,0,0,0,0,0,0,0,-1,1049,1044,0,0
-168,-20,0,0,0,0,0,0,0,0,0,-1,1056,1044,0,0
-161,-20,0,0,0,0,0,0,0,0,0,-1,1063,1044,0,0
-154,-20,0,0,0,0,0,0,0,0,0,-1,1070,1044,0,0
-147,-20,0,0,0,0,0,0,0,0,0,-1,1077,1044,0,0
-140,-20,0,0,0,0,0,0,0,0,0,-1,1084,1044,0,0
-133,-20,0,0,0,0,0,0,0,0,0,-1,1091,1044,0,0
-126,-20,0,0,0,0,0,0,0,0,0,-1,1098,1044,0,0
-119,-20,0,0,0,0,0,0,0,0,0,-1,1105,1044,0,0
-112,-20,0,0,0,0,0,0,0,0,0,-1,1112,1044,0,0
-105,-20,0,0,0,0,0,0,0,0,0,-1,1119,1044,0,0
-98,-20,0,0,0,0,0,0,0,0,0,-1,1126,1044,0,0
-91,-20,0,0,0,0,0,0,0,0,0,-1,1133,1044,0,0
-84,-20,0,0,0,0,0,0,0,0,0,-1,1140,1044,0,0
-77,-20,0,0,0,0,0,0,0,0,0,-1,1147,1044,0,0
-70,-20,0,0,0,0,0,0,0,0,0,-1,1154,1044,0,0
-63,-20,0,0,0,0,0,0,0,0,0,-1,1161,1044,0,0
-56,-20,0,0,0,0,0,0,0,0,0,-1,1168,1044,0,0
-49,-20,0,0,0,0,0,0,0,0,0,-1,1175,1044,0,0
-42,-20,0,0,0,0,0,0,0,0,0,-1,1182,1044,0,0
-35,-20,0,0,0,0,0,0,0,0,0,-1,1189,1044,0,0
-28,-20,0,0,0,0,0,0,0,0,0,-1,1196,1044,0,0
-21,-20,0,0,0,0,0,0,0,0,0,-1,1203,1044,0,0
-14,-20,0,0,0,0,0,0,0,0,0,-1,1210,1044,0,0
-7,-20,0,0,0,0,0,0,0,0,0,-1,1217,1044,0,0
0,-20,0,0,0,0,0,0,0,0,0,-1,1224,1044,0,0
7,-20,0,0,0,0,0,0,0,0,0,-1,1231,1044,0,0
14,-20,0,0,0,0,0,0,0,0,0,-1,1238,1044,0,0
21,-20,0,0,0,0,0,0,0,0,0,-1,1245,1044,0,0
28,-20,0,0,0,0,0,0,0,0,0,-1,1252,1044,0,0
35,-20,0,0,0,0,0,0,0,0,0,-1,1259,1044,0,0
42,-20,0,0,0,0,0,0,0,0,0,-1,1266,1044,0,0
49,-20,0,0,0,0,0,0,0,0,0,-1,1273,1044,0,0
56,-20,0,0,0,0,0,0,0,0,0,-1,1280,1044,0,0
63,-20,0,0,0,0,0,0,0,0,0,-1,1287,1044,0,0
70,-20,0,0,0,0,0,0,0,0,0,-1,1294,1044,0,0
77,-20,0,0,0,0,0,0,0,0,0,-1,1301,1044,0,0
84,-20,0,0,0,0,0,0,0,0,0,-1,1308,1044,0,0
91,-20,0,0,0,0,0,0,0,0,0,-1,1315,1044,0,0
98,-20,0,0,0,0,0,0,0,0,0,-1,1322,1044,0,0
105,-20,0,0,0,0,0,0,0,0,0,-1,1329,1044,0,0
112,-20,0,0,0,0,0,0,0,0,0,-1,1336,1044,0,0
119,-20,0,0,0,0,0,0,0,0,0,-1,1343,1044,0,0
126,-20,0,0,0,0,0,0,0,0,0,-1,1350,1044,0,0
133,-20,0,0,0,0,0,0,0,0,0,-1,1357,1044,0,0
140,-20,0,0,0,0,0,0,0,0,0,-1,1364,1044,0,0
147,-20,0,0,0,0,0,0,0,0,0,-1,1371,1044,0,0
154,-20,0,0,0,0,0,0,0,0,0,-1,1378,1044,0,0
161,-20,0,0,0,0,0,0,0,0,0,-1,1385,1044,0,0
168,-20,0,0,0,0,0,0,0,0,0,-1,1392,1044,0,0
175,-20,0,0,0,0,0,0,0,0,0,-1,1399,1044,0,0
182,-20,0,0,0,0,0,0,0,0,0,-1,1406,1044,0,0
189,-20,0,0,0,0,0,0,0,0,0,-1,1413,1044,0,0
196,-20,0,0,0,0,0,0,0,0,0,-1,1420,1044,0,0
203,-20,0,0,0,0,0,0,0,0,0,-1,1427,1044,0,0
210,-20,0,0,0,0,0,0,0,0,0,-1,1434,1044,0,0
217,-20,0,0,0,0,0,0,0,0,0,-1,1441,1044,0,0
224,-20,0,0,0,0,0,0,0,0,0,-1,1448,1044,0,0
231,-20,0,0,0,0,0,0,0,0,0,-1,1455,1044,0,0
238,-20,0,0,0,0,0,0,0,0,0,-1,1462,1044,0,0
245,-20,0,0,0,0,0,0,0,0,0,-1,1469,1044,0,0
252,-20,0,0,0,0,0,0,0,0,0,-1,1476,1044,0,0
259,-20,0,0,0,0,0,0,0,0,0,-1,1483,1044,0,0
266,-20,0,0,0,0,0,0,0,0,0,-1,1490,1044,0,0
273,-20,0,0,0,0,0,0,0,0,0,-1,1497,1044,0,0
280,-20,0,0,0,0,0,0,0,0,0,-1,1504,1044,0,0
287,-20,0,0,0,0,0,0,0,0,0,-1,1511,1044,0,0
294,-20,0,0,0,0,0,0,0,0,0,-1,1518,1044,0,0
301,-20,0,0,0,0,0,0,0,0,0,-1,1525,1044,0,0
308,-20,0,0,0,0,0,0,0,0,0,-1,1532,1044,0,0
315,-20,0,0,0,0,0,0,0,0,0,-1,1539,1044,0,0
322,-20,0,0,0,0,0,0,0,0,0,-1,1546,1044,0,0
329,-20,0,0,0,0,0,0,0,0,0,-1,1553,1044,0,0
336,-20,0,0,0,0,0,0,0,0,0,-1,1560,1044,0,0
343,-20,0,0,0,0,0,0,0,0,0,-1,1567,1044,0,0
350,-20,0,0,0,0,0,0,0,0,0,-1,1574,1044,0,0
357,-20,0,0,0,0,0,0,0,0,0,-1,1581,1044,0,0
364,-20,0,0,0,0,0,0,0,0,0,-1,1588,1044,0,0
371,-20,0,0,0,0,0,0,0,0,0,-1,1595,1044,0,0
378,-20,0,0,0,0,0,0,0,0,0,-1,1602,1044,0,0
385,-20,0,0,0,0,0,0,0,0,0,-1,1609,1044,0,0
392,-20,0,0,0,0,0,0,0,0,0,-1,1616,1044,0,0
399,-20,0,0,0,0,0,0,0,0,0,-1,1623,1044,0,0
406,-20,0,0,0,0,0,0,0,0,0,-1,1630,1044,0,0
413,-20,0,0,0,0,0,0,0,0,0,-1,1637,1044,0,0
420,-20,0,0,0,0,0,0,0,0,0,-1,1644,1044,0,0
427,-20,0,0,0,0,0,0,0,0,0,-1,1651,1044,0,0
434,-20,0,0,0,0,0,0,0,0,0,-1,1658,1044,0,0
441,-20,0,0,0,0,0,0,0,0,0,-1,1665,1044,0,0
448,-20,0,0,0,0,0,0,0,0,0,-1,1672,1044,0,0
455,-20,0,0,0,0,0,0,0,0,0,-1,1679,1044,0,0
462,-20,0,0,0,0,0,0,0,0,0,-1,1686,1044,0,0
469,-20,0,0,0,0,0,0,0,0,0,-1,1693,1044,0,0
476,-20,0,0,0,0,0,0,0,0,0,-1,1700,1044,0,0
483,-20,0,0,0,0,0,0,0,0,0,-1,1707,1044,0,0
490,-20,0,0,0,0,0,0,0,0,0,-1,1714,1044,0,0
497,-20,0,0,0,0,0,0,0,0,0,-1,1721,1044,0,0
504,-20,0,0,0,0,0,0,0,0,0,-1,1728,1044,0,0
511,-20,0,0,0,0,0,0,0,0,0,-1,1735,1044,0,0
518,-20,0,0,0,0,0,0,0,0,0,-1,1742,1044,0,0
525,-20,0,0,0,0,0,0,0,0,0,-1,1749,1044,0,0
532,-20,0,0,0,0,0,0,0,0,0,-1,1756,1044,0,0
539,-20,0,0,0,0,0,0,0,0,0,-1,1763,1044,0,0
546,-20,0,0,0,0,0,0,0,0,0,-1,1770,1044,0,0
553,-20,0,0,0,0,0,0,0,0,0,-1,1777,1044,0,0
560,-20,0,0,0,0,0,0,0,0,0,-1,1784,1044,0,0
567,-20,0,0,0,0,0,0,0,0,0,-1,1791,1044,0,0
574,-20,0,0,0,0,0,0,0,0,0,-1,1798,1044,0,0
581,-20,0,0,0,0,0,0,0,0,0,-1,1805,1044,0,0
588,-20,0,0,0,0,0,0,0,0,0,-1,1812,1044,0,0
595,-20,0,0,0,0,0,0,0,0,0,-1,1819,1044,0,0
602,-20,0,0,0,0,0,0,0,0,0,-1,1826,1044,0,0
609,-20,0,0,0,0,0,0,0,0,0,-1,1833,1044,0,0
616,-20,0,0,0,0,0,0,0,0,0,-1,1840,1044,0,0
623,-20,0,0,0,0,0,0,0,0,0,-1,1847,1044,0,0
630,-20,0,0,0,0,0,0,0,0,0,-1,1854,1044,0,0
637,-20,0,0,0,0,0,0,0,0,0,-1,1861,1044,0,0
644,-20,0,0,0,0,0,0,0,0,0,-1,1868,1044,0,0
651,-20,4.31042,0.378052,-0.00098302,0.00063523,0.000557152,0.000808501,-0.00115629,1.26928,0.00114028,0.0383702,1875,1044,4.31048,-0.378089
658,-20,4.20947,0.400757,-0.000866531,0.000687988,0.0011222,0.00127582,-0.00145436,1.08828,0.00157739,0.0396839,1882,1044,4.20946,-0.400817
665,-20,4.16113,0.410034,-0.00079645,0.000690623,0.00124431,0.00139662,-0.00150245,1.05471,0.00167415,0.0394831,1889,1044,4.16109,-0.410061
672,-20,4.22363,0.557617,-0.00068933,0.000675829,0.00130178,0.00146313,-0.00147663,1.02686,0.00169728,0.0282684,1896,1044,4.22364,-0.557661
679,-20,4.25635,0.586548,-0.000557567,0.000629574,0.00121916,0.00139198,-0.00131998,1.01194,0.00156593,0.0306666,1903,1044,4.25639,-0.586494
686,-20,4.21252,0.595459,-0.000406106,0.000563972,0.00104832,0.00123403,-0.00107616,1.00207,0.00133483,0.0378639,1910,1044,4.21254,-0.595456
693,-20,4.11804,0.659546,-0.000257125,0.000489725,0.000857486,0.00105157,-0.000818969,0.990758,0.00108273,0.0415954,1917,1044,4.11801,-0.659487
700,-20,4.14307,0.704834,-0.0001133,0.000423338,0.000697116,0.00090199,-0.000591952,0.969108,0.000868697,0.0405178,1924,1044,4.14308,-0.704815
707,-20,4.2594,0.57605,6.40122e-05,0.000328689,0.000614611,0.000825048,-0.000432347,0.891439,0.000737664,0.0322797,1931,1044,4.25939,-0.576079
714,-20,4.25256,0.618408,6.66755e-05,0.000330114,0.000541627,0.000755808,-0.000359019,0.904679,0.000657095,0.0251113,1938,1044,4.25255,-0.618433
721,-20,4.24048,0.749878,3.5474e-06,0.000270535,0.000380555,0.000540331,-0.000266249,0.954086,0.000474557,0.0189665,1945,1044,4.24047,-0.749825
728,-20,4.24414,0.739502,5.98118e-05,0.000225557,8.06643e-05,0.000258333,2.70359e-05,1.18485,0.000163955,0.0153694,1952,1044,4.24413,-0.739453
735,-20,4.24561,0.724609,0.000183806,0.000183618,-0.000107389,0.000291101,7.63228e-05,-0.78496,0.000174289,0.0149976,1959,1044,4.24558,-0.724604
742,-20,4.25195,0.707397,0.000500316,0.000224173,0.000201739,0.000606708,0.000117781,0.485305,0.000371488,0.0146171,1966,1044,4.25192,-0.70741
749,-20,4.25085,0.700806,0.000856965,8.19546e-05,0.000972011,0.00151587,-0.000576946,0.595721,0.00124816,0.0163297,1973,1044,4.2508,-0.700805
756,-20,4.25586,0.683472,0.00119045,0.000297576,0.00192978,0.00272476,-0.00123674,0.671728,0.00234034,0.0120414,1980,1044,4.25588,-0.683487
763,-20,4.245,0.673584,0.00161107,0.00134377,0.00321357,0.00469377,-0.00173893,0.764615,0.00384231,0.0130847,1987,1044,4.24496,-0.67362
770,-20,4.23987,0.705933,0.00223975,0.00211077,0.00473978,0.00691548,-0.00256496,0.778596,0.00566238,0.0121656,1994,1044,4.23987,-0.705918
777,-20,4.23022,0.733887,0.0029762,0.00331196,0.00700292,0.010149,-0.00386085,0.797382,0.00835577,0.0118499,2001,1044,4.23017,-0.733936
784,-20,4.27063,0.735718,0.00377403,0.00512543,0.0100503,0.0145227,-0.00562327,0.818963,0.0120036,0.0166383,2008,1044,4.27061,-0.735695
791,-20,4.24609,0.786499,0.00453764,0.00780765,0.0139303,0.0201985,-0.00785325,0.843816,0.0167103,0.0359719,2015,1044,4.24609,-0.786513
798,-20,4.49707,1.9541,0.00513738,0.0117453,0.0187751,0.0275049,-0.0106222,0.872495,0.0227207,0.0452959,2022,1044,4.49713,-1.95413
805,-20,4.63232,2.10193,0,0,0,0,0,0,0,-1,2029,1044,4.63227,-2.1019
812,-20,5.33069,1.59045,0,0,0,0,0,0,0,-1,2036,1044,5.33066,-1.59049
-700,-27,-0.223694,-0.500977,-0.0210799,0.0206253,0.00658843,0.0216414,-0.0220959,1.41778,0.0252522,0.0453893,524,1051,-0.223681,0.500966
-693,-27,-0.201538,-0.751221,-0.0193737,0.0215091,0.00907185,0.0234318,-0.0212963,1.36195,0.0258336,0.0419372,531,1051,-0.201537,0.751231
-686,-27,-0.275635,-1.09619,-0.0170195,0.020527,0.00985838,0.022958,-0.0194506,1.32902,0.0245125,0.0418511,538,1051,-0.275654,1.0962
-679,-27,-0.17688,-1.52698,-0.0144149,0.0186031,0.0096567,0.02122,-0.0170318,1.30616,0.0221288,0.0467326,545,1051,-0.17691,1.52695
-672,-27,0.227844,-0.709473,-0.0118888,0.0162266,0.00889098,0.0188022,-0.0144644,1.28882,0.0192609,0.0436436,552,1051,0.227847,0.709465
-665,-27,-0.0737915,-0.552856,-0.00956465,0.0136919,0.00781007,0.0160713,-0.011944,1.27508,0.0162331,0.0420723,559,1051,-0.0737841,0.55285
-658,-27,-0.384583,0.182373,-0.00753248,0.0111884,0.00656949,0.0132637,-0.00960777,1.26482,0.013261,0.0420691,566,1051,-0.384566,-0.182381
-651,-27,-0.669006,0.637939,-0.00581075,0.00884296,0.00529663,0.010557,-0.00752475,1.25783,0.0104883,0.0338753,573,1051,-0.668989,-0.63794
-644,-27,-0.739746,0.743774,-0.00454824,0.00691571,0.00435671,0.00838349,-0.00601601,1.24584,0.00835093,0.015461,580,1051,-0.739772,-0.743729
-637,-27,-0.725769,0.733887,-0.00320747,0.00523716,0.00326014,0.00634931,-0.00431961,1.24204,0.00619675,0.0125103,587,1051,-0.725787,-0.733912
-630,-27,-0.736023,0.767456,-0.00157918,0.00361982,0.00211229,0.00436982,-0.00232918,1.22962,0.00392703,0.016503,594,1051,-0.736044,-0.767486
-623,-27,-0.762512,0.766968,-0.00038922,0.00183716,0.00115983,0.00233157,-0.000883639,1.16784,0.00191802,0.0149187,601,1051,-0.762503,-0.767009
-616,-27,-0.746216,0.75708,-0.000303969,0.000924916,0.000279262,0.000985401,-0.000364453,1.3575,0.000806356,0.0130648,608,1051,-0.746189,-0.757129
-609,-27,-0.726807,0.764404,0.000111253,0.000213889,0.000116399,0.00028978,3.5361e-05,0.99302,0.000182545,0.0136852,615,1051,-0.726809,-0.764398
-602,-27,-0.713196,0.770996,0.000868326,0.000146368,-0.000396942,0.00104388,-2.9187e-05,-0.416406,0.000705851,0.0114926,622,1051,-0.713185,-0.771047
-595,-27,-0.725525,0.794067,0.0013497,6.93779e-05,-0.000649319,0.00162136,-0.000202284,-0.39625,0.00115426,0.00980357,629,1051,-0.725506,-0.794106
-588,-27,-0.75415,0.777954,0.00171778,-6.85004e-05,-0.000694153,0.00195581,-0.000306531,-0.330343,0.00141715,0.0183808,636,1051,-0.754138,-0.777992
-581,-27,-0.743164,0.779297,0.0020619,-0.000157814,-0.000675694,0.00225141,-0.00034732,-0.273437,0.0016291,0.0253014,643,1051,-0.743176,-0.779257
-574,-27,-0.764099,0.814819,0.00234263,-0.000261219,-0.000697527,0.00251771,-0.000436303,-0.245925,0.00184122,0.0368772,650,1051,-0.764083,-0.814858
-567,-27,-0.487183,0.728271,0.00255736,-0.000374445,-0.000648544,0.00269441,-0.000511502,-0.208266,0.00198882,0.0439616,657,1051,-0.487165,-0.728282
-560,-27,-0.330688,0.551636,0.00270884,-0.000499221,-0.000486887,0.00278111,-0.000571487,-0.147351,0.00207102,0.0449003,664,1051,-0.330713,-0.551628
-553,-27,-0.542969,0.290161,0.00281424,-0.000633892,-0.000163825,0.00282201,-0.000641658,-0.0473691,0.00212772,0.0412941,671,1051,-0.542981,-0.29016
-546,-27,-0.733276,0.394043,0.00286368,-0.000771387,0.000374479,0.00290185,-0.000809564,0.101597,0.00225343,0.0416092,678,1051,-0.733276,-0.393997
-539,-27,-0.598083,0.497559,0.00290137,-0.000908772,0.00121899,0.00325799,-0.00126539,0.28461,0.00269471,0.0424898,685,1051,-0.598067,-0.497586
-532,-27,-0.512451,0.656738,0.00299435,-0.00104148,0.00249114,0.00418233,-0.00222946,0.444982,0.00375864,0.0453638,692,1051,-0.512433,-0.656687
-525,-27,0,0,0,0,0,0,0,0,0,-1,699,1051,0,0
-518,-27,0,0,0,0,0,0,0,0,0,-1,706,1051,0,0
-511,-27,0,0,0,0,0,0,0,0,0,-1,713,1051,0,0
-504,-27,0,0,0,0,0,0,0,0,0,-1,720,1051,0,0
-497,-27,0,0,0,0,0,0,0,0,0,-1,727,1051,0,0
-490,-27,0,0,0,0,0,0,0,0,0,-1,734,1051,0,0
-483,-27,0,0,0,0,0,0,0,0,0,-1,741,1051,0,0
-476,-27,0,0,0,0,0,0,0,0,0,-1,748,1051,0,0
-469,-27,0,0,0,0,0,0,0,0,0,-1,755,1051,0,0
-462,-27,0,0,0,0,0,0,0,0,0,-1,762,1051,0,0
-455,-27,0,0,0,0,0,0,0,0,0,-1,769,1051,0,0
-448,-27,0,0,0,0,0,0,0,0,0,-1,776,1051,0,0
-441,-27,0,0,0,0,0,0,0,0,0,-1,783,1051,0,0
-434,-27,0,0,0,0,0,0,0,0,0,-1,790,1051,0,0
-427,-27,0,0,0,0,0,0,0,0,0,-1,797,1051,0,0
-420,-27,0,0,0,0,0,0,0,0,0,-1,804,1051,0,0
-413,-27,0,0,0,0,0,0,0,0,0,-1,811,1051,0,0
-406,-27,0,0,0,0,0,0,0,0,0,-1,818,1051,0,0
-399,-27,0,0,0,0,0,0,0,0,0,-1,825,1051,0,0
-392,-27,0,0,0,0,0,0,0,0,0,-1,832,1051,0,0
-385,-27,0,0,0,0,0,0,0,0,0,-1,839,1051,0,0
-378,-27,0,0,0,0,0,0,0,0,0,-1,846,1051,0,0
-371,-27,0,0,0,0,0,0,0,0,0,-1,853,1051,0,0
-364,-27,0,0,0,0,0,0,0,0,0,-1,860,1051,0,0
-357,-27,0,0,0,0,0,0,0,0,0,-1,867,1051,0,0
-350,-27,0,0,0,0,0,0,0,0,0,-1,874,1051,0,0
-343,-27,0,0,0,0,0,0,0,0,0,-1,881,1051,0,0
-336,-27,0,0,0,0,0,0,0,0,0,-1,888,1051,0,0
-329,-27,0,0,0,0,0,0,0,0,0,-1,895,1051,0,0
-322,-27,0,0,0,0,0,0,0,0,0,-1,902,1051,0,0
-315,-27,0,0,0,0,0,0,0,0,0,-1,909,1051,0,0
-308,-27,0,0,0,0,0,0,0,0,0,-1,916,1051,0,0
-301,-27,0,0,0,0,0,0,0,0,0,-1,923,1051,0,0
-294,-27,0,0,0,0,0,0,0,0,0,-1,930,1051,0,0
-287,-27,0,0,0,0,0,0,0,0,0,-1,937,1051,0,0
-280,-27,0,0,0,0,0,0,0,0,0,-1,944,1051,0,0
-273,-27,0,0,0,0,0,0,0,0,0,-1,951,1051,0,0
-266,-27,0,0,0,0,0,0,0,0,0,-1,958,1051,0,0
-259,-27,0,0,0,0,0,0,0,0,0,-1,965,1051,0,0
-252,-27,0,0,0,0,0,0,0,0,0,-1,972,1051,0,0
-245,-27,0,0,0,0,0,0,0,0,0,-1,979,1051,0,0
-238,-27,0,0,0,0,0,0,0,0,0,-1,986,1051,0,0
-231,-27,0,0,0,0,0,0,0,0,0,-1,993,1051,0,0
-224,-27,0,0,0,0,0,0,0,0,0,-1,1000,1051,0,0
-217,-27,0,0,0,0,0,0,0,0,0,-1,1007,1051,0,0
-210,-27,0,0,0,0,0,0,0,0,0,-1,1014,1051,0,0
-203,-27,0,0,0,0,0,0,0,0,0,-1,1021,1051,0,0
-196,-27,0,0,0,0,0,0,0,0,0,-1,1028,1051,0,0
-189,-27,0,0,0,0,0,0,0,0,0,-1,1035,1051,0,0
-182,-27,0,0,0,0,0,0,0,0,0,-1,1042,1051,0,0
-175,-27,0,0,0,0,0,0,0,0,0,-1,1049,1051,0,0
-168,-27,0,0,0,0,0,0,0,0,0,-1,1056,1051,0,0
-161,-27,0,0,0,0,0,0,0,0,0,-1,1063,1051,0,0
-154,-27,0,0,0,0,0,0,0,0,0,-1,1070,1051,0,0
-147,-27,0,0,0,0,0,0,0,0,0,-1,1077,1051,0,0
-140,-27,0,0,0,0,0,0,0,0,0,-1,1084,1051,0,0
-133,-27,0,0,0,0,0,0,0,0,0,-1,1091,1051,0,0
-126,-27,0,0,0,0,0,0,0,0,0,-1,1098,1051,0,0
-119,-27,0,0,0,0,0,0,0,0,0,-1,1105,1051,0,0
-112,-27,0,0,0,0,0,0,0,0,0,-1,1112,1051,0,0
-105,-27,0,0,0,0,0,0,0,0,0,-1,1119,1051,0,0
-98,-27,0,0,0,0,0,0,0,0,0,-1,1126,1051,0,0
-91,-27,0,0,0,0,0,0,0,0,0,-1,1133,1051,0,0
-84,-27,0,0,0,0,0,0,0,0,0,-1,1140,1051,0,0
-77,-27,0,0,0,0,0,0,0,0,0,-1,1147,1051,0,0
-70,-27,0,0,0,0,0,0,0,0,0,-1,1154,1051,0,0
-63,-27,0,0,0,0,0,0,0,0,0,-1,1161,1051,0,0
-56,-27,0,0,0,0,0,0,0,0,0,-1,1168,1051,0,0
-49,-27,0,0,0,0,0,0,0,0,0,-1,1175,1051,0,0
-42,-27,0,0,0,0,0,0,0,0,0,-1,1182,1051,0,0
-35,-27,0,0,0,0,0,0,0,0,0,-1,1189,1051,0,0
-28,-27,0,0,0,0,0,0,0,0,0,-1,1196,1051,0,0
-21,-27,0,0,0,0,0,0,0,0,0,-1,1203,1051,0,0
-14,-27,0,0,0,0,0,0,0,0,0,-1,1210,1051,0,0
-7,-27,0,0,0,0,0,0,0,0,0,-1,1217,1051,0,0
0,-27,0,0,0,0,0,0,0,0,0,-1,1224,1051,0,0
7,-27,0,0,0,0,0,0,0,0,0,-1,1231,1051,0,0
14,-27,0,0,0,0,0,0,0,0,0,-1,1238,1051,0,0
21,-27,0,0,0,0,0,0,0,0,0,-1,1245,1051,0,0
28,-27,0,0,0,0,0,0,0,0,0,-1,1252,1051,0,0
35,-27,0,0,0,0,0,0,0,0,0,-1,1259,1051,0,0
42,-27,0,0,0,0,0,0,0,0,0,-1,1266,1051,0,0
49,-27,0,0,0,0,0,0,0,0,0,-1,1273,1051,0,0
56,-27,0,0,0,0,0,0,0,0,0,-1,1280,1051,0,0
63,-27,0,0,0,0,0,0,0,0,0,-1,1287,1051,0,0
70,-27,0,0,0,0,0,0,0,0,0,-1,1294,1051,0,0
77,-27,0,0,0,0,0,0,0,0,0,-1,1301,1051,0,0
84,-27,0,0,0,0,0,0,0,0,0,-1,1308,1051,0,0
91,-27,0,0,0,0,0,0,0,0,0,-1,1315,1051,0,0
98,-27,0,0,0,0,0,0,0,0,0,-1,1322,1051,0,0
105,-27,0,0,0,0,0,0,0,0,0,-1,1329,1051,0,0
112,-27,0,0,0,0,0,0,0,0,0,-1,1336,1051,0,0
119,-27,0,0,0,0,0,0,0,0,0,-1,1343,1051,0,0
126,-27,0,0,0,0,0,0,0,0,0,-1,1350,1051,0,0
133,-27,0,0,0,0,0,0,0,0,0,-1,1357,1051,0,0
140,-27,0,0,0,0,0,0,0,0,0,-1,1364,1051,0,0
147,-27,0,0,0,0,0,0,0,0,0,-1,1371,1051,0,0
154,-27,0,0,0,0,0,0,0,0,0,-1,1378,1051,0,0
161,-27,0,0,0,0,0,0,0,0,0,-1,1385,1051,0,0
168,-27,0,0,0,0,0,0,0,0,0,-1,1392,1051,0,0
175,-27,0,0,0,0,0,0,0,0,0,-1,1399,1051,0,0
182,-27,0,0,0,0,0,0,0,0,0,-1,1406,1051,0,0
189,-27,0,0,0,0,0,0,0,0,0,-1,1413,1051,0,0
196,-27,0,0,0,0,0,0,0,0,0,-1,1420,1051,0,0
203,-27,0,0,0,0,0,0,0,0,0,-1,1427,1051,0,0
210,-27,0,0,0,0,0,0,0,0,0,-1,1434,1051,0,0
217,-27,0,0,0,0,0,0,0,0,0,-1,1441,1051,0,0
224,-27,0,0,0,0,0,0,0,0,0,-1,1448,1051,0,0
231,-27,0,0,0,0,0,0,0,0,0,-1,1455,1051,0,0
238,-27,0,0,0,0,0,0,0,0,0,-1,1462,1051,0,0
245,-27,0,0,0,0,0,0,0,0,0,-1,1469,1051,0,0
252,-27,0,0,0,0,0,0,0,0,0,-1,1476,1051,0,0
259,-27,0,0,0,0,0,0,0,0,0,-1,1483,1051,0,0
266,-27,0,0,0,0,0,0,0,0,0,-1,1490,1051,0,0
273,-27,0,0,0,0,0,0,0,0,0,-1,1497,1051,0,0
280,-27,0,0,0,0,0,0,0,0,0,-1,1504,1051,0,0
287,-27,0,0,0,0,0,0,0,0,0,-1,1511,1051,0,0
294,-27,0,0,0,0,0,0,0,0,0,-1,1518,1051,0,0
301,-27,0,0,0,0,0,0,0,0,0,-1,1525,1051,0,0
308,-27,0,0,0,0,0,0,0,0,0,-1,1532,1051,0,0
315,-27,0,0,0,0,0,0,0,0,0,-1,1539,1051,0,0
322,-27,0,0,0,0,0,0,0,0,0,-1,1546,1051,0,0
329,-27,0,0,0,0,0,0,0,0,0,-1,1553,1051,0,0
336,-27,0,0,0,0,0,0,0,0,0,-1,1560,1051,0,0
343,-27,0,0,0,0,0,0,0,0,0,-1,1567,1051,0,0
350,-27,0,0,0,0,0,0,0,0,0,-1,1574,1051,0,0
357,-27,0,0,0,0,0,0,0,0,0,-1,1581,1051,0,0
364,-27,0,0,0,0,0,0,0,0,0,-1,1588,1051,0,0
371,-27,0,0,0,0,0,0,0,0,0,-1,1595,1051,0,0
378,-27,0,0,0,0,0,0,0,0,0,-1,1602,1051,0,0
385,-27,0,0,0,0,0,0,0,0,0,-1,1609,1051,0,0
392,-27,0,0,0,0,0,0,0,0,0,-1,1616,1051,0,0
399,-27,0,0,0,0,0,0,0,0,0,-1,1623,1051,0,0
406,-27,0,0,0,0,0,0,0,0,0,-1,1630,1051,0,0
413,-27,0,0,0,0,0,0,0,0,0,-1,1637,1051,0,0
420,-27,0,0,0,0,0,0,0,0,0,-1,1644,1051,0,0
427,-27,0,0,0,0,0,0,0,0,0,-1,1651,1051,0,0
434,-27,0,0,0,0,0,0,0,0,0,-1,1658,1051,0,0
441,-27,0,0,0,0,0,0,0,0,0,-1,1665,1051,0,0
448,-27,0,0,0,0,0,0,0,0,0,-1,1672,1051,0,0
455,-27,0,0,0,0,0,0,0,0,0,-1,1679,1051,0,0
462,-27,0,0,0,0,0,0,0,0,0,-1,1686,1051,0,0
469,-27,0,0,0,0,0,0,0,0,0,-1,1693,1051,0,0
476,-27,0,0,0,0,0,0,0,0,0,-1,1700,1051,0,0
483,-27,0,0,0,0,0,0,0,0,0,-1,1707,1051,0,0
490,-27,0,0,0,0,0,0,0,0,0,-1,1714,1051,0,0
497,-27,0,0,0,0,0,0,0,0,0,-1,1721,1051,0,0
504,-27,0,0,0,0,0,0,0,0,0,-1,1728,1051,0,0
511,-27,0,0,0,0,0,0,0,0,0,-1,1735,1051,0,0
518,-27,0,0,0,0,0,0,0,0,0,-1,1742,1051,0,0
525,-27,0,0,0,0,0,0,0,0,0,-1,1749,1051,0,0
532,-27,0,0,0,0,0,0,0,0,0,-1,1756,1051,0,0
539,-27,0,0,0,0,0,0,0,0,0,-1,1763,1051,0,0
546,-27,0,0,0,0,0,0,0,0,0,-1,1770,1051,0,0
553,-27,0,0,0,0,0,0,0,0,0,-1,1777,1051,0,0
560,-27,0,0,0,0,0,0,0,0,0,-1,1784,1051,0,0
567,-27,0,0,0,0,0,0,0,0,0,-1,1791,1051,0,0
574,-27,0,0,0,0,0,0,0,0,0,-1,1798,1051,0,0
581,-27,0,0,0,0,0,0,0,0,0,-1,1805,1051,0,0
588,-27,0,0,0,0,0,0,0,0,0,-1,1812,1051,0,0
595,-27,0,0,0,0,0,0,0,0,0,-1,1819,1051,0,0
602,-27,0,0,0,0,0,0,0,0,0,-1,1826,1051,0,0
609,-27,0,0,0,0,0,0,0,0,0,-1,1833,1051,0,0
616,-27,0,0,0,0,0,0,0,0,0,-1,1840,1051,0,0
623,-27,0,0,0,0,0,0,0,0,0,-1,1847,1051,0,0
630,-27,0,0,0,0,0,0,0,0,0,-1,1854,1051,0,0
637,-27,0,0,0,0,0,0,0,0,0,-1,1861,1051,0,0
644,-27,0,0,0,0,0,0,0,0,0,-1,1868,1051,0,0
651,-27,4.39612,0.426514,-0.00116283,1.74149e-05,0.000943354,0.00054002,-0.00168543,1.0649,0.00134039,0.0388158,1875,1051,4.39615,-0.426572
658,-27,4.33362,0.645996,-0.000953721,0.000182972,0.00143895,0.00116175,-0.0019325,0.973481,0.00180485,0.0377697,1882,1051,4.3336,-0.646019
665,-27,4.29297,0.58667,-0.00082003,0.000290514,0.00147434,0.00131068,-0.0018402,0.965495,0.0018277,0.0377017,1889,1051,4.29292,-0.58665
672,-27,4.21228,0.631958,-0.000680876,0.000383936,0.00146143,0.00140692,-0.00170386,0.960079,0.00179873,0.0312134,1896,1051,4.21225,-0.63191
679,-27,4.22559,0.683105,-0.000534091,0.00044199,0.00132997,0.00137064,-0.00146274,0.961247,0.00163614,0.0284938,1903,1051,4.22561,-0.683129
686,-27,4.20813,0.704224,-0.000380851,0.000465717,0.00112311,0.00124266,-0.0011578,0.965609,0.0013862,0.0387874,1910,1051,4.20807,-0.704271
693,-27,4.11133,0.695435,-0.00023662,0.000461343,0.000907541,0.00108469,-0.000859965,0.96895,0.00112524,0.0414637,1917,1051,4.11134,-0.695388
700,-27,4.16443,0.634644,-0.000107112,0.000437929,0.000733687,0.000948074,-0.000617256,0.963221,0.000910447,0.038895,1924,1051,4.16444,-0.634652
707,-27,4.23889,0.546997,7.56753e-05,0.000402925,0.0006181,0.000878691,-0.000400091,0.914791,0.000755345,0.0254062,1931,1051,4.2389,-0.546945
714,-27,4.23547,0.607666,8.19198e-05,0.000425246,0.00054532,0.000825284,-0.000318119,0.937884,0.000681447,0.0206164,1938,1051,4.23547,-0.607638
721,-27,4.23218,0.727417,7.91394e-06,0.000385909,0.000403976,0.000642912,-0.000249089,1.00419,0.000531465,0.0195457,1945,1051,4.23215,-0.727419
728,-27,4.26917,0.736206,3.20956e-05,0.000338357,0.000107982,0.000372601,-2.14808e-06,1.26371,0.00024912,0.0176228,1952,1051,4.26917,-0.736149
735,-27,4.24951,0.728882,0.000105022,0.000277826,-6.18598e-05,0.000297688,8.51606e-05,-1.26012,0.000177036,0.0142983,1959,1051,4.24946,-0.728896
742,-27,4.25769,0.713989,0.000378021,0.000347919,0.000253206,0.000616623,0.000109318,0.755712,0.000379922,0.016013,1966,1051,4.25774,-0.713998
749,-27,4.24878,0.698853,0.000831571,0.000379084,0.00109903,0.0017274,-0.000516743,0.683887,0.00135705,0.0121944,1973,1051,4.24875,-0.698886
756,-27,4.25244,0.703613,0.00144088,0.000976967,0.00203917,0.00326124,-0.000843401,0.728767,0.00250312,0.011247,1980,1051,4.25241,-0.703584
763,-27,4.24512,0.689819,0.0023291,0.00283948,0.00323511,0.00582945,-0.000660868,0.824757,0.00412428,0.0122439,1987,1051,4.24513,-0.689808
770,-27,4.21985,0.690308,0.00346584,0.00441708,0.00469982,0.00866528,-0.000782362,0.835826,0.00605452,0.0140179,1994,1051,4.21987,-0.690365
777,-27,4.22742,0.749756,0.00496424,0.00678988,0.00685141,0.012789,-0.00103489,0.851624,0.00889107,0.01518,2001,1051,4.22738,-0.749787
784,-27,4.23987,0.792969,0.00686246,0.0102366,0.00971992,0.0184148,-0.00131571,0.871327,0.0127378,0.0222398,2008,1051,4.23981,-0.792995
791,-27,4.28992,0.900269,0.0091509,0.0151087,0.0133113,0.0257704,-0.00151076,0.895478,0.0177053,0.0412986,2015,1051,4.28995,-0.90024
798,-27,4.6438,1.55066,0.0117789,0.0218884,0.0176991,0.0352405,-0.0015731,0.924492,0.0240352,0.0464233,2022,1051,4.64384,-1.55065
805,-27,4.53967,1.58618,0.014655,0.0312478,0.0229281,0.0473344,-0.00143156,0.958991,0.0320441,0.0425494,2029,1051,4.53971,-1.58617
812,-27,4.68896,1.37073,0.0175473,0.0441524,0.0289461,0.0627063,-0.00100669,1.00079,0.0421438,0.043232,2036,1051,4.68902,-1.37078
-700,-34,0.408936,0.0825195,0,0,0,0,0,0,0,-1,524,1058,0.408937,-0.0825614
-693,-34,0.21167,-0.550293,-0.0214975,0.0118321,0.00708475,0.0132756,-0.022941,1.36981,0.0211564,0.0442176,531,1058,0.211697,0.550316
-686,-34,-0.131287,-1.27246,-0.0184516,0.0119637,0.00806823,0.0139714,-0.0204593,1.32691,0.0199959,0.0473702,538,1058,-0.131294,1.27246
-679,-34,-1.39917,-0.22937,-0.015321,0.0113111,0.00811159,0.0135872,-0.0175971,1.29723,0.0180538,0.0451631,545,1058,-1.39917,0.229407
-672,-34,-0.818909,1.01672,-0.0123983,0.0102205,0.00760741,0.0125411,-0.0147188,1.27473,0.0157552,0.0432875,552,1058,-0.818939,-1.01675
-665,-34,0.258667,-0.370972,0,0,0,0,0,0,0,-1,559,1058,0.258668,0.371032
-658,-34,-0.554443,0.789307,-0.00755543,0.00749767,0.00578586,0.00946455,-0.00952231,1.24311,0.0109621,0.0413063,566,1058,-0.554427,-0.789295
-651,-34,-0.721436,0.783325,-0.00571435,0.00609323,0.00472432,0.00775078,-0.00737191,1.23336,0.00873201,0.0279463,573,1058,-0.721447,-0.783265
-644,-34,-0.746155,0.74292,-0.00436586,0.00479886,0.00393805,0.00625854,-0.00582554,1.21584,0.00697824,0.0109287,580,1058,-0.746131,-0.742908
-637,-34,-0.727722,0.736694,-0.0029339,0.00386334,0.00301989,0.00501119,-0.00408175,1.20757,0.00525895,0.011545,587,1058,-0.727749,-0.736725
-630,-34,-0.732422,0.750854,-0.00127467,0.00286823,0.00199632,0.00367362,-0.00208006,1.18733,0.00336409,0.0141609,594,1058,-0.732405,-0.7509
-623,-34,-0.739136,0.760986,-0.000160577,0.00156515,0.00105677,0.00206658,-0.000662011,1.12776,0.00164345,0.0121231,601,1058,-0.739147,-0.761045
-616,-34,-0.72168,0.775146,-0.000185979,0.000771276,0.000195372,0.000809615,-0.000224318,1.37702,0.000628015,0.0185287,608,1058,-0.721651,-0.775142
-609,-34,-0.737732,0.759521,0.000172103,0.000206769,6.7049e-05,0.000258689,0.000120183,0.911884,0.000149479,0.0190094,615,1058,-0.737758,-0.759528
-602,-34,-0.733459,0.749023,0.000902202,0.000209631,-0.000417165,0.00109808,1.37541e-05,-0.438987,0.000727512,0.0147866,622,1058,-0.73344,-0.749052
-595,-34,-0.729675,0.772583,0.00137046,0.000158863,-0.000658532,0.00165946,-0.000130133,-0.413541,0.00115213,0.0121051,629,1058,-0.729686,-0.772576
-588,-34,-0.763733,0.780396,0.0017236,7.17787e-05,-0.000695671,0.00197754,-0.000182166,-0.350006,0.00138309,0.0235907,636,1058,-0.763737,-0.780404
-581,-34,-0.734497,0.821533,0.00205329,2.09326e-05,-0.000659215,0.00224838,-0.000174163,-0.287738,0.00156022,0.0271673,643,1058,-0.734504,-0.82156
-574,-34,-0.581543,0.919067,0,0,0,0,0,0,0,-1,650,1058,-0.581573,-0.919117
-567,-34,-0.484009,0.783691,0.002552,-0.000111675,-0.000594739,0.00267876,-0.000238435,-0.209992,0.00187039,0.0407567,657,1058,-0.48402,-0.783734
-560,-34,-0.481079,0.401733,0.00271002,-0.000204886,-0.000420394,0.00276943,-0.000264305,-0.140411,0.0019404,0.0412053,664,1058,-0.481064,-0.40177
-553,-34,-0.585205,0.317871,0.00282354,-0.000319139,-9.33508e-05,0.00282631,-0.00032191,-0.0296693,0.00200016,0.041115,671,1058,-0.58523,-0.317823
-546,-34,-0.665344,0.297119,0.0028705,-0.000454648,0.000436691,0.0029269,-0.000511042,0.128429,0.00214203,0.0436339,678,1058,-0.665318,-0.297094
-539,-34,-0.505371,0.219604,0.00288703,-0.000617376,0.00125593,0.00329065,-0.001021,0.310947,0.00260176,0.0438044,685,1058,-0.505377,-0.219621
-532,-34,-0.485229,0.544922,0.00293788,-0.000809994,0.00245517,0.00415256,-0.00202467,0.459431,0.00363627,0.041705,692,1058,-0.485204,-0.544945
-525,-34,0,0,0,0,0,0,0,0,0,-1,699,1058,0,0
-518,-34,0,0,0,0,0,0,0,0,0,-1,706,1058,0,0
-511,-34,0,0,0,0,0,0,0,0,0,-1,713,1058,0,0
-504,-34,0,0,0,0,0,0,0,0,0,-1,720,1058,0,0
-497,-34,0,0,0,0,0,0,0,0,0,-1,727,1058,0,0
-490,-34,0,0,0,0,0,0,0,0,0,-1,734,1058,0,0
-483,-34,0,0,0,0,0,0,0,0,0,-1,741,1058,0,0
-476,-34,0,0,0,0,0,0,0,0,0,-1,748,1058,0,0
-469,-34,0,0,0,0,0,0,0,0,0,-1,755,1058,0,0
-462,-34,0,0,0,0,0,0,0,0,0,-1,762,1058,0,0
-455,-34,0,0,0,0,0,0,0,0,0,-1,769,1058,0,0
-448,-34,0,0,0,0,0,0,0,0,0,-1,776,1058,0,0
-441,-34,0,0,0,0,0,0,0,0,0,-1,783,1058,0,0
-434,-34,0,0,0,0,0,0,0,0,0,-1,790,1058,0,0
-427,-34,0,0,0,0,0,0,0,0,0,-1,797,1058,0,0
-420,-34,0,0,0,0,0,0,0,0,0,-1,804,1058,0,0
-413,-34,0,0,0,0,0,0,0,0,0,-1,811,1058,0,0
-406,-34,0,0,0,0,0,0,0,0,0,-1,818,1058,0,0
-399,-34,0,0,0,0,0,0,0,0,0,-1,825,1058,0,0
-392,-34,0,0,0,0,0,0,0,0,0,-1,832,1058,0,0
-385,-34,0,0,0,0,0,0,0,0,0,-1,839,1058,0,0
-378,-34,0,0,0,0,0,0,0,0,0,-1,846,1058,0,0
-371,-34,0,0,0,0,0,0,0,0,0,-1,853,1058,0,0
-364,-34,0,0,0,0,0,0,0,0,0,-1,860,1058,0,0
-357,-34,0,0,0,0,0,0,0,0,0,-1,867,1058,0,0
-350,-34,0,0,0,0,0,0,0,0,0,-1,874,1058,0,0
-343,-34,0,0,0,0,0,0,0,0,0,-1,881,1058,0,0
-336,-34,0,0,0,0,0,0,0,0,0,-1,888,1058,0,0
-329,-34,0,0,0,0,0,0,0,0,0,-1,895,1058,0,0
-322,-34,0,0,0,0,0,0,0,0,0,-1,902,1058,0,0
-315,-34,0,0,0,0,0,0,0,0,0,-1,909,1058,0,0
-308,-34,0,0,0,0,0,0,0,0,0,-1,916,1058,0,0
-301,-34,0,0,0,0,0,0,0,0,0,-1,923,1058,0,0
-294,-34,0,0,0,0,0,0,0,0,0,-1,930,1058,0,0
-287,-34,0,0,0,0,0,0,0,0,0,-1,937,1058,0,0
-280,-34,0,0,0,0,0,0,0,0,0,-1,944,1058,0,0
-273,-34,0,0,0,0,0,0,0,0,0,-1,951,1058,0,0
-266,-34,0,0,0,0,0,0,0,0,0,-1,958,1058,0,0
-259,-34,0,0,0,0,0,0,0,0,0,-1,965,1058,0,0
-252,-34,0,0,0,0,0,0,0,0,0,-1,972,1058,0,0
-245,-34,0,0,0,0,0,0,0,0,0,-1,979,1058,0,0
-238,-34,0,0,0,0,0,0,0,0,0,-1,986,1058,0,0
-231,-34,0,0,0,0,0,0,0,0,0,-1,993,1058,0,0
-224,-34,0,0,0,0,0,0,0,0,0,-1,1000,1058,0,0
-217,-34,0,0,0,0,0,0,0,0,0,-1,1007,1058,0,0
-210,-34,0,0,0,0,0,0,0,0,0,-1,1014,1058,0,0
-203,-34,0,0,0,0,0,0,0,0,0,-1,1021,1058,0,0
-196,-34,0,0,0,0,0,0,0,0,0,-1,1028,1058,0,0
-189,-34,0,0,0,0,0,0,0,0,0,-1,1035,1058,0,0
-182,-34,0,0,0,0,0,0,0,0,0,-1,1042,1058,0,0
-175,-34,0,0,0,0,0,0,0,0,0,-1,1049,1058,0,0
-168,-34,0,0,0,0,0,0,0,0,0,-1,1056,1058,0,0
-161,-34,0,0,0,0,0,0,0,0,0,-1,1063,1058,0,0
-154,-34,0,0,0,0,0,0,0,0,0,-1,1070,1058,0,0
-147,-34,0,0,0,0,0,0,0,0,0,-1,1077,1058,0,0
-140,-34,0,0,0,0,0,0,0,0,0,-1,1084,1058,0,0
-133,-34,0,0,0,0,0,0,0,0,0,-1,1091,1058,0,0
-126,-34,0,0,0,0,0,0,0,0,0,-1,1098,1058,0,0
-119,-34,0,0,0,0,0,0,0,0,0,-1,1105,1058,0,0
-112,-34,0,0,0,0,0,0,0,0,0,-1,1112,1058,0,0
-105,-34,0,0,0,0,0,0,0,0,0,-1,1119,1058,0,0
-98,-34,0,0,0,0,0,0,0,0,0,-1,1126,1058,0,0
-91,-34,0,0,0,0,0,0,0,0,0,-1,1133,1058,0,0
-84,-34,0,0,0,0,0,0,0,0,0,-1,1140,1058,0,0
-77,-34,0,0,0,0,0,0,0,0,0,-1,1147,1058,0,0
-70,-34,0,0,0,0,0,0,0,0,0,-1,1154,1058,0,0
-63,-34,0,0,0,0,0,0,0,0,0,-1,1161,1058,0,0
-56,-34,0,0,0,0,0,0,0,0,0,-1,1168,1058,0,0
-49,-34,0,0,0,0,0,0,0,0,0,-1,1175,1058,0,0
-42,-34,0,0,0,0,0,0,0,0,0,-1,1182,1058,0,0
-35,-34,0,0,0,0,0,0,0,0,0,-1,1189,1058,0,0
-28,-34,0,0,0,0,0,0,0,0,0,-1,1196,1058,0,0
-21,-34,0,0,0,0,0,0,0,0,0,-1,1203,1058,0,0
-14,-34,0,0,0,0,0,0,0,0,0,-1,1210,1058,0,0
-7,-34,0,0,0,0,0,0,0,0,0,-1,1217,1058,0,0
0,-34,0,0,0,0,0,0,0,0,0,-1,1224,1058,0,0
7,-34,0,0,0,0,0,0,0,0,0,-1,1231,1058,0,0
14,-34,0,0,0,0,0,0,0,0,0,-1,1238,1058,0,0
21,-34,0,0,0,0,0,0,0,0,0,-1,1245,1058,0,0
28,-34,0,0,0,0,0,0,0,0,0,-1,1252,1058,0,0
35,-34,0,0,0,0,0,0,0,0,0,-1,1259,1058,0,0
42,-34,0,0,0,0,0,0,0,0,0,-1,1266,1058,0,0
49,-34,0,0,0,0,0,0,0,0,0,-1,1273,1058,0,0
56,-34,0,0,0,0,0,0,0,0,0,-1,1280,1058,0,0
63,-34,0,0,0,0,0,0,0,0,0,-1,1287,1058,0,0
70,-34,0,0,0,0,0,0,0,0,0,-1,1294,1058,0,0
77,-34,0,0,0,0,0,0,0,0,0,-1,1301,1058,0,0
84,-34,0,0,0,0,0,0,0,0,0,-1,1308,1058,0,0
91,-34,0,0,0,0,0,0,0,0,0,-1,1315,1058,0,0
98,-34,0,0,0,0,0,0,0,0,0,-1,1322,1058,0,0
105,-34,0,0,0,0,0,0,0,0,0,-1,1329,1058,0,0
112,-34,0,0,0,0,0,0,0,0,0,-1,1336,1058,0,0
119,-34,0,0,0,0,0,0,0,0,0,-1,1343,1058,0,0
126,-34,0,0,0,0,0,0,0,0,0,-1,1350,1058,0,0
133,-34,0,0,0,0,0,0,0,0,0,-1,1357,1058,0,0
140,-34,0,0,0,0,0,0,0,0,0,-1,1364,1058,0,0
147,-34,0,0,0,0,0,0,0,0,0,-1,1371,1058,0,0
154,-34,0,0,0,0,0,0,0,0,0,-1,1378,1058,0,0
161,-34,0,0,0,0,0,0,0,0,0,-1,1385,1058,0,0
168,-34,0,0,0,0,0,0,0,0,0,-1,1392,1058,0,0
175,-34,0,0,0,0,0,0,0,0,0,-1,1399,1058,0,0
182,-34,0,0,0,0,0,0,0,0,0,-1,1406,1058,0,0
189,-34,0,0,0,0,0,0,0,0,0,-1,1413,1058,0,0
196,-34,0,0,0,0,0,0,0,0,0,-1,1420,1058,0,0
203,-34,0,0,0,0,0,0,0,0,0,-1,1427,1058,0,0
210,-34,0,0,0,0,0,0,0,0,0,-1,1434,1058,0,0
217,-34,0,0,0,0,0,0,0,0,0,-1,1441,1058,0,0
224,-34,0,0,0,0,0,0,0,0,0,-1,1448,1058,0,0
231,-34,0,0,0,0,0,0,0,0,0,-1,1455,1058,0,0
238,-34,0,0,0,0,0,0,0,0,0,-1,1462,1058,0,0
245,-34,0,0,0,0,0,0,0,0,0,-1,1469,1058,0,0
252,-34,0,0,0,0,0,0,0,0,0,-1,1476,1058,0,0
259,-34,0,0,0,0,0,0,0,0,0,-1,1483,1058,0,0
266,-34,0,0,0,0,0,0,0,0,0,-1,1490,1058,0,0
273,-34,0,0,0,0,0,0,0,0,0,-1,1497,1058,0,0
280,-34,0,0,0,0,0,0,0,0,0,-1,1504,1058,0,0
287,-34,0,0,0,0,0,0,0,0,0,-1,1511,1058,0,0
294,-34,0,0,0,0,0,0,0,0,0,-1,1518,1058,0,0
301,-34,0,0,0,0,0,0,0,0,0,-1,1525,1058,0,0
308,-34,0,0,0,0,0,0,0,0,0,-1,1532,1058,0,0
315,-34,0,0,0,0,0,0,0,0,0,-1,1539,1058,0,0
322,-34,0,0,0,0,0,0,0,0,0,-1,1546,1058,0,0
329,-34,0,0,0,0,0,0,0,0,0,-1,1553,1058,0,0
336,-34,0,0,0,0,0,0,0,0,0,-1,1560,1058,0,0
343,-34,0,0,0,0,0,0,0,0,0,-1,1567,1058,0,0
350,-34,0,0,0,0,0,0,0,0,0,-1,1574,1058,0,0
357,-34,0,0,0,0,0,0,0,0,0,-1,1581,1058,0,0
364,-34,0,0,0,0,0,0,0,0,0,-1,1588,1058,0,0
371,-34,0,0,0,0,0,0,0,0,0,-1,1595,1058,0,0
378,-34,0,0,0,0,0,0,0,0,0,-1,1602,1058,0,0
385,-34,0,0,0,0,0,0,0,0,0,-1,1609,1058,0,0
392,-34,0,0,0,0,0,0,0,0,0,-1,1616,1058,0,0
399,-34,0,0,0,0,0,0,0,0,0,-1,1623,1058,0,0
406,-34,0,0,0,0,0,0,0,0,0,-1,1630,1058,0,0
413,-34,0,0,0,0,0,0,0,0,0,-1,1637,1058,0,0
420,-34,0,0,0,0,0,0,0,0,0,-1,1644,1058,0,0
427,-34,0,0,0,0,0,0,0,0,0,-1,1651,1058,0,0
434,-34,0,0,0,0,0,0,0,0,0,-1,1658,1058,0,0
441,-34,0,0,0,0,0,0,0,0,0,-1,1665,1058,0,0
448,-34,0,0,0,0,0,0,0,0,0,-1,1672,1058,0,0
455,-34,0,0,0,0,0,0,0,0,0,-1,1679,1058,0,0
462,-34,0,0,0,0,0,0,0,0,0,-1,1686,1058,0,0
469,-34,0,0,0,0,0,0,0,0,0,-1,1693,1058,0,0
476,-34,0,0,0,0,0,0,0,0,0,-1,1700,1058,0,0
483,-34,0,0,0,0,0,0,0,0,0,-1,1707,1058,0,0
490,-34,0,0,0,0,0,0,0,0,0,-1,1714,1058,0,0
497,-34,0,0,0,0,0,0,0,0,0,-1,1721,1058,0,0
504,-34,0,0,0,0,0,0,0,0,0,-1,1728,1058,0,0
511,-34,0,0,0,0,0,0,0,0,0,-1,1735,1058,0,0
518,-34,0,0,0,0,0,0,0,0,0,-1,1742,1058,0,0
525,-34,0,0,0,0,0,0,0,0,0,-1,1749,1058,0,0
532,-34,0,0,0,0,0,0,0,0,0,-1,1756,1058,0,0
539,-34,0,0,0,0,0,0,0,0,0,-1,1763,1058,0,0
546,-34,0,0,0,0,0,0,0,0,0,-1,1770,1058,0,0
553,-34,0,0,0,0,0,0,0,0,0,-1,1777,1058,0,0
560,-34,0,0,0,0,0,0,0,0,0,-1,1784,1058,0,0
567,-34,0,0,0,0,0,0,0,0,0,-1,1791,1058,0,0
574,-34,0,0,0,0,0,0,0,0,0,-1,1798,1058,0,0
581,-34,0,0,0,0,0,0,0,0,0,-1,1805,1058,0,0
588,-34,0,0,0,0,0,0,0,0,0,-1,1812,1058,0,0
595,-34,0,0,0,0,0,0,0,0,0,-1,1819,1058,0,0
602,-34,0,0,0,0,0,0,0,0,0,-1,1826,1058,0,0
609,-34,0,0,0,0,0,0,0,0,0,-1,1833,1058,0,0
616,-34,0,0,0,0,0,0,0,0,0,-1,1840,1058,0,0
623,-34,0,0,0,0,0,0,0,0,0,-1,1847,1058,0,0
630,-34,0,0,0,0,0,0,0,0,0,-1,1854,1058,0,0
637,-34,0,0,0,0,0,0,0,0,0,-1,1861,1058,0,0
644,-34,0,0,0,0,0,0,0,0,0,-1,1868,1058,0,0
651,-34,4.32642,0.586426,-0.00118789,-0.000758725,0.00199655,0.00103474,-0.00298136,0.838932,0.00240777,0.0399827,1875,1058,4.3264,-0.586419
658,-34,4.24451,0.566406,-0.000879443,-0.000360124,0.00214681,0.00154267,-0.00278224,0.845582,0.00253095,0.0410786,1882,1058,4.24446,-0.566466
665,-34,4.4093,0.386719,-0.000687143,-7.1175e-05,0.0019226,0.00156795,-0.00232627,0.864819,0.00226249,0.0427214,1889,1058,4.40934,-0.386759
672,-34,4.3894,0.477783,-0.000529422,0.000166833,0.0017271,0.00158054,-0.00194313,0.88485,0.00203798,0.0382892,1896,1058,4.38946,-0.477727
679,-34,4.25049,0.811157,-0.000391137,0.000340951,0.00148076,0.00150023,-0.00155042,0.906569,0.00176138,0.0354339,1903,1058,4.25049,-0.811096
686,-34,4.20557,0.882935,-0.000262792,0.000450611,0.00120309,0.00134877,-0.00116095,0.929514,0.00145034,0.0409875,1910,1058,4.20551,-0.882948
693,-34,4.19287,0.796753,-0.000148897,0.000503336,0.000947308,0.00117909,-0.000824651,0.951172,0.00116288,0.0421172,1917,1058,4.19289,-0.796797
700,-34,4.23047,0.679199,-5.26859e-05,0.000518344,0.000740693,0.00102665,-0.000560988,0.969357,0.00092967,0.0376972,1924,1058,4.23051,-0.679255
707,-34,4.22009,0.594238,0.000109522,0.000513535,0.000592997,0.000937989,-0.000314932,0.94956,0.000752598,0.0231929,1931,1058,4.22013,-0.594293
714,-34,4.21155,0.661255,0.000101048,0.000535328,0.000531194,0.000892049,-0.000255673,0.979423,0.000695763,0.0176293,1938,1058,4.2116,-0.661311
721,-34,4.23474,0.733032,1.31385e-05,0.000499755,0.000420909,0.000742619,-0.000229725,1.04746,0.000586839,0.0219104,1945,1058,4.23478,-0.733021
728,-34,4.25574,0.726074,-1.0881e-07,0.000435087,0.000143605,0.000478202,-4.32241e-05,1.27912,0.000334143,0.0177505,1952,1058,4.25579,-0.726089
735,-34,4.23047,0.734009,8.78969e-06,0.000365802,-9.97784e-06,0.00036608,8.51105e-06,-1.54288,0.000241267,0.0129285,1959,1058,4.23046,-0.734023
742,-34,4.23352,0.698853,0.000219555,0.00046078,0.000288924,0.000653256,2.70791e-05,0.983129,0.000426764,0.0139879,1966,1058,4.23353,-0.698809
749,-34,4.25623,0.699219,0.000709547,0.000645918,0.00116868,0.00184685,-0.000491383,0.77179,0.00142358,0.0124272,1973,1058,4.25627,-0.699253
756,-34,4.27441,0.721558,0.00148233,0.0015553,0.00210423,0.00362336,-0.000585732,0.794066,0.00263263,0.0096119,1980,1058,4.27437,-0.721509
763,-34,4.26013,0.709839,0.00265087,0.0039935,0.00325297,0.0066437,6.68922e-07,0.887154,0.00442891,0.0103496,1987,1058,4.26019,-0.709779
770,-34,4.2489,0.705933,0.00408188,0.00617834,0.00467439,0.00992059,0.000339627,0.895698,0.00650348,0.0155828,1994,1058,4.24892,-0.705901
777,-34,4.22278,0.743286,0.00604547,0.00940715,0.00675567,0.0146879,0.000764677,0.907325,0.00954728,0.0166163,2001,1058,4.22276,-0.7433
784,-34,4.18298,0.778198,0.008648,0.0140243,0.00953246,0.0212404,0.00143191,0.922829,0.0137079,0.0303482,2008,1058,4.18299,-0.778209
791,-34,4.43445,1.0625,0.0119644,0.0204317,0.0129995,0.0298696,0.00252655,0.942822,0.0191266,0.0422477,2015,1058,4.43446,-1.06254
798,-34,4.57837,1.25269,0.0160376,0.0291508,0.0172148,0.0410153,0.00417312,0.967351,0.0260641,0.0465776,2022,1058,4.57834,-1.25274
805,-34,4.58655,1.16724,0.0208712,0.0408748,0.0222069,0.0552284,0.0065176,0.996988,0.0348501,0.0456235,2029,1058,4.58656,-1.16719
812,-34,4.401,0.921631,0.0263476,0.0565621,0.0279067,0.0731884,0.00972138,1.03349,0.0458963,0.0480424,2036,1058,4.40095,-0.921685
-700,-41,-0.171204,-0.356445,-0.0268476,0.00428674,0.000279582,0.00428925,-0.0268501,1.56182,0.0194878,0.0468683,524,1065,-0.171196,0.356444
-693,-41,-0.322083,-0.325195,-0.0236111,0.00528339,0.00336572,0.00567026,-0.023998,1.45635,0.0181858,0.0425111,531,1065,-0.322063,0.325211
-686,-41,-0.679138,-0.342163,-0.0200092,0.0056554,0.00489686,0.00655799,-0.0209118,1.38852,0.0165657,0.0427511,538,1065,-0.679158,0.342193
-679,-41,-1.19604,-0.320313,-0.0164417,0.005628,0.00548977,0.00691814,-0.0177319,1.33998,0.0146811,0.0443243,545,1065,-1.19603,0.320309
-672,-41,-0.962036,0.575439,-0.0131698,0.00533853,0.0055036,0.0068514,-0.0146827,1.30253,0.0127038,0.0423103,552,1065,-0.96204,-0.575388
-665,-41,-0.819275,0.764282,-0.0102776,0.0048765,0.00515193,0.00646209,-0.0118632,1.27223,0.0107322,0.0405522,559,1065,-0.819275,-0.764276
-658,-41,-0.660461,0.771118,-0.00783729,0.00429964,0.00456517,0.00582506,-0.0093627,1.24832,0.00884759,0.0396756,566,1065,-0.66047,-0.771118
-651,-41,-0.703369,0.737305,-0.00583737,0.00365027,0.00385086,0.00501652,-0.00720361,1.22986,0.00709286,0.0262335,573,1065,-0.703378,-0.737264
-644,-41,-0.757996,0.733521,-0.00435357,0.00284201,0.00330468,0.0041294,-0.00564096,1.19932,0.00566338,0.010563,580,1065,-0.757966,-0.73346
-637,-41,-0.752441,0.735596,-0.0028229,0.00250446,0.00265706,0.00360311,-0.00392156,1.17872,0.00434567,0.0110935,587,1065,-0.752459,-0.735648
-630,-41,-0.751709,0.748413,-0.00111193,0.00214254,0.00185684,0.00298426,-0.00195365,1.14519,0.00287153,0.0109452,594,1065,-0.751698,-0.748384
-623,-41,-0.723083,0.730591,-1.54247e-05,0.00129554,0.000969747,0.00181056,-0.00053044,1.08259,0.00141734,0.0105273,601,1065,-0.723089,-0.730591
-616,-41,-0.711121,0.768188,-0.000104133,0.000641333,0.000166799,0.000676953,-0.000139752,1.36041,0.000504381,0.01386,608,1065,-0.711098,-0.768236
-609,-41,-0.718689,0.784546,0.00020226,0.000224293,5.96162e-05,0.000273902,0.000152651,0.876764,0.000158483,0.0196763,615,1065,-0.718699,-0.784588
-602,-41,-0.740723,0.743774,0.000898306,0.000263642,-0.000400204,0.00109172,7.0227e-05,-0.450192,0.000705571,0.0122692,622,1065,-0.740734,-0.743804
-595,-41,-0.754639,0.75061,0.001349,0.000207991,-0.000640619,0.00163632,-7.93325e-05,-0.421614,0.00111826,0.0124763,629,1065,-0.75463,-0.750581
-588,-41,-0.757202,0.777954,0.00168262,0.000151556,-0.000666577,0.00193216,-9.79805e-05,-0.358205,0.00132198,0.0216601,636,1065,-0.75718,-0.778013
-581,-41,-0.726624,0.697632,0.00199402,0.000117283,-0.000605653,0.0021725,-6.11969e-05,-0.286579,0.00146916,0.035005,643,1065,-0.726603,-0.697653
-574,-41,-0.549133,0.678955,0.00228497,7.64398e-05,-0.000585415,0.00243055,-6.914e-05,-0.243734,0.0016439,0.039148,650,1065,-0.549106,-0.678971
-567,-41,-0.37262,0.634888,0.00251856,1.67151e-05,-0.000490837,0.00261141,-7.61361e-05,-0.18696,0.00176687,0.0441553,657,1065,-0.372634,-0.634891
-560,-41,-0.427551,0.430542,0,0,0,0,0,0,0,-1,664,1065,-0.427555,-0.430484
-553,-41,-0.628723,0.469727,0.00283424,-0.000179393,6.23204e-05,0.00283553,-0.000180681,0.0206677,0.00195337,0.042127,671,1065,-0.628719,-0.469691
-546,-41,-0.638245,0.408203,0.00288803,-0.000320873,0.000619398,0.00300344,-0.000436282,0.184211,0.00216244,0.039581,678,1065,-0.638264,-0.408164
-539,-41,-0.69165,0.502686,0.00288299,-0.000495674,0.00146605,0.00343043,-0.00104311,0.357377,0.00270261,0.0407619,685,1065,-0.691629,-0.502628
-532,-41,-0.667908,0.580322,0.0028565,-0.000700754,0.00266653,0.00428316,-0.00212742,0.491275,0.00377026,0.0396793,692,1065,-0.667934,-0.580305
-525,-41,0,0,0,0,0,0,0,0,0,-1,699,1065,0,0
-518,-41,0,0,0,0,0,0,0,0,0,-1,706,1065,0,0
-511,-41,0,0,0,0,0,0,0,0,0,-1,713,1065,0,0
-504,-41,0,0,0,0,0,0,0,0,0,-1,720,1065,0,0
-497,-41,0,0,0,0,0,0,0,0,0,-1,727,1065,0,0
-490,-41,0,0,0,0,0,0,0,0,0,-1,734,1065,0,0
-483,-41,0,0,0,0,0,0,0,0,0,-1,741,1065,0,0
-476,-41,0,0,0,0,0,0,0,0,0,-1,748,1065,0,0
-469,-41,0,0,0,0,0,0,0,0,0,-1,755,1065,0,0
-462,-41,0,0,0,0,0,0,0,0,0,-1,762,1065,0,0
-455,-41,0,0,0,0,0,0,0,0,0,-1,769,1065,0,0
-448,-41,0,0,0,0,0,0,0,0,0,-1,776,1065,0,0
-441,-41,0,0,0,0,0,0,0,0,0,-1,783,1065,0,0
-434,-41,0,0,0,0,0,0,0,0,0,-1,790,1065,0,0
-427,-41,0,0,0,0,0,0,0,0,0,-1,797,1065,0,0
-420,-41,0,0,0,0,0,0,0,0,0,-1,804,1065,0,0
-413,-41,0,0,0,0,0,0,0,0,0,-1,811,1065,0,0
-406,-41,0,0,0,0,0,0,0,0,0,-1,818,1065,0,0
-399,-41,0,0,0,0,0,0,0,0,0,-1,825,1065,0,0
-392,-41,0,0,0,0,0,0,0,0,0,-1,832,1065,0,0
-385,-41,0,0,0,0,0,0,0,0,0,-1,839,1065,0,0
-378,-41,0,0,0,0,0,0,0,0,0,-1,846,1065,0,0
-371,-41,0,0,0,0,0,0,0,0,0,-1,853,1065,0,0
-364,-41,0,0,0,0,0,0,0,0,0,-1,860,1065,0,0
-357,-41,0,0,0,0,0,0,0,0,0,-1,867,1065,0,0
-350,-41,0,0,0,0,0,0,0,0,0,-1,874,1065,0,0
-343,-41,0,0,0,0,0,0,0,0,0,-1,881,1065,0,0
-336,-41,0,0,0,0,0,0,0,0,0,-1,888,1065,0,0
-329,-41,0,0,0,0,0,0,0,0,0,-1,895,1065,0,0
-322,-41,0,0,0,0,0,0,0,0,0,-1,902,1065,0,0
-315,-41,0,0,0,0,0,0,0,0,0,-1,909,1065,0,0
-308,-41,0,0,0,0,0,0,0,0,0,-1,916,1065,0,0
-301,-41,0,0,0,0,0,0,0,0,0,-1,923,1065,0,0
-294,-41,0,0,0,0,0,0,0,0,0,-1,930,1065,0,0
-287,-41,0,0,0,0,0,0,0,0,0,-1,937,1065,0,0
-280,-41,0,0,0,0,0,0,0,0,0,-1,944,1065,0,0
-273,-41,0,0,0,0,0,0,0,0,0,-1,951,1065,0,0
-266,-41,0,0,0,0,0,0,0,0,0,-1,958,1065,0,0
-259,-41,0,0,0,0,0,0,0,0,0,-1,965,1065,0,0
-252,-41,0,0,0,0,0,0,0,0,0,-1,972,1065,0,0
-245,-41,0,0,0,0,0,0,0,0,0,-1,979,1065,0,0
-238,-41,0,0,0,0,0,0,0,0,0,-1,986,1065,0,0
-231,-41,0,0,0,0,0,0,0,0,0,-1,993,1065,0,0
-224,-41,0,0,0,0,0,0,0,0,0,-1,1000,1065,0,0
-217,-41,0,0,0,0,0,0,0,0,0,-1,1007,1065,0,0
-210,-41,0,0,0,0,0,0,0,0,0,-1,1014,1065,0,0
-203,-41,0,0,0,0,0,0,0,0,0,-1,1021,1065,0,0
-196,-41,0,0,0,0,0,0,0,0,0,-1,1028,1065,0,0
-189,-41,0,0,0,0,0,0,0,0,0,-1,1035,1065,0,0
-182,-41,0,0,0,0,0,0,0,0,0,-1,1042,1065,0,0
-175,-41,0,0,0,0,0,0,0,0,0,-1,1049,1065,0,0
-168,-41,0,0,0,0,0,0,0,0,0,-1,1056,1065,0,0
-161,-41,0,0,0,0,0,0,0,0,0,-1,1063,1065,0,0
-154,-41,0,0,0,0,0,0,0,0,0,-1,1070,1065,0,0
-147,-41,0,0,0,0,0,0,0,0,0,-1,1077,1065,0,0
-140,-41,0,0,0,0,0,0,0,0,0,-1,1084,1065,0,0
-133,-41,0,0,0,0,0,0,0,0,0,-1,1091,1065,0,0
-126,-41,0,0,0,0,0,0,0,0,0,-1,1098,1065,0,0
-119,-41,0,0,0,0,0,0,0,0,0,-1,1105,1065,0,0
-112,-41,0,0,0,0,0,0,0,0,0,-1,1112,1065,0,0
-105,-41,0,0,0,0,0,0,0,0,0,-1,1119,1065,0,0
-98,-41,0,0,0,0,0,0,0,0,0,-1,1126,1065,0,0
-91,-41,0,0,0,0,0,0,0,0,0,-1,1133,1065,0,0
-84,-41,0,0,0,0,0,0,0,0,0,-1,1140,1065,0,0
-77,-41,0,0,0,0,0,0,0,0,0,-1,1147,1065,0,0
-70,-41,0,0,0,0,0,0,0,0,0,-1,1154,1065,0,0
-63,-41,0,0,0,0,0,0,0,0,0,-1,1161,1065,0,0
-56,-41,0,0,0,0,0,0,0,0,0,-1,1168,1065,0,0
-49,-41,0,0,0,0,0,0,0,0,0,-1,1175,1065,0,0
-42,-41,0,0,0,0,0,0,0,0,0,-1,1182,1065,0,0
-35,-41,0,0,0,0,0,0,0,0,0,-1,1189,1065,0,0
-28,-41,0,0,0,0,0,0,0,0,0,-1,1196,1065,0,0
-21,-41,0,0,0,0,0,0,0,0,0,-1,1203,1065,0,0
-14,-41,0,0,0,0,0,0,0,0,0,-1,1210,1065,0,0
-7,-41,0,0,0,0,0,0,0,0,0,-1,1217,1065,0,0
0,-41,0,0,0,0,0,0,0,0,0,-1,1224,1065,0,0
7,-41,0,0,0,0,0,0,0,0,0,-1,1231,1065,0,0
14,-41,0,0,0,0,0,0,0,0,0,-1,1238,1065,0,0
21,-41,0,0,0,0,0,0,0,0,0,-1,1245,1065,0,0
28,-41,0,0,0,0,0,0,0,0,0,-1,1252,1065,0,0
35,-41,0,0,0,0,0,0,0,0,0,-1,1259,1065,0,0
42,-41,0,0,0,0,0,0,0,0,0,-1,1266,1065,0,0
49,-41,0,0,0,0,0,0,0,0,0,-1,1273,1065,0,0
56,-41,0,0,0,0,0,0,0,0,0,-1,1280,1065,0,0
63,-41,0,0,0,0,0,0,0,0,0,-1,1287,1065,0,0
70,-41,0,0,0,0,0,0,0,0,0,-1,1294,1065,0,0
77,-41,0,0,0,0,0,0,0,0,0,-1,1301,1065,0,0
84,-41,0,0,0,0,0,0,0,0,0,-1,1308,1065,0,0
91,-41,0,0,0,0,0,0,0,0,0,-1,1315,1065,0,0
98,-41,0,0,0,0,0,0,0,0,0,-1,1322,1065,0,0
105,-41,0,0,0,0,0,0,0,0,0,-1,1329,1065,0,0
112,-41,0,0,0,0,0,0,0,0,0,-1,1336,1065,0,0
119,-41,0,0,0,0,0,0,0,0,0,-1,1343,1065,0,0
126,-41,0,0,0,0,0,0,0,0,0,-1,1350,1065,0,0
133,-41,0,0,0,0,0,0,0,0,0,-1,1357,1065,0,0
140,-41,0,0,0,0,0,0,0,0,0,-1,1364,1065,0,0
147,-41,0,0,0,0,0,0,0,0,0,-1,1371,1065,0,0
154,-41,0,0,0,0,0,0,0,0,0,-1,1378,1065,0,0
161,-41,0,0,0,0,0,0,0,0,0,-1,1385,1065,0,0
168,-41,0,0,0,0,0,0,0,0,0,-1,1392,1065,0,0
175,-41,0,0,0,0,0,0,0,0,0,-1,1399,1065,0,0
182,-41,0,0,0,0,0,0,0,0,0,-1,1406,1065,0,0
189,-41,0,0,0,0,0,0,0,0,0,-1,1413,1065,0,0
196,-41,0,0,0,0,0,0,0,0,0,-1,1420,1065,0,0
203,-41,0,0,0,0,0,0,0,0,0,-1,1427,1065,0,0
210,-41,0,0,0,0,0,0,0,0,0,-1,1434,1065,0,0
217,-41,0,0,0,0,0,0,0,0,0,-1,1441,1065,0,0
224,-41,0,0,0,0,0,0,0,0,0,-1,1448,1065,0,0
231,-41,0,0,0,0,0,0,0,0,0,-1,1455,1065,0,0
238,-41,0,0,0,0,0,0,0,0,0,-1,1462,1065,0,0
245,-41,0,0,0,0,0,0,0,0,0,-1,1469,1065,0,0
252,-41,0,0,0,0,0,0,0,0,0,-1,1476,1065,0,0
259,-41,0,0,0,0,0,0,0,0,0,-1,1483,1065,0,0
266,-41,0,0,0,0,0,0,0,0,0,-1,1490,1065,0,0
273,-41,0,0,0,0,0,0,0,0,0,-1,1497,1065,0,0
280,-41,0,0,0,0,0,0,0,0,0,-1,1504,1065,0,0
287,-41,0,0,0,0,0,0,0,0,0,-1,1511,1065,0,0
294,-41,0,0,0,0,0,0,0,0,0,-1,1518,1065,0,0
301,-41,0,0,0,0,0,0,0,0,0,-1,1525,1065,0,0
308,-41,0,0,0,0,0,0,0,0,0,-1,1532,1065,0,0
315,-41,0,0,0,0,0,0,0,0,0,-1,1539,1065,0,0
322,-41,0,0,0,0,0,0,0,0,0,-1,1546,1065,0,0
329,-41,0,0,0,0,0,0,0,0,0,-1,1553,1065,0,0
336,-41,0,0,0,0,0,0,0,0,0,-1,1560,1065,0,0
343,-41,0,0,0,0,0,0,0,0,0,-1,1567,1065,0,0
350,-41,0,0,0,0,0,0,0,0,0,-1,1574,1065,0,0
357,-41,0,0,0,0,0,0,0,0,0,-1,1581,1065,0,0
364,-41,0,0,0,0,0,0,0,0,0,-1,1588,1065,0,0
371,-41,0,0,0,0,0,0,0,0,0,-1,1595,1065,0,0
378,-41,0,0,0,0,0,0,0,0,0,-1,1602,1065,0,0
385,-41,0,0,0,0,0,0,0,0,0,-1,1609,1065,0,0
392,-41,0,0,0,0,0,0,0,0,0,-1,1616,1065,0,0
399,-41,0,0,0,0,0,0,0,0,0,-1,1623,1065,0,0
406,-41,0,0,0,0,0,0,0,0,0,-1,1630,1065,0,0
413,-41,0,0,0,0,0,0,0,0,0,-1,1637,1065,0,0
420,-41,0,0,0,0,0,0,0,0,0,-1,1644,1065,0,0
427,-41,0,0,0,0,0,0,0,0,0,-1,1651,1065,0,0
434,-41,0,0,0,0,0,0,0,0,0,-1,1658,1065,0,0
441,-41,0,0,0,0,0,0,0,0,0,-1,1665,1065,0,0
448,-41,0,0,0,0,0,0,0,0,0,-1,1672,1065,0,0
455,-41,0,0,0,0,0,0,0,0,0,-1,1679,1065,0,0
462,-41,0,0,0,0,0,0,0,0,0,-1,1686,1065,0,0
469,-41,0,0,0,0,0,0,0,0,0,-1,1693,1065,0,0
476,-41,0,0,0,0,0,0,0,0,0,-1,1700,1065,0,0
483,-41,0,0,0,0,0,0,0,0,0,-1,1707,1065,0,0
490,-41,0,0,0,0,0,0,0,0,0,-1,1714,1065,0,0
497,-41,0,0,0,0,0,0,0,0,0,-1,1721,1065,0,0
504,-41,0,0,0,0,0,0,0,0,0,-1,1728,1065,0,0
511,-41,0,0,0,0,0,0,0,0,0,-1,1735,1065,0,0
518,-41,0,0,0,0,0,0,0,0,0,-1,1742,1065,0,0
525,-41,0,0,0,0,0,0,0,0,0,-1,1749,1065,0,0
532,-41,0,0,0,0,0,0,0,0,0,-1,1756,1065,0,0
539,-41,0,0,0,0,0,0,0,0,0,-1,1763,1065,0,0
546,-41,0,0,0,0,0,0,0,0,0,-1,1770,1065,0,0
553,-41,0,0,0,0,0,0,0,0,0,-1,1777,1065,0,0
560,-41,0,0,0,0,0,0,0,0,0,-1,1784,1065,0,0
567,-41,0,0,0,0,0,0,0,0,0,-1,1791,1065,0,0
574,-41,0,0,0,0,0,0,0,0,0,-1,1798,1065,0,0
581,-41,0,0,0,0,0,0,0,0,0,-1,1805,1065,0,0
588,-41,0,0,0,0,0,0,0,0,0,-1,1812,1065,0,0
595,-41,0,0,0,0,0,0,0,0,0,-1,1819,1065,0,0
602,-41,0,0,0,0,0,0,0,0,0,-1,1826,1065,0,0
609,-41,0,0,0,0,0,0,0,0,0,-1,1833,1065,0,0
616,-41,0,0,0,0,0,0,0,0,0,-1,1840,1065,0,0
623,-41,0,0,0,0,0,0,0,0,0,-1,1847,1065,0,0
630,-41,0,0,0,0,0,0,0,0,0,-1,1854,1065,0,0
637,-41,0,0,0,0,0,0,0,0,0,-1,1861,1065,0,0
644,-41,0,0,0,0,0,0,0,0,0,-1,1868,1065,0,0
651,-41,4.18335,0.525879,-0.00175576,-0.00103042,0.00253661,0.00116931,-0.00395549,0.856404,0.00310114,0.0365955,1875,1065,4.18335,-0.52588
658,-41,4.12927,0.553467,-0.00111574,-0.000429491,0.00243994,0.00169133,-0.00323657,0.855254,0.00289137,0.039639,1882,1065,4.12933,-0.55349
665,-41,4.39624,0.372559,-0.000724883,5.11578e-07,0.00205661,0.00172616,-0.00245053,0.872679,0.00242347,0.0408052,1889,1065,4.39629,-0.37257
672,-41,4.44873,0.44165,-0.000462934,0.000318237,0.00175919,0.00172968,-0.00187438,0.894639,0.00208137,0.0411488,1896,1065,4.44868,-0.441651
679,-41,4.24744,0.761719,-0.000287544,0.000535351,0.0014632,0.00164385,-0.00139605,0.922457,0.00175703,0.0412645,1903,1065,4.24742,-0.76176
686,-41,4.06714,0.901123,-0.000162376,0.000659158,0.00116893,0.00148739,-0.000990608,0.954361,0.00144023,0.0434302,1910,1065,4.06717,-0.901109
693,-41,4.15686,0.8302,-7.32033e-05,0.00070247,0.00091634,0.00130967,-0.000680402,0.98559,0.00116796,0.0449325,1917,1065,4.15689,-0.830207
700,-41,4.29346,0.77478,-2.59026e-06,0.000700409,0.000718264,0.00114857,-0.00045075,1.01295,0.000952214,0.0397192,1924,1065,4.29344,-0.774799
707,-41,4.24097,0.617554,0.000137727,0.000668446,0.000564331,0.00102669,-0.00022052,1.00517,0.000768587,0.0251293,1931,1065,4.24091,-0.617502
714,-41,4.229,0.641846,0.000114779,0.000654225,0.000522217,0.000972262,-0.000203258,1.02378,0.000725481,0.014756,1938,1065,4.22905,-0.641819
721,-41,4.25513,0.71875,4.53456e-06,0.000597746,0.000449851,0.000839973,-0.000237692,1.07686,0.000653778,0.0249494,1945,1065,4.2551,-0.718737
728,-41,4.23743,0.762451,-4.88675e-05,0.000496119,0.00019408,0.000558169,-0.000110918,1.26135,0.000414067,0.0196071,1952,1065,4.23742,-0.762491
735,-41,4.23206,0.725098,-8.41533e-05,0.000428744,4.09032e-05,0.000431985,-8.73948e-05,1.49171,0.000321111,0.0152028,1959,1065,4.23209,-0.725127
742,-41,4.2262,0.69165,6.95053e-05,0.000551377,0.000297091,0.00069295,-7.20675e-05,1.1261,0.000487767,0.0131586,1966,1065,4.22623,-0.691632
749,-41,4.25818,0.713745,0.000576354,0.000876144,0.00116252,0.0018984,-0.0004459,0.849514,0.00143747,0.0123377,1973,1065,4.25814,-0.713718
756,-41,4.26941,0.732178,0.00145586,0.00195206,0.00202517,0.00374427,-0.000336348,0.846349,0.00261551,0.012013,1980,1065,4.26941,-0.732223
763,-41,4.26575,0.711426,0.00278158,0.00479532,0.00302984,0.00698122,0.000595688,0.945816,0.00446883,0.010444,1987,1065,4.26572,-0.711471
770,-41,4.24084,0.702026,0.00436544,0.00739495,0.0043045,0.0104434,0.00131695,0.954582,0.00656747,0.0118854,1994,1065,4.24089,-0.702057
777,-41,4.21045,0.69812,0.00658123,0.011178,0.00617824,0.0154715,0.00228772,0.963474,0.00964267,0.0132741,2001,1065,4.21047,-0.698099
784,-41,4.14673,0.726318,0.00958025,0.0165331,0.0086853,0.0224119,0.00370147,0.975766,0.013873,0.024081,2008,1065,4.1467,-0.72637
791,-41,4.08484,0.8125,0.0135054,0.0238991,0.0118075,0.0316028,0.00580166,0.992705,0.0194256,0.0430567,2015,1065,4.08478,-0.812557
798,-41,4.37585,0.991699,0.0184858,0.0338306,0.0155862,0.0435304,0.00878599,1.01411,0.0265802,0.0462623,2022,1065,4.37587,-0.991691
805,-41,4.39465,0.943237,0,0,0,0,0,0,0,-1,2029,1065,4.39461,-0.943228
812,-41,4.23828,0.415649,0,0,0,0,0,0,0,-1,2036,1065,4.23826,-0.415592
-700,-48,-0.326599,0.126831,-0.0302994,0.00223185,-0.00352794,0.00261005,-0.0306776,-1.464,0.021375,0.0455868,524,1072,-0.3266,-0.12677
-693,-48,-0.30896,-0.369629,-0.0262744,0.00181729,-0.000178775,0.00181843,-0.0262755,-1.56443,0.0181535,0.0428976,531,1072,-0.308985,0.369577
-686,-48,-0.700195,-0.50769,-0.0220542,0.00174378,0.00178282,0.0018766,-0.022187,1.49643,0.0154549,0.0423784,538,1072,-0.700176,0.507746
-679,-48,-1.03876,-0.309814,-0.0180101,0.00179049,0.00286395,0.00219641,-0.018416,1.43,0.0130711,0.0431727,545,1072,-1.03877,0.309792
-672,-48,-1.29718,0.102783,-0.0143613,0.00185266,0.00336516,0.00252335,-0.015032,1.37407,0.0109597,0.0459408,552,1072,-1.29721,-0.102794
-665,-48,-0.461792,0.621704,-0.0111682,0.00187858,0.00346843,0.00274332,-0.012033,1.32646,0.00907569,0.0448227,559,1072,-0.461804,-0.621756
-658,-48,-0.730896,0.762939,-0.0084864,0.00183514,0.00328684,0.00279294,-0.00944419,1.28724,0.00740481,0.0457873,566,1072,-0.730895,-0.76295
-651,-48,-0.755737,0.753784,-0.00628986,0.0017068,0.00291568,0.00265699,-0.00724005,1.25576,0.00591475,0.0288424,573,1072,-0.755715,-0.75375
-644,-48,-0.751831,0.75061,-0.00463058,0.00120753,0.00260282,0.00219943,-0.00562248,1.2067,0.0046579,0.0121277,580,1072,-0.751813,-0.750634
-637,-48,-0.730164,0.740356,-0.00295331,0.00130191,0.00219077,0.00222818,-0.00387958,1.17078,0.00356902,0.0122607,587,1072,-0.730188,-0.740351
-630,-48,-0.728027,0.738159,-0.00116997,0.00140769,0.00159518,0.00216963,-0.00193191,1.12518,0.00236935,0.0140788,594,1072,-0.727998,-0.738142
-623,-48,-0.726074,0.734863,-7.93638e-05,0.000927174,0.000839987,0.00140312,-0.000555308,1.05529,0.00116548,0.00994398,601,1072,-0.726051,-0.734897
-616,-48,-0.718018,0.753418,-0.000159005,0.000454017,0.000127364,0.000479426,-0.000184413,1.37389,0.000395682,0.00867964,608,1072,-0.71804,-0.753364
-609,-48,-0.713806,0.758057,0.000145477,0.000217617,3.18754e-05,0.000229683,0.000133411,1.20893,0.000133184,0.0105339,615,1072,-0.713789,-0.758093
-602,-48,-0.734497,0.743286,0.000840827,0.000282119,-0.000406126,0.0010544,6.85461e-05,-0.484136,0.000681235,0.0112217,622,1072,-0.734527,-0.743306
-595,-48,-0.739807,0.751831,0.00126708,0.000196146,-0.000647387,0.00157175,-0.000108527,-0.439868,0.00108582,0.0128828,629,1072,-0.739831,-0.751815
-588,-48,-0.717346,0.740234,0.00156673,0.000144382,-0.00066033,0.00182602,-0.00011491,-0.374172,0.0012574,0.0261826,636,1072,-0.717367,-0.740278
-581,-48,-0.701355,0.663818,0.00186142,9.30393e-05,-0.000570761,0.00202963,-7.51778e-05,-0.28661,0.00137883,0.0406019,643,1072,-0.701333,-0.663848
-574,-48,-0.522705,0.635864,0.0021521,3.20714e-05,-0.000518803,0.00227225,-8.80782e-05,-0.227578,0.00154503,0.0423827,650,1072,-0.522733,-0.635922
-567,-48,-0.385559,0.726807,0.00239256,-5.68885e-05,-0.000385183,0.0024517,-0.000116032,-0.152356,0.00167449,0.0444847,657,1072,-0.385568,-0.726786
-560,-48,-0.639954,0.778809,0.00258602,-0.000180582,-0.000141514,0.00259324,-0.000187802,-0.0509734,0.0017947,0.0460787,664,1072,-0.639965,-0.77877
-553,-48,-0.86731,0.736938,0.00273147,-0.000339666,0.000257035,0.00275283,-0.00036103,0.0829251,0.00196664,0.0436664,671,1072,-0.867336,-0.736946
-546,-48,-0.754211,0.620605,0.00278346,-0.000536087,0.000862114,0.00299401,-0.000746631,0.23953,0.00228589,0.0393233,678,1072,-0.754208,-0.620598
-539,-48,-0.977844,0.908813,0.00275582,-0.000771148,0.00175481,0.00348015,-0.00149548,0.391467,0.00294788,0.0418728,685,1072,-0.977822,-0.908813
-532,-48,-0.857056,0.961792,0.00266004,-0.00102684,0.0029735,0.00431516,-0.00268196,0.507916,0.00407631,0.0400434,692,1072,-0.85704,-0.961754
-525,-48,0,0,0,0,0,0,0,0,0,-1,699,1072,0,0
-518,-48,0,0,0,0,0,0,0,0,0,-1,706,1072,0,0
-511,-48,0,0,0,0,0,0,0,0,0,-1,713,1072,0,0
-504,-48,0,0,0,0,0,0,0,0,0,-1,720,1072,0,0
-497,-48,0,0,0,0,0,0,0,0,0,-1,727,1072,0,0
-490,-48,0,0,0,0,0,0,0,0,0,-1,734,1072,0,0
-483,-48,0,0,0,0,0,0,0,0,0,-1,741,1072,0,0
-476,-48,0,0,0,0,0,0,0,0,0,-1,748,1072,0,0
-469,-48,0,0,0,0,0,0,0,0,0,-1,755,1072,0,0
-462,-48,0,0,0,0,0,0,0,0,0,-1,762,1072,0,0
-455,-48,0,0,0,0,0,0,0,0,0,-1,769,1072,0,0
-448,-48,0,0,0,0,0,0,0,0,0,-1,776,1072,0,0
-441,-48,0,0,0,0,0,0,0,0,0,-1,783,1072,0,0
-434,-48,0,0,0,0,0,0,0,0,0,-1,790,1072,0,0
-427,-48,0,0,0,0,0,0,0,0,0,-1,797,1072,0,0
-420,-48,0,0,0,0,0,0,0,0,0,-1,804,1072,0,0
-413,-48,0,0,0,0,0,0,0,0,0,-1,811,1072,0,0
-406,-48,0,0,0,0,0,0,0,0,0,-1,818,1072,0,0
-399,-48,0,0,0,0,0,0,0,0,0,-1,825,1072,0,0
-392,-48,0,0,0,0,0,0,0,0,0,-1,832,1072,0,0
-385,-48,0,0,0,0,0,0,0,0,0,-1,839,1072,0,0
-378,-48,0,0,0,0,0,0,0,0,0,-1,846,1072,0,0
-371,-48,0,0,0,0,0,0,0,0,0,-1,853,1072,0,0
-364,-48,0,0,0,0,0,0,0,0,0,-1,860,1072,0,0
-357,-48,0,0,0,0,0,0,0,0,0,-1,867,1072,0,0
-350,-48,0,0,0,0,0,0,0,0,0,-1,874,1072,0,0
-343,-48,0,0,0,0,0,0,0,0,0,-1,881,1072,0,0
-336,-48,0,0,0,0,0,0,0,0,0,-1,888,1072,0,0
-329,-48,0,0,0,0,0,0,0,0,0,-1,895,1072,0,0
-322,-48,0,0,0,0,0,0,0,0,0,-1,902,1072,0,0
-315,-48,0,0,0,0,0,0,0,0,0,-1,909,1072,0,0
-308,-48,0,0,0,0,0,0,0,0,0,-1,916,1072,0,0
-301,-48,0,0,0,0,0,0,0,0,0,-1,923,1072,0,0
-294,-48,0,0,0,0,0,0,0,0,0,-1,930,1072,0,0
-287,-48,0,0,0,0,0,0,0,0,0,-1,937,1072,0,0
-280,-48,0,0,0,0,0,0,0,0,0,-1,944,1072,0,0
-273,-48,0,0,0,0,0,0,0,0,0,-1,951,1072,0,0
-266,-48,0,0,0,0,0,0,0,0,0,-1,958,1072,0,0
-259,-48,0,0,0,0,0,0,0,0,0,-1,965,1072,0,0
-252,-48,0,0,0,0,0,0,0,0,0,-1,972,1072,0,0
-245,-48,0,0,0,0,0,0,0,0,0,-1,979,1072,0,0
-238,-48,0,0,0,0,0,0,0,0,0,-1,986,1072,0,0
-231,-48,0,0,0,0,0,0,0,0,0,-1,993,1072,0,0
-224,-48,0,0,0,0,0,0,0,0,0,-1,1000,1072,0,0
-217,-48,0,0,0,0,0,0,0,0,0,-1,1007,1072,0,0
-210,-48,0,0,0,0,0,0,0,0,0,-1,1014,1072,0,0
-203,-48,0,0,0,0,0,0,0,0,0,-1,1021,1072,0,0
-196,-48,0,0,0,0,0,0,0,0,0,-1,1028,1072,0,0
-189,-48,0,0,0,0,0,0,0,0,0,-1,1035,1072,0,0
-182,-48,0,0,0,0,0,0,0,0,0,-1,1042,1072,0,0
-175,-48,0,0,0,0,0,0,0,0,0,-1,1049,1072,0,0
-168,-48,0,0,0,0,0,0,0,0,0,-1,1056,1072,0,0
-161,-48,0,0,0,0,0,0,0,0,0,-1,1063,1072,0,0
-154,-48,0,0,0,0,0,0,0,0,0,-1,1070,1072,0,0
-147,-48,0,0,0,0,0,0,0,0,0,-1,1077,1072,0,0
-140,-48,0,0,0,0,0,0,0,0,0,-1,1084,1072,0,0
-133,-48,0,0,0,0,0,0,0,0,0,-1,1091,1072,0,0
-126,-48,0,0,0,0,0,0,0,0,0,-1,1098,1072,0,0
-119,-48,0,0,0,0,0,0,0,0,0,-1,1105,1072,0,0
-112,-48,0,0,0,0,0,0,0,0,0,-1,1112,1072,0,0
-105,-48,0,0,0,0,0,0,0,0,0,-1,1119,1072,0,0
-98,-48,0,0,0,0,0,0,0,0,0,-1,1126,1072,0,0
-91,-48,0,0,0,0,0,0,0,0,0,-1,1133,1072,0,0
-84,-48,0,0,0,0,0,0,0,0,0,-1,1140,1072,0,0
-77,-48,0,0,0,0,0,0,0,0,0,-1,1147,1072,0,0
-70,-48,0,0,0,0,0,0,0,0,0,-1,1154,1072,0,0
-63,-48,0,0,0,0,0,0,0,0,0,-1,1161,1072,0,0
-56,-48,0,0,0,0,0,0,0,0,0,-1,1168,1072,0,0
-49,-48,0,0,0,0,0,0,0,0,0,-1,1175,1072,0,0
-42,-48,0,0,0,0,0,0,0,0,0,-1,1182,1072,0,0
-35,-48,0,0,0,0,0,0,0,0,0,-1,1189,1072,0,0
-28,-48,0,0,0,0,0,0,0,0,0,-1,1196,1072,0,0
-21,-48,0,0,0,0,0,0,0,0,0,-1,1203,1072,0,0
-14,-48,0,0,0,0,0,0,0,0,0,-1,1210,1072,0,0
-7,-48,0,0,0,0,0,0,0,0,0,-1,1217,1072,0,0
0,-48,0,0,0,0,0,0,0,0,0,-1,1224,1072,0,0
7,-48,0,0,0,0,0,0,0,0,0,-1,1231,1072,0,0
14,-48,0,0,0,0,0,0,0,0,0,-1,1238,1072,0,0
21,-48,0,0,0,0,0,0,0,0,0,-1,1245,1072,0,0
28,-48,0,0,0,0,0,0,0,0,0,-1,1252,1072,0,0
35,-48,0,0,0,0,0,0,0,0,0,-1,1259,1072,0,0
42,-48,0,0,0,0,0,0,0,0,0,-1,1266,1072,0,0
49,-48,0,0,0,0,0,0,0,0,0,-1,1273,1072,0,0
56,-48,0,0,0,0,0,0,0,0,0,-1,1280,1072,0,0
63,-48,0,0,0,0,0,0,0,0,0,-1,1287,1072,0,0
70,-48,0,0,0,0,0,0,0,0,0,-1,1294,1072,0,0
77,-48,0,0,0,0,0,0,0,0,0,-1,1301,1072,0,0
84,-48,0,0,0,0,0,0,0,0,0,-1,1308,1072,0,0
91,-48,0,0,0,0,0,0,0,0,0,-1,1315,1072,0,0
98,-48,0,0,0,0,0,0,0,0,0,-1,1322,1072,0,0
105,-48,0,0,0,0,0,0,0,0,0,-1,1329,1072,0,0
112,-48,0,0,0,0,0,0,0,0,0,-1,1336,1072,0,0
119,-48,0,0,0,0,0,0,0,0,0,-1,1343,1072,0,0
126,-48,0,0,0,0,0,0,0,0,0,-1,1350,1072,0,0
133,-48,0,0,0,0,0,0,0,0,0,-1,1357,1072,0,0
140,-48,0,0,0,0,0,0,0,0,0,-1,1364,1072,0,0
147,-48,0,0,0,0,0,0,0,0,0,-1,1371,1072,0,0
154,-48,0,0,0,0,0,0,0,0,0,-1,1378,1072,0,0
161,-48,0,0,0,0,0,0,0,0,0,-1,1385,1072,0,0
168,-48,0,0,0,0,0,0,0,0,0,-1,1392,1072,0,0
175,-48,0,0,0,0,0,0,0,0,0,-1,1399,1072,0,0
182,-48,0,0,0,0,0,0,0,0,0,-1,1406,1072,0,0
189,-48,0,0,0,0,0,0,0,0,0,-1,1413,1072,0,0
196,-48,0,0,0,0,0,0,0,0,0,-1,1420,1072,0,0
203,-48,0,0,0,0,0,0,0,0,0,-1,1427,1072,0,0
210,-48,0,0,0,0,0,0,0,0,0,-1,1434,1072,0,0
217,-48,0,0,0,0,0,0,0,0,0,-1,1441,1072,0,0
224,-48,0,0,0,0,0,0,0,0,0,-1,1448,1072,0,0
231,-48,0,0,0,0,0,0,0,0,0,-1,1455,1072,0,0
238,-48,0,0,0,0,0,0,0,0,0,-1,1462,1072,0,0
245,-48,0,0,0,0,0,0,0,0,0,-1,1469,1072,0,0
252,-48,0,0,0,0,0,0,0,0,0,-1,1476,1072,0,0
259,-48,0,0,0,0,0,0,0,0,0,-1,1483,1072,0,0
266,-48,0,0,0,0,0,0,0,0,0,-1,1490,1072,0,0
273,-48,0,0,0,0,0,0,0,0,0,-1,1497,1072,0,0
280,-48,0,0,0,0,0,0,0,0,0,-1,1504,1072,0,0
287,-48,0,0,0,0,0,0,0,0,0,-1,1511,1072,0,0
294,-48,0,0,0,0,0,0,0,0,0,-1,1518,1072,0,0
301,-48,0,0,0,0,0,0,0,0,0,-1,1525,1072,0,0
308,-48,0,0,0,0,0,0,0,0,0,-1,1532,1072,0,0
315,-48,0,0,0,0,0,0,0,0,0,-1,1539,1072,0,0
322,-48,0,0,0,0,0,0,0,0,0,-1,1546,1072,0,0
329,-48,0,0,0,0,0,0,0,0,0,-1,1553,1072,0,0
336,-48,0,0,0,0,0,0,0,0,0,-1,1560,1072,0,0
343,-48,0,0,0,0,0,0,0,0,0,-1,1567,1072,0,0
350,-48,0,0,0,0,0,0,0,0,0,-1,1574,1072,0,0
357,-48,0,0,0,0,0,0,0,0,0,-1,1581,1072,0,0
364,-48,0,0,0,0,0,0,0,0,0,-1,1588,1072,0,0
371,-48,0,0,0,0,0,0,0,0,0,-1,1595,1072,0,0
378,-48,0,0,0,0,0,0,0,0,0,-1,1602,1072,0,0
385,-48,0,0,0,0,0,0,0,0,0,-1,1609,1072,0,0
392,-48,0,0,0,0,0,0,0,0,0,-1,1616,1072,0,0
399,-48,0,0,0,0,0,0,0,0,0,-1,1623,1072,0,0
406,-48,0,0,0,0,0,0,0,0,0,-1,1630,1072,0,0
413,-48,0,0,0,0,0,0,0,0,0,-1,1637,1072,0,0
420,-48,0,0,0,0,0,0,0,0,0,-1,1644,1072,0,0
427,-48,0,0,0,0,0,0,0,0,0,-1,1651,1072,0,0
434,-48,0,0,0,0,0,0,0,0,0,-1,1658,1072,0,0
441,-48,0,0,0,0,0,0,0,0,0,-1,1665,1072,0,0
448,-48,0,0,0,0,0,0,0,0,0,-1,1672,1072,0,0
455,-48,0,0,0,0,0,0,0,0,0,-1,1679,1072,0,0
462,-48,0,0,0,0,0,0,0,0,0,-1,1686,1072,0,0
469,-48,0,0,0,0,0,0,0,0,0,-1,1693,1072,0,0
476,-48,0,0,0,0,0,0,0,0,0,-1,1700,1072,0,0
483,-48,0,0,0,0,0,0,0,0,0,-1,1707,1072,0,0
490,-48,0,0,0,0,0,0,0,0,0,-1,1714,1072,0,0
497,-48,0,0,0,0,0,0,0,0,0,-1,1721,1072,0,0
504,-48,0,0,0,0,0,0,0,0,0,-1,1728,1072,0,0
511,-48,0,0,0,0,0,0,0,0,0,-1,1735,1072,0,0
518,-48,0,0,0,0,0,0,0,0,0,-1,1742,1072,0,0
525,-48,0,0,0,0,0,0,0,0,0,-1,1749,1072,0,0
532,-48,0,0,0,0,0,0,0,0,0,-1,1756,1072,0,0
539,-48,0,0,0,0,0,0,0,0,0,-1,1763,1072,0,0
546,-48,0,0,0,0,0,0,0,0,0,-1,1770,1072,0,0
553,-48,0,0,0,0,0,0,0,0,0,-1,1777,1072,0,0
560,-48,0,0,0,0,0,0,0,0,0,-1,1784,1072,0,0
567,-48,0,0,0,0,0,0,0,0,0,-1,1791,1072,0,0
574,-48,0,0,0,0,0,0,0,0,0,-1,1798,1072,0,0
581,-48,0,0,0,0,0,0,0,0,0,-1,1805,1072,0,0
588,-48,0,0,0,0,0,0,0,0,0,-1,1812,1072,0,0
595,-48,0,0,0,0,0,0,0,0,0,-1,1819,1072,0,0
602,-48,0,0,0,0,0,0,0,0,0,-1,1826,1072,0,0
609,-48,0,0,0,0,0,0,0,0,0,-1,1833,1072,0,0
616,-48,0,0,0,0,0,0,0,0,0,-1,1840,1072,0,0
623,-48,0,0,0,0,0,0,0,0,0,-1,1847,1072,0,0
630,-48,0,0,0,0,0,0,0,0,0,-1,1854,1072,0,0
637,-48,0,0,0,0,0,0,0,0,0,-1,1861,1072,0,0
644,-48,0,0,0,0,0,0,0,0,0,-1,1868,1072,0,0
651,-48,4.21179,0.491089,-0.00185612,-0.00131533,0.00282392,0.00125111,-0.00442256,0.833128,0.00344205,0.0359912,1875,1072,4.21177,-0.491045
658,-48,4.13855,0.613159,-0.00101856,-0.0005021,0.00246667,0.00171982,-0.00324048,0.837552,0.00290834,0.0383528,1882,1072,4.13852,-0.613218
665,-48,4.31519,0.444824,-0.000538451,7.673e-05,0.00196304,0.00175613,-0.00221785,0.863112,0.00229954,0.0417512,1889,1072,4.31514,-0.4448
672,-48,4.35559,0.458252,-0.000255191,0.000480684,0.00161505,0.00176918,-0.00154369,0.897395,0.00191416,0.0416361,1896,1072,4.35558,-0.458205
679,-48,4.15735,0.616089,-0.000104125,0.000742696,0.00131805,0.00170367,-0.0010651,0.940813,0.00161266,0.0400473,1903,1072,4.15736,-0.616124
686,-48,4.01868,0.784668,-2.68322e-05,0.000882384,0.00105182,0.00157364,-0.000718087,0.989379,0.00135351,0.041139,1910,1072,4.01866,-0.784652
693,-48,4.21606,0.824829,7.38365e-06,0.000919923,0.000838347,0.00141812,-0.000490814,1.03461,0.00114465,0.0412111,1917,1072,4.2161,-0.82481
700,-48,4.35413,0.780884,2.91256e-05,0.000904468,0.000670386,0.0012674,-0.000333811,1.07459,0.000975436,0.036478,1924,1072,4.35416,-0.780832
707,-48,4.28564,0.605713,0.000132693,0.000857899,0.000530231,0.00113766,-0.000147063,1.0853,0.00081191,0.0266026,1931,1072,4.2857,-0.605661
714,-48,4.27222,0.601685,8.69589e-05,0.000805907,0.000517902,0.00107686,-0.000183998,1.08877,0.00078645,0.0235218,1938,1072,4.27226,-0.601702
721,-48,4.22473,0.690674,-4.26222e-05,0.000732325,0.000494466,0.000973049,-0.000283347,1.11773,0.000760941,0.0299045,1945,1072,4.22471,-0.690717
728,-48,4.19995,0.754272,-0.000128769,0.000605371,0.000256874,0.000686324,-0.000209723,1.2655,0.000541177,0.0197094,1952,1072,4.19991,-0.754247
735,-48,4.23816,0.721191,-0.000203522,0.00052399,8.25535e-05,0.00053324,-0.000212772,1.45921,0.000443759,0.0161356,1959,1072,4.23814,-0.721204
742,-48,4.23206,0.708008,-0.00012049,0.000661741,0.00027653,0.000749625,-0.000208374,1.26308,0.000581782,0.0133715,1966,1072,4.2321,-0.707955
749,-48,4.24036,0.702148,0.000340862,0.00107353,0.00111232,0.00187829,-0.000463899,0.944475,0.00143209,0.0124179,1973,1072,4.24031,-0.702134
756,-48,4.25769,0.709839,0.00123254,0.00218829,0.00187086,0.00364134,-0.000220511,0.910441,0.0025043,0.0116302,1980,1072,4.25771,-0.709822
763,-48,4.25977,0.709351,0.00258238,0.00518078,0.00271282,0.00688946,0.000873706,1.00872,0.00433121,0.0114592,1987,1072,4.25974,-0.709315
770,-48,4.26624,0.695313,0.00414743,0.00792851,0.00382216,0.0103021,0.00177381,1.01507,0.00635981,0.0118277,1994,1072,4.26629,-0.695315
777,-48,4.22607,0.683228,0.00637997,0.0118873,0.0054709,0.0152584,0.0030088,1.01855,0.00933245,0.0108967,2001,1072,4.22602,-0.683177
784,-48,4.16089,0.634521,0.00946534,0.0174585,0.00769082,0.0221292,0.00479466,1.02502,0.0134427,0.0237299,2008,1072,4.16092,-0.634578
791,-48,4.11304,0.612305,0.0136074,0.0251,0.0104584,0.0312868,0.00742063,1.03661,0.0188769,0.041062,2015,1072,4.11305,-0.612315
798,-48,4.09143,0.595337,0,0,0,0,0,0,0,-1,2022,1072,4.09143,-0.595365
805,-48,5.64929,1.0166,0.0259647,0.0491138,0.0177626,0.0587402,0.0163384,1.07416,0.0350088,0.0448636,2029,1072,5.64926,-1.01662
812,-48,6.14001,1.49292,0.034679,0.0673488,0.0222853,0.0786447,0.0233831,1.10166,0.0466324,0.0465308,2036,1072,6.14003,-1.49286
-700,-55,-0.116455,0.268921,0,0,0,0,0,0,0,-1,524,1079,-0.11646,-0.268978
-693,-55,-0.367432,-0.38147,-0.0277217,0.000808428,-0.00331038,0.0011875,-0.0281008,-1.45678,0.019142,0.044525,531,1079,-0.367409,0.381455
-686,-55,-0.660645,-0.509766,-0.0230034,-0.000551127,-0.00103827,-0.000503216,-0.0230513,-1.52468,0.0152026,0.0403986,538,1079,-0.660643,0.509752
-679,-55,-0.943848,-0.611084,-0.0186445,-0.00106803,0.000429574,-0.00105754,-0.018655,1.54638,0.0120996,0.0464474,545,1079,-0.943852,0.611058
-672,-55,-1.20404,-0.736938,0,0,0,0,0,0,0,-1,552,1079,-1.20402,0.736977
-665,-55,-0.328613,-1.24158,0,0,0,0,0,0,0,-1,559,1079,-0.328636,1.24162
-658,-55,-0.673218,0.766968,-0.00867866,-0.000699174,0.00201376,-0.000219767,-0.00915806,1.33708,0.00603345,0.0461889,566,1079,-0.673244,-0.766971
-651,-55,-0.762146,0.759521,-0.00640957,-0.000434191,0.00196238,0.000152644,-0.00699641,1.28022,0.00471598,0.033759,573,1079,-0.76214,-0.759544
-644,-55,-0.724121,0.744385,-0.00466351,-0.000670243,0.00186662,6.64024e-05,-0.00540016,1.19492,0.00362244,0.0138582,580,1079,-0.724151,-0.744399
-637,-55,-0.688171,0.731689,-0.0029313,-0.000267732,0.00169207,0.000553795,-0.00375283,1.1188,0.00270545,0.0116807,587,1079,-0.688186,-0.731732
-630,-55,-0.687195,0.739624,-0.00118859,0.00034167,0.00132291,0.00110478,-0.0019517,1.04758,0.0017871,0.0143289,594,1079,-0.687217,-0.739616
-623,-55,-0.713806,0.754028,-0.000180704,0.000353795,0.000696159,0.00083224,-0.000659149,0.968669,0.000862985,0.0134094,601,1079,-0.713787,-0.754028
-616,-55,-0.695618,0.760986,-0.000246484,0.000139806,9.38212e-05,0.000161388,-0.000268066,1.3447,0.000250482,0.0118238,608,1079,-0.695596,-0.761023
-609,-55,-0.691101,0.762329,5.18453e-05,0.000140403,-5.98942e-06,0.000140807,5.14421e-05,-1.50357,8.22716e-05,0.0123409,615,1079,-0.691127,-0.762281
-602,-55,-0.725647,0.753052,0.000735639,0.000268355,-0.000431531,0.000992718,1.12755e-05,-0.53728,0.000658086,0.0119795,622,1079,-0.725619,-0.753039
-595,-55,-0.717224,0.748657,0.00113517,0.000168951,-0.000681188,0.00148718,-0.000183051,-0.476955,0.00105776,0.0134552,629,1079,-0.717222,-0.748685
-588,-55,-0.697327,0.71814,0.00139918,0.000110046,-0.000705978,0.00171058,-0.000201354,-0.415419,0.00121309,0.0258707,636,1079,-0.697299,-0.718177
-581,-55,-0.700867,0.668091,0.00168214,4.69694e-05,-0.000612978,0.00188641,-0.0001573,-0.321668,0.00131318,0.0392297,643,1079,-0.700837,-0.668046
-574,-55,-0.603699,0.762085,0.00196775,-4.42493e-05,-0.00054378,0.00210531,-0.000181811,-0.247774,0.0014679,0.0400279,650,1079,-0.603719,-0.762142
-567,-55,-0.541626,0.889282,0.00221972,-0.000163268,-0.00039754,0.00228429,-0.000227837,-0.161017,0.00160421,0.0408781,657,1079,-0.541631,-0.889327
-560,-55,-0.828674,0.902222,0.00243844,-0.000330375,-0.000143781,0.00244589,-0.000337822,-0.0517431,0.00175408,0.0428873,664,1079,-0.828649,-0.90226
-553,-55,-0.856262,0.887939,0.00261702,-0.000545988,0.000260679,0.00263836,-0.000567328,0.0816805,0.00197536,0.0416715,671,1079,-0.856271,-0.887905
-546,-55,-0.684021,0.674072,0.00270096,-0.000819349,0.000866939,0.00290288,-0.00102127,0.228829,0.00235082,0.0397206,678,1079,-0.683997,-0.674055
-539,-55,-0.41571,0.323853,0.00269439,-0.00116401,0.00175125,0.00337071,-0.00184033,0.368543,0.00305153,0.040543,685,1079,-0.415709,-0.323821
-532,-55,-0.589417,0.391113,0.00258322,-0.00157649,0.00293524,0.00410078,-0.00309406,0.477167,0.00416747,0.0389031,692,1079,-0.589428,-0.391111
-525,-55,0,0,0,0,0,0,0,0,0,-1,699,1079,0,0
-518,-55,0,0,0,0,0,0,0,0,0,-1,706,1079,0,0
-511,-55,0,0,0,0,0,0,0,0,0,-1,713,1079,0,0
-504,-55,0,0,0,0,0,0,0,0,0,-1,720,1079,0,0
-497,-55,0,0,0,0,0,0,0,0,0,-1,727,1079,0,0
-490,-55,0,0,0,0,0,0,0,0,0,-1,734,1079,0,0
-483,-55,0,0,0,0,0,0,0,0,0,-1,741,1079,0,0
-476,-55,0,0,0,0,0,0,0,0,0,-1,748,1079,0,0
-469,-55,0,0,0,0,0,0,0,0,0,-1,755,1079,0,0
-462,-55,0,0,0,0,0,0,0,0,0,-1,762,1079,0,0
-455,-55,0,0,0,0,0,0,0,0,0,-1,769,1079,0,0
-448,-55,0,0,0,0,0,0,0,0,0,-1,776,1079,0,0
-441,-55,0,0,0,0,0,0,0,0,0,-1,783,1079,0,0
-434,-55,0,0,0,0,0,0,0,0,0,-1,790,1079,0,0
-427,-55,0,0,0,0,0,0,0,0,0,-1,797,1079,0,0
-420,-55,0,0,0,0,0,0,0,0,0,-1,804,1079,0,0
-413,-55,0,0,0,0,0,0,0,0,0,-1,811,1079,0,0
-406,-55,0,0,0,0,0,0,0,0,0,-1,818,1079,0,0
-399,-55,0,0,0,0,0,0,0,0,0,-1,825,1079,0,0
-392,-55,0,0,0,0,0,0,0,0,0,-1,832,1079,0,0
-385,-55,0,0,0,0,0,0,0,0,0,-1,839,1079,0,0
-378,-55,0,0,0,0,0,0,0,0,0,-1,846,1079,0,0
-371,-55,0,0,0,0,0,0,0,0,0,-1,853,1079,0,0
-364,-55,0,0,0,0,0,0,0,0,0,-1,860,1079,0,0
-357,-55,0,0,0,0,0,0,0,0,0,-1,867,1079,0,0
-350,-55,0,0,0,0,0,0,0,0,0,-1,874,1079,0,0
-343,-55,0,0,0,0,0,0,0,0,0,-1,881,1079,0,0
-336,-55,0,0,0,0,0,0,0,0,0,-1,888,1079,0,0
-329,-55,0,0,0,0,0,0,0,0,0,-1,895,1079,0,0
-322,-55,0,0,0,0,0,0,0,0,0,-1,902,1079,0,0
-315,-55,0,0,0,0,0,0,0,0,0,-1,909,1079,0,0
-308,-55,0,0,0,0,0,0,0,0,0,-1,916,1079,0,0
-301,-55,0,0,0,0,0,0,0,0,0,-1,923,1079,0,0
-294,-55,0,0,0,0,0,0,0,0,0,-1,930,1079,0,0
-287,-55,0,0,0,0,0,0,0,0,0,-1,937,1079,0,0
-280,-55,0,0,0,0,0,0,0,0,0,-1,944,1079,0,0
-273,-55,0,0,0,0,0,0,0,0,0,-1,951,1079,0,0
-266,-55,0,0,0,0,0,0,0,0,0,-1,958,1079,0,0
-259,-55,0,0,0,0,0,0,0,0,0,-1,965,1079,0,0
-252,-55,0,0,0,0,0,0,0,0,0,-1,972,1079,0,0
-245,-55,0,0,0,0,0,0,0,0,0,-1,979,1079,0,0
-238,-55,0,0,0,0,0,0,0,0,0,-1,986,1079,0,0
-231,-55,0,0,0,0,0,0,0,0,0,-1,993,1079,0,0
-224,-55,0,0,0,0,0,0,0,0,0,-1,1000,1079,0,0
-217,-55,0,0,0,0,0,0,0,0,0,-1,1007,1079,0,0
-210,-55,0,0,0,0,0,0,0,0,0,-1,1014,1079,0,0
-203,-55,0,0,0,0,0,0,0,0,0,-1,1021,1079,0,0
-196,-55,0,0,0,0,0,0,0,0,0,-1,1028,1079,0,0
-189,-55,0,0,0,0,0,0,0,0,0,-1,1035,1079,0,0
-182,-55,0,0,0,0,0,0,0,0,0,-1,1042,1079,0,0
-175,-55,0,0,0,0,0,0,0,0,0,-1,1049,1079,0,0
-168,-55,0,0,0,0,0,0,0,0,0,-1,1056,1079,0,0
-161,-55,0,0,0,0,0,0,0,0,0,-1,1063,1079,0,0
-154,-55,0,0,0,0,0,0,0,0,0,-1,1070,1079,0,0
-147,-55,0,0,0,0,0,0,0,0,0,-1,1077,1079,0,0
-140,-55,0,0,0,0,0,0,0,0,0,-1,1084,1079,0,0
-133,-55,0,0,0,0,0,0,0,0,0,-1,1091,1079,0,0
-126,-55,0,0,0,0,0,0,0,0,0,-1,1098,1079,0,0
-119,-55,0,0,0,0,0,0,0,0,0,-1,1105,1079,0,0
-112,-55,0,0,0,0,0,0,0,0,0,-1,1112,1079,0,0
-105,-55,0,0,0,0,0,0,0,0,0,-1,1119,1079,0,0
-98,-55,0,0,0,0,0,0,0,0,0,-1,1126,1079,0,0
-91,-55,0,0,0,0,0,0,0,0,0,-1,1133,1079,0,0
-84,-55,0,0,0,0,0,0,0,0,0,-1,1140,1079,0,0
-77,-55,0,0,0,0,0,0,0,0,0,-1,1147,1079,0,0
-70,-55,0,0,0,0,0,0,0,0,0,-1,1154,1079,0,0
-63,-55,0,0,0,0,0,0,0,0,0,-1,1161,1079,0,0
-56,-55,0,0,0,0,0,0,0,0,0,-1,1168,1079,0,0
-49,-55,0,0,0,0,0,0,0,0,0,-1,1175,1079,0,0
-42,-55,0,0,0,0,0,0,0,0,0,-1,1182,1079,0,0
-35,-55,0,0,0,0,0,0,0,0,0,-1,1189,1079,0,0
-28,-55,0,0,0,0,0,0,0,0,0,-1,1196,1079,0,0
-21,-55,0,0,0,0,0,0,0,0,0,-1,1203,1079,0,0
-14,-55,0,0,0,0,0,0,0,0,0,-1,1210,1079,0,0
-7,-55,0,0,0,0,0,0,0,0,0,-1,1217,1079,0,0
0,-55,0,0,0,0,0,0,0,0,0,-1,1224,1079,0,0
7,-55,0,0,0,0,0,0,0,0,0,-1,1231,1079,0,0
14,-55,0,0,0,0,0,0,0,0,0,-1,1238,1079,0,0
21,-55,0,0,0,0,0,0,0,0,0,-1,1245,1079,0,0
28,-55,0,0,0,0,0,0,0,0,0,-1,1252,1079,0,0
35,-55,0,0,0,0,0,0,0,0,0,-1,1259,1079,0,0
42,-55,0,0,0,0,0,0,0,0,0,-1,1266,1079,0,0
49,-55,0,0,0,0,0,0,0,0,0,-1,1273,1079,0,0
56,-55,0,0,0,0,0,0,0,0,0,-1,1280,1079,0,0
63,-55,0,0,0,0,0,0,0,0,0,-1,1287,1079,0,0
70,-55,0,0,0,0,0,0,0,0,0,-1,1294,1079,0,0
77,-55,0,0,0,0,0,0,0,0,0,-1,1301,1079,0,0
84,-55,0,0,0,0,0,0,0,0,0,-1,1308,1079,0,0
91,-55,0,0,0,0,0,0,0,0,0,-1,1315,1079,0,0
98,-55,0,0,0,0,0,0,0,0,0,-1,1322,1079,0,0
105,-55,0,0,0,0,0,0,0,0,0,-1,1329,1079,0,0
112,-55,0,0,0,0,0,0,0,0,0,-1,1336,1079,0,0
119,-55,0,0,0,0,0,0,0,0,0,-1,1343,1079,0,0
126,-55,0,0,0,0,0,0,0,0,0,-1,1350,1079,0,0
133,-55,0,0,0,0,0,0,0,0,0,-1,1357,1079,0,0
140,-55,0,0,0,0,0,0,0,0,0,-1,1364,1079,0,0
147,-55,0,0,0,0,0,0,0,0,0,-1,1371,1079,0,0
154,-55,0,0,0,0,0,0,0,0,0,-1,1378,1079,0,0
161,-55,0,0,0,0,0,0,0,0,0,-1,1385,1079,0,0
168,-55,0,0,0,0,0,0,0,0,0,-1,1392,1079,0,0
175,-55,0,0,0,0,0,0,0,0,0,-1,1399,1079,0,0
182,-55,0,0,0,0,0,0,0,0,0,-1,1406,1079,0,0
189,-55,0,0,0,0,0,0,0,0,0,-1,1413,1079,0,0
196,-55,0,0,0,0,0,0,0,0,0,-1,1420,1079,0,0
203,-55,0,0,0,0,0,0,0,0,0,-1,1427,1079,0,0
210,-55,0,0,0,0,0,0,0,0,0,-1,1434,1079,0,0
217,-55,0,0,0,0,0,0,0,0,0,-1,1441,1079,0,0
224,-55,0,0,0,0,0,0,0,0,0,-1,1448,1079,0,0
231,-55,0,0,0,0,0,0,0,0,0,-1,1455,1079,0,0
238,-55,0,0,0,0,0,0,0,0,0,-1,1462,1079,0,0
245,-55,0,0,0,0,0,0,0,0,0,-1,1469,1079,0,0
252,-55,0,0,0,0,0,0,0,0,0,-1,1476,1079,0,0
259,-55,0,0,0,0,0,0,0,0,0,-1,1483,1079,0,0
266,-55,0,0,0,0,0,0,0,0,0,-1,1490,1079,0,0
273,-55,0,0,0,0,0,0,0,0,0,-1,1497,1079,0,0
280,-55,0,0,0,0,0,0,0,0,0,-1,1504,1079,0,0
287,-55,0,0,0,0,0,0,0,0,0,-1,1511,1079,0,0
294,-55,0,0,0,0,0,0,0,0,0,-1,1518,1079,0,0
301,-55,0,0,0,0,0,0,0,0,0,-1,1525,1079,0,0
308,-55,0,0,0,0,0,0,0,0,0,-1,1532,1079,0,0
315,-55,0,0,0,0,0,0,0,0,0,-1,1539,1079,0,0
322,-55,0,0,0,0,0,0,0,0,0,-1,1546,1079,0,0
329,-55,0,0,0,0,0,0,0,0,0,-1,1553,1079,0,0
336,-55,0,0,0,0,0,0,0,0,0,-1,1560,1079,0,0
343,-55,0,0,0,0,0,0,0,0,0,-1,1567,1079,0,0
350,-55,0,0,0,0,0,0,0,0,0,-1,1574,1079,0,0
357,-55,0,0,0,0,0,0,0,0,0,-1,1581,1079,0,0
364,-55,0,0,0,0,0,0,0,0,0,-1,1588,1079,0,0
371,-55,0,0,0,0,0,0,0,0,0,-1,1595,1079,0,0
378,-55,0,0,0,0,0,0,0,0,0,-1,1602,1079,0,0
385,-55,0,0,0,0,0,0,0,0,0,-1,1609,1079,0,0
392,-55,0,0,0,0,0,0,0,0,0,-1,1616,1079,0,0
399,-55,0,0,0,0,0,0,0,0,0,-1,1623,1079,0,0
406,-55,0,0,0,0,0,0,0,0,0,-1,1630,1079,0,0
413,-55,0,0,0,0,0,0,0,0,0,-1,1637,1079,0,0
420,-55,0,0,0,0,0,0,0,0,0,-1,1644,1079,0,0
427,-55,0,0,0,0,0,0,0,0,0,-1,1651,1079,0,0
434,-55,0,0,0,0,0,0,0,0,0,-1,1658,1079,0,0
441,-55,0,0,0,0,0,0,0,0,0,-1,1665,1079,0,0
448,-55,0,0,0,0,0,0,0,0,0,-1,1672,1079,0,0
455,-55,0,0,0,0,0,0,0,0,0,-1,1679,1079,0,0
462,-55,0,0,0,0,0,0,0,0,0,-1,1686,1079,0,0
469,-55,0,0,0,0,0,0,0,0,0,-1,1693,1079,0,0
476,-55,0,0,0,0,0,0,0,0,0,-1,1700,1079,0,0
483,-55,0,0,0,0,0,0,0,0,0,-1,1707,1079,0,0
490,-55,0,0,0,0,0,0,0,0,0,-1,1714,1079,0,0
497,-55,0,0,0,0,0,0,0,0,0,-1,1721,1079,0,0
504,-55,0,0,0,0,0,0,0,0,0,-1,1728,1079,0,0
511,-55,0,0,0,0,0,0,0,0,0,-1,1735,1079,0,0
518,-55,0,0,0,0,0,0,0,0,0,-1,1742,1079,0,0
525,-55,0,0,0,0,0,0,0,0,0,-1,1749,1079,0,0
532,-55,0,0,0,0,0,0,0,0,0,-1,1756,1079,0,0
539,-55,0,0,0,0,0,0,0,0,0,-1,1763,1079,0,0
546,-55,0,0,0,0,0,0,0,0,0,-1,1770,1079,0,0
553,-55,0,0,0,0,0,0,0,0,0,-1,1777,1079,0,0
560,-55,0,0,0,0,0,0,0,0,0,-1,1784,1079,0,0
567,-55,0,0,0,0,0,0,0,0,0,-1,1791,1079,0,0
574,-55,0,0,0,0,0,0,0,0,0,-1,1798,1079,0,0
581,-55,0,0,0,0,0,0,0,0,0,-1,1805,1079,0,0
588,-55,0,0,0,0,0,0,0,0,0,-1,1812,1079,0,0
595,-55,0,0,0,0,0,0,0,0,0,-1,1819,1079,0,0
602,-55,0,0,0,0,0,0,0,0,0,-1,1826,1079,0,0
609,-55,0,0,0,0,0,0,0,0,0,-1,1833,1079,0,0
616,-55,0,0,0,0,0,0,0,0,0,-1,1840,1079,0,0
623,-55,0,0,0,0,0,0,0,0,0,-1,1847,1079,0,0
630,-55,0,0,0,0,0,0,0,0,0,-1,1854,1079,0,0
637,-55,0,0,0,0,0,0,0,0,0,-1,1861,1079,0,0
644,-55,0,0,0,0,0,0,0,0,0,-1,1868,1079,0,0
651,-55,4.24121,0.695068,-0.00115471,-0.00141936,0.00272196,0.00143814,-0.00401221,0.76111,0.00326164,0.0384774,1875,1079,4.24124,-0.695071
658,-55,4.22913,0.74231,-0.00041954,-0.00055621,0.00224857,0.00176173,-0.00273748,0.770208,0.0026179,0.0355926,1882,1079,4.22911,-0.742316
665,-55,4.04749,0.526001,-5.15094e-05,6.15694e-05,0.00173733,0.00174328,-0.00173322,0.801664,0.00200716,0.0385243,1889,1079,4.04748,-0.525998
672,-55,3.99292,0.572388,0.000117591,0.000486661,0.00141756,0.00173165,-0.0011274,0.850123,0.00166292,0.0381819,1896,1079,3.99292,-0.572418
679,-55,4.15112,0.682007,0.000157164,0.000759109,0.00117113,0.00166732,-0.000751049,0.911173,0.00142926,0.0354846,1903,1079,4.15108,-0.682021
686,-55,4.28076,0.737061,0.000132358,0.000905273,0.000964915,0.00155824,-0.000520613,0.975871,0.00124907,0.0377431,1910,1079,4.28081,-0.737038
693,-55,4.32483,0.686035,8.16975e-05,0.000946915,0.000807945,0.00143078,-0.000402168,1.0312,0.00111241,0.0394747,1917,1079,4.32483,-0.686056
700,-55,4.29358,0.593384,2.95042e-05,0.000942342,0.000680575,0.00130537,-0.000333528,1.08077,0.00100014,0.0349986,1924,1079,4.29357,-0.593428
707,-55,4.27295,0.591919,8.14138e-05,0.000899496,0.000561755,0.00118535,-0.000204443,1.10008,0.00086646,0.0270515,1931,1079,4.27298,-0.591933
714,-55,4.28394,0.621094,1.11058e-05,0.000834574,0.000576049,0.00113091,-0.000285226,1.09568,0.000864835,0.0292038,1938,1079,4.28399,-0.621113
721,-55,4.24976,0.704102,-0.000126161,0.000763588,0.000584133,0.00105296,-0.000415537,1.11084,0.000874059,0.0297407,1945,1079,4.24977,-0.70409
728,-55,4.20532,0.736938,-0.000236656,0.000644361,0.00036165,0.000773799,-0.000366094,1.22709,0.000672003,0.0178209,1952,1079,4.20533,-0.736949
735,-55,4.24109,0.721191,-0.00035852,0.000561748,0.000158674,0.000588339,-0.000385111,1.40476,0.000566089,0.0157077,1959,1079,4.24106,-0.721238
742,-55,4.24756,0.722168,-0.000358541,0.000716291,0.000278464,0.00078415,-0.0004264,1.33176,0.000709012,0.0154869,1966,1079,4.24758,-0.72215
749,-55,4.2439,0.70105,-1.13289e-05,0.00117588,0.00105596,0.00179364,-0.000629091,1.04146,0.00145163,0.0117522,1973,1079,4.24389,-0.701031
756,-55,4.2511,0.70105,0.000768967,0.00226326,0.00167525,0.00335043,-0.000318199,0.995156,0.00234689,0.0108818,1980,1079,4.25108,-0.701052
763,-55,4.2644,0.715576,0.00194047,0.00532928,0.00231115,0.0065006,0.000769144,1.10171,0.00410147,0.0137645,1987,1079,4.2644,-0.715547
770,-55,4.29407,0.704224,0.00325383,0.00811658,0.00319647,0.0097013,0.00166911,1.11054,0.0059892,0.0147317,1994,1079,4.29406,-0.704278
777,-55,4.25525,0.670654,0.00516228,0.0121108,0.00452721,0.0143432,0.00292987,1.11268,0.00875059,0.0128275,2001,1079,4.25521,-0.670628
784,-55,4.17957,0.565186,0.00784619,0.0177066,0.00631292,0.0207864,0.0047664,1.11691,0.0125736,0.0295743,2008,1079,4.17951,-0.565215
791,-55,4.09827,0.428833,0.0115078,0.0253595,0.00849895,0.0293972,0.00747006,1.12728,0.0176434,0.0428888,2015,1079,4.09824,-0.428793
798,-55,4.37903,0.45752,0.0163809,0.0356413,0.0110805,0.0406917,0.0113306,1.14314,0.0242499,0.046407,2022,1079,4.37907,-0.457519
805,-55,4.88281,0.9104,0.022721,0.0493115,0.014026,0.0553422,0.0166903,1.16473,0.0327797,0.0470768,2029,1079,4.88281,-0.910348
812,-55,5.63416,1.17371,0.030832,0.0674376,0.0172539,0.0742881,0.0239814,1.19284,0.0437787,0.0468599,2036,1079,5.63412,-1.17373
-700,-62,0.190552,0.124268,-0.0359175,0.00656777,-0.0066536,0.00758541,-0.0369352,-1.41903,0.0275028,0.047668,524,1086,0.190558,-0.124208
-693,-62,-0.224426,-0.326172,-0.0302462,0.000699771,-0.00406145,0.00122393,-0.0307704,-1.44245,0.0209335,0.0463769,531,1086,-0.224453,0.326134
-686,-62,-0.438965,-0.314697,-0.0249221,-0.00218084,-0.00218983,-0.0019719,-0.025131,-1.47567,0.0161369,0.0435829,538,1086,-0.438935,0.314755
-679,-62,-0.676208,-0.450073,-0.0201215,-0.00345061,-0.00085466,-0.00340691,-0.0201652,-1.51971,0.012464,0.0447135,545,1086,-0.676197,0.45005
-672,-62,-0.774719,-0.606323,0,0,0,0,0,0,0,-1,552,1086,-0.774721,0.606289
-665,-62,-0.351624,-1.03906,0,0,0,0,0,0,0,-1,559,1086,-0.351648,1.03901
-658,-62,0.0714111,-1.47168,0,0,0,0,0,0,0,-1,566,1086,0.0714247,1.47173
-651,-62,-0.74707,0.753174,-0.00686753,-0.00253818,0.00116172,-0.00224614,-0.00715956,1.32452,0.00422811,0.0344986,573,1086,-0.747067,-0.753115
-644,-62,-0.714661,0.717896,-0.00495022,-0.0025339,0.00120228,-0.00203761,-0.0054465,1.17932,0.00317759,0.0112404,580,1086,-0.714642,-0.717879
-637,-62,-0.701538,0.730713,-0.00305885,-0.00184156,0.00112272,-0.00117312,-0.00372728,1.03378,0.00220064,0.010026,587,1086,-0.701554,-0.730766
-630,-62,-0.696655,0.747925,-0.0012579,-0.000774957,0.000944557,-4.14926e-05,-0.00199136,0.910539,0.00131396,0.0119681,594,1086,-0.696678,-0.747895
-623,-62,-0.70575,0.759399,-0.000299593,-0.000326631,0.00050578,0.000192848,-0.000819072,0.772037,0.000620404,0.0125054,601,1086,-0.70578,-0.759362
-616,-62,-0.68335,0.765747,-0.000342162,-0.000212513,4.6459e-05,-0.000197584,-0.000357091,1.25988,0.000206557,0.0125751,608,1086,-0.683344,-0.765786
-609,-62,-0.672913,0.751953,-1.18944e-05,4.03888e-05,-5.24306e-05,7.28335e-05,-4.43391e-05,-1.01666,6.83131e-05,0.0132037,615,1086,-0.672884,-0.751894
-602,-62,-0.69812,0.756348,0.000649612,0.000255377,-0.000474932,0.000966708,-6.17189e-05,-0.588694,0.000665999,0.0124544,622,1086,-0.698095,-0.756383
-595,-62,-0.708679,0.772095,0.00101001,0.0001702,-0.00073945,0.00144046,-0.000260252,-0.527172,0.00105778,0.0148699,629,1086,-0.708683,-0.772132
-588,-62,-0.710938,0.766357,0.00123476,0.000123028,-0.000782967,0.00163911,-0.000281328,-0.476713,0.00119758,0.0222725,636,1086,-0.710918,-0.766359
-581,-62,-0.711121,0.776733,0.00150195,7.46469e-05,-0.000699909,0.00178788,-0.000211288,-0.387839,0.00126823,0.0310032,643,1086,-0.711142,-0.776747
-574,-62,-0.71167,0.797485,0.00177119,-5.36279e-06,-0.000627658,0.00197057,-0.000204739,-0.307571,0.001387,0.0341408,650,1086,-0.711684,-0.797537
-567,-62,-0.705688,0.803711,0.00201835,-0.000111544,-0.000480609,0.00212177,-0.000214971,-0.211967,0.00149135,0.0377836,657,1086,-0.705714,-0.803719
-560,-62,-0.803162,0.802246,0.00223495,-0.000271269,-0.000224624,0.00225492,-0.000291242,-0.0886848,0.00160917,0.0391849,664,1086,-0.803144,-0.802266
-553,-62,-0.687195,0.81189,0.00240672,-0.000488274,0.000186738,0.00241871,-0.00050027,0.0641496,0.00180252,0.0376408,671,1086,-0.687225,-0.811908
-546,-62,-0.599243,0.701904,0.0024715,-0.000780464,0.00080884,0.00266156,-0.000970533,0.230802,0.00217143,0.0338802,678,1086,-0.599261,-0.701846
-539,-62,-0.572266,0.69519,0.0024209,-0.00116893,0.00171604,0.00310923,-0.00185726,0.381469,0.00289762,0.0385457,685,1086,-0.572248,-0.69514
-532,-62,-0.429138,0.424316,0.0022206,-0.00167636,0.00291365,0.00377725,-0.00323301,0.490679,0.00405144,0.0391192,692,1086,-0.429162,-0.424355
-525,-62,0,0,0,0,0,0,0,0,0,-1,699,1086,0,0
-518,-62,0,0,0,0,0,0,0,0,0,-1,706,1086,0,0
-511,-62,0,0,0,0,0,0,0,0,0,-1,713,1086,0,0
-504,-62,0,0,0,0,0,0,0,0,0,-1,720,1086,0,0
-497,-62,0,0,0,0,0,0,0,0,0,-1,727,1086,0,0
-490,-62,0,0,0,0,0,0,0,0,0,-1,734,1086,0,0
-483,-62,0,0,0,0,0,0,0,0,0,-1,741,1086,0,0
-476,-62,0,0,0,0,0,0,0,0,0,-1,748,1086,0,0
-469,-62,0,0,0,0,0,0,0,0,0,-1,755,1086,0,0
-462,-62,0,0,0,0,0,0,0,0,0,-1,762,1086,0,0
-455,-62,0,0,0,0,0,0,0,0,0,-1,769,1086,0,0
-448,-62,0,0,0,0,0,0,0,0,0,-1,776,1086,0,0
-441,-62,0,0,0,0,0,0,0,0,0,-1,783,1086,0,0
-434,-62,0,0,0,0,0,0,0,0,0,-1,790,1086,0,0
-427,-62,0,0,0,0,0,0,0,0,0,-1,797,1086,0,0
-420,-62,0,0,0,0,0,0,0,0,0,-1,804,1086,0,0
-413,-62,0,0,0,0,0,0,0,0,0,-1,811,1086,0,0
-406,-62,0,0,0,0,0,0,0,0,0,-1,818,1086,0,0
-399,-62,0,0,0,0,0,0,0,0,0,-1,825,1086,0,0
-392,-62,0,0,0,0,0,0,0,0,0,-1,832,1086,0,0
-385,-62,0,0,0,0,0,0,0,0,0,-1,839,1086,0,0
-378,-62,0,0,0,0,0,0,0,0,0,-1,846,1086,0,0
-371,-62,0,0,0,0,0,0,0,0,0,-1,853,1086,0,0
-364,-62,0,0,0,0,0,0,0,0,0,-1,860,1086,0,0
-357,-62,0,0,0,0,0,0,0,0,0,-1,867,1086,0,0
-350,-62,0,0,0,0,0,0,0,0,0,-1,874,1086,0,0
-343,-62,0,0,0,0,0,0,0,0,0,-1,881,1086,0,0
-336,-62,0,0,0,0,0,0,0,0,0,-1,888,1086,0,0
-329,-62,0,0,0,0,0,0,0,0,0,-1,895,1086,0,0
-322,-62,0,0,0,0,0,0,0,0,0,-1,902,1086,0,0
-315,-62,0,0,0,0,0,0,0,0,0,-1,909,1086,0,0
-308,-62,0,0,0,0,0,0,0,0,0,-1,916,1086,0,0
-301,-62,0,0,0,0,0,0,0,0,0,-1,923,1086,0,0
-294,-62,0,0,0,0,0,0,0,0,0,-1,930,1086,0,0
-287,-62,0,0,0,0,0,0,0,0,0,-1,937,1086,0,0
-280,-62,0,0,0,0,0,0,0,0,0,-1,944,1086,0,0
-273,-62,0,0,0,0,0,0,0,0,0,-1,951,1086,0,0
-266,-62,0,0,0,0,0,0,0,0,0,-1,958,1086,0,0
-259,-62,0,0,0,0,0,0,0,0,0,-1,965,1086,0,0
-252,-62,0,0,0,0,0,0,0,0,0,-1,972,1086,0,0
-245,-62,0,0,0,0,0,0,0,0,0,-1,979,1086,0,0
-238,-62,0,0,0,0,0,0,0,0,0,-1,986,1086,0,0
-231,-62,0,0,0,0,0,0,0,0,0,-1,993,1086,0,0
-224,-62,0,0,0,0,0,0,0,0,0,-1,1000,1086,0,0
-217,-62,0,0,0,0,0,0,0,0,0,-1,1007,1086,0,0
-210,-62,0,0,0,0,0,0,0,0,0,-1,1014,1086,0,0
-203,-62,0,0,0,0,0,0,0,0,0,-1,1021,1086,0,0
-196,-62,0,0,0,0,0,0,0,0,0,-1,1028,1086,0,0
-189,-62,0,0,0,0,0,0,0,0,0,-1,1035,1086,0,0
-182,-62,0,0,0,0,0,0,0,0,0,-1,1042,1086,0,0
-175,-62,0,0,0,0,0,0,0,0,0,-1,1049,1086,0,0
-168,-62,0,0,0,0,0,0,0,0,0,-1,1056,1086,0,0
-161,-62,0,0,0,0,0,0,0,0,0,-1,1063,1086,0,0
-154,-62,0,0,0,0,0,0,0,0,0,-1,1070,1086,0,0
-147,-62,0,0,0,0,0,0,0,0,0,-1,1077,1086,0,0
-140,-62,0,0,0,0,0,0,0,0,0,-1,1084,1086,0,0
-133,-62,0,0,0,0,0,0,0,0,0,-1,1091,1086,0,0
-126,-62,0,0,0,0,0,0,0,0,0,-1,1098,1086,0,0
-119,-62,0,0,0,0,0,0,0,0,0,-1,1105,1086,0,0
-112,-62,0,0,0,0,0,0,0,0,0,-1,1112,1086,0,0
-105,-62,0,0,0,0,0,0,0,0,0,-1,1119,1086,0,0
-98,-62,0,0,0,0,0,0,0,0,0,-1,1126,1086,0,0
-91,-62,0,0,0,0,0,0,0,0,0,-1,1133,1086,0,0
-84,-62,0,0,0,0,0,0,0,0,0,-1,1140,1086,0,0
-77,-62,0,0,0,0,0,0,0,0,0,-1,1147,1086,0,0
-70,-62,0,0,0,0,0,0,0,0,0,-1,1154,1086,0,0
-63,-62,0,0,0,0,0,0,0,0,0,-1,1161,1086,0,0
-56,-62,0,0,0,0,0,0,0,0,0,-1,1168,1086,0,0
-49,-62,0,0,0,0,0,0,0,0,0,-1,1175,1086,0,0
-42,-62,0,0,0,0,0,0,0,0,0,-1,1182,1086,0,0
-35,-62,0,0,0,0,0,0,0,0,0,-1,1189,1086,0,0
-28,-62,0,0,0,0,0,0,0,0,0,-1,1196,1086,0,0
-21,-62,0,0,0,0,0,0,0,0,0,-1,1203,1086,0,0
-14,-62,0,0,0,0,0,0,0,0,0,-1,1210,1086,0,0
-7,-62,0,0,0,0,0,0,0,0,0,-1,1217,1086,0,0
0,-62,0,0,0,0,0,0,0,0,0,-1,1224,1086,0,0
7,-62,0,0,0,0,0,0,0,0,0,-1,1231,1086,0,0
14,-62,0,0,0,0,0,0,0,0,0,-1,1238,1086,0,0
21,-62,0,0,0,0,0,0,0,0,0,-1,1245,1086,0,0
28,-62,0,0,0,0,0,0,0,0,0,-1,1252,1086,0,0
35,-62,0,0,0,0,0,0,0,0,0,-1,1259,1086,0,0
42,-62,0,0,0,0,0,0,0,0,0,-1,1266,1086,0,0
49,-62,0,0,0,0,0,0,0,0,0,-1,1273,1086,0,0
56,-62,0,0,0,0,0,0,0,0,0,-1,1280,1086,0,0
63,-62,0,0,0,0,0,0,0,0,0,-1,1287,1086,0,0
70,-62,0,0,0,0,0,0,0,0,0,-1,1294,1086,0,0
77,-62,0,0,0,0,0,0,0,0,0,-1,1301,1086,0,0
84,-62,0,0,0,0,0,0,0,0,0,-1,1308,1086,0,0
91,-62,0,0,0,0,0,0,0,0,0,-1,1315,1086,0,0
98,-62,0,0,0,0,0,0,0,0,0,-1,1322,1086,0,0
105,-62,0,0,0,0,0,0,0,0,0,-1,1329,1086,0,0
112,-62,0,0,0,0,0,0,0,0,0,-1,1336,1086,0,0
119,-62,0,0,0,0,0,0,0,0,0,-1,1343,1086,0,0
126,-62,0,0,0,0,0,0,0,0,0,-1,1350,1086,0,0
133,-62,0,0,0,0,0,0,0,0,0,-1,1357,1086,0,0
140,-62,0,0,0,0,0,0,0,0,0,-1,1364,1086,0,0
147,-62,0,0,0,0,0,0,0,0,0,-1,1371,1086,0,0
154,-62,0,0,0,0,0,0,0,0,0,-1,1378,1086,0,0
161,-62,0,0,0,0,0,0,0,0,0,-1,1385,1086,0,0
168,-62,0,0,0,0,0,0,0,0,0,-1,1392,1086,0,0
175,-62,0,0,0,0,0,0,0,0,0,-1,1399,1086,0,0
182,-62,0,0,0,0,0,0,0,0,0,-1,1406,1086,0,0
189,-62,0,0,0,0,0,0,0,0,0,-1,1413,1086,0,0
196,-62,0,0,0,0,0,0,0,0,0,-1,1420,1086,0,0
203,-62,0,0,0,0,0,0,0,0,0,-1,1427,1086,0,0
210,-62,0,0,0,0,0,0,0,0,0,-1,1434,1086,0,0
217,-62,0,0,0,0,0,0,0,0,0,-1,1441,1086,0,0
224,-62,0,0,0,0,0,0,0,0,0,-1,1448,1086,0,0
231,-62,0,0,0,0,0,0,0,0,0,-1,1455,1086,0,0
238,-62,0,0,0,0,0,0,0,0,0,-1,1462,1086,0,0
245,-62,0,0,0,0,0,0,0,0,0,-1,1469,1086,0,0
252,-62,0,0,0,0,0,0,0,0,0,-1,1476,1086,0,0
259,-62,0,0,0,0,0,0,0,0,0,-1,1483,1086,0,0
266,-62,0,0,0,0,0,0,0,0,0,-1,1490,1086,0,0
273,-62,0,0,0,0,0,0,0,0,0,-1,1497,1086,0,0
280,-62,0,0,0,0,0,0,0,0,0,-1,1504,1086,0,0
287,-62,0,0,0,0,0,0,0,0,0,-1,1511,1086,0,0
294,-62,0,0,0,0,0,0,0,0,0,-1,1518,1086,0,0
301,-62,0,0,0,0,0,0,0,0,0,-1,1525,1086,0,0
308,-62,0,0,0,0,0,0,0,0,0,-1,1532,1086,0,0
315,-62,0,0,0,0,0,0,0,0,0,-1,1539,1086,0,0
322,-62,0,0,0,0,0,0,0,0,0,-1,1546,1086,0,0
329,-62,0,0,0,0,0,0,0,0,0,-1,1553,1086,0,0
336,-62,0,0,0,0,0,0,0,0,0,-1,1560,1086,0,0
343,-62,0,0,0,0,0,0,0,0,0,-1,1567,1086,0,0
350,-62,0,0,0,0,0,0,0,0,0,-1,1574,1086,0,0
357,-62,0,0,0,0,0,0,0,0,0,-1,1581,1086,0,0
364,-62,0,0,0,0,0,0,0,0,0,-1,1588,1086,0,0
371,-62,0,0,0,0,0,0,0,0,0,-1,1595,1086,0,0
378,-62,0,0,0,0,0,0,0,0,0,-1,1602,1086,0,0
385,-62,0,0,0,0,0,0,0,0,0,-1,1609,1086,0,0
392,-62,0,0,0,0,0,0,0,0,0,-1,1616,1086,0,0
399,-62,0,0,0,0,0,0,0,0,0,-1,1623,1086,0,0
406,-62,0,0,0,0,0,0,0,0,0,-1,1630,1086,0,0
413,-62,0,0,0,0,0,0,0,0,0,-1,1637,1086,0,0
420,-62,0,0,0,0,0,0,0,0,0,-1,1644,1086,0,0
427,-62,0,0,0,0,0,0,0,0,0,-1,1651,1086,0,0
434,-62,0,0,0,0,0,0,0,0,0,-1,1658,1086,0,0
441,-62,0,0,0,0,0,0,0,0,0,-1,1665,1086,0,0
448,-62,0,0,0,0,0,0,0,0,0,-1,1672,1086,0,0
455,-62,0,0,0,0,0,0,0,0,0,-1,1679,1086,0,0
462,-62,0,0,0,0,0,0,0,0,0,-1,1686,1086,0,0
469,-62,0,0,0,0,0,0,0,0,0,-1,1693,1086,0,0
476,-62,0,0,0,0,0,0,0,0,0,-1,1700,1086,0,0
483,-62,0,0,0,0,0,0,0,0,0,-1,1707,1086,0,0
490,-62,0,0,0,0,0,0,0,0,0,-1,1714,1086,0,0
497,-62,0,0,0,0,0,0,0,0,0,-1,1721,1086,0,0
504,-62,0,0,0,0,0,0,0,0,0,-1,1728,1086,0,0
511,-62,0,0,0,0,0,0,0,0,0,-1,1735,1086,0,0
518,-62,0,0,0,0,0,0,0,0,0,-1,1742,1086,0,0
525,-62,0,0,0,0,0,0,0,0,0,-1,1749,1086,0,0
532,-62,0,0,0,0,0,0,0,0,0,-1,1756,1086,0,0
539,-62,0,0,0,0,0,0,0,0,0,-1,1763,1086,0,0
546,-62,0,0,0,0,0,0,0,0,0,-1,1770,1086,0,0
553,-62,0,0,0,0,0,0,0,0,0,-1,1777,1086,0,0
560,-62,0,0,0,0,0,0,0,0,0,-1,1784,1086,0,0
567,-62,0,0,0,0,0,0,0,0,0,-1,1791,1086,0,0
574,-62,0,0,0,0,0,0,0,0,0,-1,1798,1086,0,0
581,-62,0,0,0,0,0,0,0,0,0,-1,1805,1086,0,0
588,-62,0,0,0,0,0,0,0,0,0,-1,1812,1086,0,0
595,-62,0,0,0,0,0,0,0,0,0,-1,1819,1086,0,0
602,-62,0,0,0,0,0,0,0,0,0,-1,1826,1086,0,0
609,-62,0,0,0,0,0,0,0,0,0,-1,1833,1086,0,0
616,-62,0,0,0,0,0,0,0,0,0,-1,1840,1086,0,0
623,-62,0,0,0,0,0,0,0,0,0,-1,1847,1086,0,0
630,-62,0,0,0,0,0,0,0,0,0,-1,1854,1086,0,0
637,-62,0,0,0,0,0,0,0,0,0,-1,1861,1086,0,0
644,-62,0,0,0,0,0,0,0,0,0,-1,1868,1086,0,0
651,-62,4.12488,0.863159,-0.000408615,-0.00140051,0.00253589,0.00167936,-0.00348849,0.688831,0.00304399,0.042092,1875,1086,4.12492,-0.863182
658,-62,4.17957,0.925903,0.000186094,-0.000558306,0.00199557,0.00184388,-0.00221609,0.693201,0.00234731,0.0406864,1882,1086,4.17954,-0.925929
665,-62,4.21606,0.564819,0.000423094,4.11513e-05,0.00150318,0.00174738,-0.00128314,0.722214,0.0017565,0.0362658,1889,1086,4.21612,-0.564821
672,-62,4.20056,0.520264,0.000468601,0.000440407,0.00122604,0.00168062,-0.000771614,0.779649,0.00144786,0.034476,1896,1086,4.20056,-0.520264
679,-62,4.35095,0.62561,0.000396341,0.000689269,0.00103458,0.0015877,-0.000502087,0.855716,0.00125964,0.0359062,1903,1086,4.35092,-0.625637
686,-62,4.43701,0.684326,0.000273975,0.000819029,0.000887676,0.00147507,-0.000382066,0.934337,0.00113243,0.0393798,1910,1086,4.437,-0.684363
693,-62,4.3031,0.650146,0.000144349,0.000853282,0.000785184,0.0013603,-0.000362672,0.997425,0.00104887,0.0380666,1917,1086,4.30309,-0.6502
700,-62,4.25842,0.590088,2.345e-05,0.000853146,0.000698401,0.00125062,-0.000374022,1.05339,0.000982444,0.0315753,1924,1086,4.25836,-0.590064
707,-62,4.2428,0.542847,2.10353e-05,0.000812308,0.000603374,0.00113819,-0.000304846,1.07559,0.000878225,0.0228969,1931,1086,4.24274,-0.542873
714,-62,4.25244,0.614014,-7.11341e-05,0.000745692,0.000637479,0.00109437,-0.000419808,1.07029,0.000902663,0.0226074,1938,1086,4.25244,-0.613966
721,-62,4.29211,0.728027,-0.0002133,0.000675049,0.000673919,0.001038,-0.000576255,1.07677,0.000944617,0.0247419,1945,1086,4.29206,-0.728082
728,-62,4.25085,0.727295,-0.000342779,0.0005651,0.000468127,0.000763237,-0.000540916,1.1704,0.000756591,0.0149613,1952,1086,4.25085,-0.727353
735,-62,4.2489,0.715088,-0.000511367,0.00050634,0.0002363,0.00055853,-0.000563556,1.35342,0.000647839,0.0148337,1959,1086,4.24895,-0.71511
742,-62,4.24719,0.734619,-0.000618465,0.000696197,0.000278404,0.000752724,-0.000674992,1.37048,0.000824699,0.0129482,1966,1086,4.2472,-0.734647
749,-62,4.23779,0.721558,-0.000423812,0.00121048,0.000989479,0.00167661,-0.000889942,1.13055,0.00150482,0.0119078,1973,1086,4.23777,-0.721607
756,-62,4.22705,0.717896,0.000192224,0.00231395,0.00146123,0.00305881,-0.000552637,1.09938,0.00224619,0.0133731,1980,1086,4.22699,-0.717901
763,-62,4.23706,0.714111,0.00112506,0.00536772,0.00186922,0.00607376,0.00041902,1.20964,0.00391698,0.013902,1987,1086,4.2371,-0.714079
770,-62,4.26013,0.694336,0.0021245,0.00816043,0.0025178,0.00907279,0.00121215,1.22315,0.00568769,0.0115469,1994,1086,4.26014,-0.694388
777,-62,4.22949,0.639648,0.00362728,0.0121255,0.00352117,0.0133949,0.00235792,1.2248,0.00825695,0.0133905,2001,1086,4.22949,-0.639606
784,-62,4.19519,0.521851,0.00580846,0.0176326,0.00486371,0.0193762,0.00406493,1.22659,0.0117982,0.0270395,2008,1086,4.19514,-0.521859
791,-62,4.09851,0.319214,0.00886274,0.0251063,0.00645746,0.0273606,0.00660849,1.23493,0.0164852,0.0429929,2015,1086,4.09846,-0.319203
798,-62,3.76721,0.257568,0.0130248,0.0350672,0.00825291,0.0378147,0.0102773,1.24942,0.0225777,0.0469038,2022,1086,3.7672,-0.257583
805,-62,4.2655,0.461304,0.0185489,0.0481982,0.0101555,0.0513431,0.015404,1.27049,0.030423,0.0467558,2029,1086,4.26547,-0.46136
812,-62,4.94751,1.09912,0,0,0,0,0,0,0,-1,2036,1086,4.94751,-1.09908
-700,-69,0.268799,-1.03723,-0.0379978,0.0095593,-0.00551146,0.0101897,-0.0386282,-1.45692,0.0297364,0.0450945,524,1093,0.268794,1.03728
-693,-69,0.0704956,-0.177979,-0.031768,0.000896715,-0.00410863,0.00140558,-0.0322769,-1.44757,0.0220014,0.0430591,531,1093,0.0705097,0.178008
-686,-69,-0.373352,-0.0101318,-0.0260131,-0.00343347,-0.0028412,-0.00308145,-0.0263651,-1.44753,0.0166449,0.0440072,538,1093,-0.373348,0.0101108
-679,-69,-0.813049,-0.0288086,-0.0208936,-0.00541884,-0.00178961,-0.00521457,-0.0210978,-1.45715,0.0126893,0.0471979,545,1093,-0.81304,0.0288651
-672,-69,-1.03247,-0.230835,0,0,0,0,0,0,0,-1,552,1093,-1.03248,0.230867
-665,-69,-0.660645,-0.620972,0,0,0,0,0,0,0,-1,559,1093,-0.660651,0.620964
-658,-69,-0.26886,-1.00525,0,0,0,0,0,0,0,-1,566,1093,-0.268866,1.00526
-651,-69,-0.705811,0.684326,-0.00697432,-0.00432166,0.000370019,-0.00427102,-0.00702497,1.43477,0.00408727,0.0306365,573,1093,-0.7058,-0.684282
-644,-69,-0.711365,0.709717,-0.0049583,-0.00409238,0.000513014,-0.00385405,-0.00519664,1.13588,0.00311488,0.00903784,580,1093,-0.711346,-0.709751
-637,-69,-0.730713,0.740845,-0.00303354,-0.00309617,0.000519155,-0.00254476,-0.00358496,0.755276,0.00212967,0.0120957,587,1093,-0.73074,-0.740845
-630,-69,-0.723145,0.749023,-0.00123987,-0.00167663,0.00050054,-0.000912141,-0.00200435,0.579702,0.00115877,0.0143841,594,1093,-0.723144,-0.749078
-623,-69,-0.69458,0.760254,-0.000303057,-0.000900109,0.00023917,-0.000219065,-0.000984101,0.337726,0.000596606,0.0126805,601,1093,-0.694573,-0.7603
-616,-69,-0.671021,0.750854,-0.000338893,-0.000513068,-6.9499e-05,-0.000314561,-0.0005374,-0.336771,0.000311771,0.014133,608,1093,-0.671021,-0.750806
-609,-69,-0.677612,0.733154,-2.57044e-05,-3.57568e-05,-0.000144333,0.00011369,-0.000175151,-0.767993,0.000168016,0.0135201,615,1093,-0.677604,-0.733184
-602,-69,-0.690247,0.750366,0.00062496,0.000257721,-0.000550773,0.00102192,-0.000139235,-0.624499,0.000732115,0.0148214,622,1093,-0.690222,-0.750376
-595,-69,-0.690979,0.769897,0.000945531,0.000203881,-0.000830029,0.0014838,-0.000334392,-0.575319,0.00111747,0.0168533,629,1093,-0.691007,-0.769949
-588,-69,-0.696167,0.784668,0.00112307,0.000191512,-0.000901562,0.00167206,-0.000357483,-0.546964,0.00125101,0.0192734,636,1093,-0.696148,-0.784716
-581,-69,-0.703186,0.784546,0.00137103,0.000175266,-0.000833486,0.0017989,-0.000252601,-0.474267,0.00129173,0.0250185,643,1093,-0.703172,-0.784567
-574,-69,-0.729431,0.757446,0.00162586,0.00013927,-0.000767272,0.00195083,-0.000185703,-0.400635,0.00136667,0.0310903,650,1093,-0.729421,-0.757391
-567,-69,-0.795166,0.698242,0.00185751,8.71687e-05,-0.000626521,0.0020568,-0.000112121,-0.30797,0.00141006,0.037757,657,1093,-0.795161,-0.698239
-560,-69,-0.775391,0.567871,0.00204873,-8.10119e-06,-0.000375654,0.00211519,-7.45619e-05,-0.175108,0.00143563,0.0389627,664,1093,-0.775372,-0.56793
-553,-69,-0.652161,0.656128,0.00217798,-0.000153511,3.43159e-05,0.00217849,-0.000154016,0.0147142,0.00150629,0.0383579,671,1093,-0.652133,-0.656152
-546,-69,-0.635315,0.742676,0.00218131,-0.000371221,0.0006605,0.00234209,-0.000532006,0.238785,0.00176565,0.0370642,678,1093,-0.635294,-0.742624
-539,-69,-0.60968,0.84314,0.00204266,-0.000686202,0.0015723,0.00276001,-0.00140355,0.428031,0.00244599,0.0404777,685,1093,-0.609682,-0.843198
-532,-69,-0.440247,0.917236,0.00171633,-0.00112899,0.00274819,0.00338826,-0.00280092,0.546556,0.00357869,0.0414675,692,1093,-0.440232,-0.917278
-525,-69,0,0,0,0,0,0,0,0,0,-1,699,1093,0,0
-518,-69,0,0,0,0,0,0,0,0,0,-1,706,1093,0,0
-511,-69,0,0,0,0,0,0,0,0,0,-1,713,1093,0,0
-504,-69,0,0,0,0,0,0,0,0,0,-1,720,1093,0,0
-497,-69,0,0,0,0,0,0,0,0,0,-1,727,1093,0,0
-490,-69,0,0,0,0,0,0,0,0,0,-1,734,1093,0,0
-483,-69,0,0,0,0,0,0,0,0,0,-1,741,1093,0,0
-476,-69,0,0,0,0,0,0,0,0,0,-1,748,1093,0,0
-469,-69,0,0,0,0,0,0,0,0,0,-1,755,1093,0,0
-462,-69,0,0,0,0,0,0,0,0,0,-1,762,1093,0,0
-455,-69,0,0,0,0,0,0,0,0,0,-1,769,1093,0,0
-448,-69,0,0,0,0,0,0,0,0,0,-1,776,1093,0,0
-441,-69,0,0,0,0,0,0,0,0,0,-1,783,1093,0,0
-434,-69,0,0,0,0,0,0,0,0,0,-1,790,1093,0,0
-427,-69,0,0,0,0,0,0,0,0,0,-1,797,1093,0,0
-420,-69,0,0,0,0,0,0,0,0,0,-1,804,1093,0,0
-413,-69,0,0,0,0,0,0,0,0,0,-1,811,1093,0,0
-406,-69,0,0,0,0,0,0,0,0,0,-1,818,1093,0,0
-399,-69,0,0,0,0,0,0,0,0,0,-1,825,1093,0,0
-392,-69,0,0,0,0,0,0,0,0,0,-1,832,1093,0,0
-385,-69,0,0,0,0,0,0,0,0,0,-1,839,1093,0,0
-378,-69,0,0,0,0,0,0,0,0,0,-1,846,1093,0,0
-371,-69,0,0,0,0,0,0,0,0,0,-1,853,1093,0,0
-364,-69,0,0,0,0,0,0,0,0,0,-1,860,1093,0,0
-357,-69,0,0,0,0,0,0,0,0,0,-1,867,1093,0,0
-350,-69,0,0,0,0,0,0,0,0,0,-1,874,1093,0,0
-343,-69,0,0,0,0,0,0,0,0,0,-1,881,1093,0,0
-336,-69,0,0,0,0,0,0,0,0,0,-1,888,1093,0,0
-329,-69,0,0,0,0,0,0,0,0,0,-1,895,1093,0,0
-322,-69,0,0,0,0,0,0,0,0,0,-1,902,1093,0,0
-315,-69,0,0,0,0,0,0,0,0,0,-1,909,1093,0,0
-308,-69,0,0,0,0,0,0,0,0,0,-1,916,1093,0,0
-301,-69,0,0,0,0,0,0,0,0,0,-1,923,1093,0,0
-294,-69,0,0,0,0,0,0,0,0,0,-1,930,1093,0,0
-287,-69,0,0,0,0,0,0,0,0,0,-1,937,1093,0,0
-280,-69,0,0,0,0,0,0,0,0,0,-1,944,1093,0,0
-273,-69,0,0,0,0,0,0,0,0,0,-1,951,1093,0,0
-266,-69,0,0,0,0,0,0,0,0,0,-1,958,1093,0,0
-259,-69,0,0,0,0,0,0,0,0,0,-1,965,1093,0,0
-252,-69,0,0,0,0,0,0,0,0,0,-1,972,1093,0,0
-245,-69,0,0,0,0,0,0,0,0,0,-1,979,1093,0,0
-238,-69,0,0,0,0,0,0,0,0,0,-1,986,1093,0,0
-231,-69,0,0,0,0,0,0,0,0,0,-1,993,1093,0,0
-224,-69,0,0,0,0,0,0,0,0,0,-1,1000,1093,0,0
-217,-69,0,0,0,0,0,0,0,0,0,-1,1007,1093,0,0
-210,-69,0,0,0,0,0,0,0,0,0,-1,1014,1093,0,0
-203,-69,0,0,0,0,0,0,0,0,0,-1,1021,1093,0,0
-196,-69,0,0,0,0,0,0,0,0,0,-1,1028,1093,0,0
-189,-69,0,0,0,0,0,0,0,0,0,-1,1035,1093,0,0
-182,-69,0,0,0,0,0,0,0,0,0,-1,1042,1093,0,0
-175,-69,0,0,0,0,0,0,0,0,0,-1,1049,1093,0,0
-168,-69,0,0,0,0,0,0,0,0,0,-1,1056,1093,0,0
-161,-69,0,0,0,0,0,0,0,0,0,-1,1063,1093,0,0
-154,-69,0,0,0,0,0,0,0,0,0,-1,1070,1093,0,0
-147,-69,0,0,0,0,0,0,0,0,0,-1,1077,1093,0,0
-140,-69,0,0,0,0,0,0,0,0,0,-1,1084,1093,0,0
-133,-69,0,0,0,0,0,0,0,0,0,-1,1091,1093,0,0
-126,-69,0,0,0,0,0,0,0,0,0,-1,1098,1093,0,0
-119,-69,0,0,0,0,0,0,0,0,0,-1,1105,1093,0,0
-112,-69,0,0,0,0,0,0,0,0,0,-1,1112,1093,0,0
-105,-69,0,0,0,0,0,0,0,0,0,-1,1119,1093,0,0
-98,-69,0,0,0,0,0,0,0,0,0,-1,1126,1093,0,0
-91,-69,0,0,0,0,0,0,0,0,0,-1,1133,1093,0,0
-84,-69,0,0,0,0,0,0,0,0,0,-1,1140,1093,0,0
-77,-69,0,0,0,0,0,0,0,0,0,-1,1147,1093,0,0
-70,-69,0,0,0,0,0,0,0,0,0,-1,1154,1093,0,0
-63,-69,0,0,0,0,0,0,0,0,0,-1,1161,1093,0,0
-56,-69,0,0,0,0,0,0,0,0,0,-1,1168,1093,0,0
-49,-69,0,0,0,0,0,0,0,0,0,-1,1175,1093,0,0
-42,-69,0,0,0,0,0,0,0,0,0,-1,1182,1093,0,0
-35,-69,0,0,0,0,0,0,0,0,0,-1,1189,1093,0,0
-28,-69,0,0,0,0,0,0,0,0,0,-1,1196,1093,0,0
-21,-69,0,0,0,0,0,0,0,0,0,-1,1203,1093,0,0
-14,-69,0,0,0,0,0,0,0,0,0,-1,1210,1093,0,0
-7,-69,0,0,0,0,0,0,0,0,0,-1,1217,1093,0,0
0,-69,0,0,0,0,0,0,0,0,0,-1,1224,1093,0,0
7,-69,0,0,0,0,0,0,0,0,0,-1,1231,1093,0,0
14,-69,0,0,0,0,0,0,0,0,0,-1,1238,1093,0,0
21,-69,0,0,0,0,0,0,0,0,0,-1,1245,1093,0,0
28,-69,0,0,0,0,0,0,0,0,0,-1,1252,1093,0,0
35,-69,0,0,0,0,0,0,0,0,0,-1,1259,1093,0,0
42,-69,0,0,0,0,0,0,0,0,0,-1,1266,1093,0,0
49,-69,0,0,0,0,0,0,0,0,0,-1,1273,1093,0,0
56,-69,0,0,0,0,0,0,0,0,0,-1,1280,1093,0,0
63,-69,0,0,0,0,0,0,0,0,0,-1,1287,1093,0,0
70,-69,0,0,0,0,0,0,0,0,0,-1,1294,1093,0,0
77,-69,0,0,0,0,0,0,0,0,0,-1,1301,1093,0,0
84,-69,0,0,0,0,0,0,0,0,0,-1,1308,1093,0,0
91,-69,0,0,0,0,0,0,0,0,0,-1,1315,1093,0,0
98,-69,0,0,0,0,0,0,0,0,0,-1,1322,1093,0,0
105,-69,0,0,0,0,0,0,0,0,0,-1,1329,1093,0,0
112,-69,0,0,0,0,0,0,0,0,0,-1,1336,1093,0,0
119,-69,0,0,0,0,0,0,0,0,0,-1,1343,1093,0,0
126,-69,0,0,0,0,0,0,0,0,0,-1,1350,1093,0,0
133,-69,0,0,0,0,0,0,0,0,0,-1,1357,1093,0,0
140,-69,0,0,0,0,0,0,0,0,0,-1,1364,1093,0,0
147,-69,0,0,0,0,0,0,0,0,0,-1,1371,1093,0,0
154,-69,0,0,0,0,0,0,0,0,0,-1,1378,1093,0,0
161,-69,0,0,0,0,0,0,0,0,0,-1,1385,1093,0,0
168,-69,0,0,0,0,0,0,0,0,0,-1,1392,1093,0,0
175,-69,0,0,0,0,0,0,0,0,0,-1,1399,1093,0,0
182,-69,0,0,0,0,0,0,0,0,0,-1,1406,1093,0,0
189,-69,0,0,0,0,0,0,0,0,0,-1,1413,1093,0,0
196,-69,0,0,0,0,0,0,0,0,0,-1,1420,1093,0,0
203,-69,0,0,0,0,0,0,0,0,0,-1,1427,1093,0,0
210,-69,0,0,0,0,0,0,0,0,0,-1,1434,1093,0,0
217,-69,0,0,0,0,0,0,0,0,0,-1,1441,1093,0,0
224,-69,0,0,0,0,0,0,0,0,0,-1,1448,1093,0,0
231,-69,0,0,0,0,0,0,0,0,0,-1,1455,1093,0,0
238,-69,0,0,0,0,0,0,0,0,0,-1,1462,1093,0,0
245,-69,0,0,0,0,0,0,0,0,0,-1,1469,1093,0,0
252,-69,0,0,0,0,0,0,0,0,0,-1,1476,1093,0,0
259,-69,0,0,0,0,0,0,0,0,0,-1,1483,1093,0,0
266,-69,0,0,0,0,0,0,0,0,0,-1,1490,1093,0,0
273,-69,0,0,0,0,0,0,0,0,0,-1,1497,1093,0,0
280,-69,0,0,0,0,0,0,0,0,0,-1,1504,1093,0,0
287,-69,0,0,0,0,0,0,0,0,0,-1,1511,1093,0,0
294,-69,0,0,0,0,0,0,0,0,0,-1,1518,1093,0,0
301,-69,0,0,0,0,0,0,0,0,0,-1,1525,1093,0,0
308,-69,0,0,0,0,0,0,0,0,0,-1,1532,1093,0,0
315,-69,0,0,0,0,0,0,0,0,0,-1,1539,1093,0,0
322,-69,0,0,0,0,0,0,0,0,0,-1,1546,1093,0,0
329,-69,0,0,0,0,0,0,0,0,0,-1,1553,1093,0,0
336,-69,0,0,0,0,0,0,0,0,0,-1,1560,1093,0,0
343,-69,0,0,0,0,0,0,0,0,0,-1,1567,1093,0,0
350,-69,0,0,0,0,0,0,0,0,0,-1,1574,1093,0,0
357,-69,0,0,0,0,0,0,0,0,0,-1,1581,1093,0,0
364,-69,0,0,0,0,0,0,0,0,0,-1,1588,1093,0,0
371,-69,0,0,0,0,0,0,0,0,0,-1,1595,1093,0,0
378,-69,0,0,0,0,0,0,0,0,0,-1,1602,1093,0,0
385,-69,0,0,0,0,0,0,0,0,0,-1,1609,1093,0,0
392,-69,0,0,0,0,0,0,0,0,0,-1,1616,1093,0,0
399,-69,0,0,0,0,0,0,0,0,0,-1,1623,1093,0,0
406,-69,0,0,0,0,0,0,0,0,0,-1,1630,1093,0,0
413,-69,0,0,0,0,0,0,0,0,0,-1,1637,1093,0,0
420,-69,0,0,0,0,0,0,0,0,0,-1,1644,1093,0,0
427,-69,0,0,0,0,0,0,0,0,0,-1,1651,1093,0,0
434,-69,0,0,0,0,0,0,0,0,0,-1,1658,1093,0,0
441,-69,0,0,0,0,0,0,0,0,0,-1,1665,1093,0,0
448,-69,0,0,0,0,0,0,0,0,0,-1,1672,1093,0,0
455,-69,0,0,0,0,0,0,0,0,0,-1,1679,1093,0,0
462,-69,0,0,0,0,0,0,0,0,0,-1,1686,1093,0,0
469,-69,0,0,0,0,0,0,0,0,0,-1,1693,1093,0,0
476,-69,0,0,0,0,0,0,0,0,0,-1,1700,1093,0,0
483,-69,0,0,0,0,0,0,0,0,0,-1,1707,1093,0,0
490,-69,0,0,0,0,0,0,0,0,0,-1,1714,1093,0,0
497,-69,0,0,0,0,0,0,0,0,0,-1,1721,1093,0,0
504,-69,0,0,0,0,0,0,0,0,0,-1,1728,1093,0,0
511,-69,0,0,0,0,0,0,0,0,0,-1,1735,1093,0,0
518,-69,0,0,0,0,0,0,0,0,0,-1,1742,1093,0,0
525,-69,0,0,0,0,0,0,0,0,0,-1,1749,1093,0,0
532,-69,0,0,0,0,0,0,0,0,0,-1,1756,1093,0,0
539,-69,0,0,0,0,0,0,0,0,0,-1,1763,1093,0,0
546,-69,0,0,0,0,0,0,0,0,0,-1,1770,1093,0,0
553,-69,0,0,0,0,0,0,0,0,0,-1,1777,1093,0,0
560,-69,0,0,0,0,0,0,0,0,0,-1,1784,1093,0,0
567,-69,0,0,0,0,0,0,0,0,0,-1,1791,1093,0,0
574,-69,0,0,0,0,0,0,0,0,0,-1,1798,1093,0,0
581,-69,0,0,0,0,0,0,0,0,0,-1,1805,1093,0,0
588,-69,0,0,0,0,0,0,0,0,0,-1,1812,1093,0,0
595,-69,0,0,0,0,0,0,0,0,0,-1,1819,1093,0,0
602,-69,0,0,0,0,0,0,0,0,0,-1,1826,1093,0,0
609,-69,0,0,0,0,0,0,0,0,0,-1,1833,1093,0,0
616,-69,0,0,0,0,0,0,0,0,0,-1,1840,1093,0,0
623,-69,0,0,0,0,0,0,0,0,0,-1,1847,1093,0,0
630,-69,0,0,0,0,0,0,0,0,0,-1,1854,1093,0,0
637,-69,0,0,0,0,0,0,0,0,0,-1,1861,1093,0,0
644,-69,0,0,0,0,0,0,0,0,0,-1,1868,1093,0,0
651,-69,4.19153,0.536743,0.000275559,-0.00157624,0.00201375,0.00156607,-0.00286676,0.569916,0.00259576,0.0411204,1875,1093,4.19152,-0.536752
658,-69,4.21228,0.727417,0.000732244,-0.000576379,0.00147457,0.00169116,-0.00153529,0.576585,0.00186351,0.0437352,1882,1093,4.21224,-0.727436
665,-69,4.20239,0.697632,0.000844821,0.000118188,0.00104707,0.00158982,-0.000626809,0.618406,0.00131941,0.0422875,1889,1093,4.20241,-0.697691
672,-69,4.18091,0.665771,0.000769124,0.00054788,0.000848968,0.00151465,-0.000197643,0.720612,0.00108168,0.0361973,1896,1093,4.18088,-0.66576
679,-69,4.36816,0.679565,0.000588867,0.000791357,0.000741593,0.00143858,-5.83603e-05,0.853241,0.00097909,0.0368811,1903,1093,4.36816,-0.679575
686,-69,4.35754,0.73938,0.000374798,0.000896908,0.000678341,0.00136269,-9.0987e-05,0.969084,0.00094026,0.0397563,1910,1093,4.35751,-0.73941
693,-69,4.17932,0.649536,0.000172614,0.000902345,0.000652466,0.00128503,-0.000210076,1.04034,0.000934618,0.0361086,1917,1093,4.17932,-0.649504
700,-69,4.24146,0.547363,-3.64216e-06,0.000895371,0.000625814,0.00121638,-0.000324655,1.09684,0.000938058,0.0287091,1924,1093,4.24145,-0.547358
707,-69,4.24268,0.588623,-5.46493e-05,0.000829036,0.000576267,0.00111335,-0.000338967,1.11246,0.00087733,0.0215499,1931,1093,4.24265,-0.588641
714,-69,4.23816,0.685059,-0.000170694,0.000724136,0.000649798,0.00106566,-0.000512214,1.0869,0.000929475,0.020934,1938,1093,4.23817,-0.685072
721,-69,4.23633,0.719116,-0.000323269,0.000623079,0.000728778,0.00101882,-0.000719009,1.07333,0.0010083,0.0273664,1945,1093,4.23628,-0.719169
728,-69,4.2522,0.727905,-0.000459747,0.000498345,0.00054187,0.000742561,-0.000703964,1.14737,0.000835251,0.0138024,1952,1093,4.25217,-0.727857
735,-69,4.24243,0.722778,-0.000655087,0.000456955,0.000280882,0.000523874,-0.000722005,1.33691,0.000722334,0.0132449,1959,1093,4.24249,-0.722816
742,-69,4.22632,0.735107,-0.00086654,0.00067327,0.000256341,0.000714823,-0.000908093,1.41009,0.000939203,0.0111615,1966,1093,4.22631,-0.735096
749,-69,4.2135,0.716064,-0.000852022,0.00125458,0.000860406,0.00156133,-0.00115877,1.22833,0.00157617,0.0132528,1973,1093,4.2135,-0.716123
756,-69,4.22083,0.710327,-0.000457766,0.00236448,0.00111755,0.00275341,-0.000846697,1.23589,0.00217353,0.0144318,1980,1093,4.22087,-0.710336
763,-69,4.22522,0.694336,0.000178328,0.0052852,0.0012431,0.00557172,-0.000108191,1.34427,0.00375106,0.0139043,1987,1093,4.22526,-0.694336
770,-69,4.2113,0.67627,0.000792709,0.00800166,0.00157562,0.00833099,0.000463379,1.36475,0.00540616,0.0128466,1994,1093,4.21134,-0.67621
777,-69,4.21179,0.660889,0.00178949,0.0118077,0.0021504,0.0122498,0.00134742,1.36804,0.0077565,0.0179229,2001,1093,4.2118,-0.660838
784,-69,4.18518,0.556274,0.00333466,0.0170302,0.00292467,0.0176286,0.00273625,1.36897,0.0109549,0.0320761,2008,1093,4.18512,-0.556218
791,-69,3.146,-0.128662,0,0,0,0,0,0,0,-1,2015,1093,3.14595,0.12864
798,-69,3.28967,0.0621338,0.00883945,0.0332657,0.00462431,0.0341118,0.0079933,1.38982,0.0206004,0.0478668,2022,1093,3.28973,-0.0621845
805,-69,3.43518,0.271118,0.0132647,0.0452722,0.00530909,0.0461298,0.012407,1.41064,0.0275646,0.0469382,2029,1093,3.43521,-0.271162
812,-69,3.65796,0.621338,0.0191989,0.0608137,0.00560028,0.0615542,0.0184584,1.43934,0.0364749,0.0488122,2036,1093,3.658,-0.621322
-700,-76,0,0,0,0,0,0,0,0,0,-1,524,1100,0,0
-693,-76,0.216125,0.191162,-0.0330208,0.00240628,-0.00336703,0.00272344,-0.033338,-1.47688,0.0231865,0.0405077,531,1100,0.216145,-0.191147
-686,-76,-0.373413,0.295288,-0.0269291,-0.00347406,-0.00310368,-0.00307032,-0.0273328,-1.44144,0.0172896,0.047014,538,1100,-0.373433,-0.295259
-679,-76,-1.27521,0.220459,-0.0215468,-0.00626688,-0.0025811,-0.00584265,-0.021971,-1.40789,0.0131402,0.0457424,545,1100,-1.2752,-0.220463
-672,-76,-1.04718,-0.180786,-0.0169136,-0.00724672,-0.0019911,-0.00685267,-0.0173077,-1.37542,0.0100645,0.0455942,552,1100,-1.04717,0.180779
-665,-76,-0.689514,-0.573608,-0.0129755,-0.00714199,-0.00142505,-0.00681249,-0.013305,-1.34357,0.0076824,0.047078,559,1100,-0.689492,0.573571
-658,-76,-0.33075,-0.968384,0,0,0,0,0,0,0,-1,566,1100,-0.330752,0.968416
-651,-76,-0.707642,0.69458,-0.00706823,-0.00537217,-0.000537683,-0.00521608,-0.00722432,-1.28826,0.00430584,0.0274698,573,1100,-0.707612,-0.694522
-644,-76,-0.679016,0.712036,-0.00494536,-0.00498147,-0.000291086,-0.00467177,-0.00525506,-0.754424,0.00332603,0.0105225,580,1100,-0.678989,-0.712071
-637,-76,-0.705872,0.729736,-0.00300849,-0.00382505,-0.00019125,-0.00296592,-0.00386762,-0.219038,0.00233658,0.0139592,587,1100,-0.705894,-0.729734
-630,-76,-0.704407,0.731812,-0.00126462,-0.00217279,-4.12173e-05,-0.00126275,-0.00217466,-0.0452609,0.00126097,0.0156018,594,1100,-0.704385,-0.731799
-623,-76,-0.695496,0.73999,-0.000380112,-0.00118665,-9.68267e-05,-0.000368651,-0.00119811,-0.117823,0.000708576,0.0136579,601,1100,-0.695505,-0.739978
-616,-76,-0.665588,0.730469,-0.000420185,-0.000715334,-0.000203975,-0.000315997,-0.000819521,-0.472238,0.000477262,0.0120671,608,1100,-0.665616,-0.730472
-609,-76,-0.686279,0.739746,-8.39986e-05,-0.000140876,-0.000236307,0.000125575,-0.000350449,-0.725513,0.000284872,0.0125026,615,1100,-0.6863,-0.739742
-602,-76,-0.699463,0.738159,0.000584425,0.000157386,-0.000611902,0.00101899,-0.00027718,-0.617531,0.000788138,0.0164674,622,1100,-0.69946,-0.738101
-595,-76,-0.679504,0.744141,0.000879459,8.83432e-05,-0.000889852,0.00145771,-0.000489907,-0.576254,0.00116982,0.0193718,629,1100,-0.679482,-0.744082
-588,-76,-0.676636,0.768188,0.00100321,5.42059e-05,-0.000976239,0.00161416,-0.000556739,-0.559185,0.00130198,0.020392,636,1100,-0.676653,-0.768166
-581,-76,-0.66571,0.701172,0.0012049,1.1446e-05,-0.000904994,0.00169219,-0.000475845,-0.49393,0.00131575,0.0268858,643,1100,-0.665706,-0.701202
-574,-76,-0.685669,0.637573,0.0014188,-5.26588e-05,-0.000826098,0.00178929,-0.000423156,-0.421598,0.0013561,0.0368383,650,1100,-0.68569,-0.637583
-567,-76,-0.798035,0.608887,0.00160326,-0.000120433,-0.000669987,0.00183305,-0.000350219,-0.330399,0.00135395,0.0416217,657,1100,-0.798039,-0.608867
-560,-76,-0.751648,0.504883,0.00172459,-0.0002206,-0.000394354,0.00180149,-0.000297508,-0.192605,0.00131146,0.0406669,664,1100,-0.751658,-0.504928
-553,-76,-0.618591,0.630249,0.00174847,-0.000359477,5.36706e-05,0.00174983,-0.000360843,0.0254392,0.00130359,0.0421907,671,1100,-0.618579,-0.63026
-546,-76,-0.623535,0.76062,0.00160445,-0.000559637,0.000736902,0.00183154,-0.000786732,0.29894,0.00155126,0.0422122,678,1100,-0.623561,-0.760653
-539,-76,-0.698975,0.818359,0.00126554,-0.000847102,0.00172483,0.0022318,-0.00181337,0.510648,0.00233964,0.042674,685,1100,-0.698954,-0.818371
-532,-76,-0.644348,0.966675,0.000671534,-0.00124958,0.00298415,0.00284591,-0.00342395,0.629692,0.00362503,0.042541,692,1100,-0.644355,-0.966661
-525,-76,0,0,0,0,0,0,0,0,0,-1,699,1100,0,0
-518,-76,0,0,0,0,0,0,0,0,0,-1,706,1100,0,0
-511,-76,0,0,0,0,0,0,0,0,0,-1,713,1100,0,0
-504,-76,0,0,0,0,0,0,0,0,0,-1,720,1100,0,0
-497,-76,0,0,0,0,0,0,0,0,0,-1,727,1100,0,0
-490,-76,0,0,0,0,0,0,0,0,0,-1,734,1100,0,0
-483,-76,0,0,0,0,0,0,0,0,0,-1,741,1100,0,0
-476,-76,0,0,0,0,0,0,0,0,0,-1,748,1100,0,0
-469,-76,0,0,0,0,0,0,0,0,0,-1,755,1100,0,0
-462,-76,0,0,0,0,0,0,0,0,0,-1,762,1100,0,0
-455,-76,0,0,0,0,0,0,0,0,0,-1,769,1100,0,0
-448,-76,0,0,0,0,0,0,0,0,0,-1,776,1100,0,0
-441,-76,0,0,0,0,0,0,0,0,0,-1,783,1100,0,0
-434,-76,0,0,0,0,0,0,0,0,0,-1,790,1100,0,0
-427,-76,0,0,0,0,0,0,0,0,0,-1,797,1100,0,0
-420,-76,0,0,0,0,0,0,0,0,0,-1,804,1100,0,0
-413,-76,0,0,0,0,0,0,0,0,0,-1,811,1100,0,0
-406,-76,0,0,0,0,0,0,0,0,0,-1,818,1100,0,0
-399,-76,0,0,0,0,0,0,0,0,0,-1,825,1100,0,0
-392,-76,0,0,0,0,0,0,0,0,0,-1,832,1100,0,0
-385,-76,0,0,0,0,0,0,0,0,0,-1,839,1100,0,0
-378,-76,0,0,0,0,0,0,0,0,0,-1,846,1100,0,0
-371,-76,0,0,0,0,0,0,0,0,0,-1,853,1100,0,0
-364,-76,0,0,0,0,0,0,0,0,0,-1,860,1100,0,0
-357,-76,0,0,0,0,0,0,0,0,0,-1,867,1100,0,0
-350,-76,0,0,0,0,0,0,0,0,0,-1,874,1100,0,0
-343,-76,0,0,0,0,0,0,0,0,0,-1,881,1100,0,0
-336,-76,0,0,0,0,0,0,0,0,0,-1,888,1100,0,0
-329,-76,0,0,0,0,0,0,0,0,0,-1,895,1100,0,0
-322,-76,0,0,0,0,0,0,0,0,0,-1,902,1100,0,0
-315,-76,0,0,0,0,0,0,0,0,0,-1,909,1100,0,0
-308,-76,0,0,0,0,0,0,0,0,0,-1,916,1100,0,0
-301,-76,0,0,0,0,0,0,0,0,0,-1,923,1100,0,0
-294,-76,0,0,0,0,0,0,0,0,0,-1,930,1100,0,0
-287,-76,0,0,0,0,0,0,0,0,0,-1,937,1100,0,0
-280,-76,0,0,0,0,0,0,0,0,0,-1,944,1100,0,0
-273,-76,0,0,0,0,0,0,0,0,0,-1,951,1100,0,0
-266,-76,0,0,0,0,0,0,0,0,0,-1,958,1100,0,0
-259,-76,0,0,0,0,0,0,0,0,0,-1,965,1100,0,0
-252,-76,0,0,0,0,0,0,0,0,0,-1,972,1100,0,0
-245,-76,0,0,0,0,0,0,0,0,0,-1,979,1100,0,0
-238,-76,0,0,0,0,0,0,0,0,0,-1,986,1100,0,0
-231,-76,0,0,0,0,0,0,0,0,0,-1,993,1100,0,0
-224,-76,0,0,0,0,0,0,0,0,0,-1,1000,1100,0,0
-217,-76,0,0,0,0,0,0,0,0,0,-1,1007,1100,0,0
-210,-76,0,0,0,0,0,0,0,0,0,-1,1014,1100,0,0
-203,-76,0,0,0,0,0,0,0,0,0,-1,1021,1100,0,0
-196,-76,0,0,0,0,0,0,0,0,0,-1,1028,1100,0,0
-189,-76,0,0,0,0,0,0,0,0,0,-1,1035,1100,0,0
-182,-76,0,0,0,0,0,0,0,0,0,-1,1042,1100,0,0
-175,-76,0,0,0,0,0,0,0,0,0,-1,1049,1100,0,0
-168,-76,0,0,0,0,0,0,0,0,0,-1,1056,1100,0,0
-161,-76,0,0,0,0,0,0,0,0,0,-1,1063,1100,0,0
-154,-76,0,0,0,0,0,0,0,0,0,-1,1070,1100,0,0
-147,-76,0,0,0,0,0,0,0,0,0,-1,1077,1100,0,0
-140,-76,0,0,0,0,0,0,0,0,0,-1,1084,1100,0,0
-133,-76,0,0,0,0,0,0,0,0,0,-1,1091,1100,0,0
-126,-76,0,0,0,0,0,0,0,0,0,-1,1098,1100,0,0
-119,-76,0,0,0,0,0,0,0,0,0,-1,1105,1100,0,0
-112,-76,0,0,0,0,0,0,0,0,0,-1,1112,1100,0,0
-105,-76,0,0,0,0,0,0,0,0,0,-1,1119,1100,0,0
-98,-76,0,0,0,0,0,0,0,0,0,-1,1126,1100,0,0
-91,-76,0,0,0,0,0,0,0,0,0,-1,1133,1100,0,0
-84,-76,0,0,0,0,0,0,0,0,0,-1,1140,1100,0,0
-77,-76,0,0,0,0,0,0,0,0,0,-1,1147,1100,0,0
-70,-76,0,0,0,0,0,0,0,0,0,-1,1154,1100,0,0
-63,-76,0,0,0,0,0,0,0,0,0,-1,1161,1100,0,0
-56,-76,0,0,0,0,0,0,0,0,0,-1,1168,1100,0,0
-49,-76,0,0,0,0,0,0,0,0,0,-1,1175,1100,0,0
-42,-76,0,0,0,0,0,0,0,0,0,-1,1182,1100,0,0
-35,-76,0,0,0,0,0,0,0,0,0,-1,1189,1100,0,0
-28,-76,0,0,0,0,0,0,0,0,0,-1,1196,1100,0,0
-21,-76,0,0,0,0,0,0,0,0,0,-1,1203,1100,0,0
-14,-76,0,0,0,0,0,0,0,0,0,-1,1210,1100,0,0
-7,-76,0,0,0,0,0,0,0,0,0,-1,1217,1100,0,0
0,-76,0,0,0,0,0,0,0,0,0,-1,1224,1100,0,0
7,-76,0,0,0,0,0,0,0,0,0,-1,1231,1100,0,0
14,-76,0,0,0,0,0,0,0,0,0,-1,1238,1100,0,0
21,-76,0,0,0,0,0,0,0,0,0,-1,1245,1100,0,0
28,-76,0,0,0,0,0,0,0,0,0,-1,1252,1100,0,0
35,-76,0,0,0,0,0,0,0,0,0,-1,1259,1100,0,0
42,-76,0,0,0,0,0,0,0,0,0,-1,1266,1100,0,0
49,-76,0,0,0,0,0,0,0,0,0,-1,1273,1100,0,0
56,-76,0,0,0,0,0,0,0,0,0,-1,1280,1100,0,0
63,-76,0,0,0,0,0,0,0,0,0,-1,1287,1100,0,0
70,-76,0,0,0,0,0,0,0,0,0,-1,1294,1100,0,0
77,-76,0,0,0,0,0,0,0,0,0,-1,1301,1100,0,0
84,-76,0,0,0,0,0,0,0,0,0,-1,1308,1100,0,0
91,-76,0,0,0,0,0,0,0,0,0,-1,1315,1100,0,0
98,-76,0,0,0,0,0,0,0,0,0,-1,1322,1100,0,0
105,-76,0,0,0,0,0,0,0,0,0,-1,1329,1100,0,0
112,-76,0,0,0,0,0,0,0,0,0,-1,1336,1100,0,0
119,-76,0,0,0,0,0,0,0,0,0,-1,1343,1100,0,0
126,-76,0,0,0,0,0,0,0,0,0,-1,1350,1100,0,0
133,-76,0,0,0,0,0,0,0,0,0,-1,1357,1100,0,0
140,-76,0,0,0,0,0,0,0,0,0,-1,1364,1100,0,0
147,-76,0,0,0,0,0,0,0,0,0,-1,1371,1100,0,0
154,-76,0,0,0,0,0,0,0,0,0,-1,1378,1100,0,0
161,-76,0,0,0,0,0,0,0,0,0,-1,1385,1100,0,0
168,-76,0,0,0,0,0,0,0,0,0,-1,1392,1100,0,0
175,-76,0,0,0,0,0,0,0,0,0,-1,1399,1100,0,0
182,-76,0,0,0,0,0,0,0,0,0,-1,1406,1100,0,0
189,-76,0,0,0,0,0,0,0,0,0,-1,1413,1100,0,0
196,-76,0,0,0,0,0,0,0,0,0,-1,1420,1100,0,0
203,-76,0,0,0,0,0,0,0,0,0,-1,1427,1100,0,0
210,-76,0,0,0,0,0,0,0,0,0,-1,1434,1100,0,0
217,-76,0,0,0,0,0,0,0,0,0,-1,1441,1100,0,0
224,-76,0,0,0,0,0,0,0,0,0,-1,1448,1100,0,0
231,-76,0,0,0,0,0,0,0,0,0,-1,1455,1100,0,0
238,-76,0,0,0,0,0,0,0,0,0,-1,1462,1100,0,0
245,-76,0,0,0,0,0,0,0,0,0,-1,1469,1100,0,0
252,-76,0,0,0,0,0,0,0,0,0,-1,1476,1100,0,0
259,-76,0,0,0,0,0,0,0,0,0,-1,1483,1100,0,0
266,-76,0,0,0,0,0,0,0,0,0,-1,1490,1100,0,0
273,-76,0,0,0,0,0,0,0,0,0,-1,1497,1100,0,0
280,-76,0,0,0,0,0,0,0,0,0,-1,1504,1100,0,0
287,-76,0,0,0,0,0,0,0,0,0,-1,1511,1100,0,0
294,-76,0,0,0,0,0,0,0,0,0,-1,1518,1100,0,0
301,-76,0,0,0,0,0,0,0,0,0,-1,1525,1100,0,0
308,-76,0,0,0,0,0,0,0,0,0,-1,1532,1100,0,0
315,-76,0,0,0,0,0,0,0,0,0,-1,1539,1100,0,0
322,-76,0,0,0,0,0,0,0,0,0,-1,1546,1100,0,0
329,-76,0,0,0,0,0,0,0,0,0,-1,1553,1100,0,0
336,-76,0,0,0,0,0,0,0,0,0,-1,1560,1100,0,0
343,-76,0,0,0,0,0,0,0,0,0,-1,1567,1100,0,0
350,-76,0,0,0,0,0,0,0,0,0,-1,1574,1100,0,0
357,-76,0,0,0,0,0,0,0,0,0,-1,1581,1100,0,0
364,-76,0,0,0,0,0,0,0,0,0,-1,1588,1100,0,0
371,-76,0,0,0,0,0,0,0,0,0,-1,1595,1100,0,0
378,-76,0,0,0,0,0,0,0,0,0,-1,1602,1100,0,0
385,-76,0,0,0,0,0,0,0,0,0,-1,1609,1100,0,0
392,-76,0,0,0,0,0,0,0,0,0,-1,1616,1100,0,0
399,-76,0,0,0,0,0,0,0,0,0,-1,1623,1100,0,0
406,-76,0,0,0,0,0,0,0,0,0,-1,1630,1100,0,0
413,-76,0,0,0,0,0,0,0,0,0,-1,1637,1100,0,0
420,-76,0,0,0,0,0,0,0,0,0,-1,1644,1100,0,0
427,-76,0,0,0,0,0,0,0,0,0,-1,1651,1100,0,0
434,-76,0,0,0,0,0,0,0,0,0,-1,1658,1100,0,0
441,-76,0,0,0,0,0,0,0,0,0,-1,1665,1100,0,0
448,-76,0,0,0,0,0,0,0,0,0,-1,1672,1100,0,0
455,-76,0,0,0,0,0,0,0,0,0,-1,1679,1100,0,0
462,-76,0,0,0,0,0,0,0,0,0,-1,1686,1100,0,0
469,-76,0,0,0,0,0,0,0,0,0,-1,1693,1100,0,0
476,-76,0,0,0,0,0,0,0,0,0,-1,1700,1100,0,0
483,-76,0,0,0,0,0,0,0,0,0,-1,1707,1100,0,0
490,-76,0,0,0,0,0,0,0,0,0,-1,1714,1100,0,0
497,-76,0,0,0,0,0,0,0,0,0,-1,1721,1100,0,0
504,-76,0,0,0,0,0,0,0,0,0,-1,1728,1100,0,0
511,-76,0,0,0,0,0,0,0,0,0,-1,1735,1100,0,0
518,-76,0,0,0,0,0,0,0,0,0,-1,1742,1100,0,0
525,-76,0,0,0,0,0,0,0,0,0,-1,1749,1100,0,0
532,-76,0,0,0,0,0,0,0,0,0,-1,1756,1100,0,0
539,-76,0,0,0,0,0,0,0,0,0,-1,1763,1100,0,0
546,-76,0,0,0,0,0,0,0,0,0,-1,1770,1100,0,0
553,-76,0,0,0,0,0,0,0,0,0,-1,1777,1100,0,0
560,-76,0,0,0,0,0,0,0,0,0,-1,1784,1100,0,0
567,-76,0,0,0,0,0,0,0,0,0,-1,1791,1100,0,0
574,-76,0,0,0,0,0,0,0,0,0,-1,1798,1100,0,0
581,-76,0,0,0,0,0,0,0,0,0,-1,1805,1100,0,0
588,-76,0,0,0,0,0,0,0,0,0,-1,1812,1100,0,0
595,-76,0,0,0,0,0,0,0,0,0,-1,1819,1100,0,0
602,-76,0,0,0,0,0,0,0,0,0,-1,1826,1100,0,0
609,-76,0,0,0,0,0,0,0,0,0,-1,1833,1100,0,0
616,-76,0,0,0,0,0,0,0,0,0,-1,1840,1100,0,0
623,-76,0,0,0,0,0,0,0,0,0,-1,1847,1100,0,0
630,-76,0,0,0,0,0,0,0,0,0,-1,1854,1100,0,0
637,-76,0,0,0,0,0,0,0,0,0,-1,1861,1100,0,0
644,-76,0,0,0,0,0,0,0,0,0,-1,1868,1100,0,0
651,-76,4.24963,0.638062,0.000954805,-0.00120927,0.00104071,0.00137406,-0.00162853,0.382966,0.00173562,0.0400846,1875,1100,4.24965,-0.638016
658,-76,4.16235,0.581543,0.00124551,-0.000160673,0.000685194,0.00152417,-0.000439329,0.386253,0.0011899,0.0436433,1882,1100,4.16239,-0.5815
665,-76,4.13867,0.579102,0.001209,0.000545685,0.000450331,0.00143663,0.000318062,0.468002,0.000871301,0.0419606,1889,1100,4.13867,-0.579151
672,-76,4.18506,0.665649,0.000996262,0.000943734,0.000420988,0.0013918,0.000548192,0.754245,0.00080957,0.0383792,1896,1100,4.18506,-0.665671
679,-76,4.29419,0.747437,0.000702298,0.00113035,0.000454336,0.00141855,0.000414101,1.00552,0.000842308,0.0378474,1903,1100,4.29416,-0.747377
686,-76,4.26733,0.837524,0.00039719,0.00116716,0.000506612,0.00141847,0.000145882,1.11031,0.000900964,0.0376489,1910,1100,4.26738,-0.83757
693,-76,4.21545,0.758545,0.000127111,0.00110368,0.000570774,0.00136653,-0.000135741,1.13923,0.000959472,0.0377779,1917,1100,4.21551,-0.7585
700,-76,4.26538,0.548584,-8.77707e-05,0.00105901,0.000612326,0.0013245,-0.000353261,1.16168,0.00102132,0.0319885,1924,1100,4.26534,-0.548616
707,-76,4.23792,0.600342,-0.000179899,0.000932604,0.00061784,0.0012077,-0.000454997,1.15189,0.000992207,0.0228457,1931,1100,4.23791,-0.600349
714,-76,4.23425,0.653076,-0.000316007,0.000763927,0.000720652,0.00112446,-0.000676542,1.10692,0.00105047,0.0281514,1938,1100,4.23429,-0.653069
721,-76,4.20898,0.699463,-0.000468754,0.000621653,0.000819407,0.00106066,-0.000907763,1.07895,0.00113761,0.0249109,1945,1100,4.20905,-0.699408
728,-76,4.23303,0.707031,-0.000592082,0.000471939,0.000627108,0.000762303,-0.000882446,1.13717,0.000950441,0.0167605,1952,1100,4.23297,-0.707082
735,-76,4.19568,0.701538,-0.000791342,0.000418916,0.000316852,0.000496851,-0.000869278,1.32962,0.000798445,0.0157164,1959,1100,4.1957,-0.701591
742,-76,4.2041,0.726074,-0.00108914,0.000637408,0.000206769,0.000661825,-0.00111356,1.45325,0.00103602,0.0109616,1966,1100,4.20411,-0.726132
749,-76,4.21313,0.706055,-0.00123853,0.00124147,0.000621097,0.00138833,-0.00138539,1.33862,0.0016014,0.0124329,1973,1100,4.21316,-0.706082
756,-76,4.22241,0.693359,-0.00104618,0.00229968,0.000602585,0.0024049,-0.0011514,1.39793,0.00209531,0.0144204,1980,1100,4.22247,-0.693302
763,-76,4.20984,0.684082,-0.000706432,0.00492422,0.000397597,0.00495216,-0.000734369,1.50065,0.00357148,0.014154,1987,1100,4.20986,-0.684025
770,-76,4.20813,0.68396,-0.000461637,0.0074085,0.000336889,0.00742289,-0.000476032,1.52809,0.00511466,0.0127969,1994,1100,4.20808,-0.683955
777,-76,4.22717,0.70105,4.43521e-05,0.0108451,0.000395106,0.0108595,2.99183e-05,1.53428,0.00722971,0.0166797,2001,1100,4.22712,-0.701056
784,-76,4.20081,0.682007,0.000969446,0.0155011,0.000504011,0.0155186,0.000951986,1.53617,0.0100434,0.0308561,2008,1100,4.20079,-0.682018
791,-76,4.02087,0.652832,0.0024811,0.0216729,0.000524848,0.0216873,0.00246676,1.54348,0.0137101,0.0415298,2015,1100,4.02093,-0.652846
798,-76,2.80823,-0.452637,0,0,0,0,0,0,0,-1,2022,1100,2.80825,0.452672
805,-76,2.98633,-0.312256,0.00811027,0.039967,-0.000224053,0.0399685,0.0081087,-1.56376,0.0243962,0.0479412,2029,1100,2.98632,0.312265
812,-76,2.68237,-2.79004,0.0127526,0.0530268,-0.00145136,0.053079,0.0127003,-1.53482,0.0320039,0.0484934,2036,1100,2.6824,2.79001
-700,-83,0,0,0,0,0,0,0,0,0,-1,524,1107,0,0
-693,-83,0.220093,1.42432,0,0,0,0,0,0,0,-1,531,1107,0.220123,-1.42429
-686,-83,-0.381409,0.61731,-0.028658,-0.00169078,-0.0018373,-0.00156618,-0.0287826,-1.50308,0.0186882,0.0456154,538,1107,-0.381385,-0.617314
-679,-83,-0.617676,0.372803,-0.023181,-0.00512251,-0.00222478,-0.00485246,-0.0234511,-1.45,0.0142938,0.0488682,545,1107,-0.617701,-0.372751
-672,-83,-0.505249,0.0638428,-0.0183632,-0.0064975,-0.00216329,-0.00611541,-0.0187453,-1.39597,0.0110383,0.0458705,552,1107,-0.505219,-0.0638108
-665,-83,-0.507141,-0.260376,-0.0142055,-0.00663835,-0.00187141,-0.00620083,-0.014643,-1.34113,0.00848708,0.0440328,559,1107,-0.507159,0.260371
-658,-83,-0.567322,-0.580811,0,0,0,0,0,0,0,-1,566,1107,-0.567315,0.58082
-651,-83,-0.726807,0.587036,-0.00785934,-0.0051187,-0.00107428,-0.0047478,-0.00823024,-1.23835,0.00477041,0.030416,573,1107,-0.726795,-0.58701
-644,-83,-0.658142,0.676514,-0.00554433,-0.00475495,-0.000802382,-0.00425544,-0.00604384,-1.01397,0.00358501,0.0151859,580,1107,-0.65813,-0.676522
-637,-83,-0.642578,0.730591,-0.00351339,-0.00371803,-0.00068799,-0.00292015,-0.00431127,-0.71158,0.00254076,0.0111165,587,1107,-0.642554,-0.730562
-630,-83,-0.653992,0.744507,-0.00172023,-0.00210392,-0.000440271,-0.00143182,-0.00239233,-0.579933,0.00139012,0.0157708,594,1107,-0.653982,-0.744474
-623,-83,-0.671753,0.740112,-0.00068635,-0.00117565,-0.000325154,-0.000524086,-0.00133791,-0.462878,0.000778457,0.0146614,601,1107,-0.671735,-0.740095
-616,-83,-0.658386,0.723877,-0.000585311,-0.000780783,-0.000252196,-0.000412575,-0.000953519,-0.600538,0.000552175,0.0100514,608,1107,-0.658362,-0.723935
-609,-83,-0.675903,0.762085,-0.000173008,-0.00023782,-0.000281644,7.80879e-05,-0.000488916,-0.72812,0.000354849,0.010268,615,1107,-0.675877,-0.762086
-602,-83,-0.69165,0.778198,0.000542062,-1.59139e-05,-0.000625316,0.000947804,-0.000421656,-0.575572,0.000809876,0.0130836,622,1107,-0.691623,-0.778162
-595,-83,-0.672485,0.793091,0.00083603,-0.000148555,-0.000893302,0.00136371,-0.000676233,-0.533557,0.00119985,0.0158916,629,1107,-0.672496,-0.793099
-588,-83,-0.664307,0.759277,0.000923402,-0.00025572,-0.000976944,0.00147489,-0.000807212,-0.513913,0.00133624,0.0217132,636,1107,-0.664306,-0.759235
-581,-83,-0.667053,0.649658,0.00108226,-0.000370601,-0.000895601,0.001509,-0.00079734,-0.444658,0.00135253,0.0312994,643,1107,-0.667069,-0.649665
-574,-83,-0.662537,0.562256,0.00125785,-0.00050103,-0.000797966,0.00156591,-0.000809094,-0.368433,0.00139422,0.0396882,650,1107,-0.662518,-0.562253
-567,-83,-0.726624,0.605103,0.00139859,-0.000635306,-0.000620003,0.00157268,-0.000809402,-0.27375,0.00139863,0.0432021,657,1107,-0.726623,-0.605115
-560,-83,-0.660828,0.486572,0.00144792,-0.000790444,-0.000317835,0.00149218,-0.000834699,-0.138352,0.00136118,0.0414441,664,1107,-0.660806,-0.486625
-553,-83,-0.570801,0.60791,0.0013614,-0.000965259,0.000160578,0.00137243,-0.000976289,0.0685831,0.00136245,0.0415151,671,1107,-0.570798,-0.607851
-546,-83,-0.592834,0.699219,0.00105847,-0.001175,0.000875855,0.00136096,-0.00147749,0.332548,0.00163924,0.0418422,678,1107,-0.592841,-0.699224
-539,-83,-0.699951,0.682983,0.000495161,-0.00143717,0.00188764,0.00164953,-0.00259154,0.548862,0.00246864,0.0427002,685,1107,-0.699955,-0.682987
-532,-83,-0.696167,0.698975,-0.000407845,-0.00176781,0.0031481,0.00213287,-0.00430853,0.679033,0.00378899,0.0438763,692,1107,-0.696185,-0.698994
-525,-83,0,0,0,0,0,0,0,0,0,-1,699,1107,0,0
-518,-83,0,0,0,0,0,0,0,0,0,-1,706,1107,0,0
-511,-83,0,0,0,0,0,0,0,0,0,-1,713,1107,0,0
-504,-83,0,0,0,0,0,0,0,0,0,-1,720,1107,0,0
-497,-83,0,0,0,0,0,0,0,0,0,-1,727,1107,0,0
-490,-83,0,0,0,0,0,0,0,0,0,-1,734,1107,0,0
-483,-83,0,0,0,0,0,0,0,0,0,-1,741,1107,0,0
-476,-83,0,0,0,0,0,0,0,0,0,-1,748,1107,0,0
-469,-83,0,0,0,0,0,0,0,0,0,-1,755,1107,0,0
-462,-83,0,0,0,0,0,0,0,0,0,-1,762,1107,0,0
-455,-83,0,0,0,0,0,0,0,0,0,-1,769,1107,0,0
-448,-83,0,0,0,0,0,0,0,0,0,-1,776,1107,0,0
-441,-83,0,0,0,0,0,0,0,0,0,-1,783,1107,0,0
-434,-83,0,0,0,0,0,0,0,0,0,-1,790,1107,0,0
-427,-83,0,0,0,0,0,0,0,0,0,-1,797,1107,0,0
-420,-83,0,0,0,0,0,0,0,0,0,-1,804,1107,0,0
-413,-83,0,0,0,0,0,0,0,0,0,-1,811,1107,0,0
-406,-83,0,0,0,0,0,0,0,0,0,-1,818,1107,0,0
-399,-83,0,0,0,0,0,0,0,0,0,-1,825,1107,0,0
-392,-83,0,0,0,0,0,0,0,0,0,-1,832,1107,0,0
-385,-83,0,0,0,0,0,0,0,0,0,-1,839,1107,0,0
-378,-83,0,0,0,0,0,0,0,0,0,-1,846,1107,0,0
-371,-83,0,0,0,0,0,0,0,0,0,-1,853,1107,0,0
-364,-83,0,0,0,0,0,0,0,0,0,-1,860,1107,0,0
-357,-83,0,0,0,0,0,0,0,0,0,-1,867,1107,0,0
-350,-83,0,0,0,0,0,0,0,0,0,-1,874,1107,0,0
-343,-83,0,0,0,0,0,0,0,0,0,-1,881,1107,0,0
-336,-83,0,0,0,0,0,0,0,0,0,-1,888,1107,0,0
-329,-83,0,0,0,0,0,0,0,0,0,-1,895,1107,0,0
-322,-83,0,0,0,0,0,0,0,0,0,-1,902,1107,0,0
-315,-83,0,0,0,0,0,0,0,0,0,-1,909,1107,0,0
-308,-83,0,0,0,0,0,0,0,0,0,-1,916,1107,0,0
-301,-83,0,0,0,0,0,0,0,0,0,-1,923,1107,0,0
-294,-83,0,0,0,0,0,0,0,0,0,-1,930,1107,0,0
-287,-83,0,0,0,0,0,0,0,0,0,-1,937,1107,0,0
-280,-83,0,0,0,0,0,0,0,0,0,-1,944,1107,0,0
-273,-83,0,0,0,0,0,0,0,0,0,-1,951,1107,0,0
-266,-83,0,0,0,0,0,0,0,0,0,-1,958,1107,0,0
-259,-83,0,0,0,0,0,0,0,0,0,-1,965,1107,0,0
-252,-83,0,0,0,0,0,0,0,0,0,-1,972,1107,0,0
-245,-83,0,0,0,0,0,0,0,0,0,-1,979,1107,0,0
-238,-83,0,0,0,0,0,0,0,0,0,-1,986,1107,0,0
-231,-83,0,0,0,0,0,0,0,0,0,-1,993,1107,0,0
-224,-83,0,0,0,0,0,0,0,0,0,-1,1000,1107,0,0
-217,-83,0,0,0,0,0,0,0,0,0,-1,1007,1107,0,0
-210,-83,0,0,0,0,0,0,0,0,0,-1,1014,1107,0,0
-203,-83,0,0,0,0,0,0,0,0,0,-1,1021,1107,0,0
-196,-83,0,0,0,0,0,0,0,0,0,-1,1028,1107,0,0
-189,-83,0,0,0,0,0,0,0,0,0,-1,1035,1107,0,0
-182,-83,0,0,0,0,0,0,0,0,0,-1,1042,1107,0,0
-175,-83,0,0,0,0,0,0,0,0,0,-1,1049,1107,0,0
-168,-83,0,0,0,0,0,0,0,0,0,-1,1056,1107,0,0
-161,-83,0,0,0,0,0,0,0,0,0,-1,1063,1107,0,0
-154,-83,0,0,0,0,0,0,0,0,0,-1,1070,1107,0,0
-147,-83,0,0,0,0,0,0,0,0,0,-1,1077,1107,0,0
-140,-83,0,0,0,0,0,0,0,0,0,-1,1084,1107,0,0
-133,-83,0,0,0,0,0,0,0,0,0,-1,1091,1107,0,0
-126,-83,0,0,0,0,0,0,0,0,0,-1,1098,1107,0,0
-119,-83,0,0,0,0,0,0,0,0,0,-1,1105,1107,0,0
-112,-83,0,0,0,0,0,0,0,0,0,-1,1112,1107,0,0
-105,-83,0,0,0,0,0,0,0,0,0,-1,1119,1107,0,0
-98,-83,0,0,0,0,0,0,0,0,0,-1,1126,1107,0,0
-91,-83,0,0,0,0,0,0,0,0,0,-1,1133,1107,0,0
-84,-83,0,0,0,0,0,0,0,0,0,-1,1140,1107,0,0
-77,-83,0,0,0,0,0,0,0,0,0,-1,1147,1107,0,0
-70,-83,0,0,0,0,0,0,0,0,0,-1,1154,1107,0,0
-63,-83,0,0,0,0,0,0,0,0,0,-1,1161,1107,0,0
-56,-83,0,0,0,0,0,0,0,0,0,-1,1168,1107,0,0
-49,-83,0,0,0,0,0,0,0,0,0,-1,1175,1107,0,0
-42,-83,0,0,0,0,0,0,0,0,0,-1,1182,1107,0,0
-35,-83,0,0,0,0,0,0,0,0,0,-1,1189,1107,0,0
-28,-83,0,0,0,0,0,0,0,0,0,-1,1196,1107,0,0
-21,-83,0,0,0,0,0,0,0,0,0,-1,1203,1107,0,0
-14,-83,0,0,0,0,0,0,0,0,0,-1,1210,1107,0,0
-7,-83,0,0,0,0,0,0,0,0,0,-1,1217,1107,0,0
0,-83,0,0,0,0,0,0,0,0,0,-1,1224,1107,0,0
7,-83,0,0,0,0,0,0,0,0,0,-1,1231,1107,0,0
14,-83,0,0,0,0,0,0,0,0,0,-1,1238,1107,0,0
21,-83,0,0,0,0,0,0,0,0,0,-1,1245,1107,0,0
28,-83,0,0,0,0,0,0,0,0,0,-1,1252,1107,0,0
35,-83,0,0,0,0,0,0,0,0,0,-1,1259,1107,0,0
42,-83,0,0,0,0,0,0,0,0,0,-1,1266,1107,0,0
49,-83,0,0,0,0,0,0,0,0,0,-1,1273,1107,0,0
56,-83,0,0,0,0,0,0,0,0,0,-1,1280,1107,0,0
63,-83,0,0,0,0,0,0,0,0,0,-1,1287,1107,0,0
70,-83,0,0,0,0,0,0,0,0,0,-1,1294,1107,0,0
77,-83,0,0,0,0,0,0,0,0,0,-1,1301,1107,0,0
84,-83,0,0,0,0,0,0,0,0,0,-1,1308,1107,0,0
91,-83,0,0,0,0,0,0,0,0,0,-1,1315,1107,0,0
98,-83,0,0,0,0,0,0,0,0,0,-1,1322,1107,0,0
105,-83,0,0,0,0,0,0,0,0,0,-1,1329,1107,0,0
112,-83,0,0,0,0,0,0,0,0,0,-1,1336,1107,0,0
119,-83,0,0,0,0,0,0,0,0,0,-1,1343,1107,0,0
126,-83,0,0,0,0,0,0,0,0,0,-1,1350,1107,0,0
133,-83,0,0,0,0,0,0,0,0,0,-1,1357,1107,0,0
140,-83,0,0,0,0,0,0,0,0,0,-1,1364,1107,0,0
147,-83,0,0,0,0,0,0,0,0,0,-1,1371,1107,0,0
154,-83,0,0,0,0,0,0,0,0,0,-1,1378,1107,0,0
161,-83,0,0,0,0,0,0,0,0,0,-1,1385,1107,0,0
168,-83,0,0,0,0,0,0,0,0,0,-1,1392,1107,0,0
175,-83,0,0,0,0,0,0,0,0,0,-1,1399,1107,0,0
182,-83,0,0,0,0,0,0,0,0,0,-1,1406,1107,0,0
189,-83,0,0,0,0,0,0,0,0,0,-1,1413,1107,0,0
196,-83,0,0,0,0,0,0,0,0,0,-1,1420,1107,0,0
203,-83,0,0,0,0,0,0,0,0,0,-1,1427,1107,0,0
210,-83,0,0,0,0,0,0,0,0,0,-1,1434,1107,0,0
217,-83,0,0,0,0,0,0,0,0,0,-1,1441,1107,0,0
224,-83,0,0,0,0,0,0,0,0,0,-1,1448,1107,0,0
231,-83,0,0,0,0,0,0,0,0,0,-1,1455,1107,0,0
238,-83,0,0,0,0,0,0,0,0,0,-1,1462,1107,0,0
245,-83,0,0,0,0,0,0,0,0,0,-1,1469,1107,0,0
252,-83,0,0,0,0,0,0,0,0,0,-1,1476,1107,0,0
259,-83,0,0,0,0,0,0,0,0,0,-1,1483,1107,0,0
266,-83,0,0,0,0,0,0,0,0,0,-1,1490,1107,0,0
273,-83,0,0,0,0,0,0,0,0,0,-1,1497,1107,0,0
280,-83,0,0,0,0,0,0,0,0,0,-1,1504,1107,0,0
287,-83,0,0,0,0,0,0,0,0,0,-1,1511,1107,0,0
294,-83,0,0,0,0,0,0,0,0,0,-1,1518,1107,0,0
301,-83,0,0,0,0,0,0,0,0,0,-1,1525,1107,0,0
308,-83,0,0,0,0,0,0,0,0,0,-1,1532,1107,0,0
315,-83,0,0,0,0,0,0,0,0,0,-1,1539,1107,0,0
322,-83,0,0,0,0,0,0,0,0,0,-1,1546,1107,0,0
329,-83,0,0,0,0,0,0,0,0,0,-1,1553,1107,0,0
336,-83,0,0,0,0,0,0,0,0,0,-1,1560,1107,0,0
343,-83,0,0,0,0,0,0,0,0,0,-1,1567,1107,0,0
350,-83,0,0,0,0,0,0,0,0,0,-1,1574,1107,0,0
357,-83,0,0,0,0,0,0,0,0,0,-1,1581,1107,0,0
364,-83,0,0,0,0,0,0,0,0,0,-1,1588,1107,0,0
371,-83,0,0,0,0,0,0,0,0,0,-1,1595,1107,0,0
378,-83,0,0,0,0,0,0,0,0,0,-1,1602,1107,0,0
385,-83,0,0,0,0,0,0,0,0,0,-1,1609,1107,0,0
392,-83,0,0,0,0,0,0,0,0,0,-1,1616,1107,0,0
399,-83,0,0,0,0,0,0,0,0,0,-1,1623,1107,0,0
406,-83,0,0,0,0,0,0,0,0,0,-1,1630,1107,0,0
413,-83,0,0,0,0,0,0,0,0,0,-1,1637,1107,0,0
420,-83,0,0,0,0,0,0,0,0,0,-1,1644,1107,0,0
427,-83,0,0,0,0,0,0,0,0,0,-1,1651,1107,0,0
434,-83,0,0,0,0,0,0,0,0,0,-1,1658,1107,0,0
441,-83,0,0,0,0,0,0,0,0,0,-1,1665,1107,0,0
448,-83,0,0,0,0,0,0,0,0,0,-1,1672,1107,0,0
455,-83,0,0,0,0,0,0,0,0,0,-1,1679,1107,0,0
462,-83,0,0,0,0,0,0,0,0,0,-1,1686,1107,0,0
469,-83,0,0,0,0,0,0,0,0,0,-1,1693,1107,0,0
476,-83,0,0,0,0,0,0,0,0,0,-1,1700,1107,0,0
483,-83,0,0,0,0,0,0,0,0,0,-1,1707,1107,0,0
490,-83,0,0,0,0,0,0,0,0,0,-1,1714,1107,0,0
497,-83,0,0,0,0,0,0,0,0,0,-1,1721,1107,0,0
504,-83,0,0,0,0,0,0,0,0,0,-1,1728,1107,0,0
511,-83,0,0,0,0,0,0,0,0,0,-1,1735,1107,0,0
518,-83,0,0,0,0,0,0,0,0,0,-1,1742,1107,0,0
525,-83,0,0,0,0,0,0,0,0,0,-1,1749,1107,0,0
532,-83,0,0,0,0,0,0,0,0,0,-1,1756,1107,0,0
539,-83,0,0,0,0,0,0,0,0,0,-1,1763,1107,0,0
546,-83,0,0,0,0,0,0,0,0,0,-1,1770,1107,0,0
553,-83,0,0,0,0,0,0,0,0,0,-1,1777,1107,0,0
560,-83,0,0,0,0,0,0,0,0,0,-1,1784,1107,0,0
567,-83,0,0,0,0,0,0,0,0,0,-1,1791,1107,0,0
574,-83,0,0,0,0,0,0,0,0,0,-1,1798,1107,0,0
581,-83,0,0,0,0,0,0,0,0,0,-1,1805,1107,0,0
588,-83,0,0,0,0,0,0,0,0,0,-1,1812,1107,0,0
595,-83,0,0,0,0,0,0,0,0,0,-1,1819,1107,0,0
602,-83,0,0,0,0,0,0,0,0,0,-1,1826,1107,0,0
609,-83,0,0,0,0,0,0,0,0,0,-1,1833,1107,0,0
616,-83,0,0,0,0,0,0,0,0,0,-1,1840,1107,0,0
623,-83,0,0,0,0,0,0,0,0,0,-1,1847,1107,0,0
630,-83,0,0,0,0,0,0,0,0,0,-1,1854,1107,0,0
637,-83,0,0,0,0,0,0,0,0,0,-1,1861,1107,0,0
644,-83,4.3916,0.467285,0.00136844,-0.00198467,-0.000184796,0.00137859,-0.00199483,-0.0548903,0.00195845,0.0368405,1868,1107,4.39156,-0.46727
651,-83,4.37024,0.621704,0.00165985,-0.000645915,-6.34353e-05,0.00166159,-0.000647659,-0.0274839,0.00137542,0.0428405,1875,1107,4.37021,-0.621669
658,-83,4.11084,0.799561,0,0,0,0,0,0,0,-1,1882,1107,4.11079,-0.799612
665,-83,4.12109,0.658936,0.00150811,0.000894754,-0.000104384,0.00152539,0.000877476,-0.164034,0.000884003,0.0405302,1889,1107,4.12104,-0.658911
672,-83,4.14905,0.50708,0.00114131,0.00121944,7.32366e-05,0.00126338,0.00109737,1.0304,0.000792734,0.0381158,1896,1107,4.14903,-0.507086
679,-83,4.21057,0.634766,0.000731844,0.00134452,0.000263931,0.00144254,0.000633828,1.21521,0.000834887,0.0380602,1903,1107,4.21058,-0.634736
686,-83,4.28406,0.776123,0.000343718,0.00132841,0.000433026,0.00149174,0.000180384,1.21011,0.000940154,0.0346238,1910,1107,4.28403,-0.776085
693,-83,4.27795,0.738159,1.73547e-05,0.00122112,0.000576936,0.00145297,-0.0002145,1.18868,0.00104749,0.0359128,1917,1107,4.27797,-0.738158
700,-83,4.28711,0.603516,-0.000231488,0.00114376,0.000676847,0.001421,-0.00050872,1.18205,0.00115488,0.0306918,1924,1107,4.28709,-0.603511
707,-83,4.25281,0.579712,-0.000343734,0.000981806,0.00072873,0.00130408,-0.000666009,1.15441,0.00115715,0.0220274,1931,1107,4.25279,-0.57974
714,-83,4.22742,0.611572,-0.000478491,0.000793518,0.000841766,0.00121254,-0.000897509,1.10892,0.00122275,0.0287796,1938,1107,4.22747,-0.611567
721,-83,4.22046,0.701538,-0.000624018,0.000642113,0.000936494,0.00113944,-0.00112135,1.08261,0.00130528,0.0178805,1945,1107,4.22047,-0.701592
728,-83,4.19507,0.693359,-0.000719247,0.000486639,0.000728377,0.000829251,-0.00106186,1.13113,0.00109458,0.0173197,1952,1107,4.19502,-0.693406
735,-83,4.17126,0.688721,-0.000897093,0.00041827,0.000364788,0.000512662,-0.000991486,1.31759,0.000882966,0.0181588,1959,1107,4.17123,-0.688676
742,-83,4.19226,0.710693,-0.00125482,0.000627952,0.000191791,0.00064729,-0.00127416,1.47031,0.00112886,0.0111018,1966,1107,4.19223,-0.710753
749,-83,4.20569,0.716675,-0.00156034,0.00119628,0.000437728,0.00126411,-0.00162818,1.41704,0.00167427,0.0104979,1973,1107,4.20569,-0.716733
756,-83,4.20752,0.707031,-0.00160378,0.00212742,0.000202077,0.00213834,-0.00161469,1.51685,0.00217383,0.0131797,1980,1107,4.20757,-0.707078
763,-83,4.21802,0.688354,-0.00159569,0.0043014,-0.000268384,0.00431359,-0.00160788,-1.52541,0.00353572,0.0117246,1987,1107,4.21797,-0.688332
770,-83,4.22095,0.684814,-0.00175622,0.00640906,-0.000638602,0.0064587,-0.00180586,-1.49322,0.00501728,0.013362,1994,1107,4.22098,-0.684814
777,-83,4.20837,0.677856,-0.00179206,0.00929295,-0.000988931,0.00938049,-0.0018796,-1.48251,0.00696525,0.0141033,2001,1107,4.20838,-0.677878
784,-83,4.18872,0.667358,-0.00155402,0.0131589,-0.00140884,0.0132926,-0.00168771,-1.47619,0.00947451,0.0229282,2008,1107,4.18875,-0.667361
791,-83,4.11548,0.646973,-0.000884607,0.0182301,-0.00205081,0.0184476,-0.00110216,-1.46511,0.0126818,0.0408189,2015,1107,4.11543,-0.647016
798,-83,4.01208,0.49939,0,0,0,0,0,0,0,-1,2022,1107,4.0121,-0.499436
805,-83,3.4281,-1.55017,0.00255521,0.0329782,-0.00459318,0.0336565,0.00187687,-1.42417,0.021839,0.0462168,2029,1107,3.42812,1.55014
812,-83,3.19836,-1.96411,0.00585773,0.0432639,-0.00699288,0.0445284,0.0045932,-1.3919,0.0282792,0.0478731,2036,1107,3.1984,1.96405
-700,-90,0,0,0,0,0,0,0,0,0,-1,524,1114,0,0
-693,-90,0.234436,1.3374,-0.0338309,0.00901314,0.00336242,0.00927542,-0.0340932,1.49295,0.0263701,0.0434804,531,1114,0.234408,-1.33741
-686,-90,0.34491,1.30713,-0.0284558,0.00116027,0.000455289,0.00116726,-0.0284628,1.55543,0.019376,0.0411933,538,1114,0.344914,-1.30713
-679,-90,-0.569153,0.648926,0,0,0,0,0,0,0,-1,545,1114,-0.569137,-0.648913
-672,-90,0.0328369,-0.183594,-0.0187492,-0.00486436,-0.00151063,-0.00470191,-0.0189117,-1.46367,0.0113693,0.0450342,552,1114,0.0328128,0.18354
-665,-90,-0.237061,-0.218994,-0.0147054,-0.00541593,-0.00156879,-0.00515815,-0.0149632,-1.40793,0.00877675,0.0430124,559,1114,-0.237047,0.219042
-658,-90,-0.500183,-0.0789795,-0.0112503,-0.00515503,-0.0013505,-0.00486921,-0.0115361,-1.36223,0.00668726,0.04246,566,1114,-0.500194,0.0790311
-651,-90,-0.644836,0.460815,-0.00837812,-0.00445887,-0.00102052,-0.00420906,-0.00862793,-1.33073,0.00498183,0.0307297,573,1114,-0.644822,-0.460782
-644,-90,-0.65564,0.673218,-0.00601738,-0.0041971,-0.000777574,-0.00391017,-0.00630431,-1.21729,0.00367471,0.0141731,580,1114,-0.655643,-0.673183
-637,-90,-0.645996,0.738037,-0.00399235,-0.00339595,-0.00073511,-0.00290086,-0.00448744,-0.978084,0.0026276,0.0117155,587,1114,-0.645966,-0.737979
-630,-90,-0.633057,0.750854,-0.0022412,-0.00197581,-0.00047407,-0.00161622,-0.0026008,-0.921858,0.00151626,0.0108641,594,1114,-0.633047,-0.750826
-623,-90,-0.629944,0.760254,-0.00110622,-0.00117802,-0.000325458,-0.000814688,-0.00146955,-0.730471,0.000850116,0.00873409,601,1114,-0.629956,-0.760234
-616,-90,-0.648254,0.769287,-0.000782092,-0.000837924,-0.000165337,-0.00064233,-0.000977685,-0.701766,0.000573666,0.00691374,608,1114,-0.648236,-0.769275
-609,-90,-0.654175,0.783569,-0.00024456,-0.000350323,-0.000255891,-3.61436e-05,-0.00055874,-0.683505,0.000361049,0.00943042,615,1114,-0.654197,-0.783608
-602,-90,-0.664368,0.80127,0.000521381,-0.000178824,-0.000607884,0.000872774,-0.000530216,-0.524129,0.000818025,0.009736,622,1114,-0.664352,-0.801293
-595,-90,-0.6521,0.807495,0.00083009,-0.000334577,-0.000877104,0.00130057,-0.00080506,-0.492346,0.00122686,0.0126746,629,1114,-0.652089,-0.807552
-588,-90,-0.660889,0.782715,0.000893352,-0.000467295,-0.00095964,0.00138936,-0.0009633,-0.477049,0.00136571,0.0189,636,1114,-0.660895,-0.782706
-581,-90,-0.674744,0.667725,0.00102013,-0.000600568,-0.000878718,0.00140511,-0.000985548,-0.412927,0.00138731,0.0286406,643,1114,-0.674753,-0.667705
-574,-90,-0.680847,0.659912,0.00117012,-0.00072487,-0.000779075,0.00144929,-0.00100404,-0.34408,0.00142418,0.036698,650,1114,-0.680834,-0.659878
-567,-90,-0.732422,0.898926,0.00127437,-0.000841437,-0.000599143,0.00143225,-0.000999318,-0.257655,0.00141126,0.037155,657,1114,-0.732395,-0.898934
-560,-90,-0.640381,0.870605,0.00126042,-0.000950096,-0.000300405,0.00130052,-0.000990193,-0.132693,0.00132658,0.0393896,664,1114,-0.640379,-0.870571
-553,-90,-0.439331,0.590088,0.0010793,-0.00104291,0.000164216,0.00109193,-0.00105554,0.0767709,0.0012399,0.0393166,671,1114,-0.439324,-0.590133
-546,-90,-0.411011,0.428833,0.000648403,-0.00112714,0.000851945,0.000991057,-0.00146979,0.382404,0.00142971,0.040975,678,1114,-0.411041,-0.428869
-539,-90,-0.500732,0.494629,-8.47794e-05,-0.00121543,0.00180666,0.00124294,-0.00254315,0.633768,0.00222845,0.0419447,685,1114,-0.50074,-0.494576
-532,-90,-0.635437,0.686035,-0.00120678,-0.00131788,0.00296184,0.00170003,-0.00422469,0.776022,0.00352264,0.0417108,692,1114,-0.63542,-0.68601
-525,-90,0,0,0,0,0,0,0,0,0,-1,699,1114,0,0
-518,-90,0,0,0,0,0,0,0,0,0,-1,706,1114,0,0
-511,-90,0,0,0,0,0,0,0,0,0,-1,713,1114,0,0
-504,-90,0,0,0,0,0,0,0,0,0,-1,720,1114,0,0
-497,-90,0,0,0,0,0,0,0,0,0,-1,727,1114,0,0
-490,-90,0,0,0,0,0,0,0,0,0,-1,734,1114,0,0
-483,-90,0,0,0,0,0,0,0,0,0,-1,741,1114,0,0
-476,-90,0,0,0,0,0,0,0,0,0,-1,748,1114,0,0
-469,-90,0,0,0,0,0,0,0,0,0,-1,755,1114,0,0
-462,-90,0,0,0,0,0,0,0,0,0,-1,762,1114,0,0
-455,-90,0,0,0,0,0,0,0,0,0,-1,769,1114,0,0
-448,-90,0,0,0,0,0,0,0,0,0,-1,776,1114,0,0
-441,-90,0,0,0,0,0,0,0,0,0,-1,783,1114,0,0
-434,-90,0,0,0,0,0,0,0,0,0,-1,790,1114,0,0
-427,-90,0,0,0,0,0,0,0,0,0,-1,797,1114,0,0
-420,-90,0,0,0,0,0,0,0,0,0,-1,804,1114,0,0
-413,-90,0,0,0,0,0,0,0,0,0,-1,811,1114,0,0
-406,-90,0,0,0,0,0,0,0,0,0,-1,818,1114,0,0
-399,-90,0,0,0,0,0,0,0,0,0,-1,825,1114,0,0
-392,-90,0,0,0,0,0,0,0,0,0,-1,832,1114,0,0
-385,-90,0,0,0,0,0,0,0,0,0,-1,839,1114,0,0
-378,-90,0,0,0,0,0,0,0,0,0,-1,846,1114,0,0
-371,-90,0,0,0,0,0,0,0,0,0,-1,853,1114,0,0
-364,-90,0,0,0,0,0,0,0,0,0,-1,860,1114,0,0
-357,-90,0,0,0,0,0,0,0,0,0,-1,867,1114,0,0
-350,-90,0,0,0,0,0,0,0,0,0,-1,874,1114,0,0
-343,-90,0,0,0,0,0,0,0,0,0,-1,881,1114,0,0
-336,-90,0,0,0,0,0,0,0,0,0,-1,888,1114,0,0
-329,-90,0,0,0,0,0,0,0,0,0,-1,895,1114,0,0
-322,-90,0,0,0,0,0,0,0,0,0,-1,902,1114,0,0
-315,-90,0,0,0,0,0,0,0,0,0,-1,909,1114,0,0
-308,-90,0,0,0,0,0,0,0,0,0,-1,916,1114,0,0
-301,-90,0,0,0,0,0,0,0,0,0,-1,923,1114,0,0
-294,-90,0,0,0,0,0,0,0,0,0,-1,930,1114,0,0
-287,-90,0,0,0,0,0,0,0,0,0,-1,937,1114,0,0
-280,-90,0,0,0,0,0,0,0,0,0,-1,944,1114,0,0
-273,-90,0,0,0,0,0,0,0,0,0,-1,951,1114,0,0
-266,-90,0,0,0,0,0,0,0,0,0,-1,958,1114,0,0
-259,-90,0,0,0,0,0,0,0,0,0,-1,965,1114,0,0
-252,-90,0,0,0,0,0,0,0,0,0,-1,972,1114,0,0
-245,-90,0,0,0,0,0,0,0,0,0,-1,979,1114,0,0
-238,-90,0,0,0,0,0,0,0,0,0,-1,986,1114,0,0
-231,-90,0,0,0,0,0,0,0,0,0,-1,993,1114,0,0
-224,-90,0,0,0,0,0,0,0,0,0,-1,1000,1114,0,0
-217,-90,0,0,0,0,0,0,0,0,0,-1,1007,1114,0,0
-210,-90,0,0,0,0,0,0,0,0,0,-1,1014,1114,0,0
-203,-90,0,0,0,0,0,0,0,0,0,-1,1021,1114,0,0
-196,-90,0,0,0,0,0,0,0,0,0,-1,1028,1114,0,0
-189,-90,0,0,0,0,0,0,0,0,0,-1,1035,1114,0,0
-182,-90,0,0,0,0,0,0,0,0,0,-1,1042,1114,0,0
-175,-90,0,0,0,0,0,0,0,0,0,-1,1049,1114,0,0
-168,-90,0,0,0,0,0,0,0,0,0,-1,1056,1114,0,0
-161,-90,0,0,0,0,0,0,0,0,0,-1,1063,1114,0,0
-154,-90,0,0,0,0,0,0,0,0,0,-1,1070,1114,0,0
-147,-90,0,0,0,0,0,0,0,0,0,-1,1077,1114,0,0
-140,-90,0,0,0,0,0,0,0,0,0,-1,1084,1114,0,0
-133,-90,0,0,0,0,0,0,0,0,0,-1,1091,1114,0,0
-126,-90,0,0,0,0,0,0,0,0,0,-1,1098,1114,0,0
-119,-90,0,0,0,0,0,0,0,0,0,-1,1105,1114,0,0
-112,-90,0,0,0,0,0,0,0,0,0,-1,1112,1114,0,0
-105,-90,0,0,0,0,0,0,0,0,0,-1,1119,1114,0,0
-98,-90,0,0,0,0,0,0,0,0,0,-1,1126,1114,0,0
-91,-90,0,0,0,0,0,0,0,0,0,-1,1133,1114,0,0
-84,-90,0,0,0,0,0,0,0,0,0,-1,1140,1114,0,0
-77,-90,0,0,0,0,0,0,0,0,0,-1,1147,1114,0,0
-70,-90,0,0,0,0,0,0,0,0,0,-1,1154,1114,0,0
-63,-90,0,0,0,0,0,0,0,0,0,-1,1161,1114,0,0
-56,-90,0,0,0,0,0,0,0,0,0,-1,1168,1114,0,0
-49,-90,0,0,0,0,0,0,0,0,0,-1,1175,1114,0,0
-42,-90,0,0,0,0,0,0,0,0,0,-1,1182,1114,0,0
-35,-90,0,0,0,0,0,0,0,0,0,-1,1189,1114,0,0
-28,-90,0,0,0,0,0,0,0,0,0,-1,1196,1114,0,0
-21,-90,0,0,0,0,0,0,0,0,0,-1,1203,1114,0,0
-14,-90,0,0,0,0,0,0,0,0,0,-1,1210,1114,0,0
-7,-90,0,0,0,0,0,0,0,0,0,-1,1217,1114,0,0
0,-90,0,0,0,0,0,0,0,0,0,-1,1224,1114,0,0
7,-90,0,0,0,0,0,0,0,0,0,-1,1231,1114,0,0
14,-90,0,0,0,0,0,0,0,0,0,-1,1238,1114,0,0
21,-90,0,0,0,0,0,0,0,0,0,-1,1245,1114,0,0
28,-90,0,0,0,0,0,0,0,0,0,-1,1252,1114,0,0
35,-90,0,0,0,0,0,0,0,0,0,-1,1259,1114,0,0
42,-90,0,0,0,0,0,0,0,0,0,-1,1266,1114,0,0
49,-90,0,0,0,0,0,0,0,0,0,-1,1273,1114,0,0
56,-90,0,0,0,0,0,0,0,0,0,-1,1280,1114,0,0
63,-90,0,0,0,0,0,0,0,0,0,-1,1287,1114,0,0
70,-90,0,0,0,0,0,0,0,0,0,-1,1294,1114,0,0
77,-90,0,0,0,0,0,0,0,0,0,-1,1301,1114,0,0
84,-90,0,0,0,0,0,0,0,0,0,-1,1308,1114,0,0
91,-90,0,0,0,0,0,0,0,0,0,-1,1315,1114,0,0
98,-90,0,0,0,0,0,0,0,0,0,-1,1322,1114,0,0
105,-90,0,0,0,0,0,0,0,0,0,-1,1329,1114,0,0
112,-90,0,0,0,0,0,0,0,0,0,-1,1336,1114,0,0
119,-90,0,0,0,0,0,0,0,0,0,-1,1343,1114,0,0
126,-90,0,0,0,0,0,0,0,0,0,-1,1350,1114,0,0
133,-90,0,0,0,0,0,0,0,0,0,-1,1357,1114,0,0
140,-90,0,0,0,0,0,0,0,0,0,-1,1364,1114,0,0
147,-90,0,0,0,0,0,0,0,0,0,-1,1371,1114,0,0
154,-90,0,0,0,0,0,0,0,0,0,-1,1378,1114,0,0
161,-90,0,0,0,0,0,0,0,0,0,-1,1385,1114,0,0
168,-90,0,0,0,0,0,0,0,0,0,-1,1392,1114,0,0
175,-90,0,0,0,0,0,0,0,0,0,-1,1399,1114,0,0
182,-90,0,0,0,0,0,0,0,0,0,-1,1406,1114,0,0
189,-90,0,0,0,0,0,0,0,0,0,-1,1413,1114,0,0
196,-90,0,0,0,0,0,0,0,0,0,-1,1420,1114,0,0
203,-90,0,0,0,0,0,0,0,0,0,-1,1427,1114,0,0
210,-90,0,0,0,0,0,0,0,0,0,-1,1434,1114,0,0
217,-90,0,0,0,0,0,0,0,0,0,-1,1441,1114,0,0
224,-90,0,0,0,0,0,0,0,0,0,-1,1448,1114,0,0
231,-90,0,0,0,0,0,0,0,0,0,-1,1455,1114,0,0
238,-90,0,0,0,0,0,0,0,0,0,-1,1462,1114,0,0
245,-90,0,0,0,0,0,0,0,0,0,-1,1469,1114,0,0
252,-90,0,0,0,0,0,0,0,0,0,-1,1476,1114,0,0
259,-90,0,0,0,0,0,0,0,0,0,-1,1483,1114,0,0
266,-90,0,0,0,0,0,0,0,0,0,-1,1490,1114,0,0
273,-90,0,0,0,0,0,0,0,0,0,-1,1497,1114,0,0
280,-90,0,0,0,0,0,0,0,0,0,-1,1504,1114,0,0
287,-90,0,0,0,0,0,0,0,0,0,-1,1511,1114,0,0
294,-90,0,0,0,0,0,0,0,0,0,-1,1518,1114,0,0
301,-90,0,0,0,0,0,0,0,0,0,-1,1525,1114,0,0
308,-90,0,0,0,0,0,0,0,0,0,-1,1532,1114,0,0
315,-90,0,0,0,0,0,0,0,0,0,-1,1539,1114,0,0
322,-90,0,0,0,0,0,0,0,0,0,-1,1546,1114,0,0
329,-90,0,0,0,0,0,0,0,0,0,-1,1553,1114,0,0
336,-90,0,0,0,0,0,0,0,0,0,-1,1560,1114,0,0
343,-90,0,0,0,0,0,0,0,0,0,-1,1567,1114,0,0
350,-90,0,0,0,0,0,0,0,0,0,-1,1574,1114,0,0
357,-90,0,0,0,0,0,0,0,0,0,-1,1581,1114,0,0
364,-90,0,0,0,0,0,0,0,0,0,-1,1588,1114,0,0
371,-90,0,0,0,0,0,0,0,0,0,-1,1595,1114,0,0
378,-90,0,0,0,0,0,0,0,0,0,-1,1602,1114,0,0
385,-90,0,0,0,0,0,0,0,0,0,-1,1609,1114,0,0
392,-90,0,0,0,0,0,0,0,0,0,-1,1616,1114,0,0
399,-90,0,0,0,0,0,0,0,0,0,-1,1623,1114,0,0
406,-90,0,0,0,0,0,0,0,0,0,-1,1630,1114,0,0
413,-90,0,0,0,0,0,0,0,0,0,-1,1637,1114,0,0
420,-90,0,0,0,0,0,0,0,0,0,-1,1644,1114,0,0
427,-90,0,0,0,0,0,0,0,0,0,-1,1651,1114,0,0
434,-90,0,0,0,0,0,0,0,0,0,-1,1658,1114,0,0
441,-90,0,0,0,0,0,0,0,0,0,-1,1665,1114,0,0
448,-90,0,0,0,0,0,0,0,0,0,-1,1672,1114,0,0
455,-90,0,0,0,0,0,0,0,0,0,-1,1679,1114,0,0
462,-90,0,0,0,0,0,0,0,0,0,-1,1686,1114,0,0
469,-90,0,0,0,0,0,0,0,0,0,-1,1693,1114,0,0
476,-90,0,0,0,0,0,0,0,0,0,-1,1700,1114,0,0
483,-90,0,0,0,0,0,0,0,0,0,-1,1707,1114,0,0
490,-90,0,0,0,0,0,0,0,0,0,-1,1714,1114,0,0
497,-90,0,0,0,0,0,0,0,0,0,-1,1721,1114,0,0
504,-90,0,0,0,0,0,0,0,0,0,-1,1728,1114,0,0
511,-90,0,0,0,0,0,0,0,0,0,-1,1735,1114,0,0
518,-90,0,0,0,0,0,0,0,0,0,-1,1742,1114,0,0
525,-90,0,0,0,0,0,0,0,0,0,-1,1749,1114,0,0
532,-90,0,0,0,0,0,0,0,0,0,-1,1756,1114,0,0
539,-90,0,0,0,0,0,0,0,0,0,-1,1763,1114,0,0
546,-90,0,0,0,0,0,0,0,0,0,-1,1770,1114,0,0
553,-90,0,0,0,0,0,0,0,0,0,-1,1777,1114,0,0
560,-90,0,0,0,0,0,0,0,0,0,-1,1784,1114,0,0
567,-90,0,0,0,0,0,0,0,0,0,-1,1791,1114,0,0
574,-90,0,0,0,0,0,0,0,0,0,-1,1798,1114,0,0
581,-90,0,0,0,0,0,0,0,0,0,-1,1805,1114,0,0
588,-90,0,0,0,0,0,0,0,0,0,-1,1812,1114,0,0
595,-90,0,0,0,0,0,0,0,0,0,-1,1819,1114,0,0
602,-90,0,0,0,0,0,0,0,0,0,-1,1826,1114,0,0
609,-90,0,0,0,0,0,0,0,0,0,-1,1833,1114,0,0
616,-90,0,0,0,0,0,0,0,0,0,-1,1840,1114,0,0
623,-90,0,0,0,0,0,0,0,0,0,-1,1847,1114,0,0
630,-90,0,0,0,0,0,0,0,0,0,-1,1854,1114,0,0
637,-90,0,0,0,0,0,0,0,0,0,-1,1861,1114,0,0
644,-90,4.34863,0.48938,0.00201746,-0.0017292,-0.00107879,0.00230588,-0.00201762,-0.261243,0.00249802,0.0375367,1868,1114,4.3486,-0.489393
651,-90,4.35291,0.44397,0.00210565,-0.000561393,-0.000813505,0.0023342,-0.000789944,-0.273886,0.00187574,0.0413644,1875,1114,4.35295,-0.443943
658,-90,4.16846,0.485962,0.00200752,0.000250208,-0.000696748,0.00225025,7.48411e-06,-0.335219,0.00149768,0.0448346,1882,1114,4.16851,-0.485966
665,-90,4.10205,0.37207,0.00163428,0.000791592,-0.000498946,0.00186599,0.000559883,-0.43476,0.00110567,0.0428306,1889,1114,4.10211,-0.372098
672,-90,4.23657,0.361206,0.00114934,0.00107701,-0.000178915,0.00129571,0.000930642,-0.68567,0.000771468,0.043076,1896,1114,4.23663,-0.361169
679,-90,4.32214,0.587158,0.000658494,0.00118516,0.000122335,0.00121219,0.000631465,1.35335,0.000700063,0.0389085,1903,1114,4.3222,-0.587163
686,-90,4.32886,0.653564,0.000215802,0.00116385,0.000376433,0.00129514,8.4516e-05,1.23522,0.000836677,0.032692,1910,1114,4.32891,-0.653604
693,-90,4.31445,0.598145,-0.000144306,0.00106192,0.000579668,0.00129532,-0.00037771,1.18801,0.0010132,0.0332639,1917,1114,4.31449,-0.598186
700,-90,4.30542,0.532471,-0.00040838,0.000987648,0.00072178,0.00129372,-0.000714453,1.16973,0.00117539,0.0303618,1924,1114,4.30539,-0.53249
707,-90,4.25427,0.535889,-0.000536329,0.000839196,0.000806719,0.00121153,-0.000908666,1.13838,0.00122825,0.0221048,1931,1114,4.25422,-0.535883
714,-90,4.21069,0.616699,-0.000662506,0.000675456,0.000930258,0.0011523,-0.00113935,1.09712,0.00132309,0.031752,1938,1114,4.21075,-0.616726
721,-90,4.22559,0.733887,-0.000787262,0.000544336,0.00102784,0.00110317,-0.0013461,1.0728,0.00141641,0.0173577,1945,1114,4.22554,-0.733944
728,-90,4.19336,0.739136,-0.000842991,0.00041192,0.000810378,0.000809362,-0.00124043,1.11483,0.00119214,0.0148943,1952,1114,4.19337,-0.739143
735,-90,4.19727,0.723389,-0.00097367,0.000376499,0.000396519,0.000484336,-0.00108151,1.30526,0.000925695,0.0168865,1959,1114,4.19723,-0.723335
742,-90,4.20703,0.717285,-0.00132249,0.000647539,0.000174462,0.00066287,-0.00133782,1.48315,0.00117681,0.0159514,1966,1114,4.20703,-0.717292
749,-90,4.20081,0.705688,-0.00171229,0.00123098,0.000272018,0.00125591,-0.00173722,1.47941,0.00173552,0.0126966,1973,1114,4.20084,-0.705684
756,-90,4.21521,0.695313,-0.00191153,0.0021124,-0.000138714,0.00211718,-0.00191631,-1.53638,0.0023297,0.0130822,1980,1114,4.21518,-0.695316
763,-90,4.23425,0.675659,-0.00212448,0.00388516,-0.000820222,0.0039951,-0.00223442,-1.43756,0.00364418,0.0119354,1987,1114,4.23422,-0.675712
770,-90,4.21948,0.665527,-0.00255691,0.0057014,-0.00144286,0.00594623,-0.00280174,-1.40271,0.00515826,0.0137917,1994,1114,4.21943,-0.665541
777,-90,4.18921,0.663208,-0.00298529,0.00812186,-0.00212848,0.00851577,-0.0033792,-1.3878,0.00707779,0.0128519,2001,1114,4.18926,-0.663198
784,-90,4.18958,0.609375,-0.00327223,0.011285,-0.00298735,0.0118742,-0.00386144,-1.37606,0.00946944,0.0265302,2008,1114,4.18958,-0.609406
791,-90,4.13049,0.592163,-0.00328118,0.015323,-0.00418712,0.016222,-0.00418011,-1.35932,0.0124443,0.0433964,2015,1114,4.13054,-0.592205
798,-90,4.06531,0.586426,0,0,0,0,0,0,0,-1,2022,1114,4.06531,-0.586445
805,-90,3.49426,-0.436768,-0.00177967,0.0264801,-0.00827975,0.0287273,-0.00402684,-1.30578,0.0206253,0.0430708,2029,1114,3.49428,0.436819
812,-90,3.26184,-0.773193,0.000212456,0.0337686,-0.0117211,0.0374573,-0.00347623,-1.2659,0.0262072,0.0425196,2036,1114,3.26185,0.773156
-700,-97,0,0,0,0,0,0,0,0,0,-1,524,1121,0,0
-693,-97,0.263245,1.11267,0,0,0,0,0,0,0,-1,531,1121,0.263235,-1.11267
-686,-97,0.039978,1.03967,0,0,0,0,0,0,0,-1,538,1121,0.0399566,-1.03968
-679,-97,0.0856323,0.374023,0,0,0,0,0,0,0,-1,545,1121,0.0856428,-0.373982
-672,-97,-0.052002,0.202026,-0.0188383,-0.00320908,0.000457436,-0.0031957,-0.0188516,1.54156,0.0116496,0.0429271,552,1121,-0.051998,-0.202004
-665,-97,-0.200806,0.0396729,-0.0149111,-0.00429558,-9.09411e-05,-0.00429481,-0.0149119,-1.56223,0.00886356,0.0439891,559,1121,-0.200801,-0.0396616
-658,-97,-0.416382,0.170166,-0.0115113,-0.00439226,-0.000234055,-0.00438457,-0.011519,-1.53797,0.00671336,0.0419904,566,1121,-0.416386,-0.170195
-651,-97,-0.647705,0.53833,-0.00865102,-0.00393327,-0.00017836,-0.00392654,-0.00865775,-1.53306,0.00500575,0.0299906,573,1121,-0.647692,-0.538337
-644,-97,-0.660889,0.688965,-0.00628213,-0.00376107,-0.000133006,-0.00375407,-0.00628912,-1.51823,0.00365369,0.0110386,580,1121,-0.660891,-0.689002
-637,-97,-0.647156,0.717896,-0.00428622,-0.00314862,-0.000275642,-0.00308535,-0.00434949,-1.34517,0.00258352,0.0118648,587,1121,-0.647125,-0.717904
-630,-97,-0.628906,0.744995,-0.00258668,-0.00190631,-0.000161065,-0.00187011,-0.00262288,-1.3497,0.00155945,0.00914283,594,1121,-0.628882,-0.745032
-623,-97,-0.627319,0.751831,-0.0014027,-0.00117258,-0.000171992,-0.00108071,-0.00149457,-1.0802,0.000891062,0.0100909,601,1121,-0.627331,-0.751787
-616,-97,-0.64801,0.759644,-0.000957872,-0.000842999,-6.74552e-05,-0.00081184,-0.000989031,-1.13807,0.000608945,0.0103611,608,1121,-0.647999,-0.759597
-609,-97,-0.642761,0.783691,-0.000342046,-0.000417025,-0.000235782,-0.000140792,-0.000618279,-0.706558,0.000374191,0.0120284,615,1121,-0.642787,-0.783742
-602,-97,-0.642883,0.775513,0.000425096,-0.000250926,-0.000604878,0.000779998,-0.000605828,-0.530608,0.00080221,0.0113152,622,1121,-0.642912,-0.775523
-595,-97,-0.644653,0.765503,0.000722917,-0.000379818,-0.000885135,0.00121437,-0.000871269,-0.506848,0.00120956,0.0166315,629,1121,-0.64464,-0.765528
-588,-97,-0.67041,0.744751,0.00074372,-0.000476812,-0.000979222,0.00128727,-0.00102037,-0.506741,0.00133528,0.019401,636,1121,-0.670383,-0.744764
-581,-97,-0.687866,0.667725,0.000832046,-0.000552752,-0.000911263,0.00128412,-0.00100483,-0.460519,0.0013248,0.0269003,643,1121,-0.687862,-0.667669
-574,-97,-0.673706,0.656128,0.000961953,-0.000595351,-0.00083421,0.00132444,-0.000957841,-0.409916,0.00132333,0.0386003,650,1121,-0.673687,-0.656076
-567,-97,-0.676636,0.839966,0.00104149,-0.000608168,-0.000675493,0.00128279,-0.000849469,-0.343094,0.00123951,0.0369283,657,1121,-0.676651,-0.839988
-560,-97,-0.552917,0.880127,0.000995422,-0.000577955,-0.00040223,0.00109229,-0.000674821,-0.236321,0.00102969,0.0393485,664,1121,-0.552911,-0.880159
-553,-97,-0.402405,0.745361,0.000777731,-0.000495882,2.94518e-05,0.000778411,-0.000496563,0.0231081,0.000742078,0.0438002,671,1121,-0.402381,-0.745374
-546,-97,-0.397888,0.593262,0.000310822,-0.000365084,0.000678841,0.000731182,-0.000785443,0.55444,0.000875811,0.0429549,678,1121,-0.397893,-0.593287
-539,-97,-0.527405,0.578003,-0.000458588,-0.000196089,0.00158204,0.00126014,-0.00191482,0.826784,0.00184601,0.0389154,685,1121,-0.527375,-0.577964
-532,-97,-0.594666,0.656372,-0.00161018,-2.35231e-06,0.00267066,0.00198277,-0.0035953,0.931593,0.00326505,0.0366881,692,1121,-0.594694,-0.656423
-525,-97,0,0,0,0,0,0,0,0,0,-1,699,1121,0,0
-518,-97,0,0,0,0,0,0,0,0,0,-1,706,1121,0,0
-511,-97,0,0,0,0,0,0,0,0,0,-1,713,1121,0,0
-504,-97,0,0,0,0,0,0,0,0,0,-1,720,1121,0,0
-497,-97,0,0,0,0,0,0,0,0,0,-1,727,1121,0,0
-490,-97,0,0,0,0,0,0,0,0,0,-1,734,1121,0,0
-483,-97,0,0,0,0,0,0,0,0,0,-1,741,1121,0,0
-476,-97,0,0,0,0,0,0,0,0,0,-1,748,1121,0,0
-469,-97,0,0,0,0,0,0,0,0,0,-1,755,1121,0,0
-462,-97,0,0,0,0,0,0,0,0,0,-1,762,1121,0,0
-455,-97,0,0,0,0,0,0,0,0,0,-1,769,1121,0,0
-448,-97,0,0,0,0,0,0,0,0,0,-1,776,1121,0,0
-441,-97,0,0,0,0,0,0,0,0,0,-1,783,1121,0,0
-434,-97,0,0,0,0,0,0,0,0,0,-1,790,1121,0,0
-427,-97,0,0,0,0,0,0,0,0,0,-1,797,1121,0,0
-420,-97,0,0,0,0,0,0,0,0,0,-1,804,1121,0,0
-413,-97,0,0,0,0,0,0,0,0,0,-1,811,1121,0,0
-406,-97,0,0,0,0,0,0,0,0,0,-1,818,1121,0,0
-399,-97,0,0,0,0,0,0,0,0,0,-1,825,1121,0,0
-392,-97,0,0,0,0,0,0,0,0,0,-1,832,1121,0,0
-385,-97,0,0,0,0,0,0,0,0,0,-1,839,1121,0,0
-378,-97,0,0,0,0,0,0,0,0,0,-1,846,1121,0,0
-371,-97,0,0,0,0,0,0,0,0,0,-1,853,1121,0,0
-364,-97,0,0,0,0,0,0,0,0,0,-1,860,1121,0,0
-357,-97,0,0,0,0,0,0,0,0,0,-1,867,1121,0,0
-350,-97,0,0,0,0,0,0,0,0,0,-1,874,1121,0,0
-343,-97,0,0,0,0,0,0,0,0,0,-1,881,1121,0,0
-336,-97,0,0,0,0,0,0,0,0,0,-1,888,1121,0,0
-329,-97,0,0,0,0,0,0,0,0,0,-1,895,1121,0,0
-322,-97,0,0,0,0,0,0,0,0,0,-1,902,1121,0,0
-315,-97,0,0,0,0,0,0,0,0,0,-1,909,1121,0,0
-308,-97,0,0,0,0,0,0,0,0,0,-1,916,1121,0,0
-301,-97,0,0,0,0,0,0,0,0,0,-1,923,1121,0,0
-294,-97,0,0,0,0,0,0,0,0,0,-1,930,1121,0,0
-287,-97,0,0,0,0,0,0,0,0,0,-1,937,1121,0,0
-280,-97,0,0,0,0,0,0,0,0,0,-1,944,1121,0,0
-273,-97,0,0,0,0,0,0,0,0,0,-1,951,1121,0,0
-266,-97,0,0,0,0,0,0,0,0,0,-1,958,1121,0,0
-259,-97,0,0,0,0,0,0,0,0,0,-1,965,1121,0,0
-252,-97,0,0,0,0,0,0,0,0,0,-1,972,1121,0,0
-245,-97,0,0,0,0,0,0,0,0,0,-1,979,1121,0,0
-238,-97,0,0,0,0,0,0,0,0,0,-1,986,1121,0,0
-231,-97,0,0,0,0,0,0,0,0,0,-1,993,1121,0,0
-224,-97,0,0,0,0,0,0,0,0,0,-1,1000,1121,0,0
-217,-97,0,0,0,0,0,0,0,0,0,-1,1007,1121,0,0
-210,-97,0,0,0,0,0,0,0,0,0,-1,1014,1121,0,0
-203,-97,0,0,0,0,0,0,0,0,0,-1,1021,1121,0,0
-196,-97,0,0,0,0,0,0,0,0,0,-1,1028,1121,0,0
-189,-97,0,0,0,0,0,0,0,0,0,-1,1035,1121,0,0
-182,-97,0,0,0,0,0,0,0,0,0,-1,1042,1121,0,0
-175,-97,0,0,0,0,0,0,0,0,0,-1,1049,1121,0,0
-168,-97,0,0,0,0,0,0,0,0,0,-1,1056,1121,0,0
-161,-97,0,0,0,0,0,0,0,0,0,-1,1063,1121,0,0
-154,-97,0,0,0,0,0,0,0,0,0,-1,1070,1121,0,0
-147,-97,0,0,0,0,0,0,0,0,0,-1,1077,1121,0,0
-140,-97,0,0,0,0,0,0,0,0,0,-1,1084,1121,0,0
-133,-97,0,0,0,0,0,0,0,0,0,-1,1091,1121,0,0
-126,-97,0,0,0,0,0,0,0,0,0,-1,1098,1121,0,0
-119,-97,0,0,0,0,0,0,0,0,0,-1,1105,1121,0,0
-112,-97,0,0,0,0,0,0,0,0,0,-1,1112,1121,0,0
-105,-97,0,0,0,0,0,0,0,0,0,-1,1119,1121,0,0
-98,-97,0,0,0,0,0,0,0,0,0,-1,1126,1121,0,0
-91,-97,0,0,0,0,0,0,0,0,0,-1,1133,1121,0,0
-84,-97,0,0,0,0,0,0,0,0,0,-1,1140,1121,0,0
-77,-97,0,0,0,0,0,0,0,0,0,-1,1147,1121,0,0
-70,-97,0,0,0,0,0,0,0,0,0,-1,1154,1121,0,0
-63,-97,0,0,0,0,0,0,0,0,0,-1,1161,1121,0,0
-56,-97,0,0,0,0,0,0,0,0,0,-1,1168,1121,0,0
-49,-97,0,0,0,0,0,0,0,0,0,-1,1175,1121,0,0
-42,-97,0,0,0,0,0,0,0,0,0,-1,1182,1121,0,0
-35,-97,0,0,0,0,0,0,0,0,0,-1,1189,1121,0,0
-28,-97,0,0,0,0,0,0,0,0,0,-1,1196,1121,0,0
-21,-97,0,0,0,0,0,0,0,0,0,-1,1203,1121,0,0
-14,-97,0,0,0,0,0,0,0,0,0,-1,1210,1121,0,0
-7,-97,0,0,0,0,0,0,0,0,0,-1,1217,1121,0,0
0,-97,0,0,0,0,0,0,0,0,0,-1,1224,1121,0,0
7,-97,0,0,0,0,0,0,0,0,0,-1,1231,1121,0,0
14,-97,0,0,0,0,0,0,0,0,0,-1,1238,1121,0,0
21,-97,0,0,0,0,0,0,0,0,0,-1,1245,1121,0,0
28,-97,0,0,0,0,0,0,0,0,0,-1,1252,1121,0,0
35,-97,0,0,0,0,0,0,0,0,0,-1,1259,1121,0,0
42,-97,0,0,0,0,0,0,0,0,0,-1,1266,1121,0,0
49,-97,0,0,0,0,0,0,0,0,0,-1,1273,1121,0,0
56,-97,0,0,0,0,0,0,0,0,0,-1,1280,1121,0,0
63,-97,0,0,0,0,0,0,0,0,0,-1,1287,1121,0,0
70,-97,0,0,0,0,0,0,0,0,0,-1,1294,1121,0,0
77,-97,0,0,0,0,0,0,0,0,0,-1,1301,1121,0,0
84,-97,0,0,0,0,0,0,0,0,0,-1,1308,1121,0,0
91,-97,0,0,0,0,0,0,0,0,0,-1,1315,1121,0,0
98,-97,0,0,0,0,0,0,0,0,0,-1,1322,1121,0,0
105,-97,0,0,0,0,0,0,0,0,0,-1,1329,1121,0,0
112,-97,0,0,0,0,0,0,0,0,0,-1,1336,1121,0,0
119,-97,0,0,0,0,0,0,0,0,0,-1,1343,1121,0,0
126,-97,0,0,0,0,0,0,0,0,0,-1,1350,1121,0,0
133,-97,0,0,0,0,0,0,0,0,0,-1,1357,1121,0,0
140,-97,0,0,0,0,0,0,0,0,0,-1,1364,1121,0,0
147,-97,0,0,0,0,0,0,0,0,0,-1,1371,1121,0,0
154,-97,0,0,0,0,0,0,0,0,0,-1,1378,1121,0,0
161,-97,0,0,0,0,0,0,0,0,0,-1,1385,1121,0,0
168,-97,0,0,0,0,0,0,0,0,0,-1,1392,1121,0,0
175,-97,0,0,0,0,0,0,0,0,0,-1,1399,1121,0,0
182,-97,0,0,0,0,0,0,0,0,0,-1,1406,1121,0,0
189,-97,0,0,0,0,0,0,0,0,0,-1,1413,1121,0,0
196,-97,0,0,0,0,0,0,0,0,0,-1,1420,1121,0,0
203,-97,0,0,0,0,0,0,0,0,0,-1,1427,1121,0,0
210,-97,0,0,0,0,0,0,0,0,0,-1,1434,1121,0,0
217,-97,0,0,0,0,0,0,0,0,0,-1,1441,1121,0,0
224,-97,0,0,0,0,0,0,0,0,0,-1,1448,1121,0,0
231,-97,0,0,0,0,0,0,0,0,0,-1,1455,1121,0,0
238,-97,0,0,0,0,0,0,0,0,0,-1,1462,1121,0,0
245,-97,0,0,0,0,0,0,0,0,0,-1,1469,1121,0,0
252,-97,0,0,0,0,0,0,0,0,0,-1,1476,1121,0,0
259,-97,0,0,0,0,0,0,0,0,0,-1,1483,1121,0,0
266,-97,0,0,0,0,0,0,0,0,0,-1,1490,1121,0,0
273,-97,0,0,0,0,0,0,0,0,0,-1,1497,1121,0,0
280,-97,0,0,0,0,0,0,0,0,0,-1,1504,1121,0,0
287,-97,0,0,0,0,0,0,0,0,0,-1,1511,1121,0,0
294,-97,0,0,0,0,0,0,0,0,0,-1,1518,1121,0,0
301,-97,0,0,0,0,0,0,0,0,0,-1,1525,1121,0,0
308,-97,0,0,0,0,0,0,0,0,0,-1,1532,1121,0,0
315,-97,0,0,0,0,0,0,0,0,0,-1,1539,1121,0,0
322,-97,0,0,0,0,0,0,0,0,0,-1,1546,1121,0,0
329,-97,0,0,0,0,0,0,0,0,0,-1,1553,1121,0,0
336,-97,0,0,0,0,0,0,0,0,0,-1,1560,1121,0,0
343,-97,0,0,0,0,0,0,0,0,0,-1,1567,1121,0,0
350,-97,0,0,0,0,0,0,0,0,0,-1,1574,1121,0,0
357,-97,0,0,0,0,0,0,0,0,0,-1,1581,1121,0,0
364,-97,0,0,0,0,0,0,0,0,0,-1,1588,1121,0,0
371,-97,0,0,0,0,0,0,0,0,0,-1,1595,1121,0,0
378,-97,0,0,0,0,0,0,0,0,0,-1,1602,1121,0,0
385,-97,0,0,0,0,0,0,0,0,0,-1,1609,1121,0,0
392,-97,0,0,0,0,0,0,0,0,0,-1,1616,1121,0,0
399,-97,0,0,0,0,0,0,0,0,0,-1,1623,1121,0,0
406,-97,0,0,0,0,0,0,0,0,0,-1,1630,1121,0,0
413,-97,0,0,0,0,0,0,0,0,0,-1,1637,1121,0,0
420,-97,0,0,0,0,0,0,0,0,0,-1,1644,1121,0,0
427,-97,0,0,0,0,0,0,0,0,0,-1,1651,1121,0,0
434,-97,0,0,0,0,0,0,0,0,0,-1,1658,1121,0,0
441,-97,0,0,0,0,0,0,0,0,0,-1,1665,1121,0,0
448,-97,0,0,0,0,0,0,0,0,0,-1,1672,1121,0,0
455,-97,0,0,0,0,0,0,0,0,0,-1,1679,1121,0,0
462,-97,0,0,0,0,0,0,0,0,0,-1,1686,1121,0,0
469,-97,0,0,0,0,0,0,0,0,0,-1,1693,1121,0,0
476,-97,0,0,0,0,0,0,0,0,0,-1,1700,1121,0,0
483,-97,0,0,0,0,0,0,0,0,0,-1,1707,1121,0,0
490,-97,0,0,0,0,0,0,0,0,0,-1,1714,1121,0,0
497,-97,0,0,0,0,0,0,0,0,0,-1,1721,1121,0,0
504,-97,0,0,0,0,0,0,0,0,0,-1,1728,1121,0,0
511,-97,0,0,0,0,0,0,0,0,0,-1,1735,1121,0,0
518,-97,0,0,0,0,0,0,0,0,0,-1,1742,1121,0,0
525,-97,0,0,0,0,0,0,0,0,0,-1,1749,1121,0,0
532,-97,0,0,0,0,0,0,0,0,0,-1,1756,1121,0,0
539,-97,0,0,0,0,0,0,0,0,0,-1,1763,1121,0,0
546,-97,0,0,0,0,0,0,0,0,0,-1,1770,1121,0,0
553,-97,0,0,0,0,0,0,0,0,0,-1,1777,1121,0,0
560,-97,0,0,0,0,0,0,0,0,0,-1,1784,1121,0,0
567,-97,0,0,0,0,0,0,0,0,0,-1,1791,1121,0,0
574,-97,0,0,0,0,0,0,0,0,0,-1,1798,1121,0,0
581,-97,0,0,0,0,0,0,0,0,0,-1,1805,1121,0,0
588,-97,0,0,0,0,0,0,0,0,0,-1,1812,1121,0,0
595,-97,0,0,0,0,0,0,0,0,0,-1,1819,1121,0,0
602,-97,0,0,0,0,0,0,0,0,0,-1,1826,1121,0,0
609,-97,0,0,0,0,0,0,0,0,0,-1,1833,1121,0,0
616,-97,0,0,0,0,0,0,0,0,0,-1,1840,1121,0,0
623,-97,0,0,0,0,0,0,0,0,0,-1,1847,1121,0,0
630,-97,0,0,0,0,0,0,0,0,0,-1,1854,1121,0,0
637,-97,0,0,0,0,0,0,0,0,0,-1,1861,1121,0,0
644,-97,4.22705,0.530151,0.00215279,-0.00203359,-0.00160727,0.00269869,-0.00257948,-0.327416,0.00304761,0.0396953,1868,1121,4.22702,-0.530098
651,-97,4.22131,0.43689,0.00215317,-0.000815455,-0.00131527,0.00265206,-0.00131435,-0.362545,0.00233302,0.0379355,1875,1121,4.22126,-0.436896
658,-97,4.18079,0.501953,0.0019776,1.84264e-05,-0.00110484,0.00247459,-0.000478561,-0.422709,0.00183022,0.0380756,1882,1121,4.18084,-0.501946
665,-97,4.31799,0.532593,0.00152444,0.000553464,-0.000787827,0.00196435,0.000113549,-0.509262,0.00127341,0.0416389,1889,1121,4.31798,-0.532549
672,-97,4.35193,0.341919,0.000974661,0.00082632,-0.000364553,0.00127251,0.000528468,-0.68504,0.000738191,0.0431089,1896,1121,4.35194,-0.341925
679,-97,4.33716,0.650757,0.00044488,0.000923845,2.06609e-05,0.000924735,0.00044399,1.52777,0.000534037,0.0400977,1903,1121,4.33719,-0.650789
686,-97,4.30957,0.636475,-2.13769e-05,0.000895426,0.000342596,0.0010093,-0.000135255,1.24989,0.000722189,0.0344976,1910,1121,4.30958,-0.636514
693,-97,4.28564,0.494385,-0.000384174,0.000811536,0.000586357,0.00105108,-0.000623723,1.18295,0.000977388,0.0329976,1917,1121,4.28565,-0.494432
700,-97,4.27234,0.557373,-0.000640801,0.000735855,0.000764994,0.00107661,-0.000981556,1.15175,0.00118871,0.0274574,1924,1121,4.27232,-0.557314
707,-97,4.23938,0.581543,-0.000770088,0.000596749,0.000879508,0.00102715,-0.00120049,1.11569,0.00128743,0.0194292,1931,1121,4.23939,-0.581568
714,-97,4.21069,0.661011,-0.000877821,0.000445414,0.00100961,0.000990879,-0.00142329,1.07545,0.00140125,0.0291029,1938,1121,4.21074,-0.661046
721,-97,4.22937,0.75647,-0.000969409,0.000326881,0.00110715,0.000961648,-0.00160418,1.05021,0.00149678,0.0176847,1945,1121,4.22934,-0.756424
728,-97,4.20618,0.739868,-0.000980032,0.00022402,0.000868808,0.000679001,-0.00143501,1.08838,0.00124627,0.0168762,1952,1121,4.20622,-0.73986
735,-97,4.19202,0.722778,-0.00105269,0.000211626,0.000388606,0.000321518,-0.00116258,1.29521,0.000901546,0.0173125,1959,1121,4.192,-0.722757
742,-97,4.20886,0.701904,-0.00137483,0.000481,9.34898e-05,0.000485698,-0.00137953,1.52059,0.00111735,0.0154889,1966,1121,4.20884,-0.701917
749,-97,4.2135,0.678467,-0.00186549,0.00107481,2.87831e-05,0.0010751,-0.00186577,1.56101,0.00171824,0.0172006,1973,1121,4.21346,-0.678449
756,-97,4.20447,0.660522,-0.00221915,0.00193099,-0.000553688,0.00200359,-0.00229175,-1.44042,0.00248177,0.0142579,1980,1121,4.20445,-0.660576
763,-97,4.21716,0.652832,-0.00266846,0.00333689,-0.00142608,0.00365833,-0.00298991,-1.3491,0.00384482,0.0117577,1987,1121,4.21715,-0.652849
770,-97,4.20251,0.649536,-0.00339206,0.0048792,-0.00228497,0.00546845,-0.00398132,-1.31841,0.0054783,0.00967249,1994,1121,4.20248,-0.649587
777,-97,4.20215,0.643066,-0.00424936,0.00687877,-0.00326849,0.00776776,-0.00513835,-1.30523,0.00750271,0.0127778,2001,1121,4.2021,-0.643045
784,-97,4.22522,0.615112,-0.00511849,0.00942421,-0.00449969,0.0107039,-0.00639815,-1.29372,0.00997762,0.0326091,2008,1121,4.22528,-0.615169
791,-97,4.11658,0.577271,-0.00589318,0.0125725,-0.00614414,0.01443,-0.00775069,-1.27721,0.0129981,0.043583,2015,1121,4.11663,-0.577248
798,-97,3.89978,0.663696,-0.00644916,0.0163411,-0.00835358,0.0190751,-0.00918312,-1.2545,0.0166447,0.0447854,2022,1121,3.89981,-0.663715
805,-97,3.48267,0.565186,-0.00661584,0.0206898,-0.0113511,0.0247922,-0.0107182,-1.224,0.0210318,0.0428327,2029,1121,3.48266,-0.565128
812,-97,3.33496,0.481934,-0.0061399,0.0254464,-0.0154536,0.0317493,-0.0124428,-1.18353,0.0263134,0.0467089,2036,1121,3.33502,-0.481908
-700,-104,0,0,0,0,0,0,0,0,0,-1,524,1128,0,0
-693,-104,0.313904,0.858276,-0.0288563,0.0186988,0.015205,0.0231447,-0.0333022,1.28633,0.032765,0.0483838,531,1128,0.313897,-0.858309
-686,-104,-0.0349121,0.871338,-0.0251287,0.00851381,0.00940589,0.010965,-0.0275799,1.31587,0.0229327,0.0479129,538,1128,-0.0349144,-0.871356
-679,-104,-0.409912,0.308594,0,0,0,0,0,0,0,-1,545,1128,-0.409902,-0.30864
-672,-104,-0.229248,0.503906,-0.0173302,-0.000531176,0.00374848,0.000267295,-0.0181286,1.36092,0.0121758,0.0435521,552,1128,-0.229244,-0.5039
-665,-104,-0.229492,0.554443,-0.0138536,-0.00204681,0.00247209,-0.00155011,-0.0143503,1.37251,0.00909433,0.0412979,559,1128,-0.229484,-0.554392
-658,-104,-0.321777,0.614746,-0.010784,-0.00251893,0.00173486,-0.00216955,-0.0111334,1.37207,0.0068152,0.0411542,566,1128,-0.321752,-0.614726
-651,-104,-0.593811,0.520386,-0.00816233,-0.00239786,0.00130616,-0.00211571,-0.00844448,1.35805,0.00507366,0.0344607,573,1128,-0.593791,-0.520326
-644,-104,-0.667358,0.688354,-0.00595888,-0.00244004,0.000964005,-0.00219325,-0.00620567,1.32018,0.0036338,0.014177,580,1128,-0.667373,-0.688392
-637,-104,-0.638245,0.718262,-0.00412945,-0.00215395,0.000502718,-0.00203338,-0.00425002,1.3354,0.00245451,0.0103862,587,1128,-0.638249,-0.718254
-630,-104,-0.638733,0.743408,-0.00261216,-0.00122136,0.000350749,-0.00113791,-0.00269561,1.33722,0.00156259,0.0111239,594,1128,-0.63871,-0.743371
-623,-104,-0.652283,0.755127,-0.00149489,-0.000712007,9.45623e-05,-0.000700747,-0.00150615,1.45228,0.000870273,0.0142914,601,1128,-0.652277,-0.75517
-616,-104,-0.646667,0.741211,-0.00101823,-0.000534176,7.65897e-05,-0.000522346,-0.00103006,1.41756,0.000594727,0.0145354,608,1128,-0.646661,-0.741246
-609,-104,-0.630676,0.752808,-0.000358509,-0.000372428,-0.000231629,-0.000133735,-0.000597202,-0.770379,0.000361889,0.0160477,615,1128,-0.630705,-0.752846
-602,-104,-0.622375,0.765747,0.000402313,-0.000243499,-0.00063025,0.000787562,-0.000628748,-0.548661,0.000819419,0.0138747,622,1128,-0.622385,-0.765758
-595,-104,-0.630981,0.773193,0.000703994,-0.000362458,-0.000920623,0.00123466,-0.000893129,-0.522905,0.00123375,0.0146574,629,1128,-0.631006,-0.773157
-588,-104,-0.666687,0.712769,0.000703178,-0.000456437,-0.00102264,0.00129894,-0.0010522,-0.527508,0.00135992,0.0194426,636,1128,-0.666715,-0.712719
-581,-104,-0.67865,0.721191,0.00077551,-0.000508793,-0.000971206,0.00129766,-0.00103094,-0.493298,0.00134736,0.0285049,643,1128,-0.67868,-0.721144
-574,-104,-0.674988,0.742065,0.000928849,-0.000496673,-0.000922841,0.00138213,-0.000949958,-0.45657,0.00135412,0.0393586,650,1128,-0.674964,-0.742064
-567,-104,-0.635559,0.853149,0.00102017,-0.000458373,-0.00078224,0.00135719,-0.000795402,-0.406816,0.00125683,0.0370315,657,1128,-0.635578,-0.853193
-560,-104,-0.568359,0.897827,0.000983898,-0.000362537,-0.00052691,0.00116558,-0.00054422,-0.332043,0.00100865,0.0410157,664,1128,-0.568388,-0.897802
-553,-104,-0.561401,0.784668,0.00077567,-0.000204436,-0.000115242,0.000789038,-0.000217804,-0.115483,0.000611692,0.0477787,671,1128,-0.561411,-0.784638
-546,-104,-0.535461,0.680298,0.000321903,1.11126e-05,0.000512623,0.000702166,-0.000369151,0.638232,0.000628407,0.0447279,678,1128,-0.535461,-0.68027
-539,-104,-0.581848,0.582153,-0.000431439,0.000272256,0.001386,0.00135037,-0.00150955,0.909702,0.00165203,0.0360725,685,1128,-0.581874,-0.582133
-532,-104,-0.619934,0.717529,-0.00156021,0.000556247,0.00243519,0.0021532,-0.00315716,0.990367,0.00308415,0.0360484,692,1128,-0.619952,-0.717547
-525,-104,-0.651794,0.840942,-0.00320843,0.000811874,0.00361852,0.0029411,-0.00533766,1.03893,0.00484604,0.035447,699,1128,-0.651781,-0.840918
-518,-104,0,0,0,0,0,0,0,0,0,-1,706,1128,0,0
-511,-104,0,0,0,0,0,0,0,0,0,-1,713,1128,0,0
-504,-104,0,0,0,0,0,0,0,0,0,-1,720,1128,0,0
-497,-104,0,0,0,0,0,0,0,0,0,-1,727,1128,0,0
-490,-104,0,0,0,0,0,0,0,0,0,-1,734,1128,0,0
-483,-104,0,0,0,0,0,0,0,0,0,-1,741,1128,0,0
-476,-104,0,0,0,0,0,0,0,0,0,-1,748,1128,0,0
-469,-104,0,0,0,0,0,0,0,0,0,-1,755,1128,0,0
-462,-104,0,0,0,0,0,0,0,0,0,-1,762,1128,0,0
-455,-104,0,0,0,0,0,0,0,0,0,-1,769,1128,0,0
-448,-104,0,0,0,0,0,0,0,0,0,-1,776,1128,0,0
-441,-104,0,0,0,0,0,0,0,0,0,-1,783,1128,0,0
-434,-104,0,0,0,0,0,0,0,0,0,-1,790,1128,0,0
-427,-104,0,0,0,0,0,0,0,0,0,-1,797,1128,0,0
-420,-104,0,0,0,0,0,0,0,0,0,-1,804,1128,0,0
-413,-104,0,0,0,0,0,0,0,0,0,-1,811,1128,0,0
-406,-104,0,0,0,0,0,0,0,0,0,-1,818,1128,0,0
-399,-104,0,0,0,0,0,0,0,0,0,-1,825,1128,0,0
-392,-104,0,0,0,0,0,0,0,0,0,-1,832,1128,0,0
-385,-104,0,0,0,0,0,0,0,0,0,-1,839,1128,0,0
-378,-104,0,0,0,0,0,0,0,0,0,-1,846,1128,0,0
-371,-104,0,0,0,0,0,0,0,0,0,-1,853,1128,0,0
-364,-104,0,0,0,0,0,0,0,0,0,-1,860,1128,0,0
-357,-104,0,0,0,0,0,0,0,0,0,-1,867,1128,0,0
-350,-104,0,0,0,0,0,0,0,0,0,-1,874,1128,0,0
-343,-104,0,0,0,0,0,0,0,0,0,-1,881,1128,0,0
-336,-104,0,0,0,0,0,0,0,0,0,-1,888,1128,0,0
-329,-104,0,0,0,0,0,0,0,0,0,-1,895,1128,0,0
-322,-104,0,0,0,0,0,0,0,0,0,-1,902,1128,0,0
-315,-104,0,0,0,0,0,0,0,0,0,-1,909,1128,0,0
-308,-104,0,0,0,0,0,0,0,0,0,-1,916,1128,0,0
-301,-104,0,0,0,0,0,0,0,0,0,-1,923,1128,0,0
-294,-104,0,0,0,0,0,0,0,0,0,-1,930,1128,0,0
-287,-104,0,0,0,0,0,0,0,0,0,-1,937,1128,0,0
-280,-104,0,0,0,0,0,0,0,0,0,-1,944,1128,0,0
-273,-104,0,0,0,0,0,0,0,0,0,-1,951,1128,0,0
-266,-104,0,0,0,0,0,0,0,0,0,-1,958,1128,0,0
-259,-104,0,0,0,0,0,0,0,0,0,-1,965,1128,0,0
-252,-104,0,0,0,0,0,0,0,0,0,-1,972,1128,0,0
-245,-104,0,0,0,0,0,0,0,0,0,-1,979,1128,0,0
-238,-104,0,0,0,0,0,0,0,0,0,-1,986,1128,0,0
-231,-104,0,0,0,0,0,0,0,0,0,-1,993,1128,0,0
-224,-104,0,0,0,0,0,0,0,0,0,-1,1000,1128,0,0
-217,-104,0,0,0,0,0,0,0,0,0,-1,1007,1128,0,0
-210,-104,0,0,0,0,0,0,0,0,0,-1,1014,1128,0,0
-203,-104,0,0,0,0,0,0,0,0,0,-1,1021,1128,0,0
-196,-104,0,0,0,0,0,0,0,0,0,-1,1028,1128,0,0
-189,-104,0,0,0,0,0,0,0,0,0,-1,1035,1128,0,0
-182,-104,0,0,0,0,0,0,0,0,0,-1,1042,1128,0,0
-175,-104,0,0,0,0,0,0,0,0,0,-1,1049,1128,0,0
-168,-104,0,0,0,0,0,0,0,0,0,-1,1056,1128,0,0
-161,-104,0,0,0,0,0,0,0,0,0,-1,1063,1128,0,0
-154,-104,0,0,0,0,0,0,0,0,0,-1,1070,1128,0,0
-147,-104,0,0,0,0,0,0,0,0,0,-1,1077,1128,0,0
-140,-104,0,0,0,0,0,0,0,0,0,-1,1084,1128,0,0
-133,-104,0,0,0,0,0,0,0,0,0,-1,1091,1128,0,0
-126,-104,0,0,0,0,0,0,0,0,0,-1,1098,1128,0,0
-119,-104,0,0,0,0,0,0,0,0,0,-1,1105,1128,0,0
-112,-104,0,0,0,0,0,0,0,0,0,-1,1112,1128,0,0
-105,-104,0,0,0,0,0,0,0,0,0,-1,1119,1128,0,0
-98,-104,0,0,0,0,0,0,0,0,0,-1,1126,1128,0,0
-91,-104,0,0,0,0,0,0,0,0,0,-1,1133,1128,0,0
-84,-104,0,0,0,0,0,0,0,0,0,-1,1140,1128,0,0
-77,-104,0,0,0,0,0,0,0,0,0,-1,1147,1128,0,0
-70,-104,0,0,0,0,0,0,0,0,0,-1,1154,1128,0,0
-63,-104,0,0,0,0,0,0,0,0,0,-1,1161,1128,0,0
-56,-104,0,0,0,0,0,0,0,0,0,-1,1168,1128,0,0
-49,-104,0,0,0,0,0,0,0,0,0,-1,1175,1128,0,0
-42,-104,0,0,0,0,0,0,0,0,0,-1,1182,1128,0,0
-35,-104,0,0,0,0,0,0,0,0,0,-1,1189,1128,0,0
-28,-104,0,0,0,0,0,0,0,0,0,-1,1196,1128,0,0
-21,-104,0,0,0,0,0,0,0,0,0,-1,1203,1128,0,0
-14,-104,0,0,0,0,0,0,0,0,0,-1,1210,1128,0,0
-7,-104,0,0,0,0,0,0,0,0,0,-1,1217,1128,0,0
0,-104,0,0,0,0,0,0,0,0,0,-1,1224,1128,0,0
7,-104,0,0,0,0,0,0,0,0,0,-1,1231,1128,0,0
14,-104,0,0,0,0,0,0,0,0,0,-1,1238,1128,0,0
21,-104,0,0,0,0,0,0,0,0,0,-1,1245,1128,0,0
28,-104,0,0,0,0,0,0,0,0,0,-1,1252,1128,0,0
35,-104,0,0,0,0,0,0,0,0,0,-1,1259,1128,0,0
42,-104,0,0,0,0,0,0,0,0,0,-1,1266,1128,0,0
49,-104,0,0,0,0,0,0,0,0,0,-1,1273,1128,0,0
56,-104,0,0,0,0,0,0,0,0,0,-1,1280,1128,0,0
63,-104,0,0,0,0,0,0,0,0,0,-1,1287,1128,0,0
70,-104,0,0,0,0,0,0,0,0,0,-1,1294,1128,0,0
77,-104,0,0,0,0,0,0,0,0,0,-1,1301,1128,0,0
84,-104,0,0,0,0,0,0,0,0,0,-1,1308,1128,0,0
91,-104,0,0,0,0,0,0,0,0,0,-1,1315,1128,0,0
98,-104,0,0,0,0,0,0,0,0,0,-1,1322,1128,0,0
105,-104,0,0,0,0,0,0,0,0,0,-1,1329,1128,0,0
112,-104,0,0,0,0,0,0,0,0,0,-1,1336,1128,0,0
119,-104,0,0,0,0,0,0,0,0,0,-1,1343,1128,0,0
126,-104,0,0,0,0,0,0,0,0,0,-1,1350,1128,0,0
133,-104,0,0,0,0,0,0,0,0,0,-1,1357,1128,0,0
140,-104,0,0,0,0,0,0,0,0,0,-1,1364,1128,0,0
147,-104,0,0,0,0,0,0,0,0,0,-1,1371,1128,0,0
154,-104,0,0,0,0,0,0,0,0,0,-1,1378,1128,0,0
161,-104,0,0,0,0,0,0,0,0,0,-1,1385,1128,0,0
168,-104,0,0,0,0,0,0,0,0,0,-1,1392,1128,0,0
175,-104,0,0,0,0,0,0,0,0,0,-1,1399,1128,0,0
182,-104,0,0,0,0,0,0,0,0,0,-1,1406,1128,0,0
189,-104,0,0,0,0,0,0,0,0,0,-1,1413,1128,0,0
196,-104,0,0,0,0,0,0,0,0,0,-1,1420,1128,0,0
203,-104,0,0,0,0,0,0,0,0,0,-1,1427,1128,0,0
210,-104,0,0,0,0,0,0,0,0,0,-1,1434,1128,0,0
217,-104,0,0,0,0,0,0,0,0,0,-1,1441,1128,0,0
224,-104,0,0,0,0,0,0,0,0,0,-1,1448,1128,0,0
231,-104,0,0,0,0,0,0,0,0,0,-1,1455,1128,0,0
238,-104,0,0,0,0,0,0,0,0,0,-1,1462,1128,0,0
245,-104,0,0,0,0,0,0,0,0,0,-1,1469,1128,0,0
252,-104,0,0,0,0,0,0,0,0,0,-1,1476,1128,0,0
259,-104,0,0,0,0,0,0,0,0,0,-1,1483,1128,0,0
266,-104,0,0,0,0,0,0,0,0,0,-1,1490,1128,0,0
273,-104,0,0,0,0,0,0,0,0,0,-1,1497,1128,0,0
280,-104,0,0,0,0,0,0,0,0,0,-1,1504,1128,0,0
287,-104,0,0,0,0,0,0,0,0,0,-1,1511,1128,0,0
294,-104,0,0,0,0,0,0,0,0,0,-1,1518,1128,0,0
301,-104,0,0,0,0,0,0,0,0,0,-1,1525,1128,0,0
308,-104,0,0,0,0,0,0,0,0,0,-1,1532,1128,0,0
315,-104,0,0,0,0,0,0,0,0,0,-1,1539,1128,0,0
322,-104,0,0,0,0,0,0,0,0,0,-1,1546,1128,0,0
329,-104,0,0,0,0,0,0,0,0,0,-1,1553,1128,0,0
336,-104,0,0,0,0,0,0,0,0,0,-1,1560,1128,0,0
343,-104,0,0,0,0,0,0,0,0,0,-1,1567,1128,0,0
350,-104,0,0,0,0,0,0,0,0,0,-1,1574,1128,0,0
357,-104,0,0,0,0,0,0,0,0,0,-1,1581,1128,0,0
364,-104,0,0,0,0,0,0,0,0,0,-1,1588,1128,0,0
371,-104,0,0,0,0,0,0,0,0,0,-1,1595,1128,0,0
378,-104,0,0,0,0,0,0,0,0,0,-1,1602,1128,0,0
385,-104,0,0,0,0,0,0,0,0,0,-1,1609,1128,0,0
392,-104,0,0,0,0,0,0,0,0,0,-1,1616,1128,0,0
399,-104,0,0,0,0,0,0,0,0,0,-1,1623,1128,0,0
406,-104,0,0,0,0,0,0,0,0,0,-1,1630,1128,0,0
413,-104,0,0,0,0,0,0,0,0,0,-1,1637,1128,0,0
420,-104,0,0,0,0,0,0,0,0,0,-1,1644,1128,0,0
427,-104,0,0,0,0,0,0,0,0,0,-1,1651,1128,0,0
434,-104,0,0,0,0,0,0,0,0,0,-1,1658,1128,0,0
441,-104,0,0,0,0,0,0,0,0,0,-1,1665,1128,0,0
448,-104,0,0,0,0,0,0,0,0,0,-1,1672,1128,0,0
455,-104,0,0,0,0,0,0,0,0,0,-1,1679,1128,0,0
462,-104,0,0,0,0,0,0,0,0,0,-1,1686,1128,0,0
469,-104,0,0,0,0,0,0,0,0,0,-1,1693,1128,0,0
476,-104,0,0,0,0,0,0,0,0,0,-1,1700,1128,0,0
483,-104,0,0,0,0,0,0,0,0,0,-1,1707,1128,0,0
490,-104,0,0,0,0,0,0,0,0,0,-1,1714,1128,0,0
497,-104,0,0,0,0,0,0,0,0,0,-1,1721,1128,0,0
504,-104,0,0,0,0,0,0,0,0,0,-1,1728,1128,0,0
511,-104,0,0,0,0,0,0,0,0,0,-1,1735,1128,0,0
518,-104,0,0,0,0,0,0,0,0,0,-1,1742,1128,0,0
525,-104,0,0,0,0,0,0,0,0,0,-1,1749,1128,0,0
532,-104,0,0,0,0,0,0,0,0,0,-1,1756,1128,0,0
539,-104,0,0,0,0,0,0,0,0,0,-1,1763,1128,0,0
546,-104,0,0,0,0,0,0,0,0,0,-1,1770,1128,0,0
553,-104,0,0,0,0,0,0,0,0,0,-1,1777,1128,0,0
560,-104,0,0,0,0,0,0,0,0,0,-1,1784,1128,0,0
567,-104,0,0,0,0,0,0,0,0,0,-1,1791,1128,0,0
574,-104,0,0,0,0,0,0,0,0,0,-1,1798,1128,0,0
581,-104,0,0,0,0,0,0,0,0,0,-1,1805,1128,0,0
588,-104,0,0,0,0,0,0,0,0,0,-1,1812,1128,0,0
595,-104,0,0,0,0,0,0,0,0,0,-1,1819,1128,0,0
602,-104,0,0,0,0,0,0,0,0,0,-1,1826,1128,0,0
609,-104,0,0,0,0,0,0,0,0,0,-1,1833,1128,0,0
616,-104,0,0,0,0,0,0,0,0,0,-1,1840,1128,0,0
623,-104,0,0,0,0,0,0,0,0,0,-1,1847,1128,0,0
630,-104,0,0,0,0,0,0,0,0,0,-1,1854,1128,0,0
637,-104,0,0,0,0,0,0,0,0,0,-1,1861,1128,0,0
644,-104,4.07751,0.672485,0.00240856,-0.00223037,-0.00216697,0.00326331,-0.00308512,-0.37571,0.00366575,0.0387232,1868,1128,4.07757,-0.672447
651,-104,4.19495,0.615723,0.00226834,-0.00092157,-0.00178805,0.00306943,-0.00172266,-0.421207,0.0028029,0.0376335,1875,1128,4.19496,-0.615705
658,-104,4.32483,0.483643,0.00197534,-7.86752e-05,-0.00145669,0.00273066,-0.000833997,-0.478353,0.00215297,0.0368278,1882,1128,4.32484,-0.483651
665,-104,4.45728,0.484131,0.00141929,0.000420476,-0.00101269,0.00204901,-0.000209253,-0.556323,0.00144083,0.040341,1889,1128,4.4573,-0.48412
672,-104,4.42078,0.553833,0.00080003,0.000649482,-0.000491474,0.00122196,0.000227551,-0.709409,0.00075038,0.0427894,1896,1128,4.42083,-0.553802
679,-104,4.30798,0.660767,0.000232333,0.000706253,-3.34764e-05,0.000708606,0.00022998,-1.50062,0.000417425,0.0406254,1903,1128,4.30803,-0.660817
686,-104,4.26379,0.534302,-0.000252898,0.000649921,0.000339696,0.000763457,-0.000366435,1.24824,0.000665632,0.0374534,1910,1128,4.26374,-0.534312
693,-104,4.24829,0.480103,-0.000612682,0.000581154,0.000607852,0.000836172,-0.0008677,1.17356,0.000983787,0.0336253,1917,1128,4.24829,-0.480063
700,-104,4.25415,0.557983,-0.000854979,0.000496048,0.000813935,0.000878272,-0.0012372,1.13176,0.00122722,0.0254873,1924,1128,4.25418,-0.557971
707,-104,4.25488,0.592773,-0.000980124,0.000352098,0.000945786,0.000842799,-0.00147083,1.0922,0.00135208,0.0225802,1931,1128,4.25487,-0.592732
714,-104,4.20837,0.688721,-0.00106996,0.000212448,0.00107039,0.000818997,-0.00167651,1.05525,0.00146886,0.0256035,1938,1128,4.20841,-0.688713
721,-104,4.18628,0.745483,-0.00112668,0.000114457,0.00116259,0.000811737,-0.00182396,1.03055,0.00155868,0.0179272,1945,1128,4.18623,-0.745451
728,-104,4.20886,0.723999,-0.00107805,4.52931e-05,0.000912105,0.000554794,-0.00158755,1.06137,0.0012839,0.0214573,1952,1128,4.20881,-0.724006
735,-104,4.19336,0.699829,-0.00107532,3.68826e-05,0.000384721,0.00015699,-0.00119543,1.26819,0.000854107,0.0202969,1959,1128,4.1934,-0.699872
742,-104,4.22314,0.679688,-0.00133842,0.000272165,7.26035e-06,0.000272197,-0.00133845,1.56629,0.000995516,0.014256,1966,1128,4.22313,-0.679653
749,-104,4.21826,0.651733,-0.00185293,0.000811635,-0.000291447,0.000843141,-0.00188443,-1.46311,0.00161256,0.0163475,1973,1128,4.21829,-0.651712
756,-104,4.19885,0.636597,-0.00232561,0.00160559,-0.00109346,0.00188927,-0.00260929,-1.31696,0.00260831,0.0152859,1980,1128,4.19888,-0.636565
763,-104,4.18494,0.64563,-0.00297401,0.00260292,-0.00224465,0.00339411,-0.00376521,-1.23191,0.00413529,0.0146656,1987,1128,4.18497,-0.645646
770,-104,4.17383,0.649658,-0.00392476,0.00379841,-0.00345987,0.00512166,-0.00524801,-1.2055,0.00598708,0.0119661,1994,1128,4.17383,-0.649668
777,-104,4.1864,0.634277,-0.00513718,0.00530877,-0.0049168,0.00725896,-0.00708738,-1.19319,0.00828306,0.0186586,2001,1128,4.18644,-0.63433
784,-104,4.11548,0.605469,-0.00651186,0.00718798,-0.00676195,0.0099633,-0.00928719,-1.18133,0.0111166,0.036271,2008,1128,4.1155,-0.605473
791,-104,3.96863,0.549316,-0.00798082,0.00944195,-0.00916784,0.0133772,-0.0119161,-1.16534,0.0146112,0.0409485,2015,1128,3.9686,-0.549367
798,-104,3.73669,0.654785,-0.00945355,0.0120304,-0.0122942,0.0176144,-0.0150375,-1.14446,0.0188711,0.0432886,2022,1128,3.73669,-0.654741
805,-104,3.44702,1.54395,0,0,0,0,0,0,0,-1,2029,1128,3.44704,-1.544
812,-104,3.36267,1.52808,0,0,0,0,0,0,0,-1,2036,1128,3.36268,-1.52807
-700,-111,0,0,0,0,0,0,0,0,0,-1,524,1135,0,0
-693,-111,-0.221497,0.327393,-0.0256968,0.0200195,0.0207726,0.0280482,-0.0337255,1.20198,0.0357152,0.0477177,531,1135,-0.221476,-0.32739
-686,-111,-0.172668,0.713257,-0.0226642,0.0108422,0.0145239,0.0162614,-0.0280834,1.21368,0.0259039,0.0471225,538,1135,-0.172645,-0.713239
-679,-111,-0.327209,0.694824,-0.0192344,0.00535383,0.0103256,0.00911475,-0.0229953,1.2215,0.0191074,0.0451378,545,1135,-0.327235,-0.694805
-672,-111,-0.46405,1.12341,0,0,0,0,0,0,0,-1,552,1135,-0.464045,-1.12338
-665,-111,-0.219666,1.20972,-0.0127832,0.00044114,0.00542881,0.00238425,-0.0147263,1.22708,0.0107012,0.0425239,559,1135,-0.219677,-1.20978
-658,-111,-0.415771,0.874878,-0.0100167,-0.000355302,0.00400973,0.00109203,-0.011464,1.2244,0.00803148,0.0433536,566,1135,-0.415791,-0.874938
-651,-111,-0.584229,0.763062,-0.00763055,-0.000609908,0.00299128,0.000491724,-0.00873218,1.21793,0.00599209,0.037137,573,1135,-0.584203,-0.763036
-644,-111,-0.647644,0.692261,-0.00561286,-0.000897665,0.0021845,-4.11847e-05,-0.00646934,1.19714,0.00429923,0.0220892,580,1135,-0.647635,-0.692202
-637,-111,-0.629395,0.708374,-0.00394956,-0.000999673,0.00135506,-0.000471707,-0.00447752,1.19927,0.00284086,0.00823237,587,1135,-0.629386,-0.708355
-630,-111,-0.626953,0.731567,-0.00259175,-0.00044553,0.000892004,-0.000123206,-0.00291408,1.22405,0.00190298,0.0119387,594,1135,-0.626943,-0.731604
-623,-111,-0.637939,0.738037,-0.001521,-0.000193818,0.000352656,-0.00010593,-0.00160888,1.32656,0.00103908,0.0128111,601,1135,-0.637936,-0.738004
-616,-111,-0.638916,0.722046,-0.00103118,-0.000218621,0.000178245,-0.00018124,-0.00106856,1.36408,0.000660302,0.013497,608,1135,-0.638896,-0.722106
-609,-111,-0.621155,0.742798,-0.000370692,-0.000281088,-0.000232627,-8.89876e-05,-0.000562792,-0.88053,0.000349331,0.0149709,615,1135,-0.621144,-0.742752
-602,-111,-0.609558,0.767456,0.000355023,-0.000236238,-0.000641999,0.000766189,-0.000647403,-0.569629,0.000817098,0.0147515,622,1135,-0.609535,-0.767421
-595,-111,-0.61322,0.787476,0.000629957,-0.000386119,-0.000919742,0.00117265,-0.000928808,-0.533068,0.00121599,0.0122597,629,1135,-0.61321,-0.787479
-588,-111,-0.621338,0.793091,0.00059633,-0.000510182,-0.00101107,0.00119561,-0.00110947,-0.535053,0.00133115,0.0198098,636,1135,-0.621328,-0.793077
-581,-111,-0.624207,0.763184,0.000674882,-0.000574409,-0.000970296,0.00120421,-0.00110374,-0.499407,0.00133292,0.0315157,643,1135,-0.624185,-0.76319
-574,-111,-0.664307,0.744019,0.000836032,-0.000541552,-0.000932052,0.00130619,-0.00101171,-0.467184,0.00134183,0.0408374,650,1135,-0.664316,-0.744013
-567,-111,-0.678406,0.818848,0.00091392,-0.000475681,-0.000782831,0.00126582,-0.000827576,-0.422452,0.00121742,0.0377009,657,1135,-0.678434,-0.818818
-560,-111,-0.606384,0.862305,0.000883608,-0.000340356,-0.000517791,0.00107327,-0.000530016,-0.35111,0.000943203,0.0386017,664,1135,-0.606357,-0.862362
-553,-111,-0.508484,0.5802,0.000694815,-0.000113999,-9.43737e-05,0.00070568,-0.000124865,-0.11463,0.000517125,0.041524,671,1135,-0.508493,-0.580195
-546,-111,-0.516907,0.672119,0.000283736,0.000211564,0.000544965,0.000793808,-0.000298508,0.752338,0.000651902,0.0371436,678,1135,-0.516921,-0.67215
-539,-111,-0.62793,0.807983,-0.000399075,0.0006405,0.00142199,0.00163472,-0.0013933,0.960622,0.00175008,0.0364432,685,1135,-0.627953,-0.807968
-532,-111,-0.69104,0.869141,-0.00142357,0.00116776,0.00246593,0.0026577,-0.00291351,1.02729,0.00321766,0.0387908,692,1135,-0.691069,-0.869154
-525,-111,-0.730774,0.993042,-0.00295355,0.00176561,0.00361502,0.00372297,-0.00491091,1.07454,0.00500048,0.0382118,699,1135,-0.730803,-0.993085
-518,-111,0,0,0,0,0,0,0,0,0,-1,706,1135,0,0
-511,-111,0,0,0,0,0,0,0,0,0,-1,713,1135,0,0
-504,-111,0,0,0,0,0,0,0,0,0,-1,720,1135,0,0
-497,-111,0,0,0,0,0,0,0,0,0,-1,727,1135,0,0
-490,-111,0,0,0,0,0,0,0,0,0,-1,734,1135,0,0
-483,-111,0,0,0,0,0,0,0,0,0,-1,741,1135,0,0
-476,-111,0,0,0,0,0,0,0,0,0,-1,748,1135,0,0
-469,-111,0,0,0,0,0,0,0,0,0,-1,755,1135,0,0
-462,-111,0,0,0,0,0,0,0,0,0,-1,762,1135,0,0
-455,-111,0,0,0,0,0,0,0,0,0,-1,769,1135,0,0
-448,-111,0,0,0,0,0,0,0,0,0,-1,776,1135,0,0
-441,-111,0,0,0,0,0,0,0,0,0,-1,783,1135,0,0
-434,-111,0,0,0,0,0,0,0,0,0,-1,790,1135,0,0
-427,-111,0,0,0,0,0,0,0,0,0,-1,797,1135,0,0
-420,-111,0,0,0,0,0,0,0,0,0,-1,804,1135,0,0
-413,-111,0,0,0,0,0,0,0,0,0,-1,811,1135,0,0
-406,-111,0,0,0,0,0,0,0,0,0,-1,818,1135,0,0
-399,-111,0,0,0,0,0,0,0,0,0,-1,825,1135,0,0
-392,-111,0,0,0,0,0,0,0,0,0,-1,832,1135,0,0
-385,-111,0,0,0,0,0,0,0,0,0,-1,839,1135,0,0
-378,-111,0,0,0,0,0,0,0,0,0,-1,846,1135,0,0
-371,-111,0,0,0,0,0,0,0,0,0,-1,853,1135,0,0
-364,-111,0,0,0,0,0,0,0,0,0,-1,860,1135,0,0
-357,-111,0,0,0,0,0,0,0,0,0,-1,867,1135,0,0
-350,-111,0,0,0,0,0,0,0,0,0,-1,874,1135,0,0
-343,-111,0,0,0,0,0,0,0,0,0,-1,881,1135,0,0
-336,-111,0,0,0,0,0,0,0,0,0,-1,888,1135,0,0
-329,-111,0,0,0,0,0,0,0,0,0,-1,895,1135,0,0
-322,-111,0,0,0,0,0,0,0,0,0,-1,902,1135,0,0
-315,-111,0,0,0,0,0,0,0,0,0,-1,909,1135,0,0
-308,-111,0,0,0,0,0,0,0,0,0,-1,916,1135,0,0
-301,-111,0,0,0,0,0,0,0,0,0,-1,923,1135,0,0
-294,-111,0,0,0,0,0,0,0,0,0,-1,930,1135,0,0
-287,-111,0,0,0,0,0,0,0,0,0,-1,937,1135,0,0
-280,-111,0,0,0,0,0,0,0,0,0,-1,944,1135,0,0
-273,-111,0,0,0,0,0,0,0,0,0,-1,951,1135,0,0
-266,-111,0,0,0,0,0,0,0,0,0,-1,958,1135,0,0
-259,-111,0,0,0,0,0,0,0,0,0,-1,965,1135,0,0
-252,-111,0,0,0,0,0,0,0,0,0,-1,972,1135,0,0
-245,-111,0,0,0,0,0,0,0,0,0,-1,979,1135,0,0
-238,-111,0,0,0,0,0,0,0,0,0,-1,986,1135,0,0
-231,-111,0,0,0,0,0,0,0,0,0,-1,993,1135,0,0
-224,-111,0,0,0,0,0,0,0,0,0,-1,1000,1135,0,0
-217,-111,0,0,0,0,0,0,0,0,0,-1,1007,1135,0,0
-210,-111,0,0,0,0,0,0,0,0,0,-1,1014,1135,0,0
-203,-111,0,0,0,0,0,0,0,0,0,-1,1021,1135,0,0
-196,-111,0,0,0,0,0,0,0,0,0,-1,1028,1135,0,0
-189,-111,0,0,0,0,0,0,0,0,0,-1,1035,1135,0,0
-182,-111,0,0,0,0,0,0,0,0,0,-1,1042,1135,0,0
-175,-111,0,0,0,0,0,0,0,0,0,-1,1049,1135,0,0
-168,-111,0,0,0,0,0,0,0,0,0,-1,1056,1135,0,0
-161,-111,0,0,0,0,0,0,0,0,0,-1,1063,1135,0,0
-154,-111,0,0,0,0,0,0,0,0,0,-1,1070,1135,0,0
-147,-111,0,0,0,0,0,0,0,0,0,-1,1077,1135,0,0
-140,-111,0,0,0,0,0,0,0,0,0,-1,1084,1135,0,0
-133,-111,0,0,0,0,0,0,0,0,0,-1,1091,1135,0,0
-126,-111,0,0,0,0,0,0,0,0,0,-1,1098,1135,0,0
-119,-111,0,0,0,0,0,0,0,0,0,-1,1105,1135,0,0
-112,-111,0,0,0,0,0,0,0,0,0,-1,1112,1135,0,0
-105,-111,0,0,0,0,0,0,0,0,0,-1,1119,1135,0,0
-98,-111,0,0,0,0,0,0,0,0,0,-1,1126,1135,0,0
-91,-111,0,0,0,0,0,0,0,0,0,-1,1133,1135,0,0
-84,-111,0,0,0,0,0,0,0,0,0,-1,1140,1135,0,0
-77,-111,0,0,0,0,0,0,0,0,0,-1,1147,1135,0,0
-70,-111,0,0,0,0,0,0,0,0,0,-1,1154,1135,0,0
-63,-111,0,0,0,0,0,0,0,0,0,-1,1161,1135,0,0
-56,-111,0,0,0,0,0,0,0,0,0,-1,1168,1135,0,0
-49,-111,0,0,0,0,0,0,0,0,0,-1,1175,1135,0,0
-42,-111,0,0,0,0,0,0,0,0,0,-1,1182,1135,0,0
-35,-111,0,0,0,0,0,0,0,0,0,-1,1189,1135,0,0
-28,-111,0,0,0,0,0,0,0,0,0,-1,1196,1135,0,0
-21,-111,0,0,0,0,0,0,0,0,0,-1,1203,1135,0,0
-14,-111,0,0,0,0,0,0,0,0,0,-1,1210,1135,0,0
-7,-111,0,0,0,0,0,0,0,0,0,-1,1217,1135,0,0
0,-111,0,0,0,0,0,0,0,0,0,-1,1224,1135,0,0
7,-111,0,0,0,0,0,0,0,0,0,-1,1231,1135,0,0
14,-111,0,0,0,0,0,0,0,0,0,-1,1238,1135,0,0
21,-111,0,0,0,0,0,0,0,0,0,-1,1245,1135,0,0
28,-111,0,0,0,0,0,0,0,0,0,-1,1252,1135,0,0
35,-111,0,0,0,0,0,0,0,0,0,-1,1259,1135,0,0
42,-111,0,0,0,0,0,0,0,0,0,-1,1266,1135,0,0
49,-111,0,0,0,0,0,0,0,0,0,-1,1273,1135,0,0
56,-111,0,0,0,0,0,0,0,0,0,-1,1280,1135,0,0
63,-111,0,0,0,0,0,0,0,0,0,-1,1287,1135,0,0
70,-111,0,0,0,0,0,0,0,0,0,-1,1294,1135,0,0
77,-111,0,0,0,0,0,0,0,0,0,-1,1301,1135,0,0
84,-111,0,0,0,0,0,0,0,0,0,-1,1308,1135,0,0
91,-111,0,0,0,0,0,0,0,0,0,-1,1315,1135,0,0
98,-111,0,0,0,0,0,0,0,0,0,-1,1322,1135,0,0
105,-111,0,0,0,0,0,0,0,0,0,-1,1329,1135,0,0
112,-111,0,0,0,0,0,0,0,0,0,-1,1336,1135,0,0
119,-111,0,0,0,0,0,0,0,0,0,-1,1343,1135,0,0
126,-111,0,0,0,0,0,0,0,0,0,-1,1350,1135,0,0
133,-111,0,0,0,0,0,0,0,0,0,-1,1357,1135,0,0
140,-111,0,0,0,0,0,0,0,0,0,-1,1364,1135,0,0
147,-111,0,0,0,0,0,0,0,0,0,-1,1371,1135,0,0
154,-111,0,0,0,0,0,0,0,0,0,-1,1378,1135,0,0
161,-111,0,0,0,0,0,0,0,0,0,-1,1385,1135,0,0
168,-111,0,0,0,0,0,0,0,0,0,-1,1392,1135,0,0
175,-111,0,0,0,0,0,0,0,0,0,-1,1399,1135,0,0
182,-111,0,0,0,0,0,0,0,0,0,-1,1406,1135,0,0
189,-111,0,0,0,0,0,0,0,0,0,-1,1413,1135,0,0
196,-111,0,0,0,0,0,0,0,0,0,-1,1420,1135,0,0
203,-111,0,0,0,0,0,0,0,0,0,-1,1427,1135,0,0
210,-111,0,0,0,0,0,0,0,0,0,-1,1434,1135,0,0
217,-111,0,0,0,0,0,0,0,0,0,-1,1441,1135,0,0
224,-111,0,0,0,0,0,0,0,0,0,-1,1448,1135,0,0
231,-111,0,0,0,0,0,0,0,0,0,-1,1455,1135,0,0
238,-111,0,0,0,0,0,0,0,0,0,-1,1462,1135,0,0
245,-111,0,0,0,0,0,0,0,0,0,-1,1469,1135,0,0
252,-111,0,0,0,0,0,0,0,0,0,-1,1476,1135,0,0
259,-111,0,0,0,0,0,0,0,0,0,-1,1483,1135,0,0
266,-111,0,0,0,0,0,0,0,0,0,-1,1490,1135,0,0
273,-111,0,0,0,0,0,0,0,0,0,-1,1497,1135,0,0
280,-111,0,0,0,0,0,0,0,0,0,-1,1504,1135,0,0
287,-111,0,0,0,0,0,0,0,0,0,-1,1511,1135,0,0
294,-111,0,0,0,0,0,0,0,0,0,-1,1518,1135,0,0
301,-111,0,0,0,0,0,0,0,0,0,-1,1525,1135,0,0
308,-111,0,0,0,0,0,0,0,0,0,-1,1532,1135,0,0
315,-111,0,0,0,0,0,0,0,0,0,-1,1539,1135,0,0
322,-111,0,0,0,0,0,0,0,0,0,-1,1546,1135,0,0
329,-111,0,0,0,0,0,0,0,0,0,-1,1553,1135,0,0
336,-111,0,0,0,0,0,0,0,0,0,-1,1560,1135,0,0
343,-111,0,0,0,0,0,0,0,0,0,-1,1567,1135,0,0
350,-111,0,0,0,0,0,0,0,0,0,-1,1574,1135,0,0
357,-111,0,0,0,0,0,0,0,0,0,-1,1581,1135,0,0
364,-111,0,0,0,0,0,0,0,0,0,-1,1588,1135,0,0
371,-111,0,0,0,0,0,0,0,0,0,-1,1595,1135,0,0
378,-111,0,0,0,0,0,0,0,0,0,-1,1602,1135,0,0
385,-111,0,0,0,0,0,0,0,0,0,-1,1609,1135,0,0
392,-111,0,0,0,0,0,0,0,0,0,-1,1616,1135,0,0
399,-111,0,0,0,0,0,0,0,0,0,-1,1623,1135,0,0
406,-111,0,0,0,0,0,0,0,0,0,-1,1630,1135,0,0
413,-111,0,0,0,0,0,0,0,0,0,-1,1637,1135,0,0
420,-111,0,0,0,0,0,0,0,0,0,-1,1644,1135,0,0
427,-111,0,0,0,0,0,0,0,0,0,-1,1651,1135,0,0
434,-111,0,0,0,0,0,0,0,0,0,-1,1658,1135,0,0
441,-111,0,0,0,0,0,0,0,0,0,-1,1665,1135,0,0
448,-111,0,0,0,0,0,0,0,0,0,-1,1672,1135,0,0
455,-111,0,0,0,0,0,0,0,0,0,-1,1679,1135,0,0
462,-111,0,0,0,0,0,0,0,0,0,-1,1686,1135,0,0
469,-111,0,0,0,0,0,0,0,0,0,-1,1693,1135,0,0
476,-111,0,0,0,0,0,0,0,0,0,-1,1700,1135,0,0
483,-111,0,0,0,0,0,0,0,0,0,-1,1707,1135,0,0
490,-111,0,0,0,0,0,0,0,0,0,-1,1714,1135,0,0
497,-111,0,0,0,0,0,0,0,0,0,-1,1721,1135,0,0
504,-111,0,0,0,0,0,0,0,0,0,-1,1728,1135,0,0
511,-111,0,0,0,0,0,0,0,0,0,-1,1735,1135,0,0
518,-111,0,0,0,0,0,0,0,0,0,-1,1742,1135,0,0
525,-111,0,0,0,0,0,0,0,0,0,-1,1749,1135,0,0
532,-111,0,0,0,0,0,0,0,0,0,-1,1756,1135,0,0
539,-111,0,0,0,0,0,0,0,0,0,-1,1763,1135,0,0
546,-111,0,0,0,0,0,0,0,0,0,-1,1770,1135,0,0
553,-111,0,0,0,0,0,0,0,0,0,-1,1777,1135,0,0
560,-111,0,0,0,0,0,0,0,0,0,-1,1784,1135,0,0
567,-111,0,0,0,0,0,0,0,0,0,-1,1791,1135,0,0
574,-111,0,0,0,0,0,0,0,0,0,-1,1798,1135,0,0
581,-111,0,0,0,0,0,0,0,0,0,-1,1805,1135,0,0
588,-111,0,0,0,0,0,0,0,0,0,-1,1812,1135,0,0
595,-111,0,0,0,0,0,0,0,0,0,-1,1819,1135,0,0
602,-111,0,0,0,0,0,0,0,0,0,-1,1826,1135,0,0
609,-111,0,0,0,0,0,0,0,0,0,-1,1833,1135,0,0
616,-111,0,0,0,0,0,0,0,0,0,-1,1840,1135,0,0
623,-111,0,0,0,0,0,0,0,0,0,-1,1847,1135,0,0
630,-111,0,0,0,0,0,0,0,0,0,-1,1854,1135,0,0
637,-111,0,0,0,0,0,0,0,0,0,-1,1861,1135,0,0
644,-111,4.14026,0.643921,0.00284971,-0.00217381,-0.00288979,0.00416676,-0.00349086,-0.427635,0.00442687,0.0393075,1868,1135,4.14031,-0.643935
651,-111,4.20935,0.666992,0.00251442,-0.000920263,-0.00227539,0.00364781,-0.00205365,-0.462133,0.00333435,0.040058,1875,1135,4.20932,-0.667022
658,-111,4.31897,0.664795,0.00204577,-0.000129026,-0.00172503,0.00299753,-0.00108079,-0.504174,0.00243976,0.0414273,1882,1135,4.31897,-0.664839
665,-111,4.37915,0.560547,0.00134362,0.000308762,-0.00111125,0.002052,-0.000399622,-0.567512,0.00151884,0.0417266,1889,1135,4.37921,-0.560529
672,-111,4.35071,0.516602,0.000629001,0.000493006,-0.000482753,0.00104852,7.3485e-05,-0.715431,0.000675853,0.0440118,1896,1135,4.35069,-0.516631
679,-111,4.24744,0.743774,9.36414e-06,0.000520412,3.95857e-05,0.00052346,6.31606e-06,1.49395,0.000346887,0.0439597,1903,1135,4.2474,-0.743785
686,-111,4.25269,0.691162,-0.00050194,0.000451191,0.000442942,0.00062525,-0.000676,1.19637,0.000751467,0.040173,1910,1135,4.25267,-0.691184
693,-111,4.22839,0.660522,-0.00087002,0.000414324,0.000719775,0.000736756,-0.00119245,1.14964,0.00112414,0.0345889,1917,1135,4.22837,-0.660489
700,-111,4.25928,0.554443,-0.00109256,0.000314412,0.000940316,0.000785272,-0.00156342,1.10655,0.0013806,0.0277395,1924,1135,4.25933,-0.554502
707,-111,4.25305,0.568726,-0.00120142,0.000170786,0.00106177,0.000748842,-0.00177948,1.07224,0.00149961,0.0399317,1931,1135,4.25311,-0.568771
714,-111,4.18677,0.672974,-0.00128474,5.4105e-05,0.00115637,0.000720843,-0.00195148,1.04778,0.00159647,0.0165686,1938,1135,4.18679,-0.673014
721,-111,4.1571,0.733521,-0.0013085,-1.98132e-05,0.00122406,0.000719134,-0.00204745,1.02767,0.00165752,0.0113,1945,1135,4.1571,-0.733554
728,-111,4.18311,0.716797,-0.00117423,-6.37426e-05,0.000954436,0.000485208,-0.00172318,1.04884,0.00134013,0.0152637,1952,1135,4.18308,-0.716766
735,-111,4.18384,0.6875,-0.00106796,-7.04299e-05,0.000383909,6.0211e-05,-0.00119861,1.2428,0.000819878,0.0154319,1959,1135,4.18384,-0.687513
742,-111,4.19897,0.696045,-0.001243,0.000171216,-6.83614e-05,0.000174513,-0.0012463,-1.52261,0.000894728,0.0111916,1966,1135,4.19901,-0.696035
749,-111,4.18616,0.678955,-0.0017557,0.000564565,-0.00060616,0.000713377,-0.00190451,-1.33006,0.00156272,0.0143959,1973,1135,4.18617,-0.678956
756,-111,4.17163,0.661133,-0.0022805,0.00127686,-0.0015882,0.00188273,-0.00288637,-1.20635,0.00277369,0.0145086,1980,1135,4.17161,-0.661111
763,-111,4.16125,0.661743,-0.00304827,0.00192169,-0.00295337,0.00329644,-0.00442302,-1.13514,0.00447262,0.0130439,1987,1135,4.16128,-0.661735
770,-111,4.16003,0.671997,-0.00413497,0.00278504,-0.00446523,0.00497392,-0.00632385,-1.11501,0.00653827,0.0104634,1994,1135,4.16008,-0.671956
777,-111,4.13354,0.647827,-0.00558038,0.00383422,-0.00631611,0.00700423,-0.00875038,-1.10564,0.00911453,0.023019,2001,1135,4.13349,-0.647841
784,-111,4.09131,0.568359,-0.00730228,0.00509438,-0.00865998,0.00954568,-0.0117536,-1.09601,0.0123191,0.039196,2008,1135,4.09132,-0.568317
791,-111,3.96167,0.479858,-0.00926635,0.00653143,-0.011665,0.0127203,-0.0154552,-1.08301,0.0162927,0.0411279,2015,1135,3.96164,-0.479829
798,-111,3.62305,0.480713,-0.0114065,0.00806664,-0.0154798,0.0166174,-0.0199572,-1.06613,0.0211457,0.0437246,2022,1135,3.623,-0.480683
805,-111,3.67151,0.765381,-0.0135674,0.0095108,-0.020281,0.0213056,-0.0253622,-1.04404,0.0269775,0.040696,2029,1135,3.67148,-0.765323
812,-111,3.35767,0.0935059,0,0,0,0,0,0,0,-1,2036,1135,3.35769,-0.0934981
-700,-118,0,0,0,0,0,0,0,0,0,-1,524,1142,0,0
-693,-118,-0.41803,0.447632,0,0,0,0,0,0,0,-1,531,1142,-0.41802,-0.447667
-686,-118,-0.508118,0.645142,-0.0221483,0.00644005,0.0195667,0.0163776,-0.0320859,1.10086,0.0284661,0.0490309,538,1142,-0.508111,-0.645176
-679,-118,-0.651367,0.822998,-0.0186713,0.00277475,0.014744,0.0102827,-0.0261793,1.0998,0.021708,0.0468467,545,1142,-0.651374,-0.822979
-672,-118,-0.605042,0.80127,-0.0153331,0.000717748,0.0111422,0.00642393,-0.0210392,1.0975,0.0165874,0.0462155,552,1142,-0.605059,-0.801298
-665,-118,-0.5625,0.759644,-0.0122984,-0.000330459,0.00839248,0.00399293,-0.0166218,1.0951,0.0126244,0.0439858,559,1142,-0.562475,-0.759596
-658,-118,-0.513489,0.69751,-0.0096159,-0.000758302,0.00628823,0.0025042,-0.0128784,1.0922,0.00953063,0.041841,566,1142,-0.513476,-0.697462
-651,-118,-0.629456,0.730469,-0.00731965,-0.000829539,0.00467325,0.00161484,-0.00976403,1.08887,0.00710903,0.0379221,573,1142,-0.62944,-0.730517
-644,-118,-0.631409,0.694458,-0.00540735,-0.000844498,0.00337321,0.000946353,-0.0071982,1.08273,0.00514335,0.0239046,580,1142,-0.631422,-0.694399
-637,-118,-0.614319,0.703369,-0.00384159,-0.000978003,0.00218408,0.000201764,-0.00502136,1.07553,0.00341681,0.0128083,587,1142,-0.614345,-0.703407
-630,-118,-0.609375,0.721558,-0.00256069,-0.000503852,0.00140759,0.000210992,-0.00327553,1.10089,0.00225731,0.0161508,594,1142,-0.609379,-0.721542
-623,-118,-0.60083,0.715454,-0.00149501,-0.00028934,0.000603535,-3.91423e-05,-0.00174521,1.17781,0.00115065,0.0152793,601,1142,-0.600819,-0.715393
-616,-118,-0.612305,0.707031,-0.00101032,-0.000280958,0.000289075,-0.000180282,-0.001111,1.23567,0.000688483,0.0144593,608,1142,-0.612317,-0.706973
-609,-118,-0.614319,0.740356,-0.000403459,-0.000391605,-0.000213748,-0.000183702,-0.000611363,-0.799259,0.000362217,0.0133785,615,1142,-0.614294,-0.740364
-602,-118,-0.613708,0.769531,0.0002555,-0.000243622,-0.000638864,0.000691816,-0.000679938,-0.599196,0.000791993,0.0121655,622,1142,-0.613722,-0.769523
-595,-118,-0.617798,0.775146,0.000512835,-0.000413798,-0.000916461,0.00107644,-0.000977401,-0.551359,0.00118624,0.0102247,629,1142,-0.617822,-0.775092
-588,-118,-0.585632,0.816528,0.000468693,-0.000531602,-0.00101778,0.00110257,-0.00116548,-0.557022,0.00130963,0.0148679,636,1142,-0.585636,-0.816492
-581,-118,-0.583862,0.751953,0.000545303,-0.00057293,-0.000994724,0.00112728,-0.0011549,-0.529362,0.00131765,0.0351037,643,1142,-0.583841,-0.752001
-574,-118,-0.591431,0.683228,0,0,0,0,0,0,0,-1,650,1142,-0.591461,-0.683196
-567,-118,-0.628906,0.788818,0.000801927,-0.000416159,-0.00083723,0.0012282,-0.000842436,-0.470942,0.00120238,0.0406023,657,1142,-0.628886,-0.788811
-560,-118,-0.587158,0.645874,0.000801782,-0.000227124,-0.000590917,0.00107081,-0.000496154,-0.427232,0.000924744,0.0362949,664,1142,-0.587157,-0.645848
-553,-118,-0.501831,0.666382,0.00067076,8.03795e-05,-0.000188026,0.000725557,2.55828e-05,-0.283578,0.000475406,0.0371601,671,1142,-0.501807,-0.666443
-546,-118,-0.414917,0.821533,0.000353846,0.000528706,0.000430629,0.000880691,1.8611e-06,0.885551,0.000586508,0.0354141,678,1142,-0.414902,-0.821498
-539,-118,-0.64917,0.890503,-0.000195441,0.00113789,0.00128939,0.00192277,-0.000980317,1.02399,0.00170528,0.0387191,685,1142,-0.649165,-0.890537
-532,-118,-0.670288,0.815552,-0.00104111,0.00192072,0.00232995,0.00320056,-0.00232095,1.06849,0.0032013,0.0426376,692,1142,-0.670261,-0.815595
-525,-118,-0.603088,0.859253,-0.00235502,0.00286928,0.00349742,0.00462237,-0.00410811,1.10615,0.00504346,0.0419588,699,1142,-0.603083,-0.859254
-518,-118,0,0,0,0,0,0,0,0,0,-1,706,1142,0,0
-511,-118,0,0,0,0,0,0,0,0,0,-1,713,1142,0,0
-504,-118,0,0,0,0,0,0,0,0,0,-1,720,1142,0,0
-497,-118,0,0,0,0,0,0,0,0,0,-1,727,1142,0,0
-490,-118,0,0,0,0,0,0,0,0,0,-1,734,1142,0,0
-483,-118,0,0,0,0,0,0,0,0,0,-1,741,1142,0,0
-476,-118,0,0,0,0,0,0,0,0,0,-1,748,1142,0,0
-469,-118,0,0,0,0,0,0,0,0,0,-1,755,1142,0,0
-462,-118,0,0,0,0,0,0,0,0,0,-1,762,1142,0,0
-455,-118,0,0,0,0,0,0,0,0,0,-1,769,1142,0,0
-448,-118,0,0,0,0,0,0,0,0,0,-1,776,1142,0,0
-441,-118,0,0,0,0,0,0,0,0,0,-1,783,1142,0,0
-434,-118,0,0,0,0,0,0,0,0,0,-1,790,1142,0,0
-427,-118,0,0,0,0,0,0,0,0,0,-1,797,1142,0,0
-420,-118,0,0,0,0,0,0,0,0,0,-1,804,1142,0,0
-413,-118,0,0,0,0,0,0,0,0,0,-1,811,1142,0,0
-406,-118,0,0,0,0,0,0,0,0,0,-1,818,1142,0,0
-399,-118,0,0,0,0,0,0,0,0,0,-1,825,1142,0,0
-392,-118,0,0,0,0,0,0,0,0,0,-1,832,1142,0,0
-385,-118,0,0,0,0,0,0,0,0,0,-1,839,1142,0,0
-378,-118,0,0,0,0,0,0,0,0,0,-1,846,1142,0,0
-371,-118,0,0,0,0,0,0,0,0,0,-1,853,1142,0,0
-364,-118,0,0,0,0,0,0,0,0,0,-1,860,1142,0,0
-357,-118,0,0,0,0,0,0,0,0,0,-1,867,1142,0,0
-350,-118,0,0,0,0,0,0,0,0,0,-1,874,1142,0,0
-343,-118,0,0,0,0,0,0,0,0,0,-1,881,1142,0,0
-336,-118,0,0,0,0,0,0,0,0,0,-1,888,1142,0,0
-329,-118,0,0,0,0,0,0,0,0,0,-1,895,1142,0,0
-322,-118,0,0,0,0,0,0,0,0,0,-1,902,1142,0,0
-315,-118,0,0,0,0,0,0,0,0,0,-1,909,1142,0,0
-308,-118,0,0,0,0,0,0,0,0,0,-1,916,1142,0,0
-301,-118,0,0,0,0,0,0,0,0,0,-1,923,1142,0,0
-294,-118,0,0,0,0,0,0,0,0,0,-1,930,1142,0,0
-287,-118,0,0,0,0,0,0,0,0,0,-1,937,1142,0,0
-280,-118,0,0,0,0,0,0,0,0,0,-1,944,1142,0,0
-273,-118,0,0,0,0,0,0,0,0,0,-1,951,1142,0,0
-266,-118,0,0,0,0,0,0,0,0,0,-1,958,1142,0,0
-259,-118,0,0,0,0,0,0,0,0,0,-1,965,1142,0,0
-252,-118,0,0,0,0,0,0,0,0,0,-1,972,1142,0,0
-245,-118,0,0,0,0,0,0,0,0,0,-1,979,1142,0,0
-238,-118,0,0,0,0,0,0,0,0,0,-1,986,1142,0,0
-231,-118,0,0,0,0,0,0,0,0,0,-1,993,1142,0,0
-224,-118,0,0,0,0,0,0,0,0,0,-1,1000,1142,0,0
-217,-118,0,0,0,0,0,0,0,0,0,-1,1007,1142,0,0
-210,-118,0,0,0,0,0,0,0,0,0,-1,1014,1142,0,0
-203,-118,0,0,0,0,0,0,0,0,0,-1,1021,1142,0,0
-196,-118,0,0,0,0,0,0,0,0,0,-1,1028,1142,0,0
-189,-118,0,0,0,0,0,0,0,0,0,-1,1035,1142,0,0
-182,-118,0,0,0,0,0,0,0,0,0,-1,1042,1142,0,0
-175,-118,0,0,0,0,0,0,0,0,0,-1,1049,1142,0,0
-168,-118,0,0,0,0,0,0,0,0,0,-1,1056,1142,0,0
-161,-118,0,0,0,0,0,0,0,0,0,-1,1063,1142,0,0
-154,-118,0,0,0,0,0,0,0,0,0,-1,1070,1142,0,0
-147,-118,0,0,0,0,0,0,0,0,0,-1,1077,1142,0,0
-140,-118,0,0,0,0,0,0,0,0,0,-1,1084,1142,0,0
-133,-118,0,0,0,0,0,0,0,0,0,-1,1091,1142,0,0
-126,-118,0,0,0,0,0,0,0,0,0,-1,1098,1142,0,0
-119,-118,0,0,0,0,0,0,0,0,0,-1,1105,1142,0,0
-112,-118,0,0,0,0,0,0,0,0,0,-1,1112,1142,0,0
-105,-118,0,0,0,0,0,0,0,0,0,-1,1119,1142,0,0
-98,-118,0,0,0,0,0,0,0,0,0,-1,1126,1142,0,0
-91,-118,0,0,0,0,0,0,0,0,0,-1,1133,1142,0,0
-84,-118,0,0,0,0,0,0,0,0,0,-1,1140,1142,0,0
-77,-118,0,0,0,0,0,0,0,0,0,-1,1147,1142,0,0
-70,-118,0,0,0,0,0,0,0,0,0,-1,1154,1142,0,0
-63,-118,0,0,0,0,0,0,0,0,0,-1,1161,1142,0,0
-56,-118,0,0,0,0,0,0,0,0,0,-1,1168,1142,0,0
-49,-118,0,0,0,0,0,0,0,0,0,-1,1175,1142,0,0
-42,-118,0,0,0,0,0,0,0,0,0,-1,1182,1142,0,0
-35,-118,0,0,0,0,0,0,0,0,0,-1,1189,1142,0,0
-28,-118,0,0,0,0,0,0,0,0,0,-1,1196,1142,0,0
-21,-118,0,0,0,0,0,0,0,0,0,-1,1203,1142,0,0
-14,-118,0,0,0,0,0,0,0,0,0,-1,1210,1142,0,0
-7,-118,0,0,0,0,0,0,0,0,0,-1,1217,1142,0,0
0,-118,0,0,0,0,0,0,0,0,0,-1,1224,1142,0,0
7,-118,0,0,0,0,0,0,0,0,0,-1,1231,1142,0,0
14,-118,0,0,0,0,0,0,0,0,0,-1,1238,1142,0,0
21,-118,0,0,0,0,0,0,0,0,0,-1,1245,1142,0,0
28,-118,0,0,0,0,0,0,0,0,0,-1,1252,1142,0,0
35,-118,0,0,0,0,0,0,0,0,0,-1,1259,1142,0,0
42,-118,0,0,0,0,0,0,0,0,0,-1,1266,1142,0,0
49,-118,0,0,0,0,0,0,0,0,0,-1,1273,1142,0,0
56,-118,0,0,0,0,0,0,0,0,0,-1,1280,1142,0,0
63,-118,0,0,0,0,0,0,0,0,0,-1,1287,1142,0,0
70,-118,0,0,0,0,0,0,0,0,0,-1,1294,1142,0,0
77,-118,0,0,0,0,0,0,0,0,0,-1,1301,1142,0,0
84,-118,0,0,0,0,0,0,0,0,0,-1,1308,1142,0,0
91,-118,0,0,0,0,0,0,0,0,0,-1,1315,1142,0,0
98,-118,0,0,0,0,0,0,0,0,0,-1,1322,1142,0,0
105,-118,0,0,0,0,0,0,0,0,0,-1,1329,1142,0,0
112,-118,0,0,0,0,0,0,0,0,0,-1,1336,1142,0,0
119,-118,0,0,0,0,0,0,0,0,0,-1,1343,1142,0,0
126,-118,0,0,0,0,0,0,0,0,0,-1,1350,1142,0,0
133,-118,0,0,0,0,0,0,0,0,0,-1,1357,1142,0,0
140,-118,0,0,0,0,0,0,0,0,0,-1,1364,1142,0,0
147,-118,0,0,0,0,0,0,0,0,0,-1,1371,1142,0,0
154,-118,0,0,0,0,0,0,0,0,0,-1,1378,1142,0,0
161,-118,0,0,0,0,0,0,0,0,0,-1,1385,1142,0,0
168,-118,0,0,0,0,0,0,0,0,0,-1,1392,1142,0,0
175,-118,0,0,0,0,0,0,0,0,0,-1,1399,1142,0,0
182,-118,0,0,0,0,0,0,0,0,0,-1,1406,1142,0,0
189,-118,0,0,0,0,0,0,0,0,0,-1,1413,1142,0,0
196,-118,0,0,0,0,0,0,0,0,0,-1,1420,1142,0,0
203,-118,0,0,0,0,0,0,0,0,0,-1,1427,1142,0,0
210,-118,0,0,0,0,0,0,0,0,0,-1,1434,1142,0,0
217,-118,0,0,0,0,0,0,0,0,0,-1,1441,1142,0,0
224,-118,0,0,0,0,0,0,0,0,0,-1,1448,1142,0,0
231,-118,0,0,0,0,0,0,0,0,0,-1,1455,1142,0,0
238,-118,0,0,0,0,0,0,0,0,0,-1,1462,1142,0,0
245,-118,0,0,0,0,0,0,0,0,0,-1,1469,1142,0,0
252,-118,0,0,0,0,0,0,0,0,0,-1,1476,1142,0,0
259,-118,0,0,0,0,0,0,0,0,0,-1,1483,1142,0,0
266,-118,0,0,0,0,0,0,0,0,0,-1,1490,1142,0,0
273,-118,0,0,0,0,0,0,0,0,0,-1,1497,1142,0,0
280,-118,0,0,0,0,0,0,0,0,0,-1,1504,1142,0,0
287,-118,0,0,0,0,0,0,0,0,0,-1,1511,1142,0,0
294,-118,0,0,0,0,0,0,0,0,0,-1,1518,1142,0,0
301,-118,0,0,0,0,0,0,0,0,0,-1,1525,1142,0,0
308,-118,0,0,0,0,0,0,0,0,0,-1,1532,1142,0,0
315,-118,0,0,0,0,0,0,0,0,0,-1,1539,1142,0,0
322,-118,0,0,0,0,0,0,0,0,0,-1,1546,1142,0,0
329,-118,0,0,0,0,0,0,0,0,0,-1,1553,1142,0,0
336,-118,0,0,0,0,0,0,0,0,0,-1,1560,1142,0,0
343,-118,0,0,0,0,0,0,0,0,0,-1,1567,1142,0,0
350,-118,0,0,0,0,0,0,0,0,0,-1,1574,1142,0,0
357,-118,0,0,0,0,0,0,0,0,0,-1,1581,1142,0,0
364,-118,0,0,0,0,0,0,0,0,0,-1,1588,1142,0,0
371,-118,0,0,0,0,0,0,0,0,0,-1,1595,1142,0,0
378,-118,0,0,0,0,0,0,0,0,0,-1,1602,1142,0,0
385,-118,0,0,0,0,0,0,0,0,0,-1,1609,1142,0,0
392,-118,0,0,0,0,0,0,0,0,0,-1,1616,1142,0,0
399,-118,0,0,0,0,0,0,0,0,0,-1,1623,1142,0,0
406,-118,0,0,0,0,0,0,0,0,0,-1,1630,1142,0,0
413,-118,0,0,0,0,0,0,0,0,0,-1,1637,1142,0,0
420,-118,0,0,0,0,0,0,0,0,0,-1,1644,1142,0,0
427,-118,0,0,0,0,0,0,0,0,0,-1,1651,1142,0,0
434,-118,0,0,0,0,0,0,0,0,0,-1,1658,1142,0,0
441,-118,0,0,0,0,0,0,0,0,0,-1,1665,1142,0,0
448,-118,0,0,0,0,0,0,0,0,0,-1,1672,1142,0,0
455,-118,0,0,0,0,0,0,0,0,0,-1,1679,1142,0,0
462,-118,0,0,0,0,0,0,0,0,0,-1,1686,1142,0,0
469,-118,0,0,0,0,0,0,0,0,0,-1,1693,1142,0,0
476,-118,0,0,0,0,0,0,0,0,0,-1,1700,1142,0,0
483,-118,0,0,0,0,0,0,0,0,0,-1,1707,1142,0,0
490,-118,0,0,0,0,0,0,0,0,0,-1,1714,1142,0,0
497,-118,0,0,0,0,0,0,0,0,0,-1,1721,1142,0,0
504,-118,0,0,0,0,0,0,0,0,0,-1,1728,1142,0,0
511,-118,0,0,0,0,0,0,0,0,0,-1,1735,1142,0,0
518,-118,0,0,0,0,0,0,0,0,0,-1,1742,1142,0,0
525,-118,0,0,0,0,0,0,0,0,0,-1,1749,1142,0,0
532,-118,0,0,0,0,0,0,0,0,0,-1,1756,1142,0,0
539,-118,0,0,0,0,0,0,0,0,0,-1,1763,1142,0,0
546,-118,0,0,0,0,0,0,0,0,0,-1,1770,1142,0,0
553,-118,0,0,0,0,0,0,0,0,0,-1,1777,1142,0,0
560,-118,0,0,0,0,0,0,0,0,0,-1,1784,1142,0,0
567,-118,0,0,0,0,0,0,0,0,0,-1,1791,1142,0,0
574,-118,0,0,0,0,0,0,0,0,0,-1,1798,1142,0,0
581,-118,0,0,0,0,0,0,0,0,0,-1,1805,1142,0,0
588,-118,0,0,0,0,0,0,0,0,0,-1,1812,1142,0,0
595,-118,0,0,0,0,0,0,0,0,0,-1,1819,1142,0,0
602,-118,0,0,0,0,0,0,0,0,0,-1,1826,1142,0,0
609,-118,0,0,0,0,0,0,0,0,0,-1,1833,1142,0,0
616,-118,0,0,0,0,0,0,0,0,0,-1,1840,1142,0,0
623,-118,0,0,0,0,0,0,0,0,0,-1,1847,1142,0,0
630,-118,0,0,0,0,0,0,0,0,0,-1,1854,1142,0,0
637,-118,0,0,0,0,0,0,0,0,0,-1,1861,1142,0,0
644,-118,4.30676,0.554321,0.00331149,-0.0028779,-0.00387406,0.00517517,-0.00474158,-0.448386,0.00572726,0.0408878,1868,1142,4.30678,-0.554261
651,-118,4.25012,0.611084,0.00274172,-0.00156964,-0.00289957,0.00419913,-0.00302706,-0.46575,0.00419029,0.0399722,1875,1142,4.25008,-0.611023
658,-118,4.19788,0.634521,0.00210561,-0.000702392,-0.00205344,0.00318915,-0.00178593,-0.485537,0.0029102,0.0414095,1882,1142,4.19788,-0.634475
665,-118,4.32996,0.361206,0.00128627,-0.000195617,-0.00123214,0.00198309,-0.000892441,-0.514694,0.00169953,0.0412309,1889,1142,4.32996,-0.361192
672,-118,4.42957,0.190063,0.000505736,6.02727e-05,-0.000484446,0.0008162,-0.000250191,-0.569926,0.000643941,0.0451091,1896,1142,4.42951,-0.190097
679,-118,4.32422,0.486938,-0.000142388,0.000155048,0.000103738,0.000187655,-0.000174995,1.26626,0.000209418,0.0433128,1903,1142,4.32427,-0.486997
686,-118,4.24561,0.74585,-0.000665971,0.000147922,0.000533736,0.000412153,-0.000930202,1.11111,0.000794014,0.0371528,1910,1142,4.24563,-0.745881
693,-118,4.24231,0.638062,-0.00105842,0.000187339,0.000833823,0.000605247,-0.00147633,1.10619,0.00123638,0.0332647,1917,1142,4.24234,-0.638013
700,-118,4.25879,0.554688,-0.00125384,0.000116234,0.00106584,0.000698201,-0.00183581,1.07102,0.00151136,0.023553,1924,1142,4.25877,-0.554722
707,-118,4.28052,0.633423,0,0,0,0,0,0,0,-1,1931,1142,4.28056,-0.633424
714,-118,4.18713,0.698975,-0.00142537,-7.00485e-05,0.001222,0.000649614,-0.00214504,1.03856,0.00168874,0.0257464,1938,1142,4.18714,-0.699
721,-118,4.14697,0.732422,-0.0014271,-0.000122067,0.00126174,0.000645901,-0.00219506,1.02404,0.0017196,0.00878786,1945,1142,4.14696,-0.732367
728,-118,4.16113,0.721924,-0.00122206,-0.00015932,0.000984282,0.000427865,-0.00180924,1.03291,0.00137122,0.0120644,1952,1142,4.16114,-0.72193
735,-118,4.18201,0.711792,-0.00103159,-0.000175288,0.000390793,-2.37561e-05,-0.00118312,1.20089,0.00078095,0.0129219,1959,1142,4.18197,-0.711746
742,-118,4.15796,0.693604,-0.00110826,3.94032e-05,-0.000114449,5.07052e-05,-0.00111956,-1.47236,0.000763835,0.0196376,1966,1142,4.15792,-0.69363
749,-118,4.172,0.693359,-0.00158034,0.000330161,-0.000835382,0.000643913,-0.00189409,-1.21152,0.00152342,0.0199059,1973,1142,4.172,-0.693356
756,-118,4.16711,0.692383,-0.00207972,0.00097591,-0.00195066,0.00192585,-0.00302967,-1.11761,0.00288463,0.0167908,1980,1142,4.16709,-0.692392
763,-118,4.16235,0.670044,-0.0027899,0.00139445,-0.00343042,0.00332035,-0.00471581,-1.05923,0.00466294,0.00945553,1987,1142,4.16238,-0.670046
770,-118,4.1532,0.688965,-0.00384226,0.00203681,-0.00514147,0.00501974,-0.00682518,-1.04508,0.0068651,0.0111999,1994,1142,4.15315,-0.688972
777,-118,4.12671,0.657104,-0.00528595,0.00278837,-0.00726707,0.00706439,-0.00956197,-1.03894,0.00963527,0.0259893,2001,1142,4.12671,-0.657128
784,-118,4.05469,0.490845,-0.00704763,0.00365142,-0.00996161,0.00960902,-0.0130052,-1.03181,0.0131053,0.0427796,2008,1142,4.05466,-0.490855
791,-118,3.89551,0.274536,-0.00911734,0.00456563,-0.0133796,0.0127515,-0.0173032,-1.02174,0.0174183,0.0448323,2015,1142,3.89546,-0.27452
798,-118,3.65515,0.226196,-0.0114524,0.0054271,-0.017653,0.0165541,-0.0225794,-1.00838,0.0226828,0.0464626,2022,1142,3.6552,-0.226186
805,-118,3.63708,0.0266113,-0.0138945,0.00601122,-0.0229095,0.0210364,-0.0289197,-0.990319,0.0289617,0.0489039,2029,1142,3.63711,-0.0265891
812,-118,3.45752,-0.146851,0,0,0,0,0,0,0,-1,2036,1142,3.45747,0.146903
-700,-125,0,0,0,0,0,0,0,0,0,-1,524,1149,0,0
-693,-125,-0.658691,0.154663,0,0,0,0,0,0,0,-1,531,1149,-0.658699,-0.154651
-686,-125,-0.715942,0.362305,0,0,0,0,0,0,0,-1,538,1149,-0.715971,-0.362299
-679,-125,2.01917,0.640503,0,0,0,0,0,0,0,-1,545,1149,2.01919,-0.640465
-672,-125,-0.74292,0.497681,-0.0137324,-0.000757953,0.0116499,0.00608912,-0.0205794,1.03944,0.0161369,0.0462801,552,1149,-0.742943,-0.497673
-665,-125,-0.225586,0.567261,-0.00987398,-0.00100545,0.0083149,0.00398368,-0.0148631,1.03036,0.0114696,0.0415205,559,1149,-0.225564,-0.567312
-658,-125,-0.543884,0.707031,-0.00673421,-0.000969657,0.00576343,0.00259203,-0.0102959,1.01726,0.0078715,0.0434995,566,1149,-0.543871,-0.707054
-651,-125,-0.613037,0.746582,-0.00429499,-0.000797422,0.00386627,0.00169718,-0.00678959,0.997788,0.00518554,0.038333,573,1149,-0.613045,-0.746592
-644,-125,-0.609924,0.684814,-0.00249014,-0.000585391,0.00248419,0.00112273,-0.00419826,0.968444,0.00323862,0.0224598,580,1149,-0.609929,-0.684857
-637,-125,-0.602295,0.69165,-0.00123615,-0.000714903,0.00131848,0.000368465,-0.00231952,0.882975,0.00168267,0.0120374,587,1149,-0.602309,-0.691635
-630,-125,-0.584412,0.724365,-0.000322541,-0.000299788,0.000571147,0.000260096,-0.000882424,0.795356,0.000691484,0.0137089,594,1149,-0.584432,-0.724358
-623,-125,-0.583374,0.730225,0.000376624,-0.000164136,-0.000173124,0.0004273,-0.000214812,-0.284762,0.00037743,0.0128637,601,1149,-0.583393,-0.730233
-616,-125,-0.59259,0.716187,0.000476272,-0.000177498,-0.000360911,0.000636327,-0.000337553,-0.417414,0.000571022,0.012955,608,1149,-0.592609,-0.716217
-609,-125,-0.590637,0.74292,0.000661949,-0.00039337,-0.000737606,0.0010412,-0.000772621,-0.474915,0.00105103,0.0120194,615,1149,-0.59062,-0.742881
-602,-125,-0.604187,0.781006,0.000932417,-0.000216358,-0.000931237,0.00145216,-0.000736101,-0.509058,0.00128574,0.0107086,622,1149,-0.604199,-0.780989
-595,-125,-0.613525,0.794067,0.000687475,-0.000470587,-0.000884655,0.00116575,-0.000948859,-0.495622,0.00122301,0.00939638,629,1149,-0.613515,-0.79402
-588,-125,-0.566162,0.801025,0.000296471,-0.000586485,-0.00102079,0.000967159,-0.00125717,-0.5813,0.00128785,0.0150065,636,1149,-0.566139,-0.800971
-581,-125,-0.534058,0.67041,0.000371725,-0.0006212,-0.0010371,0.00102507,-0.00127454,-0.562165,0.00133028,0.0336758,643,1149,-0.534075,-0.670424
-574,-125,-0.534424,0.524902,0,0,0,0,0,0,0,-1,650,1149,-0.534443,-0.524914
-567,-125,-0.602112,0.708496,0.000666239,-0.000425416,-0.000968271,0.00123193,-0.000991109,-0.528743,0.00128598,0.0412113,657,1149,-0.602136,-0.708537
-560,-125,-0.500427,0.474487,0.000711657,-0.000211849,-0.000786383,0.00116183,-0.000662025,-0.519926,0.0010661,0.0400791,664,1149,-0.500443,-0.474546
-553,-125,-0.500366,0.53064,0.000668498,0.000126767,-0.000466248,0.00093685,-0.000141584,-0.522252,0.000676717,0.0399424,671,1149,-0.500336,-0.530606
-546,-125,-0.503906,0.663696,0.000496192,0.000618883,4.74187e-05,0.000635073,0.000480002,1.24177,0.000382322,0.037288,678,1149,-0.503913,-0.66375
-539,-125,-0.606873,0.699951,0.000162316,0.00129114,0.000777217,0.00168726,-0.000233808,1.09944,0.00121033,0.0391415,685,1149,-0.60686,-0.699932
-532,-125,-0.777527,0.874268,0,0,0,0,0,0,0,-1,692,1149,-0.777512,-0.874322
-525,-125,-0.559265,0.808472,0,0,0,0,0,0,0,-1,699,1149,-0.559242,-0.808501
-518,-125,0,0,0,0,0,0,0,0,0,-1,706,1149,0,0
-511,-125,0,0,0,0,0,0,0,0,0,-1,713,1149,0,0
-504,-125,0,0,0,0,0,0,0,0,0,-1,720,1149,0,0
-497,-125,0,0,0,0,0,0,0,0,0,-1,727,1149,0,0
-490,-125,0,0,0,0,0,0,0,0,0,-1,734,1149,0,0
-483,-125,0,0,0,0,0,0,0,0,0,-1,741,1149,0,0
-476,-125,0,0,0,0,0,0,0,0,0,-1,748,1149,0,0
-469,-125,0,0,0,0,0,0,0,0,0,-1,755,1149,0,0
-462,-125,0,0,0,0,0,0,0,0,0,-1,762,1149,0,0
-455,-125,0,0,0,0,0,0,0,0,0,-1,769,1149,0,0
-448,-125,0,0,0,0,0,0,0,0,0,-1,776,1149,0,0
-441,-125,0,0,0,0,0,0,0,0,0,-1,783,1149,0,0
-434,-125,0,0,0,0,0,0,0,0,0,-1,790,1149,0,0
-427,-125,0,0,0,0,0,0,0,0,0,-1,797,1149,0,0
-420,-125,0,0,0,0,0,0,0,0,0,-1,804,1149,0,0
-413,-125,0,0,0,0,0,0,0,0,0,-1,811,1149,0,0
-406,-125,0,0,0,0,0,0,0,0,0,-1,818,1149,0,0
-399,-125,0,0,0,0,0,0,0,0,0,-1,825,1149,0,0
-392,-125,0,0,0,0,0,0,0,0,0,-1,832,1149,0,0
-385,-125,0,0,0,0,0,0,0,0,0,-1,839,1149,0,0
-378,-125,0,0,0,0,0,0,0,0,0,-1,846,1149,0,0
-371,-125,0,0,0,0,0,0,0,0,0,-1,853,1149,0,0
-364,-125,0,0,0,0,0,0,0,0,0,-1,860,1149,0,0
-357,-125,0,0,0,0,0,0,0,0,0,-1,867,1149,0,0
-350,-125,0,0,0,0,0,0,0,0,0,-1,874,1149,0,0
-343,-125,0,0,0,0,0,0,0,0,0,-1,881,1149,0,0
-336,-125,0,0,0,0,0,0,0,0,0,-1,888,1149,0,0
-329,-125,0,0,0,0,0,0,0,0,0,-1,895,1149,0,0
-322,-125,0,0,0,0,0,0,0,0,0,-1,902,1149,0,0
-315,-125,0,0,0,0,0,0,0,0,0,-1,909,1149,0,0
-308,-125,0,0,0,0,0,0,0,0,0,-1,916,1149,0,0
-301,-125,0,0,0,0,0,0,0,0,0,-1,923,1149,0,0
-294,-125,0,0,0,0,0,0,0,0,0,-1,930,1149,0,0
-287,-125,0,0,0,0,0,0,0,0,0,-1,937,1149,0,0
-280,-125,0,0,0,0,0,0,0,0,0,-1,944,1149,0,0
-273,-125,0,0,0,0,0,0,0,0,0,-1,951,1149,0,0
-266,-125,0,0,0,0,0,0,0,0,0,-1,958,1149,0,0
-259,-125,0,0,0,0,0,0,0,0,0,-1,965,1149,0,0
-252,-125,0,0,0,0,0,0,0,0,0,-1,972,1149,0,0
-245,-125,0,0,0,0,0,0,0,0,0,-1,979,1149,0,0
-238,-125,0,0,0,0,0,0,0,0,0,-1,986,1149,0,0
-231,-125,0,0,0,0,0,0,0,0,0,-1,993,1149,0,0
-224,-125,0,0,0,0,0,0,0,0,0,-1,1000,1149,0,0
-217,-125,0,0,0,0,0,0,0,0,0,-1,1007,1149,0,0
-210,-125,0,0,0,0,0,0,0,0,0,-1,1014,1149,0,0
-203,-125,0,0,0,0,0,0,0,0,0,-1,1021,1149,0,0
-196,-125,0,0,0,0,0,0,0,0,0,-1,1028,1149,0,0
-189,-125,0,0,0,0,0,0,0,0,0,-1,1035,1149,0,0
-182,-125,0,0,0,0,0,0,0,0,0,-1,1042,1149,0,0
-175,-125,0,0,0,0,0,0,0,0,0,-1,1049,1149,0,0
-168,-125,0,0,0,0,0,0,0,0,0,-1,1056,1149,0,0
-161,-125,0,0,0,0,0,0,0,0,0,-1,1063,1149,0,0
-154,-125,0,0,0,0,0,0,0,0,0,-1,1070,1149,0,0
-147,-125,0,0,0,0,0,0,0,0,0,-1,1077,1149,0,0
-140,-125,0,0,0,0,0,0,0,0,0,-1,1084,1149,0,0
-133,-125,0,0,0,0,0,0,0,0,0,-1,1091,1149,0,0
-126,-125,0,0,0,0,0,0,0,0,0,-1,1098,1149,0,0
-119,-125,0,0,0,0,0,0,0,0,0,-1,1105,1149,0,0
-112,-125,0,0,0,0,0,0,0,0,0,-1,1112,1149,0,0
-105,-125,0,0,0,0,0,0,0,0,0,-1,1119,1149,0,0
-98,-125,0,0,0,0,0,0,0,0,0,-1,1126,1149,0,0
-91,-125,0,0,0,0,0,0,0,0,0,-1,1133,1149,0,0
-84,-125,0,0,0,0,0,0,0,0,0,-1,1140,1149,0,0
-77,-125,0,0,0,0,0,0,0,0,0,-1,1147,1149,0,0
-70,-125,0,0,0,0,0,0,0,0,0,-1,1154,1149,0,0
-63,-125,0,0,0,0,0,0,0,0,0,-1,1161,1149,0,0
-56,-125,0,0,0,0,0,0,0,0,0,-1,1168,1149,0,0
-49,-125,0,0,0,0,0,0,0,0,0,-1,1175,1149,0,0
-42,-125,0,0,0,0,0,0,0,0,0,-1,1182,1149,0,0
-35,-125,0,0,0,0,0,0,0,0,0,-1,1189,1149,0,0
-28,-125,0,0,0,0,0,0,0,0,0,-1,1196,1149,0,0
-21,-125,0,0,0,0,0,0,0,0,0,-1,1203,1149,0,0
-14,-125,0,0,0,0,0,0,0,0,0,-1,1210,1149,0,0
-7,-125,0,0,0,0,0,0,0,0,0,-1,1217,1149,0,0
0,-125,0,0,0,0,0,0,0,0,0,-1,1224,1149,0,0
7,-125,0,0,0,0,0,0,0,0,0,-1,1231,1149,0,0
14,-125,0,0,0,0,0,0,0,0,0,-1,1238,1149,0,0
21,-125,0,0,0,0,0,0,0,0,0,-1,1245,1149,0,0
28,-125,0,0,0,0,0,0,0,0,0,-1,1252,1149,0,0
35,-125,0,0,0,0,0,0,0,0,0,-1,1259,1149,0,0
42,-125,0,0,0,0,0,0,0,0,0,-1,1266,1149,0,0
49,-125,0,0,0,0,0,0,0,0,0,-1,1273,1149,0,0
56,-125,0,0,0,0,0,0,0,0,0,-1,1280,1149,0,0
63,-125,0,0,0,0,0,0,0,0,0,-1,1287,1149,0,0
70,-125,0,0,0,0,0,0,0,0,0,-1,1294,1149,0,0
77,-125,0,0,0,0,0,0,0,0,0,-1,1301,1149,0,0
84,-125,0,0,0,0,0,0,0,0,0,-1,1308,1149,0,0
91,-125,0,0,0,0,0,0,0,0,0,-1,1315,1149,0,0
98,-125,0,0,0,0,0,0,0,0,0,-1,1322,1149,0,0
105,-125,0,0,0,0,0,0,0,0,0,-1,1329,1149,0,0
112,-125,0,0,0,0,0,0,0,0,0,-1,1336,1149,0,0
119,-125,0,0,0,0,0,0,0,0,0,-1,1343,1149,0,0
126,-125,0,0,0,0,0,0,0,0,0,-1,1350,1149,0,0
133,-125,0,0,0,0,0,0,0,0,0,-1,1357,1149,0,0
140,-125,0,0,0,0,0,0,0,0,0,-1,1364,1149,0,0
147,-125,0,0,0,0,0,0,0,0,0,-1,1371,1149,0,0
154,-125,0,0,0,0,0,0,0,0,0,-1,1378,1149,0,0
161,-125,0,0,0,0,0,0,0,0,0,-1,1385,1149,0,0
168,-125,0,0,0,0,0,0,0,0,0,-1,1392,1149,0,0
175,-125,0,0,0,0,0,0,0,0,0,-1,1399,1149,0,0
182,-125,0,0,0,0,0,0,0,0,0,-1,1406,1149,0,0
189,-125,0,0,0,0,0,0,0,0,0,-1,1413,1149,0,0
196,-125,0,0,0,0,0,0,0,0,0,-1,1420,1149,0,0
203,-125,0,0,0,0,0,0,0,0,0,-1,1427,1149,0,0
210,-125,0,0,0,0,0,0,0,0,0,-1,1434,1149,0,0
217,-125,0,0,0,0,0,0,0,0,0,-1,1441,1149,0,0
224,-125,0,0,0,0,0,0,0,0,0,-1,1448,1149,0,0
231,-125,0,0,0,0,0,0,0,0,0,-1,1455,1149,0,0
238,-125,0,0,0,0,0,0,0,0,0,-1,1462,1149,0,0
245,-125,0,0,0,0,0,0,0,0,0,-1,1469,1149,0,0
252,-125,0,0,0,0,0,0,0,0,0,-1,1476,1149,0,0
259,-125,0,0,0,0,0,0,0,0,0,-1,1483,1149,0,0
266,-125,0,0,0,0,0,0,0,0,0,-1,1490,1149,0,0
273,-125,0,0,0,0,0,0,0,0,0,-1,1497,1149,0,0
280,-125,0,0,0,0,0,0,0,0,0,-1,1504,1149,0,0
287,-125,0,0,0,0,0,0,0,0,0,-1,1511,1149,0,0
294,-125,0,0,0,0,0,0,0,0,0,-1,1518,1149,0,0
301,-125,0,0,0,0,0,0,0,0,0,-1,1525,1149,0,0
308,-125,0,0,0,0,0,0,0,0,0,-1,1532,1149,0,0
315,-125,0,0,0,0,0,0,0,0,0,-1,1539,1149,0,0
322,-125,0,0,0,0,0,0,0,0,0,-1,1546,1149,0,0
329,-125,0,0,0,0,0,0,0,0,0,-1,1553,1149,0,0
336,-125,0,0,0,0,0,0,0,0,0,-1,1560,1149,0,0
343,-125,0,0,0,0,0,0,0,0,0,-1,1567,1149,0,0
350,-125,0,0,0,0,0,0,0,0,0,-1,1574,1149,0,0
357,-125,0,0,0,0,0,0,0,0,0,-1,1581,1149,0,0
364,-125,0,0,0,0,0,0,0,0,0,-1,1588,1149,0,0
371,-125,0,0,0,0,0,0,0,0,0,-1,1595,1149,0,0
378,-125,0,0,0,0,0,0,0,0,0,-1,1602,1149,0,0
385,-125,0,0,0,0,0,0,0,0,0,-1,1609,1149,0,0
392,-125,0,0,0,0,0,0,0,0,0,-1,1616,1149,0,0
399,-125,0,0,0,0,0,0,0,0,0,-1,1623,1149,0,0
406,-125,0,0,0,0,0,0,0,0,0,-1,1630,1149,0,0
413,-125,0,0,0,0,0,0,0,0,0,-1,1637,1149,0,0
420,-125,0,0,0,0,0,0,0,0,0,-1,1644,1149,0,0
427,-125,0,0,0,0,0,0,0,0,0,-1,1651,1149,0,0
434,-125,0,0,0,0,0,0,0,0,0,-1,1658,1149,0,0
441,-125,0,0,0,0,0,0,0,0,0,-1,1665,1149,0,0
448,-125,0,0,0,0,0,0,0,0,0,-1,1672,1149,0,0
455,-125,0,0,0,0,0,0,0,0,0,-1,1679,1149,0,0
462,-125,0,0,0,0,0,0,0,0,0,-1,1686,1149,0,0
469,-125,0,0,0,0,0,0,0,0,0,-1,1693,1149,0,0
476,-125,0,0,0,0,0,0,0,0,0,-1,1700,1149,0,0
483,-125,0,0,0,0,0,0,0,0,0,-1,1707,1149,0,0
490,-125,0,0,0,0,0,0,0,0,0,-1,1714,1149,0,0
497,-125,0,0,0,0,0,0,0,0,0,-1,1721,1149,0,0
504,-125,0,0,0,0,0,0,0,0,0,-1,1728,1149,0,0
511,-125,0,0,0,0,0,0,0,0,0,-1,1735,1149,0,0
518,-125,0,0,0,0,0,0,0,0,0,-1,1742,1149,0,0
525,-125,0,0,0,0,0,0,0,0,0,-1,1749,1149,0,0
532,-125,0,0,0,0,0,0,0,0,0,-1,1756,1149,0,0
539,-125,0,0,0,0,0,0,0,0,0,-1,1763,1149,0,0
546,-125,0,0,0,0,0,0,0,0,0,-1,1770,1149,0,0
553,-125,0,0,0,0,0,0,0,0,0,-1,1777,1149,0,0
560,-125,0,0,0,0,0,0,0,0,0,-1,1784,1149,0,0
567,-125,0,0,0,0,0,0,0,0,0,-1,1791,1149,0,0
574,-125,0,0,0,0,0,0,0,0,0,-1,1798,1149,0,0
581,-125,0,0,0,0,0,0,0,0,0,-1,1805,1149,0,0
588,-125,0,0,0,0,0,0,0,0,0,-1,1812,1149,0,0
595,-125,0,0,0,0,0,0,0,0,0,-1,1819,1149,0,0
602,-125,0,0,0,0,0,0,0,0,0,-1,1826,1149,0,0
609,-125,0,0,0,0,0,0,0,0,0,-1,1833,1149,0,0
616,-125,0,0,0,0,0,0,0,0,0,-1,1840,1149,0,0
623,-125,0,0,0,0,0,0,0,0,0,-1,1847,1149,0,0
630,-125,0,0,0,0,0,0,0,0,0,-1,1854,1149,0,0
637,-125,0,0,0,0,0,0,0,0,0,-1,1861,1149,0,0
644,-125,4.27295,0.934814,0.00372095,-0.00373743,-0.00470775,0.00599757,-0.00601405,-0.450434,0.00693492,0.0441974,1868,1149,4.27294,-0.934796
651,-125,4.16125,0.770508,0.00294348,-0.00235139,-0.00353886,0.00471559,-0.00412351,-0.464255,0.00510707,0.0417752,1875,1149,4.16121,-0.770465
658,-125,4.24536,0.543457,0.00213773,-0.00139026,-0.00248897,0.00342441,-0.00267695,-0.477119,0.00353142,0.041993,1882,1149,4.24531,-0.543435
665,-125,4.33154,0.291748,0.00120586,-0.000793324,-0.00150558,0.00201346,-0.00160093,-0.492348,0.0020913,0.0445695,1889,1149,4.33149,-0.291691
672,-125,4.44958,0.0476074,0.000363515,-0.00044823,-0.000649299,0.000723359,-0.000808074,-0.506065,0.000884624,0.0445991,1896,1149,4.44964,-0.0475526
679,-125,4.31897,0.399536,-0.000313728,-0.00027263,1.30741e-05,-0.000268823,-0.000317534,1.28748,0.000197465,0.039236,1903,1149,4.31892,-0.399572
686,-125,4.22632,0.591553,-0.000850049,-0.000207745,0.000487093,5.45398e-05,-0.00111233,1.07685,0.000760388,0.0361708,1910,1149,4.22632,-0.591554
693,-125,4.24353,0.528076,-0.00126974,-9.69874e-05,0.000819694,0.000324474,-0.0016912,1.09588,0.00124974,0.030995,1917,1149,4.24351,-0.528059
700,-125,4.26062,0.585327,-0.00143637,-0.000125244,0.00107863,0.000481418,-0.00204303,1.05846,0.00154766,0.0165152,1924,1149,4.26059,-0.5853
707,-125,4.30725,0.70752,0,0,0,0,0,0,0,-1,1931,1149,4.30721,-0.707554
714,-125,4.16553,0.721069,-0.00157836,-0.000229007,0.00123128,0.000500322,-0.00230769,1.03603,0.00172953,0.0312167,1938,1149,4.16548,-0.721068
721,-125,4.1239,0.730591,-0.00156309,-0.000250761,0.00125296,0.000507455,-0.00232131,1.02661,0.00174151,0.0147842,1945,1149,4.1239,-0.730601
728,-125,4.14221,0.734619,-0.0012918,-0.000271383,0.000970969,0.000315264,-0.00187845,1.0273,0.00136954,0.0106933,1952,1149,4.14219,-0.734663
735,-125,4.15271,0.723755,-0.000987405,-0.00029689,0.00035529,-0.000146735,-0.00113756,1.17094,0.000714503,0.0149382,1959,1149,4.15265,-0.723808
742,-125,4.08765,0.68103,-0.00094937,-0.000107239,-0.000218072,-5.41194e-05,-0.00100249,-1.33186,0.000651037,0.0232442,1966,1149,4.08761,-0.681091
749,-125,4.11023,0.669922,-0.00132819,6.56161e-05,-0.0011288,0.00069531,-0.00195789,-1.06195,0.00158859,0.0249076,1973,1149,4.11019,-0.669884
756,-125,4.1604,0.713135,-0.00171197,0.000631637,-0.00238033,0.00211297,-0.00319329,-1.01413,0.00308466,0.0205384,1980,1149,4.16037,-0.71308
763,-125,4.16577,0.687378,-0.00230128,0.00052556,-0.0040587,0.0034099,-0.00518562,-0.952953,0.0049978,0.0110966,1987,1149,4.16582,-0.687437
770,-125,4.16687,0.665161,-0.00321935,0.00071322,-0.00603649,0.00509559,-0.00760172,-0.942846,0.00737824,0.0131613,1994,1149,4.16681,-0.665168
777,-125,4.15784,0.644531,-0.00452964,0.0008054,-0.00853767,0.00708257,-0.0108068,-0.936814,0.0104028,0.0249295,2001,1149,4.15789,-0.64459
784,-125,4.02856,0.506958,-0.00617764,0.000728186,-0.0117324,0.00950522,-0.0149547,-0.928511,0.0142383,0.041916,2008,1149,4.02853,-0.506929
791,-125,3.87866,0.22876,-0.00819266,0.00032747,-0.0157843,0.0124165,-0.0202817,-0.917204,0.0190595,0.0430276,2015,1149,3.8787,-0.228783
798,-125,3.77368,0.0354004,-0.010574,-0.000622472,-0.0208354,0.0158231,-0.0270196,-0.902609,0.0250152,0.0447714,2022,1149,3.77371,-0.0354353
805,-125,3.94946,-0.421143,-0.0131911,-0.00252132,-0.0269988,0.0196647,-0.0353771,-0.88294,0.0322071,0.0490903,2029,1149,3.94941,0.421168
812,-125,3.85278,-0.633423,0,0,0,0,0,0,0,-1,2036,1149,3.8528,0.633402
-700,-132,0,0,0,0,0,0,0,0,0,-1,524,1156,0,0
-693,-132,-0.203186,-0.0317383,0,0,0,0,0,0,0,-1,531,1156,-0.203183,0.0317012
-686,-132,1.29718,0.171387,0,0,0,0,0,0,0,-1,538,1156,1.29717,-0.171391
-679,-132,1.14294,0.404419,-0.0158026,-0.000261831,0.0165525,0.0102534,-0.0263178,1.00485,0.0217828,0.0477862,545,1156,1.14295,-0.404388
-672,-132,0.0882568,-0.0961914,-0.00996791,-0.000307479,0.0109323,0.00681413,-0.0170895,0.993418,0.0142195,0.0404778,552,1156,0.0882267,0.0962064
-665,-132,-0.187256,0.616821,-0.00551869,-0.000160236,0.00669502,0.00437175,-0.0100507,0.97573,0.00853925,0.0407942,559,1156,-0.187262,-0.616841
-658,-132,-0.525208,0.685791,-0.00228988,3.88176e-05,0.00363691,0.00269322,-0.00494428,0.940316,0.0044729,0.0429974,566,1156,-0.525208,-0.685828
-651,-132,-0.562256,0.684937,-0.000127295,0.000215263,0.00156599,0.00161932,-0.00153135,0.839869,0.00181927,0.0371554,573,1156,-0.562269,-0.684981
-644,-132,-0.591064,0.680908,0.00116478,0.000332002,0.000266195,0.0012426,0.000254185,0.284406,0.000758012,0.0187331,580,1156,-0.591052,-0.680904
-637,-132,-0.587769,0.685669,0.00176579,9.64582e-05,-0.000619971,0.00197085,-0.000108603,-0.319432,0.00135155,0.0103671,587,1156,-0.587784,-0.685699
-630,-132,-0.5802,0.71106,0.0021163,0.00036426,-0.00109773,0.00264471,-0.000164147,-0.448628,0.00182032,0.00922564,594,1156,-0.580178,-0.711039
-623,-132,-0.598816,0.737671,0.00228899,0.000342649,-0.00157748,0.00316933,-0.000537692,-0.509016,0.00231305,0.0138707,601,1156,-0.598819,-0.737699
-616,-132,-0.61322,0.751709,0.0019028,0.000211353,-0.00146778,0.00275107,-0.000636918,-0.524032,0.00207913,0.018101,608,1156,-0.613225,-0.751718
-609,-132,-0.579224,0.751465,0.00138668,-0.000257676,-0.00147827,0.00225603,-0.00112702,-0.531612,0.00198913,0.0111175,615,1156,-0.579232,-0.751521
-602,-132,-0.583679,0.779297,0.00108995,-0.000107074,-0.00131533,0.00193653,-0.000953659,-0.571885,0.00170051,0.0102542,622,1156,-0.583688,-0.779245
-595,-132,-0.588501,0.795044,0.000617865,-0.000462444,-0.000868032,0.00110008,-0.000944663,-0.50708,0.00118167,0.00999495,629,1156,-0.588471,-0.795012
-588,-132,-0.564453,0.797119,0.000104229,-0.000573331,-0.00101996,0.000840201,-0.0013093,-0.625055,0.00125083,0.0144077,636,1156,-0.564445,-0.797141
-581,-132,-0.553528,0.747314,0.000205198,-0.000600153,-0.00109569,0.000969863,-0.00136482,-0.609305,0.00135434,0.0319458,643,1156,-0.553511,-0.747306
-574,-132,-0.57135,0.767456,0.000428488,-0.00048553,-0.00118489,0.00124145,-0.00129849,-0.60134,0.00146655,0.0403088,650,1156,-0.571378,-0.76748
-567,-132,-0.61853,0.816284,0.000590028,-0.000342951,-0.00116654,0.0013799,-0.00113282,-0.595192,0.00145305,0.0398847,657,1156,-0.618519,-0.816274
-560,-132,-0.632813,0.712891,0.000724455,-0.000107765,-0.00107687,0.00146282,-0.000846126,-0.601032,0.00134882,0.0368383,664,1156,-0.632797,-0.712851
-553,-132,-0.596802,0.686523,0.000826849,0.000250631,-0.000876013,0.00146091,-0.000383435,-0.626527,0.00112377,0.0370054,671,1156,-0.596791,-0.686543
-546,-132,-0.556519,0.601318,0.00087232,0.0007612,-0.000515301,0.00133505,0.000298472,-0.731696,0.000809105,0.0378397,678,1156,-0.556524,-0.601305
-539,-132,-0.467346,0.595581,0.000843014,0.00145301,2.28969e-05,0.00145387,0.000842155,1.53333,0.0008429,0.0398267,685,1156,-0.467332,-0.595564
-532,-132,-0.570984,0.845093,0.000713373,0.00235138,0.00069398,0.00260586,0.000458889,1.21932,0.00160628,0.0410308,692,1156,-0.571013,-0.845049
-525,-132,-0.618164,0.864258,0.000351203,0.00343642,0.00143917,0.00400352,-0.000215894,1.19544,0.00274381,0.0398909,699,1156,-0.618146,-0.864237
-518,-132,0,0,0,0,0,0,0,0,0,-1,706,1156,0,0
-511,-132,0,0,0,0,0,0,0,0,0,-1,713,1156,0,0
-504,-132,0,0,0,0,0,0,0,0,0,-1,720,1156,0,0
-497,-132,0,0,0,0,0,0,0,0,0,-1,727,1156,0,0
-490,-132,0,0,0,0,0,0,0,0,0,-1,734,1156,0,0
-483,-132,0,0,0,0,0,0,0,0,0,-1,741,1156,0,0
-476,-132,0,0,0,0,0,0,0,0,0,-1,748,1156,0,0
-469,-132,0,0,0,0,0,0,0,0,0,-1,755,1156,0,0
-462,-132,0,0,0,0,0,0,0,0,0,-1,762,1156,0,0
-455,-132,0,0,0,0,0,0,0,0,0,-1,769,1156,0,0
-448,-132,0,0,0,0,0,0,0,0,0,-1,776,1156,0,0
-441,-132,0,0,0,0,0,0,0,0,0,-1,783,1156,0,0
-434,-132,0,0,0,0,0,0,0,0,0,-1,790,1156,0,0
-427,-132,0,0,0,0,0,0,0,0,0,-1,797,1156,0,0
-420,-132,0,0,0,0,0,0,0,0,0,-1,804,1156,0,0
-413,-132,0,0,0,0,0,0,0,0,0,-1,811,1156,0,0
-406,-132,0,0,0,0,0,0,0,0,0,-1,818,1156,0,0
-399,-132,0,0,0,0,0,0,0,0,0,-1,825,1156,0,0
-392,-132,0,0,0,0,0,0,0,0,0,-1,832,1156,0,0
-385,-132,0,0,0,0,0,0,0,0,0,-1,839,1156,0,0
-378,-132,0,0,0,0,0,0,0,0,0,-1,846,1156,0,0
-371,-132,0,0,0,0,0,0,0,0,0,-1,853,1156,0,0
-364,-132,0,0,0,0,0,0,0,0,0,-1,860,1156,0,0
-357,-132,0,0,0,0,0,0,0,0,0,-1,867,1156,0,0
-350,-132,0,0,0,0,0,0,0,0,0,-1,874,1156,0,0
-343,-132,0,0,0,0,0,0,0,0,0,-1,881,1156,0,0
-336,-132,0,0,0,0,0,0,0,0,0,-1,888,1156,0,0
-329,-132,0,0,0,0,0,0,0,0,0,-1,895,1156,0,0
-322,-132,0,0,0,0,0,0,0,0,0,-1,902,1156,0,0
-315,-132,0,0,0,0,0,0,0,0,0,-1,909,1156,0,0
-308,-132,0,0,0,0,0,0,0,0,0,-1,916,1156,0,0
-301,-132,0,0,0,0,0,0,0,0,0,-1,923,1156,0,0
-294,-132,0,0,0,0,0,0,0,0,0,-1,930,1156,0,0
-287,-132,0,0,0,0,0,0,0,0,0,-1,937,1156,0,0
-280,-132,0,0,0,0,0,0,0,0,0,-1,944,1156,0,0
-273,-132,0,0,0,0,0,0,0,0,0,-1,951,1156,0,0
-266,-132,0,0,0,0,0,0,0,0,0,-1,958,1156,0,0
-259,-132,0,0,0,0,0,0,0,0,0,-1,965,1156,0,0
-252,-132,0,0,0,0,0,0,0,0,0,-1,972,1156,0,0
-245,-132,0,0,0,0,0,0,0,0,0,-1,979,1156,0,0
-238,-132,0,0,0,0,0,0,0,0,0,-1,986,1156,0,0
-231,-132,0,0,0,0,0,0,0,0,0,-1,993,1156,0,0
-224,-132,0,0,0,0,0,0,0,0,0,-1,1000,1156,0,0
-217,-132,0,0,0,0,0,0,0,0,0,-1,1007,1156,0,0
-210,-132,0,0,0,0,0,0,0,0,0,-1,1014,1156,0,0
-203,-132,0,0,0,0,0,0,0,0,0,-1,1021,1156,0,0
-196,-132,0,0,0,0,0,0,0,0,0,-1,1028,1156,0,0
-189,-132,0,0,0,0,0,0,0,0,0,-1,1035,1156,0,0
-182,-132,0,0,0,0,0,0,0,0,0,-1,1042,1156,0,0
-175,-132,0,0,0,0,0,0,0,0,0,-1,1049,1156,0,0
-168,-132,0,0,0,0,0,0,0,0,0,-1,1056,1156,0,0
-161,-132,0,0,0,0,0,0,0,0,0,-1,1063,1156,0,0
-154,-132,0,0,0,0,0,0,0,0,0,-1,1070,1156,0,0
-147,-132,0,0,0,0,0,0,0,0,0,-1,1077,1156,0,0
-140,-132,0,0,0,0,0,0,0,0,0,-1,1084,1156,0,0
-133,-132,0,0,0,0,0,0,0,0,0,-1,1091,1156,0,0
-126,-132,0,0,0,0,0,0,0,0,0,-1,1098,1156,0,0
-119,-132,0,0,0,0,0,0,0,0,0,-1,1105,1156,0,0
-112,-132,0,0,0,0,0,0,0,0,0,-1,1112,1156,0,0
-105,-132,0,0,0,0,0,0,0,0,0,-1,1119,1156,0,0
-98,-132,0,0,0,0,0,0,0,0,0,-1,1126,1156,0,0
-91,-132,0,0,0,0,0,0,0,0,0,-1,1133,1156,0,0
-84,-132,0,0,0,0,0,0,0,0,0,-1,1140,1156,0,0
-77,-132,0,0,0,0,0,0,0,0,0,-1,1147,1156,0,0
-70,-132,0,0,0,0,0,0,0,0,0,-1,1154,1156,0,0
-63,-132,0,0,0,0,0,0,0,0,0,-1,1161,1156,0,0
-56,-132,0,0,0,0,0,0,0,0,0,-1,1168,1156,0,0
-49,-132,0,0,0,0,0,0,0,0,0,-1,1175,1156,0,0
-42,-132,0,0,0,0,0,0,0,0,0,-1,1182,1156,0,0
-35,-132,0,0,0,0,0,0,0,0,0,-1,1189,1156,0,0
-28,-132,0,0,0,0,0,0,0,0,0,-1,1196,1156,0,0
-21,-132,0,0,0,0,0,0,0,0,0,-1,1203,1156,0,0
-14,-132,0,0,0,0,0,0,0,0,0,-1,1210,1156,0,0
-7,-132,0,0,0,0,0,0,0,0,0,-1,1217,1156,0,0
0,-132,0,0,0,0,0,0,0,0,0,-1,1224,1156,0,0
7,-132,0,0,0,0,0,0,0,0,0,-1,1231,1156,0,0
14,-132,0,0,0,0,0,0,0,0,0,-1,1238,1156,0,0
21,-132,0,0,0,0,0,0,0,0,0,-1,1245,1156,0,0
28,-132,0,0,0,0,0,0,0,0,0,-1,1252,1156,0,0
35,-132,0,0,0,0,0,0,0,0,0,-1,1259,1156,0,0
42,-132,0,0,0,0,0,0,0,0,0,-1,1266,1156,0,0
49,-132,0,0,0,0,0,0,0,0,0,-1,1273,1156,0,0
56,-132,0,0,0,0,0,0,0,0,0,-1,1280,1156,0,0
63,-132,0,0,0,0,0,0,0,0,0,-1,1287,1156,0,0
70,-132,0,0,0,0,0,0,0,0,0,-1,1294,1156,0,0
77,-132,0,0,0,0,0,0,0,0,0,-1,1301,1156,0,0
84,-132,0,0,0,0,0,0,0,0,0,-1,1308,1156,0,0
91,-132,0,0,0,0,0,0,0,0,0,-1,1315,1156,0,0
98,-132,0,0,0,0,0,0,0,0,0,-1,1322,1156,0,0
105,-132,0,0,0,0,0,0,0,0,0,-1,1329,1156,0,0
112,-132,0,0,0,0,0,0,0,0,0,-1,1336,1156,0,0
119,-132,0,0,0,0,0,0,0,0,0,-1,1343,1156,0,0
126,-132,0,0,0,0,0,0,0,0,0,-1,1350,1156,0,0
133,-132,0,0,0,0,0,0,0,0,0,-1,1357,1156,0,0
140,-132,0,0,0,0,0,0,0,0,0,-1,1364,1156,0,0
147,-132,0,0,0,0,0,0,0,0,0,-1,1371,1156,0,0
154,-132,0,0,0,0,0,0,0,0,0,-1,1378,1156,0,0
161,-132,0,0,0,0,0,0,0,0,0,-1,1385,1156,0,0
168,-132,0,0,0,0,0,0,0,0,0,-1,1392,1156,0,0
175,-132,0,0,0,0,0,0,0,0,0,-1,1399,1156,0,0
182,-132,0,0,0,0,0,0,0,0,0,-1,1406,1156,0,0
189,-132,0,0,0,0,0,0,0,0,0,-1,1413,1156,0,0
196,-132,0,0,0,0,0,0,0,0,0,-1,1420,1156,0,0
203,-132,0,0,0,0,0,0,0,0,0,-1,1427,1156,0,0
210,-132,0,0,0,0,0,0,0,0,0,-1,1434,1156,0,0
217,-132,0,0,0,0,0,0,0,0,0,-1,1441,1156,0,0
224,-132,0,0,0,0,0,0,0,0,0,-1,1448,1156,0,0
231,-132,0,0,0,0,0,0,0,0,0,-1,1455,1156,0,0
238,-132,0,0,0,0,0,0,0,0,0,-1,1462,1156,0,0
245,-132,0,0,0,0,0,0,0,0,0,-1,1469,1156,0,0
252,-132,0,0,0,0,0,0,0,0,0,-1,1476,1156,0,0
259,-132,0,0,0,0,0,0,0,0,0,-1,1483,1156,0,0
266,-132,0,0,0,0,0,0,0,0,0,-1,1490,1156,0,0
273,-132,0,0,0,0,0,0,0,0,0,-1,1497,1156,0,0
280,-132,0,0,0,0,0,0,0,0,0,-1,1504,1156,0,0
287,-132,0,0,0,0,0,0,0,0,0,-1,1511,1156,0,0
294,-132,0,0,0,0,0,0,0,0,0,-1,1518,1156,0,0
301,-132,0,0,0,0,0,0,0,0,0,-1,1525,1156,0,0
308,-132,0,0,0,0,0,0,0,0,0,-1,1532,1156,0,0
315,-132,0,0,0,0,0,0,0,0,0,-1,1539,1156,0,0
322,-132,0,0,0,0,0,0,0,0,0,-1,1546,1156,0,0
329,-132,0,0,0,0,0,0,0,0,0,-1,1553,1156,0,0
336,-132,0,0,0,0,0,0,0,0,0,-1,1560,1156,0,0
343,-132,0,0,0,0,0,0,0,0,0,-1,1567,1156,0,0
350,-132,0,0,0,0,0,0,0,0,0,-1,1574,1156,0,0
357,-132,0,0,0,0,0,0,0,0,0,-1,1581,1156,0,0
364,-132,0,0,0,0,0,0,0,0,0,-1,1588,1156,0,0
371,-132,0,0,0,0,0,0,0,0,0,-1,1595,1156,0,0
378,-132,0,0,0,0,0,0,0,0,0,-1,1602,1156,0,0
385,-132,0,0,0,0,0,0,0,0,0,-1,1609,1156,0,0
392,-132,0,0,0,0,0,0,0,0,0,-1,1616,1156,0,0
399,-132,0,0,0,0,0,0,0,0,0,-1,1623,1156,0,0
406,-132,0,0,0,0,0,0,0,0,0,-1,1630,1156,0,0
413,-132,0,0,0,0,0,0,0,0,0,-1,1637,1156,0,0
420,-132,0,0,0,0,0,0,0,0,0,-1,1644,1156,0,0
427,-132,0,0,0,0,0,0,0,0,0,-1,1651,1156,0,0
434,-132,0,0,0,0,0,0,0,0,0,-1,1658,1156,0,0
441,-132,0,0,0,0,0,0,0,0,0,-1,1665,1156,0,0
448,-132,0,0,0,0,0,0,0,0,0,-1,1672,1156,0,0
455,-132,0,0,0,0,0,0,0,0,0,-1,1679,1156,0,0
462,-132,0,0,0,0,0,0,0,0,0,-1,1686,1156,0,0
469,-132,0,0,0,0,0,0,0,0,0,-1,1693,1156,0,0
476,-132,0,0,0,0,0,0,0,0,0,-1,1700,1156,0,0
483,-132,0,0,0,0,0,0,0,0,0,-1,1707,1156,0,0
490,-132,0,0,0,0,0,0,0,0,0,-1,1714,1156,0,0
497,-132,0,0,0,0,0,0,0,0,0,-1,1721,1156,0,0
504,-132,0,0,0,0,0,0,0,0,0,-1,1728,1156,0,0
511,-132,0,0,0,0,0,0,0,0,0,-1,1735,1156,0,0
518,-132,0,0,0,0,0,0,0,0,0,-1,1742,1156,0,0
525,-132,0,0,0,0,0,0,0,0,0,-1,1749,1156,0,0
532,-132,0,0,0,0,0,0,0,0,0,-1,1756,1156,0,0
539,-132,0,0,0,0,0,0,0,0,0,-1,1763,1156,0,0
546,-132,0,0,0,0,0,0,0,0,0,-1,1770,1156,0,0
553,-132,0,0,0,0,0,0,0,0,0,-1,1777,1156,0,0
560,-132,0,0,0,0,0,0,0,0,0,-1,1784,1156,0,0
567,-132,0,0,0,0,0,0,0,0,0,-1,1791,1156,0,0
574,-132,0,0,0,0,0,0,0,0,0,-1,1798,1156,0,0
581,-132,0,0,0,0,0,0,0,0,0,-1,1805,1156,0,0
588,-132,0,0,0,0,0,0,0,0,0,-1,1812,1156,0,0
595,-132,0,0,0,0,0,0,0,0,0,-1,1819,1156,0,0
602,-132,0,0,0,0,0,0,0,0,0,-1,1826,1156,0,0
609,-132,0,0,0,0,0,0,0,0,0,-1,1833,1156,0,0
616,-132,0,0,0,0,0,0,0,0,0,-1,1840,1156,0,0
623,-132,0,0,0,0,0,0,0,0,0,-1,1847,1156,0,0
630,-132,0,0,0,0,0,0,0,0,0,-1,1854,1156,0,0
637,-132,0,0,0,0,0,0,0,0,0,-1,1861,1156,0,0
644,-132,4.31689,0.828125,0.00422112,-0.00355662,-0.00488212,0.00657392,-0.00590942,-0.44908,0.00721066,0.0446043,1868,1156,4.31687,-0.828087
651,-132,4.39392,0.566772,0.00322014,-0.00241227,-0.00371959,0.00506938,-0.00426151,-0.461374,0.00539391,0.0420967,1875,1156,4.39388,-0.566712
658,-132,4.3009,0.509277,0.0022037,-0.00159457,-0.0026137,0.00353538,-0.00292624,-0.471218,0.00373614,0.0415706,1882,1156,4.30086,-0.509248
665,-132,4.31897,0.499634,0.001133,-0.00108656,-0.00157852,0.00195282,-0.00190638,-0.479013,0.00222816,0.0415097,1889,1156,4.31903,-0.499574
672,-132,4.38171,0.261963,0.000211993,-0.000778796,-0.00068903,0.000565231,-0.00113203,-0.473725,0.000997964,0.0388608,1896,1156,4.38173,-0.261978
679,-132,4.28284,0.220337,-0.000505639,-0.00060756,-2.13671e-06,-0.000505594,-0.000607605,-0.0209519,0.000375711,0.0393623,1903,1156,4.28284,-0.220325
686,-132,4.2146,0.510498,-0.00106091,-0.000531928,0.000481536,-0.000247026,-0.00134581,1.03654,0.000827253,0.0376043,1910,1156,4.21454,-0.510559
693,-132,4.25244,0.612915,-0.00151023,-0.000382917,0.000829583,5.63819e-05,-0.00194952,1.0838,0.00131888,0.0266786,1917,1156,4.25249,-0.612926
700,-132,4.25012,0.571289,-0.00165847,-0.000394395,0.00110195,0.000243907,-0.00229677,1.04578,0.00161862,0.0287363,1924,1156,4.2501,-0.571339
707,-132,4.1283,0.628906,-0.00166902,-0.000423659,0.00120607,0.000310989,-0.00240366,1.02369,0.00171553,0.0422421,1931,1156,4.12825,-0.628882
714,-132,4.11169,0.697266,-0.00176097,-0.0004248,0.00124144,0.000316905,-0.00250268,1.03225,0.0017835,0.0286261,1938,1156,4.11175,-0.697232
721,-132,4.11108,0.741211,-0.00171324,-0.000404558,0.00124281,0.000345648,-0.00246344,1.02771,0.0017688,0.0198771,1945,1156,4.11108,-0.741165
728,-132,4.12695,0.736816,-0.00137459,-0.000393531,0.000959638,0.000193679,-0.0019618,1.02167,0.00137697,0.0114833,1952,1156,4.12693,-0.736805
735,-132,4.14478,0.71936,-0.000974351,-0.000421386,0.000345763,-0.000255156,-0.00114058,1.12266,0.000691216,0.01429,1959,1156,4.1448,-0.719345
742,-132,4.1095,0.702637,-0.000802952,-0.000264101,-0.00028561,-0.00014089,-0.000926162,-1.16352,0.000576248,0.0191593,1966,1156,4.1095,-0.702658
749,-132,4.09241,0.682373,-0.00103491,-0.000228182,-0.00133536,0.000763407,-0.0020265,-0.932073,0.00166487,0.0225828,1973,1156,4.09239,-0.682336
756,-132,4.15283,0.692627,-0.00126577,0.000183237,-0.00255255,0.00211212,-0.00319465,-0.923678,0.00308504,0.0205813,1980,1156,4.1528,-0.692576
763,-132,4.17639,0.699829,-0.00168031,-0.000134644,-0.00410819,0.00327278,-0.00508773,-0.878372,0.00486471,0.0126835,1987,1156,4.17637,-0.699854
770,-132,4.17761,0.689331,-0.00239592,-0.000233673,-0.00603454,0.00481582,-0.00744542,-0.874036,0.00713309,0.0128945,1994,1156,4.17766,-0.689365
777,-132,4.15674,0.628296,-0.00347061,-0.00052353,-0.00845915,0.00658946,-0.0105836,-0.87163,0.0100039,0.0213215,2001,1156,4.15672,-0.628297
784,-132,4.13513,0.536011,-0.00486888,-0.00109596,-0.0115243,0.00869527,-0.0146601,-0.866526,0.01363,0.0421151,2008,1156,4.13516,-0.536044
791,-132,4.14075,0.437988,0,0,0,0,0,0,0,-1,2015,1156,4.1407,-0.437943
798,-132,4.07422,-0.0554199,-0.00890052,-0.00384476,-0.0200329,0.0138191,-0.0265644,-0.84816,0.0236994,0.0472523,2022,1156,4.07419,0.0554278
805,-132,3.78394,-0.452271,-0.0114969,-0.00668789,-0.0255687,0.0165891,-0.0347739,-0.832281,0.0302676,0.0458002,2029,1156,3.78389,0.452264
812,-132,3.5686,-0.739258,0,0,0,0,0,0,0,-1,2036,1156,3.56865,0.739203
-700,-139,0,0,0,0,0,0,0,0,0,-1,524,1163,0,0
-693,-139,-0.0107422,-0.178711,0,0,0,0,0,0,0,-1,531,1163,-0.0107546,0.178661
-686,-139,0.521484,0.374023,0,0,0,0,0,0,0,-1,538,1163,0.521486,-0.373975
-679,-139,0.227295,0.415894,-0.0103813,-0.000291386,0.0148172,0.0103161,-0.0209888,0.949483,0.0184207,0.0485005,545,1163,0.227315,-0.415881
-672,-139,-0.0861816,0.502075,-0.00327927,0.000378059,0.00819768,0.00694856,-0.00984977,0.895137,0.00974662,0.0410064,552,1163,-0.0861881,-0.502078
-665,-139,-0.461792,0.478271,0.00148403,0.000866844,0.00350783,0.00469681,-0.00234594,0.741525,0.00414096,0.0402641,559,1163,-0.461795,-0.478217
-658,-139,-0.536621,0.527222,0.00438058,0.00116053,0.000396362,0.00442865,0.00111246,0.120692,0.00266031,0.0440159,566,1163,-0.536594,-0.52725
-651,-139,-0.586914,0.59668,0.00580498,0.00127846,-0.00145028,0.00622978,0.000853661,-0.284938,0.0038999,0.0391888,573,1163,-0.586898,-0.596699
-644,-139,-0.560974,0.691284,0.00614664,0.0012535,-0.00235404,0.00709525,0.000304895,-0.383063,0.00463188,0.0201791,580,1163,-0.560959,-0.691331
-637,-139,-0.563416,0.704102,0.00574999,0.000907649,-0.00273171,0.00697907,-0.000321429,-0.422795,0.00476347,0.0112532,587,1163,-0.563421,-0.704074
-630,-139,-0.562073,0.711548,0.00527969,0.00102148,-0.00282465,0.00668778,-0.000386608,-0.462447,0.00459282,0.00973517,594,1163,-0.562086,-0.711549
-623,-139,-0.577881,0.741333,0.004734,0.000876967,-0.0029546,0.00633377,-0.00072281,-0.496257,0.00448292,0.0149424,601,1163,-0.57787,-0.741345
-616,-139,-0.576721,0.727539,0.00344077,0.000560666,-0.00237451,0.00477777,-0.000776338,-0.512819,0.00347301,0.0165495,608,1163,-0.576744,-0.727519
-609,-139,-0.582092,0.723145,0.00205181,-8.86682e-05,-0.00199197,0.00324285,-0.0012797,-0.538887,0.00269184,0.0197396,615,1163,-0.582108,-0.723197
-602,-139,-0.582397,0.766846,0.00131907,0.000111779,-0.00161372,0.00243836,-0.00100751,-0.60642,0.00204584,0.0118362,622,1163,-0.582406,-0.766849
-595,-139,-0.564453,0.7948,0.000563732,-0.000296302,-0.00087272,0.00110663,-0.000839195,-0.55649,0.00112695,0.00952168,629,1163,-0.564423,-0.794816
-588,-139,-0.549744,0.817139,-8.90132e-05,-0.00038804,-0.0010353,0.000807516,-0.00128457,-0.713686,0.00121829,0.0132384,636,1163,-0.549742,-0.817102
-581,-139,-0.567444,0.81543,5.40575e-05,-0.000390498,-0.00115721,0.00101014,-0.00134658,-0.690513,0.00136527,0.0286555,643,1163,-0.567436,-0.815436
-574,-139,-0.60321,0.852539,0.000316549,-0.00025267,-0.00129618,0.001359,-0.00129512,-0.677325,0.0015325,0.039224,650,1163,-0.603199,-0.852498
-567,-139,-0.713318,1.01404,0.000527326,-0.000114896,-0.00131649,0.0015613,-0.00114887,-0.665777,0.00157075,0.0383245,657,1163,-0.71333,-1.01398
-560,-139,-0.667603,0.879883,0.000742204,8.87894e-05,-0.0012697,0.00172656,-0.000895567,-0.659475,0.00153902,0.0327916,664,1163,-0.66761,-0.879861
-553,-139,-0.665588,0.874268,0.00098528,0.000390591,-0.0011245,0.00185108,-0.000475213,-0.656145,0.00141923,0.0364547,671,1163,-0.665581,-0.874281
-546,-139,-0.595276,0.757568,0.00123232,0.000804864,-0.000828488,0.0018742,0.000162979,-0.659165,0.00119884,0.0405308,678,1163,-0.595258,-0.757545
-539,-139,-0.504028,0.694092,0.00146781,0.00135526,-0.000362358,0.00177823,0.00104483,-0.708364,0.0010319,0.0414178,685,1163,-0.504005,-0.69412
-532,-139,-0.577576,0.893921,0.00166616,0.0020601,0.000247804,0.00217968,0.00154658,1.1212,0.00129475,0.0414652,692,1163,-0.577563,-0.893914
-525,-139,-0.549805,0.806274,0.00170186,0.00288607,0.000952784,0.00341574,0.00117219,1.06342,0.00200415,0.0415882,699,1163,-0.549776,-0.806227
-518,-139,0,0,0,0,0,0,0,0,0,-1,706,1163,0,0
-511,-139,0,0,0,0,0,0,0,0,0,-1,713,1163,0,0
-504,-139,0,0,0,0,0,0,0,0,0,-1,720,1163,0,0
-497,-139,0,0,0,0,0,0,0,0,0,-1,727,1163,0,0
-490,-139,0,0,0,0,0,0,0,0,0,-1,734,1163,0,0
-483,-139,0,0,0,0,0,0,0,0,0,-1,741,1163,0,0
-476,-139,0,0,0,0,0,0,0,0,0,-1,748,1163,0,0
-469,-139,0,0,0,0,0,0,0,0,0,-1,755,1163,0,0
-462,-139,0,0,0,0,0,0,0,0,0,-1,762,1163,0,0
-455,-139,0,0,0,0,0,0,0,0,0,-1,769,1163,0,0
-448,-139,0,0,0,0,0,0,0,0,0,-1,776,1163,0,0
-441,-139,0,0,0,0,0,0,0,0,0,-1,783,1163,0,0
-434,-139,0,0,0,0,0,0,0,0,0,-1,790,1163,0,0
-427,-139,0,0,0,0,0,0,0,0,0,-1,797,1163,0,0
-420,-139,0,0,0,0,0,0,0,0,0,-1,804,1163,0,0
-413,-139,0,0,0,0,0,0,0,0,0,-1,811,1163,0,0
-406,-139,0,0,0,0,0,0,0,0,0,-1,818,1163,0,0
-399,-139,0,0,0,0,0,0,0,0,0,-1,825,1163,0,0
-392,-139,0,0,0,0,0,0,0,0,0,-1,832,1163,0,0
-385,-139,0,0,0,0,0,0,0,0,0,-1,839,1163,0,0
-378,-139,0,0,0,0,0,0,0,0,0,-1,846,1163,0,0
-371,-139,0,0,0,0,0,0,0,0,0,-1,853,1163,0,0
-364,-139,0,0,0,0,0,0,0,0,0,-1,860,1163,0,0
-357,-139,0,0,0,0,0,0,0,0,0,-1,867,1163,0,0
-350,-139,0,0,0,0,0,0,0,0,0,-1,874,1163,0,0
-343,-139,0,0,0,0,0,0,0,0,0,-1,881,1163,0,0
-336,-139,0,0,0,0,0,0,0,0,0,-1,888,1163,0,0
-329,-139,0,0,0,0,0,0,0,0,0,-1,895,1163,0,0
-322,-139,0,0,0,0,0,0,0,0,0,-1,902,1163,0,0
-315,-139,0,0,0,0,0,0,0,0,0,-1,909,1163,0,0
-308,-139,0,0,0,0,0,0,0,0,0,-1,916,1163,0,0
-301,-139,0,0,0,0,0,0,0,0,0,-1,923,1163,0,0
-294,-139,0,0,0,0,0,0,0,0,0,-1,930,1163,0,0
-287,-139,0,0,0,0,0,0,0,0,0,-1,937,1163,0,0
-280,-139,0,0,0,0,0,0,0,0,0,-1,944,1163,0,0
-273,-139,0,0,0,0,0,0,0,0,0,-1,951,1163,0,0
-266,-139,0,0,0,0,0,0,0,0,0,-1,958,1163,0,0
-259,-139,0,0,0,0,0,0,0,0,0,-1,965,1163,0,0
-252,-139,0,0,0,0,0,0,0,0,0,-1,972,1163,0,0
-245,-139,0,0,0,0,0,0,0,0,0,-1,979,1163,0,0
-238,-139,0,0,0,0,0,0,0,0,0,-1,986,1163,0,0
-231,-139,0,0,0,0,0,0,0,0,0,-1,993,1163,0,0
-224,-139,0,0,0,0,0,0,0,0,0,-1,1000,1163,0,0
-217,-139,0,0,0,0,0,0,0,0,0,-1,1007,1163,0,0
-210,-139,0,0,0,0,0,0,0,0,0,-1,1014,1163,0,0
-203,-139,0,0,0,0,0,0,0,0,0,-1,1021,1163,0,0
-196,-139,0,0,0,0,0,0,0,0,0,-1,1028,1163,0,0
-189,-139,0,0,0,0,0,0,0,0,0,-1,1035,1163,0,0
-182,-139,0,0,0,0,0,0,0,0,0,-1,1042,1163,0,0
-175,-139,0,0,0,0,0,0,0,0,0,-1,1049,1163,0,0
-168,-139,0,0,0,0,0,0,0,0,0,-1,1056,1163,0,0
-161,-139,0,0,0,0,0,0,0,0,0,-1,1063,1163,0,0
-154,-139,0,0,0,0,0,0,0,0,0,-1,1070,1163,0,0
-147,-139,0,0,0,0,0,0,0,0,0,-1,1077,1163,0,0
-140,-139,0,0,0,0,0,0,0,0,0,-1,1084,1163,0,0
-133,-139,0,0,0,0,0,0,0,0,0,-1,1091,1163,0,0
-126,-139,0,0,0,0,0,0,0,0,0,-1,1098,1163,0,0
-119,-139,0,0,0,0,0,0,0,0,0,-1,1105,1163,0,0
-112,-139,0,0,0,0,0,0,0,0,0,-1,1112,1163,0,0
-105,-139,0,0,0,0,0,0,0,0,0,-1,1119,1163,0,0
-98,-139,0,0,0,0,0,0,0,0,0,-1,1126,1163,0,0
-91,-139,0,0,0,0,0,0,0,0,0,-1,1133,1163,0,0
-84,-139,0,0,0,0,0,0,0,0,0,-1,1140,1163,0,0
-77,-139,0,0,0,0,0,0,0,0,0,-1,1147,1163,0,0
-70,-139,0,0,0,0,0,0,0,0,0,-1,1154,1163,0,0
-63,-139,0,0,0,0,0,0,0,0,0,-1,1161,1163,0,0
-56,-139,0,0,0,0,0,0,0,0,0,-1,1168,1163,0,0
-49,-139,0,0,0,0,0,0,0,0,0,-1,1175,1163,0,0
-42,-139,0,0,0,0,0,0,0,0,0,-1,1182,1163,0,0
-35,-139,0,0,0,0,0,0,0,0,0,-1,1189,1163,0,0
-28,-139,0,0,0,0,0,0,0,0,0,-1,1196,1163,0,0
-21,-139,0,0,0,0,0,0,0,0,0,-1,1203,1163,0,0
-14,-139,0,0,0,0,0,0,0,0,0,-1,1210,1163,0,0
-7,-139,0,0,0,0,0,0,0,0,0,-1,1217,1163,0,0
0,-139,0,0,0,0,0,0,0,0,0,-1,1224,1163,0,0
7,-139,0,0,0,0,0,0,0,0,0,-1,1231,1163,0,0
14,-139,0,0,0,0,0,0,0,0,0,-1,1238,1163,0,0
21,-139,0,0,0,0,0,0,0,0,0,-1,1245,1163,0,0
28,-139,0,0,0,0,0,0,0,0,0,-1,1252,1163,0,0
35,-139,0,0,0,0,0,0,0,0,0,-1,1259,1163,0,0
42,-139,0,0,0,0,0,0,0,0,0,-1,1266,1163,0,0
49,-139,0,0,0,0,0,0,0,0,0,-1,1273,1163,0,0
56,-139,0,0,0,0,0,0,0,0,0,-1,1280,1163,0,0
63,-139,0,0,0,0,0,0,0,0,0,-1,1287,1163,0,0
70,-139,0,0,0,0,0,0,0,0,0,-1,1294,1163,0,0
77,-139,0,0,0,0,0,0,0,0,0,-1,1301,1163,0,0
84,-139,0,0,0,0,0,0,0,0,0,-1,1308,1163,0,0
91,-139,0,0,0,0,0,0,0,0,0,-1,1315,1163,0,0
98,-139,0,0,0,0,0,0,0,0,0,-1,1322,1163,0,0
105,-139,0,0,0,0,0,0,0,0,0,-1,1329,1163,0,0
112,-139,0,0,0,0,0,0,0,0,0,-1,1336,1163,0,0
119,-139,0,0,0,0,0,0,0,0,0,-1,1343,1163,0,0
126,-139,0,0,0,0,0,0,0,0,0,-1,1350,1163,0,0
133,-139,0,0,0,0,0,0,0,0,0,-1,1357,1163,0,0
140,-139,0,0,0,0,0,0,0,0,0,-1,1364,1163,0,0
147,-139,0,0,0,0,0,0,0,0,0,-1,1371,1163,0,0
154,-139,0,0,0,0,0,0,0,0,0,-1,1378,1163,0,0
161,-139,0,0,0,0,0,0,0,0,0,-1,1385,1163,0,0
168,-139,0,0,0,0,0,0,0,0,0,-1,1392,1163,0,0
175,-139,0,0,0,0,0,0,0,0,0,-1,1399,1163,0,0
182,-139,0,0,0,0,0,0,0,0,0,-1,1406,1163,0,0
189,-139,0,0,0,0,0,0,0,0,0,-1,1413,1163,0,0
196,-139,0,0,0,0,0,0,0,0,0,-1,1420,1163,0,0
203,-139,0,0,0,0,0,0,0,0,0,-1,1427,1163,0,0
210,-139,0,0,0,0,0,0,0,0,0,-1,1434,1163,0,0
217,-139,0,0,0,0,0,0,0,0,0,-1,1441,1163,0,0
224,-139,0,0,0,0,0,0,0,0,0,-1,1448,1163,0,0
231,-139,0,0,0,0,0,0,0,0,0,-1,1455,1163,0,0
238,-139,0,0,0,0,0,0,0,0,0,-1,1462,1163,0,0
245,-139,0,0,0,0,0,0,0,0,0,-1,1469,1163,0,0
252,-139,0,0,0,0,0,0,0,0,0,-1,1476,1163,0,0
259,-139,0,0,0,0,0,0,0,0,0,-1,1483,1163,0,0
266,-139,0,0,0,0,0,0,0,0,0,-1,1490,1163,0,0
273,-139,0,0,0,0,0,0,0,0,0,-1,1497,1163,0,0
280,-139,0,0,0,0,0,0,0,0,0,-1,1504,1163,0,0
287,-139,0,0,0,0,0,0,0,0,0,-1,1511,1163,0,0
294,-139,0,0,0,0,0,0,0,0,0,-1,1518,1163,0,0
301,-139,0,0,0,0,0,0,0,0,0,-1,1525,1163,0,0
308,-139,0,0,0,0,0,0,0,0,0,-1,1532,1163,0,0
315,-139,0,0,0,0,0,0,0,0,0,-1,1539,1163,0,0
322,-139,0,0,0,0,0,0,0,0,0,-1,1546,1163,0,0
329,-139,0,0,0,0,0,0,0,0,0,-1,1553,1163,0,0
336,-139,0,0,0,0,0,0,0,0,0,-1,1560,1163,0,0
343,-139,0,0,0,0,0,0,0,0,0,-1,1567,1163,0,0
350,-139,0,0,0,0,0,0,0,0,0,-1,1574,1163,0,0
357,-139,0,0,0,0,0,0,0,0,0,-1,1581,1163,0,0
364,-139,0,0,0,0,0,0,0,0,0,-1,1588,1163,0,0
371,-139,0,0,0,0,0,0,0,0,0,-1,1595,1163,0,0
378,-139,0,0,0,0,0,0,0,0,0,-1,1602,1163,0,0
385,-139,0,0,0,0,0,0,0,0,0,-1,1609,1163,0,0
392,-139,0,0,0,0,0,0,0,0,0,-1,1616,1163,0,0
399,-139,0,0,0,0,0,0,0,0,0,-1,1623,1163,0,0
406,-139,0,0,0,0,0,0,0,0,0,-1,1630,1163,0,0
413,-139,0,0,0,0,0,0,0,0,0,-1,1637,1163,0,0
420,-139,0,0,0,0,0,0,0,0,0,-1,1644,1163,0,0
427,-139,0,0,0,0,0,0,0,0,0,-1,1651,1163,0,0
434,-139,0,0,0,0,0,0,0,0,0,-1,1658,1163,0,0
441,-139,0,0,0,0,0,0,0,0,0,-1,1665,1163,0,0
448,-139,0,0,0,0,0,0,0,0,0,-1,1672,1163,0,0
455,-139,0,0,0,0,0,0,0,0,0,-1,1679,1163,0,0
462,-139,0,0,0,0,0,0,0,0,0,-1,1686,1163,0,0
469,-139,0,0,0,0,0,0,0,0,0,-1,1693,1163,0,0
476,-139,0,0,0,0,0,0,0,0,0,-1,1700,1163,0,0
483,-139,0,0,0,0,0,0,0,0,0,-1,1707,1163,0,0
490,-139,0,0,0,0,0,0,0,0,0,-1,1714,1163,0,0
497,-139,0,0,0,0,0,0,0,0,0,-1,1721,1163,0,0
504,-139,0,0,0,0,0,0,0,0,0,-1,1728,1163,0,0
511,-139,0,0,0,0,0,0,0,0,0,-1,1735,1163,0,0
518,-139,0,0,0,0,0,0,0,0,0,-1,1742,1163,0,0
525,-139,0,0,0,0,0,0,0,0,0,-1,1749,1163,0,0
532,-139,0,0,0,0,0,0,0,0,0,-1,1756,1163,0,0
539,-139,0,0,0,0,0,0,0,0,0,-1,1763,1163,0,0
546,-139,0,0,0,0,0,0,0,0,0,-1,1770,1163,0,0
553,-139,0,0,0,0,0,0,0,0,0,-1,1777,1163,0,0
560,-139,0,0,0,0,0,0,0,0,0,-1,1784,1163,0,0
567,-139,0,0,0,0,0,0,0,0,0,-1,1791,1163,0,0
574,-139,0,0,0,0,0,0,0,0,0,-1,1798,1163,0,0
581,-139,0,0,0,0,0,0,0,0,0,-1,1805,1163,0,0
588,-139,0,0,0,0,0,0,0,0,0,-1,1812,1163,0,0
595,-139,0,0,0,0,0,0,0,0,0,-1,1819,1163,0,0
602,-139,0,0,0,0,0,0,0,0,0,-1,1826,1163,0,0
609,-139,0,0,0,0,0,0,0,0,0,-1,1833,1163,0,0
616,-139,0,0,0,0,0,0,0,0,0,-1,1840,1163,0,0
623,-139,0,0,0,0,0,0,0,0,0,-1,1847,1163,0,0
630,-139,0,0,0,0,0,0,0,0,0,-1,1854,1163,0,0
637,-139,0,0,0,0,0,0,0,0,0,-1,1861,1163,0,0
644,-139,4.29028,0.553955,0.00442322,-0.00324064,-0.00497235,0.00686887,-0.00568628,-0.457105,0.00725943,0.0381375,1868,1163,4.29029,-0.55397
651,-139,4.28943,0.567505,0.00327833,-0.00238291,-0.00379147,0.00517927,-0.00428384,-0.464745,0.00547168,0.0380436,1875,1163,4.28947,-0.567513
658,-139,4.36304,0.609253,0.0021138,-0.00175495,-0.00263673,0.00344962,-0.00309076,-0.468929,0.00377799,0.0407441,1882,1163,4.36301,-0.60925
665,-139,4.30688,0.665039,0.000957773,-0.00136744,-0.00157438,0.00175229,-0.00216196,-0.467363,0.00226401,0.0378372,1889,1163,4.30693,-0.664991
672,-139,4.35144,0.481934,-1.77042e-06,-0.00111857,-0.000677923,0.000318117,-0.00143846,-0.440887,0.00108073,0.0356421,1896,1163,4.35142,-0.481956
679,-139,4.31653,0.395874,-0.000731339,-0.00096322,1.10264e-05,-0.000730816,-0.000963743,0.0474096,0.000580641,0.0353833,1903,1163,4.31656,-0.395817
686,-139,4.28882,0.579468,-0.00128534,-0.000881298,0.000488584,-0.000554617,-0.00161202,0.981436,0.000945671,0.0336639,1910,1163,4.28877,-0.579438
693,-139,4.27917,0.623901,-0.00174872,-0.000696119,0.000842772,-0.000228812,-0.00221603,1.06451,0.00140729,0.0231283,1917,1163,4.27915,-0.623954
700,-139,4.30408,0.623291,-0.0018681,-0.000684052,0.00112315,-6.44673e-06,-0.00254571,1.02795,0.00169499,0.0443953,1924,1163,4.30403,-0.6233
707,-139,4.17883,0.648193,-0.00183762,-0.00066444,0.00122491,0.000107093,-0.00260915,1.0087,0.00177621,0.0224496,1931,1163,4.17888,-0.648188
714,-139,4.11633,0.706299,-0.00191992,-0.000619236,0.00124468,0.000134765,-0.00267392,1.02614,0.00182919,0.0221777,1938,1163,4.11631,-0.706243
721,-139,4.1001,0.75354,-0.00183385,-0.000538035,0.00122253,0.000197658,-0.00256955,1.02907,0.00178257,0.0158526,1945,1163,4.1001,-0.753547
728,-139,4.14453,0.726563,-0.00142871,-0.000488062,0.000948078,9.99401e-05,-0.00201671,1.01565,0.001379,0.0184908,1952,1163,4.14457,-0.726538
735,-139,4.12488,0.720459,-0.000934136,-0.000513467,0.00034993,-0.000315522,-0.00113208,1.056,0.000674607,0.0157836,1959,1163,4.12485,-0.720452
742,-139,4.11975,0.692139,-0.00063019,-0.000391432,-0.000310403,-0.000178243,-0.000843379,-0.968976,0.000513261,0.0208022,1966,1163,4.11972,-0.692162
749,-139,4.09253,0.651611,-0.000703457,-0.000517189,-0.00147773,0.000870336,-0.00209098,-0.816869,0.00175747,0.0185537,1973,1163,4.09248,-0.651625
756,-139,4.10413,0.684692,-0.000739109,-0.000234639,-0.00277097,0.00229555,-0.0032693,-0.830787,0.00322922,0.0104124,1980,1163,4.10412,-0.684714
763,-139,4.10791,0.689209,-0.000910921,-0.000506943,-0.00440165,0.00369735,-0.00511522,-0.808327,0.00510985,0.0105728,1987,1163,4.10792,-0.689198
770,-139,4.12866,0.674194,-0.00134787,-0.000708427,-0.00647283,0.00545257,-0.00750887,-0.810075,0.00751461,0.0122632,1994,1163,4.12864,-0.674184
777,-139,4.12524,0.610229,-0.00206965,-0.00107925,-0.00912776,0.00756674,-0.0107156,-0.812498,0.0106074,0.0225702,2001,1163,4.12529,-0.610262
784,-139,4.23792,0.334473,-0.00305087,-0.00167149,-0.0125245,0.0101823,-0.0149046,-0.812904,0.0145692,0.0426704,2008,1163,4.23787,-0.334524
791,-139,4.52832,0.0311279,-0.00439507,-0.00258773,-0.0168051,0.013338,-0.0203208,-0.812259,0.0195718,0.0497069,2015,1163,4.52834,-0.0311127
798,-139,4.58362,0.0534668,0,0,0,0,0,0,0,-1,2022,1163,4.5836,-0.0534442
805,-139,3.55591,-0.359741,0,0,0,0,0,0,0,-1,2029,1163,3.55592,0.359725
812,-139,0,0,0,0,0,0,0,0,0,-1,2036,1163,0,0
-700,-146,0,0,0,0,0,0,0,0,0,-1,524,1170,0,0
-693,-146,-3.57556,0.609131,0,0,0,0,0,0,0,-1,531,1170,-3.57558,-0.609182
-686,-146,-0.310608,0.196777,0,0,0,0,0,0,0,-1,538,1170,-0.310594,-0.196817
-679,-146,-0.554993,0.267456,0.00501999,-0.000850488,0.00999499,0.0125018,-0.00833233,0.642578,0.0121086,0.0488206,545,1170,-0.555011,-0.267453
-672,-146,-0.709473,0.470825,0.011259,0.00078287,0.00275514,0.0119394,0.000102474,0.24211,0.00792563,0.0427953,552,1170,-0.70948,-0.470849
-665,-146,-1.04388,0.442627,0.0144046,0.00176966,-0.00190888,0.0146867,0.00148757,-0.146718,0.00933485,0.0436044,559,1170,-1.04386,-0.442628
-658,-146,-0.665771,0.355957,0.0153409,0.00225591,-0.00460002,0.0167962,0.000800636,-0.3064,0.0109404,0.0458755,566,1170,-0.66578,-0.356
-651,-146,-0.657288,0.620728,0.0147339,0.00237447,-0.00580523,0.0170329,7.54064e-05,-0.377082,0.0113302,0.0377465,573,1170,-0.657268,-0.620681
-644,-146,-0.568298,0.663574,0.0131501,0.00223831,-0.00596916,0.0157811,-0.000392677,-0.415147,0.010654,0.0190881,580,1170,-0.568269,-0.663534
-637,-146,-0.532837,0.7052,0.0110675,0.00179591,-0.00558369,0.013689,-0.000825582,-0.438945,0.00941324,0.0102598,587,1170,-0.532843,-0.70526
-630,-146,-0.53241,0.725342,0.00934909,0.00176687,-0.00508722,0.0119025,-0.000786494,-0.46518,0.0082097,0.00987071,594,1170,-0.532395,-0.725321
-623,-146,-0.549255,0.729614,0.00726333,0.00151207,-0.00463829,0.00984508,-0.00106968,-0.507909,0.00694745,0.0124005,601,1170,-0.549284,-0.729656
-616,-146,-0.542969,0.743042,0.00491242,0.000930921,-0.00341277,0.00687263,-0.00102929,-0.521365,0.00496057,0.0176824,608,1170,-0.542948,-0.743017
-609,-146,-0.542847,0.744507,0.00278058,0.000148995,-0.00265149,0.00442481,-0.00149523,-0.555078,0.0035547,0.0171763,615,1170,-0.542825,-0.744468
-602,-146,-0.553589,0.777832,0.00156573,0.000370749,-0.00198364,0.00303991,-0.00110343,-0.639116,0.00247771,0.0175359,622,1170,-0.553582,-0.777807
-595,-146,-0.545898,0.789795,0.000489032,-0.00010565,-0.000890006,0.00113005,-0.000746671,-0.624183,0.00109104,0.00950364,629,1170,-0.545904,-0.789739
-588,-146,-0.546143,0.807129,-0.000319038,-0.000154506,-0.00106139,0.000827799,-0.00130134,-0.824075,0.00123935,0.010677,636,1170,-0.546165,-0.807189
-581,-146,-0.550598,0.800049,-0.000132163,-0.000113106,-0.00122297,0.00110038,-0.00134565,-0.789294,0.00141458,0.0224858,643,1170,-0.55061,-0.800017
-574,-146,-0.656982,0.937744,0.000153992,5.59472e-05,-0.00139213,0.00149796,-0.00128802,-0.767798,0.00161001,0.0383212,650,1170,-0.656996,-0.937777
-567,-146,-0.756042,1.0199,0.000398133,0.000205852,-0.00143277,0.00173798,-0.001134,-0.751898,0.00167032,0.0393132,657,1170,-0.756065,-1.01987
-560,-146,-0.636353,0.798584,0.000678565,0.000389893,-0.0014174,0.00195895,-0.000890496,-0.734657,0.00168324,0.0345626,664,1170,-0.636354,-0.798643
-553,-146,-0.581726,0.761597,0.00104737,0.000645447,-0.0013134,0.00217509,-0.000482276,-0.709483,0.00163471,0.0361152,671,1170,-0.58172,-0.761558
-546,-146,-0.527039,0.725952,0.00148384,0.000959026,-0.00107099,0.0023241,0.000118767,-0.665257,0.00151137,0.0398318,678,1170,-0.527029,-0.725954
-539,-146,-0.608276,0.788086,0.00198201,0.00133829,-0.000673379,0.0024065,0.000913802,-0.562459,0.00140273,0.0402442,685,1170,-0.60825,-0.788026
-532,-146,-0.660278,0.761353,0.00252304,0.00178386,-0.000139441,0.00254847,0.00175843,-0.180387,0.00150635,0.0381341,692,1170,-0.660272,-0.761312
-525,-146,-0.553284,0.693237,0.00299866,0.00225108,0.000481177,0.00323417,0.00201556,0.455172,0.00188605,0.0405436,699,1170,-0.553311,-0.693264
-518,-146,0,0,0,0,0,0,0,0,0,-1,706,1170,0,0
-511,-146,0,0,0,0,0,0,0,0,0,-1,713,1170,0,0
-504,-146,0,0,0,0,0,0,0,0,0,-1,720,1170,0,0
-497,-146,0,0,0,0,0,0,0,0,0,-1,727,1170,0,0
-490,-146,0,0,0,0,0,0,0,0,0,-1,734,1170,0,0
-483,-146,0,0,0,0,0,0,0,0,0,-1,741,1170,0,0
-476,-146,0,0,0,0,0,0,0,0,0,-1,748,1170,0,0
-469,-146,0,0,0,0,0,0,0,0,0,-1,755,1170,0,0
-462,-146,0,0,0,0,0,0,0,0,0,-1,762,1170,0,0
-455,-146,0,0,0,0,0,0,0,0,0,-1,769,1170,0,0
-448,-146,0,0,0,0,0,0,0,0,0,-1,776,1170,0,0
-441,-146,0,0,0,0,0,0,0,0,0,-1,783,1170,0,0
-434,-146,0,0,0,0,0,0,0,0,0,-1,790,1170,0,0
-427,-146,0,0,0,0,0,0,0,0,0,-1,797,1170,0,0
-420,-146,0,0,0,0,0,0,0,0,0,-1,804,1170,0,0
-413,-146,0,0,0,0,0,0,0,0,0,-1,811,1170,0,0
-406,-146,0,0,0,0,0,0,0,0,0,-1,818,1170,0,0
-399,-146,0,0,0,0,0,0,0,0,0,-1,825,1170,0,0
-392,-146,0,0,0,0,0,0,0,0,0,-1,832,1170,0,0
-385,-146,0,0,0,0,0,0,0,0,0,-1,839,1170,0,0
-378,-146,0,0,0,0,0,0,0,0,0,-1,846,1170,0,0
-371,-146,0,0,0,0,0,0,0,0,0,-1,853,1170,0,0
-364,-146,0,0,0,0,0,0,0,0,0,-1,860,1170,0,0
-357,-146,0,0,0,0,0,0,0,0,0,-1,867,1170,0,0
-350,-146,0,0,0,0,0,0,0,0,0,-1,874,1170,0,0
-343,-146,0,0,0,0,0,0,0,0,0,-1,881,1170,0,0
-336,-146,0,0,0,0,0,0,0,0,0,-1,888,1170,0,0
-329,-146,0,0,0,0,0,0,0,0,0,-1,895,1170,0,0
-322,-146,0,0,0,0,0,0,0,0,0,-1,902,1170,0,0
-315,-146,0,0,0,0,0,0,0,0,0,-1,909,1170,0,0
-308,-146,0,0,0,0,0,0,0,0,0,-1,916,1170,0,0
-301,-146,0,0,0,0,0,0,0,0,0,-1,923,1170,0,0
-294,-146,0,0,0,0,0,0,0,0,0,-1,930,1170,0,0
-287,-146,0,0,0,0,0,0,0,0,0,-1,937,1170,0,0
-280,-146,0,0,0,0,0,0,0,0,0,-1,944,1170,0,0
-273,-146,0,0,0,0,0,0,0,0,0,-1,951,1170,0,0
-266,-146,0,0,0,0,0,0,0,0,0,-1,958,1170,0,0
-259,-146,0,0,0,0,0,0,0,0,0,-1,965,1170,0,0
-252,-146,0,0,0,0,0,0,0,0,0,-1,972,1170,0,0
-245,-146,0,0,0,0,0,0,0,0,0,-1,979,1170,0,0
-238,-146,0,0,0,0,0,0,0,0,0,-1,986,1170,0,0
-231,-146,0,0,0,0,0,0,0,0,0,-1,993,1170,0,0
-224,-146,0,0,0,0,0,0,0,0,0,-1,1000,1170,0,0
-217,-146,0,0,0,0,0,0,0,0,0,-1,1007,1170,0,0
-210,-146,0,0,0,0,0,0,0,0,0,-1,1014,1170,0,0
-203,-146,0,0,0,0,0,0,0,0,0,-1,1021,1170,0,0
-196,-146,0,0,0,0,0,0,0,0,0,-1,1028,1170,0,0
-189,-146,0,0,0,0,0,0,0,0,0,-1,1035,1170,0,0
-182,-146,0,0,0,0,0,0,0,0,0,-1,1042,1170,0,0
-175,-146,0,0,0,0,0,0,0,0,0,-1,1049,1170,0,0
-168,-146,0,0,0,0,0,0,0,0,0,-1,1056,1170,0,0
-161,-146,0,0,0,0,0,0,0,0,0,-1,1063,1170,0,0
-154,-146,0,0,0,0,0,0,0,0,0,-1,1070,1170,0,0
-147,-146,0,0,0,0,0,0,0,0,0,-1,1077,1170,0,0
-140,-146,0,0,0,0,0,0,0,0,0,-1,1084,1170,0,0
-133,-146,0,0,0,0,0,0,0,0,0,-1,1091,1170,0,0
-126,-146,0,0,0,0,0,0,0,0,0,-1,1098,1170,0,0
-119,-146,0,0,0,0,0,0,0,0,0,-1,1105,1170,0,0
-112,-146,0,0,0,0,0,0,0,0,0,-1,1112,1170,0,0
-105,-146,0,0,0,0,0,0,0,0,0,-1,1119,1170,0,0
-98,-146,0,0,0,0,0,0,0,0,0,-1,1126,1170,0,0
-91,-146,0,0,0,0,0,0,0,0,0,-1,1133,1170,0,0
-84,-146,0,0,0,0,0,0,0,0,0,-1,1140,1170,0,0
-77,-146,0,0,0,0,0,0,0,0,0,-1,1147,1170,0,0
-70,-146,0,0,0,0,0,0,0,0,0,-1,1154,1170,0,0
-63,-146,0,0,0,0,0,0,0,0,0,-1,1161,1170,0,0
-56,-146,0,0,0,0,0,0,0,0,0,-1,1168,1170,0,0
-49,-146,0,0,0,0,0,0,0,0,0,-1,1175,1170,0,0
-42,-146,0,0,0,0,0,0,0,0,0,-1,1182,1170,0,0
-35,-146,0,0,0,0,0,0,0,0,0,-1,1189,1170,0,0
-28,-146,0,0,0,0,0,0,0,0,0,-1,1196,1170,0,0
-21,-146,0,0,0,0,0,0,0,0,0,-1,1203,1170,0,0
-14,-146,0,0,0,0,0,0,0,0,0,-1,1210,1170,0,0
-7,-146,0,0,0,0,0,0,0,0,0,-1,1217,1170,0,0
0,-146,0,0,0,0,0,0,0,0,0,-1,1224,1170,0,0
7,-146,0,0,0,0,0,0,0,0,0,-1,1231,1170,0,0
14,-146,0,0,0,0,0,0,0,0,0,-1,1238,1170,0,0
21,-146,0,0,0,0,0,0,0,0,0,-1,1245,1170,0,0
28,-146,0,0,0,0,0,0,0,0,0,-1,1252,1170,0,0
35,-146,0,0,0,0,0,0,0,0,0,-1,1259,1170,0,0
42,-146,0,0,0,0,0,0,0,0,0,-1,1266,1170,0,0
49,-146,0,0,0,0,0,0,0,0,0,-1,1273,1170,0,0
56,-146,0,0,0,0,0,0,0,0,0,-1,1280,1170,0,0
63,-146,0,0,0,0,0,0,0,0,0,-1,1287,1170,0,0
70,-146,0,0,0,0,0,0,0,0,0,-1,1294,1170,0,0
77,-146,0,0,0,0,0,0,0,0,0,-1,1301,1170,0,0
84,-146,0,0,0,0,0,0,0,0,0,-1,1308,1170,0,0
91,-146,0,0,0,0,0,0,0,0,0,-1,1315,1170,0,0
98,-146,0,0,0,0,0,0,0,0,0,-1,1322,1170,0,0
105,-146,0,0,0,0,0,0,0,0,0,-1,1329,1170,0,0
112,-146,0,0,0,0,0,0,0,0,0,-1,1336,1170,0,0
119,-146,0,0,0,0,0,0,0,0,0,-1,1343,1170,0,0
126,-146,0,0,0,0,0,0,0,0,0,-1,1350,1170,0,0
133,-146,0,0,0,0,0,0,0,0,0,-1,1357,1170,0,0
140,-146,0,0,0,0,0,0,0,0,0,-1,1364,1170,0,0
147,-146,0,0,0,0,0,0,0,0,0,-1,1371,1170,0,0
154,-146,0,0,0,0,0,0,0,0,0,-1,1378,1170,0,0
161,-146,0,0,0,0,0,0,0,0,0,-1,1385,1170,0,0
168,-146,0,0,0,0,0,0,0,0,0,-1,1392,1170,0,0
175,-146,0,0,0,0,0,0,0,0,0,-1,1399,1170,0,0
182,-146,0,0,0,0,0,0,0,0,0,-1,1406,1170,0,0
189,-146,0,0,0,0,0,0,0,0,0,-1,1413,1170,0,0
196,-146,0,0,0,0,0,0,0,0,0,-1,1420,1170,0,0
203,-146,0,0,0,0,0,0,0,0,0,-1,1427,1170,0,0
210,-146,0,0,0,0,0,0,0,0,0,-1,1434,1170,0,0
217,-146,0,0,0,0,0,0,0,0,0,-1,1441,1170,0,0
224,-146,0,0,0,0,0,0,0,0,0,-1,1448,1170,0,0
231,-146,0,0,0,0,0,0,0,0,0,-1,1455,1170,0,0
238,-146,0,0,0,0,0,0,0,0,0,-1,1462,1170,0,0
245,-146,0,0,0,0,0,0,0,0,0,-1,1469,1170,0,0
252,-146,0,0,0,0,0,0,0,0,0,-1,1476,1170,0,0
259,-146,0,0,0,0,0,0,0,0,0,-1,1483,1170,0,0
266,-146,0,0,0,0,0,0,0,0,0,-1,1490,1170,0,0
273,-146,0,0,0,0,0,0,0,0,0,-1,1497,1170,0,0
280,-146,0,0,0,0,0,0,0,0,0,-1,1504,1170,0,0
287,-146,0,0,0,0,0,0,0,0,0,-1,1511,1170,0,0
294,-146,0,0,0,0,0,0,0,0,0,-1,1518,1170,0,0
301,-146,0,0,0,0,0,0,0,0,0,-1,1525,1170,0,0
308,-146,0,0,0,0,0,0,0,0,0,-1,1532,1170,0,0
315,-146,0,0,0,0,0,0,0,0,0,-1,1539,1170,0,0
322,-146,0,0,0,0,0,0,0,0,0,-1,1546,1170,0,0
329,-146,0,0,0,0,0,0,0,0,0,-1,1553,1170,0,0
336,-146,0,0,0,0,0,0,0,0,0,-1,1560,1170,0,0
343,-146,0,0,0,0,0,0,0,0,0,-1,1567,1170,0,0
350,-146,0,0,0,0,0,0,0,0,0,-1,1574,1170,0,0
357,-146,0,0,0,0,0,0,0,0,0,-1,1581,1170,0,0
364,-146,0,0,0,0,0,0,0,0,0,-1,1588,1170,0,0
371,-146,0,0,0,0,0,0,0,0,0,-1,1595,1170,0,0
378,-146,0,0,0,0,0,0,0,0,0,-1,1602,1170,0,0
385,-146,0,0,0,0,0,0,0,0,0,-1,1609,1170,0,0
392,-146,0,0,0,0,0,0,0,0,0,-1,1616,1170,0,0
399,-146,0,0,0,0,0,0,0,0,0,-1,1623,1170,0,0
406,-146,0,0,0,0,0,0,0,0,0,-1,1630,1170,0,0
413,-146,0,0,0,0,0,0,0,0,0,-1,1637,1170,0,0
420,-146,0,0,0,0,0,0,0,0,0,-1,1644,1170,0,0
427,-146,0,0,0,0,0,0,0,0,0,-1,1651,1170,0,0
434,-146,0,0,0,0,0,0,0,0,0,-1,1658,1170,0,0
441,-146,0,0,0,0,0,0,0,0,0,-1,1665,1170,0,0
448,-146,0,0,0,0,0,0,0,0,0,-1,1672,1170,0,0
455,-146,0,0,0,0,0,0,0,0,0,-1,1679,1170,0,0
462,-146,0,0,0,0,0,0,0,0,0,-1,1686,1170,0,0
469,-146,0,0,0,0,0,0,0,0,0,-1,1693,1170,0,0
476,-146,0,0,0,0,0,0,0,0,0,-1,1700,1170,0,0
483,-146,0,0,0,0,0,0,0,0,0,-1,1707,1170,0,0
490,-146,0,0,0,0,0,0,0,0,0,-1,1714,1170,0,0
497,-146,0,0,0,0,0,0,0,0,0,-1,1721,1170,0,0
504,-146,0,0,0,0,0,0,0,0,0,-1,1728,1170,0,0
511,-146,0,0,0,0,0,0,0,0,0,-1,1735,1170,0,0
518,-146,0,0,0,0,0,0,0,0,0,-1,1742,1170,0,0
525,-146,0,0,0,0,0,0,0,0,0,-1,1749,1170,0,0
532,-146,0,0,0,0,0,0,0,0,0,-1,1756,1170,0,0
539,-146,0,0,0,0,0,0,0,0,0,-1,1763,1170,0,0
546,-146,0,0,0,0,0,0,0,0,0,-1,1770,1170,0,0
553,-146,0,0,0,0,0,0,0,0,0,-1,1777,1170,0,0
560,-146,0,0,0,0,0,0,0,0,0,-1,1784,1170,0,0
567,-146,0,0,0,0,0,0,0,0,0,-1,1791,1170,0,0
574,-146,0,0,0,0,0,0,0,0,0,-1,1798,1170,0,0
581,-146,0,0,0,0,0,0,0,0,0,-1,1805,1170,0,0
588,-146,0,0,0,0,0,0,0,0,0,-1,1812,1170,0,0
595,-146,0,0,0,0,0,0,0,0,0,-1,1819,1170,0,0
602,-146,0,0,0,0,0,0,0,0,0,-1,1826,1170,0,0
609,-146,0,0,0,0,0,0,0,0,0,-1,1833,1170,0,0
616,-146,0,0,0,0,0,0,0,0,0,-1,1840,1170,0,0
623,-146,0,0,0,0,0,0,0,0,0,-1,1847,1170,0,0
630,-146,0,0,0,0,0,0,0,0,0,-1,1854,1170,0,0
637,-146,4.37109,0.3927,0.00577595,-0.00399357,-0.00601493,0.00863975,-0.00685737,-0.444359,0.00896697,0.0374054,1861,1170,4.37111,-0.392657
644,-146,4.29919,0.49646,0.00463545,-0.0029984,-0.00473743,0.00690228,-0.00526524,-0.446296,0.00704608,0.0339785,1868,1170,4.29916,-0.496413
651,-146,4.29053,0.630981,0.00340523,-0.00228396,-0.00366899,0.00520318,-0.00408191,-0.455647,0.00537376,0.0334527,1875,1170,4.29054,-0.631017
658,-146,4.32825,0.644653,0.00211513,-0.0017607,-0.00256796,0.00339435,-0.00303991,-0.462162,0.0037167,0.0382657,1882,1170,4.3282,-0.64469
665,-146,4.28784,0.661743,0.000884157,-0.00143809,-0.00155041,0.00166003,-0.00221396,-0.463995,0.00224426,0.0381859,1889,1170,4.28781,-0.661728
672,-146,4.30566,0.690918,-0.000120427,-0.00122403,-0.000691109,0.000212144,-0.00155661,-0.448506,0.0011152,0.0366987,1896,1170,4.30567,-0.690868
679,-146,4.33948,0.530029,-0.000880115,-0.00108349,-2.34477e-05,-0.000877447,-0.00108616,-0.113314,0.000665534,0.0299966,1903,1170,4.33953,-0.530022
686,-146,4.26538,0.567993,-0.00145189,-0.00100505,0.000434132,-0.00074022,-0.00171672,1.02304,0.000994271,0.0229307,1910,1170,4.26535,-0.567933
693,-146,4.27161,0.610352,-0.00194704,-0.000811004,0.000793103,-0.000403494,-0.00235456,1.09616,0.00145399,0.0172832,1917,1170,4.27157,-0.610297
700,-146,4.34656,0.653442,0,0,0,0,0,0,0,-1,1924,1170,4.34654,-0.653445
707,-146,4.21936,0.729736,-0.00199658,-0.000756672,0.0011842,-3.99607e-05,-0.00271329,1.02654,0.00179569,0.0293709,1931,1170,4.21942,-0.729781
714,-146,4.11511,0.761353,-0.00207915,-0.000693784,0.00119438,-5.7586e-06,-0.00276717,1.04817,0.00184287,0.0161291,1938,1170,4.11511,-0.761374
721,-146,4.09998,0.770264,-0.00195514,-0.000589199,0.00116034,7.4245e-05,-0.00261858,1.05139,0.00177099,0.0198337,1945,1170,4.10003,-0.770236
728,-146,4.12122,0.75708,-0.00147499,-0.000526342,0.00091269,2.79191e-05,-0.00202925,1.02504,0.00136223,0.0180373,1952,1170,4.12116,-0.757079
735,-146,4.09302,0.758057,-0.00089582,-0.000575486,0.00035194,-0.000348981,-0.00112233,0.99894,0.000663235,0.0175533,1959,1170,4.09304,-0.758043
742,-146,4.07751,0.715698,-0.000440328,-0.000480911,-0.000315033,-0.000144934,-0.000776305,-0.753238,0.000476629,0.018025,1966,1170,4.07753,-0.71568
749,-146,4.104,0.693115,-0.000273205,-0.000685029,-0.00155004,0.00108454,-0.00204277,-0.719363,0.00183359,0.0162731,1973,1170,4.10396,-0.693103
756,-146,4.11108,0.680908,-6.63029e-05,-0.000408239,-0.00289294,0.00266072,-0.00313526,-0.755883,0.00335005,0.0114008,1980,1170,4.1111,-0.680911
763,-146,4.08789,0.666016,5.90155e-05,-0.000527234,-0.00456896,0.00434424,-0.00481246,-0.753364,0.00528893,0.0107785,1987,1170,4.08789,-0.66599
770,-146,4.09961,0.649536,-1.1774e-05,-0.000633383,-0.00673272,0.00641732,-0.00706247,-0.762333,0.00778553,0.0120084,1994,1170,4.09956,-0.649583
777,-146,4.12915,0.601929,-0.000264892,-0.000797041,-0.00954656,0.0090193,-0.0100812,-0.771466,0.0110334,0.02125,2001,1170,4.1292,-0.601965
784,-146,4.0509,0.0102539,-0.000685569,-0.00100392,-0.0131765,0.0123327,-0.0140222,-0.779358,0.0152265,0.0409688,2008,1170,4.05096,-0.0103068
791,-146,4.04529,-0.564209,-0.00140468,-0.00125011,-0.0177811,0.0164538,-0.0191086,-0.787571,0.0205511,0.0456353,2015,1170,4.04526,0.564179
798,-146,4.06299,-0.880005,-0.00251759,-0.00151996,-0.0234832,0.0214697,-0.0255073,-0.796017,0.0271556,0.0478616,2022,1170,4.06295,0.880015
805,-146,3.31555,-0.218384,0,0,0,0,0,0,0,-1,2029,1170,3.31555,0.218426
812,-146,0,0,0,0,0,0,0,0,0,-1,2036,1170,0,0
-700,-153,0,0,0,0,0,0,0,0,0,-1,524,1177,0,0
-693,-153,0,0,0,0,0,0,0,0,0,-1,531,1177,0,0
-686,-153,-1.96631,0.429077,0.00649484,-0.00721507,0.0142302,0.0154351,-0.0161553,0.56094,0.0182403,0.0456864,538,1177,-1.9663,-0.429084
-679,-153,-1.70013,0.313477,0.0172649,-0.00256458,0.00319821,0.017768,-0.00306764,0.156017,0.0129892,0.0484883,545,1177,-1.70012,-0.313453
-672,-153,-1.31824,0.41748,0.0227,0.000388574,-0.00378998,0.0233263,-0.000237642,-0.16375,0.0156307,0.048047,552,1177,-1.31825,-0.417439
-665,-153,-0.673584,-0.152954,0.0245498,0.00213793,-0.00789097,0.0270494,-0.00036162,-0.306762,0.0181547,0.0455909,559,1177,-0.673591,0.152937
-658,-153,-0.666443,0.270874,0.0239763,0.00301528,-0.00985296,0.0278806,-0.000888987,-0.377272,0.0188904,0.0489885,566,1177,-0.666425,-0.270914
-651,-153,-0.683167,0.52417,0.0218229,0.00328114,-0.0102567,0.0263776,-0.00127362,-0.417919,0.0180246,0.0436398,573,1177,-0.683176,-0.524146
-644,-153,-0.578796,0.626221,0.0187701,0.0031375,-0.00961014,0.0233412,-0.00143367,-0.443988,0.0160601,0.0254631,580,1177,-0.578811,-0.626162
-637,-153,-0.508118,0.697388,0.0153685,0.00263939,-0.00843175,0.0195681,-0.00156024,-0.462106,0.0135954,0.0109636,587,1177,-0.508135,-0.697368
-630,-153,-0.505676,0.713989,0.0126763,0.00255041,-0.00731105,0.0165063,-0.00127962,-0.48256,0.0114546,0.0098197,594,1177,-0.505678,-0.714014
-623,-153,-0.518494,0.723633,0.00955159,0.0021881,-0.00631078,0.0131761,-0.0014364,-0.521334,0.00929991,0.0101483,601,1177,-0.518502,-0.723627
-616,-153,-0.506653,0.7323,0.00632039,0.00137117,-0.00452284,0.00900134,-0.00130977,-0.535077,0.00648175,0.0129488,608,1177,-0.506674,-0.732277
-609,-153,-0.514404,0.767578,0.00342303,0.00040646,-0.00335028,0.00558888,-0.0017594,-0.57389,0.00443041,0.0175386,615,1177,-0.514389,-0.767595
-602,-153,-0.52948,0.803223,0.00174808,0.000594354,-0.00240443,0.00364387,-0.00130144,-0.667665,0.00296002,0.0202222,622,1177,-0.529464,-0.803198
-595,-153,-0.513184,0.816895,0.000392116,4.36157e-05,-0.000972064,0.00120542,-0.000769693,-0.696711,0.00114955,0.0138255,629,1177,-0.513186,-0.816919
-588,-153,-0.544556,0.813354,-0.000546292,4.38943e-05,-0.00116952,0.00095498,-0.00145738,-0.908978,0.00140281,0.00894391,636,1177,-0.544559,-0.81333
-581,-153,-0.574951,0.797729,-0.000325464,0.000132613,-0.00137592,0.00129843,-0.00149128,-0.867873,0.00161192,0.0192947,643,1177,-0.574961,-0.797671
-574,-153,-0.555054,0.669067,-3.35999e-05,0.000343558,-0.0015814,0.00174758,-0.00143763,-0.844742,0.00184188,0.0404376,650,1177,-0.555073,-0.669035
-567,-153,-0.711426,0.95105,0.000225359,0.000532092,-0.00164813,0.00203397,-0.00127652,-0.831792,0.00192792,0.0444954,657,1177,-0.711449,-0.951039
-560,-153,-0.642822,0.748169,0.000536797,0.000730024,-0.00165557,0.00229179,-0.00102497,-0.814543,0.00196094,0.0383009,664,1177,-0.642824,-0.748135
-553,-153,-0.589172,0.681152,0.000982192,0.000985068,-0.00157656,0.0025602,-0.000592936,-0.785854,0.00193497,0.0357251,671,1177,-0.589154,-0.681105
-546,-153,-0.514343,0.633667,0.00153705,0.00124657,-0.00135395,0.00275353,3.01e-05,-0.731967,0.00182573,0.0376667,678,1177,-0.514324,-0.633711
-539,-153,-0.593872,0.697754,0.00220158,0.00149914,-0.000968256,0.00288034,0.000820369,-0.611411,0.00171353,0.0387735,685,1177,-0.593885,-0.697799
-532,-153,-0.640991,0.653564,0.0029611,0.0017151,-0.00042809,0.00309401,0.0015822,-0.301021,0.00178648,0.0400995,692,1177,-0.641003,-0.653513
-525,-153,-0.427856,0.674805,0.00371609,0.00182444,0.000223705,0.00374218,0.00179835,0.116126,0.00216109,0.0398221,699,1177,-0.427868,-0.674769
-518,-153,0,0,0,0,0,0,0,0,0,-1,706,1177,0,0
-511,-153,0,0,0,0,0,0,0,0,0,-1,713,1177,0,0
-504,-153,0,0,0,0,0,0,0,0,0,-1,720,1177,0,0
-497,-153,0,0,0,0,0,0,0,0,0,-1,727,1177,0,0
-490,-153,0,0,0,0,0,0,0,0,0,-1,734,1177,0,0
-483,-153,0,0,0,0,0,0,0,0,0,-1,741,1177,0,0
-476,-153,0,0,0,0,0,0,0,0,0,-1,748,1177,0,0
-469,-153,0,0,0,0,0,0,0,0,0,-1,755,1177,0,0
-462,-153,0,0,0,0,0,0,0,0,0,-1,762,1177,0,0
-455,-153,0,0,0,0,0,0,0,0,0,-1,769,1177,0,0
-448,-153,0,0,0,0,0,0,0,0,0,-1,776,1177,0,0
-441,-153,0,0,0,0,0,0,0,0,0,-1,783,1177,0,0
-434,-153,0,0,0,0,0,0,0,0,0,-1,790,1177,0,0
-427,-153,0,0,0,0,0,0,0,0,0,-1,797,1177,0,0
-420,-153,0,0,0,0,0,0,0,0,0,-1,804,1177,0,0
-413,-153,0,0,0,0,0,0,0,0,0,-1,811,1177,0,0
-406,-153,0,0,0,0,0,0,0,0,0,-1,818,1177,0,0
-399,-153,0,0,0,0,0,0,0,0,0,-1,825,1177,0,0
-392,-153,0,0,0,0,0,0,0,0,0,-1,832,1177,0,0
-385,-153,0,0,0,0,0,0,0,0,0,-1,839,1177,0,0
-378,-153,0,0,0,0,0,0,0,0,0,-1,846,1177,0,0
-371,-153,0,0,0,0,0,0,0,0,0,-1,853,1177,0,0
-364,-153,0,0,0,0,0,0,0,0,0,-1,860,1177,0,0
-357,-153,0,0,0,0,0,0,0,0,0,-1,867,1177,0,0
-350,-153,0,0,0,0,0,0,0,0,0,-1,874,1177,0,0
-343,-153,0,0,0,0,0,0,0,0,0,-1,881,1177,0,0
-336,-153,0,0,0,0,0,0,0,0,0,-1,888,1177,0,0
-329,-153,0,0,0,0,0,0,0,0,0,-1,895,1177,0,0
-322,-153,0,0,0,0,0,0,0,0,0,-1,902,1177,0,0
-315,-153,0,0,0,0,0,0,0,0,0,-1,909,1177,0,0
-308,-153,0,0,0,0,0,0,0,0,0,-1,916,1177,0,0
-301,-153,0,0,0,0,0,0,0,0,0,-1,923,1177,0,0
-294,-153,0,0,0,0,0,0,0,0,0,-1,930,1177,0,0
-287,-153,0,0,0,0,0,0,0,0,0,-1,937,1177,0,0
-280,-153,0,0,0,0,0,0,0,0,0,-1,944,1177,0,0
-273,-153,0,0,0,0,0,0,0,0,0,-1,951,1177,0,0
-266,-153,0,0,0,0,0,0,0,0,0,-1,958,1177,0,0
-259,-153,0,0,0,0,0,0,0,0,0,-1,965,1177,0,0
-252,-153,0,0,0,0,0,0,0,0,0,-1,972,1177,0,0
-245,-153,0,0,0,0,0,0,0,0,0,-1,979,1177,0,0
-238,-153,0,0,0,0,0,0,0,0,0,-1,986,1177,0,0
-231,-153,0,0,0,0,0,0,0,0,0,-1,993,1177,0,0
-224,-153,0,0,0,0,0,0,0,0,0,-1,1000,1177,0,0
-217,-153,0,0,0,0,0,0,0,0,0,-1,1007,1177,0,0
-210,-153,0,0,0,0,0,0,0,0,0,-1,1014,1177,0,0
-203,-153,0,0,0,0,0,0,0,0,0,-1,1021,1177,0,0
-196,-153,0,0,0,0,0,0,0,0,0,-1,1028,1177,0,0
-189,-153,0,0,0,0,0,0,0,0,0,-1,1035,1177,0,0
-182,-153,0,0,0,0,0,0,0,0,0,-1,1042,1177,0,0
-175,-153,0,0,0,0,0,0,0,0,0,-1,1049,1177,0,0
-168,-153,0,0,0,0,0,0,0,0,0,-1,1056,1177,0,0
-161,-153,0,0,0,0,0,0,0,0,0,-1,1063,1177,0,0
-154,-153,0,0,0,0,0,0,0,0,0,-1,1070,1177,0,0
-147,-153,0,0,0,0,0,0,0,0,0,-1,1077,1177,0,0
-140,-153,0,0,0,0,0,0,0,0,0,-1,1084,1177,0,0
-133,-153,0,0,0,0,0,0,0,0,0,-1,1091,1177,0,0
-126,-153,0,0,0,0,0,0,0,0,0,-1,1098,1177,0,0
-119,-153,0,0,0,0,0,0,0,0,0,-1,1105,1177,0,0
-112,-153,0,0,0,0,0,0,0,0,0,-1,1112,1177,0,0
-105,-153,0,0,0,0,0,0,0,0,0,-1,1119,1177,0,0
-98,-153,0,0,0,0,0,0,0,0,0,-1,1126,1177,0,0
-91,-153,0,0,0,0,0,0,0,0,0,-1,1133,1177,0,0
-84,-153,0,0,0,0,0,0,0,0,0,-1,1140,1177,0,0
-77,-153,0,0,0,0,0,0,0,0,0,-1,1147,1177,0,0
-70,-153,0,0,0,0,0,0,0,0,0,-1,1154,1177,0,0
-63,-153,0,0,0,0,0,0,0,0,0,-1,1161,1177,0,0
-56,-153,0,0,0,0,0,0,0,0,0,-1,1168,1177,0,0
-49,-153,0,0,0,0,0,0,0,0,0,-1,1175,1177,0,0
-42,-153,0,0,0,0,0,0,0,0,0,-1,1182,1177,0,0
-35,-153,0,0,0,0,0,0,0,0,0,-1,1189,1177,0,0
-28,-153,0,0,0,0,0,0,0,0,0,-1,1196,1177,0,0
-21,-153,0,0,0,0,0,0,0,0,0,-1,1203,1177,0,0
-14,-153,0,0,0,0,0,0,0,0,0,-1,1210,1177,0,0
-7,-153,0,0,0,0,0,0,0,0,0,-1,1217,1177,0,0
0,-153,0,0,0,0,0,0,0,0,0,-1,1224,1177,0,0
7,-153,0,0,0,0,0,0,0,0,0,-1,1231,1177,0,0
14,-153,0,0,0,0,0,0,0,0,0,-1,1238,1177,0,0
21,-153,0,0,0,0,0,0,0,0,0,-1,1245,1177,0,0
28,-153,0,0,0,0,0,0,0,0,0,-1,1252,1177,0,0
35,-153,0,0,0,0,0,0,0,0,0,-1,1259,1177,0,0
42,-153,0,0,0,0,0,0,0,0,0,-1,1266,1177,0,0
49,-153,0,0,0,0,0,0,0,0,0,-1,1273,1177,0,0
56,-153,0,0,0,0,0,0,0,0,0,-1,1280,1177,0,0
63,-153,0,0,0,0,0,0,0,0,0,-1,1287,1177,0,0
70,-153,0,0,0,0,0,0,0,0,0,-1,1294,1177,0,0
77,-153,0,0,0,0,0,0,0,0,0,-1,1301,1177,0,0
84,-153,0,0,0,0,0,0,0,0,0,-1,1308,1177,0,0
91,-153,0,0,0,0,0,0,0,0,0,-1,1315,1177,0,0
98,-153,0,0,0,0,0,0,0,0,0,-1,1322,1177,0,0
105,-153,0,0,0,0,0,0,0,0,0,-1,1329,1177,0,0
112,-153,0,0,0,0,0,0,0,0,0,-1,1336,1177,0,0
119,-153,0,0,0,0,0,0,0,0,0,-1,1343,1177,0,0
126,-153,0,0,0,0,0,0,0,0,0,-1,1350,1177,0,0
133,-153,0,0,0,0,0,0,0,0,0,-1,1357,1177,0,0
140,-153,0,0,0,0,0,0,0,0,0,-1,1364,1177,0,0
147,-153,0,0,0,0,0,0,0,0,0,-1,1371,1177,0,0
154,-153,0,0,0,0,0,0,0,0,0,-1,1378,1177,0,0
161,-153,0,0,0,0,0,0,0,0,0,-1,1385,1177,0,0
168,-153,0,0,0,0,0,0,0,0,0,-1,1392,1177,0,0
175,-153,0,0,0,0,0,0,0,0,0,-1,1399,1177,0,0
182,-153,0,0,0,0,0,0,0,0,0,-1,1406,1177,0,0
189,-153,0,0,0,0,0,0,0,0,0,-1,1413,1177,0,0
196,-153,0,0,0,0,0,0,0,0,0,-1,1420,1177,0,0
203,-153,0,0,0,0,0,0,0,0,0,-1,1427,1177,0,0
210,-153,0,0,0,0,0,0,0,0,0,-1,1434,1177,0,0
217,-153,0,0,0,0,0,0,0,0,0,-1,1441,1177,0,0
224,-153,0,0,0,0,0,0,0,0,0,-1,1448,1177,0,0
231,-153,0,0,0,0,0,0,0,0,0,-1,1455,1177,0,0
238,-153,0,0,0,0,0,0,0,0,0,-1,1462,1177,0,0
245,-153,0,0,0,0,0,0,0,0,0,-1,1469,1177,0,0
252,-153,0,0,0,0,0,0,0,0,0,-1,1476,1177,0,0
259,-153,0,0,0,0,0,0,0,0,0,-1,1483,1177,0,0
266,-153,0,0,0,0,0,0,0,0,0,-1,1490,1177,0,0
273,-153,0,0,0,0,0,0,0,0,0,-1,1497,1177,0,0
280,-153,0,0,0,0,0,0,0,0,0,-1,1504,1177,0,0
287,-153,0,0,0,0,0,0,0,0,0,-1,1511,1177,0,0
294,-153,0,0,0,0,0,0,0,0,0,-1,1518,1177,0,0
301,-153,0,0,0,0,0,0,0,0,0,-1,1525,1177,0,0
308,-153,0,0,0,0,0,0,0,0,0,-1,1532,1177,0,0
315,-153,0,0,0,0,0,0,0,0,0,-1,1539,1177,0,0
322,-153,0,0,0,0,0,0,0,0,0,-1,1546,1177,0,0
329,-153,0,0,0,0,0,0,0,0,0,-1,1553,1177,0,0
336,-153,0,0,0,0,0,0,0,0,0,-1,1560,1177,0,0
343,-153,0,0,0,0,0,0,0,0,0,-1,1567,1177,0,0
350,-153,0,0,0,0,0,0,0,0,0,-1,1574,1177,0,0
357,-153,0,0,0,0,0,0,0,0,0,-1,1581,1177,0,0
364,-153,0,0,0,0,0,0,0,0,0,-1,1588,1177,0,0
371,-153,0,0,0,0,0,0,0,0,0,-1,1595,1177,0,0
378,-153,0,0,0,0,0,0,0,0,0,-1,1602,1177,0,0
385,-153,0,0,0,0,0,0,0,0,0,-1,1609,1177,0,0
392,-153,0,0,0,0,0,0,0,0,0,-1,1616,1177,0,0
399,-153,0,0,0,0,0,0,0,0,0,-1,1623,1177,0,0
406,-153,0,0,0,0,0,0,0,0,0,-1,1630,1177,0,0
413,-153,0,0,0,0,0,0,0,0,0,-1,1637,1177,0,0
420,-153,0,0,0,0,0,0,0,0,0,-1,1644,1177,0,0
427,-153,0,0,0,0,0,0,0,0,0,-1,1651,1177,0,0
434,-153,0,0,0,0,0,0,0,0,0,-1,1658,1177,0,0
441,-153,0,0,0,0,0,0,0,0,0,-1,1665,1177,0,0
448,-153,0,0,0,0,0,0,0,0,0,-1,1672,1177,0,0
455,-153,0,0,0,0,0,0,0,0,0,-1,1679,1177,0,0
462,-153,0,0,0,0,0,0,0,0,0,-1,1686,1177,0,0
469,-153,0,0,0,0,0,0,0,0,0,-1,1693,1177,0,0
476,-153,0,0,0,0,0,0,0,0,0,-1,1700,1177,0,0
483,-153,0,0,0,0,0,0,0,0,0,-1,1707,1177,0,0
490,-153,0,0,0,0,0,0,0,0,0,-1,1714,1177,0,0
497,-153,0,0,0,0,0,0,0,0,0,-1,1721,1177,0,0
504,-153,0,0,0,0,0,0,0,0,0,-1,1728,1177,0,0
511,-153,0,0,0,0,0,0,0,0,0,-1,1735,1177,0,0
518,-153,0,0,0,0,0,0,0,0,0,-1,1742,1177,0,0
525,-153,0,0,0,0,0,0,0,0,0,-1,1749,1177,0,0
532,-153,0,0,0,0,0,0,0,0,0,-1,1756,1177,0,0
539,-153,0,0,0,0,0,0,0,0,0,-1,1763,1177,0,0
546,-153,0,0,0,0,0,0,0,0,0,-1,1770,1177,0,0
553,-153,0,0,0,0,0,0,0,0,0,-1,1777,1177,0,0
560,-153,0,0,0,0,0,0,0,0,0,-1,1784,1177,0,0
567,-153,0,0,0,0,0,0,0,0,0,-1,1791,1177,0,0
574,-153,0,0,0,0,0,0,0,0,0,-1,1798,1177,0,0
581,-153,0,0,0,0,0,0,0,0,0,-1,1805,1177,0,0
588,-153,0,0,0,0,0,0,0,0,0,-1,1812,1177,0,0
595,-153,0,0,0,0,0,0,0,0,0,-1,1819,1177,0,0
602,-153,0,0,0,0,0,0,0,0,0,-1,1826,1177,0,0
609,-153,0,0,0,0,0,0,0,0,0,-1,1833,1177,0,0
616,-153,0,0,0,0,0,0,0,0,0,-1,1840,1177,0,0
623,-153,0,0,0,0,0,0,0,0,0,-1,1847,1177,0,0
630,-153,0,0,0,0,0,0,0,0,0,-1,1854,1177,0,0
637,-153,4.28198,0.632568,0.00581629,-0.00325789,-0.00553826,0.00843863,-0.00588023,-0.442221,0.00831087,0.0400686,1861,1177,4.28193,-0.632627
644,-153,4.27246,0.594849,0.00477879,-0.00239434,-0.00449735,0.00694458,-0.00456014,-0.448796,0.00668964,0.0360412,1868,1177,4.27246,-0.594871
651,-153,4.30005,0.583496,0.00346353,-0.00177144,-0.00355381,0.00525976,-0.00356766,-0.467986,0.00512763,0.03065,1875,1177,4.3001,-0.583458
658,-153,4.30627,0.53186,0.00208005,-0.00131197,-0.00252798,0.00342824,-0.00266015,-0.489936,0.00352445,0.0340223,1882,1177,4.30629,-0.531847
665,-153,4.30249,0.564941,0.000804072,-0.00102811,-0.00156652,0.0017027,-0.00192673,-0.520817,0.00209678,0.0379597,1889,1177,4.30245,-0.564923
672,-153,4.29236,0.673462,-0.000223681,-0.000845011,-0.000744664,0.000272523,-0.00134122,-0.58778,0.000997472,0.0386255,1896,1177,4.29233,-0.673497
679,-153,4.24438,0.570313,-0.000998337,-0.000736386,-9.36947e-05,-0.000706324,-0.0010284,-1.26032,0.000607405,0.0293371,1903,1177,4.24437,-0.570328
686,-153,4.26392,0.580566,-0.00157974,-0.000694501,0.000349078,-0.000573412,-0.00170083,1.2369,0.000999189,0.0189476,1910,1177,4.2639,-0.58054
693,-153,4.28625,0.584717,-0.00210104,-0.000543354,0.000720141,-0.000261443,-0.00238295,1.19767,0.00150905,0.0304539,1917,1177,4.28631,-0.584714
700,-153,4.14087,0.664551,0,0,0,0,0,0,0,-1,1924,1177,4.14088,-0.664608
707,-153,4.1582,0.779053,-0.00210676,-0.000573168,0.00112876,2.4617e-05,-0.00270455,1.08376,0.00181129,0.0340459,1931,1177,4.1582,-0.779063
714,-153,4.09692,0.777466,-0.00218252,-0.000545911,0.00113834,3.77267e-05,-0.00276615,1.09703,0.00185681,0.0162336,1938,1177,4.09698,-0.777519
721,-153,4.10291,0.773315,-0.00202475,-0.000480162,0.00109488,8.73974e-05,-0.0025923,1.09256,0.00175806,0.0139859,1945,1177,4.10296,-0.773301
728,-153,4.08411,0.776245,-0.00147045,-0.000456872,0.000873561,4.62622e-05,-0.00197358,1.04824,0.00133141,0.0198355,1952,1177,4.08405,-0.776186
735,-153,4.06018,0.750854,-0.000821672,-0.000582003,0.000358633,-0.000323713,-0.00107996,0.946637,0.000639969,0.017368,1959,1177,4.06015,-0.750857
742,-153,4.08484,0.72583,-0.000193206,-0.000548379,-0.000332102,5.8084e-06,-0.000747394,-0.539874,0.00050021,0.0154022,1966,1177,4.08483,-0.725807
749,-153,4.09436,0.706909,0.000284059,-0.000825827,-0.00164782,0.00146787,-0.00200964,-0.622976,0.00201584,0.0159005,1973,1177,4.09441,-0.706911
756,-153,4.09619,0.685059,0.000770816,-0.000584242,-0.00305541,0.00322292,-0.00303634,-0.67629,0.00361432,0.0106235,1980,1177,4.09625,-0.685094
763,-153,4.08472,0.664063,0.00124894,-0.000600862,-0.00481821,0.00523021,-0.00458214,-0.690572,0.00566928,0.0106349,1987,1177,4.08478,-0.664059
770,-153,4.09839,0.641846,0.00163582,-0.000642456,-0.00712849,0.00771561,-0.00672225,-0.706168,0.00834227,0.0103304,1994,1177,4.09841,-0.641809
777,-153,4.17004,0.622803,0.00196995,-0.000645233,-0.0101782,0.0109242,-0.0095995,-0.721513,0.0118576,0.0224139,2001,1177,4.17002,-0.622827
784,-153,4.22791,0.635864,0.00225248,-0.000534485,-0.0141488,0.0150762,-0.0133582,-0.736312,0.0164266,0.0457893,2008,1177,4.22791,-0.635885
791,-153,4.26953,0.636719,0.00232688,-0.000201369,-0.0192279,0.0203322,-0.0182067,-0.752573,0.0222617,0.0478859,2015,1177,4.26957,-0.636703
798,-153,3.92395,-1.1499,0.0020675,0.00052858,-0.0255647,0.0268743,-0.0242783,-0.770353,0.0295456,0.0485774,2022,1177,3.92393,1.14988
805,-153,3.10352,-0.101929,0,0,0,0,0,0,0,-1,2029,1177,3.10357,0.101891
812,-153,0,0,0,0,0,0,0,0,0,-1,2036,1177,0,0
-700,-160,0,0,0,0,0,0,0,0,0,-1,524,1184,0,0
-693,-160,0,0,0,0,0,0,0,0,0,-1,531,1184,0,0
-686,-160,-2.40344,0.60791,0.0197495,-0.0113318,0.00779748,0.0215959,-0.0131783,0.232523,0.020272,0.0476206,538,1184,-2.40341,-0.607856
-679,-160,-2.40552,0.295654,0.0309479,-0.00436015,-0.00420085,0.0314409,-0.00485307,-0.116805,0.0227515,0.0460107,545,1184,-2.40549,-0.295688
-672,-160,-1.91809,0.354736,0,0,0,0,0,0,0,-1,552,1184,-1.91806,-0.354727
-665,-160,-3.25525,-2.45313,0,0,0,0,0,0,0,-1,559,1184,-3.25522,2.45313
-658,-160,-0.579285,0.139526,0,0,0,0,0,0,0,-1,566,1184,-0.579268,-0.13958
-651,-160,-0.478271,0.392944,0.0294911,0.00421888,-0.015294,0.0366938,-0.00298383,-0.440138,0.0255154,0.0487411,573,1184,-0.478265,-0.392981
-644,-160,-0.497375,0.547119,0.024757,0.00407844,-0.0136892,0.0315727,-0.00273732,-0.461961,0.0220177,0.0340669,580,1184,-0.497365,-0.547134
-637,-160,-0.487854,0.682861,0.0198449,0.00355528,-0.0115752,0.0258536,-0.00245348,-0.478815,0.0181091,0.013414,587,1184,-0.487858,-0.682856
-630,-160,-0.492737,0.690796,0.0160474,0.00339671,-0.00972051,0.0213194,-0.00187529,-0.496957,0.0148775,0.00832951,594,1184,-0.492733,-0.690803
-623,-160,-0.507202,0.698853,0.0117945,0.0029034,-0.00810823,0.0165959,-0.00189802,-0.53464,0.0117478,0.011037,601,1184,-0.507221,-0.698903
-616,-160,-0.49176,0.723511,0.00764186,0.0018625,-0.00566221,0.0111091,-0.00160478,-0.549454,0.00799488,0.0103566,608,1184,-0.491743,-0.723553
-609,-160,-0.494263,0.76123,0.00399369,0.000763981,-0.00399796,0.00669061,-0.00193295,-0.593458,0.00522529,0.0129303,615,1184,-0.494251,-0.76123
-602,-160,-0.493103,0.80896,0.00187906,0.000839426,-0.00276468,0.00417236,-0.00145388,-0.692473,0.00337234,0.0175571,622,1184,-0.493106,-0.808954
-595,-160,-0.476501,0.810181,0.00028177,0.000190287,-0.00101208,0.00124914,-0.000777087,-0.762816,0.00118038,0.0170383,629,1184,-0.476484,-0.810158
-588,-160,-0.49762,0.828125,-0.000751701,0.000201686,-0.00121494,0.0010301,-0.00158012,-0.972349,0.00151812,0.0160728,636,1184,-0.497637,-0.82815
-581,-160,-0.546997,0.829224,-0.000500099,0.000295186,-0.00144982,0.00140091,-0.00160582,-0.919242,0.00173728,0.0151857,643,1184,-0.546991,-0.829234
-574,-160,-0.598328,0.875122,-0.00021367,0.00051932,-0.00168202,0.00187431,-0.00156866,-0.892666,0.00199041,0.0376362,650,1184,-0.598335,-0.875124
-567,-160,-0.671204,1.01721,2.88243e-05,0.000714645,-0.00175857,0.00216342,-0.00141995,-0.881687,0.00208365,0.0450795,657,1184,-0.671222,-1.01715
-560,-160,-0.620483,0.727051,0.000313542,0.000902992,-0.00177058,0.00240321,-0.00118668,-0.86787,0.00211192,0.0393941,664,1184,-0.620498,-0.727057
-553,-160,-0.591248,0.694458,0.000762054,0.00114595,-0.00170316,0.00266794,-0.000759939,-0.841511,0.00207877,0.0389103,671,1184,-0.591268,-0.694431
-546,-160,-0.595154,0.623657,0.00133888,0.00137275,-0.00149923,0.00285515,-0.000143514,-0.791047,0.00195303,0.0388904,678,1184,-0.595148,-0.623664
-539,-160,-0.710144,0.529175,0,0,0,0,0,0,0,-1,685,1184,-0.710126,-0.529181
-532,-160,-0.353821,0.515747,0.00289013,0.001688,-0.000651272,0.00317531,0.00140282,-0.412734,0.0018374,0.0452488,692,1184,-0.353823,-0.515779
-525,-160,-0.148438,0.444214,0.00377222,0.00167618,-6.53378e-05,0.00377426,0.00167414,-0.0311317,0.00218369,0.0425771,699,1184,-0.148411,-0.444193
-518,-160,-0.312805,0.567871,0.00442224,0.00151144,0.000787131,0.00462146,0.00131222,0.24789,0.00274998,0.0404119,706,1184,-0.312776,-0.567841
-511,-160,0,0,0,0,0,0,0,0,0,-1,713,1184,0,0
-504,-160,0,0,0,0,0,0,0,0,0,-1,720,1184,0,0
-497,-160,0,0,0,0,0,0,0,0,0,-1,727,1184,0,0
-490,-160,0,0,0,0,0,0,0,0,0,-1,734,1184,0,0
-483,-160,0,0,0,0,0,0,0,0,0,-1,741,1184,0,0
-476,-160,0,0,0,0,0,0,0,0,0,-1,748,1184,0,0
-469,-160,0,0,0,0,0,0,0,0,0,-1,755,1184,0,0
-462,-160,0,0,0,0,0,0,0,0,0,-1,762,1184,0,0
-455,-160,0,0,0,0,0,0,0,0,0,-1,769,1184,0,0
-448,-160,0,0,0,0,0,0,0,0,0,-1,776,1184,0,0
-441,-160,0,0,0,0,0,0,0,0,0,-1,783,1184,0,0
-434,-160,0,0,0,0,0,0,0,0,0,-1,790,1184,0,0
-427,-160,0,0,0,0,0,0,0,0,0,-1,797,1184,0,0
-420,-160,0,0,0,0,0,0,0,0,0,-1,804,1184,0,0
-413,-160,0,0,0,0,0,0,0,0,0,-1,811,1184,0,0
-406,-160,0,0,0,0,0,0,0,0,0,-1,818,1184,0,0
-399,-160,0,0,0,0,0,0,0,0,0,-1,825,1184,0,0
-392,-160,0,0,0,0,0,0,0,0,0,-1,832,1184,0,0
-385,-160,0,0,0,0,0,0,0,0,0,-1,839,1184,0,0
-378,-160,0,0,0,0,0,0,0,0,0,-1,846,1184,0,0
-371,-160,0,0,0,0,0,0,0,0,0,-1,853,1184,0,0
-364,-160,0,0,0,0,0,0,0,0,0,-1,860,1184,0,0
-357,-160,0,0,0,0,0,0,0,0,0,-1,867,1184,0,0
-350,-160,0,0,0,0,0,0,0,0,0,-1,874,1184,0,0
-343,-160,0,0,0,0,0,0,0,0,0,-1,881,1184,0,0
-336,-160,0,0,0,0,0,0,0,0,0,-1,888,1184,0,0
-329,-160,0,0,0,0,0,0,0,0,0,-1,895,1184,0,0
-322,-160,0,0,0,0,0,0,0,0,0,-1,902,1184,0,0
-315,-160,0,0,0,0,0,0,0,0,0,-1,909,1184,0,0
-308,-160,0,0,0,0,0,0,0,0,0,-1,916,1184,0,0
-301,-160,0,0,0,0,0,0,0,0,0,-1,923,1184,0,0
-294,-160,0,0,0,0,0,0,0,0,0,-1,930,1184,0,0
-287,-160,0,0,0,0,0,0,0,0,0,-1,937,1184,0,0
-280,-160,0,0,0,0,0,0,0,0,0,-1,944,1184,0,0
-273,-160,0,0,0,0,0,0,0,0,0,-1,951,1184,0,0
-266,-160,0,0,0,0,0,0,0,0,0,-1,958,1184,0,0
-259,-160,0,0,0,0,0,0,0,0,0,-1,965,1184,0,0
-252,-160,0,0,0,0,0,0,0,0,0,-1,972,1184,0,0
-245,-160,0,0,0,0,0,0,0,0,0,-1,979,1184,0,0
-238,-160,0,0,0,0,0,0,0,0,0,-1,986,1184,0,0
-231,-160,0,0,0,0,0,0,0,0,0,-1,993,1184,0,0
-224,-160,0,0,0,0,0,0,0,0,0,-1,1000,1184,0,0
-217,-160,0,0,0,0,0,0,0,0,0,-1,1007,1184,0,0
-210,-160,0,0,0,0,0,0,0,0,0,-1,1014,1184,0,0
-203,-160,0,0,0,0,0,0,0,0,0,-1,1021,1184,0,0
-196,-160,0,0,0,0,0,0,0,0,0,-1,1028,1184,0,0
-189,-160,0,0,0,0,0,0,0,0,0,-1,1035,1184,0,0
-182,-160,0,0,0,0,0,0,0,0,0,-1,1042,1184,0,0
-175,-160,0,0,0,0,0,0,0,0,0,-1,1049,1184,0,0
-168,-160,0,0,0,0,0,0,0,0,0,-1,1056,1184,0,0
-161,-160,0,0,0,0,0,0,0,0,0,-1,1063,1184,0,0
-154,-160,0,0,0,0,0,0,0,0,0,-1,1070,1184,0,0
-147,-160,0,0,0,0,0,0,0,0,0,-1,1077,1184,0,0
-140,-160,0,0,0,0,0,0,0,0,0,-1,1084,1184,0,0
-133,-160,0,0,0,0,0,0,0,0,0,-1,1091,1184,0,0
-126,-160,0,0,0,0,0,0,0,0,0,-1,1098,1184,0,0
-119,-160,0,0,0,0,0,0,0,0,0,-1,1105,1184,0,0
-112,-160,0,0,0,0,0,0,0,0,0,-1,1112,1184,0,0
-105,-160,0,0,0,0,0,0,0,0,0,-1,1119,1184,0,0
-98,-160,0,0,0,0,0,0,0,0,0,-1,1126,1184,0,0
-91,-160,0,0,0,0,0,0,0,0,0,-1,1133,1184,0,0
-84,-160,0,0,0,0,0,0,0,0,0,-1,1140,1184,0,0
-77,-160,0,0,0,0,0,0,0,0,0,-1,1147,1184,0,0
-70,-160,0,0,0,0,0,0,0,0,0,-1,1154,1184,0,0
-63,-160,0,0,0,0,0,0,0,0,0,-1,1161,1184,0,0
-56,-160,0,0,0,0,0,0,0,0,0,-1,1168,1184,0,0
-49,-160,0,0,0,0,0,0,0,0,0,-1,1175,1184,0,0
-42,-160,0,0,0,0,0,0,0,0,0,-1,1182,1184,0,0
-35,-160,0,0,0,0,0,0,0,0,0,-1,1189,1184,0,0
-28,-160,0,0,0,0,0,0,0,0,0,-1,1196,1184,0,0
-21,-160,0,0,0,0,0,0,0,0,0,-1,1203,1184,0,0
-14,-160,0,0,0,0,0,0,0,0,0,-1,1210,1184,0,0
-7,-160,0,0,0,0,0,0,0,0,0,-1,1217,1184,0,0
0,-160,0,0,0,0,0,0,0,0,0,-1,1224,1184,0,0
7,-160,0,0,0,0,0,0,0,0,0,-1,1231,1184,0,0
14,-160,0,0,0,0,0,0,0,0,0,-1,1238,1184,0,0
21,-160,0,0,0,0,0,0,0,0,0,-1,1245,1184,0,0
28,-160,0,0,0,0,0,0,0,0,0,-1,1252,1184,0,0
35,-160,0,0,0,0,0,0,0,0,0,-1,1259,1184,0,0
42,-160,0,0,0,0,0,0,0,0,0,-1,1266,1184,0,0
49,-160,0,0,0,0,0,0,0,0,0,-1,1273,1184,0,0
56,-160,0,0,0,0,0,0,0,0,0,-1,1280,1184,0,0
63,-160,0,0,0,0,0,0,0,0,0,-1,1287,1184,0,0
70,-160,0,0,0,0,0,0,0,0,0,-1,1294,1184,0,0
77,-160,0,0,0,0,0,0,0,0,0,-1,1301,1184,0,0
84,-160,0,0,0,0,0,0,0,0,0,-1,1308,1184,0,0
91,-160,0,0,0,0,0,0,0,0,0,-1,1315,1184,0,0
98,-160,0,0,0,0,0,0,0,0,0,-1,1322,1184,0,0
105,-160,0,0,0,0,0,0,0,0,0,-1,1329,1184,0,0
112,-160,0,0,0,0,0,0,0,0,0,-1,1336,1184,0,0
119,-160,0,0,0,0,0,0,0,0,0,-1,1343,1184,0,0
126,-160,0,0,0,0,0,0,0,0,0,-1,1350,1184,0,0
133,-160,0,0,0,0,0,0,0,0,0,-1,1357,1184,0,0
140,-160,0,0,0,0,0,0,0,0,0,-1,1364,1184,0,0
147,-160,0,0,0,0,0,0,0,0,0,-1,1371,1184,0,0
154,-160,0,0,0,0,0,0,0,0,0,-1,1378,1184,0,0
161,-160,0,0,0,0,0,0,0,0,0,-1,1385,1184,0,0
168,-160,0,0,0,0,0,0,0,0,0,-1,1392,1184,0,0
175,-160,0,0,0,0,0,0,0,0,0,-1,1399,1184,0,0
182,-160,0,0,0,0,0,0,0,0,0,-1,1406,1184,0,0
189,-160,0,0,0,0,0,0,0,0,0,-1,1413,1184,0,0
196,-160,0,0,0,0,0,0,0,0,0,-1,1420,1184,0,0
203,-160,0,0,0,0,0,0,0,0,0,-1,1427,1184,0,0
210,-160,0,0,0,0,0,0,0,0,0,-1,1434,1184,0,0
217,-160,0,0,0,0,0,0,0,0,0,-1,1441,1184,0,0
224,-160,0,0,0,0,0,0,0,0,0,-1,1448,1184,0,0
231,-160,0,0,0,0,0,0,0,0,0,-1,1455,1184,0,0
238,-160,0,0,0,0,0,0,0,0,0,-1,1462,1184,0,0
245,-160,0,0,0,0,0,0,0,0,0,-1,1469,1184,0,0
252,-160,0,0,0,0,0,0,0,0,0,-1,1476,1184,0,0
259,-160,0,0,0,0,0,0,0,0,0,-1,1483,1184,0,0
266,-160,0,0,0,0,0,0,0,0,0,-1,1490,1184,0,0
273,-160,0,0,0,0,0,0,0,0,0,-1,1497,1184,0,0
280,-160,0,0,0,0,0,0,0,0,0,-1,1504,1184,0,0
287,-160,0,0,0,0,0,0,0,0,0,-1,1511,1184,0,0
294,-160,0,0,0,0,0,0,0,0,0,-1,1518,1184,0,0
301,-160,0,0,0,0,0,0,0,0,0,-1,1525,1184,0,0
308,-160,0,0,0,0,0,0,0,0,0,-1,1532,1184,0,0
315,-160,0,0,0,0,0,0,0,0,0,-1,1539,1184,0,0
322,-160,0,0,0,0,0,0,0,0,0,-1,1546,1184,0,0
329,-160,0,0,0,0,0,0,0,0,0,-1,1553,1184,0,0
336,-160,0,0,0,0,0,0,0,0,0,-1,1560,1184,0,0
343,-160,0,0,0,0,0,0,0,0,0,-1,1567,1184,0,0
350,-160,0,0,0,0,0,0,0,0,0,-1,1574,1184,0,0
357,-160,0,0,0,0,0,0,0,0,0,-1,1581,1184,0,0
364,-160,0,0,0,0,0,0,0,0,0,-1,1588,1184,0,0
371,-160,0,0,0,0,0,0,0,0,0,-1,1595,1184,0,0
378,-160,0,0,0,0,0,0,0,0,0,-1,1602,1184,0,0
385,-160,0,0,0,0,0,0,0,0,0,-1,1609,1184,0,0
392,-160,0,0,0,0,0,0,0,0,0,-1,1616,1184,0,0
399,-160,0,0,0,0,0,0,0,0,0,-1,1623,1184,0,0
406,-160,0,0,0,0,0,0,0,0,0,-1,1630,1184,0,0
413,-160,0,0,0,0,0,0,0,0,0,-1,1637,1184,0,0
420,-160,0,0,0,0,0,0,0,0,0,-1,1644,1184,0,0
427,-160,0,0,0,0,0,0,0,0,0,-1,1651,1184,0,0
434,-160,0,0,0,0,0,0,0,0,0,-1,1658,1184,0,0
441,-160,0,0,0,0,0,0,0,0,0,-1,1665,1184,0,0
448,-160,0,0,0,0,0,0,0,0,0,-1,1672,1184,0,0
455,-160,0,0,0,0,0,0,0,0,0,-1,1679,1184,0,0
462,-160,0,0,0,0,0,0,0,0,0,-1,1686,1184,0,0
469,-160,0,0,0,0,0,0,0,0,0,-1,1693,1184,0,0
476,-160,0,0,0,0,0,0,0,0,0,-1,1700,1184,0,0
483,-160,0,0,0,0,0,0,0,0,0,-1,1707,1184,0,0
490,-160,0,0,0,0,0,0,0,0,0,-1,1714,1184,0,0
497,-160,0,0,0,0,0,0,0,0,0,-1,1721,1184,0,0
504,-160,0,0,0,0,0,0,0,0,0,-1,1728,1184,0,0
511,-160,0,0,0,0,0,0,0,0,0,-1,1735,1184,0,0
518,-160,0,0,0,0,0,0,0,0,0,-1,1742,1184,0,0
525,-160,0,0,0,0,0,0,0,0,0,-1,1749,1184,0,0
532,-160,0,0,0,0,0,0,0,0,0,-1,1756,1184,0,0
539,-160,0,0,0,0,0,0,0,0,0,-1,1763,1184,0,0
546,-160,0,0,0,0,0,0,0,0,0,-1,1770,1184,0,0
553,-160,0,0,0,0,0,0,0,0,0,-1,1777,1184,0,0
560,-160,0,0,0,0,0,0,0,0,0,-1,1784,1184,0,0
567,-160,0,0,0,0,0,0,0,0,0,-1,1791,1184,0,0
574,-160,0,0,0,0,0,0,0,0,0,-1,1798,1184,0,0
581,-160,0,0,0,0,0,0,0,0,0,-1,1805,1184,0,0
588,-160,0,0,0,0,0,0,0,0,0,-1,1812,1184,0,0
595,-160,0,0,0,0,0,0,0,0,0,-1,1819,1184,0,0
602,-160,0,0,0,0,0,0,0,0,0,-1,1826,1184,0,0
609,-160,0,0,0,0,0,0,0,0,0,-1,1833,1184,0,0
616,-160,0,0,0,0,0,0,0,0,0,-1,1840,1184,0,0
623,-160,0,0,0,0,0,0,0,0,0,-1,1847,1184,0,0
630,-160,0,0,0,0,0,0,0,0,0,-1,1854,1184,0,0
637,-160,4.14807,0.973877,0.00463049,-0.00240209,-0.00465683,0.00694947,-0.00472107,-0.462025,0.00677881,0.0440329,1861,1184,4.14811,-0.973921
644,-160,4.2644,0.605713,0.0042879,-0.00172929,-0.00395784,0.00625083,-0.00369223,-0.460412,0.00580364,0.0407684,1868,1184,4.26445,-0.605737
651,-160,4.12964,0.494751,0.00326797,-0.00121128,-0.00315714,0.00489919,-0.0028425,-0.4769,0.00452194,0.0385978,1875,1184,4.12967,-0.494809
658,-160,4.18884,0.470215,0.00205422,-0.000815406,-0.00221793,0.00326098,-0.00202217,-0.498296,0.00307805,0.0397248,1882,1184,4.18882,-0.470215
665,-160,4.38379,0.518311,0.0008909,-0.000555744,-0.00132262,0.00167507,-0.00133991,-0.535174,0.00174428,0.0405268,1889,1184,4.38378,-0.518261
672,-160,4.29895,0.628296,-8.65957e-05,-0.000386326,-0.000545379,0.000329134,-0.000802055,-0.651312,0.000671848,0.0353981,1896,1184,4.29891,-0.6283
679,-160,4.21155,0.587891,-0.000851823,-0.000296215,6.83072e-05,-0.000287941,-0.000860098,1.45025,0.000505534,0.025854,1903,1184,4.21149,-0.58786
686,-160,4.27637,0.58252,-0.00145432,-0.000285543,0.000486371,-0.000109625,-0.00163024,1.22374,0.00105219,0.0172532,1910,1184,4.27641,-0.582516
693,-160,4.28296,0.574829,-0.00203126,-0.000180648,0.000853517,0.000152887,-0.0023648,1.19827,0.00162988,0.046964,1917,1184,4.2829,-0.574868
700,-160,4.14783,0.736572,-0.00215538,-0.000239586,0.00112516,0.000280202,-0.00267517,1.13803,0.00188381,0.0426501,1924,1184,4.14779,-0.736585
707,-160,4.08838,0.804565,-0.00208211,-0.000284497,0.00122169,0.000333396,-0.00270001,1.10254,0.00192081,0.0339868,1931,1184,4.08834,-0.804592
714,-160,4.05408,0.80249,-0.00219611,-0.000300284,0.00120297,0.000283365,-0.00277976,1.11908,0.00195449,0.0198046,1938,1184,4.05407,-0.802543
721,-160,4.08752,0.759766,-0.00206584,-0.000269948,0.00113861,0.000282187,-0.00261798,1.11928,0.00184658,0.0101169,1945,1184,4.08756,-0.75976
728,-160,4.08728,0.748657,-0.00148434,-0.000310278,0.000920456,0.000194408,-0.00198902,1.06926,0.00139534,0.0104114,1952,1184,4.08731,-0.748671
735,-160,4.09033,0.699951,-0.000857301,-0.000535504,0.000432146,-0.000235275,-0.00115753,0.96361,0.000706444,0.0135815,1959,1184,4.09035,-0.699953
742,-160,4.09119,0.670166,-7.9028e-05,-0.000556078,-0.000266657,4.02177e-05,-0.000675324,-0.420513,0.000464203,0.0150365,1966,1184,4.0912,-0.670155
749,-160,4.08948,0.65564,0.000696332,-0.000900395,-0.00160707,0.00169242,-0.00189649,-0.554864,0.00207318,0.0159678,1973,1184,4.08948,-0.655645
756,-160,4.08655,0.663452,0.00140037,-0.000784199,-0.00299344,0.00349459,-0.00287841,-0.610458,0.00368518,0.0105576,1980,1184,4.08659,-0.663464
763,-160,4.07275,0.666626,0.0021427,-0.000917298,-0.00472233,0.0055767,-0.0043513,-0.628738,0.00574647,0.0111703,1987,1184,4.07277,-0.666648
770,-160,4.06641,0.665161,0.00290296,-0.00111187,-0.00701685,0.00819389,-0.0064028,-0.646077,0.00844853,0.0171234,1994,1184,4.0664,-0.665149
777,-160,4.15173,0.671997,0.00372595,-0.00130842,-0.0100752,0.0115936,-0.0091761,-0.662984,0.0120185,0.0318538,2001,1184,4.15168,-0.671977
784,-160,4.24231,0.710938,0.00459703,-0.00143959,-0.0140733,0.015972,-0.0128146,-0.679763,0.0166532,0.0454209,2008,1184,4.24236,-0.710899
791,-160,4.27844,0.66272,0.00534491,-0.00140027,-0.0192016,0.0214679,-0.0175232,-0.698464,0.0225499,0.0466087,2015,1184,4.2784,-0.662767
798,-160,4.5946,0.206177,0.00581324,-0.00102217,-0.0256036,0.0282262,-0.0234352,-0.719048,0.0298695,0.0459977,2022,1184,4.59463,-0.206237
805,-160,4.55408,-0.0548096,0.00594099,-3.73165e-05,-0.0333107,0.0363964,-0.0304927,-0.74065,0.0386685,0.0461221,2029,1184,4.55407,0.0547905
812,-160,0,0,0,0,0,0,0,0,0,-1,2036,1184,0,0
-700,-167,0,0,0,0,0,0,0,0,0,-1,524,1191,0,0
-693,-167,0,0,0,0,0,0,0,0,0,-1,531,1191,0,0
-686,-167,-2.61761,0.638062,0.03815,-0.0144586,0.000400474,0.0381531,-0.0144616,0.00761174,0.0313869,0.0443278,538,1191,-2.61763,-0.638065
-679,-167,-3.17242,0.712646,0.0483954,-0.00586306,-0.011923,0.0508998,-0.00836748,-0.20704,0.0370388,0.040936,545,1191,-3.17241,-0.712642
-672,-167,-3.6568,-0.140991,0.0507874,-0.000560842,-0.0184157,0.0567091,-0.00648257,-0.311117,0.0401418,0.0426306,552,1191,-3.65678,0.141014
-665,-167,-3.78723,-1.12805,0.0485945,0.00253741,-0.0211323,0.0568212,-0.00568922,-0.371242,0.0399126,0.0445389,559,1191,-3.78722,1.12801
-658,-167,-3.84204,-2.61816,0.0437255,0.00413037,-0.0212971,0.0530056,-0.0051497,-0.410935,0.0371727,0.0479581,566,1191,-3.84203,2.61816
-651,-167,-4.14819,-4.02051,0,0,0,0,0,0,0,-1,573,1191,-4.14822,4.02055
-644,-167,-0.38855,0.521729,0.0306927,0.00461711,-0.0172306,0.0392622,-0.00395243,-0.461521,0.0275868,0.0376813,580,1191,-0.388547,-0.5217
-637,-167,-0.480652,0.650513,0.0240919,0.00412579,-0.0142335,0.0314944,-0.00327663,-0.479574,0.0221693,0.0149885,587,1191,-0.48068,-0.650473
-630,-167,-0.48761,0.683228,0.019095,0.0039428,-0.0116942,0.0254527,-0.00241493,-0.497967,0.0178281,0.0082979,594,1191,-0.487584,-0.683171
-623,-167,-0.480286,0.708252,0.0136118,0.00336565,-0.00956635,0.0193405,-0.00236304,-0.539564,0.0137492,0.0107539,601,1191,-0.480292,-0.708255
-616,-167,-0.483154,0.732178,0.0085484,0.00221917,-0.0065428,0.0126517,-0.00188416,-0.560145,0.00912759,0.0146707,608,1191,-0.483129,-0.732231
-609,-167,-0.473938,0.752808,0.00419478,0.00108899,-0.00447355,0.0073773,-0.00209352,-0.618341,0.00574464,0.0140872,615,1191,-0.473919,-0.752765
-602,-167,-0.477051,0.765015,0.00178091,0.00107084,-0.00304073,0.00448726,-0.00163551,-0.727281,0.00366056,0.0144146,622,1191,-0.477054,-0.764987
-595,-167,-0.494507,0.795654,9.28625e-05,0.000325587,-0.00105963,0.00127523,-0.000856778,-0.840086,0.00123879,0.0178662,629,1191,-0.494496,-0.795699
-588,-167,-0.512878,0.828003,-0.00095295,0.000325829,-0.00128602,0.00112264,-0.00174976,-1.01609,0.0016715,0.0149277,636,1191,-0.512882,-0.82804
-581,-167,-0.495422,0.826416,-0.000664004,0.000396331,-0.00156901,0.00152233,-0.00179,-0.948325,0.00191445,0.0132798,643,1191,-0.495401,-0.826392
-574,-167,-0.512024,0.8302,-0.000396956,0.000601311,-0.00184113,0.00200977,-0.00180541,-0.917767,0.00220375,0.0302779,650,1191,-0.512028,-0.830144
-567,-167,-0.532288,0.814819,-0.000187476,0.000783021,-0.00193677,0.0022944,-0.00169886,-0.908144,0.00231404,0.0429336,657,1191,-0.532308,-0.814814
-560,-167,-0.653198,0.858887,6.3285e-05,0.000939694,-0.00196136,0.00251121,-0.00150823,-0.895302,0.00234458,0.0411515,664,1191,-0.653194,-0.858914
-553,-167,-0.618164,0.759277,0.000517511,0.00112375,-0.00190779,0.00275235,-0.00111109,-0.864182,0.00229667,0.0410387,671,1191,-0.618164,-0.75929
-546,-167,-0.601868,0.62146,0.00110921,0.0012812,-0.00171197,0.00290933,-0.000518927,-0.810492,0.00213367,0.0365813,678,1191,-0.601851,-0.621471
-539,-167,-0.573853,0.634766,0.00186516,0.00137364,-0.00136851,0.0030098,0.000228999,-0.696553,0.00193473,0.0389401,685,1191,-0.573866,-0.634808
-532,-167,-0.31781,0.443359,0.00278599,0.0013614,-0.000885017,0.00320975,0.000937644,-0.446558,0.00190579,0.0439499,692,1191,-0.317837,-0.443306
-525,-167,-0.296509,0.432617,0.00381351,0.00116786,-0.000308041,0.0038489,0.00113247,-0.114394,0.00228403,0.0425714,699,1191,-0.296478,-0.432585
-518,-167,-0.291199,0.420044,0.00476941,0.000722371,0.000452774,0.00481945,0.000672334,0.110065,0.00301395,0.0404862,706,1191,-0.291188,-0.420041
-511,-167,0,0,0,0,0,0,0,0,0,-1,713,1191,0,0
-504,-167,0,0,0,0,0,0,0,0,0,-1,720,1191,0,0
-497,-167,0,0,0,0,0,0,0,0,0,-1,727,1191,0,0
-490,-167,0,0,0,0,0,0,0,0,0,-1,734,1191,0,0
-483,-167,0,0,0,0,0,0,0,0,0,-1,741,1191,0,0
-476,-167,0,0,0,0,0,0,0,0,0,-1,748,1191,0,0
-469,-167,0,0,0,0,0,0,0,0,0,-1,755,1191,0,0
-462,-167,0,0,0,0,0,0,0,0,0,-1,762,1191,0,0
-455,-167,0,0,0,0,0,0,0,0,0,-1,769,1191,0,0
-448,-167,0,0,0,0,0,0,0,0,0,-1,776,1191,0,0
-441,-167,0,0,0,0,0,0,0,0,0,-1,783,1191,0,0
-434,-167,0,0,0,0,0,0,0,0,0,-1,790,1191,0,0
-427,-167,0,0,0,0,0,0,0,0,0,-1,797,1191,0,0
-420,-167,0,0,0,0,0,0,0,0,0,-1,804,1191,0,0
-413,-167,0,0,0,0,0,0,0,0,0,-1,811,1191,0,0
-406,-167,0,0,0,0,0,0,0,0,0,-1,818,1191,0,0
-399,-167,0,0,0,0,0,0,0,0,0,-1,825,1191,0,0
-392,-167,0,0,0,0,0,0,0,0,0,-1,832,1191,0,0
-385,-167,0,0,0,0,0,0,0,0,0,-1,839,1191,0,0
-378,-167,0,0,0,0,0,0,0,0,0,-1,846,1191,0,0
-371,-167,0,0,0,0,0,0,0,0,0,-1,853,1191,0,0
-364,-167,0,0,0,0,0,0,0,0,0,-1,860,1191,0,0
-357,-167,0,0,0,0,0,0,0,0,0,-1,867,1191,0,0
-350,-167,0,0,0,0,0,0,0,0,0,-1,874,1191,0,0
-343,-167,0,0,0,0,0,0,0,0,0,-1,881,1191,0,0
-336,-167,0,0,0,0,0,0,0,0,0,-1,888,1191,0,0
-329,-167,0,0,0,0,0,0,0,0,0,-1,895,1191,0,0
-322,-167,0,0,0,0,0,0,0,0,0,-1,902,1191,0,0
-315,-167,0,0,0,0,0,0,0,0,0,-1,909,1191,0,0
-308,-167,0,0,0,0,0,0,0,0,0,-1,916,1191,0,0
-301,-167,0,0,0,0,0,0,0,0,0,-1,923,1191,0,0
-294,-167,0,0,0,0,0,0,0,0,0,-1,930,1191,0,0
-287,-167,0,0,0,0,0,0,0,0,0,-1,937,1191,0,0
-280,-167,0,0,0,0,0,0,0,0,0,-1,944,1191,0,0
-273,-167,0,0,0,0,0,0,0,0,0,-1,951,1191,0,0
-266,-167,0,0,0,0,0,0,0,0,0,-1,958,1191,0,0
-259,-167,0,0,0,0,0,0,0,0,0,-1,965,1191,0,0
-252,-167,0,0,0,0,0,0,0,0,0,-1,972,1191,0,0
-245,-167,0,0,0,0,0,0,0,0,0,-1,979,1191,0,0
-238,-167,0,0,0,0,0,0,0,0,0,-1,986,1191,0,0
-231,-167,0,0,0,0,0,0,0,0,0,-1,993,1191,0,0
-224,-167,0,0,0,0,0,0,0,0,0,-1,1000,1191,0,0
-217,-167,0,0,0,0,0,0,0,0,0,-1,1007,1191,0,0
-210,-167,0,0,0,0,0,0,0,0,0,-1,1014,1191,0,0
-203,-167,0,0,0,0,0,0,0,0,0,-1,1021,1191,0,0
-196,-167,0,0,0,0,0,0,0,0,0,-1,1028,1191,0,0
-189,-167,0,0,0,0,0,0,0,0,0,-1,1035,1191,0,0
-182,-167,0,0,0,0,0,0,0,0,0,-1,1042,1191,0,0
-175,-167,0,0,0,0,0,0,0,0,0,-1,1049,1191,0,0
-168,-167,0,0,0,0,0,0,0,0,0,-1,1056,1191,0,0
-161,-167,0,0,0,0,0,0,0,0,0,-1,1063,1191,0,0
-154,-167,0,0,0,0,0,0,0,0,0,-1,1070,1191,0,0
-147,-167,0,0,0,0,0,0,0,0,0,-1,1077,1191,0,0
-140,-167,0,0,0,0,0,0,0,0,0,-1,1084,1191,0,0
-133,-167,0,0,0,0,0,0,0,0,0,-1,1091,1191,0,0
-126,-167,0,0,0,0,0,0,0,0,0,-1,1098,1191,0,0
-119,-167,0,0,0,0,0,0,0,0,0,-1,1105,1191,0,0
-112,-167,0,0,0,0,0,0,0,0,0,-1,1112,1191,0,0
-105,-167,0,0,0,0,0,0,0,0,0,-1,1119,1191,0,0
-98,-167,0,0,0,0,0,0,0,0,0,-1,1126,1191,0,0
-91,-167,0,0,0,0,0,0,0,0,0,-1,1133,1191,0,0
-84,-167,0,0,0,0,0,0,0,0,0,-1,1140,1191,0,0
-77,-167,0,0,0,0,0,0,0,0,0,-1,1147,1191,0,0
-70,-167,0,0,0,0,0,0,0,0,0,-1,1154,1191,0,0
-63,-167,0,0,0,0,0,0,0,0,0,-1,1161,1191,0,0
-56,-167,0,0,0,0,0,0,0,0,0,-1,1168,1191,0,0
-49,-167,0,0,0,0,0,0,0,0,0,-1,1175,1191,0,0
-42,-167,0,0,0,0,0,0,0,0,0,-1,1182,1191,0,0
-35,-167,0,0,0,0,0,0,0,0,0,-1,1189,1191,0,0
-28,-167,0,0,0,0,0,0,0,0,0,-1,1196,1191,0,0
-21,-167,0,0,0,0,0,0,0,0,0,-1,1203,1191,0,0
-14,-167,0,0,0,0,0,0,0,0,0,-1,1210,1191,0,0
-7,-167,0,0,0,0,0,0,0,0,0,-1,1217,1191,0,0
0,-167,0,0,0,0,0,0,0,0,0,-1,1224,1191,0,0
7,-167,0,0,0,0,0,0,0,0,0,-1,1231,1191,0,0
14,-167,0,0,0,0,0,0,0,0,0,-1,1238,1191,0,0
21,-167,0,0,0,0,0,0,0,0,0,-1,1245,1191,0,0
28,-167,0,0,0,0,0,0,0,0,0,-1,1252,1191,0,0
35,-167,0,0,0,0,0,0,0,0,0,-1,1259,1191,0,0
42,-167,0,0,0,0,0,0,0,0,0,-1,1266,1191,0,0
49,-167,0,0,0,0,0,0,0,0,0,-1,1273,1191,0,0
56,-167,0,0,0,0,0,0,0,0,0,-1,1280,1191,0,0
63,-167,0,0,0,0,0,0,0,0,0,-1,1287,1191,0,0
70,-167,0,0,0,0,0,0,0,0,0,-1,1294,1191,0,0
77,-167,0,0,0,0,0,0,0,0,0,-1,1301,1191,0,0
84,-167,0,0,0,0,0,0,0,0,0,-1,1308,1191,0,0
91,-167,0,0,0,0,0,0,0,0,0,-1,1315,1191,0,0
98,-167,0,0,0,0,0,0,0,0,0,-1,1322,1191,0,0
105,-167,0,0,0,0,0,0,0,0,0,-1,1329,1191,0,0
112,-167,0,0,0,0,0,0,0,0,0,-1,1336,1191,0,0
119,-167,0,0,0,0,0,0,0,0,0,-1,1343,1191,0,0
126,-167,0,0,0,0,0,0,0,0,0,-1,1350,1191,0,0
133,-167,0,0,0,0,0,0,0,0,0,-1,1357,1191,0,0
140,-167,0,0,0,0,0,0,0,0,0,-1,1364,1191,0,0
147,-167,0,0,0,0,0,0,0,0,0,-1,1371,1191,0,0
154,-167,0,0,0,0,0,0,0,0,0,-1,1378,1191,0,0
161,-167,0,0,0,0,0,0,0,0,0,-1,1385,1191,0,0
168,-167,0,0,0,0,0,0,0,0,0,-1,1392,1191,0,0
175,-167,0,0,0,0,0,0,0,0,0,-1,1399,1191,0,0
182,-167,0,0,0,0,0,0,0,0,0,-1,1406,1191,0,0
189,-167,0,0,0,0,0,0,0,0,0,-1,1413,1191,0,0
196,-167,0,0,0,0,0,0,0,0,0,-1,1420,1191,0,0
203,-167,0,0,0,0,0,0,0,0,0,-1,1427,1191,0,0
210,-167,0,0,0,0,0,0,0,0,0,-1,1434,1191,0,0
217,-167,0,0,0,0,0,0,0,0,0,-1,1441,1191,0,0
224,-167,0,0,0,0,0,0,0,0,0,-1,1448,1191,0,0
231,-167,0,0,0,0,0,0,0,0,0,-1,1455,1191,0,0
238,-167,0,0,0,0,0,0,0,0,0,-1,1462,1191,0,0
245,-167,0,0,0,0,0,0,0,0,0,-1,1469,1191,0,0
252,-167,0,0,0,0,0,0,0,0,0,-1,1476,1191,0,0
259,-167,0,0,0,0,0,0,0,0,0,-1,1483,1191,0,0
266,-167,0,0,0,0,0,0,0,0,0,-1,1490,1191,0,0
273,-167,0,0,0,0,0,0,0,0,0,-1,1497,1191,0,0
280,-167,0,0,0,0,0,0,0,0,0,-1,1504,1191,0,0
287,-167,0,0,0,0,0,0,0,0,0,-1,1511,1191,0,0
294,-167,0,0,0,0,0,0,0,0,0,-1,1518,1191,0,0
301,-167,0,0,0,0,0,0,0,0,0,-1,1525,1191,0,0
308,-167,0,0,0,0,0,0,0,0,0,-1,1532,1191,0,0
315,-167,0,0,0,0,0,0,0,0,0,-1,1539,1191,0,0
322,-167,0,0,0,0,0,0,0,0,0,-1,1546,1191,0,0
329,-167,0,0,0,0,0,0,0,0,0,-1,1553,1191,0,0
336,-167,0,0,0,0,0,0,0,0,0,-1,1560,1191,0,0
343,-167,0,0,0,0,0,0,0,0,0,-1,1567,1191,0,0
350,-167,0,0,0,0,0,0,0,0,0,-1,1574,1191,0,0
357,-167,0,0,0,0,0,0,0,0,0,-1,1581,1191,0,0
364,-167,0,0,0,0,0,0,0,0,0,-1,1588,1191,0,0
371,-167,0,0,0,0,0,0,0,0,0,-1,1595,1191,0,0
378,-167,0,0,0,0,0,0,0,0,0,-1,1602,1191,0,0
385,-167,0,0,0,0,0,0,0,0,0,-1,1609,1191,0,0
392,-167,0,0,0,0,0,0,0,0,0,-1,1616,1191,0,0
399,-167,0,0,0,0,0,0,0,0,0,-1,1623,1191,0,0
406,-167,0,0,0,0,0,0,0,0,0,-1,1630,1191,0,0
413,-167,0,0,0,0,0,0,0,0,0,-1,1637,1191,0,0
420,-167,0,0,0,0,0,0,0,0,0,-1,1644,1191,0,0
427,-167,0,0,0,0,0,0,0,0,0,-1,1651,1191,0,0
434,-167,0,0,0,0,0,0,0,0,0,-1,1658,1191,0,0
441,-167,0,0,0,0,0,0,0,0,0,-1,1665,1191,0,0
448,-167,0,0,0,0,0,0,0,0,0,-1,1672,1191,0,0
455,-167,0,0,0,0,0,0,0,0,0,-1,1679,1191,0,0
462,-167,0,0,0,0,0,0,0,0,0,-1,1686,1191,0,0
469,-167,0,0,0,0,0,0,0,0,0,-1,1693,1191,0,0
476,-167,0,0,0,0,0,0,0,0,0,-1,1700,1191,0,0
483,-167,0,0,0,0,0,0,0,0,0,-1,1707,1191,0,0
490,-167,0,0,0,0,0,0,0,0,0,-1,1714,1191,0,0
497,-167,0,0,0,0,0,0,0,0,0,-1,1721,1191,0,0
504,-167,0,0,0,0,0,0,0,0,0,-1,1728,1191,0,0
511,-167,0,0,0,0,0,0,0,0,0,-1,1735,1191,0,0
518,-167,0,0,0,0,0,0,0,0,0,-1,1742,1191,0,0
525,-167,0,0,0,0,0,0,0,0,0,-1,1749,1191,0,0
532,-167,0,0,0,0,0,0,0,0,0,-1,1756,1191,0,0
539,-167,0,0,0,0,0,0,0,0,0,-1,1763,1191,0,0
546,-167,0,0,0,0,0,0,0,0,0,-1,1770,1191,0,0
553,-167,0,0,0,0,0,0,0,0,0,-1,1777,1191,0,0
560,-167,0,0,0,0,0,0,0,0,0,-1,1784,1191,0,0
567,-167,0,0,0,0,0,0,0,0,0,-1,1791,1191,0,0
574,-167,0,0,0,0,0,0,0,0,0,-1,1798,1191,0,0
581,-167,0,0,0,0,0,0,0,0,0,-1,1805,1191,0,0
588,-167,0,0,0,0,0,0,0,0,0,-1,1812,1191,0,0
595,-167,0,0,0,0,0,0,0,0,0,-1,1819,1191,0,0
602,-167,0,0,0,0,0,0,0,0,0,-1,1826,1191,0,0
609,-167,0,0,0,0,0,0,0,0,0,-1,1833,1191,0,0
616,-167,0,0,0,0,0,0,0,0,0,-1,1840,1191,0,0
623,-167,0,0,0,0,0,0,0,0,0,-1,1847,1191,0,0
630,-167,0,0,0,0,0,0,0,0,0,-1,1854,1191,0,0
637,-167,4.03271,1.0553,0.00422741,-0.0014601,-0.00388387,0.00619732,-0.00343001,-0.469393,0.00563437,0.0432809,1861,1191,4.03275,-1.05534
644,-167,4.38489,0.351196,0.00431669,-0.00128737,-0.00341004,0.00592824,-0.00289893,-0.441481,0.00519544,0.0423801,1868,1191,4.38487,-0.351243
651,-167,3.98584,0.427979,0.00336996,-0.0011186,-0.00264984,0.0045982,-0.00234685,-0.434038,0.00407935,0.0398284,1875,1191,3.98587,-0.428038
658,-167,4.03979,0.575439,0.00214529,-0.000949081,-0.00173114,0.00291988,-0.00172367,-0.420726,0.00271044,0.0438896,1882,1191,4.03984,-0.575471
665,-167,4.43311,0.500732,0.000939582,-0.00079607,-0.000857919,0.00129206,-0.00114855,-0.389829,0.0014099,0.0406675,1889,1191,4.43312,-0.500772
672,-167,4.32715,0.62915,-0.000109367,-0.000656175,-9.9093e-05,-9.19628e-05,-0.000673578,-0.173858,0.000421753,0.0268668,1896,1191,4.32717,-0.629162
679,-167,4.25757,0.596924,-0.000946698,-0.000548176,0.000486841,-0.000221396,-0.00127348,0.979644,0.000785654,0.0198318,1903,1191,4.25759,-0.596954
686,-167,4.25781,0.568848,-0.0016123,-0.000503927,0.000874814,-2.25357e-05,-0.00209369,1.06774,0.00138834,0.0287015,1910,1191,4.2578,-0.568845
693,-167,4.11938,0.543213,0,0,0,0,0,0,0,-1,1917,1191,4.11939,-0.543204
700,-167,4.09839,0.625122,-0.00240239,-0.000363496,0.00144325,0.000384046,-0.00314993,1.09289,0.00223898,0.0389836,1924,1191,4.09837,-0.625138
707,-167,4.08801,0.782959,-0.00232921,-0.000346013,0.00149697,0.000457987,-0.00313321,1.07792,0.00225701,0.0309563,1931,1191,4.08802,-0.783018
714,-167,4.05859,0.771729,-0.00245107,-0.000303023,0.00142282,0.000405634,-0.00315973,1.1087,0.00225389,0.0164251,1938,1191,4.05865,-0.77178
721,-167,4.07031,0.74353,-0.00232103,-0.000199991,0.00129856,0.000416082,-0.0029371,1.12781,0.00211048,0.013712,1945,1191,4.07029,-0.743494
728,-167,4.07214,0.75061,-0.00168811,-0.000175046,0.00105511,0.000366727,-0.00222988,1.09643,0.0016227,0.0122405,1952,1191,4.07212,-0.750645
735,-167,4.06897,0.732056,-0.00101215,-0.00043799,0.00057585,-8.16275e-05,-0.00136851,1.01663,0.000886387,0.0143124,1959,1191,4.06896,-0.732097
742,-167,4.04626,0.692139,-3.71858e-05,-0.000463338,-0.000158276,1.51674e-05,-0.000515691,-0.319443,0.00034896,0.0154272,1966,1191,4.04621,-0.692191
749,-167,4.0614,0.68042,0.000999435,-0.000802974,-0.00149134,0.00184072,-0.00164426,-0.513614,0.00201312,0.0140238,1973,1191,4.06141,-0.680472
756,-167,4.08313,0.667725,0.00187127,-0.000824067,-0.00283652,0.003664,-0.00261679,-0.563627,0.00364297,0.0105341,1980,1191,4.08313,-0.667726
763,-167,4.04126,0.645142,0.00283749,-0.00105593,-0.00450506,0.00579845,-0.00401689,-0.581457,0.00569792,0.0114665,1987,1191,4.0413,-0.645096
770,-167,4.00537,0.689331,0.00394613,-0.00139498,-0.00676731,0.00855077,-0.00599961,-0.597466,0.0084436,0.0210985,1994,1191,4.00541,-0.68939
777,-167,4.05688,0.840088,0.00524965,-0.00179685,-0.00983815,0.0121764,-0.0087236,-0.613453,0.0121214,0.0387204,2001,1191,4.05691,-0.840079
784,-167,4.09753,0.998657,0,0,0,0,0,0,0,-1,2008,1191,4.09749,-0.998648
791,-167,4.49268,0.268188,0,0,0,0,0,0,0,-1,2015,1191,4.49272,-0.268139
798,-167,4.63293,0.043335,0,0,0,0,0,0,0,-1,2022,1191,4.63288,-0.0433823
805,-167,4.56555,-0.226929,0,0,0,0,0,0,0,-1,2029,1191,4.56553,0.226878
812,-167,0,0,0,0,0,0,0,0,0,-1,2036,1191,0,0
-700,-174,0,0,0,0,0,0,0,0,0,-1,524,1198,0,0
-693,-174,0,0,0,0,0,0,0,0,0,-1,531,1198,0,0
-686,-174,-3.34076,1.70764,0.0590726,-0.0144212,-0.00957311,0.0602991,-0.0156477,-0.127425,0.0463051,0.0448449,538,1198,-3.34076,-1.70761
-679,-174,-3.82477,1.20471,0.0651224,-0.00540529,-0.0209019,0.0708515,-0.0111345,-0.267528,0.0513498,0.0426901,545,1198,-3.82475,-1.20472
-672,-174,-4.30347,0.714478,0.0637992,0.000125214,-0.0261175,0.0731413,-0.00921689,-0.343514,0.0521056,0.0449947,552,1198,-4.30346,-0.714505
-665,-174,-4.77686,0.224731,0.0584517,0.0033202,-0.0275143,0.0698335,-0.00806155,-0.392232,0.0494623,0.0438346,559,1198,-4.77686,-0.224717
-658,-174,-5.06775,-0.129395,0.050976,0.00492946,-0.026429,0.0630036,-0.00709814,-0.427079,0.0445573,0.0439099,566,1198,-5.06776,0.12934
-651,-174,-5.3504,-0.472046,0.0426091,0.00547155,-0.0237761,0.0542082,-0.00612758,-0.453879,0.0383449,0.0464262,573,1198,-5.35043,0.472098
-644,-174,-0.196716,0.732178,0.0342186,0.00531436,-0.0202575,0.0446509,-0.00511788,-0.47556,0.0316116,0.0411054,580,1198,-0.196709,-0.732184
-637,-174,-0.462952,0.61792,0.0263893,0.00473591,-0.0164377,0.0352455,-0.00412023,-0.494181,0.0249839,0.0197956,587,1198,-0.462944,-0.617889
-630,-174,-0.464294,0.686401,0.0205476,0.00447097,-0.0132375,0.0279962,-0.00297766,-0.512535,0.0197317,0.0113551,594,1198,-0.464279,-0.686409
-623,-174,-0.450928,0.731812,0.014217,0.00380064,-0.0106047,0.0208234,-0.00280574,-0.557138,0.0149058,0.0130599,601,1198,-0.450901,-0.73177
-616,-174,-0.452881,0.758789,0.00864327,0.00253648,-0.00705256,0.013275,-0.00209529,-0.581106,0.00962478,0.0190101,608,1198,-0.45286,-0.758811
-609,-174,-0.459961,0.75061,0.00398233,0.00138147,-0.00467898,0.00753823,-0.00217443,-0.649854,0.00588574,0.0214304,615,1198,-0.459952,-0.750663
-602,-174,-0.466858,0.749023,0.00150296,0.00123704,-0.00315198,0.00452478,-0.00178478,-0.764319,0.00375558,0.0144802,622,1198,-0.466837,-0.749018
-595,-174,-0.468872,0.78125,-0.000131415,0.00043897,-0.00107191,0.00126297,-0.000955418,-0.915417,0.00128489,0.0122446,629,1198,-0.46886,-0.781246
-588,-174,-0.463806,0.821167,-0.00111237,0.000411055,-0.00132332,0.00117623,-0.00187754,-1.04654,0.00177852,0.0115098,636,1198,-0.463808,-0.821201
-581,-174,-0.46936,0.804688,-0.000800677,0.000488382,-0.00167314,0.00163684,-0.00194914,-0.969249,0.00207298,0.0127017,643,1198,-0.469331,-0.804641
-574,-174,-0.489929,0.767212,-0.000581053,0.000676156,-0.00199263,0.00213698,-0.00204188,-0.93819,0.00241287,0.0279573,650,1198,-0.489956,-0.767214
-567,-174,-0.451233,0.75415,-0.000437342,0.00086376,-0.00211326,0.00242434,-0.00199792,-0.934716,0.00255714,0.0416403,657,1198,-0.451222,-0.754122
-560,-174,-0.53894,0.682739,-0.000271349,0.00100205,-0.00214563,0.00260346,-0.00187275,-0.929632,0.00259579,0.042562,664,1198,-0.538958,-0.682688
-553,-174,-0.55127,0.647339,0.000111814,0.0011428,-0.00208995,0.0027799,-0.00152528,-0.906311,0.00252053,0.0411252,671,1198,-0.551265,-0.647316
-546,-174,-0.562134,0.677856,0.00062667,0.00123858,-0.00188084,0.00283819,-0.00097294,-0.866026,0.00228651,0.032365,678,1198,-0.562119,-0.677884
-539,-174,-0.544617,0.71228,0.00130987,0.00122126,-0.00150374,0.00276996,-0.000238831,-0.770671,0.00193118,0.0352035,685,1198,-0.54464,-0.712257
-532,-174,-0.639221,0.768188,0.00216345,0.00102629,-0.000955944,0.00270713,0.000482617,-0.51711,0.00166733,0.0435131,692,1198,-0.639193,-0.76823
-525,-174,-0.68158,0.722778,0.00313981,0.000549997,-0.000263413,0.00316633,0.000523477,-0.100342,0.00195984,0.0423325,699,1198,-0.681586,-0.722809
-518,-174,-0.513489,0.605591,0.004129,-0.000342907,0.000628921,0.00421576,-0.000429674,0.137096,0.00296413,0.0390795,706,1198,-0.513515,-0.605594
-511,-174,0,0,0,0,0,0,0,0,0,-1,713,1198,0,0
-504,-174,0,0,0,0,0,0,0,0,0,-1,720,1198,0,0
-497,-174,0,0,0,0,0,0,0,0,0,-1,727,1198,0,0
-490,-174,0,0,0,0,0,0,0,0,0,-1,734,1198,0,0
-483,-174,0,0,0,0,0,0,0,0,0,-1,741,1198,0,0
-476,-174,0,0,0,0,0,0,0,0,0,-1,748,1198,0,0
-469,-174,0,0,0,0,0,0,0,0,0,-1,755,1198,0,0
-462,-174,0,0,0,0,0,0,0,0,0,-1,762,1198,0,0
-455,-174,0,0,0,0,0,0,0,0,0,-1,769,1198,0,0
-448,-174,0,0,0,0,0,0,0,0,0,-1,776,1198,0,0
-441,-174,0,0,0,0,0,0,0,0,0,-1,783,1198,0,0
-434,-174,0,0,0,0,0,0,0,0,0,-1,790,1198,0,0
-427,-174,0,0,0,0,0,0,0,0,0,-1,797,1198,0,0
-420,-174,0,0,0,0,0,0,0,0,0,-1,804,1198,0,0
-413,-174,0,0,0,0,0,0,0,0,0,-1,811,1198,0,0
-406,-174,0,0,0,0,0,0,0,0,0,-1,818,1198,0,0
-399,-174,0,0,0,0,0,0,0,0,0,-1,825,1198,0,0
-392,-174,0,0,0,0,0,0,0,0,0,-1,832,1198,0,0
-385,-174,0,0,0,0,0,0,0,0,0,-1,839,1198,0,0
-378,-174,0,0,0,0,0,0,0,0,0,-1,846,1198,0,0
-371,-174,0,0,0,0,0,0,0,0,0,-1,853,1198,0,0
-364,-174,0,0,0,0,0,0,0,0,0,-1,860,1198,0,0
-357,-174,0,0,0,0,0,0,0,0,0,-1,867,1198,0,0
-350,-174,0,0,0,0,0,0,0,0,0,-1,874,1198,0,0
-343,-174,0,0,0,0,0,0,0,0,0,-1,881,1198,0,0
-336,-174,0,0,0,0,0,0,0,0,0,-1,888,1198,0,0
-329,-174,0,0,0,0,0,0,0,0,0,-1,895,1198,0,0
-322,-174,0,0,0,0,0,0,0,0,0,-1,902,1198,0,0
-315,-174,0,0,0,0,0,0,0,0,0,-1,909,1198,0,0
-308,-174,0,0,0,0,0,0,0,0,0,-1,916,1198,0,0
-301,-174,0,0,0,0,0,0,0,0,0,-1,923,1198,0,0
-294,-174,0,0,0,0,0,0,0,0,0,-1,930,1198,0,0
-287,-174,0,0,0,0,0,0,0,0,0,-1,937,1198,0,0
-280,-174,0,0,0,0,0,0,0,0,0,-1,944,1198,0,0
-273,-174,0,0,0,0,0,0,0,0,0,-1,951,1198,0,0
-266,-174,0,0,0,0,0,0,0,0,0,-1,958,1198,0,0
-259,-174,0,0,0,0,0,0,0,0,0,-1,965,1198,0,0
-252,-174,0,0,0,0,0,0,0,0,0,-1,972,1198,0,0
-245,-174,0,0,0,0,0,0,0,0,0,-1,979,1198,0,0
-238,-174,0,0,0,0,0,0,0,0,0,-1,986,1198,0,0
-231,-174,0,0,0,0,0,0,0,0,0,-1,993,1198,0,0
-224,-174,0,0,0,0,0,0,0,0,0,-1,1000,1198,0,0
-217,-174,0,0,0,0,0,0,0,0,0,-1,1007,1198,0,0
-210,-174,0,0,0,0,0,0,0,0,0,-1,1014,1198,0,0
-203,-174,0,0,0,0,0,0,0,0,0,-1,1021,1198,0,0
-196,-174,0,0,0,0,0,0,0,0,0,-1,1028,1198,0,0
-189,-174,0,0,0,0,0,0,0,0,0,-1,1035,1198,0,0
-182,-174,0,0,0,0,0,0,0,0,0,-1,1042,1198,0,0
-175,-174,0,0,0,0,0,0,0,0,0,-1,1049,1198,0,0
-168,-174,0,0,0,0,0,0,0,0,0,-1,1056,1198,0,0
-161,-174,0,0,0,0,0,0,0,0,0,-1,1063,1198,0,0
-154,-174,0,0,0,0,0,0,0,0,0,-1,1070,1198,0,0
-147,-174,0,0,0,0,0,0,0,0,0,-1,1077,1198,0,0
-140,-174,0,0,0,0,0,0,0,0,0,-1,1084,1198,0,0
-133,-174,0,0,0,0,0,0,0,0,0,-1,1091,1198,0,0
-126,-174,0,0,0,0,0,0,0,0,0,-1,1098,1198,0,0
-119,-174,0,0,0,0,0,0,0,0,0,-1,1105,1198,0,0
-112,-174,0,0,0,0,0,0,0,0,0,-1,1112,1198,0,0
-105,-174,0,0,0,0,0,0,0,0,0,-1,1119,1198,0,0
-98,-174,0,0,0,0,0,0,0,0,0,-1,1126,1198,0,0
-91,-174,0,0,0,0,0,0,0,0,0,-1,1133,1198,0,0
-84,-174,0,0,0,0,0,0,0,0,0,-1,1140,1198,0,0
-77,-174,0,0,0,0,0,0,0,0,0,-1,1147,1198,0,0
-70,-174,0,0,0,0,0,0,0,0,0,-1,1154,1198,0,0
-63,-174,0,0,0,0,0,0,0,0,0,-1,1161,1198,0,0
-56,-174,0,0,0,0,0,0,0,0,0,-1,1168,1198,0,0
-49,-174,0,0,0,0,0,0,0,0,0,-1,1175,1198,0,0
-42,-174,0,0,0,0,0,0,0,0,0,-1,1182,1198,0,0
-35,-174,0,0,0,0,0,0,0,0,0,-1,1189,1198,0,0
-28,-174,0,0,0,0,0,0,0,0,0,-1,1196,1198,0,0
-21,-174,0,0,0,0,0,0,0,0,0,-1,1203,1198,0,0
-14,-174,0,0,0,0,0,0,0,0,0,-1,1210,1198,0,0
-7,-174,0,0,0,0,0,0,0,0,0,-1,1217,1198,0,0
0,-174,0,0,0,0,0,0,0,0,0,-1,1224,1198,0,0
7,-174,0,0,0,0,0,0,0,0,0,-1,1231,1198,0,0
14,-174,0,0,0,0,0,0,0,0,0,-1,1238,1198,0,0
21,-174,0,0,0,0,0,0,0,0,0,-1,1245,1198,0,0
28,-174,0,0,0,0,0,0,0,0,0,-1,1252,1198,0,0
35,-174,0,0,0,0,0,0,0,0,0,-1,1259,1198,0,0
42,-174,0,0,0,0,0,0,0,0,0,-1,1266,1198,0,0
49,-174,0,0,0,0,0,0,0,0,0,-1,1273,1198,0,0
56,-174,0,0,0,0,0,0,0,0,0,-1,1280,1198,0,0
63,-174,0,0,0,0,0,0,0,0,0,-1,1287,1198,0,0
70,-174,0,0,0,0,0,0,0,0,0,-1,1294,1198,0,0
77,-174,0,0,0,0,0,0,0,0,0,-1,1301,1198,0,0
84,-174,0,0,0,0,0,0,0,0,0,-1,1308,1198,0,0
91,-174,0,0,0,0,0,0,0,0,0,-1,1315,1198,0,0
98,-174,0,0,0,0,0,0,0,0,0,-1,1322,1198,0,0
105,-174,0,0,0,0,0,0,0,0,0,-1,1329,1198,0,0
112,-174,0,0,0,0,0,0,0,0,0,-1,1336,1198,0,0
119,-174,0,0,0,0,0,0,0,0,0,-1,1343,1198,0,0
126,-174,0,0,0,0,0,0,0,0,0,-1,1350,1198,0,0
133,-174,0,0,0,0,0,0,0,0,0,-1,1357,1198,0,0
140,-174,0,0,0,0,0,0,0,0,0,-1,1364,1198,0,0
147,-174,0,0,0,0,0,0,0,0,0,-1,1371,1198,0,0
154,-174,0,0,0,0,0,0,0,0,0,-1,1378,1198,0,0
161,-174,0,0,0,0,0,0,0,0,0,-1,1385,1198,0,0
168,-174,0,0,0,0,0,0,0,0,0,-1,1392,1198,0,0
175,-174,0,0,0,0,0,0,0,0,0,-1,1399,1198,0,0
182,-174,0,0,0,0,0,0,0,0,0,-1,1406,1198,0,0
189,-174,0,0,0,0,0,0,0,0,0,-1,1413,1198,0,0
196,-174,0,0,0,0,0,0,0,0,0,-1,1420,1198,0,0
203,-174,0,0,0,0,0,0,0,0,0,-1,1427,1198,0,0
210,-174,0,0,0,0,0,0,0,0,0,-1,1434,1198,0,0
217,-174,0,0,0,0,0,0,0,0,0,-1,1441,1198,0,0
224,-174,0,0,0,0,0,0,0,0,0,-1,1448,1198,0,0
231,-174,0,0,0,0,0,0,0,0,0,-1,1455,1198,0,0
238,-174,0,0,0,0,0,0,0,0,0,-1,1462,1198,0,0
245,-174,0,0,0,0,0,0,0,0,0,-1,1469,1198,0,0
252,-174,0,0,0,0,0,0,0,0,0,-1,1476,1198,0,0
259,-174,0,0,0,0,0,0,0,0,0,-1,1483,1198,0,0
266,-174,0,0,0,0,0,0,0,0,0,-1,1490,1198,0,0
273,-174,0,0,0,0,0,0,0,0,0,-1,1497,1198,0,0
280,-174,0,0,0,0,0,0,0,0,0,-1,1504,1198,0,0
287,-174,0,0,0,0,0,0,0,0,0,-1,1511,1198,0,0
294,-174,0,0,0,0,0,0,0,0,0,-1,1518,1198,0,0
301,-174,0,0,0,0,0,0,0,0,0,-1,1525,1198,0,0
308,-174,0,0,0,0,0,0,0,0,0,-1,1532,1198,0,0
315,-174,0,0,0,0,0,0,0,0,0,-1,1539,1198,0,0
322,-174,0,0,0,0,0,0,0,0,0,-1,1546,1198,0,0
329,-174,0,0,0,0,0,0,0,0,0,-1,1553,1198,0,0
336,-174,0,0,0,0,0,0,0,0,0,-1,1560,1198,0,0
343,-174,0,0,0,0,0,0,0,0,0,-1,1567,1198,0,0
350,-174,0,0,0,0,0,0,0,0,0,-1,1574,1198,0,0
357,-174,0,0,0,0,0,0,0,0,0,-1,1581,1198,0,0
364,-174,0,0,0,0,0,0,0,0,0,-1,1588,1198,0,0
371,-174,0,0,0,0,0,0,0,0,0,-1,1595,1198,0,0
378,-174,0,0,0,0,0,0,0,0,0,-1,1602,1198,0,0
385,-174,0,0,0,0,0,0,0,0,0,-1,1609,1198,0,0
392,-174,0,0,0,0,0,0,0,0,0,-1,1616,1198,0,0
399,-174,0,0,0,0,0,0,0,0,0,-1,1623,1198,0,0
406,-174,0,0,0,0,0,0,0,0,0,-1,1630,1198,0,0
413,-174,0,0,0,0,0,0,0,0,0,-1,1637,1198,0,0
420,-174,0,0,0,0,0,0,0,0,0,-1,1644,1198,0,0
427,-174,0,0,0,0,0,0,0,0,0,-1,1651,1198,0,0
434,-174,0,0,0,0,0,0,0,0,0,-1,1658,1198,0,0
441,-174,0,0,0,0,0,0,0,0,0,-1,1665,1198,0,0
448,-174,0,0,0,0,0,0,0,0,0,-1,1672,1198,0,0
455,-174,0,0,0,0,0,0,0,0,0,-1,1679,1198,0,0
462,-174,0,0,0,0,0,0,0,0,0,-1,1686,1198,0,0
469,-174,0,0,0,0,0,0,0,0,0,-1,1693,1198,0,0
476,-174,0,0,0,0,0,0,0,0,0,-1,1700,1198,0,0
483,-174,0,0,0,0,0,0,0,0,0,-1,1707,1198,0,0
490,-174,0,0,0,0,0,0,0,0,0,-1,1714,1198,0,0
497,-174,0,0,0,0,0,0,0,0,0,-1,1721,1198,0,0
504,-174,0,0,0,0,0,0,0,0,0,-1,1728,1198,0,0
511,-174,0,0,0,0,0,0,0,0,0,-1,1735,1198,0,0
518,-174,0,0,0,0,0,0,0,0,0,-1,1742,1198,0,0
525,-174,0,0,0,0,0,0,0,0,0,-1,1749,1198,0,0
532,-174,0,0,0,0,0,0,0,0,0,-1,1756,1198,0,0
539,-174,0,0,0,0,0,0,0,0,0,-1,1763,1198,0,0
546,-174,0,0,0,0,0,0,0,0,0,-1,1770,1198,0,0
553,-174,0,0,0,0,0,0,0,0,0,-1,1777,1198,0,0
560,-174,0,0,0,0,0,0,0,0,0,-1,1784,1198,0,0
567,-174,0,0,0,0,0,0,0,0,0,-1,1791,1198,0,0
574,-174,0,0,0,0,0,0,0,0,0,-1,1798,1198,0,0
581,-174,0,0,0,0,0,0,0,0,0,-1,1805,1198,0,0
588,-174,0,0,0,0,0,0,0,0,0,-1,1812,1198,0,0
595,-174,0,0,0,0,0,0,0,0,0,-1,1819,1198,0,0
602,-174,0,0,0,0,0,0,0,0,0,-1,1826,1198,0,0
609,-174,0,0,0,0,0,0,0,0,0,-1,1833,1198,0,0
616,-174,0,0,0,0,0,0,0,0,0,-1,1840,1198,0,0
623,-174,0,0,0,0,0,0,0,0,0,-1,1847,1198,0,0
630,-174,0,0,0,0,0,0,0,0,0,-1,1854,1198,0,0
637,-174,4.2113,0.956421,0.00372769,-0.000354949,-0.00327608,0.00554638,-0.00217364,-0.506783,0.00459676,0.0417727,1861,1198,4.21127,-0.956453
644,-174,4.47498,0.974243,0.00431651,-0.000750914,-0.00283334,0.00558379,-0.00201819,-0.420584,0.00454708,0.0408916,1868,1198,4.47492,-0.974222
651,-174,4.13489,0.635254,0.0035582,-0.0010254,-0.00200556,0.00431182,-0.00177902,-0.359443,0.00361648,0.0389571,1875,1198,4.13485,-0.635238
658,-174,4.00854,0.616089,0.0024254,-0.00117009,-0.0010517,0.00271043,-0.00145513,-0.264664,0.00244111,0.0422482,1882,1198,4.0085,-0.616149
665,-174,4.36792,0.594604,0.00123498,-0.00119941,-0.000174354,0.0012474,-0.00121183,-0.0711374,0.00141989,0.0357412,1889,1198,4.36791,-0.59466
672,-174,4.32202,0.572632,0.000135347,-0.00114274,0.000570659,0.000353059,-0.00136045,0.364465,0.00104473,0.0254651,1896,1198,4.32197,-0.572635
679,-174,4.27246,0.561523,-0.000769426,-0.0010401,0.00112167,0.000225046,-0.00203457,0.725361,0.00143728,0.0214696,1903,1198,4.27247,-0.561533
686,-174,4.21631,0.556274,-0.00151522,-0.000970012,0.00146437,0.000246908,-0.00273215,0.877424,0.00190906,0.0485553,1910,1198,4.21636,-0.556248
693,-174,4.08716,0.657715,-0.00223695,-0.00081595,0.00175455,0.000366499,-0.0034194,0.97778,0.00241107,0.047477,1917,1198,4.08713,-0.657749
700,-174,4.00452,0.653809,-0.00247084,-0.000733506,0.00190959,0.000495712,-0.00370006,0.998857,0.00264746,0.0415251,1924,1198,4.00457,-0.653759
707,-174,4.05676,0.77356,-0.00244807,-0.000621644,0.00189758,0.000571027,-0.00364074,1.00967,0.00263818,0.0282098,1931,1198,4.05673,-0.773538
714,-174,4.04858,0.750732,-0.00258952,-0.000470792,0.00173536,0.000503002,-0.00356332,1.05944,0.00255974,0.0170518,1938,1198,4.04859,-0.750792
721,-174,4.05347,0.760986,-0.00240931,-0.000230111,0.0014684,0.000508791,-0.00314821,1.10459,0.00228734,0.0143546,1945,1198,4.05348,-0.761026
728,-174,4.06909,0.763916,-0.00153349,-8.37201e-05,0.00109469,0.000504331,-0.00212154,1.07784,0.00160903,0.0123918,1952,1198,4.06912,-0.763953
735,-174,4.06738,0.735962,-0.000672045,-0.000342482,0.000565167,8.14358e-05,-0.00109596,0.927247,0.000759244,0.0122631,1959,1198,4.06742,-0.735938
742,-174,4.02954,0.699097,0.000686648,-0.000285835,-0.000276844,0.000759936,-0.000359123,-0.258791,0.000659759,0.0194519,1966,1198,4.02957,-0.699101
749,-174,4.03699,0.702393,0.00221865,-0.000533649,-0.00163595,0.00298029,-0.00129529,-0.435719,0.0025316,0.0168723,1973,1198,4.03699,-0.702396
756,-174,4.05017,0.668457,0.00359568,-0.000574837,-0.00296812,0.00513783,-0.00211698,-0.47918,0.0043079,0.0101522,1980,1198,4.05014,-0.668432
763,-174,4.00391,0.621094,0.00517485,-0.00077334,-0.00461777,0.00769338,-0.00329188,-0.499306,0.00650983,0.0121092,1987,1198,4.00396,-0.621048
770,-174,3.97559,0.663208,0.00705706,-0.00107598,-0.00685217,0.0109585,-0.00497745,-0.517598,0.00941417,0.0226837,1994,1198,3.97561,-0.663171
777,-174,4.02087,0.905151,0,0,0,0,0,0,0,-1,2001,1198,4.02088,-0.90514
784,-174,4.29395,0.578735,0.0117449,-0.00185879,-0.0138667,0.0203881,-0.010502,-0.557382,0.0181363,0.0492151,2008,1198,4.29391,-0.578754
791,-174,4.65271,0.088623,0,0,0,0,0,0,0,-1,2015,1198,4.65273,-0.0886778
798,-174,4.86292,-0.380981,0,0,0,0,0,0,0,-1,2022,1198,4.8629,0.381037
805,-174,4.43457,-0.211426,0,0,0,0,0,0,0,-1,2029,1198,4.43461,0.211375
812,-174,0,0,0,0,0,0,0,0,0,-1,2036,1198,0,0
-700,-181,0,0,0,0,0,0,0,0,0,-1,524,1205,0,0
-693,-181,0,0,0,0,0,0,0,0,0,-1,531,1205,0,0
-686,-181,-3.72461,1.99475,0.0777959,-0.0108133,-0.0177348,0.0812136,-0.014231,-0.19038,0.0594565,0.0427283,538,1205,-3.72459,-1.99477
-679,-181,-4.34241,1.44299,0.078849,-0.00226983,-0.0278742,0.0875037,-0.0109246,-0.301056,0.0622975,0.0458836,545,1205,-4.34238,-1.44301
-672,-181,-4.88837,0.957886,0.073612,0.00279085,-0.0317744,0.0857779,-0.00937506,-0.365665,0.0605527,0.0469408,552,1205,-4.88835,-0.957922
-665,-181,-5.22882,0.429688,0.0652589,0.00554916,-0.0319344,0.0791203,-0.0083123,-0.40952,0.0557247,0.0434598,559,1205,-5.22881,-0.429716
-658,-181,-0.171936,0.790894,0.0555214,0.00677322,-0.0297703,0.0696229,-0.00732821,-0.442366,0.0490408,0.0447825,566,1205,-0.171938,-0.790923
-651,-181,0.0886841,1.07825,0.0455005,0.00697966,-0.0262157,0.0587705,-0.0062903,-0.468583,0.0414366,0.0450925,573,1205,0.0886839,-1.07821
-644,-181,-0.211731,0.80542,0.03594,0.0065316,-0.0219686,0.0476712,-0.00519961,-0.490476,0.0336482,0.0409246,580,1205,-0.211734,-0.805397
-637,-181,-0.442566,0.620239,0.0273169,0.00570276,-0.0175774,0.0371437,-0.00412408,-0.509773,0.0262454,0.0229068,587,1205,-0.442588,-0.620247
-630,-181,-0.450439,0.685303,0.020972,0.0052128,-0.0139434,0.0291082,-0.00292342,-0.528212,0.0204497,0.0118638,594,1205,-0.450428,-0.68534
-623,-181,-0.430359,0.732544,0.0140725,0.00437444,-0.0109916,0.0212372,-0.00279022,-0.57766,0.0151739,0.0133678,601,1205,-0.430341,-0.732524
-616,-181,-0.441406,0.745239,0.00829989,0.00291046,-0.00710974,0.0132085,-0.00199811,-0.604254,0.00954167,0.014014,608,1205,-0.441432,-0.745287
-609,-181,-0.440247,0.759521,0.00358488,0.00172293,-0.00457908,0.00732666,-0.00201886,-0.68511,0.00567832,0.0140985,615,1205,-0.44023,-0.759522
-602,-181,-0.457581,0.774292,0.00120833,0.00142072,-0.00307439,0.00439075,-0.0017617,-0.802662,0.00365862,0.0118858,622,1205,-0.457577,-0.77432
-595,-181,-0.461304,0.788696,-0.000223171,0.000619357,-0.001067,0.00134525,-0.000949059,-0.973411,0.00133118,0.0112668,629,1205,-0.46131,-0.788685
-588,-181,-0.457458,0.827637,-0.00108326,0.000569627,-0.00136645,0.00134012,-0.00185375,-1.05737,0.00185191,0.0100739,636,1205,-0.457464,-0.827682
-581,-181,-0.450439,0.831543,-0.000796683,0.000690921,-0.00178711,0.00188284,-0.0019886,-0.982597,0.00223545,0.0106939,643,1205,-0.450432,-0.831564
-574,-181,-0.465759,0.799561,-0.000660244,0.000895356,-0.00212884,0.00238404,-0.00214893,-0.960546,0.00261828,0.025407,650,1205,-0.465736,-0.799612
-567,-181,-0.460449,0.768311,-0.000594578,0.00112102,-0.00226667,0.00268678,-0.00216033,-0.96629,0.00280398,0.0406955,657,1205,-0.460448,-0.768297
-560,-181,-0.432556,0.689087,-0.000542195,0.00127657,-0.00228201,0.00282372,-0.00208934,-0.975005,0.0028471,0.0440856,664,1205,-0.432537,-0.689126
-553,-181,-0.486023,0.566772,-0.000292055,0.00142237,-0.00219024,0.00291717,-0.00178686,-0.971924,0.00274188,0.0434495,671,1205,-0.486024,-0.566751
-546,-181,-0.540466,0.68335,4.77214e-05,0.00150355,-0.00192489,0.00283356,-0.00128229,-0.966167,0.0024319,0.0373516,678,1205,-0.540487,-0.683351
-539,-181,-0.555298,0.842651,0.000524226,0.00142189,-0.00146383,0.00250415,-0.000558032,-0.934156,0.00188321,0.0400999,685,1205,-0.555275,-0.842662
-532,-181,-0.675354,0.940918,0.00114672,0.00108906,-0.000801806,0.00192022,0.000315569,-0.767428,0.001189,0.0449209,692,1205,-0.675351,-0.940874
-525,-181,-0.620728,0.536865,0.00188821,0.000378368,3.76906e-05,0.00188915,0.000377428,0.0249426,0.00115438,0.0411495,699,1205,-0.620747,-0.536862
-518,-181,-0.474976,0.519775,0.00271073,-0.000891646,0.0010659,0.00300249,-0.0011834,0.267174,0.00249163,0.0374714,706,1205,-0.474954,-0.519799
-511,-181,0,0,0,0,0,0,0,0,0,-1,713,1205,0,0
-504,-181,0,0,0,0,0,0,0,0,0,-1,720,1205,0,0
-497,-181,0,0,0,0,0,0,0,0,0,-1,727,1205,0,0
-490,-181,0,0,0,0,0,0,0,0,0,-1,734,1205,0,0
-483,-181,0,0,0,0,0,0,0,0,0,-1,741,1205,0,0
-476,-181,0,0,0,0,0,0,0,0,0,-1,748,1205,0,0
-469,-181,0,0,0,0,0,0,0,0,0,-1,755,1205,0,0
-462,-181,0,0,0,0,0,0,0,0,0,-1,762,1205,0,0
-455,-181,0,0,0,0,0,0,0,0,0,-1,769,1205,0,0
-448,-181,0,0,0,0,0,0,0,0,0,-1,776,1205,0,0
-441,-181,0,0,0,0,0,0,0,0,0,-1,783,1205,0,0
-434,-181,0,0,0,0,0,0,0,0,0,-1,790,1205,0,0
-427,-181,0,0,0,0,0,0,0,0,0,-1,797,1205,0,0
-420,-181,0,0,0,0,0,0,0,0,0,-1,804,1205,0,0
-413,-181,0,0,0,0,0,0,0,0,0,-1,811,1205,0,0
-406,-181,0,0,0,0,0,0,0,0,0,-1,818,1205,0,0
-399,-181,0,0,0,0,0,0,0,0,0,-1,825,1205,0,0
-392,-181,0,0,0,0,0,0,0,0,0,-1,832,1205,0,0
-385,-181,0,0,0,0,0,0,0,0,0,-1,839,1205,0,0
-378,-181,0,0,0,0,0,0,0,0,0,-1,846,1205,0,0
-371,-181,0,0,0,0,0,0,0,0,0,-1,853,1205,0,0
-364,-181,0,0,0,0,0,0,0,0,0,-1,860,1205,0,0
-357,-181,0,0,0,0,0,0,0,0,0,-1,867,1205,0,0
-350,-181,0,0,0,0,0,0,0,0,0,-1,874,1205,0,0
-343,-181,0,0,0,0,0,0,0,0,0,-1,881,1205,0,0
-336,-181,0,0,0,0,0,0,0,0,0,-1,888,1205,0,0
-329,-181,0,0,0,0,0,0,0,0,0,-1,895,1205,0,0
-322,-181,0,0,0,0,0,0,0,0,0,-1,902,1205,0,0
-315,-181,0,0,0,0,0,0,0,0,0,-1,909,1205,0,0
-308,-181,0,0,0,0,0,0,0,0,0,-1,916,1205,0,0
-301,-181,0,0,0,0,0,0,0,0,0,-1,923,1205,0,0
-294,-181,0,0,0,0,0,0,0,0,0,-1,930,1205,0,0
-287,-181,0,0,0,0,0,0,0,0,0,-1,937,1205,0,0
-280,-181,0,0,0,0,0,0,0,0,0,-1,944,1205,0,0
-273,-181,0,0,0,0,0,0,0,0,0,-1,951,1205,0,0
-266,-181,0,0,0,0,0,0,0,0,0,-1,958,1205,0,0
-259,-181,0,0,0,0,0,0,0,0,0,-1,965,1205,0,0
-252,-181,0,0,0,0,0,0,0,0,0,-1,972,1205,0,0
-245,-181,0,0,0,0,0,0,0,0,0,-1,979,1205,0,0
-238,-181,0,0,0,0,0,0,0,0,0,-1,986,1205,0,0
-231,-181,0,0,0,0,0,0,0,0,0,-1,993,1205,0,0
-224,-181,0,0,0,0,0,0,0,0,0,-1,1000,1205,0,0
-217,-181,0,0,0,0,0,0,0,0,0,-1,1007,1205,0,0
-210,-181,0,0,0,0,0,0,0,0,0,-1,1014,1205,0,0
-203,-181,0,0,0,0,0,0,0,0,0,-1,1021,1205,0,0
-196,-181,0,0,0,0,0,0,0,0,0,-1,1028,1205,0,0
-189,-181,0,0,0,0,0,0,0,0,0,-1,1035,1205,0,0
-182,-181,0,0,0,0,0,0,0,0,0,-1,1042,1205,0,0
-175,-181,0,0,0,0,0,0,0,0,0,-1,1049,1205,0,0
-168,-181,0,0,0,0,0,0,0,0,0,-1,1056,1205,0,0
-161,-181,0,0,0,0,0,0,0,0,0,-1,1063,1205,0,0
-154,-181,0,0,0,0,0,0,0,0,0,-1,1070,1205,0,0
-147,-181,0,0,0,0,0,0,0,0,0,-1,1077,1205,0,0
-140,-181,0,0,0,0,0,0,0,0,0,-1,1084,1205,0,0
-133,-181,0,0,0,0,0,0,0,0,0,-1,1091,1205,0,0
-126,-181,0,0,0,0,0,0,0,0,0,-1,1098,1205,0,0
-119,-181,0,0,0,0,0,0,0,0,0,-1,1105,1205,0,0
-112,-181,0,0,0,0,0,0,0,0,0,-1,1112,1205,0,0
-105,-181,0,0,0,0,0,0,0,0,0,-1,1119,1205,0,0
-98,-181,0,0,0,0,0,0,0,0,0,-1,1126,1205,0,0
-91,-181,0,0,0,0,0,0,0,0,0,-1,1133,1205,0,0
-84,-181,0,0,0,0,0,0,0,0,0,-1,1140,1205,0,0
-77,-181,0,0,0,0,0,0,0,0,0,-1,1147,1205,0,0
-70,-181,0,0,0,0,0,0,0,0,0,-1,1154,1205,0,0
-63,-181,0,0,0,0,0,0,0,0,0,-1,1161,1205,0,0
-56,-181,0,0,0,0,0,0,0,0,0,-1,1168,1205,0,0
-49,-181,0,0,0,0,0,0,0,0,0,-1,1175,1205,0,0
-42,-181,0,0,0,0,0,0,0,0,0,-1,1182,1205,0,0
-35,-181,0,0,0,0,0,0,0,0,0,-1,1189,1205,0,0
-28,-181,0,0,0,0,0,0,0,0,0,-1,1196,1205,0,0
-21,-181,0,0,0,0,0,0,0,0,0,-1,1203,1205,0,0
-14,-181,0,0,0,0,0,0,0,0,0,-1,1210,1205,0,0
-7,-181,0,0,0,0,0,0,0,0,0,-1,1217,1205,0,0
0,-181,0,0,0,0,0,0,0,0,0,-1,1224,1205,0,0
7,-181,0,0,0,0,0,0,0,0,0,-1,1231,1205,0,0
14,-181,0,0,0,0,0,0,0,0,0,-1,1238,1205,0,0
21,-181,0,0,0,0,0,0,0,0,0,-1,1245,1205,0,0
28,-181,0,0,0,0,0,0,0,0,0,-1,1252,1205,0,0
35,-181,0,0,0,0,0,0,0,0,0,-1,1259,1205,0,0
42,-181,0,0,0,0,0,0,0,0,0,-1,1266,1205,0,0
49,-181,0,0,0,0,0,0,0,0,0,-1,1273,1205,0,0
56,-181,0,0,0,0,0,0,0,0,0,-1,1280,1205,0,0
63,-181,0,0,0,0,0,0,0,0,0,-1,1287,1205,0,0
70,-181,0,0,0,0,0,0,0,0,0,-1,1294,1205,0,0
77,-181,0,0,0,0,0,0,0,0,0,-1,1301,1205,0,0
84,-181,0,0,0,0,0,0,0,0,0,-1,1308,1205,0,0
91,-181,0,0,0,0,0,0,0,0,0,-1,1315,1205,0,0
98,-181,0,0,0,0,0,0,0,0,0,-1,1322,1205,0,0
105,-181,0,0,0,0,0,0,0,0,0,-1,1329,1205,0,0
112,-181,0,0,0,0,0,0,0,0,0,-1,1336,1205,0,0
119,-181,0,0,0,0,0,0,0,0,0,-1,1343,1205,0,0
126,-181,0,0,0,0,0,0,0,0,0,-1,1350,1205,0,0
133,-181,0,0,0,0,0,0,0,0,0,-1,1357,1205,0,0
140,-181,0,0,0,0,0,0,0,0,0,-1,1364,1205,0,0
147,-181,0,0,0,0,0,0,0,0,0,-1,1371,1205,0,0
154,-181,0,0,0,0,0,0,0,0,0,-1,1378,1205,0,0
161,-181,0,0,0,0,0,0,0,0,0,-1,1385,1205,0,0
168,-181,0,0,0,0,0,0,0,0,0,-1,1392,1205,0,0
175,-181,0,0,0,0,0,0,0,0,0,-1,1399,1205,0,0
182,-181,0,0,0,0,0,0,0,0,0,-1,1406,1205,0,0
189,-181,0,0,0,0,0,0,0,0,0,-1,1413,1205,0,0
196,-181,0,0,0,0,0,0,0,0,0,-1,1420,1205,0,0
203,-181,0,0,0,0,0,0,0,0,0,-1,1427,1205,0,0
210,-181,0,0,0,0,0,0,0,0,0,-1,1434,1205,0,0
217,-181,0,0,0,0,0,0,0,0,0,-1,1441,1205,0,0
224,-181,0,0,0,0,0,0,0,0,0,-1,1448,1205,0,0
231,-181,0,0,0,0,0,0,0,0,0,-1,1455,1205,0,0
238,-181,0,0,0,0,0,0,0,0,0,-1,1462,1205,0,0
245,-181,0,0,0,0,0,0,0,0,0,-1,1469,1205,0,0
252,-181,0,0,0,0,0,0,0,0,0,-1,1476,1205,0,0
259,-181,0,0,0,0,0,0,0,0,0,-1,1483,1205,0,0
266,-181,0,0,0,0,0,0,0,0,0,-1,1490,1205,0,0
273,-181,0,0,0,0,0,0,0,0,0,-1,1497,1205,0,0
280,-181,0,0,0,0,0,0,0,0,0,-1,1504,1205,0,0
287,-181,0,0,0,0,0,0,0,0,0,-1,1511,1205,0,0
294,-181,0,0,0,0,0,0,0,0,0,-1,1518,1205,0,0
301,-181,0,0,0,0,0,0,0,0,0,-1,1525,1205,0,0
308,-181,0,0,0,0,0,0,0,0,0,-1,1532,1205,0,0
315,-181,0,0,0,0,0,0,0,0,0,-1,1539,1205,0,0
322,-181,0,0,0,0,0,0,0,0,0,-1,1546,1205,0,0
329,-181,0,0,0,0,0,0,0,0,0,-1,1553,1205,0,0
336,-181,0,0,0,0,0,0,0,0,0,-1,1560,1205,0,0
343,-181,0,0,0,0,0,0,0,0,0,-1,1567,1205,0,0
350,-181,0,0,0,0,0,0,0,0,0,-1,1574,1205,0,0
357,-181,0,0,0,0,0,0,0,0,0,-1,1581,1205,0,0
364,-181,0,0,0,0,0,0,0,0,0,-1,1588,1205,0,0
371,-181,0,0,0,0,0,0,0,0,0,-1,1595,1205,0,0
378,-181,0,0,0,0,0,0,0,0,0,-1,1602,1205,0,0
385,-181,0,0,0,0,0,0,0,0,0,-1,1609,1205,0,0
392,-181,0,0,0,0,0,0,0,0,0,-1,1616,1205,0,0
399,-181,0,0,0,0,0,0,0,0,0,-1,1623,1205,0,0
406,-181,0,0,0,0,0,0,0,0,0,-1,1630,1205,0,0
413,-181,0,0,0,0,0,0,0,0,0,-1,1637,1205,0,0
420,-181,0,0,0,0,0,0,0,0,0,-1,1644,1205,0,0
427,-181,0,0,0,0,0,0,0,0,0,-1,1651,1205,0,0
434,-181,0,0,0,0,0,0,0,0,0,-1,1658,1205,0,0
441,-181,0,0,0,0,0,0,0,0,0,-1,1665,1205,0,0
448,-181,0,0,0,0,0,0,0,0,0,-1,1672,1205,0,0
455,-181,0,0,0,0,0,0,0,0,0,-1,1679,1205,0,0
462,-181,0,0,0,0,0,0,0,0,0,-1,1686,1205,0,0
469,-181,0,0,0,0,0,0,0,0,0,-1,1693,1205,0,0
476,-181,0,0,0,0,0,0,0,0,0,-1,1700,1205,0,0
483,-181,0,0,0,0,0,0,0,0,0,-1,1707,1205,0,0
490,-181,0,0,0,0,0,0,0,0,0,-1,1714,1205,0,0
497,-181,0,0,0,0,0,0,0,0,0,-1,1721,1205,0,0
504,-181,0,0,0,0,0,0,0,0,0,-1,1728,1205,0,0
511,-181,0,0,0,0,0,0,0,0,0,-1,1735,1205,0,0
518,-181,0,0,0,0,0,0,0,0,0,-1,1742,1205,0,0
525,-181,0,0,0,0,0,0,0,0,0,-1,1749,1205,0,0
532,-181,0,0,0,0,0,0,0,0,0,-1,1756,1205,0,0
539,-181,0,0,0,0,0,0,0,0,0,-1,1763,1205,0,0
546,-181,0,0,0,0,0,0,0,0,0,-1,1770,1205,0,0
553,-181,0,0,0,0,0,0,0,0,0,-1,1777,1205,0,0
560,-181,0,0,0,0,0,0,0,0,0,-1,1784,1205,0,0
567,-181,0,0,0,0,0,0,0,0,0,-1,1791,1205,0,0
574,-181,0,0,0,0,0,0,0,0,0,-1,1798,1205,0,0
581,-181,0,0,0,0,0,0,0,0,0,-1,1805,1205,0,0
588,-181,0,0,0,0,0,0,0,0,0,-1,1812,1205,0,0
595,-181,0,0,0,0,0,0,0,0,0,-1,1819,1205,0,0
602,-181,0,0,0,0,0,0,0,0,0,-1,1826,1205,0,0
609,-181,0,0,0,0,0,0,0,0,0,-1,1833,1205,0,0
616,-181,0,0,0,0,0,0,0,0,0,-1,1840,1205,0,0
623,-181,0,0,0,0,0,0,0,0,0,-1,1847,1205,0,0
630,-181,4.22168,0.665527,0.00124076,0.0016943,-0.00238573,0.00386401,-0.000928957,-0.832782,0.00293508,0.0379683,1854,1205,4.22168,-0.665469
637,-181,4.24939,0.817261,0.00311109,0.000506516,-0.00244541,0.00457937,-0.000961756,-0.540727,0.00341889,0.0388996,1861,1205,4.24942,-0.81721
644,-181,4.38586,0.919434,0.00422976,-0.000247466,-0.0019126,0.00493554,-0.000953242,-0.353512,0.00364984,0.0402115,1868,1205,4.38581,-0.919484
651,-181,4.4082,0.783447,0.0037884,-0.00082553,-0.00101056,0.00400003,-0.00103716,-0.206435,0.00307135,0.0386484,1875,1205,4.4082,-0.78343
658,-181,4.28381,0.606079,0.00286372,-0.00120457,-6.10443e-05,0.00286464,-0.00120549,-0.0150004,0.00241409,0.0351729,1882,1205,4.28382,-0.606063
665,-181,4.31738,0.515869,0.0017636,-0.00139305,0.000763158,0.00193842,-0.00156787,0.22519,0.00202812,0.0312559,1889,1205,4.31733,-0.515866
672,-181,4.29688,0.525635,0.000657914,-0.00143521,0.00143433,0.00138691,-0.0021642,0.470223,0.00206654,0.0235204,1896,1205,4.29682,-0.525654
679,-181,4.28333,0.542969,-0.000295942,-0.001365,0.0018966,0.00114002,-0.00280096,0.648044,0.00234171,0.0296298,1903,1205,4.28327,-0.543
686,-181,4.22766,0.546021,0,0,0,0,0,0,0,-1,1910,1205,4.22761,-0.54597
693,-181,4.21533,0.740967,-0.00193308,-0.00115826,0.0023463,0.000832399,-0.00392373,0.867218,0.00293293,0.0445886,1917,1205,4.21535,-0.740936
700,-181,3.99768,0.772949,-0.00228854,-0.00103997,0.00239146,0.000807347,-0.00413585,0.913073,0.00306204,0.0408531,1924,1205,3.99768,-0.773009
707,-181,4.02002,0.821899,-0.00236299,-0.000852193,0.00227758,0.000791988,-0.00400717,0.945524,0.00297084,0.0195682,1931,1205,4.01999,-0.821852
714,-181,4.03455,0.75061,-0.00259411,-0.000620685,0.00199491,0.000618192,-0.00383299,1.01506,0.00278436,0.0152132,1938,1205,4.03457,-0.750666
721,-181,4.04077,0.763306,-0.00245775,-0.000281926,0.00161283,0.000575614,-0.00331529,1.08211,0.00242495,0.0119108,1945,1205,4.04075,-0.763253
728,-181,4.05493,0.759888,-0.0014653,-5.36626e-05,0.00115521,0.00059429,-0.00211325,1.05963,0.00164315,0.0109666,1952,1205,4.05495,-0.759949
735,-181,4.0752,0.735107,-0.000523832,-0.000295312,0.000600024,0.000201235,-0.00102038,0.879484,0.000756308,0.0113208,1959,1205,4.07517,-0.735132
742,-181,4.05151,0.727173,0.00105982,-0.000102184,-0.000299335,0.0011324,-0.00017476,-0.237868,0.000819422,0.0164104,1966,1205,4.05147,-0.727165
749,-181,4.03381,0.70813,0.00290447,-0.000205641,-0.00159697,0.00357843,-0.000879601,-0.399347,0.00272653,0.0149288,1973,1205,4.03384,-0.708177
756,-181,4.02661,0.666382,0.00456971,-0.00015161,-0.00282252,0.00588864,-0.00147054,-0.437136,0.00449681,0.0108099,1980,1205,4.02658,-0.666382
763,-181,4.00928,0.636963,0.00654414,-0.000184985,-0.00435081,0.00867956,-0.00232041,-0.456269,0.00669525,0.0108533,1987,1205,4.00926,-0.636984
770,-181,3.98914,0.602539,0.00896737,-0.00025008,-0.00642692,0.0122672,-0.00354994,-0.474344,0.0095832,0.0221313,1994,1205,3.98909,-0.602533
777,-181,4.00232,0.587769,0.0118515,-0.000306904,-0.00923002,0.0168244,-0.00527986,-0.494188,0.0133295,0.0411575,2001,1205,4.00234,-0.587712
784,-181,4.02722,0.682739,0.0150934,-0.000314819,-0.0129244,0.0224357,-0.0076571,-0.516628,0.018059,0.0476668,2008,1205,4.02724,-0.68278
791,-181,3.9104,0.754761,0,0,0,0,0,0,0,-1,2015,1205,3.91037,-0.754788
798,-181,4.26208,1.45703,0,0,0,0,0,0,0,-1,2022,1205,4.26211,-1.457
805,-181,0,0,0,0,0,0,0,0,0,-1,2029,1205,0,0
812,-181,0,0,0,0,0,0,0,0,0,-1,2036,1205,0,0
-700,-188,0,0,0,0,0,0,0,0,0,-1,524,1212,0,0
-693,-188,0,0,0,0,0,0,0,0,0,-1,531,1212,0,0
-686,-188,0,0,0,0,0,0,0,0,0,-1,538,1212,0,0
-679,-188,-4.87885,1.78101,0.0928507,0.00143613,-0.0329896,0.103512,-0.00922563,-0.31259,0.0722801,0.0494131,545,1212,-4.87884,-1.78096
-672,-188,-5.46887,1.11267,0.0833635,0.00586837,-0.0356589,0.0972745,-0.00804267,-0.371956,0.06769,0.0467787,552,1212,-5.46887,-1.11271
-665,-188,-0.460938,0.115601,0.0717503,0.00806168,-0.0346659,0.0869781,-0.00716614,-0.413898,0.0605157,0.0453991,559,1212,-0.460955,-0.115544
-658,-188,-0.285156,0.619751,0.0595955,0.00879892,-0.0315302,0.0746846,-0.00629012,-0.446348,0.0520133,0.0450896,566,1212,-0.285159,-0.619759
-651,-188,-0.139343,0.915039,0,0,0,0,0,0,0,-1,573,1212,-0.139372,-0.915098
-644,-188,-0.280029,0.810669,0.0371387,0.00779463,-0.0223986,0.0492429,-0.00430959,-0.495443,0.0343554,0.0424115,580,1212,-0.280037,-0.81069
-637,-188,-0.451599,0.68042,0.0277908,0.00667726,-0.0176226,0.0377767,-0.00330869,-0.51554,0.0263567,0.0215077,587,1212,-0.451628,-0.680424
-630,-188,-0.434509,0.704346,0.02101,0.0059264,-0.0137328,0.0291357,-0.00219925,-0.534291,0.0201968,0.00970686,594,1212,-0.434527,-0.704354
-623,-188,-0.430115,0.728638,0.0135775,0.00488632,-0.0105973,0.0206856,-0.00222175,-0.590821,0.0145875,0.00977783,601,1212,-0.430115,-0.728635
-616,-188,-0.425049,0.741089,0.00769812,0.00325015,-0.00659165,0.0124309,-0.00148259,-0.622698,0.00882305,0.0102365,608,1212,-0.425022,-0.741136
-609,-188,-0.420166,0.778076,0.00310244,0.00205141,-0.00408682,0.0066974,-0.00154355,-0.721455,0.00505856,0.0128243,615,1212,-0.420169,-0.778112
-602,-188,-0.417969,0.807983,0.00100038,0.00158081,-0.00278585,0.00409152,-0.00151033,-0.837298,0.00334672,0.0151478,622,1212,-0.417941,-0.807941
-595,-188,-0.425232,0.804688,-0.000128539,0.000818418,-0.00102463,0.00147367,-0.000783795,-1.00183,0.00132348,0.0117347,629,1212,-0.425216,-0.804659
-588,-188,-0.442261,0.821655,-0.000855081,0.000742213,-0.0013997,0.00155509,-0.00166796,-1.04465,0.00186121,0.00935862,636,1212,-0.442251,-0.821707
-581,-188,-0.435242,0.851074,-0.000673087,0.000893928,-0.00192425,0.00218807,-0.00196723,-0.978737,0.00240019,0.00903705,643,1212,-0.435231,-0.851078
-574,-188,-0.392578,0.787231,-0.000647187,0.00113711,-0.00228883,0.00270152,-0.0022116,-0.971232,0.00284129,0.0222134,650,1212,-0.392552,-0.787188
-567,-188,-0.354858,0.706543,-0.000666782,0.00142199,-0.00244277,0.00303427,-0.00227906,-0.987409,0.00307796,0.0405642,657,1212,-0.354854,-0.706516
-560,-188,-0.299988,0.610596,-0.000729633,0.00162124,-0.00243971,0.00315391,-0.0022623,-1.00989,0.00314115,0.0474256,664,1212,-0.299961,-0.610642
-553,-188,-0.372925,0.545654,-0.000620868,0.00180489,-0.00231169,0.00320257,-0.00201854,-1.02699,0.00304014,0.0464139,671,1212,-0.372919,-0.545696
-546,-188,-0.547668,0.680908,-0.000467903,0.00191229,-0.00199318,0.00304364,-0.00159925,-1.05453,0.00272347,0.0422975,678,1212,-0.547662,-0.680885
-539,-188,-0.581787,0.828857,-0.00021646,0.0018435,-0.00146488,0.00260425,-0.000977217,-1.0918,0.0021377,0.0380923,685,1212,-0.581815,-0.828914
-532,-188,-0.540466,0.619141,0.000158056,0.00148422,-0.000728453,0.00180619,-0.000163911,-1.15463,0.00126231,0.0401282,692,1212,-0.540495,-0.61912
-525,-188,-0.363647,0.440186,0.000655818,0.000694759,0.000181609,0.000857938,0.000492638,0.8388,0.000497146,0.0377458,699,1212,-0.36362,-0.440211
-518,-188,-0.30957,0.503662,0.00130695,-0.000737839,0.0012255,0.00188053,-0.00131142,0.437754,0.00185261,0.0379947,706,1212,-0.309595,-0.503701
-511,-188,-0.40271,0.537354,0.0021091,-0.00303156,0.00206554,0.00283621,-0.00375866,0.338469,0.00381994,0.0373897,713,1212,-0.402737,-0.537342
-504,-188,0,0,0,0,0,0,0,0,0,-1,720,1212,0,0
-497,-188,0,0,0,0,0,0,0,0,0,-1,727,1212,0,0
-490,-188,0,0,0,0,0,0,0,0,0,-1,734,1212,0,0
-483,-188,0,0,0,0,0,0,0,0,0,-1,741,1212,0,0
-476,-188,0,0,0,0,0,0,0,0,0,-1,748,1212,0,0
-469,-188,0,0,0,0,0,0,0,0,0,-1,755,1212,0,0
-462,-188,0,0,0,0,0,0,0,0,0,-1,762,1212,0,0
-455,-188,0,0,0,0,0,0,0,0,0,-1,769,1212,0,0
-448,-188,0,0,0,0,0,0,0,0,0,-1,776,1212,0,0
-441,-188,0,0,0,0,0,0,0,0,0,-1,783,1212,0,0
-434,-188,0,0,0,0,0,0,0,0,0,-1,790,1212,0,0
-427,-188,0,0,0,0,0,0,0,0,0,-1,797,1212,0,0
-420,-188,0,0,0,0,0,0,0,0,0,-1,804,1212,0,0
-413,-188,0,0,0,0,0,0,0,0,0,-1,811,1212,0,0
-406,-188,0,0,0,0,0,0,0,0,0,-1,818,1212,0,0
-399,-188,0,0,0,0,0,0,0,0,0,-1,825,1212,0,0
-392,-188,0,0,0,0,0,0,0,0,0,-1,832,1212,0,0
-385,-188,0,0,0,0,0,0,0,0,0,-1,839,1212,0,0
-378,-188,0,0,0,0,0,0,0,0,0,-1,846,1212,0,0
-371,-188,0,0,0,0,0,0,0,0,0,-1,853,1212,0,0
-364,-188,0,0,0,0,0,0,0,0,0,-1,860,1212,0,0
-357,-188,0,0,0,0,0,0,0,0,0,-1,867,1212,0,0
-350,-188,0,0,0,0,0,0,0,0,0,-1,874,1212,0,0
-343,-188,0,0,0,0,0,0,0,0,0,-1,881,1212,0,0
-336,-188,0,0,0,0,0,0,0,0,0,-1,888,1212,0,0
-329,-188,0,0,0,0,0,0,0,0,0,-1,895,1212,0,0
-322,-188,0,0,0,0,0,0,0,0,0,-1,902,1212,0,0
-315,-188,0,0,0,0,0,0,0,0,0,-1,909,1212,0,0
-308,-188,0,0,0,0,0,0,0,0,0,-1,916,1212,0,0
-301,-188,0,0,0,0,0,0,0,0,0,-1,923,1212,0,0
-294,-188,0,0,0,0,0,0,0,0,0,-1,930,1212,0,0
-287,-188,0,0,0,0,0,0,0,0,0,-1,937,1212,0,0
-280,-188,0,0,0,0,0,0,0,0,0,-1,944,1212,0,0
-273,-188,0,0,0,0,0,0,0,0,0,-1,951,1212,0,0
-266,-188,0,0,0,0,0,0,0,0,0,-1,958,1212,0,0
-259,-188,0,0,0,0,0,0,0,0,0,-1,965,1212,0,0
-252,-188,0,0,0,0,0,0,0,0,0,-1,972,1212,0,0
-245,-188,0,0,0,0,0,0,0,0,0,-1,979,1212,0,0
-238,-188,0,0,0,0,0,0,0,0,0,-1,986,1212,0,0
-231,-188,0,0,0,0,0,0,0,0,0,-1,993,1212,0,0
-224,-188,0,0,0,0,0,0,0,0,0,-1,1000,1212,0,0
-217,-188,0,0,0,0,0,0,0,0,0,-1,1007,1212,0,0
-210,-188,0,0,0,0,0,0,0,0,0,-1,1014,1212,0,0
-203,-188,0,0,0,0,0,0,0,0,0,-1,1021,1212,0,0
-196,-188,0,0,0,0,0,0,0,0,0,-1,1028,1212,0,0
-189,-188,0,0,0,0,0,0,0,0,0,-1,1035,1212,0,0
-182,-188,0,0,0,0,0,0,0,0,0,-1,1042,1212,0,0
-175,-188,0,0,0,0,0,0,0,0,0,-1,1049,1212,0,0
-168,-188,0,0,0,0,0,0,0,0,0,-1,1056,1212,0,0
-161,-188,0,0,0,0,0,0,0,0,0,-1,1063,1212,0,0
-154,-188,0,0,0,0,0,0,0,0,0,-1,1070,1212,0,0
-147,-188,0,0,0,0,0,0,0,0,0,-1,1077,1212,0,0
-140,-188,0,0,0,0,0,0,0,0,0,-1,1084,1212,0,0
-133,-188,0,0,0,0,0,0,0,0,0,-1,1091,1212,0,0
-126,-188,0,0,0,0,0,0,0,0,0,-1,1098,1212,0,0
-119,-188,0,0,0,0,0,0,0,0,0,-1,1105,1212,0,0
-112,-188,0,0,0,0,0,0,0,0,0,-1,1112,1212,0,0
-105,-188,0,0,0,0,0,0,0,0,0,-1,1119,1212,0,0
-98,-188,0,0,0,0,0,0,0,0,0,-1,1126,1212,0,0
-91,-188,0,0,0,0,0,0,0,0,0,-1,1133,1212,0,0
-84,-188,0,0,0,0,0,0,0,0,0,-1,1140,1212,0,0
-77,-188,0,0,0,0,0,0,0,0,0,-1,1147,1212,0,0
-70,-188,0,0,0,0,0,0,0,0,0,-1,1154,1212,0,0
-63,-188,0,0,0,0,0,0,0,0,0,-1,1161,1212,0,0
-56,-188,0,0,0,0,0,0,0,0,0,-1,1168,1212,0,0
-49,-188,0,0,0,0,0,0,0,0,0,-1,1175,1212,0,0
-42,-188,0,0,0,0,0,0,0,0,0,-1,1182,1212,0,0
-35,-188,0,0,0,0,0,0,0,0,0,-1,1189,1212,0,0
-28,-188,0,0,0,0,0,0,0,0,0,-1,1196,1212,0,0
-21,-188,0,0,0,0,0,0,0,0,0,-1,1203,1212,0,0
-14,-188,0,0,0,0,0,0,0,0,0,-1,1210,1212,0,0
-7,-188,0,0,0,0,0,0,0,0,0,-1,1217,1212,0,0
0,-188,0,0,0,0,0,0,0,0,0,-1,1224,1212,0,0
7,-188,0,0,0,0,0,0,0,0,0,-1,1231,1212,0,0
14,-188,0,0,0,0,0,0,0,0,0,-1,1238,1212,0,0
21,-188,0,0,0,0,0,0,0,0,0,-1,1245,1212,0,0
28,-188,0,0,0,0,0,0,0,0,0,-1,1252,1212,0,0
35,-188,0,0,0,0,0,0,0,0,0,-1,1259,1212,0,0
42,-188,0,0,0,0,0,0,0,0,0,-1,1266,1212,0,0
49,-188,0,0,0,0,0,0,0,0,0,-1,1273,1212,0,0
56,-188,0,0,0,0,0,0,0,0,0,-1,1280,1212,0,0
63,-188,0,0,0,0,0,0,0,0,0,-1,1287,1212,0,0
70,-188,0,0,0,0,0,0,0,0,0,-1,1294,1212,0,0
77,-188,0,0,0,0,0,0,0,0,0,-1,1301,1212,0,0
84,-188,0,0,0,0,0,0,0,0,0,-1,1308,1212,0,0
91,-188,0,0,0,0,0,0,0,0,0,-1,1315,1212,0,0
98,-188,0,0,0,0,0,0,0,0,0,-1,1322,1212,0,0
105,-188,0,0,0,0,0,0,0,0,0,-1,1329,1212,0,0
112,-188,0,0,0,0,0,0,0,0,0,-1,1336,1212,0,0
119,-188,0,0,0,0,0,0,0,0,0,-1,1343,1212,0,0
126,-188,0,0,0,0,0,0,0,0,0,-1,1350,1212,0,0
133,-188,0,0,0,0,0,0,0,0,0,-1,1357,1212,0,0
140,-188,0,0,0,0,0,0,0,0,0,-1,1364,1212,0,0
147,-188,0,0,0,0,0,0,0,0,0,-1,1371,1212,0,0
154,-188,0,0,0,0,0,0,0,0,0,-1,1378,1212,0,0
161,-188,0,0,0,0,0,0,0,0,0,-1,1385,1212,0,0
168,-188,0,0,0,0,0,0,0,0,0,-1,1392,1212,0,0
175,-188,0,0,0,0,0,0,0,0,0,-1,1399,1212,0,0
182,-188,0,0,0,0,0,0,0,0,0,-1,1406,1212,0,0
189,-188,0,0,0,0,0,0,0,0,0,-1,1413,1212,0,0
196,-188,0,0,0,0,0,0,0,0,0,-1,1420,1212,0,0
203,-188,0,0,0,0,0,0,0,0,0,-1,1427,1212,0,0
210,-188,0,0,0,0,0,0,0,0,0,-1,1434,1212,0,0
217,-188,0,0,0,0,0,0,0,0,0,-1,1441,1212,0,0
224,-188,0,0,0,0,0,0,0,0,0,-1,1448,1212,0,0
231,-188,0,0,0,0,0,0,0,0,0,-1,1455,1212,0,0
238,-188,0,0,0,0,0,0,0,0,0,-1,1462,1212,0,0
245,-188,0,0,0,0,0,0,0,0,0,-1,1469,1212,0,0
252,-188,0,0,0,0,0,0,0,0,0,-1,1476,1212,0,0
259,-188,0,0,0,0,0,0,0,0,0,-1,1483,1212,0,0
266,-188,0,0,0,0,0,0,0,0,0,-1,1490,1212,0,0
273,-188,0,0,0,0,0,0,0,0,0,-1,1497,1212,0,0
280,-188,0,0,0,0,0,0,0,0,0,-1,1504,1212,0,0
287,-188,0,0,0,0,0,0,0,0,0,-1,1511,1212,0,0
294,-188,0,0,0,0,0,0,0,0,0,-1,1518,1212,0,0
301,-188,0,0,0,0,0,0,0,0,0,-1,1525,1212,0,0
308,-188,0,0,0,0,0,0,0,0,0,-1,1532,1212,0,0
315,-188,0,0,0,0,0,0,0,0,0,-1,1539,1212,0,0
322,-188,0,0,0,0,0,0,0,0,0,-1,1546,1212,0,0
329,-188,0,0,0,0,0,0,0,0,0,-1,1553,1212,0,0
336,-188,0,0,0,0,0,0,0,0,0,-1,1560,1212,0,0
343,-188,0,0,0,0,0,0,0,0,0,-1,1567,1212,0,0
350,-188,0,0,0,0,0,0,0,0,0,-1,1574,1212,0,0
357,-188,0,0,0,0,0,0,0,0,0,-1,1581,1212,0,0
364,-188,0,0,0,0,0,0,0,0,0,-1,1588,1212,0,0
371,-188,0,0,0,0,0,0,0,0,0,-1,1595,1212,0,0
378,-188,0,0,0,0,0,0,0,0,0,-1,1602,1212,0,0
385,-188,0,0,0,0,0,0,0,0,0,-1,1609,1212,0,0
392,-188,0,0,0,0,0,0,0,0,0,-1,1616,1212,0,0
399,-188,0,0,0,0,0,0,0,0,0,-1,1623,1212,0,0
406,-188,0,0,0,0,0,0,0,0,0,-1,1630,1212,0,0
413,-188,0,0,0,0,0,0,0,0,0,-1,1637,1212,0,0
420,-188,0,0,0,0,0,0,0,0,0,-1,1644,1212,0,0
427,-188,0,0,0,0,0,0,0,0,0,-1,1651,1212,0,0
434,-188,0,0,0,0,0,0,0,0,0,-1,1658,1212,0,0
441,-188,0,0,0,0,0,0,0,0,0,-1,1665,1212,0,0
448,-188,0,0,0,0,0,0,0,0,0,-1,1672,1212,0,0
455,-188,0,0,0,0,0,0,0,0,0,-1,1679,1212,0,0
462,-188,0,0,0,0,0,0,0,0,0,-1,1686,1212,0,0
469,-188,0,0,0,0,0,0,0,0,0,-1,1693,1212,0,0
476,-188,0,0,0,0,0,0,0,0,0,-1,1700,1212,0,0
483,-188,0,0,0,0,0,0,0,0,0,-1,1707,1212,0,0
490,-188,0,0,0,0,0,0,0,0,0,-1,1714,1212,0,0
497,-188,0,0,0,0,0,0,0,0,0,-1,1721,1212,0,0
504,-188,0,0,0,0,0,0,0,0,0,-1,1728,1212,0,0
511,-188,0,0,0,0,0,0,0,0,0,-1,1735,1212,0,0
518,-188,0,0,0,0,0,0,0,0,0,-1,1742,1212,0,0
525,-188,0,0,0,0,0,0,0,0,0,-1,1749,1212,0,0
532,-188,0,0,0,0,0,0,0,0,0,-1,1756,1212,0,0
539,-188,0,0,0,0,0,0,0,0,0,-1,1763,1212,0,0
546,-188,0,0,0,0,0,0,0,0,0,-1,1770,1212,0,0
553,-188,0,0,0,0,0,0,0,0,0,-1,1777,1212,0,0
560,-188,0,0,0,0,0,0,0,0,0,-1,1784,1212,0,0
567,-188,0,0,0,0,0,0,0,0,0,-1,1791,1212,0,0
574,-188,0,0,0,0,0,0,0,0,0,-1,1798,1212,0,0
581,-188,0,0,0,0,0,0,0,0,0,-1,1805,1212,0,0
588,-188,0,0,0,0,0,0,0,0,0,-1,1812,1212,0,0
595,-188,0,0,0,0,0,0,0,0,0,-1,1819,1212,0,0
602,-188,0,0,0,0,0,0,0,0,0,-1,1826,1212,0,0
609,-188,0,0,0,0,0,0,0,0,0,-1,1833,1212,0,0
616,-188,0,0,0,0,0,0,0,0,0,-1,1840,1212,0,0
623,-188,0,0,0,0,0,0,0,0,0,-1,1847,1212,0,0
630,-188,4.29993,0.590698,-0.000585919,0.00234028,-0.00179013,0.00318916,-0.0014348,-1.128,0.00273294,0.0401679,1854,1212,4.29992,-0.590747
637,-188,4.31775,0.649902,0.00236956,0.00102005,-0.00168473,0.00350963,-0.000120023,-0.594924,0.00238077,0.0417132,1861,1212,4.3178,-0.649855
644,-188,4.26892,0.795166,0.00414312,5.91744e-06,-0.000914667,0.00433632,-0.000187278,-0.20816,0.00295529,0.0379062,1868,1212,4.26892,-0.795142
651,-188,4.25793,0.705811,0.00417227,-0.000777553,0.000152697,0.00417698,-0.000782259,0.0308099,0.00307871,0.0318314,1875,1212,4.25792,-0.70582
658,-188,4.29993,0.566895,0.00357018,-0.00130014,0.00115271,0.00382923,-0.00155918,0.221055,0.0032017,0.0310415,1882,1212,4.29996,-0.56693
665,-188,4.27637,0.555786,0.00262073,-0.0015776,0.00194851,0.00338569,-0.00234255,0.374097,0.00332543,0.0298676,1889,1212,4.27632,-0.555795
672,-188,4.26575,0.552368,0.00153021,-0.00167465,0.00254831,0.00293804,-0.00308248,0.504728,0.00347629,0.0246799,1896,1212,4.2658,-0.552423
679,-188,4.24426,0.563232,0.000529383,-0.00160643,0.00290576,0.00255726,-0.0036343,0.609303,0.00359269,0.0471428,1903,1212,4.24421,-0.563279
686,-188,4.21533,0.624756,-0.000388156,-0.00152752,0.00304751,0.00214246,-0.00405814,0.692998,0.00363642,0.0431643,1910,1212,4.21537,-0.62474
693,-188,4.20544,0.678345,-0.00132139,-0.00137199,0.00311826,0.00177168,-0.00446505,0.781341,0.00371102,0.0409521,1917,1212,4.2055,-0.678348
700,-188,4.02844,0.783447,-0.00183468,-0.00119822,0.00302559,0.00152583,-0.00455873,0.837795,0.0036555,0.0313585,1924,1212,4.02842,-0.783489
707,-188,3.98621,0.803589,-0.00209088,-0.000938025,0.00277491,0.0013197,-0.0043486,0.887806,0.0034248,0.0110165,1931,1212,3.9862,-0.803592
714,-188,4.00305,0.763794,-0.00245736,-0.000653112,0.00231751,0.000931669,-0.00404214,0.971006,0.00305307,0.0090331,1938,1212,4.00309,-0.76385
721,-188,4.00464,0.770752,-0.00232575,-0.000286281,0.0017824,0.00074747,-0.0033595,1.04523,0.00252596,0.0103474,1945,1212,4.00461,-0.770716
728,-188,4.01489,0.756226,-0.00111384,-7.00997e-05,0.00120983,0.000725616,-0.00190955,0.98902,0.00157177,0.00950621,1952,1212,4.01495,-0.756203
735,-188,4.02734,0.734741,3.21068e-05,-0.000471366,0.000596162,0.000427503,-0.000866762,0.585624,0.000761455,0.0126033,1959,1212,4.02737,-0.734754
742,-188,4.0105,0.715942,0.00197516,-0.000327393,-0.000374453,0.00203453,-0.000386758,-0.157229,0.00150196,0.0146872,1966,1212,4.01051,-0.715913
749,-188,4.00012,0.693481,0.00429387,-0.000455132,-0.00160832,0.00478728,-0.000948548,-0.297675,0.0035502,0.0136907,1973,1212,4.00015,-0.693458
756,-188,4.01013,0.66626,0.00651036,-0.000515855,-0.0027566,0.00746276,-0.00146826,-0.332659,0.00552995,0.0117456,1980,1212,4.01014,-0.666218
763,-188,3.99963,0.643555,0.00915337,-0.000650923,-0.004176,0.0106909,-0.0021885,-0.35279,0.00795775,0.0132548,1987,1212,3.99965,-0.643535
770,-188,4.00464,0.609985,0.0123981,-0.000778679,-0.00609325,0.0147838,-0.00316439,-0.373186,0.0110626,0.0202714,1994,1212,4.00467,-0.610015
777,-188,4.05359,0.613037,0.0162272,-0.000823008,-0.0086593,0.0198537,-0.00444948,-0.396603,0.0149414,0.0394691,2001,1212,4.05361,-0.613039
784,-188,4.12244,0.670044,0.0205076,-0.000688016,-0.0120178,0.0259329,-0.00611333,-0.424051,0.0196461,0.0458569,2008,1212,4.12245,-0.670067
791,-188,4.12659,0.686401,0,0,0,0,0,0,0,-1,2015,1212,4.1266,-0.686365
798,-188,4.58826,0.960815,0,0,0,0,0,0,0,-1,2022,1212,4.58826,-0.960847
805,-188,0,0,0,0,0,0,0,0,0,-1,2029,1212,0,0
812,-188,0,0,0,0,0,0,0,0,0,-1,2036,1212,0,0
-700,-195,0,0,0,0,0,0,0,0,0,-1,524,1219,0,0
-693,-195,0,0,0,0,0,0,0,0,0,-1,531,1219,0,0
-686,-195,0,0,0,0,0,0,0,0,0,-1,538,1219,0,0
-679,-195,-5.31274,1.9314,0.0994427,0.00541432,-0.0342041,0.110568,-0.00571147,-0.314482,0.075688,0.0479737,545,1219,-5.31272,-1.93143
-672,-195,-0.311646,-0.342407,0.0865419,0.00907527,-0.0361217,0.100771,-0.00515412,-0.375262,0.0689631,0.0421135,552,1219,-0.311654,0.342453
-665,-195,-0.184753,-0.0657959,0.0725945,0.0105882,-0.0344524,0.0879397,-0.00475699,-0.419023,0.0602747,0.0441015,559,1219,-0.184748,0.0657715
-658,-195,-0.0811768,0.421753,0.0589547,0.010752,-0.0308169,0.0739757,-0.00426895,-0.453539,0.0507999,0.0433187,566,1219,-0.0811825,-0.421767
-651,-195,-0.129333,0.76001,0.0463798,0.0100741,-0.0261886,0.0600918,-0.00363792,-0.482338,0.0413273,0.0430156,573,1219,-0.129343,-0.759968
-644,-195,-0.200562,0.731934,0.0353061,0.00889776,-0.0212435,0.0471146,-0.00291077,-0.507336,0.0324236,0.0393156,580,1219,-0.200579,-0.731912
-637,-195,-0.422546,0.696411,0.025937,0.007481,-0.0164728,0.0355904,-0.00217243,-0.530079,0.0244832,0.0202655,587,1219,-0.422532,-0.696451
-630,-195,-0.411438,0.697632,0.0192371,0.00644823,-0.0126299,0.0269991,-0.00131377,-0.551065,0.0184529,0.00731047,594,1219,-0.411466,-0.697664
-623,-195,-0.410706,0.716675,0.0118512,0.00520209,-0.00955637,0.0186448,-0.0015915,-0.618002,0.0129929,0.00734323,601,1219,-0.410727,-0.716723
-616,-195,-0.411926,0.744751,0.00631413,0.00342977,-0.00567328,0.0107257,-0.000981763,-0.660931,0.00749915,0.00934272,608,1219,-0.411928,-0.744803
-609,-195,-0.422607,0.790039,0.00220099,0.00221713,-0.00340862,0.00561769,-0.00119956,-0.786582,0.00420244,0.0169114,615,1219,-0.422602,-0.79009
-602,-195,-0.428772,0.797119,0.00055508,0.0015578,-0.00241874,0.00352659,-0.00141372,-0.887591,0.00293796,0.0206015,622,1219,-0.428747,-0.797143
-595,-195,-0.409912,0.80835,-0.000163199,0.000805835,-0.00101421,0.00144532,-0.000802679,-1.00824,0.00131544,0.0147428,629,1219,-0.409903,-0.80832
-588,-195,-0.401428,0.816162,-0.000653407,0.000659424,-0.00148669,0.00162816,-0.00162214,-0.993292,0.00187657,0.00775269,636,1219,-0.40141,-0.816107
-581,-195,-0.395935,0.823242,-0.000514974,0.000803204,-0.00210726,0.00235204,-0.00206381,-0.936964,0.0025513,0.0081226,643,1219,-0.395915,-0.823196
-574,-195,-0.386353,0.800659,-0.000583569,0.00106679,-0.00251131,0.00288501,-0.00240179,-0.944134,0.00305659,0.0186871,650,1219,-0.386328,-0.800679
-567,-195,-0.354248,0.742432,-0.000708825,0.0013475,-0.00269913,0.00320766,-0.00256899,-0.967375,0.00334194,0.0341955,657,1219,-0.354231,-0.742386
-560,-195,-0.38092,0.573608,-0.000914377,0.00155243,-0.00269822,0.00328579,-0.00264774,-0.999777,0.00343232,0.0435667,664,1219,-0.380933,-0.573555
-553,-195,-0.334839,0.654175,-0.000982495,0.00174532,-0.00255727,0.00327967,-0.00251684,-1.03038,0.00335627,0.0458807,671,1219,-0.334831,-0.654191
-546,-195,-0.566406,0.778931,-0.00106879,0.00187654,-0.00221047,0.00305998,-0.00225223,-1.07925,0.0030788,0.0439124,678,1219,-0.566421,-0.778957
-539,-195,-0.629028,0.836182,-0.00111978,0.00186082,-0.00162479,0.00257527,-0.00183424,-1.15652,0.00255779,0.0358454,685,1219,-0.629019,-0.836141
-532,-195,-0.588135,0.700562,-0.00109879,0.00156925,-0.000803096,0.00179234,-0.00132187,-1.29985,0.00180481,0.0344661,692,1219,-0.588153,-0.700604
-525,-195,-0.46521,0.596069,-0.000979345,0.000861275,0.000221119,0.000887466,-0.00100554,1.4529,0.00109363,0.0362136,699,1219,-0.465182,-0.596027
-518,-195,-0.449585,0.720703,-0.000675693,-0.00048019,0.00139006,0.00081555,-0.00197143,0.820501,0.00165455,0.0380363,706,1219,-0.449584,-0.720643
-511,-195,-0.469543,0.586182,-0.000128063,-0.00270886,0.00241947,0.00132361,-0.00416053,0.540417,0.00330447,0.040388,713,1219,-0.469528,-0.586207
-504,-195,0,0,0,0,0,0,0,0,0,-1,720,1219,0,0
-497,-195,0,0,0,0,0,0,0,0,0,-1,727,1219,0,0
-490,-195,0,0,0,0,0,0,0,0,0,-1,734,1219,0,0
-483,-195,0,0,0,0,0,0,0,0,0,-1,741,1219,0,0
-476,-195,0,0,0,0,0,0,0,0,0,-1,748,1219,0,0
-469,-195,0,0,0,0,0,0,0,0,0,-1,755,1219,0,0
-462,-195,0,0,0,0,0,0,0,0,0,-1,762,1219,0,0
-455,-195,0,0,0,0,0,0,0,0,0,-1,769,1219,0,0
-448,-195,0,0,0,0,0,0,0,0,0,-1,776,1219,0,0
-441,-195,0,0,0,0,0,0,0,0,0,-1,783,1219,0,0
-434,-195,0,0,0,0,0,0,0,0,0,-1,790,1219,0,0
-427,-195,0,0,0,0,0,0,0,0,0,-1,797,1219,0,0
-420,-195,0,0,0,0,0,0,0,0,0,-1,804,1219,0,0
-413,-195,0,0,0,0,0,0,0,0,0,-1,811,1219,0,0
-406,-195,0,0,0,0,0,0,0,0,0,-1,818,1219,0,0
-399,-195,0,0,0,0,0,0,0,0,0,-1,825,1219,0,0
-392,-195,0,0,0,0,0,0,0,0,0,-1,832,1219,0,0
-385,-195,0,0,0,0,0,0,0,0,0,-1,839,1219,0,0
-378,-195,0,0,0,0,0,0,0,0,0,-1,846,1219,0,0
-371,-195,0,0,0,0,0,0,0,0,0,-1,853,1219,0,0
-364,-195,0,0,0,0,0,0,0,0,0,-1,860,1219,0,0
-357,-195,0,0,0,0,0,0,0,0,0,-1,867,1219,0,0
-350,-195,0,0,0,0,0,0,0,0,0,-1,874,1219,0,0
-343,-195,0,0,0,0,0,0,0,0,0,-1,881,1219,0,0
-336,-195,0,0,0,0,0,0,0,0,0,-1,888,1219,0,0
-329,-195,0,0,0,0,0,0,0,0,0,-1,895,1219,0,0
-322,-195,0,0,0,0,0,0,0,0,0,-1,902,1219,0,0
-315,-195,0,0,0,0,0,0,0,0,0,-1,909,1219,0,0
-308,-195,0,0,0,0,0,0,0,0,0,-1,916,1219,0,0
-301,-195,0,0,0,0,0,0,0,0,0,-1,923,1219,0,0
-294,-195,0,0,0,0,0,0,0,0,0,-1,930,1219,0,0
-287,-195,0,0,0,0,0,0,0,0,0,-1,937,1219,0,0
-280,-195,0,0,0,0,0,0,0,0,0,-1,944,1219,0,0
-273,-195,0,0,0,0,0,0,0,0,0,-1,951,1219,0,0
-266,-195,0,0,0,0,0,0,0,0,0,-1,958,1219,0,0
-259,-195,0,0,0,0,0,0,0,0,0,-1,965,1219,0,0
-252,-195,0,0,0,0,0,0,0,0,0,-1,972,1219,0,0
-245,-195,0,0,0,0,0,0,0,0,0,-1,979,1219,0,0
-238,-195,0,0,0,0,0,0,0,0,0,-1,986,1219,0,0
-231,-195,0,0,0,0,0,0,0,0,0,-1,993,1219,0,0
-224,-195,0,0,0,0,0,0,0,0,0,-1,1000,1219,0,0
-217,-195,0,0,0,0,0,0,0,0,0,-1,1007,1219,0,0
-210,-195,0,0,0,0,0,0,0,0,0,-1,1014,1219,0,0
-203,-195,0,0,0,0,0,0,0,0,0,-1,1021,1219,0,0
-196,-195,0,0,0,0,0,0,0,0,0,-1,1028,1219,0,0
-189,-195,0,0,0,0,0,0,0,0,0,-1,1035,1219,0,0
-182,-195,0,0,0,0,0,0,0,0,0,-1,1042,1219,0,0
-175,-195,0,0,0,0,0,0,0,0,0,-1,1049,1219,0,0
-168,-195,0,0,0,0,0,0,0,0,0,-1,1056,1219,0,0
-161,-195,0,0,0,0,0,0,0,0,0,-1,1063,1219,0,0
-154,-195,0,0,0,0,0,0,0,0,0,-1,1070,1219,0,0
-147,-195,0,0,0,0,0,0,0,0,0,-1,1077,1219,0,0
-140,-195,0,0,0,0,0,0,0,0,0,-1,1084,1219,0,0
-133,-195,0,0,0,0,0,0,0,0,0,-1,1091,1219,0,0
-126,-195,0,0,0,0,0,0,0,0,0,-1,1098,1219,0,0
-119,-195,0,0,0,0,0,0,0,0,0,-1,1105,1219,0,0
-112,-195,0,0,0,0,0,0,0,0,0,-1,1112,1219,0,0
-105,-195,0,0,0,0,0,0,0,0,0,-1,1119,1219,0,0
-98,-195,0,0,0,0,0,0,0,0,0,-1,1126,1219,0,0
-91,-195,0,0,0,0,0,0,0,0,0,-1,1133,1219,0,0
-84,-195,0,0,0,0,0,0,0,0,0,-1,1140,1219,0,0
-77,-195,0,0,0,0,0,0,0,0,0,-1,1147,1219,0,0
-70,-195,0,0,0,0,0,0,0,0,0,-1,1154,1219,0,0
-63,-195,0,0,0,0,0,0,0,0,0,-1,1161,1219,0,0
-56,-195,0,0,0,0,0,0,0,0,0,-1,1168,1219,0,0
-49,-195,0,0,0,0,0,0,0,0,0,-1,1175,1219,0,0
-42,-195,0,0,0,0,0,0,0,0,0,-1,1182,1219,0,0
-35,-195,0,0,0,0,0,0,0,0,0,-1,1189,1219,0,0
-28,-195,0,0,0,0,0,0,0,0,0,-1,1196,1219,0,0
-21,-195,0,0,0,0,0,0,0,0,0,-1,1203,1219,0,0
-14,-195,0,0,0,0,0,0,0,0,0,-1,1210,1219,0,0
-7,-195,0,0,0,0,0,0,0,0,0,-1,1217,1219,0,0
0,-195,0,0,0,0,0,0,0,0,0,-1,1224,1219,0,0
7,-195,0,0,0,0,0,0,0,0,0,-1,1231,1219,0,0
14,-195,0,0,0,0,0,0,0,0,0,-1,1238,1219,0,0
21,-195,0,0,0,0,0,0,0,0,0,-1,1245,1219,0,0
28,-195,0,0,0,0,0,0,0,0,0,-1,1252,1219,0,0
35,-195,0,0,0,0,0,0,0,0,0,-1,1259,1219,0,0
42,-195,0,0,0,0,0,0,0,0,0,-1,1266,1219,0,0
49,-195,0,0,0,0,0,0,0,0,0,-1,1273,1219,0,0
56,-195,0,0,0,0,0,0,0,0,0,-1,1280,1219,0,0
63,-195,0,0,0,0,0,0,0,0,0,-1,1287,1219,0,0
70,-195,0,0,0,0,0,0,0,0,0,-1,1294,1219,0,0
77,-195,0,0,0,0,0,0,0,0,0,-1,1301,1219,0,0
84,-195,0,0,0,0,0,0,0,0,0,-1,1308,1219,0,0
91,-195,0,0,0,0,0,0,0,0,0,-1,1315,1219,0,0
98,-195,0,0,0,0,0,0,0,0,0,-1,1322,1219,0,0
105,-195,0,0,0,0,0,0,0,0,0,-1,1329,1219,0,0
112,-195,0,0,0,0,0,0,0,0,0,-1,1336,1219,0,0
119,-195,0,0,0,0,0,0,0,0,0,-1,1343,1219,0,0
126,-195,0,0,0,0,0,0,0,0,0,-1,1350,1219,0,0
133,-195,0,0,0,0,0,0,0,0,0,-1,1357,1219,0,0
140,-195,0,0,0,0,0,0,0,0,0,-1,1364,1219,0,0
147,-195,0,0,0,0,0,0,0,0,0,-1,1371,1219,0,0
154,-195,0,0,0,0,0,0,0,0,0,-1,1378,1219,0,0
161,-195,0,0,0,0,0,0,0,0,0,-1,1385,1219,0,0
168,-195,0,0,0,0,0,0,0,0,0,-1,1392,1219,0,0
175,-195,0,0,0,0,0,0,0,0,0,-1,1399,1219,0,0
182,-195,0,0,0,0,0,0,0,0,0,-1,1406,1219,0,0
189,-195,0,0,0,0,0,0,0,0,0,-1,1413,1219,0,0
196,-195,0,0,0,0,0,0,0,0,0,-1,1420,1219,0,0
203,-195,0,0,0,0,0,0,0,0,0,-1,1427,1219,0,0
210,-195,0,0,0,0,0,0,0,0,0,-1,1434,1219,0,0
217,-195,0,0,0,0,0,0,0,0,0,-1,1441,1219,0,0
224,-195,0,0,0,0,0,0,0,0,0,-1,1448,1219,0,0
231,-195,0,0,0,0,0,0,0,0,0,-1,1455,1219,0,0
238,-195,0,0,0,0,0,0,0,0,0,-1,1462,1219,0,0
245,-195,0,0,0,0,0,0,0,0,0,-1,1469,1219,0,0
252,-195,0,0,0,0,0,0,0,0,0,-1,1476,1219,0,0
259,-195,0,0,0,0,0,0,0,0,0,-1,1483,1219,0,0
266,-195,0,0,0,0,0,0,0,0,0,-1,1490,1219,0,0
273,-195,0,0,0,0,0,0,0,0,0,-1,1497,1219,0,0
280,-195,0,0,0,0,0,0,0,0,0,-1,1504,1219,0,0
287,-195,0,0,0,0,0,0,0,0,0,-1,1511,1219,0,0
294,-195,0,0,0,0,0,0,0,0,0,-1,1518,1219,0,0
301,-195,0,0,0,0,0,0,0,0,0,-1,1525,1219,0,0
308,-195,0,0,0,0,0,0,0,0,0,-1,1532,1219,0,0
315,-195,0,0,0,0,0,0,0,0,0,-1,1539,1219,0,0
322,-195,0,0,0,0,0,0,0,0,0,-1,1546,1219,0,0
329,-195,0,0,0,0,0,0,0,0,0,-1,1553,1219,0,0
336,-195,0,0,0,0,0,0,0,0,0,-1,1560,1219,0,0
343,-195,0,0,0,0,0,0,0,0,0,-1,1567,1219,0,0
350,-195,0,0,0,0,0,0,0,0,0,-1,1574,1219,0,0
357,-195,0,0,0,0,0,0,0,0,0,-1,1581,1219,0,0
364,-195,0,0,0,0,0,0,0,0,0,-1,1588,1219,0,0
371,-195,0,0,0,0,0,0,0,0,0,-1,1595,1219,0,0
378,-195,0,0,0,0,0,0,0,0,0,-1,1602,1219,0,0
385,-195,0,0,0,0,0,0,0,0,0,-1,1609,1219,0,0
392,-195,0,0,0,0,0,0,0,0,0,-1,1616,1219,0,0
399,-195,0,0,0,0,0,0,0,0,0,-1,1623,1219,0,0
406,-195,0,0,0,0,0,0,0,0,0,-1,1630,1219,0,0
413,-195,0,0,0,0,0,0,0,0,0,-1,1637,1219,0,0
420,-195,0,0,0,0,0,0,0,0,0,-1,1644,1219,0,0
427,-195,0,0,0,0,0,0,0,0,0,-1,1651,1219,0,0
434,-195,0,0,0,0,0,0,0,0,0,-1,1658,1219,0,0
441,-195,0,0,0,0,0,0,0,0,0,-1,1665,1219,0,0
448,-195,0,0,0,0,0,0,0,0,0,-1,1672,1219,0,0
455,-195,0,0,0,0,0,0,0,0,0,-1,1679,1219,0,0
462,-195,0,0,0,0,0,0,0,0,0,-1,1686,1219,0,0
469,-195,0,0,0,0,0,0,0,0,0,-1,1693,1219,0,0
476,-195,0,0,0,0,0,0,0,0,0,-1,1700,1219,0,0
483,-195,0,0,0,0,0,0,0,0,0,-1,1707,1219,0,0
490,-195,0,0,0,0,0,0,0,0,0,-1,1714,1219,0,0
497,-195,0,0,0,0,0,0,0,0,0,-1,1721,1219,0,0
504,-195,0,0,0,0,0,0,0,0,0,-1,1728,1219,0,0
511,-195,0,0,0,0,0,0,0,0,0,-1,1735,1219,0,0
518,-195,0,0,0,0,0,0,0,0,0,-1,1742,1219,0,0
525,-195,0,0,0,0,0,0,0,0,0,-1,1749,1219,0,0
532,-195,0,0,0,0,0,0,0,0,0,-1,1756,1219,0,0
539,-195,0,0,0,0,0,0,0,0,0,-1,1763,1219,0,0
546,-195,0,0,0,0,0,0,0,0,0,-1,1770,1219,0,0
553,-195,0,0,0,0,0,0,0,0,0,-1,1777,1219,0,0
560,-195,0,0,0,0,0,0,0,0,0,-1,1784,1219,0,0
567,-195,0,0,0,0,0,0,0,0,0,-1,1791,1219,0,0
574,-195,0,0,0,0,0,0,0,0,0,-1,1798,1219,0,0
581,-195,0,0,0,0,0,0,0,0,0,-1,1805,1219,0,0
588,-195,0,0,0,0,0,0,0,0,0,-1,1812,1219,0,0
595,-195,0,0,0,0,0,0,0,0,0,-1,1819,1219,0,0
602,-195,0,0,0,0,0,0,0,0,0,-1,1826,1219,0,0
609,-195,0,0,0,0,0,0,0,0,0,-1,1833,1219,0,0
616,-195,0,0,0,0,0,0,0,0,0,-1,1840,1219,0,0
623,-195,0,0,0,0,0,0,0,0,0,-1,1847,1219,0,0
630,-195,4.27686,0.513306,-0.0015237,0.00231084,-0.00106911,0.00258878,-0.00180164,-1.31646,0.00254835,0.0409212,1854,1219,4.2768,-0.5133
637,-195,4.27209,0.571533,0.00218041,0.00137783,-0.000978863,0.00283704,0.000721195,-0.590869,0.00170266,0.041257,1861,1219,4.27215,-0.57159
644,-195,4.22302,0.68457,0.00433968,0.000462959,-8.4817e-05,0.00434153,0.000461104,-0.0218646,0.00275355,0.0363696,1868,1219,4.22302,-0.684585
651,-195,4.25208,0.682983,0.00468032,-0.000306543,0.0010676,0.00489926,-0.000525486,0.202274,0.00345468,0.0267456,1875,1219,4.25202,-0.682961
658,-195,4.24207,0.628906,0.00427729,-0.000863416,0.00209169,0.00502083,-0.00160695,0.341542,0.00399217,0.0243835,1882,1219,4.24207,-0.628926
665,-195,4.25134,0.640503,0.00339735,-0.00120807,0.00287694,0.00477965,-0.00259036,0.447905,0.0043172,0.0244079,1889,1219,4.25128,-0.640562
672,-195,4.27429,0.577026,0.00228996,-0.00139824,0.00344681,0.00435498,-0.00346326,0.539765,0.00452364,0.0372457,1896,1219,4.27424,-0.577026
679,-195,4.2323,0.527466,0.00123524,-0.0013963,0.00374797,0.00389169,-0.00405274,0.616588,0.00458703,0.0489527,1903,1219,4.2323,-0.527506
686,-195,4.59924,0.666504,0.000233006,-0.00137333,0.00382734,0.00334054,-0.00448087,0.681974,0.00453167,0.0421342,1910,1219,4.59928,-0.666482
693,-195,4.31311,0.643921,-0.000791319,-0.00128304,0.00381525,0.00278598,-0.00486034,0.753222,0.00446843,0.0382475,1917,1219,4.31311,-0.643905
700,-195,3.9585,0.796143,-0.00147543,-0.00113526,0.00363142,0.00233006,-0.00494074,0.8088,0.00428705,0.0212089,1924,1219,3.95845,-0.796095
707,-195,3.96484,0.813477,-0.00191757,-0.000905234,0.00325854,0.00188622,-0.00470902,0.862451,0.0039223,0.0107223,1931,1219,3.9649,-0.813503
714,-195,3.97437,0.822632,-0.00234149,-0.000603954,0.0026441,0.00131045,-0.00425589,0.944126,0.00336036,0.012236,1938,1219,3.97431,-0.822638
721,-195,3.98645,0.795898,-0.002176,-0.000308569,0.00200808,0.000972267,-0.00345683,1.00302,0.00268791,0.0110998,1945,1219,3.98644,-0.795888
728,-195,3.99194,0.776367,-0.000692214,-0.000126655,0.00129316,0.000914282,-0.00173315,0.89304,0.00155268,0.0108523,1952,1219,3.99192,-0.776334
735,-195,3.99463,0.735474,0.000720736,-0.000730863,0.000587187,0.000928518,-0.000938644,0.340109,0.00107801,0.0129637,1959,1219,3.99457,-0.735507
742,-195,3.9834,0.693115,0.00302159,-0.000738673,-0.000461275,0.00307735,-0.000794431,-0.120295,0.00236135,0.013998,1966,1219,3.9834,-0.693101
749,-195,3.9873,0.661499,0.00575532,-0.000995724,-0.00164881,0.00613649,-0.00137689,-0.227187,0.00461888,0.0131183,1973,1219,3.98726,-0.661493
756,-195,3.98401,0.650146,0.00845772,-0.00133491,-0.00272374,0.00916432,-0.00204151,-0.253827,0.00689159,0.0118848,1980,1219,3.98407,-0.65014
763,-195,3.97791,0.625854,0.0116899,-0.00178336,-0.0040398,0.0128083,-0.00290181,-0.270091,0.00965266,0.0137723,1987,1219,3.9779,-0.625825
770,-195,3.98743,0.598999,0.0156103,-0.00224398,-0.00579775,0.0173278,-0.00396145,-0.287995,0.013074,0.0263889,1994,1219,3.98743,-0.599032
777,-195,4.09729,0.610107,0.0201499,-0.00260375,-0.00811407,0.022747,-0.00520083,-0.309768,0.017163,0.0430638,2001,1219,4.09734,-0.610068
784,-195,4.2395,0.630981,0.0251286,-0.00269684,-0.0111028,0.0290157,-0.00658403,-0.336771,0.0218714,0.0458468,2008,1219,4.23947,-0.631004
791,-195,4.33337,0.737305,0.030167,-0.00227641,-0.0149045,0.0359745,-0.00808393,-0.371552,0.0270829,0.046964,2015,1219,4.33343,-0.737345
798,-195,4.59277,0.598755,0.03466,-0.00103891,-0.0195785,0.0433044,-0.00968325,-0.415781,0.0325806,0.0423831,2022,1219,4.59273,-0.598707
805,-195,0,0,0,0,0,0,0,0,0,-1,2029,1219,0,0
812,-195,0,0,0,0,0,0,0,0,0,-1,2036,1219,0,0
-700,-202,0,0,0,0,0,0,0,0,0,-1,524,1226,0,0
-693,-202,0,0,0,0,0,0,0,0,0,-1,531,1226,0,0
-686,-202,0,0,0,0,0,0,0,0,0,-1,538,1226,0,0
-679,-202,-0.574463,-0.605347,0,0,0,0,0,0,0,-1,545,1226,-0.574493,0.605314
-672,-202,-0.319641,-0.358276,0.0842386,0.0115301,-0.033161,0.0970909,-0.00132223,-0.369747,0.0651725,0.0425774,552,1226,-0.319633,0.358269
-665,-202,0.0421143,-0.177734,0.0688363,0.0123887,-0.0311968,0.0826818,-0.00145678,-0.417695,0.0556132,0.0415318,559,1226,0.0421159,0.17768
-658,-202,0.330811,0.184204,0.0545868,0.0120375,-0.0274773,0.0680629,-0.0014386,-0.455974,0.0458623,0.0406561,566,1226,0.330795,-0.184146
-651,-202,0.126709,0.523193,0.0420017,0.0109688,-0.0229714,0.0542061,-0.00123563,-0.488362,0.0365562,0.0428888,573,1226,0.126707,-0.523141
-644,-202,-0.105164,0.546387,0.0313142,0.00950369,-0.0183187,0.0417279,-0.000910083,-0.516918,0.0281269,0.0418945,580,1226,-0.105172,-0.546361
-637,-202,-0.396973,0.671021,0.022557,0.00787806,-0.0139542,0.0309842,-0.000549154,-0.543296,0.0208416,0.0296875,587,1226,-0.396955,-0.670996
-630,-202,-0.375793,0.684326,0.0163947,0.0066284,-0.0104907,0.023083,-5.99595e-05,-0.567575,0.0154087,0.0124432,594,1226,-0.375809,-0.684281
-623,-202,-0.37146,0.701416,0.00952904,0.0052222,-0.00777037,0.0154389,-0.000687625,-0.650224,0.0105293,0.00777698,601,1226,-0.371435,-0.701395
-616,-202,-0.387939,0.736816,0.00467691,0.00341905,-0.00427398,0.00836799,-0.000272029,-0.712346,0.00567151,0.00814068,608,1226,-0.387948,-0.736831
-609,-202,-0.408386,0.763062,0.00127133,0.00221556,-0.00245485,0.00424328,-0.00075639,-0.880397,0.00311178,0.0194128,615,1226,-0.408365,-0.763037
-602,-202,-0.408997,0.780151,0.000182771,0.00137694,-0.00188139,0.00275372,-0.00119401,-0.939053,0.00233777,0.0199032,622,1226,-0.409002,-0.780153
-595,-202,-0.406189,0.810669,-9.28382e-05,0.000613769,-0.000945389,0.00126971,-0.000748784,-0.964219,0.00117825,0.0153666,629,1226,-0.406181,-0.810686
-588,-202,-0.365051,0.817505,-0.000336742,0.000342261,-0.00155215,0.00159161,-0.00158609,-0.893067,0.00183465,0.00798543,636,1226,-0.365021,-0.817526
-581,-202,-0.36853,0.808716,-0.00023607,0.000374211,-0.00227565,0.00236508,-0.00222694,-0.852045,0.00265161,0.00950541,643,1226,-0.368528,-0.808767
-574,-202,-0.376099,0.797485,-0.000378562,0.00057855,-0.00272795,0.0028696,-0.00266961,-0.872228,0.00319876,0.0123561,650,1226,-0.376083,-0.797428
-567,-202,-0.40448,0.819214,-0.000574203,0.000756979,-0.00297049,0.00313553,-0.00295276,-0.895612,0.0035156,0.0278678,657,1226,-0.40446,-0.819187
-560,-202,-0.435181,0.620605,-0.000867139,0.000873889,-0.00300712,0.00313396,-0.00312721,-0.926289,0.00361489,0.0405756,664,1226,-0.435208,-0.620652
-553,-202,-0.474548,0.421143,-0.00105624,0.00100273,-0.00289414,0.00304503,-0.00309854,-0.956276,0.00354704,0.0465929,671,1226,-0.474556,-0.421157
-546,-202,-0.48291,0.480957,-0.00132871,0.00111205,-0.00257007,0.00273677,-0.00295343,-1.00706,0.00328603,0.0445628,678,1226,-0.482921,-0.480927
-539,-202,-0.515137,0.615967,-0.00163302,0.00113715,-0.00198532,0.0021728,-0.00266867,-1.08998,0.00280011,0.0396879,685,1226,-0.515147,-0.615991
-532,-202,-0.539551,0.718262,-0.00193903,0.000985985,-0.00113975,0.00137765,-0.0023307,-1.2398,0.00216445,0.0309851,692,1226,-0.539565,-0.718234
-525,-202,-0.531311,0.70459,-0.00221768,0.0005593,-6.19665e-05,0.000560682,-0.00221907,-1.5485,0.00169742,0.0352946,699,1226,-0.531289,-0.704605
-518,-202,-0.52832,0.785034,-0.00236743,-0.00030362,0.00118941,0.000239129,-0.00291018,1.1427,0.00202454,0.0396308,706,1226,-0.52833,-0.784974
-511,-202,-0.569153,0.780396,-0.00230614,-0.001792,0.00239153,0.00035624,-0.00445438,0.838939,0.00309517,0.0424745,713,1226,-0.569139,-0.780405
-504,-202,0,0,0,0,0,0,0,0,0,-1,720,1226,0,0
-497,-202,0,0,0,0,0,0,0,0,0,-1,727,1226,0,0
-490,-202,0,0,0,0,0,0,0,0,0,-1,734,1226,0,0
-483,-202,0,0,0,0,0,0,0,0,0,-1,741,1226,0,0
-476,-202,0,0,0,0,0,0,0,0,0,-1,748,1226,0,0
-469,-202,0,0,0,0,0,0,0,0,0,-1,755,1226,0,0
-462,-202,0,0,0,0,0,0,0,0,0,-1,762,1226,0,0
-455,-202,0,0,0,0,0,0,0,0,0,-1,769,1226,0,0
-448,-202,0,0,0,0,0,0,0,0,0,-1,776,1226,0,0
-441,-202,0,0,0,0,0,0,0,0,0,-1,783,1226,0,0
-434,-202,0,0,0,0,0,0,0,0,0,-1,790,1226,0,0
-427,-202,0,0,0,0,0,0,0,0,0,-1,797,1226,0,0
-420,-202,0,0,0,0,0,0,0,0,0,-1,804,1226,0,0
-413,-202,0,0,0,0,0,0,0,0,0,-1,811,1226,0,0
-406,-202,0,0,0,0,0,0,0,0,0,-1,818,1226,0,0
-399,-202,0,0,0,0,0,0,0,0,0,-1,825,1226,0,0
-392,-202,0,0,0,0,0,0,0,0,0,-1,832,1226,0,0
-385,-202,0,0,0,0,0,0,0,0,0,-1,839,1226,0,0
-378,-202,0,0,0,0,0,0,0,0,0,-1,846,1226,0,0
-371,-202,0,0,0,0,0,0,0,0,0,-1,853,1226,0,0
-364,-202,0,0,0,0,0,0,0,0,0,-1,860,1226,0,0
-357,-202,0,0,0,0,0,0,0,0,0,-1,867,1226,0,0
-350,-202,0,0,0,0,0,0,0,0,0,-1,874,1226,0,0
-343,-202,0,0,0,0,0,0,0,0,0,-1,881,1226,0,0
-336,-202,0,0,0,0,0,0,0,0,0,-1,888,1226,0,0
-329,-202,0,0,0,0,0,0,0,0,0,-1,895,1226,0,0
-322,-202,0,0,0,0,0,0,0,0,0,-1,902,1226,0,0
-315,-202,0,0,0,0,0,0,0,0,0,-1,909,1226,0,0
-308,-202,0,0,0,0,0,0,0,0,0,-1,916,1226,0,0
-301,-202,0,0,0,0,0,0,0,0,0,-1,923,1226,0,0
-294,-202,0,0,0,0,0,0,0,0,0,-1,930,1226,0,0
-287,-202,0,0,0,0,0,0,0,0,0,-1,937,1226,0,0
-280,-202,0,0,0,0,0,0,0,0,0,-1,944,1226,0,0
-273,-202,0,0,0,0,0,0,0,0,0,-1,951,1226,0,0
-266,-202,0,0,0,0,0,0,0,0,0,-1,958,1226,0,0
-259,-202,0,0,0,0,0,0,0,0,0,-1,965,1226,0,0
-252,-202,0,0,0,0,0,0,0,0,0,-1,972,1226,0,0
-245,-202,0,0,0,0,0,0,0,0,0,-1,979,1226,0,0
-238,-202,0,0,0,0,0,0,0,0,0,-1,986,1226,0,0
-231,-202,0,0,0,0,0,0,0,0,0,-1,993,1226,0,0
-224,-202,0,0,0,0,0,0,0,0,0,-1,1000,1226,0,0
-217,-202,0,0,0,0,0,0,0,0,0,-1,1007,1226,0,0
-210,-202,0,0,0,0,0,0,0,0,0,-1,1014,1226,0,0
-203,-202,0,0,0,0,0,0,0,0,0,-1,1021,1226,0,0
-196,-202,0,0,0,0,0,0,0,0,0,-1,1028,1226,0,0
-189,-202,0,0,0,0,0,0,0,0,0,-1,1035,1226,0,0
-182,-202,0,0,0,0,0,0,0,0,0,-1,1042,1226,0,0
-175,-202,0,0,0,0,0,0,0,0,0,-1,1049,1226,0,0
-168,-202,0,0,0,0,0,0,0,0,0,-1,1056,1226,0,0
-161,-202,0,0,0,0,0,0,0,0,0,-1,1063,1226,0,0
-154,-202,0,0,0,0,0,0,0,0,0,-1,1070,1226,0,0
-147,-202,0,0,0,0,0,0,0,0,0,-1,1077,1226,0,0
-140,-202,0,0,0,0,0,0,0,0,0,-1,1084,1226,0,0
-133,-202,0,0,0,0,0,0,0,0,0,-1,1091,1226,0,0
-126,-202,0,0,0,0,0,0,0,0,0,-1,1098,1226,0,0
-119,-202,0,0,0,0,0,0,0,0,0,-1,1105,1226,0,0
-112,-202,0,0,0,0,0,0,0,0,0,-1,1112,1226,0,0
-105,-202,0,0,0,0,0,0,0,0,0,-1,1119,1226,0,0
-98,-202,0,0,0,0,0,0,0,0,0,-1,1126,1226,0,0
-91,-202,0,0,0,0,0,0,0,0,0,-1,1133,1226,0,0
-84,-202,0,0,0,0,0,0,0,0,0,-1,1140,1226,0,0
-77,-202,0,0,0,0,0,0,0,0,0,-1,1147,1226,0,0
-70,-202,0,0,0,0,0,0,0,0,0,-1,1154,1226,0,0
-63,-202,0,0,0,0,0,0,0,0,0,-1,1161,1226,0,0
-56,-202,0,0,0,0,0,0,0,0,0,-1,1168,1226,0,0
-49,-202,0,0,0,0,0,0,0,0,0,-1,1175,1226,0,0
-42,-202,0,0,0,0,0,0,0,0,0,-1,1182,1226,0,0
-35,-202,0,0,0,0,0,0,0,0,0,-1,1189,1226,0,0
-28,-202,0,0,0,0,0,0,0,0,0,-1,1196,1226,0,0
-21,-202,0,0,0,0,0,0,0,0,0,-1,1203,1226,0,0
-14,-202,0,0,0,0,0,0,0,0,0,-1,1210,1226,0,0
-7,-202,0,0,0,0,0,0,0,0,0,-1,1217,1226,0,0
0,-202,0,0,0,0,0,0,0,0,0,-1,1224,1226,0,0
7,-202,0,0,0,0,0,0,0,0,0,-1,1231,1226,0,0
14,-202,0,0,0,0,0,0,0,0,0,-1,1238,1226,0,0
21,-202,0,0,0,0,0,0,0,0,0,-1,1245,1226,0,0
28,-202,0,0,0,0,0,0,0,0,0,-1,1252,1226,0,0
35,-202,0,0,0,0,0,0,0,0,0,-1,1259,1226,0,0
42,-202,0,0,0,0,0,0,0,0,0,-1,1266,1226,0,0
49,-202,0,0,0,0,0,0,0,0,0,-1,1273,1226,0,0
56,-202,0,0,0,0,0,0,0,0,0,-1,1280,1226,0,0
63,-202,0,0,0,0,0,0,0,0,0,-1,1287,1226,0,0
70,-202,0,0,0,0,0,0,0,0,0,-1,1294,1226,0,0
77,-202,0,0,0,0,0,0,0,0,0,-1,1301,1226,0,0
84,-202,0,0,0,0,0,0,0,0,0,-1,1308,1226,0,0
91,-202,0,0,0,0,0,0,0,0,0,-1,1315,1226,0,0
98,-202,0,0,0,0,0,0,0,0,0,-1,1322,1226,0,0
105,-202,0,0,0,0,0,0,0,0,0,-1,1329,1226,0,0
112,-202,0,0,0,0,0,0,0,0,0,-1,1336,1226,0,0
119,-202,0,0,0,0,0,0,0,0,0,-1,1343,1226,0,0
126,-202,0,0,0,0,0,0,0,0,0,-1,1350,1226,0,0
133,-202,0,0,0,0,0,0,0,0,0,-1,1357,1226,0,0
140,-202,0,0,0,0,0,0,0,0,0,-1,1364,1226,0,0
147,-202,0,0,0,0,0,0,0,0,0,-1,1371,1226,0,0
154,-202,0,0,0,0,0,0,0,0,0,-1,1378,1226,0,0
161,-202,0,0,0,0,0,0,0,0,0,-1,1385,1226,0,0
168,-202,0,0,0,0,0,0,0,0,0,-1,1392,1226,0,0
175,-202,0,0,0,0,0,0,0,0,0,-1,1399,1226,0,0
182,-202,0,0,0,0,0,0,0,0,0,-1,1406,1226,0,0
189,-202,0,0,0,0,0,0,0,0,0,-1,1413,1226,0,0
196,-202,0,0,0,0,0,0,0,0,0,-1,1420,1226,0,0
203,-202,0,0,0,0,0,0,0,0,0,-1,1427,1226,0,0
210,-202,0,0,0,0,0,0,0,0,0,-1,1434,1226,0,0
217,-202,0,0,0,0,0,0,0,0,0,-1,1441,1226,0,0
224,-202,0,0,0,0,0,0,0,0,0,-1,1448,1226,0,0
231,-202,0,0,0,0,0,0,0,0,0,-1,1455,1226,0,0
238,-202,0,0,0,0,0,0,0,0,0,-1,1462,1226,0,0
245,-202,0,0,0,0,0,0,0,0,0,-1,1469,1226,0,0
252,-202,0,0,0,0,0,0,0,0,0,-1,1476,1226,0,0
259,-202,0,0,0,0,0,0,0,0,0,-1,1483,1226,0,0
266,-202,0,0,0,0,0,0,0,0,0,-1,1490,1226,0,0
273,-202,0,0,0,0,0,0,0,0,0,-1,1497,1226,0,0
280,-202,0,0,0,0,0,0,0,0,0,-1,1504,1226,0,0
287,-202,0,0,0,0,0,0,0,0,0,-1,1511,1226,0,0
294,-202,0,0,0,0,0,0,0,0,0,-1,1518,1226,0,0
301,-202,0,0,0,0,0,0,0,0,0,-1,1525,1226,0,0
308,-202,0,0,0,0,0,0,0,0,0,-1,1532,1226,0,0
315,-202,0,0,0,0,0,0,0,0,0,-1,1539,1226,0,0
322,-202,0,0,0,0,0,0,0,0,0,-1,1546,1226,0,0
329,-202,0,0,0,0,0,0,0,0,0,-1,1553,1226,0,0
336,-202,0,0,0,0,0,0,0,0,0,-1,1560,1226,0,0
343,-202,0,0,0,0,0,0,0,0,0,-1,1567,1226,0,0
350,-202,0,0,0,0,0,0,0,0,0,-1,1574,1226,0,0
357,-202,0,0,0,0,0,0,0,0,0,-1,1581,1226,0,0
364,-202,0,0,0,0,0,0,0,0,0,-1,1588,1226,0,0
371,-202,0,0,0,0,0,0,0,0,0,-1,1595,1226,0,0
378,-202,0,0,0,0,0,0,0,0,0,-1,1602,1226,0,0
385,-202,0,0,0,0,0,0,0,0,0,-1,1609,1226,0,0
392,-202,0,0,0,0,0,0,0,0,0,-1,1616,1226,0,0
399,-202,0,0,0,0,0,0,0,0,0,-1,1623,1226,0,0
406,-202,0,0,0,0,0,0,0,0,0,-1,1630,1226,0,0
413,-202,0,0,0,0,0,0,0,0,0,-1,1637,1226,0,0
420,-202,0,0,0,0,0,0,0,0,0,-1,1644,1226,0,0
427,-202,0,0,0,0,0,0,0,0,0,-1,1651,1226,0,0
434,-202,0,0,0,0,0,0,0,0,0,-1,1658,1226,0,0
441,-202,0,0,0,0,0,0,0,0,0,-1,1665,1226,0,0
448,-202,0,0,0,0,0,0,0,0,0,-1,1672,1226,0,0
455,-202,0,0,0,0,0,0,0,0,0,-1,1679,1226,0,0
462,-202,0,0,0,0,0,0,0,0,0,-1,1686,1226,0,0
469,-202,0,0,0,0,0,0,0,0,0,-1,1693,1226,0,0
476,-202,0,0,0,0,0,0,0,0,0,-1,1700,1226,0,0
483,-202,0,0,0,0,0,0,0,0,0,-1,1707,1226,0,0
490,-202,0,0,0,0,0,0,0,0,0,-1,1714,1226,0,0
497,-202,0,0,0,0,0,0,0,0,0,-1,1721,1226,0,0
504,-202,0,0,0,0,0,0,0,0,0,-1,1728,1226,0,0
511,-202,0,0,0,0,0,0,0,0,0,-1,1735,1226,0,0
518,-202,0,0,0,0,0,0,0,0,0,-1,1742,1226,0,0
525,-202,0,0,0,0,0,0,0,0,0,-1,1749,1226,0,0
532,-202,0,0,0,0,0,0,0,0,0,-1,1756,1226,0,0
539,-202,0,0,0,0,0,0,0,0,0,-1,1763,1226,0,0
546,-202,0,0,0,0,0,0,0,0,0,-1,1770,1226,0,0
553,-202,0,0,0,0,0,0,0,0,0,-1,1777,1226,0,0
560,-202,0,0,0,0,0,0,0,0,0,-1,1784,1226,0,0
567,-202,0,0,0,0,0,0,0,0,0,-1,1791,1226,0,0
574,-202,0,0,0,0,0,0,0,0,0,-1,1798,1226,0,0
581,-202,0,0,0,0,0,0,0,0,0,-1,1805,1226,0,0
588,-202,0,0,0,0,0,0,0,0,0,-1,1812,1226,0,0
595,-202,0,0,0,0,0,0,0,0,0,-1,1819,1226,0,0
602,-202,0,0,0,0,0,0,0,0,0,-1,1826,1226,0,0
609,-202,0,0,0,0,0,0,0,0,0,-1,1833,1226,0,0
616,-202,0,0,0,0,0,0,0,0,0,-1,1840,1226,0,0
623,-202,0,0,0,0,0,0,0,0,0,-1,1847,1226,0,0
630,-202,4.23621,0.616577,-0.00187645,0.00168656,-0.0011952,0.00205034,-0.00224023,-1.27533,0.00247797,0.0381866,1854,1226,4.23625,-0.616626
637,-202,4.31604,0.635132,0.00219749,0.00171687,-0.000551584,0.00255884,0.00135552,-0.579959,0.00147822,0.0358718,1861,1226,4.3161,-0.635074
644,-202,4.32788,0.643921,0.0044643,0.00132888,0.000856713,0.00468311,0.00111006,0.250066,0.00282569,0.0324893,1868,1226,4.32789,-0.643963
651,-202,4.33862,0.620239,0.00500029,0.000836399,0.00233503,0.00604674,-0.000210052,0.421317,0.00410297,0.0261429,1875,1226,4.33864,-0.620286
658,-202,4.31921,0.592773,0.00474846,0.000370357,0.00352607,0.00670972,-0.0015909,0.507604,0.00508706,0.0224736,1882,1226,4.31922,-0.592757
665,-202,4.31702,0.600464,0.0039547,-1.78175e-05,0.00437304,0.00677143,-0.00283455,0.572226,0.00569916,0.022816,1889,1226,4.317,-0.600503
672,-202,4.40173,0.67627,0.00286495,-0.000341584,0.0049242,0.00644031,-0.00391694,0.628016,0.00603863,0.0483165,1896,1226,4.40175,-0.676303
679,-202,4.32336,0.303345,0.00180272,-0.00049671,0.00514015,0.00592017,-0.00461416,0.675373,0.00609756,0.0457086,1903,1226,4.32342,-0.303358
686,-202,4.71643,0.476318,0.000764602,-0.00065573,0.00510618,0.00520977,-0.0051009,0.716302,0.00595298,0.043531,1910,1226,4.71639,-0.476371
693,-202,4.36206,0.713257,-0.000307581,-0.000778371,0.00493847,0.0044011,-0.00548706,0.761583,0.0057204,0.0379222,1917,1226,4.36209,-0.713301
700,-202,3.95056,0.803711,0,0,0,0,0,0,0,-1,1924,1226,3.95051,-0.803686
707,-202,3.9353,0.817627,-0.00171054,-0.000734554,0.00398592,0.00279313,-0.00523823,0.84631,0.00470799,0.0143079,1931,1226,3.93527,-0.817629
714,-202,3.94604,0.825928,-0.00215913,-0.00049312,0.00312769,0.0019106,-0.00456284,0.915543,0.00384058,0.0130139,1938,1226,3.94603,-0.825897
721,-202,3.96082,0.81311,-0.00191503,-0.000450615,0.00228101,0.00121283,-0.00357847,0.940704,0.00287645,0.0111478,1945,1226,3.96085,-0.813108
728,-202,3.95886,0.779297,-0.000107611,-0.000331204,0.00138571,0.00117081,-0.00160962,0.745147,0.00161193,0.011038,1952,1226,3.95886,-0.779285
735,-202,3.97021,0.734253,0.0016477,-0.00106699,0.000594606,0.00177223,-0.00119151,0.206443,0.00172203,0.0113746,1959,1226,3.97021,-0.73426
742,-202,3.99121,0.700073,0.00437788,-0.00114909,-0.000479185,0.00441912,-0.00119033,-0.0858459,0.00341276,0.00993937,1966,1226,3.99125,-0.700073
749,-202,3.98218,0.677124,0.00761266,-0.00154923,-0.00159433,0.00788217,-0.00181874,-0.167461,0.00595435,0.00908786,1973,1226,3.98223,-0.677074
756,-202,3.9635,0.642944,0.0109363,-0.00213446,-0.00256797,0.0114227,-0.00262088,-0.1872,0.00862259,0.0096536,1980,1226,3.96353,-0.642969
763,-202,3.93872,0.618652,0.0149475,-0.00285074,-0.00376672,0.0157119,-0.00361509,-0.200202,0.0118646,0.0143619,1987,1226,3.93869,-0.618644
770,-202,3.91528,0.667969,0.0197743,-0.00358935,-0.0053684,0.0209488,-0.00476383,-0.215385,0.0157951,0.0377372,1994,1226,3.91531,-0.667957
777,-202,4.19836,0.518433,0.0252969,-0.00421071,-0.00746694,0.0270788,-0.00599262,-0.234259,0.0203464,0.0458007,2001,1226,4.19833,-0.518467
784,-202,4.26819,0.360229,0,0,0,0,0,0,0,-1,2008,1226,4.26819,-0.36024
791,-202,4.3551,0.503418,0.0372674,-0.00413911,-0.0135917,0.0413302,-0.00820193,-0.290465,0.0306554,0.0475468,2015,1226,4.35513,-0.503408
798,-202,4.60022,0.0889893,0.0424575,-0.00272009,-0.017757,0.0486013,-0.00886391,-0.333102,0.035724,0.0443981,2022,1226,4.60017,-0.0890068
805,-202,0,0,0,0,0,0,0,0,0,-1,2029,1226,0,0
812,-202,0,0,0,0,0,0,0,0,0,-1,2036,1226,0,0
-700,-209,0,0,0,0,0,0,0,0,0,-1,524,1233,0,0
-693,-209,0,0,0,0,0,0,0,0,0,-1,531,1233,0,0
-686,-209,0,0,0,0,0,0,0,0,0,-1,538,1233,0,0
-679,-209,-0.391357,-0.862793,0.0946009,0.0115394,-0.0272882,0.102764,0.00337658,-0.290661,0.0674118,0.0461445,545,1233,-0.39138,0.862849
-672,-209,-0.0394287,-0.411011,0.076855,0.0133703,-0.0283541,0.0876747,0.00255054,-0.364539,0.0576184,0.043712,552,1233,-0.0394567,0.41098
-665,-209,0.241516,-0.200806,0.0607232,0.0134393,-0.0262748,0.0724267,0.00173573,-0.419047,0.0477164,0.0409759,559,1233,0.2415,0.200793
-658,-209,0.599182,-0.449097,0.0467142,0.0125536,-0.0227669,0.0580957,0.0011722,-0.463576,0.0383457,0.0422755,566,1233,0.599191,0.449075
-651,-209,0.204163,0.264282,0,0,0,0,0,0,0,-1,573,1233,0.204191,-0.264282
-644,-209,0.0228271,0.390869,0.0254133,0.00948683,-0.0147046,0.0341724,0.000727721,-0.537232,0.022543,0.0457948,580,1233,0.0228156,-0.390867
-637,-209,-0.15387,0.475586,0.0178785,0.00776263,-0.0110366,0.024961,0.000680149,-0.570536,0.0164187,0.0415935,587,1233,-0.153879,-0.475632
-630,-209,-0.327454,0.63855,0.012672,0.00638305,-0.00813313,0.0182474,0.000807696,-0.600936,0.0119048,0.0219869,594,1233,-0.327454,-0.638568
-623,-209,-0.350159,0.692749,0.00673623,0.00491493,-0.00596061,0.0118553,-0.000204192,-0.709595,0.0079725,0.0109829,601,1233,-0.350161,-0.692707
-616,-209,-0.360291,0.729004,0.00285313,0.00320227,-0.00298418,0.00601698,3.84119e-05,-0.814614,0.00399858,0.0112413,608,1233,-0.360311,-0.728955
-609,-209,-0.37915,0.749634,0.000290528,0.00214957,-0.00161737,0.0030855,-0.000645397,-1.04621,0.00230248,0.0128342,615,1233,-0.379175,-0.749583
-602,-209,-0.379089,0.778442,-0.00020972,0.00118627,-0.00145058,0.00209806,-0.0011215,-1.00964,0.0018871,0.0144644,622,1233,-0.379109,-0.778418
-595,-209,-0.359863,0.813843,-3.52621e-05,0.000450308,-0.000979218,0.00121639,-0.000801343,-0.906917,0.00117312,0.0116064,629,1233,-0.359885,-0.813852
-588,-209,-0.352417,0.830078,-3.71342e-05,3.55569e-05,-0.0016805,0.0016801,-0.00168168,-0.79621,0.00194093,0.0130585,636,1233,-0.352399,-0.830056
-581,-209,-0.34314,0.836426,-1.59333e-05,-8.01594e-05,-0.00242023,0.0023724,-0.00246849,-0.778764,0.00279507,0.0116253,643,1233,-0.34317,-0.836484
-574,-209,-0.345642,0.838379,-0.000262771,0.000101846,-0.00282618,0.00275159,-0.00291252,-0.817607,0.00327061,0.0103004,650,1233,-0.345671,-0.838325
-567,-209,-0.354126,0.885376,-0.000515849,0.000146629,-0.00301838,0.00285189,-0.00322111,-0.84005,0.00350841,0.021441,657,1233,-0.354134,-0.885422
-560,-209,-0.371948,0.924927,-0.000896923,0.0001633,-0.00301452,0.00269396,-0.00342758,-0.872435,0.00354272,0.0437258,664,1233,-0.371928,-0.924947
-553,-209,-0.394409,0.961548,0,0,0,0,0,0,0,-1,671,1233,-0.394405,-0.961563
-546,-209,-0.33313,0.244507,-0.00169058,0.000356073,-0.00250497,0.00203868,-0.00337319,-0.979312,0.00315605,0.04338,678,1233,-0.333151,-0.244459
-539,-209,-0.397034,0.428955,-0.00226849,0.000451289,-0.00186955,0.00140322,-0.00322043,-1.09983,0.00273733,0.0401154,685,1233,-0.39706,-0.428951
-532,-209,-0.501587,0.698364,-0.00289292,0.000491585,-0.000989471,0.000759631,-0.00316097,-1.30625,0.00240092,0.0334723,692,1233,-0.501617,-0.698329
-525,-209,-0.516418,0.740234,-0.00353717,0.000428763,8.17586e-05,0.000430448,-0.00353885,1.55019,0.00251503,0.0350535,699,1233,-0.516388,-0.740275
-518,-209,-0.569702,0.815674,-0.00408874,0.00016776,0.00124877,0.000507077,-0.00442806,1.30548,0.00313476,0.0425335,706,1233,-0.569711,-0.815709
-511,-209,-0.702576,0.834839,-0.00442904,-0.000410621,0.00227299,0.000613878,-0.00545354,1.14734,0.00385664,0.0420586,713,1233,-0.702605,-0.834858
-504,-209,0,0,0,0,0,0,0,0,0,-1,720,1233,0,0
-497,-209,0,0,0,0,0,0,0,0,0,-1,727,1233,0,0
-490,-209,0,0,0,0,0,0,0,0,0,-1,734,1233,0,0
-483,-209,0,0,0,0,0,0,0,0,0,-1,741,1233,0,0
-476,-209,0,0,0,0,0,0,0,0,0,-1,748,1233,0,0
-469,-209,0,0,0,0,0,0,0,0,0,-1,755,1233,0,0
-462,-209,0,0,0,0,0,0,0,0,0,-1,762,1233,0,0
-455,-209,0,0,0,0,0,0,0,0,0,-1,769,1233,0,0
-448,-209,0,0,0,0,0,0,0,0,0,-1,776,1233,0,0
-441,-209,0,0,0,0,0,0,0,0,0,-1,783,1233,0,0
-434,-209,0,0,0,0,0,0,0,0,0,-1,790,1233,0,0
-427,-209,0,0,0,0,0,0,0,0,0,-1,797,1233,0,0
-420,-209,0,0,0,0,0,0,0,0,0,-1,804,1233,0,0
-413,-209,0,0,0,0,0,0,0,0,0,-1,811,1233,0,0
-406,-209,0,0,0,0,0,0,0,0,0,-1,818,1233,0,0
-399,-209,0,0,0,0,0,0,0,0,0,-1,825,1233,0,0
-392,-209,0,0,0,0,0,0,0,0,0,-1,832,1233,0,0
-385,-209,0,0,0,0,0,0,0,0,0,-1,839,1233,0,0
-378,-209,0,0,0,0,0,0,0,0,0,-1,846,1233,0,0
-371,-209,0,0,0,0,0,0,0,0,0,-1,853,1233,0,0
-364,-209,0,0,0,0,0,0,0,0,0,-1,860,1233,0,0
-357,-209,0,0,0,0,0,0,0,0,0,-1,867,1233,0,0
-350,-209,0,0,0,0,0,0,0,0,0,-1,874,1233,0,0
-343,-209,0,0,0,0,0,0,0,0,0,-1,881,1233,0,0
-336,-209,0,0,0,0,0,0,0,0,0,-1,888,1233,0,0
-329,-209,0,0,0,0,0,0,0,0,0,-1,895,1233,0,0
-322,-209,0,0,0,0,0,0,0,0,0,-1,902,1233,0,0
-315,-209,0,0,0,0,0,0,0,0,0,-1,909,1233,0,0
-308,-209,0,0,0,0,0,0,0,0,0,-1,916,1233,0,0
-301,-209,0,0,0,0,0,0,0,0,0,-1,923,1233,0,0
-294,-209,0,0,0,0,0,0,0,0,0,-1,930,1233,0,0
-287,-209,0,0,0,0,0,0,0,0,0,-1,937,1233,0,0
-280,-209,0,0,0,0,0,0,0,0,0,-1,944,1233,0,0
-273,-209,0,0,0,0,0,0,0,0,0,-1,951,1233,0,0
-266,-209,0,0,0,0,0,0,0,0,0,-1,958,1233,0,0
-259,-209,0,0,0,0,0,0,0,0,0,-1,965,1233,0,0
-252,-209,0,0,0,0,0,0,0,0,0,-1,972,1233,0,0
-245,-209,0,0,0,0,0,0,0,0,0,-1,979,1233,0,0
-238,-209,0,0,0,0,0,0,0,0,0,-1,986,1233,0,0
-231,-209,0,0,0,0,0,0,0,0,0,-1,993,1233,0,0
-224,-209,0,0,0,0,0,0,0,0,0,-1,1000,1233,0,0
-217,-209,0,0,0,0,0,0,0,0,0,-1,1007,1233,0,0
-210,-209,0,0,0,0,0,0,0,0,0,-1,1014,1233,0,0
-203,-209,0,0,0,0,0,0,0,0,0,-1,1021,1233,0,0
-196,-209,0,0,0,0,0,0,0,0,0,-1,1028,1233,0,0
-189,-209,0,0,0,0,0,0,0,0,0,-1,1035,1233,0,0
-182,-209,0,0,0,0,0,0,0,0,0,-1,1042,1233,0,0
-175,-209,0,0,0,0,0,0,0,0,0,-1,1049,1233,0,0
-168,-209,0,0,0,0,0,0,0,0,0,-1,1056,1233,0,0
-161,-209,0,0,0,0,0,0,0,0,0,-1,1063,1233,0,0
-154,-209,0,0,0,0,0,0,0,0,0,-1,1070,1233,0,0
-147,-209,0,0,0,0,0,0,0,0,0,-1,1077,1233,0,0
-140,-209,0,0,0,0,0,0,0,0,0,-1,1084,1233,0,0
-133,-209,0,0,0,0,0,0,0,0,0,-1,1091,1233,0,0
-126,-209,0,0,0,0,0,0,0,0,0,-1,1098,1233,0,0
-119,-209,0,0,0,0,0,0,0,0,0,-1,1105,1233,0,0
-112,-209,0,0,0,0,0,0,0,0,0,-1,1112,1233,0,0
-105,-209,0,0,0,0,0,0,0,0,0,-1,1119,1233,0,0
-98,-209,0,0,0,0,0,0,0,0,0,-1,1126,1233,0,0
-91,-209,0,0,0,0,0,0,0,0,0,-1,1133,1233,0,0
-84,-209,0,0,0,0,0,0,0,0,0,-1,1140,1233,0,0
-77,-209,0,0,0,0,0,0,0,0,0,-1,1147,1233,0,0
-70,-209,0,0,0,0,0,0,0,0,0,-1,1154,1233,0,0
-63,-209,0,0,0,0,0,0,0,0,0,-1,1161,1233,0,0
-56,-209,0,0,0,0,0,0,0,0,0,-1,1168,1233,0,0
-49,-209,0,0,0,0,0,0,0,0,0,-1,1175,1233,0,0
-42,-209,0,0,0,0,0,0,0,0,0,-1,1182,1233,0,0
-35,-209,0,0,0,0,0,0,0,0,0,-1,1189,1233,0,0
-28,-209,0,0,0,0,0,0,0,0,0,-1,1196,1233,0,0
-21,-209,0,0,0,0,0,0,0,0,0,-1,1203,1233,0,0
-14,-209,0,0,0,0,0,0,0,0,0,-1,1210,1233,0,0
-7,-209,0,0,0,0,0,0,0,0,0,-1,1217,1233,0,0
0,-209,0,0,0,0,0,0,0,0,0,-1,1224,1233,0,0
7,-209,0,0,0,0,0,0,0,0,0,-1,1231,1233,0,0
14,-209,0,0,0,0,0,0,0,0,0,-1,1238,1233,0,0
21,-209,0,0,0,0,0,0,0,0,0,-1,1245,1233,0,0
28,-209,0,0,0,0,0,0,0,0,0,-1,1252,1233,0,0
35,-209,0,0,0,0,0,0,0,0,0,-1,1259,1233,0,0
42,-209,0,0,0,0,0,0,0,0,0,-1,1266,1233,0,0
49,-209,0,0,0,0,0,0,0,0,0,-1,1273,1233,0,0
56,-209,0,0,0,0,0,0,0,0,0,-1,1280,1233,0,0
63,-209,0,0,0,0,0,0,0,0,0,-1,1287,1233,0,0
70,-209,0,0,0,0,0,0,0,0,0,-1,1294,1233,0,0
77,-209,0,0,0,0,0,0,0,0,0,-1,1301,1233,0,0
84,-209,0,0,0,0,0,0,0,0,0,-1,1308,1233,0,0
91,-209,0,0,0,0,0,0,0,0,0,-1,1315,1233,0,0
98,-209,0,0,0,0,0,0,0,0,0,-1,1322,1233,0,0
105,-209,0,0,0,0,0,0,0,0,0,-1,1329,1233,0,0
112,-209,0,0,0,0,0,0,0,0,0,-1,1336,1233,0,0
119,-209,0,0,0,0,0,0,0,0,0,-1,1343,1233,0,0
126,-209,0,0,0,0,0,0,0,0,0,-1,1350,1233,0,0
133,-209,0,0,0,0,0,0,0,0,0,-1,1357,1233,0,0
140,-209,0,0,0,0,0,0,0,0,0,-1,1364,1233,0,0
147,-209,0,0,0,0,0,0,0,0,0,-1,1371,1233,0,0
154,-209,0,0,0,0,0,0,0,0,0,-1,1378,1233,0,0
161,-209,0,0,0,0,0,0,0,0,0,-1,1385,1233,0,0
168,-209,0,0,0,0,0,0,0,0,0,-1,1392,1233,0,0
175,-209,0,0,0,0,0,0,0,0,0,-1,1399,1233,0,0
182,-209,0,0,0,0,0,0,0,0,0,-1,1406,1233,0,0
189,-209,0,0,0,0,0,0,0,0,0,-1,1413,1233,0,0
196,-209,0,0,0,0,0,0,0,0,0,-1,1420,1233,0,0
203,-209,0,0,0,0,0,0,0,0,0,-1,1427,1233,0,0
210,-209,0,0,0,0,0,0,0,0,0,-1,1434,1233,0,0
217,-209,0,0,0,0,0,0,0,0,0,-1,1441,1233,0,0
224,-209,0,0,0,0,0,0,0,0,0,-1,1448,1233,0,0
231,-209,0,0,0,0,0,0,0,0,0,-1,1455,1233,0,0
238,-209,0,0,0,0,0,0,0,0,0,-1,1462,1233,0,0
245,-209,0,0,0,0,0,0,0,0,0,-1,1469,1233,0,0
252,-209,0,0,0,0,0,0,0,0,0,-1,1476,1233,0,0
259,-209,0,0,0,0,0,0,0,0,0,-1,1483,1233,0,0
266,-209,0,0,0,0,0,0,0,0,0,-1,1490,1233,0,0
273,-209,0,0,0,0,0,0,0,0,0,-1,1497,1233,0,0
280,-209,0,0,0,0,0,0,0,0,0,-1,1504,1233,0,0
287,-209,0,0,0,0,0,0,0,0,0,-1,1511,1233,0,0
294,-209,0,0,0,0,0,0,0,0,0,-1,1518,1233,0,0
301,-209,0,0,0,0,0,0,0,0,0,-1,1525,1233,0,0
308,-209,0,0,0,0,0,0,0,0,0,-1,1532,1233,0,0
315,-209,0,0,0,0,0,0,0,0,0,-1,1539,1233,0,0
322,-209,0,0,0,0,0,0,0,0,0,-1,1546,1233,0,0
329,-209,0,0,0,0,0,0,0,0,0,-1,1553,1233,0,0
336,-209,0,0,0,0,0,0,0,0,0,-1,1560,1233,0,0
343,-209,0,0,0,0,0,0,0,0,0,-1,1567,1233,0,0
350,-209,0,0,0,0,0,0,0,0,0,-1,1574,1233,0,0
357,-209,0,0,0,0,0,0,0,0,0,-1,1581,1233,0,0
364,-209,0,0,0,0,0,0,0,0,0,-1,1588,1233,0,0
371,-209,0,0,0,0,0,0,0,0,0,-1,1595,1233,0,0
378,-209,0,0,0,0,0,0,0,0,0,-1,1602,1233,0,0
385,-209,0,0,0,0,0,0,0,0,0,-1,1609,1233,0,0
392,-209,0,0,0,0,0,0,0,0,0,-1,1616,1233,0,0
399,-209,0,0,0,0,0,0,0,0,0,-1,1623,1233,0,0
406,-209,0,0,0,0,0,0,0,0,0,-1,1630,1233,0,0
413,-209,0,0,0,0,0,0,0,0,0,-1,1637,1233,0,0
420,-209,0,0,0,0,0,0,0,0,0,-1,1644,1233,0,0
427,-209,0,0,0,0,0,0,0,0,0,-1,1651,1233,0,0
434,-209,0,0,0,0,0,0,0,0,0,-1,1658,1233,0,0
441,-209,0,0,0,0,0,0,0,0,0,-1,1665,1233,0,0
448,-209,0,0,0,0,0,0,0,0,0,-1,1672,1233,0,0
455,-209,0,0,0,0,0,0,0,0,0,-1,1679,1233,0,0
462,-209,0,0,0,0,0,0,0,0,0,-1,1686,1233,0,0
469,-209,0,0,0,0,0,0,0,0,0,-1,1693,1233,0,0
476,-209,0,0,0,0,0,0,0,0,0,-1,1700,1233,0,0
483,-209,0,0,0,0,0,0,0,0,0,-1,1707,1233,0,0
490,-209,0,0,0,0,0,0,0,0,0,-1,1714,1233,0,0
497,-209,0,0,0,0,0,0,0,0,0,-1,1721,1233,0,0
504,-209,0,0,0,0,0,0,0,0,0,-1,1728,1233,0,0
511,-209,0,0,0,0,0,0,0,0,0,-1,1735,1233,0,0
518,-209,0,0,0,0,0,0,0,0,0,-1,1742,1233,0,0
525,-209,0,0,0,0,0,0,0,0,0,-1,1749,1233,0,0
532,-209,0,0,0,0,0,0,0,0,0,-1,1756,1233,0,0
539,-209,0,0,0,0,0,0,0,0,0,-1,1763,1233,0,0
546,-209,0,0,0,0,0,0,0,0,0,-1,1770,1233,0,0
553,-209,0,0,0,0,0,0,0,0,0,-1,1777,1233,0,0
560,-209,0,0,0,0,0,0,0,0,0,-1,1784,1233,0,0
567,-209,0,0,0,0,0,0,0,0,0,-1,1791,1233,0,0
574,-209,0,0,0,0,0,0,0,0,0,-1,1798,1233,0,0
581,-209,0,0,0,0,0,0,0,0,0,-1,1805,1233,0,0
588,-209,0,0,0,0,0,0,0,0,0,-1,1812,1233,0,0
595,-209,0,0,0,0,0,0,0,0,0,-1,1819,1233,0,0
602,-209,0,0,0,0,0,0,0,0,0,-1,1826,1233,0,0
609,-209,0,0,0,0,0,0,0,0,0,-1,1833,1233,0,0
616,-209,0,0,0,0,0,0,0,0,0,-1,1840,1233,0,0
623,-209,4.34827,0.422241,-0.00565561,0.00183839,-0.00142369,0.00209974,-0.00591696,-1.38924,0.00480016,0.0350072,1847,1233,4.34829,-0.422242
630,-209,4.26453,0.516602,-0.00219919,0.00177666,-0.000742029,0.00191064,-0.00233317,-1.39217,0.00245421,0.035781,1854,1233,4.2645,-0.516541
637,-209,4.28064,0.532837,0.00203833,0.00234012,0.000183518,0.00242681,0.00195164,1.12948,0.00148504,0.035088,1861,1233,4.28067,-0.532786
644,-209,4.25757,0.513184,0.00432851,0.00216825,0.00183768,0.00537998,0.00111678,0.51971,0.00327843,0.0303567,1868,1233,4.25758,-0.513141
651,-209,4.30688,0.541748,0.00505968,0.00173794,0.00342619,0.00720633,-0.000408714,0.559708,0.00494609,0.0249496,1875,1233,4.30688,-0.541726
658,-209,4.32251,0.595581,0.00499008,0.0012242,0.00464312,0.00811753,-0.00190325,0.592765,0.00614515,0.0229526,1882,1233,4.32249,-0.595642
665,-209,4.48083,0.761353,0.00433947,0.000731793,0.00547621,0.00830128,-0.00323001,0.626297,0.00686885,0.0374216,1889,1233,4.48088,-0.761326
672,-209,4.7262,1.02173,0,0,0,0,0,0,0,-1,1896,1233,4.72616,-1.02178
679,-209,4.18066,-0.0443115,0.00233969,-4.76066e-05,0.00612653,0.00738777,-0.00509568,0.689187,0.00724771,0.0495733,1903,1233,4.18064,0.0442816
686,-209,5.01782,-0.0865479,0.00132806,-0.00036928,0.00602333,0.00656222,-0.00560344,0.71541,0.00703111,0.0488557,1910,1233,5.01784,0.0865131
693,-209,4.17615,0.672729,0.000253308,-0.000660923,0.00575202,0.00556635,-0.00597396,0.745746,0.00666418,0.0409747,1917,1233,4.17615,-0.672742
700,-209,3.93787,0.835815,-0.000678887,-0.000840503,0.00528071,0.00452164,-0.00604102,0.777748,0.00611935,0.0147095,1924,1233,3.93784,-0.835819
707,-209,3.93213,0.829346,-0.00143073,-0.000890997,0.00452752,0.00337469,-0.00569641,0.815166,0.00529408,0.0133488,1931,1233,3.93209,-0.829345
714,-209,3.92859,0.805786,-0.00191421,-0.000659574,0.00347867,0.00224789,-0.00482167,0.874605,0.0041708,0.0113455,1938,1233,3.92855,-0.805739
721,-209,3.92175,0.783447,-0.00156843,-0.00077988,0.00250951,0.00136614,-0.00371445,0.863317,0.00303593,0.0122349,1945,1233,3.92181,-0.783394
728,-209,3.93164,0.768433,0.000579182,-0.000780662,0.00151262,0.00155767,-0.00175915,0.57418,0.00191615,0.0130135,1952,1233,3.93158,-0.768479
735,-209,3.95874,0.731201,0.00271783,-0.00169887,0.000672247,0.00281788,-0.00179892,0.147749,0.00268707,0.0133064,1959,1233,3.95877,-0.731244
742,-209,3.97559,0.708984,0.00590713,-0.00195044,-0.000356353,0.00592325,-0.00196656,-0.0452279,0.00474228,0.0100522,1966,1233,3.97554,-0.708986
749,-209,3.95959,0.684692,0.00964746,-0.00255729,-0.00123372,0.00977092,-0.00268075,-0.0997408,0.0075675,0.00825797,1973,1233,3.95955,-0.684669
756,-209,3.94263,0.65918,0.0136555,-0.00348666,-0.00196866,0.0138786,-0.00370984,-0.112886,0.0107055,0.00931182,1980,1233,3.94259,-0.659169
763,-209,3.89917,0.664429,0.0185121,-0.0045711,-0.00285327,0.0188596,-0.00491855,-0.121178,0.0144935,0.0160079,1987,1233,3.89912,-0.664439
770,-209,3.83008,0.728149,0.0242988,-0.00568739,-0.00401714,0.0248276,-0.00621622,-0.130892,0.0189665,0.0419974,1994,1233,3.83009,-0.728162
777,-209,3.78467,0.777832,0,0,0,0,0,0,0,-1,2001,1233,3.7847,-0.777888
784,-209,6.67419,-1.06201,0,0,0,0,0,0,0,-1,2008,1233,6.67425,1.06205
791,-209,4.37097,0.286133,0.0447196,-0.00701715,-0.00975889,0.0464992,-0.00879672,-0.180372,0.0343097,0.0456245,2015,1233,4.37093,-0.286165
798,-209,4.49512,0.237305,0.0504474,-0.00551078,-0.0125478,0.0531323,-0.00819561,-0.21079,0.0384457,0.0450727,2022,1233,4.49515,-0.237352
805,-209,0,0,0,0,0,0,0,0,0,-1,2029,1233,0,0
812,-209,0,0,0,0,0,0,0,0,0,-1,2036,1233,0,0
-700,-216,0,0,0,0,0,0,0,0,0,-1,524,1240,0,0
-693,-216,0,0,0,0,0,0,0,0,0,-1,531,1240,0,0
-686,-216,0,0,0,0,0,0,0,0,0,-1,538,1240,0,0
-679,-216,-0.15033,-1.27441,0.0834819,0.0143365,-0.0192404,0.0884752,0.00934323,-0.253917,0.0561288,0.0492441,545,1240,-0.150307,1.27446
-672,-216,0.633606,0.153687,0.0643555,0.0157638,-0.0199419,0.0714916,0.00862771,-0.343647,0.0450613,0.0450938,552,1240,0.633622,-0.153732
-665,-216,1.64929,0.80603,0.048682,0.015478,-0.0182742,0.0567696,0.00739049,-0.416654,0.0356392,0.0470471,559,1240,1.64932,-0.805999
-658,-216,0.827087,0.751343,0,0,0,0,0,0,0,-1,566,1240,0.827099,-0.751367
-651,-216,0.499512,0.554077,0.0261452,0.0126953,-0.0127398,0.0338261,0.00501445,-0.542551,0.021079,0.0457582,573,1240,0.499521,-0.554036
-644,-216,0.186035,0.338135,0.0184618,0.0108596,-0.00990555,0.0252705,0.00405084,-0.602195,0.0156722,0.0414695,580,1240,0.186056,-0.338157
-637,-216,-0.216858,0.338623,0.0126394,0.00897278,-0.00736388,0.0183947,0.00321743,-0.663398,0.0113438,0.0431618,587,1240,-0.216863,-0.338664
-630,-216,-0.320618,0.537476,0.00869733,0.00735163,-0.00534593,0.0134126,0.00263637,-0.722797,0.00820535,0.0289569,594,1240,-0.320618,-0.537495
-623,-216,-0.333435,0.687744,0.00395959,0.00567488,-0.0039262,0.00883602,0.000798452,-0.89293,0.00564339,0.0124888,601,1240,-0.333453,-0.687729
-616,-216,-0.341553,0.732666,0.00114621,0.00392125,-0.001654,0.00469265,0.000374808,-1.1344,0.00301128,0.0125478,608,1240,-0.341533,-0.732682
-609,-216,-0.345764,0.746338,-0.000554395,0.0027357,-0.000845474,0.00294025,-0.000758944,-1.33342,0.00225611,0.0120652,615,1240,-0.345752,-0.746362
-602,-216,-0.330505,0.779907,-0.000503895,0.00156254,-0.00107975,0.00202378,-0.000965135,-1.16709,0.00176136,0.0115983,622,1240,-0.330534,-0.779884
-595,-216,-0.329651,0.793213,4.16707e-05,0.000732257,-0.00103924,0.00148207,-0.000708138,-0.945788,0.00129056,0.0163819,629,1240,-0.329637,-0.793215
-588,-216,-0.315125,0.805664,0.000212948,7.49819e-05,-0.00180225,0.00194753,-0.0016596,-0.766269,0.00208479,0.0190769,636,1240,-0.315138,-0.805636
-581,-216,-0.322693,0.823608,0.000132242,-0.000378477,-0.0025047,0.00239456,-0.0026408,-0.734598,0.00290832,0.0166491,643,1240,-0.322663,-0.823654
-574,-216,-0.321411,0.877197,-0.000212477,-0.000383365,-0.0028281,0.00253146,-0.00312731,-0.770297,0.00327313,0.0118448,650,1240,-0.32141,-0.877257
-567,-216,-0.32666,0.914795,-0.000542734,-0.00058423,-0.00293198,0.00236857,-0.00349553,-0.78186,0.00340642,0.0195532,657,1240,-0.326684,-0.91482
-560,-216,-0.473999,0.7948,-0.001025,-0.000766155,-0.00283633,0.00194371,-0.00373486,-0.808198,0.00333245,0.0358611,664,1240,-0.473992,-0.794778
-553,-216,-0.666565,0.618164,-0.00148381,-0.000849124,-0.00261359,0.00146632,-0.00379926,-0.845812,0.00313797,0.0416021,671,1240,-0.666575,-0.618201
-546,-216,-0.482483,0.436279,-0.00216709,-0.000831984,-0.00215822,0.000759559,-0.00375864,-0.935386,0.00279358,0.0399122,678,1240,-0.482463,-0.436269
-539,-216,-0.465271,0.56543,-0.00302447,-0.000791491,-0.00140588,-0.000112697,-0.00370326,-1.12098,0.00243215,0.0400767,685,1240,-0.465242,-0.565444
-532,-216,-0.495789,0.722534,-0.00394882,-0.000699134,-0.000429803,-0.000643249,-0.0040047,-1.4415,0.00248331,0.0400563,692,1240,-0.4958,-0.722533
-525,-216,-0.456543,0.619629,-0.00491685,-0.000518684,0.000693879,-0.000411811,-0.00502372,1.41797,0.00322067,0.0386918,699,1240,-0.456517,-0.619606
-518,-216,-0.569275,0.734497,-0.00579833,-0.000250346,0.00183274,0.000300412,-0.00634909,1.27887,0.00433634,0.0418716,706,1240,-0.569289,-0.734553
-511,-216,-0.742249,0.787476,-0.00644236,9.82073e-05,0.0027271,0.00108607,-0.00743022,1.22326,0.00535236,0.0407397,713,1240,-0.742247,-0.787419
-504,-216,-0.586121,0.669312,-0.00679597,0.00043312,0.0028285,0.00140828,-0.00777113,1.2388,0.00570838,0.0399259,720,1240,-0.586097,-0.669303
-497,-216,0,0,0,0,0,0,0,0,0,-1,727,1240,0,0
-490,-216,0,0,0,0,0,0,0,0,0,-1,734,1240,0,0
-483,-216,0,0,0,0,0,0,0,0,0,-1,741,1240,0,0
-476,-216,0,0,0,0,0,0,0,0,0,-1,748,1240,0,0
-469,-216,0,0,0,0,0,0,0,0,0,-1,755,1240,0,0
-462,-216,0,0,0,0,0,0,0,0,0,-1,762,1240,0,0
-455,-216,0,0,0,0,0,0,0,0,0,-1,769,1240,0,0
-448,-216,0,0,0,0,0,0,0,0,0,-1,776,1240,0,0
-441,-216,0,0,0,0,0,0,0,0,0,-1,783,1240,0,0
-434,-216,0,0,0,0,0,0,0,0,0,-1,790,1240,0,0
-427,-216,0,0,0,0,0,0,0,0,0,-1,797,1240,0,0
-420,-216,0,0,0,0,0,0,0,0,0,-1,804,1240,0,0
-413,-216,0,0,0,0,0,0,0,0,0,-1,811,1240,0,0
-406,-216,0,0,0,0,0,0,0,0,0,-1,818,1240,0,0
-399,-216,0,0,0,0,0,0,0,0,0,-1,825,1240,0,0
-392,-216,0,0,0,0,0,0,0,0,0,-1,832,1240,0,0
-385,-216,0,0,0,0,0,0,0,0,0,-1,839,1240,0,0
-378,-216,0,0,0,0,0,0,0,0,0,-1,846,1240,0,0
-371,-216,0,0,0,0,0,0,0,0,0,-1,853,1240,0,0
-364,-216,0,0,0,0,0,0,0,0,0,-1,860,1240,0,0
-357,-216,0,0,0,0,0,0,0,0,0,-1,867,1240,0,0
-350,-216,0,0,0,0,0,0,0,0,0,-1,874,1240,0,0
-343,-216,0,0,0,0,0,0,0,0,0,-1,881,1240,0,0
-336,-216,0,0,0,0,0,0,0,0,0,-1,888,1240,0,0
-329,-216,0,0,0,0,0,0,0,0,0,-1,895,1240,0,0
-322,-216,0,0,0,0,0,0,0,0,0,-1,902,1240,0,0
-315,-216,0,0,0,0,0,0,0,0,0,-1,909,1240,0,0
-308,-216,0,0,0,0,0,0,0,0,0,-1,916,1240,0,0
-301,-216,0,0,0,0,0,0,0,0,0,-1,923,1240,0,0
-294,-216,0,0,0,0,0,0,0,0,0,-1,930,1240,0,0
-287,-216,0,0,0,0,0,0,0,0,0,-1,937,1240,0,0
-280,-216,0,0,0,0,0,0,0,0,0,-1,944,1240,0,0
-273,-216,0,0,0,0,0,0,0,0,0,-1,951,1240,0,0
-266,-216,0,0,0,0,0,0,0,0,0,-1,958,1240,0,0
-259,-216,0,0,0,0,0,0,0,0,0,-1,965,1240,0,0
-252,-216,0,0,0,0,0,0,0,0,0,-1,972,1240,0,0
-245,-216,0,0,0,0,0,0,0,0,0,-1,979,1240,0,0
-238,-216,0,0,0,0,0,0,0,0,0,-1,986,1240,0,0
-231,-216,0,0,0,0,0,0,0,0,0,-1,993,1240,0,0
-224,-216,0,0,0,0,0,0,0,0,0,-1,1000,1240,0,0
-217,-216,0,0,0,0,0,0,0,0,0,-1,1007,1240,0,0
-210,-216,0,0,0,0,0,0,0,0,0,-1,1014,1240,0,0
-203,-216,0,0,0,0,0,0,0,0,0,-1,1021,1240,0,0
-196,-216,0,0,0,0,0,0,0,0,0,-1,1028,1240,0,0
-189,-216,0,0,0,0,0,0,0,0,0,-1,1035,1240,0,0
-182,-216,0,0,0,0,0,0,0,0,0,-1,1042,1240,0,0
-175,-216,0,0,0,0,0,0,0,0,0,-1,1049,1240,0,0
-168,-216,0,0,0,0,0,0,0,0,0,-1,1056,1240,0,0
-161,-216,0,0,0,0,0,0,0,0,0,-1,1063,1240,0,0
-154,-216,0,0,0,0,0,0,0,0,0,-1,1070,1240,0,0
-147,-216,0,0,0,0,0,0,0,0,0,-1,1077,1240,0,0
-140,-216,0,0,0,0,0,0,0,0,0,-1,1084,1240,0,0
-133,-216,0,0,0,0,0,0,0,0,0,-1,1091,1240,0,0
-126,-216,0,0,0,0,0,0,0,0,0,-1,1098,1240,0,0
-119,-216,0,0,0,0,0,0,0,0,0,-1,1105,1240,0,0
-112,-216,0,0,0,0,0,0,0,0,0,-1,1112,1240,0,0
-105,-216,0,0,0,0,0,0,0,0,0,-1,1119,1240,0,0
-98,-216,0,0,0,0,0,0,0,0,0,-1,1126,1240,0,0
-91,-216,0,0,0,0,0,0,0,0,0,-1,1133,1240,0,0
-84,-216,0,0,0,0,0,0,0,0,0,-1,1140,1240,0,0
-77,-216,0,0,0,0,0,0,0,0,0,-1,1147,1240,0,0
-70,-216,0,0,0,0,0,0,0,0,0,-1,1154,1240,0,0
-63,-216,0,0,0,0,0,0,0,0,0,-1,1161,1240,0,0
-56,-216,0,0,0,0,0,0,0,0,0,-1,1168,1240,0,0
-49,-216,0,0,0,0,0,0,0,0,0,-1,1175,1240,0,0
-42,-216,0,0,0,0,0,0,0,0,0,-1,1182,1240,0,0
-35,-216,0,0,0,0,0,0,0,0,0,-1,1189,1240,0,0
-28,-216,0,0,0,0,0,0,0,0,0,-1,1196,1240,0,0
-21,-216,0,0,0,0,0,0,0,0,0,-1,1203,1240,0,0
-14,-216,0,0,0,0,0,0,0,0,0,-1,1210,1240,0,0
-7,-216,0,0,0,0,0,0,0,0,0,-1,1217,1240,0,0
0,-216,0,0,0,0,0,0,0,0,0,-1,1224,1240,0,0
7,-216,0,0,0,0,0,0,0,0,0,-1,1231,1240,0,0
14,-216,0,0,0,0,0,0,0,0,0,-1,1238,1240,0,0
21,-216,0,0,0,0,0,0,0,0,0,-1,1245,1240,0,0
28,-216,0,0,0,0,0,0,0,0,0,-1,1252,1240,0,0
35,-216,0,0,0,0,0,0,0,0,0,-1,1259,1240,0,0
42,-216,0,0,0,0,0,0,0,0,0,-1,1266,1240,0,0
49,-216,0,0,0,0,0,0,0,0,0,-1,1273,1240,0,0
56,-216,0,0,0,0,0,0,0,0,0,-1,1280,1240,0,0
63,-216,0,0,0,0,0,0,0,0,0,-1,1287,1240,0,0
70,-216,0,0,0,0,0,0,0,0,0,-1,1294,1240,0,0
77,-216,0,0,0,0,0,0,0,0,0,-1,1301,1240,0,0
84,-216,0,0,0,0,0,0,0,0,0,-1,1308,1240,0,0
91,-216,0,0,0,0,0,0,0,0,0,-1,1315,1240,0,0
98,-216,0,0,0,0,0,0,0,0,0,-1,1322,1240,0,0
105,-216,0,0,0,0,0,0,0,0,0,-1,1329,1240,0,0
112,-216,0,0,0,0,0,0,0,0,0,-1,1336,1240,0,0
119,-216,0,0,0,0,0,0,0,0,0,-1,1343,1240,0,0
126,-216,0,0,0,0,0,0,0,0,0,-1,1350,1240,0,0
133,-216,0,0,0,0,0,0,0,0,0,-1,1357,1240,0,0
140,-216,0,0,0,0,0,0,0,0,0,-1,1364,1240,0,0
147,-216,0,0,0,0,0,0,0,0,0,-1,1371,1240,0,0
154,-216,0,0,0,0,0,0,0,0,0,-1,1378,1240,0,0
161,-216,0,0,0,0,0,0,0,0,0,-1,1385,1240,0,0
168,-216,0,0,0,0,0,0,0,0,0,-1,1392,1240,0,0
175,-216,0,0,0,0,0,0,0,0,0,-1,1399,1240,0,0
182,-216,0,0,0,0,0,0,0,0,0,-1,1406,1240,0,0
189,-216,0,0,0,0,0,0,0,0,0,-1,1413,1240,0,0
196,-216,0,0,0,0,0,0,0,0,0,-1,1420,1240,0,0
203,-216,0,0,0,0,0,0,0,0,0,-1,1427,1240,0,0
210,-216,0,0,0,0,0,0,0,0,0,-1,1434,1240,0,0
217,-216,0,0,0,0,0,0,0,0,0,-1,1441,1240,0,0
224,-216,0,0,0,0,0,0,0,0,0,-1,1448,1240,0,0
231,-216,0,0,0,0,0,0,0,0,0,-1,1455,1240,0,0
238,-216,0,0,0,0,0,0,0,0,0,-1,1462,1240,0,0
245,-216,0,0,0,0,0,0,0,0,0,-1,1469,1240,0,0
252,-216,0,0,0,0,0,0,0,0,0,-1,1476,1240,0,0
259,-216,0,0,0,0,0,0,0,0,0,-1,1483,1240,0,0
266,-216,0,0,0,0,0,0,0,0,0,-1,1490,1240,0,0
273,-216,0,0,0,0,0,0,0,0,0,-1,1497,1240,0,0
280,-216,0,0,0,0,0,0,0,0,0,-1,1504,1240,0,0
287,-216,0,0,0,0,0,0,0,0,0,-1,1511,1240,0,0
294,-216,0,0,0,0,0,0,0,0,0,-1,1518,1240,0,0
301,-216,0,0,0,0,0,0,0,0,0,-1,1525,1240,0,0
308,-216,0,0,0,0,0,0,0,0,0,-1,1532,1240,0,0
315,-216,0,0,0,0,0,0,0,0,0,-1,1539,1240,0,0
322,-216,0,0,0,0,0,0,0,0,0,-1,1546,1240,0,0
329,-216,0,0,0,0,0,0,0,0,0,-1,1553,1240,0,0
336,-216,0,0,0,0,0,0,0,0,0,-1,1560,1240,0,0
343,-216,0,0,0,0,0,0,0,0,0,-1,1567,1240,0,0
350,-216,0,0,0,0,0,0,0,0,0,-1,1574,1240,0,0
357,-216,0,0,0,0,0,0,0,0,0,-1,1581,1240,0,0
364,-216,0,0,0,0,0,0,0,0,0,-1,1588,1240,0,0
371,-216,0,0,0,0,0,0,0,0,0,-1,1595,1240,0,0
378,-216,0,0,0,0,0,0,0,0,0,-1,1602,1240,0,0
385,-216,0,0,0,0,0,0,0,0,0,-1,1609,1240,0,0
392,-216,0,0,0,0,0,0,0,0,0,-1,1616,1240,0,0
399,-216,0,0,0,0,0,0,0,0,0,-1,1623,1240,0,0
406,-216,0,0,0,0,0,0,0,0,0,-1,1630,1240,0,0
413,-216,0,0,0,0,0,0,0,0,0,-1,1637,1240,0,0
420,-216,0,0,0,0,0,0,0,0,0,-1,1644,1240,0,0
427,-216,0,0,0,0,0,0,0,0,0,-1,1651,1240,0,0
434,-216,0,0,0,0,0,0,0,0,0,-1,1658,1240,0,0
441,-216,0,0,0,0,0,0,0,0,0,-1,1665,1240,0,0
448,-216,0,0,0,0,0,0,0,0,0,-1,1672,1240,0,0
455,-216,0,0,0,0,0,0,0,0,0,-1,1679,1240,0,0
462,-216,0,0,0,0,0,0,0,0,0,-1,1686,1240,0,0
469,-216,0,0,0,0,0,0,0,0,0,-1,1693,1240,0,0
476,-216,0,0,0,0,0,0,0,0,0,-1,1700,1240,0,0
483,-216,0,0,0,0,0,0,0,0,0,-1,1707,1240,0,0
490,-216,0,0,0,0,0,0,0,0,0,-1,1714,1240,0,0
497,-216,0,0,0,0,0,0,0,0,0,-1,1721,1240,0,0
504,-216,0,0,0,0,0,0,0,0,0,-1,1728,1240,0,0
511,-216,0,0,0,0,0,0,0,0,0,-1,1735,1240,0,0
518,-216,0,0,0,0,0,0,0,0,0,-1,1742,1240,0,0
525,-216,0,0,0,0,0,0,0,0,0,-1,1749,1240,0,0
532,-216,0,0,0,0,0,0,0,0,0,-1,1756,1240,0,0
539,-216,0,0,0,0,0,0,0,0,0,-1,1763,1240,0,0
546,-216,0,0,0,0,0,0,0,0,0,-1,1770,1240,0,0
553,-216,0,0,0,0,0,0,0,0,0,-1,1777,1240,0,0
560,-216,0,0,0,0,0,0,0,0,0,-1,1784,1240,0,0
567,-216,0,0,0,0,0,0,0,0,0,-1,1791,1240,0,0
574,-216,0,0,0,0,0,0,0,0,0,-1,1798,1240,0,0
581,-216,0,0,0,0,0,0,0,0,0,-1,1805,1240,0,0
588,-216,0,0,0,0,0,0,0,0,0,-1,1812,1240,0,0
595,-216,0,0,0,0,0,0,0,0,0,-1,1819,1240,0,0
602,-216,0,0,0,0,0,0,0,0,0,-1,1826,1240,0,0
609,-216,0,0,0,0,0,0,0,0,0,-1,1833,1240,0,0
616,-216,0,0,0,0,0,0,0,0,0,-1,1840,1240,0,0
623,-216,4.24744,0.390625,-0.00601831,0.00189675,-0.000569016,0.00193745,-0.00605901,-1.4994,0.00481683,0.0401361,1847,1240,4.24748,-0.390661
630,-216,4.24194,0.464233,-0.0022663,0.00226826,-0.000122105,0.00227154,-0.00226959,-1.54389,0.00262182,0.0353969,1854,1240,4.24191,-0.464268
637,-216,4.22388,0.607056,0.00181357,0.00280375,0.000855554,0.00329714,0.00132019,1.04769,0.00191615,0.0315066,1861,1240,4.22382,-0.60701
644,-216,4.20752,0.617188,0.00402881,0.00254307,0.00250932,0.00590292,0.000668967,0.641486,0.00373233,0.0262907,1868,1240,4.20758,-0.617138
651,-216,4.26733,0.588013,0.00494558,0.00201013,0.00404551,0.00778138,-0.000825672,0.61138,0.00548357,0.0241807,1875,1240,4.26738,-0.587964
658,-216,4.36267,0.744019,0.00507746,0.00139913,0.00522008,0.0087729,-0.0022963,0.616026,0.0067456,0.0370391,1882,1240,4.36262,-0.743961
665,-216,4.62427,1.07959,0.0045993,0.000817821,0.00602203,0.00902043,-0.00360331,0.633286,0.00750868,0.04691,1889,1240,4.62432,-1.07954
672,-216,4.89417,1.46802,0.00374225,0.00025938,0.00650619,0.00873603,-0.0047344,0.654634,0.00789072,0.0450686,1896,1240,4.89413,-1.46802
679,-216,4.09729,-0.395386,0,0,0,0,0,0,0,-1,1903,1240,4.09728,0.395347
686,-216,4.82068,-0.0550537,0.00192278,-0.000518675,0.00653495,0.00735005,-0.00594594,0.693062,0.00769069,0.0467526,1910,1240,4.82071,0.0550323
693,-216,3.95801,0.817871,0.000902166,-0.000878064,0.00622569,0.00630106,-0.00627695,0.714392,0.00726192,0.0335976,1917,1240,3.95797,-0.817869
700,-216,3.91382,0.848633,-0.000109657,-0.00111826,0.00572846,0.00513666,-0.00636457,0.741494,0.00665284,0.013535,1924,1240,3.91385,-0.848665
707,-216,3.93542,0.819946,-0.000988391,-0.00118102,0.00492541,0.00384165,-0.00601106,0.775622,0.00573425,0.0137562,1931,1240,3.93544,-0.819932
714,-216,3.93433,0.786255,-0.0015009,-0.000956874,0.00372304,0.00250407,-0.00496185,0.821865,0.00438762,0.0127545,1938,1240,3.93435,-0.78627
721,-216,3.91882,0.764893,-0.00107531,-0.00119124,0.00268043,0.00154779,-0.00381434,0.774588,0.00318668,0.0131406,1945,1240,3.91883,-0.764866
728,-216,3.92566,0.752441,0.00135664,-0.00130602,0.00159595,0.00210365,-0.00205303,0.437776,0.00239991,0.0118832,1952,1240,3.92565,-0.752458
735,-216,3.95081,0.723022,0.00387961,-0.00244389,0.000722759,0.00396117,-0.00252545,0.112367,0.0037755,0.010034,1959,1240,3.9508,-0.722983
742,-216,3.95056,0.705688,0.00749222,-0.00301014,-0.000271731,0.00749924,-0.00301717,-0.0258502,0.00625276,0.00956075,1966,1240,3.95051,-0.705668
749,-216,3.93909,0.677002,0.0116948,-0.00392236,-0.00101128,0.01176,-0.00398757,-0.0643959,0.0094538,0.00758166,1973,1240,3.93903,-0.676991
756,-216,3.92407,0.656738,0.0164267,-0.00538328,-0.00161322,0.0165454,-0.00550196,-0.0734344,0.0132507,0.00834633,1980,1240,3.92409,-0.656715
763,-216,3.90271,0.667969,0.0221611,-0.00708068,-0.00235021,0.0223487,-0.00726837,-0.0796902,0.017823,0.0138944,1987,1240,3.90275,-0.667979
770,-216,3.73706,0.775146,0.0289385,-0.00889466,-0.00330248,0.0292246,-0.00918077,-0.0864197,0.0231581,0.0362133,1994,1240,3.73711,-0.775197
777,-216,3.57544,0.848755,0,0,0,0,0,0,0,-1,2001,1240,3.57549,-0.848758
784,-216,6.99634,-1.31946,0,0,0,0,0,0,0,-1,2008,1240,6.99634,1.31951
791,-216,8.92017,-2.11328,0,0,0,0,0,0,0,-1,2015,1240,8.9202,2.11329
798,-216,0,0,0,0,0,0,0,0,0,-1,2022,1240,0,0
805,-216,0,0,0,0,0,0,0,0,0,-1,2029,1240,0,0
812,-216,0,0,0,0,0,0,0,0,0,-1,2036,1240,0,0
-700,-223,0,0,0,0,0,0,0,0,0,-1,524,1247,0,0
-693,-223,0,0,0,0,0,0,0,0,0,-1,531,1247,0,0
-686,-223,0,0,0,0,0,0,0,0,0,-1,538,1247,0,0
-679,-223,0,0,0,0,0,0,0,0,0,-1,545,1247,0,0
-672,-223,1.80676,1.16284,0.0547891,0.0202514,-0.0115328,0.058286,0.0167544,-0.294407,0.0346501,0.046553,552,1247,1.80677,-1.16284
-665,-223,1.46844,0.688477,0.0395731,0.0202911,-0.0103549,0.0440803,0.0157838,-0.410542,0.0257893,0.0455431,559,1247,1.46842,-0.688467
-658,-223,1.06561,0.528198,0.0280833,0.0191137,-0.00862767,0.0333222,0.0138748,-0.545712,0.019328,0.0428263,566,1247,1.06564,-0.52818
-651,-223,0.522644,0.462524,0.0194847,0.0172517,-0.00678435,0.0252438,0.0114926,-0.703845,0.0145939,0.0445833,573,1247,0.522642,-0.462552
-644,-223,-0.0185547,0.348145,0.0131438,0.015012,-0.00505533,0.0192188,0.00893699,-0.876753,0.011105,0.043814,580,1247,-0.0185486,-0.348193
-637,-223,-0.307495,0.270386,0.00855402,0.0126127,-0.00356804,0.0146881,0.00647858,-1.04396,0.00849978,0.0448486,587,1247,-0.307465,-0.27038
-630,-223,-0.330566,0.512085,0.00551512,0.0103447,-0.00241592,0.0113457,0.00451408,-1.17798,0.00659584,0.0381149,594,1247,-0.330558,-0.51207
-623,-223,-0.314514,0.6875,0.00177084,0.00808076,-0.00174116,0.00852933,0.00132227,-1.31865,0.00530072,0.0207637,601,1247,-0.314517,-0.687513
-616,-223,-0.330261,0.737305,-0.000166651,0.00589069,-0.000202669,0.00589747,-0.000173424,-1.53739,0.00399071,0.0141767,608,1247,-0.330267,-0.73733
-609,-223,-0.32489,0.733398,-0.00114052,0.00420744,3.38312e-05,0.00420765,-0.00114074,1.56447,0.00325272,0.0103738,615,1247,-0.324882,-0.733427
-602,-223,-0.314697,0.744141,-0.000741789,0.00252094,-0.000616419,0.00263351,-0.000854363,-1.39016,0.00209924,0.0128609,622,1247,-0.314685,-0.744153
-595,-223,-0.295471,0.779785,6.79495e-05,0.00133304,-0.00102484,0.00190483,-0.000503838,-1.06189,0.00146696,0.0183184,629,1247,-0.295468,-0.779816
-588,-223,-0.285583,0.800659,0.000397774,0.000262721,-0.00185399,0.00218546,-0.00152497,-0.767195,0.0021535,0.0214195,636,1247,-0.285565,-0.800616
-581,-223,-0.319275,0.834473,0.000274092,-0.000583174,-0.00254641,0.00242769,-0.00273677,-0.702016,0.00298348,0.0205762,643,1247,-0.319294,-0.834531
-574,-223,-0.334106,0.889038,-0.000124762,-0.000893534,-0.00281339,0.00233037,-0.00334867,-0.717505,0.00329632,0.0174628,650,1247,-0.334125,-0.889003
-567,-223,-0.307434,0.869873,-0.00053031,-0.00140598,-0.00286721,0.0019323,-0.00386859,-0.709631,0.00341077,0.0194487,657,1247,-0.307404,-0.869926
-560,-223,-0.290771,0.826416,-0.000965984,-0.00170882,-0.00286379,0.00155037,-0.00422518,-0.720911,0.00345166,0.0283238,664,1247,-0.290787,-0.826391
-553,-223,-0.253113,0.723633,-0.00132256,-0.00192495,-0.00274841,0.0011411,-0.00438862,-0.730822,0.00337112,0.0373736,671,1247,-0.253114,-0.723632
-546,-223,-0.273865,0.402588,-0.00201342,-0.00195112,-0.00235259,0.000370529,-0.00433507,-0.792019,0.00302114,0.0399811,678,1247,-0.273883,-0.40262
-539,-223,-0.510193,0.659302,-0.0028894,-0.00188401,-0.0016946,-0.000619113,-0.0041543,-0.929586,0.00258796,0.0428084,685,1247,-0.510178,-0.659293
-532,-223,-0.471741,0.708618,-0.0038039,-0.00163063,-0.000861046,-0.00133084,-0.00410369,-1.23575,0.00241753,0.0435497,692,1247,-0.471757,-0.708668
-525,-223,-0.347595,0.473999,-0.00473709,-0.00110156,6.75458e-05,-0.00110031,-0.00473834,1.55223,0.00286348,0.0432174,699,1247,-0.347625,-0.473994
-518,-223,-0.436279,0.571777,-0.00560408,-0.000203785,0.000990098,-2.79818e-05,-0.00577989,1.39507,0.00384396,0.040844,706,1247,-0.436301,-0.571776
-511,-223,-0.587769,0.711792,-0.00630733,0.00113727,0.00172114,0.00151593,-0.00668598,1.35424,0.00503922,0.0388774,713,1247,-0.587779,-0.711738
-504,-223,-0.594055,0.816772,-0.00688681,0.00295897,0.00187228,0.00330298,-0.00723082,1.38908,0.00622103,0.0389708,720,1247,-0.594072,-0.816814
-497,-223,0,0,0,0,0,0,0,0,0,-1,727,1247,0,0
-490,-223,0,0,0,0,0,0,0,0,0,-1,734,1247,0,0
-483,-223,0,0,0,0,0,0,0,0,0,-1,741,1247,0,0
-476,-223,0,0,0,0,0,0,0,0,0,-1,748,1247,0,0
-469,-223,0,0,0,0,0,0,0,0,0,-1,755,1247,0,0
-462,-223,0,0,0,0,0,0,0,0,0,-1,762,1247,0,0
-455,-223,0,0,0,0,0,0,0,0,0,-1,769,1247,0,0
-448,-223,0,0,0,0,0,0,0,0,0,-1,776,1247,0,0
-441,-223,0,0,0,0,0,0,0,0,0,-1,783,1247,0,0
-434,-223,0,0,0,0,0,0,0,0,0,-1,790,1247,0,0
-427,-223,0,0,0,0,0,0,0,0,0,-1,797,1247,0,0
-420,-223,0,0,0,0,0,0,0,0,0,-1,804,1247,0,0
-413,-223,0,0,0,0,0,0,0,0,0,-1,811,1247,0,0
-406,-223,0,0,0,0,0,0,0,0,0,-1,818,1247,0,0
-399,-223,0,0,0,0,0,0,0,0,0,-1,825,1247,0,0
-392,-223,0,0,0,0,0,0,0,0,0,-1,832,1247,0,0
-385,-223,0,0,0,0,0,0,0,0,0,-1,839,1247,0,0
-378,-223,0,0,0,0,0,0,0,0,0,-1,846,1247,0,0
-371,-223,0,0,0,0,0,0,0,0,0,-1,853,1247,0,0
-364,-223,0,0,0,0,0,0,0,0,0,-1,860,1247,0,0
-357,-223,0,0,0,0,0,0,0,0,0,-1,867,1247,0,0
-350,-223,0,0,0,0,0,0,0,0,0,-1,874,1247,0,0
-343,-223,0,0,0,0,0,0,0,0,0,-1,881,1247,0,0
-336,-223,0,0,0,0,0,0,0,0,0,-1,888,1247,0,0
-329,-223,0,0,0,0,0,0,0,0,0,-1,895,1247,0,0
-322,-223,0,0,0,0,0,0,0,0,0,-1,902,1247,0,0
-315,-223,0,0,0,0,0,0,0,0,0,-1,909,1247,0,0
-308,-223,0,0,0,0,0,0,0,0,0,-1,916,1247,0,0
-301,-223,0,0,0,0,0,0,0,0,0,-1,923,1247,0,0
-294,-223,0,0,0,0,0,0,0,0,0,-1,930,1247,0,0
-287,-223,0,0,0,0,0,0,0,0,0,-1,937,1247,0,0
-280,-223,0,0,0,0,0,0,0,0,0,-1,944,1247,0,0
-273,-223,0,0,0,0,0,0,0,0,0,-1,951,1247,0,0
-266,-223,0,0,0,0,0,0,0,0,0,-1,958,1247,0,0
-259,-223,0,0,0,0,0,0,0,0,0,-1,965,1247,0,0
-252,-223,0,0,0,0,0,0,0,0,0,-1,972,1247,0,0
-245,-223,0,0,0,0,0,0,0,0,0,-1,979,1247,0,0
-238,-223,0,0,0,0,0,0,0,0,0,-1,986,1247,0,0
-231,-223,0,0,0,0,0,0,0,0,0,-1,993,1247,0,0
-224,-223,0,0,0,0,0,0,0,0,0,-1,1000,1247,0,0
-217,-223,0,0,0,0,0,0,0,0,0,-1,1007,1247,0,0
-210,-223,0,0,0,0,0,0,0,0,0,-1,1014,1247,0,0
-203,-223,0,0,0,0,0,0,0,0,0,-1,1021,1247,0,0
-196,-223,0,0,0,0,0,0,0,0,0,-1,1028,1247,0,0
-189,-223,0,0,0,0,0,0,0,0,0,-1,1035,1247,0,0
-182,-223,0,0,0,0,0,0,0,0,0,-1,1042,1247,0,0
-175,-223,0,0,0,0,0,0,0,0,0,-1,1049,1247,0,0
-168,-223,0,0,0,0,0,0,0,0,0,-1,1056,1247,0,0
-161,-223,0,0,0,0,0,0,0,0,0,-1,1063,1247,0,0
-154,-223,0,0,0,0,0,0,0,0,0,-1,1070,1247,0,0
-147,-223,0,0,0,0,0,0,0,0,0,-1,1077,1247,0,0
-140,-223,0,0,0,0,0,0,0,0,0,-1,1084,1247,0,0
-133,-223,0,0,0,0,0,0,0,0,0,-1,1091,1247,0,0
-126,-223,0,0,0,0,0,0,0,0,0,-1,1098,1247,0,0
-119,-223,0,0,0,0,0,0,0,0,0,-1,1105,1247,0,0
-112,-223,0,0,0,0,0,0,0,0,0,-1,1112,1247,0,0
-105,-223,0,0,0,0,0,0,0,0,0,-1,1119,1247,0,0
-98,-223,0,0,0,0,0,0,0,0,0,-1,1126,1247,0,0
-91,-223,0,0,0,0,0,0,0,0,0,-1,1133,1247,0,0
-84,-223,0,0,0,0,0,0,0,0,0,-1,1140,1247,0,0
-77,-223,0,0,0,0,0,0,0,0,0,-1,1147,1247,0,0
-70,-223,0,0,0,0,0,0,0,0,0,-1,1154,1247,0,0
-63,-223,0,0,0,0,0,0,0,0,0,-1,1161,1247,0,0
-56,-223,0,0,0,0,0,0,0,0,0,-1,1168,1247,0,0
-49,-223,0,0,0,0,0,0,0,0,0,-1,1175,1247,0,0
-42,-223,0,0,0,0,0,0,0,0,0,-1,1182,1247,0,0
-35,-223,0,0,0,0,0,0,0,0,0,-1,1189,1247,0,0
-28,-223,0,0,0,0,0,0,0,0,0,-1,1196,1247,0,0
-21,-223,0,0,0,0,0,0,0,0,0,-1,1203,1247,0,0
-14,-223,0,0,0,0,0,0,0,0,0,-1,1210,1247,0,0
-7,-223,0,0,0,0,0,0,0,0,0,-1,1217,1247,0,0
0,-223,0,0,0,0,0,0,0,0,0,-1,1224,1247,0,0
7,-223,0,0,0,0,0,0,0,0,0,-1,1231,1247,0,0
14,-223,0,0,0,0,0,0,0,0,0,-1,1238,1247,0,0
21,-223,0,0,0,0,0,0,0,0,0,-1,1245,1247,0,0
28,-223,0,0,0,0,0,0,0,0,0,-1,1252,1247,0,0
35,-223,0,0,0,0,0,0,0,0,0,-1,1259,1247,0,0
42,-223,0,0,0,0,0,0,0,0,0,-1,1266,1247,0,0
49,-223,0,0,0,0,0,0,0,0,0,-1,1273,1247,0,0
56,-223,0,0,0,0,0,0,0,0,0,-1,1280,1247,0,0
63,-223,0,0,0,0,0,0,0,0,0,-1,1287,1247,0,0
70,-223,0,0,0,0,0,0,0,0,0,-1,1294,1247,0,0
77,-223,0,0,0,0,0,0,0,0,0,-1,1301,1247,0,0
84,-223,0,0,0,0,0,0,0,0,0,-1,1308,1247,0,0
91,-223,0,0,0,0,0,0,0,0,0,-1,1315,1247,0,0
98,-223,0,0,0,0,0,0,0,0,0,-1,1322,1247,0,0
105,-223,0,0,0,0,0,0,0,0,0,-1,1329,1247,0,0
112,-223,0,0,0,0,0,0,0,0,0,-1,1336,1247,0,0
119,-223,0,0,0,0,0,0,0,0,0,-1,1343,1247,0,0
126,-223,0,0,0,0,0,0,0,0,0,-1,1350,1247,0,0
133,-223,0,0,0,0,0,0,0,0,0,-1,1357,1247,0,0
140,-223,0,0,0,0,0,0,0,0,0,-1,1364,1247,0,0
147,-223,0,0,0,0,0,0,0,0,0,-1,1371,1247,0,0
154,-223,0,0,0,0,0,0,0,0,0,-1,1378,1247,0,0
161,-223,0,0,0,0,0,0,0,0,0,-1,1385,1247,0,0
168,-223,0,0,0,0,0,0,0,0,0,-1,1392,1247,0,0
175,-223,0,0,0,0,0,0,0,0,0,-1,1399,1247,0,0
182,-223,0,0,0,0,0,0,0,0,0,-1,1406,1247,0,0
189,-223,0,0,0,0,0,0,0,0,0,-1,1413,1247,0,0
196,-223,0,0,0,0,0,0,0,0,0,-1,1420,1247,0,0
203,-223,0,0,0,0,0,0,0,0,0,-1,1427,1247,0,0
210,-223,0,0,0,0,0,0,0,0,0,-1,1434,1247,0,0
217,-223,0,0,0,0,0,0,0,0,0,-1,1441,1247,0,0
224,-223,0,0,0,0,0,0,0,0,0,-1,1448,1247,0,0
231,-223,0,0,0,0,0,0,0,0,0,-1,1455,1247,0,0
238,-223,0,0,0,0,0,0,0,0,0,-1,1462,1247,0,0
245,-223,0,0,0,0,0,0,0,0,0,-1,1469,1247,0,0
252,-223,0,0,0,0,0,0,0,0,0,-1,1476,1247,0,0
259,-223,0,0,0,0,0,0,0,0,0,-1,1483,1247,0,0
266,-223,0,0,0,0,0,0,0,0,0,-1,1490,1247,0,0
273,-223,0,0,0,0,0,0,0,0,0,-1,1497,1247,0,0
280,-223,0,0,0,0,0,0,0,0,0,-1,1504,1247,0,0
287,-223,0,0,0,0,0,0,0,0,0,-1,1511,1247,0,0
294,-223,0,0,0,0,0,0,0,0,0,-1,1518,1247,0,0
301,-223,0,0,0,0,0,0,0,0,0,-1,1525,1247,0,0
308,-223,0,0,0,0,0,0,0,0,0,-1,1532,1247,0,0
315,-223,0,0,0,0,0,0,0,0,0,-1,1539,1247,0,0
322,-223,0,0,0,0,0,0,0,0,0,-1,1546,1247,0,0
329,-223,0,0,0,0,0,0,0,0,0,-1,1553,1247,0,0
336,-223,0,0,0,0,0,0,0,0,0,-1,1560,1247,0,0
343,-223,0,0,0,0,0,0,0,0,0,-1,1567,1247,0,0
350,-223,0,0,0,0,0,0,0,0,0,-1,1574,1247,0,0
357,-223,0,0,0,0,0,0,0,0,0,-1,1581,1247,0,0
364,-223,0,0,0,0,0,0,0,0,0,-1,1588,1247,0,0
371,-223,0,0,0,0,0,0,0,0,0,-1,1595,1247,0,0
378,-223,0,0,0,0,0,0,0,0,0,-1,1602,1247,0,0
385,-223,0,0,0,0,0,0,0,0,0,-1,1609,1247,0,0
392,-223,0,0,0,0,0,0,0,0,0,-1,1616,1247,0,0
399,-223,0,0,0,0,0,0,0,0,0,-1,1623,1247,0,0
406,-223,0,0,0,0,0,0,0,0,0,-1,1630,1247,0,0
413,-223,0,0,0,0,0,0,0,0,0,-1,1637,1247,0,0
420,-223,0,0,0,0,0,0,0,0,0,-1,1644,1247,0,0
427,-223,0,0,0,0,0,0,0,0,0,-1,1651,1247,0,0
434,-223,0,0,0,0,0,0,0,0,0,-1,1658,1247,0,0
441,-223,0,0,0,0,0,0,0,0,0,-1,1665,1247,0,0
448,-223,0,0,0,0,0,0,0,0,0,-1,1672,1247,0,0
455,-223,0,0,0,0,0,0,0,0,0,-1,1679,1247,0,0
462,-223,0,0,0,0,0,0,0,0,0,-1,1686,1247,0,0
469,-223,0,0,0,0,0,0,0,0,0,-1,1693,1247,0,0
476,-223,0,0,0,0,0,0,0,0,0,-1,1700,1247,0,0
483,-223,0,0,0,0,0,0,0,0,0,-1,1707,1247,0,0
490,-223,0,0,0,0,0,0,0,0,0,-1,1714,1247,0,0
497,-223,0,0,0,0,0,0,0,0,0,-1,1721,1247,0,0
504,-223,0,0,0,0,0,0,0,0,0,-1,1728,1247,0,0
511,-223,0,0,0,0,0,0,0,0,0,-1,1735,1247,0,0
518,-223,0,0,0,0,0,0,0,0,0,-1,1742,1247,0,0
525,-223,0,0,0,0,0,0,0,0,0,-1,1749,1247,0,0
532,-223,0,0,0,0,0,0,0,0,0,-1,1756,1247,0,0
539,-223,0,0,0,0,0,0,0,0,0,-1,1763,1247,0,0
546,-223,0,0,0,0,0,0,0,0,0,-1,1770,1247,0,0
553,-223,0,0,0,0,0,0,0,0,0,-1,1777,1247,0,0
560,-223,0,0,0,0,0,0,0,0,0,-1,1784,1247,0,0
567,-223,0,0,0,0,0,0,0,0,0,-1,1791,1247,0,0
574,-223,0,0,0,0,0,0,0,0,0,-1,1798,1247,0,0
581,-223,0,0,0,0,0,0,0,0,0,-1,1805,1247,0,0
588,-223,0,0,0,0,0,0,0,0,0,-1,1812,1247,0,0
595,-223,0,0,0,0,0,0,0,0,0,-1,1819,1247,0,0
602,-223,0,0,0,0,0,0,0,0,0,-1,1826,1247,0,0
609,-223,0,0,0,0,0,0,0,0,0,-1,1833,1247,0,0
616,-223,0,0,0,0,0,0,0,0,0,-1,1840,1247,0,0
623,-223,4.29175,0.40625,-0.005815,0.00243469,0.000132829,0.00243683,-0.00581714,1.5547,0.00489683,0.0384613,1847,1247,4.29179,-0.406279
630,-223,4.20544,0.464233,-0.00152813,0.00303884,0.000920278,0.00321731,-0.00170659,1.37924,0.00288707,0.0352638,1854,1247,4.20545,-0.464274
637,-223,4.20886,0.589233,0.00240028,0.00343474,0.0022227,0.0051996,0.000635423,0.899716,0.0032752,0.0283608,1861,1247,4.20888,-0.589235
644,-223,4.23145,0.589233,0.00447425,0.00309118,0.00389816,0.00774174,-0.000176314,0.697611,0.00522092,0.0228993,1868,1247,4.23139,-0.589259
651,-223,4.26099,0.575439,0.00540143,0.00248154,0.00529681,0.00943581,-0.00155284,0.650924,0.00686693,0.0289957,1875,1247,4.26099,-0.57545
658,-223,4.44543,0.921265,0,0,0,0,0,0,0,-1,1882,1247,4.44543,-0.921231
665,-223,4.75806,1.39319,0.00507106,0.00113375,0.00692646,0.0103032,-0.00409839,0.646939,0.00856814,0.0441118,1889,1247,4.75804,-1.39316
672,-223,5.25208,2.10437,0.0042113,0.000493323,0.00725168,0.00983848,-0.00513385,0.659924,0.00878538,0.0457417,1896,1247,5.25209,-2.10442
679,-223,5.38611,2.93384,0,0,0,0,0,0,0,-1,1903,1247,5.38612,-2.93389
686,-223,4.35229,0.333862,0.00239034,-0.00041929,0.00706612,0.00818994,-0.00621888,0.687273,0.00834484,0.0440115,1910,1247,4.3523,-0.333914
693,-223,3.89209,0.856812,0.00139774,-0.000839391,0.00662691,0.00699982,-0.00644148,0.701791,0.00776257,0.0207548,1917,1247,3.89207,-0.856847
700,-223,3.89917,0.828857,0.000204827,-0.0011832,0.00595687,0.00550797,-0.00648635,0.727406,0.0069326,0.0100421,1924,1247,3.89922,-0.828857
707,-223,3.91724,0.816162,-0.000782689,-0.00123219,0.00506985,0.00406739,-0.00608227,0.763247,0.00589827,0.0122171,1931,1247,3.91727,-0.816166
714,-223,3.9281,0.78064,-0.00120028,-0.00106178,0.00375426,0.00262386,-0.00488592,0.79462,0.00440085,0.0110417,1938,1247,3.92815,-0.780601
721,-223,3.92065,0.754272,-0.000581238,-0.00146833,0.00269225,0.00170376,-0.00375333,0.703757,0.00322387,0.0142189,1945,1247,3.92069,-0.754323
728,-223,3.90295,0.745361,0.00216797,-0.00174478,0.00157664,0.0027242,-0.00230101,0.339163,0.00290474,0.0152024,1952,1247,3.90295,-0.745359
735,-223,3.90356,0.719727,0.0050724,-0.0031207,0.000712546,0.00513391,-0.0031822,0.0861076,0.00484518,0.0117867,1959,1247,3.9035,-0.719672
742,-223,3.90576,0.70105,0.00908793,-0.00405133,-0.000209841,0.00909128,-0.00405469,-0.0159651,0.00777329,0.00972303,1966,1247,3.90579,-0.701005
749,-223,3.90393,0.672485,0.0137552,-0.00553941,-0.00083954,0.0137916,-0.00557587,-0.0434023,0.0115123,0.0087222,1973,1247,3.90398,-0.672468
756,-223,3.90894,0.649536,0.0192129,-0.00778167,-0.00133978,0.0192793,-0.007848,-0.0494694,0.0161188,0.0100604,1980,1247,3.90895,-0.649582
763,-223,3.91504,0.609985,0.0258505,-0.0105242,-0.00196191,0.025956,-0.0106297,-0.0537282,0.0217318,0.0130958,1987,1247,3.91507,-0.610044
770,-223,3.8833,0.502075,0.033646,-0.0137065,-0.00275276,0.0338055,-0.013866,-0.0578736,0.0283143,0.0342823,1994,1247,3.88333,-0.502097
777,-223,5.59583,-0.585449,0.0423147,-0.0171612,-0.0037019,0.0425442,-0.0173907,-0.0619235,0.0356048,0.0468051,2001,1247,5.59584,0.585401
784,-223,7.08887,-1.55334,0,0,0,0,0,0,0,-1,2008,1247,7.08882,1.55338
791,-223,8.69519,-2.37598,0,0,0,0,0,0,0,-1,2015,1247,8.69515,2.37598
798,-223,0,0,0,0,0,0,0,0,0,-1,2022,1247,0,0
805,-223,0,0,0,0,0,0,0,0,0,-1,2029,1247,0,0
812,-223,0,0,0,0,0,0,0,0,0,-1,2036,1247,0,0
-700,-230,0,0,0,0,0,0,0,0,0,-1,524,1254,0,0
-693,-230,0,0,0,0,0,0,0,0,0,-1,531,1254,0,0
-686,-230,0,0,0,0,0,0,0,0,0,-1,538,1254,0,0
-679,-230,0,0,0,0,0,0,0,0,0,-1,545,1254,0,0
-672,-230,2.14374,0.811523,0.0471932,0.0242377,-0.00500836,0.0482384,0.0231925,-0.205723,0.0278573,0.0470618,552,1254,2.14373,-0.811513
-665,-230,1.35455,0.601074,0.0313066,0.0241379,-0.00309143,0.0324556,0.0229889,-0.355848,0.0192727,0.0450305,559,1254,1.35456,-0.601127
-658,-230,0.744141,0.458374,0.0202769,0.0227747,-0.00152002,0.0234931,0.0195585,-1.12929,0.0145292,0.0412882,566,1254,0.744159,-0.458326
-651,-230,0.220337,0.436035,0.0126316,0.0206771,-0.000317395,0.0206896,0.0126191,-1.53143,0.012041,0.0421312,573,1254,0.220347,-0.436043
-644,-230,-0.452026,0.217896,0,0,0,0,0,0,0,-1,580,1254,-0.452039,-0.217853
-637,-230,-0.55304,0.270508,0.00397884,0.0154211,0.00103292,0.0155136,0.00388634,1.48149,0.00932102,0.0469785,587,1254,-0.553031,-0.27045
-630,-230,-0.346375,0.463867,0.00189024,0.0127049,0.00125447,0.0128485,0.00174664,1.45682,0.00804691,0.0419459,594,1254,-0.346365,-0.463826
-623,-230,-0.287476,0.707642,-0.000795078,0.010034,0.0011119,0.0101469,-0.000908067,1.46953,0.00708674,0.02551,601,1254,-0.287448,-0.707701
-616,-230,-0.29657,0.737671,-0.00182995,0.00756158,0.00182852,0.00790503,-0.0021734,1.38513,0.00612441,0.0144173,608,1254,-0.296591,-0.737679
-609,-230,-0.293091,0.723755,-0.00204908,0.0055363,0.00140827,0.00578931,-0.00230209,1.39303,0.00481402,0.0104096,615,1254,-0.293074,-0.723728
-602,-230,-0.285217,0.747192,-0.00121915,0.00355654,0.000224786,0.00356709,-0.00122971,1.52387,0.00287694,0.0104359,622,1254,-0.285245,-0.747176
-595,-230,-0.27533,0.793457,3.62287e-05,0.00203896,-0.000812872,0.00232736,-0.00025217,-1.22986,0.0016421,0.0170335,629,1254,-0.275303,-0.793518
-588,-230,-0.284241,0.829102,0.000629267,0.00054454,-0.00173675,0.00232417,-0.00115036,-0.773204,0.00204383,0.0242023,636,1254,-0.284213,-0.82906
-581,-230,-0.302124,0.866455,0.000464142,-0.000703287,-0.002451,0.00239997,-0.00263912,-0.668499,0.00291041,0.0235468,643,1254,-0.302127,-0.866501
-574,-230,-0.316895,0.869507,2.76322e-05,-0.00129526,-0.00268849,0.00213484,-0.00340248,-0.664779,0.00322478,0.0170404,650,1254,-0.316873,-0.869561
-567,-230,-0.27887,0.857788,-0.00015415,-0.00204965,-0.00290419,0.00195302,-0.00415682,-0.627677,0.00360319,0.0165121,657,1254,-0.278889,-0.857783
-560,-230,-0.239807,0.795044,-0.000303659,-0.0023967,-0.00318707,0.00200431,-0.00470467,-0.626762,0.00397664,0.0255345,664,1254,-0.239787,-0.794992
-553,-230,-0.153015,0.545288,-0.000406198,-0.00267406,-0.00332663,0.00197445,-0.00505471,-0.621141,0.00418616,0.0369384,671,1254,-0.153029,-0.545348
-546,-230,0.102783,0.128296,-0.000888456,-0.00262615,-0.00314109,0.00150174,-0.00501634,-0.650469,0.00394136,0.0411812,678,1254,0.102762,-0.128295
-539,-230,0.437866,-0.539429,0,0,0,0,0,0,0,-1,685,1254,0.437865,0.539404
-532,-230,0.0213623,-0.019165,-0.00228973,-0.00189449,-0.00220377,0.000120511,-0.00430472,-0.830115,0.00291082,0.0432383,692,1254,0.0213905,0.0191546
-525,-230,-0.365845,0.518066,-0.00311359,-0.000983261,-0.00156382,-0.000156306,-0.00394055,-1.08437,0.00257651,0.0453775,699,1254,-0.365815,-0.51808
-518,-230,-0.605286,0.767578,0,0,0,0,0,0,0,-1,706,1254,-0.605309,-0.767566
-511,-230,-0.553406,0.718628,-0.00536399,0.0023955,6.72652e-05,0.00239608,-0.00536457,1.56213,0.00458857,0.0382326,713,1254,-0.553412,-0.718567
-504,-230,-0.578796,0.819946,-0.00718192,0.00490367,0.000961246,0.00497964,-0.0072579,1.49192,0.00710604,0.0364125,720,1254,-0.578781,-0.819909
-497,-230,0,0,0,0,0,0,0,0,0,-1,727,1254,0,0
-490,-230,0,0,0,0,0,0,0,0,0,-1,734,1254,0,0
-483,-230,0,0,0,0,0,0,0,0,0,-1,741,1254,0,0
-476,-230,0,0,0,0,0,0,0,0,0,-1,748,1254,0,0
-469,-230,0,0,0,0,0,0,0,0,0,-1,755,1254,0,0
-462,-230,0,0,0,0,0,0,0,0,0,-1,762,1254,0,0
-455,-230,0,0,0,0,0,0,0,0,0,-1,769,1254,0,0
-448,-230,0,0,0,0,0,0,0,0,0,-1,776,1254,0,0
-441,-230,0,0,0,0,0,0,0,0,0,-1,783,1254,0,0
-434,-230,0,0,0,0,0,0,0,0,0,-1,790,1254,0,0
-427,-230,0,0,0,0,0,0,0,0,0,-1,797,1254,0,0
-420,-230,0,0,0,0,0,0,0,0,0,-1,804,1254,0,0
-413,-230,0,0,0,0,0,0,0,0,0,-1,811,1254,0,0
-406,-230,0,0,0,0,0,0,0,0,0,-1,818,1254,0,0
-399,-230,0,0,0,0,0,0,0,0,0,-1,825,1254,0,0
-392,-230,0,0,0,0,0,0,0,0,0,-1,832,1254,0,0
-385,-230,0,0,0,0,0,0,0,0,0,-1,839,1254,0,0
-378,-230,0,0,0,0,0,0,0,0,0,-1,846,1254,0,0
-371,-230,0,0,0,0,0,0,0,0,0,-1,853,1254,0,0
-364,-230,0,0,0,0,0,0,0,0,0,-1,860,1254,0,0
-357,-230,0,0,0,0,0,0,0,0,0,-1,867,1254,0,0
-350,-230,0,0,0,0,0,0,0,0,0,-1,874,1254,0,0
-343,-230,0,0,0,0,0,0,0,0,0,-1,881,1254,0,0
-336,-230,0,0,0,0,0,0,0,0,0,-1,888,1254,0,0
-329,-230,0,0,0,0,0,0,0,0,0,-1,895,1254,0,0
-322,-230,0,0,0,0,0,0,0,0,0,-1,902,1254,0,0
-315,-230,0,0,0,0,0,0,0,0,0,-1,909,1254,0,0
-308,-230,0,0,0,0,0,0,0,0,0,-1,916,1254,0,0
-301,-230,0,0,0,0,0,0,0,0,0,-1,923,1254,0,0
-294,-230,0,0,0,0,0,0,0,0,0,-1,930,1254,0,0
-287,-230,0,0,0,0,0,0,0,0,0,-1,937,1254,0,0
-280,-230,0,0,0,0,0,0,0,0,0,-1,944,1254,0,0
-273,-230,0,0,0,0,0,0,0,0,0,-1,951,1254,0,0
-266,-230,0,0,0,0,0,0,0,0,0,-1,958,1254,0,0
-259,-230,0,0,0,0,0,0,0,0,0,-1,965,1254,0,0
-252,-230,0,0,0,0,0,0,0,0,0,-1,972,1254,0,0
-245,-230,0,0,0,0,0,0,0,0,0,-1,979,1254,0,0
-238,-230,0,0,0,0,0,0,0,0,0,-1,986,1254,0,0
-231,-230,0,0,0,0,0,0,0,0,0,-1,993,1254,0,0
-224,-230,0,0,0,0,0,0,0,0,0,-1,1000,1254,0,0
-217,-230,0,0,0,0,0,0,0,0,0,-1,1007,1254,0,0
-210,-230,0,0,0,0,0,0,0,0,0,-1,1014,1254,0,0
-203,-230,0,0,0,0,0,0,0,0,0,-1,1021,1254,0,0
-196,-230,0,0,0,0,0,0,0,0,0,-1,1028,1254,0,0
-189,-230,0,0,0,0,0,0,0,0,0,-1,1035,1254,0,0
-182,-230,0,0,0,0,0,0,0,0,0,-1,1042,1254,0,0
-175,-230,0,0,0,0,0,0,0,0,0,-1,1049,1254,0,0
-168,-230,0,0,0,0,0,0,0,0,0,-1,1056,1254,0,0
-161,-230,0,0,0,0,0,0,0,0,0,-1,1063,1254,0,0
-154,-230,0,0,0,0,0,0,0,0,0,-1,1070,1254,0,0
-147,-230,0,0,0,0,0,0,0,0,0,-1,1077,1254,0,0
-140,-230,0,0,0,0,0,0,0,0,0,-1,1084,1254,0,0
-133,-230,0,0,0,0,0,0,0,0,0,-1,1091,1254,0,0
-126,-230,0,0,0,0,0,0,0,0,0,-1,1098,1254,0,0
-119,-230,0,0,0,0,0,0,0,0,0,-1,1105,1254,0,0
-112,-230,0,0,0,0,0,0,0,0,0,-1,1112,1254,0,0
-105,-230,0,0,0,0,0,0,0,0,0,-1,1119,1254,0,0
-98,-230,0,0,0,0,0,0,0,0,0,-1,1126,1254,0,0
-91,-230,0,0,0,0,0,0,0,0,0,-1,1133,1254,0,0
-84,-230,0,0,0,0,0,0,0,0,0,-1,1140,1254,0,0
-77,-230,0,0,0,0,0,0,0,0,0,-1,1147,1254,0,0
-70,-230,0,0,0,0,0,0,0,0,0,-1,1154,1254,0,0
-63,-230,0,0,0,0,0,0,0,0,0,-1,1161,1254,0,0
-56,-230,0,0,0,0,0,0,0,0,0,-1,1168,1254,0,0
-49,-230,0,0,0,0,0,0,0,0,0,-1,1175,1254,0,0
-42,-230,0,0,0,0,0,0,0,0,0,-1,1182,1254,0,0
-35,-230,0,0,0,0,0,0,0,0,0,-1,1189,1254,0,0
-28,-230,0,0,0,0,0,0,0,0,0,-1,1196,1254,0,0
-21,-230,0,0,0,0,0,0,0,0,0,-1,1203,1254,0,0
-14,-230,0,0,0,0,0,0,0,0,0,-1,1210,1254,0,0
-7,-230,0,0,0,0,0,0,0,0,0,-1,1217,1254,0,0
0,-230,0,0,0,0,0,0,0,0,0,-1,1224,1254,0,0
7,-230,0,0,0,0,0,0,0,0,0,-1,1231,1254,0,0
14,-230,0,0,0,0,0,0,0,0,0,-1,1238,1254,0,0
21,-230,0,0,0,0,0,0,0,0,0,-1,1245,1254,0,0
28,-230,0,0,0,0,0,0,0,0,0,-1,1252,1254,0,0
35,-230,0,0,0,0,0,0,0,0,0,-1,1259,1254,0,0
42,-230,0,0,0,0,0,0,0,0,0,-1,1266,1254,0,0
49,-230,0,0,0,0,0,0,0,0,0,-1,1273,1254,0,0
56,-230,0,0,0,0,0,0,0,0,0,-1,1280,1254,0,0
63,-230,0,0,0,0,0,0,0,0,0,-1,1287,1254,0,0
70,-230,0,0,0,0,0,0,0,0,0,-1,1294,1254,0,0
77,-230,0,0,0,0,0,0,0,0,0,-1,1301,1254,0,0
84,-230,0,0,0,0,0,0,0,0,0,-1,1308,1254,0,0
91,-230,0,0,0,0,0,0,0,0,0,-1,1315,1254,0,0
98,-230,0,0,0,0,0,0,0,0,0,-1,1322,1254,0,0
105,-230,0,0,0,0,0,0,0,0,0,-1,1329,1254,0,0
112,-230,0,0,0,0,0,0,0,0,0,-1,1336,1254,0,0
119,-230,0,0,0,0,0,0,0,0,0,-1,1343,1254,0,0
126,-230,0,0,0,0,0,0,0,0,0,-1,1350,1254,0,0
133,-230,0,0,0,0,0,0,0,0,0,-1,1357,1254,0,0
140,-230,0,0,0,0,0,0,0,0,0,-1,1364,1254,0,0
147,-230,0,0,0,0,0,0,0,0,0,-1,1371,1254,0,0
154,-230,0,0,0,0,0,0,0,0,0,-1,1378,1254,0,0
161,-230,0,0,0,0,0,0,0,0,0,-1,1385,1254,0,0
168,-230,0,0,0,0,0,0,0,0,0,-1,1392,1254,0,0
175,-230,0,0,0,0,0,0,0,0,0,-1,1399,1254,0,0
182,-230,0,0,0,0,0,0,0,0,0,-1,1406,1254,0,0
189,-230,0,0,0,0,0,0,0,0,0,-1,1413,1254,0,0
196,-230,0,0,0,0,0,0,0,0,0,-1,1420,1254,0,0
203,-230,0,0,0,0,0,0,0,0,0,-1,1427,1254,0,0
210,-230,0,0,0,0,0,0,0,0,0,-1,1434,1254,0,0
217,-230,0,0,0,0,0,0,0,0,0,-1,1441,1254,0,0
224,-230,0,0,0,0,0,0,0,0,0,-1,1448,1254,0,0
231,-230,0,0,0,0,0,0,0,0,0,-1,1455,1254,0,0
238,-230,0,0,0,0,0,0,0,0,0,-1,1462,1254,0,0
245,-230,0,0,0,0,0,0,0,0,0,-1,1469,1254,0,0
252,-230,0,0,0,0,0,0,0,0,0,-1,1476,1254,0,0
259,-230,0,0,0,0,0,0,0,0,0,-1,1483,1254,0,0
266,-230,0,0,0,0,0,0,0,0,0,-1,1490,1254,0,0
273,-230,0,0,0,0,0,0,0,0,0,-1,1497,1254,0,0
280,-230,0,0,0,0,0,0,0,0,0,-1,1504,1254,0,0
287,-230,0,0,0,0,0,0,0,0,0,-1,1511,1254,0,0
294,-230,0,0,0,0,0,0,0,0,0,-1,1518,1254,0,0
301,-230,0,0,0,0,0,0,0,0,0,-1,1525,1254,0,0
308,-230,0,0,0,0,0,0,0,0,0,-1,1532,1254,0,0
315,-230,0,0,0,0,0,0,0,0,0,-1,1539,1254,0,0
322,-230,0,0,0,0,0,0,0,0,0,-1,1546,1254,0,0
329,-230,0,0,0,0,0,0,0,0,0,-1,1553,1254,0,0
336,-230,0,0,0,0,0,0,0,0,0,-1,1560,1254,0,0
343,-230,0,0,0,0,0,0,0,0,0,-1,1567,1254,0,0
350,-230,0,0,0,0,0,0,0,0,0,-1,1574,1254,0,0
357,-230,0,0,0,0,0,0,0,0,0,-1,1581,1254,0,0
364,-230,0,0,0,0,0,0,0,0,0,-1,1588,1254,0,0
371,-230,0,0,0,0,0,0,0,0,0,-1,1595,1254,0,0
378,-230,0,0,0,0,0,0,0,0,0,-1,1602,1254,0,0
385,-230,0,0,0,0,0,0,0,0,0,-1,1609,1254,0,0
392,-230,0,0,0,0,0,0,0,0,0,-1,1616,1254,0,0
399,-230,0,0,0,0,0,0,0,0,0,-1,1623,1254,0,0
406,-230,0,0,0,0,0,0,0,0,0,-1,1630,1254,0,0
413,-230,0,0,0,0,0,0,0,0,0,-1,1637,1254,0,0
420,-230,0,0,0,0,0,0,0,0,0,-1,1644,1254,0,0
427,-230,0,0,0,0,0,0,0,0,0,-1,1651,1254,0,0
434,-230,0,0,0,0,0,0,0,0,0,-1,1658,1254,0,0
441,-230,0,0,0,0,0,0,0,0,0,-1,1665,1254,0,0
448,-230,0,0,0,0,0,0,0,0,0,-1,1672,1254,0,0
455,-230,0,0,0,0,0,0,0,0,0,-1,1679,1254,0,0
462,-230,0,0,0,0,0,0,0,0,0,-1,1686,1254,0,0
469,-230,0,0,0,0,0,0,0,0,0,-1,1693,1254,0,0
476,-230,0,0,0,0,0,0,0,0,0,-1,1700,1254,0,0
483,-230,0,0,0,0,0,0,0,0,0,-1,1707,1254,0,0
490,-230,0,0,0,0,0,0,0,0,0,-1,1714,1254,0,0
497,-230,0,0,0,0,0,0,0,0,0,-1,1721,1254,0,0
504,-230,0,0,0,0,0,0,0,0,0,-1,1728,1254,0,0
511,-230,0,0,0,0,0,0,0,0,0,-1,1735,1254,0,0
518,-230,0,0,0,0,0,0,0,0,0,-1,1742,1254,0,0
525,-230,0,0,0,0,0,0,0,0,0,-1,1749,1254,0,0
532,-230,0,0,0,0,0,0,0,0,0,-1,1756,1254,0,0
539,-230,0,0,0,0,0,0,0,0,0,-1,1763,1254,0,0
546,-230,0,0,0,0,0,0,0,0,0,-1,1770,1254,0,0
553,-230,0,0,0,0,0,0,0,0,0,-1,1777,1254,0,0
560,-230,0,0,0,0,0,0,0,0,0,-1,1784,1254,0,0
567,-230,0,0,0,0,0,0,0,0,0,-1,1791,1254,0,0
574,-230,0,0,0,0,0,0,0,0,0,-1,1798,1254,0,0
581,-230,0,0,0,0,0,0,0,0,0,-1,1805,1254,0,0
588,-230,0,0,0,0,0,0,0,0,0,-1,1812,1254,0,0
595,-230,0,0,0,0,0,0,0,0,0,-1,1819,1254,0,0
602,-230,0,0,0,0,0,0,0,0,0,-1,1826,1254,0,0
609,-230,0,0,0,0,0,0,0,0,0,-1,1833,1254,0,0
616,-230,4.30713,0.7052,-0.00779755,0.000443931,0.000788291,0.000518653,-0.00787227,1.47629,0.00542933,0.0363569,1840,1254,4.30718,-0.70526
623,-230,4.34998,0.618408,-0.00485892,0.00332351,0.00122697,0.00350354,-0.00503895,1.42511,0.00495849,0.0352535,1847,1254,4.34996,-0.618363
630,-230,4.31738,0.610474,-0.0013057,0.00438483,0.00207222,0.00505946,-0.00198033,1.25606,0.00419201,0.0324457,1854,1254,4.31741,-0.610463
637,-230,4.2312,0.586304,0.00184259,0.00480334,0.00342146,0.00705095,-0.00040502,0.989574,0.00484129,0.0273507,1861,1254,4.23123,-0.586314
644,-230,4.20898,0.506104,0.0035709,0.00446081,0.00494596,0.00898179,-0.000950082,0.830259,0.00632837,0.0214747,1868,1254,4.20896,-0.506132
651,-230,4.14355,0.495361,0,0,0,0,0,0,0,-1,1875,1254,4.14361,-0.495335
658,-230,4.47888,1.01733,0.00475486,0.00299247,0.00696148,0.0108907,-0.00314337,0.722442,0.00850416,0.0439071,1882,1254,4.47892,-1.01732
665,-230,4.89526,1.53882,0.00445742,0.00218823,0.00741052,0.0108197,-0.00417405,0.709435,0.00893559,0.0437375,1889,1254,4.89526,-1.53879
672,-230,5.19653,1.98914,0,0,0,0,0,0,0,-1,1896,1254,5.19657,-1.98913
679,-230,5.35901,3.73682,0,0,0,0,0,0,0,-1,1903,1254,5.35902,-3.73679
686,-230,3.82849,0.983521,0.00239235,0.000128709,0.00725868,0.00860692,-0.00608586,0.708058,0.0085244,0.0355641,1910,1254,3.82846,-0.983512
693,-230,3.85693,0.873901,0.00171744,-0.000419689,0.00682106,0.00755313,-0.00625538,0.707701,0.00798407,0.0152444,1917,1254,3.85689,-0.873907
700,-230,3.88818,0.836304,0.00049761,-0.000907275,0.00605966,0.00589541,-0.00630507,0.727695,0.00704527,0.0105067,1924,1254,3.88819,-0.83633
707,-230,3.90808,0.817383,-0.000479163,-0.00107147,0.00508694,0.00432023,-0.00587086,0.756322,0.00590649,0.00936166,1931,1254,3.9081,-0.817385
714,-230,3.90198,0.769165,-0.000770764,-0.00101591,0.00369238,0.00280107,-0.00458775,0.768806,0.00430731,0.0124315,1938,1254,3.90195,-0.769191
721,-230,3.88611,0.750244,6.84887e-05,-0.001657,0.00264488,0.00198778,-0.00357629,0.627742,0.00325576,0.0125784,1945,1254,3.88613,-0.750277
728,-230,3.8855,0.751343,0.00310294,-0.00216608,0.0015647,0.00353256,-0.0025957,0.267971,0.00355191,0.0127236,1952,1254,3.88552,-0.751331
735,-230,3.88989,0.732178,0.00634483,-0.00380288,0.000775371,0.00640373,-0.00386179,0.0758219,0.00598706,0.0121599,1959,1254,3.88986,-0.732236
742,-230,3.87769,0.709839,0.0107096,-0.005179,8.52308e-06,0.0107096,-0.00517901,0.000536427,0.0093567,0.00958563,1966,1254,3.8777,-0.709844
749,-230,3.88098,0.668945,0.0158123,-0.00732623,-0.000438773,0.0158206,-0.00733455,-0.0189538,0.0136646,0.00966513,1973,1254,3.88098,-0.668981
756,-230,3.87927,0.632813,0.0219476,-0.0104429,-0.000754165,0.0219651,-0.0104604,-0.0232667,0.0191096,0.011635,1980,1254,3.87927,-0.63283
763,-230,3.8855,0.535522,0.0294296,-0.0143705,-0.00115093,0.0294598,-0.0144008,-0.0262528,0.0258157,0.0234496,1987,1254,3.88548,-0.535562
770,-230,5.20984,-0.412476,0,0,0,0,0,0,0,-1,1994,1254,5.2098,0.412458
777,-230,5.72485,-0.505493,0,0,0,0,0,0,0,-1,2001,1254,5.72487,0.505449
784,-230,6.23999,-0.598389,0,0,0,0,0,0,0,-1,2008,1254,6.23994,0.59844
791,-230,1.52075,-0.702148,0,0,0,0,0,0,0,-1,2015,1254,1.52077,0.702204
798,-230,0,0,0,0,0,0,0,0,0,-1,2022,1254,0,0
805,-230,0,0,0,0,0,0,0,0,0,-1,2029,1254,0,0
812,-230,0,0,0,0,0,0,0,0,0,-1,2036,1254,0,0
-700,-237,0,0,0,0,0,0,0,0,0,-1,524,1261,0,0
-693,-237,0,0,0,0,0,0,0,0,0,-1,531,1261,0,0
-686,-237,0,0,0,0,0,0,0,0,0,-1,538,1261,0,0
-679,-237,0,0,0,0,0,0,0,0,0,-1,545,1261,0,0
-672,-237,1.98157,-0.00292969,0,0,0,0,0,0,0,-1,552,1261,1.98159,0.00295054
-665,-237,1.29749,0.512939,0,0,0,0,0,0,0,-1,559,1261,1.29751,-0.512991
-658,-237,0.551147,0.476563,0.0117738,0.0266405,0.00361272,0.027472,0.0109424,1.3446,0.0159699,0.0428049,566,1261,0.551132,-0.476518
-651,-237,-0.0852661,0.676514,0.00568758,0.0245323,0.00431172,0.025472,0.0047479,1.35622,0.0156408,0.0419238,573,1261,-0.0852359,-0.676464
-644,-237,-1.43732,0.591553,0,0,0,0,0,0,0,-1,580,1261,-1.4373,-0.591506
-637,-237,-0.981201,-0.0474854,4.15292e-05,0.0188903,0.00417188,0.0197724,-0.000840568,1.36243,0.0134705,0.0482462,587,1261,-0.981192,0.0475336
-630,-237,-0.246338,0.534424,-0.000927807,0.0157764,0.0036509,0.0165395,-0.00169089,1.36475,0.011631,0.0444727,594,1261,-0.246311,-0.534444
-623,-237,-0.262878,0.716431,-0.00247846,0.0126435,0.00290861,0.0131837,-0.00301861,1.38718,0.00994916,0.0271525,601,1261,-0.262904,-0.71637
-616,-237,-0.267822,0.727051,-0.00268737,0.00978532,0.00299098,0.0104655,-0.00336753,1.3472,0.00832957,0.0130338,608,1261,-0.267852,-0.72709
-609,-237,-0.249939,0.734375,-0.00214185,0.00738841,0.00204016,0.00780678,-0.00256022,1.36853,0.00623566,0.0144635,615,1261,-0.249935,-0.734317
-602,-237,-0.252502,0.757935,-0.000999185,0.0050822,0.000578151,0.00513667,-0.00105366,1.47685,0.00382436,0.0109691,622,1261,-0.252474,-0.757878
-595,-237,-0.253967,0.801025,0.000183562,0.00307081,-0.000748938,0.00325352,8.53208e-07,-1.33151,0.00216873,0.0139418,629,1261,-0.253975,-0.801043
-588,-237,-0.269653,0.808228,0.000714783,0.00104734,-0.00168358,0.00257283,-0.000810714,-0.83462,0.00203989,0.024408,636,1261,-0.26964,-0.808272
-581,-237,-0.275574,0.836914,0.000521511,-0.00080384,-0.00230786,0.00225995,-0.00254228,-0.64559,0.00277417,0.0237678,643,1261,-0.275557,-0.836881
-574,-237,-0.261841,0.860718,7.62398e-05,-0.00174623,-0.00247537,0.00180277,-0.00347276,-0.609036,0.00309628,0.0148692,650,1261,-0.26185,-0.860727
-567,-237,-0.238953,0.860596,1.89617e-05,-0.00268211,-0.00273542,0.00171907,-0.00438222,-0.556092,0.00363272,0.0122062,657,1261,-0.238971,-0.860635
-560,-237,-0.231567,0.85022,7.61604e-05,-0.00311194,-0.00313459,0.00199873,-0.00503451,-0.550171,0.00418484,0.0184445,664,1261,-0.231553,-0.850173
-553,-237,-0.305725,0.589355,0.000171921,-0.00348791,-0.00341391,0.00221543,-0.00553142,-0.539376,0.0046072,0.0383058,671,1261,-0.30575,-0.589352
-546,-237,0.0250244,0.0222168,-0.000161702,-0.00337847,-0.00325776,0.00186309,-0.00540326,-0.556098,0.00435803,0.0456833,678,1261,0.0250426,-0.0222266
-539,-237,0.243958,-0.382324,-0.000692293,-0.00306332,-0.00290308,0.00125801,-0.00501362,-0.59155,0.00383122,0.0455637,685,1261,0.243987,0.382376
-532,-237,0.0223999,-0.28833,-0.00128053,-0.00239036,-0.00240109,0.000628934,-0.00429982,-0.671837,0.00309755,0.0430074,692,1261,0.0223775,0.28828
-525,-237,-0.320313,0.588379,-0.00196618,-0.00122212,-0.00180324,0.00024707,-0.00343536,-0.887127,0.00237688,0.0448376,699,1261,-0.320332,-0.588378
-518,-237,-0.503906,0.778809,-0.00293111,0.000529874,-0.0010179,0.000807048,-0.00320829,-1.30494,0.00245254,0.0403926,706,1261,-0.50391,-0.778865
-511,-237,-0.516663,0.729126,-0.0043529,0.00288423,1.64462e-05,0.00288426,-0.00435293,1.56852,0.00420698,0.0375112,713,1261,-0.516641,-0.72915
-504,-237,-0.549377,0.721802,-0.00663299,0.00578404,0.00133391,0.00592572,-0.00677467,1.46498,0.00733803,0.0388221,720,1261,-0.549358,-0.721799
-497,-237,-0.532776,0.66687,-0.00990634,0.0090153,0.00248672,0.00933665,-0.0102277,1.44228,0.0112994,0.0428586,727,1261,-0.532772,-0.666823
-490,-237,0,0,0,0,0,0,0,0,0,-1,734,1261,0,0
-483,-237,0,0,0,0,0,0,0,0,0,-1,741,1261,0,0
-476,-237,0,0,0,0,0,0,0,0,0,-1,748,1261,0,0
-469,-237,0,0,0,0,0,0,0,0,0,-1,755,1261,0,0
-462,-237,0,0,0,0,0,0,0,0,0,-1,762,1261,0,0
-455,-237,0,0,0,0,0,0,0,0,0,-1,769,1261,0,0
-448,-237,0,0,0,0,0,0,0,0,0,-1,776,1261,0,0
-441,-237,0,0,0,0,0,0,0,0,0,-1,783,1261,0,0
-434,-237,0,0,0,0,0,0,0,0,0,-1,790,1261,0,0
-427,-237,0,0,0,0,0,0,0,0,0,-1,797,1261,0,0
-420,-237,0,0,0,0,0,0,0,0,0,-1,804,1261,0,0
-413,-237,0,0,0,0,0,0,0,0,0,-1,811,1261,0,0
-406,-237,0,0,0,0,0,0,0,0,0,-1,818,1261,0,0
-399,-237,0,0,0,0,0,0,0,0,0,-1,825,1261,0,0
-392,-237,0,0,0,0,0,0,0,0,0,-1,832,1261,0,0
-385,-237,0,0,0,0,0,0,0,0,0,-1,839,1261,0,0
-378,-237,0,0,0,0,0,0,0,0,0,-1,846,1261,0,0
-371,-237,0,0,0,0,0,0,0,0,0,-1,853,1261,0,0
-364,-237,0,0,0,0,0,0,0,0,0,-1,860,1261,0,0
-357,-237,0,0,0,0,0,0,0,0,0,-1,867,1261,0,0
-350,-237,0,0,0,0,0,0,0,0,0,-1,874,1261,0,0
-343,-237,0,0,0,0,0,0,0,0,0,-1,881,1261,0,0
-336,-237,0,0,0,0,0,0,0,0,0,-1,888,1261,0,0
-329,-237,0,0,0,0,0,0,0,0,0,-1,895,1261,0,0
-322,-237,0,0,0,0,0,0,0,0,0,-1,902,1261,0,0
-315,-237,0,0,0,0,0,0,0,0,0,-1,909,1261,0,0
-308,-237,0,0,0,0,0,0,0,0,0,-1,916,1261,0,0
-301,-237,0,0,0,0,0,0,0,0,0,-1,923,1261,0,0
-294,-237,0,0,0,0,0,0,0,0,0,-1,930,1261,0,0
-287,-237,0,0,0,0,0,0,0,0,0,-1,937,1261,0,0
-280,-237,0,0,0,0,0,0,0,0,0,-1,944,1261,0,0
-273,-237,0,0,0,0,0,0,0,0,0,-1,951,1261,0,0
-266,-237,0,0,0,0,0,0,0,0,0,-1,958,1261,0,0
-259,-237,0,0,0,0,0,0,0,0,0,-1,965,1261,0,0
-252,-237,0,0,0,0,0,0,0,0,0,-1,972,1261,0,0
-245,-237,0,0,0,0,0,0,0,0,0,-1,979,1261,0,0
-238,-237,0,0,0,0,0,0,0,0,0,-1,986,1261,0,0
-231,-237,0,0,0,0,0,0,0,0,0,-1,993,1261,0,0
-224,-237,0,0,0,0,0,0,0,0,0,-1,1000,1261,0,0
-217,-237,0,0,0,0,0,0,0,0,0,-1,1007,1261,0,0
-210,-237,0,0,0,0,0,0,0,0,0,-1,1014,1261,0,0
-203,-237,0,0,0,0,0,0,0,0,0,-1,1021,1261,0,0
-196,-237,0,0,0,0,0,0,0,0,0,-1,1028,1261,0,0
-189,-237,0,0,0,0,0,0,0,0,0,-1,1035,1261,0,0
-182,-237,0,0,0,0,0,0,0,0,0,-1,1042,1261,0,0
-175,-237,0,0,0,0,0,0,0,0,0,-1,1049,1261,0,0
-168,-237,0,0,0,0,0,0,0,0,0,-1,1056,1261,0,0
-161,-237,0,0,0,0,0,0,0,0,0,-1,1063,1261,0,0
-154,-237,0,0,0,0,0,0,0,0,0,-1,1070,1261,0,0
-147,-237,0,0,0,0,0,0,0,0,0,-1,1077,1261,0,0
-140,-237,0,0,0,0,0,0,0,0,0,-1,1084,1261,0,0
-133,-237,0,0,0,0,0,0,0,0,0,-1,1091,1261,0,0
-126,-237,0,0,0,0,0,0,0,0,0,-1,1098,1261,0,0
-119,-237,0,0,0,0,0,0,0,0,0,-1,1105,1261,0,0
-112,-237,0,0,0,0,0,0,0,0,0,-1,1112,1261,0,0
-105,-237,0,0,0,0,0,0,0,0,0,-1,1119,1261,0,0
-98,-237,0,0,0,0,0,0,0,0,0,-1,1126,1261,0,0
-91,-237,0,0,0,0,0,0,0,0,0,-1,1133,1261,0,0
-84,-237,0,0,0,0,0,0,0,0,0,-1,1140,1261,0,0
-77,-237,0,0,0,0,0,0,0,0,0,-1,1147,1261,0,0
-70,-237,0,0,0,0,0,0,0,0,0,-1,1154,1261,0,0
-63,-237,0,0,0,0,0,0,0,0,0,-1,1161,1261,0,0
-56,-237,0,0,0,0,0,0,0,0,0,-1,1168,1261,0,0
-49,-237,0,0,0,0,0,0,0,0,0,-1,1175,1261,0,0
-42,-237,0,0,0,0,0,0,0,0,0,-1,1182,1261,0,0
-35,-237,0,0,0,0,0,0,0,0,0,-1,1189,1261,0,0
-28,-237,0,0,0,0,0,0,0,0,0,-1,1196,1261,0,0
-21,-237,0,0,0,0,0,0,0,0,0,-1,1203,1261,0,0
-14,-237,0,0,0,0,0,0,0,0,0,-1,1210,1261,0,0
-7,-237,0,0,0,0,0,0,0,0,0,-1,1217,1261,0,0
0,-237,0,0,0,0,0,0,0,0,0,-1,1224,1261,0,0
7,-237,0,0,0,0,0,0,0,0,0,-1,1231,1261,0,0
14,-237,0,0,0,0,0,0,0,0,0,-1,1238,1261,0,0
21,-237,0,0,0,0,0,0,0,0,0,-1,1245,1261,0,0
28,-237,0,0,0,0,0,0,0,0,0,-1,1252,1261,0,0
35,-237,0,0,0,0,0,0,0,0,0,-1,1259,1261,0,0
42,-237,0,0,0,0,0,0,0,0,0,-1,1266,1261,0,0
49,-237,0,0,0,0,0,0,0,0,0,-1,1273,1261,0,0
56,-237,0,0,0,0,0,0,0,0,0,-1,1280,1261,0,0
63,-237,0,0,0,0,0,0,0,0,0,-1,1287,1261,0,0
70,-237,0,0,0,0,0,0,0,0,0,-1,1294,1261,0,0
77,-237,0,0,0,0,0,0,0,0,0,-1,1301,1261,0,0
84,-237,0,0,0,0,0,0,0,0,0,-1,1308,1261,0,0
91,-237,0,0,0,0,0,0,0,0,0,-1,1315,1261,0,0
98,-237,0,0,0,0,0,0,0,0,0,-1,1322,1261,0,0
105,-237,0,0,0,0,0,0,0,0,0,-1,1329,1261,0,0
112,-237,0,0,0,0,0,0,0,0,0,-1,1336,1261,0,0
119,-237,0,0,0,0,0,0,0,0,0,-1,1343,1261,0,0
126,-237,0,0,0,0,0,0,0,0,0,-1,1350,1261,0,0
133,-237,0,0,0,0,0,0,0,0,0,-1,1357,1261,0,0
140,-237,0,0,0,0,0,0,0,0,0,-1,1364,1261,0,0
147,-237,0,0,0,0,0,0,0,0,0,-1,1371,1261,0,0
154,-237,0,0,0,0,0,0,0,0,0,-1,1378,1261,0,0
161,-237,0,0,0,0,0,0,0,0,0,-1,1385,1261,0,0
168,-237,0,0,0,0,0,0,0,0,0,-1,1392,1261,0,0
175,-237,0,0,0,0,0,0,0,0,0,-1,1399,1261,0,0
182,-237,0,0,0,0,0,0,0,0,0,-1,1406,1261,0,0
189,-237,0,0,0,0,0,0,0,0,0,-1,1413,1261,0,0
196,-237,0,0,0,0,0,0,0,0,0,-1,1420,1261,0,0
203,-237,0,0,0,0,0,0,0,0,0,-1,1427,1261,0,0
210,-237,0,0,0,0,0,0,0,0,0,-1,1434,1261,0,0
217,-237,0,0,0,0,0,0,0,0,0,-1,1441,1261,0,0
224,-237,0,0,0,0,0,0,0,0,0,-1,1448,1261,0,0
231,-237,0,0,0,0,0,0,0,0,0,-1,1455,1261,0,0
238,-237,0,0,0,0,0,0,0,0,0,-1,1462,1261,0,0
245,-237,0,0,0,0,0,0,0,0,0,-1,1469,1261,0,0
252,-237,0,0,0,0,0,0,0,0,0,-1,1476,1261,0,0
259,-237,0,0,0,0,0,0,0,0,0,-1,1483,1261,0,0
266,-237,0,0,0,0,0,0,0,0,0,-1,1490,1261,0,0
273,-237,0,0,0,0,0,0,0,0,0,-1,1497,1261,0,0
280,-237,0,0,0,0,0,0,0,0,0,-1,1504,1261,0,0
287,-237,0,0,0,0,0,0,0,0,0,-1,1511,1261,0,0
294,-237,0,0,0,0,0,0,0,0,0,-1,1518,1261,0,0
301,-237,0,0,0,0,0,0,0,0,0,-1,1525,1261,0,0
308,-237,0,0,0,0,0,0,0,0,0,-1,1532,1261,0,0
315,-237,0,0,0,0,0,0,0,0,0,-1,1539,1261,0,0
322,-237,0,0,0,0,0,0,0,0,0,-1,1546,1261,0,0
329,-237,0,0,0,0,0,0,0,0,0,-1,1553,1261,0,0
336,-237,0,0,0,0,0,0,0,0,0,-1,1560,1261,0,0
343,-237,0,0,0,0,0,0,0,0,0,-1,1567,1261,0,0
350,-237,0,0,0,0,0,0,0,0,0,-1,1574,1261,0,0
357,-237,0,0,0,0,0,0,0,0,0,-1,1581,1261,0,0
364,-237,0,0,0,0,0,0,0,0,0,-1,1588,1261,0,0
371,-237,0,0,0,0,0,0,0,0,0,-1,1595,1261,0,0
378,-237,0,0,0,0,0,0,0,0,0,-1,1602,1261,0,0
385,-237,0,0,0,0,0,0,0,0,0,-1,1609,1261,0,0
392,-237,0,0,0,0,0,0,0,0,0,-1,1616,1261,0,0
399,-237,0,0,0,0,0,0,0,0,0,-1,1623,1261,0,0
406,-237,0,0,0,0,0,0,0,0,0,-1,1630,1261,0,0
413,-237,0,0,0,0,0,0,0,0,0,-1,1637,1261,0,0
420,-237,0,0,0,0,0,0,0,0,0,-1,1644,1261,0,0
427,-237,0,0,0,0,0,0,0,0,0,-1,1651,1261,0,0
434,-237,0,0,0,0,0,0,0,0,0,-1,1658,1261,0,0
441,-237,0,0,0,0,0,0,0,0,0,-1,1665,1261,0,0
448,-237,0,0,0,0,0,0,0,0,0,-1,1672,1261,0,0
455,-237,0,0,0,0,0,0,0,0,0,-1,1679,1261,0,0
462,-237,0,0,0,0,0,0,0,0,0,-1,1686,1261,0,0
469,-237,0,0,0,0,0,0,0,0,0,-1,1693,1261,0,0
476,-237,0,0,0,0,0,0,0,0,0,-1,1700,1261,0,0
483,-237,0,0,0,0,0,0,0,0,0,-1,1707,1261,0,0
490,-237,0,0,0,0,0,0,0,0,0,-1,1714,1261,0,0
497,-237,0,0,0,0,0,0,0,0,0,-1,1721,1261,0,0
504,-237,0,0,0,0,0,0,0,0,0,-1,1728,1261,0,0
511,-237,0,0,0,0,0,0,0,0,0,-1,1735,1261,0,0
518,-237,0,0,0,0,0,0,0,0,0,-1,1742,1261,0,0
525,-237,0,0,0,0,0,0,0,0,0,-1,1749,1261,0,0
532,-237,0,0,0,0,0,0,0,0,0,-1,1756,1261,0,0
539,-237,0,0,0,0,0,0,0,0,0,-1,1763,1261,0,0
546,-237,0,0,0,0,0,0,0,0,0,-1,1770,1261,0,0
553,-237,0,0,0,0,0,0,0,0,0,-1,1777,1261,0,0
560,-237,0,0,0,0,0,0,0,0,0,-1,1784,1261,0,0
567,-237,0,0,0,0,0,0,0,0,0,-1,1791,1261,0,0
574,-237,0,0,0,0,0,0,0,0,0,-1,1798,1261,0,0
581,-237,0,0,0,0,0,0,0,0,0,-1,1805,1261,0,0
588,-237,0,0,0,0,0,0,0,0,0,-1,1812,1261,0,0
595,-237,0,0,0,0,0,0,0,0,0,-1,1819,1261,0,0
602,-237,0,0,0,0,0,0,0,0,0,-1,1826,1261,0,0
609,-237,0,0,0,0,0,0,0,0,0,-1,1833,1261,0,0
616,-237,4.2323,0.666992,-0.00632786,0.000837882,0.00176758,0.00125017,-0.00674015,1.34164,0.00496292,0.0373838,1840,1261,4.23226,-0.667019
623,-237,4.34875,0.650269,-0.00384515,0.00377297,0.00212045,0.00432341,-0.0043956,1.31681,0.00503398,0.0324394,1847,1261,4.34878,-0.65021
630,-237,4.37134,0.65271,-0.000827832,0.00516112,0.002883,0.0063234,-0.00199011,1.18758,0.00501243,0.0266036,1854,1261,4.37132,-0.652686
637,-237,4.22632,0.539063,0.00169292,0.00563056,0.00414034,0.00824635,-0.000922873,1.00733,0.0058296,0.0223267,1861,1261,4.22633,-0.539071
644,-237,3.99622,0.307983,0.00313453,0.0053579,0.00545042,0.00980885,-0.00131642,0.886,0.00701931,0.0426526,1868,1261,3.99623,-0.307974
651,-237,4.03992,0.436279,0,0,0,0,0,0,0,-1,1875,1261,4.03989,-0.436317
658,-237,4.40247,0.968994,0.00429574,0.00389604,0.00711906,0.0112178,-0.00302598,0.771366,0.00866511,0.0459682,1882,1261,4.40244,-0.968967
665,-237,5.02466,1.56885,0.00407684,0.00306255,0.00742407,0.0110111,-0.00387168,0.751296,0.00891602,0.045384,1889,1261,5.02466,-1.56884
672,-237,5.27478,1.92297,0,0,0,0,0,0,0,-1,1896,1261,5.27477,-1.923
679,-237,4.61206,0.564209,0,0,0,0,0,0,0,-1,1903,1261,4.61203,-0.564189
686,-237,4.0603,0.81897,0,0,0,0,0,0,0,-1,1910,1261,4.06026,-0.81892
693,-237,3.82776,0.863159,0.00195029,-5.68158e-08,0.00673062,0.00777601,-0.00582578,0.713456,0.00787986,0.0122944,1917,1261,3.82777,-0.863155
700,-237,3.85999,0.818848,0.000740346,-0.000589057,0.00590867,0.00602159,-0.0058703,0.729386,0.00686597,0.0103014,1924,1261,3.86,-0.818871
707,-237,3.87415,0.803223,-0.000162741,-0.000849583,0.00491698,0.0044228,-0.00543512,0.750533,0.00570147,0.00944103,1931,1261,3.8742,-0.803278
714,-237,3.86609,0.782349,-0.000287379,-0.00097455,0.00352337,0.00290912,-0.00417105,0.736794,0.00410932,0.0119594,1938,1261,3.86608,-0.782391
721,-237,3.83923,0.764893,0.000781215,-0.00185269,0.00256062,0.00234369,-0.00341517,0.547883,0.00334401,0.0131897,1945,1261,3.83927,-0.764951
728,-237,3.87097,0.74707,0.00403388,-0.00263817,0.0015947,0.00439544,-0.00299973,0.222956,0.00429488,0.0128737,1952,1261,3.87093,-0.747065
735,-237,3.86902,0.708496,0.00755485,-0.0045437,0.000942541,0.00762784,-0.00461669,0.0772838,0.00714028,0.0162761,1959,1261,3.869,-0.708516
742,-237,3.84729,0.701538,0.0121781,-0.00639324,0.000403597,0.0121869,-0.00640201,0.0217185,0.0109042,0.0129683,1966,1261,3.84727,-0.701548
749,-237,3.84558,0.666748,0.0176533,-0.00920476,0.000194466,0.0176547,-0.00920617,0.00724,0.0157617,0.00918942,1973,1261,3.84558,-0.666724
756,-237,3.81421,0.618408,0.0243894,-0.0131973,0.000117458,0.0243898,-0.0131977,0.00312493,0.0220195,0.0126335,1980,1261,3.81421,-0.618454
763,-237,3.76782,0.610352,0.0326223,-0.0183227,1.08401e-05,0.0326223,-0.0183227,0.00021278,0.0297968,0.0279334,1987,1261,3.76785,-0.610334
770,-237,4.85742,-0.0216064,0.042218,-0.0246773,-0.000122047,0.0422182,-0.0246775,-0.00182444,0.0390623,0.0387339,1994,1261,4.85748,0.0216305
777,-237,5.50403,-0.151367,0.0528173,-0.0322496,-0.000240959,0.052818,-0.0322503,-0.00283255,0.0495904,0.042097,2001,1261,5.50403,0.151353
784,-237,5.66833,-0.529541,0.0638024,-0.0409031,-0.000331868,0.0638034,-0.0409041,-0.0031695,0.0609329,0.0461293,2008,1261,5.66835,0.529494
791,-237,5.81042,-1.21045,0,0,0,0,0,0,0,-1,2015,1261,5.81042,1.21047
798,-237,0,0,0,0,0,0,0,0,0,-1,2022,1261,0,0
805,-237,0,0,0,0,0,0,0,0,0,-1,2029,1261,0,0
812,-237,0,0,0,0,0,0,0,0,0,-1,2036,1261,0,0
-700,-244,0,0,0,0,0,0,0,0,0,-1,524,1268,0,0
-693,-244,0,0,0,0,0,0,0,0,0,-1,531,1268,0,0
-686,-244,0,0,0,0,0,0,0,0,0,-1,538,1268,0,0
-679,-244,0,0,0,0,0,0,0,0,0,-1,545,1268,0,0
-672,-244,1.2832,-0.138916,0,0,0,0,0,0,0,-1,552,1268,1.28319,0.138904
-665,-244,0.565186,0.158325,0.0108921,0.0313066,0.00884813,0.0346078,0.00759096,1.2137,0.0210039,0.0455349,559,1268,0.565173,-0.15836
-658,-244,0.229431,0.391724,0.00389108,0.0310426,0.00894751,0.0337259,0.00120771,1.27943,0.0220924,0.0415086,566,1268,0.229455,-0.391783
-651,-244,0.153259,0.601196,0.000123466,0.0293894,0.00837648,0.0316173,-0.00210445,1.31084,0.0218135,0.04205,573,1268,0.153229,-0.601253
-644,-244,0.0421753,0.95105,-0.001699,0.0267861,0.00745108,0.0286174,-0.00353031,1.3298,0.0203573,0.0463776,580,1268,0.0421858,-0.951058
-637,-244,-1.3739,-0.608032,0,0,0,0,0,0,0,-1,587,1268,-1.3739,0.608031
-630,-244,-0.154114,0.799683,-0.0023798,0.0199851,0.00515664,0.0211168,-0.00351149,1.35476,0.0153826,0.0431563,594,1268,-0.154123,-0.799735
-623,-244,-0.317017,0.746582,-0.00306523,0.0162368,0.00394227,0.0170109,-0.00383936,1.3769,0.0128136,0.0323349,601,1268,-0.317007,-0.746639
-616,-244,-0.255676,0.741089,-0.00255457,0.0128727,0.0034372,0.0136038,-0.00328573,1.3612,0.01034,0.0168639,608,1268,-0.255678,-0.741087
-609,-244,-0.220398,0.723633,-0.00165438,0.00985486,0.00219324,0.0102586,-0.00205816,1.38873,0.00761839,0.0138005,615,1268,-0.220405,-0.723585
-602,-244,-0.234619,0.753662,-0.000697482,0.00703205,0.000754651,0.00710503,-0.000770471,1.47438,0.00501329,0.0139789,622,1268,-0.234608,-0.753668
-595,-244,-0.244873,0.804443,0.000315736,0.00435126,-0.00057548,0.00443172,0.000235275,-1.43188,0.00287926,0.0146532,629,1268,-0.244845,-0.80448
-588,-244,-0.261963,0.807861,0.000716511,0.00170773,-0.00148153,0.00277435,-0.000350111,-0.946809,0.00197663,0.0189268,636,1268,-0.261943,-0.807818
-581,-244,-0.258179,0.827881,0.000486465,-0.00078523,-0.00203624,0.00198383,-0.00228259,-0.634063,0.00246523,0.0171786,643,1268,-0.258192,-0.827937
-574,-244,-0.230042,0.860352,3.40809e-05,-0.00211752,-0.00220176,0.00140881,-0.00349225,-0.558152,0.0029136,0.0127146,650,1268,-0.230061,-0.860321
-567,-244,-0.206604,0.876465,0.00011402,-0.00328999,-0.002509,0.00144383,-0.0046198,-0.487371,0.00365741,0.0092635,657,1268,-0.206586,-0.876501
-560,-244,-0.210999,0.887085,0.000375949,-0.00379127,-0.00305419,0.00198957,-0.00540489,-0.486054,0.00441838,0.0114093,664,1268,-0.210981,-0.887071
-553,-244,-0.294434,0.851685,0.000649792,-0.00422693,-0.00350042,0.0024774,-0.00605454,-0.481181,0.00506818,0.0335753,671,1268,-0.294439,-0.851655
-546,-244,-0.199768,0.128296,0.000466862,-0.00408656,-0.00343248,0.00230905,-0.00592875,-0.492569,0.00490675,0.0495172,678,1268,-0.199745,-0.128297
-539,-244,-0.0180664,-0.2146,3.85444e-05,-0.00370212,-0.0031646,0.00184419,-0.00550777,-0.518504,0.00441683,0.0471373,685,1268,-0.0180902,0.214644
-532,-244,0.431396,-0.103027,0,0,0,0,0,0,0,-1,692,1268,0.431392,0.103046
-525,-244,0.0967407,0.411865,-0.00102834,-0.00156877,-0.00226499,0.000982493,-0.00357961,-0.726029,0.00277255,0.0446103,699,1268,0.0967443,-0.411822
-518,-244,-0.257568,0.640503,-0.00196063,0.00044475,-0.00154353,0.00119883,-0.00271471,-1.11636,0.0023153,0.0418416,706,1268,-0.257555,-0.640561
-511,-244,-0.468933,0.726196,-0.00349923,0.00311342,-0.000460785,0.00314537,-0.00353118,-1.50156,0.00385685,0.0402301,713,1268,-0.468908,-0.726196
-504,-244,-0.561462,0.814453,-0.00609794,0.00635922,0.0011179,0.00645875,-0.00619747,1.482,0.00730759,0.0423774,720,1268,-0.561449,-0.814422
-497,-244,-0.5896,0.747437,-0.0101193,0.00991846,0.00302271,0.0103645,-0.0105653,1.42429,0.012084,0.0446416,727,1268,-0.589576,-0.747463
-490,-244,0,0,0,0,0,0,0,0,0,-1,734,1268,0,0
-483,-244,0,0,0,0,0,0,0,0,0,-1,741,1268,0,0
-476,-244,0,0,0,0,0,0,0,0,0,-1,748,1268,0,0
-469,-244,0,0,0,0,0,0,0,0,0,-1,755,1268,0,0
-462,-244,0,0,0,0,0,0,0,0,0,-1,762,1268,0,0
-455,-244,0,0,0,0,0,0,0,0,0,-1,769,1268,0,0
-448,-244,0,0,0,0,0,0,0,0,0,-1,776,1268,0,0
-441,-244,0,0,0,0,0,0,0,0,0,-1,783,1268,0,0
-434,-244,0,0,0,0,0,0,0,0,0,-1,790,1268,0,0
-427,-244,0,0,0,0,0,0,0,0,0,-1,797,1268,0,0
-420,-244,0,0,0,0,0,0,0,0,0,-1,804,1268,0,0
-413,-244,0,0,0,0,0,0,0,0,0,-1,811,1268,0,0
-406,-244,0,0,0,0,0,0,0,0,0,-1,818,1268,0,0
-399,-244,0,0,0,0,0,0,0,0,0,-1,825,1268,0,0
-392,-244,0,0,0,0,0,0,0,0,0,-1,832,1268,0,0
-385,-244,0,0,0,0,0,0,0,0,0,-1,839,1268,0,0
-378,-244,0,0,0,0,0,0,0,0,0,-1,846,1268,0,0
-371,-244,0,0,0,0,0,0,0,0,0,-1,853,1268,0,0
-364,-244,0,0,0,0,0,0,0,0,0,-1,860,1268,0,0
-357,-244,0,0,0,0,0,0,0,0,0,-1,867,1268,0,0
-350,-244,0,0,0,0,0,0,0,0,0,-1,874,1268,0,0
-343,-244,0,0,0,0,0,0,0,0,0,-1,881,1268,0,0
-336,-244,0,0,0,0,0,0,0,0,0,-1,888,1268,0,0
-329,-244,0,0,0,0,0,0,0,0,0,-1,895,1268,0,0
-322,-244,0,0,0,0,0,0,0,0,0,-1,902,1268,0,0
-315,-244,0,0,0,0,0,0,0,0,0,-1,909,1268,0,0
-308,-244,0,0,0,0,0,0,0,0,0,-1,916,1268,0,0
-301,-244,0,0,0,0,0,0,0,0,0,-1,923,1268,0,0
-294,-244,0,0,0,0,0,0,0,0,0,-1,930,1268,0,0
-287,-244,0,0,0,0,0,0,0,0,0,-1,937,1268,0,0
-280,-244,0,0,0,0,0,0,0,0,0,-1,944,1268,0,0
-273,-244,0,0,0,0,0,0,0,0,0,-1,951,1268,0,0
-266,-244,0,0,0,0,0,0,0,0,0,-1,958,1268,0,0
-259,-244,0,0,0,0,0,0,0,0,0,-1,965,1268,0,0
-252,-244,0,0,0,0,0,0,0,0,0,-1,972,1268,0,0
-245,-244,0,0,0,0,0,0,0,0,0,-1,979,1268,0,0
-238,-244,0,0,0,0,0,0,0,0,0,-1,986,1268,0,0
-231,-244,0,0,0,0,0,0,0,0,0,-1,993,1268,0,0
-224,-244,0,0,0,0,0,0,0,0,0,-1,1000,1268,0,0
-217,-244,0,0,0,0,0,0,0,0,0,-1,1007,1268,0,0
-210,-244,0,0,0,0,0,0,0,0,0,-1,1014,1268,0,0
-203,-244,0,0,0,0,0,0,0,0,0,-1,1021,1268,0,0
-196,-244,0,0,0,0,0,0,0,0,0,-1,1028,1268,0,0
-189,-244,0,0,0,0,0,0,0,0,0,-1,1035,1268,0,0
-182,-244,0,0,0,0,0,0,0,0,0,-1,1042,1268,0,0
-175,-244,0,0,0,0,0,0,0,0,0,-1,1049,1268,0,0
-168,-244,0,0,0,0,0,0,0,0,0,-1,1056,1268,0,0
-161,-244,0,0,0,0,0,0,0,0,0,-1,1063,1268,0,0
-154,-244,0,0,0,0,0,0,0,0,0,-1,1070,1268,0,0
-147,-244,0,0,0,0,0,0,0,0,0,-1,1077,1268,0,0
-140,-244,0,0,0,0,0,0,0,0,0,-1,1084,1268,0,0
-133,-244,0,0,0,0,0,0,0,0,0,-1,1091,1268,0,0
-126,-244,0,0,0,0,0,0,0,0,0,-1,1098,1268,0,0
-119,-244,0,0,0,0,0,0,0,0,0,-1,1105,1268,0,0
-112,-244,0,0,0,0,0,0,0,0,0,-1,1112,1268,0,0
-105,-244,0,0,0,0,0,0,0,0,0,-1,1119,1268,0,0
-98,-244,0,0,0,0,0,0,0,0,0,-1,1126,1268,0,0
-91,-244,0,0,0,0,0,0,0,0,0,-1,1133,1268,0,0
-84,-244,0,0,0,0,0,0,0,0,0,-1,1140,1268,0,0
-77,-244,0,0,0,0,0,0,0,0,0,-1,1147,1268,0,0
-70,-244,0,0,0,0,0,0,0,0,0,-1,1154,1268,0,0
-63,-244,0,0,0,0,0,0,0,0,0,-1,1161,1268,0,0
-56,-244,0,0,0,0,0,0,0,0,0,-1,1168,1268,0,0
-49,-244,0,0,0,0,0,0,0,0,0,-1,1175,1268,0,0
-42,-244,0,0,0,0,0,0,0,0,0,-1,1182,1268,0,0
-35,-244,0,0,0,0,0,0,0,0,0,-1,1189,1268,0,0
-28,-244,0,0,0,0,0,0,0,0,0,-1,1196,1268,0,0
-21,-244,0,0,0,0,0,0,0,0,0,-1,1203,1268,0,0
-14,-244,0,0,0,0,0,0,0,0,0,-1,1210,1268,0,0
-7,-244,0,0,0,0,0,0,0,0,0,-1,1217,1268,0,0
0,-244,0,0,0,0,0,0,0,0,0,-1,1224,1268,0,0
7,-244,0,0,0,0,0,0,0,0,0,-1,1231,1268,0,0
14,-244,0,0,0,0,0,0,0,0,0,-1,1238,1268,0,0
21,-244,0,0,0,0,0,0,0,0,0,-1,1245,1268,0,0
28,-244,0,0,0,0,0,0,0,0,0,-1,1252,1268,0,0
35,-244,0,0,0,0,0,0,0,0,0,-1,1259,1268,0,0
42,-244,0,0,0,0,0,0,0,0,0,-1,1266,1268,0,0
49,-244,0,0,0,0,0,0,0,0,0,-1,1273,1268,0,0
56,-244,0,0,0,0,0,0,0,0,0,-1,1280,1268,0,0
63,-244,0,0,0,0,0,0,0,0,0,-1,1287,1268,0,0
70,-244,0,0,0,0,0,0,0,0,0,-1,1294,1268,0,0
77,-244,0,0,0,0,0,0,0,0,0,-1,1301,1268,0,0
84,-244,0,0,0,0,0,0,0,0,0,-1,1308,1268,0,0
91,-244,0,0,0,0,0,0,0,0,0,-1,1315,1268,0,0
98,-244,0,0,0,0,0,0,0,0,0,-1,1322,1268,0,0
105,-244,0,0,0,0,0,0,0,0,0,-1,1329,1268,0,0
112,-244,0,0,0,0,0,0,0,0,0,-1,1336,1268,0,0
119,-244,0,0,0,0,0,0,0,0,0,-1,1343,1268,0,0
126,-244,0,0,0,0,0,0,0,0,0,-1,1350,1268,0,0
133,-244,0,0,0,0,0,0,0,0,0,-1,1357,1268,0,0
140,-244,0,0,0,0,0,0,0,0,0,-1,1364,1268,0,0
147,-244,0,0,0,0,0,0,0,0,0,-1,1371,1268,0,0
154,-244,0,0,0,0,0,0,0,0,0,-1,1378,1268,0,0
161,-244,0,0,0,0,0,0,0,0,0,-1,1385,1268,0,0
168,-244,0,0,0,0,0,0,0,0,0,-1,1392,1268,0,0
175,-244,0,0,0,0,0,0,0,0,0,-1,1399,1268,0,0
182,-244,0,0,0,0,0,0,0,0,0,-1,1406,1268,0,0
189,-244,0,0,0,0,0,0,0,0,0,-1,1413,1268,0,0
196,-244,0,0,0,0,0,0,0,0,0,-1,1420,1268,0,0
203,-244,0,0,0,0,0,0,0,0,0,-1,1427,1268,0,0
210,-244,0,0,0,0,0,0,0,0,0,-1,1434,1268,0,0
217,-244,0,0,0,0,0,0,0,0,0,-1,1441,1268,0,0
224,-244,0,0,0,0,0,0,0,0,0,-1,1448,1268,0,0
231,-244,0,0,0,0,0,0,0,0,0,-1,1455,1268,0,0
238,-244,0,0,0,0,0,0,0,0,0,-1,1462,1268,0,0
245,-244,0,0,0,0,0,0,0,0,0,-1,1469,1268,0,0
252,-244,0,0,0,0,0,0,0,0,0,-1,1476,1268,0,0
259,-244,0,0,0,0,0,0,0,0,0,-1,1483,1268,0,0
266,-244,0,0,0,0,0,0,0,0,0,-1,1490,1268,0,0
273,-244,0,0,0,0,0,0,0,0,0,-1,1497,1268,0,0
280,-244,0,0,0,0,0,0,0,0,0,-1,1504,1268,0,0
287,-244,0,0,0,0,0,0,0,0,0,-1,1511,1268,0,0
294,-244,0,0,0,0,0,0,0,0,0,-1,1518,1268,0,0
301,-244,0,0,0,0,0,0,0,0,0,-1,1525,1268,0,0
308,-244,0,0,0,0,0,0,0,0,0,-1,1532,1268,0,0
315,-244,0,0,0,0,0,0,0,0,0,-1,1539,1268,0,0
322,-244,0,0,0,0,0,0,0,0,0,-1,1546,1268,0,0
329,-244,0,0,0,0,0,0,0,0,0,-1,1553,1268,0,0
336,-244,0,0,0,0,0,0,0,0,0,-1,1560,1268,0,0
343,-244,0,0,0,0,0,0,0,0,0,-1,1567,1268,0,0
350,-244,0,0,0,0,0,0,0,0,0,-1,1574,1268,0,0
357,-244,0,0,0,0,0,0,0,0,0,-1,1581,1268,0,0
364,-244,0,0,0,0,0,0,0,0,0,-1,1588,1268,0,0
371,-244,0,0,0,0,0,0,0,0,0,-1,1595,1268,0,0
378,-244,0,0,0,0,0,0,0,0,0,-1,1602,1268,0,0
385,-244,0,0,0,0,0,0,0,0,0,-1,1609,1268,0,0
392,-244,0,0,0,0,0,0,0,0,0,-1,1616,1268,0,0
399,-244,0,0,0,0,0,0,0,0,0,-1,1623,1268,0,0
406,-244,0,0,0,0,0,0,0,0,0,-1,1630,1268,0,0
413,-244,0,0,0,0,0,0,0,0,0,-1,1637,1268,0,0
420,-244,0,0,0,0,0,0,0,0,0,-1,1644,1268,0,0
427,-244,0,0,0,0,0,0,0,0,0,-1,1651,1268,0,0
434,-244,0,0,0,0,0,0,0,0,0,-1,1658,1268,0,0
441,-244,0,0,0,0,0,0,0,0,0,-1,1665,1268,0,0
448,-244,0,0,0,0,0,0,0,0,0,-1,1672,1268,0,0
455,-244,0,0,0,0,0,0,0,0,0,-1,1679,1268,0,0
462,-244,0,0,0,0,0,0,0,0,0,-1,1686,1268,0,0
469,-244,0,0,0,0,0,0,0,0,0,-1,1693,1268,0,0
476,-244,0,0,0,0,0,0,0,0,0,-1,1700,1268,0,0
483,-244,0,0,0,0,0,0,0,0,0,-1,1707,1268,0,0
490,-244,0,0,0,0,0,0,0,0,0,-1,1714,1268,0,0
497,-244,0,0,0,0,0,0,0,0,0,-1,1721,1268,0,0
504,-244,0,0,0,0,0,0,0,0,0,-1,1728,1268,0,0
511,-244,0,0,0,0,0,0,0,0,0,-1,1735,1268,0,0
518,-244,0,0,0,0,0,0,0,0,0,-1,1742,1268,0,0
525,-244,0,0,0,0,0,0,0,0,0,-1,1749,1268,0,0
532,-244,0,0,0,0,0,0,0,0,0,-1,1756,1268,0,0
539,-244,0,0,0,0,0,0,0,0,0,-1,1763,1268,0,0
546,-244,0,0,0,0,0,0,0,0,0,-1,1770,1268,0,0
553,-244,0,0,0,0,0,0,0,0,0,-1,1777,1268,0,0
560,-244,0,0,0,0,0,0,0,0,0,-1,1784,1268,0,0
567,-244,0,0,0,0,0,0,0,0,0,-1,1791,1268,0,0
574,-244,0,0,0,0,0,0,0,0,0,-1,1798,1268,0,0
581,-244,0,0,0,0,0,0,0,0,0,-1,1805,1268,0,0
588,-244,0,0,0,0,0,0,0,0,0,-1,1812,1268,0,0
595,-244,0,0,0,0,0,0,0,0,0,-1,1819,1268,0,0
602,-244,0,0,0,0,0,0,0,0,0,-1,1826,1268,0,0
609,-244,0,0,0,0,0,0,0,0,0,-1,1833,1268,0,0
616,-244,4.26978,0.538452,-0.00388283,0.00128881,0.00252216,0.00231517,-0.00490918,1.18433,0.00425966,0.0346877,1840,1268,4.26974,-0.538396
623,-244,4.30139,0.602539,-0.00190287,0.00390113,0.00280363,0.00503422,-0.00303596,1.18672,0.00470669,0.0277701,1847,1268,4.30135,-0.602526
630,-244,4.28931,0.602783,0.000359477,0.0053071,0.00349845,0.00711801,-0.00145144,1.09314,0.00529587,0.0239417,1854,1268,4.28932,-0.60276
637,-244,4.12109,0.486084,0.00213364,0.0057718,0.00464744,0.00894349,-0.00103805,0.97194,0.00633674,0.0398959,1861,1268,4.12105,-0.486029
644,-244,3.95825,0.365601,0.00314475,0.00559162,0.00575993,0.0102566,-0.00152024,0.890045,0.00739675,0.0494542,1868,1268,3.95831,-0.365612
651,-244,4.41052,0.268433,0.00378523,0.00503781,0.00658735,0.0110286,-0.00220554,0.832793,0.00818719,0.0454271,1875,1268,4.4105,-0.268436
658,-244,4.32153,0.937988,0,0,0,0,0,0,0,-1,1882,1268,4.32156,-0.938
665,-244,4.72144,1.82629,0.00371758,0.00353636,0.00732497,0.0109525,-0.00369857,0.779214,0.00879761,0.0460897,1889,1268,4.72141,-1.82631
672,-244,4.91724,0.49707,0.00317703,0.00272097,0.00738081,0.0103333,-0.00443533,0.769956,0.0087504,0.0445001,1896,1268,4.91724,-0.497019
679,-244,4.48206,0.666748,0.00260464,0.00202926,0.00726951,0.00959215,-0.00495826,0.765621,0.00854151,0.0406353,1903,1268,4.48203,-0.666754
686,-244,3.94409,0.835938,0,0,0,0,0,0,0,-1,1910,1268,3.94408,-0.835925
693,-244,3.80798,0.860962,0.00196311,0.000342024,0.00651945,0.00772221,-0.00541708,0.723552,0.00762479,0.00904991,1917,1268,3.808,-0.861018
700,-244,3.81934,0.825928,0.000795401,-0.000316433,0.00561561,0.00588254,-0.00540357,0.736061,0.006518,0.00822055,1924,1268,3.81932,-0.825933
707,-244,3.83008,0.800171,3.38199e-05,-0.000627801,0.00458928,0.0043042,-0.00489818,0.749419,0.00531668,0.00956602,1931,1268,3.83012,-0.800208
714,-244,3.84375,0.782104,0.000124646,-0.000916664,0.00322022,0.00286603,-0.00365805,0.70525,0.00377592,0.0100251,1938,1268,3.8438,-0.78206
721,-244,3.82813,0.77417,0.00143342,-0.00198296,0.00235587,0.00263522,-0.00318476,0.471718,0.00336516,0.0111392,1945,1268,3.82813,-0.774172
728,-244,3.82556,0.728271,0.00483985,-0.00303668,0.00152539,0.00512494,-0.00332177,0.184766,0.00491362,0.0148468,1952,1268,3.82554,-0.728303
735,-244,3.80957,0.674927,0.00856073,-0.00518413,0.00103782,0.00863865,-0.00526205,0.0749396,0.00810411,0.0205173,1959,1268,3.80956,-0.674936
742,-244,3.81189,0.673706,0.0133848,-0.00751208,0.000754179,0.013412,-0.00753926,0.036028,0.0122536,0.0139181,1966,1268,3.81191,-0.673736
749,-244,3.81238,0.656372,0.0191913,-0.0109789,0.000812994,0.0192132,-0.0110008,0.0269208,0.0176576,0.0165362,1973,1268,3.81239,-0.65636
756,-244,3.7832,0.608154,0.0264755,-0.0158554,0.0010228,0.0265002,-0.0158801,0.0241433,0.024723,0.0219517,1980,1268,3.78321,-0.608096
763,-244,3.95544,0.616943,0.0354077,-0.0222267,0.00129237,0.0354367,-0.0222557,0.0224085,0.0335972,0.035592,1987,1268,3.95542,-0.616983
770,-244,4.42371,0.674438,0.0458103,-0.030281,0.00165251,0.0458462,-0.0303168,0.0217038,0.0442764,0.0401882,1994,1268,4.42376,-0.674393
777,-244,5.22717,0.321167,0.0573041,-0.0401307,0.00216505,0.0573522,-0.0401788,0.0222059,0.0565997,0.0442824,2001,1268,5.22714,-0.321157
784,-244,5.33057,0.28064,0.0691785,-0.0517692,0.00286797,0.0692465,-0.0518372,0.0236947,0.0701481,0.0466965,2008,1268,5.33062,-0.280655
791,-244,0,0,0,0,0,0,0,0,0,-1,2015,1268,0,0
798,-244,0,0,0,0,0,0,0,0,0,-1,2022,1268,0,0
805,-244,0,0,0,0,0,0,0,0,0,-1,2029,1268,0,0
812,-244,0,0,0,0,0,0,0,0,0,-1,2036,1268,0,0
-700,-251,0,0,0,0,0,0,0,0,0,-1,524,1275,0,0
-693,-251,0,0,0,0,0,0,0,0,0,-1,531,1275,0,0
-686,-251,0,0,0,0,0,0,0,0,0,-1,538,1275,0,0
-679,-251,0,0,0,0,0,0,0,0,0,-1,545,1275,0,0
-672,-251,0,0,0,0,0,0,0,0,0,-1,552,1275,0,0
-665,-251,0.127014,-0.0454102,-0.00472562,0.0355512,0.015848,0.0410392,-0.0102136,1.23743,0.0313241,0.0441487,559,1275,0.12701,0.0453505
-658,-251,-0.0501709,0.268311,-0.00571193,0.0364696,0.0143399,0.0408829,-0.0101251,1.27224,0.0311831,0.0444373,566,1275,-0.0501597,-0.268307
-651,-251,-0.0817871,0.551025,-0.00557222,0.035313,0.0125059,0.0388349,-0.00909413,1.29629,0.029394,0.0466855,573,1275,-0.0817571,-0.551005
-644,-251,-0.0998535,0.890015,-0.00487955,0.0326926,0.0105954,0.0354746,-0.00766149,1.31403,0.0265743,0.047571,580,1275,-0.0998602,-0.890023
-637,-251,-0.208862,1.22437,0,0,0,0,0,0,0,-1,587,1275,-0.208871,-1.22437
-630,-251,-0.378418,0.732056,0,0,0,0,0,0,0,-1,594,1275,-0.378434,-0.732071
-623,-251,-0.290771,0.744751,-0.00251192,0.020487,0.00521422,0.0216139,-0.00363885,1.35794,0.0157628,0.0372122,601,1275,-0.29075,-0.7448
-616,-251,-0.21698,0.742798,-0.00171375,0.0164395,0.00414549,0.0173414,-0.00261561,1.35658,0.0125242,0.019979,608,1275,-0.217,-0.742792
-609,-251,-0.221497,0.704834,-0.000985245,0.0126219,0.00273345,0.0131505,-0.00151382,1.37978,0.0093127,0.0190166,615,1275,-0.221498,-0.704793
-602,-251,-0.219727,0.740723,-0.000322003,0.009236,0.00122521,0.00939056,-0.000476559,1.44531,0.00642512,0.0135532,622,1275,-0.219754,-0.740705
-595,-251,-0.213013,0.775391,0.000449763,0.00583496,-0.000168601,0.00584024,0.00044449,-1.53953,0.00375411,0.0118684,629,1275,-0.212986,-0.775343
-588,-251,-0.219421,0.802734,0.000679808,0.00252707,-0.00112014,0.00305527,0.000151609,-1.13017,0.00198824,0.0140144,636,1275,-0.219398,-0.802778
-581,-251,-0.214966,0.844482,0.000415971,-0.000582899,-0.00167868,0.00166793,-0.00183486,-0.64081,0.00202311,0.0137607,643,1275,-0.21496,-0.844504
-574,-251,-0.202942,0.884277,-3.62721e-05,-0.00231823,-0.00190128,0.00104011,-0.00339461,-0.515147,0.00267797,0.0124458,650,1275,-0.202941,-0.884299
-567,-251,-0.194519,0.894043,0.000194635,-0.00369704,-0.00229652,0.00125883,-0.00476123,-0.433936,0.00366652,0.0105676,657,1275,-0.194541,-0.894049
-560,-251,-0.186157,0.898193,0.000696835,-0.00425542,-0.00302571,0.00213046,-0.00568904,-0.442479,0.00466782,0.0111924,664,1275,-0.186135,-0.898165
-553,-251,-0.198975,0.892212,0.00123881,-0.00472523,-0.00368807,0.0029996,-0.00648602,-0.44543,0.00559848,0.0244264,671,1275,-0.198949,-0.892231
-546,-251,-0.183655,0.671997,0.00127686,-0.00453579,-0.00374288,0.0031093,-0.00636823,-0.455276,0.00557864,0.0446662,678,1275,-0.183654,-0.672015
-539,-251,-0.0579224,0.0899658,0.00107292,-0.00408375,-0.00362157,0.00294021,-0.00595105,-0.476052,0.00523055,0.0445702,685,1275,-0.0579347,-0.0899542
-532,-251,0.192444,-0.307251,0.000783786,-0.00323079,-0.00333213,0.00266652,-0.00511353,-0.514305,0.00456527,0.0426479,692,1275,0.192446,0.307256
-525,-251,0.470764,0.334229,0,0,0,0,0,0,0,-1,699,1275,0.470747,-0.334219
-518,-251,-0.33313,1.17847,-0.000262683,0.000410975,-0.00233749,0.00243578,-0.00228749,-0.856955,0.00272743,0.0441418,706,1275,-0.333146,-1.17848
-511,-251,-0.431824,0.748413,-0.00171842,0.00322807,-0.00120616,0.00350651,-0.00199686,-1.34392,0.00321697,0.0420557,713,1275,-0.431795,-0.748444
-504,-251,-0.465454,0.738281,-0.00441832,0.00657284,0.000654416,0.00661166,-0.00445715,1.51154,0.00643081,0.0413381,720,1275,-0.465435,-0.738301
-497,-251,-0.5448,0.809937,-0.00892697,0.0101236,0.00332796,0.0106882,-0.0094916,1.40273,0.0116576,0.0461813,727,1275,-0.544828,-0.809991
-490,-251,0,0,0,0,0,0,0,0,0,-1,734,1275,0,0
-483,-251,0,0,0,0,0,0,0,0,0,-1,741,1275,0,0
-476,-251,0,0,0,0,0,0,0,0,0,-1,748,1275,0,0
-469,-251,0,0,0,0,0,0,0,0,0,-1,755,1275,0,0
-462,-251,0,0,0,0,0,0,0,0,0,-1,762,1275,0,0
-455,-251,0,0,0,0,0,0,0,0,0,-1,769,1275,0,0
-448,-251,0,0,0,0,0,0,0,0,0,-1,776,1275,0,0
-441,-251,0,0,0,0,0,0,0,0,0,-1,783,1275,0,0
-434,-251,0,0,0,0,0,0,0,0,0,-1,790,1275,0,0
-427,-251,0,0,0,0,0,0,0,0,0,-1,797,1275,0,0
-420,-251,0,0,0,0,0,0,0,0,0,-1,804,1275,0,0
-413,-251,0,0,0,0,0,0,0,0,0,-1,811,1275,0,0
-406,-251,0,0,0,0,0,0,0,0,0,-1,818,1275,0,0
-399,-251,0,0,0,0,0,0,0,0,0,-1,825,1275,0,0
-392,-251,0,0,0,0,0,0,0,0,0,-1,832,1275,0,0
-385,-251,0,0,0,0,0,0,0,0,0,-1,839,1275,0,0
-378,-251,0,0,0,0,0,0,0,0,0,-1,846,1275,0,0
-371,-251,0,0,0,0,0,0,0,0,0,-1,853,1275,0,0
-364,-251,0,0,0,0,0,0,0,0,0,-1,860,1275,0,0
-357,-251,0,0,0,0,0,0,0,0,0,-1,867,1275,0,0
-350,-251,0,0,0,0,0,0,0,0,0,-1,874,1275,0,0
-343,-251,0,0,0,0,0,0,0,0,0,-1,881,1275,0,0
-336,-251,0,0,0,0,0,0,0,0,0,-1,888,1275,0,0
-329,-251,0,0,0,0,0,0,0,0,0,-1,895,1275,0,0
-322,-251,0,0,0,0,0,0,0,0,0,-1,902,1275,0,0
-315,-251,0,0,0,0,0,0,0,0,0,-1,909,1275,0,0
-308,-251,0,0,0,0,0,0,0,0,0,-1,916,1275,0,0
-301,-251,0,0,0,0,0,0,0,0,0,-1,923,1275,0,0
-294,-251,0,0,0,0,0,0,0,0,0,-1,930,1275,0,0
-287,-251,0,0,0,0,0,0,0,0,0,-1,937,1275,0,0
-280,-251,0,0,0,0,0,0,0,0,0,-1,944,1275,0,0
-273,-251,0,0,0,0,0,0,0,0,0,-1,951,1275,0,0
-266,-251,0,0,0,0,0,0,0,0,0,-1,958,1275,0,0
-259,-251,0,0,0,0,0,0,0,0,0,-1,965,1275,0,0
-252,-251,0,0,0,0,0,0,0,0,0,-1,972,1275,0,0
-245,-251,0,0,0,0,0,0,0,0,0,-1,979,1275,0,0
-238,-251,0,0,0,0,0,0,0,0,0,-1,986,1275,0,0
-231,-251,0,0,0,0,0,0,0,0,0,-1,993,1275,0,0
-224,-251,0,0,0,0,0,0,0,0,0,-1,1000,1275,0,0
-217,-251,0,0,0,0,0,0,0,0,0,-1,1007,1275,0,0
-210,-251,0,0,0,0,0,0,0,0,0,-1,1014,1275,0,0
-203,-251,0,0,0,0,0,0,0,0,0,-1,1021,1275,0,0
-196,-251,0,0,0,0,0,0,0,0,0,-1,1028,1275,0,0
-189,-251,0,0,0,0,0,0,0,0,0,-1,1035,1275,0,0
-182,-251,0,0,0,0,0,0,0,0,0,-1,1042,1275,0,0
-175,-251,0,0,0,0,0,0,0,0,0,-1,1049,1275,0,0
-168,-251,0,0,0,0,0,0,0,0,0,-1,1056,1275,0,0
-161,-251,0,0,0,0,0,0,0,0,0,-1,1063,1275,0,0
-154,-251,0,0,0,0,0,0,0,0,0,-1,1070,1275,0,0
-147,-251,0,0,0,0,0,0,0,0,0,-1,1077,1275,0,0
-140,-251,0,0,0,0,0,0,0,0,0,-1,1084,1275,0,0
-133,-251,0,0,0,0,0,0,0,0,0,-1,1091,1275,0,0
-126,-251,0,0,0,0,0,0,0,0,0,-1,1098,1275,0,0
-119,-251,0,0,0,0,0,0,0,0,0,-1,1105,1275,0,0
-112,-251,0,0,0,0,0,0,0,0,0,-1,1112,1275,0,0
-105,-251,0,0,0,0,0,0,0,0,0,-1,1119,1275,0,0
-98,-251,0,0,0,0,0,0,0,0,0,-1,1126,1275,0,0
-91,-251,0,0,0,0,0,0,0,0,0,-1,1133,1275,0,0
-84,-251,0,0,0,0,0,0,0,0,0,-1,1140,1275,0,0
-77,-251,0,0,0,0,0,0,0,0,0,-1,1147,1275,0,0
-70,-251,0,0,0,0,0,0,0,0,0,-1,1154,1275,0,0
-63,-251,0,0,0,0,0,0,0,0,0,-1,1161,1275,0,0
-56,-251,0,0,0,0,0,0,0,0,0,-1,1168,1275,0,0
-49,-251,0,0,0,0,0,0,0,0,0,-1,1175,1275,0,0
-42,-251,0,0,0,0,0,0,0,0,0,-1,1182,1275,0,0
-35,-251,0,0,0,0,0,0,0,0,0,-1,1189,1275,0,0
-28,-251,0,0,0,0,0,0,0,0,0,-1,1196,1275,0,0
-21,-251,0,0,0,0,0,0,0,0,0,-1,1203,1275,0,0
-14,-251,0,0,0,0,0,0,0,0,0,-1,1210,1275,0,0
-7,-251,0,0,0,0,0,0,0,0,0,-1,1217,1275,0,0
0,-251,0,0,0,0,0,0,0,0,0,-1,1224,1275,0,0
7,-251,0,0,0,0,0,0,0,0,0,-1,1231,1275,0,0
14,-251,0,0,0,0,0,0,0,0,0,-1,1238,1275,0,0
21,-251,0,0,0,0,0,0,0,0,0,-1,1245,1275,0,0
28,-251,0,0,0,0,0,0,0,0,0,-1,1252,1275,0,0
35,-251,0,0,0,0,0,0,0,0,0,-1,1259,1275,0,0
42,-251,0,0,0,0,0,0,0,0,0,-1,1266,1275,0,0
49,-251,0,0,0,0,0,0,0,0,0,-1,1273,1275,0,0
56,-251,0,0,0,0,0,0,0,0,0,-1,1280,1275,0,0
63,-251,0,0,0,0,0,0,0,0,0,-1,1287,1275,0,0
70,-251,0,0,0,0,0,0,0,0,0,-1,1294,1275,0,0
77,-251,0,0,0,0,0,0,0,0,0,-1,1301,1275,0,0
84,-251,0,0,0,0,0,0,0,0,0,-1,1308,1275,0,0
91,-251,0,0,0,0,0,0,0,0,0,-1,1315,1275,0,0
98,-251,0,0,0,0,0,0,0,0,0,-1,1322,1275,0,0
105,-251,0,0,0,0,0,0,0,0,0,-1,1329,1275,0,0
112,-251,0,0,0,0,0,0,0,0,0,-1,1336,1275,0,0
119,-251,0,0,0,0,0,0,0,0,0,-1,1343,1275,0,0
126,-251,0,0,0,0,0,0,0,0,0,-1,1350,1275,0,0
133,-251,0,0,0,0,0,0,0,0,0,-1,1357,1275,0,0
140,-251,0,0,0,0,0,0,0,0,0,-1,1364,1275,0,0
147,-251,0,0,0,0,0,0,0,0,0,-1,1371,1275,0,0
154,-251,0,0,0,0,0,0,0,0,0,-1,1378,1275,0,0
161,-251,0,0,0,0,0,0,0,0,0,-1,1385,1275,0,0
168,-251,0,0,0,0,0,0,0,0,0,-1,1392,1275,0,0
175,-251,0,0,0,0,0,0,0,0,0,-1,1399,1275,0,0
182,-251,0,0,0,0,0,0,0,0,0,-1,1406,1275,0,0
189,-251,0,0,0,0,0,0,0,0,0,-1,1413,1275,0,0
196,-251,0,0,0,0,0,0,0,0,0,-1,1420,1275,0,0
203,-251,0,0,0,0,0,0,0,0,0,-1,1427,1275,0,0
210,-251,0,0,0,0,0,0,0,0,0,-1,1434,1275,0,0
217,-251,0,0,0,0,0,0,0,0,0,-1,1441,1275,0,0
224,-251,0,0,0,0,0,0,0,0,0,-1,1448,1275,0,0
231,-251,0,0,0,0,0,0,0,0,0,-1,1455,1275,0,0
238,-251,0,0,0,0,0,0,0,0,0,-1,1462,1275,0,0
245,-251,0,0,0,0,0,0,0,0,0,-1,1469,1275,0,0
252,-251,0,0,0,0,0,0,0,0,0,-1,1476,1275,0,0
259,-251,0,0,0,0,0,0,0,0,0,-1,1483,1275,0,0
266,-251,0,0,0,0,0,0,0,0,0,-1,1490,1275,0,0
273,-251,0,0,0,0,0,0,0,0,0,-1,1497,1275,0,0
280,-251,0,0,0,0,0,0,0,0,0,-1,1504,1275,0,0
287,-251,0,0,0,0,0,0,0,0,0,-1,1511,1275,0,0
294,-251,0,0,0,0,0,0,0,0,0,-1,1518,1275,0,0
301,-251,0,0,0,0,0,0,0,0,0,-1,1525,1275,0,0
308,-251,0,0,0,0,0,0,0,0,0,-1,1532,1275,0,0
315,-251,0,0,0,0,0,0,0,0,0,-1,1539,1275,0,0
322,-251,0,0,0,0,0,0,0,0,0,-1,1546,1275,0,0
329,-251,0,0,0,0,0,0,0,0,0,-1,1553,1275,0,0
336,-251,0,0,0,0,0,0,0,0,0,-1,1560,1275,0,0
343,-251,0,0,0,0,0,0,0,0,0,-1,1567,1275,0,0
350,-251,0,0,0,0,0,0,0,0,0,-1,1574,1275,0,0
357,-251,0,0,0,0,0,0,0,0,0,-1,1581,1275,0,0
364,-251,0,0,0,0,0,0,0,0,0,-1,1588,1275,0,0
371,-251,0,0,0,0,0,0,0,0,0,-1,1595,1275,0,0
378,-251,0,0,0,0,0,0,0,0,0,-1,1602,1275,0,0
385,-251,0,0,0,0,0,0,0,0,0,-1,1609,1275,0,0
392,-251,0,0,0,0,0,0,0,0,0,-1,1616,1275,0,0
399,-251,0,0,0,0,0,0,0,0,0,-1,1623,1275,0,0
406,-251,0,0,0,0,0,0,0,0,0,-1,1630,1275,0,0
413,-251,0,0,0,0,0,0,0,0,0,-1,1637,1275,0,0
420,-251,0,0,0,0,0,0,0,0,0,-1,1644,1275,0,0
427,-251,0,0,0,0,0,0,0,0,0,-1,1651,1275,0,0
434,-251,0,0,0,0,0,0,0,0,0,-1,1658,1275,0,0
441,-251,0,0,0,0,0,0,0,0,0,-1,1665,1275,0,0
448,-251,0,0,0,0,0,0,0,0,0,-1,1672,1275,0,0
455,-251,0,0,0,0,0,0,0,0,0,-1,1679,1275,0,0
462,-251,0,0,0,0,0,0,0,0,0,-1,1686,1275,0,0
469,-251,0,0,0,0,0,0,0,0,0,-1,1693,1275,0,0
476,-251,0,0,0,0,0,0,0,0,0,-1,1700,1275,0,0
483,-251,0,0,0,0,0,0,0,0,0,-1,1707,1275,0,0
490,-251,0,0,0,0,0,0,0,0,0,-1,1714,1275,0,0
497,-251,0,0,0,0,0,0,0,0,0,-1,1721,1275,0,0
504,-251,0,0,0,0,0,0,0,0,0,-1,1728,1275,0,0
511,-251,0,0,0,0,0,0,0,0,0,-1,1735,1275,0,0
518,-251,0,0,0,0,0,0,0,0,0,-1,1742,1275,0,0
525,-251,0,0,0,0,0,0,0,0,0,-1,1749,1275,0,0
532,-251,0,0,0,0,0,0,0,0,0,-1,1756,1275,0,0
539,-251,0,0,0,0,0,0,0,0,0,-1,1763,1275,0,0
546,-251,0,0,0,0,0,0,0,0,0,-1,1770,1275,0,0
553,-251,0,0,0,0,0,0,0,0,0,-1,1777,1275,0,0
560,-251,0,0,0,0,0,0,0,0,0,-1,1784,1275,0,0
567,-251,0,0,0,0,0,0,0,0,0,-1,1791,1275,0,0
574,-251,0,0,0,0,0,0,0,0,0,-1,1798,1275,0,0
581,-251,0,0,0,0,0,0,0,0,0,-1,1805,1275,0,0
588,-251,0,0,0,0,0,0,0,0,0,-1,1812,1275,0,0
595,-251,0,0,0,0,0,0,0,0,0,-1,1819,1275,0,0
602,-251,0,0,0,0,0,0,0,0,0,-1,1826,1275,0,0
609,-251,4.30725,0.527344,-0.000957094,0.00171632,0.003565,0.00418697,-0.00342775,0.964763,0.00440364,0.0298101,1833,1275,4.30724,-0.527389
616,-251,4.28235,0.516235,-0.00121049,0.00200722,0.00355134,0.00429713,-0.0035004,0.998083,0.00450974,0.0268719,1840,1275,4.28239,-0.516251
623,-251,4.25134,0.577026,0.000445446,0.00394764,0.00363095,0.00622769,-0.0018346,1.01008,0.00487967,0.0242596,1847,1275,4.25135,-0.577036
630,-251,4.20142,0.546387,0.00202574,0.00505406,0.00413957,0.0079477,-0.000867896,0.960728,0.00561019,0.0340238,1854,1275,4.20136,-0.54637
637,-251,4.06201,0.437622,0.00311666,0.0053941,0.00505666,0.00943866,-0.000927906,0.896147,0.00662345,0.0401323,1861,1275,4.06198,-0.4376
644,-251,3.9408,0.360962,0.00368315,0.00525526,0.00592209,0.0104432,-0.00150482,0.851379,0.00751416,0.0454044,1868,1275,3.94078,-0.360959
651,-251,4.07288,-0.0136719,0.00400165,0.00480154,0.00656013,0.0109739,-0.00217071,0.815843,0.00813661,0.0437232,1875,1275,4.07291,0.0136318
658,-251,4.25488,-0.344604,0,0,0,0,0,0,0,-1,1882,1275,4.25493,0.344655
665,-251,4.24109,-0.067749,0.0036492,0.0034911,0.00705242,0.010623,-0.00348271,0.779794,0.00848462,0.043589,1889,1275,4.24106,0.067756
672,-251,4.24597,0.300415,0.00302637,0.00277684,0.0070322,0.00993491,-0.0041317,0.776528,0.00834856,0.0444142,1896,1275,4.24597,-0.300388
679,-251,3.95105,0.776367,0.00236995,0.00214957,0.00688592,0.00914656,-0.00462704,0.777398,0.00809363,0.0394662,1903,1275,3.95106,-0.776408
686,-251,3.78137,0.898071,0.00205275,0.00121771,0.00653904,0.00818759,-0.00491713,0.753516,0.00764415,0.0158152,1910,1275,3.78143,-0.898109
693,-251,3.79065,0.870728,0.00192849,0.000485394,0.00612297,0.00737228,-0.0049584,0.726747,0.00716445,0.00874882,1917,1275,3.79069,-0.870786
700,-251,3.78992,0.841919,0.000813939,-0.000183586,0.00514088,0.0054802,-0.00484984,0.73704,0.00596775,0.00828925,1924,1275,3.78997,-0.841869
707,-251,3.81396,0.802734,0.000214714,-0.000474363,0.0042218,0.00410601,-0.00436566,0.744684,0.00489188,0.0103368,1931,1275,3.81395,-0.802685
714,-251,3.82007,0.782715,0.000513894,-0.000590614,0.00307331,0.00308417,-0.00316089,0.6965,0.00360568,0.0108643,1938,1275,3.82004,-0.782692
721,-251,3.79541,0.757202,0.00202206,-0.00156115,0.00248227,0.00329175,-0.00283083,0.472807,0.00353821,0.0112142,1945,1275,3.79536,-0.757144
728,-251,3.79321,0.723389,0.00545016,-0.00252357,0.00202119,0.00593322,-0.00300664,0.234601,0.00525281,0.012654,1952,1275,3.79321,-0.723375
735,-251,3.79419,0.681396,0.00921151,-0.0043857,0.00198197,0.00949452,-0.0046687,0.141832,0.00833386,0.014041,1959,1275,3.79421,-0.681382
742,-251,3.79382,0.697266,0.0140694,-0.00653208,0.00229048,0.014321,-0.00678366,0.1094,0.0124411,0.0146941,1966,1275,3.79379,-0.697308
749,-251,3.80042,0.682373,0.0200473,-0.00986235,0.0030075,0.0203467,-0.0101618,0.0992293,0.0179383,0.0217596,1973,1275,3.80038,-0.682318
756,-251,3.9314,0.661011,0.0276642,-0.0145865,0.00396025,0.0280322,-0.0149545,0.0926568,0.0251983,0.0356972,1980,1275,3.93136,-0.661051
763,-251,4.18164,0.697144,0.0370473,-0.0209898,0.00511787,0.0374951,-0.0214377,0.0872852,0.0344433,0.0425599,1987,1275,4.18161,-0.697155
770,-251,4.47021,0.763428,0.0480258,-0.029418,0.00650719,0.0485687,-0.0299609,0.0832468,0.0457614,0.0427614,1994,1275,4.47021,-0.763368
777,-251,4.89539,0.800415,0.0602396,-0.0402051,0.00817254,0.0609002,-0.0408657,0.0806566,0.0591329,0.0448374,2001,1275,4.89533,-0.800409
784,-251,5.17444,0.829956,0,0,0,0,0,0,0,-1,2008,1275,5.17442,-0.829995
791,-251,0,0,0,0,0,0,0,0,0,-1,2015,1275,0,0
798,-251,0,0,0,0,0,0,0,0,0,-1,2022,1275,0,0
805,-251,0,0,0,0,0,0,0,0,0,-1,2029,1275,0,0
812,-251,0,0,0,0,0,0,0,0,0,-1,2036,1275,0,0
-700,-258,0,0,0,0,0,0,0,0,0,-1,524,1282,0,0
-693,-258,0,0,0,0,0,0,0,0,0,-1,531,1282,0,0
-686,-258,0,0,0,0,0,0,0,0,0,-1,538,1282,0,0
-679,-258,0,0,0,0,0,0,0,0,0,-1,545,1282,0,0
-672,-258,0,0,0,0,0,0,0,0,0,-1,552,1282,0,0
-665,-258,-0.1604,-0.196533,0,0,0,0,0,0,0,-1,559,1282,-0.160418,0.19656
-658,-258,-0.187683,0.255493,0,0,0,0,0,0,0,-1,566,1282,-0.187697,-0.255502
-651,-258,-0.302307,0.541382,0,0,0,0,0,0,0,-1,573,1282,-0.302279,-0.541418
-644,-258,-0.544861,1.06799,0,0,0,0,0,0,0,-1,580,1282,-0.544872,-1.06802
-637,-258,0.0432739,1.93286,0,0,0,0,0,0,0,-1,587,1282,0.0432722,-1.93281
-630,-258,0.000366211,1.83789,0,0,0,0,0,0,0,-1,594,1282,0.000363896,-1.83789
-623,-258,-0.0324097,1.24707,-0.00135951,0.0239807,0.00692898,0.0257516,-0.0031304,1.32057,0.0183006,0.0420732,601,1282,-0.0324159,-1.24706
-616,-258,-0.144165,0.736694,-0.000829525,0.0192668,0.00555583,0.0207005,-0.00226321,1.31825,0.0146132,0.0298091,608,1282,-0.144158,-0.736736
-609,-258,-0.170593,0.724365,-0.00033873,0.0148624,0.00391625,0.015812,-0.00128834,1.33291,0.010996,0.0173237,615,1282,-0.170584,-0.724356
-602,-258,-0.17627,0.733276,-1.23424e-05,0.0110967,0.00227712,0.0115453,-0.000460987,1.37627,0.00785504,0.0138557,622,1282,-0.176261,-0.73332
-595,-258,-0.172363,0.768555,0.000475439,0.00714359,0.000750394,0.00722699,0.000392037,1.46011,0.00469278,0.0105452,629,1282,-0.172333,-0.768604
-588,-258,-0.172729,0.80542,0.000533265,0.00331264,-0.000335621,0.0033526,0.000493311,-1.45231,0.00209012,0.0109196,636,1282,-0.17275,-0.805424
-581,-258,-0.176025,0.845093,0.000249108,-0.000155377,-0.000995736,0.00106293,-0.000969201,-0.685207,0.00117367,0.0140896,643,1282,-0.176048,-0.845092
-574,-258,-0.16449,0.887939,-0.000202344,-0.00227857,-0.00138112,0.000487304,-0.00296822,-0.463121,0.00215965,0.0140084,650,1282,-0.164507,-0.887888
-567,-258,-0.170898,0.916992,0.000186877,-0.00382741,-0.00191462,0.00095361,-0.00459414,-0.380905,0.00342517,0.0128916,657,1282,-0.170872,-0.916938
-560,-258,-0.161865,0.912842,0.000953472,-0.00442998,-0.00289153,0.00221223,-0.00568874,-0.410584,0.00470652,0.0171831,664,1282,-0.161856,-0.912861
-553,-258,-0.170105,0.928589,0.00176791,-0.00493849,-0.00380331,0.00348512,-0.0066557,-0.424106,0.00594943,0.0196567,671,1282,-0.170134,-0.928638
-546,-258,-0.179749,0.920776,0.00203975,-0.00468961,-0.00400118,0.00390293,-0.00655279,-0.435798,0.00610089,0.0387627,678,1282,-0.179751,-0.920774
-539,-258,-0.0452271,0.504761,0.00206948,-0.00416589,-0.00404418,0.0040582,-0.0061546,-0.457024,0.00593763,0.0436614,685,1282,-0.0451992,-0.504737
-532,-258,-0.0141602,0.298828,0.00200089,-0.00312054,-0.00396412,0.00415944,-0.0052791,-0.498629,0.00546211,0.0444881,692,1282,-0.0141569,-0.298839
-525,-258,-0.813171,1.82776,0.00195778,-0.00152636,-0.00378009,0.0043779,-0.00394649,-0.569477,0.00480824,0.0467457,699,1282,-0.813185,-1.8277
-518,-258,-0.671631,1.77258,0.00150064,0.000759732,-0.00327245,0.00442354,-0.00216317,-0.729037,0.00387676,0.0428751,706,1282,-0.671649,-1.77256
-511,-258,-0.444519,0.783813,0,0,0,0,0,0,0,-1,713,1282,-0.444531,-0.783819
-504,-258,-0.220886,0.490845,-0.00229998,0.00708286,-0.000235982,0.00708879,-0.00230592,-1.54567,0.00565349,0.043999,720,1282,-0.220907,-0.490862
-497,-258,-0.26709,0.509644,-0.00679103,0.0105187,0.00286695,0.0109812,-0.00725352,1.41086,0.0106009,0.0444771,727,1282,-0.267112,-0.509688
-490,-258,-0.458679,0.64917,-0.0138455,0.0130771,0.00749062,0.0150209,-0.0157893,1.3169,0.0177901,0.0414917,734,1282,-0.45865,-0.649217
-483,-258,0,0,0,0,0,0,0,0,0,-1,741,1282,0,0
-476,-258,0,0,0,0,0,0,0,0,0,-1,748,1282,0,0
-469,-258,0,0,0,0,0,0,0,0,0,-1,755,1282,0,0
-462,-258,0,0,0,0,0,0,0,0,0,-1,762,1282,0,0
-455,-258,0,0,0,0,0,0,0,0,0,-1,769,1282,0,0
-448,-258,0,0,0,0,0,0,0,0,0,-1,776,1282,0,0
-441,-258,0,0,0,0,0,0,0,0,0,-1,783,1282,0,0
-434,-258,0,0,0,0,0,0,0,0,0,-1,790,1282,0,0
-427,-258,0,0,0,0,0,0,0,0,0,-1,797,1282,0,0
-420,-258,0,0,0,0,0,0,0,0,0,-1,804,1282,0,0
-413,-258,0,0,0,0,0,0,0,0,0,-1,811,1282,0,0
-406,-258,0,0,0,0,0,0,0,0,0,-1,818,1282,0,0
-399,-258,0,0,0,0,0,0,0,0,0,-1,825,1282,0,0
-392,-258,0,0,0,0,0,0,0,0,0,-1,832,1282,0,0
-385,-258,0,0,0,0,0,0,0,0,0,-1,839,1282,0,0
-378,-258,0,0,0,0,0,0,0,0,0,-1,846,1282,0,0
-371,-258,0,0,0,0,0,0,0,0,0,-1,853,1282,0,0
-364,-258,0,0,0,0,0,0,0,0,0,-1,860,1282,0,0
-357,-258,0,0,0,0,0,0,0,0,0,-1,867,1282,0,0
-350,-258,0,0,0,0,0,0,0,0,0,-1,874,1282,0,0
-343,-258,0,0,0,0,0,0,0,0,0,-1,881,1282,0,0
-336,-258,0,0,0,0,0,0,0,0,0,-1,888,1282,0,0
-329,-258,0,0,0,0,0,0,0,0,0,-1,895,1282,0,0
-322,-258,0,0,0,0,0,0,0,0,0,-1,902,1282,0,0
-315,-258,0,0,0,0,0,0,0,0,0,-1,909,1282,0,0
-308,-258,0,0,0,0,0,0,0,0,0,-1,916,1282,0,0
-301,-258,0,0,0,0,0,0,0,0,0,-1,923,1282,0,0
-294,-258,0,0,0,0,0,0,0,0,0,-1,930,1282,0,0
-287,-258,0,0,0,0,0,0,0,0,0,-1,937,1282,0,0
-280,-258,0,0,0,0,0,0,0,0,0,-1,944,1282,0,0
-273,-258,0,0,0,0,0,0,0,0,0,-1,951,1282,0,0
-266,-258,0,0,0,0,0,0,0,0,0,-1,958,1282,0,0
-259,-258,0,0,0,0,0,0,0,0,0,-1,965,1282,0,0
-252,-258,0,0,0,0,0,0,0,0,0,-1,972,1282,0,0
-245,-258,0,0,0,0,0,0,0,0,0,-1,979,1282,0,0
-238,-258,0,0,0,0,0,0,0,0,0,-1,986,1282,0,0
-231,-258,0,0,0,0,0,0,0,0,0,-1,993,1282,0,0
-224,-258,0,0,0,0,0,0,0,0,0,-1,1000,1282,0,0
-217,-258,0,0,0,0,0,0,0,0,0,-1,1007,1282,0,0
-210,-258,0,0,0,0,0,0,0,0,0,-1,1014,1282,0,0
-203,-258,0,0,0,0,0,0,0,0,0,-1,1021,1282,0,0
-196,-258,0,0,0,0,0,0,0,0,0,-1,1028,1282,0,0
-189,-258,0,0,0,0,0,0,0,0,0,-1,1035,1282,0,0
-182,-258,0,0,0,0,0,0,0,0,0,-1,1042,1282,0,0
-175,-258,0,0,0,0,0,0,0,0,0,-1,1049,1282,0,0
-168,-258,0,0,0,0,0,0,0,0,0,-1,1056,1282,0,0
-161,-258,0,0,0,0,0,0,0,0,0,-1,1063,1282,0,0
-154,-258,0,0,0,0,0,0,0,0,0,-1,1070,1282,0,0
-147,-258,0,0,0,0,0,0,0,0,0,-1,1077,1282,0,0
-140,-258,0,0,0,0,0,0,0,0,0,-1,1084,1282,0,0
-133,-258,0,0,0,0,0,0,0,0,0,-1,1091,1282,0,0
-126,-258,0,0,0,0,0,0,0,0,0,-1,1098,1282,0,0
-119,-258,0,0,0,0,0,0,0,0,0,-1,1105,1282,0,0
-112,-258,0,0,0,0,0,0,0,0,0,-1,1112,1282,0,0
-105,-258,0,0,0,0,0,0,0,0,0,-1,1119,1282,0,0
-98,-258,0,0,0,0,0,0,0,0,0,-1,1126,1282,0,0
-91,-258,0,0,0,0,0,0,0,0,0,-1,1133,1282,0,0
-84,-258,0,0,0,0,0,0,0,0,0,-1,1140,1282,0,0
-77,-258,0,0,0,0,0,0,0,0,0,-1,1147,1282,0,0
-70,-258,0,0,0,0,0,0,0,0,0,-1,1154,1282,0,0
-63,-258,0,0,0,0,0,0,0,0,0,-1,1161,1282,0,0
-56,-258,0,0,0,0,0,0,0,0,0,-1,1168,1282,0,0
-49,-258,0,0,0,0,0,0,0,0,0,-1,1175,1282,0,0
-42,-258,0,0,0,0,0,0,0,0,0,-1,1182,1282,0,0
-35,-258,0,0,0,0,0,0,0,0,0,-1,1189,1282,0,0
-28,-258,0,0,0,0,0,0,0,0,0,-1,1196,1282,0,0
-21,-258,0,0,0,0,0,0,0,0,0,-1,1203,1282,0,0
-14,-258,0,0,0,0,0,0,0,0,0,-1,1210,1282,0,0
-7,-258,0,0,0,0,0,0,0,0,0,-1,1217,1282,0,0
0,-258,0,0,0,0,0,0,0,0,0,-1,1224,1282,0,0
7,-258,0,0,0,0,0,0,0,0,0,-1,1231,1282,0,0
14,-258,0,0,0,0,0,0,0,0,0,-1,1238,1282,0,0
21,-258,0,0,0,0,0,0,0,0,0,-1,1245,1282,0,0
28,-258,0,0,0,0,0,0,0,0,0,-1,1252,1282,0,0
35,-258,0,0,0,0,0,0,0,0,0,-1,1259,1282,0,0
42,-258,0,0,0,0,0,0,0,0,0,-1,1266,1282,0,0
49,-258,0,0,0,0,0,0,0,0,0,-1,1273,1282,0,0
56,-258,0,0,0,0,0,0,0,0,0,-1,1280,1282,0,0
63,-258,0,0,0,0,0,0,0,0,0,-1,1287,1282,0,0
70,-258,0,0,0,0,0,0,0,0,0,-1,1294,1282,0,0
77,-258,0,0,0,0,0,0,0,0,0,-1,1301,1282,0,0
84,-258,0,0,0,0,0,0,0,0,0,-1,1308,1282,0,0
91,-258,0,0,0,0,0,0,0,0,0,-1,1315,1282,0,0
98,-258,0,0,0,0,0,0,0,0,0,-1,1322,1282,0,0
105,-258,0,0,0,0,0,0,0,0,0,-1,1329,1282,0,0
112,-258,0,0,0,0,0,0,0,0,0,-1,1336,1282,0,0
119,-258,0,0,0,0,0,0,0,0,0,-1,1343,1282,0,0
126,-258,0,0,0,0,0,0,0,0,0,-1,1350,1282,0,0
133,-258,0,0,0,0,0,0,0,0,0,-1,1357,1282,0,0
140,-258,0,0,0,0,0,0,0,0,0,-1,1364,1282,0,0
147,-258,0,0,0,0,0,0,0,0,0,-1,1371,1282,0,0
154,-258,0,0,0,0,0,0,0,0,0,-1,1378,1282,0,0
161,-258,0,0,0,0,0,0,0,0,0,-1,1385,1282,0,0
168,-258,0,0,0,0,0,0,0,0,0,-1,1392,1282,0,0
175,-258,0,0,0,0,0,0,0,0,0,-1,1399,1282,0,0
182,-258,0,0,0,0,0,0,0,0,0,-1,1406,1282,0,0
189,-258,0,0,0,0,0,0,0,0,0,-1,1413,1282,0,0
196,-258,0,0,0,0,0,0,0,0,0,-1,1420,1282,0,0
203,-258,0,0,0,0,0,0,0,0,0,-1,1427,1282,0,0
210,-258,0,0,0,0,0,0,0,0,0,-1,1434,1282,0,0
217,-258,0,0,0,0,0,0,0,0,0,-1,1441,1282,0,0
224,-258,0,0,0,0,0,0,0,0,0,-1,1448,1282,0,0
231,-258,0,0,0,0,0,0,0,0,0,-1,1455,1282,0,0
238,-258,0,0,0,0,0,0,0,0,0,-1,1462,1282,0,0
245,-258,0,0,0,0,0,0,0,0,0,-1,1469,1282,0,0
252,-258,0,0,0,0,0,0,0,0,0,-1,1476,1282,0,0
259,-258,0,0,0,0,0,0,0,0,0,-1,1483,1282,0,0
266,-258,0,0,0,0,0,0,0,0,0,-1,1490,1282,0,0
273,-258,0,0,0,0,0,0,0,0,0,-1,1497,1282,0,0
280,-258,0,0,0,0,0,0,0,0,0,-1,1504,1282,0,0
287,-258,0,0,0,0,0,0,0,0,0,-1,1511,1282,0,0
294,-258,0,0,0,0,0,0,0,0,0,-1,1518,1282,0,0
301,-258,0,0,0,0,0,0,0,0,0,-1,1525,1282,0,0
308,-258,0,0,0,0,0,0,0,0,0,-1,1532,1282,0,0
315,-258,0,0,0,0,0,0,0,0,0,-1,1539,1282,0,0
322,-258,0,0,0,0,0,0,0,0,0,-1,1546,1282,0,0
329,-258,0,0,0,0,0,0,0,0,0,-1,1553,1282,0,0
336,-258,0,0,0,0,0,0,0,0,0,-1,1560,1282,0,0
343,-258,0,0,0,0,0,0,0,0,0,-1,1567,1282,0,0
350,-258,0,0,0,0,0,0,0,0,0,-1,1574,1282,0,0
357,-258,0,0,0,0,0,0,0,0,0,-1,1581,1282,0,0
364,-258,0,0,0,0,0,0,0,0,0,-1,1588,1282,0,0
371,-258,0,0,0,0,0,0,0,0,0,-1,1595,1282,0,0
378,-258,0,0,0,0,0,0,0,0,0,-1,1602,1282,0,0
385,-258,0,0,0,0,0,0,0,0,0,-1,1609,1282,0,0
392,-258,0,0,0,0,0,0,0,0,0,-1,1616,1282,0,0
399,-258,0,0,0,0,0,0,0,0,0,-1,1623,1282,0,0
406,-258,0,0,0,0,0,0,0,0,0,-1,1630,1282,0,0
413,-258,0,0,0,0,0,0,0,0,0,-1,1637,1282,0,0
420,-258,0,0,0,0,0,0,0,0,0,-1,1644,1282,0,0
427,-258,0,0,0,0,0,0,0,0,0,-1,1651,1282,0,0
434,-258,0,0,0,0,0,0,0,0,0,-1,1658,1282,0,0
441,-258,0,0,0,0,0,0,0,0,0,-1,1665,1282,0,0
448,-258,0,0,0,0,0,0,0,0,0,-1,1672,1282,0,0
455,-258,0,0,0,0,0,0,0,0,0,-1,1679,1282,0,0
462,-258,0,0,0,0,0,0,0,0,0,-1,1686,1282,0,0
469,-258,0,0,0,0,0,0,0,0,0,-1,1693,1282,0,0
476,-258,0,0,0,0,0,0,0,0,0,-1,1700,1282,0,0
483,-258,0,0,0,0,0,0,0,0,0,-1,1707,1282,0,0
490,-258,0,0,0,0,0,0,0,0,0,-1,1714,1282,0,0
497,-258,0,0,0,0,0,0,0,0,0,-1,1721,1282,0,0
504,-258,0,0,0,0,0,0,0,0,0,-1,1728,1282,0,0
511,-258,0,0,0,0,0,0,0,0,0,-1,1735,1282,0,0
518,-258,0,0,0,0,0,0,0,0,0,-1,1742,1282,0,0
525,-258,0,0,0,0,0,0,0,0,0,-1,1749,1282,0,0
532,-258,0,0,0,0,0,0,0,0,0,-1,1756,1282,0,0
539,-258,0,0,0,0,0,0,0,0,0,-1,1763,1282,0,0
546,-258,0,0,0,0,0,0,0,0,0,-1,1770,1282,0,0
553,-258,0,0,0,0,0,0,0,0,0,-1,1777,1282,0,0
560,-258,0,0,0,0,0,0,0,0,0,-1,1784,1282,0,0
567,-258,0,0,0,0,0,0,0,0,0,-1,1791,1282,0,0
574,-258,0,0,0,0,0,0,0,0,0,-1,1798,1282,0,0
581,-258,0,0,0,0,0,0,0,0,0,-1,1805,1282,0,0
588,-258,0,0,0,0,0,0,0,0,0,-1,1812,1282,0,0
595,-258,0,0,0,0,0,0,0,0,0,-1,1819,1282,0,0
602,-258,0,0,0,0,0,0,0,0,0,-1,1826,1282,0,0
609,-258,4.29968,0.577759,0.00284627,0.000858842,0.00636858,0.0082982,-0.00459309,0.708005,0.00754456,0.0261903,1833,1282,4.29966,-0.577709
616,-258,4.27563,0.582153,0.00255603,0.00142039,0.00580045,0.00781639,-0.00383996,0.736607,0.00685908,0.0246358,1840,1282,4.27562,-0.582099
623,-258,4.18787,0.533936,0.00337355,0.00317923,0.00538255,0.00865981,-0.00210704,0.776374,0.00658883,0.0341643,1847,1282,4.18789,-0.533964
630,-258,4.12659,0.409546,0.00394411,0.00424078,0.0054139,0.00950838,-0.00132349,0.799094,0.00682301,0.0429913,1854,1282,4.12663,-0.409525
637,-258,3.802,0.322021,0.00417375,0.00461087,0.00582618,0.0102226,-0.00143797,0.804146,0.00734147,0.0437655,1861,1282,3.80201,-0.322008
644,-258,3.69153,0.128296,0.00417381,0.00457739,0.00624201,0.0106209,-0.00186967,0.801557,0.00777906,0.0442693,1868,1282,3.69156,-0.128271
651,-258,3.62622,-0.327515,0.00407471,0.00424424,0.006546,0.010706,-0.00238707,0.791872,0.00805186,0.0428162,1875,1282,3.62622,0.327454
658,-258,3.34229,-0.557495,0,0,0,0,0,0,0,-1,1882,1282,3.34231,0.557474
665,-258,3.22937,-0.492554,0,0,0,0,0,0,0,-1,1889,1282,3.22938,0.492551
672,-258,3.5553,0.111694,0,0,0,0,0,0,0,-1,1896,1282,3.55524,-0.11168
679,-258,3.82776,0.849365,0.00188834,0.00196573,0.00625275,0.0081799,-0.00432583,0.788492,0.00733359,0.0311413,1903,1282,3.82776,-0.849318
686,-258,3.76135,0.912109,0.00167162,0.00102909,0.00586162,0.00722077,-0.00452006,0.758021,0.00683809,0.01568,1910,1282,3.76129,-0.912143
693,-258,3.77649,0.852905,0.0017411,0.000348591,0.00544288,0.00653208,-0.00444239,0.721784,0.00637429,0.00939933,1917,1282,3.7765,-0.852901
700,-258,3.76978,0.820679,0.000726391,-0.000250608,0.00441193,0.00467678,-0.004201,0.730262,0.00512804,0.00873039,1924,1282,3.76972,-0.820728
707,-258,3.78625,0.791138,0.000365904,-0.000431067,0.00361514,0.00360445,-0.00366961,0.730506,0.00419974,0.00988756,1931,1282,3.78627,-0.791156
714,-258,3.78723,0.771973,0.000961157,-0.000295356,0.00269043,0.00309571,-0.00242991,0.670696,0.00319793,0.00984236,1938,1282,3.78724,-0.771994
721,-258,3.77661,0.746582,0.00270703,-0.00102831,0.00233537,0.0038297,-0.00215098,0.44811,0.00349799,0.0112117,1945,1282,3.77659,-0.746567
728,-258,3.77356,0.726807,0.00615591,-0.00176309,0.00217513,0.00671403,-0.00232121,0.25117,0.00541811,0.0105936,1952,1282,3.77355,-0.726771
735,-258,3.76453,0.721313,0.00997237,-0.00315397,0.00246172,0.0104189,-0.00360045,0.179421,0.0084071,0.0130803,1959,1282,3.76456,-0.72128
742,-258,3.76685,0.7146,0.0148971,-0.00485718,0.00321603,0.0154075,-0.00536757,0.157389,0.0124526,0.0152159,1966,1282,3.76689,-0.714546
749,-258,3.76575,0.724365,0.021091,-0.00762764,0.0044254,0.0217574,-0.0082941,0.149477,0.0179213,0.0270378,1973,1282,3.76579,-0.724405
756,-258,3.80249,0.75,0.0290303,-0.0116637,0.00597763,0.0298902,-0.0125236,0.142872,0.0251626,0.0410209,1980,1282,3.80253,-0.750016
763,-258,3.94812,0.794434,0.0388189,-0.0173673,0.00790912,0.039911,-0.0184594,0.137215,0.0344504,0.0472226,1987,1282,3.9481,-0.794405
770,-258,4.36865,1.10559,0.0503271,-0.0252426,0.0102766,0.0516997,-0.0266152,0.132777,0.0459817,0.0461225,1994,1282,4.36861,-1.10559
777,-258,4.91687,1.51587,0.0632623,-0.0358769,0.0131454,0.0649757,-0.0375903,0.129612,0.0599159,0.0453393,2001,1282,4.91681,-1.51583
784,-258,5.39001,1.91064,0,0,0,0,0,0,0,-1,2008,1282,5.39003,-1.91068
791,-258,0,0,0,0,0,0,0,0,0,-1,2015,1282,0,0
798,-258,0,0,0,0,0,0,0,0,0,-1,2022,1282,0,0
805,-258,0,0,0,0,0,0,0,0,0,-1,2029,1282,0,0
812,-258,0,0,0,0,0,0,0,0,0,-1,2036,1282,0,0
-700,-265,0,0,0,0,0,0,0,0,0,-1,524,1289,0,0
-693,-265,0,0,0,0,0,0,0,0,0,-1,531,1289,0,0
-686,-265,0,0,0,0,0,0,0,0,0,-1,538,1289,0,0
-679,-265,0,0,0,0,0,0,0,0,0,-1,545,1289,0,0
-672,-265,0,0,0,0,0,0,0,0,0,-1,552,1289,0,0
-665,-265,0.253723,-0.0994873,0,0,0,0,0,0,0,-1,559,1289,0.253723,0.0995295
-658,-265,-0.164368,0.200073,0,0,0,0,0,0,0,-1,566,1289,-0.164343,-0.200028
-651,-265,-0.277771,0.424805,0,0,0,0,0,0,0,-1,573,1289,-0.277792,-0.424757
-644,-265,0.0983887,1.60925,0,0,0,0,0,0,0,-1,580,1289,0.0983728,-1.60928
-637,-265,0.0783691,1.33362,0.00306791,0.0384436,0.0170182,0.0453012,-0.00378972,1.18774,0.03154,0.0467416,587,1289,0.0783507,-1.33367
-630,-265,0.0708618,1.15417,0.00273149,0.0331786,0.014028,0.0386563,-0.00274618,1.19852,0.0267333,0.0444713,594,1289,0.070879,-1.15415
-623,-265,0.0342407,0.918579,0.00216246,0.027563,0.0111797,0.0317826,-0.00205714,1.20989,0.0219064,0.0392966,601,1289,0.0342702,-0.918625
-616,-265,-0.0748291,0.698486,0.00182717,0.0221499,0.0088604,0.0254704,-0.00149331,1.21224,0.0174993,0.0315821,608,1289,-0.0748497,-0.698441
-609,-265,-0.134033,0.730591,0.00158751,0.0171253,0.00644761,0.0194524,-0.000739499,1.22443,0.0132216,0.0170292,615,1289,-0.134003,-0.730604
-602,-265,-0.120422,0.751587,0.00125387,0.0130072,0.00428822,0.0144054,-0.000144357,1.2556,0.00965211,0.015737,622,1289,-0.12045,-0.751539
-595,-265,-0.117676,0.785645,0.00117711,0.00854778,0.00232437,0.00921955,0.000505335,1.28945,0.00598504,0.0115509,629,1289,-0.117677,-0.78564
-588,-265,-0.133179,0.814331,0.000676385,0.00424082,0.000657093,0.00435809,0.00055911,1.39418,0.00273812,0.00919994,636,1289,-0.133186,-0.81431
-581,-265,-0.128784,0.839844,0.000135271,0.000566075,-0.00032484,0.000740441,-3.90949e-05,-1.07816,0.000507162,0.0119308,643,1289,-0.128775,-0.839855
-574,-265,-0.116028,0.881836,-0.000312069,-0.001867,-0.00089386,9.51332e-05,-0.0022742,-0.427464,0.00154882,0.013149,650,1289,-0.116057,-0.881827
-567,-265,-0.124878,0.906982,0.00018847,-0.00350592,-0.00159029,0.000778724,-0.00409618,-0.355401,0.00302397,0.0173743,657,1289,-0.124857,-0.906962
-560,-265,-0.14856,0.915527,0.00115374,-0.00413273,-0.00279775,0.00235942,-0.0053384,-0.406894,0.00455392,0.0185086,664,1289,-0.148533,-0.915586
-553,-265,-0.14032,0.942627,0.00218744,-0.00466001,-0.00394542,0.00398753,-0.0064601,-0.428037,0.00608799,0.0176418,671,1289,-0.140326,-0.942572
-546,-265,-0.177368,1.01538,0.00272453,-0.00434354,-0.00425184,0.00471929,-0.0063383,-0.438666,0.00640687,0.0269784,678,1289,-0.177364,-1.01541
-539,-265,-0.27771,1.08704,0.00309894,-0.00368882,-0.00439783,0.00526018,-0.00585006,-0.456771,0.00641751,0.0434472,685,1289,-0.277715,-1.08708
-532,-265,-0.569641,1.13184,0.00325868,-0.00240421,-0.00441834,0.00567499,-0.00482051,-0.500444,0.00606627,0.044573,692,1289,-0.569667,-1.13178
-525,-265,-0.768555,1.26465,0.00339477,-0.000520461,-0.00429307,0.0061555,-0.00328118,-0.571484,0.00553187,0.0436875,699,1289,-0.768572,-1.26461
-518,-265,-1.03296,2.14722,0.00318925,0.00220519,-0.00392698,0.0066549,-0.00126046,-0.723075,0.00491097,0.0443911,706,1289,-1.03298,-2.14716
-511,-265,-1.15686,2.02625,0.00214136,0.00559962,-0.00289288,0.00724075,0.000500236,-1.05477,0.00466936,0.0471218,713,1289,-1.15689,-2.02626
-504,-265,-1.14081,1.98877,0,0,0,0,0,0,0,-1,720,1289,-1.14082,-1.98874
-497,-265,-0.0583496,0.26001,-0.00481181,0.0138602,0.00219994,0.0141159,-0.0050675,1.45509,0.0114789,0.0473516,727,1289,-0.0583753,-0.26001
-490,-265,-0.347473,0.63916,-0.0121345,0.0177578,0.00680854,0.0192355,-0.0136123,1.35707,0.0190571,0.0404519,734,1289,-0.347467,-0.639214
-483,-265,0,0,0,0,0,0,0,0,0,-1,741,1289,0,0
-476,-265,0,0,0,0,0,0,0,0,0,-1,748,1289,0,0
-469,-265,0,0,0,0,0,0,0,0,0,-1,755,1289,0,0
-462,-265,0,0,0,0,0,0,0,0,0,-1,762,1289,0,0
-455,-265,0,0,0,0,0,0,0,0,0,-1,769,1289,0,0
-448,-265,0,0,0,0,0,0,0,0,0,-1,776,1289,0,0
-441,-265,0,0,0,0,0,0,0,0,0,-1,783,1289,0,0
-434,-265,0,0,0,0,0,0,0,0,0,-1,790,1289,0,0
-427,-265,0,0,0,0,0,0,0,0,0,-1,797,1289,0,0
-420,-265,0,0,0,0,0,0,0,0,0,-1,804,1289,0,0
-413,-265,0,0,0,0,0,0,0,0,0,-1,811,1289,0,0
-406,-265,0,0,0,0,0,0,0,0,0,-1,818,1289,0,0
-399,-265,0,0,0,0,0,0,0,0,0,-1,825,1289,0,0
-392,-265,0,0,0,0,0,0,0,0,0,-1,832,1289,0,0
-385,-265,0,0,0,0,0,0,0,0,0,-1,839,1289,0,0
-378,-265,0,0,0,0,0,0,0,0,0,-1,846,1289,0,0
-371,-265,0,0,0,0,0,0,0,0,0,-1,853,1289,0,0
-364,-265,0,0,0,0,0,0,0,0,0,-1,860,1289,0,0
-357,-265,0,0,0,0,0,0,0,0,0,-1,867,1289,0,0
-350,-265,0,0,0,0,0,0,0,0,0,-1,874,1289,0,0
-343,-265,0,0,0,0,0,0,0,0,0,-1,881,1289,0,0
-336,-265,0,0,0,0,0,0,0,0,0,-1,888,1289,0,0
-329,-265,0,0,0,0,0,0,0,0,0,-1,895,1289,0,0
-322,-265,0,0,0,0,0,0,0,0,0,-1,902,1289,0,0
-315,-265,0,0,0,0,0,0,0,0,0,-1,909,1289,0,0
-308,-265,0,0,0,0,0,0,0,0,0,-1,916,1289,0,0
-301,-265,0,0,0,0,0,0,0,0,0,-1,923,1289,0,0
-294,-265,0,0,0,0,0,0,0,0,0,-1,930,1289,0,0
-287,-265,0,0,0,0,0,0,0,0,0,-1,937,1289,0,0
-280,-265,0,0,0,0,0,0,0,0,0,-1,944,1289,0,0
-273,-265,0,0,0,0,0,0,0,0,0,-1,951,1289,0,0
-266,-265,0,0,0,0,0,0,0,0,0,-1,958,1289,0,0
-259,-265,0,0,0,0,0,0,0,0,0,-1,965,1289,0,0
-252,-265,0,0,0,0,0,0,0,0,0,-1,972,1289,0,0
-245,-265,0,0,0,0,0,0,0,0,0,-1,979,1289,0,0
-238,-265,0,0,0,0,0,0,0,0,0,-1,986,1289,0,0
-231,-265,0,0,0,0,0,0,0,0,0,-1,993,1289,0,0
-224,-265,0,0,0,0,0,0,0,0,0,-1,1000,1289,0,0
-217,-265,0,0,0,0,0,0,0,0,0,-1,1007,1289,0,0
-210,-265,0,0,0,0,0,0,0,0,0,-1,1014,1289,0,0
-203,-265,0,0,0,0,0,0,0,0,0,-1,1021,1289,0,0
-196,-265,0,0,0,0,0,0,0,0,0,-1,1028,1289,0,0
-189,-265,0,0,0,0,0,0,0,0,0,-1,1035,1289,0,0
-182,-265,0,0,0,0,0,0,0,0,0,-1,1042,1289,0,0
-175,-265,0,0,0,0,0,0,0,0,0,-1,1049,1289,0,0
-168,-265,0,0,0,0,0,0,0,0,0,-1,1056,1289,0,0
-161,-265,0,0,0,0,0,0,0,0,0,-1,1063,1289,0,0
-154,-265,0,0,0,0,0,0,0,0,0,-1,1070,1289,0,0
-147,-265,0,0,0,0,0,0,0,0,0,-1,1077,1289,0,0
-140,-265,0,0,0,0,0,0,0,0,0,-1,1084,1289,0,0
-133,-265,0,0,0,0,0,0,0,0,0,-1,1091,1289,0,0
-126,-265,0,0,0,0,0,0,0,0,0,-1,1098,1289,0,0
-119,-265,0,0,0,0,0,0,0,0,0,-1,1105,1289,0,0
-112,-265,0,0,0,0,0,0,0,0,0,-1,1112,1289,0,0
-105,-265,0,0,0,0,0,0,0,0,0,-1,1119,1289,0,0
-98,-265,0,0,0,0,0,0,0,0,0,-1,1126,1289,0,0
-91,-265,0,0,0,0,0,0,0,0,0,-1,1133,1289,0,0
-84,-265,0,0,0,0,0,0,0,0,0,-1,1140,1289,0,0
-77,-265,0,0,0,0,0,0,0,0,0,-1,1147,1289,0,0
-70,-265,0,0,0,0,0,0,0,0,0,-1,1154,1289,0,0
-63,-265,0,0,0,0,0,0,0,0,0,-1,1161,1289,0,0
-56,-265,0,0,0,0,0,0,0,0,0,-1,1168,1289,0,0
-49,-265,0,0,0,0,0,0,0,0,0,-1,1175,1289,0,0
-42,-265,0,0,0,0,0,0,0,0,0,-1,1182,1289,0,0
-35,-265,0,0,0,0,0,0,0,0,0,-1,1189,1289,0,0
-28,-265,0,0,0,0,0,0,0,0,0,-1,1196,1289,0,0
-21,-265,0,0,0,0,0,0,0,0,0,-1,1203,1289,0,0
-14,-265,0,0,0,0,0,0,0,0,0,-1,1210,1289,0,0
-7,-265,0,0,0,0,0,0,0,0,0,-1,1217,1289,0,0
0,-265,0,0,0,0,0,0,0,0,0,-1,1224,1289,0,0
7,-265,0,0,0,0,0,0,0,0,0,-1,1231,1289,0,0
14,-265,0,0,0,0,0,0,0,0,0,-1,1238,1289,0,0
21,-265,0,0,0,0,0,0,0,0,0,-1,1245,1289,0,0
28,-265,0,0,0,0,0,0,0,0,0,-1,1252,1289,0,0
35,-265,0,0,0,0,0,0,0,0,0,-1,1259,1289,0,0
42,-265,0,0,0,0,0,0,0,0,0,-1,1266,1289,0,0
49,-265,0,0,0,0,0,0,0,0,0,-1,1273,1289,0,0
56,-265,0,0,0,0,0,0,0,0,0,-1,1280,1289,0,0
63,-265,0,0,0,0,0,0,0,0,0,-1,1287,1289,0,0
70,-265,0,0,0,0,0,0,0,0,0,-1,1294,1289,0,0
77,-265,0,0,0,0,0,0,0,0,0,-1,1301,1289,0,0
84,-265,0,0,0,0,0,0,0,0,0,-1,1308,1289,0,0
91,-265,0,0,0,0,0,0,0,0,0,-1,1315,1289,0,0
98,-265,0,0,0,0,0,0,0,0,0,-1,1322,1289,0,0
105,-265,0,0,0,0,0,0,0,0,0,-1,1329,1289,0,0
112,-265,0,0,0,0,0,0,0,0,0,-1,1336,1289,0,0
119,-265,0,0,0,0,0,0,0,0,0,-1,1343,1289,0,0
126,-265,0,0,0,0,0,0,0,0,0,-1,1350,1289,0,0
133,-265,0,0,0,0,0,0,0,0,0,-1,1357,1289,0,0
140,-265,0,0,0,0,0,0,0,0,0,-1,1364,1289,0,0
147,-265,0,0,0,0,0,0,0,0,0,-1,1371,1289,0,0
154,-265,0,0,0,0,0,0,0,0,0,-1,1378,1289,0,0
161,-265,0,0,0,0,0,0,0,0,0,-1,1385,1289,0,0
168,-265,0,0,0,0,0,0,0,0,0,-1,1392,1289,0,0
175,-265,0,0,0,0,0,0,0,0,0,-1,1399,1289,0,0
182,-265,0,0,0,0,0,0,0,0,0,-1,1406,1289,0,0
189,-265,0,0,0,0,0,0,0,0,0,-1,1413,1289,0,0
196,-265,0,0,0,0,0,0,0,0,0,-1,1420,1289,0,0
203,-265,0,0,0,0,0,0,0,0,0,-1,1427,1289,0,0
210,-265,0,0,0,0,0,0,0,0,0,-1,1434,1289,0,0
217,-265,0,0,0,0,0,0,0,0,0,-1,1441,1289,0,0
224,-265,0,0,0,0,0,0,0,0,0,-1,1448,1289,0,0
231,-265,0,0,0,0,0,0,0,0,0,-1,1455,1289,0,0
238,-265,0,0,0,0,0,0,0,0,0,-1,1462,1289,0,0
245,-265,0,0,0,0,0,0,0,0,0,-1,1469,1289,0,0
252,-265,0,0,0,0,0,0,0,0,0,-1,1476,1289,0,0
259,-265,0,0,0,0,0,0,0,0,0,-1,1483,1289,0,0
266,-265,0,0,0,0,0,0,0,0,0,-1,1490,1289,0,0
273,-265,0,0,0,0,0,0,0,0,0,-1,1497,1289,0,0
280,-265,0,0,0,0,0,0,0,0,0,-1,1504,1289,0,0
287,-265,0,0,0,0,0,0,0,0,0,-1,1511,1289,0,0
294,-265,0,0,0,0,0,0,0,0,0,-1,1518,1289,0,0
301,-265,0,0,0,0,0,0,0,0,0,-1,1525,1289,0,0
308,-265,0,0,0,0,0,0,0,0,0,-1,1532,1289,0,0
315,-265,0,0,0,0,0,0,0,0,0,-1,1539,1289,0,0
322,-265,0,0,0,0,0,0,0,0,0,-1,1546,1289,0,0
329,-265,0,0,0,0,0,0,0,0,0,-1,1553,1289,0,0
336,-265,0,0,0,0,0,0,0,0,0,-1,1560,1289,0,0
343,-265,0,0,0,0,0,0,0,0,0,-1,1567,1289,0,0
350,-265,0,0,0,0,0,0,0,0,0,-1,1574,1289,0,0
357,-265,0,0,0,0,0,0,0,0,0,-1,1581,1289,0,0
364,-265,0,0,0,0,0,0,0,0,0,-1,1588,1289,0,0
371,-265,0,0,0,0,0,0,0,0,0,-1,1595,1289,0,0
378,-265,0,0,0,0,0,0,0,0,0,-1,1602,1289,0,0
385,-265,0,0,0,0,0,0,0,0,0,-1,1609,1289,0,0
392,-265,0,0,0,0,0,0,0,0,0,-1,1616,1289,0,0
399,-265,0,0,0,0,0,0,0,0,0,-1,1623,1289,0,0
406,-265,0,0,0,0,0,0,0,0,0,-1,1630,1289,0,0
413,-265,0,0,0,0,0,0,0,0,0,-1,1637,1289,0,0
420,-265,0,0,0,0,0,0,0,0,0,-1,1644,1289,0,0
427,-265,0,0,0,0,0,0,0,0,0,-1,1651,1289,0,0
434,-265,0,0,0,0,0,0,0,0,0,-1,1658,1289,0,0
441,-265,0,0,0,0,0,0,0,0,0,-1,1665,1289,0,0
448,-265,0,0,0,0,0,0,0,0,0,-1,1672,1289,0,0
455,-265,0,0,0,0,0,0,0,0,0,-1,1679,1289,0,0
462,-265,0,0,0,0,0,0,0,0,0,-1,1686,1289,0,0
469,-265,0,0,0,0,0,0,0,0,0,-1,1693,1289,0,0
476,-265,0,0,0,0,0,0,0,0,0,-1,1700,1289,0,0
483,-265,0,0,0,0,0,0,0,0,0,-1,1707,1289,0,0
490,-265,0,0,0,0,0,0,0,0,0,-1,1714,1289,0,0
497,-265,0,0,0,0,0,0,0,0,0,-1,1721,1289,0,0
504,-265,0,0,0,0,0,0,0,0,0,-1,1728,1289,0,0
511,-265,0,0,0,0,0,0,0,0,0,-1,1735,1289,0,0
518,-265,0,0,0,0,0,0,0,0,0,-1,1742,1289,0,0
525,-265,0,0,0,0,0,0,0,0,0,-1,1749,1289,0,0
532,-265,0,0,0,0,0,0,0,0,0,-1,1756,1289,0,0
539,-265,0,0,0,0,0,0,0,0,0,-1,1763,1289,0,0
546,-265,0,0,0,0,0,0,0,0,0,-1,1770,1289,0,0
553,-265,0,0,0,0,0,0,0,0,0,-1,1777,1289,0,0
560,-265,0,0,0,0,0,0,0,0,0,-1,1784,1289,0,0
567,-265,0,0,0,0,0,0,0,0,0,-1,1791,1289,0,0
574,-265,0,0,0,0,0,0,0,0,0,-1,1798,1289,0,0
581,-265,0,0,0,0,0,0,0,0,0,-1,1805,1289,0,0
588,-265,0,0,0,0,0,0,0,0,0,-1,1812,1289,0,0
595,-265,0,0,0,0,0,0,0,0,0,-1,1819,1289,0,0
602,-265,4.28955,0.63623,0.00571588,-0.00104925,0.012055,0.0148539,-0.0101872,0.648618,0.0145409,0.0269662,1826,1289,4.28957,-0.636217
609,-265,4.29114,0.599487,0.00739894,-0.000837828,0.00942657,0.0135675,-0.00700639,0.579448,0.012078,0.029901,1833,1289,4.29116,-0.599463
616,-265,4.29358,0.593018,0.00789278,-0.000306726,0.0082669,0.0130207,-0.00543463,0.555208,0.0109511,0.0358247,1840,1289,4.29359,-0.593043
623,-265,4.12769,0.329956,0.00824919,0.00123388,0.00732173,0.0128601,-0.00337705,0.562014,0.00989312,0.0455125,1847,1289,4.12763,-0.32999
630,-265,4.06238,0.255737,0.00786447,0.00227928,0.00682315,0.0124444,-0.00230064,0.591157,0.00915996,0.0461714,1854,1289,4.06234,-0.255682
637,-265,3.65466,0.217651,0.00703577,0.00280768,0.00666497,0.0119139,-0.00207049,0.631824,0.00871516,0.0464921,1861,1289,3.6547,-0.217637
644,-265,3.61084,-0.122559,0.00612411,0.00302541,0.0065629,0.0113181,-0.00216855,0.669482,0.00836248,0.0434657,1868,1289,3.61084,0.122609
651,-265,3.55872,-0.629517,0.00523398,0.00297568,0.00646143,0.0106642,-0.00245452,0.698895,0.00805329,0.0419774,1875,1289,3.5587,0.629484
658,-265,3.55676,0.161743,0,0,0,0,0,0,0,-1,1882,1289,3.55673,-0.161732
665,-265,3.50696,0.356079,0.00355308,0.00248059,0.0058954,0.00893658,-0.00290291,0.740043,0.00712527,0.0432716,1889,1289,3.50701,-0.356097
672,-265,3.61353,0.69458,0.00247773,0.00203329,0.00563162,0.00789152,-0.00338049,0.765679,0.00667935,0.0447886,1896,1289,3.61352,-0.694617
679,-265,3.76233,0.933838,0.00137572,0.00153894,0.00531742,0.00677538,-0.00386072,0.793072,0.00621714,0.0220534,1903,1289,3.76236,-0.933869
686,-265,3.75562,0.893433,0.00105814,0.000781998,0.00486224,0.00578427,-0.00394413,0.771203,0.00565008,0.0118917,1910,1289,3.75559,-0.893467
693,-265,3.76184,0.831909,0.00129185,0.000274002,0.00445923,0.0052711,-0.00370525,0.72858,0.00520872,0.00953568,1917,1289,3.76181,-0.831908
700,-265,3.75525,0.810425,0.000481933,-0.000229255,0.0034262,0.00357095,-0.00331827,0.73369,0.00397838,0.00980818,1924,1289,3.75525,-0.810471
707,-265,3.75891,0.802002,0.000424573,-0.000320618,0.00280178,0.00287842,-0.00277446,0.719293,0.00326388,0.00907747,1931,1289,3.75885,-0.802007
714,-265,3.75281,0.781128,0.00129058,4.94433e-05,0.00216659,0.00292372,-0.0015837,0.645919,0.00264042,0.00857402,1938,1289,3.75281,-0.781116
721,-265,3.75879,0.74939,0.00319536,-0.00041074,0.002053,0.00412467,-0.00134005,0.425064,0.00328877,0.00906786,1945,1289,3.7588,-0.749408
728,-265,3.76807,0.736938,0.00653511,-0.000851111,0.00217781,0.00712942,-0.00144541,0.266403,0.00530085,0.011949,1952,1289,3.76809,-0.736962
735,-265,3.74402,0.725098,0.0102639,-0.00172936,0.00276347,0.01087,-0.00233548,0.215914,0.00813768,0.0150516,1959,1289,3.74406,-0.725065
742,-265,3.74036,0.712891,0.0150724,-0.00289129,0.00388661,0.0158772,-0.00369614,0.204195,0.012008,0.0179698,1966,1289,3.74035,-0.712841
749,-265,3.74011,0.743286,0.0212597,-0.00489286,0.00550044,0.0223694,-0.00600262,0.199087,0.0172652,0.0352537,1973,1289,3.74011,-0.743321
756,-265,3.99146,1.25,0.0291988,-0.00797145,0.00758524,0.0306871,-0.00945976,0.19375,0.0242347,0.042743,1980,1289,3.99148,-1.25001
763,-265,3.86646,0.974854,0,0,0,0,0,0,0,-1,1987,1289,3.86646,-0.974899
770,-265,4.24927,1.17627,0,0,0,0,0,0,0,-1,1994,1289,4.24929,-1.17624
777,-265,4.8175,1.56873,0,0,0,0,0,0,0,-1,2001,1289,4.81753,-1.56876
784,-265,0,0,0,0,0,0,0,0,0,-1,2008,1289,0,0
791,-265,0,0,0,0,0,0,0,0,0,-1,2015,1289,0,0
798,-265,0,0,0,0,0,0,0,0,0,-1,2022,1289,0,0
805,-265,0,0,0,0,0,0,0,0,0,-1,2029,1289,0,0
812,-265,0,0,0,0,0,0,0,0,0,-1,2036,1289,0,0
-700,-272,0,0,0,0,0,0,0,0,0,-1,524,1296,0,0
-693,-272,0,0,0,0,0,0,0,0,0,-1,531,1296,0,0
-686,-272,0,0,0,0,0,0,0,0,0,-1,538,1296,0,0
-679,-272,0,0,0,0,0,0,0,0,0,-1,545,1296,0,0
-672,-272,0,0,0,0,0,0,0,0,0,-1,552,1296,0,0
-665,-272,0,0,0,0,0,0,0,0,0,-1,559,1296,0,0
-658,-272,-0.126343,0.0723877,0.00568224,0.0535818,0.0288029,0.0670913,-0.00782731,1.13223,0.0475519,0.0459733,566,1296,-0.126347,-0.0723401
-651,-272,0.649353,0.996582,0.00681358,0.0534085,0.0256359,0.0647516,-0.00452959,1.15422,0.0447541,0.0475064,573,1296,0.649342,-0.996633
-644,-272,0.452209,0.687622,0.00693338,0.049959,0.0222727,0.0594119,-0.00251948,1.16942,0.0404739,0.0480517,580,1296,0.452225,-0.687632
-637,-272,0.325012,0.420532,0.00647766,0.0447413,0.0189244,0.0525196,-0.00130071,1.18082,0.0354546,0.04739,587,1296,0.325022,-0.420492
-630,-272,0.0256348,0.386475,0.00567023,0.0386026,0.015699,0.044887,-0.000614244,1.19002,0.0301315,0.0434262,594,1296,0.0256179,-0.386497
-623,-272,-0.0400391,0.406738,0.00469499,0.0321304,0.0126952,0.0371034,-0.000278063,1.19744,0.0248288,0.0390425,601,1296,-0.0400537,-0.406791
-616,-272,-0.0438843,0.637817,0.00385033,0.025793,0.0100918,0.0297285,-8.51899e-05,1.19896,0.0198475,0.0311264,608,1296,-0.0439128,-0.637782
-609,-272,-0.0950928,0.72229,0.00314212,0.0200028,0.00750863,0.0228619,0.000283083,1.20698,0.0151478,0.0171769,615,1296,-0.0951111,-0.722332
-602,-272,-0.102356,0.754639,0.00229228,0.0153387,0.00527851,0.0172068,0.000424129,1.23064,0.0113325,0.0135301,622,1296,-0.102338,-0.75458
-595,-272,-0.107056,0.804443,0.00176659,0.0102986,0.00323715,0.0113878,0.000677417,1.24623,0.00737642,0.0107458,629,1296,-0.107049,-0.80447
-588,-272,-0.0961914,0.832886,0.000884921,0.00548691,0.00140104,0.00587989,0.00049194,1.29733,0.00376667,0.00959186,636,1296,-0.0961962,-0.83286
-581,-272,-0.0863037,0.823242,0.000165627,0.00149588,0.000363237,0.0015886,7.29049e-05,1.32087,0.00103562,0.00930843,643,1296,-0.0863068,-0.823284
-574,-272,-0.0820923,0.865845,-0.000340693,-0.00124255,-0.000303283,-0.00024819,-0.00133505,-0.296041,0.000819921,0.0134074,650,1296,-0.0821095,-0.865805
-567,-272,-0.0901489,0.900879,0.00017401,-0.00294521,-0.00109391,0.000519401,-0.0032906,-0.305833,0.00238579,0.0177524,657,1296,-0.0901248,-0.900886
-560,-272,-0.115845,0.9198,0.00128393,-0.00359201,-0.00248759,0.00232904,-0.00463711,-0.397736,0.00409483,0.0181842,664,1296,-0.115833,-0.919861
-553,-272,-0.108398,0.941162,0.00252099,-0.0041366,-0.00386798,0.00429535,-0.00591095,-0.430089,0.00591717,0.0127549,671,1296,-0.108409,-0.94122
-546,-272,-0.120056,0.949707,0.00329863,-0.00378275,-0.00432516,0.00534753,-0.00583165,-0.4424,0.00645632,0.0169523,678,1296,-0.120035,-0.949711
-539,-272,-0.16925,0.968262,0.00398403,-0.0030122,-0.00459615,0.00626185,-0.00529002,-0.460116,0.00667734,0.0422979,685,1296,-0.169279,-0.968271
-532,-272,-0.198425,0.962524,0,0,0,0,0,0,0,-1,692,1296,-0.198453,-0.96258
-525,-272,-1.31885,2.49866,0.00492943,0.000734584,-0.00475705,0.00803092,-0.0023669,-0.577764,0.00629307,0.043095,699,1296,-1.31883,-2.49862
-518,-272,-1.42639,2.51416,0.0051869,0.00416608,-0.00462151,0.0093261,2.68812e-05,-0.7304,0.00620846,0.0447541,706,1296,-1.42638,-2.51419
-511,-272,-1.75928,2.35571,0.00463305,0.00825626,-0.00377555,0.0106323,0.00225697,-1.00909,0.00646851,0.0464996,713,1296,-1.75931,-2.35567
-504,-272,-0.0362549,-0.617798,0.00276626,0.0132633,-0.00204681,0.0136483,0.00238127,-1.38488,0.00841811,0.0466234,720,1296,-0.0362672,0.617784
-497,-272,0.0105591,0.057251,-0.00106449,0.0190954,0.000801621,0.0191272,-0.00109632,1.53112,0.0131322,0.0467095,727,1296,0.0105703,-0.0572693
-490,-272,-0.24115,0.523438,-0.00759183,0.0254381,0.0049637,0.0261679,-0.00832165,1.42481,0.0207821,0.0413665,734,1296,-0.241126,-0.523397
-483,-272,-0.451843,0.746948,-0.0183988,0.031329,0.0109042,0.0336149,-0.0206847,1.36415,0.0316448,0.0361981,741,1296,-0.451835,-0.746927
-476,-272,0,0,0,0,0,0,0,0,0,-1,748,1296,0,0
-469,-272,0,0,0,0,0,0,0,0,0,-1,755,1296,0,0
-462,-272,0,0,0,0,0,0,0,0,0,-1,762,1296,0,0
-455,-272,0,0,0,0,0,0,0,0,0,-1,769,1296,0,0
-448,-272,0,0,0,0,0,0,0,0,0,-1,776,1296,0,0
-441,-272,0,0,0,0,0,0,0,0,0,-1,783,1296,0,0
-434,-272,0,0,0,0,0,0,0,0,0,-1,790,1296,0,0
-427,-272,0,0,0,0,0,0,0,0,0,-1,797,1296,0,0
-420,-272,0,0,0,0,0,0,0,0,0,-1,804,1296,0,0
-413,-272,0,0,0,0,0,0,0,0,0,-1,811,1296,0,0
-406,-272,0,0,0,0,0,0,0,0,0,-1,818,1296,0,0
-399,-272,0,0,0,0,0,0,0,0,0,-1,825,1296,0,0
-392,-272,0,0,0,0,0,0,0,0,0,-1,832,1296,0,0
-385,-272,0,0,0,0,0,0,0,0,0,-1,839,1296,0,0
-378,-272,0,0,0,0,0,0,0,0,0,-1,846,1296,0,0
-371,-272,0,0,0,0,0,0,0,0,0,-1,853,1296,0,0
-364,-272,0,0,0,0,0,0,0,0,0,-1,860,1296,0,0
-357,-272,0,0,0,0,0,0,0,0,0,-1,867,1296,0,0
-350,-272,0,0,0,0,0,0,0,0,0,-1,874,1296,0,0
-343,-272,0,0,0,0,0,0,0,0,0,-1,881,1296,0,0
-336,-272,0,0,0,0,0,0,0,0,0,-1,888,1296,0,0
-329,-272,0,0,0,0,0,0,0,0,0,-1,895,1296,0,0
-322,-272,0,0,0,0,0,0,0,0,0,-1,902,1296,0,0
-315,-272,0,0,0,0,0,0,0,0,0,-1,909,1296,0,0
-308,-272,0,0,0,0,0,0,0,0,0,-1,916,1296,0,0
-301,-272,0,0,0,0,0,0,0,0,0,-1,923,1296,0,0
-294,-272,0,0,0,0,0,0,0,0,0,-1,930,1296,0,0
-287,-272,0,0,0,0,0,0,0,0,0,-1,937,1296,0,0
-280,-272,0,0,0,0,0,0,0,0,0,-1,944,1296,0,0
-273,-272,0,0,0,0,0,0,0,0,0,-1,951,1296,0,0
-266,-272,0,0,0,0,0,0,0,0,0,-1,958,1296,0,0
-259,-272,0,0,0,0,0,0,0,0,0,-1,965,1296,0,0
-252,-272,0,0,0,0,0,0,0,0,0,-1,972,1296,0,0
-245,-272,0,0,0,0,0,0,0,0,0,-1,979,1296,0,0
-238,-272,0,0,0,0,0,0,0,0,0,-1,986,1296,0,0
-231,-272,0,0,0,0,0,0,0,0,0,-1,993,1296,0,0
-224,-272,0,0,0,0,0,0,0,0,0,-1,1000,1296,0,0
-217,-272,0,0,0,0,0,0,0,0,0,-1,1007,1296,0,0
-210,-272,0,0,0,0,0,0,0,0,0,-1,1014,1296,0,0
-203,-272,0,0,0,0,0,0,0,0,0,-1,1021,1296,0,0
-196,-272,0,0,0,0,0,0,0,0,0,-1,1028,1296,0,0
-189,-272,0,0,0,0,0,0,0,0,0,-1,1035,1296,0,0
-182,-272,0,0,0,0,0,0,0,0,0,-1,1042,1296,0,0
-175,-272,0,0,0,0,0,0,0,0,0,-1,1049,1296,0,0
-168,-272,0,0,0,0,0,0,0,0,0,-1,1056,1296,0,0
-161,-272,0,0,0,0,0,0,0,0,0,-1,1063,1296,0,0
-154,-272,0,0,0,0,0,0,0,0,0,-1,1070,1296,0,0
-147,-272,0,0,0,0,0,0,0,0,0,-1,1077,1296,0,0
-140,-272,0,0,0,0,0,0,0,0,0,-1,1084,1296,0,0
-133,-272,0,0,0,0,0,0,0,0,0,-1,1091,1296,0,0
-126,-272,0,0,0,0,0,0,0,0,0,-1,1098,1296,0,0
-119,-272,0,0,0,0,0,0,0,0,0,-1,1105,1296,0,0
-112,-272,0,0,0,0,0,0,0,0,0,-1,1112,1296,0,0
-105,-272,0,0,0,0,0,0,0,0,0,-1,1119,1296,0,0
-98,-272,0,0,0,0,0,0,0,0,0,-1,1126,1296,0,0
-91,-272,0,0,0,0,0,0,0,0,0,-1,1133,1296,0,0
-84,-272,0,0,0,0,0,0,0,0,0,-1,1140,1296,0,0
-77,-272,0,0,0,0,0,0,0,0,0,-1,1147,1296,0,0
-70,-272,0,0,0,0,0,0,0,0,0,-1,1154,1296,0,0
-63,-272,0,0,0,0,0,0,0,0,0,-1,1161,1296,0,0
-56,-272,0,0,0,0,0,0,0,0,0,-1,1168,1296,0,0
-49,-272,0,0,0,0,0,0,0,0,0,-1,1175,1296,0,0
-42,-272,0,0,0,0,0,0,0,0,0,-1,1182,1296,0,0
-35,-272,0,0,0,0,0,0,0,0,0,-1,1189,1296,0,0
-28,-272,0,0,0,0,0,0,0,0,0,-1,1196,1296,0,0
-21,-272,0,0,0,0,0,0,0,0,0,-1,1203,1296,0,0
-14,-272,0,0,0,0,0,0,0,0,0,-1,1210,1296,0,0
-7,-272,0,0,0,0,0,0,0,0,0,-1,1217,1296,0,0
0,-272,0,0,0,0,0,0,0,0,0,-1,1224,1296,0,0
7,-272,0,0,0,0,0,0,0,0,0,-1,1231,1296,0,0
14,-272,0,0,0,0,0,0,0,0,0,-1,1238,1296,0,0
21,-272,0,0,0,0,0,0,0,0,0,-1,1245,1296,0,0
28,-272,0,0,0,0,0,0,0,0,0,-1,1252,1296,0,0
35,-272,0,0,0,0,0,0,0,0,0,-1,1259,1296,0,0
42,-272,0,0,0,0,0,0,0,0,0,-1,1266,1296,0,0
49,-272,0,0,0,0,0,0,0,0,0,-1,1273,1296,0,0
56,-272,0,0,0,0,0,0,0,0,0,-1,1280,1296,0,0
63,-272,0,0,0,0,0,0,0,0,0,-1,1287,1296,0,0
70,-272,0,0,0,0,0,0,0,0,0,-1,1294,1296,0,0
77,-272,0,0,0,0,0,0,0,0,0,-1,1301,1296,0,0
84,-272,0,0,0,0,0,0,0,0,0,-1,1308,1296,0,0
91,-272,0,0,0,0,0,0,0,0,0,-1,1315,1296,0,0
98,-272,0,0,0,0,0,0,0,0,0,-1,1322,1296,0,0
105,-272,0,0,0,0,0,0,0,0,0,-1,1329,1296,0,0
112,-272,0,0,0,0,0,0,0,0,0,-1,1336,1296,0,0
119,-272,0,0,0,0,0,0,0,0,0,-1,1343,1296,0,0
126,-272,0,0,0,0,0,0,0,0,0,-1,1350,1296,0,0
133,-272,0,0,0,0,0,0,0,0,0,-1,1357,1296,0,0
140,-272,0,0,0,0,0,0,0,0,0,-1,1364,1296,0,0
147,-272,0,0,0,0,0,0,0,0,0,-1,1371,1296,0,0
154,-272,0,0,0,0,0,0,0,0,0,-1,1378,1296,0,0
161,-272,0,0,0,0,0,0,0,0,0,-1,1385,1296,0,0
168,-272,0,0,0,0,0,0,0,0,0,-1,1392,1296,0,0
175,-272,0,0,0,0,0,0,0,0,0,-1,1399,1296,0,0
182,-272,0,0,0,0,0,0,0,0,0,-1,1406,1296,0,0
189,-272,0,0,0,0,0,0,0,0,0,-1,1413,1296,0,0
196,-272,0,0,0,0,0,0,0,0,0,-1,1420,1296,0,0
203,-272,0,0,0,0,0,0,0,0,0,-1,1427,1296,0,0
210,-272,0,0,0,0,0,0,0,0,0,-1,1434,1296,0,0
217,-272,0,0,0,0,0,0,0,0,0,-1,1441,1296,0,0
224,-272,0,0,0,0,0,0,0,0,0,-1,1448,1296,0,0
231,-272,0,0,0,0,0,0,0,0,0,-1,1455,1296,0,0
238,-272,0,0,0,0,0,0,0,0,0,-1,1462,1296,0,0
245,-272,0,0,0,0,0,0,0,0,0,-1,1469,1296,0,0
252,-272,0,0,0,0,0,0,0,0,0,-1,1476,1296,0,0
259,-272,0,0,0,0,0,0,0,0,0,-1,1483,1296,0,0
266,-272,0,0,0,0,0,0,0,0,0,-1,1490,1296,0,0
273,-272,0,0,0,0,0,0,0,0,0,-1,1497,1296,0,0
280,-272,0,0,0,0,0,0,0,0,0,-1,1504,1296,0,0
287,-272,0,0,0,0,0,0,0,0,0,-1,1511,1296,0,0
294,-272,0,0,0,0,0,0,0,0,0,-1,1518,1296,0,0
301,-272,0,0,0,0,0,0,0,0,0,-1,1525,1296,0,0
308,-272,0,0,0,0,0,0,0,0,0,-1,1532,1296,0,0
315,-272,0,0,0,0,0,0,0,0,0,-1,1539,1296,0,0
322,-272,0,0,0,0,0,0,0,0,0,-1,1546,1296,0,0
329,-272,0,0,0,0,0,0,0,0,0,-1,1553,1296,0,0
336,-272,0,0,0,0,0,0,0,0,0,-1,1560,1296,0,0
343,-272,0,0,0,0,0,0,0,0,0,-1,1567,1296,0,0
350,-272,0,0,0,0,0,0,0,0,0,-1,1574,1296,0,0
357,-272,0,0,0,0,0,0,0,0,0,-1,1581,1296,0,0
364,-272,0,0,0,0,0,0,0,0,0,-1,1588,1296,0,0
371,-272,0,0,0,0,0,0,0,0,0,-1,1595,1296,0,0
378,-272,0,0,0,0,0,0,0,0,0,-1,1602,1296,0,0
385,-272,0,0,0,0,0,0,0,0,0,-1,1609,1296,0,0
392,-272,0,0,0,0,0,0,0,0,0,-1,1616,1296,0,0
399,-272,0,0,0,0,0,0,0,0,0,-1,1623,1296,0,0
406,-272,0,0,0,0,0,0,0,0,0,-1,1630,1296,0,0
413,-272,0,0,0,0,0,0,0,0,0,-1,1637,1296,0,0
420,-272,0,0,0,0,0,0,0,0,0,-1,1644,1296,0,0
427,-272,0,0,0,0,0,0,0,0,0,-1,1651,1296,0,0
434,-272,0,0,0,0,0,0,0,0,0,-1,1658,1296,0,0
441,-272,0,0,0,0,0,0,0,0,0,-1,1665,1296,0,0
448,-272,0,0,0,0,0,0,0,0,0,-1,1672,1296,0,0
455,-272,0,0,0,0,0,0,0,0,0,-1,1679,1296,0,0
462,-272,0,0,0,0,0,0,0,0,0,-1,1686,1296,0,0
469,-272,0,0,0,0,0,0,0,0,0,-1,1693,1296,0,0
476,-272,0,0,0,0,0,0,0,0,0,-1,1700,1296,0,0
483,-272,0,0,0,0,0,0,0,0,0,-1,1707,1296,0,0
490,-272,0,0,0,0,0,0,0,0,0,-1,1714,1296,0,0
497,-272,0,0,0,0,0,0,0,0,0,-1,1721,1296,0,0
504,-272,0,0,0,0,0,0,0,0,0,-1,1728,1296,0,0
511,-272,0,0,0,0,0,0,0,0,0,-1,1735,1296,0,0
518,-272,0,0,0,0,0,0,0,0,0,-1,1742,1296,0,0
525,-272,0,0,0,0,0,0,0,0,0,-1,1749,1296,0,0
532,-272,0,0,0,0,0,0,0,0,0,-1,1756,1296,0,0
539,-272,0,0,0,0,0,0,0,0,0,-1,1763,1296,0,0
546,-272,0,0,0,0,0,0,0,0,0,-1,1770,1296,0,0
553,-272,0,0,0,0,0,0,0,0,0,-1,1777,1296,0,0
560,-272,0,0,0,0,0,0,0,0,0,-1,1784,1296,0,0
567,-272,0,0,0,0,0,0,0,0,0,-1,1791,1296,0,0
574,-272,0,0,0,0,0,0,0,0,0,-1,1798,1296,0,0
581,-272,0,0,0,0,0,0,0,0,0,-1,1805,1296,0,0
588,-272,0,0,0,0,0,0,0,0,0,-1,1812,1296,0,0
595,-272,0,0,0,0,0,0,0,0,0,-1,1819,1296,0,0
602,-272,4.27686,0.602661,0.01238,-0.00385679,0.0147782,0.0211229,-0.0125997,0.534226,0.019676,0.0303454,1826,1296,4.27689,-0.602665
609,-272,4.19873,0.50061,0.0159861,-0.00392226,0.0120887,0.0216916,-0.00962769,0.440967,0.0185239,0.0370923,1833,1296,4.19872,-0.500613
616,-272,4.21594,0.442139,0.0165132,-0.00317948,0.0106033,0.0211368,-0.00780313,0.411199,0.0172895,0.0421803,1840,1296,4.21588,-0.442097
623,-272,4.401,0.571777,0.0158333,-0.00157862,0.00928864,0.0198581,-0.00560344,0.408884,0.0154491,0.0435252,1847,1296,4.40096,-0.571762
630,-272,3.99243,0.120239,0,0,0,0,0,0,0,-1,1854,1296,3.99248,-0.120278
637,-272,3.53577,0.0949707,0,0,0,0,0,0,0,-1,1861,1296,3.53581,-0.0950298
644,-272,3.55151,-0.325439,0.00972708,0.00126254,0.00708909,0.0137512,-0.00276153,0.516289,0.0102132,0.0474216,1868,1296,3.55151,0.325495
651,-272,4.49756,1.41663,0.00777762,0.00163782,0.00656655,0.0119564,-0.00254099,0.56674,0.00893916,0.0486016,1875,1296,4.49754,-1.41664
658,-272,4.31775,1.31897,0.00622732,0.00180254,0.00607847,0.0104835,-0.00245364,0.610865,0.00793437,0.0478676,1882,1296,4.31777,-1.31891
665,-272,4.12085,1.23352,0.00470629,0.00189843,0.00534859,0.00883214,-0.00222742,0.657051,0.00675413,0.0480232,1889,1296,4.12079,-1.23346
672,-272,3.6676,0.890503,0.00310699,0.00175884,0.00493222,0.00741098,-0.00254515,0.717485,0.00597262,0.0443987,1896,1296,3.66756,-0.890456
679,-272,3.71704,0.890991,0.00148697,0.00148441,0.00441812,0.00590381,-0.00293242,0.785253,0.00519686,0.0180138,1903,1296,3.71704,-0.89101
686,-272,3.745,0.882446,0.000923002,0.000861202,0.00379931,0.00469154,-0.00290734,0.781332,0.00442734,0.0130914,1910,1296,3.74496,-0.882459
693,-272,3.74524,0.849365,0.0012239,0.000553496,0.0034237,0.00432876,-0.00255137,0.736601,0.00401619,0.0108721,1917,1296,3.7453,-0.849386
700,-272,3.74146,0.826538,0.000590062,0.000105675,0.00241552,0.0027755,-0.00207976,0.735432,0.00281277,0.0108459,1924,1296,3.74142,-0.826519
707,-272,3.74023,0.809082,0.000738656,3.41267e-05,0.0019827,0.00240015,-0.00162736,0.697481,0.00233951,0.0100983,1931,1296,3.74025,-0.809058
714,-272,3.73047,0.772705,0.00170163,0.000618052,0.00163933,0.00288639,-0.000566702,0.625802,0.00213834,0.00963327,1938,1296,3.73043,-0.772736
721,-272,3.73035,0.750854,0.00358105,0.000415049,0.00174703,0.00435559,-0.000359493,0.417308,0.00303067,0.0111049,1945,1296,3.73031,-0.750804
728,-272,3.7406,0.753784,0.00664009,0.000287323,0.00211631,0.00728054,-0.000353123,0.293862,0.00497558,0.0134005,1952,1296,3.74062,-0.753725
735,-272,3.73694,0.728271,0.010075,-9.22427e-06,0.0029502,0.0108747,-0.000808905,0.2647,0.00753394,0.0134137,1959,1296,3.73692,-0.728304
742,-272,3.73071,0.705078,0.0145668,-0.000383296,0.00435624,0.0157435,-0.00156002,0.263827,0.0110525,0.0221766,1966,1296,3.73073,-0.705069
749,-272,3.74707,0.751465,0.0204101,-0.00125907,0.0062915,0.0221043,-0.0029533,0.263049,0.0158128,0.0389606,1973,1296,3.74707,-0.751502
756,-272,3.77795,0.810669,0,0,0,0,0,0,0,-1,1980,1296,3.778,-0.810615
763,-272,2.09119,2.12561,0,0,0,0,0,0,0,-1,1987,1296,2.09114,-2.12565
770,-272,1.61792,3.15662,0,0,0,0,0,0,0,-1,1994,1296,1.61793,-3.15661
777,-272,1.66956,3.87268,0,0,0,0,0,0,0,-1,2001,1296,1.66953,-3.87269
784,-272,0,0,0,0,0,0,0,0,0,-1,2008,1296,0,0
791,-272,0,0,0,0,0,0,0,0,0,-1,2015,1296,0,0
798,-272,0,0,0,0,0,0,0,0,0,-1,2022,1296,0,0
805,-272,0,0,0,0,0,0,0,0,0,-1,2029,1296,0,0
812,-272,0,0,0,0,0,0,0,0,0,-1,2036,1296,0,0
-700,-279,0,0,0,0,0,0,0,0,0,-1,524,1303,0,0
-693,-279,0,0,0,0,0,0,0,0,0,-1,531,1303,0,0
-686,-279,0,0,0,0,0,0,0,0,0,-1,538,1303,0,0
-679,-279,0,0,0,0,0,0,0,0,0,-1,545,1303,0,0
-672,-279,0,0,0,0,0,0,0,0,0,-1,552,1303,0,0
-665,-279,0,0,0,0,0,0,0,0,0,-1,559,1303,0,0
-658,-279,-0.0663452,0.0759277,0.0168377,0.0595181,0.034404,0.0786629,-0.00230714,1.063,0.0532277,0.0456605,566,1303,-0.0663545,-0.0759675
-651,-279,-0.209473,0.177002,0.01581,0.0598213,0.0300378,0.0750517,0.000579651,1.10153,0.0498423,0.0435679,573,1303,-0.209459,-0.177024
-644,-279,0.35437,-0.115112,0.0140917,0.0560502,0.025837,0.0683527,0.00178915,1.1264,0.044984,0.04372,580,1303,0.354388,0.115112
-637,-279,0.360718,-0.174805,0,0,0,0,0,0,0,-1,587,1303,0.360747,0.174848
-630,-279,-0.130615,-0.581421,0,0,0,0,0,0,0,-1,594,1303,-0.130637,0.581384
-623,-279,-0.161865,-0.259277,0.00805883,0.0360875,0.0147519,0.0424206,0.00172571,1.16528,0.0277231,0.0422929,601,1303,-0.16187,0.259323
-616,-279,-0.0248413,0.492188,0.0063259,0.0289961,0.0117142,0.0339616,0.00136045,1.16987,0.0222015,0.0382904,608,1303,-0.0248449,-0.492185
-609,-279,-0.053894,0.641479,0.00491266,0.0225705,0.00887981,0.0262636,0.00121956,1.17666,0.017117,0.0240717,615,1303,-0.0539088,-0.641475
-602,-279,-0.0733643,0.752075,0.00351748,0.0173926,0.0065,0.0199619,0.000948226,1.19437,0.0130034,0.0115105,622,1303,-0.0733551,-0.752124
-595,-279,-0.0871582,0.804688,0.00254468,0.0118618,0.00432982,0.0135632,0.000843242,1.19638,0.00877459,0.00977319,629,1303,-0.0871416,-0.804687
-588,-279,-0.0733032,0.84082,0.00127132,0.00662059,0.00223286,0.00743011,0.000461802,1.22299,0.00480687,0.00960497,636,1303,-0.0733294,-0.840806
-581,-279,-0.0619507,0.830933,0.000353592,0.00240979,0.00105417,0.0028542,-9.08133e-05,1.17184,0.00193378,0.0110702,643,1303,-0.0619299,-0.83088
-574,-279,-0.0626831,0.837524,-0.000227075,-0.000578546,0.00025177,-9.57744e-05,-0.000709847,0.480706,0.000444757,0.0108333,650,1303,-0.0627069,-0.837484
-567,-279,-0.0662231,0.888916,0.000209256,-0.00233261,-0.000609239,0.000347735,-0.00247109,-0.223501,0.0017747,0.0133138,657,1303,-0.0662253,-0.888889
-560,-279,-0.0679932,0.935059,0.00135794,-0.00298385,-0.00213583,0.00223246,-0.00385837,-0.388628,0.00355806,0.0148041,664,1303,-0.0679647,-0.935029
-553,-279,-0.0764771,0.95166,0.00273857,-0.00357841,-0.00370005,0.00444489,-0.00528474,-0.432098,0.00562438,0.0113048,671,1303,-0.0764913,-0.951601
-546,-279,-0.0824585,0.951172,0.00370957,-0.00325076,-0.00431153,0.00577023,-0.00531143,-0.445847,0.00639983,0.012356,678,1303,-0.0824411,-0.951157
-539,-279,-0.0702515,0.961792,0.00463163,-0.00239894,-0.00473729,0.00701542,-0.00478274,-0.466203,0.0068522,0.0376492,685,1303,-0.0702604,-0.96182
-532,-279,-0.057251,0.962036,0,0,0,0,0,0,0,-1,692,1303,-0.0572529,-0.962097
-525,-279,-0.304626,0.735718,0,0,0,0,0,0,0,-1,699,1303,-0.304623,-0.735751
-518,-279,-1.71655,2.9259,0.00674154,0.00572074,-0.00527424,0.01153,0.000932265,-0.737162,0.00739553,0.0429529,706,1303,-1.71658,-2.92585
-511,-279,0.292603,0.899536,0.00679752,0.0102958,-0.00479501,0.0136508,0.00344259,-0.96029,0.00819757,0.0451065,713,1303,0.292579,-0.899577
-504,-279,0.16272,-0.513794,0.00564012,0.016069,-0.00345425,0.0171093,0.00459978,-1.27826,0.0102239,0.0480429,720,1303,0.162742,0.513772
-497,-279,-0.0090332,-0.0195313,0.00281557,0.02306,-0.00116867,0.0231272,0.00274833,-1.51332,0.0145886,0.043344,727,1303,-0.00905298,0.0194758
-490,-279,-0.22168,0.429688,-0.00222811,0.0311852,0.00214378,0.0313221,-0.00236509,1.50699,0.0217128,0.042302,734,1303,-0.221667,-0.429664
-483,-279,-0.452454,0.685791,-0.0105047,0.0399872,0.00657751,0.04083,-0.0113474,1.44336,0.0316872,0.0397297,741,1303,-0.452473,-0.68573
-476,-279,0,0,0,0,0,0,0,0,0,-1,748,1303,0,0
-469,-279,0,0,0,0,0,0,0,0,0,-1,755,1303,0,0
-462,-279,0,0,0,0,0,0,0,0,0,-1,762,1303,0,0
-455,-279,0,0,0,0,0,0,0,0,0,-1,769,1303,0,0
-448,-279,0,0,0,0,0,0,0,0,0,-1,776,1303,0,0
-441,-279,0,0,0,0,0,0,0,0,0,-1,783,1303,0,0
-434,-279,0,0,0,0,0,0,0,0,0,-1,790,1303,0,0
-427,-279,0,0,0,0,0,0,0,0,0,-1,797,1303,0,0
-420,-279,0,0,0,0,0,0,0,0,0,-1,804,1303,0,0
-413,-279,0,0,0,0,0,0,0,0,0,-1,811,1303,0,0
-406,-279,0,0,0,0,0,0,0,0,0,-1,818,1303,0,0
-399,-279,0,0,0,0,0,0,0,0,0,-1,825,1303,0,0
-392,-279,0,0,0,0,0,0,0,0,0,-1,832,1303,0,0
-385,-279,0,0,0,0,0,0,0,0,0,-1,839,1303,0,0
-378,-279,0,0,0,0,0,0,0,0,0,-1,846,1303,0,0
-371,-279,0,0,0,0,0,0,0,0,0,-1,853,1303,0,0
-364,-279,0,0,0,0,0,0,0,0,0,-1,860,1303,0,0
-357,-279,0,0,0,0,0,0,0,0,0,-1,867,1303,0,0
-350,-279,0,0,0,0,0,0,0,0,0,-1,874,1303,0,0
-343,-279,0,0,0,0,0,0,0,0,0,-1,881,1303,0,0
-336,-279,0,0,0,0,0,0,0,0,0,-1,888,1303,0,0
-329,-279,0,0,0,0,0,0,0,0,0,-1,895,1303,0,0
-322,-279,0,0,0,0,0,0,0,0,0,-1,902,1303,0,0
-315,-279,0,0,0,0,0,0,0,0,0,-1,909,1303,0,0
-308,-279,0,0,0,0,0,0,0,0,0,-1,916,1303,0,0
-301,-279,0,0,0,0,0,0,0,0,0,-1,923,1303,0,0
-294,-279,0,0,0,0,0,0,0,0,0,-1,930,1303,0,0
-287,-279,0,0,0,0,0,0,0,0,0,-1,937,1303,0,0
-280,-279,0,0,0,0,0,0,0,0,0,-1,944,1303,0,0
-273,-279,0,0,0,0,0,0,0,0,0,-1,951,1303,0,0
-266,-279,0,0,0,0,0,0,0,0,0,-1,958,1303,0,0
-259,-279,0,0,0,0,0,0,0,0,0,-1,965,1303,0,0
-252,-279,0,0,0,0,0,0,0,0,0,-1,972,1303,0,0
-245,-279,0,0,0,0,0,0,0,0,0,-1,979,1303,0,0
-238,-279,0,0,0,0,0,0,0,0,0,-1,986,1303,0,0
-231,-279,0,0,0,0,0,0,0,0,0,-1,993,1303,0,0
-224,-279,0,0,0,0,0,0,0,0,0,-1,1000,1303,0,0
-217,-279,0,0,0,0,0,0,0,0,0,-1,1007,1303,0,0
-210,-279,0,0,0,0,0,0,0,0,0,-1,1014,1303,0,0
-203,-279,0,0,0,0,0,0,0,0,0,-1,1021,1303,0,0
-196,-279,0,0,0,0,0,0,0,0,0,-1,1028,1303,0,0
-189,-279,0,0,0,0,0,0,0,0,0,-1,1035,1303,0,0
-182,-279,0,0,0,0,0,0,0,0,0,-1,1042,1303,0,0
-175,-279,0,0,0,0,0,0,0,0,0,-1,1049,1303,0,0
-168,-279,0,0,0,0,0,0,0,0,0,-1,1056,1303,0,0
-161,-279,0,0,0,0,0,0,0,0,0,-1,1063,1303,0,0
-154,-279,0,0,0,0,0,0,0,0,0,-1,1070,1303,0,0
-147,-279,0,0,0,0,0,0,0,0,0,-1,1077,1303,0,0
-140,-279,0,0,0,0,0,0,0,0,0,-1,1084,1303,0,0
-133,-279,0,0,0,0,0,0,0,0,0,-1,1091,1303,0,0
-126,-279,0,0,0,0,0,0,0,0,0,-1,1098,1303,0,0
-119,-279,0,0,0,0,0,0,0,0,0,-1,1105,1303,0,0
-112,-279,0,0,0,0,0,0,0,0,0,-1,1112,1303,0,0
-105,-279,0,0,0,0,0,0,0,0,0,-1,1119,1303,0,0
-98,-279,0,0,0,0,0,0,0,0,0,-1,1126,1303,0,0
-91,-279,0,0,0,0,0,0,0,0,0,-1,1133,1303,0,0
-84,-279,0,0,0,0,0,0,0,0,0,-1,1140,1303,0,0
-77,-279,0,0,0,0,0,0,0,0,0,-1,1147,1303,0,0
-70,-279,0,0,0,0,0,0,0,0,0,-1,1154,1303,0,0
-63,-279,0,0,0,0,0,0,0,0,0,-1,1161,1303,0,0
-56,-279,0,0,0,0,0,0,0,0,0,-1,1168,1303,0,0
-49,-279,0,0,0,0,0,0,0,0,0,-1,1175,1303,0,0
-42,-279,0,0,0,0,0,0,0,0,0,-1,1182,1303,0,0
-35,-279,0,0,0,0,0,0,0,0,0,-1,1189,1303,0,0
-28,-279,0,0,0,0,0,0,0,0,0,-1,1196,1303,0,0
-21,-279,0,0,0,0,0,0,0,0,0,-1,1203,1303,0,0
-14,-279,0,0,0,0,0,0,0,0,0,-1,1210,1303,0,0
-7,-279,0,0,0,0,0,0,0,0,0,-1,1217,1303,0,0
0,-279,0,0,0,0,0,0,0,0,0,-1,1224,1303,0,0
7,-279,0,0,0,0,0,0,0,0,0,-1,1231,1303,0,0
14,-279,0,0,0,0,0,0,0,0,0,-1,1238,1303,0,0
21,-279,0,0,0,0,0,0,0,0,0,-1,1245,1303,0,0
28,-279,0,0,0,0,0,0,0,0,0,-1,1252,1303,0,0
35,-279,0,0,0,0,0,0,0,0,0,-1,1259,1303,0,0
42,-279,0,0,0,0,0,0,0,0,0,-1,1266,1303,0,0
49,-279,0,0,0,0,0,0,0,0,0,-1,1273,1303,0,0
56,-279,0,0,0,0,0,0,0,0,0,-1,1280,1303,0,0
63,-279,0,0,0,0,0,0,0,0,0,-1,1287,1303,0,0
70,-279,0,0,0,0,0,0,0,0,0,-1,1294,1303,0,0
77,-279,0,0,0,0,0,0,0,0,0,-1,1301,1303,0,0
84,-279,0,0,0,0,0,0,0,0,0,-1,1308,1303,0,0
91,-279,0,0,0,0,0,0,0,0,0,-1,1315,1303,0,0
98,-279,0,0,0,0,0,0,0,0,0,-1,1322,1303,0,0
105,-279,0,0,0,0,0,0,0,0,0,-1,1329,1303,0,0
112,-279,0,0,0,0,0,0,0,0,0,-1,1336,1303,0,0
119,-279,0,0,0,0,0,0,0,0,0,-1,1343,1303,0,0
126,-279,0,0,0,0,0,0,0,0,0,-1,1350,1303,0,0
133,-279,0,0,0,0,0,0,0,0,0,-1,1357,1303,0,0
140,-279,0,0,0,0,0,0,0,0,0,-1,1364,1303,0,0
147,-279,0,0,0,0,0,0,0,0,0,-1,1371,1303,0,0
154,-279,0,0,0,0,0,0,0,0,0,-1,1378,1303,0,0
161,-279,0,0,0,0,0,0,0,0,0,-1,1385,1303,0,0
168,-279,0,0,0,0,0,0,0,0,0,-1,1392,1303,0,0
175,-279,0,0,0,0,0,0,0,0,0,-1,1399,1303,0,0
182,-279,0,0,0,0,0,0,0,0,0,-1,1406,1303,0,0
189,-279,0,0,0,0,0,0,0,0,0,-1,1413,1303,0,0
196,-279,0,0,0,0,0,0,0,0,0,-1,1420,1303,0,0
203,-279,0,0,0,0,0,0,0,0,0,-1,1427,1303,0,0
210,-279,0,0,0,0,0,0,0,0,0,-1,1434,1303,0,0
217,-279,0,0,0,0,0,0,0,0,0,-1,1441,1303,0,0
224,-279,0,0,0,0,0,0,0,0,0,-1,1448,1303,0,0
231,-279,0,0,0,0,0,0,0,0,0,-1,1455,1303,0,0
238,-279,0,0,0,0,0,0,0,0,0,-1,1462,1303,0,0
245,-279,0,0,0,0,0,0,0,0,0,-1,1469,1303,0,0
252,-279,0,0,0,0,0,0,0,0,0,-1,1476,1303,0,0
259,-279,0,0,0,0,0,0,0,0,0,-1,1483,1303,0,0
266,-279,0,0,0,0,0,0,0,0,0,-1,1490,1303,0,0
273,-279,0,0,0,0,0,0,0,0,0,-1,1497,1303,0,0
280,-279,0,0,0,0,0,0,0,0,0,-1,1504,1303,0,0
287,-279,0,0,0,0,0,0,0,0,0,-1,1511,1303,0,0
294,-279,0,0,0,0,0,0,0,0,0,-1,1518,1303,0,0
301,-279,0,0,0,0,0,0,0,0,0,-1,1525,1303,0,0
308,-279,0,0,0,0,0,0,0,0,0,-1,1532,1303,0,0
315,-279,0,0,0,0,0,0,0,0,0,-1,1539,1303,0,0
322,-279,0,0,0,0,0,0,0,0,0,-1,1546,1303,0,0
329,-279,0,0,0,0,0,0,0,0,0,-1,1553,1303,0,0
336,-279,0,0,0,0,0,0,0,0,0,-1,1560,1303,0,0
343,-279,0,0,0,0,0,0,0,0,0,-1,1567,1303,0,0
350,-279,0,0,0,0,0,0,0,0,0,-1,1574,1303,0,0
357,-279,0,0,0,0,0,0,0,0,0,-1,1581,1303,0,0
364,-279,0,0,0,0,0,0,0,0,0,-1,1588,1303,0,0
371,-279,0,0,0,0,0,0,0,0,0,-1,1595,1303,0,0
378,-279,0,0,0,0,0,0,0,0,0,-1,1602,1303,0,0
385,-279,0,0,0,0,0,0,0,0,0,-1,1609,1303,0,0
392,-279,0,0,0,0,0,0,0,0,0,-1,1616,1303,0,0
399,-279,0,0,0,0,0,0,0,0,0,-1,1623,1303,0,0
406,-279,0,0,0,0,0,0,0,0,0,-1,1630,1303,0,0
413,-279,0,0,0,0,0,0,0,0,0,-1,1637,1303,0,0
420,-279,0,0,0,0,0,0,0,0,0,-1,1644,1303,0,0
427,-279,0,0,0,0,0,0,0,0,0,-1,1651,1303,0,0
434,-279,0,0,0,0,0,0,0,0,0,-1,1658,1303,0,0
441,-279,0,0,0,0,0,0,0,0,0,-1,1665,1303,0,0
448,-279,0,0,0,0,0,0,0,0,0,-1,1672,1303,0,0
455,-279,0,0,0,0,0,0,0,0,0,-1,1679,1303,0,0
462,-279,0,0,0,0,0,0,0,0,0,-1,1686,1303,0,0
469,-279,0,0,0,0,0,0,0,0,0,-1,1693,1303,0,0
476,-279,0,0,0,0,0,0,0,0,0,-1,1700,1303,0,0
483,-279,0,0,0,0,0,0,0,0,0,-1,1707,1303,0,0
490,-279,0,0,0,0,0,0,0,0,0,-1,1714,1303,0,0
497,-279,0,0,0,0,0,0,0,0,0,-1,1721,1303,0,0
504,-279,0,0,0,0,0,0,0,0,0,-1,1728,1303,0,0
511,-279,0,0,0,0,0,0,0,0,0,-1,1735,1303,0,0
518,-279,0,0,0,0,0,0,0,0,0,-1,1742,1303,0,0
525,-279,0,0,0,0,0,0,0,0,0,-1,1749,1303,0,0
532,-279,0,0,0,0,0,0,0,0,0,-1,1756,1303,0,0
539,-279,0,0,0,0,0,0,0,0,0,-1,1763,1303,0,0
546,-279,0,0,0,0,0,0,0,0,0,-1,1770,1303,0,0
553,-279,0,0,0,0,0,0,0,0,0,-1,1777,1303,0,0
560,-279,0,0,0,0,0,0,0,0,0,-1,1784,1303,0,0
567,-279,0,0,0,0,0,0,0,0,0,-1,1791,1303,0,0
574,-279,0,0,0,0,0,0,0,0,0,-1,1798,1303,0,0
581,-279,0,0,0,0,0,0,0,0,0,-1,1805,1303,0,0
588,-279,0,0,0,0,0,0,0,0,0,-1,1812,1303,0,0
595,-279,0,0,0,0,0,0,0,0,0,-1,1819,1303,0,0
602,-279,4.0592,0.351685,0,0,0,0,0,0,0,-1,1826,1303,4.05926,-0.351677
609,-279,3.90247,0.242676,0.0238213,-0.00809587,0.0148109,0.0296352,-0.0139097,0.374058,0.0256813,0.0472769,1833,1303,3.9025,-0.242666
616,-279,3.91016,0.314697,0.0235607,-0.00676465,0.0128097,0.0282474,-0.0114513,0.350739,0.0235939,0.0437388,1840,1303,3.91016,-0.314652
623,-279,4.18384,0.545898,0.0216795,-0.0048252,0.0110349,0.0256722,-0.00881794,0.347174,0.0206902,0.0453848,1847,1303,4.18382,-0.545919
630,-279,4.49475,0.813354,0.018736,-0.00317136,0.00965591,0.0223844,-0.00681972,0.361256,0.0176412,0.0452791,1854,1303,4.49473,-0.813307
637,-279,2.7406,0.58252,0.0154952,-0.00182505,0.00851922,0.0189831,-0.00531297,0.388598,0.0147489,0.0483457,1861,1303,2.74063,-0.582473
644,-279,3.11096,0.759399,0,0,0,0,0,0,0,-1,1868,1303,3.11101,-0.75944
651,-279,3.97913,1.34875,0.00965941,-4.4099e-06,0.00664643,0.0130447,-0.0033897,0.471091,0.0100194,0.0489002,1875,1303,3.97909,-1.34876
658,-279,3.9231,1.24963,0.00748469,0.000540885,0.00585078,0.0108161,-0.00279058,0.517619,0.00829886,0.0482419,1882,1303,3.92307,-1.24969
665,-279,3.89282,1.10242,0.00542253,0.00100272,0.0048537,0.00854574,-0.00212049,0.571771,0.00651996,0.0453531,1889,1303,3.89284,-1.10239
672,-279,3.71289,0.952393,0.00340333,0.00116924,0.00432298,0.00675125,-0.00217868,0.658965,0.00537628,0.0349342,1896,1303,3.71293,-0.952374
679,-279,3.69226,0.91626,0.00134656,0.00120581,0.00365873,0.00493559,-0.00238322,0.775782,0.00431031,0.0210261,1903,1303,3.69227,-0.916218
686,-279,3.70801,0.886475,0.000553894,0.00067984,0.0029149,0.00353245,-0.00229871,0.796198,0.00339165,0.019184,1910,1303,3.70796,-0.886531
693,-279,3.71204,0.865234,0.000897895,0.000602425,0.00254969,0.00330413,-0.00180381,0.756459,0.00299117,0.0150731,1917,1303,3.71205,-0.86528
700,-279,3.72791,0.85144,0.000473474,0.000261938,0.0015682,0.00193947,-0.00120406,0.751727,0.00183139,0.0111072,1924,1303,3.7279,-0.851421
707,-279,3.71191,0.817017,0.000823427,0.000272772,0.00126949,0.00184711,-0.000750908,0.678612,0.00154383,0.00890436,1931,1303,3.71194,-0.81703
714,-279,3.69165,0.779419,0.00186636,0.00117155,0.00113106,0.00270217,0.00033574,0.636397,0.00170062,0.00962815,1938,1303,3.69167,-0.779432
721,-279,3.69434,0.759888,0.00363139,0.00129531,0.00139324,0.00428143,0.000645267,0.436548,0.00266536,0.0117879,1945,1303,3.69428,-0.759916
728,-279,3.71301,0.735352,0.0062246,0.00158972,0.00196334,0.00694447,0.000869855,0.351434,0.00436866,0.012713,1952,1303,3.71302,-0.735348
735,-279,3.70618,0.700684,0.00922402,0.00198728,0.00297849,0.0102922,0.000919076,0.344351,0.00657657,0.0125676,1959,1303,3.70623,-0.700683
742,-279,3.71643,0.662598,0.0131461,0.00257833,0.00462765,0.0148861,0.000838354,0.359643,0.00965674,0.0235605,1966,1303,3.7164,-0.66263
749,-279,3.86548,0.604248,0.0182432,0.00306243,0.00691886,0.0209234,0.000382254,0.369574,0.0138233,0.0409886,1973,1303,3.86542,-0.604278
756,-279,4.11206,0.624878,0.0246783,0.00328675,0.00998733,0.0286163,-0.000651209,0.375579,0.0192983,0.0477176,1980,1303,4.112,-0.62483
763,-279,4.24402,0.605347,0,0,0,0,0,0,0,-1,1987,1303,4.24398,-0.605295
770,-279,1.47278,2.57251,0,0,0,0,0,0,0,-1,1994,1303,1.47274,-2.57245
777,-279,1.26526,4.00793,0,0,0,0,0,0,0,-1,2001,1303,1.26527,-4.00797
784,-279,0,0,0,0,0,0,0,0,0,-1,2008,1303,0,0
791,-279,0,0,0,0,0,0,0,0,0,-1,2015,1303,0,0
798,-279,0,0,0,0,0,0,0,0,0,-1,2022,1303,0,0
805,-279,0,0,0,0,0,0,0,0,0,-1,2029,1303,0,0
812,-279,0,0,0,0,0,0,0,0,0,-1,2036,1303,0,0
-700,-286,0,0,0,0,0,0,0,0,0,-1,524,1310,0,0
-693,-286,0,0,0,0,0,0,0,0,0,-1,531,1310,0,0
-686,-286,0,0,0,0,0,0,0,0,0,-1,538,1310,0,0
-679,-286,0,0,0,0,0,0,0,0,0,-1,545,1310,0,0
-672,-286,0,0,0,0,0,0,0,0,0,-1,552,1310,0,0
-665,-286,0,0,0,0,0,0,0,0,0,-1,559,1310,0,0
-658,-286,0.0078125,0.0679932,0.0307616,0.062924,0.0396608,0.0896398,0.0040457,0.978004,0.058458,0.0485842,566,1310,0.00780323,-0.0679336
-651,-286,0.078064,-0.129395,0.0262203,0.0644239,0.0342809,0.0845657,0.00607852,1.03958,0.0544641,0.0467796,573,1310,0.0780456,0.129381
-644,-286,-0.170654,-0.41333,0.0219061,0.0607154,0.0293656,0.0765084,0.00611302,1.07736,0.049095,0.0432784,580,1310,-0.170626,0.413283
-637,-286,-0.28363,-0.532715,0.0180671,0.0544526,0.0248552,0.0670618,0.00545796,1.10132,0.0430041,0.0412536,587,1310,-0.283616,0.532775
-630,-286,-0.259338,-1.25159,0,0,0,0,0,0,0,-1,594,1310,-0.259353,1.25163
-623,-286,-0.265869,-0.949707,0,0,0,0,0,0,0,-1,601,1310,-0.265843,0.949719
-616,-286,-0.272339,-0.647827,0,0,0,0,0,0,0,-1,608,1310,-0.272333,0.647805
-609,-286,-0.0463867,0.534546,0.00683099,0.0247773,0.0103357,0.0294915,0.00211675,1.14287,0.0189948,0.0289915,615,1310,-0.0463645,-0.534542
-602,-286,-0.0683594,0.736816,0.00494372,0.0191703,0.00775972,0.0225838,0.00153028,1.15638,0.0145726,0.0126815,622,1310,-0.068377,-0.736827
-595,-286,-0.0585327,0.79541,0.00354595,0.0132743,0.00544031,0.0157079,0.00111239,1.15017,0.0101215,0.00999718,629,1310,-0.0585474,-0.79537
-588,-286,-0.0344849,0.829712,0.00189482,0.00773041,0.00303517,0.00902282,0.000602417,1.16824,0.0058248,0.00963119,636,1310,-0.0344662,-0.82966
-581,-286,-0.0203857,0.830688,0.000751797,0.00343508,0.00167169,0.00423693,-5.005e-05,1.12355,0.00284145,0.0117225,643,1310,-0.0203959,-0.830659
-574,-286,-0.0302734,0.837158,6.42434e-05,0.000246984,0.000702527,0.000864057,-0.00055283,0.850065,0.000824592,0.0120897,650,1310,-0.0302566,-0.837213
-567,-286,-0.0469971,0.877197,0.000305065,-0.00154593,-0.000214616,0.000329623,-0.00157048,-0.113933,0.00117241,0.0115819,657,1310,-0.0470124,-0.877222
-560,-286,-0.0410767,0.919556,0.0013419,-0.00218711,-0.00184603,0.00213108,-0.00297629,-0.403986,0.00296217,0.0118548,664,1310,-0.0410519,-0.919512
-553,-286,-0.0421753,0.939453,0.00273897,-0.00281348,-0.00356448,0.00448081,-0.00455532,-0.45454,0.00521707,0.0093218,671,1310,-0.0421472,-0.939398
-546,-286,-0.0518188,0.962402,0.0038874,-0.00254614,-0.00436406,0.00609213,-0.00475087,-0.467799,0.00627615,0.0111737,678,1310,-0.0518041,-0.962421
-539,-286,-0.0445557,1.04846,0.00501764,-0.00164507,-0.00495423,0.0076564,-0.00428383,-0.489408,0.00698476,0.0240381,685,1310,-0.0445565,-1.04849
-532,-286,-0.381226,0.989014,0.00587351,-5.64486e-06,-0.00523016,0.00893357,-0.00306571,-0.529377,0.00719861,0.0389842,692,1310,-0.381227,-0.989042
-525,-286,-0.316956,0.71875,0.00686601,0.00272287,-0.00567141,0.0108323,-0.00124346,-0.610293,0.00766972,0.0435685,699,1310,-0.316938,-0.718801
-518,-286,-0.000915527,0.911499,0.00799349,0.00728686,-0.00601396,0.0136645,0.00161585,-0.756057,0.00862167,0.0424052,706,1310,-0.000928517,-0.911462
-511,-286,0.320129,1.16772,0.00857718,0.0122833,-0.00581118,0.0165297,0.00433077,-0.939741,0.00989727,0.0442346,713,1310,0.320153,-1.16778
-504,-286,0.454651,1.42493,0,0,0,0,0,0,0,-1,720,1310,0.454676,-1.42488
-497,-286,-0.229858,-0.416016,0.00606587,0.026737,-0.00295415,0.0271509,0.00565197,-1.4316,0.0165417,0.0399285,727,1310,-0.229887,0.416005
-490,-286,-0.273132,0.277222,0.00216036,0.0364029,-0.000298179,0.0364055,0.00215776,-1.56209,0.023584,0.0432768,734,1310,-0.273152,-0.277257
-483,-286,-0.510071,0.750366,-0.00439499,0.0476074,0.00311772,0.0477937,-0.00458124,1.51113,0.0334941,0.0429337,741,1310,-0.510089,-0.750348
-476,-286,-0.543579,0.936157,0,0,0,0,0,0,0,-1,748,1310,-0.543586,-0.936202
-469,-286,0,0,0,0,0,0,0,0,0,-1,755,1310,0,0
-462,-286,0,0,0,0,0,0,0,0,0,-1,762,1310,0,0
-455,-286,0,0,0,0,0,0,0,0,0,-1,769,1310,0,0
-448,-286,0,0,0,0,0,0,0,0,0,-1,776,1310,0,0
-441,-286,0,0,0,0,0,0,0,0,0,-1,783,1310,0,0
-434,-286,0,0,0,0,0,0,0,0,0,-1,790,1310,0,0
-427,-286,0,0,0,0,0,0,0,0,0,-1,797,1310,0,0
-420,-286,0,0,0,0,0,0,0,0,0,-1,804,1310,0,0
-413,-286,0,0,0,0,0,0,0,0,0,-1,811,1310,0,0
-406,-286,0,0,0,0,0,0,0,0,0,-1,818,1310,0,0
-399,-286,0,0,0,0,0,0,0,0,0,-1,825,1310,0,0
-392,-286,0,0,0,0,0,0,0,0,0,-1,832,1310,0,0
-385,-286,0,0,0,0,0,0,0,0,0,-1,839,1310,0,0
-378,-286,0,0,0,0,0,0,0,0,0,-1,846,1310,0,0
-371,-286,0,0,0,0,0,0,0,0,0,-1,853,1310,0,0
-364,-286,0,0,0,0,0,0,0,0,0,-1,860,1310,0,0
-357,-286,0,0,0,0,0,0,0,0,0,-1,867,1310,0,0
-350,-286,0,0,0,0,0,0,0,0,0,-1,874,1310,0,0
-343,-286,0,0,0,0,0,0,0,0,0,-1,881,1310,0,0
-336,-286,0,0,0,0,0,0,0,0,0,-1,888,1310,0,0
-329,-286,0,0,0,0,0,0,0,0,0,-1,895,1310,0,0
-322,-286,0,0,0,0,0,0,0,0,0,-1,902,1310,0,0
-315,-286,0,0,0,0,0,0,0,0,0,-1,909,1310,0,0
-308,-286,0,0,0,0,0,0,0,0,0,-1,916,1310,0,0
-301,-286,0,0,0,0,0,0,0,0,0,-1,923,1310,0,0
-294,-286,0,0,0,0,0,0,0,0,0,-1,930,1310,0,0
-287,-286,0,0,0,0,0,0,0,0,0,-1,937,1310,0,0
-280,-286,0,0,0,0,0,0,0,0,0,-1,944,1310,0,0
-273,-286,0,0,0,0,0,0,0,0,0,-1,951,1310,0,0
-266,-286,0,0,0,0,0,0,0,0,0,-1,958,1310,0,0
-259,-286,0,0,0,0,0,0,0,0,0,-1,965,1310,0,0
-252,-286,0,0,0,0,0,0,0,0,0,-1,972,1310,0,0
-245,-286,0,0,0,0,0,0,0,0,0,-1,979,1310,0,0
-238,-286,0,0,0,0,0,0,0,0,0,-1,986,1310,0,0
-231,-286,0,0,0,0,0,0,0,0,0,-1,993,1310,0,0
-224,-286,0,0,0,0,0,0,0,0,0,-1,1000,1310,0,0
-217,-286,0,0,0,0,0,0,0,0,0,-1,1007,1310,0,0
-210,-286,0,0,0,0,0,0,0,0,0,-1,1014,1310,0,0
-203,-286,0,0,0,0,0,0,0,0,0,-1,1021,1310,0,0
-196,-286,0,0,0,0,0,0,0,0,0,-1,1028,1310,0,0
-189,-286,0,0,0,0,0,0,0,0,0,-1,1035,1310,0,0
-182,-286,0,0,0,0,0,0,0,0,0,-1,1042,1310,0,0
-175,-286,0,0,0,0,0,0,0,0,0,-1,1049,1310,0,0
-168,-286,0,0,0,0,0,0,0,0,0,-1,1056,1310,0,0
-161,-286,0,0,0,0,0,0,0,0,0,-1,1063,1310,0,0
-154,-286,0,0,0,0,0,0,0,0,0,-1,1070,1310,0,0
-147,-286,0,0,0,0,0,0,0,0,0,-1,1077,1310,0,0
-140,-286,0,0,0,0,0,0,0,0,0,-1,1084,1310,0,0
-133,-286,0,0,0,0,0,0,0,0,0,-1,1091,1310,0,0
-126,-286,0,0,0,0,0,0,0,0,0,-1,1098,1310,0,0
-119,-286,0,0,0,0,0,0,0,0,0,-1,1105,1310,0,0
-112,-286,0,0,0,0,0,0,0,0,0,-1,1112,1310,0,0
-105,-286,0,0,0,0,0,0,0,0,0,-1,1119,1310,0,0
-98,-286,0,0,0,0,0,0,0,0,0,-1,1126,1310,0,0
-91,-286,0,0,0,0,0,0,0,0,0,-1,1133,1310,0,0
-84,-286,0,0,0,0,0,0,0,0,0,-1,1140,1310,0,0
-77,-286,0,0,0,0,0,0,0,0,0,-1,1147,1310,0,0
-70,-286,0,0,0,0,0,0,0,0,0,-1,1154,1310,0,0
-63,-286,0,0,0,0,0,0,0,0,0,-1,1161,1310,0,0
-56,-286,0,0,0,0,0,0,0,0,0,-1,1168,1310,0,0
-49,-286,0,0,0,0,0,0,0,0,0,-1,1175,1310,0,0
-42,-286,0,0,0,0,0,0,0,0,0,-1,1182,1310,0,0
-35,-286,0,0,0,0,0,0,0,0,0,-1,1189,1310,0,0
-28,-286,0,0,0,0,0,0,0,0,0,-1,1196,1310,0,0
-21,-286,0,0,0,0,0,0,0,0,0,-1,1203,1310,0,0
-14,-286,0,0,0,0,0,0,0,0,0,-1,1210,1310,0,0
-7,-286,0,0,0,0,0,0,0,0,0,-1,1217,1310,0,0
0,-286,0,0,0,0,0,0,0,0,0,-1,1224,1310,0,0
7,-286,0,0,0,0,0,0,0,0,0,-1,1231,1310,0,0
14,-286,0,0,0,0,0,0,0,0,0,-1,1238,1310,0,0
21,-286,0,0,0,0,0,0,0,0,0,-1,1245,1310,0,0
28,-286,0,0,0,0,0,0,0,0,0,-1,1252,1310,0,0
35,-286,0,0,0,0,0,0,0,0,0,-1,1259,1310,0,0
42,-286,0,0,0,0,0,0,0,0,0,-1,1266,1310,0,0
49,-286,0,0,0,0,0,0,0,0,0,-1,1273,1310,0,0
56,-286,0,0,0,0,0,0,0,0,0,-1,1280,1310,0,0
63,-286,0,0,0,0,0,0,0,0,0,-1,1287,1310,0,0
70,-286,0,0,0,0,0,0,0,0,0,-1,1294,1310,0,0
77,-286,0,0,0,0,0,0,0,0,0,-1,1301,1310,0,0
84,-286,0,0,0,0,0,0,0,0,0,-1,1308,1310,0,0
91,-286,0,0,0,0,0,0,0,0,0,-1,1315,1310,0,0
98,-286,0,0,0,0,0,0,0,0,0,-1,1322,1310,0,0
105,-286,0,0,0,0,0,0,0,0,0,-1,1329,1310,0,0
112,-286,0,0,0,0,0,0,0,0,0,-1,1336,1310,0,0
119,-286,0,0,0,0,0,0,0,0,0,-1,1343,1310,0,0
126,-286,0,0,0,0,0,0,0,0,0,-1,1350,1310,0,0
133,-286,0,0,0,0,0,0,0,0,0,-1,1357,1310,0,0
140,-286,0,0,0,0,0,0,0,0,0,-1,1364,1310,0,0
147,-286,0,0,0,0,0,0,0,0,0,-1,1371,1310,0,0
154,-286,0,0,0,0,0,0,0,0,0,-1,1378,1310,0,0
161,-286,0,0,0,0,0,0,0,0,0,-1,1385,1310,0,0
168,-286,0,0,0,0,0,0,0,0,0,-1,1392,1310,0,0
175,-286,0,0,0,0,0,0,0,0,0,-1,1399,1310,0,0
182,-286,0,0,0,0,0,0,0,0,0,-1,1406,1310,0,0
189,-286,0,0,0,0,0,0,0,0,0,-1,1413,1310,0,0
196,-286,0,0,0,0,0,0,0,0,0,-1,1420,1310,0,0
203,-286,0,0,0,0,0,0,0,0,0,-1,1427,1310,0,0
210,-286,0,0,0,0,0,0,0,0,0,-1,1434,1310,0,0
217,-286,0,0,0,0,0,0,0,0,0,-1,1441,1310,0,0
224,-286,0,0,0,0,0,0,0,0,0,-1,1448,1310,0,0
231,-286,0,0,0,0,0,0,0,0,0,-1,1455,1310,0,0
238,-286,0,0,0,0,0,0,0,0,0,-1,1462,1310,0,0
245,-286,0,0,0,0,0,0,0,0,0,-1,1469,1310,0,0
252,-286,0,0,0,0,0,0,0,0,0,-1,1476,1310,0,0
259,-286,0,0,0,0,0,0,0,0,0,-1,1483,1310,0,0
266,-286,0,0,0,0,0,0,0,0,0,-1,1490,1310,0,0
273,-286,0,0,0,0,0,0,0,0,0,-1,1497,1310,0,0
280,-286,0,0,0,0,0,0,0,0,0,-1,1504,1310,0,0
287,-286,0,0,0,0,0,0,0,0,0,-1,1511,1310,0,0
294,-286,0,0,0,0,0,0,0,0,0,-1,1518,1310,0,0
301,-286,0,0,0,0,0,0,0,0,0,-1,1525,1310,0,0
308,-286,0,0,0,0,0,0,0,0,0,-1,1532,1310,0,0
315,-286,0,0,0,0,0,0,0,0,0,-1,1539,1310,0,0
322,-286,0,0,0,0,0,0,0,0,0,-1,1546,1310,0,0
329,-286,0,0,0,0,0,0,0,0,0,-1,1553,1310,0,0
336,-286,0,0,0,0,0,0,0,0,0,-1,1560,1310,0,0
343,-286,0,0,0,0,0,0,0,0,0,-1,1567,1310,0,0
350,-286,0,0,0,0,0,0,0,0,0,-1,1574,1310,0,0
357,-286,0,0,0,0,0,0,0,0,0,-1,1581,1310,0,0
364,-286,0,0,0,0,0,0,0,0,0,-1,1588,1310,0,0
371,-286,0,0,0,0,0,0,0,0,0,-1,1595,1310,0,0
378,-286,0,0,0,0,0,0,0,0,0,-1,1602,1310,0,0
385,-286,0,0,0,0,0,0,0,0,0,-1,1609,1310,0,0
392,-286,0,0,0,0,0,0,0,0,0,-1,1616,1310,0,0
399,-286,0,0,0,0,0,0,0,0,0,-1,1623,1310,0,0
406,-286,0,0,0,0,0,0,0,0,0,-1,1630,1310,0,0
413,-286,0,0,0,0,0,0,0,0,0,-1,1637,1310,0,0
420,-286,0,0,0,0,0,0,0,0,0,-1,1644,1310,0,0
427,-286,0,0,0,0,0,0,0,0,0,-1,1651,1310,0,0
434,-286,0,0,0,0,0,0,0,0,0,-1,1658,1310,0,0
441,-286,0,0,0,0,0,0,0,0,0,-1,1665,1310,0,0
448,-286,0,0,0,0,0,0,0,0,0,-1,1672,1310,0,0
455,-286,0,0,0,0,0,0,0,0,0,-1,1679,1310,0,0
462,-286,0,0,0,0,0,0,0,0,0,-1,1686,1310,0,0
469,-286,0,0,0,0,0,0,0,0,0,-1,1693,1310,0,0
476,-286,0,0,0,0,0,0,0,0,0,-1,1700,1310,0,0
483,-286,0,0,0,0,0,0,0,0,0,-1,1707,1310,0,0
490,-286,0,0,0,0,0,0,0,0,0,-1,1714,1310,0,0
497,-286,0,0,0,0,0,0,0,0,0,-1,1721,1310,0,0
504,-286,0,0,0,0,0,0,0,0,0,-1,1728,1310,0,0
511,-286,0,0,0,0,0,0,0,0,0,-1,1735,1310,0,0
518,-286,0,0,0,0,0,0,0,0,0,-1,1742,1310,0,0
525,-286,0,0,0,0,0,0,0,0,0,-1,1749,1310,0,0
532,-286,0,0,0,0,0,0,0,0,0,-1,1756,1310,0,0
539,-286,0,0,0,0,0,0,0,0,0,-1,1763,1310,0,0
546,-286,0,0,0,0,0,0,0,0,0,-1,1770,1310,0,0
553,-286,0,0,0,0,0,0,0,0,0,-1,1777,1310,0,0
560,-286,0,0,0,0,0,0,0,0,0,-1,1784,1310,0,0
567,-286,0,0,0,0,0,0,0,0,0,-1,1791,1310,0,0
574,-286,0,0,0,0,0,0,0,0,0,-1,1798,1310,0,0
581,-286,0,0,0,0,0,0,0,0,0,-1,1805,1310,0,0
588,-286,0,0,0,0,0,0,0,0,0,-1,1812,1310,0,0
595,-286,3.85193,0.52417,0,0,0,0,0,0,0,-1,1819,1310,3.85198,-0.524153
602,-286,3.1925,0.202637,0,0,0,0,0,0,0,-1,1826,1310,3.19253,-0.202597
609,-286,3.29321,0.189819,0.0330725,-0.0126607,0.0178067,0.0391879,-0.0187761,0.330815,0.0341502,0.0461887,1833,1310,3.29323,-0.189872
616,-286,3.52014,0.303955,0.0317481,-0.0106164,0.0151075,0.0365836,-0.015452,0.309771,0.0308575,0.0449642,1840,1310,3.52012,-0.303937
623,-286,3.71521,0.123901,0.0284926,-0.00822868,0.0127631,0.0324928,-0.0122289,0.303726,0.026689,0.046316,1847,1310,3.71525,-0.123846
630,-286,3.48682,0.300049,0.024285,-0.00621125,0.0108879,0.0277732,-0.0096995,0.310046,0.0224581,0.0434396,1854,1310,3.48686,-0.300025
637,-286,3.47607,0.439575,0.019891,-0.00450649,0.00932417,0.0230464,-0.00766189,0.326313,0.0184562,0.0451765,1861,1310,3.47606,-0.439548
644,-286,3.50757,0.565796,0,0,0,0,0,0,0,-1,1868,1310,3.50753,-0.565737
651,-286,3.80334,1.03967,0,0,0,0,0,0,0,-1,1875,1310,3.80336,-1.03973
658,-286,3.7616,1.01221,0.00916503,-0.0011406,0.00574372,0.0117285,-0.00370412,0.419787,0.00930289,0.0447829,1882,1310,3.76161,-1.01216
665,-286,3.74658,0.997803,0.00644303,-0.00033847,0.00452749,0.00870872,-0.00260416,0.463992,0.00684113,0.0420691,1889,1310,3.74655,-0.997796
672,-286,3.69165,0.951782,0.00387041,0.000119448,0.00391002,0.00633148,-0.00234163,0.561777,0.00518103,0.0231825,1896,1310,3.69162,-0.951832
679,-286,3.64465,0.897583,0.00130416,0.000451984,0.00314656,0.00405334,-0.0022972,0.718101,0.00371293,0.0186688,1903,1310,3.64461,-0.89757
686,-286,3.65662,0.882446,0.00021197,0.000113405,0.00232664,0.00248985,-0.00216447,0.774809,0.00268936,0.0193454,1910,1310,3.65666,-0.88249
693,-286,3.6908,0.877197,0.000511187,0.000333272,0.00194217,0.00236644,-0.00152198,0.762513,0.00226256,0.0153803,1917,1310,3.69076,-0.877145
700,-286,3.69507,0.844971,0.000280603,0.000178617,0.000957606,0.00118857,-0.000729352,0.758798,0.00111784,0.0112142,1924,1310,3.69509,-0.844958
707,-286,3.67725,0.830688,0.000786896,0.000346855,0.000703033,0.00130353,-0.000169782,0.633747,0.000930792,0.00872095,1931,1310,3.67721,-0.830737
714,-286,3.66455,0.804932,0.00189601,0.0016413,0.000660252,0.00244108,0.00109623,0.690125,0.00141179,0.00880365,1938,1310,3.66449,-0.804872
721,-286,3.67786,0.770386,0.00360033,0.00218391,0.000878426,0.00402048,0.00176376,0.446135,0.00232704,0.0113369,1945,1310,3.67782,-0.770388
728,-286,3.6626,0.730835,0.00598175,0.00300799,0.00137705,0.00652146,0.00246828,0.373534,0.00380205,0.0136631,1952,1310,3.66259,-0.730783
735,-286,3.64441,0.695435,0.00877242,0.00419881,0.00230516,0.00973265,0.00323858,0.394698,0.00572297,0.0149826,1959,1310,3.64435,-0.695493
742,-286,3.67163,0.632446,0.01242,0.00591367,0.00385921,0.0142142,0.00411939,0.435203,0.00844485,0.0242483,1966,1310,3.67168,-0.632403
749,-286,3.80981,0.486206,0.0171348,0.00799511,0.00610592,0.0201916,0.0049383,0.464151,0.0121541,0.0388963,1973,1310,3.80977,-0.486235
756,-286,4.1582,0.782959,0.0230526,0.0103925,0.00922032,0.0279066,0.00553847,0.484584,0.0170606,0.0437851,1980,1310,4.15818,-0.782999
763,-286,4.19019,1.05237,0.0302484,0.0129578,0.0134045,0.0375537,0.00565246,0.498988,0.0233805,0.0464851,1987,1310,4.1902,-1.05232
770,-286,4.16687,1.19714,0,0,0,0,0,0,0,-1,1994,1310,4.16686,-1.19714
777,-286,0,0,0,0,0,0,0,0,0,-1,2001,1310,0,0
784,-286,0,0,0,0,0,0,0,0,0,-1,2008,1310,0,0
791,-286,0,0,0,0,0,0,0,0,0,-1,2015,1310,0,0
798,-286,0,0,0,0,0,0,0,0,0,-1,2022,1310,0,0
805,-286,0,0,0,0,0,0,0,0,0,-1,2029,1310,0,0
812,-286,0,0,0,0,0,0,0,0,0,-1,2036,1310,0,0
-700,-293,0,0,0,0,0,0,0,0,0,-1,524,1317,0,0
-693,-293,0,0,0,0,0,0,0,0,0,-1,531,1317,0,0
-686,-293,0,0,0,0,0,0,0,0,0,-1,538,1317,0,0
-679,-293,0,0,0,0,0,0,0,0,0,-1,545,1317,0,0
-672,-293,0,0,0,0,0,0,0,0,0,-1,552,1317,0,0
-665,-293,0,0,0,0,0,0,0,0,0,-1,559,1317,0,0
-658,-293,0,0,0,0,0,0,0,0,0,-1,566,1317,0,0
-651,-293,0.144592,-0.0761719,0,0,0,0,0,0,0,-1,573,1317,0.144604,0.0761649
-644,-293,0.368469,-1.15955,0.0281658,0.0640773,0.0326441,0.0833781,0.00886503,1.03684,0.0528787,0.0465625,580,1317,0.368497,1.1595
-637,-293,0.630676,-1.80115,0.0228435,0.0574291,0.0276267,0.0727289,0.00754374,1.06504,0.0461772,0.0432923,587,1317,0.630691,1.80116
-630,-293,0.528687,-1.26233,0.0183163,0.04962,0.0230319,0.0618151,0.00612126,1.08384,0.0393288,0.041619,594,1317,0.528694,1.26234
-623,-293,-0.332581,-1.57312,0,0,0,0,0,0,0,-1,601,1317,-0.332568,1.57313
-616,-293,0.211487,-0.591553,0,0,0,0,0,0,0,-1,608,1317,0.211513,0.591556
-609,-293,0.536316,0.145874,0,0,0,0,0,0,0,-1,615,1317,0.536344,-0.14593
-602,-293,-0.0688477,0.76709,0.00629492,0.0204649,0.00900984,0.0248418,0.00191806,1.11858,0.0159603,0.0222122,622,1317,-0.0688541,-0.767067
-595,-293,-0.0410156,0.803833,0.0045368,0.0143768,0.00652971,0.0176326,0.00128101,1.10826,0.0113522,0.0126242,629,1317,-0.0410455,-0.803783
-588,-293,-0.0105591,0.813354,0.00255686,0.00867012,0.00379726,0.0104881,0.000738847,1.12428,0.00675928,0.0137774,636,1317,-0.0105522,-0.813414
-581,-293,-0.00457764,0.827271,0.00124286,0.00443638,0.00226138,0.00560792,7.13195e-05,1.0928,0.00371507,0.0170511,643,1317,-0.00458526,-0.827256
-574,-293,-0.0196533,0.866211,0.000457001,0.00113184,0.00114865,0.0019916,-0.000402766,0.928255,0.00148037,0.0152946,650,1317,-0.0196552,-0.866226
-567,-293,-0.0193481,0.895142,0.000467724,-0.000649028,0.000173007,0.000493912,-0.000675217,0.15023,0.000677697,0.0148435,657,1317,-0.0193265,-0.895192
-560,-293,-0.0159912,0.926147,0.0013376,-0.00128183,-0.00153602,0.00204647,-0.00199071,-0.432377,0.00233094,0.0149811,664,1317,-0.0159822,-0.926095
-553,-293,-0.0078125,0.94165,0.00267485,-0.00193109,-0.00337474,0.00445753,-0.00371377,-0.485985,0.00472421,0.0100556,671,1317,-0.00781211,-0.941687
-546,-293,-0.0213623,0.970581,0.00391502,-0.0017964,-0.00435811,0.0062697,-0.00415108,-0.495365,0.00605775,0.00991243,678,1317,-0.0213553,-0.970526
-539,-293,-0.0285034,1.00928,0.00519,-0.000926208,-0.00514822,0.0081199,-0.0038561,-0.517396,0.00705891,0.0171075,685,1317,-0.0285241,-1.00923
-532,-293,-0.184448,0.925537,0.00622515,0.000667502,-0.0055586,0.00966082,-0.00276817,-0.553609,0.00753472,0.0327443,692,1317,-0.184461,-0.925584
-525,-293,-0.292542,0.882324,0.00750548,0.00332844,-0.00615743,0.0119189,-0.00108503,-0.621894,0.00833123,0.0402663,699,1317,-0.292566,-0.882371
-518,-293,-0.355103,0.936768,0.00914157,0.00806719,-0.00680527,0.0154308,0.00177794,-0.746011,0.00974876,0.0434077,706,1317,-0.355131,-0.936744
-511,-293,-0.247192,0.856567,0.0103854,0.0130799,-0.00697145,0.018833,0.00463217,-0.880848,0.0113314,0.0461395,713,1317,-0.247178,-0.856551
-504,-293,-0.446167,0.995605,0.0107369,0.0196521,-0.00640854,0.0230009,0.0073881,-1.08927,0.0135596,0.0439742,720,1317,-0.446164,-0.995628
-497,-293,-0.217041,-0.900513,0,0,0,0,0,0,0,-1,727,1317,-0.217071,0.900503
-490,-293,-0.119568,0.236694,0.00769716,0.0383804,-0.00339147,0.0387508,0.00732676,-1.46201,0.023771,0.0444507,734,1317,-0.119546,-0.236746
-483,-293,-0.549744,0.853882,0.00342723,0.0509736,-0.00111476,0.0509997,0.00340111,-1.54737,0.0329247,0.0442652,741,1317,-0.549722,-0.853926
-476,-293,-0.953308,1.43689,0,0,0,0,0,0,0,-1,748,1317,-0.953311,-1.43687
-469,-293,0,0,0,0,0,0,0,0,0,-1,755,1317,0,0
-462,-293,0,0,0,0,0,0,0,0,0,-1,762,1317,0,0
-455,-293,0,0,0,0,0,0,0,0,0,-1,769,1317,0,0
-448,-293,0,0,0,0,0,0,0,0,0,-1,776,1317,0,0
-441,-293,0,0,0,0,0,0,0,0,0,-1,783,1317,0,0
-434,-293,0,0,0,0,0,0,0,0,0,-1,790,1317,0,0
-427,-293,0,0,0,0,0,0,0,0,0,-1,797,1317,0,0
-420,-293,0,0,0,0,0,0,0,0,0,-1,804,1317,0,0
-413,-293,0,0,0,0,0,0,0,0,0,-1,811,1317,0,0
-406,-293,0,0,0,0,0,0,0,0,0,-1,818,1317,0,0
-399,-293,0,0,0,0,0,0,0,0,0,-1,825,1317,0,0
-392,-293,0,0,0,0,0,0,0,0,0,-1,832,1317,0,0
-385,-293,0,0,0,0,0,0,0,0,0,-1,839,1317,0,0
-378,-293,0,0,0,0,0,0,0,0,0,-1,846,1317,0,0
-371,-293,0,0,0,0,0,0,0,0,0,-1,853,1317,0,0
-364,-293,0,0,0,0,0,0,0,0,0,-1,860,1317,0,0
-357,-293,0,0,0,0,0,0,0,0,0,-1,867,1317,0,0
-350,-293,0,0,0,0,0,0,0,0,0,-1,874,1317,0,0
-343,-293,0,0,0,0,0,0,0,0,0,-1,881,1317,0,0
-336,-293,0,0,0,0,0,0,0,0,0,-1,888,1317,0,0
-329,-293,0,0,0,0,0,0,0,0,0,-1,895,1317,0,0
-322,-293,0,0,0,0,0,0,0,0,0,-1,902,1317,0,0
-315,-293,0,0,0,0,0,0,0,0,0,-1,909,1317,0,0
-308,-293,0,0,0,0,0,0,0,0,0,-1,916,1317,0,0
-301,-293,0,0,0,0,0,0,0,0,0,-1,923,1317,0,0
-294,-293,0,0,0,0,0,0,0,0,0,-1,930,1317,0,0
-287,-293,0,0,0,0,0,0,0,0,0,-1,937,1317,0,0
-280,-293,0,0,0,0,0,0,0,0,0,-1,944,1317,0,0
-273,-293,0,0,0,0,0,0,0,0,0,-1,951,1317,0,0
-266,-293,0,0,0,0,0,0,0,0,0,-1,958,1317,0,0
-259,-293,0,0,0,0,0,0,0,0,0,-1,965,1317,0,0
-252,-293,0,0,0,0,0,0,0,0,0,-1,972,1317,0,0
-245,-293,0,0,0,0,0,0,0,0,0,-1,979,1317,0,0
-238,-293,0,0,0,0,0,0,0,0,0,-1,986,1317,0,0
-231,-293,0,0,0,0,0,0,0,0,0,-1,993,1317,0,0
-224,-293,0,0,0,0,0,0,0,0,0,-1,1000,1317,0,0
-217,-293,0,0,0,0,0,0,0,0,0,-1,1007,1317,0,0
-210,-293,0,0,0,0,0,0,0,0,0,-1,1014,1317,0,0
-203,-293,0,0,0,0,0,0,0,0,0,-1,1021,1317,0,0
-196,-293,0,0,0,0,0,0,0,0,0,-1,1028,1317,0,0
-189,-293,0,0,0,0,0,0,0,0,0,-1,1035,1317,0,0
-182,-293,0,0,0,0,0,0,0,0,0,-1,1042,1317,0,0
-175,-293,0,0,0,0,0,0,0,0,0,-1,1049,1317,0,0
-168,-293,0,0,0,0,0,0,0,0,0,-1,1056,1317,0,0
-161,-293,0,0,0,0,0,0,0,0,0,-1,1063,1317,0,0
-154,-293,0,0,0,0,0,0,0,0,0,-1,1070,1317,0,0
-147,-293,0,0,0,0,0,0,0,0,0,-1,1077,1317,0,0
-140,-293,0,0,0,0,0,0,0,0,0,-1,1084,1317,0,0
-133,-293,0,0,0,0,0,0,0,0,0,-1,1091,1317,0,0
-126,-293,0,0,0,0,0,0,0,0,0,-1,1098,1317,0,0
-119,-293,0,0,0,0,0,0,0,0,0,-1,1105,1317,0,0
-112,-293,0,0,0,0,0,0,0,0,0,-1,1112,1317,0,0
-105,-293,0,0,0,0,0,0,0,0,0,-1,1119,1317,0,0
-98,-293,0,0,0,0,0,0,0,0,0,-1,1126,1317,0,0
-91,-293,0,0,0,0,0,0,0,0,0,-1,1133,1317,0,0
-84,-293,0,0,0,0,0,0,0,0,0,-1,1140,1317,0,0
-77,-293,0,0,0,0,0,0,0,0,0,-1,1147,1317,0,0
-70,-293,0,0,0,0,0,0,0,0,0,-1,1154,1317,0,0
-63,-293,0,0,0,0,0,0,0,0,0,-1,1161,1317,0,0
-56,-293,0,0,0,0,0,0,0,0,0,-1,1168,1317,0,0
-49,-293,0,0,0,0,0,0,0,0,0,-1,1175,1317,0,0
-42,-293,0,0,0,0,0,0,0,0,0,-1,1182,1317,0,0
-35,-293,0,0,0,0,0,0,0,0,0,-1,1189,1317,0,0
-28,-293,0,0,0,0,0,0,0,0,0,-1,1196,1317,0,0
-21,-293,0,0,0,0,0,0,0,0,0,-1,1203,1317,0,0
-14,-293,0,0,0,0,0,0,0,0,0,-1,1210,1317,0,0
-7,-293,0,0,0,0,0,0,0,0,0,-1,1217,1317,0,0
0,-293,0,0,0,0,0,0,0,0,0,-1,1224,1317,0,0
7,-293,0,0,0,0,0,0,0,0,0,-1,1231,1317,0,0
14,-293,0,0,0,0,0,0,0,0,0,-1,1238,1317,0,0
21,-293,0,0,0,0,0,0,0,0,0,-1,1245,1317,0,0
28,-293,0,0,0,0,0,0,0,0,0,-1,1252,1317,0,0
35,-293,0,0,0,0,0,0,0,0,0,-1,1259,1317,0,0
42,-293,0,0,0,0,0,0,0,0,0,-1,1266,1317,0,0
49,-293,0,0,0,0,0,0,0,0,0,-1,1273,1317,0,0
56,-293,0,0,0,0,0,0,0,0,0,-1,1280,1317,0,0
63,-293,0,0,0,0,0,0,0,0,0,-1,1287,1317,0,0
70,-293,0,0,0,0,0,0,0,0,0,-1,1294,1317,0,0
77,-293,0,0,0,0,0,0,0,0,0,-1,1301,1317,0,0
84,-293,0,0,0,0,0,0,0,0,0,-1,1308,1317,0,0
91,-293,0,0,0,0,0,0,0,0,0,-1,1315,1317,0,0
98,-293,0,0,0,0,0,0,0,0,0,-1,1322,1317,0,0
105,-293,0,0,0,0,0,0,0,0,0,-1,1329,1317,0,0
112,-293,0,0,0,0,0,0,0,0,0,-1,1336,1317,0,0
119,-293,0,0,0,0,0,0,0,0,0,-1,1343,1317,0,0
126,-293,0,0,0,0,0,0,0,0,0,-1,1350,1317,0,0
133,-293,0,0,0,0,0,0,0,0,0,-1,1357,1317,0,0
140,-293,0,0,0,0,0,0,0,0,0,-1,1364,1317,0,0
147,-293,0,0,0,0,0,0,0,0,0,-1,1371,1317,0,0
154,-293,0,0,0,0,0,0,0,0,0,-1,1378,1317,0,0
161,-293,0,0,0,0,0,0,0,0,0,-1,1385,1317,0,0
168,-293,0,0,0,0,0,0,0,0,0,-1,1392,1317,0,0
175,-293,0,0,0,0,0,0,0,0,0,-1,1399,1317,0,0
182,-293,0,0,0,0,0,0,0,0,0,-1,1406,1317,0,0
189,-293,0,0,0,0,0,0,0,0,0,-1,1413,1317,0,0
196,-293,0,0,0,0,0,0,0,0,0,-1,1420,1317,0,0
203,-293,0,0,0,0,0,0,0,0,0,-1,1427,1317,0,0
210,-293,0,0,0,0,0,0,0,0,0,-1,1434,1317,0,0
217,-293,0,0,0,0,0,0,0,0,0,-1,1441,1317,0,0
224,-293,0,0,0,0,0,0,0,0,0,-1,1448,1317,0,0
231,-293,0,0,0,0,0,0,0,0,0,-1,1455,1317,0,0
238,-293,0,0,0,0,0,0,0,0,0,-1,1462,1317,0,0
245,-293,0,0,0,0,0,0,0,0,0,-1,1469,1317,0,0
252,-293,0,0,0,0,0,0,0,0,0,-1,1476,1317,0,0
259,-293,0,0,0,0,0,0,0,0,0,-1,1483,1317,0,0
266,-293,0,0,0,0,0,0,0,0,0,-1,1490,1317,0,0
273,-293,0,0,0,0,0,0,0,0,0,-1,1497,1317,0,0
280,-293,0,0,0,0,0,0,0,0,0,-1,1504,1317,0,0
287,-293,0,0,0,0,0,0,0,0,0,-1,1511,1317,0,0
294,-293,0,0,0,0,0,0,0,0,0,-1,1518,1317,0,0
301,-293,0,0,0,0,0,0,0,0,0,-1,1525,1317,0,0
308,-293,0,0,0,0,0,0,0,0,0,-1,1532,1317,0,0
315,-293,0,0,0,0,0,0,0,0,0,-1,1539,1317,0,0
322,-293,0,0,0,0,0,0,0,0,0,-1,1546,1317,0,0
329,-293,0,0,0,0,0,0,0,0,0,-1,1553,1317,0,0
336,-293,0,0,0,0,0,0,0,0,0,-1,1560,1317,0,0
343,-293,0,0,0,0,0,0,0,0,0,-1,1567,1317,0,0
350,-293,0,0,0,0,0,0,0,0,0,-1,1574,1317,0,0
357,-293,0,0,0,0,0,0,0,0,0,-1,1581,1317,0,0
364,-293,0,0,0,0,0,0,0,0,0,-1,1588,1317,0,0
371,-293,0,0,0,0,0,0,0,0,0,-1,1595,1317,0,0
378,-293,0,0,0,0,0,0,0,0,0,-1,1602,1317,0,0
385,-293,0,0,0,0,0,0,0,0,0,-1,1609,1317,0,0
392,-293,0,0,0,0,0,0,0,0,0,-1,1616,1317,0,0
399,-293,0,0,0,0,0,0,0,0,0,-1,1623,1317,0,0
406,-293,0,0,0,0,0,0,0,0,0,-1,1630,1317,0,0
413,-293,0,0,0,0,0,0,0,0,0,-1,1637,1317,0,0
420,-293,0,0,0,0,0,0,0,0,0,-1,1644,1317,0,0
427,-293,0,0,0,0,0,0,0,0,0,-1,1651,1317,0,0
434,-293,0,0,0,0,0,0,0,0,0,-1,1658,1317,0,0
441,-293,0,0,0,0,0,0,0,0,0,-1,1665,1317,0,0
448,-293,0,0,0,0,0,0,0,0,0,-1,1672,1317,0,0
455,-293,0,0,0,0,0,0,0,0,0,-1,1679,1317,0,0
462,-293,0,0,0,0,0,0,0,0,0,-1,1686,1317,0,0
469,-293,0,0,0,0,0,0,0,0,0,-1,1693,1317,0,0
476,-293,0,0,0,0,0,0,0,0,0,-1,1700,1317,0,0
483,-293,0,0,0,0,0,0,0,0,0,-1,1707,1317,0,0
490,-293,0,0,0,0,0,0,0,0,0,-1,1714,1317,0,0
497,-293,0,0,0,0,0,0,0,0,0,-1,1721,1317,0,0
504,-293,0,0,0,0,0,0,0,0,0,-1,1728,1317,0,0
511,-293,0,0,0,0,0,0,0,0,0,-1,1735,1317,0,0
518,-293,0,0,0,0,0,0,0,0,0,-1,1742,1317,0,0
525,-293,0,0,0,0,0,0,0,0,0,-1,1749,1317,0,0
532,-293,0,0,0,0,0,0,0,0,0,-1,1756,1317,0,0
539,-293,0,0,0,0,0,0,0,0,0,-1,1763,1317,0,0
546,-293,0,0,0,0,0,0,0,0,0,-1,1770,1317,0,0
553,-293,0,0,0,0,0,0,0,0,0,-1,1777,1317,0,0
560,-293,0,0,0,0,0,0,0,0,0,-1,1784,1317,0,0
567,-293,0,0,0,0,0,0,0,0,0,-1,1791,1317,0,0
574,-293,0,0,0,0,0,0,0,0,0,-1,1798,1317,0,0
581,-293,0,0,0,0,0,0,0,0,0,-1,1805,1317,0,0
588,-293,0,0,0,0,0,0,0,0,0,-1,1812,1317,0,0
595,-293,3.89014,0.606201,0,0,0,0,0,0,0,-1,1819,1317,3.8902,-0.606159
602,-293,2.46069,0.508789,0,0,0,0,0,0,0,-1,1826,1317,2.46064,-0.508828
609,-293,2.86353,0.616211,0.0383826,-0.0135877,0.0209476,0.0457746,-0.0209797,0.339236,0.0394168,0.0499271,1833,1317,2.86347,-0.616241
616,-293,3.29651,0.596069,0.0367231,-0.0116193,0.0174842,0.0423838,-0.0172801,0.313113,0.0354488,0.0474788,1840,1317,3.29645,-0.596106
623,-293,3.83875,0.529541,0.032816,-0.00942625,0.0145319,0.0373324,-0.0139426,0.301323,0.0306131,0.0467424,1847,1317,3.83876,-0.529514
630,-293,4.32605,0.463745,0.0279871,-0.00756445,0.0121492,0.0317423,-0.0113196,0.299772,0.0257769,0.0428061,1854,1317,4.32606,-0.463699
637,-293,4.58521,0.624146,0,0,0,0,0,0,0,-1,1861,1317,4.58518,-0.624154
644,-293,3.73718,0.514038,0,0,0,0,0,0,0,-1,1868,1317,3.73718,-0.514034
651,-293,3.77954,0.521973,0.013993,-0.00345392,0.0070066,0.0164585,-0.00591934,0.338341,0.0133889,0.0427221,1875,1317,3.77954,-0.521995
658,-293,3.70508,0.747681,0.01057,-0.00244878,0.00569203,0.0127076,-0.00458643,0.359255,0.0103452,0.0397001,1882,1317,3.70505,-0.747674
665,-293,3.68188,0.977905,0.00737763,-0.00156842,0.00423042,0.00906126,-0.00325205,0.378766,0.0073681,0.0307698,1889,1317,3.68184,-0.977847
672,-293,3.66003,0.950806,0.0043839,-0.000932504,0.00355442,0.00616416,-0.00271276,0.464333,0.00525263,0.0146777,1896,1317,3.65998,-0.950862
679,-293,3.65552,0.900757,0.00139492,-0.000358878,0.00269652,0.00335354,-0.00231749,0.628193,0.00329234,0.0111338,1903,1317,3.65555,-0.900697
686,-293,3.66077,0.884766,5.45e-06,-0.000527053,0.00180338,0.00156213,-0.00208373,0.712107,0.0021121,0.0136529,1910,1317,3.66079,-0.884818
693,-293,3.67786,0.859985,0.000194384,-3.85218e-05,0.0013904,0.0014732,-0.00131734,0.743618,0.00161195,0.0114074,1917,1317,3.67781,-0.859966
700,-293,3.65051,0.817627,0.000129615,-2.35585e-05,0.000406833,0.000467007,-0.00036095,0.692361,0.000479327,0.0106627,1924,1317,3.65048,-0.817581
707,-293,3.63538,0.807007,0.000756459,0.000296453,0.000180415,0.000818775,0.000234136,0.332579,0.000486944,0.0109081,1931,1317,3.63543,-0.807046
714,-293,3.63708,0.808105,0.00184944,0.00203787,0.000225711,0.00218824,0.00169907,0.983104,0.00132619,0.00777905,1938,1317,3.63711,-0.808099
721,-293,3.65161,0.769531,0.00337063,0.00310379,0.000394949,0.00365409,0.00282033,0.622504,0.00221117,0.00954238,1945,1317,3.65163,-0.769515
728,-293,3.63818,0.72229,0.00542366,0.00462257,0.000841901,0.00595544,0.00409079,0.563364,0.00351754,0.0120711,1952,1317,3.6382,-0.722301
735,-293,3.62048,0.709839,0.0078622,0.00689974,0.00174237,0.00918858,0.00557337,0.650662,0.00534503,0.0146325,1959,1317,3.62042,-0.709809
742,-293,3.62769,0.65332,0.0110363,0.0100867,0.0033004,0.0138959,0.00722715,0.713956,0.00802497,0.0244101,1966,1317,3.62767,-0.653368
749,-293,3.76099,0.480225,0.0151208,0.0142735,0.00567927,0.0203922,0.00900208,0.748168,0.0118003,0.0380274,1973,1317,3.76103,-0.480248
756,-293,3.93909,0.309814,0,0,0,0,0,0,0,-1,1980,1317,3.93906,-0.309765
763,-293,4.28796,1.30786,0,0,0,0,0,0,0,-1,1987,1317,4.288,-1.30786
770,-293,4.1106,1.19946,0,0,0,0,0,0,0,-1,1994,1317,4.11064,-1.1995
777,-293,0,0,0,0,0,0,0,0,0,-1,2001,1317,0,0
784,-293,0,0,0,0,0,0,0,0,0,-1,2008,1317,0,0
791,-293,0,0,0,0,0,0,0,0,0,-1,2015,1317,0,0
798,-293,0,0,0,0,0,0,0,0,0,-1,2022,1317,0,0
805,-293,0,0,0,0,0,0,0,0,0,-1,2029,1317,0,0
812,-293,0,0,0,0,0,0,0,0,0,-1,2036,1317,0,0
-700,-300,0,0,0,0,0,0,0,0,0,-1,524,1324,0,0
-693,-300,0,0,0,0,0,0,0,0,0,-1,531,1324,0,0
-686,-300,0,0,0,0,0,0,0,0,0,-1,538,1324,0,0
-679,-300,0,0,0,0,0,0,0,0,0,-1,545,1324,0,0
-672,-300,0,0,0,0,0,0,0,0,0,-1,552,1324,0,0
-665,-300,0,0,0,0,0,0,0,0,0,-1,559,1324,0,0
-658,-300,0,0,0,0,0,0,0,0,0,-1,566,1324,0,0
-651,-300,-0.644531,-1.8291,0,0,0,0,0,0,0,-1,573,1324,-0.644545,1.82915
-644,-300,-0.348572,-1.9082,0.0348836,0.0672496,0.036542,0.0910317,0.0111015,0.993849,0.0573466,0.0469339,580,1324,-0.348546,1.90817
-637,-300,-0.0977783,-1.95557,0.0281154,0.0602309,0.0305767,0.07871,0.00963642,1.02719,0.0495743,0.0431476,587,1324,-0.0977677,1.95558
-630,-300,-0.0418091,-1.46143,0.0225099,0.0520544,0.025214,0.0665048,0.00805949,1.05038,0.0419092,0.0431356,594,1324,-0.041819,1.4614
-623,-300,-0.0296631,-1.01807,0,0,0,0,0,0,0,-1,601,1324,-0.0296576,1.01808
-616,-300,0.30304,-0.269043,0,0,0,0,0,0,0,-1,608,1324,0.303062,0.269024
-609,-300,0.640015,0.479858,0,0,0,0,0,0,0,-1,615,1324,0.639987,-0.47983
-602,-300,-0.0309448,0.759644,0.00795763,0.0217178,0.00958128,0.0266333,0.0030421,1.09678,0.0168334,0.027812,622,1324,-0.0309367,-0.759642
-595,-300,-0.0213013,0.786011,0.00584778,0.0155059,0.00697914,0.0191638,0.0021899,1.08804,0.0121121,0.0150738,629,1324,-0.021281,-0.785992
-588,-300,0.00915527,0.815063,0.00349238,0.00968708,0.00401113,0.0116575,0.00152192,1.11417,0.00731734,0.0195331,636,1324,0.00915675,-0.815094
-581,-300,0.00140381,0.841187,0.0019145,0.0055482,0.00237941,0.0067251,0.000737601,1.11146,0.00425888,0.0198059,643,1324,0.00139088,-0.841213
-574,-300,-0.00177002,0.872681,0.000987379,0.00216125,0.00129578,0.00299683,0.000151805,0.998055,0.00194925,0.0154626,650,1324,-0.00175058,-0.872647
-567,-300,0.0223999,0.921875,0.000740727,0.000391294,0.000426083,0.00102652,0.000105497,0.590827,0.000652035,0.015563,657,1324,0.0224161,-0.921834
-560,-300,0.0305176,0.940308,0.00137752,-0.000250025,-0.00119961,0.00201333,-0.000885836,-0.48737,0.00171551,0.0145314,664,1324,0.0304934,-0.940285
-553,-300,0.0314331,0.951782,0.00256522,-0.000967171,-0.00294813,0.00423573,-0.00263768,-0.515524,0.00400396,0.0100398,671,1324,0.0314576,-0.951806
-546,-300,0.0223389,0.977783,0.00386676,-0.00103639,-0.00402186,0.00612534,-0.00329497,-0.511687,0.00552004,0.00863075,678,1324,0.0223593,-0.97775
-539,-300,0.00836182,1.00403,0.00526591,-0.000312113,-0.00498145,0.00818597,-0.00323217,-0.5302,0.00679593,0.0107089,685,1324,0.0083905,-1.00408
-532,-300,-0.0175171,0.927734,0.00641627,0.00106189,-0.00549379,0.00985047,-0.00237231,-0.558675,0.00748414,0.0215309,692,1324,-0.0175403,-0.927682
-525,-300,-0.177429,1.00366,0.00803903,0.00345391,-0.00622283,0.0123782,-0.000885234,-0.608907,0.00856246,0.0389244,699,1324,-0.177433,-1.00369
-518,-300,-0.353577,1.07751,0.0104589,0.00818666,-0.00725584,0.0166671,0.00197855,-0.707737,0.0105141,0.0429077,706,1324,-0.353606,-1.0775
-511,-300,-0.243164,0.962646,0.0125694,0.0129779,-0.00787082,0.0206471,0.00490017,-0.798372,0.0124569,0.0452278,713,1324,-0.243186,-0.962638
-504,-300,-0.0559082,0.774902,0.0140623,0.0192527,-0.00782518,0.0249018,0.0084132,-0.945514,0.0146269,0.043889,720,1324,-0.0559242,-0.77488
-497,-300,0.606628,0.455933,0,0,0,0,0,0,0,-1,727,1324,0.606601,-0.455925
-490,-300,0.161804,0.264526,0,0,0,0,0,0,0,-1,734,1324,0.161805,-0.264498
-483,-300,-0.329041,0.983398,0.0130171,0.0503905,-0.00512847,0.0510814,0.0123262,-1.43687,0.0307796,0.0424994,741,1324,-0.329028,-0.983382
-476,-300,-0.526245,1.37073,0.00944893,0.0653737,-0.00379939,0.0656307,0.00919199,-1.50327,0.0410344,0.0431772,748,1324,-0.52622,-1.37072
-469,-300,0,0,0,0,0,0,0,0,0,-1,755,1324,0,0
-462,-300,0,0,0,0,0,0,0,0,0,-1,762,1324,0,0
-455,-300,0,0,0,0,0,0,0,0,0,-1,769,1324,0,0
-448,-300,0,0,0,0,0,0,0,0,0,-1,776,1324,0,0
-441,-300,0,0,0,0,0,0,0,0,0,-1,783,1324,0,0
-434,-300,0,0,0,0,0,0,0,0,0,-1,790,1324,0,0
-427,-300,0,0,0,0,0,0,0,0,0,-1,797,1324,0,0
-420,-300,0,0,0,0,0,0,0,0,0,-1,804,1324,0,0
-413,-300,0,0,0,0,0,0,0,0,0,-1,811,1324,0,0
-406,-300,0,0,0,0,0,0,0,0,0,-1,818,1324,0,0
-399,-300,0,0,0,0,0,0,0,0,0,-1,825,1324,0,0
-392,-300,0,0,0,0,0,0,0,0,0,-1,832,1324,0,0
-385,-300,0,0,0,0,0,0,0,0,0,-1,839,1324,0,0
-378,-300,0,0,0,0,0,0,0,0,0,-1,846,1324,0,0
-371,-300,0,0,0,0,0,0,0,0,0,-1,853,1324,0,0
-364,-300,0,0,0,0,0,0,0,0,0,-1,860,1324,0,0
-357,-300,0,0,0,0,0,0,0,0,0,-1,867,1324,0,0
-350,-300,0,0,0,0,0,0,0,0,0,-1,874,1324,0,0
-343,-300,0,0,0,0,0,0,0,0,0,-1,881,1324,0,0
-336,-300,0,0,0,0,0,0,0,0,0,-1,888,1324,0,0
-329,-300,0,0,0,0,0,0,0,0,0,-1,895,1324,0,0
-322,-300,0,0,0,0,0,0,0,0,0,-1,902,1324,0,0
-315,-300,0,0,0,0,0,0,0,0,0,-1,909,1324,0,0
-308,-300,0,0,0,0,0,0,0,0,0,-1,916,1324,0,0
-301,-300,0,0,0,0,0,0,0,0,0,-1,923,1324,0,0
-294,-300,0,0,0,0,0,0,0,0,0,-1,930,1324,0,0
-287,-300,0,0,0,0,0,0,0,0,0,-1,937,1324,0,0
-280,-300,0,0,0,0,0,0,0,0,0,-1,944,1324,0,0
-273,-300,0,0,0,0,0,0,0,0,0,-1,951,1324,0,0
-266,-300,0,0,0,0,0,0,0,0,0,-1,958,1324,0,0
-259,-300,0,0,0,0,0,0,0,0,0,-1,965,1324,0,0
-252,-300,0,0,0,0,0,0,0,0,0,-1,972,1324,0,0
-245,-300,0,0,0,0,0,0,0,0,0,-1,979,1324,0,0
-238,-300,0,0,0,0,0,0,0,0,0,-1,986,1324,0,0
-231,-300,0,0,0,0,0,0,0,0,0,-1,993,1324,0,0
-224,-300,0,0,0,0,0,0,0,0,0,-1,1000,1324,0,0
-217,-300,0,0,0,0,0,0,0,0,0,-1,1007,1324,0,0
-210,-300,0,0,0,0,0,0,0,0,0,-1,1014,1324,0,0
-203,-300,0,0,0,0,0,0,0,0,0,-1,1021,1324,0,0
-196,-300,0,0,0,0,0,0,0,0,0,-1,1028,1324,0,0
-189,-300,0,0,0,0,0,0,0,0,0,-1,1035,1324,0,0
-182,-300,0,0,0,0,0,0,0,0,0,-1,1042,1324,0,0
-175,-300,0,0,0,0,0,0,0,0,0,-1,1049,1324,0,0
-168,-300,0,0,0,0,0,0,0,0,0,-1,1056,1324,0,0
-161,-300,0,0,0,0,0,0,0,0,0,-1,1063,1324,0,0
-154,-300,0,0,0,0,0,0,0,0,0,-1,1070,1324,0,0
-147,-300,0,0,0,0,0,0,0,0,0,-1,1077,1324,0,0
-140,-300,0,0,0,0,0,0,0,0,0,-1,1084,1324,0,0
-133,-300,0,0,0,0,0,0,0,0,0,-1,1091,1324,0,0
-126,-300,0,0,0,0,0,0,0,0,0,-1,1098,1324,0,0
-119,-300,0,0,0,0,0,0,0,0,0,-1,1105,1324,0,0
-112,-300,0,0,0,0,0,0,0,0,0,-1,1112,1324,0,0
-105,-300,0,0,0,0,0,0,0,0,0,-1,1119,1324,0,0
-98,-300,0,0,0,0,0,0,0,0,0,-1,1126,1324,0,0
-91,-300,0,0,0,0,0,0,0,0,0,-1,1133,1324,0,0
-84,-300,0,0,0,0,0,0,0,0,0,-1,1140,1324,0,0
-77,-300,0,0,0,0,0,0,0,0,0,-1,1147,1324,0,0
-70,-300,0,0,0,0,0,0,0,0,0,-1,1154,1324,0,0
-63,-300,0,0,0,0,0,0,0,0,0,-1,1161,1324,0,0
-56,-300,0,0,0,0,0,0,0,0,0,-1,1168,1324,0,0
-49,-300,0,0,0,0,0,0,0,0,0,-1,1175,1324,0,0
-42,-300,0,0,0,0,0,0,0,0,0,-1,1182,1324,0,0
-35,-300,0,0,0,0,0,0,0,0,0,-1,1189,1324,0,0
-28,-300,0,0,0,0,0,0,0,0,0,-1,1196,1324,0,0
-21,-300,0,0,0,0,0,0,0,0,0,-1,1203,1324,0,0
-14,-300,0,0,0,0,0,0,0,0,0,-1,1210,1324,0,0
-7,-300,0,0,0,0,0,0,0,0,0,-1,1217,1324,0,0
0,-300,0,0,0,0,0,0,0,0,0,-1,1224,1324,0,0
7,-300,0,0,0,0,0,0,0,0,0,-1,1231,1324,0,0
14,-300,0,0,0,0,0,0,0,0,0,-1,1238,1324,0,0
21,-300,0,0,0,0,0,0,0,0,0,-1,1245,1324,0,0
28,-300,0,0,0,0,0,0,0,0,0,-1,1252,1324,0,0
35,-300,0,0,0,0,0,0,0,0,0,-1,1259,1324,0,0
42,-300,0,0,0,0,0,0,0,0,0,-1,1266,1324,0,0
49,-300,0,0,0,0,0,0,0,0,0,-1,1273,1324,0,0
56,-300,0,0,0,0,0,0,0,0,0,-1,1280,1324,0,0
63,-300,0,0,0,0,0,0,0,0,0,-1,1287,1324,0,0
70,-300,0,0,0,0,0,0,0,0,0,-1,1294,1324,0,0
77,-300,0,0,0,0,0,0,0,0,0,-1,1301,1324,0,0
84,-300,0,0,0,0,0,0,0,0,0,-1,1308,1324,0,0
91,-300,0,0,0,0,0,0,0,0,0,-1,1315,1324,0,0
98,-300,0,0,0,0,0,0,0,0,0,-1,1322,1324,0,0
105,-300,0,0,0,0,0,0,0,0,0,-1,1329,1324,0,0
112,-300,0,0,0,0,0,0,0,0,0,-1,1336,1324,0,0
119,-300,0,0,0,0,0,0,0,0,0,-1,1343,1324,0,0
126,-300,0,0,0,0,0,0,0,0,0,-1,1350,1324,0,0
133,-300,0,0,0,0,0,0,0,0,0,-1,1357,1324,0,0
140,-300,0,0,0,0,0,0,0,0,0,-1,1364,1324,0,0
147,-300,0,0,0,0,0,0,0,0,0,-1,1371,1324,0,0
154,-300,0,0,0,0,0,0,0,0,0,-1,1378,1324,0,0
161,-300,0,0,0,0,0,0,0,0,0,-1,1385,1324,0,0
168,-300,0,0,0,0,0,0,0,0,0,-1,1392,1324,0,0
175,-300,0,0,0,0,0,0,0,0,0,-1,1399,1324,0,0
182,-300,0,0,0,0,0,0,0,0,0,-1,1406,1324,0,0
189,-300,0,0,0,0,0,0,0,0,0,-1,1413,1324,0,0
196,-300,0,0,0,0,0,0,0,0,0,-1,1420,1324,0,0
203,-300,0,0,0,0,0,0,0,0,0,-1,1427,1324,0,0
210,-300,0,0,0,0,0,0,0,0,0,-1,1434,1324,0,0
217,-300,0,0,0,0,0,0,0,0,0,-1,1441,1324,0,0
224,-300,0,0,0,0,0,0,0,0,0,-1,1448,1324,0,0
231,-300,0,0,0,0,0,0,0,0,0,-1,1455,1324,0,0
238,-300,0,0,0,0,0,0,0,0,0,-1,1462,1324,0,0
245,-300,0,0,0,0,0,0,0,0,0,-1,1469,1324,0,0
252,-300,0,0,0,0,0,0,0,0,0,-1,1476,1324,0,0
259,-300,0,0,0,0,0,0,0,0,0,-1,1483,1324,0,0
266,-300,0,0,0,0,0,0,0,0,0,-1,1490,1324,0,0
273,-300,0,0,0,0,0,0,0,0,0,-1,1497,1324,0,0
280,-300,0,0,0,0,0,0,0,0,0,-1,1504,1324,0,0
287,-300,0,0,0,0,0,0,0,0,0,-1,1511,1324,0,0
294,-300,0,0,0,0,0,0,0,0,0,-1,1518,1324,0,0
301,-300,0,0,0,0,0,0,0,0,0,-1,1525,1324,0,0
308,-300,0,0,0,0,0,0,0,0,0,-1,1532,1324,0,0
315,-300,0,0,0,0,0,0,0,0,0,-1,1539,1324,0,0
322,-300,0,0,0,0,0,0,0,0,0,-1,1546,1324,0,0
329,-300,0,0,0,0,0,0,0,0,0,-1,1553,1324,0,0
336,-300,0,0,0,0,0,0,0,0,0,-1,1560,1324,0,0
343,-300,0,0,0,0,0,0,0,0,0,-1,1567,1324,0,0
350,-300,0,0,0,0,0,0,0,0,0,-1,1574,1324,0,0
357,-300,0,0,0,0,0,0,0,0,0,-1,1581,1324,0,0
364,-300,0,0,0,0,0,0,0,0,0,-1,1588,1324,0,0
371,-300,0,0,0,0,0,0,0,0,0,-1,1595,1324,0,0
378,-300,0,0,0,0,0,0,0,0,0,-1,1602,1324,0,0
385,-300,0,0,0,0,0,0,0,0,0,-1,1609,1324,0,0
392,-300,0,0,0,0,0,0,0,0,0,-1,1616,1324,0,0
399,-300,0,0,0,0,0,0,0,0,0,-1,1623,1324,0,0
406,-300,0,0,0,0,0,0,0,0,0,-1,1630,1324,0,0
413,-300,0,0,0,0,0,0,0,0,0,-1,1637,1324,0,0
420,-300,0,0,0,0,0,0,0,0,0,-1,1644,1324,0,0
427,-300,0,0,0,0,0,0,0,0,0,-1,1651,1324,0,0
434,-300,0,0,0,0,0,0,0,0,0,-1,1658,1324,0,0
441,-300,0,0,0,0,0,0,0,0,0,-1,1665,1324,0,0
448,-300,0,0,0,0,0,0,0,0,0,-1,1672,1324,0,0
455,-300,0,0,0,0,0,0,0,0,0,-1,1679,1324,0,0
462,-300,0,0,0,0,0,0,0,0,0,-1,1686,1324,0,0
469,-300,0,0,0,0,0,0,0,0,0,-1,1693,1324,0,0
476,-300,0,0,0,0,0,0,0,0,0,-1,1700,1324,0,0
483,-300,0,0,0,0,0,0,0,0,0,-1,1707,1324,0,0
490,-300,0,0,0,0,0,0,0,0,0,-1,1714,1324,0,0
497,-300,0,0,0,0,0,0,0,0,0,-1,1721,1324,0,0
504,-300,0,0,0,0,0,0,0,0,0,-1,1728,1324,0,0
511,-300,0,0,0,0,0,0,0,0,0,-1,1735,1324,0,0
518,-300,0,0,0,0,0,0,0,0,0,-1,1742,1324,0,0
525,-300,0,0,0,0,0,0,0,0,0,-1,1749,1324,0,0
532,-300,0,0,0,0,0,0,0,0,0,-1,1756,1324,0,0
539,-300,0,0,0,0,0,0,0,0,0,-1,1763,1324,0,0
546,-300,0,0,0,0,0,0,0,0,0,-1,1770,1324,0,0
553,-300,0,0,0,0,0,0,0,0,0,-1,1777,1324,0,0
560,-300,0,0,0,0,0,0,0,0,0,-1,1784,1324,0,0
567,-300,0,0,0,0,0,0,0,0,0,-1,1791,1324,0,0
574,-300,0,0,0,0,0,0,0,0,0,-1,1798,1324,0,0
581,-300,0,0,0,0,0,0,0,0,0,-1,1805,1324,0,0
588,-300,3.73755,0.423584,0,0,0,0,0,0,0,-1,1812,1324,3.73753,-0.423579
595,-300,2.10693,-0.669067,0,0,0,0,0,0,0,-1,1819,1324,2.10699,0.669023
602,-300,2.60413,-0.12915,0,0,0,0,0,0,0,-1,1826,1324,2.60418,0.129192
609,-300,2.74292,0.907593,0,0,0,0,0,0,0,-1,1833,1324,2.74296,-0.907618
616,-300,3.19568,0.87146,0.0386032,-0.0115093,0.0173326,0.0440139,-0.01692,0.302582,0.0363209,0.0473604,1840,1324,3.19569,-0.871444
623,-300,3.71948,1.03052,0.0355117,-0.0100186,0.01504,0.0400312,-0.0145381,0.291916,0.0326315,0.0476373,1847,1324,3.71947,-1.03046
630,-300,4.84265,0.970215,0.030802,-0.0085527,0.0128284,0.0346143,-0.012365,0.288868,0.0281192,0.0430502,1854,1324,4.8426,-0.970159
637,-300,5.1062,1.19812,0.0256253,-0.00719819,0.0108057,0.0288631,-0.0104361,0.291133,0.0235061,0.0468961,1861,1324,5.10621,-1.19814
644,-300,5.35596,1.43079,0,0,0,0,0,0,0,-1,1868,1324,5.35593,-1.43073
651,-300,3.31592,0.585083,0.0157737,-0.00478443,0.00730328,0.0181041,-0.00711477,0.308869,0.0150138,0.0447283,1875,1324,3.31595,-0.585077
658,-300,3.50354,0.847778,0.0120239,-0.00369717,0.00585925,0.0139674,-0.00564066,0.320276,0.011656,0.0388096,1882,1324,3.5035,-0.847757
665,-300,3.61914,0.975952,0.00843658,-0.00277824,0.00421727,0.00984546,-0.00418712,0.322418,0.00831837,0.023884,1889,1324,3.6191,-0.975943
672,-300,3.60889,0.958496,0.00511481,-0.00199258,0.00347557,0.00653186,-0.00340963,0.387142,0.00583331,0.0104374,1896,1324,3.60883,-0.958533
679,-300,3.61609,0.921753,0.00182409,-0.00117917,0.00251361,0.00325046,-0.00260553,0.516146,0.00338778,0.0107246,1903,1324,3.61606,-0.921796
686,-300,3.62659,0.887817,0.000178041,-0.00118381,0.00151554,0.0011586,-0.00216437,0.574265,0.00194759,0.0114178,1910,1324,3.62654,-0.887867
693,-300,3.62646,0.851563,0.00022545,-0.000420299,0.0010232,0.000975508,-0.00117036,0.632566,0.00124062,0.0105624,1917,1324,3.6265,-0.851572
700,-300,3.61621,0.81543,0.0002673,-0.000211442,-8.30768e-06,0.000267444,-0.000211586,-0.0173462,0.000277194,0.012283,1924,1324,3.61615,-0.815446
707,-300,3.61182,0.812622,0.000924595,0.000299986,-0.000285856,0.00103567,0.000188914,-0.370606,0.000636883,0.00865687,1931,1324,3.61177,-0.812625
714,-300,3.62439,0.800049,0.00190339,0.00242901,-0.000271438,0.00254402,0.00178838,-1.17003,0.00150859,0.00991922,1938,1324,3.6244,-0.800024
721,-300,3.63062,0.76709,0.00322405,0.0039617,-0.000264795,0.00404691,0.00313884,-1.25946,0.00245196,0.0119845,1945,1324,3.63061,-0.767147
728,-300,3.62903,0.726318,0.00496431,0.00609068,3.39095e-05,0.0060917,0.00496329,1.54073,0.00374214,0.00970113,1952,1324,3.62906,-0.726361
735,-300,3.58923,0.717163,0.00707562,0.00932005,0.000756391,0.00955116,0.00684451,1.27426,0.00568425,0.0134195,1959,1324,3.58921,-0.717165
742,-300,3.58777,0.694092,0.00980341,0.013836,0.00213616,0.0147572,0.00888225,1.16367,0.00857883,0.0283722,1966,1324,3.58779,-0.694101
749,-300,3.70007,0.464111,0,0,0,0,0,0,0,-1,1973,1324,3.70004,-0.464107
756,-300,4.54736,-0.829224,0.0176129,0.0282123,0.0080161,0.0325222,0.013303,1.07748,0.01888,0.0464115,1980,1324,4.54741,0.829214
763,-300,4.30493,1.54456,0.0229645,0.0389377,0.0134071,0.0465567,0.0153455,1.05402,0.0273949,0.0450523,1987,1324,4.30493,-1.54456
770,-300,4.10596,1.53345,0,0,0,0,0,0,0,-1,1994,1324,4.10596,-1.53349
777,-300,0,0,0,0,0,0,0,0,0,-1,2001,1324,0,0
784,-300,0,0,0,0,0,0,0,0,0,-1,2008,1324,0,0
791,-300,0,0,0,0,0,0,0,0,0,-1,2015,1324,0,0
798,-300,0,0,0,0,0,0,0,0,0,-1,2022,1324,0,0
805,-300,0,0,0,0,0,0,0,0,0,-1,2029,1324,0,0
812,-300,0,0,0,0,0,0,0,0,0,-1,2036,1324,0,0
-700,-307,0,0,0,0,0,0,0,0,0,-1,524,1331,0,0
-693,-307,0,0,0,0,0,0,0,0,0,-1,531,1331,0,0
-686,-307,0,0,0,0,0,0,0,0,0,-1,538,1331,0,0
-679,-307,0,0,0,0,0,0,0,0,0,-1,545,1331,0,0
-672,-307,0,0,0,0,0,0,0,0,0,-1,552,1331,0,0
-665,-307,0,0,0,0,0,0,0,0,0,-1,559,1331,0,0
-658,-307,0,0,0,0,0,0,0,0,0,-1,566,1331,0,0
-651,-307,-1.05945,-2.78857,0,0,0,0,0,0,0,-1,573,1331,-1.05942,2.78858
-644,-307,-0.957458,-2.65686,0.0421031,0.0705861,0.0396346,0.0984601,0.0142291,0.957875,0.0614487,0.0445872,580,1331,-0.957452,2.65687
-637,-307,-0.977356,-2.23865,0.0341217,0.0631778,0.0326838,0.084417,0.0128825,0.994535,0.0525132,0.0440709,587,1331,-0.977339,2.23868
-630,-307,-0.640991,-1.60229,0.0276446,0.0546658,0.0266583,0.0710417,0.0112687,1.01994,0.0440876,0.045431,594,1331,-0.640981,1.6023
-623,-307,0.327026,-0.668823,0,0,0,0,0,0,0,-1,601,1331,0.32702,0.668814
-616,-307,0.356323,0.157959,0.0176351,0.0375401,0.0169385,0.0472336,0.00794165,1.05101,0.029204,0.0454352,608,1331,0.356339,-0.157906
-609,-307,0.139954,0.696655,0.013831,0.0297407,0.0131018,0.0371135,0.00645825,1.05823,0.0228952,0.0421216,615,1331,0.139942,-0.696689
-602,-307,-0.00512695,0.672119,0.010632,0.0232312,0.0100254,0.028772,0.00509125,1.0659,0.0177296,0.0297765,622,1331,-0.00512675,-0.672063
-595,-307,0.0193481,0.756958,0.00804297,0.0168963,0.00739048,0.0210844,0.00385484,1.05523,0.0129638,0.0127325,629,1331,0.0193368,-0.75696
-588,-307,0.0360107,0.813843,0.00522426,0.0109896,0.00428361,0.0132702,0.00294369,1.08157,0.00804708,0.0171395,636,1331,0.0359842,-0.813828
-581,-307,0.0360107,0.831177,0.00325126,0.00689654,0.0025963,0.00824609,0.00190172,1.09144,0.00498588,0.0155322,643,1331,0.0360296,-0.831234
-574,-307,0.0427246,0.851685,0.00200489,0.00341684,0.00155514,0.00441875,0.00100299,0.99847,0.00267493,0.0125534,650,1331,0.0426962,-0.851704
-567,-307,0.0394287,0.901855,0.00125254,0.00154058,0.000770376,0.00218028,0.000612838,0.877805,0.00129838,0.0121854,657,1331,0.0394556,-0.901905
-560,-307,0.0413818,0.932495,0.00145498,0.00083201,-0.000769405,0.00197356,0.000313432,-0.593062,0.00122467,0.0136638,664,1331,0.041395,-0.932522
-553,-307,0.0493774,0.942871,0.00232954,2.83149e-05,-0.00243166,0.00386907,-0.00151122,-0.564417,0.0032042,0.0105503,671,1331,0.0493838,-0.942901
-546,-307,0.0523682,0.966675,0.00355182,-0.000208399,-0.00357542,0.00571132,-0.0023679,-0.543344,0.00479583,0.0100641,678,1331,0.0523735,-0.966687
-539,-307,0.0526123,1.00208,0.0048867,0.000323354,-0.00461734,0.00775535,-0.0025453,-0.555919,0.00619547,0.0113009,685,1331,0.052605,-1.00205
-532,-307,0.06604,1.00586,0.00604001,0.00134677,-0.00516174,0.00936351,-0.00197673,-0.572055,0.00699498,0.017895,692,1331,0.0660308,-1.00584
-525,-307,0.0198364,1.04089,0.00783506,0.00342529,-0.00597456,0.0119986,-0.000738249,-0.608628,0.00825616,0.0378351,699,1331,0.0198154,-1.04088
-518,-307,-0.23999,1.15564,0.0107236,0.00806725,-0.00726233,0.0167782,0.00201262,-0.694956,0.0105786,0.0436061,706,1331,-0.239986,-1.1557
-511,-307,-0.295044,0.969482,0.0134467,0.0125303,-0.00822653,0.0212277,0.00474917,-0.757578,0.0128644,0.038775,713,1331,-0.295025,-0.969478
-504,-307,-0.111511,0.631714,0.0157347,0.0183516,-0.00858316,0.0257255,0.00836081,-0.861039,0.0151528,0.0395451,720,1331,-0.111517,-0.63172
-497,-307,0.958862,-0.451782,0,0,0,0,0,0,0,-1,727,1331,0.958881,0.451765
-490,-307,-0.318359,0.377563,0,0,0,0,0,0,0,-1,734,1331,-0.31833,-0.377529
-483,-307,-0.545105,0.993164,0.0190253,0.0485162,-0.00822832,0.0506567,0.0168849,-1.3163,0.0297834,0.0419635,741,1331,-0.545134,-0.993145
-476,-307,-0.643677,1.56689,0.0177823,0.063437,-0.00801815,0.0648043,0.0164151,-1.4019,0.0389032,0.0429817,748,1331,-0.643699,-1.56684
-469,-307,-0.583069,1.87622,0.0139086,0.0804375,-0.00761236,0.0812974,0.0130487,-1.45831,0.0504148,0.0439805,755,1331,-0.583083,-1.87616
-462,-307,0,0,0,0,0,0,0,0,0,-1,762,1331,0,0
-455,-307,0,0,0,0,0,0,0,0,0,-1,769,1331,0,0
-448,-307,0,0,0,0,0,0,0,0,0,-1,776,1331,0,0
-441,-307,0,0,0,0,0,0,0,0,0,-1,783,1331,0,0
-434,-307,0,0,0,0,0,0,0,0,0,-1,790,1331,0,0
-427,-307,0,0,0,0,0,0,0,0,0,-1,797,1331,0,0
-420,-307,0,0,0,0,0,0,0,0,0,-1,804,1331,0,0
-413,-307,0,0,0,0,0,0,0,0,0,-1,811,1331,0,0
-406,-307,0,0,0,0,0,0,0,0,0,-1,818,1331,0,0
-399,-307,0,0,0,0,0,0,0,0,0,-1,825,1331,0,0
-392,-307,0,0,0,0,0,0,0,0,0,-1,832,1331,0,0
-385,-307,0,0,0,0,0,0,0,0,0,-1,839,1331,0,0
-378,-307,0,0,0,0,0,0,0,0,0,-1,846,1331,0,0
-371,-307,0,0,0,0,0,0,0,0,0,-1,853,1331,0,0
-364,-307,0,0,0,0,0,0,0,0,0,-1,860,1331,0,0
-357,-307,0,0,0,0,0,0,0,0,0,-1,867,1331,0,0
-350,-307,0,0,0,0,0,0,0,0,0,-1,874,1331,0,0
-343,-307,0,0,0,0,0,0,0,0,0,-1,881,1331,0,0
-336,-307,0,0,0,0,0,0,0,0,0,-1,888,1331,0,0
-329,-307,0,0,0,0,0,0,0,0,0,-1,895,1331,0,0
-322,-307,0,0,0,0,0,0,0,0,0,-1,902,1331,0,0
-315,-307,0,0,0,0,0,0,0,0,0,-1,909,1331,0,0
-308,-307,0,0,0,0,0,0,0,0,0,-1,916,1331,0,0
-301,-307,0,0,0,0,0,0,0,0,0,-1,923,1331,0,0
-294,-307,0,0,0,0,0,0,0,0,0,-1,930,1331,0,0
-287,-307,0,0,0,0,0,0,0,0,0,-1,937,1331,0,0
-280,-307,0,0,0,0,0,0,0,0,0,-1,944,1331,0,0
-273,-307,0,0,0,0,0,0,0,0,0,-1,951,1331,0,0
-266,-307,0,0,0,0,0,0,0,0,0,-1,958,1331,0,0
-259,-307,0,0,0,0,0,0,0,0,0,-1,965,1331,0,0
-252,-307,0,0,0,0,0,0,0,0,0,-1,972,1331,0,0
-245,-307,0,0,0,0,0,0,0,0,0,-1,979,1331,0,0
-238,-307,0,0,0,0,0,0,0,0,0,-1,986,1331,0,0
-231,-307,0,0,0,0,0,0,0,0,0,-1,993,1331,0,0
-224,-307,0,0,0,0,0,0,0,0,0,-1,1000,1331,0,0
-217,-307,0,0,0,0,0,0,0,0,0,-1,1007,1331,0,0
-210,-307,0,0,0,0,0,0,0,0,0,-1,1014,1331,0,0
-203,-307,0,0,0,0,0,0,0,0,0,-1,1021,1331,0,0
-196,-307,0,0,0,0,0,0,0,0,0,-1,1028,1331,0,0
-189,-307,0,0,0,0,0,0,0,0,0,-1,1035,1331,0,0
-182,-307,0,0,0,0,0,0,0,0,0,-1,1042,1331,0,0
-175,-307,0,0,0,0,0,0,0,0,0,-1,1049,1331,0,0
-168,-307,0,0,0,0,0,0,0,0,0,-1,1056,1331,0,0
-161,-307,0,0,0,0,0,0,0,0,0,-1,1063,1331,0,0
-154,-307,0,0,0,0,0,0,0,0,0,-1,1070,1331,0,0
-147,-307,0,0,0,0,0,0,0,0,0,-1,1077,1331,0,0
-140,-307,0,0,0,0,0,0,0,0,0,-1,1084,1331,0,0
-133,-307,0,0,0,0,0,0,0,0,0,-1,1091,1331,0,0
-126,-307,0,0,0,0,0,0,0,0,0,-1,1098,1331,0,0
-119,-307,0,0,0,0,0,0,0,0,0,-1,1105,1331,0,0
-112,-307,0,0,0,0,0,0,0,0,0,-1,1112,1331,0,0
-105,-307,0,0,0,0,0,0,0,0,0,-1,1119,1331,0,0
-98,-307,0,0,0,0,0,0,0,0,0,-1,1126,1331,0,0
-91,-307,0,0,0,0,0,0,0,0,0,-1,1133,1331,0,0
-84,-307,0,0,0,0,0,0,0,0,0,-1,1140,1331,0,0
-77,-307,0,0,0,0,0,0,0,0,0,-1,1147,1331,0,0
-70,-307,0,0,0,0,0,0,0,0,0,-1,1154,1331,0,0
-63,-307,0,0,0,0,0,0,0,0,0,-1,1161,1331,0,0
-56,-307,0,0,0,0,0,0,0,0,0,-1,1168,1331,0,0
-49,-307,0,0,0,0,0,0,0,0,0,-1,1175,1331,0,0
-42,-307,0,0,0,0,0,0,0,0,0,-1,1182,1331,0,0
-35,-307,0,0,0,0,0,0,0,0,0,-1,1189,1331,0,0
-28,-307,0,0,0,0,0,0,0,0,0,-1,1196,1331,0,0
-21,-307,0,0,0,0,0,0,0,0,0,-1,1203,1331,0,0
-14,-307,0,0,0,0,0,0,0,0,0,-1,1210,1331,0,0
-7,-307,0,0,0,0,0,0,0,0,0,-1,1217,1331,0,0
0,-307,0,0,0,0,0,0,0,0,0,-1,1224,1331,0,0
7,-307,0,0,0,0,0,0,0,0,0,-1,1231,1331,0,0
14,-307,0,0,0,0,0,0,0,0,0,-1,1238,1331,0,0
21,-307,0,0,0,0,0,0,0,0,0,-1,1245,1331,0,0
28,-307,0,0,0,0,0,0,0,0,0,-1,1252,1331,0,0
35,-307,0,0,0,0,0,0,0,0,0,-1,1259,1331,0,0
42,-307,0,0,0,0,0,0,0,0,0,-1,1266,1331,0,0
49,-307,0,0,0,0,0,0,0,0,0,-1,1273,1331,0,0
56,-307,0,0,0,0,0,0,0,0,0,-1,1280,1331,0,0
63,-307,0,0,0,0,0,0,0,0,0,-1,1287,1331,0,0
70,-307,0,0,0,0,0,0,0,0,0,-1,1294,1331,0,0
77,-307,0,0,0,0,0,0,0,0,0,-1,1301,1331,0,0
84,-307,0,0,0,0,0,0,0,0,0,-1,1308,1331,0,0
91,-307,0,0,0,0,0,0,0,0,0,-1,1315,1331,0,0
98,-307,0,0,0,0,0,0,0,0,0,-1,1322,1331,0,0
105,-307,0,0,0,0,0,0,0,0,0,-1,1329,1331,0,0
112,-307,0,0,0,0,0,0,0,0,0,-1,1336,1331,0,0
119,-307,0,0,0,0,0,0,0,0,0,-1,1343,1331,0,0
126,-307,0,0,0,0,0,0,0,0,0,-1,1350,1331,0,0
133,-307,0,0,0,0,0,0,0,0,0,-1,1357,1331,0,0
140,-307,0,0,0,0,0,0,0,0,0,-1,1364,1331,0,0
147,-307,0,0,0,0,0,0,0,0,0,-1,1371,1331,0,0
154,-307,0,0,0,0,0,0,0,0,0,-1,1378,1331,0,0
161,-307,0,0,0,0,0,0,0,0,0,-1,1385,1331,0,0
168,-307,0,0,0,0,0,0,0,0,0,-1,1392,1331,0,0
175,-307,0,0,0,0,0,0,0,0,0,-1,1399,1331,0,0
182,-307,0,0,0,0,0,0,0,0,0,-1,1406,1331,0,0
189,-307,0,0,0,0,0,0,0,0,0,-1,1413,1331,0,0
196,-307,0,0,0,0,0,0,0,0,0,-1,1420,1331,0,0
203,-307,0,0,0,0,0,0,0,0,0,-1,1427,1331,0,0
210,-307,0,0,0,0,0,0,0,0,0,-1,1434,1331,0,0
217,-307,0,0,0,0,0,0,0,0,0,-1,1441,1331,0,0
224,-307,0,0,0,0,0,0,0,0,0,-1,1448,1331,0,0
231,-307,0,0,0,0,0,0,0,0,0,-1,1455,1331,0,0
238,-307,0,0,0,0,0,0,0,0,0,-1,1462,1331,0,0
245,-307,0,0,0,0,0,0,0,0,0,-1,1469,1331,0,0
252,-307,0,0,0,0,0,0,0,0,0,-1,1476,1331,0,0
259,-307,0,0,0,0,0,0,0,0,0,-1,1483,1331,0,0
266,-307,0,0,0,0,0,0,0,0,0,-1,1490,1331,0,0
273,-307,0,0,0,0,0,0,0,0,0,-1,1497,1331,0,0
280,-307,0,0,0,0,0,0,0,0,0,-1,1504,1331,0,0
287,-307,0,0,0,0,0,0,0,0,0,-1,1511,1331,0,0
294,-307,0,0,0,0,0,0,0,0,0,-1,1518,1331,0,0
301,-307,0,0,0,0,0,0,0,0,0,-1,1525,1331,0,0
308,-307,0,0,0,0,0,0,0,0,0,-1,1532,1331,0,0
315,-307,0,0,0,0,0,0,0,0,0,-1,1539,1331,0,0
322,-307,0,0,0,0,0,0,0,0,0,-1,1546,1331,0,0
329,-307,0,0,0,0,0,0,0,0,0,-1,1553,1331,0,0
336,-307,0,0,0,0,0,0,0,0,0,-1,1560,1331,0,0
343,-307,0,0,0,0,0,0,0,0,0,-1,1567,1331,0,0
350,-307,0,0,0,0,0,0,0,0,0,-1,1574,1331,0,0
357,-307,0,0,0,0,0,0,0,0,0,-1,1581,1331,0,0
364,-307,0,0,0,0,0,0,0,0,0,-1,1588,1331,0,0
371,-307,0,0,0,0,0,0,0,0,0,-1,1595,1331,0,0
378,-307,0,0,0,0,0,0,0,0,0,-1,1602,1331,0,0
385,-307,0,0,0,0,0,0,0,0,0,-1,1609,1331,0,0
392,-307,0,0,0,0,0,0,0,0,0,-1,1616,1331,0,0
399,-307,0,0,0,0,0,0,0,0,0,-1,1623,1331,0,0
406,-307,0,0,0,0,0,0,0,0,0,-1,1630,1331,0,0
413,-307,0,0,0,0,0,0,0,0,0,-1,1637,1331,0,0
420,-307,0,0,0,0,0,0,0,0,0,-1,1644,1331,0,0
427,-307,0,0,0,0,0,0,0,0,0,-1,1651,1331,0,0
434,-307,0,0,0,0,0,0,0,0,0,-1,1658,1331,0,0
441,-307,0,0,0,0,0,0,0,0,0,-1,1665,1331,0,0
448,-307,0,0,0,0,0,0,0,0,0,-1,1672,1331,0,0
455,-307,0,0,0,0,0,0,0,0,0,-1,1679,1331,0,0
462,-307,0,0,0,0,0,0,0,0,0,-1,1686,1331,0,0
469,-307,0,0,0,0,0,0,0,0,0,-1,1693,1331,0,0
476,-307,0,0,0,0,0,0,0,0,0,-1,1700,1331,0,0
483,-307,0,0,0,0,0,0,0,0,0,-1,1707,1331,0,0
490,-307,0,0,0,0,0,0,0,0,0,-1,1714,1331,0,0
497,-307,0,0,0,0,0,0,0,0,0,-1,1721,1331,0,0
504,-307,0,0,0,0,0,0,0,0,0,-1,1728,1331,0,0
511,-307,0,0,0,0,0,0,0,0,0,-1,1735,1331,0,0
518,-307,0,0,0,0,0,0,0,0,0,-1,1742,1331,0,0
525,-307,0,0,0,0,0,0,0,0,0,-1,1749,1331,0,0
532,-307,0,0,0,0,0,0,0,0,0,-1,1756,1331,0,0
539,-307,0,0,0,0,0,0,0,0,0,-1,1763,1331,0,0
546,-307,0,0,0,0,0,0,0,0,0,-1,1770,1331,0,0
553,-307,0,0,0,0,0,0,0,0,0,-1,1777,1331,0,0
560,-307,0,0,0,0,0,0,0,0,0,-1,1784,1331,0,0
567,-307,0,0,0,0,0,0,0,0,0,-1,1791,1331,0,0
574,-307,0,0,0,0,0,0,0,0,0,-1,1798,1331,0,0
581,-307,0,0,0,0,0,0,0,0,0,-1,1805,1331,0,0
588,-307,1.79016,-0.861206,0,0,0,0,0,0,0,-1,1812,1331,1.79014,0.861233
595,-307,2.24207,-0.479248,0,0,0,0,0,0,0,-1,1819,1331,2.24201,0.4793
602,-307,2.63843,0.126953,0.0326071,-0.0136116,0.0152167,0.037167,-0.0181716,0.291151,0.0325711,0.0447917,1826,1331,2.63838,-0.126895
609,-307,2.88928,0.647461,0.0381711,-0.0131757,0.0161723,0.0428402,-0.0178448,0.281066,0.0360135,0.0443441,1833,1331,2.88929,-0.647469
616,-307,3.04834,1.09363,0.0387722,-0.0119547,0.0156457,0.0432096,-0.0163921,0.276362,0.0355532,0.0445487,1840,1331,3.04833,-1.09357
623,-307,3.65381,1.11816,0.0364727,-0.0108075,0.0143886,0.0405073,-0.014842,0.273379,0.0330813,0.0443144,1847,1331,3.65382,-1.1182
630,-307,5.31226,1.45605,0,0,0,0,0,0,0,-1,1854,1331,5.31228,-1.45606
637,-307,5.58594,1.64404,0,0,0,0,0,0,0,-1,1861,1331,5.5859,-1.64404
644,-307,5.92139,1.89795,0,0,0,0,0,0,0,-1,1868,1331,5.92133,-1.89794
651,-307,3.36877,0.991943,0.0170507,-0.00603143,0.00696916,0.0189917,-0.0079724,0.271625,0.0159952,0.0422359,1875,1331,3.36881,-0.991951
658,-307,3.58752,0.979126,0.0131342,-0.00488128,0.00541969,0.014639,-0.00638603,0.270823,0.0124466,0.034673,1882,1331,3.5875,-0.97912
665,-307,3.59143,0.954224,0.00927812,-0.00392883,0.00365126,0.0102203,-0.00487105,0.252545,0.00889361,0.0136403,1889,1331,3.59143,-0.954258
672,-307,3.60205,0.947632,0.00573264,-0.00300922,0.00287511,0.00659346,-0.00387005,0.290913,0.00610894,0.00871572,1896,1331,3.60211,-0.947594
679,-307,3.59985,0.934082,0.0022211,-0.00195624,0.00187882,0.00294179,-0.00267693,0.366278,0.00324517,0.00958085,1903,1331,3.59987,-0.934106
686,-307,3.60205,0.89917,0.000335886,-0.00179792,0.000863245,0.00064138,-0.00210341,0.340137,0.00165795,0.00968331,1910,1331,3.60211,-0.899189
693,-307,3.5946,0.86438,0.000184776,-0.000766938,0.000372073,0.000312971,-0.000895132,0.331804,0.00072399,0.0115095,1917,1331,3.59458,-0.864408
700,-307,3.58948,0.832397,0.000220944,-0.000338072,-0.000611713,0.000613982,-0.000731109,-0.571098,0.000777569,0.0120884,1924,1331,3.58949,-0.832435
707,-307,3.58899,0.796265,0.000802808,0.000367794,-0.000919105,0.00152979,-0.00035919,-0.66921,0.00115831,0.0126204,1931,1331,3.58897,-0.796255
714,-307,3.58765,0.793823,0.00163542,0.00280612,-0.00094128,0.00332921,0.00111233,-1.06357,0.00195706,0.0116548,1938,1331,3.58759,-0.793795
721,-307,3.60059,0.768799,0.00274819,0.00471816,-0.00109638,0.00520702,0.00225932,-1.15136,0.00301502,0.0137089,1945,1331,3.60063,-0.768839
728,-307,3.59656,0.766479,0.00420517,0.00734011,-0.00105776,0.00766362,0.00388166,-1.27398,0.00442472,0.0147118,1952,1331,3.59654,-0.766444
735,-307,3.57373,0.758179,0.00602117,0.0111997,-0.000680612,0.0112877,0.00593321,-1.44227,0.0065198,0.0255288,1959,1331,3.57377,-0.758166
742,-307,3.68469,0.585083,0.00834495,0.016667,0.000293205,0.0166773,0.00833463,1.53562,0.00962866,0.0383658,1966,1331,3.68474,-0.585081
749,-307,3.78687,0.409668,0,0,0,0,0,0,0,-1,1973,1331,3.78688,-0.409695
756,-307,4.2196,-0.877197,0.0148153,0.0345725,0.00551428,0.0360074,0.0133805,1.31624,0.0210161,0.0499086,1980,1331,4.21955,0.877233
763,-307,4.71387,-1.13354,0.0191462,0.0485197,0.0109923,0.0521778,0.0154882,1.24954,0.0309427,0.045941,1987,1331,4.71384,1.1335
770,-307,0,0,0,0,0,0,0,0,0,-1,1994,1331,0,0
777,-307,0,0,0,0,0,0,0,0,0,-1,2001,1331,0,0
784,-307,0,0,0,0,0,0,0,0,0,-1,2008,1331,0,0
791,-307,0,0,0,0,0,0,0,0,0,-1,2015,1331,0,0
798,-307,0,0,0,0,0,0,0,0,0,-1,2022,1331,0,0
805,-307,0,0,0,0,0,0,0,0,0,-1,2029,1331,0,0
812,-307,0,0,0,0,0,0,0,0,0,-1,2036,1331,0,0
-700,-314,0,0,0,0,0,0,0,0,0,-1,524,1338,0,0
-693,-314,0,0,0,0,0,0,0,0,0,-1,531,1338,0,0
-686,-314,0,0,0,0,0,0,0,0,0,-1,538,1338,0,0
-679,-314,0,0,0,0,0,0,0,0,0,-1,545,1338,0,0
-672,-314,0,0,0,0,0,0,0,0,0,-1,552,1338,0,0
-665,-314,0,0,0,0,0,0,0,0,0,-1,559,1338,0,0
-658,-314,0,0,0,0,0,0,0,0,0,-1,566,1338,0,0
-651,-314,0,0,0,0,0,0,0,0,0,-1,573,1338,0,0
-644,-314,-1.24384,-3.25464,0.0482865,0.0722912,0.0415097,0.103499,0.0170788,0.926133,0.0640696,0.0498156,580,1338,-1.24385,3.25462
-637,-314,-1.12164,1.57275,0.0395693,0.0650331,0.0335763,0.0882104,0.016392,0.966619,0.0541759,0.0473364,587,1338,-1.12166,-1.57275
-630,-314,-1.08771,0.934326,0,0,0,0,0,0,0,-1,594,1338,-1.0877,-0.934386
-623,-314,0.0585938,0.0236816,0,0,0,0,0,0,0,-1,601,1338,0.0585992,-0.0236543
-616,-314,-0.0203857,0.213745,0.0215458,0.0395642,0.0169391,0.0497409,0.0113691,1.0298,0.0300954,0.0483528,608,1338,-0.0204135,-0.213742
-609,-314,-0.101685,0.432129,0.0172518,0.031714,0.0130759,0.039425,0.00954075,1.03797,0.0237507,0.0425608,615,1338,-0.101702,-0.432075
-602,-314,-0.0706787,0.637451,0.0135947,0.0250058,0.0100108,0.0308228,0.00777765,1.04441,0.018509,0.0348876,622,1338,-0.0706564,-0.637467
-595,-314,0.0621338,0.763184,0.0105247,0.018595,0.00742716,0.0230124,0.00610731,1.03424,0.0137651,0.0202723,629,1338,0.0621356,-0.763141
-588,-314,0.0596313,0.811157,0.00726748,0.0126449,0.00430147,0.0150288,0.00488354,1.06472,0.00885239,0.0121397,636,1338,0.059617,-0.811149
-581,-314,0.0612793,0.829712,0.00493153,0.0085116,0.00261952,0.00989428,0.00354885,1.08513,0.00578802,0.0121558,643,1338,0.0612673,-0.829773
-574,-314,0.0599976,0.838623,0.00334669,0.0048302,0.00163326,0.00588225,0.00229464,0.99855,0.00342336,0.0121084,650,1338,0.0599808,-0.838612
-567,-314,0.0714722,0.871216,0.0020609,0.00270235,0.000873887,0.00331251,0.00145075,0.961272,0.00191738,0.0138105,657,1338,0.0714563,-0.871191
-560,-314,0.0938721,0.903931,0.00181646,0.00177241,-0.000620814,0.00241564,0.00117323,-0.767668,0.00139486,0.0146579,664,1338,0.0938828,-0.903909
-553,-314,0.0985107,0.936523,0.0023781,0.000714266,-0.0022195,0.00391647,-0.000824101,-0.606091,0.00292464,0.0170778,671,1338,0.0984997,-0.936556
-546,-314,0.0997314,0.970947,0.00348019,0.000137899,-0.00346281,0.00565401,-0.00203592,-0.560583,0.00460067,0.0181088,678,1338,0.0997382,-0.970977
-539,-314,0.0785522,0.999268,0.00471717,0.000345863,-0.00463004,0.00765151,-0.00258848,-0.564875,0.00614823,0.0171158,685,1338,0.0785734,-0.999284
-532,-314,0.0767822,1.04565,0.00582088,0.000877604,-0.00523355,0.00913708,-0.0024386,-0.56479,0.00704634,0.0178963,692,1338,0.0767553,-1.04567
-525,-314,0.0368652,1.09241,0.00779391,0.00246481,-0.00615855,0.0118396,-0.0015809,-0.581228,0.00846937,0.0291479,699,1338,0.0368665,-1.09238
-518,-314,-0.146667,1.02112,0.0112219,0.00675715,-0.0076849,0.0169921,0.000986954,-0.644044,0.0110138,0.0394001,706,1338,-0.146647,-1.02111
-511,-314,-0.348877,0.974243,0.0145386,0.010683,-0.00894197,0.0217582,0.00346338,-0.679229,0.0134999,0.0391352,713,1338,-0.34889,-0.974192
-504,-314,0.455017,-0.119873,0,0,0,0,0,0,0,-1,720,1338,0.455045,0.119815
-497,-314,0.836304,-0.362671,0.020444,0.0228336,-0.0101106,0.0318197,0.0114579,-0.844213,0.0186093,0.0430895,727,1338,0.836286,0.362686
-490,-314,1.39899,0.0379639,0.0229129,0.0321597,-0.0106641,0.0391595,0.0159131,-0.989943,0.0227405,0.042835,734,1338,1.39901,-0.0379545
-483,-314,2.60645,-0.24585,0.0246034,0.0437343,-0.0112311,0.0489213,0.0194163,-1.13814,0.0284442,0.0415195,741,1338,2.60647,0.245798
-476,-314,-0.577698,1.87427,0.0251623,0.0577951,-0.0119332,0.0616932,0.0212642,-1.25506,0.0361869,0.0435714,748,1338,-0.577709,-1.87425
-469,-314,-0.591858,2.09851,0.023374,0.074085,-0.0127282,0.0771004,0.0203586,-1.33818,0.0461364,0.0427855,755,1338,-0.591844,-2.09851
-462,-314,0,0,0,0,0,0,0,0,0,-1,762,1338,0,0
-455,-314,0,0,0,0,0,0,0,0,0,-1,769,1338,0,0
-448,-314,0,0,0,0,0,0,0,0,0,-1,776,1338,0,0
-441,-314,0,0,0,0,0,0,0,0,0,-1,783,1338,0,0
-434,-314,0,0,0,0,0,0,0,0,0,-1,790,1338,0,0
-427,-314,0,0,0,0,0,0,0,0,0,-1,797,1338,0,0
-420,-314,0,0,0,0,0,0,0,0,0,-1,804,1338,0,0
-413,-314,0,0,0,0,0,0,0,0,0,-1,811,1338,0,0
-406,-314,0,0,0,0,0,0,0,0,0,-1,818,1338,0,0
-399,-314,0,0,0,0,0,0,0,0,0,-1,825,1338,0,0
-392,-314,0,0,0,0,0,0,0,0,0,-1,832,1338,0,0
-385,-314,0,0,0,0,0,0,0,0,0,-1,839,1338,0,0
-378,-314,0,0,0,0,0,0,0,0,0,-1,846,1338,0,0
-371,-314,0,0,0,0,0,0,0,0,0,-1,853,1338,0,0
-364,-314,0,0,0,0,0,0,0,0,0,-1,860,1338,0,0
-357,-314,0,0,0,0,0,0,0,0,0,-1,867,1338,0,0
-350,-314,0,0,0,0,0,0,0,0,0,-1,874,1338,0,0
-343,-314,0,0,0,0,0,0,0,0,0,-1,881,1338,0,0
-336,-314,0,0,0,0,0,0,0,0,0,-1,888,1338,0,0
-329,-314,0,0,0,0,0,0,0,0,0,-1,895,1338,0,0
-322,-314,0,0,0,0,0,0,0,0,0,-1,902,1338,0,0
-315,-314,0,0,0,0,0,0,0,0,0,-1,909,1338,0,0
-308,-314,0,0,0,0,0,0,0,0,0,-1,916,1338,0,0
-301,-314,0,0,0,0,0,0,0,0,0,-1,923,1338,0,0
-294,-314,0,0,0,0,0,0,0,0,0,-1,930,1338,0,0
-287,-314,0,0,0,0,0,0,0,0,0,-1,937,1338,0,0
-280,-314,0,0,0,0,0,0,0,0,0,-1,944,1338,0,0
-273,-314,0,0,0,0,0,0,0,0,0,-1,951,1338,0,0
-266,-314,0,0,0,0,0,0,0,0,0,-1,958,1338,0,0
-259,-314,0,0,0,0,0,0,0,0,0,-1,965,1338,0,0
-252,-314,0,0,0,0,0,0,0,0,0,-1,972,1338,0,0
-245,-314,0,0,0,0,0,0,0,0,0,-1,979,1338,0,0
-238,-314,0,0,0,0,0,0,0,0,0,-1,986,1338,0,0
-231,-314,0,0,0,0,0,0,0,0,0,-1,993,1338,0,0
-224,-314,0,0,0,0,0,0,0,0,0,-1,1000,1338,0,0
-217,-314,0,0,0,0,0,0,0,0,0,-1,1007,1338,0,0
-210,-314,0,0,0,0,0,0,0,0,0,-1,1014,1338,0,0
-203,-314,0,0,0,0,0,0,0,0,0,-1,1021,1338,0,0
-196,-314,0,0,0,0,0,0,0,0,0,-1,1028,1338,0,0
-189,-314,0,0,0,0,0,0,0,0,0,-1,1035,1338,0,0
-182,-314,0,0,0,0,0,0,0,0,0,-1,1042,1338,0,0
-175,-314,0,0,0,0,0,0,0,0,0,-1,1049,1338,0,0
-168,-314,0,0,0,0,0,0,0,0,0,-1,1056,1338,0,0
-161,-314,0,0,0,0,0,0,0,0,0,-1,1063,1338,0,0
-154,-314,0,0,0,0,0,0,0,0,0,-1,1070,1338,0,0
-147,-314,0,0,0,0,0,0,0,0,0,-1,1077,1338,0,0
-140,-314,0,0,0,0,0,0,0,0,0,-1,1084,1338,0,0
-133,-314,0,0,0,0,0,0,0,0,0,-1,1091,1338,0,0
-126,-314,0,0,0,0,0,0,0,0,0,-1,1098,1338,0,0
-119,-314,0,0,0,0,0,0,0,0,0,-1,1105,1338,0,0
-112,-314,0,0,0,0,0,0,0,0,0,-1,1112,1338,0,0
-105,-314,0,0,0,0,0,0,0,0,0,-1,1119,1338,0,0
-98,-314,0,0,0,0,0,0,0,0,0,-1,1126,1338,0,0
-91,-314,0,0,0,0,0,0,0,0,0,-1,1133,1338,0,0
-84,-314,0,0,0,0,0,0,0,0,0,-1,1140,1338,0,0
-77,-314,0,0,0,0,0,0,0,0,0,-1,1147,1338,0,0
-70,-314,0,0,0,0,0,0,0,0,0,-1,1154,1338,0,0
-63,-314,0,0,0,0,0,0,0,0,0,-1,1161,1338,0,0
-56,-314,0,0,0,0,0,0,0,0,0,-1,1168,1338,0,0
-49,-314,0,0,0,0,0,0,0,0,0,-1,1175,1338,0,0
-42,-314,0,0,0,0,0,0,0,0,0,-1,1182,1338,0,0
-35,-314,0,0,0,0,0,0,0,0,0,-1,1189,1338,0,0
-28,-314,0,0,0,0,0,0,0,0,0,-1,1196,1338,0,0
-21,-314,0,0,0,0,0,0,0,0,0,-1,1203,1338,0,0
-14,-314,0,0,0,0,0,0,0,0,0,-1,1210,1338,0,0
-7,-314,0,0,0,0,0,0,0,0,0,-1,1217,1338,0,0
0,-314,0,0,0,0,0,0,0,0,0,-1,1224,1338,0,0
7,-314,0,0,0,0,0,0,0,0,0,-1,1231,1338,0,0
14,-314,0,0,0,0,0,0,0,0,0,-1,1238,1338,0,0
21,-314,0,0,0,0,0,0,0,0,0,-1,1245,1338,0,0
28,-314,0,0,0,0,0,0,0,0,0,-1,1252,1338,0,0
35,-314,0,0,0,0,0,0,0,0,0,-1,1259,1338,0,0
42,-314,0,0,0,0,0,0,0,0,0,-1,1266,1338,0,0
49,-314,0,0,0,0,0,0,0,0,0,-1,1273,1338,0,0
56,-314,0,0,0,0,0,0,0,0,0,-1,1280,1338,0,0
63,-314,0,0,0,0,0,0,0,0,0,-1,1287,1338,0,0
70,-314,0,0,0,0,0,0,0,0,0,-1,1294,1338,0,0
77,-314,0,0,0,0,0,0,0,0,0,-1,1301,1338,0,0
84,-314,0,0,0,0,0,0,0,0,0,-1,1308,1338,0,0
91,-314,0,0,0,0,0,0,0,0,0,-1,1315,1338,0,0
98,-314,0,0,0,0,0,0,0,0,0,-1,1322,1338,0,0
105,-314,0,0,0,0,0,0,0,0,0,-1,1329,1338,0,0
112,-314,0,0,0,0,0,0,0,0,0,-1,1336,1338,0,0
119,-314,0,0,0,0,0,0,0,0,0,-1,1343,1338,0,0
126,-314,0,0,0,0,0,0,0,0,0,-1,1350,1338,0,0
133,-314,0,0,0,0,0,0,0,0,0,-1,1357,1338,0,0
140,-314,0,0,0,0,0,0,0,0,0,-1,1364,1338,0,0
147,-314,0,0,0,0,0,0,0,0,0,-1,1371,1338,0,0
154,-314,0,0,0,0,0,0,0,0,0,-1,1378,1338,0,0
161,-314,0,0,0,0,0,0,0,0,0,-1,1385,1338,0,0
168,-314,0,0,0,0,0,0,0,0,0,-1,1392,1338,0,0
175,-314,0,0,0,0,0,0,0,0,0,-1,1399,1338,0,0
182,-314,0,0,0,0,0,0,0,0,0,-1,1406,1338,0,0
189,-314,0,0,0,0,0,0,0,0,0,-1,1413,1338,0,0
196,-314,0,0,0,0,0,0,0,0,0,-1,1420,1338,0,0
203,-314,0,0,0,0,0,0,0,0,0,-1,1427,1338,0,0
210,-314,0,0,0,0,0,0,0,0,0,-1,1434,1338,0,0
217,-314,0,0,0,0,0,0,0,0,0,-1,1441,1338,0,0
224,-314,0,0,0,0,0,0,0,0,0,-1,1448,1338,0,0
231,-314,0,0,0,0,0,0,0,0,0,-1,1455,1338,0,0
238,-314,0,0,0,0,0,0,0,0,0,-1,1462,1338,0,0
245,-314,0,0,0,0,0,0,0,0,0,-1,1469,1338,0,0
252,-314,0,0,0,0,0,0,0,0,0,-1,1476,1338,0,0
259,-314,0,0,0,0,0,0,0,0,0,-1,1483,1338,0,0
266,-314,0,0,0,0,0,0,0,0,0,-1,1490,1338,0,0
273,-314,0,0,0,0,0,0,0,0,0,-1,1497,1338,0,0
280,-314,0,0,0,0,0,0,0,0,0,-1,1504,1338,0,0
287,-314,0,0,0,0,0,0,0,0,0,-1,1511,1338,0,0
294,-314,0,0,0,0,0,0,0,0,0,-1,1518,1338,0,0
301,-314,0,0,0,0,0,0,0,0,0,-1,1525,1338,0,0
308,-314,0,0,0,0,0,0,0,0,0,-1,1532,1338,0,0
315,-314,0,0,0,0,0,0,0,0,0,-1,1539,1338,0,0
322,-314,0,0,0,0,0,0,0,0,0,-1,1546,1338,0,0
329,-314,0,0,0,0,0,0,0,0,0,-1,1553,1338,0,0
336,-314,0,0,0,0,0,0,0,0,0,-1,1560,1338,0,0
343,-314,0,0,0,0,0,0,0,0,0,-1,1567,1338,0,0
350,-314,0,0,0,0,0,0,0,0,0,-1,1574,1338,0,0
357,-314,0,0,0,0,0,0,0,0,0,-1,1581,1338,0,0
364,-314,0,0,0,0,0,0,0,0,0,-1,1588,1338,0,0
371,-314,0,0,0,0,0,0,0,0,0,-1,1595,1338,0,0
378,-314,0,0,0,0,0,0,0,0,0,-1,1602,1338,0,0
385,-314,0,0,0,0,0,0,0,0,0,-1,1609,1338,0,0
392,-314,0,0,0,0,0,0,0,0,0,-1,1616,1338,0,0
399,-314,0,0,0,0,0,0,0,0,0,-1,1623,1338,0,0
406,-314,0,0,0,0,0,0,0,0,0,-1,1630,1338,0,0
413,-314,0,0,0,0,0,0,0,0,0,-1,1637,1338,0,0
420,-314,0,0,0,0,0,0,0,0,0,-1,1644,1338,0,0
427,-314,0,0,0,0,0,0,0,0,0,-1,1651,1338,0,0
434,-314,0,0,0,0,0,0,0,0,0,-1,1658,1338,0,0
441,-314,0,0,0,0,0,0,0,0,0,-1,1665,1338,0,0
448,-314,0,0,0,0,0,0,0,0,0,-1,1672,1338,0,0
455,-314,0,0,0,0,0,0,0,0,0,-1,1679,1338,0,0
462,-314,0,0,0,0,0,0,0,0,0,-1,1686,1338,0,0
469,-314,0,0,0,0,0,0,0,0,0,-1,1693,1338,0,0
476,-314,0,0,0,0,0,0,0,0,0,-1,1700,1338,0,0
483,-314,0,0,0,0,0,0,0,0,0,-1,1707,1338,0,0
490,-314,0,0,0,0,0,0,0,0,0,-1,1714,1338,0,0
497,-314,0,0,0,0,0,0,0,0,0,-1,1721,1338,0,0
504,-314,0,0,0,0,0,0,0,0,0,-1,1728,1338,0,0
511,-314,0,0,0,0,0,0,0,0,0,-1,1735,1338,0,0
518,-314,0,0,0,0,0,0,0,0,0,-1,1742,1338,0,0
525,-314,0,0,0,0,0,0,0,0,0,-1,1749,1338,0,0
532,-314,0,0,0,0,0,0,0,0,0,-1,1756,1338,0,0
539,-314,0,0,0,0,0,0,0,0,0,-1,1763,1338,0,0
546,-314,0,0,0,0,0,0,0,0,0,-1,1770,1338,0,0
553,-314,0,0,0,0,0,0,0,0,0,-1,1777,1338,0,0
560,-314,0,0,0,0,0,0,0,0,0,-1,1784,1338,0,0
567,-314,0,0,0,0,0,0,0,0,0,-1,1791,1338,0,0
574,-314,0,0,0,0,0,0,0,0,0,-1,1798,1338,0,0
581,-314,2.68445,4.87659,0,0,0,0,0,0,0,-1,1805,1338,2.68449,-4.87665
588,-314,5.82068,5.60242,0,0,0,0,0,0,0,-1,1812,1338,5.8207,-5.60245
595,-314,2.20923,-0.0456543,0,0,0,0,0,0,0,-1,1819,1338,2.20926,0.0456449
602,-314,2.60229,0.379761,0.0329229,-0.0133466,0.0106581,0.0352599,-0.0156836,0.215857,0.0301274,0.0459246,1826,1338,2.6023,-0.379764
609,-314,2.2583,1.14893,0.0371972,-0.0131282,0.0130766,0.0403922,-0.0163232,0.239635,0.0337132,0.0443909,1833,1338,2.25828,-1.14899
616,-314,2.86951,0.925781,0.0379557,-0.0125747,0.0137941,0.041476,-0.016095,0.249873,0.0342985,0.0408115,1840,1338,2.86954,-0.925739
623,-314,3.50464,0.674316,0.0361621,-0.0113297,0.0134458,0.0397046,-0.0148722,0.257612,0.032579,0.0423151,1847,1338,3.50463,-0.674298
630,-314,5.31836,1.95496,0.0323216,-0.00993773,0.0121254,0.0355535,-0.0131697,0.260487,0.029103,0.0469238,1854,1338,5.31836,-1.95497
637,-314,5.89209,2.14819,0.0275692,-0.00860381,0.0105187,0.0304055,-0.0114401,0.263381,0.024973,0.0445702,1861,1338,5.89214,-2.14815
644,-314,6.27893,2.37585,0,0,0,0,0,0,0,-1,1868,1338,6.27896,-2.37589
651,-314,6.58862,2.4342,0,0,0,0,0,0,0,-1,1875,1338,6.58866,-2.4342
658,-314,3.56982,0.980957,0.0135212,-0.00474275,0.00534007,0.0149679,-0.0061895,0.264571,0.0125608,0.0216892,1882,1338,3.56983,-0.980964
665,-314,3.56677,0.9729,0.00953622,-0.00377691,0.00354558,0.0104216,-0.00466229,0.244711,0.00891778,0.0109874,1889,1338,3.56672,-0.972868
672,-314,3.58496,0.964111,0.00591153,-0.00279071,0.00276589,0.00671622,-0.0035954,0.283119,0.00604362,0.0110517,1896,1338,3.58494,-0.964162
679,-314,3.58594,0.935547,0.00235198,-0.00157742,0.00172777,0.00300362,-0.00222906,0.360661,0.0030321,0.00970927,1903,1338,3.58595,-0.935486
686,-314,3.58264,0.889893,0.000345845,-0.00142373,0.000653595,0.000561074,-0.00163895,0.318116,0.00132002,0.0117461,1910,1338,3.58261,-0.889934
693,-314,3.55896,0.864258,2.73084e-05,-0.000335818,5.92867e-05,3.67429e-05,-0.000345253,0.15781,0.000243343,0.0113979,1917,1338,3.55897,-0.864227
700,-314,3.57031,0.812988,5.28813e-05,0.000156821,-0.000991323,0.00109754,-0.000887833,-0.811587,0.00114838,0.011962,1924,1338,3.57033,-0.813034
707,-314,3.56848,0.782349,0.000556722,0.000967836,-0.00146072,0.00223739,-0.000712832,-0.855301,0.0017775,0.0120307,1931,1338,3.56847,-0.782315
714,-314,3.55774,0.781616,0.00126298,0.00356939,-0.00166981,0.00444551,0.000386868,-1.0876,0.0028435,0.0104702,1938,1338,3.55778,-0.781565
721,-314,3.55042,0.783447,0.00217624,0.00570063,-0.00217192,0.00673532,0.00114155,-1.12621,0.00416221,0.0135832,1945,1338,3.55042,-0.783455
728,-314,3.56433,0.778931,0.00335452,0.00875088,-0.00258812,0.00979149,0.00231391,-1.18851,0.00590935,0.0205143,1952,1338,3.56432,-0.778954
735,-314,3.72717,0.685669,0.00485783,0.013118,-0.00277084,0.0139613,0.00401447,-1.27533,0.0082996,0.0348057,1959,1338,3.7272,-0.685614
742,-314,3.73401,0.299805,0.00673676,0.0192853,-0.00248163,0.0197582,0.00626381,-1.38247,0.0116593,0.0430097,1966,1338,3.73402,-0.299839
749,-314,3.68994,-0.400146,0.0090048,0.0278702,-0.00135811,0.0279675,0.00890753,-1.4993,0.0164979,0.0436923,1973,1338,3.69,0.40016
756,-314,3.73767,-0.871338,0.0116656,0.0397669,0.00115938,0.0398147,0.0116178,1.52963,0.023642,0.0438654,1980,1338,3.73762,0.871356
763,-314,3.79211,-1.04578,0.0147129,0.0563899,0.0060515,0.0572508,0.013852,1.42948,0.0344899,0.043959,1987,1338,3.79211,1.04574
770,-314,0,0,0,0,0,0,0,0,0,-1,1994,1338,0,0
777,-314,0,0,0,0,0,0,0,0,0,-1,2001,1338,0,0
784,-314,0,0,0,0,0,0,0,0,0,-1,2008,1338,0,0
791,-314,0,0,0,0,0,0,0,0,0,-1,2015,1338,0,0
798,-314,0,0,0,0,0,0,0,0,0,-1,2022,1338,0,0
805,-314,0,0,0,0,0,0,0,0,0,-1,2029,1338,0,0
812,-314,0,0,0,0,0,0,0,0,0,-1,2036,1338,0,0
-700,-321,0,0,0,0,0,0,0,0,0,-1,524,1345,0,0
-693,-321,0,0,0,0,0,0,0,0,0,-1,531,1345,0,0
-686,-321,0,0,0,0,0,0,0,0,0,-1,538,1345,0,0
-679,-321,0,0,0,0,0,0,0,0,0,-1,545,1345,0,0
-672,-321,0,0,0,0,0,0,0,0,0,-1,552,1345,0,0
-665,-321,0,0,0,0,0,0,0,0,0,-1,559,1345,0,0
-658,-321,0,0,0,0,0,0,0,0,0,-1,566,1345,0,0
-651,-321,0,0,0,0,0,0,0,0,0,-1,573,1345,0,0
-644,-321,-0.377319,0.57251,0,0,0,0,0,0,0,-1,580,1345,-0.377348,-0.572483
-637,-321,-0.51062,0.601318,0.0452703,0.067001,0.0330523,0.090928,0.0213433,0.9442,0.0549049,0.0457846,587,1345,-0.51065,-0.601283
-630,-321,-0.564514,0.387329,0.0379294,0.0583184,0.0263572,0.0763839,0.0198638,0.969928,0.0457617,0.04301,594,1345,-0.564509,-0.387381
-623,-321,-0.245117,0.145996,0.031577,0.0495469,0.0208852,0.0632979,0.017826,0.988535,0.037689,0.0418301,601,1345,-0.245143,-0.146054
-616,-321,-0.0524902,-0.242798,0.0260678,0.0410962,0.0163677,0.0515921,0.0155719,1.00059,0.0305567,0.0443255,608,1345,-0.0525009,0.24278
-609,-321,0.0585327,0.105713,0.0212882,0.0332267,0.0126319,0.0412287,0.0132861,1.00612,0.0242996,0.0422362,615,1345,0.0585284,-0.105767
-602,-321,0.0415649,0.545898,0.017132,0.0263953,0.00968999,0.0325037,0.0110236,1.00834,0.0190869,0.0413625,622,1345,0.0415861,-0.545866
-595,-321,0.0811768,0.678589,0.0135289,0.0199844,0.00724912,0.0246919,0.00882141,0.994853,0.0144482,0.0312961,629,1345,0.0811857,-0.678543
-588,-321,0.090271,0.783081,0.00980406,0.014054,0.0042304,0.0166631,0.00719492,1.01814,0.00965026,0.0118049,636,1345,0.0902594,-0.783053
-581,-321,0.0886841,0.837524,0.00706127,0.00993978,0.00263101,0.0114995,0.00550158,1.03568,0.00664129,0.0109943,643,1345,0.0886708,-0.8375
-574,-321,0.0722656,0.838745,0.00505534,0.00617598,0.00175602,0.00745891,0.00377241,0.939835,0.0043065,0.0145719,650,1345,0.0722494,-0.838753
-567,-321,0.10968,0.859863,0.00319748,0.00380723,0.00106078,0.00460608,0.00239864,0.925331,0.00266008,0.020393,657,1345,0.109663,-0.859866
-560,-321,0.136536,0.949219,0.00245479,0.00265844,-0.000372941,0.00294321,0.00217002,-0.918671,0.0017619,0.0244814,664,1345,0.136531,-0.949188
-553,-321,0.134033,0.967896,0.00265399,0.00135162,-0.00188792,0.00399987,5.7423e-06,-0.619327,0.00266467,0.026867,671,1345,0.134031,-0.967901
-546,-321,0.108765,0.987793,0.00359731,0.000482384,-0.00323913,0.00563396,-0.00155426,-0.561302,0.00436724,0.025613,678,1345,0.108778,-0.98784
-539,-321,0.0652466,1.00195,0.00466571,0.00038445,-0.00455704,0.00755985,-0.00250969,-0.565823,0.00605246,0.0234387,685,1345,0.065219,-1.00192
-532,-321,0.0953369,1.03052,0.00570925,0.000452567,-0.00526764,0.00896786,-0.00280604,-0.55399,0.00710119,0.0153338,692,1345,0.0953673,-1.0305
-525,-321,0.0813599,1.05371,0.00784082,0.0015189,-0.00634181,0.0117658,-0.00240605,-0.554202,0.00875675,0.0199176,699,1345,0.0813577,-1.0537
-518,-321,-0.012146,1.05945,0.0117071,0.0053204,-0.00810302,0.0172233,-0.000195819,-0.597697,0.011548,0.0348893,706,1345,-0.0121426,-1.05947
-511,-321,-0.186462,1.05542,0.0154936,0.00858718,-0.00964468,0.0222846,0.00179615,-0.613487,0.0142954,0.0432571,713,1345,-0.186467,-1.0554
-504,-321,0.642578,0.0361328,0.0191822,0.0128577,-0.0106647,0.0271436,0.00489634,-0.641269,0.0167045,0.0472197,720,1345,0.642557,-0.0361108
-497,-321,0.707336,-0.260864,0.0228949,0.0190525,-0.0115554,0.0326877,0.00925971,-0.703022,0.0194542,0.0450617,727,1345,0.707324,0.260892
-490,-321,1.11243,-0.443604,0.0264484,0.0275273,-0.0127506,0.0397499,0.0142259,-0.80654,0.0232565,0.044464,734,1345,1.11244,0.443571
-483,-321,1.5625,-0.336548,0.0294004,0.0380877,-0.0141029,0.0485007,0.0189874,-0.934786,0.0282208,0.0444395,741,1345,1.56247,0.336589
-476,-321,2.1571,0.041626,0.0315975,0.050998,-0.0156163,0.0596816,0.0229139,-1.06332,0.0347652,0.0441363,748,1345,2.15712,-0.0416367
-469,-321,2.56329,0.276611,0.0318799,0.0662646,-0.0174276,0.0735528,0.0245917,-1.1747,0.0432357,0.044697,755,1345,2.56329,-0.276651
-462,-321,2.24536,-2.81763,0,0,0,0,0,0,0,-1,762,1345,2.24538,2.81761
-455,-321,0,0,0,0,0,0,0,0,0,-1,769,1345,0,0
-448,-321,0,0,0,0,0,0,0,0,0,-1,776,1345,0,0
-441,-321,0,0,0,0,0,0,0,0,0,-1,783,1345,0,0
-434,-321,0,0,0,0,0,0,0,0,0,-1,790,1345,0,0
-427,-321,0,0,0,0,0,0,0,0,0,-1,797,1345,0,0
-420,-321,0,0,0,0,0,0,0,0,0,-1,804,1345,0,0
-413,-321,0,0,0,0,0,0,0,0,0,-1,811,1345,0,0
-406,-321,0,0,0,0,0,0,0,0,0,-1,818,1345,0,0
-399,-321,0,0,0,0,0,0,0,0,0,-1,825,1345,0,0
-392,-321,0,0,0,0,0,0,0,0,0,-1,832,1345,0,0
-385,-321,0,0,0,0,0,0,0,0,0,-1,839,1345,0,0
-378,-321,0,0,0,0,0,0,0,0,0,-1,846,1345,0,0
-371,-321,0,0,0,0,0,0,0,0,0,-1,853,1345,0,0
-364,-321,0,0,0,0,0,0,0,0,0,-1,860,1345,0,0
-357,-321,0,0,0,0,0,0,0,0,0,-1,867,1345,0,0
-350,-321,0,0,0,0,0,0,0,0,0,-1,874,1345,0,0
-343,-321,0,0,0,0,0,0,0,0,0,-1,881,1345,0,0
-336,-321,0,0,0,0,0,0,0,0,0,-1,888,1345,0,0
-329,-321,0,0,0,0,0,0,0,0,0,-1,895,1345,0,0
-322,-321,0,0,0,0,0,0,0,0,0,-1,902,1345,0,0
-315,-321,0,0,0,0,0,0,0,0,0,-1,909,1345,0,0
-308,-321,0,0,0,0,0,0,0,0,0,-1,916,1345,0,0
-301,-321,0,0,0,0,0,0,0,0,0,-1,923,1345,0,0
-294,-321,0,0,0,0,0,0,0,0,0,-1,930,1345,0,0
-287,-321,0,0,0,0,0,0,0,0,0,-1,937,1345,0,0
-280,-321,0,0,0,0,0,0,0,0,0,-1,944,1345,0,0
-273,-321,0,0,0,0,0,0,0,0,0,-1,951,1345,0,0
-266,-321,0,0,0,0,0,0,0,0,0,-1,958,1345,0,0
-259,-321,0,0,0,0,0,0,0,0,0,-1,965,1345,0,0
-252,-321,0,0,0,0,0,0,0,0,0,-1,972,1345,0,0
-245,-321,0,0,0,0,0,0,0,0,0,-1,979,1345,0,0
-238,-321,0,0,0,0,0,0,0,0,0,-1,986,1345,0,0
-231,-321,0,0,0,0,0,0,0,0,0,-1,993,1345,0,0
-224,-321,0,0,0,0,0,0,0,0,0,-1,1000,1345,0,0
-217,-321,0,0,0,0,0,0,0,0,0,-1,1007,1345,0,0
-210,-321,0,0,0,0,0,0,0,0,0,-1,1014,1345,0,0
-203,-321,0,0,0,0,0,0,0,0,0,-1,1021,1345,0,0
-196,-321,0,0,0,0,0,0,0,0,0,-1,1028,1345,0,0
-189,-321,0,0,0,0,0,0,0,0,0,-1,1035,1345,0,0
-182,-321,0,0,0,0,0,0,0,0,0,-1,1042,1345,0,0
-175,-321,0,0,0,0,0,0,0,0,0,-1,1049,1345,0,0
-168,-321,0,0,0,0,0,0,0,0,0,-1,1056,1345,0,0
-161,-321,0,0,0,0,0,0,0,0,0,-1,1063,1345,0,0
-154,-321,0,0,0,0,0,0,0,0,0,-1,1070,1345,0,0
-147,-321,0,0,0,0,0,0,0,0,0,-1,1077,1345,0,0
-140,-321,0,0,0,0,0,0,0,0,0,-1,1084,1345,0,0
-133,-321,0,0,0,0,0,0,0,0,0,-1,1091,1345,0,0
-126,-321,0,0,0,0,0,0,0,0,0,-1,1098,1345,0,0
-119,-321,0,0,0,0,0,0,0,0,0,-1,1105,1345,0,0
-112,-321,0,0,0,0,0,0,0,0,0,-1,1112,1345,0,0
-105,-321,0,0,0,0,0,0,0,0,0,-1,1119,1345,0,0
-98,-321,0,0,0,0,0,0,0,0,0,-1,1126,1345,0,0
-91,-321,0,0,0,0,0,0,0,0,0,-1,1133,1345,0,0
-84,-321,0,0,0,0,0,0,0,0,0,-1,1140,1345,0,0
-77,-321,0,0,0,0,0,0,0,0,0,-1,1147,1345,0,0
-70,-321,0,0,0,0,0,0,0,0,0,-1,1154,1345,0,0
-63,-321,0,0,0,0,0,0,0,0,0,-1,1161,1345,0,0
-56,-321,0,0,0,0,0,0,0,0,0,-1,1168,1345,0,0
-49,-321,0,0,0,0,0,0,0,0,0,-1,1175,1345,0,0
-42,-321,0,0,0,0,0,0,0,0,0,-1,1182,1345,0,0
-35,-321,0,0,0,0,0,0,0,0,0,-1,1189,1345,0,0
-28,-321,0,0,0,0,0,0,0,0,0,-1,1196,1345,0,0
-21,-321,0,0,0,0,0,0,0,0,0,-1,1203,1345,0,0
-14,-321,0,0,0,0,0,0,0,0,0,-1,1210,1345,0,0
-7,-321,0,0,0,0,0,0,0,0,0,-1,1217,1345,0,0
0,-321,0,0,0,0,0,0,0,0,0,-1,1224,1345,0,0
7,-321,0,0,0,0,0,0,0,0,0,-1,1231,1345,0,0
14,-321,0,0,0,0,0,0,0,0,0,-1,1238,1345,0,0
21,-321,0,0,0,0,0,0,0,0,0,-1,1245,1345,0,0
28,-321,0,0,0,0,0,0,0,0,0,-1,1252,1345,0,0
35,-321,0,0,0,0,0,0,0,0,0,-1,1259,1345,0,0
42,-321,0,0,0,0,0,0,0,0,0,-1,1266,1345,0,0
49,-321,0,0,0,0,0,0,0,0,0,-1,1273,1345,0,0
56,-321,0,0,0,0,0,0,0,0,0,-1,1280,1345,0,0
63,-321,0,0,0,0,0,0,0,0,0,-1,1287,1345,0,0
70,-321,0,0,0,0,0,0,0,0,0,-1,1294,1345,0,0
77,-321,0,0,0,0,0,0,0,0,0,-1,1301,1345,0,0
84,-321,0,0,0,0,0,0,0,0,0,-1,1308,1345,0,0
91,-321,0,0,0,0,0,0,0,0,0,-1,1315,1345,0,0
98,-321,0,0,0,0,0,0,0,0,0,-1,1322,1345,0,0
105,-321,0,0,0,0,0,0,0,0,0,-1,1329,1345,0,0
112,-321,0,0,0,0,0,0,0,0,0,-1,1336,1345,0,0
119,-321,0,0,0,0,0,0,0,0,0,-1,1343,1345,0,0
126,-321,0,0,0,0,0,0,0,0,0,-1,1350,1345,0,0
133,-321,0,0,0,0,0,0,0,0,0,-1,1357,1345,0,0
140,-321,0,0,0,0,0,0,0,0,0,-1,1364,1345,0,0
147,-321,0,0,0,0,0,0,0,0,0,-1,1371,1345,0,0
154,-321,0,0,0,0,0,0,0,0,0,-1,1378,1345,0,0
161,-321,0,0,0,0,0,0,0,0,0,-1,1385,1345,0,0
168,-321,0,0,0,0,0,0,0,0,0,-1,1392,1345,0,0
175,-321,0,0,0,0,0,0,0,0,0,-1,1399,1345,0,0
182,-321,0,0,0,0,0,0,0,0,0,-1,1406,1345,0,0
189,-321,0,0,0,0,0,0,0,0,0,-1,1413,1345,0,0
196,-321,0,0,0,0,0,0,0,0,0,-1,1420,1345,0,0
203,-321,0,0,0,0,0,0,0,0,0,-1,1427,1345,0,0
210,-321,0,0,0,0,0,0,0,0,0,-1,1434,1345,0,0
217,-321,0,0,0,0,0,0,0,0,0,-1,1441,1345,0,0
224,-321,0,0,0,0,0,0,0,0,0,-1,1448,1345,0,0
231,-321,0,0,0,0,0,0,0,0,0,-1,1455,1345,0,0
238,-321,0,0,0,0,0,0,0,0,0,-1,1462,1345,0,0
245,-321,0,0,0,0,0,0,0,0,0,-1,1469,1345,0,0
252,-321,0,0,0,0,0,0,0,0,0,-1,1476,1345,0,0
259,-321,0,0,0,0,0,0,0,0,0,-1,1483,1345,0,0
266,-321,0,0,0,0,0,0,0,0,0,-1,1490,1345,0,0
273,-321,0,0,0,0,0,0,0,0,0,-1,1497,1345,0,0
280,-321,0,0,0,0,0,0,0,0,0,-1,1504,1345,0,0
287,-321,0,0,0,0,0,0,0,0,0,-1,1511,1345,0,0
294,-321,0,0,0,0,0,0,0,0,0,-1,1518,1345,0,0
301,-321,0,0,0,0,0,0,0,0,0,-1,1525,1345,0,0
308,-321,0,0,0,0,0,0,0,0,0,-1,1532,1345,0,0
315,-321,0,0,0,0,0,0,0,0,0,-1,1539,1345,0,0
322,-321,0,0,0,0,0,0,0,0,0,-1,1546,1345,0,0
329,-321,0,0,0,0,0,0,0,0,0,-1,1553,1345,0,0
336,-321,0,0,0,0,0,0,0,0,0,-1,1560,1345,0,0
343,-321,0,0,0,0,0,0,0,0,0,-1,1567,1345,0,0
350,-321,0,0,0,0,0,0,0,0,0,-1,1574,1345,0,0
357,-321,0,0,0,0,0,0,0,0,0,-1,1581,1345,0,0
364,-321,0,0,0,0,0,0,0,0,0,-1,1588,1345,0,0
371,-321,0,0,0,0,0,0,0,0,0,-1,1595,1345,0,0
378,-321,0,0,0,0,0,0,0,0,0,-1,1602,1345,0,0
385,-321,0,0,0,0,0,0,0,0,0,-1,1609,1345,0,0
392,-321,0,0,0,0,0,0,0,0,0,-1,1616,1345,0,0
399,-321,0,0,0,0,0,0,0,0,0,-1,1623,1345,0,0
406,-321,0,0,0,0,0,0,0,0,0,-1,1630,1345,0,0
413,-321,0,0,0,0,0,0,0,0,0,-1,1637,1345,0,0
420,-321,0,0,0,0,0,0,0,0,0,-1,1644,1345,0,0
427,-321,0,0,0,0,0,0,0,0,0,-1,1651,1345,0,0
434,-321,0,0,0,0,0,0,0,0,0,-1,1658,1345,0,0
441,-321,0,0,0,0,0,0,0,0,0,-1,1665,1345,0,0
448,-321,0,0,0,0,0,0,0,0,0,-1,1672,1345,0,0
455,-321,0,0,0,0,0,0,0,0,0,-1,1679,1345,0,0
462,-321,0,0,0,0,0,0,0,0,0,-1,1686,1345,0,0
469,-321,0,0,0,0,0,0,0,0,0,-1,1693,1345,0,0
476,-321,0,0,0,0,0,0,0,0,0,-1,1700,1345,0,0
483,-321,0,0,0,0,0,0,0,0,0,-1,1707,1345,0,0
490,-321,0,0,0,0,0,0,0,0,0,-1,1714,1345,0,0
497,-321,0,0,0,0,0,0,0,0,0,-1,1721,1345,0,0
504,-321,0,0,0,0,0,0,0,0,0,-1,1728,1345,0,0
511,-321,0,0,0,0,0,0,0,0,0,-1,1735,1345,0,0
518,-321,0,0,0,0,0,0,0,0,0,-1,1742,1345,0,0
525,-321,0,0,0,0,0,0,0,0,0,-1,1749,1345,0,0
532,-321,0,0,0,0,0,0,0,0,0,-1,1756,1345,0,0
539,-321,0,0,0,0,0,0,0,0,0,-1,1763,1345,0,0
546,-321,0,0,0,0,0,0,0,0,0,-1,1770,1345,0,0
553,-321,0,0,0,0,0,0,0,0,0,-1,1777,1345,0,0
560,-321,0,0,0,0,0,0,0,0,0,-1,1784,1345,0,0
567,-321,0,0,0,0,0,0,0,0,0,-1,1791,1345,0,0
574,-321,0,0,0,0,0,0,0,0,0,-1,1798,1345,0,0
581,-321,3.33765,4.27368,0,0,0,0,0,0,0,-1,1805,1345,3.3376,-4.27365
588,-321,5.91479,4.70264,0,0,0,0,0,0,0,-1,1812,1345,5.91477,-4.70264
595,-321,4.58374,4.18213,0,0,0,0,0,0,0,-1,1819,1345,4.58378,-4.18215
602,-321,1.32666,1.55334,0,0,0,0,0,0,0,-1,1826,1345,1.3266,-1.55336
609,-321,1.95337,1.32568,0.0366307,-0.0129605,0.0111996,0.0390427,-0.0153725,0.212124,0.0323922,0.0476388,1833,1345,1.95335,-1.3257
616,-321,2.75403,1.11084,0.0367277,-0.0123036,0.0124406,0.0397036,-0.0152795,0.234796,0.0327719,0.044651,1840,1345,2.75404,-1.11088
623,-321,3.4248,0.542847,0.0348788,-0.0108264,0.0126094,0.0381268,-0.0140743,0.252102,0.0311865,0.0477558,1847,1345,3.42486,-0.542814
630,-321,5.41528,2.70337,0.0312254,-0.00922363,0.011657,0.0343443,-0.0123426,0.261435,0.0279346,0.0469169,1854,1345,5.41527,-2.7034
637,-321,5.98059,2.83594,0.0266621,-0.00773284,0.0102915,0.0295063,-0.010577,0.269633,0.0239869,0.0438826,1861,1345,5.98059,-2.83592
644,-321,6.5835,3.14355,0,0,0,0,0,0,0,-1,1868,1345,6.58349,-3.14356
651,-321,3.66077,1.14136,0.016825,-0.00495809,0.00676006,0.0187524,-0.00688544,0.27774,0.0153214,0.0360835,1875,1345,3.66081,-1.14138
658,-321,3.57336,0.999512,0.0129801,-0.00367274,0.00527086,0.0145081,-0.00520083,0.282177,0.0117943,0.0171903,1882,1345,3.57339,-0.999507
665,-321,3.55261,0.9823,0.00906597,-0.00279574,0.00349299,0.0100181,-0.00374791,0.266129,0.00821806,0.0137307,1889,1345,3.55256,-0.982315
672,-321,3.55359,0.971436,0.00554061,-0.00185803,0.00270067,0.00642153,-0.00273895,0.315304,0.00542939,0.0122413,1896,1345,3.55358,-0.97141
679,-321,3.55054,0.938843,0.00211918,-0.000680812,0.00163639,0.00287273,-0.00143436,0.431547,0.0025325,0.0103955,1903,1345,3.55055,-0.938812
686,-321,3.53162,0.914673,0.000129274,-0.000680155,0.000530997,0.000392206,-0.000943087,0.459773,0.000792499,0.0106164,1910,1345,3.53161,-0.914705
693,-321,3.51965,0.88562,-0.000289269,0.0002884,-0.000159252,0.000329394,-0.000330263,-1.31885,0.000380853,0.0110362,1917,1345,3.51966,-0.885617
700,-321,3.53333,0.815796,-0.000282595,0.000718698,-0.00127653,0.00158924,-0.00115314,-0.972278,0.00158998,0.0114613,1924,1345,3.5333,-0.815774
707,-321,3.55957,0.775635,0.000126783,0.0015364,-0.00193836,0.00289411,-0.00123093,-0.959772,0.00244527,0.0131193,1931,1345,3.55956,-0.775695
714,-321,3.54395,0.769409,0.000721674,0.00415077,-0.00234599,0.00534196,-0.000469521,-1.10096,0.00372768,0.0118546,1938,1345,3.54394,-0.769352
721,-321,3.49817,0.751953,0.00148166,0.00634924,-0.00319653,0.00793306,-0.000102154,-1.11077,0.00532308,0.0141986,1945,1345,3.49813,-0.75199
728,-321,3.53149,0.753662,0.00246009,0.00951237,-0.00409921,0.0113934,0.000579092,-1.14059,0.0074101,0.0241076,1952,1345,3.53144,-0.753611
735,-321,3.63806,0.616699,0.00371342,0.0139737,-0.00493534,0.0159622,0.00172485,-1.18777,0.0101157,0.040192,1959,1345,3.63804,-0.616736
742,-321,3.58008,0.176514,0.00526087,0.0201457,-0.00549666,0.0219555,0.00345111,-1.25273,0.013633,0.0455828,1966,1345,3.58008,-0.17655
749,-321,3.51575,-0.452637,0.00708662,0.0285702,-0.00546197,0.0298791,0.00577772,-1.33559,0.0183001,0.0435663,1973,1345,3.51574,0.452635
756,-321,3.48926,-0.727051,0.00916544,0.0400442,-0.00430486,0.0406332,0.00857652,-1.43484,0.0247307,0.0427389,1980,1345,3.48931,0.727032
763,-321,3.30457,-0.97876,0.0114513,0.0558884,-0.00104013,0.0559127,0.011427,-1.54741,0.0341102,0.0474768,1987,1345,3.30451,0.97881
770,-321,0,0,0,0,0,0,0,0,0,-1,1994,1345,0,0
777,-321,0,0,0,0,0,0,0,0,0,-1,2001,1345,0,0
784,-321,0,0,0,0,0,0,0,0,0,-1,2008,1345,0,0
791,-321,0,0,0,0,0,0,0,0,0,-1,2015,1345,0,0
798,-321,0,0,0,0,0,0,0,0,0,-1,2022,1345,0,0
805,-321,0,0,0,0,0,0,0,0,0,-1,2029,1345,0,0
812,-321,0,0,0,0,0,0,0,0,0,-1,2036,1345,0,0
-700,-328,0,0,0,0,0,0,0,0,0,-1,524,1352,0,0
-693,-328,0,0,0,0,0,0,0,0,0,-1,531,1352,0,0
-686,-328,0,0,0,0,0,0,0,0,0,-1,538,1352,0,0
-679,-328,0,0,0,0,0,0,0,0,0,-1,545,1352,0,0
-672,-328,0,0,0,0,0,0,0,0,0,-1,552,1352,0,0
-665,-328,0,0,0,0,0,0,0,0,0,-1,559,1352,0,0
-658,-328,0,0,0,0,0,0,0,0,0,-1,566,1352,0,0
-651,-328,0,0,0,0,0,0,0,0,0,-1,573,1352,0,0
-644,-328,0,0,0,0,0,0,0,0,0,-1,580,1352,0,0
-637,-328,0.0372925,-0.533936,0.0502989,0.0699428,0.0310601,0.0926969,0.0275448,0.938535,0.0549671,0.0452062,587,1352,0.0372629,0.533957
-630,-328,-0.0529175,-0.249634,0.0430103,0.0606185,0.0243653,0.0777215,0.0259073,0.958768,0.045696,0.0464398,594,1352,-0.0528926,0.249595
-623,-328,0.0432739,-0.135742,0.036434,0.0515004,0.0190841,0.0644843,0.0234501,0.973379,0.0376886,0.0463609,601,1352,0.0432678,0.13571
-616,-328,0.190125,-0.294556,0.0305267,0.0428439,0.0148341,0.052747,0.0206236,0.982153,0.0306938,0.0434706,608,1352,0.190133,0.294572
-609,-328,0.22876,-0.116455,0,0,0,0,0,0,0,-1,615,1352,0.228768,0.116481
-602,-328,0.0658569,0.307861,0,0,0,0,0,0,0,-1,622,1352,0.0658365,-0.307838
-595,-328,-0.159912,0.560791,0.0164364,0.0213383,0.00664206,0.0259672,0.0118075,0.96215,0.0150126,0.0386239,629,1352,-0.159915,-0.560764
-588,-328,0.116089,0.746094,0.0121719,0.0154112,0.00387527,0.0179917,0.00959142,0.983341,0.0103951,0.0215285,636,1352,0.116082,-0.746135
-581,-328,0.132141,0.838379,0.0089832,0.0111757,0.00250576,0.0128145,0.00734439,0.991604,0.00742481,0.01157,643,1352,0.132136,-0.838408
-574,-328,0.127747,0.856445,0.00651858,0.00731463,0.00185039,0.00880932,0.00502388,0.891335,0.00510279,0.0139981,650,1352,0.127749,-0.856497
-567,-328,0.153198,0.886108,0.00411519,0.00469553,0.00132413,0.00576092,0.00304981,0.893264,0.00332798,0.0179854,657,1352,0.153211,-0.886087
-560,-328,0.161438,0.932983,0.00281815,0.00324749,0.000132913,0.0032853,0.00278034,1.2936,0.00204279,0.0250208,664,1352,0.161462,-0.932968
-553,-328,0.154175,0.938843,0.00252833,0.0016726,-0.00112577,0.0033048,0.000896126,-0.603796,0.00197352,0.0274375,671,1352,0.154173,-0.938817
-546,-328,0.0921021,0.970215,0.0031415,0.000486491,-0.00240312,0.0045594,-0.000931413,-0.533053,0.00339296,0.0259612,678,1352,0.0920721,-0.970197
-539,-328,0.0740356,1.02502,0.00385129,2.11076e-05,-0.00369738,0.00610012,-0.00222772,-0.546443,0.00497833,0.0218201,685,1352,0.0740532,-1.02508
-532,-328,0.124939,1.04871,0.00470628,-0.000434263,-0.0044102,0.00724053,-0.00296852,-0.52156,0.00606377,0.0152458,692,1352,0.124926,-1.04867
-525,-328,0.146667,1.05042,0.00684069,5.361e-05,-0.00549932,0.00990925,-0.00301494,-0.508955,0.00780766,0.0105649,699,1352,0.146652,-1.05037
-518,-328,0.127563,1.078,0.0109437,0.00322542,-0.0073765,0.0154096,-0.00124044,-0.544393,0.0107105,0.0241427,706,1352,0.127539,-1.07799
-511,-328,-0.0853882,1.15051,0.0149826,0.00575964,-0.00910351,0.020576,0.000166232,-0.550957,0.0136623,0.0380171,713,1352,-0.0854023,-1.15048
-504,-328,0.511902,0.218384,0.019079,0.00912545,-0.0103757,0.0256097,0.00259471,-0.561777,0.0162773,0.0462813,720,1352,0.511928,-0.218333
-497,-328,0.639343,-0.0268555,0.023417,0.0144056,-0.0116175,0.031372,0.00645061,-0.600408,0.0191305,0.046545,727,1352,0.639342,0.0269152
-490,-328,0.644531,-0.814697,0.0276373,0.0220779,-0.0134337,0.0385758,0.0111394,-0.683378,0.0229247,0.0466886,734,1352,0.644534,0.814743
-483,-328,0.852051,-1.49927,0,0,0,0,0,0,0,-1,741,1352,0.852064,1.49922
-476,-328,1.38251,-0.611816,0,0,0,0,0,0,0,-1,748,1352,1.3825,0.611789
-469,-328,1.72437,-1.70166,0.0359148,0.0573094,-0.0201318,0.0694094,0.0238147,-1.02961,0.0407259,0.0482787,755,1352,1.72434,1.70169
-462,-328,2.44,-2.88416,0.0344497,0.0734404,-0.0228629,0.0839914,0.0238987,-1.13843,0.0499707,0.0497224,762,1352,2.44,2.88412
-455,-328,0,0,0,0,0,0,0,0,0,-1,769,1352,0,0
-448,-328,0,0,0,0,0,0,0,0,0,-1,776,1352,0,0
-441,-328,0,0,0,0,0,0,0,0,0,-1,783,1352,0,0
-434,-328,0,0,0,0,0,0,0,0,0,-1,790,1352,0,0
-427,-328,0,0,0,0,0,0,0,0,0,-1,797,1352,0,0
-420,-328,0,0,0,0,0,0,0,0,0,-1,804,1352,0,0
-413,-328,0,0,0,0,0,0,0,0,0,-1,811,1352,0,0
-406,-328,0,0,0,0,0,0,0,0,0,-1,818,1352,0,0
-399,-328,0,0,0,0,0,0,0,0,0,-1,825,1352,0,0
-392,-328,0,0,0,0,0,0,0,0,0,-1,832,1352,0,0
-385,-328,0,0,0,0,0,0,0,0,0,-1,839,1352,0,0
-378,-328,0,0,0,0,0,0,0,0,0,-1,846,1352,0,0
-371,-328,0,0,0,0,0,0,0,0,0,-1,853,1352,0,0
-364,-328,0,0,0,0,0,0,0,0,0,-1,860,1352,0,0
-357,-328,0,0,0,0,0,0,0,0,0,-1,867,1352,0,0
-350,-328,0,0,0,0,0,0,0,0,0,-1,874,1352,0,0
-343,-328,0,0,0,0,0,0,0,0,0,-1,881,1352,0,0
-336,-328,0,0,0,0,0,0,0,0,0,-1,888,1352,0,0
-329,-328,0,0,0,0,0,0,0,0,0,-1,895,1352,0,0
-322,-328,0,0,0,0,0,0,0,0,0,-1,902,1352,0,0
-315,-328,0,0,0,0,0,0,0,0,0,-1,909,1352,0,0
-308,-328,0,0,0,0,0,0,0,0,0,-1,916,1352,0,0
-301,-328,0,0,0,0,0,0,0,0,0,-1,923,1352,0,0
-294,-328,0,0,0,0,0,0,0,0,0,-1,930,1352,0,0
-287,-328,0,0,0,0,0,0,0,0,0,-1,937,1352,0,0
-280,-328,0,0,0,0,0,0,0,0,0,-1,944,1352,0,0
-273,-328,0,0,0,0,0,0,0,0,0,-1,951,1352,0,0
-266,-328,0,0,0,0,0,0,0,0,0,-1,958,1352,0,0
-259,-328,0,0,0,0,0,0,0,0,0,-1,965,1352,0,0
-252,-328,0,0,0,0,0,0,0,0,0,-1,972,1352,0,0
-245,-328,0,0,0,0,0,0,0,0,0,-1,979,1352,0,0
-238,-328,0,0,0,0,0,0,0,0,0,-1,986,1352,0,0
-231,-328,0,0,0,0,0,0,0,0,0,-1,993,1352,0,0
-224,-328,0,0,0,0,0,0,0,0,0,-1,1000,1352,0,0
-217,-328,0,0,0,0,0,0,0,0,0,-1,1007,1352,0,0
-210,-328,0,0,0,0,0,0,0,0,0,-1,1014,1352,0,0
-203,-328,0,0,0,0,0,0,0,0,0,-1,1021,1352,0,0
-196,-328,0,0,0,0,0,0,0,0,0,-1,1028,1352,0,0
-189,-328,0,0,0,0,0,0,0,0,0,-1,1035,1352,0,0
-182,-328,0,0,0,0,0,0,0,0,0,-1,1042,1352,0,0
-175,-328,0,0,0,0,0,0,0,0,0,-1,1049,1352,0,0
-168,-328,0,0,0,0,0,0,0,0,0,-1,1056,1352,0,0
-161,-328,0,0,0,0,0,0,0,0,0,-1,1063,1352,0,0
-154,-328,0,0,0,0,0,0,0,0,0,-1,1070,1352,0,0
-147,-328,0,0,0,0,0,0,0,0,0,-1,1077,1352,0,0
-140,-328,0,0,0,0,0,0,0,0,0,-1,1084,1352,0,0
-133,-328,0,0,0,0,0,0,0,0,0,-1,1091,1352,0,0
-126,-328,0,0,0,0,0,0,0,0,0,-1,1098,1352,0,0
-119,-328,0,0,0,0,0,0,0,0,0,-1,1105,1352,0,0
-112,-328,0,0,0,0,0,0,0,0,0,-1,1112,1352,0,0
-105,-328,0,0,0,0,0,0,0,0,0,-1,1119,1352,0,0
-98,-328,0,0,0,0,0,0,0,0,0,-1,1126,1352,0,0
-91,-328,0,0,0,0,0,0,0,0,0,-1,1133,1352,0,0
-84,-328,0,0,0,0,0,0,0,0,0,-1,1140,1352,0,0
-77,-328,0,0,0,0,0,0,0,0,0,-1,1147,1352,0,0
-70,-328,0,0,0,0,0,0,0,0,0,-1,1154,1352,0,0
-63,-328,0,0,0,0,0,0,0,0,0,-1,1161,1352,0,0
-56,-328,0,0,0,0,0,0,0,0,0,-1,1168,1352,0,0
-49,-328,0,0,0,0,0,0,0,0,0,-1,1175,1352,0,0
-42,-328,0,0,0,0,0,0,0,0,0,-1,1182,1352,0,0
-35,-328,0,0,0,0,0,0,0,0,0,-1,1189,1352,0,0
-28,-328,0,0,0,0,0,0,0,0,0,-1,1196,1352,0,0
-21,-328,0,0,0,0,0,0,0,0,0,-1,1203,1352,0,0
-14,-328,0,0,0,0,0,0,0,0,0,-1,1210,1352,0,0
-7,-328,0,0,0,0,0,0,0,0,0,-1,1217,1352,0,0
0,-328,0,0,0,0,0,0,0,0,0,-1,1224,1352,0,0
7,-328,0,0,0,0,0,0,0,0,0,-1,1231,1352,0,0
14,-328,0,0,0,0,0,0,0,0,0,-1,1238,1352,0,0
21,-328,0,0,0,0,0,0,0,0,0,-1,1245,1352,0,0
28,-328,0,0,0,0,0,0,0,0,0,-1,1252,1352,0,0
35,-328,0,0,0,0,0,0,0,0,0,-1,1259,1352,0,0
42,-328,0,0,0,0,0,0,0,0,0,-1,1266,1352,0,0
49,-328,0,0,0,0,0,0,0,0,0,-1,1273,1352,0,0
56,-328,0,0,0,0,0,0,0,0,0,-1,1280,1352,0,0
63,-328,0,0,0,0,0,0,0,0,0,-1,1287,1352,0,0
70,-328,0,0,0,0,0,0,0,0,0,-1,1294,1352,0,0
77,-328,0,0,0,0,0,0,0,0,0,-1,1301,1352,0,0
84,-328,0,0,0,0,0,0,0,0,0,-1,1308,1352,0,0
91,-328,0,0,0,0,0,0,0,0,0,-1,1315,1352,0,0
98,-328,0,0,0,0,0,0,0,0,0,-1,1322,1352,0,0
105,-328,0,0,0,0,0,0,0,0,0,-1,1329,1352,0,0
112,-328,0,0,0,0,0,0,0,0,0,-1,1336,1352,0,0
119,-328,0,0,0,0,0,0,0,0,0,-1,1343,1352,0,0
126,-328,0,0,0,0,0,0,0,0,0,-1,1350,1352,0,0
133,-328,0,0,0,0,0,0,0,0,0,-1,1357,1352,0,0
140,-328,0,0,0,0,0,0,0,0,0,-1,1364,1352,0,0
147,-328,0,0,0,0,0,0,0,0,0,-1,1371,1352,0,0
154,-328,0,0,0,0,0,0,0,0,0,-1,1378,1352,0,0
161,-328,0,0,0,0,0,0,0,0,0,-1,1385,1352,0,0
168,-328,0,0,0,0,0,0,0,0,0,-1,1392,1352,0,0
175,-328,0,0,0,0,0,0,0,0,0,-1,1399,1352,0,0
182,-328,0,0,0,0,0,0,0,0,0,-1,1406,1352,0,0
189,-328,0,0,0,0,0,0,0,0,0,-1,1413,1352,0,0
196,-328,0,0,0,0,0,0,0,0,0,-1,1420,1352,0,0
203,-328,0,0,0,0,0,0,0,0,0,-1,1427,1352,0,0
210,-328,0,0,0,0,0,0,0,0,0,-1,1434,1352,0,0
217,-328,0,0,0,0,0,0,0,0,0,-1,1441,1352,0,0
224,-328,0,0,0,0,0,0,0,0,0,-1,1448,1352,0,0
231,-328,0,0,0,0,0,0,0,0,0,-1,1455,1352,0,0
238,-328,0,0,0,0,0,0,0,0,0,-1,1462,1352,0,0
245,-328,0,0,0,0,0,0,0,0,0,-1,1469,1352,0,0
252,-328,0,0,0,0,0,0,0,0,0,-1,1476,1352,0,0
259,-328,0,0,0,0,0,0,0,0,0,-1,1483,1352,0,0
266,-328,0,0,0,0,0,0,0,0,0,-1,1490,1352,0,0
273,-328,0,0,0,0,0,0,0,0,0,-1,1497,1352,0,0
280,-328,0,0,0,0,0,0,0,0,0,-1,1504,1352,0,0
287,-328,0,0,0,0,0,0,0,0,0,-1,1511,1352,0,0
294,-328,0,0,0,0,0,0,0,0,0,-1,1518,1352,0,0
301,-328,0,0,0,0,0,0,0,0,0,-1,1525,1352,0,0
308,-328,0,0,0,0,0,0,0,0,0,-1,1532,1352,0,0
315,-328,0,0,0,0,0,0,0,0,0,-1,1539,1352,0,0
322,-328,0,0,0,0,0,0,0,0,0,-1,1546,1352,0,0
329,-328,0,0,0,0,0,0,0,0,0,-1,1553,1352,0,0
336,-328,0,0,0,0,0,0,0,0,0,-1,1560,1352,0,0
343,-328,0,0,0,0,0,0,0,0,0,-1,1567,1352,0,0
350,-328,0,0,0,0,0,0,0,0,0,-1,1574,1352,0,0
357,-328,0,0,0,0,0,0,0,0,0,-1,1581,1352,0,0
364,-328,0,0,0,0,0,0,0,0,0,-1,1588,1352,0,0
371,-328,0,0,0,0,0,0,0,0,0,-1,1595,1352,0,0
378,-328,0,0,0,0,0,0,0,0,0,-1,1602,1352,0,0
385,-328,0,0,0,0,0,0,0,0,0,-1,1609,1352,0,0
392,-328,0,0,0,0,0,0,0,0,0,-1,1616,1352,0,0
399,-328,0,0,0,0,0,0,0,0,0,-1,1623,1352,0,0
406,-328,0,0,0,0,0,0,0,0,0,-1,1630,1352,0,0
413,-328,0,0,0,0,0,0,0,0,0,-1,1637,1352,0,0
420,-328,0,0,0,0,0,0,0,0,0,-1,1644,1352,0,0
427,-328,0,0,0,0,0,0,0,0,0,-1,1651,1352,0,0
434,-328,0,0,0,0,0,0,0,0,0,-1,1658,1352,0,0
441,-328,0,0,0,0,0,0,0,0,0,-1,1665,1352,0,0
448,-328,0,0,0,0,0,0,0,0,0,-1,1672,1352,0,0
455,-328,0,0,0,0,0,0,0,0,0,-1,1679,1352,0,0
462,-328,0,0,0,0,0,0,0,0,0,-1,1686,1352,0,0
469,-328,0,0,0,0,0,0,0,0,0,-1,1693,1352,0,0
476,-328,0,0,0,0,0,0,0,0,0,-1,1700,1352,0,0
483,-328,0,0,0,0,0,0,0,0,0,-1,1707,1352,0,0
490,-328,0,0,0,0,0,0,0,0,0,-1,1714,1352,0,0
497,-328,0,0,0,0,0,0,0,0,0,-1,1721,1352,0,0
504,-328,0,0,0,0,0,0,0,0,0,-1,1728,1352,0,0
511,-328,0,0,0,0,0,0,0,0,0,-1,1735,1352,0,0
518,-328,0,0,0,0,0,0,0,0,0,-1,1742,1352,0,0
525,-328,0,0,0,0,0,0,0,0,0,-1,1749,1352,0,0
532,-328,0,0,0,0,0,0,0,0,0,-1,1756,1352,0,0
539,-328,0,0,0,0,0,0,0,0,0,-1,1763,1352,0,0
546,-328,0,0,0,0,0,0,0,0,0,-1,1770,1352,0,0
553,-328,0,0,0,0,0,0,0,0,0,-1,1777,1352,0,0
560,-328,0,0,0,0,0,0,0,0,0,-1,1784,1352,0,0
567,-328,0,0,0,0,0,0,0,0,0,-1,1791,1352,0,0
574,-328,4.00916,3.68994,0,0,0,0,0,0,0,-1,1798,1352,4.00912,-3.68992
581,-328,4.04382,3.56311,0,0,0,0,0,0,0,-1,1805,1352,4.04383,-3.56312
588,-328,5.41003,4.7511,0,0,0,0,0,0,0,-1,1812,1352,5.40998,-4.75113
595,-328,4.8916,3.79236,0,0,0,0,0,0,0,-1,1819,1352,4.89156,-3.79235
602,-328,4.38696,2.9491,0,0,0,0,0,0,0,-1,1826,1352,4.38698,-2.94911
609,-328,3.9552,2.03992,0,0,0,0,0,0,0,-1,1833,1352,3.95516,-2.03993
616,-328,3.89221,1.76306,0.0376078,-0.0111272,0.0106401,0.0398295,-0.0133489,0.205848,0.0319462,0.0476085,1840,1352,3.89226,-1.76303
623,-328,3.37781,1.71289,0.0309456,-0.00942656,0.0106171,0.0335674,-0.0120484,0.242101,0.0272957,0.0467529,1847,1352,3.3778,-1.71289
630,-328,3.48755,1.61707,0.0275504,-0.0077781,0.00996832,0.030169,-0.0103967,0.256886,0.0243303,0.0450289,1854,1352,3.48753,-1.61709
637,-328,6.32617,3.56299,0,0,0,0,0,0,0,-1,1861,1352,6.32616,-3.56297
644,-328,3.59583,1.25317,0.0189423,-0.00483043,0.00731215,0.0210113,-0.00689946,0.27575,0.0167868,0.0407543,1868,1352,3.59581,-1.25312
651,-328,3.56921,1.09277,0.0146007,-0.00374106,0.00566269,0.0162081,-0.00534845,0.276581,0.0129614,0.0260014,1875,1352,3.56919,-1.09272
658,-328,3.52039,1.02148,0.0112226,-0.00259903,0.00436847,0.0124875,-0.00386397,0.281852,0.00986848,0.0143113,1882,1352,3.52037,-1.02148
665,-328,3.51306,0.990234,0.00772787,-0.00191139,0.00276572,0.00846504,-0.00264856,0.260483,0.00670297,0.0131753,1889,1352,3.51302,-0.990186
672,-328,3.50159,0.970947,0.00461492,-0.00109071,0.00209091,0.00529912,-0.00177491,0.316243,0.00424978,0.011633,1896,1352,3.50161,-0.970929
679,-328,3.5072,0.930908,0.00161871,1.22751e-05,0.00116266,0.00222862,-0.000597638,0.483121,0.00171992,0.0132629,1903,1352,3.50716,-0.930902
686,-328,3.49353,0.89563,-0.000170053,-0.000103214,0.000171701,3.82895e-05,-0.000311557,0.881516,0.000221573,0.0118003,1910,1352,3.49348,-0.89564
693,-328,3.49585,0.874512,-0.00061747,0.000778595,-0.000516086,0.000948661,-0.000787536,-1.25247,0.00100383,0.00842299,1917,1352,3.49586,-0.874571
700,-328,3.50195,0.825195,-0.000625065,0.00123498,-0.00160096,0.00215645,-0.00154653,-1.04853,0.00214756,0.0124988,1924,1352,3.50194,-0.825165
707,-328,3.51941,0.783203,-0.00033694,0.00210945,-0.0024235,0.00360094,-0.00182844,-1.01911,0.00318985,0.014648,1931,1352,3.51939,-0.783193
714,-328,3.52209,0.769531,9.72418e-05,0.00470871,-0.00306112,0.00623532,-0.00142937,-1.10818,0.00470626,0.0125283,1938,1352,3.52215,-0.76947
721,-328,3.46936,0.755005,0.000675918,0.00699211,-0.00426499,0.00914097,-0.00147294,-1.10408,0.00663964,0.0201155,1945,1352,3.4694,-0.754993
728,-328,3.46729,0.798584,0.00145039,0.0102189,-0.00567143,0.0130031,-0.00133381,-1.11444,0.00914582,0.0363987,1952,1352,3.46734,-0.798621
735,-328,3.50171,1.00757,0.00244399,0.0146709,-0.0072048,0.0180065,-0.000891538,-1.13722,0.0123123,0.0446273,1959,1352,3.50172,-1.00754
742,-328,3.39685,0.127686,0.00364171,0.0206867,-0.00870808,0.0243487,-2.0355e-05,-1.17271,0.0162393,0.0485086,1966,1352,3.39684,-0.127734
749,-328,3.44116,-0.500366,0.00499034,0.0286944,-0.00993672,0.0323088,0.00137599,-1.22194,0.0210955,0.042792,1973,1352,3.44116,0.500405
756,-328,3.37708,-1.13464,0.00642801,0.0393206,-0.0104494,0.0423595,0.00338915,-1.28779,0.0271804,0.0453023,1980,1352,3.3771,1.13468
763,-328,0,0,0,0,0,0,0,0,0,-1,1987,1352,0,0
770,-328,0,0,0,0,0,0,0,0,0,-1,1994,1352,0,0
777,-328,0,0,0,0,0,0,0,0,0,-1,2001,1352,0,0
784,-328,0,0,0,0,0,0,0,0,0,-1,2008,1352,0,0
791,-328,0,0,0,0,0,0,0,0,0,-1,2015,1352,0,0
798,-328,0,0,0,0,0,0,0,0,0,-1,2022,1352,0,0
805,-328,0,0,0,0,0,0,0,0,0,-1,2029,1352,0,0
812,-328,0,0,0,0,0,0,0,0,0,-1,2036,1352,0,0
-700,-335,0,0,0,0,0,0,0,0,0,-1,524,1359,0,0
-693,-335,0,0,0,0,0,0,0,0,0,-1,531,1359,0,0
-686,-335,0,0,0,0,0,0,0,0,0,-1,538,1359,0,0
-679,-335,0,0,0,0,0,0,0,0,0,-1,545,1359,0,0
-672,-335,0,0,0,0,0,0,0,0,0,-1,552,1359,0,0
-665,-335,0,0,0,0,0,0,0,0,0,-1,559,1359,0,0
-658,-335,0,0,0,0,0,0,0,0,0,-1,566,1359,0,0
-651,-335,0,0,0,0,0,0,0,0,0,-1,573,1359,0,0
-644,-335,0,0,0,0,0,0,0,0,0,-1,580,1359,0,0
-637,-335,0.115356,-0.960327,0.0563387,0.0735317,0.028442,0.094648,0.0352224,0.932157,0.0552374,0.0457061,587,1359,0.11534,0.960329
-630,-335,0.198608,-0.816162,0.0486708,0.0633176,0.0213931,0.0786061,0.0333823,0.950309,0.0455546,0.0472296,594,1359,0.198596,0.81611
-623,-335,0.344116,-0.840332,0.0416368,0.053615,0.0162632,0.0649569,0.030295,0.961823,0.0375311,0.0456898,601,1359,0.344134,0.840333
-616,-335,0.391357,-0.334473,0,0,0,0,0,0,0,-1,608,1359,0.391361,0.334516
-609,-335,0.462708,0.389648,0,0,0,0,0,0,0,-1,615,1359,0.462703,-0.389645
-602,-335,-0.601807,0.399292,0,0,0,0,0,0,0,-1,622,1359,-0.601779,-0.399313
-595,-335,-0.282715,0.695313,0.0193056,0.0223943,0.00554742,0.0266083,0.0150916,0.921155,0.0154085,0.0421581,629,1359,-0.282712,-0.695344
-588,-335,0.153809,0.785522,0.014587,0.0164934,0.00327719,0.0189532,0.0121272,0.926923,0.0110844,0.0279062,636,1359,0.153825,-0.785527
-581,-335,0.180054,0.797363,0.0109559,0.0121064,0.00226238,0.0138655,0.00919677,0.909888,0.00814629,0.0130021,643,1359,0.180077,-0.797362
-574,-335,0.178223,0.848267,0.00800966,0.00814418,0.00187539,0.00995352,0.00620033,0.803323,0.00580427,0.0114417,650,1359,0.178232,-0.848235
-567,-335,0.200256,0.883545,0.00491521,0.0052682,0.00163696,0.00673816,0.00344526,0.839099,0.00389061,0.0150503,657,1359,0.200249,-0.883488
-560,-335,0.222961,0.8573,0.00299134,0.00353284,0.000751836,0.00406119,0.00246299,0.958229,0.00236238,0.0209348,664,1359,0.222986,-0.85731
-553,-335,0.170593,0.854858,0.00218145,0.00168361,-0.000192106,0.00224696,0.0016181,-0.32864,0.00133854,0.023005,671,1359,0.170584,-0.854878
-546,-335,0.145386,0.908936,0.00239072,0.000157045,-0.00129389,0.00298311,-0.000435352,-0.429355,0.00214861,0.0224187,678,1359,0.145366,-0.908946
-539,-335,0.157288,1.00781,0.00267458,-0.000774878,-0.00247729,0.0039684,-0.0020687,-0.481308,0.00354258,0.0185026,685,1359,0.157291,-1.00778
-532,-335,0.159546,1.05823,0.00326475,-0.00185389,-0.00312273,0.00474295,-0.00333209,-0.442115,0.00468579,0.0140204,692,1359,0.159543,-1.05828
-525,-335,0.184998,1.0636,0.0053407,-0.00205675,-0.00417025,0.00721617,-0.00393221,-0.422625,0.00652894,0.00960538,699,1359,0.184993,-1.06362
-518,-335,0.176025,1.08459,0.0095748,0.000264308,-0.00607874,0.0125761,-0.00273697,-0.458622,0.00942972,0.012135,706,1359,0.176013,-1.0846
-511,-335,0.111877,1.06775,0.013749,0.00189359,-0.0079066,0.0177032,-0.00206062,-0.463739,0.0125455,0.0329653,713,1359,0.111854,-1.0678
-504,-335,-0.0238647,0.935791,0.0181056,0.00412748,-0.00933875,0.022781,-0.000547896,-0.464161,0.0153732,0.0473833,720,1359,-0.0238492,-0.935737
-497,-335,0.522949,0.145752,0.0228149,0.00820951,-0.0108112,0.0285587,0.00246566,-0.488362,0.0182728,0.046847,727,1359,0.522972,-0.145779
-490,-335,0.63324,-0.13269,0,0,0,0,0,0,0,-1,734,1359,0.633235,0.132675
-483,-335,0.731506,-1.39172,0,0,0,0,0,0,0,-1,741,1359,0.731476,1.39166
-476,-335,1.07349,-1.96411,0,0,0,0,0,0,0,-1,748,1359,1.07348,1.96406
-469,-335,2.09216,-2.5658,0,0,0,0,0,0,0,-1,755,1359,2.09218,2.56585
-462,-335,2.79181,-3.05579,0,0,0,0,0,0,0,-1,762,1359,2.79182,3.0558
-455,-335,3.58539,-4.01453,0,0,0,0,0,0,0,-1,769,1359,3.58537,4.01455
-448,-335,0,0,0,0,0,0,0,0,0,-1,776,1359,0,0
-441,-335,0,0,0,0,0,0,0,0,0,-1,783,1359,0,0
-434,-335,0,0,0,0,0,0,0,0,0,-1,790,1359,0,0
-427,-335,0,0,0,0,0,0,0,0,0,-1,797,1359,0,0
-420,-335,0,0,0,0,0,0,0,0,0,-1,804,1359,0,0
-413,-335,0,0,0,0,0,0,0,0,0,-1,811,1359,0,0
-406,-335,0,0,0,0,0,0,0,0,0,-1,818,1359,0,0
-399,-335,0,0,0,0,0,0,0,0,0,-1,825,1359,0,0
-392,-335,0,0,0,0,0,0,0,0,0,-1,832,1359,0,0
-385,-335,0,0,0,0,0,0,0,0,0,-1,839,1359,0,0
-378,-335,0,0,0,0,0,0,0,0,0,-1,846,1359,0,0
-371,-335,0,0,0,0,0,0,0,0,0,-1,853,1359,0,0
-364,-335,0,0,0,0,0,0,0,0,0,-1,860,1359,0,0
-357,-335,0,0,0,0,0,0,0,0,0,-1,867,1359,0,0
-350,-335,0,0,0,0,0,0,0,0,0,-1,874,1359,0,0
-343,-335,0,0,0,0,0,0,0,0,0,-1,881,1359,0,0
-336,-335,0,0,0,0,0,0,0,0,0,-1,888,1359,0,0
-329,-335,0,0,0,0,0,0,0,0,0,-1,895,1359,0,0
-322,-335,0,0,0,0,0,0,0,0,0,-1,902,1359,0,0
-315,-335,0,0,0,0,0,0,0,0,0,-1,909,1359,0,0
-308,-335,0,0,0,0,0,0,0,0,0,-1,916,1359,0,0
-301,-335,0,0,0,0,0,0,0,0,0,-1,923,1359,0,0
-294,-335,0,0,0,0,0,0,0,0,0,-1,930,1359,0,0
-287,-335,0,0,0,0,0,0,0,0,0,-1,937,1359,0,0
-280,-335,0,0,0,0,0,0,0,0,0,-1,944,1359,0,0
-273,-335,0,0,0,0,0,0,0,0,0,-1,951,1359,0,0
-266,-335,0,0,0,0,0,0,0,0,0,-1,958,1359,0,0
-259,-335,0,0,0,0,0,0,0,0,0,-1,965,1359,0,0
-252,-335,0,0,0,0,0,0,0,0,0,-1,972,1359,0,0
-245,-335,0,0,0,0,0,0,0,0,0,-1,979,1359,0,0
-238,-335,0,0,0,0,0,0,0,0,0,-1,986,1359,0,0
-231,-335,0,0,0,0,0,0,0,0,0,-1,993,1359,0,0
-224,-335,0,0,0,0,0,0,0,0,0,-1,1000,1359,0,0
-217,-335,0,0,0,0,0,0,0,0,0,-1,1007,1359,0,0
-210,-335,0,0,0,0,0,0,0,0,0,-1,1014,1359,0,0
-203,-335,0,0,0,0,0,0,0,0,0,-1,1021,1359,0,0
-196,-335,0,0,0,0,0,0,0,0,0,-1,1028,1359,0,0
-189,-335,0,0,0,0,0,0,0,0,0,-1,1035,1359,0,0
-182,-335,0,0,0,0,0,0,0,0,0,-1,1042,1359,0,0
-175,-335,0,0,0,0,0,0,0,0,0,-1,1049,1359,0,0
-168,-335,0,0,0,0,0,0,0,0,0,-1,1056,1359,0,0
-161,-335,0,0,0,0,0,0,0,0,0,-1,1063,1359,0,0
-154,-335,0,0,0,0,0,0,0,0,0,-1,1070,1359,0,0
-147,-335,0,0,0,0,0,0,0,0,0,-1,1077,1359,0,0
-140,-335,0,0,0,0,0,0,0,0,0,-1,1084,1359,0,0
-133,-335,0,0,0,0,0,0,0,0,0,-1,1091,1359,0,0
-126,-335,0,0,0,0,0,0,0,0,0,-1,1098,1359,0,0
-119,-335,0,0,0,0,0,0,0,0,0,-1,1105,1359,0,0
-112,-335,0,0,0,0,0,0,0,0,0,-1,1112,1359,0,0
-105,-335,0,0,0,0,0,0,0,0,0,-1,1119,1359,0,0
-98,-335,0,0,0,0,0,0,0,0,0,-1,1126,1359,0,0
-91,-335,0,0,0,0,0,0,0,0,0,-1,1133,1359,0,0
-84,-335,0,0,0,0,0,0,0,0,0,-1,1140,1359,0,0
-77,-335,0,0,0,0,0,0,0,0,0,-1,1147,1359,0,0
-70,-335,0,0,0,0,0,0,0,0,0,-1,1154,1359,0,0
-63,-335,0,0,0,0,0,0,0,0,0,-1,1161,1359,0,0
-56,-335,0,0,0,0,0,0,0,0,0,-1,1168,1359,0,0
-49,-335,0,0,0,0,0,0,0,0,0,-1,1175,1359,0,0
-42,-335,0,0,0,0,0,0,0,0,0,-1,1182,1359,0,0
-35,-335,0,0,0,0,0,0,0,0,0,-1,1189,1359,0,0
-28,-335,0,0,0,0,0,0,0,0,0,-1,1196,1359,0,0
-21,-335,0,0,0,0,0,0,0,0,0,-1,1203,1359,0,0
-14,-335,0,0,0,0,0,0,0,0,0,-1,1210,1359,0,0
-7,-335,0,0,0,0,0,0,0,0,0,-1,1217,1359,0,0
0,-335,0,0,0,0,0,0,0,0,0,-1,1224,1359,0,0
7,-335,0,0,0,0,0,0,0,0,0,-1,1231,1359,0,0
14,-335,0,0,0,0,0,0,0,0,0,-1,1238,1359,0,0
21,-335,0,0,0,0,0,0,0,0,0,-1,1245,1359,0,0
28,-335,0,0,0,0,0,0,0,0,0,-1,1252,1359,0,0
35,-335,0,0,0,0,0,0,0,0,0,-1,1259,1359,0,0
42,-335,0,0,0,0,0,0,0,0,0,-1,1266,1359,0,0
49,-335,0,0,0,0,0,0,0,0,0,-1,1273,1359,0,0
56,-335,0,0,0,0,0,0,0,0,0,-1,1280,1359,0,0
63,-335,0,0,0,0,0,0,0,0,0,-1,1287,1359,0,0
70,-335,0,0,0,0,0,0,0,0,0,-1,1294,1359,0,0
77,-335,0,0,0,0,0,0,0,0,0,-1,1301,1359,0,0
84,-335,0,0,0,0,0,0,0,0,0,-1,1308,1359,0,0
91,-335,0,0,0,0,0,0,0,0,0,-1,1315,1359,0,0
98,-335,0,0,0,0,0,0,0,0,0,-1,1322,1359,0,0
105,-335,0,0,0,0,0,0,0,0,0,-1,1329,1359,0,0
112,-335,0,0,0,0,0,0,0,0,0,-1,1336,1359,0,0
119,-335,0,0,0,0,0,0,0,0,0,-1,1343,1359,0,0
126,-335,0,0,0,0,0,0,0,0,0,-1,1350,1359,0,0
133,-335,0,0,0,0,0,0,0,0,0,-1,1357,1359,0,0
140,-335,0,0,0,0,0,0,0,0,0,-1,1364,1359,0,0
147,-335,0,0,0,0,0,0,0,0,0,-1,1371,1359,0,0
154,-335,0,0,0,0,0,0,0,0,0,-1,1378,1359,0,0
161,-335,0,0,0,0,0,0,0,0,0,-1,1385,1359,0,0
168,-335,0,0,0,0,0,0,0,0,0,-1,1392,1359,0,0
175,-335,0,0,0,0,0,0,0,0,0,-1,1399,1359,0,0
182,-335,0,0,0,0,0,0,0,0,0,-1,1406,1359,0,0
189,-335,0,0,0,0,0,0,0,0,0,-1,1413,1359,0,0
196,-335,0,0,0,0,0,0,0,0,0,-1,1420,1359,0,0
203,-335,0,0,0,0,0,0,0,0,0,-1,1427,1359,0,0
210,-335,0,0,0,0,0,0,0,0,0,-1,1434,1359,0,0
217,-335,0,0,0,0,0,0,0,0,0,-1,1441,1359,0,0
224,-335,0,0,0,0,0,0,0,0,0,-1,1448,1359,0,0
231,-335,0,0,0,0,0,0,0,0,0,-1,1455,1359,0,0
238,-335,0,0,0,0,0,0,0,0,0,-1,1462,1359,0,0
245,-335,0,0,0,0,0,0,0,0,0,-1,1469,1359,0,0
252,-335,0,0,0,0,0,0,0,0,0,-1,1476,1359,0,0
259,-335,0,0,0,0,0,0,0,0,0,-1,1483,1359,0,0
266,-335,0,0,0,0,0,0,0,0,0,-1,1490,1359,0,0
273,-335,0,0,0,0,0,0,0,0,0,-1,1497,1359,0,0
280,-335,0,0,0,0,0,0,0,0,0,-1,1504,1359,0,0
287,-335,0,0,0,0,0,0,0,0,0,-1,1511,1359,0,0
294,-335,0,0,0,0,0,0,0,0,0,-1,1518,1359,0,0
301,-335,0,0,0,0,0,0,0,0,0,-1,1525,1359,0,0
308,-335,0,0,0,0,0,0,0,0,0,-1,1532,1359,0,0
315,-335,0,0,0,0,0,0,0,0,0,-1,1539,1359,0,0
322,-335,0,0,0,0,0,0,0,0,0,-1,1546,1359,0,0
329,-335,0,0,0,0,0,0,0,0,0,-1,1553,1359,0,0
336,-335,0,0,0,0,0,0,0,0,0,-1,1560,1359,0,0
343,-335,0,0,0,0,0,0,0,0,0,-1,1567,1359,0,0
350,-335,0,0,0,0,0,0,0,0,0,-1,1574,1359,0,0
357,-335,0,0,0,0,0,0,0,0,0,-1,1581,1359,0,0
364,-335,0,0,0,0,0,0,0,0,0,-1,1588,1359,0,0
371,-335,0,0,0,0,0,0,0,0,0,-1,1595,1359,0,0
378,-335,0,0,0,0,0,0,0,0,0,-1,1602,1359,0,0
385,-335,0,0,0,0,0,0,0,0,0,-1,1609,1359,0,0
392,-335,0,0,0,0,0,0,0,0,0,-1,1616,1359,0,0
399,-335,0,0,0,0,0,0,0,0,0,-1,1623,1359,0,0
406,-335,0,0,0,0,0,0,0,0,0,-1,1630,1359,0,0
413,-335,0,0,0,0,0,0,0,0,0,-1,1637,1359,0,0
420,-335,0,0,0,0,0,0,0,0,0,-1,1644,1359,0,0
427,-335,0,0,0,0,0,0,0,0,0,-1,1651,1359,0,0
434,-335,0,0,0,0,0,0,0,0,0,-1,1658,1359,0,0
441,-335,0,0,0,0,0,0,0,0,0,-1,1665,1359,0,0
448,-335,0,0,0,0,0,0,0,0,0,-1,1672,1359,0,0
455,-335,0,0,0,0,0,0,0,0,0,-1,1679,1359,0,0
462,-335,0,0,0,0,0,0,0,0,0,-1,1686,1359,0,0
469,-335,0,0,0,0,0,0,0,0,0,-1,1693,1359,0,0
476,-335,0,0,0,0,0,0,0,0,0,-1,1700,1359,0,0
483,-335,0,0,0,0,0,0,0,0,0,-1,1707,1359,0,0
490,-335,0,0,0,0,0,0,0,0,0,-1,1714,1359,0,0
497,-335,0,0,0,0,0,0,0,0,0,-1,1721,1359,0,0
504,-335,0,0,0,0,0,0,0,0,0,-1,1728,1359,0,0
511,-335,0,0,0,0,0,0,0,0,0,-1,1735,1359,0,0
518,-335,0,0,0,0,0,0,0,0,0,-1,1742,1359,0,0
525,-335,0,0,0,0,0,0,0,0,0,-1,1749,1359,0,0
532,-335,0,0,0,0,0,0,0,0,0,-1,1756,1359,0,0
539,-335,0,0,0,0,0,0,0,0,0,-1,1763,1359,0,0
546,-335,0,0,0,0,0,0,0,0,0,-1,1770,1359,0,0
553,-335,0,0,0,0,0,0,0,0,0,-1,1777,1359,0,0
560,-335,0,0,0,0,0,0,0,0,0,-1,1784,1359,0,0
567,-335,0,0,0,0,0,0,0,0,0,-1,1791,1359,0,0
574,-335,4.57129,2.95361,0,0,0,0,0,0,0,-1,1798,1359,4.57133,-2.95358
581,-335,4.84204,3.10315,0,0,0,0,0,0,0,-1,1805,1359,4.84199,-3.10316
588,-335,4.94446,3.02283,0,0,0,0,0,0,0,-1,1812,1359,4.94448,-3.0228
595,-335,5.10718,2.92932,0,0,0,0,0,0,0,-1,1819,1359,5.10716,-2.92932
602,-335,5.2937,2.79639,0,0,0,0,0,0,0,-1,1826,1359,5.29367,-2.79644
609,-335,3.99023,1.69446,0,0,0,0,0,0,0,-1,1833,1359,3.99027,-1.69445
616,-335,3.91565,1.46008,0,0,0,0,0,0,0,-1,1840,1359,3.91566,-1.46003
623,-335,3.44189,1.44446,0,0,0,0,0,0,0,-1,1847,1359,3.44185,-1.44446
630,-335,3.43799,1.3717,0.0243943,-0.00694409,0.00809036,0.0263597,-0.00890946,0.23831,0.0211771,0.0478643,1854,1359,3.43802,-1.37167
637,-335,3.40588,1.25623,0.020846,-0.00558839,0.00741404,0.0227834,-0.00752581,0.255602,0.0182231,0.0458607,1861,1359,3.4059,-1.25624
644,-335,3.43616,1.09766,0.0169662,-0.00419706,0.00618271,0.0186401,-0.00587091,0.264393,0.0147777,0.032976,1868,1359,3.43611,-1.0976
651,-335,3.45667,1.04749,0.0131326,-0.00325617,0.00475512,0.0144123,-0.00453592,0.262901,0.0114244,0.0128977,1875,1359,3.45663,-1.04745
658,-335,3.46997,1.02563,0.0101688,-0.00223269,0.00370125,0.0111895,-0.00325334,0.269069,0.00874813,0.0113065,1882,1359,3.46999,-1.02562
665,-335,3.45642,1.0011,0.00697594,-0.00167826,0.00227634,0.00753817,-0.00224049,0.242141,0.00591544,0.0141677,1889,1359,3.45646,-1.00111
672,-335,3.45898,0.977417,0.00411801,-0.000910132,0.00165903,0.00461607,-0.00140819,0.291652,0.00363877,0.0168093,1896,1359,3.45893,-0.977367
679,-335,3.46814,0.955322,0.00139452,0.000219062,0.000824468,0.0018193,-0.000205718,0.475747,0.00128693,0.0138147,1903,1359,3.46814,-0.955363
686,-335,3.4707,0.897705,-0.00035586,0.00014847,-7.29143e-05,0.0001588,-0.00036619,-1.43006,0.000310886,0.0105568,1910,1359,3.47069,-0.897676
693,-335,3.47803,0.848999,-0.000993865,0.0010203,-0.000823768,0.0013143,-0.00128786,-1.22799,0.00150238,0.00966736,1917,1359,3.47806,-0.849059
700,-335,3.46838,0.823853,-0.00116248,0.00158857,-0.00194018,0.00259135,-0.00216527,-1.09376,0.0027499,0.010784,1924,1359,3.46844,-0.823808
707,-335,3.46887,0.796753,-0.00106592,0.00263972,-0.00293657,0.00425913,-0.00268534,-1.06683,0.00404356,0.0133728,1931,1359,3.46882,-0.796744
714,-335,3.45447,0.768433,-0.000821269,0.00525555,-0.00382083,0.00709881,-0.00266453,-1.12131,0.00582744,0.0155592,1938,1359,3.45443,-0.768383
721,-335,3.39429,0.702148,-0.000459434,0.00769502,-0.00538492,0.0103721,-0.00313655,-1.10943,0.00816366,0.0306485,1945,1359,3.39432,-0.702195
728,-335,3.35034,0.669556,7.61365e-05,0.011072,-0.00731536,0.0147252,-0.00357697,-1.10765,0.0112011,0.0465005,1952,1359,3.35039,-0.669615
735,-335,3.42432,1.5426,0.000789697,0.0156199,-0.00958829,0.0203258,-0.00391622,-1.11454,0.015027,0.0469018,1959,1359,3.42432,-1.5426
742,-335,3.2439,0.0863037,0.0016373,0.0215948,-0.0121115,0.0273089,-0.00407676,-1.12997,0.0197059,0.0481409,1966,1359,3.24389,-0.0863
749,-335,3.28149,-0.672241,0.00252262,0.0292897,-0.0147511,0.0358238,-0.00401152,-1.15381,0.0253258,0.0423441,1973,1359,3.28154,0.672188
756,-335,3.23364,-1.43225,0.00337551,0.0390856,-0.0172101,0.0460295,-0.00356843,-1.18729,0.0319423,0.0447034,1980,1359,3.23367,1.43228
763,-335,0,0,0,0,0,0,0,0,0,-1,1987,1359,0,0
770,-335,0,0,0,0,0,0,0,0,0,-1,1994,1359,0,0
777,-335,0,0,0,0,0,0,0,0,0,-1,2001,1359,0,0
784,-335,0,0,0,0,0,0,0,0,0,-1,2008,1359,0,0
791,-335,0,0,0,0,0,0,0,0,0,-1,2015,1359,0,0
798,-335,0,0,0,0,0,0,0,0,0,-1,2022,1359,0,0
805,-335,0,0,0,0,0,0,0,0,0,-1,2029,1359,0,0
812,-335,0,0,0,0,0,0,0,0,0,-1,2036,1359,0,0
-700,-342,0,0,0,0,0,0,0,0,0,-1,524,1366,0,0
-693,-342,0,0,0,0,0,0,0,0,0,-1,531,1366,0,0
-686,-342,0,0,0,0,0,0,0,0,0,-1,538,1366,0,0
-679,-342,0,0,0,0,0,0,0,0,0,-1,545,1366,0,0
-672,-342,0,0,0,0,0,0,0,0,0,-1,552,1366,0,0
-665,-342,0,0,0,0,0,0,0,0,0,-1,559,1366,0,0
-658,-342,0,0,0,0,0,0,0,0,0,-1,566,1366,0,0
-651,-342,0,0,0,0,0,0,0,0,0,-1,573,1366,0,0
-644,-342,0,0,0,0,0,0,0,0,0,-1,580,1366,0,0
-637,-342,0.228149,-1.30591,0.0643485,0.0754375,0.0272251,0.0976769,0.0421091,0.885851,0.056572,0.0461633,587,1366,0.228153,1.30592
-630,-342,0.376221,-1.2677,0.0563971,0.0643699,0.0194433,0.0802312,0.0405357,0.886511,0.0463224,0.0447717,594,1366,0.376216,1.26766
-623,-342,0.411743,-0.971313,0,0,0,0,0,0,0,-1,601,1366,0.411773,0.971295
-616,-342,-0.672974,-0.605225,0,0,0,0,0,0,0,-1,608,1366,-0.672996,0.605208
-609,-342,0.283447,2.3064,0,0,0,0,0,0,0,-1,615,1366,0.28343,-2.30638
-602,-342,-0.147156,0.244263,0.0288471,0.0291528,0.00606604,0.0350679,0.022932,0.797995,0.0205638,0.0456201,622,1366,-0.147163,-0.244306
-595,-342,-0.257446,0.71167,0.0232085,0.0227258,0.00473581,0.0277091,0.0182252,0.759937,0.016261,0.0403139,629,1366,-0.257465,-0.711696
-588,-342,0.146851,0.673706,0.0177849,0.0170283,0.002943,0.0203738,0.0144394,0.721472,0.0120996,0.0333616,636,1366,0.146874,-0.67368
-581,-342,0.192383,0.78894,0.013552,0.0127087,0.00220005,0.0153705,0.0108903,0.690718,0.00912775,0.0191069,643,1366,0.192355,-0.788914
-574,-342,0.188904,0.855103,0.00999045,0.0087653,0.00201768,0.0114865,0.00726925,0.638018,0.00670931,0.00927054,650,1366,0.188928,-0.855084
-567,-342,0.214783,0.88562,0.00632159,0.00570692,0.00186853,0.00790789,0.00412062,0.703888,0.00456697,0.0149023,657,1366,0.214753,-0.885642
-560,-342,0.213867,0.872925,0.00389544,0.00383591,0.0010742,0.00494028,0.00279106,0.771546,0.00286029,0.0213343,664,1366,0.213838,-0.872979
-553,-342,0.208313,0.849121,0.00265157,0.00185867,0.000254689,0.00272633,0.00178391,0.285517,0.00159884,0.0227089,671,1366,0.2083,-0.84918
-546,-342,0.20697,0.897949,0.00254216,0.000161785,-0.000839588,0.00280849,-0.000104549,-0.307179,0.00190813,0.0231351,678,1366,0.20697,-0.897892
-539,-342,0.193298,0.991211,0.00250782,-0.00108654,-0.00206249,0.00344628,-0.002025,-0.427014,0.00319417,0.0205046,685,1366,0.19331,-0.991185
-532,-342,0.199036,1.04712,0.00292529,-0.00266039,-0.00283577,0.00411259,-0.0038477,-0.396513,0.00459672,0.0154459,692,1366,0.199037,-1.04717
-525,-342,0.226563,1.07251,0.0049185,-0.00344137,-0.0040016,0.00652516,-0.00504803,-0.381802,0.0066999,0.00969758,699,1366,0.226567,-1.07247
-518,-342,0.215759,1.0957,0.00912149,-0.00199395,-0.00598155,0.0117288,-0.00460122,-0.411055,0.00972287,0.00873751,706,1366,0.215748,-1.09569
-511,-342,0.204102,1.11145,0.0131898,-0.00126068,-0.00788474,0.0166591,-0.00472998,-0.414509,0.0129734,0.0238049,713,1366,0.204123,-1.11148
-504,-342,0.401611,0.649658,0.0174809,-0.000166548,-0.00938124,0.0215361,-0.00422171,-0.408006,0.0159519,0.0436557,720,1366,0.401618,-0.649692
-497,-342,0.516113,0.333252,0.0221748,0.00264803,-0.0109104,0.0270524,-0.00222964,-0.420412,0.0188222,0.0459014,727,1366,0.516135,-0.333225
-490,-342,0.664307,-0.463867,0.0269853,0.0077539,-0.0132677,0.0337554,0.000983797,-0.471829,0.0221829,0.0440754,734,1366,0.664295,0.46381
-483,-342,0.782898,-1.06641,0.0311752,0.0145147,-0.0157945,0.0407015,0.00498832,-0.542729,0.0256339,0.0426217,741,1366,0.782894,1.06636
-476,-342,1.57013,-1.79993,0.0349054,0.0228139,-0.018229,0.0480651,0.00965427,-0.625278,0.0293593,0.0426612,748,1366,1.5701,1.79991
-469,-342,2.27869,-2.45996,0.037706,0.0328587,-0.0208847,0.0563072,0.0142575,-0.727632,0.0338032,0.0435719,755,1366,2.2787,2.45999
-462,-342,2.88855,-3.08154,0,0,0,0,0,0,0,-1,762,1366,2.88853,3.08157
-455,-342,3.56671,-3.75439,0,0,0,0,0,0,0,-1,769,1366,3.5667,3.75441
-448,-342,-3.40948,1.99915,0,0,0,0,0,0,0,-1,776,1366,-3.40947,-1.99914
-441,-342,0,0,0,0,0,0,0,0,0,-1,783,1366,0,0
-434,-342,0,0,0,0,0,0,0,0,0,-1,790,1366,0,0
-427,-342,0,0,0,0,0,0,0,0,0,-1,797,1366,0,0
-420,-342,0,0,0,0,0,0,0,0,0,-1,804,1366,0,0
-413,-342,0,0,0,0,0,0,0,0,0,-1,811,1366,0,0
-406,-342,0,0,0,0,0,0,0,0,0,-1,818,1366,0,0
-399,-342,0,0,0,0,0,0,0,0,0,-1,825,1366,0,0
-392,-342,0,0,0,0,0,0,0,0,0,-1,832,1366,0,0
-385,-342,0,0,0,0,0,0,0,0,0,-1,839,1366,0,0
-378,-342,0,0,0,0,0,0,0,0,0,-1,846,1366,0,0
-371,-342,0,0,0,0,0,0,0,0,0,-1,853,1366,0,0
-364,-342,0,0,0,0,0,0,0,0,0,-1,860,1366,0,0
-357,-342,0,0,0,0,0,0,0,0,0,-1,867,1366,0,0
-350,-342,0,0,0,0,0,0,0,0,0,-1,874,1366,0,0
-343,-342,0,0,0,0,0,0,0,0,0,-1,881,1366,0,0
-336,-342,0,0,0,0,0,0,0,0,0,-1,888,1366,0,0
-329,-342,0,0,0,0,0,0,0,0,0,-1,895,1366,0,0
-322,-342,0,0,0,0,0,0,0,0,0,-1,902,1366,0,0
-315,-342,0,0,0,0,0,0,0,0,0,-1,909,1366,0,0
-308,-342,0,0,0,0,0,0,0,0,0,-1,916,1366,0,0
-301,-342,0,0,0,0,0,0,0,0,0,-1,923,1366,0,0
-294,-342,0,0,0,0,0,0,0,0,0,-1,930,1366,0,0
-287,-342,0,0,0,0,0,0,0,0,0,-1,937,1366,0,0
-280,-342,0,0,0,0,0,0,0,0,0,-1,944,1366,0,0
-273,-342,0,0,0,0,0,0,0,0,0,-1,951,1366,0,0
-266,-342,0,0,0,0,0,0,0,0,0,-1,958,1366,0,0
-259,-342,0,0,0,0,0,0,0,0,0,-1,965,1366,0,0
-252,-342,0,0,0,0,0,0,0,0,0,-1,972,1366,0,0
-245,-342,0,0,0,0,0,0,0,0,0,-1,979,1366,0,0
-238,-342,0,0,0,0,0,0,0,0,0,-1,986,1366,0,0
-231,-342,0,0,0,0,0,0,0,0,0,-1,993,1366,0,0
-224,-342,0,0,0,0,0,0,0,0,0,-1,1000,1366,0,0
-217,-342,0,0,0,0,0,0,0,0,0,-1,1007,1366,0,0
-210,-342,0,0,0,0,0,0,0,0,0,-1,1014,1366,0,0
-203,-342,0,0,0,0,0,0,0,0,0,-1,1021,1366,0,0
-196,-342,0,0,0,0,0,0,0,0,0,-1,1028,1366,0,0
-189,-342,0,0,0,0,0,0,0,0,0,-1,1035,1366,0,0
-182,-342,0,0,0,0,0,0,0,0,0,-1,1042,1366,0,0
-175,-342,0,0,0,0,0,0,0,0,0,-1,1049,1366,0,0
-168,-342,0,0,0,0,0,0,0,0,0,-1,1056,1366,0,0
-161,-342,0,0,0,0,0,0,0,0,0,-1,1063,1366,0,0
-154,-342,0,0,0,0,0,0,0,0,0,-1,1070,1366,0,0
-147,-342,0,0,0,0,0,0,0,0,0,-1,1077,1366,0,0
-140,-342,0,0,0,0,0,0,0,0,0,-1,1084,1366,0,0
-133,-342,0,0,0,0,0,0,0,0,0,-1,1091,1366,0,0
-126,-342,0,0,0,0,0,0,0,0,0,-1,1098,1366,0,0
-119,-342,0,0,0,0,0,0,0,0,0,-1,1105,1366,0,0
-112,-342,0,0,0,0,0,0,0,0,0,-1,1112,1366,0,0
-105,-342,0,0,0,0,0,0,0,0,0,-1,1119,1366,0,0
-98,-342,0,0,0,0,0,0,0,0,0,-1,1126,1366,0,0
-91,-342,0,0,0,0,0,0,0,0,0,-1,1133,1366,0,0
-84,-342,0,0,0,0,0,0,0,0,0,-1,1140,1366,0,0
-77,-342,0,0,0,0,0,0,0,0,0,-1,1147,1366,0,0
-70,-342,0,0,0,0,0,0,0,0,0,-1,1154,1366,0,0
-63,-342,0,0,0,0,0,0,0,0,0,-1,1161,1366,0,0
-56,-342,0,0,0,0,0,0,0,0,0,-1,1168,1366,0,0
-49,-342,0,0,0,0,0,0,0,0,0,-1,1175,1366,0,0
-42,-342,0,0,0,0,0,0,0,0,0,-1,1182,1366,0,0
-35,-342,0,0,0,0,0,0,0,0,0,-1,1189,1366,0,0
-28,-342,0,0,0,0,0,0,0,0,0,-1,1196,1366,0,0
-21,-342,0,0,0,0,0,0,0,0,0,-1,1203,1366,0,0
-14,-342,0,0,0,0,0,0,0,0,0,-1,1210,1366,0,0
-7,-342,0,0,0,0,0,0,0,0,0,-1,1217,1366,0,0
0,-342,0,0,0,0,0,0,0,0,0,-1,1224,1366,0,0
7,-342,0,0,0,0,0,0,0,0,0,-1,1231,1366,0,0
14,-342,0,0,0,0,0,0,0,0,0,-1,1238,1366,0,0
21,-342,0,0,0,0,0,0,0,0,0,-1,1245,1366,0,0
28,-342,0,0,0,0,0,0,0,0,0,-1,1252,1366,0,0
35,-342,0,0,0,0,0,0,0,0,0,-1,1259,1366,0,0
42,-342,0,0,0,0,0,0,0,0,0,-1,1266,1366,0,0
49,-342,0,0,0,0,0,0,0,0,0,-1,1273,1366,0,0
56,-342,0,0,0,0,0,0,0,0,0,-1,1280,1366,0,0
63,-342,0,0,0,0,0,0,0,0,0,-1,1287,1366,0,0
70,-342,0,0,0,0,0,0,0,0,0,-1,1294,1366,0,0
77,-342,0,0,0,0,0,0,0,0,0,-1,1301,1366,0,0
84,-342,0,0,0,0,0,0,0,0,0,-1,1308,1366,0,0
91,-342,0,0,0,0,0,0,0,0,0,-1,1315,1366,0,0
98,-342,0,0,0,0,0,0,0,0,0,-1,1322,1366,0,0
105,-342,0,0,0,0,0,0,0,0,0,-1,1329,1366,0,0
112,-342,0,0,0,0,0,0,0,0,0,-1,1336,1366,0,0
119,-342,0,0,0,0,0,0,0,0,0,-1,1343,1366,0,0
126,-342,0,0,0,0,0,0,0,0,0,-1,1350,1366,0,0
133,-342,0,0,0,0,0,0,0,0,0,-1,1357,1366,0,0
140,-342,0,0,0,0,0,0,0,0,0,-1,1364,1366,0,0
147,-342,0,0,0,0,0,0,0,0,0,-1,1371,1366,0,0
154,-342,0,0,0,0,0,0,0,0,0,-1,1378,1366,0,0
161,-342,0,0,0,0,0,0,0,0,0,-1,1385,1366,0,0
168,-342,0,0,0,0,0,0,0,0,0,-1,1392,1366,0,0
175,-342,0,0,0,0,0,0,0,0,0,-1,1399,1366,0,0
182,-342,0,0,0,0,0,0,0,0,0,-1,1406,1366,0,0
189,-342,0,0,0,0,0,0,0,0,0,-1,1413,1366,0,0
196,-342,0,0,0,0,0,0,0,0,0,-1,1420,1366,0,0
203,-342,0,0,0,0,0,0,0,0,0,-1,1427,1366,0,0
210,-342,0,0,0,0,0,0,0,0,0,-1,1434,1366,0,0
217,-342,0,0,0,0,0,0,0,0,0,-1,1441,1366,0,0
224,-342,0,0,0,0,0,0,0,0,0,-1,1448,1366,0,0
231,-342,0,0,0,0,0,0,0,0,0,-1,1455,1366,0,0
238,-342,0,0,0,0,0,0,0,0,0,-1,1462,1366,0,0
245,-342,0,0,0,0,0,0,0,0,0,-1,1469,1366,0,0
252,-342,0,0,0,0,0,0,0,0,0,-1,1476,1366,0,0
259,-342,0,0,0,0,0,0,0,0,0,-1,1483,1366,0,0
266,-342,0,0,0,0,0,0,0,0,0,-1,1490,1366,0,0
273,-342,0,0,0,0,0,0,0,0,0,-1,1497,1366,0,0
280,-342,0,0,0,0,0,0,0,0,0,-1,1504,1366,0,0
287,-342,0,0,0,0,0,0,0,0,0,-1,1511,1366,0,0
294,-342,0,0,0,0,0,0,0,0,0,-1,1518,1366,0,0
301,-342,0,0,0,0,0,0,0,0,0,-1,1525,1366,0,0
308,-342,0,0,0,0,0,0,0,0,0,-1,1532,1366,0,0
315,-342,0,0,0,0,0,0,0,0,0,-1,1539,1366,0,0
322,-342,0,0,0,0,0,0,0,0,0,-1,1546,1366,0,0
329,-342,0,0,0,0,0,0,0,0,0,-1,1553,1366,0,0
336,-342,0,0,0,0,0,0,0,0,0,-1,1560,1366,0,0
343,-342,0,0,0,0,0,0,0,0,0,-1,1567,1366,0,0
350,-342,0,0,0,0,0,0,0,0,0,-1,1574,1366,0,0
357,-342,0,0,0,0,0,0,0,0,0,-1,1581,1366,0,0
364,-342,0,0,0,0,0,0,0,0,0,-1,1588,1366,0,0
371,-342,0,0,0,0,0,0,0,0,0,-1,1595,1366,0,0
378,-342,0,0,0,0,0,0,0,0,0,-1,1602,1366,0,0
385,-342,0,0,0,0,0,0,0,0,0,-1,1609,1366,0,0
392,-342,0,0,0,0,0,0,0,0,0,-1,1616,1366,0,0
399,-342,0,0,0,0,0,0,0,0,0,-1,1623,1366,0,0
406,-342,0,0,0,0,0,0,0,0,0,-1,1630,1366,0,0
413,-342,0,0,0,0,0,0,0,0,0,-1,1637,1366,0,0
420,-342,0,0,0,0,0,0,0,0,0,-1,1644,1366,0,0
427,-342,0,0,0,0,0,0,0,0,0,-1,1651,1366,0,0
434,-342,0,0,0,0,0,0,0,0,0,-1,1658,1366,0,0
441,-342,0,0,0,0,0,0,0,0,0,-1,1665,1366,0,0
448,-342,0,0,0,0,0,0,0,0,0,-1,1672,1366,0,0
455,-342,0,0,0,0,0,0,0,0,0,-1,1679,1366,0,0
462,-342,0,0,0,0,0,0,0,0,0,-1,1686,1366,0,0
469,-342,0,0,0,0,0,0,0,0,0,-1,1693,1366,0,0
476,-342,0,0,0,0,0,0,0,0,0,-1,1700,1366,0,0
483,-342,0,0,0,0,0,0,0,0,0,-1,1707,1366,0,0
490,-342,0,0,0,0,0,0,0,0,0,-1,1714,1366,0,0
497,-342,0,0,0,0,0,0,0,0,0,-1,1721,1366,0,0
504,-342,0,0,0,0,0,0,0,0,0,-1,1728,1366,0,0
511,-342,0,0,0,0,0,0,0,0,0,-1,1735,1366,0,0
518,-342,0,0,0,0,0,0,0,0,0,-1,1742,1366,0,0
525,-342,0,0,0,0,0,0,0,0,0,-1,1749,1366,0,0
532,-342,0,0,0,0,0,0,0,0,0,-1,1756,1366,0,0
539,-342,0,0,0,0,0,0,0,0,0,-1,1763,1366,0,0
546,-342,0,0,0,0,0,0,0,0,0,-1,1770,1366,0,0
553,-342,0,0,0,0,0,0,0,0,0,-1,1777,1366,0,0
560,-342,0,0,0,0,0,0,0,0,0,-1,1784,1366,0,0
567,-342,3.91431,3.21472,0,0,0,0,0,0,0,-1,1791,1366,3.91431,-3.21473
574,-342,3.43933,2.3208,0,0,0,0,0,0,0,-1,1798,1366,3.43928,-2.32075
581,-342,3.15417,1.87927,0,0,0,0,0,0,0,-1,1805,1366,3.15422,-1.87925
588,-342,5.90479,2.36133,0,0,0,0,0,0,0,-1,1812,1366,5.90481,-2.36132
595,-342,2.30188,0.229492,0,0,0,0,0,0,0,-1,1819,1366,2.30182,-0.22944
602,-342,2.18359,0.506592,0,0,0,0,0,0,0,-1,1826,1366,2.18365,-0.506532
609,-342,4.16821,1.36401,0.0435294,-0.00526301,-0.00188003,0.0436017,-0.00533534,-0.0384553,0.0309997,0.046694,1833,1366,4.16819,-1.36405
616,-342,3.86292,1.26868,0.0294449,-0.00801659,0.00602674,0.0303906,-0.00896228,0.155648,0.0238167,0.0457907,1840,1366,3.86289,-1.26871
623,-342,3.72156,1.17297,0.0210617,-0.00656337,0.00625755,0.022413,-0.00791471,0.212687,0.0181644,0.0492104,1847,1366,3.72153,-1.173
630,-342,3.39392,1.34656,0.0190635,-0.00528195,0.00643766,0.020661,-0.00687943,0.243234,0.0165508,0.0493302,1854,1366,3.39389,-1.34655
637,-342,3.38733,1.23816,0.0162876,-0.00415282,0.00614119,0.0179907,-0.00585599,0.270536,0.0143498,0.0450688,1861,1366,3.38734,-1.23816
644,-342,3.42139,1.13647,0.0132535,-0.00298648,0.00520501,0.0147786,-0.00451151,0.285015,0.0116511,0.0249916,1868,1366,3.42136,-1.13649
651,-342,3.43567,1.07275,0.0102273,-0.00231287,0.00398307,0.0113854,-0.00347103,0.282969,0.00897392,0.0155431,1875,1366,3.43562,-1.07269
658,-342,3.43176,1.03674,0.00800231,-0.00152818,0.00312422,0.00893516,-0.00246103,0.29016,0.00692447,0.0180456,1882,1366,3.43175,-1.03678
665,-342,3.43396,0.994873,0.0054831,-0.00127144,0.00183676,0.00595026,-0.0017386,0.249059,0.00465587,0.015448,1889,1366,3.43402,-0.994834
672,-342,3.43872,0.981079,0.00317292,-0.000690478,0.00120635,0.00351867,-0.00103622,0.279121,0.00275688,0.0118103,1896,1366,3.43872,-0.98113
679,-342,3.42957,0.967773,0.00100394,0.000301969,0.000388076,0.00117621,0.000129701,0.417771,0.00074468,0.0118996,1903,1366,3.42956,-0.967774
686,-342,3.44043,0.920288,-0.000376741,0.000157262,-0.000492928,0.000450857,-0.000670336,-1.03361,0.000651442,0.0104247,1910,1366,3.44042,-0.920252
693,-342,3.45483,0.873291,-0.00087593,0.000873061,-0.00135875,0.00161441,-0.00161728,-1.07133,0.00186582,0.01196,1917,1366,3.45488,-0.873297
700,-342,3.43152,0.844238,-0.00102243,0.0014205,-0.00260268,0.00307409,-0.00267602,-1.0048,0.00332248,0.014021,1924,1366,3.43158,-0.844195
707,-342,3.42712,0.798828,-0.000939634,0.00249983,-0.00388615,0.00502975,-0.00346956,-0.99371,0.00493457,0.0129703,1931,1366,3.42712,-0.798792
714,-342,3.40466,0.740479,-0.000702793,0.00498561,-0.0051541,0.0080282,-0.00374538,-1.03752,0.00694577,0.0191247,1938,1366,3.40466,-0.740513
721,-342,3.35364,0.643433,-0.000360177,0.00745264,-0.00719718,0.0117352,-0.00464275,-1.03404,0.00974689,0.0334616,1945,1366,3.35361,-0.643431
728,-342,3.41016,2.04565,0,0,0,0,0,0,0,-1,1952,1366,3.41014,-2.04563
735,-342,3.46814,2.01257,0,0,0,0,0,0,0,-1,1959,1366,3.46818,-2.01258
742,-342,3.09204,-0.0262451,0,0,0,0,0,0,0,-1,1966,1366,3.09206,0.0262281
749,-342,2.90613,-0.873657,0,0,0,0,0,0,0,-1,1973,1366,2.90608,0.873607
756,-342,0,0,0,0,0,0,0,0,0,-1,1980,1366,0,0
763,-342,0,0,0,0,0,0,0,0,0,-1,1987,1366,0,0
770,-342,0,0,0,0,0,0,0,0,0,-1,1994,1366,0,0
777,-342,0,0,0,0,0,0,0,0,0,-1,2001,1366,0,0
784,-342,0,0,0,0,0,0,0,0,0,-1,2008,1366,0,0
791,-342,0,0,0,0,0,0,0,0,0,-1,2015,1366,0,0
798,-342,0,0,0,0,0,0,0,0,0,-1,2022,1366,0,0
805,-342,0,0,0,0,0,0,0,0,0,-1,2029,1366,0,0
812,-342,0,0,0,0,0,0,0,0,0,-1,2036,1366,0,0
-700,-349,0,0,0,0,0,0,0,0,0,-1,524,1373,0,0
-693,-349,0,0,0,0,0,0,0,0,0,-1,531,1373,0,0
-686,-349,0,0,0,0,0,0,0,0,0,-1,538,1373,0,0
-679,-349,0,0,0,0,0,0,0,0,0,-1,545,1373,0,0
-672,-349,0,0,0,0,0,0,0,0,0,-1,552,1373,0,0
-665,-349,0,0,0,0,0,0,0,0,0,-1,559,1373,0,0
-658,-349,0,0,0,0,0,0,0,0,0,-1,566,1373,0,0
-651,-349,0,0,0,0,0,0,0,0,0,-1,573,1373,0,0
-644,-349,0,0,0,0,0,0,0,0,0,-1,580,1373,0,0
-637,-349,0,0,0,0,0,0,0,0,0,-1,587,1373,0,0
-630,-349,0.620361,-1.69482,0,0,0,0,0,0,0,-1,594,1373,0.62034,1.69484
-623,-349,-1.35571,1.53369,0,0,0,0,0,0,0,-1,601,1373,-1.35572,-1.53367
-616,-349,-0.339539,1.974,0,0,0,0,0,0,0,-1,608,1373,-0.339553,-1.97406
-609,-349,0.0831299,1.82874,0.0405464,0.0358717,0.00608001,0.0447229,0.0316952,0.601892,0.02656,0.0487906,615,1373,0.0831192,-1.82872
-602,-349,-0.233154,0.28894,0.033537,0.02867,0.00479428,0.03648,0.025727,0.550551,0.0216451,0.0433187,622,1373,-0.233164,-0.28892
-595,-349,-0.0113525,0.436279,0.0270364,0.0224772,0.00398061,0.0293439,0.0201696,0.525352,0.0173336,0.0415377,629,1373,-0.0113354,-0.436231
-588,-349,0.163086,0.644165,0.020894,0.017117,0.00274239,0.0223352,0.0156758,0.483872,0.0132408,0.0387036,636,1373,0.16309,-0.644212
-581,-349,0.219055,0.764648,0.0160041,0.0129264,0.00235073,0.0172749,0.0116556,0.495589,0.0101746,0.0287699,643,1373,0.219038,-0.764658
-574,-349,0.223083,0.831543,0.0118024,0.00916026,0.00238786,0.0132102,0.00775238,0.532735,0.00766519,0.0142175,650,1373,0.223067,-0.831562
-567,-349,0.223694,0.90332,0.00764093,0.00614398,0.00228331,0.00929531,0.0044896,0.627016,0.00536768,0.0151101,657,1373,0.223708,-0.903339
-560,-349,0.22052,0.945923,0.0047993,0.00425781,0.00157472,0.00612638,0.00293073,0.700264,0.00353817,0.0185339,664,1373,0.220513,-0.945867
-553,-349,0.252686,0.90686,0.00315152,0.00227762,0.000858017,0.00367744,0.0017517,0.549886,0.00212396,0.0236759,671,1373,0.252692,-0.906916
-546,-349,0.250488,0.928223,0.00274977,0.000586631,-0.000176805,0.00276412,0.000572275,-0.0810191,0.00168471,0.0265721,678,1373,0.250466,-0.928228
-539,-349,0.215088,1.01587,0.00247879,-0.000815359,-0.00139058,0.0029873,-0.00132387,-0.35058,0.00255007,0.022123,685,1373,0.215063,-1.01587
-532,-349,0.232971,1.04333,0.00277336,-0.00271436,-0.00223638,0.0035693,-0.00351029,-0.341925,0.00408745,0.0163973,692,1373,0.232987,-1.04332
-525,-349,0.235718,1.0564,0.00465809,-0.00391194,-0.00346087,0.00588115,-0.005135,-0.3397,0.00636504,0.0118416,699,1373,0.235692,-1.05639
-518,-349,0.238342,1.10352,0.00870762,-0.00325484,-0.00540327,0.0107868,-0.00533403,-0.367337,0.00948319,0.0101048,706,1373,0.238341,-1.10351
-511,-349,0.252563,1.13428,0.0125267,-0.00331448,-0.00726455,0.0153536,-0.00614142,-0.371112,0.0127844,0.0179834,713,1373,0.252548,-1.13433
-504,-349,0.236938,1.13586,0.0165779,-0.00321817,-0.00870234,0.0198595,-0.00649974,-0.360601,0.0158567,0.0388259,720,1373,0.23693,-1.13588
-497,-349,0.215698,1.11414,0.0210342,-0.0015745,-0.0101735,0.024938,-0.00547831,-0.366397,0.0187206,0.0467491,727,1373,0.215696,-1.11409
-490,-349,1.31018,-0.514038,0.0256578,0.00220364,-0.012531,0.0310932,-0.00323176,-0.409263,0.0218858,0.0416324,734,1373,1.31019,0.513987
-483,-349,0.679871,-0.651611,0.0296976,0.00746143,-0.0150499,0.0372907,-0.000131717,-0.467267,0.0249045,0.0429746,741,1373,0.679863,0.651659
-476,-349,0.50238,-0.671143,0.0332393,0.0139121,-0.0173648,0.0434484,0.00370303,-0.531486,0.0278135,0.047257,748,1373,0.502351,0.671144
-469,-349,2.47827,-2.32947,0.0359812,0.0218027,-0.0198218,0.0499433,0.00784058,-0.613662,0.0310142,0.0470603,755,1373,2.47826,2.32942
-462,-349,3.09918,-2.83948,0,0,0,0,0,0,0,-1,762,1373,3.09915,2.83942
-455,-349,-2.9549,0.797729,0.036642,0.0424295,-0.0251928,0.0648942,0.0141773,-0.84258,0.0393967,0.0458298,769,1373,-2.9549,-0.79774
-448,-349,-2.98853,1.80713,0.0334564,0.0548633,-0.028099,0.0742285,0.0140913,-0.967373,0.0455214,0.0480739,776,1373,-2.98854,-1.80708
-441,-349,0,0,0,0,0,0,0,0,0,-1,783,1373,0,0
-434,-349,0,0,0,0,0,0,0,0,0,-1,790,1373,0,0
-427,-349,0,0,0,0,0,0,0,0,0,-1,797,1373,0,0
-420,-349,0,0,0,0,0,0,0,0,0,-1,804,1373,0,0
-413,-349,0,0,0,0,0,0,0,0,0,-1,811,1373,0,0
-406,-349,0,0,0,0,0,0,0,0,0,-1,818,1373,0,0
-399,-349,0,0,0,0,0,0,0,0,0,-1,825,1373,0,0
-392,-349,0,0,0,0,0,0,0,0,0,-1,832,1373,0,0
-385,-349,0,0,0,0,0,0,0,0,0,-1,839,1373,0,0
-378,-349,0,0,0,0,0,0,0,0,0,-1,846,1373,0,0
-371,-349,0,0,0,0,0,0,0,0,0,-1,853,1373,0,0
-364,-349,0,0,0,0,0,0,0,0,0,-1,860,1373,0,0
-357,-349,0,0,0,0,0,0,0,0,0,-1,867,1373,0,0
-350,-349,0,0,0,0,0,0,0,0,0,-1,874,1373,0,0
-343,-349,0,0,0,0,0,0,0,0,0,-1,881,1373,0,0
-336,-349,0,0,0,0,0,0,0,0,0,-1,888,1373,0,0
-329,-349,0,0,0,0,0,0,0,0,0,-1,895,1373,0,0
-322,-349,0,0,0,0,0,0,0,0,0,-1,902,1373,0,0
-315,-349,0,0,0,0,0,0,0,0,0,-1,909,1373,0,0
-308,-349,0,0,0,0,0,0,0,0,0,-1,916,1373,0,0
-301,-349,0,0,0,0,0,0,0,0,0,-1,923,1373,0,0
-294,-349,0,0,0,0,0,0,0,0,0,-1,930,1373,0,0
-287,-349,0,0,0,0,0,0,0,0,0,-1,937,1373,0,0
-280,-349,0,0,0,0,0,0,0,0,0,-1,944,1373,0,0
-273,-349,0,0,0,0,0,0,0,0,0,-1,951,1373,0,0
-266,-349,0,0,0,0,0,0,0,0,0,-1,958,1373,0,0
-259,-349,0,0,0,0,0,0,0,0,0,-1,965,1373,0,0
-252,-349,0,0,0,0,0,0,0,0,0,-1,972,1373,0,0
-245,-349,0,0,0,0,0,0,0,0,0,-1,979,1373,0,0
-238,-349,0,0,0,0,0,0,0,0,0,-1,986,1373,0,0
-231,-349,0,0,0,0,0,0,0,0,0,-1,993,1373,0,0
-224,-349,0,0,0,0,0,0,0,0,0,-1,1000,1373,0,0
-217,-349,0,0,0,0,0,0,0,0,0,-1,1007,1373,0,0
-210,-349,0,0,0,0,0,0,0,0,0,-1,1014,1373,0,0
-203,-349,0,0,0,0,0,0,0,0,0,-1,1021,1373,0,0
-196,-349,0,0,0,0,0,0,0,0,0,-1,1028,1373,0,0
-189,-349,0,0,0,0,0,0,0,0,0,-1,1035,1373,0,0
-182,-349,0,0,0,0,0,0,0,0,0,-1,1042,1373,0,0
-175,-349,0,0,0,0,0,0,0,0,0,-1,1049,1373,0,0
-168,-349,0,0,0,0,0,0,0,0,0,-1,1056,1373,0,0
-161,-349,0,0,0,0,0,0,0,0,0,-1,1063,1373,0,0
-154,-349,0,0,0,0,0,0,0,0,0,-1,1070,1373,0,0
-147,-349,0,0,0,0,0,0,0,0,0,-1,1077,1373,0,0
-140,-349,0,0,0,0,0,0,0,0,0,-1,1084,1373,0,0
-133,-349,0,0,0,0,0,0,0,0,0,-1,1091,1373,0,0
-126,-349,0,0,0,0,0,0,0,0,0,-1,1098,1373,0,0
-119,-349,0,0,0,0,0,0,0,0,0,-1,1105,1373,0,0
-112,-349,0,0,0,0,0,0,0,0,0,-1,1112,1373,0,0
-105,-349,0,0,0,0,0,0,0,0,0,-1,1119,1373,0,0
-98,-349,0,0,0,0,0,0,0,0,0,-1,1126,1373,0,0
-91,-349,0,0,0,0,0,0,0,0,0,-1,1133,1373,0,0
-84,-349,0,0,0,0,0,0,0,0,0,-1,1140,1373,0,0
-77,-349,0,0,0,0,0,0,0,0,0,-1,1147,1373,0,0
-70,-349,0,0,0,0,0,0,0,0,0,-1,1154,1373,0,0
-63,-349,0,0,0,0,0,0,0,0,0,-1,1161,1373,0,0
-56,-349,0,0,0,0,0,0,0,0,0,-1,1168,1373,0,0
-49,-349,0,0,0,0,0,0,0,0,0,-1,1175,1373,0,0
-42,-349,0,0,0,0,0,0,0,0,0,-1,1182,1373,0,0
-35,-349,0,0,0,0,0,0,0,0,0,-1,1189,1373,0,0
-28,-349,0,0,0,0,0,0,0,0,0,-1,1196,1373,0,0
-21,-349,0,0,0,0,0,0,0,0,0,-1,1203,1373,0,0
-14,-349,0,0,0,0,0,0,0,0,0,-1,1210,1373,0,0
-7,-349,0,0,0,0,0,0,0,0,0,-1,1217,1373,0,0
0,-349,0,0,0,0,0,0,0,0,0,-1,1224,1373,0,0
7,-349,0,0,0,0,0,0,0,0,0,-1,1231,1373,0,0
14,-349,0,0,0,0,0,0,0,0,0,-1,1238,1373,0,0
21,-349,0,0,0,0,0,0,0,0,0,-1,1245,1373,0,0
28,-349,0,0,0,0,0,0,0,0,0,-1,1252,1373,0,0
35,-349,0,0,0,0,0,0,0,0,0,-1,1259,1373,0,0
42,-349,0,0,0,0,0,0,0,0,0,-1,1266,1373,0,0
49,-349,0,0,0,0,0,0,0,0,0,-1,1273,1373,0,0
56,-349,0,0,0,0,0,0,0,0,0,-1,1280,1373,0,0
63,-349,0,0,0,0,0,0,0,0,0,-1,1287,1373,0,0
70,-349,0,0,0,0,0,0,0,0,0,-1,1294,1373,0,0
77,-349,0,0,0,0,0,0,0,0,0,-1,1301,1373,0,0
84,-349,0,0,0,0,0,0,0,0,0,-1,1308,1373,0,0
91,-349,0,0,0,0,0,0,0,0,0,-1,1315,1373,0,0
98,-349,0,0,0,0,0,0,0,0,0,-1,1322,1373,0,0
105,-349,0,0,0,0,0,0,0,0,0,-1,1329,1373,0,0
112,-349,0,0,0,0,0,0,0,0,0,-1,1336,1373,0,0
119,-349,0,0,0,0,0,0,0,0,0,-1,1343,1373,0,0
126,-349,0,0,0,0,0,0,0,0,0,-1,1350,1373,0,0
133,-349,0,0,0,0,0,0,0,0,0,-1,1357,1373,0,0
140,-349,0,0,0,0,0,0,0,0,0,-1,1364,1373,0,0
147,-349,0,0,0,0,0,0,0,0,0,-1,1371,1373,0,0
154,-349,0,0,0,0,0,0,0,0,0,-1,1378,1373,0,0
161,-349,0,0,0,0,0,0,0,0,0,-1,1385,1373,0,0
168,-349,0,0,0,0,0,0,0,0,0,-1,1392,1373,0,0
175,-349,0,0,0,0,0,0,0,0,0,-1,1399,1373,0,0
182,-349,0,0,0,0,0,0,0,0,0,-1,1406,1373,0,0
189,-349,0,0,0,0,0,0,0,0,0,-1,1413,1373,0,0
196,-349,0,0,0,0,0,0,0,0,0,-1,1420,1373,0,0
203,-349,0,0,0,0,0,0,0,0,0,-1,1427,1373,0,0
210,-349,0,0,0,0,0,0,0,0,0,-1,1434,1373,0,0
217,-349,0,0,0,0,0,0,0,0,0,-1,1441,1373,0,0
224,-349,0,0,0,0,0,0,0,0,0,-1,1448,1373,0,0
231,-349,0,0,0,0,0,0,0,0,0,-1,1455,1373,0,0
238,-349,0,0,0,0,0,0,0,0,0,-1,1462,1373,0,0
245,-349,0,0,0,0,0,0,0,0,0,-1,1469,1373,0,0
252,-349,0,0,0,0,0,0,0,0,0,-1,1476,1373,0,0
259,-349,0,0,0,0,0,0,0,0,0,-1,1483,1373,0,0
266,-349,0,0,0,0,0,0,0,0,0,-1,1490,1373,0,0
273,-349,0,0,0,0,0,0,0,0,0,-1,1497,1373,0,0
280,-349,0,0,0,0,0,0,0,0,0,-1,1504,1373,0,0
287,-349,0,0,0,0,0,0,0,0,0,-1,1511,1373,0,0
294,-349,0,0,0,0,0,0,0,0,0,-1,1518,1373,0,0
301,-349,0,0,0,0,0,0,0,0,0,-1,1525,1373,0,0
308,-349,0,0,0,0,0,0,0,0,0,-1,1532,1373,0,0
315,-349,0,0,0,0,0,0,0,0,0,-1,1539,1373,0,0
322,-349,0,0,0,0,0,0,0,0,0,-1,1546,1373,0,0
329,-349,0,0,0,0,0,0,0,0,0,-1,1553,1373,0,0
336,-349,0,0,0,0,0,0,0,0,0,-1,1560,1373,0,0
343,-349,0,0,0,0,0,0,0,0,0,-1,1567,1373,0,0
350,-349,0,0,0,0,0,0,0,0,0,-1,1574,1373,0,0
357,-349,0,0,0,0,0,0,0,0,0,-1,1581,1373,0,0
364,-349,0,0,0,0,0,0,0,0,0,-1,1588,1373,0,0
371,-349,0,0,0,0,0,0,0,0,0,-1,1595,1373,0,0
378,-349,0,0,0,0,0,0,0,0,0,-1,1602,1373,0,0
385,-349,0,0,0,0,0,0,0,0,0,-1,1609,1373,0,0
392,-349,0,0,0,0,0,0,0,0,0,-1,1616,1373,0,0
399,-349,0,0,0,0,0,0,0,0,0,-1,1623,1373,0,0
406,-349,0,0,0,0,0,0,0,0,0,-1,1630,1373,0,0
413,-349,0,0,0,0,0,0,0,0,0,-1,1637,1373,0,0
420,-349,0,0,0,0,0,0,0,0,0,-1,1644,1373,0,0
427,-349,0,0,0,0,0,0,0,0,0,-1,1651,1373,0,0
434,-349,0,0,0,0,0,0,0,0,0,-1,1658,1373,0,0
441,-349,0,0,0,0,0,0,0,0,0,-1,1665,1373,0,0
448,-349,0,0,0,0,0,0,0,0,0,-1,1672,1373,0,0
455,-349,0,0,0,0,0,0,0,0,0,-1,1679,1373,0,0
462,-349,0,0,0,0,0,0,0,0,0,-1,1686,1373,0,0
469,-349,0,0,0,0,0,0,0,0,0,-1,1693,1373,0,0
476,-349,0,0,0,0,0,0,0,0,0,-1,1700,1373,0,0
483,-349,0,0,0,0,0,0,0,0,0,-1,1707,1373,0,0
490,-349,0,0,0,0,0,0,0,0,0,-1,1714,1373,0,0
497,-349,0,0,0,0,0,0,0,0,0,-1,1721,1373,0,0
504,-349,0,0,0,0,0,0,0,0,0,-1,1728,1373,0,0
511,-349,0,0,0,0,0,0,0,0,0,-1,1735,1373,0,0
518,-349,0,0,0,0,0,0,0,0,0,-1,1742,1373,0,0
525,-349,0,0,0,0,0,0,0,0,0,-1,1749,1373,0,0
532,-349,0,0,0,0,0,0,0,0,0,-1,1756,1373,0,0
539,-349,0,0,0,0,0,0,0,0,0,-1,1763,1373,0,0
546,-349,0,0,0,0,0,0,0,0,0,-1,1770,1373,0,0
553,-349,0,0,0,0,0,0,0,0,0,-1,1777,1373,0,0
560,-349,3.1333,3.43433,0,0,0,0,0,0,0,-1,1784,1373,3.1333,-3.43435
567,-349,3.302,2.81262,0.152964,0.0288248,-0.0678363,0.182842,-0.00105335,-0.41488,0.122247,0.0473674,1791,1373,3.30194,-2.81265
574,-349,3.21082,2.21753,0.13241,0.0194595,-0.0523985,0.152974,-0.00110459,-0.373986,0.102353,0.0473314,1798,1373,3.21083,-2.21753
581,-349,3.24512,1.79456,0.110293,0.0125713,-0.0385677,0.123681,-0.000816196,-0.334103,0.0827271,0.0469512,1805,1373,3.24514,-1.79451
588,-349,3.38062,1.01953,0,0,0,0,0,0,0,-1,1812,1373,3.38065,-1.01953
595,-349,3.22375,0.734253,0,0,0,0,0,0,0,-1,1819,1373,3.22377,-0.734276
602,-349,2.95056,0.847168,0.051907,-0.000152777,-0.0104059,0.0539099,-0.00215567,-0.190152,0.0366796,0.0466476,1826,1373,2.95056,-0.847107
609,-349,2.72656,0.521729,0.0377682,-0.00190425,-0.00391963,0.0381517,-0.0022878,-0.0975432,0.0262304,0.0426255,1833,1373,2.72654,-0.521691
616,-349,3.53381,0.883423,0.0227279,-0.0053307,0.00463885,0.0234749,-0.00607774,0.159669,0.0180208,0.0407981,1840,1373,3.53384,-0.883365
623,-349,3.49011,0.96167,0.0138179,-0.00408207,0.00461015,0.0149354,-0.00519964,0.237828,0.0120695,0.0436354,1847,1373,3.49006,-0.96163
630,-349,3.46191,1.25439,0.0128494,-0.00311579,0.00489767,0.0142321,-0.0044985,0.275159,0.0112904,0.0460703,1854,1373,3.46195,-1.25435
637,-349,3.43872,1.17834,0.0110466,-0.0022502,0.00485769,0.0126321,-0.00383578,0.315503,0.00994961,0.0372596,1861,1373,3.4387,-1.17839
644,-349,3.42517,1.11841,0.00906143,-0.00137701,0.0041634,0.0105186,-0.00283417,0.33667,0.00812362,0.0230285,1868,1373,3.42513,-1.11836
651,-349,3.41162,1.05542,0.00704291,-0.00096962,0.0031315,0.00812157,-0.00204828,0.331726,0.00621076,0.0206225,1875,1373,3.41161,-1.05541
658,-349,3.39307,1.02124,0.00565536,-0.000452691,0.00245109,0.00651731,-0.00131465,0.338155,0.00484294,0.0242616,1882,1373,3.39304,-1.02121
665,-349,3.40381,0.991699,0.00391003,-0.000487211,0.00132289,0.00427734,-0.000854515,0.270831,0.00317496,0.018334,1889,1373,3.40379,-0.99174
672,-349,3.40088,0.970825,0.00222621,-7.1849e-05,0.000706559,0.00242606,-0.000271706,0.275658,0.00171513,0.0138062,1896,1373,3.4009,-0.970878
679,-349,3.39526,0.931641,0.000644866,0.000785721,-6.51277e-05,0.000811218,0.000619368,-1.19764,0.000489557,0.0131753,1903,1373,3.3953,-0.931587
686,-349,3.42029,0.897949,-0.000352796,0.000655872,-0.00089668,0.00118032,-0.000877242,-1.04157,0.00119222,0.0118382,1910,1373,3.42027,-0.898002
693,-349,3.43225,0.871338,-0.000703393,0.00133197,-0.00178568,0.00236961,-0.00174103,-1.0444,0.00238251,0.014518,1917,1373,3.43224,-0.871315
700,-349,3.39771,0.84668,-0.000775468,0.0019867,-0.00308204,0.00398294,-0.00277171,-0.996037,0.00392065,0.0174283,1924,1373,3.39768,-0.846711
707,-349,3.38196,0.781494,-0.000613171,0.00318893,-0.00457563,0.00624272,-0.00366695,-0.982285,0.00578542,0.0163425,1931,1373,3.38198,-0.781443
714,-349,3.3573,0.731201,-0.000264413,0.00561375,-0.00615915,0.00949914,-0.0041498,-1.00801,0.00807944,0.0177264,1938,1373,3.35731,-0.731262
721,-349,3.297,0.603149,0.000229756,0.00819765,-0.00858192,0.0136753,-0.00524786,-1.00271,0.0112806,0.034686,1945,1373,3.29699,-0.603201
728,-349,3.65881,0.273682,0,0,0,0,0,0,0,-1,1952,1373,3.65877,-0.273709
735,-349,3.4696,2.45752,0,0,0,0,0,0,0,-1,1959,1373,3.46958,-2.45753
742,-349,4.16553,-0.0367432,0,0,0,0,0,0,0,-1,1966,1373,4.16558,0.036721
749,-349,4.146,-0.0438232,0,0,0,0,0,0,0,-1,1973,1373,4.14597,0.0438014
756,-349,0,0,0,0,0,0,0,0,0,-1,1980,1373,0,0
763,-349,0,0,0,0,0,0,0,0,0,-1,1987,1373,0,0
770,-349,0,0,0,0,0,0,0,0,0,-1,1994,1373,0,0
777,-349,0,0,0,0,0,0,0,0,0,-1,2001,1373,0,0
784,-349,0,0,0,0,0,0,0,0,0,-1,2008,1373,0,0
791,-349,0,0,0,0,0,0,0,0,0,-1,2015,1373,0,0
798,-349,0,0,0,0,0,0,0,0,0,-1,2022,1373,0,0
805,-349,0,0,0,0,0,0,0,0,0,-1,2029,1373,0,0
812,-349,0,0,0,0,0,0,0,0,0,-1,2036,1373,0,0
-700,-356,0,0,0,0,0,0,0,0,0,-1,524,1380,0,0
-693,-356,0,0,0,0,0,0,0,0,0,-1,531,1380,0,0
-686,-356,0,0,0,0,0,0,0,0,0,-1,538,1380,0,0
-679,-356,0,0,0,0,0,0,0,0,0,-1,545,1380,0,0
-672,-356,0,0,0,0,0,0,0,0,0,-1,552,1380,0,0
-665,-356,0,0,0,0,0,0,0,0,0,-1,559,1380,0,0
-658,-356,0,0,0,0,0,0,0,0,0,-1,566,1380,0,0
-651,-356,0,0,0,0,0,0,0,0,0,-1,573,1380,0,0
-644,-356,0,0,0,0,0,0,0,0,0,-1,580,1380,0,0
-637,-356,0,0,0,0,0,0,0,0,0,-1,587,1380,0,0
-630,-356,-2.36145,1.66687,0,0,0,0,0,0,0,-1,594,1380,-2.36143,-1.66681
-623,-356,-1.55286,1.55945,0.0628978,0.0516061,0.00678665,0.06608,0.0484239,0.43845,0.0395058,0.0482437,601,1380,-1.55287,-1.55942
-616,-356,-0.708252,1.42627,0.0543445,0.0426526,0.00463159,0.0559569,0.0410402,0.335004,0.0334597,0.045873,608,1380,-0.708243,-1.42629
-609,-356,-0.192932,1.35767,0.0459779,0.0347596,0.0035436,0.0470035,0.033734,0.281721,0.0279817,0.0475093,615,1380,-0.192929,-1.3577
-602,-356,-0.134399,1.10034,0,0,0,0,0,0,0,-1,622,1380,-0.134425,-1.10039
-595,-356,-0.0460205,0.366699,0.0306698,0.022049,0.00288926,0.0315486,0.0211703,0.295257,0.0185664,0.042138,629,1380,-0.0460437,-0.366672
-588,-356,0.22052,0.509644,0.0238201,0.0171016,0.0023566,0.0245642,0.0163574,0.305875,0.0144401,0.0431652,636,1380,0.220535,-0.509671
-581,-356,0.276001,0.651855,0.0183066,0.0131098,0.00238958,0.0192383,0.0121781,0.371779,0.0112375,0.0349082,643,1380,0.276027,-0.651827
-574,-356,0.267029,0.812256,0.0135591,0.00961301,0.00264422,0.0148853,0.00828684,0.464875,0.00861242,0.0196466,650,1380,0.267033,-0.81228
-567,-356,0.256409,0.871826,0.00901549,0.00672077,0.00262548,0.0107334,0.0050029,0.579399,0.00620166,0.0152564,657,1380,0.256437,-0.871812
-560,-356,0.265747,0.908203,0.00582195,0.00486554,0.00206102,0.00745951,0.00322797,0.671403,0.00431972,0.0167867,664,1380,0.265735,-0.908189
-553,-356,0.278992,0.920044,0.00377967,0.002929,0.00148479,0.00489884,0.00180983,0.645903,0.00286031,0.019986,671,1380,0.279015,-0.920081
-546,-356,0.255981,0.947876,0.00300695,0.00129017,0.000581203,0.00318521,0.00111191,0.297589,0.00186669,0.0224478,678,1380,0.25599,-0.947919
-539,-356,0.263489,1.01563,0.00238955,-0.000216198,-0.000516018,0.00248801,-0.000314665,-0.188554,0.0017729,0.0160574,685,1380,0.2635,-1.01568
-532,-356,0.250122,1.02356,0.00242004,-0.00234701,-0.00135249,0.00277703,-0.002704,-0.258065,0.00316457,0.0152486,692,1380,0.25012,-1.02353
-525,-356,0.251465,1.04517,0.00401961,-0.00384562,-0.00259253,0.00479727,-0.00462328,-0.291422,0.00543926,0.0123039,699,1380,0.251479,-1.04521
-518,-356,0.263367,1.10022,0.00763993,-0.00390039,-0.00440868,0.0091314,-0.00539185,-0.326216,0.00847715,0.0113418,706,1380,0.263361,-1.10024
-511,-356,0.283325,1.13293,0.0109386,-0.00460952,-0.00615989,0.0130833,-0.00675414,-0.335034,0.0116458,0.014783,713,1380,0.28331,-1.13297
-504,-356,0.317383,1.08984,0.0145202,-0.00531056,-0.00750016,0.0170373,-0.00782769,-0.323798,0.0146804,0.0265016,720,1380,0.317398,-1.08989
-497,-356,0.535339,0.747803,0,0,0,0,0,0,0,-1,727,1380,0.535336,-0.747778
-490,-356,0.816162,0.224731,0.0228375,-0.00203617,-0.0111712,0.0271181,-0.00631673,-0.36592,0.0205111,0.041238,734,1380,0.816154,-0.22478
-483,-356,0.531189,0.455322,0.026559,0.00193735,-0.013633,0.032617,-0.00412067,-0.418158,0.0232403,0.0434262,741,1380,0.531163,-0.455297
-476,-356,0.429138,-0.0888672,0,0,0,0,0,0,0,-1,748,1380,0.429166,0.0889195
-469,-356,2.71613,-2.40588,0,0,0,0,0,0,0,-1,755,1380,2.71612,2.4059
-462,-356,3.95691,-2.36108,0,0,0,0,0,0,0,-1,762,1380,3.95691,2.36112
-455,-356,-2.48621,1.0498,0.0331627,0.0291052,-0.0229679,0.0541913,0.00807659,-0.741348,0.0337589,0.0426886,769,1380,-2.48623,-1.04986
-448,-356,-2.52411,1.62268,0.0306353,0.0391903,-0.025485,0.0607542,0.00907133,-0.868545,0.0378432,0.0433277,776,1380,-2.5241,-1.62271
-441,-356,-2.41357,1.78589,0.0261872,0.0499469,-0.02814,0.0686119,0.00752218,-0.985134,0.0434515,0.0427015,783,1380,-2.41359,-1.78588
-434,-356,0,0,0,0,0,0,0,0,0,-1,790,1380,0,0
-427,-356,0,0,0,0,0,0,0,0,0,-1,797,1380,0,0
-420,-356,0,0,0,0,0,0,0,0,0,-1,804,1380,0,0
-413,-356,0,0,0,0,0,0,0,0,0,-1,811,1380,0,0
-406,-356,0,0,0,0,0,0,0,0,0,-1,818,1380,0,0
-399,-356,0,0,0,0,0,0,0,0,0,-1,825,1380,0,0
-392,-356,0,0,0,0,0,0,0,0,0,-1,832,1380,0,0
-385,-356,0,0,0,0,0,0,0,0,0,-1,839,1380,0,0
-378,-356,0,0,0,0,0,0,0,0,0,-1,846,1380,0,0
-371,-356,0,0,0,0,0,0,0,0,0,-1,853,1380,0,0
-364,-356,0,0,0,0,0,0,0,0,0,-1,860,1380,0,0
-357,-356,0,0,0,0,0,0,0,0,0,-1,867,1380,0,0
-350,-356,0,0,0,0,0,0,0,0,0,-1,874,1380,0,0
-343,-356,0,0,0,0,0,0,0,0,0,-1,881,1380,0,0
-336,-356,0,0,0,0,0,0,0,0,0,-1,888,1380,0,0
-329,-356,0,0,0,0,0,0,0,0,0,-1,895,1380,0,0
-322,-356,0,0,0,0,0,0,0,0,0,-1,902,1380,0,0
-315,-356,0,0,0,0,0,0,0,0,0,-1,909,1380,0,0
-308,-356,0,0,0,0,0,0,0,0,0,-1,916,1380,0,0
-301,-356,0,0,0,0,0,0,0,0,0,-1,923,1380,0,0
-294,-356,0,0,0,0,0,0,0,0,0,-1,930,1380,0,0
-287,-356,0,0,0,0,0,0,0,0,0,-1,937,1380,0,0
-280,-356,0,0,0,0,0,0,0,0,0,-1,944,1380,0,0
-273,-356,0,0,0,0,0,0,0,0,0,-1,951,1380,0,0
-266,-356,0,0,0,0,0,0,0,0,0,-1,958,1380,0,0
-259,-356,0,0,0,0,0,0,0,0,0,-1,965,1380,0,0
-252,-356,0,0,0,0,0,0,0,0,0,-1,972,1380,0,0
-245,-356,0,0,0,0,0,0,0,0,0,-1,979,1380,0,0
-238,-356,0,0,0,0,0,0,0,0,0,-1,986,1380,0,0
-231,-356,0,0,0,0,0,0,0,0,0,-1,993,1380,0,0
-224,-356,0,0,0,0,0,0,0,0,0,-1,1000,1380,0,0
-217,-356,0,0,0,0,0,0,0,0,0,-1,1007,1380,0,0
-210,-356,0,0,0,0,0,0,0,0,0,-1,1014,1380,0,0
-203,-356,0,0,0,0,0,0,0,0,0,-1,1021,1380,0,0
-196,-356,0,0,0,0,0,0,0,0,0,-1,1028,1380,0,0
-189,-356,0,0,0,0,0,0,0,0,0,-1,1035,1380,0,0
-182,-356,0,0,0,0,0,0,0,0,0,-1,1042,1380,0,0
-175,-356,0,0,0,0,0,0,0,0,0,-1,1049,1380,0,0
-168,-356,0,0,0,0,0,0,0,0,0,-1,1056,1380,0,0
-161,-356,0,0,0,0,0,0,0,0,0,-1,1063,1380,0,0
-154,-356,0,0,0,0,0,0,0,0,0,-1,1070,1380,0,0
-147,-356,0,0,0,0,0,0,0,0,0,-1,1077,1380,0,0
-140,-356,0,0,0,0,0,0,0,0,0,-1,1084,1380,0,0
-133,-356,0,0,0,0,0,0,0,0,0,-1,1091,1380,0,0
-126,-356,0,0,0,0,0,0,0,0,0,-1,1098,1380,0,0
-119,-356,0,0,0,0,0,0,0,0,0,-1,1105,1380,0,0
-112,-356,0,0,0,0,0,0,0,0,0,-1,1112,1380,0,0
-105,-356,0,0,0,0,0,0,0,0,0,-1,1119,1380,0,0
-98,-356,0,0,0,0,0,0,0,0,0,-1,1126,1380,0,0
-91,-356,0,0,0,0,0,0,0,0,0,-1,1133,1380,0,0
-84,-356,0,0,0,0,0,0,0,0,0,-1,1140,1380,0,0
-77,-356,0,0,0,0,0,0,0,0,0,-1,1147,1380,0,0
-70,-356,0,0,0,0,0,0,0,0,0,-1,1154,1380,0,0
-63,-356,0,0,0,0,0,0,0,0,0,-1,1161,1380,0,0
-56,-356,0,0,0,0,0,0,0,0,0,-1,1168,1380,0,0
-49,-356,0,0,0,0,0,0,0,0,0,-1,1175,1380,0,0
-42,-356,0,0,0,0,0,0,0,0,0,-1,1182,1380,0,0
-35,-356,0,0,0,0,0,0,0,0,0,-1,1189,1380,0,0
-28,-356,0,0,0,0,0,0,0,0,0,-1,1196,1380,0,0
-21,-356,0,0,0,0,0,0,0,0,0,-1,1203,1380,0,0
-14,-356,0,0,0,0,0,0,0,0,0,-1,1210,1380,0,0
-7,-356,0,0,0,0,0,0,0,0,0,-1,1217,1380,0,0
0,-356,0,0,0,0,0,0,0,0,0,-1,1224,1380,0,0
7,-356,0,0,0,0,0,0,0,0,0,-1,1231,1380,0,0
14,-356,0,0,0,0,0,0,0,0,0,-1,1238,1380,0,0
21,-356,0,0,0,0,0,0,0,0,0,-1,1245,1380,0,0
28,-356,0,0,0,0,0,0,0,0,0,-1,1252,1380,0,0
35,-356,0,0,0,0,0,0,0,0,0,-1,1259,1380,0,0
42,-356,0,0,0,0,0,0,0,0,0,-1,1266,1380,0,0
49,-356,0,0,0,0,0,0,0,0,0,-1,1273,1380,0,0
56,-356,0,0,0,0,0,0,0,0,0,-1,1280,1380,0,0
63,-356,0,0,0,0,0,0,0,0,0,-1,1287,1380,0,0
70,-356,0,0,0,0,0,0,0,0,0,-1,1294,1380,0,0
77,-356,0,0,0,0,0,0,0,0,0,-1,1301,1380,0,0
84,-356,0,0,0,0,0,0,0,0,0,-1,1308,1380,0,0
91,-356,0,0,0,0,0,0,0,0,0,-1,1315,1380,0,0
98,-356,0,0,0,0,0,0,0,0,0,-1,1322,1380,0,0
105,-356,0,0,0,0,0,0,0,0,0,-1,1329,1380,0,0
112,-356,0,0,0,0,0,0,0,0,0,-1,1336,1380,0,0
119,-356,0,0,0,0,0,0,0,0,0,-1,1343,1380,0,0
126,-356,0,0,0,0,0,0,0,0,0,-1,1350,1380,0,0
133,-356,0,0,0,0,0,0,0,0,0,-1,1357,1380,0,0
140,-356,0,0,0,0,0,0,0,0,0,-1,1364,1380,0,0
147,-356,0,0,0,0,0,0,0,0,0,-1,1371,1380,0,0
154,-356,0,0,0,0,0,0,0,0,0,-1,1378,1380,0,0
161,-356,0,0,0,0,0,0,0,0,0,-1,1385,1380,0,0
168,-356,0,0,0,0,0,0,0,0,0,-1,1392,1380,0,0
175,-356,0,0,0,0,0,0,0,0,0,-1,1399,1380,0,0
182,-356,0,0,0,0,0,0,0,0,0,-1,1406,1380,0,0
189,-356,0,0,0,0,0,0,0,0,0,-1,1413,1380,0,0
196,-356,0,0,0,0,0,0,0,0,0,-1,1420,1380,0,0
203,-356,0,0,0,0,0,0,0,0,0,-1,1427,1380,0,0
210,-356,0,0,0,0,0,0,0,0,0,-1,1434,1380,0,0
217,-356,0,0,0,0,0,0,0,0,0,-1,1441,1380,0,0
224,-356,0,0,0,0,0,0,0,0,0,-1,1448,1380,0,0
231,-356,0,0,0,0,0,0,0,0,0,-1,1455,1380,0,0
238,-356,0,0,0,0,0,0,0,0,0,-1,1462,1380,0,0
245,-356,0,0,0,0,0,0,0,0,0,-1,1469,1380,0,0
252,-356,0,0,0,0,0,0,0,0,0,-1,1476,1380,0,0
259,-356,0,0,0,0,0,0,0,0,0,-1,1483,1380,0,0
266,-356,0,0,0,0,0,0,0,0,0,-1,1490,1380,0,0
273,-356,0,0,0,0,0,0,0,0,0,-1,1497,1380,0,0
280,-356,0,0,0,0,0,0,0,0,0,-1,1504,1380,0,0
287,-356,0,0,0,0,0,0,0,0,0,-1,1511,1380,0,0
294,-356,0,0,0,0,0,0,0,0,0,-1,1518,1380,0,0
301,-356,0,0,0,0,0,0,0,0,0,-1,1525,1380,0,0
308,-356,0,0,0,0,0,0,0,0,0,-1,1532,1380,0,0
315,-356,0,0,0,0,0,0,0,0,0,-1,1539,1380,0,0
322,-356,0,0,0,0,0,0,0,0,0,-1,1546,1380,0,0
329,-356,0,0,0,0,0,0,0,0,0,-1,1553,1380,0,0
336,-356,0,0,0,0,0,0,0,0,0,-1,1560,1380,0,0
343,-356,0,0,0,0,0,0,0,0,0,-1,1567,1380,0,0
350,-356,0,0,0,0,0,0,0,0,0,-1,1574,1380,0,0
357,-356,0,0,0,0,0,0,0,0,0,-1,1581,1380,0,0
364,-356,0,0,0,0,0,0,0,0,0,-1,1588,1380,0,0
371,-356,0,0,0,0,0,0,0,0,0,-1,1595,1380,0,0
378,-356,0,0,0,0,0,0,0,0,0,-1,1602,1380,0,0
385,-356,0,0,0,0,0,0,0,0,0,-1,1609,1380,0,0
392,-356,0,0,0,0,0,0,0,0,0,-1,1616,1380,0,0
399,-356,0,0,0,0,0,0,0,0,0,-1,1623,1380,0,0
406,-356,0,0,0,0,0,0,0,0,0,-1,1630,1380,0,0
413,-356,0,0,0,0,0,0,0,0,0,-1,1637,1380,0,0
420,-356,0,0,0,0,0,0,0,0,0,-1,1644,1380,0,0
427,-356,0,0,0,0,0,0,0,0,0,-1,1651,1380,0,0
434,-356,0,0,0,0,0,0,0,0,0,-1,1658,1380,0,0
441,-356,0,0,0,0,0,0,0,0,0,-1,1665,1380,0,0
448,-356,0,0,0,0,0,0,0,0,0,-1,1672,1380,0,0
455,-356,0,0,0,0,0,0,0,0,0,-1,1679,1380,0,0
462,-356,0,0,0,0,0,0,0,0,0,-1,1686,1380,0,0
469,-356,0,0,0,0,0,0,0,0,0,-1,1693,1380,0,0
476,-356,0,0,0,0,0,0,0,0,0,-1,1700,1380,0,0
483,-356,0,0,0,0,0,0,0,0,0,-1,1707,1380,0,0
490,-356,0,0,0,0,0,0,0,0,0,-1,1714,1380,0,0
497,-356,0,0,0,0,0,0,0,0,0,-1,1721,1380,0,0
504,-356,0,0,0,0,0,0,0,0,0,-1,1728,1380,0,0
511,-356,0,0,0,0,0,0,0,0,0,-1,1735,1380,0,0
518,-356,0,0,0,0,0,0,0,0,0,-1,1742,1380,0,0
525,-356,0,0,0,0,0,0,0,0,0,-1,1749,1380,0,0
532,-356,0,0,0,0,0,0,0,0,0,-1,1756,1380,0,0
539,-356,0,0,0,0,0,0,0,0,0,-1,1763,1380,0,0
546,-356,0,0,0,0,0,0,0,0,0,-1,1770,1380,0,0
553,-356,0,0,0,0,0,0,0,0,0,-1,1777,1380,0,0
560,-356,2.68616,3.38513,0,0,0,0,0,0,0,-1,1784,1380,2.68611,-3.38512
567,-356,2.90063,2.84351,0.155613,0.030639,-0.0645375,0.182957,0.00329434,-0.40077,0.120888,0.0492279,1791,1380,2.90061,-2.84348
574,-356,3.10352,2.27161,0.129139,0.0219376,-0.0501552,0.148945,0.00213126,-0.376102,0.0985939,0.0438021,1798,1380,3.10347,-2.2716
581,-356,3.33496,1.70715,0.10481,0.015561,-0.037662,0.118579,0.00179225,-0.350493,0.0784619,0.0408247,1805,1380,3.33492,-1.70715
588,-356,3.56335,1.34717,0.0834488,0.0101518,-0.028125,0.0929969,0.000603672,-0.32728,0.0617977,0.0439106,1812,1380,3.5633,-1.34712
595,-356,3.58105,1.38,0,0,0,0,0,0,0,-1,1819,1380,3.58107,-1.38004
602,-356,3.41675,1.12854,0.0458458,0.00287998,-0.012064,0.0490014,-0.000275599,-0.255838,0.0327598,0.046601,1826,1380,3.4168,-1.12853
609,-356,3.14319,0.880249,0.0314409,0.000711879,-0.00568717,0.0324597,-0.000306897,-0.177256,0.0217428,0.0409,1833,1380,3.14324,-0.88022
616,-356,3.23291,0.950439,0.0161084,-0.0034322,0.00329521,0.0166492,-0.00397292,0.162643,0.0126337,0.0393604,1840,1380,3.23285,-0.950443
623,-356,3.3175,0.987915,0.00701558,-0.00234339,0.00302929,0.00791051,-0.00323833,0.287257,0.00662252,0.0390002,1847,1380,3.31755,-0.987917
630,-356,3.40564,1.02185,0.00703819,-0.00156752,0.0034364,0.00824201,-0.00277134,0.336953,0.00661488,0.0339481,1854,1380,3.40565,-1.02185
637,-356,3.40027,1.06555,0.00614023,-0.000810269,0.00363777,0.00769596,-0.002366,0.404121,0.00607488,0.0207934,1861,1380,3.40033,-1.0656
644,-356,3.38794,1.1051,0.00516224,-8.15328e-05,0.00321457,0.00668858,-0.00160787,0.4433,0.00508054,0.01688,1868,1380,3.38799,-1.10515
651,-356,3.39233,1.06018,0.00408506,0.000178824,0.00240538,0.00523041,-0.000966524,0.444396,0.00384977,0.0158358,1875,1380,3.39231,-1.0602
658,-356,3.37756,1.01257,0.00345146,0.000521724,0.00189118,0.00437875,-0.000405557,0.455874,0.00306331,0.0138526,1882,1380,3.37752,-1.01262
665,-356,3.37769,0.992432,0.00241856,0.000349577,0.000906863,0.00275978,8.3606e-06,0.359876,0.00183707,0.0129161,1889,1380,3.37772,-0.992411
672,-356,3.36426,0.96106,0.0013634,0.000680135,0.000298699,0.00147557,0.000567969,0.359223,0.000859411,0.0147298,1896,1380,3.3643,-0.961021
679,-356,3.3894,0.925659,0.000384486,0.00146672,-0.000453319,0.00163151,0.000219695,-1.22213,0.00102234,0.0168803,1903,1380,3.38939,-0.925658
686,-356,3.40393,0.899536,-0.000183186,0.00143981,-0.0012727,0.00213772,-0.000881092,-1.06921,0.00179254,0.0150922,1910,1380,3.40388,-0.899486
693,-356,3.41724,0.870239,-0.000278502,0.00216565,-0.002231,0.00348736,-0.00160021,-1.03596,0.00300391,0.0137668,1917,1380,3.41727,-0.87019
700,-356,3.38013,0.826416,-0.000136605,0.00303307,-0.00361252,0.0053931,-0.00249664,-0.99211,0.00465634,0.0188737,1924,1380,3.38013,-0.826404
707,-356,3.34436,0.73584,0.000216957,0.00449126,-0.00552795,0.0082808,-0.00357258,-0.969852,0.0070212,0.0211319,1931,1380,3.34433,-0.735812
714,-356,3.21484,0.593018,0.000812299,0.00648507,-0.00770181,0.0118562,-0.00455881,-0.961829,0.00978438,0.031487,1938,1380,3.21483,-0.593058
721,-356,3.01917,0.402588,0.00162152,0.00896432,-0.0107945,0.0166947,-0.00610881,-0.949321,0.0136302,0.0441044,1945,1380,3.01912,-0.402629
728,-356,2.8407,0.342896,0,0,0,0,0,0,0,-1,1952,1380,2.84067,-0.342947
735,-356,3.29968,1.7467,0,0,0,0,0,0,0,-1,1959,1380,3.29965,-1.74676
742,-356,3.24243,1.38391,0,0,0,0,0,0,0,-1,1966,1380,3.24237,-1.38394
749,-356,2.63538,2.66785,0,0,0,0,0,0,0,-1,1973,1380,2.63538,-2.66783
756,-356,0,0,0,0,0,0,0,0,0,-1,1980,1380,0,0
763,-356,0,0,0,0,0,0,0,0,0,-1,1987,1380,0,0
770,-356,0,0,0,0,0,0,0,0,0,-1,1994,1380,0,0
777,-356,0,0,0,0,0,0,0,0,0,-1,2001,1380,0,0
784,-356,0,0,0,0,0,0,0,0,0,-1,2008,1380,0,0
791,-356,0,0,0,0,0,0,0,0,0,-1,2015,1380,0,0
798,-356,0,0,0,0,0,0,0,0,0,-1,2022,1380,0,0
805,-356,0,0,0,0,0,0,0,0,0,-1,2029,1380,0,0
812,-356,0,0,0,0,0,0,0,0,0,-1,2036,1380,0,0
-700,-363,0,0,0,0,0,0,0,0,0,-1,524,1387,0,0
-693,-363,0,0,0,0,0,0,0,0,0,-1,531,1387,0,0
-686,-363,0,0,0,0,0,0,0,0,0,-1,538,1387,0,0
-679,-363,0,0,0,0,0,0,0,0,0,-1,545,1387,0,0
-672,-363,0,0,0,0,0,0,0,0,0,-1,552,1387,0,0
-665,-363,0,0,0,0,0,0,0,0,0,-1,559,1387,0,0
-658,-363,0,0,0,0,0,0,0,0,0,-1,566,1387,0,0
-651,-363,0,0,0,0,0,0,0,0,0,-1,573,1387,0,0
-644,-363,0,0,0,0,0,0,0,0,0,-1,580,1387,0,0
-637,-363,0,0,0,0,0,0,0,0,0,-1,587,1387,0,0
-630,-363,0,0,0,0,0,0,0,0,0,-1,594,1387,0,0
-623,-363,-1.69055,0.978271,0.070578,0.0503385,0.00222991,0.0708208,0.0500957,0.108443,0.0420441,0.0460136,601,1387,-1.69053,-0.978307
-616,-363,-0.984863,0.949707,0.0611047,0.0413987,0.000792111,0.0611365,0.0413669,0.0401102,0.0360238,0.0448286,608,1387,-0.984884,-0.949725
-609,-363,-0.478699,0.760254,0.0516595,0.0337009,0.000517569,0.0516744,0.033686,0.0287884,0.0302896,0.0454022,615,1387,-0.478697,-0.76031
-602,-363,-0.274658,0.572876,0.0426948,0.0271258,0.000816983,0.0427375,0.0270831,0.0522837,0.0249669,0.0439117,622,1387,-0.274639,-0.572901
-595,-363,0.0944214,0.457886,0.0343898,0.0216111,0.00134534,0.0345299,0.021471,0.103764,0.0201321,0.0407742,629,1387,0.0944086,-0.457879
-588,-363,0.222107,0.17688,0.0267582,0.0170483,0.00155676,0.0270017,0.0168048,0.155148,0.0157443,0.0409287,636,1387,0.222125,-0.176837
-581,-363,0.398071,0.570679,0.0206008,0.0131957,0.00205124,0.021131,0.0126654,0.252958,0.01228,0.0359706,643,1387,0.398043,-0.570625
-574,-363,0.33844,0.80957,0.0153383,0.0100216,0.0025996,0.0163981,0.00896176,0.387113,0.00948109,0.024712,650,1387,0.338421,-0.80951
-567,-363,0.301086,0.841309,0.0104479,0.00729331,0.00274477,0.0120363,0.0057049,0.524613,0.00695229,0.0158787,657,1387,0.301088,-0.841331
-560,-363,0.30658,0.867554,0.00691953,0.0054718,0.00241073,0.00871272,0.0036786,0.639547,0.00505054,0.0128455,664,1387,0.306569,-0.867608
-553,-363,0.284485,0.927612,0.00451319,0.00361841,0.00200564,0.00612074,0.00201087,0.675662,0.00360241,0.0132085,671,1387,0.284514,-0.92765
-546,-363,0.295471,0.970459,0.00336937,0.00204086,0.00127558,0.00414329,0.00126694,0.545346,0.00245155,0.0133918,678,1387,0.295493,-0.970457
-539,-363,0.307983,0.988159,0.00244625,0.000467616,0.000333793,0.00250105,0.000412823,0.162702,0.00154821,0.0155171,685,1387,0.307966,-0.988103
-532,-363,0.301147,1.0304,0.00222562,-0.00189717,-0.000421159,0.00226821,-0.00193975,-0.100767,0.00243193,0.0128284,692,1387,0.301129,-1.03035
-525,-363,0.302673,1.05518,0.0034791,-0.00360682,-0.00163301,0.00383733,-0.00396505,-0.215947,0.00450491,0.00992732,699,1387,0.302666,-1.05517
-518,-363,0.301941,1.08691,0.00656546,-0.00424548,-0.003294,0.00749003,-0.00517006,-0.273645,0.0073501,0.00912469,706,1387,0.301912,-1.08689
-511,-363,0.314209,1.12671,0.00925458,-0.00545357,-0.0048872,0.0107304,-0.0069294,-0.29327,0.0102743,0.0137302,713,1387,0.314218,-1.12671
-504,-363,0.368408,1.10413,0.0122467,-0.00675942,-0.00608906,0.0140302,-0.00854284,-0.284921,0.0131603,0.0192819,720,1387,0.368421,-1.1041
-497,-363,0.465271,0.929321,0.0157107,-0.00687397,-0.00728665,0.0178576,-0.00902084,-0.286523,0.0157953,0.0320993,727,1387,0.465296,-0.929282
-490,-363,0.440186,0.851685,0.0194488,-0.00518155,-0.00942499,0.0226415,-0.00837424,-0.326616,0.0185277,0.0394928,734,1387,0.440207,-0.851745
-483,-363,-0.0407715,1.18921,0.0226848,-0.00223261,-0.0117285,0.0273369,-0.00688466,-0.377609,0.0209009,0.0406134,741,1387,-0.0407702,-1.18927
-476,-363,-0.420227,1.55945,0.0253787,0.00136341,-0.0136896,0.0315806,-0.00483848,-0.425378,0.0228381,0.0410336,748,1387,-0.420238,-1.55947
-469,-363,0.652527,1.16785,0.0274133,0.00600099,-0.0157395,0.0357427,-0.00232842,-0.486738,0.0246413,0.0417535,755,1387,0.652531,-1.16784
-462,-363,1.25781,0.995972,0,0,0,0,0,0,0,-1,762,1387,1.25779,-0.995976
-455,-363,-2.22479,1.47961,0.028155,0.0187433,-0.0203311,0.0443178,0.00258049,-0.671671,0.0287237,0.0451743,769,1387,-2.2248,-1.47962
-448,-363,-2.15704,1.45618,0.0259762,0.0268608,-0.0226398,0.0490626,0.00377434,-0.795165,0.0315257,0.0465107,776,1387,-2.15706,-1.4562
-441,-363,-1.84125,1.19177,0.0221538,0.0357704,-0.025019,0.0548909,0.00303323,-0.918244,0.035626,0.0448152,783,1387,-1.84125,-1.19177
-434,-363,-1.95111,1.22034,0.0157909,0.0441939,-0.027135,0.060619,-0.000634253,-1.02648,0.0406258,0.0436288,790,1387,-1.95111,-1.22029
-427,-363,0,0,0,0,0,0,0,0,0,-1,797,1387,0,0
-420,-363,0,0,0,0,0,0,0,0,0,-1,804,1387,0,0
-413,-363,0,0,0,0,0,0,0,0,0,-1,811,1387,0,0
-406,-363,0,0,0,0,0,0,0,0,0,-1,818,1387,0,0
-399,-363,0,0,0,0,0,0,0,0,0,-1,825,1387,0,0
-392,-363,0,0,0,0,0,0,0,0,0,-1,832,1387,0,0
-385,-363,0,0,0,0,0,0,0,0,0,-1,839,1387,0,0
-378,-363,0,0,0,0,0,0,0,0,0,-1,846,1387,0,0
-371,-363,0,0,0,0,0,0,0,0,0,-1,853,1387,0,0
-364,-363,0,0,0,0,0,0,0,0,0,-1,860,1387,0,0
-357,-363,0,0,0,0,0,0,0,0,0,-1,867,1387,0,0
-350,-363,0,0,0,0,0,0,0,0,0,-1,874,1387,0,0
-343,-363,0,0,0,0,0,0,0,0,0,-1,881,1387,0,0
-336,-363,0,0,0,0,0,0,0,0,0,-1,888,1387,0,0
-329,-363,0,0,0,0,0,0,0,0,0,-1,895,1387,0,0
-322,-363,0,0,0,0,0,0,0,0,0,-1,902,1387,0,0
-315,-363,0,0,0,0,0,0,0,0,0,-1,909,1387,0,0
-308,-363,0,0,0,0,0,0,0,0,0,-1,916,1387,0,0
-301,-363,0,0,0,0,0,0,0,0,0,-1,923,1387,0,0
-294,-363,0,0,0,0,0,0,0,0,0,-1,930,1387,0,0
-287,-363,0,0,0,0,0,0,0,0,0,-1,937,1387,0,0
-280,-363,0,0,0,0,0,0,0,0,0,-1,944,1387,0,0
-273,-363,0,0,0,0,0,0,0,0,0,-1,951,1387,0,0
-266,-363,0,0,0,0,0,0,0,0,0,-1,958,1387,0,0
-259,-363,0,0,0,0,0,0,0,0,0,-1,965,1387,0,0
-252,-363,0,0,0,0,0,0,0,0,0,-1,972,1387,0,0
-245,-363,0,0,0,0,0,0,0,0,0,-1,979,1387,0,0
-238,-363,0,0,0,0,0,0,0,0,0,-1,986,1387,0,0
-231,-363,0,0,0,0,0,0,0,0,0,-1,993,1387,0,0
-224,-363,0,0,0,0,0,0,0,0,0,-1,1000,1387,0,0
-217,-363,0,0,0,0,0,0,0,0,0,-1,1007,1387,0,0
-210,-363,0,0,0,0,0,0,0,0,0,-1,1014,1387,0,0
-203,-363,0,0,0,0,0,0,0,0,0,-1,1021,1387,0,0
-196,-363,0,0,0,0,0,0,0,0,0,-1,1028,1387,0,0
-189,-363,0,0,0,0,0,0,0,0,0,-1,1035,1387,0,0
-182,-363,0,0,0,0,0,0,0,0,0,-1,1042,1387,0,0
-175,-363,0,0,0,0,0,0,0,0,0,-1,1049,1387,0,0
-168,-363,0,0,0,0,0,0,0,0,0,-1,1056,1387,0,0
-161,-363,0,0,0,0,0,0,0,0,0,-1,1063,1387,0,0
-154,-363,0,0,0,0,0,0,0,0,0,-1,1070,1387,0,0
-147,-363,0,0,0,0,0,0,0,0,0,-1,1077,1387,0,0
-140,-363,0,0,0,0,0,0,0,0,0,-1,1084,1387,0,0
-133,-363,0,0,0,0,0,0,0,0,0,-1,1091,1387,0,0
-126,-363,0,0,0,0,0,0,0,0,0,-1,1098,1387,0,0
-119,-363,0,0,0,0,0,0,0,0,0,-1,1105,1387,0,0
-112,-363,0,0,0,0,0,0,0,0,0,-1,1112,1387,0,0
-105,-363,0,0,0,0,0,0,0,0,0,-1,1119,1387,0,0
-98,-363,0,0,0,0,0,0,0,0,0,-1,1126,1387,0,0
-91,-363,0,0,0,0,0,0,0,0,0,-1,1133,1387,0,0
-84,-363,0,0,0,0,0,0,0,0,0,-1,1140,1387,0,0
-77,-363,0,0,0,0,0,0,0,0,0,-1,1147,1387,0,0
-70,-363,0,0,0,0,0,0,0,0,0,-1,1154,1387,0,0
-63,-363,0,0,0,0,0,0,0,0,0,-1,1161,1387,0,0
-56,-363,0,0,0,0,0,0,0,0,0,-1,1168,1387,0,0
-49,-363,0,0,0,0,0,0,0,0,0,-1,1175,1387,0,0
-42,-363,0,0,0,0,0,0,0,0,0,-1,1182,1387,0,0
-35,-363,0,0,0,0,0,0,0,0,0,-1,1189,1387,0,0
-28,-363,0,0,0,0,0,0,0,0,0,-1,1196,1387,0,0
-21,-363,0,0,0,0,0,0,0,0,0,-1,1203,1387,0,0
-14,-363,0,0,0,0,0,0,0,0,0,-1,1210,1387,0,0
-7,-363,0,0,0,0,0,0,0,0,0,-1,1217,1387,0,0
0,-363,0,0,0,0,0,0,0,0,0,-1,1224,1387,0,0
7,-363,0,0,0,0,0,0,0,0,0,-1,1231,1387,0,0
14,-363,0,0,0,0,0,0,0,0,0,-1,1238,1387,0,0
21,-363,0,0,0,0,0,0,0,0,0,-1,1245,1387,0,0
28,-363,0,0,0,0,0,0,0,0,0,-1,1252,1387,0,0
35,-363,0,0,0,0,0,0,0,0,0,-1,1259,1387,0,0
42,-363,0,0,0,0,0,0,0,0,0,-1,1266,1387,0,0
49,-363,0,0,0,0,0,0,0,0,0,-1,1273,1387,0,0
56,-363,0,0,0,0,0,0,0,0,0,-1,1280,1387,0,0
63,-363,0,0,0,0,0,0,0,0,0,-1,1287,1387,0,0
70,-363,0,0,0,0,0,0,0,0,0,-1,1294,1387,0,0
77,-363,0,0,0,0,0,0,0,0,0,-1,1301,1387,0,0
84,-363,0,0,0,0,0,0,0,0,0,-1,1308,1387,0,0
91,-363,0,0,0,0,0,0,0,0,0,-1,1315,1387,0,0
98,-363,0,0,0,0,0,0,0,0,0,-1,1322,1387,0,0
105,-363,0,0,0,0,0,0,0,0,0,-1,1329,1387,0,0
112,-363,0,0,0,0,0,0,0,0,0,-1,1336,1387,0,0
119,-363,0,0,0,0,0,0,0,0,0,-1,1343,1387,0,0
126,-363,0,0,0,0,0,0,0,0,0,-1,1350,1387,0,0
133,-363,0,0,0,0,0,0,0,0,0,-1,1357,1387,0,0
140,-363,0,0,0,0,0,0,0,0,0,-1,1364,1387,0,0
147,-363,0,0,0,0,0,0,0,0,0,-1,1371,1387,0,0
154,-363,0,0,0,0,0,0,0,0,0,-1,1378,1387,0,0
161,-363,0,0,0,0,0,0,0,0,0,-1,1385,1387,0,0
168,-363,0,0,0,0,0,0,0,0,0,-1,1392,1387,0,0
175,-363,0,0,0,0,0,0,0,0,0,-1,1399,1387,0,0
182,-363,0,0,0,0,0,0,0,0,0,-1,1406,1387,0,0
189,-363,0,0,0,0,0,0,0,0,0,-1,1413,1387,0,0
196,-363,0,0,0,0,0,0,0,0,0,-1,1420,1387,0,0
203,-363,0,0,0,0,0,0,0,0,0,-1,1427,1387,0,0
210,-363,0,0,0,0,0,0,0,0,0,-1,1434,1387,0,0
217,-363,0,0,0,0,0,0,0,0,0,-1,1441,1387,0,0
224,-363,0,0,0,0,0,0,0,0,0,-1,1448,1387,0,0
231,-363,0,0,0,0,0,0,0,0,0,-1,1455,1387,0,0
238,-363,0,0,0,0,0,0,0,0,0,-1,1462,1387,0,0
245,-363,0,0,0,0,0,0,0,0,0,-1,1469,1387,0,0
252,-363,0,0,0,0,0,0,0,0,0,-1,1476,1387,0,0
259,-363,0,0,0,0,0,0,0,0,0,-1,1483,1387,0,0
266,-363,0,0,0,0,0,0,0,0,0,-1,1490,1387,0,0
273,-363,0,0,0,0,0,0,0,0,0,-1,1497,1387,0,0
280,-363,0,0,0,0,0,0,0,0,0,-1,1504,1387,0,0
287,-363,0,0,0,0,0,0,0,0,0,-1,1511,1387,0,0
294,-363,0,0,0,0,0,0,0,0,0,-1,1518,1387,0,0
301,-363,0,0,0,0,0,0,0,0,0,-1,1525,1387,0,0
308,-363,0,0,0,0,0,0,0,0,0,-1,1532,1387,0,0
315,-363,0,0,0,0,0,0,0,0,0,-1,1539,1387,0,0
322,-363,0,0,0,0,0,0,0,0,0,-1,1546,1387,0,0
329,-363,0,0,0,0,0,0,0,0,0,-1,1553,1387,0,0
336,-363,0,0,0,0,0,0,0,0,0,-1,1560,1387,0,0
343,-363,0,0,0,0,0,0,0,0,0,-1,1567,1387,0,0
350,-363,0,0,0,0,0,0,0,0,0,-1,1574,1387,0,0
357,-363,0,0,0,0,0,0,0,0,0,-1,1581,1387,0,0
364,-363,0,0,0,0,0,0,0,0,0,-1,1588,1387,0,0
371,-363,0,0,0,0,0,0,0,0,0,-1,1595,1387,0,0
378,-363,0,0,0,0,0,0,0,0,0,-1,1602,1387,0,0
385,-363,0,0,0,0,0,0,0,0,0,-1,1609,1387,0,0
392,-363,0,0,0,0,0,0,0,0,0,-1,1616,1387,0,0
399,-363,0,0,0,0,0,0,0,0,0,-1,1623,1387,0,0
406,-363,0,0,0,0,0,0,0,0,0,-1,1630,1387,0,0
413,-363,0,0,0,0,0,0,0,0,0,-1,1637,1387,0,0
420,-363,0,0,0,0,0,0,0,0,0,-1,1644,1387,0,0
427,-363,0,0,0,0,0,0,0,0,0,-1,1651,1387,0,0
434,-363,0,0,0,0,0,0,0,0,0,-1,1658,1387,0,0
441,-363,0,0,0,0,0,0,0,0,0,-1,1665,1387,0,0
448,-363,0,0,0,0,0,0,0,0,0,-1,1672,1387,0,0
455,-363,0,0,0,0,0,0,0,0,0,-1,1679,1387,0,0
462,-363,0,0,0,0,0,0,0,0,0,-1,1686,1387,0,0
469,-363,0,0,0,0,0,0,0,0,0,-1,1693,1387,0,0
476,-363,0,0,0,0,0,0,0,0,0,-1,1700,1387,0,0
483,-363,0,0,0,0,0,0,0,0,0,-1,1707,1387,0,0
490,-363,0,0,0,0,0,0,0,0,0,-1,1714,1387,0,0
497,-363,0,0,0,0,0,0,0,0,0,-1,1721,1387,0,0
504,-363,0,0,0,0,0,0,0,0,0,-1,1728,1387,0,0
511,-363,0,0,0,0,0,0,0,0,0,-1,1735,1387,0,0
518,-363,0,0,0,0,0,0,0,0,0,-1,1742,1387,0,0
525,-363,0,0,0,0,0,0,0,0,0,-1,1749,1387,0,0
532,-363,0,0,0,0,0,0,0,0,0,-1,1756,1387,0,0
539,-363,0,0,0,0,0,0,0,0,0,-1,1763,1387,0,0
546,-363,0,0,0,0,0,0,0,0,0,-1,1770,1387,0,0
553,-363,2.79468,4.14014,0,0,0,0,0,0,0,-1,1777,1387,2.79466,-4.14015
560,-363,3.08704,3.46167,0.182535,0.039368,-0.0750616,0.214674,0.0072286,-0.404556,0.140768,0.0488939,1784,1387,3.08702,-3.46165
567,-363,3.01306,2.76489,0.153746,0.0323227,-0.0603988,0.178672,0.00739603,-0.391408,0.116728,0.0483376,1791,1387,3.01309,-2.76484
574,-363,3.40063,2.12183,0,0,0,0,0,0,0,-1,1798,1387,3.40061,-2.12177
581,-363,3.5719,1.9364,0.100536,0.0189604,-0.0349464,0.113459,0.006037,-0.354211,0.0737095,0.0427976,1805,1387,3.57194,-1.93637
588,-363,3.78174,1.7655,0.078903,0.0137809,-0.0261458,0.0881011,0.00458283,-0.338277,0.0572676,0.0434504,1812,1387,3.78174,-1.76555
595,-363,3.70276,1.59119,0,0,0,0,0,0,0,-1,1819,1387,3.70277,-1.59115
602,-363,3.54077,1.27258,0.0413384,0.00580665,-0.0120085,0.0450162,0.00212887,-0.297194,0.029327,0.0465232,1826,1387,3.54077,-1.27263
609,-363,3.27722,0.958618,0.0266534,0.00300862,-0.00654022,0.0283418,0.00132015,-0.252651,0.0184702,0.0428345,1833,1387,3.27723,-0.958642
616,-363,3.17432,0.964844,0.011147,-0.00225657,0.00212639,0.0114762,-0.00258582,0.153621,0.00864267,0.0418308,1840,1387,3.17435,-0.96486
623,-363,3.27063,1.02417,0.0020138,-0.00146993,0.00149235,0.00256566,-0.00202179,0.354201,0.00265477,0.0405217,1847,1387,3.27064,-1.02417
630,-363,3.35681,1.0769,0.00283936,-0.000946428,0.00192186,0.00364398,-0.00175105,0.396496,0.00317809,0.0261348,1854,1387,3.35676,-1.07688
637,-363,3.32397,1.0813,0.00264675,-0.000290704,0.00231686,0.0039212,-0.00156515,0.5029,0.00326345,0.0134247,1861,1387,3.324,-1.08134
644,-363,3.34363,1.07666,0.00242261,0.00032554,0.00218376,0.00379652,-0.00104837,0.561576,0.00294337,0.0109825,1868,1387,3.34364,-1.07664
651,-363,3.37219,1.0304,0.00205247,0.00055097,0.00166827,0.00313113,-0.000527693,0.573964,0.00228373,0.0109683,1875,1387,3.37217,-1.0304
658,-363,3.38708,0.991089,0.00197297,0.000811891,0.00133197,0.00284542,-6.05584e-05,0.579886,0.00191745,0.011363,1882,1387,3.38709,-0.991029
665,-363,3.34888,0.979492,0.0015081,0.000603128,0.000503514,0.00173257,0.000378657,0.419363,0.0010518,0.0111758,1889,1387,3.34887,-0.979535
672,-363,3.32507,0.952881,0.000927856,0.000941224,-0.000109285,0.00104403,0.000825051,-0.81594,0.000635725,0.013389,1896,1387,3.32508,-0.95287
679,-363,3.36389,0.929688,0.000421031,0.00171327,-0.000885245,0.00216311,-2.88108e-05,-1.10065,0.00145177,0.0157232,1903,1387,3.36387,-0.929642
686,-363,3.37207,0.910889,0.00021214,0.0018236,-0.00174413,0.00293911,-0.000903375,-1.00178,0.00231992,0.0151579,1910,1387,3.37212,-0.91094
693,-363,3.38513,0.859985,0.000395341,0.00257207,-0.00283506,0.00452049,-0.00155308,-0.968671,0.00364342,0.0139479,1917,1387,3.3851,-0.859934
700,-363,3.35718,0.805176,0.000833881,0.00358248,-0.00438192,0.00680056,-0.0023842,-0.937355,0.00550337,0.0161864,1924,1387,3.35712,-0.805197
707,-363,3.29529,0.728271,0.00142498,0.00523791,-0.00654607,0.0101495,-0.00348659,-0.927097,0.00818007,0.022137,1931,1387,3.29533,-0.728232
714,-363,3.22107,0.695801,0.00221514,0.00709786,-0.00909196,0.0140705,-0.00475753,-0.916563,0.011305,0.0386559,1938,1387,3.22111,-0.695778
721,-363,3.16321,0.662964,0,0,0,0,0,0,0,-1,1945,1387,3.16325,-0.662975
728,-363,3.45898,1.75586,0.00466989,0.012876,-0.0170872,0.0263458,-0.00879994,-0.90323,0.0211175,0.0487064,1952,1387,3.45904,-1.75586
735,-363,3.36218,1.19031,0,0,0,0,0,0,0,-1,1959,1387,3.36214,-1.19033
742,-363,3.32288,0.991455,0,0,0,0,0,0,0,-1,1966,1387,3.32285,-0.9915
749,-363,0,0,0,0,0,0,0,0,0,-1,1973,1387,0,0
756,-363,0,0,0,0,0,0,0,0,0,-1,1980,1387,0,0
763,-363,0,0,0,0,0,0,0,0,0,-1,1987,1387,0,0
770,-363,0,0,0,0,0,0,0,0,0,-1,1994,1387,0,0
777,-363,0,0,0,0,0,0,0,0,0,-1,2001,1387,0,0
784,-363,0,0,0,0,0,0,0,0,0,-1,2008,1387,0,0
791,-363,0,0,0,0,0,0,0,0,0,-1,2015,1387,0,0
798,-363,0,0,0,0,0,0,0,0,0,-1,2022,1387,0,0
805,-363,0,0,0,0,0,0,0,0,0,-1,2029,1387,0,0
812,-363,0,0,0,0,0,0,0,0,0,-1,2036,1387,0,0
-700,-370,0,0,0,0,0,0,0,0,0,-1,524,1394,0,0
-693,-370,0,0,0,0,0,0,0,0,0,-1,531,1394,0,0
-686,-370,0,0,0,0,0,0,0,0,0,-1,538,1394,0,0
-679,-370,0,0,0,0,0,0,0,0,0,-1,545,1394,0,0
-672,-370,0,0,0,0,0,0,0,0,0,-1,552,1394,0,0
-665,-370,0,0,0,0,0,0,0,0,0,-1,559,1394,0,0
-658,-370,0,0,0,0,0,0,0,0,0,-1,566,1394,0,0
-651,-370,0,0,0,0,0,0,0,0,0,-1,573,1394,0,0
-644,-370,0,0,0,0,0,0,0,0,0,-1,580,1394,0,0
-637,-370,0,0,0,0,0,0,0,0,0,-1,587,1394,0,0
-630,-370,0,0,0,0,0,0,0,0,0,-1,594,1394,0,0
-623,-370,-1.90283,0.615234,0.0738647,0.046559,-0.00753221,0.0758046,0.0446191,-0.252072,0.0439943,0.0457655,601,1394,-1.90286,-0.615293
-616,-370,-1.34839,0.62561,0.0647198,0.0381076,-0.00636529,0.0661639,0.0366635,-0.223099,0.0382743,0.0417872,608,1394,-1.34836,-0.625608
-609,-370,-0.776123,0.238403,0.0550097,0.0311304,-0.00465113,0.0558836,0.0302565,-0.185734,0.0323013,0.0417634,615,1394,-0.776121,-0.23846
-602,-370,-0.366699,0.133789,0.0456069,0.0253565,-0.00282908,0.0459947,0.0249687,-0.136231,0.0265876,0.0406965,622,1394,-0.366683,-0.133834
-595,-370,0.0835571,0.173462,0.0368231,0.0206012,-0.00118052,0.0369085,0.0205157,-0.0722659,0.0213534,0.040277,629,1394,0.0835613,-0.173495
-588,-370,0.188232,-0.338623,0,0,0,0,0,0,0,-1,636,1394,0.188209,0.338659
-581,-370,0.353271,0.141357,0.0223932,0.0133154,0.00132171,0.0225818,0.0131269,0.14168,0.0130949,0.0407416,643,1394,0.353254,-0.141347
-574,-370,0.448181,0.73999,0.0167262,0.0105839,0.00212139,0.0173876,0.00992249,0.302248,0.0100721,0.0318611,650,1394,0.448185,-0.740032
-567,-370,0.339355,0.836548,0.0116184,0.00809456,0.00248283,0.012901,0.00681202,0.476813,0.00745228,0.0185538,657,1394,0.33938,-0.836548
-560,-370,0.324341,0.876587,0.00788746,0.00635011,0.00240456,0.00964322,0.00459435,0.630695,0.00556958,0.0132219,664,1394,0.324312,-0.876635
-553,-370,0.32251,0.91687,0.00521297,0.00460153,0.00219263,0.00712108,0.00269341,0.716129,0.0041518,0.010096,671,1394,0.322531,-0.916844
-546,-370,0.316345,0.960083,0.00372288,0.00308426,0.00165954,0.00509355,0.00171358,0.690355,0.00299276,0.0124427,678,1394,0.316336,-0.96012
-539,-370,0.340942,1.00452,0.00247956,0.00143156,0.000941447,0.00303301,0.000878111,0.531455,0.00180208,0.0162149,685,1394,0.340964,-1.00451
-532,-370,0.343079,1.04077,0.00203528,-0.00113223,0.000244942,0.00205411,-0.00115106,0.0767217,0.00187483,0.019175,692,1394,0.343057,-1.04075
-525,-370,0.345581,1.06787,0.00297241,-0.0030808,-0.000960874,0.00312128,-0.00322966,-0.153706,0.00366689,0.0117728,699,1394,0.345555,-1.06788
-518,-370,0.334534,1.08044,0.00545893,-0.00433406,-0.00242394,0.00602606,-0.00490118,-0.229834,0.00631998,0.00921863,706,1394,0.334556,-1.08041
-511,-370,0.341492,1.1228,0.00753025,-0.00603299,-0.0038773,0.0085604,-0.00706314,-0.259689,0.00903405,0.0141853,713,1394,0.341474,-1.12284
-504,-370,0.354919,1.16016,0.00995831,-0.00791817,-0.00495953,0.0112421,-0.00920192,-0.253286,0.0118229,0.018959,720,1394,0.354925,-1.16012
-497,-370,0.406067,1.12415,0.0128361,-0.00880835,-0.00598208,0.0143793,-0.0103516,-0.25248,0.0143414,0.025643,727,1394,0.406054,-1.12418
-490,-370,0.354614,1.03882,0.0160419,-0.0080808,-0.00788491,0.0183905,-0.0104294,-0.289498,0.0168495,0.0367852,734,1394,0.354644,-1.03888
-483,-370,0.00708008,1.36462,0.0187955,-0.00615565,-0.00992578,0.0222623,-0.0096225,-0.336031,0.0188847,0.0427325,741,1394,0.00706199,-1.36467
-476,-370,-0.0117188,1.54419,0.0209566,-0.00367536,-0.011666,0.0256047,-0.00832344,-0.379151,0.0204178,0.0399274,748,1394,-0.0116966,-1.54422
-469,-370,0.620422,1.25488,0.0224982,-0.000367117,-0.0134401,0.0287104,-0.00657932,-0.432966,0.0216689,0.0362777,755,1394,0.620415,-1.25494
-462,-370,0.992188,1.09131,0,0,0,0,0,0,0,-1,762,1394,0.992203,-1.09132
-455,-370,1.41815,1.14636,0,0,0,0,0,0,0,-1,769,1394,1.41817,-1.14637
-448,-370,-1.94965,1.38843,0.0208385,0.0157651,-0.0196763,0.0381409,-0.00153732,-0.721292,0.0259549,0.0456839,776,1394,-1.94964,-1.38845
-441,-370,-1.5567,1.11401,0.0173727,0.0230247,-0.0216882,0.0420702,-0.00167288,-0.850183,0.0286208,0.0437434,783,1394,-1.55668,-1.11396
-434,-370,-1.29926,0.891235,0.0123442,0.0300476,-0.0235138,0.0463206,-0.00392879,-0.965418,0.0322698,0.043579,790,1394,-1.29924,-0.891282
-427,-370,0,0,0,0,0,0,0,0,0,-1,797,1394,0,0
-420,-370,0,0,0,0,0,0,0,0,0,-1,804,1394,0,0
-413,-370,0,0,0,0,0,0,0,0,0,-1,811,1394,0,0
-406,-370,0,0,0,0,0,0,0,0,0,-1,818,1394,0,0
-399,-370,0,0,0,0,0,0,0,0,0,-1,825,1394,0,0
-392,-370,0,0,0,0,0,0,0,0,0,-1,832,1394,0,0
-385,-370,0,0,0,0,0,0,0,0,0,-1,839,1394,0,0
-378,-370,0,0,0,0,0,0,0,0,0,-1,846,1394,0,0
-371,-370,0,0,0,0,0,0,0,0,0,-1,853,1394,0,0
-364,-370,0,0,0,0,0,0,0,0,0,-1,860,1394,0,0
-357,-370,0,0,0,0,0,0,0,0,0,-1,867,1394,0,0
-350,-370,0,0,0,0,0,0,0,0,0,-1,874,1394,0,0
-343,-370,0,0,0,0,0,0,0,0,0,-1,881,1394,0,0
-336,-370,0,0,0,0,0,0,0,0,0,-1,888,1394,0,0
-329,-370,0,0,0,0,0,0,0,0,0,-1,895,1394,0,0
-322,-370,0,0,0,0,0,0,0,0,0,-1,902,1394,0,0
-315,-370,0,0,0,0,0,0,0,0,0,-1,909,1394,0,0
-308,-370,0,0,0,0,0,0,0,0,0,-1,916,1394,0,0
-301,-370,0,0,0,0,0,0,0,0,0,-1,923,1394,0,0
-294,-370,0,0,0,0,0,0,0,0,0,-1,930,1394,0,0
-287,-370,0,0,0,0,0,0,0,0,0,-1,937,1394,0,0
-280,-370,0,0,0,0,0,0,0,0,0,-1,944,1394,0,0
-273,-370,0,0,0,0,0,0,0,0,0,-1,951,1394,0,0
-266,-370,0,0,0,0,0,0,0,0,0,-1,958,1394,0,0
-259,-370,0,0,0,0,0,0,0,0,0,-1,965,1394,0,0
-252,-370,0,0,0,0,0,0,0,0,0,-1,972,1394,0,0
-245,-370,0,0,0,0,0,0,0,0,0,-1,979,1394,0,0
-238,-370,0,0,0,0,0,0,0,0,0,-1,986,1394,0,0
-231,-370,0,0,0,0,0,0,0,0,0,-1,993,1394,0,0
-224,-370,0,0,0,0,0,0,0,0,0,-1,1000,1394,0,0
-217,-370,0,0,0,0,0,0,0,0,0,-1,1007,1394,0,0
-210,-370,0,0,0,0,0,0,0,0,0,-1,1014,1394,0,0
-203,-370,0,0,0,0,0,0,0,0,0,-1,1021,1394,0,0
-196,-370,0,0,0,0,0,0,0,0,0,-1,1028,1394,0,0
-189,-370,0,0,0,0,0,0,0,0,0,-1,1035,1394,0,0
-182,-370,0,0,0,0,0,0,0,0,0,-1,1042,1394,0,0
-175,-370,0,0,0,0,0,0,0,0,0,-1,1049,1394,0,0
-168,-370,0,0,0,0,0,0,0,0,0,-1,1056,1394,0,0
-161,-370,0,0,0,0,0,0,0,0,0,-1,1063,1394,0,0
-154,-370,0,0,0,0,0,0,0,0,0,-1,1070,1394,0,0
-147,-370,0,0,0,0,0,0,0,0,0,-1,1077,1394,0,0
-140,-370,0,0,0,0,0,0,0,0,0,-1,1084,1394,0,0
-133,-370,0,0,0,0,0,0,0,0,0,-1,1091,1394,0,0
-126,-370,0,0,0,0,0,0,0,0,0,-1,1098,1394,0,0
-119,-370,0,0,0,0,0,0,0,0,0,-1,1105,1394,0,0
-112,-370,0,0,0,0,0,0,0,0,0,-1,1112,1394,0,0
-105,-370,0,0,0,0,0,0,0,0,0,-1,1119,1394,0,0
-98,-370,0,0,0,0,0,0,0,0,0,-1,1126,1394,0,0
-91,-370,0,0,0,0,0,0,0,0,0,-1,1133,1394,0,0
-84,-370,0,0,0,0,0,0,0,0,0,-1,1140,1394,0,0
-77,-370,0,0,0,0,0,0,0,0,0,-1,1147,1394,0,0
-70,-370,0,0,0,0,0,0,0,0,0,-1,1154,1394,0,0
-63,-370,0,0,0,0,0,0,0,0,0,-1,1161,1394,0,0
-56,-370,0,0,0,0,0,0,0,0,0,-1,1168,1394,0,0
-49,-370,0,0,0,0,0,0,0,0,0,-1,1175,1394,0,0
-42,-370,0,0,0,0,0,0,0,0,0,-1,1182,1394,0,0
-35,-370,0,0,0,0,0,0,0,0,0,-1,1189,1394,0,0
-28,-370,0,0,0,0,0,0,0,0,0,-1,1196,1394,0,0
-21,-370,0,0,0,0,0,0,0,0,0,-1,1203,1394,0,0
-14,-370,0,0,0,0,0,0,0,0,0,-1,1210,1394,0,0
-7,-370,0,0,0,0,0,0,0,0,0,-1,1217,1394,0,0
0,-370,0,0,0,0,0,0,0,0,0,-1,1224,1394,0,0
7,-370,0,0,0,0,0,0,0,0,0,-1,1231,1394,0,0
14,-370,0,0,0,0,0,0,0,0,0,-1,1238,1394,0,0
21,-370,0,0,0,0,0,0,0,0,0,-1,1245,1394,0,0
28,-370,0,0,0,0,0,0,0,0,0,-1,1252,1394,0,0
35,-370,0,0,0,0,0,0,0,0,0,-1,1259,1394,0,0
42,-370,0,0,0,0,0,0,0,0,0,-1,1266,1394,0,0
49,-370,0,0,0,0,0,0,0,0,0,-1,1273,1394,0,0
56,-370,0,0,0,0,0,0,0,0,0,-1,1280,1394,0,0
63,-370,0,0,0,0,0,0,0,0,0,-1,1287,1394,0,0
70,-370,0,0,0,0,0,0,0,0,0,-1,1294,1394,0,0
77,-370,0,0,0,0,0,0,0,0,0,-1,1301,1394,0,0
84,-370,0,0,0,0,0,0,0,0,0,-1,1308,1394,0,0
91,-370,0,0,0,0,0,0,0,0,0,-1,1315,1394,0,0
98,-370,0,0,0,0,0,0,0,0,0,-1,1322,1394,0,0
105,-370,0,0,0,0,0,0,0,0,0,-1,1329,1394,0,0
112,-370,0,0,0,0,0,0,0,0,0,-1,1336,1394,0,0
119,-370,0,0,0,0,0,0,0,0,0,-1,1343,1394,0,0
126,-370,0,0,0,0,0,0,0,0,0,-1,1350,1394,0,0
133,-370,0,0,0,0,0,0,0,0,0,-1,1357,1394,0,0
140,-370,0,0,0,0,0,0,0,0,0,-1,1364,1394,0,0
147,-370,0,0,0,0,0,0,0,0,0,-1,1371,1394,0,0
154,-370,0,0,0,0,0,0,0,0,0,-1,1378,1394,0,0
161,-370,0,0,0,0,0,0,0,0,0,-1,1385,1394,0,0
168,-370,0,0,0,0,0,0,0,0,0,-1,1392,1394,0,0
175,-370,0,0,0,0,0,0,0,0,0,-1,1399,1394,0,0
182,-370,0,0,0,0,0,0,0,0,0,-1,1406,1394,0,0
189,-370,0,0,0,0,0,0,0,0,0,-1,1413,1394,0,0
196,-370,0,0,0,0,0,0,0,0,0,-1,1420,1394,0,0
203,-370,0,0,0,0,0,0,0,0,0,-1,1427,1394,0,0
210,-370,0,0,0,0,0,0,0,0,0,-1,1434,1394,0,0
217,-370,0,0,0,0,0,0,0,0,0,-1,1441,1394,0,0
224,-370,0,0,0,0,0,0,0,0,0,-1,1448,1394,0,0
231,-370,0,0,0,0,0,0,0,0,0,-1,1455,1394,0,0
238,-370,0,0,0,0,0,0,0,0,0,-1,1462,1394,0,0
245,-370,0,0,0,0,0,0,0,0,0,-1,1469,1394,0,0
252,-370,0,0,0,0,0,0,0,0,0,-1,1476,1394,0,0
259,-370,0,0,0,0,0,0,0,0,0,-1,1483,1394,0,0
266,-370,0,0,0,0,0,0,0,0,0,-1,1490,1394,0,0
273,-370,0,0,0,0,0,0,0,0,0,-1,1497,1394,0,0
280,-370,0,0,0,0,0,0,0,0,0,-1,1504,1394,0,0
287,-370,0,0,0,0,0,0,0,0,0,-1,1511,1394,0,0
294,-370,0,0,0,0,0,0,0,0,0,-1,1518,1394,0,0
301,-370,0,0,0,0,0,0,0,0,0,-1,1525,1394,0,0
308,-370,0,0,0,0,0,0,0,0,0,-1,1532,1394,0,0
315,-370,0,0,0,0,0,0,0,0,0,-1,1539,1394,0,0
322,-370,0,0,0,0,0,0,0,0,0,-1,1546,1394,0,0
329,-370,0,0,0,0,0,0,0,0,0,-1,1553,1394,0,0
336,-370,0,0,0,0,0,0,0,0,0,-1,1560,1394,0,0
343,-370,0,0,0,0,0,0,0,0,0,-1,1567,1394,0,0
350,-370,0,0,0,0,0,0,0,0,0,-1,1574,1394,0,0
357,-370,0,0,0,0,0,0,0,0,0,-1,1581,1394,0,0
364,-370,0,0,0,0,0,0,0,0,0,-1,1588,1394,0,0
371,-370,0,0,0,0,0,0,0,0,0,-1,1595,1394,0,0
378,-370,0,0,0,0,0,0,0,0,0,-1,1602,1394,0,0
385,-370,0,0,0,0,0,0,0,0,0,-1,1609,1394,0,0
392,-370,0,0,0,0,0,0,0,0,0,-1,1616,1394,0,0
399,-370,0,0,0,0,0,0,0,0,0,-1,1623,1394,0,0
406,-370,0,0,0,0,0,0,0,0,0,-1,1630,1394,0,0
413,-370,0,0,0,0,0,0,0,0,0,-1,1637,1394,0,0
420,-370,0,0,0,0,0,0,0,0,0,-1,1644,1394,0,0
427,-370,0,0,0,0,0,0,0,0,0,-1,1651,1394,0,0
434,-370,0,0,0,0,0,0,0,0,0,-1,1658,1394,0,0
441,-370,0,0,0,0,0,0,0,0,0,-1,1665,1394,0,0
448,-370,0,0,0,0,0,0,0,0,0,-1,1672,1394,0,0
455,-370,0,0,0,0,0,0,0,0,0,-1,1679,1394,0,0
462,-370,0,0,0,0,0,0,0,0,0,-1,1686,1394,0,0
469,-370,0,0,0,0,0,0,0,0,0,-1,1693,1394,0,0
476,-370,0,0,0,0,0,0,0,0,0,-1,1700,1394,0,0
483,-370,0,0,0,0,0,0,0,0,0,-1,1707,1394,0,0
490,-370,0,0,0,0,0,0,0,0,0,-1,1714,1394,0,0
497,-370,0,0,0,0,0,0,0,0,0,-1,1721,1394,0,0
504,-370,0,0,0,0,0,0,0,0,0,-1,1728,1394,0,0
511,-370,0,0,0,0,0,0,0,0,0,-1,1735,1394,0,0
518,-370,0,0,0,0,0,0,0,0,0,-1,1742,1394,0,0
525,-370,0,0,0,0,0,0,0,0,0,-1,1749,1394,0,0
532,-370,0,0,0,0,0,0,0,0,0,-1,1756,1394,0,0
539,-370,0,0,0,0,0,0,0,0,0,-1,1763,1394,0,0
546,-370,2.93262,1.42004,0,0,0,0,0,0,0,-1,1770,1394,2.93262,-1.42008
553,-370,2.45032,3.10718,0,0,0,0,0,0,0,-1,1777,1394,2.45033,-3.10719
560,-370,2.74634,2.43274,0,0,0,0,0,0,0,-1,1784,1394,2.74634,-2.43273
567,-370,3.09021,2.53967,0,0,0,0,0,0,0,-1,1791,1394,3.09017,-2.53969
574,-370,5.83191,1.03809,0,0,0,0,0,0,0,-1,1798,1394,5.83196,-1.03808
581,-370,3.85046,2.23462,0,0,0,0,0,0,0,-1,1805,1394,3.85047,-2.23464
588,-370,4.07385,2.07544,0,0,0,0,0,0,0,-1,1812,1394,4.07391,-2.07542
595,-370,3.46313,1.10938,0,0,0,0,0,0,0,-1,1819,1394,3.46313,-1.10936
602,-370,3.63513,1.45764,0.0349103,0.00754229,-0.0113105,0.0389796,0.00347301,-0.345361,0.0249095,0.0444805,1826,1394,3.63513,-1.45761
609,-370,3.46631,1.13391,0.0208851,0.00463569,-0.00668931,0.0232845,0.00223625,-0.344403,0.0148339,0.0437773,1833,1394,3.46634,-1.1339
616,-370,3.40564,1.13184,0.00603592,-0.00104955,0.00150126,0.00634088,-0.00135451,0.200409,0.00474366,0.044017,1840,1394,3.40562,-1.13178
623,-370,3.32288,1.11938,-0.00258207,-0.000523772,0.000514522,-0.000402321,-0.00270352,1.33899,0.00168433,0.0404104,1847,1394,3.32293,-1.1194
630,-370,3.28479,1.11951,-0.00100677,-0.00030378,0.000815999,0.000233208,-0.00154376,0.988766,0.00111507,0.020937,1854,1394,3.28475,-1.11949
637,-370,3.29834,1.11072,-0.00056783,0.000164845,0.00128127,0.00113112,-0.0015341,0.924642,0.00154462,0.0140241,1861,1394,3.29839,-1.1107
644,-370,3.31519,1.0603,-0.000104233,0.000581626,0.00134414,0.0016259,-0.0011485,0.910298,0.00160969,0.0115373,1868,1394,3.31515,-1.06031
651,-370,3.34351,1.0332,0.000182615,0.000727057,0.00107167,0.00156054,-0.000650868,0.909775,0.00131227,0.0113607,1875,1394,3.34352,-1.03317
658,-370,3.35706,0.993164,0.000590319,0.000877344,0.000878232,0.00162371,-0.000156049,0.866387,0.00113806,0.0117907,1882,1394,3.357,-0.993179
665,-370,3.3125,0.957397,0.000677874,0.000609758,0.000186692,0.000833589,0.000454043,0.695176,0.000481913,0.0128529,1889,1394,3.31245,-0.957373
672,-370,3.31091,0.950317,0.000597009,0.000912816,-0.000407696,0.00119212,0.000317706,-0.970156,0.000712848,0.0144045,1896,1394,3.31096,-0.950279
679,-370,3.33191,0.935425,0.000574311,0.001614,-0.00116648,0.00237123,-0.000182919,-0.995014,0.00164518,0.0143741,1903,1394,3.33189,-0.935405
686,-370,3.33301,0.898315,0.000761799,0.00181882,-0.00204778,0.0034052,-0.000824573,-0.911687,0.00258913,0.0136503,1910,1394,3.33301,-0.898313
693,-370,3.33826,0.860718,0.00124181,0.00260201,-0.00325055,0.00524284,-0.00139902,-0.888524,0.00404307,0.0113007,1917,1394,3.33828,-0.860714
700,-370,3.30969,0.799561,0.00198478,0.0037737,-0.00493207,0.00789176,-0.00213329,-0.875101,0.00609795,0.0135807,1924,1394,3.30966,-0.799575
707,-370,3.21509,0.758057,0.00296038,0.00565918,-0.00731238,0.0117456,-0.00312607,-0.87664,0.00905415,0.0233929,1931,1394,3.21508,-0.758113
714,-370,3.15466,0.744385,0.00420071,0.00793271,-0.0102932,0.0165277,-0.00439429,-0.875066,0.0127384,0.0396648,1938,1394,3.15466,-0.744361
721,-370,3.09119,0.730225,0,0,0,0,0,0,0,-1,1945,1394,3.09116,-0.730233
728,-370,3.41199,0.972168,0,0,0,0,0,0,0,-1,1952,1394,3.41199,-0.972211
735,-370,3.58594,0.693115,0,0,0,0,0,0,0,-1,1959,1394,3.58595,-0.693169
742,-370,3.67688,0.282471,0,0,0,0,0,0,0,-1,1966,1394,3.67683,-0.282472
749,-370,0,0,0,0,0,0,0,0,0,-1,1973,1394,0,0
756,-370,0,0,0,0,0,0,0,0,0,-1,1980,1394,0,0
763,-370,0,0,0,0,0,0,0,0,0,-1,1987,1394,0,0
770,-370,0,0,0,0,0,0,0,0,0,-1,1994,1394,0,0
777,-370,0,0,0,0,0,0,0,0,0,-1,2001,1394,0,0
784,-370,0,0,0,0,0,0,0,0,0,-1,2008,1394,0,0
791,-370,0,0,0,0,0,0,0,0,0,-1,2015,1394,0,0
798,-370,0,0,0,0,0,0,0,0,0,-1,2022,1394,0,0
805,-370,0,0,0,0,0,0,0,0,0,-1,2029,1394,0,0
812,-370,0,0,0,0,0,0,0,0,0,-1,2036,1394,0,0
-700,-377,0,0,0,0,0,0,0,0,0,-1,524,1401,0,0
-693,-377,0,0,0,0,0,0,0,0,0,-1,531,1401,0,0
-686,-377,0,0,0,0,0,0,0,0,0,-1,538,1401,0,0
-679,-377,0,0,0,0,0,0,0,0,0,-1,545,1401,0,0
-672,-377,0,0,0,0,0,0,0,0,0,-1,552,1401,0,0
-665,-377,0,0,0,0,0,0,0,0,0,-1,559,1401,0,0
-658,-377,0,0,0,0,0,0,0,0,0,-1,566,1401,0,0
-651,-377,0,0,0,0,0,0,0,0,0,-1,573,1401,0,0
-644,-377,0,0,0,0,0,0,0,0,0,-1,580,1401,0,0
-637,-377,0,0,0,0,0,0,0,0,0,-1,587,1401,0,0
-630,-377,0,0,0,0,0,0,0,0,0,-1,594,1401,0,0
-623,-377,0,0,0,0,0,0,0,0,0,-1,601,1401,0,0
-616,-377,-1.57373,0.705688,0,0,0,0,0,0,0,-1,608,1401,-1.57371,-0.705716
-609,-377,-0.00775146,0.244141,0,0,0,0,0,0,0,-1,615,1401,-0.00776587,-0.244174
-602,-377,-0.321838,-0.083374,0.04975,0.0215645,-0.00360826,0.0502046,0.0211099,-0.125326,0.0291076,0.0400865,622,1401,-0.321855,0.0833669
-595,-377,0.0708008,0.0577393,0.0398297,0.0182767,-0.00185509,0.0399882,0.0181182,-0.0852358,0.023121,0.0432504,629,1401,0.0708054,-0.0576921
-588,-377,0.5401,-0.0494385,0,0,0,0,0,0,0,-1,636,1401,0.540087,0.049457
-581,-377,0.638062,0.267944,0.0239547,0.0131099,0.00103956,0.0240535,0.0130111,0.0947081,0.0139028,0.047262,643,1401,0.638085,-0.267955
-574,-377,0.540588,0.513916,0.017937,0.0109912,0.00204809,0.0184959,0.0104323,0.266419,0.0107078,0.0403628,650,1401,0.540588,-0.513975
-567,-377,0.394409,0.762695,0.0126928,0.00884781,0.00259975,0.0140037,0.00753694,0.467024,0.00809291,0.0250151,657,1401,0.394388,-0.762661
-560,-377,0.349365,0.887817,0.00881166,0.00724795,0.00275112,0.0108899,0.00516975,0.646951,0.00628994,0.0154844,664,1401,0.349381,-0.887857
-553,-377,0.353638,0.920532,0.00586566,0.00565498,0.0027158,0.00847816,0.00304248,0.766014,0.00495944,0.0110128,671,1401,0.353647,-0.920547
-546,-377,0.34259,0.943848,0.00405724,0.00423672,0.00237959,0.00652826,0.0017657,0.804246,0.00389922,0.0135546,678,1401,0.342599,-0.943862
-539,-377,0.344299,0.991089,0.00258064,0.00257074,0.00184138,0.00441708,0.000734298,0.784053,0.00273303,0.0185283,685,1401,0.344319,-0.991135
-532,-377,0.348999,1.03076,0.00186976,5.78749e-07,0.00115027,0.00241726,-0.000546914,0.44424,0.00182139,0.0197411,692,1401,0.348981,-1.03071
-525,-377,0.364624,1.07019,0.00233302,-0.00213462,4.06618e-05,0.00233339,-0.00213499,0.0091004,0.00258067,0.0154157,699,1401,0.364597,-1.07015
-518,-377,0.372253,1.09033,0.00406653,-0.00386726,-0.00123939,0.00425564,-0.00405637,-0.151412,0.0047994,0.0103715,706,1401,0.372271,-1.09027
-511,-377,0.373291,1.13062,0.00536732,-0.00587528,-0.00254356,0.00591601,-0.00642397,-0.21246,0.0071265,0.0115539,713,1401,0.373272,-1.1306
-504,-377,0.366577,1.17188,0.00703664,-0.00813444,-0.00350313,0.00780648,-0.00890428,-0.216319,0.0096549,0.0115515,720,1401,0.366552,-1.1719
-497,-377,0.384705,1.18372,0.00911087,-0.0096289,-0.00435335,0.0100728,-0.0105908,-0.217469,0.0119314,0.0144646,727,1401,0.384682,-1.18371
-490,-377,0.360657,1.1676,0.0115362,-0.00970701,-0.00599081,0.0131092,-0.01128,-0.256772,0.0140943,0.0315208,734,1401,0.360658,-1.16765
-483,-377,0.19635,1.2821,0.013623,-0.00863017,-0.00774556,0.0160535,-0.0110607,-0.304062,0.0157426,0.0440083,741,1401,0.196363,-1.28211
-476,-377,0.220886,1.302,0.0149749,-0.00705499,-0.00921656,0.0183222,-0.0104023,-0.348371,0.0167929,0.0419495,748,1401,0.220917,-1.30202
-469,-377,0.359375,1.06519,0.0157033,-0.00483459,-0.0106839,0.0202531,-0.00938444,-0.4026,0.0174906,0.040717,755,1401,0.359345,-1.06516
-462,-377,0.436584,0.898804,0,0,0,0,0,0,0,-1,762,1401,0.436613,-0.898842
-455,-377,0.560852,0.275879,0,0,0,0,0,0,0,-1,769,1401,0.560826,-0.275831
-448,-377,0.583313,0.588745,0,0,0,0,0,0,0,-1,776,1401,0.583322,-0.588769
-441,-377,-0.30249,0.537354,0.00960358,0.0136984,-0.0180468,0.0298135,-0.00651157,-0.841881,0.0223645,0.0456809,783,1401,-0.302467,-0.537332
-434,-377,-0.597107,0.559082,0.00531391,0.0196334,-0.0197224,0.0334554,-0.00850807,-0.959515,0.025615,0.0467063,790,1401,-0.597104,-0.559064
-427,-377,-0.537537,0.63623,-0.000504456,0.0256282,-0.0212317,0.037492,-0.0123683,-1.06124,0.0299803,0.0444536,797,1401,-0.537522,-0.636189
-420,-377,0,0,0,0,0,0,0,0,0,-1,804,1401,0,0
-413,-377,0,0,0,0,0,0,0,0,0,-1,811,1401,0,0
-406,-377,0,0,0,0,0,0,0,0,0,-1,818,1401,0,0
-399,-377,0,0,0,0,0,0,0,0,0,-1,825,1401,0,0
-392,-377,0,0,0,0,0,0,0,0,0,-1,832,1401,0,0
-385,-377,0,0,0,0,0,0,0,0,0,-1,839,1401,0,0
-378,-377,0,0,0,0,0,0,0,0,0,-1,846,1401,0,0
-371,-377,0,0,0,0,0,0,0,0,0,-1,853,1401,0,0
-364,-377,0,0,0,0,0,0,0,0,0,-1,860,1401,0,0
-357,-377,0,0,0,0,0,0,0,0,0,-1,867,1401,0,0
-350,-377,0,0,0,0,0,0,0,0,0,-1,874,1401,0,0
-343,-377,0,0,0,0,0,0,0,0,0,-1,881,1401,0,0
-336,-377,0,0,0,0,0,0,0,0,0,-1,888,1401,0,0
-329,-377,0,0,0,0,0,0,0,0,0,-1,895,1401,0,0
-322,-377,0,0,0,0,0,0,0,0,0,-1,902,1401,0,0
-315,-377,0,0,0,0,0,0,0,0,0,-1,909,1401,0,0
-308,-377,0,0,0,0,0,0,0,0,0,-1,916,1401,0,0
-301,-377,0,0,0,0,0,0,0,0,0,-1,923,1401,0,0
-294,-377,0,0,0,0,0,0,0,0,0,-1,930,1401,0,0
-287,-377,0,0,0,0,0,0,0,0,0,-1,937,1401,0,0
-280,-377,0,0,0,0,0,0,0,0,0,-1,944,1401,0,0
-273,-377,0,0,0,0,0,0,0,0,0,-1,951,1401,0,0
-266,-377,0,0,0,0,0,0,0,0,0,-1,958,1401,0,0
-259,-377,0,0,0,0,0,0,0,0,0,-1,965,1401,0,0
-252,-377,0,0,0,0,0,0,0,0,0,-1,972,1401,0,0
-245,-377,0,0,0,0,0,0,0,0,0,-1,979,1401,0,0
-238,-377,0,0,0,0,0,0,0,0,0,-1,986,1401,0,0
-231,-377,0,0,0,0,0,0,0,0,0,-1,993,1401,0,0
-224,-377,0,0,0,0,0,0,0,0,0,-1,1000,1401,0,0
-217,-377,0,0,0,0,0,0,0,0,0,-1,1007,1401,0,0
-210,-377,0,0,0,0,0,0,0,0,0,-1,1014,1401,0,0
-203,-377,0,0,0,0,0,0,0,0,0,-1,1021,1401,0,0
-196,-377,0,0,0,0,0,0,0,0,0,-1,1028,1401,0,0
-189,-377,0,0,0,0,0,0,0,0,0,-1,1035,1401,0,0
-182,-377,0,0,0,0,0,0,0,0,0,-1,1042,1401,0,0
-175,-377,0,0,0,0,0,0,0,0,0,-1,1049,1401,0,0
-168,-377,0,0,0,0,0,0,0,0,0,-1,1056,1401,0,0
-161,-377,0,0,0,0,0,0,0,0,0,-1,1063,1401,0,0
-154,-377,0,0,0,0,0,0,0,0,0,-1,1070,1401,0,0
-147,-377,0,0,0,0,0,0,0,0,0,-1,1077,1401,0,0
-140,-377,0,0,0,0,0,0,0,0,0,-1,1084,1401,0,0
-133,-377,0,0,0,0,0,0,0,0,0,-1,1091,1401,0,0
-126,-377,0,0,0,0,0,0,0,0,0,-1,1098,1401,0,0
-119,-377,0,0,0,0,0,0,0,0,0,-1,1105,1401,0,0
-112,-377,0,0,0,0,0,0,0,0,0,-1,1112,1401,0,0
-105,-377,0,0,0,0,0,0,0,0,0,-1,1119,1401,0,0
-98,-377,0,0,0,0,0,0,0,0,0,-1,1126,1401,0,0
-91,-377,0,0,0,0,0,0,0,0,0,-1,1133,1401,0,0
-84,-377,0,0,0,0,0,0,0,0,0,-1,1140,1401,0,0
-77,-377,0,0,0,0,0,0,0,0,0,-1,1147,1401,0,0
-70,-377,0,0,0,0,0,0,0,0,0,-1,1154,1401,0,0
-63,-377,0,0,0,0,0,0,0,0,0,-1,1161,1401,0,0
-56,-377,0,0,0,0,0,0,0,0,0,-1,1168,1401,0,0
-49,-377,0,0,0,0,0,0,0,0,0,-1,1175,1401,0,0
-42,-377,0,0,0,0,0,0,0,0,0,-1,1182,1401,0,0
-35,-377,0,0,0,0,0,0,0,0,0,-1,1189,1401,0,0
-28,-377,0,0,0,0,0,0,0,0,0,-1,1196,1401,0,0
-21,-377,0,0,0,0,0,0,0,0,0,-1,1203,1401,0,0
-14,-377,0,0,0,0,0,0,0,0,0,-1,1210,1401,0,0
-7,-377,0,0,0,0,0,0,0,0,0,-1,1217,1401,0,0
0,-377,0,0,0,0,0,0,0,0,0,-1,1224,1401,0,0
7,-377,0,0,0,0,0,0,0,0,0,-1,1231,1401,0,0
14,-377,0,0,0,0,0,0,0,0,0,-1,1238,1401,0,0
21,-377,0,0,0,0,0,0,0,0,0,-1,1245,1401,0,0
28,-377,0,0,0,0,0,0,0,0,0,-1,1252,1401,0,0
35,-377,0,0,0,0,0,0,0,0,0,-1,1259,1401,0,0
42,-377,0,0,0,0,0,0,0,0,0,-1,1266,1401,0,0
49,-377,0,0,0,0,0,0,0,0,0,-1,1273,1401,0,0
56,-377,0,0,0,0,0,0,0,0,0,-1,1280,1401,0,0
63,-377,0,0,0,0,0,0,0,0,0,-1,1287,1401,0,0
70,-377,0,0,0,0,0,0,0,0,0,-1,1294,1401,0,0
77,-377,0,0,0,0,0,0,0,0,0,-1,1301,1401,0,0
84,-377,0,0,0,0,0,0,0,0,0,-1,1308,1401,0,0
91,-377,0,0,0,0,0,0,0,0,0,-1,1315,1401,0,0
98,-377,0,0,0,0,0,0,0,0,0,-1,1322,1401,0,0
105,-377,0,0,0,0,0,0,0,0,0,-1,1329,1401,0,0
112,-377,0,0,0,0,0,0,0,0,0,-1,1336,1401,0,0
119,-377,0,0,0,0,0,0,0,0,0,-1,1343,1401,0,0
126,-377,0,0,0,0,0,0,0,0,0,-1,1350,1401,0,0
133,-377,0,0,0,0,0,0,0,0,0,-1,1357,1401,0,0
140,-377,0,0,0,0,0,0,0,0,0,-1,1364,1401,0,0
147,-377,0,0,0,0,0,0,0,0,0,-1,1371,1401,0,0
154,-377,0,0,0,0,0,0,0,0,0,-1,1378,1401,0,0
161,-377,0,0,0,0,0,0,0,0,0,-1,1385,1401,0,0
168,-377,0,0,0,0,0,0,0,0,0,-1,1392,1401,0,0
175,-377,0,0,0,0,0,0,0,0,0,-1,1399,1401,0,0
182,-377,0,0,0,0,0,0,0,0,0,-1,1406,1401,0,0
189,-377,0,0,0,0,0,0,0,0,0,-1,1413,1401,0,0
196,-377,0,0,0,0,0,0,0,0,0,-1,1420,1401,0,0
203,-377,0,0,0,0,0,0,0,0,0,-1,1427,1401,0,0
210,-377,0,0,0,0,0,0,0,0,0,-1,1434,1401,0,0
217,-377,0,0,0,0,0,0,0,0,0,-1,1441,1401,0,0
224,-377,0,0,0,0,0,0,0,0,0,-1,1448,1401,0,0
231,-377,0,0,0,0,0,0,0,0,0,-1,1455,1401,0,0
238,-377,0,0,0,0,0,0,0,0,0,-1,1462,1401,0,0
245,-377,0,0,0,0,0,0,0,0,0,-1,1469,1401,0,0
252,-377,0,0,0,0,0,0,0,0,0,-1,1476,1401,0,0
259,-377,0,0,0,0,0,0,0,0,0,-1,1483,1401,0,0
266,-377,0,0,0,0,0,0,0,0,0,-1,1490,1401,0,0
273,-377,0,0,0,0,0,0,0,0,0,-1,1497,1401,0,0
280,-377,0,0,0,0,0,0,0,0,0,-1,1504,1401,0,0
287,-377,0,0,0,0,0,0,0,0,0,-1,1511,1401,0,0
294,-377,0,0,0,0,0,0,0,0,0,-1,1518,1401,0,0
301,-377,0,0,0,0,0,0,0,0,0,-1,1525,1401,0,0
308,-377,0,0,0,0,0,0,0,0,0,-1,1532,1401,0,0
315,-377,0,0,0,0,0,0,0,0,0,-1,1539,1401,0,0
322,-377,0,0,0,0,0,0,0,0,0,-1,1546,1401,0,0
329,-377,0,0,0,0,0,0,0,0,0,-1,1553,1401,0,0
336,-377,0,0,0,0,0,0,0,0,0,-1,1560,1401,0,0
343,-377,0,0,0,0,0,0,0,0,0,-1,1567,1401,0,0
350,-377,0,0,0,0,0,0,0,0,0,-1,1574,1401,0,0
357,-377,0,0,0,0,0,0,0,0,0,-1,1581,1401,0,0
364,-377,0,0,0,0,0,0,0,0,0,-1,1588,1401,0,0
371,-377,0,0,0,0,0,0,0,0,0,-1,1595,1401,0,0
378,-377,0,0,0,0,0,0,0,0,0,-1,1602,1401,0,0
385,-377,0,0,0,0,0,0,0,0,0,-1,1609,1401,0,0
392,-377,0,0,0,0,0,0,0,0,0,-1,1616,1401,0,0
399,-377,0,0,0,0,0,0,0,0,0,-1,1623,1401,0,0
406,-377,0,0,0,0,0,0,0,0,0,-1,1630,1401,0,0
413,-377,0,0,0,0,0,0,0,0,0,-1,1637,1401,0,0
420,-377,0,0,0,0,0,0,0,0,0,-1,1644,1401,0,0
427,-377,0,0,0,0,0,0,0,0,0,-1,1651,1401,0,0
434,-377,0,0,0,0,0,0,0,0,0,-1,1658,1401,0,0
441,-377,0,0,0,0,0,0,0,0,0,-1,1665,1401,0,0
448,-377,0,0,0,0,0,0,0,0,0,-1,1672,1401,0,0
455,-377,0,0,0,0,0,0,0,0,0,-1,1679,1401,0,0
462,-377,0,0,0,0,0,0,0,0,0,-1,1686,1401,0,0
469,-377,0,0,0,0,0,0,0,0,0,-1,1693,1401,0,0
476,-377,0,0,0,0,0,0,0,0,0,-1,1700,1401,0,0
483,-377,0,0,0,0,0,0,0,0,0,-1,1707,1401,0,0
490,-377,0,0,0,0,0,0,0,0,0,-1,1714,1401,0,0
497,-377,0,0,0,0,0,0,0,0,0,-1,1721,1401,0,0
504,-377,0,0,0,0,0,0,0,0,0,-1,1728,1401,0,0
511,-377,0,0,0,0,0,0,0,0,0,-1,1735,1401,0,0
518,-377,0,0,0,0,0,0,0,0,0,-1,1742,1401,0,0
525,-377,0,0,0,0,0,0,0,0,0,-1,1749,1401,0,0
532,-377,0,0,0,0,0,0,0,0,0,-1,1756,1401,0,0
539,-377,0,0,0,0,0,0,0,0,0,-1,1763,1401,0,0
546,-377,2.94202,1.78918,0,0,0,0,0,0,0,-1,1770,1401,2.94197,-1.78913
553,-377,2.03894,2.06177,0,0,0,0,0,0,0,-1,1777,1401,2.03893,-2.06172
560,-377,2.38501,1.35352,0.143178,0.0340396,-0.0473006,0.160825,0.0163929,-0.357083,0.102192,0.0445529,1784,1401,2.38505,-1.35353
567,-377,10.786,2.07642,0.121624,0.0296779,-0.0379951,0.135292,0.0160091,-0.345337,0.0853604,0.0444766,1791,1401,10.786,-2.07645
574,-377,10.0956,0.904541,0,0,0,0,0,0,0,-1,1798,1401,10.0955,-0.904554
581,-377,3.30798,1.31274,0,0,0,0,0,0,0,-1,1805,1401,3.30799,-1.31279
588,-377,3.17358,1.09131,0,0,0,0,0,0,0,-1,1812,1401,3.17352,-1.09125
595,-377,3.32251,1.06982,0,0,0,0,0,0,0,-1,1819,1401,3.32255,-1.06981
602,-377,3.39294,1.07275,0.0277943,0.00852343,-0.00882874,0.0312275,0.00509027,-0.370868,0.0193461,0.0435365,1826,1401,3.39296,-1.07271
609,-377,3.38635,1.10156,0.0150391,0.0055761,-0.0054946,0.0175587,0.00305656,-0.42994,0.0108317,0.0473195,1833,1401,3.38633,-1.10159
616,-377,3.38,1.12854,0.0015178,-0.000306813,0.00155998,0.00241266,-0.00120167,0.520807,0.00212542,0.0481477,1840,1401,3.37996,-1.12859
623,-377,3.25134,1.13538,-0.00629024,-5.40341e-05,0.000128567,-5.13846e-05,-0.00629289,1.55019,0.00417823,0.0357162,1847,1401,3.25135,-1.13537
630,-377,3.25269,1.15759,-0.0040349,-8.7028e-05,0.000175665,-7.92269e-05,-0.0040427,1.52642,0.00266912,0.0177224,1854,1401,3.2527,-1.15763
637,-377,3.27136,1.10181,-0.00303987,0.000201437,0.000550803,0.000292479,-0.00313091,1.40699,0.00219129,0.0137965,1861,1401,3.27133,-1.10185
644,-377,3.28308,1.06665,-0.00199722,0.000477657,0.000704308,0.000664052,-0.00218361,1.31208,0.00172036,0.0117768,1868,1401,3.28305,-1.06664
651,-377,3.30664,1.04114,-0.0011092,0.00058616,0.000564594,0.000756974,-0.00128001,1.27701,0.00118891,0.0121736,1875,1401,3.30663,-1.04117
658,-377,3.30579,0.98999,-0.000267647,0.000690213,0.0004138,0.000844216,-0.00042165,1.21451,0.000744298,0.0128746,1882,1401,3.30584,-0.99003
665,-377,3.28967,0.932495,0.000349299,0.000411074,-0.000210623,0.000593062,0.00016731,-0.858204,0.000353075,0.0145893,1889,1401,3.28969,-0.932441
672,-377,3.31213,0.919434,0.00074775,0.000698318,-0.00082495,0.00154835,-0.000102287,-0.770422,0.00106797,0.0160814,1896,1401,3.31209,-0.919487
679,-377,3.30603,0.941162,0.00122066,0.00132577,-0.00161409,0.00288815,-0.000341729,-0.801672,0.00204887,0.0182953,1903,1401,3.30598,-0.941201
686,-377,3.28992,0.906616,0.00189113,0.00169004,-0.00259652,0.00438905,-0.000807881,-0.766047,0.00322919,0.015324,1910,1401,3.28996,-0.906657
693,-377,3.28235,0.852051,0.00284848,0.00255415,-0.00401523,0.00671925,-0.00131661,-0.76708,0.00497676,0.0112491,1917,1401,3.2824,-0.852045
700,-377,3.25793,0.783813,0.00414811,0.00390275,-0.00595178,0.00997847,-0.00192762,-0.775094,0.00737926,0.0175022,1924,1401,3.25794,-0.783818
707,-377,3.17969,0.697998,0.00582854,0.0059955,-0.00863639,0.0145488,-0.00272477,-0.790231,0.0107235,0.0378223,1931,1401,3.17974,-0.697959
714,-377,3.1051,0.593384,0.00794445,0.00875212,-0.0121035,0.0204585,-0.00376197,-0.802074,0.0150506,0.0456601,1938,1401,3.10513,-0.593337
721,-377,3.0752,0.28833,0,0,0,0,0,0,0,-1,1945,1401,3.0752,-0.288381
728,-377,3.40979,0.00756836,0,0,0,0,0,0,0,-1,1952,1401,3.4098,-0.00762207
735,-377,3.68152,-0.153931,0,0,0,0,0,0,0,-1,1959,1401,3.68148,0.153909
742,-377,0,0,0,0,0,0,0,0,0,-1,1966,1401,0,0
749,-377,0,0,0,0,0,0,0,0,0,-1,1973,1401,0,0
756,-377,0,0,0,0,0,0,0,0,0,-1,1980,1401,0,0
763,-377,0,0,0,0,0,0,0,0,0,-1,1987,1401,0,0
770,-377,0,0,0,0,0,0,0,0,0,-1,1994,1401,0,0
777,-377,0,0,0,0,0,0,0,0,0,-1,2001,1401,0,0
784,-377,0,0,0,0,0,0,0,0,0,-1,2008,1401,0,0
791,-377,0,0,0,0,0,0,0,0,0,-1,2015,1401,0,0
798,-377,0,0,0,0,0,0,0,0,0,-1,2022,1401,0,0
805,-377,0,0,0,0,0,0,0,0,0,-1,2029,1401,0,0
812,-377,0,0,0,0,0,0,0,0,0,-1,2036,1401,0,0
-700,-384,0,0,0,0,0,0,0,0,0,-1,524,1408,0,0
-693,-384,0,0,0,0,0,0,0,0,0,-1,531,1408,0,0
-686,-384,0,0,0,0,0,0,0,0,0,-1,538,1408,0,0
-679,-384,0,0,0,0,0,0,0,0,0,-1,545,1408,0,0
-672,-384,0,0,0,0,0,0,0,0,0,-1,552,1408,0,0
-665,-384,0,0,0,0,0,0,0,0,0,-1,559,1408,0,0
-658,-384,0,0,0,0,0,0,0,0,0,-1,566,1408,0,0
-651,-384,0,0,0,0,0,0,0,0,0,-1,573,1408,0,0
-644,-384,0,0,0,0,0,0,0,0,0,-1,580,1408,0,0
-637,-384,0,0,0,0,0,0,0,0,0,-1,587,1408,0,0
-630,-384,0,0,0,0,0,0,0,0,0,-1,594,1408,0,0
-623,-384,0,0,0,0,0,0,0,0,0,-1,601,1408,0,0
-616,-384,-1.18402,0.99646,0,0,0,0,0,0,0,-1,608,1408,-1.18403,-0.996447
-609,-384,-0.518005,0.554443,0.0657228,0.01947,-0.00730491,0.066849,0.0183437,-0.152976,0.0398833,0.0441128,615,1408,-0.517992,-0.554434
-602,-384,0.0476685,-0.315918,0.0528616,0.0174086,-0.00520693,0.0536105,0.0166597,-0.142851,0.0316825,0.0424333,622,1408,0.0476578,0.315922
-595,-384,0.116577,-0.0778809,0.0417304,0.0156778,-0.00303519,0.0420793,0.0153289,-0.11446,0.024591,0.0440412,629,1408,0.116587,0.0779141
-588,-384,0.276855,0.181641,0,0,0,0,0,0,0,-1,636,1408,0.276861,-0.181674
-581,-384,0.585327,0.495361,0.0246639,0.0125243,0.000633829,0.0246969,0.0124913,0.0520233,0.0142591,0.0490277,643,1408,0.585309,-0.495413
-574,-384,0.626038,0.51416,0.0184678,0.0109468,0.00192141,0.0189303,0.0104844,0.236182,0.0109505,0.0438349,650,1408,0.626032,-0.514209
-567,-384,0.489563,0.597778,0.0132572,0.00912623,0.00267939,0.0145748,0.00780861,0.457035,0.00842192,0.0364342,657,1408,0.489535,-0.597775
-560,-384,0.427246,0.820801,0.00940108,0.00762098,0.00301726,0.0116568,0.00536523,0.641973,0.00673715,0.0212707,664,1408,0.427224,-0.820746
-553,-384,0.393188,0.927856,0.00634246,0.00617004,0.0030997,0.00935715,0.00315535,0.771496,0.00549696,0.0147734,671,1408,0.393166,-0.927836
-546,-384,0.391479,0.956909,0.0043423,0.00487764,0.00292561,0.0075478,0.00167213,0.831017,0.00457745,0.0130725,678,1408,0.39151,-0.956907
-539,-384,0.375122,0.986084,0.00278165,0.00329274,0.00257862,0.00562845,0.00044594,0.834787,0.00361284,0.0154736,685,1408,0.375147,-0.986033
-532,-384,0.337524,1.01819,0.00198428,0.000867287,0.00196796,0.00347146,-0.000619893,0.647136,0.00254622,0.0227816,692,1408,0.337536,-1.01821
-525,-384,0.34082,1.05103,0.00215598,-0.00106178,0.00087702,0.00237949,-0.00128529,0.249541,0.00214707,0.0204165,699,1408,0.340795,-1.05098
-518,-384,0.407288,1.09863,0.00323731,-0.00282494,-0.00025695,0.00324818,-0.00283581,-0.0422841,0.00351528,0.011874,706,1408,0.407266,-1.09858
-511,-384,0.399231,1.12866,0.00388777,-0.00469076,-0.0013937,0.00410851,-0.00491151,-0.157083,0.00521458,0.00991841,713,1408,0.399218,-1.12872
-504,-384,0.406372,1.16626,0.00491275,-0.00679069,-0.00224588,0.00532894,-0.00720687,-0.183231,0.00726457,0.0105998,720,1408,0.406381,-1.16632
-497,-384,0.402222,1.19092,0.00625039,-0.00831824,-0.00292767,0.00681672,-0.00888456,-0.191078,0.0090913,0.0113002,727,1408,0.40221,-1.19089
-490,-384,0.391907,1.20667,0.00795007,-0.00871389,-0.00430116,0.00899475,-0.00975858,-0.238271,0.0108302,0.0184895,734,1408,0.391901,-1.20661
-483,-384,0.280334,1.2384,0.00938771,-0.00811032,-0.00576978,0.0111189,-0.00984156,-0.291505,0.012109,0.0393416,741,1408,0.28032,-1.23837
-476,-384,0.260681,1.22144,0.0100012,-0.00711232,-0.00699167,0.0124944,-0.00960551,-0.342538,0.0127957,0.043646,748,1408,0.260687,-1.22139
-469,-384,0.36853,1.05261,0.00990109,-0.00569525,-0.00809585,0.0133437,-0.00913783,-0.402063,0.0130552,0.043026,755,1408,0.368544,-1.05264
-462,-384,0.226135,0.919067,0.00934379,-0.00273177,-0.00967601,0.0147113,-0.00809925,-0.50646,0.0133528,0.0457333,762,1408,0.22613,-0.919015
-455,-384,0.556946,0.761841,0.00842289,0.000593426,-0.0115797,0.0167317,-0.00771536,-0.622395,0.0144309,0.0443251,769,1408,0.55693,-0.761837
-448,-384,0.489441,0.947998,0.00623705,0.00505014,-0.0133522,0.019009,-0.00772177,-0.76319,0.015885,0.0454513,776,1408,0.489456,-0.947973
-441,-384,0.173279,1.0719,0,0,0,0,0,0,0,-1,783,1408,0.1733,-1.07191
-434,-384,-0.157166,0.217163,-0.000638414,0.0158869,-0.0170758,0.0265941,-0.0113456,-1.01073,0.0224865,0.0428631,790,1408,-0.157176,-0.217105
-427,-384,-0.347168,0.459961,-0.0050789,0.0215889,-0.0190515,0.0315091,-0.0149991,-1.09072,0.0274097,0.0440656,797,1408,-0.347165,-0.459997
-420,-384,0.0201416,0.44043,0,0,0,0,0,0,0,-1,804,1408,0.0201541,-0.440482
-413,-384,0,0,0,0,0,0,0,0,0,-1,811,1408,0,0
-406,-384,0,0,0,0,0,0,0,0,0,-1,818,1408,0,0
-399,-384,0,0,0,0,0,0,0,0,0,-1,825,1408,0,0
-392,-384,0,0,0,0,0,0,0,0,0,-1,832,1408,0,0
-385,-384,0,0,0,0,0,0,0,0,0,-1,839,1408,0,0
-378,-384,0,0,0,0,0,0,0,0,0,-1,846,1408,0,0
-371,-384,0,0,0,0,0,0,0,0,0,-1,853,1408,0,0
-364,-384,0,0,0,0,0,0,0,0,0,-1,860,1408,0,0
-357,-384,0,0,0,0,0,0,0,0,0,-1,867,1408,0,0
-350,-384,0,0,0,0,0,0,0,0,0,-1,874,1408,0,0
-343,-384,0,0,0,0,0,0,0,0,0,-1,881,1408,0,0
-336,-384,0,0,0,0,0,0,0,0,0,-1,888,1408,0,0
-329,-384,0,0,0,0,0,0,0,0,0,-1,895,1408,0,0
-322,-384,0,0,0,0,0,0,0,0,0,-1,902,1408,0,0
-315,-384,0,0,0,0,0,0,0,0,0,-1,909,1408,0,0
-308,-384,0,0,0,0,0,0,0,0,0,-1,916,1408,0,0
-301,-384,0,0,0,0,0,0,0,0,0,-1,923,1408,0,0
-294,-384,0,0,0,0,0,0,0,0,0,-1,930,1408,0,0
-287,-384,0,0,0,0,0,0,0,0,0,-1,937,1408,0,0
-280,-384,0,0,0,0,0,0,0,0,0,-1,944,1408,0,0
-273,-384,0,0,0,0,0,0,0,0,0,-1,951,1408,0,0
-266,-384,0,0,0,0,0,0,0,0,0,-1,958,1408,0,0
-259,-384,0,0,0,0,0,0,0,0,0,-1,965,1408,0,0
-252,-384,0,0,0,0,0,0,0,0,0,-1,972,1408,0,0
-245,-384,0,0,0,0,0,0,0,0,0,-1,979,1408,0,0
-238,-384,0,0,0,0,0,0,0,0,0,-1,986,1408,0,0
-231,-384,0,0,0,0,0,0,0,0,0,-1,993,1408,0,0
-224,-384,0,0,0,0,0,0,0,0,0,-1,1000,1408,0,0
-217,-384,0,0,0,0,0,0,0,0,0,-1,1007,1408,0,0
-210,-384,0,0,0,0,0,0,0,0,0,-1,1014,1408,0,0
-203,-384,0,0,0,0,0,0,0,0,0,-1,1021,1408,0,0
-196,-384,0,0,0,0,0,0,0,0,0,-1,1028,1408,0,0
-189,-384,0,0,0,0,0,0,0,0,0,-1,1035,1408,0,0
-182,-384,0,0,0,0,0,0,0,0,0,-1,1042,1408,0,0
-175,-384,0,0,0,0,0,0,0,0,0,-1,1049,1408,0,0
-168,-384,0,0,0,0,0,0,0,0,0,-1,1056,1408,0,0
-161,-384,0,0,0,0,0,0,0,0,0,-1,1063,1408,0,0
-154,-384,0,0,0,0,0,0,0,0,0,-1,1070,1408,0,0
-147,-384,0,0,0,0,0,0,0,0,0,-1,1077,1408,0,0
-140,-384,0,0,0,0,0,0,0,0,0,-1,1084,1408,0,0
-133,-384,0,0,0,0,0,0,0,0,0,-1,1091,1408,0,0
-126,-384,0,0,0,0,0,0,0,0,0,-1,1098,1408,0,0
-119,-384,0,0,0,0,0,0,0,0,0,-1,1105,1408,0,0
-112,-384,0,0,0,0,0,0,0,0,0,-1,1112,1408,0,0
-105,-384,0,0,0,0,0,0,0,0,0,-1,1119,1408,0,0
-98,-384,0,0,0,0,0,0,0,0,0,-1,1126,1408,0,0
-91,-384,0,0,0,0,0,0,0,0,0,-1,1133,1408,0,0
-84,-384,0,0,0,0,0,0,0,0,0,-1,1140,1408,0,0
-77,-384,0,0,0,0,0,0,0,0,0,-1,1147,1408,0,0
-70,-384,0,0,0,0,0,0,0,0,0,-1,1154,1408,0,0
-63,-384,0,0,0,0,0,0,0,0,0,-1,1161,1408,0,0
-56,-384,0,0,0,0,0,0,0,0,0,-1,1168,1408,0,0
-49,-384,0,0,0,0,0,0,0,0,0,-1,1175,1408,0,0
-42,-384,0,0,0,0,0,0,0,0,0,-1,1182,1408,0,0
-35,-384,0,0,0,0,0,0,0,0,0,-1,1189,1408,0,0
-28,-384,0,0,0,0,0,0,0,0,0,-1,1196,1408,0,0
-21,-384,0,0,0,0,0,0,0,0,0,-1,1203,1408,0,0
-14,-384,0,0,0,0,0,0,0,0,0,-1,1210,1408,0,0
-7,-384,0,0,0,0,0,0,0,0,0,-1,1217,1408,0,0
0,-384,0,0,0,0,0,0,0,0,0,-1,1224,1408,0,0
7,-384,0,0,0,0,0,0,0,0,0,-1,1231,1408,0,0
14,-384,0,0,0,0,0,0,0,0,0,-1,1238,1408,0,0
21,-384,0,0,0,0,0,0,0,0,0,-1,1245,1408,0,0
28,-384,0,0,0,0,0,0,0,0,0,-1,1252,1408,0,0
35,-384,0,0,0,0,0,0,0,0,0,-1,1259,1408,0,0
42,-384,0,0,0,0,0,0,0,0,0,-1,1266,1408,0,0
49,-384,0,0,0,0,0,0,0,0,0,-1,1273,1408,0,0
56,-384,0,0,0,0,0,0,0,0,0,-1,1280,1408,0,0
63,-384,0,0,0,0,0,0,0,0,0,-1,1287,1408,0,0
70,-384,0,0,0,0,0,0,0,0,0,-1,1294,1408,0,0
77,-384,0,0,0,0,0,0,0,0,0,-1,1301,1408,0,0
84,-384,0,0,0,0,0,0,0,0,0,-1,1308,1408,0,0
91,-384,0,0,0,0,0,0,0,0,0,-1,1315,1408,0,0
98,-384,0,0,0,0,0,0,0,0,0,-1,1322,1408,0,0
105,-384,0,0,0,0,0,0,0,0,0,-1,1329,1408,0,0
112,-384,0,0,0,0,0,0,0,0,0,-1,1336,1408,0,0
119,-384,0,0,0,0,0,0,0,0,0,-1,1343,1408,0,0
126,-384,0,0,0,0,0,0,0,0,0,-1,1350,1408,0,0
133,-384,0,0,0,0,0,0,0,0,0,-1,1357,1408,0,0
140,-384,0,0,0,0,0,0,0,0,0,-1,1364,1408,0,0
147,-384,0,0,0,0,0,0,0,0,0,-1,1371,1408,0,0
154,-384,0,0,0,0,0,0,0,0,0,-1,1378,1408,0,0
161,-384,0,0,0,0,0,0,0,0,0,-1,1385,1408,0,0
168,-384,0,0,0,0,0,0,0,0,0,-1,1392,1408,0,0
175,-384,0,0,0,0,0,0,0,0,0,-1,1399,1408,0,0
182,-384,0,0,0,0,0,0,0,0,0,-1,1406,1408,0,0
189,-384,0,0,0,0,0,0,0,0,0,-1,1413,1408,0,0
196,-384,0,0,0,0,0,0,0,0,0,-1,1420,1408,0,0
203,-384,0,0,0,0,0,0,0,0,0,-1,1427,1408,0,0
210,-384,0,0,0,0,0,0,0,0,0,-1,1434,1408,0,0
217,-384,0,0,0,0,0,0,0,0,0,-1,1441,1408,0,0
224,-384,0,0,0,0,0,0,0,0,0,-1,1448,1408,0,0
231,-384,0,0,0,0,0,0,0,0,0,-1,1455,1408,0,0
238,-384,0,0,0,0,0,0,0,0,0,-1,1462,1408,0,0
245,-384,0,0,0,0,0,0,0,0,0,-1,1469,1408,0,0
252,-384,0,0,0,0,0,0,0,0,0,-1,1476,1408,0,0
259,-384,0,0,0,0,0,0,0,0,0,-1,1483,1408,0,0
266,-384,0,0,0,0,0,0,0,0,0,-1,1490,1408,0,0
273,-384,0,0,0,0,0,0,0,0,0,-1,1497,1408,0,0
280,-384,0,0,0,0,0,0,0,0,0,-1,1504,1408,0,0
287,-384,0,0,0,0,0,0,0,0,0,-1,1511,1408,0,0
294,-384,0,0,0,0,0,0,0,0,0,-1,1518,1408,0,0
301,-384,0,0,0,0,0,0,0,0,0,-1,1525,1408,0,0
308,-384,0,0,0,0,0,0,0,0,0,-1,1532,1408,0,0
315,-384,0,0,0,0,0,0,0,0,0,-1,1539,1408,0,0
322,-384,0,0,0,0,0,0,0,0,0,-1,1546,1408,0,0
329,-384,0,0,0,0,0,0,0,0,0,-1,1553,1408,0,0
336,-384,0,0,0,0,0,0,0,0,0,-1,1560,1408,0,0
343,-384,0,0,0,0,0,0,0,0,0,-1,1567,1408,0,0
350,-384,0,0,0,0,0,0,0,0,0,-1,1574,1408,0,0
357,-384,0,0,0,0,0,0,0,0,0,-1,1581,1408,0,0
364,-384,0,0,0,0,0,0,0,0,0,-1,1588,1408,0,0
371,-384,0,0,0,0,0,0,0,0,0,-1,1595,1408,0,0
378,-384,0,0,0,0,0,0,0,0,0,-1,1602,1408,0,0
385,-384,0,0,0,0,0,0,0,0,0,-1,1609,1408,0,0
392,-384,0,0,0,0,0,0,0,0,0,-1,1616,1408,0,0
399,-384,0,0,0,0,0,0,0,0,0,-1,1623,1408,0,0
406,-384,0,0,0,0,0,0,0,0,0,-1,1630,1408,0,0
413,-384,0,0,0,0,0,0,0,0,0,-1,1637,1408,0,0
420,-384,0,0,0,0,0,0,0,0,0,-1,1644,1408,0,0
427,-384,0,0,0,0,0,0,0,0,0,-1,1651,1408,0,0
434,-384,0,0,0,0,0,0,0,0,0,-1,1658,1408,0,0
441,-384,0,0,0,0,0,0,0,0,0,-1,1665,1408,0,0
448,-384,0,0,0,0,0,0,0,0,0,-1,1672,1408,0,0
455,-384,0,0,0,0,0,0,0,0,0,-1,1679,1408,0,0
462,-384,0,0,0,0,0,0,0,0,0,-1,1686,1408,0,0
469,-384,0,0,0,0,0,0,0,0,0,-1,1693,1408,0,0
476,-384,0,0,0,0,0,0,0,0,0,-1,1700,1408,0,0
483,-384,0,0,0,0,0,0,0,0,0,-1,1707,1408,0,0
490,-384,0,0,0,0,0,0,0,0,0,-1,1714,1408,0,0
497,-384,0,0,0,0,0,0,0,0,0,-1,1721,1408,0,0
504,-384,0,0,0,0,0,0,0,0,0,-1,1728,1408,0,0
511,-384,0,0,0,0,0,0,0,0,0,-1,1735,1408,0,0
518,-384,0,0,0,0,0,0,0,0,0,-1,1742,1408,0,0
525,-384,0,0,0,0,0,0,0,0,0,-1,1749,1408,0,0
532,-384,0,0,0,0,0,0,0,0,0,-1,1756,1408,0,0
539,-384,5.56641,0.10376,0,0,0,0,0,0,0,-1,1763,1408,5.56645,-0.103748
546,-384,5.84021,0.0721436,0,0,0,0,0,0,0,-1,1770,1408,5.84021,-0.0721279
553,-384,10.85,3.56885,0,0,0,0,0,0,0,-1,1777,1408,10.85,-3.5688
560,-384,10.3116,3.099,0.116317,0.03022,-0.0315719,0.126653,0.0198835,-0.316397,0.07865,0.0488715,1784,1408,10.3117,-3.09901
567,-384,9.60266,2.56982,0.0990966,0.0269968,-0.0247776,0.106791,0.0193028,-0.301081,0.0657114,0.043477,1791,1408,9.60271,-2.56981
574,-384,8.51758,2.59045,0,0,0,0,0,0,0,-1,1798,1408,8.51757,-2.59046
581,-384,4.7218,0.846558,0,0,0,0,0,0,0,-1,1805,1408,4.72174,-0.846531
588,-384,2.97778,0.891968,0,0,0,0,0,0,0,-1,1812,1408,2.97777,-0.892004
595,-384,3.18201,1.03027,0,0,0,0,0,0,0,-1,1819,1408,3.18196,-1.03026
602,-384,3.34961,1.13074,0.0224648,0.00885676,-0.00554966,0.0244411,0.0068805,-0.342103,0.0145532,0.042857,1826,1408,3.34962,-1.13073
609,-384,3.29431,1.04041,0.0116211,0.00585375,-0.00356313,0.0133213,0.0041536,-0.4452,0.00787056,0.0459779,1833,1408,3.29435,-1.04038
616,-384,3.21118,1.11768,0.000102354,-7.92565e-05,0.00206205,0.00207559,-0.0020525,0.763394,0.00238337,0.0446101,1840,1408,3.21124,-1.11773
623,-384,3.19897,1.14575,-0.00642601,-0.000100229,0.000328249,-8.32418e-05,-0.006443,1.51909,0.00426786,0.0263849,1847,1408,3.19896,-1.14571
630,-384,3.23425,1.09924,-0.00394935,-0.000333531,0.000123906,-0.000329289,-0.00395359,1.53658,0.00253311,0.0148093,1854,1408,3.23424,-1.09925
637,-384,3.23889,1.10144,-0.00290496,-0.000171131,0.000364439,-0.000123382,-0.00295271,1.44052,0.00192866,0.0153854,1861,1408,3.23891,-1.1015
644,-384,3.24292,1.0907,-0.00185671,2.88465e-05,0.000524599,0.000164972,-0.00199284,1.31691,0.00138682,0.0155995,1868,1408,3.24288,-1.09069
651,-384,3.25684,1.05347,-0.000950767,0.000195301,0.000444824,0.000347689,-0.00110315,1.24075,0.000874679,0.0146864,1875,1408,3.25684,-1.05344
658,-384,3.26208,0.994507,-9.74408e-05,0.000323153,0.000273103,0.000457544,-0.000231833,1.1135,0.000405061,0.0145676,1882,1408,3.26214,-0.994508
665,-384,3.26965,0.955444,0.00063498,0.000114122,-0.000342437,0.000804767,-5.56658e-05,-0.460299,0.000555996,0.0154451,1889,1408,3.26963,-0.955492
672,-384,3.28809,0.935547,0.00116718,0.000475353,-0.000996666,0.00187625,-0.000233721,-0.618366,0.00133558,0.0144871,1896,1408,3.28805,-0.935539
679,-384,3.2688,0.914917,0.00186103,0.00108894,-0.00187981,0.00339403,-0.000444057,-0.684125,0.0024243,0.0164929,1903,1408,3.26886,-0.91493
686,-384,3.2533,0.886719,0.00288833,0.00167788,-0.00302532,0.00536837,-0.000802163,-0.686674,0.00387409,0.0129494,1910,1408,3.25326,-0.88675
693,-384,3.24255,0.853149,0.00433033,0.00270979,-0.00466345,0.00825338,-0.00121326,-0.699382,0.00594806,0.0145977,1917,1408,3.24251,-0.85317
700,-384,3.24438,0.866821,0.00626055,0.00429519,-0.0068671,0.0122149,-0.00165918,-0.714331,0.00874894,0.0306959,1924,1408,3.24437,-0.866815
707,-384,3.09375,0.633301,0.00874711,0.00665284,-0.00981684,0.0175725,-0.00217256,-0.732266,0.0125023,0.0469099,1931,1408,3.09372,-0.633261
714,-384,3.04309,0.446533,0,0,0,0,0,0,0,-1,1938,1408,3.04305,-0.446534
721,-384,3.07654,-0.529053,0,0,0,0,0,0,0,-1,1945,1408,3.07654,0.529011
728,-384,3.14636,-0.862671,0,0,0,0,0,0,0,-1,1952,1408,3.14637,0.862702
735,-384,3.43115,-0.875244,0,0,0,0,0,0,0,-1,1959,1408,3.43119,0.87521
742,-384,0,0,0,0,0,0,0,0,0,-1,1966,1408,0,0
749,-384,0,0,0,0,0,0,0,0,0,-1,1973,1408,0,0
756,-384,0,0,0,0,0,0,0,0,0,-1,1980,1408,0,0
763,-384,0,0,0,0,0,0,0,0,0,-1,1987,1408,0,0
770,-384,0,0,0,0,0,0,0,0,0,-1,1994,1408,0,0
777,-384,0,0,0,0,0,0,0,0,0,-1,2001,1408,0,0
784,-384,0,0,0,0,0,0,0,0,0,-1,2008,1408,0,0
791,-384,0,0,0,0,0,0,0,0,0,-1,2015,1408,0,0
798,-384,0,0,0,0,0,0,0,0,0,-1,2022,1408,0,0
805,-384,0,0,0,0,0,0,0,0,0,-1,2029,1408,0,0
812,-384,0,0,0,0,0,0,0,0,0,-1,2036,1408,0,0
-700,-391,0,0,0,0,0,0,0,0,0,-1,524,1415,0,0
-693,-391,0,0,0,0,0,0,0,0,0,-1,531,1415,0,0
-686,-391,0,0,0,0,0,0,0,0,0,-1,538,1415,0,0
-679,-391,0,0,0,0,0,0,0,0,0,-1,545,1415,0,0
-672,-391,0,0,0,0,0,0,0,0,0,-1,552,1415,0,0
-665,-391,0,0,0,0,0,0,0,0,0,-1,559,1415,0,0
-658,-391,0,0,0,0,0,0,0,0,0,-1,566,1415,0,0
-651,-391,0,0,0,0,0,0,0,0,0,-1,573,1415,0,0
-644,-391,0,0,0,0,0,0,0,0,0,-1,580,1415,0,0
-637,-391,0,0,0,0,0,0,0,0,0,-1,587,1415,0,0
-630,-391,0,0,0,0,0,0,0,0,0,-1,594,1415,0,0
-623,-391,0,0,0,0,0,0,0,0,0,-1,601,1415,0,0
-616,-391,0,0,0,0,0,0,0,0,0,-1,608,1415,0,0
-609,-391,-1.00989,0.86377,0.0693557,0.0127987,-0.0104655,0.0712301,0.0109243,-0.177228,0.0442966,0.0421392,615,1415,-1.00986,-0.86378
-602,-391,-0.400757,0.698242,0.0546443,0.0129155,-0.00760198,0.0559861,0.0115737,-0.174701,0.0341267,0.0450116,622,1415,-0.400733,-0.698234
-595,-391,0.0391846,-0.0183105,0.0425461,0.0128651,-0.00466165,0.0432611,0.0121502,-0.152178,0.025764,0.0436681,629,1415,0.039197,0.0182745
-588,-391,0.158386,0.203613,0,0,0,0,0,0,0,-1,636,1415,0.158385,-0.203573
-581,-391,0.146118,0.478516,0.0247996,0.0116958,0.000236647,0.0248039,0.0116915,0.0180515,0.0143284,0.0462526,643,1415,0.146139,-0.478547
-574,-391,0.625122,0.284302,0.0186143,0.0106417,0.00192528,0.0190549,0.0102011,0.224967,0.0110105,0.04806,650,1415,0.625103,-0.284324
-567,-391,0.573914,0.466187,0.013562,0.00916558,0.00296067,0.0150513,0.00767628,0.466067,0.00869044,0.0444295,657,1415,0.573893,-0.466128
-560,-391,0.522339,0.73999,0.00984459,0.0077746,0.0034998,0.0124592,0.00515995,0.641631,0.0072286,0.0312668,664,1415,0.52235,-0.739992
-553,-391,0.454529,0.922607,0.00678241,0.00645044,0.00367477,0.0102949,0.00293791,0.762829,0.0061236,0.0171497,671,1415,0.45454,-0.922635
-546,-391,0.442017,0.963501,0.00464776,0.00527258,0.00360995,0.00858361,0.00133672,0.828561,0.00533297,0.0110138,678,1415,0.441995,-0.963526
-539,-391,0.439087,0.99939,0.00306508,0.0038161,0.00337255,0.00683399,4.7198e-05,0.840841,0.00454034,0.014571,685,1415,0.439095,-0.999343
-532,-391,0.41687,1.03455,0.00222695,0.00156015,0.00276854,0.0046821,-0.000894994,0.725474,0.00345855,0.0261925,692,1415,0.416841,-1.03458
-525,-391,0.449951,1.09167,0.00215732,-0.000170025,0.00165365,0.0030157,-0.0010284,0.478795,0.00242702,0.0229044,699,1415,0.449941,-1.09173
-518,-391,0.437134,1.10083,0.0027299,-0.0016761,0.000569993,0.00280245,-0.00174864,0.126591,0.00265095,0.0129907,706,1415,0.437155,-1.10085
-511,-391,0.435791,1.11353,0.00293517,-0.00318426,-0.000559006,0.00298581,-0.0032349,-0.090353,0.00359249,0.0109763,713,1415,0.43582,-1.11358
-504,-391,0.449463,1.15649,0.00344412,-0.00485865,-0.00143406,0.00368483,-0.00509937,-0.166303,0.00509343,0.00992973,720,1415,0.449444,-1.15653
-497,-391,0.450989,1.19507,0.00418256,-0.00611539,-0.00205769,0.0045785,-0.00651133,-0.190094,0.00643505,0.00862514,727,1415,0.45096,-1.19503
-490,-391,0.443298,1.21387,0.00532401,-0.00651545,-0.00322264,0.00614435,-0.0073358,-0.249263,0.0077929,0.0104311,734,1415,0.443282,-1.21388
-483,-391,0.410522,1.19934,0.00629003,-0.006118,-0.00445007,0.00772099,-0.00754897,-0.311118,0.0088163,0.0256967,741,1415,0.410507,-1.19928
-476,-391,0.38092,1.14221,0.00638634,-0.00542006,-0.00551309,0.00856039,-0.00759411,-0.37562,0.00933236,0.0393021,748,1415,0.380931,-1.14225
-469,-391,0.400757,1.12573,0.00574352,-0.00455245,-0.00642643,0.00882966,-0.00763859,-0.447703,0.00951623,0.0456279,755,1415,0.400765,-1.12573
-462,-391,0.261108,1.26062,0.00471333,-0.00182642,-0.00792493,0.0100165,-0.00712956,-0.589735,0.00994593,0.0440743,762,1415,0.261115,-1.26066
-455,-391,0.413574,1.33411,0.00341091,0.000955021,-0.00975599,0.0120159,-0.00765,-0.722794,0.011447,0.0446771,769,1415,0.413553,-1.33409
-448,-391,0.513855,1.31604,0.00103742,0.00466819,-0.0114769,0.0144724,-0.00876682,-0.863837,0.0135513,0.0486862,776,1415,0.513857,-1.31604
-441,-391,0.446472,1.10046,0,0,0,0,0,0,0,-1,783,1415,0.446495,-1.10047
-434,-391,0.190369,-0.141968,-0.00542242,0.0141129,-0.0153038,0.0225005,-0.0138101,-1.06943,0.0211631,0.0413455,790,1415,0.190345,0.14191
-427,-391,0.11261,0.0968018,-0.00921573,0.0193601,-0.0174654,0.0276374,-0.017493,-1.12823,0.0262745,0.0411761,797,1415,0.112589,-0.0968234
-420,-391,-0.0759277,0.418091,-0.0129212,0.0246086,-0.0198325,0.0331466,-0.0214592,-1.16427,0.0317665,0.0439283,804,1415,-0.075919,-0.418119
-413,-391,0,0,0,0,0,0,0,0,0,-1,811,1415,0,0
-406,-391,0,0,0,0,0,0,0,0,0,-1,818,1415,0,0
-399,-391,0,0,0,0,0,0,0,0,0,-1,825,1415,0,0
-392,-391,0,0,0,0,0,0,0,0,0,-1,832,1415,0,0
-385,-391,0,0,0,0,0,0,0,0,0,-1,839,1415,0,0
-378,-391,0,0,0,0,0,0,0,0,0,-1,846,1415,0,0
-371,-391,0,0,0,0,0,0,0,0,0,-1,853,1415,0,0
-364,-391,0,0,0,0,0,0,0,0,0,-1,860,1415,0,0
-357,-391,0,0,0,0,0,0,0,0,0,-1,867,1415,0,0
-350,-391,0,0,0,0,0,0,0,0,0,-1,874,1415,0,0
-343,-391,0,0,0,0,0,0,0,0,0,-1,881,1415,0,0
-336,-391,0,0,0,0,0,0,0,0,0,-1,888,1415,0,0
-329,-391,0,0,0,0,0,0,0,0,0,-1,895,1415,0,0
-322,-391,0,0,0,0,0,0,0,0,0,-1,902,1415,0,0
-315,-391,0,0,0,0,0,0,0,0,0,-1,909,1415,0,0
-308,-391,0,0,0,0,0,0,0,0,0,-1,916,1415,0,0
-301,-391,0,0,0,0,0,0,0,0,0,-1,923,1415,0,0
-294,-391,0,0,0,0,0,0,0,0,0,-1,930,1415,0,0
-287,-391,0,0,0,0,0,0,0,0,0,-1,937,1415,0,0
-280,-391,0,0,0,0,0,0,0,0,0,-1,944,1415,0,0
-273,-391,0,0,0,0,0,0,0,0,0,-1,951,1415,0,0
-266,-391,0,0,0,0,0,0,0,0,0,-1,958,1415,0,0
-259,-391,0,0,0,0,0,0,0,0,0,-1,965,1415,0,0
-252,-391,0,0,0,0,0,0,0,0,0,-1,972,1415,0,0
-245,-391,0,0,0,0,0,0,0,0,0,-1,979,1415,0,0
-238,-391,0,0,0,0,0,0,0,0,0,-1,986,1415,0,0
-231,-391,0,0,0,0,0,0,0,0,0,-1,993,1415,0,0
-224,-391,0,0,0,0,0,0,0,0,0,-1,1000,1415,0,0
-217,-391,0,0,0,0,0,0,0,0,0,-1,1007,1415,0,0
-210,-391,0,0,0,0,0,0,0,0,0,-1,1014,1415,0,0
-203,-391,0,0,0,0,0,0,0,0,0,-1,1021,1415,0,0
-196,-391,0,0,0,0,0,0,0,0,0,-1,1028,1415,0,0
-189,-391,0,0,0,0,0,0,0,0,0,-1,1035,1415,0,0
-182,-391,0,0,0,0,0,0,0,0,0,-1,1042,1415,0,0
-175,-391,0,0,0,0,0,0,0,0,0,-1,1049,1415,0,0
-168,-391,0,0,0,0,0,0,0,0,0,-1,1056,1415,0,0
-161,-391,0,0,0,0,0,0,0,0,0,-1,1063,1415,0,0
-154,-391,0,0,0,0,0,0,0,0,0,-1,1070,1415,0,0
-147,-391,0,0,0,0,0,0,0,0,0,-1,1077,1415,0,0
-140,-391,0,0,0,0,0,0,0,0,0,-1,1084,1415,0,0
-133,-391,0,0,0,0,0,0,0,0,0,-1,1091,1415,0,0
-126,-391,0,0,0,0,0,0,0,0,0,-1,1098,1415,0,0
-119,-391,0,0,0,0,0,0,0,0,0,-1,1105,1415,0,0
-112,-391,0,0,0,0,0,0,0,0,0,-1,1112,1415,0,0
-105,-391,0,0,0,0,0,0,0,0,0,-1,1119,1415,0,0
-98,-391,0,0,0,0,0,0,0,0,0,-1,1126,1415,0,0
-91,-391,0,0,0,0,0,0,0,0,0,-1,1133,1415,0,0
-84,-391,0,0,0,0,0,0,0,0,0,-1,1140,1415,0,0
-77,-391,0,0,0,0,0,0,0,0,0,-1,1147,1415,0,0
-70,-391,0,0,0,0,0,0,0,0,0,-1,1154,1415,0,0
-63,-391,0,0,0,0,0,0,0,0,0,-1,1161,1415,0,0
-56,-391,0,0,0,0,0,0,0,0,0,-1,1168,1415,0,0
-49,-391,0,0,0,0,0,0,0,0,0,-1,1175,1415,0,0
-42,-391,0,0,0,0,0,0,0,0,0,-1,1182,1415,0,0
-35,-391,0,0,0,0,0,0,0,0,0,-1,1189,1415,0,0
-28,-391,0,0,0,0,0,0,0,0,0,-1,1196,1415,0,0
-21,-391,0,0,0,0,0,0,0,0,0,-1,1203,1415,0,0
-14,-391,0,0,0,0,0,0,0,0,0,-1,1210,1415,0,0
-7,-391,0,0,0,0,0,0,0,0,0,-1,1217,1415,0,0
0,-391,0,0,0,0,0,0,0,0,0,-1,1224,1415,0,0
7,-391,0,0,0,0,0,0,0,0,0,-1,1231,1415,0,0
14,-391,0,0,0,0,0,0,0,0,0,-1,1238,1415,0,0
21,-391,0,0,0,0,0,0,0,0,0,-1,1245,1415,0,0
28,-391,0,0,0,0,0,0,0,0,0,-1,1252,1415,0,0
35,-391,0,0,0,0,0,0,0,0,0,-1,1259,1415,0,0
42,-391,0,0,0,0,0,0,0,0,0,-1,1266,1415,0,0
49,-391,0,0,0,0,0,0,0,0,0,-1,1273,1415,0,0
56,-391,0,0,0,0,0,0,0,0,0,-1,1280,1415,0,0
63,-391,0,0,0,0,0,0,0,0,0,-1,1287,1415,0,0
70,-391,0,0,0,0,0,0,0,0,0,-1,1294,1415,0,0
77,-391,0,0,0,0,0,0,0,0,0,-1,1301,1415,0,0
84,-391,0,0,0,0,0,0,0,0,0,-1,1308,1415,0,0
91,-391,0,0,0,0,0,0,0,0,0,-1,1315,1415,0,0
98,-391,0,0,0,0,0,0,0,0,0,-1,1322,1415,0,0
105,-391,0,0,0,0,0,0,0,0,0,-1,1329,1415,0,0
112,-391,0,0,0,0,0,0,0,0,0,-1,1336,1415,0,0
119,-391,0,0,0,0,0,0,0,0,0,-1,1343,1415,0,0
126,-391,0,0,0,0,0,0,0,0,0,-1,1350,1415,0,0
133,-391,0,0,0,0,0,0,0,0,0,-1,1357,1415,0,0
140,-391,0,0,0,0,0,0,0,0,0,-1,1364,1415,0,0
147,-391,0,0,0,0,0,0,0,0,0,-1,1371,1415,0,0
154,-391,0,0,0,0,0,0,0,0,0,-1,1378,1415,0,0
161,-391,0,0,0,0,0,0,0,0,0,-1,1385,1415,0,0
168,-391,0,0,0,0,0,0,0,0,0,-1,1392,1415,0,0
175,-391,0,0,0,0,0,0,0,0,0,-1,1399,1415,0,0
182,-391,0,0,0,0,0,0,0,0,0,-1,1406,1415,0,0
189,-391,0,0,0,0,0,0,0,0,0,-1,1413,1415,0,0
196,-391,0,0,0,0,0,0,0,0,0,-1,1420,1415,0,0
203,-391,0,0,0,0,0,0,0,0,0,-1,1427,1415,0,0
210,-391,0,0,0,0,0,0,0,0,0,-1,1434,1415,0,0
217,-391,0,0,0,0,0,0,0,0,0,-1,1441,1415,0,0
224,-391,0,0,0,0,0,0,0,0,0,-1,1448,1415,0,0
231,-391,0,0,0,0,0,0,0,0,0,-1,1455,1415,0,0
238,-391,0,0,0,0,0,0,0,0,0,-1,1462,1415,0,0
245,-391,0,0,0,0,0,0,0,0,0,-1,1469,1415,0,0
252,-391,0,0,0,0,0,0,0,0,0,-1,1476,1415,0,0
259,-391,0,0,0,0,0,0,0,0,0,-1,1483,1415,0,0
266,-391,0,0,0,0,0,0,0,0,0,-1,1490,1415,0,0
273,-391,0,0,0,0,0,0,0,0,0,-1,1497,1415,0,0
280,-391,0,0,0,0,0,0,0,0,0,-1,1504,1415,0,0
287,-391,0,0,0,0,0,0,0,0,0,-1,1511,1415,0,0
294,-391,0,0,0,0,0,0,0,0,0,-1,1518,1415,0,0
301,-391,0,0,0,0,0,0,0,0,0,-1,1525,1415,0,0
308,-391,0,0,0,0,0,0,0,0,0,-1,1532,1415,0,0
315,-391,0,0,0,0,0,0,0,0,0,-1,1539,1415,0,0
322,-391,0,0,0,0,0,0,0,0,0,-1,1546,1415,0,0
329,-391,0,0,0,0,0,0,0,0,0,-1,1553,1415,0,0
336,-391,0,0,0,0,0,0,0,0,0,-1,1560,1415,0,0
343,-391,0,0,0,0,0,0,0,0,0,-1,1567,1415,0,0
350,-391,0,0,0,0,0,0,0,0,0,-1,1574,1415,0,0
357,-391,0,0,0,0,0,0,0,0,0,-1,1581,1415,0,0
364,-391,0,0,0,0,0,0,0,0,0,-1,1588,1415,0,0
371,-391,0,0,0,0,0,0,0,0,0,-1,1595,1415,0,0
378,-391,0,0,0,0,0,0,0,0,0,-1,1602,1415,0,0
385,-391,0,0,0,0,0,0,0,0,0,-1,1609,1415,0,0
392,-391,0,0,0,0,0,0,0,0,0,-1,1616,1415,0,0
399,-391,0,0,0,0,0,0,0,0,0,-1,1623,1415,0,0
406,-391,0,0,0,0,0,0,0,0,0,-1,1630,1415,0,0
413,-391,0,0,0,0,0,0,0,0,0,-1,1637,1415,0,0
420,-391,0,0,0,0,0,0,0,0,0,-1,1644,1415,0,0
427,-391,0,0,0,0,0,0,0,0,0,-1,1651,1415,0,0
434,-391,0,0,0,0,0,0,0,0,0,-1,1658,1415,0,0
441,-391,0,0,0,0,0,0,0,0,0,-1,1665,1415,0,0
448,-391,0,0,0,0,0,0,0,0,0,-1,1672,1415,0,0
455,-391,0,0,0,0,0,0,0,0,0,-1,1679,1415,0,0
462,-391,0,0,0,0,0,0,0,0,0,-1,1686,1415,0,0
469,-391,0,0,0,0,0,0,0,0,0,-1,1693,1415,0,0
476,-391,0,0,0,0,0,0,0,0,0,-1,1700,1415,0,0
483,-391,0,0,0,0,0,0,0,0,0,-1,1707,1415,0,0
490,-391,0,0,0,0,0,0,0,0,0,-1,1714,1415,0,0
497,-391,0,0,0,0,0,0,0,0,0,-1,1721,1415,0,0
504,-391,0,0,0,0,0,0,0,0,0,-1,1728,1415,0,0
511,-391,0,0,0,0,0,0,0,0,0,-1,1735,1415,0,0
518,-391,0,0,0,0,0,0,0,0,0,-1,1742,1415,0,0
525,-391,0,0,0,0,0,0,0,0,0,-1,1749,1415,0,0
532,-391,5.15686,0.262817,0.0903666,0.0179697,-0.0332737,0.103336,0.00500038,-0.371662,0.0672858,0.0425623,1756,1415,5.15689,-0.262802
539,-391,5.08044,0.170166,0.100659,0.0219734,-0.0284403,0.109862,0.0127702,-0.31296,0.0693776,0.0456162,1763,1415,5.08044,-0.170203
546,-391,4.90601,0.114136,0.105697,0.026436,-0.0243258,0.112567,0.0195657,-0.27526,0.0694475,0.0458,1770,1415,4.90602,-0.114096
553,-391,10.1719,2.85413,0,0,0,0,0,0,0,-1,1777,1415,10.1718,-2.85407
560,-391,9.2782,2.7251,0.0888828,0.0261847,-0.016242,0.0928405,0.0222271,-0.239012,0.0559755,0.0467518,1784,1415,9.27815,-2.72505
567,-391,8.39148,2.67786,0.0756522,0.0239846,-0.0120103,0.0783075,0.0213293,-0.21759,0.0467464,0.0429332,1791,1415,8.39152,-2.67783
574,-391,7.51563,2.65601,0.0611253,0.0206888,-0.00877258,0.0629465,0.0188677,-0.20469,0.0373012,0.0419782,1798,1415,7.51562,-2.65595
581,-391,6.69507,2.74304,0,0,0,0,0,0,0,-1,1805,1415,6.69501,-2.74307
588,-391,4.69238,1.5752,0,0,0,0,0,0,0,-1,1812,1415,4.69235,-1.57525
595,-391,3.68677,1.21191,0,0,0,0,0,0,0,-1,1819,1415,3.6868,-1.21197
602,-391,3.50964,1.20825,0.0160804,0.00879451,-0.00233162,0.0167627,0.00811224,-0.284669,0.0096796,0.0466405,1826,1415,3.50965,-1.20821
609,-391,3.32959,1.18933,0.007411,0.00590155,-0.00159018,0.00841647,0.00489608,-0.563832,0.00488084,0.0402836,1833,1415,3.32957,-1.18937
616,-391,3.20398,1.19678,-0.00170353,0.000187677,0.00245353,0.00187152,-0.00338737,0.969329,0.00307798,0.0262564,1840,1415,3.204,-1.19679
623,-391,3.20374,1.11792,-0.00664208,-5.5362e-05,0.000607955,2.82191e-07,-0.00669773,1.47952,0.00446525,0.0141773,1847,1415,3.20369,-1.11792
630,-391,3.21594,1.09192,-0.0040386,-0.000355296,0.000252907,-0.000338012,-0.00405589,1.50256,0.00259859,0.0142928,1854,1415,3.21597,-1.0919
637,-391,3.22205,1.10303,-0.00293014,-0.000224706,0.000401949,-0.000166251,-0.00298859,1.42638,0.00193935,0.0149675,1861,1415,3.22208,-1.10304
644,-391,3.203,1.09265,-0.00180561,3.20032e-05,0.000565662,0.000192168,-0.00196577,1.29487,0.00137904,0.0154078,1868,1415,3.20301,-1.09259
651,-391,3.20569,1.06384,-0.000798538,0.000368876,0.000547449,0.000585428,-0.00101509,1.19412,0.000935092,0.0161062,1875,1415,3.20567,-1.0639
658,-391,3.22095,1.02222,0.000131777,0.000620646,0.000366043,0.000816366,-6.39432e-05,1.07978,0.000566762,0.0152395,1882,1415,3.221,-1.02223
665,-391,3.23169,0.981445,0.0010446,0.000567073,-0.000245248,0.00114811,0.000463557,-0.3994,0.000666943,0.0124406,1889,1415,3.23166,-0.981403
672,-391,3.24548,0.948975,0.0018192,0.00107347,-0.000930862,0.00244909,0.000443569,-0.594904,0.00150679,0.0124937,1896,1415,3.24548,-0.94896
679,-391,3.23352,0.915161,0.00282997,0.00173921,-0.00194126,0.004301,0.000268177,-0.648458,0.00278225,0.0128213,1903,1415,3.23346,-0.915219
686,-391,3.22876,0.884766,0.00430076,0.00247346,-0.00330646,0.00681748,-4.32616e-05,-0.650601,0.00455948,0.0128727,1910,1415,3.22874,-0.884746
693,-391,3.2428,0.917847,0.0063281,0.00359517,-0.00520746,0.0103454,-0.000422117,-0.657088,0.00704185,0.0228292,1917,1415,3.24283,-0.917826
700,-391,2.97791,0.933472,0,0,0,0,0,0,0,-1,1924,1415,2.97795,-0.933424
707,-391,2.99902,0.686646,0.0124212,0.0077252,-0.0110971,0.0214159,-0.00126959,-0.681143,0.0147188,0.0482514,1931,1415,2.99908,-0.686657
714,-391,3.48193,-0.05896,0.016497,0.0113396,-0.0153039,0.0294379,-0.00160127,-0.701932,0.0201802,0.0470121,1938,1415,3.48192,0.0589083
721,-391,2.02356,-1.66418,0,0,0,0,0,0,0,-1,1945,1415,2.0235,1.66421
728,-391,2.43848,-1.70056,0,0,0,0,0,0,0,-1,1952,1415,2.43849,1.7006
735,-391,0,0,0,0,0,0,0,0,0,-1,1959,1415,0,0
742,-391,0,0,0,0,0,0,0,0,0,-1,1966,1415,0,0
749,-391,0,0,0,0,0,0,0,0,0,-1,1973,1415,0,0
756,-391,0,0,0,0,0,0,0,0,0,-1,1980,1415,0,0
763,-391,0,0,0,0,0,0,0,0,0,-1,1987,1415,0,0
770,-391,0,0,0,0,0,0,0,0,0,-1,1994,1415,0,0
777,-391,0,0,0,0,0,0,0,0,0,-1,2001,1415,0,0
784,-391,0,0,0,0,0,0,0,0,0,-1,2008,1415,0,0
791,-391,0,0,0,0,0,0,0,0,0,-1,2015,1415,0,0
798,-391,0,0,0,0,0,0,0,0,0,-1,2022,1415,0,0
805,-391,0,0,0,0,0,0,0,0,0,-1,2029,1415,0,0
812,-391,0,0,0,0,0,0,0,0,0,-1,2036,1415,0,0
-700,-398,0,0,0,0,0,0,0,0,0,-1,524,1422,0,0
-693,-398,0,0,0,0,0,0,0,0,0,-1,531,1422,0,0
-686,-398,0,0,0,0,0,0,0,0,0,-1,538,1422,0,0
-679,-398,0,0,0,0,0,0,0,0,0,-1,545,1422,0,0
-672,-398,0,0,0,0,0,0,0,0,0,-1,552,1422,0,0
-665,-398,0,0,0,0,0,0,0,0,0,-1,559,1422,0,0
-658,-398,0,0,0,0,0,0,0,0,0,-1,566,1422,0,0
-651,-398,0,0,0,0,0,0,0,0,0,-1,573,1422,0,0
-644,-398,0,0,0,0,0,0,0,0,0,-1,580,1422,0,0
-637,-398,0,0,0,0,0,0,0,0,0,-1,587,1422,0,0
-630,-398,0,0,0,0,0,0,0,0,0,-1,594,1422,0,0
-623,-398,0,0,0,0,0,0,0,0,0,-1,601,1422,0,0
-616,-398,0,0,0,0,0,0,0,0,0,-1,608,1422,0,0
-609,-398,-1.2962,1.03271,0.0710476,0.00722032,-0.0144941,0.0741848,0.00408316,-0.213156,0.0481532,0.0439499,615,1422,-1.29619,-1.03272
-602,-398,-0.506531,0.830933,0.0548749,0.00957558,-0.0105754,0.0572222,0.00722832,-0.218414,0.0359815,0.0461847,622,1422,-0.506506,-0.830902
-595,-398,-0.27356,0.663818,0.0422284,0.011163,-0.00665145,0.0435927,0.00979874,-0.202298,0.0264086,0.0444435,629,1422,-0.273582,-0.663795
-588,-398,-0.224243,0.489746,0.0322108,0.0118403,-0.00315652,0.0326887,0.0113624,-0.150262,0.0191629,0.0421529,636,1422,-0.224239,-0.489724
-581,-398,-0.115967,0.362427,0.024402,0.0117745,-0.000299681,0.0244092,0.0117674,-0.0237144,0.0140956,0.0429828,643,1422,-0.115976,-0.362428
-574,-398,-0.0158081,0.238403,0,0,0,0,0,0,0,-1,650,1422,-0.0158009,-0.238366
-567,-398,0.391052,0.402466,0.0136727,0.00987435,0.00316922,0.0154682,0.00807881,0.515463,0.00893353,0.0431538,657,1422,0.391058,-0.402421
-560,-398,0.413086,0.800903,0.0101804,0.0085497,0.00389667,0.0133461,0.005384,0.682262,0.00775317,0.0351506,664,1422,0.41309,-0.800948
-553,-398,0.468994,0.910034,0.00721764,0.00727178,0.00414921,0.011394,0.00309542,0.78866,0.00680313,0.0207985,671,1422,0.468987,-0.910089
-546,-398,0.472351,0.950928,0.0050603,0.00612142,0.00415985,0.00978441,0.00139731,0.848828,0.00611066,0.0103714,678,1422,0.472372,-0.950942
-539,-398,0.469788,1.0177,0.0034873,0.00470687,0.00402645,0.00816945,2.4715e-05,0.860549,0.00543808,0.0124637,685,1422,0.469793,-1.01771
-532,-398,0.479004,1.06323,0.00261061,0.00252681,0.0034381,0.00600707,-0.000869646,0.779305,0.00432385,0.0207748,692,1422,0.479029,-1.06321
-525,-398,0.487,1.08105,0.00230007,0.000921182,0.00230891,0.00402027,-0.000799019,0.640311,0.00298242,0.0196113,699,1422,0.487022,-1.08102
-518,-398,0.483032,1.09839,0.00240028,-0.000423463,0.00128141,0.00289508,-0.000918261,0.368498,0.00229813,0.0160529,706,1422,0.483052,-1.09841
-511,-398,0.484985,1.11182,0.00219421,-0.00166837,0.000181308,0.0022027,-0.00167686,0.0468025,0.00224672,0.0113789,713,1422,0.484966,-1.11185
-504,-398,0.489258,1.15356,0.00219934,-0.00299963,-0.000660362,0.00228191,-0.0030822,-0.124387,0.00310843,0.0114533,720,1422,0.489234,-1.15361
-497,-398,0.494568,1.18628,0.00237392,-0.0040616,-0.00120552,0.00259233,-0.00428001,-0.179231,0.00400743,0.00950046,727,1422,0.494549,-1.18633
-490,-398,0.489319,1.22485,0.00299304,-0.00443402,-0.00216854,0.00357984,-0.00502083,-0.264269,0.00498878,0.00941102,734,1422,0.489292,-1.22487
-483,-398,0.474121,1.23267,0.00353057,-0.00417724,-0.00317575,0.00467046,-0.00531713,-0.344612,0.00577036,0.0144496,741,1422,0.474131,-1.23269
-476,-398,0.455322,1.1272,0.00319016,-0.0036528,-0.00411331,0.00511899,-0.00558164,-0.43848,0.00617993,0.0326488,748,1422,0.455322,-1.12714
-469,-398,0.426758,1.0675,0.00208548,-0.00317161,-0.00486879,0.00498996,-0.00607609,-0.53788,0.00639924,0.0461404,755,1422,0.426785,-1.06751
-462,-398,0.348633,1.14478,0.000707443,-0.000675618,-0.0062949,0.00634869,-0.00631686,-0.73069,0.00731246,0.0467636,762,1422,0.34866,-1.1448
-455,-398,0.48468,1.25342,-0.000770088,0.00170407,-0.00815745,0.00871771,-0.00778373,-0.86065,0.0095322,0.0428399,769,1422,0.484686,-1.25347
-448,-398,0.483521,1.27209,-0.00315918,0.00480358,-0.00995489,0.0115437,-0.00989933,-0.975627,0.0123923,0.0449081,776,1422,0.483539,-1.27214
-441,-398,0.36792,0.893921,0,0,0,0,0,0,0,-1,783,1422,0.367892,-0.893979
-434,-398,0.596802,0.410278,0,0,0,0,0,0,0,-1,790,1422,0.596822,-0.410253
-427,-398,0.177734,0.269409,-0.0124971,0.0177773,-0.0167005,0.0251799,-0.0198997,-1.15356,0.0260861,0.0427834,797,1422,0.177722,-0.269419
-420,-398,-0.183655,0.480835,-0.0155755,0.0226541,-0.0195501,0.0308812,-0.0238026,-1.17247,0.0316598,0.0429102,804,1422,-0.183656,-0.480805
-413,-398,-0.403381,0.425659,-0.016636,0.0273993,-0.0229245,0.037167,-0.0264037,-1.16801,0.0368775,0.0424477,811,1422,-0.403382,-0.425608
-406,-398,0,0,0,0,0,0,0,0,0,-1,818,1422,0,0
-399,-398,0,0,0,0,0,0,0,0,0,-1,825,1422,0,0
-392,-398,0,0,0,0,0,0,0,0,0,-1,832,1422,0,0
-385,-398,0,0,0,0,0,0,0,0,0,-1,839,1422,0,0
-378,-398,0,0,0,0,0,0,0,0,0,-1,846,1422,0,0
-371,-398,0,0,0,0,0,0,0,0,0,-1,853,1422,0,0
-364,-398,0,0,0,0,0,0,0,0,0,-1,860,1422,0,0
-357,-398,0,0,0,0,0,0,0,0,0,-1,867,1422,0,0
-350,-398,0,0,0,0,0,0,0,0,0,-1,874,1422,0,0
-343,-398,0,0,0,0,0,0,0,0,0,-1,881,1422,0,0
-336,-398,0,0,0,0,0,0,0,0,0,-1,888,1422,0,0
-329,-398,0,0,0,0,0,0,0,0,0,-1,895,1422,0,0
-322,-398,0,0,0,0,0,0,0,0,0,-1,902,1422,0,0
-315,-398,0,0,0,0,0,0,0,0,0,-1,909,1422,0,0
-308,-398,0,0,0,0,0,0,0,0,0,-1,916,1422,0,0
-301,-398,0,0,0,0,0,0,0,0,0,-1,923,1422,0,0
-294,-398,0,0,0,0,0,0,0,0,0,-1,930,1422,0,0
-287,-398,0,0,0,0,0,0,0,0,0,-1,937,1422,0,0
-280,-398,0,0,0,0,0,0,0,0,0,-1,944,1422,0,0
-273,-398,0,0,0,0,0,0,0,0,0,-1,951,1422,0,0
-266,-398,0,0,0,0,0,0,0,0,0,-1,958,1422,0,0
-259,-398,0,0,0,0,0,0,0,0,0,-1,965,1422,0,0
-252,-398,0,0,0,0,0,0,0,0,0,-1,972,1422,0,0
-245,-398,0,0,0,0,0,0,0,0,0,-1,979,1422,0,0
-238,-398,0,0,0,0,0,0,0,0,0,-1,986,1422,0,0
-231,-398,0,0,0,0,0,0,0,0,0,-1,993,1422,0,0
-224,-398,0,0,0,0,0,0,0,0,0,-1,1000,1422,0,0
-217,-398,0,0,0,0,0,0,0,0,0,-1,1007,1422,0,0
-210,-398,0,0,0,0,0,0,0,0,0,-1,1014,1422,0,0
-203,-398,0,0,0,0,0,0,0,0,0,-1,1021,1422,0,0
-196,-398,0,0,0,0,0,0,0,0,0,-1,1028,1422,0,0
-189,-398,0,0,0,0,0,0,0,0,0,-1,1035,1422,0,0
-182,-398,0,0,0,0,0,0,0,0,0,-1,1042,1422,0,0
-175,-398,0,0,0,0,0,0,0,0,0,-1,1049,1422,0,0
-168,-398,0,0,0,0,0,0,0,0,0,-1,1056,1422,0,0
-161,-398,0,0,0,0,0,0,0,0,0,-1,1063,1422,0,0
-154,-398,0,0,0,0,0,0,0,0,0,-1,1070,1422,0,0
-147,-398,0,0,0,0,0,0,0,0,0,-1,1077,1422,0,0
-140,-398,0,0,0,0,0,0,0,0,0,-1,1084,1422,0,0
-133,-398,0,0,0,0,0,0,0,0,0,-1,1091,1422,0,0
-126,-398,0,0,0,0,0,0,0,0,0,-1,1098,1422,0,0
-119,-398,0,0,0,0,0,0,0,0,0,-1,1105,1422,0,0
-112,-398,0,0,0,0,0,0,0,0,0,-1,1112,1422,0,0
-105,-398,0,0,0,0,0,0,0,0,0,-1,1119,1422,0,0
-98,-398,0,0,0,0,0,0,0,0,0,-1,1126,1422,0,0
-91,-398,0,0,0,0,0,0,0,0,0,-1,1133,1422,0,0
-84,-398,0,0,0,0,0,0,0,0,0,-1,1140,1422,0,0
-77,-398,0,0,0,0,0,0,0,0,0,-1,1147,1422,0,0
-70,-398,0,0,0,0,0,0,0,0,0,-1,1154,1422,0,0
-63,-398,0,0,0,0,0,0,0,0,0,-1,1161,1422,0,0
-56,-398,0,0,0,0,0,0,0,0,0,-1,1168,1422,0,0
-49,-398,0,0,0,0,0,0,0,0,0,-1,1175,1422,0,0
-42,-398,0,0,0,0,0,0,0,0,0,-1,1182,1422,0,0
-35,-398,0,0,0,0,0,0,0,0,0,-1,1189,1422,0,0
-28,-398,0,0,0,0,0,0,0,0,0,-1,1196,1422,0,0
-21,-398,0,0,0,0,0,0,0,0,0,-1,1203,1422,0,0
-14,-398,0,0,0,0,0,0,0,0,0,-1,1210,1422,0,0
-7,-398,0,0,0,0,0,0,0,0,0,-1,1217,1422,0,0
0,-398,0,0,0,0,0,0,0,0,0,-1,1224,1422,0,0
7,-398,0,0,0,0,0,0,0,0,0,-1,1231,1422,0,0
14,-398,0,0,0,0,0,0,0,0,0,-1,1238,1422,0,0
21,-398,0,0,0,0,0,0,0,0,0,-1,1245,1422,0,0
28,-398,0,0,0,0,0,0,0,0,0,-1,1252,1422,0,0
35,-398,0,0,0,0,0,0,0,0,0,-1,1259,1422,0,0
42,-398,0,0,0,0,0,0,0,0,0,-1,1266,1422,0,0
49,-398,0,0,0,0,0,0,0,0,0,-1,1273,1422,0,0
56,-398,0,0,0,0,0,0,0,0,0,-1,1280,1422,0,0
63,-398,0,0,0,0,0,0,0,0,0,-1,1287,1422,0,0
70,-398,0,0,0,0,0,0,0,0,0,-1,1294,1422,0,0
77,-398,0,0,0,0,0,0,0,0,0,-1,1301,1422,0,0
84,-398,0,0,0,0,0,0,0,0,0,-1,1308,1422,0,0
91,-398,0,0,0,0,0,0,0,0,0,-1,1315,1422,0,0
98,-398,0,0,0,0,0,0,0,0,0,-1,1322,1422,0,0
105,-398,0,0,0,0,0,0,0,0,0,-1,1329,1422,0,0
112,-398,0,0,0,0,0,0,0,0,0,-1,1336,1422,0,0
119,-398,0,0,0,0,0,0,0,0,0,-1,1343,1422,0,0
126,-398,0,0,0,0,0,0,0,0,0,-1,1350,1422,0,0
133,-398,0,0,0,0,0,0,0,0,0,-1,1357,1422,0,0
140,-398,0,0,0,0,0,0,0,0,0,-1,1364,1422,0,0
147,-398,0,0,0,0,0,0,0,0,0,-1,1371,1422,0,0
154,-398,0,0,0,0,0,0,0,0,0,-1,1378,1422,0,0
161,-398,0,0,0,0,0,0,0,0,0,-1,1385,1422,0,0
168,-398,0,0,0,0,0,0,0,0,0,-1,1392,1422,0,0
175,-398,0,0,0,0,0,0,0,0,0,-1,1399,1422,0,0
182,-398,0,0,0,0,0,0,0,0,0,-1,1406,1422,0,0
189,-398,0,0,0,0,0,0,0,0,0,-1,1413,1422,0,0
196,-398,0,0,0,0,0,0,0,0,0,-1,1420,1422,0,0
203,-398,0,0,0,0,0,0,0,0,0,-1,1427,1422,0,0
210,-398,0,0,0,0,0,0,0,0,0,-1,1434,1422,0,0
217,-398,0,0,0,0,0,0,0,0,0,-1,1441,1422,0,0
224,-398,0,0,0,0,0,0,0,0,0,-1,1448,1422,0,0
231,-398,0,0,0,0,0,0,0,0,0,-1,1455,1422,0,0
238,-398,0,0,0,0,0,0,0,0,0,-1,1462,1422,0,0
245,-398,0,0,0,0,0,0,0,0,0,-1,1469,1422,0,0
252,-398,0,0,0,0,0,0,0,0,0,-1,1476,1422,0,0
259,-398,0,0,0,0,0,0,0,0,0,-1,1483,1422,0,0
266,-398,0,0,0,0,0,0,0,0,0,-1,1490,1422,0,0
273,-398,0,0,0,0,0,0,0,0,0,-1,1497,1422,0,0
280,-398,0,0,0,0,0,0,0,0,0,-1,1504,1422,0,0
287,-398,0,0,0,0,0,0,0,0,0,-1,1511,1422,0,0
294,-398,0,0,0,0,0,0,0,0,0,-1,1518,1422,0,0
301,-398,0,0,0,0,0,0,0,0,0,-1,1525,1422,0,0
308,-398,0,0,0,0,0,0,0,0,0,-1,1532,1422,0,0
315,-398,0,0,0,0,0,0,0,0,0,-1,1539,1422,0,0
322,-398,0,0,0,0,0,0,0,0,0,-1,1546,1422,0,0
329,-398,0,0,0,0,0,0,0,0,0,-1,1553,1422,0,0
336,-398,0,0,0,0,0,0,0,0,0,-1,1560,1422,0,0
343,-398,0,0,0,0,0,0,0,0,0,-1,1567,1422,0,0
350,-398,0,0,0,0,0,0,0,0,0,-1,1574,1422,0,0
357,-398,0,0,0,0,0,0,0,0,0,-1,1581,1422,0,0
364,-398,0,0,0,0,0,0,0,0,0,-1,1588,1422,0,0
371,-398,0,0,0,0,0,0,0,0,0,-1,1595,1422,0,0
378,-398,0,0,0,0,0,0,0,0,0,-1,1602,1422,0,0
385,-398,0,0,0,0,0,0,0,0,0,-1,1609,1422,0,0
392,-398,0,0,0,0,0,0,0,0,0,-1,1616,1422,0,0
399,-398,0,0,0,0,0,0,0,0,0,-1,1623,1422,0,0
406,-398,0,0,0,0,0,0,0,0,0,-1,1630,1422,0,0
413,-398,0,0,0,0,0,0,0,0,0,-1,1637,1422,0,0
420,-398,0,0,0,0,0,0,0,0,0,-1,1644,1422,0,0
427,-398,0,0,0,0,0,0,0,0,0,-1,1651,1422,0,0
434,-398,0,0,0,0,0,0,0,0,0,-1,1658,1422,0,0
441,-398,0,0,0,0,0,0,0,0,0,-1,1665,1422,0,0
448,-398,0,0,0,0,0,0,0,0,0,-1,1672,1422,0,0
455,-398,0,0,0,0,0,0,0,0,0,-1,1679,1422,0,0
462,-398,0,0,0,0,0,0,0,0,0,-1,1686,1422,0,0
469,-398,0,0,0,0,0,0,0,0,0,-1,1693,1422,0,0
476,-398,0,0,0,0,0,0,0,0,0,-1,1700,1422,0,0
483,-398,0,0,0,0,0,0,0,0,0,-1,1707,1422,0,0
490,-398,0,0,0,0,0,0,0,0,0,-1,1714,1422,0,0
497,-398,0,0,0,0,0,0,0,0,0,-1,1721,1422,0,0
504,-398,0,0,0,0,0,0,0,0,0,-1,1728,1422,0,0
511,-398,0,0,0,0,0,0,0,0,0,-1,1735,1422,0,0
518,-398,0,0,0,0,0,0,0,0,0,-1,1742,1422,0,0
525,-398,0,0,0,0,0,0,0,0,0,-1,1749,1422,0,0
532,-398,4.82788,0.331299,0.0611608,0.011793,-0.0129909,0.0643706,0.00858325,-0.242229,0.040358,0.0438467,1756,1422,4.82788,-0.331301
539,-398,4.61194,0.205811,0.0700196,0.0159852,-0.00941986,0.0716147,0.0143901,-0.167741,0.0437427,0.0486023,1763,1422,4.612,-0.205769
546,-398,4.27991,0.0842285,0.0747392,0.0206108,-0.00698396,0.0756258,0.0197242,-0.126271,0.0452973,0.0475176,1770,1422,4.27989,-0.0842472
553,-398,8.86243,2.91736,0,0,0,0,0,0,0,-1,1777,1422,8.86242,-2.91733
560,-398,8.07483,2.79675,0.0640065,0.0218852,-0.00343328,0.0642845,0.0216072,-0.0807986,0.0377734,0.0461091,1784,1422,8.07481,-2.79673
567,-398,7.24036,2.66333,0.0548012,0.0206113,-0.00164414,0.0548801,0.0205324,-0.0479411,0.0320179,0.0423826,1791,1422,7.24032,-2.66335
574,-398,6.38977,2.53113,0.0442529,0.0181101,-0.000671581,0.0442702,0.0180929,-0.0256664,0.0257011,0.0431035,1798,1422,6.38979,-2.53111
581,-398,5.625,2.52869,0,0,0,0,0,0,0,-1,1805,1422,5.62501,-2.52869
588,-398,4.302,1.53894,0,0,0,0,0,0,0,-1,1812,1422,4.30205,-1.53896
595,-398,3.74048,1.34192,0.0179672,0.0107633,0.000320791,0.0179815,0.010749,0.0444124,0.0104476,0.0454588,1819,1422,3.74045,-1.34191
602,-398,3.4978,1.43384,0.0107964,0.00802868,-6.45714e-05,0.0107979,0.00802718,-0.0233137,0.0064757,0.0423416,1826,1422,3.49776,-1.43388
609,-398,3.26477,1.33313,0.00414682,0.00538491,-0.000309883,0.00545814,0.00407359,-1.33874,0.00327626,0.031915,1833,1422,3.2648,-1.3331
616,-398,3.20764,1.20972,-0.00279906,6.95527e-05,0.00233656,0.00137692,-0.00410642,1.06067,0.00329395,0.0135333,1840,1422,3.20765,-1.20972
623,-398,3.19336,1.15051,-0.0064075,-0.000246521,0.000527276,-0.000201721,-0.0064523,1.48603,0.0042359,0.00970383,1847,1422,3.1933,-1.15048
630,-398,3.19922,1.12805,-0.00384505,-0.000398639,0.000161538,-0.000391084,-0.00385261,1.52406,0.00244848,0.0114614,1854,1422,3.19918,-1.1281
637,-398,3.19922,1.11292,-0.00269875,-0.000128538,0.000327688,-8.74172e-05,-0.00273987,1.44596,0.00179815,0.0130809,1861,1422,3.19925,-1.11296
644,-398,3.14612,1.07495,-0.00148414,0.000375422,0.000571015,0.000536764,-0.00164548,1.29542,0.00131301,0.0187738,1868,1422,3.14618,-1.07499
651,-398,3.20898,1.02222,-0.000329727,0.00103959,0.000697557,0.00133235,-0.000622485,1.17343,0.00115316,0.0253002,1875,1422,3.20903,-1.02221
658,-398,3.22595,1.01746,0.000754525,0.00157486,0.000612127,0.00190153,0.00042785,1.08058,0.00115187,0.0181392,1882,1422,3.226,-1.01746
665,-398,3.20569,0.99585,0.00194862,0.00186067,0.000121126,0.00203351,0.00177578,0.611263,0.00127845,0.0129749,1889,1422,3.20564,-0.995852
672,-398,3.18848,0.950439,0.00313943,0.0026346,-0.000499172,0.00344638,0.00232765,-0.55131,0.00203016,0.0128549,1896,1422,3.18853,-0.95049
679,-398,3.18591,0.907837,0.00470942,0.00346429,-0.00149335,0.00570478,0.00246894,-0.587906,0.00330356,0.0118132,1903,1422,3.18591,-0.907889
686,-398,3.20898,0.879395,0.00689566,0.00431995,-0.00295789,0.00883389,0.00238171,-0.580076,0.00527764,0.0169705,1910,1422,3.20898,-0.87937
693,-398,3.21057,0.918457,0.00977336,0.00546826,-0.0050802,0.0131382,0.0021034,-0.585008,0.00814868,0.0349492,1917,1422,3.21063,-0.918512
700,-398,3.1427,1.18689,0.0134221,0.00706151,-0.00800518,0.0188556,0.00162804,-0.596318,0.0120644,0.0445741,1924,1422,3.1427,-1.18684
707,-398,3.0531,0.951538,0.0179289,0.00931223,-0.011877,0.0262548,0.000986294,-0.611406,0.0171839,0.0485302,1931,1422,3.05307,-0.951486
714,-398,3.58301,0.837158,0.0231065,0.0125613,-0.0168247,0.0354654,0.00020238,-0.633553,0.0235764,0.0490476,1938,1422,3.583,-0.837103
721,-398,3.68201,0.665161,0.0287967,0.0175179,-0.0229141,0.0467552,-0.000440532,-0.664741,0.031318,0.0438996,1945,1422,3.68206,-0.665178
728,-398,1.76917,-2.60742,0,0,0,0,0,0,0,-1,1952,1422,1.7692,2.60746
735,-398,0,0,0,0,0,0,0,0,0,-1,1959,1422,0,0
742,-398,0,0,0,0,0,0,0,0,0,-1,1966,1422,0,0
749,-398,0,0,0,0,0,0,0,0,0,-1,1973,1422,0,0
756,-398,0,0,0,0,0,0,0,0,0,-1,1980,1422,0,0
763,-398,0,0,0,0,0,0,0,0,0,-1,1987,1422,0,0
770,-398,0,0,0,0,0,0,0,0,0,-1,1994,1422,0,0
777,-398,0,0,0,0,0,0,0,0,0,-1,2001,1422,0,0
784,-398,0,0,0,0,0,0,0,0,0,-1,2008,1422,0,0
791,-398,0,0,0,0,0,0,0,0,0,-1,2015,1422,0,0
798,-398,0,0,0,0,0,0,0,0,0,-1,2022,1422,0,0
805,-398,0,0,0,0,0,0,0,0,0,-1,2029,1422,0,0
812,-398,0,0,0,0,0,0,0,0,0,-1,2036,1422,0,0
-700,-405,0,0,0,0,0,0,0,0,0,-1,524,1429,0,0
-693,-405,0,0,0,0,0,0,0,0,0,-1,531,1429,0,0
-686,-405,0,0,0,0,0,0,0,0,0,-1,538,1429,0,0
-679,-405,0,0,0,0,0,0,0,0,0,-1,545,1429,0,0
-672,-405,0,0,0,0,0,0,0,0,0,-1,552,1429,0,0
-665,-405,0,0,0,0,0,0,0,0,0,-1,559,1429,0,0
-658,-405,0,0,0,0,0,0,0,0,0,-1,566,1429,0,0
-651,-405,0,0,0,0,0,0,0,0,0,-1,573,1429,0,0
-644,-405,0,0,0,0,0,0,0,0,0,-1,580,1429,0,0
-637,-405,0,0,0,0,0,0,0,0,0,-1,587,1429,0,0
-630,-405,0,0,0,0,0,0,0,0,0,-1,594,1429,0,0
-623,-405,0,0,0,0,0,0,0,0,0,-1,601,1429,0,0
-616,-405,0,0,0,0,0,0,0,0,0,-1,608,1429,0,0
-609,-405,0,0,0,0,0,0,0,0,0,-1,615,1429,0,0
-602,-405,-0.695862,1.1438,0.0532717,0.00775471,-0.0130565,0.056751,0.00427542,-0.260428,0.0364925,0.042149,622,1429,-0.695866,-1.14385
-595,-405,-0.230469,0.772949,0.0408787,0.0105877,-0.00806823,0.0428937,0.00857273,-0.244738,0.0262098,0.0477129,629,1429,-0.230449,-0.77292
-588,-405,-0.0830078,0.404419,0.0312292,0.0120447,-0.00380316,0.0319556,0.0113183,-0.188735,0.0187093,0.0466947,636,1429,-0.0830034,-0.404479
-581,-405,-0.262878,0.331299,0.0238303,0.0124329,-0.000421486,0.0238459,0.0124173,-0.0369137,0.0137714,0.0429124,643,1429,-0.26289,-0.33127
-574,-405,-0.532532,0.323975,0.0182555,0.0120127,0.00203699,0.0188614,0.0114068,0.289094,0.010969,0.0463576,650,1429,-0.532521,-0.324017
-567,-405,-0.467224,0.114868,0.0139118,0.0108596,0.00357111,0.0162692,0.00850216,0.583469,0.00939623,0.0449969,657,1429,-0.467221,-0.114825
-560,-405,0.214294,0.678467,0.0107176,0.00951147,0.0043819,0.0145377,0.00569134,0.717015,0.008459,0.0408266,664,1429,0.214285,-0.678419
-553,-405,0.505188,0.837158,0.00791376,0.00821537,0.00458798,0.012655,0.00347411,0.801827,0.00754995,0.0316627,671,1429,0.505217,-0.837143
-546,-405,0.511902,0.911987,0.00576105,0.00701862,0.00457589,0.0110087,0.00177095,0.853677,0.00682584,0.0134919,678,1429,0.511932,-0.911951
-539,-405,0.490845,0.988403,0.00416661,0.00562312,0.00447685,0.00943056,0.00035917,0.866028,0.0061708,0.0108466,685,1429,0.490842,-0.988458
-532,-405,0.486084,1.03479,0.00324485,0.00351114,0.00385024,0.00723053,-0.000474547,0.802682,0.00498607,0.0152196,692,1429,0.486064,-1.03482
-525,-405,0.497009,1.08972,0.00270255,0.00197972,0.00268907,0.00505438,-0.000372117,0.718598,0.00350023,0.0149402,699,1429,0.497022,-1.0897
-518,-405,0.528503,1.11414,0.00230143,0.000753142,0.00167595,0.0033734,-0.000318823,0.56904,0.00236239,0.0150651,706,1429,0.528488,-1.11416
-511,-405,0.525879,1.11914,0.0016639,-0.000260213,0.000595887,0.0018335,-0.000429807,0.277277,0.00138796,0.0150666,713,1429,0.525876,-1.1191
-504,-405,0.517395,1.13623,0.00115182,-0.00128258,-0.00024263,0.00117577,-0.00130652,-0.0983781,0.00143381,0.0162938,720,1429,0.517404,-1.13628
-497,-405,0.527588,1.17883,0.000796135,-0.00219349,-0.000745637,0.000971782,-0.00236914,-0.23135,0.00198433,0.0133804,727,1429,0.527569,-1.17889
-490,-405,0.527527,1.22742,0.000926332,-0.0025609,-0.00153861,0.00150812,-0.00314269,-0.361509,0.00273987,0.0115072,734,1429,0.527505,-1.22748
-483,-405,0.511414,1.24475,0.0010485,-0.00246707,-0.00234552,0.00222181,-0.00364038,-0.463832,0.00341741,0.00911886,741,1429,0.511444,-1.2447
-476,-405,0.502991,1.26038,0.000328085,-0.00212845,-0.00317264,0.00250191,-0.00430228,-0.600711,0.00397398,0.0203263,748,1429,0.503019,-1.26039
-469,-405,0.479126,1.2478,-0.00117211,-0.00198356,-0.00379907,0.00224284,-0.00539851,-0.732202,0.0045354,0.03747,755,1429,0.47912,-1.24785
-462,-405,0.555542,1.27124,-0.0028268,0.000415656,-0.00520834,0.00424926,-0.0066604,-0.936283,0.00634976,0.043737,762,1429,0.555556,-1.27119
-455,-405,0.731812,1.19849,-0.00443348,0.00254228,-0.00711669,0.00697984,-0.00887104,-1.01325,0.0091732,0.0450686,769,1429,0.731819,-1.19849
-448,-405,0.794189,1.12231,0,0,0,0,0,0,0,-1,776,1429,0.794185,-1.12236
-441,-405,0.246277,1.18689,0,0,0,0,0,0,0,-1,783,1429,0.246295,-1.18692
-434,-405,-0.319458,0.487671,0,0,0,0,0,0,0,-1,790,1429,-0.31943,-0.487672
-427,-405,-0.0985718,0.49353,-0.0154699,0.017021,-0.0165782,0.0239866,-0.0224355,-1.17303,0.0268068,0.0419443,797,1429,-0.0985555,-0.49355
-420,-405,-0.310059,0.484375,-0.0181,0.0217575,-0.0199435,0.0300227,-0.0263652,-1.17791,0.0325784,0.0426679,804,1429,-0.310038,-0.484331
-413,-405,-0.612183,0.192017,-0.0190886,0.0266815,-0.0241115,0.0370393,-0.0294464,-1.16505,0.0384689,0.0442917,811,1429,-0.612181,-0.191957
-406,-405,-0.533936,-0.215454,-0.01643,0.0307865,-0.0292255,0.0447479,-0.0303915,-1.12514,0.0436449,0.0469039,818,1429,-0.533948,0.215411
-399,-405,0,0,0,0,0,0,0,0,0,-1,825,1429,0,0
-392,-405,0,0,0,0,0,0,0,0,0,-1,832,1429,0,0
-385,-405,0,0,0,0,0,0,0,0,0,-1,839,1429,0,0
-378,-405,0,0,0,0,0,0,0,0,0,-1,846,1429,0,0
-371,-405,0,0,0,0,0,0,0,0,0,-1,853,1429,0,0
-364,-405,0,0,0,0,0,0,0,0,0,-1,860,1429,0,0
-357,-405,0,0,0,0,0,0,0,0,0,-1,867,1429,0,0
-350,-405,0,0,0,0,0,0,0,0,0,-1,874,1429,0,0
-343,-405,0,0,0,0,0,0,0,0,0,-1,881,1429,0,0
-336,-405,0,0,0,0,0,0,0,0,0,-1,888,1429,0,0
-329,-405,0,0,0,0,0,0,0,0,0,-1,895,1429,0,0
-322,-405,0,0,0,0,0,0,0,0,0,-1,902,1429,0,0
-315,-405,0,0,0,0,0,0,0,0,0,-1,909,1429,0,0
-308,-405,0,0,0,0,0,0,0,0,0,-1,916,1429,0,0
-301,-405,0,0,0,0,0,0,0,0,0,-1,923,1429,0,0
-294,-405,0,0,0,0,0,0,0,0,0,-1,930,1429,0,0
-287,-405,0,0,0,0,0,0,0,0,0,-1,937,1429,0,0
-280,-405,0,0,0,0,0,0,0,0,0,-1,944,1429,0,0
-273,-405,0,0,0,0,0,0,0,0,0,-1,951,1429,0,0
-266,-405,0,0,0,0,0,0,0,0,0,-1,958,1429,0,0
-259,-405,0,0,0,0,0,0,0,0,0,-1,965,1429,0,0
-252,-405,0,0,0,0,0,0,0,0,0,-1,972,1429,0,0
-245,-405,0,0,0,0,0,0,0,0,0,-1,979,1429,0,0
-238,-405,0,0,0,0,0,0,0,0,0,-1,986,1429,0,0
-231,-405,0,0,0,0,0,0,0,0,0,-1,993,1429,0,0
-224,-405,0,0,0,0,0,0,0,0,0,-1,1000,1429,0,0
-217,-405,0,0,0,0,0,0,0,0,0,-1,1007,1429,0,0
-210,-405,0,0,0,0,0,0,0,0,0,-1,1014,1429,0,0
-203,-405,0,0,0,0,0,0,0,0,0,-1,1021,1429,0,0
-196,-405,0,0,0,0,0,0,0,0,0,-1,1028,1429,0,0
-189,-405,0,0,0,0,0,0,0,0,0,-1,1035,1429,0,0
-182,-405,0,0,0,0,0,0,0,0,0,-1,1042,1429,0,0
-175,-405,0,0,0,0,0,0,0,0,0,-1,1049,1429,0,0
-168,-405,0,0,0,0,0,0,0,0,0,-1,1056,1429,0,0
-161,-405,0,0,0,0,0,0,0,0,0,-1,1063,1429,0,0
-154,-405,0,0,0,0,0,0,0,0,0,-1,1070,1429,0,0
-147,-405,0,0,0,0,0,0,0,0,0,-1,1077,1429,0,0
-140,-405,0,0,0,0,0,0,0,0,0,-1,1084,1429,0,0
-133,-405,0,0,0,0,0,0,0,0,0,-1,1091,1429,0,0
-126,-405,0,0,0,0,0,0,0,0,0,-1,1098,1429,0,0
-119,-405,0,0,0,0,0,0,0,0,0,-1,1105,1429,0,0
-112,-405,0,0,0,0,0,0,0,0,0,-1,1112,1429,0,0
-105,-405,0,0,0,0,0,0,0,0,0,-1,1119,1429,0,0
-98,-405,0,0,0,0,0,0,0,0,0,-1,1126,1429,0,0
-91,-405,0,0,0,0,0,0,0,0,0,-1,1133,1429,0,0
-84,-405,0,0,0,0,0,0,0,0,0,-1,1140,1429,0,0
-77,-405,0,0,0,0,0,0,0,0,0,-1,1147,1429,0,0
-70,-405,0,0,0,0,0,0,0,0,0,-1,1154,1429,0,0
-63,-405,0,0,0,0,0,0,0,0,0,-1,1161,1429,0,0
-56,-405,0,0,0,0,0,0,0,0,0,-1,1168,1429,0,0
-49,-405,0,0,0,0,0,0,0,0,0,-1,1175,1429,0,0
-42,-405,0,0,0,0,0,0,0,0,0,-1,1182,1429,0,0
-35,-405,0,0,0,0,0,0,0,0,0,-1,1189,1429,0,0
-28,-405,0,0,0,0,0,0,0,0,0,-1,1196,1429,0,0
-21,-405,0,0,0,0,0,0,0,0,0,-1,1203,1429,0,0
-14,-405,0,0,0,0,0,0,0,0,0,-1,1210,1429,0,0
-7,-405,0,0,0,0,0,0,0,0,0,-1,1217,1429,0,0
0,-405,0,0,0,0,0,0,0,0,0,-1,1224,1429,0,0
7,-405,0,0,0,0,0,0,0,0,0,-1,1231,1429,0,0
14,-405,0,0,0,0,0,0,0,0,0,-1,1238,1429,0,0
21,-405,0,0,0,0,0,0,0,0,0,-1,1245,1429,0,0
28,-405,0,0,0,0,0,0,0,0,0,-1,1252,1429,0,0
35,-405,0,0,0,0,0,0,0,0,0,-1,1259,1429,0,0
42,-405,0,0,0,0,0,0,0,0,0,-1,1266,1429,0,0
49,-405,0,0,0,0,0,0,0,0,0,-1,1273,1429,0,0
56,-405,0,0,0,0,0,0,0,0,0,-1,1280,1429,0,0
63,-405,0,0,0,0,0,0,0,0,0,-1,1287,1429,0,0
70,-405,0,0,0,0,0,0,0,0,0,-1,1294,1429,0,0
77,-405,0,0,0,0,0,0,0,0,0,-1,1301,1429,0,0
84,-405,0,0,0,0,0,0,0,0,0,-1,1308,1429,0,0
91,-405,0,0,0,0,0,0,0,0,0,-1,1315,1429,0,0
98,-405,0,0,0,0,0,0,0,0,0,-1,1322,1429,0,0
105,-405,0,0,0,0,0,0,0,0,0,-1,1329,1429,0,0
112,-405,0,0,0,0,0,0,0,0,0,-1,1336,1429,0,0
119,-405,0,0,0,0,0,0,0,0,0,-1,1343,1429,0,0
126,-405,0,0,0,0,0,0,0,0,0,-1,1350,1429,0,0
133,-405,0,0,0,0,0,0,0,0,0,-1,1357,1429,0,0
140,-405,0,0,0,0,0,0,0,0,0,-1,1364,1429,0,0
147,-405,0,0,0,0,0,0,0,0,0,-1,1371,1429,0,0
154,-405,0,0,0,0,0,0,0,0,0,-1,1378,1429,0,0
161,-405,0,0,0,0,0,0,0,0,0,-1,1385,1429,0,0
168,-405,0,0,0,0,0,0,0,0,0,-1,1392,1429,0,0
175,-405,0,0,0,0,0,0,0,0,0,-1,1399,1429,0,0
182,-405,0,0,0,0,0,0,0,0,0,-1,1406,1429,0,0
189,-405,0,0,0,0,0,0,0,0,0,-1,1413,1429,0,0
196,-405,0,0,0,0,0,0,0,0,0,-1,1420,1429,0,0
203,-405,0,0,0,0,0,0,0,0,0,-1,1427,1429,0,0
210,-405,0,0,0,0,0,0,0,0,0,-1,1434,1429,0,0
217,-405,0,0,0,0,0,0,0,0,0,-1,1441,1429,0,0
224,-405,0,0,0,0,0,0,0,0,0,-1,1448,1429,0,0
231,-405,0,0,0,0,0,0,0,0,0,-1,1455,1429,0,0
238,-405,0,0,0,0,0,0,0,0,0,-1,1462,1429,0,0
245,-405,0,0,0,0,0,0,0,0,0,-1,1469,1429,0,0
252,-405,0,0,0,0,0,0,0,0,0,-1,1476,1429,0,0
259,-405,0,0,0,0,0,0,0,0,0,-1,1483,1429,0,0
266,-405,0,0,0,0,0,0,0,0,0,-1,1490,1429,0,0
273,-405,0,0,0,0,0,0,0,0,0,-1,1497,1429,0,0
280,-405,0,0,0,0,0,0,0,0,0,-1,1504,1429,0,0
287,-405,0,0,0,0,0,0,0,0,0,-1,1511,1429,0,0
294,-405,0,0,0,0,0,0,0,0,0,-1,1518,1429,0,0
301,-405,0,0,0,0,0,0,0,0,0,-1,1525,1429,0,0
308,-405,0,0,0,0,0,0,0,0,0,-1,1532,1429,0,0
315,-405,0,0,0,0,0,0,0,0,0,-1,1539,1429,0,0
322,-405,0,0,0,0,0,0,0,0,0,-1,1546,1429,0,0
329,-405,0,0,0,0,0,0,0,0,0,-1,1553,1429,0,0
336,-405,0,0,0,0,0,0,0,0,0,-1,1560,1429,0,0
343,-405,0,0,0,0,0,0,0,0,0,-1,1567,1429,0,0
350,-405,0,0,0,0,0,0,0,0,0,-1,1574,1429,0,0
357,-405,0,0,0,0,0,0,0,0,0,-1,1581,1429,0,0
364,-405,0,0,0,0,0,0,0,0,0,-1,1588,1429,0,0
371,-405,0,0,0,0,0,0,0,0,0,-1,1595,1429,0,0
378,-405,0,0,0,0,0,0,0,0,0,-1,1602,1429,0,0
385,-405,0,0,0,0,0,0,0,0,0,-1,1609,1429,0,0
392,-405,0,0,0,0,0,0,0,0,0,-1,1616,1429,0,0
399,-405,0,0,0,0,0,0,0,0,0,-1,1623,1429,0,0
406,-405,0,0,0,0,0,0,0,0,0,-1,1630,1429,0,0
413,-405,0,0,0,0,0,0,0,0,0,-1,1637,1429,0,0
420,-405,0,0,0,0,0,0,0,0,0,-1,1644,1429,0,0
427,-405,0,0,0,0,0,0,0,0,0,-1,1651,1429,0,0
434,-405,0,0,0,0,0,0,0,0,0,-1,1658,1429,0,0
441,-405,0,0,0,0,0,0,0,0,0,-1,1665,1429,0,0
448,-405,0,0,0,0,0,0,0,0,0,-1,1672,1429,0,0
455,-405,0,0,0,0,0,0,0,0,0,-1,1679,1429,0,0
462,-405,0,0,0,0,0,0,0,0,0,-1,1686,1429,0,0
469,-405,0,0,0,0,0,0,0,0,0,-1,1693,1429,0,0
476,-405,0,0,0,0,0,0,0,0,0,-1,1700,1429,0,0
483,-405,0,0,0,0,0,0,0,0,0,-1,1707,1429,0,0
490,-405,0,0,0,0,0,0,0,0,0,-1,1714,1429,0,0
497,-405,0,0,0,0,0,0,0,0,0,-1,1721,1429,0,0
504,-405,0,0,0,0,0,0,0,0,0,-1,1728,1429,0,0
511,-405,0,0,0,0,0,0,0,0,0,-1,1735,1429,0,0
518,-405,0,0,0,0,0,0,0,0,0,-1,1742,1429,0,0
525,-405,3.95374,0.202393,0.0301253,0.00267751,-0.00449688,0.0308432,0.00195955,-0.158322,0.0199411,0.0431809,1749,1429,3.95377,-0.202341
532,-405,4.11658,0.2146,0.0403403,0.00596769,-3.93699e-05,0.0403404,0.00596764,-0.00114538,0.0251416,0.0449165,1756,1429,4.11656,-0.21457
539,-405,3.88245,0.328125,0.0479983,0.0105943,0.00331502,0.0482899,0.0103028,0.0877164,0.0293677,0.0479037,1763,1429,3.88242,-0.328174
546,-405,3.73779,0.442749,0.0522426,0.0154996,0.00511454,0.0529413,0.014801,0.13576,0.0315402,0.0466733,1770,1429,3.73784,-0.442716
553,-405,8.11963,5.2356,0,0,0,0,0,0,0,-1,1777,1429,8.11967,-5.23558
560,-405,7.03784,4.22681,0.0457953,0.0184091,0.00619387,0.0471311,0.0170734,0.212397,0.0275532,0.0430693,1784,1429,7.0378,-4.22677
567,-405,6.01074,3.17932,0.0392793,0.0180765,0.0064498,0.0410872,0.0162687,0.273283,0.0238923,0.0411137,1791,1429,6.01079,-3.17931
574,-405,5.37183,2.22058,0.0314875,0.0163217,0.00584848,0.0334809,0.0143283,0.328488,0.019397,0.0423518,1798,1429,5.37186,-2.22055
581,-405,4.67224,1.86536,0,0,0,0,0,0,0,-1,1805,1429,4.6722,-1.86541
588,-405,4.22559,1.84644,0.0176441,0.0125286,0.00471691,0.0204521,0.00972063,0.536962,0.0118129,0.0486578,1812,1429,4.22563,-1.84647
595,-405,3.62891,1.62061,0.0116905,0.0104288,0.00341609,0.0145335,0.00758581,0.694097,0.00839362,0.0453612,1819,1429,3.62886,-1.62059
602,-405,3.2627,1.44006,0.00623915,0.00792594,0.00209334,0.00933939,0.00482569,0.976898,0.0053931,0.0327474,1826,1429,3.2627,-1.44005
609,-405,3.17334,1.27856,0.00112125,0.00549925,0.00102552,0.00572756,0.000892934,1.35174,0.00355827,0.0154471,1833,1429,3.17336,-1.27862
616,-405,3.17224,1.22656,-0.00407516,0.000546952,0.00243248,0.00159118,-0.00511939,1.1653,0.00404891,0.00955752,1840,1429,3.17219,-1.22661
623,-405,3.16577,1.17297,-0.0065452,0.00010524,0.000634487,0.000165233,-0.00660519,1.47652,0.00445956,0.00992244,1847,1429,3.16582,-1.17293
630,-405,3.1676,1.12866,-0.0040687,-4.0995e-05,0.000182463,-3.2746e-05,-0.00407695,1.52562,0.00270712,0.0107248,1854,1429,3.16759,-1.12869
637,-405,3.15381,1.11328,-0.00291582,0.000194012,0.000255976,0.000214941,-0.00293675,1.48922,0.00203327,0.0108818,1861,1429,3.15378,-1.11325
644,-405,3.11499,1.05139,-0.00166691,0.000740403,0.000476292,0.000831213,-0.00175772,1.3824,0.00152629,0.0279848,1868,1429,3.11494,-1.05139
651,-405,3.15869,1.0094,-0.000411336,0.00151865,0.000645928,0.00171488,-0.000607565,1.27586,0.00139074,0.0299737,1875,1429,3.15863,-1.00936
658,-405,3.18579,0.998169,0.000774646,0.00219922,0.000585165,0.00240876,0.000565102,1.22693,0.00145454,0.0203307,1882,1429,3.18574,-0.998226
665,-405,3.15381,0.98584,0.00223167,0.00268525,0.000142768,0.00272645,0.00219048,1.28988,0.00166793,0.017527,1889,1429,3.15379,-0.985825
672,-405,3.13013,0.913086,0.00379569,0.00364929,-0.000440262,0.00416879,0.00327618,-0.703016,0.0025346,0.0213866,1896,1429,3.13013,-0.913026
679,-405,3.13318,0.86377,0.00589208,0.00461249,-0.00144308,0.00683084,0.00367374,-0.576741,0.00394754,0.0195352,1903,1429,3.13323,-0.863826
686,-405,3.14026,0.836426,0.00878274,0.00560384,-0.00300916,0.0105964,0.00379015,-0.542421,0.00619991,0.0296447,1910,1429,3.14032,-0.836487
693,-405,3.05103,0.831909,0.0125409,0.00684167,-0.00532925,0.0157346,0.00364801,-0.539883,0.00950987,0.0419953,1917,1429,3.05103,-0.831863
700,-405,3.26599,0.626099,0.0172584,0.00847858,-0.00856852,0.0224961,0.00324088,-0.548667,0.0140423,0.0466128,1924,1429,3.266,-0.626046
707,-405,3.32751,0.674316,0.0230056,0.0107093,-0.012884,0.0311333,0.00258167,-0.56278,0.0199507,0.0472913,1931,1429,3.32753,-0.674291
714,-405,3.50549,0.542725,0.0294953,0.0138532,-0.0184289,0.0416941,0.00165436,-0.584722,0.0272613,0.0468523,1938,1429,3.50553,-0.542723
721,-405,3.66846,0.319214,0.0364346,0.0186295,-0.0253253,0.0543765,0.00068761,-0.61638,0.036024,0.0465452,1945,1429,3.66842,-0.31918
728,-405,0,0,0,0,0,0,0,0,0,-1,1952,1429,0,0
735,-405,0,0,0,0,0,0,0,0,0,-1,1959,1429,0,0
742,-405,0,0,0,0,0,0,0,0,0,-1,1966,1429,0,0
749,-405,0,0,0,0,0,0,0,0,0,-1,1973,1429,0,0
756,-405,0,0,0,0,0,0,0,0,0,-1,1980,1429,0,0
763,-405,0,0,0,0,0,0,0,0,0,-1,1987,1429,0,0
770,-405,0,0,0,0,0,0,0,0,0,-1,1994,1429,0,0
777,-405,0,0,0,0,0,0,0,0,0,-1,2001,1429,0,0
784,-405,0,0,0,0,0,0,0,0,0,-1,2008,1429,0,0
791,-405,0,0,0,0,0,0,0,0,0,-1,2015,1429,0,0
798,-405,0,0,0,0,0,0,0,0,0,-1,2022,1429,0,0
805,-405,0,0,0,0,0,0,0,0,0,-1,2029,1429,0,0
812,-405,0,0,0,0,0,0,0,0,0,-1,2036,1429,0,0
-700,-412,0,0,0,0,0,0,0,0,0,-1,524,1436,0,0
-693,-412,0,0,0,0,0,0,0,0,0,-1,531,1436,0,0
-686,-412,0,0,0,0,0,0,0,0,0,-1,538,1436,0,0
-679,-412,0,0,0,0,0,0,0,0,0,-1,545,1436,0,0
-672,-412,0,0,0,0,0,0,0,0,0,-1,552,1436,0,0
-665,-412,0,0,0,0,0,0,0,0,0,-1,559,1436,0,0
-658,-412,0,0,0,0,0,0,0,0,0,-1,566,1436,0,0
-651,-412,0,0,0,0,0,0,0,0,0,-1,573,1436,0,0
-644,-412,0,0,0,0,0,0,0,0,0,-1,580,1436,0,0
-637,-412,0,0,0,0,0,0,0,0,0,-1,587,1436,0,0
-630,-412,0,0,0,0,0,0,0,0,0,-1,594,1436,0,0
-623,-412,0,0,0,0,0,0,0,0,0,-1,601,1436,0,0
-616,-412,0,0,0,0,0,0,0,0,0,-1,608,1436,0,0
-609,-412,0,0,0,0,0,0,0,0,0,-1,615,1436,0,0
-602,-412,-0.682312,1.11414,0.0492005,0.00578019,-0.0168438,0.0549684,1.22618e-05,-0.32992,0.0366415,0.0471138,622,1436,-0.682295,-1.11418
-595,-412,-0.239441,0.823608,0.0373561,0.00992923,-0.0105128,0.040922,0.00636327,-0.327023,0.0254271,0.0498839,629,1436,-0.239465,-0.823607
-588,-412,-0.03125,0.235229,0.0284436,0.0122459,-0.00526236,0.0300031,0.0106864,-0.288106,0.0175595,0.0499633,636,1436,-0.031231,-0.235247
-581,-412,-0.0780029,-0.0233154,0.0218046,0.0131441,-0.00117097,0.0219602,0.0129886,-0.13205,0.0127492,0.0471951,643,1436,-0.0780106,0.0233566
-574,-412,-0.505615,0.0429688,0.0169117,0.012998,0.00174229,0.017575,0.0123348,0.363726,0.0104188,0.0489256,650,1436,-0.505592,-0.0430126
-567,-412,-0.40979,0.100342,0.0132446,0.0120145,0.0035484,0.0162309,0.00902823,0.699579,0.00939064,0.0458609,657,1436,-0.409788,-0.100285
-560,-412,-0.0673828,0.408325,0.0105432,0.0106876,0.00449041,0.0151064,0.00612441,0.793436,0.00877355,0.0421091,664,1436,-0.0674065,-0.408354
-553,-412,0.393677,0.738037,0.00807894,0.00934877,0.00473718,0.0134934,0.00393432,0.852015,0.00801285,0.0383518,671,1436,0.393677,-0.738079
-546,-412,0.54718,0.90564,0.00609849,0.00804801,0.00471081,0.0118839,0.00226264,0.887419,0.00728642,0.0223501,678,1436,0.547156,-0.905678
-539,-412,0.5354,0.936523,0.00464092,0.0066087,0.00458693,0.0103161,0.000933543,0.891046,0.00658829,0.0115316,685,1436,0.535411,-0.936476
-532,-412,0.525696,0.99353,0.00378292,0.00450971,0.00390822,0.00807139,0.000221236,0.831756,0.00530872,0.0137719,692,1436,0.525716,-0.993523
-525,-412,0.525391,1.06335,0.00324137,0.00289189,0.00274646,0.00581865,0.000314615,0.75363,0.00377859,0.0147136,699,1436,0.525414,-1.06336
-518,-412,0.572144,1.10449,0.00275508,0.00166585,0.00167946,0.00397602,0.000444909,0.628608,0.00251552,0.0151887,706,1436,0.572153,-1.10454
-511,-412,0.549988,1.12756,0.0020361,0.000714,0.000596524,0.00226546,0.000484641,0.367067,0.00137748,0.0186804,713,1436,0.549991,-1.12756
-504,-412,0.532227,1.13965,0.00134779,-0.000168127,-0.000269541,0.00139429,-0.000214627,-0.170834,0.00100871,0.0191644,720,1436,0.532235,-1.13963
-497,-412,0.542969,1.18896,0.000772605,-0.0010487,-0.000746867,0.0010397,-0.0013158,-0.343451,0.00136306,0.0146642,727,1436,0.542944,-1.189
-490,-412,0.554871,1.21985,0.000740242,-0.00158031,-0.00139174,0.00139192,-0.00223198,-0.437924,0.00211092,0.012031,734,1436,0.554888,-1.21981
-483,-412,0.553589,1.23132,0.000682609,-0.00172027,-0.00198833,0.00180429,-0.00284195,-0.51363,0.00270472,0.00814905,741,1436,0.553567,-1.23133
-476,-412,0.549683,1.2959,-0.000247593,-0.00157165,-0.00268971,0.00186036,-0.00367961,-0.66473,0.00325548,0.0122633,748,1436,0.549676,-1.29589
-469,-412,0.53656,1.32983,-0.00200594,-0.00171113,-0.00315897,0.00130387,-0.00502094,-0.808712,0.00385611,0.0210195,755,1436,0.536557,-1.32986
-462,-412,0.578735,1.2699,-0.00390345,0.0006625,-0.00448328,0.00341061,-0.00665156,-1.0209,0.00590899,0.0342848,762,1436,0.578751,-1.26985
-455,-412,0.673096,1.11902,-0.00573966,0.00265085,-0.00632781,0.00604778,-0.00913659,-1.07812,0.00882695,0.0427489,769,1436,0.673099,-1.11903
-448,-412,0.544006,1.29492,-0.0083122,0.00487699,-0.00813354,0.00875346,-0.0121887,-1.12604,0.012145,0.0427744,776,1436,0.543998,-1.2949
-441,-412,0.182617,1.6438,0,0,0,0,0,0,0,-1,783,1436,0.182595,-1.64375
-434,-412,-0.143555,1.88037,0,0,0,0,0,0,0,-1,790,1436,-0.14353,-1.88041
-427,-412,-0.254639,1.31482,0,0,0,0,0,0,0,-1,797,1436,-0.254663,-1.31482
-420,-412,-0.432983,0.838989,0,0,0,0,0,0,0,-1,804,1436,-0.433003,-0.839025
-413,-412,-0.589172,0.350952,-0.0202819,0.0261239,-0.0250128,0.0370387,-0.0311967,-1.15934,0.0394438,0.0462815,811,1436,-0.589182,-0.351004
-406,-412,-0.608093,-0.151245,-0.0179338,0.0310372,-0.0310812,0.0461191,-0.0330157,-1.11902,0.0458968,0.0466928,818,1436,-0.608083,0.151274
-399,-412,-0.465027,-0.609619,0,0,0,0,0,0,0,-1,825,1436,-0.465047,0.609642
-392,-412,0,0,0,0,0,0,0,0,0,-1,832,1436,0,0
-385,-412,0,0,0,0,0,0,0,0,0,-1,839,1436,0,0
-378,-412,0,0,0,0,0,0,0,0,0,-1,846,1436,0,0
-371,-412,0,0,0,0,0,0,0,0,0,-1,853,1436,0,0
-364,-412,0,0,0,0,0,0,0,0,0,-1,860,1436,0,0
-357,-412,0,0,0,0,0,0,0,0,0,-1,867,1436,0,0
-350,-412,0,0,0,0,0,0,0,0,0,-1,874,1436,0,0
-343,-412,0,0,0,0,0,0,0,0,0,-1,881,1436,0,0
-336,-412,0,0,0,0,0,0,0,0,0,-1,888,1436,0,0
-329,-412,0,0,0,0,0,0,0,0,0,-1,895,1436,0,0
-322,-412,0,0,0,0,0,0,0,0,0,-1,902,1436,0,0
-315,-412,0,0,0,0,0,0,0,0,0,-1,909,1436,0,0
-308,-412,0,0,0,0,0,0,0,0,0,-1,916,1436,0,0
-301,-412,0,0,0,0,0,0,0,0,0,-1,923,1436,0,0
-294,-412,0,0,0,0,0,0,0,0,0,-1,930,1436,0,0
-287,-412,0,0,0,0,0,0,0,0,0,-1,937,1436,0,0
-280,-412,0,0,0,0,0,0,0,0,0,-1,944,1436,0,0
-273,-412,0,0,0,0,0,0,0,0,0,-1,951,1436,0,0
-266,-412,0,0,0,0,0,0,0,0,0,-1,958,1436,0,0
-259,-412,0,0,0,0,0,0,0,0,0,-1,965,1436,0,0
-252,-412,0,0,0,0,0,0,0,0,0,-1,972,1436,0,0
-245,-412,0,0,0,0,0,0,0,0,0,-1,979,1436,0,0
-238,-412,0,0,0,0,0,0,0,0,0,-1,986,1436,0,0
-231,-412,0,0,0,0,0,0,0,0,0,-1,993,1436,0,0
-224,-412,0,0,0,0,0,0,0,0,0,-1,1000,1436,0,0
-217,-412,0,0,0,0,0,0,0,0,0,-1,1007,1436,0,0
-210,-412,0,0,0,0,0,0,0,0,0,-1,1014,1436,0,0
-203,-412,0,0,0,0,0,0,0,0,0,-1,1021,1436,0,0
-196,-412,0,0,0,0,0,0,0,0,0,-1,1028,1436,0,0
-189,-412,0,0,0,0,0,0,0,0,0,-1,1035,1436,0,0
-182,-412,0,0,0,0,0,0,0,0,0,-1,1042,1436,0,0
-175,-412,0,0,0,0,0,0,0,0,0,-1,1049,1436,0,0
-168,-412,0,0,0,0,0,0,0,0,0,-1,1056,1436,0,0
-161,-412,0,0,0,0,0,0,0,0,0,-1,1063,1436,0,0
-154,-412,0,0,0,0,0,0,0,0,0,-1,1070,1436,0,0
-147,-412,0,0,0,0,0,0,0,0,0,-1,1077,1436,0,0
-140,-412,0,0,0,0,0,0,0,0,0,-1,1084,1436,0,0
-133,-412,0,0,0,0,0,0,0,0,0,-1,1091,1436,0,0
-126,-412,0,0,0,0,0,0,0,0,0,-1,1098,1436,0,0
-119,-412,0,0,0,0,0,0,0,0,0,-1,1105,1436,0,0
-112,-412,0,0,0,0,0,0,0,0,0,-1,1112,1436,0,0
-105,-412,0,0,0,0,0,0,0,0,0,-1,1119,1436,0,0
-98,-412,0,0,0,0,0,0,0,0,0,-1,1126,1436,0,0
-91,-412,0,0,0,0,0,0,0,0,0,-1,1133,1436,0,0
-84,-412,0,0,0,0,0,0,0,0,0,-1,1140,1436,0,0
-77,-412,0,0,0,0,0,0,0,0,0,-1,1147,1436,0,0
-70,-412,0,0,0,0,0,0,0,0,0,-1,1154,1436,0,0
-63,-412,0,0,0,0,0,0,0,0,0,-1,1161,1436,0,0
-56,-412,0,0,0,0,0,0,0,0,0,-1,1168,1436,0,0
-49,-412,0,0,0,0,0,0,0,0,0,-1,1175,1436,0,0
-42,-412,0,0,0,0,0,0,0,0,0,-1,1182,1436,0,0
-35,-412,0,0,0,0,0,0,0,0,0,-1,1189,1436,0,0
-28,-412,0,0,0,0,0,0,0,0,0,-1,1196,1436,0,0
-21,-412,0,0,0,0,0,0,0,0,0,-1,1203,1436,0,0
-14,-412,0,0,0,0,0,0,0,0,0,-1,1210,1436,0,0
-7,-412,0,0,0,0,0,0,0,0,0,-1,1217,1436,0,0
0,-412,0,0,0,0,0,0,0,0,0,-1,1224,1436,0,0
7,-412,0,0,0,0,0,0,0,0,0,-1,1231,1436,0,0
14,-412,0,0,0,0,0,0,0,0,0,-1,1238,1436,0,0
21,-412,0,0,0,0,0,0,0,0,0,-1,1245,1436,0,0
28,-412,0,0,0,0,0,0,0,0,0,-1,1252,1436,0,0
35,-412,0,0,0,0,0,0,0,0,0,-1,1259,1436,0,0
42,-412,0,0,0,0,0,0,0,0,0,-1,1266,1436,0,0
49,-412,0,0,0,0,0,0,0,0,0,-1,1273,1436,0,0
56,-412,0,0,0,0,0,0,0,0,0,-1,1280,1436,0,0
63,-412,0,0,0,0,0,0,0,0,0,-1,1287,1436,0,0
70,-412,0,0,0,0,0,0,0,0,0,-1,1294,1436,0,0
77,-412,0,0,0,0,0,0,0,0,0,-1,1301,1436,0,0
84,-412,0,0,0,0,0,0,0,0,0,-1,1308,1436,0,0
91,-412,0,0,0,0,0,0,0,0,0,-1,1315,1436,0,0
98,-412,0,0,0,0,0,0,0,0,0,-1,1322,1436,0,0
105,-412,0,0,0,0,0,0,0,0,0,-1,1329,1436,0,0
112,-412,0,0,0,0,0,0,0,0,0,-1,1336,1436,0,0
119,-412,0,0,0,0,0,0,0,0,0,-1,1343,1436,0,0
126,-412,0,0,0,0,0,0,0,0,0,-1,1350,1436,0,0
133,-412,0,0,0,0,0,0,0,0,0,-1,1357,1436,0,0
140,-412,0,0,0,0,0,0,0,0,0,-1,1364,1436,0,0
147,-412,0,0,0,0,0,0,0,0,0,-1,1371,1436,0,0
154,-412,0,0,0,0,0,0,0,0,0,-1,1378,1436,0,0
161,-412,0,0,0,0,0,0,0,0,0,-1,1385,1436,0,0
168,-412,0,0,0,0,0,0,0,0,0,-1,1392,1436,0,0
175,-412,0,0,0,0,0,0,0,0,0,-1,1399,1436,0,0
182,-412,0,0,0,0,0,0,0,0,0,-1,1406,1436,0,0
189,-412,0,0,0,0,0,0,0,0,0,-1,1413,1436,0,0
196,-412,0,0,0,0,0,0,0,0,0,-1,1420,1436,0,0
203,-412,0,0,0,0,0,0,0,0,0,-1,1427,1436,0,0
210,-412,0,0,0,0,0,0,0,0,0,-1,1434,1436,0,0
217,-412,0,0,0,0,0,0,0,0,0,-1,1441,1436,0,0
224,-412,0,0,0,0,0,0,0,0,0,-1,1448,1436,0,0
231,-412,0,0,0,0,0,0,0,0,0,-1,1455,1436,0,0
238,-412,0,0,0,0,0,0,0,0,0,-1,1462,1436,0,0
245,-412,0,0,0,0,0,0,0,0,0,-1,1469,1436,0,0
252,-412,0,0,0,0,0,0,0,0,0,-1,1476,1436,0,0
259,-412,0,0,0,0,0,0,0,0,0,-1,1483,1436,0,0
266,-412,0,0,0,0,0,0,0,0,0,-1,1490,1436,0,0
273,-412,0,0,0,0,0,0,0,0,0,-1,1497,1436,0,0
280,-412,0,0,0,0,0,0,0,0,0,-1,1504,1436,0,0
287,-412,0,0,0,0,0,0,0,0,0,-1,1511,1436,0,0
294,-412,0,0,0,0,0,0,0,0,0,-1,1518,1436,0,0
301,-412,0,0,0,0,0,0,0,0,0,-1,1525,1436,0,0
308,-412,0,0,0,0,0,0,0,0,0,-1,1532,1436,0,0
315,-412,0,0,0,0,0,0,0,0,0,-1,1539,1436,0,0
322,-412,0,0,0,0,0,0,0,0,0,-1,1546,1436,0,0
329,-412,0,0,0,0,0,0,0,0,0,-1,1553,1436,0,0
336,-412,0,0,0,0,0,0,0,0,0,-1,1560,1436,0,0
343,-412,0,0,0,0,0,0,0,0,0,-1,1567,1436,0,0
350,-412,0,0,0,0,0,0,0,0,0,-1,1574,1436,0,0
357,-412,0,0,0,0,0,0,0,0,0,-1,1581,1436,0,0
364,-412,0,0,0,0,0,0,0,0,0,-1,1588,1436,0,0
371,-412,0,0,0,0,0,0,0,0,0,-1,1595,1436,0,0
378,-412,0,0,0,0,0,0,0,0,0,-1,1602,1436,0,0
385,-412,0,0,0,0,0,0,0,0,0,-1,1609,1436,0,0
392,-412,0,0,0,0,0,0,0,0,0,-1,1616,1436,0,0
399,-412,0,0,0,0,0,0,0,0,0,-1,1623,1436,0,0
406,-412,0,0,0,0,0,0,0,0,0,-1,1630,1436,0,0
413,-412,0,0,0,0,0,0,0,0,0,-1,1637,1436,0,0
420,-412,0,0,0,0,0,0,0,0,0,-1,1644,1436,0,0
427,-412,0,0,0,0,0,0,0,0,0,-1,1651,1436,0,0
434,-412,0,0,0,0,0,0,0,0,0,-1,1658,1436,0,0
441,-412,0,0,0,0,0,0,0,0,0,-1,1665,1436,0,0
448,-412,0,0,0,0,0,0,0,0,0,-1,1672,1436,0,0
455,-412,0,0,0,0,0,0,0,0,0,-1,1679,1436,0,0
462,-412,0,0,0,0,0,0,0,0,0,-1,1686,1436,0,0
469,-412,0,0,0,0,0,0,0,0,0,-1,1693,1436,0,0
476,-412,0,0,0,0,0,0,0,0,0,-1,1700,1436,0,0
483,-412,0,0,0,0,0,0,0,0,0,-1,1707,1436,0,0
490,-412,0,0,0,0,0,0,0,0,0,-1,1714,1436,0,0
497,-412,0,0,0,0,0,0,0,0,0,-1,1721,1436,0,0
504,-412,0,0,0,0,0,0,0,0,0,-1,1728,1436,0,0
511,-412,0,0,0,0,0,0,0,0,0,-1,1735,1436,0,0
518,-412,2.76379,-0.257324,0,0,0,0,0,0,0,-1,1742,1436,2.76374,0.257338
525,-412,3.01013,-0.357422,0,0,0,0,0,0,0,-1,1749,1436,3.0101,0.357466
532,-412,2.90332,-0.77063,0,0,0,0,0,0,0,-1,1756,1436,2.90335,0.770599
539,-412,3.04028,-0.395996,0,0,0,0,0,0,0,-1,1763,1436,3.04032,0.395937
546,-412,3.3252,-0.0106201,0,0,0,0,0,0,0,-1,1770,1436,3.32521,0.010618
553,-412,3.31628,0.140137,0.0326554,0.0131431,0.0143257,0.0402316,0.0055669,0.486459,0.0251715,0.0476167,1777,1436,3.31631,-0.140108
560,-412,4.59753,2.05444,0.0299391,0.0147437,0.0137377,0.0380401,0.00664275,0.532805,0.0234614,0.0447571,1784,1436,4.59755,-2.05439
567,-412,4.45813,2.35291,0.0257505,0.0154973,0.0129447,0.0345468,0.00670099,0.596854,0.0211543,0.0459875,1791,1436,4.45818,-2.35285
574,-412,4.4541,2.04663,0.020366,0.0146142,0.0111894,0.0290432,0.005937,0.659611,0.0177179,0.0412909,1798,1436,4.45405,-2.04658
581,-412,4.17285,1.56494,0.0149569,0.013214,0.00990684,0.0240305,0.00414032,0.741528,0.0148341,0.0412085,1805,1436,4.17286,-1.56497
588,-412,4.18652,2.09839,0.0106147,0.0120811,0.00818781,0.0195685,0.00312732,0.830054,0.0121382,0.0450202,1812,1436,4.18651,-2.09841
595,-412,3.41882,1.62964,0.00647948,0.0103822,0.00606962,0.0148064,0.00205525,0.940928,0.00926219,0.0415988,1819,1436,3.41883,-1.62958
602,-412,3.16724,1.36328,0.00256534,0.00814574,0.00400992,0.0102407,0.000470392,1.08936,0.00667585,0.0217922,1826,1436,3.16718,-1.36327
609,-412,3.1333,1.25452,-0.00115768,0.00595258,0.0022976,0.0066304,-0.00183551,1.28392,0.00514248,0.00820353,1833,1436,3.1333,-1.25447
616,-412,3.13391,1.22546,-0.00479406,0.00142524,0.0026342,0.00239099,-0.00575981,1.21939,0.004838,0.00762722,1840,1436,3.13395,-1.22543
623,-412,3.13806,1.17798,-0.00628883,0.000881107,0.000889697,0.000989857,-0.00639758,1.44917,0.00463041,0.00925115,1847,1436,3.13803,-1.17794
630,-412,3.13977,1.13086,-0.00400732,0.000735597,0.000376032,0.000765225,-0.00403695,1.49217,0.00297931,0.0116442,1854,1436,3.13972,-1.13083
637,-412,3.12866,1.09241,-0.00291453,0.000884127,0.000340238,0.00091436,-0.00294477,1.48217,0.00232859,0.0134768,1861,1436,3.12867,-1.09243
644,-412,3.10876,1.06226,-0.00168915,0.00142817,0.000480342,0.00150051,-0.00176149,1.42133,0.00188532,0.0143751,1868,1436,3.1088,-1.06231
651,-412,3.13306,1.04553,-0.00039569,0.00227739,0.000652766,0.00242828,-0.000546578,1.34363,0.00182848,0.0247435,1875,1436,3.13302,-1.04553
658,-412,3.13953,0.994263,0.000869516,0.00310658,0.00061951,0.00326669,0.000709414,1.3179,0.00198406,0.0161132,1882,1436,3.1395,-0.994239
665,-412,3.10547,0.95105,0.00256911,0.003799,0.00021177,0.00383444,0.00253367,1.40497,0.00225164,0.0201508,1889,1436,3.10549,-0.951007
672,-412,3.10864,0.907471,0.0045679,0.00496831,-0.000341859,0.00516428,0.00437194,-1.0503,0.00321149,0.0231638,1896,1436,3.10866,-0.907498
679,-412,3.13098,0.854736,0.00728809,0.00611446,-0.00134391,0.00816771,0.00523484,-0.57955,0.00477765,0.0292074,1903,1436,3.13093,-0.854768
686,-412,2.92786,0.789551,0.0110067,0.00729248,-0.00298988,0.0126693,0.00562988,-0.507494,0.00732967,0.0462704,1910,1436,2.92782,-0.789582
693,-412,2.68262,0.721313,0,0,0,0,0,0,0,-1,1917,1436,2.68267,-0.721372
700,-412,3.13672,0.650879,0.0217909,0.0104116,-0.00904301,0.0267853,0.00541727,-0.504601,0.016353,0.0476643,1924,1436,3.13671,-0.650835
707,-412,3.33557,0.570923,0.0290252,0.0126651,-0.0138034,0.0368903,0.00480002,-0.517914,0.0231599,0.0469171,1931,1436,3.33561,-0.570928
714,-412,3.5824,0.126831,0.0371232,0.0157455,-0.019954,0.0490709,0.00379779,-0.539509,0.0315243,0.044483,1938,1436,3.58241,-0.126892
721,-412,0,0,0,0,0,0,0,0,0,-1,1945,1436,0,0
728,-412,0,0,0,0,0,0,0,0,0,-1,1952,1436,0,0
735,-412,0,0,0,0,0,0,0,0,0,-1,1959,1436,0,0
742,-412,0,0,0,0,0,0,0,0,0,-1,1966,1436,0,0
749,-412,0,0,0,0,0,0,0,0,0,-1,1973,1436,0,0
756,-412,0,0,0,0,0,0,0,0,0,-1,1980,1436,0,0
763,-412,0,0,0,0,0,0,0,0,0,-1,1987,1436,0,0
770,-412,0,0,0,0,0,0,0,0,0,-1,1994,1436,0,0
777,-412,0,0,0,0,0,0,0,0,0,-1,2001,1436,0,0
784,-412,0,0,0,0,0,0,0,0,0,-1,2008,1436,0,0
791,-412,0,0,0,0,0,0,0,0,0,-1,2015,1436,0,0
798,-412,0,0,0,0,0,0,0,0,0,-1,2022,1436,0,0
805,-412,0,0,0,0,0,0,0,0,0,-1,2029,1436,0,0
812,-412,0,0,0,0,0,0,0,0,0,-1,2036,1436,0,0
-700,-419,0,0,0,0,0,0,0,0,0,-1,524,1443,0,0
-693,-419,0,0,0,0,0,0,0,0,0,-1,531,1443,0,0
-686,-419,0,0,0,0,0,0,0,0,0,-1,538,1443,0,0
-679,-419,0,0,0,0,0,0,0,0,0,-1,545,1443,0,0
-672,-419,0,0,0,0,0,0,0,0,0,-1,552,1443,0,0
-665,-419,0,0,0,0,0,0,0,0,0,-1,559,1443,0,0
-658,-419,0,0,0,0,0,0,0,0,0,-1,566,1443,0,0
-651,-419,0,0,0,0,0,0,0,0,0,-1,573,1443,0,0
-644,-419,0,0,0,0,0,0,0,0,0,-1,580,1443,0,0
-637,-419,0,0,0,0,0,0,0,0,0,-1,587,1443,0,0
-630,-419,0,0,0,0,0,0,0,0,0,-1,594,1443,0,0
-623,-419,0,0,0,0,0,0,0,0,0,-1,601,1443,0,0
-616,-419,0,0,0,0,0,0,0,0,0,-1,608,1443,0,0
-609,-419,0,0,0,0,0,0,0,0,0,-1,615,1443,0,0
-602,-419,0,0,0,0,0,0,0,0,0,-1,622,1443,0,0
-595,-419,-0.053833,0.855713,0.0333326,0.0101092,-0.0123839,0.0386972,0.00474462,-0.408784,0.024371,0.0494251,629,1443,-0.0538251,-0.855771
-588,-419,0.0961914,-0.478394,0.0252848,0.012958,-0.0062201,0.0278779,0.0103649,-0.39499,0.0162707,0.0451669,636,1443,0.0961854,0.478333
-581,-419,-0.212463,-0.26001,0.0194467,0.0142353,-0.00150912,0.0198522,0.0138299,-0.26248,0.0117534,0.0464905,643,1443,-0.212478,0.260023
-574,-419,-0.337402,-0.118286,0.0153041,0.0141663,0.0017601,0.016585,0.0128855,0.629082,0.010053,0.048887,650,1443,-0.337386,0.118342
-567,-419,-0.0910645,-0.0233154,0.0123261,0.0131657,0.00376499,0.0165342,0.00895759,0.840915,0.00955713,0.0462615,657,1443,-0.0910482,0.0233332
-560,-419,-0.203125,0.357544,0,0,0,0,0,0,0,-1,664,1443,-0.2031,-0.357554
-553,-419,0.39209,0.896973,0.00801286,0.0102194,0.00500732,0.0142435,0.00398871,0.893831,0.00848463,0.0401349,671,1443,0.392079,-0.897008
-546,-419,0.554016,0.911011,0.0062411,0.0087167,0.00494775,0.0125791,0.00237866,0.907969,0.00771639,0.0345437,678,1443,0.55399,-0.911047
-539,-419,0.595642,0.935181,0.00491093,0.00709963,0.00479646,0.010925,0.00108556,0.897557,0.0069498,0.0217101,685,1443,0.59567,-0.935181
-532,-419,0.569153,0.993774,0.00410431,0.00489133,0.0041001,0.00861676,0.000378883,0.83324,0.00562247,0.0123674,692,1443,0.569157,-0.99376
-525,-419,0.568604,1.06006,0.00354398,0.00312537,0.00298624,0.00632825,0.000341108,0.750411,0.00410985,0.0126536,699,1443,0.5686,-1.0601
-518,-419,0.592896,1.11353,0.00293793,0.00184062,0.00190444,0.00437117,0.000407374,0.64515,0.00278826,0.0160021,706,1443,0.592893,-1.11348
-511,-419,0.570557,1.14368,0.00214371,0.000909202,0.00084817,0.00257545,0.00047746,0.470844,0.00158202,0.0192061,713,1443,0.570538,-1.14362
-504,-419,0.556335,1.16162,0.00126456,0.000125485,2.13136e-05,0.00126496,0.000125087,0.0187026,0.000804855,0.0200196,720,1443,0.556329,-1.16161
-497,-419,0.571411,1.18591,0.000457374,-0.000707417,-0.000386324,0.000573856,-0.000823899,-0.292847,0.000811287,0.0141782,727,1443,0.571404,-1.18596
-490,-419,0.589722,1.21313,0.000222907,-0.00126629,-0.00089466,0.000642286,-0.00168567,-0.438343,0.00138831,0.0107004,734,1443,0.589746,-1.21313
-483,-419,0.593933,1.23279,-2.67463e-05,-0.00149996,-0.00129375,0.000725393,-0.0022521,-0.526605,0.0017928,0.00893987,741,1443,0.59394,-1.23275
-476,-419,0.58606,1.271,-0.00113149,-0.00138596,-0.0018882,0.000633755,-0.00315121,-0.751756,0.00234083,0.00942686,748,1443,0.586082,-1.27099
-469,-419,0.591858,1.31409,-0.00309532,-0.00159317,-0.00222056,-9.98843e-08,-0.00468839,-0.948477,0.00312556,0.0132884,755,1443,0.591841,-1.31411
-462,-419,0.584839,1.31006,-0.00516052,0.000826845,-0.00343767,0.00239164,-0.00672531,-1.14363,0.0054583,0.0213165,762,1443,0.584813,-1.31008
-455,-419,0.570007,1.23108,-0.00712899,0.00271993,-0.00515699,0.00492603,-0.00933508,-1.16657,0.0083638,0.0362248,769,1443,0.569989,-1.23103
-448,-419,0.503174,1.20142,-0.00976859,0.00471481,-0.00687564,0.00745893,-0.0125127,-1.19106,0.011653,0.0436533,776,1443,0.50317,-1.2014
-441,-419,0.424316,1.20874,0,0,0,0,0,0,0,-1,783,1443,0.424319,-1.20868
-434,-419,-0.416443,2.12366,0,0,0,0,0,0,0,-1,790,1443,-0.416431,-2.12363
-427,-419,-0.350098,1.60022,-0.0179785,0.0156679,-0.0154927,0.0217148,-0.0240254,-1.19867,0.0264194,0.0475173,797,1443,-0.350107,-1.60025
-420,-419,-0.455261,1.10645,-0.0200409,0.0204836,-0.0198583,0.0285923,-0.0281497,-1.18313,0.0327603,0.0444212,804,1443,-0.455232,-1.10646
-413,-419,-0.512817,0.598999,-0.0206985,0.0254912,-0.0255543,0.0368404,-0.0320477,-1.15284,0.0398047,0.04549,811,1443,-0.51279,-0.598979
-406,-419,-0.486511,0.0748291,-0.018684,0.0302842,-0.0325784,0.0465534,-0.0349532,-1.10764,0.0472164,0.0453091,818,1443,-0.486494,-0.0747845
-399,-419,-0.466614,-0.413818,0,0,0,0,0,0,0,-1,825,1443,-0.466589,0.413794
-392,-419,0,0,0,0,0,0,0,0,0,-1,832,1443,0,0
-385,-419,0,0,0,0,0,0,0,0,0,-1,839,1443,0,0
-378,-419,0,0,0,0,0,0,0,0,0,-1,846,1443,0,0
-371,-419,0,0,0,0,0,0,0,0,0,-1,853,1443,0,0
-364,-419,0,0,0,0,0,0,0,0,0,-1,860,1443,0,0
-357,-419,0,0,0,0,0,0,0,0,0,-1,867,1443,0,0
-350,-419,0,0,0,0,0,0,0,0,0,-1,874,1443,0,0
-343,-419,0,0,0,0,0,0,0,0,0,-1,881,1443,0,0
-336,-419,0,0,0,0,0,0,0,0,0,-1,888,1443,0,0
-329,-419,0,0,0,0,0,0,0,0,0,-1,895,1443,0,0
-322,-419,0,0,0,0,0,0,0,0,0,-1,902,1443,0,0
-315,-419,0,0,0,0,0,0,0,0,0,-1,909,1443,0,0
-308,-419,0,0,0,0,0,0,0,0,0,-1,916,1443,0,0
-301,-419,0,0,0,0,0,0,0,0,0,-1,923,1443,0,0
-294,-419,0,0,0,0,0,0,0,0,0,-1,930,1443,0,0
-287,-419,0,0,0,0,0,0,0,0,0,-1,937,1443,0,0
-280,-419,0,0,0,0,0,0,0,0,0,-1,944,1443,0,0
-273,-419,0,0,0,0,0,0,0,0,0,-1,951,1443,0,0
-266,-419,0,0,0,0,0,0,0,0,0,-1,958,1443,0,0
-259,-419,0,0,0,0,0,0,0,0,0,-1,965,1443,0,0
-252,-419,0,0,0,0,0,0,0,0,0,-1,972,1443,0,0
-245,-419,0,0,0,0,0,0,0,0,0,-1,979,1443,0,0
-238,-419,0,0,0,0,0,0,0,0,0,-1,986,1443,0,0
-231,-419,0,0,0,0,0,0,0,0,0,-1,993,1443,0,0
-224,-419,0,0,0,0,0,0,0,0,0,-1,1000,1443,0,0
-217,-419,0,0,0,0,0,0,0,0,0,-1,1007,1443,0,0
-210,-419,0,0,0,0,0,0,0,0,0,-1,1014,1443,0,0
-203,-419,0,0,0,0,0,0,0,0,0,-1,1021,1443,0,0
-196,-419,0,0,0,0,0,0,0,0,0,-1,1028,1443,0,0
-189,-419,0,0,0,0,0,0,0,0,0,-1,1035,1443,0,0
-182,-419,0,0,0,0,0,0,0,0,0,-1,1042,1443,0,0
-175,-419,0,0,0,0,0,0,0,0,0,-1,1049,1443,0,0
-168,-419,0,0,0,0,0,0,0,0,0,-1,1056,1443,0,0
-161,-419,0,0,0,0,0,0,0,0,0,-1,1063,1443,0,0
-154,-419,0,0,0,0,0,0,0,0,0,-1,1070,1443,0,0
-147,-419,0,0,0,0,0,0,0,0,0,-1,1077,1443,0,0
-140,-419,0,0,0,0,0,0,0,0,0,-1,1084,1443,0,0
-133,-419,0,0,0,0,0,0,0,0,0,-1,1091,1443,0,0
-126,-419,0,0,0,0,0,0,0,0,0,-1,1098,1443,0,0
-119,-419,0,0,0,0,0,0,0,0,0,-1,1105,1443,0,0
-112,-419,0,0,0,0,0,0,0,0,0,-1,1112,1443,0,0
-105,-419,0,0,0,0,0,0,0,0,0,-1,1119,1443,0,0
-98,-419,0,0,0,0,0,0,0,0,0,-1,1126,1443,0,0
-91,-419,0,0,0,0,0,0,0,0,0,-1,1133,1443,0,0
-84,-419,0,0,0,0,0,0,0,0,0,-1,1140,1443,0,0
-77,-419,0,0,0,0,0,0,0,0,0,-1,1147,1443,0,0
-70,-419,0,0,0,0,0,0,0,0,0,-1,1154,1443,0,0
-63,-419,0,0,0,0,0,0,0,0,0,-1,1161,1443,0,0
-56,-419,0,0,0,0,0,0,0,0,0,-1,1168,1443,0,0
-49,-419,0,0,0,0,0,0,0,0,0,-1,1175,1443,0,0
-42,-419,0,0,0,0,0,0,0,0,0,-1,1182,1443,0,0
-35,-419,0,0,0,0,0,0,0,0,0,-1,1189,1443,0,0
-28,-419,0,0,0,0,0,0,0,0,0,-1,1196,1443,0,0
-21,-419,0,0,0,0,0,0,0,0,0,-1,1203,1443,0,0
-14,-419,0,0,0,0,0,0,0,0,0,-1,1210,1443,0,0
-7,-419,0,0,0,0,0,0,0,0,0,-1,1217,1443,0,0
0,-419,0,0,0,0,0,0,0,0,0,-1,1224,1443,0,0
7,-419,0,0,0,0,0,0,0,0,0,-1,1231,1443,0,0
14,-419,0,0,0,0,0,0,0,0,0,-1,1238,1443,0,0
21,-419,0,0,0,0,0,0,0,0,0,-1,1245,1443,0,0
28,-419,0,0,0,0,0,0,0,0,0,-1,1252,1443,0,0
35,-419,0,0,0,0,0,0,0,0,0,-1,1259,1443,0,0
42,-419,0,0,0,0,0,0,0,0,0,-1,1266,1443,0,0
49,-419,0,0,0,0,0,0,0,0,0,-1,1273,1443,0,0
56,-419,0,0,0,0,0,0,0,0,0,-1,1280,1443,0,0
63,-419,0,0,0,0,0,0,0,0,0,-1,1287,1443,0,0
70,-419,0,0,0,0,0,0,0,0,0,-1,1294,1443,0,0
77,-419,0,0,0,0,0,0,0,0,0,-1,1301,1443,0,0
84,-419,0,0,0,0,0,0,0,0,0,-1,1308,1443,0,0
91,-419,0,0,0,0,0,0,0,0,0,-1,1315,1443,0,0
98,-419,0,0,0,0,0,0,0,0,0,-1,1322,1443,0,0
105,-419,0,0,0,0,0,0,0,0,0,-1,1329,1443,0,0
112,-419,0,0,0,0,0,0,0,0,0,-1,1336,1443,0,0
119,-419,0,0,0,0,0,0,0,0,0,-1,1343,1443,0,0
126,-419,0,0,0,0,0,0,0,0,0,-1,1350,1443,0,0
133,-419,0,0,0,0,0,0,0,0,0,-1,1357,1443,0,0
140,-419,0,0,0,0,0,0,0,0,0,-1,1364,1443,0,0
147,-419,0,0,0,0,0,0,0,0,0,-1,1371,1443,0,0
154,-419,0,0,0,0,0,0,0,0,0,-1,1378,1443,0,0
161,-419,0,0,0,0,0,0,0,0,0,-1,1385,1443,0,0
168,-419,0,0,0,0,0,0,0,0,0,-1,1392,1443,0,0
175,-419,0,0,0,0,0,0,0,0,0,-1,1399,1443,0,0
182,-419,0,0,0,0,0,0,0,0,0,-1,1406,1443,0,0
189,-419,0,0,0,0,0,0,0,0,0,-1,1413,1443,0,0
196,-419,0,0,0,0,0,0,0,0,0,-1,1420,1443,0,0
203,-419,0,0,0,0,0,0,0,0,0,-1,1427,1443,0,0
210,-419,0,0,0,0,0,0,0,0,0,-1,1434,1443,0,0
217,-419,0,0,0,0,0,0,0,0,0,-1,1441,1443,0,0
224,-419,0,0,0,0,0,0,0,0,0,-1,1448,1443,0,0
231,-419,0,0,0,0,0,0,0,0,0,-1,1455,1443,0,0
238,-419,0,0,0,0,0,0,0,0,0,-1,1462,1443,0,0
245,-419,0,0,0,0,0,0,0,0,0,-1,1469,1443,0,0
252,-419,0,0,0,0,0,0,0,0,0,-1,1476,1443,0,0
259,-419,0,0,0,0,0,0,0,0,0,-1,1483,1443,0,0
266,-419,0,0,0,0,0,0,0,0,0,-1,1490,1443,0,0
273,-419,0,0,0,0,0,0,0,0,0,-1,1497,1443,0,0
280,-419,0,0,0,0,0,0,0,0,0,-1,1504,1443,0,0
287,-419,0,0,0,0,0,0,0,0,0,-1,1511,1443,0,0
294,-419,0,0,0,0,0,0,0,0,0,-1,1518,1443,0,0
301,-419,0,0,0,0,0,0,0,0,0,-1,1525,1443,0,0
308,-419,0,0,0,0,0,0,0,0,0,-1,1532,1443,0,0
315,-419,0,0,0,0,0,0,0,0,0,-1,1539,1443,0,0
322,-419,0,0,0,0,0,0,0,0,0,-1,1546,1443,0,0
329,-419,0,0,0,0,0,0,0,0,0,-1,1553,1443,0,0
336,-419,0,0,0,0,0,0,0,0,0,-1,1560,1443,0,0
343,-419,0,0,0,0,0,0,0,0,0,-1,1567,1443,0,0
350,-419,0,0,0,0,0,0,0,0,0,-1,1574,1443,0,0
357,-419,0,0,0,0,0,0,0,0,0,-1,1581,1443,0,0
364,-419,0,0,0,0,0,0,0,0,0,-1,1588,1443,0,0
371,-419,0,0,0,0,0,0,0,0,0,-1,1595,1443,0,0
378,-419,0,0,0,0,0,0,0,0,0,-1,1602,1443,0,0
385,-419,0,0,0,0,0,0,0,0,0,-1,1609,1443,0,0
392,-419,0,0,0,0,0,0,0,0,0,-1,1616,1443,0,0
399,-419,0,0,0,0,0,0,0,0,0,-1,1623,1443,0,0
406,-419,0,0,0,0,0,0,0,0,0,-1,1630,1443,0,0
413,-419,0,0,0,0,0,0,0,0,0,-1,1637,1443,0,0
420,-419,0,0,0,0,0,0,0,0,0,-1,1644,1443,0,0
427,-419,0,0,0,0,0,0,0,0,0,-1,1651,1443,0,0
434,-419,0,0,0,0,0,0,0,0,0,-1,1658,1443,0,0
441,-419,0,0,0,0,0,0,0,0,0,-1,1665,1443,0,0
448,-419,0,0,0,0,0,0,0,0,0,-1,1672,1443,0,0
455,-419,0,0,0,0,0,0,0,0,0,-1,1679,1443,0,0
462,-419,0,0,0,0,0,0,0,0,0,-1,1686,1443,0,0
469,-419,0,0,0,0,0,0,0,0,0,-1,1693,1443,0,0
476,-419,0,0,0,0,0,0,0,0,0,-1,1700,1443,0,0
483,-419,0,0,0,0,0,0,0,0,0,-1,1707,1443,0,0
490,-419,0,0,0,0,0,0,0,0,0,-1,1714,1443,0,0
497,-419,0,0,0,0,0,0,0,0,0,-1,1721,1443,0,0
504,-419,0,0,0,0,0,0,0,0,0,-1,1728,1443,0,0
511,-419,2.63708,-0.815308,-0.0113571,-0.00916901,-0.00407573,-0.00604305,-0.0144831,-0.916523,0.00839989,0.0497288,1735,1443,2.63704,0.815307
518,-419,2.50977,-0.609863,0,0,0,0,0,0,0,-1,1742,1443,2.50976,0.609841
525,-419,2.45837,-0.744995,0.00518413,-0.0102169,0.0100016,0.0101062,-0.015139,0.457331,0.0146715,0.0473083,1749,1443,2.45837,0.745022
532,-419,2.72363,-0.875244,0.0113157,-0.00671673,0.0146234,0.019479,-0.01488,0.509145,0.0198963,0.0477989,1756,1443,2.72368,0.875304
539,-419,2.93652,-0.411743,0.0163775,-0.00152445,0.0177527,0.0273081,-0.0124551,0.551896,0.0234851,0.0486725,1763,1443,2.93651,0.411723
546,-419,3.15247,0.0372314,0.0193166,0.00377025,0.0191667,0.0322264,-0.0091395,0.592754,0.0250919,0.0478476,1770,1443,3.15251,-0.0372108
553,-419,3.29907,0.362427,0.0199114,0.00756951,0.019158,0.0338677,-0.00638686,0.629591,0.0249811,0.0445992,1777,1443,3.29909,-0.362403
560,-419,4.89392,2.36804,0,0,0,0,0,0,0,-1,1784,1443,4.89393,-2.36803
567,-419,4.35693,2.19604,0.0160046,0.0117373,0.016778,0.0307841,-0.00304222,0.722153,0.0216083,0.0467356,1791,1443,4.35697,-2.19601
574,-419,3.76526,1.83862,0.0123615,0.0117618,0.0143201,0.0263848,-0.00226155,0.77493,0.0183902,0.0452016,1798,1443,3.7653,-1.83867
581,-419,3.44934,1.60046,0.0086425,0.0111881,0.0124169,0.0223973,-0.0025667,0.836472,0.0158565,0.0440078,1805,1443,3.44931,-1.6005
588,-419,3.35681,1.49854,0.00578162,0.0107097,0.0101189,0.0186602,-0.00216891,0.904828,0.0132226,0.0399115,1812,1443,3.35681,-1.49856
595,-419,3.23022,1.47131,0.00302463,0.00955601,0.00753258,0.0145003,-0.0019197,0.98994,0.0103662,0.032073,1819,1443,3.23021,-1.47132
602,-419,3.10449,1.29175,0.000262282,0.00773582,0.00504946,0.0102808,-0.00228271,1.10394,0.00772798,0.0138546,1826,1443,3.10448,-1.29171
609,-419,3.09424,1.25146,-0.00240804,0.00593315,0.00297219,0.00688386,-0.00335875,1.26121,0.00602918,0.0102221,1833,1443,3.09421,-1.25146
616,-419,3.08411,1.24707,-0.00485031,0.00210437,0.00248439,0.00290068,-0.00564662,1.26062,0.00501896,0.0112242,1840,1443,3.08409,-1.24702
623,-419,3.09241,1.20935,-0.00567564,0.00159806,0.000914058,0.00171117,-0.00578875,1.44768,0.00453839,0.00869322,1847,1443,3.09247,-1.20931
630,-419,3.10596,1.15881,-0.00372239,0.00164131,0.000454086,0.00167948,-0.00376056,1.48693,0.0032165,0.0113779,1854,1443,3.10598,-1.15887
637,-419,3.10632,1.09741,-0.00271607,0.00183732,0.000367063,0.00186672,-0.00274547,1.49087,0.00267891,0.0127831,1861,1443,3.10636,-1.09737
644,-419,3.10059,1.07422,-0.00151512,0.00253992,0.000441584,0.00258745,-0.00156265,1.46357,0.00242029,0.0112766,1868,1443,3.10061,-1.07422
651,-419,3.09509,1.0542,-0.000145126,0.00360342,0.00060921,0.00369994,-0.000241649,1.41366,0.00255099,0.0117326,1875,1443,3.09504,-1.05418
658,-419,3.08704,0.99292,0.00128023,0.00475644,0.000613975,0.00486169,0.00117498,1.40102,0.00292911,0.0129108,1882,1443,3.08698,-0.992918
665,-419,3.09277,0.958252,0.00330977,0.00585933,0.000257659,0.00588511,0.00328399,1.47108,0.00340539,0.0180404,1889,1443,3.09277,-0.958202
672,-419,3.12305,0.934814,0.00583235,0.00744302,-0.000246894,0.00748001,0.00579535,-1.42206,0.00453075,0.0197718,1896,1443,3.12307,-0.934762
679,-419,3.1394,0.885498,0.00932589,0.00887711,-0.00118988,0.0103124,0.00789065,-0.692201,0.00622667,0.0336708,1903,1443,3.13942,-0.885557
686,-419,3.10474,1.40942,0.0140093,0.010364,-0.002859,0.0155772,0.00879609,-0.501629,0.00901854,0.049333,1910,1443,3.10475,-1.40938
693,-419,0.742065,-0.309692,0,0,0,0,0,0,0,-1,1917,1443,0.742057,0.309692
700,-419,1.51721,-0.219604,0,0,0,0,0,0,0,-1,1924,1443,1.51718,0.219644
707,-419,2.21899,-0.14563,0,0,0,0,0,0,0,-1,1931,1443,2.21894,0.145581
714,-419,3.76904,0.00769043,0,0,0,0,0,0,0,-1,1938,1443,3.76909,-0.00763512
721,-419,0,0,0,0,0,0,0,0,0,-1,1945,1443,0,0
728,-419,0,0,0,0,0,0,0,0,0,-1,1952,1443,0,0
735,-419,0,0,0,0,0,0,0,0,0,-1,1959,1443,0,0
742,-419,0,0,0,0,0,0,0,0,0,-1,1966,1443,0,0
749,-419,0,0,0,0,0,0,0,0,0,-1,1973,1443,0,0
756,-419,0,0,0,0,0,0,0,0,0,-1,1980,1443,0,0
763,-419,0,0,0,0,0,0,0,0,0,-1,1987,1443,0,0
770,-419,0,0,0,0,0,0,0,0,0,-1,1994,1443,0,0
777,-419,0,0,0,0,0,0,0,0,0,-1,2001,1443,0,0
784,-419,0,0,0,0,0,0,0,0,0,-1,2008,1443,0,0
791,-419,0,0,0,0,0,0,0,0,0,-1,2015,1443,0,0
798,-419,0,0,0,0,0,0,0,0,0,-1,2022,1443,0,0
805,-419,0,0,0,0,0,0,0,0,0,-1,2029,1443,0,0
812,-419,0,0,0,0,0,0,0,0,0,-1,2036,1443,0,0
-700,-426,0,0,0,0,0,0,0,0,0,-1,524,1450,0,0
-693,-426,0,0,0,0,0,0,0,0,0,-1,531,1450,0,0
-686,-426,0,0,0,0,0,0,0,0,0,-1,538,1450,0,0
-679,-426,0,0,0,0,0,0,0,0,0,-1,545,1450,0,0
-672,-426,0,0,0,0,0,0,0,0,0,-1,552,1450,0,0
-665,-426,0,0,0,0,0,0,0,0,0,-1,559,1450,0,0
-658,-426,0,0,0,0,0,0,0,0,0,-1,566,1450,0,0
-651,-426,0,0,0,0,0,0,0,0,0,-1,573,1450,0,0
-644,-426,0,0,0,0,0,0,0,0,0,-1,580,1450,0,0
-637,-426,0,0,0,0,0,0,0,0,0,-1,587,1450,0,0
-630,-426,0,0,0,0,0,0,0,0,0,-1,594,1450,0,0
-623,-426,0,0,0,0,0,0,0,0,0,-1,601,1450,0,0
-616,-426,0,0,0,0,0,0,0,0,0,-1,608,1450,0,0
-609,-426,0,0,0,0,0,0,0,0,0,-1,615,1450,0,0
-602,-426,0,0,0,0,0,0,0,0,0,-1,622,1450,0,0
-595,-426,0,0,0,0,0,0,0,0,0,-1,629,1450,0,0
-588,-426,0.237671,-1.09692,0,0,0,0,0,0,0,-1,636,1450,0.237651,1.09697
-581,-426,0.211853,-0.764771,0.0173391,0.0165153,-0.00195414,0.0189243,0.0149301,-0.681522,0.011518,0.0483162,643,1450,0.211835,0.764819
-574,-426,0.00830078,-0.347656,0.0141124,0.0163555,0.00153561,0.0171355,0.0133324,1.1008,0.0103906,0.0492525,650,1450,0.00830496,0.347692
-567,-426,0.288696,-0.0715332,0.0118657,0.015125,0.0036603,0.0175021,0.00948869,0.994834,0.0101168,0.0481417,657,1450,0.288687,0.071494
-560,-426,0.278259,0.0474854,0.0101614,0.0133925,0.00466833,0.0167169,0.006837,0.951978,0.00970467,0.0429131,664,1450,0.278271,-0.0475367
-553,-426,0.215027,-0.108643,0.00837877,0.011565,0.00491249,0.0151362,0.00480752,0.942197,0.0089306,0.0441042,671,1450,0.215051,0.108602
-546,-426,0.544922,0.90564,0.00675022,0.00972511,0.00485081,0.0133114,0.00316393,0.934166,0.00803016,0.0443333,678,1450,0.544905,-0.90566
-539,-426,0.644043,0.908325,0.0054392,0.00782037,0.00473545,0.0115126,0.00174696,0.908556,0.00716411,0.0347861,685,1450,0.644072,-0.908303
-532,-426,0.626282,0.993164,0.0045302,0.00539515,0.00411826,0.00910358,0.000821762,0.837713,0.00581452,0.0185998,692,1450,0.626282,-0.993107
-525,-426,0.617249,1.04883,0.00385595,0.00339831,0.00313272,0.0067682,0.000486059,0.748942,0.00435915,0.0123629,699,1450,0.617261,-1.04884
-518,-426,0.622375,1.10303,0.00313934,0.00197291,0.00209578,0.00473154,0.000380715,0.649691,0.00303543,0.0156358,706,1450,0.622361,-1.103
-511,-426,0.619019,1.14087,0.00224832,0.000967118,0.00113164,0.0029081,0.000307345,0.527844,0.00184484,0.0153729,713,1450,0.619046,-1.14084
-504,-426,0.601807,1.17041,0.00116086,0.000142251,0.000394296,0.00129565,7.45925e-06,0.3294,0.000861293,0.0149779,720,1450,0.60178,-1.17037
-497,-426,0.614136,1.19641,0.000171437,-0.000718337,6.10123e-05,0.000175601,-0.000722501,0.0681454,0.000549633,0.0120246,727,1450,0.614112,-1.19646
-490,-426,0.600464,1.22241,-0.000165781,-0.00137653,-0.000316962,-8.78231e-05,-0.00145448,-0.241167,0.000941748,0.0113017,734,1450,0.600441,-1.22235
-483,-426,0.61792,1.23035,-0.000523928,-0.00167049,-0.00058802,-0.000275979,-0.00191844,-0.399045,0.00119761,0.0109886,741,1450,0.617943,-1.23037
-476,-426,0.619385,1.27649,-0.00169199,-0.00156489,-0.00111379,-0.000512835,-0.00274405,-0.813898,0.00168464,0.00916147,748,1450,0.619374,-1.27646
-469,-426,0.604797,1.32153,-0.00371291,-0.00176961,-0.00137225,-0.00105985,-0.00442268,-1.09346,0.00266633,0.00711711,755,1450,0.604784,-1.3215
-462,-426,0.623047,1.34729,-0.00587398,0.000689217,-0.00249338,0.00152901,-0.00671377,-1.24592,0.00506307,0.012907,762,1450,0.623039,-1.34726
-455,-426,0.586853,1.36511,-0.00799672,0.00255983,-0.00406853,0.00394587,-0.00938277,-1.24245,0.00790582,0.0257985,769,1450,0.586882,-1.36517
-448,-426,0.48999,1.32166,-0.0107202,0.00442092,-0.00569824,0.00632576,-0.012625,-1.24819,0.0111409,0.0408504,776,1450,0.489989,-1.3216
-441,-426,0.391479,1.33484,-0.0136389,0.00731399,-0.00814932,0.0101103,-0.0164353,-1.24025,0.0154704,0.044463,783,1450,0.391475,-1.33481
-434,-426,0.57605,1.20398,0,0,0,0,0,0,0,-1,790,1450,0.576024,-1.20403
-427,-426,0.542969,1.03882,-0.0188482,0.0151576,-0.0145954,0.0205628,-0.0242534,-1.21612,0.0259039,0.0465388,797,1450,0.542983,-1.03877
-420,-426,-0.334961,1.23694,-0.020564,0.0197055,-0.0192914,0.0274556,-0.0283141,-1.18879,0.0321999,0.0428289,804,1450,-0.33498,-1.23694
-413,-426,-2.65881,5.04724,0,0,0,0,0,0,0,-1,811,1450,-2.65879,-5.04727
-406,-426,-2.04449,3.96484,0,0,0,0,0,0,0,-1,818,1450,-2.04451,-3.96487
-399,-426,-1.30573,2.83044,0,0,0,0,0,0,0,-1,825,1450,-1.30574,-2.83046
-392,-426,-0.598572,1.87573,0,0,0,0,0,0,0,-1,832,1450,-0.598576,-1.87577
-385,-426,0,0,0,0,0,0,0,0,0,-1,839,1450,0,0
-378,-426,0,0,0,0,0,0,0,0,0,-1,846,1450,0,0
-371,-426,0,0,0,0,0,0,0,0,0,-1,853,1450,0,0
-364,-426,0,0,0,0,0,0,0,0,0,-1,860,1450,0,0
-357,-426,0,0,0,0,0,0,0,0,0,-1,867,1450,0,0
-350,-426,0,0,0,0,0,0,0,0,0,-1,874,1450,0,0
-343,-426,0,0,0,0,0,0,0,0,0,-1,881,1450,0,0
-336,-426,0,0,0,0,0,0,0,0,0,-1,888,1450,0,0
-329,-426,0,0,0,0,0,0,0,0,0,-1,895,1450,0,0
-322,-426,0,0,0,0,0,0,0,0,0,-1,902,1450,0,0
-315,-426,0,0,0,0,0,0,0,0,0,-1,909,1450,0,0
-308,-426,0,0,0,0,0,0,0,0,0,-1,916,1450,0,0
-301,-426,0,0,0,0,0,0,0,0,0,-1,923,1450,0,0
-294,-426,0,0,0,0,0,0,0,0,0,-1,930,1450,0,0
-287,-426,0,0,0,0,0,0,0,0,0,-1,937,1450,0,0
-280,-426,0,0,0,0,0,0,0,0,0,-1,944,1450,0,0
-273,-426,0,0,0,0,0,0,0,0,0,-1,951,1450,0,0
-266,-426,0,0,0,0,0,0,0,0,0,-1,958,1450,0,0
-259,-426,0,0,0,0,0,0,0,0,0,-1,965,1450,0,0
-252,-426,0,0,0,0,0,0,0,0,0,-1,972,1450,0,0
-245,-426,0,0,0,0,0,0,0,0,0,-1,979,1450,0,0
-238,-426,0,0,0,0,0,0,0,0,0,-1,986,1450,0,0
-231,-426,0,0,0,0,0,0,0,0,0,-1,993,1450,0,0
-224,-426,0,0,0,0,0,0,0,0,0,-1,1000,1450,0,0
-217,-426,0,0,0,0,0,0,0,0,0,-1,1007,1450,0,0
-210,-426,0,0,0,0,0,0,0,0,0,-1,1014,1450,0,0
-203,-426,0,0,0,0,0,0,0,0,0,-1,1021,1450,0,0
-196,-426,0,0,0,0,0,0,0,0,0,-1,1028,1450,0,0
-189,-426,0,0,0,0,0,0,0,0,0,-1,1035,1450,0,0
-182,-426,0,0,0,0,0,0,0,0,0,-1,1042,1450,0,0
-175,-426,0,0,0,0,0,0,0,0,0,-1,1049,1450,0,0
-168,-426,0,0,0,0,0,0,0,0,0,-1,1056,1450,0,0
-161,-426,0,0,0,0,0,0,0,0,0,-1,1063,1450,0,0
-154,-426,0,0,0,0,0,0,0,0,0,-1,1070,1450,0,0
-147,-426,0,0,0,0,0,0,0,0,0,-1,1077,1450,0,0
-140,-426,0,0,0,0,0,0,0,0,0,-1,1084,1450,0,0
-133,-426,0,0,0,0,0,0,0,0,0,-1,1091,1450,0,0
-126,-426,0,0,0,0,0,0,0,0,0,-1,1098,1450,0,0
-119,-426,0,0,0,0,0,0,0,0,0,-1,1105,1450,0,0
-112,-426,0,0,0,0,0,0,0,0,0,-1,1112,1450,0,0
-105,-426,0,0,0,0,0,0,0,0,0,-1,1119,1450,0,0
-98,-426,0,0,0,0,0,0,0,0,0,-1,1126,1450,0,0
-91,-426,0,0,0,0,0,0,0,0,0,-1,1133,1450,0,0
-84,-426,0,0,0,0,0,0,0,0,0,-1,1140,1450,0,0
-77,-426,0,0,0,0,0,0,0,0,0,-1,1147,1450,0,0
-70,-426,0,0,0,0,0,0,0,0,0,-1,1154,1450,0,0
-63,-426,0,0,0,0,0,0,0,0,0,-1,1161,1450,0,0
-56,-426,0,0,0,0,0,0,0,0,0,-1,1168,1450,0,0
-49,-426,0,0,0,0,0,0,0,0,0,-1,1175,1450,0,0
-42,-426,0,0,0,0,0,0,0,0,0,-1,1182,1450,0,0
-35,-426,0,0,0,0,0,0,0,0,0,-1,1189,1450,0,0
-28,-426,0,0,0,0,0,0,0,0,0,-1,1196,1450,0,0
-21,-426,0,0,0,0,0,0,0,0,0,-1,1203,1450,0,0
-14,-426,0,0,0,0,0,0,0,0,0,-1,1210,1450,0,0
-7,-426,0,0,0,0,0,0,0,0,0,-1,1217,1450,0,0
0,-426,0,0,0,0,0,0,0,0,0,-1,1224,1450,0,0
7,-426,0,0,0,0,0,0,0,0,0,-1,1231,1450,0,0
14,-426,0,0,0,0,0,0,0,0,0,-1,1238,1450,0,0
21,-426,0,0,0,0,0,0,0,0,0,-1,1245,1450,0,0
28,-426,0,0,0,0,0,0,0,0,0,-1,1252,1450,0,0
35,-426,0,0,0,0,0,0,0,0,0,-1,1259,1450,0,0
42,-426,0,0,0,0,0,0,0,0,0,-1,1266,1450,0,0
49,-426,0,0,0,0,0,0,0,0,0,-1,1273,1450,0,0
56,-426,0,0,0,0,0,0,0,0,0,-1,1280,1450,0,0
63,-426,0,0,0,0,0,0,0,0,0,-1,1287,1450,0,0
70,-426,0,0,0,0,0,0,0,0,0,-1,1294,1450,0,0
77,-426,0,0,0,0,0,0,0,0,0,-1,1301,1450,0,0
84,-426,0,0,0,0,0,0,0,0,0,-1,1308,1450,0,0
91,-426,0,0,0,0,0,0,0,0,0,-1,1315,1450,0,0
98,-426,0,0,0,0,0,0,0,0,0,-1,1322,1450,0,0
105,-426,0,0,0,0,0,0,0,0,0,-1,1329,1450,0,0
112,-426,0,0,0,0,0,0,0,0,0,-1,1336,1450,0,0
119,-426,0,0,0,0,0,0,0,0,0,-1,1343,1450,0,0
126,-426,0,0,0,0,0,0,0,0,0,-1,1350,1450,0,0
133,-426,0,0,0,0,0,0,0,0,0,-1,1357,1450,0,0
140,-426,0,0,0,0,0,0,0,0,0,-1,1364,1450,0,0
147,-426,0,0,0,0,0,0,0,0,0,-1,1371,1450,0,0
154,-426,0,0,0,0,0,0,0,0,0,-1,1378,1450,0,0
161,-426,0,0,0,0,0,0,0,0,0,-1,1385,1450,0,0
168,-426,0,0,0,0,0,0,0,0,0,-1,1392,1450,0,0
175,-426,0,0,0,0,0,0,0,0,0,-1,1399,1450,0,0
182,-426,0,0,0,0,0,0,0,0,0,-1,1406,1450,0,0
189,-426,0,0,0,0,0,0,0,0,0,-1,1413,1450,0,0
196,-426,0,0,0,0,0,0,0,0,0,-1,1420,1450,0,0
203,-426,0,0,0,0,0,0,0,0,0,-1,1427,1450,0,0
210,-426,0,0,0,0,0,0,0,0,0,-1,1434,1450,0,0
217,-426,0,0,0,0,0,0,0,0,0,-1,1441,1450,0,0
224,-426,0,0,0,0,0,0,0,0,0,-1,1448,1450,0,0
231,-426,0,0,0,0,0,0,0,0,0,-1,1455,1450,0,0
238,-426,0,0,0,0,0,0,0,0,0,-1,1462,1450,0,0
245,-426,0,0,0,0,0,0,0,0,0,-1,1469,1450,0,0
252,-426,0,0,0,0,0,0,0,0,0,-1,1476,1450,0,0
259,-426,0,0,0,0,0,0,0,0,0,-1,1483,1450,0,0
266,-426,0,0,0,0,0,0,0,0,0,-1,1490,1450,0,0
273,-426,0,0,0,0,0,0,0,0,0,-1,1497,1450,0,0
280,-426,0,0,0,0,0,0,0,0,0,-1,1504,1450,0,0
287,-426,0,0,0,0,0,0,0,0,0,-1,1511,1450,0,0
294,-426,0,0,0,0,0,0,0,0,0,-1,1518,1450,0,0
301,-426,0,0,0,0,0,0,0,0,0,-1,1525,1450,0,0
308,-426,0,0,0,0,0,0,0,0,0,-1,1532,1450,0,0
315,-426,0,0,0,0,0,0,0,0,0,-1,1539,1450,0,0
322,-426,0,0,0,0,0,0,0,0,0,-1,1546,1450,0,0
329,-426,0,0,0,0,0,0,0,0,0,-1,1553,1450,0,0
336,-426,0,0,0,0,0,0,0,0,0,-1,1560,1450,0,0
343,-426,0,0,0,0,0,0,0,0,0,-1,1567,1450,0,0
350,-426,0,0,0,0,0,0,0,0,0,-1,1574,1450,0,0
357,-426,0,0,0,0,0,0,0,0,0,-1,1581,1450,0,0
364,-426,0,0,0,0,0,0,0,0,0,-1,1588,1450,0,0
371,-426,0,0,0,0,0,0,0,0,0,-1,1595,1450,0,0
378,-426,0,0,0,0,0,0,0,0,0,-1,1602,1450,0,0
385,-426,0,0,0,0,0,0,0,0,0,-1,1609,1450,0,0
392,-426,0,0,0,0,0,0,0,0,0,-1,1616,1450,0,0
399,-426,0,0,0,0,0,0,0,0,0,-1,1623,1450,0,0
406,-426,0,0,0,0,0,0,0,0,0,-1,1630,1450,0,0
413,-426,0,0,0,0,0,0,0,0,0,-1,1637,1450,0,0
420,-426,0,0,0,0,0,0,0,0,0,-1,1644,1450,0,0
427,-426,0,0,0,0,0,0,0,0,0,-1,1651,1450,0,0
434,-426,0,0,0,0,0,0,0,0,0,-1,1658,1450,0,0
441,-426,0,0,0,0,0,0,0,0,0,-1,1665,1450,0,0
448,-426,0,0,0,0,0,0,0,0,0,-1,1672,1450,0,0
455,-426,0,0,0,0,0,0,0,0,0,-1,1679,1450,0,0
462,-426,0,0,0,0,0,0,0,0,0,-1,1686,1450,0,0
469,-426,0,0,0,0,0,0,0,0,0,-1,1693,1450,0,0
476,-426,0,0,0,0,0,0,0,0,0,-1,1700,1450,0,0
483,-426,0,0,0,0,0,0,0,0,0,-1,1707,1450,0,0
490,-426,0,0,0,0,0,0,0,0,0,-1,1714,1450,0,0
497,-426,0,0,0,0,0,0,0,0,0,-1,1721,1450,0,0
504,-426,4.01477,-0.64978,0,0,0,0,0,0,0,-1,1728,1450,4.01471,0.649809
511,-426,4.25781,-0.321289,0,0,0,0,0,0,0,-1,1735,1450,4.25783,0.321322
518,-426,4.80176,0.370728,0,0,0,0,0,0,0,-1,1742,1450,4.80175,-0.370681
525,-426,2.52014,-0.87085,-0.00109517,-0.0138272,0.0125793,0.00663726,-0.0215596,0.551153,0.0170224,0.0478559,1749,1450,2.52019,0.870844
532,-426,2.69958,-0.717773,0.00377713,-0.0107152,0.0164684,0.014523,-0.0214611,0.578143,0.0209038,0.0481653,1756,1450,2.69963,0.717732
539,-426,2.77502,-0.255127,0.00777775,-0.00601256,0.0190456,0.021138,-0.0193728,0.611721,0.0233963,0.0473231,1763,1450,2.77501,0.25514
546,-426,2.93933,0.318604,0.0102278,-0.00101388,0.0201782,0.0255534,-0.0163395,0.649562,0.0243811,0.0442784,1770,1450,2.93933,-0.318628
553,-426,2.81714,1.66357,0.0113399,0.00290239,0.0200812,0.0276407,-0.0133984,0.681861,0.0241649,0.0460561,1777,1450,2.81717,-1.66354
560,-426,2.81226,1.70972,0.0108946,0.00570449,0.0190051,0.027481,-0.0108819,0.717545,0.0228295,0.0487712,1784,1450,2.8122,-1.70966
567,-426,4.29041,2.0448,0.00933788,0.0080884,0.0173364,0.0260608,-0.00863451,0.767388,0.0208566,0.0485497,1791,1450,4.29035,-2.04478
574,-426,3.13464,1.42944,0,0,0,0,0,0,0,-1,1798,1450,3.13464,-1.42945
581,-426,3.05847,1.36108,0.00440843,0.00877236,0.0124801,0.0192598,-0.00607906,0.871941,0.0152749,0.0439182,1805,1450,3.05844,-1.36105
588,-426,3.05151,1.36621,0.0026621,0.00880521,0.0100168,0.0162108,-0.00474348,0.934167,0.0126874,0.0319461,1812,1450,3.05147,-1.36626
595,-426,3.01929,1.31116,0.000962617,0.00810086,0.00743276,0.012777,-0.00371354,1.00923,0.00998866,0.0221911,1819,1450,3.01929,-1.31119
602,-426,3.05188,1.26025,-0.000942762,0.00667599,0.00496734,0.00912647,-0.00339324,1.11251,0.00747663,0.0145395,1826,1450,3.05189,-1.26028
609,-426,3.05444,1.23975,-0.00280932,0.00528958,0.00292985,0.00623833,-0.00375808,1.25763,0.00583035,0.0115276,1833,1450,3.05449,-1.2398
616,-426,3.04688,1.22925,-0.00438616,0.00218387,0.00202957,0.00276027,-0.00496255,1.29408,0.0045188,0.0129189,1840,1450,3.04687,-1.22922
623,-426,3.05359,1.20142,-0.00481209,0.00186314,0.000808529,0.00195968,-0.00490862,1.45196,0.00408544,0.0104539,1847,1450,3.05364,-1.20144
630,-426,3.07007,1.15039,-0.00327077,0.00222237,0.000523641,0.00227184,-0.00332024,1.4766,0.00324745,0.0111069,1854,1450,3.07003,-1.15041
637,-426,3.06848,1.10571,-0.00241219,0.00256488,0.000492239,0.00261309,-0.0024604,1.47316,0.00292963,0.0117586,1861,1450,3.06848,-1.10571
644,-426,3.06897,1.07397,-0.00128434,0.00351249,0.000552695,0.00357535,-0.0013472,1.45755,0.00293748,0.0114214,1868,1450,3.06892,-1.07394
651,-426,3.06152,1.0542,0.000116521,0.00484351,0.000731171,0.00495402,6.0068e-06,1.42079,0.00330068,0.0116004,1875,1450,3.06152,-1.05418
658,-426,3.05542,1.01453,0.00169351,0.00640601,0.000794224,0.00653626,0.00156326,1.40824,0.00394116,0.0111493,1882,1450,3.05546,-1.01454
665,-426,3.07031,0.976196,0.00406395,0.00800469,0.000510178,0.00806967,0.00399897,1.44412,0.00465909,0.0156056,1889,1450,3.07026,-0.976194
672,-426,3.104,0.967407,0.00715994,0.0100867,6.86756e-05,0.0100883,0.00715833,1.54735,0.00599257,0.0243332,1896,1450,3.104,-0.967424
679,-426,3.01196,1.0542,0.011488,0.012049,-0.000842559,0.0126565,0.0108805,-0.946082,0.00791238,0.036485,1903,1450,3.01197,-1.05419
686,-426,2.77197,1.27319,0,0,0,0,0,0,0,-1,1910,1450,2.77196,-1.27322
693,-426,1.35156,0.329468,0,0,0,0,0,0,0,-1,1917,1450,1.35152,-0.329475
700,-426,2.06506,0.400391,0.0334726,0.0181456,-0.00936031,0.0379064,0.0137118,-0.442372,0.0221625,0.0475286,1924,1450,2.06505,-0.400421
707,-426,2.79407,0.481567,0,0,0,0,0,0,0,-1,1931,1450,2.79402,-0.481564
714,-426,0,0,0,0,0,0,0,0,0,-1,1938,1450,0,0
721,-426,0,0,0,0,0,0,0,0,0,-1,1945,1450,0,0
728,-426,0,0,0,0,0,0,0,0,0,-1,1952,1450,0,0
735,-426,0,0,0,0,0,0,0,0,0,-1,1959,1450,0,0
742,-426,0,0,0,0,0,0,0,0,0,-1,1966,1450,0,0
749,-426,0,0,0,0,0,0,0,0,0,-1,1973,1450,0,0
756,-426,0,0,0,0,0,0,0,0,0,-1,1980,1450,0,0
763,-426,0,0,0,0,0,0,0,0,0,-1,1987,1450,0,0
770,-426,0,0,0,0,0,0,0,0,0,-1,1994,1450,0,0
777,-426,0,0,0,0,0,0,0,0,0,-1,2001,1450,0,0
784,-426,0,0,0,0,0,0,0,0,0,-1,2008,1450,0,0
791,-426,0,0,0,0,0,0,0,0,0,-1,2015,1450,0,0
798,-426,0,0,0,0,0,0,0,0,0,-1,2022,1450,0,0
805,-426,0,0,0,0,0,0,0,0,0,-1,2029,1450,0,0
812,-426,0,0,0,0,0,0,0,0,0,-1,2036,1450,0,0
-700,-433,0,0,0,0,0,0,0,0,0,-1,524,1457,0,0
-693,-433,0,0,0,0,0,0,0,0,0,-1,531,1457,0,0
-686,-433,0,0,0,0,0,0,0,0,0,-1,538,1457,0,0
-679,-433,0,0,0,0,0,0,0,0,0,-1,545,1457,0,0
-672,-433,0,0,0,0,0,0,0,0,0,-1,552,1457,0,0
-665,-433,0,0,0,0,0,0,0,0,0,-1,559,1457,0,0
-658,-433,0,0,0,0,0,0,0,0,0,-1,566,1457,0,0
-651,-433,0,0,0,0,0,0,0,0,0,-1,573,1457,0,0
-644,-433,0,0,0,0,0,0,0,0,0,-1,580,1457,0,0
-637,-433,0,0,0,0,0,0,0,0,0,-1,587,1457,0,0
-630,-433,0,0,0,0,0,0,0,0,0,-1,594,1457,0,0
-623,-433,0,0,0,0,0,0,0,0,0,-1,601,1457,0,0
-616,-433,0,0,0,0,0,0,0,0,0,-1,608,1457,0,0
-609,-433,0,0,0,0,0,0,0,0,0,-1,615,1457,0,0
-602,-433,0,0,0,0,0,0,0,0,0,-1,622,1457,0,0
-595,-433,0,0,0,0,0,0,0,0,0,-1,629,1457,0,0
-588,-433,0.525879,-1.62329,0,0,0,0,0,0,0,-1,636,1457,0.525893,1.62333
-581,-433,0.595337,-1.19861,0.0149175,0.0197115,-0.00134035,0.0200608,0.0145682,-1.31587,0.0119707,0.0484819,643,1457,0.595356,1.19859
-574,-433,0.439941,-0.442627,0.0127108,0.0191135,0.00200202,0.0196879,0.0121364,1.29136,0.0114691,0.0460966,650,1457,0.439936,0.442663
-567,-433,0.481018,0.242798,0.0111478,0.0173944,0.00397725,0.0193281,0.00921406,1.11825,0.0111631,0.0453947,657,1457,0.481022,-0.242814
-560,-433,0.0704956,0.169189,0.0098916,0.0152192,0.00483616,0.0180766,0.00703413,1.03713,0.0105217,0.0458528,664,1457,0.0705124,-0.169169
-553,-433,0.166382,-0.426392,0.00843192,0.0129125,0.00499064,0.0161426,0.00520181,0.996369,0.00951426,0.0414928,671,1457,0.166359,0.426433
-546,-433,0.145508,1.48328,0,0,0,0,0,0,0,-1,678,1457,0.145486,-1.48326
-539,-433,0.516968,0.802612,0.00569274,0.00839886,0.00475584,0.0119904,0.00210122,0.923989,0.00739338,0.0423079,685,1457,0.516942,-0.802601
-532,-433,0.654907,0.956787,0.00471429,0.00573968,0.00420258,0.00946072,0.000993249,0.846096,0.00600351,0.0257171,692,1457,0.654934,-0.956738
-525,-433,0.656372,1.02039,0.00396817,0.00349714,0.00331946,0.00706046,0.000404855,0.749983,0.00457799,0.0133263,699,1457,0.656349,-1.02033
-518,-433,0.649719,1.08191,0.00323204,0.00192125,0.00232038,0.00498781,0.000165481,0.647758,0.00327144,0.0158981,706,1457,0.649734,-1.08196
-511,-433,0.641418,1.13696,0.00231861,0.00083739,0.00145099,0.00320708,-5.10758e-05,0.549425,0.00215528,0.0151372,713,1457,0.641424,-1.13696
-504,-433,0.64209,1.15979,0.00111664,-2.21089e-05,0.000803119,0.00153174,-0.000437207,0.477042,0.00119389,0.0125085,720,1457,0.642097,-1.15976
-497,-433,0.639465,1.17432,7.84334e-05,-0.000897343,0.000516265,0.000300872,-0.00111978,0.406825,0.000864445,0.0131861,727,1457,0.639476,-1.17433
-490,-433,0.609985,1.18787,-0.000212164,-0.00162946,0.000213446,-0.000180717,-0.0016609,0.14628,0.00105222,0.0143271,734,1457,0.610003,-1.18785
-483,-433,0.631958,1.23975,-0.000513094,-0.00193255,-9.66614e-06,-0.000513028,-0.00193261,-0.00680934,0.00115599,0.0151146,741,1457,0.631976,-1.23975
-476,-433,0.655396,1.28052,-0.00159246,-0.00179446,-0.000506677,-0.00117681,-0.00221011,-0.68702,0.0012769,0.0105239,748,1457,0.655394,-1.28051
-469,-433,0.653076,1.31372,-0.00346608,-0.00191631,-0.000774569,-0.00159556,-0.00378682,-1.1782,0.00219532,0.00966719,755,1457,0.653065,-1.31368
-462,-433,0.651245,1.34692,-0.00551338,0.000520502,-0.00186123,0.00104843,-0.00604131,-1.29441,0.00441867,0.0086877,762,1457,0.651256,-1.34688
-455,-433,0.659607,1.39148,-0.0076226,0.00237415,-0.00332941,0.0033815,-0.00862995,-1.27699,0.00715208,0.0166735,769,1457,0.659622,-1.3915
-448,-433,0.580261,1.41907,-0.0102368,0.00410879,-0.00492014,0.00563409,-0.0117621,-1.27018,0.0102493,0.0307749,776,1457,0.580263,-1.4191
-441,-433,0.531555,1.46118,-0.0129881,0.0068853,-0.00743568,0.00935938,-0.0154621,-1.24959,0.0144744,0.040327,783,1457,0.531568,-1.46122
-434,-433,0.479797,1.46289,-0.0155506,0.0104989,-0.0102361,0.0140398,-0.0190915,-1.23776,0.0192024,0.0449657,790,1457,0.479808,-1.46289
-427,-433,0.357361,1.28748,-0.0178814,0.0142604,-0.0142759,0.0196854,-0.0233064,-1.20764,0.0248506,0.0452545,797,1457,0.357347,-1.28751
-420,-433,-0.0701904,1.54236,-0.0192815,0.0182553,-0.0194237,0.0264968,-0.0275229,-1.16952,0.0311902,0.0432366,804,1457,-0.070201,-1.54231
-413,-433,-2.29956,4.1936,-0.0189998,0.021616,-0.0260244,0.0343184,-0.0317022,-1.11672,0.038127,0.048836,811,1457,-2.29957,-4.19356
-406,-433,-1.75214,3.08362,-0.0167857,0.0243596,-0.0339144,0.0434534,-0.0358794,-1.05803,0.0458723,0.0489668,818,1457,-1.75214,-3.08357
-399,-433,-1.10443,2.04761,0,0,0,0,0,0,0,-1,825,1457,-1.10443,-2.04761
-392,-433,-0.33551,1.26672,0,0,0,0,0,0,0,-1,832,1457,-0.335494,-1.26671
-385,-433,0.32019,0.951904,0,0,0,0,0,0,0,-1,839,1457,0.320202,-0.951947
-378,-433,0,0,0,0,0,0,0,0,0,-1,846,1457,0,0
-371,-433,0,0,0,0,0,0,0,0,0,-1,853,1457,0,0
-364,-433,0,0,0,0,0,0,0,0,0,-1,860,1457,0,0
-357,-433,0,0,0,0,0,0,0,0,0,-1,867,1457,0,0
-350,-433,0,0,0,0,0,0,0,0,0,-1,874,1457,0,0
-343,-433,0,0,0,0,0,0,0,0,0,-1,881,1457,0,0
-336,-433,0,0,0,0,0,0,0,0,0,-1,888,1457,0,0
-329,-433,0,0,0,0,0,0,0,0,0,-1,895,1457,0,0
-322,-433,0,0,0,0,0,0,0,0,0,-1,902,1457,0,0
-315,-433,0,0,0,0,0,0,0,0,0,-1,909,1457,0,0
-308,-433,0,0,0,0,0,0,0,0,0,-1,916,1457,0,0
-301,-433,0,0,0,0,0,0,0,0,0,-1,923,1457,0,0
-294,-433,0,0,0,0,0,0,0,0,0,-1,930,1457,0,0
-287,-433,0,0,0,0,0,0,0,0,0,-1,937,1457,0,0
-280,-433,0,0,0,0,0,0,0,0,0,-1,944,1457,0,0
-273,-433,0,0,0,0,0,0,0,0,0,-1,951,1457,0,0
-266,-433,0,0,0,0,0,0,0,0,0,-1,958,1457,0,0
-259,-433,0,0,0,0,0,0,0,0,0,-1,965,1457,0,0
-252,-433,0,0,0,0,0,0,0,0,0,-1,972,1457,0,0
-245,-433,0,0,0,0,0,0,0,0,0,-1,979,1457,0,0
-238,-433,0,0,0,0,0,0,0,0,0,-1,986,1457,0,0
-231,-433,0,0,0,0,0,0,0,0,0,-1,993,1457,0,0
-224,-433,0,0,0,0,0,0,0,0,0,-1,1000,1457,0,0
-217,-433,0,0,0,0,0,0,0,0,0,-1,1007,1457,0,0
-210,-433,0,0,0,0,0,0,0,0,0,-1,1014,1457,0,0
-203,-433,0,0,0,0,0,0,0,0,0,-1,1021,1457,0,0
-196,-433,0,0,0,0,0,0,0,0,0,-1,1028,1457,0,0
-189,-433,0,0,0,0,0,0,0,0,0,-1,1035,1457,0,0
-182,-433,0,0,0,0,0,0,0,0,0,-1,1042,1457,0,0
-175,-433,0,0,0,0,0,0,0,0,0,-1,1049,1457,0,0
-168,-433,0,0,0,0,0,0,0,0,0,-1,1056,1457,0,0
-161,-433,0,0,0,0,0,0,0,0,0,-1,1063,1457,0,0
-154,-433,0,0,0,0,0,0,0,0,0,-1,1070,1457,0,0
-147,-433,0,0,0,0,0,0,0,0,0,-1,1077,1457,0,0
-140,-433,0,0,0,0,0,0,0,0,0,-1,1084,1457,0,0
-133,-433,0,0,0,0,0,0,0,0,0,-1,1091,1457,0,0
-126,-433,0,0,0,0,0,0,0,0,0,-1,1098,1457,0,0
-119,-433,0,0,0,0,0,0,0,0,0,-1,1105,1457,0,0
-112,-433,0,0,0,0,0,0,0,0,0,-1,1112,1457,0,0
-105,-433,0,0,0,0,0,0,0,0,0,-1,1119,1457,0,0
-98,-433,0,0,0,0,0,0,0,0,0,-1,1126,1457,0,0
-91,-433,0,0,0,0,0,0,0,0,0,-1,1133,1457,0,0
-84,-433,0,0,0,0,0,0,0,0,0,-1,1140,1457,0,0
-77,-433,0,0,0,0,0,0,0,0,0,-1,1147,1457,0,0
-70,-433,0,0,0,0,0,0,0,0,0,-1,1154,1457,0,0
-63,-433,0,0,0,0,0,0,0,0,0,-1,1161,1457,0,0
-56,-433,0,0,0,0,0,0,0,0,0,-1,1168,1457,0,0
-49,-433,0,0,0,0,0,0,0,0,0,-1,1175,1457,0,0
-42,-433,0,0,0,0,0,0,0,0,0,-1,1182,1457,0,0
-35,-433,0,0,0,0,0,0,0,0,0,-1,1189,1457,0,0
-28,-433,0,0,0,0,0,0,0,0,0,-1,1196,1457,0,0
-21,-433,0,0,0,0,0,0,0,0,0,-1,1203,1457,0,0
-14,-433,0,0,0,0,0,0,0,0,0,-1,1210,1457,0,0
-7,-433,0,0,0,0,0,0,0,0,0,-1,1217,1457,0,0
0,-433,0,0,0,0,0,0,0,0,0,-1,1224,1457,0,0
7,-433,0,0,0,0,0,0,0,0,0,-1,1231,1457,0,0
14,-433,0,0,0,0,0,0,0,0,0,-1,1238,1457,0,0
21,-433,0,0,0,0,0,0,0,0,0,-1,1245,1457,0,0
28,-433,0,0,0,0,0,0,0,0,0,-1,1252,1457,0,0
35,-433,0,0,0,0,0,0,0,0,0,-1,1259,1457,0,0
42,-433,0,0,0,0,0,0,0,0,0,-1,1266,1457,0,0
49,-433,0,0,0,0,0,0,0,0,0,-1,1273,1457,0,0
56,-433,0,0,0,0,0,0,0,0,0,-1,1280,1457,0,0
63,-433,0,0,0,0,0,0,0,0,0,-1,1287,1457,0,0
70,-433,0,0,0,0,0,0,0,0,0,-1,1294,1457,0,0
77,-433,0,0,0,0,0,0,0,0,0,-1,1301,1457,0,0
84,-433,0,0,0,0,0,0,0,0,0,-1,1308,1457,0,0
91,-433,0,0,0,0,0,0,0,0,0,-1,1315,1457,0,0
98,-433,0,0,0,0,0,0,0,0,0,-1,1322,1457,0,0
105,-433,0,0,0,0,0,0,0,0,0,-1,1329,1457,0,0
112,-433,0,0,0,0,0,0,0,0,0,-1,1336,1457,0,0
119,-433,0,0,0,0,0,0,0,0,0,-1,1343,1457,0,0
126,-433,0,0,0,0,0,0,0,0,0,-1,1350,1457,0,0
133,-433,0,0,0,0,0,0,0,0,0,-1,1357,1457,0,0
140,-433,0,0,0,0,0,0,0,0,0,-1,1364,1457,0,0
147,-433,0,0,0,0,0,0,0,0,0,-1,1371,1457,0,0
154,-433,0,0,0,0,0,0,0,0,0,-1,1378,1457,0,0
161,-433,0,0,0,0,0,0,0,0,0,-1,1385,1457,0,0
168,-433,0,0,0,0,0,0,0,0,0,-1,1392,1457,0,0
175,-433,0,0,0,0,0,0,0,0,0,-1,1399,1457,0,0
182,-433,0,0,0,0,0,0,0,0,0,-1,1406,1457,0,0
189,-433,0,0,0,0,0,0,0,0,0,-1,1413,1457,0,0
196,-433,0,0,0,0,0,0,0,0,0,-1,1420,1457,0,0
203,-433,0,0,0,0,0,0,0,0,0,-1,1427,1457,0,0
210,-433,0,0,0,0,0,0,0,0,0,-1,1434,1457,0,0
217,-433,0,0,0,0,0,0,0,0,0,-1,1441,1457,0,0
224,-433,0,0,0,0,0,0,0,0,0,-1,1448,1457,0,0
231,-433,0,0,0,0,0,0,0,0,0,-1,1455,1457,0,0
238,-433,0,0,0,0,0,0,0,0,0,-1,1462,1457,0,0
245,-433,0,0,0,0,0,0,0,0,0,-1,1469,1457,0,0
252,-433,0,0,0,0,0,0,0,0,0,-1,1476,1457,0,0
259,-433,0,0,0,0,0,0,0,0,0,-1,1483,1457,0,0
266,-433,0,0,0,0,0,0,0,0,0,-1,1490,1457,0,0
273,-433,0,0,0,0,0,0,0,0,0,-1,1497,1457,0,0
280,-433,0,0,0,0,0,0,0,0,0,-1,1504,1457,0,0
287,-433,0,0,0,0,0,0,0,0,0,-1,1511,1457,0,0
294,-433,0,0,0,0,0,0,0,0,0,-1,1518,1457,0,0
301,-433,0,0,0,0,0,0,0,0,0,-1,1525,1457,0,0
308,-433,0,0,0,0,0,0,0,0,0,-1,1532,1457,0,0
315,-433,0,0,0,0,0,0,0,0,0,-1,1539,1457,0,0
322,-433,0,0,0,0,0,0,0,0,0,-1,1546,1457,0,0
329,-433,0,0,0,0,0,0,0,0,0,-1,1553,1457,0,0
336,-433,0,0,0,0,0,0,0,0,0,-1,1560,1457,0,0
343,-433,0,0,0,0,0,0,0,0,0,-1,1567,1457,0,0
350,-433,0,0,0,0,0,0,0,0,0,-1,1574,1457,0,0
357,-433,0,0,0,0,0,0,0,0,0,-1,1581,1457,0,0
364,-433,0,0,0,0,0,0,0,0,0,-1,1588,1457,0,0
371,-433,0,0,0,0,0,0,0,0,0,-1,1595,1457,0,0
378,-433,0,0,0,0,0,0,0,0,0,-1,1602,1457,0,0
385,-433,0,0,0,0,0,0,0,0,0,-1,1609,1457,0,0
392,-433,0,0,0,0,0,0,0,0,0,-1,1616,1457,0,0
399,-433,0,0,0,0,0,0,0,0,0,-1,1623,1457,0,0
406,-433,0,0,0,0,0,0,0,0,0,-1,1630,1457,0,0
413,-433,0,0,0,0,0,0,0,0,0,-1,1637,1457,0,0
420,-433,0,0,0,0,0,0,0,0,0,-1,1644,1457,0,0
427,-433,0,0,0,0,0,0,0,0,0,-1,1651,1457,0,0
434,-433,0,0,0,0,0,0,0,0,0,-1,1658,1457,0,0
441,-433,0,0,0,0,0,0,0,0,0,-1,1665,1457,0,0
448,-433,0,0,0,0,0,0,0,0,0,-1,1672,1457,0,0
455,-433,0,0,0,0,0,0,0,0,0,-1,1679,1457,0,0
462,-433,0,0,0,0,0,0,0,0,0,-1,1686,1457,0,0
469,-433,0,0,0,0,0,0,0,0,0,-1,1693,1457,0,0
476,-433,0,0,0,0,0,0,0,0,0,-1,1700,1457,0,0
483,-433,0,0,0,0,0,0,0,0,0,-1,1707,1457,0,0
490,-433,0,0,0,0,0,0,0,0,0,-1,1714,1457,0,0
497,-433,0,0,0,0,0,0,0,0,0,-1,1721,1457,0,0
504,-433,4.18787,-0.144775,0,0,0,0,0,0,0,-1,1728,1457,4.18782,0.144732
511,-433,4.26306,0.0600586,-0.0170626,-0.0168817,0.00679378,-0.0101778,-0.0237665,0.792053,0.0137686,0.0444772,1735,1457,4.26311,-0.0600419
518,-433,4.30457,0.459717,-0.0141322,-0.0175838,0.0117181,-0.00401353,-0.0277025,0.712285,0.0172865,0.044472,1742,1457,4.30452,-0.459689
525,-433,4.31763,0.255493,-0.0112717,-0.0170804,0.0155458,0.00163872,-0.0299908,0.693049,0.0205619,0.0484185,1749,1457,4.31757,-0.255526
532,-433,4.03113,0.280029,-0.00843445,-0.0143607,0.0188895,0.00772291,-0.0305181,0.707599,0.0233494,0.0486043,1756,1457,4.03113,-0.280082
539,-433,2.6261,0.0114746,-0.00626424,-0.0102011,0.0211637,0.0130224,-0.0294877,0.739027,0.0251494,0.0464995,1763,1457,2.62606,-0.0114904
546,-433,2.7666,0.502441,-0.00503354,-0.00556623,0.0222442,0.0169459,-0.0275457,0.779412,0.0259291,0.0454911,1770,1457,2.76661,-0.502428
553,-433,2.76721,1.26013,-0.0040683,-0.0016772,0.0221773,0.0193368,-0.0250823,0.812326,0.0257168,0.0431869,1777,1457,2.76722,-1.26007
560,-433,2.77185,1.50879,-0.00402642,0.00132066,0.0210553,0.0198715,-0.0225772,0.848549,0.0245244,0.0468055,1784,1457,2.77188,-1.50883
567,-433,2.77917,1.55176,0,0,0,0,0,0,0,-1,1791,1457,2.77912,-1.55176
574,-433,3.21008,1.65027,0,0,0,0,0,0,0,-1,1798,1457,3.2101,-1.65026
581,-433,2.85168,1.02942,0,0,0,0,0,0,0,-1,1805,1457,2.85163,-1.02943
588,-433,2.96997,1.35229,-0.00585775,0.00638598,0.0106289,0.0125299,-0.0120017,1.04668,0.0141644,0.0264872,1812,1457,2.96995,-1.35227
595,-433,2.98596,1.30481,-0.0054955,0.006138,0.007846,0.0100882,-0.00944575,1.10437,0.01128,0.0188469,1819,1457,2.98601,-1.30479
602,-433,3.0365,1.28027,-0.00545232,0.00515111,0.00519327,0.00727087,-0.00757207,1.18326,0.00857016,0.0185483,1826,1457,3.03649,-1.28029
609,-433,3.02661,1.25305,-0.00557815,0.00420296,0.00304366,0.00507273,-0.00644793,1.29245,0.00666723,0.0138191,1833,1457,3.02662,-1.25309
616,-433,3.03125,1.22766,-0.00502723,0.00195783,0.00133978,0.00220599,-0.00527539,1.38765,0.0044389,0.0117789,1840,1457,3.03123,-1.22766
623,-433,3.05603,1.17908,-0.00426547,0.00182448,0.000562664,0.00187603,-0.00431702,1.47943,0.00366697,0.0101574,1847,1457,3.05608,-1.17905
630,-433,3.04114,1.14185,-0.00314645,0.00253906,0.000477217,0.00257884,-0.00318623,1.48764,0.00333461,0.0127985,1854,1457,3.04118,-1.14184
637,-433,3.01367,1.10938,-0.00244837,0.00309131,0.00054218,0.00314387,-0.00250093,1.47415,0.00326607,0.013223,1861,1457,3.01366,-1.10934
644,-433,3.03296,1.07019,-0.00140415,0.00435068,0.000611998,0.00441504,-0.00146851,1.46601,0.00353602,0.0134308,1868,1457,3.03294,-1.07017
651,-433,3.03589,1.04822,1.90632e-05,0.00604684,0.000814522,0.00615497,-8.90621e-05,1.43882,0.00413332,0.0110192,1875,1457,3.03587,-1.04822
658,-433,3.02136,0.999878,0.00179208,0.00813633,0.000950608,0.0082757,0.00165271,1.42522,0.00505707,0.0113583,1882,1457,3.02138,-0.999939
665,-433,2.99915,0.958008,0.0045795,0.0103756,0.000767453,0.0104755,0.0044796,1.44136,0.00606909,0.0171397,1889,1457,2.99918,-0.957979
672,-433,3.09045,1.03015,0.00838298,0.0131101,0.000407894,0.013145,0.00834804,1.48535,0.00768103,0.0337866,1896,1457,3.09046,-1.03012
679,-433,3.07495,1.19958,0.0137368,0.0157732,-0.00044182,0.0158649,0.0136451,-1.36609,0.00991978,0.0397867,1903,1457,3.0749,-1.19962
686,-433,2.92761,1.29688,0.0208272,0.018408,-0.00213181,0.0220686,0.0171665,-0.527346,0.0133811,0.04444,1910,1457,2.92766,-1.29682
693,-433,2.87317,1.25635,0,0,0,0,0,0,0,-1,1917,1457,2.87317,-1.2564
700,-433,2.82483,0.822754,0,0,0,0,0,0,0,-1,1924,1457,2.82488,-0.822814
707,-433,3.34875,0.689087,0,0,0,0,0,0,0,-1,1931,1457,3.34882,-0.689043
714,-433,0,0,0,0,0,0,0,0,0,-1,1938,1457,0,0
721,-433,0,0,0,0,0,0,0,0,0,-1,1945,1457,0,0
728,-433,0,0,0,0,0,0,0,0,0,-1,1952,1457,0,0
735,-433,0,0,0,0,0,0,0,0,0,-1,1959,1457,0,0
742,-433,0,0,0,0,0,0,0,0,0,-1,1966,1457,0,0
749,-433,0,0,0,0,0,0,0,0,0,-1,1973,1457,0,0
756,-433,0,0,0,0,0,0,0,0,0,-1,1980,1457,0,0
763,-433,0,0,0,0,0,0,0,0,0,-1,1987,1457,0,0
770,-433,0,0,0,0,0,0,0,0,0,-1,1994,1457,0,0
777,-433,0,0,0,0,0,0,0,0,0,-1,2001,1457,0,0
784,-433,0,0,0,0,0,0,0,0,0,-1,2008,1457,0,0
791,-433,0,0,0,0,0,0,0,0,0,-1,2015,1457,0,0
798,-433,0,0,0,0,0,0,0,0,0,-1,2022,1457,0,0
805,-433,0,0,0,0,0,0,0,0,0,-1,2029,1457,0,0
812,-433,0,0,0,0,0,0,0,0,0,-1,2036,1457,0,0
-700,-440,0,0,0,0,0,0,0,0,0,-1,524,1464,0,0
-693,-440,0,0,0,0,0,0,0,0,0,-1,531,1464,0,0
-686,-440,0,0,0,0,0,0,0,0,0,-1,538,1464,0,0
-679,-440,0,0,0,0,0,0,0,0,0,-1,545,1464,0,0
-672,-440,0,0,0,0,0,0,0,0,0,-1,552,1464,0,0
-665,-440,0,0,0,0,0,0,0,0,0,-1,559,1464,0,0
-658,-440,0,0,0,0,0,0,0,0,0,-1,566,1464,0,0
-651,-440,0,0,0,0,0,0,0,0,0,-1,573,1464,0,0
-644,-440,0,0,0,0,0,0,0,0,0,-1,580,1464,0,0
-637,-440,0,0,0,0,0,0,0,0,0,-1,587,1464,0,0
-630,-440,0,0,0,0,0,0,0,0,0,-1,594,1464,0,0
-623,-440,0,0,0,0,0,0,0,0,0,-1,601,1464,0,0
-616,-440,0,0,0,0,0,0,0,0,0,-1,608,1464,0,0
-609,-440,0,0,0,0,0,0,0,0,0,-1,615,1464,0,0
-602,-440,0,0,0,0,0,0,0,0,0,-1,622,1464,0,0
-595,-440,0,0,0,0,0,0,0,0,0,-1,629,1464,0,0
-588,-440,0,0,0,0,0,0,0,0,0,-1,636,1464,0,0
-581,-440,0.882935,-1.53894,0,0,0,0,0,0,0,-1,643,1464,0.882943,1.53891
-574,-440,0.361206,-0.0803223,0.0111844,0.02251,0.00256879,0.0230654,0.010629,1.35786,0.0133304,0.0446153,650,1464,0.361222,0.0803537
-567,-440,0.257629,0.393188,0.010326,0.0200024,0.00414583,0.0215357,0.00879273,1.21655,0.0125032,0.045796,657,1464,0.25764,-0.393222
-560,-440,-0.339966,0.346313,0.00945939,0.0170993,0.00472531,0.0193556,0.00720312,1.12532,0.0112961,0.0436131,664,1464,-0.339947,-0.346327
-553,-440,0.45813,1.38672,0.00831075,0.0140172,0.00470177,0.0166638,0.00566421,1.05812,0.00978382,0.0440326,671,1464,0.45815,-1.38672
-546,-440,0.18573,1.27478,0.006966,0.0110945,0.00449723,0.0139786,0.00408189,1.00056,0.00830004,0.0457909,678,1464,0.18574,-1.27478
-539,-440,0.269409,1.11499,0,0,0,0,0,0,0,-1,685,1464,0.26939,-1.115
-532,-440,0.62439,0.965454,0.00463421,0.0053859,0.00390865,0.00893674,0.00108338,0.833329,0.00563154,0.0347894,692,1464,0.624388,-0.965512
-525,-440,0.667236,1.02271,0.00384605,0.00289011,0.00315649,0.00656055,0.000175609,0.710257,0.00431636,0.0147796,699,1464,0.667235,-1.02275
-518,-440,0.6604,1.07324,0.00314565,0.00115726,0.00222152,0.0045853,-0.000282384,0.575,0.00315521,0.0118072,706,1464,0.660375,-1.0732
-511,-440,0.665771,1.13428,0.00225936,2.75192e-05,0.00147647,0.00299418,-0.000707302,0.461796,0.00226894,0.0142954,713,1464,0.665744,-1.13425
-504,-440,0.695801,1.15906,0.000998667,-0.000785007,0.000954958,0.00141347,-0.00119981,0.409782,0.00151046,0.018519,720,1464,0.695792,-1.159
-497,-440,0.693115,1.15723,-1.71886e-05,-0.00154117,0.000745863,0.000287095,-0.00184545,0.387351,0.00133632,0.0217827,727,1464,0.693118,-1.15725
-490,-440,0.654236,1.15295,-0.000245522,-0.00210297,0.000500361,-0.00011931,-0.00222918,0.247087,0.00144799,0.0214556,734,1464,0.654221,-1.15297
-483,-440,0.661865,1.22107,-0.000471591,-0.00213521,0.000289711,-0.000422583,-0.00218422,0.167575,0.00133772,0.0190743,741,1464,0.661882,-1.22111
-476,-440,0.685425,1.27441,-0.00141673,-0.00171467,-0.000204321,-0.00131284,-0.00181856,-0.470408,0.00108387,0.0132202,748,1464,0.685446,-1.27447
-469,-440,0.6875,1.30237,-0.0031079,-0.00149913,-0.000526883,-0.00134193,-0.0032651,-1.28085,0.00189504,0.0121435,755,1464,0.687504,-1.30234
-462,-440,0.701904,1.34241,-0.00499989,0.00099921,-0.00160534,0.00140178,-0.00540246,-1.32509,0.00414861,0.0121103,762,1464,0.701874,-1.34236
-455,-440,0.678223,1.40686,-0.00704689,0.00287987,-0.00299026,0.00371104,-0.00787805,-1.29968,0.00683362,0.0130235,769,1464,0.678224,-1.40681
-448,-440,0.664063,1.44238,-0.00948065,0.00453081,-0.00455187,0.00587971,-0.0108295,-1.2827,0.00978717,0.0218287,776,1464,0.664058,-1.44241
-441,-440,0.476196,1.60278,-0.0119487,0.00713355,-0.00707941,0.00947313,-0.0142883,-1.25162,0.0138122,0.0344428,783,1464,0.476196,-1.60283
-434,-440,0.18634,1.89795,-0.0142447,0.0104491,-0.009799,0.013865,-0.0176606,-1.23537,0.0182453,0.0414062,790,1464,0.186316,-1.89797
-427,-440,0.16272,2.3446,-0.0162432,0.0136724,-0.0137925,0.0190608,-0.0216316,-1.19835,0.0235094,0.0414626,797,1464,0.162729,-2.34459
-420,-440,0.198181,1.99561,-0.0173386,0.0170243,-0.018899,0.0253844,-0.0256988,-1.15431,0.0294931,0.0433145,804,1464,0.198169,-1.99559
-413,-440,0.194519,1.5105,-0.0168817,0.0196257,-0.0254052,0.0326549,-0.029911,-1.09692,0.036134,0.0463553,811,1464,0.194528,-1.51052
-406,-440,-1.23285,2.34265,-0.0148292,0.0216177,-0.0330465,0.0411324,-0.0343439,-1.03738,0.043635,0.0446046,818,1464,-1.23286,-2.34265
-399,-440,-0.976074,1.47656,0,0,0,0,0,0,0,-1,825,1464,-0.976092,-1.47654
-392,-440,-0.0723877,0.657715,0,0,0,0,0,0,0,-1,832,1464,-0.0724114,-0.657659
-385,-440,0.239502,0.559204,0.00651391,0.010512,-0.0553195,0.0638686,-0.0468427,-0.803459,0.0641707,0.0463868,839,1464,0.239518,-0.559159
-378,-440,0.671814,0.240845,0,0,0,0,0,0,0,-1,846,1464,0.671786,-0.240856
-371,-440,0,0,0,0,0,0,0,0,0,-1,853,1464,0,0
-364,-440,0,0,0,0,0,0,0,0,0,-1,860,1464,0,0
-357,-440,0,0,0,0,0,0,0,0,0,-1,867,1464,0,0
-350,-440,0,0,0,0,0,0,0,0,0,-1,874,1464,0,0
-343,-440,0,0,0,0,0,0,0,0,0,-1,881,1464,0,0
-336,-440,0,0,0,0,0,0,0,0,0,-1,888,1464,0,0
-329,-440,0,0,0,0,0,0,0,0,0,-1,895,1464,0,0
-322,-440,0,0,0,0,0,0,0,0,0,-1,902,1464,0,0
-315,-440,0,0,0,0,0,0,0,0,0,-1,909,1464,0,0
-308,-440,0,0,0,0,0,0,0,0,0,-1,916,1464,0,0
-301,-440,0,0,0,0,0,0,0,0,0,-1,923,1464,0,0
-294,-440,0,0,0,0,0,0,0,0,0,-1,930,1464,0,0
-287,-440,0,0,0,0,0,0,0,0,0,-1,937,1464,0,0
-280,-440,0,0,0,0,0,0,0,0,0,-1,944,1464,0,0
-273,-440,0,0,0,0,0,0,0,0,0,-1,951,1464,0,0
-266,-440,0,0,0,0,0,0,0,0,0,-1,958,1464,0,0
-259,-440,0,0,0,0,0,0,0,0,0,-1,965,1464,0,0
-252,-440,0,0,0,0,0,0,0,0,0,-1,972,1464,0,0
-245,-440,0,0,0,0,0,0,0,0,0,-1,979,1464,0,0
-238,-440,0,0,0,0,0,0,0,0,0,-1,986,1464,0,0
-231,-440,0,0,0,0,0,0,0,0,0,-1,993,1464,0,0
-224,-440,0,0,0,0,0,0,0,0,0,-1,1000,1464,0,0
-217,-440,0,0,0,0,0,0,0,0,0,-1,1007,1464,0,0
-210,-440,0,0,0,0,0,0,0,0,0,-1,1014,1464,0,0
-203,-440,0,0,0,0,0,0,0,0,0,-1,1021,1464,0,0
-196,-440,0,0,0,0,0,0,0,0,0,-1,1028,1464,0,0
-189,-440,0,0,0,0,0,0,0,0,0,-1,1035,1464,0,0
-182,-440,0,0,0,0,0,0,0,0,0,-1,1042,1464,0,0
-175,-440,0,0,0,0,0,0,0,0,0,-1,1049,1464,0,0
-168,-440,0,0,0,0,0,0,0,0,0,-1,1056,1464,0,0
-161,-440,0,0,0,0,0,0,0,0,0,-1,1063,1464,0,0
-154,-440,0,0,0,0,0,0,0,0,0,-1,1070,1464,0,0
-147,-440,0,0,0,0,0,0,0,0,0,-1,1077,1464,0,0
-140,-440,0,0,0,0,0,0,0,0,0,-1,1084,1464,0,0
-133,-440,0,0,0,0,0,0,0,0,0,-1,1091,1464,0,0
-126,-440,0,0,0,0,0,0,0,0,0,-1,1098,1464,0,0
-119,-440,0,0,0,0,0,0,0,0,0,-1,1105,1464,0,0
-112,-440,0,0,0,0,0,0,0,0,0,-1,1112,1464,0,0
-105,-440,0,0,0,0,0,0,0,0,0,-1,1119,1464,0,0
-98,-440,0,0,0,0,0,0,0,0,0,-1,1126,1464,0,0
-91,-440,0,0,0,0,0,0,0,0,0,-1,1133,1464,0,0
-84,-440,0,0,0,0,0,0,0,0,0,-1,1140,1464,0,0
-77,-440,0,0,0,0,0,0,0,0,0,-1,1147,1464,0,0
-70,-440,0,0,0,0,0,0,0,0,0,-1,1154,1464,0,0
-63,-440,0,0,0,0,0,0,0,0,0,-1,1161,1464,0,0
-56,-440,0,0,0,0,0,0,0,0,0,-1,1168,1464,0,0
-49,-440,0,0,0,0,0,0,0,0,0,-1,1175,1464,0,0
-42,-440,0,0,0,0,0,0,0,0,0,-1,1182,1464,0,0
-35,-440,0,0,0,0,0,0,0,0,0,-1,1189,1464,0,0
-28,-440,0,0,0,0,0,0,0,0,0,-1,1196,1464,0,0
-21,-440,0,0,0,0,0,0,0,0,0,-1,1203,1464,0,0
-14,-440,0,0,0,0,0,0,0,0,0,-1,1210,1464,0,0
-7,-440,0,0,0,0,0,0,0,0,0,-1,1217,1464,0,0
0,-440,0,0,0,0,0,0,0,0,0,-1,1224,1464,0,0
7,-440,0,0,0,0,0,0,0,0,0,-1,1231,1464,0,0
14,-440,0,0,0,0,0,0,0,0,0,-1,1238,1464,0,0
21,-440,0,0,0,0,0,0,0,0,0,-1,1245,1464,0,0
28,-440,0,0,0,0,0,0,0,0,0,-1,1252,1464,0,0
35,-440,0,0,0,0,0,0,0,0,0,-1,1259,1464,0,0
42,-440,0,0,0,0,0,0,0,0,0,-1,1266,1464,0,0
49,-440,0,0,0,0,0,0,0,0,0,-1,1273,1464,0,0
56,-440,0,0,0,0,0,0,0,0,0,-1,1280,1464,0,0
63,-440,0,0,0,0,0,0,0,0,0,-1,1287,1464,0,0
70,-440,0,0,0,0,0,0,0,0,0,-1,1294,1464,0,0
77,-440,0,0,0,0,0,0,0,0,0,-1,1301,1464,0,0
84,-440,0,0,0,0,0,0,0,0,0,-1,1308,1464,0,0
91,-440,0,0,0,0,0,0,0,0,0,-1,1315,1464,0,0
98,-440,0,0,0,0,0,0,0,0,0,-1,1322,1464,0,0
105,-440,0,0,0,0,0,0,0,0,0,-1,1329,1464,0,0
112,-440,0,0,0,0,0,0,0,0,0,-1,1336,1464,0,0
119,-440,0,0,0,0,0,0,0,0,0,-1,1343,1464,0,0
126,-440,0,0,0,0,0,0,0,0,0,-1,1350,1464,0,0
133,-440,0,0,0,0,0,0,0,0,0,-1,1357,1464,0,0
140,-440,0,0,0,0,0,0,0,0,0,-1,1364,1464,0,0
147,-440,0,0,0,0,0,0,0,0,0,-1,1371,1464,0,0
154,-440,0,0,0,0,0,0,0,0,0,-1,1378,1464,0,0
161,-440,0,0,0,0,0,0,0,0,0,-1,1385,1464,0,0
168,-440,0,0,0,0,0,0,0,0,0,-1,1392,1464,0,0
175,-440,0,0,0,0,0,0,0,0,0,-1,1399,1464,0,0
182,-440,0,0,0,0,0,0,0,0,0,-1,1406,1464,0,0
189,-440,0,0,0,0,0,0,0,0,0,-1,1413,1464,0,0
196,-440,0,0,0,0,0,0,0,0,0,-1,1420,1464,0,0
203,-440,0,0,0,0,0,0,0,0,0,-1,1427,1464,0,0
210,-440,0,0,0,0,0,0,0,0,0,-1,1434,1464,0,0
217,-440,0,0,0,0,0,0,0,0,0,-1,1441,1464,0,0
224,-440,0,0,0,0,0,0,0,0,0,-1,1448,1464,0,0
231,-440,0,0,0,0,0,0,0,0,0,-1,1455,1464,0,0
238,-440,0,0,0,0,0,0,0,0,0,-1,1462,1464,0,0
245,-440,0,0,0,0,0,0,0,0,0,-1,1469,1464,0,0
252,-440,0,0,0,0,0,0,0,0,0,-1,1476,1464,0,0
259,-440,0,0,0,0,0,0,0,0,0,-1,1483,1464,0,0
266,-440,0,0,0,0,0,0,0,0,0,-1,1490,1464,0,0
273,-440,0,0,0,0,0,0,0,0,0,-1,1497,1464,0,0
280,-440,0,0,0,0,0,0,0,0,0,-1,1504,1464,0,0
287,-440,0,0,0,0,0,0,0,0,0,-1,1511,1464,0,0
294,-440,0,0,0,0,0,0,0,0,0,-1,1518,1464,0,0
301,-440,0,0,0,0,0,0,0,0,0,-1,1525,1464,0,0
308,-440,0,0,0,0,0,0,0,0,0,-1,1532,1464,0,0
315,-440,0,0,0,0,0,0,0,0,0,-1,1539,1464,0,0
322,-440,0,0,0,0,0,0,0,0,0,-1,1546,1464,0,0
329,-440,0,0,0,0,0,0,0,0,0,-1,1553,1464,0,0
336,-440,0,0,0,0,0,0,0,0,0,-1,1560,1464,0,0
343,-440,0,0,0,0,0,0,0,0,0,-1,1567,1464,0,0
350,-440,0,0,0,0,0,0,0,0,0,-1,1574,1464,0,0
357,-440,0,0,0,0,0,0,0,0,0,-1,1581,1464,0,0
364,-440,0,0,0,0,0,0,0,0,0,-1,1588,1464,0,0
371,-440,0,0,0,0,0,0,0,0,0,-1,1595,1464,0,0
378,-440,0,0,0,0,0,0,0,0,0,-1,1602,1464,0,0
385,-440,0,0,0,0,0,0,0,0,0,-1,1609,1464,0,0
392,-440,0,0,0,0,0,0,0,0,0,-1,1616,1464,0,0
399,-440,0,0,0,0,0,0,0,0,0,-1,1623,1464,0,0
406,-440,0,0,0,0,0,0,0,0,0,-1,1630,1464,0,0
413,-440,0,0,0,0,0,0,0,0,0,-1,1637,1464,0,0
420,-440,0,0,0,0,0,0,0,0,0,-1,1644,1464,0,0
427,-440,0,0,0,0,0,0,0,0,0,-1,1651,1464,0,0
434,-440,0,0,0,0,0,0,0,0,0,-1,1658,1464,0,0
441,-440,0,0,0,0,0,0,0,0,0,-1,1665,1464,0,0
448,-440,0,0,0,0,0,0,0,0,0,-1,1672,1464,0,0
455,-440,0,0,0,0,0,0,0,0,0,-1,1679,1464,0,0
462,-440,0,0,0,0,0,0,0,0,0,-1,1686,1464,0,0
469,-440,0,0,0,0,0,0,0,0,0,-1,1693,1464,0,0
476,-440,0,0,0,0,0,0,0,0,0,-1,1700,1464,0,0
483,-440,0,0,0,0,0,0,0,0,0,-1,1707,1464,0,0
490,-440,0,0,0,0,0,0,0,0,0,-1,1714,1464,0,0
497,-440,4.37427,0.421143,0,0,0,0,0,0,0,-1,1721,1464,4.37423,-0.421176
504,-440,3.33154,0.568481,0,0,0,0,0,0,0,-1,1728,1464,3.33153,-0.568446
511,-440,3.75867,0.155762,-0.0142389,-0.0190888,0.00720302,-0.00906364,-0.0242642,0.623029,0.0141575,0.0461459,1735,1464,3.75866,-0.15581
518,-440,3.71729,0.411011,-0.0111805,-0.0190797,0.0108501,-0.00358356,-0.0266767,0.610845,0.0167184,0.0437253,1742,1464,3.71728,-0.410973
525,-440,3.89514,0.538696,-0.00861616,-0.0183852,0.0137491,0.00109026,-0.0280916,0.614721,0.0191015,0.0454824,1749,1464,3.89514,-0.538727
532,-440,3.53223,0.626709,-0.00597933,-0.0158251,0.0163916,0.00621265,-0.028017,0.639519,0.0210567,0.0433227,1756,1464,3.5322,-0.626682
539,-440,2.70105,1.57227,-0.0037211,-0.0120614,0.0181875,0.0107682,-0.0265508,0.672702,0.0221791,0.0459427,1763,1464,2.70103,-1.57227
546,-440,3.11377,1.63489,0,0,0,0,0,0,0,-1,1770,1464,3.11375,-1.63487
553,-440,2.58875,1.37805,-0.000785098,-0.00408222,0.0191726,0.0168097,-0.021677,0.742511,0.0222794,0.0444622,1777,1464,2.58878,-1.37799
560,-440,2.54639,1.43201,-0.000439907,-0.00113281,0.01832,0.0175369,-0.0191096,0.775944,0.0211644,0.0450089,1784,1464,2.54642,-1.43199
567,-440,2.6333,1.36389,0,0,0,0,0,0,0,-1,1791,1464,2.63324,-1.36385
574,-440,3.05212,1.52795,-0.00186369,0.00311297,0.013733,0.0145812,-0.0133319,0.875023,0.016121,0.047221,1798,1464,3.05217,-1.52797
581,-440,3.04272,1.4762,-0.0026774,0.00396424,0.0114385,0.0125542,-0.0112674,0.926674,0.0137601,0.0324417,1805,1464,3.04268,-1.47615
588,-440,2.98181,1.4054,-0.00286476,0.00470956,0.00893512,0.010627,-0.00878218,0.985847,0.0112227,0.0207922,1812,1464,2.98187,-1.40543
595,-440,2.98193,1.33093,-0.00301735,0.00467183,0.00661701,0.00848006,-0.00682558,1.04857,0.00885391,0.0172721,1819,1464,2.9819,-1.33096
602,-440,2.99951,1.27271,-0.00361008,0.00393267,0.00437114,0.00593452,-0.00561193,1.14133,0.00666721,0.0173442,1826,1464,2.99951,-1.2727
609,-440,2.98975,1.23938,-0.00425472,0.00323548,0.00257796,0.00403698,-0.00505622,1.26936,0.00526095,0.0145704,1833,1464,2.9897,-1.23938
616,-440,3.00403,1.24036,-0.00444888,0.00151635,0.00105647,0.00169793,-0.00463046,1.40059,0.0037822,0.0153479,1840,1464,3.00397,-1.24034
623,-440,2.9989,1.1886,-0.0043656,0.00152796,0.000508522,0.00157152,-0.00440916,1.48535,0.00358015,0.0128977,1847,1464,2.99889,-1.18866
630,-440,2.9939,1.13843,-0.00379403,0.00250089,0.000589087,0.00255554,-0.00384868,1.47829,0.00372252,0.0108667,1854,1464,2.99394,-1.13841
637,-440,2.98792,1.11182,-0.0034267,0.00320721,0.000736197,0.00328793,-0.00350742,1.46159,0.00392398,0.0145172,1861,1464,2.98791,-1.11178
644,-440,3.01892,1.06677,-0.0026307,0.00472749,0.0007956,0.00481253,-0.00271574,1.46431,0.00440228,0.0131121,1868,1464,3.01889,-1.06672
651,-440,3.02124,1.04419,-0.00134211,0.00677768,0.000993589,0.00689749,-0.00146192,1.45079,0.0051552,0.0105833,1875,1464,3.02123,-1.04414
658,-440,2.97742,1.00244,0.000540298,0.00941913,0.00116794,0.00957019,0.000389235,1.44217,0.00625442,0.0131008,1882,1464,2.97744,-1.0025
665,-440,2.86096,0.821777,0.00370606,0.0123892,0.00104887,0.0125141,0.00358116,1.45227,0.007442,0.028005,1889,1464,2.86093,-0.821821
672,-440,2.9469,0.871582,0.00827822,0.0159217,0.000740118,0.0159927,0.00820722,1.47515,0.00923445,0.0417013,1896,1464,2.94694,-0.871616
679,-440,3.31396,1.12219,0.0148161,0.0194977,-6.53989e-05,0.0194986,0.0148152,-1.55683,0.0117532,0.0443079,1903,1464,3.31394,-1.12218
686,-440,3.06628,1.30713,0.0235253,0.023035,-0.00174961,0.0250468,0.0215134,-0.715783,0.0156536,0.0452276,1910,1464,3.06628,-1.30719
693,-440,3.27039,1.4469,0.0345829,0.0264564,-0.00469627,0.0367298,0.0243096,-0.428769,0.0215731,0.0473913,1917,1464,3.2704,-1.44685
700,-440,3.6582,1.29333,0,0,0,0,0,0,0,-1,1924,1464,3.65822,-1.2933
707,-440,0,0,0,0,0,0,0,0,0,-1,1931,1464,0,0
714,-440,0,0,0,0,0,0,0,0,0,-1,1938,1464,0,0
721,-440,0,0,0,0,0,0,0,0,0,-1,1945,1464,0,0
728,-440,0,0,0,0,0,0,0,0,0,-1,1952,1464,0,0
735,-440,0,0,0,0,0,0,0,0,0,-1,1959,1464,0,0
742,-440,0,0,0,0,0,0,0,0,0,-1,1966,1464,0,0
749,-440,0,0,0,0,0,0,0,0,0,-1,1973,1464,0,0
756,-440,0,0,0,0,0,0,0,0,0,-1,1980,1464,0,0
763,-440,0,0,0,0,0,0,0,0,0,-1,1987,1464,0,0
770,-440,0,0,0,0,0,0,0,0,0,-1,1994,1464,0,0
777,-440,0,0,0,0,0,0,0,0,0,-1,2001,1464,0,0
784,-440,0,0,0,0,0,0,0,0,0,-1,2008,1464,0,0
791,-440,0,0,0,0,0,0,0,0,0,-1,2015,1464,0,0
798,-440,0,0,0,0,0,0,0,0,0,-1,2022,1464,0,0
805,-440,0,0,0,0,0,0,0,0,0,-1,2029,1464,0,0
812,-440,0,0,0,0,0,0,0,0,0,-1,2036,1464,0,0
-700,-447,0,0,0,0,0,0,0,0,0,-1,524,1471,0,0
-693,-447,0,0,0,0,0,0,0,0,0,-1,531,1471,0,0
-686,-447,0,0,0,0,0,0,0,0,0,-1,538,1471,0,0
-679,-447,0,0,0,0,0,0,0,0,0,-1,545,1471,0,0
-672,-447,0,0,0,0,0,0,0,0,0,-1,552,1471,0,0
-665,-447,0,0,0,0,0,0,0,0,0,-1,559,1471,0,0
-658,-447,0,0,0,0,0,0,0,0,0,-1,566,1471,0,0
-651,-447,0,0,0,0,0,0,0,0,0,-1,573,1471,0,0
-644,-447,0,0,0,0,0,0,0,0,0,-1,580,1471,0,0
-637,-447,0,0,0,0,0,0,0,0,0,-1,587,1471,0,0
-630,-447,0,0,0,0,0,0,0,0,0,-1,594,1471,0,0
-623,-447,0,0,0,0,0,0,0,0,0,-1,601,1471,0,0
-616,-447,0,0,0,0,0,0,0,0,0,-1,608,1471,0,0
-609,-447,0,0,0,0,0,0,0,0,0,-1,615,1471,0,0
-602,-447,0,0,0,0,0,0,0,0,0,-1,622,1471,0,0
-595,-447,0,0,0,0,0,0,0,0,0,-1,629,1471,0,0
-588,-447,0,0,0,0,0,0,0,0,0,-1,636,1471,0,0
-581,-447,0.532715,-0.538452,0,0,0,0,0,0,0,-1,643,1471,0.532712,0.538448
-574,-447,0.229614,-0.120605,0.009753,0.0262601,0.0031356,0.0268357,0.00917745,1.38926,0.0157494,0.0450014,650,1471,0.229617,0.120589
-567,-447,-0.0665283,0.271484,0.00960601,0.0227702,0.00399711,0.0238888,0.0084874,1.29792,0.0139834,0.0432248,657,1471,-0.0665549,-0.271434
-560,-447,-0.35437,0.738403,0.00906793,0.0189061,0.00417284,0.0204376,0.00753643,1.21904,0.0119344,0.0431106,664,1471,-0.354362,-0.738396
-553,-447,0.450745,0.985474,0.00814819,0.0149022,0.00393743,0.0167124,0.00633795,1.13986,0.00974229,0.0429895,671,1471,0.450719,-0.985493
-546,-447,0.255127,1.06653,0.0069027,0.0111724,0.00364505,0.0132618,0.00481335,1.05031,0.00775199,0.0445933,678,1471,0.255122,-1.06658
-539,-447,0.292114,1.06885,0,0,0,0,0,0,0,-1,685,1471,0.292141,-1.06879
-532,-447,0.599854,1.03564,0.00450943,0.00454589,0.00313486,0.00766257,0.00139275,0.788305,0.00471323,0.0426384,692,1471,0.599849,-1.03559
-525,-447,0.737488,1.03882,0.00370371,0.0018222,0.00254679,0.00547794,4.79664e-05,0.608478,0.00363608,0.0268918,699,1471,0.737498,-1.03886
-518,-447,0.726318,1.06079,0.00306008,-5.40457e-05,0.00172204,0.00382462,-0.000818589,0.417833,0.0028619,0.0149008,706,1471,0.726312,-1.06082
-511,-447,0.716309,1.11426,0.00223358,-0.00123597,0.00113239,0.00257046,-0.00157285,0.289155,0.00241514,0.0142159,713,1471,0.71631,-1.11428
-504,-447,0.737488,1.15442,0.00096895,-0.00202199,0.000775259,0.00115795,-0.002211,0.239131,0.00197649,0.0197489,720,1471,0.73747,-1.15445
-497,-447,0.723083,1.17944,1.64584e-05,-0.00265365,0.000684169,0.000181556,-0.00281875,0.236785,0.00194252,0.0231667,727,1471,0.723076,-1.17948
-490,-447,0.708252,1.18018,-0.000134215,-0.0030417,0.00053826,-3.77666e-05,-0.00313815,0.177303,0.00207963,0.0224366,734,1471,0.708259,-1.18015
-483,-447,0.696594,1.22949,-0.000302752,-0.00279945,0.000377488,-0.000246926,-0.00285528,0.146824,0.00182678,0.0203971,741,1471,0.696593,-1.22944
-476,-447,0.711487,1.27979,-0.00109777,-0.00206416,-7.11673e-05,-0.00109255,-0.00206937,-0.0731166,0.00119537,0.0146284,748,1471,0.711465,-1.27983
-469,-447,0.728333,1.31079,-0.00255149,-0.00147625,-0.000430313,-0.00132525,-0.00270249,-1.2333,0.00156038,0.0134392,755,1471,0.728308,-1.31079
-462,-447,0.730713,1.34888,-0.004263,0.00101578,-0.00144977,0.00138774,-0.00463496,-1.31965,0.00364178,0.0122243,762,1471,0.730734,-1.34892
-455,-447,0.697937,1.42017,-0.00623411,0.0028708,-0.00270365,0.00361312,-0.00697642,-1.30284,0.00621581,0.0124918,769,1471,0.697955,-1.42018
-448,-447,0.682678,1.43542,-0.00848358,0.00442127,-0.00417964,0.00565671,-0.00971902,-1.2834,0.00897986,0.0164044,776,1471,0.6827,-1.43541
-441,-447,0.635803,1.46021,-0.0106693,0.00682647,-0.00664634,0.0090649,-0.0129078,-1.24594,0.0127504,0.0260314,783,1471,0.635818,-1.4602
-434,-447,0.52594,1.77051,-0.0126974,0.00980004,-0.00922281,0.0130976,-0.015995,-1.22742,0.0168243,0.0345384,790,1471,0.525965,-1.77055
-427,-447,0.554321,2.06018,-0.0143657,0.0124501,-0.0131143,0.0177974,-0.019713,-1.18363,0.021666,0.039723,797,1471,0.554323,-2.06017
-420,-447,0.363464,1.9696,-0.0151715,0.0151561,-0.0181108,0.0236131,-0.0236285,-1.13393,0.0272749,0.0439009,804,1471,0.363464,-1.96962
-413,-447,-0.010376,1.9043,-0.0145806,0.0170658,-0.0244554,0.0303706,-0.0278854,-1.07254,0.0336443,0.0471791,811,1471,-0.0103843,-1.90431
-406,-447,-0.272583,1.73401,-0.0127008,0.0184183,-0.0318274,0.0382859,-0.0325684,-1.01275,0.0409521,0.0460805,818,1471,-0.272584,-1.73407
-399,-447,-0.269653,1.37646,-0.00834429,0.0169524,-0.0390582,0.0453592,-0.036751,-0.941987,0.0474931,0.0462946,825,1471,-0.269662,-1.37641
-392,-447,-0.304077,1.13306,0,0,0,0,0,0,0,-1,832,1471,-0.304087,-1.13311
-385,-447,-0.0284424,0.27063,0,0,0,0,0,0,0,-1,839,1471,-0.0284424,-0.27062
-378,-447,0.631287,-0.126099,0,0,0,0,0,0,0,-1,846,1471,0.631309,0.126129
-371,-447,-2.38446,0.689819,0,0,0,0,0,0,0,-1,853,1471,-2.38445,-0.689805
-364,-447,0,0,0,0,0,0,0,0,0,-1,860,1471,0,0
-357,-447,0,0,0,0,0,0,0,0,0,-1,867,1471,0,0
-350,-447,0,0,0,0,0,0,0,0,0,-1,874,1471,0,0
-343,-447,0,0,0,0,0,0,0,0,0,-1,881,1471,0,0
-336,-447,0,0,0,0,0,0,0,0,0,-1,888,1471,0,0
-329,-447,0,0,0,0,0,0,0,0,0,-1,895,1471,0,0
-322,-447,0,0,0,0,0,0,0,0,0,-1,902,1471,0,0
-315,-447,0,0,0,0,0,0,0,0,0,-1,909,1471,0,0
-308,-447,0,0,0,0,0,0,0,0,0,-1,916,1471,0,0
-301,-447,0,0,0,0,0,0,0,0,0,-1,923,1471,0,0
-294,-447,0,0,0,0,0,0,0,0,0,-1,930,1471,0,0
-287,-447,0,0,0,0,0,0,0,0,0,-1,937,1471,0,0
-280,-447,0,0,0,0,0,0,0,0,0,-1,944,1471,0,0
-273,-447,0,0,0,0,0,0,0,0,0,-1,951,1471,0,0
-266,-447,0,0,0,0,0,0,0,0,0,-1,958,1471,0,0
-259,-447,0,0,0,0,0,0,0,0,0,-1,965,1471,0,0
-252,-447,0,0,0,0,0,0,0,0,0,-1,972,1471,0,0
-245,-447,0,0,0,0,0,0,0,0,0,-1,979,1471,0,0
-238,-447,0,0,0,0,0,0,0,0,0,-1,986,1471,0,0
-231,-447,0,0,0,0,0,0,0,0,0,-1,993,1471,0,0
-224,-447,0,0,0,0,0,0,0,0,0,-1,1000,1471,0,0
-217,-447,0,0,0,0,0,0,0,0,0,-1,1007,1471,0,0
-210,-447,0,0,0,0,0,0,0,0,0,-1,1014,1471,0,0
-203,-447,0,0,0,0,0,0,0,0,0,-1,1021,1471,0,0
-196,-447,0,0,0,0,0,0,0,0,0,-1,1028,1471,0,0
-189,-447,0,0,0,0,0,0,0,0,0,-1,1035,1471,0,0
-182,-447,0,0,0,0,0,0,0,0,0,-1,1042,1471,0,0
-175,-447,0,0,0,0,0,0,0,0,0,-1,1049,1471,0,0
-168,-447,0,0,0,0,0,0,0,0,0,-1,1056,1471,0,0
-161,-447,0,0,0,0,0,0,0,0,0,-1,1063,1471,0,0
-154,-447,0,0,0,0,0,0,0,0,0,-1,1070,1471,0,0
-147,-447,0,0,0,0,0,0,0,0,0,-1,1077,1471,0,0
-140,-447,0,0,0,0,0,0,0,0,0,-1,1084,1471,0,0
-133,-447,0,0,0,0,0,0,0,0,0,-1,1091,1471,0,0
-126,-447,0,0,0,0,0,0,0,0,0,-1,1098,1471,0,0
-119,-447,0,0,0,0,0,0,0,0,0,-1,1105,1471,0,0
-112,-447,0,0,0,0,0,0,0,0,0,-1,1112,1471,0,0
-105,-447,0,0,0,0,0,0,0,0,0,-1,1119,1471,0,0
-98,-447,0,0,0,0,0,0,0,0,0,-1,1126,1471,0,0
-91,-447,0,0,0,0,0,0,0,0,0,-1,1133,1471,0,0
-84,-447,0,0,0,0,0,0,0,0,0,-1,1140,1471,0,0
-77,-447,0,0,0,0,0,0,0,0,0,-1,1147,1471,0,0
-70,-447,0,0,0,0,0,0,0,0,0,-1,1154,1471,0,0
-63,-447,0,0,0,0,0,0,0,0,0,-1,1161,1471,0,0
-56,-447,0,0,0,0,0,0,0,0,0,-1,1168,1471,0,0
-49,-447,0,0,0,0,0,0,0,0,0,-1,1175,1471,0,0
-42,-447,0,0,0,0,0,0,0,0,0,-1,1182,1471,0,0
-35,-447,0,0,0,0,0,0,0,0,0,-1,1189,1471,0,0
-28,-447,0,0,0,0,0,0,0,0,0,-1,1196,1471,0,0
-21,-447,0,0,0,0,0,0,0,0,0,-1,1203,1471,0,0
-14,-447,0,0,0,0,0,0,0,0,0,-1,1210,1471,0,0
-7,-447,0,0,0,0,0,0,0,0,0,-1,1217,1471,0,0
0,-447,0,0,0,0,0,0,0,0,0,-1,1224,1471,0,0
7,-447,0,0,0,0,0,0,0,0,0,-1,1231,1471,0,0
14,-447,0,0,0,0,0,0,0,0,0,-1,1238,1471,0,0
21,-447,0,0,0,0,0,0,0,0,0,-1,1245,1471,0,0
28,-447,0,0,0,0,0,0,0,0,0,-1,1252,1471,0,0
35,-447,0,0,0,0,0,0,0,0,0,-1,1259,1471,0,0
42,-447,0,0,0,0,0,0,0,0,0,-1,1266,1471,0,0
49,-447,0,0,0,0,0,0,0,0,0,-1,1273,1471,0,0
56,-447,0,0,0,0,0,0,0,0,0,-1,1280,1471,0,0
63,-447,0,0,0,0,0,0,0,0,0,-1,1287,1471,0,0
70,-447,0,0,0,0,0,0,0,0,0,-1,1294,1471,0,0
77,-447,0,0,0,0,0,0,0,0,0,-1,1301,1471,0,0
84,-447,0,0,0,0,0,0,0,0,0,-1,1308,1471,0,0
91,-447,0,0,0,0,0,0,0,0,0,-1,1315,1471,0,0
98,-447,0,0,0,0,0,0,0,0,0,-1,1322,1471,0,0
105,-447,0,0,0,0,0,0,0,0,0,-1,1329,1471,0,0
112,-447,0,0,0,0,0,0,0,0,0,-1,1336,1471,0,0
119,-447,0,0,0,0,0,0,0,0,0,-1,1343,1471,0,0
126,-447,0,0,0,0,0,0,0,0,0,-1,1350,1471,0,0
133,-447,0,0,0,0,0,0,0,0,0,-1,1357,1471,0,0
140,-447,0,0,0,0,0,0,0,0,0,-1,1364,1471,0,0
147,-447,0,0,0,0,0,0,0,0,0,-1,1371,1471,0,0
154,-447,0,0,0,0,0,0,0,0,0,-1,1378,1471,0,0
161,-447,0,0,0,0,0,0,0,0,0,-1,1385,1471,0,0
168,-447,0,0,0,0,0,0,0,0,0,-1,1392,1471,0,0
175,-447,0,0,0,0,0,0,0,0,0,-1,1399,1471,0,0
182,-447,0,0,0,0,0,0,0,0,0,-1,1406,1471,0,0
189,-447,0,0,0,0,0,0,0,0,0,-1,1413,1471,0,0
196,-447,0,0,0,0,0,0,0,0,0,-1,1420,1471,0,0
203,-447,0,0,0,0,0,0,0,0,0,-1,1427,1471,0,0
210,-447,0,0,0,0,0,0,0,0,0,-1,1434,1471,0,0
217,-447,0,0,0,0,0,0,0,0,0,-1,1441,1471,0,0
224,-447,0,0,0,0,0,0,0,0,0,-1,1448,1471,0,0
231,-447,0,0,0,0,0,0,0,0,0,-1,1455,1471,0,0
238,-447,0,0,0,0,0,0,0,0,0,-1,1462,1471,0,0
245,-447,0,0,0,0,0,0,0,0,0,-1,1469,1471,0,0
252,-447,0,0,0,0,0,0,0,0,0,-1,1476,1471,0,0
259,-447,0,0,0,0,0,0,0,0,0,-1,1483,1471,0,0
266,-447,0,0,0,0,0,0,0,0,0,-1,1490,1471,0,0
273,-447,0,0,0,0,0,0,0,0,0,-1,1497,1471,0,0
280,-447,0,0,0,0,0,0,0,0,0,-1,1504,1471,0,0
287,-447,0,0,0,0,0,0,0,0,0,-1,1511,1471,0,0
294,-447,0,0,0,0,0,0,0,0,0,-1,1518,1471,0,0
301,-447,0,0,0,0,0,0,0,0,0,-1,1525,1471,0,0
308,-447,0,0,0,0,0,0,0,0,0,-1,1532,1471,0,0
315,-447,0,0,0,0,0,0,0,0,0,-1,1539,1471,0,0
322,-447,0,0,0,0,0,0,0,0,0,-1,1546,1471,0,0
329,-447,0,0,0,0,0,0,0,0,0,-1,1553,1471,0,0
336,-447,0,0,0,0,0,0,0,0,0,-1,1560,1471,0,0
343,-447,0,0,0,0,0,0,0,0,0,-1,1567,1471,0,0
350,-447,0,0,0,0,0,0,0,0,0,-1,1574,1471,0,0
357,-447,0,0,0,0,0,0,0,0,0,-1,1581,1471,0,0
364,-447,0,0,0,0,0,0,0,0,0,-1,1588,1471,0,0
371,-447,0,0,0,0,0,0,0,0,0,-1,1595,1471,0,0
378,-447,0,0,0,0,0,0,0,0,0,-1,1602,1471,0,0
385,-447,0,0,0,0,0,0,0,0,0,-1,1609,1471,0,0
392,-447,0,0,0,0,0,0,0,0,0,-1,1616,1471,0,0
399,-447,0,0,0,0,0,0,0,0,0,-1,1623,1471,0,0
406,-447,0,0,0,0,0,0,0,0,0,-1,1630,1471,0,0
413,-447,0,0,0,0,0,0,0,0,0,-1,1637,1471,0,0
420,-447,0,0,0,0,0,0,0,0,0,-1,1644,1471,0,0
427,-447,0,0,0,0,0,0,0,0,0,-1,1651,1471,0,0
434,-447,0,0,0,0,0,0,0,0,0,-1,1658,1471,0,0
441,-447,0,0,0,0,0,0,0,0,0,-1,1665,1471,0,0
448,-447,0,0,0,0,0,0,0,0,0,-1,1672,1471,0,0
455,-447,0,0,0,0,0,0,0,0,0,-1,1679,1471,0,0
462,-447,0,0,0,0,0,0,0,0,0,-1,1686,1471,0,0
469,-447,0,0,0,0,0,0,0,0,0,-1,1693,1471,0,0
476,-447,0,0,0,0,0,0,0,0,0,-1,1700,1471,0,0
483,-447,0,0,0,0,0,0,0,0,0,-1,1707,1471,0,0
490,-447,4.6438,0.966919,0,0,0,0,0,0,0,-1,1714,1471,4.64375,-0.966888
497,-447,3.88257,0.737183,-0.0161914,-0.0142765,0.000908078,-0.0139144,-0.0165536,1.19133,0.0102697,0.0449061,1721,1471,3.88255,-0.737209
504,-447,3.12341,0.646851,-0.0140479,-0.0190484,0.00314827,-0.0125278,-0.0205684,0.449811,0.011969,0.0462484,1728,1471,3.12335,-0.646857
511,-447,2.41797,0.448608,0,0,0,0,0,0,0,-1,1735,1471,2.41799,-0.448654
518,-447,3.15295,0.402344,0,0,0,0,0,0,0,-1,1742,1471,3.15294,-0.402328
525,-447,2.83264,1.17505,0,0,0,0,0,0,0,-1,1749,1471,2.83259,-1.17509
532,-447,3.0874,0.978149,-0.0037364,-0.0160865,0.0129075,0.00439708,-0.02422,0.562285,0.0177944,0.0433758,1756,1471,3.08736,-0.978099
539,-447,2.80371,1.40674,-0.00154537,-0.0125875,0.0142275,0.00819478,-0.0223277,0.600314,0.018241,0.0430021,1763,1471,2.80369,-1.40678
546,-447,2.99878,1.39136,0.000194231,-0.0086069,0.0149383,0.0113667,-0.0197793,0.642159,0.0181995,0.0421269,1770,1471,2.99876,-1.39134
553,-447,2.62146,1.33521,0.00182598,-0.00509854,0.0150878,0.0138437,-0.0171163,0.672614,0.017908,0.0417824,1777,1471,2.62152,-1.33516
560,-447,2.63599,1.38733,0.00245819,-0.00230802,0.014486,0.0147558,-0.0146057,0.703873,0.016952,0.0421721,1784,1471,2.63602,-1.38738
567,-447,2.73413,1.37097,0.00205721,0.000558455,0.012967,0.0142965,-0.0116808,0.756535,0.0150233,0.0374557,1791,1471,2.73418,-1.37099
574,-447,2.92847,1.42407,0.00110473,0.001834,0.0105352,0.0120109,-0.00907217,0.802697,0.0122117,0.0233309,1798,1471,2.92845,-1.42402
581,-447,2.99207,1.40515,0.000161067,0.00273421,0.00861242,0.0101556,-0.00726035,0.859543,0.0101013,0.0121723,1805,1471,2.99212,-1.40512
588,-447,2.99414,1.37061,-0.000339767,0.0035178,0.00659385,0.00845917,-0.00528114,0.927685,0.00800339,0.0118684,1812,1471,2.99416,-1.37061
595,-447,2.97229,1.31152,-0.000911765,0.00353323,0.00491272,0.00670279,-0.00408132,0.997821,0.00628723,0.0118344,1819,1471,2.97228,-1.31157
602,-447,2.97412,1.24524,-0.00199425,0.0029255,0.00326015,0.00454969,-0.00361844,1.10859,0.00472608,0.0111454,1826,1471,2.97407,-1.24524
609,-447,2.97009,1.22974,-0.00303631,0.00238073,0.00197404,0.00302376,-0.00367934,1.25589,0.0038762,0.0120385,1833,1471,2.97015,-1.22979
616,-447,2.9585,1.20605,-0.00383422,0.000992101,0.000912108,0.00115872,-0.00400084,1.39011,0.0031259,0.013373,1840,1471,2.95852,-1.20607
623,-447,2.94751,1.17017,-0.0043045,0.00115857,0.000606953,0.00122519,-0.00437112,1.46147,0.00339695,0.0148922,1847,1471,2.94757,-1.17012
630,-447,2.96436,1.1272,-0.00423577,0.00238859,0.000870294,0.00250102,-0.0043482,1.44232,0.00400205,0.00885461,1854,1471,2.96436,-1.12723
637,-447,2.98572,1.08899,-0.00415208,0.00327671,0.00110818,0.00343849,-0.00431387,1.42583,0.00448533,0.00956922,1861,1471,2.98577,-1.08893
644,-447,2.99683,1.04956,-0.0035773,0.00507914,0.00115598,0.00523085,-0.00372901,1.4403,0.00519715,0.00964553,1868,1471,2.99684,-1.04955
651,-447,2.99011,1.02527,-0.00243687,0.00750753,0.00132441,0.00768089,-0.00261023,1.44064,0.00617732,0.0132237,1875,1471,2.99015,-1.02522
658,-447,2.90137,0.950806,-0.00051074,0.0107785,0.00152355,0.0109805,-0.000712738,1.43898,0.0075691,0.0229993,1882,1471,2.90141,-0.95079
665,-447,2.59778,0.493652,0.00296473,0.0147311,0.00149586,0.0149183,0.00277754,1.4463,0.00916111,0.0388217,1889,1471,2.59777,-0.493616
672,-447,2.33264,-0.0767822,0.00826192,0.0193111,0.00125699,0.0194523,0.00812072,1.45894,0.0112817,0.0456522,1896,1471,2.33258,0.0768093
679,-447,2.09875,-0.266357,0.0159418,0.0241472,0.000542885,0.024183,0.015906,1.50502,0.0141918,0.0452257,1903,1471,2.09878,0.266344
686,-447,3.34656,1.34631,0.0263212,0.0290602,-0.00106494,0.0294256,0.0259559,-1.24033,0.0185688,0.04909,1910,1471,3.34657,-1.34634
693,-447,3.92468,1.47925,0.0397277,0.0338493,-0.00407637,0.041814,0.031763,-0.473046,0.0252028,0.0488343,1917,1471,3.92469,-1.47929
700,-447,0,0,0,0,0,0,0,0,0,-1,1924,1471,0,0
707,-447,0,0,0,0,0,0,0,0,0,-1,1931,1471,0,0
714,-447,0,0,0,0,0,0,0,0,0,-1,1938,1471,0,0
721,-447,0,0,0,0,0,0,0,0,0,-1,1945,1471,0,0
728,-447,0,0,0,0,0,0,0,0,0,-1,1952,1471,0,0
735,-447,0,0,0,0,0,0,0,0,0,-1,1959,1471,0,0
742,-447,0,0,0,0,0,0,0,0,0,-1,1966,1471,0,0
749,-447,0,0,0,0,0,0,0,0,0,-1,1973,1471,0,0
756,-447,0,0,0,0,0,0,0,0,0,-1,1980,1471,0,0
763,-447,0,0,0,0,0,0,0,0,0,-1,1987,1471,0,0
770,-447,0,0,0,0,0,0,0,0,0,-1,1994,1471,0,0
777,-447,0,0,0,0,0,0,0,0,0,-1,2001,1471,0,0
784,-447,0,0,0,0,0,0,0,0,0,-1,2008,1471,0,0
791,-447,0,0,0,0,0,0,0,0,0,-1,2015,1471,0,0
798,-447,0,0,0,0,0,0,0,0,0,-1,2022,1471,0,0
805,-447,0,0,0,0,0,0,0,0,0,-1,2029,1471,0,0
812,-447,0,0,0,0,0,0,0,0,0,-1,2036,1471,0,0
-700,-454,0,0,0,0,0,0,0,0,0,-1,524,1478,0,0
-693,-454,0,0,0,0,0,0,0,0,0,-1,531,1478,0,0
-686,-454,0,0,0,0,0,0,0,0,0,-1,538,1478,0,0
-679,-454,0,0,0,0,0,0,0,0,0,-1,545,1478,0,0
-672,-454,0,0,0,0,0,0,0,0,0,-1,552,1478,0,0
-665,-454,0,0,0,0,0,0,0,0,0,-1,559,1478,0,0
-658,-454,0,0,0,0,0,0,0,0,0,-1,566,1478,0,0
-651,-454,0,0,0,0,0,0,0,0,0,-1,573,1478,0,0
-644,-454,0,0,0,0,0,0,0,0,0,-1,580,1478,0,0
-637,-454,0,0,0,0,0,0,0,0,0,-1,587,1478,0,0
-630,-454,0,0,0,0,0,0,0,0,0,-1,594,1478,0,0
-623,-454,0,0,0,0,0,0,0,0,0,-1,601,1478,0,0
-616,-454,0,0,0,0,0,0,0,0,0,-1,608,1478,0,0
-609,-454,0,0,0,0,0,0,0,0,0,-1,615,1478,0,0
-602,-454,0,0,0,0,0,0,0,0,0,-1,622,1478,0,0
-595,-454,0,0,0,0,0,0,0,0,0,-1,629,1478,0,0
-588,-454,0,0,0,0,0,0,0,0,0,-1,636,1478,0,0
-581,-454,0,0,0,0,0,0,0,0,0,-1,643,1478,0,0
-574,-454,-0.126465,-0.554565,0.00929786,0.0302423,0.004087,0.0310116,0.0085286,1.38475,0.0184989,0.0474525,650,1478,-0.126468,0.554573
-567,-454,-0.403015,-0.102539,0.00981499,0.0257474,0.00387166,0.0266384,0.00892398,1.3446,0.0156563,0.0441924,657,1478,-0.403036,0.102589
-560,-454,0.543579,0.546143,0.00936376,0.0207352,0.00358335,0.0217701,0.00832878,1.28962,0.012684,0.0439816,664,1478,0.543552,-0.54609
-553,-454,0.776489,0.563721,0.00844282,0.0156982,0.00315988,0.0168814,0.00725959,1.2125,0.00977825,0.0459343,671,1478,0.776497,-0.563711
-546,-454,0.326233,0.845215,0,0,0,0,0,0,0,-1,678,1478,0.326248,-0.845197
-539,-454,0.31488,1.02258,0,0,0,0,0,0,0,-1,685,1478,0.314893,-1.02258
-532,-454,0.8172,0.983765,0,0,0,0,0,0,0,-1,692,1478,0.81721,-0.983714
-525,-454,0.802734,1.01978,0.00352017,0.00046235,0.00207952,0.00457234,-0.00058982,0.46841,0.00326265,0.0390313,699,1478,0.802715,-1.01974
-518,-454,0.775696,1.07996,0.00290004,-0.00155144,0.00139915,0.00330328,-0.00195468,0.2806,0.00306879,0.0218211,706,1478,0.775691,-1.07993
-511,-454,0.765259,1.09949,0.00214004,-0.00276682,0.000978835,0.00232809,-0.00295488,0.189807,0.00305727,0.0128469,713,1478,0.765287,-1.09948
-504,-454,0.769836,1.13696,0.000907328,-0.00353043,0.000770018,0.00103714,-0.00366024,0.167013,0.0028495,0.0146103,720,1478,0.769823,-1.13693
-497,-454,0.744629,1.1709,5.59967e-05,-0.00403262,0.000769337,0.000195968,-0.00417259,0.179969,0.0028493,0.0175732,727,1478,0.744653,-1.17085
-490,-454,0.735718,1.21167,-6.19869e-06,-0.0042517,0.000693051,0.000104073,-0.00436197,0.157788,0.00294329,0.0160954,734,1478,0.735723,-1.21171
-483,-454,0.743896,1.24463,-7.89017e-05,-0.0037264,0.000537215,-1.42481e-06,-0.00380388,0.143232,0.00253544,0.0148227,741,1478,0.743893,-1.24467
-476,-454,0.733459,1.25806,-0.000669136,-0.00264344,0.000103817,-0.000663692,-0.00264888,0.0523916,0.00159151,0.0134889,748,1478,0.733486,-1.25802
-469,-454,0.758301,1.29419,-0.00181074,-0.00163378,-0.000287985,-0.00142099,-0.00202353,-0.934443,0.00119972,0.00995278,755,1478,0.758311,-1.29423
-462,-454,0.762939,1.33472,-0.00324792,0.00076728,-0.00122481,0.00111141,-0.00359205,-1.29689,0.00283865,0.0101101,762,1478,0.762926,-1.33466
-455,-454,0.756592,1.38599,-0.00505898,0.00253756,-0.00230423,0.00318184,-0.00570327,-1.29815,0.00519822,0.0108939,769,1478,0.756572,-1.38599
-448,-454,0.730774,1.42017,-0.00704461,0.00398335,-0.00365299,0.00508362,-0.00814488,-1.27824,0.00770535,0.0114908,776,1478,0.730757,-1.42014
-441,-454,0.75238,1.453,-0.00887099,0.006149,-0.00598284,0.0082408,-0.0109628,-1.23445,0.0111243,0.0199026,783,1478,0.752364,-1.45296
-434,-454,0.793152,1.48669,-0.0105601,0.00872082,-0.00834979,0.0118341,-0.0136733,-1.21391,0.0147395,0.0290243,790,1478,0.793162,-1.48666
-427,-454,0.750305,1.60132,-0.0118,0.0107405,-0.0120604,0.015977,-0.0170365,-1.16117,0.0190636,0.0386377,797,1478,0.750313,-1.60131
-420,-454,0.525879,1.7312,-0.0121999,0.0127369,-0.0168421,0.0212236,-0.0206866,-1.10403,0.0241976,0.0447828,804,1478,0.525902,-1.73126
-413,-454,0.272827,1.67627,-0.0113647,0.0139211,-0.0229347,0.0274668,-0.0249104,-1.0373,0.030252,0.0450202,811,1478,0.272827,-1.67633
-406,-454,0.175598,1.46216,-0.00947376,0.0145844,-0.0299716,0.0348507,-0.0297401,-0.976233,0.0373304,0.0453935,818,1478,0.175607,-1.46211
-399,-454,0.195557,1.34131,-0.00533801,0.0125926,-0.0368053,0.0415088,-0.0342542,-0.904865,0.0438086,0.0460926,825,1478,0.19558,-1.34132
-392,-454,-0.720764,1.39539,0.00085701,0.00893963,-0.0429864,0.0480742,-0.0382776,-0.832267,0.0499621,0.0419638,832,1478,-0.720775,-1.39534
-385,-454,-0.421265,-0.00720215,0,0,0,0,0,0,0,-1,839,1478,-0.421278,0.00719552
-378,-454,-0.036377,-1.36646,0,0,0,0,0,0,0,-1,846,1478,-0.0363756,1.36642
-371,-454,0.326294,-2.7738,0,0,0,0,0,0,0,-1,853,1478,0.326292,2.77385
-364,-454,0.369507,-0.426758,0,0,0,0,0,0,0,-1,860,1478,0.369482,0.426741
-357,-454,0,0,0,0,0,0,0,0,0,-1,867,1478,0,0
-350,-454,0,0,0,0,0,0,0,0,0,-1,874,1478,0,0
-343,-454,0,0,0,0,0,0,0,0,0,-1,881,1478,0,0
-336,-454,0,0,0,0,0,0,0,0,0,-1,888,1478,0,0
-329,-454,0,0,0,0,0,0,0,0,0,-1,895,1478,0,0
-322,-454,0,0,0,0,0,0,0,0,0,-1,902,1478,0,0
-315,-454,0,0,0,0,0,0,0,0,0,-1,909,1478,0,0
-308,-454,0,0,0,0,0,0,0,0,0,-1,916,1478,0,0
-301,-454,0,0,0,0,0,0,0,0,0,-1,923,1478,0,0
-294,-454,0,0,0,0,0,0,0,0,0,-1,930,1478,0,0
-287,-454,0,0,0,0,0,0,0,0,0,-1,937,1478,0,0
-280,-454,0,0,0,0,0,0,0,0,0,-1,944,1478,0,0
-273,-454,0,0,0,0,0,0,0,0,0,-1,951,1478,0,0
-266,-454,0,0,0,0,0,0,0,0,0,-1,958,1478,0,0
-259,-454,0,0,0,0,0,0,0,0,0,-1,965,1478,0,0
-252,-454,0,0,0,0,0,0,0,0,0,-1,972,1478,0,0
-245,-454,0,0,0,0,0,0,0,0,0,-1,979,1478,0,0
-238,-454,0,0,0,0,0,0,0,0,0,-1,986,1478,0,0
-231,-454,0,0,0,0,0,0,0,0,0,-1,993,1478,0,0
-224,-454,0,0,0,0,0,0,0,0,0,-1,1000,1478,0,0
-217,-454,0,0,0,0,0,0,0,0,0,-1,1007,1478,0,0
-210,-454,0,0,0,0,0,0,0,0,0,-1,1014,1478,0,0
-203,-454,0,0,0,0,0,0,0,0,0,-1,1021,1478,0,0
-196,-454,0,0,0,0,0,0,0,0,0,-1,1028,1478,0,0
-189,-454,0,0,0,0,0,0,0,0,0,-1,1035,1478,0,0
-182,-454,0,0,0,0,0,0,0,0,0,-1,1042,1478,0,0
-175,-454,0,0,0,0,0,0,0,0,0,-1,1049,1478,0,0
-168,-454,0,0,0,0,0,0,0,0,0,-1,1056,1478,0,0
-161,-454,0,0,0,0,0,0,0,0,0,-1,1063,1478,0,0
-154,-454,0,0,0,0,0,0,0,0,0,-1,1070,1478,0,0
-147,-454,0,0,0,0,0,0,0,0,0,-1,1077,1478,0,0
-140,-454,0,0,0,0,0,0,0,0,0,-1,1084,1478,0,0
-133,-454,0,0,0,0,0,0,0,0,0,-1,1091,1478,0,0
-126,-454,0,0,0,0,0,0,0,0,0,-1,1098,1478,0,0
-119,-454,0,0,0,0,0,0,0,0,0,-1,1105,1478,0,0
-112,-454,0,0,0,0,0,0,0,0,0,-1,1112,1478,0,0
-105,-454,0,0,0,0,0,0,0,0,0,-1,1119,1478,0,0
-98,-454,0,0,0,0,0,0,0,0,0,-1,1126,1478,0,0
-91,-454,0,0,0,0,0,0,0,0,0,-1,1133,1478,0,0
-84,-454,0,0,0,0,0,0,0,0,0,-1,1140,1478,0,0
-77,-454,0,0,0,0,0,0,0,0,0,-1,1147,1478,0,0
-70,-454,0,0,0,0,0,0,0,0,0,-1,1154,1478,0,0
-63,-454,0,0,0,0,0,0,0,0,0,-1,1161,1478,0,0
-56,-454,0,0,0,0,0,0,0,0,0,-1,1168,1478,0,0
-49,-454,0,0,0,0,0,0,0,0,0,-1,1175,1478,0,0
-42,-454,0,0,0,0,0,0,0,0,0,-1,1182,1478,0,0
-35,-454,0,0,0,0,0,0,0,0,0,-1,1189,1478,0,0
-28,-454,0,0,0,0,0,0,0,0,0,-1,1196,1478,0,0
-21,-454,0,0,0,0,0,0,0,0,0,-1,1203,1478,0,0
-14,-454,0,0,0,0,0,0,0,0,0,-1,1210,1478,0,0
-7,-454,0,0,0,0,0,0,0,0,0,-1,1217,1478,0,0
0,-454,0,0,0,0,0,0,0,0,0,-1,1224,1478,0,0
7,-454,0,0,0,0,0,0,0,0,0,-1,1231,1478,0,0
14,-454,0,0,0,0,0,0,0,0,0,-1,1238,1478,0,0
21,-454,0,0,0,0,0,0,0,0,0,-1,1245,1478,0,0
28,-454,0,0,0,0,0,0,0,0,0,-1,1252,1478,0,0
35,-454,0,0,0,0,0,0,0,0,0,-1,1259,1478,0,0
42,-454,0,0,0,0,0,0,0,0,0,-1,1266,1478,0,0
49,-454,0,0,0,0,0,0,0,0,0,-1,1273,1478,0,0
56,-454,0,0,0,0,0,0,0,0,0,-1,1280,1478,0,0
63,-454,0,0,0,0,0,0,0,0,0,-1,1287,1478,0,0
70,-454,0,0,0,0,0,0,0,0,0,-1,1294,1478,0,0
77,-454,0,0,0,0,0,0,0,0,0,-1,1301,1478,0,0
84,-454,0,0,0,0,0,0,0,0,0,-1,1308,1478,0,0
91,-454,0,0,0,0,0,0,0,0,0,-1,1315,1478,0,0
98,-454,0,0,0,0,0,0,0,0,0,-1,1322,1478,0,0
105,-454,0,0,0,0,0,0,0,0,0,-1,1329,1478,0,0
112,-454,0,0,0,0,0,0,0,0,0,-1,1336,1478,0,0
119,-454,0,0,0,0,0,0,0,0,0,-1,1343,1478,0,0
126,-454,0,0,0,0,0,0,0,0,0,-1,1350,1478,0,0
133,-454,0,0,0,0,0,0,0,0,0,-1,1357,1478,0,0
140,-454,0,0,0,0,0,0,0,0,0,-1,1364,1478,0,0
147,-454,0,0,0,0,0,0,0,0,0,-1,1371,1478,0,0
154,-454,0,0,0,0,0,0,0,0,0,-1,1378,1478,0,0
161,-454,0,0,0,0,0,0,0,0,0,-1,1385,1478,0,0
168,-454,0,0,0,0,0,0,0,0,0,-1,1392,1478,0,0
175,-454,0,0,0,0,0,0,0,0,0,-1,1399,1478,0,0
182,-454,0,0,0,0,0,0,0,0,0,-1,1406,1478,0,0
189,-454,0,0,0,0,0,0,0,0,0,-1,1413,1478,0,0
196,-454,0,0,0,0,0,0,0,0,0,-1,1420,1478,0,0
203,-454,0,0,0,0,0,0,0,0,0,-1,1427,1478,0,0
210,-454,0,0,0,0,0,0,0,0,0,-1,1434,1478,0,0
217,-454,0,0,0,0,0,0,0,0,0,-1,1441,1478,0,0
224,-454,0,0,0,0,0,0,0,0,0,-1,1448,1478,0,0
231,-454,0,0,0,0,0,0,0,0,0,-1,1455,1478,0,0
238,-454,0,0,0,0,0,0,0,0,0,-1,1462,1478,0,0
245,-454,0,0,0,0,0,0,0,0,0,-1,1469,1478,0,0
252,-454,0,0,0,0,0,0,0,0,0,-1,1476,1478,0,0
259,-454,0,0,0,0,0,0,0,0,0,-1,1483,1478,0,0
266,-454,0,0,0,0,0,0,0,0,0,-1,1490,1478,0,0
273,-454,0,0,0,0,0,0,0,0,0,-1,1497,1478,0,0
280,-454,0,0,0,0,0,0,0,0,0,-1,1504,1478,0,0
287,-454,0,0,0,0,0,0,0,0,0,-1,1511,1478,0,0
294,-454,0,0,0,0,0,0,0,0,0,-1,1518,1478,0,0
301,-454,0,0,0,0,0,0,0,0,0,-1,1525,1478,0,0
308,-454,0,0,0,0,0,0,0,0,0,-1,1532,1478,0,0
315,-454,0,0,0,0,0,0,0,0,0,-1,1539,1478,0,0
322,-454,0,0,0,0,0,0,0,0,0,-1,1546,1478,0,0
329,-454,0,0,0,0,0,0,0,0,0,-1,1553,1478,0,0
336,-454,0,0,0,0,0,0,0,0,0,-1,1560,1478,0,0
343,-454,0,0,0,0,0,0,0,0,0,-1,1567,1478,0,0
350,-454,0,0,0,0,0,0,0,0,0,-1,1574,1478,0,0
357,-454,0,0,0,0,0,0,0,0,0,-1,1581,1478,0,0
364,-454,0,0,0,0,0,0,0,0,0,-1,1588,1478,0,0
371,-454,0,0,0,0,0,0,0,0,0,-1,1595,1478,0,0
378,-454,0,0,0,0,0,0,0,0,0,-1,1602,1478,0,0
385,-454,0,0,0,0,0,0,0,0,0,-1,1609,1478,0,0
392,-454,0,0,0,0,0,0,0,0,0,-1,1616,1478,0,0
399,-454,0,0,0,0,0,0,0,0,0,-1,1623,1478,0,0
406,-454,0,0,0,0,0,0,0,0,0,-1,1630,1478,0,0
413,-454,0,0,0,0,0,0,0,0,0,-1,1637,1478,0,0
420,-454,0,0,0,0,0,0,0,0,0,-1,1644,1478,0,0
427,-454,0,0,0,0,0,0,0,0,0,-1,1651,1478,0,0
434,-454,0,0,0,0,0,0,0,0,0,-1,1658,1478,0,0
441,-454,0,0,0,0,0,0,0,0,0,-1,1665,1478,0,0
448,-454,0,0,0,0,0,0,0,0,0,-1,1672,1478,0,0
455,-454,0,0,0,0,0,0,0,0,0,-1,1679,1478,0,0
462,-454,0,0,0,0,0,0,0,0,0,-1,1686,1478,0,0
469,-454,0,0,0,0,0,0,0,0,0,-1,1693,1478,0,0
476,-454,0,0,0,0,0,0,0,0,0,-1,1700,1478,0,0
483,-454,5.36694,1.88611,0,0,0,0,0,0,0,-1,1707,1478,5.36692,-1.88613
490,-454,4.62903,0.985718,0,0,0,0,0,0,0,-1,1714,1478,4.62907,-0.985714
497,-454,3.89038,0.682861,-0.0125424,-0.0148757,0.000927082,-0.0122189,-0.0151992,0.335734,0.00929992,0.0440437,1721,1478,3.89042,-0.682851
504,-454,3.27563,0.0142822,-0.0107043,-0.0184426,0.00254,-0.00994504,-0.0192018,0.290456,0.0110885,0.0463619,1728,1478,3.27565,-0.0143341
511,-454,3.08203,-1.11035,-0.00837788,-0.0184415,0.00466789,-0.00654615,-0.0202732,0.373948,0.011947,0.041544,1735,1478,3.08198,1.11037
518,-454,2.37073,0.744507,0,0,0,0,0,0,0,-1,1742,1478,2.37072,-0.744524
525,-454,2.66968,1.08704,-0.0036034,-0.0172762,0.00796871,5.9573e-05,-0.0209391,0.430866,0.0139793,0.0458965,1749,1478,2.66972,-1.08698
532,-454,2.92969,1.37915,-0.00161959,-0.0154728,0.0094492,0.00316983,-0.0202622,0.469121,0.0146793,0.0485637,1756,1478,2.92971,-1.37917
539,-454,2.48633,1.33643,0,0,0,0,0,0,0,-1,1763,1478,2.48632,-1.33647
546,-454,2.63635,1.3501,0.0021244,-0.00847218,0.0111519,0.00917261,-0.0155204,0.563632,0.0144127,0.0432326,1770,1478,2.63636,-1.35008
553,-454,2.69519,1.46301,0.00382263,-0.00517128,0.0114123,0.011592,-0.0129406,0.597717,0.014171,0.0371687,1777,1478,2.69514,-1.46298
560,-454,2.77185,1.44226,0.00455104,-0.00258314,0.0110486,0.0125941,-0.0106262,0.629253,0.0134223,0.032876,1784,1478,2.77188,-1.4423
567,-454,2.86963,1.41663,0.00420711,6.14122e-05,0.00977326,0.0121249,-0.0078564,0.6809,0.0116236,0.0179718,1791,1478,2.86964,-1.41668
574,-454,2.91724,1.37744,0.00319802,0.00119924,0.00775581,0.0100186,-0.0056213,0.721323,0.00914787,0.0102489,1798,1478,2.91721,-1.37742
581,-454,2.95947,1.34424,0.00215116,0.00201307,0.00617727,0.00825977,-0.00409554,0.77981,0.00726714,0.0106881,1805,1478,2.95948,-1.34427
588,-454,2.95117,1.33411,0.00134646,0.00272222,0.00465357,0.00673848,-0.0026698,0.858776,0.00559862,0.0122173,1812,1478,2.95113,-1.33409
595,-454,2.94324,1.29919,0.000383466,0.00267536,0.00357288,0.00528157,-0.00222274,0.940583,0.00445098,0.0116674,1819,1478,2.94321,-1.29918
602,-454,2.94238,1.25757,-0.00114204,0.00213646,0.00243748,0.00343463,-0.00244021,1.08142,0.003408,0.00903785,1826,1478,2.94243,-1.25751
609,-454,2.95703,1.25171,-0.00254648,0.00166739,0.00158781,0.0021987,-0.00307779,1.24789,0.00306044,0.010323,1833,1478,2.95699,-1.25169
616,-454,2.95337,1.23169,-0.00390056,0.000468186,0.000912072,0.000650954,-0.00408333,1.37303,0.00296314,0.0130715,1840,1478,2.95334,-1.23173
623,-454,2.94373,1.17944,-0.00492772,0.000697778,0.000801863,0.000809843,-0.00503979,1.43194,0.0036598,0.0105415,1847,1478,2.94376,-1.17946
630,-454,2.94434,1.12561,-0.00542453,0.00207164,0.00118877,0.00225565,-0.00560854,1.41723,0.00467592,0.00870458,1854,1478,2.94431,-1.12565
637,-454,2.95471,1.08264,-0.00578649,0.00309626,0.00149586,0.00334139,-0.00603163,1.40836,0.00548531,0.00878743,1861,1478,2.9547,-1.08264
644,-454,2.93396,1.05737,-0.00559461,0.00510996,0.00151947,0.00532147,-0.00580612,1.43249,0.00642654,0.0113033,1868,1478,2.93391,-1.05735
651,-454,2.90918,1.05493,-0.00473577,0.00783426,0.00163576,0.00804364,-0.00494514,1.44349,0.00756987,0.019302,1875,1478,2.90915,-1.05495
658,-454,2.80383,0.911255,-0.0028166,0.0116349,0.00177099,0.0118488,-0.00303047,1.45062,0.00907952,0.0340082,1882,1478,2.80379,-0.911302
665,-454,2.33826,0.212524,0.000984713,0.0163775,0.00169414,0.0165618,0.000800461,1.46246,0.0107843,0.0444092,1889,1478,2.33823,-0.212507
672,-454,1.91687,-0.763062,0,0,0,0,0,0,0,-1,1896,1478,1.91693,0.763104
679,-454,1.7262,-1.24646,0,0,0,0,0,0,0,-1,1903,1478,1.72616,1.24642
686,-454,3.81885,1.41382,0,0,0,0,0,0,0,-1,1910,1478,3.81882,-1.41385
693,-454,4.30286,1.3479,0,0,0,0,0,0,0,-1,1917,1478,4.30289,-1.34795
700,-454,0,0,0,0,0,0,0,0,0,-1,1924,1478,0,0
707,-454,0,0,0,0,0,0,0,0,0,-1,1931,1478,0,0
714,-454,0,0,0,0,0,0,0,0,0,-1,1938,1478,0,0
721,-454,0,0,0,0,0,0,0,0,0,-1,1945,1478,0,0
728,-454,0,0,0,0,0,0,0,0,0,-1,1952,1478,0,0
735,-454,0,0,0,0,0,0,0,0,0,-1,1959,1478,0,0
742,-454,0,0,0,0,0,0,0,0,0,-1,1966,1478,0,0
749,-454,0,0,0,0,0,0,0,0,0,-1,1973,1478,0,0
756,-454,0,0,0,0,0,0,0,0,0,-1,1980,1478,0,0
763,-454,0,0,0,0,0,0,0,0,0,-1,1987,1478,0,0
770,-454,0,0,0,0,0,0,0,0,0,-1,1994,1478,0,0
777,-454,0,0,0,0,0,0,0,0,0,-1,2001,1478,0,0
784,-454,0,0,0,0,0,0,0,0,0,-1,2008,1478,0,0
791,-454,0,0,0,0,0,0,0,0,0,-1,2015,1478,0,0
798,-454,0,0,0,0,0,0,0,0,0,-1,2022,1478,0,0
805,-454,0,0,0,0,0,0,0,0,0,-1,2029,1478,0,0
812,-454,0,0,0,0,0,0,0,0,0,-1,2036,1478,0,0
-700,-461,0,0,0,0,0,0,0,0,0,-1,524,1485,0,0
-693,-461,0,0,0,0,0,0,0,0,0,-1,531,1485,0,0
-686,-461,0,0,0,0,0,0,0,0,0,-1,538,1485,0,0
-679,-461,0,0,0,0,0,0,0,0,0,-1,545,1485,0,0
-672,-461,0,0,0,0,0,0,0,0,0,-1,552,1485,0,0
-665,-461,0,0,0,0,0,0,0,0,0,-1,559,1485,0,0
-658,-461,0,0,0,0,0,0,0,0,0,-1,566,1485,0,0
-651,-461,0,0,0,0,0,0,0,0,0,-1,573,1485,0,0
-644,-461,0,0,0,0,0,0,0,0,0,-1,580,1485,0,0
-637,-461,0,0,0,0,0,0,0,0,0,-1,587,1485,0,0
-630,-461,0,0,0,0,0,0,0,0,0,-1,594,1485,0,0
-623,-461,0,0,0,0,0,0,0,0,0,-1,601,1485,0,0
-616,-461,0,0,0,0,0,0,0,0,0,-1,608,1485,0,0
-609,-461,0,0,0,0,0,0,0,0,0,-1,615,1485,0,0
-602,-461,0,0,0,0,0,0,0,0,0,-1,622,1485,0,0
-595,-461,0,0,0,0,0,0,0,0,0,-1,629,1485,0,0
-588,-461,0,0,0,0,0,0,0,0,0,-1,636,1485,0,0
-581,-461,0,0,0,0,0,0,0,0,0,-1,643,1485,0,0
-574,-461,0,0,0,0,0,0,0,0,0,-1,650,1485,0,0
-567,-461,0.708252,-0.15979,0.0116462,0.028539,0.00368989,0.0293098,0.0108754,1.36486,0.0171086,0.0472307,657,1485,0.708247,0.15983
-560,-461,0.69342,0.307007,0.0105941,0.0222438,0.00278967,0.0228774,0.00996057,1.34747,0.013245,0.043167,664,1485,0.693397,-0.307055
-553,-461,0.83606,0.454468,0.00913247,0.0161307,0.0021392,0.0167328,0.00853037,1.29643,0.00966131,0.0452441,671,1485,0.836048,-0.454443
-546,-461,0.790527,0.504395,0.0074503,0.0105809,0.00178409,0.011389,0.00664218,1.14548,0.00660574,0.0459813,678,1485,0.790539,-0.504439
-539,-461,0.584534,0.679443,0.00575312,0.00598028,0.00165332,0.00752392,0.00420948,0.819693,0.00435417,0.0438381,685,1485,0.584513,-0.679422
-532,-461,0.664612,0.714111,0.00434911,0.00188426,0.00147721,0.00504049,0.00119287,0.437747,0.0030417,0.041396,692,1485,0.664634,-0.714075
-525,-461,0.848206,1.00732,0,0,0,0,0,0,0,-1,699,1485,0.848177,-1.00734
-518,-461,0.704041,1.09717,0.0027525,-0.00330389,0.000624355,0.00281619,-0.00336759,0.101666,0.00357494,0.0331503,706,1485,0.704038,-1.09714
-511,-461,0.798462,1.10559,0.00210072,-0.0044642,0.000313358,0.00211565,-0.00447912,0.047588,0.00388814,0.0150513,713,1485,0.79844,-1.10556
-504,-461,0.804016,1.14502,0.000967382,-0.0051057,0.00021073,0.000974685,-0.005113,0.0346435,0.00377573,0.00960647,720,1485,0.804,-1.14507
-497,-461,0.810059,1.18896,0.000242006,-0.00539191,0.000270533,0.000254967,-0.00540487,0.0478718,0.00369117,0.0104364,727,1485,0.810052,-1.18901
-490,-461,0.795532,1.22388,0.000253713,-0.00537179,0.000258589,0.000265575,-0.00538365,0.0458384,0.00368082,0.0114609,734,1485,0.795523,-1.22393
-483,-461,0.788208,1.25073,0.000257073,-0.00454017,0.00013186,0.000260695,-0.00454379,0.0274589,0.00311973,0.0115441,741,1485,0.788189,-1.25068
-476,-461,0.779968,1.27295,-0.000172262,-0.00311847,-0.000223817,-0.000155356,-0.00313538,-0.0753914,0.00204044,0.0100503,748,1485,0.779992,-1.27296
-469,-461,0.773499,1.30688,-0.00103044,-0.00171613,-0.000567424,-0.00071033,-0.00203624,-0.513644,0.0011934,0.011422,755,1485,0.773479,-1.30684
-462,-461,0.800232,1.31689,-0.00221033,0.00054394,-0.00130696,0.0010654,-0.00273179,-1.19117,0.00226158,0.0164836,762,1485,0.800246,-1.31695
-455,-461,0.829529,1.33264,-0.00389898,0.00216552,-0.00208794,0.00281485,-0.0045483,-1.26929,0.00429021,0.0201991,769,1485,0.829505,-1.33259
-448,-461,0.812073,1.4104,-0.00566609,0.00347118,-0.00318145,0.00446978,-0.00666468,-1.26665,0.00646998,0.0170959,776,1485,0.812071,-1.4104
-441,-461,0.806885,1.46094,-0.00718348,0.00532667,-0.00521065,0.00721265,-0.00906946,-1.22352,0.00942083,0.0133495,783,1485,0.806907,-1.46096
-434,-461,0.844543,1.46606,-0.00857747,0.00740502,-0.00718949,0.0101631,-0.0113356,-1.20448,0.0124184,0.0172016,790,1485,0.84452,-1.46609
-427,-461,0.833069,1.46887,-0.00947499,0.00878886,-0.0105389,0.0136018,-0.014288,-1.1424,0.0161038,0.0234828,797,1485,0.833096,-1.46888
-420,-461,0.721252,1.48169,-0.00959333,0.0101,-0.0149149,0.0181254,-0.0176187,-1.07715,0.0206376,0.0380069,804,1485,0.721226,-1.48173
-413,-461,0.753479,1.375,-0.00859719,0.0106133,-0.0205699,0.0237101,-0.0216939,-1.00383,0.0262226,0.0443633,811,1485,0.753481,-1.37505
-406,-461,1.04871,1.13708,0,0,0,0,0,0,0,-1,818,1485,1.04872,-1.13704
-399,-461,-0.137268,2.0918,-0.00280545,0.00813766,-0.0333615,0.0364734,-0.0311411,-0.866678,0.0390777,0.04184,825,1485,-0.137258,-2.09174
-392,-461,-0.0482178,1.27991,0.00308847,0.00428832,-0.039071,0.042764,-0.0353872,-0.793075,0.0451876,0.042959,832,1485,-0.0482033,-1.27987
-385,-461,-0.680542,-0.419067,0,0,0,0,0,0,0,-1,839,1485,-0.680554,0.419031
-378,-461,-0.546631,-1.86023,0,0,0,0,0,0,0,-1,846,1485,-0.546627,1.86018
-371,-461,-0.212708,-1.3429,0,0,0,0,0,0,0,-1,853,1485,-0.212703,1.34293
-364,-461,-0.400757,-1.84595,0,0,0,0,0,0,0,-1,860,1485,-0.400775,1.84593
-357,-461,-0.410461,-0.531372,0,0,0,0,0,0,0,-1,867,1485,-0.410472,0.531381
-350,-461,0,0,0,0,0,0,0,0,0,-1,874,1485,0,0
-343,-461,0,0,0,0,0,0,0,0,0,-1,881,1485,0,0
-336,-461,0,0,0,0,0,0,0,0,0,-1,888,1485,0,0
-329,-461,0,0,0,0,0,0,0,0,0,-1,895,1485,0,0
-322,-461,0,0,0,0,0,0,0,0,0,-1,902,1485,0,0
-315,-461,0,0,0,0,0,0,0,0,0,-1,909,1485,0,0
-308,-461,0,0,0,0,0,0,0,0,0,-1,916,1485,0,0
-301,-461,0,0,0,0,0,0,0,0,0,-1,923,1485,0,0
-294,-461,0,0,0,0,0,0,0,0,0,-1,930,1485,0,0
-287,-461,0,0,0,0,0,0,0,0,0,-1,937,1485,0,0
-280,-461,0,0,0,0,0,0,0,0,0,-1,944,1485,0,0
-273,-461,0,0,0,0,0,0,0,0,0,-1,951,1485,0,0
-266,-461,0,0,0,0,0,0,0,0,0,-1,958,1485,0,0
-259,-461,0,0,0,0,0,0,0,0,0,-1,965,1485,0,0
-252,-461,0,0,0,0,0,0,0,0,0,-1,972,1485,0,0
-245,-461,0,0,0,0,0,0,0,0,0,-1,979,1485,0,0
-238,-461,0,0,0,0,0,0,0,0,0,-1,986,1485,0,0
-231,-461,0,0,0,0,0,0,0,0,0,-1,993,1485,0,0
-224,-461,0,0,0,0,0,0,0,0,0,-1,1000,1485,0,0
-217,-461,0,0,0,0,0,0,0,0,0,-1,1007,1485,0,0
-210,-461,0,0,0,0,0,0,0,0,0,-1,1014,1485,0,0
-203,-461,0,0,0,0,0,0,0,0,0,-1,1021,1485,0,0
-196,-461,0,0,0,0,0,0,0,0,0,-1,1028,1485,0,0
-189,-461,0,0,0,0,0,0,0,0,0,-1,1035,1485,0,0
-182,-461,0,0,0,0,0,0,0,0,0,-1,1042,1485,0,0
-175,-461,0,0,0,0,0,0,0,0,0,-1,1049,1485,0,0
-168,-461,0,0,0,0,0,0,0,0,0,-1,1056,1485,0,0
-161,-461,0,0,0,0,0,0,0,0,0,-1,1063,1485,0,0
-154,-461,0,0,0,0,0,0,0,0,0,-1,1070,1485,0,0
-147,-461,0,0,0,0,0,0,0,0,0,-1,1077,1485,0,0
-140,-461,0,0,0,0,0,0,0,0,0,-1,1084,1485,0,0
-133,-461,0,0,0,0,0,0,0,0,0,-1,1091,1485,0,0
-126,-461,0,0,0,0,0,0,0,0,0,-1,1098,1485,0,0
-119,-461,0,0,0,0,0,0,0,0,0,-1,1105,1485,0,0
-112,-461,0,0,0,0,0,0,0,0,0,-1,1112,1485,0,0
-105,-461,0,0,0,0,0,0,0,0,0,-1,1119,1485,0,0
-98,-461,0,0,0,0,0,0,0,0,0,-1,1126,1485,0,0
-91,-461,0,0,0,0,0,0,0,0,0,-1,1133,1485,0,0
-84,-461,0,0,0,0,0,0,0,0,0,-1,1140,1485,0,0
-77,-461,0,0,0,0,0,0,0,0,0,-1,1147,1485,0,0
-70,-461,0,0,0,0,0,0,0,0,0,-1,1154,1485,0,0
-63,-461,0,0,0,0,0,0,0,0,0,-1,1161,1485,0,0
-56,-461,0,0,0,0,0,0,0,0,0,-1,1168,1485,0,0
-49,-461,0,0,0,0,0,0,0,0,0,-1,1175,1485,0,0
-42,-461,0,0,0,0,0,0,0,0,0,-1,1182,1485,0,0
-35,-461,0,0,0,0,0,0,0,0,0,-1,1189,1485,0,0
-28,-461,0,0,0,0,0,0,0,0,0,-1,1196,1485,0,0
-21,-461,0,0,0,0,0,0,0,0,0,-1,1203,1485,0,0
-14,-461,0,0,0,0,0,0,0,0,0,-1,1210,1485,0,0
-7,-461,0,0,0,0,0,0,0,0,0,-1,1217,1485,0,0
0,-461,0,0,0,0,0,0,0,0,0,-1,1224,1485,0,0
7,-461,0,0,0,0,0,0,0,0,0,-1,1231,1485,0,0
14,-461,0,0,0,0,0,0,0,0,0,-1,1238,1485,0,0
21,-461,0,0,0,0,0,0,0,0,0,-1,1245,1485,0,0
28,-461,0,0,0,0,0,0,0,0,0,-1,1252,1485,0,0
35,-461,0,0,0,0,0,0,0,0,0,-1,1259,1485,0,0
42,-461,0,0,0,0,0,0,0,0,0,-1,1266,1485,0,0
49,-461,0,0,0,0,0,0,0,0,0,-1,1273,1485,0,0
56,-461,0,0,0,0,0,0,0,0,0,-1,1280,1485,0,0
63,-461,0,0,0,0,0,0,0,0,0,-1,1287,1485,0,0
70,-461,0,0,0,0,0,0,0,0,0,-1,1294,1485,0,0
77,-461,0,0,0,0,0,0,0,0,0,-1,1301,1485,0,0
84,-461,0,0,0,0,0,0,0,0,0,-1,1308,1485,0,0
91,-461,0,0,0,0,0,0,0,0,0,-1,1315,1485,0,0
98,-461,0,0,0,0,0,0,0,0,0,-1,1322,1485,0,0
105,-461,0,0,0,0,0,0,0,0,0,-1,1329,1485,0,0
112,-461,0,0,0,0,0,0,0,0,0,-1,1336,1485,0,0
119,-461,0,0,0,0,0,0,0,0,0,-1,1343,1485,0,0
126,-461,0,0,0,0,0,0,0,0,0,-1,1350,1485,0,0
133,-461,0,0,0,0,0,0,0,0,0,-1,1357,1485,0,0
140,-461,0,0,0,0,0,0,0,0,0,-1,1364,1485,0,0
147,-461,0,0,0,0,0,0,0,0,0,-1,1371,1485,0,0
154,-461,0,0,0,0,0,0,0,0,0,-1,1378,1485,0,0
161,-461,0,0,0,0,0,0,0,0,0,-1,1385,1485,0,0
168,-461,0,0,0,0,0,0,0,0,0,-1,1392,1485,0,0
175,-461,0,0,0,0,0,0,0,0,0,-1,1399,1485,0,0
182,-461,0,0,0,0,0,0,0,0,0,-1,1406,1485,0,0
189,-461,0,0,0,0,0,0,0,0,0,-1,1413,1485,0,0
196,-461,0,0,0,0,0,0,0,0,0,-1,1420,1485,0,0
203,-461,0,0,0,0,0,0,0,0,0,-1,1427,1485,0,0
210,-461,0,0,0,0,0,0,0,0,0,-1,1434,1485,0,0
217,-461,0,0,0,0,0,0,0,0,0,-1,1441,1485,0,0
224,-461,0,0,0,0,0,0,0,0,0,-1,1448,1485,0,0
231,-461,0,0,0,0,0,0,0,0,0,-1,1455,1485,0,0
238,-461,0,0,0,0,0,0,0,0,0,-1,1462,1485,0,0
245,-461,0,0,0,0,0,0,0,0,0,-1,1469,1485,0,0
252,-461,0,0,0,0,0,0,0,0,0,-1,1476,1485,0,0
259,-461,0,0,0,0,0,0,0,0,0,-1,1483,1485,0,0
266,-461,0,0,0,0,0,0,0,0,0,-1,1490,1485,0,0
273,-461,0,0,0,0,0,0,0,0,0,-1,1497,1485,0,0
280,-461,0,0,0,0,0,0,0,0,0,-1,1504,1485,0,0
287,-461,0,0,0,0,0,0,0,0,0,-1,1511,1485,0,0
294,-461,0,0,0,0,0,0,0,0,0,-1,1518,1485,0,0
301,-461,0,0,0,0,0,0,0,0,0,-1,1525,1485,0,0
308,-461,0,0,0,0,0,0,0,0,0,-1,1532,1485,0,0
315,-461,0,0,0,0,0,0,0,0,0,-1,1539,1485,0,0
322,-461,0,0,0,0,0,0,0,0,0,-1,1546,1485,0,0
329,-461,0,0,0,0,0,0,0,0,0,-1,1553,1485,0,0
336,-461,0,0,0,0,0,0,0,0,0,-1,1560,1485,0,0
343,-461,0,0,0,0,0,0,0,0,0,-1,1567,1485,0,0
350,-461,0,0,0,0,0,0,0,0,0,-1,1574,1485,0,0
357,-461,0,0,0,0,0,0,0,0,0,-1,1581,1485,0,0
364,-461,0,0,0,0,0,0,0,0,0,-1,1588,1485,0,0
371,-461,0,0,0,0,0,0,0,0,0,-1,1595,1485,0,0
378,-461,0,0,0,0,0,0,0,0,0,-1,1602,1485,0,0
385,-461,0,0,0,0,0,0,0,0,0,-1,1609,1485,0,0
392,-461,0,0,0,0,0,0,0,0,0,-1,1616,1485,0,0
399,-461,0,0,0,0,0,0,0,0,0,-1,1623,1485,0,0
406,-461,0,0,0,0,0,0,0,0,0,-1,1630,1485,0,0
413,-461,0,0,0,0,0,0,0,0,0,-1,1637,1485,0,0
420,-461,0,0,0,0,0,0,0,0,0,-1,1644,1485,0,0
427,-461,0,0,0,0,0,0,0,0,0,-1,1651,1485,0,0
434,-461,0,0,0,0,0,0,0,0,0,-1,1658,1485,0,0
441,-461,0,0,0,0,0,0,0,0,0,-1,1665,1485,0,0
448,-461,0,0,0,0,0,0,0,0,0,-1,1672,1485,0,0
455,-461,0,0,0,0,0,0,0,0,0,-1,1679,1485,0,0
462,-461,0,0,0,0,0,0,0,0,0,-1,1686,1485,0,0
469,-461,0,0,0,0,0,0,0,0,0,-1,1693,1485,0,0
476,-461,4.20752,2.82495,-0.00735797,0.00840564,-0.00195827,0.00864527,-0.0075976,-1.44903,0.00938433,0.0495142,1700,1485,4.20753,-2.82489
483,-461,4.42273,2.4198,-0.00836619,-0.00144056,-0.00193433,-0.000936924,-0.00886983,-1.31609,0.00562697,0.0466092,1707,1485,4.42274,-2.41986
490,-461,4.18555,1.54688,-0.0095491,-0.00974184,-0.000659567,-0.0089789,-0.010312,-0.712858,0.00647622,0.0414073,1714,1485,4.18557,-1.54687
497,-461,3.75842,0.925171,-0.00946121,-0.0143041,-5.74515e-07,-0.00946121,-0.0143041,-0.00011863,0.00840075,0.0425525,1721,1485,3.75844,-0.925176
504,-461,3.4989,0.436523,-0.00823404,-0.0166903,0.00104374,-0.00810711,-0.0168172,0.121008,0.00971152,0.0473718,1728,1485,3.49887,-0.43657
511,-461,3.16919,-0.0974121,-0.00639182,-0.0165556,0.00247534,-0.00582102,-0.0171264,0.226634,0.0100555,0.0447566,1735,1485,3.16919,0.0973583
518,-461,2.19043,0.677002,0,0,0,0,0,0,0,-1,1742,1485,2.19044,-0.676946
525,-461,2.51855,1.06262,-0.00227574,-0.0158179,0.00482825,-0.000730601,-0.017363,0.309722,0.0113397,0.0447361,1749,1485,2.51853,-1.06262
532,-461,2.81787,1.43518,-0.000600874,-0.0145403,0.00604048,0.00165244,-0.0167936,0.357048,0.0117852,0.0490847,1756,1485,2.81785,-1.43514
539,-461,1.80176,1.21338,0,0,0,0,0,0,0,-1,1763,1485,1.80174,-1.21339
546,-461,2.30811,1.20703,0.00308332,-0.00860143,0.00771839,0.00692118,-0.0124393,0.461434,0.0113281,0.0495954,1770,1485,2.30811,-1.20702
553,-461,2.69958,1.5127,0.00487321,-0.00570941,0.00822458,0.00936156,-0.0101978,0.499554,0.011296,0.0387917,1777,1485,2.69953,-1.51271
560,-461,2.82495,1.4668,0.00575572,-0.00331005,0.00824978,0.0106359,-0.00819024,0.534186,0.0108998,0.0203743,1784,1485,2.82499,-1.46685
567,-461,2.88318,1.42078,0.00549993,-0.000887192,0.00728306,0.0102588,-0.0056461,0.578777,0.00931056,0.0106799,1791,1485,2.88313,-1.42077
574,-461,2.90601,1.36353,0.00451583,0.000171868,0.00569816,0.00844192,-0.00375423,0.603313,0.00721274,0.0116819,1798,1485,2.90599,-1.36352
581,-461,2.93079,1.34863,0.00346228,0.000979658,0.00446013,0.00685061,-0.00240867,0.649677,0.00554711,0.0124957,1805,1485,2.9308,-1.34862
588,-461,2.90112,1.34448,0.00246389,0.00164656,0.00338001,0.00545984,-0.0013494,0.725237,0.00416324,0.0104548,1812,1485,2.90117,-1.34449
595,-461,2.89038,1.31616,0.00123962,0.00158169,0.00277294,0.00418886,-0.00136755,0.816199,0.003343,0.00859593,1819,1485,2.8904,-1.3162
602,-461,2.90222,1.28027,-0.000555056,0.00118307,0.00199145,0.00248682,-0.00185881,0.99114,0.00251767,0.00946584,1826,1485,2.90226,-1.28025
609,-461,2.91394,1.24365,-0.00221288,0.000834243,0.00142692,0.00139811,-0.00277674,1.19447,0.00245377,0.0114061,1833,1485,2.91393,-1.24369
616,-461,2.92603,1.22095,-0.00398719,-9.88814e-05,0.00096871,0.000129091,-0.00421516,1.33967,0.00285411,0.0132606,1840,1485,2.92597,-1.221
623,-461,2.91138,1.19165,-0.00544808,0.000173941,0.000906114,0.000316373,-0.00559051,1.41488,0.00383681,0.0116256,1847,1485,2.91132,-1.19162
630,-461,2.90186,1.1311,-0.00642363,0.00161987,0.00126913,0.00181536,-0.00661913,1.41796,0.00512616,0.00917977,1854,1485,2.90191,-1.13116
637,-461,2.90588,1.08325,-0.00720937,0.00274697,0.00152136,0.00297425,-0.00743665,1.4225,0.00619205,0.0106932,1861,1485,2.90594,-1.08322
644,-461,2.88184,1.06653,-0.00738172,0.00492443,0.00141309,0.00508461,-0.00754189,1.45793,0.00733579,0.0145137,1868,1485,2.88181,-1.06652
651,-461,2.85083,1.05298,-0.00678203,0.00795845,0.0013386,0.00807902,-0.00690261,1.48096,0.00865853,0.0238664,1875,1485,2.85087,-1.05304
658,-461,2.67419,0.88147,-0.00483413,0.0122331,0.0012443,0.0123233,-0.00492437,1.4984,0.0102588,0.0419802,1882,1485,2.67423,-0.881492
665,-461,2.48059,0.690308,-0.000671526,0.0176019,0.000960813,0.0176523,-0.000721906,1.51841,0.0120161,0.0461792,1889,1485,2.48063,-0.690257
672,-461,2.44604,0.407227,0.00640555,0.0239472,0.000505493,0.0239618,0.00639099,1.54201,0.0143275,0.0452338,1896,1485,2.44602,-0.407198
679,-461,1.2771,-2.01697,0,0,0,0,0,0,0,-1,1903,1485,1.27716,2.01694
686,-461,2.46875,0.966675,0,0,0,0,0,0,0,-1,1910,1485,2.46873,-0.966684
693,-461,0,0,0,0,0,0,0,0,0,-1,1917,1485,0,0
700,-461,0,0,0,0,0,0,0,0,0,-1,1924,1485,0,0
707,-461,0,0,0,0,0,0,0,0,0,-1,1931,1485,0,0
714,-461,0,0,0,0,0,0,0,0,0,-1,1938,1485,0,0
721,-461,0,0,0,0,0,0,0,0,0,-1,1945,1485,0,0
728,-461,0,0,0,0,0,0,0,0,0,-1,1952,1485,0,0
735,-461,0,0,0,0,0,0,0,0,0,-1,1959,1485,0,0
742,-461,0,0,0,0,0,0,0,0,0,-1,1966,1485,0,0
749,-461,0,0,0,0,0,0,0,0,0,-1,1973,1485,0,0
756,-461,0,0,0,0,0,0,0,0,0,-1,1980,1485,0,0
763,-461,0,0,0,0,0,0,0,0,0,-1,1987,1485,0,0
770,-461,0,0,0,0,0,0,0,0,0,-1,1994,1485,0,0
777,-461,0,0,0,0,0,0,0,0,0,-1,2001,1485,0,0
784,-461,0,0,0,0,0,0,0,0,0,-1,2008,1485,0,0
791,-461,0,0,0,0,0,0,0,0,0,-1,2015,1485,0,0
798,-461,0,0,0,0,0,0,0,0,0,-1,2022,1485,0,0
805,-461,0,0,0,0,0,0,0,0,0,-1,2029,1485,0,0
812,-461,0,0,0,0,0,0,0,0,0,-1,2036,1485,0,0
-700,-468,0,0,0,0,0,0,0,0,0,-1,524,1492,0,0
-693,-468,0,0,0,0,0,0,0,0,0,-1,531,1492,0,0
-686,-468,0,0,0,0,0,0,0,0,0,-1,538,1492,0,0
-679,-468,0,0,0,0,0,0,0,0,0,-1,545,1492,0,0
-672,-468,0,0,0,0,0,0,0,0,0,-1,552,1492,0,0
-665,-468,0,0,0,0,0,0,0,0,0,-1,559,1492,0,0
-658,-468,0,0,0,0,0,0,0,0,0,-1,566,1492,0,0
-651,-468,0,0,0,0,0,0,0,0,0,-1,573,1492,0,0
-644,-468,0,0,0,0,0,0,0,0,0,-1,580,1492,0,0
-637,-468,0,0,0,0,0,0,0,0,0,-1,587,1492,0,0
-630,-468,0,0,0,0,0,0,0,0,0,-1,594,1492,0,0
-623,-468,0,0,0,0,0,0,0,0,0,-1,601,1492,0,0
-616,-468,0,0,0,0,0,0,0,0,0,-1,608,1492,0,0
-609,-468,0,0,0,0,0,0,0,0,0,-1,615,1492,0,0
-602,-468,0,0,0,0,0,0,0,0,0,-1,622,1492,0,0
-595,-468,0,0,0,0,0,0,0,0,0,-1,629,1492,0,0
-588,-468,0,0,0,0,0,0,0,0,0,-1,636,1492,0,0
-581,-468,0,0,0,0,0,0,0,0,0,-1,643,1492,0,0
-574,-468,0,0,0,0,0,0,0,0,0,-1,650,1492,0,0
-567,-468,0.807251,-0.0931396,0.0148099,0.0312604,0.00326882,0.0318862,0.0141842,1.38166,0.0184468,0.0485472,657,1492,0.807258,0.0930855
-560,-468,0.779419,0.372192,0.0126556,0.0236022,0.00169893,0.0238599,0.012398,1.42031,0.013779,0.0457477,664,1492,0.779441,-0.372226
-553,-468,1.06604,0.0936279,0.0103398,0.0163657,0.000796164,0.0164691,0.0102364,1.44162,0.00960165,0.04688,671,1492,1.06602,-0.0936394
-546,-468,1.177,-0.098999,0.00816462,0.00985409,0.00042972,0.00995711,0.0080616,1.3355,0.00610512,0.0467705,678,1492,1.17699,0.0990058
-539,-468,1.38367,0.144531,0.00615866,0.00472695,0.000305045,0.00622095,0.00466467,0.201412,0.00373813,0.043499,685,1492,1.38364,-0.144471
-532,-468,0.428833,0.670776,0.00459301,0.00040436,0.000169562,0.00459986,0.000397507,0.0403933,0.00294303,0.0411369,692,1492,0.428806,-0.670798
-525,-468,0.483948,1.02319,0.00350947,-0.00281516,1.2412e-05,0.00350949,-0.00281519,0.00196248,0.00365888,0.04104,699,1492,0.483923,-1.02321
-518,-468,0.685669,1.37793,0.0029406,-0.00484893,-0.000438103,0.00296516,-0.00487349,-0.0560072,0.00457013,0.0399622,706,1492,0.685654,-1.37793
-511,-468,0.738586,1.1355,0.00240081,-0.00586565,-0.000666307,0.00245417,-0.00591901,-0.0799161,0.00497031,0.0303211,713,1492,0.738603,-1.13554
-504,-468,0.810913,1.1521,0.00139672,-0.00630479,-0.000673348,0.00145515,-0.00636322,-0.0865555,0.00480127,0.011814,720,1492,0.810931,-1.15209
-497,-468,0.832581,1.19458,0.000831104,-0.00632767,-0.000549355,0.000873015,-0.00636958,-0.0761446,0.0045653,0.00810558,727,1492,0.832608,-1.19462
-490,-468,0.831238,1.22046,0.000907273,-0.00604154,-0.000490175,0.000941679,-0.00607595,-0.0700783,0.00439826,0.00764555,734,1492,0.831235,-1.22048
-483,-468,0.819214,1.25061,0.000953702,-0.00494774,-0.00057987,0.00101014,-0.00500417,-0.0970228,0.00371884,0.0077925,741,1492,0.819243,-1.25062
-476,-468,0.819946,1.28101,0.000636615,-0.00328335,-0.000823373,0.000802537,-0.00344928,-0.198853,0.00260851,0.00789225,748,1492,0.819939,-1.28101
-469,-468,0.803955,1.30139,-1.09434e-05,-0.00161608,-0.00108515,0.000536181,-0.00216321,-0.466995,0.00165016,0.0113817,755,1492,0.803949,-1.30144
-462,-468,0.824341,1.33472,-0.00100159,0.000421976,-0.00159508,0.00145688,-0.00203649,-0.995258,0.00202613,0.0214364,762,1492,0.824317,-1.33472
-455,-468,0.843384,1.34351,-0.00258624,0.00177972,-0.0020459,0.00258857,-0.0033951,-1.1943,0.00346512,0.0219292,769,1492,0.84336,-1.34353
-448,-468,0.843323,1.422,-0.00418473,0.00286548,-0.0028225,0.00385623,-0.00517548,-1.23322,0.00523297,0.0138246,776,1492,0.843336,-1.42205
-441,-468,0.848755,1.44006,-0.00544336,0.00431363,-0.00445389,0.00604096,-0.00717068,-1.20083,0.00763703,0.0120382,783,1492,0.848736,-1.44001
-434,-468,0.845886,1.47986,-0.00656868,0.00580341,-0.00594928,0.00819997,-0.00896525,-1.18785,0.00991363,0.0104808,790,1492,0.845891,-1.47988
-427,-468,0.821167,1.47998,-0.00715634,0.00655814,-0.0087767,0.0108388,-0.011437,-1.11702,0.0128625,0.0125408,797,1492,0.821185,-1.47997
-420,-468,0.777893,1.50305,-0.00703301,0.00723386,-0.0125833,0.014565,-0.0143642,-1.04326,0.0167024,0.0207399,804,1492,0.777878,-1.503
-413,-468,0.816528,1.48718,-0.00593134,0.00715649,-0.0175717,0.0193632,-0.0181381,-0.963648,0.0216553,0.0386553,811,1492,0.816502,-1.48719
-406,-468,0.789856,1.54443,-0.00413937,0.00667467,-0.0233408,0.0252266,-0.0226913,-0.899218,0.0276783,0.0441998,818,1492,0.78984,-1.54441
-399,-468,0.545105,1.83008,0,0,0,0,0,0,0,-1,825,1492,0.545121,-1.83011
-392,-468,0.0742188,0.897217,0.0053683,-0.000334082,-0.0338864,0.0365232,-0.031489,-0.743427,0.0393027,0.0411149,832,1492,0.0742282,-0.897248
-385,-468,0.263123,0.0921631,0,0,0,0,0,0,0,-1,839,1492,0.263139,-0.092192
-378,-468,0.480103,-0.690063,0.0209585,-0.00710382,-0.045593,0.0546305,-0.0407758,-0.636123,0.0552761,0.0485336,846,1492,0.48013,0.690059
-371,-468,0.512085,-1.34155,0.0309841,-0.00967307,-0.0509487,0.06551,-0.044199,-0.595575,0.0637376,0.0493624,853,1492,0.512068,1.34153
-364,-468,0.235413,-1.63416,0.0416864,-0.0108758,-0.0563318,0.0775662,-0.0467555,-0.567136,0.0725082,0.0496658,860,1492,0.23541,1.63414
-357,-468,-0.126953,-1.7666,0,0,0,0,0,0,0,-1,867,1492,-0.126957,1.76655
-350,-468,-2.59351,-0.218384,0,0,0,0,0,0,0,-1,874,1492,-2.59353,0.218362
-343,-468,0,0,0,0,0,0,0,0,0,-1,881,1492,0,0
-336,-468,0,0,0,0,0,0,0,0,0,-1,888,1492,0,0
-329,-468,0,0,0,0,0,0,0,0,0,-1,895,1492,0,0
-322,-468,0,0,0,0,0,0,0,0,0,-1,902,1492,0,0
-315,-468,0,0,0,0,0,0,0,0,0,-1,909,1492,0,0
-308,-468,0,0,0,0,0,0,0,0,0,-1,916,1492,0,0
-301,-468,0,0,0,0,0,0,0,0,0,-1,923,1492,0,0
-294,-468,0,0,0,0,0,0,0,0,0,-1,930,1492,0,0
-287,-468,0,0,0,0,0,0,0,0,0,-1,937,1492,0,0
-280,-468,0,0,0,0,0,0,0,0,0,-1,944,1492,0,0
-273,-468,0,0,0,0,0,0,0,0,0,-1,951,1492,0,0
-266,-468,0,0,0,0,0,0,0,0,0,-1,958,1492,0,0
-259,-468,0,0,0,0,0,0,0,0,0,-1,965,1492,0,0
-252,-468,0,0,0,0,0,0,0,0,0,-1,972,1492,0,0
-245,-468,0,0,0,0,0,0,0,0,0,-1,979,1492,0,0
-238,-468,0,0,0,0,0,0,0,0,0,-1,986,1492,0,0
-231,-468,0,0,0,0,0,0,0,0,0,-1,993,1492,0,0
-224,-468,0,0,0,0,0,0,0,0,0,-1,1000,1492,0,0
-217,-468,0,0,0,0,0,0,0,0,0,-1,1007,1492,0,0
-210,-468,0,0,0,0,0,0,0,0,0,-1,1014,1492,0,0
-203,-468,0,0,0,0,0,0,0,0,0,-1,1021,1492,0,0
-196,-468,0,0,0,0,0,0,0,0,0,-1,1028,1492,0,0
-189,-468,0,0,0,0,0,0,0,0,0,-1,1035,1492,0,0
-182,-468,0,0,0,0,0,0,0,0,0,-1,1042,1492,0,0
-175,-468,0,0,0,0,0,0,0,0,0,-1,1049,1492,0,0
-168,-468,0,0,0,0,0,0,0,0,0,-1,1056,1492,0,0
-161,-468,0,0,0,0,0,0,0,0,0,-1,1063,1492,0,0
-154,-468,0,0,0,0,0,0,0,0,0,-1,1070,1492,0,0
-147,-468,0,0,0,0,0,0,0,0,0,-1,1077,1492,0,0
-140,-468,0,0,0,0,0,0,0,0,0,-1,1084,1492,0,0
-133,-468,0,0,0,0,0,0,0,0,0,-1,1091,1492,0,0
-126,-468,0,0,0,0,0,0,0,0,0,-1,1098,1492,0,0
-119,-468,0,0,0,0,0,0,0,0,0,-1,1105,1492,0,0
-112,-468,0,0,0,0,0,0,0,0,0,-1,1112,1492,0,0
-105,-468,0,0,0,0,0,0,0,0,0,-1,1119,1492,0,0
-98,-468,0,0,0,0,0,0,0,0,0,-1,1126,1492,0,0
-91,-468,0,0,0,0,0,0,0,0,0,-1,1133,1492,0,0
-84,-468,0,0,0,0,0,0,0,0,0,-1,1140,1492,0,0
-77,-468,0,0,0,0,0,0,0,0,0,-1,1147,1492,0,0
-70,-468,0,0,0,0,0,0,0,0,0,-1,1154,1492,0,0
-63,-468,0,0,0,0,0,0,0,0,0,-1,1161,1492,0,0
-56,-468,0,0,0,0,0,0,0,0,0,-1,1168,1492,0,0
-49,-468,0,0,0,0,0,0,0,0,0,-1,1175,1492,0,0
-42,-468,0,0,0,0,0,0,0,0,0,-1,1182,1492,0,0
-35,-468,0,0,0,0,0,0,0,0,0,-1,1189,1492,0,0
-28,-468,0,0,0,0,0,0,0,0,0,-1,1196,1492,0,0
-21,-468,0,0,0,0,0,0,0,0,0,-1,1203,1492,0,0
-14,-468,0,0,0,0,0,0,0,0,0,-1,1210,1492,0,0
-7,-468,0,0,0,0,0,0,0,0,0,-1,1217,1492,0,0
0,-468,0,0,0,0,0,0,0,0,0,-1,1224,1492,0,0
7,-468,0,0,0,0,0,0,0,0,0,-1,1231,1492,0,0
14,-468,0,0,0,0,0,0,0,0,0,-1,1238,1492,0,0
21,-468,0,0,0,0,0,0,0,0,0,-1,1245,1492,0,0
28,-468,0,0,0,0,0,0,0,0,0,-1,1252,1492,0,0
35,-468,0,0,0,0,0,0,0,0,0,-1,1259,1492,0,0
42,-468,0,0,0,0,0,0,0,0,0,-1,1266,1492,0,0
49,-468,0,0,0,0,0,0,0,0,0,-1,1273,1492,0,0
56,-468,0,0,0,0,0,0,0,0,0,-1,1280,1492,0,0
63,-468,0,0,0,0,0,0,0,0,0,-1,1287,1492,0,0
70,-468,0,0,0,0,0,0,0,0,0,-1,1294,1492,0,0
77,-468,0,0,0,0,0,0,0,0,0,-1,1301,1492,0,0
84,-468,0,0,0,0,0,0,0,0,0,-1,1308,1492,0,0
91,-468,0,0,0,0,0,0,0,0,0,-1,1315,1492,0,0
98,-468,0,0,0,0,0,0,0,0,0,-1,1322,1492,0,0
105,-468,0,0,0,0,0,0,0,0,0,-1,1329,1492,0,0
112,-468,0,0,0,0,0,0,0,0,0,-1,1336,1492,0,0
119,-468,0,0,0,0,0,0,0,0,0,-1,1343,1492,0,0
126,-468,0,0,0,0,0,0,0,0,0,-1,1350,1492,0,0
133,-468,0,0,0,0,0,0,0,0,0,-1,1357,1492,0,0
140,-468,0,0,0,0,0,0,0,0,0,-1,1364,1492,0,0
147,-468,0,0,0,0,0,0,0,0,0,-1,1371,1492,0,0
154,-468,0,0,0,0,0,0,0,0,0,-1,1378,1492,0,0
161,-468,0,0,0,0,0,0,0,0,0,-1,1385,1492,0,0
168,-468,0,0,0,0,0,0,0,0,0,-1,1392,1492,0,0
175,-468,0,0,0,0,0,0,0,0,0,-1,1399,1492,0,0
182,-468,0,0,0,0,0,0,0,0,0,-1,1406,1492,0,0
189,-468,0,0,0,0,0,0,0,0,0,-1,1413,1492,0,0
196,-468,0,0,0,0,0,0,0,0,0,-1,1420,1492,0,0
203,-468,0,0,0,0,0,0,0,0,0,-1,1427,1492,0,0
210,-468,0,0,0,0,0,0,0,0,0,-1,1434,1492,0,0
217,-468,0,0,0,0,0,0,0,0,0,-1,1441,1492,0,0
224,-468,0,0,0,0,0,0,0,0,0,-1,1448,1492,0,0
231,-468,0,0,0,0,0,0,0,0,0,-1,1455,1492,0,0
238,-468,0,0,0,0,0,0,0,0,0,-1,1462,1492,0,0
245,-468,0,0,0,0,0,0,0,0,0,-1,1469,1492,0,0
252,-468,0,0,0,0,0,0,0,0,0,-1,1476,1492,0,0
259,-468,0,0,0,0,0,0,0,0,0,-1,1483,1492,0,0
266,-468,0,0,0,0,0,0,0,0,0,-1,1490,1492,0,0
273,-468,0,0,0,0,0,0,0,0,0,-1,1497,1492,0,0
280,-468,0,0,0,0,0,0,0,0,0,-1,1504,1492,0,0
287,-468,0,0,0,0,0,0,0,0,0,-1,1511,1492,0,0
294,-468,0,0,0,0,0,0,0,0,0,-1,1518,1492,0,0
301,-468,0,0,0,0,0,0,0,0,0,-1,1525,1492,0,0
308,-468,0,0,0,0,0,0,0,0,0,-1,1532,1492,0,0
315,-468,0,0,0,0,0,0,0,0,0,-1,1539,1492,0,0
322,-468,0,0,0,0,0,0,0,0,0,-1,1546,1492,0,0
329,-468,0,0,0,0,0,0,0,0,0,-1,1553,1492,0,0
336,-468,0,0,0,0,0,0,0,0,0,-1,1560,1492,0,0
343,-468,0,0,0,0,0,0,0,0,0,-1,1567,1492,0,0
350,-468,0,0,0,0,0,0,0,0,0,-1,1574,1492,0,0
357,-468,0,0,0,0,0,0,0,0,0,-1,1581,1492,0,0
364,-468,0,0,0,0,0,0,0,0,0,-1,1588,1492,0,0
371,-468,0,0,0,0,0,0,0,0,0,-1,1595,1492,0,0
378,-468,0,0,0,0,0,0,0,0,0,-1,1602,1492,0,0
385,-468,0,0,0,0,0,0,0,0,0,-1,1609,1492,0,0
392,-468,0,0,0,0,0,0,0,0,0,-1,1616,1492,0,0
399,-468,0,0,0,0,0,0,0,0,0,-1,1623,1492,0,0
406,-468,0,0,0,0,0,0,0,0,0,-1,1630,1492,0,0
413,-468,0,0,0,0,0,0,0,0,0,-1,1637,1492,0,0
420,-468,0,0,0,0,0,0,0,0,0,-1,1644,1492,0,0
427,-468,0,0,0,0,0,0,0,0,0,-1,1651,1492,0,0
434,-468,0,0,0,0,0,0,0,0,0,-1,1658,1492,0,0
441,-468,0,0,0,0,0,0,0,0,0,-1,1665,1492,0,0
448,-468,0,0,0,0,0,0,0,0,0,-1,1672,1492,0,0
455,-468,0,0,0,0,0,0,0,0,0,-1,1679,1492,0,0
462,-468,0,0,0,0,0,0,0,0,0,-1,1686,1492,0,0
469,-468,3.63989,3.26282,-0.00865377,0.0179785,-0.00616482,0.0193364,-0.0100116,-1.35401,0.0172268,0.0448596,1693,1492,3.63992,-3.26288
476,-468,3.65356,2.88391,-0.00704314,0.00871148,-0.00422353,0.00977231,-0.00810396,-1.32472,0.0103358,0.048536,1700,1492,3.65353,-2.88388
483,-468,3.46912,2.68604,-0.0067369,0.000866995,-0.00278448,0.0017776,-0.00764751,-1.25473,0.00578267,0.0477843,1707,1492,3.46913,-2.68603
490,-468,3.67676,2.08044,-0.00719494,-0.00635026,-0.00111776,-0.00557771,-0.00796749,-0.966031,0.00472118,0.0422706,1714,1492,3.67681,-2.0805
497,-468,3.66064,1.53674,-0.00674395,-0.010346,-0.000374599,-0.0067054,-0.0103846,-0.102534,0.0060798,0.0421193,1721,1492,3.66068,-1.53671
504,-468,3.52173,1.09692,-0.00594155,-0.0124911,0.000258291,-0.00593138,-0.0125012,0.0393553,0.00722072,0.0460372,1728,1492,3.52168,-1.09687
511,-468,3.22864,0.789917,0,0,0,0,0,0,0,-1,1735,1492,3.22862,-0.789867
518,-468,1.97974,0.49353,0,0,0,0,0,0,0,-1,1742,1492,1.97977,-0.493491
525,-468,2.33362,0.911499,-0.00170546,-0.0133573,0.00222919,-0.00129354,-0.0137693,0.182722,0.00878015,0.0481117,1749,1492,2.33359,-0.911552
532,-468,1.84875,1.36035,-0.000564796,-0.0128569,0.00300497,0.000130483,-0.0135522,0.227375,0.00907861,0.0475918,1756,1492,1.84872,-1.36036
539,-468,2.06995,1.3905,0.000902134,-0.0107554,0.00366813,0.00196029,-0.0118135,0.280848,0.00860388,0.0472455,1763,1492,2.06998,-1.39054
546,-468,2.37793,1.40503,0.00238471,-0.00845888,0.00418139,0.00380981,-0.00988397,0.328472,0.00816125,0.0470566,1770,1492,2.37789,-1.40502
553,-468,2.77295,1.48279,0.0039506,-0.00618508,0.00466876,0.00577336,-0.00800784,0.372217,0.00799136,0.0316064,1777,1492,2.77299,-1.48277
560,-468,2.8678,1.46985,0.00482308,-0.00413574,0.00487224,0.00696212,-0.00627478,0.41369,0.00764576,0.0147341,1784,1492,2.86778,-1.46983
567,-468,2.8783,1.43054,0.0046855,-0.00209148,0.00415561,0.006659,-0.00406498,0.443367,0.00625158,0.0122394,1791,1492,2.8783,-1.43049
574,-468,2.8833,1.38245,0.00411719,-0.00118637,0.00303341,0.00549449,-0.00256367,0.426212,0.00475385,0.0119739,1798,1492,2.88336,-1.38242
581,-468,2.8894,1.35779,0.00337523,-0.000494111,0.00226955,0.00442281,-0.00154169,0.432441,0.00357501,0.01283,1805,1492,2.88938,-1.35784
588,-468,2.87097,1.33398,0.00248195,9.11433e-05,0.00174962,0.00340555,-0.000832454,0.485705,0.00259279,0.0114517,1812,1492,2.871,-1.33401
595,-468,2.86511,1.31274,0.0014182,7.40224e-06,0.0017165,0.00256859,-0.00114299,0.590443,0.00219494,0.00992214,1819,1492,2.86506,-1.31269
602,-468,2.87646,1.27039,-0.000230336,-0.000276072,0.00144522,0.0011922,-0.00169861,0.777487,0.00167752,0.00894738,1826,1492,2.87646,-1.27034
609,-468,2.86316,1.22693,-0.00171935,-0.000606253,0.00139613,0.000340166,-0.00266577,0.975064,0.00190074,0.00973338,1833,1492,2.86311,-1.22694
616,-468,2.86438,1.20435,-0.00353181,-0.00138744,0.00139269,-0.000702024,-0.00421723,1.11345,0.00260915,0.00963631,1840,1492,2.86436,-1.20438
623,-468,2.86658,1.17725,-0.00520341,-0.00128413,0.00154291,-0.000749626,-0.00573792,1.23731,0.0036015,0.00996473,1847,1492,2.86662,-1.17728
630,-468,2.87048,1.12512,-0.00654302,-2.55056e-05,0.00201675,0.000548069,-0.00711659,1.29371,0.00493723,0.00986467,1854,1492,2.87052,-1.12507
637,-468,2.88,1.09448,-0.00775829,0.00101646,0.00233012,0.00159683,-0.00833866,1.32669,0.00616076,0.0125406,1861,1492,2.87999,-1.09444
644,-468,2.83325,1.12939,-0.00837592,0.00313397,0.00218079,0.00353331,-0.00877526,1.38969,0.00731802,0.0208808,1868,1492,2.83327,-1.12934
651,-468,2.72314,0.952148,-0.00819117,0.00632091,0.00197246,0.00658423,-0.00845448,1.43808,0.00870496,0.0419319,1875,1492,2.72315,-0.952162
658,-468,2.57434,0.59729,-0.00648949,0.0109758,0.00167399,0.0111348,-0.00664849,1.4761,0.0103755,0.0454718,1882,1492,2.57432,-0.597245
665,-468,2.47998,0.696899,0,0,0,0,0,0,0,-1,1889,1492,2.48001,-0.696861
672,-468,2.43933,0.236206,0.00539989,0.0244856,0.000450618,0.0244963,0.00538926,1.5472,0.0148637,0.0449968,1896,1492,2.43932,-0.23618
679,-468,2.80396,0.234253,0.0169463,0.0331659,-0.000829732,0.0332082,0.016904,-1.51982,0.0191738,0.0450374,1903,1492,2.8039,-0.23431
686,-468,3.00476,0.365845,0,0,0,0,0,0,0,-1,1910,1492,3.00471,-0.365849
693,-468,0,0,0,0,0,0,0,0,0,-1,1917,1492,0,0
700,-468,0,0,0,0,0,0,0,0,0,-1,1924,1492,0,0
707,-468,0,0,0,0,0,0,0,0,0,-1,1931,1492,0,0
714,-468,0,0,0,0,0,0,0,0,0,-1,1938,1492,0,0
721,-468,0,0,0,0,0,0,0,0,0,-1,1945,1492,0,0
728,-468,0,0,0,0,0,0,0,0,0,-1,1952,1492,0,0
735,-468,0,0,0,0,0,0,0,0,0,-1,1959,1492,0,0
742,-468,0,0,0,0,0,0,0,0,0,-1,1966,1492,0,0
749,-468,0,0,0,0,0,0,0,0,0,-1,1973,1492,0,0
756,-468,0,0,0,0,0,0,0,0,0,-1,1980,1492,0,0
763,-468,0,0,0,0,0,0,0,0,0,-1,1987,1492,0,0
770,-468,0,0,0,0,0,0,0,0,0,-1,1994,1492,0,0
777,-468,0,0,0,0,0,0,0,0,0,-1,2001,1492,0,0
784,-468,0,0,0,0,0,0,0,0,0,-1,2008,1492,0,0
791,-468,0,0,0,0,0,0,0,0,0,-1,2015,1492,0,0
798,-468,0,0,0,0,0,0,0,0,0,-1,2022,1492,0,0
805,-468,0,0,0,0,0,0,0,0,0,-1,2029,1492,0,0
812,-468,0,0,0,0,0,0,0,0,0,-1,2036,1492,0,0
-700,-475,0,0,0,0,0,0,0,0,0,-1,524,1499,0,0
-693,-475,0,0,0,0,0,0,0,0,0,-1,531,1499,0,0
-686,-475,0,0,0,0,0,0,0,0,0,-1,538,1499,0,0
-679,-475,0,0,0,0,0,0,0,0,0,-1,545,1499,0,0
-672,-475,0,0,0,0,0,0,0,0,0,-1,552,1499,0,0
-665,-475,0,0,0,0,0,0,0,0,0,-1,559,1499,0,0
-658,-475,0,0,0,0,0,0,0,0,0,-1,566,1499,0,0
-651,-475,0,0,0,0,0,0,0,0,0,-1,573,1499,0,0
-644,-475,0,0,0,0,0,0,0,0,0,-1,580,1499,0,0
-637,-475,0,0,0,0,0,0,0,0,0,-1,587,1499,0,0
-630,-475,0,0,0,0,0,0,0,0,0,-1,594,1499,0,0
-623,-475,0,0,0,0,0,0,0,0,0,-1,601,1499,0,0
-616,-475,0,0,0,0,0,0,0,0,0,-1,608,1499,0,0
-609,-475,0,0,0,0,0,0,0,0,0,-1,615,1499,0,0
-602,-475,0,0,0,0,0,0,0,0,0,-1,622,1499,0,0
-595,-475,0,0,0,0,0,0,0,0,0,-1,629,1499,0,0
-588,-475,0,0,0,0,0,0,0,0,0,-1,636,1499,0,0
-581,-475,0,0,0,0,0,0,0,0,0,-1,643,1499,0,0
-574,-475,0,0,0,0,0,0,0,0,0,-1,650,1499,0,0
-567,-475,0,0,0,0,0,0,0,0,0,-1,657,1499,0,0
-560,-475,0.678345,0.0189209,0.0158458,0.0243169,0.000349196,0.0243313,0.0158314,1.52967,0.0142587,0.0447831,664,1499,0.678361,-0.0188773
-553,-475,1.21313,-0.324341,0.0123167,0.0159465,-0.000753639,0.0160968,0.0121665,-1.374,0.00969051,0.0476388,671,1499,1.21316,0.324312
-546,-475,1.55347,-0.699097,0.00946759,0.00856564,-0.00109202,0.0101981,0.00783514,-0.589579,0.00616394,0.0440102,678,1499,1.55348,0.699079
-539,-475,2.11554,-0.768311,0,0,0,0,0,0,0,-1,685,1499,2.11557,0.768286
-532,-475,0.279724,0.703613,0,0,0,0,0,0,0,-1,692,1499,0.279733,-0.703649
-525,-475,0.273804,2.26807,0.0043328,-0.00441923,-0.00151909,0.00458897,-0.0046754,-0.167062,0.00534886,0.0437857,699,1499,0.273786,-2.26811
-518,-475,-0.113037,2.66284,0.00379971,-0.00626121,-0.00189446,0.00414461,-0.00660611,-0.180085,0.00626093,0.0449598,706,1499,-0.113013,-2.66281
-511,-475,-0.543152,2.95044,0,0,0,0,0,0,0,-1,713,1499,-0.543154,-2.95046
-504,-475,0.826538,1.1543,0.00242589,-0.00716902,-0.00202834,0.00283705,-0.00758018,-0.2,0.00621873,0.0256026,720,1499,0.826544,-1.15425
-497,-475,0.869019,1.18262,0.0019527,-0.0068367,-0.00183838,0.00232172,-0.00720572,-0.198098,0.00573653,0.0115544,727,1499,0.869049,-1.18262
-490,-475,0.867981,1.21887,0.0020084,-0.00626571,-0.00168117,0.00233694,-0.00659426,-0.192992,0.00534814,0.00794888,734,1499,0.867999,-1.21882
-483,-475,0.861572,1.26489,0.00199281,-0.00495794,-0.00168324,0.00237898,-0.00534411,-0.225518,0.00456716,0.00782835,741,1499,0.861581,-1.2649
-476,-475,0.860596,1.28223,0.00168142,-0.00314648,-0.00172037,0.00223173,-0.00369679,-0.309593,0.0034575,0.0086666,748,1499,0.860575,-1.28227
-469,-475,0.852905,1.29053,0.00111756,-0.00133511,-0.00178449,0.00205648,-0.00227403,-0.48435,0.00250127,0.0102754,755,1499,0.852886,-1.29056
-462,-475,0.860718,1.32373,0.000202811,0.000433111,-0.00197418,0.0022955,-0.00165958,-0.814529,0.00229328,0.0149538,762,1499,0.86069,-1.32369
-455,-475,0.862244,1.38647,-0.00134665,0.0014718,-0.00201883,0.00252461,-0.00239946,-1.0901,0.00284322,0.0134761,769,1499,0.862267,-1.38648
-448,-475,0.864624,1.42786,-0.00286326,0.00231016,-0.00241012,0.00325895,-0.00381205,-1.19576,0.0040866,0.0121444,776,1499,0.864636,-1.42786
-441,-475,0.871704,1.43164,-0.00394733,0.00335176,-0.00357999,0.0048145,-0.00541007,-1.18291,0.0059065,0.0151616,783,1499,0.871683,-1.43167
-434,-475,0.892517,1.44226,-0.00485176,0.00427142,-0.00455949,0.00615941,-0.00673975,-1.17821,0.00744985,0.0101134,790,1499,0.892499,-1.44229
-427,-475,0.889832,1.46875,-0.00518362,0.00453216,-0.0068286,0.00805454,-0.008706,-1.09457,0.00967914,0.0108402,797,1499,0.889843,-1.46878
-420,-475,0.854309,1.52051,-0.0048469,0.0047303,-0.0100451,0.0110698,-0.0111864,-1.00782,0.0128496,0.0139126,804,1499,0.854338,-1.52055
-413,-475,0.80426,1.60718,-0.00365677,0.00424018,-0.0143241,0.01515,-0.0145666,-0.919885,0.017158,0.0273581,811,1499,0.804268,-1.60717
-406,-475,0.550232,1.87805,-0.00190848,0.0034093,-0.0192817,0.0202145,-0.0187137,-0.853915,0.0224808,0.0416841,818,1499,0.550202,-1.87802
-399,-475,0.403076,1.7135,0.00173677,0.000223032,-0.0239967,0.0249885,-0.0230287,-0.769633,0.0277304,0.0429948,825,1499,0.403071,-1.71347
-392,-475,0.609497,1.42676,0,0,0,0,0,0,0,-1,832,1499,0.609483,-1.42676
-385,-475,0.657471,-0.0633545,0,0,0,0,0,0,0,-1,839,1499,0.657455,0.0633758
-378,-475,0.811829,-0.904907,0.023584,-0.0105593,-0.0388605,0.0489574,-0.0359327,-0.578435,0.0492032,0.0475674,846,1499,0.811837,0.904929
-371,-475,1.06128,-1.24268,0.0338464,-0.0130033,-0.0440442,0.0603075,-0.0394645,-0.540998,0.0580209,0.0484717,853,1499,1.06126,1.24268
-364,-475,1.64471,-1.38098,0.0444759,-0.0142655,-0.0488611,0.0721144,-0.041904,-0.514782,0.0665943,0.0498531,860,1499,1.64472,1.381
-357,-475,2.21204,-1.56421,0,0,0,0,0,0,0,-1,867,1499,2.21201,1.56417
-350,-475,-0.953308,-1.08826,0,0,0,0,0,0,0,-1,874,1499,-0.953294,1.08831
-343,-475,-0.804626,-0.297974,0,0,0,0,0,0,0,-1,881,1499,-0.804631,0.29794
-336,-475,0,0,0,0,0,0,0,0,0,-1,888,1499,0,0
-329,-475,0,0,0,0,0,0,0,0,0,-1,895,1499,0,0
-322,-475,0,0,0,0,0,0,0,0,0,-1,902,1499,0,0
-315,-475,0,0,0,0,0,0,0,0,0,-1,909,1499,0,0
-308,-475,0,0,0,0,0,0,0,0,0,-1,916,1499,0,0
-301,-475,0,0,0,0,0,0,0,0,0,-1,923,1499,0,0
-294,-475,0,0,0,0,0,0,0,0,0,-1,930,1499,0,0
-287,-475,0,0,0,0,0,0,0,0,0,-1,937,1499,0,0
-280,-475,0,0,0,0,0,0,0,0,0,-1,944,1499,0,0
-273,-475,0,0,0,0,0,0,0,0,0,-1,951,1499,0,0
-266,-475,0,0,0,0,0,0,0,0,0,-1,958,1499,0,0
-259,-475,0,0,0,0,0,0,0,0,0,-1,965,1499,0,0
-252,-475,0,0,0,0,0,0,0,0,0,-1,972,1499,0,0
-245,-475,0,0,0,0,0,0,0,0,0,-1,979,1499,0,0
-238,-475,0,0,0,0,0,0,0,0,0,-1,986,1499,0,0
-231,-475,0,0,0,0,0,0,0,0,0,-1,993,1499,0,0
-224,-475,0,0,0,0,0,0,0,0,0,-1,1000,1499,0,0
-217,-475,0,0,0,0,0,0,0,0,0,-1,1007,1499,0,0
-210,-475,0,0,0,0,0,0,0,0,0,-1,1014,1499,0,0
-203,-475,0,0,0,0,0,0,0,0,0,-1,1021,1499,0,0
-196,-475,0,0,0,0,0,0,0,0,0,-1,1028,1499,0,0
-189,-475,0,0,0,0,0,0,0,0,0,-1,1035,1499,0,0
-182,-475,0,0,0,0,0,0,0,0,0,-1,1042,1499,0,0
-175,-475,0,0,0,0,0,0,0,0,0,-1,1049,1499,0,0
-168,-475,0,0,0,0,0,0,0,0,0,-1,1056,1499,0,0
-161,-475,0,0,0,0,0,0,0,0,0,-1,1063,1499,0,0
-154,-475,0,0,0,0,0,0,0,0,0,-1,1070,1499,0,0
-147,-475,0,0,0,0,0,0,0,0,0,-1,1077,1499,0,0
-140,-475,0,0,0,0,0,0,0,0,0,-1,1084,1499,0,0
-133,-475,0,0,0,0,0,0,0,0,0,-1,1091,1499,0,0
-126,-475,0,0,0,0,0,0,0,0,0,-1,1098,1499,0,0
-119,-475,0,0,0,0,0,0,0,0,0,-1,1105,1499,0,0
-112,-475,0,0,0,0,0,0,0,0,0,-1,1112,1499,0,0
-105,-475,0,0,0,0,0,0,0,0,0,-1,1119,1499,0,0
-98,-475,0,0,0,0,0,0,0,0,0,-1,1126,1499,0,0
-91,-475,0,0,0,0,0,0,0,0,0,-1,1133,1499,0,0
-84,-475,0,0,0,0,0,0,0,0,0,-1,1140,1499,0,0
-77,-475,0,0,0,0,0,0,0,0,0,-1,1147,1499,0,0
-70,-475,0,0,0,0,0,0,0,0,0,-1,1154,1499,0,0
-63,-475,0,0,0,0,0,0,0,0,0,-1,1161,1499,0,0
-56,-475,0,0,0,0,0,0,0,0,0,-1,1168,1499,0,0
-49,-475,0,0,0,0,0,0,0,0,0,-1,1175,1499,0,0
-42,-475,0,0,0,0,0,0,0,0,0,-1,1182,1499,0,0
-35,-475,0,0,0,0,0,0,0,0,0,-1,1189,1499,0,0
-28,-475,0,0,0,0,0,0,0,0,0,-1,1196,1499,0,0
-21,-475,0,0,0,0,0,0,0,0,0,-1,1203,1499,0,0
-14,-475,0,0,0,0,0,0,0,0,0,-1,1210,1499,0,0
-7,-475,0,0,0,0,0,0,0,0,0,-1,1217,1499,0,0
0,-475,0,0,0,0,0,0,0,0,0,-1,1224,1499,0,0
7,-475,0,0,0,0,0,0,0,0,0,-1,1231,1499,0,0
14,-475,0,0,0,0,0,0,0,0,0,-1,1238,1499,0,0
21,-475,0,0,0,0,0,0,0,0,0,-1,1245,1499,0,0
28,-475,0,0,0,0,0,0,0,0,0,-1,1252,1499,0,0
35,-475,0,0,0,0,0,0,0,0,0,-1,1259,1499,0,0
42,-475,0,0,0,0,0,0,0,0,0,-1,1266,1499,0,0
49,-475,0,0,0,0,0,0,0,0,0,-1,1273,1499,0,0
56,-475,0,0,0,0,0,0,0,0,0,-1,1280,1499,0,0
63,-475,0,0,0,0,0,0,0,0,0,-1,1287,1499,0,0
70,-475,0,0,0,0,0,0,0,0,0,-1,1294,1499,0,0
77,-475,0,0,0,0,0,0,0,0,0,-1,1301,1499,0,0
84,-475,0,0,0,0,0,0,0,0,0,-1,1308,1499,0,0
91,-475,0,0,0,0,0,0,0,0,0,-1,1315,1499,0,0
98,-475,0,0,0,0,0,0,0,0,0,-1,1322,1499,0,0
105,-475,0,0,0,0,0,0,0,0,0,-1,1329,1499,0,0
112,-475,0,0,0,0,0,0,0,0,0,-1,1336,1499,0,0
119,-475,0,0,0,0,0,0,0,0,0,-1,1343,1499,0,0
126,-475,0,0,0,0,0,0,0,0,0,-1,1350,1499,0,0
133,-475,0,0,0,0,0,0,0,0,0,-1,1357,1499,0,0
140,-475,0,0,0,0,0,0,0,0,0,-1,1364,1499,0,0
147,-475,0,0,0,0,0,0,0,0,0,-1,1371,1499,0,0
154,-475,0,0,0,0,0,0,0,0,0,-1,1378,1499,0,0
161,-475,0,0,0,0,0,0,0,0,0,-1,1385,1499,0,0
168,-475,0,0,0,0,0,0,0,0,0,-1,1392,1499,0,0
175,-475,0,0,0,0,0,0,0,0,0,-1,1399,1499,0,0
182,-475,0,0,0,0,0,0,0,0,0,-1,1406,1499,0,0
189,-475,0,0,0,0,0,0,0,0,0,-1,1413,1499,0,0
196,-475,0,0,0,0,0,0,0,0,0,-1,1420,1499,0,0
203,-475,0,0,0,0,0,0,0,0,0,-1,1427,1499,0,0
210,-475,0,0,0,0,0,0,0,0,0,-1,1434,1499,0,0
217,-475,0,0,0,0,0,0,0,0,0,-1,1441,1499,0,0
224,-475,0,0,0,0,0,0,0,0,0,-1,1448,1499,0,0
231,-475,0,0,0,0,0,0,0,0,0,-1,1455,1499,0,0
238,-475,0,0,0,0,0,0,0,0,0,-1,1462,1499,0,0
245,-475,0,0,0,0,0,0,0,0,0,-1,1469,1499,0,0
252,-475,0,0,0,0,0,0,0,0,0,-1,1476,1499,0,0
259,-475,0,0,0,0,0,0,0,0,0,-1,1483,1499,0,0
266,-475,0,0,0,0,0,0,0,0,0,-1,1490,1499,0,0
273,-475,0,0,0,0,0,0,0,0,0,-1,1497,1499,0,0
280,-475,0,0,0,0,0,0,0,0,0,-1,1504,1499,0,0
287,-475,0,0,0,0,0,0,0,0,0,-1,1511,1499,0,0
294,-475,0,0,0,0,0,0,0,0,0,-1,1518,1499,0,0
301,-475,0,0,0,0,0,0,0,0,0,-1,1525,1499,0,0
308,-475,0,0,0,0,0,0,0,0,0,-1,1532,1499,0,0
315,-475,0,0,0,0,0,0,0,0,0,-1,1539,1499,0,0
322,-475,0,0,0,0,0,0,0,0,0,-1,1546,1499,0,0
329,-475,0,0,0,0,0,0,0,0,0,-1,1553,1499,0,0
336,-475,0,0,0,0,0,0,0,0,0,-1,1560,1499,0,0
343,-475,0,0,0,0,0,0,0,0,0,-1,1567,1499,0,0
350,-475,0,0,0,0,0,0,0,0,0,-1,1574,1499,0,0
357,-475,0,0,0,0,0,0,0,0,0,-1,1581,1499,0,0
364,-475,0,0,0,0,0,0,0,0,0,-1,1588,1499,0,0
371,-475,0,0,0,0,0,0,0,0,0,-1,1595,1499,0,0
378,-475,0,0,0,0,0,0,0,0,0,-1,1602,1499,0,0
385,-475,0,0,0,0,0,0,0,0,0,-1,1609,1499,0,0
392,-475,0,0,0,0,0,0,0,0,0,-1,1616,1499,0,0
399,-475,0,0,0,0,0,0,0,0,0,-1,1623,1499,0,0
406,-475,0,0,0,0,0,0,0,0,0,-1,1630,1499,0,0
413,-475,0,0,0,0,0,0,0,0,0,-1,1637,1499,0,0
420,-475,0,0,0,0,0,0,0,0,0,-1,1644,1499,0,0
427,-475,0,0,0,0,0,0,0,0,0,-1,1651,1499,0,0
434,-475,0,0,0,0,0,0,0,0,0,-1,1658,1499,0,0
441,-475,0,0,0,0,0,0,0,0,0,-1,1665,1499,0,0
448,-475,0,0,0,0,0,0,0,0,0,-1,1672,1499,0,0
455,-475,0,0,0,0,0,0,0,0,0,-1,1679,1499,0,0
462,-475,2.53979,4.05493,0,0,0,0,0,0,0,-1,1686,1499,2.5398,-4.05498
469,-475,2.75842,3.11987,-0.00956082,0.0203849,-0.00746026,0.0221405,-0.0113164,-1.33967,0.0196505,0.0453947,1693,1499,2.75848,-3.11982
476,-475,2.80127,2.5177,-0.00712216,0.0118834,-0.00458206,0.0129304,-0.00816918,-1.34615,0.0122848,0.0488635,1700,1499,2.80127,-2.51769
483,-475,3.25928,2.53223,-0.00580738,0.0045187,-0.00262809,0.00514909,-0.00643777,-1.33538,0.00670346,0.0441448,1707,1499,3.25924,-2.53218
490,-475,3.32593,2.58496,-0.00563727,-0.00252649,-0.001031,-0.00221581,-0.00594795,-1.27812,0.00347105,0.039748,1714,1499,3.32593,-2.58492
497,-475,3.25806,1.96448,-0.00496296,-0.0065791,-0.000312583,-0.00490461,-0.00663745,-0.18455,0.0039753,0.0442084,1721,1499,3.25812,-1.96446
504,-475,3.11926,1.53784,0,0,0,0,0,0,0,-1,1728,1499,3.11927,-1.53782
511,-475,1.56958,-0.0411377,0,0,0,0,0,0,0,-1,1735,1499,1.56953,0.0410965
518,-475,1.8291,0.358276,-0.00182493,-0.00958918,0.000779432,-0.00174746,-0.00966665,0.0990701,0.00594814,0.0471215,1742,1499,1.82904,-0.358316
525,-475,2.16785,0.800659,-0.000938347,-0.0102471,0.00102058,-0.000827769,-0.0103577,0.107928,0.00664643,0.0484283,1749,1499,2.16789,-0.800617
532,-475,2.51111,1.26611,-8.89149e-05,-0.0101869,0.00154103,0.000141022,-0.0104168,0.148117,0.00699204,0.0447951,1756,1499,2.51111,-1.26612
539,-475,2.37866,1.48132,0.00113439,-0.00847104,0.00204151,0.00155028,-0.00888693,0.200967,0.00650327,0.0425541,1763,1499,2.3787,-1.4813
546,-475,2.72595,1.48608,0.00244835,-0.00671615,0.00246414,0.00306889,-0.00733668,0.246698,0.0061738,0.0358921,1770,1499,2.726,-1.48604
553,-475,2.81982,1.49084,0.00387066,-0.00487406,0.00297533,0.00478698,-0.00579038,0.298755,0.00611599,0.0178521,1777,1499,2.81985,-1.4909
560,-475,2.82861,1.48767,0.00472555,-0.00312948,0.00330737,0.00593263,-0.00433655,0.349945,0.00595274,0.0124275,1784,1499,2.82867,-1.48763
567,-475,2.86792,1.427,0.00460526,-0.00153453,0.00268911,0.00561649,-0.00254576,0.359687,0.00482236,0.0129127,1791,1499,2.86792,-1.42701
574,-475,2.85596,1.39258,0.00421388,-0.000987784,0.00183633,0.00479682,-0.00157073,0.307389,0.00383035,0.0133602,1798,1499,2.8559,-1.3926
581,-475,2.84326,1.3667,0.00357816,-0.000652299,0.00139805,0.00399843,-0.00107257,0.292016,0.00308591,0.0110832,1805,1499,2.84321,-1.36668
588,-475,2.84082,1.33264,0.00260902,-0.000456541,0.00124693,0.00305216,-0.000899678,0.341461,0.00239175,0.0095969,1812,1499,2.84081,-1.3326
595,-475,2.85205,1.29614,0.00149344,-0.000912931,0.00154969,0.00225219,-0.00167168,0.455305,0.0022737,0.0102696,1819,1499,2.85208,-1.29614
602,-475,2.85742,1.24219,-0.000186792,-0.00141014,0.00158143,0.000897134,-0.00249407,0.600866,0.00202898,0.0116864,1826,1499,2.85744,-1.24213
609,-475,2.83911,1.21594,-0.0017485,-0.00202435,0.00183865,-4.26094e-05,-0.00373025,0.747961,0.00247275,0.0109316,1833,1499,2.83917,-1.21591
616,-475,2.82776,1.21753,-0.00369552,-0.00305569,0.00210177,-0.00124963,-0.00550158,0.860924,0.00333027,0.0104863,1840,1499,2.82776,-1.21758
623,-475,2.82825,1.17505,-0.00560704,-0.00331533,0.00246191,-0.00174568,-0.00717669,1.0032,0.00432173,0.0106472,1847,1499,2.8283,-1.17502
630,-475,2.84387,1.13269,-0.00732359,-0.00244721,0.00304569,-0.000983987,-0.00878681,1.12293,0.00555898,0.0115183,1854,1499,2.84388,-1.13273
637,-475,2.86157,1.18372,-0.0090068,-0.00163958,0.0034,-0.000310309,-0.0103361,1.19811,0.00678964,0.0199602,1861,1499,2.86153,-1.18367
644,-475,2.89868,1.38696,-0.0100983,0.000238145,0.00319369,0.0011453,-0.0110054,1.29404,0.007747,0.0361545,1868,1499,2.89863,-1.38692
651,-475,2.62305,0.991333,0,0,0,0,0,0,0,-1,1875,1499,2.62309,-0.991334
658,-475,2.6825,0.455322,0,0,0,0,0,0,0,-1,1882,1499,2.68249,-0.455305
665,-475,2.52905,0.503784,0,0,0,0,0,0,0,-1,1889,1499,2.52899,-0.503794
672,-475,2.45654,0.0483398,0,0,0,0,0,0,0,-1,1896,1499,2.45653,-0.0483955
679,-475,2.948,-0.445068,0,0,0,0,0,0,0,-1,1903,1499,2.94801,0.445017
686,-475,0,0,0,0,0,0,0,0,0,-1,1910,1499,0,0
693,-475,0,0,0,0,0,0,0,0,0,-1,1917,1499,0,0
700,-475,0,0,0,0,0,0,0,0,0,-1,1924,1499,0,0
707,-475,0,0,0,0,0,0,0,0,0,-1,1931,1499,0,0
714,-475,0,0,0,0,0,0,0,0,0,-1,1938,1499,0,0
721,-475,0,0,0,0,0,0,0,0,0,-1,1945,1499,0,0
728,-475,0,0,0,0,0,0,0,0,0,-1,1952,1499,0,0
735,-475,0,0,0,0,0,0,0,0,0,-1,1959,1499,0,0
742,-475,0,0,0,0,0,0,0,0,0,-1,1966,1499,0,0
749,-475,0,0,0,0,0,0,0,0,0,-1,1973,1499,0,0
756,-475,0,0,0,0,0,0,0,0,0,-1,1980,1499,0,0
763,-475,0,0,0,0,0,0,0,0,0,-1,1987,1499,0,0
770,-475,0,0,0,0,0,0,0,0,0,-1,1994,1499,0,0
777,-475,0,0,0,0,0,0,0,0,0,-1,2001,1499,0,0
784,-475,0,0,0,0,0,0,0,0,0,-1,2008,1499,0,0
791,-475,0,0,0,0,0,0,0,0,0,-1,2015,1499,0,0
798,-475,0,0,0,0,0,0,0,0,0,-1,2022,1499,0,0
805,-475,0,0,0,0,0,0,0,0,0,-1,2029,1499,0,0
812,-475,0,0,0,0,0,0,0,0,0,-1,2036,1499,0,0
-700,-482,0,0,0,0,0,0,0,0,0,-1,524,1506,0,0
-693,-482,0,0,0,0,0,0,0,0,0,-1,531,1506,0,0
-686,-482,0,0,0,0,0,0,0,0,0,-1,538,1506,0,0
-679,-482,0,0,0,0,0,0,0,0,0,-1,545,1506,0,0
-672,-482,0,0,0,0,0,0,0,0,0,-1,552,1506,0,0
-665,-482,0,0,0,0,0,0,0,0,0,-1,559,1506,0,0
-658,-482,0,0,0,0,0,0,0,0,0,-1,566,1506,0,0
-651,-482,0,0,0,0,0,0,0,0,0,-1,573,1506,0,0
-644,-482,0,0,0,0,0,0,0,0,0,-1,580,1506,0,0
-637,-482,0,0,0,0,0,0,0,0,0,-1,587,1506,0,0
-630,-482,0,0,0,0,0,0,0,0,0,-1,594,1506,0,0
-623,-482,0,0,0,0,0,0,0,0,0,-1,601,1506,0,0
-616,-482,0,0,0,0,0,0,0,0,0,-1,608,1506,0,0
-609,-482,0,0,0,0,0,0,0,0,0,-1,615,1506,0,0
-602,-482,0,0,0,0,0,0,0,0,0,-1,622,1506,0,0
-595,-482,0,0,0,0,0,0,0,0,0,-1,629,1506,0,0
-588,-482,0,0,0,0,0,0,0,0,0,-1,636,1506,0,0
-581,-482,0,0,0,0,0,0,0,0,0,-1,643,1506,0,0
-574,-482,0,0,0,0,0,0,0,0,0,-1,650,1506,0,0
-567,-482,0,0,0,0,0,0,0,0,0,-1,657,1506,0,0
-560,-482,0,0,0,0,0,0,0,0,0,-1,664,1506,0,0
-553,-482,1.07465,-0.489502,0,0,0,0,0,0,0,-1,671,1506,1.07464,0.489487
-546,-482,1.75653,-1.08081,0,0,0,0,0,0,0,-1,678,1506,1.75655,1.0808
-539,-482,0.0256348,2.08081,0,0,0,0,0,0,0,-1,685,1506,0.0256341,-2.08083
-532,-482,-0.114319,2.15576,0.00701723,-0.00302546,-0.0037814,0.00828181,-0.00429005,-0.32273,0.00737931,0.0458656,692,1506,-0.114305,-2.15579
-525,-482,0.0344238,1.84802,0.00584527,-0.0060935,-0.00381617,0.00696085,-0.00720908,-0.284405,0.00818143,0.0427609,699,1506,0.0344527,-1.84808
-518,-482,-0.339539,2.49927,0.00522662,-0.00768899,-0.00409142,0.00641361,-0.00887598,-0.282366,0.00886553,0.0487814,706,1506,-0.339515,-2.49925
-511,-482,0.632324,1.21204,0,0,0,0,0,0,0,-1,713,1506,0.632308,-1.21203
-504,-482,0.783691,1.17676,0.00380579,-0.00800228,-0.00401088,0.00503932,-0.0092358,-0.298364,0.00835961,0.0422716,720,1506,0.783674,-1.1768
-497,-482,0.923767,1.13965,0.00329816,-0.00729525,-0.00366709,0.00444371,-0.0084408,-0.302781,0.00755725,0.0220488,727,1506,0.923773,-1.13963
-490,-482,0.90686,1.198,0.00319127,-0.0064381,-0.0033079,0.00421811,-0.00746494,-0.300989,0.00683148,0.0122156,734,1506,0.90684,-1.19794
-483,-482,0.898682,1.25806,0.00297268,-0.00495771,-0.00313033,0.00405939,-0.00604442,-0.334138,0.00587084,0.00829915,741,1506,0.898694,-1.25804
-476,-482,0.898193,1.27795,0.0025844,-0.00300881,-0.00292503,0.00383462,-0.00425903,-0.40392,0.00467501,0.00896174,748,1506,0.898187,-1.27798
-469,-482,0.885132,1.28748,0.00206517,-0.00109216,-0.00275354,0.00366048,-0.00268748,-0.525112,0.00367932,0.00970349,755,1506,0.885118,-1.28744
-462,-482,0.901184,1.32117,0.00122385,0.000440632,-0.00262958,0.00349082,-0.00182634,-0.71148,0.0031196,0.0104838,762,1506,0.9012,-1.32113
-455,-482,0.911743,1.36816,-0.000232412,0.00119077,-0.00231723,0.00290321,-0.00194485,-0.934371,0.0028172,0.0110552,769,1506,0.911747,-1.36816
-448,-482,0.907593,1.40881,-0.00160433,0.00182984,-0.00238517,0.0030517,-0.00282619,-1.09738,0.00339444,0.0117437,776,1506,0.90762,-1.40886
-441,-482,0.905334,1.42371,-0.00243502,0.00254333,-0.00318509,0.00409653,-0.00398822,-1.11708,0.00466787,0.0119815,783,1506,0.905315,-1.42373
-434,-482,0.931763,1.4585,-0.00302529,0.00298169,-0.00377711,0.00480391,-0.00484752,-1.1213,0.00557227,0.0146473,790,1506,0.93175,-1.45848
-427,-482,0.92041,1.51392,-0.00306382,0.00287973,-0.00555337,0.00620648,-0.00639057,-1.03108,0.00727317,0.0163407,797,1506,0.920384,-1.51397
-420,-482,0.878174,1.59717,-0.00249912,0.00270013,-0.00820587,0.00870831,-0.0085073,-0.938797,0.00993967,0.0177,804,1506,0.878194,-1.59715
-413,-482,0.847961,1.62244,-0.00123813,0.00190318,-0.011733,0.0121702,-0.0115052,-0.851936,0.0136708,0.0190061,811,1506,0.847959,-1.62249
-406,-482,0.763611,1.6261,0.000432884,0.000814731,-0.0158153,0.0164402,-0.0151926,-0.791434,0.018268,0.0336617,818,1506,0.763599,-1.62605
-399,-482,0.756653,1.44287,0.00378988,-0.00242224,-0.0196702,0.0205978,-0.0192301,-0.707091,0.0229992,0.0434152,825,1506,0.756681,-1.44289
-392,-482,0.837097,1.18311,0.00886353,-0.00636357,-0.0231712,0.02564,-0.02314,-0.626666,0.0281755,0.047875,832,1506,0.837075,-1.18308
-385,-482,0.955139,1.23755,0,0,0,0,0,0,0,-1,839,1506,0.955166,-1.23758
-378,-482,1.63861,1.62817,0.0246234,-0.0125294,-0.0319531,0.0430076,-0.0309135,-0.522096,0.0428684,0.0430625,846,1506,1.63861,-1.62818
-371,-482,1.48425,-0.824341,0.0347205,-0.0147171,-0.0365382,0.0541158,-0.0341124,-0.488002,0.0513732,0.0448406,853,1506,1.48428,0.824355
-364,-482,2.09937,-0.949341,0.0452709,-0.0155795,-0.0407115,0.0656701,-0.0359787,-0.464501,0.0595156,0.0465526,860,1506,2.09934,0.949364
-357,-482,-0.736084,-1.07776,0,0,0,0,0,0,0,-1,867,1506,-0.736077,1.07774
-350,-482,-0.503906,-0.688721,0.0688374,-0.0189066,-0.0473302,0.0895014,-0.0395706,-0.411649,0.0763558,0.046689,874,1506,-0.503932,0.68875
-343,-482,-0.278076,-0.281006,0.0795512,-0.0138001,-0.0494687,0.100889,-0.0351375,-0.407221,0.0815356,0.0428346,881,1506,-0.278057,0.280983
-336,-482,-0.130981,0.0961914,0,0,0,0,0,0,0,-1,888,1506,-0.130966,-0.0961953
-329,-482,0,0,0,0,0,0,0,0,0,-1,895,1506,0,0
-322,-482,0,0,0,0,0,0,0,0,0,-1,902,1506,0,0
-315,-482,0,0,0,0,0,0,0,0,0,-1,909,1506,0,0
-308,-482,0,0,0,0,0,0,0,0,0,-1,916,1506,0,0
-301,-482,0,0,0,0,0,0,0,0,0,-1,923,1506,0,0
-294,-482,0,0,0,0,0,0,0,0,0,-1,930,1506,0,0
-287,-482,0,0,0,0,0,0,0,0,0,-1,937,1506,0,0
-280,-482,0,0,0,0,0,0,0,0,0,-1,944,1506,0,0
-273,-482,0,0,0,0,0,0,0,0,0,-1,951,1506,0,0
-266,-482,0,0,0,0,0,0,0,0,0,-1,958,1506,0,0
-259,-482,0,0,0,0,0,0,0,0,0,-1,965,1506,0,0
-252,-482,0,0,0,0,0,0,0,0,0,-1,972,1506,0,0
-245,-482,0,0,0,0,0,0,0,0,0,-1,979,1506,0,0
-238,-482,0,0,0,0,0,0,0,0,0,-1,986,1506,0,0
-231,-482,0,0,0,0,0,0,0,0,0,-1,993,1506,0,0
-224,-482,0,0,0,0,0,0,0,0,0,-1,1000,1506,0,0
-217,-482,0,0,0,0,0,0,0,0,0,-1,1007,1506,0,0
-210,-482,0,0,0,0,0,0,0,0,0,-1,1014,1506,0,0
-203,-482,0,0,0,0,0,0,0,0,0,-1,1021,1506,0,0
-196,-482,0,0,0,0,0,0,0,0,0,-1,1028,1506,0,0
-189,-482,0,0,0,0,0,0,0,0,0,-1,1035,1506,0,0
-182,-482,0,0,0,0,0,0,0,0,0,-1,1042,1506,0,0
-175,-482,0,0,0,0,0,0,0,0,0,-1,1049,1506,0,0
-168,-482,0,0,0,0,0,0,0,0,0,-1,1056,1506,0,0
-161,-482,0,0,0,0,0,0,0,0,0,-1,1063,1506,0,0
-154,-482,0,0,0,0,0,0,0,0,0,-1,1070,1506,0,0
-147,-482,0,0,0,0,0,0,0,0,0,-1,1077,1506,0,0
-140,-482,0,0,0,0,0,0,0,0,0,-1,1084,1506,0,0
-133,-482,0,0,0,0,0,0,0,0,0,-1,1091,1506,0,0
-126,-482,0,0,0,0,0,0,0,0,0,-1,1098,1506,0,0
-119,-482,0,0,0,0,0,0,0,0,0,-1,1105,1506,0,0
-112,-482,0,0,0,0,0,0,0,0,0,-1,1112,1506,0,0
-105,-482,0,0,0,0,0,0,0,0,0,-1,1119,1506,0,0
-98,-482,0,0,0,0,0,0,0,0,0,-1,1126,1506,0,0
-91,-482,0,0,0,0,0,0,0,0,0,-1,1133,1506,0,0
-84,-482,0,0,0,0,0,0,0,0,0,-1,1140,1506,0,0
-77,-482,0,0,0,0,0,0,0,0,0,-1,1147,1506,0,0
-70,-482,0,0,0,0,0,0,0,0,0,-1,1154,1506,0,0
-63,-482,0,0,0,0,0,0,0,0,0,-1,1161,1506,0,0
-56,-482,0,0,0,0,0,0,0,0,0,-1,1168,1506,0,0
-49,-482,0,0,0,0,0,0,0,0,0,-1,1175,1506,0,0
-42,-482,0,0,0,0,0,0,0,0,0,-1,1182,1506,0,0
-35,-482,0,0,0,0,0,0,0,0,0,-1,1189,1506,0,0
-28,-482,0,0,0,0,0,0,0,0,0,-1,1196,1506,0,0
-21,-482,0,0,0,0,0,0,0,0,0,-1,1203,1506,0,0
-14,-482,0,0,0,0,0,0,0,0,0,-1,1210,1506,0,0
-7,-482,0,0,0,0,0,0,0,0,0,-1,1217,1506,0,0
0,-482,0,0,0,0,0,0,0,0,0,-1,1224,1506,0,0
7,-482,0,0,0,0,0,0,0,0,0,-1,1231,1506,0,0
14,-482,0,0,0,0,0,0,0,0,0,-1,1238,1506,0,0
21,-482,0,0,0,0,0,0,0,0,0,-1,1245,1506,0,0
28,-482,0,0,0,0,0,0,0,0,0,-1,1252,1506,0,0
35,-482,0,0,0,0,0,0,0,0,0,-1,1259,1506,0,0
42,-482,0,0,0,0,0,0,0,0,0,-1,1266,1506,0,0
49,-482,0,0,0,0,0,0,0,0,0,-1,1273,1506,0,0
56,-482,0,0,0,0,0,0,0,0,0,-1,1280,1506,0,0
63,-482,0,0,0,0,0,0,0,0,0,-1,1287,1506,0,0
70,-482,0,0,0,0,0,0,0,0,0,-1,1294,1506,0,0
77,-482,0,0,0,0,0,0,0,0,0,-1,1301,1506,0,0
84,-482,0,0,0,0,0,0,0,0,0,-1,1308,1506,0,0
91,-482,0,0,0,0,0,0,0,0,0,-1,1315,1506,0,0
98,-482,0,0,0,0,0,0,0,0,0,-1,1322,1506,0,0
105,-482,0,0,0,0,0,0,0,0,0,-1,1329,1506,0,0
112,-482,0,0,0,0,0,0,0,0,0,-1,1336,1506,0,0
119,-482,0,0,0,0,0,0,0,0,0,-1,1343,1506,0,0
126,-482,0,0,0,0,0,0,0,0,0,-1,1350,1506,0,0
133,-482,0,0,0,0,0,0,0,0,0,-1,1357,1506,0,0
140,-482,0,0,0,0,0,0,0,0,0,-1,1364,1506,0,0
147,-482,0,0,0,0,0,0,0,0,0,-1,1371,1506,0,0
154,-482,0,0,0,0,0,0,0,0,0,-1,1378,1506,0,0
161,-482,0,0,0,0,0,0,0,0,0,-1,1385,1506,0,0
168,-482,0,0,0,0,0,0,0,0,0,-1,1392,1506,0,0
175,-482,0,0,0,0,0,0,0,0,0,-1,1399,1506,0,0
182,-482,0,0,0,0,0,0,0,0,0,-1,1406,1506,0,0
189,-482,0,0,0,0,0,0,0,0,0,-1,1413,1506,0,0
196,-482,0,0,0,0,0,0,0,0,0,-1,1420,1506,0,0
203,-482,0,0,0,0,0,0,0,0,0,-1,1427,1506,0,0
210,-482,0,0,0,0,0,0,0,0,0,-1,1434,1506,0,0
217,-482,0,0,0,0,0,0,0,0,0,-1,1441,1506,0,0
224,-482,0,0,0,0,0,0,0,0,0,-1,1448,1506,0,0
231,-482,0,0,0,0,0,0,0,0,0,-1,1455,1506,0,0
238,-482,0,0,0,0,0,0,0,0,0,-1,1462,1506,0,0
245,-482,0,0,0,0,0,0,0,0,0,-1,1469,1506,0,0
252,-482,0,0,0,0,0,0,0,0,0,-1,1476,1506,0,0
259,-482,0,0,0,0,0,0,0,0,0,-1,1483,1506,0,0
266,-482,0,0,0,0,0,0,0,0,0,-1,1490,1506,0,0
273,-482,0,0,0,0,0,0,0,0,0,-1,1497,1506,0,0
280,-482,0,0,0,0,0,0,0,0,0,-1,1504,1506,0,0
287,-482,0,0,0,0,0,0,0,0,0,-1,1511,1506,0,0
294,-482,0,0,0,0,0,0,0,0,0,-1,1518,1506,0,0
301,-482,0,0,0,0,0,0,0,0,0,-1,1525,1506,0,0
308,-482,0,0,0,0,0,0,0,0,0,-1,1532,1506,0,0
315,-482,0,0,0,0,0,0,0,0,0,-1,1539,1506,0,0
322,-482,0,0,0,0,0,0,0,0,0,-1,1546,1506,0,0
329,-482,0,0,0,0,0,0,0,0,0,-1,1553,1506,0,0
336,-482,0,0,0,0,0,0,0,0,0,-1,1560,1506,0,0
343,-482,0,0,0,0,0,0,0,0,0,-1,1567,1506,0,0
350,-482,0,0,0,0,0,0,0,0,0,-1,1574,1506,0,0
357,-482,0,0,0,0,0,0,0,0,0,-1,1581,1506,0,0
364,-482,0,0,0,0,0,0,0,0,0,-1,1588,1506,0,0
371,-482,0,0,0,0,0,0,0,0,0,-1,1595,1506,0,0
378,-482,0,0,0,0,0,0,0,0,0,-1,1602,1506,0,0
385,-482,0,0,0,0,0,0,0,0,0,-1,1609,1506,0,0
392,-482,0,0,0,0,0,0,0,0,0,-1,1616,1506,0,0
399,-482,0,0,0,0,0,0,0,0,0,-1,1623,1506,0,0
406,-482,0,0,0,0,0,0,0,0,0,-1,1630,1506,0,0
413,-482,0,0,0,0,0,0,0,0,0,-1,1637,1506,0,0
420,-482,0,0,0,0,0,0,0,0,0,-1,1644,1506,0,0
427,-482,0,0,0,0,0,0,0,0,0,-1,1651,1506,0,0
434,-482,0,0,0,0,0,0,0,0,0,-1,1658,1506,0,0
441,-482,0,0,0,0,0,0,0,0,0,-1,1665,1506,0,0
448,-482,-1.6925,-3.20337,0,0,0,0,0,0,0,-1,1672,1506,-1.69255,3.20336
455,-482,3.29858,0.298706,0,0,0,0,0,0,0,-1,1679,1506,3.29857,-0.298747
462,-482,1.88794,2.9314,0,0,0,0,0,0,0,-1,1686,1506,1.88788,-2.93144
469,-482,2.16125,2.02515,-0.0109782,0.0224831,-0.00826878,0.0244149,-0.01291,-1.34129,0.0218881,0.0465438,1693,1506,2.16123,-2.02518
476,-482,2.85071,2.15552,-0.00766763,0.0145352,-0.00492861,0.0155801,-0.00871251,-1.36189,0.0142109,0.0435605,1700,1506,2.85066,-2.15554
483,-482,2.89734,2.34375,-0.0054047,0.00764241,-0.00273529,0.00819264,-0.00595493,-1.37228,0.00820209,0.0445281,1707,1506,2.89738,-2.34375
490,-482,3.15271,2.59595,-0.00457833,0.000976571,-0.00116332,0.00121036,-0.00481211,-1.37247,0.00367851,0.0418712,1714,1506,3.15267,-2.59595
497,-482,3.19604,2.26929,-0.00363976,-0.00295757,-0.000559284,-0.00264357,-0.00395376,-1.05922,0.00232557,0.0467442,1721,1506,3.19599,-2.26925
504,-482,3.13525,1.98181,-0.00290741,-0.00501769,-0.000477794,-0.00280427,-0.00512083,-0.212601,0.00296098,0.0458167,1728,1506,3.1352,-1.98177
511,-482,1.46252,-0.182617,0,0,0,0,0,0,0,-1,1735,1506,1.46254,0.18259
518,-482,1.69641,0.241821,0,0,0,0,0,0,0,-1,1742,1506,1.69637,-0.241839
525,-482,2.24072,1.42883,0,0,0,0,0,0,0,-1,1749,1506,2.24074,-1.4288
532,-482,2.49402,1.49292,-0.000207139,-0.00739211,1.48346e-05,-0.000207108,-0.00739214,0.00206465,0.00486053,0.0388515,1756,1506,2.494,-1.49293
539,-482,2.7948,1.56128,0.000640493,-0.00609105,0.000422428,0.000666898,-0.00611745,0.0624271,0.0043178,0.028921,1763,1506,2.79478,-1.56129
546,-482,2.77966,1.52051,0.00161962,-0.00493674,0.000783287,0.0017119,-0.00502902,0.117271,0.0040459,0.0160237,1770,1506,2.77963,-1.52055
553,-482,2.78198,1.51147,0.00271748,-0.00354705,0.0013215,0.00298484,-0.00381441,0.19962,0.00393528,0.0136605,1777,1506,2.78203,-1.51143
560,-482,2.79761,1.47424,0.00341877,-0.00203305,0.00179773,0.0039582,-0.00257248,0.291512,0.00379868,0.0115278,1784,1506,2.79764,-1.47419
567,-482,2.82605,1.44751,0.00329252,-0.000781705,0.00138612,0.00371938,-0.00120856,0.298737,0.00296569,0.0143348,1791,1506,2.8261,-1.44752
574,-482,2.80762,1.40942,0.00315062,-0.000443284,0.000797618,0.00331968,-0.000612351,0.208874,0.00244296,0.0138929,1798,1506,2.80756,-1.40937
581,-482,2.79395,1.37622,0.00272053,-0.000333279,0.000661823,0.0028578,-0.00047054,0.204499,0.00207986,0.00981996,1805,1506,2.79398,-1.37627
588,-482,2.81213,1.32483,0.00182741,-0.000386462,0.000852066,0.00211737,-0.000676425,0.328012,0.00168299,0.0104868,1812,1506,2.8121,-1.32483
595,-482,2.8241,1.27844,0.00086482,-0.00107824,0.00142982,0.00162195,-0.00183537,0.486989,0.00199735,0.0151793,1819,1506,2.82405,-1.27842
602,-482,2.828,1.24695,-0.000635123,-0.00169401,0.00172088,0.000635911,-0.00296505,0.636163,0.00221925,0.0186392,1826,1506,2.82806,-1.24695
609,-482,2.81836,1.22241,-0.00205683,-0.00252735,0.00224651,-3.32925e-05,-0.00455089,0.733228,0.00302289,0.0147589,1833,1506,2.81836,-1.22241
616,-482,2.80835,1.20752,-0.00393663,-0.00381618,0.00274673,-0.00112902,-0.0066238,0.796359,0.00409178,0.0110552,1840,1506,2.80841,-1.20752
623,-482,2.79797,1.17981,-0.00595245,-0.0045046,0.00328358,-0.00186609,-0.00859096,0.893897,0.00521772,0.0108972,1847,1506,2.79796,-1.17977
630,-482,2.80859,1.17261,-0.00802459,-0.00415,0.00394572,-0.00169164,-0.010483,1.0136,0.00649856,0.0179592,1854,1506,2.8086,-1.17265
637,-482,2.83704,1.3396,-0.0102254,-0.00383039,0.00431854,-0.00165447,-0.0124014,1.10407,0.00777499,0.0337664,1861,1506,2.83708,-1.33954
644,-482,2.40271,1.31641,-0.0119207,-0.00239189,0.00403071,-0.000915604,-0.0133969,1.21971,0.00864227,0.0397795,1868,1506,2.40271,-1.31637
651,-482,0.64563,1.87695,0,0,0,0,0,0,0,-1,1875,1506,0.645677,-1.8769
658,-482,2.74353,0.772827,0,0,0,0,0,0,0,-1,1882,1506,2.74352,-0.77281
665,-482,2.64514,0.417358,0,0,0,0,0,0,0,-1,1889,1506,2.64516,-0.417399
672,-482,2.58069,0.484253,0,0,0,0,0,0,0,-1,1896,1506,2.58063,-0.484262
679,-482,0,0,0,0,0,0,0,0,0,-1,1903,1506,0,0
686,-482,0,0,0,0,0,0,0,0,0,-1,1910,1506,0,0
693,-482,0,0,0,0,0,0,0,0,0,-1,1917,1506,0,0
700,-482,0,0,0,0,0,0,0,0,0,-1,1924,1506,0,0
707,-482,0,0,0,0,0,0,0,0,0,-1,1931,1506,0,0
714,-482,0,0,0,0,0,0,0,0,0,-1,1938,1506,0,0
721,-482,0,0,0,0,0,0,0,0,0,-1,1945,1506,0,0
728,-482,0,0,0,0,0,0,0,0,0,-1,1952,1506,0,0
735,-482,0,0,0,0,0,0,0,0,0,-1,1959,1506,0,0
742,-482,0,0,0,0,0,0,0,0,0,-1,1966,1506,0,0
749,-482,0,0,0,0,0,0,0,0,0,-1,1973,1506,0,0
756,-482,0,0,0,0,0,0,0,0,0,-1,1980,1506,0,0
763,-482,0,0,0,0,0,0,0,0,0,-1,1987,1506,0,0
770,-482,0,0,0,0,0,0,0,0,0,-1,1994,1506,0,0
777,-482,0,0,0,0,0,0,0,0,0,-1,2001,1506,0,0
784,-482,0,0,0,0,0,0,0,0,0,-1,2008,1506,0,0
791,-482,0,0,0,0,0,0,0,0,0,-1,2015,1506,0,0
798,-482,0,0,0,0,0,0,0,0,0,-1,2022,1506,0,0
805,-482,0,0,0,0,0,0,0,0,0,-1,2029,1506,0,0
812,-482,0,0,0,0,0,0,0,0,0,-1,2036,1506,0,0
-700,-489,0,0,0,0,0,0,0,0,0,-1,524,1513,0,0
-693,-489,0,0,0,0,0,0,0,0,0,-1,531,1513,0,0
-686,-489,0,0,0,0,0,0,0,0,0,-1,538,1513,0,0
-679,-489,0,0,0,0,0,0,0,0,0,-1,545,1513,0,0
-672,-489,0,0,0,0,0,0,0,0,0,-1,552,1513,0,0
-665,-489,0,0,0,0,0,0,0,0,0,-1,559,1513,0,0
-658,-489,0,0,0,0,0,0,0,0,0,-1,566,1513,0,0
-651,-489,0,0,0,0,0,0,0,0,0,-1,573,1513,0,0
-644,-489,0,0,0,0,0,0,0,0,0,-1,580,1513,0,0
-637,-489,0,0,0,0,0,0,0,0,0,-1,587,1513,0,0
-630,-489,0,0,0,0,0,0,0,0,0,-1,594,1513,0,0
-623,-489,0,0,0,0,0,0,0,0,0,-1,601,1513,0,0
-616,-489,0,0,0,0,0,0,0,0,0,-1,608,1513,0,0
-609,-489,0,0,0,0,0,0,0,0,0,-1,615,1513,0,0
-602,-489,0,0,0,0,0,0,0,0,0,-1,622,1513,0,0
-595,-489,0,0,0,0,0,0,0,0,0,-1,629,1513,0,0
-588,-489,0,0,0,0,0,0,0,0,0,-1,636,1513,0,0
-581,-489,0,0,0,0,0,0,0,0,0,-1,643,1513,0,0
-574,-489,0,0,0,0,0,0,0,0,0,-1,650,1513,0,0
-567,-489,0,0,0,0,0,0,0,0,0,-1,657,1513,0,0
-560,-489,0,0,0,0,0,0,0,0,0,-1,664,1513,0,0
-553,-489,1.09552,-0.900879,0,0,0,0,0,0,0,-1,671,1513,1.09551,0.900833
-546,-489,-0.20166,-1.8291,0,0,0,0,0,0,0,-1,678,1513,-0.201655,1.82908
-539,-489,0.231384,2.18103,0,0,0,0,0,0,0,-1,685,1513,0.231361,-2.18104
-532,-489,0.0665894,2.25732,0.00848906,-0.00400199,-0.00820541,0.0125554,-0.00806837,-0.460099,0.0120007,0.0492782,692,1513,0.0665767,-2.25736
-525,-489,-0.157532,2.40442,0.0070653,-0.00695387,-0.00840836,0.0110026,-0.0108912,-0.437937,0.0126405,0.0471014,699,1513,-0.157541,-2.40443
-518,-489,-0.308472,2.5,0.00621434,-0.00834607,-0.00865282,0.0102422,-0.0123739,-0.435668,0.0130768,0.0469288,706,1513,-0.30847,-2.50006
-511,-489,0.383789,1.85974,0,0,0,0,0,0,0,-1,713,1513,0.383792,-1.85975
-504,-489,0.716614,1.62451,0.00456087,-0.00820158,-0.00830018,0.00864927,-0.01229,-0.457684,0.01215,0.0462274,720,1513,0.716622,-1.62446
-497,-489,0.981384,1.23083,0.00394948,-0.00731449,-0.00768617,0.00784621,-0.0112112,-0.469216,0.0110598,0.0378262,727,1513,0.981387,-1.23079
-490,-489,0.944824,1.18372,0.00362323,-0.0062655,-0.00688406,0.00715454,-0.00979681,-0.473969,0.00982642,0.0202051,734,1513,0.944836,-1.18375
-483,-489,0.92804,1.24121,0.00319264,-0.00470238,-0.00621918,0.00661134,-0.00812108,-0.502615,0.00852064,0.0101574,741,1513,0.928066,-1.24115
-476,-489,0.931152,1.26172,0.00269003,-0.00269531,-0.00547998,0.00610315,-0.00610842,-0.55704,0.00705035,0.0092183,748,1513,0.931127,-1.2617
-469,-489,0.921021,1.27966,0.00217383,-0.000766373,-0.0047817,0.00570631,-0.00429885,-0.636262,0.0057955,0.00981852,755,1513,0.921034,-1.27963
-462,-489,0.935608,1.32544,0.00140463,0.000437189,-0.00407207,0.00502161,-0.00317979,-0.72628,0.00477471,0.0139681,762,1513,0.935603,-1.32539
-455,-489,0.955872,1.37756,5.8382e-05,0.000842906,-0.00312931,0.00360444,-0.00270315,-0.847749,0.00365406,0.0170813,769,1513,0.955849,-1.3775
-448,-489,0.953552,1.41321,-0.00116445,0.00118743,-0.00272612,0.00298042,-0.00295745,-0.989021,0.00342824,0.0156286,776,1513,0.95357,-1.41327
-441,-489,0.940491,1.45361,-0.00177774,0.00154301,-0.00289533,0.00322027,-0.00345499,-1.04574,0.00385476,0.0138663,783,1513,0.940478,-1.45358
-434,-489,0.961914,1.49341,-0.00212222,0.00142599,-0.0031072,0.00322989,-0.00392612,-1.0448,0.00413804,0.0159725,790,1513,0.961902,-1.49335
-427,-489,0.942322,1.54651,-0.00196404,0.000924791,-0.00438702,0.00409906,-0.00513831,-0.944433,0.00534444,0.0183537,797,1513,0.942305,-1.54645
-420,-489,0.867188,1.61206,-0.00124619,0.000337826,-0.0064612,0.00605538,-0.00696374,-0.846383,0.00752269,0.0178809,804,1513,0.867195,-1.61204
-413,-489,0.895142,1.61719,-2.80903e-06,-0.000755975,-0.00924842,0.00887669,-0.00963548,-0.76505,0.010691,0.0157781,811,1513,0.895151,-1.61722
-406,-489,0.878906,1.58972,0.00151779,-0.00207401,-0.0124802,0.0123306,-0.0128869,-0.713939,0.0145605,0.0197442,818,1513,0.878913,-1.58969
-399,-489,0.949341,1.39624,0.00451979,-0.00523696,-0.0155359,0.0159253,-0.0166424,-0.63327,0.0188045,0.0315163,825,1513,0.949339,-1.39629
-392,-489,1.14435,1.34229,0.00908273,-0.00882065,-0.0183017,0.0205047,-0.0202426,-0.557946,0.0235256,0.0383715,832,1513,1.14437,-1.34229
-385,-489,1.38556,1.47424,0.0157462,-0.0118522,-0.0218263,0.0277696,-0.0238756,-0.503507,0.0298456,0.040933,839,1513,1.38558,-1.4743
-378,-489,1.44641,1.65283,0.0239751,-0.0141438,-0.02549,0.0367434,-0.0269121,-0.464377,0.0368973,0.041416,846,1513,1.44642,-1.65278
-371,-489,0.993896,1.59851,0,0,0,0,0,0,0,-1,853,1513,0.993904,-1.5985
-364,-489,2.4342,-0.533569,0,0,0,0,0,0,0,-1,860,1513,2.43422,0.533609
-357,-489,-1.02368,-0.297852,0,0,0,0,0,0,0,-1,867,1513,-1.02367,0.297798
-350,-489,-0.543091,-0.109985,0.0671221,-0.0149144,-0.0397298,0.0832086,-0.031001,-0.384722,0.0681967,0.0450929,874,1513,-0.54309,0.109987
-343,-489,-0.0285034,0.157593,0.0774978,-0.00914697,-0.0419853,0.0945045,-0.0261536,-0.384863,0.0732931,0.0445494,881,1513,-0.0284733,-0.157561
-336,-489,0.00927734,2.04688,0,0,0,0,0,0,0,-1,888,1513,0.00927056,-2.04692
-329,-489,0.512573,1.83716,0,0,0,0,0,0,0,-1,895,1513,0.512577,-1.83715
-322,-489,0,0,0,0,0,0,0,0,0,-1,902,1513,0,0
-315,-489,0,0,0,0,0,0,0,0,0,-1,909,1513,0,0
-308,-489,0,0,0,0,0,0,0,0,0,-1,916,1513,0,0
-301,-489,0,0,0,0,0,0,0,0,0,-1,923,1513,0,0
-294,-489,0,0,0,0,0,0,0,0,0,-1,930,1513,0,0
-287,-489,0,0,0,0,0,0,0,0,0,-1,937,1513,0,0
-280,-489,0,0,0,0,0,0,0,0,0,-1,944,1513,0,0
-273,-489,0,0,0,0,0,0,0,0,0,-1,951,1513,0,0
-266,-489,0,0,0,0,0,0,0,0,0,-1,958,1513,0,0
-259,-489,0,0,0,0,0,0,0,0,0,-1,965,1513,0,0
-252,-489,0,0,0,0,0,0,0,0,0,-1,972,1513,0,0
-245,-489,0,0,0,0,0,0,0,0,0,-1,979,1513,0,0
-238,-489,0,0,0,0,0,0,0,0,0,-1,986,1513,0,0
-231,-489,0,0,0,0,0,0,0,0,0,-1,993,1513,0,0
-224,-489,0,0,0,0,0,0,0,0,0,-1,1000,1513,0,0
-217,-489,0,0,0,0,0,0,0,0,0,-1,1007,1513,0,0
-210,-489,0,0,0,0,0,0,0,0,0,-1,1014,1513,0,0
-203,-489,0,0,0,0,0,0,0,0,0,-1,1021,1513,0,0
-196,-489,0,0,0,0,0,0,0,0,0,-1,1028,1513,0,0
-189,-489,0,0,0,0,0,0,0,0,0,-1,1035,1513,0,0
-182,-489,0,0,0,0,0,0,0,0,0,-1,1042,1513,0,0
-175,-489,0,0,0,0,0,0,0,0,0,-1,1049,1513,0,0
-168,-489,0,0,0,0,0,0,0,0,0,-1,1056,1513,0,0
-161,-489,0,0,0,0,0,0,0,0,0,-1,1063,1513,0,0
-154,-489,0,0,0,0,0,0,0,0,0,-1,1070,1513,0,0
-147,-489,0,0,0,0,0,0,0,0,0,-1,1077,1513,0,0
-140,-489,0,0,0,0,0,0,0,0,0,-1,1084,1513,0,0
-133,-489,0,0,0,0,0,0,0,0,0,-1,1091,1513,0,0
-126,-489,0,0,0,0,0,0,0,0,0,-1,1098,1513,0,0
-119,-489,0,0,0,0,0,0,0,0,0,-1,1105,1513,0,0
-112,-489,0,0,0,0,0,0,0,0,0,-1,1112,1513,0,0
-105,-489,0,0,0,0,0,0,0,0,0,-1,1119,1513,0,0
-98,-489,0,0,0,0,0,0,0,0,0,-1,1126,1513,0,0
-91,-489,0,0,0,0,0,0,0,0,0,-1,1133,1513,0,0
-84,-489,0,0,0,0,0,0,0,0,0,-1,1140,1513,0,0
-77,-489,0,0,0,0,0,0,0,0,0,-1,1147,1513,0,0
-70,-489,0,0,0,0,0,0,0,0,0,-1,1154,1513,0,0
-63,-489,0,0,0,0,0,0,0,0,0,-1,1161,1513,0,0
-56,-489,0,0,0,0,0,0,0,0,0,-1,1168,1513,0,0
-49,-489,0,0,0,0,0,0,0,0,0,-1,1175,1513,0,0
-42,-489,0,0,0,0,0,0,0,0,0,-1,1182,1513,0,0
-35,-489,0,0,0,0,0,0,0,0,0,-1,1189,1513,0,0
-28,-489,0,0,0,0,0,0,0,0,0,-1,1196,1513,0,0
-21,-489,0,0,0,0,0,0,0,0,0,-1,1203,1513,0,0
-14,-489,0,0,0,0,0,0,0,0,0,-1,1210,1513,0,0
-7,-489,0,0,0,0,0,0,0,0,0,-1,1217,1513,0,0
0,-489,0,0,0,0,0,0,0,0,0,-1,1224,1513,0,0
7,-489,0,0,0,0,0,0,0,0,0,-1,1231,1513,0,0
14,-489,0,0,0,0,0,0,0,0,0,-1,1238,1513,0,0
21,-489,0,0,0,0,0,0,0,0,0,-1,1245,1513,0,0
28,-489,0,0,0,0,0,0,0,0,0,-1,1252,1513,0,0
35,-489,0,0,0,0,0,0,0,0,0,-1,1259,1513,0,0
42,-489,0,0,0,0,0,0,0,0,0,-1,1266,1513,0,0
49,-489,0,0,0,0,0,0,0,0,0,-1,1273,1513,0,0
56,-489,0,0,0,0,0,0,0,0,0,-1,1280,1513,0,0
63,-489,0,0,0,0,0,0,0,0,0,-1,1287,1513,0,0
70,-489,0,0,0,0,0,0,0,0,0,-1,1294,1513,0,0
77,-489,0,0,0,0,0,0,0,0,0,-1,1301,1513,0,0
84,-489,0,0,0,0,0,0,0,0,0,-1,1308,1513,0,0
91,-489,0,0,0,0,0,0,0,0,0,-1,1315,1513,0,0
98,-489,0,0,0,0,0,0,0,0,0,-1,1322,1513,0,0
105,-489,0,0,0,0,0,0,0,0,0,-1,1329,1513,0,0
112,-489,0,0,0,0,0,0,0,0,0,-1,1336,1513,0,0
119,-489,0,0,0,0,0,0,0,0,0,-1,1343,1513,0,0
126,-489,0,0,0,0,0,0,0,0,0,-1,1350,1513,0,0
133,-489,0,0,0,0,0,0,0,0,0,-1,1357,1513,0,0
140,-489,0,0,0,0,0,0,0,0,0,-1,1364,1513,0,0
147,-489,0,0,0,0,0,0,0,0,0,-1,1371,1513,0,0
154,-489,0,0,0,0,0,0,0,0,0,-1,1378,1513,0,0
161,-489,0,0,0,0,0,0,0,0,0,-1,1385,1513,0,0
168,-489,0,0,0,0,0,0,0,0,0,-1,1392,1513,0,0
175,-489,0,0,0,0,0,0,0,0,0,-1,1399,1513,0,0
182,-489,0,0,0,0,0,0,0,0,0,-1,1406,1513,0,0
189,-489,0,0,0,0,0,0,0,0,0,-1,1413,1513,0,0
196,-489,0,0,0,0,0,0,0,0,0,-1,1420,1513,0,0
203,-489,0,0,0,0,0,0,0,0,0,-1,1427,1513,0,0
210,-489,0,0,0,0,0,0,0,0,0,-1,1434,1513,0,0
217,-489,0,0,0,0,0,0,0,0,0,-1,1441,1513,0,0
224,-489,0,0,0,0,0,0,0,0,0,-1,1448,1513,0,0
231,-489,0,0,0,0,0,0,0,0,0,-1,1455,1513,0,0
238,-489,0,0,0,0,0,0,0,0,0,-1,1462,1513,0,0
245,-489,0,0,0,0,0,0,0,0,0,-1,1469,1513,0,0
252,-489,0,0,0,0,0,0,0,0,0,-1,1476,1513,0,0
259,-489,0,0,0,0,0,0,0,0,0,-1,1483,1513,0,0
266,-489,0,0,0,0,0,0,0,0,0,-1,1490,1513,0,0
273,-489,0,0,0,0,0,0,0,0,0,-1,1497,1513,0,0
280,-489,0,0,0,0,0,0,0,0,0,-1,1504,1513,0,0
287,-489,0,0,0,0,0,0,0,0,0,-1,1511,1513,0,0
294,-489,0,0,0,0,0,0,0,0,0,-1,1518,1513,0,0
301,-489,0,0,0,0,0,0,0,0,0,-1,1525,1513,0,0
308,-489,0,0,0,0,0,0,0,0,0,-1,1532,1513,0,0
315,-489,0,0,0,0,0,0,0,0,0,-1,1539,1513,0,0
322,-489,0,0,0,0,0,0,0,0,0,-1,1546,1513,0,0
329,-489,0,0,0,0,0,0,0,0,0,-1,1553,1513,0,0
336,-489,0,0,0,0,0,0,0,0,0,-1,1560,1513,0,0
343,-489,0,0,0,0,0,0,0,0,0,-1,1567,1513,0,0
350,-489,0,0,0,0,0,0,0,0,0,-1,1574,1513,0,0
357,-489,0,0,0,0,0,0,0,0,0,-1,1581,1513,0,0
364,-489,0,0,0,0,0,0,0,0,0,-1,1588,1513,0,0
371,-489,0,0,0,0,0,0,0,0,0,-1,1595,1513,0,0
378,-489,0,0,0,0,0,0,0,0,0,-1,1602,1513,0,0
385,-489,0,0,0,0,0,0,0,0,0,-1,1609,1513,0,0
392,-489,0,0,0,0,0,0,0,0,0,-1,1616,1513,0,0
399,-489,0,0,0,0,0,0,0,0,0,-1,1623,1513,0,0
406,-489,0,0,0,0,0,0,0,0,0,-1,1630,1513,0,0
413,-489,0,0,0,0,0,0,0,0,0,-1,1637,1513,0,0
420,-489,0,0,0,0,0,0,0,0,0,-1,1644,1513,0,0
427,-489,0,0,0,0,0,0,0,0,0,-1,1651,1513,0,0
434,-489,0,0,0,0,0,0,0,0,0,-1,1658,1513,0,0
441,-489,3.3335,2.34424,0,0,0,0,0,0,0,-1,1665,1513,3.33353,-2.34419
448,-489,3.03577,1.76306,0,0,0,0,0,0,0,-1,1672,1513,3.0358,-1.76308
455,-489,3.16748,0.377075,-0.0243328,0.0436254,-0.020855,0.0495149,-0.0302224,-1.29556,0.0464834,0.0433124,1679,1513,3.16747,-0.377099
462,-489,2.96399,0.348755,-0.0175713,0.0317823,-0.0136099,0.0352866,-0.0210756,-1.31879,0.0328837,0.0489102,1686,1513,2.964,-0.348713
469,-489,2.55676,2.47388,0,0,0,0,0,0,0,-1,1693,1513,2.55681,-2.47387
476,-489,2.78674,2.45166,-0.00838577,0.0159667,-0.00501636,0.0169595,-0.00937862,-1.3754,0.0154149,0.0461974,1700,1513,2.78679,-2.45168
483,-489,3.05652,2.42126,-0.00538863,0.00993595,-0.00279896,0.0104312,-0.00588384,-1.39568,0.00954065,0.0463413,1707,1513,3.05646,-2.42121
490,-489,3.20251,2.42102,-0.00385385,0.00388778,-0.00135015,0.00411649,-0.00408256,-1.40299,0.00473374,0.0459941,1714,1513,3.20251,-2.42104
497,-489,3.34387,2.43481,-0.00256093,0.000190268,-0.000855137,0.000434401,-0.00280507,-1.2927,0.00203039,0.0418022,1721,1513,3.34391,-2.43477
504,-489,3.31689,2.28394,-0.00166217,-0.00177119,-0.000978718,-0.000736446,-0.00269692,-0.75758,0.00160963,0.0432361,1728,1513,3.31685,-2.28391
511,-489,2.98523,1.82458,-0.00107537,-0.00264655,-0.00113011,-0.000484628,-0.00323729,-0.481668,0.00201616,0.0477657,1735,1513,2.98524,-1.82456
518,-489,2.47974,1.62695,-6.97006e-05,-0.00303717,-0.00125517,0.000389998,-0.00349687,-0.351071,0.00247152,0.0452444,1742,1513,2.47968,-1.6269
525,-489,2.40906,1.60693,0.000360289,-0.00396543,-0.00140052,0.000774134,-0.00437927,-0.287319,0.00320884,0.0408966,1749,1513,2.40906,-1.60695
532,-489,2.55273,1.61853,0.000667384,-0.00471451,-0.00116474,0.000908639,-0.00495577,-0.204244,0.00364468,0.0309205,1756,1513,2.55276,-1.61851
539,-489,2.74158,1.58118,0.00130103,-0.00378651,-0.000773578,0.00141605,-0.00390154,-0.14761,0.00317994,0.0156058,1763,1513,2.7416,-1.58122
546,-489,2.75916,1.5509,0.00204572,-0.0031831,-0.000431454,0.00208108,-0.00321846,-0.0817777,0.00308309,0.0108825,1770,1513,2.75918,-1.55094
553,-489,2.76245,1.52222,0.00285751,-0.00219245,0.000143585,0.00286159,-0.00219653,0.0284024,0.00292871,0.0128374,1777,1513,2.76243,-1.52217
560,-489,2.77747,1.46545,0.00334353,-0.000835517,0.000732017,0.00346804,-0.00096003,0.168483,0.00268977,0.0123641,1784,1513,2.77751,-1.46541
567,-489,2.78687,1.43481,0.00307744,0.000167269,0.000497094,0.00316001,8.47016e-05,0.164597,0.00207901,0.0138535,1791,1513,2.78691,-1.4348
574,-489,2.7605,1.42249,0.00301114,0.00033983,7.4737e-05,0.00301323,0.000337741,0.0279485,0.00190624,0.0141311,1798,1513,2.76054,-1.42244
581,-489,2.75305,1.37744,0.00260062,0.000282948,0.000180088,0.00261453,0.000269038,0.0770854,0.00166062,0.0103108,1805,1513,2.75304,-1.37743
588,-489,2.76221,1.31921,0.00159106,2.22746e-05,0.000592995,0.00178998,-0.000176651,0.323663,0.00125635,0.0126864,1812,1513,2.76223,-1.31922
595,-489,2.76514,1.3031,0.000614011,-0.000915315,0.00127729,0.00133803,-0.00163934,0.515681,0.00172192,0.0177254,1819,1513,2.76511,-1.30307
602,-489,2.78027,1.27063,-0.000833689,-0.00167831,0.00168884,0.000484844,-0.00299684,0.662881,0.00217758,0.0233184,1826,1513,2.78028,-1.27068
609,-489,2.77136,1.22681,-0.00223199,-0.00279943,0.002375,-0.000123826,-0.0049076,0.725949,0.00323125,0.0171283,1833,1513,2.77132,-1.22686
616,-489,2.75513,1.19312,-0.00415299,-0.00448774,0.00304464,-0.00127112,-0.0073696,0.757939,0.00454895,0.0101108,1840,1513,2.75508,-1.19313
623,-489,2.78394,1.17651,-0.00634139,-0.00579495,0.00371526,-0.00234288,-0.00979347,0.822102,0.00590503,0.0132536,1847,1513,2.78397,-1.17646
630,-489,2.81396,1.20959,-0.00875476,-0.00622586,0.00445183,-0.0028624,-0.0121182,0.923769,0.00731384,0.0294708,1854,1513,2.81394,-1.20959
637,-489,2.69287,1.51074,-0.0114905,-0.0066457,0.00484802,-0.00364856,-0.0144876,1.01709,0.00870105,0.0422676,1861,1513,2.69283,-1.51075
644,-489,2.28918,1.78931,-0.013846,-0.00586445,0.00447369,-0.0038602,-0.0158502,1.1496,0.00954393,0.0462872,1868,1513,2.28921,-1.7893
651,-489,0.985229,1.92419,-0.0155595,-0.00329167,0.00357674,-0.00232503,-0.0165262,1.30684,0.01033,0.0459704,1875,1513,0.985192,-1.92425
658,-489,0.390381,2.0061,0,0,0,0,0,0,0,-1,1882,1513,0.39038,-2.00615
665,-489,2.81067,0.141235,0,0,0,0,0,0,0,-1,1889,1513,2.81071,-0.141293
672,-489,0,0,0,0,0,0,0,0,0,-1,1896,1513,0,0
679,-489,0,0,0,0,0,0,0,0,0,-1,1903,1513,0,0
686,-489,0,0,0,0,0,0,0,0,0,-1,1910,1513,0,0
693,-489,0,0,0,0,0,0,0,0,0,-1,1917,1513,0,0
700,-489,0,0,0,0,0,0,0,0,0,-1,1924,1513,0,0
707,-489,0,0,0,0,0,0,0,0,0,-1,1931,1513,0,0
714,-489,0,0,0,0,0,0,0,0,0,-1,1938,1513,0,0
721,-489,0,0,0,0,0,0,0,0,0,-1,1945,1513,0,0
728,-489,0,0,0,0,0,0,0,0,0,-1,1952,1513,0,0
735,-489,0,0,0,0,0,0,0,0,0,-1,1959,1513,0,0
742,-489,0,0,0,0,0,0,0,0,0,-1,1966,1513,0,0
749,-489,0,0,0,0,0,0,0,0,0,-1,1973,1513,0,0
756,-489,0,0,0,0,0,0,0,0,0,-1,1980,1513,0,0
763,-489,0,0,0,0,0,0,0,0,0,-1,1987,1513,0,0
770,-489,0,0,0,0,0,0,0,0,0,-1,1994,1513,0,0
777,-489,0,0,0,0,0,0,0,0,0,-1,2001,1513,0,0
784,-489,0,0,0,0,0,0,0,0,0,-1,2008,1513,0,0
791,-489,0,0,0,0,0,0,0,0,0,-1,2015,1513,0,0
798,-489,0,0,0,0,0,0,0,0,0,-1,2022,1513,0,0
805,-489,0,0,0,0,0,0,0,0,0,-1,2029,1513,0,0
812,-489,0,0,0,0,0,0,0,0,0,-1,2036,1513,0,0
-700,-496,0,0,0,0,0,0,0,0,0,-1,524,1520,0,0
-693,-496,0,0,0,0,0,0,0,0,0,-1,531,1520,0,0
-686,-496,0,0,0,0,0,0,0,0,0,-1,538,1520,0,0
-679,-496,0,0,0,0,0,0,0,0,0,-1,545,1520,0,0
-672,-496,0,0,0,0,0,0,0,0,0,-1,552,1520,0,0
-665,-496,0,0,0,0,0,0,0,0,0,-1,559,1520,0,0
-658,-496,0,0,0,0,0,0,0,0,0,-1,566,1520,0,0
-651,-496,0,0,0,0,0,0,0,0,0,-1,573,1520,0,0
-644,-496,0,0,0,0,0,0,0,0,0,-1,580,1520,0,0
-637,-496,0,0,0,0,0,0,0,0,0,-1,587,1520,0,0
-630,-496,0,0,0,0,0,0,0,0,0,-1,594,1520,0,0
-623,-496,0,0,0,0,0,0,0,0,0,-1,601,1520,0,0
-616,-496,0,0,0,0,0,0,0,0,0,-1,608,1520,0,0
-609,-496,0,0,0,0,0,0,0,0,0,-1,615,1520,0,0
-602,-496,0,0,0,0,0,0,0,0,0,-1,622,1520,0,0
-595,-496,0,0,0,0,0,0,0,0,0,-1,629,1520,0,0
-588,-496,0,0,0,0,0,0,0,0,0,-1,636,1520,0,0
-581,-496,0,0,0,0,0,0,0,0,0,-1,643,1520,0,0
-574,-496,0,0,0,0,0,0,0,0,0,-1,650,1520,0,0
-567,-496,0,0,0,0,0,0,0,0,0,-1,657,1520,0,0
-560,-496,0,0,0,0,0,0,0,0,0,-1,664,1520,0,0
-553,-496,0,0,0,0,0,0,0,0,0,-1,671,1520,0,0
-546,-496,0.680664,3.78003,0,0,0,0,0,0,0,-1,678,1520,0.680662,-3.78009
-539,-496,0.628296,3.29553,0.0229519,0.000548475,-0.0106807,0.0272277,-0.00372737,-0.380796,0.0195133,0.0476211,685,1520,0.628324,-3.29548
-532,-496,0.972717,3.02661,0.0206795,-0.00392947,-0.0111264,0.0249641,-0.00821406,-0.367581,0.0199525,0.0454388,692,1520,0.972738,-3.0266
-525,-496,0.393555,2.97974,0.0190953,-0.00668144,-0.0115478,0.0235119,-0.011098,-0.365295,0.020406,0.0482625,699,1520,0.393562,-2.97979
-518,-496,0.0648193,2.77063,0.0177441,-0.0078418,-0.0119032,0.0224253,-0.012523,-0.374692,0.0204456,0.0476272,706,1520,0.0647909,-2.77062
-511,-496,0.137634,2.56067,0,0,0,0,0,0,0,-1,713,1520,0.13762,-2.56068
-504,-496,0.468933,2.04382,0.0141785,-0.0072958,-0.0115139,0.0191848,-0.0123021,-0.410147,0.0183232,0.0476901,720,1520,0.46895,-2.04379
-497,-496,0.696716,1.59717,0.0122575,-0.00631475,-0.0107959,0.0172115,-0.0112688,-0.430219,0.016562,0.0480091,727,1520,0.696716,-1.59712
-490,-496,0.987793,1.18188,0.0103341,-0.00520142,-0.00979576,0.0150682,-0.00993546,-0.450177,0.0145369,0.0374918,734,1520,0.987782,-1.1819
-483,-496,0.969604,1.22693,0.00838225,-0.00377447,-0.00885589,0.0130451,-0.0084373,-0.484641,0.0124976,0.0168873,741,1520,0.969631,-1.22692
-476,-496,0.971802,1.24634,0.00657755,-0.00192724,-0.00775534,0.0111698,-0.00651951,-0.534623,0.0103299,0.00994872,748,1520,0.971828,-1.24636
-469,-496,0.957947,1.29871,0.00491013,-0.000220932,-0.00661584,0.00944046,-0.00475126,-0.600432,0.00834135,0.010373,755,1520,0.957963,-1.29869
-462,-496,0.958862,1.33496,0.0032523,0.000678126,-0.00540992,0.00752613,-0.0035957,-0.668613,0.00655349,0.0147567,762,1520,0.958875,-1.33501
-455,-496,0.971252,1.37646,0.00131219,0.00076004,-0.00398299,0.00502866,-0.00295643,-0.750797,0.00466166,0.0180992,769,1520,0.971248,-1.37652
-448,-496,0.981445,1.4093,-0.000709417,0.000827223,-0.00326449,0.00341259,-0.00329478,-0.900973,0.0038727,0.0170606,776,1520,0.981432,-1.40924
-441,-496,0.967896,1.45068,-0.00140458,0.000953297,-0.00278489,0.00279851,-0.0032498,-0.985627,0.00349523,0.0139872,783,1520,0.967869,-1.45073
-434,-496,0.982666,1.4989,-0.00147813,0.000497954,-0.00264301,0.00233157,-0.00331174,-0.964271,0.00327451,0.0128327,790,1520,0.982667,-1.49892
-427,-496,0.97644,1.53931,-0.00107836,-0.000126607,-0.00344214,0.0028724,-0.00407737,-0.854088,0.0040325,0.0166607,797,1520,0.976466,-1.53933
-420,-496,0.929321,1.57971,-0.000186346,-0.000816019,-0.00500542,0.00451413,-0.00551649,-0.75399,0.00580081,0.0171539,804,1520,0.929325,-1.57967
-413,-496,0.942383,1.60059,0.00105091,-0.0019164,-0.00719113,0.00690984,-0.00777533,-0.683667,0.0084834,0.0129535,811,1520,0.942375,-1.60064
-406,-496,0.974182,1.60596,0.00246545,-0.00318223,-0.00974793,0.00979031,-0.0105071,-0.644414,0.0117211,0.0138077,818,1520,0.974165,-1.60598
-399,-496,0.981323,1.62805,0.00511193,-0.00606154,-0.0121822,0.0129273,-0.0138769,-0.570408,0.0154787,0.0184964,825,1520,0.981322,-1.62805
-392,-496,0.978943,1.61694,0.00910495,-0.00918837,-0.0143732,0.016995,-0.0170785,-0.502032,0.0196724,0.0274938,832,1520,0.978914,-1.61694
-385,-496,0.979248,1.61255,0.0152675,-0.011838,-0.0172403,0.0236443,-0.0202147,-0.452292,0.0253478,0.0401914,839,1520,0.979236,-1.61254
-378,-496,1.00867,1.60608,0.0228935,-0.0137109,-0.0202596,0.0318937,-0.0227111,-0.418057,0.0316743,0.0461871,846,1520,1.00867,-1.60605
-371,-496,1.0611,1.57666,0.0318145,-0.0147404,-0.0238025,0.0418297,-0.0247556,-0.398275,0.038862,0.0477049,853,1520,1.06109,-1.57667
-364,-496,1.04968,1.56836,0,0,0,0,0,0,0,-1,860,1520,1.04966,-1.56832
-357,-496,-0.885132,0.770386,0,0,0,0,0,0,0,-1,867,1520,-0.885125,-0.770377
-350,-496,-0.417786,0.591919,0.0627179,-0.0113794,-0.0331384,0.075376,-0.0240375,-0.364872,0.0598932,0.0401559,874,1520,-0.417772,-0.591928
-343,-496,0.157959,0.562988,0.0719799,-0.00544842,-0.0352594,0.08563,-0.0190985,-0.369364,0.0644037,0.0435566,881,1520,0.157966,-0.562957
-336,-496,0.454895,1.79089,0.0819996,0.00181978,-0.0375195,0.096818,-0.0129986,-0.376145,0.0692858,0.0498429,888,1520,0.454893,-1.79092
-329,-496,1.11951,1.50305,0.0892135,0.0143828,-0.0405287,0.106957,-0.00336058,-0.412661,0.0724508,0.0494561,895,1520,1.11949,-1.503
-322,-496,2.08246,0.905518,0.0924329,0.0305818,-0.0422486,0.113865,0.00914961,-0.469461,0.0730515,0.0436347,902,1520,2.08248,-0.905471
-315,-496,2.73181,0.650513,0,0,0,0,0,0,0,-1,909,1520,2.73181,-0.650538
-308,-496,0,0,0,0,0,0,0,0,0,-1,916,1520,0,0
-301,-496,0,0,0,0,0,0,0,0,0,-1,923,1520,0,0
-294,-496,0,0,0,0,0,0,0,0,0,-1,930,1520,0,0
-287,-496,0,0,0,0,0,0,0,0,0,-1,937,1520,0,0
-280,-496,0,0,0,0,0,0,0,0,0,-1,944,1520,0,0
-273,-496,0,0,0,0,0,0,0,0,0,-1,951,1520,0,0
-266,-496,0,0,0,0,0,0,0,0,0,-1,958,1520,0,0
-259,-496,0,0,0,0,0,0,0,0,0,-1,965,1520,0,0
-252,-496,0,0,0,0,0,0,0,0,0,-1,972,1520,0,0
-245,-496,0,0,0,0,0,0,0,0,0,-1,979,1520,0,0
-238,-496,0,0,0,0,0,0,0,0,0,-1,986,1520,0,0
-231,-496,0,0,0,0,0,0,0,0,0,-1,993,1520,0,0
-224,-496,0,0,0,0,0,0,0,0,0,-1,1000,1520,0,0
-217,-496,0,0,0,0,0,0,0,0,0,-1,1007,1520,0,0
-210,-496,0,0,0,0,0,0,0,0,0,-1,1014,1520,0,0
-203,-496,0,0,0,0,0,0,0,0,0,-1,1021,1520,0,0
-196,-496,0,0,0,0,0,0,0,0,0,-1,1028,1520,0,0
-189,-496,0,0,0,0,0,0,0,0,0,-1,1035,1520,0,0
-182,-496,0,0,0,0,0,0,0,0,0,-1,1042,1520,0,0
-175,-496,0,0,0,0,0,0,0,0,0,-1,1049,1520,0,0
-168,-496,0,0,0,0,0,0,0,0,0,-1,1056,1520,0,0
-161,-496,0,0,0,0,0,0,0,0,0,-1,1063,1520,0,0
-154,-496,0,0,0,0,0,0,0,0,0,-1,1070,1520,0,0
-147,-496,0,0,0,0,0,0,0,0,0,-1,1077,1520,0,0
-140,-496,0,0,0,0,0,0,0,0,0,-1,1084,1520,0,0
-133,-496,0,0,0,0,0,0,0,0,0,-1,1091,1520,0,0
-126,-496,0,0,0,0,0,0,0,0,0,-1,1098,1520,0,0
-119,-496,0,0,0,0,0,0,0,0,0,-1,1105,1520,0,0
-112,-496,0,0,0,0,0,0,0,0,0,-1,1112,1520,0,0
-105,-496,0,0,0,0,0,0,0,0,0,-1,1119,1520,0,0
-98,-496,0,0,0,0,0,0,0,0,0,-1,1126,1520,0,0
-91,-496,0,0,0,0,0,0,0,0,0,-1,1133,1520,0,0
-84,-496,0,0,0,0,0,0,0,0,0,-1,1140,1520,0,0
-77,-496,0,0,0,0,0,0,0,0,0,-1,1147,1520,0,0
-70,-496,0,0,0,0,0,0,0,0,0,-1,1154,1520,0,0
-63,-496,0,0,0,0,0,0,0,0,0,-1,1161,1520,0,0
-56,-496,0,0,0,0,0,0,0,0,0,-1,1168,1520,0,0
-49,-496,0,0,0,0,0,0,0,0,0,-1,1175,1520,0,0
-42,-496,0,0,0,0,0,0,0,0,0,-1,1182,1520,0,0
-35,-496,0,0,0,0,0,0,0,0,0,-1,1189,1520,0,0
-28,-496,0,0,0,0,0,0,0,0,0,-1,1196,1520,0,0
-21,-496,0,0,0,0,0,0,0,0,0,-1,1203,1520,0,0
-14,-496,0,0,0,0,0,0,0,0,0,-1,1210,1520,0,0
-7,-496,0,0,0,0,0,0,0,0,0,-1,1217,1520,0,0
0,-496,0,0,0,0,0,0,0,0,0,-1,1224,1520,0,0
7,-496,0,0,0,0,0,0,0,0,0,-1,1231,1520,0,0
14,-496,0,0,0,0,0,0,0,0,0,-1,1238,1520,0,0
21,-496,0,0,0,0,0,0,0,0,0,-1,1245,1520,0,0
28,-496,0,0,0,0,0,0,0,0,0,-1,1252,1520,0,0
35,-496,0,0,0,0,0,0,0,0,0,-1,1259,1520,0,0
42,-496,0,0,0,0,0,0,0,0,0,-1,1266,1520,0,0
49,-496,0,0,0,0,0,0,0,0,0,-1,1273,1520,0,0
56,-496,0,0,0,0,0,0,0,0,0,-1,1280,1520,0,0
63,-496,0,0,0,0,0,0,0,0,0,-1,1287,1520,0,0
70,-496,0,0,0,0,0,0,0,0,0,-1,1294,1520,0,0
77,-496,0,0,0,0,0,0,0,0,0,-1,1301,1520,0,0
84,-496,0,0,0,0,0,0,0,0,0,-1,1308,1520,0,0
91,-496,0,0,0,0,0,0,0,0,0,-1,1315,1520,0,0
98,-496,0,0,0,0,0,0,0,0,0,-1,1322,1520,0,0
105,-496,0,0,0,0,0,0,0,0,0,-1,1329,1520,0,0
112,-496,0,0,0,0,0,0,0,0,0,-1,1336,1520,0,0
119,-496,0,0,0,0,0,0,0,0,0,-1,1343,1520,0,0
126,-496,0,0,0,0,0,0,0,0,0,-1,1350,1520,0,0
133,-496,0,0,0,0,0,0,0,0,0,-1,1357,1520,0,0
140,-496,0,0,0,0,0,0,0,0,0,-1,1364,1520,0,0
147,-496,0,0,0,0,0,0,0,0,0,-1,1371,1520,0,0
154,-496,0,0,0,0,0,0,0,0,0,-1,1378,1520,0,0
161,-496,0,0,0,0,0,0,0,0,0,-1,1385,1520,0,0
168,-496,0,0,0,0,0,0,0,0,0,-1,1392,1520,0,0
175,-496,0,0,0,0,0,0,0,0,0,-1,1399,1520,0,0
182,-496,0,0,0,0,0,0,0,0,0,-1,1406,1520,0,0
189,-496,0,0,0,0,0,0,0,0,0,-1,1413,1520,0,0
196,-496,0,0,0,0,0,0,0,0,0,-1,1420,1520,0,0
203,-496,0,0,0,0,0,0,0,0,0,-1,1427,1520,0,0
210,-496,0,0,0,0,0,0,0,0,0,-1,1434,1520,0,0
217,-496,0,0,0,0,0,0,0,0,0,-1,1441,1520,0,0
224,-496,0,0,0,0,0,0,0,0,0,-1,1448,1520,0,0
231,-496,0,0,0,0,0,0,0,0,0,-1,1455,1520,0,0
238,-496,0,0,0,0,0,0,0,0,0,-1,1462,1520,0,0
245,-496,0,0,0,0,0,0,0,0,0,-1,1469,1520,0,0
252,-496,0,0,0,0,0,0,0,0,0,-1,1476,1520,0,0
259,-496,0,0,0,0,0,0,0,0,0,-1,1483,1520,0,0
266,-496,0,0,0,0,0,0,0,0,0,-1,1490,1520,0,0
273,-496,0,0,0,0,0,0,0,0,0,-1,1497,1520,0,0
280,-496,0,0,0,0,0,0,0,0,0,-1,1504,1520,0,0
287,-496,0,0,0,0,0,0,0,0,0,-1,1511,1520,0,0
294,-496,0,0,0,0,0,0,0,0,0,-1,1518,1520,0,0
301,-496,0,0,0,0,0,0,0,0,0,-1,1525,1520,0,0
308,-496,0,0,0,0,0,0,0,0,0,-1,1532,1520,0,0
315,-496,0,0,0,0,0,0,0,0,0,-1,1539,1520,0,0
322,-496,0,0,0,0,0,0,0,0,0,-1,1546,1520,0,0
329,-496,0,0,0,0,0,0,0,0,0,-1,1553,1520,0,0
336,-496,0,0,0,0,0,0,0,0,0,-1,1560,1520,0,0
343,-496,0,0,0,0,0,0,0,0,0,-1,1567,1520,0,0
350,-496,0,0,0,0,0,0,0,0,0,-1,1574,1520,0,0
357,-496,0,0,0,0,0,0,0,0,0,-1,1581,1520,0,0
364,-496,0,0,0,0,0,0,0,0,0,-1,1588,1520,0,0
371,-496,0,0,0,0,0,0,0,0,0,-1,1595,1520,0,0
378,-496,0,0,0,0,0,0,0,0,0,-1,1602,1520,0,0
385,-496,0,0,0,0,0,0,0,0,0,-1,1609,1520,0,0
392,-496,0,0,0,0,0,0,0,0,0,-1,1616,1520,0,0
399,-496,0,0,0,0,0,0,0,0,0,-1,1623,1520,0,0
406,-496,0,0,0,0,0,0,0,0,0,-1,1630,1520,0,0
413,-496,0,0,0,0,0,0,0,0,0,-1,1637,1520,0,0
420,-496,0,0,0,0,0,0,0,0,0,-1,1644,1520,0,0
427,-496,0,0,0,0,0,0,0,0,0,-1,1651,1520,0,0
434,-496,3.18372,2.427,-0.0548708,0.082664,-0.0509312,0.0994708,-0.0716776,-1.25206,0.0992459,0.0444548,1658,1520,3.18376,-2.427
441,-496,3.33813,1.88501,-0.04385,0.0636898,-0.0390163,0.0763539,-0.0565141,-1.25694,0.0769959,0.0439354,1665,1520,3.33812,-1.88504
448,-496,3.25684,1.31091,-0.0344442,0.0488627,-0.028356,0.0575984,-0.04318,-1.27195,0.0583826,0.0440724,1672,1520,3.25682,-1.31095
455,-496,3.23047,0.651245,-0.0260382,0.0379142,-0.0195347,0.0434091,-0.0315331,-1.29659,0.0434486,0.0427129,1679,1520,3.23044,-0.651274
462,-496,2.75854,0.427246,-0.019011,0.0285546,-0.0129019,0.0318287,-0.0222851,-1.32227,0.0314042,0.0462016,1686,1520,2.75853,-0.427267
469,-496,2.88928,0.476685,0,0,0,0,0,0,0,-1,1693,1520,2.8893,-0.476736
476,-496,3.00903,2.43665,-0.00908255,0.0161267,-0.00477089,0.0169994,-0.00995524,-1.38988,0.0157384,0.0442792,1700,1520,3.00908,-2.43665
483,-496,3.19055,2.61292,-0.00569779,0.01111,-0.00267243,0.0115247,-0.00611247,-1.41685,0.0103414,0.0471371,1707,1520,3.19053,-2.61287
490,-496,3.37183,2.65735,-0.0036325,0.00581744,-0.00149974,0.00604974,-0.0038648,-1.41712,0.00577031,0.0459723,1714,1520,3.37177,-2.65739
497,-496,3.53455,2.59961,-0.0020532,0.00248343,-0.00114927,0.00275796,-0.00232773,-1.33632,0.00293973,0.0427125,1721,1520,3.5345,-2.59964
504,-496,3.51233,2.42627,-0.00100505,0.000734433,-0.00150053,0.00159907,-0.00186968,-1.04805,0.00200471,0.0420855,1728,1520,3.51237,-2.42633
511,-496,2.6554,1.8479,-0.000428278,-0.000136659,-0.00190239,0.0016255,-0.00219044,-0.823646,0.00221116,0.0437208,1735,1520,2.65537,-1.84785
518,-496,2.80347,1.70911,0.000513219,-0.000554262,-0.0022091,0.00225215,-0.00229319,-0.666865,0.00262429,0.0427363,1742,1520,2.8035,-1.70906
525,-496,2.58911,1.70337,0.00088233,-0.00157172,-0.00247349,0.00241641,-0.00310581,-0.555148,0.00319653,0.0373806,1749,1520,2.58916,-1.70337
532,-496,2.64917,1.6228,0.00108337,-0.00261881,-0.00229934,0.00218414,-0.00371959,-0.446491,0.00344673,0.0209727,1756,1520,2.64914,-1.62285
539,-496,2.72168,1.58337,0.00155528,-0.002056,-0.00187933,0.00235583,-0.00285655,-0.402696,0.003014,0.0114751,1763,1520,2.72171,-1.58342
546,-496,2.72461,1.54248,0.00212114,-0.00194823,-0.00150549,0.00261755,-0.00244464,-0.318507,0.00292322,0.00907887,1770,1520,2.72462,-1.54249
553,-496,2.75659,1.50671,0.00269906,-0.0013248,-0.000859976,0.00287515,-0.00150088,-0.201967,0.00256769,0.0133446,1777,1520,2.75663,-1.50669
560,-496,2.76025,1.47437,0.00301598,-6.60334e-05,-0.000160693,0.00302434,-7.4389e-05,-0.0519511,0.00204148,0.0131114,1784,1520,2.7603,-1.47434
567,-496,2.75256,1.422,0.00280701,0.000814856,-0.000115798,0.00281371,0.000808147,-0.0578672,0.00167281,0.0114892,1791,1520,2.75256,-1.42203
574,-496,2.75134,1.39624,0.00330946,0.00086818,-0.000108139,0.00331424,0.000863399,-0.0441805,0.0019853,0.0117511,1798,1520,2.75138,-1.39629
581,-496,2.73022,1.3761,0.0032689,0.000736264,0.000460917,0.00335017,0.000654989,0.174538,0.0020503,0.0130358,1805,1520,2.73019,-1.37613
588,-496,2.70959,1.33679,0.00259006,0.000347589,0.00129819,0.00318418,-0.000246536,0.429203,0.00220956,0.014691,1812,1520,2.70963,-1.33673
595,-496,2.73315,1.3175,0.00208634,-0.000755101,0.00230062,0.00336956,-0.00203832,0.508791,0.00315362,0.0151168,1819,1520,2.73317,-1.31756
602,-496,2.7439,1.28406,0.00123537,-0.00163254,0.00308413,0.00320261,-0.00359978,0.567792,0.00392959,0.0169249,1826,1520,2.74393,-1.28409
609,-496,2.73523,1.23511,0.000504985,-0.00303706,0.00428235,0.00336808,-0.00590016,0.589326,0.00541718,0.0147575,1833,1520,2.7352,-1.23505
616,-496,2.724,1.19958,-0.000772839,-0.00513076,0.00551237,0.0029756,-0.0088792,0.59718,0.00712165,0.0121347,1840,1520,2.72395,-1.19954
623,-496,2.77808,1.203,-0.00253239,-0.00715964,0.00668294,0.00222608,-0.0119181,0.618756,0.00878199,0.0237341,1847,1520,2.77811,-1.20299
630,-496,2.81641,1.23547,-0.00482479,-0.00866953,0.00774026,0.00122825,-0.0147226,0.663681,0.010249,0.0403971,1854,1520,2.81643,-1.23542
637,-496,2.59741,1.65015,-0.00785328,-0.0101765,0.00829997,-0.000634016,-0.0173957,0.715874,0.0113917,0.0462196,1861,1520,2.59738,-1.65015
644,-496,2.4884,2.0769,0,0,0,0,0,0,0,-1,1868,1520,2.48843,-2.07692
651,-496,1.26965,2.14136,0,0,0,0,0,0,0,-1,1875,1520,1.26966,-2.14136
658,-496,1.00208,2.48596,0,0,0,0,0,0,0,-1,1882,1520,1.00208,-2.48594
665,-496,2.05139,-1.12329,0,0,0,0,0,0,0,-1,1889,1520,2.05141,1.12332
672,-496,0,0,0,0,0,0,0,0,0,-1,1896,1520,0,0
679,-496,0,0,0,0,0,0,0,0,0,-1,1903,1520,0,0
686,-496,0,0,0,0,0,0,0,0,0,-1,1910,1520,0,0
693,-496,0,0,0,0,0,0,0,0,0,-1,1917,1520,0,0
700,-496,0,0,0,0,0,0,0,0,0,-1,1924,1520,0,0
707,-496,0,0,0,0,0,0,0,0,0,-1,1931,1520,0,0
714,-496,0,0,0,0,0,0,0,0,0,-1,1938,1520,0,0
721,-496,0,0,0,0,0,0,0,0,0,-1,1945,1520,0,0
728,-496,0,0,0,0,0,0,0,0,0,-1,1952,1520,0,0
735,-496,0,0,0,0,0,0,0,0,0,-1,1959,1520,0,0
742,-496,0,0,0,0,0,0,0,0,0,-1,1966,1520,0,0
749,-496,0,0,0,0,0,0,0,0,0,-1,1973,1520,0,0
756,-496,0,0,0,0,0,0,0,0,0,-1,1980,1520,0,0
763,-496,0,0,0,0,0,0,0,0,0,-1,1987,1520,0,0
770,-496,0,0,0,0,0,0,0,0,0,-1,1994,1520,0,0
777,-496,0,0,0,0,0,0,0,0,0,-1,2001,1520,0,0
784,-496,0,0,0,0,0,0,0,0,0,-1,2008,1520,0,0
791,-496,0,0,0,0,0,0,0,0,0,-1,2015,1520,0,0
798,-496,0,0,0,0,0,0,0,0,0,-1,2022,1520,0,0
805,-496,0,0,0,0,0,0,0,0,0,-1,2029,1520,0,0
812,-496,0,0,0,0,0,0,0,0,0,-1,2036,1520,0,0
-700,-503,0,0,0,0,0,0,0,0,0,-1,524,1527,0,0
-693,-503,0,0,0,0,0,0,0,0,0,-1,531,1527,0,0
-686,-503,0,0,0,0,0,0,0,0,0,-1,538,1527,0,0
-679,-503,0,0,0,0,0,0,0,0,0,-1,545,1527,0,0
-672,-503,0,0,0,0,0,0,0,0,0,-1,552,1527,0,0
-665,-503,0,0,0,0,0,0,0,0,0,-1,559,1527,0,0
-658,-503,0,0,0,0,0,0,0,0,0,-1,566,1527,0,0
-651,-503,0,0,0,0,0,0,0,0,0,-1,573,1527,0,0
-644,-503,0,0,0,0,0,0,0,0,0,-1,580,1527,0,0
-637,-503,0,0,0,0,0,0,0,0,0,-1,587,1527,0,0
-630,-503,0,0,0,0,0,0,0,0,0,-1,594,1527,0,0
-623,-503,0,0,0,0,0,0,0,0,0,-1,601,1527,0,0
-616,-503,0,0,0,0,0,0,0,0,0,-1,608,1527,0,0
-609,-503,0,0,0,0,0,0,0,0,0,-1,615,1527,0,0
-602,-503,0,0,0,0,0,0,0,0,0,-1,622,1527,0,0
-595,-503,0,0,0,0,0,0,0,0,0,-1,629,1527,0,0
-588,-503,0,0,0,0,0,0,0,0,0,-1,636,1527,0,0
-581,-503,0,0,0,0,0,0,0,0,0,-1,643,1527,0,0
-574,-503,0,0,0,0,0,0,0,0,0,-1,650,1527,0,0
-567,-503,0,0,0,0,0,0,0,0,0,-1,657,1527,0,0
-560,-503,0,0,0,0,0,0,0,0,0,-1,664,1527,0,0
-553,-503,0,0,0,0,0,0,0,0,0,-1,671,1527,0,0
-546,-503,0,0,0,0,0,0,0,0,0,-1,678,1527,0,0
-539,-503,0.30658,3.31812,0.0334392,-0.000260267,-0.0142353,0.0386475,-0.00546855,-0.350744,0.0277679,0.0452295,685,1527,0.306589,-3.31816
-532,-503,0.350525,3.25916,0.0302349,-0.004417,-0.0149722,0.0358078,-0.00998988,-0.356326,0.0278066,0.046402,692,1527,0.350508,-3.25911
-525,-503,0.378601,3.2019,0.0277292,-0.00673799,-0.0157243,0.0338248,-0.0128336,-0.369818,0.0278321,0.0489629,699,1527,0.378596,-3.20196
-518,-503,0.440125,3.1134,0.0253519,-0.00748669,-0.0162091,0.0320048,-0.0141397,-0.389479,0.027299,0.0474207,706,1527,0.440134,-3.11341
-511,-503,0.262573,2.87695,0,0,0,0,0,0,0,-1,713,1527,0.262582,-2.87689
-504,-503,0.560242,2.0448,0,0,0,0,0,0,0,-1,720,1527,0.560223,-2.04476
-497,-503,0.565796,1.72217,0,0,0,0,0,0,0,-1,727,1527,0.565786,-1.72218
-490,-503,0.0256958,2.61694,0,0,0,0,0,0,0,-1,734,1527,0.0257141,-2.61695
-483,-503,0.915588,1.36694,0.0100591,-0.00308116,-0.0119432,0.0171201,-0.0101422,-0.533933,0.0159108,0.0338955,741,1527,0.915604,-1.36699
-476,-503,0.997009,1.28662,0.0074098,-0.00147278,-0.0103621,0.0142423,-0.00830526,-0.582936,0.0131674,0.0164171,748,1527,0.997029,-1.28663
-469,-503,1.00757,1.32141,0.00510122,-6.64522e-05,-0.00868046,0.0115742,-0.00653946,-0.640743,0.0105918,0.0101766,755,1527,1.00756,-1.32144
-462,-503,1.00348,1.37305,0.00303568,0.000586193,-0.00692125,0.00883971,-0.00521784,-0.697828,0.00820543,0.0121866,762,1527,1.00345,-1.37308
-455,-503,0.983215,1.40723,0.000931548,0.000444418,-0.00494857,0.00564254,-0.00426658,-0.760808,0.00573939,0.0163773,769,1527,0.983212,-1.40728
-448,-503,1.00818,1.41504,-0.00133566,0.000323798,-0.00381776,0.00340096,-0.00441282,-0.892401,0.00452388,0.0145939,776,1527,1.0082,-1.41501
-441,-503,1.00085,1.44836,-0.00189347,0.000355912,-0.00273032,0.00218411,-0.00372167,-0.980771,0.00344801,0.0128096,783,1527,1.00086,-1.44831
-434,-503,0.999268,1.49023,-0.00164657,-0.000227158,-0.00223757,0.00141056,-0.00328429,-0.938968,0.0027816,0.0107162,790,1527,0.999282,-1.49018
-427,-503,1.00421,1.51685,-0.00100382,-0.00077276,-0.00254902,0.00166335,-0.00343993,-0.808045,0.0030053,0.0162318,797,1527,1.00423,-1.51684
-420,-503,0.995605,1.52979,4.46271e-05,-0.00133394,-0.00358909,0.00301002,-0.00429933,-0.690529,0.00424189,0.017417,804,1527,0.995628,-1.52974
-413,-503,0.996277,1.56348,0.0012638,-0.00220897,-0.00517052,0.00498171,-0.00592688,-0.623403,0.00630595,0.0143531,811,1527,0.996265,-1.56354
-406,-503,0.997986,1.58704,0.00254562,-0.00320463,-0.00706646,0.00729946,-0.00795847,-0.592191,0.00881191,0.0103868,818,1527,0.998,-1.58709
-399,-503,1.01672,1.62329,0.00479538,-0.00560379,-0.00889823,0.00990182,-0.0107102,-0.520986,0.0119034,0.0109068,825,1527,1.01673,-1.62324
-392,-503,1.02698,1.67688,0.00817888,-0.00813468,-0.010553,0.0133599,-0.0133157,-0.456388,0.0154012,0.0170233,832,1527,1.027,-1.67683
-385,-503,1.01611,1.63867,0.0137918,-0.0103368,-0.012805,0.0193206,-0.0158656,-0.407586,0.0203473,0.0338397,839,1527,1.01611,-1.63863
-378,-503,1.08936,1.60632,0.020735,-0.0118035,-0.0152133,0.0267398,-0.0178083,-0.375934,0.0258916,0.0446053,846,1527,1.08936,-1.60633
-371,-503,1.56244,1.42126,0.0288174,-0.0123272,-0.0183035,0.0357812,-0.019291,-0.363553,0.0322676,0.0446841,853,1527,1.56242,-1.42128
-364,-503,1.86292,1.31323,0,0,0,0,0,0,0,-1,860,1527,1.86294,-1.31326
-357,-503,2.10431,1.15088,0,0,0,0,0,0,0,-1,867,1527,2.10428,-1.15085
-350,-503,-0.365967,0.600586,0,0,0,0,0,0,0,-1,874,1527,-0.365991,-0.600567
-343,-503,0.629761,0.691772,0.0641869,-0.00181485,-0.0286379,0.0748802,-0.0125082,-0.357366,0.0545695,0.0434639,881,1527,0.629736,-0.691741
-336,-503,1.69275,1.22693,0.0727171,0.00518181,-0.0308962,0.0847187,-0.00681982,-0.370511,0.0588842,0.0449004,888,1527,1.69273,-1.22688
-329,-503,1.73712,1.18579,0.0785222,0.0161458,-0.0335518,0.0931426,0.00152546,-0.410946,0.0615929,0.0470423,895,1527,1.73711,-1.18578
-322,-503,2.43494,0.921997,0.0805932,0.0301642,-0.0350449,0.0985518,0.0122057,-0.473554,0.0620342,0.0449467,902,1527,2.43492,-0.922055
-315,-503,3.12109,0.715454,0,0,0,0,0,0,0,-1,909,1527,3.1211,-0.715424
-308,-503,1.52502,3.17261,0,0,0,0,0,0,0,-1,916,1527,1.525,-3.17266
-301,-503,0,0,0,0,0,0,0,0,0,-1,923,1527,0,0
-294,-503,0,0,0,0,0,0,0,0,0,-1,930,1527,0,0
-287,-503,0,0,0,0,0,0,0,0,0,-1,937,1527,0,0
-280,-503,0,0,0,0,0,0,0,0,0,-1,944,1527,0,0
-273,-503,0,0,0,0,0,0,0,0,0,-1,951,1527,0,0
-266,-503,0,0,0,0,0,0,0,0,0,-1,958,1527,0,0
-259,-503,0,0,0,0,0,0,0,0,0,-1,965,1527,0,0
-252,-503,0,0,0,0,0,0,0,0,0,-1,972,1527,0,0
-245,-503,0,0,0,0,0,0,0,0,0,-1,979,1527,0,0
-238,-503,0,0,0,0,0,0,0,0,0,-1,986,1527,0,0
-231,-503,0,0,0,0,0,0,0,0,0,-1,993,1527,0,0
-224,-503,0,0,0,0,0,0,0,0,0,-1,1000,1527,0,0
-217,-503,0,0,0,0,0,0,0,0,0,-1,1007,1527,0,0
-210,-503,0,0,0,0,0,0,0,0,0,-1,1014,1527,0,0
-203,-503,0,0,0,0,0,0,0,0,0,-1,1021,1527,0,0
-196,-503,0,0,0,0,0,0,0,0,0,-1,1028,1527,0,0
-189,-503,0,0,0,0,0,0,0,0,0,-1,1035,1527,0,0
-182,-503,0,0,0,0,0,0,0,0,0,-1,1042,1527,0,0
-175,-503,0,0,0,0,0,0,0,0,0,-1,1049,1527,0,0
-168,-503,0,0,0,0,0,0,0,0,0,-1,1056,1527,0,0
-161,-503,0,0,0,0,0,0,0,0,0,-1,1063,1527,0,0
-154,-503,0,0,0,0,0,0,0,0,0,-1,1070,1527,0,0
-147,-503,0,0,0,0,0,0,0,0,0,-1,1077,1527,0,0
-140,-503,0,0,0,0,0,0,0,0,0,-1,1084,1527,0,0
-133,-503,0,0,0,0,0,0,0,0,0,-1,1091,1527,0,0
-126,-503,0,0,0,0,0,0,0,0,0,-1,1098,1527,0,0
-119,-503,0,0,0,0,0,0,0,0,0,-1,1105,1527,0,0
-112,-503,0,0,0,0,0,0,0,0,0,-1,1112,1527,0,0
-105,-503,0,0,0,0,0,0,0,0,0,-1,1119,1527,0,0
-98,-503,0,0,0,0,0,0,0,0,0,-1,1126,1527,0,0
-91,-503,0,0,0,0,0,0,0,0,0,-1,1133,1527,0,0
-84,-503,0,0,0,0,0,0,0,0,0,-1,1140,1527,0,0
-77,-503,0,0,0,0,0,0,0,0,0,-1,1147,1527,0,0
-70,-503,0,0,0,0,0,0,0,0,0,-1,1154,1527,0,0
-63,-503,0,0,0,0,0,0,0,0,0,-1,1161,1527,0,0
-56,-503,0,0,0,0,0,0,0,0,0,-1,1168,1527,0,0
-49,-503,0,0,0,0,0,0,0,0,0,-1,1175,1527,0,0
-42,-503,0,0,0,0,0,0,0,0,0,-1,1182,1527,0,0
-35,-503,0,0,0,0,0,0,0,0,0,-1,1189,1527,0,0
-28,-503,0,0,0,0,0,0,0,0,0,-1,1196,1527,0,0
-21,-503,0,0,0,0,0,0,0,0,0,-1,1203,1527,0,0
-14,-503,0,0,0,0,0,0,0,0,0,-1,1210,1527,0,0
-7,-503,0,0,0,0,0,0,0,0,0,-1,1217,1527,0,0
0,-503,0,0,0,0,0,0,0,0,0,-1,1224,1527,0,0
7,-503,0,0,0,0,0,0,0,0,0,-1,1231,1527,0,0
14,-503,0,0,0,0,0,0,0,0,0,-1,1238,1527,0,0
21,-503,0,0,0,0,0,0,0,0,0,-1,1245,1527,0,0
28,-503,0,0,0,0,0,0,0,0,0,-1,1252,1527,0,0
35,-503,0,0,0,0,0,0,0,0,0,-1,1259,1527,0,0
42,-503,0,0,0,0,0,0,0,0,0,-1,1266,1527,0,0
49,-503,0,0,0,0,0,0,0,0,0,-1,1273,1527,0,0
56,-503,0,0,0,0,0,0,0,0,0,-1,1280,1527,0,0
63,-503,0,0,0,0,0,0,0,0,0,-1,1287,1527,0,0
70,-503,0,0,0,0,0,0,0,0,0,-1,1294,1527,0,0
77,-503,0,0,0,0,0,0,0,0,0,-1,1301,1527,0,0
84,-503,0,0,0,0,0,0,0,0,0,-1,1308,1527,0,0
91,-503,0,0,0,0,0,0,0,0,0,-1,1315,1527,0,0
98,-503,0,0,0,0,0,0,0,0,0,-1,1322,1527,0,0
105,-503,0,0,0,0,0,0,0,0,0,-1,1329,1527,0,0
112,-503,0,0,0,0,0,0,0,0,0,-1,1336,1527,0,0
119,-503,0,0,0,0,0,0,0,0,0,-1,1343,1527,0,0
126,-503,0,0,0,0,0,0,0,0,0,-1,1350,1527,0,0
133,-503,0,0,0,0,0,0,0,0,0,-1,1357,1527,0,0
140,-503,0,0,0,0,0,0,0,0,0,-1,1364,1527,0,0
147,-503,0,0,0,0,0,0,0,0,0,-1,1371,1527,0,0
154,-503,0,0,0,0,0,0,0,0,0,-1,1378,1527,0,0
161,-503,0,0,0,0,0,0,0,0,0,-1,1385,1527,0,0
168,-503,0,0,0,0,0,0,0,0,0,-1,1392,1527,0,0
175,-503,0,0,0,0,0,0,0,0,0,-1,1399,1527,0,0
182,-503,0,0,0,0,0,0,0,0,0,-1,1406,1527,0,0
189,-503,0,0,0,0,0,0,0,0,0,-1,1413,1527,0,0
196,-503,0,0,0,0,0,0,0,0,0,-1,1420,1527,0,0
203,-503,0,0,0,0,0,0,0,0,0,-1,1427,1527,0,0
210,-503,0,0,0,0,0,0,0,0,0,-1,1434,1527,0,0
217,-503,0,0,0,0,0,0,0,0,0,-1,1441,1527,0,0
224,-503,0,0,0,0,0,0,0,0,0,-1,1448,1527,0,0
231,-503,0,0,0,0,0,0,0,0,0,-1,1455,1527,0,0
238,-503,0,0,0,0,0,0,0,0,0,-1,1462,1527,0,0
245,-503,0,0,0,0,0,0,0,0,0,-1,1469,1527,0,0
252,-503,0,0,0,0,0,0,0,0,0,-1,1476,1527,0,0
259,-503,0,0,0,0,0,0,0,0,0,-1,1483,1527,0,0
266,-503,0,0,0,0,0,0,0,0,0,-1,1490,1527,0,0
273,-503,0,0,0,0,0,0,0,0,0,-1,1497,1527,0,0
280,-503,0,0,0,0,0,0,0,0,0,-1,1504,1527,0,0
287,-503,0,0,0,0,0,0,0,0,0,-1,1511,1527,0,0
294,-503,0,0,0,0,0,0,0,0,0,-1,1518,1527,0,0
301,-503,0,0,0,0,0,0,0,0,0,-1,1525,1527,0,0
308,-503,0,0,0,0,0,0,0,0,0,-1,1532,1527,0,0
315,-503,0,0,0,0,0,0,0,0,0,-1,1539,1527,0,0
322,-503,0,0,0,0,0,0,0,0,0,-1,1546,1527,0,0
329,-503,0,0,0,0,0,0,0,0,0,-1,1553,1527,0,0
336,-503,0,0,0,0,0,0,0,0,0,-1,1560,1527,0,0
343,-503,0,0,0,0,0,0,0,0,0,-1,1567,1527,0,0
350,-503,0,0,0,0,0,0,0,0,0,-1,1574,1527,0,0
357,-503,0,0,0,0,0,0,0,0,0,-1,1581,1527,0,0
364,-503,0,0,0,0,0,0,0,0,0,-1,1588,1527,0,0
371,-503,0,0,0,0,0,0,0,0,0,-1,1595,1527,0,0
378,-503,0,0,0,0,0,0,0,0,0,-1,1602,1527,0,0
385,-503,0,0,0,0,0,0,0,0,0,-1,1609,1527,0,0
392,-503,0,0,0,0,0,0,0,0,0,-1,1616,1527,0,0
399,-503,0,0,0,0,0,0,0,0,0,-1,1623,1527,0,0
406,-503,0,0,0,0,0,0,0,0,0,-1,1630,1527,0,0
413,-503,0,0,0,0,0,0,0,0,0,-1,1637,1527,0,0
420,-503,0,0,0,0,0,0,0,0,0,-1,1644,1527,0,0
427,-503,5.73169,1.76855,-0.0642686,0.0793005,-0.0527794,0.0966153,-0.0815834,-1.2538,0.103005,0.0436364,1651,1527,5.7317,-1.76857
434,-503,4.66675,1.13489,-0.0540022,0.0651483,-0.0439997,0.0796351,-0.068489,-1.25273,0.0856001,0.0442498,1658,1527,4.66678,-1.13487
441,-503,3.9917,0.847656,-0.0435987,0.0514191,-0.0347476,0.0627701,-0.0549498,-1.25505,0.0680156,0.0468695,1665,1527,3.99167,-0.847602
448,-503,3.48499,0.852539,-0.0341394,0.0405273,-0.0258298,0.0485917,-0.0422038,-1.26817,0.052464,0.0448972,1672,1527,3.48495,-0.8526
455,-503,3.04456,0.760498,0,0,0,0,0,0,0,-1,1679,1527,3.04451,-0.7605
462,-503,2.63831,0.538208,-0.0188655,0.024623,-0.0120439,0.0277357,-0.0219783,-1.31788,0.0287665,0.0439601,1686,1527,2.63825,-0.538245
469,-503,2.63184,0.749146,-0.0130707,0.0190018,-0.00747437,0.0206582,-0.014727,-1.35272,0.0205251,0.0453158,1693,1527,2.63189,-0.749157
476,-503,2.70496,0.830933,-0.00881217,0.0151371,-0.00418057,0.0158459,-0.00952095,-1.40285,0.0147965,0.0437711,1700,1527,2.70496,-0.830985
483,-503,3.40759,2.92944,0,0,0,0,0,0,0,-1,1707,1527,3.40755,-2.92938
490,-503,3.57166,2.95349,0,0,0,0,0,0,0,-1,1714,1527,3.57167,-2.95351
497,-503,3.30908,2.95435,0,0,0,0,0,0,0,-1,1721,1527,3.30911,-2.95437
504,-503,2.6123,1.91675,0,0,0,0,0,0,0,-1,1728,1527,2.61231,-1.91676
511,-503,2.67114,1.8335,0.000106759,0.00130793,-0.00166847,0.00248062,-0.00106592,-0.95816,0.0021012,0.0420646,1735,1527,2.67112,-1.83352
518,-503,2.65747,1.72498,0.000862251,0.000903381,-0.00211178,0.00299469,-0.00122906,-0.790267,0.0025086,0.0374888,1742,1527,2.65747,-1.72492
525,-503,2.66272,1.65015,0.00109395,-9.47973e-05,-0.00248327,0.00305299,-0.00205383,-0.667932,0.00296718,0.0250826,1749,1527,2.66273,-1.6502
532,-503,2.70422,1.62061,0.00113326,-0.00130387,-0.00240811,0.00261357,-0.00278418,-0.55117,0.00311691,0.0113666,1756,1527,2.70419,-1.62063
539,-503,2.71582,1.58203,0.00140319,-0.00101144,-0.00205557,0.00257977,-0.00218802,-0.519869,0.00275578,0.0117377,1763,1527,2.71582,-1.58199
546,-503,2.70508,1.53882,0.00178424,-0.00124572,-0.00176891,0.00259825,-0.00205973,-0.431285,0.00269527,0.0113036,1770,1527,2.70508,-1.53877
553,-503,2.71716,1.50952,0.00211283,-0.000842909,-0.00119793,0.00253737,-0.00126744,-0.340579,0.00223712,0.0130565,1777,1527,2.71711,-1.50953
560,-503,2.70374,1.47693,0.00227907,0.000497826,-0.000581069,0.00245187,0.000325035,-0.289041,0.00153773,0.0131025,1784,1527,2.70371,-1.47696
567,-503,2.71533,1.4115,0.00217663,0.00143827,-0.000505943,0.00243377,0.00118114,-0.470211,0.00140534,0.0122879,1791,1527,2.71538,-1.4115
574,-503,2.70544,1.38831,0.00312494,0.00152191,-0.000375366,0.00320848,0.00143836,-0.218992,0.00185572,0.0124609,1798,1527,2.70539,-1.38827
581,-503,2.68262,1.37219,0.00339933,0.00147678,0.000425883,0.00348945,0.00138666,0.208525,0.00202873,0.0134587,1805,1527,2.68258,-1.37223
588,-503,2.67114,1.35938,0.00300506,0.00110976,0.0014382,0.00377975,0.000335069,0.49409,0.0024159,0.0151192,1812,1527,2.6712,-1.35936
595,-503,2.69727,1.32739,0.00290809,1.45193e-06,0.00252392,0.00436721,-0.00145767,0.524174,0.00350005,0.0114628,1819,1527,2.69732,-1.32737
602,-503,2.7041,1.28247,0.00252771,-0.00090473,0.00347281,0.00468522,-0.00306224,0.555905,0.0045056,0.0120178,1826,1527,2.70415,-1.28245
609,-503,2.71033,1.25024,0.00232647,-0.00251527,0.00495292,0.00541849,-0.00560729,0.558084,0.00636605,0.0144785,1833,1527,2.71032,-1.25027
616,-503,2.71362,1.22473,0.00160112,-0.00497318,0.00655862,0.00565024,-0.0090223,0.553096,0.00854544,0.0190226,1840,1527,2.71361,-1.22474
623,-503,2.71436,1.18152,0.000267324,-0.00778328,0.00812681,0.00531109,-0.0128271,0.555453,0.0107676,0.0356856,1847,1527,2.71437,-1.1815
630,-503,2.84265,1.35938,-0.00199022,-0.0106088,0.00939285,0.00403468,-0.0166337,0.570331,0.0126504,0.0429179,1854,1527,2.84259,-1.35935
637,-503,2.17688,1.6499,-0.00564085,-0.0136369,0.0100028,0.00113329,-0.020411,0.595277,0.0140004,0.0438122,1861,1527,2.17688,-1.64986
644,-503,1.81519,2.04248,-0.0104872,-0.0159612,0.0093533,-0.00347866,-0.0229697,0.643061,0.0142954,0.0475809,1868,1527,1.81524,-2.04247
651,-503,1.48804,2.35767,-0.0161355,-0.0165256,0.0066916,-0.00963612,-0.023025,0.770829,0.0133522,0.047262,1875,1527,1.48805,-2.35762
658,-503,1.22058,2.698,0,0,0,0,0,0,0,-1,1882,1527,1.22058,-2.69796
665,-503,0,0,0,0,0,0,0,0,0,-1,1889,1527,0,0
672,-503,0,0,0,0,0,0,0,0,0,-1,1896,1527,0,0
679,-503,0,0,0,0,0,0,0,0,0,-1,1903,1527,0,0
686,-503,0,0,0,0,0,0,0,0,0,-1,1910,1527,0,0
693,-503,0,0,0,0,0,0,0,0,0,-1,1917,1527,0,0
700,-503,0,0,0,0,0,0,0,0,0,-1,1924,1527,0,0
707,-503,0,0,0,0,0,0,0,0,0,-1,1931,1527,0,0
714,-503,0,0,0,0,0,0,0,0,0,-1,1938,1527,0,0
721,-503,0,0,0,0,0,0,0,0,0,-1,1945,1527,0,0
728,-503,0,0,0,0,0,0,0,0,0,-1,1952,1527,0,0
735,-503,0,0,0,0,0,0,0,0,0,-1,1959,1527,0,0
742,-503,0,0,0,0,0,0,0,0,0,-1,1966,1527,0,0
749,-503,0,0,0,0,0,0,0,0,0,-1,1973,1527,0,0
756,-503,0,0,0,0,0,0,0,0,0,-1,1980,1527,0,0
763,-503,0,0,0,0,0,0,0,0,0,-1,1987,1527,0,0
770,-503,0,0,0,0,0,0,0,0,0,-1,1994,1527,0,0
777,-503,0,0,0,0,0,0,0,0,0,-1,2001,1527,0,0
784,-503,0,0,0,0,0,0,0,0,0,-1,2008,1527,0,0
791,-503,0,0,0,0,0,0,0,0,0,-1,2015,1527,0,0
798,-503,0,0,0,0,0,0,0,0,0,-1,2022,1527,0,0
805,-503,0,0,0,0,0,0,0,0,0,-1,2029,1527,0,0
812,-503,0,0,0,0,0,0,0,0,0,-1,2036,1527,0,0
-700,-510,0,0,0,0,0,0,0,0,0,-1,524,1534,0,0
-693,-510,0,0,0,0,0,0,0,0,0,-1,531,1534,0,0
-686,-510,0,0,0,0,0,0,0,0,0,-1,538,1534,0,0
-679,-510,0,0,0,0,0,0,0,0,0,-1,545,1534,0,0
-672,-510,0,0,0,0,0,0,0,0,0,-1,552,1534,0,0
-665,-510,0,0,0,0,0,0,0,0,0,-1,559,1534,0,0
-658,-510,0,0,0,0,0,0,0,0,0,-1,566,1534,0,0
-651,-510,0,0,0,0,0,0,0,0,0,-1,573,1534,0,0
-644,-510,0,0,0,0,0,0,0,0,0,-1,580,1534,0,0
-637,-510,0,0,0,0,0,0,0,0,0,-1,587,1534,0,0
-630,-510,0,0,0,0,0,0,0,0,0,-1,594,1534,0,0
-623,-510,0,0,0,0,0,0,0,0,0,-1,601,1534,0,0
-616,-510,0,0,0,0,0,0,0,0,0,-1,608,1534,0,0
-609,-510,0,0,0,0,0,0,0,0,0,-1,615,1534,0,0
-602,-510,0,0,0,0,0,0,0,0,0,-1,622,1534,0,0
-595,-510,0,0,0,0,0,0,0,0,0,-1,629,1534,0,0
-588,-510,0,0,0,0,0,0,0,0,0,-1,636,1534,0,0
-581,-510,0,0,0,0,0,0,0,0,0,-1,643,1534,0,0
-574,-510,0,0,0,0,0,0,0,0,0,-1,650,1534,0,0
-567,-510,0,0,0,0,0,0,0,0,0,-1,657,1534,0,0
-560,-510,0,0,0,0,0,0,0,0,0,-1,664,1534,0,0
-553,-510,0,0,0,0,0,0,0,0,0,-1,671,1534,0,0
-546,-510,0,0,0,0,0,0,0,0,0,-1,678,1534,0,0
-539,-510,0,0,0,0,0,0,0,0,0,-1,685,1534,0,0
-532,-510,0.195068,3.4281,0.0431425,-0.00424331,-0.0186061,0.049575,-0.0106758,-0.332857,0.0371239,0.0464753,692,1534,0.195051,-3.42808
-525,-510,0.354675,3.38843,0.039225,-0.00612688,-0.0199319,0.0467397,-0.0136416,-0.360542,0.0365653,0.0494621,699,1534,0.354646,-3.38843
-518,-510,0.406982,3.30603,0.0353063,-0.00651114,-0.0206933,0.0438151,-0.0150199,-0.39011,0.0352985,0.0471941,706,1534,0.406958,-3.30608
-511,-510,0.244934,3.03796,0,0,0,0,0,0,0,-1,713,1534,0.244946,-3.03802
-504,-510,0.678162,1.89795,0,0,0,0,0,0,0,-1,720,1534,0.678187,-1.89793
-497,-510,0.901794,1.49854,0,0,0,0,0,0,0,-1,727,1534,0.901807,-1.4985
-490,-510,0.708618,2.39404,0.0161718,-0.00343427,-0.0170521,0.0260378,-0.0133003,-0.524523,0.0231054,0.0431859,734,1534,0.708617,-2.39404
-483,-510,0.748291,1.98816,0.0116824,-0.00253012,-0.0152022,0.0213572,-0.0122049,-0.566763,0.0196158,0.0397311,741,1534,0.7483,-1.98813
-476,-510,1.00299,1.31458,0.00796414,-0.00122762,-0.013112,0.0172623,-0.0105258,-0.616833,0.0161999,0.0252352,748,1534,1.00299,-1.31463
-469,-510,1.04388,1.30713,0.00483998,-0.000162001,-0.0108504,0.0134739,-0.00879588,-0.672127,0.0129516,0.0104744,755,1534,1.04391,-1.30711
-462,-510,1.04926,1.35693,0.00227811,0.000224621,-0.00850872,0.00982181,-0.00731908,-0.725354,0.0099314,0.0116694,762,1534,1.04924,-1.35693
-455,-510,1.01855,1.39636,-9.69543e-06,-9.38534e-05,-0.00600675,0.00595512,-0.00605867,-0.781896,0.00693625,0.0133572,769,1534,1.01857,-1.3964
-448,-510,1.03186,1.42456,-0.00253896,-0.00036678,-0.00451797,0.00319381,-0.00609955,-0.903357,0.00545225,0.0120757,776,1534,1.03185,-1.42457
-441,-510,1.02472,1.45703,-0.00289686,-0.000360323,-0.00280078,0.00144596,-0.00470315,-0.997999,0.0037125,0.0132184,783,1534,1.0247,-1.457
-434,-510,1.01501,1.48108,-0.00225828,-0.000967548,-0.00200431,0.000492736,-0.00371856,-0.941151,0.00265855,0.014322,790,1534,1.01499,-1.48105
-427,-510,1.02936,1.51501,-0.00129774,-0.0013614,-0.00188846,0.00055915,-0.0032183,-0.776971,0.00235415,0.0209243,797,1534,1.02936,-1.51504
-420,-510,1.0343,1.53625,-2.75953e-05,-0.00172176,-0.00246144,0.00172845,-0.0034778,-0.619676,0.00306187,0.0203404,804,1534,1.03432,-1.53622
-413,-510,1.03784,1.5614,0.00124246,-0.00232013,-0.00353056,0.00341564,-0.00449331,-0.551763,0.00458034,0.0108155,811,1534,1.03785,-1.5614
-406,-510,1.0293,1.57373,0.0024478,-0.00301806,-0.00488006,0.00530807,-0.00587833,-0.530146,0.00646127,0.00993182,818,1534,1.02932,-1.57369
-399,-510,1.01624,1.61584,0.00434932,-0.0049242,-0.0062118,0.00746408,-0.00803896,-0.464788,0.00895273,0.0105845,825,1534,1.01624,-1.61588
-392,-510,1.03766,1.68054,0.00715177,-0.00687312,-0.00742899,0.0103552,-0.0100766,-0.407117,0.0117967,0.0136772,832,1534,1.03765,-1.68054
-385,-510,1.02722,1.71497,0.0121632,-0.0086588,-0.00916401,0.0156219,-0.0121175,-0.36089,0.0160579,0.0196528,839,1534,1.02724,-1.715
-378,-510,0.996826,1.69324,0.0183096,-0.00980471,-0.0110285,0.0221195,-0.0136146,-0.332624,0.020825,0.0295871,846,1534,0.996837,-1.69328
-371,-510,0.953552,1.71741,0.0253977,-0.00996244,-0.0136701,0.0300661,-0.0146309,-0.32909,0.0263138,0.0413704,853,1534,0.953536,-1.71744
-364,-510,1.22528,1.62585,0,0,0,0,0,0,0,-1,860,1534,1.22531,-1.62591
-357,-510,0.394592,1.67798,0,0,0,0,0,0,0,-1,867,1534,0.394592,-1.67798
-350,-510,0.780884,1.19849,0,0,0,0,0,0,0,-1,874,1534,0.780867,-1.19854
-343,-510,1.1001,0.835571,0,0,0,0,0,0,0,-1,881,1534,1.1001,-0.835626
-336,-510,2.01447,0.865479,0,0,0,0,0,0,0,-1,888,1534,2.01444,-0.865483
-329,-510,2.31586,0.888184,0.0668577,0.0168942,-0.0269436,0.0786189,0.00513303,-0.411581,0.0507881,0.0463221,895,1534,2.31584,-0.88817
-322,-510,2.98126,0.71106,0.0679875,0.029075,-0.028075,0.082689,0.0143735,-0.482389,0.0510143,0.0466869,902,1534,2.98127,-0.711069
-315,-510,3.62573,0.994263,0.0653595,0.0436464,-0.0283443,0.0848552,0.0241506,-0.602504,0.0504837,0.0466545,909,1534,3.62572,-0.994202
-308,-510,3.99048,0.85437,0,0,0,0,0,0,0,-1,916,1534,3.99045,-0.854332
-301,-510,4.55408,0.654175,0,0,0,0,0,0,0,-1,923,1534,4.55406,-0.654191
-294,-510,0,0,0,0,0,0,0,0,0,-1,930,1534,0,0
-287,-510,0,0,0,0,0,0,0,0,0,-1,937,1534,0,0
-280,-510,0,0,0,0,0,0,0,0,0,-1,944,1534,0,0
-273,-510,0,0,0,0,0,0,0,0,0,-1,951,1534,0,0
-266,-510,0,0,0,0,0,0,0,0,0,-1,958,1534,0,0
-259,-510,0,0,0,0,0,0,0,0,0,-1,965,1534,0,0
-252,-510,0,0,0,0,0,0,0,0,0,-1,972,1534,0,0
-245,-510,0,0,0,0,0,0,0,0,0,-1,979,1534,0,0
-238,-510,0,0,0,0,0,0,0,0,0,-1,986,1534,0,0
-231,-510,0,0,0,0,0,0,0,0,0,-1,993,1534,0,0
-224,-510,0,0,0,0,0,0,0,0,0,-1,1000,1534,0,0
-217,-510,0,0,0,0,0,0,0,0,0,-1,1007,1534,0,0
-210,-510,0,0,0,0,0,0,0,0,0,-1,1014,1534,0,0
-203,-510,0,0,0,0,0,0,0,0,0,-1,1021,1534,0,0
-196,-510,0,0,0,0,0,0,0,0,0,-1,1028,1534,0,0
-189,-510,0,0,0,0,0,0,0,0,0,-1,1035,1534,0,0
-182,-510,0,0,0,0,0,0,0,0,0,-1,1042,1534,0,0
-175,-510,0,0,0,0,0,0,0,0,0,-1,1049,1534,0,0
-168,-510,0,0,0,0,0,0,0,0,0,-1,1056,1534,0,0
-161,-510,0,0,0,0,0,0,0,0,0,-1,1063,1534,0,0
-154,-510,0,0,0,0,0,0,0,0,0,-1,1070,1534,0,0
-147,-510,0,0,0,0,0,0,0,0,0,-1,1077,1534,0,0
-140,-510,0,0,0,0,0,0,0,0,0,-1,1084,1534,0,0
-133,-510,0,0,0,0,0,0,0,0,0,-1,1091,1534,0,0
-126,-510,0,0,0,0,0,0,0,0,0,-1,1098,1534,0,0
-119,-510,0,0,0,0,0,0,0,0,0,-1,1105,1534,0,0
-112,-510,0,0,0,0,0,0,0,0,0,-1,1112,1534,0,0
-105,-510,0,0,0,0,0,0,0,0,0,-1,1119,1534,0,0
-98,-510,0,0,0,0,0,0,0,0,0,-1,1126,1534,0,0
-91,-510,0,0,0,0,0,0,0,0,0,-1,1133,1534,0,0
-84,-510,0,0,0,0,0,0,0,0,0,-1,1140,1534,0,0
-77,-510,0,0,0,0,0,0,0,0,0,-1,1147,1534,0,0
-70,-510,0,0,0,0,0,0,0,0,0,-1,1154,1534,0,0
-63,-510,0,0,0,0,0,0,0,0,0,-1,1161,1534,0,0
-56,-510,0,0,0,0,0,0,0,0,0,-1,1168,1534,0,0
-49,-510,0,0,0,0,0,0,0,0,0,-1,1175,1534,0,0
-42,-510,0,0,0,0,0,0,0,0,0,-1,1182,1534,0,0
-35,-510,0,0,0,0,0,0,0,0,0,-1,1189,1534,0,0
-28,-510,0,0,0,0,0,0,0,0,0,-1,1196,1534,0,0
-21,-510,0,0,0,0,0,0,0,0,0,-1,1203,1534,0,0
-14,-510,0,0,0,0,0,0,0,0,0,-1,1210,1534,0,0
-7,-510,0,0,0,0,0,0,0,0,0,-1,1217,1534,0,0
0,-510,0,0,0,0,0,0,0,0,0,-1,1224,1534,0,0
7,-510,0,0,0,0,0,0,0,0,0,-1,1231,1534,0,0
14,-510,0,0,0,0,0,0,0,0,0,-1,1238,1534,0,0
21,-510,0,0,0,0,0,0,0,0,0,-1,1245,1534,0,0
28,-510,0,0,0,0,0,0,0,0,0,-1,1252,1534,0,0
35,-510,0,0,0,0,0,0,0,0,0,-1,1259,1534,0,0
42,-510,0,0,0,0,0,0,0,0,0,-1,1266,1534,0,0
49,-510,0,0,0,0,0,0,0,0,0,-1,1273,1534,0,0
56,-510,0,0,0,0,0,0,0,0,0,-1,1280,1534,0,0
63,-510,0,0,0,0,0,0,0,0,0,-1,1287,1534,0,0
70,-510,0,0,0,0,0,0,0,0,0,-1,1294,1534,0,0
77,-510,0,0,0,0,0,0,0,0,0,-1,1301,1534,0,0
84,-510,0,0,0,0,0,0,0,0,0,-1,1308,1534,0,0
91,-510,0,0,0,0,0,0,0,0,0,-1,1315,1534,0,0
98,-510,0,0,0,0,0,0,0,0,0,-1,1322,1534,0,0
105,-510,0,0,0,0,0,0,0,0,0,-1,1329,1534,0,0
112,-510,0,0,0,0,0,0,0,0,0,-1,1336,1534,0,0
119,-510,0,0,0,0,0,0,0,0,0,-1,1343,1534,0,0
126,-510,0,0,0,0,0,0,0,0,0,-1,1350,1534,0,0
133,-510,0,0,0,0,0,0,0,0,0,-1,1357,1534,0,0
140,-510,0,0,0,0,0,0,0,0,0,-1,1364,1534,0,0
147,-510,0,0,0,0,0,0,0,0,0,-1,1371,1534,0,0
154,-510,0,0,0,0,0,0,0,0,0,-1,1378,1534,0,0
161,-510,0,0,0,0,0,0,0,0,0,-1,1385,1534,0,0
168,-510,0,0,0,0,0,0,0,0,0,-1,1392,1534,0,0
175,-510,0,0,0,0,0,0,0,0,0,-1,1399,1534,0,0
182,-510,0,0,0,0,0,0,0,0,0,-1,1406,1534,0,0
189,-510,0,0,0,0,0,0,0,0,0,-1,1413,1534,0,0
196,-510,0,0,0,0,0,0,0,0,0,-1,1420,1534,0,0
203,-510,0,0,0,0,0,0,0,0,0,-1,1427,1534,0,0
210,-510,0,0,0,0,0,0,0,0,0,-1,1434,1534,0,0
217,-510,0,0,0,0,0,0,0,0,0,-1,1441,1534,0,0
224,-510,0,0,0,0,0,0,0,0,0,-1,1448,1534,0,0
231,-510,0,0,0,0,0,0,0,0,0,-1,1455,1534,0,0
238,-510,0,0,0,0,0,0,0,0,0,-1,1462,1534,0,0
245,-510,0,0,0,0,0,0,0,0,0,-1,1469,1534,0,0
252,-510,0,0,0,0,0,0,0,0,0,-1,1476,1534,0,0
259,-510,0,0,0,0,0,0,0,0,0,-1,1483,1534,0,0
266,-510,0,0,0,0,0,0,0,0,0,-1,1490,1534,0,0
273,-510,0,0,0,0,0,0,0,0,0,-1,1497,1534,0,0
280,-510,0,0,0,0,0,0,0,0,0,-1,1504,1534,0,0
287,-510,0,0,0,0,0,0,0,0,0,-1,1511,1534,0,0
294,-510,0,0,0,0,0,0,0,0,0,-1,1518,1534,0,0
301,-510,0,0,0,0,0,0,0,0,0,-1,1525,1534,0,0
308,-510,0,0,0,0,0,0,0,0,0,-1,1532,1534,0,0
315,-510,0,0,0,0,0,0,0,0,0,-1,1539,1534,0,0
322,-510,0,0,0,0,0,0,0,0,0,-1,1546,1534,0,0
329,-510,0,0,0,0,0,0,0,0,0,-1,1553,1534,0,0
336,-510,0,0,0,0,0,0,0,0,0,-1,1560,1534,0,0
343,-510,0,0,0,0,0,0,0,0,0,-1,1567,1534,0,0
350,-510,0,0,0,0,0,0,0,0,0,-1,1574,1534,0,0
357,-510,0,0,0,0,0,0,0,0,0,-1,1581,1534,0,0
364,-510,0,0,0,0,0,0,0,0,0,-1,1588,1534,0,0
371,-510,0,0,0,0,0,0,0,0,0,-1,1595,1534,0,0
378,-510,0,0,0,0,0,0,0,0,0,-1,1602,1534,0,0
385,-510,0,0,0,0,0,0,0,0,0,-1,1609,1534,0,0
392,-510,0,0,0,0,0,0,0,0,0,-1,1616,1534,0,0
399,-510,0,0,0,0,0,0,0,0,0,-1,1623,1534,0,0
406,-510,0,0,0,0,0,0,0,0,0,-1,1630,1534,0,0
413,-510,0,0,0,0,0,0,0,0,0,-1,1637,1534,0,0
420,-510,6.26501,1.30127,-0.0657034,0.0815729,-0.0417798,0.0925996,-0.0767301,-1.31276,0.0979055,0.0452688,1644,1534,6.26503,-1.30131
427,-510,5.86902,1.38525,-0.0590333,0.0659489,-0.043072,0.0793547,-0.0724391,-1.26906,0.0876685,0.0448555,1651,1534,5.86906,-1.38523
434,-510,4.90417,0.522339,0,0,0,0,0,0,0,-1,1658,1534,4.90412,-0.5224
441,-510,4.3269,0.519043,-0.0403057,0.0424843,-0.0307617,0.0526628,-0.0504842,-1.25125,0.0595564,0.0473434,1665,1534,4.32686,-0.519001
448,-510,3.79529,0.548462,-0.0316935,0.0337756,-0.0233945,0.0412761,-0.039194,-1.26054,0.0464646,0.0468646,1672,1534,3.79533,-0.548478
455,-510,3.21155,0.775635,0,0,0,0,0,0,0,-1,1679,1534,3.21161,-0.775685
462,-510,2.57715,0.913696,-0.0177809,0.0208137,-0.0109724,0.023715,-0.0206822,-1.31229,0.0256527,0.0430448,1686,1534,2.57714,-0.913643
469,-510,2.30872,1.01904,-0.0123574,0.0165117,-0.00664906,0.0179694,-0.0138152,-1.35496,0.018403,0.0459334,1693,1534,2.30877,-1.0191
476,-510,1.90674,0.990356,0,0,0,0,0,0,0,-1,1700,1534,1.9067,-0.990308
483,-510,3.75183,3.31665,0,0,0,0,0,0,0,-1,1707,1534,3.75181,-3.31664
490,-510,3.48987,3.16113,-0.00279728,0.00718978,-0.000273168,0.00719724,-0.00280474,-1.54347,0.00595738,0.0492863,1714,1534,3.48981,-3.16119
497,-510,3.22729,2.94373,-0.00118501,0.00471282,9.53768e-05,0.00471437,-0.00118656,1.55463,0.00360413,0.0433093,1721,1534,3.22724,-2.9437
504,-510,2.52747,1.65454,-0.000297232,0.00353305,-0.000341197,0.0035632,-0.000327388,-1.48264,0.00249178,0.0427935,1728,1534,2.52752,-1.65459
511,-510,2.70386,1.85461,0,0,0,0,0,0,0,-1,1735,1534,2.7039,-1.85462
518,-510,2.70398,1.72327,0.00049768,0.00248219,-0.00154534,0.00332641,-0.00034654,-1.0708,0.00234168,0.0289742,1742,1534,2.70402,-1.72326
525,-510,2.67126,1.66345,0.000646196,0.00152785,-0.00202588,0.00316031,-0.000986261,-0.892527,0.0025013,0.0143974,1749,1534,2.67128,-1.6634
532,-510,2.67871,1.60999,0.000589355,0.000215921,-0.0020761,0.00248711,-0.00168184,-0.74055,0.00242187,0.0117198,1756,1534,2.67869,-1.61
539,-510,2.68298,1.56152,0.000741374,0.000213667,-0.0018466,0.00234288,-0.00138784,-0.714436,0.00217733,0.0125398,1763,1534,2.68294,-1.56156
546,-510,2.67432,1.54443,0.00102667,-0.00033794,-0.00169789,0.00217422,-0.00148549,-0.594347,0.00212537,0.0123926,1770,1534,2.67432,-1.54443
553,-510,2.6676,1.51086,0.00122396,-0.000168274,-0.00128378,0.00198821,-0.000932521,-0.536965,0.00172261,0.0136541,1777,1534,2.66762,-1.51081
560,-510,2.65527,1.45752,0.00131656,0.00119011,-0.000848902,0.00210459,0.00040208,-0.748229,0.00129009,0.0135976,1784,1534,2.65527,-1.4575
567,-510,2.65515,1.41162,0.00137924,0.00218563,-0.000779122,0.00265971,0.000905172,-1.02417,0.00156146,0.0127016,1791,1534,2.65513,-1.41164
574,-510,2.64893,1.37756,0.002932,0.00228151,-0.000490984,0.00319569,0.00201781,-0.492863,0.00186616,0.0134096,1798,1534,2.64888,-1.37759
581,-510,2.64929,1.36853,0.00367013,0.00232837,0.000601494,0.00390029,0.00209821,0.365459,0.00225399,0.0115698,1805,1534,2.64932,-1.36853
588,-510,2.65479,1.34241,0.00374594,0.00199126,0.00181979,0.00488884,0.000848367,0.560781,0.00301647,0.0116685,1812,1534,2.65473,-1.34246
595,-510,2.65942,1.30664,0.00424732,0.000854654,0.00305956,0.00604934,-0.000947366,0.532277,0.00438294,0.0112702,1819,1534,2.65948,-1.3066
602,-510,2.65662,1.24707,0.00459048,-0.000104031,0.00428271,0.00712699,-0.00264054,0.534715,0.00583421,0.0144415,1826,1534,2.65666,-1.24711
609,-510,2.65125,1.21777,0.00520629,-0.00196808,0.00618978,0.00877321,-0.005535,0.522781,0.00833107,0.0237388,1833,1534,2.65121,-1.2178
616,-510,2.69983,1.16077,0.00536215,-0.00481135,0.00834345,0.0100472,-0.0094964,0.511648,0.011285,0.0395278,1840,1534,2.69982,-1.16077
623,-510,3.45667,2.21948,0,0,0,0,0,0,0,-1,1847,1534,3.45668,-2.21943
630,-510,3.50989,1.48816,0,0,0,0,0,0,0,-1,1854,1534,3.50985,-1.48812
637,-510,3.56299,0.756836,0,0,0,0,0,0,0,-1,1861,1534,3.56302,-0.756803
644,-510,2.08521,2.15222,-0.00502526,-0.0198223,0.0131509,0.00266544,-0.027513,0.52917,0.019292,0.0460206,1868,1534,2.08515,-2.15224
651,-510,2.23499,2.13342,-0.011349,-0.0216159,0.010344,-0.00493471,-0.0280301,0.555067,0.0172784,0.0455113,1875,1534,2.23498,-2.1334
658,-510,0,0,0,0,0,0,0,0,0,-1,1882,1534,0,0
665,-510,0,0,0,0,0,0,0,0,0,-1,1889,1534,0,0
672,-510,0,0,0,0,0,0,0,0,0,-1,1896,1534,0,0
679,-510,0,0,0,0,0,0,0,0,0,-1,1903,1534,0,0
686,-510,0,0,0,0,0,0,0,0,0,-1,1910,1534,0,0
693,-510,0,0,0,0,0,0,0,0,0,-1,1917,1534,0,0
700,-510,0,0,0,0,0,0,0,0,0,-1,1924,1534,0,0
707,-510,0,0,0,0,0,0,0,0,0,-1,1931,1534,0,0
714,-510,0,0,0,0,0,0,0,0,0,-1,1938,1534,0,0
721,-510,0,0,0,0,0,0,0,0,0,-1,1945,1534,0,0
728,-510,0,0,0,0,0,0,0,0,0,-1,1952,1534,0,0
735,-510,0,0,0,0,0,0,0,0,0,-1,1959,1534,0,0
742,-510,0,0,0,0,0,0,0,0,0,-1,1966,1534,0,0
749,-510,0,0,0,0,0,0,0,0,0,-1,1973,1534,0,0
756,-510,0,0,0,0,0,0,0,0,0,-1,1980,1534,0,0
763,-510,0,0,0,0,0,0,0,0,0,-1,1987,1534,0,0
770,-510,0,0,0,0,0,0,0,0,0,-1,1994,1534,0,0
777,-510,0,0,0,0,0,0,0,0,0,-1,2001,1534,0,0
784,-510,0,0,0,0,0,0,0,0,0,-1,2008,1534,0,0
791,-510,0,0,0,0,0,0,0,0,0,-1,2015,1534,0,0
798,-510,0,0,0,0,0,0,0,0,0,-1,2022,1534,0,0
805,-510,0,0,0,0,0,0,0,0,0,-1,2029,1534,0,0
812,-510,0,0,0,0,0,0,0,0,0,-1,2036,1534,0,0
-700,-517,0,0,0,0,0,0,0,0,0,-1,524,1541,0,0
-693,-517,0,0,0,0,0,0,0,0,0,-1,531,1541,0,0
-686,-517,0,0,0,0,0,0,0,0,0,-1,538,1541,0,0
-679,-517,0,0,0,0,0,0,0,0,0,-1,545,1541,0,0
-672,-517,0,0,0,0,0,0,0,0,0,-1,552,1541,0,0
-665,-517,0,0,0,0,0,0,0,0,0,-1,559,1541,0,0
-658,-517,0,0,0,0,0,0,0,0,0,-1,566,1541,0,0
-651,-517,0,0,0,0,0,0,0,0,0,-1,573,1541,0,0
-644,-517,0,0,0,0,0,0,0,0,0,-1,580,1541,0,0
-637,-517,0,0,0,0,0,0,0,0,0,-1,587,1541,0,0
-630,-517,0,0,0,0,0,0,0,0,0,-1,594,1541,0,0
-623,-517,0,0,0,0,0,0,0,0,0,-1,601,1541,0,0
-616,-517,0,0,0,0,0,0,0,0,0,-1,608,1541,0,0
-609,-517,0,0,0,0,0,0,0,0,0,-1,615,1541,0,0
-602,-517,0,0,0,0,0,0,0,0,0,-1,622,1541,0,0
-595,-517,0,0,0,0,0,0,0,0,0,-1,629,1541,0,0
-588,-517,0,0,0,0,0,0,0,0,0,-1,636,1541,0,0
-581,-517,0,0,0,0,0,0,0,0,0,-1,643,1541,0,0
-574,-517,0,0,0,0,0,0,0,0,0,-1,650,1541,0,0
-567,-517,0,0,0,0,0,0,0,0,0,-1,657,1541,0,0
-560,-517,0,0,0,0,0,0,0,0,0,-1,664,1541,0,0
-553,-517,0,0,0,0,0,0,0,0,0,-1,671,1541,0,0
-546,-517,0,0,0,0,0,0,0,0,0,-1,678,1541,0,0
-539,-517,0,0,0,0,0,0,0,0,0,-1,685,1541,0,0
-532,-517,0,0,0,0,0,0,0,0,0,-1,692,1541,0,0
-525,-517,0.248535,3.49658,0,0,0,0,0,0,0,-1,699,1541,0.248506,-3.49653
-518,-517,0.392639,3.37952,0,0,0,0,0,0,0,-1,706,1541,0.39261,-3.37948
-511,-517,0.0576782,2.7052,0,0,0,0,0,0,0,-1,713,1541,0.0576623,-2.70523
-504,-517,0.740967,1.83667,0.0347031,-0.00438978,-0.0247291,0.0466779,-0.0163646,-0.450961,0.0377741,0.0475897,720,1541,0.740989,-1.83672
-497,-517,1.03699,1.56335,0.0273673,-0.00342348,-0.0232047,0.0398193,-0.0158755,-0.492508,0.0331311,0.0445314,727,1541,1.03699,-1.5634
-490,-517,1.17853,2.05603,0.0202378,-0.00272499,-0.0209597,0.0326548,-0.0151419,-0.534828,0.0282061,0.0421751,734,1541,1.17853,-2.05605
-483,-517,1.32123,1.74365,0.0139837,-0.00212858,-0.0186002,0.0261974,-0.0143423,-0.581033,0.0237369,0.040099,741,1541,1.32125,-1.74362
-476,-517,1.25873,1.12073,0,0,0,0,0,0,0,-1,748,1541,1.25873,-1.12075
-469,-517,1.07013,1.28271,0.00482557,-0.000511256,-0.0130354,0.0154629,-0.0111486,-0.684441,0.0154313,0.0131109,755,1541,1.07011,-1.28271
-462,-517,1.08508,1.32056,0.00163333,-0.00040064,-0.0100785,0.010746,-0.00951329,-0.735115,0.0117039,0.0125391,762,1541,1.08508,-1.32052
-455,-517,1.07416,1.37231,-0.000921361,-0.000852339,-0.00705879,0.00617203,-0.00794573,-0.787843,0.0081723,0.0122208,769,1541,1.07413,-1.37233
-448,-517,1.05853,1.40662,-0.00386374,-0.00123589,-0.00523702,0.00284952,-0.00794915,-0.908307,0.0064622,0.0126505,776,1541,1.05855,-1.40667
-441,-517,1.04443,1.43115,-0.00411633,-0.00117098,-0.00292377,0.000630062,-0.00591737,-1.0187,0.00417083,0.0120412,783,1541,1.04444,-1.43112
-434,-517,1.06561,1.4668,-0.00317135,-0.00167785,-0.00189508,-0.000387695,-0.00446151,-0.97308,0.0028539,0.0143804,790,1541,1.06563,-1.46682
-427,-517,1.0672,1.49988,-0.00197126,-0.00183445,-0.00142573,-0.000475478,-0.00333022,-0.809369,0.00207985,0.0131942,797,1541,1.06723,-1.49985
-420,-517,1.06006,1.55139,-0.000562868,-0.00191015,-0.0016054,0.000504502,-0.00297752,-0.586751,0.00217279,0.0182815,804,1541,1.06006,-1.55143
-413,-517,1.07635,1.5769,0.000678815,-0.00218554,-0.00228285,0.00194155,-0.00344827,-0.50525,0.00315209,0.00976038,811,1541,1.07633,-1.57684
-406,-517,1.0658,1.59814,0.00174566,-0.00254985,-0.00321319,0.0034628,-0.004267,-0.490791,0.00447085,0.0100071,818,1541,1.0658,-1.59815
-399,-517,1.05774,1.62988,0.00326519,-0.0039454,-0.00415576,0.00516158,-0.00584178,-0.428103,0.00635684,0.0104425,825,1541,1.05773,-1.62989
-392,-517,1.065,1.68188,0.00547564,-0.00535107,-0.00502827,0.00745065,-0.00732608,-0.374268,0.00853145,0.0108659,832,1541,1.06499,-1.68186
-385,-517,1.08301,1.72192,0.00981975,-0.00674922,-0.00633278,0.011963,-0.00889243,-0.326331,0.0120843,0.0124198,839,1541,1.08304,-1.72191
-378,-517,1.06708,1.72119,0.0150999,-0.00765409,-0.00771084,0.0174668,-0.0100209,-0.29782,0.0160629,0.0188116,846,1541,1.0671,-1.72121
-371,-517,1.07452,1.68176,0.0211383,-0.00759466,-0.00991129,0.0242254,-0.0106818,-0.301955,0.0206532,0.0329899,853,1541,1.07453,-1.68181
-364,-517,0.800415,1.81677,0.0280623,-0.00644958,-0.0120926,0.0318777,-0.0102649,-0.305625,0.0253752,0.0451524,860,1541,0.800436,-1.81672
-357,-517,0.793274,1.81897,0.0358266,-0.00551377,-0.0140903,0.0401723,-0.00985944,-0.29916,0.0306021,0.0466424,867,1541,0.79327,-1.81903
-350,-517,1.19482,1.29529,0.0413556,-0.00290725,-0.0162303,0.0466691,-0.00822073,-0.316383,0.0341841,0.0446893,874,1541,1.19484,-1.29531
-343,-517,1.57159,0.897583,0,0,0,0,0,0,0,-1,881,1541,1.57158,-0.897637
-336,-517,2.13617,0.747681,0.0509328,0.00835217,-0.019396,0.0584432,0.000841755,-0.369436,0.0386846,0.0462416,888,1541,2.13618,-0.747652
-329,-517,2.92841,0.61438,0.0545904,0.0165925,-0.0209391,0.0638652,0.00731772,-0.41697,0.0403593,0.0469116,895,1541,2.9284,-0.614388
-322,-517,3.60736,0.436035,0.0547774,0.0270609,-0.0216922,0.0666603,0.015178,-0.501146,0.040344,0.0476339,902,1541,3.60733,-0.436026
-315,-517,4.16064,0.246948,0.0520176,0.0394375,-0.0216074,0.0682318,0.0232232,-0.64376,0.0400574,0.0446911,909,1541,4.16065,-0.246955
-308,-517,4.52753,0.112061,0,0,0,0,0,0,0,-1,916,1541,4.52755,-0.112029
-301,-517,4.74457,-0.0343018,0,0,0,0,0,0,0,-1,923,1541,4.74454,0.0343127
-294,-517,5.00562,0.143433,0,0,0,0,0,0,0,-1,930,1541,5.00562,-0.14344
-287,-517,3.81897,3.92126,0,0,0,0,0,0,0,-1,937,1541,3.81896,-3.92125
-280,-517,0,0,0,0,0,0,0,0,0,-1,944,1541,0,0
-273,-517,0,0,0,0,0,0,0,0,0,-1,951,1541,0,0
-266,-517,0,0,0,0,0,0,0,0,0,-1,958,1541,0,0
-259,-517,0,0,0,0,0,0,0,0,0,-1,965,1541,0,0
-252,-517,0,0,0,0,0,0,0,0,0,-1,972,1541,0,0
-245,-517,0,0,0,0,0,0,0,0,0,-1,979,1541,0,0
-238,-517,0,0,0,0,0,0,0,0,0,-1,986,1541,0,0
-231,-517,0,0,0,0,0,0,0,0,0,-1,993,1541,0,0
-224,-517,0,0,0,0,0,0,0,0,0,-1,1000,1541,0,0
-217,-517,0,0,0,0,0,0,0,0,0,-1,1007,1541,0,0
-210,-517,0,0,0,0,0,0,0,0,0,-1,1014,1541,0,0
-203,-517,0,0,0,0,0,0,0,0,0,-1,1021,1541,0,0
-196,-517,0,0,0,0,0,0,0,0,0,-1,1028,1541,0,0
-189,-517,0,0,0,0,0,0,0,0,0,-1,1035,1541,0,0
-182,-517,0,0,0,0,0,0,0,0,0,-1,1042,1541,0,0
-175,-517,0,0,0,0,0,0,0,0,0,-1,1049,1541,0,0
-168,-517,0,0,0,0,0,0,0,0,0,-1,1056,1541,0,0
-161,-517,0,0,0,0,0,0,0,0,0,-1,1063,1541,0,0
-154,-517,0,0,0,0,0,0,0,0,0,-1,1070,1541,0,0
-147,-517,0,0,0,0,0,0,0,0,0,-1,1077,1541,0,0
-140,-517,0,0,0,0,0,0,0,0,0,-1,1084,1541,0,0
-133,-517,0,0,0,0,0,0,0,0,0,-1,1091,1541,0,0
-126,-517,0,0,0,0,0,0,0,0,0,-1,1098,1541,0,0
-119,-517,0,0,0,0,0,0,0,0,0,-1,1105,1541,0,0
-112,-517,0,0,0,0,0,0,0,0,0,-1,1112,1541,0,0
-105,-517,0,0,0,0,0,0,0,0,0,-1,1119,1541,0,0
-98,-517,0,0,0,0,0,0,0,0,0,-1,1126,1541,0,0
-91,-517,0,0,0,0,0,0,0,0,0,-1,1133,1541,0,0
-84,-517,0,0,0,0,0,0,0,0,0,-1,1140,1541,0,0
-77,-517,0,0,0,0,0,0,0,0,0,-1,1147,1541,0,0
-70,-517,0,0,0,0,0,0,0,0,0,-1,1154,1541,0,0
-63,-517,0,0,0,0,0,0,0,0,0,-1,1161,1541,0,0
-56,-517,0,0,0,0,0,0,0,0,0,-1,1168,1541,0,0
-49,-517,0,0,0,0,0,0,0,0,0,-1,1175,1541,0,0
-42,-517,0,0,0,0,0,0,0,0,0,-1,1182,1541,0,0
-35,-517,0,0,0,0,0,0,0,0,0,-1,1189,1541,0,0
-28,-517,0,0,0,0,0,0,0,0,0,-1,1196,1541,0,0
-21,-517,0,0,0,0,0,0,0,0,0,-1,1203,1541,0,0
-14,-517,0,0,0,0,0,0,0,0,0,-1,1210,1541,0,0
-7,-517,0,0,0,0,0,0,0,0,0,-1,1217,1541,0,0
0,-517,0,0,0,0,0,0,0,0,0,-1,1224,1541,0,0
7,-517,0,0,0,0,0,0,0,0,0,-1,1231,1541,0,0
14,-517,0,0,0,0,0,0,0,0,0,-1,1238,1541,0,0
21,-517,0,0,0,0,0,0,0,0,0,-1,1245,1541,0,0
28,-517,0,0,0,0,0,0,0,0,0,-1,1252,1541,0,0
35,-517,0,0,0,0,0,0,0,0,0,-1,1259,1541,0,0
42,-517,0,0,0,0,0,0,0,0,0,-1,1266,1541,0,0
49,-517,0,0,0,0,0,0,0,0,0,-1,1273,1541,0,0
56,-517,0,0,0,0,0,0,0,0,0,-1,1280,1541,0,0
63,-517,0,0,0,0,0,0,0,0,0,-1,1287,1541,0,0
70,-517,0,0,0,0,0,0,0,0,0,-1,1294,1541,0,0
77,-517,0,0,0,0,0,0,0,0,0,-1,1301,1541,0,0
84,-517,0,0,0,0,0,0,0,0,0,-1,1308,1541,0,0
91,-517,0,0,0,0,0,0,0,0,0,-1,1315,1541,0,0
98,-517,0,0,0,0,0,0,0,0,0,-1,1322,1541,0,0
105,-517,0,0,0,0,0,0,0,0,0,-1,1329,1541,0,0
112,-517,0,0,0,0,0,0,0,0,0,-1,1336,1541,0,0
119,-517,0,0,0,0,0,0,0,0,0,-1,1343,1541,0,0
126,-517,0,0,0,0,0,0,0,0,0,-1,1350,1541,0,0
133,-517,0,0,0,0,0,0,0,0,0,-1,1357,1541,0,0
140,-517,0,0,0,0,0,0,0,0,0,-1,1364,1541,0,0
147,-517,0,0,0,0,0,0,0,0,0,-1,1371,1541,0,0
154,-517,0,0,0,0,0,0,0,0,0,-1,1378,1541,0,0
161,-517,0,0,0,0,0,0,0,0,0,-1,1385,1541,0,0
168,-517,0,0,0,0,0,0,0,0,0,-1,1392,1541,0,0
175,-517,0,0,0,0,0,0,0,0,0,-1,1399,1541,0,0
182,-517,0,0,0,0,0,0,0,0,0,-1,1406,1541,0,0
189,-517,0,0,0,0,0,0,0,0,0,-1,1413,1541,0,0
196,-517,0,0,0,0,0,0,0,0,0,-1,1420,1541,0,0
203,-517,0,0,0,0,0,0,0,0,0,-1,1427,1541,0,0
210,-517,0,0,0,0,0,0,0,0,0,-1,1434,1541,0,0
217,-517,0,0,0,0,0,0,0,0,0,-1,1441,1541,0,0
224,-517,0,0,0,0,0,0,0,0,0,-1,1448,1541,0,0
231,-517,0,0,0,0,0,0,0,0,0,-1,1455,1541,0,0
238,-517,0,0,0,0,0,0,0,0,0,-1,1462,1541,0,0
245,-517,0,0,0,0,0,0,0,0,0,-1,1469,1541,0,0
252,-517,0,0,0,0,0,0,0,0,0,-1,1476,1541,0,0
259,-517,0,0,0,0,0,0,0,0,0,-1,1483,1541,0,0
266,-517,0,0,0,0,0,0,0,0,0,-1,1490,1541,0,0
273,-517,0,0,0,0,0,0,0,0,0,-1,1497,1541,0,0
280,-517,0,0,0,0,0,0,0,0,0,-1,1504,1541,0,0
287,-517,0,0,0,0,0,0,0,0,0,-1,1511,1541,0,0
294,-517,0,0,0,0,0,0,0,0,0,-1,1518,1541,0,0
301,-517,0,0,0,0,0,0,0,0,0,-1,1525,1541,0,0
308,-517,0,0,0,0,0,0,0,0,0,-1,1532,1541,0,0
315,-517,0,0,0,0,0,0,0,0,0,-1,1539,1541,0,0
322,-517,0,0,0,0,0,0,0,0,0,-1,1546,1541,0,0
329,-517,0,0,0,0,0,0,0,0,0,-1,1553,1541,0,0
336,-517,0,0,0,0,0,0,0,0,0,-1,1560,1541,0,0
343,-517,0,0,0,0,0,0,0,0,0,-1,1567,1541,0,0
350,-517,0,0,0,0,0,0,0,0,0,-1,1574,1541,0,0
357,-517,0,0,0,0,0,0,0,0,0,-1,1581,1541,0,0
364,-517,0,0,0,0,0,0,0,0,0,-1,1588,1541,0,0
371,-517,0,0,0,0,0,0,0,0,0,-1,1595,1541,0,0
378,-517,0,0,0,0,0,0,0,0,0,-1,1602,1541,0,0
385,-517,0,0,0,0,0,0,0,0,0,-1,1609,1541,0,0
392,-517,0,0,0,0,0,0,0,0,0,-1,1616,1541,0,0
399,-517,0,0,0,0,0,0,0,0,0,-1,1623,1541,0,0
406,-517,3.85938,1.65405,0,0,0,0,0,0,0,-1,1630,1541,3.85932,-1.65407
413,-517,7.00183,1.55774,0,0,0,0,0,0,0,-1,1637,1541,7.0018,-1.55768
420,-517,6.44519,1.3175,-0.0592206,0.067327,-0.0331587,0.075489,-0.0673826,-1.32944,0.0825312,0.0461638,1644,1541,6.44518,-1.3175
427,-517,5.90491,1.06409,-0.0528966,0.0551005,-0.0361102,0.0660618,-0.063858,-1.27608,0.0750128,0.0485034,1651,1541,5.90491,-1.06407
434,-517,5.33362,0.756348,-0.0442376,0.0442832,-0.0332656,0.0553906,-0.0553449,-1.24854,0.0639331,0.0453425,1658,1541,5.33358,-0.756312
441,-517,4.72559,0.382813,-0.0359313,0.0352424,-0.0280457,0.0449654,-0.0456544,-1.23708,0.0523199,0.0460423,1665,1541,4.7256,-0.382793
448,-517,4.12952,0.339722,-0.0283326,0.0282147,-0.0217844,0.0356336,-0.0357515,-1.24256,0.0412142,0.0470968,1672,1541,4.12956,-0.339661
455,-517,3.45581,0.833984,0,0,0,0,0,0,0,-1,1679,1541,3.45585,-0.833992
462,-517,2.66321,0.788696,-0.0161243,0.0175932,-0.0105421,0.0206179,-0.019149,-1.29138,0.0229647,0.0434696,1686,1541,2.66318,-0.788747
469,-517,2.20068,0.828003,-0.0111984,0.0143823,-0.00637878,0.0158847,-0.0127008,-1.33949,0.0165379,0.0469574,1693,1541,2.20063,-0.827994
476,-517,2.13049,1.06433,-0.0075792,0.0127217,-0.00309544,0.0131832,-0.0080407,-1.4228,0.0123729,0.048867,1700,1541,2.13049,-1.06432
483,-517,2.16541,1.46082,-0.004659,0.0104972,-0.000916555,0.0105524,-0.00471423,-1.51061,0.00902648,0.0482963,1707,1541,2.16541,-1.46077
490,-517,2.24683,1.71106,-0.00254123,0.00762503,-2.24857e-05,0.00762508,-0.00254128,-1.56858,0.00610928,0.0454174,1714,1541,2.24688,-1.71105
497,-517,2.56677,1.81506,-0.00108412,0.00560238,0.000381583,0.00562408,-0.00110582,1.51397,0.00416719,0.0400073,1721,1541,2.56683,-1.81503
504,-517,2.60852,1.7616,-0.000369128,0.00471379,-4.08809e-05,0.00471412,-0.000369457,-1.56275,0.00327285,0.0343772,1728,1541,2.60857,-1.76158
511,-517,2.64978,1.7345,-0.00035406,0.00410762,-0.000707954,0.00421726,-0.0004637,-1.41715,0.00297813,0.0272299,1735,1541,2.64976,-1.7345
518,-517,2.62061,1.68152,7.77207e-05,0.00377636,-0.00133381,0.00420718,-0.000353101,-1.25837,0.00292959,0.0183654,1742,1541,2.62064,-1.68154
525,-517,2.6366,1.65076,0.000149739,0.00284553,-0.00184045,0.00377887,-0.000783607,-1.10146,0.00281702,0.0107119,1749,1541,2.63656,-1.65074
532,-517,2.65454,1.59497,-3.99436e-05,0.00148672,-0.00195448,0.00282164,-0.00137486,-0.971568,0.00247038,0.0104247,1756,1541,2.65454,-1.59495
539,-517,2.65796,1.54675,-9.64502e-05,0.00124725,-0.00180985,0.00250593,-0.00135513,-0.963125,0.00226195,0.011497,1763,1541,2.65798,-1.54673
546,-517,2.63611,1.53284,5.99003e-06,0.000487418,-0.00176086,0.00202394,-0.00153053,-0.853328,0.00205875,0.0123331,1770,1541,2.6361,-1.53285
553,-517,2.625,1.48816,1.30673e-05,0.000540607,-0.00148281,0.00178292,-0.00122925,-0.87342,0.00174885,0.0166781,1777,1541,2.62495,-1.48819
560,-517,2.63293,1.45325,-9.33862e-05,0.00199048,-0.00125156,0.00257706,-0.000679959,-1.13252,0.00198392,0.0157836,1784,1541,2.63289,-1.45326
567,-517,2.63757,1.43689,-4.752e-06,0.00320984,-0.00121171,0.00361541,-0.000410324,-1.24781,0.00255804,0.0127565,1791,1541,2.63757,-1.43688
574,-517,2.64087,1.38184,0.00201281,0.00341209,-0.000800341,0.00377548,0.00164942,-1.14458,0.00218556,0.0132203,1798,1541,2.64086,-1.3818
581,-517,2.64783,1.32605,0.00311752,0.00366943,0.000500053,0.00396462,0.00282233,1.03753,0.00235648,0.0136624,1805,1541,2.64783,-1.32608
588,-517,2.64771,1.3252,0.00366468,0.00349195,0.00187386,0.00545416,0.00170247,0.76237,0.0032222,0.0132777,1812,1541,2.64766,-1.32523
595,-517,2.63428,1.30762,0.00484179,0.00243723,0.00329238,0.00714454,0.000134479,0.610336,0.00471884,0.0129918,1819,1541,2.63433,-1.30765
602,-517,2.58789,1.22144,0.00608328,0.00149895,0.00484972,0.00915524,-0.00157301,0.564638,0.00668976,0.0186863,1826,1541,2.58788,-1.22147
609,-517,2.5199,0.976563,0.00778463,-0.000561807,0.0072661,0.0119907,-0.00476785,0.524729,0.00997059,0.0364968,1833,1541,2.51989,-0.976615
616,-517,1.96838,1.61475,0,0,0,0,0,0,0,-1,1840,1541,1.96842,-1.61472
623,-517,2.3551,1.66455,0.00980288,-0.00800425,0.0130389,0.0166882,-0.0148895,0.485839,0.0182412,0.0480025,1847,1541,2.35508,-1.66452
630,-517,4.51257,1.78784,0.00924075,-0.0128892,0.0157212,0.0174005,-0.0210489,0.478753,0.0222321,0.0439115,1854,1541,4.51258,-1.78789
637,-517,2.3905,2.25061,0.00700577,-0.0184574,0.0176544,0.0160405,-0.0274921,0.473007,0.0254218,0.0450043,1861,1541,2.3905,-2.25057
644,-517,2.49255,2.297,0.00236703,-0.0238875,0.0178467,0.0113944,-0.0329149,0.468301,0.0265687,0.0450436,1868,1541,2.49252,-2.29696
651,-517,0,0,0,0,0,0,0,0,0,-1,1875,1541,0,0
658,-517,0,0,0,0,0,0,0,0,0,-1,1882,1541,0,0
665,-517,0,0,0,0,0,0,0,0,0,-1,1889,1541,0,0
672,-517,0,0,0,0,0,0,0,0,0,-1,1896,1541,0,0
679,-517,0,0,0,0,0,0,0,0,0,-1,1903,1541,0,0
686,-517,0,0,0,0,0,0,0,0,0,-1,1910,1541,0,0
693,-517,0,0,0,0,0,0,0,0,0,-1,1917,1541,0,0
700,-517,0,0,0,0,0,0,0,0,0,-1,1924,1541,0,0
707,-517,0,0,0,0,0,0,0,0,0,-1,1931,1541,0,0
714,-517,0,0,0,0,0,0,0,0,0,-1,1938,1541,0,0
721,-517,0,0,0,0,0,0,0,0,0,-1,1945,1541,0,0
728,-517,0,0,0,0,0,0,0,0,0,-1,1952,1541,0,0
735,-517,0,0,0,0,0,0,0,0,0,-1,1959,1541,0,0
742,-517,0,0,0,0,0,0,0,0,0,-1,1966,1541,0,0
749,-517,0,0,0,0,0,0,0,0,0,-1,1973,1541,0,0
756,-517,0,0,0,0,0,0,0,0,0,-1,1980,1541,0,0
763,-517,0,0,0,0,0,0,0,0,0,-1,1987,1541,0,0
770,-517,0,0,0,0,0,0,0,0,0,-1,1994,1541,0,0
777,-517,0,0,0,0,0,0,0,0,0,-1,2001,1541,0,0
784,-517,0,0,0,0,0,0,0,0,0,-1,2008,1541,0,0
791,-517,0,0,0,0,0,0,0,0,0,-1,2015,1541,0,0
798,-517,0,0,0,0,0,0,0,0,0,-1,2022,1541,0,0
805,-517,0,0,0,0,0,0,0,0,0,-1,2029,1541,0,0
812,-517,0,0,0,0,0,0,0,0,0,-1,2036,1541,0,0
-700,-524,0,0,0,0,0,0,0,0,0,-1,524,1548,0,0
-693,-524,0,0,0,0,0,0,0,0,0,-1,531,1548,0,0
-686,-524,0,0,0,0,0,0,0,0,0,-1,538,1548,0,0
-679,-524,0,0,0,0,0,0,0,0,0,-1,545,1548,0,0
-672,-524,0,0,0,0,0,0,0,0,0,-1,552,1548,0,0
-665,-524,0,0,0,0,0,0,0,0,0,-1,559,1548,0,0
-658,-524,0,0,0,0,0,0,0,0,0,-1,566,1548,0,0
-651,-524,0,0,0,0,0,0,0,0,0,-1,573,1548,0,0
-644,-524,0,0,0,0,0,0,0,0,0,-1,580,1548,0,0
-637,-524,0,0,0,0,0,0,0,0,0,-1,587,1548,0,0
-630,-524,0,0,0,0,0,0,0,0,0,-1,594,1548,0,0
-623,-524,0,0,0,0,0,0,0,0,0,-1,601,1548,0,0
-616,-524,0,0,0,0,0,0,0,0,0,-1,608,1548,0,0
-609,-524,0,0,0,0,0,0,0,0,0,-1,615,1548,0,0
-602,-524,0,0,0,0,0,0,0,0,0,-1,622,1548,0,0
-595,-524,0,0,0,0,0,0,0,0,0,-1,629,1548,0,0
-588,-524,0,0,0,0,0,0,0,0,0,-1,636,1548,0,0
-581,-524,0,0,0,0,0,0,0,0,0,-1,643,1548,0,0
-574,-524,0,0,0,0,0,0,0,0,0,-1,650,1548,0,0
-567,-524,0,0,0,0,0,0,0,0,0,-1,657,1548,0,0
-560,-524,0,0,0,0,0,0,0,0,0,-1,664,1548,0,0
-553,-524,0,0,0,0,0,0,0,0,0,-1,671,1548,0,0
-546,-524,0,0,0,0,0,0,0,0,0,-1,678,1548,0,0
-539,-524,0,0,0,0,0,0,0,0,0,-1,685,1548,0,0
-532,-524,0,0,0,0,0,0,0,0,0,-1,692,1548,0,0
-525,-524,0.195923,3.75623,0,0,0,0,0,0,0,-1,699,1548,0.195921,-3.75619
-518,-524,0.313904,3.53552,0,0,0,0,0,0,0,-1,706,1548,0.313876,-3.53548
-511,-524,0.453308,3.2854,0,0,0,0,0,0,0,-1,713,1548,0.453337,-3.28535
-504,-524,0.814697,1.78674,0.0439267,-0.00269307,-0.0296547,0.0583362,-0.0171026,-0.452312,0.0456718,0.0450515,720,1548,0.8147,-1.78668
-497,-524,1.23248,1.44934,0.0332946,-0.00181615,-0.0279465,0.0487422,-0.0172638,-0.504958,0.0395267,0.0420586,727,1548,1.23249,-1.44928
-490,-524,1.54572,1.4292,0.0233514,-0.00137507,-0.0252607,0.0391121,-0.0171357,-0.557822,0.0332907,0.042769,734,1548,1.5457,-1.42917
-483,-524,1.76013,1.37415,0.0148888,-0.00116656,-0.0223309,0.0305911,-0.0168689,-0.612847,0.0277802,0.0441543,741,1548,1.76016,-1.37412
-476,-524,1.69452,1.10095,0,0,0,0,0,0,0,-1,748,1548,1.6945,-1.10097
-469,-524,1.27472,1.25537,0.00321446,-0.000554591,-0.0154501,0.0168946,-0.0142347,-0.724711,0.0179944,0.0319629,755,1548,1.27471,-1.25542
-462,-524,1.15344,1.27454,-0.000410329,-0.000751802,-0.0118904,0.0113106,-0.0124727,-0.778219,0.0137368,0.0217309,762,1548,1.15345,-1.27455
-455,-524,1.11798,1.36755,-0.00293401,-0.0012739,-0.00841163,0.00634853,-0.0105564,-0.834579,0.00986036,0.0141898,769,1548,1.11801,-1.3676
-448,-524,1.09906,1.41394,-0.00602355,-0.00177441,-0.00632986,0.00277791,-0.0105759,-0.947312,0.00813619,0.0122385,776,1548,1.09908,-1.41392
-441,-524,1.08893,1.43591,-0.0058808,-0.00163797,-0.00347647,0.000313239,-0.00783201,-1.05935,0.00532882,0.0109835,783,1548,1.0889,-1.43591
-434,-524,1.11707,1.45532,-0.00436933,-0.00204165,-0.00226133,-0.000662233,-0.00574875,-1.02306,0.00363193,0.0124417,790,1548,1.11707,-1.45529
-427,-524,1.1308,1.50183,-0.00273908,-0.00202999,-0.00146625,-0.000876031,-0.00389304,-0.904023,0.00235823,0.0124292,797,1548,1.13077,-1.50178
-420,-524,1.10132,1.5448,-0.000954854,-0.00187641,-0.00124391,-8.9128e-05,-0.00274214,-0.608019,0.00179912,0.0102525,804,1548,1.10134,-1.54483
-413,-524,1.11475,1.57715,0.000391948,-0.00197534,-0.00151104,0.00112774,-0.00271114,-0.45315,0.00227836,0.00970847,811,1548,1.11472,-1.57721
-406,-524,1.11517,1.61035,0.00136238,-0.0021306,-0.00204502,0.00230519,-0.00307342,-0.431986,0.00311588,0.0104032,818,1548,1.11516,-1.61032
-399,-524,1.10822,1.63794,0.00255291,-0.00317231,-0.00259436,0.00355362,-0.00417302,-0.36814,0.00446575,0.00905125,825,1548,1.10824,-1.6379
-392,-524,1.11493,1.68286,0.00426359,-0.00421291,-0.00310283,0.00527798,-0.00522731,-0.315974,0.00606526,0.00955536,832,1548,1.11495,-1.6829
-385,-524,1.10425,1.72278,0.00799139,-0.00534516,-0.00396718,0.00908226,-0.00643603,-0.268343,0.00900281,0.0106447,839,1548,1.10425,-1.72283
-378,-524,1.1015,1.74658,0.0124665,-0.00608688,-0.0048612,0.013663,-0.00728341,-0.241341,0.012279,0.0128903,846,1548,1.10152,-1.74657
-371,-524,1.14923,1.73804,0.0175054,-0.00589106,-0.00658609,0.019232,-0.00761763,-0.256384,0.0159777,0.0234365,853,1548,1.14921,-1.73798
-364,-524,1.16199,1.72668,0.023417,-0.004814,-0.00836237,0.0257081,-0.0071051,-0.267415,0.0199338,0.0358672,860,1548,1.16201,-1.72674
-357,-524,1.1684,1.72644,0.029943,-0.0039761,-0.00992088,0.0326316,-0.00666471,-0.264649,0.0242828,0.0446813,867,1548,1.16839,-1.72649
-350,-524,1.34161,1.71509,0.0339201,-0.00158153,-0.0116694,0.0374123,-0.00507377,-0.290781,0.0267934,0.0448015,874,1548,1.34163,-1.71508
-343,-524,1.94299,0.911133,0,0,0,0,0,0,0,-1,881,1548,1.943,-0.911193
-336,-524,1.284,2.151,0.0408226,0.00844237,-0.0143015,0.0462346,0.00303035,-0.361769,0.0298643,0.0460199,888,1548,1.28401,-2.15097
-329,-524,3.56616,0.343628,0.0434679,0.0155045,-0.0154002,0.0502865,0.0086859,-0.416819,0.0310369,0.0482473,895,1548,3.56618,-0.343639
-322,-524,4.31165,0.202759,0.0428335,0.0243856,-0.0159789,0.0520596,0.0151594,-0.523632,0.0309179,0.0490779,902,1548,4.31162,-0.202747
-315,-524,4.63037,-0.386353,0.0400122,0.0344733,-0.0158633,0.053346,0.0211396,-0.698978,0.0310195,0.0482495,909,1548,4.63035,0.386336
-308,-524,5.15179,-0.449341,0,0,0,0,0,0,0,-1,916,1548,5.15181,0.449396
-301,-524,5.0694,-0.731812,0,0,0,0,0,0,0,-1,923,1548,5.0694,0.731857
-294,-524,4.06201,3.70825,0.0249018,0.0611176,-0.0200502,0.0700265,0.0159929,-1.15267,0.0423717,0.0464245,930,1548,4.06199,-3.70821
-287,-524,4.02106,3.85327,0,0,0,0,0,0,0,-1,937,1548,4.02108,-3.85326
-280,-524,3.94763,4.1189,0,0,0,0,0,0,0,-1,944,1548,3.94762,-4.1189
-273,-524,0,0,0,0,0,0,0,0,0,-1,951,1548,0,0
-266,-524,0,0,0,0,0,0,0,0,0,-1,958,1548,0,0
-259,-524,0,0,0,0,0,0,0,0,0,-1,965,1548,0,0
-252,-524,0,0,0,0,0,0,0,0,0,-1,972,1548,0,0
-245,-524,0,0,0,0,0,0,0,0,0,-1,979,1548,0,0
-238,-524,0,0,0,0,0,0,0,0,0,-1,986,1548,0,0
-231,-524,0,0,0,0,0,0,0,0,0,-1,993,1548,0,0
-224,-524,0,0,0,0,0,0,0,0,0,-1,1000,1548,0,0
-217,-524,0,0,0,0,0,0,0,0,0,-1,1007,1548,0,0
-210,-524,0,0,0,0,0,0,0,0,0,-1,1014,1548,0,0
-203,-524,0,0,0,0,0,0,0,0,0,-1,1021,1548,0,0
-196,-524,0,0,0,0,0,0,0,0,0,-1,1028,1548,0,0
-189,-524,0,0,0,0,0,0,0,0,0,-1,1035,1548,0,0
-182,-524,0,0,0,0,0,0,0,0,0,-1,1042,1548,0,0
-175,-524,0,0,0,0,0,0,0,0,0,-1,1049,1548,0,0
-168,-524,0,0,0,0,0,0,0,0,0,-1,1056,1548,0,0
-161,-524,0,0,0,0,0,0,0,0,0,-1,1063,1548,0,0
-154,-524,0,0,0,0,0,0,0,0,0,-1,1070,1548,0,0
-147,-524,0,0,0,0,0,0,0,0,0,-1,1077,1548,0,0
-140,-524,0,0,0,0,0,0,0,0,0,-1,1084,1548,0,0
-133,-524,0,0,0,0,0,0,0,0,0,-1,1091,1548,0,0
-126,-524,0,0,0,0,0,0,0,0,0,-1,1098,1548,0,0
-119,-524,0,0,0,0,0,0,0,0,0,-1,1105,1548,0,0
-112,-524,0,0,0,0,0,0,0,0,0,-1,1112,1548,0,0
-105,-524,0,0,0,0,0,0,0,0,0,-1,1119,1548,0,0
-98,-524,0,0,0,0,0,0,0,0,0,-1,1126,1548,0,0
-91,-524,0,0,0,0,0,0,0,0,0,-1,1133,1548,0,0
-84,-524,0,0,0,0,0,0,0,0,0,-1,1140,1548,0,0
-77,-524,0,0,0,0,0,0,0,0,0,-1,1147,1548,0,0
-70,-524,0,0,0,0,0,0,0,0,0,-1,1154,1548,0,0
-63,-524,0,0,0,0,0,0,0,0,0,-1,1161,1548,0,0
-56,-524,0,0,0,0,0,0,0,0,0,-1,1168,1548,0,0
-49,-524,0,0,0,0,0,0,0,0,0,-1,1175,1548,0,0
-42,-524,0,0,0,0,0,0,0,0,0,-1,1182,1548,0,0
-35,-524,0,0,0,0,0,0,0,0,0,-1,1189,1548,0,0
-28,-524,0,0,0,0,0,0,0,0,0,-1,1196,1548,0,0
-21,-524,0,0,0,0,0,0,0,0,0,-1,1203,1548,0,0
-14,-524,0,0,0,0,0,0,0,0,0,-1,1210,1548,0,0
-7,-524,0,0,0,0,0,0,0,0,0,-1,1217,1548,0,0
0,-524,0,0,0,0,0,0,0,0,0,-1,1224,1548,0,0
7,-524,0,0,0,0,0,0,0,0,0,-1,1231,1548,0,0
14,-524,0,0,0,0,0,0,0,0,0,-1,1238,1548,0,0
21,-524,0,0,0,0,0,0,0,0,0,-1,1245,1548,0,0
28,-524,0,0,0,0,0,0,0,0,0,-1,1252,1548,0,0
35,-524,0,0,0,0,0,0,0,0,0,-1,1259,1548,0,0
42,-524,0,0,0,0,0,0,0,0,0,-1,1266,1548,0,0
49,-524,0,0,0,0,0,0,0,0,0,-1,1273,1548,0,0
56,-524,0,0,0,0,0,0,0,0,0,-1,1280,1548,0,0
63,-524,0,0,0,0,0,0,0,0,0,-1,1287,1548,0,0
70,-524,0,0,0,0,0,0,0,0,0,-1,1294,1548,0,0
77,-524,0,0,0,0,0,0,0,0,0,-1,1301,1548,0,0
84,-524,0,0,0,0,0,0,0,0,0,-1,1308,1548,0,0
91,-524,0,0,0,0,0,0,0,0,0,-1,1315,1548,0,0
98,-524,0,0,0,0,0,0,0,0,0,-1,1322,1548,0,0
105,-524,0,0,0,0,0,0,0,0,0,-1,1329,1548,0,0
112,-524,0,0,0,0,0,0,0,0,0,-1,1336,1548,0,0
119,-524,0,0,0,0,0,0,0,0,0,-1,1343,1548,0,0
126,-524,0,0,0,0,0,0,0,0,0,-1,1350,1548,0,0
133,-524,0,0,0,0,0,0,0,0,0,-1,1357,1548,0,0
140,-524,0,0,0,0,0,0,0,0,0,-1,1364,1548,0,0
147,-524,0,0,0,0,0,0,0,0,0,-1,1371,1548,0,0
154,-524,0,0,0,0,0,0,0,0,0,-1,1378,1548,0,0
161,-524,0,0,0,0,0,0,0,0,0,-1,1385,1548,0,0
168,-524,0,0,0,0,0,0,0,0,0,-1,1392,1548,0,0
175,-524,0,0,0,0,0,0,0,0,0,-1,1399,1548,0,0
182,-524,0,0,0,0,0,0,0,0,0,-1,1406,1548,0,0
189,-524,0,0,0,0,0,0,0,0,0,-1,1413,1548,0,0
196,-524,0,0,0,0,0,0,0,0,0,-1,1420,1548,0,0
203,-524,0,0,0,0,0,0,0,0,0,-1,1427,1548,0,0
210,-524,0,0,0,0,0,0,0,0,0,-1,1434,1548,0,0
217,-524,0,0,0,0,0,0,0,0,0,-1,1441,1548,0,0
224,-524,0,0,0,0,0,0,0,0,0,-1,1448,1548,0,0
231,-524,0,0,0,0,0,0,0,0,0,-1,1455,1548,0,0
238,-524,0,0,0,0,0,0,0,0,0,-1,1462,1548,0,0
245,-524,0,0,0,0,0,0,0,0,0,-1,1469,1548,0,0
252,-524,0,0,0,0,0,0,0,0,0,-1,1476,1548,0,0
259,-524,0,0,0,0,0,0,0,0,0,-1,1483,1548,0,0
266,-524,0,0,0,0,0,0,0,0,0,-1,1490,1548,0,0
273,-524,0,0,0,0,0,0,0,0,0,-1,1497,1548,0,0
280,-524,0,0,0,0,0,0,0,0,0,-1,1504,1548,0,0
287,-524,0,0,0,0,0,0,0,0,0,-1,1511,1548,0,0
294,-524,0,0,0,0,0,0,0,0,0,-1,1518,1548,0,0
301,-524,0,0,0,0,0,0,0,0,0,-1,1525,1548,0,0
308,-524,0,0,0,0,0,0,0,0,0,-1,1532,1548,0,0
315,-524,0,0,0,0,0,0,0,0,0,-1,1539,1548,0,0
322,-524,0,0,0,0,0,0,0,0,0,-1,1546,1548,0,0
329,-524,0,0,0,0,0,0,0,0,0,-1,1553,1548,0,0
336,-524,0,0,0,0,0,0,0,0,0,-1,1560,1548,0,0
343,-524,0,0,0,0,0,0,0,0,0,-1,1567,1548,0,0
350,-524,0,0,0,0,0,0,0,0,0,-1,1574,1548,0,0
357,-524,0,0,0,0,0,0,0,0,0,-1,1581,1548,0,0
364,-524,0,0,0,0,0,0,0,0,0,-1,1588,1548,0,0
371,-524,0,0,0,0,0,0,0,0,0,-1,1595,1548,0,0
378,-524,0,0,0,0,0,0,0,0,0,-1,1602,1548,0,0
385,-524,0,0,0,0,0,0,0,0,0,-1,1609,1548,0,0
392,-524,0,0,0,0,0,0,0,0,0,-1,1616,1548,0,0
399,-524,0.219727,2.54028,0,0,0,0,0,0,0,-1,1623,1548,0.219735,-2.54031
406,-524,4.28552,1.57092,0,0,0,0,0,0,0,-1,1630,1548,4.28556,-1.57093
413,-524,1.82275,2.54236,0,0,0,0,0,0,0,-1,1637,1548,1.8228,-2.54241
420,-524,6.59106,1.33301,0,0,0,0,0,0,0,-1,1644,1548,6.59112,-1.33304
427,-524,6.05347,1.06311,0,0,0,0,0,0,0,-1,1651,1548,6.05352,-1.06313
434,-524,5.5155,0.783447,-0.0381642,0.0362958,-0.0291738,0.0463647,-0.048233,-1.23846,0.0546195,0.0475711,1658,1548,5.51552,-0.783399
441,-524,5.06384,0.00671387,-0.0306529,0.0287812,-0.0252874,0.0380841,-0.0399558,-1.21828,0.0450606,0.0473768,1665,1548,5.06387,-0.0066615
448,-524,2.1095,-0.82959,0,0,0,0,0,0,0,-1,1672,1548,2.10944,0.829619
455,-524,2.32922,-0.460815,0,0,0,0,0,0,0,-1,1679,1548,2.32926,0.460811
462,-524,2.73364,0.521851,0,0,0,0,0,0,0,-1,1686,1548,2.73363,-0.521836
469,-524,2.3739,0.589355,-0.00964741,0.0116073,-0.00628283,0.0133256,-0.0113657,-1.30384,0.0142705,0.0470462,1693,1548,2.37385,-0.589325
476,-524,2.36572,1.02563,-0.00654324,0.0105681,-0.00309187,0.0111097,-0.00708478,-1.39741,0.0105899,0.0426053,1700,1548,2.36576,-1.02566
483,-524,2.49561,1.50073,-0.00407899,0.00893352,-0.000855365,0.00898951,-0.00413497,-1.50544,0.00774828,0.0404618,1707,1548,2.49561,-1.50076
490,-524,2.49133,1.86145,-0.00222331,0.00676571,-1.9391e-05,0.00676575,-0.00222335,-1.56864,0.00540622,0.0386119,1714,1548,2.49139,-1.86148
497,-524,2.51221,1.8335,-0.000959406,0.00519443,0.000448887,0.005227,-0.000991977,1.49836,0.00385807,0.026374,1721,1548,2.51223,-1.83356
504,-524,2.57544,1.73413,-0.000405101,0.00461986,0.000105617,0.00462208,-0.00040732,1.54979,0.00322574,0.0149205,1728,1548,2.57543,-1.73407
511,-524,2.57166,1.69971,-0.00051694,0.00418416,-0.000497697,0.00423627,-0.000569053,-1.46647,0.00303172,0.0154071,1735,1548,2.57161,-1.69973
518,-524,2.59546,1.68958,-0.00019742,0.00398497,-0.00108785,0.00425101,-0.000463451,-1.33096,0.00300044,0.0152272,1742,1548,2.59547,-1.68962
525,-524,2.62646,1.66235,-0.000150406,0.00320743,-0.00152668,0.00379776,-0.000740741,-1.20183,0.00281147,0.0129654,1749,1548,2.62642,-1.6624
532,-524,2.62634,1.60107,-0.000488071,0.00201609,-0.00168031,0.00285951,-0.00133149,-1.10559,0.0024727,0.00918238,1756,1548,2.62635,-1.60111
539,-524,2.6156,1.5437,-0.000789206,0.0017803,-0.00166261,0.0025967,-0.00160561,-1.11434,0.0024486,0.0101441,1763,1548,2.61564,-1.54373
546,-524,2.59119,1.51709,-0.000907832,0.00106634,-0.00173477,0.00207519,-0.00191669,-1.04405,0.00230532,0.0139581,1770,1548,2.59115,-1.5171
553,-524,2.61328,1.45447,-0.00118863,0.00121736,-0.00165543,0.00206074,-0.00203201,-1.09961,0.00236297,0.0230772,1777,1548,2.61328,-1.45443
560,-524,2.60571,1.37341,-0.0016372,0.00292098,-0.00173482,0.00350613,-0.00222235,-1.24548,0.00333491,0.0301654,1784,1548,2.60569,-1.37342
567,-524,2.61877,1.44006,-0.00166693,0.00457139,-0.00183222,0.00506971,-0.00216525,-1.30524,0.00428784,0.0174033,1791,1548,2.61881,-1.44011
574,-524,2.62988,1.39746,0.00063791,0.00501391,-0.00138018,0.00541284,0.000238971,-1.28942,0.0035316,0.0121371,1798,1548,2.62986,-1.39742
581,-524,2.63489,1.32141,0.00195986,0.00565106,-1.31832e-05,0.0056511,0.00195982,-1.56722,0.00331332,0.0127648,1805,1548,2.63484,-1.32146
588,-524,2.6344,1.31006,0.00294106,0.00581805,0.00142366,0.00640343,0.00235568,1.18069,0.0037398,0.0126314,1812,1548,2.63435,-1.31004
595,-524,2.60156,1.29675,0.00481999,0.00503783,0.00303396,0.00796482,0.00189299,0.803341,0.00480483,0.0137228,1819,1548,2.60156,-1.29677
602,-524,2.58521,1.18433,0.00707645,0.00428233,0.00500457,0.0108753,0.000483484,0.649285,0.00709453,0.0281089,1826,1548,2.58526,-1.18437
609,-524,2.21338,2.05127,0,0,0,0,0,0,0,-1,1833,1548,2.21342,-2.0513
616,-524,2.45459,2.04541,0,0,0,0,0,0,0,-1,1840,1548,2.45454,-2.04544
623,-524,2.60962,2.37061,0.0154878,-0.0064286,0.0156732,0.0236537,-0.0145945,0.480314,0.0222881,0.0466326,1847,1548,2.60966,-2.37058
630,-524,2.76245,2.51172,0.0165002,-0.0129518,0.0195318,0.0262354,-0.0226869,0.462386,0.0282701,0.0480492,1854,1548,2.76242,-2.51168
637,-524,2.58557,2.67175,0.0160133,-0.0206888,0.0227215,0.0268689,-0.0315444,0.445704,0.0337609,0.0424381,1861,1548,2.58552,-2.6718
644,-524,2.53992,2.71313,0.0118824,-0.0295799,0.0238983,0.0227884,-0.0404859,0.428123,0.0370047,0.044084,1868,1548,2.5399,-2.71314
651,-524,0,0,0,0,0,0,0,0,0,-1,1875,1548,0,0
658,-524,0,0,0,0,0,0,0,0,0,-1,1882,1548,0,0
665,-524,0,0,0,0,0,0,0,0,0,-1,1889,1548,0,0
672,-524,0,0,0,0,0,0,0,0,0,-1,1896,1548,0,0
679,-524,0,0,0,0,0,0,0,0,0,-1,1903,1548,0,0
686,-524,0,0,0,0,0,0,0,0,0,-1,1910,1548,0,0
693,-524,0,0,0,0,0,0,0,0,0,-1,1917,1548,0,0
700,-524,0,0,0,0,0,0,0,0,0,-1,1924,1548,0,0
707,-524,0,0,0,0,0,0,0,0,0,-1,1931,1548,0,0
714,-524,0,0,0,0,0,0,0,0,0,-1,1938,1548,0,0
721,-524,0,0,0,0,0,0,0,0,0,-1,1945,1548,0,0
728,-524,0,0,0,0,0,0,0,0,0,-1,1952,1548,0,0
735,-524,0,0,0,0,0,0,0,0,0,-1,1959,1548,0,0
742,-524,0,0,0,0,0,0,0,0,0,-1,1966,1548,0,0
749,-524,0,0,0,0,0,0,0,0,0,-1,1973,1548,0,0
756,-524,0,0,0,0,0,0,0,0,0,-1,1980,1548,0,0
763,-524,0,0,0,0,0,0,0,0,0,-1,1987,1548,0,0
770,-524,0,0,0,0,0,0,0,0,0,-1,1994,1548,0,0
777,-524,0,0,0,0,0,0,0,0,0,-1,2001,1548,0,0
784,-524,0,0,0,0,0,0,0,0,0,-1,2008,1548,0,0
791,-524,0,0,0,0,0,0,0,0,0,-1,2015,1548,0,0
798,-524,0,0,0,0,0,0,0,0,0,-1,2022,1548,0,0
805,-524,0,0,0,0,0,0,0,0,0,-1,2029,1548,0,0
812,-524,0,0,0,0,0,0,0,0,0,-1,2036,1548,0,0
-700,-531,0,0,0,0,0,0,0,0,0,-1,524,1555,0,0
-693,-531,0,0,0,0,0,0,0,0,0,-1,531,1555,0,0
-686,-531,0,0,0,0,0,0,0,0,0,-1,538,1555,0,0
-679,-531,0,0,0,0,0,0,0,0,0,-1,545,1555,0,0
-672,-531,0,0,0,0,0,0,0,0,0,-1,552,1555,0,0
-665,-531,0,0,0,0,0,0,0,0,0,-1,559,1555,0,0
-658,-531,0,0,0,0,0,0,0,0,0,-1,566,1555,0,0
-651,-531,0,0,0,0,0,0,0,0,0,-1,573,1555,0,0
-644,-531,0,0,0,0,0,0,0,0,0,-1,580,1555,0,0
-637,-531,0,0,0,0,0,0,0,0,0,-1,587,1555,0,0
-630,-531,0,0,0,0,0,0,0,0,0,-1,594,1555,0,0
-623,-531,0,0,0,0,0,0,0,0,0,-1,601,1555,0,0
-616,-531,0,0,0,0,0,0,0,0,0,-1,608,1555,0,0
-609,-531,0,0,0,0,0,0,0,0,0,-1,615,1555,0,0
-602,-531,0,0,0,0,0,0,0,0,0,-1,622,1555,0,0
-595,-531,0,0,0,0,0,0,0,0,0,-1,629,1555,0,0
-588,-531,0,0,0,0,0,0,0,0,0,-1,636,1555,0,0
-581,-531,0,0,0,0,0,0,0,0,0,-1,643,1555,0,0
-574,-531,0,0,0,0,0,0,0,0,0,-1,650,1555,0,0
-567,-531,0,0,0,0,0,0,0,0,0,-1,657,1555,0,0
-560,-531,0,0,0,0,0,0,0,0,0,-1,664,1555,0,0
-553,-531,0,0,0,0,0,0,0,0,0,-1,671,1555,0,0
-546,-531,0,0,0,0,0,0,0,0,0,-1,678,1555,0,0
-539,-531,0,0,0,0,0,0,0,0,0,-1,685,1555,0,0
-532,-531,0,0,0,0,0,0,0,0,0,-1,692,1555,0,0
-525,-531,0,0,0,0,0,0,0,0,0,-1,699,1555,0,0
-518,-531,0.563477,3.70825,0,0,0,0,0,0,0,-1,706,1555,0.563472,-3.7082
-511,-531,0.465881,2.46045,0.0728354,-0.00195188,-0.0347526,0.086491,-0.0156075,-0.374404,0.0635057,0.0452053,713,1555,0.465896,-2.46046
-504,-531,0.840271,1.63049,0.0566848,-0.00106884,-0.0346178,0.0728886,-0.0172726,-0.437784,0.0552572,0.0408473,720,1555,0.840281,-1.63054
-497,-531,1.55939,1.33459,0,0,0,0,0,0,0,-1,727,1555,1.55939,-1.33463
-490,-531,1.99072,1.26099,0,0,0,0,0,0,0,-1,734,1555,1.99074,-1.26093
-483,-531,2.2804,1.31665,0,0,0,0,0,0,0,-1,741,1555,2.2804,-1.31666
-476,-531,2.21918,1.04028,0,0,0,0,0,0,0,-1,748,1555,2.2192,-1.04026
-469,-531,1.65131,1.32483,0.00180086,-0.00114017,-0.0177751,0.0181662,-0.0175055,-0.744128,0.0205962,0.0413501,755,1555,1.6513,-1.32484
-462,-531,1.24683,1.31372,-0.00240463,-0.00152691,-0.0136065,0.0116478,-0.0155793,-0.801519,0.0157741,0.0377998,762,1555,1.24685,-1.31377
-455,-531,1.15442,1.37537,-0.00490619,-0.0020205,-0.00970165,0.00634501,-0.0132717,-0.859218,0.0115587,0.025518,769,1555,1.15439,-1.37541
-448,-531,1.12805,1.41931,-0.00821226,-0.0025639,-0.00737708,0.00251112,-0.0132873,-0.968208,0.00980302,0.0118214,776,1555,1.12803,-1.41934
-441,-531,1.13507,1.44312,-0.00765057,-0.00224211,-0.00401191,-0.000108124,-0.00978455,-1.08195,0.00648729,0.0111156,783,1555,1.13509,-1.4431
-434,-531,1.14264,1.48145,-0.00552271,-0.00244674,-0.00264395,-0.00092599,-0.00704347,-1.04883,0.00441944,0.0115427,790,1555,1.14264,-1.48146
-427,-531,1.14813,1.50977,-0.00342122,-0.00215559,-0.00159062,-0.00107653,-0.00450029,-0.97472,0.00271349,0.0129291,797,1555,1.14816,-1.50973
-420,-531,1.13879,1.54626,-0.00130252,-0.00171363,-0.00106752,-0.000420943,-0.00259521,-0.690286,0.00160829,0.0115134,804,1555,1.1388,-1.54631
-413,-531,1.14777,1.57141,9.85211e-05,-0.00156432,-0.00107716,0.000627812,-0.00209361,-0.456724,0.00164543,0.00966166,811,1555,1.14775,-1.57145
-406,-531,1.14545,1.59131,0.000966037,-0.00148037,-0.00135291,0.00156673,-0.00208106,-0.417852,0.00211302,0.0108008,818,1555,1.14542,-1.59126
-399,-531,1.16022,1.62939,0.00180591,-0.00213482,-0.00164446,0.00240198,-0.00273089,-0.347742,0.00296549,0.0129697,825,1555,1.16023,-1.62941
-392,-531,1.17395,1.67041,0.00297805,-0.00278297,-0.00192718,0.00356328,-0.0033682,-0.294822,0.00400242,0.0160667,832,1555,1.17394,-1.67047
-385,-531,1.12787,1.71997,0.00594708,-0.00358583,-0.00249365,0.00655997,-0.00419872,-0.241005,0.0062612,0.0138537,839,1555,1.12789,-1.72003
-378,-531,1.11981,1.73547,0.00947027,-0.00412488,-0.00303047,0.0101152,-0.0047698,-0.209685,0.00877663,0.0102119,846,1555,1.11979,-1.73546
-371,-531,1.14453,1.75745,0.0133737,-0.00383666,-0.00432575,0.0143998,-0.00486275,-0.232899,0.0115667,0.0104179,853,1555,1.14453,-1.75741
-364,-531,1.1651,1.77087,0.0181158,-0.00290463,-0.00570965,0.0195666,-0.00435538,-0.248822,0.0147127,0.0186617,860,1555,1.16511,-1.77093
-357,-531,1.1651,1.75366,0.0232805,-0.00222569,-0.00682829,0.0249934,-0.00393866,-0.245791,0.0181185,0.0303214,867,1555,1.1651,-1.75367
-350,-531,1.1767,1.76892,0.0257916,-0.000130188,-0.00818389,0.0281591,-0.00249773,-0.281605,0.0196583,0.0405384,874,1555,1.17668,-1.76895
-343,-531,1.17993,1.82446,0.0273011,0.00423972,-0.00912044,0.0304721,0.00106874,-0.334605,0.019968,0.0473664,881,1555,1.17994,-1.82449
-336,-531,1.09155,2.03101,0.0305142,0.00829331,-0.0101642,0.0344621,0.00434545,-0.370474,0.0216719,0.046375,888,1555,1.09155,-2.03104
-329,-531,1.15094,2.12585,0.0325558,0.014174,-0.0107394,0.0375002,0.00922957,-0.431468,0.0225619,0.0459857,895,1555,1.15093,-2.12588
-322,-531,-0.0355225,3.28418,0,0,0,0,0,0,0,-1,902,1555,-0.035523,-3.28417
-315,-531,5.10339,-1.03748,0,0,0,0,0,0,0,-1,909,1555,5.10337,1.03748
-308,-531,5.57562,-1.14612,0,0,0,0,0,0,0,-1,916,1555,5.57564,1.1461
-301,-531,3.88556,3.18481,0.0211968,0.0445393,-0.0133628,0.0506101,0.0151259,-1.14436,0.0299974,0.0470005,923,1555,3.88554,-3.18488
-294,-531,3.61139,3.43445,0.0168394,0.0508656,-0.0148389,0.0564277,0.0112774,-1.21217,0.0344797,0.0497525,930,1555,3.61136,-3.43444
-287,-531,3.37964,3.6814,0,0,0,0,0,0,0,-1,937,1555,3.37967,-3.68141
-280,-531,-0.0986938,3.46545,0,0,0,0,0,0,0,-1,944,1555,-0.0986852,-3.46548
-273,-531,-0.610596,4.27795,0,0,0,0,0,0,0,-1,951,1555,-0.610566,-4.27795
-266,-531,-1.27002,5.16199,0,0,0,0,0,0,0,-1,958,1555,-1.27003,-5.16199
-259,-531,0,0,0,0,0,0,0,0,0,-1,965,1555,0,0
-252,-531,0,0,0,0,0,0,0,0,0,-1,972,1555,0,0
-245,-531,0,0,0,0,0,0,0,0,0,-1,979,1555,0,0
-238,-531,0,0,0,0,0,0,0,0,0,-1,986,1555,0,0
-231,-531,0,0,0,0,0,0,0,0,0,-1,993,1555,0,0
-224,-531,0,0,0,0,0,0,0,0,0,-1,1000,1555,0,0
-217,-531,0,0,0,0,0,0,0,0,0,-1,1007,1555,0,0
-210,-531,0,0,0,0,0,0,0,0,0,-1,1014,1555,0,0
-203,-531,0,0,0,0,0,0,0,0,0,-1,1021,1555,0,0
-196,-531,0,0,0,0,0,0,0,0,0,-1,1028,1555,0,0
-189,-531,0,0,0,0,0,0,0,0,0,-1,1035,1555,0,0
-182,-531,0,0,0,0,0,0,0,0,0,-1,1042,1555,0,0
-175,-531,0,0,0,0,0,0,0,0,0,-1,1049,1555,0,0
-168,-531,0,0,0,0,0,0,0,0,0,-1,1056,1555,0,0
-161,-531,0,0,0,0,0,0,0,0,0,-1,1063,1555,0,0
-154,-531,0,0,0,0,0,0,0,0,0,-1,1070,1555,0,0
-147,-531,0,0,0,0,0,0,0,0,0,-1,1077,1555,0,0
-140,-531,0,0,0,0,0,0,0,0,0,-1,1084,1555,0,0
-133,-531,0,0,0,0,0,0,0,0,0,-1,1091,1555,0,0
-126,-531,0,0,0,0,0,0,0,0,0,-1,1098,1555,0,0
-119,-531,0,0,0,0,0,0,0,0,0,-1,1105,1555,0,0
-112,-531,0,0,0,0,0,0,0,0,0,-1,1112,1555,0,0
-105,-531,0,0,0,0,0,0,0,0,0,-1,1119,1555,0,0
-98,-531,0,0,0,0,0,0,0,0,0,-1,1126,1555,0,0
-91,-531,0,0,0,0,0,0,0,0,0,-1,1133,1555,0,0
-84,-531,0,0,0,0,0,0,0,0,0,-1,1140,1555,0,0
-77,-531,0,0,0,0,0,0,0,0,0,-1,1147,1555,0,0
-70,-531,0,0,0,0,0,0,0,0,0,-1,1154,1555,0,0
-63,-531,0,0,0,0,0,0,0,0,0,-1,1161,1555,0,0
-56,-531,0,0,0,0,0,0,0,0,0,-1,1168,1555,0,0
-49,-531,0,0,0,0,0,0,0,0,0,-1,1175,1555,0,0
-42,-531,0,0,0,0,0,0,0,0,0,-1,1182,1555,0,0
-35,-531,0,0,0,0,0,0,0,0,0,-1,1189,1555,0,0
-28,-531,0,0,0,0,0,0,0,0,0,-1,1196,1555,0,0
-21,-531,0,0,0,0,0,0,0,0,0,-1,1203,1555,0,0
-14,-531,0,0,0,0,0,0,0,0,0,-1,1210,1555,0,0
-7,-531,0,0,0,0,0,0,0,0,0,-1,1217,1555,0,0
0,-531,0,0,0,0,0,0,0,0,0,-1,1224,1555,0,0
7,-531,0,0,0,0,0,0,0,0,0,-1,1231,1555,0,0
14,-531,0,0,0,0,0,0,0,0,0,-1,1238,1555,0,0
21,-531,0,0,0,0,0,0,0,0,0,-1,1245,1555,0,0
28,-531,0,0,0,0,0,0,0,0,0,-1,1252,1555,0,0
35,-531,0,0,0,0,0,0,0,0,0,-1,1259,1555,0,0
42,-531,0,0,0,0,0,0,0,0,0,-1,1266,1555,0,0
49,-531,0,0,0,0,0,0,0,0,0,-1,1273,1555,0,0
56,-531,0,0,0,0,0,0,0,0,0,-1,1280,1555,0,0
63,-531,0,0,0,0,0,0,0,0,0,-1,1287,1555,0,0
70,-531,0,0,0,0,0,0,0,0,0,-1,1294,1555,0,0
77,-531,0,0,0,0,0,0,0,0,0,-1,1301,1555,0,0
84,-531,0,0,0,0,0,0,0,0,0,-1,1308,1555,0,0
91,-531,0,0,0,0,0,0,0,0,0,-1,1315,1555,0,0
98,-531,0,0,0,0,0,0,0,0,0,-1,1322,1555,0,0
105,-531,0,0,0,0,0,0,0,0,0,-1,1329,1555,0,0
112,-531,0,0,0,0,0,0,0,0,0,-1,1336,1555,0,0
119,-531,0,0,0,0,0,0,0,0,0,-1,1343,1555,0,0
126,-531,0,0,0,0,0,0,0,0,0,-1,1350,1555,0,0
133,-531,0,0,0,0,0,0,0,0,0,-1,1357,1555,0,0
140,-531,0,0,0,0,0,0,0,0,0,-1,1364,1555,0,0
147,-531,0,0,0,0,0,0,0,0,0,-1,1371,1555,0,0
154,-531,0,0,0,0,0,0,0,0,0,-1,1378,1555,0,0
161,-531,0,0,0,0,0,0,0,0,0,-1,1385,1555,0,0
168,-531,0,0,0,0,0,0,0,0,0,-1,1392,1555,0,0
175,-531,0,0,0,0,0,0,0,0,0,-1,1399,1555,0,0
182,-531,0,0,0,0,0,0,0,0,0,-1,1406,1555,0,0
189,-531,0,0,0,0,0,0,0,0,0,-1,1413,1555,0,0
196,-531,0,0,0,0,0,0,0,0,0,-1,1420,1555,0,0
203,-531,0,0,0,0,0,0,0,0,0,-1,1427,1555,0,0
210,-531,0,0,0,0,0,0,0,0,0,-1,1434,1555,0,0
217,-531,0,0,0,0,0,0,0,0,0,-1,1441,1555,0,0
224,-531,0,0,0,0,0,0,0,0,0,-1,1448,1555,0,0
231,-531,0,0,0,0,0,0,0,0,0,-1,1455,1555,0,0
238,-531,0,0,0,0,0,0,0,0,0,-1,1462,1555,0,0
245,-531,0,0,0,0,0,0,0,0,0,-1,1469,1555,0,0
252,-531,0,0,0,0,0,0,0,0,0,-1,1476,1555,0,0
259,-531,0,0,0,0,0,0,0,0,0,-1,1483,1555,0,0
266,-531,0,0,0,0,0,0,0,0,0,-1,1490,1555,0,0
273,-531,0,0,0,0,0,0,0,0,0,-1,1497,1555,0,0
280,-531,0,0,0,0,0,0,0,0,0,-1,1504,1555,0,0
287,-531,0,0,0,0,0,0,0,0,0,-1,1511,1555,0,0
294,-531,0,0,0,0,0,0,0,0,0,-1,1518,1555,0,0
301,-531,0,0,0,0,0,0,0,0,0,-1,1525,1555,0,0
308,-531,0,0,0,0,0,0,0,0,0,-1,1532,1555,0,0
315,-531,0,0,0,0,0,0,0,0,0,-1,1539,1555,0,0
322,-531,0,0,0,0,0,0,0,0,0,-1,1546,1555,0,0
329,-531,0,0,0,0,0,0,0,0,0,-1,1553,1555,0,0
336,-531,0,0,0,0,0,0,0,0,0,-1,1560,1555,0,0
343,-531,0,0,0,0,0,0,0,0,0,-1,1567,1555,0,0
350,-531,0,0,0,0,0,0,0,0,0,-1,1574,1555,0,0
357,-531,0,0,0,0,0,0,0,0,0,-1,1581,1555,0,0
364,-531,0,0,0,0,0,0,0,0,0,-1,1588,1555,0,0
371,-531,0,0,0,0,0,0,0,0,0,-1,1595,1555,0,0
378,-531,0,0,0,0,0,0,0,0,0,-1,1602,1555,0,0
385,-531,0.402954,0.399902,0,0,0,0,0,0,0,-1,1609,1555,0.402906,-0.399895
392,-531,-0.894775,0.132324,0,0,0,0,0,0,0,-1,1616,1555,-0.894803,-0.13228
399,-531,2.58203,1.44495,0,0,0,0,0,0,0,-1,1623,1555,2.58203,-1.44496
406,-531,3.25146,1.47766,0,0,0,0,0,0,0,-1,1630,1555,3.25152,-1.47764
413,-531,1.96704,2.67444,0,0,0,0,0,0,0,-1,1637,1555,1.96709,-2.6745
420,-531,0.653564,3.01758,0,0,0,0,0,0,0,-1,1644,1555,0.65353,-3.01753
427,-531,0.80957,2.33167,0,0,0,0,0,0,0,-1,1651,1555,0.809532,-2.33167
434,-531,0.663696,2.14819,0,0,0,0,0,0,0,-1,1658,1555,0.663752,-2.14813
441,-531,2.23914,-0.0986328,0,0,0,0,0,0,0,-1,1665,1555,2.23908,0.0985736
448,-531,2.24121,0.165527,-0.0196336,0.0183389,-0.0182999,0.0257224,-0.0270171,-1.1873,0.0304522,0.0485047,1672,1555,2.24116,-0.165529
455,-531,2.2373,0.452881,0,0,0,0,0,0,0,-1,1679,1555,2.23735,-0.452916
462,-531,2.50732,0.724731,-0.0113188,0.0103003,-0.0095566,0.013919,-0.0149376,-1.20882,0.0166638,0.0474093,1686,1555,2.50728,-0.724732
469,-531,2.50354,1.16956,-0.00786473,0.00825019,-0.00603578,0.0102602,-0.00987471,-1.24934,0.0116256,0.0490617,1693,1555,2.50352,-1.1696
476,-531,2.5155,1.45496,-0.00543206,0.00757967,-0.00297725,0.00822854,-0.00608094,-1.35621,0.00829254,0.0436199,1700,1555,2.51552,-1.455
483,-531,2.56226,1.66492,-0.0035691,0.00639663,-0.000743959,0.00645186,-0.00362433,-1.49669,0.00589335,0.0376541,1707,1555,2.56226,-1.66494
490,-531,2.54956,1.79492,-0.00209282,0.00484515,-2.08022e-05,0.00484522,-0.00209288,-1.5678,0.00410943,0.0281269,1714,1555,2.54952,-1.79487
497,-531,2.54211,1.76648,-0.00110391,0.00371376,0.000439785,0.00375358,-0.00114373,1.4805,0.00295827,0.0135104,1721,1555,2.5421,-1.76645
504,-531,2.5542,1.71606,-0.000736864,0.00346973,0.000145795,0.00347477,-0.000741911,1.53619,0.00259935,0.0102468,1728,1555,2.55423,-1.71609
511,-531,2.55249,1.69543,-0.000933278,0.00329144,-0.000401815,0.00332932,-0.000971155,-1.47681,0.00260434,0.0139052,1735,1555,2.55246,-1.69538
518,-531,2.56409,1.68787,-0.000681226,0.0033124,-0.00095393,0.00352856,-0.000897385,-1.34796,0.00270165,0.0149164,1742,1555,2.56404,-1.68786
525,-531,2.58899,1.64966,-0.000582541,0.00280537,-0.00134455,0.00327412,-0.00105129,-1.23534,0.00260488,0.0128917,1749,1555,2.58901,-1.64962
532,-531,2.59814,1.59875,-0.000982143,0.00195427,-0.0016168,0.00267002,-0.00169789,-1.15403,0.00254255,0.00960797,1756,1555,2.59814,-1.59881
539,-531,2.58264,1.54785,-0.00146621,0.00197377,-0.0018452,0.0027763,-0.00226874,-1.16054,0.00291767,0.0114075,1763,1555,2.5826,-1.54779
546,-531,2.56689,1.50024,-0.00176626,0.00155479,-0.00213277,0.00259724,-0.00280871,-1.11617,0.00312192,0.015903,1770,1555,2.5669,-1.50019
553,-531,2.59692,1.4082,-0.00231518,0.00203662,-0.00239427,0.003096,-0.00337457,-1.15422,0.00373694,0.0308014,1777,1555,2.59691,-1.40822
560,-531,2.55615,1.37146,-0.00312901,0.00420251,-0.00295174,0.00524319,-0.00416969,-1.23184,0.0054463,0.0329081,1784,1555,2.55619,-1.37152
567,-531,2.53784,1.42664,-0.00334466,0.00649435,-0.00338736,0.00754777,-0.00439807,-1.26929,0.00697639,0.0182619,1791,1555,2.5378,-1.42662
574,-531,2.59558,1.39282,-0.000898808,0.00741771,-0.00305447,0.00841899,-0.0019001,-1.25402,0.00634163,0.0116443,1798,1555,2.59554,-1.39288
581,-531,2.59595,1.34363,0.000490917,0.00871157,-0.00187075,0.00911727,8.52155e-05,-1.35724,0.00604997,0.0104068,1805,1555,2.59596,-1.34367
588,-531,2.5918,1.28308,0.00178457,0.00952379,-0.000552324,0.00956301,0.00174535,-1.49991,0.00588054,0.0139652,1812,1555,2.59177,-1.2831
595,-531,2.60986,1.26111,0.00425088,0.00931104,0.00116427,0.00956607,0.00399585,1.35516,0.00554785,0.0292094,1819,1555,2.60987,-1.26117
602,-531,2.66418,1.23059,0.00747865,0.0089964,0.00352811,0.0118463,0.00462872,0.891331,0.0068937,0.043034,1826,1555,2.66419,-1.23063
609,-531,2.54285,0.966187,0.0119207,0.00713569,0.00726551,0.0171775,0.00187889,0.626343,0.0108796,0.0400821,1833,1555,2.54289,-0.966173
616,-531,2.91809,2.58972,0,0,0,0,0,0,0,-1,1840,1555,2.91809,-2.58975
623,-531,3.0459,2.83472,0,0,0,0,0,0,0,-1,1847,1555,3.04594,-2.83475
630,-531,3.11145,2.96985,0,0,0,0,0,0,0,-1,1854,1555,3.11151,-2.9698
637,-531,2.56506,3.09314,0,0,0,0,0,0,0,-1,1861,1555,2.56505,-3.09309
644,-531,0,0,0,0,0,0,0,0,0,-1,1868,1555,0,0
651,-531,0,0,0,0,0,0,0,0,0,-1,1875,1555,0,0
658,-531,0,0,0,0,0,0,0,0,0,-1,1882,1555,0,0
665,-531,0,0,0,0,0,0,0,0,0,-1,1889,1555,0,0
672,-531,0,0,0,0,0,0,0,0,0,-1,1896,1555,0,0
679,-531,0,0,0,0,0,0,0,0,0,-1,1903,1555,0,0
686,-531,0,0,0,0,0,0,0,0,0,-1,1910,1555,0,0
693,-531,0,0,0,0,0,0,0,0,0,-1,1917,1555,0,0
700,-531,0,0,0,0,0,0,0,0,0,-1,1924,1555,0,0
707,-531,0,0,0,0,0,0,0,0,0,-1,1931,1555,0,0
714,-531,0,0,0,0,0,0,0,0,0,-1,1938,1555,0,0
721,-531,0,0,0,0,0,0,0,0,0,-1,1945,1555,0,0
728,-531,0,0,0,0,0,0,0,0,0,-1,1952,1555,0,0
735,-531,0,0,0,0,0,0,0,0,0,-1,1959,1555,0,0
742,-531,0,0,0,0,0,0,0,0,0,-1,1966,1555,0,0
749,-531,0,0,0,0,0,0,0,0,0,-1,1973,1555,0,0
756,-531,0,0,0,0,0,0,0,0,0,-1,1980,1555,0,0
763,-531,0,0,0,0,0,0,0,0,0,-1,1987,1555,0,0
770,-531,0,0,0,0,0,0,0,0,0,-1,1994,1555,0,0
777,-531,0,0,0,0,0,0,0,0,0,-1,2001,1555,0,0
784,-531,0,0,0,0,0,0,0,0,0,-1,2008,1555,0,0
791,-531,0,0,0,0,0,0,0,0,0,-1,2015,1555,0,0
798,-531,0,0,0,0,0,0,0,0,0,-1,2022,1555,0,0
805,-531,0,0,0,0,0,0,0,0,0,-1,2029,1555,0,0
812,-531,0,0,0,0,0,0,0,0,0,-1,2036,1555,0,0
-700,-538,0,0,0,0,0,0,0,0,0,-1,524,1562,0,0
-693,-538,0,0,0,0,0,0,0,0,0,-1,531,1562,0,0
-686,-538,0,0,0,0,0,0,0,0,0,-1,538,1562,0,0
-679,-538,0,0,0,0,0,0,0,0,0,-1,545,1562,0,0
-672,-538,0,0,0,0,0,0,0,0,0,-1,552,1562,0,0
-665,-538,0,0,0,0,0,0,0,0,0,-1,559,1562,0,0
-658,-538,0,0,0,0,0,0,0,0,0,-1,566,1562,0,0
-651,-538,0,0,0,0,0,0,0,0,0,-1,573,1562,0,0
-644,-538,0,0,0,0,0,0,0,0,0,-1,580,1562,0,0
-637,-538,0,0,0,0,0,0,0,0,0,-1,587,1562,0,0
-630,-538,0,0,0,0,0,0,0,0,0,-1,594,1562,0,0
-623,-538,0,0,0,0,0,0,0,0,0,-1,601,1562,0,0
-616,-538,0,0,0,0,0,0,0,0,0,-1,608,1562,0,0
-609,-538,0,0,0,0,0,0,0,0,0,-1,615,1562,0,0
-602,-538,0,0,0,0,0,0,0,0,0,-1,622,1562,0,0
-595,-538,0,0,0,0,0,0,0,0,0,-1,629,1562,0,0
-588,-538,0,0,0,0,0,0,0,0,0,-1,636,1562,0,0
-581,-538,0,0,0,0,0,0,0,0,0,-1,643,1562,0,0
-574,-538,0,0,0,0,0,0,0,0,0,-1,650,1562,0,0
-567,-538,0,0,0,0,0,0,0,0,0,-1,657,1562,0,0
-560,-538,0,0,0,0,0,0,0,0,0,-1,664,1562,0,0
-553,-538,0,0,0,0,0,0,0,0,0,-1,671,1562,0,0
-546,-538,0,0,0,0,0,0,0,0,0,-1,678,1562,0,0
-539,-538,0,0,0,0,0,0,0,0,0,-1,685,1562,0,0
-532,-538,0,0,0,0,0,0,0,0,0,-1,692,1562,0,0
-525,-538,0,0,0,0,0,0,0,0,0,-1,699,1562,0,0
-518,-538,0,0,0,0,0,0,0,0,0,-1,706,1562,0,0
-511,-538,0.389648,2.44812,0.0944048,0.000148052,-0.0387149,0.108268,-0.0137148,-0.34385,0.0771574,0.0464365,713,1562,0.389644,-2.44811
-504,-538,0.330322,1.34802,0.0710063,0.000223383,-0.0390798,0.0883386,-0.0171088,-0.417442,0.0653462,0.0436041,720,1562,0.330339,-1.34806
-497,-538,0.172424,0.653442,0.0500271,2.80709e-05,-0.0370799,0.0697477,-0.0196926,-0.488796,0.0542671,0.0466619,727,1562,0.172437,-0.65342
-490,-538,3.5274,2.74011,0,0,0,0,0,0,0,-1,734,1562,3.52739,-2.74011
-483,-538,2.79315,1.19934,0,0,0,0,0,0,0,-1,741,1562,2.79318,-1.19934
-476,-538,2.23071,1.2511,0.00684177,-0.0017611,-0.0247603,0.0276715,-0.0225908,-0.699395,0.0290683,0.0444022,748,1562,2.23072,-1.25107
-469,-538,1.67572,1.33032,-0.000681398,-0.00215311,-0.0198444,0.0184408,-0.0212753,-0.766866,0.0229495,0.0441084,755,1562,1.67574,-1.33026
-462,-538,1.30414,1.3811,-0.0052538,-0.00254191,-0.0151554,0.0113181,-0.0191138,-0.830014,0.017761,0.0417039,762,1562,1.30415,-1.38112
-455,-538,1.31116,1.34216,-0.00749445,-0.00285596,-0.010909,0.00597759,-0.016328,-0.890138,0.0133323,0.035257,769,1562,1.31115,-1.34218
-448,-538,1.16779,1.3999,-0.0108069,-0.00330541,-0.00840548,0.0021482,-0.0162605,-0.995254,0.0116228,0.0141782,776,1562,1.16779,-1.39994
-441,-538,1.17169,1.42212,-0.00968423,-0.00269426,-0.00457886,-0.000428957,-0.0119495,-1.11137,0.00782729,0.0124919,783,1562,1.1717,-1.42208
-434,-538,1.16699,1.4718,-0.00686001,-0.0025913,-0.00305568,-0.000998363,-0.00845294,-1.09025,0.00533374,0.0112496,790,1562,1.16701,-1.47176
-427,-538,1.16199,1.52783,-0.00423176,-0.00201182,-0.00174227,-0.00105599,-0.00518759,-1.06902,0.00316566,0.0129876,797,1562,1.16198,-1.52785
-420,-538,1.16638,1.54163,-0.00171506,-0.00127752,-0.000900504,-0.000569589,-0.00242298,-0.90456,0.0014629,0.0165911,804,1562,1.16639,-1.54164
-413,-538,1.16058,1.56323,-0.000208101,-0.000936727,-0.000673036,0.000192897,-0.00133772,-0.537329,0.00096258,0.0164955,811,1562,1.1606,-1.56317
-406,-538,1.17615,1.57556,0.000586686,-0.000679851,-0.000692231,0.000891614,-0.000984779,-0.414926,0.00108378,0.013736,818,1562,1.17616,-1.57556
-399,-538,1.19562,1.63586,0.00112879,-0.0010084,-0.000742175,0.00136124,-0.00124085,-0.303523,0.00150286,0.0133366,825,1562,1.19565,-1.63591
-392,-538,1.20502,1.67236,0.00185894,-0.00134017,-0.00082405,0.00205873,-0.00153996,-0.237856,0.00208489,0.0141386,832,1562,1.20499,-1.67231
-385,-538,1.17535,1.70569,0.0041474,-0.00185962,-0.00115196,0.00436073,-0.00207295,-0.183118,0.00379196,0.0119917,839,1562,1.17533,-1.70565
-378,-538,1.17438,1.73096,0.00683167,-0.00221693,-0.00143394,0.00705347,-0.00243873,-0.153464,0.00569212,0.00966335,846,1562,1.17439,-1.7309
-371,-538,1.16101,1.76404,0.00974702,-0.00188124,-0.00239896,0.0102225,-0.00235671,-0.195664,0.00772139,0.00927708,853,1562,1.161,-1.76401
-364,-538,1.16644,1.80566,0.0134485,-0.00111623,-0.00349209,0.0142425,-0.00191021,-0.223567,0.0101916,0.00815762,860,1562,1.16643,-1.80566
-357,-538,1.15363,1.78943,0.0174346,-0.000543169,-0.00431472,0.0184165,-0.00152508,-0.223762,0.0128163,0.01459,867,1562,1.15365,-1.78942
-350,-538,1.16693,1.72961,0.0187872,0.00128105,-0.00540888,0.0203235,-0.000255299,-0.276754,0.0136349,0.031205,874,1562,1.16691,-1.72957
-343,-538,1.16925,1.76208,0.0194183,0.00499901,-0.0062154,0.0217276,0.00268971,-0.355738,0.0136769,0.0427139,881,1562,1.16923,-1.76207
-336,-538,1.13989,1.85986,0.0218584,0.00818296,-0.00698134,0.0247928,0.00524861,-0.397895,0.0150865,0.0424274,888,1562,1.13987,-1.8599
-329,-538,0.931824,2.15527,0.0234951,0.013018,-0.00717337,0.0271391,0.00937404,-0.470019,0.0159165,0.0423338,895,1562,0.931814,-2.15522
-322,-538,0.354004,2.75623,0.0226064,0.0188068,-0.00732729,0.0282761,0.013137,-0.658552,0.0163389,0.0427876,902,1562,0.353995,-2.75624
-315,-538,0.455261,3.08093,0,0,0,0,0,0,0,-1,909,1562,0.455243,-3.08088
-308,-538,3.38281,2.72375,0,0,0,0,0,0,0,-1,916,1562,3.38281,-2.72378
-301,-538,3.16974,2.79028,0.0147459,0.0371772,-0.00934726,0.0405616,0.0113615,-1.2234,0.0241614,0.0468904,923,1562,3.16974,-2.79027
-294,-538,0.597168,1.08862,0.011246,0.0419044,-0.010598,0.0452112,0.00793911,-1.26834,0.0278739,0.0456494,930,1562,0.597179,-1.08857
-287,-538,1.45673,1.56201,0,0,0,0,0,0,0,-1,937,1562,1.45675,-1.56207
-280,-538,1.22583,2.9884,0,0,0,0,0,0,0,-1,944,1562,1.22581,-2.98844
-273,-538,0.718445,3.92456,-0.0118742,0.0420639,-0.0119639,0.0445985,-0.0144088,-1.36203,0.035523,0.0470143,951,1562,0.718462,-3.92455
-266,-538,0.0777588,4.97571,0,0,0,0,0,0,0,-1,958,1562,0.0777329,-4.97575
-259,-538,-0.36322,5.87952,0,0,0,0,0,0,0,-1,965,1562,-0.363203,-5.87949
-252,-538,0,0,0,0,0,0,0,0,0,-1,972,1562,0,0
-245,-538,0,0,0,0,0,0,0,0,0,-1,979,1562,0,0
-238,-538,0,0,0,0,0,0,0,0,0,-1,986,1562,0,0
-231,-538,0,0,0,0,0,0,0,0,0,-1,993,1562,0,0
-224,-538,0,0,0,0,0,0,0,0,0,-1,1000,1562,0,0
-217,-538,0,0,0,0,0,0,0,0,0,-1,1007,1562,0,0
-210,-538,0,0,0,0,0,0,0,0,0,-1,1014,1562,0,0
-203,-538,0,0,0,0,0,0,0,0,0,-1,1021,1562,0,0
-196,-538,0,0,0,0,0,0,0,0,0,-1,1028,1562,0,0
-189,-538,0,0,0,0,0,0,0,0,0,-1,1035,1562,0,0
-182,-538,0,0,0,0,0,0,0,0,0,-1,1042,1562,0,0
-175,-538,0,0,0,0,0,0,0,0,0,-1,1049,1562,0,0
-168,-538,0,0,0,0,0,0,0,0,0,-1,1056,1562,0,0
-161,-538,0,0,0,0,0,0,0,0,0,-1,1063,1562,0,0
-154,-538,0,0,0,0,0,0,0,0,0,-1,1070,1562,0,0
-147,-538,0,0,0,0,0,0,0,0,0,-1,1077,1562,0,0
-140,-538,0,0,0,0,0,0,0,0,0,-1,1084,1562,0,0
-133,-538,0,0,0,0,0,0,0,0,0,-1,1091,1562,0,0
-126,-538,0,0,0,0,0,0,0,0,0,-1,1098,1562,0,0
-119,-538,0,0,0,0,0,0,0,0,0,-1,1105,1562,0,0
-112,-538,0,0,0,0,0,0,0,0,0,-1,1112,1562,0,0
-105,-538,0,0,0,0,0,0,0,0,0,-1,1119,1562,0,0
-98,-538,0,0,0,0,0,0,0,0,0,-1,1126,1562,0,0
-91,-538,0,0,0,0,0,0,0,0,0,-1,1133,1562,0,0
-84,-538,0,0,0,0,0,0,0,0,0,-1,1140,1562,0,0
-77,-538,0,0,0,0,0,0,0,0,0,-1,1147,1562,0,0
-70,-538,0,0,0,0,0,0,0,0,0,-1,1154,1562,0,0
-63,-538,0,0,0,0,0,0,0,0,0,-1,1161,1562,0,0
-56,-538,0,0,0,0,0,0,0,0,0,-1,1168,1562,0,0
-49,-538,0,0,0,0,0,0,0,0,0,-1,1175,1562,0,0
-42,-538,0,0,0,0,0,0,0,0,0,-1,1182,1562,0,0
-35,-538,0,0,0,0,0,0,0,0,0,-1,1189,1562,0,0
-28,-538,0,0,0,0,0,0,0,0,0,-1,1196,1562,0,0
-21,-538,0,0,0,0,0,0,0,0,0,-1,1203,1562,0,0
-14,-538,0,0,0,0,0,0,0,0,0,-1,1210,1562,0,0
-7,-538,0,0,0,0,0,0,0,0,0,-1,1217,1562,0,0
0,-538,0,0,0,0,0,0,0,0,0,-1,1224,1562,0,0
7,-538,0,0,0,0,0,0,0,0,0,-1,1231,1562,0,0
14,-538,0,0,0,0,0,0,0,0,0,-1,1238,1562,0,0
21,-538,0,0,0,0,0,0,0,0,0,-1,1245,1562,0,0
28,-538,0,0,0,0,0,0,0,0,0,-1,1252,1562,0,0
35,-538,0,0,0,0,0,0,0,0,0,-1,1259,1562,0,0
42,-538,0,0,0,0,0,0,0,0,0,-1,1266,1562,0,0
49,-538,0,0,0,0,0,0,0,0,0,-1,1273,1562,0,0
56,-538,0,0,0,0,0,0,0,0,0,-1,1280,1562,0,0
63,-538,0,0,0,0,0,0,0,0,0,-1,1287,1562,0,0
70,-538,0,0,0,0,0,0,0,0,0,-1,1294,1562,0,0
77,-538,0,0,0,0,0,0,0,0,0,-1,1301,1562,0,0
84,-538,0,0,0,0,0,0,0,0,0,-1,1308,1562,0,0
91,-538,0,0,0,0,0,0,0,0,0,-1,1315,1562,0,0
98,-538,0,0,0,0,0,0,0,0,0,-1,1322,1562,0,0
105,-538,0,0,0,0,0,0,0,0,0,-1,1329,1562,0,0
112,-538,0,0,0,0,0,0,0,0,0,-1,1336,1562,0,0
119,-538,0,0,0,0,0,0,0,0,0,-1,1343,1562,0,0
126,-538,0,0,0,0,0,0,0,0,0,-1,1350,1562,0,0
133,-538,0,0,0,0,0,0,0,0,0,-1,1357,1562,0,0
140,-538,0,0,0,0,0,0,0,0,0,-1,1364,1562,0,0
147,-538,0,0,0,0,0,0,0,0,0,-1,1371,1562,0,0
154,-538,0,0,0,0,0,0,0,0,0,-1,1378,1562,0,0
161,-538,0,0,0,0,0,0,0,0,0,-1,1385,1562,0,0
168,-538,0,0,0,0,0,0,0,0,0,-1,1392,1562,0,0
175,-538,0,0,0,0,0,0,0,0,0,-1,1399,1562,0,0
182,-538,0,0,0,0,0,0,0,0,0,-1,1406,1562,0,0
189,-538,0,0,0,0,0,0,0,0,0,-1,1413,1562,0,0
196,-538,0,0,0,0,0,0,0,0,0,-1,1420,1562,0,0
203,-538,0,0,0,0,0,0,0,0,0,-1,1427,1562,0,0
210,-538,0,0,0,0,0,0,0,0,0,-1,1434,1562,0,0
217,-538,0,0,0,0,0,0,0,0,0,-1,1441,1562,0,0
224,-538,0,0,0,0,0,0,0,0,0,-1,1448,1562,0,0
231,-538,0,0,0,0,0,0,0,0,0,-1,1455,1562,0,0
238,-538,0,0,0,0,0,0,0,0,0,-1,1462,1562,0,0
245,-538,0,0,0,0,0,0,0,0,0,-1,1469,1562,0,0
252,-538,0,0,0,0,0,0,0,0,0,-1,1476,1562,0,0
259,-538,0,0,0,0,0,0,0,0,0,-1,1483,1562,0,0
266,-538,0,0,0,0,0,0,0,0,0,-1,1490,1562,0,0
273,-538,0,0,0,0,0,0,0,0,0,-1,1497,1562,0,0
280,-538,0,0,0,0,0,0,0,0,0,-1,1504,1562,0,0
287,-538,0,0,0,0,0,0,0,0,0,-1,1511,1562,0,0
294,-538,0,0,0,0,0,0,0,0,0,-1,1518,1562,0,0
301,-538,0,0,0,0,0,0,0,0,0,-1,1525,1562,0,0
308,-538,0,0,0,0,0,0,0,0,0,-1,1532,1562,0,0
315,-538,0,0,0,0,0,0,0,0,0,-1,1539,1562,0,0
322,-538,0,0,0,0,0,0,0,0,0,-1,1546,1562,0,0
329,-538,0,0,0,0,0,0,0,0,0,-1,1553,1562,0,0
336,-538,0,0,0,0,0,0,0,0,0,-1,1560,1562,0,0
343,-538,0,0,0,0,0,0,0,0,0,-1,1567,1562,0,0
350,-538,0,0,0,0,0,0,0,0,0,-1,1574,1562,0,0
357,-538,0,0,0,0,0,0,0,0,0,-1,1581,1562,0,0
364,-538,0,0,0,0,0,0,0,0,0,-1,1588,1562,0,0
371,-538,0,0,0,0,0,0,0,0,0,-1,1595,1562,0,0
378,-538,3.08215,0.427856,0,0,0,0,0,0,0,-1,1602,1562,3.08212,-0.427822
385,-538,1.64185,0.452148,0,0,0,0,0,0,0,-1,1609,1562,1.64187,-0.452208
392,-538,0.402588,0.255859,0,0,0,0,0,0,0,-1,1616,1562,0.402627,-0.255913
399,-538,-0.842407,0.154175,0,0,0,0,0,0,0,-1,1623,1562,-0.842388,-0.154209
406,-538,3.88245,0.340698,0,0,0,0,0,0,0,-1,1630,1562,3.88248,-0.340708
413,-538,0.886719,4.09058,0,0,0,0,0,0,0,-1,1637,1562,0.88668,-4.09059
420,-538,1.03943,3.39478,-0.0371632,0.0431615,-0.0196717,0.0477204,-0.0417221,-1.34307,0.0516784,0.0484035,1644,1562,1.03945,-3.3948
427,-538,1.29614,2.71045,-0.0320577,0.0339301,-0.0231096,0.0412183,-0.0393459,-1.26529,0.046518,0.0448921,1651,1562,1.29618,-2.71041
434,-538,1.84302,1.9165,0,0,0,0,0,0,0,-1,1658,1562,1.84296,-1.91654
441,-538,2.43933,0.925537,0,0,0,0,0,0,0,-1,1665,1562,2.43938,-0.925559
448,-538,2.4303,1.17517,0,0,0,0,0,0,0,-1,1672,1562,2.43035,-1.17523
455,-538,2.30957,1.40674,0,0,0,0,0,0,0,-1,1679,1562,2.30958,-1.40678
462,-538,2.47571,1.37659,-0.00881165,0.00718905,-0.00913324,0.0113304,-0.012953,-1.14508,0.0140305,0.0435502,1686,1562,2.47572,-1.37664
469,-538,2.54358,1.86328,-0.00605332,0.0054467,-0.00590725,0.00794037,-0.00854699,-1.17135,0.00952113,0.0458989,1693,1562,2.54361,-1.86326
476,-538,2.46045,1.65088,-0.00420582,0.00500322,-0.00296251,0.00587393,-0.00507652,-1.28494,0.00632783,0.0390777,1700,1562,2.46046,-1.65086
483,-538,2.51001,1.79285,-0.00287273,0.0041608,-0.000717873,0.00423332,-0.00294526,-1.47012,0.00416673,0.025158,1707,1562,2.51001,-1.79286
490,-538,2.547,1.78125,-0.00171397,0.00309734,-3.49165e-05,0.00309759,-0.00171423,-1.56354,0.00281611,0.012782,1714,1562,2.54696,-1.78123
497,-538,2.54138,1.75452,-0.000926828,0.00232853,0.000444247,0.00238807,-0.000986364,1.43757,0.00200347,0.00887886,1721,1562,2.54139,-1.75447
504,-538,2.53442,1.71082,-0.000673598,0.00235754,0.000236461,0.00237587,-0.000691934,1.49341,0.00185801,0.0082085,1728,1562,2.5344,-1.71083
511,-538,2.53662,1.67883,-0.000876265,0.00240718,-0.000238797,0.00242446,-0.000893541,-1.49858,0.00198245,0.00993195,1735,1562,2.53661,-1.67883
518,-538,2.52942,1.65637,-0.000644057,0.00261876,-0.000761636,0.00278779,-0.000813088,-1.3524,0.00218068,0.0105597,1742,1562,2.52938,-1.65639
525,-538,2.52905,1.62402,-0.000564836,0.00243562,-0.0011619,0.00283294,-0.000962156,-1.2413,0.00227811,0.01075,1749,1562,2.52907,-1.62404
532,-538,2.55627,1.57959,-0.00122678,0.00199176,-0.00164057,0.00268059,-0.0019156,-1.17328,0.00266583,0.0115473,1756,1562,2.55622,-1.57956
539,-538,2.55237,1.55298,-0.00208918,0.002339,-0.0021779,0.00323062,-0.0029808,-1.18222,0.00358713,0.0140382,1763,1562,2.55234,-1.55301
546,-538,2.5354,1.50806,-0.00283147,0.00237433,-0.00276185,0.00356655,-0.00402369,-1.16329,0.00438488,0.0166663,1770,1562,2.53546,-1.50801
553,-538,2.55847,1.41602,-0.0039749,0.00333019,-0.0034341,0.00469104,-0.00533575,-1.1935,0.00579296,0.0278506,1777,1562,2.55853,-1.41598
560,-538,2.53064,1.41138,-0.00550116,0.00603951,-0.00452544,0.00760241,-0.00706406,-1.23826,0.00846959,0.028701,1784,1562,2.53068,-1.41138
567,-538,2.50781,1.44055,-0.00628833,0.00907082,-0.00533176,0.0107402,-0.00795774,-1.26736,0.010835,0.0199023,1791,1562,2.50777,-1.4406
574,-538,2.55603,1.3811,-0.0041273,0.0106054,-0.00513493,0.0122185,-0.00574041,-1.26641,0.010591,0.0112566,1798,1562,2.556,-1.38109
581,-538,2.54297,1.32813,-0.00304505,0.0127088,-0.00419649,0.013757,-0.00409317,-1.32604,0.0107975,0.0125339,1805,1562,2.543,-1.32815
588,-538,2.54443,1.26367,-0.00172551,0.0143339,-0.00301855,0.0148825,-0.00227414,-1.39101,0.0107601,0.0299496,1812,1562,2.54439,-1.26369
595,-538,2.66931,1.03589,0.00117741,0.014899,-0.00114214,0.0149934,0.00108299,-1.48832,0.00965489,0.046547,1819,1562,2.66925,-1.03584
602,-538,2.59045,0.740356,0.00540838,0.0151626,0.00166488,0.0154389,0.00513204,1.40632,0.00907904,0.0459102,1826,1562,2.59042,-0.740383
609,-538,2.25244,0.283081,0.0114662,0.0136701,0.00614651,0.0188126,0.00632362,0.874095,0.0110542,0.0390317,1833,1562,2.25247,-0.283051
616,-538,3.53308,3.73132,0,0,0,0,0,0,0,-1,1840,1562,3.53305,-3.73131
623,-538,3.40503,3.40564,0.0265698,0.00365024,0.018884,0.0371991,-0.00697914,0.512677,0.0274235,0.0419929,1847,1562,3.40502,-3.40561
630,-538,3.0603,3.00024,0,0,0,0,0,0,0,-1,1854,1562,3.06035,-3.00021
637,-538,0,0,0,0,0,0,0,0,0,-1,1861,1562,0,0
644,-538,0,0,0,0,0,0,0,0,0,-1,1868,1562,0,0
651,-538,0,0,0,0,0,0,0,0,0,-1,1875,1562,0,0
658,-538,0,0,0,0,0,0,0,0,0,-1,1882,1562,0,0
665,-538,0,0,0,0,0,0,0,0,0,-1,1889,1562,0,0
672,-538,0,0,0,0,0,0,0,0,0,-1,1896,1562,0,0
679,-538,0,0,0,0,0,0,0,0,0,-1,1903,1562,0,0
686,-538,0,0,0,0,0,0,0,0,0,-1,1910,1562,0,0
693,-538,0,0,0,0,0,0,0,0,0,-1,1917,1562,0,0
700,-538,0,0,0,0,0,0,0,0,0,-1,1924,1562,0,0
707,-538,0,0,0,0,0,0,0,0,0,-1,1931,1562,0,0
714,-538,0,0,0,0,0,0,0,0,0,-1,1938,1562,0,0
721,-538,0,0,0,0,0,0,0,0,0,-1,1945,1562,0,0
728,-538,0,0,0,0,0,0,0,0,0,-1,1952,1562,0,0
735,-538,0,0,0,0,0,0,0,0,0,-1,1959,1562,0,0
742,-538,0,0,0,0,0,0,0,0,0,-1,1966,1562,0,0
749,-538,0,0,0,0,0,0,0,0,0,-1,1973,1562,0,0
756,-538,0,0,0,0,0,0,0,0,0,-1,1980,1562,0,0
763,-538,0,0,0,0,0,0,0,0,0,-1,1987,1562,0,0
770,-538,0,0,0,0,0,0,0,0,0,-1,1994,1562,0,0
777,-538,0,0,0,0,0,0,0,0,0,-1,2001,1562,0,0
784,-538,0,0,0,0,0,0,0,0,0,-1,2008,1562,0,0
791,-538,0,0,0,0,0,0,0,0,0,-1,2015,1562,0,0
798,-538,0,0,0,0,0,0,0,0,0,-1,2022,1562,0,0
805,-538,0,0,0,0,0,0,0,0,0,-1,2029,1562,0,0
812,-538,0,0,0,0,0,0,0,0,0,-1,2036,1562,0,0
-700,-545,0,0,0,0,0,0,0,0,0,-1,524,1569,0,0
-693,-545,0,0,0,0,0,0,0,0,0,-1,531,1569,0,0
-686,-545,0,0,0,0,0,0,0,0,0,-1,538,1569,0,0
-679,-545,0,0,0,0,0,0,0,0,0,-1,545,1569,0,0
-672,-545,0,0,0,0,0,0,0,0,0,-1,552,1569,0,0
-665,-545,0,0,0,0,0,0,0,0,0,-1,559,1569,0,0
-658,-545,0,0,0,0,0,0,0,0,0,-1,566,1569,0,0
-651,-545,0,0,0,0,0,0,0,0,0,-1,573,1569,0,0
-644,-545,0,0,0,0,0,0,0,0,0,-1,580,1569,0,0
-637,-545,0,0,0,0,0,0,0,0,0,-1,587,1569,0,0
-630,-545,0,0,0,0,0,0,0,0,0,-1,594,1569,0,0
-623,-545,0,0,0,0,0,0,0,0,0,-1,601,1569,0,0
-616,-545,0,0,0,0,0,0,0,0,0,-1,608,1569,0,0
-609,-545,0,0,0,0,0,0,0,0,0,-1,615,1569,0,0
-602,-545,0,0,0,0,0,0,0,0,0,-1,622,1569,0,0
-595,-545,0,0,0,0,0,0,0,0,0,-1,629,1569,0,0
-588,-545,0,0,0,0,0,0,0,0,0,-1,636,1569,0,0
-581,-545,0,0,0,0,0,0,0,0,0,-1,643,1569,0,0
-574,-545,0,0,0,0,0,0,0,0,0,-1,650,1569,0,0
-567,-545,0,0,0,0,0,0,0,0,0,-1,657,1569,0,0
-560,-545,0,0,0,0,0,0,0,0,0,-1,664,1569,0,0
-553,-545,0,0,0,0,0,0,0,0,0,-1,671,1569,0,0
-546,-545,0,0,0,0,0,0,0,0,0,-1,678,1569,0,0
-539,-545,0,0,0,0,0,0,0,0,0,-1,685,1569,0,0
-532,-545,0,0,0,0,0,0,0,0,0,-1,692,1569,0,0
-525,-545,0,0,0,0,0,0,0,0,0,-1,699,1569,0,0
-518,-545,0,0,0,0,0,0,0,0,0,-1,706,1569,0,0
-511,-545,0,0,0,0,0,0,0,0,0,-1,713,1569,0,0
-504,-545,-0.153564,0.886841,0.086862,0.00125253,-0.0424037,0.104309,-0.0161949,-0.390346,0.0755189,0.0451388,720,1569,-0.153562,-0.886874
-497,-545,4.43207,2.67395,0.0582333,0.000322232,-0.0404871,0.0790535,-0.020498,-0.474977,0.0606999,0.0477073,727,1569,4.43207,-2.67394
-490,-545,3.82721,2.36877,0,0,0,0,0,0,0,-1,734,1569,3.82722,-2.36878
-483,-545,3.15869,1.93665,0.016423,-0.00235764,-0.031949,0.0403331,-0.0262678,-0.642465,0.0387368,0.0437948,741,1569,3.15872,-1.93662
-476,-545,2.5863,1.37317,0.00370306,-0.00311848,-0.0268481,0.0273562,-0.0267716,-0.722217,0.0312513,0.0438946,748,1569,2.58631,-1.37322
-469,-545,1.66888,1.26758,0,0,0,0,0,0,0,-1,755,1569,1.66886,-1.26756
-462,-545,1.37622,1.39087,-0.00901093,-0.00367367,-0.0163429,0.0102171,-0.0229017,-0.866329,0.019583,0.0406956,762,1569,1.37623,-1.39085
-455,-545,1.18793,1.42175,-0.0106477,-0.0035967,-0.0118142,0.00520676,-0.0194512,-0.930399,0.0150072,0.0387529,769,1569,1.18793,-1.42179
-448,-545,1.31134,1.34473,-0.013673,-0.00377768,-0.00915081,0.00167738,-0.0191281,-1.03323,0.0133464,0.0266311,776,1569,1.31132,-1.34477
-441,-545,1.20703,1.42896,-0.0118495,-0.0028062,-0.00490212,-0.000658807,-0.0139969,-1.15792,0.0091196,0.0165395,783,1569,1.20706,-1.42891
-434,-545,1.20258,1.46716,-0.00827031,-0.00231188,-0.00319882,-0.000919808,-0.00966239,-1.16033,0.00615793,0.0129565,790,1569,1.20259,-1.46718
-427,-545,1.20343,1.52063,-0.00507997,-0.00149476,-0.00171603,-0.000805793,-0.00576894,-1.18901,0.00360748,0.0170268,797,1569,1.20342,-1.5206
-420,-545,1.21979,1.52466,-0.002104,-0.000541131,-0.000682023,-0.00028536,-0.00235977,-1.21201,0.00148721,0.0231302,804,1569,1.2198,-1.5247
-413,-545,1.22162,1.54749,-0.000420895,-0.000171539,-0.000406506,0.00012898,-0.000721413,-0.934197,0.000529201,0.021738,811,1569,1.22161,-1.54745
-406,-545,1.22424,1.57617,0.000345439,0.000100306,-0.000389418,0.000631124,-0.000185378,-0.632935,0.000494269,0.0163782,818,1569,1.22422,-1.57617
-399,-545,1.2298,1.63989,0.000675517,-0.000122311,-0.000429977,0.000863129,-0.000309923,-0.411428,0.000701917,0.011153,825,1569,1.22982,-1.6399
-392,-545,1.2171,1.69153,0.0010897,-0.00039443,-0.000571548,0.00128429,-0.000589023,-0.328156,0.00110611,0.010973,832,1569,1.21709,-1.69147
-385,-545,1.22955,1.71753,0.00278806,-0.00081794,-0.000891368,0.00299636,-0.00102624,-0.229571,0.00241351,0.009308,839,1569,1.22956,-1.71755
-378,-545,1.21545,1.73755,0.00472347,-0.00113421,-0.00109836,0.00492265,-0.00133339,-0.179392,0.00380492,0.011426,846,1569,1.21544,-1.73758
-371,-545,1.18494,1.77319,0.00674868,-0.000895696,-0.00180544,0.00715364,-0.00130065,-0.220645,0.00525656,0.0144462,853,1569,1.18492,-1.77322
-364,-545,1.20435,1.81128,0.00943459,-0.000439957,-0.00261261,0.0100832,-0.0010886,-0.243352,0.00711284,0.00903643,860,1569,1.20433,-1.81124
-357,-545,1.20923,1.82813,0.0122678,1.81599e-05,-0.00312405,0.0130186,-0.000732562,-0.235832,0.00893325,0.00980372,867,1569,1.20921,-1.82809
-350,-545,1.20319,1.84241,0.0126547,0.0015447,-0.0038458,0.013856,0.000343357,-0.302775,0.00912505,0.014814,874,1569,1.20319,-1.84237
-343,-545,1.19482,1.86011,0.0126104,0.00459561,-0.00439339,0.0145495,0.00265648,-0.415657,0.00894663,0.0228899,881,1569,1.1948,-1.86005
-336,-545,1.2066,1.90552,0.0144072,0.00705037,-0.004768,0.0167508,0.00470679,-0.456843,0.00997555,0.0302546,888,1569,1.20659,-1.90556
-329,-545,1.1308,2.0271,0.0157042,0.0110017,-0.00450254,0.0184325,0.00827345,-0.54477,0.0106605,0.0388013,895,1569,1.13081,-2.02711
-322,-545,0.822327,2.18323,0.014976,0.0156878,-0.00435181,0.0196982,0.0109655,-0.826199,0.0113971,0.0442413,902,1569,0.822346,-2.18324
-315,-545,0.884888,2.43384,0,0,0,0,0,0,0,-1,909,1569,0.884882,-2.43378
-308,-545,0.943481,2.63074,0,0,0,0,0,0,0,-1,916,1569,0.94351,-2.63079
-301,-545,2.32037,2.46338,0.00985501,0.0300649,-0.0060365,0.0317307,0.00818927,-1.30155,0.019021,0.0456536,923,1569,2.32036,-2.46338
-294,-545,0.547668,1.29993,0.00753165,0.0335016,-0.00717089,0.0353501,0.00568318,-1.31851,0.0219193,0.0456116,930,1569,0.547676,-1.29996
-287,-545,1.44904,1.72229,0.00427966,0.0344663,-0.00822585,0.0365623,0.00218365,-1.3213,0.0236806,0.048663,937,1569,1.44903,-1.72223
-280,-545,2.33069,2.15088,0,0,0,0,0,0,0,-1,944,1569,2.33069,-2.15087
-273,-545,1.85248,3.61133,0,0,0,0,0,0,0,-1,951,1569,1.85247,-3.61127
-266,-545,2.58807,4.19885,0,0,0,0,0,0,0,-1,958,1569,2.58807,-4.19884
-259,-545,-0.108826,1.53101,-0.0184803,0.0181388,-0.00883434,0.0201587,-0.0205001,-1.34602,0.0234747,0.0431223,965,1569,-0.108825,-1.53099
-252,-545,-0.0806274,1.20276,-0.0207536,0.00950421,-0.00984753,0.0124268,-0.0236762,-1.28229,0.0211787,0.0438905,972,1569,-0.0806333,-1.20271
-245,-545,0.272766,1.23193,0,0,0,0,0,0,0,-1,979,1569,0.272748,-1.23193
-238,-545,0,0,0,0,0,0,0,0,0,-1,986,1569,0,0
-231,-545,0,0,0,0,0,0,0,0,0,-1,993,1569,0,0
-224,-545,0,0,0,0,0,0,0,0,0,-1,1000,1569,0,0
-217,-545,0,0,0,0,0,0,0,0,0,-1,1007,1569,0,0
-210,-545,0,0,0,0,0,0,0,0,0,-1,1014,1569,0,0
-203,-545,0,0,0,0,0,0,0,0,0,-1,1021,1569,0,0
-196,-545,0,0,0,0,0,0,0,0,0,-1,1028,1569,0,0
-189,-545,0,0,0,0,0,0,0,0,0,-1,1035,1569,0,0
-182,-545,0,0,0,0,0,0,0,0,0,-1,1042,1569,0,0
-175,-545,0,0,0,0,0,0,0,0,0,-1,1049,1569,0,0
-168,-545,0,0,0,0,0,0,0,0,0,-1,1056,1569,0,0
-161,-545,0,0,0,0,0,0,0,0,0,-1,1063,1569,0,0
-154,-545,0,0,0,0,0,0,0,0,0,-1,1070,1569,0,0
-147,-545,0,0,0,0,0,0,0,0,0,-1,1077,1569,0,0
-140,-545,0,0,0,0,0,0,0,0,0,-1,1084,1569,0,0
-133,-545,0,0,0,0,0,0,0,0,0,-1,1091,1569,0,0
-126,-545,0,0,0,0,0,0,0,0,0,-1,1098,1569,0,0
-119,-545,0,0,0,0,0,0,0,0,0,-1,1105,1569,0,0
-112,-545,0,0,0,0,0,0,0,0,0,-1,1112,1569,0,0
-105,-545,0,0,0,0,0,0,0,0,0,-1,1119,1569,0,0
-98,-545,0,0,0,0,0,0,0,0,0,-1,1126,1569,0,0
-91,-545,0,0,0,0,0,0,0,0,0,-1,1133,1569,0,0
-84,-545,0,0,0,0,0,0,0,0,0,-1,1140,1569,0,0
-77,-545,0,0,0,0,0,0,0,0,0,-1,1147,1569,0,0
-70,-545,0,0,0,0,0,0,0,0,0,-1,1154,1569,0,0
-63,-545,0,0,0,0,0,0,0,0,0,-1,1161,1569,0,0
-56,-545,0,0,0,0,0,0,0,0,0,-1,1168,1569,0,0
-49,-545,0,0,0,0,0,0,0,0,0,-1,1175,1569,0,0
-42,-545,0,0,0,0,0,0,0,0,0,-1,1182,1569,0,0
-35,-545,0,0,0,0,0,0,0,0,0,-1,1189,1569,0,0
-28,-545,0,0,0,0,0,0,0,0,0,-1,1196,1569,0,0
-21,-545,0,0,0,0,0,0,0,0,0,-1,1203,1569,0,0
-14,-545,0,0,0,0,0,0,0,0,0,-1,1210,1569,0,0
-7,-545,0,0,0,0,0,0,0,0,0,-1,1217,1569,0,0
0,-545,0,0,0,0,0,0,0,0,0,-1,1224,1569,0,0
7,-545,0,0,0,0,0,0,0,0,0,-1,1231,1569,0,0
14,-545,0,0,0,0,0,0,0,0,0,-1,1238,1569,0,0
21,-545,0,0,0,0,0,0,0,0,0,-1,1245,1569,0,0
28,-545,0,0,0,0,0,0,0,0,0,-1,1252,1569,0,0
35,-545,0,0,0,0,0,0,0,0,0,-1,1259,1569,0,0
42,-545,0,0,0,0,0,0,0,0,0,-1,1266,1569,0,0
49,-545,0,0,0,0,0,0,0,0,0,-1,1273,1569,0,0
56,-545,0,0,0,0,0,0,0,0,0,-1,1280,1569,0,0
63,-545,0,0,0,0,0,0,0,0,0,-1,1287,1569,0,0
70,-545,0,0,0,0,0,0,0,0,0,-1,1294,1569,0,0
77,-545,0,0,0,0,0,0,0,0,0,-1,1301,1569,0,0
84,-545,0,0,0,0,0,0,0,0,0,-1,1308,1569,0,0
91,-545,0,0,0,0,0,0,0,0,0,-1,1315,1569,0,0
98,-545,0,0,0,0,0,0,0,0,0,-1,1322,1569,0,0
105,-545,0,0,0,0,0,0,0,0,0,-1,1329,1569,0,0
112,-545,0,0,0,0,0,0,0,0,0,-1,1336,1569,0,0
119,-545,0,0,0,0,0,0,0,0,0,-1,1343,1569,0,0
126,-545,0,0,0,0,0,0,0,0,0,-1,1350,1569,0,0
133,-545,0,0,0,0,0,0,0,0,0,-1,1357,1569,0,0
140,-545,0,0,0,0,0,0,0,0,0,-1,1364,1569,0,0
147,-545,0,0,0,0,0,0,0,0,0,-1,1371,1569,0,0
154,-545,0,0,0,0,0,0,0,0,0,-1,1378,1569,0,0
161,-545,0,0,0,0,0,0,0,0,0,-1,1385,1569,0,0
168,-545,0,0,0,0,0,0,0,0,0,-1,1392,1569,0,0
175,-545,0,0,0,0,0,0,0,0,0,-1,1399,1569,0,0
182,-545,0,0,0,0,0,0,0,0,0,-1,1406,1569,0,0
189,-545,0,0,0,0,0,0,0,0,0,-1,1413,1569,0,0
196,-545,0,0,0,0,0,0,0,0,0,-1,1420,1569,0,0
203,-545,0,0,0,0,0,0,0,0,0,-1,1427,1569,0,0
210,-545,0,0,0,0,0,0,0,0,0,-1,1434,1569,0,0
217,-545,0,0,0,0,0,0,0,0,0,-1,1441,1569,0,0
224,-545,0,0,0,0,0,0,0,0,0,-1,1448,1569,0,0
231,-545,0,0,0,0,0,0,0,0,0,-1,1455,1569,0,0
238,-545,0,0,0,0,0,0,0,0,0,-1,1462,1569,0,0
245,-545,0,0,0,0,0,0,0,0,0,-1,1469,1569,0,0
252,-545,0,0,0,0,0,0,0,0,0,-1,1476,1569,0,0
259,-545,0,0,0,0,0,0,0,0,0,-1,1483,1569,0,0
266,-545,0,0,0,0,0,0,0,0,0,-1,1490,1569,0,0
273,-545,0,0,0,0,0,0,0,0,0,-1,1497,1569,0,0
280,-545,0,0,0,0,0,0,0,0,0,-1,1504,1569,0,0
287,-545,0,0,0,0,0,0,0,0,0,-1,1511,1569,0,0
294,-545,0,0,0,0,0,0,0,0,0,-1,1518,1569,0,0
301,-545,0,0,0,0,0,0,0,0,0,-1,1525,1569,0,0
308,-545,0,0,0,0,0,0,0,0,0,-1,1532,1569,0,0
315,-545,0,0,0,0,0,0,0,0,0,-1,1539,1569,0,0
322,-545,0,0,0,0,0,0,0,0,0,-1,1546,1569,0,0
329,-545,0,0,0,0,0,0,0,0,0,-1,1553,1569,0,0
336,-545,0,0,0,0,0,0,0,0,0,-1,1560,1569,0,0
343,-545,0,0,0,0,0,0,0,0,0,-1,1567,1569,0,0
350,-545,0,0,0,0,0,0,0,0,0,-1,1574,1569,0,0
357,-545,0,0,0,0,0,0,0,0,0,-1,1581,1569,0,0
364,-545,4.40479,3.50049,-0.0381901,0.119908,0.0254477,0.123903,-0.0421853,1.41507,0.0996848,0.0459213,1588,1569,4.40484,-3.50053
371,-545,4.70776,4.02454,-0.0405594,0.106702,0.0190607,0.109129,-0.0429866,1.44414,0.0905489,0.0494043,1595,1569,4.70782,-4.0245
378,-545,4.79309,4.54785,0,0,0,0,0,0,0,-1,1602,1569,4.79308,-4.5479
385,-545,3.83228,4.2688,0,0,0,0,0,0,0,-1,1609,1569,3.83232,-4.2688
392,-545,3.4502,4.45715,0,0,0,0,0,0,0,-1,1616,1569,3.45017,-4.45719
399,-545,3.69678,0.159668,0,0,0,0,0,0,0,-1,1623,1569,3.69676,-0.159647
406,-545,2.67944,5.33191,0,0,0,0,0,0,0,-1,1630,1569,2.67946,-5.33189
413,-545,2.53967,4.79773,-0.0333349,0.0490039,-0.0130355,0.0510184,-0.0353494,-1.41748,0.0501372,0.0483472,1637,1569,2.53973,-4.79769
420,-545,1.45032,4.35425,-0.0295907,0.0390872,-0.0169919,0.0430613,-0.0335648,-1.34105,0.0443532,0.0462193,1644,1569,1.45029,-4.35427
427,-545,1.73022,3.19958,-0.0249879,0.0302873,-0.0201542,0.0368553,-0.0315559,-1.25576,0.0395367,0.0474481,1651,1569,1.73027,-3.19954
434,-545,2.14868,3.26746,0,0,0,0,0,0,0,-1,1658,1569,2.14871,-3.26746
441,-545,2.0387,3.15601,0,0,0,0,0,0,0,-1,1665,1569,2.03873,-3.15606
448,-545,2.61829,2.1521,0,0,0,0,0,0,0,-1,1672,1569,2.61825,-2.15207
455,-545,2.49866,1.98914,-0.00805381,0.0100049,-0.0115081,0.0156031,-0.013652,-1.11804,0.0169029,0.0406667,1679,1569,2.49861,-1.98918
462,-545,2.52625,1.93262,-0.00577722,0.00582851,-0.00841377,0.0102465,-0.0101952,-1.08728,0.011802,0.039259,1686,1569,2.52624,-1.93267
469,-545,2.49561,1.8678,-0.00364197,0.00425812,-0.00545903,0.00704632,-0.00643016,-1.09859,0.00778336,0.0391059,1693,1569,2.4956,-1.86784
476,-545,2.479,1.83057,-0.00234719,0.00386527,-0.00266553,0.00485217,-0.00333408,-1.2162,0.00475335,0.0272581,1700,1569,2.47901,-1.83053
483,-545,2.52319,1.79773,-0.0014761,0.00314974,-0.000456485,0.00319436,-0.00152071,-1.47337,0.00277883,0.0123901,1707,1569,2.52314,-1.79773
490,-545,2.53516,1.78125,-0.000632733,0.00235979,0.000200687,0.00237318,-0.000646132,1.50413,0.0018358,0.0109554,1714,1569,2.53513,-1.7812
497,-545,2.52698,1.76343,-7.38002e-05,0.00176571,0.000638082,0.00196537,-0.000273464,1.26754,0.00141027,0.0150758,1721,1569,2.52697,-1.76337
504,-545,2.52014,1.72717,4.47054e-05,0.00189297,0.000454292,0.00199859,-6.09204e-05,1.34235,0.00135316,0.0147711,1728,1569,2.5201,-1.72713
511,-545,2.51196,1.67847,-0.000216256,0.00199184,-6.99446e-05,0.00199405,-0.000218469,-1.53916,0.00140785,0.0115073,1735,1569,2.51191,-1.67849
518,-545,2.50623,1.66016,9.64522e-06,0.0022726,-0.000777163,0.00251379,-0.000231548,-1.26987,0.00175813,0.0124768,1742,1569,2.50625,-1.66014
525,-545,2.50427,1.62793,0.000159866,0.00229401,-0.00143297,0.00301357,-0.000559694,-1.10543,0.00221926,0.0121349,1749,1569,2.50432,-1.62799
532,-545,2.53748,1.57495,-0.000647442,0.00216935,-0.0023313,0.00348466,-0.00196275,-1.05712,0.00318571,0.0128151,1756,1569,2.53743,-1.57496
539,-545,2.51013,1.54346,-0.00176211,0.00283265,-0.00343826,0.00467043,-0.00359989,-1.07992,0.00478819,0.0151998,1763,1569,2.51017,-1.54344
546,-545,2.47839,1.51245,-0.0027867,0.00328049,-0.0046453,0.005795,-0.00530121,-1.07466,0.00640851,0.0168749,1770,1569,2.47838,-1.51244
553,-545,2.52014,1.43823,-0.00432899,0.00468258,-0.00607205,0.00773801,-0.00738442,-1.1046,0.00873173,0.0247635,1777,1569,2.52018,-1.43826
560,-545,2.51733,1.40002,-0.00636325,0.00788565,-0.00799432,0.0114695,-0.00994706,-1.14936,0.0123752,0.0251575,1784,1569,2.51738,-1.40006
567,-545,2.47437,1.40906,-0.00757577,0.0116248,-0.00950136,0.0155316,-0.0114826,-1.18069,0.0156549,0.0236955,1791,1569,2.47439,-1.409
574,-545,2.48901,1.38477,-0.00567657,0.013845,-0.00971359,0.0178547,-0.00968629,-1.17931,0.0161322,0.0218468,1798,1569,2.48898,-1.3848
581,-545,2.50635,1.38721,-0.00487974,0.0168551,-0.00926579,0.020269,-0.00829362,-1.21779,0.0169669,0.0315605,1805,1569,2.50637,-1.38716
588,-545,2.46558,1.36841,-0.00364736,0.0194307,-0.00838739,0.0221569,-0.00637359,-1.25653,0.0172919,0.0468735,1812,1569,2.46558,-1.3684
595,-545,2.42041,1.33936,0,0,0,0,0,0,0,-1,1819,1569,2.42043,-1.33933
602,-545,2.7002,0.359375,0,0,0,0,0,0,0,-1,1826,1569,2.70016,-0.359335
609,-545,2.31616,-0.200317,0.0123649,0.0212723,0.00241266,0.0218838,0.0117534,1.32256,0.0126462,0.0395389,1833,1569,2.31622,0.200317
616,-545,2.22009,-0.56543,0.0221531,0.0182272,0.00994825,0.0303302,0.0100501,0.687991,0.0178401,0.0400579,1840,1569,2.22004,0.565403
623,-545,3.51428,3.92505,0.0330303,0.0117987,0.0198342,0.044911,-8.19508e-05,0.539683,0.029968,0.0412847,1847,1569,3.51434,-3.92504
630,-545,0,0,0,0,0,0,0,0,0,-1,1854,1569,0,0
637,-545,0,0,0,0,0,0,0,0,0,-1,1861,1569,0,0
644,-545,0,0,0,0,0,0,0,0,0,-1,1868,1569,0,0
651,-545,0,0,0,0,0,0,0,0,0,-1,1875,1569,0,0
658,-545,0,0,0,0,0,0,0,0,0,-1,1882,1569,0,0
665,-545,0,0,0,0,0,0,0,0,0,-1,1889,1569,0,0
672,-545,0,0,0,0,0,0,0,0,0,-1,1896,1569,0,0
679,-545,0,0,0,0,0,0,0,0,0,-1,1903,1569,0,0
686,-545,0,0,0,0,0,0,0,0,0,-1,1910,1569,0,0
693,-545,0,0,0,0,0,0,0,0,0,-1,1917,1569,0,0
700,-545,0,0,0,0,0,0,0,0,0,-1,1924,1569,0,0
707,-545,0,0,0,0,0,0,0,0,0,-1,1931,1569,0,0
714,-545,0,0,0,0,0,0,0,0,0,-1,1938,1569,0,0
721,-545,0,0,0,0,0,0,0,0,0,-1,1945,1569,0,0
728,-545,0,0,0,0,0,0,0,0,0,-1,1952,1569,0,0
735,-545,0,0,0,0,0,0,0,0,0,-1,1959,1569,0,0
742,-545,0,0,0,0,0,0,0,0,0,-1,1966,1569,0,0
749,-545,0,0,0,0,0,0,0,0,0,-1,1973,1569,0,0
756,-545,0,0,0,0,0,0,0,0,0,-1,1980,1569,0,0
763,-545,0,0,0,0,0,0,0,0,0,-1,1987,1569,0,0
770,-545,0,0,0,0,0,0,0,0,0,-1,1994,1569,0,0
777,-545,0,0,0,0,0,0,0,0,0,-1,2001,1569,0,0
784,-545,0,0,0,0,0,0,0,0,0,-1,2008,1569,0,0
791,-545,0,0,0,0,0,0,0,0,0,-1,2015,1569,0,0
798,-545,0,0,0,0,0,0,0,0,0,-1,2022,1569,0,0
805,-545,0,0,0,0,0,0,0,0,0,-1,2029,1569,0,0
812,-545,0,0,0,0,0,0,0,0,0,-1,2036,1569,0,0
-700,-552,0,0,0,0,0,0,0,0,0,-1,524,1576,0,0
-693,-552,0,0,0,0,0,0,0,0,0,-1,531,1576,0,0
-686,-552,0,0,0,0,0,0,0,0,0,-1,538,1576,0,0
-679,-552,0,0,0,0,0,0,0,0,0,-1,545,1576,0,0
-672,-552,0,0,0,0,0,0,0,0,0,-1,552,1576,0,0
-665,-552,0,0,0,0,0,0,0,0,0,-1,559,1576,0,0
-658,-552,0,0,0,0,0,0,0,0,0,-1,566,1576,0,0
-651,-552,0,0,0,0,0,0,0,0,0,-1,573,1576,0,0
-644,-552,0,0,0,0,0,0,0,0,0,-1,580,1576,0,0
-637,-552,0,0,0,0,0,0,0,0,0,-1,587,1576,0,0
-630,-552,0,0,0,0,0,0,0,0,0,-1,594,1576,0,0
-623,-552,0,0,0,0,0,0,0,0,0,-1,601,1576,0,0
-616,-552,0,0,0,0,0,0,0,0,0,-1,608,1576,0,0
-609,-552,0,0,0,0,0,0,0,0,0,-1,615,1576,0,0
-602,-552,0,0,0,0,0,0,0,0,0,-1,622,1576,0,0
-595,-552,0,0,0,0,0,0,0,0,0,-1,629,1576,0,0
-588,-552,0,0,0,0,0,0,0,0,0,-1,636,1576,0,0
-581,-552,0,0,0,0,0,0,0,0,0,-1,643,1576,0,0
-574,-552,0,0,0,0,0,0,0,0,0,-1,650,1576,0,0
-567,-552,0,0,0,0,0,0,0,0,0,-1,657,1576,0,0
-560,-552,0,0,0,0,0,0,0,0,0,-1,664,1576,0,0
-553,-552,0,0,0,0,0,0,0,0,0,-1,671,1576,0,0
-546,-552,0,0,0,0,0,0,0,0,0,-1,678,1576,0,0
-539,-552,0,0,0,0,0,0,0,0,0,-1,685,1576,0,0
-532,-552,0,0,0,0,0,0,0,0,0,-1,692,1576,0,0
-525,-552,0,0,0,0,0,0,0,0,0,-1,699,1576,0,0
-518,-552,0,0,0,0,0,0,0,0,0,-1,706,1576,0,0
-511,-552,0,0,0,0,0,0,0,0,0,-1,713,1576,0,0
-504,-552,0,0,0,0,0,0,0,0,0,-1,720,1576,0,0
-497,-552,4.52563,2.2041,0,0,0,0,0,0,0,-1,727,1576,4.52564,-2.20406
-490,-552,4.12708,1.99744,0,0,0,0,0,0,0,-1,734,1576,4.12705,-1.99745
-483,-552,3.32422,1.88513,0.0126822,-0.00439517,-0.0337651,0.0389715,-0.0306845,-0.661552,0.0403106,0.0433671,741,1576,3.32421,-1.88508
-476,-552,2.69745,1.40271,-0.00177297,-0.00531175,-0.0282715,0.0247845,-0.0318692,-0.754146,0.0327941,0.0435143,748,1576,2.69742,-1.40266
-469,-552,2.00195,1.15503,-0.0101598,-0.005175,-0.0226408,0.0151102,-0.030445,-0.840219,0.0267934,0.043304,755,1576,2.00194,-1.15506
-462,-552,1.42047,1.41345,-0.013936,-0.00508319,-0.0172733,0.00832187,-0.027341,-0.910827,0.0215439,0.0401069,762,1576,1.42047,-1.41349
-455,-552,0.865234,1.62964,-0.0145375,-0.00446613,-0.0126279,0.00409313,-0.0230967,-0.975123,0.016928,0.0421284,769,1576,0.865251,-1.62963
-448,-552,1.38336,1.36853,-0.0168443,-0.00423792,-0.00990204,0.00119688,-0.0222791,-1.06883,0.0152673,0.0411596,776,1576,1.38335,-1.3685
-441,-552,1.28705,1.44617,-0.0140629,-0.00295147,-0.00540157,-0.000758449,-0.0162559,-1.18513,0.0105935,0.0360964,783,1576,1.28702,-1.44618
-434,-552,1.25629,1.45557,-0.00958837,-0.00209182,-0.0035601,-0.000670585,-0.0110096,-1.19097,0.00712674,0.0195171,790,1576,1.2563,-1.45551
-427,-552,1.24786,1.49536,-0.00574198,-0.00109399,-0.001921,-0.000402823,-0.00643314,-1.22542,0.00416099,0.0147954,797,1576,1.24788,-1.49532
-420,-552,1.26733,1.5415,-0.00217564,2.75405e-05,-0.000674318,0.00021754,-0.00236564,-1.29615,0.00165438,0.0185348,804,1576,1.26733,-1.5415
-413,-552,1.27277,1.57568,-0.000236395,0.000356307,-0.000321062,0.000496882,-0.00037697,-1.1581,0.0005061,0.0164149,811,1576,1.27278,-1.57567
-406,-552,1.24622,1.60779,0.000542023,0.00061294,-0.000221947,0.000802244,0.00035272,-0.86461,0.000464298,0.0125732,818,1576,1.2462,-1.60781
-399,-552,1.25232,1.65869,0.000724776,0.000441678,-0.000183098,0.00081466,0.000351794,-0.456344,0.000471799,0.012952,825,1576,1.25233,-1.6587
-392,-552,1.23627,1.68591,0.00091081,0.000168281,-0.000317031,0.00102775,5.13384e-05,-0.353384,0.000668713,0.0137834,832,1576,1.23629,-1.68595
-385,-552,1.237,1.71838,0.00203939,-0.000224661,-0.00055167,0.00216666,-0.00035193,-0.22673,0.00157491,0.0121755,839,1576,1.23702,-1.71844
-378,-552,1.2215,1.72253,0.00324673,-0.000558752,-0.000625643,0.00334695,-0.000658971,-0.158838,0.00248031,0.0139394,846,1576,1.22151,-1.7225
-371,-552,1.21313,1.73657,0.00442004,-0.000491237,-0.00102511,0.00462542,-0.000696615,-0.19773,0.00334012,0.0188018,853,1576,1.21312,-1.73659
-364,-552,1.23438,1.78357,0.00616786,-0.000353725,-0.00152804,0.00650813,-0.000693998,-0.219111,0.00458762,0.0147881,860,1576,1.23437,-1.78361
-357,-552,1.24615,1.83655,0.00795514,-5.17262e-05,-0.0017323,0.00831385,-0.000410441,-0.204188,0.00568432,0.00983904,867,1576,1.24613,-1.8366
-350,-552,1.24921,1.85828,0.00756422,0.00115859,-0.00211269,0.00819826,0.000524545,-0.291559,0.00529932,0.00930923,874,1576,1.2492,-1.85826
-343,-552,1.2453,1.87036,0.00699037,0.00358354,-0.00243308,0.00825706,0.00231685,-0.48,0.00491783,0.00958932,881,1576,1.24528,-1.87031
-336,-552,1.2749,1.87354,0.00821079,0.00542726,-0.00249502,0.00967598,0.00396208,-0.530986,0.00561686,0.0134647,888,1576,1.27491,-1.87352
-329,-552,1.3078,1.89111,0.009211,0.00863899,-0.0018985,0.0108449,0.00700508,-0.710635,0.00634959,0.0269334,895,1576,1.3078,-1.89116
-322,-552,1.33484,1.97571,0.00864667,0.012413,-0.00154716,0.012967,0.00809262,-1.22692,0.00756298,0.0412928,902,1576,1.33487,-1.97573
-315,-552,1.31451,1.78662,0,0,0,0,0,0,0,-1,909,1576,1.31452,-1.78668
-308,-552,1.90454,1.92334,0.0068562,0.0204478,-0.00159335,0.0206321,0.00667191,-1.45565,0.0121572,0.0406624,916,1576,1.90455,-1.92339
-301,-552,1.64587,2.28076,0.00570487,0.0236484,-0.00297437,0.0241286,0.00522468,-1.41073,0.0146579,0.0445391,923,1576,1.6459,-2.28081
-294,-552,1.11591,2.49683,0.00448372,0.0261493,-0.00408692,0.0268946,0.00373842,-1.39042,0.0168226,0.0453849,930,1576,1.11593,-2.49687
-287,-552,1.54187,1.84387,0.00260212,0.0266388,-0.00515257,0.0276968,0.00154417,-1.36829,0.0179719,0.0442677,937,1576,1.54186,-1.84386
-280,-552,2.2691,2.62671,-0.00188726,0.0256308,-0.00560233,0.0267277,-0.0029841,-1.37746,0.0188919,0.0411582,944,1576,2.2691,-2.62677
-273,-552,3.02191,3.45227,0,0,0,0,0,0,0,-1,951,1576,3.02191,-3.45222
-266,-552,3.8233,4.06848,0,0,0,0,0,0,0,-1,958,1576,3.82333,-4.06852
-259,-552,0.697815,1.2677,-0.0117493,0.0119436,-0.00932133,0.0151712,-0.0149768,-1.23746,0.0174061,0.0480431,965,1576,0.697787,-1.26771
-252,-552,0.791687,1.19641,-0.0149822,0.00523749,-0.0107963,0.00991848,-0.0196632,-1.16169,0.0173851,0.0457747,972,1576,0.791713,-1.1964
-245,-552,0.827637,1.29895,-0.0143703,-0.00121806,-0.0113503,0.0053235,-0.0209119,-1.04796,0.0160135,0.0483868,979,1576,0.82763,-1.299
-238,-552,1.03577,1.63208,-0.0165599,-0.010122,-0.0106172,-0.00224649,-0.0244354,-0.932586,0.0155954,0.0447016,986,1576,1.03579,-1.63213
-231,-552,0.671082,1.73083,-0.0259654,-0.0140473,-0.00757788,-0.0103661,-0.0296466,-1.11859,0.0173725,0.0382959,993,1576,0.671096,-1.73083
-224,-552,0,0,0,0,0,0,0,0,0,-1,1000,1576,0,0
-217,-552,0,0,0,0,0,0,0,0,0,-1,1007,1576,0,0
-210,-552,0,0,0,0,0,0,0,0,0,-1,1014,1576,0,0
-203,-552,0,0,0,0,0,0,0,0,0,-1,1021,1576,0,0
-196,-552,0,0,0,0,0,0,0,0,0,-1,1028,1576,0,0
-189,-552,0,0,0,0,0,0,0,0,0,-1,1035,1576,0,0
-182,-552,0,0,0,0,0,0,0,0,0,-1,1042,1576,0,0
-175,-552,0,0,0,0,0,0,0,0,0,-1,1049,1576,0,0
-168,-552,0,0,0,0,0,0,0,0,0,-1,1056,1576,0,0
-161,-552,0,0,0,0,0,0,0,0,0,-1,1063,1576,0,0
-154,-552,0,0,0,0,0,0,0,0,0,-1,1070,1576,0,0
-147,-552,0,0,0,0,0,0,0,0,0,-1,1077,1576,0,0
-140,-552,0,0,0,0,0,0,0,0,0,-1,1084,1576,0,0
-133,-552,0,0,0,0,0,0,0,0,0,-1,1091,1576,0,0
-126,-552,0,0,0,0,0,0,0,0,0,-1,1098,1576,0,0
-119,-552,0,0,0,0,0,0,0,0,0,-1,1105,1576,0,0
-112,-552,0,0,0,0,0,0,0,0,0,-1,1112,1576,0,0
-105,-552,0,0,0,0,0,0,0,0,0,-1,1119,1576,0,0
-98,-552,0,0,0,0,0,0,0,0,0,-1,1126,1576,0,0
-91,-552,0,0,0,0,0,0,0,0,0,-1,1133,1576,0,0
-84,-552,0,0,0,0,0,0,0,0,0,-1,1140,1576,0,0
-77,-552,0,0,0,0,0,0,0,0,0,-1,1147,1576,0,0
-70,-552,0,0,0,0,0,0,0,0,0,-1,1154,1576,0,0
-63,-552,0,0,0,0,0,0,0,0,0,-1,1161,1576,0,0
-56,-552,0,0,0,0,0,0,0,0,0,-1,1168,1576,0,0
-49,-552,0,0,0,0,0,0,0,0,0,-1,1175,1576,0,0
-42,-552,0,0,0,0,0,0,0,0,0,-1,1182,1576,0,0
-35,-552,0,0,0,0,0,0,0,0,0,-1,1189,1576,0,0
-28,-552,0,0,0,0,0,0,0,0,0,-1,1196,1576,0,0
-21,-552,0,0,0,0,0,0,0,0,0,-1,1203,1576,0,0
-14,-552,0,0,0,0,0,0,0,0,0,-1,1210,1576,0,0
-7,-552,0,0,0,0,0,0,0,0,0,-1,1217,1576,0,0
0,-552,0,0,0,0,0,0,0,0,0,-1,1224,1576,0,0
7,-552,0,0,0,0,0,0,0,0,0,-1,1231,1576,0,0
14,-552,0,0,0,0,0,0,0,0,0,-1,1238,1576,0,0
21,-552,0,0,0,0,0,0,0,0,0,-1,1245,1576,0,0
28,-552,0,0,0,0,0,0,0,0,0,-1,1252,1576,0,0
35,-552,0,0,0,0,0,0,0,0,0,-1,1259,1576,0,0
42,-552,0,0,0,0,0,0,0,0,0,-1,1266,1576,0,0
49,-552,0,0,0,0,0,0,0,0,0,-1,1273,1576,0,0
56,-552,0,0,0,0,0,0,0,0,0,-1,1280,1576,0,0
63,-552,0,0,0,0,0,0,0,0,0,-1,1287,1576,0,0
70,-552,0,0,0,0,0,0,0,0,0,-1,1294,1576,0,0
77,-552,0,0,0,0,0,0,0,0,0,-1,1301,1576,0,0
84,-552,0,0,0,0,0,0,0,0,0,-1,1308,1576,0,0
91,-552,0,0,0,0,0,0,0,0,0,-1,1315,1576,0,0
98,-552,0,0,0,0,0,0,0,0,0,-1,1322,1576,0,0
105,-552,0,0,0,0,0,0,0,0,0,-1,1329,1576,0,0
112,-552,0,0,0,0,0,0,0,0,0,-1,1336,1576,0,0
119,-552,0,0,0,0,0,0,0,0,0,-1,1343,1576,0,0
126,-552,0,0,0,0,0,0,0,0,0,-1,1350,1576,0,0
133,-552,0,0,0,0,0,0,0,0,0,-1,1357,1576,0,0
140,-552,0,0,0,0,0,0,0,0,0,-1,1364,1576,0,0
147,-552,0,0,0,0,0,0,0,0,0,-1,1371,1576,0,0
154,-552,0,0,0,0,0,0,0,0,0,-1,1378,1576,0,0
161,-552,0,0,0,0,0,0,0,0,0,-1,1385,1576,0,0
168,-552,0,0,0,0,0,0,0,0,0,-1,1392,1576,0,0
175,-552,0,0,0,0,0,0,0,0,0,-1,1399,1576,0,0
182,-552,0,0,0,0,0,0,0,0,0,-1,1406,1576,0,0
189,-552,0,0,0,0,0,0,0,0,0,-1,1413,1576,0,0
196,-552,0,0,0,0,0,0,0,0,0,-1,1420,1576,0,0
203,-552,0,0,0,0,0,0,0,0,0,-1,1427,1576,0,0
210,-552,0,0,0,0,0,0,0,0,0,-1,1434,1576,0,0
217,-552,0,0,0,0,0,0,0,0,0,-1,1441,1576,0,0
224,-552,0,0,0,0,0,0,0,0,0,-1,1448,1576,0,0
231,-552,0,0,0,0,0,0,0,0,0,-1,1455,1576,0,0
238,-552,0,0,0,0,0,0,0,0,0,-1,1462,1576,0,0
245,-552,0,0,0,0,0,0,0,0,0,-1,1469,1576,0,0
252,-552,0,0,0,0,0,0,0,0,0,-1,1476,1576,0,0
259,-552,0,0,0,0,0,0,0,0,0,-1,1483,1576,0,0
266,-552,0,0,0,0,0,0,0,0,0,-1,1490,1576,0,0
273,-552,0,0,0,0,0,0,0,0,0,-1,1497,1576,0,0
280,-552,0,0,0,0,0,0,0,0,0,-1,1504,1576,0,0
287,-552,0,0,0,0,0,0,0,0,0,-1,1511,1576,0,0
294,-552,0,0,0,0,0,0,0,0,0,-1,1518,1576,0,0
301,-552,0,0,0,0,0,0,0,0,0,-1,1525,1576,0,0
308,-552,0,0,0,0,0,0,0,0,0,-1,1532,1576,0,0
315,-552,0,0,0,0,0,0,0,0,0,-1,1539,1576,0,0
322,-552,0,0,0,0,0,0,0,0,0,-1,1546,1576,0,0
329,-552,0,0,0,0,0,0,0,0,0,-1,1553,1576,0,0
336,-552,0,0,0,0,0,0,0,0,0,-1,1560,1576,0,0
343,-552,0,0,0,0,0,0,0,0,0,-1,1567,1576,0,0
350,-552,5.03149,3.31958,-0.0286852,0.106099,0.00270463,0.106153,-0.0287395,1.55074,0.0820438,0.0462953,1574,1576,5.03152,-3.31962
357,-552,4.61475,2.8833,-0.0311456,0.11092,0.0127715,0.112059,-0.0322846,1.48185,0.0874766,0.0498017,1581,1576,4.6147,-2.88335
364,-552,4.33899,2.56006,-0.0367018,0.111399,0.0188562,0.113762,-0.0390649,1.44613,0.0916805,0.0481471,1588,1576,4.33903,-2.56006
371,-552,4.10828,2.96472,-0.0386155,0.101848,0.0170394,0.103885,-0.0406529,1.45179,0.0860699,0.0496607,1595,1576,4.10831,-2.96473
378,-552,3.86206,3.66321,-0.0382806,0.0913141,0.0122193,0.0924562,-0.0394226,1.4776,0.0781655,0.0479879,1602,1576,3.86209,-3.66321
385,-552,3.48279,3.56982,-0.0386797,0.0820042,0.00880161,0.0826427,-0.0393183,1.49838,0.0718799,0.0453795,1609,1576,3.48285,-3.56978
392,-552,3.11194,3.70813,-0.0376738,0.0728116,0.003608,0.0729293,-0.0377915,1.53819,0.0649889,0.0481116,1616,1576,3.1119,-3.70813
399,-552,3.38354,5.57751,0,0,0,0,0,0,0,-1,1623,1576,3.3835,-5.57753
406,-552,3.06006,5.24902,-0.0314756,0.0534012,-0.00635073,0.0538738,-0.0319482,-1.49652,0.0500854,0.0464916,1630,1576,3.06012,-5.24901
413,-552,2.76111,4.94177,-0.0272914,0.0434821,-0.0101752,0.0449159,-0.0287252,-1.4308,0.0428579,0.0458348,1637,1576,2.76108,-4.94182
420,-552,2.3092,4.28503,-0.023544,0.0338219,-0.013673,0.0369142,-0.0266362,-1.34838,0.0368504,0.0462851,1644,1576,2.30919,-4.28497
427,-552,2.20923,3.51794,-0.0193612,0.0253558,-0.0164791,0.0307725,-0.0247779,-1.25322,0.0321343,0.0455313,1651,1576,2.20918,-3.51791
434,-552,2.01587,3.17004,0,0,0,0,0,0,0,-1,1658,1576,2.01588,-3.17
441,-552,1.89832,2.92151,-0.0100508,0.0131205,-0.0152137,0.0206578,-0.0175881,-1.11082,0.0221049,0.0428832,1665,1576,1.89834,-2.92146
448,-552,1.83545,2.66858,-0.00719668,0.00951833,-0.0126737,0.0163421,-0.0140204,-1.07689,0.0175469,0.0410923,1672,1576,1.83543,-2.66857
455,-552,2.35657,2.11621,-0.00495829,0.00747035,-0.0095919,0.012685,-0.010173,-1.07284,0.0132236,0.0403336,1679,1576,2.35653,-2.11623
462,-552,2.52185,2.04163,-0.00318,0.00363656,-0.00704328,0.00805287,-0.00759631,-1.01074,0.00903634,0.0371239,1686,1576,2.52181,-2.04161
469,-552,2.51282,1.90308,-0.00156087,0.00241098,-0.0045509,0.0053904,-0.00454029,-0.991134,0.00574048,0.0292176,1693,1576,2.51287,-1.90305
476,-552,2.47205,1.84351,-0.000713237,0.0021783,-0.0021071,0.00328794,-0.00182288,-1.08608,0.00299087,0.0144482,1700,1576,2.47205,-1.84346
483,-552,2.51208,1.81311,-0.000233682,0.00169476,-0.000114005,0.00170148,-0.000240398,-1.51195,0.00122236,0.0132625,1707,1576,2.51208,-1.81306
490,-552,2.51379,1.78906,0.000363218,0.0014438,0.000395548,0.00157311,0.000233903,1.25482,0.000980122,0.0135632,1714,1576,2.51385,-1.78902
497,-552,2.53638,1.79114,0.000771143,0.00118126,0.000723501,0.0017282,0.000224201,0.923488,0.00108515,0.0208486,1721,1576,2.53637,-1.79109
504,-552,2.5188,1.7511,0.000827569,0.0014845,0.00054177,0.0017896,0.000522469,1.05791,0.00106262,0.0235507,1728,1576,2.5188,-1.75108
511,-552,2.48315,1.67957,0.000673528,0.00172151,2.50052e-06,0.00172151,0.000673522,1.56841,0.00100172,0.0168132,1735,1576,2.48321,-1.67959
518,-552,2.47705,1.65955,0.00110694,0.00213288,-0.000927649,0.00267995,0.00055988,-1.03796,0.00163233,0.0138838,1742,1576,2.47704,-1.65957
525,-552,2.48425,1.62988,0.00147488,0.00239555,-0.00180649,0.00379943,7.09975e-05,-0.910155,0.00250962,0.0131222,1749,1576,2.48421,-1.62987
532,-552,2.51563,1.58093,0.000700541,0.00266208,-0.00313337,0.00496459,-0.00160197,-0.937072,0.00395343,0.0136035,1756,1576,2.51564,-1.58091
539,-552,2.48523,1.54053,-0.000469359,0.00367849,-0.00485495,0.00688393,-0.0036748,-0.987255,0.00618923,0.016125,1763,1576,2.48528,-1.54047
546,-552,2.46265,1.52759,-0.00155977,0.00453809,-0.0067896,0.00893191,-0.00595359,-0.996434,0.0086513,0.019579,1770,1576,2.46259,-1.52764
553,-552,2.48975,1.50281,-0.00331769,0.00637653,-0.00912433,0.0118613,-0.00880246,-1.02956,0.0119737,0.0225768,1777,1576,2.48973,-1.50284
560,-552,2.45898,1.4519,-0.00574311,0.0100409,-0.0120575,0.0165595,-0.0122618,-1.07517,0.0167016,0.0242308,1784,1576,2.45903,-1.45192
567,-552,2.35339,1.36584,-0.00740015,0.0144474,-0.0145172,0.0216917,-0.0146445,-1.10794,0.0211098,0.0290964,1791,1576,2.35344,-1.36581
574,-552,2.48059,1.354,-0.00594773,0.0173918,-0.0154434,0.0250788,-0.0136347,-1.10895,0.0226744,0.0365349,1798,1576,2.48063,-1.35403
581,-552,2.61047,1.45068,-0.00567504,0.0213713,-0.0158273,0.0286659,-0.0129696,-1.13893,0.0246011,0.0442655,1805,1576,2.61042,-1.45068
588,-552,2.56702,1.52136,-0.00474896,0.0249875,-0.015553,0.0316358,-0.0113972,-1.16684,0.0257447,0.0463421,1812,1576,2.56703,-1.52132
595,-552,2.6012,1.41614,0,0,0,0,0,0,0,-1,1819,1576,2.60116,-1.41612
602,-552,2.40869,0.131714,0,0,0,0,0,0,0,-1,1826,1576,2.40863,-0.131745
609,-552,2.47998,-0.609009,0.0117314,0.0298609,-0.00421548,0.0307932,0.0107992,-1.35315,0.0180407,0.0404924,1833,1576,2.48003,0.609027
616,-552,2.4093,-1.03479,0.022767,0.028049,0.00510988,0.03116,0.019656,1.02391,0.0181943,0.0412136,1840,1576,2.40929,1.03477
623,-552,0,0,0,0,0,0,0,0,0,-1,1847,1576,0,0
630,-552,0,0,0,0,0,0,0,0,0,-1,1854,1576,0,0
637,-552,0,0,0,0,0,0,0,0,0,-1,1861,1576,0,0
644,-552,0,0,0,0,0,0,0,0,0,-1,1868,1576,0,0
651,-552,0,0,0,0,0,0,0,0,0,-1,1875,1576,0,0
658,-552,0,0,0,0,0,0,0,0,0,-1,1882,1576,0,0
665,-552,0,0,0,0,0,0,0,0,0,-1,1889,1576,0,0
672,-552,0,0,0,0,0,0,0,0,0,-1,1896,1576,0,0
679,-552,0,0,0,0,0,0,0,0,0,-1,1903,1576,0,0
686,-552,0,0,0,0,0,0,0,0,0,-1,1910,1576,0,0
693,-552,0,0,0,0,0,0,0,0,0,-1,1917,1576,0,0
700,-552,0,0,0,0,0,0,0,0,0,-1,1924,1576,0,0
707,-552,0,0,0,0,0,0,0,0,0,-1,1931,1576,0,0
714,-552,0,0,0,0,0,0,0,0,0,-1,1938,1576,0,0
721,-552,0,0,0,0,0,0,0,0,0,-1,1945,1576,0,0
728,-552,0,0,0,0,0,0,0,0,0,-1,1952,1576,0,0
735,-552,0,0,0,0,0,0,0,0,0,-1,1959,1576,0,0
742,-552,0,0,0,0,0,0,0,0,0,-1,1966,1576,0,0
749,-552,0,0,0,0,0,0,0,0,0,-1,1973,1576,0,0
756,-552,0,0,0,0,0,0,0,0,0,-1,1980,1576,0,0
763,-552,0,0,0,0,0,0,0,0,0,-1,1987,1576,0,0
770,-552,0,0,0,0,0,0,0,0,0,-1,1994,1576,0,0
777,-552,0,0,0,0,0,0,0,0,0,-1,2001,1576,0,0
784,-552,0,0,0,0,0,0,0,0,0,-1,2008,1576,0,0
791,-552,0,0,0,0,0,0,0,0,0,-1,2015,1576,0,0
798,-552,0,0,0,0,0,0,0,0,0,-1,2022,1576,0,0
805,-552,0,0,0,0,0,0,0,0,0,-1,2029,1576,0,0
812,-552,0,0,0,0,0,0,0,0,0,-1,2036,1576,0,0
-700,-559,0,0,0,0,0,0,0,0,0,-1,524,1583,0,0
-693,-559,0,0,0,0,0,0,0,0,0,-1,531,1583,0,0
-686,-559,0,0,0,0,0,0,0,0,0,-1,538,1583,0,0
-679,-559,0,0,0,0,0,0,0,0,0,-1,545,1583,0,0
-672,-559,0,0,0,0,0,0,0,0,0,-1,552,1583,0,0
-665,-559,0,0,0,0,0,0,0,0,0,-1,559,1583,0,0
-658,-559,0,0,0,0,0,0,0,0,0,-1,566,1583,0,0
-651,-559,0,0,0,0,0,0,0,0,0,-1,573,1583,0,0
-644,-559,0,0,0,0,0,0,0,0,0,-1,580,1583,0,0
-637,-559,0,0,0,0,0,0,0,0,0,-1,587,1583,0,0
-630,-559,0,0,0,0,0,0,0,0,0,-1,594,1583,0,0
-623,-559,0,0,0,0,0,0,0,0,0,-1,601,1583,0,0
-616,-559,0,0,0,0,0,0,0,0,0,-1,608,1583,0,0
-609,-559,0,0,0,0,0,0,0,0,0,-1,615,1583,0,0
-602,-559,0,0,0,0,0,0,0,0,0,-1,622,1583,0,0
-595,-559,0,0,0,0,0,0,0,0,0,-1,629,1583,0,0
-588,-559,0,0,0,0,0,0,0,0,0,-1,636,1583,0,0
-581,-559,0,0,0,0,0,0,0,0,0,-1,643,1583,0,0
-574,-559,0,0,0,0,0,0,0,0,0,-1,650,1583,0,0
-567,-559,0,0,0,0,0,0,0,0,0,-1,657,1583,0,0
-560,-559,0,0,0,0,0,0,0,0,0,-1,664,1583,0,0
-553,-559,0,0,0,0,0,0,0,0,0,-1,671,1583,0,0
-546,-559,0,0,0,0,0,0,0,0,0,-1,678,1583,0,0
-539,-559,0,0,0,0,0,0,0,0,0,-1,685,1583,0,0
-532,-559,0,0,0,0,0,0,0,0,0,-1,692,1583,0,0
-525,-559,0,0,0,0,0,0,0,0,0,-1,699,1583,0,0
-518,-559,0,0,0,0,0,0,0,0,0,-1,706,1583,0,0
-511,-559,0,0,0,0,0,0,0,0,0,-1,713,1583,0,0
-504,-559,0,0,0,0,0,0,0,0,0,-1,720,1583,0,0
-497,-559,0,0,0,0,0,0,0,0,0,-1,727,1583,0,0
-490,-559,3.04999,1.93579,0,0,0,0,0,0,0,-1,734,1583,3.04998,-1.93576
-483,-559,3.37982,1.9707,0.00474465,-0.00793304,-0.0348408,0.0338186,-0.0370069,-0.695414,0.0409049,0.0428265,741,1583,3.37981,-1.97074
-476,-559,2.77246,1.74695,-0.0101803,-0.00798809,-0.0290874,0.0200238,-0.0381922,-0.804231,0.0341523,0.0441971,748,1583,2.77248,-1.74698
-469,-559,2.07928,1.52051,-0.0174577,-0.00634708,-0.0234305,0.0121777,-0.0359825,-0.901797,0.0289154,0.0450814,755,1583,2.0793,-1.52045
-462,-559,1.46832,1.77515,-0.0199088,-0.00541625,-0.0179092,0.00665713,-0.0319822,-0.977636,0.0238522,0.0412413,762,1583,1.46833,-1.77519
-455,-559,1.68036,1.31824,-0.0191436,-0.0039237,-0.0132554,0.00375088,-0.0268182,-1.04598,0.0192513,0.0416809,769,1583,1.68036,-1.31828
-448,-559,1.5437,1.41199,-0.0204518,-0.00307022,-0.0104823,0.00185544,-0.0253774,-1.13151,0.0175695,0.0418085,776,1583,1.54371,-1.412
-441,-559,1.37299,1.46802,-0.0167147,-0.00143187,-0.00584894,0.000549665,-0.0186963,-1.24415,0.0126514,0.0414749,783,1583,1.37301,-1.46803
-434,-559,1.31036,1.48242,-0.0114136,-0.000287009,-0.0038549,0.000918042,-0.0126186,-1.26782,0.00873453,0.0329361,790,1583,1.31039,-1.4824
-427,-559,1.28479,1.52502,-0.00694856,0.000741106,-0.00207877,0.00126709,-0.00747454,-1.32297,0.00545467,0.0190075,797,1583,1.28481,-1.52508
-420,-559,1.27832,1.54773,-0.00278459,0.00185602,-0.000645945,0.00194425,-0.00287282,-1.43504,0.00279831,0.0151807,804,1583,1.27829,-1.54777
-413,-559,1.27222,1.59094,-0.000573496,0.00191086,-0.000223242,0.00193076,-0.000593397,-1.48189,0.00152398,0.0107673,811,1583,1.27221,-1.5909
-406,-559,1.27051,1.62158,0.000242223,0.00194598,-5.14345e-05,0.00194753,0.000240672,-1.54064,0.00122603,0.00939505,818,1583,1.2705,-1.62154
-399,-559,1.2724,1.63745,0.000390217,0.00156967,4.58606e-05,0.00157145,0.000388436,1.53199,0.000945145,0.0122982,825,1583,1.27237,-1.63751
-392,-559,1.26453,1.64868,0.000460283,0.00105891,-8.51411e-05,0.00107079,0.000448409,-1.43223,0.000620932,0.0147044,832,1583,1.26451,-1.64869
-385,-559,1.24457,1.70227,0.00115766,0.000537295,-0.000268857,0.00125796,0.000436993,-0.357075,0.000737476,0.0138755,839,1583,1.24455,-1.70226
-378,-559,1.2536,1.73828,0.00184207,7.40066e-05,-0.000296045,0.00189033,2.57537e-05,-0.161571,0.00125172,0.0133456,846,1583,1.25362,-1.73833
-371,-559,1.26288,1.76782,0.002436,-0.000187756,-0.000474732,0.00251925,-0.000271011,-0.173606,0.00177674,0.0212785,853,1583,1.2629,-1.76786
-364,-559,1.26971,1.79529,0.00348357,-0.000461553,-0.000757228,0.00362392,-0.000601903,-0.183267,0.00263956,0.0193579,860,1583,1.26974,-1.79532
-357,-559,1.2594,1.83765,0.00450939,-0.000319429,-0.000792181,0.00463603,-0.000446067,-0.158519,0.0032496,0.0115141,867,1583,1.25938,-1.83765
-350,-559,1.27185,1.84375,0.00375233,0.000549801,-0.000940979,0.00400834,0.000293785,-0.265644,0.00257988,0.00929741,874,1583,1.27185,-1.84381
-343,-559,1.27832,1.84119,0.00300497,0.00235653,-0.00112191,0.00384857,0.00151293,-0.644736,0.00223883,0.0105754,881,1583,1.2783,-1.84117
-336,-559,1.28632,1.87329,0.00390967,0.003675,-0.00100586,0.00480501,0.00277966,-0.727336,0.00278555,0.0109203,888,1583,1.28634,-1.87333
-329,-559,1.29669,1.91626,0.00482198,0.00622066,-0.000231728,0.00625805,0.00478459,-1.41081,0.0037779,0.0131327,895,1583,1.29671,-1.91623
-322,-559,1.30627,1.94568,0.00460239,0.00918768,0.000216325,0.00919786,0.00459221,1.52376,0.00531039,0.0289317,902,1583,1.30629,-1.94563
-315,-559,1.35638,1.94299,0.00439231,0.0122513,0.000715004,0.0123158,0.00432779,1.4808,0.00721443,0.0380111,909,1583,1.3564,-1.94299
-308,-559,1.35034,2.06604,0.00402098,0.0153673,0.000237312,0.0153722,0.00401602,1.54989,0.00920624,0.0367891,916,1583,1.35036,-2.06605
-301,-559,1.28204,2.02588,0.00368272,0.0178015,-0.00100802,0.0178731,0.00361112,-1.49988,0.0109127,0.043671,923,1583,1.28202,-2.02584
-294,-559,0.595032,1.54932,0.00331876,0.0196987,-0.00208493,0.0199599,0.00305754,-1.44616,0.0124136,0.0452286,930,1583,0.595054,-1.54936
-287,-559,1.50592,2.01074,0.00254934,0.01994,-0.00318174,0.0205038,0.00198549,-1.39541,0.0130578,0.0443902,937,1583,1.50594,-2.01076
-280,-559,2.71039,2.42834,-0.000303047,0.0190051,-0.00397092,0.0197899,-0.00108781,-1.37568,0.0135704,0.0461665,944,1583,2.71037,-2.4284
-273,-559,3.84851,2.84167,0,0,0,0,0,0,0,-1,951,1583,3.84848,-2.84167
-266,-559,0.865906,-0.149536,0,0,0,0,0,0,0,-1,958,1583,0.865881,0.14952
-259,-559,1.7251,1.34814,0,0,0,0,0,0,0,-1,965,1583,1.72509,-1.34818
-252,-559,1.29895,0.999634,0,0,0,0,0,0,0,-1,972,1583,1.29893,-0.999589
-245,-559,1.08411,1.45422,-0.0103535,-0.00278944,-0.0120555,0.00606332,-0.0192062,-0.937396,0.015233,0.0470444,979,1583,1.08408,-1.45427
-238,-559,0.838745,1.93164,-0.0125594,-0.00801667,-0.0113078,0.0012456,-0.0218217,-0.884513,0.0149803,0.0460056,986,1583,0.838733,-1.93162
-231,-559,0.183228,2.17798,-0.0197791,-0.0106775,-0.00940588,-0.00477936,-0.0256772,-1.01071,0.0157683,0.0429626,993,1583,0.1832,-2.17792
-224,-559,-0.339233,2.27502,0,0,0,0,0,0,0,-1,1000,1583,-0.339253,-2.27506
-217,-559,0,0,0,0,0,0,0,0,0,-1,1007,1583,0,0
-210,-559,0,0,0,0,0,0,0,0,0,-1,1014,1583,0,0
-203,-559,0,0,0,0,0,0,0,0,0,-1,1021,1583,0,0
-196,-559,0,0,0,0,0,0,0,0,0,-1,1028,1583,0,0
-189,-559,0,0,0,0,0,0,0,0,0,-1,1035,1583,0,0
-182,-559,0,0,0,0,0,0,0,0,0,-1,1042,1583,0,0
-175,-559,0,0,0,0,0,0,0,0,0,-1,1049,1583,0,0
-168,-559,0,0,0,0,0,0,0,0,0,-1,1056,1583,0,0
-161,-559,0,0,0,0,0,0,0,0,0,-1,1063,1583,0,0
-154,-559,0,0,0,0,0,0,0,0,0,-1,1070,1583,0,0
-147,-559,0,0,0,0,0,0,0,0,0,-1,1077,1583,0,0
-140,-559,0,0,0,0,0,0,0,0,0,-1,1084,1583,0,0
-133,-559,0,0,0,0,0,0,0,0,0,-1,1091,1583,0,0
-126,-559,0,0,0,0,0,0,0,0,0,-1,1098,1583,0,0
-119,-559,0,0,0,0,0,0,0,0,0,-1,1105,1583,0,0
-112,-559,0,0,0,0,0,0,0,0,0,-1,1112,1583,0,0
-105,-559,0,0,0,0,0,0,0,0,0,-1,1119,1583,0,0
-98,-559,0,0,0,0,0,0,0,0,0,-1,1126,1583,0,0
-91,-559,0,0,0,0,0,0,0,0,0,-1,1133,1583,0,0
-84,-559,0,0,0,0,0,0,0,0,0,-1,1140,1583,0,0
-77,-559,0,0,0,0,0,0,0,0,0,-1,1147,1583,0,0
-70,-559,0,0,0,0,0,0,0,0,0,-1,1154,1583,0,0
-63,-559,0,0,0,0,0,0,0,0,0,-1,1161,1583,0,0
-56,-559,0,0,0,0,0,0,0,0,0,-1,1168,1583,0,0
-49,-559,0,0,0,0,0,0,0,0,0,-1,1175,1583,0,0
-42,-559,0,0,0,0,0,0,0,0,0,-1,1182,1583,0,0
-35,-559,0,0,0,0,0,0,0,0,0,-1,1189,1583,0,0
-28,-559,0,0,0,0,0,0,0,0,0,-1,1196,1583,0,0
-21,-559,0,0,0,0,0,0,0,0,0,-1,1203,1583,0,0
-14,-559,0,0,0,0,0,0,0,0,0,-1,1210,1583,0,0
-7,-559,0,0,0,0,0,0,0,0,0,-1,1217,1583,0,0
0,-559,0,0,0,0,0,0,0,0,0,-1,1224,1583,0,0
7,-559,0,0,0,0,0,0,0,0,0,-1,1231,1583,0,0
14,-559,0,0,0,0,0,0,0,0,0,-1,1238,1583,0,0
21,-559,0,0,0,0,0,0,0,0,0,-1,1245,1583,0,0
28,-559,0,0,0,0,0,0,0,0,0,-1,1252,1583,0,0
35,-559,0,0,0,0,0,0,0,0,0,-1,1259,1583,0,0
42,-559,0,0,0,0,0,0,0,0,0,-1,1266,1583,0,0
49,-559,0,0,0,0,0,0,0,0,0,-1,1273,1583,0,0
56,-559,0,0,0,0,0,0,0,0,0,-1,1280,1583,0,0
63,-559,0,0,0,0,0,0,0,0,0,-1,1287,1583,0,0
70,-559,0,0,0,0,0,0,0,0,0,-1,1294,1583,0,0
77,-559,0,0,0,0,0,0,0,0,0,-1,1301,1583,0,0
84,-559,0,0,0,0,0,0,0,0,0,-1,1308,1583,0,0
91,-559,0,0,0,0,0,0,0,0,0,-1,1315,1583,0,0
98,-559,0,0,0,0,0,0,0,0,0,-1,1322,1583,0,0
105,-559,0,0,0,0,0,0,0,0,0,-1,1329,1583,0,0
112,-559,0,0,0,0,0,0,0,0,0,-1,1336,1583,0,0
119,-559,0,0,0,0,0,0,0,0,0,-1,1343,1583,0,0
126,-559,0,0,0,0,0,0,0,0,0,-1,1350,1583,0,0
133,-559,0,0,0,0,0,0,0,0,0,-1,1357,1583,0,0
140,-559,0,0,0,0,0,0,0,0,0,-1,1364,1583,0,0
147,-559,0,0,0,0,0,0,0,0,0,-1,1371,1583,0,0
154,-559,0,0,0,0,0,0,0,0,0,-1,1378,1583,0,0
161,-559,0,0,0,0,0,0,0,0,0,-1,1385,1583,0,0
168,-559,0,0,0,0,0,0,0,0,0,-1,1392,1583,0,0
175,-559,0,0,0,0,0,0,0,0,0,-1,1399,1583,0,0
182,-559,0,0,0,0,0,0,0,0,0,-1,1406,1583,0,0
189,-559,0,0,0,0,0,0,0,0,0,-1,1413,1583,0,0
196,-559,0,0,0,0,0,0,0,0,0,-1,1420,1583,0,0
203,-559,0,0,0,0,0,0,0,0,0,-1,1427,1583,0,0
210,-559,0,0,0,0,0,0,0,0,0,-1,1434,1583,0,0
217,-559,0,0,0,0,0,0,0,0,0,-1,1441,1583,0,0
224,-559,0,0,0,0,0,0,0,0,0,-1,1448,1583,0,0
231,-559,0,0,0,0,0,0,0,0,0,-1,1455,1583,0,0
238,-559,0,0,0,0,0,0,0,0,0,-1,1462,1583,0,0
245,-559,0,0,0,0,0,0,0,0,0,-1,1469,1583,0,0
252,-559,0,0,0,0,0,0,0,0,0,-1,1476,1583,0,0
259,-559,0,0,0,0,0,0,0,0,0,-1,1483,1583,0,0
266,-559,0,0,0,0,0,0,0,0,0,-1,1490,1583,0,0
273,-559,0,0,0,0,0,0,0,0,0,-1,1497,1583,0,0
280,-559,0,0,0,0,0,0,0,0,0,-1,1504,1583,0,0
287,-559,0,0,0,0,0,0,0,0,0,-1,1511,1583,0,0
294,-559,0,0,0,0,0,0,0,0,0,-1,1518,1583,0,0
301,-559,0,0,0,0,0,0,0,0,0,-1,1525,1583,0,0
308,-559,0,0,0,0,0,0,0,0,0,-1,1532,1583,0,0
315,-559,0,0,0,0,0,0,0,0,0,-1,1539,1583,0,0
322,-559,0,0,0,0,0,0,0,0,0,-1,1546,1583,0,0
329,-559,0,0,0,0,0,0,0,0,0,-1,1553,1583,0,0
336,-559,5.84851,3.87512,0,0,0,0,0,0,0,-1,1560,1583,5.84849,-3.87516
343,-559,5.31299,3.53284,0,0,0,0,0,0,0,-1,1567,1583,5.31302,-3.53284
350,-559,4.92236,2.85144,-0.029542,0.0976074,0.000698716,0.0976112,-0.0295459,1.5653,0.0768401,0.0486571,1574,1583,4.92232,-2.85148
357,-559,4.58459,2.53735,-0.0294963,0.100672,0.00832203,0.101201,-0.0300262,1.50721,0.0793921,0.0490128,1581,1583,4.58457,-2.53741
364,-559,4.30017,2.48047,-0.0325226,0.0990871,0.0132434,0.100406,-0.033842,1.4715,0.0806218,0.0496493,1588,1583,4.3002,-2.48046
371,-559,4.09998,2.50928,-0.0337521,0.0917115,0.0134076,0.0931283,-0.0351689,1.46552,0.0765505,0.0497032,1595,1583,4.10003,-2.50927
378,-559,3.52563,2.76013,-0.033113,0.0832756,0.0107938,0.0842681,-0.0341056,1.4791,0.0703588,0.0483021,1602,1583,3.52569,-2.76019
385,-559,3.11926,2.91309,-0.032793,0.0746282,0.0089032,0.0753611,-0.0335259,1.48866,0.064394,0.0445756,1609,1583,3.11926,-2.91312
392,-559,2.77759,3.00793,-0.0310904,0.0662454,0.00479642,0.0664812,-0.0313262,1.52168,0.0576722,0.0467309,1616,1583,2.77754,-3.00793
399,-559,2.34021,4.37061,0,0,0,0,0,0,0,-1,1623,1583,2.34019,-4.3706
406,-559,2.51819,4.19763,-0.023929,0.0482781,-0.00431832,0.0485354,-0.0241864,-1.51127,0.0427632,0.0476655,1630,1583,2.51815,-4.19762
413,-559,2.52966,3.9895,-0.0197269,0.0390252,-0.00803984,0.0401056,-0.0208072,-1.43722,0.0357515,0.0473447,1637,1583,2.52961,-3.98954
420,-559,2.47351,4.25684,-0.0160793,0.0299497,-0.011386,0.0326122,-0.0187418,-1.34108,0.0300076,0.0462258,1644,1583,2.47351,-4.25689
427,-559,2.31091,3.76685,-0.0123904,0.0218086,-0.0139658,0.0267871,-0.0173689,-1.22836,0.0256861,0.0463607,1651,1583,2.31097,-3.76688
434,-559,1.81091,2.85168,0,0,0,0,0,0,0,-1,1658,1583,1.81091,-2.85165
441,-559,1.75781,2.56299,-0.00465907,0.0105281,-0.0131728,0.0181392,-0.0122702,-1.04686,0.0176656,0.0434764,1665,1583,1.75787,-2.56298
448,-559,1.8877,2.21057,-0.00269294,0.0073033,-0.011151,0.0145251,-0.00991471,-0.996085,0.0141938,0.0428115,1672,1583,1.88764,-2.21063
455,-559,2.36682,1.97791,-0.00128305,0.0056398,-0.00859689,0.011446,-0.00708919,-0.976787,0.0107994,0.0382064,1679,1583,2.36683,-1.97787
462,-559,2.4856,1.9425,-0.000258028,0.00206909,-0.00650195,0.00751077,-0.00569971,-0.873939,0.00765093,0.0288489,1686,1583,2.4856,-1.94253
469,-559,2.4541,1.90173,0.000620879,0.00102749,-0.00440444,0.00523332,-0.00358495,-0.808462,0.00512079,0.0159458,1693,1583,2.45414,-1.90179
476,-559,2.44312,1.8501,0.000864419,0.000774573,-0.00229288,0.00311282,-0.00147382,-0.775603,0.00270387,0.0103275,1700,1583,2.44309,-1.85005
483,-559,2.45764,1.81262,0.000835098,0.000416879,-0.000513888,0.00118079,7.11841e-05,-0.592171,0.000764573,0.0126502,1707,1583,2.45761,-1.81267
490,-559,2.44714,1.78796,0.00108549,0.000512834,-1.13917e-05,0.00108571,0.000512608,-0.0198824,0.000627162,0.0142208,1714,1583,2.4471,-1.78798
497,-559,2.46631,1.78796,0.00130249,0.000494794,0.000264535,0.00138142,0.000415867,0.289953,0.000818339,0.0179817,1721,1583,2.4663,-1.7879
504,-559,2.48254,1.74182,0.00129994,0.000957778,8.91141e-05,0.00132176,0.00093596,0.240109,0.000784844,0.024017,1728,1583,2.48253,-1.74188
511,-559,2.45483,1.69153,0.0012561,0.0013479,-0.000453823,0.00175813,0.000845858,-0.835797,0.0010153,0.0194284,1735,1583,2.45489,-1.69152
518,-559,2.46155,1.67065,0.00186365,0.00187727,-0.0015711,0.00344157,0.000299347,-0.787566,0.00220139,0.0123565,1742,1583,2.46161,-1.67064
525,-559,2.44629,1.61877,0.00237733,0.00241029,-0.00267174,0.0050656,-0.000277986,-0.788482,0.00347344,0.0118615,1749,1583,2.44623,-1.61883
532,-559,2.45288,1.57715,0.00152121,0.00312601,-0.00441467,0.00681061,-0.00216339,-0.875295,0.00540776,0.0124874,1756,1583,2.45285,-1.57721
539,-559,2.46167,1.54968,0.00018833,0.00458878,-0.00671267,0.00945262,-0.00467551,-0.943767,0.00831085,0.0156449,1763,1583,2.4617,-1.54966
546,-559,2.45276,1.50842,-0.00109568,0.00593787,-0.0093241,0.0123864,-0.00754418,-0.965734,0.0116195,0.0143069,1770,1583,2.45276,-1.50844
553,-559,2.46277,1.51013,-0.00320618,0.00829751,-0.0125207,0.0163243,-0.011233,-1.00071,0.0160005,0.0145708,1777,1583,2.46276,-1.51015
560,-559,2.41846,1.47791,-0.00614511,0.0125039,-0.0164289,0.02207,-0.0157112,-1.04351,0.0219157,0.0245231,1784,1583,2.41843,-1.47793
567,-559,2.37305,1.2644,0,0,0,0,0,0,0,-1,1791,1583,2.37301,-1.2644
574,-559,2.58411,1.28259,0,0,0,0,0,0,0,-1,1798,1583,2.58412,-1.28255
581,-559,2.79517,1.30066,0,0,0,0,0,0,0,-1,1805,1583,2.79522,-1.3007
588,-559,2.41504,1.05762,0,0,0,0,0,0,0,-1,1812,1583,2.41501,-1.05764
595,-559,2.62268,0.69458,0,0,0,0,0,0,0,-1,1819,1583,2.62266,-0.694571
602,-559,2.85559,-0.68811,0,0,0,0,0,0,0,-1,1826,1583,2.85562,0.688144
609,-559,2.73572,-1.12805,0,0,0,0,0,0,0,-1,1833,1583,2.73569,1.12803
616,-559,0,0,0,0,0,0,0,0,0,-1,1840,1583,0,0
623,-559,0,0,0,0,0,0,0,0,0,-1,1847,1583,0,0
630,-559,0,0,0,0,0,0,0,0,0,-1,1854,1583,0,0
637,-559,0,0,0,0,0,0,0,0,0,-1,1861,1583,0,0
644,-559,0,0,0,0,0,0,0,0,0,-1,1868,1583,0,0
651,-559,0,0,0,0,0,0,0,0,0,-1,1875,1583,0,0
658,-559,0,0,0,0,0,0,0,0,0,-1,1882,1583,0,0
665,-559,0,0,0,0,0,0,0,0,0,-1,1889,1583,0,0
672,-559,0,0,0,0,0,0,0,0,0,-1,1896,1583,0,0
679,-559,0,0,0,0,0,0,0,0,0,-1,1903,1583,0,0
686,-559,0,0,0,0,0,0,0,0,0,-1,1910,1583,0,0
693,-559,0,0,0,0,0,0,0,0,0,-1,1917,1583,0,0
700,-559,0,0,0,0,0,0,0,0,0,-1,1924,1583,0,0
707,-559,0,0,0,0,0,0,0,0,0,-1,1931,1583,0,0
714,-559,0,0,0,0,0,0,0,0,0,-1,1938,1583,0,0
721,-559,0,0,0,0,0,0,0,0,0,-1,1945,1583,0,0
728,-559,0,0,0,0,0,0,0,0,0,-1,1952,1583,0,0
735,-559,0,0,0,0,0,0,0,0,0,-1,1959,1583,0,0
742,-559,0,0,0,0,0,0,0,0,0,-1,1966,1583,0,0
749,-559,0,0,0,0,0,0,0,0,0,-1,1973,1583,0,0
756,-559,0,0,0,0,0,0,0,0,0,-1,1980,1583,0,0
763,-559,0,0,0,0,0,0,0,0,0,-1,1987,1583,0,0
770,-559,0,0,0,0,0,0,0,0,0,-1,1994,1583,0,0
777,-559,0,0,0,0,0,0,0,0,0,-1,2001,1583,0,0
784,-559,0,0,0,0,0,0,0,0,0,-1,2008,1583,0,0
791,-559,0,0,0,0,0,0,0,0,0,-1,2015,1583,0,0
798,-559,0,0,0,0,0,0,0,0,0,-1,2022,1583,0,0
805,-559,0,0,0,0,0,0,0,0,0,-1,2029,1583,0,0
812,-559,0,0,0,0,0,0,0,0,0,-1,2036,1583,0,0
-700,-566,0,0,0,0,0,0,0,0,0,-1,524,1590,0,0
-693,-566,0,0,0,0,0,0,0,0,0,-1,531,1590,0,0
-686,-566,0,0,0,0,0,0,0,0,0,-1,538,1590,0,0
-679,-566,0,0,0,0,0,0,0,0,0,-1,545,1590,0,0
-672,-566,0,0,0,0,0,0,0,0,0,-1,552,1590,0,0
-665,-566,0,0,0,0,0,0,0,0,0,-1,559,1590,0,0
-658,-566,0,0,0,0,0,0,0,0,0,-1,566,1590,0,0
-651,-566,0,0,0,0,0,0,0,0,0,-1,573,1590,0,0
-644,-566,0,0,0,0,0,0,0,0,0,-1,580,1590,0,0
-637,-566,0,0,0,0,0,0,0,0,0,-1,587,1590,0,0
-630,-566,0,0,0,0,0,0,0,0,0,-1,594,1590,0,0
-623,-566,0,0,0,0,0,0,0,0,0,-1,601,1590,0,0
-616,-566,0,0,0,0,0,0,0,0,0,-1,608,1590,0,0
-609,-566,0,0,0,0,0,0,0,0,0,-1,615,1590,0,0
-602,-566,0,0,0,0,0,0,0,0,0,-1,622,1590,0,0
-595,-566,0,0,0,0,0,0,0,0,0,-1,629,1590,0,0
-588,-566,0,0,0,0,0,0,0,0,0,-1,636,1590,0,0
-581,-566,0,0,0,0,0,0,0,0,0,-1,643,1590,0,0
-574,-566,0,0,0,0,0,0,0,0,0,-1,650,1590,0,0
-567,-566,0,0,0,0,0,0,0,0,0,-1,657,1590,0,0
-560,-566,0,0,0,0,0,0,0,0,0,-1,664,1590,0,0
-553,-566,0,0,0,0,0,0,0,0,0,-1,671,1590,0,0
-546,-566,0,0,0,0,0,0,0,0,0,-1,678,1590,0,0
-539,-566,0,0,0,0,0,0,0,0,0,-1,685,1590,0,0
-532,-566,0,0,0,0,0,0,0,0,0,-1,692,1590,0,0
-525,-566,0,0,0,0,0,0,0,0,0,-1,699,1590,0,0
-518,-566,0,0,0,0,0,0,0,0,0,-1,706,1590,0,0
-511,-566,0,0,0,0,0,0,0,0,0,-1,713,1590,0,0
-504,-566,0,0,0,0,0,0,0,0,0,-1,720,1590,0,0
-497,-566,0,0,0,0,0,0,0,0,0,-1,727,1590,0,0
-490,-566,0,0,0,0,0,0,0,0,0,-1,734,1590,0,0
-483,-566,3.37915,2.19604,-0.00823973,-0.0119411,-0.0354744,0.0254322,-0.045613,-0.759337,0.0415659,0.0429012,741,1590,3.37915,-2.19611
-476,-566,3.09698,1.90613,-0.021394,-0.00981671,-0.0296449,0.0145995,-0.0458102,-0.881818,0.0363961,0.0439579,748,1590,3.09699,-1.90609
-469,-566,2.55963,1.50647,0,0,0,0,0,0,0,-1,755,1590,2.5596,-1.50642
-462,-566,1.51282,1.64343,-0.0266495,-0.00447667,-0.0180235,0.00559714,-0.0367233,-1.06113,0.0265454,0.0426657,762,1590,1.51283,-1.64343
-455,-566,1.55103,1.4624,-0.0242892,-0.00246383,-0.0131577,0.00371765,-0.0304707,-1.1316,0.0216596,0.0420258,769,1590,1.55104,-1.46237
-448,-566,1.51874,1.39075,-0.0245052,-0.00143466,-0.0101291,0.00238133,-0.0283212,-1.21051,0.0197226,0.0408516,776,1590,1.51872,-1.39069
-441,-566,1.33167,1.82239,-0.0198134,0.000209043,-0.00528772,0.00151968,-0.0211241,-1.32783,0.0146156,0.0420443,783,1590,1.33167,-1.82235
-434,-566,1.05096,2.09338,-0.013686,0.00135334,-0.00310269,0.00196829,-0.0143009,-1.37513,0.0102532,0.0465205,790,1590,1.05099,-2.09338
-427,-566,1.22144,1.65552,-0.00859312,0.00222024,-0.00120833,0.00235362,-0.0087265,-1.46086,0.00674059,0.039562,797,1590,1.22146,-1.65549
-420,-566,1.25299,1.55554,-0.00379557,0.00316956,0.000353974,0.0031875,-0.00381351,1.52015,0.00404742,0.0234609,804,1590,1.25301,-1.55553
-413,-566,1.29559,1.56348,-0.00125212,0.00286476,0.00073598,0.00299238,-0.00137974,1.39911,0.00258085,0.0105553,811,1590,1.29562,-1.56346
-406,-566,1.30286,1.59766,-0.000292196,0.002659,0.000842615,0.00288263,-0.00051583,1.31137,0.00211477,0.00833425,818,1590,1.30286,-1.59762
-399,-566,1.29285,1.62,-2.57647e-05,0.00210044,0.000837901,0.00239095,-0.000316274,1.23705,0.00170917,0.00944473,825,1590,1.29286,-1.62005
-392,-566,1.29053,1.64832,0.000170229,0.00142319,0.000553744,0.00163284,-3.9419e-05,1.20887,0.00110193,0.0114105,832,1590,1.29054,-1.6483
-385,-566,1.30157,1.70471,0.000726264,0.000886801,0.000228041,0.00104829,0.000564777,0.954622,0.000605835,0.0135488,839,1590,1.30159,-1.70475
-378,-566,1.29944,1.76624,0.00114825,0.000419439,6.45499e-05,0.00115392,0.000413766,0.0876599,0.000675041,0.0147623,846,1590,1.29942,-1.76622
-371,-566,1.28918,1.8092,0.00146223,-8.25573e-05,-8.72093e-05,0.00146714,-8.7465e-05,-0.0562159,0.00100851,0.0204223,853,1590,1.28917,-1.80926
-364,-566,1.28644,1.82837,0.00204405,-0.00064871,-0.000332996,0.00208462,-0.000689278,-0.12123,0.00166768,0.0200144,860,1590,1.28643,-1.82834
-357,-566,1.28064,1.84229,0.00255584,-0.000507445,-0.000395643,0.00260611,-0.00055772,-0.126394,0.00195008,0.0160376,867,1590,1.28062,-1.84234
-350,-566,1.27258,1.81421,0.00168716,8.66932e-05,-0.000447914,0.00180399,-3.01339e-05,-0.255141,0.00121283,0.0188063,874,1590,1.2726,-1.81421
-343,-566,1.28375,1.79004,0.000923045,0.00134275,-0.00056092,0.00173179,0.000534009,-0.964399,0.00102404,0.0253211,881,1590,1.28377,-1.7901
-336,-566,1.30377,1.84119,0.00156623,0.00221515,-0.000350752,0.00236849,0.00141288,-1.15864,0.00137592,0.0222757,888,1590,1.30375,-1.84119
-329,-566,1.30426,1.92651,0.00236812,0.00414701,0.000509802,0.00428275,0.00223237,1.31057,0.00247339,0.0122127,895,1590,1.30426,-1.92653
-322,-566,1.3078,1.9469,0.00238002,0.00639966,0.00102304,0.00664505,0.00213463,1.33538,0.0039174,0.0116192,902,1590,1.30782,-1.94695
-315,-566,1.29718,1.98242,0.00248235,0.00865902,0.00154207,0.00902261,0.00211876,1.33924,0.00544793,0.0237864,909,1590,1.29717,-1.98245
-308,-566,1.28351,2.05127,0.002532,0.0109982,0.00115392,0.0111526,0.00237754,1.43773,0.00678292,0.0347588,916,1590,1.28349,-2.05121
-301,-566,1.24731,2.09497,0.00269501,0.0127922,8.18173e-05,0.0127929,0.00269435,1.56269,0.00778743,0.0415075,923,1590,1.24729,-2.09495
-294,-566,1.26056,2.08643,0.00286198,0.0142125,-0.000909368,0.0142849,0.00278959,-1.49135,0.008743,0.0445829,930,1590,1.26055,-2.08637
-287,-566,1.57965,1.93689,0.00261222,0.014386,-0.00195814,0.0147031,0.00229509,-1.41024,0.00913368,0.0484863,937,1590,1.57964,-1.93693
-280,-566,1.82159,1.97461,0.000817495,0.0135756,-0.00285202,0.0141841,0.00020896,-1.36058,0.00938719,0.0495145,944,1590,1.82158,-1.97464
-273,-566,2.03473,1.97388,0,0,0,0,0,0,0,-1,951,1590,2.03474,-1.9739
-266,-566,2.3736,2.172,0,0,0,0,0,0,0,-1,958,1590,2.37359,-2.17206
-259,-566,1.8139,1.65723,0,0,0,0,0,0,0,-1,965,1590,1.81388,-1.65723
-252,-566,1.25415,1.14246,0,0,0,0,0,0,0,-1,972,1590,1.25417,-1.1424
-245,-566,1.0744,1.6709,0,0,0,0,0,0,0,-1,979,1590,1.07441,-1.67084
-238,-566,0.922058,2.06335,0,0,0,0,0,0,0,-1,986,1590,0.922042,-2.0633
-231,-566,-0.147827,2.33472,-0.0141189,-0.00891533,-0.0102109,-0.000979899,-0.0220543,-0.910145,0.0143874,0.0488492,993,1590,-0.147798,-2.33471
-224,-566,-0.243286,2.14294,-0.0170893,-0.0112435,-0.0078932,-0.00574941,-0.0225834,-0.962723,0.013552,0.0482369,1000,1590,-0.243313,-2.14292
-217,-566,-0.0683594,1.95935,0,0,0,0,0,0,0,-1,1007,1590,-0.0683595,-1.95939
-210,-566,-0.0239258,1.77222,0,0,0,0,0,0,0,-1,1014,1590,-0.0238984,-1.77222
-203,-566,0,0,0,0,0,0,0,0,0,-1,1021,1590,0,0
-196,-566,0,0,0,0,0,0,0,0,0,-1,1028,1590,0,0
-189,-566,0,0,0,0,0,0,0,0,0,-1,1035,1590,0,0
-182,-566,0,0,0,0,0,0,0,0,0,-1,1042,1590,0,0
-175,-566,0,0,0,0,0,0,0,0,0,-1,1049,1590,0,0
-168,-566,0,0,0,0,0,0,0,0,0,-1,1056,1590,0,0
-161,-566,0,0,0,0,0,0,0,0,0,-1,1063,1590,0,0
-154,-566,0,0,0,0,0,0,0,0,0,-1,1070,1590,0,0
-147,-566,0,0,0,0,0,0,0,0,0,-1,1077,1590,0,0
-140,-566,0,0,0,0,0,0,0,0,0,-1,1084,1590,0,0
-133,-566,0,0,0,0,0,0,0,0,0,-1,1091,1590,0,0
-126,-566,0,0,0,0,0,0,0,0,0,-1,1098,1590,0,0
-119,-566,0,0,0,0,0,0,0,0,0,-1,1105,1590,0,0
-112,-566,0,0,0,0,0,0,0,0,0,-1,1112,1590,0,0
-105,-566,0,0,0,0,0,0,0,0,0,-1,1119,1590,0,0
-98,-566,0,0,0,0,0,0,0,0,0,-1,1126,1590,0,0
-91,-566,0,0,0,0,0,0,0,0,0,-1,1133,1590,0,0
-84,-566,0,0,0,0,0,0,0,0,0,-1,1140,1590,0,0
-77,-566,0,0,0,0,0,0,0,0,0,-1,1147,1590,0,0
-70,-566,0,0,0,0,0,0,0,0,0,-1,1154,1590,0,0
-63,-566,0,0,0,0,0,0,0,0,0,-1,1161,1590,0,0
-56,-566,0,0,0,0,0,0,0,0,0,-1,1168,1590,0,0
-49,-566,0,0,0,0,0,0,0,0,0,-1,1175,1590,0,0
-42,-566,0,0,0,0,0,0,0,0,0,-1,1182,1590,0,0
-35,-566,0,0,0,0,0,0,0,0,0,-1,1189,1590,0,0
-28,-566,0,0,0,0,0,0,0,0,0,-1,1196,1590,0,0
-21,-566,0,0,0,0,0,0,0,0,0,-1,1203,1590,0,0
-14,-566,0,0,0,0,0,0,0,0,0,-1,1210,1590,0,0
-7,-566,0,0,0,0,0,0,0,0,0,-1,1217,1590,0,0
0,-566,0,0,0,0,0,0,0,0,0,-1,1224,1590,0,0
7,-566,0,0,0,0,0,0,0,0,0,-1,1231,1590,0,0
14,-566,0,0,0,0,0,0,0,0,0,-1,1238,1590,0,0
21,-566,0,0,0,0,0,0,0,0,0,-1,1245,1590,0,0
28,-566,0,0,0,0,0,0,0,0,0,-1,1252,1590,0,0
35,-566,0,0,0,0,0,0,0,0,0,-1,1259,1590,0,0
42,-566,0,0,0,0,0,0,0,0,0,-1,1266,1590,0,0
49,-566,0,0,0,0,0,0,0,0,0,-1,1273,1590,0,0
56,-566,0,0,0,0,0,0,0,0,0,-1,1280,1590,0,0
63,-566,0,0,0,0,0,0,0,0,0,-1,1287,1590,0,0
70,-566,0,0,0,0,0,0,0,0,0,-1,1294,1590,0,0
77,-566,0,0,0,0,0,0,0,0,0,-1,1301,1590,0,0
84,-566,0,0,0,0,0,0,0,0,0,-1,1308,1590,0,0
91,-566,0,0,0,0,0,0,0,0,0,-1,1315,1590,0,0
98,-566,0,0,0,0,0,0,0,0,0,-1,1322,1590,0,0
105,-566,0,0,0,0,0,0,0,0,0,-1,1329,1590,0,0
112,-566,0,0,0,0,0,0,0,0,0,-1,1336,1590,0,0
119,-566,0,0,0,0,0,0,0,0,0,-1,1343,1590,0,0
126,-566,0,0,0,0,0,0,0,0,0,-1,1350,1590,0,0
133,-566,0,0,0,0,0,0,0,0,0,-1,1357,1590,0,0
140,-566,0,0,0,0,0,0,0,0,0,-1,1364,1590,0,0
147,-566,0,0,0,0,0,0,0,0,0,-1,1371,1590,0,0
154,-566,0,0,0,0,0,0,0,0,0,-1,1378,1590,0,0
161,-566,0,0,0,0,0,0,0,0,0,-1,1385,1590,0,0
168,-566,0,0,0,0,0,0,0,0,0,-1,1392,1590,0,0
175,-566,0,0,0,0,0,0,0,0,0,-1,1399,1590,0,0
182,-566,0,0,0,0,0,0,0,0,0,-1,1406,1590,0,0
189,-566,0,0,0,0,0,0,0,0,0,-1,1413,1590,0,0
196,-566,0,0,0,0,0,0,0,0,0,-1,1420,1590,0,0
203,-566,0,0,0,0,0,0,0,0,0,-1,1427,1590,0,0
210,-566,0,0,0,0,0,0,0,0,0,-1,1434,1590,0,0
217,-566,0,0,0,0,0,0,0,0,0,-1,1441,1590,0,0
224,-566,0,0,0,0,0,0,0,0,0,-1,1448,1590,0,0
231,-566,0,0,0,0,0,0,0,0,0,-1,1455,1590,0,0
238,-566,0,0,0,0,0,0,0,0,0,-1,1462,1590,0,0
245,-566,0,0,0,0,0,0,0,0,0,-1,1469,1590,0,0
252,-566,0,0,0,0,0,0,0,0,0,-1,1476,1590,0,0
259,-566,0,0,0,0,0,0,0,0,0,-1,1483,1590,0,0
266,-566,0,0,0,0,0,0,0,0,0,-1,1490,1590,0,0
273,-566,0,0,0,0,0,0,0,0,0,-1,1497,1590,0,0
280,-566,0,0,0,0,0,0,0,0,0,-1,1504,1590,0,0
287,-566,0,0,0,0,0,0,0,0,0,-1,1511,1590,0,0
294,-566,0,0,0,0,0,0,0,0,0,-1,1518,1590,0,0
301,-566,0,0,0,0,0,0,0,0,0,-1,1525,1590,0,0
308,-566,0,0,0,0,0,0,0,0,0,-1,1532,1590,0,0
315,-566,0,0,0,0,0,0,0,0,0,-1,1539,1590,0,0
322,-566,1.45068,4.32202,0,0,0,0,0,0,0,-1,1546,1590,1.45068,-4.32198
329,-566,1.77551,3.96851,0,0,0,0,0,0,0,-1,1553,1590,1.77554,-3.96845
336,-566,5.35486,3.97852,0,0,0,0,0,0,0,-1,1560,1590,5.35481,-3.97846
343,-566,4.85181,3.34583,0,0,0,0,0,0,0,-1,1567,1590,4.85178,-3.34579
350,-566,4.32666,2.5553,0,0,0,0,0,0,0,-1,1574,1590,4.32671,-2.55536
357,-566,4.54614,2.24365,0,0,0,0,0,0,0,-1,1581,1590,4.5461,-2.2436
364,-566,4.39465,2.21729,0,0,0,0,0,0,0,-1,1588,1590,4.39464,-2.21725
371,-566,4.15552,2.19336,0,0,0,0,0,0,0,-1,1595,1590,4.15554,-2.19335
378,-566,3.22852,2.12439,-0.0275736,0.0734337,0.00820728,0.0740962,-0.0282362,1.49025,0.0610272,0.0460347,1602,1590,3.22852,-2.12436
385,-566,2.61768,2.11023,-0.0271275,0.0660359,0.00728166,0.0666016,-0.0276932,1.49326,0.0559646,0.0475107,1609,1590,2.61773,-2.11025
392,-566,2.49683,1.63098,0,0,0,0,0,0,0,-1,1616,1590,2.49677,-1.63093
399,-566,2.32483,1.37891,-0.0221336,0.0511175,0.000343601,0.0511191,-0.0221352,1.56611,0.0433829,0.0439854,1623,1590,2.32483,-1.37891
406,-566,2.11475,1.39832,-0.0181654,0.0436738,-0.00346886,0.0438678,-0.0183594,-1.51494,0.0369193,0.0460547,1630,1590,2.11478,-1.39834
413,-566,2.11609,1.39905,0,0,0,0,0,0,0,-1,1637,1590,2.11611,-1.399
420,-566,2.02271,3.16589,0,0,0,0,0,0,0,-1,1644,1590,2.02276,-3.16584
427,-566,2.09937,3.20789,-0.00735066,0.0204313,-0.0123687,0.0251399,-0.0120592,-1.20705,0.021915,0.0444511,1651,1590,2.09938,-3.20783
434,-566,1.95471,2.44299,-0.00362913,0.0144379,-0.0125655,0.02088,-0.0100713,-1.09705,0.0182294,0.0446794,1658,1590,1.95477,-2.44299
441,-566,2.06494,2.18433,-0.000953673,0.0101106,-0.0118104,0.0176203,-0.00846342,-1.00443,0.0153657,0.0391165,1665,1590,2.06491,-2.18429
448,-566,2.20154,1.91565,0.000370746,0.00696262,-0.0101079,0.0142983,-0.00696496,-0.943001,0.0125174,0.0321618,1672,1590,2.20156,-1.91562
455,-566,2.3584,1.94055,0.0012603,0.00534065,-0.00785502,0.0114161,-0.00481517,-0.912455,0.00962598,0.0200135,1679,1590,2.35841,-1.94057
462,-566,2.39697,1.91589,0.00181061,0.0018908,-0.00605978,0.00791062,-0.0042092,-0.788706,0.00710532,0.013353,1686,1590,2.39702,-1.91592
469,-566,2.41418,1.88098,0.00220518,0.000749581,-0.00424942,0.00578868,-0.00283392,-0.700586,0.00507475,0.0120383,1693,1590,2.41419,-1.88104
476,-566,2.4176,1.82092,0.00207432,0.000223726,-0.00242154,0.00374133,-0.00144328,-0.602903,0.0030898,0.0103322,1700,1590,2.41755,-1.8209
483,-566,2.41064,1.78711,0.0018531,-0.000239276,-0.0008082,0.00212892,-0.000515092,-0.328879,0.00161853,0.0107391,1707,1590,2.41066,-1.78706
490,-566,2.40735,1.78455,0.00199513,-0.000105242,-0.000216149,0.00201714,-0.000127255,-0.101493,0.00138912,0.0104132,1714,1590,2.40739,-1.7845
497,-566,2.42297,1.75354,0.00218161,3.31947e-05,8.60396e-06,0.00218165,3.31602e-05,0.00400471,0.0014435,0.0137606,1721,1590,2.42294,-1.7535
504,-566,2.44653,1.72119,0.00224908,0.000633514,-0.000191716,0.00227152,0.000611075,-0.116512,0.00135731,0.0196828,1728,1590,2.44656,-1.72121
511,-566,2.42175,1.68323,0.00238167,0.00117002,-0.000782564,0.0027655,0.00078618,-0.456007,0.00164545,0.0183108,1735,1590,2.42173,-1.68326
518,-566,2.43506,1.66809,0.00324709,0.00186066,-0.00216129,0.00482362,0.000284133,-0.630211,0.00312534,0.011901,1742,1590,2.435,-1.66813
525,-566,2.41077,1.60327,0.0039925,0.00275433,-0.0035559,0.00698281,-0.000235978,-0.699212,0.00473583,0.0120553,1749,1590,2.41072,-1.60323
532,-566,2.40576,1.5686,0.00314953,0.00389628,-0.00579155,0.00932648,-0.00228067,-0.817588,0.00710103,0.0134662,1756,1590,2.40575,-1.56861
539,-566,2.4093,1.55554,0.00176329,0.00592618,-0.00876526,0.0128537,-0.00516427,-0.901971,0.0107138,0.0154621,1763,1590,2.4093,-1.5556
546,-566,2.38806,1.48975,0.000377777,0.00788562,-0.0122032,0.0168993,-0.00863586,-0.934613,0.0149978,0.0133355,1770,1590,2.38805,-1.48977
553,-566,2.36523,1.4668,-0.00201437,0.0108135,-0.0164446,0.0220507,-0.0132516,-0.971341,0.0205918,0.0197872,1777,1590,2.36519,-1.46685
560,-566,2.2981,1.43311,-0.00542457,0.015553,-0.0214849,0.0289727,-0.0188443,-1.01248,0.0278128,0.0334631,1784,1590,2.2981,-1.43313
567,-566,2.22949,1.37158,0,0,0,0,0,0,0,-1,1791,1590,2.22955,-1.37159
574,-566,2.67175,1.25806,0,0,0,0,0,0,0,-1,1798,1590,2.67171,-1.258
581,-566,0.166016,1.2113,-0.0100303,0.0327593,-0.0317202,0.0496255,-0.0268965,-1.0821,0.0448249,0.0444744,1805,1590,0.166013,-1.21132
588,-566,-0.700439,1.06519,-0.0102796,0.0390256,-0.0332679,0.0557796,-0.0270336,-1.10427,0.0487629,0.0459459,1812,1590,-0.700476,-1.06523
595,-566,-1.32654,0.712402,0,0,0,0,0,0,0,-1,1819,1590,-1.32651,-0.712352
602,-566,2.58423,-1.3689,0,0,0,0,0,0,0,-1,1826,1590,2.58421,1.36888
609,-566,0,0,0,0,0,0,0,0,0,-1,1833,1590,0,0
616,-566,0,0,0,0,0,0,0,0,0,-1,1840,1590,0,0
623,-566,0,0,0,0,0,0,0,0,0,-1,1847,1590,0,0
630,-566,0,0,0,0,0,0,0,0,0,-1,1854,1590,0,0
637,-566,0,0,0,0,0,0,0,0,0,-1,1861,1590,0,0
644,-566,0,0,0,0,0,0,0,0,0,-1,1868,1590,0,0
651,-566,0,0,0,0,0,0,0,0,0,-1,1875,1590,0,0
658,-566,0,0,0,0,0,0,0,0,0,-1,1882,1590,0,0
665,-566,0,0,0,0,0,0,0,0,0,-1,1889,1590,0,0
672,-566,0,0,0,0,0,0,0,0,0,-1,1896,1590,0,0
679,-566,0,0,0,0,0,0,0,0,0,-1,1903,1590,0,0
686,-566,0,0,0,0,0,0,0,0,0,-1,1910,1590,0,0
693,-566,0,0,0,0,0,0,0,0,0,-1,1917,1590,0,0
700,-566,0,0,0,0,0,0,0,0,0,-1,1924,1590,0,0
707,-566,0,0,0,0,0,0,0,0,0,-1,1931,1590,0,0
714,-566,0,0,0,0,0,0,0,0,0,-1,1938,1590,0,0
721,-566,0,0,0,0,0,0,0,0,0,-1,1945,1590,0,0
728,-566,0,0,0,0,0,0,0,0,0,-1,1952,1590,0,0
735,-566,0,0,0,0,0,0,0,0,0,-1,1959,1590,0,0
742,-566,0,0,0,0,0,0,0,0,0,-1,1966,1590,0,0
749,-566,0,0,0,0,0,0,0,0,0,-1,1973,1590,0,0
756,-566,0,0,0,0,0,0,0,0,0,-1,1980,1590,0,0
763,-566,0,0,0,0,0,0,0,0,0,-1,1987,1590,0,0
770,-566,0,0,0,0,0,0,0,0,0,-1,1994,1590,0,0
777,-566,0,0,0,0,0,0,0,0,0,-1,2001,1590,0,0
784,-566,0,0,0,0,0,0,0,0,0,-1,2008,1590,0,0
791,-566,0,0,0,0,0,0,0,0,0,-1,2015,1590,0,0
798,-566,0,0,0,0,0,0,0,0,0,-1,2022,1590,0,0
805,-566,0,0,0,0,0,0,0,0,0,-1,2029,1590,0,0
812,-566,0,0,0,0,0,0,0,0,0,-1,2036,1590,0,0
-700,-573,0,0,0,0,0,0,0,0,0,-1,524,1597,0,0
-693,-573,0,0,0,0,0,0,0,0,0,-1,531,1597,0,0
-686,-573,0,0,0,0,0,0,0,0,0,-1,538,1597,0,0
-679,-573,0,0,0,0,0,0,0,0,0,-1,545,1597,0,0
-672,-573,0,0,0,0,0,0,0,0,0,-1,552,1597,0,0
-665,-573,0,0,0,0,0,0,0,0,0,-1,559,1597,0,0
-658,-573,0,0,0,0,0,0,0,0,0,-1,566,1597,0,0
-651,-573,0,0,0,0,0,0,0,0,0,-1,573,1597,0,0
-644,-573,0,0,0,0,0,0,0,0,0,-1,580,1597,0,0
-637,-573,0,0,0,0,0,0,0,0,0,-1,587,1597,0,0
-630,-573,0,0,0,0,0,0,0,0,0,-1,594,1597,0,0
-623,-573,0,0,0,0,0,0,0,0,0,-1,601,1597,0,0
-616,-573,0,0,0,0,0,0,0,0,0,-1,608,1597,0,0
-609,-573,0,0,0,0,0,0,0,0,0,-1,615,1597,0,0
-602,-573,0,0,0,0,0,0,0,0,0,-1,622,1597,0,0
-595,-573,0,0,0,0,0,0,0,0,0,-1,629,1597,0,0
-588,-573,0,0,0,0,0,0,0,0,0,-1,636,1597,0,0
-581,-573,0,0,0,0,0,0,0,0,0,-1,643,1597,0,0
-574,-573,0,0,0,0,0,0,0,0,0,-1,650,1597,0,0
-567,-573,0,0,0,0,0,0,0,0,0,-1,657,1597,0,0
-560,-573,0,0,0,0,0,0,0,0,0,-1,664,1597,0,0
-553,-573,0,0,0,0,0,0,0,0,0,-1,671,1597,0,0
-546,-573,0,0,0,0,0,0,0,0,0,-1,678,1597,0,0
-539,-573,0,0,0,0,0,0,0,0,0,-1,685,1597,0,0
-532,-573,0,0,0,0,0,0,0,0,0,-1,692,1597,0,0
-525,-573,0,0,0,0,0,0,0,0,0,-1,699,1597,0,0
-518,-573,0,0,0,0,0,0,0,0,0,-1,706,1597,0,0
-511,-573,0,0,0,0,0,0,0,0,0,-1,713,1597,0,0
-504,-573,0,0,0,0,0,0,0,0,0,-1,720,1597,0,0
-497,-573,0,0,0,0,0,0,0,0,0,-1,727,1597,0,0
-490,-573,0,0,0,0,0,0,0,0,0,-1,734,1597,0,0
-483,-573,0,0,0,0,0,0,0,0,0,-1,741,1597,0,0
-476,-573,3.43585,2.29639,-0.036164,-0.00938752,-0.0298,0.00989355,-0.0554451,-0.996522,0.0406644,0.0456445,748,1597,3.43586,-2.29644
-469,-573,1.6651,1.83191,-0.0359153,-0.0039429,-0.0240216,0.00892563,-0.0487839,-1.07899,0.0358699,0.0422184,755,1597,1.66508,-1.83196
-462,-573,1.54016,1.74609,-0.0336335,-0.00299339,-0.0175963,0.00501749,-0.0416444,-1.14358,0.0295776,0.0452248,762,1597,1.54018,-1.7461
-455,-573,1.51733,1.54297,-0.029459,-0.0013534,-0.0123884,0.00332757,-0.03414,-1.20953,0.0239464,0.0475552,769,1597,1.51736,-1.54299
-448,-573,1.80737,1.98596,0,0,0,0,0,0,0,-1,776,1597,1.80739,-1.98598
-441,-573,1.47375,2.25806,0,0,0,0,0,0,0,-1,783,1597,1.47374,-2.258
-434,-573,0.919067,2.13721,0,0,0,0,0,0,0,-1,790,1597,0.919089,-2.13721
-427,-573,0.938232,1.87122,-0.00977954,0.00230028,0.000389847,0.00231285,-0.0097921,1.53857,0.00742016,0.0445913,797,1597,0.938214,-1.87116
-420,-573,1.20032,1.58533,-0.00427684,0.00302244,0.0019462,0.00350893,-0.00476332,1.32585,0.00479425,0.0378911,804,1597,1.20034,-1.5853
-413,-573,1.28943,1.59644,-0.00137176,0.00243886,0.00211912,0.00338326,-0.00231616,1.15156,0.00330973,0.02756,811,1597,1.28942,-1.59641
-406,-573,1.3327,1.58789,-0.000252385,0.00211128,0.00201014,0.00326127,-0.00140238,1.05115,0.00276293,0.0137049,818,1597,1.33268,-1.58791
-399,-573,1.33325,1.63611,0.000147933,0.00149978,0.00176153,0.00271062,-0.00106291,0.968592,0.00224681,0.0100456,825,1597,1.33327,-1.63612
-392,-573,1.33765,1.67102,0.000445754,0.000814233,0.00121466,0.00185855,-0.000598564,0.860664,0.00147948,0.0106632,832,1597,1.33763,-1.67102
-385,-573,1.33453,1.70691,0.000857633,0.000415472,0.000651331,0.00132438,-5.12757e-05,0.621785,0.0009005,0.0130767,839,1597,1.33452,-1.70692
-378,-573,1.33673,1.74939,0.00104585,0.00010986,0.000277738,0.00112206,3.3651e-05,0.267799,0.00073708,0.0144375,846,1597,1.33672,-1.7494
-371,-573,1.3205,1.78931,0.00112365,-0.00041045,7.05087e-05,0.00112689,-0.000413683,0.0458321,0.000920672,0.0149248,853,1597,1.32049,-1.78928
-364,-573,1.31891,1.82935,0.00131468,-0.000949885,-0.000216861,0.00133526,-0.000970465,-0.094617,0.00133675,0.017094,860,1597,1.3189,-1.82931
-357,-573,1.34033,1.84387,0.00136402,-0.000560817,-0.000334497,0.00142049,-0.000617288,-0.167249,0.00120659,0.0203772,867,1597,1.34036,-1.84384
-350,-573,1.33295,1.85486,0.000390116,-1.60879e-05,-0.000316003,0.000562658,-0.00018863,-0.499778,0.000451319,0.0175639,874,1597,1.33297,-1.85485
-343,-573,1.34406,1.82996,-0.000401022,0.000953532,-0.000353254,0.00104012,-0.000487612,-1.33042,0.00090106,0.022337,881,1597,1.34408,-1.83002
-336,-573,1.36102,1.89282,4.95769e-06,0.00159104,-5.57228e-05,0.00159299,3.00241e-06,-1.53572,0.001061,0.0169213,888,1597,1.36102,-1.89286
-329,-573,1.35309,1.93933,0.000697529,0.00308701,0.000855814,0.0033619,0.000422636,1.26,0.00211451,0.0163545,895,1597,1.35308,-1.93938
-322,-573,1.36749,1.97717,0.000881097,0.00480227,0.00142566,0.00526582,0.000417553,1.25643,0.00337997,0.0118867,902,1597,1.36752,-1.97723
-315,-573,1.39221,2.00244,0.00122829,0.00645765,0.00195015,0.00710482,0.000581127,1.25038,0.00455521,0.0157651,909,1597,1.3922,-2.00245
-308,-573,1.36298,2.03088,0.00160342,0.00814135,0.00166852,0.00854255,0.00120223,1.33482,0.00533959,0.0242238,916,1597,1.36295,-2.03087
-301,-573,1.31659,2.03198,0.0021527,0.00936834,0.000760097,0.00944754,0.00207351,1.46697,0.00573356,0.0281766,923,1597,1.31661,-2.03199
-294,-573,1.38397,2.01257,0.00269951,0.0103045,-0.000144745,0.0103073,0.00269676,-1.55177,0.00617222,0.0322132,930,1597,1.38397,-2.01252
-287,-573,1.5766,1.94446,0.00274115,0.0103581,-0.0011081,0.0105161,0.00258322,-1.42923,0.0063279,0.0429886,937,1597,1.57657,-1.94444
-280,-573,2.43634,2.88684,0,0,0,0,0,0,0,-1,944,1597,2.43634,-2.88679
-273,-573,1.74475,3.02637,0.000892263,0.00838914,-0.00382106,0.00999339,-0.000711988,-1.1733,0.00691182,0.0453156,951,1597,1.74476,-3.02638
-266,-573,1.9375,2.55273,0.000415399,0.00523298,-0.00585726,0.00915742,-0.00350904,-0.980481,0.00755146,0.0478163,958,1597,1.93752,-2.55271
-259,-573,1.74225,2.13989,-0.0014402,0.00166106,-0.00780941,0.0080723,-0.00785143,-0.883403,0.00919386,0.047338,965,1597,1.74227,-2.1399
-252,-573,1.27142,1.51538,-0.00425199,-0.00228303,-0.00954365,0.00632679,-0.0128618,-0.836794,0.0112907,0.0477435,972,1597,1.2714,-1.51542
-245,-573,0.987732,1.73718,-0.00426523,-0.00440361,-0.0115202,0.00718602,-0.0158549,-0.782395,0.0136129,0.0497875,979,1597,0.987741,-1.73715
-238,-573,1.10944,1.54358,-0.00524984,-0.00574075,-0.0109071,0.00541452,-0.0164051,-0.774148,0.0131195,0.045077,986,1597,1.10943,-1.5436
-231,-573,-0.351013,2.59998,0,0,0,0,0,0,0,-1,993,1597,-0.351008,-2.59993
-224,-573,-0.0543213,2.57495,0,0,0,0,0,0,0,-1,1000,1597,-0.0543008,-2.57492
-217,-573,-2.37335,1.05005,0,0,0,0,0,0,0,-1,1007,1597,-2.37333,-1.05006
-210,-573,5.20331,-0.689575,0,0,0,0,0,0,0,-1,1014,1597,5.20331,0.689534
-203,-573,4.78418,-0.633911,-0.00990797,-0.016337,0.00508375,-0.0071077,-0.0191373,0.503478,0.01117,0.0442349,1021,1597,4.78423,0.633944
-196,-573,4.23376,-0.670898,0,0,0,0,0,0,0,-1,1028,1597,4.23375,0.670873
-189,-573,3.66589,-0.681274,0,0,0,0,0,0,0,-1,1035,1597,3.6659,0.681268
-182,-573,0,0,0,0,0,0,0,0,0,-1,1042,1597,0,0
-175,-573,0,0,0,0,0,0,0,0,0,-1,1049,1597,0,0
-168,-573,0,0,0,0,0,0,0,0,0,-1,1056,1597,0,0
-161,-573,0,0,0,0,0,0,0,0,0,-1,1063,1597,0,0
-154,-573,0,0,0,0,0,0,0,0,0,-1,1070,1597,0,0
-147,-573,0,0,0,0,0,0,0,0,0,-1,1077,1597,0,0
-140,-573,0,0,0,0,0,0,0,0,0,-1,1084,1597,0,0
-133,-573,0,0,0,0,0,0,0,0,0,-1,1091,1597,0,0
-126,-573,0,0,0,0,0,0,0,0,0,-1,1098,1597,0,0
-119,-573,0,0,0,0,0,0,0,0,0,-1,1105,1597,0,0
-112,-573,0,0,0,0,0,0,0,0,0,-1,1112,1597,0,0
-105,-573,0,0,0,0,0,0,0,0,0,-1,1119,1597,0,0
-98,-573,0,0,0,0,0,0,0,0,0,-1,1126,1597,0,0
-91,-573,0,0,0,0,0,0,0,0,0,-1,1133,1597,0,0
-84,-573,0,0,0,0,0,0,0,0,0,-1,1140,1597,0,0
-77,-573,0,0,0,0,0,0,0,0,0,-1,1147,1597,0,0
-70,-573,0,0,0,0,0,0,0,0,0,-1,1154,1597,0,0
-63,-573,0,0,0,0,0,0,0,0,0,-1,1161,1597,0,0
-56,-573,0,0,0,0,0,0,0,0,0,-1,1168,1597,0,0
-49,-573,0,0,0,0,0,0,0,0,0,-1,1175,1597,0,0
-42,-573,0,0,0,0,0,0,0,0,0,-1,1182,1597,0,0
-35,-573,0,0,0,0,0,0,0,0,0,-1,1189,1597,0,0
-28,-573,0,0,0,0,0,0,0,0,0,-1,1196,1597,0,0
-21,-573,0,0,0,0,0,0,0,0,0,-1,1203,1597,0,0
-14,-573,0,0,0,0,0,0,0,0,0,-1,1210,1597,0,0
-7,-573,0,0,0,0,0,0,0,0,0,-1,1217,1597,0,0
0,-573,0,0,0,0,0,0,0,0,0,-1,1224,1597,0,0
7,-573,0,0,0,0,0,0,0,0,0,-1,1231,1597,0,0
14,-573,0,0,0,0,0,0,0,0,0,-1,1238,1597,0,0
21,-573,0,0,0,0,0,0,0,0,0,-1,1245,1597,0,0
28,-573,0,0,0,0,0,0,0,0,0,-1,1252,1597,0,0
35,-573,0,0,0,0,0,0,0,0,0,-1,1259,1597,0,0
42,-573,0,0,0,0,0,0,0,0,0,-1,1266,1597,0,0
49,-573,0,0,0,0,0,0,0,0,0,-1,1273,1597,0,0
56,-573,0,0,0,0,0,0,0,0,0,-1,1280,1597,0,0
63,-573,0,0,0,0,0,0,0,0,0,-1,1287,1597,0,0
70,-573,0,0,0,0,0,0,0,0,0,-1,1294,1597,0,0
77,-573,0,0,0,0,0,0,0,0,0,-1,1301,1597,0,0
84,-573,0,0,0,0,0,0,0,0,0,-1,1308,1597,0,0
91,-573,0,0,0,0,0,0,0,0,0,-1,1315,1597,0,0
98,-573,0,0,0,0,0,0,0,0,0,-1,1322,1597,0,0
105,-573,0,0,0,0,0,0,0,0,0,-1,1329,1597,0,0
112,-573,0,0,0,0,0,0,0,0,0,-1,1336,1597,0,0
119,-573,0,0,0,0,0,0,0,0,0,-1,1343,1597,0,0
126,-573,0,0,0,0,0,0,0,0,0,-1,1350,1597,0,0
133,-573,0,0,0,0,0,0,0,0,0,-1,1357,1597,0,0
140,-573,0,0,0,0,0,0,0,0,0,-1,1364,1597,0,0
147,-573,0,0,0,0,0,0,0,0,0,-1,1371,1597,0,0
154,-573,0,0,0,0,0,0,0,0,0,-1,1378,1597,0,0
161,-573,0,0,0,0,0,0,0,0,0,-1,1385,1597,0,0
168,-573,0,0,0,0,0,0,0,0,0,-1,1392,1597,0,0
175,-573,0,0,0,0,0,0,0,0,0,-1,1399,1597,0,0
182,-573,0,0,0,0,0,0,0,0,0,-1,1406,1597,0,0
189,-573,0,0,0,0,0,0,0,0,0,-1,1413,1597,0,0
196,-573,0,0,0,0,0,0,0,0,0,-1,1420,1597,0,0
203,-573,0,0,0,0,0,0,0,0,0,-1,1427,1597,0,0
210,-573,0,0,0,0,0,0,0,0,0,-1,1434,1597,0,0
217,-573,0,0,0,0,0,0,0,0,0,-1,1441,1597,0,0
224,-573,0,0,0,0,0,0,0,0,0,-1,1448,1597,0,0
231,-573,0,0,0,0,0,0,0,0,0,-1,1455,1597,0,0
238,-573,0,0,0,0,0,0,0,0,0,-1,1462,1597,0,0
245,-573,0,0,0,0,0,0,0,0,0,-1,1469,1597,0,0
252,-573,0,0,0,0,0,0,0,0,0,-1,1476,1597,0,0
259,-573,0,0,0,0,0,0,0,0,0,-1,1483,1597,0,0
266,-573,0,0,0,0,0,0,0,0,0,-1,1490,1597,0,0
273,-573,0,0,0,0,0,0,0,0,0,-1,1497,1597,0,0
280,-573,0,0,0,0,0,0,0,0,0,-1,1504,1597,0,0
287,-573,0,0,0,0,0,0,0,0,0,-1,1511,1597,0,0
294,-573,0,0,0,0,0,0,0,0,0,-1,1518,1597,0,0
301,-573,0,0,0,0,0,0,0,0,0,-1,1525,1597,0,0
308,-573,-1.79126,-1.39197,0,0,0,0,0,0,0,-1,1532,1597,-1.79125,1.39201
315,-573,-1.41895,-1.37207,0,0,0,0,0,0,0,-1,1539,1597,-1.41899,1.37204
322,-573,1.69128,4.42285,0,0,0,0,0,0,0,-1,1546,1597,1.6913,-4.42281
329,-573,1.89063,3.80176,0,0,0,0,0,0,0,-1,1553,1597,1.89063,-3.80174
336,-573,2.77722,3.302,0,0,0,0,0,0,0,-1,1560,1597,2.77724,-3.30201
343,-573,2.96899,2.67834,0,0,0,0,0,0,0,-1,1567,1597,2.96903,-2.67829
350,-573,3.50781,2.20349,0,0,0,0,0,0,0,-1,1574,1597,3.50781,-2.20348
357,-573,4.06079,1.55713,0,0,0,0,0,0,0,-1,1581,1597,4.06083,-1.55713
364,-573,3.73706,1.55737,-0.0226705,0.0732105,0.0049034,0.0734606,-0.0229206,1.51983,0.05814,0.0481466,1588,1597,3.73706,-1.55734
371,-573,3.33813,1.41113,-0.0226105,0.0685148,0.00620447,0.0689353,-0.023031,1.50313,0.0552576,0.0453566,1595,1597,3.33811,-1.41114
378,-573,2.82654,1.39551,-0.0219522,0.0628036,0.00548969,0.0631577,-0.0223063,1.50638,0.0511871,0.0463306,1602,1597,2.82657,-1.3955
385,-573,1.97644,1.33472,-0.0213614,0.0563909,0.00539366,0.0567632,-0.0217338,1.50187,0.0468003,0.0448076,1609,1597,1.97641,-1.33466
392,-573,2.80298,2.49768,0,0,0,0,0,0,0,-1,1616,1597,2.80296,-2.4977
399,-573,2.47937,2.11462,-0.0164466,0.0439266,0.000580102,0.0439322,-0.0164522,1.56119,0.0360462,0.046104,1623,1597,2.47933,-2.11459
406,-573,2.09692,1.87329,-0.012701,0.0376628,-0.0024508,0.0377817,-0.01282,-1.52229,0.0303767,0.0457889,1630,1597,2.09688,-1.87331
413,-573,2.07703,1.66199,-0.00895726,0.0311099,-0.00546012,0.0318407,-0.00968801,-1.43775,0.0250879,0.049011,1637,1597,2.07707,-1.66193
420,-573,2.19543,2.75867,-0.00572187,0.024297,-0.00819536,0.0263887,-0.00781351,-1.32091,0.0206946,0.0471086,1644,1597,2.19548,-2.75868
427,-573,2.13342,2.49634,-0.0029756,0.018267,-0.0101186,0.0223153,-0.0070239,-1.19021,0.0176893,0.0426501,1651,1597,2.13344,-2.49639
434,-573,2.21545,2.15027,5.49197e-06,0.0131804,-0.0103082,0.0188263,-0.00564037,-1.06972,0.0147938,0.0375133,1658,1597,2.21544,-2.15026
441,-573,2.36963,2.0282,0.00193004,0.00938783,-0.00979277,0.0161376,-0.00481976,-0.967312,0.0126743,0.024095,1665,1597,2.36958,-2.02815
448,-573,2.34814,1.97632,0.00256488,0.00656871,-0.00849824,0.0132976,-0.00416406,-0.901073,0.0105312,0.0154637,1672,1597,2.34816,-1.97635
455,-573,2.37622,1.9425,0.00290179,0.00509707,-0.0067331,0.0108214,-0.00282255,-0.866198,0.00831635,0.0144183,1679,1597,2.37616,-1.94253
462,-573,2.36304,1.90588,0.00301301,0.00196951,-0.00535094,0.00786758,-0.00288506,-0.736799,0.00642636,0.0180854,1686,1597,2.36303,-1.90593
469,-573,2.36707,1.86157,0.00297135,0.000869221,-0.00395254,0.00601019,-0.00216962,-0.655445,0.00489306,0.0149194,1693,1597,2.36712,-1.86158
476,-573,2.38916,1.79858,0.00251947,0.000226849,-0.00255217,0.00417095,-0.00142463,-0.574324,0.0033578,0.0138846,1700,1597,2.38912,-1.79856
483,-573,2.3728,1.78821,0.00216737,-0.000231968,-0.00125227,0.00270188,-0.000766479,-0.403423,0.00210382,0.0113662,1707,1597,2.37282,-1.78825
490,-573,2.3689,1.78125,0.0022738,2.87652e-05,-0.00070664,0.0024777,-0.000175135,-0.280919,0.00171317,0.00997156,1714,1597,2.36887,-1.78124
497,-573,2.37378,1.75769,0.00253684,0.000339241,-0.000618043,0.00269873,0.000177352,-0.256184,0.00174305,0.0150075,1721,1597,2.37384,-1.75775
504,-573,2.40466,1.698,0.00277082,0.00106258,-0.000912075,0.00316627,0.000667143,-0.4091,0.00192734,0.0167398,1728,1597,2.40465,-1.698
511,-573,2.4176,1.63611,0.00319102,0.0016699,-0.00159673,0.00419907,0.000661843,-0.563135,0.00260692,0.0172253,1735,1597,2.41763,-1.63609
518,-573,2.40308,1.61987,0.00445362,0.00243914,-0.00330353,0.00690005,-7.29109e-06,-0.637426,0.00460247,0.0140244,1742,1597,2.40307,-1.6199
525,-573,2.39709,1.59265,0.00558967,0.00360409,-0.00503775,0.00973152,-0.000537761,-0.68811,0.00667416,0.017845,1749,1597,2.39704,-1.59271
532,-573,2.37769,1.57129,0.00492805,0.00507374,-0.00780678,0.012808,-0.00280623,-0.790064,0.00961162,0.0160075,1756,1597,2.37768,-1.5713
539,-573,2.39099,1.55652,0.0036702,0.0075753,-0.0115316,0.0173185,-0.00607295,-0.869264,0.0140156,0.0152393,1763,1597,2.39105,-1.55646
546,-573,2.36182,1.51489,0.00235403,0.010004,-0.0159248,0.0225567,-0.0101987,-0.903261,0.0193548,0.0206092,1770,1597,2.36182,-1.51488
553,-573,2.25769,1.39893,-0.000201066,0.0134328,-0.0213632,0.0290403,-0.0158086,-0.93984,0.0262664,0.0339211,1777,1597,2.25774,-1.39888
560,-573,2.15979,1.36133,-0.00403492,0.0186731,-0.0277286,0.0372823,-0.0226441,-0.979719,0.0349409,0.0454284,1784,1597,2.15976,-1.36129
567,-573,1.79932,1.18311,0,0,0,0,0,0,0,-1,1791,1597,1.79936,-1.18305
574,-573,1.28198,1.00671,0,0,0,0,0,0,0,-1,1798,1597,1.28193,-1.00676
581,-573,0.633057,0.98999,-0.0128795,0.0396367,-0.042944,0.0637142,-0.036957,-1.0598,0.0588029,0.041099,1805,1597,0.633078,-0.990012
588,-573,-0.202759,0.676514,-0.0143706,0.0481169,-0.0459688,0.0724546,-0.0387083,-1.08387,0.0651583,0.0480185,1812,1597,-0.202721,-0.676559
595,-573,-1.00159,0.34314,0,0,0,0,0,0,0,-1,1819,1597,-1.0016,-0.3431
602,-573,0,0,0,0,0,0,0,0,0,-1,1826,1597,0,0
609,-573,0,0,0,0,0,0,0,0,0,-1,1833,1597,0,0
616,-573,0,0,0,0,0,0,0,0,0,-1,1840,1597,0,0
623,-573,0,0,0,0,0,0,0,0,0,-1,1847,1597,0,0
630,-573,0,0,0,0,0,0,0,0,0,-1,1854,1597,0,0
637,-573,0,0,0,0,0,0,0,0,0,-1,1861,1597,0,0
644,-573,0,0,0,0,0,0,0,0,0,-1,1868,1597,0,0
651,-573,0,0,0,0,0,0,0,0,0,-1,1875,1597,0,0
658,-573,0,0,0,0,0,0,0,0,0,-1,1882,1597,0,0
665,-573,0,0,0,0,0,0,0,0,0,-1,1889,1597,0,0
672,-573,0,0,0,0,0,0,0,0,0,-1,1896,1597,0,0
679,-573,0,0,0,0,0,0,0,0,0,-1,1903,1597,0,0
686,-573,0,0,0,0,0,0,0,0,0,-1,1910,1597,0,0
693,-573,0,0,0,0,0,0,0,0,0,-1,1917,1597,0,0
700,-573,0,0,0,0,0,0,0,0,0,-1,1924,1597,0,0
707,-573,0,0,0,0,0,0,0,0,0,-1,1931,1597,0,0
714,-573,0,0,0,0,0,0,0,0,0,-1,1938,1597,0,0
721,-573,0,0,0,0,0,0,0,0,0,-1,1945,1597,0,0
728,-573,0,0,0,0,0,0,0,0,0,-1,1952,1597,0,0
735,-573,0,0,0,0,0,0,0,0,0,-1,1959,1597,0,0
742,-573,0,0,0,0,0,0,0,0,0,-1,1966,1597,0,0
749,-573,0,0,0,0,0,0,0,0,0,-1,1973,1597,0,0
756,-573,0,0,0,0,0,0,0,0,0,-1,1980,1597,0,0
763,-573,0,0,0,0,0,0,0,0,0,-1,1987,1597,0,0
770,-573,0,0,0,0,0,0,0,0,0,-1,1994,1597,0,0
777,-573,0,0,0,0,0,0,0,0,0,-1,2001,1597,0,0
784,-573,0,0,0,0,0,0,0,0,0,-1,2008,1597,0,0
791,-573,0,0,0,0,0,0,0,0,0,-1,2015,1597,0,0
798,-573,0,0,0,0,0,0,0,0,0,-1,2022,1597,0,0
805,-573,0,0,0,0,0,0,0,0,0,-1,2029,1597,0,0
812,-573,0,0,0,0,0,0,0,0,0,-1,2036,1597,0,0
-700,-580,0,0,0,0,0,0,0,0,0,-1,524,1604,0,0
-693,-580,0,0,0,0,0,0,0,0,0,-1,531,1604,0,0
-686,-580,0,0,0,0,0,0,0,0,0,-1,538,1604,0,0
-679,-580,0,0,0,0,0,0,0,0,0,-1,545,1604,0,0
-672,-580,0,0,0,0,0,0,0,0,0,-1,552,1604,0,0
-665,-580,0,0,0,0,0,0,0,0,0,-1,559,1604,0,0
-658,-580,0,0,0,0,0,0,0,0,0,-1,566,1604,0,0
-651,-580,0,0,0,0,0,0,0,0,0,-1,573,1604,0,0
-644,-580,0,0,0,0,0,0,0,0,0,-1,580,1604,0,0
-637,-580,0,0,0,0,0,0,0,0,0,-1,587,1604,0,0
-630,-580,0,0,0,0,0,0,0,0,0,-1,594,1604,0,0
-623,-580,0,0,0,0,0,0,0,0,0,-1,601,1604,0,0
-616,-580,0,0,0,0,0,0,0,0,0,-1,608,1604,0,0
-609,-580,0,0,0,0,0,0,0,0,0,-1,615,1604,0,0
-602,-580,0,0,0,0,0,0,0,0,0,-1,622,1604,0,0
-595,-580,0,0,0,0,0,0,0,0,0,-1,629,1604,0,0
-588,-580,0,0,0,0,0,0,0,0,0,-1,636,1604,0,0
-581,-580,0,0,0,0,0,0,0,0,0,-1,643,1604,0,0
-574,-580,0,0,0,0,0,0,0,0,0,-1,650,1604,0,0
-567,-580,0,0,0,0,0,0,0,0,0,-1,657,1604,0,0
-560,-580,0,0,0,0,0,0,0,0,0,-1,664,1604,0,0
-553,-580,0,0,0,0,0,0,0,0,0,-1,671,1604,0,0
-546,-580,0,0,0,0,0,0,0,0,0,-1,678,1604,0,0
-539,-580,0,0,0,0,0,0,0,0,0,-1,685,1604,0,0
-532,-580,0,0,0,0,0,0,0,0,0,-1,692,1604,0,0
-525,-580,0,0,0,0,0,0,0,0,0,-1,699,1604,0,0
-518,-580,0,0,0,0,0,0,0,0,0,-1,706,1604,0,0
-511,-580,0,0,0,0,0,0,0,0,0,-1,713,1604,0,0
-504,-580,0,0,0,0,0,0,0,0,0,-1,720,1604,0,0
-497,-580,0,0,0,0,0,0,0,0,0,-1,727,1604,0,0
-490,-580,0,0,0,0,0,0,0,0,0,-1,734,1604,0,0
-483,-580,0,0,0,0,0,0,0,0,0,-1,741,1604,0,0
-476,-580,0,0,0,0,0,0,0,0,0,-1,748,1604,0,0
-469,-580,1.7179,1.16272,0,0,0,0,0,0,0,-1,755,1604,1.71791,-1.1627
-462,-580,1.53796,1.80066,0,0,0,0,0,0,0,-1,762,1604,1.53798,-1.80066
-455,-580,1.49829,1.60144,0,0,0,0,0,0,0,-1,769,1604,1.49827,-1.60139
-448,-580,-0.328979,0.16626,0,0,0,0,0,0,0,-1,776,1604,-0.328992,-0.166248
-441,-580,1.60883,2.43982,0,0,0,0,0,0,0,-1,783,1604,1.6088,-2.43977
-434,-580,1.37225,1.55664,0,0,0,0,0,0,0,-1,790,1604,1.37228,-1.55659
-427,-580,1.3421,1.4762,-0.0113083,0.00333226,0.00225452,0.00367158,-0.0116476,1.42141,0.00923552,0.0431198,797,1604,1.34212,-1.47616
-420,-580,1.38843,1.41101,-0.00492584,0.00360912,0.00376555,0.00503292,-0.00634964,1.2093,0.00658637,0.043893,804,1604,1.38844,-1.41102
-413,-580,1.37268,1.49402,-0.001562,0.00251361,0.00373472,0.0047303,-0.00377869,1.03514,0.0049229,0.0435935,811,1604,1.37267,-1.49403
-406,-580,1.32117,1.63538,-0.000185247,0.00175097,0.00331673,0.004238,-0.00267227,0.927396,0.00402364,0.0332602,818,1604,1.32119,-1.63536
-399,-580,1.39056,1.63416,0.000452207,0.000871398,0.00274305,0.00341285,-0.00208924,0.823529,0.00320712,0.0145493,825,1604,1.39055,-1.6341
-392,-580,1.39508,1.66443,0.000904326,2.383e-05,0.00185574,0.00237133,-0.00144317,0.668934,0.00222393,0.0105637,832,1604,1.39511,-1.66443
-385,-580,1.38989,1.70276,0.00120747,-0.000433723,0.00101229,0.00168999,-0.00091624,0.444802,0.00152665,0.0112062,839,1604,1.38989,-1.70278
-378,-580,1.37354,1.75574,0.00115446,-0.000664036,0.000353908,0.00122091,-0.000730484,0.185594,0.00113844,0.0141688,846,1604,1.37357,-1.75569
-371,-580,1.35907,1.79126,0.00100694,-0.00125844,2.30864e-05,0.00100717,-0.00125868,0.0101896,0.00131087,0.0129228,853,1604,1.35906,-1.79124
-364,-580,1.35803,1.80505,0.000805103,-0.00176791,-0.000357033,0.000853726,-0.00181653,-0.135354,0.00157473,0.0179001,860,1604,1.35801,-1.8051
-357,-580,1.38867,1.83191,0.000351612,-0.00108855,-0.000577406,0.000554522,-0.00129146,-0.337937,0.00109372,0.0138963,867,1604,1.38867,-1.83196
-350,-580,1.41754,1.87646,-0.000792187,-0.00050477,-0.000509763,-0.000118846,-0.00117811,-0.922789,0.000748942,0.0116826,874,1604,1.41752,-1.87651
-343,-580,1.40784,1.87744,-0.00170013,0.000339607,-0.000489578,0.000451029,-0.00181155,-1.34702,0.00138278,0.0110695,881,1604,1.40786,-1.87744
-336,-580,1.41125,1.86682,-0.00159072,0.000883572,-0.000108794,0.000888347,-0.00159549,-1.52694,0.00145329,0.0184823,888,1604,1.41126,-1.86683
-329,-580,1.40204,1.91638,-0.00104812,0.0020853,0.000829308,0.00229125,-0.00125407,1.32738,0.00207589,0.0182176,895,1604,1.40202,-1.91633
-322,-580,1.39105,1.95789,-0.000753292,0.00344873,0.00144252,0.00389627,-0.00120083,1.26996,0.00307692,0.0182013,902,1604,1.39103,-1.95783
-315,-580,1.37939,2.02197,-0.000209147,0.00471737,0.00196383,0.00540439,-0.00089617,1.23427,0.00393581,0.0140597,909,1604,1.3794,-2.02191
-308,-580,1.36835,2.05249,0.000461942,0.00593849,0.00178211,0.00646734,-6.69025e-05,1.28232,0.00433403,0.0154288,916,1604,1.36832,-2.05249
-301,-580,1.37604,2.03503,0.00132283,0.00677564,0.00104357,0.00696854,0.00112993,1.38802,0.00431861,0.0140905,923,1604,1.37602,-2.03507
-294,-580,1.37408,2.03284,0.00214164,0.00736639,0.000239401,0.00737734,0.0021307,1.5251,0.00438412,0.0190478,930,1604,1.3741,-2.0328
-287,-580,1.43903,2.05139,0.00240624,0.00730665,-0.000643014,0.00738962,0.00232327,-1.44247,0.00436328,0.0381254,937,1604,1.43904,-2.0514
-280,-580,1.84601,2.57397,0.00206297,0.00658234,-0.00159893,0.00709083,0.00155449,-1.2629,0.00430368,0.0416892,944,1604,1.84599,-2.57395
-273,-580,1.87628,2.93359,0.0016275,0.00564729,-0.003105,0.00733614,-6.13476e-05,-1.07264,0.00491133,0.0432322,951,1604,1.87628,-2.93357
-266,-580,1.86957,2.9895,0.00148207,0.0029753,-0.00506272,0.00734616,-0.0028888,-0.858607,0.00609309,0.0451869,958,1604,1.86955,-2.98945
-259,-580,1.56641,2.44519,4.44533e-05,9.80448e-05,-0.00691473,0.00698603,-0.00684353,-0.787336,0.00798464,0.0448213,965,1604,1.5664,-2.44518
-252,-580,1.28094,1.61938,-0.00215409,-0.00327385,-0.00851869,0.0058231,-0.011251,-0.752583,0.0100224,0.0480375,972,1604,1.28092,-1.61943
-245,-580,1.23535,1.43945,-0.00180602,-0.00465872,-0.0105319,0.00739572,-0.0138605,-0.718092,0.01246,0.047201,979,1604,1.23537,-1.43943
-238,-580,1.12897,1.328,-0.00196099,-0.00503714,-0.0099303,0.00654964,-0.0135478,-0.708565,0.0118354,0.0496563,986,1604,1.12897,-1.32799
-231,-580,1.07416,1.22021,0,0,0,0,0,0,0,-1,993,1604,1.07414,-1.22021
-224,-580,-1.13354,0.693848,0,0,0,0,0,0,0,-1,1000,1604,-1.13353,-0.693846
-217,-580,-1.8139,0.473755,0,0,0,0,0,0,0,-1,1007,1604,-1.81392,-0.473807
-210,-580,-3.51746,1.05615,0,0,0,0,0,0,0,-1,1014,1604,-3.51743,-1.05611
-203,-580,4.62842,-0.733643,0,0,0,0,0,0,0,-1,1021,1604,4.62847,0.733611
-196,-580,1.05554,1.24243,0,0,0,0,0,0,0,-1,1028,1604,1.05556,-1.24249
-189,-580,3.33362,-0.479004,0.000954914,-0.0209171,0.0151462,0.00870054,-0.0286627,0.472719,0.0225746,0.0432992,1035,1604,3.33362,0.47898
-182,-580,2.77966,-0.739258,0.00407776,-0.024814,0.0187362,0.0132904,-0.0340267,0.45699,0.0281794,0.0468458,1042,1604,2.77971,0.739282
-175,-580,2.97168,-0.646973,0,0,0,0,0,0,0,-1,1049,1604,2.97172,0.646998
-168,-580,0,0,0,0,0,0,0,0,0,-1,1056,1604,0,0
-161,-580,0,0,0,0,0,0,0,0,0,-1,1063,1604,0,0
-154,-580,0,0,0,0,0,0,0,0,0,-1,1070,1604,0,0
-147,-580,0,0,0,0,0,0,0,0,0,-1,1077,1604,0,0
-140,-580,0,0,0,0,0,0,0,0,0,-1,1084,1604,0,0
-133,-580,0,0,0,0,0,0,0,0,0,-1,1091,1604,0,0
-126,-580,0,0,0,0,0,0,0,0,0,-1,1098,1604,0,0
-119,-580,0,0,0,0,0,0,0,0,0,-1,1105,1604,0,0
-112,-580,0,0,0,0,0,0,0,0,0,-1,1112,1604,0,0
-105,-580,0,0,0,0,0,0,0,0,0,-1,1119,1604,0,0
-98,-580,0,0,0,0,0,0,0,0,0,-1,1126,1604,0,0
-91,-580,0,0,0,0,0,0,0,0,0,-1,1133,1604,0,0
-84,-580,0,0,0,0,0,0,0,0,0,-1,1140,1604,0,0
-77,-580,0,0,0,0,0,0,0,0,0,-1,1147,1604,0,0
-70,-580,0,0,0,0,0,0,0,0,0,-1,1154,1604,0,0
-63,-580,0,0,0,0,0,0,0,0,0,-1,1161,1604,0,0
-56,-580,0,0,0,0,0,0,0,0,0,-1,1168,1604,0,0
-49,-580,0,0,0,0,0,0,0,0,0,-1,1175,1604,0,0
-42,-580,0,0,0,0,0,0,0,0,0,-1,1182,1604,0,0
-35,-580,0,0,0,0,0,0,0,0,0,-1,1189,1604,0,0
-28,-580,0,0,0,0,0,0,0,0,0,-1,1196,1604,0,0
-21,-580,0,0,0,0,0,0,0,0,0,-1,1203,1604,0,0
-14,-580,0,0,0,0,0,0,0,0,0,-1,1210,1604,0,0
-7,-580,0,0,0,0,0,0,0,0,0,-1,1217,1604,0,0
0,-580,0,0,0,0,0,0,0,0,0,-1,1224,1604,0,0
7,-580,0,0,0,0,0,0,0,0,0,-1,1231,1604,0,0
14,-580,0,0,0,0,0,0,0,0,0,-1,1238,1604,0,0
21,-580,0,0,0,0,0,0,0,0,0,-1,1245,1604,0,0
28,-580,0,0,0,0,0,0,0,0,0,-1,1252,1604,0,0
35,-580,0,0,0,0,0,0,0,0,0,-1,1259,1604,0,0
42,-580,0,0,0,0,0,0,0,0,0,-1,1266,1604,0,0
49,-580,0,0,0,0,0,0,0,0,0,-1,1273,1604,0,0
56,-580,0,0,0,0,0,0,0,0,0,-1,1280,1604,0,0
63,-580,0,0,0,0,0,0,0,0,0,-1,1287,1604,0,0
70,-580,0,0,0,0,0,0,0,0,0,-1,1294,1604,0,0
77,-580,0,0,0,0,0,0,0,0,0,-1,1301,1604,0,0
84,-580,0,0,0,0,0,0,0,0,0,-1,1308,1604,0,0
91,-580,0,0,0,0,0,0,0,0,0,-1,1315,1604,0,0
98,-580,0,0,0,0,0,0,0,0,0,-1,1322,1604,0,0
105,-580,0,0,0,0,0,0,0,0,0,-1,1329,1604,0,0
112,-580,0,0,0,0,0,0,0,0,0,-1,1336,1604,0,0
119,-580,0,0,0,0,0,0,0,0,0,-1,1343,1604,0,0
126,-580,0,0,0,0,0,0,0,0,0,-1,1350,1604,0,0
133,-580,0,0,0,0,0,0,0,0,0,-1,1357,1604,0,0
140,-580,0,0,0,0,0,0,0,0,0,-1,1364,1604,0,0
147,-580,0,0,0,0,0,0,0,0,0,-1,1371,1604,0,0
154,-580,0,0,0,0,0,0,0,0,0,-1,1378,1604,0,0
161,-580,0,0,0,0,0,0,0,0,0,-1,1385,1604,0,0
168,-580,0,0,0,0,0,0,0,0,0,-1,1392,1604,0,0
175,-580,0,0,0,0,0,0,0,0,0,-1,1399,1604,0,0
182,-580,0,0,0,0,0,0,0,0,0,-1,1406,1604,0,0
189,-580,0,0,0,0,0,0,0,0,0,-1,1413,1604,0,0
196,-580,0,0,0,0,0,0,0,0,0,-1,1420,1604,0,0
203,-580,0,0,0,0,0,0,0,0,0,-1,1427,1604,0,0
210,-580,0,0,0,0,0,0,0,0,0,-1,1434,1604,0,0
217,-580,0,0,0,0,0,0,0,0,0,-1,1441,1604,0,0
224,-580,0,0,0,0,0,0,0,0,0,-1,1448,1604,0,0
231,-580,0,0,0,0,0,0,0,0,0,-1,1455,1604,0,0
238,-580,0,0,0,0,0,0,0,0,0,-1,1462,1604,0,0
245,-580,0,0,0,0,0,0,0,0,0,-1,1469,1604,0,0
252,-580,0,0,0,0,0,0,0,0,0,-1,1476,1604,0,0
259,-580,0,0,0,0,0,0,0,0,0,-1,1483,1604,0,0
266,-580,0,0,0,0,0,0,0,0,0,-1,1490,1604,0,0
273,-580,0,0,0,0,0,0,0,0,0,-1,1497,1604,0,0
280,-580,0,0,0,0,0,0,0,0,0,-1,1504,1604,0,0
287,-580,0,0,0,0,0,0,0,0,0,-1,1511,1604,0,0
294,-580,4.51074,3.27686,-0.0816292,0.0323292,-0.0600018,0.0580957,-0.107396,-1.16518,0.0969494,0.0428672,1518,1604,4.51071,-3.2768
301,-580,4.14026,2.85376,-0.068516,0.0382312,-0.0538295,0.0606624,-0.0909471,-1.17597,0.088112,0.045751,1525,1604,4.14032,-2.85378
308,-580,3.68506,2.24524,0,0,0,0,0,0,0,-1,1532,1604,3.685,-2.24528
315,-580,1.84631,4.4458,0,0,0,0,0,0,0,-1,1539,1604,1.84636,-4.44575
322,-580,2.03784,4.02893,0,0,0,0,0,0,0,-1,1546,1604,2.03784,-4.02896
329,-580,2.36829,3.45703,-0.0324647,0.0573776,-0.0220073,0.0624788,-0.0375659,-1.34303,0.0583547,0.0422306,1553,1604,2.36826,-3.45699
336,-580,2.81799,2.83276,-0.0284441,0.0608532,-0.0150928,0.0633352,-0.030926,-1.40781,0.0554836,0.0460776,1560,1604,2.81804,-2.83276
343,-580,3.28027,2.19128,-0.0244295,0.0634614,-0.00896354,0.0643662,-0.0253343,-1.47019,0.0533979,0.045898,1567,1604,3.28031,-2.19129
350,-580,3.34534,1.68628,-0.0216037,0.0633408,-0.00390064,0.0635196,-0.0217824,-1.525,0.0511764,0.0425792,1574,1604,3.34532,-1.68633
357,-580,3.06006,1.17273,0,0,0,0,0,0,0,-1,1581,1604,3.06012,-1.17273
364,-580,2.79529,0.697388,-0.0179408,0.0613229,0.00198141,0.0613724,-0.0179903,1.54582,0.0480478,0.046701,1588,1604,2.79534,-0.697417
371,-580,2.48462,0.621216,-0.0174452,0.0571797,0.0032179,0.0573182,-0.0175837,1.52778,0.0452275,0.0460535,1595,1604,2.48468,-0.621213
378,-580,2.31775,0.622803,0,0,0,0,0,0,0,-1,1602,1604,2.31769,-0.622789
385,-580,1.31519,1.27661,0,0,0,0,0,0,0,-1,1609,1604,1.31516,-1.27663
392,-580,1.27246,1.95996,0,0,0,0,0,0,0,-1,1616,1604,1.2725,-1.95995
399,-580,1.44495,1.94238,0,0,0,0,0,0,0,-1,1623,1604,1.44493,-1.94233
406,-580,1.90857,2.15149,-0.00852055,0.0302405,-0.00228005,0.0303742,-0.00865421,-1.51224,0.0236676,0.0436464,1630,1604,1.90852,-2.15152
413,-580,2.01086,1.94922,-0.00546985,0.0250603,-0.00464973,0.0257528,-0.0061623,-1.42296,0.0195491,0.0461941,1637,1604,2.0109,-1.94921
420,-580,2.06299,2.19141,-0.00285922,0.0196965,-0.00684753,0.0216125,-0.00477525,-1.29796,0.0162359,0.0417762,1644,1604,2.06303,-2.19147
427,-580,2.29785,2.08423,-0.00083183,0.0151024,-0.00831794,0.0186532,-0.00438266,-1.16733,0.0141249,0.0343938,1651,1604,2.29779,-2.0842
434,-580,2.35144,2.02087,0.00131732,0.011241,-0.00841103,0.0160447,-0.00348637,-1.05188,0.0120282,0.024432,1658,1604,2.35144,-2.02086
441,-580,2.33777,1.96863,0.00256255,0.00837618,-0.00799713,0.0139784,-0.00303967,-0.959716,0.0104801,0.0116814,1665,1604,2.33781,-1.96858
448,-580,2.33618,1.95691,0.00275858,0.00619933,-0.0069935,0.0116809,-0.00272304,-0.906002,0.00883596,0.0112535,1672,1604,2.33618,-1.95692
455,-580,2.37439,1.94653,0.00284635,0.00502997,-0.00562372,0.00966688,-0.00179056,-0.881277,0.00711692,0.0188089,1679,1604,2.3744,-1.94659
462,-580,2.34338,1.91809,0.00280404,0.00249155,-0.00454407,0.00719456,-0.00189896,-0.768212,0.00553895,0.0230237,1686,1604,2.34343,-1.91808
469,-580,2.33362,1.86328,0.00261071,0.00155597,-0.00345073,0.00557413,-0.00140746,-0.70957,0.0042634,0.0193671,1693,1604,2.33361,-1.86333
476,-580,2.34705,1.81567,0.0021544,0.000898981,-0.002385,0.00399291,-0.000939531,-0.656721,0.00302416,0.0144896,1700,1604,2.34709,-1.81562
483,-580,2.32544,1.80981,0.00192924,0.000486631,-0.00135131,0.00273971,-0.000323839,-0.540246,0.00194343,0.012435,1707,1604,2.32543,-1.80978
490,-580,2.32214,1.78162,0.00222222,0.000913415,-0.000759694,0.0025705,0.000565132,-0.42986,0.0015598,0.0135188,1714,1604,2.32216,-1.78163
497,-580,2.32373,1.75586,0.0027452,0.00140259,-0.000819383,0.00313316,0.00101463,-0.442204,0.00184598,0.0111972,1721,1604,2.3237,-1.75583
504,-580,2.35193,1.69482,0.00331019,0.0022191,-0.00124004,0.00411938,0.0014099,-0.578169,0.00241746,0.016443,1728,1604,2.35199,-1.69476
511,-580,2.35071,1.65601,0.00413645,0.00284048,-0.00209033,0.00567693,0.00130001,-0.6351,0.0034343,0.0162855,1735,1604,2.35073,-1.65595
518,-580,2.34668,1.63733,0.00594942,0.00362081,-0.00426154,0.00920284,0.000367393,-0.652047,0.0060165,0.014869,1742,1604,2.34674,-1.63738
525,-580,2.34741,1.61536,0.00761285,0.00500659,-0.0064628,0.0129026,-0.000283146,-0.685914,0.00869764,0.0166451,1749,1604,2.34739,-1.61532
532,-580,2.33569,1.58936,0.00732512,0.00675163,-0.00988736,0.0169299,-0.00285314,-0.770901,0.012348,0.0171717,1756,1604,2.33567,-1.58934
539,-580,2.37329,1.59277,0.00644447,0.00963627,-0.0144927,0.0226207,-0.00653995,-0.840236,0.0176686,0.0208185,1763,1604,2.37328,-1.59279
546,-580,2.52832,1.58936,0.00543984,0.0124198,-0.0199916,0.0292238,-0.0113642,-0.871813,0.0241778,0.0345543,1770,1604,2.52832,-1.58932
553,-580,2.6001,1.56299,0.00294472,0.01624,-0.0267768,0.037182,-0.0179972,-0.907069,0.0324932,0.0445434,1777,1604,2.60008,-1.56297
560,-580,2.13892,1.34741,0,0,0,0,0,0,0,-1,1784,1604,2.13896,-1.3474
567,-580,1.88708,1.26941,0,0,0,0,0,0,0,-1,1791,1604,1.88713,-1.26947
574,-580,1.47998,0.88208,0,0,0,0,0,0,0,-1,1798,1604,1.48001,-0.882039
581,-580,1.16614,0.608643,-0.0134198,0.0466607,-0.0560213,0.0801877,-0.0469469,-1.0315,0.0742328,0.0407679,1805,1604,1.16611,-0.608603
588,-580,0.608154,-0.34021,-0.016346,0.0579204,-0.0610683,0.0922589,-0.0506846,-1.05856,0.0836839,0.04603,1812,1604,0.608172,0.340198
595,-580,0,0,0,0,0,0,0,0,0,-1,1819,1604,0,0
602,-580,0,0,0,0,0,0,0,0,0,-1,1826,1604,0,0
609,-580,0,0,0,0,0,0,0,0,0,-1,1833,1604,0,0
616,-580,0,0,0,0,0,0,0,0,0,-1,1840,1604,0,0
623,-580,0,0,0,0,0,0,0,0,0,-1,1847,1604,0,0
630,-580,0,0,0,0,0,0,0,0,0,-1,1854,1604,0,0
637,-580,0,0,0,0,0,0,0,0,0,-1,1861,1604,0,0
644,-580,0,0,0,0,0,0,0,0,0,-1,1868,1604,0,0
651,-580,0,0,0,0,0,0,0,0,0,-1,1875,1604,0,0
658,-580,0,0,0,0,0,0,0,0,0,-1,1882,1604,0,0
665,-580,0,0,0,0,0,0,0,0,0,-1,1889,1604,0,0
672,-580,0,0,0,0,0,0,0,0,0,-1,1896,1604,0,0
679,-580,0,0,0,0,0,0,0,0,0,-1,1903,1604,0,0
686,-580,0,0,0,0,0,0,0,0,0,-1,1910,1604,0,0
693,-580,0,0,0,0,0,0,0,0,0,-1,1917,1604,0,0
700,-580,0,0,0,0,0,0,0,0,0,-1,1924,1604,0,0
707,-580,0,0,0,0,0,0,0,0,0,-1,1931,1604,0,0
714,-580,0,0,0,0,0,0,0,0,0,-1,1938,1604,0,0
721,-580,0,0,0,0,0,0,0,0,0,-1,1945,1604,0,0
728,-580,0,0,0,0,0,0,0,0,0,-1,1952,1604,0,0
735,-580,0,0,0,0,0,0,0,0,0,-1,1959,1604,0,0
742,-580,0,0,0,0,0,0,0,0,0,-1,1966,1604,0,0
749,-580,0,0,0,0,0,0,0,0,0,-1,1973,1604,0,0
756,-580,0,0,0,0,0,0,0,0,0,-1,1980,1604,0,0
763,-580,0,0,0,0,0,0,0,0,0,-1,1987,1604,0,0
770,-580,0,0,0,0,0,0,0,0,0,-1,1994,1604,0,0
777,-580,0,0,0,0,0,0,0,0,0,-1,2001,1604,0,0
784,-580,0,0,0,0,0,0,0,0,0,-1,2008,1604,0,0
791,-580,0,0,0,0,0,0,0,0,0,-1,2015,1604,0,0
798,-580,0,0,0,0,0,0,0,0,0,-1,2022,1604,0,0
805,-580,0,0,0,0,0,0,0,0,0,-1,2029,1604,0,0
812,-580,0,0,0,0,0,0,0,0,0,-1,2036,1604,0,0
-700,-587,0,0,0,0,0,0,0,0,0,-1,524,1611,0,0
-693,-587,0,0,0,0,0,0,0,0,0,-1,531,1611,0,0
-686,-587,0,0,0,0,0,0,0,0,0,-1,538,1611,0,0
-679,-587,0,0,0,0,0,0,0,0,0,-1,545,1611,0,0
-672,-587,0,0,0,0,0,0,0,0,0,-1,552,1611,0,0
-665,-587,0,0,0,0,0,0,0,0,0,-1,559,1611,0,0
-658,-587,0,0,0,0,0,0,0,0,0,-1,566,1611,0,0
-651,-587,0,0,0,0,0,0,0,0,0,-1,573,1611,0,0
-644,-587,0,0,0,0,0,0,0,0,0,-1,580,1611,0,0
-637,-587,0,0,0,0,0,0,0,0,0,-1,587,1611,0,0
-630,-587,0,0,0,0,0,0,0,0,0,-1,594,1611,0,0
-623,-587,0,0,0,0,0,0,0,0,0,-1,601,1611,0,0
-616,-587,0,0,0,0,0,0,0,0,0,-1,608,1611,0,0
-609,-587,0,0,0,0,0,0,0,0,0,-1,615,1611,0,0
-602,-587,0,0,0,0,0,0,0,0,0,-1,622,1611,0,0
-595,-587,0,0,0,0,0,0,0,0,0,-1,629,1611,0,0
-588,-587,0,0,0,0,0,0,0,0,0,-1,636,1611,0,0
-581,-587,0,0,0,0,0,0,0,0,0,-1,643,1611,0,0
-574,-587,0,0,0,0,0,0,0,0,0,-1,650,1611,0,0
-567,-587,0,0,0,0,0,0,0,0,0,-1,657,1611,0,0
-560,-587,0,0,0,0,0,0,0,0,0,-1,664,1611,0,0
-553,-587,0,0,0,0,0,0,0,0,0,-1,671,1611,0,0
-546,-587,0,0,0,0,0,0,0,0,0,-1,678,1611,0,0
-539,-587,0,0,0,0,0,0,0,0,0,-1,685,1611,0,0
-532,-587,0,0,0,0,0,0,0,0,0,-1,692,1611,0,0
-525,-587,0,0,0,0,0,0,0,0,0,-1,699,1611,0,0
-518,-587,0,0,0,0,0,0,0,0,0,-1,706,1611,0,0
-511,-587,0,0,0,0,0,0,0,0,0,-1,713,1611,0,0
-504,-587,0,0,0,0,0,0,0,0,0,-1,720,1611,0,0
-497,-587,0,0,0,0,0,0,0,0,0,-1,727,1611,0,0
-490,-587,0,0,0,0,0,0,0,0,0,-1,734,1611,0,0
-483,-587,0,0,0,0,0,0,0,0,0,-1,741,1611,0,0
-476,-587,0,0,0,0,0,0,0,0,0,-1,748,1611,0,0
-469,-587,0,0,0,0,0,0,0,0,0,-1,755,1611,0,0
-462,-587,-0.725586,0.227905,0,0,0,0,0,0,0,-1,762,1611,-0.725601,-0.227923
-455,-587,-0.342957,0.203613,0,0,0,0,0,0,0,-1,769,1611,-0.342958,-0.203625
-448,-587,0.0545044,0.120483,0,0,0,0,0,0,0,-1,776,1611,0.054523,-0.12051
-441,-587,0.0485229,0.393921,0,0,0,0,0,0,0,-1,783,1611,0.048538,-0.39389
-434,-587,1.5011,1.25928,0,0,0,0,0,0,0,-1,790,1611,1.5011,-1.25925
-427,-587,1.45557,1.21912,-0.0130949,0.00361302,0.00467952,0.00483437,-0.0143163,1.31549,0.0114995,0.0452462,797,1611,1.45555,-1.21907
-420,-587,1.41077,1.27075,-0.0056526,0.00327197,0.00604948,0.00632688,-0.00870751,1.10317,0.0087163,0.0473882,804,1611,1.41076,-1.27072
-413,-587,1.4165,1.43372,0,0,0,0,0,0,0,-1,811,1611,1.41649,-1.43366
-406,-587,1.35193,1.52393,0.00043391,-8.81762e-05,0.00487393,0.00505379,-0.00470805,0.758644,0.00563718,0.0445533,818,1611,1.35192,-1.5239
-399,-587,1.49127,1.59961,0.00159072,-0.0013915,0.00388104,0.00425724,-0.00405802,0.601991,0.00480127,0.0325743,825,1611,1.49127,-1.59967
-392,-587,1.49719,1.60547,0.00240522,-0.00244111,0.00260109,0.00353697,-0.00357286,0.410398,0.00410488,0.0241458,832,1611,1.49722,-1.60542
-385,-587,1.44336,1.66809,0.00291067,-0.00299729,0.00140584,0.00322814,-0.00331476,0.222096,0.00377766,0.0149508,839,1611,1.44336,-1.66809
-378,-587,1.39825,1.75452,0.00294449,-0.00314809,0.000405055,0.0029713,-0.0031749,0.0660957,0.00354916,0.0131967,846,1611,1.39823,-1.7545
-371,-587,1.38477,1.80078,0.00285994,-0.00373605,-0.000152247,0.00286345,-0.00373956,-0.0230654,0.00382342,0.0134289,853,1611,1.38479,-1.80074
-364,-587,1.38263,1.82361,0.00257599,-0.00403682,-0.000760881,0.00266241,-0.00412323,-0.113093,0.00394784,0.0160932,860,1611,1.38265,-1.82362
-357,-587,1.40918,1.82703,0.00190167,-0.0028729,-0.00121095,0.00219124,-0.00316247,-0.234716,0.00310787,0.0163704,867,1611,1.4092,-1.82702
-350,-587,1.41833,1.84448,0.000756445,-0.00202605,-0.00125398,0.00123817,-0.00250778,-0.366775,0.00220374,0.00990442,874,1611,1.41831,-1.84454
-343,-587,1.40967,1.86743,-0.000169964,-0.00111063,-0.00132732,0.000767889,-0.00204848,-0.615127,0.00168113,0.011697,881,1611,1.40968,-1.86745
-336,-587,1.39978,1.91541,-0.000309427,-0.000448977,-0.001011,0.000634206,-0.00139261,-0.750945,0.00119718,0.0116945,888,1611,1.39978,-1.91537
-329,-587,1.39557,1.92065,1.65587e-05,0.000664295,-0.000199153,0.000720628,-3.97738e-05,-1.29514,0.00049421,0.0144291,895,1611,1.39557,-1.92062
-322,-587,1.38971,1.94373,0.000220871,0.00184688,0.000344222,0.00191675,0.000151002,1.37054,0.00123059,0.0172417,902,1611,1.38974,-1.94371
-315,-587,1.38232,2.00769,0.000662896,0.00288439,0.000791838,0.00313774,0.000409544,1.26113,0.00196956,0.0137502,909,1611,1.3823,-2.00765
-308,-587,1.40637,2.05762,0.00125324,0.00377707,0.000702857,0.0039596,0.0010707,1.3167,0.00236505,0.0139238,916,1611,1.4064,-2.05764
-301,-587,1.41406,2.05322,0.00201253,0.00434311,0.000180227,0.00435697,0.00199867,1.49407,0.00251835,0.0117108,923,1611,1.41408,-2.05325
-294,-587,1.40881,2.0603,0.0027187,0.0046415,-0.000451603,0.00474228,0.00261791,-1.35122,0.0027429,0.0123877,930,1611,1.40881,-2.06031
-287,-587,1.42169,2.10278,0.00286039,0.00443425,-0.00114947,0.00504035,0.00225429,-1.08556,0.00291544,0.023031,937,1611,1.42171,-2.10279
-280,-587,1.4223,2.19458,0.00250272,0.00387093,-0.00192227,0.0052272,0.00114645,-0.956352,0.00317247,0.0343652,944,1611,1.4223,-2.19463
-273,-587,1.68774,2.60413,0.00209602,0.00313798,-0.00296827,0.00563065,-0.000396644,-0.872271,0.00389272,0.0388272,951,1611,1.68777,-2.60412
-266,-587,1.76733,2.50586,0.00216553,0.000924864,-0.00457614,0.00616319,-0.0030728,-0.71803,0.00543099,0.0424142,958,1611,1.76733,-2.50589
-259,-587,1.61377,2.28381,0.00111332,-0.00134919,-0.00607543,0.006081,-0.00631688,-0.685422,0.00715835,0.0445041,965,1611,1.6138,-2.28387
-252,-587,1.46027,1.63489,-0.000440201,-0.00408044,-0.007401,0.0053612,-0.00988184,-0.664827,0.00892865,0.0449223,972,1611,1.46024,-1.63491
-245,-587,1.51556,1.39905,0.000247527,-0.00481333,-0.00918237,0.00724175,-0.0118075,-0.650948,0.0111029,0.0445236,979,1611,1.51554,-1.39908
-238,-587,1.38147,1.07837,0,0,0,0,0,0,0,-1,986,1611,1.38148,-1.07839
-231,-587,0.215576,1.02563,0,0,0,0,0,0,0,-1,993,1611,0.215599,-1.02561
-224,-587,-0.434326,0.623535,0.000255297,-0.00864068,-0.00645774,0.00364867,-0.0120341,-0.483819,0.00947605,0.0467867,1000,1611,-0.434342,-0.623498
-217,-587,-1.1283,0.207397,0.00206355,-0.0118262,-0.00223399,0.00241401,-0.0121767,-0.155611,0.00903064,0.0444005,1007,1611,-1.12828,-0.207348
-210,-587,1.2149,-0.131958,0,0,0,0,0,0,0,-1,1014,1611,1.21493,0.131906
-203,-587,1.42792,0.151733,0,0,0,0,0,0,0,-1,1021,1611,1.42789,-0.151695
-196,-587,1.625,0.361328,0.00743466,-0.017062,0.010696,0.0114475,-0.0210748,0.358922,0.019049,0.0477361,1028,1611,1.62506,-0.361305
-189,-587,2.63855,-0.192383,0.00919661,-0.0203459,0.0157707,0.0160333,-0.0271826,0.409054,0.025226,0.0451407,1035,1611,2.63853,0.192435
-182,-587,2.47632,-0.392822,0.0130772,-0.0233177,0.0191466,0.0212945,-0.031535,0.405405,0.0306915,0.0457633,1042,1611,2.47637,0.39282
-175,-587,2.6499,-0.411133,0.0272237,-0.0270711,0.0188964,0.0331529,-0.0330002,0.304041,0.0381935,0.0418396,1049,1611,2.64995,0.411131
-168,-587,3.26111,-0.20105,0.0482987,-0.0290541,0.0159455,0.0514567,-0.0322121,0.195523,0.0487303,0.0438466,1056,1611,3.26115,0.201013
-161,-587,3.72046,-0.170044,0,0,0,0,0,0,0,-1,1063,1611,3.72042,0.169996
-154,-587,0.916016,3.88599,0,0,0,0,0,0,0,-1,1070,1611,0.915958,-3.88603
-147,-587,0,0,0,0,0,0,0,0,0,-1,1077,1611,0,0
-140,-587,0,0,0,0,0,0,0,0,0,-1,1084,1611,0,0
-133,-587,0,0,0,0,0,0,0,0,0,-1,1091,1611,0,0
-126,-587,0,0,0,0,0,0,0,0,0,-1,1098,1611,0,0
-119,-587,0,0,0,0,0,0,0,0,0,-1,1105,1611,0,0
-112,-587,0,0,0,0,0,0,0,0,0,-1,1112,1611,0,0
-105,-587,0,0,0,0,0,0,0,0,0,-1,1119,1611,0,0
-98,-587,0,0,0,0,0,0,0,0,0,-1,1126,1611,0,0
-91,-587,0,0,0,0,0,0,0,0,0,-1,1133,1611,0,0
-84,-587,0,0,0,0,0,0,0,0,0,-1,1140,1611,0,0
-77,-587,0,0,0,0,0,0,0,0,0,-1,1147,1611,0,0
-70,-587,0,0,0,0,0,0,0,0,0,-1,1154,1611,0,0
-63,-587,0,0,0,0,0,0,0,0,0,-1,1161,1611,0,0
-56,-587,0,0,0,0,0,0,0,0,0,-1,1168,1611,0,0
-49,-587,0,0,0,0,0,0,0,0,0,-1,1175,1611,0,0
-42,-587,0,0,0,0,0,0,0,0,0,-1,1182,1611,0,0
-35,-587,0,0,0,0,0,0,0,0,0,-1,1189,1611,0,0
-28,-587,0,0,0,0,0,0,0,0,0,-1,1196,1611,0,0
-21,-587,0,0,0,0,0,0,0,0,0,-1,1203,1611,0,0
-14,-587,0,0,0,0,0,0,0,0,0,-1,1210,1611,0,0
-7,-587,0,0,0,0,0,0,0,0,0,-1,1217,1611,0,0
0,-587,0,0,0,0,0,0,0,0,0,-1,1224,1611,0,0
7,-587,0,0,0,0,0,0,0,0,0,-1,1231,1611,0,0
14,-587,0,0,0,0,0,0,0,0,0,-1,1238,1611,0,0
21,-587,0,0,0,0,0,0,0,0,0,-1,1245,1611,0,0
28,-587,0,0,0,0,0,0,0,0,0,-1,1252,1611,0,0
35,-587,0,0,0,0,0,0,0,0,0,-1,1259,1611,0,0
42,-587,0,0,0,0,0,0,0,0,0,-1,1266,1611,0,0
49,-587,0,0,0,0,0,0,0,0,0,-1,1273,1611,0,0
56,-587,0,0,0,0,0,0,0,0,0,-1,1280,1611,0,0
63,-587,0,0,0,0,0,0,0,0,0,-1,1287,1611,0,0
70,-587,0,0,0,0,0,0,0,0,0,-1,1294,1611,0,0
77,-587,0,0,0,0,0,0,0,0,0,-1,1301,1611,0,0
84,-587,0,0,0,0,0,0,0,0,0,-1,1308,1611,0,0
91,-587,0,0,0,0,0,0,0,0,0,-1,1315,1611,0,0
98,-587,0,0,0,0,0,0,0,0,0,-1,1322,1611,0,0
105,-587,0,0,0,0,0,0,0,0,0,-1,1329,1611,0,0
112,-587,0,0,0,0,0,0,0,0,0,-1,1336,1611,0,0
119,-587,0,0,0,0,0,0,0,0,0,-1,1343,1611,0,0
126,-587,0,0,0,0,0,0,0,0,0,-1,1350,1611,0,0
133,-587,0,0,0,0,0,0,0,0,0,-1,1357,1611,0,0
140,-587,0,0,0,0,0,0,0,0,0,-1,1364,1611,0,0
147,-587,0,0,0,0,0,0,0,0,0,-1,1371,1611,0,0
154,-587,0,0,0,0,0,0,0,0,0,-1,1378,1611,0,0
161,-587,0,0,0,0,0,0,0,0,0,-1,1385,1611,0,0
168,-587,0,0,0,0,0,0,0,0,0,-1,1392,1611,0,0
175,-587,0,0,0,0,0,0,0,0,0,-1,1399,1611,0,0
182,-587,0,0,0,0,0,0,0,0,0,-1,1406,1611,0,0
189,-587,0,0,0,0,0,0,0,0,0,-1,1413,1611,0,0
196,-587,0,0,0,0,0,0,0,0,0,-1,1420,1611,0,0
203,-587,0,0,0,0,0,0,0,0,0,-1,1427,1611,0,0
210,-587,0,0,0,0,0,0,0,0,0,-1,1434,1611,0,0
217,-587,0,0,0,0,0,0,0,0,0,-1,1441,1611,0,0
224,-587,0,0,0,0,0,0,0,0,0,-1,1448,1611,0,0
231,-587,0,0,0,0,0,0,0,0,0,-1,1455,1611,0,0
238,-587,0,0,0,0,0,0,0,0,0,-1,1462,1611,0,0
245,-587,0,0,0,0,0,0,0,0,0,-1,1469,1611,0,0
252,-587,0,0,0,0,0,0,0,0,0,-1,1476,1611,0,0
259,-587,0,0,0,0,0,0,0,0,0,-1,1483,1611,0,0
266,-587,0,0,0,0,0,0,0,0,0,-1,1490,1611,0,0
273,-587,8.60266,6.33362,0,0,0,0,0,0,0,-1,1497,1611,8.60261,-6.33362
280,-587,6.18567,3.83289,0,0,0,0,0,0,0,-1,1504,1611,6.18566,-3.83289
287,-587,5.57813,3.41614,-0.0770524,0.0114756,-0.0487875,0.0330866,-0.0986634,-1.15381,0.0791444,0.0397509,1511,1611,5.57809,-3.41616
294,-587,4.95679,3.09717,-0.0723613,0.020252,-0.0447403,0.0383349,-0.0904441,-1.1867,0.0763526,0.0444883,1518,1611,4.95684,-3.09715
301,-587,4.33777,2.77441,-0.0632403,0.0270347,-0.0403588,0.0424466,-0.0786521,-1.20602,0.0709503,0.0482398,1525,1611,4.33783,-2.77442
308,-587,3.94263,2.63367,0,0,0,0,0,0,0,-1,1532,1611,3.94266,-2.63371
315,-587,3.27332,2.31567,0,0,0,0,0,0,0,-1,1539,1611,3.27338,-2.31571
322,-587,2.67419,2.90454,0,0,0,0,0,0,0,-1,1546,1611,2.67416,-2.9046
329,-587,3.0426,2.58862,-0.0297838,0.0481898,-0.018491,0.0523526,-0.0339466,-1.34936,0.0502012,0.0488104,1553,1611,3.04264,-2.58862
336,-587,3.41089,2.30652,-0.0254912,0.0510818,-0.0132662,0.053315,-0.0277245,-1.40402,0.0475594,0.0483238,1560,1611,3.41089,-2.30656
343,-587,3.42151,1.52319,-0.0212933,0.0530088,-0.00848276,0.053965,-0.0222495,-1.45855,0.0452546,0.0479781,1567,1611,3.42151,-1.52318
350,-587,3.40771,1.19104,-0.0182951,0.0524147,-0.00457932,0.05271,-0.0185904,-1.50639,0.0427075,0.0448717,1574,1611,3.40777,-1.19106
357,-587,1.66479,3.37183,0,0,0,0,0,0,0,-1,1581,1611,1.6648,-3.37181
364,-587,1.39233,3.04285,0,0,0,0,0,0,0,-1,1588,1611,1.39233,-3.04288
371,-587,1.74292,0.494507,-0.0129562,0.0466128,0.000895076,0.0466262,-0.0129697,1.55577,0.0361905,0.0444203,1595,1611,1.74292,-0.494523
378,-587,2.23108,0.321167,0,0,0,0,0,0,0,-1,1602,1611,2.23103,-0.321142
385,-587,2.00403,1.8252,0,0,0,0,0,0,0,-1,1609,1611,2.004,-1.82521
392,-587,1.81812,1.80762,-0.00994218,0.0322327,0.000660289,0.032243,-0.00995251,1.55515,0.0254695,0.0494494,1616,1611,1.81807,-1.80761
399,-587,1.85339,1.99915,-0.00765909,0.0276627,-0.000743276,0.0276784,-0.00767472,-1.54977,0.0214726,0.0493692,1623,1611,1.85341,-1.99911
406,-587,2.02136,2.16882,-0.00507489,0.0233022,-0.00224067,0.023478,-0.00525072,-1.49248,0.0176643,0.0416699,1630,1611,2.02134,-2.16877
413,-587,2.1333,2.10522,-0.00281126,0.0194635,-0.00394229,0.0201406,-0.0034884,-1.40069,0.0147282,0.0325768,1637,1611,2.13331,-2.10517
420,-587,2.19946,2.03259,-0.00092031,0.0155225,-0.00553296,0.017211,-0.00260875,-1.27461,0.0124351,0.0267818,1644,1611,2.19941,-2.0326
427,-587,2.28394,2.00647,0.000377104,0.0123048,-0.00652235,0.0151788,-0.00249696,-1.15575,0.011046,0.0189013,1651,1611,2.28391,-2.00644
434,-587,2.33508,1.98572,0.00173887,0.00965008,-0.00647106,0.0132788,-0.00188981,-1.05973,0.00954501,0.0135911,1658,1611,2.33512,-1.98569
441,-587,2.32422,1.98035,0.00239303,0.00768872,-0.00612076,0.0117098,-0.00162807,-0.989543,0.00840198,0.0163972,1665,1611,2.3242,-1.98032
448,-587,2.31213,1.95862,0.00226964,0.00611944,-0.00536974,0.00989887,-0.00150979,-0.957499,0.0071558,0.0145255,1672,1611,2.31217,-1.95859
455,-587,2.33118,1.92908,0.00220372,0.00521439,-0.00436101,0.00832255,-0.000904451,-0.951586,0.00587311,0.0137299,1679,1611,2.33119,-1.92906
462,-587,2.32642,1.90247,0.00209145,0.00323702,-0.00355745,0.0062675,-0.000939037,-0.865218,0.00452395,0.017797,1686,1611,2.32639,-1.90252
469,-587,2.33716,1.87463,0.00183921,0.00241284,-0.00273666,0.00487767,-0.000625621,-0.83761,0.00347912,0.0158825,1693,1611,2.33714,-1.87466
476,-587,2.33716,1.84668,0.00144547,0.00171696,-0.00197845,0.00356432,-0.000401888,-0.81965,0.00252088,0.0107368,1700,1611,2.33719,-1.8467
483,-587,2.28674,1.83252,0.00138622,0.00131812,-0.00122544,0.00257809,0.000126255,-0.771509,0.00167823,0.0137766,1707,1611,2.28678,-1.83248
490,-587,2.28711,1.79016,0.00194462,0.00185194,-0.000664187,0.00256408,0.00123248,-0.750569,0.00148074,0.0155707,1714,1611,2.28708,-1.7901
497,-587,2.2843,1.74622,0.00281714,0.00251087,-0.000844103,0.00352189,0.00180612,-0.695665,0.00203359,0.0122888,1721,1611,2.28436,-1.7462
504,-587,2.28528,1.72644,0.00379467,0.00346611,-0.0014427,0.00508242,0.00217836,-0.728708,0.00294429,0.0118753,1728,1611,2.28523,-1.72649
511,-587,2.29517,1.7085,0.00514085,0.00416383,-0.00251582,0.00721515,0.00208954,-0.689504,0.00428684,0.0134395,1735,1611,2.29519,-1.70853
518,-587,2.31079,1.66833,0.00763996,0.00503301,-0.0052496,0.0117455,0.000927485,-0.663709,0.0075402,0.0127519,1742,1611,2.31074,-1.66831
525,-587,2.32642,1.63391,0.00999724,0.00673343,-0.00798558,0.016516,0.000214711,-0.684608,0.0109398,0.0150239,1749,1611,2.3264,-1.63393
532,-587,2.31836,1.63928,0.0103708,0.00881327,-0.0121015,0.0217186,-0.00253454,-0.753267,0.0153936,0.0262256,1756,1611,2.31831,-1.63929
539,-587,2.88245,1.84851,0.010227,0.0120399,-0.0176306,0.0287873,-0.0065204,-0.811082,0.0216941,0.036411,1763,1611,2.88248,-1.84849
546,-587,2.83447,1.59082,0.00984777,0.0150781,-0.0242365,0.0368402,-0.0119143,-0.839141,0.029349,0.044479,1770,1611,2.83449,-1.59078
553,-587,2.80554,1.58691,0.00777429,0.0190997,-0.0324207,0.0463485,-0.0194745,-0.871858,0.0390444,0.046913,1777,1611,2.80555,-1.58697
560,-587,2.96021,1.58118,0,0,0,0,0,0,0,-1,1784,1611,2.96023,-1.58112
567,-587,3.85449,0.447144,0,0,0,0,0,0,0,-1,1791,1611,3.85448,-0.447145
574,-587,2.96741,0.164307,-0.00545552,0.0407105,-0.0608265,0.0826866,-0.0474316,-0.966748,0.0760374,0.044983,1798,1611,2.96736,-0.164262
581,-587,1.83655,0.0842285,-0.011723,0.0517614,-0.0701704,0.0970351,-0.0569967,-0.997805,0.0899262,0.0434203,1805,1611,1.83654,-0.0842761
588,-587,0,0,0,0,0,0,0,0,0,-1,1812,1611,0,0
595,-587,0,0,0,0,0,0,0,0,0,-1,1819,1611,0,0
602,-587,0,0,0,0,0,0,0,0,0,-1,1826,1611,0,0
609,-587,0,0,0,0,0,0,0,0,0,-1,1833,1611,0,0
616,-587,0,0,0,0,0,0,0,0,0,-1,1840,1611,0,0
623,-587,0,0,0,0,0,0,0,0,0,-1,1847,1611,0,0
630,-587,0,0,0,0,0,0,0,0,0,-1,1854,1611,0,0
637,-587,0,0,0,0,0,0,0,0,0,-1,1861,1611,0,0
644,-587,0,0,0,0,0,0,0,0,0,-1,1868,1611,0,0
651,-587,0,0,0,0,0,0,0,0,0,-1,1875,1611,0,0
658,-587,0,0,0,0,0,0,0,0,0,-1,1882,1611,0,0
665,-587,0,0,0,0,0,0,0,0,0,-1,1889,1611,0,0
672,-587,0,0,0,0,0,0,0,0,0,-1,1896,1611,0,0
679,-587,0,0,0,0,0,0,0,0,0,-1,1903,1611,0,0
686,-587,0,0,0,0,0,0,0,0,0,-1,1910,1611,0,0
693,-587,0,0,0,0,0,0,0,0,0,-1,1917,1611,0,0
700,-587,0,0,0,0,0,0,0,0,0,-1,1924,1611,0,0
707,-587,0,0,0,0,0,0,0,0,0,-1,1931,1611,0,0
714,-587,0,0,0,0,0,0,0,0,0,-1,1938,1611,0,0
721,-587,0,0,0,0,0,0,0,0,0,-1,1945,1611,0,0
728,-587,0,0,0,0,0,0,0,0,0,-1,1952,1611,0,0
735,-587,0,0,0,0,0,0,0,0,0,-1,1959,1611,0,0
742,-587,0,0,0,0,0,0,0,0,0,-1,1966,1611,0,0
749,-587,0,0,0,0,0,0,0,0,0,-1,1973,1611,0,0
756,-587,0,0,0,0,0,0,0,0,0,-1,1980,1611,0,0
763,-587,0,0,0,0,0,0,0,0,0,-1,1987,1611,0,0
770,-587,0,0,0,0,0,0,0,0,0,-1,1994,1611,0,0
777,-587,0,0,0,0,0,0,0,0,0,-1,2001,1611,0,0
784,-587,0,0,0,0,0,0,0,0,0,-1,2008,1611,0,0
791,-587,0,0,0,0,0,0,0,0,0,-1,2015,1611,0,0
798,-587,0,0,0,0,0,0,0,0,0,-1,2022,1611,0,0
805,-587,0,0,0,0,0,0,0,0,0,-1,2029,1611,0,0
812,-587,0,0,0,0,0,0,0,0,0,-1,2036,1611,0,0
-700,-594,0,0,0,0,0,0,0,0,0,-1,524,1618,0,0
-693,-594,0,0,0,0,0,0,0,0,0,-1,531,1618,0,0
-686,-594,0,0,0,0,0,0,0,0,0,-1,538,1618,0,0
-679,-594,0,0,0,0,0,0,0,0,0,-1,545,1618,0,0
-672,-594,0,0,0,0,0,0,0,0,0,-1,552,1618,0,0
-665,-594,0,0,0,0,0,0,0,0,0,-1,559,1618,0,0
-658,-594,0,0,0,0,0,0,0,0,0,-1,566,1618,0,0
-651,-594,0,0,0,0,0,0,0,0,0,-1,573,1618,0,0
-644,-594,0,0,0,0,0,0,0,0,0,-1,580,1618,0,0
-637,-594,0,0,0,0,0,0,0,0,0,-1,587,1618,0,0
-630,-594,0,0,0,0,0,0,0,0,0,-1,594,1618,0,0
-623,-594,0,0,0,0,0,0,0,0,0,-1,601,1618,0,0
-616,-594,0,0,0,0,0,0,0,0,0,-1,608,1618,0,0
-609,-594,0,0,0,0,0,0,0,0,0,-1,615,1618,0,0
-602,-594,0,0,0,0,0,0,0,0,0,-1,622,1618,0,0
-595,-594,0,0,0,0,0,0,0,0,0,-1,629,1618,0,0
-588,-594,0,0,0,0,0,0,0,0,0,-1,636,1618,0,0
-581,-594,0,0,0,0,0,0,0,0,0,-1,643,1618,0,0
-574,-594,0,0,0,0,0,0,0,0,0,-1,650,1618,0,0
-567,-594,0,0,0,0,0,0,0,0,0,-1,657,1618,0,0
-560,-594,0,0,0,0,0,0,0,0,0,-1,664,1618,0,0
-553,-594,0,0,0,0,0,0,0,0,0,-1,671,1618,0,0
-546,-594,0,0,0,0,0,0,0,0,0,-1,678,1618,0,0
-539,-594,0,0,0,0,0,0,0,0,0,-1,685,1618,0,0
-532,-594,0,0,0,0,0,0,0,0,0,-1,692,1618,0,0
-525,-594,0,0,0,0,0,0,0,0,0,-1,699,1618,0,0
-518,-594,0,0,0,0,0,0,0,0,0,-1,706,1618,0,0
-511,-594,0,0,0,0,0,0,0,0,0,-1,713,1618,0,0
-504,-594,0,0,0,0,0,0,0,0,0,-1,720,1618,0,0
-497,-594,0,0,0,0,0,0,0,0,0,-1,727,1618,0,0
-490,-594,0,0,0,0,0,0,0,0,0,-1,734,1618,0,0
-483,-594,0,0,0,0,0,0,0,0,0,-1,741,1618,0,0
-476,-594,0,0,0,0,0,0,0,0,0,-1,748,1618,0,0
-469,-594,0,0,0,0,0,0,0,0,0,-1,755,1618,0,0
-462,-594,0,0,0,0,0,0,0,0,0,-1,762,1618,0,0
-455,-594,-0.0984497,0.453979,0,0,0,0,0,0,0,-1,769,1618,-0.0984449,-0.454027
-448,-594,0.186707,0.358643,0,0,0,0,0,0,0,-1,776,1618,0.186715,-0.358589
-441,-594,0.346069,0.470215,0,0,0,0,0,0,0,-1,783,1618,0.346056,-0.470249
-434,-594,0.546814,0.544312,0,0,0,0,0,0,0,-1,790,1618,0.546786,-0.544306
-427,-594,1.6532,-0.0571289,0,0,0,0,0,0,0,-1,797,1618,1.65318,0.0571724
-420,-594,1.68372,0.166748,-0.00675998,0.00100974,0.00861203,0.00657259,-0.0123228,0.997281,0.0110764,0.0450022,804,1618,1.68374,-0.166787
-413,-594,1.73083,0.626465,-0.00171177,-0.00177656,0.00801416,0.00627006,-0.00975839,0.783377,0.0093268,0.0462142,811,1618,1.73083,-0.626417
-406,-594,1.73993,1.26086,0.00118347,-0.00400507,0.00672764,0.00579971,-0.0086213,0.601377,0.00837893,0.0466307,818,1618,1.73994,-1.26082
-399,-594,1.56067,1.58972,0.00309218,-0.00576195,0.00529398,0.00556621,-0.00823598,0.437171,0.00801824,0.0451008,825,1618,1.56066,-1.58978
-392,-594,1.50861,1.65149,0.00449158,-0.00699581,0.00360262,0.00552793,-0.00803215,0.280101,0.00787329,0.0419772,832,1618,1.50859,-1.65143
-385,-594,1.47314,1.68872,0.0053786,-0.00754977,0.0020493,0.00569566,-0.00786683,0.1535,0.00786368,0.0284415,839,1618,1.47314,-1.68876
-378,-594,1.42657,1.72437,0.00561971,-0.00748325,0.000739467,0.00566131,-0.00752485,0.0561973,0.00763833,0.0119876,846,1618,1.42657,-1.72436
-371,-594,1.42615,1.77405,0.00567492,-0.00788438,-4.97023e-05,0.0056751,-0.00788456,-0.00366549,0.00786324,0.0112113,853,1618,1.42615,-1.77404
-364,-594,1.43182,1.80176,0.00534776,-0.00777052,-0.000881205,0.00540669,-0.00782945,-0.066774,0.00768444,0.00999967,860,1618,1.43181,-1.8018
-357,-594,1.4295,1.82422,0.00443615,-0.00595484,-0.00153003,0.00465675,-0.00617544,-0.143198,0.00627443,0.0101386,867,1618,1.42953,-1.82428
-350,-594,1.42767,1.84607,0.0032302,-0.00463033,-0.00161563,0.00354931,-0.00494944,-0.195008,0.00492891,0.014621,874,1618,1.4277,-1.84606
-343,-594,1.43427,1.87805,0.00225408,-0.00335501,-0.00163688,0.00269682,-0.00379775,-0.264157,0.00376755,0.0156717,881,1618,1.43429,-1.87808
-336,-594,1.43927,1.95508,0.00184935,-0.00232047,-0.00126127,0.00220117,-0.00267229,-0.272026,0.00281807,0.0127527,888,1618,1.43928,-1.9551
-329,-594,1.4364,1.96472,0.00192285,-0.00105697,-0.000449712,0.00198924,-0.00112336,-0.146571,0.00182009,0.0129143,895,1618,1.43642,-1.96474
-322,-594,1.44495,1.97021,0.00198298,0.000170039,0.000162017,0.00199735,0.000155674,0.0884331,0.00128283,0.014997,902,1618,1.44494,-1.97016
-315,-594,1.46063,2.00488,0.00226358,0.0012188,0.000683112,0.00260115,0.000881228,0.458971,0.00152757,0.0148814,909,1618,1.46064,-2.00491
-308,-594,1.46014,2.04871,0.00275504,0.00201933,0.000786385,0.00325535,0.00151901,0.566626,0.00188088,0.0139331,916,1618,1.46014,-2.04866
-301,-594,1.44495,2.06909,0.00341085,0.00253658,0.000528959,0.00365993,0.00228751,0.440081,0.00213496,0.0113046,923,1618,1.44497,-2.06906
-294,-594,1.4425,2.07593,0.00404862,0.00266394,7.9714e-05,0.00405319,0.00265937,0.0573164,0.00237783,0.010124,930,1618,1.44252,-2.07594
-287,-594,1.45892,2.10657,0.00408507,0.00237673,-0.000477885,0.00420967,0.00225214,-0.255044,0.00243244,0.0118156,937,1618,1.4589,-2.10662
-280,-594,1.45593,2.14978,0.00366976,0.00194128,-0.00115284,0.00424634,0.0013647,-0.463756,0.00250322,0.015815,944,1618,1.45592,-2.14972
-273,-594,1.43854,2.17322,0.00321346,0.00142025,-0.00194536,0.00445889,0.000174811,-0.569461,0.00291607,0.0248723,951,1618,1.43857,-2.17325
-266,-594,1.51038,2.15771,0.0033279,-0.000394527,-0.00330015,0.0052555,-0.00232212,-0.528642,0.00448288,0.0318535,958,1618,1.51035,-2.15767
-259,-594,1.58789,2.1499,0.00249995,-0.00222732,-0.0045945,0.00530315,-0.00503052,-0.547828,0.00596684,0.0379946,965,1618,1.58791,-2.14989
-252,-594,1.66663,1.74231,0.00137503,-0.00444782,-0.00576728,0.00492409,-0.00799688,-0.551651,0.00752992,0.0441492,972,1618,1.6666,-1.74232
-245,-594,1.66632,1.48718,0.00207932,-0.00479419,-0.00743249,0.00683116,-0.00954603,-0.568841,0.00949858,0.0426054,979,1618,1.66631,-1.4872
-238,-594,1.52484,1.39722,0.00284498,-0.00415152,-0.00695382,0.0071309,-0.00843745,-0.552348,0.00899894,0.0469153,986,1618,1.52482,-1.39721
-231,-594,0.976868,1.00061,0,0,0,0,0,0,0,-1,993,1618,0.976889,-1.00058
-224,-594,0.299438,0.54248,0.00372696,-0.00825484,-0.00497215,0.00552151,-0.0100494,-0.346369,0.00911568,0.0431208,1000,1618,0.299447,-0.542503
-217,-594,-0.387817,0.170898,0.00552156,-0.0112496,-0.000892052,0.00556887,-0.0112969,-0.0529903,0.0099229,0.0446621,1007,1618,-0.387809,-0.170884
-210,-594,1.75812,-0.915039,0,0,0,0,0,0,0,-1,1014,1618,1.75814,0.915076
-203,-594,1.96002,-0.734009,0,0,0,0,0,0,0,-1,1021,1618,1.96004,0.734026
-196,-594,2.17212,-0.546021,0.0115951,-0.016509,0.0110306,0.0154074,-0.0203213,0.332758,0.0206929,0.0467542,1028,1618,2.17208,0.545983
-189,-594,2.21619,-0.445679,0.0134145,-0.0194461,0.0159916,0.019912,-0.0259436,0.385934,0.026551,0.0457921,1035,1618,2.21624,0.445667
-182,-594,2.41663,-0.488647,0.0173199,-0.0214559,0.0188083,0.0249439,-0.0290799,0.385112,0.0312211,0.045343,1042,1618,2.4166,0.488676
-175,-594,2.33875,-0.176758,0.0300918,-0.0249344,0.018733,0.0358637,-0.0307064,0.298887,0.0384727,0.0426586,1049,1618,2.33877,0.176806
-168,-594,2.58118,0.130371,0.048194,-0.0264113,0.0154444,0.0512648,-0.0294821,0.196271,0.0471813,0.0484155,1056,1618,2.58115,-0.130395
-161,-594,2.87549,0.427856,0,0,0,0,0,0,0,-1,1063,1618,2.87551,-0.427847
-154,-594,0.131104,3.75439,0,0,0,0,0,0,0,-1,1070,1618,0.131063,-3.75443
-147,-594,0.0883789,3.69568,0,0,0,0,0,0,0,-1,1077,1618,0.0883947,-3.69562
-140,-594,0.00439453,3.49622,0,0,0,0,0,0,0,-1,1084,1618,0.00437829,-3.49623
-133,-594,0,0,0,0,0,0,0,0,0,-1,1091,1618,0,0
-126,-594,0,0,0,0,0,0,0,0,0,-1,1098,1618,0,0
-119,-594,0,0,0,0,0,0,0,0,0,-1,1105,1618,0,0
-112,-594,0,0,0,0,0,0,0,0,0,-1,1112,1618,0,0
-105,-594,0,0,0,0,0,0,0,0,0,-1,1119,1618,0,0
-98,-594,0,0,0,0,0,0,0,0,0,-1,1126,1618,0,0
-91,-594,0,0,0,0,0,0,0,0,0,-1,1133,1618,0,0
-84,-594,0,0,0,0,0,0,0,0,0,-1,1140,1618,0,0
-77,-594,0,0,0,0,0,0,0,0,0,-1,1147,1618,0,0
-70,-594,0,0,0,0,0,0,0,0,0,-1,1154,1618,0,0
-63,-594,0,0,0,0,0,0,0,0,0,-1,1161,1618,0,0
-56,-594,0,0,0,0,0,0,0,0,0,-1,1168,1618,0,0
-49,-594,0,0,0,0,0,0,0,0,0,-1,1175,1618,0,0
-42,-594,0,0,0,0,0,0,0,0,0,-1,1182,1618,0,0
-35,-594,0,0,0,0,0,0,0,0,0,-1,1189,1618,0,0
-28,-594,0,0,0,0,0,0,0,0,0,-1,1196,1618,0,0
-21,-594,0,0,0,0,0,0,0,0,0,-1,1203,1618,0,0
-14,-594,0,0,0,0,0,0,0,0,0,-1,1210,1618,0,0
-7,-594,0,0,0,0,0,0,0,0,0,-1,1217,1618,0,0
0,-594,0,0,0,0,0,0,0,0,0,-1,1224,1618,0,0
7,-594,0,0,0,0,0,0,0,0,0,-1,1231,1618,0,0
14,-594,0,0,0,0,0,0,0,0,0,-1,1238,1618,0,0
21,-594,0,0,0,0,0,0,0,0,0,-1,1245,1618,0,0
28,-594,0,0,0,0,0,0,0,0,0,-1,1252,1618,0,0
35,-594,0,0,0,0,0,0,0,0,0,-1,1259,1618,0,0
42,-594,0,0,0,0,0,0,0,0,0,-1,1266,1618,0,0
49,-594,0,0,0,0,0,0,0,0,0,-1,1273,1618,0,0
56,-594,0,0,0,0,0,0,0,0,0,-1,1280,1618,0,0
63,-594,0,0,0,0,0,0,0,0,0,-1,1287,1618,0,0
70,-594,0,0,0,0,0,0,0,0,0,-1,1294,1618,0,0
77,-594,0,0,0,0,0,0,0,0,0,-1,1301,1618,0,0
84,-594,0,0,0,0,0,0,0,0,0,-1,1308,1618,0,0
91,-594,0,0,0,0,0,0,0,0,0,-1,1315,1618,0,0
98,-594,0,0,0,0,0,0,0,0,0,-1,1322,1618,0,0
105,-594,0,0,0,0,0,0,0,0,0,-1,1329,1618,0,0
112,-594,0,0,0,0,0,0,0,0,0,-1,1336,1618,0,0
119,-594,0,0,0,0,0,0,0,0,0,-1,1343,1618,0,0
126,-594,0,0,0,0,0,0,0,0,0,-1,1350,1618,0,0
133,-594,0,0,0,0,0,0,0,0,0,-1,1357,1618,0,0
140,-594,0,0,0,0,0,0,0,0,0,-1,1364,1618,0,0
147,-594,0,0,0,0,0,0,0,0,0,-1,1371,1618,0,0
154,-594,0,0,0,0,0,0,0,0,0,-1,1378,1618,0,0
161,-594,0,0,0,0,0,0,0,0,0,-1,1385,1618,0,0
168,-594,0,0,0,0,0,0,0,0,0,-1,1392,1618,0,0
175,-594,0,0,0,0,0,0,0,0,0,-1,1399,1618,0,0
182,-594,0,0,0,0,0,0,0,0,0,-1,1406,1618,0,0
189,-594,0,0,0,0,0,0,0,0,0,-1,1413,1618,0,0
196,-594,0,0,0,0,0,0,0,0,0,-1,1420,1618,0,0
203,-594,0,0,0,0,0,0,0,0,0,-1,1427,1618,0,0
210,-594,0,0,0,0,0,0,0,0,0,-1,1434,1618,0,0
217,-594,0,0,0,0,0,0,0,0,0,-1,1441,1618,0,0
224,-594,0,0,0,0,0,0,0,0,0,-1,1448,1618,0,0
231,-594,0,0,0,0,0,0,0,0,0,-1,1455,1618,0,0
238,-594,0,0,0,0,0,0,0,0,0,-1,1462,1618,0,0
245,-594,0,0,0,0,0,0,0,0,0,-1,1469,1618,0,0
252,-594,4.09204,4.97961,0,0,0,0,0,0,0,-1,1476,1618,4.09208,-4.97963
259,-594,7.33972,4.22156,0,0,0,0,0,0,0,-1,1483,1618,7.33977,-4.22155
266,-594,7.38538,4.68115,0,0,0,0,0,0,0,-1,1490,1618,7.38539,-4.68113
273,-594,7.37659,4.25745,0,0,0,0,0,0,0,-1,1497,1618,7.37657,-4.25741
280,-594,6.71558,3.8269,0,0,0,0,0,0,0,-1,1504,1618,6.71558,-3.82686
287,-594,6.05945,3.3949,-0.0573057,0.00592048,-0.0383176,0.0239826,-0.0753678,-1.13031,0.0598628,0.0374419,1511,1618,6.05939,-3.39489
294,-594,5.36499,3.06335,-0.0568369,0.0131246,-0.0338763,0.0268395,-0.0705517,-1.18612,0.058086,0.0440059,1518,1618,5.36503,-3.06329
301,-594,4.5072,2.73645,-0.0523062,0.0191681,-0.0298323,0.0299832,-0.0631213,-1.223,0.0548771,0.0479483,1525,1618,4.50716,-2.73648
308,-594,3.76306,2.52563,-0.0460675,0.0245869,-0.0267,0.0335417,-0.0550223,-1.2472,0.0516314,0.045279,1532,1618,3.76312,-2.52565
315,-594,3.12122,2.22388,-0.0383719,0.0302287,-0.0229188,0.0371811,-0.0453243,-1.27627,0.0477118,0.0477391,1539,1618,3.12119,-2.22391
322,-594,2.48083,1.9574,0,0,0,0,0,0,0,-1,1546,1618,2.48079,-1.95742
329,-594,3.44324,2.67908,0,0,0,0,0,0,0,-1,1553,1618,3.44323,-2.67902
336,-594,3.16211,2.51978,0,0,0,0,0,0,0,-1,1560,1618,3.16216,-2.51977
343,-594,2.95776,2.50061,0,0,0,0,0,0,0,-1,1567,1618,2.95775,-2.50059
350,-594,2.00024,3.83691,0,0,0,0,0,0,0,-1,1574,1618,2.0002,-3.83691
357,-594,1.81763,3.42651,0,0,0,0,0,0,0,-1,1581,1618,1.81758,-3.42648
364,-594,1.59351,3.04138,0,0,0,0,0,0,0,-1,1588,1618,1.59352,-3.04139
371,-594,1.40393,2.59607,0,0,0,0,0,0,0,-1,1595,1618,1.40388,-2.59604
378,-594,0.980103,1.59229,0,0,0,0,0,0,0,-1,1602,1618,0.980104,-1.59231
385,-594,1.30859,1.73364,-0.00770296,0.028785,-0.00030793,0.0287876,-0.00770556,-1.56236,0.0222103,0.0487051,1609,1618,1.30865,-1.73359
392,-594,1.80017,1.9126,-0.00638804,0.0248869,-0.000415772,0.0248924,-0.00639357,-1.55751,0.0190865,0.045948,1616,1618,1.80021,-1.91261
399,-594,2.13599,2.02441,-0.00453121,0.0211412,-0.00122088,0.0211991,-0.00458914,-1.52338,0.015885,0.0411786,1623,1618,2.13599,-2.02435
406,-594,2.1687,2.10681,-0.00258167,0.0176412,-0.00204478,0.0178459,-0.00278635,-1.47103,0.0129265,0.0259998,1630,1618,2.16866,-2.10678
413,-594,2.20825,2.07178,-0.00105978,0.0148354,-0.00310012,0.0154187,-0.00164301,-1.38484,0.0108682,0.017551,1637,1618,2.20827,-2.07181
420,-594,2.25354,2.05444,0.000168807,0.0119239,-0.00410904,0.0132178,-0.0011251,-1.26573,0.00920984,0.0137765,1644,1618,2.2535,-2.05449
427,-594,2.28943,2.03503,0.000840863,0.00964057,-0.00466209,0.0116512,-0.00116972,-1.16363,0.00818526,0.0112263,1651,1618,2.28948,-2.03499
434,-594,2.29846,2.00684,0.00155492,0.00778445,-0.0044537,0.0101045,-0.000765126,-1.09055,0.00700532,0.0159211,1658,1618,2.29843,-2.00686
441,-594,2.28491,1.99878,0.00174532,0.00640891,-0.00413533,0.00882456,-0.000670332,-1.04211,0.00611874,0.0157482,1665,1618,2.28491,-1.9988
448,-594,2.2998,1.97314,0.00138866,0.0052323,-0.00358923,0.00738184,-0.00076088,-1.0312,0.00519346,0.0140348,1672,1618,2.29976,-1.97312
455,-594,2.29639,1.92126,0.00120718,0.00449049,-0.00289355,0.00617564,-0.000477966,-1.04343,0.00428531,0.0106452,1679,1618,2.2964,-1.92129
462,-594,2.28589,1.88782,0.00104897,0.00299676,-0.00234312,0.00456032,-0.000514593,-0.982356,0.00322546,0.0134108,1686,1618,2.28593,-1.88784
469,-594,2.30469,1.86792,0.000769372,0.00231053,-0.0017757,0.00347564,-0.000395745,-0.990114,0.00245965,0.0122291,1693,1618,2.30467,-1.86796
476,-594,2.2959,1.84607,0.00045388,0.00166317,-0.00132248,0.00251268,-0.000395629,-0.999812,0.00182137,0.0126976,1700,1618,2.29588,-1.84604
483,-594,2.28894,1.83557,0.00054965,0.00141525,-0.000877677,0.00196103,3.86115e-06,-1.01446,0.00130607,0.0158741,1707,1618,2.289,-1.83563
490,-594,2.26538,1.80322,0.0013607,0.00222707,-0.000380174,0.00237024,0.00121753,-1.21064,0.00136863,0.013018,1714,1618,2.26537,-1.80328
497,-594,2.27209,1.74072,0.00262142,0.0032328,-0.000705933,0.00369639,0.00215783,-0.989723,0.00214407,0.00960221,1721,1618,2.27206,-1.7407
504,-594,2.27661,1.70142,0.00408104,0.00453253,-0.00152561,0.00584901,0.00276456,-0.85885,0.00337861,0.0098343,1728,1618,2.27656,-1.70147
511,-594,2.27783,1.69385,0.00605324,0.00543517,-0.00286814,0.00862895,0.00285947,-0.731732,0.00507548,0.0120759,1735,1618,2.27779,-1.69387
518,-594,2.27856,1.64917,0.0093632,0.00656919,-0.00624423,0.0143648,0.0015676,-0.675347,0.00909912,0.0150659,1742,1618,2.27851,-1.64919
525,-594,2.29822,1.60486,0.0125826,0.00873744,-0.0095465,0.0203982,0.000921845,-0.686032,0.0133022,0.0255525,1749,1618,2.29821,-1.60481
532,-594,2.31567,1.57385,0.0139935,0.0112323,-0.0143158,0.0269951,-0.00176933,-0.737327,0.0186146,0.0398838,1756,1618,2.31567,-1.57389
539,-594,3.44702,2.25439,0.01507,0.0147493,-0.0207401,0.0356503,-0.00583104,-0.781533,0.02593,0.0443756,1763,1618,3.44696,-2.25443
546,-594,3.16003,1.51953,0.0157669,0.0179337,-0.0283429,0.0452139,-0.0115133,-0.8045,0.0346244,0.0491073,1770,1618,3.15998,-1.51954
553,-594,3.27783,1.02869,0.0146719,0.0219293,-0.0378326,0.0563068,-0.0197056,-0.83321,0.0455501,0.0461544,1777,1618,3.27778,-1.02864
560,-594,2.83655,0.378418,0.0113782,0.0274478,-0.0490671,0.0691335,-0.0303076,-0.866554,0.058853,0.0420643,1784,1618,2.8366,-0.378399
567,-594,2.60803,-0.22583,0.00645827,0.0349497,-0.0612751,0.0836133,-0.0422053,-0.899613,0.0739411,0.0402275,1791,1618,2.60802,0.225845
574,-594,3.60046,-0.428833,0.000976867,0.0443302,-0.0731225,0.0989213,-0.0536143,-0.929493,0.089352,0.0481193,1798,1618,3.60045,0.428776
581,-594,0,0,0,0,0,0,0,0,0,-1,1805,1618,0,0
588,-594,0,0,0,0,0,0,0,0,0,-1,1812,1618,0,0
595,-594,0,0,0,0,0,0,0,0,0,-1,1819,1618,0,0
602,-594,0,0,0,0,0,0,0,0,0,-1,1826,1618,0,0
609,-594,0,0,0,0,0,0,0,0,0,-1,1833,1618,0,0
616,-594,0,0,0,0,0,0,0,0,0,-1,1840,1618,0,0
623,-594,0,0,0,0,0,0,0,0,0,-1,1847,1618,0,0
630,-594,0,0,0,0,0,0,0,0,0,-1,1854,1618,0,0
637,-594,0,0,0,0,0,0,0,0,0,-1,1861,1618,0,0
644,-594,0,0,0,0,0,0,0,0,0,-1,1868,1618,0,0
651,-594,0,0,0,0,0,0,0,0,0,-1,1875,1618,0,0
658,-594,0,0,0,0,0,0,0,0,0,-1,1882,1618,0,0
665,-594,0,0,0,0,0,0,0,0,0,-1,1889,1618,0,0
672,-594,0,0,0,0,0,0,0,0,0,-1,1896,1618,0,0
679,-594,0,0,0,0,0,0,0,0,0,-1,1903,1618,0,0
686,-594,0,0,0,0,0,0,0,0,0,-1,1910,1618,0,0
693,-594,0,0,0,0,0,0,0,0,0,-1,1917,1618,0,0
700,-594,0,0,0,0,0,0,0,0,0,-1,1924,1618,0,0
707,-594,0,0,0,0,0,0,0,0,0,-1,1931,1618,0,0
714,-594,0,0,0,0,0,0,0,0,0,-1,1938,1618,0,0
721,-594,0,0,0,0,0,0,0,0,0,-1,1945,1618,0,0
728,-594,0,0,0,0,0,0,0,0,0,-1,1952,1618,0,0
735,-594,0,0,0,0,0,0,0,0,0,-1,1959,1618,0,0
742,-594,0,0,0,0,0,0,0,0,0,-1,1966,1618,0,0
749,-594,0,0,0,0,0,0,0,0,0,-1,1973,1618,0,0
756,-594,0,0,0,0,0,0,0,0,0,-1,1980,1618,0,0
763,-594,0,0,0,0,0,0,0,0,0,-1,1987,1618,0,0
770,-594,0,0,0,0,0,0,0,0,0,-1,1994,1618,0,0
777,-594,0,0,0,0,0,0,0,0,0,-1,2001,1618,0,0
784,-594,0,0,0,0,0,0,0,0,0,-1,2008,1618,0,0
791,-594,0,0,0,0,0,0,0,0,0,-1,2015,1618,0,0
798,-594,0,0,0,0,0,0,0,0,0,-1,2022,1618,0,0
805,-594,0,0,0,0,0,0,0,0,0,-1,2029,1618,0,0
812,-594,0,0,0,0,0,0,0,0,0,-1,2036,1618,0,0
-700,-601,0,0,0,0,0,0,0,0,0,-1,524,1625,0,0
-693,-601,0,0,0,0,0,0,0,0,0,-1,531,1625,0,0
-686,-601,0,0,0,0,0,0,0,0,0,-1,538,1625,0,0
-679,-601,0,0,0,0,0,0,0,0,0,-1,545,1625,0,0
-672,-601,0,0,0,0,0,0,0,0,0,-1,552,1625,0,0
-665,-601,0,0,0,0,0,0,0,0,0,-1,559,1625,0,0
-658,-601,0,0,0,0,0,0,0,0,0,-1,566,1625,0,0
-651,-601,0,0,0,0,0,0,0,0,0,-1,573,1625,0,0
-644,-601,0,0,0,0,0,0,0,0,0,-1,580,1625,0,0
-637,-601,0,0,0,0,0,0,0,0,0,-1,587,1625,0,0
-630,-601,0,0,0,0,0,0,0,0,0,-1,594,1625,0,0
-623,-601,0,0,0,0,0,0,0,0,0,-1,601,1625,0,0
-616,-601,0,0,0,0,0,0,0,0,0,-1,608,1625,0,0
-609,-601,0,0,0,0,0,0,0,0,0,-1,615,1625,0,0
-602,-601,0,0,0,0,0,0,0,0,0,-1,622,1625,0,0
-595,-601,0,0,0,0,0,0,0,0,0,-1,629,1625,0,0
-588,-601,0,0,0,0,0,0,0,0,0,-1,636,1625,0,0
-581,-601,0,0,0,0,0,0,0,0,0,-1,643,1625,0,0
-574,-601,0,0,0,0,0,0,0,0,0,-1,650,1625,0,0
-567,-601,0,0,0,0,0,0,0,0,0,-1,657,1625,0,0
-560,-601,0,0,0,0,0,0,0,0,0,-1,664,1625,0,0
-553,-601,0,0,0,0,0,0,0,0,0,-1,671,1625,0,0
-546,-601,0,0,0,0,0,0,0,0,0,-1,678,1625,0,0
-539,-601,0,0,0,0,0,0,0,0,0,-1,685,1625,0,0
-532,-601,0,0,0,0,0,0,0,0,0,-1,692,1625,0,0
-525,-601,0,0,0,0,0,0,0,0,0,-1,699,1625,0,0
-518,-601,0,0,0,0,0,0,0,0,0,-1,706,1625,0,0
-511,-601,0,0,0,0,0,0,0,0,0,-1,713,1625,0,0
-504,-601,0,0,0,0,0,0,0,0,0,-1,720,1625,0,0
-497,-601,0,0,0,0,0,0,0,0,0,-1,727,1625,0,0
-490,-601,0,0,0,0,0,0,0,0,0,-1,734,1625,0,0
-483,-601,0,0,0,0,0,0,0,0,0,-1,741,1625,0,0
-476,-601,0,0,0,0,0,0,0,0,0,-1,748,1625,0,0
-469,-601,0,0,0,0,0,0,0,0,0,-1,755,1625,0,0
-462,-601,0,0,0,0,0,0,0,0,0,-1,762,1625,0,0
-455,-601,0,0,0,0,0,0,0,0,0,-1,769,1625,0,0
-448,-601,0.151855,0.441772,0,0,0,0,0,0,0,-1,776,1625,0.151884,-0.441805
-441,-601,0.719666,0.584229,0,0,0,0,0,0,0,-1,783,1625,0.71966,-0.584268
-434,-601,1.11786,0.964233,0,0,0,0,0,0,0,-1,790,1625,1.11789,-0.964191
-427,-601,-0.872253,-0.829834,0,0,0,0,0,0,0,-1,797,1625,-0.87225,0.829777
-420,-601,-1.27783,-0.202148,0,0,0,0,0,0,0,-1,804,1625,-1.27783,0.202096
-413,-601,1.09186,0.850952,0,0,0,0,0,0,0,-1,811,1625,1.09186,-0.85097
-406,-601,1.45459,1.68347,0,0,0,0,0,0,0,-1,818,1625,1.45461,-1.6835
-399,-601,1.4751,1.67981,0,0,0,0,0,0,0,-1,825,1625,1.4751,-1.67976
-392,-601,1.19574,1.92456,0.0058259,-0.0123348,0.00447986,0.00687086,-0.0133797,0.22916,0.0118913,0.0459414,832,1625,1.19571,-1.92454
-385,-601,1.50873,1.72314,0.00718045,-0.0127783,0.00251326,0.00749206,-0.0130899,0.123357,0.0120286,0.0456783,839,1625,1.50875,-1.72315
-378,-601,1.49915,1.74487,0.00771469,-0.0123868,0.000868631,0.00775216,-0.0124243,0.0431051,0.0117525,0.0304014,846,1625,1.49912,-1.74484
-371,-601,1.45477,1.76465,0.00796373,-0.0124537,-0.000166605,0.00796509,-0.012455,-0.00815922,0.0118842,0.0142959,853,1625,1.4548,-1.76467
-364,-601,1.44647,1.79565,0.00761508,-0.0117503,-0.00121359,0.00769084,-0.0118261,-0.0623429,0.0113521,0.00985256,860,1625,1.44648,-1.79567
-357,-601,1.44061,1.84326,0.00647669,-0.00916402,-0.00199702,0.00672765,-0.00941498,-0.125009,0.0093629,0.00982247,867,1625,1.44064,-1.84324
-350,-601,1.47437,1.8689,0.00507919,-0.00721044,-0.00210616,0.00543012,-0.00756137,-0.165103,0.00753421,0.0202828,874,1625,1.47438,-1.86895
-343,-601,1.4577,1.89514,0.00380513,-0.00529841,-0.00207203,0.00425455,-0.00574783,-0.21359,0.00579629,0.0193175,881,1625,1.45772,-1.89514
-336,-601,1.46753,1.95264,0.00292991,-0.00366659,-0.00161568,0.00330438,-0.00404106,-0.227751,0.004248,0.0149166,888,1625,1.46755,-1.95269
-329,-601,1.48334,1.95703,0.00252992,-0.00205367,-0.000813148,0.0026699,-0.00219365,-0.170476,0.00281246,0.0127703,895,1625,1.48331,-1.95701
-322,-601,1.49255,1.97412,0.00211674,-0.000591312,-0.000163879,0.00212662,-0.000601193,-0.0602227,0.00165495,0.0116211,902,1625,1.49256,-1.97418
-315,-601,1.49567,2.01685,0.00197408,0.000660172,0.000384576,0.00207837,0.000555885,0.264804,0.00124245,0.011725,909,1625,1.49564,-2.01688
-308,-601,1.48785,2.02405,0.00218845,0.0015317,0.000661034,0.00259818,0.00112197,0.554873,0.0015047,0.0115071,916,1625,1.48785,-2.02407
-301,-601,1.47858,2.05481,0.00262779,0.002153,0.000671353,0.00310248,0.00167831,0.615458,0.00179322,0.0103372,923,1625,1.47856,-2.05475
-294,-601,1.48175,2.08569,0.00314939,0.00219075,0.000399602,0.00329412,0.00204602,0.347471,0.00192037,0.00987355,930,1625,1.48175,-2.08572
-287,-601,1.4726,2.09631,0.00312787,0.00183964,5.07608e-06,0.00312789,0.00183962,0.00394028,0.00181522,0.009899,937,1625,1.47262,-2.09626
-280,-601,1.47638,2.12256,0.00276275,0.00145128,-0.000495641,0.00292899,0.00128503,-0.323618,0.00169528,0.010294,944,1625,1.47635,-2.12258
-273,-601,1.47821,2.1593,0.0024401,0.00100247,-0.000987982,0.00294309,0.000499482,-0.470906,0.00181858,0.010191,951,1625,1.47823,-2.15929
-266,-601,1.49878,2.16992,0.00277484,-0.0005971,-0.0019904,0.00369735,-0.00151961,-0.434008,0.00309826,0.012233,958,1625,1.49879,-2.16996
-259,-601,1.53125,2.1283,0.00235436,-0.00220961,-0.00293231,0.003788,-0.00364325,-0.454739,0.00429071,0.0229258,965,1625,1.53123,-2.12824
-252,-601,1.60004,2.09485,0.00181275,-0.00414455,-0.00381473,0.00367399,-0.00600579,-0.453927,0.00564242,0.0398124,972,1625,1.60004,-2.0949
-245,-601,1.77216,1.77197,0.00273157,-0.00440795,-0.00519598,0.00546588,-0.00714226,-0.484416,0.00730073,0.0434456,979,1625,1.77214,-1.77203
-238,-601,1.59058,1.87048,0.00389535,-0.00391573,-0.00484634,0.00621398,-0.00623436,-0.446242,0.00718705,0.046037,986,1625,1.59059,-1.87049
-231,-601,1.31781,2.1521,0,0,0,0,0,0,0,-1,993,1625,1.31783,-2.15215
-224,-601,0.994324,0.418213,0.00580468,-0.00790838,-0.00309299,0.00647002,-0.00857373,-0.211885,0.00871377,0.0466219,1000,1625,0.994353,-0.418263
-217,-601,1.75372,3.828,0.00753656,-0.010695,0.000632396,0.00755847,-0.010717,0.0346313,0.0106037,0.0432396,1007,1625,1.75374,-3.82806
-210,-601,2.30133,-1.69824,0,0,0,0,0,0,0,-1,1014,1625,2.30134,1.69825
-203,-601,2.51373,-1.5509,0,0,0,0,0,0,0,-1,1021,1625,2.51374,1.55086
-196,-601,2.70618,-1.43628,0,0,0,0,0,0,0,-1,1028,1625,2.70621,1.43624
-189,-601,2.80835,-1.2583,0.0150169,-0.0179569,0.0155137,0.0211683,-0.0241083,0.377498,0.0261588,0.0462741,1035,1625,2.8083,1.25832
-182,-601,2.61548,0.61084,0.0186219,-0.0189404,0.0176531,0.025616,-0.0259345,0.377224,0.0297629,0.0439594,1042,1625,2.61546,-0.610828
-175,-601,2.13416,0.190796,0.0298131,-0.021661,0.0175521,0.0352284,-0.0270764,0.299265,0.0360742,0.0474733,1049,1625,2.13411,-0.190819
-168,-601,2.50317,0.724121,0.045418,-0.0224294,0.0142986,0.0483082,-0.0253196,0.199448,0.0431942,0.0488984,1056,1625,2.5032,-0.724152
-161,-601,2.78809,1.11169,0,0,0,0,0,0,0,-1,1063,1625,2.78803,-1.11167
-154,-601,0.895264,4.04285,0,0,0,0,0,0,0,-1,1070,1625,0.895252,-4.04284
-147,-601,0.193726,3.09546,0,0,0,0,0,0,0,-1,1077,1625,0.193693,-3.09545
-140,-601,0.452148,2.62329,0,0,0,0,0,0,0,-1,1084,1625,0.45213,-2.62334
-133,-601,-2.48975,3.8634,0,0,0,0,0,0,0,-1,1091,1625,-2.48972,-3.86341
-126,-601,-1.1665,3.38696,0.14536,-0.0692675,-0.0368291,0.151504,-0.0754113,-0.165298,0.133442,0.0476026,1098,1625,-1.16648,-3.38692
-119,-601,0.289795,2.98535,0.162676,-0.0796209,-0.0517135,0.173252,-0.0901966,-0.201723,0.154601,0.0460149,1105,1625,0.289852,-2.98534
-112,-601,0,0,0,0,0,0,0,0,0,-1,1112,1625,0,0
-105,-601,0,0,0,0,0,0,0,0,0,-1,1119,1625,0,0
-98,-601,0,0,0,0,0,0,0,0,0,-1,1126,1625,0,0
-91,-601,0,0,0,0,0,0,0,0,0,-1,1133,1625,0,0
-84,-601,0,0,0,0,0,0,0,0,0,-1,1140,1625,0,0
-77,-601,0,0,0,0,0,0,0,0,0,-1,1147,1625,0,0
-70,-601,0,0,0,0,0,0,0,0,0,-1,1154,1625,0,0
-63,-601,0,0,0,0,0,0,0,0,0,-1,1161,1625,0,0
-56,-601,0,0,0,0,0,0,0,0,0,-1,1168,1625,0,0
-49,-601,0,0,0,0,0,0,0,0,0,-1,1175,1625,0,0
-42,-601,0,0,0,0,0,0,0,0,0,-1,1182,1625,0,0
-35,-601,0,0,0,0,0,0,0,0,0,-1,1189,1625,0,0
-28,-601,0,0,0,0,0,0,0,0,0,-1,1196,1625,0,0
-21,-601,0,0,0,0,0,0,0,0,0,-1,1203,1625,0,0
-14,-601,0,0,0,0,0,0,0,0,0,-1,1210,1625,0,0
-7,-601,0,0,0,0,0,0,0,0,0,-1,1217,1625,0,0
0,-601,0,0,0,0,0,0,0,0,0,-1,1224,1625,0,0
7,-601,0,0,0,0,0,0,0,0,0,-1,1231,1625,0,0
14,-601,0,0,0,0,0,0,0,0,0,-1,1238,1625,0,0
21,-601,0,0,0,0,0,0,0,0,0,-1,1245,1625,0,0
28,-601,0,0,0,0,0,0,0,0,0,-1,1252,1625,0,0
35,-601,0,0,0,0,0,0,0,0,0,-1,1259,1625,0,0
42,-601,0,0,0,0,0,0,0,0,0,-1,1266,1625,0,0
49,-601,0,0,0,0,0,0,0,0,0,-1,1273,1625,0,0
56,-601,0,0,0,0,0,0,0,0,0,-1,1280,1625,0,0
63,-601,0,0,0,0,0,0,0,0,0,-1,1287,1625,0,0
70,-601,0,0,0,0,0,0,0,0,0,-1,1294,1625,0,0
77,-601,0,0,0,0,0,0,0,0,0,-1,1301,1625,0,0
84,-601,0,0,0,0,0,0,0,0,0,-1,1308,1625,0,0
91,-601,0,0,0,0,0,0,0,0,0,-1,1315,1625,0,0
98,-601,0,0,0,0,0,0,0,0,0,-1,1322,1625,0,0
105,-601,0,0,0,0,0,0,0,0,0,-1,1329,1625,0,0
112,-601,0,0,0,0,0,0,0,0,0,-1,1336,1625,0,0
119,-601,0,0,0,0,0,0,0,0,0,-1,1343,1625,0,0
126,-601,0,0,0,0,0,0,0,0,0,-1,1350,1625,0,0
133,-601,0,0,0,0,0,0,0,0,0,-1,1357,1625,0,0
140,-601,0,0,0,0,0,0,0,0,0,-1,1364,1625,0,0
147,-601,0,0,0,0,0,0,0,0,0,-1,1371,1625,0,0
154,-601,0,0,0,0,0,0,0,0,0,-1,1378,1625,0,0
161,-601,0,0,0,0,0,0,0,0,0,-1,1385,1625,0,0
168,-601,0,0,0,0,0,0,0,0,0,-1,1392,1625,0,0
175,-601,0,0,0,0,0,0,0,0,0,-1,1399,1625,0,0
182,-601,0,0,0,0,0,0,0,0,0,-1,1406,1625,0,0
189,-601,0,0,0,0,0,0,0,0,0,-1,1413,1625,0,0
196,-601,0,0,0,0,0,0,0,0,0,-1,1420,1625,0,0
203,-601,0,0,0,0,0,0,0,0,0,-1,1427,1625,0,0
210,-601,0,0,0,0,0,0,0,0,0,-1,1434,1625,0,0
217,-601,0,0,0,0,0,0,0,0,0,-1,1441,1625,0,0
224,-601,0,0,0,0,0,0,0,0,0,-1,1448,1625,0,0
231,-601,-0.0371094,0.525879,0,0,0,0,0,0,0,-1,1455,1625,-0.0371518,-0.525824
238,-601,-0.27356,0.307373,0,0,0,0,0,0,0,-1,1462,1625,-0.273505,-0.307377
245,-601,4.22498,4.24316,0,0,0,0,0,0,0,-1,1469,1625,4.22501,-4.24312
252,-601,4.00989,4.4574,0,0,0,0,0,0,0,-1,1476,1625,4.0099,-4.45743
259,-601,6.04102,4.49756,0,0,0,0,0,0,0,-1,1483,1625,6.04099,-4.49755
266,-601,6.28552,4.57422,0,0,0,0,0,0,0,-1,1490,1625,6.2855,-4.57418
273,-601,6.448,5.01917,0,0,0,0,0,0,0,-1,1497,1625,6.44802,-5.01915
280,-601,7.17981,3.83203,0,0,0,0,0,0,0,-1,1504,1625,7.17982,-3.83202
287,-601,6.52344,3.3584,0,0,0,0,0,0,0,-1,1511,1625,6.52343,-3.35837
294,-601,4.98694,2.79053,0,0,0,0,0,0,0,-1,1518,1625,4.9869,-2.79051
301,-601,4.25,2.61938,-0.0402936,0.0137838,-0.021614,0.0213609,-0.0478707,-1.23362,0.040936,0.0481812,1525,1625,4.25002,-2.61941
308,-601,3.5022,2.38428,-0.0372595,0.0184974,-0.0188094,0.0242493,-0.0430115,-1.27403,0.0393334,0.0441088,1532,1625,3.50226,-2.38427
315,-601,2.84351,2.10364,-0.0324235,0.0233353,-0.0165458,0.0278754,-0.0369637,-1.30299,0.0375572,0.0445428,1539,1625,2.84352,-2.10364
322,-601,3.47156,2.25525,-0.0278966,0.0276265,-0.0140976,0.0310009,-0.031271,-1.33586,0.0359528,0.0459336,1546,1625,3.47152,-2.25525
329,-601,3.18188,2.55505,-0.0240301,0.03112,-0.0120506,0.0336382,-0.0265482,-1.3648,0.0348289,0.0469451,1553,1625,3.18184,-2.55507
336,-601,3.00659,2.54688,-0.019997,0.0328777,-0.00979846,0.0346351,-0.0217543,-1.39333,0.0328384,0.044634,1560,1625,3.00661,-2.54689
343,-601,2.83655,2.56836,-0.0160034,0.0337373,-0.0073826,0.0348099,-0.017076,-1.42652,0.030534,0.0492892,1567,1625,2.83654,-2.56834
350,-601,2.6615,2.59375,0,0,0,0,0,0,0,-1,1574,1625,2.66147,-2.59378
357,-601,1.95813,3.44971,0,0,0,0,0,0,0,-1,1581,1625,1.9581,-3.4497
364,-601,1.76855,3.0188,0,0,0,0,0,0,0,-1,1588,1625,1.76853,-3.01878
371,-601,1.56812,2.56128,-0.00647891,0.0282034,-0.00240005,0.0283687,-0.00664421,-1.50203,0.0214726,0.0445668,1595,1625,1.56808,-2.56132
378,-601,1.4624,2.22766,-0.00566239,0.0251723,-0.00236263,0.0253522,-0.00584237,-1.49477,0.0191484,0.0438671,1602,1625,1.46237,-2.22765
385,-601,1.46021,2.16174,-0.00474726,0.0212464,-0.00165824,0.0213518,-0.00485262,-1.50735,0.0160977,0.0441582,1609,1625,1.46018,-2.16169
392,-601,1.8042,2.11292,-0.00346537,0.018079,-0.00145169,0.0181764,-0.00356275,-1.50382,0.0134632,0.0375225,1616,1625,1.80421,-2.1129
399,-601,2.22327,2.13916,-0.00184158,0.0151479,-0.0017374,0.0153238,-0.00201743,-1.46992,0.0109505,0.0206454,1623,1625,2.22328,-2.13912
406,-601,2.25085,2.10632,-0.000332582,0.0125106,-0.00197049,0.0128061,-0.000628108,-1.42193,0.00875429,0.0129213,1630,1625,2.25087,-2.10634
413,-601,2.23804,2.06653,0.000649934,0.0105929,-0.00242763,0.0111539,8.88743e-05,-1.34367,0.00740651,0.0113904,1637,1625,2.23808,-2.06656
420,-601,2.24512,2.04736,0.00137527,0.00855746,-0.00289713,0.0095804,0.000352332,-1.23137,0.00627279,0.0102792,1644,1625,2.24508,-2.04734
427,-601,2.27405,2.04883,0.00155063,0.00704416,-0.00304479,0.00839807,0.000196723,-1.15239,0.0055343,0.014048,1651,1625,2.27401,-2.04883
434,-601,2.27014,2.00415,0.00170575,0.00576996,-0.00270592,0.00712186,0.000353854,-1.10746,0.00463446,0.0144894,1658,1625,2.27012,-2.00419
441,-601,2.27673,1.9751,0.00147719,0.00481828,-0.00240356,0.00607482,0.000220656,-1.08909,0.00397837,0.0163336,1665,1625,2.27671,-1.97514
448,-601,2.28333,1.96057,0.000881436,0.00393251,-0.0020115,0.00493153,-0.000117587,-1.10983,0.00332758,0.0132094,1672,1625,2.28327,-1.96052
455,-601,2.28198,1.92859,0.000544203,0.00330948,-0.00156843,0.00401769,-0.000164011,-1.14666,0.00273477,0.0111481,1679,1625,2.28204,-1.92854
462,-601,2.27295,1.8894,0.00029713,0.00221692,-0.00123316,0.00281974,-0.000305695,-1.11611,0.00198957,0.00999023,1686,1625,2.27296,-1.8894
469,-601,2.27307,1.86646,-7.66769e-05,0.00165388,-0.00089041,0.00203019,-0.000452984,-1.17094,0.00152702,0.0104668,1693,1625,2.27303,-1.86643
476,-601,2.25098,1.84509,-0.000362336,0.00114845,-0.00069595,0.00142017,-0.000634058,-1.19856,0.00121461,0.0137396,1700,1625,2.251,-1.8451
483,-601,2.23169,1.81616,-0.000169261,0.00110753,-0.000538037,0.00130402,-0.00036575,-1.22065,0.00101351,0.0172927,1707,1625,2.23169,-1.81621
490,-601,2.23865,1.7926,0.00085242,0.00224654,-0.000135232,0.00225954,0.000839424,-1.47499,0.00131883,0.0123435,1714,1625,2.23864,-1.79257
497,-601,2.2616,1.7428,0.00249133,0.00368324,-0.000616465,0.00394472,0.00222985,-1.16964,0.00228394,0.00922694,1721,1625,2.26154,-1.74285
504,-601,2.26001,1.68372,0.00445035,0.00542181,-0.001681,0.00668585,0.00318632,-0.926044,0.00386149,0.0117359,1728,1625,2.26003,-1.68375
511,-601,2.26233,1.67664,0.00707907,0.00664164,-0.00331,0.0101776,0.00354313,-0.752407,0.00596569,0.0221875,1735,1625,2.26234,-1.67667
518,-601,2.24951,1.61353,0.0112385,0.00819795,-0.00734762,0.0172215,0.00221499,-0.683383,0.0108185,0.0329535,1742,1625,2.24955,-1.6135
525,-601,2.2666,1.51965,0.0154245,0.0109855,-0.0111484,0.0245722,0.00183779,-0.68714,0.0158045,0.0417211,1749,1625,2.26657,-1.5197
532,-601,2.26404,1.40637,0.0182111,0.0139698,-0.0164412,0.0326678,-0.000486918,-0.721261,0.0219426,0.0447547,1756,1625,2.26402,-1.40636
539,-601,1.83752,1.16003,0.0209962,0.0176945,-0.0235993,0.0430023,-0.00431162,-0.750479,0.0302082,0.0446629,1763,1625,1.83756,-1.15998
546,-601,3.3717,1.49963,0.023355,0.0209193,-0.0319432,0.0541036,-0.00982926,-0.766344,0.0397526,0.045441,1770,1625,3.37168,-1.49967
553,-601,3.26721,1.29639,0.0240179,0.0247051,-0.0424214,0.0667843,-0.0180613,-0.789448,0.0516078,0.0452365,1777,1625,3.26721,-1.29644
560,-601,3.99023,1.01709,0.0223356,0.0297368,-0.0550761,0.0812365,-0.0291641,-0.818943,0.0660609,0.0453018,1784,1625,3.99022,-1.01708
567,-601,4.94897,0.343872,0.0178217,0.0366845,-0.0700746,0.0979596,-0.0434534,-0.852292,0.083642,0.0438862,1791,1625,4.94901,-0.343917
574,-601,0,0,0,0,0,0,0,0,0,-1,1798,1625,0,0
581,-601,0,0,0,0,0,0,0,0,0,-1,1805,1625,0,0
588,-601,0,0,0,0,0,0,0,0,0,-1,1812,1625,0,0
595,-601,0,0,0,0,0,0,0,0,0,-1,1819,1625,0,0
602,-601,0,0,0,0,0,0,0,0,0,-1,1826,1625,0,0
609,-601,0,0,0,0,0,0,0,0,0,-1,1833,1625,0,0
616,-601,0,0,0,0,0,0,0,0,0,-1,1840,1625,0,0
623,-601,0,0,0,0,0,0,0,0,0,-1,1847,1625,0,0
630,-601,0,0,0,0,0,0,0,0,0,-1,1854,1625,0,0
637,-601,0,0,0,0,0,0,0,0,0,-1,1861,1625,0,0
644,-601,0,0,0,0,0,0,0,0,0,-1,1868,1625,0,0
651,-601,0,0,0,0,0,0,0,0,0,-1,1875,1625,0,0
658,-601,0,0,0,0,0,0,0,0,0,-1,1882,1625,0,0
665,-601,0,0,0,0,0,0,0,0,0,-1,1889,1625,0,0
672,-601,0,0,0,0,0,0,0,0,0,-1,1896,1625,0,0
679,-601,0,0,0,0,0,0,0,0,0,-1,1903,1625,0,0
686,-601,0,0,0,0,0,0,0,0,0,-1,1910,1625,0,0
693,-601,0,0,0,0,0,0,0,0,0,-1,1917,1625,0,0
700,-601,0,0,0,0,0,0,0,0,0,-1,1924,1625,0,0
707,-601,0,0,0,0,0,0,0,0,0,-1,1931,1625,0,0
714,-601,0,0,0,0,0,0,0,0,0,-1,1938,1625,0,0
721,-601,0,0,0,0,0,0,0,0,0,-1,1945,1625,0,0
728,-601,0,0,0,0,0,0,0,0,0,-1,1952,1625,0,0
735,-601,0,0,0,0,0,0,0,0,0,-1,1959,1625,0,0
742,-601,0,0,0,0,0,0,0,0,0,-1,1966,1625,0,0
749,-601,0,0,0,0,0,0,0,0,0,-1,1973,1625,0,0
756,-601,0,0,0,0,0,0,0,0,0,-1,1980,1625,0,0
763,-601,0,0,0,0,0,0,0,0,0,-1,1987,1625,0,0
770,-601,0,0,0,0,0,0,0,0,0,-1,1994,1625,0,0
777,-601,0,0,0,0,0,0,0,0,0,-1,2001,1625,0,0
784,-601,0,0,0,0,0,0,0,0,0,-1,2008,1625,0,0
791,-601,0,0,0,0,0,0,0,0,0,-1,2015,1625,0,0
798,-601,0,0,0,0,0,0,0,0,0,-1,2022,1625,0,0
805,-601,0,0,0,0,0,0,0,0,0,-1,2029,1625,0,0
812,-601,0,0,0,0,0,0,0,0,0,-1,2036,1625,0,0
-700,-608,0,0,0,0,0,0,0,0,0,-1,524,1632,0,0
-693,-608,0,0,0,0,0,0,0,0,0,-1,531,1632,0,0
-686,-608,0,0,0,0,0,0,0,0,0,-1,538,1632,0,0
-679,-608,0,0,0,0,0,0,0,0,0,-1,545,1632,0,0
-672,-608,0,0,0,0,0,0,0,0,0,-1,552,1632,0,0
-665,-608,0,0,0,0,0,0,0,0,0,-1,559,1632,0,0
-658,-608,0,0,0,0,0,0,0,0,0,-1,566,1632,0,0
-651,-608,0,0,0,0,0,0,0,0,0,-1,573,1632,0,0
-644,-608,0,0,0,0,0,0,0,0,0,-1,580,1632,0,0
-637,-608,0,0,0,0,0,0,0,0,0,-1,587,1632,0,0
-630,-608,0,0,0,0,0,0,0,0,0,-1,594,1632,0,0
-623,-608,0,0,0,0,0,0,0,0,0,-1,601,1632,0,0
-616,-608,0,0,0,0,0,0,0,0,0,-1,608,1632,0,0
-609,-608,0,0,0,0,0,0,0,0,0,-1,615,1632,0,0
-602,-608,0,0,0,0,0,0,0,0,0,-1,622,1632,0,0
-595,-608,0,0,0,0,0,0,0,0,0,-1,629,1632,0,0
-588,-608,0,0,0,0,0,0,0,0,0,-1,636,1632,0,0
-581,-608,0,0,0,0,0,0,0,0,0,-1,643,1632,0,0
-574,-608,0,0,0,0,0,0,0,0,0,-1,650,1632,0,0
-567,-608,0,0,0,0,0,0,0,0,0,-1,657,1632,0,0
-560,-608,0,0,0,0,0,0,0,0,0,-1,664,1632,0,0
-553,-608,0,0,0,0,0,0,0,0,0,-1,671,1632,0,0
-546,-608,0,0,0,0,0,0,0,0,0,-1,678,1632,0,0
-539,-608,0,0,0,0,0,0,0,0,0,-1,685,1632,0,0
-532,-608,0,0,0,0,0,0,0,0,0,-1,692,1632,0,0
-525,-608,0,0,0,0,0,0,0,0,0,-1,699,1632,0,0
-518,-608,0,0,0,0,0,0,0,0,0,-1,706,1632,0,0
-511,-608,0,0,0,0,0,0,0,0,0,-1,713,1632,0,0
-504,-608,0,0,0,0,0,0,0,0,0,-1,720,1632,0,0
-497,-608,0,0,0,0,0,0,0,0,0,-1,727,1632,0,0
-490,-608,0,0,0,0,0,0,0,0,0,-1,734,1632,0,0
-483,-608,0,0,0,0,0,0,0,0,0,-1,741,1632,0,0
-476,-608,0,0,0,0,0,0,0,0,0,-1,748,1632,0,0
-469,-608,0,0,0,0,0,0,0,0,0,-1,755,1632,0,0
-462,-608,0,0,0,0,0,0,0,0,0,-1,762,1632,0,0
-455,-608,0,0,0,0,0,0,0,0,0,-1,769,1632,0,0
-448,-608,0,0,0,0,0,0,0,0,0,-1,776,1632,0,0
-441,-608,1.59949,0.588379,0,0,0,0,0,0,0,-1,783,1632,1.5995,-0.588382
-434,-608,0.424377,-2.1908,0,0,0,0,0,0,0,-1,790,1632,0.424393,2.19075
-427,-608,-0.059021,-1.46228,-0.0211471,-0.00355449,0.0136267,0.00386835,-0.02857,1.07201,0.0204584,0.0467756,797,1632,-0.059051,1.46228
-420,-608,-0.475403,-0.814209,-0.0108322,-0.00606289,0.014236,0.00598684,-0.0228819,0.868381,0.0175931,0.0451923,804,1632,-0.475385,0.814235
-413,-608,-0.289307,-0.51709,0,0,0,0,0,0,0,-1,811,1632,-0.289288,0.517109
-406,-608,-0.325256,0.242188,0,0,0,0,0,0,0,-1,818,1632,-0.32526,-0.242218
-399,-608,-0.351807,1.05542,0,0,0,0,0,0,0,-1,825,1632,-0.351828,-1.0554
-392,-608,-0.243286,1.89368,0,0,0,0,0,0,0,-1,832,1632,-0.243264,-1.89372
-385,-608,1.6731,1.80017,0,0,0,0,0,0,0,-1,839,1632,1.67307,-1.8002
-378,-608,1.57227,1.83679,0.0110343,-0.0184295,0.000673828,0.0110497,-0.0184449,0.0228538,0.0172062,0.0497604,846,1632,1.57224,-1.83685
-371,-608,1.5036,1.802,0.011417,-0.0180804,-0.000589634,0.0114288,-0.0180922,-0.0199787,0.0171881,0.0370667,853,1632,1.50363,-1.80198
-364,-608,1.4884,1.76978,0.0109484,-0.0166598,-0.00181191,0.0110668,-0.0167782,-0.0652563,0.0161887,0.0148384,860,1632,1.48841,-1.7698
-357,-608,1.49481,1.83069,0.0094474,-0.0131945,-0.00265301,0.00975411,-0.0135012,-0.115096,0.0134844,0.0119067,867,1632,1.49482,-1.83073
-350,-608,1.49518,1.88074,0.0075862,-0.0104153,-0.00277584,0.00800452,-0.0108337,-0.149573,0.010917,0.0173181,874,1632,1.49516,-1.88077
-343,-608,1.49445,1.90393,0.00576572,-0.00774832,-0.00269151,0.00628205,-0.00826464,-0.189532,0.0084245,0.0197321,881,1632,1.49443,-1.90388
-336,-608,1.49579,1.93152,0.00425781,-0.00538057,-0.00215129,0.00471618,-0.00583894,-0.209929,0.00610548,0.0128068,888,1632,1.4958,-1.9315
-329,-608,1.5033,1.92688,0.00315997,-0.0032818,-0.00135346,0.00343278,-0.00355462,-0.198905,0.00403438,0.0116362,895,1632,1.50331,-1.92687
-322,-608,1.50537,1.95142,0.00211658,-0.00150591,-0.000716593,0.00225318,-0.00164251,-0.188369,0.00225837,0.0118618,902,1632,1.50539,-1.95138
-315,-608,1.51929,1.99963,0.00143247,-1.54075e-05,-0.000185943,0.00145597,-3.89058e-05,-0.125707,0.000983871,0.0105691,909,1632,1.51929,-1.99968
-308,-608,1.51556,2.01135,0.00130276,0.000950734,0.000180383,0.00137878,0.000874718,0.39883,0.000805568,0.0120219,916,1632,1.51558,-2.01134
-301,-608,1.50726,2.03748,0.00150068,0.00168871,0.000373113,0.00197947,0.00120992,0.908819,0.00115224,0.0114156,923,1632,1.50728,-2.03753
-294,-608,1.49878,2.09058,0.00193389,0.00162595,0.000226686,0.00205395,0.00150589,0.48707,0.00122808,0.0109387,930,1632,1.49879,-2.09059
-287,-608,1.48785,2.09888,0.00191,0.0012328,-6.46453e-05,0.00191612,0.00122669,-0.0943244,0.00112067,0.0104942,937,1632,1.48785,-2.09885
-280,-608,1.49023,2.11621,0.00164648,0.00093319,-0.000455008,0.00186796,0.00071171,-0.453001,0.0010886,0.00886439,944,1632,1.49026,-2.11625
-273,-608,1.50977,2.14453,0.00149177,0.000590486,-0.000726929,0.00189641,0.000185849,-0.507926,0.0012071,0.00890256,951,1632,1.50976,-2.14452
-266,-608,1.51233,2.172,0.00202062,-0.000726147,-0.00144467,0.00264054,-0.00134606,-0.405344,0.00234176,0.00844758,958,1632,1.51232,-2.17205
-259,-608,1.51257,2.18005,0.00195367,-0.00201002,-0.00212472,0.00287737,-0.00293371,-0.410089,0.00335508,0.0110256,965,1632,1.5126,-2.17999
-252,-608,1.52533,2.18494,0.00188628,-0.00354601,-0.00276194,0.00304387,-0.00470359,-0.396879,0.00450708,0.023094,972,1632,1.52536,-2.18496
-245,-608,1.60657,2.23242,0.00303834,-0.0036378,-0.00386984,0.00481088,-0.00541035,-0.42952,0.00590461,0.0353332,979,1632,1.60656,-2.2324
-238,-608,1.51886,2.22083,0.00447654,-0.00320771,-0.00363546,0.00592388,-0.00465505,-0.378884,0.00612238,0.0415379,986,1632,1.51886,-2.22081
-231,-608,1.34436,2.25684,0.00558635,-0.00498575,-0.00335521,0.00656127,-0.00596067,-0.282782,0.00723232,0.0433215,993,1632,1.34436,-2.25683
-224,-608,1.15497,2.32349,0,0,0,0,0,0,0,-1,1000,1632,1.15495,-2.32345
-217,-608,1.79083,3.24353,0,0,0,0,0,0,0,-1,1007,1632,1.79085,-3.24356
-210,-608,2.00061,3.45007,0,0,0,0,0,0,0,-1,1014,1632,2.00063,-3.45004
-203,-608,2.8764,1.47925,0,0,0,0,0,0,0,-1,1021,1632,2.87641,-1.47919
-196,-608,1.74084,2.5686,0,0,0,0,0,0,0,-1,1028,1632,1.74081,-2.56856
-189,-608,1.83093,1.53113,0,0,0,0,0,0,0,-1,1035,1632,1.8309,-1.53117
-182,-608,2.10046,0.971436,0.0183783,-0.0160716,0.0158621,0.0245692,-0.0222626,0.372115,0.0270493,0.0419629,1042,1632,2.10042,-0.971446
-175,-608,2.23792,0.673096,0.0278255,-0.0180124,0.0157367,0.0327081,-0.0228949,0.300846,0.0322686,0.0452218,1049,1632,2.23786,-0.673051
-168,-608,1.81812,3.38623,0.041031,-0.0180487,0.0127214,0.0436538,-0.0206715,0.203324,0.0379201,0.0477796,1056,1632,1.81813,-3.38622
-161,-608,1.31738,3.48279,0,0,0,0,0,0,0,-1,1063,1632,1.31739,-3.48277
-154,-608,0.87793,3.72766,0,0,0,0,0,0,0,-1,1070,1632,0.877974,-3.72767
-147,-608,0.574585,3.74036,0,0,0,0,0,0,0,-1,1077,1632,0.574538,-3.74034
-140,-608,-0.198975,4.15503,0,0,0,0,0,0,0,-1,1084,1632,-0.198995,-4.15501
-133,-608,-3.22791,4.86707,0,0,0,0,0,0,0,-1,1091,1632,-3.22794,-4.86706
-126,-608,-0.828369,3.42773,0.122242,-0.0487523,-0.0301678,0.127408,-0.0539186,-0.169607,0.107517,0.0422556,1098,1632,-0.828358,-3.42771
-119,-608,0.328125,3.1626,0.134293,-0.0566067,-0.0417394,0.14302,-0.0653339,-0.206118,0.123049,0.0406766,1105,1632,0.328163,-3.16264
-112,-608,1.26257,2.6875,0.140871,-0.0666286,-0.0546788,0.154397,-0.0801553,-0.242517,0.137662,0.0412568,1112,1632,1.26251,-2.68754
-105,-608,2.13953,2.06934,0.122787,-0.0876214,-0.0555001,0.136529,-0.101363,-0.24272,0.137847,0.0434378,1119,1632,2.13952,-2.06933
-98,-608,2.72302,1.18152,0.105009,-0.101951,-0.0544446,0.118457,-0.1154,-0.242169,0.135021,0.0455556,1126,1632,2.72308,-1.1815
-91,-608,3.06433,-0.0145264,0.0904115,-0.106503,-0.0536578,0.104084,-0.120175,-0.249493,0.129587,0.0450358,1133,1632,3.06431,0.0144969
-84,-608,0,0,0,0,0,0,0,0,0,-1,1140,1632,0,0
-77,-608,0,0,0,0,0,0,0,0,0,-1,1147,1632,0,0
-70,-608,0,0,0,0,0,0,0,0,0,-1,1154,1632,0,0
-63,-608,0,0,0,0,0,0,0,0,0,-1,1161,1632,0,0
-56,-608,0,0,0,0,0,0,0,0,0,-1,1168,1632,0,0
-49,-608,0,0,0,0,0,0,0,0,0,-1,1175,1632,0,0
-42,-608,0,0,0,0,0,0,0,0,0,-1,1182,1632,0,0
-35,-608,0,0,0,0,0,0,0,0,0,-1,1189,1632,0,0
-28,-608,0,0,0,0,0,0,0,0,0,-1,1196,1632,0,0
-21,-608,0,0,0,0,0,0,0,0,0,-1,1203,1632,0,0
-14,-608,0,0,0,0,0,0,0,0,0,-1,1210,1632,0,0
-7,-608,0,0,0,0,0,0,0,0,0,-1,1217,1632,0,0
0,-608,0,0,0,0,0,0,0,0,0,-1,1224,1632,0,0
7,-608,0,0,0,0,0,0,0,0,0,-1,1231,1632,0,0
14,-608,0,0,0,0,0,0,0,0,0,-1,1238,1632,0,0
21,-608,0,0,0,0,0,0,0,0,0,-1,1245,1632,0,0
28,-608,0,0,0,0,0,0,0,0,0,-1,1252,1632,0,0
35,-608,0,0,0,0,0,0,0,0,0,-1,1259,1632,0,0
42,-608,0,0,0,0,0,0,0,0,0,-1,1266,1632,0,0
49,-608,0,0,0,0,0,0,0,0,0,-1,1273,1632,0,0
56,-608,0,0,0,0,0,0,0,0,0,-1,1280,1632,0,0
63,-608,0,0,0,0,0,0,0,0,0,-1,1287,1632,0,0
70,-608,0,0,0,0,0,0,0,0,0,-1,1294,1632,0,0
77,-608,0,0,0,0,0,0,0,0,0,-1,1301,1632,0,0
84,-608,0,0,0,0,0,0,0,0,0,-1,1308,1632,0,0
91,-608,0,0,0,0,0,0,0,0,0,-1,1315,1632,0,0
98,-608,0,0,0,0,0,0,0,0,0,-1,1322,1632,0,0
105,-608,0,0,0,0,0,0,0,0,0,-1,1329,1632,0,0
112,-608,0,0,0,0,0,0,0,0,0,-1,1336,1632,0,0
119,-608,0,0,0,0,0,0,0,0,0,-1,1343,1632,0,0
126,-608,0,0,0,0,0,0,0,0,0,-1,1350,1632,0,0
133,-608,0,0,0,0,0,0,0,0,0,-1,1357,1632,0,0
140,-608,0,0,0,0,0,0,0,0,0,-1,1364,1632,0,0
147,-608,0,0,0,0,0,0,0,0,0,-1,1371,1632,0,0
154,-608,0,0,0,0,0,0,0,0,0,-1,1378,1632,0,0
161,-608,0,0,0,0,0,0,0,0,0,-1,1385,1632,0,0
168,-608,0,0,0,0,0,0,0,0,0,-1,1392,1632,0,0
175,-608,0,0,0,0,0,0,0,0,0,-1,1399,1632,0,0
182,-608,0,0,0,0,0,0,0,0,0,-1,1406,1632,0,0
189,-608,0,0,0,0,0,0,0,0,0,-1,1413,1632,0,0
196,-608,0,0,0,0,0,0,0,0,0,-1,1420,1632,0,0
203,-608,0,0,0,0,0,0,0,0,0,-1,1427,1632,0,0
210,-608,0.131592,0.46875,0,0,0,0,0,0,0,-1,1434,1632,0.131586,-0.468752
217,-608,1.073,1.13489,0,0,0,0,0,0,0,-1,1441,1632,1.07295,-1.13495
224,-608,0.741943,0.976807,0,0,0,0,0,0,0,-1,1448,1632,0.741895,-0.976815
231,-608,0.361816,0.825195,0,0,0,0,0,0,0,-1,1455,1632,0.36185,-0.825226
238,-608,4.58984,3.07751,0,0,0,0,0,0,0,-1,1462,1632,4.58983,-3.07755
245,-608,4.30713,3.53699,0,0,0,0,0,0,0,-1,1469,1632,4.30708,-3.53694
252,-608,3.99707,3.91089,0,0,0,0,0,0,0,-1,1476,1632,3.99707,-3.9109
259,-608,3.75354,4.02734,0,0,0,0,0,0,0,-1,1483,1632,3.75358,-4.02731
266,-608,5.1731,4.78198,0,0,0,0,0,0,0,-1,1490,1632,5.17306,-4.78204
273,-608,3.91248,2.77869,0,0,0,0,0,0,0,-1,1497,1632,3.91244,-2.77863
280,-608,4.63745,3.38977,0,0,0,0,0,0,0,-1,1504,1632,4.6375,-3.38982
287,-608,5.4353,4.44141,0,0,0,0,0,0,0,-1,1511,1632,5.43525,-4.44135
294,-608,5.44897,2.41748,0,0,0,0,0,0,0,-1,1518,1632,5.44898,-2.41746
301,-608,4.49707,2.29175,-0.0287494,0.00952888,-0.0150648,0.0147465,-0.0339671,-1.23738,0.0288453,0.0467367,1525,1632,4.49702,-2.29174
308,-608,3.53174,2.38953,-0.0283141,0.0137034,-0.0126949,0.0172411,-0.0318519,-1.29902,0.0287592,0.046113,1532,1632,3.53177,-2.38955
315,-608,3.03455,2.16125,-0.0258417,0.0177827,-0.0113217,0.020546,-0.0286049,-1.33141,0.0285041,0.0457894,1539,1632,3.03459,-2.1612
322,-608,3.23755,2.24475,-0.0230871,0.0214662,-0.0100422,0.0236251,-0.0252459,-1.35904,0.0282209,0.0461408,1546,1632,3.23758,-2.24481
329,-608,3.00574,2.4281,-0.0202374,0.0242653,-0.00916187,0.0260777,-0.0220497,-1.3755,0.0278188,0.0478353,1553,1632,3.00571,-2.42816
336,-608,2.82605,2.54321,-0.0165318,0.0254502,-0.008,0.026923,-0.0180046,-1.38874,0.0261088,0.0446481,1560,1632,2.82607,-2.54324
343,-608,2.60364,2.58215,-0.0127053,0.0258341,-0.00654053,0.0269139,-0.0137851,-1.40719,0.0239016,0.0471767,1567,1632,2.60361,-2.58216
350,-608,2.27222,2.5011,0,0,0,0,0,0,0,-1,1574,1632,2.27223,-2.50114
357,-608,1.46667,3.71094,0,0,0,0,0,0,0,-1,1581,1632,1.4667,-3.71092
364,-608,1.9613,2.87085,0,0,0,0,0,0,0,-1,1588,1632,1.96134,-2.87084
371,-608,1.84338,2.49829,-0.00312303,0.0201639,-0.00341491,0.0206543,-0.00361348,-1.42815,0.0151187,0.0424931,1595,1632,1.84341,-2.49828
378,-608,2.00317,2.25037,-0.00237118,0.0175448,-0.00337298,0.0181006,-0.00292692,-1.4075,0.0131517,0.0363188,1602,1632,2.00323,-2.25031
385,-608,2.09155,2.21326,-0.00153004,0.0141184,-0.00269919,0.0145709,-0.00198254,-1.4047,0.0104377,0.0308192,1609,1632,2.09161,-2.21329
392,-608,2.18945,2.17358,-0.000508817,0.0115003,-0.00235628,0.011946,-0.000954591,-1.38382,0.00830053,0.0202577,1616,1632,2.18948,-2.1736
399,-608,2.24451,2.15356,0.000675498,0.00922006,-0.00231393,0.00980645,8.91099e-05,-1.3226,0.00650813,0.0103269,1623,1632,2.24453,-2.15356
406,-608,2.23816,2.11658,0.00156974,0.00733645,-0.00214043,0.00804407,0.000862106,-1.25151,0.0050997,0.00925405,1630,1632,2.23813,-2.11656
413,-608,2.22046,2.09009,0.00194761,0.00618421,-0.00214307,0.00707921,0.00105262,-1.17519,0.00441067,0.00994728,1637,1632,2.22045,-2.09012
420,-608,2.23132,2.06421,0.00213582,0.00487797,-0.00219016,0.00609081,0.000922967,-1.06506,0.00379053,0.0170385,1644,1632,2.23127,-2.06424
427,-608,2.26074,2.04858,0.00182926,0.00400164,-0.0019958,0.00518768,0.000643226,-1.0346,0.00326523,0.017851,1651,1632,2.2607,-2.04863
434,-608,2.24207,2.02881,0.00149007,0.00339183,-0.00144579,0.00417141,0.000710494,-1.07628,0.00257697,0.013878,1658,1632,2.24205,-2.02885
441,-608,2.22742,1.99963,0.000878534,0.0029605,-0.0010613,0.00340613,0.000432909,-1.17327,0.00214109,0.012818,1665,1632,2.22746,-1.99965
448,-608,2.23145,1.98059,4.57806e-05,0.00249497,-0.000693728,0.00267781,-0.000137066,-1.31309,0.00183261,0.0153731,1672,1632,2.2315,-1.98063
455,-608,2.2478,1.93762,-0.000466703,0.00214353,-0.000383148,0.00219861,-0.000521782,-1.42802,0.00166711,0.0112811,1679,1632,2.24778,-1.93764
462,-608,2.24036,1.89343,-0.000864948,0.00156208,-0.000167987,0.00157365,-0.00087652,-1.50202,0.00143357,0.00938133,1686,1632,2.24039,-1.89341
469,-608,2.22778,1.87061,-0.00135121,0.00129327,3.44383e-05,0.00129371,-0.00135166,1.55778,0.00152743,0.00774517,1693,1632,2.22777,-1.87066
476,-608,2.22473,1.8446,-0.00170172,0.00111074,5.77585e-05,0.00111193,-0.0017029,1.55027,0.00163704,0.00871174,1700,1632,2.22476,-1.84459
483,-608,2.22949,1.8064,-0.00155476,0.00142509,2.65075e-06,0.0014251,-0.00155476,1.56991,0.00172097,0.0086182,1707,1632,2.22945,-1.80645
490,-608,2.24036,1.77551,-0.000465229,0.00299401,0.00029799,0.00301949,-0.000490711,1.48549,0.00219492,0.00843609,1714,1632,2.24032,-1.77549
497,-608,2.23474,1.74561,0.00146737,0.00491136,-0.000317533,0.00494039,0.00143834,-1.47962,0.00293411,0.0111494,1721,1632,2.23475,-1.74562
504,-608,2.20422,1.70337,0.00384922,0.00706313,-0.00161269,0.00773281,0.00317954,-1.17721,0.00448796,0.0241547,1728,1632,2.20422,-1.70334
511,-608,2.25293,1.65051,0.00702675,0.00858836,-0.00352464,0.0114176,0.00419747,-0.894402,0.00666854,0.038662,1735,1632,2.2529,-1.65046
518,-608,2.26111,1.57446,0.0119851,0.0105305,-0.00823326,0.0195231,0.00299247,-0.741344,0.0121415,0.0437736,1742,1632,2.26115,-1.57441
525,-608,2.25671,1.47961,0.0172626,0.0139469,-0.0124581,0.0281726,0.00303685,-0.719251,0.0178558,0.0470591,1749,1632,2.25669,-1.47961
532,-608,2.22437,1.25122,0.0219666,0.0174272,-0.0181309,0.0379693,0.00142446,-0.72313,0.0248516,0.0474632,1756,1632,2.22431,-1.25124
539,-608,2.31555,1.18811,0,0,0,0,0,0,0,-1,1763,1632,2.3155,-1.18816
546,-608,3.58276,1.45972,0.0326328,0.0239514,-0.0344697,0.063034,-0.00644981,-0.722764,0.0443293,0.0434928,1770,1632,3.58271,-1.45972
553,-608,3.63403,1.29187,0.0359878,0.0271837,-0.0453477,0.0771466,-0.0139751,-0.737013,0.0566668,0.0450483,1777,1632,3.63399,-1.29191
560,-608,3.77734,1.08716,0.0372663,0.0311661,-0.0587287,0.0930241,-0.0245917,-0.759454,0.0716344,0.0479249,1784,1632,3.77734,-1.08721
567,-608,0,0,0,0,0,0,0,0,0,-1,1791,1632,0,0
574,-608,0,0,0,0,0,0,0,0,0,-1,1798,1632,0,0
581,-608,0,0,0,0,0,0,0,0,0,-1,1805,1632,0,0
588,-608,0,0,0,0,0,0,0,0,0,-1,1812,1632,0,0
595,-608,0,0,0,0,0,0,0,0,0,-1,1819,1632,0,0
602,-608,0,0,0,0,0,0,0,0,0,-1,1826,1632,0,0
609,-608,0,0,0,0,0,0,0,0,0,-1,1833,1632,0,0
616,-608,0,0,0,0,0,0,0,0,0,-1,1840,1632,0,0
623,-608,0,0,0,0,0,0,0,0,0,-1,1847,1632,0,0
630,-608,0,0,0,0,0,0,0,0,0,-1,1854,1632,0,0
637,-608,0,0,0,0,0,0,0,0,0,-1,1861,1632,0,0
644,-608,0,0,0,0,0,0,0,0,0,-1,1868,1632,0,0
651,-608,0,0,0,0,0,0,0,0,0,-1,1875,1632,0,0
658,-608,0,0,0,0,0,0,0,0,0,-1,1882,1632,0,0
665,-608,0,0,0,0,0,0,0,0,0,-1,1889,1632,0,0
672,-608,0,0,0,0,0,0,0,0,0,-1,1896,1632,0,0
679,-608,0,0,0,0,0,0,0,0,0,-1,1903,1632,0,0
686,-608,0,0,0,0,0,0,0,0,0,-1,1910,1632,0,0
693,-608,0,0,0,0,0,0,0,0,0,-1,1917,1632,0,0
700,-608,0,0,0,0,0,0,0,0,0,-1,1924,1632,0,0
707,-608,0,0,0,0,0,0,0,0,0,-1,1931,1632,0,0
714,-608,0,0,0,0,0,0,0,0,0,-1,1938,1632,0,0
721,-608,0,0,0,0,0,0,0,0,0,-1,1945,1632,0,0
728,-608,0,0,0,0,0,0,0,0,0,-1,1952,1632,0,0
735,-608,0,0,0,0,0,0,0,0,0,-1,1959,1632,0,0
742,-608,0,0,0,0,0,0,0,0,0,-1,1966,1632,0,0
749,-608,0,0,0,0,0,0,0,0,0,-1,1973,1632,0,0
756,-608,0,0,0,0,0,0,0,0,0,-1,1980,1632,0,0
763,-608,0,0,0,0,0,0,0,0,0,-1,1987,1632,0,0
770,-608,0,0,0,0,0,0,0,0,0,-1,1994,1632,0,0
777,-608,0,0,0,0,0,0,0,0,0,-1,2001,1632,0,0
784,-608,0,0,0,0,0,0,0,0,0,-1,2008,1632,0,0
791,-608,0,0,0,0,0,0,0,0,0,-1,2015,1632,0,0
798,-608,0,0,0,0,0,0,0,0,0,-1,2022,1632,0,0
805,-608,0,0,0,0,0,0,0,0,0,-1,2029,1632,0,0
812,-608,0,0,0,0,0,0,0,0,0,-1,2036,1632,0,0
-700,-615,0,0,0,0,0,0,0,0,0,-1,524,1639,0,0
-693,-615,0,0,0,0,0,0,0,0,0,-1,531,1639,0,0
-686,-615,0,0,0,0,0,0,0,0,0,-1,538,1639,0,0
-679,-615,0,0,0,0,0,0,0,0,0,-1,545,1639,0,0
-672,-615,0,0,0,0,0,0,0,0,0,-1,552,1639,0,0
-665,-615,0,0,0,0,0,0,0,0,0,-1,559,1639,0,0
-658,-615,0,0,0,0,0,0,0,0,0,-1,566,1639,0,0
-651,-615,0,0,0,0,0,0,0,0,0,-1,573,1639,0,0
-644,-615,0,0,0,0,0,0,0,0,0,-1,580,1639,0,0
-637,-615,0,0,0,0,0,0,0,0,0,-1,587,1639,0,0
-630,-615,0,0,0,0,0,0,0,0,0,-1,594,1639,0,0
-623,-615,0,0,0,0,0,0,0,0,0,-1,601,1639,0,0
-616,-615,0,0,0,0,0,0,0,0,0,-1,608,1639,0,0
-609,-615,0,0,0,0,0,0,0,0,0,-1,615,1639,0,0
-602,-615,0,0,0,0,0,0,0,0,0,-1,622,1639,0,0
-595,-615,0,0,0,0,0,0,0,0,0,-1,629,1639,0,0
-588,-615,0,0,0,0,0,0,0,0,0,-1,636,1639,0,0
-581,-615,0,0,0,0,0,0,0,0,0,-1,643,1639,0,0
-574,-615,0,0,0,0,0,0,0,0,0,-1,650,1639,0,0
-567,-615,0,0,0,0,0,0,0,0,0,-1,657,1639,0,0
-560,-615,0,0,0,0,0,0,0,0,0,-1,664,1639,0,0
-553,-615,0,0,0,0,0,0,0,0,0,-1,671,1639,0,0
-546,-615,0,0,0,0,0,0,0,0,0,-1,678,1639,0,0
-539,-615,0,0,0,0,0,0,0,0,0,-1,685,1639,0,0
-532,-615,0,0,0,0,0,0,0,0,0,-1,692,1639,0,0
-525,-615,0,0,0,0,0,0,0,0,0,-1,699,1639,0,0
-518,-615,0,0,0,0,0,0,0,0,0,-1,706,1639,0,0
-511,-615,0,0,0,0,0,0,0,0,0,-1,713,1639,0,0
-504,-615,0,0,0,0,0,0,0,0,0,-1,720,1639,0,0
-497,-615,0,0,0,0,0,0,0,0,0,-1,727,1639,0,0
-490,-615,0,0,0,0,0,0,0,0,0,-1,734,1639,0,0
-483,-615,0,0,0,0,0,0,0,0,0,-1,741,1639,0,0
-476,-615,0,0,0,0,0,0,0,0,0,-1,748,1639,0,0
-469,-615,0,0,0,0,0,0,0,0,0,-1,755,1639,0,0
-462,-615,0,0,0,0,0,0,0,0,0,-1,762,1639,0,0
-455,-615,0,0,0,0,0,0,0,0,0,-1,769,1639,0,0
-448,-615,0,0,0,0,0,0,0,0,0,-1,776,1639,0,0
-441,-615,0,0,0,0,0,0,0,0,0,-1,783,1639,0,0
-434,-615,1.21124,-2.84277,0,0,0,0,0,0,0,-1,790,1639,1.21123,2.84277
-427,-615,0.749512,-1.99768,-0.0248579,-0.00630703,0.0176705,0.00437449,-0.0355394,1.02709,0.0252776,0.046956,797,1639,0.749499,1.99763
-420,-615,0.299377,-1.17041,-0.0136401,-0.0105944,0.0177347,0.00568273,-0.0299172,0.828227,0.0220841,0.0456096,804,1639,0.299397,1.17042
-413,-615,0.0198364,-0.391113,-0.00523801,-0.0167309,0.015566,0.0056084,-0.0275773,0.608575,0.0205115,0.0460565,811,1639,0.0198404,0.391065
-406,-615,-0.0671997,0.430542,0.0012493,-0.0210627,0.0123616,0.00674457,-0.026558,0.418308,0.0203299,0.0435634,818,1639,-0.0672182,-0.43055
-399,-615,-0.0981445,1.28748,0.00648549,-0.0241025,0.00890323,0.00888821,-0.0265052,0.263591,0.0212615,0.0422862,825,1639,-0.0981548,-1.28751
-392,-615,-0.117554,2.11145,0,0,0,0,0,0,0,-1,832,1639,-0.117573,-2.11142
-385,-615,0.538513,2.39612,0,0,0,0,0,0,0,-1,839,1639,0.53853,-2.39611
-378,-615,0.889771,2.25232,0,0,0,0,0,0,0,-1,846,1639,0.889783,-2.25226
-371,-615,1.32654,1.89209,0,0,0,0,0,0,0,-1,853,1639,1.32652,-1.89207
-364,-615,1.55688,1.77441,0.013649,-0.020905,-0.00253413,0.0138338,-0.0210898,-0.0728191,0.0203077,0.0315893,860,1639,1.55691,-1.77436
-357,-615,1.52246,1.86304,0.0118146,-0.0166163,-0.00341449,0.0122189,-0.0170206,-0.117865,0.0169572,0.0242631,867,1639,1.52244,-1.86303
-350,-615,1.50452,1.88831,0.00953178,-0.0130637,-0.00353959,0.0100733,-0.0136052,-0.151807,0.0137214,0.0203635,874,1639,1.50453,-1.8883
-343,-615,1.51422,1.90613,0.00729257,-0.00974746,-0.00339907,0.00794557,-0.0104005,-0.189801,0.0106236,0.0163189,881,1639,1.51422,-1.90608
-336,-615,1.53705,1.92175,0.00534415,-0.00676146,-0.00275237,0.00594055,-0.00735787,-0.213389,0.00769237,0.00971642,888,1639,1.53706,-1.92181
-329,-615,1.52863,1.9292,0.00372742,-0.00425051,-0.00192162,0.00416615,-0.00468924,-0.224464,0.00511563,0.0102248,895,1639,1.5286,-1.92925
-322,-615,1.52161,1.96497,0.00212893,-0.00223651,-0.00125478,0.0024639,-0.00257147,-0.260869,0.0029074,0.0096802,902,1639,1.52158,-1.96499
-315,-615,1.53467,1.99585,0.000949093,-0.000580848,-0.000695524,0.00121801,-0.00084977,-0.368942,0.00120013,0.0102904,909,1639,1.5347,-1.99587
-308,-615,1.54663,2.01184,0.000534855,0.000393029,-0.000244192,0.000718222,0.000209661,-0.644085,0.000426467,0.0164057,916,1639,1.54664,-2.01183
-301,-615,1.53949,2.03992,0.000527947,0.00122552,0.000109889,0.00124242,0.000511046,1.41819,0.000721061,0.0126024,923,1639,1.53949,-2.03994
-294,-615,1.51886,2.08118,0.000919967,0.00106192,3.83727e-05,0.00107163,0.000910258,1.32298,0.000667167,0.0106419,930,1639,1.51885,-2.08117
-287,-615,1.51697,2.10229,0.000955194,0.000634974,-0.000212748,0.00106135,0.000528819,-0.462822,0.000612771,0.00812285,937,1639,1.51696,-2.10234
-280,-615,1.52106,2.10669,0.00083259,0.000405597,-0.000545401,0.00120479,3.33951e-05,-0.598841,0.000792298,0.00818625,944,1639,1.52103,-2.10675
-273,-615,1.52228,2.13953,0.000840347,0.000170603,-0.000716761,0.0012966,-0.000285654,-0.566865,0.00097369,0.00841313,951,1639,1.52226,-2.13957
-266,-615,1.52698,2.18457,0.00149503,-0.000815645,-0.00123465,0.0020306,-0.00135121,-0.409285,0.00196558,0.00914615,958,1639,1.52699,-2.18459
-259,-615,1.54858,2.2085,0.0017299,-0.00175683,-0.0017398,0.00244951,-0.00247643,-0.392187,0.00284401,0.0110719,965,1639,1.54858,-2.20845
-252,-615,1.5379,2.24048,0.00206461,-0.00287598,-0.00221022,0.00290904,-0.00372042,-0.364945,0.00383706,0.0118104,972,1639,1.5379,-2.24046
-245,-615,1.52502,2.25049,0.00333607,-0.00287044,-0.00304854,0.00458296,-0.00411733,-0.388253,0.00502552,0.0162689,979,1639,1.52501,-2.25043
-238,-615,1.51434,2.2478,0.00494073,-0.00254858,-0.00288052,0.00592046,-0.00352831,-0.327849,0.00551322,0.0237472,986,1639,1.51436,-2.24775
-231,-615,1.43164,2.34705,0.00638806,-0.00419768,-0.00262754,0.00700438,-0.004814,-0.230394,0.00686229,0.0307892,993,1639,1.43166,-2.34702
-224,-615,1.53809,2.41333,0.00799589,-0.00601923,-0.00142866,0.00814004,-0.00616338,-0.100559,0.00828433,0.0408526,1000,1639,1.5381,-2.41339
-217,-615,1.73145,2.70154,0.00933576,-0.00824708,0.00156379,0.00947376,-0.00838507,0.0880179,0.0103172,0.0457905,1007,1639,1.73146,-2.7015
-210,-615,1.83795,2.7749,0,0,0,0,0,0,0,-1,1014,1639,1.83796,-2.77494
-203,-615,1.43323,1.86292,0,0,0,0,0,0,0,-1,1021,1639,1.43324,-1.86295
-196,-615,1.57629,1.73572,0,0,0,0,0,0,0,-1,1028,1639,1.57633,-1.73572
-189,-615,1.76331,1.61646,0.0145081,-0.0136441,0.0126479,0.0193557,-0.0184917,0.366002,0.0218531,0.0452205,1035,1639,1.76335,-1.61646
-182,-615,1.90698,1.46472,0.0171069,-0.0131461,0.0137361,0.022413,-0.0184522,0.368631,0.0236304,0.0447464,1042,1639,1.90693,-1.46467
-175,-615,2.34595,1.28772,0.0249133,-0.0143324,0.0135956,0.0291629,-0.0185821,0.302953,0.0277903,0.0451405,1049,1639,2.34599,-1.28767
-168,-615,1.73621,3.20972,0.0358989,-0.0137329,0.0109277,0.0381984,-0.0160324,0.2074,0.0321701,0.0441379,1056,1639,1.73622,-3.20967
-161,-615,1.08289,3.14453,0,0,0,0,0,0,0,-1,1063,1639,1.08288,-3.14455
-154,-615,1.20068,1.97583,0,0,0,0,0,0,0,-1,1070,1639,1.20067,-1.97586
-147,-615,-0.0997314,2.2157,0,0,0,0,0,0,0,-1,1077,1639,-0.0997475,-2.21574
-140,-615,-1.94238,3.95691,0,0,0,0,0,0,0,-1,1084,1639,-1.94243,-3.95691
-133,-615,-2.13037,4.36023,0.0881515,-0.0289611,-0.0163036,0.0903789,-0.0311884,-0.135775,0.0729073,0.0495049,1091,1639,-2.13031,-4.36022
-126,-615,-0.36853,3.43787,0.100444,-0.0321355,-0.0236713,0.104543,-0.0362351,-0.171488,0.0844077,0.0434339,1098,1639,-0.368535,-3.43792
-119,-615,0.700684,3.49426,0.107947,-0.0380009,-0.0320586,0.114678,-0.0447324,-0.206967,0.0949432,0.0419011,1105,1639,0.700633,-3.49422
-112,-615,1.70361,3.14954,0.110275,-0.0464034,-0.0406219,0.120181,-0.0563092,-0.239184,0.104097,0.0416182,1112,1639,1.70363,-3.14955
-105,-615,2.48132,2.74036,0.0965688,-0.060967,-0.0412834,0.106732,-0.07113,-0.241376,0.103372,0.0413458,1119,1639,2.48128,-2.74038
-98,-615,2.78101,2.24207,0.0817449,-0.0712005,-0.0402257,0.0916793,-0.0811349,-0.242121,0.0998362,0.0436104,1126,1639,2.781,-2.24204
-91,-615,2.67688,1.7113,0.0693949,-0.0746056,-0.0397843,0.0796553,-0.0848661,-0.252402,0.0950024,0.0446759,1133,1639,2.67684,-1.71125
-84,-615,2.64478,0.945801,0,0,0,0,0,0,0,-1,1140,1639,2.64481,-0.945816
-77,-615,0.141724,-0.353271,0,0,0,0,0,0,0,-1,1147,1639,0.141775,0.353269
-70,-615,0.579346,-0.415894,0,0,0,0,0,0,0,-1,1154,1639,0.579375,0.415847
-63,-615,0.625,-0.279663,0,0,0,0,0,0,0,-1,1161,1639,0.625045,0.279679
-56,-615,0,0,0,0,0,0,0,0,0,-1,1168,1639,0,0
-49,-615,0,0,0,0,0,0,0,0,0,-1,1175,1639,0,0
-42,-615,0,0,0,0,0,0,0,0,0,-1,1182,1639,0,0
-35,-615,0,0,0,0,0,0,0,0,0,-1,1189,1639,0,0
-28,-615,0,0,0,0,0,0,0,0,0,-1,1196,1639,0,0
-21,-615,0,0,0,0,0,0,0,0,0,-1,1203,1639,0,0
-14,-615,0,0,0,0,0,0,0,0,0,-1,1210,1639,0,0
-7,-615,0,0,0,0,0,0,0,0,0,-1,1217,1639,0,0
0,-615,0,0,0,0,0,0,0,0,0,-1,1224,1639,0,0
7,-615,0,0,0,0,0,0,0,0,0,-1,1231,1639,0,0
14,-615,0,0,0,0,0,0,0,0,0,-1,1238,1639,0,0
21,-615,0,0,0,0,0,0,0,0,0,-1,1245,1639,0,0
28,-615,0,0,0,0,0,0,0,0,0,-1,1252,1639,0,0
35,-615,0,0,0,0,0,0,0,0,0,-1,1259,1639,0,0
42,-615,0,0,0,0,0,0,0,0,0,-1,1266,1639,0,0
49,-615,0,0,0,0,0,0,0,0,0,-1,1273,1639,0,0
56,-615,0,0,0,0,0,0,0,0,0,-1,1280,1639,0,0
63,-615,0,0,0,0,0,0,0,0,0,-1,1287,1639,0,0
70,-615,0,0,0,0,0,0,0,0,0,-1,1294,1639,0,0
77,-615,0,0,0,0,0,0,0,0,0,-1,1301,1639,0,0
84,-615,0,0,0,0,0,0,0,0,0,-1,1308,1639,0,0
91,-615,0,0,0,0,0,0,0,0,0,-1,1315,1639,0,0
98,-615,0,0,0,0,0,0,0,0,0,-1,1322,1639,0,0
105,-615,0,0,0,0,0,0,0,0,0,-1,1329,1639,0,0
112,-615,0,0,0,0,0,0,0,0,0,-1,1336,1639,0,0
119,-615,0,0,0,0,0,0,0,0,0,-1,1343,1639,0,0
126,-615,0,0,0,0,0,0,0,0,0,-1,1350,1639,0,0
133,-615,0,0,0,0,0,0,0,0,0,-1,1357,1639,0,0
140,-615,0,0,0,0,0,0,0,0,0,-1,1364,1639,0,0
147,-615,0,0,0,0,0,0,0,0,0,-1,1371,1639,0,0
154,-615,0,0,0,0,0,0,0,0,0,-1,1378,1639,0,0
161,-615,0,0,0,0,0,0,0,0,0,-1,1385,1639,0,0
168,-615,0,0,0,0,0,0,0,0,0,-1,1392,1639,0,0
175,-615,4.21606,2.54956,0.108591,-0.0938458,-0.0767544,0.134402,-0.119657,-0.324397,0.146763,0.0458843,1399,1639,4.21609,-2.54952
182,-615,4.12561,0.710693,0.0822427,-0.110981,-0.0497469,0.0942982,-0.123036,-0.237754,0.125843,0.0474674,1406,1639,4.12562,-0.710724
189,-615,4.14099,0.689819,0.0639429,-0.12586,-0.0280342,0.067997,-0.129914,-0.143617,0.116113,0.0480672,1413,1639,4.14094,-0.689828
196,-615,4.29004,0.504639,0,0,0,0,0,0,0,-1,1420,1639,4.29008,-0.504635
203,-615,4.73108,0.44812,0,0,0,0,0,0,0,-1,1427,1639,4.73107,-0.448118
210,-615,5.28674,0.578003,0,0,0,0,0,0,0,-1,1434,1639,5.28673,-0.577994
217,-615,1.41736,1.25269,0,0,0,0,0,0,0,-1,1441,1639,1.4173,-1.25268
224,-615,2.63049,4.23853,0,0,0,0,0,0,0,-1,1448,1639,2.63047,-4.23851
231,-615,3.07898,3.05701,0,0,0,0,0,0,0,-1,1455,1639,3.07895,-3.05699
238,-615,3.82141,3.02539,0,0,0,0,0,0,0,-1,1462,1639,3.82143,-3.02537
245,-615,4.60168,2.78223,0,0,0,0,0,0,0,-1,1469,1639,4.60165,-2.78223
252,-615,5.69971,3.03931,0,0,0,0,0,0,0,-1,1476,1639,5.69965,-3.03936
259,-615,3.59448,3.56396,0,0,0,0,0,0,0,-1,1483,1639,3.59451,-3.56398
266,-615,4.00354,2.47144,0,0,0,0,0,0,0,-1,1490,1639,4.00357,-2.47148
273,-615,1.53943,0.901855,0,0,0,0,0,0,0,-1,1497,1639,1.53939,-0.901815
280,-615,4.17786,3.3678,0,0,0,0,0,0,0,-1,1504,1639,4.17787,-3.36776
287,-615,4.59009,3.77673,0,0,0,0,0,0,0,-1,1511,1639,4.59006,-3.77671
294,-615,4.74121,3.79346,0,0,0,0,0,0,0,-1,1518,1639,4.74121,-3.79348
301,-615,4.64221,2.21045,0,0,0,0,0,0,0,-1,1525,1639,4.64219,-2.21045
308,-615,3.76086,2.10229,-0.020093,0.0101835,-0.0080256,0.0121794,-0.0220888,-1.32706,0.0200586,0.0473735,1532,1639,3.76085,-2.10233
315,-615,3.14038,2.21204,-0.0193919,0.0133655,-0.00723843,0.0148937,-0.0209201,-1.36273,0.0207745,0.0464032,1539,1639,3.14039,-2.21209
322,-615,3.01709,2.34595,-0.0181954,0.0164134,-0.00668522,0.0176599,-0.0194419,-1.38646,0.021429,0.0464042,1546,1639,3.01705,-2.346
329,-615,2.88635,2.35718,-0.0164164,0.018563,-0.00655339,0.0197505,-0.0176038,-1.39154,0.0215784,0.0475677,1553,1639,2.88639,-2.35722
336,-615,2.63818,2.45117,-0.0132277,0.0192156,-0.00617919,0.0203527,-0.0143647,-1.38882,0.0201432,0.0466374,1560,1639,2.63814,-2.45114
343,-615,2.44751,2.66248,-0.00975184,0.0192035,-0.00546283,0.0201999,-0.0107482,-1.39039,0.0181435,0.0468876,1567,1639,2.44754,-2.66245
350,-615,2.19543,2.54749,-0.00693139,0.0181376,-0.00481775,0.0190316,-0.00782538,-1.38732,0.0159495,0.0469171,1574,1639,2.19538,-2.54745
357,-615,2.09668,2.35754,0,0,0,0,0,0,0,-1,1581,1639,2.09674,-2.3575
364,-615,2.09692,2.57263,-0.0018913,0.0154392,-0.00450772,0.0165415,-0.00299366,-1.33095,0.0121491,0.0497325,1588,1639,2.09692,-2.57257
371,-615,2.11719,2.28845,-0.000576882,0.0133375,-0.00406953,0.0144403,-0.00167969,-1.30616,0.0102328,0.0369885,1595,1639,2.1172,-2.2885
378,-615,2.16028,2.23315,5.51131e-05,0.0109779,-0.00404627,0.0123135,-0.00128049,-1.25197,0.00866739,0.0190472,1602,1639,2.16034,-2.23318
385,-615,2.1665,2.18665,0.000724535,0.00802983,-0.00346379,0.00941103,-0.000656673,-1.19136,0.00650397,0.0113146,1609,1639,2.16648,-2.18659
392,-615,2.19751,2.16003,0.00139288,0.00590107,-0.00308108,0.00746457,-0.000170619,-1.10121,0.00503421,0.00924825,1616,1639,2.19749,-2.16009
399,-615,2.21191,2.14404,0.00209499,0.00420544,-0.00285623,0.00619513,0.000105295,-0.962344,0.00409544,0.0107022,1623,1639,2.21197,-2.14408
406,-615,2.20337,2.12109,0.00242515,0.00302179,-0.00243785,0.00517951,0.000267433,-0.84628,0.0033674,0.0114047,1630,1639,2.20341,-2.12114
413,-615,2.20337,2.10669,0.00234851,0.00254268,-0.00216143,0.0046092,0.000281989,-0.807842,0.00298325,0.0119564,1637,1639,2.2034,-2.10667
420,-615,2.20581,2.08777,0.00218078,0.00187807,-0.00192242,0.0039578,0.000101052,-0.746114,0.0026055,0.0128941,1644,1639,2.20583,-2.08781
427,-615,2.21655,2.04236,0.00157716,0.00154422,-0.00150845,0.00306923,5.21512e-05,-0.77994,0.00202899,0.0142624,1651,1639,2.21654,-2.04241
434,-615,2.2334,2.01111,0.000930323,0.00157257,-0.000753735,0.00207074,0.000432156,-0.986775,0.00126136,0.0130242,1658,1639,2.23334,-2.01115
441,-615,2.2168,1.98682,0.000112606,0.0016862,-0.000200589,0.00171137,8.74391e-05,-1.44598,0.00111291,0.0136744,1665,1639,2.21681,-1.98683
448,-615,2.20313,1.98645,-0.000805976,0.00169267,0.000273931,0.00172235,-0.000835655,1.46287,0.00150615,0.0157732,1672,1639,2.20314,-1.98647
455,-615,2.19324,1.9425,-0.00140932,0.00170707,0.000629945,0.00182959,-0.00153184,1.3787,0.00194326,0.0144464,1679,1639,2.19318,-1.94248
462,-615,2.19287,1.91016,-0.00190317,0.00169729,0.00089927,0.0019094,-0.00211528,1.33916,0.00232466,0.013008,1686,1639,2.19281,-1.9101
469,-615,2.18896,1.86145,-0.00249072,0.00181155,0.00116052,0.00210463,-0.0027838,1.32343,0.0028314,0.0111048,1693,1639,2.18901,-1.86143
476,-615,2.19873,1.83105,-0.00295308,0.00204551,0.00120976,0.00232291,-0.00323047,1.3454,0.00322049,0.0104525,1700,1639,2.19877,-1.83101
483,-615,2.19666,1.80408,-0.00294469,0.00281335,0.00111977,0.00302345,-0.00315479,1.38533,0.00356728,0.0147043,1707,1639,2.19664,-1.80402
490,-615,2.20557,1.75793,-0.00193868,0.00485977,0.00146186,0.00516079,-0.00223969,1.36772,0.00438221,0.0159479,1714,1639,2.20555,-1.75791
497,-615,2.19983,1.724,0.000107916,0.0073026,0.000871416,0.00740664,3.875e-06,1.45197,0.00493647,0.0210438,1721,1639,2.19985,-1.72394
504,-615,2.20886,1.59021,0.00270879,0.0098748,-0.00053542,0.00991458,0.002669,-1.49663,0.00592398,0.0387071,1728,1639,2.20888,-1.59019
511,-615,2.3623,1.4248,0.00615815,0.011676,-0.0026684,0.0127553,0.00507885,-1.18644,0.00741502,0.0450934,1735,1639,2.36229,-1.42476
518,-615,2.255,1.52344,0.0115869,0.0139709,-0.00803981,0.0209066,0.00465118,-0.858993,0.0126751,0.0444175,1742,1639,2.25502,-1.52343
525,-615,2.23694,1.45264,0,0,0,0,0,0,0,-1,1749,1639,2.23694,-1.45259
532,-615,2.24255,1.13989,0,0,0,0,0,0,0,-1,1756,1639,2.24252,-1.13987
539,-615,3.15686,0.793091,0,0,0,0,0,0,0,-1,1763,1639,3.15692,-0.793143
546,-615,3.39319,0.988403,0.0433604,0.0272742,-0.0356866,0.0718991,-0.00126452,-0.674559,0.0483598,0.0427567,1770,1639,3.39313,-0.988421
553,-615,3.87146,1.09888,0.0501401,0.0297234,-0.046296,0.0873399,-0.00747632,-0.676884,0.0608719,0.0455653,1777,1639,3.87143,-1.09883
560,-615,0,0,0,0,0,0,0,0,0,-1,1784,1639,0,0
567,-615,0,0,0,0,0,0,0,0,0,-1,1791,1639,0,0
574,-615,0,0,0,0,0,0,0,0,0,-1,1798,1639,0,0
581,-615,0,0,0,0,0,0,0,0,0,-1,1805,1639,0,0
588,-615,0,0,0,0,0,0,0,0,0,-1,1812,1639,0,0
595,-615,0,0,0,0,0,0,0,0,0,-1,1819,1639,0,0
602,-615,0,0,0,0,0,0,0,0,0,-1,1826,1639,0,0
609,-615,0,0,0,0,0,0,0,0,0,-1,1833,1639,0,0
616,-615,0,0,0,0,0,0,0,0,0,-1,1840,1639,0,0
623,-615,0,0,0,0,0,0,0,0,0,-1,1847,1639,0,0
630,-615,0,0,0,0,0,0,0,0,0,-1,1854,1639,0,0
637,-615,0,0,0,0,0,0,0,0,0,-1,1861,1639,0,0
644,-615,0,0,0,0,0,0,0,0,0,-1,1868,1639,0,0
651,-615,0,0,0,0,0,0,0,0,0,-1,1875,1639,0,0
658,-615,0,0,0,0,0,0,0,0,0,-1,1882,1639,0,0
665,-615,0,0,0,0,0,0,0,0,0,-1,1889,1639,0,0
672,-615,0,0,0,0,0,0,0,0,0,-1,1896,1639,0,0
679,-615,0,0,0,0,0,0,0,0,0,-1,1903,1639,0,0
686,-615,0,0,0,0,0,0,0,0,0,-1,1910,1639,0,0
693,-615,0,0,0,0,0,0,0,0,0,-1,1917,1639,0,0
700,-615,0,0,0,0,0,0,0,0,0,-1,1924,1639,0,0
707,-615,0,0,0,0,0,0,0,0,0,-1,1931,1639,0,0
714,-615,0,0,0,0,0,0,0,0,0,-1,1938,1639,0,0
721,-615,0,0,0,0,0,0,0,0,0,-1,1945,1639,0,0
728,-615,0,0,0,0,0,0,0,0,0,-1,1952,1639,0,0
735,-615,0,0,0,0,0,0,0,0,0,-1,1959,1639,0,0
742,-615,0,0,0,0,0,0,0,0,0,-1,1966,1639,0,0
749,-615,0,0,0,0,0,0,0,0,0,-1,1973,1639,0,0
756,-615,0,0,0,0,0,0,0,0,0,-1,1980,1639,0,0
763,-615,0,0,0,0,0,0,0,0,0,-1,1987,1639,0,0
770,-615,0,0,0,0,0,0,0,0,0,-1,1994,1639,0,0
777,-615,0,0,0,0,0,0,0,0,0,-1,2001,1639,0,0
784,-615,0,0,0,0,0,0,0,0,0,-1,2008,1639,0,0
791,-615,0,0,0,0,0,0,0,0,0,-1,2015,1639,0,0
798,-615,0,0,0,0,0,0,0,0,0,-1,2022,1639,0,0
805,-615,0,0,0,0,0,0,0,0,0,-1,2029,1639,0,0
812,-615,0,0,0,0,0,0,0,0,0,-1,2036,1639,0,0
-700,-622,0,0,0,0,0,0,0,0,0,-1,524,1646,0,0
-693,-622,0,0,0,0,0,0,0,0,0,-1,531,1646,0,0
-686,-622,0,0,0,0,0,0,0,0,0,-1,538,1646,0,0
-679,-622,0,0,0,0,0,0,0,0,0,-1,545,1646,0,0
-672,-622,0,0,0,0,0,0,0,0,0,-1,552,1646,0,0
-665,-622,0,0,0,0,0,0,0,0,0,-1,559,1646,0,0
-658,-622,0,0,0,0,0,0,0,0,0,-1,566,1646,0,0
-651,-622,0,0,0,0,0,0,0,0,0,-1,573,1646,0,0
-644,-622,0,0,0,0,0,0,0,0,0,-1,580,1646,0,0
-637,-622,0,0,0,0,0,0,0,0,0,-1,587,1646,0,0
-630,-622,0,0,0,0,0,0,0,0,0,-1,594,1646,0,0
-623,-622,0,0,0,0,0,0,0,0,0,-1,601,1646,0,0
-616,-622,0,0,0,0,0,0,0,0,0,-1,608,1646,0,0
-609,-622,0,0,0,0,0,0,0,0,0,-1,615,1646,0,0
-602,-622,0,0,0,0,0,0,0,0,0,-1,622,1646,0,0
-595,-622,0,0,0,0,0,0,0,0,0,-1,629,1646,0,0
-588,-622,0,0,0,0,0,0,0,0,0,-1,636,1646,0,0
-581,-622,0,0,0,0,0,0,0,0,0,-1,643,1646,0,0
-574,-622,0,0,0,0,0,0,0,0,0,-1,650,1646,0,0
-567,-622,0,0,0,0,0,0,0,0,0,-1,657,1646,0,0
-560,-622,0,0,0,0,0,0,0,0,0,-1,664,1646,0,0
-553,-622,0,0,0,0,0,0,0,0,0,-1,671,1646,0,0
-546,-622,0,0,0,0,0,0,0,0,0,-1,678,1646,0,0
-539,-622,0,0,0,0,0,0,0,0,0,-1,685,1646,0,0
-532,-622,0,0,0,0,0,0,0,0,0,-1,692,1646,0,0
-525,-622,0,0,0,0,0,0,0,0,0,-1,699,1646,0,0
-518,-622,0,0,0,0,0,0,0,0,0,-1,706,1646,0,0
-511,-622,0,0,0,0,0,0,0,0,0,-1,713,1646,0,0
-504,-622,0,0,0,0,0,0,0,0,0,-1,720,1646,0,0
-497,-622,0,0,0,0,0,0,0,0,0,-1,727,1646,0,0
-490,-622,0,0,0,0,0,0,0,0,0,-1,734,1646,0,0
-483,-622,0,0,0,0,0,0,0,0,0,-1,741,1646,0,0
-476,-622,0,0,0,0,0,0,0,0,0,-1,748,1646,0,0
-469,-622,0,0,0,0,0,0,0,0,0,-1,755,1646,0,0
-462,-622,0,0,0,0,0,0,0,0,0,-1,762,1646,0,0
-455,-622,0,0,0,0,0,0,0,0,0,-1,769,1646,0,0
-448,-622,0,0,0,0,0,0,0,0,0,-1,776,1646,0,0
-441,-622,0,0,0,0,0,0,0,0,0,-1,783,1646,0,0
-434,-622,0,0,0,0,0,0,0,0,0,-1,790,1646,0,0
-427,-622,0.205811,-1.30408,0,0,0,0,0,0,0,-1,797,1646,0.205819,1.30405
-420,-622,0.286926,-0.572754,-0.017937,-0.0160824,0.0208681,0.00387905,-0.0378984,0.807602,0.0266529,0.044918,804,1646,0.2869,0.572717
-413,-622,0.223877,0.198364,-0.00776369,-0.0231046,0.0179522,0.00408808,-0.0349564,0.583502,0.0247796,0.0432918,811,1646,0.223855,-0.198336
-406,-622,0.199585,0.830444,0.00040736,-0.0276461,0.0139716,0.00617847,-0.0334172,0.391714,0.0245977,0.0447209,818,1646,0.199584,-0.83044
-399,-622,0.233582,1.65894,0.0068804,-0.0305182,0.00980681,0.00929596,-0.0329338,0.241507,0.0256229,0.0421172,825,1646,0.23356,-1.65894
-392,-622,0.432068,2.61377,0,0,0,0,0,0,0,-1,832,1646,0.432092,-2.61381
-385,-622,0.803101,2.50708,0,0,0,0,0,0,0,-1,839,1646,0.80309,-2.50709
-378,-622,1.19495,2.37268,0.0153467,-0.0292156,0.000419421,0.0153506,-0.0292196,0.00941091,0.0261446,0.0454192,846,1646,1.19496,-2.37262
-371,-622,1.78345,2.18591,0.0158754,-0.0275599,-0.00139481,0.0159202,-0.0276047,-0.0320684,0.0254291,0.0475464,853,1646,1.78346,-2.18595
-364,-622,2.09485,1.83093,0.0151597,-0.0244523,-0.00304332,0.0153922,-0.0246847,-0.076232,0.0233448,0.0423623,860,1646,2.09486,-1.83095
-357,-622,1.85876,1.8374,0.0131105,-0.0195854,-0.00398613,0.0135894,-0.0200643,-0.119582,0.0195495,0.038941,867,1646,1.85875,-1.83738
-350,-622,1.61871,1.87061,0.0106352,-0.0155818,-0.00425218,0.0113076,-0.0162542,-0.156837,0.015998,0.0305985,874,1646,1.61869,-1.87063
-343,-622,1.56879,1.88342,0.00829057,-0.0119151,-0.00421102,0.00913305,-0.0127576,-0.197459,0.0126962,0.0200722,881,1646,1.56881,-1.88342
-336,-622,1.56262,1.89929,0.00634211,-0.00858476,-0.00362529,0.007176,-0.00941865,-0.226088,0.00961004,0.00940479,888,1646,1.56264,-1.89928
-329,-622,1.55365,1.92737,0.00466168,-0.00582424,-0.00288115,0.00540117,-0.00656372,-0.25124,0.00691879,0.00945286,895,1646,1.55362,-1.92743
-322,-622,1.54541,1.96875,0.00287,-0.00362888,-0.00226674,0.00358251,-0.00434138,-0.30455,0.00458185,0.0101919,902,1646,1.54541,-1.9688
-315,-622,1.55231,2.00122,0.00147891,-0.00179804,-0.00170052,0.00220187,-0.002521,-0.401989,0.00272882,0.0126728,909,1646,1.55231,-2.00128
-308,-622,1.57489,2.01208,0.000980714,-0.000781637,-0.00114981,0.00154817,-0.00134909,-0.458451,0.00167405,0.0135012,916,1646,1.57492,-2.01207
-301,-622,1.55688,2.04797,0.000887111,0.000213608,-0.000583107,0.00122372,-0.000123002,-0.523538,0.000859752,0.0133738,923,1646,1.55689,-2.04799
-294,-622,1.5462,2.08545,0.00126647,3.11074e-05,-0.000453309,0.00141496,-0.000117382,-0.316554,0.000984771,0.00995351,930,1646,1.54622,-2.08549
-287,-622,1.55695,2.10376,0.001307,-0.000225384,-0.000551136,0.00148463,-0.000403015,-0.311787,0.00114792,0.00809138,937,1646,1.55698,-2.10377
-280,-622,1.55463,2.1123,0.00116188,-0.000312922,-0.000660219,0.00141425,-0.000565294,-0.365116,0.0011774,0.00846889,944,1646,1.55463,-2.1123
-273,-622,1.54584,2.13293,0.00108806,-0.000428222,-0.000608167,0.00130185,-0.00064201,-0.338035,0.00114364,0.0106097,951,1646,1.54584,-2.13289
-266,-622,1.55035,2.17175,0.00152145,-0.00108555,-0.000784965,0.00173955,-0.00130365,-0.271018,0.00176299,0.0110447,958,1646,1.55034,-2.17177
-259,-622,1.57758,2.22571,0.00166471,-0.00170246,-0.00100978,0.00194431,-0.00198206,-0.270128,0.00226693,0.0117457,965,1646,1.5776,-2.22571
-252,-622,1.57312,2.2522,0.00196636,-0.00242263,-0.00126975,0.00230723,-0.0027635,-0.26227,0.00293154,0.0118203,972,1646,1.57313,-2.25218
-245,-622,1.57062,2.26184,0.00296352,-0.00232233,-0.00178043,0.00350729,-0.00286609,-0.296414,0.00368587,0.00807114,979,1646,1.57061,-2.26189
-238,-622,1.55273,2.25781,0.00437367,-0.00211232,-0.00165905,0.0047734,-0.00251205,-0.236434,0.00427327,0.00854034,986,1646,1.55272,-2.25779
-231,-622,1.54639,2.29846,0.00580391,-0.00353181,-0.00146331,0.0060279,-0.0037558,-0.151892,0.00569917,0.0123502,993,1646,1.5464,-2.29851
-224,-622,1.59277,2.35254,0.0072796,-0.00507708,-0.000416041,0.00729359,-0.00509107,-0.0336186,0.00718788,0.0198767,1000,1646,1.59275,-2.35256
-217,-622,1.64044,2.3667,0.00842005,-0.00691813,0.00207169,0.00869494,-0.00719302,0.131919,0.00918657,0.0290671,1007,1646,1.64046,-2.36666
-210,-622,1.33734,2.21057,0,0,0,0,0,0,0,-1,1014,1646,1.33734,-2.21051
-203,-622,1.49518,2.05249,0,0,0,0,0,0,0,-1,1021,1646,1.49515,-2.05254
-196,-622,1.59851,1.83679,0,0,0,0,0,0,0,-1,1028,1646,1.59847,-1.83673
-189,-622,1.7417,1.62488,0.0128195,-0.011214,0.0109147,0.0170364,-0.0154309,0.368688,0.0187526,0.0445809,1035,1646,1.74171,-1.62489
-182,-622,1.98865,1.55505,0.0151062,-0.0102383,0.0115676,0.019592,-0.014724,0.369929,0.0198787,0.0444475,1042,1646,1.98869,-1.55505
-175,-622,1.45618,2.73962,0,0,0,0,0,0,0,-1,1049,1646,1.45616,-2.73966
-168,-622,1.52917,2.87024,0.0304622,-0.00972666,0.0090928,0.0324238,-0.0116882,0.212467,0.0263893,0.0466452,1056,1646,1.52921,-2.87026
-161,-622,1.59106,2.95667,0.0383112,-0.0084123,0.00667994,0.0392474,-0.00934855,0.139252,0.0297744,0.0451275,1063,1646,1.5911,-2.95669
-154,-622,1.93433,2.07727,0,0,0,0,0,0,0,-1,1070,1646,1.93431,-2.07723
-147,-622,2.28418,1.12573,0,0,0,0,0,0,0,-1,1077,1646,2.28416,-1.12575
-140,-622,-0.134644,3.20728,0,0,0,0,0,0,0,-1,1084,1646,-0.134659,-3.20726
-133,-622,-0.798218,3.96594,0.072409,-0.0173661,-0.0124081,0.0740924,-0.0190495,-0.134846,0.0568193,0.0451014,1091,1646,-0.798166,-3.96591
-126,-622,-0.985718,4.55347,0.0809067,-0.0192071,-0.0178801,0.0840042,-0.0223046,-0.171535,0.0647315,0.0440494,1098,1646,-0.985666,-4.55342
-119,-622,1.78369,2.93323,0.0853944,-0.0235005,-0.023854,0.0903905,-0.0284966,-0.206461,0.0716731,0.0485101,1105,1646,1.78372,-2.93322
-112,-622,2.16211,3.26074,0.0857052,-0.0301297,-0.0296736,0.0928643,-0.0372888,-0.236736,0.0773937,0.0481493,1112,1646,2.16206,-3.26075
-105,-622,2.29651,3.24402,0.0749377,-0.0402158,-0.0301322,0.0823458,-0.0476239,-0.241072,0.0759254,0.0445178,1119,1646,2.2965,-3.24407
-98,-622,2.51428,3.37927,0,0,0,0,0,0,0,-1,1126,1646,2.51427,-3.37926
-91,-622,2.69568,2.6333,0,0,0,0,0,0,0,-1,1133,1646,2.69562,-2.63327
-84,-622,2.47998,1.50854,0,0,0,0,0,0,0,-1,1140,1646,2.48001,-1.5086
-77,-622,0.470337,-0.18396,0,0,0,0,0,0,0,-1,1147,1646,0.470305,0.184009
-70,-622,0.927002,-0.155273,0,0,0,0,0,0,0,-1,1154,1646,0.927009,0.15526
-63,-622,-0.00708008,-1.1781,0,0,0,0,0,0,0,-1,1161,1646,-0.00711232,1.17805
-56,-622,0.201538,-0.61084,0,0,0,0,0,0,0,-1,1168,1646,0.201479,0.610813
-49,-622,0.2771,0.181519,-0.0109121,-0.00768034,-0.0212824,0.0120474,-0.0306398,-0.823289,0.0254128,0.0435869,1175,1646,0.277066,-0.181556
-42,-622,0.0963135,0.736328,-0.0183385,0.00784191,-0.0188326,0.0176868,-0.0281834,-1.08911,0.0267133,0.0481304,1182,1646,0.096314,-0.736291
-35,-622,-0.076416,-0.041626,-0.0247418,0.0226105,-0.0170733,0.0281243,-0.0302557,-1.25842,0.0337132,0.0469366,1189,1646,-0.0764707,0.0416618
-28,-622,-0.0861816,-0.896362,-0.0331035,0.0207696,-0.0170896,0.0257334,-0.0380673,-1.28812,0.037064,0.0493893,1196,1646,-0.0861372,0.896352
-21,-622,-0.3479,-1.47913,-0.0463186,0.0139144,-0.0191335,0.0194783,-0.0518826,-1.2878,0.0425926,0.046448,1203,1646,-0.347868,1.47916
-14,-622,0.101807,-1.78064,0,0,0,0,0,0,0,-1,1210,1646,0.101782,1.78062
-7,-622,4.78992,-9.91931,0,0,0,0,0,0,0,-1,1217,1646,4.78993,9.91937
0,-622,0,0,0,0,0,0,0,0,0,-1,1224,1646,0,0
7,-622,0,0,0,0,0,0,0,0,0,-1,1231,1646,0,0
14,-622,0,0,0,0,0,0,0,0,0,-1,1238,1646,0,0
21,-622,0,0,0,0,0,0,0,0,0,-1,1245,1646,0,0
28,-622,0,0,0,0,0,0,0,0,0,-1,1252,1646,0,0
35,-622,0,0,0,0,0,0,0,0,0,-1,1259,1646,0,0
42,-622,0,0,0,0,0,0,0,0,0,-1,1266,1646,0,0
49,-622,0,0,0,0,0,0,0,0,0,-1,1273,1646,0,0
56,-622,0,0,0,0,0,0,0,0,0,-1,1280,1646,0,0
63,-622,0,0,0,0,0,0,0,0,0,-1,1287,1646,0,0
70,-622,0,0,0,0,0,0,0,0,0,-1,1294,1646,0,0
77,-622,0,0,0,0,0,0,0,0,0,-1,1301,1646,0,0
84,-622,0,0,0,0,0,0,0,0,0,-1,1308,1646,0,0
91,-622,0,0,0,0,0,0,0,0,0,-1,1315,1646,0,0
98,-622,0,0,0,0,0,0,0,0,0,-1,1322,1646,0,0
105,-622,0,0,0,0,0,0,0,0,0,-1,1329,1646,0,0
112,-622,0,0,0,0,0,0,0,0,0,-1,1336,1646,0,0
119,-622,0,0,0,0,0,0,0,0,0,-1,1343,1646,0,0
126,-622,8.17249,-2.02869,0,0,0,0,0,0,0,-1,1350,1646,8.17252,2.02864
133,-622,-1.70361,14.7086,0,0,0,0,0,0,0,-1,1357,1646,-1.70357,-14.7087
140,-622,-0.453491,13.1335,0,0,0,0,0,0,0,-1,1364,1646,-0.453473,-13.1336
147,-622,0.758545,11.6691,0.174564,0.0095473,-0.104522,0.22522,-0.0411079,-0.45128,0.165559,0.0475029,1371,1646,0.758516,-11.669
154,-622,2.6355,9.6427,0.160231,-0.000751404,-0.100798,0.208733,-0.0492526,-0.448473,0.15815,0.0437268,1378,1646,2.63548,-9.64268
161,-622,3.7804,5.03247,0,0,0,0,0,0,0,-1,1385,1646,3.78035,-5.03245
168,-622,3.91736,4.13184,0,0,0,0,0,0,0,-1,1392,1646,3.91731,-4.13189
175,-622,3.89673,3.14648,0.103633,-0.0670221,-0.0743235,0.131464,-0.0948527,-0.35829,0.131233,0.0464129,1399,1646,3.89679,-3.14654
182,-622,3.90588,2.06287,0.0839868,-0.0832825,-0.0511739,0.0984007,-0.0976965,-0.274552,0.113217,0.045258,1406,1646,3.90589,-2.06287
189,-622,4.12427,1.16467,0.0692947,-0.0972081,-0.0299383,0.0745142,-0.102428,-0.172607,0.10258,0.0442358,1413,1646,4.12424,-1.16466
196,-622,4.36279,0.359619,0,0,0,0,0,0,0,-1,1420,1646,4.36284,-0.35956
203,-622,4.78418,0.844238,0,0,0,0,0,0,0,-1,1427,1646,4.78413,-0.84423
210,-622,5.39136,1.06189,0,0,0,0,0,0,0,-1,1434,1646,5.39133,-1.06189
217,-622,2.30469,3.78601,0,0,0,0,0,0,0,-1,1441,1646,2.30473,-3.78596
224,-622,2.47266,2.89697,0,0,0,0,0,0,0,-1,1448,1646,2.4727,-2.89695
231,-622,2.96008,2.68567,0,0,0,0,0,0,0,-1,1455,1646,2.96005,-2.68569
238,-622,3.65833,2.46643,0,0,0,0,0,0,0,-1,1462,1646,3.6583,-2.46648
245,-622,4.33081,2.17004,0,0,0,0,0,0,0,-1,1469,1646,4.33075,-2.17002
252,-622,-2.85706,0.779175,0,0,0,0,0,0,0,-1,1476,1646,-2.85711,-0.779224
259,-622,5.73279,3.24451,0,0,0,0,0,0,0,-1,1483,1646,5.73282,-3.24448
266,-622,0.951416,0.855713,0,0,0,0,0,0,0,-1,1490,1646,0.951435,-0.855726
273,-622,1.55322,1.3407,0,0,0,0,0,0,0,-1,1497,1646,1.55326,-1.3407
280,-622,2.15503,1.82568,0,0,0,0,0,0,0,-1,1504,1646,2.15509,-1.82567
287,-622,4.08044,3.24573,0,0,0,0,0,0,0,-1,1511,1646,4.0804,-3.24568
294,-622,3.93347,3.2229,0,0,0,0,0,0,0,-1,1518,1646,3.93341,-3.22286
301,-622,4.78711,1.69739,0,0,0,0,0,0,0,-1,1525,1646,4.78717,-1.69735
308,-622,3.89929,1.61926,0,0,0,0,0,0,0,-1,1532,1646,3.89931,-1.6193
315,-622,2.89807,2.29443,0,0,0,0,0,0,0,-1,1539,1646,2.89805,-2.29441
322,-622,1.37122,3.14148,0,0,0,0,0,0,0,-1,1546,1646,1.37117,-3.14151
329,-622,1.61865,2.82861,0,0,0,0,0,0,0,-1,1553,1646,1.61868,-2.82865
336,-622,2.07556,2.56982,0,0,0,0,0,0,0,-1,1560,1646,2.07558,-2.56983
343,-622,2.37354,2.62732,-0.00750236,0.01368,-0.00398177,0.0144037,-0.00822611,-1.39099,0.0132266,0.0444304,1567,1646,2.37353,-2.62736
350,-622,2.22498,2.45325,-0.00510446,0.0128629,-0.00378395,0.0136273,-0.00586885,-1.37147,0.0115494,0.037554,1574,1646,2.22501,-2.45324
357,-622,2.19458,2.29517,-0.00303868,0.0118029,-0.00362044,0.012639,-0.00387475,-1.34385,0.00997174,0.03443,1581,1646,2.19464,-2.29516
364,-622,2.19617,2.25818,-0.000655897,0.0106312,-0.0041454,0.0119901,-0.00201478,-1.25403,0.00874269,0.0311587,1588,1646,2.19617,-2.25817
371,-622,2.18188,2.26172,0.000568612,0.00889943,-0.0039082,0.0104458,-0.000977781,-1.19402,0.00731164,0.019263,1595,1646,2.18184,-2.26172
378,-622,2.17761,2.2334,0.00115763,0.00694227,-0.00386954,0.00888098,-0.000781083,-1.10633,0.00619744,0.0107342,1602,1646,2.17763,-2.23339
385,-622,2.16211,2.19592,0.00170677,0.00470345,-0.00340344,0.00692377,-0.000513557,-0.992753,0.00479621,0.00938459,1609,1646,2.16215,-2.19593
392,-622,2.16101,2.17493,0.0021049,0.0031724,-0.003066,0.00575076,-0.000473457,-0.871578,0.00400101,0.00997604,1616,1646,2.16095,-2.17497
399,-622,2.17322,2.14905,0.0024412,0.00204981,-0.00278776,0.00504013,-0.000549116,-0.750356,0.00355728,0.0104795,1623,1646,2.17317,-2.149
406,-622,2.16626,2.11975,0.00241712,0.00139508,-0.00231993,0.00428165,-0.000469447,-0.676992,0.00302309,0.0132138,1630,1646,2.16626,-2.11977
413,-622,2.1748,2.08533,0.00206349,0.00129428,-0.00196263,0.00367884,-0.000321072,-0.688642,0.00256629,0.0141779,1637,1646,2.17475,-2.08535
420,-622,2.172,2.05713,0.00165734,0.00103879,-0.00162665,0.00300385,-0.000307727,-0.691454,0.00211263,0.0141903,1644,1646,2.17204,-2.05715
427,-622,2.177,2.0387,0.000837103,0.000979093,-0.00115232,0.00206261,-0.000246409,-0.816165,0.00146413,0.0118893,1651,1646,2.17701,-2.03872
434,-622,2.19739,1.99683,-6.63944e-05,0.00135074,-0.000327656,0.00142283,-0.000138484,-1.35423,0.000997926,0.0128255,1658,1646,2.19743,-1.99681
441,-622,2.20007,1.97595,-0.00104817,0.00174372,0.00029947,0.00177548,-0.00107993,1.46513,0.0016648,0.0146471,1665,1646,2.20012,-1.97594
448,-622,2.16992,1.98694,-0.00201583,0.00196893,0.000824861,0.00213293,-0.00217983,1.37453,0.00249002,0.0136371,1672,1646,2.16994,-1.98697
455,-622,2.13782,1.93958,-0.00272146,0.00217738,0.00122209,0.00246532,-0.00300941,1.3394,0.00316604,0.0150548,1679,1646,2.13784,-1.9396
462,-622,2.15674,1.91284,-0.00331491,0.00251873,0.00155032,0.00290514,-0.00370132,1.32653,0.00382346,0.0158782,1686,1646,2.1567,-1.91289
469,-622,2.16748,1.87988,-0.00400005,0.00289806,0.00188603,0.00338005,-0.00448204,1.3206,0.00455402,0.0172745,1693,1646,2.16746,-1.87994
476,-622,2.17773,1.84375,-0.00457064,0.00349421,0.00200751,0.00396629,-0.00504272,1.33984,0.00521372,0.0175497,1700,1646,2.17774,-1.84374
483,-622,2.20056,1.8252,-0.00471076,0.00463976,0.00193345,0.00502378,-0.00509477,1.37473,0.005842,0.024668,1707,1646,2.20058,-1.82514
490,-622,2.27209,1.80847,-0.00379058,0.0070711,0.00242692,0.0075887,-0.00430818,1.36067,0.00695517,0.0305458,1714,1646,2.27204,-1.80847
497,-622,2.23877,1.73889,-0.00160609,0.010052,0.00197505,0.0103775,-0.00193161,1.40745,0.00764398,0.0390418,1721,1646,2.23879,-1.73893
504,-622,2.42664,1.42297,0.00122054,0.0131168,0.000551664,0.0131423,0.00119501,1.52456,0.00839161,0.0467109,1728,1646,2.42658,-1.42298
511,-622,2.58655,1.27661,0.00483757,0.0152571,-0.0016809,0.0155215,0.00457311,-1.41475,0.0092099,0.0490329,1735,1646,2.58659,-1.2766
518,-622,2.3833,1.3551,0,0,0,0,0,0,0,-1,1742,1646,2.38331,-1.35512
525,-622,3.60901,0.834839,0,0,0,0,0,0,0,-1,1749,1646,3.609,-0.834873
532,-622,3.49194,0.619873,0,0,0,0,0,0,0,-1,1756,1646,3.49189,-0.619916
539,-622,3.42285,-0.349854,0,0,0,0,0,0,0,-1,1763,1646,3.42288,0.349871
546,-622,3.04919,0.404907,0,0,0,0,0,0,0,-1,1770,1646,3.04916,-0.404944
553,-622,0,0,0,0,0,0,0,0,0,-1,1777,1646,0,0
560,-622,0,0,0,0,0,0,0,0,0,-1,1784,1646,0,0
567,-622,0,0,0,0,0,0,0,0,0,-1,1791,1646,0,0
574,-622,0,0,0,0,0,0,0,0,0,-1,1798,1646,0,0
581,-622,0,0,0,0,0,0,0,0,0,-1,1805,1646,0,0
588,-622,0,0,0,0,0,0,0,0,0,-1,1812,1646,0,0
595,-622,0,0,0,0,0,0,0,0,0,-1,1819,1646,0,0
602,-622,0,0,0,0,0,0,0,0,0,-1,1826,1646,0,0
609,-622,0,0,0,0,0,0,0,0,0,-1,1833,1646,0,0
616,-622,0,0,0,0,0,0,0,0,0,-1,1840,1646,0,0
623,-622,0,0,0,0,0,0,0,0,0,-1,1847,1646,0,0
630,-622,0,0,0,0,0,0,0,0,0,-1,1854,1646,0,0
637,-622,0,0,0,0,0,0,0,0,0,-1,1861,1646,0,0
644,-622,0,0,0,0,0,0,0,0,0,-1,1868,1646,0,0
651,-622,0,0,0,0,0,0,0,0,0,-1,1875,1646,0,0
658,-622,0,0,0,0,0,0,0,0,0,-1,1882,1646,0,0
665,-622,0,0,0,0,0,0,0,0,0,-1,1889,1646,0,0
672,-622,0,0,0,0,0,0,0,0,0,-1,1896,1646,0,0
679,-622,0,0,0,0,0,0,0,0,0,-1,1903,1646,0,0
686,-622,0,0,0,0,0,0,0,0,0,-1,1910,1646,0,0
693,-622,0,0,0,0,0,0,0,0,0,-1,1917,1646,0,0
700,-622,0,0,0,0,0,0,0,0,0,-1,1924,1646,0,0
707,-622,0,0,0,0,0,0,0,0,0,-1,1931,1646,0,0
714,-622,0,0,0,0,0,0,0,0,0,-1,1938,1646,0,0
721,-622,0,0,0,0,0,0,0,0,0,-1,1945,1646,0,0
728,-622,0,0,0,0,0,0,0,0,0,-1,1952,1646,0,0
735,-622,0,0,0,0,0,0,0,0,0,-1,1959,1646,0,0
742,-622,0,0,0,0,0,0,0,0,0,-1,1966,1646,0,0
749,-622,0,0,0,0,0,0,0,0,0,-1,1973,1646,0,0
756,-622,0,0,0,0,0,0,0,0,0,-1,1980,1646,0,0
763,-622,0,0,0,0,0,0,0,0,0,-1,1987,1646,0,0
770,-622,0,0,0,0,0,0,0,0,0,-1,1994,1646,0,0
777,-622,0,0,0,0,0,0,0,0,0,-1,2001,1646,0,0
784,-622,0,0,0,0,0,0,0,0,0,-1,2008,1646,0,0
791,-622,0,0,0,0,0,0,0,0,0,-1,2015,1646,0,0
798,-622,0,0,0,0,0,0,0,0,0,-1,2022,1646,0,0
805,-622,0,0,0,0,0,0,0,0,0,-1,2029,1646,0,0
812,-622,0,0,0,0,0,0,0,0,0,-1,2036,1646,0,0
-700,-629,0,0,0,0,0,0,0,0,0,-1,524,1653,0,0
-693,-629,0,0,0,0,0,0,0,0,0,-1,531,1653,0,0
-686,-629,0,0,0,0,0,0,0,0,0,-1,538,1653,0,0
-679,-629,0,0,0,0,0,0,0,0,0,-1,545,1653,0,0
-672,-629,0,0,0,0,0,0,0,0,0,-1,552,1653,0,0
-665,-629,0,0,0,0,0,0,0,0,0,-1,559,1653,0,0
-658,-629,0,0,0,0,0,0,0,0,0,-1,566,1653,0,0
-651,-629,0,0,0,0,0,0,0,0,0,-1,573,1653,0,0
-644,-629,0,0,0,0,0,0,0,0,0,-1,580,1653,0,0
-637,-629,0,0,0,0,0,0,0,0,0,-1,587,1653,0,0
-630,-629,0,0,0,0,0,0,0,0,0,-1,594,1653,0,0
-623,-629,0,0,0,0,0,0,0,0,0,-1,601,1653,0,0
-616,-629,0,0,0,0,0,0,0,0,0,-1,608,1653,0,0
-609,-629,0,0,0,0,0,0,0,0,0,-1,615,1653,0,0
-602,-629,0,0,0,0,0,0,0,0,0,-1,622,1653,0,0
-595,-629,0,0,0,0,0,0,0,0,0,-1,629,1653,0,0
-588,-629,0,0,0,0,0,0,0,0,0,-1,636,1653,0,0
-581,-629,0,0,0,0,0,0,0,0,0,-1,643,1653,0,0
-574,-629,0,0,0,0,0,0,0,0,0,-1,650,1653,0,0
-567,-629,0,0,0,0,0,0,0,0,0,-1,657,1653,0,0
-560,-629,0,0,0,0,0,0,0,0,0,-1,664,1653,0,0
-553,-629,0,0,0,0,0,0,0,0,0,-1,671,1653,0,0
-546,-629,0,0,0,0,0,0,0,0,0,-1,678,1653,0,0
-539,-629,0,0,0,0,0,0,0,0,0,-1,685,1653,0,0
-532,-629,0,0,0,0,0,0,0,0,0,-1,692,1653,0,0
-525,-629,0,0,0,0,0,0,0,0,0,-1,699,1653,0,0
-518,-629,0,0,0,0,0,0,0,0,0,-1,706,1653,0,0
-511,-629,0,0,0,0,0,0,0,0,0,-1,713,1653,0,0
-504,-629,0,0,0,0,0,0,0,0,0,-1,720,1653,0,0
-497,-629,0,0,0,0,0,0,0,0,0,-1,727,1653,0,0
-490,-629,0,0,0,0,0,0,0,0,0,-1,734,1653,0,0
-483,-629,0,0,0,0,0,0,0,0,0,-1,741,1653,0,0
-476,-629,0,0,0,0,0,0,0,0,0,-1,748,1653,0,0
-469,-629,0,0,0,0,0,0,0,0,0,-1,755,1653,0,0
-462,-629,0,0,0,0,0,0,0,0,0,-1,762,1653,0,0
-455,-629,0,0,0,0,0,0,0,0,0,-1,769,1653,0,0
-448,-629,0,0,0,0,0,0,0,0,0,-1,776,1653,0,0
-441,-629,0,0,0,0,0,0,0,0,0,-1,783,1653,0,0
-434,-629,0,0,0,0,0,0,0,0,0,-1,790,1653,0,0
-427,-629,0,0,0,0,0,0,0,0,0,-1,797,1653,0,0
-420,-629,0.686218,0.507568,0,0,0,0,0,0,0,-1,804,1653,0.68619,-0.507549
-413,-629,0.391113,1.07666,0,0,0,0,0,0,0,-1,811,1653,0.391117,-1.07666
-406,-629,1.01947,1.36719,0,0,0,0,0,0,0,-1,818,1653,1.01945,-1.36714
-399,-629,0.593384,1.88757,0.00670832,-0.0384399,0.0107322,0.00912964,-0.0408612,0.221897,0.0307393,0.0412677,825,1653,0.593378,-1.88753
-392,-629,0.651978,2.84717,0,0,0,0,0,0,0,-1,832,1653,0.651987,-2.8472
-385,-629,1.06763,2.61804,0,0,0,0,0,0,0,-1,839,1653,1.06765,-2.61807
-378,-629,1.45026,2.49426,0.0156347,-0.0344238,0.0013648,0.0156718,-0.034461,0.0272371,0.0296141,0.0433538,846,1653,1.45023,-2.49431
-371,-629,1.93781,2.56262,0.0160096,-0.031893,-0.000674996,0.0160191,-0.0319025,-0.0140873,0.0281696,0.0425923,853,1653,1.93783,-2.56256
-364,-629,2.50482,1.88501,0,0,0,0,0,0,0,-1,860,1653,2.5048,-1.88506
-357,-629,2.03638,1.71448,0.0126872,-0.022407,-0.00382804,0.0130999,-0.0228197,-0.107396,0.0209898,0.0418841,867,1653,2.03639,-1.71445
-350,-629,1.901,1.73499,0.0100057,-0.0180287,-0.00450673,0.0107124,-0.0187354,-0.155538,0.0172108,0.0372155,874,1653,1.90101,-1.73502
-343,-629,1.76251,1.80249,0.00761627,-0.0141027,-0.00488107,0.0086628,-0.0151492,-0.211209,0.0139168,0.0304963,881,1653,1.76252,-1.80253
-336,-629,1.57104,1.91455,0.00584548,-0.0105332,-0.00468895,0.00709285,-0.0117806,-0.260002,0.011008,0.0169964,888,1653,1.57104,-1.91451
-329,-629,1.57526,1.93616,0.00432339,-0.00760127,-0.00431968,0.00572374,-0.00900162,-0.313489,0.00857161,0.0115366,895,1653,1.57523,-1.93619
-322,-629,1.57526,1.94897,0.00262093,-0.00528195,-0.00399061,0.00428543,-0.00694646,-0.395165,0.00654512,0.0117415,902,1653,1.57525,-1.94893
-315,-629,1.57849,1.9707,0.00132466,-0.00331119,-0.00354856,0.00324525,-0.00523178,-0.496087,0.00493881,0.0148028,909,1653,1.57851,-1.97075
-308,-629,1.60352,1.99695,0.00099141,-0.00222888,-0.00294976,0.00274187,-0.00397933,-0.53557,0.00390235,0.0126685,916,1653,1.60354,-1.99692
-301,-629,1.60596,2.04944,0.00102736,-0.00106455,-0.00214819,0.0023707,-0.00240789,-0.558842,0.00275895,0.0115177,923,1653,1.60598,-2.04948
-294,-629,1.58112,2.09192,0.00165411,-0.00122999,-0.00177265,0.00249719,-0.00207307,-0.443939,0.00264242,0.0119916,930,1653,1.58109,-2.09198
-287,-629,1.57574,2.10413,0.00182824,-0.00126194,-0.0015226,0.0024524,-0.00188609,-0.389034,0.00251193,0.00949431,937,1653,1.57574,-2.10417
-280,-629,1.57751,2.11877,0.00172855,-0.00107143,-0.00119316,0.00216801,-0.0015109,-0.352903,0.00213529,0.00998694,944,1653,1.57753,-2.11873
-273,-629,1.58124,2.12488,0.00160082,-0.00104758,-0.000715282,0.00178165,-0.00122842,-0.247629,0.00174762,0.0118594,951,1653,1.58124,-2.12483
-266,-629,1.57739,2.16309,0.00182981,-0.00142549,-0.000454571,0.00189209,-0.00148777,-0.136171,0.00195601,0.0117981,958,1653,1.57736,-2.16303
-259,-629,1.57935,2.22705,0.00185648,-0.00178681,-0.000344303,0.00188874,-0.00181906,-0.0934016,0.00214082,0.0132494,965,1653,1.57933,-2.22703
-252,-629,1.58563,2.23633,0.00210293,-0.00223298,-0.000390591,0.00213783,-0.00226788,-0.0891268,0.00254401,0.00991039,972,1653,1.58564,-2.23631
-245,-629,1.60187,2.24719,0.0028415,-0.00207866,-0.000668964,0.00293083,-0.002168,-0.132754,0.00295477,0.00689814,979,1653,1.60185,-2.24715
-238,-629,1.58765,2.26697,0.00399546,-0.00198049,-0.0006184,0.00405878,-0.00204381,-0.102041,0.00358678,0.00907112,986,1653,1.58766,-2.26698
-231,-629,1.58002,2.28748,0.00527398,-0.00319779,-0.000524297,0.00530631,-0.00323011,-0.0615743,0.00497686,0.00938577,993,1653,1.58005,-2.28751
-224,-629,1.59052,2.32959,0.00654857,-0.00452125,0.000267498,0.00655503,-0.00452771,0.0241458,0.00643421,0.00954249,1000,1653,1.59049,-2.32959
-217,-629,1.60114,2.36121,0.00751327,-0.00597068,0.00219813,0.00786256,-0.00631997,0.157585,0.00820441,0.0127638,1007,1653,1.60116,-2.36121
-210,-629,1.56177,2.3595,0.0087037,-0.00684283,0.00327782,0.00936653,-0.00750566,0.199527,0.00976089,0.0237359,1014,1653,1.56175,-2.35945
-203,-629,1.55707,2.24207,0,0,0,0,0,0,0,-1,1021,1653,1.55706,-2.24213
-196,-629,1.68909,2.04761,0,0,0,0,0,0,0,-1,1028,1653,1.68905,-2.04762
-189,-629,1.62012,2.31543,0.0111012,-0.00902906,0.00892622,0.0144891,-0.012417,0.36275,0.0155496,0.0400928,1035,1653,1.62006,-2.31548
-182,-629,1.91284,1.85852,0.0130434,-0.00767828,0.00928897,0.0165977,-0.0112326,0.365452,0.0161671,0.0432563,1042,1653,1.91289,-1.85848
-175,-629,1.66431,2.53992,0,0,0,0,0,0,0,-1,1049,1653,1.66431,-2.53992
-168,-629,1.67737,2.67139,0.0252599,-0.00630705,0.00737442,0.0268977,-0.00794483,0.218542,0.0210851,0.0460268,1056,1653,1.67731,-2.67141
-161,-629,1.72717,2.80432,0.0315014,-0.00466448,0.00551974,0.0323251,-0.00548815,0.148131,0.0235932,0.0457951,1063,1653,1.72716,-2.80435
-154,-629,1.79016,2.89722,0,0,0,0,0,0,0,-1,1070,1653,1.79017,-2.8972
-147,-629,0.470337,2.23962,0,0,0,0,0,0,0,-1,1077,1653,0.470342,-2.23967
-140,-629,0.422485,2.77856,0.0527505,-0.0057517,-0.00485107,0.05315,-0.00615122,-0.0821732,0.0376516,0.0478885,1084,1653,0.422528,-2.77862
-133,-629,0.419434,3.39917,0.0579477,-0.00833504,-0.00888475,0.059118,-0.00950532,-0.130964,0.0429326,0.0433478,1091,1653,0.419381,-3.39918
-126,-629,1.35571,2.45789,0,0,0,0,0,0,0,-1,1098,1653,1.35575,-2.45788
-119,-629,1.68896,2.85034,0.0661693,-0.0122173,-0.0169806,0.0696897,-0.0157377,-0.204419,0.0524979,0.0496099,1105,1653,1.68893,-2.85039
-112,-629,1.85498,3.28015,0.0655665,-0.0171426,-0.0209931,0.0705899,-0.0221659,-0.23487,0.0559323,0.0470806,1112,1653,1.85501,-3.28013
-105,-629,2.01416,3.50256,0.0570836,-0.0240787,-0.0214094,0.0623849,-0.0293799,-0.24273,0.0541106,0.0455342,1119,1653,2.01411,-3.5025
-98,-629,2.20911,3.32886,0,0,0,0,0,0,0,-1,1126,1653,2.20914,-3.32888
-91,-629,2.2467,2.78528,0.0368128,-0.0322207,-0.0206537,0.0425201,-0.037928,-0.269609,0.046472,0.0426166,1133,1653,2.24671,-2.78533
-84,-629,1.86902,1.78223,0.0298554,-0.0331628,-0.0220072,0.0367799,-0.0400873,-0.304839,0.044393,0.0431274,1140,1653,1.86897,-1.78228
-77,-629,1.59802,1.13025,0,0,0,0,0,0,0,-1,1147,1653,1.59797,-1.13024
-70,-629,2.05505,6.36475,0,0,0,0,0,0,0,-1,1154,1653,2.05506,-6.36478
-63,-629,2.38342,7.32996,0,0,0,0,0,0,0,-1,1161,1653,2.38342,-7.32993
-56,-629,0.0684814,0.499878,0,0,0,0,0,0,0,-1,1168,1653,0.068446,-0.499894
-49,-629,0.0209961,-0.207153,-0.0123649,-0.0100108,-0.0182136,0.00706375,-0.0294394,-0.817665,0.022356,0.0449599,1175,1653,0.0210427,0.207093
-42,-629,-0.115723,0.245483,-0.0180578,-0.00302705,-0.0176369,0.0086289,-0.0297137,-0.986806,0.023226,0.0441286,1182,1653,-0.115688,-0.245446
-35,-629,-0.318604,-0.44519,-0.0230837,0.00415391,-0.0172975,0.0125505,-0.0314803,-1.11888,0.0261926,0.0478042,1189,1653,-0.318589,0.445196
-28,-629,-0.327026,-1.3158,-0.0293162,0.00252424,-0.018069,0.010686,-0.037478,-1.14653,0.0292064,0.0494256,1196,1653,-0.327019,1.3158
-21,-629,-0.157959,-1.3009,-0.0397676,-0.00210061,-0.0202784,0.00674105,-0.0486093,-1.15963,0.0348711,0.0494499,1203,1653,-0.158001,1.30091
-14,-629,0.0219727,-1.68872,0,0,0,0,0,0,0,-1,1210,1653,0.0219428,1.68873
-7,-629,0.194336,-2.12366,0,0,0,0,0,0,0,-1,1217,1653,0.194322,2.12367
0,-629,0.361328,0.257813,0,0,0,0,0,0,0,-1,1224,1653,0.361323,-0.257856
7,-629,-0.251099,0.139648,0.0389784,-0.0209798,-0.00666879,0.0397111,-0.0217126,-0.109442,0.0359669,0.0454451,1231,1653,-0.251107,-0.139592
14,-629,-1.00476,-0.136108,0.0793658,-0.0276952,0.00118202,0.0793788,-0.0277082,0.0110388,0.064181,0.041836,1238,1653,-1.00475,0.136116
21,-629,-1.35681,0.116333,0,0,0,0,0,0,0,-1,1245,1653,-1.35678,-0.11632
28,-629,0.287109,1.3175,0,0,0,0,0,0,0,-1,1252,1653,0.287159,-1.31754
35,-629,-3.17651,-0.700562,0,0,0,0,0,0,0,-1,1259,1653,-3.17648,0.700554
42,-629,-3.22241,-0.591675,0,0,0,0,0,0,0,-1,1266,1653,-3.22245,0.591686
49,-629,-3.54407,-1.43201,0.246364,-0.0441019,0.0203091,0.247777,-0.045515,0.0694686,0.182261,0.0464792,1273,1653,-3.54407,1.432
56,-629,5.17981,6.85437,0,0,0,0,0,0,0,-1,1280,1653,5.17983,-6.85435
63,-629,5.4928,6.00488,0.27255,-0.0403277,0.0208588,0.273934,-0.0417122,0.0662767,0.197997,0.0468208,1287,1653,5.4928,-6.00486
70,-629,5.724,4.93494,0.2631,-0.0308104,0.0141174,0.263776,-0.0314869,0.047886,0.187231,0.0470057,1294,1653,5.72395,-4.93489
77,-629,6.19434,3.33789,0.235433,-0.0259289,0.00580166,0.235562,-0.0260576,0.0221832,0.166409,0.0463154,1301,1653,6.19439,-3.33792
84,-629,6.29907,2.37573,0.201721,-0.0233187,-0.000128453,0.201721,-0.0233187,-0.000570803,0.142889,0.0477452,1308,1653,6.29912,-2.37577
91,-629,6.36548,1.51733,0,0,0,0,0,0,0,-1,1315,1653,6.36553,-1.51731
98,-629,6.14856,0.0889893,0,0,0,0,0,0,0,-1,1322,1653,6.14862,-0.0889841
105,-629,6.57898,-0.62854,0,0,0,0,0,0,0,-1,1329,1653,6.57898,0.628488
112,-629,7.1991,0.613037,0,0,0,0,0,0,0,-1,1336,1653,7.19916,-0.613048
119,-629,7.50256,-0.672729,0.152657,0.0513822,-0.0822668,0.198622,0.00541752,-0.509519,0.130646,0.0453326,1343,1653,7.50258,0.672729
126,-629,7.87866,-2.08984,0.15731,0.0502056,-0.0868786,0.205815,0.00170017,-0.509202,0.136647,0.0406348,1350,1653,7.87866,2.08986
133,-629,8.24182,-3.59448,0,0,0,0,0,0,0,-1,1357,1653,8.24188,3.59448
140,-629,-0.755737,12.7268,0,0,0,0,0,0,0,-1,1364,1653,-0.755769,-12.7268
147,-629,0.435791,11.1177,0.15173,0.0426526,-0.0884451,0.2011,-0.00671734,-0.509116,0.136361,0.0498068,1371,1653,0.435787,-11.1177
154,-629,1.98596,9.48022,0.139935,0.0305201,-0.0894021,0.19004,-0.0195849,-0.510828,0.133701,0.0456784,1378,1653,1.98591,-9.48029
161,-629,3.86853,7.64429,0,0,0,0,0,0,0,-1,1385,1653,3.86856,-7.64424
168,-629,3.60352,4.69995,0,0,0,0,0,0,0,-1,1392,1653,3.60356,-4.69991
175,-629,3.71851,3.62549,0,0,0,0,0,0,0,-1,1399,1653,3.71856,-3.62552
182,-629,3.71472,2.52783,0,0,0,0,0,0,0,-1,1406,1653,3.7147,-2.52783
189,-629,4.04504,1.61975,0,0,0,0,0,0,0,-1,1413,1653,4.04505,-1.61977
196,-629,4.37537,0.71167,0,0,0,0,0,0,0,-1,1420,1653,4.37539,-0.711711
203,-629,5.53308,-0.0175781,0,0,0,0,0,0,0,-1,1427,1653,5.53305,0.0176157
210,-629,4.32678,-1.27441,0,0,0,0,0,0,0,-1,1434,1653,4.32682,1.27446
217,-629,4.922,-1.2002,0,0,0,0,0,0,0,-1,1441,1653,4.92197,1.20017
224,-629,2.12402,2.62573,0,0,0,0,0,0,0,-1,1448,1653,2.12406,-2.62577
231,-629,2.84119,2.31433,0,0,0,0,0,0,0,-1,1455,1653,2.84115,-2.31439
238,-629,3.52356,1.90881,0,0,0,0,0,0,0,-1,1462,1653,3.52356,-1.90875
245,-629,-1.49402,0.703735,0,0,0,0,0,0,0,-1,1469,1653,-1.49406,-0.703734
252,-629,-1.47827,0.726807,0,0,0,0,0,0,0,-1,1476,1653,-1.47829,-0.726864
259,-629,-0.39209,0.545166,0,0,0,0,0,0,0,-1,1483,1653,-0.39212,-0.54522
266,-629,0.527954,1.07446,0.0278542,-0.00680733,0.00378055,0.0282618,-0.00721488,0.107388,0.0216507,0.0466494,1490,1653,0.528005,-1.07447
273,-629,1.50134,1.80884,0.0189128,-0.00534912,-0.000608868,0.018928,-0.00536439,-0.0250746,0.014736,0.046292,1497,1653,1.5013,-1.80888
280,-629,2.18835,2.25745,0,0,0,0,0,0,0,-1,1504,1653,2.18838,-2.2574
287,-629,2.27734,3.3678,0,0,0,0,0,0,0,-1,1511,1653,2.27738,-3.36784
294,-629,2.25952,3.09363,0,0,0,0,0,0,0,-1,1518,1653,2.25948,-3.09367
301,-629,2.9165,2.39404,-0.00408615,0.00305186,-0.00304296,0.004173,-0.00520728,-1.21779,0.00542667,0.0491987,1525,1653,2.91647,-2.39402
308,-629,4.13159,1.10291,-0.00681995,0.00541954,-0.00176949,0.00567023,-0.00707063,-1.43006,0.00737073,0.049424,1532,1653,4.13159,-1.10291
315,-629,1.39099,3.08655,0,0,0,0,0,0,0,-1,1539,1653,1.39105,-3.08656
322,-629,1.69189,2.9491,-0.00905166,0.00888091,-0.00207806,0.00911857,-0.00928932,-1.45693,0.010628,0.0458654,1546,1653,1.69184,-2.94906
329,-629,1.83789,2.63647,-0.0091344,0.00992412,-0.00264177,0.0102835,-0.0094938,-1.43558,0.0114215,0.0408924,1553,1653,1.83791,-2.63642
336,-629,2.10535,2.47717,-0.0073492,0.00970969,-0.00302668,0.0102308,-0.0078703,-1.4003,0.0104802,0.0404038,1560,1653,2.10532,-2.47719
343,-629,2.24695,2.46277,-0.00522634,0.00917367,-0.00307638,0.00980336,-0.00585603,-1.3689,0.0091362,0.0353941,1567,1653,2.24697,-2.46274
350,-629,2.18518,2.33057,-0.00325903,0.00844696,-0.00317065,0.00925058,-0.00406266,-1.32257,0.00787853,0.0244501,1574,1653,2.1852,-2.33051
357,-629,2.1615,2.27185,-0.00158114,0.00762567,-0.00324294,0.00865325,-0.00260872,-1.26394,0.00680713,0.0156603,1581,1653,2.16152,-2.27191
364,-629,2.17798,2.27039,0.000509694,0.00688738,-0.00393941,0.00876684,-0.00136976,-1.12564,0.00635058,0.0136459,1588,1653,2.17797,-2.27041
371,-629,2.15942,2.24707,0.00157364,0.00553746,-0.00384133,0.00787803,-0.000766927,-1.02356,0.00552543,0.0105917,1595,1653,2.15943,-2.24703
378,-629,2.14539,2.21289,0.00205338,0.00403399,-0.00377618,0.00694755,-0.000860185,-0.913635,0.00494344,0.0095077,1602,1653,2.14537,-2.21294
385,-629,2.14661,2.18384,0.00240864,0.00251312,-0.00341647,0.00587775,-0.000955993,-0.793043,0.00427296,0.0113088,1609,1653,2.14661,-2.18381
392,-629,2.15393,2.18066,0.00252118,0.00159138,-0.0031389,0.00522942,-0.00111686,-0.711878,0.00391207,0.0099344,1616,1653,2.15396,-2.1807
399,-629,2.14575,2.15198,0.00252313,0.00101273,-0.0028525,0.00471871,-0.00118285,-0.655992,0.00360536,0.0102648,1623,1653,2.14571,-2.15192
406,-629,2.12756,2.099,0.00224501,0.000821046,-0.0023826,0.00401974,-0.000953679,-0.640208,0.00304787,0.0131611,1630,1653,2.12757,-2.09895
413,-629,2.13086,2.07275,0.00173326,0.000997709,-0.00198293,0.00338223,-0.00065126,-0.693704,0.00250034,0.02091,1637,1653,2.1308,-2.07279
420,-629,2.15149,2.05847,0.00117938,0.00106966,-0.00157275,0.00269823,-0.000449186,-0.767965,0.00196573,0.0193775,1644,1653,2.15151,-2.05849
427,-629,2.16382,2.04041,0.000210792,0.00120003,-0.00105684,0.00187227,-0.000461446,-1.00427,0.00142708,0.0123059,1651,1653,2.16383,-2.04038
434,-629,2.16602,2.00488,-0.000852018,0.00178518,-0.000162326,0.00179513,-0.000861972,-1.50955,0.0015653,0.0102041,1658,1653,2.16603,-2.0049
441,-629,2.17896,1.98499,-0.0019438,0.00233226,0.000569396,0.00240678,-0.00201832,1.44066,0.00255812,0.0142707,1665,1653,2.1789,-1.98501
448,-629,2.15881,1.97168,-0.00295361,0.00271907,0.00123096,0.00297467,-0.00320921,1.36606,0.00357112,0.0135388,1672,1653,2.15882,-1.97173
455,-629,2.14282,1.92261,-0.00379691,0.0031126,0.00178191,0.00354508,-0.00422938,1.3327,0.00449438,0.013143,1679,1653,2.14278,-1.92262
462,-629,2.15942,1.90979,-0.00457283,0.00372105,0.00228953,0.0043111,-0.00516288,1.31857,0.00547717,0.0162143,1686,1653,2.15945,-1.90974
469,-629,2.16089,1.86084,-0.00548081,0.00441489,0.00282145,0.00516281,-0.00622873,1.31167,0.0065865,0.0191597,1693,1653,2.16094,-1.86079
476,-629,2.15833,1.82861,-0.00632758,0.00541006,0.00311594,0.00618594,-0.00710347,1.32675,0.00767874,0.0275768,1700,1653,2.15837,-1.82862
483,-629,2.10388,1.84998,-0.00681775,0.00697479,0.0031695,0.00766827,-0.00751123,1.35539,0.00876404,0.0400696,1707,1653,2.1039,-1.84999
490,-629,2.1012,1.88745,-0.00626382,0.00990987,0.00383835,0.0107746,-0.00712851,1.34922,0.0104075,0.0434038,1714,1653,2.10116,-1.88745
497,-629,2.12158,1.92932,0,0,0,0,0,0,0,-1,1721,1653,2.12159,-1.92934
504,-629,3.22998,1.63318,0,0,0,0,0,0,0,-1,1728,1653,3.23,-1.63322
511,-629,2.89856,1.03186,0,0,0,0,0,0,0,-1,1735,1653,2.89854,-1.03191
518,-629,4.11646,3.41736,0,0,0,0,0,0,0,-1,1742,1653,4.1165,-3.41734
525,-629,3.96777,0.586304,0,0,0,0,0,0,0,-1,1749,1653,3.96773,-0.586363
532,-629,3.83606,0.342896,0,0,0,0,0,0,0,-1,1756,1653,3.83612,-0.342899
539,-629,3.40405,-1.19043,0,0,0,0,0,0,0,-1,1763,1653,3.40403,1.19042
546,-629,0,0,0,0,0,0,0,0,0,-1,1770,1653,0,0
553,-629,0,0,0,0,0,0,0,0,0,-1,1777,1653,0,0
560,-629,0,0,0,0,0,0,0,0,0,-1,1784,1653,0,0
567,-629,0,0,0,0,0,0,0,0,0,-1,1791,1653,0,0
574,-629,0,0,0,0,0,0,0,0,0,-1,1798,1653,0,0
581,-629,0,0,0,0,0,0,0,0,0,-1,1805,1653,0,0
588,-629,0,0,0,0,0,0,0,0,0,-1,1812,1653,0,0
595,-629,0,0,0,0,0,0,0,0,0,-1,1819,1653,0,0
602,-629,0,0,0,0,0,0,0,0,0,-1,1826,1653,0,0
609,-629,0,0,0,0,0,0,0,0,0,-1,1833,1653,0,0
616,-629,0,0,0,0,0,0,0,0,0,-1,1840,1653,0,0
623,-629,0,0,0,0,0,0,0,0,0,-1,1847,1653,0,0
630,-629,0,0,0,0,0,0,0,0,0,-1,1854,1653,0,0
637,-629,0,0,0,0,0,0,0,0,0,-1,1861,1653,0,0
644,-629,0,0,0,0,0,0,0,0,0,-1,1868,1653,0,0
651,-629,0,0,0,0,0,0,0,0,0,-1,1875,1653,0,0
658,-629,0,0,0,0,0,0,0,0,0,-1,1882,1653,0,0
665,-629,0,0,0,0,0,0,0,0,0,-1,1889,1653,0,0
672,-629,0,0,0,0,0,0,0,0,0,-1,1896,1653,0,0
679,-629,0,0,0,0,0,0,0,0,0,-1,1903,1653,0,0
686,-629,0,0,0,0,0,0,0,0,0,-1,1910,1653,0,0
693,-629,0,0,0,0,0,0,0,0,0,-1,1917,1653,0,0
700,-629,0,0,0,0,0,0,0,0,0,-1,1924,1653,0,0
707,-629,0,0,0,0,0,0,0,0,0,-1,1931,1653,0,0
714,-629,0,0,0,0,0,0,0,0,0,-1,1938,1653,0,0
721,-629,0,0,0,0,0,0,0,0,0,-1,1945,1653,0,0
728,-629,0,0,0,0,0,0,0,0,0,-1,1952,1653,0,0
735,-629,0,0,0,0,0,0,0,0,0,-1,1959,1653,0,0
742,-629,0,0,0,0,0,0,0,0,0,-1,1966,1653,0,0
749,-629,0,0,0,0,0,0,0,0,0,-1,1973,1653,0,0
756,-629,0,0,0,0,0,0,0,0,0,-1,1980,1653,0,0
763,-629,0,0,0,0,0,0,0,0,0,-1,1987,1653,0,0
770,-629,0,0,0,0,0,0,0,0,0,-1,1994,1653,0,0
777,-629,0,0,0,0,0,0,0,0,0,-1,2001,1653,0,0
784,-629,0,0,0,0,0,0,0,0,0,-1,2008,1653,0,0
791,-629,0,0,0,0,0,0,0,0,0,-1,2015,1653,0,0
798,-629,0,0,0,0,0,0,0,0,0,-1,2022,1653,0,0
805,-629,0,0,0,0,0,0,0,0,0,-1,2029,1653,0,0
812,-629,0,0,0,0,0,0,0,0,0,-1,2036,1653,0,0
-700,-636,0,0,0,0,0,0,0,0,0,-1,524,1660,0,0
-693,-636,0,0,0,0,0,0,0,0,0,-1,531,1660,0,0
-686,-636,0,0,0,0,0,0,0,0,0,-1,538,1660,0,0
-679,-636,0,0,0,0,0,0,0,0,0,-1,545,1660,0,0
-672,-636,0,0,0,0,0,0,0,0,0,-1,552,1660,0,0
-665,-636,0,0,0,0,0,0,0,0,0,-1,559,1660,0,0
-658,-636,0,0,0,0,0,0,0,0,0,-1,566,1660,0,0
-651,-636,0,0,0,0,0,0,0,0,0,-1,573,1660,0,0
-644,-636,0,0,0,0,0,0,0,0,0,-1,580,1660,0,0
-637,-636,0,0,0,0,0,0,0,0,0,-1,587,1660,0,0
-630,-636,0,0,0,0,0,0,0,0,0,-1,594,1660,0,0
-623,-636,0,0,0,0,0,0,0,0,0,-1,601,1660,0,0
-616,-636,0,0,0,0,0,0,0,0,0,-1,608,1660,0,0
-609,-636,0,0,0,0,0,0,0,0,0,-1,615,1660,0,0
-602,-636,0,0,0,0,0,0,0,0,0,-1,622,1660,0,0
-595,-636,0,0,0,0,0,0,0,0,0,-1,629,1660,0,0
-588,-636,0,0,0,0,0,0,0,0,0,-1,636,1660,0,0
-581,-636,0,0,0,0,0,0,0,0,0,-1,643,1660,0,0
-574,-636,0,0,0,0,0,0,0,0,0,-1,650,1660,0,0
-567,-636,0,0,0,0,0,0,0,0,0,-1,657,1660,0,0
-560,-636,0,0,0,0,0,0,0,0,0,-1,664,1660,0,0
-553,-636,0,0,0,0,0,0,0,0,0,-1,671,1660,0,0
-546,-636,0,0,0,0,0,0,0,0,0,-1,678,1660,0,0
-539,-636,0,0,0,0,0,0,0,0,0,-1,685,1660,0,0
-532,-636,0,0,0,0,0,0,0,0,0,-1,692,1660,0,0
-525,-636,0,0,0,0,0,0,0,0,0,-1,699,1660,0,0
-518,-636,0,0,0,0,0,0,0,0,0,-1,706,1660,0,0
-511,-636,0,0,0,0,0,0,0,0,0,-1,713,1660,0,0
-504,-636,0,0,0,0,0,0,0,0,0,-1,720,1660,0,0
-497,-636,0,0,0,0,0,0,0,0,0,-1,727,1660,0,0
-490,-636,0,0,0,0,0,0,0,0,0,-1,734,1660,0,0
-483,-636,0,0,0,0,0,0,0,0,0,-1,741,1660,0,0
-476,-636,0,0,0,0,0,0,0,0,0,-1,748,1660,0,0
-469,-636,0,0,0,0,0,0,0,0,0,-1,755,1660,0,0
-462,-636,0,0,0,0,0,0,0,0,0,-1,762,1660,0,0
-455,-636,0,0,0,0,0,0,0,0,0,-1,769,1660,0,0
-448,-636,0,0,0,0,0,0,0,0,0,-1,776,1660,0,0
-441,-636,0,0,0,0,0,0,0,0,0,-1,783,1660,0,0
-434,-636,0,0,0,0,0,0,0,0,0,-1,790,1660,0,0
-427,-636,0,0,0,0,0,0,0,0,0,-1,797,1660,0,0
-420,-636,0,0,0,0,0,0,0,0,0,-1,804,1660,0,0
-413,-636,0,0,0,0,0,0,0,0,0,-1,811,1660,0,0
-406,-636,1.37805,2.10217,0,0,0,0,0,0,0,-1,818,1660,1.37808,-2.10222
-399,-636,1.24524,2.34497,0,0,0,0,0,0,0,-1,825,1660,1.24522,-2.34494
-392,-636,1.36078,2.60828,0,0,0,0,0,0,0,-1,832,1660,1.3608,-2.60833
-385,-636,1.32019,2.75403,0.0139785,-0.0419161,0.00482844,0.0143925,-0.0423301,0.0855404,0.0340472,0.0396594,839,1660,1.32017,-2.75399
-378,-636,1.50122,2.73889,0.0151655,-0.0381073,0.00219457,0.0152557,-0.0381975,0.0411021,0.0317946,0.0420813,846,1660,1.50121,-2.73894
-371,-636,2.04773,2.93408,0.0155856,-0.0346211,-0.000197301,0.0155864,-0.0346219,-0.00392969,0.0296741,0.0434979,853,1660,2.04776,-2.93413
-364,-636,2.77039,3.16174,0.0146517,-0.0300309,-0.00237991,0.0147781,-0.0301573,-0.0530625,0.0264451,0.044643,860,1660,2.77042,-3.16174
-357,-636,3.52173,3.40601,0.0122291,-0.0242802,-0.00390091,0.0126413,-0.0246924,-0.105264,0.0219257,0.0476813,867,1660,3.52173,-3.40597
-350,-636,2.21118,1.06409,0,0,0,0,0,0,0,-1,874,1660,2.2112,-1.06404
-343,-636,1.87518,1.44641,0.00716913,-0.0160409,-0.00571004,0.00849783,-0.0173696,-0.228626,0.0152245,0.0423528,881,1660,1.87516,-1.44644
-336,-636,1.61859,1.94861,0.00560167,-0.0125478,-0.00588251,0.0073415,-0.0142876,-0.287565,0.0127004,0.0320001,888,1660,1.61857,-1.9486
-329,-636,1.60602,1.95081,0.00416327,-0.00970917,-0.00582164,0.00628258,-0.0118285,-0.349128,0.0106186,0.0169752,895,1660,1.60602,-1.95078
-322,-636,1.60504,1.94885,0.00249728,-0.00747823,-0.00574822,0.00512002,-0.010101,-0.428056,0.00894332,0.0105347,902,1660,1.60503,-1.94891
-315,-636,1.59662,1.98901,0.00122965,-0.00558789,-0.00541434,0.00421891,-0.00857715,-0.504454,0.00752929,0.011656,909,1660,1.59661,-1.98896
-308,-636,1.6228,2.02783,0.000983027,-0.00461192,-0.00479546,0.00373733,-0.00736623,-0.521351,0.00652377,0.0113172,916,1660,1.6228,-2.02786
-301,-636,1.62384,2.0542,0.00106645,-0.00339884,-0.00382426,0.00326209,-0.00559448,-0.521183,0.00517211,0.0110202,923,1660,1.62381,-2.05425
-294,-636,1.58557,2.08215,0.0018018,-0.00350405,-0.00322292,0.00332323,-0.00502548,-0.441051,0.00485341,0.0141437,930,1660,1.58556,-2.08216
-287,-636,1.59174,2.11646,0.0020908,-0.00336538,-0.00274908,0.00323568,-0.00451026,-0.394615,0.00449226,0.0126062,937,1660,1.59176,-2.11649
-280,-636,1.61188,2.14624,0.00202733,-0.00280467,-0.00204562,0.00277702,-0.00355436,-0.351287,0.0036646,0.0116387,944,1660,1.61188,-2.14629
-273,-636,1.61835,2.14209,0.00182983,-0.00255546,-0.00114749,0.00211194,-0.00283757,-0.24107,0.00286782,0.0114924,951,1660,1.61832,-2.14203
-266,-636,1.61035,2.16443,0.00187214,-0.00260109,-0.000470993,0.0019212,-0.00265014,-0.103775,0.00265042,0.0122272,958,1660,1.61034,-2.16441
-259,-636,1.6015,2.21826,0.00181684,-0.00260364,-0.000102701,0.00181923,-0.00260602,-0.0232163,0.00256834,0.0133846,965,1660,1.60148,-2.21821
-252,-636,1.62079,2.2229,0.00199087,-0.0026794,2.13719e-05,0.00199097,-0.00267949,0.00457602,0.00270624,0.010563,972,1660,1.6208,-2.22291
-245,-636,1.63812,2.25989,0.00250786,-0.00232405,-5.22971e-05,0.00250843,-0.00232462,-0.0108216,0.00279103,0.00978365,979,1660,1.63812,-2.25987
-238,-636,1.6369,2.28662,0.00339855,-0.00213034,-4.74534e-05,0.00339896,-0.00213075,-0.00858196,0.00322044,0.0110078,986,1660,1.63691,-2.28665
-231,-636,1.61835,2.2948,0.00451119,-0.00294392,-1.03187e-05,0.00451121,-0.00294394,-0.00138411,0.00433582,0.0104735,993,1660,1.61835,-2.29477
-224,-636,1.6142,2.32959,0.00559141,-0.00384921,0.000595587,0.00562884,-0.00388663,0.0627561,0.00552437,0.00864563,1000,1660,1.61419,-2.32957
-217,-636,1.60803,2.36841,0.00639463,-0.00483212,0.00203423,0.00675185,-0.00518934,0.173835,0.0069139,0.00980125,1007,1660,1.60804,-2.36836
-210,-636,1.60522,2.35925,0.00740043,-0.00540599,0.00276627,0.00797241,-0.00597798,0.203898,0.00808165,0.013224,1014,1660,1.60522,-2.35921
-203,-636,1.60211,2.38586,0.00832683,-0.00597531,0.00393222,0.00933665,-0.00698513,0.251375,0.00945593,0.0160452,1021,1660,1.60211,-2.38584
-196,-636,1.59033,2.41565,0.00896833,-0.00674961,0.00534855,0.0106157,-0.00839698,0.298782,0.0110019,0.0172962,1028,1660,1.59037,-2.41569
-189,-636,1.60229,2.39209,0.00957498,-0.00654344,0.00691448,0.0121347,-0.00910312,0.354548,0.0123032,0.0206425,1035,1660,1.6023,-2.39211
-182,-636,1.7439,2.28015,0.0112366,-0.00503391,0.00712748,0.0139172,-0.00771454,0.359732,0.0126591,0.0364101,1042,1660,1.74395,-2.2802
-175,-636,1.84631,2.38562,0.0153272,-0.00477117,0.00712038,0.0175941,-0.00703808,0.308222,0.0146502,0.0413089,1049,1660,1.84631,-2.38563
-168,-636,1.7937,2.47864,0.0207717,-0.00317779,0.00578289,0.0220949,-0.00450103,0.224947,0.016437,0.0437987,1056,1660,1.79368,-2.47868
-161,-636,1.55225,2.73413,0,0,0,0,0,0,0,-1,1063,1660,1.5523,-2.73408
-154,-636,1.43152,3.35156,0,0,0,0,0,0,0,-1,1070,1660,1.43153,-3.35156
-147,-636,0.762817,1.43616,0,0,0,0,0,0,0,-1,1077,1660,0.762793,-1.4362
-140,-636,0.927124,2.271,0.0420047,-9.97876e-05,-0.0030599,0.0422259,-0.000321003,-0.0721687,0.0282582,0.049859,1084,1660,0.927065,-2.27104
-133,-636,1.19299,3.20898,0.0452371,-0.00152948,-0.00581704,0.0459498,-0.00224217,-0.12191,0.0314073,0.043536,1091,1660,1.19299,-3.20896
-126,-636,1.52441,4.11743,0,0,0,0,0,0,0,-1,1098,1660,1.52437,-4.11745
-119,-636,1.39502,2.74854,0,0,0,0,0,0,0,-1,1105,1660,1.39498,-2.74857
-112,-636,1.38049,3.29895,0,0,0,0,0,0,0,-1,1112,1660,1.38044,-3.29897
-105,-636,1.66199,3.50183,0,0,0,0,0,0,0,-1,1119,1660,1.66197,-3.50187
-98,-636,1.91077,3.61023,0,0,0,0,0,0,0,-1,1126,1660,1.91077,-3.61021
-91,-636,3.08484,3.99768,0.024968,-0.0185366,-0.0142864,0.02924,-0.0228086,-0.290562,0.0301266,0.0449494,1133,1660,3.08484,-3.99772
-84,-636,2.81189,3.71716,0.018947,-0.0203632,-0.015875,0.0245573,-0.0259734,-0.339703,0.0291777,0.0472222,1140,1660,2.81184,-3.71713
-77,-636,2.41382,3.42786,0,0,0,0,0,0,0,-1,1147,1660,2.41383,-3.42781
-70,-636,2.67297,4.88367,0,0,0,0,0,0,0,-1,1154,1660,2.67292,-4.88369
-63,-636,0.452881,1.28967,0,0,0,0,0,0,0,-1,1161,1660,0.452849,-1.28973
-56,-636,0.269653,0.763672,-0.00896572,-0.0164995,-0.0163279,0.00402413,-0.0294894,-0.67203,0.0211291,0.0427025,1168,1660,0.269618,-0.763638
-49,-636,0.0594482,0.103027,-0.0139763,-0.0120905,-0.0168145,0.00380747,-0.0298743,-0.813407,0.0212991,0.0440747,1175,1660,0.0594591,-0.103056
-42,-636,-0.281372,-0.289795,-0.0183512,-0.011339,-0.0176853,0.00318434,-0.0328745,-0.883253,0.0230512,0.0478045,1182,1660,-0.281347,0.289752
-35,-636,-0.349731,-0.626709,-0.0221422,-0.00997127,-0.0186123,0.00352513,-0.0356386,-0.9434,0.025017,0.0480911,1189,1660,-0.349764,0.626703
-28,-636,-0.34375,-1.01855,-0.026025,-0.0119182,-0.0201172,0.00234628,-0.0402895,-0.95401,0.0276749,0.0462973,1196,1660,-0.343781,1.01852
-21,-636,-0.23877,-1.3324,-0.032737,-0.0153859,-0.0223604,-7.70446e-05,-0.0480459,-0.970452,0.0320049,0.0464025,1203,1660,-0.238743,1.33244
-14,-636,3.07935,0.796631,0,0,0,0,0,0,0,-1,1210,1660,3.07935,-0.796629
-7,-636,2.13477,0.733398,0,0,0,0,0,0,0,-1,1217,1660,2.13481,-0.733405
0,-636,0.719482,0.976074,-0.00866555,-0.0200009,-0.0193217,0.00580254,-0.034469,-0.642734,0.0251378,0.0441499,1224,1660,0.719511,-0.976099
7,-636,0.0959473,0.62793,0.0128777,-0.020256,-0.0166766,0.0198176,-0.027196,-0.394349,0.0272545,0.0420217,1231,1660,0.0959596,-0.627932
14,-636,-0.564087,0.565308,0.0401867,-0.0214541,-0.0115632,0.0422845,-0.0235519,-0.179465,0.0385201,0.0396895,1238,1660,-0.564124,-0.565326
21,-636,-1.10071,0.589722,0.0707996,-0.0227712,-0.00651451,0.071251,-0.0232226,-0.0691765,0.0568453,0.0483013,1245,1660,-1.10071,-0.589694
28,-636,-1.67847,0.524048,0,0,0,0,0,0,0,-1,1252,1660,-1.67842,-0.524106
35,-636,-2.46887,-0.0687256,0,0,0,0,0,0,0,-1,1259,1660,-2.46888,0.0687252
42,-636,-2.69983,-0.465942,0,0,0,0,0,0,0,-1,1266,1660,-2.69981,0.465983
49,-636,-3.05334,-0.983398,0,0,0,0,0,0,0,-1,1273,1660,-3.05331,0.983432
56,-636,-3.46301,-1.52856,0,0,0,0,0,0,0,-1,1280,1660,-3.46303,1.52856
63,-636,4.84644,5.80298,0.210552,-0.0192319,0.00927812,0.210926,-0.0196059,0.0402901,0.147588,0.047211,1287,1660,4.84639,-5.80295
70,-636,4.89771,4.83459,0.206048,-0.0132677,0.00598594,0.206211,-0.013431,0.0272666,0.142163,0.0466681,1294,1660,4.8977,-4.83457
77,-636,5.18677,3.81848,0.188186,-0.00861117,0.00455675,0.188292,-0.00871662,0.023138,0.128532,0.0474155,1301,1660,5.18672,-3.81844
84,-636,5.56787,2.58337,0.165365,-0.00781607,0.0036752,0.165443,-0.00789402,0.021209,0.113019,0.0480664,1308,1660,5.56788,-2.58336
91,-636,5.81763,1.54211,0,0,0,0,0,0,0,-1,1315,1660,5.81768,-1.54213
98,-636,6.01672,0.469971,0,0,0,0,0,0,0,-1,1322,1660,6.01674,-0.469955
105,-636,6.2428,-0.577271,0,0,0,0,0,0,0,-1,1329,1660,6.24276,0.577267
112,-636,9.80847,-2.17798,0,0,0,0,0,0,0,-1,1336,1660,9.80848,2.17803
119,-636,7.19336,-0.739746,0.130206,0.0640839,-0.0500598,0.157137,0.0371532,-0.49356,0.0948315,0.0487145,1343,1660,7.19337,0.739721
126,-636,7.64783,-1.9165,0.131786,0.0665393,-0.0560601,0.164024,0.0343012,-0.521882,0.0998984,0.0448305,1350,1660,7.64777,1.91645
133,-636,-2.43298,13.9083,0,0,0,0,0,0,0,-1,1357,1660,-2.43294,-13.9083
140,-636,-1.22046,12.2585,0.13055,0.0636101,-0.0628495,0.168286,0.025874,-0.540728,0.104638,0.0465916,1364,1660,-1.22048,-12.2585
147,-636,0.130493,10.4656,0.12616,0.0577642,-0.0689641,0.16894,0.0149846,-0.555225,0.107979,0.0465529,1371,1660,0.130492,-10.4656
154,-636,1.34949,8.82129,0.117005,0.0475892,-0.073255,0.163358,0.00123584,-0.564166,0.108496,0.0435803,1378,1660,1.34951,-8.82128
161,-636,2.32019,7.34167,0,0,0,0,0,0,0,-1,1385,1660,2.32017,-7.34163
168,-636,3.22827,5.18042,0,0,0,0,0,0,0,-1,1392,1660,3.22827,-5.18048
175,-636,3.49084,4.10425,0.0871931,-0.00776154,-0.0666066,0.121511,-0.0420799,-0.475765,0.0980905,0.0476432,1399,1660,3.49081,-4.10427
182,-636,3.71875,3.05688,0.0778196,-0.0248641,-0.0559799,0.102436,-0.049481,-0.414294,0.0894682,0.0460077,1406,1660,3.71872,-3.05686
189,-636,4.06982,2.10364,0.0679132,-0.0376972,-0.0378883,0.0800997,-0.0498837,-0.311191,0.0757188,0.0442419,1413,1660,4.06982,-2.1037
196,-636,4.60706,1.16443,0,0,0,0,0,0,0,-1,1420,1660,4.60701,-1.16439
203,-636,5.35046,0.668945,0,0,0,0,0,0,0,-1,1427,1660,5.35046,-0.668967
210,-636,7.23389,2.90027,0,0,0,0,0,0,0,-1,1434,1660,7.23386,-2.90023
217,-636,8.07971,3.84998,0,0,0,0,0,0,0,-1,1441,1660,8.07968,-3.84993
224,-636,8.48242,4.23206,0,0,0,0,0,0,0,-1,1448,1660,8.48243,-4.232
231,-636,1.87402,1.65698,0,0,0,0,0,0,0,-1,1455,1660,1.87396,-1.65703
238,-636,3.42932,1.44006,0,0,0,0,0,0,0,-1,1462,1660,3.42926,-1.44003
245,-636,-0.293457,0.320923,0,0,0,0,0,0,0,-1,1469,1660,-0.293491,-0.320945
252,-636,-0.127075,0.739014,0.0538637,-0.00720746,0.0158699,0.0577414,-0.0110852,0.239649,0.042672,0.0419631,1476,1660,-0.127088,-0.739012
259,-636,0.199951,1.04358,0,0,0,0,0,0,0,-1,1483,1660,0.199914,-1.04357
266,-636,0.821655,1.72192,0.0323244,-0.00604729,0.00784207,0.0338653,-0.00758811,0.19401,0.0254856,0.0473695,1490,1660,0.821624,-1.72195
273,-636,1.70728,2.2229,0.0236188,-0.00463533,0.00349507,0.0240448,-0.00506125,0.121266,0.0179563,0.0498923,1497,1660,1.7073,-2.22294
280,-636,2.22644,3.3656,0,0,0,0,0,0,0,-1,1504,1660,2.22648,-3.36561
287,-636,2.24597,3.13525,0.00889885,-0.00420084,-0.00236812,0.0093138,-0.0046158,-0.173465,0.00819331,0.0492961,1511,1660,2.24595,-3.13531
294,-636,2.3407,2.89771,0.00418031,-0.00134281,-0.00150683,0.00456466,-0.00172716,-0.249746,0.0037537,0.0487423,1518,1660,2.34073,-2.89768
301,-636,2.59302,2.65295,0.000244268,0.00129777,-7.22995e-05,0.0013027,0.00023933,-1.50259,0.000800706,0.0456479,1525,1660,2.59306,-2.6529
308,-636,2.50122,2.43103,-0.00282741,0.00314952,0.000938984,0.00329356,-0.00297145,1.41858,0.0036187,0.048568,1532,1660,2.50127,-2.431
315,-636,2.07788,2.68689,0,0,0,0,0,0,0,-1,1539,1660,2.07785,-2.68684
322,-636,2.10278,2.56934,-0.00617879,0.00551383,0.00013804,0.00551546,-0.00618042,1.55899,0.00675625,0.0391165,1546,1660,2.10277,-2.56934
329,-636,2.11426,2.4104,-0.00688692,0.00625675,-0.000572925,0.00628167,-0.00691184,-1.52732,0.00762018,0.0269518,1553,1660,2.11424,-2.41042
336,-636,2.13232,2.35913,-0.00575805,0.00591051,-0.00111904,0.00601686,-0.0058644,-1.47604,0.00685984,0.0220278,1560,1660,2.13237,-2.35909
343,-636,2.12573,2.37036,-0.00424095,0.00535727,-0.00138939,0.00555434,-0.00443802,-1.42989,0.00578108,0.0186048,1567,1660,2.12579,-2.37033
350,-636,2.10095,2.30579,-0.00278564,0.00478462,-0.00175075,0.0051699,-0.00317092,-1.35418,0.00486146,0.0115336,1574,1660,2.10091,-2.30577
357,-636,2.1405,2.27747,-0.00156427,0.00426612,-0.00204785,0.00491352,-0.00221167,-1.2646,0.00421116,0.0103719,1581,1660,2.14047,-2.27744
364,-636,2.14429,2.26453,0.00019963,0.00399607,-0.00292337,0.00558343,-0.00138774,-1.07335,0.00426088,0.0106074,1588,1660,2.14434,-2.26454
371,-636,2.11548,2.25171,0.00107567,0.00314507,-0.00303383,0.00531579,-0.00109505,-0.94974,0.00395967,0.0091508,1595,1660,2.11548,-2.25174
378,-636,2.11682,2.21277,0.00165165,0.00218823,-0.00316944,0.00510072,-0.00126083,-0.827622,0.00388948,0.00920558,1602,1660,2.11681,-2.21272
385,-636,2.14294,2.1814,0.00242755,0.00144278,-0.00299175,0.00496716,-0.00109683,-0.703839,0.00373118,0.0140159,1609,1660,2.14297,-2.1814
392,-636,2.15198,2.16467,0.00280572,0.00113918,-0.00292426,0.00501311,-0.00106822,-0.646601,0.00374922,0.0154944,1616,1660,2.15198,-2.1647
399,-636,2.13879,2.13379,0.0031346,0.00110237,-0.00273086,0.00503226,-0.000795292,-0.607291,0.00364894,0.0117911,1623,1660,2.13877,-2.13377
406,-636,2.13538,2.10242,0.00337014,0.00136127,-0.00231894,0.00489283,-0.000161416,-0.581024,0.003317,0.0134732,1630,1660,2.13539,-2.10248
413,-636,2.14209,2.05969,0.00353048,0.00180339,-0.00187301,0.00472943,0.000604445,-0.569397,0.00297203,0.0207686,1637,1660,2.14205,-2.05968
420,-636,2.15051,2.01819,0.00351732,0.00217977,-0.00135813,0.0043624,0.00133469,-0.556615,0.00258109,0.0210461,1644,1660,2.15052,-2.01815
427,-636,2.11975,2.02661,0.00291827,0.00248006,-0.000751847,0.00348229,0.00191604,-0.643611,0.00201388,0.0126521,1651,1660,2.11975,-2.02661
434,-636,2.12427,2.01001,0.00202456,0.00326359,0.000279169,0.00332359,0.00196457,1.35911,0.00192946,0.0103176,1658,1660,2.12431,-2.00998
441,-636,2.14319,1.97607,0.0009121,0.00396725,0.00119282,0.00437779,0.000501553,1.23932,0.00276654,0.0111852,1665,1660,2.14322,-1.97613
448,-636,2.1615,1.95093,-0.000288822,0.00452868,0.0020945,0.00531195,-0.00107209,1.21293,0.0039475,0.0129521,1672,1660,2.16154,-1.95098
455,-636,2.13257,1.91602,-0.00158769,0.00511788,0.00289449,0.00619445,-0.00266427,1.21471,0.00524821,0.0131652,1679,1660,2.1326,-1.91602
462,-636,2.10083,1.87476,-0.00306793,0.00596223,0.0036507,0.00725348,-0.00435919,1.23083,0.00677364,0.0172801,1686,1660,2.10083,-1.87474
469,-636,2.13684,1.8175,-0.00484441,0.00693987,0.00447427,0.00844614,-0.00635067,1.24606,0.00857145,0.0258048,1693,1660,2.13683,-1.81746
476,-636,1.74854,1.78198,-0.00660702,0.00829773,0.00500513,0.0098225,-0.00813179,1.27509,0.0103812,0.0404104,1700,1660,1.74853,-1.78196
483,-636,1.51685,2.00745,-0.00840193,0.0103211,0.00533313,0.0117337,-0.00981447,1.31188,0.0124573,0.0472212,1707,1660,1.51681,-2.00744
490,-636,1.97107,1.91626,0,0,0,0,0,0,0,-1,1714,1660,1.97102,-1.91626
497,-636,1.46948,2.53894,0,0,0,0,0,0,0,-1,1721,1660,1.46953,-2.5389
504,-636,3.73792,1.70288,0,0,0,0,0,0,0,-1,1728,1660,3.73797,-1.70286
511,-636,3.99963,3.81494,0,0,0,0,0,0,0,-1,1735,1660,3.9996,-3.81494
518,-636,3.78894,3.46948,0,0,0,0,0,0,0,-1,1742,1660,3.78895,-3.46945
525,-636,0.00927734,0.0213623,0,0,0,0,0,0,0,-1,1749,1660,0.00923814,-0.0213105
532,-636,0,0,0,0,0,0,0,0,0,-1,1756,1660,0,0
539,-636,0,0,0,0,0,0,0,0,0,-1,1763,1660,0,0
546,-636,0,0,0,0,0,0,0,0,0,-1,1770,1660,0,0
553,-636,0,0,0,0,0,0,0,0,0,-1,1777,1660,0,0
560,-636,0,0,0,0,0,0,0,0,0,-1,1784,1660,0,0
567,-636,0,0,0,0,0,0,0,0,0,-1,1791,1660,0,0
574,-636,0,0,0,0,0,0,0,0,0,-1,1798,1660,0,0
581,-636,0,0,0,0,0,0,0,0,0,-1,1805,1660,0,0
588,-636,0,0,0,0,0,0,0,0,0,-1,1812,1660,0,0
595,-636,0,0,0,0,0,0,0,0,0,-1,1819,1660,0,0
602,-636,0,0,0,0,0,0,0,0,0,-1,1826,1660,0,0
609,-636,0,0,0,0,0,0,0,0,0,-1,1833,1660,0,0
616,-636,0,0,0,0,0,0,0,0,0,-1,1840,1660,0,0
623,-636,0,0,0,0,0,0,0,0,0,-1,1847,1660,0,0
630,-636,0,0,0,0,0,0,0,0,0,-1,1854,1660,0,0
637,-636,0,0,0,0,0,0,0,0,0,-1,1861,1660,0,0
644,-636,0,0,0,0,0,0,0,0,0,-1,1868,1660,0,0
651,-636,0,0,0,0,0,0,0,0,0,-1,1875,1660,0,0
658,-636,0,0,0,0,0,0,0,0,0,-1,1882,1660,0,0
665,-636,0,0,0,0,0,0,0,0,0,-1,1889,1660,0,0
672,-636,0,0,0,0,0,0,0,0,0,-1,1896,1660,0,0
679,-636,0,0,0,0,0,0,0,0,0,-1,1903,1660,0,0
686,-636,0,0,0,0,0,0,0,0,0,-1,1910,1660,0,0
693,-636,0,0,0,0,0,0,0,0,0,-1,1917,1660,0,0
700,-636,0,0,0,0,0,0,0,0,0,-1,1924,1660,0,0
707,-636,0,0,0,0,0,0,0,0,0,-1,1931,1660,0,0
714,-636,0,0,0,0,0,0,0,0,0,-1,1938,1660,0,0
721,-636,0,0,0,0,0,0,0,0,0,-1,1945,1660,0,0
728,-636,0,0,0,0,0,0,0,0,0,-1,1952,1660,0,0
735,-636,0,0,0,0,0,0,0,0,0,-1,1959,1660,0,0
742,-636,0,0,0,0,0,0,0,0,0,-1,1966,1660,0,0
749,-636,0,0,0,0,0,0,0,0,0,-1,1973,1660,0,0
756,-636,0,0,0,0,0,0,0,0,0,-1,1980,1660,0,0
763,-636,0,0,0,0,0,0,0,0,0,-1,1987,1660,0,0
770,-636,0,0,0,0,0,0,0,0,0,-1,1994,1660,0,0
777,-636,0,0,0,0,0,0,0,0,0,-1,2001,1660,0,0
784,-636,0,0,0,0,0,0,0,0,0,-1,2008,1660,0,0
791,-636,0,0,0,0,0,0,0,0,0,-1,2015,1660,0,0
798,-636,0,0,0,0,0,0,0,0,0,-1,2022,1660,0,0
805,-636,0,0,0,0,0,0,0,0,0,-1,2029,1660,0,0
812,-636,0,0,0,0,0,0,0,0,0,-1,2036,1660,0,0
-700,-643,0,0,0,0,0,0,0,0,0,-1,524,1667,0,0
-693,-643,0,0,0,0,0,0,0,0,0,-1,531,1667,0,0
-686,-643,0,0,0,0,0,0,0,0,0,-1,538,1667,0,0
-679,-643,0,0,0,0,0,0,0,0,0,-1,545,1667,0,0
-672,-643,0,0,0,0,0,0,0,0,0,-1,552,1667,0,0
-665,-643,0,0,0,0,0,0,0,0,0,-1,559,1667,0,0
-658,-643,0,0,0,0,0,0,0,0,0,-1,566,1667,0,0
-651,-643,0,0,0,0,0,0,0,0,0,-1,573,1667,0,0
-644,-643,0,0,0,0,0,0,0,0,0,-1,580,1667,0,0
-637,-643,0,0,0,0,0,0,0,0,0,-1,587,1667,0,0
-630,-643,0,0,0,0,0,0,0,0,0,-1,594,1667,0,0
-623,-643,0,0,0,0,0,0,0,0,0,-1,601,1667,0,0
-616,-643,0,0,0,0,0,0,0,0,0,-1,608,1667,0,0
-609,-643,0,0,0,0,0,0,0,0,0,-1,615,1667,0,0
-602,-643,0,0,0,0,0,0,0,0,0,-1,622,1667,0,0
-595,-643,0,0,0,0,0,0,0,0,0,-1,629,1667,0,0
-588,-643,0,0,0,0,0,0,0,0,0,-1,636,1667,0,0
-581,-643,0,0,0,0,0,0,0,0,0,-1,643,1667,0,0
-574,-643,0,0,0,0,0,0,0,0,0,-1,650,1667,0,0
-567,-643,0,0,0,0,0,0,0,0,0,-1,657,1667,0,0
-560,-643,0,0,0,0,0,0,0,0,0,-1,664,1667,0,0
-553,-643,0,0,0,0,0,0,0,0,0,-1,671,1667,0,0
-546,-643,0,0,0,0,0,0,0,0,0,-1,678,1667,0,0
-539,-643,0,0,0,0,0,0,0,0,0,-1,685,1667,0,0
-532,-643,0,0,0,0,0,0,0,0,0,-1,692,1667,0,0
-525,-643,0,0,0,0,0,0,0,0,0,-1,699,1667,0,0
-518,-643,0,0,0,0,0,0,0,0,0,-1,706,1667,0,0
-511,-643,0,0,0,0,0,0,0,0,0,-1,713,1667,0,0
-504,-643,0,0,0,0,0,0,0,0,0,-1,720,1667,0,0
-497,-643,0,0,0,0,0,0,0,0,0,-1,727,1667,0,0
-490,-643,0,0,0,0,0,0,0,0,0,-1,734,1667,0,0
-483,-643,0,0,0,0,0,0,0,0,0,-1,741,1667,0,0
-476,-643,0,0,0,0,0,0,0,0,0,-1,748,1667,0,0
-469,-643,0,0,0,0,0,0,0,0,0,-1,755,1667,0,0
-462,-643,0,0,0,0,0,0,0,0,0,-1,762,1667,0,0
-455,-643,0,0,0,0,0,0,0,0,0,-1,769,1667,0,0
-448,-643,0,0,0,0,0,0,0,0,0,-1,776,1667,0,0
-441,-643,0,0,0,0,0,0,0,0,0,-1,783,1667,0,0
-434,-643,0,0,0,0,0,0,0,0,0,-1,790,1667,0,0
-427,-643,0,0,0,0,0,0,0,0,0,-1,797,1667,0,0
-420,-643,0,0,0,0,0,0,0,0,0,-1,804,1667,0,0
-413,-643,0,0,0,0,0,0,0,0,0,-1,811,1667,0,0
-406,-643,0,0,0,0,0,0,0,0,0,-1,818,1667,0,0
-399,-643,1.52545,3.09766,0,0,0,0,0,0,0,-1,825,1667,1.52543,-3.09768
-392,-643,1.5835,3.06848,0.00786209,-0.0476142,0.0080335,0.00900199,-0.0487541,0.140953,0.0358818,0.0417978,832,1667,1.58348,-3.06844
-385,-643,1.45709,3.27881,0.0111956,-0.0447631,0.00569957,0.0117702,-0.0453377,0.100478,0.0348181,0.0444565,839,1667,1.45709,-3.27879
-378,-643,1.45282,3.43164,0.0126622,-0.0402433,0.00277992,0.0128079,-0.040389,0.0523528,0.0320597,0.0472713,846,1667,1.45284,-3.43164
-371,-643,2.00958,3.55493,0.0130635,-0.0361425,-2.11186e-05,0.0130635,-0.0361426,-0.000429187,0.0294323,0.0474267,853,1667,2.00959,-3.5549
-364,-643,2.85236,3.9198,0.0121775,-0.0316564,-0.00233549,0.0123016,-0.0317805,-0.0530801,0.026266,0.0445808,860,1667,2.85235,-3.91979
-357,-643,3.75256,4.34473,0.00998885,-0.0264521,-0.00409515,0.0104434,-0.0269066,-0.110541,0.0222514,0.0496958,867,1667,3.75254,-4.3447
-350,-643,4.70905,4.59814,0,0,0,0,0,0,0,-1,874,1667,4.70903,-4.59811
-343,-643,2.01007,1.10571,0,0,0,0,0,0,0,-1,881,1667,2.01004,-1.10576
-336,-643,1.71051,1.92712,0,0,0,0,0,0,0,-1,888,1667,1.71049,-1.92717
-329,-643,1.66296,1.96155,0.00298012,-0.0135073,-0.00728882,0.00574031,-0.0162675,-0.361999,0.0131818,0.0372294,895,1667,1.66299,-1.9616
-322,-643,1.70319,1.99475,0.00157949,-0.0114783,-0.00738705,0.00490935,-0.0148081,-0.423494,0.0118525,0.0236828,902,1667,1.7032,-1.99476
-315,-643,1.65973,2.01782,0.00060925,-0.00973869,-0.0070968,0.00421791,-0.0133473,-0.470417,0.010588,0.0164605,909,1667,1.65974,-2.01778
-308,-643,1.64185,2.03479,0.000719206,-0.00890031,-0.00645209,0.00395701,-0.0121381,-0.465105,0.0096844,0.0127858,916,1667,1.64182,-2.03483
-301,-643,1.63818,2.04407,0.0010796,-0.00761651,-0.00534397,0.00362093,-0.0101578,-0.443898,0.0082482,0.0134926,923,1667,1.63818,-2.04403
-294,-643,1.62854,2.05591,0.00205212,-0.00748906,-0.0045415,0.00386816,-0.0093051,-0.380401,0.00781853,0.012214,930,1667,1.62853,-2.05596
-287,-643,1.63342,2.09692,0.00250033,-0.00691749,-0.00386212,0.00388156,-0.00829872,-0.34346,0.00718477,0.010847,937,1667,1.6334,-2.09692
-280,-643,1.64514,2.13574,0.00251963,-0.00583129,-0.0028581,0.00340413,-0.00671579,-0.300123,0.00594611,0.0137529,944,1667,1.64517,-2.13568
-273,-643,1.64502,2.14856,0.00227535,-0.00516552,-0.00154388,0.00258296,-0.00547314,-0.196674,0.00474992,0.0119864,951,1667,1.64504,-2.14859
-266,-643,1.63025,2.17212,0.00221907,-0.00473672,-0.000509979,0.00225626,-0.00477392,-0.0727983,0.00414473,0.0110991,958,1667,1.63026,-2.17218
-259,-643,1.6319,2.20532,0.00207716,-0.00416174,1.41087e-05,0.00207719,-0.00416178,0.00226138,0.00366848,0.0104438,965,1667,1.6319,-2.20527
-252,-643,1.65698,2.21619,0.00211142,-0.0037199,0.000283972,0.00212522,-0.0037337,0.0485446,0.00342488,0.012145,972,1667,1.657,-2.21614
-245,-643,1.67291,2.25647,0.00235418,-0.00311857,0.000478998,0.00239579,-0.00316018,0.0866461,0.00321784,0.011878,979,1667,1.67292,-2.25653
-238,-643,1.68817,2.28894,0.00287922,-0.00277481,0.000549963,0.00293222,-0.00282781,0.0960693,0.00332574,0.014592,986,1667,1.68819,-2.28896
-231,-643,1.6543,2.30884,0.00363669,-0.00322812,0.000630628,0.00369415,-0.00328557,0.0908506,0.00403204,0.0107689,993,1667,1.65432,-2.30883
-224,-643,1.63873,2.32983,0.00436596,-0.00377758,0.00115129,0.0045256,-0.00393722,0.137777,0.00488994,0.0089924,1000,1667,1.63873,-2.32984
-217,-643,1.6344,2.33569,0.00483634,-0.0043691,0.00220523,0.00533735,-0.00487011,0.2234,0.00589534,0.00815365,1007,1667,1.63439,-2.33573
-210,-643,1.62976,2.35852,0.00544474,-0.00469053,0.00270135,0.00611977,-0.00536557,0.244872,0.00663583,0.0109651,1014,1667,1.62979,-2.35856
-203,-643,1.63275,2.39746,0.00596183,-0.00500861,0.00351449,0.00699115,-0.00603793,0.284911,0.00752905,0.0125275,1021,1667,1.63273,-2.39752
-196,-643,1.62769,2.4126,0.00626731,-0.00555111,0.00449178,0.00778069,-0.00706448,0.324977,0.00857419,0.0110559,1028,1667,1.62764,-2.41262
-189,-643,1.62402,2.41382,0.0066386,-0.00512525,0.00557569,0.00886132,-0.00734798,0.379339,0.00937203,0.0105857,1035,1667,1.62408,-2.41383
-182,-643,1.6488,2.41321,0.00792161,-0.00357882,0.00561599,0.0102091,-0.00586629,0.386795,0.00939333,0.0168295,1042,1667,1.64882,-2.41324
-175,-643,1.75232,2.37036,0.0110589,-0.00299855,0.0055525,0.0129875,-0.00492713,0.334298,0.0106863,0.0290329,1049,1667,1.75227,-2.37037
-168,-643,1.70984,2.4624,0.015139,-0.00122873,0.00444797,0.0162696,-0.00235938,0.248922,0.0117123,0.0371597,1056,1667,1.70982,-2.46237
-161,-643,1.5791,2.64063,0.0188167,0.000688136,0.00342515,0.0194423,6.25839e-05,0.180644,0.0129407,0.0411664,1063,1667,1.57914,-2.64066
-154,-643,1.72192,2.91797,0.0236887,0.00184414,0.001859,0.0238458,0.00168707,0.0842935,0.0153657,0.0431144,1070,1667,1.72189,-2.91791
-147,-643,1.80042,2.4585,0,0,0,0,0,0,0,-1,1077,1667,1.80035,-2.45852
-140,-643,1.34937,2.87256,0,0,0,0,0,0,0,-1,1084,1667,1.34937,-2.87256
-133,-643,1.51477,3.03601,0,0,0,0,0,0,0,-1,1091,1667,1.51482,-3.03596
-126,-643,1.6969,3.12769,0,0,0,0,0,0,0,-1,1098,1667,1.69685,-3.12771
-119,-643,1.68933,3.14648,0,0,0,0,0,0,0,-1,1105,1667,1.68936,-3.14648
-112,-643,1.55029,3.34644,0.0352362,0.000538438,-0.00863014,0.0372642,-0.00148955,-0.230802,0.0253539,0.0438708,1112,1667,1.55029,-3.34646
-105,-643,1.67773,3.51929,0,0,0,0,0,0,0,-1,1119,1667,1.67773,-3.51934
-98,-643,1.98535,3.3634,0.0226323,-0.00609397,-0.00889155,0.0251617,-0.00862342,-0.277156,0.0202699,0.0453235,1126,1667,1.98532,-3.36336
-91,-643,2.30737,3.40906,0.0156301,-0.00844815,-0.00938758,0.0188575,-0.0116756,-0.331137,0.0177901,0.0466969,1133,1667,2.30731,-3.40904
-84,-643,2.40369,3.3949,0.0105174,-0.0109648,-0.011187,0.015285,-0.0157324,-0.402866,0.0179085,0.0465813,1140,1667,2.40366,-3.39484
-77,-643,2.30981,3.44629,0,0,0,0,0,0,0,-1,1147,1667,2.30978,-3.44633
-70,-643,2.42773,3.4303,0,0,0,0,0,0,0,-1,1154,1667,2.42768,-3.43026
-63,-643,0.446655,0.913574,0,0,0,0,0,0,0,-1,1161,1667,0.446704,-0.9136
-56,-643,0.382324,0.588501,-0.0107362,-0.0142946,-0.0147709,0.00236224,-0.0273931,-0.72546,0.0190982,0.0421858,1168,1667,0.382357,-0.5885
-49,-643,0.152344,0.336548,-0.0143184,-0.0135957,-0.0160756,0.00212262,-0.0300368,-0.796635,0.0207682,0.0439745,1175,1667,0.152309,-0.336502
-42,-643,-0.238403,0.020752,-0.0175788,-0.0159611,-0.0177181,0.000966631,-0.0345065,-0.808207,0.0233332,0.0474264,1182,1667,-0.23836,-0.020773
-35,-643,-0.290283,-0.419556,-0.0202863,-0.0174352,-0.0193237,0.000515418,-0.038237,-0.822218,0.0256648,0.0490336,1189,1667,-0.290331,0.419556
-28,-643,-0.261597,-0.873657,-0.0224775,-0.0195683,-0.0211901,0.00021711,-0.0422628,-0.819667,0.0282479,0.0452171,1196,1667,-0.261544,0.873662
-21,-643,4.14453,0.67041,0,0,0,0,0,0,0,-1,1203,1667,4.14458,-0.670363
-14,-643,3.23706,0.715576,-0.0326411,-0.0234474,-0.0247459,-0.00287502,-0.0532135,-0.877232,0.0345572,0.0495981,1210,1667,3.23705,-0.715563
-7,-643,2.28687,0.70459,-0.0359765,-0.0236996,-0.0267399,-0.00240266,-0.0572734,-0.898224,0.0374071,0.0483801,1217,1667,2.28682,-0.704532
0,-643,1.24658,0.845825,-0.0114299,-0.0223249,-0.0226018,0.00637163,-0.0401264,-0.667143,0.0291082,0.0434424,1224,1667,1.24652,-0.845799
7,-643,0.353027,1.10107,0.00202484,-0.0198703,-0.0213943,0.0151099,-0.0329553,-0.548915,0.0283809,0.0390088,1231,1667,0.352971,-1.10103
14,-643,-0.275146,1.13867,0.0213755,-0.0174413,-0.0178997,0.0283695,-0.0244353,-0.372491,0.0305151,0.038569,1238,1667,-0.275097,-1.13865
21,-643,-0.862549,1.07117,0.0448706,-0.0147726,-0.0141111,0.0480407,-0.0179427,-0.220982,0.0393944,0.0444086,1245,1667,-0.862598,-1.07115
28,-643,-1.44507,0.975586,0.0696794,-0.0124733,-0.0106384,0.0710347,-0.0138286,-0.126712,0.0525757,0.0463707,1252,1667,-1.44502,-0.975637
35,-643,-1.97339,0.573975,0.0940634,-0.00987146,-0.00753572,0.094607,-0.010415,-0.0720024,0.0668141,0.0437157,1259,1667,-1.97333,-0.574033
42,-643,-2.31128,0.06604,0.118943,-0.004588,-0.00429197,0.119092,-0.00473693,-0.0346882,0.0810201,0.0470126,1266,1667,-2.31123,-0.066037
49,-643,-2.67566,-0.443726,0,0,0,0,0,0,0,-1,1273,1667,-2.67569,0.443745
56,-643,-3.07898,-0.935547,0,0,0,0,0,0,0,-1,1280,1667,-3.07896,0.935536
63,-643,3.75244,5.95825,0.162699,-0.00234036,0.00196377,0.162723,-0.00236373,0.0118965,0.109278,0.0477628,1287,1667,3.75244,-5.9583
70,-643,4.32654,5.04358,0.160823,0.000418197,0.00129715,0.160834,0.000407711,0.008086,0.107087,0.0454116,1294,1667,4.32654,-5.04356
77,-643,4.62659,3.97498,0.149268,0.00420656,0.00439276,0.149401,0.00407365,0.0302451,0.0982709,0.0435062,1301,1667,4.62663,-3.97497
84,-643,5.06897,2.58044,0.134207,0.00316646,0.00664094,0.134542,0.00283076,0.0505061,0.0887664,0.0458768,1308,1667,5.06895,-2.58049
91,-643,5.47205,1.7168,0,0,0,0,0,0,0,-1,1315,1667,5.47207,-1.71684
98,-643,5.51868,0.505493,0.116138,0.0234401,-0.00348602,0.116269,0.0233092,-0.0375356,0.0710294,0.048136,1322,1667,5.5187,-0.505536
105,-643,7.82202,-0.497192,0.0978051,0.0348436,-0.0154081,0.101374,0.0312751,-0.227584,0.0599417,0.0476115,1329,1667,7.82206,0.497169
112,-643,8.34167,-1.66003,0.10276,0.0484723,-0.0201724,0.109435,0.0417974,-0.319555,0.063767,0.0494099,1336,1667,8.34165,1.66007
119,-643,8.98547,-2.62793,0.10931,0.0630271,-0.0272954,0.121954,0.0503836,-0.433785,0.0707633,0.047181,1343,1667,8.98542,2.62789
126,-643,7.24121,-2.13586,0.109227,0.0673496,-0.0338463,0.128088,0.0484888,-0.508391,0.0746752,0.0460904,1350,1667,7.24127,2.13581
133,-643,-0.423218,11.719,0,0,0,0,0,0,0,-1,1357,1667,-0.423206,-11.719
140,-643,0.251953,10.5879,0.10694,0.0655228,-0.0446242,0.135427,0.0370362,-0.568153,0.0808191,0.0479325,1364,1667,0.251987,-10.5879
147,-643,0.916626,9.41309,0.103483,0.0612728,-0.0519006,0.138406,0.0263503,-0.592287,0.0848618,0.0446009,1371,1667,0.916641,-9.41312
154,-643,1.42725,8.10706,0.0959846,0.0536695,-0.0576544,0.136241,0.0134131,-0.609541,0.0867028,0.0428478,1378,1667,1.42727,-8.10702
161,-643,2.25256,6.69946,0,0,0,0,0,0,0,-1,1385,1667,2.25252,-6.69949
168,-643,2.86401,5.42273,0,0,0,0,0,0,0,-1,1392,1667,2.86401,-5.4227
175,-643,3.32349,4.30859,0.0743587,0.00965363,-0.0578449,0.108284,-0.0242714,-0.530421,0.0814935,0.0489626,1399,1667,3.32349,-4.30863
182,-643,3.64734,3.51465,0.0679551,-0.0063127,-0.0523515,0.0950054,-0.033363,-0.476922,0.0769091,0.0452326,1406,1667,3.64733,-3.51463
189,-643,4.00659,2.63623,0.0593854,-0.0175157,-0.0367787,0.0741431,-0.0322734,-0.381589,0.0630049,0.0434683,1413,1667,4.00658,-2.63624
196,-643,4.42017,1.88464,0,0,0,0,0,0,0,-1,1420,1667,4.42016,-1.88468
203,-643,4.86914,2.23523,0,0,0,0,0,0,0,-1,1427,1667,4.86919,-2.23522
210,-643,5.68469,2.82617,0,0,0,0,0,0,0,-1,1434,1667,5.68471,-2.82617
217,-643,6.41541,3.2572,0.0500842,-0.0238837,0.00313122,0.0502165,-0.024016,0.0422314,0.043739,0.0451971,1441,1667,6.41541,-3.25717
224,-643,7.1897,3.68823,0.0546877,-0.0219116,0.00645738,0.0552282,-0.0224522,0.0835153,0.0461604,0.0494684,1448,1667,7.18965,-3.68828
231,-643,7.77295,3.62708,0,0,0,0,0,0,0,-1,1455,1667,7.77295,-3.62705
238,-643,0.778076,0.378296,0,0,0,0,0,0,0,-1,1462,1667,0.778075,-0.378352
245,-643,1.07043,0.567627,0.0576041,-0.00504953,0.0223625,0.0647669,-0.0122123,0.309978,0.0477719,0.0415747,1469,1667,1.07041,-0.567671
252,-643,1.13647,1.07019,0.0515011,-0.00349075,0.0186084,0.057206,-0.00919569,0.297482,0.0415432,0.0405503,1476,1667,1.1365,-1.07019
259,-643,1.13342,1.82471,0,0,0,0,0,0,0,-1,1483,1667,1.13343,-1.82465
266,-643,1.18713,2.28357,0,0,0,0,0,0,0,-1,1490,1667,1.18718,-2.28363
273,-643,1.7384,2.53467,0.026519,-0.00314463,0.00637792,0.0278322,-0.0044578,0.203056,0.0202053,0.0460259,1497,1667,1.73837,-2.53467
280,-643,2.27466,2.80286,0.0186438,-0.00529066,0.00183458,0.0187836,-0.00543046,0.0760579,0.0146715,0.0422211,1504,1667,2.27462,-2.80288
287,-643,2.19373,2.91064,0.0126489,-0.00390648,0.000277146,0.0126535,-0.00391112,0.0167343,0.00999775,0.0424211,1511,1667,2.19368,-2.9107
294,-643,2.29382,2.69482,0.0081005,-0.00174983,0.000703769,0.00815053,-0.00179986,0.0709658,0.00612247,0.0419033,1518,1667,2.29388,-2.69484
301,-643,2.28186,2.61316,0.0041451,0.000290981,0.00181074,0.00486234,-0.000426265,0.377145,0.00339259,0.0356803,1525,1667,2.28181,-2.6131
308,-643,2.06714,2.41443,0.000956792,0.00166975,0.00253834,0.00387652,-0.00124998,0.85516,0.00308656,0.0319575,1532,1667,2.0671,-2.41449
315,-643,2.04724,2.40967,-0.00119679,0.00229014,0.00207461,0.00325659,-0.00216324,1.13484,0.00315029,0.0243644,1539,1667,2.04724,-2.40964
322,-643,2.08899,2.38635,-0.00318454,0.00328429,0.00142954,0.00358611,-0.00348637,1.36271,0.00408344,0.0144827,1546,1667,2.08904,-2.3864
329,-643,2.09204,2.34265,-0.00438572,0.00386101,0.000674898,0.00391588,-0.00444059,1.48968,0.00482778,0.0114203,1553,1667,2.09208,-2.34266
336,-643,2.08386,2.35486,-0.00389085,0.00355763,0.000100706,0.00355899,-0.00389221,1.55728,0.00430339,0.011355,1560,1667,2.08381,-2.35488
343,-643,2.09082,2.35962,-0.00303914,0.00312742,-0.000307684,0.00314273,-0.00305445,-1.52107,0.00357806,0.0138254,1567,1667,2.09088,-2.35964
350,-643,2.09937,2.31897,-0.00216616,0.00279705,-0.000776374,0.00291566,-0.00228477,-1.41919,0.00300983,0.0129328,1574,1667,2.09934,-2.31897
357,-643,2.09851,2.28674,-0.00138408,0.00257946,-0.00117222,0.00290019,-0.00170481,-1.30372,0.00268839,0.010893,1581,1667,2.0985,-2.28676
364,-643,2.1001,2.25708,2.52218e-05,0.0026626,-0.00211463,0.00383602,-0.00114819,-1.0642,0.00301389,0.00927613,1588,1667,2.10012,-2.2571
371,-643,2.09106,2.23853,0.000702897,0.00226655,-0.00238786,0.00399732,-0.00102786,-0.943607,0.00306549,0.00786574,1595,1667,2.09102,-2.23846
378,-643,2.0957,2.21729,0.00132874,0.00179722,-0.00273867,0.00431165,-0.00118569,-0.828059,0.00334056,0.0093371,1602,1667,2.09566,-2.21726
385,-643,2.11426,2.19739,0.00231296,0.00165909,-0.00263428,0.00464052,-0.000668473,-0.72366,0.00333888,0.0144822,1609,1667,2.11427,-2.19738
392,-643,2.10168,2.16113,0.0027758,0.00184225,-0.00276344,0.00511161,-0.000493556,-0.701732,0.00358361,0.016187,1616,1667,2.10169,-2.16118
399,-643,2.09778,2.1228,0.00319506,0.00223069,-0.00267512,0.00543111,-5.35534e-06,-0.696232,0.00362252,0.0144289,1623,1667,2.09779,-2.12279
406,-643,2.10522,2.10535,0.00363232,0.00285143,-0.00231972,0.00559423,0.000889523,-0.702022,0.00347118,0.0127782,1630,1667,2.10524,-2.10533
413,-643,2.1106,2.07324,0.00406746,0.00353256,-0.00182374,0.00564326,0.00195677,-0.712593,0.00330876,0.0173131,1637,1667,2.11062,-2.07322
420,-643,2.09485,2.04944,0.00429823,0.00414118,-0.00119983,0.0054221,0.00301731,-0.752721,0.0031371,0.0165388,1644,1667,2.09482,-2.04944
427,-643,2.09045,2.04517,0.00388861,0.00461759,-0.000458834,0.00483909,0.00366711,-1.12105,0.00291502,0.0137221,1651,1667,2.09042,-2.04522
434,-643,2.11084,2.03003,0.00301803,0.00563764,0.00077657,0.00585055,0.00280512,1.30321,0.00337876,0.013982,1658,1667,2.11081,-2.03008
441,-643,2.13831,1.98096,0.0018352,0.00650008,0.0019468,0.00720578,0.0011295,1.22303,0.00447512,0.0143029,1665,1667,2.13826,-1.98098
448,-643,2.13501,1.92578,0.000544623,0.00727779,0.00322414,0.00857264,-0.000750229,1.1889,0.00598088,0.0175494,1672,1667,2.13501,-1.92575
455,-643,2.04565,1.88696,-0.00100811,0.00808538,0.00440213,0.00986728,-0.00279,1.18618,0.00767903,0.0238226,1679,1667,2.04569,-1.88692
462,-643,1.93518,1.84229,-0.00307199,0.00918026,0.00551243,0.0112953,-0.005187,1.20444,0.00973143,0.0346444,1686,1667,1.93523,-1.84223
469,-643,1.93628,1.828,-0.00559915,0.0104675,0.00675238,0.0129284,-0.00806005,1.22131,0.0122259,0.0403238,1693,1667,1.93623,-1.82805
476,-643,1.72266,2.00732,-0.00813564,0.0122472,0.00761105,0.0147756,-0.010664,1.25007,0.0147513,0.0448297,1700,1667,1.72269,-2.00727
483,-643,0.997925,2.04517,-0.0111093,0.0148479,0.00824846,0.0172472,-0.0135086,1.28772,0.0178006,0.0465179,1707,1667,0.997972,-2.04514
490,-643,1.12012,2.20605,0,0,0,0,0,0,0,-1,1714,1667,1.12011,-2.20608
497,-643,1.15479,2.3689,0,0,0,0,0,0,0,-1,1721,1667,1.15477,-2.36885
504,-643,1.08167,2.56628,0,0,0,0,0,0,0,-1,1728,1667,1.08162,-2.56626
511,-643,1.09351,2.67737,0,0,0,0,0,0,0,-1,1735,1667,1.09346,-2.67742
518,-643,3.57068,4.20605,0,0,0,0,0,0,0,-1,1742,1667,3.57071,-4.20609
525,-643,0,0,0,0,0,0,0,0,0,-1,1749,1667,0,0
532,-643,0,0,0,0,0,0,0,0,0,-1,1756,1667,0,0
539,-643,0,0,0,0,0,0,0,0,0,-1,1763,1667,0,0
546,-643,0,0,0,0,0,0,0,0,0,-1,1770,1667,0,0
553,-643,0,0,0,0,0,0,0,0,0,-1,1777,1667,0,0
560,-643,0,0,0,0,0,0,0,0,0,-1,1784,1667,0,0
567,-643,0,0,0,0,0,0,0,0,0,-1,1791,1667,0,0
574,-643,0,0,0,0,0,0,0,0,0,-1,1798,1667,0,0
581,-643,0,0,0,0,0,0,0,0,0,-1,1805,1667,0,0
588,-643,0,0,0,0,0,0,0,0,0,-1,1812,1667,0,0
595,-643,0,0,0,0,0,0,0,0,0,-1,1819,1667,0,0
602,-643,0,0,0,0,0,0,0,0,0,-1,1826,1667,0,0
609,-643,0,0,0,0,0,0,0,0,0,-1,1833,1667,0,0
616,-643,0,0,0,0,0,0,0,0,0,-1,1840,1667,0,0
623,-643,0,0,0,0,0,0,0,0,0,-1,1847,1667,0,0
630,-643,0,0,0,0,0,0,0,0,0,-1,1854,1667,0,0
637,-643,0,0,0,0,0,0,0,0,0,-1,1861,1667,0,0
644,-643,0,0,0,0,0,0,0,0,0,-1,1868,1667,0,0
651,-643,0,0,0,0,0,0,0,0,0,-1,1875,1667,0,0
658,-643,0,0,0,0,0,0,0,0,0,-1,1882,1667,0,0
665,-643,0,0,0,0,0,0,0,0,0,-1,1889,1667,0,0
672,-643,0,0,0,0,0,0,0,0,0,-1,1896,1667,0,0
679,-643,0,0,0,0,0,0,0,0,0,-1,1903,1667,0,0
686,-643,0,0,0,0,0,0,0,0,0,-1,1910,1667,0,0
693,-643,0,0,0,0,0,0,0,0,0,-1,1917,1667,0,0
700,-643,0,0,0,0,0,0,0,0,0,-1,1924,1667,0,0
707,-643,0,0,0,0,0,0,0,0,0,-1,1931,1667,0,0
714,-643,0,0,0,0,0,0,0,0,0,-1,1938,1667,0,0
721,-643,0,0,0,0,0,0,0,0,0,-1,1945,1667,0,0
728,-643,0,0,0,0,0,0,0,0,0,-1,1952,1667,0,0
735,-643,0,0,0,0,0,0,0,0,0,-1,1959,1667,0,0
742,-643,0,0,0,0,0,0,0,0,0,-1,1966,1667,0,0
749,-643,0,0,0,0,0,0,0,0,0,-1,1973,1667,0,0
756,-643,0,0,0,0,0,0,0,0,0,-1,1980,1667,0,0
763,-643,0,0,0,0,0,0,0,0,0,-1,1987,1667,0,0
770,-643,0,0,0,0,0,0,0,0,0,-1,1994,1667,0,0
777,-643,0,0,0,0,0,0,0,0,0,-1,2001,1667,0,0
784,-643,0,0,0,0,0,0,0,0,0,-1,2008,1667,0,0
791,-643,0,0,0,0,0,0,0,0,0,-1,2015,1667,0,0
798,-643,0,0,0,0,0,0,0,0,0,-1,2022,1667,0,0
805,-643,0,0,0,0,0,0,0,0,0,-1,2029,1667,0,0
812,-643,0,0,0,0,0,0,0,0,0,-1,2036,1667,0,0
-700,-650,0,0,0,0,0,0,0,0,0,-1,524,1674,0,0
-693,-650,0,0,0,0,0,0,0,0,0,-1,531,1674,0,0
-686,-650,0,0,0,0,0,0,0,0,0,-1,538,1674,0,0
-679,-650,0,0,0,0,0,0,0,0,0,-1,545,1674,0,0
-672,-650,0,0,0,0,0,0,0,0,0,-1,552,1674,0,0
-665,-650,0,0,0,0,0,0,0,0,0,-1,559,1674,0,0
-658,-650,0,0,0,0,0,0,0,0,0,-1,566,1674,0,0
-651,-650,0,0,0,0,0,0,0,0,0,-1,573,1674,0,0
-644,-650,0,0,0,0,0,0,0,0,0,-1,580,1674,0,0
-637,-650,0,0,0,0,0,0,0,0,0,-1,587,1674,0,0
-630,-650,0,0,0,0,0,0,0,0,0,-1,594,1674,0,0
-623,-650,0,0,0,0,0,0,0,0,0,-1,601,1674,0,0
-616,-650,0,0,0,0,0,0,0,0,0,-1,608,1674,0,0
-609,-650,0,0,0,0,0,0,0,0,0,-1,615,1674,0,0
-602,-650,0,0,0,0,0,0,0,0,0,-1,622,1674,0,0
-595,-650,0,0,0,0,0,0,0,0,0,-1,629,1674,0,0
-588,-650,0,0,0,0,0,0,0,0,0,-1,636,1674,0,0
-581,-650,0,0,0,0,0,0,0,0,0,-1,643,1674,0,0
-574,-650,0,0,0,0,0,0,0,0,0,-1,650,1674,0,0
-567,-650,0,0,0,0,0,0,0,0,0,-1,657,1674,0,0
-560,-650,0,0,0,0,0,0,0,0,0,-1,664,1674,0,0
-553,-650,0,0,0,0,0,0,0,0,0,-1,671,1674,0,0
-546,-650,0,0,0,0,0,0,0,0,0,-1,678,1674,0,0
-539,-650,0,0,0,0,0,0,0,0,0,-1,685,1674,0,0
-532,-650,0,0,0,0,0,0,0,0,0,-1,692,1674,0,0
-525,-650,0,0,0,0,0,0,0,0,0,-1,699,1674,0,0
-518,-650,0,0,0,0,0,0,0,0,0,-1,706,1674,0,0
-511,-650,0,0,0,0,0,0,0,0,0,-1,713,1674,0,0
-504,-650,0,0,0,0,0,0,0,0,0,-1,720,1674,0,0
-497,-650,0,0,0,0,0,0,0,0,0,-1,727,1674,0,0
-490,-650,0,0,0,0,0,0,0,0,0,-1,734,1674,0,0
-483,-650,0,0,0,0,0,0,0,0,0,-1,741,1674,0,0
-476,-650,0,0,0,0,0,0,0,0,0,-1,748,1674,0,0
-469,-650,0,0,0,0,0,0,0,0,0,-1,755,1674,0,0
-462,-650,0,0,0,0,0,0,0,0,0,-1,762,1674,0,0
-455,-650,0,0,0,0,0,0,0,0,0,-1,769,1674,0,0
-448,-650,0,0,0,0,0,0,0,0,0,-1,776,1674,0,0
-441,-650,0,0,0,0,0,0,0,0,0,-1,783,1674,0,0
-434,-650,0,0,0,0,0,0,0,0,0,-1,790,1674,0,0
-427,-650,0,0,0,0,0,0,0,0,0,-1,797,1674,0,0
-420,-650,0,0,0,0,0,0,0,0,0,-1,804,1674,0,0
-413,-650,0,0,0,0,0,0,0,0,0,-1,811,1674,0,0
-406,-650,0,0,0,0,0,0,0,0,0,-1,818,1674,0,0
-399,-650,0,0,0,0,0,0,0,0,0,-1,825,1674,0,0
-392,-650,1.92871,3.66638,0.000130147,-0.0460515,0.00840203,0.00161126,-0.0475326,0.174488,0.0322389,0.041388,832,1674,1.92871,-3.6664
-385,-650,1.69073,3.93933,0.00477765,-0.0438263,0.00681088,0.00571402,-0.0447627,0.136625,0.0319174,0.0446215,839,1674,1.69074,-3.93935
-378,-650,1.28729,4.22827,0,0,0,0,0,0,0,-1,846,1674,1.2873,-4.22824
-371,-650,1.96936,4.34509,0,0,0,0,0,0,0,-1,853,1674,1.96937,-4.3451
-364,-650,2.87726,4.66333,0,0,0,0,0,0,0,-1,860,1674,2.87728,-4.66333
-357,-650,3.70428,5.12219,0,0,0,0,0,0,0,-1,867,1674,3.70428,-5.12222
-350,-650,-0.507324,1.9292,0,0,0,0,0,0,0,-1,874,1674,-0.507349,-1.92921
-343,-650,0.347046,2.62109,0,0,0,0,0,0,0,-1,881,1674,0.34707,-2.62106
-336,-650,1.72534,1.98364,0,0,0,0,0,0,0,-1,888,1674,1.72535,-1.98368
-329,-650,1.75269,2.00134,0,0,0,0,0,0,0,-1,895,1674,1.75271,-2.00136
-322,-650,1.92041,2.02332,0,0,0,0,0,0,0,-1,902,1674,1.92041,-2.02328
-315,-650,1.79132,2.0105,0.00032908,-0.0131536,-0.00905403,0.00487584,-0.0177003,-0.465391,0.0137175,0.0378627,909,1674,1.79133,-2.0105
-308,-650,1.67004,1.99512,0.000919874,-0.0126256,-0.00844943,0.00497593,-0.0166817,-0.447552,0.0130987,0.0220904,916,1674,1.67005,-1.99507
-301,-650,1.66962,2.04736,0.00160741,-0.0114328,-0.00721924,0.00481506,-0.0146404,-0.41812,0.0117004,0.01222,923,1674,1.66959,-2.04733
-294,-650,1.66107,2.03723,0.00292627,-0.0111929,-0.00615621,0.00523347,-0.0135001,-0.358574,0.0111613,0.0100451,930,1674,1.66106,-2.03727
-287,-650,1.64594,2.0625,0.00363461,-0.0102212,-0.00524559,0.00539648,-0.011983,-0.324037,0.0102715,0.0135419,937,1674,1.64594,-2.06254
-280,-650,1.6543,2.0896,0.00379018,-0.00861401,-0.00388804,0.00490811,-0.00973194,-0.279979,0.00860403,0.0138623,944,1674,1.6543,-2.08959
-273,-650,1.65356,2.11731,0.00351654,-0.00754889,-0.00214398,0.00391743,-0.00794977,-0.184847,0.00698213,0.0129699,951,1674,1.65355,-2.11737
-266,-650,1.64496,2.17639,0.00326469,-0.00661257,-0.000729139,0.00331823,-0.00666611,-0.0732904,0.00587149,0.0109744,958,1674,1.64498,-2.17641
-259,-650,1.65546,2.21362,0.00298278,-0.00546389,-3.26652e-05,0.0029829,-0.00546402,-0.00386715,0.00494646,0.0134932,965,1674,1.65548,-2.21362
-252,-650,1.66437,2.21985,0.00281494,-0.00446219,0.000353269,0.00283205,-0.0044793,0.0483934,0.00425677,0.0122234,972,1674,1.66436,-2.21981
-245,-650,1.67206,2.24268,0.00280302,-0.00344156,0.000685403,0.00287736,-0.0035159,0.108046,0.00369729,0.0115531,979,1674,1.67207,-2.24262
-238,-650,1.66199,2.28113,0.0029248,-0.00284677,0.000790993,0.00303124,-0.00295322,0.133764,0.00345523,0.0125293,986,1674,1.662,-2.28109
-231,-650,1.66351,2.33325,0.00322626,-0.00285474,0.000887738,0.00335321,-0.00298168,0.142037,0.00365955,0.0170534,993,1674,1.66351,-2.33329
-224,-650,1.65875,2.36621,0.00357728,-0.00300835,0.00130399,0.00382608,-0.00325714,0.188531,0.0040939,0.0140266,1000,1674,1.65875,-2.36617
-217,-650,1.65558,2.36292,0.00378353,-0.00321386,0.0020274,0.0043285,-0.00375883,0.262595,0.00467308,0.00947909,1007,1674,1.65559,-2.36288
-210,-650,1.65417,2.36609,0.00408456,-0.0033107,0.00233745,0.00476142,-0.00398755,0.281862,0.0050578,0.0095793,1014,1674,1.65419,-2.36604
-203,-650,1.65887,2.40015,0.00432692,-0.00341622,0.00288054,0.00528097,-0.00437026,0.319833,0.0055804,0.0146221,1021,1674,1.6589,-2.40009
-196,-650,1.64905,2.42688,0.00447559,-0.00379873,0.00351101,0.0057646,-0.00508773,0.351856,0.00626966,0.0130906,1028,1674,1.64901,-2.42694
-189,-650,1.66003,2.43079,0.00473847,-0.00332354,0.00418444,0.00651768,-0.00510275,0.402036,0.00672561,0.0100032,1035,1674,1.66009,-2.43074
-182,-650,1.66333,2.44592,0.00571342,-0.00195919,0.00413401,0.00751691,-0.00376268,0.411366,0.00663142,0.00906964,1042,1674,1.66334,-2.4459
-175,-650,1.69922,2.45337,0.00802891,-0.00123392,0.00407109,0.00956384,-0.00276885,0.36055,0.00747186,0.0135223,1049,1674,1.69927,-2.45338
-168,-650,1.69763,2.48474,0.0109276,0.000492613,0.00325904,0.0118618,-0.000441605,0.279169,0.00805913,0.0178655,1056,1674,1.69766,-2.48478
-161,-650,1.66602,2.55469,0.0137104,0.0022433,0.00252466,0.0142416,0.00171207,0.207392,0.00897832,0.0246855,1063,1674,1.66601,-2.55474
-154,-650,1.73816,2.56079,0.0172927,0.00351153,0.00157049,0.0174694,0.00333482,0.112045,0.0107092,0.0289921,1070,1674,1.73812,-2.56078
-147,-650,1.74792,2.46899,0.0210172,0.00562513,0.000577192,0.0210388,0.00560351,0.0374293,0.0125811,0.0390446,1077,1674,1.74788,-2.46898
-140,-650,1.51855,2.73914,0.0233474,0.00648462,-0.000627305,0.0233707,0.00646132,-0.0371323,0.0139353,0.0437822,1084,1674,1.51854,-2.73913
-133,-650,1.69678,2.9303,0.0245336,0.00654361,-0.00158393,0.024672,0.00640522,-0.0871516,0.014783,0.0421179,1091,1674,1.69679,-2.93035
-126,-650,1.72314,3.00342,0.0255274,0.00710604,-0.0024893,0.0258579,0.00677559,-0.131978,0.0154824,0.0457448,1098,1674,1.72319,-3.00345
-119,-650,1.71985,3.01782,0.0253241,0.00689582,-0.00350983,0.02597,0.00624998,-0.181974,0.0156516,0.0481696,1105,1674,1.71989,-3.01776
-112,-650,1.68335,3.12073,0.0241066,0.00572257,-0.00453928,0.0251664,0.00466285,-0.229349,0.0154595,0.0459796,1112,1674,1.68333,-3.12075
-105,-650,1.65161,3.20471,0,0,0,0,0,0,0,-1,1119,1674,1.65162,-3.20476
-98,-650,1.6189,2.30066,0.014038,0.00100289,-0.00501252,0.0157426,-0.000701719,-0.327801,0.0107366,0.044467,1126,1674,1.61884,-2.30064
-91,-650,1.84436,2.3407,0.00834226,-0.00133246,-0.00574374,0.0110143,-0.00400447,-0.435425,0.00898038,0.0461868,1133,1674,1.8444,-2.34068
-84,-650,1.80444,2.63757,0.00411936,-0.00429583,-0.00768617,0.00867425,-0.00885072,-0.534966,0.0101182,0.0473894,1140,1674,1.80447,-2.63757
-77,-650,0.164673,3.34741,0,0,0,0,0,0,0,-1,1147,1674,0.164667,-3.34741
-70,-650,2.31702,1.4209,0,0,0,0,0,0,0,-1,1154,1674,2.31697,-1.42094
-63,-650,-0.323853,0.694702,0,0,0,0,0,0,0,-1,1161,1674,-0.32389,-0.694683
-56,-650,-0.0612793,0.738403,-0.0112743,-0.0128375,-0.0136026,0.00156907,-0.0256809,-0.7567,0.0176669,0.0420985,1168,1674,-0.0612724,-0.738403
-49,-650,-0.100586,0.817993,-0.0137422,-0.0142572,-0.0153187,0.00132122,-0.0293205,-0.776994,0.020002,0.0466567,1175,1674,-0.100569,-0.817991
-42,-650,-0.129883,0.383667,-0.0161133,-0.0179177,-0.017271,0.000279054,-0.0343101,-0.759303,0.022967,0.0461455,1182,1674,-0.129887,-0.383617
-35,-650,-0.0872803,0.0369873,-0.0179653,-0.0206302,-0.0191677,-8.3793e-05,-0.0385117,-0.750695,0.0256466,0.0475297,1189,1674,-0.0872487,-0.0369299
-28,-650,0.0670166,-0.416016,-0.0189988,-0.0228193,-0.0211598,0.0003368,-0.0421549,-0.740381,0.0282162,0.0454394,1196,1674,0.0669949,0.415961
-21,-650,1.854,1.96008,0,0,0,0,0,0,0,-1,1203,1674,1.85406,-1.96013
-14,-650,2.27283,1.6936,-0.0251883,-0.0258518,-0.0241464,-0.00137132,-0.0496688,-0.778529,0.032665,0.0483418,1210,1674,2.27288,-1.69366
-7,-650,2.44446,0.681152,-0.0267155,-0.0252301,-0.0258817,-8.04495e-05,-0.0518651,-0.799741,0.03455,0.0471717,1217,1674,2.44448,-0.681181
0,-650,1.45886,0.978394,-0.0105201,-0.0226363,-0.0233727,0.0075668,-0.0407233,-0.658591,0.029991,0.0419099,1224,1674,1.4588,-0.97838
7,-650,0.175903,1.69568,-0.00169032,-0.0188009,-0.0228201,0.0141255,-0.0346167,-0.606056,0.0289584,0.0409736,1231,1674,0.175889,-1.69572
14,-650,-0.0515137,1.35754,0.0122714,-0.0142721,-0.020365,0.0233075,-0.0253082,-0.496615,0.0280762,0.0404352,1238,1674,-0.0515443,-1.35758
21,-650,-0.786987,1.00171,0.0302037,-0.00923644,-0.0174342,0.0368053,-0.0158381,-0.361975,0.0311869,0.0418919,1245,1674,-0.787018,-1.00175
28,-650,-1.42859,0.83606,0.0502157,-0.0040564,-0.0145577,0.053874,-0.0077147,-0.246198,0.0387444,0.0406751,1252,1674,-1.42865,-0.836004
35,-650,-1.97388,0.613159,0.0704436,0.000763138,-0.0117588,0.0723745,-0.0011677,-0.162751,0.0486435,0.0439108,1259,1674,-1.97391,-0.613099
42,-650,-2.52661,0.0429688,0.0899372,0.00642434,-0.00876848,0.0908479,0.00551362,-0.103492,0.0588136,0.0471351,1266,1674,-2.5266,-0.0429283
49,-650,-2.30054,0.0883789,0,0,0,0,0,0,0,-1,1273,1674,-2.30055,-0.0883805
56,-650,1.91748,6.547,0.119397,0.00902874,-0.00425615,0.119561,0.00886485,-0.038487,0.0769228,0.0488947,1280,1674,1.91743,-6.54696
63,-650,2.32617,6.33984,0.126852,0.00880293,-0.00200552,0.126886,0.00876888,-0.0169823,0.0818244,0.0492892,1287,1674,2.32623,-6.3399
70,-650,3.60034,5.15674,0.126471,0.00926271,-0.00108037,0.126481,0.00925275,-0.00921645,0.081412,0.0452724,1294,1674,3.60038,-5.15674
77,-650,3.2616,4.47961,0,0,0,0,0,0,0,-1,1301,1674,3.26159,-4.47957
84,-650,4.49353,2.65027,0.108859,0.00950506,0.00798791,0.109498,0.00886694,0.0797158,0.0702295,0.0477976,1308,1674,4.49359,-2.65031
91,-650,4.9093,1.97656,0.10079,0.0140474,0.00693963,0.101341,0.0134957,0.0793304,0.0635419,0.0487408,1315,1674,4.90927,-1.97658
98,-650,5.48877,1.54333,0.0960223,0.0228809,0.0036193,0.0962009,0.0227023,0.049323,0.0580652,0.0454816,1322,1674,5.48874,-1.5433
105,-650,6.37402,0.162231,0.0833804,0.0316881,-0.00440326,0.0837528,0.0313157,-0.0843721,0.0488645,0.0453586,1329,1674,6.37397,-0.162176
112,-650,6.53076,-0.876831,0.0863661,0.0431391,-0.00745251,0.0876148,0.0418903,-0.166021,0.0506006,0.0447064,1336,1674,6.53072,0.876879
119,-650,6.46289,-1.7854,0.0905956,0.0561246,-0.012951,0.0949191,0.0518012,-0.322202,0.0548779,0.0431245,1343,1674,6.46293,1.78545
126,-650,6.54919,-2.65918,0.0898071,0.0614083,-0.0192764,0.0995494,0.051666,-0.467957,0.0574887,0.0477393,1350,1674,6.54922,2.65919
133,-650,-1.10437,11.2491,0,0,0,0,0,0,0,-1,1357,1674,-1.10435,-11.2491
140,-650,-0.2146,9.99182,0,0,0,0,0,0,0,-1,1364,1674,-0.214614,-9.99186
147,-650,0.848022,8.47131,0.0841766,0.058542,-0.0383748,0.111818,0.0309006,-0.624222,0.0666762,0.0459275,1371,1674,0.84807,-8.47133
154,-650,1.55457,7.21204,0.0777475,0.0531593,-0.0443419,0.111468,0.0194387,-0.650166,0.0687546,0.0476699,1378,1674,1.55455,-7.21206
161,-650,2.18481,6.05737,0,0,0,0,0,0,0,-1,1385,1674,2.18486,-6.05736
168,-650,2.83752,5.01196,0,0,0,0,0,0,0,-1,1392,1674,2.83757,-5.01192
175,-650,3.42358,6.26257,0.0611865,0.0193649,-0.0482343,0.0928477,-0.0122962,-0.580864,0.0663779,0.0477075,1399,1674,3.42353,-6.26252
182,-650,3.58325,5.77039,0.0565066,0.00501799,-0.0459719,0.0834518,-0.0219272,-0.530154,0.0642041,0.0467398,1406,1674,3.58326,-5.77037
189,-650,3.99146,3.20593,0.0490385,-0.00423226,-0.0328088,0.0646626,-0.0198563,-0.44444,0.0510315,0.0488058,1413,1674,3.99145,-3.20593
196,-650,4.21814,2.12537,0.0436156,-0.0120216,-0.0197594,0.049919,-0.0183249,-0.308801,0.0407838,0.046475,1420,1674,4.21816,-2.12541
203,-650,3.45764,1.60327,0,0,0,0,0,0,0,-1,1427,1674,3.45759,-1.60328
210,-650,4.76453,3.65869,0,0,0,0,0,0,0,-1,1434,1674,4.76453,-3.65869
217,-650,5.34143,3.46252,0.03903,-0.013111,0.00673308,0.0398855,-0.0139664,0.126371,0.0322695,0.047592,1441,1674,5.34142,-3.46248
224,-650,6.02759,3.3728,0.0427152,-0.0112416,0.0106665,0.0447473,-0.0132737,0.188256,0.0351029,0.046516,1448,1674,6.02761,-3.37282
231,-650,6.58032,3.25745,0.0454559,-0.00850398,0.0155819,0.0496322,-0.0126803,0.261869,0.0380263,0.0437059,1455,1674,6.58032,-3.2574
238,-650,7.06396,3.09924,0,0,0,0,0,0,0,-1,1462,1674,7.06402,-3.09929
245,-650,2.34509,0.957886,0.0462691,-5.02595e-05,0.0228309,0.0556305,-0.00941164,0.389124,0.0405896,0.0420197,1469,1674,2.34509,-0.957845
252,-650,2.28333,1.43176,0.043825,0.000342761,0.0192945,0.051152,-0.00698424,0.362924,0.0366519,0.0432027,1476,1674,2.28335,-1.43173
259,-650,2.36292,1.97363,0,0,0,0,0,0,0,-1,1483,1674,2.36291,-1.97365
266,-650,1.23608,3.04602,0,0,0,0,0,0,0,-1,1490,1674,1.23607,-3.04599
273,-650,1.47607,2.71667,0.0265412,-0.00131886,0.00765702,0.028507,-0.00328461,0.251298,0.0201888,0.0440751,1497,1674,1.47611,-2.71666
280,-650,1.8208,2.65857,0.0199917,-0.00369982,0.00329605,0.0204417,-0.00414983,0.135691,0.0152011,0.0418774,1504,1674,1.82084,-2.65853
287,-650,2.03137,2.61011,0.0148866,-0.00287487,0.00146733,0.015007,-0.00299528,0.0818733,0.0111382,0.036827,1511,1674,2.03142,-2.61011
294,-650,2.12134,2.50647,0.010933,-0.00125597,0.00147961,0.0111101,-0.001433,0.119085,0.00792768,0.0320691,1518,1674,2.1213,-2.5065
301,-650,2.07996,2.4458,0.00735046,0.000358694,0.00224642,0.00801001,-0.000300853,0.285574,0.00544306,0.02528,1525,1674,2.07999,-2.4458
308,-650,2.04285,2.43152,0.00435349,0.00142181,0.00267616,0.00593896,-0.000163666,0.534845,0.00401498,0.0149489,1532,1674,2.0428,-2.43154
315,-650,2.05981,2.42029,0.00209469,0.00180819,0.00206675,0.00402315,-0.000120271,0.750799,0.00272308,0.00975154,1539,1674,2.05978,-2.42035
322,-650,2.07959,2.39636,-5.33391e-05,0.00255908,0.00138067,0.00315351,-0.000647769,1.16424,0.00234823,0.0091187,1546,1674,2.0796,-2.39633
329,-650,2.08582,2.33691,-0.00156455,0.00303001,0.000656394,0.00312195,-0.00165648,1.43164,0.00280174,0.0144252,1553,1674,2.08581,-2.33692
336,-650,2.08533,2.33887,-0.00161452,0.00282774,0.000184273,0.00283537,-0.00162215,1.52941,0.00260513,0.0133295,1560,1674,2.08534,-2.3389
343,-650,2.08875,2.33081,-0.00131044,0.00252683,-0.000146195,0.0025324,-0.001316,-1.53277,0.00225857,0.0139097,1567,1674,2.08876,-2.33082
350,-650,2.09302,2.29968,-0.000974662,0.00238253,-0.000494617,0.00245388,-0.00104602,-1.42752,0.00207445,0.0162673,1574,1674,2.09297,-2.29966
357,-650,2.07764,2.27734,-0.000541878,0.00235448,-0.00076503,0.00254413,-0.000731531,-1.32779,0.00198537,0.0134943,1581,1674,2.07761,-2.27731
364,-650,2.07031,2.25366,0.000489967,0.00261991,-0.00153165,0.00342044,-0.000310566,-1.08918,0.00239055,0.00926926,1588,1674,2.07029,-2.25365
371,-650,2.06824,2.2229,0.000965275,0.00253607,-0.00174643,0.00366558,-0.000164233,-0.996707,0.00250027,0.0109224,1595,1674,2.0682,-2.22292
378,-650,2.06702,2.1897,0.00172752,0.00242282,-0.00213229,0.00423561,-8.52728e-05,-0.866207,0.00285259,0.0116355,1602,1674,2.06696,-2.18976
385,-650,2.06152,2.17053,0.00306086,0.0026784,-0.0018884,0.00476769,0.000971568,-0.734937,0.00290919,0.012629,1609,1674,2.06148,-2.17048
392,-650,2.0697,2.16626,0.00370354,0.00321848,-0.00206797,0.00554316,0.00137886,-0.727026,0.00333231,0.0165493,1616,1674,2.06972,-2.16628
399,-650,2.07031,2.13977,0.00434221,0.00392967,-0.00202818,0.00617458,0.0020973,-0.734721,0.00362548,0.0160711,1623,1674,2.07031,-2.13975
406,-650,2.05042,2.1217,0.00511211,0.00485263,-0.00174112,0.00672832,0.00323642,-0.74821,0.00388553,0.014325,1630,1674,2.05044,-2.12168
413,-650,2.0459,2.09033,0.00598811,0.00578106,-0.00125603,0.00714487,0.00462429,-0.744281,0.00418427,0.0141411,1637,1674,2.04593,-2.09037
420,-650,2.06201,2.06873,0.00664044,0.00664555,-0.000616624,0.00725963,0.00602637,-0.787472,0.00448554,0.0141371,1644,1674,2.06202,-2.06867
427,-650,2.07043,2.05359,0.00656471,0.0073261,0.000135626,0.00734954,0.00654128,1.39968,0.00465373,0.0131937,1651,1674,2.07042,-2.05364
434,-650,2.08313,2.04846,0.00582948,0.0086644,0.00150344,0.00931323,0.00518066,1.16338,0.00538833,0.0160953,1658,1674,2.08319,-2.04845
441,-650,2.10583,1.99988,0.00448181,0.0097668,0.0028385,0.0110024,0.00324618,1.16022,0.00652773,0.0255972,1665,1674,2.10579,-1.99983
448,-650,2.09473,1.98218,0.00298036,0.0108142,0.00439779,0.0127865,0.00100808,1.14921,0.00820898,0.0354334,1672,1674,2.09475,-1.98216
455,-650,1.974,1.8783,0.00114196,0.0119144,0.00599547,0.0145877,-0.00153142,1.15136,0.0102737,0.0386411,1679,1674,1.97404,-1.87833
462,-650,1.96313,1.94263,-0.00172722,0.0133834,0.00755148,0.0165102,-0.00485403,1.17822,0.0129321,0.044465,1686,1674,1.96318,-1.94259
469,-650,1.97046,2.03943,-0.00533616,0.0151035,0.0092986,0.0187006,-0.00893332,1.20168,0.0162833,0.0470605,1693,1674,1.97042,-2.03946
476,-650,1.90967,2.07874,-0.0090982,0.0174583,0.0105807,0.0211584,-0.0127983,1.23439,0.019802,0.0463465,1700,1674,1.90961,-2.07876
483,-650,1.82471,2.11072,0,0,0,0,0,0,0,-1,1707,1674,1.82473,-2.11077
490,-650,1.00549,3.64758,0,0,0,0,0,0,0,-1,1714,1674,1.00552,-3.64756
497,-650,0.768799,3.71301,0,0,0,0,0,0,0,-1,1721,1674,0.768768,-3.71298
504,-650,0.725342,2.56238,0,0,0,0,0,0,0,-1,1728,1674,0.725358,-2.5624
511,-650,0.440674,2.54932,0,0,0,0,0,0,0,-1,1735,1674,0.440698,-2.54928
518,-650,0,0,0,0,0,0,0,0,0,-1,1742,1674,0,0
525,-650,0,0,0,0,0,0,0,0,0,-1,1749,1674,0,0
532,-650,0,0,0,0,0,0,0,0,0,-1,1756,1674,0,0
539,-650,0,0,0,0,0,0,0,0,0,-1,1763,1674,0,0
546,-650,0,0,0,0,0,0,0,0,0,-1,1770,1674,0,0
553,-650,0,0,0,0,0,0,0,0,0,-1,1777,1674,0,0
560,-650,0,0,0,0,0,0,0,0,0,-1,1784,1674,0,0
567,-650,0,0,0,0,0,0,0,0,0,-1,1791,1674,0,0
574,-650,0,0,0,0,0,0,0,0,0,-1,1798,1674,0,0
581,-650,0,0,0,0,0,0,0,0,0,-1,1805,1674,0,0
588,-650,0,0,0,0,0,0,0,0,0,-1,1812,1674,0,0
595,-650,0,0,0,0,0,0,0,0,0,-1,1819,1674,0,0
602,-650,0,0,0,0,0,0,0,0,0,-1,1826,1674,0,0
609,-650,0,0,0,0,0,0,0,0,0,-1,1833,1674,0,0
616,-650,0,0,0,0,0,0,0,0,0,-1,1840,1674,0,0
623,-650,0,0,0,0,0,0,0,0,0,-1,1847,1674,0,0
630,-650,0,0,0,0,0,0,0,0,0,-1,1854,1674,0,0
637,-650,0,0,0,0,0,0,0,0,0,-1,1861,1674,0,0
644,-650,0,0,0,0,0,0,0,0,0,-1,1868,1674,0,0
651,-650,0,0,0,0,0,0,0,0,0,-1,1875,1674,0,0
658,-650,0,0,0,0,0,0,0,0,0,-1,1882,1674,0,0
665,-650,0,0,0,0,0,0,0,0,0,-1,1889,1674,0,0
672,-650,0,0,0,0,0,0,0,0,0,-1,1896,1674,0,0
679,-650,0,0,0,0,0,0,0,0,0,-1,1903,1674,0,0
686,-650,0,0,0,0,0,0,0,0,0,-1,1910,1674,0,0
693,-650,0,0,0,0,0,0,0,0,0,-1,1917,1674,0,0
700,-650,0,0,0,0,0,0,0,0,0,-1,1924,1674,0,0
707,-650,0,0,0,0,0,0,0,0,0,-1,1931,1674,0,0
714,-650,0,0,0,0,0,0,0,0,0,-1,1938,1674,0,0
721,-650,0,0,0,0,0,0,0,0,0,-1,1945,1674,0,0
728,-650,0,0,0,0,0,0,0,0,0,-1,1952,1674,0,0
735,-650,0,0,0,0,0,0,0,0,0,-1,1959,1674,0,0
742,-650,0,0,0,0,0,0,0,0,0,-1,1966,1674,0,0
749,-650,0,0,0,0,0,0,0,0,0,-1,1973,1674,0,0
756,-650,0,0,0,0,0,0,0,0,0,-1,1980,1674,0,0
763,-650,0,0,0,0,0,0,0,0,0,-1,1987,1674,0,0
770,-650,0,0,0,0,0,0,0,0,0,-1,1994,1674,0,0
777,-650,0,0,0,0,0,0,0,0,0,-1,2001,1674,0,0
784,-650,0,0,0,0,0,0,0,0,0,-1,2008,1674,0,0
791,-650,0,0,0,0,0,0,0,0,0,-1,2015,1674,0,0
798,-650,0,0,0,0,0,0,0,0,0,-1,2022,1674,0,0
805,-650,0,0,0,0,0,0,0,0,0,-1,2029,1674,0,0
812,-650,0,0,0,0,0,0,0,0,0,-1,2036,1674,0,0
-700,-657,0,0,0,0,0,0,0,0,0,-1,524,1681,0,0
-693,-657,0,0,0,0,0,0,0,0,0,-1,531,1681,0,0
-686,-657,0,0,0,0,0,0,0,0,0,-1,538,1681,0,0
-679,-657,0,0,0,0,0,0,0,0,0,-1,545,1681,0,0
-672,-657,0,0,0,0,0,0,0,0,0,-1,552,1681,0,0
-665,-657,0,0,0,0,0,0,0,0,0,-1,559,1681,0,0
-658,-657,0,0,0,0,0,0,0,0,0,-1,566,1681,0,0
-651,-657,0,0,0,0,0,0,0,0,0,-1,573,1681,0,0
-644,-657,0,0,0,0,0,0,0,0,0,-1,580,1681,0,0
-637,-657,0,0,0,0,0,0,0,0,0,-1,587,1681,0,0
-630,-657,0,0,0,0,0,0,0,0,0,-1,594,1681,0,0
-623,-657,0,0,0,0,0,0,0,0,0,-1,601,1681,0,0
-616,-657,0,0,0,0,0,0,0,0,0,-1,608,1681,0,0
-609,-657,0,0,0,0,0,0,0,0,0,-1,615,1681,0,0
-602,-657,0,0,0,0,0,0,0,0,0,-1,622,1681,0,0
-595,-657,0,0,0,0,0,0,0,0,0,-1,629,1681,0,0
-588,-657,0,0,0,0,0,0,0,0,0,-1,636,1681,0,0
-581,-657,0,0,0,0,0,0,0,0,0,-1,643,1681,0,0
-574,-657,0,0,0,0,0,0,0,0,0,-1,650,1681,0,0
-567,-657,0,0,0,0,0,0,0,0,0,-1,657,1681,0,0
-560,-657,0,0,0,0,0,0,0,0,0,-1,664,1681,0,0
-553,-657,0,0,0,0,0,0,0,0,0,-1,671,1681,0,0
-546,-657,0,0,0,0,0,0,0,0,0,-1,678,1681,0,0
-539,-657,0,0,0,0,0,0,0,0,0,-1,685,1681,0,0
-532,-657,0,0,0,0,0,0,0,0,0,-1,692,1681,0,0
-525,-657,0,0,0,0,0,0,0,0,0,-1,699,1681,0,0
-518,-657,0,0,0,0,0,0,0,0,0,-1,706,1681,0,0
-511,-657,0,0,0,0,0,0,0,0,0,-1,713,1681,0,0
-504,-657,0,0,0,0,0,0,0,0,0,-1,720,1681,0,0
-497,-657,0,0,0,0,0,0,0,0,0,-1,727,1681,0,0
-490,-657,0,0,0,0,0,0,0,0,0,-1,734,1681,0,0
-483,-657,0,0,0,0,0,0,0,0,0,-1,741,1681,0,0
-476,-657,0,0,0,0,0,0,0,0,0,-1,748,1681,0,0
-469,-657,0,0,0,0,0,0,0,0,0,-1,755,1681,0,0
-462,-657,0,0,0,0,0,0,0,0,0,-1,762,1681,0,0
-455,-657,0,0,0,0,0,0,0,0,0,-1,769,1681,0,0
-448,-657,0,0,0,0,0,0,0,0,0,-1,776,1681,0,0
-441,-657,0,0,0,0,0,0,0,0,0,-1,783,1681,0,0
-434,-657,0,0,0,0,0,0,0,0,0,-1,790,1681,0,0
-427,-657,0,0,0,0,0,0,0,0,0,-1,797,1681,0,0
-420,-657,0,0,0,0,0,0,0,0,0,-1,804,1681,0,0
-413,-657,0,0,0,0,0,0,0,0,0,-1,811,1681,0,0
-406,-657,0,0,0,0,0,0,0,0,0,-1,818,1681,0,0
-399,-657,0,0,0,0,0,0,0,0,0,-1,825,1681,0,0
-392,-657,0,0,0,0,0,0,0,0,0,-1,832,1681,0,0
-385,-657,2.33667,4.20276,-0.00685408,-0.0363122,0.00915421,-0.00424114,-0.0389252,0.278042,0.0246583,0.0437234,839,1681,2.33669,-4.20282
-378,-657,2.70044,4.12146,0,0,0,0,0,0,0,-1,846,1681,2.70045,-4.12141
-371,-657,3.12463,3.86011,0,0,0,0,0,0,0,-1,853,1681,3.12462,-3.86006
-364,-657,3.87598,4.07813,0,0,0,0,0,0,0,-1,860,1681,3.87596,-4.07819
-357,-657,3.54413,3.78955,0,0,0,0,0,0,0,-1,867,1681,3.54412,-3.78951
-350,-657,-1.61145,2.5542,0,0,0,0,0,0,0,-1,874,1681,-1.61146,-2.55423
-343,-657,-1.87555,2.96143,0,0,0,0,0,0,0,-1,881,1681,-1.87558,-2.96146
-336,-657,1.85901,1.96301,0,0,0,0,0,0,0,-1,888,1681,1.859,-1.96297
-329,-657,1.87531,1.99292,0,0,0,0,0,0,0,-1,895,1681,1.87532,-1.99296
-322,-657,1.89166,2.02295,0,0,0,0,0,0,0,-1,902,1681,1.89164,-2.02296
-315,-657,1.90527,1.98938,0,0,0,0,0,0,0,-1,909,1681,1.90526,-1.98934
-308,-657,1.55841,1.9657,0.000969998,-0.017155,-0.0105017,0.00577886,-0.0219639,-0.429414,0.0169015,0.0353294,916,1681,1.55838,-1.96565
-301,-657,1.7439,1.96155,0.00212023,-0.0161459,-0.00915502,0.00591881,-0.0199444,-0.3933,0.0156469,0.0300676,923,1681,1.74388,-1.9615
-294,-657,1.67798,2.06116,0.00383385,-0.015814,-0.00787837,0.00660271,-0.0185829,-0.337967,0.0150793,0.0166835,930,1681,1.67798,-2.06111
-287,-657,1.65991,2.08203,0.004796,-0.0143844,-0.00678443,0.00695316,-0.0165415,-0.307849,0.0139361,0.0110337,937,1681,1.65988,-2.08207
-280,-657,1.65283,2.0896,0.00507459,-0.0121269,-0.00510984,0.00647801,-0.0135303,-0.268041,0.0117886,0.0122756,944,1681,1.65284,-2.08962
-273,-657,1.66693,2.12891,0.0046395,-0.0105134,-0.00304488,0.00522846,-0.0111024,-0.191066,0.00962978,0.00947488,951,1681,1.66691,-2.12885
-266,-657,1.6582,2.17712,0.00409905,-0.00904611,-0.00149903,0.00426783,-0.00921489,-0.112119,0.007957,0.0143066,958,1681,1.65819,-2.17712
-259,-657,1.6424,2.21204,0.00352033,-0.00723594,-0.000881683,0.00359212,-0.00730774,-0.0812465,0.00641376,0.0185755,965,1681,1.64241,-2.21208
-252,-657,1.65723,2.22729,0.00297824,-0.00564655,-0.000635733,0.00302484,-0.00569316,-0.0731829,0.00511132,0.0130724,972,1681,1.65721,-2.22728
-245,-657,1.67188,2.23438,0.00257435,-0.00410471,-0.000455044,0.00260521,-0.00413557,-0.0677129,0.00392508,0.0150849,979,1681,1.6719,-2.23433
-238,-657,1.68341,2.23706,0.0021769,-0.003173,-0.000592651,0.00224177,-0.00323787,-0.109017,0.00318104,0.0193367,986,1681,1.68342,-2.23706
-231,-657,1.69556,2.30957,0.00196143,-0.00269102,-0.000700488,0.00206461,-0.0027942,-0.146245,0.00281576,0.0202373,993,1681,1.69557,-2.30956
-224,-657,1.69507,2.37305,0.00193977,-0.00236851,-0.00050591,0.00199838,-0.00242712,-0.115337,0.00255906,0.0159872,1000,1681,1.69508,-2.37305
-217,-657,1.6828,2.38416,0.00190317,-0.00208098,-0.000109976,0.0019062,-0.00208401,-0.0275754,0.00230452,0.00981502,1007,1681,1.68278,-2.3842
-210,-657,1.68689,2.38367,0.00195361,-0.00186747,7.11823e-05,0.00195494,-0.00186879,0.0186202,0.00220782,0.010784,1014,1681,1.68687,-2.38361
-203,-657,1.68835,2.40344,0.0020368,-0.00167276,0.000495273,0.00210179,-0.00173775,0.130468,0.00222008,0.0136859,1021,1681,1.68837,-2.40349
-196,-657,1.68481,2.422,0.00221246,-0.00179246,0.000991843,0.00244464,-0.00202463,0.229946,0.00258413,0.0141491,1028,1681,1.68484,-2.42203
-189,-657,1.69775,2.43201,0.00255976,-0.00126772,0.00152577,0.00309354,-0.0018015,0.336537,0.00285878,0.0101395,1035,1681,1.69773,-2.43197
-182,-657,1.68994,2.43396,0.00343052,-0.000113727,0.00168146,0.00410129,-0.000784499,0.379576,0.00302974,0.00857797,1042,1681,1.68993,-2.43401
-175,-657,1.71436,2.46545,0.00498093,0.000678021,0.00190271,0.00570159,-4.26399e-05,0.362059,0.00381536,0.0101568,1049,1681,1.7144,-2.46545
-168,-657,1.71814,2.49353,0.00693381,0.00225203,0.00175857,0.00752078,0.00166507,0.322146,0.00456128,0.010886,1056,1681,1.71812,-2.4935
-161,-657,1.70776,2.48999,0.00886459,0.00378576,0.00159799,0.00932554,0.00332481,0.280834,0.00545749,0.0105698,1063,1681,1.70774,-2.48998
-154,-657,1.68164,2.49744,0.0112179,0.00496365,0.00121857,0.0114469,0.00473461,0.185788,0.00664168,0.0110126,1070,1681,1.68162,-2.49749
-147,-657,1.68823,2.48938,0.0137471,0.0069717,0.000858929,0.0138542,0.00686451,0.124156,0.00799886,0.0152656,1077,1681,1.68818,-2.48935
-140,-657,1.68591,2.53137,0.0152916,0.00807528,0.000291358,0.0153034,0.00806354,0.0402875,0.00883966,0.023928,1084,1681,1.68595,-2.53133
-133,-657,1.65186,2.71912,0.0157641,0.00849264,-3.4798e-06,0.0157641,0.00849264,-0.000478555,0.00911051,0.0315308,1091,1681,1.65183,-2.71909
-126,-657,1.71167,2.78503,0.0159873,0.00916859,-0.000355012,0.0160057,0.00915016,-0.0518777,0.0092725,0.0354185,1098,1681,1.71163,-2.78509
-119,-657,1.57471,2.70667,0.0154255,0.00939642,-0.000916265,0.0155617,0.00926025,-0.147538,0.00903851,0.0436257,1105,1681,1.57469,-2.70672
-112,-657,1.59302,2.99731,0.0142554,0.00883691,-0.00148706,0.0146367,0.00845563,-0.250994,0.00848442,0.0459946,1112,1681,1.59302,-2.99726
-105,-657,1.52502,3.1897,0,0,0,0,0,0,0,-1,1119,1681,1.52501,-3.18965
-98,-657,1.2959,1.27185,0,0,0,0,0,0,0,-1,1126,1681,1.29586,-1.27181
-91,-657,2.00061,2.95422,0,0,0,0,0,0,0,-1,1133,1681,2.00061,-2.95416
-84,-657,1.18958,2.28491,-0.00112844,0.000150568,-0.00509796,0.00464897,-0.00562685,-0.847794,0.00594169,0.0441514,1140,1681,1.1896,-2.28491
-77,-657,0.698486,2.97656,-0.0038324,-0.00319965,-0.00689951,0.00339073,-0.0104228,-0.80831,0.00831257,0.0461203,1147,1681,0.698476,-2.97658
-70,-657,0.300293,3.55139,0,0,0,0,0,0,0,-1,1154,1681,0.300311,-3.5514
-63,-657,1.56848,1.70435,0,0,0,0,0,0,0,-1,1161,1681,1.5685,-1.70431
-56,-657,-0.0145264,1.68799,0,0,0,0,0,0,0,-1,1168,1681,-0.0144866,-1.68801
-49,-657,-0.0484619,1.31201,-0.0126548,-0.0141416,-0.0144211,0.00104206,-0.0278384,-0.759646,0.0189159,0.0484747,1175,1681,-0.0485012,-1.31201
-42,-657,-0.0118408,0.873657,-0.0143094,-0.0181401,-0.0164225,0.000309061,-0.0327585,-0.727345,0.0219427,0.04824,1182,1681,-0.0118024,-0.873699
-35,-657,0.076416,0.530396,-0.0154796,-0.0212655,-0.0183817,0.000235418,-0.0369805,-0.707347,0.0247325,0.0470895,1189,1681,0.0763847,-0.530456
-28,-657,0.157837,0.154419,-0.0157144,-0.0234191,-0.0203511,0.00114571,-0.0402793,-0.691858,0.0272428,0.0455686,1196,1681,0.157798,-0.154363
-21,-657,1.31238,2.4187,0,0,0,0,0,0,0,-1,1203,1681,1.31238,-2.41866
-14,-657,1.67725,2.07434,0,0,0,0,0,0,0,-1,1210,1681,1.67724,-2.07432
-7,-657,0.51062,2.66418,0,0,0,0,0,0,0,-1,1217,1681,0.510603,-2.66424
0,-657,0.542114,2.29382,-0.00814454,-0.021622,-0.0225706,0.00867184,-0.0384383,-0.64033,0.0289524,0.0446513,1224,1681,0.542144,-2.29378
7,-657,0.518311,1.88196,-0.00202635,-0.0171719,-0.0222656,0.013919,-0.0331173,-0.621479,0.0279003,0.0435085,1231,1681,0.518309,-1.88197
14,-657,0.518433,1.40393,0.00822572,-0.0115456,-0.020472,0.0210739,-0.0243938,-0.560466,0.0262741,0.0437067,1238,1681,0.518484,-1.40395
21,-657,0.507813,0.964478,0.0218333,-0.00527522,-0.0181417,0.030925,-0.0143669,-0.464566,0.0267254,0.0443964,1245,1681,0.507855,-0.964463
28,-657,1.22351,1.2887,0.0375301,0.00143205,-0.0157433,0.0434314,-0.00446925,-0.358635,0.0305532,0.0411824,1252,1681,1.22351,-1.28871
35,-657,-2.25586,-0.3396,0.053658,0.00742662,-0.0132747,0.0571985,0.00388611,-0.260644,0.0369052,0.0400451,1259,1681,-2.25587,0.339637
42,-657,-2.42651,-0.444092,0.0686375,0.0131587,-0.0106193,0.0706007,0.0111955,-0.182807,0.0438147,0.0429736,1266,1681,-2.42655,0.444048
49,-657,1.40918,6.95227,0.0822367,0.0155739,-0.0085003,0.0833035,0.0145071,-0.124851,0.0513871,0.0453381,1273,1681,1.40915,-6.95232
56,-657,1.49988,6.25244,0.092565,0.0162081,-0.00627091,0.0930765,0.0156965,-0.0813995,0.057537,0.0476218,1280,1681,1.49989,-6.25241
63,-657,1.85046,6.1665,0,0,0,0,0,0,0,-1,1287,1681,1.85041,-6.16651
70,-657,2.14124,4.70984,0,0,0,0,0,0,0,-1,1294,1681,2.14124,-4.70986
77,-657,2.79443,4.15942,0.0943055,0.0161842,0.00406211,0.0945162,0.0159736,0.0518112,0.0584188,0.045255,1301,1681,2.79447,-4.15938
84,-657,3.79456,2.87708,0.0877058,0.0128251,0.00829496,0.0886137,0.0119172,0.109015,0.0555313,0.0466478,1308,1681,3.79451,-2.87712
91,-657,4.0509,2.32483,0.0824073,0.0147519,0.00868483,0.0835043,0.0136548,0.125655,0.0517223,0.0476401,1315,1681,4.05096,-2.3248
98,-657,4.59888,1.52917,0.0785633,0.0204629,0.00757984,0.0795359,0.0194903,0.127616,0.0478686,0.046411,1322,1681,4.59891,-1.52921
105,-657,5.14087,0.602417,0.0695136,0.0268093,0.00233983,0.0696414,0.0266815,0.0545737,0.040572,0.0460248,1329,1681,5.14088,-0.602383
112,-657,5.50342,-0.57251,0.071248,0.0359832,0.000597109,0.0712581,0.0359731,0.0169257,0.0411415,0.0455367,1336,1681,5.50346,0.572482
119,-657,5.91724,-1.43005,0,0,0,0,0,0,0,-1,1343,1681,5.91724,1.43011
126,-657,-1.57935,11.2419,0.0728415,0.0527315,-0.00911142,0.0763557,0.0492174,-0.368104,0.0446941,0.0497645,1350,1681,-1.57934,-11.242
133,-657,-0.928589,9.8186,0,0,0,0,0,0,0,-1,1357,1681,-0.928615,-9.81856
140,-657,0.0422363,8.59595,0.0701456,0.0544058,-0.0208056,0.0845199,0.0400314,-0.604586,0.0488202,0.0476402,1364,1681,0.0422265,-8.59598
147,-657,0.99585,7.46057,0.0674986,0.0527969,-0.0274955,0.0886088,0.0316866,-0.654779,0.0518453,0.0492504,1371,1681,0.995862,-7.46055
154,-657,1.75549,6.38562,0.0618751,0.0491004,-0.0331145,0.0892126,0.0217629,-0.690124,0.0537111,0.049693,1378,1681,1.75546,-6.38557
161,-657,4.98499,5.89209,0,0,0,0,0,0,0,-1,1385,1681,4.98504,-5.89211
168,-657,4.57971,5.53857,0,0,0,0,0,0,0,-1,1392,1681,4.57971,-5.53855
175,-657,4.03662,5.3468,0.0486411,0.0237593,-0.0387301,0.0768794,-0.00447897,-0.629993,0.0528093,0.045801,1399,1681,4.03656,-5.3468
182,-657,3.89673,4.90186,0.0450083,0.0112725,-0.0383325,0.0700201,-0.0137392,-0.578127,0.0518699,0.0483055,1406,1681,3.89667,-4.90186
189,-657,3.9895,3.57324,0.0385329,0.00387509,-0.0274027,0.0536262,-0.0112182,-0.503454,0.0400178,0.0468587,1413,1681,3.98951,-3.57323
196,-657,3.97449,2.70679,0.0333632,-0.00329804,-0.0161063,0.0394339,-0.00936874,-0.360448,0.0299054,0.047975,1420,1681,3.97447,-2.70684
203,-657,3.34619,1.98059,0.0285365,-0.00722692,-0.0070605,0.0298799,-0.00857036,-0.188027,0.023308,0.0468249,1427,1681,3.34617,-1.98061
210,-657,2.55554,2.06311,0,0,0,0,0,0,0,-1,1434,1681,2.55554,-2.06308
217,-657,3.25305,1.922,0,0,0,0,0,0,0,-1,1441,1681,3.25303,-1.922
224,-657,4.95532,3.10278,0.0319002,-0.00403093,0.0128142,0.036002,-0.00813266,0.309787,0.0271217,0.0429499,1448,1681,4.95528,-3.10276
231,-657,5.50867,3.05554,0.0338809,-0.00217614,0.0168817,0.040551,-0.0088462,0.37628,0.0304146,0.0434917,1455,1681,5.50861,-3.05552
238,-657,5.91003,2.88452,0,0,0,0,0,0,0,-1,1462,1681,5.90998,-2.88449
245,-657,3.59143,0.836304,0,0,0,0,0,0,0,-1,1469,1681,3.59144,-0.836256
252,-657,3.57117,1.52417,0,0,0,0,0,0,0,-1,1476,1681,3.57121,-1.5242
259,-657,2.34424,3.12939,0,0,0,0,0,0,0,-1,1483,1681,2.34422,-3.12945
266,-657,2.35547,2.98633,0,0,0,0,0,0,0,-1,1490,1681,2.3555,-2.98637
273,-657,1.69946,2.59998,0,0,0,0,0,0,0,-1,1497,1681,1.69949,-2.59998
280,-657,1.89136,2.54016,0.016634,-0.00184824,0.00320932,0.0171754,-0.00238965,0.167128,0.0123243,0.0352922,1504,1681,1.89141,-2.54016
287,-657,2.05762,2.47656,0.0128706,-0.00157895,0.00133088,0.0129921,-0.00170051,0.0910844,0.00928033,0.0284297,1511,1681,2.05759,-2.47657
294,-657,2.06494,2.44922,0.0100271,-0.000544651,0.00111742,0.010144,-0.000661471,0.104165,0.00699356,0.0217481,1518,1681,2.06494,-2.44928
301,-657,2.05286,2.4342,0.0072982,0.00058405,0.00166666,0.00768915,0.000193098,0.230406,0.00506296,0.0147748,1525,1681,2.05282,-2.43417
308,-657,2.0437,2.42761,0.00495974,0.0012918,0.00192528,0.00578475,0.000466799,0.404841,0.0037107,0.0109891,1532,1681,2.04369,-2.42758
315,-657,2.04663,2.41919,0.0031115,0.00145848,0.00136394,0.00387981,0.000690171,0.512998,0.00238993,0.0104114,1539,1681,2.04668,-2.41919
322,-657,2.04053,2.39282,0.0012821,0.0019612,0.000799632,0.00249039,0.000752911,0.986179,0.00147481,0.0131307,1546,1681,2.04048,-2.39283
329,-657,2.06104,2.36658,-9.53327e-05,0.00231625,0.000255539,0.00234303,-0.000122113,1.46638,0.00160428,0.0182583,1553,1681,2.06109,-2.36659
336,-657,2.0658,2.34302,-0.00024729,0.00215547,-1.3316e-07,0.00215547,-0.00024729,-1.57074,0.00152611,0.0152619,1560,1681,2.06585,-2.34306
343,-657,2.07678,2.31384,-0.000105772,0.00195251,-9.71555e-05,0.00195709,-0.000110347,-1.52373,0.00134302,0.0127522,1567,1681,2.07682,-2.31383
350,-657,2.0531,2.29688,4.96148e-06,0.00199579,-0.000167796,0.00200983,-9.08226e-06,-1.4873,0.00134293,0.0152064,1574,1681,2.05312,-2.29693
357,-657,2.03687,2.28198,0.000291363,0.0021343,-0.000213167,0.00215863,0.000267028,-1.45713,0.00135885,0.0148029,1581,1681,2.03688,-2.28201
364,-657,2.04138,2.26868,0.00110679,0.00257113,-0.000721354,0.00286679,0.000811137,-1.18182,0.00170634,0.0103448,1588,1681,2.04139,-2.26866
371,-657,2.04944,2.23621,0.0014671,0.00281568,-0.000781523,0.00317359,0.00110919,-1.14133,0.00185974,0.0135722,1595,1681,2.04942,-2.23627
378,-657,2.03674,2.19556,0.00236307,0.00312197,-0.00113265,0.00393704,0.001548,-0.947027,0.00229027,0.0136021,1602,1681,2.03678,-2.19552
385,-657,2.02197,2.15332,0.00408667,0.00383021,-0.000637369,0.00460858,0.0033083,-0.68613,0.00274366,0.012573,1609,1681,2.02196,-2.15328
392,-657,2.02991,2.1759,0.00495101,0.00482504,-0.000810966,0.00570144,0.00407462,-0.746642,0.00339134,0.012708,1616,1681,2.02991,-2.17592
399,-657,2.04993,2.1554,0.0058895,0.00598381,-0.000775816,0.0067139,0.0051594,-0.815752,0.00405825,0.0126111,1623,1681,2.04989,-2.15535
406,-657,2.03577,2.12769,0.00710335,0.00733056,-0.000527332,0.00775638,0.00667752,-0.891494,0.00485145,0.0135832,1630,1681,2.03579,-2.12769
413,-657,2.03064,2.0863,0.00858342,0.00864781,-3.22429e-05,0.00866118,0.00857005,-1.17772,0.00574399,0.0125881,1637,1681,2.03062,-2.08633
420,-657,2.04834,2.03723,0.00984039,0.00989678,0.000653738,0.0105229,0.00921424,0.806949,0.0066223,0.0123769,1644,1681,2.04836,-2.03719
427,-657,2.05115,2.00916,0.0103851,0.0109177,0.00147153,0.0121468,0.00915595,0.874914,0.00730786,0.0157866,1651,1681,2.05113,-2.00912
434,-657,2.09448,2.00427,0.0100353,0.0127272,0.00298263,0.0146535,0.00810897,0.99735,0.00847625,0.0247644,1658,1681,2.09443,-2.00433
441,-657,2.03357,1.83081,0.00872969,0.0142395,0.00450554,0.0167657,0.00620356,1.0598,0.00978808,0.0397546,1665,1681,2.03352,-1.83083
448,-657,1.78882,1.84216,0.00719046,0.0156193,0.00631797,0.0189995,0.00381027,1.07953,0.0116066,0.0442477,1672,1681,1.78885,-1.84219
455,-657,1.86609,1.90881,0.00513022,0.0169805,0.00825961,0.0212205,0.000890311,1.09654,0.0138597,0.0465803,1679,1681,1.86614,-1.90879
462,-657,2.104,2.04419,0.00128238,0.0189309,0.0103462,0.0237049,-0.00349155,1.13849,0.0170864,0.0452532,1686,1681,2.10398,-2.04413
469,-657,2.36475,2.40735,-0.00372635,0.0211795,0.0126906,0.0265065,-0.00905337,1.17337,0.0213389,0.0448407,1693,1681,2.36481,-2.40735
476,-657,2.02673,2.12683,-0.0091253,0.0242136,0.0144223,0.0295867,-0.0144983,1.21417,0.0259447,0.0460221,1700,1681,2.02677,-2.12679
483,-657,1.44995,2.55103,-0.0162969,0.0284427,0.0159837,0.0335663,-0.0214205,1.26059,0.0320037,0.0460218,1707,1681,1.44993,-2.55108
490,-657,1.10022,2.80115,-0.0248819,0.0349069,0.0142991,0.0381507,-0.0281257,1.34772,0.0384103,0.0438207,1714,1681,1.10026,-2.80117
497,-657,0.81543,2.83533,0,0,0,0,0,0,0,-1,1721,1681,0.815489,-2.83531
504,-657,0,0,0,0,0,0,0,0,0,-1,1728,1681,0,0
511,-657,0,0,0,0,0,0,0,0,0,-1,1735,1681,0,0
518,-657,0,0,0,0,0,0,0,0,0,-1,1742,1681,0,0
525,-657,0,0,0,0,0,0,0,0,0,-1,1749,1681,0,0
532,-657,0,0,0,0,0,0,0,0,0,-1,1756,1681,0,0
539,-657,0,0,0,0,0,0,0,0,0,-1,1763,1681,0,0
546,-657,0,0,0,0,0,0,0,0,0,-1,1770,1681,0,0
553,-657,0,0,0,0,0,0,0,0,0,-1,1777,1681,0,0
560,-657,0,0,0,0,0,0,0,0,0,-1,1784,1681,0,0
567,-657,0,0,0,0,0,0,0,0,0,-1,1791,1681,0,0
574,-657,0,0,0,0,0,0,0,0,0,-1,1798,1681,0,0
581,-657,0,0,0,0,0,0,0,0,0,-1,1805,1681,0,0
588,-657,0,0,0,0,0,0,0,0,0,-1,1812,1681,0,0
595,-657,0,0,0,0,0,0,0,0,0,-1,1819,1681,0,0
602,-657,0,0,0,0,0,0,0,0,0,-1,1826,1681,0,0
609,-657,0,0,0,0,0,0,0,0,0,-1,1833,1681,0,0
616,-657,0,0,0,0,0,0,0,0,0,-1,1840,1681,0,0
623,-657,0,0,0,0,0,0,0,0,0,-1,1847,1681,0,0
630,-657,0,0,0,0,0,0,0,0,0,-1,1854,1681,0,0
637,-657,0,0,0,0,0,0,0,0,0,-1,1861,1681,0,0
644,-657,0,0,0,0,0,0,0,0,0,-1,1868,1681,0,0
651,-657,0,0,0,0,0,0,0,0,0,-1,1875,1681,0,0
658,-657,0,0,0,0,0,0,0,0,0,-1,1882,1681,0,0
665,-657,0,0,0,0,0,0,0,0,0,-1,1889,1681,0,0
672,-657,0,0,0,0,0,0,0,0,0,-1,1896,1681,0,0
679,-657,0,0,0,0,0,0,0,0,0,-1,1903,1681,0,0
686,-657,0,0,0,0,0,0,0,0,0,-1,1910,1681,0,0
693,-657,0,0,0,0,0,0,0,0,0,-1,1917,1681,0,0
700,-657,0,0,0,0,0,0,0,0,0,-1,1924,1681,0,0
707,-657,0,0,0,0,0,0,0,0,0,-1,1931,1681,0,0
714,-657,0,0,0,0,0,0,0,0,0,-1,1938,1681,0,0
721,-657,0,0,0,0,0,0,0,0,0,-1,1945,1681,0,0
728,-657,0,0,0,0,0,0,0,0,0,-1,1952,1681,0,0
735,-657,0,0,0,0,0,0,0,0,0,-1,1959,1681,0,0
742,-657,0,0,0,0,0,0,0,0,0,-1,1966,1681,0,0
749,-657,0,0,0,0,0,0,0,0,0,-1,1973,1681,0,0
756,-657,0,0,0,0,0,0,0,0,0,-1,1980,1681,0,0
763,-657,0,0,0,0,0,0,0,0,0,-1,1987,1681,0,0
770,-657,0,0,0,0,0,0,0,0,0,-1,1994,1681,0,0
777,-657,0,0,0,0,0,0,0,0,0,-1,2001,1681,0,0
784,-657,0,0,0,0,0,0,0,0,0,-1,2008,1681,0,0
791,-657,0,0,0,0,0,0,0,0,0,-1,2015,1681,0,0
798,-657,0,0,0,0,0,0,0,0,0,-1,2022,1681,0,0
805,-657,0,0,0,0,0,0,0,0,0,-1,2029,1681,0,0
812,-657,0,0,0,0,0,0,0,0,0,-1,2036,1681,0,0
-700,-664,0,0,0,0,0,0,0,0,0,-1,524,1688,0,0
-693,-664,0,0,0,0,0,0,0,0,0,-1,531,1688,0,0
-686,-664,0,0,0,0,0,0,0,0,0,-1,538,1688,0,0
-679,-664,0,0,0,0,0,0,0,0,0,-1,545,1688,0,0
-672,-664,0,0,0,0,0,0,0,0,0,-1,552,1688,0,0
-665,-664,0,0,0,0,0,0,0,0,0,-1,559,1688,0,0
-658,-664,0,0,0,0,0,0,0,0,0,-1,566,1688,0,0
-651,-664,0,0,0,0,0,0,0,0,0,-1,573,1688,0,0
-644,-664,0,0,0,0,0,0,0,0,0,-1,580,1688,0,0
-637,-664,0,0,0,0,0,0,0,0,0,-1,587,1688,0,0
-630,-664,0,0,0,0,0,0,0,0,0,-1,594,1688,0,0
-623,-664,0,0,0,0,0,0,0,0,0,-1,601,1688,0,0
-616,-664,0,0,0,0,0,0,0,0,0,-1,608,1688,0,0
-609,-664,0,0,0,0,0,0,0,0,0,-1,615,1688,0,0
-602,-664,0,0,0,0,0,0,0,0,0,-1,622,1688,0,0
-595,-664,0,0,0,0,0,0,0,0,0,-1,629,1688,0,0
-588,-664,0,0,0,0,0,0,0,0,0,-1,636,1688,0,0
-581,-664,0,0,0,0,0,0,0,0,0,-1,643,1688,0,0
-574,-664,0,0,0,0,0,0,0,0,0,-1,650,1688,0,0
-567,-664,0,0,0,0,0,0,0,0,0,-1,657,1688,0,0
-560,-664,0,0,0,0,0,0,0,0,0,-1,664,1688,0,0
-553,-664,0,0,0,0,0,0,0,0,0,-1,671,1688,0,0
-546,-664,0,0,0,0,0,0,0,0,0,-1,678,1688,0,0
-539,-664,0,0,0,0,0,0,0,0,0,-1,685,1688,0,0
-532,-664,0,0,0,0,0,0,0,0,0,-1,692,1688,0,0
-525,-664,0,0,0,0,0,0,0,0,0,-1,699,1688,0,0
-518,-664,0,0,0,0,0,0,0,0,0,-1,706,1688,0,0
-511,-664,0,0,0,0,0,0,0,0,0,-1,713,1688,0,0
-504,-664,0,0,0,0,0,0,0,0,0,-1,720,1688,0,0
-497,-664,0,0,0,0,0,0,0,0,0,-1,727,1688,0,0
-490,-664,0,0,0,0,0,0,0,0,0,-1,734,1688,0,0
-483,-664,0,0,0,0,0,0,0,0,0,-1,741,1688,0,0
-476,-664,0,0,0,0,0,0,0,0,0,-1,748,1688,0,0
-469,-664,0,0,0,0,0,0,0,0,0,-1,755,1688,0,0
-462,-664,0,0,0,0,0,0,0,0,0,-1,762,1688,0,0
-455,-664,0,0,0,0,0,0,0,0,0,-1,769,1688,0,0
-448,-664,0,0,0,0,0,0,0,0,0,-1,776,1688,0,0
-441,-664,0,0,0,0,0,0,0,0,0,-1,783,1688,0,0
-434,-664,0,0,0,0,0,0,0,0,0,-1,790,1688,0,0
-427,-664,0,0,0,0,0,0,0,0,0,-1,797,1688,0,0
-420,-664,0,0,0,0,0,0,0,0,0,-1,804,1688,0,0
-413,-664,0,0,0,0,0,0,0,0,0,-1,811,1688,0,0
-406,-664,0,0,0,0,0,0,0,0,0,-1,818,1688,0,0
-399,-664,0,0,0,0,0,0,0,0,0,-1,825,1688,0,0
-392,-664,0,0,0,0,0,0,0,0,0,-1,832,1688,0,0
-385,-664,0,0,0,0,0,0,0,0,0,-1,839,1688,0,0
-378,-664,0,0,0,0,0,0,0,0,0,-1,846,1688,0,0
-371,-664,4.08362,3.90869,0,0,0,0,0,0,0,-1,853,1688,4.08361,-3.90873
-364,-664,3.79901,3.6925,-0.00897778,-0.0224282,0.00195677,-0.0086989,-0.0227071,0.141572,0.0132289,0.0482174,860,1688,3.79901,-3.69253
-357,-664,3.43036,3.36121,-0.00758659,-0.0222128,-0.00138602,-0.00745641,-0.022343,-0.0936516,0.0131353,0.047672,867,1688,3.43038,-3.36125
-350,-664,2.94696,3.07349,0,0,0,0,0,0,0,-1,874,1688,2.94693,-3.07348
-343,-664,2.52863,2.71228,0,0,0,0,0,0,0,-1,881,1688,2.52864,-2.71232
-336,-664,2.27283,2.34705,-0.00444776,-0.0224296,-0.0105516,0.000424001,-0.0273013,-0.432546,0.0183439,0.0489808,888,1688,2.2728,-2.34707
-329,-664,2.021,1.93359,0,0,0,0,0,0,0,-1,895,1688,2.02097,-1.93355
-322,-664,-1.78772,3.60864,0,0,0,0,0,0,0,-1,902,1688,-1.78772,-3.60859
-315,-664,1.27606,2.02283,0,0,0,0,0,0,0,-1,909,1688,1.27609,-2.02284
-308,-664,1.50287,1.91382,0,0,0,0,0,0,0,-1,916,1688,1.50288,-1.91386
-301,-664,1.80292,1.81641,0,0,0,0,0,0,0,-1,923,1688,1.80293,-1.81637
-294,-664,1.29474,2.27563,0.00490939,-0.0212416,-0.00986988,0.0082163,-0.0245485,-0.323295,0.0196846,0.0406718,930,1688,1.29476,-2.27563
-287,-664,1.67682,2.1261,0.00617593,-0.019314,-0.00863567,0.00882607,-0.0219641,-0.297758,0.0183082,0.0265765,937,1688,1.67682,-2.12608
-280,-664,1.69128,2.13464,0.00659835,-0.016257,-0.00667418,0.00840458,-0.0180632,-0.2643,0.0156167,0.0160971,944,1688,1.6913,-2.13462
-273,-664,1.70001,2.15002,0.00613238,-0.0139536,-0.00417889,0.00696711,-0.0147883,-0.197154,0.0128282,0.013491,951,1688,1.70003,-2.15004
-266,-664,1.70575,2.18518,0.00554124,-0.0119099,-0.00238527,0.00586139,-0.01223,-0.133423,0.0106586,0.0210106,958,1688,1.70574,-2.18521
-259,-664,1.67365,2.20898,0.0048457,-0.00935224,-0.00175137,0.00505855,-0.00956509,-0.120939,0.00857555,0.0197905,965,1688,1.67364,-2.20895
-252,-664,1.68579,2.21484,0.00415204,-0.00714566,-0.00148574,0.00434416,-0.00733778,-0.128596,0.00681799,0.0168813,972,1688,1.68582,-2.21482
-245,-664,1.69525,2.24133,0.00363202,-0.00510261,-0.00126462,0.00381143,-0.00528202,-0.140928,0.00527295,0.0198622,979,1688,1.69525,-2.24129
-238,-664,1.72943,2.25757,0.00298752,-0.00375677,-0.00135478,0.00324949,-0.00401874,-0.19101,0.00420414,0.0227978,986,1688,1.7294,-2.25762
-231,-664,1.73193,2.29126,0.00243317,-0.00282386,-0.00140173,0.00278358,-0.00317426,-0.244957,0.00344222,0.0199897,993,1688,1.7319,-2.29128
-224,-664,1.72791,2.36133,0.00216191,-0.00202342,-0.00122988,0.00249655,-0.00235807,-0.265667,0.0028032,0.0138131,1000,1688,1.72793,-2.36135
-217,-664,1.71954,2.37891,0.00193644,-0.00134093,-0.000972098,0.00220308,-0.00160757,-0.267709,0.00220902,0.0101057,1007,1688,1.71952,-2.37885
-210,-664,1.70959,2.37976,0.0016849,-0.000870789,-0.000793158,0.00191105,-0.00109693,-0.27775,0.00175773,0.0115784,1014,1688,1.70962,-2.37974
-203,-664,1.69958,2.38574,0.00150691,-0.000475704,-0.00040199,0.00158532,-0.000554109,-0.192625,0.00128214,0.0144641,1021,1688,1.69956,-2.3858
-196,-664,1.71313,2.39746,0.00154352,-0.000428787,-3.53064e-06,0.00154353,-0.000428793,-0.0017901,0.00119781,0.0147892,1028,1688,1.71312,-2.39741
-189,-664,1.7251,2.41064,0.00176099,1.96494e-05,0.00034505,0.00182687,-4.62304e-05,0.188658,0.00123361,0.00993865,1035,1688,1.72513,-2.41068
-182,-664,1.71155,2.41528,0.00235096,0.00087455,0.000550272,0.00253348,0.000692023,0.320282,0.00151206,0.00941868,1042,1688,1.71159,-2.41524
-175,-664,1.73096,2.43042,0.00321446,0.00157977,0.000794051,0.00353667,0.00125757,0.385472,0.00207009,0.0124454,1049,1688,1.73092,-2.43044
-168,-664,1.74231,2.46033,0.00431321,0.00288887,0.000850984,0.00471071,0.00249137,0.436984,0.00272124,0.0129826,1056,1688,1.74229,-2.46031
-161,-664,1.73022,2.474,0.00538992,0.00431158,0.000984326,0.00597307,0.00372843,0.534839,0.00348384,0.00949192,1063,1688,1.73024,-2.47406
-154,-664,1.7135,2.49353,0.00676216,0.00547347,0.00101707,0.00732182,0.00491381,0.503044,0.00430898,0.00947028,1070,1688,1.71349,-2.49359
-147,-664,1.68286,2.50452,0.00831316,0.0074977,0.00115302,0.00912841,0.00668244,0.61545,0.0054562,0.0107029,1077,1688,1.6828,-2.50456
-140,-664,1.69409,2.51025,0.00918105,0.00906688,0.00113068,0.0102561,0.00799185,0.760175,0.00622153,0.0106933,1084,1688,1.69415,-2.51029
-133,-664,1.71777,2.56641,0.00913505,0.00986179,0.00131299,0.0108608,0.00813608,0.920395,0.00652476,0.0106416,1091,1688,1.71782,-2.56645
-126,-664,1.76721,2.59314,0.00879143,0.0109277,0.00144164,0.0116538,0.00806534,1.10423,0.00689181,0.0189047,1098,1688,1.76715,-2.59308
-119,-664,1.66187,2.61584,0.00789139,0.0117698,0.00137469,0.0122077,0.00745356,1.26246,0.00710531,0.0352374,1105,1688,1.66189,-2.61579
-112,-664,1.58667,2.70532,0.00656254,0.0120329,0.00127526,0.0123156,0.00627986,1.35266,0.00711089,0.0418753,1112,1688,1.58665,-2.70538
-105,-664,1.75586,2.72717,0.00379755,0.0117506,0.00110899,0.0119024,0.00364581,1.43481,0.0070416,0.0427443,1119,1688,1.75589,-2.72722
-98,-664,1.95715,2.69824,0.000303989,0.0100817,0.000546368,0.0101121,0.000273554,1.51515,0.00665212,0.0419682,1126,1688,1.95718,-2.6982
-91,-664,1.97986,2.83728,-0.0029582,0.00796635,-0.000527512,0.00799176,-0.00298361,-1.52266,0.00655284,0.0438237,1133,1688,1.97983,-2.83728
-84,-664,1.65015,2.45264,-0.00538372,0.00466581,-0.00264555,0.00531971,-0.00603762,-1.32848,0.00656152,0.044901,1140,1688,1.65014,-2.45262
-77,-664,1.23254,2.91431,-0.0072437,0.000974171,-0.00475789,0.0031518,-0.00942133,-1.14157,0.00755394,0.0446205,1147,1688,1.2325,-2.91425
-70,-664,0.627808,3.36121,-0.00891429,-0.00189498,-0.00702701,0.00245008,-0.0132593,-1.017,0.00975932,0.047193,1154,1688,0.627799,-3.36126
-63,-664,-0.0107422,3.80493,0,0,0,0,0,0,0,-1,1161,1688,-0.0107649,-3.80498
-56,-664,0.653564,2.30884,0,0,0,0,0,0,0,-1,1168,1688,0.653605,-2.30882
-49,-664,0.0720215,1.79578,0,0,0,0,0,0,0,-1,1175,1688,0.0719733,-1.79572
-42,-664,-0.105347,1.55115,-0.012455,-0.0169941,-0.0152418,0.000685279,-0.0301344,-0.711488,0.0203219,0.04832,1182,1688,-0.105355,-1.55117
-35,-664,0.0810547,1.07849,-0.0129798,-0.0203234,-0.0171474,0.000884512,-0.0341877,-0.679925,0.0230923,0.0471179,1189,1688,0.08109,-1.07854
-28,-664,0.0959473,0.544922,-0.0126685,-0.0223894,-0.0189958,0.00207881,-0.0371367,-0.66015,0.025479,0.0440089,1196,1688,0.0959057,-0.544955
-21,-664,0.736938,2.92847,0,0,0,0,0,0,0,-1,1203,1688,0.736915,-2.92851
-14,-664,1.07153,2.55969,0,0,0,0,0,0,0,-1,1210,1688,1.07153,-2.55968
-7,-664,1.04773,2.32947,0,0,0,0,0,0,0,-1,1217,1688,1.04774,-2.32948
0,-664,0.969971,2.22217,-0.0054072,-0.0198064,-0.0208053,0.00940894,-0.0346225,-0.618824,0.0267749,0.0464397,1224,1688,0.970014,-2.22212
7,-664,0.979858,1.89453,-0.000951157,-0.0152188,-0.0205277,0.013647,-0.0298169,-0.618166,0.0256663,0.0449579,1231,1688,0.979874,-1.89456
14,-664,0.853271,1.60706,0.00665981,-0.0092036,-0.0191316,0.0194388,-0.0219825,-0.58889,0.0239296,0.0437317,1238,1688,0.853317,-1.60705
21,-664,0.651245,1.07019,0.0168843,-0.00252192,-0.0172116,0.0269394,-0.0125771,-0.528727,0.0233117,0.044968,1245,1688,0.651281,-1.07024
28,-664,1.92456,1.36633,0.0288483,0.00472442,-0.0151897,0.0361827,-0.00260999,-0.449836,0.0250372,0.0427076,1252,1688,1.92455,-1.36639
35,-664,2.19397,1.1731,0,0,0,0,0,0,0,-1,1259,1688,2.19392,-1.17314
42,-664,1.23242,6.81274,0.0524649,0.0166264,-0.0107733,0.0554541,0.0136372,-0.270655,0.033366,0.0452773,1266,1688,1.23236,-6.81273
49,-664,1.43933,6.00244,0.0630736,0.019277,-0.00886349,0.0647994,0.0175512,-0.1923,0.0386994,0.04269,1273,1688,1.43939,-6.00249
56,-664,1.27905,5.7915,0,0,0,0,0,0,0,-1,1280,1688,1.27903,-5.79153
63,-664,1.4303,4.9751,0.0769032,0.0193718,-0.0046743,0.0772805,0.0189945,-0.0805439,0.0465005,0.0493047,1287,1688,1.43034,-4.97505
70,-664,1.82764,4.28369,0.0776268,0.0173145,-0.00241913,0.0777237,0.0172176,-0.0400243,0.0471367,0.0493527,1294,1688,1.82763,-4.28374
77,-664,2.43298,3.80469,0.0741342,0.0179304,0.00378124,0.0743875,0.0176772,0.0668756,0.0448752,0.0432741,1301,1688,2.433,-3.80466
84,-664,2.94763,3.1792,0.0697738,0.0141127,0.00792981,0.0708814,0.013005,0.138788,0.0435711,0.0442789,1308,1688,2.94758,-3.17921
91,-664,3.26257,2.40991,0.0663537,0.0140763,0.00909398,0.0678905,0.0125396,0.167407,0.0417135,0.0440849,1315,1688,3.26255,-2.40994
98,-664,3.55859,1.73108,0,0,0,0,0,0,0,-1,1322,1688,3.55864,-1.73109
105,-664,3.64612,1.05005,0,0,0,0,0,0,0,-1,1329,1688,3.6461,-1.05006
112,-664,4.18176,-0.267944,0,0,0,0,0,0,0,-1,1336,1688,4.18176,0.267895
119,-664,5.83423,1.96216,0,0,0,0,0,0,0,-1,1343,1688,5.83423,-1.96211
126,-664,-1.36121,9.4397,0,0,0,0,0,0,0,-1,1350,1688,-1.36122,-9.43973
133,-664,-0.75293,8.38806,0,0,0,0,0,0,0,-1,1357,1688,-0.752879,-8.388
140,-664,0.125488,7.21448,0,0,0,0,0,0,0,-1,1364,1688,0.12551,-7.21444
147,-664,3.53552,1.91162,0,0,0,0,0,0,0,-1,1371,1688,3.53551,-1.91158
154,-664,4.71106,5.6604,0,0,0,0,0,0,0,-1,1378,1688,4.71102,-5.66041
161,-664,4.78516,4.96387,0.0437141,0.0386573,-0.0287734,0.07007,0.0123014,-0.741574,0.0432007,0.0475597,1385,1688,4.78517,-4.96385
168,-664,4.67175,4.58606,0,0,0,0,0,0,0,-1,1392,1688,4.67179,-4.58604
175,-664,4.34839,4.4032,0.0372041,0.0245831,-0.0298017,0.0613561,0.000431007,-0.681065,0.0407612,0.0454567,1399,1688,4.34839,-4.40316
182,-664,4.05579,4.02332,0.0342827,0.0140778,-0.030304,0.0561238,-0.00776331,-0.624506,0.040254,0.044612,1406,1688,4.0558,-4.02335
189,-664,3.94153,3.6554,0.0287867,0.00830656,-0.0214046,0.0422745,-0.00518129,-0.562286,0.0300593,0.0435378,1413,1688,3.9415,-3.65535
196,-664,3.67163,2.86926,0.0241357,0.00215725,-0.0119897,0.0294104,-0.00311743,-0.414454,0.0207244,0.0432044,1420,1688,3.67164,-2.86929
203,-664,3.21448,2.06055,0.0200304,-0.00142151,-0.00400533,0.0207538,-0.00214495,-0.178694,0.0146035,0.0437634,1427,1688,3.21442,-2.06052
210,-664,2.79529,2.27625,0,0,0,0,0,0,0,-1,1434,1688,2.79534,-2.27629
217,-664,2.85681,2.03589,0.0203769,-0.000725014,0.00989549,0.0242912,-0.0046393,0.376675,0.0179416,0.0438455,1441,1688,2.8568,-2.03593
224,-664,2.99011,1.74451,0.0226807,0.000464687,0.0133734,0.0289576,-0.00581221,0.438835,0.0215059,0.0495172,1448,1688,2.99013,-1.74456
231,-664,4.05383,2.98401,0.0241776,0.00155628,0.0165382,0.032903,-0.00716906,0.485474,0.0246746,0.0433714,1455,1688,4.0538,-2.98407
238,-664,4.01978,2.67407,0.0243631,0.00324496,0.0182549,0.0348928,-0.00728472,0.523196,0.0260321,0.0424418,1462,1688,4.01977,-2.67405
245,-664,3.65271,2.18762,0,0,0,0,0,0,0,-1,1469,1688,3.65277,-2.18757
252,-664,2.1748,2.96606,0,0,0,0,0,0,0,-1,1476,1688,2.17481,-2.96601
259,-664,2.21619,2.91443,0.0222738,0.0033629,0.0131617,0.0290244,-0.00338769,0.473912,0.020572,0.0447062,1483,1688,2.21619,-2.91438
266,-664,2.19836,2.73157,0.0196001,0.00218652,0.00965047,0.023891,-0.00210438,0.41838,0.0166731,0.0324773,1490,1688,2.19835,-2.73162
273,-664,2.04175,2.60425,0.0164627,0.0020169,0.0064252,0.018907,-0.000427335,0.363508,0.0127495,0.0279659,1497,1688,2.04177,-2.60419
280,-664,1.99976,2.53271,0.0129904,-0.000404657,0.00295273,0.0136124,-0.00102666,0.207617,0.00943581,0.020971,1504,1688,1.99977,-2.53271
287,-664,2.03491,2.47485,0.0104074,-0.000528374,0.00113775,0.0105245,-0.000645491,0.102576,0.00724111,0.0194026,1511,1688,2.03491,-2.47479
294,-664,2.0603,2.44641,0.00860233,3.11687e-05,0.000758133,0.00866887,-3.53726e-05,0.0875459,0.00579107,0.0135728,1518,1688,2.06027,-2.4464
301,-664,2.03772,2.42139,0.0067294,0.000733367,0.0011047,0.00692646,0.000536314,0.17652,0.00444965,0.00936296,1525,1688,2.03774,-2.42144
308,-664,2.03101,2.4231,0.00506481,0.00112257,0.0012034,0.00540312,0.000784257,0.274058,0.00337121,0.0102926,1532,1688,2.03096,-2.42307
315,-664,2.02368,2.39478,0.00368126,0.00109821,0.000693721,0.00385578,0.000923694,0.246456,0.00232462,0.0113922,1539,1688,2.0237,-2.39476
322,-664,2.0105,2.396,0.00216935,0.00135964,0.00024149,0.0022359,0.00129309,0.268916,0.00129617,0.0145576,1546,1688,2.01053,-2.39599
329,-664,2.02368,2.3999,0.000947769,0.00157671,-0.000142301,0.0016074,0.000917071,-1.35833,0.000931107,0.0160843,1553,1688,2.02373,-2.39985
336,-664,2.03516,2.36267,0.000766057,0.00144044,-0.000186642,0.00148865,0.000717848,-1.31803,0.000859653,0.0134957,1560,1688,2.03514,-2.36264
343,-664,2.04004,2.32104,0.00081703,0.00130394,-6.03947e-05,0.00131132,0.000809651,-1.44921,0.000764018,0.011278,1567,1688,2.04005,-2.321
350,-664,2.01965,2.30908,0.000731799,0.00147789,9.96483e-05,0.00149097,0.000718719,1.44028,0.000860996,0.0129506,1574,1688,2.01961,-2.30909
357,-664,2.00977,2.28687,0.000910466,0.00173335,0.0002699,0.00181398,0.000829841,1.28051,0.00104856,0.0131342,1581,1688,2.0098,-2.28682
364,-664,2.02991,2.25208,0.00156508,0.0022998,3.00289e-06,0.00229981,0.00156507,1.56671,0.00135634,0.0106088,1588,1688,2.02989,-2.25205
371,-664,2.04553,2.23975,0.00182819,0.00284602,7.9594e-05,0.00285221,0.001822,1.49322,0.00166774,0.0127719,1595,1688,2.04552,-2.23978
378,-664,2.03955,2.21204,0.00292192,0.00358926,-0.000270103,0.00368489,0.00282629,-1.23055,0.00222628,0.0122723,1602,1688,2.03957,-2.21198
385,-664,2.02917,2.19495,0.00522181,0.00475985,0.00054286,0.00558079,0.00440088,0.584257,0.00339624,0.0136127,1609,1688,2.02916,-2.19494
392,-664,2.00464,2.18457,0.00646476,0.00625694,0.000406913,0.00678082,0.00594088,0.660391,0.0042682,0.0165596,1616,1688,2.00466,-2.18462
399,-664,2.01086,2.13416,0.00788535,0.00795147,0.000493239,0.00841276,0.00742406,0.818863,0.00530971,0.0130849,1623,1688,2.0109,-2.13417
406,-664,2.01587,2.12231,0.00976427,0.00983934,0.000789957,0.0105927,0.00901095,0.809139,0.00659804,0.011224,1630,1688,2.01583,-2.12228
413,-664,2.03333,2.10913,0.0121235,0.011694,0.00141928,0.0133441,0.0104733,0.710319,0.00811032,0.0101726,1637,1688,2.03329,-2.1091
420,-664,2.02856,2.06372,0.0142319,0.0135032,0.00228945,0.0161858,0.0115493,0.706495,0.00962477,0.0212868,1644,1688,2.02858,-2.06378
427,-664,2.16687,2.12781,0.0158115,0.0150691,0.00334543,0.0188062,0.0120743,0.730149,0.0110029,0.0401371,1651,1688,2.16684,-2.12786
434,-664,1.92249,2,0.0161782,0.0176018,0.00516421,0.0221031,0.011677,0.853883,0.012768,0.045776,1658,1688,1.92254,-2.00001
441,-664,1.76404,1.81409,0.0150926,0.0197262,0.0069784,0.0247624,0.0100565,0.94567,0.0143803,0.0448004,1665,1688,1.764,-1.81409
448,-664,1.61401,1.72437,0.0137504,0.0217011,0.00914486,0.0276973,0.00775415,0.990431,0.0164991,0.0431092,1672,1688,1.61398,-1.72433
455,-664,1.64612,1.79846,0.0117227,0.0234555,0.0116083,0.0305956,0.00458263,1.01936,0.0190541,0.0466643,1679,1688,1.64616,-1.79845
462,-664,2.03796,1.97974,0.00679994,0.0260083,0.0143184,0.0336452,-0.000836996,1.08081,0.0227143,0.0481775,1686,1688,2.03801,-1.97979
469,-664,2.35156,2.42688,0.000102142,0.0288857,0.0173544,0.0370394,-0.00805156,1.13157,0.0277686,0.0450534,1693,1688,2.35161,-2.42686
476,-664,2.17908,2.19165,0,0,0,0,0,0,0,-1,1700,1688,2.17903,-2.1917
483,-664,1.66663,1.84338,-0.0179462,0.0378807,0.0216286,0.0452795,-0.025345,1.24119,0.041313,0.0481163,1707,1688,1.66667,-1.84338
490,-664,1.18213,2.46814,-0.0306971,0.0464587,0.0189456,0.0508597,-0.0350981,1.34255,0.0499051,0.0478404,1714,1688,1.18218,-2.46817
497,-664,0,0,0,0,0,0,0,0,0,-1,1721,1688,0,0
504,-664,0,0,0,0,0,0,0,0,0,-1,1728,1688,0,0
511,-664,0,0,0,0,0,0,0,0,0,-1,1735,1688,0,0
518,-664,0,0,0,0,0,0,0,0,0,-1,1742,1688,0,0
525,-664,0,0,0,0,0,0,0,0,0,-1,1749,1688,0,0
532,-664,0,0,0,0,0,0,0,0,0,-1,1756,1688,0,0
539,-664,0,0,0,0,0,0,0,0,0,-1,1763,1688,0,0
546,-664,0,0,0,0,0,0,0,0,0,-1,1770,1688,0,0
553,-664,0,0,0,0,0,0,0,0,0,-1,1777,1688,0,0
560,-664,0,0,0,0,0,0,0,0,0,-1,1784,1688,0,0
567,-664,0,0,0,0,0,0,0,0,0,-1,1791,1688,0,0
574,-664,0,0,0,0,0,0,0,0,0,-1,1798,1688,0,0
581,-664,0,0,0,0,0,0,0,0,0,-1,1805,1688,0,0
588,-664,0,0,0,0,0,0,0,0,0,-1,1812,1688,0,0
595,-664,0,0,0,0,0,0,0,0,0,-1,1819,1688,0,0
602,-664,0,0,0,0,0,0,0,0,0,-1,1826,1688,0,0
609,-664,0,0,0,0,0,0,0,0,0,-1,1833,1688,0,0
616,-664,0,0,0,0,0,0,0,0,0,-1,1840,1688,0,0
623,-664,0,0,0,0,0,0,0,0,0,-1,1847,1688,0,0
630,-664,0,0,0,0,0,0,0,0,0,-1,1854,1688,0,0
637,-664,0,0,0,0,0,0,0,0,0,-1,1861,1688,0,0
644,-664,0,0,0,0,0,0,0,0,0,-1,1868,1688,0,0
651,-664,0,0,0,0,0,0,0,0,0,-1,1875,1688,0,0
658,-664,0,0,0,0,0,0,0,0,0,-1,1882,1688,0,0
665,-664,0,0,0,0,0,0,0,0,0,-1,1889,1688,0,0
672,-664,0,0,0,0,0,0,0,0,0,-1,1896,1688,0,0
679,-664,0,0,0,0,0,0,0,0,0,-1,1903,1688,0,0
686,-664,0,0,0,0,0,0,0,0,0,-1,1910,1688,0,0
693,-664,0,0,0,0,0,0,0,0,0,-1,1917,1688,0,0
700,-664,0,0,0,0,0,0,0,0,0,-1,1924,1688,0,0
707,-664,0,0,0,0,0,0,0,0,0,-1,1931,1688,0,0
714,-664,0,0,0,0,0,0,0,0,0,-1,1938,1688,0,0
721,-664,0,0,0,0,0,0,0,0,0,-1,1945,1688,0,0
728,-664,0,0,0,0,0,0,0,0,0,-1,1952,1688,0,0
735,-664,0,0,0,0,0,0,0,0,0,-1,1959,1688,0,0
742,-664,0,0,0,0,0,0,0,0,0,-1,1966,1688,0,0
749,-664,0,0,0,0,0,0,0,0,0,-1,1973,1688,0,0
756,-664,0,0,0,0,0,0,0,0,0,-1,1980,1688,0,0
763,-664,0,0,0,0,0,0,0,0,0,-1,1987,1688,0,0
770,-664,0,0,0,0,0,0,0,0,0,-1,1994,1688,0,0
777,-664,0,0,0,0,0,0,0,0,0,-1,2001,1688,0,0
784,-664,0,0,0,0,0,0,0,0,0,-1,2008,1688,0,0
791,-664,0,0,0,0,0,0,0,0,0,-1,2015,1688,0,0
798,-664,0,0,0,0,0,0,0,0,0,-1,2022,1688,0,0
805,-664,0,0,0,0,0,0,0,0,0,-1,2029,1688,0,0
812,-664,0,0,0,0,0,0,0,0,0,-1,2036,1688,0,0
-700,-671,0,0,0,0,0,0,0,0,0,-1,524,1695,0,0
-693,-671,0,0,0,0,0,0,0,0,0,-1,531,1695,0,0
-686,-671,0,0,0,0,0,0,0,0,0,-1,538,1695,0,0
-679,-671,0,0,0,0,0,0,0,0,0,-1,545,1695,0,0
-672,-671,0,0,0,0,0,0,0,0,0,-1,552,1695,0,0
-665,-671,0,0,0,0,0,0,0,0,0,-1,559,1695,0,0
-658,-671,0,0,0,0,0,0,0,0,0,-1,566,1695,0,0
-651,-671,0,0,0,0,0,0,0,0,0,-1,573,1695,0,0
-644,-671,0,0,0,0,0,0,0,0,0,-1,580,1695,0,0
-637,-671,0,0,0,0,0,0,0,0,0,-1,587,1695,0,0
-630,-671,0,0,0,0,0,0,0,0,0,-1,594,1695,0,0
-623,-671,0,0,0,0,0,0,0,0,0,-1,601,1695,0,0
-616,-671,0,0,0,0,0,0,0,0,0,-1,608,1695,0,0
-609,-671,0,0,0,0,0,0,0,0,0,-1,615,1695,0,0
-602,-671,0,0,0,0,0,0,0,0,0,-1,622,1695,0,0
-595,-671,0,0,0,0,0,0,0,0,0,-1,629,1695,0,0
-588,-671,0,0,0,0,0,0,0,0,0,-1,636,1695,0,0
-581,-671,0,0,0,0,0,0,0,0,0,-1,643,1695,0,0
-574,-671,0,0,0,0,0,0,0,0,0,-1,650,1695,0,0
-567,-671,0,0,0,0,0,0,0,0,0,-1,657,1695,0,0
-560,-671,0,0,0,0,0,0,0,0,0,-1,664,1695,0,0
-553,-671,0,0,0,0,0,0,0,0,0,-1,671,1695,0,0
-546,-671,0,0,0,0,0,0,0,0,0,-1,678,1695,0,0
-539,-671,0,0,0,0,0,0,0,0,0,-1,685,1695,0,0
-532,-671,0,0,0,0,0,0,0,0,0,-1,692,1695,0,0
-525,-671,0,0,0,0,0,0,0,0,0,-1,699,1695,0,0
-518,-671,0,0,0,0,0,0,0,0,0,-1,706,1695,0,0
-511,-671,0,0,0,0,0,0,0,0,0,-1,713,1695,0,0
-504,-671,0,0,0,0,0,0,0,0,0,-1,720,1695,0,0
-497,-671,0,0,0,0,0,0,0,0,0,-1,727,1695,0,0
-490,-671,0,0,0,0,0,0,0,0,0,-1,734,1695,0,0
-483,-671,0,0,0,0,0,0,0,0,0,-1,741,1695,0,0
-476,-671,0,0,0,0,0,0,0,0,0,-1,748,1695,0,0
-469,-671,0,0,0,0,0,0,0,0,0,-1,755,1695,0,0
-462,-671,0,0,0,0,0,0,0,0,0,-1,762,1695,0,0
-455,-671,0,0,0,0,0,0,0,0,0,-1,769,1695,0,0
-448,-671,0,0,0,0,0,0,0,0,0,-1,776,1695,0,0
-441,-671,0,0,0,0,0,0,0,0,0,-1,783,1695,0,0
-434,-671,0,0,0,0,0,0,0,0,0,-1,790,1695,0,0
-427,-671,0,0,0,0,0,0,0,0,0,-1,797,1695,0,0
-420,-671,0,0,0,0,0,0,0,0,0,-1,804,1695,0,0
-413,-671,0,0,0,0,0,0,0,0,0,-1,811,1695,0,0
-406,-671,0,0,0,0,0,0,0,0,0,-1,818,1695,0,0
-399,-671,0,0,0,0,0,0,0,0,0,-1,825,1695,0,0
-392,-671,0,0,0,0,0,0,0,0,0,-1,832,1695,0,0
-385,-671,0,0,0,0,0,0,0,0,0,-1,839,1695,0,0
-378,-671,0,0,0,0,0,0,0,0,0,-1,846,1695,0,0
-371,-671,0,0,0,0,0,0,0,0,0,-1,853,1695,0,0
-364,-671,3.60071,3.1947,-0.0224534,-0.0126966,0.00560044,-0.0101478,-0.0250022,1.1437,0.01452,0.0461816,860,1695,3.60069,-3.19472
-357,-671,3.27759,2.92529,-0.0186768,-0.0164445,0.00131939,-0.0158325,-0.0192888,1.13646,0.0118759,0.0419885,867,1695,3.27756,-2.92534
-350,-671,2.9292,2.79187,-0.0155809,-0.0200573,-0.00335186,-0.0137886,-0.0218495,-0.491024,0.0127585,0.0456508,874,1695,2.92922,-2.79184
-343,-671,2.62091,2.51282,-0.0130011,-0.0228378,-0.00802731,-0.00850517,-0.0273337,-0.510544,0.0161519,0.0486538,881,1695,2.62091,-2.51281
-336,-671,2.3277,2.24243,-0.00960428,-0.0245021,-0.0114898,-0.00336009,-0.0307463,-0.497806,0.0194743,0.0453197,888,1695,2.32768,-2.24247
-329,-671,-0.979004,4.59229,0,0,0,0,0,0,0,-1,895,1695,-0.979024,-4.59229
-322,-671,-0.353027,3.82092,-0.00468306,-0.0272005,-0.0150612,0.00286244,-0.034746,-0.464438,0.0241747,0.0484185,902,1695,-0.353022,-3.82088
-315,-671,0.256775,3.53589,-0.00217974,-0.0277325,-0.0154065,0.0050588,-0.034971,-0.439227,0.0251703,0.0456045,909,1695,0.256774,-3.53588
-308,-671,1.46606,1.88098,0,0,0,0,0,0,0,-1,916,1695,1.46606,-1.88099
-301,-671,1.03229,2.39221,0.00320971,-0.0282515,-0.0134552,0.0081792,-0.033221,-0.353796,0.025318,0.0451752,923,1695,1.03229,-2.39224
-294,-671,1.16504,2.32947,0.00584292,-0.0275243,-0.0118331,0.00961327,-0.0312947,-0.308458,0.0246992,0.0477262,930,1695,1.16503,-2.32943
-287,-671,1.409,2.25146,0.00743135,-0.0250276,-0.0105213,0.0105434,-0.0281397,-0.287584,0.0230911,0.0407585,937,1695,1.40902,-2.25147
-280,-671,1.67749,2.17554,0.00803587,-0.0211096,-0.008301,0.0102343,-0.023308,-0.258893,0.0198499,0.0342202,944,1695,1.67751,-2.17553
-273,-671,1.71808,2.15955,0.00758105,-0.0180598,-0.00535877,0.00865594,-0.0191347,-0.197958,0.0164207,0.0316365,951,1695,1.7181,-2.15951
-266,-671,1.75671,2.17725,0.00697469,-0.0153773,-0.00334206,0.00746369,-0.0158663,-0.145287,0.0137577,0.023747,958,1695,1.7567,-2.17726
-259,-671,1.73468,2.18909,0.00616675,-0.0119707,-0.00274752,0.00657382,-0.0123778,-0.147088,0.0111114,0.0218177,965,1695,1.73467,-2.18903
-252,-671,1.71301,2.19324,0.00531317,-0.00909246,-0.00246107,0.00572202,-0.00950131,-0.164622,0.00887902,0.0174496,972,1695,1.71299,-2.19319
-245,-671,1.70026,2.24365,0.00467455,-0.00653176,-0.00219427,0.00508889,-0.0069461,-0.186628,0.00697592,0.0198962,979,1695,1.70023,-2.2436
-238,-671,1.74713,2.29944,0.0037792,-0.00476522,-0.00221689,0.00432014,-0.00530616,-0.239331,0.00556746,0.0202235,986,1695,1.74713,-2.29938
-231,-671,1.73596,2.3175,0.00293033,-0.00342225,-0.00217709,0.00360482,-0.00409675,-0.300437,0.00444952,0.0156617,993,1695,1.73596,-2.31747
-224,-671,1.729,2.32825,0.00248503,-0.00216619,-0.00197093,0.00320787,-0.00288903,-0.351518,0.00352165,0.0121412,1000,1695,1.72902,-2.32819
-217,-671,1.73987,2.34155,0.00210644,-0.00118461,-0.00176151,0.00287145,-0.00194962,-0.409714,0.00280036,0.0113947,1007,1695,1.73986,-2.34157
-210,-671,1.73486,2.35742,0.00159872,-0.00050799,-0.00151304,0.00238896,-0.00129823,-0.481317,0.00215962,0.0112289,1014,1695,1.73488,-2.35738
-203,-671,1.71271,2.38525,0.00119836,1.38256e-05,-0.00106926,0.00182843,-0.000616238,-0.53248,0.00146813,0.0189141,1021,1695,1.71271,-2.3852
-196,-671,1.72546,2.40161,0.00113766,0.000132099,-0.000692358,0.00149054,-0.000220776,-0.471355,0.00107487,0.0161508,1028,1695,1.72542,-2.40157
-189,-671,1.76611,2.43701,0.0012664,0.000442641,-0.000454659,0.001468,0.000241038,-0.417364,0.000909035,0.0116819,1035,1695,1.76612,-2.43699
-182,-671,1.73022,2.43616,0.00150443,0.000949687,-7.97761e-05,0.00151567,0.000938443,-0.140028,0.000883319,0.0092755,1042,1695,1.73023,-2.43617
-175,-671,1.73694,2.44849,0.00181408,0.00152726,0.000195197,0.00191289,0.00142845,0.46858,0.00114836,0.0120786,1049,1695,1.73688,-2.44848
-168,-671,1.74231,2.45959,0.00223137,0.00252823,0.000417647,0.00282304,0.00193656,0.956138,0.00166704,0.012973,1056,1695,1.74235,-2.45961
-161,-671,1.74475,2.50391,0.00259248,0.00377884,0.000754031,0.00414505,0.00222627,1.11868,0.00239534,0.0090469,1063,1695,1.74475,-2.50388
-154,-671,1.73083,2.49902,0.00311347,0.00480441,0.00104446,0.00530271,0.00261517,1.12565,0.00306162,0.0086326,1070,1695,1.73084,-2.49906
-147,-671,1.71765,2.50171,0.00381659,0.00664616,0.00146219,0.00726598,0.00319677,1.16986,0.00420508,0.0104992,1077,1695,1.71769,-2.50166
-140,-671,1.74133,2.52844,0.00411467,0.00834856,0.00178305,0.00899942,0.00346381,1.2208,0.00524151,0.0111214,1084,1695,1.74131,-2.52842
-133,-671,1.74524,2.5415,0.00372669,0.0093282,0.00224001,0.0101138,0.00294109,1.23349,0.00600715,0.0119046,1091,1695,1.74523,-2.54147
-126,-671,1.77966,2.55762,0.00308708,0.010558,0.00262421,0.0113877,0.00225744,1.26459,0.00696238,0.0144034,1098,1695,1.77966,-2.55766
-119,-671,1.78723,2.57068,0.00209432,0.0117123,0.00280248,0.0124693,0.00133732,1.30697,0.00790488,0.0264364,1105,1695,1.78725,-2.57068
-112,-671,1.73779,2.62036,0.000848092,0.0125466,0.00295667,0.0132514,0.000143289,1.33679,0.00878691,0.0320323,1112,1695,1.73779,-2.6204
-105,-671,1.71094,2.65332,-0.00126172,0.0127612,0.00274326,0.0132788,-0.00177928,1.38432,0.0095013,0.0326048,1119,1695,1.71093,-2.65334
-98,-671,1.83923,2.60449,-0.00376142,0.0116116,0.00202581,0.0118741,-0.00402389,1.44195,0.00954439,0.029229,1126,1695,1.83918,-2.60448
-91,-671,1.88269,2.60278,-0.00596953,0.00978271,0.00083919,0.0098273,-0.00601411,1.51772,0.00923394,0.0319902,1133,1695,1.88265,-2.60278
-84,-671,1.61902,2.65039,-0.00759837,0.00665867,-0.00128205,0.00677304,-0.00771274,-1.48182,0.00836924,0.039717,1140,1695,1.61908,-2.65041
-77,-671,1.43652,2.85364,-0.00852526,0.00301793,-0.00366763,0.00408467,-0.009592,-1.28775,0.00810682,0.0426709,1147,1695,1.43652,-2.85368
-70,-671,1.02332,3.14246,-0.00923202,-0.000208644,-0.00593978,0.00273864,-0.0121793,-1.1102,0.00916977,0.0409385,1154,1695,1.02332,-3.14249
-63,-671,1.37622,2.80884,0,0,0,0,0,0,0,-1,1161,1695,1.37628,-2.80881
-56,-671,0.23291,2.26196,0,0,0,0,0,0,0,-1,1168,1695,0.232884,-2.26192
-49,-671,0.312866,2.49304,0,0,0,0,0,0,0,-1,1175,1695,0.312833,-2.49305
-42,-671,-0.0512695,1.92017,0,0,0,0,0,0,0,-1,1182,1695,-0.0512296,-1.92018
-35,-671,0.0628662,1.48865,-0.01057,-0.0183758,-0.0155664,0.00157534,-0.0305211,-0.662568,0.0208923,0.0475581,1189,1695,0.0628508,-1.48868
-28,-671,0.0948486,0.856323,-0.00989482,-0.0203126,-0.0172273,0.00289384,-0.0331012,-0.638587,0.0230926,0.0460307,1196,1695,0.0949031,-0.856304
-21,-671,0.241089,3.2804,0,0,0,0,0,0,0,-1,1203,1695,0.241055,-3.28042
-14,-671,0.568237,2.92554,0,0,0,0,0,0,0,-1,1210,1695,0.56826,-2.92553
-7,-671,1.14978,2.59277,0,0,0,0,0,0,0,-1,1217,1695,1.14983,-2.59275
0,-671,1.27734,2.37744,-0.00285813,-0.0174693,-0.0184481,0.00967829,-0.0300057,-0.596869,0.0238925,0.0448919,1224,1695,1.27734,-2.37742
7,-671,1.2655,2.04395,0.000496277,-0.0130602,-0.0180965,0.0130423,-0.0256063,-0.606205,0.0227034,0.044835,1231,1695,1.26547,-2.04394
14,-671,1.26514,1.77966,0.00613836,-0.00717792,-0.0169374,0.0176793,-0.0187189,-0.598125,0.0210173,0.0431473,1238,1695,1.26508,-1.77962
21,-671,1.68677,1.5116,0.0136904,-0.000684779,-0.0153141,0.0234197,-0.0104141,-0.565985,0.0200092,0.0441432,1245,1695,1.68683,-1.51165
28,-671,2.32593,1.36304,0.0225225,0.00638431,-0.0136055,0.0302718,-0.00136496,-0.517742,0.0206512,0.0461985,1252,1695,2.32597,-1.36301
35,-671,0.902222,5.32959,0,0,0,0,0,0,0,-1,1259,1695,0.902168,-5.32954
42,-671,1.2063,4.97546,0.0398531,0.0176423,-0.00991349,0.0436342,0.0138612,-0.364376,0.0257445,0.0441592,1266,1695,1.20629,-4.97548
49,-671,1.31274,4.71216,0.0478906,0.0203497,-0.00827466,0.0501855,0.0180548,-0.27054,0.029352,0.0418106,1273,1695,1.31275,-4.7122
56,-671,0.985474,4.27087,0.0544311,0.0210806,-0.00650808,0.0556561,0.0198556,-0.186051,0.0325696,0.0435203,1280,1695,0.985452,-4.27081
63,-671,1.01172,3.75183,0.0589595,0.0205301,-0.00462184,0.0595075,0.0199821,-0.118026,0.0349689,0.0499047,1287,1695,1.01167,-3.75181
70,-671,1.56555,3.78882,0.0597436,0.0180247,-0.00227632,0.0598674,0.0179008,-0.0543482,0.0354831,0.0466669,1294,1695,1.56551,-3.78886
77,-671,2.19812,3.38562,0.0573446,0.0178976,0.00339036,0.0576339,0.0176083,0.0851153,0.0341037,0.0450116,1301,1695,2.19815,-3.38556
84,-671,2.59216,2.99878,0.0544557,0.0139988,0.00711894,0.0556718,0.0127827,0.169195,0.0336723,0.0486357,1308,1695,2.59222,-2.99876
91,-671,2.77917,2.3916,0.0522949,0.0126006,0.00861009,0.054082,0.0108135,0.204659,0.0330453,0.0456757,1315,1695,2.77923,-2.39165
98,-671,3.06433,1.76892,0.0498562,0.0136898,0.00986918,0.052374,0.0111719,0.249793,0.031852,0.043764,1322,1695,3.06431,-1.76892
105,-671,3.28455,1.16528,0.0448864,0.0159358,0.00821785,0.0470565,0.0137657,0.258171,0.0279368,0.0470971,1329,1695,3.28452,-1.16534
112,-671,3.56189,0.504028,0,0,0,0,0,0,0,-1,1336,1695,3.56187,-0.504032
119,-671,4.64478,1.03906,0,0,0,0,0,0,0,-1,1343,1695,4.64474,-1.0391
126,-671,4.70825,0.76355,0,0,0,0,0,0,0,-1,1350,1695,4.70824,-0.763606
133,-671,2.58777,2.26746,0,0,0,0,0,0,0,-1,1357,1695,2.58778,-2.26751
140,-671,2.82227,2.65491,0,0,0,0,0,0,0,-1,1364,1695,2.82231,-2.65493
147,-671,3.02258,2.19019,0,0,0,0,0,0,0,-1,1371,1695,3.02253,-2.19013
154,-671,4.4884,4.8833,0,0,0,0,0,0,0,-1,1378,1695,4.48846,-4.88324
161,-671,4.54175,4.0697,0,0,0,0,0,0,0,-1,1385,1695,4.54169,-4.06971
168,-671,4.76392,3.63354,0,0,0,0,0,0,0,-1,1392,1695,4.76386,-3.63353
175,-671,4.54102,3.5343,0,0,0,0,0,0,0,-1,1399,1695,4.54105,-3.53426
182,-671,4.14392,3.24414,0,0,0,0,0,0,0,-1,1406,1695,4.14396,-3.24411
189,-671,3.31299,2.92505,0,0,0,0,0,0,0,-1,1413,1695,3.31295,-2.92511
196,-671,2.7113,2.67407,0,0,0,0,0,0,0,-1,1420,1695,2.7113,-2.6741
203,-671,2.76013,2.42639,0.0135434,0.00329842,-0.00123339,0.0136897,0.00315203,-0.118141,0.00827833,0.0405597,1427,1695,2.76018,-2.42635
210,-671,2.55518,2.44385,0.0117618,0.00223074,0.0058002,0.0145031,-0.000510558,0.441506,0.00984336,0.0441621,1434,1695,2.55519,-2.44391
217,-671,2.54126,2.34485,0.0137144,0.00285659,0.0102449,0.0198799,-0.00330894,0.541753,0.0144828,0.0424687,1441,1695,2.54124,-2.34483
224,-671,2.50269,2.24805,0,0,0,0,0,0,0,-1,1448,1695,2.50264,-2.24805
231,-671,2.86072,2.84424,0.0165807,0.00377211,0.0152323,0.0267002,-0.0063474,0.586396,0.0202503,0.0346277,1455,1695,2.86067,-2.84423
238,-671,2.68262,2.78638,0.0166894,0.0043159,0.0161225,0.0277714,-0.00676609,0.602194,0.0211338,0.0365275,1462,1695,2.68263,-2.78637
245,-671,2.56287,2.69812,0,0,0,0,0,0,0,-1,1469,1695,2.56293,-2.69818
252,-671,2.08813,2.64905,0.016209,0.00510571,0.0135136,0.0252669,-0.00395214,0.590498,0.0183047,0.0302603,1476,1695,2.08808,-2.6491
259,-671,2.09021,2.63855,0.0154957,0.00408858,0.0110766,0.022251,-0.00266664,0.547641,0.0157981,0.0237314,1483,1695,2.09027,-2.63856
266,-671,2.02258,2.55042,0.0137373,0.00307369,0.00811158,0.0181125,-0.0013015,0.49465,0.0125314,0.0130807,1490,1695,2.0226,-2.5504
273,-671,2.00134,2.52698,0.0115906,0.00281128,0.0053445,0.014117,0.000284806,0.44159,0.00931787,0.00887234,1497,1695,2.00131,-2.52696
280,-671,2,2.50281,0.0091797,0.000658807,0.00240745,0.00981284,2.56631e-05,0.25717,0.00653336,0.00953433,1504,1695,1.99999,-2.50276
287,-671,2.01526,2.4624,0.00752831,0.000301575,0.000723405,0.00760001,0.000229873,0.0987951,0.00499182,0.0108867,1511,1695,2.01528,-2.46244
294,-671,2.00244,2.4375,0.00660775,0.000503345,0.00021435,0.00661527,0.000495827,0.0350565,0.00425455,0.0101652,1518,1695,2.00248,-2.43751
301,-671,1.98657,2.43396,0.00557657,0.000842191,0.000362665,0.00560419,0.000814571,0.0760113,0.00349638,0.00939311,1525,1695,1.98658,-2.43393
308,-671,1.99329,2.44348,0.00458982,0.000949569,0.000309088,0.00461588,0.000923512,0.0841061,0.00282028,0.0113624,1532,1695,1.99329,-2.44343
315,-671,1.98499,2.41052,0.00376146,0.000729873,-0.000126222,0.00376671,0.000724627,-0.0415398,0.00230783,0.0130522,1539,1695,1.98497,-2.41057
322,-671,1.99341,2.39563,0.00264077,0.00073982,-0.000446627,0.00274047,0.000640115,-0.219639,0.00165539,0.0146632,1546,1695,1.99342,-2.39561
329,-671,1.97986,2.37842,0.00166281,0.000768582,-0.000664763,0.00201683,0.000414558,-0.489352,0.00122988,0.0133893,1553,1695,1.9799,-2.37839
336,-671,1.99683,2.3252,0.00157689,0.00063006,-0.000465332,0.0017673,0.000439656,-0.388394,0.00106241,0.0110397,1560,1695,1.99688,-2.32519
343,-671,2.02039,2.2948,0.00163209,0.000552555,-5.53559e-05,0.00163493,0.000549724,-0.0510987,0.000960652,0.0103571,1567,1695,2.02044,-2.29479
350,-671,2.0105,2.29675,0.00138906,0.000859332,0.000375744,0.00158391,0.000664481,0.478394,0.00091841,0.00947671,1574,1695,2.01048,-2.29672
357,-671,2.00391,2.27368,0.00151321,0.00120662,0.000805128,0.00217951,0.000540323,0.691325,0.00131057,0.00944418,1581,1695,2.00396,-2.27368
364,-671,2.02051,2.24817,0.00197752,0.00194124,0.000820232,0.00277981,0.00113895,0.774341,0.00161362,0.0124014,1588,1695,2.02055,-2.24817
371,-671,2.01868,2.25159,0.00205605,0.00283774,0.00110139,0.00361558,0.00127821,0.9559,0.0021171,0.0145206,1595,1695,2.0187,-2.25154
378,-671,2.02197,2.22009,0.00327508,0.00409674,0.000818562,0.00460178,0.00277004,1.01798,0.00267519,0.0121778,1602,1695,2.02201,-2.22008
385,-671,1.99121,2.21191,0.0061516,0.00581277,0.00206209,0.00805122,0.00391315,0.744411,0.00464898,0.0131732,1609,1695,1.99119,-2.21193
392,-671,1.97534,2.19434,0.00784144,0.00790458,0.00207069,0.00994394,0.00580209,0.793021,0.00576775,0.0168392,1616,1695,1.97531,-2.19434
399,-671,2.00134,2.12366,0.00984969,0.0102601,0.00233248,0.0123964,0.0077134,0.82927,0.00722798,0.0123257,1623,1695,2.00136,-2.12369
406,-671,2.0177,2.10864,0.0125249,0.0128191,0.00282836,0.0155042,0.00983983,0.81138,0.00905891,0.016466,1630,1695,2.01772,-2.10866
413,-671,2.08728,2.14502,0.0159903,0.0153528,0.00375635,0.0194414,0.0119017,0.743071,0.0113183,0.0267213,1637,1695,2.08728,-2.14505
420,-671,2.04639,2.10779,0.0192527,0.0178362,0.00500559,0.0235999,0.013489,0.71512,0.0136719,0.0454542,1644,1695,2.04638,-2.10781
427,-671,2.02856,2.05261,0,0,0,0,0,0,0,-1,1651,1695,2.02851,-2.05267
434,-671,2.86157,1.40723,0.0240824,0.0236443,0.00889734,0.0327634,0.0149633,0.773089,0.0189396,0.0480102,1658,1695,2.86158,-1.40723
441,-671,2.33618,1.47351,0.0237772,0.0265741,0.0111043,0.0363676,0.0139837,0.848039,0.0211827,0.0453401,1665,1695,2.33615,-1.47349
448,-671,1.7771,1.5647,0.0232491,0.0293757,0.0135754,0.0402291,0.0123957,0.896365,0.0237895,0.0451336,1672,1695,1.77706,-1.56469
455,-671,1.776,1.50549,0.0218255,0.0315395,0.0166525,0.0440288,0.00933617,0.927295,0.0267884,0.0478583,1679,1695,1.77597,-1.50547
462,-671,1.88831,1.66296,0,0,0,0,0,0,0,-1,1686,1695,1.8883,-1.66297
469,-671,2.0813,1.76648,0.00741465,0.0385138,0.0239753,0.0515405,-0.00561204,1.07308,0.0363756,0.0494629,1693,1695,2.08135,-1.7665
476,-671,2.24036,1.78064,0,0,0,0,0,0,0,-1,1700,1695,2.24035,-1.78063
483,-671,1.87634,0.958374,0,0,0,0,0,0,0,-1,1707,1695,1.87628,-0.958405
490,-671,0,0,0,0,0,0,0,0,0,-1,1714,1695,0,0
497,-671,0,0,0,0,0,0,0,0,0,-1,1721,1695,0,0
504,-671,0,0,0,0,0,0,0,0,0,-1,1728,1695,0,0
511,-671,0,0,0,0,0,0,0,0,0,-1,1735,1695,0,0
518,-671,0,0,0,0,0,0,0,0,0,-1,1742,1695,0,0
525,-671,0,0,0,0,0,0,0,0,0,-1,1749,1695,0,0
532,-671,0,0,0,0,0,0,0,0,0,-1,1756,1695,0,0
539,-671,0,0,0,0,0,0,0,0,0,-1,1763,1695,0,0
546,-671,0,0,0,0,0,0,0,0,0,-1,1770,1695,0,0
553,-671,0,0,0,0,0,0,0,0,0,-1,1777,1695,0,0
560,-671,0,0,0,0,0,0,0,0,0,-1,1784,1695,0,0
567,-671,0,0,0,0,0,0,0,0,0,-1,1791,1695,0,0
574,-671,0,0,0,0,0,0,0,0,0,-1,1798,1695,0,0
581,-671,0,0,0,0,0,0,0,0,0,-1,1805,1695,0,0
588,-671,0,0,0,0,0,0,0,0,0,-1,1812,1695,0,0
595,-671,0,0,0,0,0,0,0,0,0,-1,1819,1695,0,0
602,-671,0,0,0,0,0,0,0,0,0,-1,1826,1695,0,0
609,-671,0,0,0,0,0,0,0,0,0,-1,1833,1695,0,0
616,-671,0,0,0,0,0,0,0,0,0,-1,1840,1695,0,0
623,-671,0,0,0,0,0,0,0,0,0,-1,1847,1695,0,0
630,-671,0,0,0,0,0,0,0,0,0,-1,1854,1695,0,0
637,-671,0,0,0,0,0,0,0,0,0,-1,1861,1695,0,0
644,-671,0,0,0,0,0,0,0,0,0,-1,1868,1695,0,0
651,-671,0,0,0,0,0,0,0,0,0,-1,1875,1695,0,0
658,-671,0,0,0,0,0,0,0,0,0,-1,1882,1695,0,0
665,-671,0,0,0,0,0,0,0,0,0,-1,1889,1695,0,0
672,-671,0,0,0,0,0,0,0,0,0,-1,1896,1695,0,0
679,-671,0,0,0,0,0,0,0,0,0,-1,1903,1695,0,0
686,-671,0,0,0,0,0,0,0,0,0,-1,1910,1695,0,0
693,-671,0,0,0,0,0,0,0,0,0,-1,1917,1695,0,0
700,-671,0,0,0,0,0,0,0,0,0,-1,1924,1695,0,0
707,-671,0,0,0,0,0,0,0,0,0,-1,1931,1695,0,0
714,-671,0,0,0,0,0,0,0,0,0,-1,1938,1695,0,0
721,-671,0,0,0,0,0,0,0,0,0,-1,1945,1695,0,0
728,-671,0,0,0,0,0,0,0,0,0,-1,1952,1695,0,0
735,-671,0,0,0,0,0,0,0,0,0,-1,1959,1695,0,0
742,-671,0,0,0,0,0,0,0,0,0,-1,1966,1695,0,0
749,-671,0,0,0,0,0,0,0,0,0,-1,1973,1695,0,0
756,-671,0,0,0,0,0,0,0,0,0,-1,1980,1695,0,0
763,-671,0,0,0,0,0,0,0,0,0,-1,1987,1695,0,0
770,-671,0,0,0,0,0,0,0,0,0,-1,1994,1695,0,0
777,-671,0,0,0,0,0,0,0,0,0,-1,2001,1695,0,0
784,-671,0,0,0,0,0,0,0,0,0,-1,2008,1695,0,0
791,-671,0,0,0,0,0,0,0,0,0,-1,2015,1695,0,0
798,-671,0,0,0,0,0,0,0,0,0,-1,2022,1695,0,0
805,-671,0,0,0,0,0,0,0,0,0,-1,2029,1695,0,0
812,-671,0,0,0,0,0,0,0,0,0,-1,2036,1695,0,0
-700,-678,0,0,0,0,0,0,0,0,0,-1,524,1702,0,0
-693,-678,0,0,0,0,0,0,0,0,0,-1,531,1702,0,0
-686,-678,0,0,0,0,0,0,0,0,0,-1,538,1702,0,0
-679,-678,0,0,0,0,0,0,0,0,0,-1,545,1702,0,0
-672,-678,0,0,0,0,0,0,0,0,0,-1,552,1702,0,0
-665,-678,0,0,0,0,0,0,0,0,0,-1,559,1702,0,0
-658,-678,0,0,0,0,0,0,0,0,0,-1,566,1702,0,0
-651,-678,0,0,0,0,0,0,0,0,0,-1,573,1702,0,0
-644,-678,0,0,0,0,0,0,0,0,0,-1,580,1702,0,0
-637,-678,0,0,0,0,0,0,0,0,0,-1,587,1702,0,0
-630,-678,0,0,0,0,0,0,0,0,0,-1,594,1702,0,0
-623,-678,0,0,0,0,0,0,0,0,0,-1,601,1702,0,0
-616,-678,0,0,0,0,0,0,0,0,0,-1,608,1702,0,0
-609,-678,0,0,0,0,0,0,0,0,0,-1,615,1702,0,0
-602,-678,0,0,0,0,0,0,0,0,0,-1,622,1702,0,0
-595,-678,0,0,0,0,0,0,0,0,0,-1,629,1702,0,0
-588,-678,0,0,0,0,0,0,0,0,0,-1,636,1702,0,0
-581,-678,0,0,0,0,0,0,0,0,0,-1,643,1702,0,0
-574,-678,0,0,0,0,0,0,0,0,0,-1,650,1702,0,0
-567,-678,0,0,0,0,0,0,0,0,0,-1,657,1702,0,0
-560,-678,0,0,0,0,0,0,0,0,0,-1,664,1702,0,0
-553,-678,0,0,0,0,0,0,0,0,0,-1,671,1702,0,0
-546,-678,0,0,0,0,0,0,0,0,0,-1,678,1702,0,0
-539,-678,0,0,0,0,0,0,0,0,0,-1,685,1702,0,0
-532,-678,0,0,0,0,0,0,0,0,0,-1,692,1702,0,0
-525,-678,0,0,0,0,0,0,0,0,0,-1,699,1702,0,0
-518,-678,0,0,0,0,0,0,0,0,0,-1,706,1702,0,0
-511,-678,0,0,0,0,0,0,0,0,0,-1,713,1702,0,0
-504,-678,0,0,0,0,0,0,0,0,0,-1,720,1702,0,0
-497,-678,0,0,0,0,0,0,0,0,0,-1,727,1702,0,0
-490,-678,0,0,0,0,0,0,0,0,0,-1,734,1702,0,0
-483,-678,0,0,0,0,0,0,0,0,0,-1,741,1702,0,0
-476,-678,0,0,0,0,0,0,0,0,0,-1,748,1702,0,0
-469,-678,0,0,0,0,0,0,0,0,0,-1,755,1702,0,0
-462,-678,0,0,0,0,0,0,0,0,0,-1,762,1702,0,0
-455,-678,0,0,0,0,0,0,0,0,0,-1,769,1702,0,0
-448,-678,0,0,0,0,0,0,0,0,0,-1,776,1702,0,0
-441,-678,0,0,0,0,0,0,0,0,0,-1,783,1702,0,0
-434,-678,0,0,0,0,0,0,0,0,0,-1,790,1702,0,0
-427,-678,0,0,0,0,0,0,0,0,0,-1,797,1702,0,0
-420,-678,0,0,0,0,0,0,0,0,0,-1,804,1702,0,0
-413,-678,0,0,0,0,0,0,0,0,0,-1,811,1702,0,0
-406,-678,0,0,0,0,0,0,0,0,0,-1,818,1702,0,0
-399,-678,0,0,0,0,0,0,0,0,0,-1,825,1702,0,0
-392,-678,0,0,0,0,0,0,0,0,0,-1,832,1702,0,0
-385,-678,0,0,0,0,0,0,0,0,0,-1,839,1702,0,0
-378,-678,0,0,0,0,0,0,0,0,0,-1,846,1702,0,0
-371,-678,0,0,0,0,0,0,0,0,0,-1,853,1702,0,0
-364,-678,0,0,0,0,0,0,0,0,0,-1,860,1702,0,0
-357,-678,0,0,0,0,0,0,0,0,0,-1,867,1702,0,0
-350,-678,2.76746,2.17188,-0.0275505,-0.0153181,-0.000444315,-0.015302,-0.0275666,-1.53454,0.0159478,0.0457504,874,1702,2.76745,-2.1719
-343,-678,1.51672,3.80237,-0.0220531,-0.0222173,-0.00710143,-0.0150333,-0.0292371,-0.779617,0.0168823,0.0464764,881,1702,1.51675,-3.80237
-336,-678,1.16199,4.05103,-0.0162421,-0.0267,-0.0120012,-0.00838019,-0.0345619,-0.579949,0.0208179,0.039379,888,1702,1.16196,-4.05098
-329,-678,0.789429,4.18201,-0.0117883,-0.0301819,-0.0147586,-0.00359546,-0.0383747,-0.506765,0.0244728,0.0396169,895,1702,0.789413,-4.18206
-322,-678,0.902832,4.01306,-0.00754552,-0.0330876,-0.0167539,0.000749804,-0.0413829,-0.459743,0.0278419,0.0432005,902,1702,0.90282,-4.01304
-315,-678,1.21832,3.54089,-0.00351023,-0.0345238,-0.0172429,0.00417298,-0.0422071,-0.419179,0.0296272,0.0450832,909,1702,1.21834,-3.54092
-308,-678,1.39844,3.16077,0.00053173,-0.0359905,-0.0168846,0.00714144,-0.0426003,-0.373126,0.0310556,0.0441687,916,1702,1.39843,-3.16077
-301,-678,1.53516,2.8479,0.00371193,-0.0357844,-0.0152767,0.00893109,-0.0410036,-0.32921,0.0307482,0.0420299,923,1702,1.53518,-2.84789
-294,-678,1.23492,2.51672,0.00685864,-0.0347124,-0.01352,0.0108688,-0.0387226,-0.288346,0.0300994,0.0463128,930,1702,1.2349,-2.51669
-287,-678,1.23163,2.49512,0.00883876,-0.0316076,-0.0122231,0.0122457,-0.0350145,-0.271828,0.0283216,0.0465082,937,1702,1.23161,-2.49513
-280,-678,1.67029,2.54688,0.00969029,-0.0267391,-0.00983909,0.0121778,-0.0292266,-0.247634,0.0245711,0.0456984,944,1702,1.67027,-2.54685
-273,-678,1.52277,2.28125,0.0093286,-0.0228363,-0.0065249,0.0106018,-0.0241095,-0.192712,0.0205402,0.0429276,951,1702,1.52274,-2.28122
-266,-678,1.63361,2.22388,0.00879757,-0.0193903,-0.00437336,0.00946051,-0.0200532,-0.15044,0.0174017,0.0346837,958,1702,1.63363,-2.22394
-259,-678,1.72552,2.23035,0.00797174,-0.0149183,-0.00385088,0.00860222,-0.0155488,-0.162284,0.0141345,0.0208613,965,1702,1.72553,-2.23037
-252,-678,1.7558,2.23962,0.00703501,-0.0112003,-0.00350642,0.00768601,-0.0118513,-0.183569,0.011365,0.0160649,972,1702,1.7558,-2.2396
-245,-678,1.76733,2.23792,0.00638069,-0.00799648,-0.00315036,0.00704071,-0.0086565,-0.206518,0.00907878,0.0173838,979,1702,1.76731,-2.23786
-238,-678,1.77307,2.28394,0.00530007,-0.00568714,-0.00305812,0.0060939,-0.00648096,-0.253975,0.00726125,0.0152286,986,1702,1.77309,-2.28396
-231,-678,1.73785,2.33386,0.00424058,-0.00388011,-0.00288463,0.00516095,-0.00480048,-0.308849,0.00575249,0.0134416,993,1702,1.73783,-2.33381
-224,-678,1.72632,2.33716,0.00370001,-0.0021174,-0.00257236,0.00467429,-0.00309168,-0.362055,0.00451461,0.013627,1000,1702,1.72634,-2.33712
-217,-678,1.75812,2.33435,0.00314162,-0.000734241,-0.00224336,0.00416818,-0.0017608,-0.429157,0.0035159,0.0135886,1007,1702,1.75809,-2.33434
-210,-678,1.76569,2.37427,0.00231803,0.000164954,-0.00178977,0.00333008,-0.000847102,-0.51464,0.00254977,0.0137853,1014,1702,1.76567,-2.37432
-203,-678,1.73132,2.37927,0.00163399,0.000800114,-0.00117243,0.00246142,-2.73092e-05,-0.614562,0.00165012,0.0168833,1021,1702,1.73131,-2.37926
-196,-678,1.74329,2.40503,0.00137644,0.00097142,-0.000705682,0.0019081,0.000439766,-0.645667,0.00115376,0.0165862,1028,1702,1.74325,-2.40498
-189,-678,1.75806,2.42651,0.00129699,0.00113605,-0.000475921,0.00169919,0.000733843,-0.701651,0.00098406,0.00996217,1035,1702,1.7581,-2.42651
-182,-678,1.75012,2.45117,0.00133998,0.00133596,-1.64015e-05,0.0013545,0.00132145,-0.724467,0.000892186,0.0091692,1042,1702,1.75007,-2.45122
-175,-678,1.7384,2.47192,0.00125673,0.00176379,0.000239094,0.00185875,0.00116177,1.19275,0.00108427,0.0103656,1049,1702,1.73835,-2.47197
-168,-678,1.74878,2.50623,0.00118184,0.00246401,0.000476945,0.00262197,0.00102389,1.25098,0.00152584,0.0100501,1056,1702,1.7488,-2.5062
-161,-678,1.75378,2.52429,0.00114729,0.00347786,0.000759505,0.00370352,0.000921623,1.28199,0.00222633,0.00849215,1063,1702,1.7538,-2.52425
-154,-678,1.74219,2.51758,0.00119057,0.0042483,0.000982082,0.00453655,0.000902315,1.2853,0.00277297,0.00819936,1070,1702,1.74221,-2.51756
-147,-678,1.75293,2.4939,0.00140415,0.0056267,0.00129984,0.00599476,0.0010361,1.29487,0.00369982,0.010048,1077,1702,1.75292,-2.49385
-140,-678,1.75806,2.52563,0.00136389,0.00696755,0.00159516,0.00738981,0.000941626,1.31202,0.00464459,0.0107003,1084,1702,1.75809,-2.52567
-133,-678,1.76404,2.53882,0.00090375,0.00776116,0.0020137,0.00830877,0.000356149,1.30528,0.00542436,0.0118938,1091,1702,1.7641,-2.53877
-126,-678,1.77795,2.552,0.000222617,0.00873542,0.0023529,0.00934246,-0.000384429,1.3183,0.00636032,0.00901679,1098,1702,1.778,-2.55203
-119,-678,1.79407,2.58569,-0.000717698,0.00971464,0.00251096,0.0102875,-0.0012906,1.34648,0.00732655,0.0156437,1105,1702,1.79411,-2.58571
-112,-678,1.828,2.59949,-0.00177114,0.0104567,0.00263505,0.0110004,-0.00231481,1.36733,0.00821464,0.0215676,1112,1702,1.82804,-2.59947
-105,-678,1.79163,2.61584,-0.00337351,0.0107048,0.00237402,0.0110944,-0.00376307,1.40816,0.00891928,0.0213946,1119,1702,1.79166,-2.61584
-98,-678,1.7738,2.61548,-0.00520904,0.00989097,0.00165038,0.0100692,-0.00538732,1.46319,0.00905929,0.0140634,1126,1702,1.77379,-2.61553
-91,-678,1.79968,2.62415,-0.00676122,0.00839083,0.000583738,0.00841328,-0.00678368,1.53235,0.00879077,0.0143813,1133,1702,1.7997,-2.62414
-84,-678,1.80078,2.64551,-0.00792595,0.00566812,-0.00127707,0.00578705,-0.00804488,-1.47794,0.00802125,0.0226943,1140,1702,1.8008,-2.64547
-77,-678,1.7782,2.68896,-0.00848644,0.00235471,-0.00349991,0.00338643,-0.00951816,-1.28413,0.00772573,0.0305033,1147,1702,1.77817,-2.68898
-70,-678,1.68762,2.70227,-0.00859971,-0.000801642,-0.00551675,0.00205484,-0.0114562,-1.09302,0.00840654,0.0320161,1154,1702,1.68765,-2.70231
-63,-678,1.58191,2.74792,-0.00848164,-0.00464898,-0.00741625,0.00109453,-0.0142251,-0.911831,0.00986853,0.0348276,1161,1702,1.58186,-2.74789
-56,-678,0.921509,2.53845,-0.00836834,-0.0081067,-0.00939321,0.0011566,-0.0176316,-0.792361,0.0121583,0.0352902,1168,1702,0.921546,-2.53846
-49,-678,0.759888,2.65698,-0.00838339,-0.0111116,-0.010897,0.00123457,-0.0207295,-0.723132,0.014249,0.0468576,1175,1702,0.759923,-2.65704
-42,-678,0.450439,2.72656,0,0,0,0,0,0,0,-1,1182,1702,0.450434,-2.72654
-35,-678,0.435669,2.55774,0,0,0,0,0,0,0,-1,1189,1702,0.435698,-2.55777
-28,-678,0.704224,2.50171,0,0,0,0,0,0,0,-1,1196,1702,0.704211,-2.50165
-21,-678,1.23071,2.73169,0,0,0,0,0,0,0,-1,1203,1702,1.2307,-2.7317
-14,-678,0.0732422,3.28577,0,0,0,0,0,0,0,-1,1210,1702,0.0732061,-3.28577
-7,-678,1.25195,2.85608,0,0,0,0,0,0,0,-1,1217,1702,1.25192,-2.85603
0,-678,1.28149,2.71631,0,0,0,0,0,0,0,-1,1224,1702,1.2815,-2.71631
7,-678,1.4104,2.35364,0.00175078,-0.0112853,-0.0153515,0.0119107,-0.0214452,-0.584639,0.0195185,0.0445422,1231,1702,1.41036,-2.35369
14,-678,1.57104,2.14221,0.00589137,-0.00570545,-0.0143114,0.0155344,-0.0153485,-0.592925,0.0178304,0.0454494,1238,1702,1.57107,-2.14223
21,-678,1.79309,1.92798,0.011349,0.000330707,-0.0129233,0.0198884,-0.00820869,-0.583914,0.0166825,0.0432014,1245,1702,1.79308,-1.92796
28,-678,2.03467,1.57202,0.0176323,0.00683788,-0.0114861,0.024926,-0.000455832,-0.565761,0.0167714,0.0444121,1252,1702,2.03469,-1.57199
35,-678,2.77441,2.70959,0.023999,0.0124111,-0.0100551,0.02981,0.00660008,-0.524024,0.0180794,0.0442628,1259,1702,2.77441,-2.70961
42,-678,1.15735,4.12219,0.0298554,0.0168933,-0.00850902,0.0340705,0.0126782,-0.459935,0.0198839,0.0445294,1266,1702,1.15741,-4.12218
49,-678,1.08923,3.37939,0.0357454,0.0194939,-0.00716583,0.0384538,0.0167856,-0.361352,0.0222609,0.0432028,1273,1702,1.08923,-3.37937
56,-678,0.381226,3.08496,0.0407175,0.0202525,-0.00570888,0.0422023,0.0187677,-0.25445,0.0244151,0.0456621,1280,1702,0.381259,-3.085
63,-678,1.79468,2.87268,0,0,0,0,0,0,0,-1,1287,1702,1.79464,-2.87267
70,-678,1.82153,2.79419,0,0,0,0,0,0,0,-1,1294,1702,1.82157,-2.79421
77,-678,1.92151,2.80017,0,0,0,0,0,0,0,-1,1301,1702,1.92145,-2.80013
84,-678,1.87488,2.79077,0,0,0,0,0,0,0,-1,1308,1702,1.87493,-2.7908
91,-678,2.20728,2.38013,0.0400681,0.0106962,0.00757961,0.0419088,0.00885561,0.238227,0.025505,0.0464303,1315,1702,2.20722,-2.38008
98,-678,2.62085,1.80334,0.037937,0.0102347,0.00945945,0.0408589,0.0073128,0.299591,0.0251585,0.041667,1322,1702,2.62088,-1.80335
105,-678,2.94165,1.28699,0.0338701,0.0110124,0.00914316,0.0370774,0.00780517,0.337372,0.022571,0.0434948,1329,1702,2.94163,-1.28705
112,-678,3.31653,0.761719,0,0,0,0,0,0,0,-1,1336,1702,3.31652,-0.761658
119,-678,3.69409,0.415161,0.0333685,0.0192122,0.00939753,0.0380553,0.0145254,0.462627,0.0221753,0.0463775,1343,1702,3.69405,-0.415186
126,-678,1.5332,2.32593,0.0320909,0.02466,0.00702357,0.0363212,0.0204297,0.542111,0.0210246,0.0468134,1350,1702,1.53317,-2.32589
133,-678,1.97156,2.44958,0,0,0,0,0,0,0,-1,1357,1702,1.97159,-2.44963
140,-678,1.90491,2.36292,0.029986,0.0312096,-0.000707294,0.031533,0.0296626,-1.14196,0.0204271,0.0477639,1364,1702,1.90486,-2.36286
147,-678,2.37573,2.57385,0.0281077,0.0322017,-0.00515499,0.0357012,0.0246081,-0.974399,0.0210987,0.043915,1371,1702,2.37571,-2.57386
154,-678,2.07141,2.88989,0,0,0,0,0,0,0,-1,1378,1702,2.07144,-2.88985
161,-678,4.2439,3.43762,0,0,0,0,0,0,0,-1,1385,1702,4.24388,-3.43767
168,-678,4.24817,2.34827,0,0,0,0,0,0,0,-1,1392,1702,4.24823,-2.34831
175,-678,3.32495,3.54553,0,0,0,0,0,0,0,-1,1399,1702,3.3249,-3.54554
182,-678,2.896,3.37402,0.0163538,0.0163238,-0.0154378,0.0317766,0.000900938,-0.784912,0.0208906,0.0451416,1406,1702,2.89599,-3.37407
189,-678,2.81543,2.92297,0.0129878,0.0127743,-0.00984774,0.0227294,0.00303272,-0.779979,0.01425,0.0411393,1413,1702,2.81541,-2.92292
196,-678,2.40723,2.72241,0.00988048,0.00854654,-0.00388523,0.0131556,0.00527144,-0.700393,0.00764514,0.0363275,1420,1702,2.40723,-2.72246
203,-678,2.21216,2.56726,0.00764061,0.00578306,0.00130723,0.00831542,0.00510826,0.476532,0.00484255,0.0354559,1427,1702,2.21217,-2.56722
210,-678,2.22546,2.60632,0.00682399,0.00457281,0.00652762,0.0123224,-0.000925557,0.70002,0.00854016,0.035045,1434,1702,2.22541,-2.60633
217,-678,2.16077,2.62891,0.0083346,0.00454425,0.00983607,0.0164564,-0.00357756,0.690227,0.0123376,0.0327885,1441,1702,2.16081,-2.62896
224,-678,2.01025,2.56458,0.00971088,0.00470714,0.0118537,0.0193238,-0.00490581,0.681393,0.0147915,0.0244763,1448,1702,2.01028,-2.5646
231,-678,1.95764,2.58228,0.0106395,0.00448614,0.0132271,0.021143,-0.0060174,0.671128,0.0164717,0.0180844,1455,1702,1.9577,-2.58223
238,-678,1.96069,2.5946,0.0108531,0.00439727,0.0135348,0.0215395,-0.00628918,0.66834,0.0168519,0.0156597,1462,1702,1.9607,-2.59457
245,-678,1.9895,2.56213,0.010644,0.00493984,0.0128795,0.0209834,-0.00539962,0.676435,0.0160937,0.013753,1469,1702,1.98953,-2.56208
252,-678,1.98425,2.53589,0.0106878,0.00482934,0.0109584,0.0191017,-0.00358453,0.654799,0.0140822,0.0106341,1476,1702,1.98424,-2.53592
259,-678,1.96838,2.54834,0.0103007,0.00413954,0.00889228,0.0166309,-0.00219065,0.618651,0.011885,0.011035,1483,1702,1.96836,-2.54834
266,-678,1.98975,2.53186,0.00912204,0.0033523,0.00647075,0.0133219,-0.00084754,0.575707,0.00917682,0.0111112,1490,1702,1.9897,-2.53183
273,-678,1.9989,2.51147,0.00765354,0.0030487,0.00423924,0.0101753,0.00052698,0.536625,0.00661484,0.0108488,1497,1702,1.99894,-2.51151
280,-678,1.97314,2.4978,0.00597149,0.00125958,0.00187625,0.00662732,0.000603749,0.336267,0.00423134,0.0115355,1504,1702,1.9732,-2.49777
287,-678,1.96313,2.46387,0.00492713,0.000808395,0.000442225,0.00497408,0.000761449,0.105763,0.00309363,0.0112346,1511,1702,1.9631,-2.46388
294,-678,1.95923,2.44421,0.0045959,0.000761512,-9.34127e-05,0.00459818,0.000759237,-0.0243426,0.00284633,0.0114582,1518,1702,1.95924,-2.44423
301,-678,1.95703,2.43799,0.0041576,0.000816171,-9.01197e-05,0.00416003,0.000813742,-0.0269443,0.00254583,0.0109662,1525,1702,1.95707,-2.43798
308,-678,1.96716,2.43665,0.00367619,0.000686581,-0.000248659,0.00369673,0.00066604,-0.0824196,0.00227521,0.0127756,1532,1702,1.96712,-2.43669
315,-678,1.96179,2.40442,0.00330018,0.000333835,-0.000621248,0.00342504,0.000208981,-0.198331,0.00221698,0.0142849,1539,1702,1.96182,-2.40436
322,-678,1.96655,2.38892,0.00243674,0.000138064,-0.000810351,0.00269369,-0.000118887,-0.307056,0.00183671,0.0173558,1546,1702,1.96651,-2.38888
329,-678,1.9491,2.35303,0.00161411,-3.56615e-05,-0.000851906,0.00197505,-0.000396601,-0.400756,0.00146688,0.01585,1553,1702,1.94913,-2.35308
336,-678,1.94763,2.31421,0.00164458,-0.000165112,-0.000399464,0.00172883,-0.000249365,-0.20787,0.00124403,0.0132684,1560,1702,1.94765,-2.31421
343,-678,1.96594,2.31189,0.0017331,-0.000155518,0.000312125,0.00178335,-0.000205765,0.159614,0.00126309,0.0116421,1567,1702,1.96595,-2.31187
350,-678,1.97571,2.30896,0.00136226,0.000338654,0.00100803,0.00198097,-0.000280055,0.550492,0.00142321,0.0101187,1574,1702,1.97576,-2.30899
357,-678,1.98926,2.27185,0.00147424,0.000804762,0.00168305,0.00285552,-0.000576512,0.687235,0.00212211,0.00826046,1581,1702,1.98928,-2.27182
364,-678,1.98584,2.24292,0.00185226,0.0017119,0.00196296,0.00374629,-0.000182136,0.76753,0.0025604,0.0113826,1588,1702,1.98581,-2.24293
371,-678,1.97375,2.26318,0.00180993,0.00298483,0.00244017,0.00490726,-0.0001125,0.903522,0.00330965,0.0126229,1595,1702,1.97375,-2.26323
378,-678,1.96741,2.20752,0.00319735,0.00483353,0.00222631,0.00638731,0.00164357,0.961472,0.00382977,0.0123922,1602,1702,1.96741,-2.20749
385,-678,1.98303,2.17334,0.00675123,0.00711353,0.00400986,0.0109463,0.00291843,0.807971,0.00654534,0.0115282,1609,1702,1.98299,-2.17336
392,-678,2.00696,2.18188,0.0090404,0.009881,0.00427027,0.0137516,0.0051698,0.834452,0.00802054,0.0196316,1616,1702,2.00694,-2.18184
399,-678,1.99133,2.1405,0.0118494,0.0130052,0.00484316,0.0173048,0.00754977,0.844779,0.0100179,0.0284222,1623,1702,1.9913,-2.14048
406,-678,2.0415,2.12476,0.0155556,0.0163361,0.00569982,0.021659,0.0102327,0.819578,0.0125112,0.035472,1630,1702,2.04145,-2.12471
413,-678,2.68518,2.31958,0,0,0,0,0,0,0,-1,1637,1702,2.68514,-2.3196
420,-678,2.22449,2.07556,0,0,0,0,0,0,0,-1,1644,1702,2.22445,-2.07559
427,-678,1.76379,1.83154,0,0,0,0,0,0,0,-1,1651,1702,1.76375,-1.83157
434,-678,4.27698,0.937744,0,0,0,0,0,0,0,-1,1658,1702,4.277,-0.937741
441,-678,2.99756,1.26831,0,0,0,0,0,0,0,-1,1665,1702,2.9975,-1.26835
448,-678,1.83557,1.58484,0,0,0,0,0,0,0,-1,1672,1702,1.83563,-1.58484
455,-678,1.75806,1.42065,0.0364898,0.0413077,0.0242596,0.0632776,0.0145199,0.834885,0.0382745,0.0469508,1679,1702,1.75806,-1.42061
462,-678,1.93042,1.43555,0,0,0,0,0,0,0,-1,1686,1702,1.93046,-1.43551
469,-678,2.09937,1.52527,0,0,0,0,0,0,0,-1,1693,1702,2.09941,-1.52528
476,-678,0,0,0,0,0,0,0,0,0,-1,1700,1702,0,0
483,-678,0,0,0,0,0,0,0,0,0,-1,1707,1702,0,0
490,-678,0,0,0,0,0,0,0,0,0,-1,1714,1702,0,0
497,-678,0,0,0,0,0,0,0,0,0,-1,1721,1702,0,0
504,-678,0,0,0,0,0,0,0,0,0,-1,1728,1702,0,0
511,-678,0,0,0,0,0,0,0,0,0,-1,1735,1702,0,0
518,-678,0,0,0,0,0,0,0,0,0,-1,1742,1702,0,0
525,-678,0,0,0,0,0,0,0,0,0,-1,1749,1702,0,0
532,-678,0,0,0,0,0,0,0,0,0,-1,1756,1702,0,0
539,-678,0,0,0,0,0,0,0,0,0,-1,1763,1702,0,0
546,-678,0,0,0,0,0,0,0,0,0,-1,1770,1702,0,0
553,-678,0,0,0,0,0,0,0,0,0,-1,1777,1702,0,0
560,-678,0,0,0,0,0,0,0,0,0,-1,1784,1702,0,0
567,-678,0,0,0,0,0,0,0,0,0,-1,1791,1702,0,0
574,-678,0,0,0,0,0,0,0,0,0,-1,1798,1702,0,0
581,-678,0,0,0,0,0,0,0,0,0,-1,1805,1702,0,0
588,-678,0,0,0,0,0,0,0,0,0,-1,1812,1702,0,0
595,-678,0,0,0,0,0,0,0,0,0,-1,1819,1702,0,0
602,-678,0,0,0,0,0,0,0,0,0,-1,1826,1702,0,0
609,-678,0,0,0,0,0,0,0,0,0,-1,1833,1702,0,0
616,-678,0,0,0,0,0,0,0,0,0,-1,1840,1702,0,0
623,-678,0,0,0,0,0,0,0,0,0,-1,1847,1702,0,0
630,-678,0,0,0,0,0,0,0,0,0,-1,1854,1702,0,0
637,-678,0,0,0,0,0,0,0,0,0,-1,1861,1702,0,0
644,-678,0,0,0,0,0,0,0,0,0,-1,1868,1702,0,0
651,-678,0,0,0,0,0,0,0,0,0,-1,1875,1702,0,0
658,-678,0,0,0,0,0,0,0,0,0,-1,1882,1702,0,0
665,-678,0,0,0,0,0,0,0,0,0,-1,1889,1702,0,0
672,-678,0,0,0,0,0,0,0,0,0,-1,1896,1702,0,0
679,-678,0,0,0,0,0,0,0,0,0,-1,1903,1702,0,0
686,-678,0,0,0,0,0,0,0,0,0,-1,1910,1702,0,0
693,-678,0,0,0,0,0,0,0,0,0,-1,1917,1702,0,0
700,-678,0,0,0,0,0,0,0,0,0,-1,1924,1702,0,0
707,-678,0,0,0,0,0,0,0,0,0,-1,1931,1702,0,0
714,-678,0,0,0,0,0,0,0,0,0,-1,1938,1702,0,0
721,-678,0,0,0,0,0,0,0,0,0,-1,1945,1702,0,0
728,-678,0,0,0,0,0,0,0,0,0,-1,1952,1702,0,0
735,-678,0,0,0,0,0,0,0,0,0,-1,1959,1702,0,0
742,-678,0,0,0,0,0,0,0,0,0,-1,1966,1702,0,0
749,-678,0,0,0,0,0,0,0,0,0,-1,1973,1702,0,0
756,-678,0,0,0,0,0,0,0,0,0,-1,1980,1702,0,0
763,-678,0,0,0,0,0,0,0,0,0,-1,1987,1702,0,0
770,-678,0,0,0,0,0,0,0,0,0,-1,1994,1702,0,0
777,-678,0,0,0,0,0,0,0,0,0,-1,2001,1702,0,0
784,-678,0,0,0,0,0,0,0,0,0,-1,2008,1702,0,0
791,-678,0,0,0,0,0,0,0,0,0,-1,2015,1702,0,0
798,-678,0,0,0,0,0,0,0,0,0,-1,2022,1702,0,0
805,-678,0,0,0,0,0,0,0,0,0,-1,2029,1702,0,0
812,-678,0,0,0,0,0,0,0,0,0,-1,2036,1702,0,0
-700,-685,0,0,0,0,0,0,0,0,0,-1,524,1709,0,0
-693,-685,0,0,0,0,0,0,0,0,0,-1,531,1709,0,0
-686,-685,0,0,0,0,0,0,0,0,0,-1,538,1709,0,0
-679,-685,0,0,0,0,0,0,0,0,0,-1,545,1709,0,0
-672,-685,0,0,0,0,0,0,0,0,0,-1,552,1709,0,0
-665,-685,0,0,0,0,0,0,0,0,0,-1,559,1709,0,0
-658,-685,0,0,0,0,0,0,0,0,0,-1,566,1709,0,0
-651,-685,0,0,0,0,0,0,0,0,0,-1,573,1709,0,0
-644,-685,0,0,0,0,0,0,0,0,0,-1,580,1709,0,0
-637,-685,0,0,0,0,0,0,0,0,0,-1,587,1709,0,0
-630,-685,0,0,0,0,0,0,0,0,0,-1,594,1709,0,0
-623,-685,0,0,0,0,0,0,0,0,0,-1,601,1709,0,0
-616,-685,0,0,0,0,0,0,0,0,0,-1,608,1709,0,0
-609,-685,0,0,0,0,0,0,0,0,0,-1,615,1709,0,0
-602,-685,0,0,0,0,0,0,0,0,0,-1,622,1709,0,0
-595,-685,0,0,0,0,0,0,0,0,0,-1,629,1709,0,0
-588,-685,0,0,0,0,0,0,0,0,0,-1,636,1709,0,0
-581,-685,0,0,0,0,0,0,0,0,0,-1,643,1709,0,0
-574,-685,0,0,0,0,0,0,0,0,0,-1,650,1709,0,0
-567,-685,0,0,0,0,0,0,0,0,0,-1,657,1709,0,0
-560,-685,0,0,0,0,0,0,0,0,0,-1,664,1709,0,0
-553,-685,0,0,0,0,0,0,0,0,0,-1,671,1709,0,0
-546,-685,0,0,0,0,0,0,0,0,0,-1,678,1709,0,0
-539,-685,0,0,0,0,0,0,0,0,0,-1,685,1709,0,0
-532,-685,0,0,0,0,0,0,0,0,0,-1,692,1709,0,0
-525,-685,0,0,0,0,0,0,0,0,0,-1,699,1709,0,0
-518,-685,0,0,0,0,0,0,0,0,0,-1,706,1709,0,0
-511,-685,0,0,0,0,0,0,0,0,0,-1,713,1709,0,0
-504,-685,0,0,0,0,0,0,0,0,0,-1,720,1709,0,0
-497,-685,0,0,0,0,0,0,0,0,0,-1,727,1709,0,0
-490,-685,0,0,0,0,0,0,0,0,0,-1,734,1709,0,0
-483,-685,0,0,0,0,0,0,0,0,0,-1,741,1709,0,0
-476,-685,0,0,0,0,0,0,0,0,0,-1,748,1709,0,0
-469,-685,0,0,0,0,0,0,0,0,0,-1,755,1709,0,0
-462,-685,0,0,0,0,0,0,0,0,0,-1,762,1709,0,0
-455,-685,0,0,0,0,0,0,0,0,0,-1,769,1709,0,0
-448,-685,0,0,0,0,0,0,0,0,0,-1,776,1709,0,0
-441,-685,0,0,0,0,0,0,0,0,0,-1,783,1709,0,0
-434,-685,0,0,0,0,0,0,0,0,0,-1,790,1709,0,0
-427,-685,0,0,0,0,0,0,0,0,0,-1,797,1709,0,0
-420,-685,0,0,0,0,0,0,0,0,0,-1,804,1709,0,0
-413,-685,0,0,0,0,0,0,0,0,0,-1,811,1709,0,0
-406,-685,0,0,0,0,0,0,0,0,0,-1,818,1709,0,0
-399,-685,0,0,0,0,0,0,0,0,0,-1,825,1709,0,0
-392,-685,0,0,0,0,0,0,0,0,0,-1,832,1709,0,0
-385,-685,0,0,0,0,0,0,0,0,0,-1,839,1709,0,0
-378,-685,0,0,0,0,0,0,0,0,0,-1,846,1709,0,0
-371,-685,0,0,0,0,0,0,0,0,0,-1,853,1709,0,0
-364,-685,0,0,0,0,0,0,0,0,0,-1,860,1709,0,0
-357,-685,0,0,0,0,0,0,0,0,0,-1,867,1709,0,0
-350,-685,0,0,0,0,0,0,0,0,0,-1,874,1709,0,0
-343,-685,2.26697,2.8728,-0.0341283,-0.0209855,-0.00553765,-0.0189633,-0.0361504,-1.22068,0.0208799,0.0475065,881,1709,2.26694,-2.87279
-336,-685,1.60791,4.71472,-0.0247106,-0.0295091,-0.0123379,-0.0145409,-0.0396789,-0.689366,0.0231794,0.0444426,888,1709,1.60792,-4.7147
-329,-685,1.95087,4.55408,-0.0174836,-0.0357639,-0.0157584,-0.0084064,-0.044841,-0.5226,0.0275232,0.0448511,895,1709,1.95084,-4.55403
-322,-685,2.16833,4.12219,-0.0110185,-0.0404166,-0.0179144,-0.00254457,-0.0488905,-0.441834,0.0317795,0.0440534,902,1709,2.16832,-4.12215
-315,-685,2.48145,3.58838,-0.00512715,-0.0425752,-0.018429,0.00242078,-0.0501231,-0.388728,0.0342509,0.0430188,909,1709,2.48146,-3.58834
-308,-685,2.74994,3.12012,0.000184127,-0.0443404,-0.0181359,0.0066363,-0.0507926,-0.341804,0.0362767,0.0443623,916,1709,2.74994,-3.12017
-301,-685,2.0426,3.44458,0.0042792,-0.0442831,-0.0164988,0.00935421,-0.0493581,-0.298414,0.036426,0.0464735,923,1709,2.0426,-3.44462
-294,-685,1.16425,2.9856,0,0,0,0,0,0,0,-1,930,1709,1.16423,-2.98554
-287,-685,1.27222,2.78076,0,0,0,0,0,0,0,-1,937,1709,1.27219,-2.78076
-280,-685,1.86829,2.59192,0.0115245,-0.0327991,-0.0112323,0.0142084,-0.035483,-0.23455,0.0295528,0.0493888,944,1709,1.86828,-2.59196
-273,-685,1.55676,2.38879,0.0113055,-0.0278943,-0.00770827,0.0127668,-0.0293556,-0.18735,0.0249401,0.045401,951,1709,1.55679,-2.38883
-266,-685,1.44061,2.28906,0.0109041,-0.0235326,-0.00559406,0.01179,-0.0244185,-0.157066,0.0213246,0.0417586,958,1709,1.44061,-2.28907
-259,-685,1.5556,2.41211,0.0101226,-0.017783,-0.00520444,0.0110617,-0.018722,-0.178509,0.0173842,0.0358611,965,1709,1.5556,-2.4121
-252,-685,1.8526,2.37048,0.00914687,-0.0130609,-0.00474423,0.0101179,-0.014032,-0.201891,0.0140039,0.0320513,972,1709,1.85261,-2.37044
-245,-685,1.92584,2.27466,0.00845992,-0.00913849,-0.00425863,0.00943629,-0.0101149,-0.225374,0.0112901,0.0302427,979,1709,1.92585,-2.27462
-238,-685,1.85382,2.26355,0.00723132,-0.00624449,-0.00397447,0.00831619,-0.00732936,-0.266468,0.00903895,0.0236452,986,1709,1.85383,-2.26349
-231,-685,1.78168,2.31946,0.00602223,-0.00397755,-0.00358467,0.00717447,-0.0051298,-0.311006,0.0071365,0.0163586,993,1709,1.78168,-2.31948
-224,-685,1.75275,2.34106,0.00547151,-0.00166736,-0.00310748,0.00663465,-0.00283051,-0.358161,0.0056099,0.0153088,1000,1709,1.75276,-2.34108
-217,-685,1.77283,2.35071,0.00472213,0.000105496,-0.0025144,0.0058271,-0.000999474,-0.414052,0.00425718,0.0117724,1007,1709,1.77284,-2.35065
-210,-685,1.77484,2.35815,0.00356435,0.00119332,-0.00175263,0.00449477,0.000262905,-0.488036,0.00291284,0.0144143,1014,1709,1.77483,-2.35811
-203,-685,1.76294,2.37109,0.00261654,0.00190825,-0.000880295,0.00321126,0.00131354,-0.594154,0.00186422,0.0137296,1021,1709,1.76294,-2.37104
-196,-685,1.74109,2.39478,0.00215007,0.00213164,-0.000287324,0.00242832,0.00185338,-0.769366,0.00146533,0.0126431,1028,1709,1.74105,-2.39482
-189,-685,1.7749,2.41064,0.00183337,0.00213967,-1.96679e-05,0.00214093,0.00183212,-1.50693,0.0013363,0.00862687,1035,1709,1.77489,-2.41066
-182,-685,1.7655,2.42542,0.00162537,0.00209605,0.000507267,0.00241991,0.00130151,1.00259,0.00139847,0.0120857,1042,1709,1.76555,-2.42544
-175,-685,1.75928,2.45105,0.00131016,0.00228467,0.000725767,0.00267157,0.000923252,1.08102,0.00156676,0.0128802,1049,1709,1.75933,-2.45106
-168,-685,1.75891,2.48901,0.00103989,0.002716,0.000825445,0.00305425,0.000701638,1.18189,0.00184725,0.0102648,1056,1709,1.75897,-2.48899
-161,-685,1.76685,2.5177,0.000806763,0.00345993,0.000921872,0.0037488,0.000517899,1.26714,0.0023457,0.0107642,1063,1709,1.76687,-2.51776
-154,-685,1.76648,2.52771,0.000618504,0.00388699,0.000917007,0.00412668,0.000378806,1.31513,0.00263395,0.00990535,1070,1709,1.76643,-2.52774
-147,-685,1.7699,2.51917,0.000622264,0.00475081,0.00097716,0.00497041,0.000402667,1.34974,0.00318787,0.00870056,1077,1709,1.76993,-2.51914
-140,-685,1.76685,2.54053,0.000549848,0.00572278,0.0011727,0.00597622,0.000296413,1.35796,0.00388911,0.0103834,1084,1709,1.76683,-2.54054
-133,-685,1.79199,2.56396,0.000256724,0.00640175,0.00152158,0.00675788,-9.93987e-05,1.34089,0.00453875,0.0104439,1091,1709,1.79198,-2.56399
-126,-685,1.79431,2.57678,-0.000243734,0.00714253,0.00178849,0.0075528,-0.000654004,1.3453,0.00526675,0.00836382,1098,1709,1.79429,-2.57679
-119,-685,1.77271,2.58459,-0.00101023,0.00796417,0.00195845,0.00837294,-0.001419,1.36503,0.00611013,0.0109874,1105,1709,1.77274,-2.58457
-112,-685,1.76794,2.61047,-0.00178462,0.00869314,0.00210206,0.00909912,-0.0021906,1.38001,0.00691296,0.0110051,1112,1709,1.76797,-2.61051
-105,-685,1.75037,2.61133,-0.00300951,0.00909592,0.00194295,0.00940013,-0.00331371,1.41549,0.00761555,0.00982089,1119,1709,1.7504,-2.61127
-98,-685,1.79736,2.63977,-0.00447581,0.0087524,0.00141674,0.00890243,-0.00462584,1.46529,0.00793957,0.0128871,1126,1709,1.7974,-2.63979
-91,-685,1.78894,2.65637,-0.00571167,0.00774508,0.000644621,0.00777589,-0.00574248,1.52304,0.00783421,0.0151437,1133,1709,1.789,-2.65642
-84,-685,1.79407,2.64001,-0.00669709,0.00565592,-0.000835647,0.00571219,-0.00675336,-1.50356,0.00720536,0.014186,1140,1709,1.79401,-2.64001
-77,-685,1.80017,2.66211,-0.00720669,0.00291125,-0.00274163,0.00360638,-0.00790183,-1.32248,0.00679679,0.0127196,1147,1709,1.80022,-2.66206
-70,-685,1.82727,2.68359,-0.00735773,0.00018417,-0.00447251,0.0022633,-0.00943686,-1.13565,0.00716582,0.0144334,1154,1709,1.82728,-2.68365
-63,-685,1.79089,2.6908,-0.00722679,-0.00318753,-0.00613887,0.00125539,-0.0116697,-0.944317,0.00823025,0.0195474,1161,1709,1.79092,-2.69075
-56,-685,1.6134,2.7594,-0.00706864,-0.00634403,-0.00787081,0.00117281,-0.0145855,-0.808398,0.0101372,0.0268382,1168,1709,1.61341,-2.75936
-49,-685,1.37549,2.74402,-0.00696341,-0.00913164,-0.00924225,0.00125809,-0.0173531,-0.727015,0.0120101,0.029202,1175,1709,1.37549,-2.74396
-42,-685,1.75769,2.80176,0,0,0,0,0,0,0,-1,1182,1709,1.7577,-2.80172
-35,-685,1.42859,2.59326,-0.00649977,-0.0146168,-0.0121046,0.00220862,-0.0233252,-0.623645,0.0163362,0.0402747,1189,1709,1.42854,-2.59328
-28,-685,1.26465,2.53833,-0.0054582,-0.016319,-0.0133865,0.00355739,-0.0253346,-0.592709,0.0181918,0.043155,1196,1709,1.2646,-2.53832
-21,-685,1.7113,2.66553,-0.00415571,-0.0173794,-0.0140214,0.00473456,-0.0262696,-0.565082,0.019286,0.0324956,1203,1709,1.71128,-2.66549
-14,-685,1.81897,2.69617,-0.00399151,-0.0174829,-0.0137399,0.00456927,-0.0260437,-0.557204,0.0190689,0.0245183,1210,1709,1.81894,-2.69618
-7,-685,1.70654,2.68237,-0.00263271,-0.0158059,-0.013984,0.00623824,-0.0246769,-0.565304,0.0188774,0.0379301,1217,1709,1.7065,-2.68236
0,-685,1.71899,2.77563,-0.00059239,-0.0127644,-0.0134947,0.00812522,-0.021482,-0.57356,0.017664,0.0403985,1224,1709,1.71901,-2.77565
7,-685,1.76038,2.80945,0.000683242,-0.00890341,-0.0129625,0.00971027,-0.0179304,-0.608303,0.0161919,0.0384713,1231,1709,1.76041,-2.80945
14,-685,1.68823,2.62488,0.00276995,-0.00391765,-0.0121707,0.0120478,-0.0131955,-0.651335,0.0145793,0.0399986,1238,1709,1.68828,-2.62486
21,-685,1.87109,2.40881,0.00561627,0.00138091,-0.0111512,0.0148491,-0.00785192,-0.691563,0.0133123,0.0373256,1245,1709,1.87109,-2.40885
28,-685,1.67126,2.69604,0.00895653,0.00708722,-0.0101291,0.0181941,-0.0021503,-0.739392,0.012906,0.0377835,1252,1709,1.6712,-2.69603
35,-685,2.20679,2.75488,0.0125541,0.0119413,-0.00913087,0.0213837,0.00311167,-0.768626,0.0133401,0.0373432,1259,1709,2.20673,-2.75483
42,-685,2.18884,2.75671,0.0161236,0.0157823,-0.00799649,0.0239513,0.00795465,-0.77473,0.0140857,0.0390437,1266,1709,2.18881,-2.7567
49,-685,0.609619,2.30725,0,0,0,0,0,0,0,-1,1273,1709,0.609588,-2.30722
56,-685,1.73279,2.92407,0,0,0,0,0,0,0,-1,1280,1709,1.73283,-2.92401
63,-685,1.83508,2.83569,0.0271292,0.0185614,-0.00443958,0.0290147,0.0166759,-0.40162,0.0168139,0.0462548,1287,1709,1.83511,-2.83574
70,-685,1.85938,2.77344,0.0283053,0.0160607,-0.00226375,0.0287105,0.0156556,-0.177082,0.0165986,0.0475502,1294,1709,1.85936,-2.77347
77,-685,1.89941,2.77588,0.0280316,0.0152054,0.00205787,0.0283536,0.0148833,0.155253,0.0163768,0.0466263,1301,1709,1.8994,-2.77593
84,-685,1.87744,2.75513,0.0276069,0.0118603,0.00488679,0.0290002,0.010467,0.277742,0.0169578,0.0463143,1308,1709,1.87744,-2.7551
91,-685,1.89734,2.729,0.0276935,0.00923974,0.00651023,0.029759,0.00717422,0.307228,0.0179328,0.0462488,1315,1709,1.89737,-2.72902
98,-685,1.85339,2.72388,0,0,0,0,0,0,0,-1,1322,1709,1.85343,-2.72386
105,-685,1.91174,2.6322,0,0,0,0,0,0,0,-1,1329,1709,1.91174,-2.63223
112,-685,2.42676,0.375,0,0,0,0,0,0,0,-1,1336,1709,2.42674,-0.37494
119,-685,1.64343,2.48413,0.0235426,0.0124637,0.0108958,0.0302263,0.00578004,0.550225,0.0185272,0.0439659,1343,1709,1.64342,-2.48408
126,-685,1.73926,2.57275,0.0219843,0.0168669,0.00941624,0.0291833,0.00966792,0.652736,0.0171657,0.0449032,1350,1709,1.73923,-2.5727
133,-685,1.96753,2.56812,0.0206227,0.0205972,0.00680281,0.0274128,0.0138071,0.784463,0.0158269,0.0450263,1357,1709,1.96756,-2.56814
140,-685,1.92261,2.57556,0.0194597,0.0227568,0.00339838,0.0248854,0.0173311,1.01123,0.0147325,0.0426306,1364,1709,1.92261,-2.57561
147,-685,2.02625,2.71814,0.0177051,0.0239733,-0.000260337,0.0239841,0.0176943,-1.52936,0.0143595,0.0396828,1371,1709,2.02626,-2.71811
154,-685,1.96509,2.85779,0.0146906,0.0238244,-0.00340922,0.0249565,0.0135584,-1.25017,0.0144266,0.0424514,1378,1709,1.96513,-2.85784
161,-685,2.02319,2.88831,0,0,0,0,0,0,0,-1,1385,1709,2.0232,-2.88833
168,-685,1.98596,2.73682,0,0,0,0,0,0,0,-1,1392,1709,1.98595,-2.73677
175,-685,2.59778,3.14453,0.00996714,0.0183227,-0.0085416,0.0236535,0.00463636,-1.01285,0.0144732,0.0400517,1399,1709,2.59772,-3.14454
182,-685,2.3855,3.0498,0.00902224,0.0131496,-0.00935603,0.0206668,0.001505,-0.893946,0.0133046,0.0363384,1406,1709,2.38544,-3.04979
189,-685,2.23645,2.94446,0.00680832,0.0106769,-0.00534397,0.0144259,0.00305933,-0.95904,0.00877702,0.0339328,1413,1709,2.23646,-2.94447
196,-685,2.04382,2.75769,0.0047366,0.00766328,-0.00112113,0.00804339,0.0043565,-1.24392,0.00464921,0.0290765,1420,1709,2.0438,-2.75768
203,-685,1.9115,2.67847,0.00354562,0.00564746,0.00251031,0.00731795,0.00187513,0.983635,0.0043892,0.0209173,1427,1709,1.91146,-2.67841
210,-685,1.93286,2.6676,0.00336747,0.00464031,0.00613993,0.0101767,-0.00216894,0.83704,0.00761118,0.0198407,1434,1709,1.93284,-2.66763
217,-685,1.91418,2.63306,0.00440262,0.00448206,0.00847098,0.0129134,-0.00402873,0.787742,0.0102201,0.0200456,1441,1709,1.91416,-2.63302
224,-685,1.91724,2.60852,0.00536875,0.00459906,0.00988175,0.0148731,-0.00490533,0.765936,0.0118927,0.015195,1448,1709,1.91723,-2.60846
231,-685,1.93298,2.61279,0.0061231,0.0043311,0.0107368,0.0160012,-0.005547,0.743769,0.0129197,0.0154152,1455,1709,1.93303,-2.61282
238,-685,1.9519,2.58472,0.00640847,0.0041993,0.0107851,0.0161454,-0.00553761,0.734367,0.0130085,0.018639,1462,1709,1.95192,-2.58466
245,-685,1.95142,2.56238,0.00640186,0.00464785,0.0101356,0.0156984,-0.00464867,0.742242,0.0123113,0.0204136,1469,1709,1.9514,-2.56243
252,-685,1.96753,2.54797,0.00640421,0.00468291,0.00867465,0.0142608,-0.00317368,0.735953,0.0107228,0.0141452,1476,1709,1.96751,-2.548
259,-685,1.96448,2.55615,0.00632501,0.00439893,0.00688997,0.0123189,-0.00159498,0.715961,0.00879263,0.0103735,1483,1709,1.96447,-2.55613
266,-685,1.98499,2.53137,0.0057426,0.00391414,0.00498601,0.0098975,-0.000240761,0.694726,0.00668003,0.0117631,1490,1709,1.98498,-2.53133
273,-685,1.97266,2.49536,0.00495916,0.00365775,0.00325974,0.00763251,0.000984399,0.686884,0.00479401,0.0141263,1497,1709,1.9727,-2.49534
280,-685,1.93518,2.48669,0.00403092,0.00223143,0.00141742,0.00481005,0.0014523,0.502599,0.00284879,0.0158584,1504,1709,1.93513,-2.48673
287,-685,1.93359,2.48889,0.00364721,0.00176164,0.000237017,0.00367655,0.0017323,0.123148,0.00212383,0.0114003,1511,1709,1.93361,-2.48892
294,-685,1.94006,2.46863,0.00391796,0.00154337,-0.000302353,0.00395585,0.00150548,-0.124679,0.00230553,0.0099025,1518,1709,1.94004,-2.46861
301,-685,1.93213,2.45959,0.00403219,0.00135353,-0.00043189,0.00410011,0.00128562,-0.15597,0.00242143,0.0120074,1525,1709,1.93209,-2.45965
308,-685,1.93921,2.4408,0.00395883,0.000982285,-0.000690715,0.0041113,0.000829814,-0.217261,0.00251041,0.0132226,1532,1709,1.93923,-2.44079
315,-685,1.96558,2.41357,0.00394684,0.000456831,-0.00105735,0.00424218,0.000161486,-0.272384,0.00277586,0.0121346,1539,1709,1.96558,-2.41357
322,-685,1.94556,2.3783,0.00316734,-8.8128e-06,-0.00118209,0.00355899,-0.000400463,-0.319938,0.00251679,0.0196454,1546,1709,1.94558,-2.37832
329,-685,1.94629,2.35156,0.00227228,-0.000464721,-0.00109848,0.00265861,-0.000851057,-0.338189,0.00211399,0.0194402,1553,1709,1.94635,-2.35154
336,-685,1.94751,2.32532,0.00221633,-0.000684535,-0.000411486,0.00227357,-0.000741775,-0.138218,0.00181424,0.0137943,1560,1709,1.94755,-2.32533
343,-685,1.94763,2.3136,0.00216071,-0.000680232,0.000635095,0.00229623,-0.000815744,0.21022,0.00186324,0.0118033,1567,1709,1.94762,-2.31359
350,-685,1.96582,2.29968,0.00148458,-8.64173e-05,0.00160634,0.00248719,-0.00108902,0.557993,0.00211667,0.0115565,1574,1709,1.96579,-2.29968
357,-685,1.96643,2.27966,0.00154025,0.000497424,0.00263219,0.00370218,-0.0016645,0.687619,0.00317203,0.00946367,1581,1709,1.96641,-2.27971
364,-685,1.96521,2.24487,0.00173512,0.0015921,0.00344931,0.00511366,-0.00178645,0.775034,0.00413528,0.00910866,1588,1709,1.96518,-2.24485
371,-685,1.97168,2.23267,0.00148683,0.0032664,0.00420883,0.00667847,-0.00192524,0.889569,0.00521392,0.01398,1595,1709,1.9717,-2.23272
378,-685,1.94421,2.19312,0.00295857,0.00578946,0.00420932,0.00881494,-6.69169e-05,0.947591,0.00589906,0.0172102,1602,1709,1.94426,-2.19309
385,-685,2.00049,2.21167,0.00715952,0.00871604,0.00673886,0.0147214,0.00115413,0.842888,0.00945309,0.0270629,1609,1709,2.0005,-2.21171
392,-685,2.22375,2.32935,0.0101314,0.0122606,0.0074522,0.0187239,0.00366815,0.856345,0.0114573,0.03175,1616,1709,2.22375,-2.32936
399,-685,2.11731,2.22961,0.0138676,0.0162625,0.00853821,0.0236869,0.00644332,0.855067,0.0141415,0.0374769,1623,1709,2.11734,-2.22957
406,-685,2.06482,2.15491,0.0187736,0.0204761,0.0099628,0.0296239,0.00962572,0.828016,0.0174494,0.0451126,1630,1709,2.06481,-2.1549
413,-685,2.50098,1.87109,0.0252873,0.0247727,0.0121308,0.0371635,0.0128965,0.774794,0.0217885,0.0468169,1637,1709,2.50102,-1.87108
420,-685,2.52368,1.9823,0.0317995,0.0289864,0.014901,0.0453602,0.0154257,0.738342,0.0266315,0.0447249,1644,1709,2.5237,-1.98226
427,-685,1.92834,2.02161,0.0397817,0.0333627,0.018389,0.0552392,0.0179052,0.699002,0.0325433,0.0474352,1651,1709,1.92831,-2.02162
434,-685,5.91357,0.191528,0.0464312,0.0397828,0.0230767,0.0664219,0.0197921,0.713866,0.0393783,0.0496718,1658,1709,5.91357,-0.191506
441,-685,0.761963,1.88794,0,0,0,0,0,0,0,-1,1665,1709,0.761945,-1.88792
448,-685,1.67212,1.19702,0,0,0,0,0,0,0,-1,1672,1709,1.67209,-1.19699
455,-685,1.78467,1.26099,0,0,0,0,0,0,0,-1,1679,1709,1.78469,-1.26103
462,-685,0,0,0,0,0,0,0,0,0,-1,1686,1709,0,0
469,-685,0,0,0,0,0,0,0,0,0,-1,1693,1709,0,0
476,-685,0,0,0,0,0,0,0,0,0,-1,1700,1709,0,0
483,-685,0,0,0,0,0,0,0,0,0,-1,1707,1709,0,0
490,-685,0,0,0,0,0,0,0,0,0,-1,1714,1709,0,0
497,-685,0,0,0,0,0,0,0,0,0,-1,1721,1709,0,0
504,-685,0,0,0,0,0,0,0,0,0,-1,1728,1709,0,0
511,-685,0,0,0,0,0,0,0,0,0,-1,1735,1709,0,0
518,-685,0,0,0,0,0,0,0,0,0,-1,1742,1709,0,0
525,-685,0,0,0,0,0,0,0,0,0,-1,1749,1709,0,0
532,-685,0,0,0,0,0,0,0,0,0,-1,1756,1709,0,0
539,-685,0,0,0,0,0,0,0,0,0,-1,1763,1709,0,0
546,-685,0,0,0,0,0,0,0,0,0,-1,1770,1709,0,0
553,-685,0,0,0,0,0,0,0,0,0,-1,1777,1709,0,0
560,-685,0,0,0,0,0,0,0,0,0,-1,1784,1709,0,0
567,-685,0,0,0,0,0,0,0,0,0,-1,1791,1709,0,0
574,-685,0,0,0,0,0,0,0,0,0,-1,1798,1709,0,0
581,-685,0,0,0,0,0,0,0,0,0,-1,1805,1709,0,0
588,-685,0,0,0,0,0,0,0,0,0,-1,1812,1709,0,0
595,-685,0,0,0,0,0,0,0,0,0,-1,1819,1709,0,0
602,-685,0,0,0,0,0,0,0,0,0,-1,1826,1709,0,0
609,-685,0,0,0,0,0,0,0,0,0,-1,1833,1709,0,0
616,-685,0,0,0,0,0,0,0,0,0,-1,1840,1709,0,0
623,-685,0,0,0,0,0,0,0,0,0,-1,1847,1709,0,0
630,-685,0,0,0,0,0,0,0,0,0,-1,1854,1709,0,0
637,-685,0,0,0,0,0,0,0,0,0,-1,1861,1709,0,0
644,-685,0,0,0,0,0,0,0,0,0,-1,1868,1709,0,0
651,-685,0,0,0,0,0,0,0,0,0,-1,1875,1709,0,0
658,-685,0,0,0,0,0,0,0,0,0,-1,1882,1709,0,0
665,-685,0,0,0,0,0,0,0,0,0,-1,1889,1709,0,0
672,-685,0,0,0,0,0,0,0,0,0,-1,1896,1709,0,0
679,-685,0,0,0,0,0,0,0,0,0,-1,1903,1709,0,0
686,-685,0,0,0,0,0,0,0,0,0,-1,1910,1709,0,0
693,-685,0,0,0,0,0,0,0,0,0,-1,1917,1709,0,0
700,-685,0,0,0,0,0,0,0,0,0,-1,1924,1709,0,0
707,-685,0,0,0,0,0,0,0,0,0,-1,1931,1709,0,0
714,-685,0,0,0,0,0,0,0,0,0,-1,1938,1709,0,0
721,-685,0,0,0,0,0,0,0,0,0,-1,1945,1709,0,0
728,-685,0,0,0,0,0,0,0,0,0,-1,1952,1709,0,0
735,-685,0,0,0,0,0,0,0,0,0,-1,1959,1709,0,0
742,-685,0,0,0,0,0,0,0,0,0,-1,1966,1709,0,0
749,-685,0,0,0,0,0,0,0,0,0,-1,1973,1709,0,0
756,-685,0,0,0,0,0,0,0,0,0,-1,1980,1709,0,0
763,-685,0,0,0,0,0,0,0,0,0,-1,1987,1709,0,0
770,-685,0,0,0,0,0,0,0,0,0,-1,1994,1709,0,0
777,-685,0,0,0,0,0,0,0,0,0,-1,2001,1709,0,0
784,-685,0,0,0,0,0,0,0,0,0,-1,2008,1709,0,0
791,-685,0,0,0,0,0,0,0,0,0,-1,2015,1709,0,0
798,-685,0,0,0,0,0,0,0,0,0,-1,2022,1709,0,0
805,-685,0,0,0,0,0,0,0,0,0,-1,2029,1709,0,0
812,-685,0,0,0,0,0,0,0,0,0,-1,2036,1709,0,0
-700,-692,0,0,0,0,0,0,0,0,0,-1,524,1716,0,0
-693,-692,0,0,0,0,0,0,0,0,0,-1,531,1716,0,0
-686,-692,0,0,0,0,0,0,0,0,0,-1,538,1716,0,0
-679,-692,0,0,0,0,0,0,0,0,0,-1,545,1716,0,0
-672,-692,0,0,0,0,0,0,0,0,0,-1,552,1716,0,0
-665,-692,0,0,0,0,0,0,0,0,0,-1,559,1716,0,0
-658,-692,0,0,0,0,0,0,0,0,0,-1,566,1716,0,0
-651,-692,0,0,0,0,0,0,0,0,0,-1,573,1716,0,0
-644,-692,0,0,0,0,0,0,0,0,0,-1,580,1716,0,0
-637,-692,0,0,0,0,0,0,0,0,0,-1,587,1716,0,0
-630,-692,0,0,0,0,0,0,0,0,0,-1,594,1716,0,0
-623,-692,0,0,0,0,0,0,0,0,0,-1,601,1716,0,0
-616,-692,0,0,0,0,0,0,0,0,0,-1,608,1716,0,0
-609,-692,0,0,0,0,0,0,0,0,0,-1,615,1716,0,0
-602,-692,0,0,0,0,0,0,0,0,0,-1,622,1716,0,0
-595,-692,0,0,0,0,0,0,0,0,0,-1,629,1716,0,0
-588,-692,0,0,0,0,0,0,0,0,0,-1,636,1716,0,0
-581,-692,0,0,0,0,0,0,0,0,0,-1,643,1716,0,0
-574,-692,0,0,0,0,0,0,0,0,0,-1,650,1716,0,0
-567,-692,0,0,0,0,0,0,0,0,0,-1,657,1716,0,0
-560,-692,0,0,0,0,0,0,0,0,0,-1,664,1716,0,0
-553,-692,0,0,0,0,0,0,0,0,0,-1,671,1716,0,0
-546,-692,0,0,0,0,0,0,0,0,0,-1,678,1716,0,0
-539,-692,0,0,0,0,0,0,0,0,0,-1,685,1716,0,0
-532,-692,0,0,0,0,0,0,0,0,0,-1,692,1716,0,0
-525,-692,0,0,0,0,0,0,0,0,0,-1,699,1716,0,0
-518,-692,0,0,0,0,0,0,0,0,0,-1,706,1716,0,0
-511,-692,0,0,0,0,0,0,0,0,0,-1,713,1716,0,0
-504,-692,0,0,0,0,0,0,0,0,0,-1,720,1716,0,0
-497,-692,0,0,0,0,0,0,0,0,0,-1,727,1716,0,0
-490,-692,0,0,0,0,0,0,0,0,0,-1,734,1716,0,0
-483,-692,0,0,0,0,0,0,0,0,0,-1,741,1716,0,0
-476,-692,0,0,0,0,0,0,0,0,0,-1,748,1716,0,0
-469,-692,0,0,0,0,0,0,0,0,0,-1,755,1716,0,0
-462,-692,0,0,0,0,0,0,0,0,0,-1,762,1716,0,0
-455,-692,0,0,0,0,0,0,0,0,0,-1,769,1716,0,0
-448,-692,0,0,0,0,0,0,0,0,0,-1,776,1716,0,0
-441,-692,0,0,0,0,0,0,0,0,0,-1,783,1716,0,0
-434,-692,0,0,0,0,0,0,0,0,0,-1,790,1716,0,0
-427,-692,0,0,0,0,0,0,0,0,0,-1,797,1716,0,0
-420,-692,0,0,0,0,0,0,0,0,0,-1,804,1716,0,0
-413,-692,0,0,0,0,0,0,0,0,0,-1,811,1716,0,0
-406,-692,0,0,0,0,0,0,0,0,0,-1,818,1716,0,0
-399,-692,0,0,0,0,0,0,0,0,0,-1,825,1716,0,0
-392,-692,0,0,0,0,0,0,0,0,0,-1,832,1716,0,0
-385,-692,0,0,0,0,0,0,0,0,0,-1,839,1716,0,0
-378,-692,0,0,0,0,0,0,0,0,0,-1,846,1716,0,0
-371,-692,0,0,0,0,0,0,0,0,0,-1,853,1716,0,0
-364,-692,0,0,0,0,0,0,0,0,0,-1,860,1716,0,0
-357,-692,0,0,0,0,0,0,0,0,0,-1,867,1716,0,0
-350,-692,0,0,0,0,0,0,0,0,0,-1,874,1716,0,0
-343,-692,0,0,0,0,0,0,0,0,0,-1,881,1716,0,0
-336,-692,0,0,0,0,0,0,0,0,0,-1,888,1716,0,0
-329,-692,3.28168,4.92432,-0.024028,-0.0442018,-0.0151356,-0.0159261,-0.0523037,-0.491477,0.0309575,0.0495118,895,1716,3.28167,-4.92427
-322,-692,3.31561,4.34766,-0.015152,-0.0499831,-0.0174023,-0.00794762,-0.0571874,-0.392509,0.0357713,0.0449152,902,1716,3.31562,-4.34771
-315,-692,0.964417,5.73315,-0.00709657,-0.0521284,-0.0181789,-0.000673946,-0.058551,-0.339612,0.0388113,0.043739,909,1716,0.964438,-5.73313
-308,-692,1.51581,4.84155,-0.000257303,-0.0537822,-0.0182121,0.00535168,-0.0593911,-0.298763,0.0414932,0.0441078,916,1716,1.5158,-4.84151
-301,-692,1.78857,4.03455,0.00496193,-0.0535602,-0.0166859,0.00938513,-0.0579834,-0.259126,0.0421339,0.0451013,923,1716,1.78857,-4.0346
-294,-692,1.96875,3.27271,0,0,0,0,0,0,0,-1,930,1716,1.96878,-3.27271
-287,-692,1.72955,2.45239,0,0,0,0,0,0,0,-1,937,1716,1.72958,-2.45239
-280,-692,1.61554,2.50549,0.0135732,-0.0389921,-0.0123782,0.0163422,-0.0417611,-0.220076,0.0345995,0.0456939,944,1716,1.61555,-2.50544
-273,-692,1.40192,2.30554,0.0135176,-0.0329293,-0.00888004,0.0151574,-0.0345691,-0.18261,0.0294298,0.0434583,951,1716,1.4019,-2.30554
-266,-692,1.10919,2.97559,0.0122801,-0.027372,-0.00657508,0.0133419,-0.0284339,-0.160112,0.0246383,0.0436721,958,1716,1.1092,-2.9756
-259,-692,1.57953,3.01147,0.0107725,-0.0188081,-0.00633613,0.0120726,-0.0201081,-0.202372,0.0187716,0.0419874,965,1716,1.57955,-3.01146
-252,-692,2.15509,2.87842,0.00942799,-0.0125363,-0.00553105,0.0107422,-0.0138505,-0.233278,0.0142363,0.0406787,972,1716,2.15509,-2.87838
-245,-692,2.22339,2.63916,0.00850346,-0.0073959,-0.00469961,0.0097887,-0.00868114,-0.266951,0.01067,0.042253,979,1716,2.22339,-2.63914
-238,-692,1.54669,2.37024,0.00688422,-0.00345568,-0.00406778,0.00829266,-0.00486412,-0.333324,0.00768156,0.0377803,986,1716,1.54668,-2.37025
-231,-692,1.85822,2.26782,0.00541862,-0.000391725,-0.0033465,0.00694505,-0.00191815,-0.427937,0.00538453,0.0301778,993,1716,1.8582,-2.2678
-224,-692,1.79413,2.29443,0.00485476,0.00265378,-0.00266487,0.00663743,0.000871104,-0.589583,0.00416506,0.0164333,1000,1716,1.79413,-2.29438
-217,-692,1.77869,2.3385,0.00411709,0.00474254,-0.0017516,0.00620912,0.00265051,-0.873736,0.00359759,0.0119576,1007,1716,1.77868,-2.33849
-210,-692,1.80048,2.36047,0.00301729,0.00574283,-0.000715792,0.00591937,0.00284074,-1.32898,0.00341847,0.0123251,1014,1716,1.80045,-2.36052
-203,-692,1.80518,2.35767,0.00233088,0.00609863,0.000324592,0.00612639,0.00230312,1.48548,0.00357319,0.0136775,1021,1716,1.80518,-2.35762
-196,-692,1.78247,2.38062,0.00219363,0.00579848,0.000917611,0.00601862,0.00197349,1.33535,0.0035428,0.0172911,1028,1716,1.78245,-2.38057
-189,-692,1.77515,2.40137,0.00211868,0.00519465,0.0011262,0.0055629,0.00175043,1.25477,0.00328446,0.00919113,1035,1716,1.77511,-2.40141
-182,-692,1.77234,2.43774,0.00203436,0.00449955,0.00158622,0.00527577,0.00125813,1.1157,0.00318183,0.0132465,1042,1716,1.77236,-2.43774
-175,-692,1.76709,2.48181,0.00176348,0.00405698,0.00165155,0.00492087,0.000899593,1.08886,0.00302562,0.0143442,1049,1716,1.76711,-2.4818
-168,-692,1.77759,2.47681,0.00148783,0.00393691,0.00153323,0.00467459,0.000750148,1.12236,0.00289888,0.0114586,1056,1716,1.77754,-2.47677
-161,-692,1.78894,2.50208,0.00136933,0.00420923,0.00129819,0.00471323,0.000865339,1.20048,0.00289711,0.0131993,1063,1716,1.78891,-2.50203
-154,-692,1.79077,2.53162,0.000972594,0.003885,0.00111787,0.0042646,0.000592996,1.24344,0.00266746,0.0135224,1070,1716,1.79072,-2.53157
-147,-692,1.79822,2.52393,0.000575342,0.00435394,0.00090398,0.00455907,0.000370212,1.34766,0.0029238,0.0117899,1077,1716,1.79821,-2.52397
-140,-692,1.80664,2.54126,0.000261159,0.00487379,0.000894861,0.00504131,9.3638e-05,1.38573,0.0033301,0.00932375,1084,1716,1.80665,-2.54129
-133,-692,1.80627,2.58777,1.61485e-05,0.00523326,0.00106702,0.00544306,-0.000193646,1.37666,0.00369494,0.00935348,1091,1716,1.80621,-2.58773
-126,-692,1.79883,2.58887,-0.000383325,0.00558782,0.00120431,0.00582157,-0.000617071,1.37909,0.00410224,0.0072552,1098,1716,1.79878,-2.5889
-119,-692,1.7865,2.57764,-0.00101408,0.00599171,0.00130628,0.00622735,-0.00124972,1.39233,0.00462477,0.0103788,1105,1716,1.78645,-2.57758
-112,-692,1.77881,2.60437,-0.00156408,0.00639965,0.00133879,0.00661869,-0.00178312,1.40862,0.00511157,0.0104433,1112,1716,1.77876,-2.6044
-105,-692,1.8175,2.63379,-0.00245015,0.00665124,0.00121691,0.00681114,-0.00261005,1.44015,0.0056167,0.0154481,1119,1716,1.81752,-2.63384
-98,-692,1.83582,2.67017,-0.00357403,0.00647938,0.000894493,0.00655835,-0.003653,1.48274,0.00597454,0.017691,1126,1716,1.83576,-2.67019
-91,-692,1.81226,2.65063,-0.00448961,0.00582485,0.000437146,0.00584335,-0.0045081,1.52852,0.00599296,0.0193417,1133,1716,1.8122,-2.65068
-84,-692,1.80664,2.6095,-0.00525999,0.00438077,-0.00061899,0.00442035,-0.00529957,-1.50694,0.00561945,0.0200987,1140,1716,1.80658,-2.60955
-77,-692,1.80273,2.64319,-0.00566587,0.00237327,-0.00204835,0.00286509,-0.00615769,-1.33515,0.00532367,0.0128536,1147,1716,1.80278,-2.64323
-70,-692,1.80127,2.68384,-0.00581437,0.000331893,-0.00336263,0.00181413,-0.00729661,-1.15562,0.0055685,0.0134111,1154,1716,1.80125,-2.68384
-63,-692,1.8158,2.69434,-0.00571759,-0.00223482,-0.00466751,0.00100557,-0.00895798,-0.963944,0.00633384,0.0136351,1161,1716,1.81585,-2.69436
-56,-692,1.80066,2.72925,-0.00555894,-0.00472811,-0.00604608,0.000916812,-0.0112039,-0.819698,0.00779284,0.0150405,1168,1716,1.80065,-2.72919
-49,-692,1.76917,2.82971,-0.00533332,-0.00704808,-0.00717098,0.00103135,-0.0134127,-0.725899,0.00930469,0.0198494,1175,1716,1.76918,-2.82965
-42,-692,1.78748,2.802,-0.00507459,-0.00946281,-0.00839601,0.00140927,-0.0159467,-0.657593,0.0111306,0.0232711,1182,1716,1.78743,-2.80205
-35,-692,1.82471,2.72351,-0.00447756,-0.0115629,-0.00960832,0.00222039,-0.0182608,-0.608777,0.0129775,0.0259379,1189,1716,1.82468,-2.72346
-28,-692,1.77197,2.69263,-0.00332711,-0.0130668,-0.0107039,0.00356266,-0.0199566,-0.571912,0.0146372,0.0239706,1196,1716,1.77198,-2.69263
-21,-692,1.79651,2.73792,-0.00193233,-0.0140333,-0.0112028,0.0047495,-0.0207151,-0.537799,0.0156356,0.0182685,1203,1716,1.79652,-2.73797
-14,-692,1.83301,2.74329,-0.00150645,-0.0141603,-0.0108707,0.00474449,-0.0204112,-0.521853,0.015434,0.0133019,1210,1716,1.833,-2.74326
-7,-692,1.80933,2.72119,-0.000206845,-0.0126267,-0.0110123,0.00622578,-0.0190594,-0.528669,0.0152123,0.0143533,1217,1716,1.8093,-2.72117
0,-692,1.83411,2.74597,0.00158678,-0.00992307,-0.0105262,0.00782856,-0.0161649,-0.535237,0.0141286,0.0172576,1224,1716,1.83413,-2.746
7,-692,1.80237,2.76868,0.00261945,-0.00667363,-0.00998308,0.00898437,-0.0130385,-0.567588,0.0127866,0.0219704,1231,1716,1.80234,-2.76874
14,-692,1.80103,2.76941,0.00413463,-0.00253781,-0.00928133,0.0106611,-0.00906432,-0.612862,0.0114009,0.0232189,1238,1716,1.80108,-2.76946
21,-692,1.86389,2.73669,0.00613619,0.00182205,-0.00838829,0.0126403,-0.00468209,-0.659549,0.0103469,0.0241527,1245,1716,1.86391,-2.73671
28,-692,1.78625,2.74121,0.00837093,0.00649997,-0.00752387,0.0150173,-0.000146356,-0.723548,0.0100606,0.0239015,1252,1716,1.78624,-2.74125
35,-692,1.76184,2.76343,0.0106568,0.0104825,-0.00674134,0.0173116,0.00382777,-0.778934,0.0105003,0.02206,1259,1716,1.76186,-2.76338
42,-692,1.83069,2.80457,0.0130053,0.0136142,-0.00586248,0.0191801,0.00743937,-0.811344,0.0111661,0.0205549,1266,1716,1.83068,-2.80456
49,-692,1.80432,2.75635,0.0157174,0.015676,-0.00507205,0.0207688,0.0106246,-0.783356,0.0119919,0.0248395,1273,1716,1.80434,-2.75638
56,-692,1.75354,2.78125,0.0182977,0.0163603,-0.00417641,0.0216163,0.0130417,-0.671436,0.0125687,0.0297383,1280,1716,1.75354,-2.78126
63,-692,1.85205,2.80188,0.0204094,0.0161221,-0.00316851,0.0220913,0.0144403,-0.487992,0.0129536,0.0292693,1287,1716,1.85199,-2.8019
70,-692,1.85474,2.7699,0.02101,0.0137775,-0.00126337,0.0212243,0.0135632,-0.168053,0.0124108,0.0268361,1294,1716,1.85479,-2.76993
77,-692,1.84705,2.77209,0.0205491,0.0126947,0.00217674,0.021112,0.0121318,0.253057,0.0122342,0.0301137,1301,1716,1.84705,-2.77207
84,-692,1.85962,2.7489,0.0200653,0.00975577,0.00441813,0.0216996,0.00812147,0.354301,0.0126596,0.0330815,1308,1716,1.85965,-2.74893
91,-692,1.87195,2.7522,0.019898,0.00677611,0.00606435,0.0222714,0.00440271,0.373044,0.0136193,0.0311471,1315,1716,1.87192,-2.75224
98,-692,1.87317,2.79529,0.0187138,0.00448939,0.00848088,0.02267,0.000533227,0.436474,0.0149387,0.0270878,1322,1716,1.87314,-2.79527
105,-692,1.87073,2.72925,0.0170693,0.00305508,0.00977112,0.0220861,-0.00196172,0.474335,0.0154196,0.0319525,1329,1716,1.8707,-2.72921
112,-692,1.92493,2.62073,0.0161225,0.00348161,0.0112877,0.0227389,-0.00313475,0.530177,0.0163049,0.0358327,1336,1716,1.92497,-2.62077
119,-692,1.91711,2.6604,0.0148007,0.00509399,0.0121985,0.0230759,-0.00318115,0.596065,0.0165465,0.032031,1343,1716,1.91714,-2.66042
126,-692,1.94934,2.67627,0.0131081,0.00831164,0.0117425,0.0226947,-0.00127499,0.684665,0.0155722,0.0290029,1350,1716,1.94938,-2.67621
133,-692,1.95911,2.68823,0.0116888,0.0115003,0.0101524,0.0217474,0.0014417,0.780757,0.0140424,0.021608,1357,1716,1.95912,-2.68823
140,-692,1.88562,2.69824,0.0105032,0.013772,0.00766318,0.0199731,0.00430204,0.890463,0.0121382,0.0256579,1364,1716,1.88562,-2.69822
147,-692,1.87805,2.77136,0.00894917,0.0153452,0.00477622,0.0178952,0.00639917,1.0804,0.0104705,0.0283516,1371,1716,1.87804,-2.77132
154,-692,1.90833,2.7887,0.00661163,0.015819,0.00210426,0.0162771,0.00615351,1.35643,0.00949032,0.0240126,1378,1716,1.90829,-2.78875
161,-692,1.99036,2.74182,0.00487895,0.0159529,-0.000536088,0.0159788,0.00485306,-1.52254,0.00945933,0.0293325,1385,1716,1.99031,-2.74184
168,-692,1.95093,2.71899,0.0037799,0.0141882,-0.00225541,0.014656,0.00331219,-1.36632,0.00887505,0.0251962,1392,1716,1.95098,-2.71896
175,-692,1.94995,2.79407,0.00387527,0.0138828,-0.00323507,0.0148375,0.00292056,-1.28383,0.00907614,0.023053,1399,1716,1.94994,-2.79403
182,-692,1.93286,2.74255,0.00356788,0.0103914,-0.0041648,0.0123635,0.00159581,-1.12857,0.00776524,0.0162719,1406,1716,1.9328,-2.74254
189,-692,1.92163,2.69897,0.00229956,0.00884472,-0.00164293,0.00923397,0.00191031,-1.33816,0.00562833,0.0144438,1413,1716,1.92159,-2.69902
196,-692,1.92834,2.68823,0.00121128,0.00696431,0.000888862,0.00709851,0.00107707,1.42095,0.0044173,0.0111195,1420,1716,1.92838,-2.68827
203,-692,1.92041,2.67786,0.000689918,0.00552251,0.00321591,0.00712873,-0.000916296,1.10758,0.00508551,0.0133383,1427,1716,1.92042,-2.67784
210,-692,1.9386,2.66736,0.000846381,0.00463882,0.00557703,0.00863318,-0.00314798,0.94927,0.00704332,0.016262,1434,1716,1.93854,-2.66732
217,-692,1.93335,2.64893,0.00158835,0.00433048,0.00716417,0.0102536,-0.00433477,0.879944,0.00865059,0.0167488,1441,1716,1.93331,-2.64887
224,-692,1.91663,2.63184,0.00232347,0.00432507,0.00811942,0.0115051,-0.00485659,0.846719,0.00970293,0.0128248,1448,1716,1.91668,-2.63178
231,-692,1.92188,2.61096,0.00303159,0.00398876,0.00861153,0.012135,-0.00511465,0.813157,0.0102303,0.0104698,1455,1716,1.92184,-2.61102
238,-692,1.91895,2.57104,0.00347859,0.00380666,0.00856298,0.0122072,-0.00492193,0.794975,0.0101833,0.0165907,1462,1716,1.91899,-2.57109
245,-692,1.91565,2.55469,0.0037677,0.00415932,0.00808583,0.0120517,-0.00412469,0.797504,0.00970605,0.0195952,1469,1716,1.9156,-2.55463
252,-692,1.9519,2.5448,0.00397356,0.00429591,0.00705192,0.0111885,-0.00291903,0.796824,0.00859878,0.0171201,1476,1716,1.95185,-2.54477
259,-692,1.95483,2.54871,0.00404833,0.00425591,0.00560629,0.00975937,-0.00145513,0.794654,0.00704159,0.00966511,1483,1716,1.95478,-2.54869
266,-692,1.94409,2.51941,0.00387501,0.0040197,0.00414545,0.00809344,-0.000198728,0.794123,0.00546307,0.0099142,1490,1716,1.94413,-2.51939
273,-692,1.9187,2.46899,0.0036033,0.00383393,0.00282699,0.00654796,0.000889273,0.805782,0.00410115,0.0146211,1497,1716,1.91874,-2.46894
280,-692,1.9353,2.48242,0.00318752,0.00273192,0.00137352,0.004352,0.00156744,0.70322,0.00254517,0.0145846,1504,1716,1.93524,-2.48243
287,-692,1.93665,2.50195,0.00317939,0.00230226,0.000361245,0.00330901,0.00217264,0.344512,0.00194144,0.0109042,1511,1716,1.9366,-2.50193
294,-692,1.94385,2.46753,0.00372286,0.00201779,-0.000245062,0.00375739,0.00198326,-0.139951,0.00217045,0.0100242,1518,1716,1.94381,-2.46755
301,-692,1.94714,2.45178,0.00408009,0.0016962,-0.00057376,0.00421099,0.00156529,-0.224314,0.00245775,0.0121766,1525,1716,1.94717,-2.45181
308,-692,1.92761,2.44727,0.0041905,0.00117559,-0.00102693,0.00450706,0.000859036,-0.299011,0.00276323,0.0151972,1532,1716,1.9276,-2.44724
315,-692,1.95105,2.42358,0.00437047,0.000576172,-0.00148741,0.00488404,6.26023e-05,-0.332461,0.00323536,0.0145812,1539,1716,1.95108,-2.42354
322,-692,1.95068,2.39392,0.00349795,-6.81736e-05,-0.00162448,0.00412699,-0.000697217,-0.369447,0.00301076,0.0199718,1546,1716,1.95065,-2.39387
329,-692,1.93518,2.34741,0.00240084,-0.00078277,-0.00146767,0.00297419,-0.00135612,-0.372424,0.00255763,0.0182652,1553,1716,1.93519,-2.34739
336,-692,1.92798,2.30933,0.00223896,-0.00112649,-0.000559482,0.00232953,-0.00121706,-0.160494,0.00208093,0.012329,1560,1716,1.92803,-2.30934
343,-692,1.94165,2.3042,0.00205155,-0.001177,0.000866033,0.00226919,-0.00139464,0.246204,0.0021353,0.0122214,1567,1716,1.94168,-2.30415
350,-692,1.96509,2.29321,0.00107399,-0.000517402,0.00219462,0.00261271,-0.00205611,0.611484,0.00270192,0.0124293,1574,1716,1.96504,-2.2932
357,-692,1.95691,2.28809,0.000981706,0.000176292,0.00374209,0.0043427,-0.0031847,0.731797,0.00436305,0.0157886,1581,1716,1.9569,-2.28803
364,-692,1.93311,2.24829,0.00123685,0.00145846,0.00526433,0.00661315,-0.00391784,0.79592,0.00614609,0.0212958,1588,1716,1.93308,-2.24834
371,-692,1.95313,2.20068,0.000738223,0.00346666,0.00659708,0.0088391,-0.00463421,0.887357,0.00790409,0.0306947,1595,1716,1.95309,-2.2007
378,-692,1.87427,2.12439,0.00199645,0.00660838,0.00702575,0.0116969,-0.00309208,0.943967,0.00900732,0.0372951,1602,1716,1.87422,-2.1244
385,-692,2.35229,2.27502,0.00658246,0.0101874,0.0105199,0.0190581,-0.00228826,0.870243,0.0135328,0.0406789,1609,1716,2.35233,-2.275
392,-692,2.81567,2.41858,0.0102452,0.0145734,0.0119123,0.0245166,0.000302063,0.875254,0.0162446,0.042137,1616,1716,2.81569,-2.41864
399,-692,2.51099,2.17212,0.0150006,0.0195544,0.0137414,0.0312062,0.00334881,0.867501,0.0197826,0.0434365,1623,1716,2.51099,-2.17213
406,-692,2.14648,1.96057,0.0212511,0.0247634,0.0159815,0.039085,0.00692955,0.840123,0.0240815,0.0448629,1630,1716,2.14651,-1.96063
413,-692,3.46716,1.57922,0.029659,0.0301248,0.0191829,0.0490763,0.0107076,0.791468,0.0297967,0.0451058,1637,1716,3.46722,-1.57921
420,-692,2.95935,1.4751,0.0382511,0.0353833,0.0232662,0.0601276,0.0135068,0.754622,0.0364273,0.0463614,1644,1716,2.95938,-1.47513
427,-692,2.49292,1.44214,0.0495065,0.0410465,0.0285962,0.0741838,0.0163691,0.71197,0.045003,0.0478376,1651,1716,2.4929,-1.44215
434,-692,1.92139,1.45972,0.0599259,0.0494399,0.0356119,0.0906787,0.0186871,0.71231,0.0552864,0.0470584,1658,1716,1.92134,-1.45968
441,-692,1.34058,1.45459,0,0,0,0,0,0,0,-1,1665,1716,1.34058,-1.45464
448,-692,0.75769,1.4342,0,0,0,0,0,0,0,-1,1672,1716,0.757643,-1.43426
455,-692,0,0,0,0,0,0,0,0,0,-1,1679,1716,0,0
462,-692,0,0,0,0,0,0,0,0,0,-1,1686,1716,0,0
469,-692,0,0,0,0,0,0,0,0,0,-1,1693,1716,0,0
476,-692,0,0,0,0,0,0,0,0,0,-1,1700,1716,0,0
483,-692,0,0,0,0,0,0,0,0,0,-1,1707,1716,0,0
490,-692,0,0,0,0,0,0,0,0,0,-1,1714,1716,0,0
497,-692,0,0,0,0,0,0,0,0,0,-1,1721,1716,0,0
504,-692,0,0,0,0,0,0,0,0,0,-1,1728,1716,0,0
511,-692,0,0,0,0,0,0,0,0,0,-1,1735,1716,0,0
518,-692,0,0,0,0,0,0,0,0,0,-1,1742,1716,0,0
525,-692,0,0,0,0,0,0,0,0,0,-1,1749,1716,0,0
532,-692,0,0,0,0,0,0,0,0,0,-1,1756,1716,0,0
539,-692,0,0,0,0,0,0,0,0,0,-1,1763,1716,0,0
546,-692,0,0,0,0,0,0,0,0,0,-1,1770,1716,0,0
553,-692,0,0,0,0,0,0,0,0,0,-1,1777,1716,0,0
560,-692,0,0,0,0,0,0,0,0,0,-1,1784,1716,0,0
567,-692,0,0,0,0,0,0,0,0,0,-1,1791,1716,0,0
574,-692,0,0,0,0,0,0,0,0,0,-1,1798,1716,0,0
581,-692,0,0,0,0,0,0,0,0,0,-1,1805,1716,0,0
588,-692,0,0,0,0,0,0,0,0,0,-1,1812,1716,0,0
595,-692,0,0,0,0,0,0,0,0,0,-1,1819,1716,0,0
602,-692,0,0,0,0,0,0,0,0,0,-1,1826,1716,0,0
609,-692,0,0,0,0,0,0,0,0,0,-1,1833,1716,0,0
616,-692,0,0,0,0,0,0,0,0,0,-1,1840,1716,0,0
623,-692,0,0,0,0,0,0,0,0,0,-1,1847,1716,0,0
630,-692,0,0,0,0,0,0,0,0,0,-1,1854,1716,0,0
637,-692,0,0,0,0,0,0,0,0,0,-1,1861,1716,0,0
644,-692,0,0,0,0,0,0,0,0,0,-1,1868,1716,0,0
651,-692,0,0,0,0,0,0,0,0,0,-1,1875,1716,0,0
658,-692,0,0,0,0,0,0,0,0,0,-1,1882,1716,0,0
665,-692,0,0,0,0,0,0,0,0,0,-1,1889,1716,0,0
672,-692,0,0,0,0,0,0,0,0,0,-1,1896,1716,0,0
679,-692,0,0,0,0,0,0,0,0,0,-1,1903,1716,0,0
686,-692,0,0,0,0,0,0,0,0,0,-1,1910,1716,0,0
693,-692,0,0,0,0,0,0,0,0,0,-1,1917,1716,0,0
700,-692,0,0,0,0,0,0,0,0,0,-1,1924,1716,0,0
707,-692,0,0,0,0,0,0,0,0,0,-1,1931,1716,0,0
714,-692,0,0,0,0,0,0,0,0,0,-1,1938,1716,0,0
721,-692,0,0,0,0,0,0,0,0,0,-1,1945,1716,0,0
728,-692,0,0,0,0,0,0,0,0,0,-1,1952,1716,0,0
735,-692,0,0,0,0,0,0,0,0,0,-1,1959,1716,0,0
742,-692,0,0,0,0,0,0,0,0,0,-1,1966,1716,0,0
749,-692,0,0,0,0,0,0,0,0,0,-1,1973,1716,0,0
756,-692,0,0,0,0,0,0,0,0,0,-1,1980,1716,0,0
763,-692,0,0,0,0,0,0,0,0,0,-1,1987,1716,0,0
770,-692,0,0,0,0,0,0,0,0,0,-1,1994,1716,0,0
777,-692,0,0,0,0,0,0,0,0,0,-1,2001,1716,0,0
784,-692,0,0,0,0,0,0,0,0,0,-1,2008,1716,0,0
791,-692,0,0,0,0,0,0,0,0,0,-1,2015,1716,0,0
798,-692,0,0,0,0,0,0,0,0,0,-1,2022,1716,0,0
805,-692,0,0,0,0,0,0,0,0,0,-1,2029,1716,0,0
812,-692,0,0,0,0,0,0,0,0,0,-1,2036,1716,0,0
-700,-699,0,0,0,0,0,0,0,0,0,-1,524,1723,0,0
-693,-699,0,0,0,0,0,0,0,0,0,-1,531,1723,0,0
-686,-699,0,0,0,0,0,0,0,0,0,-1,538,1723,0,0
-679,-699,0,0,0,0,0,0,0,0,0,-1,545,1723,0,0
-672,-699,0,0,0,0,0,0,0,0,0,-1,552,1723,0,0
-665,-699,0,0,0,0,0,0,0,0,0,-1,559,1723,0,0
-658,-699,0,0,0,0,0,0,0,0,0,-1,566,1723,0,0
-651,-699,0,0,0,0,0,0,0,0,0,-1,573,1723,0,0
-644,-699,0,0,0,0,0,0,0,0,0,-1,580,1723,0,0
-637,-699,0,0,0,0,0,0,0,0,0,-1,587,1723,0,0
-630,-699,0,0,0,0,0,0,0,0,0,-1,594,1723,0,0
-623,-699,0,0,0,0,0,0,0,0,0,-1,601,1723,0,0
-616,-699,0,0,0,0,0,0,0,0,0,-1,608,1723,0,0
-609,-699,0,0,0,0,0,0,0,0,0,-1,615,1723,0,0
-602,-699,0,0,0,0,0,0,0,0,0,-1,622,1723,0,0
-595,-699,0,0,0,0,0,0,0,0,0,-1,629,1723,0,0
-588,-699,0,0,0,0,0,0,0,0,0,-1,636,1723,0,0
-581,-699,0,0,0,0,0,0,0,0,0,-1,643,1723,0,0
-574,-699,0,0,0,0,0,0,0,0,0,-1,650,1723,0,0
-567,-699,0,0,0,0,0,0,0,0,0,-1,657,1723,0,0
-560,-699,0,0,0,0,0,0,0,0,0,-1,664,1723,0,0
-553,-699,0,0,0,0,0,0,0,0,0,-1,671,1723,0,0
-546,-699,0,0,0,0,0,0,0,0,0,-1,678,1723,0,0
-539,-699,0,0,0,0,0,0,0,0,0,-1,685,1723,0,0
-532,-699,0,0,0,0,0,0,0,0,0,-1,692,1723,0,0
-525,-699,0,0,0,0,0,0,0,0,0,-1,699,1723,0,0
-518,-699,0,0,0,0,0,0,0,0,0,-1,706,1723,0,0
-511,-699,0,0,0,0,0,0,0,0,0,-1,713,1723,0,0
-504,-699,0,0,0,0,0,0,0,0,0,-1,720,1723,0,0
-497,-699,0,0,0,0,0,0,0,0,0,-1,727,1723,0,0
-490,-699,0,0,0,0,0,0,0,0,0,-1,734,1723,0,0
-483,-699,0,0,0,0,0,0,0,0,0,-1,741,1723,0,0
-476,-699,0,0,0,0,0,0,0,0,0,-1,748,1723,0,0
-469,-699,0,0,0,0,0,0,0,0,0,-1,755,1723,0,0
-462,-699,0,0,0,0,0,0,0,0,0,-1,762,1723,0,0
-455,-699,0,0,0,0,0,0,0,0,0,-1,769,1723,0,0
-448,-699,0,0,0,0,0,0,0,0,0,-1,776,1723,0,0
-441,-699,0,0,0,0,0,0,0,0,0,-1,783,1723,0,0
-434,-699,0,0,0,0,0,0,0,0,0,-1,790,1723,0,0
-427,-699,0,0,0,0,0,0,0,0,0,-1,797,1723,0,0
-420,-699,0,0,0,0,0,0,0,0,0,-1,804,1723,0,0
-413,-699,0,0,0,0,0,0,0,0,0,-1,811,1723,0,0
-406,-699,0,0,0,0,0,0,0,0,0,-1,818,1723,0,0
-399,-699,0,0,0,0,0,0,0,0,0,-1,825,1723,0,0
-392,-699,0,0,0,0,0,0,0,0,0,-1,832,1723,0,0
-385,-699,0,0,0,0,0,0,0,0,0,-1,839,1723,0,0
-378,-699,0,0,0,0,0,0,0,0,0,-1,846,1723,0,0
-371,-699,0,0,0,0,0,0,0,0,0,-1,853,1723,0,0
-364,-699,0,0,0,0,0,0,0,0,0,-1,860,1723,0,0
-357,-699,0,0,0,0,0,0,0,0,0,-1,867,1723,0,0
-350,-699,0,0,0,0,0,0,0,0,0,-1,874,1723,0,0
-343,-699,0,0,0,0,0,0,0,0,0,-1,881,1723,0,0
-336,-699,0,0,0,0,0,0,0,0,0,-1,888,1723,0,0
-329,-699,0,0,0,0,0,0,0,0,0,-1,895,1723,0,0
-322,-699,0,0,0,0,0,0,0,0,0,-1,902,1723,0,0
-315,-699,0.7276,5.51746,0,0,0,0,0,0,0,-1,909,1723,0.727571,-5.51751
-308,-699,1.24133,5.14661,0,0,0,0,0,0,0,-1,916,1723,1.24135,-5.14656
-301,-699,1.33063,4.48718,0.00586429,-0.0631296,-0.0153311,0.00911758,-0.0663829,-0.209101,0.0475865,0.0454957,923,1723,1.33063,-4.48721
-294,-699,1.40955,3.745,0,0,0,0,0,0,0,-1,930,1723,1.40956,-3.74497
-287,-699,1.48566,2.48828,0.0141278,-0.0533257,-0.0147457,0.0172105,-0.0564083,-0.206084,0.0444668,0.0467095,937,1723,1.48565,-2.48827
-280,-699,1.63727,2.66284,0.0158544,-0.0448189,-0.0131707,0.01859,-0.0475546,-0.204798,0.0393902,0.0451236,944,1723,1.63728,-2.66284
-273,-699,1.87402,2.83411,0.0159496,-0.0374659,-0.0100209,0.0177677,-0.039284,-0.179476,0.0337106,0.0443334,951,1723,1.87401,-2.83416
-266,-699,1.65314,3.56506,0.0139913,-0.0304254,-0.007999,0.0153879,-0.031822,-0.172858,0.0278017,0.046108,958,1723,1.65313,-3.56502
-259,-699,2.10925,3.55261,0.0121191,-0.0152015,-0.0100408,0.0154123,-0.0184947,-0.316926,0.0196031,0.0425261,965,1723,2.10924,-3.55266
-252,-699,0.230774,2.64319,0,0,0,0,0,0,0,-1,972,1723,0.230798,-2.64314
-245,-699,0.851257,2.62549,0.00975683,0.000625642,-0.00897729,0.0152628,-0.00488033,-0.550158,0.0121337,0.0441314,979,1723,0.851257,-2.62548
-238,-699,1.54266,2.37793,0.00798188,0.00646393,-0.00859626,0.0158526,-0.00140679,-0.741367,0.0110672,0.0434196,986,1723,1.54267,-2.37795
-231,-699,1.94897,2.21362,0.00647608,0.0109517,-0.00801945,0.0170397,0.000388058,-0.92146,0.0112327,0.0382444,993,1723,1.94897,-2.21365
-224,-699,2.00995,2.30188,0.00604725,0.014917,-0.00728685,0.0190124,0.0019518,-1.05876,0.012077,0.0338976,1000,1723,2.00997,-2.3019
-217,-699,1.87036,2.30286,0.00531569,0.0170752,-0.00594954,0.0195602,0.00283073,-1.17515,0.0122065,0.0231931,1007,1723,1.87036,-2.30282
-210,-699,1.84058,2.35938,0.00416344,0.0174551,-0.00430363,0.0187269,0.00289168,-1.28346,0.011641,0.0163317,1014,1723,1.8406,-2.3594
-203,-699,1.85754,2.36804,0.00355971,0.016589,-0.00252951,0.0170628,0.00308586,-1.38561,0.0104989,0.020428,1021,1723,1.85754,-2.36805
-196,-699,1.83472,2.38635,0.00348937,0.014741,-0.00120987,0.0148697,0.00336074,-1.46488,0.00900441,0.016602,1028,1723,1.83476,-2.38633
-189,-699,1.79407,2.41589,0.00340861,0.0126436,-0.000350995,0.012657,0.00339529,-1.53286,0.00756462,0.00902396,1035,1723,1.79401,-2.41588
-182,-699,1.79053,2.43738,0.00323568,0.010459,0.000719286,0.0105299,0.00316475,1.4725,0.00623859,0.0123711,1042,1723,1.79056,-2.43734
-175,-699,1.8114,2.4696,0.002803,0.00859193,0.00125861,0.00885374,0.0025412,1.36571,0.00526402,0.0133877,1049,1723,1.81142,-2.46961
-168,-699,1.82849,2.46802,0.00235805,0.00727465,0.00144616,0.00766847,0.00196423,1.30492,0.00459957,0.0145568,1056,1723,1.82853,-2.46807
-161,-699,1.81445,2.4812,0.00214535,0.00656278,0.00136271,0.00694932,0.0017588,1.2944,0.00417208,0.0128386,1063,1723,1.81447,-2.48123
-154,-699,1.79309,2.52856,0.00145879,0.00446952,0.00169093,0.00522808,0.000700224,1.1491,0.00327701,0.0127781,1070,1723,1.79314,-2.52862
-147,-699,1.79919,2.51453,0.000667518,0.00456302,0.00122294,0.00491512,0.000315419,1.29047,0.00317683,0.0135049,1077,1723,1.79915,-2.51456
-140,-699,1.8075,2.53125,7.2976e-05,0.00457457,0.000996235,0.00478519,-0.000137643,1.36245,0.00323698,0.0093093,1084,1723,1.80749,-2.53131
-133,-699,1.80847,2.56995,-0.000202037,0.0044338,0.000946337,0.00461954,-0.000387775,1.37699,0.00321675,0.00876389,1091,1723,1.80851,-2.57
-126,-699,1.81421,2.57764,-0.000565047,0.00427714,0.000909041,0.00444218,-0.00073008,1.39121,0.00323241,0.0107189,1098,1723,1.81418,-2.57758
-119,-699,1.80847,2.58301,-0.00115738,0.00406876,0.000864562,0.00420807,-0.0012967,1.41103,0.00332304,0.0156192,1105,1723,1.80842,-2.58303
-112,-699,1.78772,2.60889,-0.00156556,0.00395902,0.000730384,0.00405395,-0.00166049,1.44155,0.00339433,0.0121926,1112,1723,1.78774,-2.60883
-105,-699,1.79187,2.64124,-0.00222413,0.00385505,0.00053926,0.00390251,-0.00227159,1.483,0.00360584,0.0133425,1119,1723,1.79185,-2.64126
-98,-699,1.81885,2.6571,-0.00312252,0.00359097,0.000310209,0.00360527,-0.00313682,1.52472,0.00389568,0.014637,1126,1723,1.81881,-2.65714
-91,-699,1.83032,2.62939,-0.00379146,0.00305948,3.26711e-05,0.00305964,-0.00379161,1.56603,0.00396309,0.0195642,1133,1723,1.8303,-2.62942
-84,-699,1.81873,2.61194,-0.00437422,0.0020927,-0.000708494,0.00216941,-0.00445093,-1.46294,0.00389718,0.0212886,1140,1723,1.81875,-2.612
-77,-699,1.81213,2.66431,-0.00465919,0.000774741,-0.00170668,0.0012663,-0.00515075,-1.29036,0.00392463,0.0146641,1147,1723,1.81215,-2.66429
-70,-699,1.8147,2.69568,-0.00469638,-0.000530776,-0.00264321,0.000751631,-0.00597879,-1.11908,0.00425857,0.0166877,1154,1723,1.81472,-2.69568
-63,-699,1.82104,2.7135,-0.004445,-0.00208697,-0.00363492,0.000555367,-0.00708734,-0.942224,0.00492047,0.014752,1161,1723,1.82098,-2.71348
-56,-699,1.81555,2.71143,-0.00402714,-0.00366857,-0.0046618,0.000817393,-0.0085131,-0.804618,0.00596656,0.010514,1168,1723,1.81557,-2.71147
-49,-699,1.79907,2.74329,-0.00351174,-0.00519664,-0.00554934,0.00125873,-0.00996711,-0.710068,0.0071016,0.0191013,1175,1723,1.79908,-2.74329
-42,-699,1.80505,2.76184,-0.00289471,-0.00672498,-0.00652936,0.00199458,-0.0116143,-0.642744,0.00848621,0.0185043,1182,1723,1.8051,-2.76185
-35,-699,1.82654,2.77051,-0.00200803,-0.00816638,-0.00748652,0.0030078,-0.0131822,-0.590295,0.00994356,0.0176362,1189,1723,1.82648,-2.77045
-28,-699,1.84253,2.71448,-0.000724268,-0.00931797,-0.00836446,0.00438245,-0.0144247,-0.548123,0.0113626,0.0136693,1196,1723,1.84256,-2.71451
-21,-699,1.83545,2.724,0.000754673,-0.0102662,-0.00877703,0.00560768,-0.0151192,-0.505083,0.0123796,0.0101117,1203,1723,1.8354,-2.72399
-14,-699,1.8335,2.72729,0.00141812,-0.01052,-0.00845168,0.00579608,-0.0148979,-0.477943,0.0123269,0.0101373,1210,1723,1.83345,-2.72732
-7,-699,1.82922,2.73206,0.00258406,-0.00932157,-0.008542,0.00704286,-0.0137804,-0.481081,0.0122303,0.00837613,1217,1723,1.82917,-2.73203
0,-699,1.83215,2.74817,0.00402356,-0.00714814,-0.0080919,0.00827034,-0.0113949,-0.483305,0.0114014,0.0109413,1224,1723,1.83221,-2.74819
7,-699,1.8374,2.74561,0.00471999,-0.00461522,-0.00759198,0.00896444,-0.00885966,-0.50978,0.0102908,0.0163757,1231,1723,1.8374,-2.74559
14,-699,1.84766,2.75452,0.00559216,-0.00141891,-0.00702347,0.00993633,-0.00576308,-0.553927,0.00917018,0.015796,1238,1723,1.84765,-2.75456
21,-699,1.88391,2.75513,0.00678209,0.00198815,-0.00626454,0.0110926,-0.00232233,-0.602679,0.00827846,0.0162465,1245,1723,1.88387,-2.75516
28,-699,1.85217,2.7583,0.00804457,0.00565514,-0.00552576,0.0125033,0.00119642,-0.678933,0.00796673,0.0157909,1252,1723,1.85213,-2.75832
35,-699,1.83899,2.77637,0.00922218,0.00878167,-0.0048727,0.0138796,0.00412424,-0.762812,0.00823029,0.0130577,1259,1723,1.83896,-2.77639
42,-699,1.85071,2.77173,0.0104626,0.011194,-0.00413387,0.0149783,0.0066783,-0.829516,0.00866463,0.0116535,1266,1723,1.85071,-2.77173
49,-699,1.8667,2.75684,0.0117677,0.0130229,-0.0034868,0.0159382,0.0088525,-0.874438,0.00922072,0.013961,1273,1723,1.8667,-2.75688
56,-699,1.89368,2.76025,0.0130639,0.0137405,-0.00282441,0.0162468,0.0105576,-0.845003,0.00951946,0.0149523,1280,1723,1.89365,-2.76026
63,-699,1.90747,2.78125,0.0140889,0.0137481,-0.00210413,0.0160295,0.0118075,-0.745002,0.00959383,0.0125076,1287,1723,1.90753,-2.78122
70,-699,1.88867,2.77112,0.0140501,0.0118162,-0.000613862,0.0142077,0.0116587,-0.251264,0.00874681,0.0108213,1294,1723,1.88862,-2.77116
77,-699,1.86523,2.75269,0.0134163,0.0107671,0.00189262,0.0144018,0.00978164,0.480079,0.00849103,0.0109177,1301,1723,1.86518,-2.75265
84,-699,1.8501,2.74255,0.0126861,0.00834964,0.00348698,0.014624,0.00641175,0.507247,0.00846448,0.0130159,1308,1723,1.85011,-2.74256
91,-699,1.85254,2.74475,0.0123659,0.0054243,0.00480717,0.0148243,0.0029659,0.472728,0.00905755,0.0124722,1315,1723,1.8526,-2.74477
98,-699,1.87158,2.74902,0.0113764,0.00282146,0.00690001,0.0152172,-0.00101938,0.507929,0.0105011,0.0112497,1322,1723,1.8716,-2.74897
105,-699,1.87122,2.74573,0.0101135,0.000850884,0.00822341,0.0149201,-0.00395567,0.528942,0.0114945,0.0155066,1329,1723,1.87122,-2.74576
112,-699,1.88647,2.75012,0.0094665,0.000309696,0.00963408,0.0155547,-0.00577854,0.56358,0.0127406,0.0214322,1336,1723,1.88648,-2.75012
119,-699,1.87195,2.75696,0.00851717,0.00062336,0.0106598,0.0159373,-0.00679676,0.608094,0.0134745,0.0156097,1343,1723,1.87195,-2.75693
126,-699,1.88965,2.75623,0.00732004,0.00268111,0.0107501,0.015998,-0.00599689,0.679146,0.0131291,0.016845,1350,1723,1.88971,-2.75621
133,-699,1.91882,2.75806,0.00632078,0.00514485,0.00990587,0.0156561,-0.00419048,0.755755,0.012079,0.015366,1357,1723,1.91882,-2.75801
140,-699,1.92102,2.72278,0.00547514,0.00718265,0.00827483,0.0146476,-0.00198986,0.836804,0.0104915,0.0161904,1364,1723,1.92107,-2.72276
147,-699,1.9209,2.74231,0.00428829,0.00883444,0.00622989,0.013193,-7.02566e-05,0.960327,0.00881884,0.0138536,1371,1723,1.92088,-2.74229
154,-699,1.92139,2.74207,0.00286686,0.00961302,0.00412441,0.011568,0.000911867,1.12816,0.00742674,0.0130455,1378,1723,1.92139,-2.7421
161,-699,1.92896,2.67822,0.00169105,0.0103273,0.00211725,0.0108184,0.00119992,1.34286,0.00684745,0.00945455,1385,1723,1.929,-2.67821
168,-699,1.93591,2.69006,0.000827668,0.00969937,0.000507516,0.00972831,0.00079873,1.51384,0.00623637,0.010686,1392,1723,1.93591,-2.69005
175,-699,1.93762,2.7019,0.000794032,0.010295,-0.000778102,0.0103583,0.000730729,-1.48962,0.00667532,0.0115035,1399,1723,1.93767,-2.70196
182,-699,1.91675,2.69324,0.00045067,0.00827022,-0.00173325,0.00863718,8.37049e-05,-1.36216,0.00573042,0.0120364,1406,1723,1.91671,-2.69324
189,-699,1.91284,2.69482,-0.00037863,0.00737673,-0.000459463,0.00740385,-0.000405756,-1.51183,0.00507656,0.0143752,1413,1723,1.91283,-2.69482
196,-699,1.91858,2.67078,-0.00105357,0.00631535,0.00081533,0.00640448,-0.00114271,1.46191,0.00469712,0.0148847,1420,1723,1.91854,-2.67077
203,-699,1.90723,2.64563,-0.00132305,0.00531459,0.00212409,0.00593612,-0.00194457,1.28613,0.00474047,0.0127326,1427,1723,1.90719,-2.64567
210,-699,1.91064,2.63477,-0.00113031,0.00453707,0.00356972,0.00626109,-0.00285433,1.12088,0.00538391,0.0128777,1434,1723,1.91067,-2.63479
217,-699,1.94263,2.6571,-0.000576319,0.00408105,0.00469842,0.00699621,-0.00349148,1.01547,0.00616674,0.0142625,1441,1723,1.94264,-2.65707
224,-699,1.93359,2.63855,6.87906e-05,0.00393882,0.00545325,0.00779019,-0.00378258,0.955887,0.00681377,0.0156711,1448,1723,1.93365,-2.63859
231,-699,1.93848,2.60571,0.000831707,0.00349982,0.00582994,0.00814639,-0.00381486,0.897876,0.00705516,0.0113921,1455,1723,1.93847,-2.60576
238,-699,1.91577,2.58301,0.00159593,0.00327858,0.00591056,0.00840739,-0.00353289,0.856094,0.00708262,0.0101351,1462,1723,1.91582,-2.58305
245,-699,1.9104,2.56763,0.00239628,0.00360373,0.0058178,0.00884905,-0.00284903,0.837099,0.0070438,0.0119513,1469,1723,1.91037,-2.56765
252,-699,1.92334,2.56738,0.00312226,0.00381716,0.00534013,0.00882113,-0.00188171,0.817884,0.00659805,0.00976174,1476,1723,1.9234,-2.56741
259,-699,1.93433,2.54761,0.00366011,0.00393212,0.00439419,0.00819241,-0.000600179,0.800869,0.00567226,0.0103846,1483,1723,1.9343,-2.54761
266,-699,1.92847,2.51721,0.00417455,0.00393241,0.00346339,0.00751899,0.000587975,0.767927,0.00482861,0.0128121,1490,1723,1.92842,-2.51726
273,-699,1.91882,2.5083,0.00463426,0.00385002,0.0026458,0.00691684,0.00156744,0.711831,0.0041877,0.0119936,1497,1723,1.91886,-2.50832
280,-699,1.93921,2.50916,0.00486917,0.003093,0.00166508,0.0058682,0.00209397,0.540409,0.00343399,0.0123073,1504,1723,1.93924,-2.50914
287,-699,1.93164,2.47632,0.00534838,0.00276114,0.000887279,0.00562342,0.00248609,0.300597,0.00325393,0.0105892,1511,1723,1.93167,-2.47636
294,-699,1.94153,2.44458,0.00624677,0.00250597,0.000307785,0.00627192,0.00248082,0.0815473,0.00364734,0.0107482,1518,1723,1.94148,-2.44461
301,-699,1.94214,2.46082,0.00687655,0.00213531,-0.000157639,0.00688178,0.00213007,-0.0331996,0.00406817,0.0118859,1525,1723,1.94214,-2.46076
308,-699,1.9342,2.47607,0.0071063,0.00155226,-0.000746742,0.00720495,0.00145361,-0.131343,0.00439955,0.0169192,1532,1723,1.93423,-2.47608
315,-699,1.97961,2.44922,0.00738152,0.000917972,-0.0013343,0.00764613,0.000653358,-0.195776,0.00489419,0.0195509,1539,1723,1.97964,-2.44922
322,-699,1.94873,2.39148,0.00611322,0.000140039,-0.00153876,0.00648632,-0.000233058,-0.237876,0.00440395,0.0203021,1546,1723,1.94877,-2.39143
329,-699,1.90027,2.33752,0.00445436,-0.000858405,-0.00138807,0.00479516,-0.0011992,-0.240759,0.00366254,0.0162414,1553,1723,1.9003,-2.33758
336,-699,1.89697,2.30969,0.00382972,-0.0013831,-0.000308849,0.00384795,-0.00140133,-0.0589731,0.00313849,0.0135986,1560,1723,1.897,-2.30972
343,-699,1.90442,2.31104,0.00303729,-0.00160157,0.00143426,0.00344492,-0.0020092,0.276907,0.00318509,0.0173822,1567,1723,1.90444,-2.31108
350,-699,1.96191,2.33167,0.00122709,-0.00100336,0.00307647,0.00338423,-0.00316051,0.611515,0.00377934,0.0271944,1574,1723,1.96188,-2.33167
357,-699,2.02905,2.41528,0.000436853,-0.000312272,0.00516095,0.00523681,-0.00511223,0.749173,0.00597516,0.0366831,1581,1723,2.02911,-2.41531
364,-699,1.87427,2.24878,0.00021702,0.00106719,0.00752283,0.00817694,-0.00689273,0.813621,0.008711,0.0387606,1588,1723,1.87424,-2.24881
371,-699,1.4812,2.30994,-0.000944344,0.00329274,0.00973559,0.0111376,-0.00878923,0.892532,0.0115314,0.0412381,1595,1723,1.48121,-2.30998
378,-699,1.40466,2.00684,-0.000192691,0.00697664,0.010874,0.0148416,-0.00805766,0.944616,0.0134129,0.0436135,1602,1723,1.40471,-2.00684
385,-699,1.29724,1.49463,0.00444637,0.0111854,0.0155156,0.0236931,-0.00806135,0.892323,0.0190595,0.0451345,1609,1723,1.29719,-1.49465
392,-699,3.34595,2.38208,0.00873521,0.0164603,0.0178586,0.0308693,-0.00567373,0.891901,0.0227083,0.0480597,1616,1723,3.34598,-2.38205
399,-699,2.96191,1.9989,0.0145343,0.0225057,0.0207207,0.0396205,-0.00258054,0.880415,0.0273145,0.0473878,1623,1723,2.96193,-1.99885
406,-699,2.17175,1.51025,0,0,0,0,0,0,0,-1,1630,1723,2.17179,-1.51028
413,-699,3.96301,1.05859,0,0,0,0,0,0,0,-1,1637,1723,3.96307,-1.05858
420,-699,3.47339,1.00867,0,0,0,0,0,0,0,-1,1644,1723,3.47335,-1.00864
427,-699,3.02478,0.874878,0,0,0,0,0,0,0,-1,1651,1723,3.02473,-0.874913
434,-699,2.49915,0.996338,0,0,0,0,0,0,0,-1,1658,1723,2.49909,-0.996335
441,-699,0,0,0,0,0,0,0,0,0,-1,1665,1723,0,0
448,-699,0,0,0,0,0,0,0,0,0,-1,1672,1723,0,0
455,-699,0,0,0,0,0,0,0,0,0,-1,1679,1723,0,0
462,-699,0,0,0,0,0,0,0,0,0,-1,1686,1723,0,0
469,-699,0,0,0,0,0,0,0,0,0,-1,1693,1723,0,0
476,-699,0,0,0,0,0,0,0,0,0,-1,1700,1723,0,0
483,-699,0,0,0,0,0,0,0,0,0,-1,1707,1723,0,0
490,-699,0,0,0,0,0,0,0,0,0,-1,1714,1723,0,0
497,-699,0,0,0,0,0,0,0,0,0,-1,1721,1723,0,0
504,-699,0,0,0,0,0,0,0,0,0,-1,1728,1723,0,0
511,-699,0,0,0,0,0,0,0,0,0,-1,1735,1723,0,0
518,-699,0,0,0,0,0,0,0,0,0,-1,1742,1723,0,0
525,-699,0,0,0,0,0,0,0,0,0,-1,1749,1723,0,0
532,-699,0,0,0,0,0,0,0,0,0,-1,1756,1723,0,0
539,-699,0,0,0,0,0,0,0,0,0,-1,1763,1723,0,0
546,-699,0,0,0,0,0,0,0,0,0,-1,1770,1723,0,0
553,-699,0,0,0,0,0,0,0,0,0,-1,1777,1723,0,0
560,-699,0,0,0,0,0,0,0,0,0,-1,1784,1723,0,0
567,-699,0,0,0,0,0,0,0,0,0,-1,1791,1723,0,0
574,-699,0,0,0,0,0,0,0,0,0,-1,1798,1723,0,0
581,-699,0,0,0,0,0,0,0,0,0,-1,1805,1723,0,0
588,-699,0,0,0,0,0,0,0,0,0,-1,1812,1723,0,0
595,-699,0,0,0,0,0,0,0,0,0,-1,1819,1723,0,0
602,-699,0,0,0,0,0,0,0,0,0,-1,1826,1723,0,0
609,-699,0,0,0,0,0,0,0,0,0,-1,1833,1723,0,0
616,-699,0,0,0,0,0,0,0,0,0,-1,1840,1723,0,0
623,-699,0,0,0,0,0,0,0,0,0,-1,1847,1723,0,0
630,-699,0,0,0,0,0,0,0,0,0,-1,1854,1723,0,0
637,-699,0,0,0,0,0,0,0,0,0,-1,1861,1723,0,0
644,-699,0,0,0,0,0,0,0,0,0,-1,1868,1723,0,0
651,-699,0,0,0,0,0,0,0,0,0,-1,1875,1723,0,0
658,-699,0,0,0,0,0,0,0,0,0,-1,1882,1723,0,0
665,-699,0,0,0,0,0,0,0,0,0,-1,1889,1723,0,0
672,-699,0,0,0,0,0,0,0,0,0,-1,1896,1723,0,0
679,-699,0,0,0,0,0,0,0,0,0,-1,1903,1723,0,0
686,-699,0,0,0,0,0,0,0,0,0,-1,1910,1723,0,0
693,-699,0,0,0,0,0,0,0,0,0,-1,1917,1723,0,0
700,-699,0,0,0,0,0,0,0,0,0,-1,1924,1723,0,0
707,-699,0,0,0,0,0,0,0,0,0,-1,1931,1723,0,0
714,-699,0,0,0,0,0,0,0,0,0,-1,1938,1723,0,0
721,-699,0,0,0,0,0,0,0,0,0,-1,1945,1723,0,0
728,-699,0,0,0,0,0,0,0,0,0,-1,1952,1723,0,0
735,-699,0,0,0,0,0,0,0,0,0,-1,1959,1723,0,0
742,-699,0,0,0,0,0,0,0,0,0,-1,1966,1723,0,0
749,-699,0,0,0,0,0,0,0,0,0,-1,1973,1723,0,0
756,-699,0,0,0,0,0,0,0,0,0,-1,1980,1723,0,0
763,-699,0,0,0,0,0,0,0,0,0,-1,1987,1723,0,0
770,-699,0,0,0,0,0,0,0,0,0,-1,1994,1723,0,0
777,-699,0,0,0,0,0,0,0,0,0,-1,2001,1723,0,0
784,-699,0,0,0,0,0,0,0,0,0,-1,2008,1723,0,0
791,-699,0,0,0,0,0,0,0,0,0,-1,2015,1723,0,0
798,-699,0,0,0,0,0,0,0,0,0,-1,2022,1723,0,0
805,-699,0,0,0,0,0,0,0,0,0,-1,2029,1723,0,0
812,-699,0,0,0,0,0,0,0,0,0,-1,2036,1723,0,0
-700,-706,0,0,0,0,0,0,0,0,0,-1,524,1730,0,0
-693,-706,0,0,0,0,0,0,0,0,0,-1,531,1730,0,0
-686,-706,0,0,0,0,0,0,0,0,0,-1,538,1730,0,0
-679,-706,0,0,0,0,0,0,0,0,0,-1,545,1730,0,0
-672,-706,0,0,0,0,0,0,0,0,0,-1,552,1730,0,0
-665,-706,0,0,0,0,0,0,0,0,0,-1,559,1730,0,0
-658,-706,0,0,0,0,0,0,0,0,0,-1,566,1730,0,0
-651,-706,0,0,0,0,0,0,0,0,0,-1,573,1730,0,0
-644,-706,0,0,0,0,0,0,0,0,0,-1,580,1730,0,0
-637,-706,0,0,0,0,0,0,0,0,0,-1,587,1730,0,0
-630,-706,0,0,0,0,0,0,0,0,0,-1,594,1730,0,0
-623,-706,0,0,0,0,0,0,0,0,0,-1,601,1730,0,0
-616,-706,0,0,0,0,0,0,0,0,0,-1,608,1730,0,0
-609,-706,0,0,0,0,0,0,0,0,0,-1,615,1730,0,0
-602,-706,0,0,0,0,0,0,0,0,0,-1,622,1730,0,0
-595,-706,0,0,0,0,0,0,0,0,0,-1,629,1730,0,0
-588,-706,0,0,0,0,0,0,0,0,0,-1,636,1730,0,0
-581,-706,0,0,0,0,0,0,0,0,0,-1,643,1730,0,0
-574,-706,0,0,0,0,0,0,0,0,0,-1,650,1730,0,0
-567,-706,0,0,0,0,0,0,0,0,0,-1,657,1730,0,0
-560,-706,0,0,0,0,0,0,0,0,0,-1,664,1730,0,0
-553,-706,0,0,0,0,0,0,0,0,0,-1,671,1730,0,0
-546,-706,0,0,0,0,0,0,0,0,0,-1,678,1730,0,0
-539,-706,0,0,0,0,0,0,0,0,0,-1,685,1730,0,0
-532,-706,0,0,0,0,0,0,0,0,0,-1,692,1730,0,0
-525,-706,0,0,0,0,0,0,0,0,0,-1,699,1730,0,0
-518,-706,0,0,0,0,0,0,0,0,0,-1,706,1730,0,0
-511,-706,0,0,0,0,0,0,0,0,0,-1,713,1730,0,0
-504,-706,0,0,0,0,0,0,0,0,0,-1,720,1730,0,0
-497,-706,0,0,0,0,0,0,0,0,0,-1,727,1730,0,0
-490,-706,0,0,0,0,0,0,0,0,0,-1,734,1730,0,0
-483,-706,0,0,0,0,0,0,0,0,0,-1,741,1730,0,0
-476,-706,0,0,0,0,0,0,0,0,0,-1,748,1730,0,0
-469,-706,0,0,0,0,0,0,0,0,0,-1,755,1730,0,0
-462,-706,0,0,0,0,0,0,0,0,0,-1,762,1730,0,0
-455,-706,0,0,0,0,0,0,0,0,0,-1,769,1730,0,0
-448,-706,0,0,0,0,0,0,0,0,0,-1,776,1730,0,0
-441,-706,0,0,0,0,0,0,0,0,0,-1,783,1730,0,0
-434,-706,0,0,0,0,0,0,0,0,0,-1,790,1730,0,0
-427,-706,0,0,0,0,0,0,0,0,0,-1,797,1730,0,0
-420,-706,0,0,0,0,0,0,0,0,0,-1,804,1730,0,0
-413,-706,0,0,0,0,0,0,0,0,0,-1,811,1730,0,0
-406,-706,0,0,0,0,0,0,0,0,0,-1,818,1730,0,0
-399,-706,0,0,0,0,0,0,0,0,0,-1,825,1730,0,0
-392,-706,0,0,0,0,0,0,0,0,0,-1,832,1730,0,0
-385,-706,0,0,0,0,0,0,0,0,0,-1,839,1730,0,0
-378,-706,0,0,0,0,0,0,0,0,0,-1,846,1730,0,0
-371,-706,0,0,0,0,0,0,0,0,0,-1,853,1730,0,0
-364,-706,0,0,0,0,0,0,0,0,0,-1,860,1730,0,0
-357,-706,0,0,0,0,0,0,0,0,0,-1,867,1730,0,0
-350,-706,0,0,0,0,0,0,0,0,0,-1,874,1730,0,0
-343,-706,0,0,0,0,0,0,0,0,0,-1,881,1730,0,0
-336,-706,0,0,0,0,0,0,0,0,0,-1,888,1730,0,0
-329,-706,0,0,0,0,0,0,0,0,0,-1,895,1730,0,0
-322,-706,0,0,0,0,0,0,0,0,0,-1,902,1730,0,0
-315,-706,0,0,0,0,0,0,0,0,0,-1,909,1730,0,0
-308,-706,0.461609,4.43115,0,0,0,0,0,0,0,-1,916,1730,0.461613,-4.43112
-301,-706,0.621277,4.48035,0,0,0,0,0,0,0,-1,923,1730,0.621263,-4.48032
-294,-706,0.685242,4.43604,0,0,0,0,0,0,0,-1,930,1730,0.685213,-4.43598
-287,-706,1.85315,2.51355,0.01624,-0.0594798,-0.0141229,0.0187883,-0.0620281,-0.178521,0.0488348,0.0495038,937,1730,1.85314,-2.51358
-280,-706,1.94958,2.93176,0.0182576,-0.0495857,-0.013473,0.0208353,-0.0521634,-0.189037,0.0434202,0.0478152,944,1730,1.94956,-2.93178
-273,-706,1.55573,3.81482,0.018479,-0.0408275,-0.0110861,0.0204835,-0.0428321,-0.178884,0.0373066,0.0445592,951,1730,1.5557,-3.81479
-266,-706,2.10925,3.92981,0.0148394,-0.0321704,-0.00926942,0.0166012,-0.0339321,-0.187818,0.0297419,0.0478763,958,1730,2.10925,-3.92977
-259,-706,2.66724,3.86304,0.0122759,-0.00935539,-0.0135623,0.0188072,-0.0158867,-0.448798,0.0200541,0.0477698,965,1730,2.66722,-3.86307
-252,-706,2.90601,3.57092,0,0,0,0,0,0,0,-1,972,1730,2.90602,-3.57097
-245,-706,2.49786,1.77991,0,0,0,0,0,0,0,-1,979,1730,2.49787,-1.77994
-238,-706,2.4328,1.92053,0.0080643,0.0176711,-0.0119668,0.0257625,-2.71108e-05,-0.976252,0.017184,0.0470465,986,1730,2.43277,-1.9205
-231,-706,2.30054,2.07629,0.00659164,0.0233271,-0.011288,0.0290107,0.000908093,-1.10435,0.019045,0.042393,993,1730,2.30055,-2.07628
-224,-706,2.26166,2.53809,0.00651637,0.0277312,-0.0102068,0.0318444,0.00240319,-1.18772,0.0204756,0.0408007,1000,1730,2.26164,-2.53812
-217,-706,2.1344,2.71008,0.00600631,0.0294661,-0.00817824,0.0320357,0.00343676,-1.26637,0.0203087,0.0369402,1007,1730,2.13442,-2.71004
-210,-706,1.88129,2.35059,0.00501647,0.0289575,-0.00584196,0.030307,0.00366701,-1.34378,0.0191,0.0372843,1014,1730,1.88126,-2.35056
-203,-706,1.87457,2.32214,0.00476635,0.0267246,-0.00336859,0.0272298,0.00426119,-1.42195,0.0169127,0.0307975,1021,1730,1.8746,-2.3221
-196,-706,1.8551,2.37158,0.00497984,0.0233252,-0.00145329,0.0234396,0.00486542,-1.49223,0.0142835,0.0208805,1028,1730,1.8551,-2.37158
-189,-706,1.83679,2.41492,0.00505048,0.0197939,-8.01795e-05,0.0197944,0.00505004,-1.56536,0.0118764,0.0155535,1035,1730,1.83675,-2.41488
-182,-706,1.82874,2.44421,0.00488662,0.0162258,0.00140775,0.016398,0.00471447,1.44911,0.00974823,0.0120137,1042,1730,1.82871,-2.44419
-175,-706,1.83972,2.45679,0.00434093,0.0130241,0.00219035,0.0135453,0.0038197,1.33717,0.00806439,0.0135203,1049,1730,1.83968,-2.45681
-168,-706,1.849,2.46411,0.00372226,0.0106217,0.00245916,0.0114085,0.00293547,1.26115,0.00684048,0.0151891,1056,1730,1.84894,-2.46405
-161,-706,1.84509,2.49084,0.00347157,0.00904333,0.00228389,0.00985985,0.00265505,1.22744,0.00589114,0.0127615,1063,1730,1.8451,-2.4908
-154,-706,1.82788,2.54089,0.00246893,0.00544721,0.00282561,0.00715206,0.000764072,1.02791,0.00453486,0.0119377,1070,1730,1.82784,-2.54091
-147,-706,1.8147,2.52563,0.00121879,0.00520701,0.00203221,0.00606007,0.000365735,1.17337,0.00392382,0.0112695,1077,1730,1.81473,-2.52566
-140,-706,1.81995,2.52991,0.000288105,0.00476939,0.00154014,0.00524766,-0.000190171,1.2697,0.00356352,0.0104376,1084,1730,1.81994,-2.52989
-133,-706,1.83105,2.55066,-7.24745e-05,0.00419575,0.00121693,0.00451834,-0.000395059,1.31168,0.00315217,0.0081822,1091,1730,1.83103,-2.55062
-126,-706,1.82813,2.56567,-0.000407318,0.00357586,0.00097311,0.00380088,-0.000632341,1.34355,0.00276888,0.0123882,1098,1730,1.82809,-2.56566
-119,-706,1.82715,2.61047,-0.00100678,0.00279543,0.000731279,0.00293122,-0.00114257,1.38719,0.0024264,0.0163109,1105,1730,1.82711,-2.61049
-112,-706,1.80957,2.62256,-0.00132618,0.00220486,0.000396769,0.0022489,-0.00137021,1.46027,0.00210992,0.0124816,1112,1730,1.80951,-2.62253
-105,-706,1.80457,2.64282,-0.00183095,0.00174034,0.000131853,0.0017452,-0.00183581,1.53394,0.00206772,0.00984755,1119,1730,1.80462,-2.64278
-98,-706,1.83899,2.64746,-0.00264593,0.00127021,-8.73236e-06,0.00127023,-0.00264595,-1.56857,0.00230704,0.0114258,1126,1730,1.83897,-2.64742
-91,-706,1.84583,2.64734,-0.00318611,0.00069849,-0.000142753,0.000703729,-0.00319135,-1.53411,0.00239683,0.0147576,1133,1730,1.84583,-2.64733
-84,-706,1.83032,2.66504,-0.00368268,0.000107652,-0.000604953,0.000201863,-0.00377689,-1.4163,0.00258784,0.0159851,1140,1730,1.83037,-2.66501
-77,-706,1.82715,2.70105,-0.00393925,-0.000681045,-0.00121074,-0.000280403,-0.0043399,-1.25123,0.00280447,0.0149954,1147,1730,1.82714,-2.70103
-70,-706,1.83228,2.7251,-0.00398718,-0.00137864,-0.00181546,-0.000447507,-0.00491831,-1.09689,0.00314035,0.0173241,1154,1730,1.83229,-2.72509
-63,-706,1.82275,2.71875,-0.00384387,-0.00211977,-0.00244801,-0.000386461,-0.00557718,-0.95469,0.00359623,0.0133314,1161,1730,1.82279,-2.71874
-56,-706,1.8092,2.69995,-0.00348285,-0.00289859,-0.00309676,-8.02116e-05,-0.00630122,-0.832426,0.00417433,0.0129372,1168,1730,1.80916,-2.69998
-49,-706,1.80627,2.70313,-0.00292917,-0.00361302,-0.00374979,0.000494252,-0.00703644,-0.739931,0.00486409,0.012703,1175,1730,1.80625,-2.70317
-42,-706,1.80737,2.72266,-0.00223213,-0.00431662,-0.00444669,0.00129283,-0.00784157,-0.670283,0.00570767,0.0160415,1182,1730,1.80735,-2.7227
-35,-706,1.82959,2.73218,-0.00131385,-0.00510249,-0.00510264,0.00223475,-0.00865109,-0.607662,0.00663889,0.0161838,1189,1730,1.82963,-2.73212
-28,-706,1.8573,2.72241,-8.93651e-05,-0.00589878,-0.00569288,0.00339703,-0.00938517,-0.549497,0.00764498,0.00986144,1196,1730,1.85728,-2.72246
-21,-706,1.84241,2.73865,0.00130797,-0.00671232,-0.00594083,0.00446544,-0.00986979,-0.488518,0.00847023,0.0094488,1203,1730,1.84238,-2.73866
-14,-706,1.84314,2.72302,0.00215708,-0.00707351,-0.00562396,0.00481707,-0.00973351,-0.441795,0.00855914,0.0094887,1210,1730,1.84319,-2.72307
-7,-706,1.84656,2.72803,0.00329122,-0.00627885,-0.00566461,0.00592133,-0.00890896,-0.434686,0.00861999,0.00861105,1217,1730,1.84659,-2.72798
0,-706,1.84265,2.75378,0.00452058,-0.00477079,-0.00528766,0.00691348,-0.0071637,-0.424968,0.00812789,0.0128971,1224,1730,1.8427,-2.75382
7,-706,1.86328,2.74036,0.00508529,-0.00306433,-0.00493026,0.00740669,-0.00538574,-0.440055,0.00741637,0.0142488,1231,1730,1.86322,-2.7404
14,-706,1.86121,2.72693,0.00558131,-0.000855515,-0.00457719,0.00795833,-0.00323253,-0.478982,0.00665031,0.0132445,1238,1730,1.86116,-2.72689
21,-706,1.87158,2.72729,0.00617217,0.00151644,-0.00404011,0.00850707,-0.000818467,-0.524035,0.00596296,0.0117186,1245,1730,1.87157,-2.72734
28,-706,1.85938,2.73425,0.00678979,0.00416702,-0.00352907,0.00924325,0.00171356,-0.607508,0.00567784,0.0121644,1252,1730,1.85936,-2.73423
35,-706,1.85632,2.75635,0.00725733,0.0065035,-0.0031144,0.0100175,0.00374329,-0.725179,0.00584484,0.0134683,1259,1730,1.85633,-2.75637
42,-706,1.85474,2.78198,0.0077588,0.0083245,-0.00266032,0.010717,0.00536633,-0.838361,0.00618745,0.0114124,1266,1730,1.85474,-2.78203
49,-706,1.87292,2.77539,0.00823152,0.00982713,-0.0022819,0.0114467,0.00661198,-0.953568,0.00663524,0.0133248,1273,1730,1.87288,-2.77543
56,-706,1.90247,2.76428,0.00870479,0.0104717,-0.00188104,0.0116664,0.00751008,-1.00494,0.00682776,0.0127146,1280,1730,1.90244,-2.76432
63,-706,1.89661,2.76379,0.00907696,0.0106526,-0.00147606,0.0115379,0.00819163,-1.03053,0.00685442,0.0109941,1287,1730,1.89662,-2.7638
70,-706,1.88232,2.75281,0.00872817,0.00931498,-0.000527905,0.00962554,0.00841762,-1.03904,0.00605468,0.0119315,1294,1730,1.88237,-2.75276
77,-706,1.86853,2.76501,0.00800978,0.00827696,0.000930807,0.00908372,0.00720303,0.856672,0.00553644,0.0102938,1301,1730,1.8685,-2.76498
84,-706,1.86255,2.76355,0.00727755,0.00635529,0.00182966,0.00870329,0.00492955,0.661954,0.00503959,0.00843912,1308,1730,1.86259,-2.76358
91,-706,1.89026,2.77954,0.00698643,0.00392209,0.00256023,0.00843793,0.00247059,0.515758,0.00500914,0.0101709,1315,1730,1.89023,-2.77958
98,-706,1.90259,2.7948,0.00621668,0.00140521,0.00403767,0.00851098,-0.000889091,0.516727,0.00599237,0.0141746,1322,1730,1.90262,-2.79478
105,-706,1.91162,2.78284,0.0052642,-0.00067463,0.00503039,0.00813621,-0.00354664,0.518772,0.00691642,0.015707,1329,1730,1.91163,-2.78284
112,-706,1.88538,2.77283,0.00484826,-0.00165539,0.00596649,0.00839153,-0.00519867,0.535895,0.00791816,0.0149765,1336,1730,1.88538,-2.77287
119,-706,1.87439,2.78528,0.00422424,-0.00203368,0.0066625,0.00845594,-0.00626538,0.565866,0.00853067,0.0121676,1343,1730,1.87442,-2.78527
126,-706,1.87646,2.78259,0.00347672,-0.000912993,0.00687749,0.00850109,-0.00593736,0.630939,0.00837974,0.0139089,1350,1730,1.87652,-2.78257
133,-706,1.88843,2.76013,0.00272245,0.000758207,0.00658857,0.00840169,-0.00492104,0.711411,0.00777889,0.0124055,1357,1730,1.8884,-2.76009
140,-706,1.91675,2.73572,0.00210208,0.00235141,0.00578486,0.00801295,-0.00355945,0.796171,0.00684426,0.0118019,1364,1730,1.91672,-2.7357
147,-706,1.91492,2.72595,0.00125988,0.00387782,0.00466297,0.00741206,-0.00227436,0.922235,0.0058488,0.0207696,1371,1730,1.91488,-2.7259
154,-706,1.91931,2.7345,0.000400389,0.00483724,0.00337929,0.00666122,-0.00142359,1.07586,0.00498359,0.0203022,1378,1730,1.91925,-2.73452
161,-706,1.91113,2.71045,-0.000366271,0.005809,0.00215965,0.00648934,-0.00104661,1.26562,0.00471398,0.0108068,1385,1730,1.91119,-2.71046
168,-706,1.90894,2.70203,-0.00105807,0.00592022,0.00106094,0.00607795,-0.00121581,1.4232,0.00451217,0.0106206,1392,1730,1.9089,-2.70208
175,-706,1.90601,2.70898,-0.00114279,0.0068303,5.57578e-05,0.00683069,-0.00114318,1.5638,0.0049788,0.0103137,1399,1730,1.90606,-2.70898
182,-706,1.91248,2.69202,-0.00145391,0.00610243,-0.000584064,0.00614731,-0.00149878,-1.49411,0.00467852,0.0101379,1406,1730,1.91244,-2.69207
189,-706,1.90759,2.67664,-0.00212725,0.00567786,-9.8007e-05,0.00567909,-0.00212848,-1.55824,0.00466049,0.0127741,1413,1730,1.90758,-2.67665
196,-706,1.90527,2.66626,-0.0027097,0.00510704,0.000471671,0.0051354,-0.00273806,1.51075,0.00461545,0.0115014,1420,1730,1.90521,-2.6662
203,-706,1.88208,2.65649,-0.00291233,0.00455891,0.00106925,0.00470893,-0.00306234,1.43141,0.00452019,0.0130112,1427,1730,1.88213,-2.65651
210,-706,1.88855,2.63513,-0.00282221,0.00398868,0.00188217,0.0044742,-0.00330773,1.31834,0.00450969,0.0128654,1434,1730,1.88856,-2.63516
217,-706,1.90308,2.646,-0.00248572,0.00355517,0.00271164,0.0045938,-0.00352435,1.20501,0.00470055,0.0138129,1441,1730,1.90307,-2.64603
224,-706,1.90222,2.64148,-0.00187207,0.00338786,0.00336253,0.00502677,-0.00351098,1.11728,0.0049551,0.0191127,1448,1730,1.90219,-2.64149
231,-706,1.91467,2.60266,-0.000904446,0.00288248,0.0035541,0.00501603,-0.00303799,1.03015,0.0046965,0.0142031,1455,1730,1.91462,-2.6026
238,-706,1.90649,2.57336,0.000330483,0.00272617,0.00374427,0.00545954,-0.00240288,0.940211,0.00465231,0.00924385,1462,1730,1.90654,-2.57342
245,-706,1.90686,2.57373,0.00184096,0.00305363,0.00399899,0.00649199,-0.0015974,0.860637,0.00494718,0.0118261,1469,1730,1.90687,-2.57376
252,-706,1.91504,2.5741,0.0033467,0.00328691,0.00398618,0.0073031,-0.000669486,0.781648,0.00510654,0.0111174,1476,1730,1.91504,-2.57404
259,-706,1.91907,2.54517,0.00447302,0.00350334,0.00342697,0.00744928,0.000527087,0.715126,0.00480014,0.0121199,1483,1730,1.91903,-2.54517
266,-706,1.92297,2.5293,0.00577841,0.00370449,0.00291919,0.00783935,0.00164355,0.614739,0.00477364,0.0129734,1490,1730,1.92296,-2.52924
273,-706,1.92749,2.52246,0.00708781,0.00374051,0.00248759,0.00841236,0.00241596,0.48928,0.00500137,0.0120165,1497,1730,1.92748,-2.5225
280,-706,1.91541,2.52405,0.00791365,0.0032859,0.00186846,0.00857386,0.00262569,0.33965,0.0050725,0.00997363,1504,1730,1.91546,-2.52408
287,-706,1.8905,2.47717,0.00887062,0.00310243,0.00132873,0.00916198,0.00281107,0.215862,0.00541968,0.0105296,1511,1730,1.89052,-2.47715
294,-706,1.9126,2.4624,0.0100619,0.00292714,0.000822136,0.0101554,0.00283363,0.113253,0.00605106,0.0107487,1518,1730,1.9126,-2.46243
301,-706,1.91309,2.47083,0.0108896,0.00258706,0.000320363,0.010902,0.00257472,0.0385097,0.00657986,0.010173,1525,1730,1.91303,-2.47077
308,-706,1.92468,2.46777,0.01116,0.00201908,-0.000314128,0.0111708,0.0020083,-0.0343111,0.0068762,0.0124267,1532,1730,1.92471,-2.46772
315,-706,1.97253,2.43652,0.0114263,0.00138591,-0.000982888,0.0115216,0.0012906,-0.0966703,0.00728908,0.0187297,1539,1730,1.97254,-2.43658
322,-706,1.93933,2.38098,0.0095777,0.000492898,-0.00119465,0.00973217,0.00033843,-0.128587,0.0063783,0.0184218,1546,1730,1.93936,-2.38095
329,-706,1.88171,2.33618,0.00710153,-0.000806546,-0.00100945,0.00722835,-0.000933365,-0.124978,0.00515825,0.0156362,1553,1730,1.88166,-2.33619
336,-706,1.89246,2.302,0.00571921,-0.00137464,0.000510042,0.00575569,-0.00141112,0.0714097,0.00438387,0.0230646,1560,1730,1.8925,-2.30195
343,-706,2.13428,2.27185,0.00404257,-0.00193564,0.00250646,0.00495438,-0.00284744,0.348899,0.0045588,0.0318806,1567,1730,2.13422,-2.2719
350,-706,2.44666,2.37366,0.00102389,-0.00161122,0.0043615,0.0042625,-0.00484982,0.638712,0.00526464,0.0366772,1574,1730,2.44667,-2.3737
357,-706,2.46729,2.61292,-0.000898273,-0.0010938,0.00696904,0.00597369,-0.00796576,0.778385,0.0080753,0.0445109,1581,1730,2.46726,-2.61288
364,-706,1.86938,2.23291,0,0,0,0,0,0,0,-1,1588,1730,1.86937,-2.23291
371,-706,1.10291,2.42773,-0.00378375,0.00248657,0.0137581,0.0134622,-0.0147593,0.897424,0.0162994,0.0483845,1595,1730,1.10288,-2.42767
378,-706,0.875,2.04102,-0.00405689,0.00653365,0.0158692,0.0179677,-0.0154909,0.946431,0.019335,0.0429237,1602,1730,0.874993,-2.04102
385,-706,0.885742,1.85791,3.60589e-05,0.0112704,0.0218428,0.0282067,-0.0169003,0.911253,0.0263138,0.0416803,1609,1730,0.885729,-1.85793
392,-706,0.81311,1.79907,0.00478696,0.0174175,0.02546,0.0373338,-0.0151293,0.906968,0.0311808,0.0461376,1616,1730,0.813056,-1.79906
399,-706,0.838257,1.39575,0.0115768,0.0245493,0.0296869,0.0484503,-0.0123242,0.892952,0.037097,0.0444045,1623,1730,0.838236,-1.39576
406,-706,0.723633,1.03723,0,0,0,0,0,0,0,-1,1630,1730,0.723601,-1.03724
413,-706,4.29248,0.877197,0,0,0,0,0,0,0,-1,1637,1730,4.29247,-0.877177
420,-706,3.88892,0.693848,0,0,0,0,0,0,0,-1,1644,1730,3.88887,-0.693877
427,-706,0,0,0,0,0,0,0,0,0,-1,1651,1730,0,0
434,-706,0,0,0,0,0,0,0,0,0,-1,1658,1730,0,0
441,-706,0,0,0,0,0,0,0,0,0,-1,1665,1730,0,0
448,-706,0,0,0,0,0,0,0,0,0,-1,1672,1730,0,0
455,-706,0,0,0,0,0,0,0,0,0,-1,1679,1730,0,0
462,-706,0,0,0,0,0,0,0,0,0,-1,1686,1730,0,0
469,-706,0,0,0,0,0,0,0,0,0,-1,1693,1730,0,0
476,-706,0,0,0,0,0,0,0,0,0,-1,1700,1730,0,0
483,-706,0,0,0,0,0,0,0,0,0,-1,1707,1730,0,0
490,-706,0,0,0,0,0,0,0,0,0,-1,1714,1730,0,0
497,-706,0,0,0,0,0,0,0,0,0,-1,1721,1730,0,0
504,-706,0,0,0,0,0,0,0,0,0,-1,1728,1730,0,0
511,-706,0,0,0,0,0,0,0,0,0,-1,1735,1730,0,0
518,-706,0,0,0,0,0,0,0,0,0,-1,1742,1730,0,0
525,-706,0,0,0,0,0,0,0,0,0,-1,1749,1730,0,0
532,-706,0,0,0,0,0,0,0,0,0,-1,1756,1730,0,0
539,-706,0,0,0,0,0,0,0,0,0,-1,1763,1730,0,0
546,-706,0,0,0,0,0,0,0,0,0,-1,1770,1730,0,0
553,-706,0,0,0,0,0,0,0,0,0,-1,1777,1730,0,0
560,-706,0,0,0,0,0,0,0,0,0,-1,1784,1730,0,0
567,-706,0,0,0,0,0,0,0,0,0,-1,1791,1730,0,0
574,-706,0,0,0,0,0,0,0,0,0,-1,1798,1730,0,0
581,-706,0,0,0,0,0,0,0,0,0,-1,1805,1730,0,0
588,-706,0,0,0,0,0,0,0,0,0,-1,1812,1730,0,0
595,-706,0,0,0,0,0,0,0,0,0,-1,1819,1730,0,0
602,-706,0,0,0,0,0,0,0,0,0,-1,1826,1730,0,0
609,-706,0,0,0,0,0,0,0,0,0,-1,1833,1730,0,0
616,-706,0,0,0,0,0,0,0,0,0,-1,1840,1730,0,0
623,-706,0,0,0,0,0,0,0,0,0,-1,1847,1730,0,0
630,-706,0,0,0,0,0,0,0,0,0,-1,1854,1730,0,0
637,-706,0,0,0,0,0,0,0,0,0,-1,1861,1730,0,0
644,-706,0,0,0,0,0,0,0,0,0,-1,1868,1730,0,0
651,-706,0,0,0,0,0,0,0,0,0,-1,1875,1730,0,0
658,-706,0,0,0,0,0,0,0,0,0,-1,1882,1730,0,0
665,-706,0,0,0,0,0,0,0,0,0,-1,1889,1730,0,0
672,-706,0,0,0,0,0,0,0,0,0,-1,1896,1730,0,0
679,-706,0,0,0,0,0,0,0,0,0,-1,1903,1730,0,0
686,-706,0,0,0,0,0,0,0,0,0,-1,1910,1730,0,0
693,-706,0,0,0,0,0,0,0,0,0,-1,1917,1730,0,0
700,-706,0,0,0,0,0,0,0,0,0,-1,1924,1730,0,0
707,-706,0,0,0,0,0,0,0,0,0,-1,1931,1730,0,0
714,-706,0,0,0,0,0,0,0,0,0,-1,1938,1730,0,0
721,-706,0,0,0,0,0,0,0,0,0,-1,1945,1730,0,0
728,-706,0,0,0,0,0,0,0,0,0,-1,1952,1730,0,0
735,-706,0,0,0,0,0,0,0,0,0,-1,1959,1730,0,0
742,-706,0,0,0,0,0,0,0,0,0,-1,1966,1730,0,0
749,-706,0,0,0,0,0,0,0,0,0,-1,1973,1730,0,0
756,-706,0,0,0,0,0,0,0,0,0,-1,1980,1730,0,0
763,-706,0,0,0,0,0,0,0,0,0,-1,1987,1730,0,0
770,-706,0,0,0,0,0,0,0,0,0,-1,1994,1730,0,0
777,-706,0,0,0,0,0,0,0,0,0,-1,2001,1730,0,0
784,-706,0,0,0,0,0,0,0,0,0,-1,2008,1730,0,0
791,-706,0,0,0,0,0,0,0,0,0,-1,2015,1730,0,0
798,-706,0,0,0,0,0,0,0,0,0,-1,2022,1730,0,0
805,-706,0,0,0,0,0,0,0,0,0,-1,2029,1730,0,0
812,-706,0,0,0,0,0,0,0,0,0,-1,2036,1730,0,0
-700,-713,0,0,0,0,0,0,0,0,0,-1,524,1737,0,0
-693,-713,0,0,0,0,0,0,0,0,0,-1,531,1737,0,0
-686,-713,0,0,0,0,0,0,0,0,0,-1,538,1737,0,0
-679,-713,0,0,0,0,0,0,0,0,0,-1,545,1737,0,0
-672,-713,0,0,0,0,0,0,0,0,0,-1,552,1737,0,0
-665,-713,0,0,0,0,0,0,0,0,0,-1,559,1737,0,0
-658,-713,0,0,0,0,0,0,0,0,0,-1,566,1737,0,0
-651,-713,0,0,0,0,0,0,0,0,0,-1,573,1737,0,0
-644,-713,0,0,0,0,0,0,0,0,0,-1,580,1737,0,0
-637,-713,0,0,0,0,0,0,0,0,0,-1,587,1737,0,0
-630,-713,0,0,0,0,0,0,0,0,0,-1,594,1737,0,0
-623,-713,0,0,0,0,0,0,0,0,0,-1,601,1737,0,0
-616,-713,0,0,0,0,0,0,0,0,0,-1,608,1737,0,0
-609,-713,0,0,0,0,0,0,0,0,0,-1,615,1737,0,0
-602,-713,0,0,0,0,0,0,0,0,0,-1,622,1737,0,0
-595,-713,0,0,0,0,0,0,0,0,0,-1,629,1737,0,0
-588,-713,0,0,0,0,0,0,0,0,0,-1,636,1737,0,0
-581,-713,0,0,0,0,0,0,0,0,0,-1,643,1737,0,0
-574,-713,0,0,0,0,0,0,0,0,0,-1,650,1737,0,0
-567,-713,0,0,0,0,0,0,0,0,0,-1,657,1737,0,0
-560,-713,0,0,0,0,0,0,0,0,0,-1,664,1737,0,0
-553,-713,0,0,0,0,0,0,0,0,0,-1,671,1737,0,0
-546,-713,0,0,0,0,0,0,0,0,0,-1,678,1737,0,0
-539,-713,0,0,0,0,0,0,0,0,0,-1,685,1737,0,0
-532,-713,0,0,0,0,0,0,0,0,0,-1,692,1737,0,0
-525,-713,0,0,0,0,0,0,0,0,0,-1,699,1737,0,0
-518,-713,0,0,0,0,0,0,0,0,0,-1,706,1737,0,0
-511,-713,0,0,0,0,0,0,0,0,0,-1,713,1737,0,0
-504,-713,0,0,0,0,0,0,0,0,0,-1,720,1737,0,0
-497,-713,0,0,0,0,0,0,0,0,0,-1,727,1737,0,0
-490,-713,0,0,0,0,0,0,0,0,0,-1,734,1737,0,0
-483,-713,0,0,0,0,0,0,0,0,0,-1,741,1737,0,0
-476,-713,0,0,0,0,0,0,0,0,0,-1,748,1737,0,0
-469,-713,0,0,0,0,0,0,0,0,0,-1,755,1737,0,0
-462,-713,0,0,0,0,0,0,0,0,0,-1,762,1737,0,0
-455,-713,0,0,0,0,0,0,0,0,0,-1,769,1737,0,0
-448,-713,0,0,0,0,0,0,0,0,0,-1,776,1737,0,0
-441,-713,0,0,0,0,0,0,0,0,0,-1,783,1737,0,0
-434,-713,0,0,0,0,0,0,0,0,0,-1,790,1737,0,0
-427,-713,0,0,0,0,0,0,0,0,0,-1,797,1737,0,0
-420,-713,0,0,0,0,0,0,0,0,0,-1,804,1737,0,0
-413,-713,0,0,0,0,0,0,0,0,0,-1,811,1737,0,0
-406,-713,0,0,0,0,0,0,0,0,0,-1,818,1737,0,0
-399,-713,0,0,0,0,0,0,0,0,0,-1,825,1737,0,0
-392,-713,0,0,0,0,0,0,0,0,0,-1,832,1737,0,0
-385,-713,0,0,0,0,0,0,0,0,0,-1,839,1737,0,0
-378,-713,0,0,0,0,0,0,0,0,0,-1,846,1737,0,0
-371,-713,0,0,0,0,0,0,0,0,0,-1,853,1737,0,0
-364,-713,0,0,0,0,0,0,0,0,0,-1,860,1737,0,0
-357,-713,0,0,0,0,0,0,0,0,0,-1,867,1737,0,0
-350,-713,0,0,0,0,0,0,0,0,0,-1,874,1737,0,0
-343,-713,0,0,0,0,0,0,0,0,0,-1,881,1737,0,0
-336,-713,0,0,0,0,0,0,0,0,0,-1,888,1737,0,0
-329,-713,0,0,0,0,0,0,0,0,0,-1,895,1737,0,0
-322,-713,0,0,0,0,0,0,0,0,0,-1,902,1737,0,0
-315,-713,0,0,0,0,0,0,0,0,0,-1,909,1737,0,0
-308,-713,0,0,0,0,0,0,0,0,0,-1,916,1737,0,0
-301,-713,0,0,0,0,0,0,0,0,0,-1,923,1737,0,0
-294,-713,4.88245,-0.56665,0,0,0,0,0,0,0,-1,930,1737,4.88245,0.566702
-287,-713,1.86438,4.10571,0,0,0,0,0,0,0,-1,937,1737,1.86437,-4.10568
-280,-713,1.77936,4.10278,0.0208298,-0.0526319,-0.0130729,0.0230869,-0.0548889,-0.170966,0.0462506,0.0487714,944,1737,1.77934,-4.10283
-273,-713,1.93683,4.19153,0.021042,-0.0422929,-0.0120115,0.0232435,-0.0444944,-0.181269,0.0397448,0.0452319,951,1737,1.93682,-4.19151
-266,-713,2.38702,4.0979,0.0140386,-0.0317906,-0.0102167,0.016213,-0.033965,-0.209703,0.0295684,0.0488984,958,1737,2.38702,-4.09788
-259,-713,3.10962,4.12695,0,0,0,0,0,0,0,-1,965,1737,3.10965,-4.12696
-252,-713,3.33295,1.21362,0,0,0,0,0,0,0,-1,972,1737,3.33295,-1.21366
-245,-713,3.20502,1.479,0.00893363,0.0265042,-0.0171376,0.0369771,-0.00153928,-1.02225,0.0251802,0.0460699,979,1737,3.20499,-1.47896
-238,-713,3.151,1.52917,0.00695993,0.0361099,-0.0168342,0.043802,-0.000732133,-1.14219,0.0294484,0.0458038,986,1737,3.15099,-1.52912
-231,-713,2.96857,1.61462,0.00567247,0.0431302,-0.0161288,0.0491179,-0.000315264,-1.21532,0.0328509,0.0473128,993,1737,2.96856,-1.61462
-224,-713,2.82288,1.85229,0.0062273,0.0472599,-0.0144159,0.0518183,0.00166898,-1.26454,0.0340028,0.0482672,1000,1737,2.82285,-1.85226
-217,-713,2.86023,1.92993,0,0,0,0,0,0,0,-1,1007,1737,2.86025,-1.92995
-210,-713,1.47504,2.66626,0,0,0,0,0,0,0,-1,1014,1737,1.47503,-2.6662
-203,-713,1.53735,2.61072,0.00618995,0.0409254,-0.00443321,0.0414823,0.00563308,-1.44584,0.0259815,0.0441297,1021,1737,1.53733,-2.61072
-196,-713,1.6582,2.44202,0.00692228,0.0351632,-0.00158762,0.0352522,0.00683331,-1.51481,0.0215873,0.0388501,1028,1737,1.65821,-2.442
-189,-713,1.88745,2.42358,0.00731372,0.0295466,0.000593644,0.0295624,0.00729788,1.54412,0.0177821,0.0356812,1035,1737,1.88747,-2.42355
-182,-713,1.86584,2.43298,0.00727404,0.0240456,0.0027161,0.0244745,0.00684515,1.41418,0.0145804,0.0220704,1042,1737,1.8659,-2.43295
-175,-713,1.90112,2.46521,0.00666488,0.0190686,0.00390517,0.0201957,0.0055378,1.28982,0.0120498,0.018926,1049,1737,1.90115,-2.46524
-168,-713,1.91394,2.47632,0.0058735,0.0152564,0.00436068,0.0169701,0.00415986,1.19636,0.0102132,0.022416,1056,1737,1.91396,-2.47636
-161,-713,1.86462,2.49426,0.00558728,0.012588,0.00413941,0.0145086,0.00366663,1.13637,0.00871132,0.0119985,1063,1737,1.86468,-2.49424
-154,-713,1.85522,2.50342,0.00418969,0.00709609,0.00504295,0.010891,0.000394729,0.92568,0.00713276,0.0102306,1070,1737,1.85524,-2.50343
-147,-713,1.83435,2.53564,0.00237419,0.00661733,0.00387246,0.0089113,8.02199e-05,1.036,0.00591431,0.0170857,1077,1737,1.83433,-2.53566
-140,-713,1.84839,2.54309,0.00098856,0.00590928,0.00305466,0.0073712,-0.000473363,1.12442,0.00507928,0.0169404,1084,1737,1.84843,-2.54312
-133,-713,1.8501,2.53333,0.000504503,0.00502296,0.00238508,0.00604896,-0.0005215,1.16455,0.00421724,0.0102585,1091,1737,1.85007,-2.53337
-126,-713,1.84448,2.5896,0.000181215,0.00402483,0.00182746,0.00475499,-0.000548952,1.19068,0.00336793,0.0155057,1098,1737,1.84447,-2.58957
-119,-713,1.84192,2.62402,-0.000480692,0.00279712,0.00131372,0.00325867,-0.000942233,1.23294,0.00254533,0.0235626,1105,1737,1.84195,-2.62401
-112,-713,1.83899,2.61841,-0.000779922,0.0018076,0.000685713,0.00197809,-0.000950408,1.32711,0.00172512,0.0122019,1112,1737,1.839,-2.61844
-105,-713,1.83875,2.63049,-0.00120009,0.00101711,0.00032416,0.00106353,-0.00124651,1.42856,0.0013351,0.00996568,1119,1737,1.83875,-2.63046
-98,-713,1.86304,2.64001,-0.00191457,0.000301197,0.000274842,0.000334779,-0.00194815,1.44921,0.00142355,0.00966026,1126,1737,1.86307,-2.64003
-91,-713,1.85327,2.64661,-0.00231463,-0.000364392,0.00019715,-0.000344662,-0.00233436,1.47105,0.00145502,0.0101686,1133,1737,1.85331,-2.64659
-84,-713,1.83289,2.67065,-0.00274129,-0.0006847,-0.000118517,-0.000677893,-0.00274809,-1.51342,0.0016531,0.00942012,1140,1737,1.83288,-2.67063
-77,-713,1.83557,2.70447,-0.0029871,-0.0011758,-0.00046709,-0.00106244,-0.00310045,-1.33271,0.00181935,0.0121919,1147,1737,1.83554,-2.70445
-70,-713,1.84229,2.71582,-0.00309697,-0.00150727,-0.000855795,-0.00113414,-0.00347009,-1.15964,0.00204312,0.0137253,1154,1737,1.84234,-2.71582
-63,-713,1.84436,2.71521,-0.00305742,-0.00179028,-0.00123243,-0.0010381,-0.0038096,-1.02282,0.0022741,0.011958,1161,1737,1.84441,-2.71522
-56,-713,1.81873,2.70508,-0.00280821,-0.00205305,-0.00161495,-0.000772126,-0.00408914,-0.900237,0.00250864,0.0118227,1168,1737,1.81873,-2.70507
-49,-713,1.80383,2.69373,-0.00241525,-0.00223671,-0.00204936,-0.000274675,-0.00437729,-0.807164,0.00283108,0.0138487,1175,1737,1.8038,-2.69377
-42,-713,1.82251,2.729,-0.00189227,-0.00242423,-0.0024842,0.000340144,-0.00465665,-0.732067,0.0032238,0.0165762,1182,1737,1.82253,-2.729
-35,-713,1.854,2.72278,-0.00118724,-0.00275103,-0.00288692,0.00102179,-0.00496006,-0.653151,0.00369471,0.0140503,1189,1737,1.85402,-2.72273
-28,-713,1.87671,2.72729,-0.000391033,-0.00318413,-0.00320468,0.00170817,-0.00528334,-0.579914,0.00420879,0.0115153,1196,1737,1.87675,-2.7273
-21,-713,1.85828,2.76355,0.000634217,-0.00352843,-0.00322796,0.00239368,-0.0052879,-0.49905,0.00453868,0.00804432,1203,1737,1.85832,-2.7635
-14,-713,1.85876,2.7262,0.00149294,-0.0038688,-0.00292195,0.00277753,-0.00515339,-0.4142,0.0046469,0.00931674,1210,1737,1.85875,-2.72625
-7,-713,1.86755,2.72961,0.00210986,-0.0031779,-0.00289242,0.00338468,-0.00445272,-0.415131,0.00453891,0.00931025,1217,1737,1.86756,-2.72959
0,-713,1.86157,2.76917,0.00263646,-0.00223306,-0.00275404,0.00387767,-0.00347427,-0.423426,0.00424678,0.0146724,1224,1737,1.86161,-2.76917
7,-713,1.88586,2.74353,0.00280935,-0.00114861,-0.00254349,0.00405306,-0.00239232,-0.45479,0.00376219,0.0167732,1231,1737,1.88583,-2.74355
14,-713,1.89404,2.73718,0.0028264,0.000241484,-0.00230892,0.00417999,-0.00111211,-0.530243,0.00322199,0.0116688,1238,1737,1.89403,-2.73721
21,-713,1.86963,2.74207,0.00286909,0.00170794,-0.00198712,0.00435871,0.000218318,-0.64327,0.00283583,0.00999227,1245,1737,1.86959,-2.74207
28,-713,1.84875,2.74731,0.00284883,0.00352374,-0.00170791,0.00492722,0.00144536,-0.882933,0.0029246,0.0109839,1252,1737,1.8488,-2.74732
35,-713,1.85059,2.76245,0.00279644,0.00515481,-0.00153011,0.00590739,0.00204386,-1.11369,0.00346415,0.0110574,1259,1737,1.85056,-2.76247
42,-713,1.85425,2.78931,0.00288736,0.006428,-0.00134378,0.00688024,0.00243512,-1.24616,0.00402842,0.0107405,1266,1737,1.8542,-2.78936
49,-713,1.86206,2.77539,0.00300679,0.00746249,-0.00122275,0.00777598,0.00269329,-1.31982,0.00455957,0.0109633,1273,1737,1.8621,-2.7754
56,-713,1.86401,2.7605,0.00318826,0.00785616,-0.00110863,0.00810608,0.00293834,-1.34907,0.00473868,0.0112768,1280,1737,1.86396,-2.76054
63,-713,1.85852,2.76306,0.00334938,0.00794558,-0.000978682,0.00814529,0.00314966,-1.36949,0.00474277,0.0121492,1287,1737,1.85851,-2.7631
70,-713,1.85974,2.76538,0.00311678,0.0068905,-0.000377655,0.00692792,0.00307936,-1.47203,0.00400805,0.0117578,1294,1737,1.8597,-2.76541
77,-713,1.86975,2.76086,0.00267911,0.00564362,0.00010478,0.00564732,0.00267541,1.53551,0.00326198,0.0109468,1301,1737,1.86978,-2.76081
84,-713,1.8728,2.77527,0.00222721,0.00387328,0.000410509,0.00396998,0.00213052,1.33946,0.00229412,0.0109684,1308,1737,1.87283,-2.77527
91,-713,1.88293,2.77734,0.00205704,0.00173481,0.000722707,0.00263638,0.00115548,0.675724,0.00152597,0.0120017,1315,1737,1.88299,-2.77734
98,-713,1.88062,2.77576,0.00189667,-0.000784332,0.00161687,0.00265646,-0.00154412,0.439288,0.00245338,0.0121475,1322,1737,1.88065,-2.77571
105,-713,1.88367,2.78125,0.00144344,-0.00280079,0.00234636,0.00248499,-0.00384234,0.41777,0.003681,0.0132614,1329,1737,1.88361,-2.7812
112,-713,1.89075,2.76843,0.00106584,-0.00408526,0.00279864,0.00229369,-0.0053131,0.413443,0.00450564,0.0133041,1336,1737,1.89073,-2.76847
119,-713,1.88477,2.76563,0.000591842,-0.00491414,0.0031288,0.00200639,-0.00632869,0.424602,0.00502331,0.0133351,1343,1737,1.88478,-2.76559
126,-713,1.87549,2.77002,0.000145027,-0.00464992,0.00335023,0.00186725,-0.00637215,0.474834,0.0049884,0.0133161,1350,1737,1.87547,-2.77001
133,-713,1.86609,2.75024,-0.000135168,-0.00377619,0.00328599,0.00180091,-0.00571227,0.532435,0.00452944,0.0120302,1357,1737,1.86604,-2.75022
140,-713,1.87378,2.72302,-0.000325861,-0.00269458,0.0029392,0.00165863,-0.00467907,0.593874,0.00379506,0.0131465,1364,1737,1.87374,-2.72299
147,-713,1.89026,2.74255,-0.000625947,-0.00146113,0.00236472,0.00135777,-0.00344484,0.698003,0.00285873,0.0146662,1371,1737,1.89022,-2.74252
154,-713,1.88818,2.74817,-0.000786747,-0.000367057,0.00161696,0.00105362,-0.00220742,0.849926,0.00192164,0.0145038,1378,1737,1.88819,-2.74816
161,-713,1.88586,2.72144,-0.00101001,0.000743061,0.000832895,0.00107567,-0.00134261,1.19086,0.00139903,0.0104164,1385,1737,1.88583,-2.72149
168,-713,1.88635,2.70251,-0.00127342,0.00141714,4.44761e-05,0.00141787,-0.00127415,1.55427,0.00155498,0.0101772,1392,1737,1.88639,-2.70257
175,-713,1.91064,2.6825,-0.00122663,0.00255501,-0.000885428,0.00275206,-0.00142368,-1.35182,0.00245119,0.0132748,1399,1737,1.91062,-2.68247
182,-713,1.91187,2.68884,-0.00134625,0.002913,-0.00120148,0.00322854,-0.00166179,-1.31397,0.00287133,0.0111322,1406,1737,1.91189,-2.68881
189,-713,1.90027,2.66785,-0.00184443,0.00300274,-0.00124934,0.00330581,-0.00214749,-1.33281,0.00317205,0.0105937,1413,1737,1.90025,-2.66791
196,-713,1.88562,2.66895,-0.00225489,0.00302462,-0.00119248,0.00328147,-0.00251174,-1.35865,0.00335454,0.0115074,1420,1737,1.88559,-2.669
203,-713,1.86438,2.6709,-0.00246687,0.00293302,-0.00099868,0.0031118,-0.00264565,-1.39365,0.00332769,0.0156076,1427,1737,1.86436,-2.67094
210,-713,1.87842,2.63892,-0.0025849,0.0025927,-0.000469979,0.00263502,-0.00262721,-1.481,0.00303815,0.0136374,1434,1737,1.87841,-2.63891
217,-713,1.89221,2.62,-0.00254225,0.00231225,0.000306793,0.00233157,-0.00256156,1.50793,0.00282609,0.010888,1441,1737,1.89217,-2.61999
224,-713,1.89087,2.62109,-0.00206696,0.0022018,0.00104528,0.00244401,-0.00230917,1.34309,0.00274462,0.0119063,1448,1737,1.89086,-2.62104
231,-713,1.89294,2.61194,-0.00131173,0.00170012,0.00116346,0.00209721,-0.00170882,1.2419,0.00220122,0.011265,1455,1737,1.89296,-2.61198
238,-713,1.89746,2.56982,6.02083e-06,0.00171799,0.00154331,0.0026268,-0.000902791,1.0386,0.00211729,0.00860268,1462,1737,1.89744,-2.56987
245,-713,1.89465,2.56763,0.00192819,0.00208144,0.00227789,0.00428399,-0.000274364,0.802211,0.0029517,0.0112556,1469,1737,1.8947,-2.5676
252,-713,1.91467,2.56897,0.00385715,0.00237475,0.00272358,0.00593859,0.000293311,0.652544,0.003865,0.0115242,1476,1737,1.9147,-2.56898
259,-713,1.91528,2.53552,0.00523912,0.00268537,0.0024841,0.0067553,0.00116919,0.547998,0.00416882,0.0116511,1483,1737,1.91527,-2.5355
266,-713,1.90735,2.52454,0.00699864,0.00313632,0.00228033,0.00805567,0.00207929,0.434059,0.00482895,0.0108829,1490,1737,1.90736,-2.52449
273,-713,1.91455,2.52979,0.00879866,0.00339049,0.00213862,0.00954215,0.002647,0.334579,0.00568824,0.00868049,1497,1737,1.91453,-2.52976
280,-713,1.89893,2.51514,0.0100144,0.00331317,0.00182694,0.0104801,0.00284746,0.249594,0.00625743,0.00958161,1504,1737,1.89892,-2.5151
287,-713,1.88086,2.48535,0.0113115,0.00339493,0.00149828,0.0115855,0.00312086,0.180926,0.00692203,0.0110612,1511,1737,1.88088,-2.48538
294,-713,1.89368,2.47009,0.0127758,0.00339835,0.00108538,0.0128998,0.00327437,0.11374,0.00774276,0.0153534,1518,1737,1.89369,-2.47007
301,-713,1.89392,2.45728,0.0138572,0.00319728,0.000617374,0.0138928,0.00316164,0.0576586,0.00840852,0.0160764,1525,1737,1.89389,-2.45732
308,-713,1.87427,2.40674,0.014325,0.00272831,8.99705e-06,0.014325,0.0027283,0.000775826,0.008783,0.0169859,1532,1737,1.87427,-2.40678
315,-713,1.9613,2.36914,0.0148062,0.00220763,-0.000691153,0.014844,0.00216983,-0.0546411,0.00925788,0.0232101,1539,1737,1.96131,-2.36919
322,-713,1.98938,2.35913,0.0125212,0.00115333,-0.00082957,0.0125814,0.00109311,-0.0724632,0.00804804,0.0295909,1546,1737,1.98941,-2.35914
329,-713,1.87146,2.36523,0.00930199,-0.000519239,-0.000525484,0.00933003,-0.000547275,-0.053302,0.00641024,0.032298,1553,1737,1.87152,-2.36522
336,-713,1.78967,2.38013,0.00763016,-0.00108778,0.00169338,0.00794754,-0.00140515,0.185269,0.00582352,0.0364814,1560,1737,1.78971,-2.38016
343,-713,2.51611,2.36914,0.00510563,-0.00219712,0.00407357,0.00692477,-0.00401626,0.419999,0.00639077,0.041859,1567,1737,2.51606,-2.36916
350,-713,2.88037,2.38318,0.000371328,-0.00240171,0.0059493,0.00509355,-0.00712392,0.670914,0.00708615,0.0423444,1574,1737,2.88037,-2.38313
357,-713,2.6825,2.50891,-0.00303905,-0.00221845,0.0091706,0.00655103,-0.0118085,0.807754,0.0107438,0.0455014,1581,1737,2.68251,-2.50891
364,-713,2.34558,2.31641,0,0,0,0,0,0,0,-1,1588,1737,2.34561,-2.31644
371,-713,0.893555,2.29565,-0.0081131,0.00074291,0.0187258,0.0155571,-0.0229273,0.901498,0.0223544,0.0470786,1595,1737,0.893546,-2.29571
378,-713,0.00939941,2.27551,-0.0101523,0.00480351,0.0220416,0.0206012,-0.0259499,0.948937,0.0269354,0.0435819,1602,1737,0.00941975,-2.27552
385,-713,0.114624,2.07813,-0.00751657,0.00981948,0.0294957,0.0318945,-0.0295916,0.928312,0.0355073,0.0450796,1609,1737,0.114595,-2.07817
392,-713,0.262695,2.08459,-0.00257947,0.0167545,0.0347519,0.043159,-0.0289839,0.921054,0.0419189,0.0431222,1616,1737,0.262668,-2.08465
399,-713,0.239868,2.06201,0,0,0,0,0,0,0,-1,1623,1737,0.239859,-2.06197
406,-713,6.48743,2.55164,0,0,0,0,0,0,0,-1,1630,1737,6.48739,-2.55159
413,-713,6.95874,3.11414,0,0,0,0,0,0,0,-1,1637,1737,6.95877,-3.11411
420,-713,0,0,0,0,0,0,0,0,0,-1,1644,1737,0,0
427,-713,0,0,0,0,0,0,0,0,0,-1,1651,1737,0,0
434,-713,0,0,0,0,0,0,0,0,0,-1,1658,1737,0,0
441,-713,0,0,0,0,0,0,0,0,0,-1,1665,1737,0,0
448,-713,0,0,0,0,0,0,0,0,0,-1,1672,1737,0,0
455,-713,0,0,0,0,0,0,0,0,0,-1,1679,1737,0,0
462,-713,0,0,0,0,0,0,0,0,0,-1,1686,1737,0,0
469,-713,0,0,0,0,0,0,0,0,0,-1,1693,1737,0,0
476,-713,0,0,0,0,0,0,0,0,0,-1,1700,1737,0,0
483,-713,0,0,0,0,0,0,0,0,0,-1,1707,1737,0,0
490,-713,0,0,0,0,0,0,0,0,0,-1,1714,1737,0,0
497,-713,0,0,0,0,0,0,0,0,0,-1,1721,1737,0,0
504,-713,0,0,0,0,0,0,0,0,0,-1,1728,1737,0,0
511,-713,0,0,0,0,0,0,0,0,0,-1,1735,1737,0,0
518,-713,0,0,0,0,0,0,0,0,0,-1,1742,1737,0,0
525,-713,0,0,0,0,0,0,0,0,0,-1,1749,1737,0,0
532,-713,0,0,0,0,0,0,0,0,0,-1,1756,1737,0,0
539,-713,0,0,0,0,0,0,0,0,0,-1,1763,1737,0,0
546,-713,0,0,0,0,0,0,0,0,0,-1,1770,1737,0,0
553,-713,0,0,0,0,0,0,0,0,0,-1,1777,1737,0,0
560,-713,0,0,0,0,0,0,0,0,0,-1,1784,1737,0,0
567,-713,0,0,0,0,0,0,0,0,0,-1,1791,1737,0,0
574,-713,0,0,0,0,0,0,0,0,0,-1,1798,1737,0,0
581,-713,0,0,0,0,0,0,0,0,0,-1,1805,1737,0,0
588,-713,0,0,0,0,0,0,0,0,0,-1,1812,1737,0,0
595,-713,0,0,0,0,0,0,0,0,0,-1,1819,1737,0,0
602,-713,0,0,0,0,0,0,0,0,0,-1,1826,1737,0,0
609,-713,0,0,0,0,0,0,0,0,0,-1,1833,1737,0,0
616,-713,0,0,0,0,0,0,0,0,0,-1,1840,1737,0,0
623,-713,0,0,0,0,0,0,0,0,0,-1,1847,1737,0,0
630,-713,0,0,0,0,0,0,0,0,0,-1,1854,1737,0,0
637,-713,0,0,0,0,0,0,0,0,0,-1,1861,1737,0,0
644,-713,0,0,0,0,0,0,0,0,0,-1,1868,1737,0,0
651,-713,0,0,0,0,0,0,0,0,0,-1,1875,1737,0,0
658,-713,0,0,0,0,0,0,0,0,0,-1,1882,1737,0,0
665,-713,0,0,0,0,0,0,0,0,0,-1,1889,1737,0,0
672,-713,0,0,0,0,0,0,0,0,0,-1,1896,1737,0,0
679,-713,0,0,0,0,0,0,0,0,0,-1,1903,1737,0,0
686,-713,0,0,0,0,0,0,0,0,0,-1,1910,1737,0,0
693,-713,0,0,0,0,0,0,0,0,0,-1,1917,1737,0,0
700,-713,0,0,0,0,0,0,0,0,0,-1,1924,1737,0,0
707,-713,0,0,0,0,0,0,0,0,0,-1,1931,1737,0,0
714,-713,0,0,0,0,0,0,0,0,0,-1,1938,1737,0,0
721,-713,0,0,0,0,0,0,0,0,0,-1,1945,1737,0,0
728,-713,0,0,0,0,0,0,0,0,0,-1,1952,1737,0,0
735,-713,0,0,0,0,0,0,0,0,0,-1,1959,1737,0,0
742,-713,0,0,0,0,0,0,0,0,0,-1,1966,1737,0,0
749,-713,0,0,0,0,0,0,0,0,0,-1,1973,1737,0,0
756,-713,0,0,0,0,0,0,0,0,0,-1,1980,1737,0,0
763,-713,0,0,0,0,0,0,0,0,0,-1,1987,1737,0,0
770,-713,0,0,0,0,0,0,0,0,0,-1,1994,1737,0,0
777,-713,0,0,0,0,0,0,0,0,0,-1,2001,1737,0,0
784,-713,0,0,0,0,0,0,0,0,0,-1,2008,1737,0,0
791,-713,0,0,0,0,0,0,0,0,0,-1,2015,1737,0,0
798,-713,0,0,0,0,0,0,0,0,0,-1,2022,1737,0,0
805,-713,0,0,0,0,0,0,0,0,0,-1,2029,1737,0,0
812,-713,0,0,0,0,0,0,0,0,0,-1,2036,1737,0,0
-700,-720,0,0,0,0,0,0,0,0,0,-1,524,1744,0,0
-693,-720,0,0,0,0,0,0,0,0,0,-1,531,1744,0,0
-686,-720,0,0,0,0,0,0,0,0,0,-1,538,1744,0,0
-679,-720,0,0,0,0,0,0,0,0,0,-1,545,1744,0,0
-672,-720,0,0,0,0,0,0,0,0,0,-1,552,1744,0,0
-665,-720,0,0,0,0,0,0,0,0,0,-1,559,1744,0,0
-658,-720,0,0,0,0,0,0,0,0,0,-1,566,1744,0,0
-651,-720,0,0,0,0,0,0,0,0,0,-1,573,1744,0,0
-644,-720,0,0,0,0,0,0,0,0,0,-1,580,1744,0,0
-637,-720,0,0,0,0,0,0,0,0,0,-1,587,1744,0,0
-630,-720,0,0,0,0,0,0,0,0,0,-1,594,1744,0,0
-623,-720,0,0,0,0,0,0,0,0,0,-1,601,1744,0,0
-616,-720,0,0,0,0,0,0,0,0,0,-1,608,1744,0,0
-609,-720,0,0,0,0,0,0,0,0,0,-1,615,1744,0,0
-602,-720,0,0,0,0,0,0,0,0,0,-1,622,1744,0,0
-595,-720,0,0,0,0,0,0,0,0,0,-1,629,1744,0,0
-588,-720,0,0,0,0,0,0,0,0,0,-1,636,1744,0,0
-581,-720,0,0,0,0,0,0,0,0,0,-1,643,1744,0,0
-574,-720,0,0,0,0,0,0,0,0,0,-1,650,1744,0,0
-567,-720,0,0,0,0,0,0,0,0,0,-1,657,1744,0,0
-560,-720,0,0,0,0,0,0,0,0,0,-1,664,1744,0,0
-553,-720,0,0,0,0,0,0,0,0,0,-1,671,1744,0,0
-546,-720,0,0,0,0,0,0,0,0,0,-1,678,1744,0,0
-539,-720,0,0,0,0,0,0,0,0,0,-1,685,1744,0,0
-532,-720,0,0,0,0,0,0,0,0,0,-1,692,1744,0,0
-525,-720,0,0,0,0,0,0,0,0,0,-1,699,1744,0,0
-518,-720,0,0,0,0,0,0,0,0,0,-1,706,1744,0,0
-511,-720,0,0,0,0,0,0,0,0,0,-1,713,1744,0,0
-504,-720,0,0,0,0,0,0,0,0,0,-1,720,1744,0,0
-497,-720,0,0,0,0,0,0,0,0,0,-1,727,1744,0,0
-490,-720,0,0,0,0,0,0,0,0,0,-1,734,1744,0,0
-483,-720,0,0,0,0,0,0,0,0,0,-1,741,1744,0,0
-476,-720,0,0,0,0,0,0,0,0,0,-1,748,1744,0,0
-469,-720,0,0,0,0,0,0,0,0,0,-1,755,1744,0,0
-462,-720,0,0,0,0,0,0,0,0,0,-1,762,1744,0,0
-455,-720,0,0,0,0,0,0,0,0,0,-1,769,1744,0,0
-448,-720,0,0,0,0,0,0,0,0,0,-1,776,1744,0,0
-441,-720,0,0,0,0,0,0,0,0,0,-1,783,1744,0,0
-434,-720,0,0,0,0,0,0,0,0,0,-1,790,1744,0,0
-427,-720,0,0,0,0,0,0,0,0,0,-1,797,1744,0,0
-420,-720,0,0,0,0,0,0,0,0,0,-1,804,1744,0,0
-413,-720,0,0,0,0,0,0,0,0,0,-1,811,1744,0,0
-406,-720,0,0,0,0,0,0,0,0,0,-1,818,1744,0,0
-399,-720,0,0,0,0,0,0,0,0,0,-1,825,1744,0,0
-392,-720,0,0,0,0,0,0,0,0,0,-1,832,1744,0,0
-385,-720,0,0,0,0,0,0,0,0,0,-1,839,1744,0,0
-378,-720,0,0,0,0,0,0,0,0,0,-1,846,1744,0,0
-371,-720,0,0,0,0,0,0,0,0,0,-1,853,1744,0,0
-364,-720,0,0,0,0,0,0,0,0,0,-1,860,1744,0,0
-357,-720,0,0,0,0,0,0,0,0,0,-1,867,1744,0,0
-350,-720,0,0,0,0,0,0,0,0,0,-1,874,1744,0,0
-343,-720,0,0,0,0,0,0,0,0,0,-1,881,1744,0,0
-336,-720,0,0,0,0,0,0,0,0,0,-1,888,1744,0,0
-329,-720,0,0,0,0,0,0,0,0,0,-1,895,1744,0,0
-322,-720,0,0,0,0,0,0,0,0,0,-1,902,1744,0,0
-315,-720,0,0,0,0,0,0,0,0,0,-1,909,1744,0,0
-308,-720,0,0,0,0,0,0,0,0,0,-1,916,1744,0,0
-301,-720,0,0,0,0,0,0,0,0,0,-1,923,1744,0,0
-294,-720,0,0,0,0,0,0,0,0,0,-1,930,1744,0,0
-287,-720,0,0,0,0,0,0,0,0,0,-1,937,1744,0,0
-280,-720,1.89459,4.30432,0,0,0,0,0,0,0,-1,944,1744,1.89461,-4.30432
-273,-720,2.13403,4.47803,0,0,0,0,0,0,0,-1,951,1744,2.13406,-4.47805
-266,-720,2.38928,4.01819,0,0,0,0,0,0,0,-1,958,1744,2.38931,-4.01819
-259,-720,3.4881,0.395264,0,0,0,0,0,0,0,-1,965,1744,3.48812,-0.395281
-252,-720,3.56842,0.833862,0,0,0,0,0,0,0,-1,972,1744,3.5684,-0.833899
-245,-720,3.77332,1.31421,0.00591681,0.0524847,-0.0240612,0.0626833,-0.00428181,-1.16989,0.0432868,0.0461193,979,1744,3.77331,-1.31421
-238,-720,3.64661,1.3717,0.00404515,0.0644583,-0.0240343,0.0728533,-0.0043499,-1.23475,0.0500819,0.0492179,986,1744,3.64659,-1.37171
-231,-720,3.36725,1.41858,0,0,0,0,0,0,0,-1,993,1744,3.36722,-1.41857
-224,-720,3.07104,1.81689,0,0,0,0,0,0,0,-1,1000,1744,3.07104,-1.8169
-217,-720,3.16284,1.85864,0,0,0,0,0,0,0,-1,1007,1744,3.16287,-1.85866
-210,-720,1.13977,2.80212,0,0,0,0,0,0,0,-1,1014,1744,1.13976,-2.80213
-203,-720,1.27576,2.74182,0.00734685,0.0606764,-0.00675164,0.0615179,0.00650536,-1.4468,0.0390246,0.0446759,1021,1744,1.27576,-2.74177
-196,-720,1.4834,2.6438,0.00883786,0.051465,-0.00260478,0.0516236,0.00867928,-1.50999,0.0319184,0.0455856,1028,1744,1.48345,-2.64376
-189,-720,1.72009,2.54797,0.00971421,0.0428202,0.000727981,0.0428362,0.00969821,1.54882,0.0259363,0.046073,1035,1744,1.72007,-2.54795
-182,-720,1.75598,2.37305,0.00989755,0.0345465,0.0037583,0.0351068,0.00933725,1.4228,0.020996,0.0404229,1042,1744,1.75594,-2.37307
-175,-720,2.10852,2.28125,0.00927735,0.027062,0.00559382,0.0286751,0.00766424,1.29004,0.0171429,0.0393529,1049,1744,2.10848,-2.28121
-168,-720,2.1842,2.46326,0.00832989,0.0212863,0.00642621,0.023933,0.00568323,1.18011,0.0144387,0.0334813,1056,1744,2.18425,-2.46324
-161,-720,1.90588,2.4917,0.00806785,0.0171371,0.00627265,0.0203426,0.00486239,1.09837,0.0122665,0.0236928,1063,1744,1.90583,-2.49172
-154,-720,1.89087,2.48425,0.00623806,0.00906476,0.00784412,0.0156218,-0.000319027,0.874532,0.0105225,0.0162414,1070,1744,1.89083,-2.48425
-147,-720,1.87549,2.52344,0.00376692,0.0083125,0.00628368,0.0127218,-0.000642368,0.958927,0.00870322,0.0162573,1077,1744,1.87548,-2.52342
-140,-720,1.87158,2.54163,0.00184152,0.00733785,0.00513679,0.0104154,-0.00123604,1.03102,0.00739015,0.0142592,1084,1744,1.87153,-2.5416
-133,-720,1.85986,2.55054,0.0011198,0.00617795,0.00415008,0.00850885,-0.00121111,1.05905,0.00611637,0.0112067,1091,1744,1.85985,-2.55048
-126,-720,1.86255,2.58655,0.000689248,0.00484399,0.00331296,0.00667702,-0.00114378,1.06543,0.00487751,0.0115558,1098,1744,1.86253,-2.58657
-119,-720,1.86365,2.61621,-0.000124243,0.0032065,0.00255307,0.00458935,-0.00150709,1.07439,0.00366666,0.0134558,1105,1744,1.86368,-2.61627
-112,-720,1.86267,2.60315,-0.000555943,0.00182293,0.00162888,0.00265042,-0.00138344,1.10076,0.00236694,0.0124442,1112,1744,1.86271,-2.6032
-105,-720,1.87463,2.61804,-0.00104905,0.00068683,0.00110959,0.00122762,-0.00158984,1.1173,0.00163114,0.0126415,1119,1744,1.87458,-2.61801
-98,-720,1.86963,2.63269,-0.00179632,-0.000371085,0.0010344,0.000172403,-0.00233981,1.08702,0.0016204,0.0100643,1126,1744,1.86965,-2.63269
-91,-720,1.85461,2.63599,-0.00215484,-0.0012397,0.000855881,-0.000726752,-0.00266779,1.03088,0.00159254,0.00908252,1133,1744,1.85467,-2.63602
-84,-720,1.84985,2.6438,-0.00257382,-0.0014846,0.000471678,-0.00130874,-0.00274968,1.21392,0.00158814,0.00970852,1140,1744,1.8499,-2.64374
-77,-720,1.85181,2.67029,-0.00283241,-0.00187502,9.94572e-05,-0.0018648,-0.00284264,1.46837,0.00166762,0.0120859,1147,1744,1.85181,-2.67031
-70,-720,1.84802,2.68396,-0.00300705,-0.00191838,-0.000389807,-0.0017932,-0.00313223,-1.26007,0.00181472,0.01071,1154,1744,1.848,-2.68394
-63,-720,1.83801,2.70972,-0.003049,-0.00189955,-0.000790954,-0.00149656,-0.00345199,-1.09959,0.00199887,0.00987312,1161,1744,1.83796,-2.70972
-56,-720,1.83118,2.71863,-0.00286432,-0.00177968,-0.0011838,-0.00101989,-0.00362411,-1.00019,0.002158,0.0114933,1168,1744,1.83119,-2.71859
-49,-720,1.81519,2.68713,-0.0025401,-0.00156727,-0.00158157,-0.000399005,-0.00370836,-0.934583,0.00235056,0.0171743,1175,1744,1.81513,-2.68713
-42,-720,1.82324,2.72974,-0.002088,-0.00124539,-0.00191317,0.000292317,-0.00362571,-0.893775,0.00252023,0.0196098,1182,1744,1.82319,-2.72979
-35,-720,1.86072,2.72925,-0.00147298,-0.0010843,-0.00215521,0.000885316,-0.0034426,-0.830363,0.00264012,0.0172501,1189,1744,1.86073,-2.72926
-28,-720,1.87598,2.72705,-0.000869714,-0.00103292,-0.00217888,0.00122909,-0.00313172,-0.766681,0.00259636,0.0104769,1196,1744,1.87593,-2.72701
-21,-720,1.84155,2.75146,-0.000184959,-0.000579893,-0.00187941,0.00150733,-0.00227218,-0.733056,0.00219695,0.00857178,1203,1744,1.84158,-2.75152
-14,-720,1.84302,2.73914,0.00053084,-0.000495037,-0.00142415,0.00153161,-0.00149581,-0.612545,0.00174792,0.0101091,1210,1744,1.84305,-2.73916
-7,-720,1.85156,2.74988,0.00117977,0.000445677,-0.000958812,0.00183939,-0.000213942,-0.602596,0.00130344,0.0115762,1217,1744,1.85153,-2.74991
0,-720,1.86304,2.771,0.00169492,0.0012771,-0.000437376,0.00197072,0.0010013,-0.562597,0.00113785,0.0126187,1224,1744,1.863,-2.77098
7,-720,1.86926,2.76978,0.00187641,0.00213558,8.48989e-05,0.00216092,0.00185107,1.2808,0.00134924,0.0145258,1231,1744,1.8693,-2.76975
14,-720,1.87939,2.76355,0.00186817,0.00291715,0.000672062,0.00324517,0.00154016,1.11674,0.0018744,0.0134477,1238,1744,1.87945,-2.7635
21,-720,1.87134,2.76245,0.00185071,0.003636,0.00119248,0.00423293,0.00125378,1.10669,0.00251065,0.0103653,1245,1744,1.87135,-2.7624
28,-720,1.86609,2.75732,0.00174445,0.00467934,0.00153624,0.00533638,0.00108741,1.16665,0.00325621,0.0105079,1252,1744,1.86613,-2.7573
35,-720,1.86365,2.77185,0.00162711,0.0054524,0.00170564,0.00610246,0.000977054,1.20667,0.00378489,0.0112418,1259,1744,1.86361,-2.77181
42,-720,1.84949,2.78003,0.00165706,0.00606952,0.0016869,0.00664054,0.00108604,1.2444,0.00411309,0.0116629,1266,1744,1.8495,-2.78
49,-720,1.85046,2.77161,0.00173423,0.00647262,0.0015095,0.00691264,0.00129421,1.28716,0.00424333,0.0112731,1273,1744,1.85049,-2.77164
56,-720,1.86182,2.76428,0.00187097,0.00643232,0.00120645,0.00673176,0.00157152,1.32751,0.00406651,0.0095437,1280,1744,1.86187,-2.7643
63,-720,1.86865,2.78137,0.0019388,0.0061378,0.000895492,0.0063208,0.0017558,1.36921,0.00376754,0.0115326,1287,1744,1.86861,-2.7814
70,-720,1.87317,2.78198,0.00176793,0.00508364,0.000941205,0.00533218,0.00151939,1.31262,0.00317204,0.0124586,1294,1744,1.87319,-2.78193
77,-720,1.86804,2.76331,0.00151585,0.00395988,0.000850101,0.00422648,0.00124924,1.26689,0.00250722,0.0141313,1301,1744,1.86807,-2.76324
84,-720,1.87842,2.75525,0.0013183,0.00234502,0.000685645,0.00268819,0.000975128,1.10674,0.0015714,0.0141159,1308,1744,1.87845,-2.75526
91,-720,1.90515,2.75525,0.0012675,0.000860721,0.000707538,0.0018003,0.000327919,0.645441,0.0011072,0.0127773,1315,1744,1.90518,-2.75529
98,-720,1.88721,2.77832,0.00123476,-0.00100015,0.00103582,0.00164099,-0.00140638,0.373752,0.00176114,0.0115816,1322,1744,1.8872,-2.77833
105,-720,1.8645,2.78772,0.00101351,-0.00227964,0.00141304,0.0015367,-0.00280283,0.354609,0.00254073,0.0112129,1329,1744,1.86453,-2.78774
112,-720,1.8739,2.77063,0.000882004,-0.00325775,0.00167102,0.00147233,-0.00384808,0.339589,0.00317218,0.0106739,1336,1744,1.87392,-2.77067
119,-720,1.87476,2.74121,0.000753039,-0.00380094,0.00177157,0.00136104,-0.00440894,0.330601,0.00348278,0.0106389,1343,1744,1.87478,-2.74116
126,-720,1.8667,2.7428,0.000683877,-0.00383506,0.00186195,0.00135221,-0.0045034,0.344621,0.00354016,0.0106367,1350,1744,1.86673,-2.74283
133,-720,1.85803,2.74829,0.000771671,-0.0034784,0.00171533,0.00137759,-0.00408433,0.339558,0.00327997,0.0121141,1357,1744,1.85801,-2.74826
140,-720,1.85522,2.76379,0.000893262,-0.00293855,0.00126511,0.00127327,-0.00331856,0.291798,0.00273735,0.0193229,1364,1744,1.85526,-2.76376
147,-720,1.85559,2.76001,0.00092791,-0.00231225,0.000579796,0.00102853,-0.00241287,0.171839,0.00203978,0.0209007,1371,1744,1.85556,-2.75996
154,-720,1.85962,2.73999,0.00102505,-0.00161099,-0.000376268,0.00107771,-0.00166365,-0.139041,0.00159473,0.0133042,1378,1744,1.85958,-2.74
161,-720,1.87268,2.72107,0.000850025,-0.000906687,-0.00135693,0.00158808,-0.00164474,-0.498157,0.00186656,0.00913916,1385,1744,1.87271,-2.72105
168,-720,1.88416,2.70459,0.000476445,-0.000270766,-0.00229154,0.00242464,-0.00221896,-0.704591,0.00268186,0.0096196,1392,1744,1.88417,-2.70457
175,-720,1.89539,2.68896,0.00032363,0.000627616,-0.00345805,0.00393701,-0.00298577,-0.807361,0.00400943,0.0154859,1399,1744,1.89537,-2.68897
182,-720,1.90662,2.69958,-9.90028e-07,0.00113981,-0.00404892,0.00465831,-0.00351949,-0.855377,0.00473669,0.0148323,1406,1744,1.90665,-2.69957
189,-720,1.89734,2.68713,-0.000614859,0.00154506,-0.00434819,0.0049454,-0.0040152,-0.90712,0.00518269,0.0123221,1413,1744,1.89738,-2.68716
196,-720,1.87695,2.67236,-0.00116776,0.00188888,-0.00444291,0.00505899,-0.00433787,-0.951054,0.0054306,0.0122874,1420,1744,1.87693,-2.67231
203,-720,1.86584,2.64844,-0.00159073,0.00208011,-0.00424825,0.00487247,-0.00438309,-0.989308,0.00534619,0.014304,1427,1744,1.86583,-2.64842
210,-720,1.88208,2.64441,-0.0020723,0.0017504,-0.0035844,0.00390122,-0.00422311,-1.03034,0.00469181,0.0132212,1434,1744,1.88213,-2.64442
217,-720,1.8927,2.63806,-0.00235926,0.00158847,-0.00257114,0.00285604,-0.00362683,-1.11276,0.0037517,0.0123184,1441,1744,1.8927,-2.63802
224,-720,1.89014,2.62793,-0.00204472,0.00145324,-0.00144674,0.00197406,-0.00256553,-1.22525,0.00262834,0.00937727,1448,1744,1.89016,-2.62787
231,-720,1.87439,2.61365,-0.00140533,0.00081809,-0.00113332,0.00129393,-0.00188116,-1.17328,0.00184356,0.00967716,1455,1744,1.87439,-2.61361
238,-720,1.87427,2.5686,8.95115e-05,0.000890963,-0.000303569,0.000992965,-1.24906e-05,-1.24664,0.000666179,0.0085925,1462,1744,1.87425,-2.56858
245,-720,1.8678,2.5686,0.00250385,0.00125054,0.00109201,0.00313623,0.000618157,0.524911,0.00191826,0.0108293,1469,1744,1.86782,-2.56858
252,-720,1.88611,2.55981,0.00501534,0.00156821,0.00216257,0.00605717,0.000526383,0.448945,0.00387459,0.0110886,1476,1744,1.88609,-2.55976
259,-720,1.90955,2.53699,0.00678858,0.00188992,0.0023683,0.00774631,0.000932189,0.384291,0.00488323,0.00988193,1483,1744,1.9095,-2.53693
266,-720,1.89526,2.52856,0.00918402,0.00257212,0.00244935,0.0099925,0.00176363,0.318823,0.00615855,0.00823984,1490,1744,1.89527,-2.52853
273,-720,1.88257,2.52344,0.011686,0.00305943,0.00258637,0.012402,0.00234343,0.270073,0.00760811,0.010898,1497,1744,1.8826,-2.5234
280,-720,1.89063,2.49463,0.0134108,0.00335038,0.00252611,0.0140094,0.00275171,0.232699,0.00857091,0.0116459,1504,1744,1.89068,-2.49458
287,-720,1.89844,2.4679,0.015153,0.00374762,0.00235218,0.0156191,0.00328156,0.195604,0.00950951,0.0192732,1511,1744,1.89848,-2.46787
294,-720,1.91064,2.47314,0.0169621,0.00402187,0.00202091,0.0172704,0.0037136,0.151371,0.010497,0.0266136,1518,1744,1.9107,-2.47319
301,-720,1.82715,2.37732,0.0182936,0.00403072,0.00156879,0.0184641,0.00386021,0.108267,0.0112457,0.0305409,1525,1744,1.82711,-2.37731
308,-720,1.83484,2.30151,0.0189518,0.00371844,0.0009204,0.0190072,0.00366303,0.0601287,0.0116441,0.0314043,1532,1744,1.83479,-2.30151
315,-720,2.14954,2.34949,0.0195421,0.00341056,0.000118322,0.0195429,0.00340969,0.00733433,0.0120539,0.0358305,1539,1744,2.14953,-2.34951
322,-720,2.36877,2.55896,0.0165909,0.00213387,6.68308e-05,0.0165912,0.00213356,0.00462259,0.0104227,0.0432695,1546,1744,2.36874,-2.559
329,-720,2.31738,2.73804,0.0123503,7.78234e-06,0.00050874,0.0123712,-1.31517e-05,0.0411256,0.00825186,0.0456097,1553,1744,2.31738,-2.73806
336,-720,2.11865,2.34033,0,0,0,0,0,0,0,-1,1560,1744,2.11862,-2.34028
343,-720,2.61853,2.36816,0.00630604,-0.00229305,0.00624658,0.00958976,-0.00557677,0.483982,0.00885798,0.0475208,1567,1744,2.61853,-2.36816
350,-720,3.05176,2.42932,-0.000598818,-0.00325273,0.00804579,0.00622871,-0.0100803,0.703671,0.00950311,0.0467754,1574,1744,3.05175,-2.4293
357,-720,3.5072,2.45349,0,0,0,0,0,0,0,-1,1581,1744,3.5072,-2.45351
364,-720,2.26306,2.21484,0,0,0,0,0,0,0,-1,1588,1744,2.26306,-2.21483
371,-720,0.557251,2.48254,-0.0142478,-0.00219619,0.0246509,0.0171548,-0.0335988,0.90527,0.0298108,0.0484245,1595,1744,0.557296,-2.48251
378,-720,-0.245483,2.54773,-0.0191156,0.00125686,0.0293018,0.0220925,-0.0399511,0.95268,0.0363122,0.0472957,1602,1744,-0.245443,-2.54777
385,-720,-0.753784,2.03442,-0.0193561,0.00604862,0.0382817,0.0336803,-0.0469878,0.945589,0.0467845,0.0466411,1609,1744,-0.753825,-2.03439
392,-720,-0.704956,2.11023,-0.0146877,0.0135413,0.0456012,0.0471625,-0.0483088,0.935482,0.0551217,0.043434,1616,1744,-0.704975,-2.11017
399,-720,-0.629639,2.19824,0,0,0,0,0,0,0,-1,1623,1744,-0.62968,-2.19822
406,-720,0,0,0,0,0,0,0,0,0,-1,1630,1744,0,0
413,-720,0,0,0,0,0,0,0,0,0,-1,1637,1744,0,0
420,-720,0,0,0,0,0,0,0,0,0,-1,1644,1744,0,0
427,-720,0,0,0,0,0,0,0,0,0,-1,1651,1744,0,0
434,-720,0,0,0,0,0,0,0,0,0,-1,1658,1744,0,0
441,-720,0,0,0,0,0,0,0,0,0,-1,1665,1744,0,0
448,-720,0,0,0,0,0,0,0,0,0,-1,1672,1744,0,0
455,-720,0,0,0,0,0,0,0,0,0,-1,1679,1744,0,0
462,-720,0,0,0,0,0,0,0,0,0,-1,1686,1744,0,0
469,-720,0,0,0,0,0,0,0,0,0,-1,1693,1744,0,0
476,-720,0,0,0,0,0,0,0,0,0,-1,1700,1744,0,0
483,-720,0,0,0,0,0,0,0,0,0,-1,1707,1744,0,0
490,-720,0,0,0,0,0,0,0,0,0,-1,1714,1744,0,0
497,-720,0,0,0,0,0,0,0,0,0,-1,1721,1744,0,0
504,-720,0,0,0,0,0,0,0,0,0,-1,1728,1744,0,0
511,-720,0,0,0,0,0,0,0,0,0,-1,1735,1744,0,0
518,-720,0,0,0,0,0,0,0,0,0,-1,1742,1744,0,0
525,-720,0,0,0,0,0,0,0,0,0,-1,1749,1744,0,0
532,-720,0,0,0,0,0,0,0,0,0,-1,1756,1744,0,0
539,-720,0,0,0,0,0,0,0,0,0,-1,1763,1744,0,0
546,-720,0,0,0,0,0,0,0,0,0,-1,1770,1744,0,0
553,-720,0,0,0,0,0,0,0,0,0,-1,1777,1744,0,0
560,-720,0,0,0,0,0,0,0,0,0,-1,1784,1744,0,0
567,-720,0,0,0,0,0,0,0,0,0,-1,1791,1744,0,0
574,-720,0,0,0,0,0,0,0,0,0,-1,1798,1744,0,0
581,-720,0,0,0,0,0,0,0,0,0,-1,1805,1744,0,0
588,-720,0,0,0,0,0,0,0,0,0,-1,1812,1744,0,0
595,-720,0,0,0,0,0,0,0,0,0,-1,1819,1744,0,0
602,-720,0,0,0,0,0,0,0,0,0,-1,1826,1744,0,0
609,-720,0,0,0,0,0,0,0,0,0,-1,1833,1744,0,0
616,-720,0,0,0,0,0,0,0,0,0,-1,1840,1744,0,0
623,-720,0,0,0,0,0,0,0,0,0,-1,1847,1744,0,0
630,-720,0,0,0,0,0,0,0,0,0,-1,1854,1744,0,0
637,-720,0,0,0,0,0,0,0,0,0,-1,1861,1744,0,0
644,-720,0,0,0,0,0,0,0,0,0,-1,1868,1744,0,0
651,-720,0,0,0,0,0,0,0,0,0,-1,1875,1744,0,0
658,-720,0,0,0,0,0,0,0,0,0,-1,1882,1744,0,0
665,-720,0,0,0,0,0,0,0,0,0,-1,1889,1744,0,0
672,-720,0,0,0,0,0,0,0,0,0,-1,1896,1744,0,0
679,-720,0,0,0,0,0,0,0,0,0,-1,1903,1744,0,0
686,-720,0,0,0,0,0,0,0,0,0,-1,1910,1744,0,0
693,-720,0,0,0,0,0,0,0,0,0,-1,1917,1744,0,0
700,-720,0,0,0,0,0,0,0,0,0,-1,1924,1744,0,0
707,-720,0,0,0,0,0,0,0,0,0,-1,1931,1744,0,0
714,-720,0,0,0,0,0,0,0,0,0,-1,1938,1744,0,0
721,-720,0,0,0,0,0,0,0,0,0,-1,1945,1744,0,0
728,-720,0,0,0,0,0,0,0,0,0,-1,1952,1744,0,0
735,-720,0,0,0,0,0,0,0,0,0,-1,1959,1744,0,0
742,-720,0,0,0,0,0,0,0,0,0,-1,1966,1744,0,0
749,-720,0,0,0,0,0,0,0,0,0,-1,1973,1744,0,0
756,-720,0,0,0,0,0,0,0,0,0,-1,1980,1744,0,0
763,-720,0,0,0,0,0,0,0,0,0,-1,1987,1744,0,0
770,-720,0,0,0,0,0,0,0,0,0,-1,1994,1744,0,0
777,-720,0,0,0,0,0,0,0,0,0,-1,2001,1744,0,0
784,-720,0,0,0,0,0,0,0,0,0,-1,2008,1744,0,0
791,-720,0,0,0,0,0,0,0,0,0,-1,2015,1744,0,0
798,-720,0,0,0,0,0,0,0,0,0,-1,2022,1744,0,0
805,-720,0,0,0,0,0,0,0,0,0,-1,2029,1744,0,0
812,-720,0,0,0,0,0,0,0,0,0,-1,2036,1744,0,0
-700,-727,0,0,0,0,0,0,0,0,0,-1,524,1751,0,0
-693,-727,0,0,0,0,0,0,0,0,0,-1,531,1751,0,0
-686,-727,0,0,0,0,0,0,0,0,0,-1,538,1751,0,0
-679,-727,0,0,0,0,0,0,0,0,0,-1,545,1751,0,0
-672,-727,0,0,0,0,0,0,0,0,0,-1,552,1751,0,0
-665,-727,0,0,0,0,0,0,0,0,0,-1,559,1751,0,0
-658,-727,0,0,0,0,0,0,0,0,0,-1,566,1751,0,0
-651,-727,0,0,0,0,0,0,0,0,0,-1,573,1751,0,0
-644,-727,0,0,0,0,0,0,0,0,0,-1,580,1751,0,0
-637,-727,0,0,0,0,0,0,0,0,0,-1,587,1751,0,0
-630,-727,0,0,0,0,0,0,0,0,0,-1,594,1751,0,0
-623,-727,0,0,0,0,0,0,0,0,0,-1,601,1751,0,0
-616,-727,0,0,0,0,0,0,0,0,0,-1,608,1751,0,0
-609,-727,0,0,0,0,0,0,0,0,0,-1,615,1751,0,0
-602,-727,0,0,0,0,0,0,0,0,0,-1,622,1751,0,0
-595,-727,0,0,0,0,0,0,0,0,0,-1,629,1751,0,0
-588,-727,0,0,0,0,0,0,0,0,0,-1,636,1751,0,0
-581,-727,0,0,0,0,0,0,0,0,0,-1,643,1751,0,0
-574,-727,0,0,0,0,0,0,0,0,0,-1,650,1751,0,0
-567,-727,0,0,0,0,0,0,0,0,0,-1,657,1751,0,0
-560,-727,0,0,0,0,0,0,0,0,0,-1,664,1751,0,0
-553,-727,0,0,0,0,0,0,0,0,0,-1,671,1751,0,0
-546,-727,0,0,0,0,0,0,0,0,0,-1,678,1751,0,0
-539,-727,0,0,0,0,0,0,0,0,0,-1,685,1751,0,0
-532,-727,0,0,0,0,0,0,0,0,0,-1,692,1751,0,0
-525,-727,0,0,0,0,0,0,0,0,0,-1,699,1751,0,0
-518,-727,0,0,0,0,0,0,0,0,0,-1,706,1751,0,0
-511,-727,0,0,0,0,0,0,0,0,0,-1,713,1751,0,0
-504,-727,0,0,0,0,0,0,0,0,0,-1,720,1751,0,0
-497,-727,0,0,0,0,0,0,0,0,0,-1,727,1751,0,0
-490,-727,0,0,0,0,0,0,0,0,0,-1,734,1751,0,0
-483,-727,0,0,0,0,0,0,0,0,0,-1,741,1751,0,0
-476,-727,0,0,0,0,0,0,0,0,0,-1,748,1751,0,0
-469,-727,0,0,0,0,0,0,0,0,0,-1,755,1751,0,0
-462,-727,0,0,0,0,0,0,0,0,0,-1,762,1751,0,0
-455,-727,0,0,0,0,0,0,0,0,0,-1,769,1751,0,0
-448,-727,0,0,0,0,0,0,0,0,0,-1,776,1751,0,0
-441,-727,0,0,0,0,0,0,0,0,0,-1,783,1751,0,0
-434,-727,0,0,0,0,0,0,0,0,0,-1,790,1751,0,0
-427,-727,0,0,0,0,0,0,0,0,0,-1,797,1751,0,0
-420,-727,0,0,0,0,0,0,0,0,0,-1,804,1751,0,0
-413,-727,0,0,0,0,0,0,0,0,0,-1,811,1751,0,0
-406,-727,0,0,0,0,0,0,0,0,0,-1,818,1751,0,0
-399,-727,0,0,0,0,0,0,0,0,0,-1,825,1751,0,0
-392,-727,0,0,0,0,0,0,0,0,0,-1,832,1751,0,0
-385,-727,0,0,0,0,0,0,0,0,0,-1,839,1751,0,0
-378,-727,0,0,0,0,0,0,0,0,0,-1,846,1751,0,0
-371,-727,0,0,0,0,0,0,0,0,0,-1,853,1751,0,0
-364,-727,0,0,0,0,0,0,0,0,0,-1,860,1751,0,0
-357,-727,0,0,0,0,0,0,0,0,0,-1,867,1751,0,0
-350,-727,0,0,0,0,0,0,0,0,0,-1,874,1751,0,0
-343,-727,0,0,0,0,0,0,0,0,0,-1,881,1751,0,0
-336,-727,0,0,0,0,0,0,0,0,0,-1,888,1751,0,0
-329,-727,0,0,0,0,0,0,0,0,0,-1,895,1751,0,0
-322,-727,0,0,0,0,0,0,0,0,0,-1,902,1751,0,0
-315,-727,0,0,0,0,0,0,0,0,0,-1,909,1751,0,0
-308,-727,0,0,0,0,0,0,0,0,0,-1,916,1751,0,0
-301,-727,0,0,0,0,0,0,0,0,0,-1,923,1751,0,0
-294,-727,0,0,0,0,0,0,0,0,0,-1,930,1751,0,0
-287,-727,0,0,0,0,0,0,0,0,0,-1,937,1751,0,0
-280,-727,0,0,0,0,0,0,0,0,0,-1,944,1751,0,0
-273,-727,0,0,0,0,0,0,0,0,0,-1,951,1751,0,0
-266,-727,2.35651,3.84253,0,0,0,0,0,0,0,-1,958,1751,2.35652,-3.84252
-259,-727,3.11444,3.14233,0,0,0,0,0,0,0,-1,965,1751,3.11442,-3.14231
-252,-727,4.04181,0.987549,0,0,0,0,0,0,0,-1,972,1751,4.04178,-0.987519
-245,-727,4.19409,1.17444,0,0,0,0,0,0,0,-1,979,1751,4.1941,-1.17443
-238,-727,4.13031,1.20691,0,0,0,0,0,0,0,-1,986,1751,4.13034,-1.2069
-231,-727,3.30182,1.51343,0,0,0,0,0,0,0,-1,993,1751,3.30182,-1.51337
-224,-727,3.50391,1.47998,0,0,0,0,0,0,0,-1,1000,1751,3.50391,-1.47998
-217,-727,3.70599,1.44666,0,0,0,0,0,0,0,-1,1007,1751,3.706,-1.4466
-210,-727,0.13385,3.21704,0.00543887,0.0992926,-0.0172546,0.102364,0.00236723,-1.39462,0.0674676,0.0444723,1014,1751,0.133873,-3.217
-203,-727,0.622803,2.93481,0.00825338,0.0868427,-0.0105572,0.0882362,0.0068599,-1.43956,0.0566761,0.0438299,1021,1751,0.622776,-2.93479
-196,-727,1.20508,2.63904,0.0108456,0.0728544,-0.00456022,0.073188,0.0105121,-1.49778,0.0456928,0.0461313,1028,1751,1.20512,-2.63902
-189,-727,1.60889,2.63452,0,0,0,0,0,0,0,-1,1035,1751,1.60883,-2.63454
-182,-727,2.2511,1.49072,0,0,0,0,0,0,0,-1,1042,1751,2.25111,-1.49066
-175,-727,2.50928,1.65039,0.0125097,0.0371333,0.0075378,0.0392575,0.0103855,1.29611,0.0234881,0.0487984,1049,1751,2.50929,-1.65034
-168,-727,2.61536,1.93933,0.0114614,0.0287397,0.00897772,0.0325599,0.00764124,1.16849,0.0196609,0.0459679,1056,1751,2.61535,-1.93928
-161,-727,1.92761,2.48218,0.0112452,0.0226335,0.00896072,0.0275562,0.00632245,1.06844,0.0166679,0.0444061,1063,1751,1.92758,-2.48217
-154,-727,2.01392,2.4281,0.00901168,0.0111918,0.0115338,0.0216869,-0.00148343,0.832514,0.0149769,0.0357247,1070,1751,2.01396,-2.42809
-147,-727,1.94116,2.48792,0.00583705,0.010097,0.00948171,0.017685,-0.00175098,0.895884,0.0124149,0.02904,1077,1751,1.9412,-2.48788
-140,-727,1.90161,2.5083,0.00324702,0.00886443,0.00784679,0.01439,-0.0022786,0.957265,0.0104362,0.0196736,1084,1751,1.90161,-2.50834
-133,-727,1.88818,2.52759,0.00213455,0.00751781,0.00637956,0.0117503,-0.00209796,0.985026,0.00861841,0.0133577,1091,1751,1.88812,-2.52757
-126,-727,1.87134,2.56775,0.00136227,0.00581114,0.00511497,0.00916444,-0.00199102,0.990506,0.00687015,0.0108904,1098,1751,1.87131,-2.56774
-119,-727,1.88513,2.6012,0.000224772,0.0038044,0.00398675,0.00638467,-0.0023555,0.996384,0.00522181,0.010061,1105,1751,1.88511,-2.60114
-112,-727,1.90076,2.58899,-0.000467701,0.00207679,0.00266586,0.00375842,-0.00214933,1.00803,0.00345276,0.0115973,1112,1751,1.9007,-2.58894
-105,-727,1.88574,2.61353,-0.00122922,0.000604564,0.00189276,0.00179082,-0.00241547,1.01095,0.00243741,0.0128643,1119,1751,1.88569,-2.61349
-98,-727,1.87146,2.63074,-0.00218753,-0.000785347,0.00167795,0.000332086,-0.00330496,0.983288,0.00232193,0.0112999,1126,1751,1.87152,-2.63071
-91,-727,1.88452,2.63623,-0.00265613,-0.00192685,0.00126325,-0.000976667,-0.00360632,0.925905,0.00215378,0.0104389,1133,1751,1.88448,-2.63617
-84,-727,1.87671,2.64258,-0.00318873,-0.00217942,0.000669748,-0.00184548,-0.00352267,1.10827,0.00203459,0.0103782,1140,1751,1.87668,-2.64254
-77,-727,1.8689,2.66431,-0.00353727,-0.00251863,7.85081e-05,-0.00251261,-0.00354329,1.49433,0.00210451,0.0112778,1147,1751,1.86894,-2.66431
-70,-727,1.85217,2.68018,-0.00380342,-0.00228924,-0.000770637,-0.00196602,-0.00412664,-1.17366,0.0023834,0.011296,1154,1751,1.85214,-2.68019
-63,-727,1.84961,2.7052,-0.00391836,-0.00199729,-0.00141725,-0.00124574,-0.00466991,-1.08321,0.00279225,0.00917169,1161,1751,1.84957,-2.70524
-56,-727,1.8446,2.71802,-0.00361856,-0.00137697,-0.00195829,-0.000241427,-0.0047541,-1.04531,0.00309207,0.00974684,1168,1751,1.84463,-2.71804
-49,-727,1.8595,2.71094,-0.00310534,-0.000567026,-0.00245645,0.000928756,-0.00460112,-1.02384,0.00341931,0.0122651,1175,1751,1.85951,-2.71097
-42,-727,1.86682,2.73706,-0.00248836,0.000439895,-0.00281241,0.00214647,-0.00419493,-1.02539,0.00372434,0.0153035,1182,1751,1.86684,-2.73703
-35,-727,1.83508,2.72986,-0.00166005,0.00125192,-0.00292774,0.00306573,-0.00347386,-1.01614,0.00377808,0.0140007,1189,1751,1.83506,-2.72982
-28,-727,1.85669,2.72021,-0.000826706,0.0020104,-0.00249094,0.00345839,-0.00227469,-1.04424,0.00333343,0.00866273,1196,1751,1.85663,-2.72023
-21,-727,1.84485,2.72791,6.42288e-05,0.00349499,-0.00157317,0.00410714,-0.000547918,-1.19971,0.00293781,0.00959737,1203,1751,1.8448,-2.72794
-14,-727,1.8457,2.74402,0.00101558,0.0041409,-0.000554846,0.00423648,0.000920004,-1.40021,0.00257307,0.0107961,1210,1751,1.84575,-2.74401
-7,-727,1.85632,2.75659,0.00196766,0.00538847,0.000669297,0.00551476,0.00184137,1.3843,0.00324198,0.0143926,1217,1751,1.85637,-2.75664
0,-727,1.86377,2.75562,0.00276567,0.00634838,0.00200461,0.00724541,0.00186864,1.15004,0.00434351,0.0142606,1224,1751,1.86375,-2.75557
7,-727,1.85437,2.76733,0.00313369,0.00690262,0.0032535,0.00877801,0.00125831,1.04789,0.00548093,0.0136552,1231,1751,1.85438,-2.76732
14,-727,1.85767,2.76929,0.00315392,0.00715127,0.00448493,0.0100627,0.000242475,0.995011,0.00662913,0.0136537,1238,1751,1.8577,-2.76923
21,-727,1.875,2.77454,0.00308951,0.00710228,0.00538829,0.0108456,-0.000653829,0.963625,0.00745791,0.0112679,1245,1751,1.875,-2.77452
28,-727,1.89001,2.76636,0.00286917,0.00729997,0.00590292,0.0113895,-0.00122039,0.964918,0.00803078,0.0102376,1252,1751,1.89005,-2.76635
35,-727,1.90723,2.76746,0.00260459,0.00706395,0.00608871,0.0113184,-0.00164985,0.960915,0.00815139,0.0118563,1259,1751,1.90724,-2.76743
42,-727,1.87256,2.77405,0.00246428,0.0068735,0.00573957,0.0108173,-0.00147952,0.968764,0.00775191,0.0125833,1266,1751,1.87256,-2.77401
49,-727,1.84412,2.77185,0.00233794,0.00646805,0.00505259,0.0098613,-0.00105531,0.979396,0.00695272,0.0106184,1273,1751,1.84407,-2.77184
56,-727,1.85913,2.77258,0.00231085,0.00587573,0.00416254,0.00862141,-0.000434819,0.987692,0.00589789,0.00860534,1280,1751,1.85915,-2.77254
63,-727,1.87585,2.77905,0.00224955,0.00520672,0.00327597,0.00732233,0.000133947,0.997383,0.00483752,0.0106069,1287,1751,1.87585,-2.77908
70,-727,1.88159,2.76587,0.00205259,0.00412063,0.00267206,0.00595176,0.000221462,0.970012,0.00389612,0.0131632,1294,1751,1.88158,-2.7659
77,-727,1.87195,2.76306,0.00181161,0.00304751,0.0018744,0.0044032,0.000455921,0.944627,0.00279591,0.0158859,1301,1751,1.8719,-2.76312
84,-727,1.88269,2.74854,0.00161831,0.00146438,0.00112962,0.00267359,0.000409107,0.751384,0.00166288,0.0163107,1308,1751,1.88268,-2.74849
91,-727,1.90271,2.73389,0.00151843,0.000403729,0.000780498,0.00192015,2.00752e-06,0.475337,0.00127943,0.0159367,1315,1751,1.90269,-2.73384
98,-727,1.89331,2.78137,0.00147235,-0.000930034,0.000634693,0.00162972,-0.00108741,0.243049,0.00157911,0.0126742,1322,1751,1.89325,-2.78137
105,-727,1.87378,2.79407,0.001306,-0.00183927,0.000664067,0.00144046,-0.00197373,0.199775,0.00197918,0.0120301,1329,1751,1.87378,-2.79401
112,-727,1.86743,2.76941,0.00124768,-0.00250398,0.000691963,0.00137123,-0.00262753,0.176699,0.00234636,0.0108543,1336,1751,1.86745,-2.76946
119,-727,1.86877,2.74475,0.00129518,-0.00305128,0.00065275,0.00139109,-0.0031472,0.145893,0.00268477,0.00884189,1343,1751,1.86883,-2.7448
126,-727,1.87708,2.72607,0.00138935,-0.00338718,0.000617498,0.00146788,-0.00346572,0.126507,0.00292523,0.00960863,1350,1751,1.87712,-2.72606
133,-727,1.87451,2.74792,0.00163885,-0.00345303,0.00034745,0.00166245,-0.00347663,0.0678171,0.00302805,0.0141877,1357,1751,1.87448,-2.74794
140,-727,1.88403,2.78394,0.00190137,-0.00333574,-0.000293769,0.0019178,-0.00335217,-0.0558602,0.00307995,0.0220118,1364,1751,1.88405,-2.784
147,-727,1.87341,2.76709,0.00210502,-0.00317668,-0.00121548,0.00237131,-0.00344297,-0.215676,0.00337583,0.0193162,1371,1751,1.87337,-2.76707
154,-727,1.86572,2.72522,0.00231527,-0.00274244,-0.00256988,0.00339188,-0.00381905,-0.396722,0.00416567,0.0115291,1378,1751,1.86572,-2.72519
161,-727,1.87549,2.71069,0.00209816,-0.00230406,-0.00390901,0.00438317,-0.00458906,-0.528981,0.00518057,0.00888926,1385,1751,1.87549,-2.71075
168,-727,1.88367,2.71179,0.00159892,-0.00162993,-0.00514062,0.00537266,-0.00540368,-0.633249,0.00622173,0.0113649,1392,1751,1.88369,-2.7118
175,-727,1.90466,2.70911,0.00133609,-0.000689059,-0.00654346,0.00694486,-0.00629783,-0.708634,0.00764871,0.0161519,1399,1751,1.90472,-2.70905
182,-727,1.92346,2.70459,0.000906808,5.41482e-05,-0.00732558,0.00781846,-0.0068575,-0.756332,0.00847922,0.0180658,1406,1751,1.92351,-2.70458
189,-727,1.87573,2.68127,0.000237787,0.000843455,-0.00774989,0.00829642,-0.00721518,-0.804926,0.00896288,0.0113493,1413,1751,1.87575,-2.68126
196,-727,1.8595,2.66895,-0.000387993,0.00159386,-0.00786611,0.00853121,-0.00732535,-0.848055,0.00916361,0.012193,1420,1751,1.85944,-2.66899
203,-727,1.85913,2.65002,-0.000943611,0.00204194,-0.00747487,0.00817163,-0.00707331,-0.883954,0.00880928,0.014634,1427,1751,1.85909,-2.65002
210,-727,1.86206,2.65173,-0.00167032,0.00171911,-0.00647176,0.00671437,-0.00666558,-0.913454,0.00772494,0.0144683,1434,1751,1.862,-2.65177
217,-727,1.87378,2.64563,-0.00216734,0.00160817,-0.00501243,0.00507654,-0.00563571,-0.965491,0.00618753,0.0109728,1441,1751,1.8738,-2.6456
224,-727,1.87341,2.61658,-0.00190892,0.00150562,-0.00338107,0.00358602,-0.00398932,-1.0192,0.00437569,0.0119915,1448,1751,1.8734,-2.61661
231,-727,1.85107,2.60083,-0.00134945,0.000593137,-0.00290603,0.0026859,-0.00344221,-0.946678,0.00354704,0.00992834,1455,1751,1.85113,-2.60083
238,-727,1.8606,2.57495,0.000366275,0.000666859,-0.00162011,0.00214363,-0.0011105,-0.831649,0.00191008,0.0101148,1462,1751,1.86065,-2.57493
245,-727,1.86389,2.56396,0.00335457,0.000987254,0.000422418,0.00342769,0.000914137,0.171393,0.00204953,0.00989107,1469,1751,1.86389,-2.56402
252,-727,1.86218,2.54712,0.00654387,0.00125679,0.00204281,0.00724119,0.000559469,0.328953,0.0046522,0.0106151,1476,1751,1.86221,-2.54712
259,-727,1.89233,2.51709,0.00872662,0.00150356,0.00259641,0.00956307,0.00066711,0.311657,0.00616505,0.0129654,1483,1751,1.89237,-2.51712
266,-727,1.88635,2.53076,0.0117888,0.00233322,0.00284446,0.0125785,0.0015435,0.270815,0.00792146,0.0161315,1490,1751,1.88639,-2.53073
273,-727,1.85535,2.53796,0.0150541,0.00301649,0.00319322,0.0158487,0.00222187,0.243891,0.00990857,0.0237071,1497,1751,1.85538,-2.53797
280,-727,1.90637,2.47925,0.0173046,0.00356799,0.00330087,0.0180567,0.00281597,0.224001,0.0112176,0.0337189,1504,1751,1.90634,-2.47923
287,-727,2.12329,2.54236,0.019538,0.00429988,0.0032674,0.020209,0.00362883,0.202562,0.0124408,0.0384027,1511,1751,2.12333,-2.54231
294,-727,4.67004,3.2384,0,0,0,0,0,0,0,-1,1518,1751,4.67009,-3.23839
301,-727,1.78162,2.29028,0,0,0,0,0,0,0,-1,1525,1751,1.78159,-2.29029
308,-727,2.37146,2.04675,0,0,0,0,0,0,0,-1,1532,1751,2.37149,-2.04672
315,-727,2.47681,2.35669,0.0249434,0.00492664,0.00141006,0.0250422,0.00482779,0.0699836,0.0153409,0.0406988,1539,1751,2.47677,-2.3567
322,-727,2.56653,2.66309,0.0212538,0.00341381,0.00154682,0.0213869,0.00328069,0.0858514,0.0132999,0.0418931,1546,1751,2.56648,-2.66313
329,-727,2.51306,2.88916,0,0,0,0,0,0,0,-1,1553,1751,2.51301,-2.88912
336,-727,2.71814,1.67969,0,0,0,0,0,0,0,-1,1560,1751,2.71818,-1.67975
343,-727,2.85767,2.33716,0,0,0,0,0,0,0,-1,1567,1751,2.85763,-2.33717
350,-727,3.2605,2.44067,0,0,0,0,0,0,0,-1,1574,1751,3.26054,-2.4407
357,-727,1.46472,2.36169,0,0,0,0,0,0,0,-1,1581,1751,1.46468,-2.36175
364,-727,0.826538,2.39722,0,0,0,0,0,0,0,-1,1588,1751,0.826572,-2.39722
371,-727,0.224365,2.68481,-0.0225265,-0.00658938,0.0315669,0.0179991,-0.0471151,0.909033,0.0388263,0.0472252,1595,1751,0.224318,-2.68477
378,-727,-0.295532,2.86499,-0.031715,-0.00467833,0.0375117,0.0216766,-0.0580699,0.958342,0.047613,0.0492112,1602,1751,-0.295564,-2.86501
385,-727,-1.56079,2.06189,0,0,0,0,0,0,0,-1,1609,1751,-1.56077,-2.06186
392,-727,0,0,0,0,0,0,0,0,0,-1,1616,1751,0,0
399,-727,0,0,0,0,0,0,0,0,0,-1,1623,1751,0,0
406,-727,0,0,0,0,0,0,0,0,0,-1,1630,1751,0,0
413,-727,0,0,0,0,0,0,0,0,0,-1,1637,1751,0,0
420,-727,0,0,0,0,0,0,0,0,0,-1,1644,1751,0,0
427,-727,0,0,0,0,0,0,0,0,0,-1,1651,1751,0,0
434,-727,0,0,0,0,0,0,0,0,0,-1,1658,1751,0,0
441,-727,0,0,0,0,0,0,0,0,0,-1,1665,1751,0,0
448,-727,0,0,0,0,0,0,0,0,0,-1,1672,1751,0,0
455,-727,0,0,0,0,0,0,0,0,0,-1,1679,1751,0,0
462,-727,0,0,0,0,0,0,0,0,0,-1,1686,1751,0,0
469,-727,0,0,0,0,0,0,0,0,0,-1,1693,1751,0,0
476,-727,0,0,0,0,0,0,0,0,0,-1,1700,1751,0,0
483,-727,0,0,0,0,0,0,0,0,0,-1,1707,1751,0,0
490,-727,0,0,0,0,0,0,0,0,0,-1,1714,1751,0,0
497,-727,0,0,0,0,0,0,0,0,0,-1,1721,1751,0,0
504,-727,0,0,0,0,0,0,0,0,0,-1,1728,1751,0,0
511,-727,0,0,0,0,0,0,0,0,0,-1,1735,1751,0,0
518,-727,0,0,0,0,0,0,0,0,0,-1,1742,1751,0,0
525,-727,0,0,0,0,0,0,0,0,0,-1,1749,1751,0,0
532,-727,0,0,0,0,0,0,0,0,0,-1,1756,1751,0,0
539,-727,0,0,0,0,0,0,0,0,0,-1,1763,1751,0,0
546,-727,0,0,0,0,0,0,0,0,0,-1,1770,1751,0,0
553,-727,0,0,0,0,0,0,0,0,0,-1,1777,1751,0,0
560,-727,0,0,0,0,0,0,0,0,0,-1,1784,1751,0,0
567,-727,0,0,0,0,0,0,0,0,0,-1,1791,1751,0,0
574,-727,0,0,0,0,0,0,0,0,0,-1,1798,1751,0,0
581,-727,0,0,0,0,0,0,0,0,0,-1,1805,1751,0,0
588,-727,0,0,0,0,0,0,0,0,0,-1,1812,1751,0,0
595,-727,0,0,0,0,0,0,0,0,0,-1,1819,1751,0,0
602,-727,0,0,0,0,0,0,0,0,0,-1,1826,1751,0,0
609,-727,0,0,0,0,0,0,0,0,0,-1,1833,1751,0,0
616,-727,0,0,0,0,0,0,0,0,0,-1,1840,1751,0,0
623,-727,0,0,0,0,0,0,0,0,0,-1,1847,1751,0,0
630,-727,0,0,0,0,0,0,0,0,0,-1,1854,1751,0,0
637,-727,0,0,0,0,0,0,0,0,0,-1,1861,1751,0,0
644,-727,0,0,0,0,0,0,0,0,0,-1,1868,1751,0,0
651,-727,0,0,0,0,0,0,0,0,0,-1,1875,1751,0,0
658,-727,0,0,0,0,0,0,0,0,0,-1,1882,1751,0,0
665,-727,0,0,0,0,0,0,0,0,0,-1,1889,1751,0,0
672,-727,0,0,0,0,0,0,0,0,0,-1,1896,1751,0,0
679,-727,0,0,0,0,0,0,0,0,0,-1,1903,1751,0,0
686,-727,0,0,0,0,0,0,0,0,0,-1,1910,1751,0,0
693,-727,0,0,0,0,0,0,0,0,0,-1,1917,1751,0,0
700,-727,0,0,0,0,0,0,0,0,0,-1,1924,1751,0,0
707,-727,0,0,0,0,0,0,0,0,0,-1,1931,1751,0,0
714,-727,0,0,0,0,0,0,0,0,0,-1,1938,1751,0,0
721,-727,0,0,0,0,0,0,0,0,0,-1,1945,1751,0,0
728,-727,0,0,0,0,0,0,0,0,0,-1,1952,1751,0,0
735,-727,0,0,0,0,0,0,0,0,0,-1,1959,1751,0,0
742,-727,0,0,0,0,0,0,0,0,0,-1,1966,1751,0,0
749,-727,0,0,0,0,0,0,0,0,0,-1,1973,1751,0,0
756,-727,0,0,0,0,0,0,0,0,0,-1,1980,1751,0,0
763,-727,0,0,0,0,0,0,0,0,0,-1,1987,1751,0,0
770,-727,0,0,0,0,0,0,0,0,0,-1,1994,1751,0,0
777,-727,0,0,0,0,0,0,0,0,0,-1,2001,1751,0,0
784,-727,0,0,0,0,0,0,0,0,0,-1,2008,1751,0,0
791,-727,0,0,0,0,0,0,0,0,0,-1,2015,1751,0,0
798,-727,0,0,0,0,0,0,0,0,0,-1,2022,1751,0,0
805,-727,0,0,0,0,0,0,0,0,0,-1,2029,1751,0,0
812,-727,0,0,0,0,0,0,0,0,0,-1,2036,1751,0,0
-700,-734,0,0,0,0,0,0,0,0,0,-1,524,1758,0,0
-693,-734,0,0,0,0,0,0,0,0,0,-1,531,1758,0,0
-686,-734,0,0,0,0,0,0,0,0,0,-1,538,1758,0,0
-679,-734,0,0,0,0,0,0,0,0,0,-1,545,1758,0,0
-672,-734,0,0,0,0,0,0,0,0,0,-1,552,1758,0,0
-665,-734,0,0,0,0,0,0,0,0,0,-1,559,1758,0,0
-658,-734,0,0,0,0,0,0,0,0,0,-1,566,1758,0,0
-651,-734,0,0,0,0,0,0,0,0,0,-1,573,1758,0,0
-644,-734,0,0,0,0,0,0,0,0,0,-1,580,1758,0,0
-637,-734,0,0,0,0,0,0,0,0,0,-1,587,1758,0,0
-630,-734,0,0,0,0,0,0,0,0,0,-1,594,1758,0,0
-623,-734,0,0,0,0,0,0,0,0,0,-1,601,1758,0,0
-616,-734,0,0,0,0,0,0,0,0,0,-1,608,1758,0,0
-609,-734,0,0,0,0,0,0,0,0,0,-1,615,1758,0,0
-602,-734,0,0,0,0,0,0,0,0,0,-1,622,1758,0,0
-595,-734,0,0,0,0,0,0,0,0,0,-1,629,1758,0,0
-588,-734,0,0,0,0,0,0,0,0,0,-1,636,1758,0,0
-581,-734,0,0,0,0,0,0,0,0,0,-1,643,1758,0,0
-574,-734,0,0,0,0,0,0,0,0,0,-1,650,1758,0,0
-567,-734,0,0,0,0,0,0,0,0,0,-1,657,1758,0,0
-560,-734,0,0,0,0,0,0,0,0,0,-1,664,1758,0,0
-553,-734,0,0,0,0,0,0,0,0,0,-1,671,1758,0,0
-546,-734,0,0,0,0,0,0,0,0,0,-1,678,1758,0,0
-539,-734,0,0,0,0,0,0,0,0,0,-1,685,1758,0,0
-532,-734,0,0,0,0,0,0,0,0,0,-1,692,1758,0,0
-525,-734,0,0,0,0,0,0,0,0,0,-1,699,1758,0,0
-518,-734,0,0,0,0,0,0,0,0,0,-1,706,1758,0,0
-511,-734,0,0,0,0,0,0,0,0,0,-1,713,1758,0,0
-504,-734,0,0,0,0,0,0,0,0,0,-1,720,1758,0,0
-497,-734,0,0,0,0,0,0,0,0,0,-1,727,1758,0,0
-490,-734,0,0,0,0,0,0,0,0,0,-1,734,1758,0,0
-483,-734,0,0,0,0,0,0,0,0,0,-1,741,1758,0,0
-476,-734,0,0,0,0,0,0,0,0,0,-1,748,1758,0,0
-469,-734,0,0,0,0,0,0,0,0,0,-1,755,1758,0,0
-462,-734,0,0,0,0,0,0,0,0,0,-1,762,1758,0,0
-455,-734,0,0,0,0,0,0,0,0,0,-1,769,1758,0,0
-448,-734,0,0,0,0,0,0,0,0,0,-1,776,1758,0,0
-441,-734,0,0,0,0,0,0,0,0,0,-1,783,1758,0,0
-434,-734,0,0,0,0,0,0,0,0,0,-1,790,1758,0,0
-427,-734,0,0,0,0,0,0,0,0,0,-1,797,1758,0,0
-420,-734,0,0,0,0,0,0,0,0,0,-1,804,1758,0,0
-413,-734,0,0,0,0,0,0,0,0,0,-1,811,1758,0,0
-406,-734,0,0,0,0,0,0,0,0,0,-1,818,1758,0,0
-399,-734,0,0,0,0,0,0,0,0,0,-1,825,1758,0,0
-392,-734,0,0,0,0,0,0,0,0,0,-1,832,1758,0,0
-385,-734,0,0,0,0,0,0,0,0,0,-1,839,1758,0,0
-378,-734,0,0,0,0,0,0,0,0,0,-1,846,1758,0,0
-371,-734,0,0,0,0,0,0,0,0,0,-1,853,1758,0,0
-364,-734,0,0,0,0,0,0,0,0,0,-1,860,1758,0,0
-357,-734,0,0,0,0,0,0,0,0,0,-1,867,1758,0,0
-350,-734,0,0,0,0,0,0,0,0,0,-1,874,1758,0,0
-343,-734,0,0,0,0,0,0,0,0,0,-1,881,1758,0,0
-336,-734,0,0,0,0,0,0,0,0,0,-1,888,1758,0,0
-329,-734,0,0,0,0,0,0,0,0,0,-1,895,1758,0,0
-322,-734,0,0,0,0,0,0,0,0,0,-1,902,1758,0,0
-315,-734,0,0,0,0,0,0,0,0,0,-1,909,1758,0,0
-308,-734,0,0,0,0,0,0,0,0,0,-1,916,1758,0,0
-301,-734,0,0,0,0,0,0,0,0,0,-1,923,1758,0,0
-294,-734,0,0,0,0,0,0,0,0,0,-1,930,1758,0,0
-287,-734,0,0,0,0,0,0,0,0,0,-1,937,1758,0,0
-280,-734,0,0,0,0,0,0,0,0,0,-1,944,1758,0,0
-273,-734,0,0,0,0,0,0,0,0,0,-1,951,1758,0,0
-266,-734,0,0,0,0,0,0,0,0,0,-1,958,1758,0,0
-259,-734,0,0,0,0,0,0,0,0,0,-1,965,1758,0,0
-252,-734,4.5141,0.736206,0,0,0,0,0,0,0,-1,972,1758,4.51409,-0.736208
-245,-734,4.53094,0.899048,0,0,0,0,0,0,0,-1,979,1758,4.53094,-0.899017
-238,-734,4.60822,1.02197,0,0,0,0,0,0,0,-1,986,1758,4.60824,-1.02202
-231,-734,4.8205,1.09448,0,0,0,0,0,0,0,-1,993,1758,4.82052,-1.0945
-224,-734,3.89441,1.30615,0,0,0,0,0,0,0,-1,1000,1758,3.8944,-1.30618
-217,-734,-0.525269,3.36499,0,0,0,0,0,0,0,-1,1007,1758,-0.525265,-3.36503
-210,-734,-0.570374,3.10986,0.00399626,0.138825,-0.0256199,0.143529,-0.000707857,-1.38921,0.0959228,0.0452984,1014,1758,-0.570393,-3.10987
-203,-734,-0.0916748,2.8269,0.00876786,0.119856,-0.0163034,0.122199,0.00642459,-1.42804,0.0794115,0.0468238,1021,1758,-0.091702,-2.82691
-196,-734,1.15979,2.46167,0,0,0,0,0,0,0,-1,1028,1758,1.15978,-2.46163
-189,-734,1.0365,2.26282,0,0,0,0,0,0,0,-1,1035,1758,1.03648,-2.26282
-182,-734,2.32361,1.37036,0,0,0,0,0,0,0,-1,1042,1758,2.32356,-1.37036
-175,-734,2.60486,1.30029,0.0164297,0.0488055,0.00983423,0.0515585,0.0136766,1.29784,0.0308414,0.0480807,1049,1758,2.60482,-1.30023
-168,-734,2.99841,1.41467,0.0153905,0.0371288,0.0121753,0.0425807,0.00993858,1.14979,0.0257224,0.0463513,1056,1758,2.99838,-1.41468
-161,-734,1.77002,2.15344,0.0152713,0.0287299,0.012431,0.0361361,0.00786508,1.03348,0.021944,0.0437708,1063,1758,1.76997,-2.1535
-154,-734,2.12317,2.31396,0.0126246,0.0133064,0.0162978,0.0292669,-0.00333591,0.795854,0.0207129,0.0438897,1070,1758,2.12322,-2.31395
-147,-734,2.11597,2.03284,0.00861462,0.0117661,0.0135541,0.0238357,-0.00345502,0.843266,0.0171585,0.0413469,1077,1758,2.11591,-2.03285
-140,-734,1.92554,2.45752,0.00520003,0.0102714,0.0111837,0.0192033,-0.0037319,0.896877,0.0142105,0.0401775,1084,1758,1.92552,-2.45747
-133,-734,1.89954,2.53149,0.00357547,0.008738,0.00905257,0.0155701,-0.00325666,0.924283,0.0116188,0.0315384,1091,1758,1.8995,-2.53153
-126,-734,1.89941,2.54028,0.00220719,0.00661296,0.00715441,0.011896,-0.00307579,0.934745,0.00913026,0.0287544,1098,1758,1.89936,-2.54034
-119,-734,2.00623,2.52112,0.000574268,0.00425419,0.00547474,0.00818989,-0.00336142,0.94751,0.00686062,0.0312193,1105,1758,2.00629,-2.52116
-112,-734,1.9718,2.54211,-0.000559516,0.00217225,0.00359216,0.00464945,-0.00303671,0.967076,0.00447005,0.0244526,1112,1758,1.97182,-2.54217
-105,-734,1.89209,2.60364,-0.00170532,0.000334292,0.00250161,0.00201598,-0.00338701,0.978944,0.00315272,0.018508,1119,1758,1.89214,-2.60362
-98,-734,1.87317,2.63977,-0.00293683,-0.00137547,0.00205931,4.61687e-05,-0.00435847,0.966578,0.00292116,0.0144703,1126,1758,1.87315,-2.63978
-91,-734,1.89575,2.64844,-0.00357392,-0.00274585,0.00132433,-0.00177235,-0.00454743,0.936903,0.00264665,0.0140027,1133,1758,1.89575,-2.64844
-84,-734,1.89148,2.65723,-0.00423345,-0.00293404,0.000385247,-0.00282841,-0.00433908,1.30318,0.00254338,0.0112159,1140,1758,1.89152,-2.6572
-77,-734,1.87903,2.66809,-0.00462927,-0.00309334,-0.000619702,-0.00287449,-0.00484812,-1.23132,0.00281512,0.0107248,1147,1758,1.87905,-2.66805
-70,-734,1.87683,2.68225,-0.00490011,-0.00242089,-0.00205652,-0.00125927,-0.00606173,-1.05662,0.00369366,0.00921053,1154,1758,1.87687,-2.6823
-63,-734,1.86694,2.69507,-0.00501227,-0.00170045,-0.00318684,0.000235014,-0.00694773,-1.025,0.00471211,0.00968173,1161,1758,1.86689,-2.69512
-56,-734,1.84863,2.69043,-0.00435615,-0.000350246,-0.0040909,0.00220172,-0.00690811,-1.01305,0.00548854,0.010933,1168,1758,1.84859,-2.69043
-49,-734,1.87439,2.71118,-0.00334753,0.00127633,-0.00485873,0.00434513,-0.00641634,-1.00746,0.00625138,0.0110422,1175,1758,1.8744,-2.71121
-42,-734,1.86658,2.72974,-0.00214599,0.00328862,-0.0053086,0.00653495,-0.00539232,-1.02195,0.00689674,0.0120318,1182,1758,1.86655,-2.72973
-35,-734,1.84656,2.7229,-0.000727224,0.00498326,-0.00536636,0.00820669,-0.00395066,-1.02988,0.00716098,0.0123554,1189,1758,1.84661,-2.72285
-28,-734,1.87402,2.71973,0.000761198,0.00662608,-0.00449644,0.0090618,-0.00167453,-1.07435,0.00666982,0.00895561,1196,1758,1.87401,-2.71972
-21,-734,1.89099,2.72717,0.00239078,0.00939353,-0.00268098,0.0103021,0.00148225,-1.24406,0.00643116,0.0141093,1203,1758,1.89102,-2.72717
-14,-734,1.86609,2.75146,0.00398981,0.0106688,-0.000716684,0.0107448,0.00391377,-1.4651,0.00627929,0.0144456,1210,1758,1.86611,-2.75148
-7,-734,1.87219,2.76013,0.00557331,0.0123883,0.00169067,0.0127847,0.00517694,1.34051,0.00742557,0.0169721,1217,1758,1.87214,-2.76018
0,-734,1.86243,2.74854,0.00679726,0.0135732,0.00415069,0.0155431,0.00482738,1.12768,0.00918595,0.0168868,1224,1758,1.86248,-2.74858
7,-734,1.85791,2.75439,0.0074555,0.0138719,0.00655019,0.0179574,0.00337005,1.01312,0.0110213,0.0124007,1231,1758,1.85791,-2.75439
14,-734,1.86719,2.77612,0.00759577,0.0136847,0.00886808,0.0200164,0.00126413,0.950749,0.0129435,0.0126733,1238,1758,1.86722,-2.77615
21,-734,1.85632,2.78479,0.00762121,0.0129254,0.0103889,0.0209954,-0.000448803,0.910369,0.0141489,0.0112155,1245,1758,1.85631,-2.78474
28,-734,1.88049,2.78052,0.00737965,0.0122053,0.0110915,0.0211434,-0.00155839,0.8925,0.0146427,0.0111403,1252,1758,1.88046,-2.78055
35,-734,1.91479,2.77539,0.00703848,0.0109044,0.0113044,0.0204399,-0.00249705,0.870075,0.0145307,0.014056,1259,1758,1.91482,-2.77545
42,-734,1.90588,2.77173,0.00681549,0.00984335,0.0104688,0.0189071,-0.00224827,0.857207,0.0134171,0.0122456,1266,1758,1.90586,-2.77171
49,-734,1.87354,2.77161,0.0064929,0.00855011,0.00911359,0.016693,-0.00164994,0.841593,0.0117174,0.00989271,1273,1758,1.87353,-2.77166
56,-734,1.86414,2.77771,0.00634771,0.00733934,0.007461,0.014321,-0.00063393,0.818577,0.00976549,0.00850645,1280,1758,1.8641,-2.77769
63,-734,1.87305,2.77905,0.00618057,0.00616853,0.00579399,0.0119685,0.000380564,0.784879,0.00785525,0.0108392,1287,1758,1.87299,-2.77908
70,-734,1.84619,2.77747,0.00602385,0.00506448,0.00425224,0.00982338,0.00126495,0.729231,0.00617064,0.0126785,1294,1758,1.84618,-2.77743
77,-734,1.86572,2.79492,0.00576475,0.00401665,0.00254783,0.00758428,0.00219712,0.62016,0.00450605,0.0179283,1301,1758,1.86569,-2.79491
84,-734,1.87158,2.76733,0.00536598,0.00242771,0.00102357,0.00568739,0.0021063,0.304258,0.00332021,0.0166398,1308,1758,1.87162,-2.76736
91,-734,1.88696,2.74207,0.00489823,0.00164941,0.000180015,0.00490817,0.00163946,0.0551843,0.0028853,0.0178198,1315,1758,1.88698,-2.74208
98,-734,1.90161,2.76697,0.00445153,0.000688461,-0.000498671,0.00451649,0.0006235,-0.129539,0.00282618,0.012423,1322,1758,1.90162,-2.76692
105,-734,1.8938,2.78088,0.00398001,8.03835e-05,-0.000725449,0.00411059,-5.01995e-05,-0.178096,0.00275728,0.0130242,1329,1758,1.89379,-2.78087
112,-734,1.88257,2.76831,0.00355392,-0.000359314,-0.000881018,0.00374312,-0.000548517,-0.211542,0.00269691,0.0116436,1336,1758,1.88263,-2.76828
119,-734,1.86328,2.74048,0.00326875,-0.00107924,-0.00102687,0.00349907,-0.00130956,-0.220638,0.00287059,0.0125526,1343,1758,1.86334,-2.74044
126,-734,1.88232,2.72791,0.00298161,-0.00177814,-0.000952832,0.00316526,-0.0019618,-0.190413,0.00298717,0.0146201,1350,1758,1.88236,-2.72795
133,-734,1.88232,2.72278,0.00294205,-0.00229026,-0.00104576,0.00314332,-0.00249153,-0.190137,0.00326053,0.0133073,1357,1758,1.88227,-2.72272
140,-734,1.87878,2.75256,0.00303245,-0.00267407,-0.00175509,0.00352903,-0.00317065,-0.275731,0.00386991,0.0182751,1364,1758,1.87874,-2.7526
147,-734,1.87524,2.73767,0.00318671,-0.00311313,-0.00281512,0.00426134,-0.00418777,-0.364665,0.00487816,0.013735,1371,1758,1.87522,-2.73763
154,-734,1.86987,2.73767,0.00337629,-0.00309482,-0.00446715,0.00565655,-0.00537508,-0.471973,0.0063698,0.00931327,1378,1758,1.86992,-2.73772
161,-734,1.87732,2.71582,0.00303649,-0.00306395,-0.00607803,0.00678673,-0.00681419,-0.552837,0.0078525,0.00874687,1385,1758,1.87737,-2.71583
168,-734,1.8645,2.71155,0.00245486,-0.00247849,-0.00760114,0.00797954,-0.00800318,-0.628502,0.00922763,0.0142967,1392,1758,1.86448,-2.71155
175,-734,1.88599,2.71167,0.00214281,-0.00167028,-0.00924951,0.00968022,-0.00920769,-0.68376,0.0109061,0.0164198,1399,1758,1.88593,-2.71162
182,-734,1.89954,2.68591,0.00166594,-0.000826588,-0.0102631,0.0107582,-0.00991886,-0.724978,0.0119412,0.0140601,1406,1758,1.89956,-2.68589
189,-734,1.86096,2.6665,0.000986421,0.000151395,-0.010882,0.0114589,-0.0103211,-0.766224,0.0125804,0.0103659,1413,1758,1.86098,-2.66646
196,-734,1.85083,2.66101,0.000338842,0.00141948,-0.011076,0.0119683,-0.01021,-0.80977,0.0128181,0.0105442,1420,1758,1.85085,-2.66103
203,-734,1.85571,2.66882,-0.000352543,0.00212775,-0.0104928,0.0114535,-0.00967825,-0.84422,0.0122147,0.0109473,1427,1758,1.8557,-2.66876
210,-734,1.86719,2.65771,-0.00133364,0.00176516,-0.00912342,0.00946981,-0.00903829,-0.869509,0.0106866,0.0121137,1434,1758,1.86725,-2.6577
217,-734,1.85608,2.63257,-0.00206005,0.00169371,-0.00718743,0.00724527,-0.00761161,-0.913113,0.0085785,0.0102102,1441,1758,1.85605,-2.63259
224,-734,1.83862,2.61206,-0.0018846,0.00164675,-0.00501522,0.00519803,-0.00543588,-0.954654,0.00614,0.0113428,1448,1758,1.83858,-2.61206
231,-734,1.82947,2.60986,-0.00151654,0.000302756,-0.00446221,0.0039471,-0.00516088,-0.885948,0.00527403,0.0124471,1455,1758,1.8295,-2.6099
238,-734,1.84216,2.5885,0.000352555,0.000306095,-0.00271506,0.00304448,-0.00238583,-0.78112,0.00314287,0.0147186,1462,1758,1.84215,-2.58844
245,-734,1.83215,2.54602,0.00391832,0.000505911,-1.35088e-06,0.00391832,0.000505911,-0.000395873,0.00246097,0.0204136,1469,1758,1.83212,-2.54597
252,-734,1.82935,2.4967,0.00782036,0.000663141,0.00217589,0.00842994,5.35594e-05,0.27315,0.0056022,0.0264408,1476,1758,1.82937,-2.49673
259,-734,1.7981,2.51282,0.0104276,0.00074513,0.00309966,0.0113349,-0.000162154,0.28475,0.00761122,0.032796,1483,1758,1.79811,-2.5128
266,-734,1.36462,2.53857,0.0142452,0.00169142,0.00344841,0.0151301,0.000806553,0.251183,0.00982893,0.0364403,1490,1758,1.3646,-2.53852
273,-734,1.7334,2.46619,0.0183972,0.00258925,0.00396866,0.0193376,0.00164884,0.232667,0.0123788,0.0419961,1497,1758,1.73344,-2.46616
280,-734,2.31873,2.49927,0.0212916,0.00345711,0.00424746,0.0222515,0.0024972,0.222262,0.014076,0.0467068,1504,1758,2.31876,-2.49931
287,-734,2.97363,2.46948,0.0241271,0.0045809,0.00434926,0.0250512,0.00365683,0.209354,0.0156251,0.0473272,1511,1758,2.9736,-2.46951
294,-734,3.87378,2.74939,0.026852,0.00556913,0.00437214,0.0277151,0.00470597,0.194917,0.017125,0.0455801,1518,1758,3.87379,-2.74939
301,-734,4.96033,2.96753,0,0,0,0,0,0,0,-1,1525,1758,4.96038,-2.96756
308,-734,2.02649,1.79822,0.0300946,0.00644069,0.00393574,0.0307323,0.00580302,0.160625,0.0188539,0.0459276,1532,1758,2.02644,-1.79817
315,-734,2.19507,2.21399,0.0308428,0.00667978,0.00324057,0.0312698,0.00625272,0.131029,0.0191064,0.0439071,1539,1758,2.19501,-2.21401
322,-734,2.59973,2.81616,0.0263491,0.00493386,0.00371114,0.0269739,0.00430897,0.166817,0.0167323,0.0439779,1546,1758,2.5997,-2.81614
329,-734,2.72803,3.14514,0.0197745,0.00184863,0.00471281,0.020938,0.000685126,0.242041,0.013736,0.0424479,1553,1758,2.72806,-3.14514
336,-734,2.83118,3.46204,0,0,0,0,0,0,0,-1,1560,1758,2.83112,-3.46198
343,-734,3.39612,3.0542,0,0,0,0,0,0,0,-1,1567,1758,3.39613,-3.0542
350,-734,3.40564,2.62793,0,0,0,0,0,0,0,-1,1574,1758,3.40563,-2.62794
357,-734,4.54797,2.40771,0,0,0,0,0,0,0,-1,1581,1758,4.54792,-2.40771
364,-734,0.310791,2.4176,0,0,0,0,0,0,0,-1,1588,1758,0.310763,-2.41765
371,-734,-0.161743,2.60999,0,0,0,0,0,0,0,-1,1595,1758,-0.161684,-2.60999
378,-734,0,0,0,0,0,0,0,0,0,-1,1602,1758,0,0
385,-734,0,0,0,0,0,0,0,0,0,-1,1609,1758,0,0
392,-734,0,0,0,0,0,0,0,0,0,-1,1616,1758,0,0
399,-734,0,0,0,0,0,0,0,0,0,-1,1623,1758,0,0
406,-734,0,0,0,0,0,0,0,0,0,-1,1630,1758,0,0
413,-734,0,0,0,0,0,0,0,0,0,-1,1637,1758,0,0
420,-734,0,0,0,0,0,0,0,0,0,-1,1644,1758,0,0
427,-734,0,0,0,0,0,0,0,0,0,-1,1651,1758,0,0
434,-734,0,0,0,0,0,0,0,0,0,-1,1658,1758,0,0
441,-734,0,0,0,0,0,0,0,0,0,-1,1665,1758,0,0
448,-734,0,0,0,0,0,0,0,0,0,-1,1672,1758,0,0
455,-734,0,0,0,0,0,0,0,0,0,-1,1679,1758,0,0
462,-734,0,0,0,0,0,0,0,0,0,-1,1686,1758,0,0
469,-734,0,0,0,0,0,0,0,0,0,-1,1693,1758,0,0
476,-734,0,0,0,0,0,0,0,0,0,-1,1700,1758,0,0
483,-734,0,0,0,0,0,0,0,0,0,-1,1707,1758,0,0
490,-734,0,0,0,0,0,0,0,0,0,-1,1714,1758,0,0
497,-734,0,0,0,0,0,0,0,0,0,-1,1721,1758,0,0
504,-734,0,0,0,0,0,0,0,0,0,-1,1728,1758,0,0
511,-734,0,0,0,0,0,0,0,0,0,-1,1735,1758,0,0
518,-734,0,0,0,0,0,0,0,0,0,-1,1742,1758,0,0
525,-734,0,0,0,0,0,0,0,0,0,-1,1749,1758,0,0
532,-734,0,0,0,0,0,0,0,0,0,-1,1756,1758,0,0
539,-734,0,0,0,0,0,0,0,0,0,-1,1763,1758,0,0
546,-734,0,0,0,0,0,0,0,0,0,-1,1770,1758,0,0
553,-734,0,0,0,0,0,0,0,0,0,-1,1777,1758,0,0
560,-734,0,0,0,0,0,0,0,0,0,-1,1784,1758,0,0
567,-734,0,0,0,0,0,0,0,0,0,-1,1791,1758,0,0
574,-734,0,0,0,0,0,0,0,0,0,-1,1798,1758,0,0
581,-734,0,0,0,0,0,0,0,0,0,-1,1805,1758,0,0
588,-734,0,0,0,0,0,0,0,0,0,-1,1812,1758,0,0
595,-734,0,0,0,0,0,0,0,0,0,-1,1819,1758,0,0
602,-734,0,0,0,0,0,0,0,0,0,-1,1826,1758,0,0
609,-734,0,0,0,0,0,0,0,0,0,-1,1833,1758,0,0
616,-734,0,0,0,0,0,0,0,0,0,-1,1840,1758,0,0
623,-734,0,0,0,0,0,0,0,0,0,-1,1847,1758,0,0
630,-734,0,0,0,0,0,0,0,0,0,-1,1854,1758,0,0
637,-734,0,0,0,0,0,0,0,0,0,-1,1861,1758,0,0
644,-734,0,0,0,0,0,0,0,0,0,-1,1868,1758,0,0
651,-734,0,0,0,0,0,0,0,0,0,-1,1875,1758,0,0
658,-734,0,0,0,0,0,0,0,0,0,-1,1882,1758,0,0
665,-734,0,0,0,0,0,0,0,0,0,-1,1889,1758,0,0
672,-734,0,0,0,0,0,0,0,0,0,-1,1896,1758,0,0
679,-734,0,0,0,0,0,0,0,0,0,-1,1903,1758,0,0
686,-734,0,0,0,0,0,0,0,0,0,-1,1910,1758,0,0
693,-734,0,0,0,0,0,0,0,0,0,-1,1917,1758,0,0
700,-734,0,0,0,0,0,0,0,0,0,-1,1924,1758,0,0
707,-734,0,0,0,0,0,0,0,0,0,-1,1931,1758,0,0
714,-734,0,0,0,0,0,0,0,0,0,-1,1938,1758,0,0
721,-734,0,0,0,0,0,0,0,0,0,-1,1945,1758,0,0
728,-734,0,0,0,0,0,0,0,0,0,-1,1952,1758,0,0
735,-734,0,0,0,0,0,0,0,0,0,-1,1959,1758,0,0
742,-734,0,0,0,0,0,0,0,0,0,-1,1966,1758,0,0
749,-734,0,0,0,0,0,0,0,0,0,-1,1973,1758,0,0
756,-734,0,0,0,0,0,0,0,0,0,-1,1980,1758,0,0
763,-734,0,0,0,0,0,0,0,0,0,-1,1987,1758,0,0
770,-734,0,0,0,0,0,0,0,0,0,-1,1994,1758,0,0
777,-734,0,0,0,0,0,0,0,0,0,-1,2001,1758,0,0
784,-734,0,0,0,0,0,0,0,0,0,-1,2008,1758,0,0
791,-734,0,0,0,0,0,0,0,0,0,-1,2015,1758,0,0
798,-734,0,0,0,0,0,0,0,0,0,-1,2022,1758,0,0
805,-734,0,0,0,0,0,0,0,0,0,-1,2029,1758,0,0
812,-734,0,0,0,0,0,0,0,0,0,-1,2036,1758,0,0
-700,-741,0,0,0,0,0,0,0,0,0,-1,524,1765,0,0
-693,-741,0,0,0,0,0,0,0,0,0,-1,531,1765,0,0
-686,-741,0,0,0,0,0,0,0,0,0,-1,538,1765,0,0
-679,-741,0,0,0,0,0,0,0,0,0,-1,545,1765,0,0
-672,-741,0,0,0,0,0,0,0,0,0,-1,552,1765,0,0
-665,-741,0,0,0,0,0,0,0,0,0,-1,559,1765,0,0
-658,-741,0,0,0,0,0,0,0,0,0,-1,566,1765,0,0
-651,-741,0,0,0,0,0,0,0,0,0,-1,573,1765,0,0
-644,-741,0,0,0,0,0,0,0,0,0,-1,580,1765,0,0
-637,-741,0,0,0,0,0,0,0,0,0,-1,587,1765,0,0
-630,-741,0,0,0,0,0,0,0,0,0,-1,594,1765,0,0
-623,-741,0,0,0,0,0,0,0,0,0,-1,601,1765,0,0
-616,-741,0,0,0,0,0,0,0,0,0,-1,608,1765,0,0
-609,-741,0,0,0,0,0,0,0,0,0,-1,615,1765,0,0
-602,-741,0,0,0,0,0,0,0,0,0,-1,622,1765,0,0
-595,-741,0,0,0,0,0,0,0,0,0,-1,629,1765,0,0
-588,-741,0,0,0,0,0,0,0,0,0,-1,636,1765,0,0
-581,-741,0,0,0,0,0,0,0,0,0,-1,643,1765,0,0
-574,-741,0,0,0,0,0,0,0,0,0,-1,650,1765,0,0
-567,-741,0,0,0,0,0,0,0,0,0,-1,657,1765,0,0
-560,-741,0,0,0,0,0,0,0,0,0,-1,664,1765,0,0
-553,-741,0,0,0,0,0,0,0,0,0,-1,671,1765,0,0
-546,-741,0,0,0,0,0,0,0,0,0,-1,678,1765,0,0
-539,-741,0,0,0,0,0,0,0,0,0,-1,685,1765,0,0
-532,-741,0,0,0,0,0,0,0,0,0,-1,692,1765,0,0
-525,-741,0,0,0,0,0,0,0,0,0,-1,699,1765,0,0
-518,-741,0,0,0,0,0,0,0,0,0,-1,706,1765,0,0
-511,-741,0,0,0,0,0,0,0,0,0,-1,713,1765,0,0
-504,-741,0,0,0,0,0,0,0,0,0,-1,720,1765,0,0
-497,-741,0,0,0,0,0,0,0,0,0,-1,727,1765,0,0
-490,-741,0,0,0,0,0,0,0,0,0,-1,734,1765,0,0
-483,-741,0,0,0,0,0,0,0,0,0,-1,741,1765,0,0
-476,-741,0,0,0,0,0,0,0,0,0,-1,748,1765,0,0
-469,-741,0,0,0,0,0,0,0,0,0,-1,755,1765,0,0
-462,-741,0,0,0,0,0,0,0,0,0,-1,762,1765,0,0
-455,-741,0,0,0,0,0,0,0,0,0,-1,769,1765,0,0
-448,-741,0,0,0,0,0,0,0,0,0,-1,776,1765,0,0
-441,-741,0,0,0,0,0,0,0,0,0,-1,783,1765,0,0
-434,-741,0,0,0,0,0,0,0,0,0,-1,790,1765,0,0
-427,-741,0,0,0,0,0,0,0,0,0,-1,797,1765,0,0
-420,-741,0,0,0,0,0,0,0,0,0,-1,804,1765,0,0
-413,-741,0,0,0,0,0,0,0,0,0,-1,811,1765,0,0
-406,-741,0,0,0,0,0,0,0,0,0,-1,818,1765,0,0
-399,-741,0,0,0,0,0,0,0,0,0,-1,825,1765,0,0
-392,-741,0,0,0,0,0,0,0,0,0,-1,832,1765,0,0
-385,-741,0,0,0,0,0,0,0,0,0,-1,839,1765,0,0
-378,-741,0,0,0,0,0,0,0,0,0,-1,846,1765,0,0
-371,-741,0,0,0,0,0,0,0,0,0,-1,853,1765,0,0
-364,-741,0,0,0,0,0,0,0,0,0,-1,860,1765,0,0
-357,-741,0,0,0,0,0,0,0,0,0,-1,867,1765,0,0
-350,-741,0,0,0,0,0,0,0,0,0,-1,874,1765,0,0
-343,-741,0,0,0,0,0,0,0,0,0,-1,881,1765,0,0
-336,-741,0,0,0,0,0,0,0,0,0,-1,888,1765,0,0
-329,-741,0,0,0,0,0,0,0,0,0,-1,895,1765,0,0
-322,-741,0,0,0,0,0,0,0,0,0,-1,902,1765,0,0
-315,-741,0,0,0,0,0,0,0,0,0,-1,909,1765,0,0
-308,-741,0,0,0,0,0,0,0,0,0,-1,916,1765,0,0
-301,-741,0,0,0,0,0,0,0,0,0,-1,923,1765,0,0
-294,-741,0,0,0,0,0,0,0,0,0,-1,930,1765,0,0
-287,-741,0,0,0,0,0,0,0,0,0,-1,937,1765,0,0
-280,-741,0,0,0,0,0,0,0,0,0,-1,944,1765,0,0
-273,-741,0,0,0,0,0,0,0,0,0,-1,951,1765,0,0
-266,-741,0,0,0,0,0,0,0,0,0,-1,958,1765,0,0
-259,-741,0,0,0,0,0,0,0,0,0,-1,965,1765,0,0
-252,-741,0,0,0,0,0,0,0,0,0,-1,972,1765,0,0
-245,-741,0,0,0,0,0,0,0,0,0,-1,979,1765,0,0
-238,-741,5.34973,0.352051,0,0,0,0,0,0,0,-1,986,1765,5.34975,-0.352093
-231,-741,5.71906,0.380981,0,0,0,0,0,0,0,-1,993,1765,5.71908,-0.380937
-224,-741,6.04517,0.3479,0,0,0,0,0,0,0,-1,1000,1765,6.04517,-0.347843
-217,-741,6.51465,0.517456,-0.00590499,0.214463,-0.0507064,0.22557,-0.0170126,-1.35515,0.15636,0.041364,1007,1765,6.51462,-0.517407
-210,-741,-1.3916,3.03552,0.00139476,0.187992,-0.0375827,0.195277,-0.00589037,-1.37933,0.132192,0.0455569,1014,1765,-1.39161,-3.03557
-203,-741,-1.0545,2.66235,0.00875271,0.160097,-0.0245844,0.163991,0.00485939,-1.41373,0.107744,0.0472836,1021,1765,-1.05451,-2.66234
-196,-741,-0.00476074,2.33716,0.014839,0.131,-0.0124246,0.132314,0.0135249,-1.46542,0.0840643,0.0473521,1028,1765,-0.0047,-2.33721
-189,-741,0.724121,2.25964,0,0,0,0,0,0,0,-1,1035,1765,0.72407,-2.25969
-182,-741,1.41858,2.00879,0,0,0,0,0,0,0,-1,1042,1765,1.41864,-2.00878
-175,-741,2.97058,1.14294,0,0,0,0,0,0,0,-1,1049,1765,2.97062,-1.14293
-168,-741,1.09558,2.14075,0.0201862,0.045844,0.0161236,0.0536197,0.0124105,1.12144,0.0324116,0.043902,1056,1765,1.09564,-2.14079
-161,-741,1.27002,2.22974,0.0200834,0.034927,0.0167429,0.0458194,0.00919103,0.994023,0.0279902,0.0433573,1063,1765,1.27001,-2.22975
-154,-741,1.6759,2.19043,0.0170583,0.015209,0.0221606,0.0383136,-0.00604623,0.764547,0.027778,0.0429333,1070,1765,1.67592,-2.1904
-147,-741,2.29993,1.60437,0,0,0,0,0,0,0,-1,1077,1765,2.29997,-1.60437
-140,-741,1.94971,2.37427,0.00786465,0.0114829,0.0155134,0.0252924,-0.00594479,0.843445,0.0191532,0.0495221,1084,1765,1.94968,-2.37431
-133,-741,2.23914,2.47351,0.00558336,0.00986135,0.0126067,0.0205092,-0.0050645,0.869434,0.0156368,0.0430272,1091,1765,2.23917,-2.47349
-126,-741,1.95508,2.55884,0.0035138,0.00738484,0.00997084,0.0156063,-0.00470764,0.881265,0.012278,0.0418046,1098,1765,1.95511,-2.55887
-119,-741,2.12549,2.45056,0.00128526,0.00475493,0.00763098,0.0108458,-0.0048056,0.897169,0.00925792,0.043016,1105,1765,2.12546,-2.45051
-112,-741,2.08459,2.39124,-0.000440069,0.00237265,0.00505592,0.00621417,-0.00428158,0.92105,0.00609387,0.0387699,1112,1765,2.08464,-2.39129
-105,-741,2.02942,2.46899,-0.0021392,0.000171048,0.00349804,0.00269975,-0.0046679,0.944871,0.00430401,0.0320083,1119,1765,2.02939,-2.46896
-98,-741,1.90918,2.63745,-0.00378671,-0.00183654,0.00256189,-7.04434e-05,-0.0055528,0.967239,0.00367861,0.0261822,1126,1765,1.90917,-2.63742
-91,-741,1.86755,2.6554,-0.0047481,-0.00335678,0.0011916,-0.00267263,-0.00543224,1.04961,0.00313644,0.0279415,1133,1765,1.86755,-2.65534
-84,-741,1.86267,2.69983,-0.00565574,-0.00339275,-0.000441398,-0.0033097,-0.00573878,-1.38482,0.00332627,0.0293081,1140,1765,1.86271,-2.69982
-77,-741,1.86633,2.68982,-0.00616767,-0.00321288,-0.00223919,-0.00200762,-0.00737293,-1.07701,0.00440145,0.0271445,1147,1765,1.86639,-2.68985
-70,-741,1.72681,2.71936,-0.006455,-0.00188269,-0.00461501,0.000981383,-0.00931907,-1.01537,0.00656434,0.0270752,1154,1765,1.72685,-2.71933
-63,-741,1.72034,2.71985,-0.00657341,-0.000556427,-0.00653369,0.00362815,-0.010758,-1.00116,0.00863917,0.0259674,1161,1765,1.7204,-2.71979
-56,-741,1.76245,2.68042,-0.00544375,0.00176753,-0.00794326,0.0068852,-0.0105614,-0.998454,0.0101471,0.023168,1168,1765,1.76246,-2.68043
-49,-741,1.81128,2.68079,-0.00375841,0.00440618,-0.00897286,0.0101817,-0.00953398,-0.998884,0.0113849,0.0176546,1175,1765,1.81134,-2.68079
-42,-741,1.85938,2.70276,-0.00170451,0.00759018,-0.00943747,0.0134625,-0.00757685,-1.01419,0.0123045,0.0135811,1182,1765,1.85939,-2.70277
-35,-741,1.89014,2.73132,0.000718112,0.0103987,-0.00922625,0.0159772,-0.00486044,-1.02697,0.0125884,0.00832399,1189,1765,1.89016,-2.73133
-28,-741,1.90369,2.72656,0.00331413,0.0130761,-0.0076355,0.0172574,-0.000867153,-1.06979,0.0118046,0.0111331,1196,1765,1.90364,-2.72658
-21,-741,1.90271,2.74426,0.00598356,0.0170899,-0.00473123,0.0188321,0.00424137,-1.21797,0.0114069,0.0164408,1203,1765,1.90275,-2.74423
-14,-741,1.87317,2.75049,0.00849821,0.0190438,-0.0015415,0.0192645,0.0082775,-1.42858,0.011159,0.0165205,1210,1765,1.87315,-2.75045
-7,-741,1.86401,2.74585,0.0108943,0.021306,0.00230685,0.0217943,0.0104061,1.36223,0.0125872,0.0152511,1217,1765,1.86398,-2.7458
0,-741,1.849,2.75183,0.0127505,0.0229696,0.00614989,0.0258556,0.0098645,1.13203,0.0150668,0.0155617,1224,1765,1.84904,-2.75179
7,-741,1.85535,2.77795,0.0138077,0.0233462,0.0099658,0.0296251,0.0075287,1.00857,0.01778,0.0163899,1231,1765,1.85529,-2.77801
14,-741,1.86267,2.79651,0.0141516,0.022891,0.0137206,0.0329209,0.00412168,0.939559,0.0207105,0.0151729,1238,1765,1.86264,-2.79656
21,-741,1.85962,2.78943,0.0143317,0.0215935,0.0161541,0.0345197,0.00140549,0.895944,0.0225592,0.0122838,1245,1765,1.85963,-2.78946
28,-741,1.8595,2.78198,0.0140268,0.0200269,0.0172177,0.034504,-0.000450261,0.871653,0.0231542,0.0127441,1252,1765,1.85948,-2.78199
35,-741,1.88879,2.77295,0.0134179,0.0176041,0.0175509,0.0331863,-0.00216432,0.844747,0.0228798,0.0144639,1259,1765,1.88879,-2.77294
42,-741,1.88818,2.77405,0.0129241,0.0155348,0.0160847,0.0303671,-0.00190818,0.825888,0.0209098,0.0146525,1266,1765,1.88813,-2.77406
49,-741,1.87708,2.78357,0.0123229,0.0131767,0.0139172,0.0266736,-0.00117396,0.800729,0.0181863,0.00938718,1273,1765,1.87704,-2.78353
56,-741,1.86951,2.78015,0.0120286,0.0110754,0.0113371,0.0228991,0.000204826,0.764392,0.0151983,0.00894452,1280,1765,1.86945,-2.7802
63,-741,1.86353,2.76978,0.0117543,0.00913755,0.0087001,0.0192438,0.00164797,0.710766,0.0123167,0.0129105,1287,1765,1.86356,-2.7698
70,-741,1.84875,2.79321,0.0114785,0.00757429,0.00616469,0.0159928,0.00306002,0.632063,0.00980237,0.0163523,1294,1765,1.84872,-2.79323
77,-741,1.84717,2.82544,0.0110281,0.00623205,0.00350789,0.0128793,0.00438085,0.485581,0.00756145,0.014529,1301,1765,1.84722,-2.82545
84,-741,1.84668,2.80127,0.0103642,0.00451446,0.00130037,0.0106402,0.00423842,0.209174,0.00618532,0.0160483,1308,1765,1.8467,-2.80126
91,-741,1.85632,2.78516,0.00947655,0.00412385,0.000151543,0.00948083,0.00411957,0.0282813,0.00548939,0.0130549,1315,1765,1.85633,-2.78514
98,-741,1.87585,2.77014,0.00855742,0.00343942,-0.00089596,0.00870973,0.0032871,-0.168391,0.0050787,0.0102166,1322,1765,1.87588,-2.77016
105,-741,1.88293,2.755,0.00757258,0.00311553,-0.00117961,0.00786552,0.00282259,-0.243415,0.00460108,0.0102252,1329,1765,1.88294,-2.75495
112,-741,1.88525,2.74683,0.00664544,0.00309782,-0.00121319,0.00702063,0.00272262,-0.299935,0.00408724,0.0100805,1336,1765,1.8853,-2.74686
119,-741,1.86597,2.72815,0.00580999,0.00255914,-0.00128189,0.00625465,0.00211448,-0.333891,0.00367371,0.0126965,1343,1765,1.86602,-2.72817
126,-741,1.87366,2.7002,0.00493997,0.00186486,-0.000918587,0.00519347,0.00161136,-0.269265,0.00306957,0.0182958,1350,1765,1.87363,-2.70018
133,-741,1.88049,2.69702,0.00451149,0.00128087,-0.000688117,0.00465195,0.00114041,-0.201357,0.00279969,0.0138125,1357,1765,1.88046,-2.69703
140,-741,1.85376,2.71606,0.00443962,0.000652005,-0.00146477,0.00493998,0.000151643,-0.329171,0.00324396,0.0104021,1364,1765,1.85377,-2.71605
147,-741,1.85645,2.7323,0.00451126,-0.000247831,-0.00272414,0.00574878,-0.00148535,-0.426407,0.00441179,0.00963116,1371,1765,1.85644,-2.73231
154,-741,1.86792,2.74219,0.00462771,-0.000658611,-0.00477026,0.00743814,-0.00346904,-0.532409,0.00643475,0.00787037,1378,1765,1.86796,-2.74224
161,-741,1.87732,2.72485,0.00412482,-0.00112162,-0.00677835,0.00876985,-0.00576664,-0.600774,0.00845214,0.00950197,1385,1765,1.87735,-2.72486
168,-741,1.8595,2.72339,0.00343402,-0.000956605,-0.0087866,0.0102954,-0.00781799,-0.66298,0.0104903,0.0158346,1392,1765,1.85947,-2.72344
175,-741,1.8833,2.69202,0.00308796,-0.00049943,-0.0109028,0.0123437,-0.00975514,-0.70387,0.0127879,0.0193232,1399,1765,1.8833,-2.69204
182,-741,1.91345,2.64063,0.00256192,0.000107391,-0.0122484,0.0136444,-0.0109751,-0.735466,0.0142419,0.0174767,1406,1765,1.9134,-2.6406
189,-741,1.95776,2.61707,0.00182197,0.000830465,-0.0133262,0.0146616,-0.0120092,-0.766806,0.0154238,0.0193688,1413,1765,1.95771,-2.6171
196,-741,1.8678,2.65039,0.00112826,0.00201435,-0.0138915,0.0154699,-0.0123272,-0.801339,0.0160828,0.018636,1420,1765,1.86778,-2.6504
203,-741,1.85352,2.67004,0.000283339,0.0029187,-0.0131487,0.0148156,-0.0116135,-0.835338,0.0152961,0.0157749,1427,1765,1.85348,-2.67003
210,-741,1.80896,2.64136,-0.000931902,0.0023424,-0.0114169,0.0122389,-0.0108284,-0.856611,0.0133262,0.0184607,1434,1765,1.80897,-2.64136
217,-741,1.8114,2.62073,-0.00186148,0.00217258,-0.00901601,0.00939442,-0.00908333,-0.895444,0.0106686,0.0186841,1441,1765,1.81136,-2.62069
224,-741,1.81372,2.61292,-0.00174581,0.00202648,-0.00630705,0.00672337,-0.0064427,-0.930692,0.00760201,0.0230749,1448,1765,1.81373,-2.61297
231,-741,1.82288,2.59302,-0.00170518,-8.93655e-05,-0.00589136,0.00504922,-0.00684377,-0.85354,0.00689243,0.0291449,1455,1765,1.82288,-2.593
238,-741,1.79993,2.55957,0.000178295,-0.000387559,-0.00377288,0.00367884,-0.0038881,-0.747973,0.00436933,0.0333858,1462,1765,1.79995,-2.55953
245,-741,1.79932,2.51538,0.00420609,-0.000512941,-0.000423428,0.00424378,-0.000550633,-0.0887827,0.00302946,0.0385591,1469,1765,1.79936,-2.51535
252,-741,1.89136,2.43982,0.00875351,-0.00059301,0.00231346,0.00929479,-0.00113429,0.229836,0.00660716,0.0432019,1476,1765,1.89132,-2.43983
259,-741,1.61768,2.7229,0.011708,-0.000833065,0.00367635,0.0127062,-0.00183131,0.265139,0.0091426,0.0427237,1483,1765,1.61764,-2.72287
266,-741,0.781006,2.61731,0.0163082,0.000178233,0.00406167,0.0172732,-0.000786797,0.233269,0.0117865,0.0438216,1490,1765,0.781044,-2.61733
273,-741,1.3512,2.38599,0.0214068,0.00130737,0.00471444,0.0224577,0.000256509,0.219317,0.014887,0.0486138,1497,1765,1.35117,-2.38605
280,-741,1.87817,2.31213,0.0250129,0.00258076,0.00517729,0.0261502,0.00144352,0.216227,0.0169727,0.0491128,1504,1765,1.87815,-2.31213
287,-741,2.45996,2.099,0.0285244,0.00420526,0.00544978,0.0296898,0.00303984,0.210673,0.0188617,0.0474302,1511,1765,2.4599,-2.09899
294,-741,3.07178,2.23462,0.0318584,0.00574932,0.0057826,0.0330818,0.00452593,0.208491,0.0207114,0.0467678,1518,1765,3.07174,-2.23458
301,-741,3.76453,2.32605,0,0,0,0,0,0,0,-1,1525,1765,3.76454,-2.32611
308,-741,4.86121,2.47583,0.0361127,0.00774256,0.00606316,0.0373542,0.00650109,0.201965,0.0230435,0.0451102,1532,1765,4.86118,-2.47589
315,-741,2.06921,2.00684,0.0369664,0.00857642,0.00563599,0.0380443,0.00749849,0.188976,0.0232697,0.0463248,1539,1765,2.06924,-2.00679
322,-741,2.48767,2.77209,0.0316396,0.00660488,0.00664389,0.0332935,0.00495094,0.243981,0.0207433,0.0481313,1546,1765,2.48762,-2.77206
329,-741,2.80103,3.17224,0.023889,0.00304949,0.00813853,0.0266907,0.00024779,0.331545,0.0177118,0.0442008,1553,1765,2.80106,-3.17226
336,-741,3.10278,3.21875,0,0,0,0,0,0,0,-1,1560,1765,3.10282,-3.21875
343,-741,3.13184,3.00037,0,0,0,0,0,0,0,-1,1567,1765,3.13186,-3.00031
350,-741,3.19421,2.69434,0,0,0,0,0,0,0,-1,1574,1765,3.19426,-2.69432
357,-741,3.37,2.60315,0,0,0,0,0,0,0,-1,1581,1765,3.36995,-2.60314
364,-741,0,0,0,0,0,0,0,0,0,-1,1588,1765,0,0
371,-741,0,0,0,0,0,0,0,0,0,-1,1595,1765,0,0
378,-741,0,0,0,0,0,0,0,0,0,-1,1602,1765,0,0
385,-741,0,0,0,0,0,0,0,0,0,-1,1609,1765,0,0
392,-741,0,0,0,0,0,0,0,0,0,-1,1616,1765,0,0
399,-741,0,0,0,0,0,0,0,0,0,-1,1623,1765,0,0
406,-741,0,0,0,0,0,0,0,0,0,-1,1630,1765,0,0
413,-741,0,0,0,0,0,0,0,0,0,-1,1637,1765,0,0
420,-741,0,0,0,0,0,0,0,0,0,-1,1644,1765,0,0
427,-741,0,0,0,0,0,0,0,0,0,-1,1651,1765,0,0
434,-741,0,0,0,0,0,0,0,0,0,-1,1658,1765,0,0
441,-741,0,0,0,0,0,0,0,0,0,-1,1665,1765,0,0
448,-741,0,0,0,0,0,0,0,0,0,-1,1672,1765,0,0
455,-741,0,0,0,0,0,0,0,0,0,-1,1679,1765,0,0
462,-741,0,0,0,0,0,0,0,0,0,-1,1686,1765,0,0
469,-741,0,0,0,0,0,0,0,0,0,-1,1693,1765,0,0
476,-741,0,0,0,0,0,0,0,0,0,-1,1700,1765,0,0
483,-741,0,0,0,0,0,0,0,0,0,-1,1707,1765,0,0
490,-741,0,0,0,0,0,0,0,0,0,-1,1714,1765,0,0
497,-741,0,0,0,0,0,0,0,0,0,-1,1721,1765,0,0
504,-741,0,0,0,0,0,0,0,0,0,-1,1728,1765,0,0
511,-741,0,0,0,0,0,0,0,0,0,-1,1735,1765,0,0
518,-741,0,0,0,0,0,0,0,0,0,-1,1742,1765,0,0
525,-741,0,0,0,0,0,0,0,0,0,-1,1749,1765,0,0
532,-741,0,0,0,0,0,0,0,0,0,-1,1756,1765,0,0
539,-741,0,0,0,0,0,0,0,0,0,-1,1763,1765,0,0
546,-741,0,0,0,0,0,0,0,0,0,-1,1770,1765,0,0
553,-741,0,0,0,0,0,0,0,0,0,-1,1777,1765,0,0
560,-741,0,0,0,0,0,0,0,0,0,-1,1784,1765,0,0
567,-741,0,0,0,0,0,0,0,0,0,-1,1791,1765,0,0
574,-741,0,0,0,0,0,0,0,0,0,-1,1798,1765,0,0
581,-741,0,0,0,0,0,0,0,0,0,-1,1805,1765,0,0
588,-741,0,0,0,0,0,0,0,0,0,-1,1812,1765,0,0
595,-741,0,0,0,0,0,0,0,0,0,-1,1819,1765,0,0
602,-741,0,0,0,0,0,0,0,0,0,-1,1826,1765,0,0
609,-741,0,0,0,0,0,0,0,0,0,-1,1833,1765,0,0
616,-741,0,0,0,0,0,0,0,0,0,-1,1840,1765,0,0
623,-741,0,0,0,0,0,0,0,0,0,-1,1847,1765,0,0
630,-741,0,0,0,0,0,0,0,0,0,-1,1854,1765,0,0
637,-741,0,0,0,0,0,0,0,0,0,-1,1861,1765,0,0
644,-741,0,0,0,0,0,0,0,0,0,-1,1868,1765,0,0
651,-741,0,0,0,0,0,0,0,0,0,-1,1875,1765,0,0
658,-741,0,0,0,0,0,0,0,0,0,-1,1882,1765,0,0
665,-741,0,0,0,0,0,0,0,0,0,-1,1889,1765,0,0
672,-741,0,0,0,0,0,0,0,0,0,-1,1896,1765,0,0
679,-741,0,0,0,0,0,0,0,0,0,-1,1903,1765,0,0
686,-741,0,0,0,0,0,0,0,0,0,-1,1910,1765,0,0
693,-741,0,0,0,0,0,0,0,0,0,-1,1917,1765,0,0
700,-741,0,0,0,0,0,0,0,0,0,-1,1924,1765,0,0
707,-741,0,0,0,0,0,0,0,0,0,-1,1931,1765,0,0
714,-741,0,0,0,0,0,0,0,0,0,-1,1938,1765,0,0
721,-741,0,0,0,0,0,0,0,0,0,-1,1945,1765,0,0
728,-741,0,0,0,0,0,0,0,0,0,-1,1952,1765,0,0
735,-741,0,0,0,0,0,0,0,0,0,-1,1959,1765,0,0
742,-741,0,0,0,0,0,0,0,0,0,-1,1966,1765,0,0
749,-741,0,0,0,0,0,0,0,0,0,-1,1973,1765,0,0
756,-741,0,0,0,0,0,0,0,0,0,-1,1980,1765,0,0
763,-741,0,0,0,0,0,0,0,0,0,-1,1987,1765,0,0
770,-741,0,0,0,0,0,0,0,0,0,-1,1994,1765,0,0
777,-741,0,0,0,0,0,0,0,0,0,-1,2001,1765,0,0
784,-741,0,0,0,0,0,0,0,0,0,-1,2008,1765,0,0
791,-741,0,0,0,0,0,0,0,0,0,-1,2015,1765,0,0
798,-741,0,0,0,0,0,0,0,0,0,-1,2022,1765,0,0
805,-741,0,0,0,0,0,0,0,0,0,-1,2029,1765,0,0
812,-741,0,0,0,0,0,0,0,0,0,-1,2036,1765,0,0
-700,-748,0,0,0,0,0,0,0,0,0,-1,524,1772,0,0
-693,-748,0,0,0,0,0,0,0,0,0,-1,531,1772,0,0
-686,-748,0,0,0,0,0,0,0,0,0,-1,538,1772,0,0
-679,-748,0,0,0,0,0,0,0,0,0,-1,545,1772,0,0
-672,-748,0,0,0,0,0,0,0,0,0,-1,552,1772,0,0
-665,-748,0,0,0,0,0,0,0,0,0,-1,559,1772,0,0
-658,-748,0,0,0,0,0,0,0,0,0,-1,566,1772,0,0
-651,-748,0,0,0,0,0,0,0,0,0,-1,573,1772,0,0
-644,-748,0,0,0,0,0,0,0,0,0,-1,580,1772,0,0
-637,-748,0,0,0,0,0,0,0,0,0,-1,587,1772,0,0
-630,-748,0,0,0,0,0,0,0,0,0,-1,594,1772,0,0
-623,-748,0,0,0,0,0,0,0,0,0,-1,601,1772,0,0
-616,-748,0,0,0,0,0,0,0,0,0,-1,608,1772,0,0
-609,-748,0,0,0,0,0,0,0,0,0,-1,615,1772,0,0
-602,-748,0,0,0,0,0,0,0,0,0,-1,622,1772,0,0
-595,-748,0,0,0,0,0,0,0,0,0,-1,629,1772,0,0
-588,-748,0,0,0,0,0,0,0,0,0,-1,636,1772,0,0
-581,-748,0,0,0,0,0,0,0,0,0,-1,643,1772,0,0
-574,-748,0,0,0,0,0,0,0,0,0,-1,650,1772,0,0
-567,-748,0,0,0,0,0,0,0,0,0,-1,657,1772,0,0
-560,-748,0,0,0,0,0,0,0,0,0,-1,664,1772,0,0
-553,-748,0,0,0,0,0,0,0,0,0,-1,671,1772,0,0
-546,-748,0,0,0,0,0,0,0,0,0,-1,678,1772,0,0
-539,-748,0,0,0,0,0,0,0,0,0,-1,685,1772,0,0
-532,-748,0,0,0,0,0,0,0,0,0,-1,692,1772,0,0
-525,-748,0,0,0,0,0,0,0,0,0,-1,699,1772,0,0
-518,-748,0,0,0,0,0,0,0,0,0,-1,706,1772,0,0
-511,-748,0,0,0,0,0,0,0,0,0,-1,713,1772,0,0
-504,-748,0,0,0,0,0,0,0,0,0,-1,720,1772,0,0
-497,-748,0,0,0,0,0,0,0,0,0,-1,727,1772,0,0
-490,-748,0,0,0,0,0,0,0,0,0,-1,734,1772,0,0
-483,-748,0,0,0,0,0,0,0,0,0,-1,741,1772,0,0
-476,-748,0,0,0,0,0,0,0,0,0,-1,748,1772,0,0
-469,-748,0,0,0,0,0,0,0,0,0,-1,755,1772,0,0
-462,-748,0,0,0,0,0,0,0,0,0,-1,762,1772,0,0
-455,-748,0,0,0,0,0,0,0,0,0,-1,769,1772,0,0
-448,-748,0,0,0,0,0,0,0,0,0,-1,776,1772,0,0
-441,-748,0,0,0,0,0,0,0,0,0,-1,783,1772,0,0
-434,-748,0,0,0,0,0,0,0,0,0,-1,790,1772,0,0
-427,-748,0,0,0,0,0,0,0,0,0,-1,797,1772,0,0
-420,-748,0,0,0,0,0,0,0,0,0,-1,804,1772,0,0
-413,-748,0,0,0,0,0,0,0,0,0,-1,811,1772,0,0
-406,-748,0,0,0,0,0,0,0,0,0,-1,818,1772,0,0
-399,-748,0,0,0,0,0,0,0,0,0,-1,825,1772,0,0
-392,-748,0,0,0,0,0,0,0,0,0,-1,832,1772,0,0
-385,-748,0,0,0,0,0,0,0,0,0,-1,839,1772,0,0
-378,-748,0,0,0,0,0,0,0,0,0,-1,846,1772,0,0
-371,-748,0,0,0,0,0,0,0,0,0,-1,853,1772,0,0
-364,-748,0,0,0,0,0,0,0,0,0,-1,860,1772,0,0
-357,-748,0,0,0,0,0,0,0,0,0,-1,867,1772,0,0
-350,-748,0,0,0,0,0,0,0,0,0,-1,874,1772,0,0
-343,-748,0,0,0,0,0,0,0,0,0,-1,881,1772,0,0
-336,-748,0,0,0,0,0,0,0,0,0,-1,888,1772,0,0
-329,-748,0,0,0,0,0,0,0,0,0,-1,895,1772,0,0
-322,-748,0,0,0,0,0,0,0,0,0,-1,902,1772,0,0
-315,-748,0,0,0,0,0,0,0,0,0,-1,909,1772,0,0
-308,-748,0,0,0,0,0,0,0,0,0,-1,916,1772,0,0
-301,-748,0,0,0,0,0,0,0,0,0,-1,923,1772,0,0
-294,-748,0,0,0,0,0,0,0,0,0,-1,930,1772,0,0
-287,-748,0,0,0,0,0,0,0,0,0,-1,937,1772,0,0
-280,-748,0,0,0,0,0,0,0,0,0,-1,944,1772,0,0
-273,-748,0,0,0,0,0,0,0,0,0,-1,951,1772,0,0
-266,-748,0,0,0,0,0,0,0,0,0,-1,958,1772,0,0
-259,-748,0,0,0,0,0,0,0,0,0,-1,965,1772,0,0
-252,-748,0,0,0,0,0,0,0,0,0,-1,972,1772,0,0
-245,-748,0,0,0,0,0,0,0,0,0,-1,979,1772,0,0
-238,-748,0,0,0,0,0,0,0,0,0,-1,986,1772,0,0
-231,-748,0,0,0,0,0,0,0,0,0,-1,993,1772,0,0
-224,-748,0,0,0,0,0,0,0,0,0,-1,1000,1772,0,0
-217,-748,7.55994,0.334961,-0.0143771,0.288307,-0.0731894,0.305075,-0.0311455,-1.34557,0.21452,0.0437615,1007,1772,7.55995,-0.334962
-210,-748,7.98224,0.400757,-0.00258513,0.247608,-0.0543622,0.258909,-0.0138865,-1.36583,0.177416,0.0458194,1014,1772,7.98222,-0.400734
-203,-748,-1.80518,2.63416,0,0,0,0,0,0,0,-1,1021,1772,-1.8052,-2.63417
-196,-748,-0.491089,2.21301,0,0,0,0,0,0,0,-1,1028,1772,-0.49107,-2.21295
-189,-748,0.199951,2.10571,0,0,0,0,0,0,0,-1,1035,1772,0.199964,-2.10567
-182,-748,0.915283,1.91931,0,0,0,0,0,0,0,-1,1042,1772,0.915329,-1.91925
-175,-748,0.590698,2.26135,0.0264901,0.0740476,0.0157604,0.0787964,0.0217413,1.27814,0.0469913,0.0431895,1049,1772,0.59073,-2.26139
-168,-748,0.70105,2.16223,0.0259021,0.0539127,0.0209565,0.065113,0.0147018,1.07997,0.0394325,0.0467115,1056,1772,0.701098,-2.16219
-161,-748,0.803589,2.32837,0,0,0,0,0,0,0,-1,1063,1772,0.803531,-2.32831
-154,-748,1.31812,2.19202,0,0,0,0,0,0,0,-1,1070,1772,1.31812,-2.19196
-147,-748,1.39294,1.97131,0,0,0,0,0,0,0,-1,1077,1772,1.39293,-1.97129
-140,-748,1.97144,2.26477,0,0,0,0,0,0,0,-1,1084,1772,1.97138,-2.26483
-133,-748,2.56848,2.37268,0,0,0,0,0,0,0,-1,1091,1772,2.56853,-2.37273
-126,-748,2.02209,2.57825,0,0,0,0,0,0,0,-1,1098,1772,2.02209,-2.5782
-119,-748,2.15747,2.37781,0,0,0,0,0,0,0,-1,1105,1772,2.15742,-2.37782
-112,-748,2.15466,2.24805,0,0,0,0,0,0,0,-1,1112,1772,2.15463,-2.24799
-105,-748,2.01147,2.30798,-0.00259614,5.01751e-05,0.004655,0.00356641,-0.00611238,0.923868,0.00565213,0.0421567,1119,1772,2.01142,-2.30796
-98,-748,1.9314,2.71375,-0.00474869,-0.00228271,0.00310141,-0.000178184,-0.00685321,0.974598,0.00451059,0.0417974,1126,1772,1.93141,-2.71369
-91,-748,1.8147,2.78503,-0.00617716,-0.00385187,0.000833578,-0.00358392,-0.00644511,1.25979,0.00372888,0.0421963,1133,1772,1.81474,-2.78501
-84,-748,1.5907,2.72864,-0.00746742,-0.00368398,-0.00176597,-0.00298779,-0.0081636,-1.19528,0.00476935,0.0422646,1140,1772,1.59068,-2.72867
-77,-748,1.8374,2.71338,-0.00820865,-0.00311314,-0.0045893,-0.000411833,-0.01091,-1.03879,0.00713999,0.0436449,1147,1772,1.8374,-2.71337
-70,-748,1.67773,2.63208,-0.00848217,-0.000938837,-0.00806266,0.00419073,-0.0136117,-1.00417,0.0107473,0.0422981,1154,1772,1.67779,-2.63203
-63,-748,1.58765,2.75476,-0.00861847,0.00111398,-0.0109386,0.00821993,-0.0157244,-0.994687,0.0140488,0.0433319,1161,1772,1.5876,-2.75475
-56,-748,1.55518,2.81177,-0.00700361,0.00446173,-0.0129308,0.0128736,-0.0154155,-0.994047,0.0163547,0.0431361,1168,1772,1.5552,-2.81179
-49,-748,1.35352,2.7793,-0.00463043,0.00814354,-0.0142721,0.0173926,-0.0138795,-0.995791,0.0180929,0.0360166,1175,1772,1.35355,-2.77933
-42,-748,1.49304,2.77332,-0.00151264,0.0126338,-0.0146049,0.0217882,-0.010667,-1.0109,0.0191012,0.0287436,1182,1772,1.49302,-2.7733
-35,-748,1.73157,2.72754,0.00221036,0.0166831,-0.013912,0.0251282,-0.00623474,-1.02522,0.0191713,0.0205351,1189,1772,1.73158,-2.72758
-28,-748,1.89014,2.74963,0.00624755,0.0204638,-0.011281,0.0266893,2.20323e-05,-1.06653,0.0177856,0.014794,1196,1772,1.8901,-2.74967
-21,-748,1.90222,2.776,0.010292,0.0258188,-0.00697327,0.0284908,0.00762005,-1.20488,0.0170319,0.0166721,1203,1772,1.90218,-2.77606
-14,-748,1.86865,2.74402,0.0140861,0.0285587,-0.00217485,0.0288784,0.0137663,-1.42482,0.016679,0.0143409,1210,1772,1.86871,-2.74397
-7,-748,1.85559,2.73022,0.0175689,0.0314009,0.0034014,0.0321921,0.0167777,1.34226,0.0185917,0.0143391,1217,1772,1.85562,-2.73017
0,-748,1.84509,2.76685,0.0203253,0.0336044,0.00887838,0.0380513,0.0158784,1.10645,0.0220689,0.014905,1224,1772,1.84514,-2.76688
7,-748,1.86011,2.78223,0.0220327,0.0341114,0.0143273,0.0436202,0.0125239,0.984862,0.0259339,0.0140481,1231,1772,1.86015,-2.78225
14,-748,1.8656,2.79309,0.0228353,0.0335345,0.0197476,0.0486443,0.00772552,0.917672,0.0301857,0.0145398,1238,1772,1.86562,-2.79309
21,-748,1.86072,2.77307,0.0232742,0.0318269,0.0233263,0.0512656,0.00383557,0.876056,0.032973,0.011145,1245,1772,1.86073,-2.77312
28,-748,1.8584,2.76855,0.0227598,0.0294071,0.0248664,0.051171,0.000995966,0.851834,0.0337869,0.0112568,1252,1772,1.85837,-2.76858
35,-748,1.88391,2.771,0.0217214,0.0258109,0.0254473,0.0492955,-0.00176321,0.825487,0.0334669,0.0120153,1259,1772,1.88393,-2.77104
42,-748,1.88818,2.77283,0.020661,0.0225608,0.0231908,0.0448211,-0.00159937,0.805867,0.0304279,0.0127394,1266,1772,1.88822,-2.77287
49,-748,1.87317,2.78735,0.0195286,0.0190266,0.0200326,0.0393118,-0.000756558,0.779134,0.0264637,0.00961897,1273,1772,1.87322,-2.78729
56,-748,1.87036,2.77637,0.0188355,0.0159103,0.0163442,0.0337824,0.000963327,0.740773,0.0222075,0.00931656,1280,1772,1.87035,-2.77633
63,-748,1.87256,2.75549,0.0181317,0.0130237,0.012517,0.0283526,0.00280278,0.684758,0.0180402,0.0116703,1287,1772,1.87257,-2.75546
70,-748,1.86462,2.76746,0.0175,0.0108302,0.00883729,0.0236107,0.00471953,0.604978,0.014427,0.0138623,1294,1772,1.86467,-2.76749
77,-748,1.84875,2.77051,0.0167308,0.00905417,0.00507336,0.0192542,0.00653076,0.461553,0.0113065,0.0129821,1301,1772,1.84874,-2.77055
84,-748,1.84045,2.80396,0.015716,0.00705839,0.00201807,0.0161633,0.00661109,0.218119,0.00938327,0.0140985,1308,1772,1.84048,-2.80396
91,-748,1.83411,2.79492,0.0143727,0.00748653,0.000328324,0.0143883,0.00747091,0.0475349,0.00830915,0.0112759,1315,1772,1.83412,-2.79488
98,-748,1.84583,2.77332,0.0130187,0.00719233,-0.00119732,0.0132552,0.00695588,-0.194976,0.007656,0.0107299,1322,1772,1.84581,-2.77335
105,-748,1.86206,2.74829,0.0115472,0.00743243,-0.00165811,0.0121322,0.00684743,-0.339176,0.00702385,0.0122959,1329,1772,1.86202,-2.74827
112,-748,1.8728,2.74719,0.0101368,0.00825621,-0.00167948,0.0111213,0.00727173,-0.530198,0.00652144,0.0148677,1336,1772,1.87278,-2.74715
119,-748,1.86816,2.74512,0.00879061,0.00831094,-0.00171388,0.0102814,0.00682019,-0.715882,0.00604062,0.012543,1343,1772,1.86814,-2.74517
126,-748,1.88306,2.7345,0.00738094,0.00805674,-0.00117992,0.00894619,0.00649149,-0.924854,0.00533749,0.014134,1350,1772,1.88311,-2.73445
133,-748,1.84534,2.72937,0.00655508,0.00775827,-0.000791513,0.00815086,0.00616248,-1.11035,0.00490728,0.00873002,1357,1772,1.84533,-2.72937
140,-748,1.83398,2.73804,0.00623055,0.00706046,-0.00168237,0.00837829,0.00491271,-0.906309,0.0048612,0.011776,1364,1772,1.83398,-2.73809
147,-748,1.86279,2.73499,0.00610852,0.00584604,-0.00313916,0.00911918,0.00283538,-0.764506,0.00538898,0.0129065,1371,1772,1.86278,-2.73496
154,-748,1.85999,2.72107,0.0060582,0.00496711,-0.00554404,0.0110835,-5.81658e-05,-0.736355,0.00740844,0.0109775,1378,1772,1.86,-2.72107
161,-748,1.85901,2.71875,0.00529596,0.00381165,-0.00787359,0.0124623,-0.00335469,-0.738408,0.00962335,0.0137487,1385,1772,1.85897,-2.71875
168,-748,2.03845,2.74829,0.00442857,0.00312257,-0.0102801,0.0140764,-0.00652529,-0.75368,0.0121578,0.0258011,1392,1772,2.03847,-2.74834
175,-748,2.29919,2.78845,0.00402382,0.00277654,-0.0128091,0.0162245,-0.00942412,-0.761074,0.0149807,0.0313871,1399,1772,2.29918,-2.78843
182,-748,2.46973,2.79236,0.00349565,0.00273361,-0.0144142,0.0175338,-0.0113046,-0.772184,0.0167788,0.0389286,1406,1772,2.46967,-2.7923
189,-748,2.83142,2.78479,0.00275533,0.00281549,-0.0158926,0.0186781,-0.0131073,-0.786345,0.018445,0.0355992,1413,1772,2.8314,-2.78483
196,-748,2.72681,2.76184,0.00209263,0.00261013,-0.0166858,0.0190392,-0.0143365,-0.793151,0.0193331,0.0357897,1420,1772,2.72678,-2.76188
203,-748,2.64417,2.71082,0.00113982,0.00378079,-0.0157731,0.0182886,-0.013368,-0.82716,0.0183504,0.0349372,1427,1772,2.64418,-2.71086
210,-748,2.57288,2.70679,-0.000256041,0.0029102,-0.0136348,0.0150535,-0.0123993,-0.843194,0.0158746,0.0351413,1434,1772,2.57287,-2.70673
217,-748,1.74548,2.62939,-0.00133204,0.00259292,-0.0107387,0.011547,-0.0102861,-0.875775,0.0126124,0.0350125,1441,1772,1.74542,-2.62934
224,-748,1.92908,2.44824,-0.00124078,0.0023047,-0.00748566,0.00822467,-0.00716074,-0.901665,0.00888985,0.0383401,1448,1772,1.9291,-2.44826
231,-748,1.86108,2.45605,-0.00173831,-0.00088006,-0.00742701,0.00613021,-0.00874858,-0.814256,0.0086345,0.0390301,1455,1772,1.86104,-2.45611
238,-748,1.78284,2.52075,-8.76907e-05,-0.00166421,-0.00500391,0.00418966,-0.00594156,-0.707276,0.00587834,0.0417836,1462,1772,1.78282,-2.5207
245,-748,1.82104,2.47437,0.00413772,-0.00237102,-0.00105888,0.00430565,-0.00253895,-0.157285,0.00399537,0.0451641,1469,1772,1.821,-2.47434
252,-748,2.05176,2.40955,0.00906053,-0.00287779,0.0022396,0.00946685,-0.0032841,0.179471,0.0076448,0.0465893,1476,1772,2.05179,-2.40953
259,-748,1.71545,2.85217,0,0,0,0,0,0,0,-1,1483,1772,1.71544,-2.85221
266,-748,0.33313,2.62207,0,0,0,0,0,0,0,-1,1490,1772,0.333108,-2.62204
273,-748,0.978271,2.06177,0,0,0,0,0,0,0,-1,1497,1772,0.978216,-2.06171
280,-748,1.38965,1.86011,0,0,0,0,0,0,0,-1,1504,1772,1.38959,-1.86009
287,-748,1.89893,1.68335,0.032112,0.00273786,0.00639296,0.0334431,0.00140681,0.205272,0.0218416,0.0444663,1511,1772,1.89893,-1.68331
294,-748,2.54053,2.03296,0.0361842,0.00503491,0.00715937,0.0377509,0.0034682,0.215438,0.0240946,0.0456898,1518,1772,2.5405,-2.03296
301,-748,3.51428,2.26221,0.0394719,0.00718328,0.00807727,0.0413798,0.00527542,0.23195,0.026007,0.0452883,1525,1772,3.51428,-2.26215
308,-748,4.27002,2.39624,0.0418722,0.00871321,0.00852565,0.0439358,0.00664957,0.237483,0.0273449,0.0455729,1532,1772,4.27,-2.39624
315,-748,4.82263,2.6582,0.0429085,0.0104886,0.00861146,0.045054,0.00834314,0.244165,0.0276773,0.0487194,1539,1772,4.82266,-2.65816
322,-748,2.20374,2.91394,0,0,0,0,0,0,0,-1,1546,1772,2.20374,-2.91391
329,-748,2.61401,3.11499,0,0,0,0,0,0,0,-1,1553,1772,2.61405,-3.11501
336,-748,2.98657,3.1698,0,0,0,0,0,0,0,-1,1560,1772,2.98662,-3.16975
343,-748,0,0,0,0,0,0,0,0,0,-1,1567,1772,0,0
350,-748,0,0,0,0,0,0,0,0,0,-1,1574,1772,0,0
357,-748,0,0,0,0,0,0,0,0,0,-1,1581,1772,0,0
364,-748,0,0,0,0,0,0,0,0,0,-1,1588,1772,0,0
371,-748,0,0,0,0,0,0,0,0,0,-1,1595,1772,0,0
378,-748,0,0,0,0,0,0,0,0,0,-1,1602,1772,0,0
385,-748,0,0,0,0,0,0,0,0,0,-1,1609,1772,0,0
392,-748,0,0,0,0,0,0,0,0,0,-1,1616,1772,0,0
399,-748,0,0,0,0,0,0,0,0,0,-1,1623,1772,0,0
406,-748,0,0,0,0,0,0,0,0,0,-1,1630,1772,0,0
413,-748,0,0,0,0,0,0,0,0,0,-1,1637,1772,0,0
420,-748,0,0,0,0,0,0,0,0,0,-1,1644,1772,0,0
427,-748,0,0,0,0,0,0,0,0,0,-1,1651,1772,0,0
434,-748,0,0,0,0,0,0,0,0,0,-1,1658,1772,0,0
441,-748,0,0,0,0,0,0,0,0,0,-1,1665,1772,0,0
448,-748,0,0,0,0,0,0,0,0,0,-1,1672,1772,0,0
455,-748,0,0,0,0,0,0,0,0,0,-1,1679,1772,0,0
462,-748,0,0,0,0,0,0,0,0,0,-1,1686,1772,0,0
469,-748,0,0,0,0,0,0,0,0,0,-1,1693,1772,0,0
476,-748,0,0,0,0,0,0,0,0,0,-1,1700,1772,0,0
483,-748,0,0,0,0,0,0,0,0,0,-1,1707,1772,0,0
490,-748,0,0,0,0,0,0,0,0,0,-1,1714,1772,0,0
497,-748,0,0,0,0,0,0,0,0,0,-1,1721,1772,0,0
504,-748,0,0,0,0,0,0,0,0,0,-1,1728,1772,0,0
511,-748,0,0,0,0,0,0,0,0,0,-1,1735,1772,0,0
518,-748,0,0,0,0,0,0,0,0,0,-1,1742,1772,0,0
525,-748,0,0,0,0,0,0,0,0,0,-1,1749,1772,0,0
532,-748,0,0,0,0,0,0,0,0,0,-1,1756,1772,0,0
539,-748,0,0,0,0,0,0,0,0,0,-1,1763,1772,0,0
546,-748,0,0,0,0,0,0,0,0,0,-1,1770,1772,0,0
553,-748,0,0,0,0,0,0,0,0,0,-1,1777,1772,0,0
560,-748,0,0,0,0,0,0,0,0,0,-1,1784,1772,0,0
567,-748,0,0,0,0,0,0,0,0,0,-1,1791,1772,0,0
574,-748,0,0,0,0,0,0,0,0,0,-1,1798,1772,0,0
581,-748,0,0,0,0,0,0,0,0,0,-1,1805,1772,0,0
588,-748,0,0,0,0,0,0,0,0,0,-1,1812,1772,0,0
595,-748,0,0,0,0,0,0,0,0,0,-1,1819,1772,0,0
602,-748,0,0,0,0,0,0,0,0,0,-1,1826,1772,0,0
609,-748,0,0,0,0,0,0,0,0,0,-1,1833,1772,0,0
616,-748,0,0,0,0,0,0,0,0,0,-1,1840,1772,0,0
623,-748,0,0,0,0,0,0,0,0,0,-1,1847,1772,0,0
630,-748,0,0,0,0,0,0,0,0,0,-1,1854,1772,0,0
637,-748,0,0,0,0,0,0,0,0,0,-1,1861,1772,0,0
644,-748,0,0,0,0,0,0,0,0,0,-1,1868,1772,0,0
651,-748,0,0,0,0,0,0,0,0,0,-1,1875,1772,0,0
658,-748,0,0,0,0,0,0,0,0,0,-1,1882,1772,0,0
665,-748,0,0,0,0,0,0,0,0,0,-1,1889,1772,0,0
672,-748,0,0,0,0,0,0,0,0,0,-1,1896,1772,0,0
679,-748,0,0,0,0,0,0,0,0,0,-1,1903,1772,0,0
686,-748,0,0,0,0,0,0,0,0,0,-1,1910,1772,0,0
693,-748,0,0,0,0,0,0,0,0,0,-1,1917,1772,0,0
700,-748,0,0,0,0,0,0,0,0,0,-1,1924,1772,0,0
707,-748,0,0,0,0,0,0,0,0,0,-1,1931,1772,0,0
714,-748,0,0,0,0,0,0,0,0,0,-1,1938,1772,0,0
721,-748,0,0,0,0,0,0,0,0,0,-1,1945,1772,0,0
728,-748,0,0,0,0,0,0,0,0,0,-1,1952,1772,0,0
735,-748,0,0,0,0,0,0,0,0,0,-1,1959,1772,0,0
742,-748,0,0,0,0,0,0,0,0,0,-1,1966,1772,0,0
749,-748,0,0,0,0,0,0,0,0,0,-1,1973,1772,0,0
756,-748,0,0,0,0,0,0,0,0,0,-1,1980,1772,0,0
763,-748,0,0,0,0,0,0,0,0,0,-1,1987,1772,0,0
770,-748,0,0,0,0,0,0,0,0,0,-1,1994,1772,0,0
777,-748,0,0,0,0,0,0,0,0,0,-1,2001,1772,0,0
784,-748,0,0,0,0,0,0,0,0,0,-1,2008,1772,0,0
791,-748,0,0,0,0,0,0,0,0,0,-1,2015,1772,0,0
798,-748,0,0,0,0,0,0,0,0,0,-1,2022,1772,0,0
805,-748,0,0,0,0,0,0,0,0,0,-1,2029,1772,0,0
812,-748,0,0,0,0,0,0,0,0,0,-1,2036,1772,0,0
-700,-755,0,0,0,0,0,0,0,0,0,-1,524,1779,0,0
-693,-755,0,0,0,0,0,0,0,0,0,-1,531,1779,0,0
-686,-755,0,0,0,0,0,0,0,0,0,-1,538,1779,0,0
-679,-755,0,0,0,0,0,0,0,0,0,-1,545,1779,0,0
-672,-755,0,0,0,0,0,0,0,0,0,-1,552,1779,0,0
-665,-755,0,0,0,0,0,0,0,0,0,-1,559,1779,0,0
-658,-755,0,0,0,0,0,0,0,0,0,-1,566,1779,0,0
-651,-755,0,0,0,0,0,0,0,0,0,-1,573,1779,0,0
-644,-755,0,0,0,0,0,0,0,0,0,-1,580,1779,0,0
-637,-755,0,0,0,0,0,0,0,0,0,-1,587,1779,0,0
-630,-755,0,0,0,0,0,0,0,0,0,-1,594,1779,0,0
-623,-755,0,0,0,0,0,0,0,0,0,-1,601,1779,0,0
-616,-755,0,0,0,0,0,0,0,0,0,-1,608,1779,0,0
-609,-755,0,0,0,0,0,0,0,0,0,-1,615,1779,0,0
-602,-755,0,0,0,0,0,0,0,0,0,-1,622,1779,0,0
-595,-755,0,0,0,0,0,0,0,0,0,-1,629,1779,0,0
-588,-755,0,0,0,0,0,0,0,0,0,-1,636,1779,0,0
-581,-755,0,0,0,0,0,0,0,0,0,-1,643,1779,0,0
-574,-755,0,0,0,0,0,0,0,0,0,-1,650,1779,0,0
-567,-755,0,0,0,0,0,0,0,0,0,-1,657,1779,0,0
-560,-755,0,0,0,0,0,0,0,0,0,-1,664,1779,0,0
-553,-755,0,0,0,0,0,0,0,0,0,-1,671,1779,0,0
-546,-755,0,0,0,0,0,0,0,0,0,-1,678,1779,0,0
-539,-755,0,0,0,0,0,0,0,0,0,-1,685,1779,0,0
-532,-755,0,0,0,0,0,0,0,0,0,-1,692,1779,0,0
-525,-755,0,0,0,0,0,0,0,0,0,-1,699,1779,0,0
-518,-755,0,0,0,0,0,0,0,0,0,-1,706,1779,0,0
-511,-755,0,0,0,0,0,0,0,0,0,-1,713,1779,0,0
-504,-755,0,0,0,0,0,0,0,0,0,-1,720,1779,0,0
-497,-755,0,0,0,0,0,0,0,0,0,-1,727,1779,0,0
-490,-755,0,0,0,0,0,0,0,0,0,-1,734,1779,0,0
-483,-755,0,0,0,0,0,0,0,0,0,-1,741,1779,0,0
-476,-755,0,0,0,0,0,0,0,0,0,-1,748,1779,0,0
-469,-755,0,0,0,0,0,0,0,0,0,-1,755,1779,0,0
-462,-755,0,0,0,0,0,0,0,0,0,-1,762,1779,0,0
-455,-755,0,0,0,0,0,0,0,0,0,-1,769,1779,0,0
-448,-755,0,0,0,0,0,0,0,0,0,-1,776,1779,0,0
-441,-755,0,0,0,0,0,0,0,0,0,-1,783,1779,0,0
-434,-755,0,0,0,0,0,0,0,0,0,-1,790,1779,0,0
-427,-755,0,0,0,0,0,0,0,0,0,-1,797,1779,0,0
-420,-755,0,0,0,0,0,0,0,0,0,-1,804,1779,0,0
-413,-755,0,0,0,0,0,0,0,0,0,-1,811,1779,0,0
-406,-755,0,0,0,0,0,0,0,0,0,-1,818,1779,0,0
-399,-755,0,0,0,0,0,0,0,0,0,-1,825,1779,0,0
-392,-755,0,0,0,0,0,0,0,0,0,-1,832,1779,0,0
-385,-755,0,0,0,0,0,0,0,0,0,-1,839,1779,0,0
-378,-755,0,0,0,0,0,0,0,0,0,-1,846,1779,0,0
-371,-755,0,0,0,0,0,0,0,0,0,-1,853,1779,0,0
-364,-755,0,0,0,0,0,0,0,0,0,-1,860,1779,0,0
-357,-755,0,0,0,0,0,0,0,0,0,-1,867,1779,0,0
-350,-755,0,0,0,0,0,0,0,0,0,-1,874,1779,0,0
-343,-755,0,0,0,0,0,0,0,0,0,-1,881,1779,0,0
-336,-755,0,0,0,0,0,0,0,0,0,-1,888,1779,0,0
-329,-755,0,0,0,0,0,0,0,0,0,-1,895,1779,0,0
-322,-755,0,0,0,0,0,0,0,0,0,-1,902,1779,0,0
-315,-755,0,0,0,0,0,0,0,0,0,-1,909,1779,0,0
-308,-755,0,0,0,0,0,0,0,0,0,-1,916,1779,0,0
-301,-755,0,0,0,0,0,0,0,0,0,-1,923,1779,0,0
-294,-755,0,0,0,0,0,0,0,0,0,-1,930,1779,0,0
-287,-755,0,0,0,0,0,0,0,0,0,-1,937,1779,0,0
-280,-755,0,0,0,0,0,0,0,0,0,-1,944,1779,0,0
-273,-755,0,0,0,0,0,0,0,0,0,-1,951,1779,0,0
-266,-755,0,0,0,0,0,0,0,0,0,-1,958,1779,0,0
-259,-755,0,0,0,0,0,0,0,0,0,-1,965,1779,0,0
-252,-755,0,0,0,0,0,0,0,0,0,-1,972,1779,0,0
-245,-755,0,0,0,0,0,0,0,0,0,-1,979,1779,0,0
-238,-755,0,0,0,0,0,0,0,0,0,-1,986,1779,0,0
-231,-755,0,0,0,0,0,0,0,0,0,-1,993,1779,0,0
-224,-755,0,0,0,0,0,0,0,0,0,-1,1000,1779,0,0
-217,-755,0,0,0,0,0,0,0,0,0,-1,1007,1779,0,0
-210,-755,0,0,0,0,0,0,0,0,0,-1,1014,1779,0,0
-203,-755,-1.62079,2.56812,0,0,0,0,0,0,0,-1,1021,1779,-1.6208,-2.56816
-196,-755,-0.903076,2.26526,0,0,0,0,0,0,0,-1,1028,1779,-0.903028,-2.2652
-189,-755,-0.136841,1.94495,0,0,0,0,0,0,0,-1,1035,1779,-0.136855,-1.9449
-182,-755,-0.166138,2.2937,0,0,0,0,0,0,0,-1,1042,1779,-0.166085,-2.29369
-175,-755,-0.0866699,2.21533,0.0326106,0.0849558,0.0196523,0.0915127,0.0260537,1.24877,0.0544431,0.0448906,1049,1779,-0.086646,-2.21533
-168,-755,0.22168,2.14526,0.0324868,0.0598529,0.0268482,0.0763037,0.0160359,1.02106,0.0464558,0.0495274,1056,1779,0.221636,-2.14532
-161,-755,0.496216,2.07825,0,0,0,0,0,0,0,-1,1063,1779,0.496274,-2.0783
-154,-755,1.02112,2.24097,0,0,0,0,0,0,0,-1,1070,1779,1.02116,-2.241
-147,-755,-0.739014,2.63855,0,0,0,0,0,0,0,-1,1077,1779,-0.738962,-2.63853
-140,-755,1.98828,2.1134,0,0,0,0,0,0,0,-1,1084,1779,1.98825,-2.11335
-133,-755,0.936401,2.36206,0,0,0,0,0,0,0,-1,1091,1779,0.936439,-2.36208
-126,-755,0.99585,2.05969,0.00711092,0.00841779,0.0169632,0.0247402,-0.00921147,0.804649,0.0202739,0.046661,1098,1779,0.99591,-2.05972
-119,-755,1.10669,1.69775,0,0,0,0,0,0,0,-1,1105,1779,1.10672,-1.69774
-112,-755,2.2583,2.94019,0,0,0,0,0,0,0,-1,1112,1779,2.25831,-2.94016
-105,-755,1.823,2.33398,0,0,0,0,0,0,0,-1,1119,1779,1.82302,-2.334
-98,-755,1.8717,2.82385,-0.00580113,-0.00254382,0.00352831,-0.000286411,-0.00805854,1.00163,0.00527948,0.0476128,1126,1779,1.87173,-2.8238
-91,-755,1.73682,2.94971,-0.00783541,-0.00412681,0.000134971,-0.0041219,-0.00784031,1.53447,0.0045286,0.0466735,1133,1779,1.73678,-2.94966
-84,-755,1.39197,2.79065,0,0,0,0,0,0,0,-1,1140,1779,1.39202,-2.79062
-77,-755,1.80383,2.72046,-0.0105939,-0.00261073,-0.00788268,0.00223337,-0.015438,-1.01977,0.0111115,0.0448789,1147,1779,1.80379,-2.72046
-70,-755,2.25024,3.005,-0.0108377,0.000525566,-0.0127354,0.00878927,-0.0191014,-0.995213,0.0164655,0.0463311,1154,1779,2.25028,-3.005
-63,-755,1.89966,3.20776,-0.0109774,0.0034354,-0.0168641,0.0145683,-0.0221103,-0.987317,0.0213251,0.0484514,1161,1779,1.89969,-3.20771
-56,-755,1.40332,3.18872,-0.00870555,0.00798296,-0.0195512,0.0208961,-0.0216187,-0.987091,0.0245471,0.0478052,1168,1779,1.40335,-3.18873
-49,-755,0.942017,3.10828,-0.00542418,0.0128962,-0.0212371,0.0268644,-0.0193924,-0.989009,0.0268223,0.0432527,1175,1779,0.942007,-3.1083
-42,-755,0.7677,3.13049,0,0,0,0,0,0,0,-1,1182,1779,0.76764,-3.13046
-35,-755,1.26172,2.98218,0.00420143,0.0243065,-0.0201938,0.0368115,-0.00830363,-1.01634,0.0277265,0.0419772,1189,1779,1.26168,-2.98214
-28,-755,1.32202,2.922,0.00992677,0.0293212,-0.0163096,0.0385987,0.000649329,-1.05361,0.0255187,0.0369775,1196,1779,1.32205,-2.922
-21,-755,1.87244,2.76086,0,0,0,0,0,0,0,-1,1203,1779,1.87242,-2.7609
-14,-755,1.86145,2.72485,0.0209338,0.0398588,-0.00335434,0.0404358,0.0203568,-1.40046,0.0233458,0.0275274,1210,1779,1.86144,-2.72482
-7,-755,1.8501,2.71411,0.0255909,0.0433111,0.00440223,0.0443445,0.0245575,1.34023,0.0256516,0.0205286,1217,1779,1.85015,-2.71407
0,-755,1.85242,2.75073,0.0293034,0.0460998,0.0119345,0.0522948,0.0231084,1.092,0.0302603,0.0138613,1224,1779,1.85239,-2.75077
7,-755,1.86914,2.77405,0.0317717,0.0467493,0.0194864,0.0601364,0.0183846,0.968852,0.0355827,0.0122611,1231,1779,1.86912,-2.77409
14,-755,1.88403,2.7594,0.0331385,0.0460372,0.0270347,0.0673812,0.0117946,0.902489,0.041551,0.0107468,1238,1779,1.88402,-2.75941
21,-755,1.87085,2.75452,0.0339703,0.0438546,0.0321074,0.071398,0.0064269,0.861761,0.0456076,0.0148799,1245,1779,1.87085,-2.75457
28,-755,1.87256,2.76282,0.0333529,0.0403804,0.0343731,0.0714189,0.0023144,0.836333,0.0468602,0.0176522,1252,1779,1.87251,-2.76284
35,-755,1.901,2.78833,0.0319523,0.0353809,0.0353427,0.0690509,-0.00171769,0.809631,0.046617,0.0174204,1259,1779,1.90104,-2.78837
42,-755,1.90979,2.77905,0.0303001,0.0306564,0.0321034,0.0625822,-0.00162561,0.788173,0.0422737,0.013412,1266,1779,1.90978,-2.77909
49,-755,1.88,2.78271,0.0286134,0.0256882,0.0277285,0.0549178,-0.000616252,0.759049,0.036819,0.0095546,1273,1779,1.88006,-2.7827
56,-755,1.86621,2.776,0.027518,0.0213395,0.0226544,0.0472928,0.00156464,0.717635,0.0310202,0.00897811,1280,1779,1.86618,-2.77605
63,-755,1.87451,2.7677,0.0264309,0.0173175,0.0173232,0.0397867,0.00396178,0.656791,0.0253074,0.00951029,1287,1779,1.87445,-2.76773
70,-755,1.86951,2.7522,0.025443,0.0143879,0.0121781,0.0332893,0.00654156,0.572356,0.0203656,0.0118864,1294,1779,1.86952,-2.75217
77,-755,1.85498,2.73499,0.024316,0.0121261,0.00699182,0.0274965,0.00894558,0.426911,0.0161948,0.0108506,1301,1779,1.85493,-2.73498
84,-755,1.87244,2.74731,0.0228005,0.00983767,0.00284776,0.0233986,0.00923964,0.20699,0.0136083,0.0106348,1308,1779,1.87248,-2.7473
91,-755,1.84827,2.75403,0.0207874,0.0108854,0.000505382,0.0208131,0.0108597,0.0508624,0.0120203,0.0106682,1315,1779,1.84831,-2.75399
98,-755,1.8645,2.76355,0.0188161,0.0109314,-0.00159613,0.0191269,0.0106206,-0.192348,0.0110654,0.012091,1322,1779,1.86445,-2.76356
105,-755,1.8916,2.7644,0.0166296,0.0116866,-0.00221411,0.0174763,0.0108399,-0.365263,0.0101868,0.0161136,1329,1779,1.89155,-2.76442
112,-755,1.88098,2.75842,0.0144608,0.0133391,-0.00214234,0.0161145,0.0116854,-0.657382,0.00961297,0.0210627,1336,1779,1.88093,-2.75848
119,-755,1.8634,2.74463,0.0123194,0.0138841,-0.00204721,0.0152933,0.0109101,-0.96791,0.0090937,0.0191541,1343,1779,1.86344,-2.74459
126,-755,1.81458,2.77429,0.0100908,0.0139455,-0.00115587,0.0142656,0.00977079,-1.30069,0.0084219,0.0213877,1350,1779,1.81461,-2.77423
133,-755,1.79358,2.75586,0.00865815,0.0138172,-0.000417242,0.0138507,0.00862462,-1.49062,0.00807657,0.0233201,1357,1779,1.79352,-2.75581
140,-755,1.79163,2.75256,0.00796952,0.012967,-0.00133721,0.0133023,0.00763421,-1.32511,0.00770802,0.0285939,1364,1779,1.79163,-2.75255
147,-755,1.80371,2.78894,0.00759802,0.0114011,-0.00292476,0.0129882,0.006011,-1.07364,0.00750563,0.0284845,1371,1779,1.80375,-2.78892
154,-755,2.18005,2.64502,0,0,0,0,0,0,0,-1,1378,1779,2.18007,-2.64498
161,-755,2.4248,2.70703,0.00632107,0.00832799,-0.00822863,0.0156141,-0.000965056,-0.846072,0.0107456,0.0403032,1385,1779,2.42485,-2.70702
168,-755,2.88293,2.68799,0.00535365,0.00693071,-0.0110364,0.0172067,-0.00492233,-0.821062,0.0134163,0.0418728,1392,1779,2.88295,-2.68799
175,-755,2.91284,2.91577,0,0,0,0,0,0,0,-1,1399,1779,2.91288,-2.91577
182,-755,3.21045,2.8501,0,0,0,0,0,0,0,-1,1406,1779,3.21046,-2.85011
189,-755,3.70813,2.97107,0,0,0,0,0,0,0,-1,1413,1779,3.70812,-2.97107
196,-755,3.49219,2.80969,0,0,0,0,0,0,0,-1,1420,1779,3.49224,-2.80966
203,-755,3.40588,2.6925,0.00239386,0.00497327,-0.0178046,0.0215348,-0.0141677,-0.821553,0.0207586,0.0427215,1427,1779,3.40584,-2.69251
210,-755,3.32434,2.79724,0.000926288,0.0036415,-0.0152618,0.017606,-0.0130382,-0.829759,0.0177578,0.0471331,1434,1779,3.32429,-2.79729
217,-755,1.67737,2.61499,-0.000180771,0.00304112,-0.0119091,0.0134477,-0.0105873,-0.852625,0.0139094,0.0475817,1441,1779,1.67741,-2.61495
224,-755,0.768677,2.02759,0,0,0,0,0,0,0,-1,1448,1779,0.76869,-2.02753
231,-755,1.54602,2.04114,-0.00137031,-0.00216407,-0.00885951,0.0071012,-0.0106356,-0.763015,0.0103079,0.0436857,1455,1779,1.54603,-2.04114
238,-755,1.8396,2.4613,-0.000359959,-0.00372727,-0.00633807,0.00451426,-0.0086015,-0.655575,0.00769397,0.0440379,1462,1779,1.83963,-2.4613
245,-755,1.85876,2.40637,0.00354479,-0.00542275,-0.00194585,0.00394882,-0.00582677,-0.204724,0.00567854,0.044958,1469,1779,1.85871,-2.40636
252,-755,1.93896,2.30017,0.00832436,-0.00662765,0.00187929,0.00855695,-0.00686024,0.123137,0.00891907,0.0455868,1476,1779,1.939,-2.30013
259,-755,1.70996,2.52563,0,0,0,0,0,0,0,-1,1483,1779,1.70994,-2.52561
266,-755,-1.27502,0.885742,0,0,0,0,0,0,0,-1,1490,1779,-1.275,-0.8857
273,-755,-0.402832,0.894653,0,0,0,0,0,0,0,-1,1497,1779,-0.402821,-0.894626
280,-755,0.653198,1.19531,0.0289832,-0.00348315,0.00621203,0.0301312,-0.00463115,0.182741,0.0217958,0.0462546,1504,1779,0.653212,-1.19528
287,-755,1.25842,1.4906,0.0339408,-0.000445879,0.00695947,0.0352959,-0.001801,0.192309,0.0241533,0.0415434,1511,1779,1.25842,-1.49062
294,-755,1.896,1.6897,0.0388758,0.00283249,0.00829947,0.040695,0.00101324,0.215787,0.0267986,0.0440645,1518,1779,1.89594,-1.68967
301,-755,2.8822,2.06299,0.0431322,0.00621697,0.0100422,0.0456871,0.00366201,0.249138,0.0293138,0.04526,1525,1779,2.88216,-2.06303
308,-755,3.61365,2.16248,0,0,0,0,0,0,0,-1,1532,1779,3.61362,-2.16249
315,-755,4.1969,2.64417,0,0,0,0,0,0,0,-1,1539,1779,4.19691,-2.64421
322,-755,0,0,0,0,0,0,0,0,0,-1,1546,1779,0,0
329,-755,0,0,0,0,0,0,0,0,0,-1,1553,1779,0,0
336,-755,0,0,0,0,0,0,0,0,0,-1,1560,1779,0,0
343,-755,0,0,0,0,0,0,0,0,0,-1,1567,1779,0,0
350,-755,0,0,0,0,0,0,0,0,0,-1,1574,1779,0,0
357,-755,0,0,0,0,0,0,0,0,0,-1,1581,1779,0,0
364,-755,0,0,0,0,0,0,0,0,0,-1,1588,1779,0,0
371,-755,0,0,0,0,0,0,0,0,0,-1,1595,1779,0,0
378,-755,0,0,0,0,0,0,0,0,0,-1,1602,1779,0,0
385,-755,0,0,0,0,0,0,0,0,0,-1,1609,1779,0,0
392,-755,0,0,0,0,0,0,0,0,0,-1,1616,1779,0,0
399,-755,0,0,0,0,0,0,0,0,0,-1,1623,1779,0,0
406,-755,0,0,0,0,0,0,0,0,0,-1,1630,1779,0,0
413,-755,0,0,0,0,0,0,0,0,0,-1,1637,1779,0,0
420,-755,0,0,0,0,0,0,0,0,0,-1,1644,1779,0,0
427,-755,0,0,0,0,0,0,0,0,0,-1,1651,1779,0,0
434,-755,0,0,0,0,0,0,0,0,0,-1,1658,1779,0,0
441,-755,0,0,0,0,0,0,0,0,0,-1,1665,1779,0,0
448,-755,0,0,0,0,0,0,0,0,0,-1,1672,1779,0,0
455,-755,0,0,0,0,0,0,0,0,0,-1,1679,1779,0,0
462,-755,0,0,0,0,0,0,0,0,0,-1,1686,1779,0,0
469,-755,0,0,0,0,0,0,0,0,0,-1,1693,1779,0,0
476,-755,0,0,0,0,0,0,0,0,0,-1,1700,1779,0,0
483,-755,0,0,0,0,0,0,0,0,0,-1,1707,1779,0,0
490,-755,0,0,0,0,0,0,0,0,0,-1,1714,1779,0,0
497,-755,0,0,0,0,0,0,0,0,0,-1,1721,1779,0,0
504,-755,0,0,0,0,0,0,0,0,0,-1,1728,1779,0,0
511,-755,0,0,0,0,0,0,0,0,0,-1,1735,1779,0,0
518,-755,0,0,0,0,0,0,0,0,0,-1,1742,1779,0,0
525,-755,0,0,0,0,0,0,0,0,0,-1,1749,1779,0,0
532,-755,0,0,0,0,0,0,0,0,0,-1,1756,1779,0,0
539,-755,0,0,0,0,0,0,0,0,0,-1,1763,1779,0,0
546,-755,0,0,0,0,0,0,0,0,0,-1,1770,1779,0,0
553,-755,0,0,0,0,0,0,0,0,0,-1,1777,1779,0,0
560,-755,0,0,0,0,0,0,0,0,0,-1,1784,1779,0,0
567,-755,0,0,0,0,0,0,0,0,0,-1,1791,1779,0,0
574,-755,0,0,0,0,0,0,0,0,0,-1,1798,1779,0,0
581,-755,0,0,0,0,0,0,0,0,0,-1,1805,1779,0,0
588,-755,0,0,0,0,0,0,0,0,0,-1,1812,1779,0,0
595,-755,0,0,0,0,0,0,0,0,0,-1,1819,1779,0,0
602,-755,0,0,0,0,0,0,0,0,0,-1,1826,1779,0,0
609,-755,0,0,0,0,0,0,0,0,0,-1,1833,1779,0,0
616,-755,0,0,0,0,0,0,0,0,0,-1,1840,1779,0,0
623,-755,0,0,0,0,0,0,0,0,0,-1,1847,1779,0,0
630,-755,0,0,0,0,0,0,0,0,0,-1,1854,1779,0,0
637,-755,0,0,0,0,0,0,0,0,0,-1,1861,1779,0,0
644,-755,0,0,0,0,0,0,0,0,0,-1,1868,1779,0,0
651,-755,0,0,0,0,0,0,0,0,0,-1,1875,1779,0,0
658,-755,0,0,0,0,0,0,0,0,0,-1,1882,1779,0,0
665,-755,0,0,0,0,0,0,0,0,0,-1,1889,1779,0,0
672,-755,0,0,0,0,0,0,0,0,0,-1,1896,1779,0,0
679,-755,0,0,0,0,0,0,0,0,0,-1,1903,1779,0,0
686,-755,0,0,0,0,0,0,0,0,0,-1,1910,1779,0,0
693,-755,0,0,0,0,0,0,0,0,0,-1,1917,1779,0,0
700,-755,0,0,0,0,0,0,0,0,0,-1,1924,1779,0,0
707,-755,0,0,0,0,0,0,0,0,0,-1,1931,1779,0,0
714,-755,0,0,0,0,0,0,0,0,0,-1,1938,1779,0,0
721,-755,0,0,0,0,0,0,0,0,0,-1,1945,1779,0,0
728,-755,0,0,0,0,0,0,0,0,0,-1,1952,1779,0,0
735,-755,0,0,0,0,0,0,0,0,0,-1,1959,1779,0,0
742,-755,0,0,0,0,0,0,0,0,0,-1,1966,1779,0,0
749,-755,0,0,0,0,0,0,0,0,0,-1,1973,1779,0,0
756,-755,0,0,0,0,0,0,0,0,0,-1,1980,1779,0,0
763,-755,0,0,0,0,0,0,0,0,0,-1,1987,1779,0,0
770,-755,0,0,0,0,0,0,0,0,0,-1,1994,1779,0,0
777,-755,0,0,0,0,0,0,0,0,0,-1,2001,1779,0,0
784,-755,0,0,0,0,0,0,0,0,0,-1,2008,1779,0,0
791,-755,0,0,0,0,0,0,0,0,0,-1,2015,1779,0,0
798,-755,0,0,0,0,0,0,0,0,0,-1,2022,1779,0,0
805,-755,0,0,0,0,0,0,0,0,0,-1,2029,1779,0,0
812,-755,0,0,0,0,0,0,0,0,0,-1,2036,1779,0,0
-700,-762,0,0,0,0,0,0,0,0,0,-1,524,1786,0,0
-693,-762,0,0,0,0,0,0,0,0,0,-1,531,1786,0,0
-686,-762,0,0,0,0,0,0,0,0,0,-1,538,1786,0,0
-679,-762,0,0,0,0,0,0,0,0,0,-1,545,1786,0,0
-672,-762,0,0,0,0,0,0,0,0,0,-1,552,1786,0,0
-665,-762,0,0,0,0,0,0,0,0,0,-1,559,1786,0,0
-658,-762,0,0,0,0,0,0,0,0,0,-1,566,1786,0,0
-651,-762,0,0,0,0,0,0,0,0,0,-1,573,1786,0,0
-644,-762,0,0,0,0,0,0,0,0,0,-1,580,1786,0,0
-637,-762,0,0,0,0,0,0,0,0,0,-1,587,1786,0,0
-630,-762,0,0,0,0,0,0,0,0,0,-1,594,1786,0,0
-623,-762,0,0,0,0,0,0,0,0,0,-1,601,1786,0,0
-616,-762,0,0,0,0,0,0,0,0,0,-1,608,1786,0,0
-609,-762,0,0,0,0,0,0,0,0,0,-1,615,1786,0,0
-602,-762,0,0,0,0,0,0,0,0,0,-1,622,1786,0,0
-595,-762,0,0,0,0,0,0,0,0,0,-1,629,1786,0,0
-588,-762,0,0,0,0,0,0,0,0,0,-1,636,1786,0,0
-581,-762,0,0,0,0,0,0,0,0,0,-1,643,1786,0,0
-574,-762,0,0,0,0,0,0,0,0,0,-1,650,1786,0,0
-567,-762,0,0,0,0,0,0,0,0,0,-1,657,1786,0,0
-560,-762,0,0,0,0,0,0,0,0,0,-1,664,1786,0,0
-553,-762,0,0,0,0,0,0,0,0,0,-1,671,1786,0,0
-546,-762,0,0,0,0,0,0,0,0,0,-1,678,1786,0,0
-539,-762,0,0,0,0,0,0,0,0,0,-1,685,1786,0,0
-532,-762,0,0,0,0,0,0,0,0,0,-1,692,1786,0,0
-525,-762,0,0,0,0,0,0,0,0,0,-1,699,1786,0,0
-518,-762,0,0,0,0,0,0,0,0,0,-1,706,1786,0,0
-511,-762,0,0,0,0,0,0,0,0,0,-1,713,1786,0,0
-504,-762,0,0,0,0,0,0,0,0,0,-1,720,1786,0,0
-497,-762,0,0,0,0,0,0,0,0,0,-1,727,1786,0,0
-490,-762,0,0,0,0,0,0,0,0,0,-1,734,1786,0,0
-483,-762,0,0,0,0,0,0,0,0,0,-1,741,1786,0,0
-476,-762,0,0,0,0,0,0,0,0,0,-1,748,1786,0,0
-469,-762,0,0,0,0,0,0,0,0,0,-1,755,1786,0,0
-462,-762,0,0,0,0,0,0,0,0,0,-1,762,1786,0,0
-455,-762,0,0,0,0,0,0,0,0,0,-1,769,1786,0,0
-448,-762,0,0,0,0,0,0,0,0,0,-1,776,1786,0,0
-441,-762,0,0,0,0,0,0,0,0,0,-1,783,1786,0,0
-434,-762,0,0,0,0,0,0,0,0,0,-1,790,1786,0,0
-427,-762,0,0,0,0,0,0,0,0,0,-1,797,1786,0,0
-420,-762,0,0,0,0,0,0,0,0,0,-1,804,1786,0,0
-413,-762,0,0,0,0,0,0,0,0,0,-1,811,1786,0,0
-406,-762,0,0,0,0,0,0,0,0,0,-1,818,1786,0,0
-399,-762,0,0,0,0,0,0,0,0,0,-1,825,1786,0,0
-392,-762,0,0,0,0,0,0,0,0,0,-1,832,1786,0,0
-385,-762,0,0,0,0,0,0,0,0,0,-1,839,1786,0,0
-378,-762,0,0,0,0,0,0,0,0,0,-1,846,1786,0,0
-371,-762,0,0,0,0,0,0,0,0,0,-1,853,1786,0,0
-364,-762,0,0,0,0,0,0,0,0,0,-1,860,1786,0,0
-357,-762,0,0,0,0,0,0,0,0,0,-1,867,1786,0,0
-350,-762,0,0,0,0,0,0,0,0,0,-1,874,1786,0,0
-343,-762,0,0,0,0,0,0,0,0,0,-1,881,1786,0,0
-336,-762,0,0,0,0,0,0,0,0,0,-1,888,1786,0,0
-329,-762,0,0,0,0,0,0,0,0,0,-1,895,1786,0,0
-322,-762,0,0,0,0,0,0,0,0,0,-1,902,1786,0,0
-315,-762,0,0,0,0,0,0,0,0,0,-1,909,1786,0,0
-308,-762,0,0,0,0,0,0,0,0,0,-1,916,1786,0,0
-301,-762,0,0,0,0,0,0,0,0,0,-1,923,1786,0,0
-294,-762,0,0,0,0,0,0,0,0,0,-1,930,1786,0,0
-287,-762,0,0,0,0,0,0,0,0,0,-1,937,1786,0,0
-280,-762,0,0,0,0,0,0,0,0,0,-1,944,1786,0,0
-273,-762,0,0,0,0,0,0,0,0,0,-1,951,1786,0,0
-266,-762,0,0,0,0,0,0,0,0,0,-1,958,1786,0,0
-259,-762,0,0,0,0,0,0,0,0,0,-1,965,1786,0,0
-252,-762,0,0,0,0,0,0,0,0,0,-1,972,1786,0,0
-245,-762,0,0,0,0,0,0,0,0,0,-1,979,1786,0,0
-238,-762,0,0,0,0,0,0,0,0,0,-1,986,1786,0,0
-231,-762,0,0,0,0,0,0,0,0,0,-1,993,1786,0,0
-224,-762,0,0,0,0,0,0,0,0,0,-1,1000,1786,0,0
-217,-762,0,0,0,0,0,0,0,0,0,-1,1007,1786,0,0
-210,-762,0,0,0,0,0,0,0,0,0,-1,1014,1786,0,0
-203,-762,0,0,0,0,0,0,0,0,0,-1,1021,1786,0,0
-196,-762,0,0,0,0,0,0,0,0,0,-1,1028,1786,0,0
-189,-762,0,0,0,0,0,0,0,0,0,-1,1035,1786,0,0
-182,-762,-1.10864,2.14331,0,0,0,0,0,0,0,-1,1042,1786,-1.10866,-2.14332
-175,-762,-0.921143,2.05505,0.0391819,0.0913744,0.0245541,0.10111,0.0294463,1.19332,0.0600481,0.0474908,1049,1786,-0.92111,-2.05511
-168,-762,-0.665405,1.99158,0.0397083,0.0610681,0.0340895,0.0861115,0.0146649,0.9372,0.0531975,0.0489354,1056,1786,-0.665378,-1.99159
-161,-762,-0.220215,2.34607,0.0373167,0.0462392,0.0348231,0.0768856,0.00667025,0.849107,0.0491847,0.0498828,1063,1786,-0.220156,-2.34604
-154,-762,0.0805664,2.51355,0,0,0,0,0,0,0,-1,1070,1786,0.0806079,-2.51354
-147,-762,-0.597046,2.70117,0,0,0,0,0,0,0,-1,1077,1786,-0.596991,-2.70115
-140,-762,-0.685181,2.69238,0,0,0,0,0,0,0,-1,1084,1786,-0.685191,-2.6924
-133,-762,0.758057,2.37524,0,0,0,0,0,0,0,-1,1091,1786,0.758019,-2.37527
-126,-762,0.60376,2.12268,0,0,0,0,0,0,0,-1,1098,1786,0.603809,-2.12269
-119,-762,1.93298,2.70471,0,0,0,0,0,0,0,-1,1105,1786,1.93304,-2.70468
-112,-762,1.88171,2.75977,0.000529521,0.00331729,0.0107284,0.012742,-0.00889516,0.849999,0.0125578,0.0420837,1112,1786,1.88174,-2.75981
-105,-762,1.7915,2.7782,-0.00347518,0.000346455,0.00716094,0.00584714,-0.00897586,0.91578,0.00862138,0.0422732,1119,1786,1.79152,-2.77817
-98,-762,1.77515,2.97534,-0.00694713,-0.00249891,0.00370031,-0.000405734,-0.00904031,1.056,0.00589628,0.0446386,1126,1786,1.7751,-2.97539
-91,-762,1.80579,3.23169,0,0,0,0,0,0,0,-1,1133,1786,1.8058,-3.23168
-84,-762,1.51221,3.35339,-0.0120246,-0.00321145,-0.00654157,0.000269295,-0.0155054,-1.0818,0.0104279,0.0441233,1140,1786,1.51219,-3.35338
-77,-762,1.97571,3.07678,-0.0132887,-0.00132718,-0.012441,0.00649595,-0.0211119,-1.00946,0.0166673,0.0423296,1147,1786,1.97567,-3.07675
-70,-762,1.4635,4.90283,0,0,0,0,0,0,0,-1,1154,1786,1.46349,-4.9028
-63,-762,1.80823,3.66772,-0.0134869,0.00687635,-0.0245062,0.0232318,-0.0298424,-0.982285,0.0307215,0.0477494,1161,1786,1.80822,-3.66772
-56,-762,1.27649,3.59937,-0.0104064,0.0127447,-0.0279459,0.0314175,-0.0290793,-0.981747,0.0349365,0.0459014,1168,1786,1.27647,-3.59937
-49,-762,0.772949,3.33484,0,0,0,0,0,0,0,-1,1175,1786,0.772947,-3.33487
-42,-762,0.591553,2.31531,-0.000161016,0.0266244,-0.029919,0.0460114,-0.0195481,-0.995839,0.0388651,0.0436736,1182,1786,0.591609,-2.31528
-35,-762,0.399536,1.41992,0.00702265,0.0337213,-0.0278745,0.0512781,-0.0105342,-1.00871,0.0381843,0.0463244,1189,1786,0.399587,-1.41989
-28,-762,0.171387,0.000488281,0,0,0,0,0,0,0,-1,1196,1786,0.171354,-0.000457248
-21,-762,1.87939,2.74292,0,0,0,0,0,0,0,-1,1203,1786,1.8794,-2.74297
-14,-762,1.83618,2.72937,0,0,0,0,0,0,0,-1,1210,1786,1.83613,-2.72932
-7,-762,1.84729,2.68018,0,0,0,0,0,0,0,-1,1217,1786,1.84733,-2.68019
0,-762,1.88843,2.7146,0.0406515,0.0607559,0.0155348,0.0692071,0.0322002,1.07256,0.0399888,0.0379537,1224,1786,1.88839,-2.71461
7,-762,1.89197,2.7699,0.0440735,0.0615523,0.025517,0.0797851,0.0258408,0.950384,0.0470068,0.021624,1231,1786,1.89199,-2.76994
14,-762,1.95837,2.79041,0.0462249,0.0607173,0.0355328,0.0897353,0.0172069,0.885984,0.0549926,0.0351299,1238,1786,1.95836,-2.79037
21,-762,1.45532,-1.06091,0,0,0,0,0,0,0,-1,1245,1786,1.45527,1.06093
28,-762,1.91919,2.77625,0.0469984,0.0533161,0.0455166,0.0957834,0.00453113,0.820043,0.0624001,0.040924,1252,1786,1.91922,-2.77628
35,-762,1.96973,2.82202,0.0452717,0.0466905,0.0470301,0.0930165,-0.00105432,0.79294,0.0623654,0.0427063,1259,1786,1.96974,-2.82204
42,-762,1.92847,2.80347,0.0428708,0.0401213,0.0425872,0.0841054,-0.00111331,0.769263,0.056445,0.041489,1266,1786,1.92849,-2.80343
49,-762,1.81934,2.82422,0.0404987,0.0334405,0.0367923,0.0739307,8.46758e-06,0.737584,0.0492843,0.0336589,1273,1786,1.81933,-2.82418
56,-762,1.88013,2.77783,0.0388553,0.0276132,0.0301008,0.0638554,0.00261309,0.693091,0.0417265,0.023504,1280,1786,1.88012,-2.77786
63,-762,1.88831,2.75928,0.0372171,0.0222083,0.0229866,0.0538933,0.00553218,0.627619,0.0342341,0.0215379,1287,1786,1.88825,-2.75928
70,-762,1.87732,2.76416,0.0357128,0.0184331,0.0160898,0.0453357,0.00881018,0.539003,0.0277571,0.0207129,1294,1786,1.87727,-2.76411
77,-762,1.91101,2.77161,0.0341035,0.015659,0.00922821,0.0379277,0.0118348,0.39286,0.0224074,0.0254146,1301,1786,1.91101,-2.77156
84,-762,1.88354,2.73157,0.0319068,0.0132144,0.00382993,0.0326611,0.0124601,0.194457,0.0190326,0.0298966,1308,1786,1.88357,-2.73158
91,-762,1.93213,2.66846,0.0290033,0.0152627,0.000717304,0.0290407,0.0152253,0.0520145,0.0167732,0.0403524,1315,1786,1.93212,-2.66851
98,-762,2.03796,2.71021,0.0262302,0.0159486,-0.0020557,0.0266259,0.0155529,-0.190203,0.0154449,0.0421272,1322,1786,2.03795,-2.71025
105,-762,2.08057,2.80261,0.0230865,0.0175616,-0.00283354,0.0242813,0.0163668,-0.399052,0.0142991,0.0390805,1329,1786,2.08058,-2.80263
112,-762,1.92249,2.72583,0.0198755,0.020521,-0.00258036,0.0227987,0.0175978,-0.847607,0.0137962,0.0430429,1336,1786,1.92252,-2.72589
119,-762,1.76782,2.6969,0.0166633,0.0219662,-0.00226178,0.0227998,0.0158296,-1.21767,0.0134907,0.0425925,1343,1786,1.76779,-2.69691
126,-762,1.38477,2.91541,0.0133603,0.022666,-0.000897355,0.0227518,0.0132746,-1.47554,0.0131966,0.0424239,1350,1786,1.38473,-2.9154
133,-762,1.33167,2.95618,0.0111086,0.0229047,0.000293896,0.022912,0.0111013,1.5459,0.0132303,0.0458007,1357,1786,1.33165,-2.95622
140,-762,1.55347,2.94092,0.00991701,0.0219229,-0.00059708,0.0219526,0.00988738,-1.52123,0.0126951,0.0419614,1364,1786,1.55351,-2.94095
147,-762,1.5907,2.86707,0.00917239,0.0200128,-0.00223633,0.020456,0.00872917,-1.37514,0.0118525,0.0409155,1371,1786,1.59076,-2.86702
154,-762,1.86365,2.71252,0,0,0,0,0,0,0,-1,1378,1786,1.8637,-2.71252
161,-762,3.02112,2.69543,0,0,0,0,0,0,0,-1,1385,1786,3.02106,-2.69548
168,-762,3.71313,2.55261,0,0,0,0,0,0,0,-1,1392,1786,3.71317,-2.55262
175,-762,4.34009,3.09485,0,0,0,0,0,0,0,-1,1399,1786,4.34003,-3.09482
182,-762,4.23389,3.03174,0,0,0,0,0,0,0,-1,1406,1786,4.23385,-3.03177
189,-762,4.02795,2.87671,0.00504055,0.00789712,-0.0187884,0.0253114,-0.0123738,-0.823335,0.0221808,0.0445743,1413,1786,4.02798,-2.87672
196,-762,4.15112,2.68567,0.00487046,0.00480683,-0.0202146,0.0250533,-0.015376,-0.784611,0.0235637,0.0430101,1420,1786,4.15115,-2.68568
203,-762,4.29199,2.56006,0.00402057,0.00646786,-0.0187972,0.0240812,-0.0135928,-0.817901,0.0220302,0.0414036,1427,1786,4.29203,-2.56002
210,-762,4.05652,2.79517,0,0,0,0,0,0,0,-1,1434,1786,4.05647,-2.79516
217,-762,0.467407,2.55676,0,0,0,0,0,0,0,-1,1441,1786,0.467385,-2.55678
224,-762,0.93811,2.23914,0,0,0,0,0,0,0,-1,1448,1786,0.938052,-2.23911
231,-762,1.40723,2.16333,-0.000369241,-0.0040926,-0.00983427,0.00777801,-0.0122399,-0.691852,0.0116526,0.04776,1455,1786,1.40719,-2.1633
238,-762,1.60437,2.27734,-0.000532981,-0.00680297,-0.00758518,0.00453953,-0.0118755,-0.589436,0.0097876,0.0465482,1462,1786,1.60434,-2.27735
245,-762,1.80811,2.4198,0.00222144,-0.0100842,-0.00305988,0.00294031,-0.010803,-0.230748,0.00835638,0.0440968,1469,1786,1.80815,-2.41981
252,-762,1.93958,2.41321,0.00597428,-0.0123688,0.00119189,0.0060514,-0.0124459,0.0646152,0.0108901,0.0433961,1476,1786,1.93958,-2.41322
259,-762,1.87183,2.14502,0.00802055,-0.0154837,0.00470197,0.00892627,-0.0163894,0.190294,0.0148262,0.0455322,1483,1786,1.87184,-2.14505
266,-762,2.0564,1.77856,0,0,0,0,0,0,0,-1,1490,1786,2.05641,-1.77851
273,-762,3.53076,3.62903,0,0,0,0,0,0,0,-1,1497,1786,3.53073,-3.62898
280,-762,3.98828,3.84949,0.0269483,-0.0100848,0.00584733,0.0278496,-0.0109862,0.152939,0.0231157,0.0453811,1504,1786,3.98827,-3.84947
287,-762,0.355469,1.12109,0.0324606,-0.00614161,0.00685509,0.0336418,-0.00732281,0.170634,0.0252257,0.0435332,1511,1786,0.355529,-1.12107
294,-762,1.1178,1.5177,0.0383341,-0.00163515,0.0088856,0.0402205,-0.00352149,0.209186,0.0280612,0.0449209,1518,1786,1.11776,-1.51765
301,-762,2.11646,1.87744,0,0,0,0,0,0,0,-1,1525,1786,2.11644,-1.87747
308,-762,0,0,0,0,0,0,0,0,0,-1,1532,1786,0,0
315,-762,0,0,0,0,0,0,0,0,0,-1,1539,1786,0,0
322,-762,0,0,0,0,0,0,0,0,0,-1,1546,1786,0,0
329,-762,0,0,0,0,0,0,0,0,0,-1,1553,1786,0,0
336,-762,0,0,0,0,0,0,0,0,0,-1,1560,1786,0,0
343,-762,0,0,0,0,0,0,0,0,0,-1,1567,1786,0,0
350,-762,0,0,0,0,0,0,0,0,0,-1,1574,1786,0,0
357,-762,0,0,0,0,0,0,0,0,0,-1,1581,1786,0,0
364,-762,0,0,0,0,0,0,0,0,0,-1,1588,1786,0,0
371,-762,0,0,0,0,0,0,0,0,0,-1,1595,1786,0,0
378,-762,0,0,0,0,0,0,0,0,0,-1,1602,1786,0,0
385,-762,0,0,0,0,0,0,0,0,0,-1,1609,1786,0,0
392,-762,0,0,0,0,0,0,0,0,0,-1,1616,1786,0,0
399,-762,0,0,0,0,0,0,0,0,0,-1,1623,1786,0,0
406,-762,0,0,0,0,0,0,0,0,0,-1,1630,1786,0,0
413,-762,0,0,0,0,0,0,0,0,0,-1,1637,1786,0,0
420,-762,0,0,0,0,0,0,0,0,0,-1,1644,1786,0,0
427,-762,0,0,0,0,0,0,0,0,0,-1,1651,1786,0,0
434,-762,0,0,0,0,0,0,0,0,0,-1,1658,1786,0,0
441,-762,0,0,0,0,0,0,0,0,0,-1,1665,1786,0,0
448,-762,0,0,0,0,0,0,0,0,0,-1,1672,1786,0,0
455,-762,0,0,0,0,0,0,0,0,0,-1,1679,1786,0,0
462,-762,0,0,0,0,0,0,0,0,0,-1,1686,1786,0,0
469,-762,0,0,0,0,0,0,0,0,0,-1,1693,1786,0,0
476,-762,0,0,0,0,0,0,0,0,0,-1,1700,1786,0,0
483,-762,0,0,0,0,0,0,0,0,0,-1,1707,1786,0,0
490,-762,0,0,0,0,0,0,0,0,0,-1,1714,1786,0,0
497,-762,0,0,0,0,0,0,0,0,0,-1,1721,1786,0,0
504,-762,0,0,0,0,0,0,0,0,0,-1,1728,1786,0,0
511,-762,0,0,0,0,0,0,0,0,0,-1,1735,1786,0,0
518,-762,0,0,0,0,0,0,0,0,0,-1,1742,1786,0,0
525,-762,0,0,0,0,0,0,0,0,0,-1,1749,1786,0,0
532,-762,0,0,0,0,0,0,0,0,0,-1,1756,1786,0,0
539,-762,0,0,0,0,0,0,0,0,0,-1,1763,1786,0,0
546,-762,0,0,0,0,0,0,0,0,0,-1,1770,1786,0,0
553,-762,0,0,0,0,0,0,0,0,0,-1,1777,1786,0,0
560,-762,0,0,0,0,0,0,0,0,0,-1,1784,1786,0,0
567,-762,0,0,0,0,0,0,0,0,0,-1,1791,1786,0,0
574,-762,0,0,0,0,0,0,0,0,0,-1,1798,1786,0,0
581,-762,0,0,0,0,0,0,0,0,0,-1,1805,1786,0,0
588,-762,0,0,0,0,0,0,0,0,0,-1,1812,1786,0,0
595,-762,0,0,0,0,0,0,0,0,0,-1,1819,1786,0,0
602,-762,0,0,0,0,0,0,0,0,0,-1,1826,1786,0,0
609,-762,0,0,0,0,0,0,0,0,0,-1,1833,1786,0,0
616,-762,0,0,0,0,0,0,0,0,0,-1,1840,1786,0,0
623,-762,0,0,0,0,0,0,0,0,0,-1,1847,1786,0,0
630,-762,0,0,0,0,0,0,0,0,0,-1,1854,1786,0,0
637,-762,0,0,0,0,0,0,0,0,0,-1,1861,1786,0,0
644,-762,0,0,0,0,0,0,0,0,0,-1,1868,1786,0,0
651,-762,0,0,0,0,0,0,0,0,0,-1,1875,1786,0,0
658,-762,0,0,0,0,0,0,0,0,0,-1,1882,1786,0,0
665,-762,0,0,0,0,0,0,0,0,0,-1,1889,1786,0,0
672,-762,0,0,0,0,0,0,0,0,0,-1,1896,1786,0,0
679,-762,0,0,0,0,0,0,0,0,0,-1,1903,1786,0,0
686,-762,0,0,0,0,0,0,0,0,0,-1,1910,1786,0,0
693,-762,0,0,0,0,0,0,0,0,0,-1,1917,1786,0,0
700,-762,0,0,0,0,0,0,0,0,0,-1,1924,1786,0,0
707,-762,0,0,0,0,0,0,0,0,0,-1,1931,1786,0,0
714,-762,0,0,0,0,0,0,0,0,0,-1,1938,1786,0,0
721,-762,0,0,0,0,0,0,0,0,0,-1,1945,1786,0,0
728,-762,0,0,0,0,0,0,0,0,0,-1,1952,1786,0,0
735,-762,0,0,0,0,0,0,0,0,0,-1,1959,1786,0,0
742,-762,0,0,0,0,0,0,0,0,0,-1,1966,1786,0,0
749,-762,0,0,0,0,0,0,0,0,0,-1,1973,1786,0,0
756,-762,0,0,0,0,0,0,0,0,0,-1,1980,1786,0,0
763,-762,0,0,0,0,0,0,0,0,0,-1,1987,1786,0,0
770,-762,0,0,0,0,0,0,0,0,0,-1,1994,1786,0,0
777,-762,0,0,0,0,0,0,0,0,0,-1,2001,1786,0,0
784,-762,0,0,0,0,0,0,0,0,0,-1,2008,1786,0,0
791,-762,0,0,0,0,0,0,0,0,0,-1,2015,1786,0,0
798,-762,0,0,0,0,0,0,0,0,0,-1,2022,1786,0,0
805,-762,0,0,0,0,0,0,0,0,0,-1,2029,1786,0,0
812,-762,0,0,0,0,0,0,0,0,0,-1,2036,1786,0,0
-700,-769,0,0,0,0,0,0,0,0,0,-1,524,1793,0,0
-693,-769,0,0,0,0,0,0,0,0,0,-1,531,1793,0,0
-686,-769,0,0,0,0,0,0,0,0,0,-1,538,1793,0,0
-679,-769,0,0,0,0,0,0,0,0,0,-1,545,1793,0,0
-672,-769,0,0,0,0,0,0,0,0,0,-1,552,1793,0,0
-665,-769,0,0,0,0,0,0,0,0,0,-1,559,1793,0,0
-658,-769,0,0,0,0,0,0,0,0,0,-1,566,1793,0,0
-651,-769,0,0,0,0,0,0,0,0,0,-1,573,1793,0,0
-644,-769,0,0,0,0,0,0,0,0,0,-1,580,1793,0,0
-637,-769,0,0,0,0,0,0,0,0,0,-1,587,1793,0,0
-630,-769,0,0,0,0,0,0,0,0,0,-1,594,1793,0,0
-623,-769,0,0,0,0,0,0,0,0,0,-1,601,1793,0,0
-616,-769,0,0,0,0,0,0,0,0,0,-1,608,1793,0,0
-609,-769,0,0,0,0,0,0,0,0,0,-1,615,1793,0,0
-602,-769,0,0,0,0,0,0,0,0,0,-1,622,1793,0,0
-595,-769,0,0,0,0,0,0,0,0,0,-1,629,1793,0,0
-588,-769,0,0,0,0,0,0,0,0,0,-1,636,1793,0,0
-581,-769,0,0,0,0,0,0,0,0,0,-1,643,1793,0,0
-574,-769,0,0,0,0,0,0,0,0,0,-1,650,1793,0,0
-567,-769,0,0,0,0,0,0,0,0,0,-1,657,1793,0,0
-560,-769,0,0,0,0,0,0,0,0,0,-1,664,1793,0,0
-553,-769,0,0,0,0,0,0,0,0,0,-1,671,1793,0,0
-546,-769,0,0,0,0,0,0,0,0,0,-1,678,1793,0,0
-539,-769,0,0,0,0,0,0,0,0,0,-1,685,1793,0,0
-532,-769,0,0,0,0,0,0,0,0,0,-1,692,1793,0,0
-525,-769,0,0,0,0,0,0,0,0,0,-1,699,1793,0,0
-518,-769,0,0,0,0,0,0,0,0,0,-1,706,1793,0,0
-511,-769,0,0,0,0,0,0,0,0,0,-1,713,1793,0,0
-504,-769,0,0,0,0,0,0,0,0,0,-1,720,1793,0,0
-497,-769,0,0,0,0,0,0,0,0,0,-1,727,1793,0,0
-490,-769,0,0,0,0,0,0,0,0,0,-1,734,1793,0,0
-483,-769,0,0,0,0,0,0,0,0,0,-1,741,1793,0,0
-476,-769,0,0,0,0,0,0,0,0,0,-1,748,1793,0,0
-469,-769,0,0,0,0,0,0,0,0,0,-1,755,1793,0,0
-462,-769,0,0,0,0,0,0,0,0,0,-1,762,1793,0,0
-455,-769,0,0,0,0,0,0,0,0,0,-1,769,1793,0,0
-448,-769,0,0,0,0,0,0,0,0,0,-1,776,1793,0,0
-441,-769,0,0,0,0,0,0,0,0,0,-1,783,1793,0,0
-434,-769,0,0,0,0,0,0,0,0,0,-1,790,1793,0,0
-427,-769,0,0,0,0,0,0,0,0,0,-1,797,1793,0,0
-420,-769,0,0,0,0,0,0,0,0,0,-1,804,1793,0,0
-413,-769,0,0,0,0,0,0,0,0,0,-1,811,1793,0,0
-406,-769,0,0,0,0,0,0,0,0,0,-1,818,1793,0,0
-399,-769,0,0,0,0,0,0,0,0,0,-1,825,1793,0,0
-392,-769,0,0,0,0,0,0,0,0,0,-1,832,1793,0,0
-385,-769,0,0,0,0,0,0,0,0,0,-1,839,1793,0,0
-378,-769,0,0,0,0,0,0,0,0,0,-1,846,1793,0,0
-371,-769,0,0,0,0,0,0,0,0,0,-1,853,1793,0,0
-364,-769,0,0,0,0,0,0,0,0,0,-1,860,1793,0,0
-357,-769,0,0,0,0,0,0,0,0,0,-1,867,1793,0,0
-350,-769,0,0,0,0,0,0,0,0,0,-1,874,1793,0,0
-343,-769,0,0,0,0,0,0,0,0,0,-1,881,1793,0,0
-336,-769,0,0,0,0,0,0,0,0,0,-1,888,1793,0,0
-329,-769,0,0,0,0,0,0,0,0,0,-1,895,1793,0,0
-322,-769,0,0,0,0,0,0,0,0,0,-1,902,1793,0,0
-315,-769,0,0,0,0,0,0,0,0,0,-1,909,1793,0,0
-308,-769,0,0,0,0,0,0,0,0,0,-1,916,1793,0,0
-301,-769,0,0,0,0,0,0,0,0,0,-1,923,1793,0,0
-294,-769,0,0,0,0,0,0,0,0,0,-1,930,1793,0,0
-287,-769,0,0,0,0,0,0,0,0,0,-1,937,1793,0,0
-280,-769,0,0,0,0,0,0,0,0,0,-1,944,1793,0,0
-273,-769,0,0,0,0,0,0,0,0,0,-1,951,1793,0,0
-266,-769,0,0,0,0,0,0,0,0,0,-1,958,1793,0,0
-259,-769,0,0,0,0,0,0,0,0,0,-1,965,1793,0,0
-252,-769,0,0,0,0,0,0,0,0,0,-1,972,1793,0,0
-245,-769,0,0,0,0,0,0,0,0,0,-1,979,1793,0,0
-238,-769,0,0,0,0,0,0,0,0,0,-1,986,1793,0,0
-231,-769,0,0,0,0,0,0,0,0,0,-1,993,1793,0,0
-224,-769,0,0,0,0,0,0,0,0,0,-1,1000,1793,0,0
-217,-769,0,0,0,0,0,0,0,0,0,-1,1007,1793,0,0
-210,-769,0,0,0,0,0,0,0,0,0,-1,1014,1793,0,0
-203,-769,0,0,0,0,0,0,0,0,0,-1,1021,1793,0,0
-196,-769,0,0,0,0,0,0,0,0,0,-1,1028,1793,0,0
-189,-769,0,0,0,0,0,0,0,0,0,-1,1035,1793,0,0
-182,-769,0,0,0,0,0,0,0,0,0,-1,1042,1793,0,0
-175,-769,0,0,0,0,0,0,0,0,0,-1,1049,1793,0,0
-168,-769,0,0,0,0,0,0,0,0,0,-1,1056,1793,0,0
-161,-769,-0.574097,2.23462,0.0431295,0.043713,0.0420566,0.0854789,0.00136362,0.788866,0.0565369,0.0438746,1063,1793,-0.574125,-2.23465
-154,-769,-0.391724,2.39832,0,0,0,0,0,0,0,-1,1070,1793,-0.391686,-2.39835
-147,-769,-0.465454,2.54297,0,0,0,0,0,0,0,-1,1077,1793,-0.465435,-2.54298
-140,-769,-0.503418,2.64905,0,0,0,0,0,0,0,-1,1084,1793,-0.50346,-2.649
-133,-769,-0.532471,2.73816,0,0,0,0,0,0,0,-1,1091,1793,-0.53251,-2.73817
-126,-769,0.33374,2.11829,0,0,0,0,0,0,0,-1,1098,1793,0.333691,-2.1183
-119,-769,1.67566,2.82813,0,0,0,0,0,0,0,-1,1105,1793,1.67562,-2.82814
-112,-769,1.5033,2.63562,0.00100981,0.00410301,0.0126148,0.0152656,-0.0101528,0.846395,0.014774,0.0428254,1112,1793,1.50335,-2.63568
-105,-769,1.41956,2.56604,-0.00388657,0.00105076,0.00823377,0.00717798,-0.0100138,0.931045,0.00997058,0.0411315,1119,1793,1.4195,-2.56606
-98,-769,1.50647,3.0957,-0.00822563,-0.00195788,0.00338925,-0.000475682,-0.00970784,1.15853,0.0063193,0.0404235,1126,1793,1.50643,-3.09567
-91,-769,1.56555,3.49463,-0.0119044,-0.00296959,-0.00325696,-0.00190839,-0.0129656,-1.25582,0.00808303,0.0450367,1133,1793,1.56549,-3.49464
-84,-769,1.51672,3.62109,-0.0147452,-0.00184054,-0.0105818,0.00410097,-0.0206867,-1.05918,0.0153419,0.0488456,1140,1793,1.5167,-3.62105
-77,-769,2.49866,5.95703,0,0,0,0,0,0,0,-1,1147,1793,2.49869,-5.95701
-70,-769,2.16089,4.854,0,0,0,0,0,0,0,-1,1154,1793,2.16089,-4.85403
-63,-769,1.84436,4.05554,-0.0160049,0.0115984,-0.0339231,0.03442,-0.0388265,-0.978598,0.0423144,0.0456344,1161,1793,1.84439,-4.05553
-56,-769,1.26367,3.70032,-0.0120029,0.0187923,-0.0381249,0.0445115,-0.0377221,-0.977318,0.0475315,0.0472467,1168,1793,1.26363,-3.70035
-49,-769,0.89209,2.97156,-0.00645787,0.0264557,-0.0405446,0.0537561,-0.0337582,-0.978187,0.0509642,0.0489452,1175,1793,0.892053,-2.97161
-42,-769,0.5979,1.86316,0.00119588,0.0358442,-0.0400442,0.0621511,-0.025111,-0.989554,0.0518716,0.04571,1182,1793,0.597843,-1.86317
-35,-769,0.416138,0.692627,0.010693,0.0447977,-0.0369073,0.0684016,-0.0129109,-1.00181,0.0504583,0.0472239,1189,1793,0.416112,-0.69262
-28,-769,0.19751,-0.17334,0.0210753,0.0527557,-0.0295115,0.0704094,0.00342162,-1.0317,0.0458416,0.0454498,1196,1793,0.197541,0.173306
-21,-769,0.215942,-1.22339,0.0314153,0.0630335,-0.0188169,0.0718009,0.0226479,-1.13477,0.0423853,0.0435863,1203,1793,0.215944,1.22335
-14,-769,1.80334,2.74646,0,0,0,0,0,0,0,-1,1210,1793,1.80329,-2.74641
-7,-769,-5.23987,3.53198,0,0,0,0,0,0,0,-1,1217,1793,-5.23989,-3.53193
0,-769,-4.48608,3.87134,0,0,0,0,0,0,0,-1,1224,1793,-4.48612,-3.87137
7,-769,1.92908,2.7832,0,0,0,0,0,0,0,-1,1231,1793,1.92914,-2.78322
14,-769,-0.0817871,-3.07886,0,0,0,0,0,0,0,-1,1238,1793,-0.0817948,3.07884
21,-769,0.296021,-1.97974,0.0644414,0.0741001,0.0538816,0.123368,0.0151732,0.830093,0.0776834,0.0498179,1245,1793,0.295983,1.97979
28,-769,0.639282,-0.897461,0.0638676,0.0678321,0.0579558,0.12384,0.00786023,0.802493,0.0800683,0.0482061,1252,1793,0.639271,0.897455
35,-769,2.03406,2.84412,0,0,0,0,0,0,0,-1,1259,1793,2.03404,-2.84406
42,-769,1.20337,1.71594,0.0586375,0.0506424,0.0542921,0.109079,0.000200879,0.748649,0.0726525,0.0485749,1266,1793,1.20338,-1.71589
49,-769,1.37036,2.94531,0.0554693,0.0420271,0.0469333,0.0961602,0.0013361,0.714279,0.0636661,0.0453947,1273,1793,1.37037,-2.94534
56,-769,1.36755,2.6853,0.0531149,0.0345215,0.038467,0.0833927,0.0042437,0.666831,0.0542359,0.0440875,1280,1793,1.3676,-2.68536
63,-769,1.5144,2.75574,0.0507092,0.0275311,0.0293771,0.0707005,0.00753974,0.597524,0.0448323,0.0453684,1287,1793,1.51438,-2.75573
70,-769,1.91895,2.80005,0.0484872,0.022849,0.0205084,0.0598532,0.0114829,0.506075,0.0366787,0.0460657,1294,1793,1.91898,-2.80009
77,-769,2.22168,3.11267,0.0462424,0.0195838,0.011769,0.0506945,0.0151317,0.361655,0.0300504,0.0440438,1301,1793,2.22166,-3.1127
84,-769,1.86377,2.78687,0.0431499,0.0172144,0.00498173,0.0440739,0.0162904,0.18339,0.0257328,0.0450504,1308,1793,1.86377,-2.78688
91,-769,2.08081,2.2793,0.0391126,0.0207903,0.000986451,0.0391655,0.0207374,0.0536323,0.0226253,0.0480363,1315,1793,2.08085,-2.27931
98,-769,2.44763,2.03491,0.0353308,0.022538,-0.0025443,0.0358183,0.0220506,-0.189292,0.0208632,0.0481546,1322,1793,2.44759,-2.03496
105,-769,3.00427,2.19666,0.030958,0.0254719,-0.00347736,0.032644,0.0237859,-0.45145,0.0194928,0.044155,1329,1793,3.00433,-2.19669
112,-769,0.904663,3.54211,0,0,0,0,0,0,0,-1,1336,1793,0.904606,-3.54217
119,-769,1.19995,3.22034,0.02178,0.0333076,-0.00227312,0.0337397,0.0213479,-1.38297,0.0197071,0.0461053,1343,1793,1.19997,-3.22032
126,-769,1.30811,2.95349,0.0171483,0.035084,-0.000323621,0.0350899,0.0171425,-1.55276,0.0202609,0.0464127,1350,1793,1.30807,-2.95348
133,-769,1.60779,3.12024,0.0138724,0.0359344,0.00140648,0.0360237,0.0137831,1.50739,0.0209885,0.0480241,1357,1793,1.60778,-3.12021
140,-769,1.79504,3.35706,0.0120483,0.0348507,0.00060716,0.0348669,0.0120321,1.54419,0.0204499,0.0446522,1364,1793,1.795,-3.35708
147,-769,1.67212,3.16663,0.0107965,0.0326382,-0.000983956,0.0326825,0.0107522,-1.52587,0.0192336,0.0484886,1371,1793,1.67214,-3.16657
154,-769,1.74182,2.82935,0,0,0,0,0,0,0,-1,1378,1793,1.74179,-2.82929
161,-769,4.42896,1.97754,0,0,0,0,0,0,0,-1,1385,1793,4.42899,-1.97751
168,-769,4.35376,2.02112,0,0,0,0,0,0,0,-1,1392,1793,4.35378,-2.02113
175,-769,4.38757,3.46362,0,0,0,0,0,0,0,-1,1399,1793,4.3876,-3.46364
182,-769,4.27905,3.41467,0,0,0,0,0,0,0,-1,1406,1793,4.279,-3.41467
189,-769,4.35291,2.73877,0.00624192,0.0125009,-0.0186081,0.0282408,-0.00949797,-0.868708,0.0226665,0.0414681,1413,1793,4.3529,-2.73874
196,-769,4.48962,2.72156,0.00651166,0.00652222,-0.0201844,0.0267013,-0.0136674,-0.785529,0.0237084,0.0406282,1420,1793,4.48968,-2.7215
203,-769,5.23206,2.24963,0.00594375,0.00836525,-0.0182544,0.025449,-0.01114,-0.818513,0.0216564,0.0404721,1427,1793,5.232,-2.24958
210,-769,5.55273,1.83643,0,0,0,0,0,0,0,-1,1434,1793,5.55278,-1.83639
217,-769,5.88293,1.66296,0,0,0,0,0,0,0,-1,1441,1793,5.88298,-1.66299
224,-769,1.10742,2.45068,0,0,0,0,0,0,0,-1,1448,1793,1.10741,-2.45068
231,-769,1.54504,2.33118,0,0,0,0,0,0,0,-1,1455,1793,1.54504,-2.33116
238,-769,1.62134,2.34949,0,0,0,0,0,0,0,-1,1462,1793,1.62138,-2.34953
245,-769,1.78918,2.46082,0,0,0,0,0,0,0,-1,1469,1793,1.78922,-2.46086
252,-769,1.77515,2.50195,0.00110575,-0.0208779,0.000107043,0.00110627,-0.0208784,0.00486905,0.014302,0.0441024,1476,1793,1.77513,-2.502
259,-769,1.67664,3.0575,0.00122498,-0.026145,0.00471421,0.0020142,-0.0269342,0.165875,0.0186638,0.0429375,1483,1793,1.67664,-3.05747
266,-769,1.72168,3.67908,0,0,0,0,0,0,0,-1,1490,1793,1.7217,-3.67905
273,-769,2.19788,4.04431,0,0,0,0,0,0,0,-1,1497,1793,2.19792,-4.04433
280,-769,2.59473,4.40845,0,0,0,0,0,0,0,-1,1504,1793,2.59468,-4.4085
287,-769,0,0,0,0,0,0,0,0,0,-1,1511,1793,0,0
294,-769,0,0,0,0,0,0,0,0,0,-1,1518,1793,0,0
301,-769,0,0,0,0,0,0,0,0,0,-1,1525,1793,0,0
308,-769,0,0,0,0,0,0,0,0,0,-1,1532,1793,0,0
315,-769,0,0,0,0,0,0,0,0,0,-1,1539,1793,0,0
322,-769,0,0,0,0,0,0,0,0,0,-1,1546,1793,0,0
329,-769,0,0,0,0,0,0,0,0,0,-1,1553,1793,0,0
336,-769,0,0,0,0,0,0,0,0,0,-1,1560,1793,0,0
343,-769,0,0,0,0,0,0,0,0,0,-1,1567,1793,0,0
350,-769,0,0,0,0,0,0,0,0,0,-1,1574,1793,0,0
357,-769,0,0,0,0,0,0,0,0,0,-1,1581,1793,0,0
364,-769,0,0,0,0,0,0,0,0,0,-1,1588,1793,0,0
371,-769,0,0,0,0,0,0,0,0,0,-1,1595,1793,0,0
378,-769,0,0,0,0,0,0,0,0,0,-1,1602,1793,0,0
385,-769,0,0,0,0,0,0,0,0,0,-1,1609,1793,0,0
392,-769,0,0,0,0,0,0,0,0,0,-1,1616,1793,0,0
399,-769,0,0,0,0,0,0,0,0,0,-1,1623,1793,0,0
406,-769,0,0,0,0,0,0,0,0,0,-1,1630,1793,0,0
413,-769,0,0,0,0,0,0,0,0,0,-1,1637,1793,0,0
420,-769,0,0,0,0,0,0,0,0,0,-1,1644,1793,0,0
427,-769,0,0,0,0,0,0,0,0,0,-1,1651,1793,0,0
434,-769,0,0,0,0,0,0,0,0,0,-1,1658,1793,0,0
441,-769,0,0,0,0,0,0,0,0,0,-1,1665,1793,0,0
448,-769,0,0,0,0,0,0,0,0,0,-1,1672,1793,0,0
455,-769,0,0,0,0,0,0,0,0,0,-1,1679,1793,0,0
462,-769,0,0,0,0,0,0,0,0,0,-1,1686,1793,0,0
469,-769,0,0,0,0,0,0,0,0,0,-1,1693,1793,0,0
476,-769,0,0,0,0,0,0,0,0,0,-1,1700,1793,0,0
483,-769,0,0,0,0,0,0,0,0,0,-1,1707,1793,0,0
490,-769,0,0,0,0,0,0,0,0,0,-1,1714,1793,0,0
497,-769,0,0,0,0,0,0,0,0,0,-1,1721,1793,0,0
504,-769,0,0,0,0,0,0,0,0,0,-1,1728,1793,0,0
511,-769,0,0,0,0,0,0,0,0,0,-1,1735,1793,0,0
518,-769,0,0,0,0,0,0,0,0,0,-1,1742,1793,0,0
525,-769,0,0,0,0,0,0,0,0,0,-1,1749,1793,0,0
532,-769,0,0,0,0,0,0,0,0,0,-1,1756,1793,0,0
539,-769,0,0,0,0,0,0,0,0,0,-1,1763,1793,0,0
546,-769,0,0,0,0,0,0,0,0,0,-1,1770,1793,0,0
553,-769,0,0,0,0,0,0,0,0,0,-1,1777,1793,0,0
560,-769,0,0,0,0,0,0,0,0,0,-1,1784,1793,0,0
567,-769,0,0,0,0,0,0,0,0,0,-1,1791,1793,0,0
574,-769,0,0,0,0,0,0,0,0,0,-1,1798,1793,0,0
581,-769,0,0,0,0,0,0,0,0,0,-1,1805,1793,0,0
588,-769,0,0,0,0,0,0,0,0,0,-1,1812,1793,0,0
595,-769,0,0,0,0,0,0,0,0,0,-1,1819,1793,0,0
602,-769,0,0,0,0,0,0,0,0,0,-1,1826,1793,0,0
609,-769,0,0,0,0,0,0,0,0,0,-1,1833,1793,0,0
616,-769,0,0,0,0,0,0,0,0,0,-1,1840,1793,0,0
623,-769,0,0,0,0,0,0,0,0,0,-1,1847,1793,0,0
630,-769,0,0,0,0,0,0,0,0,0,-1,1854,1793,0,0
637,-769,0,0,0,0,0,0,0,0,0,-1,1861,1793,0,0
644,-769,0,0,0,0,0,0,0,0,0,-1,1868,1793,0,0
651,-769,0,0,0,0,0,0,0,0,0,-1,1875,1793,0,0
658,-769,0,0,0,0,0,0,0,0,0,-1,1882,1793,0,0
665,-769,0,0,0,0,0,0,0,0,0,-1,1889,1793,0,0
672,-769,0,0,0,0,0,0,0,0,0,-1,1896,1793,0,0
679,-769,0,0,0,0,0,0,0,0,0,-1,1903,1793,0,0
686,-769,0,0,0,0,0,0,0,0,0,-1,1910,1793,0,0
693,-769,0,0,0,0,0,0,0,0,0,-1,1917,1793,0,0
700,-769,0,0,0,0,0,0,0,0,0,-1,1924,1793,0,0
707,-769,0,0,0,0,0,0,0,0,0,-1,1931,1793,0,0
714,-769,0,0,0,0,0,0,0,0,0,-1,1938,1793,0,0
721,-769,0,0,0,0,0,0,0,0,0,-1,1945,1793,0,0
728,-769,0,0,0,0,0,0,0,0,0,-1,1952,1793,0,0
735,-769,0,0,0,0,0,0,0,0,0,-1,1959,1793,0,0
742,-769,0,0,0,0,0,0,0,0,0,-1,1966,1793,0,0
749,-769,0,0,0,0,0,0,0,0,0,-1,1973,1793,0,0
756,-769,0,0,0,0,0,0,0,0,0,-1,1980,1793,0,0
763,-769,0,0,0,0,0,0,0,0,0,-1,1987,1793,0,0
770,-769,0,0,0,0,0,0,0,0,0,-1,1994,1793,0,0
777,-769,0,0,0,0,0,0,0,0,0,-1,2001,1793,0,0
784,-769,0,0,0,0,0,0,0,0,0,-1,2008,1793,0,0
791,-769,0,0,0,0,0,0,0,0,0,-1,2015,1793,0,0
798,-769,0,0,0,0,0,0,0,0,0,-1,2022,1793,0,0
805,-769,0,0,0,0,0,0,0,0,0,-1,2029,1793,0,0
812,-769,0,0,0,0,0,0,0,0,0,-1,2036,1793,0,0
-700,-776,0,0,0,0,0,0,0,0,0,-1,524,1800,0,0
-693,-776,0,0,0,0,0,0,0,0,0,-1,531,1800,0,0
-686,-776,0,0,0,0,0,0,0,0,0,-1,538,1800,0,0
-679,-776,0,0,0,0,0,0,0,0,0,-1,545,1800,0,0
-672,-776,0,0,0,0,0,0,0,0,0,-1,552,1800,0,0
-665,-776,0,0,0,0,0,0,0,0,0,-1,559,1800,0,0
-658,-776,0,0,0,0,0,0,0,0,0,-1,566,1800,0,0
-651,-776,0,0,0,0,0,0,0,0,0,-1,573,1800,0,0
-644,-776,0,0,0,0,0,0,0,0,0,-1,580,1800,0,0
-637,-776,0,0,0,0,0,0,0,0,0,-1,587,1800,0,0
-630,-776,0,0,0,0,0,0,0,0,0,-1,594,1800,0,0
-623,-776,0,0,0,0,0,0,0,0,0,-1,601,1800,0,0
-616,-776,0,0,0,0,0,0,0,0,0,-1,608,1800,0,0
-609,-776,0,0,0,0,0,0,0,0,0,-1,615,1800,0,0
-602,-776,0,0,0,0,0,0,0,0,0,-1,622,1800,0,0
-595,-776,0,0,0,0,0,0,0,0,0,-1,629,1800,0,0
-588,-776,0,0,0,0,0,0,0,0,0,-1,636,1800,0,0
-581,-776,0,0,0,0,0,0,0,0,0,-1,643,1800,0,0
-574,-776,0,0,0,0,0,0,0,0,0,-1,650,1800,0,0
-567,-776,0,0,0,0,0,0,0,0,0,-1,657,1800,0,0
-560,-776,0,0,0,0,0,0,0,0,0,-1,664,1800,0,0
-553,-776,0,0,0,0,0,0,0,0,0,-1,671,1800,0,0
-546,-776,0,0,0,0,0,0,0,0,0,-1,678,1800,0,0
-539,-776,0,0,0,0,0,0,0,0,0,-1,685,1800,0,0
-532,-776,0,0,0,0,0,0,0,0,0,-1,692,1800,0,0
-525,-776,0,0,0,0,0,0,0,0,0,-1,699,1800,0,0
-518,-776,0,0,0,0,0,0,0,0,0,-1,706,1800,0,0
-511,-776,0,0,0,0,0,0,0,0,0,-1,713,1800,0,0
-504,-776,0,0,0,0,0,0,0,0,0,-1,720,1800,0,0
-497,-776,0,0,0,0,0,0,0,0,0,-1,727,1800,0,0
-490,-776,0,0,0,0,0,0,0,0,0,-1,734,1800,0,0
-483,-776,0,0,0,0,0,0,0,0,0,-1,741,1800,0,0
-476,-776,0,0,0,0,0,0,0,0,0,-1,748,1800,0,0
-469,-776,0,0,0,0,0,0,0,0,0,-1,755,1800,0,0
-462,-776,0,0,0,0,0,0,0,0,0,-1,762,1800,0,0
-455,-776,0,0,0,0,0,0,0,0,0,-1,769,1800,0,0
-448,-776,0,0,0,0,0,0,0,0,0,-1,776,1800,0,0
-441,-776,0,0,0,0,0,0,0,0,0,-1,783,1800,0,0
-434,-776,0,0,0,0,0,0,0,0,0,-1,790,1800,0,0
-427,-776,0,0,0,0,0,0,0,0,0,-1,797,1800,0,0
-420,-776,0,0,0,0,0,0,0,0,0,-1,804,1800,0,0
-413,-776,0,0,0,0,0,0,0,0,0,-1,811,1800,0,0
-406,-776,0,0,0,0,0,0,0,0,0,-1,818,1800,0,0
-399,-776,0,0,0,0,0,0,0,0,0,-1,825,1800,0,0
-392,-776,0,0,0,0,0,0,0,0,0,-1,832,1800,0,0
-385,-776,0,0,0,0,0,0,0,0,0,-1,839,1800,0,0
-378,-776,0,0,0,0,0,0,0,0,0,-1,846,1800,0,0
-371,-776,0,0,0,0,0,0,0,0,0,-1,853,1800,0,0
-364,-776,0,0,0,0,0,0,0,0,0,-1,860,1800,0,0
-357,-776,0,0,0,0,0,0,0,0,0,-1,867,1800,0,0
-350,-776,0,0,0,0,0,0,0,0,0,-1,874,1800,0,0
-343,-776,0,0,0,0,0,0,0,0,0,-1,881,1800,0,0
-336,-776,0,0,0,0,0,0,0,0,0,-1,888,1800,0,0
-329,-776,0,0,0,0,0,0,0,0,0,-1,895,1800,0,0
-322,-776,0,0,0,0,0,0,0,0,0,-1,902,1800,0,0
-315,-776,0,0,0,0,0,0,0,0,0,-1,909,1800,0,0
-308,-776,0,0,0,0,0,0,0,0,0,-1,916,1800,0,0
-301,-776,0,0,0,0,0,0,0,0,0,-1,923,1800,0,0
-294,-776,0,0,0,0,0,0,0,0,0,-1,930,1800,0,0
-287,-776,0,0,0,0,0,0,0,0,0,-1,937,1800,0,0
-280,-776,0,0,0,0,0,0,0,0,0,-1,944,1800,0,0
-273,-776,0,0,0,0,0,0,0,0,0,-1,951,1800,0,0
-266,-776,0,0,0,0,0,0,0,0,0,-1,958,1800,0,0
-259,-776,0,0,0,0,0,0,0,0,0,-1,965,1800,0,0
-252,-776,0,0,0,0,0,0,0,0,0,-1,972,1800,0,0
-245,-776,0,0,0,0,0,0,0,0,0,-1,979,1800,0,0
-238,-776,0,0,0,0,0,0,0,0,0,-1,986,1800,0,0
-231,-776,0,0,0,0,0,0,0,0,0,-1,993,1800,0,0
-224,-776,0,0,0,0,0,0,0,0,0,-1,1000,1800,0,0
-217,-776,0,0,0,0,0,0,0,0,0,-1,1007,1800,0,0
-210,-776,0,0,0,0,0,0,0,0,0,-1,1014,1800,0,0
-203,-776,0,0,0,0,0,0,0,0,0,-1,1021,1800,0,0
-196,-776,0,0,0,0,0,0,0,0,0,-1,1028,1800,0,0
-189,-776,0,0,0,0,0,0,0,0,0,-1,1035,1800,0,0
-182,-776,0,0,0,0,0,0,0,0,0,-1,1042,1800,0,0
-175,-776,0,0,0,0,0,0,0,0,0,-1,1049,1800,0,0
-168,-776,0,0,0,0,0,0,0,0,0,-1,1056,1800,0,0
-161,-776,0,0,0,0,0,0,0,0,0,-1,1063,1800,0,0
-154,-776,0,0,0,0,0,0,0,0,0,-1,1070,1800,0,0
-147,-776,0,0,0,0,0,0,0,0,0,-1,1077,1800,0,0
-140,-776,-0.311035,2.51929,0,0,0,0,0,0,0,-1,1084,1800,-0.311045,-2.51931
-133,-776,-0.273315,2.47607,0,0,0,0,0,0,0,-1,1091,1800,-0.273264,-2.47611
-126,-776,-0.0484619,2.24536,0,0,0,0,0,0,0,-1,1098,1800,-0.0484455,-2.24533
-119,-776,1.35132,2.92969,0,0,0,0,0,0,0,-1,1105,1800,1.35136,-2.92968
-112,-776,1.16003,2.65979,0.0014897,0.00527277,0.0140713,0.0175791,-0.0108166,0.85221,0.0165485,0.0468219,1112,1800,1.16008,-2.65977
-105,-776,1.03516,2.38721,-0.00432975,0.00225683,0.0088375,0.00839473,-0.0104676,0.963752,0.0109121,0.0465136,1119,1800,1.03511,-2.38721
-98,-776,1.67786,3.28516,-0.00974064,-0.000745005,0.00218401,-0.000242798,-0.0102428,1.34478,0.00674909,0.0388837,1126,1800,1.67789,-3.28512
-91,-776,1.55298,3.40747,-0.0143826,-0.000877424,-0.00664999,0.00184732,-0.0171073,-1.18192,0.0120679,0.0439277,1133,1800,1.553,-3.40753
-84,-776,1.51355,3.17725,-0.0177082,0.000765531,-0.0161924,0.0101704,-0.0271131,-1.0446,0.0222541,0.0475231,1140,1800,1.51361,-3.17725
-77,-776,0.761719,3.12805,-0.0192953,0.00486039,-0.0263711,0.0217879,-0.0362228,-1.00014,0.0338363,0.0430679,1147,1800,0.761703,-3.12808
-70,-776,2.85828,4.8053,0,0,0,0,0,0,0,-1,1154,1800,2.85829,-4.80527
-63,-776,2.45752,3.91907,0,0,0,0,0,0,0,-1,1161,1800,2.45747,-3.91907
-56,-776,1.45825,3.77808,-0.0133945,0.0261381,-0.0500146,0.0601507,-0.047407,-0.973584,0.0622436,0.0464709,1168,1800,1.4582,-3.77813
-49,-776,0.824097,3.14734,-0.00664262,0.0351246,-0.0528581,0.0710749,-0.042593,-0.973531,0.0663094,0.0479868,1175,1800,0.824045,-3.14736
-42,-776,0.530273,1.68994,0.00295615,0.0463323,-0.0517725,0.080776,-0.0314875,-0.983749,0.0668652,0.0443529,1182,1800,0.530265,-1.6899
-35,-776,0.393555,0.574707,0.015139,0.057308,-0.0472252,0.0879417,-0.0154947,-0.995354,0.0644169,0.0472749,1189,1800,0.393604,-0.574693
-28,-776,0.350342,-0.349243,0.0285477,0.0669262,-0.037582,0.0899344,0.00553943,-1.02144,0.0581978,0.0476801,1196,1800,0.350375,0.349304
-21,-776,0.272217,-2.24915,0.0420129,0.078926,-0.024036,0.0907741,0.0301648,-1.11282,0.0533819,0.0445602,1203,1800,0.27216,2.24914
-14,-776,-7.64856,2.19287,0,0,0,0,0,0,0,-1,1210,1800,-7.64857,-2.19286
-7,-776,-6.4541,2.71436,0.063681,0.0909502,0.00885602,0.0935739,0.0610573,1.28278,0.0548562,0.0485404,1217,1800,-6.45405,-2.71433
0,-776,-5.41406,2.93909,0.0709787,0.095223,0.0243538,0.110305,0.0558969,1.01632,0.0636864,0.0485639,1224,1800,-5.4141,-2.93904
7,-776,-1.55054,-4.99512,0,0,0,0,0,0,0,-1,1231,1800,-1.55051,4.9951
14,-776,-1.19946,-3.88477,0,0,0,0,0,0,0,-1,1238,1800,-1.19948,3.88473
21,-776,-0.866577,-2.69861,0.0844082,0.0914154,0.0662385,0.154243,0.0215807,0.81182,0.0964432,0.0464997,1245,1800,-0.866554,2.69865
28,-776,-0.72583,-1.31213,0.0840205,0.0833543,0.0711289,0.154817,0.0125578,0.783057,0.0992905,0.04503,1252,1800,-0.725844,1.31211
35,-776,-0.271118,-0.117554,0.0819977,0.073008,0.0739789,0.151618,0.00338759,0.755056,0.0999687,0.0467784,1259,1800,-0.271092,0.117561
42,-776,0.118896,0.830811,0.077746,0.0617566,0.0665614,0.136791,0.00271144,0.725629,0.0903038,0.0448814,1266,1800,0.118905,-0.830811
49,-776,0.463501,1.84363,0.0736909,0.0510858,0.0575682,0.121056,0.00372108,0.688465,0.0794925,0.0427188,1273,1800,0.463474,-1.84358
56,-776,0.863892,2.96436,0.070444,0.0417861,0.0472811,0.10552,0.00671042,0.638268,0.0682198,0.0428666,1280,1800,0.86387,-2.96432
63,-776,1.20874,2.73071,0,0,0,0,0,0,0,-1,1287,1800,1.20877,-2.73069
70,-776,1.89185,2.78296,0,0,0,0,0,0,0,-1,1294,1800,1.89185,-2.78301
77,-776,2.68579,3.25391,0,0,0,0,0,0,0,-1,1301,1800,2.68583,-3.25393
84,-776,1.99182,2.75732,0,0,0,0,0,0,0,-1,1308,1800,1.99178,-2.75729
91,-776,2.15857,2.1748,0,0,0,0,0,0,0,-1,1315,1800,2.15858,-2.17482
98,-776,2.53125,1.73962,0.0461033,0.030991,-0.00302815,0.0466875,0.0304068,-0.190578,0.0273632,0.0464671,1322,1800,2.53126,-1.73964
105,-776,3.20654,1.76733,0.0402232,0.0358281,-0.00409815,0.0426758,0.0333755,-0.539293,0.0259129,0.0439178,1329,1800,3.20652,-1.76734
112,-776,3.90503,1.54321,0,0,0,0,0,0,0,-1,1336,1800,3.90502,-1.54316
119,-776,1.24939,3.20386,0,0,0,0,0,0,0,-1,1343,1800,1.24937,-3.20385
126,-776,1.604,2.95081,0,0,0,0,0,0,0,-1,1350,1800,1.60396,-2.9508
133,-776,2.31079,3.72046,0.016938,0.0539508,0.00296684,0.0541871,0.0167017,1.49132,0.0320428,0.0457854,1357,1800,2.31076,-3.72051
140,-776,2.13281,4.19653,0.0143716,0.0528612,0.00232005,0.0530005,0.0142323,1.51081,0.031674,0.0480297,1364,1800,2.13285,-4.19654
147,-776,2.01086,4.46265,0,0,0,0,0,0,0,-1,1371,1800,2.01088,-4.46266
154,-776,3.41711,0.919434,0,0,0,0,0,0,0,-1,1378,1800,3.41707,-0.919446
161,-776,4.34656,2.37183,0,0,0,0,0,0,0,-1,1385,1800,4.34662,-2.37187
168,-776,4.30615,2.41382,0.00770975,0.0359532,-0.00803395,0.0380786,0.0055844,-1.31218,0.0237442,0.0473828,1392,1800,4.3062,-2.41383
175,-776,4.28528,2.51074,0.00727601,0.0295523,-0.0113795,0.0343374,0.00249086,-1.17274,0.0221082,0.0483501,1399,1800,4.2853,-2.51079
182,-776,4.37781,2.63452,0.00719603,0.024263,-0.0137319,0.0318969,-0.000437943,-1.06341,0.0214121,0.0432464,1406,1800,4.3778,-2.63447
189,-776,4.45056,2.65894,0.00735861,0.0191158,-0.0169581,0.0311854,-0.00471093,-0.952244,0.0225254,0.0406187,1413,1800,4.45058,-2.65895
196,-776,5.71228,2.22266,0,0,0,0,0,0,0,-1,1420,1800,5.71233,-2.22268
203,-776,6.08081,1.82361,0,0,0,0,0,0,0,-1,1427,1800,6.08082,-1.82357
210,-776,6.44934,1.42444,0,0,0,0,0,0,0,-1,1434,1800,6.44931,-1.42447
217,-776,0.169312,2.11133,0,0,0,0,0,0,0,-1,1441,1800,0.169269,-2.11135
224,-776,-0.208252,1.797,0,0,0,0,0,0,0,-1,1448,1800,-0.208209,-1.79702
231,-776,-0.585083,1.62012,0,0,0,0,0,0,0,-1,1455,1800,-0.585061,-1.62016
238,-776,2.34814,1.38208,0,0,0,0,0,0,0,-1,1462,1800,2.34812,-1.38211
245,-776,1.96838,2.48889,0,0,0,0,0,0,0,-1,1469,1800,1.96839,-2.48885
252,-776,1.54956,2.34631,0,0,0,0,0,0,0,-1,1476,1800,1.54953,-2.3463
259,-776,1.13062,2.20374,0,0,0,0,0,0,0,-1,1483,1800,1.13067,-2.20375
266,-776,0,0,0,0,0,0,0,0,0,-1,1490,1800,0,0
273,-776,0,0,0,0,0,0,0,0,0,-1,1497,1800,0,0
280,-776,0,0,0,0,0,0,0,0,0,-1,1504,1800,0,0
287,-776,0,0,0,0,0,0,0,0,0,-1,1511,1800,0,0
294,-776,0,0,0,0,0,0,0,0,0,-1,1518,1800,0,0
301,-776,0,0,0,0,0,0,0,0,0,-1,1525,1800,0,0
308,-776,0,0,0,0,0,0,0,0,0,-1,1532,1800,0,0
315,-776,0,0,0,0,0,0,0,0,0,-1,1539,1800,0,0
322,-776,0,0,0,0,0,0,0,0,0,-1,1546,1800,0,0
329,-776,0,0,0,0,0,0,0,0,0,-1,1553,1800,0,0
336,-776,0,0,0,0,0,0,0,0,0,-1,1560,1800,0,0
343,-776,0,0,0,0,0,0,0,0,0,-1,1567,1800,0,0
350,-776,0,0,0,0,0,0,0,0,0,-1,1574,1800,0,0
357,-776,0,0,0,0,0,0,0,0,0,-1,1581,1800,0,0
364,-776,0,0,0,0,0,0,0,0,0,-1,1588,1800,0,0
371,-776,0,0,0,0,0,0,0,0,0,-1,1595,1800,0,0
378,-776,0,0,0,0,0,0,0,0,0,-1,1602,1800,0,0
385,-776,0,0,0,0,0,0,0,0,0,-1,1609,1800,0,0
392,-776,0,0,0,0,0,0,0,0,0,-1,1616,1800,0,0
399,-776,0,0,0,0,0,0,0,0,0,-1,1623,1800,0,0
406,-776,0,0,0,0,0,0,0,0,0,-1,1630,1800,0,0
413,-776,0,0,0,0,0,0,0,0,0,-1,1637,1800,0,0
420,-776,0,0,0,0,0,0,0,0,0,-1,1644,1800,0,0
427,-776,0,0,0,0,0,0,0,0,0,-1,1651,1800,0,0
434,-776,0,0,0,0,0,0,0,0,0,-1,1658,1800,0,0
441,-776,0,0,0,0,0,0,0,0,0,-1,1665,1800,0,0
448,-776,0,0,0,0,0,0,0,0,0,-1,1672,1800,0,0
455,-776,0,0,0,0,0,0,0,0,0,-1,1679,1800,0,0
462,-776,0,0,0,0,0,0,0,0,0,-1,1686,1800,0,0
469,-776,0,0,0,0,0,0,0,0,0,-1,1693,1800,0,0
476,-776,0,0,0,0,0,0,0,0,0,-1,1700,1800,0,0
483,-776,0,0,0,0,0,0,0,0,0,-1,1707,1800,0,0
490,-776,0,0,0,0,0,0,0,0,0,-1,1714,1800,0,0
497,-776,0,0,0,0,0,0,0,0,0,-1,1721,1800,0,0
504,-776,0,0,0,0,0,0,0,0,0,-1,1728,1800,0,0
511,-776,0,0,0,0,0,0,0,0,0,-1,1735,1800,0,0
518,-776,0,0,0,0,0,0,0,0,0,-1,1742,1800,0,0
525,-776,0,0,0,0,0,0,0,0,0,-1,1749,1800,0,0
532,-776,0,0,0,0,0,0,0,0,0,-1,1756,1800,0,0
539,-776,0,0,0,0,0,0,0,0,0,-1,1763,1800,0,0
546,-776,0,0,0,0,0,0,0,0,0,-1,1770,1800,0,0
553,-776,0,0,0,0,0,0,0,0,0,-1,1777,1800,0,0
560,-776,0,0,0,0,0,0,0,0,0,-1,1784,1800,0,0
567,-776,0,0,0,0,0,0,0,0,0,-1,1791,1800,0,0
574,-776,0,0,0,0,0,0,0,0,0,-1,1798,1800,0,0
581,-776,0,0,0,0,0,0,0,0,0,-1,1805,1800,0,0
588,-776,0,0,0,0,0,0,0,0,0,-1,1812,1800,0,0
595,-776,0,0,0,0,0,0,0,0,0,-1,1819,1800,0,0
602,-776,0,0,0,0,0,0,0,0,0,-1,1826,1800,0,0
609,-776,0,0,0,0,0,0,0,0,0,-1,1833,1800,0,0
616,-776,0,0,0,0,0,0,0,0,0,-1,1840,1800,0,0
623,-776,0,0,0,0,0,0,0,0,0,-1,1847,1800,0,0
630,-776,0,0,0,0,0,0,0,0,0,-1,1854,1800,0,0
637,-776,0,0,0,0,0,0,0,0,0,-1,1861,1800,0,0
644,-776,0,0,0,0,0,0,0,0,0,-1,1868,1800,0,0
651,-776,0,0,0,0,0,0,0,0,0,-1,1875,1800,0,0
658,-776,0,0,0,0,0,0,0,0,0,-1,1882,1800,0,0
665,-776,0,0,0,0,0,0,0,0,0,-1,1889,1800,0,0
672,-776,0,0,0,0,0,0,0,0,0,-1,1896,1800,0,0
679,-776,0,0,0,0,0,0,0,0,0,-1,1903,1800,0,0
686,-776,0,0,0,0,0,0,0,0,0,-1,1910,1800,0,0
693,-776,0,0,0,0,0,0,0,0,0,-1,1917,1800,0,0
700,-776,0,0,0,0,0,0,0,0,0,-1,1924,1800,0,0
707,-776,0,0,0,0,0,0,0,0,0,-1,1931,1800,0,0
714,-776,0,0,0,0,0,0,0,0,0,-1,1938,1800,0,0
721,-776,0,0,0,0,0,0,0,0,0,-1,1945,1800,0,0
728,-776,0,0,0,0,0,0,0,0,0,-1,1952,1800,0,0
735,-776,0,0,0,0,0,0,0,0,0,-1,1959,1800,0,0
742,-776,0,0,0,0,0,0,0,0,0,-1,1966,1800,0,0
749,-776,0,0,0,0,0,0,0,0,0,-1,1973,1800,0,0
756,-776,0,0,0,0,0,0,0,0,0,-1,1980,1800,0,0
763,-776,0,0,0,0,0,0,0,0,0,-1,1987,1800,0,0
770,-776,0,0,0,0,0,0,0,0,0,-1,1994,1800,0,0
777,-776,0,0,0,0,0,0,0,0,0,-1,2001,1800,0,0
784,-776,0,0,0,0,0,0,0,0,0,-1,2008,1800,0,0
791,-776,0,0,0,0,0,0,0,0,0,-1,2015,1800,0,0
798,-776,0,0,0,0,0,0,0,0,0,-1,2022,1800,0,0
805,-776,0,0,0,0,0,0,0,0,0,-1,2029,1800,0,0
812,-776,0,0,0,0,0,0,0,0,0,-1,2036,1800,0,0
-700,-783,0,0,0,0,0,0,0,0,0,-1,524,1807,0,0
-693,-783,0,0,0,0,0,0,0,0,0,-1,531,1807,0,0
-686,-783,0,0,0,0,0,0,0,0,0,-1,538,1807,0,0
-679,-783,0,0,0,0,0,0,0,0,0,-1,545,1807,0,0
-672,-783,0,0,0,0,0,0,0,0,0,-1,552,1807,0,0
-665,-783,0,0,0,0,0,0,0,0,0,-1,559,1807,0,0
-658,-783,0,0,0,0,0,0,0,0,0,-1,566,1807,0,0
-651,-783,0,0,0,0,0,0,0,0,0,-1,573,1807,0,0
-644,-783,0,0,0,0,0,0,0,0,0,-1,580,1807,0,0
-637,-783,0,0,0,0,0,0,0,0,0,-1,587,1807,0,0
-630,-783,0,0,0,0,0,0,0,0,0,-1,594,1807,0,0
-623,-783,0,0,0,0,0,0,0,0,0,-1,601,1807,0,0
-616,-783,0,0,0,0,0,0,0,0,0,-1,608,1807,0,0
-609,-783,0,0,0,0,0,0,0,0,0,-1,615,1807,0,0
-602,-783,0,0,0,0,0,0,0,0,0,-1,622,1807,0,0
-595,-783,0,0,0,0,0,0,0,0,0,-1,629,1807,0,0
-588,-783,0,0,0,0,0,0,0,0,0,-1,636,1807,0,0
-581,-783,0,0,0,0,0,0,0,0,0,-1,643,1807,0,0
-574,-783,0,0,0,0,0,0,0,0,0,-1,650,1807,0,0
-567,-783,0,0,0,0,0,0,0,0,0,-1,657,1807,0,0
-560,-783,0,0,0,0,0,0,0,0,0,-1,664,1807,0,0
-553,-783,0,0,0,0,0,0,0,0,0,-1,671,1807,0,0
-546,-783,0,0,0,0,0,0,0,0,0,-1,678,1807,0,0
-539,-783,0,0,0,0,0,0,0,0,0,-1,685,1807,0,0
-532,-783,0,0,0,0,0,0,0,0,0,-1,692,1807,0,0
-525,-783,0,0,0,0,0,0,0,0,0,-1,699,1807,0,0
-518,-783,0,0,0,0,0,0,0,0,0,-1,706,1807,0,0
-511,-783,0,0,0,0,0,0,0,0,0,-1,713,1807,0,0
-504,-783,0,0,0,0,0,0,0,0,0,-1,720,1807,0,0
-497,-783,0,0,0,0,0,0,0,0,0,-1,727,1807,0,0
-490,-783,0,0,0,0,0,0,0,0,0,-1,734,1807,0,0
-483,-783,0,0,0,0,0,0,0,0,0,-1,741,1807,0,0
-476,-783,0,0,0,0,0,0,0,0,0,-1,748,1807,0,0
-469,-783,0,0,0,0,0,0,0,0,0,-1,755,1807,0,0
-462,-783,0,0,0,0,0,0,0,0,0,-1,762,1807,0,0
-455,-783,0,0,0,0,0,0,0,0,0,-1,769,1807,0,0
-448,-783,0,0,0,0,0,0,0,0,0,-1,776,1807,0,0
-441,-783,0,0,0,0,0,0,0,0,0,-1,783,1807,0,0
-434,-783,0,0,0,0,0,0,0,0,0,-1,790,1807,0,0
-427,-783,0,0,0,0,0,0,0,0,0,-1,797,1807,0,0
-420,-783,0,0,0,0,0,0,0,0,0,-1,804,1807,0,0
-413,-783,0,0,0,0,0,0,0,0,0,-1,811,1807,0,0
-406,-783,0,0,0,0,0,0,0,0,0,-1,818,1807,0,0
-399,-783,0,0,0,0,0,0,0,0,0,-1,825,1807,0,0
-392,-783,0,0,0,0,0,0,0,0,0,-1,832,1807,0,0
-385,-783,0,0,0,0,0,0,0,0,0,-1,839,1807,0,0
-378,-783,0,0,0,0,0,0,0,0,0,-1,846,1807,0,0
-371,-783,0,0,0,0,0,0,0,0,0,-1,853,1807,0,0
-364,-783,0,0,0,0,0,0,0,0,0,-1,860,1807,0,0
-357,-783,0,0,0,0,0,0,0,0,0,-1,867,1807,0,0
-350,-783,0,0,0,0,0,0,0,0,0,-1,874,1807,0,0
-343,-783,0,0,0,0,0,0,0,0,0,-1,881,1807,0,0
-336,-783,0,0,0,0,0,0,0,0,0,-1,888,1807,0,0
-329,-783,0,0,0,0,0,0,0,0,0,-1,895,1807,0,0
-322,-783,0,0,0,0,0,0,0,0,0,-1,902,1807,0,0
-315,-783,0,0,0,0,0,0,0,0,0,-1,909,1807,0,0
-308,-783,0,0,0,0,0,0,0,0,0,-1,916,1807,0,0
-301,-783,0,0,0,0,0,0,0,0,0,-1,923,1807,0,0
-294,-783,0,0,0,0,0,0,0,0,0,-1,930,1807,0,0
-287,-783,0,0,0,0,0,0,0,0,0,-1,937,1807,0,0
-280,-783,0,0,0,0,0,0,0,0,0,-1,944,1807,0,0
-273,-783,0,0,0,0,0,0,0,0,0,-1,951,1807,0,0
-266,-783,0,0,0,0,0,0,0,0,0,-1,958,1807,0,0
-259,-783,0,0,0,0,0,0,0,0,0,-1,965,1807,0,0
-252,-783,0,0,0,0,0,0,0,0,0,-1,972,1807,0,0
-245,-783,0,0,0,0,0,0,0,0,0,-1,979,1807,0,0
-238,-783,0,0,0,0,0,0,0,0,0,-1,986,1807,0,0
-231,-783,0,0,0,0,0,0,0,0,0,-1,993,1807,0,0
-224,-783,0,0,0,0,0,0,0,0,0,-1,1000,1807,0,0
-217,-783,0,0,0,0,0,0,0,0,0,-1,1007,1807,0,0
-210,-783,0,0,0,0,0,0,0,0,0,-1,1014,1807,0,0
-203,-783,0,0,0,0,0,0,0,0,0,-1,1021,1807,0,0
-196,-783,0,0,0,0,0,0,0,0,0,-1,1028,1807,0,0
-189,-783,0,0,0,0,0,0,0,0,0,-1,1035,1807,0,0
-182,-783,0,0,0,0,0,0,0,0,0,-1,1042,1807,0,0
-175,-783,0,0,0,0,0,0,0,0,0,-1,1049,1807,0,0
-168,-783,0,0,0,0,0,0,0,0,0,-1,1056,1807,0,0
-161,-783,0,0,0,0,0,0,0,0,0,-1,1063,1807,0,0
-154,-783,0,0,0,0,0,0,0,0,0,-1,1070,1807,0,0
-147,-783,0,0,0,0,0,0,0,0,0,-1,1077,1807,0,0
-140,-783,0,0,0,0,0,0,0,0,0,-1,1084,1807,0,0
-133,-783,0,0,0,0,0,0,0,0,0,-1,1091,1807,0,0
-126,-783,0,0,0,0,0,0,0,0,0,-1,1098,1807,0,0
-119,-783,0,0,0,0,0,0,0,0,0,-1,1105,1807,0,0
-112,-783,0.841064,2.62573,0,0,0,0,0,0,0,-1,1112,1807,0.841087,-2.6257
-105,-783,0.711548,2.22632,0,0,0,0,0,0,0,-1,1119,1807,0.711521,-2.22632
-98,-783,2.07605,3.38489,-0.0117135,0.00146012,-0.000759264,0.00150374,-0.0117571,-1.51341,0.0083844,0.0440764,1126,1807,2.07611,-3.38488
-91,-783,2.09314,3.43066,-0.0172083,0.00297025,-0.0120818,0.00862148,-0.0228595,-1.13328,0.018785,0.0451402,1133,1807,2.09313,-3.43063
-84,-783,2.13428,3.42017,0,0,0,0,0,0,0,-1,1140,1807,2.13429,-3.42016
-77,-783,0.88623,3.54797,-0.022285,0.0106468,-0.0364126,0.0341435,-0.0457816,-0.99774,0.0463076,0.04341,1147,1807,0.886245,-3.54796
-70,-783,0.0925293,3.49585,0,0,0,0,0,0,0,-1,1154,1807,0.0925215,-3.49586
-63,-783,-0.7052,3.41296,0,0,0,0,0,0,0,-1,1161,1807,-0.705249,-3.41301
-56,-783,1.422,3.99829,0,0,0,0,0,0,0,-1,1168,1807,1.42199,-3.99827
-49,-783,0.773682,2.75671,-0.00664992,0.0448321,-0.0668681,0.0907427,-0.0525605,-0.969132,0.0837093,0.0452531,1175,1807,0.773639,-2.75667
-42,-783,0.548462,1.56641,0.00496614,0.0578013,-0.0650712,0.101613,-0.0388456,-0.978223,0.0837493,0.0425518,1182,1807,0.548515,-1.56645
-35,-783,0.370972,0.227661,0.0201629,0.0709112,-0.0587846,0.109564,-0.0184901,-0.989141,0.0799223,0.0473915,1189,1807,0.370965,-0.227602
-28,-783,0.410889,-1.32874,0.0371308,0.0822969,-0.0465982,0.111496,0.00793171,-1.01104,0.0718329,0.0489065,1196,1807,0.410864,1.32878
-21,-783,0.537842,-3.11121,0.0544164,0.0959539,-0.0298593,0.111557,0.0388132,-1.08927,0.065393,0.0455951,1203,1807,0.53783,3.1112
-14,-783,-8.90356,1.47705,0,0,0,0,0,0,0,-1,1210,1807,-8.90351,-1.477
-7,-783,-7.64673,1.77478,0.0815126,0.109624,0.0108409,0.113319,0.0778176,1.24231,0.0669281,0.0489222,1217,1807,-7.64676,-1.77483
0,-783,-6.19446,1.92261,0.0901919,0.1141,0.029415,0.133897,0.0703947,0.978399,0.0773397,0.0468758,1224,1807,-6.19442,-1.9226
7,-783,-4.91223,2.16492,0.097495,0.115004,0.0479431,0.154985,0.0575137,0.875705,0.0904667,0.0488922,1231,1807,-4.91229,-2.16495
14,-783,-2.33215,-4.46948,0,0,0,0,0,0,0,-1,1238,1807,-2.3321,4.46946
21,-783,-2.20337,-3.08606,0,0,0,0,0,0,0,-1,1245,1807,-2.20331,3.08612
28,-783,-1.88281,-2.00354,0.107458,0.099126,0.0842302,0.187625,0.0189587,0.760689,0.119267,0.0453766,1252,1807,-1.88283,2.00353
35,-783,-1.30933,-0.42041,0.105527,0.0867762,0.0875619,0.184214,0.00808915,0.732066,0.120204,0.0474221,1259,1807,-1.30932,0.420358
42,-783,-0.713257,0.683838,0.100244,0.072846,0.078418,0.16615,0.00693931,0.698926,0.108528,0.04599,1266,1807,-0.713285,-0.683889
49,-783,-0.167969,2.23584,0,0,0,0,0,0,0,-1,1273,1807,-0.167922,-2.23582
56,-783,0.242188,3.26318,0.0908681,0.049043,0.0558231,0.129567,0.0103439,0.606178,0.0831449,0.0456763,1280,1807,0.242208,-3.26322
63,-783,0.678833,4.36523,0.0860489,0.0386501,0.0429217,0.111379,0.0133196,0.53315,0.0702354,0.0453062,1287,1807,0.678775,-4.36521
70,-783,1.43213,5.74878,0.0816187,0.0322283,0.0300566,0.095824,0.018023,0.441504,0.058803,0.0443543,1294,1807,1.43218,-5.7488
77,-783,0.880371,0.168945,0.0775622,0.0282374,0.0174226,0.0830955,0.0227041,0.307519,0.0495927,0.049245,1301,1807,0.880367,-0.168938
84,-783,1.41724,0.763916,0.0719574,0.0270859,0.00771231,0.0732459,0.0257973,0.165549,0.0429,0.044953,1308,1807,1.41725,-0.763863
91,-783,2.21436,1.1416,0.0648976,0.0359597,0.00171414,0.0649988,0.0358585,0.0589602,0.0375938,0.044345,1315,1807,2.21439,-1.14158
98,-783,2.67395,1.51038,0.0584469,0.0415929,-0.00348098,0.0591376,0.0409023,-0.195864,0.0349691,0.0459789,1322,1807,2.67392,-1.51034
105,-783,3.25867,1.49622,0.0508048,0.0490427,-0.00466199,0.0546683,0.0451792,-0.692005,0.0337304,0.0478135,1329,1807,3.25865,-1.49621
112,-783,3.73547,1.49915,0,0,0,0,0,0,0,-1,1336,1807,3.73552,-1.49913
119,-783,3.41638,2.72864,0.0340197,0.0690933,-0.00132767,0.0691435,0.0339695,-1.53301,0.039922,0.0427258,1343,1807,3.4164,-2.72861
126,-783,3.31226,2.35095,0.0261189,0.0750244,0.00204682,0.0751099,0.0260334,1.52904,0.0440397,0.0460616,1350,1807,3.31223,-2.35089
133,-783,2.89856,4.34583,0.0203343,0.0782847,0.00498173,0.0787099,0.0199092,1.48566,0.0472561,0.0454358,1357,1807,2.89862,-4.34578
140,-783,2.52673,5.1178,0.0169411,0.0774753,0.00455451,0.0778161,0.0166004,1.49612,0.0473246,0.047355,1364,1807,2.52673,-5.1178
147,-783,2.07617,5.90723,0,0,0,0,0,0,0,-1,1371,1807,2.07612,-5.90721
154,-783,3.35193,1.77136,0,0,0,0,0,0,0,-1,1378,1807,3.35199,-1.77138
161,-783,4.36768,2.90173,0,0,0,0,0,0,0,-1,1385,1807,4.36772,-2.90169
168,-783,4.32361,2.86072,0.0081971,0.055538,-0.0045885,0.0559786,0.00775646,-1.47506,0.0350211,0.0456955,1392,1807,4.32358,-2.8607
175,-783,4.32825,2.82129,0.00763027,0.0455517,-0.0075959,0.0470167,0.00616536,-1.38028,0.0295048,0.0438306,1399,1807,4.32819,-2.82132
182,-783,4.47461,2.83521,0.00771057,0.0368551,-0.00990042,0.0399001,0.00466554,-1.27241,0.0251893,0.0432247,1406,1807,4.47457,-2.83521
189,-783,4.4325,2.65051,0.00822336,0.0285632,-0.0133404,0.0351681,0.00161851,-1.11107,0.0229249,0.0396738,1413,1807,4.43251,-2.65048
196,-783,6.38513,2.43896,0,0,0,0,0,0,0,-1,1420,1807,6.38519,-2.43899
203,-783,6.4657,1.47913,0,0,0,0,0,0,0,-1,1427,1807,6.46573,-1.4791
210,-783,6.54626,0.519165,0,0,0,0,0,0,0,-1,1434,1807,6.54627,-0.519212
217,-783,2.68213,2.70508,0,0,0,0,0,0,0,-1,1441,1807,2.68207,-2.70508
224,-783,-0.670044,1.62927,0,0,0,0,0,0,0,-1,1448,1807,-0.669997,-1.62923
231,-783,-1.12366,1.24988,0,0,0,0,0,0,0,-1,1455,1807,-1.1237,-1.24989
238,-783,0,0,0,0,0,0,0,0,0,-1,1462,1807,0,0
245,-783,0,0,0,0,0,0,0,0,0,-1,1469,1807,0,0
252,-783,0,0,0,0,0,0,0,0,0,-1,1476,1807,0,0
259,-783,0,0,0,0,0,0,0,0,0,-1,1483,1807,0,0
266,-783,0,0,0,0,0,0,0,0,0,-1,1490,1807,0,0
273,-783,0,0,0,0,0,0,0,0,0,-1,1497,1807,0,0
280,-783,0,0,0,0,0,0,0,0,0,-1,1504,1807,0,0
287,-783,0,0,0,0,0,0,0,0,0,-1,1511,1807,0,0
294,-783,0,0,0,0,0,0,0,0,0,-1,1518,1807,0,0
301,-783,0,0,0,0,0,0,0,0,0,-1,1525,1807,0,0
308,-783,0,0,0,0,0,0,0,0,0,-1,1532,1807,0,0
315,-783,0,0,0,0,0,0,0,0,0,-1,1539,1807,0,0
322,-783,0,0,0,0,0,0,0,0,0,-1,1546,1807,0,0
329,-783,0,0,0,0,0,0,0,0,0,-1,1553,1807,0,0
336,-783,0,0,0,0,0,0,0,0,0,-1,1560,1807,0,0
343,-783,0,0,0,0,0,0,0,0,0,-1,1567,1807,0,0
350,-783,0,0,0,0,0,0,0,0,0,-1,1574,1807,0,0
357,-783,0,0,0,0,0,0,0,0,0,-1,1581,1807,0,0
364,-783,0,0,0,0,0,0,0,0,0,-1,1588,1807,0,0
371,-783,0,0,0,0,0,0,0,0,0,-1,1595,1807,0,0
378,-783,0,0,0,0,0,0,0,0,0,-1,1602,1807,0,0
385,-783,0,0,0,0,0,0,0,0,0,-1,1609,1807,0,0
392,-783,0,0,0,0,0,0,0,0,0,-1,1616,1807,0,0
399,-783,0,0,0,0,0,0,0,0,0,-1,1623,1807,0,0
406,-783,0,0,0,0,0,0,0,0,0,-1,1630,1807,0,0
413,-783,0,0,0,0,0,0,0,0,0,-1,1637,1807,0,0
420,-783,0,0,0,0,0,0,0,0,0,-1,1644,1807,0,0
427,-783,0,0,0,0,0,0,0,0,0,-1,1651,1807,0,0
434,-783,0,0,0,0,0,0,0,0,0,-1,1658,1807,0,0
441,-783,0,0,0,0,0,0,0,0,0,-1,1665,1807,0,0
448,-783,0,0,0,0,0,0,0,0,0,-1,1672,1807,0,0
455,-783,0,0,0,0,0,0,0,0,0,-1,1679,1807,0,0
462,-783,0,0,0,0,0,0,0,0,0,-1,1686,1807,0,0
469,-783,0,0,0,0,0,0,0,0,0,-1,1693,1807,0,0
476,-783,0,0,0,0,0,0,0,0,0,-1,1700,1807,0,0
483,-783,0,0,0,0,0,0,0,0,0,-1,1707,1807,0,0
490,-783,0,0,0,0,0,0,0,0,0,-1,1714,1807,0,0
497,-783,0,0,0,0,0,0,0,0,0,-1,1721,1807,0,0
504,-783,0,0,0,0,0,0,0,0,0,-1,1728,1807,0,0
511,-783,0,0,0,0,0,0,0,0,0,-1,1735,1807,0,0
518,-783,0,0,0,0,0,0,0,0,0,-1,1742,1807,0,0
525,-783,0,0,0,0,0,0,0,0,0,-1,1749,1807,0,0
532,-783,0,0,0,0,0,0,0,0,0,-1,1756,1807,0,0
539,-783,0,0,0,0,0,0,0,0,0,-1,1763,1807,0,0
546,-783,0,0,0,0,0,0,0,0,0,-1,1770,1807,0,0
553,-783,0,0,0,0,0,0,0,0,0,-1,1777,1807,0,0
560,-783,0,0,0,0,0,0,0,0,0,-1,1784,1807,0,0
567,-783,0,0,0,0,0,0,0,0,0,-1,1791,1807,0,0
574,-783,0,0,0,0,0,0,0,0,0,-1,1798,1807,0,0
581,-783,0,0,0,0,0,0,0,0,0,-1,1805,1807,0,0
588,-783,0,0,0,0,0,0,0,0,0,-1,1812,1807,0,0
595,-783,0,0,0,0,0,0,0,0,0,-1,1819,1807,0,0
602,-783,0,0,0,0,0,0,0,0,0,-1,1826,1807,0,0
609,-783,0,0,0,0,0,0,0,0,0,-1,1833,1807,0,0
616,-783,0,0,0,0,0,0,0,0,0,-1,1840,1807,0,0
623,-783,0,0,0,0,0,0,0,0,0,-1,1847,1807,0,0
630,-783,0,0,0,0,0,0,0,0,0,-1,1854,1807,0,0
637,-783,0,0,0,0,0,0,0,0,0,-1,1861,1807,0,0
644,-783,0,0,0,0,0,0,0,0,0,-1,1868,1807,0,0
651,-783,0,0,0,0,0,0,0,0,0,-1,1875,1807,0,0
658,-783,0,0,0,0,0,0,0,0,0,-1,1882,1807,0,0
665,-783,0,0,0,0,0,0,0,0,0,-1,1889,1807,0,0
672,-783,0,0,0,0,0,0,0,0,0,-1,1896,1807,0,0
679,-783,0,0,0,0,0,0,0,0,0,-1,1903,1807,0,0
686,-783,0,0,0,0,0,0,0,0,0,-1,1910,1807,0,0
693,-783,0,0,0,0,0,0,0,0,0,-1,1917,1807,0,0
700,-783,0,0,0,0,0,0,0,0,0,-1,1924,1807,0,0
707,-783,0,0,0,0,0,0,0,0,0,-1,1931,1807,0,0
714,-783,0,0,0,0,0,0,0,0,0,-1,1938,1807,0,0
721,-783,0,0,0,0,0,0,0,0,0,-1,1945,1807,0,0
728,-783,0,0,0,0,0,0,0,0,0,-1,1952,1807,0,0
735,-783,0,0,0,0,0,0,0,0,0,-1,1959,1807,0,0
742,-783,0,0,0,0,0,0,0,0,0,-1,1966,1807,0,0
749,-783,0,0,0,0,0,0,0,0,0,-1,1973,1807,0,0
756,-783,0,0,0,0,0,0,0,0,0,-1,1980,1807,0,0
763,-783,0,0,0,0,0,0,0,0,0,-1,1987,1807,0,0
770,-783,0,0,0,0,0,0,0,0,0,-1,1994,1807,0,0
777,-783,0,0,0,0,0,0,0,0,0,-1,2001,1807,0,0
784,-783,0,0,0,0,0,0,0,0,0,-1,2008,1807,0,0
791,-783,0,0,0,0,0,0,0,0,0,-1,2015,1807,0,0
798,-783,0,0,0,0,0,0,0,0,0,-1,2022,1807,0,0
805,-783,0,0,0,0,0,0,0,0,0,-1,2029,1807,0,0
812,-783,0,0,0,0,0,0,0,0,0,-1,2036,1807,0,0
-700,-790,0,0,0,0,0,0,0,0,0,-1,524,1814,0,0
-693,-790,0,0,0,0,0,0,0,0,0,-1,531,1814,0,0
-686,-790,0,0,0,0,0,0,0,0,0,-1,538,1814,0,0
-679,-790,0,0,0,0,0,0,0,0,0,-1,545,1814,0,0
-672,-790,0,0,0,0,0,0,0,0,0,-1,552,1814,0,0
-665,-790,0,0,0,0,0,0,0,0,0,-1,559,1814,0,0
-658,-790,0,0,0,0,0,0,0,0,0,-1,566,1814,0,0
-651,-790,0,0,0,0,0,0,0,0,0,-1,573,1814,0,0
-644,-790,0,0,0,0,0,0,0,0,0,-1,580,1814,0,0
-637,-790,0,0,0,0,0,0,0,0,0,-1,587,1814,0,0
-630,-790,0,0,0,0,0,0,0,0,0,-1,594,1814,0,0
-623,-790,0,0,0,0,0,0,0,0,0,-1,601,1814,0,0
-616,-790,0,0,0,0,0,0,0,0,0,-1,608,1814,0,0
-609,-790,0,0,0,0,0,0,0,0,0,-1,615,1814,0,0
-602,-790,0,0,0,0,0,0,0,0,0,-1,622,1814,0,0
-595,-790,0,0,0,0,0,0,0,0,0,-1,629,1814,0,0
-588,-790,0,0,0,0,0,0,0,0,0,-1,636,1814,0,0
-581,-790,0,0,0,0,0,0,0,0,0,-1,643,1814,0,0
-574,-790,0,0,0,0,0,0,0,0,0,-1,650,1814,0,0
-567,-790,0,0,0,0,0,0,0,0,0,-1,657,1814,0,0
-560,-790,0,0,0,0,0,0,0,0,0,-1,664,1814,0,0
-553,-790,0,0,0,0,0,0,0,0,0,-1,671,1814,0,0
-546,-790,0,0,0,0,0,0,0,0,0,-1,678,1814,0,0
-539,-790,0,0,0,0,0,0,0,0,0,-1,685,1814,0,0
-532,-790,0,0,0,0,0,0,0,0,0,-1,692,1814,0,0
-525,-790,0,0,0,0,0,0,0,0,0,-1,699,1814,0,0
-518,-790,0,0,0,0,0,0,0,0,0,-1,706,1814,0,0
-511,-790,0,0,0,0,0,0,0,0,0,-1,713,1814,0,0
-504,-790,0,0,0,0,0,0,0,0,0,-1,720,1814,0,0
-497,-790,0,0,0,0,0,0,0,0,0,-1,727,1814,0,0
-490,-790,0,0,0,0,0,0,0,0,0,-1,734,1814,0,0
-483,-790,0,0,0,0,0,0,0,0,0,-1,741,1814,0,0
-476,-790,0,0,0,0,0,0,0,0,0,-1,748,1814,0,0
-469,-790,0,0,0,0,0,0,0,0,0,-1,755,1814,0,0
-462,-790,0,0,0,0,0,0,0,0,0,-1,762,1814,0,0
-455,-790,0,0,0,0,0,0,0,0,0,-1,769,1814,0,0
-448,-790,0,0,0,0,0,0,0,0,0,-1,776,1814,0,0
-441,-790,0,0,0,0,0,0,0,0,0,-1,783,1814,0,0
-434,-790,0,0,0,0,0,0,0,0,0,-1,790,1814,0,0
-427,-790,0,0,0,0,0,0,0,0,0,-1,797,1814,0,0
-420,-790,0,0,0,0,0,0,0,0,0,-1,804,1814,0,0
-413,-790,0,0,0,0,0,0,0,0,0,-1,811,1814,0,0
-406,-790,0,0,0,0,0,0,0,0,0,-1,818,1814,0,0
-399,-790,0,0,0,0,0,0,0,0,0,-1,825,1814,0,0
-392,-790,0,0,0,0,0,0,0,0,0,-1,832,1814,0,0
-385,-790,0,0,0,0,0,0,0,0,0,-1,839,1814,0,0
-378,-790,0,0,0,0,0,0,0,0,0,-1,846,1814,0,0
-371,-790,0,0,0,0,0,0,0,0,0,-1,853,1814,0,0
-364,-790,0,0,0,0,0,0,0,0,0,-1,860,1814,0,0
-357,-790,0,0,0,0,0,0,0,0,0,-1,867,1814,0,0
-350,-790,0,0,0,0,0,0,0,0,0,-1,874,1814,0,0
-343,-790,0,0,0,0,0,0,0,0,0,-1,881,1814,0,0
-336,-790,0,0,0,0,0,0,0,0,0,-1,888,1814,0,0
-329,-790,0,0,0,0,0,0,0,0,0,-1,895,1814,0,0
-322,-790,0,0,0,0,0,0,0,0,0,-1,902,1814,0,0
-315,-790,0,0,0,0,0,0,0,0,0,-1,909,1814,0,0
-308,-790,0,0,0,0,0,0,0,0,0,-1,916,1814,0,0
-301,-790,0,0,0,0,0,0,0,0,0,-1,923,1814,0,0
-294,-790,0,0,0,0,0,0,0,0,0,-1,930,1814,0,0
-287,-790,0,0,0,0,0,0,0,0,0,-1,937,1814,0,0
-280,-790,0,0,0,0,0,0,0,0,0,-1,944,1814,0,0
-273,-790,0,0,0,0,0,0,0,0,0,-1,951,1814,0,0
-266,-790,0,0,0,0,0,0,0,0,0,-1,958,1814,0,0
-259,-790,0,0,0,0,0,0,0,0,0,-1,965,1814,0,0
-252,-790,0,0,0,0,0,0,0,0,0,-1,972,1814,0,0
-245,-790,0,0,0,0,0,0,0,0,0,-1,979,1814,0,0
-238,-790,0,0,0,0,0,0,0,0,0,-1,986,1814,0,0
-231,-790,0,0,0,0,0,0,0,0,0,-1,993,1814,0,0
-224,-790,0,0,0,0,0,0,0,0,0,-1,1000,1814,0,0
-217,-790,0,0,0,0,0,0,0,0,0,-1,1007,1814,0,0
-210,-790,0,0,0,0,0,0,0,0,0,-1,1014,1814,0,0
-203,-790,0,0,0,0,0,0,0,0,0,-1,1021,1814,0,0
-196,-790,0,0,0,0,0,0,0,0,0,-1,1028,1814,0,0
-189,-790,0,0,0,0,0,0,0,0,0,-1,1035,1814,0,0
-182,-790,0,0,0,0,0,0,0,0,0,-1,1042,1814,0,0
-175,-790,0,0,0,0,0,0,0,0,0,-1,1049,1814,0,0
-168,-790,0,0,0,0,0,0,0,0,0,-1,1056,1814,0,0
-161,-790,0,0,0,0,0,0,0,0,0,-1,1063,1814,0,0
-154,-790,0,0,0,0,0,0,0,0,0,-1,1070,1814,0,0
-147,-790,0,0,0,0,0,0,0,0,0,-1,1077,1814,0,0
-140,-790,0,0,0,0,0,0,0,0,0,-1,1084,1814,0,0
-133,-790,0,0,0,0,0,0,0,0,0,-1,1091,1814,0,0
-126,-790,0,0,0,0,0,0,0,0,0,-1,1098,1814,0,0
-119,-790,0,0,0,0,0,0,0,0,0,-1,1105,1814,0,0
-112,-790,0,0,0,0,0,0,0,0,0,-1,1112,1814,0,0
-105,-790,0,0,0,0,0,0,0,0,0,-1,1119,1814,0,0
-98,-790,0,0,0,0,0,0,0,0,0,-1,1126,1814,0,0
-91,-790,0,0,0,0,0,0,0,0,0,-1,1133,1814,0,0
-84,-790,0,0,0,0,0,0,0,0,0,-1,1140,1814,0,0
-77,-790,0.998779,3.89148,0,0,0,0,0,0,0,-1,1147,1814,0.998787,-3.89144
-70,-790,0.0318604,3.68225,0,0,0,0,0,0,0,-1,1154,1814,0.0318251,-3.68229
-63,-790,1.15442,1.7876,0,0,0,0,0,0,0,-1,1161,1814,1.15439,-1.78756
-56,-790,1.51978,3.66736,0,0,0,0,0,0,0,-1,1168,1814,1.5198,-3.66732
-49,-790,0.961548,2.47803,-0.00655302,0.0552118,-0.0822698,0.112205,-0.0635458,-0.96495,0.102758,0.0458458,1175,1814,0.961575,-2.47803
-42,-790,0.593262,1.19165,0.00696854,0.0697149,-0.0797426,0.124034,-0.0473505,-0.972813,0.102197,0.0423439,1182,1814,0.593225,-1.19165
-35,-790,0.307129,-0.20105,0.0254051,0.0849794,-0.071438,0.132592,-0.0222072,-0.982921,0.096651,0.0476328,1189,1814,0.307178,0.201006
-28,-790,0.282227,-2.05688,0.0465404,0.0982311,-0.0564967,0.134514,0.0102581,-0.999921,0.0864594,0.0485312,1196,1814,0.282219,2.05684
-21,-790,0.464722,-3.81396,0.06853,0.11337,-0.0362763,0.133596,0.0483047,-1.06219,0.0781106,0.0443731,1203,1814,0.464715,3.81394
-14,-790,-8.6283,0.553345,0,0,0,0,0,0,0,-1,1210,1814,-8.62834,-0.553299
-7,-790,-7.98987,0.661255,0.102108,0.128612,0.012909,0.13386,0.0968595,1.18465,0.0798183,0.0459401,1217,1814,-7.98987,-0.661263
0,-790,-7.06189,0.984741,0.112256,0.132995,0.0345961,0.158742,0.0865089,0.931005,0.0917734,0.0448203,1224,1814,-7.06195,-0.98471
7,-790,-5.82043,1.13733,0.121153,0.133674,0.0560704,0.183832,0.0709945,0.840995,0.107048,0.0459855,1231,1814,-5.82049,-1.13731
14,-790,-4.46582,1.19788,0.128228,0.131538,0.0768462,0.206747,0.0530192,0.796166,0.123996,0.044315,1238,1814,-4.46581,-1.19782
21,-790,-3.54565,0.727661,0.133919,0.126706,0.0909831,0.221367,0.0392577,0.765588,0.136388,0.0466346,1245,1814,-3.5457,-0.72761
28,-790,-3.02576,-2.67004,0,0,0,0,0,0,0,-1,1252,1814,-3.0258,2.67004
35,-790,-2.15039,-0.904053,0,0,0,0,0,0,0,-1,1259,1814,-2.1504,0.904003
42,-790,-1.54041,0.492188,0.126037,0.0829558,0.0884269,0.195509,0.0134834,0.665927,0.126085,0.0454076,1266,1814,-1.54046,-0.492182
49,-790,-1.13635,1.31824,0.119964,0.068432,0.076411,0.174836,0.0135596,0.622785,0.112311,0.0475365,1273,1814,-1.13633,-1.31828
56,-790,-0.433594,3.46387,0,0,0,0,0,0,0,-1,1280,1814,-0.433589,-3.46389
63,-790,-0.301025,4.43506,0.107622,0.0438283,0.0489176,0.134123,0.0173271,0.496489,0.0842361,0.0454631,1287,1814,-0.301011,-4.43509
70,-790,0.463257,5.73157,0.101611,0.0367361,0.0345511,0.116565,0.0217819,0.408471,0.0715631,0.0429495,1294,1814,0.463228,-5.7316
77,-790,1.62195,1.03467,0.0963665,0.0326104,0.0202937,0.102278,0.026699,0.283451,0.0612568,0.0441294,1301,1814,1.62193,-1.03469
84,-790,1.96521,1.0072,0.0891448,0.0328247,0.00923905,0.0906217,0.0313478,0.158513,0.0531421,0.0451241,1308,1814,1.96522,-1.00715
91,-790,2.38037,1.10425,0.0802284,0.0459206,0.00218914,0.0803675,0.0457814,0.0634657,0.04655,0.0465816,1315,1814,2.3804,-1.10428
98,-790,2.82031,1.18799,0.0721549,0.0546936,-0.00383413,0.0729597,0.0538888,-0.2069,0.0436929,0.0456929,1322,1814,2.82032,-1.18802
105,-790,3.27478,1.19312,0.0625658,0.0656224,-0.00509723,0.0694155,0.0587727,-0.93105,0.0431689,0.049353,1329,1814,3.27472,-1.19308
112,-790,3.49622,1.62695,0.0515339,0.0821737,-0.00274189,0.0824171,0.0512905,-1.48225,0.0480559,0.047987,1336,1814,3.49626,-1.62701
119,-790,3.67517,1.94775,0.040953,0.0956523,-0.000191203,0.095653,0.0409523,-1.5673,0.0554151,0.0432523,1343,1814,3.67513,-1.94781
126,-790,4.12317,1.78796,0.0312563,0.105285,0.00396068,0.105496,0.0310449,1.5175,0.062603,0.0463866,1350,1814,4.12312,-1.78797
133,-790,4.3717,1.82471,0.0241139,0.110903,0.00748296,0.111544,0.0234735,1.48542,0.0679041,0.0469147,1357,1814,4.37172,-1.82473
140,-790,3.11768,5.92908,0.0198269,0.11108,0.00736831,0.111671,0.0192358,1.49074,0.0689357,0.044484,1364,1814,3.11767,-5.92903
147,-790,2.94226,6.7865,0,0,0,0,0,0,0,-1,1371,1814,2.94227,-6.78644
154,-790,2.96143,7.526,0,0,0,0,0,0,0,-1,1378,1814,2.96144,-7.52595
161,-790,3.67798,2.81738,0,0,0,0,0,0,0,-1,1385,1814,3.67792,-2.81734
168,-790,4.38208,3.25647,0,0,0,0,0,0,0,-1,1392,1814,4.3821,-3.25648
175,-790,4.37012,2.53687,0.00747536,0.0694692,-0.00128911,0.069496,0.00744856,-1.55001,0.0440582,0.0432808,1399,1814,4.37016,-2.53684
182,-790,4.37842,2.49744,0.00769099,0.0554613,-0.00330233,0.0556885,0.00746378,-1.5021,0.0349048,0.04339,1406,1814,4.37841,-2.49746
189,-790,4.43457,2.44165,0.0085608,0.0424131,-0.00664359,0.0436702,0.00730367,-1.38378,0.0270101,0.0425177,1413,1814,4.43452,-2.44166
196,-790,4.5603,2.50476,0,0,0,0,0,0,0,-1,1420,1814,4.56033,-2.50478
203,-790,0,0,0,0,0,0,0,0,0,-1,1427,1814,0,0
210,-790,0,0,0,0,0,0,0,0,0,-1,1434,1814,0,0
217,-790,0,0,0,0,0,0,0,0,0,-1,1441,1814,0,0
224,-790,0,0,0,0,0,0,0,0,0,-1,1448,1814,0,0
231,-790,0,0,0,0,0,0,0,0,0,-1,1455,1814,0,0
238,-790,0,0,0,0,0,0,0,0,0,-1,1462,1814,0,0
245,-790,0,0,0,0,0,0,0,0,0,-1,1469,1814,0,0
252,-790,0,0,0,0,0,0,0,0,0,-1,1476,1814,0,0
259,-790,0,0,0,0,0,0,0,0,0,-1,1483,1814,0,0
266,-790,0,0,0,0,0,0,0,0,0,-1,1490,1814,0,0
273,-790,0,0,0,0,0,0,0,0,0,-1,1497,1814,0,0
280,-790,0,0,0,0,0,0,0,0,0,-1,1504,1814,0,0
287,-790,0,0,0,0,0,0,0,0,0,-1,1511,1814,0,0
294,-790,0,0,0,0,0,0,0,0,0,-1,1518,1814,0,0
301,-790,0,0,0,0,0,0,0,0,0,-1,1525,1814,0,0
308,-790,0,0,0,0,0,0,0,0,0,-1,1532,1814,0,0
315,-790,0,0,0,0,0,0,0,0,0,-1,1539,1814,0,0
322,-790,0,0,0,0,0,0,0,0,0,-1,1546,1814,0,0
329,-790,0,0,0,0,0,0,0,0,0,-1,1553,1814,0,0
336,-790,0,0,0,0,0,0,0,0,0,-1,1560,1814,0,0
343,-790,0,0,0,0,0,0,0,0,0,-1,1567,1814,0,0
350,-790,0,0,0,0,0,0,0,0,0,-1,1574,1814,0,0
357,-790,0,0,0,0,0,0,0,0,0,-1,1581,1814,0,0
364,-790,0,0,0,0,0,0,0,0,0,-1,1588,1814,0,0
371,-790,0,0,0,0,0,0,0,0,0,-1,1595,1814,0,0
378,-790,0,0,0,0,0,0,0,0,0,-1,1602,1814,0,0
385,-790,0,0,0,0,0,0,0,0,0,-1,1609,1814,0,0
392,-790,0,0,0,0,0,0,0,0,0,-1,1616,1814,0,0
399,-790,0,0,0,0,0,0,0,0,0,-1,1623,1814,0,0
406,-790,0,0,0,0,0,0,0,0,0,-1,1630,1814,0,0
413,-790,0,0,0,0,0,0,0,0,0,-1,1637,1814,0,0
420,-790,0,0,0,0,0,0,0,0,0,-1,1644,1814,0,0
427,-790,0,0,0,0,0,0,0,0,0,-1,1651,1814,0,0
434,-790,0,0,0,0,0,0,0,0,0,-1,1658,1814,0,0
441,-790,0,0,0,0,0,0,0,0,0,-1,1665,1814,0,0
448,-790,0,0,0,0,0,0,0,0,0,-1,1672,1814,0,0
455,-790,0,0,0,0,0,0,0,0,0,-1,1679,1814,0,0
462,-790,0,0,0,0,0,0,0,0,0,-1,1686,1814,0,0
469,-790,0,0,0,0,0,0,0,0,0,-1,1693,1814,0,0
476,-790,0,0,0,0,0,0,0,0,0,-1,1700,1814,0,0
483,-790,0,0,0,0,0,0,0,0,0,-1,1707,1814,0,0
490,-790,0,0,0,0,0,0,0,0,0,-1,1714,1814,0,0
497,-790,0,0,0,0,0,0,0,0,0,-1,1721,1814,0,0
504,-790,0,0,0,0,0,0,0,0,0,-1,1728,1814,0,0
511,-790,0,0,0,0,0,0,0,0,0,-1,1735,1814,0,0
518,-790,0,0,0,0,0,0,0,0,0,-1,1742,1814,0,0
525,-790,0,0,0,0,0,0,0,0,0,-1,1749,1814,0,0
532,-790,0,0,0,0,0,0,0,0,0,-1,1756,1814,0,0
539,-790,0,0,0,0,0,0,0,0,0,-1,1763,1814,0,0
546,-790,0,0,0,0,0,0,0,0,0,-1,1770,1814,0,0
553,-790,0,0,0,0,0,0,0,0,0,-1,1777,1814,0,0
560,-790,0,0,0,0,0,0,0,0,0,-1,1784,1814,0,0
567,-790,0,0,0,0,0,0,0,0,0,-1,1791,1814,0,0
574,-790,0,0,0,0,0,0,0,0,0,-1,1798,1814,0,0
581,-790,0,0,0,0,0,0,0,0,0,-1,1805,1814,0,0
588,-790,0,0,0,0,0,0,0,0,0,-1,1812,1814,0,0
595,-790,0,0,0,0,0,0,0,0,0,-1,1819,1814,0,0
602,-790,0,0,0,0,0,0,0,0,0,-1,1826,1814,0,0
609,-790,0,0,0,0,0,0,0,0,0,-1,1833,1814,0,0
616,-790,0,0,0,0,0,0,0,0,0,-1,1840,1814,0,0
623,-790,0,0,0,0,0,0,0,0,0,-1,1847,1814,0,0
630,-790,0,0,0,0,0,0,0,0,0,-1,1854,1814,0,0
637,-790,0,0,0,0,0,0,0,0,0,-1,1861,1814,0,0
644,-790,0,0,0,0,0,0,0,0,0,-1,1868,1814,0,0
651,-790,0,0,0,0,0,0,0,0,0,-1,1875,1814,0,0
658,-790,0,0,0,0,0,0,0,0,0,-1,1882,1814,0,0
665,-790,0,0,0,0,0,0,0,0,0,-1,1889,1814,0,0
672,-790,0,0,0,0,0,0,0,0,0,-1,1896,1814,0,0
679,-790,0,0,0,0,0,0,0,0,0,-1,1903,1814,0,0
686,-790,0,0,0,0,0,0,0,0,0,-1,1910,1814,0,0
693,-790,0,0,0,0,0,0,0,0,0,-1,1917,1814,0,0
700,-790,0,0,0,0,0,0,0,0,0,-1,1924,1814,0,0
707,-790,0,0,0,0,0,0,0,0,0,-1,1931,1814,0,0
714,-790,0,0,0,0,0,0,0,0,0,-1,1938,1814,0,0
721,-790,0,0,0,0,0,0,0,0,0,-1,1945,1814,0,0
728,-790,0,0,0,0,0,0,0,0,0,-1,1952,1814,0,0
735,-790,0,0,0,0,0,0,0,0,0,-1,1959,1814,0,0
742,-790,0,0,0,0,0,0,0,0,0,-1,1966,1814,0,0
749,-790,0,0,0,0,0,0,0,0,0,-1,1973,1814,0,0
756,-790,0,0,0,0,0,0,0,0,0,-1,1980,1814,0,0
763,-790,0,0,0,0,0,0,0,0,0,-1,1987,1814,0,0
770,-790,0,0,0,0,0,0,0,0,0,-1,1994,1814,0,0
777,-790,0,0,0,0,0,0,0,0,0,-1,2001,1814,0,0
784,-790,0,0,0,0,0,0,0,0,0,-1,2008,1814,0,0
791,-790,0,0,0,0,0,0,0,0,0,-1,2015,1814,0,0
798,-790,0,0,0,0,0,0,0,0,0,-1,2022,1814,0,0
805,-790,0,0,0,0,0,0,0,0,0,-1,2029,1814,0,0
812,-790,0,0,0,0,0,0,0,0,0,-1,2036,1814,0,0
-700,-797,0,0,0,0,0,0,0,0,0,-1,524,1821,0,0
-693,-797,0,0,0,0,0,0,0,0,0,-1,531,1821,0,0
-686,-797,0,0,0,0,0,0,0,0,0,-1,538,1821,0,0
-679,-797,0,0,0,0,0,0,0,0,0,-1,545,1821,0,0
-672,-797,0,0,0,0,0,0,0,0,0,-1,552,1821,0,0
-665,-797,0,0,0,0,0,0,0,0,0,-1,559,1821,0,0
-658,-797,0,0,0,0,0,0,0,0,0,-1,566,1821,0,0
-651,-797,0,0,0,0,0,0,0,0,0,-1,573,1821,0,0
-644,-797,0,0,0,0,0,0,0,0,0,-1,580,1821,0,0
-637,-797,0,0,0,0,0,0,0,0,0,-1,587,1821,0,0
-630,-797,0,0,0,0,0,0,0,0,0,-1,594,1821,0,0
-623,-797,0,0,0,0,0,0,0,0,0,-1,601,1821,0,0
-616,-797,0,0,0,0,0,0,0,0,0,-1,608,1821,0,0
-609,-797,0,0,0,0,0,0,0,0,0,-1,615,1821,0,0
-602,-797,0,0,0,0,0,0,0,0,0,-1,622,1821,0,0
-595,-797,0,0,0,0,0,0,0,0,0,-1,629,1821,0,0
-588,-797,0,0,0,0,0,0,0,0,0,-1,636,1821,0,0
-581,-797,0,0,0,0,0,0,0,0,0,-1,643,1821,0,0
-574,-797,0,0,0,0,0,0,0,0,0,-1,650,1821,0,0
-567,-797,0,0,0,0,0,0,0,0,0,-1,657,1821,0,0
-560,-797,0,0,0,0,0,0,0,0,0,-1,664,1821,0,0
-553,-797,0,0,0,0,0,0,0,0,0,-1,671,1821,0,0
-546,-797,0,0,0,0,0,0,0,0,0,-1,678,1821,0,0
-539,-797,0,0,0,0,0,0,0,0,0,-1,685,1821,0,0
-532,-797,0,0,0,0,0,0,0,0,0,-1,692,1821,0,0
-525,-797,0,0,0,0,0,0,0,0,0,-1,699,1821,0,0
-518,-797,0,0,0,0,0,0,0,0,0,-1,706,1821,0,0
-511,-797,0,0,0,0,0,0,0,0,0,-1,713,1821,0,0
-504,-797,0,0,0,0,0,0,0,0,0,-1,720,1821,0,0
-497,-797,0,0,0,0,0,0,0,0,0,-1,727,1821,0,0
-490,-797,0,0,0,0,0,0,0,0,0,-1,734,1821,0,0
-483,-797,0,0,0,0,0,0,0,0,0,-1,741,1821,0,0
-476,-797,0,0,0,0,0,0,0,0,0,-1,748,1821,0,0
-469,-797,0,0,0,0,0,0,0,0,0,-1,755,1821,0,0
-462,-797,0,0,0,0,0,0,0,0,0,-1,762,1821,0,0
-455,-797,0,0,0,0,0,0,0,0,0,-1,769,1821,0,0
-448,-797,0,0,0,0,0,0,0,0,0,-1,776,1821,0,0
-441,-797,0,0,0,0,0,0,0,0,0,-1,783,1821,0,0
-434,-797,0,0,0,0,0,0,0,0,0,-1,790,1821,0,0
-427,-797,0,0,0,0,0,0,0,0,0,-1,797,1821,0,0
-420,-797,0,0,0,0,0,0,0,0,0,-1,804,1821,0,0
-413,-797,0,0,0,0,0,0,0,0,0,-1,811,1821,0,0
-406,-797,0,0,0,0,0,0,0,0,0,-1,818,1821,0,0
-399,-797,0,0,0,0,0,0,0,0,0,-1,825,1821,0,0
-392,-797,0,0,0,0,0,0,0,0,0,-1,832,1821,0,0
-385,-797,0,0,0,0,0,0,0,0,0,-1,839,1821,0,0
-378,-797,0,0,0,0,0,0,0,0,0,-1,846,1821,0,0
-371,-797,0,0,0,0,0,0,0,0,0,-1,853,1821,0,0
-364,-797,0,0,0,0,0,0,0,0,0,-1,860,1821,0,0
-357,-797,0,0,0,0,0,0,0,0,0,-1,867,1821,0,0
-350,-797,0,0,0,0,0,0,0,0,0,-1,874,1821,0,0
-343,-797,0,0,0,0,0,0,0,0,0,-1,881,1821,0,0
-336,-797,0,0,0,0,0,0,0,0,0,-1,888,1821,0,0
-329,-797,0,0,0,0,0,0,0,0,0,-1,895,1821,0,0
-322,-797,0,0,0,0,0,0,0,0,0,-1,902,1821,0,0
-315,-797,0,0,0,0,0,0,0,0,0,-1,909,1821,0,0
-308,-797,0,0,0,0,0,0,0,0,0,-1,916,1821,0,0
-301,-797,0,0,0,0,0,0,0,0,0,-1,923,1821,0,0
-294,-797,0,0,0,0,0,0,0,0,0,-1,930,1821,0,0
-287,-797,0,0,0,0,0,0,0,0,0,-1,937,1821,0,0
-280,-797,0,0,0,0,0,0,0,0,0,-1,944,1821,0,0
-273,-797,0,0,0,0,0,0,0,0,0,-1,951,1821,0,0
-266,-797,0,0,0,0,0,0,0,0,0,-1,958,1821,0,0
-259,-797,0,0,0,0,0,0,0,0,0,-1,965,1821,0,0
-252,-797,0,0,0,0,0,0,0,0,0,-1,972,1821,0,0
-245,-797,0,0,0,0,0,0,0,0,0,-1,979,1821,0,0
-238,-797,0,0,0,0,0,0,0,0,0,-1,986,1821,0,0
-231,-797,0,0,0,0,0,0,0,0,0,-1,993,1821,0,0
-224,-797,0,0,0,0,0,0,0,0,0,-1,1000,1821,0,0
-217,-797,0,0,0,0,0,0,0,0,0,-1,1007,1821,0,0
-210,-797,0,0,0,0,0,0,0,0,0,-1,1014,1821,0,0
-203,-797,0,0,0,0,0,0,0,0,0,-1,1021,1821,0,0
-196,-797,0,0,0,0,0,0,0,0,0,-1,1028,1821,0,0
-189,-797,0,0,0,0,0,0,0,0,0,-1,1035,1821,0,0
-182,-797,0,0,0,0,0,0,0,0,0,-1,1042,1821,0,0
-175,-797,0,0,0,0,0,0,0,0,0,-1,1049,1821,0,0
-168,-797,0,0,0,0,0,0,0,0,0,-1,1056,1821,0,0
-161,-797,0,0,0,0,0,0,0,0,0,-1,1063,1821,0,0
-154,-797,0,0,0,0,0,0,0,0,0,-1,1070,1821,0,0
-147,-797,0,0,0,0,0,0,0,0,0,-1,1077,1821,0,0
-140,-797,0,0,0,0,0,0,0,0,0,-1,1084,1821,0,0
-133,-797,0,0,0,0,0,0,0,0,0,-1,1091,1821,0,0
-126,-797,0,0,0,0,0,0,0,0,0,-1,1098,1821,0,0
-119,-797,0,0,0,0,0,0,0,0,0,-1,1105,1821,0,0
-112,-797,0,0,0,0,0,0,0,0,0,-1,1112,1821,0,0
-105,-797,0,0,0,0,0,0,0,0,0,-1,1119,1821,0,0
-98,-797,0,0,0,0,0,0,0,0,0,-1,1126,1821,0,0
-91,-797,0,0,0,0,0,0,0,0,0,-1,1133,1821,0,0
-84,-797,0,0,0,0,0,0,0,0,0,-1,1140,1821,0,0
-77,-797,0,0,0,0,0,0,0,0,0,-1,1147,1821,0,0
-70,-797,0,0,0,0,0,0,0,0,0,-1,1154,1821,0,0
-63,-797,0,0,0,0,0,0,0,0,0,-1,1161,1821,0,0
-56,-797,0,0,0,0,0,0,0,0,0,-1,1168,1821,0,0
-49,-797,0,0,0,0,0,0,0,0,0,-1,1175,1821,0,0
-42,-797,0.579834,0.692871,0.00863263,0.0805856,-0.0945118,0.145737,-0.0565185,-0.967258,0.1205,0.0420211,1182,1821,0.579856,-0.692816
-35,-797,0.300293,-0.37439,0.0302844,0.0978986,-0.0841604,0.154788,-0.0266052,-0.976383,0.113108,0.0481827,1189,1821,0.300284,0.374351
-28,-797,0.149048,-1.48645,0,0,0,0,0,0,0,-1,1196,1821,0.149058,1.48641
-21,-797,0.0273438,-4.62903,0.0841207,0.129361,-0.0428278,0.155175,0.0583064,-1.02836,0.0905079,0.0472326,1203,1821,0.0272862,4.62897
-14,-797,0.344604,-5.44092,0,0,0,0,0,0,0,-1,1210,1821,0.344562,5.44097
-7,-797,-8.31409,-0.195557,0,0,0,0,0,0,0,-1,1217,1821,-8.31403,0.195509
0,-797,-8.03931,-0.105225,0,0,0,0,0,0,0,-1,1224,1821,-8.03933,0.10517
7,-797,-6.93579,-0.067749,0.147772,0.15022,0.063499,0.212507,0.0854856,0.795036,0.12347,0.0482812,1231,1821,-6.93574,0.0677968
14,-797,-5.56433,0.0895996,0.156235,0.147212,0.0860451,0.237887,0.0655602,0.759209,0.14188,0.0451312,1238,1821,-5.56428,-0.0896164
21,-797,-4.34338,0.0935059,0.163187,0.141478,0.100827,0.253742,0.0509234,0.731776,0.155001,0.04634,1245,1821,-4.3434,-0.0934477
28,-797,-3.43909,0.273438,0,0,0,0,0,0,0,-1,1252,1821,-3.4391,-0.273485
35,-797,-2.58032,0.247925,0,0,0,0,0,0,0,-1,1259,1821,-2.58029,-0.2479
42,-797,-2.00867,0.22876,0.15473,0.0905466,0.0940787,0.22204,0.0232367,0.621029,0.140921,0.0481463,1266,1821,-2.0087,-0.2288
49,-797,-1.45178,0.550537,0.147514,0.0748414,0.0811273,0.200071,0.0222848,0.574848,0.126608,0.0487167,1273,1821,-1.45172,-0.550505
56,-797,-0.980835,0.911499,0,0,0,0,0,0,0,-1,1280,1821,-0.9808,-0.911469
63,-797,-1.49597,4.45227,0,0,0,0,0,0,0,-1,1287,1821,-1.49598,-4.45224
70,-797,-0.685547,5.73047,0,0,0,0,0,0,0,-1,1294,1821,-0.685562,-5.73042
77,-797,2.0011,0.765381,0,0,0,0,0,0,0,-1,1301,1821,2.00109,-0.765321
84,-797,2.04956,0.95166,0,0,0,0,0,0,0,-1,1308,1821,2.04955,-0.95163
91,-797,2.47778,0.959717,0.0965803,0.0577851,0.00276614,0.0967765,0.0575889,0.0708236,0.0562096,0.0488587,1315,1821,2.47774,-0.959724
98,-797,2.89636,0.933472,0.0867902,0.0707744,-0.00398817,0.0877284,0.0698363,-0.231035,0.0535278,0.0459534,1322,1821,2.89632,-0.93345
105,-797,3.33484,0.983276,0.0752184,0.0862325,-0.00530458,0.0883718,0.0730791,-1.18746,0.0545364,0.049668,1329,1821,3.33485,-0.983312
112,-797,3.57861,1.11523,0.0613173,0.109568,-0.00194888,0.109646,0.0612387,-1.53049,0.0634486,0.0472598,1336,1821,3.57867,-1.11518
119,-797,3.9054,1.31165,0.0482246,0.130066,0.00155387,0.130095,0.0481951,1.55182,0.0759462,0.0424872,1343,1821,3.90543,-1.31161
126,-797,4.39478,1.35876,0,0,0,0,0,0,0,-1,1350,1821,4.39476,-1.35874
133,-797,4.20752,1.37646,0.0283698,0.154865,0.0104359,0.15572,0.0275147,1.48903,0.0959656,0.0440811,1357,1821,4.2075,-1.37649
140,-797,4.39209,1.43091,0.0231574,0.157619,0.0106683,0.15846,0.0223162,1.49211,0.0990427,0.0424987,1364,1821,4.39214,-1.43087
147,-797,4.82996,1.35828,0,0,0,0,0,0,0,-1,1371,1821,4.82998,-1.35824
154,-797,3.81506,3.45032,0,0,0,0,0,0,0,-1,1378,1821,3.81508,-3.4503
161,-797,3.85327,3.52832,0,0,0,0,0,0,0,-1,1385,1821,3.85329,-3.52833
168,-797,0,0,0,0,0,0,0,0,0,-1,1392,1821,0,0
175,-797,0,0,0,0,0,0,0,0,0,-1,1399,1821,0,0
182,-797,0,0,0,0,0,0,0,0,0,-1,1406,1821,0,0
189,-797,0,0,0,0,0,0,0,0,0,-1,1413,1821,0,0
196,-797,0,0,0,0,0,0,0,0,0,-1,1420,1821,0,0
203,-797,0,0,0,0,0,0,0,0,0,-1,1427,1821,0,0
210,-797,0,0,0,0,0,0,0,0,0,-1,1434,1821,0,0
217,-797,0,0,0,0,0,0,0,0,0,-1,1441,1821,0,0
224,-797,0,0,0,0,0,0,0,0,0,-1,1448,1821,0,0
231,-797,0,0,0,0,0,0,0,0,0,-1,1455,1821,0,0
238,-797,0,0,0,0,0,0,0,0,0,-1,1462,1821,0,0
245,-797,0,0,0,0,0,0,0,0,0,-1,1469,1821,0,0
252,-797,0,0,0,0,0,0,0,0,0,-1,1476,1821,0,0
259,-797,0,0,0,0,0,0,0,0,0,-1,1483,1821,0,0
266,-797,0,0,0,0,0,0,0,0,0,-1,1490,1821,0,0
273,-797,0,0,0,0,0,0,0,0,0,-1,1497,1821,0,0
280,-797,0,0,0,0,0,0,0,0,0,-1,1504,1821,0,0
287,-797,0,0,0,0,0,0,0,0,0,-1,1511,1821,0,0
294,-797,0,0,0,0,0,0,0,0,0,-1,1518,1821,0,0
301,-797,0,0,0,0,0,0,0,0,0,-1,1525,1821,0,0
308,-797,0,0,0,0,0,0,0,0,0,-1,1532,1821,0,0
315,-797,0,0,0,0,0,0,0,0,0,-1,1539,1821,0,0
322,-797,0,0,0,0,0,0,0,0,0,-1,1546,1821,0,0
329,-797,0,0,0,0,0,0,0,0,0,-1,1553,1821,0,0
336,-797,0,0,0,0,0,0,0,0,0,-1,1560,1821,0,0
343,-797,0,0,0,0,0,0,0,0,0,-1,1567,1821,0,0
350,-797,0,0,0,0,0,0,0,0,0,-1,1574,1821,0,0
357,-797,0,0,0,0,0,0,0,0,0,-1,1581,1821,0,0
364,-797,0,0,0,0,0,0,0,0,0,-1,1588,1821,0,0
371,-797,0,0,0,0,0,0,0,0,0,-1,1595,1821,0,0
378,-797,0,0,0,0,0,0,0,0,0,-1,1602,1821,0,0
385,-797,0,0,0,0,0,0,0,0,0,-1,1609,1821,0,0
392,-797,0,0,0,0,0,0,0,0,0,-1,1616,1821,0,0
399,-797,0,0,0,0,0,0,0,0,0,-1,1623,1821,0,0
406,-797,0,0,0,0,0,0,0,0,0,-1,1630,1821,0,0
413,-797,0,0,0,0,0,0,0,0,0,-1,1637,1821,0,0
420,-797,0,0,0,0,0,0,0,0,0,-1,1644,1821,0,0
427,-797,0,0,0,0,0,0,0,0,0,-1,1651,1821,0,0
434,-797,0,0,0,0,0,0,0,0,0,-1,1658,1821,0,0
441,-797,0,0,0,0,0,0,0,0,0,-1,1665,1821,0,0
448,-797,0,0,0,0,0,0,0,0,0,-1,1672,1821,0,0
455,-797,0,0,0,0,0,0,0,0,0,-1,1679,1821,0,0
462,-797,0,0,0,0,0,0,0,0,0,-1,1686,1821,0,0
469,-797,0,0,0,0,0,0,0,0,0,-1,1693,1821,0,0
476,-797,0,0,0,0,0,0,0,0,0,-1,1700,1821,0,0
483,-797,0,0,0,0,0,0,0,0,0,-1,1707,1821,0,0
490,-797,0,0,0,0,0,0,0,0,0,-1,1714,1821,0,0
497,-797,0,0,0,0,0,0,0,0,0,-1,1721,1821,0,0
504,-797,0,0,0,0,0,0,0,0,0,-1,1728,1821,0,0
511,-797,0,0,0,0,0,0,0,0,0,-1,1735,1821,0,0
518,-797,0,0,0,0,0,0,0,0,0,-1,1742,1821,0,0
525,-797,0,0,0,0,0,0,0,0,0,-1,1749,1821,0,0
532,-797,0,0,0,0,0,0,0,0,0,-1,1756,1821,0,0
539,-797,0,0,0,0,0,0,0,0,0,-1,1763,1821,0,0
546,-797,0,0,0,0,0,0,0,0,0,-1,1770,1821,0,0
553,-797,0,0,0,0,0,0,0,0,0,-1,1777,1821,0,0
560,-797,0,0,0,0,0,0,0,0,0,-1,1784,1821,0,0
567,-797,0,0,0,0,0,0,0,0,0,-1,1791,1821,0,0
574,-797,0,0,0,0,0,0,0,0,0,-1,1798,1821,0,0
581,-797,0,0,0,0,0,0,0,0,0,-1,1805,1821,0,0
588,-797,0,0,0,0,0,0,0,0,0,-1,1812,1821,0,0
595,-797,0,0,0,0,0,0,0,0,0,-1,1819,1821,0,0
602,-797,0,0,0,0,0,0,0,0,0,-1,1826,1821,0,0
609,-797,0,0,0,0,0,0,0,0,0,-1,1833,1821,0,0
616,-797,0,0,0,0,0,0,0,0,0,-1,1840,1821,0,0
623,-797,0,0,0,0,0,0,0,0,0,-1,1847,1821,0,0
630,-797,0,0,0,0,0,0,0,0,0,-1,1854,1821,0,0
637,-797,0,0,0,0,0,0,0,0,0,-1,1861,1821,0,0
644,-797,0,0,0,0,0,0,0,0,0,-1,1868,1821,0,0
651,-797,0,0,0,0,0,0,0,0,0,-1,1875,1821,0,0
658,-797,0,0,0,0,0,0,0,0,0,-1,1882,1821,0,0
665,-797,0,0,0,0,0,0,0,0,0,-1,1889,1821,0,0
672,-797,0,0,0,0,0,0,0,0,0,-1,1896,1821,0,0
679,-797,0,0,0,0,0,0,0,0,0,-1,1903,1821,0,0
686,-797,0,0,0,0,0,0,0,0,0,-1,1910,1821,0,0
693,-797,0,0,0,0,0,0,0,0,0,-1,1917,1821,0,0
700,-797,0,0,0,0,0,0,0,0,0,-1,1924,1821,0,0
707,-797,0,0,0,0,0,0,0,0,0,-1,1931,1821,0,0
714,-797,0,0,0,0,0,0,0,0,0,-1,1938,1821,0,0
721,-797,0,0,0,0,0,0,0,0,0,-1,1945,1821,0,0
728,-797,0,0,0,0,0,0,0,0,0,-1,1952,1821,0,0
735,-797,0,0,0,0,0,0,0,0,0,-1,1959,1821,0,0
742,-797,0,0,0,0,0,0,0,0,0,-1,1966,1821,0,0
749,-797,0,0,0,0,0,0,0,0,0,-1,1973,1821,0,0
756,-797,0,0,0,0,0,0,0,0,0,-1,1980,1821,0,0
763,-797,0,0,0,0,0,0,0,0,0,-1,1987,1821,0,0
770,-797,0,0,0,0,0,0,0,0,0,-1,1994,1821,0,0
777,-797,0,0,0,0,0,0,0,0,0,-1,2001,1821,0,0
784,-797,0,0,0,0,0,0,0,0,0,-1,2008,1821,0,0
791,-797,0,0,0,0,0,0,0,0,0,-1,2015,1821,0,0
798,-797,0,0,0,0,0,0,0,0,0,-1,2022,1821,0,0
805,-797,0,0,0,0,0,0,0,0,0,-1,2029,1821,0,0
812,-797,0,0,0,0,0,0,0,0,0,-1,2036,1821,0,0
-700,-804,0,0,0,0,0,0,0,0,0,-1,524,1828,0,0
-693,-804,0,0,0,0,0,0,0,0,0,-1,531,1828,0,0
-686,-804,0,0,0,0,0,0,0,0,0,-1,538,1828,0,0
-679,-804,0,0,0,0,0,0,0,0,0,-1,545,1828,0,0
-672,-804,0,0,0,0,0,0,0,0,0,-1,552,1828,0,0
-665,-804,0,0,0,0,0,0,0,0,0,-1,559,1828,0,0
-658,-804,0,0,0,0,0,0,0,0,0,-1,566,1828,0,0
-651,-804,0,0,0,0,0,0,0,0,0,-1,573,1828,0,0
-644,-804,0,0,0,0,0,0,0,0,0,-1,580,1828,0,0
-637,-804,0,0,0,0,0,0,0,0,0,-1,587,1828,0,0
-630,-804,0,0,0,0,0,0,0,0,0,-1,594,1828,0,0
-623,-804,0,0,0,0,0,0,0,0,0,-1,601,1828,0,0
-616,-804,0,0,0,0,0,0,0,0,0,-1,608,1828,0,0
-609,-804,0,0,0,0,0,0,0,0,0,-1,615,1828,0,0
-602,-804,0,0,0,0,0,0,0,0,0,-1,622,1828,0,0
-595,-804,0,0,0,0,0,0,0,0,0,-1,629,1828,0,0
-588,-804,0,0,0,0,0,0,0,0,0,-1,636,1828,0,0
-581,-804,0,0,0,0,0,0,0,0,0,-1,643,1828,0,0
-574,-804,0,0,0,0,0,0,0,0,0,-1,650,1828,0,0
-567,-804,0,0,0,0,0,0,0,0,0,-1,657,1828,0,0
-560,-804,0,0,0,0,0,0,0,0,0,-1,664,1828,0,0
-553,-804,0,0,0,0,0,0,0,0,0,-1,671,1828,0,0
-546,-804,0,0,0,0,0,0,0,0,0,-1,678,1828,0,0
-539,-804,0,0,0,0,0,0,0,0,0,-1,685,1828,0,0
-532,-804,0,0,0,0,0,0,0,0,0,-1,692,1828,0,0
-525,-804,0,0,0,0,0,0,0,0,0,-1,699,1828,0,0
-518,-804,0,0,0,0,0,0,0,0,0,-1,706,1828,0,0
-511,-804,0,0,0,0,0,0,0,0,0,-1,713,1828,0,0
-504,-804,0,0,0,0,0,0,0,0,0,-1,720,1828,0,0
-497,-804,0,0,0,0,0,0,0,0,0,-1,727,1828,0,0
-490,-804,0,0,0,0,0,0,0,0,0,-1,734,1828,0,0
-483,-804,0,0,0,0,0,0,0,0,0,-1,741,1828,0,0
-476,-804,0,0,0,0,0,0,0,0,0,-1,748,1828,0,0
-469,-804,0,0,0,0,0,0,0,0,0,-1,755,1828,0,0
-462,-804,0,0,0,0,0,0,0,0,0,-1,762,1828,0,0
-455,-804,0,0,0,0,0,0,0,0,0,-1,769,1828,0,0
-448,-804,0,0,0,0,0,0,0,0,0,-1,776,1828,0,0
-441,-804,0,0,0,0,0,0,0,0,0,-1,783,1828,0,0
-434,-804,0,0,0,0,0,0,0,0,0,-1,790,1828,0,0
-427,-804,0,0,0,0,0,0,0,0,0,-1,797,1828,0,0
-420,-804,0,0,0,0,0,0,0,0,0,-1,804,1828,0,0
-413,-804,0,0,0,0,0,0,0,0,0,-1,811,1828,0,0
-406,-804,0,0,0,0,0,0,0,0,0,-1,818,1828,0,0
-399,-804,0,0,0,0,0,0,0,0,0,-1,825,1828,0,0
-392,-804,0,0,0,0,0,0,0,0,0,-1,832,1828,0,0
-385,-804,0,0,0,0,0,0,0,0,0,-1,839,1828,0,0
-378,-804,0,0,0,0,0,0,0,0,0,-1,846,1828,0,0
-371,-804,0,0,0,0,0,0,0,0,0,-1,853,1828,0,0
-364,-804,0,0,0,0,0,0,0,0,0,-1,860,1828,0,0
-357,-804,0,0,0,0,0,0,0,0,0,-1,867,1828,0,0
-350,-804,0,0,0,0,0,0,0,0,0,-1,874,1828,0,0
-343,-804,0,0,0,0,0,0,0,0,0,-1,881,1828,0,0
-336,-804,0,0,0,0,0,0,0,0,0,-1,888,1828,0,0
-329,-804,0,0,0,0,0,0,0,0,0,-1,895,1828,0,0
-322,-804,0,0,0,0,0,0,0,0,0,-1,902,1828,0,0
-315,-804,0,0,0,0,0,0,0,0,0,-1,909,1828,0,0
-308,-804,0,0,0,0,0,0,0,0,0,-1,916,1828,0,0
-301,-804,0,0,0,0,0,0,0,0,0,-1,923,1828,0,0
-294,-804,0,0,0,0,0,0,0,0,0,-1,930,1828,0,0
-287,-804,0,0,0,0,0,0,0,0,0,-1,937,1828,0,0
-280,-804,0,0,0,0,0,0,0,0,0,-1,944,1828,0,0
-273,-804,0,0,0,0,0,0,0,0,0,-1,951,1828,0,0
-266,-804,0,0,0,0,0,0,0,0,0,-1,958,1828,0,0
-259,-804,0,0,0,0,0,0,0,0,0,-1,965,1828,0,0
-252,-804,0,0,0,0,0,0,0,0,0,-1,972,1828,0,0
-245,-804,0,0,0,0,0,0,0,0,0,-1,979,1828,0,0
-238,-804,0,0,0,0,0,0,0,0,0,-1,986,1828,0,0
-231,-804,0,0,0,0,0,0,0,0,0,-1,993,1828,0,0
-224,-804,0,0,0,0,0,0,0,0,0,-1,1000,1828,0,0
-217,-804,0,0,0,0,0,0,0,0,0,-1,1007,1828,0,0
-210,-804,0,0,0,0,0,0,0,0,0,-1,1014,1828,0,0
-203,-804,0,0,0,0,0,0,0,0,0,-1,1021,1828,0,0
-196,-804,0,0,0,0,0,0,0,0,0,-1,1028,1828,0,0
-189,-804,0,0,0,0,0,0,0,0,0,-1,1035,1828,0,0
-182,-804,0,0,0,0,0,0,0,0,0,-1,1042,1828,0,0
-175,-804,0,0,0,0,0,0,0,0,0,-1,1049,1828,0,0
-168,-804,0,0,0,0,0,0,0,0,0,-1,1056,1828,0,0
-161,-804,0,0,0,0,0,0,0,0,0,-1,1063,1828,0,0
-154,-804,0,0,0,0,0,0,0,0,0,-1,1070,1828,0,0
-147,-804,0,0,0,0,0,0,0,0,0,-1,1077,1828,0,0
-140,-804,0,0,0,0,0,0,0,0,0,-1,1084,1828,0,0
-133,-804,0,0,0,0,0,0,0,0,0,-1,1091,1828,0,0
-126,-804,0,0,0,0,0,0,0,0,0,-1,1098,1828,0,0
-119,-804,0,0,0,0,0,0,0,0,0,-1,1105,1828,0,0
-112,-804,0,0,0,0,0,0,0,0,0,-1,1112,1828,0,0
-105,-804,0,0,0,0,0,0,0,0,0,-1,1119,1828,0,0
-98,-804,0,0,0,0,0,0,0,0,0,-1,1126,1828,0,0
-91,-804,0,0,0,0,0,0,0,0,0,-1,1133,1828,0,0
-84,-804,0,0,0,0,0,0,0,0,0,-1,1140,1828,0,0
-77,-804,0,0,0,0,0,0,0,0,0,-1,1147,1828,0,0
-70,-804,0,0,0,0,0,0,0,0,0,-1,1154,1828,0,0
-63,-804,0,0,0,0,0,0,0,0,0,-1,1161,1828,0,0
-56,-804,0,0,0,0,0,0,0,0,0,-1,1168,1828,0,0
-49,-804,0,0,0,0,0,0,0,0,0,-1,1175,1828,0,0
-42,-804,0,0,0,0,0,0,0,0,0,-1,1182,1828,0,0
-35,-804,0,0,0,0,0,0,0,0,0,-1,1189,1828,0,0
-28,-804,0,0,0,0,0,0,0,0,0,-1,1196,1828,0,0
-21,-804,0,0,0,0,0,0,0,0,0,-1,1203,1828,0,0
-14,-804,0,0,0,0,0,0,0,0,0,-1,1210,1828,0,0
-7,-804,0,0,0,0,0,0,0,0,0,-1,1217,1828,0,0
0,-804,0,0,0,0,0,0,0,0,0,-1,1224,1828,0,0
7,-804,0,0,0,0,0,0,0,0,0,-1,1231,1828,0,0
14,-804,0,0,0,0,0,0,0,0,0,-1,1238,1828,0,0
21,-804,0,0,0,0,0,0,0,0,0,-1,1245,1828,0,0
28,-804,0,0,0,0,0,0,0,0,0,-1,1252,1828,0,0
35,-804,-2.99792,-0.122803,0,0,0,0,0,0,0,-1,1259,1828,-2.99789,0.122834
42,-804,-2.40564,0.203857,0,0,0,0,0,0,0,-1,1266,1828,-2.40559,-0.203872
49,-804,-1.81323,0.530518,0,0,0,0,0,0,0,-1,1273,1828,-1.81329,-0.530578
56,-804,-3.49451,3.36255,0,0,0,0,0,0,0,-1,1280,1828,-3.49445,-3.36251
63,-804,-2.62317,4.56641,0,0,0,0,0,0,0,-1,1287,1828,-2.62315,-4.5664
70,-804,-1.82739,5.79797,0,0,0,0,0,0,0,-1,1294,1828,-1.82737,-5.79794
77,-804,2.12866,0.7146,0,0,0,0,0,0,0,-1,1301,1828,2.12869,-0.71461
84,-804,3.5481,5.45679,0,0,0,0,0,0,0,-1,1308,1828,3.54807,-5.45684
91,-804,0,0,0,0,0,0,0,0,0,-1,1315,1828,0,0
98,-804,0,0,0,0,0,0,0,0,0,-1,1322,1828,0,0
105,-804,0,0,0,0,0,0,0,0,0,-1,1329,1828,0,0
112,-804,0,0,0,0,0,0,0,0,0,-1,1336,1828,0,0
119,-804,0,0,0,0,0,0,0,0,0,-1,1343,1828,0,0
126,-804,0,0,0,0,0,0,0,0,0,-1,1350,1828,0,0
133,-804,0,0,0,0,0,0,0,0,0,-1,1357,1828,0,0
140,-804,0,0,0,0,0,0,0,0,0,-1,1364,1828,0,0
147,-804,0,0,0,0,0,0,0,0,0,-1,1371,1828,0,0
154,-804,0,0,0,0,0,0,0,0,0,-1,1378,1828,0,0
161,-804,0,0,0,0,0,0,0,0,0,-1,1385,1828,0,0
168,-804,0,0,0,0,0,0,0,0,0,-1,1392,1828,0,0
175,-804,0,0,0,0,0,0,0,0,0,-1,1399,1828,0,0
182,-804,0,0,0,0,0,0,0,0,0,-1,1406,1828,0,0
189,-804,0,0,0,0,0,0,0,0,0,-1,1413,1828,0,0
196,-804,0,0,0,0,0,0,0,0,0,-1,1420,1828,0,0
203,-804,0,0,0,0,0,0,0,0,0,-1,1427,1828,0,0
210,-804,0,0,0,0,0,0,0,0,0,-1,1434,1828,0,0
217,-804,0,0,0,0,0,0,0,0,0,-1,1441,1828,0,0
224,-804,0,0,0,0,0,0,0,0,0,-1,1448,1828,0,0
231,-804,0,0,0,0,0,0,0,0,0,-1,1455,1828,0,0
238,-804,0,0,0,0,0,0,0,0,0,-1,1462,1828,0,0
245,-804,0,0,0,0,0,0,0,0,0,-1,1469,1828,0,0
252,-804,0,0,0,0,0,0,0,0,0,-1,1476,1828,0,0
259,-804,0,0,0,0,0,0,0,0,0,-1,1483,1828,0,0
266,-804,0,0,0,0,0,0,0,0,0,-1,1490,1828,0,0
273,-804,0,0,0,0,0,0,0,0,0,-1,1497,1828,0,0
280,-804,0,0,0,0,0,0,0,0,0,-1,1504,1828,0,0
287,-804,0,0,0,0,0,0,0,0,0,-1,1511,1828,0,0
294,-804,0,0,0,0,0,0,0,0,0,-1,1518,1828,0,0
301,-804,0,0,0,0,0,0,0,0,0,-1,1525,1828,0,0
308,-804,0,0,0,0,0,0,0,0,0,-1,1532,1828,0,0
315,-804,0,0,0,0,0,0,0,0,0,-1,1539,1828,0,0
322,-804,0,0,0,0,0,0,0,0,0,-1,1546,1828,0,0
329,-804,0,0,0,0,0,0,0,0,0,-1,1553,1828,0,0
336,-804,0,0,0,0,0,0,0,0,0,-1,1560,1828,0,0
343,-804,0,0,0,0,0,0,0,0,0,-1,1567,1828,0,0
350,-804,0,0,0,0,0,0,0,0,0,-1,1574,1828,0,0
357,-804,0,0,0,0,0,0,0,0,0,-1,1581,1828,0,0
364,-804,0,0,0,0,0,0,0,0,0,-1,1588,1828,0,0
371,-804,0,0,0,0,0,0,0,0,0,-1,1595,1828,0,0
378,-804,0,0,0,0,0,0,0,0,0,-1,1602,1828,0,0
385,-804,0,0,0,0,0,0,0,0,0,-1,1609,1828,0,0
392,-804,0,0,0,0,0,0,0,0,0,-1,1616,1828,0,0
399,-804,0,0,0,0,0,0,0,0,0,-1,1623,1828,0,0
406,-804,0,0,0,0,0,0,0,0,0,-1,1630,1828,0,0
413,-804,0,0,0,0,0,0,0,0,0,-1,1637,1828,0,0
420,-804,0,0,0,0,0,0,0,0,0,-1,1644,1828,0,0
427,-804,0,0,0,0,0,0,0,0,0,-1,1651,1828,0,0
434,-804,0,0,0,0,0,0,0,0,0,-1,1658,1828,0,0
441,-804,0,0,0,0,0,0,0,0,0,-1,1665,1828,0,0
448,-804,0,0,0,0,0,0,0,0,0,-1,1672,1828,0,0
455,-804,0,0,0,0,0,0,0,0,0,-1,1679,1828,0,0
462,-804,0,0,0,0,0,0,0,0,0,-1,1686,1828,0,0
469,-804,0,0,0,0,0,0,0,0,0,-1,1693,1828,0,0
476,-804,0,0,0,0,0,0,0,0,0,-1,1700,1828,0,0
483,-804,0,0,0,0,0,0,0,0,0,-1,1707,1828,0,0
490,-804,0,0,0,0,0,0,0,0,0,-1,1714,1828,0,0
497,-804,0,0,0,0,0,0,0,0,0,-1,1721,1828,0,0
504,-804,0,0,0,0,0,0,0,0,0,-1,1728,1828,0,0
511,-804,0,0,0,0,0,0,0,0,0,-1,1735,1828,0,0
518,-804,0,0,0,0,0,0,0,0,0,-1,1742,1828,0,0
525,-804,0,0,0,0,0,0,0,0,0,-1,1749,1828,0,0
532,-804,0,0,0,0,0,0,0,0,0,-1,1756,1828,0,0
539,-804,0,0,0,0,0,0,0,0,0,-1,1763,1828,0,0
546,-804,0,0,0,0,0,0,0,0,0,-1,1770,1828,0,0
553,-804,0,0,0,0,0,0,0,0,0,-1,1777,1828,0,0
560,-804,0,0,0,0,0,0,0,0,0,-1,1784,1828,0,0
567,-804,0,0,0,0,0,0,0,0,0,-1,1791,1828,0,0
574,-804,0,0,0,0,0,0,0,0,0,-1,1798,1828,0,0
581,-804,0,0,0,0,0,0,0,0,0,-1,1805,1828,0,0
588,-804,0,0,0,0,0,0,0,0,0,-1,1812,1828,0,0
595,-804,0,0,0,0,0,0,0,0,0,-1,1819,1828,0,0
602,-804,0,0,0,0,0,0,0,0,0,-1,1826,1828,0,0
609,-804,0,0,0,0,0,0,0,0,0,-1,1833,1828,0,0
616,-804,0,0,0,0,0,0,0,0,0,-1,1840,1828,0,0
623,-804,0,0,0,0,0,0,0,0,0,-1,1847,1828,0,0
630,-804,0,0,0,0,0,0,0,0,0,-1,1854,1828,0,0
637,-804,0,0,0,0,0,0,0,0,0,-1,1861,1828,0,0
644,-804,0,0,0,0,0,0,0,0,0,-1,1868,1828,0,0
651,-804,0,0,0,0,0,0,0,0,0,-1,1875,1828,0,0
658,-804,0,0,0,0,0,0,0,0,0,-1,1882,1828,0,0
665,-804,0,0,0,0,0,0,0,0,0,-1,1889,1828,0,0
672,-804,0,0,0,0,0,0,0,0,0,-1,1896,1828,0,0
679,-804,0,0,0,0,0,0,0,0,0,-1,1903,1828,0,0
686,-804,0,0,0,0,0,0,0,0,0,-1,1910,1828,0,0
693,-804,0,0,0,0,0,0,0,0,0,-1,1917,1828,0,0
700,-804,0,0,0,0,0,0,0,0,0,-1,1924,1828,0,0
707,-804,0,0,0,0,0,0,0,0,0,-1,1931,1828,0,0
714,-804,0,0,0,0,0,0,0,0,0,-1,1938,1828,0,0
721,-804,0,0,0,0,0,0,0,0,0,-1,1945,1828,0,0
728,-804,0,0,0,0,0,0,0,0,0,-1,1952,1828,0,0
735,-804,0,0,0,0,0,0,0,0,0,-1,1959,1828,0,0
742,-804,0,0,0,0,0,0,0,0,0,-1,1966,1828,0,0
749,-804,0,0,0,0,0,0,0,0,0,-1,1973,1828,0,0
756,-804,0,0,0,0,0,0,0,0,0,-1,1980,1828,0,0
763,-804,0,0,0,0,0,0,0,0,0,-1,1987,1828,0,0
770,-804,0,0,0,0,0,0,0,0,0,-1,1994,1828,0,0
777,-804,0,0,0,0,0,0,0,0,0,-1,2001,1828,0,0
784,-804,0,0,0,0,0,0,0,0,0,-1,2008,1828,0,0
791,-804,0,0,0,0,0,0,0,0,0,-1,2015,1828,0,0
798,-804,0,0,0,0,0,0,0,0,0,-1,2022,1828,0,0
805,-804,0,0,0,0,0,0,0,0,0,-1,2029,1828,0,0
812,-804,0,0,0,0,0,0,0,0,0,-1,2036,1828,0,0

